Element Number,Area,Von Mises Stress
2,9.04E-03,4.84E-03
3,9.31E-03,4.71E-03
4,5.14E-03,5.26E-03
5,4.92E-03,5.45E-03
6,5.45E-03,5.41E-03
7,8.27E-03,5.13E-03
8,6.95E-03,5.20E-03
9,7.90E-03,5.41E-03
10,8.84E-03,5.45E-03
11,8.56E-03,5.28E-03
12,9.17E-03,5.07E-03
13,9.18E-03,4.89E-03
14,7.20E-03,4.88E-03
15,7.09E-03,4.96E-03
16,6.64E-03,5.12E-03
17,8.24E-03,4.57E-03
18,7.13E-03,5.39E-03
19,8.09E-03,4.73E-03
20,7.61E-03,4.44E-03
21,7.47E-03,4.59E-03
22,8.69E-03,4.50E-03
23,8.40E-03,4.59E-03
24,8.31E-03,4.40E-03
25,7.92E-03,4.70E-03
26,7.23E-03,4.82E-03
27,7.10E-03,4.99E-03
28,7.57E-03,5.18E-03
29,5.21E-03,5.35E-03
30,7.73E-03,4.28E-03
31,4.00E-03,5.67E-03
32,5.30E-03,5.55E-03
33,7.05E-03,5.54E-03
34,6.09E-03,5.53E-03
35,6.31E-03,5.53E-03
36,7.19E-03,5.58E-03
37,7.75E-03,5.62E-03
38,7.57E-03,5.64E-03
39,8.00E-03,5.48E-03
40,8.45E-03,5.34E-03
41,8.48E-03,5.16E-03
42,8.37E-03,5.02E-03
43,7.92E-03,4.87E-03
44,7.29E-03,4.73E-03
45,6.75E-03,4.61E-03
46,7.06E-03,4.46E-03
47,7.18E-03,4.30E-03
48,7.03E-03,4.15E-03
54,8.03E-03,6.69E-03
55,8.33E-03,6.47E-03
56,7.98E-03,6.71E-03
57,4.30E-03,6.98E-03
58,6.14E-03,7.24E-03
59,5.66E-03,7.37E-03
60,4.08E-03,7.06E-03
61,3.50E-03,6.77E-03
62,5.02E-03,8.11E-03
63,7.27E-03,8.34E-03
64,6.29E-03,8.48E-03
65,4.76E-03,8.24E-03
66,4.17E-03,7.99E-03
67,7.45E-03,1.98E-03
68,8.83E-03,2.20E-03
69,8.34E-03,1.94E-03
70,7.53E-03,2.40E-03
71,6.94E-03,4.10E-03
72,6.04E-03,4.08E-03
73,7.04E-03,2.41E-04
74,7.05E-03,4.48E-04
75,6.66E-03,3.01E-03
76,6.36E-03,3.31E-03
77,8.49E-03,8.59E-03
78,9.59E-03,8.34E-03
79,5.30E-03,7.30E-03
80,5.18E-03,7.02E-03
81,5.32E-03,7.21E-03
82,5.25E-03,8.20E-03
83,5.16E-03,8.37E-03
84,6.03E-03,8.44E-03
85,4.82E-03,4.58E-03
86,3.61E-03,4.52E-03
87,4.80E-03,3.75E-03
88,5.39E-03,4.02E-03
89,5.22E-03,4.29E-03
90,4.02E-03,4.57E-03
91,3.76E-03,4.85E-03
92,5.81E-03,4.70E-03
93,4.74E-03,5.06E-03
94,5.48E-03,5.22E-03
95,6.10E-03,4.88E-03
96,5.86E-03,5.37E-03
97,6.50E-03,5.06E-03
98,6.32E-03,5.56E-03
99,6.46E-03,5.24E-03
100,6.36E-03,5.73E-03
101,6.62E-03,5.41E-03
102,6.50E-03,5.90E-03
103,6.49E-03,5.57E-03
104,6.57E-03,6.05E-03
105,6.36E-03,5.71E-03
106,6.48E-03,6.21E-03
107,6.10E-03,5.84E-03
108,6.15E-03,6.36E-03
109,4.91E-03,5.99E-03
110,5.62E-03,6.47E-03
111,5.67E-03,6.24E-03
112,7.24E-03,6.46E-03
113,7.03E-03,6.62E-03
114,6.49E-03,6.73E-03
115,5.91E-03,6.85E-03
116,5.13E-03,6.96E-03
117,6.04E-03,3.32E-03
118,5.53E-03,3.46E-03
119,6.89E-03,3.74E-03
120,6.53E-03,4.24E-03
121,6.57E-03,4.43E-03
122,6.68E-03,4.62E-03
123,6.66E-03,4.79E-03
124,6.76E-03,4.97E-03
125,6.60E-03,5.13E-03
126,6.52E-03,5.29E-03
127,6.16E-03,5.46E-03
128,6.08E-03,5.64E-03
129,6.29E-03,5.86E-03
130,6.60E-03,5.99E-03
131,6.99E-03,6.18E-03
132,6.36E-03,6.33E-03
133,5.87E-03,6.46E-03
134,5.23E-03,6.60E-03
135,7.11E-03,2.81E-03
136,8.42E-03,3.05E-03
137,7.34E-03,3.29E-03
138,8.01E-03,3.49E-03
139,8.13E-03,3.70E-03
140,7.16E-03,3.91E-03
141,6.93E-03,4.06E-03
142,6.95E-03,4.23E-03
143,6.88E-03,4.41E-03
144,6.91E-03,4.58E-03
145,6.83E-03,4.76E-03
146,6.72E-03,4.93E-03
147,6.71E-03,5.10E-03
148,6.69E-03,5.29E-03
149,6.69E-03,5.48E-03
150,6.78E-03,5.66E-03
151,6.64E-03,5.81E-03
152,6.43E-03,5.97E-03
153,6.12E-03,6.14E-03
154,5.67E-03,6.31E-03
155,5.84E-03,6.51E-03
156,8.11E-03,7.13E-03
157,7.58E-03,7.10E-03
158,5.75E-03,7.34E-03
159,6.20E-03,7.26E-03
160,6.68E-03,7.17E-03
161,7.19E-03,7.06E-03
162,7.73E-03,6.93E-03
163,7.68E-03,6.91E-03
164,6.74E-03,6.83E-03
165,6.63E-03,6.72E-03
166,6.71E-03,6.58E-03
167,6.61E-03,6.42E-03
168,6.54E-03,6.25E-03
169,6.24E-03,6.06E-03
170,6.05E-03,5.87E-03
171,5.69E-03,5.66E-03
172,5.09E-03,5.41E-03
173,4.47E-03,5.16E-03
174,4.84E-03,4.88E-03
175,5.22E-03,4.62E-03
176,5.30E-03,4.37E-03
177,4.47E-03,4.15E-03
178,4.87E-03,3.72E-03
179,6.24E-03,2.60E-03
180,8.05E-03,2.23E-03
181,6.15E-03,7.27E-03
182,6.94E-03,7.64E-03
183,7.20E-03,7.71E-03
184,7.37E-03,7.70E-03
185,7.24E-03,7.66E-03
186,6.83E-03,7.63E-03
187,6.46E-03,7.70E-03
188,6.45E-03,7.73E-03
189,6.60E-03,7.69E-03
190,6.91E-03,7.63E-03
191,7.24E-03,7.56E-03
192,7.44E-03,7.50E-03
193,7.38E-03,7.43E-03
194,7.37E-03,7.35E-03
195,7.03E-03,7.24E-03
196,6.95E-03,7.12E-03
197,6.82E-03,6.97E-03
198,6.63E-03,6.80E-03
199,6.46E-03,6.60E-03
200,6.34E-03,6.39E-03
201,6.08E-03,6.14E-03
202,5.94E-03,5.86E-03
203,5.76E-03,5.54E-03
204,5.67E-03,5.24E-03
205,5.56E-03,4.94E-03
206,5.59E-03,4.64E-03
207,5.95E-03,4.25E-03
208,6.45E-03,3.84E-03
209,6.30E-03,3.41E-03
210,6.57E-03,3.02E-03
211,7.11E-03,2.61E-03
212,7.01E-03,2.23E-03
213,6.48E-03,1.95E-03
214,5.69E-03,1.67E-03
215,5.84E-03,1.37E-03
216,4.51E-03,1.70E-03
217,6.99E-03,2.58E-03
218,7.70E-03,2.76E-03
219,7.86E-03,3.00E-03
220,7.78E-03,3.21E-03
221,7.68E-03,3.37E-03
222,7.50E-03,3.56E-03
223,7.30E-03,3.74E-03
224,7.20E-03,3.91E-03
225,7.15E-03,4.07E-03
226,7.11E-03,4.24E-03
227,7.12E-03,4.41E-03
228,7.12E-03,4.59E-03
229,7.05E-03,4.77E-03
230,6.99E-03,4.95E-03
231,6.94E-03,5.13E-03
232,6.91E-03,5.31E-03
233,6.81E-03,5.48E-03
234,6.70E-03,5.65E-03
235,6.42E-03,5.85E-03
236,6.38E-03,6.04E-03
237,7.12E-03,6.26E-03
238,5.96E-03,6.87E-03
239,7.56E-03,7.42E-03
240,7.23E-03,9.22E-04
241,7.95E-03,1.17E-03
242,6.86E-03,1.54E-03
243,6.90E-03,1.84E-03
244,7.05E-03,2.20E-03
245,7.12E-03,2.58E-03
246,6.92E-03,3.02E-03
247,6.72E-03,3.49E-03
248,6.60E-03,3.96E-03
249,6.48E-03,4.42E-03
250,6.27E-03,4.86E-03
251,6.21E-03,5.28E-03
252,6.25E-03,5.65E-03
253,6.25E-03,6.01E-03
254,6.37E-03,6.35E-03
255,6.61E-03,6.67E-03
256,6.63E-03,6.94E-03
257,6.77E-03,7.18E-03
258,6.90E-03,7.38E-03
259,7.04E-03,7.56E-03
260,7.19E-03,7.70E-03
261,7.26E-03,7.82E-03
262,7.36E-03,7.91E-03
263,7.42E-03,7.99E-03
264,7.43E-03,8.05E-03
265,7.31E-03,8.08E-03
266,7.13E-03,8.12E-03
267,7.08E-03,8.14E-03
268,7.12E-03,8.14E-03
269,7.42E-03,8.10E-03
270,7.38E-03,8.10E-03
271,7.39E-03,8.12E-03
272,7.55E-03,8.13E-03
273,7.63E-03,8.10E-03
274,8.43E-03,7.97E-03
275,9.51E-03,7.89E-03
276,7.70E-03,7.99E-03
277,6.35E-03,8.11E-03
278,6.36E-03,6.24E-04
279,7.25E-03,1.02E-03
280,8.99E-03,1.30E-03
281,7.40E-03,1.63E-03
282,7.83E-03,2.39E-03
283,7.74E-03,2.55E-03
284,7.81E-03,2.73E-03
285,7.80E-03,2.92E-03
286,7.69E-03,3.10E-03
287,7.59E-03,3.27E-03
288,7.48E-03,3.44E-03
289,7.37E-03,3.61E-03
290,7.36E-03,3.77E-03
291,7.38E-03,3.94E-03
292,7.36E-03,4.10E-03
293,7.35E-03,4.28E-03
294,7.28E-03,4.45E-03
295,7.22E-03,4.63E-03
296,7.18E-03,4.81E-03
297,7.16E-03,4.99E-03
298,7.08E-03,5.17E-03
299,6.99E-03,5.36E-03
300,7.12E-03,5.55E-03
301,7.27E-03,5.77E-03
302,7.60E-03,5.97E-03
303,7.62E-03,6.18E-03
304,7.28E-03,6.38E-03
305,6.58E-03,6.61E-03
306,6.22E-03,6.81E-03
307,6.57E-03,7.01E-03
308,6.63E-03,7.20E-03
309,8.05E-03,7.40E-03
310,7.68E-03,7.67E-03
311,6.40E-03,7.84E-03
312,6.92E-03,3.49E-04
313,7.32E-03,6.32E-04
314,7.65E-03,9.48E-04
315,7.94E-03,1.21E-03
316,8.14E-03,1.49E-03
317,8.12E-03,1.74E-03
318,8.19E-03,1.94E-03
319,8.12E-03,2.15E-03
320,7.92E-03,2.34E-03
321,7.82E-03,2.51E-03
322,7.79E-03,2.67E-03
323,7.76E-03,2.84E-03
324,7.74E-03,3.01E-03
325,7.72E-03,3.17E-03
326,7.69E-03,3.33E-03
327,7.67E-03,3.49E-03
328,7.64E-03,3.66E-03
329,7.60E-03,3.82E-03
330,7.55E-03,3.99E-03
331,7.50E-03,4.16E-03
332,7.45E-03,4.33E-03
333,7.43E-03,4.51E-03
334,7.41E-03,4.69E-03
335,7.41E-03,4.88E-03
336,7.43E-03,5.08E-03
337,7.44E-03,5.28E-03
338,7.57E-03,5.48E-03
339,7.66E-03,5.69E-03
340,7.57E-03,5.90E-03
341,7.39E-03,6.12E-03
342,7.31E-03,6.35E-03
343,7.21E-03,6.58E-03
344,6.96E-03,6.79E-03
345,7.24E-03,6.99E-03
346,7.38E-03,7.20E-03
347,7.26E-03,7.40E-03
348,6.59E-03,7.62E-03
349,6.53E-03,7.83E-03
350,7.12E-03,8.00E-03
351,6.69E-03,8.45E-03
352,7.51E-03,8.40E-03
353,8.02E-03,8.38E-03
354,8.17E-03,8.41E-03
355,7.85E-03,8.46E-03
356,7.69E-03,8.52E-03
357,7.61E-03,8.55E-03
358,7.55E-03,8.57E-03
359,7.40E-03,8.57E-03
360,7.36E-03,8.59E-03
361,7.33E-03,8.61E-03
362,7.39E-03,8.62E-03
363,7.48E-03,8.62E-03
364,7.59E-03,8.60E-03
365,7.59E-03,8.56E-03
366,7.55E-03,8.51E-03
367,7.49E-03,8.43E-03
368,7.41E-03,8.33E-03
369,7.26E-03,8.19E-03
370,7.21E-03,8.02E-03
371,7.10E-03,7.81E-03
372,7.01E-03,7.55E-03
373,6.96E-03,7.25E-03
374,6.81E-03,6.90E-03
375,6.73E-03,6.52E-03
376,6.74E-03,6.09E-03
377,6.77E-03,5.63E-03
378,6.90E-03,5.14E-03
379,6.81E-03,4.62E-03
380,6.92E-03,4.08E-03
381,7.06E-03,3.54E-03
382,7.19E-03,3.02E-03
383,7.28E-03,2.53E-03
384,7.23E-03,2.08E-03
385,7.23E-03,1.67E-03
386,7.31E-03,1.28E-03
387,7.14E-03,9.31E-04
388,6.66E-03,6.63E-04
389,5.62E-03,2.53E-04
390,5.84E-03,1.83E-04
391,5.47E-03,1.92E-04
392,7.76E-03,2.41E-04
393,7.33E-03,2.58E-04
394,7.18E-03,4.21E-04
395,7.41E-03,6.29E-04
396,7.68E-03,8.70E-04
397,7.88E-03,1.12E-03
398,8.04E-03,1.35E-03
399,8.12E-03,1.57E-03
400,8.08E-03,1.77E-03
401,8.06E-03,1.96E-03
402,7.98E-03,2.14E-03
403,7.90E-03,2.30E-03
404,7.89E-03,2.46E-03
405,7.87E-03,2.61E-03
406,7.86E-03,2.77E-03
407,7.84E-03,2.93E-03
408,7.83E-03,3.08E-03
409,7.82E-03,3.24E-03
410,7.80E-03,3.40E-03
411,7.77E-03,3.56E-03
412,7.74E-03,3.72E-03
413,7.71E-03,3.89E-03
414,7.69E-03,4.06E-03
415,7.67E-03,4.24E-03
416,7.66E-03,4.42E-03
417,7.66E-03,4.61E-03
418,7.67E-03,4.81E-03
419,7.68E-03,5.01E-03
420,7.68E-03,5.21E-03
421,7.75E-03,5.43E-03
422,7.71E-03,5.65E-03
423,7.71E-03,5.87E-03
424,7.61E-03,6.10E-03
425,7.49E-03,6.33E-03
426,7.47E-03,6.56E-03
427,7.47E-03,6.77E-03
428,7.51E-03,6.98E-03
429,7.27E-03,7.20E-03
430,7.07E-03,7.42E-03
431,6.93E-03,7.63E-03
432,6.65E-03,7.84E-03
433,6.51E-03,8.04E-03
434,6.91E-03,8.25E-03
435,8.49E-03,8.50E-03
436,7.01E-03,8.62E-03
437,6.73E-03,8.72E-03
438,6.82E-03,8.72E-03
439,7.04E-03,8.74E-03
440,7.11E-03,8.78E-03
441,7.47E-03,8.80E-03
442,7.77E-03,8.83E-03
443,7.90E-03,8.85E-03
444,7.89E-03,8.88E-03
445,7.83E-03,8.92E-03
446,7.75E-03,8.98E-03
447,7.66E-03,9.02E-03
448,7.62E-03,9.05E-03
449,7.59E-03,9.08E-03
450,7.59E-03,9.12E-03
451,7.62E-03,9.15E-03
452,7.70E-03,9.17E-03
453,7.76E-03,9.17E-03
454,7.74E-03,9.16E-03
455,7.71E-03,9.13E-03
456,7.67E-03,9.08E-03
457,7.63E-03,9.00E-03
458,7.57E-03,8.88E-03
459,7.52E-03,8.71E-03
460,7.47E-03,8.50E-03
461,7.42E-03,8.23E-03
462,7.35E-03,7.90E-03
463,7.26E-03,7.52E-03
464,7.22E-03,7.07E-03
465,7.22E-03,6.57E-03
466,7.24E-03,6.03E-03
467,7.28E-03,5.45E-03
468,7.28E-03,4.83E-03
469,7.36E-03,4.20E-03
470,7.43E-03,3.58E-03
471,7.47E-03,2.98E-03
472,7.57E-03,2.43E-03
473,7.56E-03,1.91E-03
474,7.54E-03,1.43E-03
475,7.50E-03,1.02E-03
476,7.34E-03,6.77E-04
477,7.37E-03,4.15E-04
478,8.21E-03,2.36E-04
479,7.86E-03,1.99E-04
480,7.18E-03,3.51E-04
481,7.96E-03,4.68E-04
482,6.82E-03,5.82E-04
483,5.59E-03,7.06E-04
484,7.36E-03,4.97E-04
485,8.89E-03,3.00E-04
486,7.90E-03,2.68E-04
487,7.56E-03,4.34E-04
488,7.59E-03,6.25E-04
489,7.79E-03,8.29E-04
490,7.93E-03,1.04E-03
491,8.01E-03,1.24E-03
492,8.04E-03,1.44E-03
493,8.09E-03,1.62E-03
494,8.07E-03,1.79E-03
495,8.00E-03,1.96E-03
496,7.99E-03,2.12E-03
497,7.99E-03,2.27E-03
498,7.98E-03,2.41E-03
499,7.98E-03,2.56E-03
500,7.97E-03,2.71E-03
501,7.97E-03,2.85E-03
502,7.96E-03,3.00E-03
503,7.96E-03,3.16E-03
504,7.95E-03,3.31E-03
505,7.94E-03,3.47E-03
506,7.93E-03,3.64E-03
507,7.92E-03,3.81E-03
508,7.91E-03,3.99E-03
509,7.91E-03,4.17E-03
510,7.91E-03,4.36E-03
511,7.91E-03,4.56E-03
512,7.92E-03,4.76E-03
513,7.92E-03,4.97E-03
514,7.92E-03,5.18E-03
515,7.92E-03,5.40E-03
516,7.93E-03,5.63E-03
517,7.93E-03,5.86E-03
518,7.94E-03,6.09E-03
519,7.94E-03,6.32E-03
520,7.84E-03,6.55E-03
521,7.73E-03,6.78E-03
522,7.61E-03,7.00E-03
523,7.37E-03,7.22E-03
524,7.08E-03,7.45E-03
525,6.91E-03,7.68E-03
526,6.93E-03,7.90E-03
527,7.54E-03,8.12E-03
528,4.96E-03,8.83E-03
529,7.78E-03,9.23E-03
530,7.55E-03,9.18E-03
531,7.31E-03,9.12E-03
532,7.07E-03,9.07E-03
533,7.88E-03,9.27E-03
534,7.01E-03,9.04E-03
535,7.12E-03,8.98E-03
536,7.85E-03,8.92E-03
537,7.94E-03,9.31E-03
538,9.80E-03,8.85E-03
539,8.62E-03,8.90E-03
540,7.94E-03,9.37E-03
541,5.11E-03,8.95E-03
542,4.08E-03,8.97E-03
543,7.94E-03,9.43E-03
544,7.93E-03,9.49E-03
545,7.92E-03,9.55E-03
546,7.91E-03,9.61E-03
547,7.91E-03,9.66E-03
548,7.90E-03,9.71E-03
549,7.89E-03,9.74E-03
550,7.89E-03,9.77E-03
551,7.88E-03,9.78E-03
552,7.87E-03,9.78E-03
553,7.86E-03,9.76E-03
554,7.84E-03,9.71E-03
555,7.83E-03,9.61E-03
556,7.81E-03,9.47E-03
557,7.79E-03,9.26E-03
558,7.77E-03,8.98E-03
559,7.75E-03,8.64E-03
560,7.72E-03,8.21E-03
561,7.70E-03,7.70E-03
562,7.71E-03,7.11E-03
563,7.71E-03,6.46E-03
564,7.73E-03,5.77E-03
565,7.75E-03,5.04E-03
566,7.77E-03,4.30E-03
567,7.79E-03,3.58E-03
568,7.81E-03,2.88E-03
569,7.83E-03,2.26E-03
570,7.84E-03,1.69E-03
571,7.80E-03,1.17E-03
572,7.75E-03,7.43E-04
573,7.68E-03,4.41E-04
574,7.76E-03,2.96E-04
575,7.80E-03,3.31E-04
576,7.67E-03,4.36E-04
577,7.73E-03,5.90E-04
578,7.21E-03,7.49E-04
579,6.10E-03,8.09E-04
580,5.53E-03,7.85E-04
581,5.54E-03,9.44E-04
585,5.07E-03,3.16E-04
586,4.82E-03,2.74E-04
587,4.87E-03,2.44E-04
588,4.84E-03,2.19E-04
589,4.82E-03,2.01E-04
590,4.83E-03,1.92E-04
591,4.81E-03,1.92E-04
592,4.74E-03,1.98E-04
593,4.51E-03,2.12E-04
594,4.59E-03,2.27E-04
595,4.82E-03,2.88E-04
596,5.27E-03,3.60E-04
597,8.29E-03,3.73E-04
598,6.94E-03,4.18E-04
599,4.58E-03,4.45E-04
600,4.53E-03,4.95E-04
601,4.86E-03,2.38E-04
602,4.83E-03,1.98E-04
603,4.81E-03,1.62E-04
604,4.81E-03,1.35E-04
605,4.78E-03,1.18E-04
606,4.71E-03,1.14E-04
607,4.51E-03,1.16E-04
608,4.00E-03,1.27E-04
609,6.18E-03,2.23E-04
610,9.22E-03,2.56E-04
611,9.05E-03,2.88E-04
612,8.86E-03,3.17E-04
613,8.65E-03,3.47E-04
614,8.40E-03,3.78E-04
615,8.13E-03,4.08E-04
616,7.82E-03,4.37E-04
617,7.49E-03,4.66E-04
618,7.13E-03,4.93E-04
619,6.73E-03,5.18E-04
620,6.29E-03,5.41E-04
621,5.81E-03,5.60E-04
622,5.26E-03,5.72E-04
623,4.53E-03,5.29E-04
624,4.55E-03,4.88E-04
627,5.09E-03,1.07E-03
628,4.88E-03,1.04E-03
629,4.79E-03,9.92E-04
630,4.72E-03,9.36E-04
631,4.68E-03,8.82E-04
632,4.23E-03,7.99E-04
633,4.34E-03,1.12E-03
634,4.25E-03,7.01E-04
635,4.42E-03,6.45E-04
636,3.60E-03,7.75E-04
637,7.67E-03,1.20E-03
638,4.48E-03,5.89E-04
639,4.46E-03,6.43E-04
640,4.43E-03,7.11E-04
641,4.31E-03,7.71E-04
642,4.98E-03,8.40E-04
643,3.92E-03,1.32E-03
644,4.35E-03,1.19E-03
645,4.49E-03,1.20E-03
646,4.90E-03,1.18E-03
647,4.79E-03,1.11E-03
648,4.71E-03,1.04E-03
649,4.69E-03,9.68E-04
650,6.06E-03,1.42E-03
651,5.37E-03,8.79E-04
652,5.24E-03,1.18E-03
653,6.40E-03,1.18E-03
654,6.53E-03,1.44E-03
655,4.53E-03,5.32E-04
656,4.48E-03,5.80E-04
692,7.05E-03,5.35E-03
693,7.08E-03,6.67E-03
694,5.94E-03,6.39E-03
695,4.53E-03,5.83E-03
696,7.39E-03,6.94E-03
697,6.45E-03,7.63E-03
698,3.31E-03,8.46E-02
699,5.13E-03,8.59E-02
700,4.58E-03,8.69E-02
701,2.56E-03,8.55E-02
702,3.15E-03,8.39E-02
703,4.51E-03,8.10E-03
704,4.77E-03,8.77E-02
705,4.25E-03,8.57E-02
706,4.23E-03,8.34E-02
707,5.49E-03,8.78E-02
708,5.30E-03,8.55E-02
709,5.39E-03,8.30E-02
710,9.85E-03,3.19E-02
711,9.22E-03,3.23E-02
712,8.79E-03,3.02E-02
713,9.98E-03,7.45E-02
714,9.50E-03,7.65E-02
715,7.86E-03,7.89E-02
716,5.28E-03,8.48E-02
717,6.17E-03,8.69E-02
718,5.72E-03,8.76E-02
719,4.81E-03,8.32E-02
720,8.31E-03,1.24E-02
721,9.29E-03,1.21E-02
722,9.30E-03,1.22E-02
723,4.52E-03,1.76E-02
724,6.18E-03,1.76E-02
725,5.66E-03,1.80E-02
726,4.33E-03,1.80E-02
727,4.35E-03,1.79E-02
728,4.82E-03,2.85E-02
729,7.42E-03,2.88E-02
730,7.52E-03,2.72E-02
731,6.01E-03,2.75E-02
732,5.72E-03,2.94E-02
733,5.60E-03,8.81E-02
734,4.66E-03,8.23E-02
735,4.88E-03,1.27E-02
736,6.66E-03,1.28E-02
737,6.33E-03,1.31E-02
738,4.84E-03,1.30E-02
739,4.81E-03,1.29E-02
740,6.02E-03,1.85E-02
741,5.46E-03,1.84E-02
742,5.51E-03,1.83E-02
743,6.58E-03,1.90E-02
744,6.45E-03,1.89E-02
745,6.45E-03,1.87E-02
746,6.16E-03,8.77E-02
747,5.98E-03,8.52E-02
748,6.25E-03,8.24E-02
749,4.23E-03,8.08E-02
750,5.79E-03,8.05E-02
751,4.60E-03,8.57E-02
752,3.89E-03,8.45E-02
753,4.35E-03,8.21E-02
754,4.85E-03,9.04E-02
755,4.53E-03,8.78E-02
756,5.41E-03,8.37E-02
757,9.95E-03,4.73E-02
758,1.02E-02,4.47E-02
759,8.76E-03,4.12E-02
760,9.41E-03,3.07E-02
761,9.40E-03,3.49E-02
762,9.69E-03,3.53E-02
763,8.09E-03,3.32E-02
764,1.01E-02,3.08E-02
765,8.86E-03,5.19E-02
766,9.48E-03,5.34E-02
767,9.21E-03,5.04E-02
768,1.10E-02,3.41E-02
769,1.06E-02,3.07E-02
770,1.00E-02,2.92E-02
771,5.62E-03,3.01E-02
772,6.86E-03,2.99E-02
773,7.54E-03,3.09E-02
774,7.65E-03,3.13E-02
775,5.18E-03,3.92E-02
776,6.91E-03,4.09E-02
777,6.14E-03,3.83E-02
778,4.99E-03,3.69E-02
779,5.06E-03,3.65E-02
780,1.05E-02,2.84E-02
781,1.17E-02,2.91E-02
782,1.15E-02,2.96E-02
783,5.05E-03,7.60E-02
784,7.42E-03,7.76E-02
785,4.60E-03,7.91E-02
786,3.68E-03,7.66E-02
787,4.85E-03,7.48E-02
788,8.41E-03,3.11E-02
789,1.11E-02,3.03E-02
790,1.07E-02,3.12E-02
791,5.01E-03,4.11E-02
792,7.81E-03,3.83E-02
793,6.13E-03,4.24E-02
794,4.01E-03,4.36E-02
795,4.92E-03,4.47E-02
796,1.20E-02,7.79E-02
797,1.08E-02,7.68E-02
798,1.18E-02,7.55E-02
799,6.19E-03,7.08E-02
800,9.40E-03,6.67E-02
801,9.44E-03,6.13E-02
802,8.55E-03,6.34E-02
803,1.04E-02,6.41E-02
804,1.05E-02,6.22E-02
805,9.31E-03,5.48E-02
806,1.07E-02,7.73E-02
807,1.06E-02,7.71E-02
808,1.09E-02,7.54E-02
809,3.91E-03,0.10606
810,4.91E-03,0.10512
811,4.81E-03,9.10E-02
812,3.86E-03,9.21E-02
813,3.94E-03,9.29E-02
814,6.64E-03,3.22E-02
815,4.53E-03,3.30E-02
816,7.57E-03,3.95E-02
817,9.92E-03,1.08E-02
818,7.86E-03,1.13E-02
819,7.32E-03,5.40E-02
820,7.58E-03,5.07E-02
821,8.12E-03,6.03E-02
822,6.95E-03,5.90E-02
823,5.13E-03,6.67E-02
824,7.31E-03,6.53E-02
825,8.28E-03,7.38E-02
826,7.56E-03,7.32E-02
827,7.79E-03,3.29E-02
828,5.64E-03,3.24E-02
829,7.69E-03,0.10823
830,5.37E-03,0.1044
831,6.64E-03,0.10222
832,4.98E-03,0.10109
833,2.80E-03,0.12072
834,4.55E-03,0.11977
835,5.23E-03,1.59E-02
836,7.75E-03,1.57E-02
837,3.84E-03,0.20668
838,5.64E-03,0.21429
839,6.58E-03,0.22197
840,5.10E-03,4.09E-02
841,6.82E-03,3.91E-02
842,8.50E-03,3.70E-02
843,1.09E-02,3.11E-02
844,1.03E-02,3.19E-02
845,8.60E-03,3.40E-02
846,6.38E-03,2.77E-02
847,6.85E-03,3.15E-02
848,5.60E-03,3.12E-02
849,5.18E-03,2.75E-02
850,6.10E-03,2.42E-02
851,6.04E-03,2.35E-02
852,5.90E-03,7.17E-02
853,7.05E-03,7.31E-02
854,7.22E-03,7.39E-02
855,1.01E-02,0.11353
856,8.93E-03,0.10565
857,8.91E-03,0.12026
858,8.68E-03,5.00E-02
859,8.72E-03,4.72E-02
860,8.71E-03,4.41E-02
861,5.97E-03,1.84E-02
862,7.14E-03,1.68E-02
863,7.46E-03,1.49E-02
864,6.66E-03,6.33E-02
865,6.22E-03,6.16E-02
866,6.16E-03,6.52E-02
867,7.28E-03,6.47E-02
868,6.39E-03,6.57E-02
869,9.90E-03,2.53E-02
870,9.23E-03,2.36E-02
871,1.14E-02,2.50E-02
872,6.54E-03,3.16E-02
873,7.32E-03,3.10E-02
874,8.28E-03,2.96E-02
875,9.97E-03,3.12E-02
876,9.11E-03,2.77E-02
877,5.11E-03,3.26E-02
878,6.76E-03,3.26E-02
879,8.69E-03,3.24E-02
880,1.14E-02,9.14E-02
881,1.11E-02,8.53E-02
882,5.73E-03,6.80E-02
883,8.21E-03,7.34E-02
884,9.16E-03,7.96E-02
885,4.53E-03,0.11847
886,5.72E-03,0.11633
887,7.44E-03,0.10598
888,1.05E-02,0.11743
889,1.03E-02,0.11104
890,7.19E-03,8.18E-02
891,8.14E-03,8.09E-02
892,1.02E-02,8.48E-02
893,1.02E-02,8.27E-02
894,8.21E-03,1.11E-02
895,1.02E-02,1.12E-02
896,8.28E-03,7.02E-02
897,9.68E-03,7.02E-02
898,8.69E-03,6.99E-02
899,7.04E-03,6.80E-02
900,8.70E-03,6.85E-02
901,7.63E-03,6.85E-02
902,7.08E-03,4.29E-02
903,5.43E-03,4.38E-02
904,6.41E-03,1.93E-02
905,5.83E-03,2.12E-02
906,5.47E-03,4.77E-02
907,4.75E-03,5.15E-02
908,5.37E-03,5.11E-02
909,6.85E-03,6.00E-02
910,8.32E-03,6.35E-02
911,6.74E-03,5.73E-02
912,6.79E-03,5.52E-02
913,5.41E-03,2.18E-02
914,4.91E-03,2.26E-02
915,5.67E-03,2.34E-02
916,6.14E-03,5.28E-02
917,5.69E-03,4.99E-02
918,6.24E-03,4.83E-02
919,7.30E-03,2.88E-02
920,7.79E-03,2.71E-02
921,5.55E-03,5.61E-02
922,5.69E-03,6.13E-02
923,5.54E-03,5.90E-02
924,7.28E-03,3.31E-02
925,7.00E-03,3.38E-02
926,6.67E-03,3.25E-02
927,6.93E-03,3.19E-02
928,5.72E-03,6.57E-02
929,8.97E-03,7.17E-02
930,5.68E-03,3.72E-02
931,4.25E-03,4.08E-02
932,2.78E-03,4.08E-02
933,5.28E-03,3.85E-02
934,5.67E-03,8.66E-02
935,5.95E-03,8.46E-02
936,5.78E-03,7.97E-02
937,5.40E-03,2.58E-02
938,5.42E-03,2.60E-02
939,5.30E-03,2.52E-02
940,5.20E-03,9.92E-02
941,4.97E-03,0.10421
942,4.95E-03,0.10204
943,7.40E-03,9.32E-02
944,7.27E-03,0.10423
945,6.75E-03,0.10529
946,7.26E-03,9.62E-02
947,5.66E-03,2.26E-02
948,6.44E-03,2.20E-02
949,5.95E-03,2.26E-02
950,4.89E-03,0.12102
951,4.57E-03,0.12308
952,3.77E-03,0.12005
953,7.03E-03,3.41E-02
954,8.39E-03,3.54E-02
955,7.37E-03,3.68E-02
956,4.06E-03,6.48E-02
957,3.82E-03,6.07E-02
958,3.30E-03,6.32E-02
959,5.00E-03,8.15E-02
960,4.71E-03,0.19598
961,6.29E-03,0.19791
962,6.41E-03,8.88E-02
963,6.14E-03,8.85E-02
964,5.94E-03,1.32E-02
965,6.26E-03,1.31E-02
966,5.93E-03,3.54E-02
967,5.63E-03,3.27E-02
968,6.08E-03,3.38E-02
969,5.62E-03,0.22992
970,6.41E-03,0.24802
971,5.52E-03,1.17E-02
972,5.50E-03,1.15E-02
973,6.18E-03,1.15E-02
974,5.46E-03,6.74E-02
975,6.01E-03,7.12E-02
976,5.50E-03,7.00E-02
977,4.68E-03,0.13478
978,4.64E-03,0.1545
979,4.37E-03,0.10694
980,8.82E-03,0.10599
981,7.48E-03,0.11082
982,8.02E-03,0.11332
983,6.81E-03,1.02E-02
984,7.52E-03,9.46E-03
985,9.58E-03,7.70E-03
986,9.92E-03,8.35E-03
987,9.31E-03,7.15E-03
988,9.02E-03,3.47E-02
989,7.29E-03,3.06E-02
990,8.94E-03,1.42E-02
991,8.87E-03,1.74E-02
992,8.81E-03,1.69E-02
993,8.41E-03,2.03E-02
994,8.06E-03,2.11E-02
995,1.07E-02,1.96E-02
996,1.04E-02,2.06E-02
997,8.43E-03,1.91E-02
998,5.83E-03,0.11962
999,1.03E-02,3.64E-02
1000,1.04E-02,3.58E-02
1001,7.35E-03,7.50E-02
1002,9.21E-03,7.30E-02
1003,8.54E-03,1.57E-02
1004,9.23E-03,1.59E-02
1005,5.42E-03,5.26E-02
1006,5.21E-03,5.35E-02
1007,8.89E-03,6.58E-03
1008,8.00E-03,2.40E-02
1009,7.68E-03,2.02E-02
1010,7.26E-03,3.62E-02
1011,6.75E-03,3.47E-02
1012,9.33E-03,1.24E-02
1013,9.45E-03,9.71E-03
1014,7.74E-03,5.07E-02
1015,7.95E-03,5.02E-02
1016,5.73E-03,1.12E-02
1017,5.74E-03,1.00E-02
1018,7.20E-03,9.63E-03
1019,9.13E-03,4.15E-02
1020,1.09E-02,4.72E-02
1021,7.66E-03,4.26E-02
1022,9.89E-03,5.99E-02
1023,8.85E-03,5.97E-02
1024,9.93E-03,5.78E-02
1025,5.66E-03,2.96E-02
1026,8.79E-03,3.77E-02
1027,9.11E-03,3.41E-02
1028,7.22E-03,2.98E-02
1029,9.64E-03,3.84E-02
1030,8.97E-03,3.71E-02
1031,9.56E-03,3.27E-02
1032,8.07E-03,3.26E-02
1033,6.84E-03,8.70E-02
1034,6.35E-03,8.58E-02
1035,5.51E-03,9.05E-02
1036,6.39E-03,9.33E-02
1037,4.75E-03,0.14872
1038,3.65E-03,0.14779
1039,2.67E-03,0.14763
1040,4.48E-03,0.14944
1041,6.15E-03,1.04E-02
1042,5.45E-03,7.77E-02
1043,7.10E-03,7.79E-02
1044,2.00E-03,4.24E-02
1045,3.08E-03,4.18E-02
1046,5.66E-03,0.20844
1047,3.47E-03,6.88E-02
1048,5.52E-03,7.14E-02
1049,4.88E-03,7.29E-02
1050,5.31E-03,2.93E-02
1051,5.24E-03,3.01E-02
1052,1.10E-02,4.53E-02
1053,1.18E-02,0.11619
1054,5.96E-03,2.92E-02
1055,4.66E-03,2.77E-02
1056,7.45E-03,3.22E-02
1057,5.04E-03,2.67E-02
1058,6.78E-03,2.73E-02
1059,5.92E-03,2.57E-02
1060,5.20E-03,2.39E-02
1061,6.81E-03,2.73E-02
1062,6.84E-03,3.37E-02
1063,7.14E-03,2.01E-02
1064,6.74E-03,2.10E-02
1065,7.75E-03,2.30E-02
1066,7.87E-03,2.53E-02
1067,9.98E-03,2.82E-02
1068,6.89E-03,3.13E-02
1069,7.85E-03,2.41E-02
1070,8.56E-03,2.07E-02
1071,6.70E-03,3.48E-02
1072,6.94E-03,3.54E-02
1073,7.77E-03,3.56E-02
1074,7.40E-03,3.65E-02
1075,7.66E-03,4.01E-02
1076,7.62E-03,3.93E-02
1077,7.54E-03,3.53E-02
1078,8.26E-03,3.70E-02
1079,6.95E-03,3.50E-02
1080,9.02E-03,2.88E-02
1081,9.60E-03,1.64E-02
1082,9.08E-03,1.67E-02
1083,8.00E-03,1.83E-02
1084,7.98E-03,2.03E-02
1085,8.41E-03,2.26E-02
1086,8.71E-03,2.49E-02
1087,8.70E-03,2.68E-02
1088,8.40E-03,2.89E-02
1089,7.81E-03,3.07E-02
1090,6.63E-03,3.24E-02
1091,7.24E-03,3.74E-02
1092,7.13E-03,3.81E-02
1093,5.73E-03,4.33E-02
1094,5.66E-03,4.36E-02
1095,8.71E-03,2.47E-02
1096,8.85E-03,2.11E-02
1097,8.97E-03,1.79E-02
1098,9.02E-03,1.48E-02
1099,5.92E-03,4.60E-02
1100,7.53E-03,3.98E-02
1101,9.00E-03,3.37E-02
1102,7.31E-03,3.80E-02
1103,8.91E-03,1.36E-02
1104,7.44E-03,4.32E-02
1105,7.80E-03,4.10E-02
1106,8.03E-03,3.89E-02
1107,9.20E-03,4.04E-02
1108,9.12E-03,1.18E-02
1109,8.89E-03,1.12E-02
1110,7.64E-03,4.03E-02
1111,7.65E-03,4.09E-02
1112,8.00E-03,3.75E-02
1113,9.27E-03,1.52E-02
1114,9.26E-03,1.84E-02
1115,9.36E-03,2.17E-02
1116,9.63E-03,2.53E-02
1117,1.06E-02,2.93E-02
1118,1.03E-02,3.35E-02
1119,9.15E-03,3.74E-02
1120,7.79E-03,4.11E-02
1121,9.44E-03,1.28E-02
1122,7.30E-03,3.39E-02
1123,7.48E-03,3.25E-02
1124,7.68E-03,2.99E-02
1125,7.74E-03,2.77E-02
1126,8.17E-03,2.56E-02
1127,8.36E-03,2.37E-02
1128,8.44E-03,2.16E-02
1129,8.27E-03,1.96E-02
1130,8.23E-03,1.75E-02
1131,8.20E-03,1.57E-02
1132,9.32E-03,1.37E-02
1133,8.99E-03,1.13E-02
1134,9.11E-03,9.13E-03
1135,8.14E-03,4.36E-02
1136,8.35E-03,4.26E-02
1137,8.67E-03,4.46E-02
1138,9.15E-03,4.13E-02
1139,7.44E-03,4.47E-02
1140,8.63E-03,4.75E-02
1141,8.55E-03,1.06E-02
1142,7.11E-03,3.60E-02
1143,8.99E-03,4.07E-02
1144,8.36E-03,4.09E-02
1145,5.92E-03,9.19E-03
1146,7.96E-03,9.73E-03
1147,8.97E-03,7.25E-03
1148,8.74E-03,8.60E-03
1149,8.55E-03,4.39E-02
1150,8.02E-03,4.41E-02
1151,7.75E-03,4.41E-02
1152,7.44E-03,3.34E-02
1153,7.56E-03,3.12E-02
1154,7.71E-03,2.92E-02
1155,7.65E-03,2.70E-02
1156,7.83E-03,2.48E-02
1157,8.06E-03,2.27E-02
1158,8.18E-03,2.07E-02
1159,8.25E-03,1.87E-02
1160,8.12E-03,1.67E-02
1161,8.15E-03,1.47E-02
1162,8.08E-03,1.29E-02
1163,7.55E-03,1.11E-02
1164,7.11E-03,9.21E-03
1165,6.65E-03,7.86E-03
1166,6.32E-03,7.52E-03
1167,8.36E-03,8.07E-03
1168,9.78E-03,1.03E-02
1169,9.57E-03,1.28E-02
1170,9.55E-03,1.57E-02
1171,9.61E-03,1.88E-02
1172,9.76E-03,2.22E-02
1173,1.01E-02,2.59E-02
1174,1.04E-02,2.97E-02
1175,1.03E-02,3.34E-02
1176,9.63E-03,3.71E-02
1177,9.58E-03,4.08E-02
1178,9.02E-03,4.43E-02
1179,8.07E-03,4.73E-02
1180,9.35E-03,4.79E-02
1181,6.99E-03,3.89E-02
1182,8.35E-03,3.62E-02
1183,8.80E-03,4.62E-02
1184,1.09E-02,7.36E-03
1185,7.70E-03,4.76E-02
1186,8.27E-03,4.64E-02
1187,8.78E-03,4.86E-02
1188,8.18E-03,4.41E-02
1189,7.59E-03,7.77E-03
1190,8.08E-03,4.71E-02
1191,9.46E-03,4.42E-02
1192,9.63E-03,4.07E-02
1193,9.87E-03,3.71E-02
1194,1.00E-02,3.35E-02
1195,1.02E-02,2.99E-02
1196,1.01E-02,2.62E-02
1197,9.94E-03,2.27E-02
1198,9.80E-03,1.93E-02
1199,9.72E-03,1.62E-02
1200,9.73E-03,1.34E-02
1201,9.83E-03,1.09E-02
1202,1.01E-02,9.00E-03
1203,8.40E-03,6.80E-03
1204,8.47E-03,4.78E-02
1205,7.05E-03,4.72E-02
1206,7.26E-03,4.71E-02
1207,5.94E-03,4.41E-02
1208,7.86E-03,4.27E-02
1209,9.66E-03,4.01E-02
1210,9.75E-03,3.65E-02
1211,8.43E-03,3.38E-02
1212,7.95E-03,3.08E-02
1213,7.76E-03,2.84E-02
1214,7.73E-03,2.62E-02
1215,7.73E-03,2.40E-02
1216,7.86E-03,2.19E-02
1217,8.01E-03,1.98E-02
1218,8.07E-03,1.78E-02
1219,8.10E-03,1.58E-02
1220,8.03E-03,1.39E-02
1221,7.96E-03,1.21E-02
1222,7.69E-03,1.04E-02
1223,6.97E-03,8.90E-03
1224,6.73E-03,7.61E-03
1225,8.13E-03,5.59E-03
1226,8.16E-03,6.45E-03
1227,8.47E-03,4.78E-02
1228,8.18E-03,3.88E-02
1229,1.07E-02,8.06E-03
1230,9.09E-03,8.49E-03
1231,8.88E-03,8.99E-03
1232,9.42E-03,9.18E-03
1233,8.59E-03,7.37E-03
1234,8.63E-03,4.99E-02
1235,8.86E-03,5.22E-02
1236,8.96E-03,5.04E-02
1237,6.83E-03,5.01E-02
1238,8.27E-03,4.73E-02
1239,7.77E-03,4.71E-02
1240,7.66E-03,6.00E-03
1241,7.95E-03,4.72E-02
1242,9.06E-03,4.40E-02
1243,9.90E-03,4.08E-02
1244,1.01E-02,3.73E-02
1245,1.03E-02,3.36E-02
1246,1.04E-02,3.01E-02
1247,1.02E-02,2.65E-02
1248,1.00E-02,2.31E-02
1249,9.93E-03,1.98E-02
1250,9.82E-03,1.68E-02
1251,9.76E-03,1.41E-02
1252,9.77E-03,1.16E-02
1253,9.91E-03,9.74E-03
1254,9.66E-03,8.77E-03
1255,7.73E-03,4.80E-02
1256,8.05E-03,4.79E-02
1257,8.46E-03,4.66E-02
1258,9.74E-03,4.49E-02
1259,7.32E-03,4.10E-02
1260,8.15E-03,4.31E-02
1261,8.77E-03,7.39E-03
1262,7.07E-03,5.17E-02
1263,6.79E-03,5.61E-02
1264,9.81E-03,5.45E-02
1265,7.68E-03,5.00E-02
1266,8.53E-03,6.34E-03
1267,5.45E-03,4.99E-02
1268,7.55E-03,5.10E-02
1269,5.37E-03,5.07E-02
1270,6.18E-03,5.06E-02
1271,8.24E-03,6.31E-03
1272,9.48E-03,5.21E-02
1273,1.03E-02,4.46E-02
1274,8.20E-03,3.88E-02
1275,8.01E-03,3.54E-02
1276,8.37E-03,3.29E-02
1277,8.40E-03,3.05E-02
1278,8.01E-03,2.79E-02
1279,7.88E-03,2.55E-02
1280,7.83E-03,2.32E-02
1281,7.79E-03,2.10E-02
1282,7.87E-03,1.90E-02
1283,7.99E-03,1.70E-02
1284,8.02E-03,1.50E-02
1285,7.97E-03,1.32E-02
1286,7.83E-03,1.14E-02
1287,7.73E-03,9.83E-03
1288,7.41E-03,8.45E-03
1289,6.81E-03,7.30E-03
1290,6.51E-03,6.53E-03
1291,6.03E-03,5.26E-02
1292,7.17E-03,9.95E-03
1293,8.65E-03,5.30E-02
1294,8.80E-03,5.54E-02
1295,9.16E-03,5.81E-02
1296,6.01E-03,5.49E-02
1297,8.64E-03,5.03E-02
1298,7.95E-03,6.38E-03
1299,9.35E-03,4.41E-02
1300,1.04E-02,4.10E-02
1301,1.04E-02,3.73E-02
1302,1.03E-02,3.37E-02
1303,1.04E-02,3.02E-02
1304,1.03E-02,2.68E-02
1305,1.01E-02,2.35E-02
1306,9.97E-03,2.04E-02
1307,9.83E-03,1.74E-02
1308,9.74E-03,1.47E-02
1309,9.70E-03,1.24E-02
1310,9.61E-03,1.06E-02
1311,9.55E-03,9.64E-03
1312,9.54E-03,9.62E-03
1313,9.46E-03,1.06E-02
1314,9.77E-03,1.23E-02
1315,9.32E-03,1.19E-02
1316,8.59E-03,1.44E-02
1317,8.54E-03,1.38E-02
1318,8.96E-03,5.28E-02
1319,8.88E-03,5.20E-02
1320,8.97E-03,5.08E-02
1321,9.07E-03,4.98E-02
1322,9.22E-03,4.79E-02
1323,7.94E-03,5.70E-02
1324,1.07E-02,4.94E-02
1325,7.68E-03,5.28E-02
1326,8.40E-03,5.35E-02
1327,8.39E-03,7.64E-03
1328,5.22E-03,5.31E-02
1329,5.49E-03,5.39E-02
1330,5.78E-03,5.40E-02
1331,5.97E-03,5.44E-02
1332,8.20E-03,8.10E-03
1333,9.19E-03,5.34E-02
1334,8.89E-03,5.64E-02
1335,5.35E-03,1.37E-02
1336,6.27E-03,3.78E-02
1337,7.85E-03,3.66E-02
1338,8.52E-03,3.47E-02
1339,8.29E-03,3.21E-02
1340,8.17E-03,2.94E-02
1341,8.14E-03,2.70E-02
1342,7.99E-03,2.47E-02
1343,7.93E-03,2.24E-02
1344,7.93E-03,2.02E-02
1345,7.94E-03,1.81E-02
1346,7.95E-03,1.61E-02
1347,8.02E-03,1.42E-02
1348,8.05E-03,1.24E-02
1349,7.93E-03,1.08E-02
1350,7.73E-03,9.38E-03
1351,7.48E-03,8.20E-03
1352,7.22E-03,7.37E-03
1353,6.88E-03,6.94E-03
1354,6.35E-03,7.15E-03
1355,5.67E-03,7.47E-03
1356,4.38E-03,7.70E-03
1357,6.26E-03,4.10E-02
1358,8.20E-03,9.37E-03
1359,7.13E-03,5.51E-02
1360,7.61E-03,5.62E-02
1361,5.79E-03,5.67E-02
1362,7.43E-03,1.12E-02
1363,8.86E-03,5.59E-02
1364,8.70E-03,5.86E-02
1365,7.99E-03,6.12E-02
1366,6.19E-03,6.07E-02
1367,5.50E-03,6.24E-02
1368,8.49E-03,1.29E-02
1369,1.17E-02,4.96E-02
1370,6.97E-03,1.72E-02
1371,6.83E-03,5.42E-02
1372,8.02E-03,8.75E-03
1373,8.30E-03,1.63E-02
1374,8.96E-03,5.60E-02
1375,8.98E-03,5.64E-02
1376,9.63E-03,5.64E-02
1377,9.36E-03,5.59E-02
1378,9.20E-03,5.25E-02
1379,1.12E-02,4.50E-02
1380,1.07E-02,4.09E-02
1381,1.07E-02,3.72E-02
1382,1.06E-02,3.37E-02
1383,1.06E-02,3.03E-02
1384,1.01E-02,2.70E-02
1385,1.01E-02,2.39E-02
1386,9.96E-03,2.08E-02
1387,9.82E-03,1.80E-02
1388,9.65E-03,1.54E-02
1389,9.59E-03,1.32E-02
1390,9.52E-03,1.15E-02
1391,9.48E-03,1.04E-02
1392,9.39E-03,1.01E-02
1393,9.36E-03,1.06E-02
1394,9.25E-03,1.18E-02
1395,9.18E-03,1.37E-02
1396,7.46E-03,5.69E-02
1397,7.40E-03,5.80E-02
1398,8.63E-03,5.66E-02
1399,8.97E-03,5.54E-02
1400,9.46E-03,5.40E-02
1401,9.77E-03,5.20E-02
1402,7.23E-03,1.54E-02
1403,5.84E-03,1.01E-02
1404,6.02E-03,9.54E-03
1405,6.39E-03,8.82E-03
1406,6.79E-03,8.12E-03
1407,7.04E-03,7.70E-03
1408,7.32E-03,7.77E-03
1409,7.66E-03,8.24E-03
1410,7.97E-03,9.12E-03
1411,8.07E-03,1.03E-02
1412,8.07E-03,1.18E-02
1413,8.01E-03,1.35E-02
1414,7.99E-03,1.53E-02
1415,7.99E-03,1.73E-02
1416,8.04E-03,1.93E-02
1417,8.07E-03,2.15E-02
1418,8.07E-03,2.37E-02
1419,8.07E-03,2.60E-02
1420,8.19E-03,2.83E-02
1421,8.04E-03,3.06E-02
1422,7.59E-03,3.26E-02
1423,7.35E-03,3.50E-02
1424,7.70E-03,3.82E-02
1425,8.22E-03,9.51E-03
1426,8.16E-03,9.99E-03
1427,5.96E-03,5.79E-02
1428,5.32E-03,5.71E-02
1429,5.99E-03,5.75E-02
1430,6.26E-03,5.79E-02
1431,7.19E-03,1.39E-02
1432,7.70E-03,1.36E-02
1433,8.10E-03,1.27E-02
1434,8.20E-03,1.08E-02
1435,9.15E-03,5.60E-02
1436,7.81E-03,1.19E-02
1437,6.64E-03,1.33E-02
1438,9.10E-03,4.39E-02
1439,8.31E-03,6.07E-02
1440,5.30E-03,6.47E-02
1441,7.95E-03,5.87E-02
1442,7.15E-03,6.03E-02
1443,7.64E-03,1.46E-02
1444,8.76E-03,5.94E-02
1445,8.58E-03,6.18E-02
1446,7.91E-03,6.37E-02
1447,7.06E-03,6.57E-02
1448,1.10E-02,6.14E-02
1449,6.35E-03,5.82E-02
1450,8.20E-03,1.19E-02
1451,9.02E-03,5.89E-02
1452,9.33E-03,5.93E-02
1453,9.94E-03,5.96E-02
1454,1.01E-02,1.90E-02
1455,7.88E-03,1.85E-02
1456,1.23E-02,5.28E-02
1457,1.21E-02,4.85E-02
1458,1.19E-02,4.45E-02
1459,1.12E-02,4.07E-02
1460,1.09E-02,3.71E-02
1461,1.06E-02,3.37E-02
1462,1.06E-02,3.03E-02
1463,1.01E-02,2.72E-02
1464,1.00E-02,2.42E-02
1465,9.93E-03,2.13E-02
1466,9.75E-03,1.86E-02
1467,9.65E-03,1.61E-02
1468,9.53E-03,1.40E-02
1469,9.51E-03,1.23E-02
1470,9.45E-03,1.11E-02
1471,9.33E-03,1.06E-02
1472,9.34E-03,1.09E-02
1473,9.37E-03,1.19E-02
1474,9.45E-03,1.37E-02
1475,9.38E-03,1.62E-02
1476,7.97E-03,1.23E-02
1477,7.88E-03,1.27E-02
1478,6.44E-03,1.22E-02
1479,6.55E-03,1.12E-02
1480,6.77E-03,1.03E-02
1481,6.96E-03,9.45E-03
1482,7.20E-03,8.85E-03
1483,7.59E-03,8.60E-03
1484,8.06E-03,8.68E-03
1485,8.07E-03,9.21E-03
1486,8.13E-03,1.02E-02
1487,8.07E-03,1.14E-02
1488,8.07E-03,1.30E-02
1489,8.07E-03,1.47E-02
1490,8.07E-03,1.65E-02
1491,8.07E-03,1.85E-02
1492,8.07E-03,2.05E-02
1493,8.07E-03,2.26E-02
1494,8.07E-03,2.48E-02
1495,7.96E-03,2.69E-02
1496,7.85E-03,2.92E-02
1497,7.78E-03,3.18E-02
1498,7.98E-03,3.46E-02
1499,8.29E-03,3.74E-02
1500,8.43E-03,4.01E-02
1501,6.46E-03,6.17E-02
1502,6.90E-03,6.16E-02
1503,7.13E-03,6.27E-02
1504,8.28E-03,6.18E-02
1505,8.99E-03,6.02E-02
1506,9.81E-03,5.84E-02
1507,9.86E-03,5.66E-02
1508,1.10E-02,5.47E-02
1509,1.10E-02,5.20E-02
1510,1.21E-02,4.80E-02
1511,7.01E-03,6.59E-02
1512,8.55E-03,1.77E-02
1513,1.03E-02,1.86E-02
1514,1.12E-02,1.71E-02
1515,7.99E-03,1.37E-02
1516,7.24E-03,6.13E-02
1517,6.94E-03,1.65E-02
1518,1.25E-02,6.32E-02
1519,8.54E-03,2.13E-02
1520,8.29E-03,1.47E-02
1521,6.52E-03,6.80E-02
1522,7.71E-03,1.69E-02
1523,6.92E-03,6.26E-02
1524,1.05E-02,6.50E-02
1525,8.75E-03,6.80E-02
1526,7.39E-03,6.97E-02
1527,1.14E-02,1.87E-02
1528,8.10E-03,1.80E-02
1529,6.38E-03,6.12E-02
1530,6.34E-03,6.12E-02
1531,6.43E-03,6.09E-02
1532,8.60E-03,4.26E-02
1533,8.72E-03,4.48E-02
1534,1.05E-02,5.26E-02
1535,1.22E-02,5.36E-02
1536,1.10E-02,5.66E-02
1537,1.08E-02,5.94E-02
1538,1.02E-02,6.15E-02
1539,9.97E-03,6.33E-02
1540,8.84E-03,6.50E-02
1541,8.39E-03,6.67E-02
1542,8.87E-03,6.73E-02
1543,8.39E-03,6.71E-02
1544,7.13E-03,6.65E-02
1545,6.53E-03,6.15E-02
1546,8.75E-03,1.50E-02
1547,8.19E-03,6.22E-02
1548,9.00E-03,6.23E-02
1549,1.02E-02,6.28E-02
1550,1.04E-02,6.34E-02
1551,9.88E-03,2.04E-02
1552,6.58E-03,1.51E-02
1553,6.67E-03,1.41E-02
1554,6.82E-03,1.31E-02
1555,7.01E-03,1.21E-02
1556,7.18E-03,1.11E-02
1557,7.53E-03,1.03E-02
1558,7.91E-03,9.74E-03
1559,8.07E-03,9.53E-03
1560,8.16E-03,9.73E-03
1561,8.07E-03,1.03E-02
1562,8.07E-03,1.14E-02
1563,8.07E-03,1.26E-02
1564,8.07E-03,1.42E-02
1565,8.07E-03,1.58E-02
1566,8.07E-03,1.76E-02
1567,8.07E-03,1.95E-02
1568,8.07E-03,2.15E-02
1569,8.01E-03,2.36E-02
1570,7.94E-03,2.58E-02
1571,7.96E-03,2.82E-02
1572,7.99E-03,3.07E-02
1573,8.09E-03,3.32E-02
1574,8.11E-03,3.56E-02
1575,8.29E-03,3.80E-02
1576,8.05E-03,4.04E-02
1577,4.46E-03,5.17E-02
1578,6.46E-03,4.77E-02
1579,5.82E-03,5.14E-02
1580,8.39E-03,4.31E-02
1581,7.97E-03,2.13E-02
1582,7.28E-03,2.13E-02
1583,7.51E-03,1.49E-02
1584,7.49E-03,1.56E-02
1585,6.06E-03,7.39E-02
1586,6.62E-03,6.99E-02
1587,6.56E-03,6.43E-02
1588,7.71E-03,6.41E-02
1589,6.43E-03,6.43E-02
1590,7.62E-03,1.67E-02
1591,6.85E-03,1.89E-02
1592,7.02E-03,7.16E-02
1593,5.43E-03,6.51E-02
1594,6.34E-03,6.79E-02
1595,9.35E-03,2.11E-02
1596,8.77E-03,2.07E-02
1597,6.19E-03,1.94E-02
1598,7.47E-03,5.15E-02
1599,7.60E-03,4.53E-02
1600,8.85E-03,1.73E-02
1601,9.38E-03,1.53E-02
1602,9.59E-03,1.35E-02
1603,9.46E-03,1.21E-02
1604,9.39E-03,1.13E-02
1605,9.47E-03,1.12E-02
1606,9.49E-03,1.18E-02
1607,9.51E-03,1.31E-02
1608,9.53E-03,1.47E-02
1609,9.57E-03,1.68E-02
1610,9.60E-03,1.91E-02
1611,9.86E-03,2.17E-02
1612,9.93E-03,2.44E-02
1613,1.01E-02,2.73E-02
1614,1.05E-02,3.04E-02
1615,1.06E-02,3.36E-02
1616,1.09E-02,3.70E-02
1617,1.12E-02,4.05E-02
1618,1.14E-02,4.42E-02
1619,1.17E-02,4.80E-02
1620,1.25E-02,5.25E-02
1621,1.19E-02,5.65E-02
1622,1.02E-02,5.96E-02
1623,9.07E-03,6.49E-02
1624,9.00E-03,6.23E-02
1625,6.28E-03,1.70E-02
1626,6.16E-03,1.78E-02
1627,7.47E-03,5.79E-02
1628,8.13E-03,5.84E-02
1629,1.01E-02,6.03E-02
1630,1.10E-02,6.21E-02
1631,1.06E-02,6.44E-02
1632,1.03E-02,6.65E-02
1633,1.01E-02,6.84E-02
1634,8.77E-03,7.00E-02
1635,8.58E-03,7.11E-02
1636,8.80E-03,7.22E-02
1637,7.78E-03,7.22E-02
1638,7.01E-03,7.08E-02
1639,7.58E-03,6.40E-02
1640,6.53E-03,6.42E-02
1641,8.02E-03,1.79E-02
1642,5.25E-03,2.40E-02
1643,8.32E-03,2.40E-02
1644,1.13E-02,2.47E-02
1645,6.81E-03,2.06E-02
1646,7.65E-03,2.30E-02
1647,5.67E-03,7.77E-02
1648,5.14E-03,7.70E-02
1649,6.83E-03,7.34E-02
1650,6.04E-03,6.83E-02
1651,7.66E-03,6.74E-02
1652,7.16E-03,7.54E-02
1653,8.27E-03,2.21E-02
1654,1.25E-02,2.33E-02
1655,6.92E-03,5.82E-02
1656,6.52E-03,1.83E-02
1657,6.73E-03,1.73E-02
1658,6.88E-03,1.63E-02
1659,7.07E-03,1.52E-02
1660,7.28E-03,1.40E-02
1661,7.56E-03,1.29E-02
1662,7.79E-03,1.20E-02
1663,8.14E-03,1.12E-02
1664,8.12E-03,1.07E-02
1665,8.07E-03,1.06E-02
1666,8.07E-03,1.10E-02
1667,8.07E-03,1.17E-02
1668,8.07E-03,1.26E-02
1669,8.07E-03,1.39E-02
1670,8.07E-03,1.53E-02
1671,8.07E-03,1.69E-02
1672,8.07E-03,1.86E-02
1673,8.07E-03,2.04E-02
1674,8.02E-03,2.24E-02
1675,8.05E-03,2.46E-02
1676,8.05E-03,2.68E-02
1677,8.07E-03,2.91E-02
1678,8.10E-03,3.15E-02
1679,8.03E-03,3.39E-02
1680,8.11E-03,3.63E-02
1681,7.94E-03,3.87E-02
1682,7.51E-03,4.09E-02
1683,7.37E-03,4.38E-02
1684,8.38E-03,4.87E-02
1685,7.86E-03,6.52E-02
1686,8.77E-03,6.56E-02
1687,1.06E-02,6.60E-02
1688,1.07E-02,6.62E-02
1689,1.21E-02,6.65E-02
1690,8.79E-03,6.74E-02
1691,5.48E-03,6.85E-02
1692,4.20E-03,6.84E-02
1693,6.15E-03,6.84E-02
1694,7.70E-03,6.81E-02
1695,6.22E-03,6.93E-02
1696,7.53E-03,2.36E-02
1697,5.98E-03,2.25E-02
1698,6.46E-03,2.18E-02
1699,9.73E-03,6.46E-02
1700,9.75E-03,6.10E-02
1701,1.04E-02,5.81E-02
1702,1.12E-02,5.49E-02
1703,1.17E-02,5.13E-02
1704,1.16E-02,4.75E-02
1705,1.13E-02,4.37E-02
1706,1.10E-02,4.02E-02
1707,1.09E-02,3.68E-02
1708,1.07E-02,3.35E-02
1709,1.02E-02,3.04E-02
1710,1.01E-02,2.75E-02
1711,9.82E-03,2.47E-02
1712,9.72E-03,2.21E-02
1713,9.52E-03,1.96E-02
1714,9.48E-03,1.74E-02
1715,9.45E-03,1.54E-02
1716,9.43E-03,1.38E-02
1717,9.41E-03,1.26E-02
1718,9.39E-03,1.19E-02
1719,9.39E-03,1.18E-02
1720,9.64E-03,1.24E-02
1721,9.60E-03,1.35E-02
1722,9.86E-03,1.49E-02
1723,1.11E-02,1.70E-02
1724,6.92E-03,1.78E-02
1725,5.78E-03,6.77E-02
1726,6.24E-03,6.94E-02
1727,8.31E-03,2.26E-02
1728,5.28E-03,2.04E-02
1729,6.64E-03,1.98E-02
1730,6.29E-03,6.76E-02
1731,6.57E-03,6.79E-02
1732,8.19E-03,7.30E-02
1733,6.16E-03,2.68E-02
1734,6.56E-03,6.83E-02
1735,6.94E-03,1.90E-02
1736,5.52E-03,2.21E-02
1737,6.58E-03,2.22E-02
1738,7.14E-03,2.03E-02
1739,6.10E-03,6.28E-02
1740,7.71E-03,6.41E-02
1741,1.01E-02,6.60E-02
1742,1.02E-02,6.79E-02
1743,1.04E-02,6.98E-02
1744,1.02E-02,7.18E-02
1745,1.02E-02,7.37E-02
1746,9.08E-03,7.52E-02
1747,8.44E-03,7.63E-02
1748,7.81E-03,7.76E-02
1749,6.47E-03,7.70E-02
1750,6.78E-03,7.50E-02
1751,6.25E-03,6.85E-02
1752,6.27E-03,6.72E-02
1753,6.19E-03,2.41E-02
1754,7.13E-03,2.19E-02
1755,8.10E-03,7.04E-02
1756,5.37E-03,2.44E-02
1757,6.79E-03,2.43E-02
1758,8.12E-03,2.47E-02
1759,5.69E-03,6.40E-02
1760,6.75E-03,6.82E-02
1761,7.31E-03,8.25E-02
1762,6.71E-03,8.15E-02
1763,7.16E-03,7.73E-02
1764,7.38E-03,7.13E-02
1765,6.52E-03,7.08E-02
1766,6.12E-03,2.48E-02
1767,9.27E-03,2.74E-02
1768,8.90E-03,6.39E-02
1769,6.74E-03,2.09E-02
1770,6.94E-03,1.99E-02
1771,7.08E-03,1.87E-02
1772,7.31E-03,1.74E-02
1773,7.54E-03,1.61E-02
1774,7.92E-03,1.49E-02
1775,8.16E-03,1.37E-02
1776,8.07E-03,1.28E-02
1777,8.07E-03,1.23E-02
1778,8.07E-03,1.20E-02
1779,8.07E-03,1.20E-02
1780,8.07E-03,1.24E-02
1781,8.07E-03,1.30E-02
1782,8.07E-03,1.39E-02
1783,8.07E-03,1.50E-02
1784,8.07E-03,1.63E-02
1785,8.07E-03,1.78E-02
1786,8.07E-03,1.95E-02
1787,8.07E-03,2.13E-02
1788,8.07E-03,2.33E-02
1789,8.07E-03,2.54E-02
1790,8.07E-03,2.77E-02
1791,8.03E-03,2.99E-02
1792,8.01E-03,3.23E-02
1793,7.92E-03,3.46E-02
1794,7.86E-03,3.72E-02
1795,8.08E-03,4.05E-02
1796,7.14E-03,5.67E-02
1797,7.50E-03,5.51E-02
1798,9.41E-03,4.38E-02
1799,8.08E-03,5.38E-02
1800,7.54E-03,4.63E-02
1801,6.66E-03,5.36E-02
1802,7.79E-03,6.82E-02
1803,9.44E-03,6.87E-02
1804,1.07E-02,6.92E-02
1805,1.09E-02,6.94E-02
1806,9.45E-03,7.01E-02
1807,7.98E-03,7.03E-02
1808,7.33E-03,7.07E-02
1809,5.87E-03,7.11E-02
1810,5.74E-03,7.15E-02
1811,5.92E-03,7.21E-02
1812,4.70E-03,7.21E-02
1813,8.16E-03,2.09E-02
1814,8.68E-03,1.95E-02
1815,9.62E-03,1.81E-02
1816,9.91E-03,1.67E-02
1817,9.99E-03,1.50E-02
1818,9.62E-03,1.36E-02
1819,9.56E-03,1.27E-02
1820,9.31E-03,1.23E-02
1821,9.32E-03,1.25E-02
1822,9.33E-03,1.32E-02
1823,9.35E-03,1.44E-02
1824,9.37E-03,1.60E-02
1825,9.40E-03,1.79E-02
1826,9.44E-03,2.01E-02
1827,9.65E-03,2.24E-02
1828,9.72E-03,2.49E-02
1829,9.93E-03,2.76E-02
1830,1.02E-02,3.04E-02
1831,1.06E-02,3.34E-02
1832,1.07E-02,3.65E-02
1833,1.09E-02,3.98E-02
1834,1.11E-02,4.33E-02
1835,1.12E-02,4.68E-02
1836,1.11E-02,5.03E-02
1837,1.08E-02,5.36E-02
1838,1.04E-02,5.69E-02
1839,1.02E-02,6.03E-02
1840,1.08E-02,6.40E-02
1841,5.18E-03,7.05E-02
1842,9.98E-03,6.73E-02
1843,8.32E-03,7.03E-02
1844,6.81E-03,2.50E-02
1845,6.53E-03,2.56E-02
1846,6.03E-03,2.63E-02
1847,4.96E-03,2.64E-02
1848,7.82E-03,2.34E-02
1849,7.41E-03,7.95E-02
1850,5.79E-03,2.75E-02
1851,6.80E-03,2.72E-02
1852,6.58E-03,2.23E-02
1853,7.09E-03,2.26E-02
1854,9.87E-03,2.71E-02
1855,8.06E-03,2.35E-02
1856,5.39E-03,7.61E-02
1857,6.43E-03,7.98E-02
1858,6.68E-03,2.18E-02
1859,5.99E-03,7.15E-02
1860,6.00E-03,7.20E-02
1861,6.26E-03,7.18E-02
1862,6.86E-03,2.29E-02
1863,6.94E-03,2.46E-02
1864,7.96E-03,7.02E-02
1865,9.27E-03,7.17E-02
1866,1.01E-02,7.35E-02
1867,1.04E-02,7.54E-02
1868,1.01E-02,7.73E-02
1869,1.01E-02,7.91E-02
1870,9.19E-03,8.07E-02
1871,8.56E-03,8.20E-02
1872,7.93E-03,8.28E-02
1873,5.73E-03,8.10E-02
1874,7.00E-03,7.90E-02
1875,6.44E-03,7.14E-02
1876,5.88E-03,7.09E-02
1877,6.77E-03,2.64E-02
1878,8.29E-03,7.45E-02
1879,6.99E-03,2.39E-02
1880,7.12E-03,2.24E-02
1881,7.32E-03,2.10E-02
1882,7.62E-03,1.95E-02
1883,7.95E-03,1.81E-02
1884,8.11E-03,1.68E-02
1885,8.11E-03,1.57E-02
1886,8.07E-03,1.48E-02
1887,8.07E-03,1.41E-02
1888,8.07E-03,1.36E-02
1889,8.07E-03,1.34E-02
1890,8.07E-03,1.34E-02
1891,8.07E-03,1.37E-02
1892,8.07E-03,1.42E-02
1893,8.07E-03,1.50E-02
1894,8.07E-03,1.60E-02
1895,8.07E-03,1.73E-02
1896,8.07E-03,1.88E-02
1897,8.07E-03,2.04E-02
1898,8.07E-03,2.22E-02
1899,8.07E-03,2.42E-02
1900,8.07E-03,2.63E-02
1901,8.05E-03,2.84E-02
1902,8.03E-03,3.07E-02
1903,8.17E-03,3.34E-02
1904,8.46E-03,3.62E-02
1905,8.24E-03,3.89E-02
1906,7.86E-03,4.15E-02
1907,7.25E-03,4.47E-02
1908,7.91E-03,6.26E-02
1909,7.94E-03,6.11E-02
1910,7.76E-03,6.08E-02
1911,7.50E-03,6.00E-02
1912,7.37E-03,5.82E-02
1913,7.33E-03,4.83E-02
1914,8.38E-03,5.43E-02
1915,8.47E-03,5.14E-02
1916,8.80E-03,7.10E-02
1917,1.02E-02,7.19E-02
1918,1.06E-02,7.25E-02
1919,1.06E-02,7.29E-02
1920,8.19E-03,7.34E-02
1921,8.02E-03,7.36E-02
1922,7.58E-03,7.38E-02
1923,6.68E-03,7.41E-02
1924,5.60E-03,7.46E-02
1925,5.68E-03,7.50E-02
1926,5.74E-03,7.47E-02
1927,7.21E-03,7.37E-02
1928,8.23E-03,7.32E-02
1929,7.85E-03,6.80E-02
1930,7.70E-03,2.51E-02
1931,7.74E-03,2.60E-02
1932,8.85E-03,2.68E-02
1933,8.29E-03,7.31E-02
1934,7.45E-03,8.14E-02
1935,5.22E-03,7.57E-02
1936,6.68E-03,7.51E-02
1937,7.16E-03,7.54E-02
1938,1.07E-02,2.66E-02
1939,8.45E-03,2.76E-02
1940,7.55E-03,3.09E-02
1941,8.91E-03,2.66E-02
1942,1.10E-02,2.54E-02
1943,1.07E-02,2.36E-02
1944,9.45E-03,2.11E-02
1945,9.29E-03,1.91E-02
1946,9.51E-03,1.76E-02
1947,9.68E-03,1.62E-02
1948,9.65E-03,1.49E-02
1949,9.55E-03,1.38E-02
1950,9.43E-03,1.31E-02
1951,9.23E-03,1.28E-02
1952,9.24E-03,1.31E-02
1953,9.25E-03,1.38E-02
1954,9.27E-03,1.50E-02
1955,9.29E-03,1.66E-02
1956,9.32E-03,1.84E-02
1957,9.35E-03,2.04E-02
1958,9.55E-03,2.27E-02
1959,9.64E-03,2.51E-02
1960,9.81E-03,2.76E-02
1961,1.01E-02,3.04E-02
1962,1.04E-02,3.32E-02
1963,1.05E-02,3.62E-02
1964,1.07E-02,3.94E-02
1965,1.10E-02,4.27E-02
1966,1.11E-02,4.61E-02
1967,1.10E-02,4.94E-02
1968,1.08E-02,5.26E-02
1969,1.07E-02,5.59E-02
1970,1.06E-02,5.93E-02
1971,1.03E-02,6.26E-02
1972,9.98E-03,6.57E-02
1973,1.00E-02,6.88E-02
1974,1.07E-02,7.21E-02
1975,8.82E-03,3.15E-02
1976,7.85E-03,3.13E-02
1977,7.23E-03,3.31E-02
1978,7.17E-03,2.50E-02
1979,6.07E-03,3.27E-02
1980,7.41E-03,3.51E-02
1981,8.68E-03,3.05E-02
1982,1.03E-02,2.93E-02
1983,7.22E-03,2.54E-02
1984,7.91E-03,2.53E-02
1985,8.38E-03,8.17E-02
1986,7.64E-03,8.37E-02
1987,7.91E-03,2.59E-02
1988,5.12E-03,7.53E-02
1989,6.35E-03,7.80E-02
1990,8.22E-03,5.37E-02
1991,6.64E-03,2.48E-02
1992,8.43E-03,8.77E-02
1993,8.42E-03,8.63E-02
1994,6.92E-03,2.67E-02
1995,7.01E-03,2.85E-02
1996,8.02E-03,3.04E-02
1997,8.85E-03,2.96E-02
1998,9.29E-03,2.87E-02
1999,9.18E-03,2.76E-02
2000,8.73E-03,7.53E-02
2001,9.15E-03,7.72E-02
2002,1.01E-02,7.91E-02
2003,1.03E-02,8.10E-02
2004,9.90E-03,8.27E-02
2005,9.95E-03,8.46E-02
2006,9.20E-03,8.62E-02
2007,9.13E-03,8.77E-02
2008,8.91E-03,8.79E-02
2009,4.37E-03,8.50E-02
2010,7.55E-03,8.31E-02
2011,7.24E-03,7.55E-02
2012,6.62E-03,7.48E-02
2013,1.14E-02,7.45E-02
2014,1.07E-02,7.53E-02
2015,1.06E-02,7.58E-02
2016,1.07E-02,7.62E-02
2017,8.03E-03,7.67E-02
2018,8.04E-03,7.71E-02
2019,7.79E-03,7.72E-02
2020,6.78E-03,7.74E-02
2021,5.76E-03,7.76E-02
2022,5.74E-03,7.76E-02
2023,5.79E-03,7.74E-02
2024,8.05E-03,7.70E-02
2025,8.77E-03,7.63E-02
2026,4.02E-03,7.46E-02
2027,8.72E-03,7.49E-02
2028,1.07E-02,7.54E-02
2029,7.10E-03,3.02E-02
2030,8.14E-03,7.29E-02
2031,1.14E-02,7.06E-02
2032,1.04E-02,6.76E-02
2033,1.03E-02,6.43E-02
2034,1.03E-02,6.12E-02
2035,1.03E-02,5.81E-02
2036,1.04E-02,5.49E-02
2037,1.06E-02,5.17E-02
2038,1.08E-02,4.85E-02
2039,1.09E-02,4.53E-02
2040,1.08E-02,4.21E-02
2041,1.07E-02,3.89E-02
2042,1.03E-02,3.59E-02
2043,1.02E-02,3.30E-02
2044,9.88E-03,3.02E-02
2045,9.66E-03,2.77E-02
2046,9.51E-03,2.52E-02
2047,9.39E-03,2.29E-02
2048,9.27E-03,2.08E-02
2049,9.24E-03,1.88E-02
2050,9.21E-03,1.70E-02
2051,9.19E-03,1.56E-02
2052,9.18E-03,1.44E-02
2053,9.16E-03,1.36E-02
2054,9.16E-03,1.33E-02
2055,9.28E-03,1.34E-02
2056,9.43E-03,1.40E-02
2057,9.51E-03,1.48E-02
2058,9.54E-03,1.59E-02
2059,9.50E-03,1.73E-02
2060,9.56E-03,1.89E-02
2061,9.92E-03,2.07E-02
2062,9.79E-03,2.26E-02
2063,9.60E-03,2.41E-02
2064,8.95E-03,2.53E-02
2065,8.00E-03,2.63E-02
2066,7.01E-03,2.77E-02
2067,9.45E-03,3.29E-02
2068,8.78E-03,7.89E-02
2069,9.75E-03,7.77E-02
2070,8.67E-03,3.55E-02
2071,5.95E-03,3.17E-02
2072,5.84E-03,3.18E-02
2073,7.13E-03,3.25E-02
2074,8.03E-03,3.44E-02
2075,7.02E-03,3.57E-02
2076,8.19E-03,3.49E-02
2077,7.88E-03,2.82E-02
2078,7.02E-03,3.00E-02
2079,1.01E-02,9.33E-02
2080,9.01E-03,3.22E-02
2081,8.38E-03,2.67E-02
2082,8.92E-03,2.80E-02
2083,9.07E-03,9.06E-02
2084,7.49E-03,8.55E-02
2085,8.63E-03,8.05E-02
2086,7.16E-03,3.21E-02
2087,8.50E-03,2.74E-02
2088,7.23E-03,3.38E-02
2089,7.30E-03,3.58E-02
2090,7.21E-03,3.10E-02
2091,9.57E-03,7.29E-02
2092,9.36E-03,6.97E-02
2093,8.41E-03,6.84E-02
2094,8.13E-03,6.77E-02
2095,8.02E-03,6.68E-02
2096,7.96E-03,6.54E-02
2097,8.16E-03,6.36E-02
2098,9.26E-03,6.13E-02
2099,8.50E-03,6.08E-02
2100,7.29E-03,5.73E-02
2101,7.10E-03,5.28E-02
2102,7.40E-03,4.90E-02
2103,7.86E-03,4.69E-02
2104,7.96E-03,4.41E-02
2105,7.76E-03,4.08E-02
2106,7.87E-03,3.77E-02
2107,8.16E-03,3.47E-02
2108,8.23E-03,3.21E-02
2109,8.20E-03,2.96E-02
2110,8.07E-03,2.72E-02
2111,8.07E-03,2.50E-02
2112,8.07E-03,2.31E-02
2113,8.07E-03,2.13E-02
2114,8.07E-03,1.97E-02
2115,8.07E-03,1.83E-02
2116,8.07E-03,1.71E-02
2117,8.07E-03,1.61E-02
2118,8.07E-03,1.54E-02
2119,8.07E-03,1.50E-02
2120,8.07E-03,1.48E-02
2121,8.07E-03,1.49E-02
2122,8.07E-03,1.51E-02
2123,8.07E-03,1.56E-02
2124,8.07E-03,1.62E-02
2125,8.07E-03,1.69E-02
2126,8.07E-03,1.79E-02
2127,8.12E-03,1.89E-02
2128,8.14E-03,2.02E-02
2129,7.87E-03,2.15E-02
2130,7.73E-03,2.30E-02
2131,7.26E-03,2.46E-02
2132,7.20E-03,2.61E-02
2133,6.99E-03,2.78E-02
2134,7.19E-03,2.93E-02
2135,7.50E-03,3.39E-02
2136,9.01E-03,7.83E-02
2137,6.60E-03,7.83E-02
2138,8.04E-03,8.21E-02
2139,9.08E-03,8.56E-02
2140,7.63E-03,8.75E-02
2141,7.64E-03,3.48E-02
2142,8.68E-03,3.22E-02
2143,9.03E-03,3.17E-02
2144,9.26E-03,3.09E-02
2145,9.13E-03,3.00E-02
2146,8.92E-03,2.91E-02
2147,8.75E-03,6.19E-02
2148,8.79E-03,6.44E-02
2149,7.70E-03,6.69E-02
2150,8.09E-03,6.88E-02
2151,8.42E-03,6.96E-02
2152,8.39E-03,7.01E-02
2153,8.24E-03,7.15E-02
2154,8.21E-03,7.29E-02
2155,8.30E-03,7.42E-02
2156,8.49E-03,7.52E-02
2157,8.39E-03,7.65E-02
2158,9.37E-03,7.99E-02
2159,9.85E-03,8.27E-02
2160,1.01E-02,8.47E-02
2161,1.04E-02,8.65E-02
2162,1.00E-02,8.83E-02
2163,9.55E-03,8.99E-02
2164,9.32E-03,9.14E-02
2165,9.57E-03,9.30E-02
2166,1.06E-02,9.40E-02
2167,3.30E-03,8.93E-02
2168,7.63E-03,8.74E-02
2169,1.05E-02,3.09E-02
2170,8.40E-03,7.98E-02
2171,9.38E-03,7.87E-02
2172,1.04E-02,7.82E-02
2173,1.18E-02,7.81E-02
2174,1.10E-02,7.85E-02
2175,1.08E-02,7.91E-02
2176,1.06E-02,7.95E-02
2177,8.26E-03,8.00E-02
2178,8.19E-03,8.05E-02
2179,8.08E-03,8.07E-02
2180,6.42E-03,8.08E-02
2181,5.99E-03,8.07E-02
2182,5.85E-03,8.07E-02
2183,5.71E-03,8.05E-02
2184,8.52E-03,8.01E-02
2185,8.66E-03,7.94E-02
2186,9.09E-03,7.89E-02
2187,7.76E-03,3.37E-02
2188,5.39E-03,3.31E-02
2189,5.92E-03,3.18E-02
2190,6.94E-03,3.63E-02
2191,6.61E-03,3.28E-02
2192,6.60E-03,3.43E-02
2193,5.93E-03,3.45E-02
2194,5.16E-03,3.40E-02
2195,4.32E-03,3.39E-02
2196,6.05E-03,3.39E-02
2197,8.30E-03,3.35E-02
2198,7.83E-03,3.29E-02
2199,7.74E-03,3.25E-02
2200,7.48E-03,3.15E-02
2201,7.16E-03,3.33E-02
2202,7.14E-03,3.32E-02
2203,6.63E-03,3.15E-02
2204,7.25E-03,2.98E-02
2205,7.36E-03,2.81E-02
2206,7.67E-03,2.66E-02
2207,7.97E-03,2.51E-02
2208,8.15E-03,2.37E-02
2209,8.07E-03,2.24E-02
2210,8.07E-03,2.13E-02
2211,8.07E-03,2.02E-02
2212,8.07E-03,1.93E-02
2213,8.07E-03,1.85E-02
2214,8.07E-03,1.78E-02
2215,8.07E-03,1.72E-02
2216,8.07E-03,1.67E-02
2217,8.07E-03,1.63E-02
2218,8.07E-03,1.62E-02
2219,8.07E-03,1.63E-02
2220,8.07E-03,1.66E-02
2221,8.07E-03,1.72E-02
2222,8.07E-03,1.81E-02
2223,8.07E-03,1.92E-02
2224,8.07E-03,2.06E-02
2225,8.07E-03,2.22E-02
2226,8.07E-03,2.41E-02
2227,8.07E-03,2.62E-02
2228,8.13E-03,2.84E-02
2229,8.11E-03,3.10E-02
2230,7.99E-03,3.38E-02
2231,7.88E-03,3.67E-02
2232,7.84E-03,3.96E-02
2233,7.79E-03,4.24E-02
2234,7.67E-03,4.55E-02
2235,7.63E-03,4.91E-02
2236,7.84E-03,5.32E-02
2237,7.80E-03,5.66E-02
2238,8.71E-03,6.55E-02
2239,7.54E-03,5.86E-02
2240,5.86E-03,6.18E-02
2241,6.71E-03,7.70E-02
2242,6.10E-03,7.76E-02
2243,8.03E-03,3.16E-02
2244,9.43E-03,7.07E-02
2245,1.01E-02,6.83E-02
2246,1.05E-02,6.58E-02
2247,1.02E-02,6.29E-02
2248,1.02E-02,5.99E-02
2249,1.03E-02,5.68E-02
2250,1.04E-02,5.38E-02
2251,1.05E-02,5.07E-02
2252,1.06E-02,4.76E-02
2253,1.07E-02,4.45E-02
2254,1.07E-02,4.14E-02
2255,1.06E-02,3.84E-02
2256,1.01E-02,3.55E-02
2257,1.01E-02,3.27E-02
2258,9.73E-03,3.01E-02
2259,9.54E-03,2.76E-02
2260,9.39E-03,2.53E-02
2261,9.25E-03,2.31E-02
2262,9.18E-03,2.10E-02
2263,9.15E-03,1.92E-02
2264,9.13E-03,1.75E-02
2265,9.11E-03,1.60E-02
2266,9.10E-03,1.49E-02
2267,9.09E-03,1.41E-02
2268,9.08E-03,1.37E-02
2269,9.11E-03,1.37E-02
2270,9.25E-03,1.41E-02
2271,9.30E-03,1.48E-02
2272,9.43E-03,1.58E-02
2273,9.55E-03,1.71E-02
2274,9.70E-03,1.86E-02
2275,9.63E-03,2.02E-02
2276,9.46E-03,2.17E-02
2277,9.25E-03,2.31E-02
2278,8.84E-03,2.44E-02
2279,8.43E-03,2.55E-02
2280,8.03E-03,2.68E-02
2281,8.39E-03,2.79E-02
2282,7.18E-03,2.90E-02
2283,7.12E-03,2.98E-02
2284,6.74E-03,3.05E-02
2285,6.75E-03,3.08E-02
2286,8.70E-03,3.39E-02
2287,9.02E-03,2.92E-02
2288,9.39E-03,3.05E-02
2289,7.82E-03,8.46E-02
2290,9.31E-03,9.78E-02
2291,9.63E-03,0.10178
2292,8.25E-03,9.48E-02
2293,7.36E-03,8.96E-02
2294,8.50E-03,3.84E-02
2295,8.80E-03,3.92E-02
2296,7.24E-03,3.16E-02
2297,7.36E-03,3.42E-02
2298,9.68E-03,8.47E-02
2299,4.62E-03,7.82E-02
2300,7.50E-03,3.62E-02
2301,5.49E-03,0.10146
2302,7.56E-03,3.52E-02
2303,8.43E-03,3.63E-02
2304,9.66E-03,7.21E-02
2305,7.24E-03,3.56E-02
2306,8.49E-03,3.39E-02
2307,8.55E-03,3.12E-02
2308,7.53E-03,9.19E-02
2309,8.43E-03,9.02E-02
2310,9.19E-03,3.40E-02
2311,9.09E-03,3.37E-02
2312,9.22E-03,3.31E-02
2313,9.29E-03,3.24E-02
2314,9.21E-03,3.16E-02
2315,1.04E-02,7.19E-02
2316,8.79E-03,7.32E-02
2317,8.29E-03,7.53E-02
2318,8.34E-03,7.66E-02
2319,8.32E-03,7.73E-02
2320,8.36E-03,7.83E-02
2321,8.29E-03,7.95E-02
2322,8.42E-03,8.09E-02
2323,8.48E-03,8.24E-02
2324,8.30E-03,8.41E-02
2325,1.03E-02,8.82E-02
2326,1.02E-02,9.02E-02
2327,1.02E-02,9.20E-02
2328,1.02E-02,9.36E-02
2329,9.17E-03,9.52E-02
2330,9.19E-03,9.65E-02
2331,9.52E-03,9.78E-02
2332,1.08E-02,9.95E-02
2333,3.32E-03,9.31E-02
2334,7.46E-03,9.17E-02
2335,6.90E-03,3.56E-02
2336,6.53E-03,3.55E-02
2337,6.57E-03,3.50E-02
2338,4.71E-03,3.48E-02
2339,5.07E-03,3.50E-02
2340,8.24E-03,3.46E-02
2341,9.06E-03,3.94E-02
2342,9.12E-03,3.93E-02
2343,6.96E-03,3.14E-02
2344,6.71E-03,3.12E-02
2345,7.10E-03,3.08E-02
2346,6.56E-03,2.98E-02
2347,6.82E-03,2.93E-02
2348,6.95E-03,2.87E-02
2349,7.61E-03,2.80E-02
2350,8.22E-03,2.70E-02
2351,8.34E-03,2.60E-02
2352,8.47E-03,2.48E-02
2353,8.78E-03,2.36E-02
2354,9.12E-03,2.23E-02
2355,9.27E-03,2.10E-02
2356,9.55E-03,1.96E-02
2357,9.57E-03,1.82E-02
2358,9.45E-03,1.69E-02
2359,9.31E-03,1.58E-02
2360,9.18E-03,1.49E-02
2361,9.10E-03,1.43E-02
2362,9.03E-03,1.40E-02
2363,9.00E-03,1.41E-02
2364,9.01E-03,1.46E-02
2365,9.02E-03,1.54E-02
2366,9.03E-03,1.65E-02
2367,9.05E-03,1.79E-02
2368,9.07E-03,1.95E-02
2369,9.10E-03,2.13E-02
2370,9.16E-03,2.32E-02
2371,9.29E-03,2.53E-02
2372,9.43E-03,2.76E-02
2373,9.60E-03,3.00E-02
2374,9.90E-03,3.25E-02
2375,1.00E-02,3.52E-02
2376,1.04E-02,3.79E-02
2377,1.05E-02,4.08E-02
2378,1.06E-02,4.37E-02
2379,1.05E-02,4.67E-02
2380,1.04E-02,4.97E-02
2381,1.04E-02,5.26E-02
2382,1.03E-02,5.56E-02
2383,1.03E-02,5.85E-02
2384,1.02E-02,6.13E-02
2385,1.02E-02,6.40E-02
2386,9.99E-03,6.65E-02
2387,1.07E-02,6.91E-02
2388,9.95E-03,7.14E-02
2389,1.03E-02,9.08E-02
2390,1.02E-02,3.42E-02
2391,8.04E-03,3.56E-02
2392,7.44E-03,3.68E-02
2393,7.83E-03,3.48E-02
2394,9.39E-03,8.35E-02
2395,1.06E-02,8.24E-02
2396,1.12E-02,8.22E-02
2397,1.06E-02,8.19E-02
2398,1.08E-02,8.21E-02
2399,1.09E-02,8.20E-02
2400,1.07E-02,8.25E-02
2401,1.05E-02,8.29E-02
2402,8.42E-03,8.33E-02
2403,8.39E-03,8.38E-02
2404,8.38E-03,8.41E-02
2405,6.16E-03,8.42E-02
2406,6.15E-03,8.41E-02
2407,5.99E-03,8.39E-02
2408,5.88E-03,8.37E-02
2409,8.47E-03,8.33E-02
2410,8.67E-03,8.25E-02
2411,8.87E-03,8.18E-02
2412,9.37E-03,8.08E-02
2413,6.65E-03,8.05E-02
2414,5.88E-03,8.08E-02
2415,4.46E-03,8.05E-02
2416,3.30E-03,7.86E-02
2417,9.00E-03,3.21E-02
2418,8.73E-03,3.16E-02
2419,8.94E-03,3.12E-02
2420,6.13E-03,3.49E-02
2421,7.05E-03,3.33E-02
2422,7.50E-03,3.18E-02
2423,7.68E-03,3.03E-02
2424,8.01E-03,2.88E-02
2425,8.07E-03,2.74E-02
2426,8.07E-03,2.61E-02
2427,8.07E-03,2.49E-02
2428,8.07E-03,2.38E-02
2429,8.07E-03,2.28E-02
2430,8.07E-03,2.19E-02
2431,8.07E-03,2.10E-02
2432,8.07E-03,2.02E-02
2433,8.07E-03,1.94E-02
2434,8.07E-03,1.87E-02
2435,8.07E-03,1.81E-02
2436,8.07E-03,1.77E-02
2437,8.07E-03,1.74E-02
2438,8.07E-03,1.74E-02
2439,8.07E-03,1.76E-02
2440,8.07E-03,1.82E-02
2441,8.07E-03,1.90E-02
2442,8.07E-03,2.02E-02
2443,8.07E-03,2.16E-02
2444,8.07E-03,2.33E-02
2445,8.07E-03,2.53E-02
2446,8.07E-03,2.75E-02
2447,8.07E-03,3.00E-02
2448,8.01E-03,3.27E-02
2449,7.96E-03,3.54E-02
2450,7.84E-03,3.84E-02
2451,7.77E-03,4.15E-02
2452,7.73E-03,4.48E-02
2453,7.79E-03,4.82E-02
2454,7.66E-03,5.13E-02
2455,7.38E-03,5.43E-02
2456,7.09E-03,5.83E-02
2457,7.58E-03,6.37E-02
2458,8.32E-03,3.62E-02
2459,9.51E-03,3.23E-02
2460,9.47E-03,3.34E-02
2461,7.09E-03,9.91E-02
2462,7.13E-03,9.39E-02
2463,7.84E-03,3.74E-02
2464,8.71E-03,3.69E-02
2465,9.27E-03,8.00E-02
2466,9.13E-03,6.92E-02
2467,1.02E-02,7.95E-02
2468,9.57E-03,7.38E-02
2469,7.61E-03,7.74E-02
2470,8.46E-03,3.76E-02
2471,9.65E-03,3.48E-02
2472,8.62E-03,3.39E-02
2473,5.89E-03,3.33E-02
2474,5.75E-03,3.20E-02
2475,1.02E-02,3.05E-02
2476,8.34E-03,3.11E-02
2477,6.14E-03,3.99E-02
2478,7.77E-03,3.91E-02
2479,5.78E-03,3.86E-02
2480,8.85E-03,8.87E-02
2481,7.50E-03,7.43E-02
2482,5.10E-03,7.75E-02
2483,6.29E-03,7.68E-02
2484,7.58E-03,3.77E-02
2485,4.96E-03,0.10448
2486,3.37E-03,4.31E-02
2487,7.47E-03,3.93E-02
2488,8.68E-03,4.40E-02
2489,8.54E-03,4.28E-02
2490,6.50E-03,9.68E-02
2491,7.69E-03,9.46E-02
2492,9.43E-03,3.04E-02
2493,8.33E-03,3.51E-02
2494,9.19E-03,3.61E-02
2495,9.31E-03,3.59E-02
2496,9.36E-03,3.56E-02
2497,9.41E-03,3.50E-02
2498,9.42E-03,3.42E-02
2499,9.34E-03,8.05E-02
2500,9.29E-03,8.06E-02
2501,8.63E-03,8.20E-02
2502,8.38E-03,8.33E-02
2503,8.34E-03,8.44E-02
2504,8.30E-03,8.55E-02
2505,8.38E-03,8.66E-02
2506,8.51E-03,8.79E-02
2507,8.52E-03,8.93E-02
2508,8.67E-03,9.04E-02
2509,1.06E-02,9.36E-02
2510,1.03E-02,9.57E-02
2511,1.02E-02,9.74E-02
2512,9.91E-03,9.90E-02
2513,8.90E-03,0.1004
2514,8.88E-03,0.10162
2515,8.95E-03,0.10275
2516,8.77E-03,0.10461
2517,3.49E-03,9.73E-02
2518,7.21E-03,9.60E-02
2519,7.31E-03,3.70E-02
2520,7.00E-03,3.68E-02
2521,6.64E-03,3.65E-02
2522,5.33E-03,3.62E-02
2523,5.03E-03,3.62E-02
2524,8.74E-03,3.57E-02
2525,9.66E-03,8.13E-02
2526,7.77E-03,8.42E-02
2527,8.78E-03,3.99E-02
2528,9.45E-03,4.24E-02
2529,1.10E-02,4.50E-02
2530,9.13E-03,4.50E-02
2531,1.07E-02,4.61E-02
2532,9.92E-03,3.10E-02
2533,9.68E-03,3.08E-02
2534,9.96E-03,3.04E-02
2535,1.05E-02,2.98E-02
2536,7.19E-03,4.22E-02
2537,7.80E-03,4.22E-02
2538,9.31E-03,4.51E-02
2539,7.05E-03,3.71E-02
2540,7.57E-03,3.59E-02
2541,7.93E-03,3.42E-02
2542,7.98E-03,3.26E-02
2543,8.07E-03,3.12E-02
2544,8.07E-03,2.99E-02
2545,8.07E-03,2.87E-02
2546,8.07E-03,2.76E-02
2547,8.07E-03,2.66E-02
2548,8.07E-03,2.56E-02
2549,8.07E-03,2.47E-02
2550,8.07E-03,2.37E-02
2551,8.07E-03,2.27E-02
2552,8.07E-03,2.17E-02
2553,8.07E-03,2.08E-02
2554,8.07E-03,2.00E-02
2555,8.07E-03,1.93E-02
2556,8.07E-03,1.87E-02
2557,8.07E-03,1.84E-02
2558,8.07E-03,1.84E-02
2559,8.07E-03,1.86E-02
2560,8.07E-03,1.92E-02
2561,8.07E-03,2.01E-02
2562,8.07E-03,2.13E-02
2563,8.07E-03,2.29E-02
2564,8.07E-03,2.47E-02
2565,8.07E-03,2.68E-02
2566,8.07E-03,2.92E-02
2567,8.00E-03,3.18E-02
2568,7.91E-03,3.45E-02
2569,7.94E-03,3.74E-02
2570,7.82E-03,4.05E-02
2571,7.80E-03,4.36E-02
2572,7.74E-03,4.69E-02
2573,7.67E-03,5.05E-02
2574,7.66E-03,5.47E-02
2575,8.08E-03,5.94E-02
2576,8.15E-03,6.39E-02
2577,8.22E-03,6.74E-02
2578,7.90E-03,7.15E-02
2579,7.39E-03,7.58E-02
2580,7.57E-03,8.16E-02
2581,7.80E-03,8.54E-02
2582,8.43E-03,2.73E-02
2583,6.87E-03,2.65E-02
2584,7.14E-03,3.83E-02
2585,9.54E-03,8.71E-02
2586,1.03E-02,8.65E-02
2587,1.05E-02,8.60E-02
2588,1.07E-02,8.56E-02
2589,1.06E-02,8.57E-02
2590,1.07E-02,8.58E-02
2591,1.04E-02,8.61E-02
2592,1.04E-02,8.65E-02
2593,8.48E-03,8.68E-02
2594,8.44E-03,8.72E-02
2595,8.30E-03,8.75E-02
2596,6.29E-03,8.75E-02
2597,6.26E-03,8.75E-02
2598,6.07E-03,8.73E-02
2599,6.06E-03,8.70E-02
2600,8.37E-03,8.65E-02
2601,8.50E-03,8.57E-02
2602,8.54E-03,8.48E-02
2603,8.50E-03,8.43E-02
2604,6.86E-03,8.39E-02
2605,6.32E-03,8.35E-02
2606,6.04E-03,8.26E-02
2607,4.35E-03,8.11E-02
2608,4.51E-03,8.07E-02
2609,4.88E-03,8.06E-02
2610,6.66E-03,9.82E-02
2611,7.60E-03,4.05E-02
2612,8.45E-03,3.89E-02
2613,9.84E-03,3.54E-02
2614,9.43E-03,3.66E-02
2615,6.55E-03,0.1038
2616,6.75E-03,3.86E-02
2617,8.46E-03,3.87E-02
2618,8.62E-03,3.51E-02
2619,8.96E-03,3.59E-02
2620,6.93E-03,3.92E-02
2621,8.10E-03,3.92E-02
2622,9.62E-03,3.92E-02
2623,6.23E-03,0.10757
2624,6.46E-03,4.32E-02
2625,9.04E-03,8.77E-02
2626,9.00E-03,8.75E-02
2627,8.87E-03,8.90E-02
2628,5.18E-03,4.12E-02
2629,5.84E-03,4.13E-02
2630,8.67E-03,4.18E-02
2631,7.66E-03,4.33E-02
2632,8.20E-03,4.82E-02
2633,8.42E-03,4.93E-02
2634,8.33E-03,9.25E-02
2635,5.94E-03,9.89E-02
2636,7.46E-03,3.02E-02
2637,6.81E-03,3.00E-02
2638,5.93E-03,2.96E-02
2639,4.71E-03,2.92E-02
2640,4.12E-03,2.86E-02
2641,5.60E-03,2.84E-02
2642,6.12E-03,2.83E-02
2643,6.93E-03,2.81E-02
2644,6.87E-03,2.76E-02
2645,7.97E-03,2.70E-02
2646,7.96E-03,2.61E-02
2647,8.47E-03,2.51E-02
2648,8.61E-03,2.40E-02
2649,8.85E-03,2.28E-02
2650,9.08E-03,2.16E-02
2651,9.20E-03,2.04E-02
2652,9.43E-03,1.91E-02
2653,9.39E-03,1.79E-02
2654,9.35E-03,1.67E-02
2655,9.15E-03,1.57E-02
2656,9.09E-03,1.50E-02
2657,9.02E-03,1.45E-02
2658,8.96E-03,1.43E-02
2659,8.93E-03,1.45E-02
2660,8.93E-03,1.50E-02
2661,8.94E-03,1.58E-02
2662,8.95E-03,1.68E-02
2663,8.97E-03,1.82E-02
2664,8.99E-03,1.97E-02
2665,9.01E-03,2.15E-02
2666,9.07E-03,2.33E-02
2667,9.19E-03,2.54E-02
2668,9.32E-03,2.75E-02
2669,9.48E-03,2.98E-02
2670,9.70E-03,3.22E-02
2671,9.96E-03,3.47E-02
2672,1.02E-02,3.74E-02
2673,1.03E-02,4.01E-02
2674,1.04E-02,4.29E-02
2675,1.05E-02,4.58E-02
2676,1.04E-02,4.86E-02
2677,1.03E-02,5.15E-02
2678,1.02E-02,5.43E-02
2679,1.02E-02,5.70E-02
2680,1.02E-02,5.97E-02
2681,1.01E-02,6.22E-02
2682,9.98E-03,6.47E-02
2683,9.84E-03,6.69E-02
2684,9.38E-03,6.89E-02
2685,8.66E-03,7.07E-02
2686,7.68E-03,7.22E-02
2687,7.12E-03,7.35E-02
2688,6.93E-03,7.47E-02
2689,7.36E-03,7.60E-02
2690,7.40E-03,4.17E-02
2691,7.29E-03,4.23E-02
2692,8.06E-03,3.42E-02
2693,7.71E-03,3.22E-02
2694,7.48E-03,3.10E-02
2695,8.36E-03,3.03E-02
2696,9.67E-03,2.90E-02
2697,1.02E-02,2.86E-02
2698,8.25E-03,2.76E-02
2699,6.84E-03,2.68E-02
2700,5.18E-03,4.21E-02
2701,3.14E-03,4.43E-02
2702,1.04E-02,3.00E-02
2703,4.28E-03,4.47E-02
2704,6.80E-03,4.75E-02
2705,9.07E-03,4.19E-02
2706,9.17E-03,3.88E-02
2707,9.66E-03,3.87E-02
2708,9.61E-03,3.84E-02
2709,9.55E-03,3.79E-02
2710,9.62E-03,3.73E-02
2711,9.09E-03,8.82E-02
2712,9.09E-03,8.87E-02
2713,8.82E-03,8.94E-02
2714,8.49E-03,9.06E-02
2715,8.41E-03,9.18E-02
2716,8.35E-03,9.29E-02
2717,8.49E-03,9.40E-02
2718,8.52E-03,9.51E-02
2719,8.62E-03,9.61E-02
2720,9.12E-03,9.67E-02
2721,9.94E-03,9.75E-02
2722,1.04E-02,9.87E-02
2723,1.05E-02,9.96E-02
2724,1.03E-02,0.10123
2725,1.01E-02,0.10285
2726,9.72E-03,0.10437
2727,8.52E-03,0.10572
2728,8.50E-03,0.10689
2729,8.37E-03,0.10804
2730,7.87E-03,0.10892
2731,4.46E-03,0.10172
2732,6.93E-03,0.10022
2733,5.64E-03,4.65E-02
2734,7.57E-03,3.86E-02
2735,7.14E-03,3.85E-02
2736,6.18E-03,3.82E-02
2737,6.00E-03,3.79E-02
2738,5.57E-03,3.76E-02
2739,8.74E-03,3.69E-02
2740,9.51E-03,3.96E-02
2741,6.59E-03,0.10828
2742,8.53E-03,4.19E-02
2743,7.85E-03,4.00E-02
2744,7.97E-03,3.81E-02
2745,8.01E-03,3.64E-02
2746,8.07E-03,3.50E-02
2747,8.07E-03,3.37E-02
2748,8.07E-03,3.26E-02
2749,8.07E-03,3.16E-02
2750,8.07E-03,3.06E-02
2751,8.07E-03,2.96E-02
2752,8.07E-03,2.85E-02
2753,8.07E-03,2.75E-02
2754,8.07E-03,2.64E-02
2755,8.07E-03,2.52E-02
2756,8.07E-03,2.41E-02
2757,8.07E-03,2.30E-02
2758,8.07E-03,2.20E-02
2759,8.07E-03,2.10E-02
2760,8.07E-03,2.03E-02
2761,8.07E-03,1.97E-02
2762,8.07E-03,1.94E-02
2763,8.07E-03,1.93E-02
2764,8.07E-03,1.97E-02
2765,8.07E-03,2.03E-02
2766,8.07E-03,2.13E-02
2767,8.07E-03,2.27E-02
2768,8.07E-03,2.44E-02
2769,8.07E-03,2.63E-02
2770,8.07E-03,2.85E-02
2771,8.01E-03,3.10E-02
2772,7.98E-03,3.37E-02
2773,7.91E-03,3.65E-02
2774,7.92E-03,3.94E-02
2775,7.88E-03,4.27E-02
2776,7.83E-03,4.63E-02
2777,7.93E-03,5.02E-02
2778,8.01E-03,5.42E-02
2779,7.97E-03,5.82E-02
2780,8.05E-03,6.22E-02
2781,7.96E-03,6.63E-02
2782,8.03E-03,7.10E-02
2783,7.64E-03,7.57E-02
2784,7.19E-03,7.92E-02
2785,8.01E-03,8.43E-02
2786,7.81E-03,8.95E-02
2787,7.47E-03,9.44E-02
2788,8.60E-03,9.06E-02
2789,7.94E-03,9.23E-02
2790,7.42E-03,9.32E-02
2791,7.59E-03,9.20E-02
2792,7.54E-03,9.38E-02
2793,8.77E-03,9.58E-02
2794,8.69E-03,9.63E-02
2795,8.44E-03,9.77E-02
2796,7.47E-03,4.15E-02
2797,8.56E-03,4.61E-02
2798,8.77E-03,4.44E-02
2799,9.17E-03,4.71E-02
2800,1.08E-02,5.03E-02
2801,8.73E-03,5.06E-02
2802,1.02E-02,5.20E-02
2803,8.72E-03,5.44E-02
2804,8.61E-03,9.75E-02
2805,9.05E-03,9.17E-02
2806,1.04E-02,9.07E-02
2807,1.02E-02,8.98E-02
2808,1.06E-02,8.95E-02
2809,1.06E-02,8.94E-02
2810,1.06E-02,8.96E-02
2811,1.02E-02,8.99E-02
2812,1.01E-02,9.02E-02
2813,8.58E-03,9.05E-02
2814,8.49E-03,9.08E-02
2815,8.02E-03,9.10E-02
2816,6.59E-03,9.10E-02
2817,6.39E-03,9.09E-02
2818,6.26E-03,9.06E-02
2819,6.23E-03,9.02E-02
2820,8.14E-03,8.96E-02
2821,8.38E-03,8.88E-02
2822,8.42E-03,8.81E-02
2823,8.00E-03,8.75E-02
2824,7.25E-03,8.68E-02
2825,6.75E-03,8.60E-02
2826,6.29E-03,8.49E-02
2827,4.86E-03,8.41E-02
2828,4.91E-03,8.36E-02
2829,4.94E-03,8.28E-02
2830,5.75E-03,8.13E-02
2831,7.69E-03,7.97E-02
2832,7.98E-03,2.96E-02
2833,7.20E-03,2.91E-02
2834,5.87E-03,2.87E-02
2835,5.03E-03,2.84E-02
2836,3.82E-03,2.84E-02
2837,4.14E-03,2.80E-02
2838,5.31E-03,2.76E-02
2839,5.86E-03,2.73E-02
2840,6.88E-03,2.70E-02
2841,6.74E-03,2.66E-02
2842,8.08E-03,2.60E-02
2843,8.03E-03,2.52E-02
2844,8.54E-03,2.43E-02
2845,8.61E-03,2.33E-02
2846,8.83E-03,2.22E-02
2847,9.04E-03,2.10E-02
2848,9.21E-03,1.99E-02
2849,9.35E-03,1.87E-02
2850,9.24E-03,1.76E-02
2851,9.18E-03,1.66E-02
2852,9.06E-03,1.57E-02
2853,9.00E-03,1.51E-02
2854,8.93E-03,1.47E-02
2855,8.88E-03,1.46E-02
2856,8.85E-03,1.48E-02
2857,8.85E-03,1.53E-02
2858,8.86E-03,1.61E-02
2859,8.87E-03,1.72E-02
2860,8.89E-03,1.85E-02
2861,8.91E-03,1.99E-02
2862,8.93E-03,2.16E-02
2863,8.98E-03,2.34E-02
2864,9.09E-03,2.54E-02
2865,9.21E-03,2.74E-02
2866,9.35E-03,2.96E-02
2867,9.55E-03,3.19E-02
2868,9.79E-03,3.43E-02
2869,1.00E-02,3.68E-02
2870,1.01E-02,3.94E-02
2871,1.02E-02,4.21E-02
2872,1.03E-02,4.48E-02
2873,1.03E-02,4.75E-02
2874,1.03E-02,5.02E-02
2875,1.02E-02,5.29E-02
2876,1.01E-02,5.55E-02
2877,1.01E-02,5.80E-02
2878,9.95E-03,6.04E-02
2879,9.72E-03,6.27E-02
2880,9.33E-03,6.48E-02
2881,9.04E-03,6.68E-02
2882,8.56E-03,6.86E-02
2883,8.06E-03,7.03E-02
2884,7.74E-03,7.18E-02
2885,7.67E-03,7.31E-02
2886,8.17E-03,7.78E-02
2887,8.10E-03,7.44E-02
2888,8.67E-03,7.60E-02
2889,6.81E-03,4.55E-02
2890,8.94E-03,4.47E-02
2891,7.05E-03,4.48E-02
2892,6.37E-03,4.47E-02
2893,7.90E-03,5.50E-02
2894,7.55E-03,5.39E-02
2895,1.04E-02,3.03E-02
2896,1.01E-02,2.99E-02
2897,1.01E-02,2.96E-02
2898,1.02E-02,2.90E-02
2899,1.01E-02,2.83E-02
2900,9.54E-03,2.78E-02
2901,8.60E-03,2.71E-02
2902,7.73E-03,2.63E-02
2903,7.35E-03,2.57E-02
2904,8.22E-03,2.49E-02
2905,7.74E-03,4.45E-02
2906,7.36E-03,0.11248
2907,7.06E-03,4.29E-02
2908,7.32E-03,4.37E-02
2909,8.04E-03,4.75E-02
2910,5.43E-03,0.10365
2911,1.00E-02,3.48E-02
2912,8.57E-03,3.24E-02
2913,8.37E-03,3.11E-02
2914,8.28E-03,2.99E-02
2915,8.18E-03,2.90E-02
2916,8.51E-03,2.84E-02
2917,8.06E-03,2.76E-02
2918,7.23E-03,2.68E-02
2919,6.86E-03,2.60E-02
2920,7.18E-03,2.49E-02
2921,8.47E-03,2.43E-02
2922,8.94E-03,2.40E-02
2923,7.11E-03,2.32E-02
2924,6.58E-03,4.64E-02
2925,6.11E-03,4.85E-02
2926,7.19E-03,5.25E-02
2927,5.56E-03,0.11645
2928,6.10E-03,0.11512
2929,9.78E-03,4.21E-02
2930,1.00E-02,4.20E-02
2931,9.86E-03,4.17E-02
2932,9.71E-03,4.13E-02
2933,9.57E-03,4.07E-02
2934,9.48E-03,4.01E-02
2935,8.81E-03,9.61E-02
2936,8.82E-03,9.68E-02
2937,8.79E-03,9.74E-02
2938,8.57E-03,9.84E-02
2939,8.49E-03,9.97E-02
2940,8.35E-03,0.10083
2941,8.46E-03,0.10178
2942,8.55E-03,0.10262
2943,8.74E-03,0.10323
2944,9.19E-03,0.10373
2945,9.55E-03,0.10449
2946,1.00E-02,0.10527
2947,1.01E-02,0.10603
2948,1.01E-02,0.10705
2949,9.99E-03,0.10839
2950,9.60E-03,0.10979
2951,8.26E-03,0.11109
2952,8.15E-03,0.11221
2953,8.00E-03,0.11326
2954,7.71E-03,0.11402
2955,5.98E-03,0.10622
2956,6.70E-03,0.10444
2957,6.55E-03,5.04E-02
2958,7.22E-03,0.10159
2959,8.23E-03,9.94E-02
2960,8.18E-03,0.1008
2961,8.47E-03,0.10131
2962,7.54E-03,0.10347
2963,7.67E-03,0.10441
2964,7.69E-03,4.09E-02
2965,6.94E-03,4.05E-02
2966,6.28E-03,4.02E-02
2967,6.34E-03,3.97E-02
2968,6.13E-03,3.91E-02
2969,8.71E-03,3.82E-02
2970,9.05E-03,3.72E-02
2971,8.87E-03,4.92E-02
2972,9.15E-03,5.26E-02
2973,8.97E-03,5.57E-02
2974,6.38E-03,5.81E-02
2975,8.12E-03,5.64E-02
2976,7.29E-03,5.85E-02
2977,5.64E-03,5.89E-02
2978,6.58E-03,5.05E-02
2979,7.98E-03,5.04E-02
2980,9.33E-03,9.65E-02
2981,1.01E-02,9.48E-02
2982,1.02E-02,9.39E-02
2983,1.04E-02,9.35E-02
2984,1.04E-02,9.34E-02
2985,1.04E-02,9.36E-02
2986,1.00E-02,9.39E-02
2987,9.87E-03,9.42E-02
2988,8.84E-03,9.45E-02
2989,8.42E-03,9.46E-02
2990,7.72E-03,9.46E-02
2991,6.85E-03,9.45E-02
2992,6.55E-03,9.43E-02
2993,6.23E-03,9.39E-02
2994,6.28E-03,9.34E-02
2995,8.04E-03,9.28E-02
2996,8.35E-03,9.19E-02
2997,8.31E-03,9.11E-02
2998,7.90E-03,9.03E-02
2999,7.53E-03,8.94E-02
3000,7.13E-03,8.84E-02
3001,6.24E-03,8.76E-02
3002,5.57E-03,8.68E-02
3003,5.26E-03,8.59E-02
3004,5.27E-03,8.48E-02
3005,6.52E-03,8.35E-02
3006,8.10E-03,8.18E-02
3007,8.81E-03,7.99E-02
3008,9.56E-03,7.79E-02
3009,8.06E-03,4.90E-02
3010,9.03E-03,4.45E-02
3011,7.79E-03,0.11284
3012,4.50E-03,0.10622
3013,4.63E-03,9.91E-02
3014,5.00E-03,9.79E-02
3015,8.81E-03,9.56E-02
3016,7.96E-03,9.08E-02
3017,7.91E-03,8.44E-02
3018,7.85E-03,7.93E-02
3019,7.74E-03,7.43E-02
3020,7.79E-03,6.96E-02
3021,7.89E-03,6.52E-02
3022,8.00E-03,6.10E-02
3023,7.95E-03,5.69E-02
3024,8.00E-03,5.30E-02
3025,8.07E-03,4.91E-02
3026,8.07E-03,4.54E-02
3027,8.03E-03,4.19E-02
3028,7.98E-03,3.87E-02
3029,7.98E-03,3.57E-02
3030,8.01E-03,3.29E-02
3031,8.07E-03,3.04E-02
3032,8.07E-03,2.81E-02
3033,8.07E-03,2.60E-02
3034,8.07E-03,2.43E-02
3035,8.07E-03,2.28E-02
3036,8.07E-03,2.17E-02
3037,8.07E-03,2.09E-02
3038,8.07E-03,2.05E-02
3039,8.07E-03,2.04E-02
3040,8.07E-03,2.06E-02
3041,8.07E-03,2.11E-02
3042,8.07E-03,2.19E-02
3043,8.07E-03,2.29E-02
3044,8.07E-03,2.40E-02
3045,8.07E-03,2.52E-02
3046,8.07E-03,2.64E-02
3047,8.07E-03,2.77E-02
3048,8.07E-03,2.90E-02
3049,8.07E-03,3.02E-02
3050,8.07E-03,3.14E-02
3051,8.07E-03,3.26E-02
3052,8.07E-03,3.36E-02
3053,8.07E-03,3.47E-02
3054,8.07E-03,3.57E-02
3055,8.07E-03,3.67E-02
3056,8.07E-03,3.77E-02
3057,8.07E-03,3.89E-02
3058,8.08E-03,4.03E-02
3059,8.11E-03,4.19E-02
3060,8.29E-03,4.38E-02
3061,8.93E-03,4.64E-02
3062,8.42E-03,4.88E-02
3063,8.21E-03,5.19E-02
3064,6.60E-03,4.78E-02
3065,6.71E-03,4.99E-02
3066,7.36E-03,0.1038
3067,8.48E-03,0.10451
3068,8.36E-03,0.10529
3069,8.32E-03,0.10656
3070,7.29E-03,4.38E-02
3071,6.80E-03,0.11702
3072,8.60E-03,5.07E-02
3073,8.76E-03,5.17E-02
3074,7.32E-03,5.74E-02
3075,7.37E-03,5.91E-02
3076,7.40E-03,6.06E-02
3077,8.27E-03,0.10565
3078,9.18E-03,0.10327
3079,7.65E-03,2.32E-02
3080,9.39E-03,2.41E-02
3081,9.46E-03,2.47E-02
3082,8.42E-03,2.55E-02
3083,8.47E-03,2.62E-02
3084,8.77E-03,2.68E-02
3085,9.21E-03,2.73E-02
3086,9.64E-03,2.78E-02
3087,9.96E-03,2.83E-02
3088,1.02E-02,2.87E-02
3089,1.03E-02,2.91E-02
3090,1.04E-02,2.94E-02
3091,9.93E-03,2.93E-02
3092,9.61E-03,2.90E-02
3093,8.28E-03,2.88E-02
3094,7.41E-03,2.84E-02
3095,5.91E-03,2.80E-02
3096,5.39E-03,2.78E-02
3097,4.77E-03,2.75E-02
3098,4.65E-03,2.72E-02
3099,5.28E-03,2.69E-02
3100,5.85E-03,2.65E-02
3101,6.91E-03,2.61E-02
3102,6.82E-03,2.57E-02
3103,8.10E-03,2.51E-02
3104,8.09E-03,2.44E-02
3105,8.58E-03,2.35E-02
3106,8.65E-03,2.26E-02
3107,8.85E-03,2.15E-02
3108,9.02E-03,2.05E-02
3109,9.23E-03,1.94E-02
3110,9.28E-03,1.83E-02
3111,9.13E-03,1.73E-02
3112,9.02E-03,1.65E-02
3113,8.96E-03,1.57E-02
3114,8.91E-03,1.52E-02
3115,8.85E-03,1.49E-02
3116,8.80E-03,1.49E-02
3117,8.77E-03,1.51E-02
3118,8.78E-03,1.56E-02
3119,8.79E-03,1.64E-02
3120,8.80E-03,1.75E-02
3121,8.81E-03,1.87E-02
3122,8.83E-03,2.01E-02
3123,8.85E-03,2.17E-02
3124,8.90E-03,2.34E-02
3125,8.99E-03,2.53E-02
3126,9.10E-03,2.73E-02
3127,9.23E-03,2.94E-02
3128,9.41E-03,3.16E-02
3129,9.63E-03,3.39E-02
3130,9.82E-03,3.63E-02
3131,9.93E-03,3.88E-02
3132,9.99E-03,4.13E-02
3133,1.00E-02,4.38E-02
3134,1.01E-02,4.64E-02
3135,1.01E-02,4.90E-02
3136,1.00E-02,5.15E-02
3137,9.93E-03,5.40E-02
3138,9.83E-03,5.63E-02
3139,9.73E-03,5.86E-02
3140,9.56E-03,6.08E-02
3141,9.11E-03,6.29E-02
3142,8.89E-03,6.48E-02
3143,8.60E-03,6.65E-02
3144,8.31E-03,6.82E-02
3145,8.25E-03,6.98E-02
3146,8.28E-03,7.13E-02
3147,8.50E-03,7.27E-02
3148,9.03E-03,7.42E-02
3149,9.98E-03,7.58E-02
3150,9.87E-03,4.61E-02
3151,7.69E-03,4.66E-02
3152,1.02E-02,3.44E-02
3153,8.58E-03,3.24E-02
3154,8.37E-03,3.10E-02
3155,8.35E-03,2.98E-02
3156,8.04E-03,2.89E-02
3157,8.09E-03,2.81E-02
3158,7.89E-03,2.74E-02
3159,7.68E-03,2.65E-02
3160,7.56E-03,2.57E-02
3161,7.89E-03,2.47E-02
3162,7.62E-03,2.39E-02
3163,7.81E-03,2.36E-02
3164,7.52E-03,2.30E-02
3165,7.18E-03,2.24E-02
3166,8.16E-03,2.17E-02
3167,6.00E-03,5.53E-02
3168,5.64E-03,5.55E-02
3169,3.58E-03,0.1117
3170,7.70E-03,0.11509
3171,6.88E-03,9.72E-02
3172,9.96E-03,4.56E-02
3173,9.95E-03,4.56E-02
3174,9.95E-03,4.55E-02
3175,9.85E-03,4.52E-02
3176,9.51E-03,4.48E-02
3177,9.31E-03,4.44E-02
3178,8.51E-03,0.10461
3179,8.64E-03,0.10499
3180,8.68E-03,0.10585
3181,8.56E-03,0.10699
3182,8.44E-03,0.10816
3183,8.31E-03,0.10924
3184,8.42E-03,0.1101
3185,8.53E-03,0.11058
3186,8.71E-03,0.11086
3187,9.04E-03,0.11117
3188,9.40E-03,0.11148
3189,9.67E-03,0.11182
3190,9.87E-03,0.11228
3191,9.87E-03,0.11299
3192,9.77E-03,0.11398
3193,9.52E-03,0.11514
3194,7.98E-03,0.11632
3195,7.81E-03,0.11737
3196,7.73E-03,0.11824
3197,7.68E-03,0.11901
3198,7.99E-03,0.11073
3199,7.21E-03,0.10827
3200,8.01E-03,5.50E-02
3201,6.66E-03,4.84E-02
3202,5.11E-03,0.10988
3203,6.15E-03,0.10749
3204,6.34E-03,0.10762
3205,6.17E-03,0.11105
3206,6.64E-03,0.11426
3207,8.00E-03,0.11677
3208,8.21E-03,0.10804
3209,8.06E-03,0.10949
3210,7.92E-03,0.11155
3211,7.67E-03,0.11403
3212,8.29E-03,0.11606
3213,7.57E-03,4.34E-02
3214,7.08E-03,4.27E-02
3215,6.78E-03,4.22E-02
3216,6.31E-03,4.15E-02
3217,6.60E-03,4.07E-02
3218,8.60E-03,3.96E-02
3219,8.89E-03,3.81E-02
3220,6.44E-03,6.02E-02
3221,8.66E-03,4.95E-02
3222,3.89E-03,0.12097
3223,7.50E-03,0.11706
3224,6.99E-03,9.17E-02
3225,7.66E-03,8.79E-02
3226,8.22E-03,8.35E-02
3227,7.92E-03,7.87E-02
3228,7.90E-03,7.36E-02
3229,7.87E-03,6.88E-02
3230,7.93E-03,6.41E-02
3231,7.91E-03,5.97E-02
3232,7.99E-03,5.56E-02
3233,8.01E-03,5.17E-02
3234,8.07E-03,4.80E-02
3235,8.07E-03,4.44E-02
3236,8.07E-03,4.10E-02
3237,8.07E-03,3.79E-02
3238,8.07E-03,3.50E-02
3239,8.07E-03,3.24E-02
3240,8.07E-03,3.00E-02
3241,8.07E-03,2.79E-02
3242,8.07E-03,2.60E-02
3243,8.07E-03,2.45E-02
3244,8.07E-03,2.33E-02
3245,8.07E-03,2.24E-02
3246,8.07E-03,2.18E-02
3247,8.07E-03,2.16E-02
3248,8.07E-03,2.17E-02
3249,8.07E-03,2.21E-02
3250,8.07E-03,2.28E-02
3251,8.07E-03,2.37E-02
3252,8.07E-03,2.47E-02
3253,8.07E-03,2.59E-02
3254,8.07E-03,2.72E-02
3255,8.07E-03,2.86E-02
3256,8.07E-03,3.00E-02
3257,8.07E-03,3.14E-02
3258,8.07E-03,3.28E-02
3259,8.07E-03,3.42E-02
3260,8.07E-03,3.55E-02
3261,8.07E-03,3.67E-02
3262,8.07E-03,3.78E-02
3263,8.07E-03,3.89E-02
3264,8.07E-03,3.98E-02
3265,8.07E-03,4.08E-02
3266,8.07E-03,4.18E-02
3267,8.07E-03,4.28E-02
3268,8.09E-03,4.41E-02
3269,8.18E-03,4.57E-02
3270,8.34E-03,4.76E-02
3271,8.32E-03,5.01E-02
3272,7.68E-03,5.20E-02
3273,7.57E-03,5.45E-02
3274,7.59E-03,5.52E-02
3275,9.05E-03,5.58E-02
3276,7.13E-03,6.23E-02
3277,7.06E-03,6.41E-02
3278,7.11E-03,6.56E-02
3279,6.64E-03,0.12505
3280,9.01E-03,5.43E-02
3281,9.09E-03,5.82E-02
3282,9.53E-03,0.10066
3283,9.70E-03,9.92E-02
3284,1.00E-02,9.84E-02
3285,1.03E-02,9.79E-02
3286,1.03E-02,9.77E-02
3287,1.03E-02,9.79E-02
3288,9.77E-03,9.81E-02
3289,9.58E-03,9.84E-02
3290,9.07E-03,9.85E-02
3291,8.38E-03,9.86E-02
3292,7.58E-03,9.84E-02
3293,6.99E-03,9.81E-02
3294,6.69E-03,9.77E-02
3295,6.13E-03,9.72E-02
3296,6.27E-03,9.66E-02
3297,8.10E-03,9.57E-02
3298,8.53E-03,9.47E-02
3299,8.34E-03,9.37E-02
3300,8.01E-03,9.28E-02
3301,7.65E-03,9.18E-02
3302,7.24E-03,9.09E-02
3303,6.21E-03,9.01E-02
3304,6.07E-03,8.92E-02
3305,5.54E-03,8.82E-02
3306,6.15E-03,8.71E-02
3307,6.96E-03,8.56E-02
3308,8.22E-03,8.40E-02
3309,9.53E-03,8.22E-02
3310,1.03E-02,8.02E-02
3311,9.13E-03,5.34E-02
3312,8.55E-03,0.10885
3313,9.11E-03,0.10879
3314,8.12E-03,0.11372
3315,7.80E-03,0.11454
3316,8.06E-03,0.11557
3317,1.05E-02,4.81E-02
3318,1.03E-02,4.90E-02
3319,7.50E-03,4.89E-02
3320,7.60E-03,4.61E-02
3321,1.03E-02,5.75E-02
3322,8.52E-03,3.34E-02
3323,8.40E-03,3.21E-02
3324,8.42E-03,3.08E-02
3325,8.38E-03,2.96E-02
3326,8.04E-03,2.86E-02
3327,7.98E-03,2.77E-02
3328,7.88E-03,2.70E-02
3329,7.82E-03,2.61E-02
3330,7.78E-03,2.53E-02
3331,7.83E-03,2.45E-02
3332,7.76E-03,2.38E-02
3333,7.72E-03,2.32E-02
3334,7.69E-03,2.26E-02
3335,7.92E-03,2.20E-02
3336,7.46E-03,2.12E-02
3337,8.81E-03,2.09E-02
3338,8.97E-03,2.04E-02
3339,8.06E-03,1.98E-02
3340,7.19E-03,1.92E-02
3341,7.25E-03,1.94E-02
3342,7.95E-03,1.99E-02
3343,9.26E-03,2.05E-02
3344,1.06E-02,2.12E-02
3345,8.60E-03,2.19E-02
3346,7.64E-03,2.26E-02
3347,8.04E-03,2.32E-02
3348,8.53E-03,2.39E-02
3349,8.69E-03,2.44E-02
3350,8.79E-03,2.52E-02
3351,8.68E-03,2.58E-02
3352,8.78E-03,2.64E-02
3353,9.08E-03,2.68E-02
3354,9.30E-03,2.72E-02
3355,9.75E-03,2.77E-02
3356,9.96E-03,2.80E-02
3357,1.02E-02,2.83E-02
3358,1.03E-02,2.84E-02
3359,9.75E-03,2.84E-02
3360,9.36E-03,2.82E-02
3361,8.15E-03,2.79E-02
3362,7.49E-03,2.76E-02
3363,6.24E-03,2.74E-02
3364,5.42E-03,2.70E-02
3365,5.18E-03,2.67E-02
3366,4.91E-03,2.64E-02
3367,5.34E-03,2.60E-02
3368,6.26E-03,2.57E-02
3369,6.91E-03,2.53E-02
3370,7.11E-03,2.48E-02
3371,7.84E-03,2.42E-02
3372,8.21E-03,2.36E-02
3373,8.58E-03,2.28E-02
3374,8.64E-03,2.19E-02
3375,8.85E-03,2.10E-02
3376,9.04E-03,2.00E-02
3377,9.21E-03,1.90E-02
3378,9.15E-03,1.80E-02
3379,9.02E-03,1.71E-02
3380,8.92E-03,1.64E-02
3381,8.86E-03,1.58E-02
3382,8.81E-03,1.53E-02
3383,8.76E-03,1.51E-02
3384,8.72E-03,1.51E-02
3385,8.70E-03,1.54E-02
3386,8.70E-03,1.59E-02
3387,8.71E-03,1.67E-02
3388,8.72E-03,1.77E-02
3389,8.73E-03,1.89E-02
3390,8.74E-03,2.03E-02
3391,8.76E-03,2.18E-02
3392,8.81E-03,2.35E-02
3393,8.89E-03,2.52E-02
3394,8.99E-03,2.71E-02
3395,9.10E-03,2.91E-02
3396,9.27E-03,3.12E-02
3397,9.46E-03,3.34E-02
3398,9.63E-03,3.57E-02
3399,9.73E-03,3.81E-02
3400,9.78E-03,4.05E-02
3401,9.83E-03,4.29E-02
3402,9.86E-03,4.53E-02
3403,9.87E-03,4.78E-02
3404,9.88E-03,5.01E-02
3405,9.76E-03,5.25E-02
3406,9.54E-03,5.47E-02
3407,9.55E-03,5.69E-02
3408,9.35E-03,5.90E-02
3409,9.05E-03,6.09E-02
3410,8.86E-03,6.28E-02
3411,8.67E-03,6.45E-02
3412,8.51E-03,6.62E-02
3413,8.41E-03,6.78E-02
3414,8.42E-03,6.93E-02
3415,8.74E-03,7.08E-02
3416,9.23E-03,7.23E-02
3417,1.00E-02,7.39E-02
3418,6.93E-03,7.73E-02
3419,7.45E-03,6.21E-02
3420,7.25E-03,6.33E-02
3421,7.38E-03,6.37E-02
3422,9.97E-03,4.88E-02
3423,9.75E-03,4.96E-02
3424,9.90E-03,4.99E-02
3425,9.84E-03,5.01E-02
3426,9.66E-03,5.00E-02
3427,9.25E-03,4.96E-02
3428,8.24E-03,0.11339
3429,8.50E-03,0.11364
3430,8.62E-03,0.11485
3431,8.59E-03,0.11617
3432,8.37E-03,0.1175
3433,8.25E-03,0.11848
3434,8.36E-03,0.11901
3435,8.44E-03,0.11921
3436,8.60E-03,0.11915
3437,8.95E-03,0.11889
3438,9.32E-03,0.11861
3439,9.54E-03,0.1185
3440,9.71E-03,0.11855
3441,9.61E-03,0.1189
3442,9.53E-03,0.11953
3443,9.41E-03,0.12035
3444,7.76E-03,0.1213
3445,7.60E-03,0.12219
3446,7.51E-03,0.12295
3447,7.29E-03,0.12361
3448,6.06E-03,0.124
3449,5.20E-03,0.12414
3450,3.57E-03,0.12368
3451,3.47E-03,0.12264
3452,6.00E-03,0.12206
3453,6.13E-03,0.11784
3454,8.14E-03,0.11475
3455,7.93E-03,0.1117
3456,7.20E-03,5.93E-02
3457,7.94E-03,6.04E-02
3458,8.97E-03,5.96E-02
3459,8.98E-03,6.29E-02
3460,7.20E-03,6.68E-02
3461,7.48E-03,6.79E-02
3462,7.77E-03,6.89E-02
3463,8.60E-03,6.94E-02
3464,7.27E-03,0.12425
3465,5.74E-03,0.13335
3466,9.11E-03,0.10483
3467,9.94E-03,0.10421
3468,9.97E-03,0.10323
3469,1.02E-02,0.10267
3470,1.01E-02,0.10247
3471,9.96E-03,0.10251
3472,9.61E-03,0.10267
3473,9.33E-03,0.10279
3474,8.95E-03,0.10273
3475,8.34E-03,0.10256
3476,7.64E-03,0.10224
3477,7.12E-03,0.10173
3478,6.85E-03,0.10106
3479,6.36E-03,0.10032
3480,6.48E-03,9.95E-02
3481,8.01E-03,9.83E-02
3482,8.57E-03,9.71E-02
3483,8.47E-03,9.59E-02
3484,8.13E-03,9.49E-02
3485,7.81E-03,9.40E-02
3486,7.45E-03,9.31E-02
3487,6.43E-03,9.23E-02
3488,6.04E-03,9.15E-02
3489,5.74E-03,9.05E-02
3490,6.69E-03,8.93E-02
3491,7.41E-03,8.78E-02
3492,8.09E-03,8.63E-02
3493,9.67E-03,8.44E-02
3494,1.06E-02,8.25E-02
3495,1.25E-02,8.06E-02
3496,1.14E-02,7.96E-02
3497,7.00E-03,0.1112
3498,7.41E-03,0.11472
3499,7.10E-03,0.11859
3500,6.96E-03,0.12267
3501,7.06E-03,0.12655
3502,9.23E-03,5.48E-02
3503,8.19E-03,0.11708
3504,7.68E-03,0.1193
3505,7.66E-03,0.12193
3506,7.58E-03,0.12423
3507,7.65E-03,0.12713
3508,5.29E-03,0.13111
3509,7.73E-03,0.12452
3510,7.80E-03,4.86E-02
3511,7.62E-03,0.12358
3512,4.78E-03,0.12412
3513,9.25E-03,0.11365
3514,9.23E-03,6.13E-02
3515,6.38E-03,6.77E-02
3516,6.24E-03,6.88E-02
3517,6.69E-03,6.98E-02
3518,8.44E-03,0.11493
3519,8.62E-03,0.10749
3520,8.35E-03,0.10097
3521,7.96E-03,9.37E-02
3522,7.62E-03,8.73E-02
3523,7.74E-03,8.20E-02
3524,7.95E-03,7.71E-02
3525,7.97E-03,7.23E-02
3526,7.96E-03,6.77E-02
3527,7.96E-03,6.31E-02
3528,7.97E-03,5.86E-02
3529,7.99E-03,5.44E-02
3530,8.07E-03,5.05E-02
3531,8.07E-03,4.69E-02
3532,8.07E-03,4.34E-02
3533,8.07E-03,4.02E-02
3534,8.07E-03,3.72E-02
3535,8.07E-03,3.45E-02
3536,8.07E-03,3.20E-02
3537,8.07E-03,2.98E-02
3538,8.07E-03,2.79E-02
3539,8.07E-03,2.63E-02
3540,8.07E-03,2.50E-02
3541,8.07E-03,2.40E-02
3542,8.07E-03,2.34E-02
3543,8.07E-03,2.30E-02
3544,8.07E-03,2.30E-02
3545,8.07E-03,2.33E-02
3546,8.07E-03,2.38E-02
3547,8.07E-03,2.45E-02
3548,8.07E-03,2.55E-02
3549,8.07E-03,2.66E-02
3550,8.07E-03,2.79E-02
3551,8.07E-03,2.93E-02
3552,8.07E-03,3.07E-02
3553,8.07E-03,3.22E-02
3554,8.07E-03,3.38E-02
3555,8.07E-03,3.53E-02
3556,8.07E-03,3.67E-02
3557,8.07E-03,3.82E-02
3558,8.07E-03,3.95E-02
3559,8.07E-03,4.08E-02
3560,8.07E-03,4.20E-02
3561,8.07E-03,4.31E-02
3562,8.07E-03,4.41E-02
3563,8.07E-03,4.50E-02
3564,8.07E-03,4.60E-02
3565,8.07E-03,4.69E-02
3566,8.07E-03,4.81E-02
3567,8.08E-03,4.95E-02
3568,8.02E-03,5.14E-02
3569,8.05E-03,5.35E-02
3570,8.36E-03,5.58E-02
3571,6.00E-03,5.80E-02
3572,7.26E-03,1.95E-02
3573,7.94E-03,2.00E-02
3574,8.43E-03,2.06E-02
3575,8.78E-03,2.11E-02
3576,8.67E-03,2.18E-02
3577,8.32E-03,2.25E-02
3578,8.27E-03,2.31E-02
3579,8.38E-03,2.36E-02
3580,8.55E-03,2.42E-02
3581,8.61E-03,2.48E-02
3582,8.75E-03,2.54E-02
3583,8.81E-03,2.59E-02
3584,8.97E-03,2.63E-02
3585,9.06E-03,2.67E-02
3586,9.51E-03,2.70E-02
3587,9.82E-03,2.73E-02
3588,9.95E-03,2.75E-02
3589,9.95E-03,2.76E-02
3590,9.87E-03,2.75E-02
3591,9.44E-03,2.74E-02
3592,7.94E-03,2.71E-02
3593,7.36E-03,2.68E-02
3594,6.56E-03,2.66E-02
3595,5.62E-03,2.63E-02
3596,5.33E-03,2.59E-02
3597,4.97E-03,2.56E-02
3598,5.67E-03,2.53E-02
3599,6.69E-03,2.49E-02
3600,6.81E-03,2.45E-02
3601,7.30E-03,2.40E-02
3602,7.79E-03,2.35E-02
3603,8.31E-03,2.28E-02
3604,8.56E-03,2.21E-02
3605,8.64E-03,2.13E-02
3606,8.85E-03,2.04E-02
3607,9.00E-03,1.95E-02
3608,9.07E-03,1.86E-02
3609,9.02E-03,1.77E-02
3610,8.90E-03,1.70E-02
3611,8.82E-03,1.63E-02
3612,8.77E-03,1.58E-02
3613,8.72E-03,1.54E-02
3614,8.68E-03,1.53E-02
3615,8.64E-03,1.53E-02
3616,8.62E-03,1.56E-02
3617,8.62E-03,1.62E-02
3618,8.63E-03,1.69E-02
3619,8.64E-03,1.79E-02
3620,8.65E-03,1.91E-02
3621,8.66E-03,2.04E-02
3622,8.68E-03,2.18E-02
3623,8.72E-03,2.34E-02
3624,8.79E-03,2.51E-02
3625,8.88E-03,2.69E-02
3626,8.98E-03,2.88E-02
3627,9.12E-03,3.08E-02
3628,9.29E-03,3.29E-02
3629,9.44E-03,3.51E-02
3630,9.53E-03,3.73E-02
3631,9.58E-03,3.96E-02
3632,9.62E-03,4.19E-02
3633,9.65E-03,4.42E-02
3634,9.66E-03,4.65E-02
3635,9.66E-03,4.88E-02
3636,9.62E-03,5.10E-02
3637,9.41E-03,5.32E-02
3638,9.32E-03,5.52E-02
3639,9.16E-03,5.72E-02
3640,9.01E-03,5.90E-02
3641,8.81E-03,6.08E-02
3642,8.71E-03,6.25E-02
3643,8.61E-03,6.42E-02
3644,8.59E-03,6.57E-02
3645,8.68E-03,6.73E-02
3646,8.97E-03,6.87E-02
3647,9.20E-03,7.02E-02
3648,9.61E-03,7.17E-02
3649,9.47E-03,7.30E-02
3650,8.55E-03,7.39E-02
3651,6.59E-03,7.51E-02
3652,9.00E-03,7.94E-02
3653,6.71E-03,7.66E-02
3654,8.76E-03,5.21E-02
3655,6.82E-03,5.19E-02
3656,6.86E-03,5.16E-02
3657,1.09E-02,0.12007
3658,9.16E-03,0.12552
3659,8.00E-03,0.12225
3660,8.12E-03,0.12669
3661,7.54E-03,0.12963
3662,7.36E-03,0.13291
3663,7.46E-03,0.13675
3664,6.75E-03,0.13824
3665,6.95E-03,0.14404
3666,5.59E-03,0.14609
3667,7.67E-03,4.58E-02
3668,7.82E-03,4.52E-02
3669,6.47E-03,4.43E-02
3670,6.37E-03,4.36E-02
3671,6.67E-03,4.26E-02
3672,8.64E-03,4.12E-02
3673,8.77E-03,3.95E-02
3674,8.80E-03,3.78E-02
3675,7.98E-03,3.45E-02
3676,8.54E-03,3.27E-02
3677,8.58E-03,3.16E-02
3678,8.48E-03,3.04E-02
3679,8.35E-03,2.92E-02
3680,8.09E-03,2.82E-02
3681,7.98E-03,2.73E-02
3682,7.93E-03,2.65E-02
3683,7.90E-03,2.57E-02
3684,7.94E-03,2.49E-02
3685,7.87E-03,2.42E-02
3686,7.89E-03,2.35E-02
3687,7.81E-03,2.28E-02
3688,7.83E-03,2.22E-02
3689,7.89E-03,2.16E-02
3690,8.15E-03,2.10E-02
3691,8.01E-03,2.04E-02
3692,7.82E-03,2.00E-02
3693,7.67E-03,1.95E-02
3694,7.05E-03,1.90E-02
3695,6.63E-03,1.85E-02
3696,6.16E-03,1.80E-02
3697,5.91E-03,1.76E-02
3698,6.19E-03,1.72E-02
3699,7.97E-03,1.71E-02
3700,6.30E-03,0.14134
3701,6.05E-03,6.61E-02
3702,9.77E-03,6.16E-02
3703,9.47E-03,5.30E-02
3704,9.55E-03,5.40E-02
3705,9.73E-03,5.51E-02
3706,9.64E-03,5.59E-02
3707,9.60E-03,5.62E-02
3708,9.47E-03,5.60E-02
3709,9.03E-03,0.11725
3710,8.12E-03,0.12179
3711,7.74E-03,0.12645
3712,7.44E-03,0.13112
3713,6.32E-03,0.13625
3714,4.82E-03,0.13771
3715,4.81E-03,0.13887
3716,6.65E-03,0.13809
3717,7.28E-03,0.13524
3718,7.48E-03,0.1327
3719,7.62E-03,0.12975
3720,7.97E-03,0.12671
3721,8.16E-03,4.87E-02
3722,8.27E-03,4.79E-02
3723,5.91E-03,4.71E-02
3724,6.58E-03,4.61E-02
3725,6.74E-03,4.48E-02
3726,8.63E-03,4.31E-02
3727,8.76E-03,4.11E-02
3728,8.79E-03,3.91E-02
3729,8.15E-03,3.67E-02
3730,5.81E-03,0.13322
3731,7.88E-03,0.12226
3732,8.51E-03,0.12299
3733,8.57E-03,0.12473
3734,8.50E-03,0.12648
3735,8.38E-03,0.12778
3736,8.21E-03,0.12853
3737,8.25E-03,0.12873
3738,8.37E-03,0.12847
3739,8.55E-03,0.12785
3740,8.80E-03,0.12705
3741,9.10E-03,0.12618
3742,9.39E-03,0.12546
3743,9.62E-03,0.12499
3744,9.39E-03,0.12483
3745,9.37E-03,0.12502
3746,9.12E-03,0.12537
3747,7.61E-03,0.12596
3748,7.51E-03,0.12663
3749,7.36E-03,0.12721
3750,7.01E-03,0.12765
3751,6.29E-03,0.12787
3752,5.46E-03,0.12795
3753,5.41E-03,0.12723
3754,5.30E-03,0.1251
3755,5.18E-03,0.12098
3756,5.73E-03,0.12052
3757,7.59E-03,0.1188
3758,8.52E-03,0.11615
3759,6.47E-03,6.68E-02
3760,8.99E-03,6.46E-02
3761,8.86E-03,6.77E-02
3762,8.41E-03,7.13E-02
3763,5.58E-03,7.42E-02
3764,6.09E-03,7.53E-02
3765,7.18E-03,7.11E-02
3766,7.39E-03,7.26E-02
3767,7.51E-03,7.42E-02
3768,7.66E-03,7.64E-02
3769,7.24E-03,0.12661
3770,5.18E-03,6.27E-02
3771,7.59E-03,5.94E-02
3772,7.65E-03,5.72E-02
3773,7.79E-03,5.52E-02
3774,7.94E-03,5.36E-02
3775,8.00E-03,5.23E-02
3776,8.07E-03,5.13E-02
3777,8.07E-03,5.03E-02
3778,8.07E-03,4.94E-02
3779,8.07E-03,4.84E-02
3780,8.07E-03,4.73E-02
3781,8.07E-03,4.62E-02
3782,8.07E-03,4.49E-02
3783,8.07E-03,4.36E-02
3784,8.07E-03,4.21E-02
3785,8.07E-03,4.06E-02
3786,8.07E-03,3.91E-02
3787,8.07E-03,3.75E-02
3788,8.07E-03,3.59E-02
3789,8.07E-03,3.43E-02
3790,8.07E-03,3.28E-02
3791,8.07E-03,3.13E-02
3792,8.07E-03,2.99E-02
3793,8.07E-03,2.86E-02
3794,8.07E-03,2.75E-02
3795,8.07E-03,2.65E-02
3796,8.07E-03,2.57E-02
3797,8.07E-03,2.51E-02
3798,8.07E-03,2.47E-02
3799,8.07E-03,2.46E-02
3800,8.07E-03,2.47E-02
3801,8.07E-03,2.51E-02
3802,8.07E-03,2.59E-02
3803,8.07E-03,2.69E-02
3804,8.07E-03,2.83E-02
3805,8.07E-03,2.99E-02
3806,8.07E-03,3.19E-02
3807,8.07E-03,3.42E-02
3808,8.07E-03,3.67E-02
3809,8.07E-03,3.95E-02
3810,8.07E-03,4.25E-02
3811,8.07E-03,4.59E-02
3812,8.07E-03,4.95E-02
3813,8.07E-03,5.33E-02
3814,8.07E-03,5.75E-02
3815,8.07E-03,6.18E-02
3816,8.00E-03,6.64E-02
3817,7.95E-03,7.11E-02
3818,7.95E-03,7.63E-02
3819,7.93E-03,8.21E-02
3820,8.06E-03,8.84E-02
3821,8.19E-03,9.51E-02
3822,8.32E-03,0.1022
3823,8.20E-03,0.10961
3824,7.96E-03,0.11739
3825,7.73E-03,0.12541
3826,7.45E-03,0.13362
3827,7.21E-03,0.14149
3828,6.36E-03,0.14949
3829,7.63E-03,0.14867
3830,5.45E-03,0.15373
3831,9.99E-03,0.1097
3832,9.90E-03,0.10863
3833,9.94E-03,0.10801
3834,9.94E-03,0.10775
3835,9.79E-03,0.1077
3836,9.40E-03,0.10763
3837,9.16E-03,0.10749
3838,8.83E-03,0.10718
3839,8.31E-03,0.10671
3840,7.69E-03,0.10608
3841,7.24E-03,0.10529
3842,7.01E-03,0.10433
3843,6.59E-03,0.10323
3844,6.69E-03,0.10202
3845,8.01E-03,0.10063
3846,8.62E-03,9.91E-02
3847,8.53E-03,9.78E-02
3848,8.25E-03,9.67E-02
3849,7.96E-03,9.58E-02
3850,7.64E-03,9.51E-02
3851,6.41E-03,9.43E-02
3852,6.09E-03,9.37E-02
3853,6.01E-03,9.27E-02
3854,6.62E-03,9.16E-02
3855,7.94E-03,9.01E-02
3856,8.19E-03,8.84E-02
3857,9.42E-03,8.67E-02
3858,9.72E-03,8.50E-02
3859,1.02E-02,8.39E-02
3860,1.03E-02,8.28E-02
3861,9.97E-03,8.19E-02
3862,8.88E-03,7.86E-02
3863,1.01E-02,8.11E-02
3864,1.11E-02,8.02E-02
3865,7.70E-03,5.58E-02
3866,8.38E-03,5.76E-02
3867,1.04E-02,6.20E-02
3868,8.13E-03,0.13397
3869,8.82E-03,5.22E-02
3870,5.05E-03,7.27E-02
3871,6.73E-03,7.35E-02
3872,1.09E-02,0.12662
3873,9.70E-03,0.12865
3874,8.72E-03,0.1316
3875,8.52E-03,1.71E-02
3876,7.04E-03,1.76E-02
3877,6.62E-03,1.81E-02
3878,6.64E-03,1.85E-02
3879,7.10E-03,1.90E-02
3880,7.48E-03,1.95E-02
3881,7.80E-03,2.00E-02
3882,8.15E-03,2.05E-02
3883,8.41E-03,2.11E-02
3884,8.58E-03,2.17E-02
3885,8.53E-03,2.23E-02
3886,8.44E-03,2.29E-02
3887,8.49E-03,2.34E-02
3888,8.57E-03,2.39E-02
3889,8.67E-03,2.45E-02
3890,8.79E-03,2.50E-02
3891,8.80E-03,2.54E-02
3892,8.92E-03,2.58E-02
3893,8.98E-03,2.61E-02
3894,9.32E-03,2.64E-02
3895,9.72E-03,2.66E-02
3896,9.72E-03,2.68E-02
3897,9.77E-03,2.68E-02
3898,9.66E-03,2.68E-02
3899,9.23E-03,2.66E-02
3900,8.03E-03,2.64E-02
3901,7.57E-03,2.62E-02
3902,6.55E-03,2.58E-02
3903,6.08E-03,2.55E-02
3904,5.03E-03,2.51E-02
3905,5.45E-03,2.49E-02
3906,5.88E-03,2.45E-02
3907,6.96E-03,2.41E-02
3908,6.96E-03,2.37E-02
3909,7.45E-03,2.33E-02
3910,7.94E-03,2.27E-02
3911,8.29E-03,2.21E-02
3912,8.51E-03,2.14E-02
3913,8.64E-03,2.07E-02
3914,8.74E-03,1.99E-02
3915,8.88E-03,1.91E-02
3916,8.94E-03,1.83E-02
3917,8.89E-03,1.75E-02
3918,8.79E-03,1.68E-02
3919,8.71E-03,1.62E-02
3920,8.67E-03,1.58E-02
3921,8.63E-03,1.55E-02
3922,8.59E-03,1.54E-02
3923,8.56E-03,1.55E-02
3924,8.54E-03,1.59E-02
3925,8.55E-03,1.64E-02
3926,8.55E-03,1.72E-02
3927,8.56E-03,1.81E-02
3928,8.57E-03,1.92E-02
3929,8.58E-03,2.05E-02
3930,8.59E-03,2.19E-02
3931,8.63E-03,2.34E-02
3932,8.69E-03,2.50E-02
3933,8.77E-03,2.67E-02
3934,8.86E-03,2.86E-02
3935,8.98E-03,3.05E-02
3936,9.13E-03,3.24E-02
3937,9.26E-03,3.45E-02
3938,9.33E-03,3.66E-02
3939,9.37E-03,3.88E-02
3940,9.41E-03,4.10E-02
3941,9.43E-03,4.32E-02
3942,9.44E-03,4.53E-02
3943,9.45E-03,4.75E-02
3944,9.41E-03,4.96E-02
3945,9.31E-03,5.16E-02
3946,9.17E-03,5.35E-02
3947,9.04E-03,5.54E-02
3948,8.93E-03,5.72E-02
3949,8.77E-03,5.89E-02
3950,8.71E-03,6.06E-02
3951,8.69E-03,6.22E-02
3952,8.64E-03,6.37E-02
3953,8.62E-03,6.52E-02
3954,8.80E-03,6.66E-02
3955,8.95E-03,6.80E-02
3956,8.98E-03,6.94E-02
3957,8.79E-03,7.06E-02
3958,8.36E-03,7.19E-02
3959,8.11E-03,7.34E-02
3960,8.58E-03,7.50E-02
3961,1.07E-02,8.02E-02
3962,7.98E-03,0.13086
3963,7.32E-03,0.13563
3964,6.28E-03,0.13993
3965,5.25E-03,0.14231
3966,4.12E-03,0.14639
3967,5.77E-03,0.15189
3968,4.85E-03,0.15293
3969,4.81E-03,0.1567
3970,8.36E-03,7.29E-02
3971,9.05E-03,6.67E-02
3972,4.98E-03,7.30E-02
3973,6.05E-03,7.60E-02
3974,1.02E-02,3.44E-02
3975,8.88E-03,3.24E-02
3976,8.56E-03,3.10E-02
3977,8.50E-03,2.98E-02
3978,8.34E-03,2.87E-02
3979,8.13E-03,2.77E-02
3980,8.04E-03,2.68E-02
3981,8.04E-03,2.60E-02
3982,8.04E-03,2.52E-02
3983,8.04E-03,2.44E-02
3984,7.98E-03,2.37E-02
3985,7.95E-03,2.31E-02
3986,7.89E-03,2.24E-02
3987,7.88E-03,2.17E-02
3988,8.01E-03,2.11E-02
3989,8.00E-03,2.06E-02
3990,7.79E-03,2.00E-02
3991,7.74E-03,1.96E-02
3992,7.51E-03,1.91E-02
3993,7.25E-03,1.86E-02
3994,7.03E-03,1.82E-02
3995,6.84E-03,1.77E-02
3996,6.82E-03,1.73E-02
3997,7.06E-03,1.69E-02
3998,8.76E-03,1.67E-02
3999,8.71E-03,1.67E-02
4000,9.17E-03,1.64E-02
4001,7.20E-03,1.62E-02
4002,7.85E-03,1.60E-02
4003,9.63E-03,0.11875
4004,8.94E-03,5.81E-02
4005,9.27E-03,5.95E-02
4006,9.53E-03,6.13E-02
4007,9.52E-03,6.27E-02
4008,9.64E-03,6.34E-02
4009,9.77E-03,6.34E-02
4010,1.03E-02,0.12501
4011,8.85E-03,0.12956
4012,7.80E-03,0.13526
4013,7.22E-03,0.14056
4014,6.60E-03,0.14458
4015,6.05E-03,0.14672
4016,5.99E-03,0.14784
4017,6.49E-03,0.14788
4018,7.04E-03,0.14616
4019,7.44E-03,0.14359
4020,7.81E-03,0.14053
4021,7.96E-03,0.13738
4022,8.37E-03,5.19E-02
4023,8.33E-03,5.08E-02
4024,6.26E-03,5.02E-02
4025,6.68E-03,4.91E-02
4026,6.94E-03,4.76E-02
4027,8.60E-03,4.54E-02
4028,8.86E-03,4.26E-02
4029,9.19E-03,3.99E-02
4030,1.04E-02,3.65E-02
4031,8.34E-03,0.13201
4032,8.70E-03,0.13416
4033,8.63E-03,0.13607
4034,8.59E-03,0.13783
4035,8.39E-03,0.13895
4036,8.11E-03,0.1394
4037,8.19E-03,0.13918
4038,8.27E-03,0.13835
4039,8.42E-03,0.13712
4040,8.66E-03,0.13572
4041,8.97E-03,0.13424
4042,9.29E-03,0.13283
4043,9.53E-03,0.13169
4044,9.34E-03,0.13091
4045,9.13E-03,0.13045
4046,8.85E-03,0.13031
4047,7.55E-03,0.13028
4048,7.52E-03,0.13049
4049,7.32E-03,0.13062
4050,6.95E-03,0.13067
4051,6.51E-03,0.13058
4052,6.10E-03,0.1302
4053,5.15E-03,0.12983
4054,5.27E-03,0.12834
4055,5.63E-03,0.12775
4056,7.50E-03,0.12458
4057,7.41E-03,0.12412
4058,7.78E-03,0.12305
4059,8.54E-03,0.12123
4060,7.97E-03,7.76E-02
4061,8.23E-03,0.13828
4062,7.54E-03,0.13867
4063,9.93E-03,0.11566
4064,9.83E-03,0.11482
4065,9.84E-03,0.11426
4066,9.74E-03,0.11389
4067,9.50E-03,0.11353
4068,9.20E-03,0.11311
4069,8.99E-03,0.11255
4070,8.72E-03,0.11183
4071,8.27E-03,0.11093
4072,7.75E-03,0.1099
4073,7.37E-03,0.10872
4074,7.17E-03,0.10737
4075,6.82E-03,0.10587
4076,6.91E-03,0.10428
4077,8.02E-03,0.10254
4078,8.65E-03,0.10075
4079,8.57E-03,9.92E-02
4080,8.33E-03,9.80E-02
4081,8.07E-03,9.72E-02
4082,7.84E-03,9.66E-02
4083,6.42E-03,9.61E-02
4084,6.24E-03,9.55E-02
4085,6.29E-03,9.47E-02
4086,6.75E-03,9.37E-02
4087,8.09E-03,9.23E-02
4088,8.44E-03,9.06E-02
4089,8.81E-03,8.91E-02
4090,9.57E-03,8.78E-02
4091,9.70E-03,8.67E-02
4092,9.76E-03,8.58E-02
4093,9.60E-03,8.49E-02
4094,9.63E-03,8.42E-02
4095,9.30E-03,8.40E-02
4096,8.98E-03,8.40E-02
4097,7.96E-03,8.41E-02
4098,6.92E-03,8.47E-02
4099,6.23E-03,7.25E-02
4100,6.13E-03,7.23E-02
4101,6.12E-03,7.03E-02
4102,4.71E-03,6.83E-02
4103,4.55E-03,6.83E-02
4104,5.56E-03,6.52E-02
4105,6.52E-03,6.33E-02
4106,7.28E-03,6.12E-02
4107,7.58E-03,5.95E-02
4108,7.90E-03,5.81E-02
4109,8.04E-03,5.69E-02
4110,8.07E-03,5.58E-02
4111,8.07E-03,5.47E-02
4112,8.07E-03,5.37E-02
4113,8.07E-03,5.27E-02
4114,8.07E-03,5.15E-02
4115,8.07E-03,5.03E-02
4116,8.07E-03,4.89E-02
4117,8.07E-03,4.75E-02
4118,8.07E-03,4.60E-02
4119,8.07E-03,4.44E-02
4120,8.07E-03,4.28E-02
4121,8.07E-03,4.11E-02
4122,8.07E-03,3.95E-02
4123,8.07E-03,3.79E-02
4124,8.07E-03,3.63E-02
4125,8.07E-03,3.47E-02
4126,8.07E-03,3.33E-02
4127,8.07E-03,3.19E-02
4128,8.07E-03,3.07E-02
4129,8.07E-03,2.96E-02
4130,8.07E-03,2.86E-02
4131,8.07E-03,2.78E-02
4132,8.07E-03,2.71E-02
4133,8.07E-03,2.66E-02
4134,8.07E-03,2.64E-02
4135,8.07E-03,2.63E-02
4136,8.07E-03,2.65E-02
4137,8.07E-03,2.70E-02
4138,8.07E-03,2.78E-02
4139,8.07E-03,2.89E-02
4140,8.07E-03,3.03E-02
4141,8.07E-03,3.20E-02
4142,8.07E-03,3.40E-02
4143,8.07E-03,3.64E-02
4144,8.07E-03,3.89E-02
4145,8.07E-03,4.18E-02
4146,8.07E-03,4.50E-02
4147,8.07E-03,4.85E-02
4148,8.07E-03,5.23E-02
4149,8.07E-03,5.64E-02
4150,8.07E-03,6.08E-02
4151,8.01E-03,6.55E-02
4152,7.97E-03,7.07E-02
4153,7.99E-03,7.63E-02
4154,8.12E-03,8.25E-02
4155,8.14E-03,8.92E-02
4156,8.16E-03,9.64E-02
4157,8.05E-03,0.10382
4158,7.92E-03,0.11175
4159,7.79E-03,0.12012
4160,7.62E-03,0.12883
4161,7.52E-03,0.13769
4162,7.16E-03,0.14653
4163,7.18E-03,0.15393
4164,7.09E-03,0.15989
4165,6.84E-03,8.22E-02
4166,8.74E-03,6.95E-02
4167,8.99E-03,7.24E-02
4168,7.47E-03,7.54E-02
4169,6.39E-03,7.73E-02
4170,5.09E-03,7.87E-02
4171,5.47E-03,8.04E-02
4172,9.43E-03,7.04E-02
4173,8.27E-03,7.34E-02
4174,7.44E-03,7.53E-02
4175,7.04E-03,7.68E-02
4176,7.02E-03,7.84E-02
4177,6.86E-03,8.05E-02
4178,4.74E-03,8.19E-02
4179,7.84E-03,8.96E-02
4180,7.63E-03,0.13491
4181,6.91E-03,0.13832
4182,6.37E-03,0.14166
4183,5.86E-03,0.14394
4184,5.03E-03,0.1457
4185,4.42E-03,0.14689
4186,3.62E-03,0.14614
4187,3.48E-03,0.1449
4188,4.93E-03,0.14723
4189,5.04E-03,0.14988
4190,5.00E-03,0.15146
4191,6.60E-03,0.15632
4192,6.81E-03,0.16351
4193,8.63E-03,0.13557
4194,8.23E-03,6.21E-02
4195,8.86E-03,6.00E-02
4196,8.66E-03,5.66E-02
4197,5.72E-03,1.57E-02
4198,5.45E-03,1.60E-02
4199,6.92E-03,1.64E-02
4200,7.65E-03,1.67E-02
4201,7.74E-03,1.71E-02
4202,7.24E-03,1.76E-02
4203,7.13E-03,1.81E-02
4204,7.27E-03,1.86E-02
4205,7.40E-03,1.90E-02
4206,7.54E-03,1.95E-02
4207,7.86E-03,2.00E-02
4208,8.09E-03,2.05E-02
4209,8.22E-03,2.10E-02
4210,8.53E-03,2.15E-02
4211,8.44E-03,2.21E-02
4212,8.43E-03,2.26E-02
4213,8.48E-03,2.31E-02
4214,8.50E-03,2.36E-02
4215,8.58E-03,2.41E-02
4216,8.64E-03,2.45E-02
4217,8.73E-03,2.49E-02
4218,8.82E-03,2.53E-02
4219,8.86E-03,2.56E-02
4220,9.12E-03,2.58E-02
4221,9.39E-03,2.60E-02
4222,9.49E-03,2.61E-02
4223,9.63E-03,2.61E-02
4224,9.62E-03,2.60E-02
4225,8.95E-03,2.59E-02
4226,8.18E-03,2.57E-02
4227,7.86E-03,2.54E-02
4228,6.58E-03,2.51E-02
4229,6.29E-03,2.48E-02
4230,4.85E-03,2.45E-02
4231,6.11E-03,2.41E-02
4232,6.34E-03,2.38E-02
4233,6.97E-03,2.34E-02
4234,7.20E-03,2.30E-02
4235,7.56E-03,2.26E-02
4236,8.07E-03,2.20E-02
4237,8.34E-03,2.14E-02
4238,8.48E-03,2.08E-02
4239,8.55E-03,2.01E-02
4240,8.64E-03,1.94E-02
4241,8.75E-03,1.87E-02
4242,8.80E-03,1.80E-02
4243,8.76E-03,1.73E-02
4244,8.67E-03,1.67E-02
4245,8.61E-03,1.62E-02
4246,8.57E-03,1.58E-02
4247,8.54E-03,1.56E-02
4248,8.51E-03,1.56E-02
4249,8.48E-03,1.57E-02
4250,8.47E-03,1.61E-02
4251,8.47E-03,1.66E-02
4252,8.47E-03,1.73E-02
4253,8.48E-03,1.82E-02
4254,8.49E-03,1.93E-02
4255,8.50E-03,2.05E-02
4256,8.51E-03,2.19E-02
4257,8.54E-03,2.33E-02
4258,8.59E-03,2.49E-02
4259,8.66E-03,2.65E-02
4260,8.73E-03,2.83E-02
4261,8.84E-03,3.01E-02
4262,8.96E-03,3.20E-02
4263,9.07E-03,3.39E-02
4264,9.14E-03,3.59E-02
4265,9.17E-03,3.80E-02
4266,9.20E-03,4.00E-02
4267,9.22E-03,4.21E-02
4268,9.23E-03,4.41E-02
4269,9.23E-03,4.62E-02
4270,9.20E-03,4.81E-02
4271,9.11E-03,5.01E-02
4272,9.00E-03,5.19E-02
4273,8.89E-03,5.37E-02
4274,8.80E-03,5.54E-02
4275,8.72E-03,5.71E-02
4276,8.65E-03,5.87E-02
4277,8.58E-03,6.02E-02
4278,8.55E-03,6.17E-02
4279,8.53E-03,6.31E-02
4280,8.60E-03,6.45E-02
4281,8.71E-03,6.59E-02
4282,8.66E-03,6.73E-02
4283,8.61E-03,6.86E-02
4284,8.60E-03,7.00E-02
4285,8.66E-03,7.16E-02
4286,9.31E-03,7.34E-02
4287,8.34E-03,7.82E-02
4288,7.36E-03,7.91E-02
4289,6.47E-03,7.99E-02
4290,5.68E-03,8.07E-02
4291,9.89E-03,3.41E-02
4292,8.93E-03,3.22E-02
4293,8.51E-03,3.05E-02
4294,8.43E-03,2.92E-02
4295,8.32E-03,2.81E-02
4296,8.13E-03,2.71E-02
4297,8.04E-03,2.62E-02
4298,8.04E-03,2.54E-02
4299,8.04E-03,2.46E-02
4300,8.04E-03,2.39E-02
4301,8.04E-03,2.32E-02
4302,8.04E-03,2.26E-02
4303,8.04E-03,2.19E-02
4304,8.04E-03,2.13E-02
4305,8.04E-03,2.07E-02
4306,7.98E-03,2.01E-02
4307,7.83E-03,1.96E-02
4308,7.75E-03,1.91E-02
4309,7.60E-03,1.87E-02
4310,7.41E-03,1.82E-02
4311,7.26E-03,1.78E-02
4312,7.12E-03,1.74E-02
4313,7.27E-03,1.70E-02
4314,7.86E-03,1.66E-02
4315,8.17E-03,1.62E-02
4316,7.98E-03,1.60E-02
4317,7.93E-03,1.57E-02
4318,7.87E-03,1.53E-02
4319,8.52E-03,1.53E-02
4320,7.81E-03,1.50E-02
4321,8.09E-03,1.51E-02
4322,7.53E-03,1.48E-02
4323,5.04E-03,1.49E-02
4324,6.85E-03,1.45E-02
4325,5.96E-03,0.14668
4326,6.40E-03,0.14921
4327,9.41E-03,0.14516
4328,8.93E-03,6.40E-02
4329,9.05E-03,6.67E-02
4330,9.36E-03,6.90E-02
4331,9.47E-03,7.09E-02
4332,9.56E-03,7.21E-02
4333,9.82E-03,7.19E-02
4334,1.10E-02,7.07E-02
4335,1.10E-02,6.95E-02
4336,6.89E-03,8.10E-02
4337,8.27E-03,7.45E-02
4338,8.35E-03,7.71E-02
4339,7.35E-03,7.99E-02
4340,6.85E-03,8.15E-02
4341,5.96E-03,8.22E-02
4342,5.47E-03,8.30E-02
4343,3.98E-03,8.31E-02
4344,4.62E-03,8.12E-02
4345,6.14E-03,8.14E-02
4346,6.79E-03,8.09E-02
4347,7.02E-03,7.98E-02
4348,7.66E-03,7.87E-02
4349,7.70E-03,7.75E-02
4350,6.88E-03,7.80E-02
4351,6.66E-03,7.75E-02
4352,5.81E-03,7.62E-02
4353,5.67E-03,7.38E-02
4354,6.37E-03,7.08E-02
4355,6.77E-03,6.81E-02
4356,7.04E-03,6.61E-02
4357,7.35E-03,6.46E-02
4358,7.86E-03,6.31E-02
4359,8.07E-03,6.16E-02
4360,8.07E-03,6.03E-02
4361,8.07E-03,5.91E-02
4362,8.07E-03,5.80E-02
4363,8.07E-03,5.68E-02
4364,8.07E-03,5.55E-02
4365,8.07E-03,5.42E-02
4366,8.07E-03,5.28E-02
4367,8.07E-03,5.13E-02
4368,8.07E-03,4.97E-02
4369,8.07E-03,4.80E-02
4370,8.07E-03,4.64E-02
4371,8.07E-03,4.47E-02
4372,8.07E-03,4.30E-02
4373,8.07E-03,4.13E-02
4374,8.07E-03,3.97E-02
4375,8.07E-03,3.82E-02
4376,8.07E-03,3.67E-02
4377,8.07E-03,3.53E-02
4378,8.07E-03,3.41E-02
4379,8.07E-03,3.29E-02
4380,8.07E-03,3.18E-02
4381,8.07E-03,3.09E-02
4382,8.07E-03,3.01E-02
4383,8.07E-03,2.94E-02
4384,8.07E-03,2.88E-02
4385,8.07E-03,2.85E-02
4386,8.07E-03,2.83E-02
4387,8.07E-03,2.83E-02
4388,8.07E-03,2.86E-02
4389,8.07E-03,2.91E-02
4390,8.07E-03,3.00E-02
4391,8.07E-03,3.11E-02
4392,8.07E-03,3.25E-02
4393,8.07E-03,3.42E-02
4394,8.07E-03,3.63E-02
4395,8.07E-03,3.87E-02
4396,8.07E-03,4.14E-02
4397,8.07E-03,4.44E-02
4398,8.07E-03,4.78E-02
4399,8.07E-03,5.15E-02
4400,8.07E-03,5.56E-02
4401,8.07E-03,6.01E-02
4402,8.07E-03,6.51E-02
4403,8.07E-03,7.05E-02
4404,8.07E-03,7.65E-02
4405,8.10E-03,8.30E-02
4406,8.12E-03,9.00E-02
4407,8.02E-03,9.75E-02
4408,7.89E-03,0.10539
4409,7.77E-03,0.11381
4410,7.72E-03,0.12272
4411,7.64E-03,0.1322
4412,7.59E-03,0.14212
4413,7.73E-03,0.15278
4414,8.32E-03,0.17274
4415,8.58E-03,0.16458
4416,9.31E-03,0.13551
4417,9.19E-03,0.13981
4418,7.64E-03,0.14545
4419,7.42E-03,0.15004
4420,6.97E-03,0.15323
4421,6.60E-03,0.15519
4422,6.54E-03,0.15613
4423,6.75E-03,0.15628
4424,7.06E-03,0.15546
4425,7.43E-03,0.15369
4426,8.10E-03,0.15141
4427,8.43E-03,0.14882
4428,8.14E-03,5.51E-02
4429,8.45E-03,5.47E-02
4430,6.27E-03,5.40E-02
4431,6.66E-03,5.28E-02
4432,7.46E-03,5.07E-02
4433,8.79E-03,4.74E-02
4434,8.87E-03,4.41E-02
4435,9.24E-03,4.07E-02
4436,9.40E-03,3.51E-02
4437,1.06E-02,3.71E-02
4438,7.00E-03,0.15628
4439,6.36E-03,6.57E-02
4440,6.42E-03,6.20E-02
4441,6.95E-03,6.90E-02
4442,7.51E-03,0.18317
4443,9.82E-03,0.14392
4444,8.89E-03,0.14685
4445,8.68E-03,0.14885
4446,8.58E-03,0.15028
4447,8.40E-03,0.15099
4448,8.05E-03,0.1509
4449,8.11E-03,0.15014
4450,8.16E-03,0.14883
4451,8.26E-03,0.14706
4452,8.48E-03,0.14506
4453,8.90E-03,0.14293
4454,9.26E-03,0.14075
4455,9.29E-03,0.13889
4456,9.13E-03,0.13738
4457,8.85E-03,0.13623
4458,8.64E-03,0.13517
4459,7.64E-03,0.13424
4460,7.59E-03,0.13355
4461,7.38E-03,0.13278
4462,7.06E-03,0.13208
4463,6.72E-03,0.13141
4464,6.34E-03,0.1308
4465,6.09E-03,0.13007
4466,6.36E-03,0.12914
4467,6.70E-03,0.12855
4468,8.02E-03,0.12799
4469,8.45E-03,0.12732
4470,8.24E-03,0.12757
4471,8.15E-03,0.12767
4472,8.51E-03,0.12683
4473,8.94E-03,0.12535
4474,9.56E-03,0.12422
4475,9.68E-03,0.12297
4476,9.62E-03,0.12231
4477,9.57E-03,0.12181
4478,9.49E-03,0.12115
4479,9.21E-03,0.12029
4480,8.99E-03,0.11929
4481,8.83E-03,0.11807
4482,8.60E-03,0.11668
4483,8.23E-03,0.11516
4484,7.81E-03,0.11356
4485,7.50E-03,0.11187
4486,7.34E-03,0.11006
4487,7.05E-03,0.10815
4488,7.12E-03,0.10615
4489,8.03E-03,0.10407
4490,8.63E-03,0.102
4491,8.57E-03,0.10025
4492,8.39E-03,9.90E-02
4493,8.16E-03,9.81E-02
4494,7.71E-03,9.75E-02
4495,6.56E-03,9.72E-02
4496,6.36E-03,9.68E-02
4497,6.62E-03,9.62E-02
4498,7.09E-03,9.53E-02
4499,7.91E-03,9.42E-02
4500,8.34E-03,9.29E-02
4501,8.65E-03,9.17E-02
4502,9.37E-03,9.07E-02
4503,9.40E-03,8.98E-02
4504,9.35E-03,8.90E-02
4505,9.25E-03,8.84E-02
4506,9.19E-03,8.79E-02
4507,8.64E-03,8.77E-02
4508,8.29E-03,8.75E-02
4509,7.69E-03,8.75E-02
4510,6.89E-03,8.75E-02
4511,8.76E-03,6.71E-02
4512,9.12E-03,8.00E-02
4513,8.59E-03,0.14481
4514,6.61E-03,1.45E-02
4515,7.72E-03,1.42E-02
4516,6.96E-03,1.43E-02
4517,7.13E-03,1.46E-02
4518,7.15E-03,1.50E-02
4519,8.16E-03,1.53E-02
4520,8.08E-03,1.57E-02
4521,6.90E-03,1.61E-02
4522,7.07E-03,1.64E-02
4523,7.46E-03,1.68E-02
4524,7.71E-03,1.72E-02
4525,7.87E-03,1.76E-02
4526,7.80E-03,1.81E-02
4527,7.61E-03,1.85E-02
4528,7.66E-03,1.90E-02
4529,7.77E-03,1.95E-02
4530,7.93E-03,1.99E-02
4531,8.09E-03,2.04E-02
4532,8.21E-03,2.09E-02
4533,8.50E-03,2.14E-02
4534,8.47E-03,2.19E-02
4535,8.46E-03,2.24E-02
4536,8.47E-03,2.28E-02
4537,8.47E-03,2.33E-02
4538,8.48E-03,2.37E-02
4539,8.51E-03,2.41E-02
4540,8.61E-03,2.44E-02
4541,8.64E-03,2.48E-02
4542,8.75E-03,2.50E-02
4543,8.89E-03,2.52E-02
4544,9.05E-03,2.53E-02
4545,9.23E-03,2.54E-02
4546,9.43E-03,2.54E-02
4547,9.50E-03,2.54E-02
4548,8.67E-03,2.52E-02
4549,8.34E-03,2.50E-02
4550,7.98E-03,2.47E-02
4551,6.74E-03,2.44E-02
4552,6.34E-03,2.41E-02
4553,5.43E-03,2.38E-02
4554,6.39E-03,2.35E-02
4555,6.71E-03,2.31E-02
4556,6.91E-03,2.28E-02
4557,7.38E-03,2.23E-02
4558,7.82E-03,2.19E-02
4559,8.17E-03,2.14E-02
4560,8.29E-03,2.08E-02
4561,8.40E-03,2.02E-02
4562,8.46E-03,1.96E-02
4563,8.53E-03,1.90E-02
4564,8.62E-03,1.83E-02
4565,8.66E-03,1.77E-02
4566,8.63E-03,1.71E-02
4567,8.56E-03,1.65E-02
4568,8.51E-03,1.61E-02
4569,8.48E-03,1.58E-02
4570,8.45E-03,1.57E-02
4571,8.43E-03,1.57E-02
4572,8.40E-03,1.59E-02
4573,8.39E-03,1.62E-02
4574,8.39E-03,1.68E-02
4575,8.40E-03,1.75E-02
4576,8.40E-03,1.84E-02
4577,8.41E-03,1.94E-02
4578,8.41E-03,2.06E-02
4579,8.42E-03,2.18E-02
4580,8.45E-03,2.32E-02
4581,8.49E-03,2.47E-02
4582,8.54E-03,2.63E-02
4583,8.61E-03,2.79E-02
4584,8.69E-03,2.97E-02
4585,8.79E-03,3.15E-02
4586,8.88E-03,3.33E-02
4587,8.94E-03,3.52E-02
4588,8.97E-03,3.72E-02
4589,8.99E-03,3.91E-02
4590,9.01E-03,4.11E-02
4591,9.01E-03,4.30E-02
4592,9.01E-03,4.49E-02
4593,8.99E-03,4.68E-02
4594,8.92E-03,4.86E-02
4595,8.82E-03,5.03E-02
4596,8.73E-03,5.20E-02
4597,8.66E-03,5.37E-02
4598,8.60E-03,5.53E-02
4599,8.54E-03,5.68E-02
4600,8.48E-03,5.83E-02
4601,8.46E-03,5.97E-02
4602,8.44E-03,6.11E-02
4603,8.43E-03,6.25E-02
4604,8.42E-03,6.39E-02
4605,8.47E-03,6.52E-02
4606,8.48E-03,6.66E-02
4607,8.59E-03,6.80E-02
4608,8.84E-03,6.95E-02
4609,9.20E-03,7.12E-02
4610,9.27E-03,7.28E-02
4611,9.07E-03,7.42E-02
4612,8.38E-03,7.56E-02
4613,7.52E-03,7.66E-02
4614,6.83E-03,7.76E-02
4615,6.19E-03,7.86E-02
4616,5.96E-03,7.95E-02
4617,5.77E-03,8.06E-02
4618,5.68E-03,8.16E-02
4619,6.12E-03,8.30E-02
4620,5.68E-03,1.39E-02
4621,7.08E-03,1.40E-02
4622,7.90E-03,3.29E-02
4623,8.51E-03,3.15E-02
4624,8.43E-03,2.98E-02
4625,8.35E-03,2.84E-02
4626,8.23E-03,2.73E-02
4627,8.14E-03,2.64E-02
4628,8.04E-03,2.55E-02
4629,8.04E-03,2.47E-02
4630,8.04E-03,2.40E-02
4631,8.04E-03,2.33E-02
4632,8.04E-03,2.26E-02
4633,8.04E-03,2.20E-02
4634,8.04E-03,2.14E-02
4635,8.04E-03,2.08E-02
4636,8.04E-03,2.02E-02
4637,8.04E-03,1.97E-02
4638,7.93E-03,1.92E-02
4639,7.78E-03,1.87E-02
4640,7.67E-03,1.82E-02
4641,7.63E-03,1.78E-02
4642,7.50E-03,1.74E-02
4643,7.53E-03,1.70E-02
4644,7.77E-03,1.66E-02
4645,7.92E-03,1.62E-02
4646,8.00E-03,1.59E-02
4647,8.01E-03,1.56E-02
4648,8.05E-03,1.53E-02
4649,7.97E-03,1.50E-02
4650,7.80E-03,1.47E-02
4651,7.68E-03,1.44E-02
4652,8.46E-03,1.42E-02
4653,7.61E-03,1.40E-02
4654,5.54E-03,1.37E-02
4655,6.25E-03,1.36E-02
4656,7.51E-03,0.13913
4657,6.86E-03,0.14168
4658,6.45E-03,0.14436
4659,6.27E-03,0.1451
4660,5.40E-03,0.14434
4661,4.89E-03,0.14311
4662,4.52E-03,0.14129
4663,3.85E-03,0.13869
4664,4.06E-03,0.1397
4665,4.76E-03,0.14144
4666,5.46E-03,0.14391
4667,5.88E-03,0.14746
4668,6.91E-03,0.15295
4669,7.16E-03,0.1609
4670,7.24E-03,0.17189
4671,6.40E-03,0.17825
4672,4.90E-03,0.1886
4673,8.13E-03,3.74E-02
4674,9.05E-03,7.16E-02
4675,9.07E-03,7.54E-02
4676,9.18E-03,7.84E-02
4677,9.27E-03,8.09E-02
4678,9.27E-03,8.25E-02
4679,9.57E-03,8.30E-02
4680,1.01E-02,8.31E-02
4681,1.01E-02,8.25E-02
4682,8.41E-03,8.06E-02
4683,8.42E-03,8.39E-02
4684,7.71E-03,8.53E-02
4685,7.04E-03,8.53E-02
4686,6.30E-03,8.46E-02
4687,5.74E-03,8.31E-02
4688,5.29E-03,8.16E-02
4689,5.94E-03,8.01E-02
4690,6.35E-03,8.04E-02
4691,6.92E-03,8.10E-02
4692,7.33E-03,8.12E-02
4693,7.69E-03,8.12E-02
4694,8.92E-03,8.12E-02
4695,8.72E-03,8.16E-02
4696,7.57E-03,8.38E-02
4697,6.77E-03,8.54E-02
4698,6.48E-03,8.48E-02
4699,6.48E-03,8.11E-02
4700,6.61E-03,7.76E-02
4701,6.98E-03,7.43E-02
4702,7.16E-03,7.28E-02
4703,7.40E-03,7.07E-02
4704,7.82E-03,6.83E-02
4705,8.07E-03,6.64E-02
4706,8.07E-03,6.48E-02
4707,8.07E-03,6.33E-02
4708,8.07E-03,6.20E-02
4709,8.07E-03,6.07E-02
4710,8.07E-03,5.93E-02
4711,8.07E-03,5.79E-02
4712,8.07E-03,5.63E-02
4713,8.07E-03,5.48E-02
4714,8.07E-03,5.31E-02
4715,8.07E-03,5.15E-02
4716,8.07E-03,4.98E-02
4717,8.07E-03,4.81E-02
4718,8.07E-03,4.64E-02
4719,8.07E-03,4.47E-02
4720,8.07E-03,4.31E-02
4721,8.07E-03,4.16E-02
4722,8.07E-03,4.01E-02
4723,8.07E-03,3.88E-02
4724,8.07E-03,3.75E-02
4725,8.07E-03,3.64E-02
4726,8.07E-03,3.53E-02
4727,8.07E-03,3.44E-02
4728,8.07E-03,3.35E-02
4729,8.07E-03,3.26E-02
4730,8.07E-03,3.19E-02
4731,8.07E-03,3.13E-02
4732,8.07E-03,3.08E-02
4733,8.07E-03,3.05E-02
4734,8.07E-03,3.04E-02
4735,8.07E-03,3.05E-02
4736,8.07E-03,3.08E-02
4737,8.07E-03,3.14E-02
4738,8.07E-03,3.22E-02
4739,8.07E-03,3.34E-02
4740,8.07E-03,3.48E-02
4741,8.07E-03,3.66E-02
4742,8.07E-03,3.87E-02
4743,8.07E-03,4.12E-02
4744,8.07E-03,4.40E-02
4745,8.07E-03,4.73E-02
4746,8.07E-03,5.10E-02
4747,8.07E-03,5.51E-02
4748,8.07E-03,5.97E-02
4749,8.07E-03,6.48E-02
4750,8.07E-03,7.05E-02
4751,8.07E-03,7.66E-02
4752,8.07E-03,8.32E-02
4753,8.07E-03,9.04E-02
4754,8.00E-03,9.82E-02
4755,7.88E-03,0.10649
4756,7.79E-03,0.11542
4757,7.75E-03,0.12513
4758,7.81E-03,0.13592
4759,8.07E-03,0.14817
4760,9.09E-03,0.16329
4761,8.10E-03,0.17974
4762,8.93E-03,0.14869
4763,8.91E-03,0.15297
4764,7.90E-03,0.15655
4765,7.72E-03,0.15894
4766,7.20E-03,0.16035
4767,6.90E-03,0.16148
4768,6.88E-03,0.16197
4769,7.05E-03,0.16215
4770,7.33E-03,0.16247
4771,7.51E-03,0.16259
4772,8.30E-03,0.16228
4773,8.73E-03,0.1606
4774,1.01E-02,0.15832
4775,1.02E-02,0.15793
4776,9.01E-03,0.16051
4777,8.66E-03,0.16295
4778,8.56E-03,0.16386
4779,8.32E-03,0.16354
4780,8.06E-03,0.16264
4781,8.05E-03,0.16131
4782,8.06E-03,0.15965
4783,8.16E-03,0.15765
4784,8.31E-03,0.15518
4785,8.84E-03,0.15237
4786,9.30E-03,0.14956
4787,9.10E-03,0.14714
4788,8.82E-03,0.14493
4789,8.67E-03,0.14264
4790,8.30E-03,0.14033
4791,7.88E-03,0.13801
4792,7.71E-03,0.13574
4793,7.51E-03,0.13355
4794,7.26E-03,0.13158
4795,6.97E-03,0.12993
4796,6.74E-03,0.12875
4797,6.61E-03,0.12814
4798,6.86E-03,0.12809
4799,7.24E-03,0.128
4800,7.54E-03,0.1283
4801,7.88E-03,0.12902
4802,8.30E-03,0.13086
4803,8.26E-03,0.13273
4804,8.42E-03,0.13337
4805,8.62E-03,0.1328
4806,9.19E-03,0.13226
4807,9.26E-03,0.1321
4808,9.24E-03,0.13183
4809,9.21E-03,0.13112
4810,9.10E-03,0.1299
4811,8.96E-03,0.1283
4812,8.79E-03,0.12637
4813,8.66E-03,0.12416
4814,8.48E-03,0.12178
4815,8.20E-03,0.11934
4816,7.87E-03,0.11692
4817,7.63E-03,0.11453
4818,7.50E-03,0.11217
4819,7.28E-03,0.10987
4820,7.33E-03,0.10757
4821,8.04E-03,0.10524
4822,8.55E-03,0.103
4823,8.54E-03,0.10108
4824,8.42E-03,9.96E-02
4825,8.20E-03,9.85E-02
4826,7.65E-03,9.77E-02
4827,6.81E-03,9.73E-02
4828,6.74E-03,9.71E-02
4829,6.67E-03,9.67E-02
4830,7.44E-03,9.62E-02
4831,7.89E-03,9.57E-02
4832,8.26E-03,9.51E-02
4833,8.64E-03,9.46E-02
4834,9.07E-03,9.41E-02
4835,9.08E-03,9.37E-02
4836,9.01E-03,9.32E-02
4837,8.95E-03,9.27E-02
4838,8.76E-03,9.21E-02
4839,8.21E-03,9.15E-02
4840,8.00E-03,9.10E-02
4841,7.60E-03,9.05E-02
4842,6.99E-03,9.00E-02
4843,6.43E-03,8.95E-02
4844,6.02E-03,8.91E-02
4845,5.73E-03,8.86E-02
4846,7.52E-03,0.14469
4847,7.49E-03,0.14753
4848,6.77E-03,0.14731
4849,6.78E-03,0.14471
4850,6.02E-03,0.14014
4851,5.60E-03,0.13563
4852,5.12E-03,0.13176
4853,5.09E-03,0.1304
4854,5.37E-03,0.13024
4855,5.46E-03,0.13172
4856,5.97E-03,0.13519
4857,6.29E-03,0.14019
4858,6.80E-03,0.14608
4859,7.00E-03,0.15359
4860,6.95E-03,0.16123
4861,6.53E-03,0.16959
4862,6.08E-03,0.18226
4863,8.14E-03,6.04E-02
4864,8.82E-03,6.03E-02
4865,6.36E-03,5.88E-02
4866,6.99E-03,5.66E-02
4867,8.07E-03,5.32E-02
4868,8.49E-03,4.94E-02
4869,8.71E-03,4.58E-02
4870,8.93E-03,4.23E-02
4871,8.99E-03,3.94E-02
4872,1.01E-02,9.55E-02
4873,9.79E-03,7.44E-02
4874,7.00E-03,8.55E-02
4875,8.05E-03,1.37E-02
4876,7.91E-03,1.34E-02
4877,7.04E-03,1.35E-02
4878,7.46E-03,1.37E-02
4879,7.54E-03,1.41E-02
4880,7.33E-03,1.44E-02
4881,7.31E-03,1.47E-02
4882,7.59E-03,1.50E-02
4883,7.77E-03,1.54E-02
4884,7.72E-03,1.57E-02
4885,7.59E-03,1.61E-02
4886,7.44E-03,1.65E-02
4887,7.62E-03,1.69E-02
4888,7.72E-03,1.72E-02
4889,7.83E-03,1.76E-02
4890,7.86E-03,1.80E-02
4891,7.96E-03,1.85E-02
4892,7.83E-03,1.90E-02
4893,7.88E-03,1.94E-02
4894,7.98E-03,1.98E-02
4895,8.08E-03,2.03E-02
4896,8.25E-03,2.07E-02
4897,8.40E-03,2.12E-02
4898,8.37E-03,2.17E-02
4899,8.37E-03,2.21E-02
4900,8.38E-03,2.25E-02
4901,8.38E-03,2.29E-02
4902,8.38E-03,2.33E-02
4903,8.41E-03,2.37E-02
4904,8.44E-03,2.40E-02
4905,8.50E-03,2.43E-02
4906,8.59E-03,2.45E-02
4907,8.70E-03,2.46E-02
4908,8.85E-03,2.47E-02
4909,9.11E-03,2.48E-02
4910,9.22E-03,2.48E-02
4911,9.25E-03,2.47E-02
4912,8.58E-03,2.46E-02
4913,8.39E-03,2.43E-02
4914,8.17E-03,2.41E-02
4915,6.84E-03,2.38E-02
4916,6.41E-03,2.35E-02
4917,6.01E-03,2.32E-02
4918,6.56E-03,2.28E-02
4919,6.89E-03,2.25E-02
4920,7.25E-03,2.21E-02
4921,7.56E-03,2.17E-02
4922,8.05E-03,2.12E-02
4923,8.14E-03,2.08E-02
4924,8.23E-03,2.02E-02
4925,8.32E-03,1.97E-02
4926,8.36E-03,1.91E-02
4927,8.42E-03,1.85E-02
4928,8.49E-03,1.80E-02
4929,8.52E-03,1.74E-02
4930,8.50E-03,1.69E-02
4931,8.45E-03,1.64E-02
4932,8.41E-03,1.61E-02
4933,8.38E-03,1.58E-02
4934,8.36E-03,1.57E-02
4935,8.34E-03,1.58E-02
4936,8.32E-03,1.60E-02
4937,8.31E-03,1.64E-02
4938,8.31E-03,1.69E-02
4939,8.32E-03,1.76E-02
4940,8.32E-03,1.85E-02
4941,8.33E-03,1.95E-02
4942,8.33E-03,2.06E-02
4943,8.34E-03,2.18E-02
4944,8.36E-03,2.31E-02
4945,8.39E-03,2.45E-02
4946,8.43E-03,2.60E-02
4947,8.48E-03,2.76E-02
4948,8.55E-03,2.93E-02
4949,8.63E-03,3.10E-02
4950,8.70E-03,3.27E-02
4951,8.74E-03,3.45E-02
4952,8.76E-03,3.64E-02
4953,8.78E-03,3.82E-02
4954,8.79E-03,4.00E-02
4955,8.80E-03,4.19E-02
4956,8.80E-03,4.37E-02
4957,8.78E-03,4.54E-02
4958,8.72E-03,4.71E-02
4959,8.65E-03,4.88E-02
4960,8.58E-03,5.04E-02
4961,8.52E-03,5.20E-02
4962,8.47E-03,5.35E-02
4963,8.43E-03,5.50E-02
4964,8.39E-03,5.64E-02
4965,8.36E-03,5.78E-02
4966,8.36E-03,5.92E-02
4967,8.35E-03,6.05E-02
4968,8.34E-03,6.19E-02
4969,8.33E-03,6.32E-02
4970,8.33E-03,6.45E-02
4971,8.48E-03,6.59E-02
4972,8.62E-03,6.74E-02
4973,8.76E-03,6.88E-02
4974,8.82E-03,7.03E-02
4975,8.64E-03,7.17E-02
4976,8.17E-03,7.30E-02
4977,7.69E-03,7.42E-02
4978,7.28E-03,7.53E-02
4979,6.79E-03,7.64E-02
4980,6.55E-03,7.74E-02
4981,6.85E-03,7.84E-02
4982,7.28E-03,7.96E-02
4983,7.39E-03,8.10E-02
4984,7.91E-03,8.28E-02
4985,7.48E-03,3.15E-02
4986,8.07E-03,3.01E-02
4987,8.27E-03,2.88E-02
4988,8.24E-03,2.75E-02
4989,8.19E-03,2.64E-02
4990,8.09E-03,2.55E-02
4991,8.04E-03,2.47E-02
4992,8.04E-03,2.40E-02
4993,8.04E-03,2.33E-02
4994,8.04E-03,2.26E-02
4995,8.04E-03,2.20E-02
4996,8.04E-03,2.13E-02
4997,8.04E-03,2.07E-02
4998,8.04E-03,2.02E-02
4999,8.04E-03,1.96E-02
5000,8.04E-03,1.91E-02
5001,8.04E-03,1.86E-02
5002,7.95E-03,1.82E-02
5003,7.83E-03,1.77E-02
5004,7.80E-03,1.73E-02
5005,7.94E-03,1.69E-02
5006,8.04E-03,1.65E-02
5007,8.04E-03,1.62E-02
5008,8.04E-03,1.58E-02
5009,8.04E-03,1.55E-02
5010,8.04E-03,1.52E-02
5011,8.04E-03,1.49E-02
5012,7.98E-03,1.46E-02
5013,7.86E-03,1.44E-02
5014,7.88E-03,1.41E-02
5015,7.83E-03,1.39E-02
5016,7.42E-03,1.37E-02
5017,7.19E-03,1.35E-02
5018,8.04E-03,1.33E-02
5019,8.18E-03,1.31E-02
5020,6.92E-03,1.29E-02
5021,9.85E-03,0.16041
5022,9.16E-03,8.17E-02
5023,8.92E-03,8.59E-02
5024,8.88E-03,8.96E-02
5025,8.98E-03,9.27E-02
5026,9.03E-03,9.51E-02
5027,9.22E-03,9.71E-02
5028,9.44E-03,9.83E-02
5029,9.70E-03,9.90E-02
5030,9.84E-03,9.34E-02
5031,8.61E-03,9.39E-02
5032,7.83E-03,9.08E-02
5033,7.16E-03,8.75E-02
5034,6.77E-03,8.36E-02
5035,6.45E-03,7.99E-02
5036,6.40E-03,7.72E-02
5037,6.69E-03,7.65E-02
5038,6.83E-03,7.72E-02
5039,7.24E-03,7.90E-02
5040,7.48E-03,8.12E-02
5041,7.83E-03,8.33E-02
5042,8.28E-03,8.53E-02
5043,8.16E-03,8.68E-02
5044,7.90E-03,8.96E-02
5045,7.07E-03,9.27E-02
5046,6.98E-03,9.37E-02
5047,6.99E-03,9.20E-02
5048,7.04E-03,8.60E-02
5049,7.18E-03,8.47E-02
5050,7.37E-03,8.19E-02
5051,7.58E-03,7.71E-02
5052,7.73E-03,7.35E-02
5053,8.07E-03,7.08E-02
5054,8.07E-03,6.88E-02
5055,8.07E-03,6.71E-02
5056,8.07E-03,6.56E-02
5057,8.07E-03,6.41E-02
5058,8.07E-03,6.26E-02
5059,8.07E-03,6.11E-02
5060,8.07E-03,5.96E-02
5061,8.07E-03,5.80E-02
5062,8.07E-03,5.63E-02
5063,8.07E-03,5.46E-02
5064,8.07E-03,5.29E-02
5065,8.07E-03,5.12E-02
5066,8.07E-03,4.96E-02
5067,8.07E-03,4.79E-02
5068,8.07E-03,4.63E-02
5069,8.07E-03,4.48E-02
5070,8.07E-03,4.35E-02
5071,8.07E-03,4.22E-02
5072,8.07E-03,4.10E-02
5073,8.07E-03,4.00E-02
5074,8.07E-03,3.90E-02
5075,8.07E-03,3.80E-02
5076,8.07E-03,3.71E-02
5077,8.07E-03,3.62E-02
5078,8.07E-03,3.54E-02
5079,8.07E-03,3.46E-02
5080,8.07E-03,3.40E-02
5081,8.07E-03,3.34E-02
5082,8.07E-03,3.31E-02
5083,8.07E-03,3.28E-02
5084,8.07E-03,3.28E-02
5085,8.07E-03,3.29E-02
5086,8.07E-03,3.32E-02
5087,8.07E-03,3.38E-02
5088,8.07E-03,3.47E-02
5089,8.07E-03,3.59E-02
5090,8.07E-03,3.73E-02
5091,8.07E-03,3.92E-02
5092,8.07E-03,4.14E-02
5093,8.07E-03,4.41E-02
5094,8.07E-03,4.72E-02
5095,8.07E-03,5.08E-02
5096,8.07E-03,5.48E-02
5097,8.07E-03,5.94E-02
5098,8.07E-03,6.45E-02
5099,8.07E-03,7.01E-02
5100,8.07E-03,7.62E-02
5101,8.07E-03,8.29E-02
5102,8.07E-03,9.02E-02
5103,8.00E-03,9.82E-02
5104,7.95E-03,0.10685
5105,7.97E-03,0.11656
5106,8.02E-03,0.1276
5107,8.21E-03,0.14075
5108,8.10E-03,0.15666
5109,7.66E-03,0.17377
5110,7.08E-03,0.19579
5111,8.85E-03,0.16737
5112,8.59E-03,0.16875
5113,8.12E-03,0.16773
5114,7.97E-03,0.16563
5115,7.33E-03,0.16385
5116,7.16E-03,0.16312
5117,7.15E-03,0.16314
5118,7.37E-03,0.16423
5119,7.56E-03,0.167
5120,7.74E-03,0.17049
5121,8.30E-03,0.17362
5122,8.69E-03,0.1754
5123,9.07E-03,0.1767
5124,9.20E-03,0.17714
5125,9.00E-03,0.1782
5126,8.57E-03,0.17912
5127,8.49E-03,0.1781
5128,8.23E-03,0.17629
5129,8.06E-03,0.1742
5130,8.06E-03,0.1722
5131,8.07E-03,0.17028
5132,8.22E-03,0.16832
5133,8.27E-03,0.16603
5134,8.51E-03,0.16327
5135,8.95E-03,0.16027
5136,8.81E-03,0.15726
5137,8.61E-03,0.154
5138,8.50E-03,0.15021
5139,8.09E-03,0.14619
5140,8.02E-03,0.14184
5141,7.82E-03,0.13736
5142,7.67E-03,0.13308
5143,7.47E-03,0.12916
5144,7.27E-03,0.12587
5145,7.13E-03,0.12362
5146,7.02E-03,0.123
5147,7.17E-03,0.12411
5148,7.35E-03,0.12588
5149,7.41E-03,0.12739
5150,8.01E-03,0.13
5151,8.09E-03,0.13401
5152,8.17E-03,0.13775
5153,8.23E-03,0.14014
5154,8.64E-03,0.14163
5155,8.85E-03,0.14305
5156,8.88E-03,0.1441
5157,8.93E-03,0.14401
5158,8.97E-03,0.14279
5159,8.78E-03,0.14071
5160,8.71E-03,0.13793
5161,8.58E-03,0.13467
5162,8.49E-03,0.13104
5163,8.36E-03,0.12722
5164,8.16E-03,0.12344
5165,7.93E-03,0.11981
5166,7.75E-03,0.11643
5167,7.66E-03,0.11338
5168,7.50E-03,0.11075
5169,7.54E-03,0.10839
5170,8.05E-03,0.10613
5171,8.41E-03,0.10399
5172,8.40E-03,0.10203
5173,8.32E-03,0.10018
5174,8.04E-03,9.85E-02
5175,7.89E-03,9.71E-02
5176,7.15E-03,9.61E-02
5177,7.04E-03,9.56E-02
5178,6.73E-03,9.56E-02
5179,7.92E-03,9.60E-02
5180,7.97E-03,9.67E-02
5181,8.23E-03,9.75E-02
5182,8.57E-03,9.81E-02
5183,8.83E-03,9.86E-02
5184,8.79E-03,9.87E-02
5185,8.76E-03,9.85E-02
5186,8.67E-03,9.78E-02
5187,8.37E-03,9.69E-02
5188,8.09E-03,9.58E-02
5189,7.86E-03,9.45E-02
5190,7.63E-03,9.32E-02
5191,7.24E-03,9.18E-02
5192,6.76E-03,9.05E-02
5193,6.40E-03,8.95E-02
5194,6.18E-03,8.87E-02
5195,6.83E-03,8.92E-02
5196,7.63E-03,8.90E-02
5197,9.85E-03,8.66E-02
5198,8.01E-03,3.02E-02
5199,8.04E-03,2.87E-02
5200,8.16E-03,2.75E-02
5201,8.15E-03,2.63E-02
5202,8.11E-03,2.54E-02
5203,8.04E-03,2.46E-02
5204,8.04E-03,2.39E-02
5205,8.04E-03,2.32E-02
5206,8.04E-03,2.25E-02
5207,8.04E-03,2.19E-02
5208,8.04E-03,2.12E-02
5209,8.04E-03,2.07E-02
5210,8.04E-03,2.01E-02
5211,8.04E-03,1.95E-02
5212,8.04E-03,1.90E-02
5213,8.04E-03,1.85E-02
5214,8.04E-03,1.81E-02
5215,8.04E-03,1.76E-02
5216,8.04E-03,1.72E-02
5217,8.04E-03,1.68E-02
5218,8.04E-03,1.64E-02
5219,8.04E-03,1.61E-02
5220,8.04E-03,1.57E-02
5221,8.04E-03,1.54E-02
5222,8.04E-03,1.51E-02
5223,8.04E-03,1.48E-02
5224,8.04E-03,1.45E-02
5225,8.04E-03,1.42E-02
5226,7.97E-03,1.40E-02
5227,7.85E-03,1.38E-02
5228,7.79E-03,1.36E-02
5229,7.65E-03,1.34E-02
5230,7.84E-03,1.32E-02
5231,7.81E-03,1.30E-02
5232,7.69E-03,1.28E-02
5233,7.44E-03,1.26E-02
5234,6.43E-03,1.27E-02
5235,7.29E-03,1.24E-02
5236,6.99E-03,1.25E-02
5237,7.68E-03,1.23E-02
5238,6.57E-03,1.33E-02
5239,7.00E-03,1.36E-02
5240,7.33E-03,1.38E-02
5241,7.45E-03,1.41E-02
5242,7.58E-03,1.44E-02
5243,7.70E-03,1.48E-02
5244,7.72E-03,1.51E-02
5245,7.82E-03,1.54E-02
5246,7.82E-03,1.58E-02
5247,7.72E-03,1.62E-02
5248,7.71E-03,1.65E-02
5249,7.77E-03,1.69E-02
5250,7.83E-03,1.72E-02
5251,7.91E-03,1.76E-02
5252,7.96E-03,1.80E-02
5253,8.01E-03,1.85E-02
5254,7.99E-03,1.89E-02
5255,7.97E-03,1.93E-02
5256,8.04E-03,1.97E-02
5257,8.12E-03,2.02E-02
5258,8.28E-03,2.06E-02
5259,8.30E-03,2.10E-02
5260,8.28E-03,2.14E-02
5261,8.28E-03,2.18E-02
5262,8.28E-03,2.22E-02
5263,8.28E-03,2.26E-02
5264,8.29E-03,2.29E-02
5265,8.30E-03,2.32E-02
5266,8.33E-03,2.35E-02
5267,8.37E-03,2.37E-02
5268,8.43E-03,2.39E-02
5269,8.51E-03,2.41E-02
5270,8.62E-03,2.42E-02
5271,8.80E-03,2.42E-02
5272,8.85E-03,2.42E-02
5273,8.95E-03,2.41E-02
5274,8.61E-03,2.39E-02
5275,8.38E-03,2.37E-02
5276,8.15E-03,2.34E-02
5277,7.16E-03,2.32E-02
5278,6.58E-03,2.29E-02
5279,6.59E-03,2.25E-02
5280,6.78E-03,2.22E-02
5281,7.36E-03,2.19E-02
5282,7.61E-03,2.15E-02
5283,7.80E-03,2.11E-02
5284,7.99E-03,2.07E-02
5285,8.11E-03,2.02E-02
5286,8.18E-03,1.97E-02
5287,8.24E-03,1.92E-02
5288,8.27E-03,1.87E-02
5289,8.31E-03,1.82E-02
5290,8.36E-03,1.76E-02
5291,8.39E-03,1.72E-02
5292,8.37E-03,1.67E-02
5293,8.33E-03,1.63E-02
5294,8.30E-03,1.60E-02
5295,8.29E-03,1.59E-02
5296,8.27E-03,1.58E-02
5297,8.26E-03,1.59E-02
5298,8.24E-03,1.61E-02
5299,8.24E-03,1.65E-02
5300,8.24E-03,1.70E-02
5301,8.24E-03,1.77E-02
5302,8.24E-03,1.85E-02
5303,8.25E-03,1.95E-02
5304,8.25E-03,2.06E-02
5305,8.26E-03,2.17E-02
5306,8.27E-03,2.30E-02
5307,8.29E-03,2.44E-02
5308,8.32E-03,2.58E-02
5309,8.36E-03,2.73E-02
5310,8.40E-03,2.89E-02
5311,8.46E-03,3.05E-02
5312,8.51E-03,3.22E-02
5313,8.54E-03,3.39E-02
5314,8.56E-03,3.56E-02
5315,8.57E-03,3.73E-02
5316,8.58E-03,3.90E-02
5317,8.58E-03,4.08E-02
5318,8.58E-03,4.25E-02
5319,8.57E-03,4.41E-02
5320,8.53E-03,4.58E-02
5321,8.48E-03,4.73E-02
5322,8.43E-03,4.89E-02
5323,8.39E-03,5.04E-02
5324,8.35E-03,5.18E-02
5325,8.32E-03,5.32E-02
5326,8.29E-03,5.46E-02
5327,8.27E-03,5.60E-02
5328,8.27E-03,5.73E-02
5329,8.26E-03,5.86E-02
5330,8.26E-03,5.99E-02
5331,8.25E-03,6.12E-02
5332,8.25E-03,6.25E-02
5333,8.33E-03,6.38E-02
5334,8.46E-03,6.52E-02
5335,8.53E-03,6.65E-02
5336,8.48E-03,6.79E-02
5337,8.36E-03,6.92E-02
5338,8.01E-03,7.05E-02
5339,7.73E-03,7.17E-02
5340,7.64E-03,7.28E-02
5341,7.48E-03,7.40E-02
5342,7.48E-03,7.50E-02
5343,7.51E-03,7.61E-02
5344,7.42E-03,7.72E-02
5345,7.82E-03,7.84E-02
5346,8.61E-03,8.02E-02
5347,8.90E-03,0.15862
5348,7.97E-03,0.15614
5349,7.24E-03,0.14919
5350,6.97E-03,0.14095
5351,6.53E-03,0.13221
5352,6.16E-03,0.12461
5353,6.09E-03,0.12
5354,5.99E-03,0.11732
5355,5.93E-03,0.11733
5356,6.20E-03,0.11959
5357,6.54E-03,0.12408
5358,6.69E-03,0.13017
5359,7.04E-03,0.13712
5360,7.04E-03,0.14407
5361,7.08E-03,0.15084
5362,6.92E-03,0.15964
5363,6.67E-03,0.17326
5364,6.60E-03,0.19701
5365,9.66E-03,6.97E-02
5366,9.17E-03,6.70E-02
5367,6.93E-03,6.35E-02
5368,7.36E-03,5.96E-02
5369,8.05E-03,5.53E-02
5370,8.26E-03,5.15E-02
5371,8.50E-03,4.80E-02
5372,8.56E-03,4.50E-02
5373,8.57E-03,4.24E-02
5374,8.27E-03,3.97E-02
5375,7.94E-03,3.61E-02
5376,8.33E-03,2.95E-02
5377,8.21E-03,2.74E-02
5378,8.13E-03,2.60E-02
5379,8.08E-03,2.50E-02
5380,8.04E-03,2.42E-02
5381,8.04E-03,2.35E-02
5382,8.04E-03,2.29E-02
5383,8.04E-03,2.22E-02
5384,8.04E-03,2.16E-02
5385,8.04E-03,2.10E-02
5386,8.04E-03,2.05E-02
5387,8.04E-03,1.99E-02
5388,8.04E-03,1.94E-02
5389,8.04E-03,1.89E-02
5390,8.04E-03,1.84E-02
5391,8.04E-03,1.79E-02
5392,8.04E-03,1.75E-02
5393,8.04E-03,1.71E-02
5394,8.04E-03,1.66E-02
5395,8.04E-03,1.63E-02
5396,8.04E-03,1.59E-02
5397,8.04E-03,1.56E-02
5398,8.04E-03,1.52E-02
5399,8.04E-03,1.49E-02
5400,8.04E-03,1.46E-02
5401,8.04E-03,1.44E-02
5402,8.04E-03,1.41E-02
5403,8.04E-03,1.39E-02
5404,8.04E-03,1.36E-02
5405,7.94E-03,1.34E-02
5406,7.90E-03,1.32E-02
5407,7.91E-03,1.30E-02
5408,7.86E-03,1.28E-02
5409,7.78E-03,1.27E-02
5410,7.70E-03,1.25E-02
5411,7.62E-03,1.23E-02
5412,7.74E-03,1.22E-02
5413,8.06E-03,1.20E-02
5414,8.33E-03,1.19E-02
5415,7.90E-03,1.18E-02
5416,7.35E-03,1.19E-02
5417,7.12E-03,1.17E-02
5418,8.42E-03,8.65E-02
5419,7.48E-03,8.73E-02
5420,6.12E-03,0.22788
5421,6.63E-03,0.25842
5422,9.71E-03,3.69E-02
5423,8.71E-03,4.26E-02
5424,8.38E-03,4.59E-02
5425,8.28E-03,4.84E-02
5426,8.24E-03,5.08E-02
5427,8.12E-03,5.34E-02
5428,7.97E-03,5.67E-02
5429,7.67E-03,6.10E-02
5430,7.55E-03,6.69E-02
5431,8.84E-03,7.36E-02
5432,1.04E-02,8.17E-02
5433,1.02E-02,8.75E-02
5434,8.73E-03,9.44E-02
5435,8.54E-03,9.89E-02
5436,8.55E-03,0.10249
5437,8.60E-03,0.10597
5438,8.62E-03,0.10989
5439,8.70E-03,0.11413
5440,8.88E-03,0.11794
5441,9.01E-03,0.11945
5442,1.05E-02,0.11686
5443,1.05E-02,0.11369
5444,8.79E-03,0.10643
5445,7.88E-03,9.60E-02
5446,7.44E-03,8.65E-02
5447,7.20E-03,7.87E-02
5448,7.04E-03,7.34E-02
5449,7.02E-03,7.05E-02
5450,7.26E-03,6.98E-02
5451,7.29E-03,7.14E-02
5452,7.54E-03,7.52E-02
5453,7.67E-03,8.02E-02
5454,7.83E-03,8.56E-02
5455,7.86E-03,9.04E-02
5456,8.01E-03,9.39E-02
5457,7.79E-03,9.61E-02
5458,7.45E-03,9.81E-02
5459,7.44E-03,0.1007
5460,7.24E-03,0.10558
5461,7.33E-03,0.10196
5462,7.51E-03,0.10226
5463,7.57E-03,9.20E-02
5464,7.70E-03,8.36E-02
5465,7.86E-03,7.81E-02
5466,8.07E-03,7.44E-02
5467,8.07E-03,7.20E-02
5468,8.07E-03,7.01E-02
5469,8.07E-03,6.84E-02
5470,8.07E-03,6.69E-02
5471,8.07E-03,6.54E-02
5472,8.07E-03,6.40E-02
5473,8.07E-03,6.24E-02
5474,8.07E-03,6.09E-02
5475,8.07E-03,5.92E-02
5476,8.07E-03,5.75E-02
5477,8.07E-03,5.59E-02
5478,8.07E-03,5.42E-02
5479,8.07E-03,5.25E-02
5480,8.07E-03,5.09E-02
5481,8.07E-03,4.94E-02
5482,8.07E-03,4.80E-02
5483,8.07E-03,4.68E-02
5484,8.07E-03,4.56E-02
5485,8.07E-03,4.46E-02
5486,8.07E-03,4.36E-02
5487,8.07E-03,4.27E-02
5488,8.07E-03,4.18E-02
5489,8.07E-03,4.09E-02
5490,8.07E-03,4.00E-02
5491,8.07E-03,3.91E-02
5492,8.07E-03,3.83E-02
5493,8.07E-03,3.76E-02
5494,8.07E-03,3.69E-02
5495,8.07E-03,3.64E-02
5496,8.07E-03,3.59E-02
5497,8.07E-03,3.56E-02
5498,8.07E-03,3.54E-02
5499,8.07E-03,3.54E-02
5500,8.07E-03,3.56E-02
5501,8.07E-03,3.59E-02
5502,8.07E-03,3.65E-02
5503,8.07E-03,3.74E-02
5504,8.07E-03,3.86E-02
5505,8.07E-03,4.01E-02
5506,8.07E-03,4.21E-02
5507,8.07E-03,4.44E-02
5508,8.07E-03,4.73E-02
5509,8.07E-03,5.07E-02
5510,8.07E-03,5.46E-02
5511,8.07E-03,5.91E-02
5512,8.07E-03,6.40E-02
5513,8.07E-03,6.94E-02
5514,8.07E-03,7.53E-02
5515,8.07E-03,8.19E-02
5516,8.07E-03,8.92E-02
5517,8.03E-03,9.73E-02
5518,8.04E-03,0.1065
5519,8.07E-03,0.11731
5520,8.07E-03,0.13002
5521,7.90E-03,0.14503
5522,7.53E-03,0.16343
5523,7.17E-03,0.18724
5524,6.89E-03,0.22114
5525,6.80E-03,0.26858
5526,6.94E-03,0.31229
5527,7.25E-03,0.25845
5528,7.13E-03,0.23535
5529,7.05E-03,0.20125
5530,7.16E-03,0.17806
5531,7.17E-03,0.16252
5532,7.21E-03,0.15152
5533,7.32E-03,0.14358
5534,7.31E-03,0.13613
5535,7.29E-03,0.12831
5536,7.15E-03,0.11985
5537,7.05E-03,0.1116
5538,6.93E-03,0.10506
5539,6.85E-03,0.10183
5540,6.82E-03,0.10214
5541,6.78E-03,0.10543
5542,6.94E-03,0.11172
5543,7.07E-03,0.12058
5544,7.46E-03,0.13301
5545,7.69E-03,0.14911
5546,8.02E-03,0.16639
5547,9.76E-03,0.18134
5548,1.00E-02,0.18936
5549,8.53E-03,0.19224
5550,8.33E-03,0.18763
5551,8.07E-03,0.1791
5552,8.02E-03,0.17003
5553,7.60E-03,0.16211
5554,7.50E-03,0.15765
5555,7.48E-03,0.15782
5556,7.61E-03,0.1623
5557,7.65E-03,0.16938
5558,7.96E-03,0.17738
5559,8.13E-03,0.18591
5560,8.35E-03,0.19442
5561,8.47E-03,0.20133
5562,8.65E-03,0.20382
5563,8.62E-03,0.20162
5564,8.41E-03,0.19725
5565,8.32E-03,0.19261
5566,8.22E-03,0.18849
5567,8.06E-03,0.18509
5568,8.06E-03,0.18242
5569,8.07E-03,0.18039
5570,8.16E-03,0.17888
5571,8.24E-03,0.17767
5572,8.29E-03,0.17618
5573,8.60E-03,0.1737
5574,8.51E-03,0.17002
5575,8.39E-03,0.16516
5576,8.33E-03,0.15939
5577,8.09E-03,0.15304
5578,8.03E-03,0.14622
5579,7.91E-03,0.13904
5580,7.81E-03,0.13184
5581,7.69E-03,0.12508
5582,7.60E-03,0.11934
5583,7.47E-03,0.11536
5584,7.42E-03,0.11393
5585,7.52E-03,0.11591
5586,7.55E-03,0.12105
5587,7.54E-03,0.12733
5588,8.00E-03,0.13272
5589,8.07E-03,0.13638
5590,8.11E-03,0.14034
5591,7.90E-03,0.14612
5592,8.47E-03,0.15321
5593,8.49E-03,0.1588
5594,8.55E-03,0.16049
5595,8.58E-03,0.15972
5596,8.62E-03,0.15744
5597,8.50E-03,0.15397
5598,8.45E-03,0.14957
5599,8.38E-03,0.1445
5600,8.32E-03,0.13896
5601,8.25E-03,0.1332
5602,8.13E-03,0.1275
5603,7.98E-03,0.12215
5604,7.88E-03,0.11741
5605,7.83E-03,0.11346
5606,7.73E-03,0.11045
5607,7.75E-03,0.10837
5608,8.06E-03,0.10687
5609,8.28E-03,0.1054
5610,8.27E-03,0.10354
5611,8.22E-03,0.10116
5612,8.00E-03,9.84E-02
5613,7.92E-03,9.57E-02
5614,7.53E-03,9.33E-02
5615,7.50E-03,9.21E-02
5616,7.26E-03,9.25E-02
5617,7.92E-03,9.44E-02
5618,8.01E-03,9.72E-02
5619,8.15E-03,0.10019
5620,8.43E-03,0.10276
5621,8.57E-03,0.10457
5622,8.50E-03,0.10541
5623,8.48E-03,0.10526
5624,8.46E-03,0.10427
5625,8.17E-03,0.10265
5626,7.98E-03,0.10052
5627,7.82E-03,9.81E-02
5628,7.60E-03,9.55E-02
5629,7.38E-03,9.30E-02
5630,7.11E-03,9.07E-02
5631,6.86E-03,8.89E-02
5632,6.70E-03,8.79E-02
5633,6.68E-03,8.81E-02
5634,6.86E-03,8.94E-02
5635,7.35E-03,9.13E-02
5636,8.26E-03,9.32E-02
5637,1.03E-02,9.35E-02
5638,1.01E-02,9.43E-02
5639,8.32E-03,9.61E-02
5640,7.29E-03,9.57E-02
5641,8.00E-03,1.16E-02
5642,7.17E-03,1.18E-02
5643,7.84E-03,1.20E-02
5644,9.68E-03,1.23E-02
5645,9.68E-03,1.25E-02
5646,8.01E-03,1.28E-02
5647,7.22E-03,1.31E-02
5648,7.19E-03,1.34E-02
5649,7.28E-03,1.37E-02
5650,7.48E-03,1.39E-02
5651,7.72E-03,1.42E-02
5652,7.83E-03,1.45E-02
5653,7.91E-03,1.48E-02
5654,7.90E-03,1.52E-02
5655,7.88E-03,1.55E-02
5656,7.87E-03,1.58E-02
5657,7.86E-03,1.62E-02
5658,7.86E-03,1.65E-02
5659,7.89E-03,1.69E-02
5660,7.93E-03,1.72E-02
5661,7.96E-03,1.76E-02
5662,7.99E-03,1.80E-02
5663,8.03E-03,1.84E-02
5664,8.06E-03,1.88E-02
5665,8.08E-03,1.92E-02
5666,8.10E-03,1.96E-02
5667,8.14E-03,2.00E-02
5668,8.18E-03,2.04E-02
5669,8.20E-03,2.08E-02
5670,8.19E-03,2.12E-02
5671,8.18E-03,2.15E-02
5672,8.19E-03,2.19E-02
5673,8.19E-03,2.22E-02
5674,8.19E-03,2.25E-02
5675,8.20E-03,2.28E-02
5676,8.21E-03,2.31E-02
5677,8.24E-03,2.33E-02
5678,8.28E-03,2.34E-02
5679,8.33E-03,2.35E-02
5680,8.39E-03,2.36E-02
5681,8.47E-03,2.36E-02
5682,8.56E-03,2.36E-02
5683,8.65E-03,2.35E-02
5684,8.53E-03,2.33E-02
5685,8.21E-03,2.31E-02
5686,7.93E-03,2.28E-02
5687,7.62E-03,2.26E-02
5688,7.17E-03,2.23E-02
5689,7.17E-03,2.20E-02
5690,7.29E-03,2.16E-02
5691,7.67E-03,2.13E-02
5692,7.78E-03,2.09E-02
5693,7.91E-03,2.05E-02
5694,7.94E-03,2.01E-02
5695,8.09E-03,1.97E-02
5696,8.13E-03,1.92E-02
5697,8.16E-03,1.88E-02
5698,8.18E-03,1.83E-02
5699,8.21E-03,1.78E-02
5700,8.24E-03,1.74E-02
5701,8.25E-03,1.69E-02
5702,8.24E-03,1.65E-02
5703,8.22E-03,1.62E-02
5704,8.20E-03,1.60E-02
5705,8.19E-03,1.59E-02
5706,8.18E-03,1.59E-02
5707,8.17E-03,1.60E-02
5708,8.16E-03,1.62E-02
5709,8.16E-03,1.66E-02
5710,8.16E-03,1.71E-02
5711,8.16E-03,1.78E-02
5712,8.16E-03,1.86E-02
5713,8.17E-03,1.95E-02
5714,8.17E-03,2.06E-02
5715,8.17E-03,2.17E-02
5716,8.18E-03,2.29E-02
5717,8.19E-03,2.42E-02
5718,8.21E-03,2.56E-02
5719,8.23E-03,2.70E-02
5720,8.26E-03,2.85E-02
5721,8.29E-03,3.00E-02
5722,8.32E-03,3.16E-02
5723,8.34E-03,3.32E-02
5724,8.35E-03,3.48E-02
5725,8.36E-03,3.64E-02
5726,8.36E-03,3.81E-02
5727,8.37E-03,3.97E-02
5728,8.37E-03,4.13E-02
5729,8.36E-03,4.29E-02
5730,8.34E-03,4.44E-02
5731,8.30E-03,4.59E-02
5732,8.27E-03,4.74E-02
5733,8.25E-03,4.88E-02
5734,8.23E-03,5.02E-02
5735,8.21E-03,5.16E-02
5736,8.19E-03,5.29E-02
5737,8.18E-03,5.42E-02
5738,8.18E-03,5.55E-02
5739,8.17E-03,5.68E-02
5740,8.17E-03,5.80E-02
5741,8.17E-03,5.93E-02
5742,8.17E-03,6.05E-02
5743,8.17E-03,6.18E-02
5744,8.17E-03,6.30E-02
5745,8.18E-03,6.43E-02
5746,8.22E-03,6.56E-02
5747,8.21E-03,6.68E-02
5748,8.00E-03,6.80E-02
5749,7.83E-03,6.92E-02
5750,7.70E-03,7.03E-02
5751,7.55E-03,7.14E-02
5752,7.41E-03,7.24E-02
5753,7.66E-03,7.34E-02
5754,7.92E-03,7.44E-02
5755,8.04E-03,7.54E-02
5756,8.70E-03,7.68E-02
5757,8.90E-03,7.81E-02
5758,8.92E-03,7.88E-02
5759,8.32E-03,8.01E-02
5760,7.59E-03,8.11E-02
5761,7.02E-03,8.16E-02
5762,6.44E-03,8.12E-02
5763,5.20E-03,6.69E-02
5764,8.72E-03,6.67E-02
5765,7.42E-03,6.66E-02
5766,7.70E-03,6.68E-02
5767,7.85E-03,6.71E-02
5768,7.95E-03,6.72E-02
5769,8.01E-03,6.71E-02
5770,8.10E-03,6.70E-02
5771,8.15E-03,6.69E-02
5772,8.18E-03,6.67E-02
5773,8.20E-03,6.66E-02
5774,8.17E-03,6.66E-02
5775,8.20E-03,6.67E-02
5776,8.09E-03,6.69E-02
5777,7.92E-03,6.72E-02
5778,7.89E-03,6.76E-02
5779,7.73E-03,6.81E-02
5780,7.78E-03,6.86E-02
5781,7.32E-03,6.94E-02
5782,4.89E-03,6.98E-02
5783,7.10E-03,6.92E-02
5784,5.60E-03,6.82E-02
5785,4.46E-03,6.80E-02
5786,4.71E-03,6.88E-02
5787,4.60E-03,7.00E-02
5788,5.72E-03,7.18E-02
5789,6.32E-03,7.28E-02
5790,4.87E-03,7.21E-02
5791,5.82E-03,7.21E-02
5792,7.41E-03,7.24E-02
5793,7.75E-03,7.19E-02
5794,7.88E-03,7.16E-02
5795,8.03E-03,7.14E-02
5796,8.00E-03,7.13E-02
5797,8.05E-03,7.13E-02
5798,8.16E-03,7.13E-02
5799,8.13E-03,7.14E-02
5800,8.17E-03,7.15E-02
5801,8.18E-03,7.17E-02
5802,8.06E-03,7.20E-02
5803,8.05E-03,7.22E-02
5804,7.96E-03,7.25E-02
5805,7.86E-03,7.27E-02
5806,7.78E-03,7.27E-02
5807,7.55E-03,7.28E-02
5808,7.16E-03,7.29E-02
5809,7.22E-03,7.27E-02
5810,6.02E-03,7.13E-02
5811,5.49E-03,6.53E-02
5812,7.61E-03,6.72E-02
5813,8.90E-03,6.70E-02
5814,8.20E-03,6.69E-02
5815,7.76E-03,6.67E-02
5816,7.28E-03,6.64E-02
5817,8.34E-03,6.61E-02
5818,8.18E-03,6.59E-02
5819,7.52E-03,6.65E-02
5820,6.94E-03,6.64E-02
5821,6.60E-03,6.55E-02
5822,6.62E-03,6.54E-02
5823,7.89E-03,6.56E-02
5824,8.39E-03,6.55E-02
5825,7.73E-03,6.51E-02
5826,7.83E-03,6.44E-02
5827,7.87E-03,6.38E-02
5828,7.98E-03,6.32E-02
5829,8.15E-03,6.27E-02
5830,8.24E-03,6.23E-02
5831,8.29E-03,6.20E-02
5832,8.29E-03,6.19E-02
5833,8.19E-03,6.18E-02
5834,8.23E-03,6.18E-02
5835,8.19E-03,6.18E-02
5836,8.06E-03,6.18E-02
5837,8.06E-03,6.17E-02
5838,7.98E-03,6.15E-02
5839,7.94E-03,6.12E-02
5840,8.20E-03,6.11E-02
5841,8.75E-03,6.08E-02
5842,8.31E-03,6.04E-02
5843,7.71E-03,6.03E-02
5844,8.06E-03,5.95E-02
5845,8.04E-03,5.96E-02
5846,7.85E-03,5.93E-02
5847,7.31E-03,5.91E-02
5848,8.33E-03,6.08E-02
5849,8.85E-03,6.02E-02
5850,8.12E-03,6.01E-02
5851,8.20E-03,5.95E-02
5852,5.30E-03,5.95E-02
5853,4.10E-03,5.88E-02
5854,4.81E-03,5.86E-02
5855,6.12E-03,5.46E-02
5856,7.90E-03,6.63E-02
5857,7.67E-03,6.70E-02
5858,7.95E-03,6.75E-02
5859,6.38E-03,6.07E-02
5860,6.97E-03,6.00E-02
5861,8.60E-03,5.90E-02
5862,6.53E-03,5.75E-02
5863,5.70E-03,5.75E-02
5864,6.78E-03,5.63E-02
5865,8.30E-03,5.45E-02
5866,8.18E-03,5.44E-02
5867,8.19E-03,5.38E-02
5868,8.13E-03,5.48E-02
5869,8.14E-03,5.41E-02
5870,7.92E-03,5.36E-02
5871,8.02E-03,5.36E-02
5872,8.10E-03,5.37E-02
5873,8.16E-03,5.42E-02
5874,8.27E-03,5.47E-02
5875,8.43E-03,5.51E-02
5876,8.32E-03,5.57E-02
5877,8.13E-03,5.59E-02
5878,8.10E-03,5.61E-02
5879,8.18E-03,5.64E-02
5880,8.14E-03,5.66E-02
5881,8.17E-03,5.67E-02
5882,8.26E-03,5.68E-02
5883,8.26E-03,5.70E-02
5884,8.22E-03,5.72E-02
5885,8.18E-03,5.76E-02
5886,8.21E-03,5.80E-02
5887,8.15E-03,5.85E-02
5888,8.04E-03,5.92E-02
5889,7.95E-03,5.99E-02
5890,7.84E-03,6.06E-02
5891,7.96E-03,6.13E-02
5892,8.01E-03,6.16E-02
5893,7.65E-03,6.20E-02
5894,7.33E-03,6.24E-02
5895,7.18E-03,6.26E-02
5896,7.34E-03,6.28E-02
5897,7.68E-03,6.28E-02
5898,7.93E-03,6.29E-02
5899,8.06E-03,6.32E-02
5900,7.99E-03,6.38E-02
5901,8.00E-03,6.49E-02
5902,8.46E-03,6.57E-02
5903,7.45E-03,6.80E-02
5904,8.05E-03,6.74E-02
5905,6.11E-03,6.78E-02
5906,6.70E-03,6.77E-02
5907,5.23E-03,6.73E-02
5908,4.73E-03,6.78E-02
5909,3.88E-03,6.72E-02
5910,5.60E-03,6.59E-02
5911,7.13E-03,6.34E-02
5912,6.40E-03,5.53E-02
5913,6.03E-03,5.74E-02
5914,8.03E-03,5.88E-02
5915,8.52E-03,6.13E-02
5916,7.71E-03,6.05E-02
5917,6.66E-03,6.35E-02
5918,6.87E-03,6.60E-02
5919,7.48E-03,6.88E-02
5920,8.08E-03,6.91E-02
5921,8.84E-03,7.03E-02
5922,8.43E-03,7.06E-02
5923,7.18E-03,7.46E-02
5924,7.87E-03,7.49E-02
5925,8.24E-03,7.53E-02
5926,8.92E-03,7.58E-02
5927,7.94E-03,7.59E-02
5928,6.51E-03,7.78E-02
5929,6.55E-03,7.76E-02
5930,7.03E-03,7.83E-02
5931,7.41E-03,7.84E-02
5932,7.58E-03,7.83E-02
5933,7.76E-03,7.81E-02
5934,7.85E-03,7.78E-02
5935,7.94E-03,7.75E-02
5936,8.06E-03,7.73E-02
5937,8.09E-03,7.71E-02
5938,8.12E-03,7.68E-02
5939,8.13E-03,7.66E-02
5940,8.10E-03,7.64E-02
5941,8.16E-03,7.62E-02
5942,8.07E-03,7.59E-02
5943,8.07E-03,7.56E-02
5944,7.96E-03,7.53E-02
5945,7.81E-03,7.51E-02
5946,7.86E-03,7.50E-02
5947,7.14E-03,7.51E-02
5948,6.62E-03,7.46E-02
5949,6.38E-03,7.47E-02
5950,6.44E-03,7.54E-02
5951,6.68E-03,7.50E-02
5952,7.21E-03,7.28E-02
5953,8.19E-03,7.00E-02
5954,7.97E-03,7.01E-02
5955,7.16E-03,7.01E-02
5956,6.76E-03,6.82E-02
5957,6.27E-03,6.82E-02
5958,6.52E-03,6.70E-02
5959,7.02E-03,6.61E-02
5960,5.37E-03,6.54E-02
5961,6.43E-03,6.59E-02
5962,7.27E-03,6.62E-02
5963,7.12E-03,6.60E-02
5964,6.64E-03,6.58E-02
5965,6.25E-03,6.62E-02
5966,6.05E-03,8.62E-02
5967,6.96E-03,8.71E-02
5968,7.82E-03,7.82E-02
5969,8.76E-03,7.24E-02
5970,7.78E-03,6.82E-02
5971,7.57E-03,6.42E-02
5972,7.59E-03,6.09E-02
5973,7.89E-03,5.94E-02
5974,7.41E-03,5.73E-02
5975,7.77E-03,5.42E-02
5976,8.09E-03,5.26E-02
5977,8.11E-03,5.14E-02
5978,8.12E-03,5.04E-02
5979,8.15E-03,5.00E-02
5980,8.07E-03,4.95E-02
5981,8.07E-03,4.91E-02
5982,8.07E-03,4.90E-02
5983,8.13E-03,4.91E-02
5984,8.18E-03,4.93E-02
5985,8.19E-03,4.98E-02
5986,8.23E-03,5.03E-02
5987,8.18E-03,5.07E-02
5988,8.15E-03,5.10E-02
5989,8.15E-03,5.13E-02
5990,8.20E-03,5.15E-02
5991,8.18E-03,5.18E-02
5992,8.25E-03,5.20E-02
5993,8.21E-03,5.24E-02
5994,8.20E-03,5.27E-02
5995,8.19E-03,5.32E-02
5996,8.14E-03,5.38E-02
5997,8.07E-03,5.44E-02
5998,8.01E-03,5.51E-02
5999,8.01E-03,5.59E-02
6000,7.97E-03,5.67E-02
6001,7.92E-03,5.73E-02
6002,7.83E-03,5.78E-02
6003,7.73E-03,5.85E-02
6004,7.59E-03,5.90E-02
6005,7.53E-03,5.93E-02
6006,7.59E-03,5.95E-02
6007,7.77E-03,5.98E-02
6008,7.89E-03,6.02E-02
6009,7.97E-03,6.08E-02
6010,8.01E-03,6.18E-02
6011,8.06E-03,6.30E-02
6012,8.09E-03,6.43E-02
6013,7.86E-03,6.61E-02
6014,7.45E-03,6.72E-02
6015,7.63E-03,6.80E-02
6016,7.13E-03,6.86E-02
6017,6.57E-03,6.91E-02
6018,6.68E-03,0.1154
6019,5.67E-03,8.43E-02
6020,4.95E-03,6.71E-02
6021,5.34E-03,5.78E-02
6022,5.91E-03,6.17E-02
6023,6.58E-03,6.00E-02
6024,6.78E-03,5.80E-02
6025,7.09E-03,6.31E-02
6026,7.53E-03,6.63E-02
6027,7.81E-03,6.89E-02
6028,7.65E-03,6.95E-02
6029,7.45E-03,7.23E-02
6030,7.34E-03,7.54E-02
6031,7.67E-03,7.81E-02
6032,8.03E-03,7.97E-02
6033,8.27E-03,8.10E-02
6034,8.10E-03,8.09E-02
6035,8.01E-03,8.26E-02
6036,7.91E-03,8.38E-02
6037,8.15E-03,8.40E-02
6038,8.08E-03,8.43E-02
6039,7.92E-03,8.35E-02
6040,7.70E-03,8.34E-02
6041,7.31E-03,8.35E-02
6042,7.29E-03,8.33E-02
6043,7.48E-03,8.31E-02
6044,7.68E-03,8.29E-02
6045,7.76E-03,8.26E-02
6046,7.83E-03,8.23E-02
6047,7.94E-03,8.21E-02
6048,8.02E-03,8.21E-02
6049,8.05E-03,8.21E-02
6050,8.04E-03,8.20E-02
6051,8.15E-03,8.19E-02
6052,8.08E-03,8.17E-02
6053,8.07E-03,8.14E-02
6054,8.07E-03,8.08E-02
6055,8.07E-03,8.02E-02
6056,7.96E-03,7.94E-02
6057,7.83E-03,7.86E-02
6058,7.68E-03,7.78E-02
6059,7.40E-03,7.68E-02
6060,7.11E-03,7.61E-02
6061,6.92E-03,7.59E-02
6062,7.09E-03,7.65E-02
6063,7.60E-03,7.72E-02
6064,9.06E-03,7.66E-02
6065,9.83E-03,7.56E-02
6066,8.65E-03,7.57E-02
6067,8.22E-03,7.57E-02
6068,7.87E-03,7.48E-02
6069,7.56E-03,7.27E-02
6070,7.59E-03,6.99E-02
6071,7.10E-03,6.74E-02
6072,7.01E-03,6.52E-02
6073,7.02E-03,6.33E-02
6074,6.42E-03,6.20E-02
6075,6.78E-03,6.17E-02
6076,7.12E-03,6.17E-02
6077,7.18E-03,6.18E-02
6078,7.09E-03,6.21E-02
6079,6.84E-03,6.30E-02
6080,6.80E-03,6.50E-02
6081,7.57E-03,6.97E-02
6082,7.34E-03,7.13E-02
6083,7.21E-03,7.70E-02
6084,7.51E-03,7.44E-02
6085,7.93E-03,7.22E-02
6086,6.78E-03,7.08E-02
6087,6.91E-03,7.02E-02
6088,7.54E-03,6.95E-02
6089,8.26E-03,6.88E-02
6090,9.63E-03,6.82E-02
6091,9.79E-03,6.73E-02
6092,8.17E-03,6.61E-02
6093,8.08E-03,6.44E-02
6094,8.07E-03,6.28E-02
6095,8.00E-03,6.12E-02
6096,8.01E-03,5.98E-02
6097,7.99E-03,5.86E-02
6098,7.95E-03,5.77E-02
6099,7.90E-03,5.69E-02
6100,7.80E-03,5.63E-02
6101,7.73E-03,5.58E-02
6102,7.81E-03,5.54E-02
6103,7.85E-03,5.48E-02
6104,7.89E-03,5.42E-02
6105,8.01E-03,5.34E-02
6106,8.07E-03,5.27E-02
6107,8.07E-03,5.19E-02
6108,8.07E-03,5.11E-02
6109,8.07E-03,5.03E-02
6110,8.07E-03,4.96E-02
6111,8.07E-03,4.89E-02
6112,8.07E-03,4.84E-02
6113,8.07E-03,4.79E-02
6114,8.07E-03,4.75E-02
6115,8.11E-03,4.71E-02
6116,8.15E-03,4.68E-02
6117,8.12E-03,4.65E-02
6118,8.16E-03,4.62E-02
6119,8.15E-03,4.58E-02
6120,8.15E-03,4.55E-02
6121,8.13E-03,4.52E-02
6122,8.13E-03,4.51E-02
6123,8.07E-03,4.51E-02
6124,8.07E-03,4.55E-02
6125,8.07E-03,4.61E-02
6126,8.07E-03,4.69E-02
6127,8.07E-03,4.80E-02
6128,8.10E-03,4.95E-02
6129,8.11E-03,5.16E-02
6130,8.01E-03,5.40E-02
6131,7.92E-03,5.72E-02
6132,7.80E-03,6.07E-02
6133,7.71E-03,6.37E-02
6134,7.82E-03,6.76E-02
6135,7.85E-03,7.33E-02
6136,8.05E-03,7.98E-02
6137,7.95E-03,8.74E-02
6138,7.98E-03,9.71E-02
6139,8.30E-03,0.11338
6140,7.59E-03,0.13569
6141,6.39E-03,0.16201
6142,6.78E-03,0.21492
6143,6.11E-03,0.33397
6144,7.17E-03,0.21168
6145,6.31E-03,0.11843
6146,5.73E-03,7.67E-02
6147,5.90E-03,5.87E-02
6148,6.39E-03,5.45E-02
6149,6.80E-03,5.73E-02
6150,6.69E-03,6.25E-02
6151,7.06E-03,6.48E-02
6152,7.37E-03,6.75E-02
6153,7.65E-03,7.15E-02
6154,7.66E-03,7.59E-02
6155,7.76E-03,7.88E-02
6156,7.76E-03,8.12E-02
6157,7.73E-03,8.37E-02
6158,7.73E-03,8.62E-02
6159,7.80E-03,8.85E-02
6160,8.01E-03,9.05E-02
6161,8.15E-03,9.15E-02
6162,8.09E-03,9.23E-02
6163,8.10E-03,9.25E-02
6164,8.02E-03,9.29E-02
6165,8.11E-03,9.31E-02
6166,8.08E-03,9.25E-02
6167,7.97E-03,9.16E-02
6168,7.85E-03,9.05E-02
6169,7.79E-03,8.94E-02
6170,7.64E-03,8.82E-02
6171,7.69E-03,8.71E-02
6172,7.80E-03,8.64E-02
6173,7.82E-03,8.60E-02
6174,7.92E-03,8.60E-02
6175,7.92E-03,8.62E-02
6176,7.85E-03,8.66E-02
6177,7.93E-03,8.69E-02
6178,7.98E-03,8.72E-02
6179,8.05E-03,8.74E-02
6180,8.07E-03,8.74E-02
6181,8.07E-03,8.70E-02
6182,8.07E-03,8.63E-02
6183,8.07E-03,8.52E-02
6184,8.03E-03,8.38E-02
6185,7.88E-03,8.21E-02
6186,7.78E-03,8.01E-02
6187,7.64E-03,7.81E-02
6188,7.56E-03,7.64E-02
6189,7.47E-03,7.54E-02
6190,7.69E-03,7.57E-02
6191,8.20E-03,7.79E-02
6192,8.35E-03,8.14E-02
6193,8.58E-03,8.41E-02
6194,8.42E-03,8.50E-02
6195,8.13E-03,8.40E-02
6196,7.91E-03,8.09E-02
6197,7.76E-03,7.64E-02
6198,7.59E-03,7.16E-02
6199,7.44E-03,6.67E-02
6200,7.47E-03,6.25E-02
6201,7.33E-03,5.91E-02
6202,7.14E-03,5.68E-02
6203,7.25E-03,5.60E-02
6204,7.33E-03,5.64E-02
6205,7.34E-03,5.77E-02
6206,7.37E-03,5.91E-02
6207,7.31E-03,6.01E-02
6208,7.48E-03,6.16E-02
6209,7.31E-03,6.39E-02
6210,6.65E-03,6.58E-02
6211,7.11E-03,7.29E-02
6212,5.95E-03,8.25E-02
6213,6.03E-03,8.00E-02
6214,5.99E-03,8.04E-02
6215,4.51E-03,0.48302
6216,5.35E-03,0.36659
6217,7.64E-03,0.25196
6218,7.16E-03,0.1839
6219,7.43E-03,0.15431
6220,7.86E-03,0.13348
6221,8.08E-03,0.11605
6222,8.00E-03,0.1029
6223,8.06E-03,9.24E-02
6224,7.93E-03,8.40E-02
6225,7.88E-03,7.71E-02
6226,7.93E-03,7.12E-02
6227,7.99E-03,6.62E-02
6228,7.99E-03,6.19E-02
6229,7.99E-03,5.78E-02
6230,8.07E-03,5.42E-02
6231,8.07E-03,5.11E-02
6232,5.96E-03,8.28E-02
6233,6.94E-03,7.80E-02
6234,7.43E-03,7.48E-02
6235,7.44E-03,7.31E-02
6236,7.56E-03,7.10E-02
6237,7.48E-03,6.99E-02
6238,7.85E-03,6.90E-02
6239,8.53E-03,6.80E-02
6240,9.03E-03,6.68E-02
6241,9.01E-03,6.55E-02
6242,8.67E-03,6.41E-02
6243,8.23E-03,6.25E-02
6244,8.08E-03,6.08E-02
6245,8.07E-03,5.92E-02
6246,8.07E-03,5.76E-02
6247,8.07E-03,5.63E-02
6248,8.07E-03,5.51E-02
6249,8.03E-03,5.40E-02
6250,7.98E-03,5.32E-02
6251,7.99E-03,5.24E-02
6252,7.96E-03,5.17E-02
6253,7.98E-03,5.11E-02
6254,8.07E-03,5.04E-02
6255,8.07E-03,4.95E-02
6256,8.07E-03,4.87E-02
6257,8.07E-03,4.79E-02
6258,8.07E-03,4.70E-02
6259,8.07E-03,4.62E-02
6260,8.07E-03,4.54E-02
6261,8.07E-03,4.47E-02
6262,8.07E-03,4.41E-02
6263,8.07E-03,4.36E-02
6264,8.07E-03,4.32E-02
6265,8.07E-03,4.28E-02
6266,8.07E-03,4.24E-02
6267,8.07E-03,4.21E-02
6268,8.07E-03,4.19E-02
6269,8.07E-03,4.17E-02
6270,8.07E-03,4.16E-02
6271,8.07E-03,4.17E-02
6272,8.07E-03,4.20E-02
6273,8.07E-03,4.26E-02
6274,8.07E-03,4.35E-02
6275,8.07E-03,4.47E-02
6276,8.07E-03,4.63E-02
6277,8.07E-03,4.84E-02
6278,8.07E-03,8.86E-02
6279,8.07E-03,9.07E-02
6280,8.07E-03,9.22E-02
6281,7.25E-03,9.96E-02
6282,7.02E-03,0.14683
6283,8.07E-03,9.35E-02
6284,8.07E-03,9.32E-02
6285,8.01E-03,8.59E-02
6286,8.07E-03,9.33E-02
6287,7.61E-03,5.46E-02
6288,7.56E-03,5.68E-02
6289,7.60E-03,5.78E-02
6290,8.04E-03,9.25E-02
6291,8.06E-03,0.10341
6292,8.06E-03,0.10329
6293,8.06E-03,0.10287
6294,8.05E-03,0.10254
6295,8.05E-03,0.10209
6296,8.10E-03,7.35E-02
6297,7.29E-03,7.14E-02
6298,8.05E-03,0.1014
6299,8.05E-03,0.10096
6300,7.97E-03,1.00E-01
6301,7.97E-03,9.96E-02
6302,6.69E-03,7.63E-02
6303,7.97E-03,9.79E-02
6304,7.91E-03,9.84E-02
6305,7.65E-03,5.71E-02
6306,7.89E-03,9.64E-02
6307,7.99E-03,9.56E-02
6308,7.92E-03,9.37E-02
6309,7.94E-03,8.25E-02
6310,7.95E-03,9.01E-02
6311,8.01E-03,9.31E-02
6312,8.01E-03,9.00E-02
6313,8.00E-03,9.06E-02
6314,7.97E-03,8.91E-02
6315,7.95E-03,8.65E-02
6316,7.97E-03,9.07E-02
6317,7.87E-03,7.90E-02
6318,7.89E-03,8.27E-02
6319,7.93E-03,7.35E-02
6320,7.80E-03,8.16E-02
6321,8.00E-03,9.14E-02
6322,7.96E-03,6.58E-02
6323,7.87E-03,8.90E-02
6324,7.72E-03,7.80E-02
6325,7.83E-03,5.94E-02
6326,7.91E-03,8.83E-02
6327,7.89E-03,7.58E-02
6328,7.91E-03,8.88E-02
6329,7.89E-03,9.51E-02
6330,7.90E-03,7.35E-02
6331,7.79E-03,5.43E-02
6332,7.74E-03,5.11E-02
6333,6.06E-03,7.74E-02
6334,4.90E-03,9.79E-02
6335,7.63E-03,7.18E-02
6336,7.46E-03,6.26E-02
6337,7.35E-03,5.57E-02
6338,8.17E-03,7.30E-02
6339,7.96E-03,9.86E-02
6340,7.83E-03,5.04E-02
6341,7.72E-03,6.66E-02
6342,8.19E-03,8.58E-02
6343,8.45E-03,7.61E-02
6344,7.65E-03,5.87E-02
6345,7.22E-03,6.56E-02
6346,8.09E-03,9.62E-02
6347,7.89E-03,4.91E-02
6348,5.55E-03,0.137
6349,4.59E-03,0.11853
6350,7.78E-03,5.60E-02
6351,7.59E-03,0.11587
6352,6.47E-03,0.18244
6353,7.66E-03,6.18E-02
6354,7.65E-03,5.11E-02
6355,5.96E-03,7.97E-02
6356,1.02E-02,7.57E-02
6357,8.80E-03,7.74E-02
6358,5.52E-03,9.49E-02
6359,6.35E-03,0.10008
6360,7.14E-03,0.10573
6361,7.98E-03,0.11086
6362,8.60E-03,0.11085
6363,8.88E-03,0.10509
6364,8.52E-03,9.83E-02
6365,7.68E-03,9.34E-02
6366,7.25E-03,8.93E-02
6367,7.11E-03,8.66E-02
6368,7.13E-03,8.61E-02
6369,7.21E-03,8.76E-02
6370,7.38E-03,9.02E-02
6371,7.57E-03,9.35E-02
6372,7.73E-03,9.76E-02
6373,7.86E-03,0.10188
6374,7.96E-03,0.10584
6375,8.09E-03,0.10938
6376,8.20E-03,0.11222
6377,8.21E-03,0.11377
6378,8.21E-03,0.11396
6379,8.23E-03,0.11262
6380,8.22E-03,0.10907
6381,8.06E-03,0.10357
6382,8.05E-03,9.75E-02
6383,7.99E-03,9.16E-02
6384,7.80E-03,8.74E-02
6385,7.88E-03,8.69E-02
6386,7.92E-03,8.93E-02
6387,7.97E-03,9.36E-02
6388,8.04E-03,9.86E-02
6389,8.12E-03,0.10281
6390,8.14E-03,0.1059
6391,8.14E-03,0.10759
6392,8.07E-03,0.10759
6393,7.96E-03,0.10735
6394,7.96E-03,0.10897
6395,7.99E-03,0.11256
6396,8.01E-03,0.11756
6397,8.04E-03,0.12403
6398,8.09E-03,0.13171
6399,8.13E-03,0.13996
6400,8.16E-03,0.14817
6401,8.17E-03,0.15606
6402,8.20E-03,0.1635
6403,8.21E-03,0.16994
6404,8.27E-03,0.17519
6405,8.25E-03,0.17945
6406,8.18E-03,0.18237
6407,8.01E-03,0.18155
6408,8.03E-03,0.17086
6409,8.01E-03,0.1501
6410,8.30E-03,0.13705
6411,8.10E-03,0.13774
6412,7.98E-03,0.14001
6413,7.83E-03,0.13052
6414,7.88E-03,0.11337
6415,8.01E-03,0.10324
6416,7.96E-03,0.10184
6417,7.86E-03,0.10505
6418,7.91E-03,0.11127
6419,7.91E-03,0.12002
6420,7.93E-03,0.13065
6421,7.96E-03,0.14151
6422,8.02E-03,0.15169
6423,8.07E-03,0.16127
6424,8.16E-03,0.17034
6425,8.18E-03,0.17868
6426,8.22E-03,0.18595
6427,8.25E-03,0.1907
6428,8.15E-03,0.19125
6429,8.15E-03,0.18981
6430,8.08E-03,0.18913
6431,8.07E-03,0.18983
6432,8.07E-03,0.19184
6433,8.07E-03,0.19516
6434,8.15E-03,0.20007
6435,8.19E-03,0.20696
6436,8.25E-03,0.21677
6437,8.21E-03,0.23059
6438,8.11E-03,0.24184
6439,8.05E-03,0.23607
6440,8.12E-03,0.21681
6441,8.08E-03,0.19858
6442,8.04E-03,0.18393
6443,7.82E-03,0.17093
6444,7.83E-03,0.15801
6445,8.02E-03,0.14486
6446,7.86E-03,0.15652
6447,8.03E-03,0.17329
6448,8.08E-03,0.19109
6449,8.21E-03,0.21111
6450,8.36E-03,0.23098
6451,8.38E-03,0.24104
6452,8.23E-03,0.22356
6453,8.09E-03,0.18397
6454,7.95E-03,0.14704
6455,7.93E-03,0.12215
6456,7.67E-03,0.10772
6457,7.57E-03,9.83E-02
6458,7.51E-03,9.14E-02
6459,7.53E-03,8.66E-02
6460,7.64E-03,8.50E-02
6461,7.66E-03,8.96E-02
6462,7.60E-03,9.96E-02
6463,7.57E-03,0.11083
6464,7.62E-03,0.12152
6465,7.65E-03,0.13109
6466,7.66E-03,0.13933
6467,7.58E-03,0.1462
6468,7.57E-03,0.15143
6469,7.65E-03,0.15686
6470,7.78E-03,0.16734
6471,8.27E-03,0.17599
6472,7.99E-03,1.96E-02
6473,8.06E-03,1.92E-02
6474,8.07E-03,1.88E-02
6475,8.08E-03,1.84E-02
6476,7.98E-03,2.00E-02
6477,8.09E-03,1.79E-02
6478,8.10E-03,1.75E-02
6479,8.11E-03,1.71E-02
6480,8.11E-03,1.67E-02
6481,8.11E-03,1.64E-02
6482,8.10E-03,1.61E-02
6483,8.10E-03,1.60E-02
6484,8.09E-03,1.59E-02
6485,8.09E-03,1.59E-02
6486,8.09E-03,1.60E-02
6487,8.08E-03,1.63E-02
6488,8.08E-03,1.67E-02
6489,8.08E-03,1.72E-02
6490,8.08E-03,1.79E-02
6491,8.08E-03,1.87E-02
6492,8.09E-03,1.95E-02
6493,8.09E-03,2.05E-02
6494,8.09E-03,2.16E-02
6495,8.09E-03,2.28E-02
6496,8.09E-03,2.40E-02
6497,8.10E-03,2.53E-02
6498,8.11E-03,2.67E-02
6499,8.12E-03,2.81E-02
6500,7.95E-03,2.03E-02
6501,8.13E-03,2.95E-02
6502,8.00E-03,2.23E-02
6503,8.05E-03,2.25E-02
6504,8.37E-03,1.12E-02
6505,8.84E-03,1.15E-02
6506,7.18E-03,1.17E-02
6507,7.70E-03,1.19E-02
6508,8.32E-03,1.21E-02
6509,8.91E-03,1.24E-02
6510,8.70E-03,1.26E-02
6511,8.49E-03,1.29E-02
6512,7.94E-03,1.32E-02
6513,7.53E-03,1.35E-02
6514,7.53E-03,1.37E-02
6515,7.70E-03,1.40E-02
6516,7.86E-03,1.43E-02
6517,7.92E-03,1.46E-02
6518,8.00E-03,1.49E-02
6519,8.00E-03,1.52E-02
6520,7.99E-03,1.55E-02
6521,7.99E-03,1.58E-02
6522,7.98E-03,1.62E-02
6523,7.98E-03,1.65E-02
6524,7.99E-03,1.69E-02
6525,8.01E-03,1.72E-02
6526,8.02E-03,1.76E-02
6527,8.03E-03,1.79E-02
6528,8.04E-03,1.83E-02
6529,8.05E-03,1.87E-02
6530,8.06E-03,1.91E-02
6531,8.06E-03,1.94E-02
6532,8.08E-03,1.98E-02
6533,8.09E-03,2.02E-02
6534,8.09E-03,2.06E-02
6535,8.09E-03,2.09E-02
6536,8.09E-03,2.12E-02
6537,8.09E-03,2.16E-02
6538,8.09E-03,2.19E-02
6539,8.09E-03,2.21E-02
6540,8.10E-03,2.24E-02
6541,8.10E-03,2.26E-02
6542,8.11E-03,2.28E-02
6543,8.12E-03,2.29E-02
6544,8.13E-03,4.45E-02
6545,8.12E-03,4.59E-02
6546,8.11E-03,4.73E-02
6547,8.11E-03,4.86E-02
6548,8.10E-03,4.99E-02
6549,8.09E-03,5.12E-02
6550,8.09E-03,5.25E-02
6551,8.09E-03,5.37E-02
6552,8.09E-03,5.49E-02
6553,8.09E-03,5.62E-02
6554,8.09E-03,5.74E-02
6555,8.09E-03,5.86E-02
6556,8.09E-03,5.97E-02
6557,8.09E-03,6.09E-02
6558,8.09E-03,6.21E-02
6559,8.09E-03,6.33E-02
6560,8.04E-03,6.45E-02
6561,7.97E-03,6.56E-02
6562,7.88E-03,6.67E-02
6563,7.79E-03,6.77E-02
6564,7.90E-03,6.87E-02
6565,7.94E-03,6.97E-02
6566,7.99E-03,7.05E-02
6567,8.15E-03,7.13E-02
6568,8.24E-03,7.22E-02
6569,8.46E-03,7.30E-02
6570,8.61E-03,7.37E-02
6571,8.53E-03,7.45E-02
6572,8.21E-03,7.54E-02
6573,7.65E-03,7.64E-02
6574,7.07E-03,7.72E-02
6575,6.59E-03,7.76E-02
6576,6.39E-03,7.76E-02
6577,6.98E-03,7.73E-02
6578,7.74E-03,7.21E-02
6579,6.20E-03,7.07E-02
6580,8.97E-03,6.97E-02
6581,1.07E-02,6.89E-02
6582,8.14E-03,2.30E-02
6583,8.14E-03,3.10E-02
6584,8.14E-03,4.31E-02
6585,8.14E-03,3.25E-02
6586,8.15E-03,3.41E-02
6587,8.15E-03,3.56E-02
6588,8.15E-03,4.17E-02
6589,8.15E-03,3.71E-02
6590,8.15E-03,3.87E-02
6591,8.15E-03,4.02E-02
6592,8.16E-03,2.31E-02
6593,8.19E-03,2.30E-02
6594,7.92E-03,2.07E-02
6595,8.22E-03,2.30E-02
6596,8.24E-03,2.29E-02
6597,8.22E-03,2.27E-02
6598,7.92E-03,2.20E-02
6599,7.79E-03,2.10E-02
6600,7.75E-03,2.14E-02
6601,7.75E-03,2.17E-02
6602,8.37E-03,0.21928
6603,7.94E-03,0.1462
6604,8.39E-03,6.75E-02
6605,6.02E-03,6.63E-02
6606,1.02E-02,3.25E-02
6607,8.56E-03,2.87E-02
6608,8.15E-03,2.61E-02
6609,8.08E-03,2.46E-02
6610,8.04E-03,2.36E-02
6611,8.04E-03,2.29E-02
6612,8.04E-03,2.23E-02
6613,8.04E-03,2.18E-02
6614,8.04E-03,2.12E-02
6615,8.04E-03,2.07E-02
6616,8.04E-03,2.01E-02
6617,8.04E-03,1.96E-02
6618,8.04E-03,1.91E-02
6619,8.04E-03,1.86E-02
6620,8.04E-03,1.82E-02
6621,8.04E-03,1.77E-02
6622,8.04E-03,1.72E-02
6623,8.04E-03,1.68E-02
6624,8.04E-03,1.64E-02
6625,8.04E-03,1.60E-02
6626,8.04E-03,1.57E-02
6627,8.04E-03,1.54E-02
6628,8.04E-03,1.50E-02
6629,8.04E-03,1.47E-02
6630,8.04E-03,1.44E-02
6631,8.04E-03,1.42E-02
6632,8.04E-03,1.39E-02
6633,8.04E-03,1.37E-02
6634,8.04E-03,1.34E-02
6635,8.04E-03,1.32E-02
6636,8.04E-03,1.30E-02
6637,7.97E-03,1.28E-02
6638,7.91E-03,1.27E-02
6639,7.94E-03,1.25E-02
6640,7.92E-03,1.23E-02
6641,7.85E-03,1.22E-02
6642,7.79E-03,1.20E-02
6643,7.88E-03,1.19E-02
6644,7.99E-03,1.18E-02
6645,8.05E-03,1.16E-02
6646,7.66E-03,1.15E-02
6647,7.14E-03,1.14E-02
6648,6.78E-03,1.13E-02
6649,7.89E-03,1.13E-02
6650,8.73E-03,1.10E-02
6651,6.54E-03,1.08E-02
6652,7.36E-03,0.52335
6653,7.00E-03,0.36397
6654,6.89E-03,0.26232
6655,7.02E-03,0.20709
6656,7.28E-03,0.17228
6657,7.59E-03,0.14946
6658,7.88E-03,0.13178
6659,8.01E-03,0.11722
6660,8.07E-03,0.10536
6661,8.07E-03,9.54E-02
6662,8.07E-03,8.72E-02
6663,8.07E-03,8.00E-02
6664,8.07E-03,7.36E-02
6665,8.07E-03,6.80E-02
6666,8.07E-03,6.31E-02
6667,8.07E-03,5.85E-02
6668,8.07E-03,5.44E-02
6669,8.07E-03,5.08E-02
6670,8.07E-03,4.77E-02
6671,8.07E-03,4.52E-02
6672,8.07E-03,4.31E-02
6673,8.07E-03,4.15E-02
6674,8.07E-03,4.03E-02
6675,8.07E-03,3.94E-02
6676,8.07E-03,3.88E-02
6677,8.07E-03,3.85E-02
6678,8.07E-03,3.84E-02
6679,8.07E-03,3.84E-02
6680,8.07E-03,3.86E-02
6681,8.07E-03,3.88E-02
6682,8.07E-03,3.91E-02
6683,8.07E-03,3.96E-02
6684,8.07E-03,4.01E-02
6685,8.07E-03,4.07E-02
6686,8.07E-03,4.14E-02
6687,8.07E-03,4.22E-02
6688,8.07E-03,4.30E-02
6689,8.07E-03,4.39E-02
6690,8.07E-03,4.48E-02
6691,8.07E-03,4.56E-02
6692,8.07E-03,4.65E-02
6693,8.07E-03,4.73E-02
6694,8.07E-03,4.81E-02
6695,8.07E-03,4.90E-02
6696,8.07E-03,5.00E-02
6697,8.07E-03,5.11E-02
6698,8.07E-03,5.23E-02
6699,8.07E-03,5.37E-02
6700,8.07E-03,5.52E-02
6701,8.07E-03,5.68E-02
6702,8.07E-03,5.85E-02
6703,8.07E-03,6.01E-02
6704,8.07E-03,6.18E-02
6705,8.07E-03,6.33E-02
6706,8.07E-03,6.48E-02
6707,8.07E-03,6.62E-02
6708,8.07E-03,6.76E-02
6709,8.07E-03,6.88E-02
6710,8.07E-03,7.03E-02
6711,8.07E-03,7.21E-02
6712,8.07E-03,7.41E-02
6713,8.07E-03,7.68E-02
6714,8.02E-03,8.09E-02
6715,7.91E-03,8.88E-02
6716,7.80E-03,0.1017
6717,7.76E-03,0.1243
6718,8.10E-03,0.14423
6719,8.13E-03,0.11404
6720,7.90E-03,0.10426
6721,7.94E-03,9.91E-02
6722,7.72E-03,0.10327
6723,7.97E-03,0.10489
6724,8.05E-03,9.73E-02
6725,7.94E-03,8.79E-02
6726,7.86E-03,7.88E-02
6727,7.82E-03,7.02E-02
6728,7.84E-03,6.33E-02
6729,7.82E-03,6.10E-02
6730,7.52E-03,6.31E-02
6731,7.58E-03,6.54E-02
6732,7.76E-03,7.03E-02
6733,7.88E-03,8.28E-02
6734,8.05E-03,0.10288
6735,7.87E-03,0.12684
6736,7.74E-03,0.14734
6737,8.24E-03,0.15219
6738,8.29E-03,0.14896
6739,8.23E-03,0.14346
6740,8.26E-03,0.1348
6741,8.26E-03,0.12664
6742,8.21E-03,0.12068
6743,8.25E-03,0.11704
6744,8.27E-03,0.11499
6745,8.33E-03,0.1132
6746,8.25E-03,0.11096
6747,7.80E-03,0.10171
6748,7.81E-03,8.28E-02
6749,8.03E-03,6.82E-02
6750,7.96E-03,6.09E-02
6751,8.01E-03,5.71E-02
6752,8.03E-03,5.51E-02
6753,8.15E-03,5.39E-02
6754,8.10E-03,5.26E-02
6755,8.07E-03,5.04E-02
6756,8.40E-03,4.67E-02
6757,1.00E-02,4.14E-02
6758,9.57E-03,3.78E-02
6762,5.09E-03,1.41E-02
6763,7.29E-03,1.41E-02
6764,6.23E-03,1.43E-02
6765,4.56E-03,1.43E-02
6766,4.87E-03,1.43E-02
6767,9.65E-03,1.48E-02
6768,1.03E-02,1.51E-02
6769,9.83E-03,1.49E-02
6770,9.95E-03,1.52E-02
6771,1.01E-02,1.33E-02
6772,8.00E-03,1.31E-02
6773,7.47E-03,1.72E-02
6774,8.20E-03,1.70E-02
6775,6.43E-03,1.72E-02
6776,6.32E-03,1.74E-02
6777,5.85E-03,1.39E-02
6778,5.31E-03,1.38E-02
6779,5.78E-03,1.40E-02
6780,6.00E-03,1.69E-02
6781,5.99E-03,1.70E-02
6782,5.64E-03,1.67E-02
6783,7.11E-03,1.66E-02
6784,7.90E-03,1.56E-02
6785,8.23E-03,1.53E-02
6786,6.21E-03,1.55E-02
6787,7.23E-03,1.57E-02
6788,6.54E-03,1.57E-02
6789,9.07E-03,1.59E-02
6790,7.80E-03,1.61E-02
6791,7.44E-03,1.65E-02
6792,4.41E-03,1.67E-02
6793,7.16E-03,1.68E-02
6794,7.83E-03,1.70E-02
6795,6.31E-03,1.70E-02
6796,8.17E-03,1.65E-02
6797,8.65E-03,1.63E-02
6798,8.15E-03,1.60E-02
6799,7.90E-03,1.57E-02
6800,7.66E-03,1.56E-02
6801,8.22E-03,1.53E-02
6802,8.44E-03,1.51E-02
6803,1.01E-02,1.50E-02
6804,7.20E-03,1.80E-02
6805,6.18E-03,1.81E-02
6806,7.54E-03,1.79E-02
6807,8.05E-03,1.77E-02
6808,8.72E-03,1.75E-02
6809,8.57E-03,1.73E-02
6810,7.63E-03,1.73E-02
6811,7.72E-03,1.72E-02
6812,6.97E-03,1.71E-02
6813,6.39E-03,1.71E-02
6814,5.03E-03,1.69E-02
6815,6.41E-03,1.68E-02
6816,9.41E-03,1.66E-02
6817,8.19E-03,1.64E-02
6818,9.34E-03,1.61E-02
6819,9.04E-03,1.61E-02
6820,7.66E-03,1.59E-02
6821,7.45E-03,1.79E-02
6822,7.28E-03,1.77E-02
6823,8.30E-03,1.55E-02
6824,7.23E-03,1.58E-02
6825,6.15E-03,1.76E-02
6826,7.25E-03,1.75E-02
6827,7.52E-03,1.74E-02
6828,8.17E-03,1.73E-02
6829,8.74E-03,1.72E-02
6830,8.25E-03,1.71E-02
6831,6.98E-03,1.69E-02
6832,7.01E-03,1.68E-02
6833,6.97E-03,1.65E-02
6834,7.22E-03,1.64E-02
6835,7.77E-03,1.62E-02
6836,8.05E-03,1.60E-02
6837,8.12E-03,1.58E-02
6838,8.04E-03,1.56E-02
6839,8.01E-03,1.54E-02
6840,8.38E-03,1.52E-02
6841,8.65E-03,1.50E-02
6842,8.67E-03,1.48E-02
6843,8.25E-03,1.47E-02
6844,7.50E-03,1.46E-02
6845,7.30E-03,1.46E-02
6846,6.11E-03,1.45E-02
6847,5.74E-03,1.44E-02
6848,6.39E-03,1.74E-02
6849,7.31E-03,1.71E-02
6850,7.64E-03,1.70E-02
6851,8.05E-03,1.70E-02
6852,8.05E-03,1.69E-02
6853,7.78E-03,1.68E-02
6854,7.58E-03,1.67E-02
6855,7.26E-03,1.65E-02
6856,7.28E-03,1.64E-02
6857,7.41E-03,1.62E-02
6858,7.59E-03,1.60E-02
6859,7.83E-03,1.58E-02
6860,8.03E-03,1.56E-02
6861,8.04E-03,1.54E-02
6862,8.14E-03,1.52E-02
6863,8.25E-03,1.50E-02
6864,8.28E-03,1.49E-02
6865,8.24E-03,1.47E-02
6866,7.81E-03,1.46E-02
6867,7.14E-03,1.45E-02
6868,6.51E-03,1.43E-02
6869,6.11E-03,1.42E-02
6870,6.82E-03,1.40E-02
6871,7.29E-03,1.78E-02
6872,6.46E-03,1.76E-02
6873,4.95E-03,1.72E-02
6874,6.48E-03,1.74E-02
6875,6.59E-03,1.45E-02
6876,7.73E-03,1.47E-02
6877,8.52E-03,1.55E-02
6878,7.55E-03,1.58E-02
6879,7.51E-03,1.60E-02
6880,5.06E-03,1.61E-02
6881,7.29E-03,1.62E-02
6882,8.26E-03,1.64E-02
6883,8.53E-03,1.66E-02
6884,8.53E-03,1.67E-02
6885,8.48E-03,1.67E-02
6886,7.73E-03,1.68E-02
6887,7.11E-03,1.69E-02
6888,6.68E-03,1.70E-02
6889,6.62E-03,1.71E-02
6890,6.97E-03,1.72E-02
6891,7.31E-03,1.73E-02
6892,7.98E-03,1.75E-02
6893,8.10E-03,1.77E-02
6894,8.12E-03,1.79E-02
6895,7.94E-03,1.82E-02
6896,7.60E-03,1.84E-02
6897,7.21E-03,1.86E-02
6898,7.28E-03,1.87E-02
6899,8.76E-03,1.85E-02
6900,7.51E-03,1.85E-02
6901,7.20E-03,1.81E-02
6902,7.16E-03,1.77E-02
6903,7.24E-03,1.75E-02
6904,7.64E-03,1.57E-02
6905,8.24E-03,1.53E-02
6906,8.66E-03,1.51E-02
6907,8.49E-03,1.49E-02
6908,7.93E-03,1.47E-02
6909,7.26E-03,1.45E-02
6910,7.04E-03,1.43E-02
6911,6.66E-03,1.41E-02
6912,6.45E-03,1.40E-02
6913,6.78E-03,1.64E-02
6914,5.57E-03,1.85E-02
6915,7.72E-03,1.68E-02
6916,7.95E-03,1.70E-02
6917,8.26E-03,1.73E-02
6918,8.26E-03,1.74E-02
6919,8.04E-03,1.73E-02
6920,7.65E-03,1.72E-02
6921,7.38E-03,1.70E-02
6922,7.22E-03,1.68E-02
6923,7.29E-03,1.69E-02
6924,7.47E-03,1.71E-02
6925,7.68E-03,1.74E-02
6926,7.92E-03,1.77E-02
6927,7.92E-03,1.80E-02
6928,7.88E-03,1.84E-02
6929,7.74E-03,1.87E-02
6930,7.56E-03,1.90E-02
6931,7.45E-03,1.93E-02
6932,7.68E-03,1.94E-02
6933,7.74E-03,1.95E-02
6934,7.48E-03,1.96E-02
6935,6.68E-03,1.93E-02
6936,6.67E-03,1.38E-02
6937,7.88E-03,1.73E-02
6938,6.59E-03,1.72E-02
6939,5.01E-03,1.71E-02
6940,4.94E-03,1.71E-02
6941,7.76E-03,1.68E-02
6942,7.79E-03,1.67E-02
6943,7.89E-03,1.67E-02
6944,7.88E-03,1.66E-02
6945,7.82E-03,1.65E-02
6946,7.69E-03,1.64E-02
6947,7.54E-03,1.63E-02
6948,7.55E-03,1.61E-02
6949,7.65E-03,1.60E-02
6950,7.81E-03,1.58E-02
6951,7.97E-03,1.56E-02
6952,8.06E-03,1.54E-02
6953,8.05E-03,1.53E-02
6954,8.11E-03,1.51E-02
6955,8.19E-03,1.49E-02
6956,8.16E-03,1.47E-02
6957,8.02E-03,1.46E-02
6958,7.69E-03,1.45E-02
6959,7.29E-03,1.43E-02
6960,6.97E-03,1.42E-02
6961,6.80E-03,1.41E-02
6962,6.66E-03,1.39E-02
6963,6.76E-03,1.38E-02
6964,7.66E-03,1.36E-02
6965,7.39E-03,1.86E-02
6966,7.43E-03,1.81E-02
6967,7.44E-03,1.77E-02
6968,7.61E-03,1.75E-02
6969,8.13E-03,1.75E-02
6970,6.18E-03,1.74E-02
6971,9.70E-03,1.86E-02
6972,7.80E-03,1.79E-02
6973,7.64E-03,1.77E-02
6974,7.77E-03,1.76E-02
6975,7.41E-03,1.76E-02
6976,6.76E-03,1.75E-02
6977,6.39E-03,1.75E-02
6978,4.58E-03,1.74E-02
6979,5.78E-03,1.73E-02
6980,8.03E-03,1.71E-02
6981,6.81E-03,1.70E-02
6982,7.39E-03,1.69E-02
6983,8.55E-03,1.68E-02
6984,8.99E-03,1.67E-02
6985,8.08E-03,1.65E-02
6986,7.86E-03,1.65E-02
6987,7.89E-03,1.64E-02
6988,7.93E-03,1.63E-02
6989,7.97E-03,1.63E-02
6990,7.85E-03,1.62E-02
6991,7.72E-03,1.60E-02
6992,7.70E-03,1.59E-02
6993,7.76E-03,1.57E-02
6994,7.84E-03,1.56E-02
6995,7.94E-03,1.54E-02
6996,8.00E-03,1.52E-02
6997,8.00E-03,1.51E-02
6998,8.00E-03,1.49E-02
6999,8.00E-03,1.48E-02
7000,8.00E-03,1.46E-02
7001,7.88E-03,1.45E-02
7002,7.70E-03,1.43E-02
7003,7.42E-03,1.42E-02
7004,7.15E-03,1.41E-02
7005,6.97E-03,1.39E-02
7006,6.95E-03,1.38E-02
7007,7.27E-03,1.37E-02
7008,7.96E-03,1.36E-02
7009,8.63E-03,1.35E-02
7010,7.18E-03,1.35E-02
7011,7.01E-03,1.34E-02
7012,6.95E-03,1.33E-02
7013,7.58E-03,1.35E-02
7014,7.19E-03,1.36E-02
7015,7.21E-03,1.38E-02
7016,6.84E-03,1.40E-02
7017,6.83E-03,1.41E-02
7018,7.08E-03,1.43E-02
7019,7.46E-03,1.45E-02
7020,7.94E-03,1.47E-02
7021,8.27E-03,1.48E-02
7022,8.35E-03,1.50E-02
7023,8.15E-03,1.52E-02
7024,8.00E-03,1.54E-02
7025,9.49E-03,1.58E-02
7026,8.84E-03,1.64E-02
7027,8.43E-03,1.68E-02
7028,7.61E-03,1.74E-02
7029,7.70E-03,1.78E-02
7030,7.84E-03,1.82E-02
7031,7.90E-03,1.84E-02
7032,7.81E-03,1.82E-02
7033,7.67E-03,1.75E-02
7034,7.62E-03,1.68E-02
7035,7.61E-03,1.66E-02
7036,7.61E-03,1.66E-02
7037,7.64E-03,1.68E-02
7038,7.76E-03,1.73E-02
7039,7.78E-03,1.79E-02
7040,7.83E-03,1.84E-02
7041,7.78E-03,1.89E-02
7042,7.67E-03,1.93E-02
7043,7.56E-03,1.97E-02
7044,7.49E-03,2.01E-02
7045,7.53E-03,2.04E-02
7046,7.47E-03,2.07E-02
7047,7.41E-03,2.08E-02
7048,8.30E-03,2.06E-02
7049,9.14E-03,2.00E-02
7052,4.12E-03,0.16763
7053,5.33E-03,0.22891
7054,5.62E-03,0.17243
7055,4.51E-03,0.14035
7056,3.90E-03,0.10474
7057,6.31E-03,8.26E-02
7058,7.02E-03,0.10295
7059,7.11E-03,9.65E-02
7060,6.74E-03,7.88E-02
7061,7.13E-03,7.41E-02
7062,7.45E-03,6.98E-02
7063,7.70E-03,6.61E-02
7064,7.86E-03,6.31E-02
7065,8.08E-03,6.04E-02
7066,8.08E-03,5.83E-02
7067,8.10E-03,5.65E-02
7068,8.08E-03,5.49E-02
7069,8.02E-03,5.36E-02
7070,7.97E-03,5.25E-02
7071,7.77E-03,5.16E-02
7072,7.66E-03,5.10E-02
7073,7.24E-03,5.06E-02
7074,7.02E-03,5.00E-02
7075,8.16E-03,4.91E-02
7076,6.84E-03,4.74E-02
7077,7.08E-03,4.73E-02
7078,7.06E-03,4.75E-02
7079,7.59E-03,4.78E-02
7080,7.78E-03,4.82E-02
7081,7.95E-03,4.87E-02
7082,8.01E-03,4.92E-02
7083,8.04E-03,4.98E-02
7084,8.06E-03,5.04E-02
7085,8.06E-03,5.09E-02
7086,8.00E-03,5.15E-02
7087,7.96E-03,5.20E-02
7088,7.70E-03,5.30E-02
7089,7.41E-03,5.42E-02
7090,6.90E-03,5.56E-02
7091,6.40E-03,5.70E-02
7092,5.47E-03,5.81E-02
7093,4.87E-03,5.66E-02
7094,6.82E-03,7.86E-02
7095,7.80E-03,0.10623
7096,7.31E-03,8.92E-02
7097,7.50E-03,8.28E-02
7098,7.76E-03,7.73E-02
7099,7.97E-03,7.26E-02
7100,8.08E-03,6.85E-02
7101,8.20E-03,6.50E-02
7102,8.15E-03,6.21E-02
7103,8.15E-03,5.97E-02
7104,8.04E-03,5.77E-02
7105,7.96E-03,5.61E-02
7106,7.85E-03,5.48E-02
7107,7.76E-03,5.38E-02
7108,7.74E-03,5.28E-02
7109,7.91E-03,5.17E-02
7110,7.96E-03,4.78E-02
7111,8.66E-03,5.07E-02
7112,9.18E-03,4.82E-02
7113,8.35E-03,5.00E-02
7114,8.19E-03,4.82E-02
7115,8.13E-03,4.95E-02
7116,7.79E-03,4.84E-02
7117,7.71E-03,4.93E-02
7118,7.43E-03,4.85E-02
7119,7.29E-03,4.92E-02
7120,6.85E-03,4.87E-02
7121,6.75E-03,4.91E-02
7122,5.53E-03,4.89E-02
7123,5.56E-03,4.90E-02
7124,5.67E-03,4.92E-02
7125,8.85E-03,4.92E-02
7126,7.16E-03,4.92E-02
7127,6.24E-03,4.93E-02
7128,8.71E-03,4.92E-02
7129,7.62E-03,4.89E-02
7130,7.09E-03,4.85E-02
7131,7.41E-03,4.80E-02
7132,7.72E-03,4.75E-02
7133,8.30E-03,4.70E-02
7134,8.32E-03,4.63E-02
7135,8.03E-03,4.58E-02
7136,7.70E-03,4.49E-02
7137,7.41E-03,4.43E-02
7138,7.53E-03,4.43E-02
7139,7.64E-03,4.46E-02
7140,7.80E-03,4.49E-02
7141,7.92E-03,4.51E-02
7142,8.04E-03,4.50E-02
7143,8.09E-03,4.47E-02
7144,8.11E-03,4.42E-02
7145,8.11E-03,4.34E-02
7146,8.08E-03,4.22E-02
7147,8.06E-03,4.06E-02
7148,7.70E-03,3.87E-02
7149,7.54E-03,3.72E-02
7150,7.03E-03,3.54E-02
7151,6.54E-03,3.40E-02
7152,6.20E-03,3.42E-02
7153,5.05E-03,4.05E-02
7154,5.00E-03,5.08E-02
7155,7.18E-03,6.60E-02
7156,6.99E-03,0.11345
7157,6.35E-03,7.81E-02
7158,6.47E-03,0.15407
7159,7.12E-03,0.13889
7160,7.23E-03,0.12186
7161,7.36E-03,0.11141
7162,7.54E-03,0.10155
7163,7.61E-03,9.33E-02
7164,7.87E-03,8.63E-02
7165,7.99E-03,8.03E-02
7166,8.11E-03,7.52E-02
7167,8.15E-03,7.08E-02
7168,8.13E-03,6.72E-02
7169,8.15E-03,6.41E-02
7170,8.05E-03,6.15E-02
7171,7.98E-03,5.94E-02
7172,7.93E-03,5.76E-02
7173,7.88E-03,5.61E-02
7174,7.90E-03,5.47E-02
7175,8.11E-03,5.34E-02
7176,8.05E-03,5.24E-02
7177,8.15E-03,5.16E-02
7178,7.94E-03,5.08E-02
7179,7.70E-03,5.02E-02
7180,7.45E-03,4.98E-02
7181,7.09E-03,4.95E-02
7182,7.36E-03,4.93E-02
7183,7.14E-03,4.92E-02
7184,7.73E-03,4.91E-02
7185,7.10E-03,4.94E-02
7186,9.45E-03,4.90E-02
7187,8.97E-03,4.95E-02
7188,9.32E-03,4.90E-02
7189,7.96E-03,4.95E-02
7190,8.29E-03,4.90E-02
7191,7.10E-03,4.95E-02
7192,7.79E-03,4.90E-02
7193,8.84E-03,4.92E-02
7194,9.05E-03,4.91E-02
7195,6.87E-03,4.87E-02
7196,6.29E-03,4.85E-02
7197,8.12E-03,4.88E-02
7198,8.26E-03,4.91E-02
7199,7.55E-03,4.90E-02
7200,7.01E-03,4.89E-02
7201,6.15E-03,4.88E-02
7202,6.24E-03,4.88E-02
7203,5.06E-03,4.92E-02
7204,6.67E-03,4.95E-02
7205,7.51E-03,4.97E-02
7206,8.25E-03,4.98E-02
7207,9.26E-03,4.99E-02
7208,8.44E-03,4.98E-02
7209,6.93E-03,5.01E-02
7210,7.92E-03,5.01E-02
7211,8.01E-03,5.00E-02
7212,7.66E-03,4.98E-02
7213,7.51E-03,4.95E-02
7214,7.69E-03,4.93E-02
7215,7.63E-03,4.89E-02
7216,7.40E-03,4.84E-02
7217,7.49E-03,4.76E-02
7218,7.78E-03,4.68E-02
7219,8.08E-03,4.58E-02
7220,8.19E-03,4.48E-02
7221,8.07E-03,4.35E-02
7222,7.99E-03,4.19E-02
7223,7.83E-03,4.10E-02
7224,7.87E-03,4.12E-02
7225,7.87E-03,4.18E-02
7226,7.92E-03,4.20E-02
7227,7.99E-03,4.18E-02
7228,8.09E-03,4.11E-02
7229,8.10E-03,4.00E-02
7230,8.12E-03,3.84E-02
7231,8.12E-03,3.61E-02
7232,8.09E-03,3.32E-02
7233,7.91E-03,2.96E-02
7234,7.77E-03,2.54E-02
7235,7.79E-03,2.12E-02
7236,7.65E-03,1.77E-02
7237,7.27E-03,1.58E-02
7238,6.73E-03,1.73E-02
7239,6.30E-03,2.57E-02
7240,6.45E-03,3.79E-02
7241,6.68E-03,4.39E-02
7242,6.22E-03,5.04E-02
7243,5.32E-03,8.55E-02
7244,5.09E-03,0.1485
7245,5.50E-03,0.27648
7246,7.13E-03,4.83E-02
7247,8.20E-03,4.83E-02
7248,7.81E-03,4.82E-02
7249,6.63E-03,4.81E-02
7250,5.42E-03,4.80E-02
7251,6.90E-03,4.80E-02
7252,6.30E-03,0.51002
7253,6.09E-03,0.27244
7254,6.35E-03,0.20839
7255,6.82E-03,0.18045
7256,7.14E-03,0.15873
7257,7.33E-03,0.13862
7258,7.53E-03,0.1231
7259,7.64E-03,0.11125
7260,7.74E-03,0.10146
7261,7.95E-03,9.33E-02
7262,8.06E-03,8.63E-02
7263,8.13E-03,8.05E-02
7264,8.13E-03,7.55E-02
7265,8.18E-03,7.13E-02
7266,8.15E-03,6.77E-02
7267,8.06E-03,6.47E-02
7268,8.04E-03,6.21E-02
7269,7.97E-03,5.99E-02
7270,7.91E-03,5.80E-02
7271,7.92E-03,5.64E-02
7272,8.03E-03,5.50E-02
7273,7.94E-03,5.39E-02
7274,7.94E-03,5.28E-02
7275,7.88E-03,5.18E-02
7276,7.72E-03,5.10E-02
7277,7.50E-03,5.04E-02
7278,7.39E-03,4.99E-02
7279,7.38E-03,4.95E-02
7280,7.59E-03,4.92E-02
7281,8.09E-03,4.90E-02
7282,8.51E-03,4.88E-02
7283,8.64E-03,4.87E-02
7284,8.37E-03,4.87E-02
7285,8.25E-03,4.86E-02
7286,8.41E-03,4.86E-02
7287,8.29E-03,4.85E-02
7288,7.55E-03,4.84E-02
7289,8.01E-03,4.84E-02
7290,8.77E-03,4.80E-02
7291,6.83E-03,4.78E-02
7296,8.22E-03,1.12E-02
7297,9.92E-03,1.12E-02
7298,4.82E-03,1.13E-02
7299,6.53E-03,1.12E-02
7300,6.19E-03,1.13E-02
7301,4.67E-03,1.14E-02
7302,5.08E-03,1.14E-02
7303,5.03E-03,1.61E-02
7304,6.83E-03,1.61E-02
7305,5.99E-03,1.59E-02
7306,4.54E-03,1.59E-02
7307,4.27E-03,1.60E-02
7308,6.15E-03,1.57E-02
7309,5.68E-03,1.58E-02
7310,5.52E-03,1.59E-02
7311,4.90E-03,1.07E-02
7312,6.54E-03,1.06E-02
7313,5.55E-03,1.05E-02
7314,4.12E-03,1.06E-02
7315,4.51E-03,1.08E-02
7316,6.03E-03,1.05E-02
7317,5.74E-03,1.06E-02
7318,5.49E-03,1.08E-02
7319,8.77E-03,1.27E-02
7320,9.33E-03,1.25E-02
7321,9.26E-03,1.26E-02
7322,1.03E-02,1.72E-02
7323,1.03E-02,1.71E-02
7324,9.41E-03,1.68E-02
7325,8.54E-03,1.26E-02
7326,9.07E-03,1.27E-02
7327,8.99E-03,1.26E-02
7328,6.41E-03,1.38E-02
7329,4.50E-03,1.38E-02
7330,9.53E-03,1.09E-02
7331,7.24E-03,1.09E-02
7332,7.17E-03,1.09E-02
7333,8.66E-03,1.05E-02
7334,6.93E-03,1.05E-02
7335,7.45E-03,1.04E-02
7336,9.01E-03,1.28E-02
7337,5.76E-03,1.28E-02
7338,6.12E-03,1.14E-02
7339,6.50E-03,1.14E-02
7340,5.39E-03,1.49E-02
7341,6.07E-03,1.50E-02
7342,6.06E-03,1.48E-02
7343,6.39E-03,1.56E-02
7344,6.36E-03,1.58E-02
7345,5.95E-03,1.65E-02
7346,5.74E-03,1.65E-02
7347,6.00E-03,1.63E-02
7348,5.37E-03,1.04E-02
7349,5.30E-03,1.06E-02
7350,6.30E-03,1.05E-02
7351,5.25E-03,1.07E-02
7352,5.68E-03,1.08E-02
7353,4.96E-03,1.07E-02
7354,7.67E-03,1.50E-02
7355,8.24E-03,1.25E-02
7356,8.00E-03,1.26E-02
7357,5.26E-03,1.25E-02
7358,6.62E-03,1.25E-02
7359,5.36E-03,1.26E-02
7360,6.91E-03,1.27E-02
7361,7.31E-03,1.28E-02
7362,8.89E-03,1.28E-02
7363,9.12E-03,1.30E-02
7364,7.80E-03,1.31E-02
7365,5.95E-03,1.31E-02
7366,7.04E-03,1.31E-02
7367,8.04E-03,1.30E-02
7368,9.41E-03,1.29E-02
7369,9.52E-03,1.27E-02
7370,8.61E-03,1.24E-02
7371,9.58E-03,1.23E-02
7372,9.05E-03,1.22E-02
7373,9.24E-03,1.22E-02
7374,8.02E-03,1.21E-02
7375,8.18E-03,1.21E-02
7376,6.17E-03,1.21E-02
7377,7.06E-03,1.20E-02
7378,7.11E-03,1.19E-02
7379,9.54E-03,1.18E-02
7380,8.29E-03,1.17E-02
7381,7.91E-03,1.16E-02
7382,7.48E-03,1.15E-02
7383,7.05E-03,1.15E-02
7384,6.91E-03,1.15E-02
7385,4.70E-03,1.25E-02
7386,6.50E-03,1.25E-02
7387,8.07E-03,1.23E-02
7388,8.27E-03,1.22E-02
7389,7.99E-03,1.21E-02
7390,7.97E-03,1.20E-02
7391,7.85E-03,1.19E-02
7392,7.93E-03,1.18E-02
7393,8.04E-03,1.17E-02
7394,7.73E-03,1.16E-02
7395,7.40E-03,1.15E-02
7396,6.70E-03,1.32E-02
7397,9.05E-03,1.34E-02
7398,7.96E-03,1.35E-02
7399,7.31E-03,1.36E-02
7400,6.08E-03,1.37E-02
7401,6.72E-03,1.36E-02
7402,7.34E-03,1.35E-02
7403,8.12E-03,1.34E-02
7404,9.25E-03,1.32E-02
7405,9.24E-03,1.31E-02
7406,8.57E-03,1.29E-02
7407,8.94E-03,1.28E-02
7408,9.21E-03,1.27E-02
7409,9.10E-03,1.25E-02
7410,8.83E-03,1.24E-02
7411,8.95E-03,1.23E-02
7412,8.82E-03,1.22E-02
7413,8.55E-03,1.21E-02
7414,9.05E-03,1.20E-02
7415,9.49E-03,1.18E-02
7416,8.58E-03,1.17E-02
7417,7.99E-03,1.16E-02
7418,7.69E-03,1.15E-02
7419,7.48E-03,1.15E-02
7420,7.36E-03,1.14E-02
7421,8.20E-03,1.13E-02
7422,8.42E-03,1.11E-02
7423,6.78E-03,1.27E-02
7424,7.09E-03,1.28E-02
7425,7.71E-03,1.29E-02
7426,8.06E-03,1.30E-02
7427,8.12E-03,1.31E-02
7428,7.72E-03,1.31E-02
7429,7.54E-03,1.32E-02
7430,7.44E-03,1.34E-02
7431,7.69E-03,1.35E-02
7432,7.74E-03,1.36E-02
7433,7.23E-03,1.37E-02
7434,7.26E-03,1.38E-02
7435,5.82E-03,1.39E-02
7436,5.40E-03,1.40E-02
7437,7.75E-03,1.10E-02
7438,7.00E-03,1.25E-02
7439,7.12E-03,1.24E-02
7440,8.13E-03,1.23E-02
7441,8.22E-03,1.22E-02
7442,8.20E-03,1.21E-02
7443,8.04E-03,1.20E-02
7444,7.92E-03,1.19E-02
7445,7.86E-03,1.18E-02
7446,7.78E-03,1.17E-02
7447,7.62E-03,1.16E-02
7448,7.31E-03,1.15E-02
7449,6.91E-03,1.15E-02
7450,6.41E-03,1.14E-02
7451,7.39E-03,1.12E-02
7452,8.27E-03,1.11E-02
7453,8.18E-03,1.10E-02
7454,6.12E-03,1.10E-02
7455,7.80E-03,1.10E-02
7456,9.00E-03,1.08E-02
7457,8.84E-03,1.08E-02
7458,8.67E-03,1.07E-02
7459,8.61E-03,1.07E-02
7460,8.53E-03,1.06E-02
7461,8.50E-03,1.06E-02
7462,8.45E-03,1.06E-02
7463,9.10E-03,1.05E-02
7464,6.11E-03,1.05E-02
7465,6.54E-03,1.05E-02
7466,5.22E-03,1.05E-02
7467,6.89E-03,1.05E-02
7468,6.88E-03,1.04E-02
7469,6.86E-03,1.04E-02
7470,7.22E-03,1.04E-02
7471,6.84E-03,1.04E-02
7472,7.20E-03,1.04E-02
7473,6.85E-03,1.04E-02
7474,6.94E-03,1.04E-02
7475,6.72E-03,1.04E-02
7476,6.96E-03,1.03E-02
7477,6.56E-03,1.03E-02
7478,7.19E-03,1.03E-02
7479,6.62E-03,1.03E-02
7480,6.95E-03,1.03E-02
7481,6.51E-03,1.03E-02
7482,7.10E-03,1.03E-02
7483,5.84E-03,1.03E-02
7484,7.71E-03,1.03E-02
7485,5.73E-03,1.03E-02
7486,8.03E-03,1.02E-02
7487,6.16E-03,1.02E-02
7488,7.84E-03,1.02E-02
7489,6.70E-03,1.02E-02
7490,7.48E-03,1.02E-02
7491,6.94E-03,1.02E-02
7492,7.29E-03,1.02E-02
7493,6.93E-03,1.02E-02
7494,7.07E-03,1.02E-02
7495,6.85E-03,1.02E-02
7496,6.92E-03,1.02E-02
7497,6.53E-03,1.02E-02
7498,6.75E-03,1.02E-02
7499,6.31E-03,1.02E-02
7500,6.48E-03,1.02E-02
7501,6.17E-03,1.02E-02
7502,6.19E-03,1.02E-02
7503,6.45E-03,1.02E-02
7504,6.26E-03,1.02E-02
7505,6.66E-03,1.02E-02
7506,6.49E-03,1.01E-02
7507,6.69E-03,1.02E-02
7508,6.71E-03,1.01E-02
7509,6.87E-03,1.02E-02
7510,6.83E-03,1.01E-02
7511,6.66E-03,1.02E-02
7512,6.61E-03,1.02E-02
7513,5.15E-03,1.02E-02
7514,6.08E-03,1.02E-02
7515,6.00E-03,1.02E-02
7516,8.93E-03,1.02E-02
7517,8.06E-03,1.02E-02
7518,8.11E-03,1.02E-02
7519,7.94E-03,1.02E-02
7520,7.87E-03,1.02E-02
7521,7.70E-03,1.02E-02
7522,7.54E-03,1.02E-02
7523,7.35E-03,1.02E-02
7524,7.19E-03,1.03E-02
7525,6.98E-03,1.03E-02
7526,6.02E-03,1.03E-02
7527,5.24E-03,1.03E-02
7528,6.49E-03,1.04E-02
7529,6.73E-03,1.04E-02
7530,7.19E-03,1.04E-02
7531,5.66E-03,1.04E-02
7532,5.66E-03,1.04E-02
7533,6.92E-03,1.03E-02
7534,6.99E-03,1.03E-02
7535,7.30E-03,1.03E-02
7536,7.44E-03,1.03E-02
7537,7.55E-03,1.03E-02
7538,7.63E-03,1.03E-02
7539,7.82E-03,1.02E-02
7540,7.89E-03,1.02E-02
7541,7.95E-03,1.02E-02
7542,7.90E-03,1.02E-02
7543,7.76E-03,1.02E-02
7544,7.26E-03,1.02E-02
7545,7.32E-03,1.02E-02
7546,6.84E-03,1.02E-02
7547,7.07E-03,1.02E-02
7548,7.02E-03,1.02E-02
7549,7.00E-03,1.02E-02
7550,7.49E-03,1.02E-02
7551,7.93E-03,1.02E-02
7552,7.96E-03,1.02E-02
7553,7.83E-03,1.02E-02
7554,7.60E-03,1.02E-02
7555,7.31E-03,1.02E-02
7556,7.06E-03,1.02E-02
7557,6.83E-03,1.02E-02
7558,6.39E-03,1.02E-02
7559,5.76E-03,1.03E-02
7560,5.41E-03,1.03E-02
7561,5.62E-03,1.03E-02
7562,5.73E-03,1.03E-02
7563,5.90E-03,1.03E-02
7564,6.31E-03,1.04E-02
7565,6.74E-03,1.04E-02
7566,7.00E-03,1.04E-02
7567,7.02E-03,1.04E-02
7568,7.18E-03,1.05E-02
7569,8.59E-03,1.05E-02
7570,9.16E-03,1.05E-02
7571,8.69E-03,1.06E-02
7572,8.53E-03,1.06E-02
7573,8.54E-03,1.06E-02
7574,8.56E-03,1.07E-02
7575,8.67E-03,1.07E-02
7576,8.78E-03,1.08E-02
7577,8.85E-03,1.08E-02
7578,8.44E-03,1.09E-02
7579,7.90E-03,1.09E-02
7580,7.66E-03,1.10E-02
7581,7.93E-03,1.10E-02
7582,8.76E-03,1.11E-02
7583,1.00E-02,1.12E-02
7584,9.88E-03,1.13E-02
7585,8.28E-03,1.14E-02
7586,7.92E-03,1.14E-02
7587,7.94E-03,1.15E-02
7588,8.13E-03,1.16E-02
7589,8.44E-03,1.17E-02
7590,8.75E-03,1.18E-02
7591,8.81E-03,1.19E-02
7592,8.75E-03,1.21E-02
7593,8.75E-03,1.22E-02
7594,8.83E-03,1.23E-02
7595,8.89E-03,1.24E-02
7596,8.94E-03,1.25E-02
7597,8.87E-03,1.26E-02
7598,8.79E-03,1.28E-02
7599,8.73E-03,1.29E-02
7600,8.61E-03,1.30E-02
7601,8.49E-03,1.31E-02
7602,8.10E-03,1.33E-02
7603,7.71E-03,1.34E-02
7604,7.50E-03,1.36E-02
7605,7.54E-03,1.37E-02
7606,7.26E-03,1.39E-02
7607,7.36E-03,1.39E-02
7608,8.05E-03,1.41E-02
7609,7.49E-03,1.40E-02
7610,6.02E-03,1.42E-02
7611,6.81E-03,1.41E-02
7612,7.63E-03,1.27E-02
7613,7.61E-03,1.29E-02
7614,7.74E-03,1.30E-02
7615,7.93E-03,1.31E-02
7616,7.96E-03,1.32E-02
7617,7.94E-03,1.33E-02
7618,7.82E-03,1.34E-02
7619,7.64E-03,1.35E-02
7620,7.62E-03,1.36E-02
7621,7.52E-03,1.37E-02
7622,7.46E-03,1.38E-02
7623,7.20E-03,1.39E-02
7624,7.52E-03,1.40E-02
7625,8.22E-03,1.41E-02
7626,8.34E-03,1.42E-02
7627,7.52E-03,1.43E-02
7628,7.06E-03,1.43E-02
7629,7.44E-03,1.45E-02
7630,8.87E-03,1.44E-02
7631,7.59E-03,1.46E-02
7632,7.77E-03,1.45E-02
7633,7.46E-03,1.47E-02
7634,7.06E-03,1.47E-02
7635,6.82E-03,1.48E-02
7636,6.88E-03,1.52E-02
7637,9.37E-03,1.25E-02
7638,8.47E-03,1.23E-02
7639,8.35E-03,1.22E-02
7640,8.27E-03,1.21E-02
7641,8.15E-03,1.20E-02
7642,7.95E-03,1.19E-02
7643,7.90E-03,1.18E-02
7644,7.74E-03,1.17E-02
7645,7.58E-03,1.16E-02
7646,7.35E-03,1.15E-02
7647,7.18E-03,1.14E-02
7648,7.03E-03,1.14E-02
7649,6.93E-03,1.13E-02
7650,6.85E-03,1.12E-02
7651,7.49E-03,1.11E-02
7652,7.85E-03,1.11E-02
7653,8.11E-03,1.10E-02
7654,8.19E-03,1.10E-02
7655,9.45E-03,1.09E-02
7656,9.65E-03,1.09E-02
7657,9.08E-03,1.08E-02
7658,8.82E-03,1.08E-02
7659,8.66E-03,1.07E-02
7660,8.62E-03,1.07E-02
7661,8.55E-03,1.06E-02
7662,8.55E-03,1.06E-02
7663,8.39E-03,1.06E-02
7664,8.05E-03,1.05E-02
7665,7.52E-03,1.05E-02
7666,7.38E-03,1.05E-02
7667,6.99E-03,1.04E-02
7668,7.18E-03,1.04E-02
7669,7.19E-03,1.04E-02
7670,7.33E-03,1.04E-02
7671,7.41E-03,1.03E-02
7672,7.39E-03,1.03E-02
7673,7.52E-03,1.03E-02
7674,7.74E-03,1.03E-02
7675,7.95E-03,1.02E-02
7676,7.94E-03,1.02E-02
7677,7.86E-03,1.02E-02
7678,7.76E-03,1.02E-02
7679,7.62E-03,1.02E-02
7680,7.38E-03,1.02E-02
7681,7.21E-03,1.02E-02
7682,7.00E-03,1.02E-02
7683,7.10E-03,1.01E-02
7684,7.53E-03,1.01E-02
7685,7.72E-03,1.01E-02
7686,7.72E-03,1.01E-02
7687,7.54E-03,1.01E-02
7688,7.48E-03,1.01E-02
7689,7.48E-03,1.01E-02
7690,8.40E-03,1.01E-02
7691,8.83E-03,1.01E-02
7692,8.35E-03,1.01E-02
7693,8.14E-03,1.01E-02
7694,7.96E-03,1.02E-02
7695,7.87E-03,1.02E-02
7696,7.75E-03,1.02E-02
7697,7.60E-03,1.02E-02
7698,7.49E-03,1.02E-02
7699,7.29E-03,1.02E-02
7700,7.09E-03,1.02E-02
7701,6.90E-03,1.02E-02
7702,7.87E-03,1.03E-02
7703,7.75E-03,1.03E-02
7704,7.81E-03,1.03E-02
7705,6.21E-03,1.03E-02
7706,6.78E-03,1.03E-02
7707,7.93E-03,1.04E-02
7708,8.11E-03,1.53E-02
7709,7.04E-03,1.55E-02
7710,6.70E-03,1.52E-02
7711,6.13E-03,1.50E-02
7712,7.84E-03,1.48E-02
7713,8.25E-03,1.47E-02
7714,7.57E-03,1.45E-02
7715,8.06E-03,1.44E-02
7716,8.98E-03,1.42E-02
7717,8.75E-03,1.41E-02
7718,7.78E-03,1.39E-02
7719,7.91E-03,1.38E-02
7720,7.93E-03,1.36E-02
7721,7.76E-03,1.35E-02
7722,7.86E-03,1.33E-02
7723,8.07E-03,1.32E-02
7724,8.26E-03,1.31E-02
7725,8.44E-03,1.29E-02
7726,8.53E-03,1.28E-02
7727,8.64E-03,1.27E-02
7728,8.60E-03,1.26E-02
7729,8.59E-03,1.25E-02
7730,8.61E-03,1.23E-02
7731,8.63E-03,1.22E-02
7732,8.65E-03,1.21E-02
7733,8.68E-03,1.20E-02
7734,8.72E-03,1.19E-02
7735,8.66E-03,1.18E-02
7736,8.48E-03,1.17E-02
7737,8.31E-03,1.16E-02
7738,8.10E-03,1.15E-02
7739,8.25E-03,1.14E-02
7740,8.73E-03,1.14E-02
7741,9.01E-03,1.13E-02
7742,8.98E-03,1.12E-02
7743,8.66E-03,1.11E-02
7744,8.22E-03,1.11E-02
7745,8.08E-03,1.10E-02
7746,8.22E-03,1.09E-02
7747,8.35E-03,1.09E-02
7748,8.62E-03,1.08E-02
7749,8.68E-03,1.08E-02
7750,8.59E-03,1.07E-02
7751,8.52E-03,1.07E-02
7752,8.55E-03,1.06E-02
7753,8.56E-03,1.06E-02
7754,8.60E-03,1.06E-02
7755,8.56E-03,1.05E-02
7756,8.28E-03,1.05E-02
7757,7.99E-03,1.05E-02
7758,7.63E-03,1.04E-02
7759,7.46E-03,1.04E-02
7760,7.67E-03,1.04E-02
7761,8.00E-03,1.04E-02
7762,8.13E-03,1.03E-02
7763,8.08E-03,1.03E-02
7764,8.08E-03,1.03E-02
7765,8.09E-03,1.03E-02
7766,7.95E-03,1.03E-02
7767,7.39E-03,1.03E-02
7768,7.11E-03,1.02E-02
7769,7.33E-03,1.02E-02
7770,7.47E-03,1.02E-02
7771,7.59E-03,1.02E-02
7772,7.79E-03,1.02E-02
7773,7.93E-03,1.02E-02
7774,7.96E-03,1.02E-02
7775,7.85E-03,1.02E-02
7776,7.64E-03,1.02E-02
7777,7.58E-03,1.02E-02
7778,7.46E-03,1.02E-02
7779,7.29E-03,1.02E-02
7780,7.41E-03,1.02E-02
7781,7.62E-03,1.02E-02
7782,7.77E-03,1.02E-02
7783,7.85E-03,1.02E-02
7784,7.88E-03,1.03E-02
7785,7.88E-03,1.03E-02
7786,7.86E-03,1.03E-02
7787,7.70E-03,1.03E-02
7788,7.61E-03,1.03E-02
7789,7.46E-03,1.03E-02
7790,7.40E-03,1.04E-02
7791,7.38E-03,1.04E-02
7792,6.88E-03,1.04E-02
7793,6.99E-03,1.04E-02
7794,6.91E-03,1.04E-02
7795,6.97E-03,1.05E-02
7796,7.32E-03,1.05E-02
7797,8.34E-03,1.05E-02
7798,7.84E-03,1.05E-02
7799,6.50E-03,1.05E-02
7800,8.14E-03,1.28E-02
7801,7.96E-03,1.29E-02
7802,7.87E-03,1.30E-02
7803,7.92E-03,1.32E-02
7804,7.92E-03,1.33E-02
7805,7.86E-03,1.34E-02
7806,7.85E-03,1.35E-02
7807,7.77E-03,1.36E-02
7808,7.71E-03,1.37E-02
7809,7.69E-03,1.38E-02
7810,7.60E-03,1.39E-02
7811,7.57E-03,1.40E-02
7812,7.73E-03,1.42E-02
7813,7.94E-03,1.43E-02
7814,7.91E-03,1.44E-02
7815,7.83E-03,1.45E-02
7816,7.65E-03,1.47E-02
7817,7.56E-03,1.48E-02
7818,7.29E-03,1.49E-02
7819,6.98E-03,1.50E-02
7820,6.76E-03,1.50E-02
7821,6.87E-03,1.52E-02
7822,7.35E-03,1.53E-02
7823,8.56E-03,1.54E-02
7824,8.04E-03,1.54E-02
7825,7.07E-03,1.56E-02
7826,9.67E-03,1.24E-02
7827,8.77E-03,1.23E-02
7828,8.38E-03,1.22E-02
7829,8.28E-03,1.20E-02
7830,8.19E-03,1.19E-02
7831,7.96E-03,1.18E-02
7832,7.89E-03,1.17E-02
7833,7.80E-03,1.16E-02
7834,7.68E-03,1.16E-02
7835,7.51E-03,1.15E-02
7836,7.35E-03,1.14E-02
7837,7.25E-03,1.13E-02
7838,7.28E-03,1.13E-02
7839,7.25E-03,1.12E-02
7840,7.59E-03,1.11E-02
7841,7.87E-03,1.11E-02
7842,8.07E-03,1.10E-02
7843,8.52E-03,1.10E-02
7844,8.76E-03,1.09E-02
7845,8.80E-03,1.08E-02
7846,8.73E-03,1.08E-02
7847,8.63E-03,1.08E-02
7848,8.55E-03,1.07E-02
7849,8.53E-03,1.07E-02
7850,8.60E-03,1.06E-02
7851,8.52E-03,1.06E-02
7852,8.34E-03,1.05E-02
7853,8.05E-03,1.05E-02
7854,7.74E-03,1.05E-02
7855,7.55E-03,1.04E-02
7856,7.41E-03,1.04E-02
7857,7.44E-03,1.04E-02
7858,7.55E-03,1.04E-02
7859,7.61E-03,1.03E-02
7860,7.64E-03,1.03E-02
7861,7.71E-03,1.03E-02
7862,7.84E-03,1.03E-02
7863,7.95E-03,1.03E-02
7864,8.02E-03,1.02E-02
7865,8.02E-03,1.02E-02
7866,7.93E-03,1.02E-02
7867,7.83E-03,1.02E-02
7868,7.71E-03,1.02E-02
7869,7.59E-03,1.02E-02
7870,7.45E-03,1.01E-02
7871,7.57E-03,1.01E-02
7872,7.74E-03,1.01E-02
7873,7.73E-03,1.01E-02
7874,7.72E-03,1.01E-02
7875,7.72E-03,1.01E-02
7876,7.71E-03,1.01E-02
7877,7.70E-03,1.01E-02
7878,7.90E-03,1.01E-02
7879,8.15E-03,1.01E-02
7880,8.26E-03,1.01E-02
7881,8.30E-03,1.01E-02
7882,8.13E-03,1.01E-02
7883,8.02E-03,1.01E-02
7884,7.91E-03,1.01E-02
7885,7.78E-03,1.01E-02
7886,7.64E-03,1.01E-02
7887,7.58E-03,1.01E-02
7888,7.39E-03,1.01E-02
7889,7.34E-03,1.02E-02
7890,7.46E-03,1.02E-02
7891,7.61E-03,1.02E-02
7892,7.70E-03,1.02E-02
7893,7.51E-03,1.02E-02
7894,7.42E-03,1.03E-02
7895,7.53E-03,1.03E-02
7896,7.81E-03,1.03E-02
7897,9.16E-03,1.04E-02
7898,8.84E-03,1.04E-02
7899,7.37E-03,1.05E-02
7900,7.48E-03,1.04E-02
7901,5.57E-03,1.06E-02
7902,6.40E-03,1.05E-02
7903,6.17E-03,1.06E-02
7904,8.15E-03,1.05E-02
7905,6.78E-03,1.05E-02
7906,8.08E-03,1.29E-02
7907,8.03E-03,1.30E-02
7908,7.93E-03,1.31E-02
7909,7.90E-03,1.33E-02
7910,7.90E-03,1.34E-02
7911,7.89E-03,1.35E-02
7912,7.88E-03,1.36E-02
7913,7.87E-03,1.37E-02
7914,7.78E-03,1.38E-02
7915,7.74E-03,1.40E-02
7916,7.75E-03,1.41E-02
7917,7.79E-03,1.42E-02
7918,7.88E-03,1.43E-02
7919,7.88E-03,1.44E-02
7920,7.87E-03,1.46E-02
7921,7.85E-03,1.47E-02
7922,7.71E-03,1.48E-02
7923,7.57E-03,1.49E-02
7924,7.41E-03,1.50E-02
7925,7.34E-03,1.51E-02
7926,7.18E-03,1.52E-02
7927,7.26E-03,1.54E-02
7928,7.53E-03,1.55E-02
7929,7.84E-03,1.56E-02
7930,7.61E-03,1.57E-02
7931,7.10E-03,1.58E-02
7932,6.51E-03,1.59E-02
7933,6.00E-03,1.60E-02
7934,5.80E-03,1.62E-02
7935,6.75E-03,1.63E-02
7936,6.61E-03,1.55E-02
7937,7.12E-03,1.54E-02
7938,7.26E-03,1.52E-02
7939,7.23E-03,1.51E-02
7940,7.23E-03,1.49E-02
7941,7.48E-03,1.47E-02
7942,7.85E-03,1.46E-02
7943,7.95E-03,1.44E-02
7944,8.14E-03,1.43E-02
7945,8.34E-03,1.41E-02
7946,8.28E-03,1.40E-02
7947,8.09E-03,1.38E-02
7948,7.94E-03,1.37E-02
7949,7.98E-03,1.35E-02
7950,7.97E-03,1.34E-02
7951,8.02E-03,1.33E-02
7952,8.13E-03,1.31E-02
7953,8.27E-03,1.30E-02
7954,8.42E-03,1.29E-02
7955,8.43E-03,1.28E-02
7956,8.45E-03,1.26E-02
7957,8.46E-03,1.25E-02
7958,8.48E-03,1.24E-02
7959,8.50E-03,1.23E-02
7960,8.51E-03,1.22E-02
7961,8.53E-03,1.21E-02
7962,8.55E-03,1.20E-02
7963,8.58E-03,1.19E-02
7964,8.61E-03,1.18E-02
7965,8.53E-03,1.17E-02
7966,8.44E-03,1.16E-02
7967,8.42E-03,1.15E-02
7968,8.53E-03,1.14E-02
7969,8.55E-03,1.13E-02
7970,8.65E-03,1.13E-02
7971,8.62E-03,1.12E-02
7972,8.44E-03,1.11E-02
7973,8.34E-03,1.11E-02
7974,8.21E-03,1.10E-02
7975,8.25E-03,1.09E-02
7976,8.32E-03,1.09E-02
7977,8.52E-03,1.08E-02
7978,8.57E-03,1.08E-02
7979,8.49E-03,1.07E-02
7980,8.51E-03,1.07E-02
7981,8.49E-03,1.06E-02
7982,8.47E-03,1.06E-02
7983,8.44E-03,1.06E-02
7984,8.33E-03,1.05E-02
7985,8.16E-03,1.05E-02
7986,8.02E-03,1.05E-02
7987,7.79E-03,1.04E-02
7988,7.72E-03,1.04E-02
7989,7.76E-03,1.04E-02
7990,7.95E-03,1.04E-02
7991,8.06E-03,1.03E-02
7992,8.09E-03,1.03E-02
7993,8.08E-03,1.03E-02
7994,8.01E-03,1.03E-02
7995,7.88E-03,1.03E-02
7996,7.77E-03,1.03E-02
7997,7.69E-03,1.02E-02
7998,7.61E-03,1.02E-02
7999,7.66E-03,1.02E-02
8000,7.77E-03,1.02E-02
8001,7.89E-03,1.02E-02
8002,7.94E-03,1.02E-02
8003,7.99E-03,1.02E-02
8004,7.98E-03,1.02E-02
8005,7.88E-03,1.02E-02
8006,7.78E-03,1.02E-02
8007,7.75E-03,1.02E-02
8008,7.79E-03,1.02E-02
8009,7.75E-03,1.02E-02
8010,7.78E-03,1.03E-02
8011,7.84E-03,1.03E-02
8012,7.83E-03,1.03E-02
8013,7.87E-03,1.03E-02
8014,7.93E-03,1.03E-02
8015,7.89E-03,1.03E-02
8016,7.77E-03,1.03E-02
8017,7.72E-03,1.04E-02
8018,7.60E-03,1.04E-02
8019,7.52E-03,1.04E-02
8020,7.40E-03,1.04E-02
8021,7.33E-03,1.04E-02
8022,7.28E-03,1.05E-02
8023,7.31E-03,1.05E-02
8024,7.40E-03,1.05E-02
8025,7.67E-03,1.05E-02
8026,7.62E-03,1.05E-02
8027,7.63E-03,1.06E-02
8028,7.60E-03,1.06E-02
8029,7.56E-03,1.06E-02
8030,7.62E-03,1.06E-02
8031,7.46E-03,1.06E-02
8032,7.31E-03,1.06E-02
8033,7.17E-03,1.07E-02
8034,7.14E-03,1.07E-02
8035,7.16E-03,1.07E-02
8036,7.55E-03,1.28E-02
8037,5.82E-03,1.28E-02
8038,6.93E-03,1.07E-02
8039,6.39E-03,1.26E-02
8040,8.54E-03,1.25E-02
8041,8.79E-03,1.24E-02
8042,8.73E-03,1.23E-02
8043,8.39E-03,1.21E-02
8044,8.31E-03,1.20E-02
8045,8.16E-03,1.19E-02
8046,8.02E-03,1.18E-02
8047,7.96E-03,1.17E-02
8048,7.89E-03,1.16E-02
8049,7.79E-03,1.15E-02
8050,7.74E-03,1.15E-02
8051,7.62E-03,1.14E-02
8052,7.51E-03,1.13E-02
8053,7.73E-03,1.12E-02
8054,7.84E-03,1.12E-02
8055,7.82E-03,1.11E-02
8056,7.97E-03,1.10E-02
8057,8.09E-03,1.10E-02
8058,8.19E-03,1.09E-02
8059,8.26E-03,1.09E-02
8060,8.44E-03,1.08E-02
8061,8.47E-03,1.08E-02
8062,8.46E-03,1.07E-02
8063,8.43E-03,1.07E-02
8064,8.13E-03,1.06E-02
8065,8.02E-03,1.06E-02
8066,8.02E-03,1.06E-02
8067,8.13E-03,1.05E-02
8068,8.02E-03,1.05E-02
8069,7.86E-03,1.05E-02
8070,7.74E-03,1.04E-02
8071,7.66E-03,1.04E-02
8072,7.77E-03,1.04E-02
8073,7.77E-03,1.03E-02
8074,7.84E-03,1.03E-02
8075,7.95E-03,1.03E-02
8076,8.02E-03,1.03E-02
8077,8.02E-03,1.03E-02
8078,8.02E-03,1.02E-02
8079,8.02E-03,1.02E-02
8080,8.02E-03,1.02E-02
8081,7.96E-03,1.02E-02
8082,7.91E-03,1.02E-02
8083,7.82E-03,1.01E-02
8084,7.85E-03,1.01E-02
8085,7.96E-03,1.01E-02
8086,8.02E-03,1.01E-02
8087,8.02E-03,1.01E-02
8088,8.02E-03,1.01E-02
8089,8.02E-03,1.01E-02
8090,8.02E-03,1.01E-02
8091,8.02E-03,1.01E-02
8092,8.01E-03,1.01E-02
8093,8.04E-03,1.01E-02
8094,8.16E-03,1.01E-02
8095,8.13E-03,1.01E-02
8096,8.15E-03,1.01E-02
8097,8.14E-03,1.01E-02
8098,8.04E-03,1.01E-02
8099,7.94E-03,1.01E-02
8100,7.85E-03,1.01E-02
8101,7.78E-03,1.01E-02
8102,7.71E-03,1.01E-02
8103,7.60E-03,1.01E-02
8104,7.56E-03,1.01E-02
8105,7.55E-03,1.01E-02
8106,7.73E-03,1.01E-02
8107,7.70E-03,1.01E-02
8108,7.67E-03,1.02E-02
8109,7.63E-03,1.02E-02
8110,7.79E-03,1.02E-02
8111,8.03E-03,1.03E-02
8112,8.17E-03,1.03E-02
8113,8.24E-03,1.03E-02
8114,7.93E-03,1.03E-02
8115,8.42E-03,1.04E-02
8116,8.31E-03,1.04E-02
8117,6.90E-03,1.04E-02
8118,7.91E-03,1.26E-02
8119,7.28E-03,1.29E-02
8120,8.10E-03,1.30E-02
8121,8.11E-03,1.31E-02
8122,8.04E-03,1.32E-02
8123,7.92E-03,1.34E-02
8124,7.92E-03,1.35E-02
8125,7.91E-03,1.36E-02
8126,7.91E-03,1.37E-02
8127,7.90E-03,1.38E-02
8128,7.89E-03,1.40E-02
8129,7.88E-03,1.41E-02
8130,7.88E-03,1.42E-02
8131,7.87E-03,1.43E-02
8132,7.86E-03,1.45E-02
8133,7.85E-03,1.46E-02
8134,7.85E-03,1.47E-02
8135,7.84E-03,1.49E-02
8136,7.78E-03,1.50E-02
8137,7.67E-03,1.51E-02
8138,7.60E-03,1.52E-02
8139,7.51E-03,1.53E-02
8140,7.44E-03,1.55E-02
8141,7.56E-03,1.56E-02
8142,7.57E-03,1.57E-02
8143,7.65E-03,1.58E-02
8144,7.56E-03,1.59E-02
8145,7.27E-03,1.59E-02
8146,7.03E-03,1.60E-02
8147,6.79E-03,1.62E-02
8148,6.71E-03,1.63E-02
8149,6.73E-03,1.65E-02
8150,7.12E-03,1.66E-02
8151,8.61E-03,1.68E-02
8152,7.42E-03,1.65E-02
8153,6.88E-03,1.63E-02
8154,6.72E-03,1.61E-02
8155,6.67E-03,1.58E-02
8156,6.60E-03,1.56E-02
8157,6.81E-03,1.55E-02
8158,7.08E-03,1.53E-02
8159,7.26E-03,1.51E-02
8160,7.39E-03,1.49E-02
8161,7.57E-03,1.48E-02
8162,7.67E-03,1.46E-02
8163,7.86E-03,1.44E-02
8164,8.03E-03,1.43E-02
8165,8.11E-03,1.41E-02
8166,8.18E-03,1.40E-02
8167,8.17E-03,1.39E-02
8168,8.17E-03,1.37E-02
8169,8.16E-03,1.36E-02
8170,8.07E-03,1.35E-02
8171,8.05E-03,1.33E-02
8172,8.12E-03,1.32E-02
8173,8.20E-03,1.31E-02
8174,8.27E-03,1.29E-02
8175,8.33E-03,1.28E-02
8176,8.33E-03,1.27E-02
8177,8.34E-03,1.26E-02
8178,8.36E-03,1.25E-02
8179,8.37E-03,1.24E-02
8180,8.38E-03,1.23E-02
8181,8.39E-03,1.21E-02
8182,8.40E-03,1.20E-02
8183,8.42E-03,1.19E-02
8184,8.44E-03,1.18E-02
8185,8.46E-03,1.18E-02
8186,8.48E-03,1.17E-02
8187,8.49E-03,1.16E-02
8188,8.50E-03,1.15E-02
8189,8.51E-03,1.14E-02
8190,8.58E-03,1.13E-02
8191,8.55E-03,1.13E-02
8192,8.48E-03,1.12E-02
8193,8.39E-03,1.11E-02
8194,8.33E-03,1.11E-02
8195,8.26E-03,1.10E-02
8196,8.26E-03,1.09E-02
8197,8.30E-03,1.09E-02
8198,8.36E-03,1.08E-02
8199,8.34E-03,1.08E-02
8200,8.31E-03,1.07E-02
8201,8.36E-03,1.07E-02
8202,8.32E-03,1.06E-02
8203,8.29E-03,1.06E-02
8204,8.28E-03,1.06E-02
8205,8.25E-03,1.05E-02
8206,8.20E-03,1.05E-02
8207,8.12E-03,1.05E-02
8208,7.96E-03,1.04E-02
8209,7.93E-03,1.04E-02
8210,7.94E-03,1.04E-02
8211,8.00E-03,1.04E-02
8212,8.04E-03,1.03E-02
8213,8.09E-03,1.03E-02
8214,8.08E-03,1.03E-02
8215,8.08E-03,1.03E-02
8216,8.08E-03,1.03E-02
8217,8.00E-03,1.03E-02
8218,7.89E-03,1.03E-02
8219,7.83E-03,1.02E-02
8220,7.83E-03,1.02E-02
8221,7.88E-03,1.02E-02
8222,7.96E-03,1.02E-02
8223,8.02E-03,1.02E-02
8224,8.02E-03,1.02E-02
8225,8.01E-03,1.02E-02
8226,8.00E-03,1.02E-02
8227,7.99E-03,1.02E-02
8228,7.94E-03,1.02E-02
8229,7.94E-03,1.02E-02
8230,7.95E-03,1.03E-02
8231,7.93E-03,1.03E-02
8232,7.91E-03,1.03E-02
8233,7.90E-03,1.03E-02
8234,7.95E-03,1.03E-02
8235,7.94E-03,1.03E-02
8236,7.90E-03,1.03E-02
8237,7.86E-03,1.04E-02
8238,7.82E-03,1.04E-02
8239,7.78E-03,1.04E-02
8240,7.73E-03,1.04E-02
8241,7.61E-03,1.05E-02
8242,7.51E-03,1.05E-02
8243,7.51E-03,1.05E-02
8244,7.52E-03,1.05E-02
8245,7.60E-03,1.06E-02
8246,7.71E-03,1.06E-02
8247,7.66E-03,1.06E-02
8248,7.73E-03,1.06E-02
8249,7.70E-03,1.07E-02
8250,7.73E-03,1.07E-02
8251,7.71E-03,1.07E-02
8252,7.64E-03,1.07E-02
8253,7.49E-03,1.07E-02
8254,7.42E-03,1.08E-02
8255,7.39E-03,1.08E-02
8256,7.39E-03,1.08E-02
8257,7.55E-03,1.08E-02
8258,8.01E-03,1.06E-02
8259,7.50E-03,1.07E-02
8260,8.16E-03,1.06E-02
8261,7.17E-03,1.07E-02
8262,6.83E-03,1.06E-02
8263,6.43E-03,1.08E-02
8264,8.02E-03,1.24E-02
8265,8.40E-03,1.23E-02
8266,8.45E-03,1.22E-02
8267,8.33E-03,1.21E-02
8268,8.23E-03,1.20E-02
8269,8.09E-03,1.19E-02
8270,8.02E-03,1.18E-02
8271,8.02E-03,1.17E-02
8272,8.02E-03,1.16E-02
8273,7.95E-03,1.15E-02
8274,7.91E-03,1.14E-02
8275,7.97E-03,1.14E-02
8276,8.02E-03,1.13E-02
8277,8.02E-03,1.12E-02
8278,8.02E-03,1.11E-02
8279,8.02E-03,1.11E-02
8280,8.02E-03,1.10E-02
8281,8.02E-03,1.10E-02
8282,8.10E-03,1.09E-02
8283,8.16E-03,1.09E-02
8284,8.28E-03,1.08E-02
8285,8.30E-03,1.08E-02
8286,8.24E-03,1.07E-02
8287,8.12E-03,1.07E-02
8288,8.02E-03,1.06E-02
8289,8.02E-03,1.06E-02
8290,8.02E-03,1.06E-02
8291,8.02E-03,1.05E-02
8292,8.02E-03,1.05E-02
8293,7.97E-03,1.05E-02
8294,7.98E-03,1.04E-02
8295,7.98E-03,1.04E-02
8296,7.92E-03,1.04E-02
8297,7.94E-03,1.03E-02
8298,8.02E-03,1.03E-02
8299,8.02E-03,1.03E-02
8300,8.02E-03,1.03E-02
8301,8.02E-03,1.02E-02
8302,8.02E-03,1.02E-02
8303,8.02E-03,1.02E-02
8304,8.02E-03,1.02E-02
8305,8.02E-03,1.02E-02
8306,8.02E-03,1.01E-02
8307,8.02E-03,1.01E-02
8308,8.02E-03,1.01E-02
8309,8.02E-03,1.01E-02
8310,8.02E-03,1.01E-02
8311,8.02E-03,1.01E-02
8312,8.02E-03,1.01E-02
8313,8.02E-03,1.00E-02
8314,8.02E-03,1.00E-02
8315,8.02E-03,1.00E-02
8316,8.02E-03,1.00E-02
8317,8.02E-03,1.00E-02
8318,8.09E-03,1.00E-02
8319,8.07E-03,1.00E-02
8320,8.03E-03,1.00E-02
8321,8.02E-03,1.00E-02
8322,8.02E-03,1.00E-02
8323,8.02E-03,1.00E-02
8324,7.97E-03,1.00E-02
8325,7.92E-03,1.00E-02
8326,7.90E-03,1.00E-02
8327,7.92E-03,1.00E-02
8328,7.93E-03,1.00E-02
8329,7.88E-03,1.01E-02
8330,7.81E-03,1.01E-02
8331,7.81E-03,1.01E-02
8332,7.86E-03,1.01E-02
8333,7.86E-03,1.01E-02
8334,7.95E-03,1.01E-02
8335,8.05E-03,1.02E-02
8336,8.09E-03,1.02E-02
8337,8.05E-03,1.02E-02
8338,8.07E-03,1.02E-02
8339,7.97E-03,1.03E-02
8340,7.61E-03,1.03E-02
8341,7.18E-03,1.03E-02
8342,7.01E-03,1.04E-02
8343,8.12E-03,1.04E-02
8344,8.42E-03,1.05E-02
8345,7.05E-03,1.05E-02
8346,9.37E-03,1.29E-02
8347,8.46E-03,1.31E-02
8348,8.18E-03,1.32E-02
8349,8.05E-03,1.34E-02
8350,7.95E-03,1.35E-02
8351,7.94E-03,1.36E-02
8352,7.94E-03,1.37E-02
8353,7.94E-03,1.38E-02
8354,7.93E-03,1.40E-02
8355,7.93E-03,1.41E-02
8356,7.92E-03,1.42E-02
8357,7.92E-03,1.43E-02
8358,7.91E-03,1.45E-02
8359,7.91E-03,1.46E-02
8360,7.90E-03,1.48E-02
8361,7.90E-03,1.49E-02
8362,7.90E-03,1.50E-02
8363,7.89E-03,1.52E-02
8364,7.80E-03,1.53E-02
8365,7.76E-03,1.54E-02
8366,7.76E-03,1.56E-02
8367,7.72E-03,1.57E-02
8368,7.76E-03,1.58E-02
8369,7.69E-03,1.59E-02
8370,7.68E-03,1.60E-02
8371,7.51E-03,1.60E-02
8372,7.37E-03,1.61E-02
8373,7.15E-03,1.62E-02
8374,7.05E-03,1.63E-02
8375,7.19E-03,1.65E-02
8376,7.41E-03,1.66E-02
8377,8.11E-03,1.68E-02
8378,1.02E-02,1.70E-02
8379,8.63E-03,1.67E-02
8380,8.09E-03,1.65E-02
8381,7.38E-03,1.62E-02
8382,7.13E-03,1.60E-02
8383,7.10E-03,1.58E-02
8384,7.04E-03,1.56E-02
8385,7.15E-03,1.54E-02
8386,7.31E-03,1.52E-02
8387,7.43E-03,1.50E-02
8388,7.58E-03,1.48E-02
8389,7.75E-03,1.47E-02
8390,7.91E-03,1.45E-02
8391,7.96E-03,1.43E-02
8392,8.02E-03,1.42E-02
8393,8.10E-03,1.40E-02
8394,8.11E-03,1.39E-02
8395,8.12E-03,1.38E-02
8396,8.14E-03,1.36E-02
8397,8.16E-03,1.35E-02
8398,8.19E-03,1.34E-02
8399,8.22E-03,1.32E-02
8400,8.24E-03,1.31E-02
8401,8.24E-03,1.30E-02
8402,8.23E-03,1.29E-02
8403,8.23E-03,1.27E-02
8404,8.24E-03,1.26E-02
8405,8.24E-03,1.25E-02
8406,8.25E-03,1.24E-02
8407,8.26E-03,1.23E-02
8408,8.27E-03,1.22E-02
8409,8.27E-03,1.21E-02
8410,8.28E-03,1.20E-02
8411,8.29E-03,1.19E-02
8412,8.30E-03,1.18E-02
8413,8.31E-03,1.17E-02
8414,8.32E-03,1.16E-02
8415,8.33E-03,1.16E-02
8416,8.34E-03,1.15E-02
8417,8.34E-03,1.14E-02
8418,8.35E-03,1.13E-02
8419,8.35E-03,1.12E-02
8420,8.34E-03,1.12E-02
8421,8.34E-03,1.11E-02
8422,8.33E-03,1.10E-02
8423,8.31E-03,1.10E-02
8424,8.29E-03,1.09E-02
8425,8.27E-03,1.09E-02
8426,8.25E-03,1.08E-02
8427,8.24E-03,1.08E-02
8428,8.23E-03,1.07E-02
8429,8.21E-03,1.07E-02
8430,8.19E-03,1.06E-02
8431,8.18E-03,1.06E-02
8432,8.16E-03,1.06E-02
8433,8.15E-03,1.05E-02
8434,8.15E-03,1.05E-02
8435,8.14E-03,1.05E-02
8436,8.13E-03,1.04E-02
8437,8.12E-03,1.04E-02
8438,8.11E-03,1.04E-02
8439,8.10E-03,1.04E-02
8440,8.09E-03,1.03E-02
8441,8.09E-03,1.03E-02
8442,8.09E-03,1.03E-02
8443,8.09E-03,1.03E-02
8444,8.08E-03,1.03E-02
8445,8.08E-03,1.03E-02
8446,8.07E-03,1.03E-02
8447,8.07E-03,1.02E-02
8448,8.06E-03,1.02E-02
8449,8.06E-03,1.02E-02
8450,8.05E-03,1.02E-02
8451,8.05E-03,1.02E-02
8452,8.05E-03,1.02E-02
8453,8.04E-03,1.02E-02
8454,8.04E-03,1.02E-02
8455,8.03E-03,1.02E-02
8456,8.03E-03,1.03E-02
8457,8.02E-03,1.03E-02
8458,8.01E-03,1.03E-02
8459,8.00E-03,1.03E-02
8460,7.98E-03,1.03E-02
8461,7.97E-03,1.03E-02
8462,7.97E-03,1.03E-02
8463,7.96E-03,1.04E-02
8464,7.95E-03,1.04E-02
8465,7.95E-03,1.04E-02
8466,7.94E-03,1.04E-02
8467,7.93E-03,1.04E-02
8468,7.92E-03,1.05E-02
8469,7.86E-03,1.05E-02
8470,7.77E-03,1.05E-02
8471,7.74E-03,1.06E-02
8472,7.76E-03,1.06E-02
8473,7.84E-03,1.06E-02
8474,7.86E-03,1.07E-02
8475,7.84E-03,1.07E-02
8476,7.83E-03,1.07E-02
8477,7.81E-03,1.07E-02
8478,7.79E-03,1.08E-02
8479,7.78E-03,1.08E-02
8480,7.77E-03,1.08E-02
8481,7.76E-03,1.08E-02
8482,7.68E-03,1.09E-02
8483,7.68E-03,1.09E-02
8484,7.66E-03,1.09E-02
8485,7.66E-03,1.09E-02
8486,7.52E-03,1.09E-02
8487,7.14E-03,1.09E-02
8488,6.60E-03,1.09E-02
8489,6.05E-03,1.09E-02
8490,5.73E-03,1.09E-02
8491,6.47E-03,1.08E-02
8492,8.87E-03,1.69E-02
8493,8.46E-03,1.68E-02
8494,8.41E-03,1.66E-02
8495,8.12E-03,1.64E-02
8496,7.85E-03,1.61E-02
8497,7.60E-03,1.59E-02
8498,7.44E-03,1.57E-02
8499,7.44E-03,1.55E-02
8500,7.50E-03,1.53E-02
8501,7.58E-03,1.51E-02
8502,7.69E-03,1.49E-02
8503,7.82E-03,1.47E-02
8504,7.95E-03,1.46E-02
8505,8.00E-03,1.44E-02
8506,8.02E-03,1.42E-02
8507,8.09E-03,1.41E-02
8508,8.09E-03,1.40E-02
8509,8.10E-03,1.38E-02
8510,8.10E-03,1.37E-02
8511,8.11E-03,1.35E-02
8512,8.11E-03,1.34E-02
8513,8.13E-03,1.33E-02
8514,8.14E-03,1.32E-02
8515,8.14E-03,1.30E-02
8516,8.14E-03,1.29E-02
8517,8.14E-03,1.28E-02
8518,8.14E-03,1.27E-02
8519,8.14E-03,1.26E-02
8520,8.14E-03,1.25E-02
8521,8.14E-03,1.24E-02
8522,8.15E-03,1.23E-02
8523,8.15E-03,1.22E-02
8524,8.15E-03,1.21E-02
8525,8.15E-03,1.20E-02
8526,8.16E-03,1.19E-02
8527,8.16E-03,1.18E-02
8528,8.16E-03,1.17E-02
8529,8.17E-03,1.16E-02
8530,8.17E-03,1.15E-02
8531,8.17E-03,1.14E-02
8532,8.17E-03,1.14E-02
8533,8.18E-03,1.13E-02
8534,8.18E-03,1.12E-02
8535,8.18E-03,1.12E-02
8536,8.17E-03,1.11E-02
8537,8.17E-03,1.10E-02
8538,8.16E-03,1.10E-02
8539,8.16E-03,1.09E-02
8540,8.15E-03,1.09E-02
8541,8.14E-03,1.08E-02
8542,8.14E-03,1.08E-02
8543,8.14E-03,1.07E-02
8544,8.13E-03,1.07E-02
8545,8.13E-03,1.06E-02
8546,8.12E-03,1.06E-02
8547,8.12E-03,1.06E-02
8548,8.11E-03,1.05E-02
8549,8.11E-03,1.05E-02
8550,8.11E-03,1.05E-02
8551,8.11E-03,1.04E-02
8552,8.10E-03,1.04E-02
8553,8.10E-03,1.04E-02
8554,8.09E-03,1.04E-02
8555,8.09E-03,1.03E-02
8556,8.09E-03,1.03E-02
8557,8.09E-03,1.03E-02
8558,8.09E-03,1.03E-02
8559,8.09E-03,1.03E-02
8560,8.09E-03,1.03E-02
8561,8.09E-03,1.03E-02
8562,8.08E-03,1.02E-02
8563,8.08E-03,1.02E-02
8564,8.08E-03,1.02E-02
8565,8.08E-03,1.02E-02
8566,8.08E-03,1.02E-02
8567,8.08E-03,1.02E-02
8568,8.08E-03,1.02E-02
8569,8.07E-03,1.02E-02
8570,8.07E-03,1.02E-02
8571,8.07E-03,1.03E-02
8572,8.07E-03,1.03E-02
8573,8.06E-03,1.03E-02
8574,8.06E-03,1.03E-02
8575,8.06E-03,1.03E-02
8576,8.05E-03,1.03E-02
8577,8.05E-03,1.04E-02
8578,8.05E-03,1.04E-02
8579,8.05E-03,1.04E-02
8580,8.04E-03,1.04E-02
8581,8.04E-03,1.04E-02
8582,8.04E-03,1.05E-02
8583,8.04E-03,1.05E-02
8584,8.03E-03,1.05E-02
8585,8.03E-03,1.06E-02
8586,8.03E-03,1.06E-02
8587,8.02E-03,1.06E-02
8588,8.02E-03,1.07E-02
8589,8.01E-03,1.07E-02
8590,8.01E-03,1.07E-02
8591,8.00E-03,1.08E-02
8592,8.00E-03,1.08E-02
8593,7.99E-03,1.09E-02
8594,7.99E-03,1.09E-02
8595,7.98E-03,1.09E-02
8596,7.05E-03,1.08E-02
8597,6.25E-03,1.09E-02
8598,7.98E-03,1.09E-02
8599,6.26E-03,1.09E-02
8600,7.97E-03,1.10E-02
8601,6.39E-03,1.10E-02
8602,6.57E-03,1.10E-02
8603,7.97E-03,1.10E-02
8604,6.99E-03,1.10E-02
8605,7.44E-03,1.10E-02
8606,7.97E-03,1.10E-02
8607,7.77E-03,1.10E-02
8608,7.90E-03,1.10E-02
8609,9.19E-03,1.07E-02
8610,6.44E-03,1.06E-02
8611,5.87E-03,1.06E-02
8612,6.02E-03,1.05E-02
8613,6.37E-03,1.04E-02
8614,6.61E-03,1.04E-02
8615,7.28E-03,1.03E-02
8616,7.78E-03,1.03E-02
8617,7.85E-03,1.03E-02
8618,7.66E-03,1.03E-02
8619,7.49E-03,1.02E-02
8620,7.68E-03,1.02E-02
8621,7.92E-03,1.02E-02
8622,8.02E-03,1.01E-02
8623,8.02E-03,1.01E-02
8624,8.02E-03,1.01E-02
8625,8.02E-03,1.01E-02
8626,8.02E-03,1.01E-02
8627,8.02E-03,1.00E-02
8628,8.02E-03,1.00E-02
8629,8.02E-03,1.00E-02
8630,8.02E-03,1.00E-02
8631,8.02E-03,9.99E-03
8632,8.02E-03,9.97E-03
8633,8.02E-03,9.97E-03
8634,8.02E-03,9.96E-03
8635,8.02E-03,9.96E-03
8636,8.02E-03,9.96E-03
8637,8.02E-03,9.96E-03
8638,8.02E-03,9.96E-03
8639,8.02E-03,9.96E-03
8640,8.02E-03,9.96E-03
8641,8.02E-03,9.96E-03
8642,8.02E-03,9.97E-03
8643,8.02E-03,9.97E-03
8644,8.02E-03,9.98E-03
8645,8.02E-03,9.99E-03
8646,8.02E-03,1.00E-02
8647,8.02E-03,1.00E-02
8648,8.02E-03,1.00E-02
8649,8.02E-03,1.00E-02
8650,8.02E-03,1.00E-02
8651,8.02E-03,1.01E-02
8652,8.02E-03,1.01E-02
8653,8.02E-03,1.01E-02
8654,8.02E-03,1.01E-02
8655,8.02E-03,1.01E-02
8656,8.02E-03,1.01E-02
8657,8.02E-03,1.02E-02
8658,8.02E-03,1.02E-02
8659,8.02E-03,1.02E-02
8660,8.02E-03,1.02E-02
8661,8.02E-03,1.03E-02
8662,8.02E-03,1.03E-02
8663,8.02E-03,1.03E-02
8664,8.02E-03,1.03E-02
8665,8.02E-03,1.04E-02
8666,8.02E-03,1.04E-02
8667,8.02E-03,1.04E-02
8668,8.02E-03,1.05E-02
8669,8.02E-03,1.05E-02
8670,8.02E-03,1.05E-02
8671,8.02E-03,1.06E-02
8672,8.02E-03,1.06E-02
8673,8.02E-03,1.07E-02
8674,8.02E-03,1.07E-02
8675,8.02E-03,1.07E-02
8676,8.02E-03,1.08E-02
8677,8.02E-03,1.08E-02
8678,8.02E-03,1.09E-02
8679,8.02E-03,1.09E-02
8680,8.02E-03,1.10E-02
8681,8.02E-03,1.11E-02
8682,8.02E-03,1.11E-02
8683,8.02E-03,1.12E-02
8684,8.02E-03,1.13E-02
8685,8.02E-03,1.13E-02
8686,8.02E-03,1.14E-02
8687,8.02E-03,1.15E-02
8688,8.02E-03,1.16E-02
8689,8.02E-03,1.16E-02
8690,8.02E-03,1.17E-02
8691,8.08E-03,1.18E-02
8692,8.10E-03,1.19E-02
8693,8.20E-03,1.20E-02
8694,8.28E-03,1.21E-02
8695,8.23E-03,1.23E-02
8696,8.06E-03,1.24E-02
8697,8.33E-03,1.25E-02
8698,9.85E-03,1.27E-02
8699,7.97E-03,1.36E-02
8700,7.97E-03,1.37E-02
8701,8.02E-03,1.34E-02
8702,7.97E-03,1.38E-02
8703,8.09E-03,1.34E-02
8704,8.48E-03,1.31E-02
8705,7.96E-03,1.40E-02
8706,1.00E-02,1.30E-02
8707,7.96E-03,1.41E-02
8708,7.96E-03,1.42E-02
8709,7.96E-03,1.43E-02
8710,7.96E-03,1.45E-02
8711,7.96E-03,1.46E-02
8712,9.34E-03,1.29E-02
8713,7.95E-03,1.48E-02
8714,7.95E-03,1.49E-02
8715,7.95E-03,1.51E-02
8716,7.95E-03,1.52E-02
8717,7.95E-03,1.54E-02
8718,7.95E-03,1.55E-02
8719,7.95E-03,1.57E-02
8720,7.95E-03,1.58E-02
8721,7.94E-03,1.59E-02
8722,7.94E-03,1.60E-02
8723,7.87E-03,1.61E-02
8724,7.86E-03,1.62E-02
8725,7.71E-03,1.63E-02
8726,7.59E-03,1.63E-02
8727,7.43E-03,1.64E-02
8728,7.37E-03,1.65E-02
8729,7.41E-03,1.67E-02
8730,7.74E-03,1.68E-02
8731,8.47E-03,1.70E-02
8732,8.95E-03,1.72E-02
8733,9.04E-03,1.73E-02
8734,8.22E-03,1.75E-02
8735,8.94E-03,1.74E-02
8736,9.05E-03,1.73E-02
8737,8.69E-03,1.72E-02
8738,8.03E-03,1.71E-02
8887,1.58E-03,1.85E-02
8888,2.81E-03,1.85E-02
8889,2.54E-03,1.85E-02
8890,5.71E-03,9.24E-03
8891,8.47E-03,9.32E-03
8892,1.04E-02,1.50E-02
8893,1.11E-02,1.53E-02
8894,1.08E-02,1.55E-02
8895,9.78E-03,1.34E-02
8896,7.74E-03,1.36E-02
8897,8.44E-03,1.35E-02
8898,9.07E-03,1.35E-02
8899,7.26E-03,1.89E-02
8900,6.84E-03,1.88E-02
8901,7.86E-03,1.89E-02
8902,1.17E-02,1.41E-02
8903,1.26E-02,1.42E-02
8904,1.18E-02,1.41E-02
8905,9.04E-03,1.22E-02
8906,8.90E-03,1.25E-02
8907,7.70E-03,1.24E-02
8908,7.94E-03,1.22E-02
8909,4.96E-03,1.66E-02
8910,6.62E-03,1.65E-02
8911,7.06E-03,1.65E-02
8912,8.69E-03,1.56E-02
8913,8.47E-03,1.56E-02
8914,7.80E-03,1.55E-02
8915,7.95E-03,1.55E-02
8916,9.25E-03,9.02E-03
8917,9.19E-03,9.22E-03
8918,7.72E-03,9.80E-03
8919,6.84E-03,1.00E-02
8920,1.07E-02,8.87E-03
8921,1.06E-02,8.95E-03
8922,8.55E-03,9.06E-03
8923,5.08E-03,1.07E-02
8924,3.94E-03,1.09E-02
8925,4.85E-03,1.09E-02
8926,9.68E-03,7.90E-03
8927,1.05E-02,8.07E-03
8928,1.14E-02,8.17E-03
8929,1.01E-02,1.04E-02
8930,1.02E-02,1.04E-02
8931,9.90E-03,1.07E-02
8932,9.15E-03,1.46E-02
8933,9.50E-03,1.46E-02
8934,8.56E-03,1.47E-02
8935,9.14E-03,1.49E-02
8936,8.08E-03,1.47E-02
8937,9.10E-03,1.49E-02
8938,3.44E-03,1.50E-02
8939,4.80E-03,1.50E-02
8940,4.96E-03,1.49E-02
8941,3.29E-03,1.50E-02
8942,3.38E-03,1.50E-02
8943,1.11E-02,1.56E-02
8944,1.02E-02,1.56E-02
8945,1.11E-02,1.56E-02
8946,9.79E-03,1.55E-02
8947,4.23E-03,1.39E-02
8948,5.52E-03,1.39E-02
8949,6.01E-03,1.40E-02
8950,4.71E-03,1.40E-02
8951,4.22E-03,1.39E-02
8952,1.01E-02,1.30E-02
8953,1.18E-02,1.32E-02
8954,1.19E-02,1.31E-02
8955,1.05E-02,1.32E-02
8956,1.00E-02,1.52E-02
8957,9.76E-03,1.36E-02
8958,1.18E-02,1.32E-02
8959,9.89E-03,1.45E-02
8960,9.97E-03,1.45E-02
8961,8.05E-03,1.45E-02
8962,9.13E-03,7.98E-03
8963,8.82E-03,7.75E-03
8964,9.83E-03,7.96E-03
8965,9.15E-03,1.53E-02
8966,9.00E-03,1.54E-02
8967,9.35E-03,1.54E-02
8968,4.44E-03,1.98E-02
8969,5.79E-03,1.99E-02
8970,5.52E-03,1.97E-02
8971,4.37E-03,1.96E-02
8972,4.64E-03,1.95E-02
8973,8.69E-03,2.05E-02
8974,9.79E-03,2.04E-02
8975,9.88E-03,2.02E-02
8976,6.20E-03,1.56E-02
8977,8.38E-03,1.61E-02
8978,8.34E-03,1.58E-02
8979,7.10E-03,1.59E-02
8980,4.72E-03,6.72E-03
8981,5.86E-03,6.64E-03
8982,5.83E-03,6.70E-03
8983,4.92E-03,6.76E-03
8984,5.23E-03,6.81E-03
8985,1.02E-02,1.29E-02
8986,1.03E-02,1.29E-02
8987,9.32E-03,1.30E-02
8988,8.93E-03,1.33E-02
8989,8.38E-03,1.73E-02
8990,9.32E-03,1.71E-02
8991,9.56E-03,1.71E-02
8992,9.91E-03,1.99E-02
8993,9.56E-03,2.01E-02
8994,9.63E-03,2.00E-02
8995,9.23E-03,1.99E-02
8996,8.14E-03,5.25E-03
8997,8.46E-03,5.33E-03
8998,8.33E-03,5.29E-03
8999,4.27E-03,9.25E-03
9000,5.61E-03,9.17E-03
9001,5.88E-03,9.12E-03
9002,4.29E-03,9.20E-03
9003,5.17E-03,9.42E-03
9004,8.81E-03,1.29E-02
9005,9.63E-03,1.30E-02
9006,8.34E-03,1.30E-02
9007,9.01E-03,2.24E-02
9008,8.57E-03,2.25E-02
9009,8.45E-03,2.26E-02
9010,3.95E-03,1.39E-02
9011,5.79E-03,1.40E-02
9012,6.98E-03,1.40E-02
9013,4.55E-03,1.39E-02
9014,3.95E-03,1.38E-02
9015,1.04E-02,5.46E-03
9016,9.90E-03,5.25E-03
9017,9.44E-03,5.36E-03
9018,1.09E-02,1.32E-02
9019,1.24E-02,1.31E-02
9020,9.12E-03,1.32E-02
9021,9.28E-03,9.39E-03
9022,8.98E-03,9.43E-03
9023,8.82E-03,9.49E-03
9024,5.34E-03,5.34E-03
9025,6.61E-03,5.29E-03
9026,6.47E-03,5.20E-03
9027,5.05E-03,5.27E-03
9028,6.03E-03,5.38E-03
9029,9.47E-03,2.25E-02
9030,9.34E-03,2.24E-02
9031,1.00E-02,2.23E-02
9032,5.23E-03,1.45E-02
9033,5.01E-03,1.48E-02
9034,5.41E-03,1.46E-02
9035,3.70E-03,1.46E-02
9036,1.03E-02,1.59E-02
9037,1.07E-02,1.60E-02
9038,9.48E-03,1.60E-02
9039,9.78E-03,1.59E-02
9040,4.59E-03,6.57E-03
9041,6.88E-03,6.53E-03
9042,6.70E-03,6.37E-03
9043,4.53E-03,6.47E-03
9044,4.97E-03,6.55E-03
9045,4.29E-03,1.09E-02
9046,6.38E-03,1.09E-02
9047,6.37E-03,1.08E-02
9048,4.62E-03,1.07E-02
9049,3.65E-03,1.10E-02
9050,9.37E-03,1.56E-02
9051,6.70E-03,1.56E-02
9052,1.04E-02,1.57E-02
9053,1.12E-02,1.56E-02
9054,4.97E-03,7.15E-03
9055,7.21E-03,7.12E-03
9056,6.81E-03,6.96E-03
9057,4.90E-03,7.04E-03
9058,5.36E-03,7.11E-03
9059,4.66E-03,1.19E-02
9060,6.82E-03,1.18E-02
9061,6.67E-03,1.19E-02
9062,4.54E-03,1.20E-02
9063,5.02E-03,1.20E-02
9064,4.68E-03,7.26E-03
9065,6.14E-03,7.43E-03
9066,6.32E-03,7.36E-03
9067,5.07E-03,7.19E-03
9068,5.15E-03,7.09E-03
9069,4.88E-03,2.38E-02
9070,7.08E-03,2.37E-02
9071,6.55E-03,2.36E-02
9072,4.62E-03,2.36E-02
9073,5.11E-03,2.40E-02
9074,5.71E-03,1.01E-02
9075,7.48E-03,1.01E-02
9076,7.64E-03,1.03E-02
9077,6.42E-03,1.02E-02
9078,5.02E-03,1.01E-02
9079,8.68E-03,7.64E-03
9080,8.75E-03,7.78E-03
9081,9.52E-03,7.58E-03
9082,1.20E-02,1.08E-02
9083,1.09E-02,1.06E-02
9084,9.16E-03,1.04E-02
9085,4.11E-03,8.39E-03
9086,5.51E-03,8.57E-03
9087,4.78E-03,8.51E-03
9088,3.71E-03,8.32E-03
9089,4.12E-03,8.21E-03
9090,7.77E-03,1.19E-02
9091,8.67E-03,1.15E-02
9092,8.22E-03,1.18E-02
9093,8.56E-03,1.14E-02
9094,9.54E-03,9.05E-03
9095,9.21E-03,8.89E-03
9096,8.19E-03,8.92E-03
9097,8.80E-03,1.87E-02
9098,8.77E-03,1.84E-02
9099,8.46E-03,1.84E-02
9100,6.04E-03,9.47E-03
9101,9.11E-03,9.44E-03
9102,9.52E-03,9.30E-03
9103,6.87E-03,9.30E-03
9104,9.28E-03,6.91E-03
9105,8.89E-03,7.16E-03
9106,7.12E-03,7.18E-03
9107,7.90E-03,1.91E-02
9108,7.50E-03,1.88E-02
9109,8.79E-03,1.90E-02
9110,4.30E-03,1.16E-02
9111,5.86E-03,1.18E-02
9112,5.00E-03,1.18E-02
9113,4.17E-03,1.16E-02
9114,4.59E-03,1.14E-02
9115,1.10E-02,2.02E-02
9116,7.91E-03,2.03E-02
9117,9.90E-03,2.02E-02
9118,9.82E-03,2.00E-02
9119,4.77E-03,1.26E-02
9120,5.93E-03,1.28E-02
9121,5.28E-03,1.28E-02
9122,4.40E-03,1.26E-02
9123,5.07E-03,1.24E-02
9124,6.24E-03,8.56E-03
9125,9.82E-03,8.71E-03
9126,6.08E-03,8.64E-03
9127,5.14E-03,8.54E-03
9128,5.67E-03,8.42E-03
9129,4.44E-03,1.42E-02
9130,5.98E-03,1.43E-02
9131,6.08E-03,1.40E-02
9132,4.78E-03,1.40E-02
9133,4.81E-03,1.40E-02
9134,7.06E-03,1.82E-02
9135,8.88E-03,1.81E-02
9136,8.46E-03,1.80E-02
9137,7.50E-03,1.82E-02
9138,1.16E-02,1.37E-02
9139,1.07E-02,1.37E-02
9140,9.68E-03,1.34E-02
9141,1.26E-02,1.27E-02
9142,1.32E-02,1.26E-02
9143,1.19E-02,1.26E-02
9144,8.77E-03,1.57E-02
9145,8.71E-03,1.58E-02
9146,9.52E-03,1.56E-02
9147,5.35E-03,3.18E-03
9148,7.14E-03,3.17E-03
9149,6.77E-03,2.85E-03
9150,5.50E-03,2.89E-03
9151,5.11E-03,3.07E-03
9152,1.07E-02,4.85E-02
9153,1.10E-02,4.79E-02
9154,9.87E-03,4.59E-02
9155,4.98E-03,1.71E-02
9156,6.54E-03,1.73E-02
9157,6.37E-03,1.73E-02
9158,5.21E-03,1.71E-02
9159,5.36E-03,1.69E-02
9160,9.08E-03,1.79E-02
9161,9.97E-03,1.79E-02
9162,9.16E-03,1.76E-02
9163,9.36E-03,1.57E-02
9164,1.02E-02,1.58E-02
9165,9.36E-03,1.57E-02
9166,1.04E-02,1.57E-02
9167,2.97E-03,2.07E-02
9168,4.61E-03,2.10E-02
9169,4.26E-03,2.15E-02
9170,2.69E-03,2.11E-02
9171,2.40E-03,2.07E-02
9172,5.19E-03,1.72E-02
9173,5.54E-03,1.70E-02
9174,5.51E-03,1.69E-02
9175,8.61E-03,1.40E-02
9176,9.77E-03,1.39E-02
9177,8.98E-03,1.39E-02
9178,9.71E-03,1.03E-02
9179,1.02E-02,1.04E-02
9180,9.87E-03,1.05E-02
9181,4.37E-03,2.24E-02
9182,6.70E-03,2.25E-02
9183,6.48E-03,2.26E-02
9184,4.26E-03,2.24E-02
9185,4.32E-03,2.23E-02
9186,8.15E-03,1.42E-02
9187,5.92E-03,1.42E-02
9188,8.40E-03,1.41E-02
9189,1.72E-03,4.26E-03
9190,2.64E-03,4.28E-03
9191,6.17E-03,1.67E-02
9192,6.89E-03,1.66E-02
9193,4.05E-03,1.69E-02
9194,6.26E-03,1.70E-02
9195,7.11E-03,2.04E-02
9196,6.95E-03,2.05E-02
9197,8.77E-03,7.47E-03
9198,7.48E-03,7.53E-03
9199,1.09E-02,1.16E-02
9200,1.08E-02,1.14E-02
9201,8.82E-03,1.65E-02
9202,9.33E-03,1.67E-02
9203,5.55E-03,1.84E-02
9204,4.70E-03,1.84E-02
9205,4.88E-03,1.83E-02
9206,5.18E-03,1.82E-02
9207,8.84E-03,8.34E-03
9208,4.80E-03,1.63E-02
9209,6.05E-03,1.63E-02
9210,4.43E-03,1.50E-02
9211,4.69E-03,1.50E-02
9212,7.27E-03,1.78E-02
9213,6.31E-03,1.78E-02
9214,6.58E-03,1.89E-02
9215,6.16E-03,1.89E-02
9216,9.29E-03,1.21E-02
9217,9.80E-03,1.21E-02
9218,9.25E-03,1.13E-02
9219,9.56E-03,1.12E-02
9220,6.77E-03,9.32E-03
9221,6.04E-03,9.08E-03
9222,5.59E-03,8.72E-03
9223,6.81E-03,8.93E-03
9224,1.80E-03,1.46E-02
9225,2.91E-03,1.47E-02
9226,7.15E-03,1.30E-02
9227,7.34E-03,1.29E-02
9228,9.54E-03,1.98E-02
9229,9.78E-03,1.98E-02
9230,6.21E-03,1.87E-02
9231,4.76E-03,1.88E-02
9232,7.72E-03,1.28E-02
9233,7.35E-03,1.28E-02
9234,7.65E-03,2.07E-02
9235,7.80E-03,2.06E-02
9236,7.62E-03,1.41E-02
9237,8.14E-03,1.42E-02
9238,6.91E-03,1.40E-02
9239,5.43E-03,1.39E-02
9240,8.38E-03,2.11E-02
9241,8.05E-03,2.12E-02
9242,5.51E-03,1.64E-02
9243,7.27E-03,1.65E-02
9244,9.23E-03,1.34E-02
9245,8.00E-03,1.35E-02
9246,8.12E-03,5.53E-03
9247,7.77E-03,5.64E-03
9248,8.88E-03,1.20E-02
9249,7.11E-03,1.17E-02
9250,5.11E-03,1.15E-02
9251,6.52E-03,1.16E-02
9252,5.27E-03,1.24E-02
9253,6.97E-03,1.22E-02
9254,6.06E-03,8.05E-03
9255,5.82E-03,8.14E-03
9256,3.01E-03,1.11E-02
9257,2.01E-03,1.12E-02
9258,5.92E-03,8.47E-03
9259,7.57E-03,7.16E-03
9260,5.39E-03,7.31E-03
9261,9.14E-03,1.55E-02
9262,8.68E-03,1.57E-02
9263,5.65E-03,2.70E-02
9264,4.75E-03,2.73E-02
9265,7.43E-03,1.69E-02
9266,5.70E-03,1.70E-02
9267,5.11E-03,1.04E-02
9268,7.34E-03,1.04E-02
9269,7.35E-03,1.12E-02
9270,6.79E-03,1.10E-02
9271,8.85E-03,7.29E-03
9272,7.76E-03,7.08E-03
9273,8.06E-03,1.27E-02
9274,9.70E-03,1.24E-02
9275,7.32E-03,1.95E-02
9276,7.82E-03,1.95E-02
9277,3.44E-03,4.26E-03
9278,2.87E-03,4.21E-03
9279,5.17E-03,1.09E-02
9280,5.38E-03,1.07E-02
9281,6.53E-03,2.28E-02
9282,3.52E-03,2.27E-02
9283,9.30E-03,1.31E-02
9284,9.21E-03,1.30E-02
9285,7.88E-03,3.60E-02
9286,7.80E-03,3.56E-02
9287,5.42E-03,2.11E-02
9288,7.01E-03,2.11E-02
9289,4.76E-03,1.86E-02
9290,4.48E-03,1.86E-02
9291,4.98E-03,1.54E-02
9292,6.13E-03,1.53E-02
9293,7.42E-03,4.69E-02
9294,5.40E-03,4.66E-02
9295,5.14E-03,1.93E-02
9296,7.19E-03,1.93E-02
9297,1.03E-02,1.43E-02
9298,1.24E-02,1.42E-02
9299,9.66E-03,1.42E-02
9300,9.50E-03,1.43E-02
9301,9.76E-03,1.28E-02
9302,9.52E-03,1.30E-02
9303,8.46E-03,1.32E-02
9304,4.57E-03,2.21E-02
9305,5.09E-03,2.17E-02
9306,5.43E-03,2.21E-02
9307,1.08E-02,1.09E-02
9308,8.09E-03,8.15E-03
9309,7.45E-03,8.23E-03
9310,7.73E-03,8.17E-03
9311,6.25E-03,8.11E-03
9312,6.60E-03,1.42E-02
9313,5.55E-03,1.41E-02
9314,5.55E-03,1.41E-02
9315,8.93E-03,1.43E-02
9316,8.45E-03,1.42E-02
9317,1.10E-02,1.70E-02
9318,1.08E-02,1.70E-02
9319,1.01E-02,1.71E-02
9320,9.91E-03,1.27E-02
9321,9.23E-03,1.27E-02
9322,8.92E-03,1.29E-02
9323,9.22E-03,1.29E-02
9324,9.43E-03,5.41E-03
9325,9.24E-03,5.38E-03
9326,8.23E-03,5.53E-03
9327,8.11E-03,5.54E-03
9328,9.20E-03,2.98E-02
9329,8.33E-03,2.95E-02
9330,8.72E-03,2.93E-02
9331,8.18E-03,2.97E-02
9332,8.98E-03,2.40E-02
9333,7.54E-03,2.37E-02
9334,7.95E-03,2.43E-02
9335,1.00E-02,2.56E-02
9336,9.61E-03,2.53E-02
9337,8.32E-03,2.49E-02
9338,5.62E-03,4.87E-03
9339,6.04E-03,4.76E-03
9340,4.52E-03,4.64E-03
9341,4.74E-03,4.68E-03
9342,4.10E-03,4.45E-03
9343,4.59E-03,4.48E-03
9344,3.02E-03,4.44E-03
9345,2.05E-03,4.35E-03
9346,2.34E-03,4.27E-03
9347,6.09E-03,1.44E-02
9348,1.01E-02,1.44E-02
9349,1.09E-02,1.43E-02
9350,7.79E-03,1.71E-02
9351,5.97E-03,1.72E-02
9352,5.24E-03,1.25E-02
9353,8.11E-03,1.27E-02
9354,5.35E-03,1.31E-02
9355,6.82E-03,1.30E-02
9356,8.43E-03,1.30E-02
9357,1.02E-02,1.16E-02
9358,6.44E-03,1.17E-02
9359,6.55E-03,5.36E-03
9360,9.41E-03,5.45E-03
9361,8.08E-03,8.08E-03
9362,7.59E-03,2.95E-02
9363,7.61E-03,1.35E-02
9364,8.37E-03,1.34E-02
9365,6.80E-03,1.32E-02
9366,7.26E-03,1.05E-02
9367,5.97E-03,1.08E-02
9368,5.85E-03,1.10E-02
9369,8.14E-03,1.75E-02
9370,8.39E-03,1.73E-02
9371,6.84E-03,1.72E-02
9372,9.32E-03,9.62E-03
9373,8.90E-03,9.70E-03
9374,7.04E-03,9.76E-03
9375,7.76E-03,1.01E-02
9376,8.04E-03,9.88E-03
9377,6.55E-03,9.61E-03
9378,9.58E-03,1.21E-02
9379,8.78E-03,1.59E-02
9380,8.65E-03,1.59E-02
9381,6.85E-03,1.59E-02
9382,6.40E-03,1.64E-02
9383,5.57E-03,1.49E-02
9384,6.79E-03,1.48E-02
9385,5.75E-03,1.48E-02
9386,1.01E-02,1.64E-02
9387,7.94E-03,1.80E-02
9388,8.49E-03,1.81E-02
9389,8.48E-03,1.80E-02
9390,7.95E-03,1.66E-02
9391,7.52E-03,1.65E-02
9392,8.86E-03,1.85E-02
9393,8.87E-03,1.84E-02
9394,7.58E-03,1.88E-02
9395,7.49E-03,1.86E-02
9396,7.85E-03,1.85E-02
9397,7.86E-03,1.86E-02
9398,8.70E-03,1.11E-02
9399,9.41E-03,1.10E-02
9400,5.76E-03,1.40E-02
9401,6.51E-03,1.40E-02
9402,5.48E-03,1.39E-02
9403,9.51E-03,1.42E-02
9404,9.44E-03,1.42E-02
9405,7.42E-03,1.50E-02
9406,7.58E-03,1.50E-02
9407,7.31E-03,1.49E-02
9408,6.94E-03,1.49E-02
9409,8.68E-03,1.54E-02
9410,8.72E-03,1.54E-02
9411,7.11E-03,1.54E-02
9412,5.60E-03,1.70E-02
9413,7.53E-03,1.43E-02
9414,7.89E-03,1.43E-02
9415,6.91E-03,1.44E-02
9416,6.67E-03,1.44E-02
9417,7.01E-03,1.44E-02
9418,9.55E-03,1.30E-02
9419,9.96E-03,1.27E-02
9420,7.39E-03,9.74E-03
9421,7.85E-03,9.98E-03
9422,7.29E-03,1.02E-02
9423,8.66E-03,1.42E-02
9424,8.53E-03,1.42E-02
9425,7.11E-03,1.42E-02
9426,8.71E-03,1.82E-02
9427,9.25E-03,1.72E-02
9428,9.82E-03,1.73E-02
9429,8.99E-03,1.73E-02
9430,8.02E-03,1.85E-02
9431,8.92E-03,1.84E-02
9432,8.49E-03,1.83E-02
9433,6.40E-03,1.46E-02
9434,6.58E-03,1.46E-02
9435,6.49E-03,1.46E-02
9436,6.89E-03,1.46E-02
9437,9.08E-03,1.70E-02
9438,9.22E-03,1.68E-02
9439,9.50E-03,1.86E-02
9440,1.01E-02,1.88E-02
9441,8.83E-03,1.89E-02
9442,9.41E-03,1.88E-02
9443,9.36E-03,1.88E-02
9444,7.84E-03,1.88E-02
9445,6.75E-03,1.47E-02
9446,7.27E-03,1.47E-02
9447,6.28E-03,1.47E-02
9448,5.90E-03,1.47E-02
9449,7.40E-03,8.42E-03
9450,8.99E-03,8.60E-03
9451,8.31E-03,8.61E-03
9452,7.39E-03,1.15E-02
9453,8.01E-03,1.13E-02
9454,7.24E-03,1.10E-02
9455,6.68E-03,1.12E-02
9456,9.57E-03,1.44E-02
9457,9.48E-03,1.44E-02
9458,8.92E-03,1.44E-02
9459,8.55E-03,1.57E-02
9460,6.36E-03,1.57E-02
9461,5.41E-03,7.29E-03
9462,4.89E-03,7.18E-03
9463,5.14E-03,7.22E-03
9464,6.94E-03,7.51E-03
9465,6.90E-03,7.43E-03
9466,1.22E-02,1.41E-02
9467,8.67E-03,1.60E-02
9468,8.45E-03,1.59E-02
9469,8.57E-03,1.75E-02
9470,8.63E-03,1.76E-02
9471,7.26E-03,9.57E-03
9472,7.63E-03,9.52E-03
9473,6.70E-03,1.60E-02
9474,6.57E-03,1.60E-02
9475,7.01E-03,1.60E-02
9476,7.71E-03,1.71E-02
9477,5.12E-03,1.71E-02
9478,7.94E-03,2.13E-02
9479,6.58E-03,2.11E-02
9480,5.28E-03,2.09E-02
9481,6.21E-03,1.22E-02
9482,5.25E-03,1.22E-02
9483,8.30E-03,1.57E-02
9484,8.81E-03,1.57E-02
9485,8.61E-03,1.57E-02
9486,8.02E-03,1.75E-02
9487,6.66E-03,1.74E-02
9488,8.24E-03,2.00E-02
9489,8.12E-03,1.98E-02
9490,8.79E-03,1.96E-02
9491,1.02E-02,1.33E-02
9492,9.07E-03,1.34E-02
9493,8.46E-03,1.34E-02
9494,8.77E-03,1.68E-02
9495,6.73E-03,1.67E-02
9496,7.66E-03,1.69E-02
9497,9.81E-03,1.37E-02
9498,7.42E-03,1.38E-02
9499,6.52E-03,1.38E-02
9500,8.41E-03,1.64E-02
9501,8.24E-03,1.64E-02
9502,6.35E-03,1.64E-02
9503,5.80E-03,1.03E-02
9504,3.38E-03,1.67E-02
9505,4.55E-03,1.68E-02
9506,8.70E-03,1.06E-02
9507,1.03E-02,1.06E-02
9508,9.11E-03,1.07E-02
9509,7.99E-03,1.37E-02
9510,7.24E-03,1.38E-02
9511,6.94E-03,2.29E-02
9512,8.98E-03,1.79E-02
9513,8.45E-03,1.78E-02
9514,6.58E-03,6.66E-03
9515,6.68E-03,6.75E-03
9516,5.86E-03,6.81E-03
9517,5.99E-03,6.76E-03
9518,6.65E-03,6.60E-03
9519,9.89E-03,1.32E-02
9520,9.84E-03,1.33E-02
9521,5.56E-03,1.12E-02
9522,4.58E-03,1.15E-02
9523,4.83E-03,1.13E-02
9524,8.48E-03,1.10E-02
9525,7.68E-03,1.11E-02
9526,7.30E-03,1.45E-02
9527,6.85E-03,1.44E-02
9528,5.49E-03,1.42E-02
9529,6.96E-03,1.43E-02
9530,7.09E-03,1.48E-02
9531,7.47E-03,1.46E-02
9532,8.89E-03,1.61E-02
9533,7.47E-03,1.61E-02
9534,7.59E-03,1.62E-02
9535,9.31E-03,1.37E-02
9536,9.86E-03,2.11E-02
9537,9.07E-03,2.10E-02
9538,9.59E-03,2.11E-02
9539,6.35E-03,1.46E-02
9540,7.26E-03,1.45E-02
9541,7.42E-03,1.02E-02
9542,6.00E-03,1.04E-02
9543,6.47E-03,1.05E-02
9544,8.04E-03,1.04E-02
9545,5.09E-03,1.11E-02
9546,5.23E-03,1.11E-02
9547,4.41E-03,1.10E-02
9548,3.77E-03,1.10E-02
9549,6.52E-03,1.13E-02
9550,6.12E-03,1.12E-02
9551,8.52E-03,1.18E-02
9552,8.93E-03,1.18E-02
9553,8.54E-03,1.59E-02
9554,8.69E-03,1.59E-02
9555,6.66E-03,1.59E-02
9556,4.85E-03,8.23E-03
9557,6.27E-03,8.23E-03
9558,5.92E-03,8.47E-03
9559,9.43E-03,1.51E-02
9560,8.63E-03,1.51E-02
9561,7.81E-03,1.11E-02
9562,5.13E-03,1.11E-02
9563,5.73E-03,1.09E-02
9564,6.80E-03,1.08E-02
9565,9.43E-03,1.26E-02
9566,8.11E-03,1.26E-02
9567,8.03E-03,1.26E-02
9568,7.36E-03,1.57E-02
9569,5.54E-03,1.58E-02
9570,9.67E-03,1.60E-02
9571,7.63E-03,1.58E-02
9572,8.73E-03,1.57E-02
9573,7.33E-03,1.20E-02
9574,7.41E-03,1.20E-02
9575,8.45E-03,1.59E-02
9576,1.03E-02,2.37E-02
9577,1.05E-02,2.38E-02
9578,7.10E-03,1.20E-02
9579,1.00E-02,6.84E-03
9580,1.07E-02,6.66E-03
9581,8.12E-03,6.54E-03
9582,5.70E-03,1.64E-02
9583,5.98E-03,1.63E-02
9584,6.14E-03,1.63E-02
9585,8.19E-03,9.87E-03
9586,8.41E-03,9.74E-03
9587,8.53E-03,9.51E-03
9588,6.15E-03,1.63E-02
9589,5.66E-03,1.65E-02
9590,5.42E-03,1.64E-02
9591,9.83E-03,1.61E-02
9592,9.18E-03,1.63E-02
9593,8.98E-03,1.17E-02
9594,7.06E-03,1.18E-02
9595,7.39E-03,1.18E-02
9596,9.04E-03,6.78E-03
9597,8.91E-03,6.85E-03
9598,8.36E-03,7.63E-03
9599,9.27E-03,7.56E-03
9600,9.87E-03,2.55E-02
9601,1.04E-02,2.52E-02
9602,9.53E-03,2.55E-02
9603,6.84E-03,2.62E-02
9604,5.61E-03,2.66E-02
9605,8.89E-03,2.74E-02
9606,8.62E-03,2.75E-02
9607,5.58E-03,2.79E-02
9608,6.30E-03,2.79E-02
9609,8.29E-03,2.72E-02
9610,8.13E-03,2.75E-02
9611,8.43E-03,1.10E-02
9612,8.81E-03,1.10E-02
9613,7.41E-03,1.08E-02
9614,7.02E-03,1.07E-02
9615,7.28E-03,1.10E-02
9616,7.18E-03,1.09E-02
9617,7.52E-03,7.95E-03
9618,8.42E-03,7.86E-03
9619,8.32E-03,8.66E-03
9620,7.67E-03,8.71E-03
9621,6.12E-03,8.83E-03
9622,6.94E-03,8.81E-03
9623,7.45E-03,8.57E-03
9624,6.21E-03,8.72E-03
9625,6.03E-03,8.64E-03
9626,7.07E-03,8.51E-03
9627,6.48E-03,8.46E-03
9628,7.55E-03,8.41E-03
9629,9.50E-03,2.95E-02
9630,8.13E-03,2.90E-02
9631,6.11E-03,2.90E-02
9632,6.64E-03,2.41E-02
9633,8.64E-03,2.40E-02
9634,7.32E-03,1.15E-02
9635,6.53E-03,1.13E-02
9636,7.11E-03,1.15E-02
9637,7.91E-03,1.18E-02
9638,7.53E-03,9.58E-03
9639,4.98E-03,9.77E-03
9640,6.92E-03,9.75E-03
9641,7.72E-03,9.47E-03
9642,7.23E-03,9.59E-03
9643,9.16E-03,2.94E-02
9644,8.91E-03,2.90E-02
9645,8.34E-03,1.02E-02
9646,8.38E-03,1.02E-02
9647,7.52E-03,1.00E-02
9648,6.27E-03,2.79E-02
9649,7.77E-03,2.78E-02
9650,1.05E-02,1.32E-02
9651,1.07E-02,1.30E-02
9652,6.01E-03,6.81E-03
9653,6.50E-03,6.95E-03
9654,4.84E-03,6.65E-03
9655,4.37E-03,2.31E-02
9656,4.06E-03,2.28E-02
9657,3.12E-03,2.25E-02
9658,1.03E-02,2.03E-02
9659,9.48E-03,2.08E-02
9660,9.13E-03,2.02E-02
9661,7.88E-03,9.16E-03
9662,7.33E-03,9.28E-03
9663,1.07E-02,1.32E-02
9664,1.06E-02,1.30E-02
9665,7.85E-03,1.97E-02
9666,7.88E-03,1.97E-02
9667,7.96E-03,1.93E-02
9668,9.54E-03,1.27E-02
9669,7.80E-03,2.80E-02
9670,6.49E-03,2.78E-02
9671,6.91E-03,2.75E-02
9672,7.10E-03,2.77E-02
9673,9.02E-03,1.18E-02
9674,8.86E-03,1.19E-02
9675,9.38E-03,1.17E-02
9676,7.60E-03,3.00E-02
9677,7.31E-03,3.03E-02
9678,6.67E-03,2.98E-02
9679,6.79E-03,2.96E-02
9680,7.26E-03,2.99E-02
9681,7.08E-03,2.96E-02
9682,1.05E-02,2.96E-02
9683,1.02E-02,2.91E-02
9684,9.84E-03,2.93E-02
9685,6.89E-03,2.30E-02
9686,1.20E-02,2.27E-02
9687,8.66E-03,2.22E-02
9688,6.90E-03,2.16E-02
9689,7.62E-03,2.16E-02
9690,4.83E-03,1.40E-02
9691,6.04E-03,1.40E-02
9692,8.35E-03,3.22E-02
9693,6.92E-03,3.22E-02
9694,6.29E-03,3.22E-02
9695,1.01E-02,2.20E-02
9696,1.17E-02,2.18E-02
9697,1.19E-02,2.16E-02
9698,4.68E-03,1.61E-02
9699,6.37E-03,1.58E-02
9700,1.18E-02,9.93E-03
9701,1.05E-02,1.07E-02
9702,1.33E-02,1.01E-02
9703,8.16E-03,2.23E-02
9704,8.97E-03,2.22E-02
9705,7.53E-03,2.23E-02
9706,4.90E-03,2.35E-02
9707,6.55E-03,2.35E-02
9708,8.61E-03,3.67E-02
9709,7.01E-03,3.62E-02
9710,7.59E-03,3.67E-02
9711,5.19E-03,1.81E-02
9712,7.26E-03,1.79E-02
9713,6.47E-03,1.80E-02
9714,4.73E-03,1.81E-02
9715,4.95E-03,1.83E-02
9716,4.18E-03,1.51E-02
9717,3.45E-03,1.50E-02
9718,1.33E-03,1.50E-02
9719,1.47E-03,1.51E-02
9720,4.91E-03,1.59E-02
9721,4.85E-03,1.59E-02
9722,4.77E-03,1.58E-02
9723,7.36E-03,1.65E-02
9724,6.95E-03,1.66E-02
9725,4.48E-03,1.74E-02
9726,5.50E-03,1.75E-02
9727,4.96E-03,1.75E-02
9728,8.14E-03,1.84E-02
9729,7.32E-03,1.85E-02
9730,7.58E-03,1.85E-02
9731,7.00E-03,1.83E-02
9732,4.54E-03,1.79E-02
9733,4.45E-03,1.78E-02
9734,3.98E-03,1.78E-02
9735,4.97E-03,1.06E-02
9736,4.94E-03,1.06E-02
9737,4.95E-03,1.07E-02
9738,3.75E-03,1.90E-02
9739,4.07E-03,1.90E-02
9740,3.96E-03,1.91E-02
9741,5.11E-03,1.37E-02
9742,5.18E-03,1.37E-02
9743,5.76E-03,1.37E-02
9744,5.93E-03,1.19E-02
9745,6.04E-03,1.19E-02
9746,5.75E-03,1.19E-02
9747,4.25E-03,1.41E-02
9748,4.25E-03,1.41E-02
9749,3.99E-03,1.41E-02
9750,4.39E-03,1.70E-02
9751,6.81E-03,1.71E-02
9752,3.85E-03,1.17E-02
9753,4.68E-03,1.14E-02
9754,3.74E-03,1.16E-02
9755,1.04E-02,1.30E-02
9756,6.09E-03,1.34E-02
9757,6.83E-03,1.34E-02
9758,6.16E-03,1.34E-02
9759,4.47E-03,1.45E-02
9760,3.85E-03,1.45E-02
9761,3.83E-03,1.45E-02
9762,4.70E-03,1.43E-02
9763,4.26E-03,1.42E-02
9764,4.28E-03,1.43E-02
9765,5.54E-03,1.18E-02
9766,5.92E-03,1.18E-02
9767,5.85E-03,1.63E-02
9768,5.93E-03,1.60E-02
9769,5.86E-03,1.63E-02
9770,5.44E-03,1.79E-02
9771,5.03E-03,1.78E-02
9772,5.11E-03,1.76E-02
9773,5.24E-03,1.86E-02
9774,5.26E-03,1.84E-02
9775,6.11E-03,1.83E-02
9776,6.52E-03,1.40E-02
9777,6.60E-03,1.41E-02
9778,6.53E-03,1.41E-02
9779,5.32E-03,8.23E-03
9780,5.30E-03,8.02E-03
9781,5.14E-03,8.24E-03
9782,5.43E-03,1.95E-02
9783,5.04E-03,1.96E-02
9784,5.42E-03,1.95E-02
9785,4.45E-03,1.90E-02
9786,4.68E-03,1.91E-02
9787,3.72E-03,1.88E-02
9788,6.61E-03,1.72E-02
9789,6.02E-03,1.70E-02
9790,7.11E-03,1.70E-02
9791,7.29E-03,1.72E-02
9792,6.41E-03,1.42E-02
9793,6.17E-03,1.41E-02
9794,6.00E-03,1.42E-02
9795,4.94E-03,1.33E-02
9796,4.77E-03,1.33E-02
9797,4.74E-03,1.34E-02
9798,4.30E-03,1.76E-02
9799,5.37E-03,1.77E-02
9800,4.94E-03,1.77E-02
9801,4.78E-03,1.38E-02
9802,4.17E-03,1.37E-02
9803,3.63E-03,1.37E-02
9804,5.22E-03,6.23E-03
9805,5.99E-03,6.15E-03
9806,6.21E-03,6.29E-03
9807,5.46E-03,1.10E-02
9808,5.98E-03,1.10E-02
9809,5.46E-03,1.07E-02
9810,5.24E-03,1.59E-02
9811,3.68E-03,1.57E-02
9812,6.55E-03,1.59E-02
9813,5.12E-03,6.68E-03
9814,4.92E-03,6.81E-03
9815,5.75E-03,6.87E-03
9816,5.22E-03,2.00E-02
9817,4.62E-03,2.03E-02
9818,4.73E-03,2.00E-02
9819,3.10E-03,7.73E-03
9820,2.54E-03,7.72E-03
9821,2.79E-03,7.67E-03
9822,5.16E-03,1.12E-02
9823,6.51E-03,1.13E-02
9824,6.24E-03,1.15E-02
9825,4.37E-03,6.21E-03
9826,4.70E-03,6.26E-03
9827,4.30E-03,6.20E-03
9828,4.93E-03,1.21E-02
9829,5.12E-03,1.22E-02
9830,5.97E-03,1.21E-02
9831,5.44E-03,1.09E-02
9832,6.50E-03,1.06E-02
9833,5.89E-03,2.14E-02
9834,6.18E-03,2.13E-02
9835,5.53E-03,2.15E-02
9836,4.01E-03,1.30E-02
9837,4.25E-03,1.29E-02
9838,3.79E-03,1.29E-02
9839,5.28E-03,1.69E-02
9840,5.90E-03,1.68E-02
9841,5.62E-03,1.70E-02
9842,5.36E-03,5.41E-03
9843,5.26E-03,5.32E-03
9844,5.49E-03,5.31E-03
9845,5.53E-03,1.38E-02
9846,5.85E-03,1.39E-02
9847,4.87E-03,1.42E-02
9848,4.88E-03,5.22E-03
9849,4.79E-03,5.17E-03
9850,4.26E-03,5.29E-03
9851,5.35E-03,1.63E-02
9852,4.77E-03,1.62E-02
9853,4.26E-03,1.62E-02
9854,6.99E-03,1.29E-02
9855,6.05E-03,1.30E-02
9856,5.24E-03,1.02E-02
9857,5.25E-03,1.05E-02
9858,4.79E-03,1.05E-02
9859,4.81E-03,5.28E-03
9860,5.16E-03,5.35E-03
9861,5.14E-03,5.32E-03
9862,6.02E-03,1.03E-02
9863,6.48E-03,1.06E-02
9864,6.59E-03,1.05E-02
9865,5.52E-03,2.07E-02
9866,4.77E-03,2.05E-02
9867,5.36E-03,2.07E-02
9868,6.14E-03,1.16E-02
9869,7.88E-03,1.17E-02
9870,3.77E-03,1.14E-02
9871,6.25E-03,1.62E-02
9872,7.21E-03,1.61E-02
9873,6.39E-03,1.62E-02
9874,7.59E-03,1.44E-02
9875,5.79E-03,9.67E-03
9876,5.39E-03,9.64E-03
9877,4.94E-03,9.85E-03
9878,5.39E-03,1.57E-02
9879,5.30E-03,1.57E-02
9880,6.07E-03,1.57E-02
9881,5.05E-03,1.48E-02
9882,7.40E-03,1.49E-02
9883,7.55E-03,1.49E-02
9884,7.46E-03,1.48E-02
9885,2.44E-03,1.12E-02
9886,5.20E-03,1.12E-02
9887,5.28E-03,2.44E-02
9888,5.74E-03,2.39E-02
9889,5.45E-03,2.43E-02
9890,5.26E-03,2.08E-02
9891,5.68E-03,2.11E-02
9892,5.30E-03,2.10E-02
9893,6.02E-03,1.06E-02
9894,5.39E-03,1.05E-02
9895,5.63E-03,1.04E-02
9896,3.57E-03,2.06E-02
9897,3.42E-03,2.04E-02
9898,4.08E-03,2.02E-02
9899,5.60E-03,9.96E-03
9900,6.40E-03,1.00E-02
9901,5.33E-03,1.03E-02
9902,4.40E-03,1.19E-02
9903,4.53E-03,1.21E-02
9904,4.60E-03,1.22E-02
9905,5.52E-03,2.49E-02
9906,5.75E-03,2.49E-02
9907,6.18E-03,2.53E-02
9908,5.65E-03,2.46E-02
9909,4.48E-03,2.45E-02
9910,5.53E-03,2.49E-02
9911,5.35E-03,8.01E-03
9912,6.59E-03,8.03E-03
9913,5.62E-03,9.06E-03
9914,5.80E-03,9.03E-03
9915,5.57E-03,9.20E-03
9916,4.91E-03,1.29E-02
9917,6.27E-03,1.27E-02
9918,4.92E-03,1.30E-02
9919,4.50E-03,2.06E-02
9920,4.42E-03,2.08E-02
9921,4.22E-03,2.08E-02
9922,5.00E-03,1.03E-02
9923,5.96E-03,1.06E-02
9924,5.41E-03,1.05E-02
9925,4.34E-03,1.61E-02
9926,5.92E-03,1.61E-02
9927,4.46E-03,1.04E-02
9928,3.71E-03,1.03E-02
9929,4.22E-03,1.04E-02
9930,4.23E-03,2.14E-02
9931,4.47E-03,2.17E-02
9932,4.43E-03,2.16E-02
9933,1.04E-02,1.55E-02
9934,7.06E-03,2.40E-02
9935,7.12E-03,2.37E-02
9936,5.14E-03,1.32E-02
9937,6.08E-03,1.35E-02
9938,5.85E-03,1.33E-02
9939,6.02E-03,1.07E-02
9940,6.53E-03,1.07E-02
9941,5.83E-03,1.06E-02
9942,5.90E-03,1.34E-02
9943,6.33E-03,1.29E-02
9944,6.68E-03,1.31E-02
9945,4.08E-03,1.75E-02
9946,4.62E-03,1.74E-02
9947,4.77E-03,1.75E-02
9948,5.79E-03,8.35E-03
9949,4.50E-03,8.31E-03
9950,4.60E-03,8.09E-03
9951,3.58E-03,1.19E-02
9952,3.72E-03,1.20E-02
9953,3.77E-03,1.22E-02
9954,6.07E-03,2.74E-02
9955,6.08E-03,2.70E-02
9956,6.97E-03,2.69E-02
9957,6.38E-03,9.64E-03
9958,7.25E-03,9.52E-03
9959,4.13E-03,8.77E-03
9960,4.11E-03,8.81E-03
9961,3.95E-03,8.86E-03
9962,5.55E-03,8.34E-03
9963,6.70E-03,8.55E-03
9964,5.57E-03,8.61E-03
9965,4.27E-03,5.22E-03
9966,4.01E-03,5.22E-03
9967,4.87E-03,5.35E-03
9968,3.47E-03,9.60E-03
9969,4.09E-03,9.71E-03
9970,3.62E-03,9.81E-03
9971,4.19E-03,9.39E-03
9972,5.00E-03,9.43E-03
9973,5.44E-03,9.17E-03
9974,5.54E-03,1.29E-02
9975,5.63E-03,1.29E-02
9976,6.17E-03,1.32E-02
9977,6.38E-03,1.33E-02
9978,6.57E-03,1.34E-02
9979,5.94E-03,1.36E-02
9980,5.42E-03,1.92E-02
9981,3.94E-03,4.54E-03
9982,4.73E-03,4.61E-03
9983,4.14E-03,4.46E-03
9984,3.30E-03,4.41E-03
9985,5.49E-03,1.33E-02
9986,6.27E-03,1.33E-02
9987,6.22E-03,1.36E-02
9988,5.46E-03,6.48E-03
9989,5.04E-03,6.45E-03
9990,5.76E-03,6.27E-03
9991,4.39E-03,1.83E-02
9992,2.53E-03,1.85E-02
9993,4.92E-03,1.84E-02
9994,5.93E-03,1.21E-02
9995,5.29E-03,1.20E-02
9996,5.91E-03,1.19E-02
9997,5.83E-03,4.89E-03
9998,4.06E-03,4.78E-03
9999,3.78E-03,4.88E-03
10000,5.19E-03,5.03E-03
10001,6.71E-03,2.05E-02
10002,7.11E-03,2.05E-02
10003,5.21E-03,1.33E-02
10004,5.63E-03,1.32E-02
10005,4.64E-03,1.34E-02
10006,5.63E-03,3.84E-02
10007,6.20E-03,3.74E-02
10008,5.32E-03,3.78E-02
10009,6.48E-03,1.25E-02
10010,6.40E-03,1.25E-02
10011,6.46E-03,1.26E-02
10012,5.44E-03,2.13E-02
10013,5.50E-03,2.11E-02
10014,5.58E-03,2.12E-02
10015,9.48E-03,4.76E-03
10016,9.32E-03,5.03E-03
10017,7.92E-03,4.82E-03
10018,7.70E-03,4.60E-03
10019,5.91E-03,1.38E-02
10020,5.87E-03,1.36E-02
10021,5.44E-03,1.37E-02
10022,1.06E-02,1.49E-02
10023,1.02E-02,1.50E-02
10024,1.07E-02,1.53E-02
10025,1.22E-02,1.52E-02
10026,5.87E-03,4.45E-03
10027,6.14E-03,4.48E-03
10028,5.53E-03,4.22E-03
10029,5.94E-03,1.45E-02
10030,6.33E-03,1.47E-02
10031,5.90E-03,1.47E-02
10032,4.99E-03,1.61E-02
10033,4.91E-03,1.62E-02
10034,4.89E-03,1.62E-02
10035,5.96E-03,2.84E-03
10036,6.44E-03,2.65E-03
10037,5.39E-03,1.21E-02
10038,5.52E-03,1.20E-02
10039,5.24E-03,1.21E-02
10040,7.00E-03,1.30E-02
10041,7.29E-03,1.30E-02
10042,3.67E-03,1.46E-02
10043,3.56E-03,1.46E-02
10044,3.54E-03,1.46E-02
10045,5.96E-03,3.46E-02
10046,6.33E-03,3.37E-02
10047,5.12E-03,3.42E-02
10048,5.90E-03,2.43E-02
10049,7.13E-03,2.43E-02
10050,6.02E-03,2.02E-02
10051,6.14E-03,2.04E-02
10052,7.86E-03,2.03E-02
10053,8.44E-03,2.01E-02
10054,8.33E-03,7.15E-03
10055,7.58E-03,7.29E-03
10056,7.95E-03,7.30E-03
10057,7.75E-03,7.15E-03
10058,5.21E-03,1.09E-02
10059,6.10E-03,1.09E-02
10060,5.46E-03,1.08E-02
10061,4.97E-03,1.00E-02
10062,5.30E-03,1.00E-02
10063,5.10E-03,9.92E-03
10064,8.20E-03,7.14E-03
10065,7.62E-03,7.19E-03
10066,5.60E-03,7.06E-03
10067,6.54E-03,7.03E-03
10068,4.90E-03,1.78E-02
10069,4.99E-03,1.76E-02
10070,4.60E-03,1.77E-02
10071,5.07E-03,1.27E-02
10072,3.75E-03,1.26E-02
10073,4.01E-03,1.26E-02
10074,6.84E-03,3.05E-02
10075,6.64E-03,3.01E-02
10076,6.13E-03,1.04E-02
10077,5.11E-03,1.02E-02
10078,5.91E-03,9.95E-03
10079,7.32E-03,1.01E-02
10080,6.82E-03,6.53E-03
10081,1.00E-02,6.40E-03
10082,6.67E-03,6.31E-03
10083,6.03E-03,6.43E-03
10084,6.66E-03,2.67E-02
10085,6.72E-03,2.68E-02
10086,7.42E-03,2.64E-02
10087,7.79E-03,2.63E-02
10088,6.53E-03,1.44E-02
10089,5.45E-03,1.46E-02
10090,5.25E-03,1.43E-02
10091,5.47E-03,1.43E-02
10092,4.87E-03,1.12E-02
10093,5.27E-03,1.13E-02
10094,5.56E-03,1.13E-02
10095,5.51E-03,1.09E-02
10096,4.18E-03,1.10E-02
10097,5.66E-03,9.18E-03
10098,5.77E-03,9.30E-03
10099,5.87E-03,9.17E-03
10100,4.21E-03,2.77E-02
10101,5.08E-03,2.77E-02
10102,5.09E-03,2.82E-02
10103,4.96E-03,1.32E-03
10104,4.95E-03,1.07E-03
10105,5.03E-03,1.12E-03
10106,6.81E-03,1.30E-02
10107,5.94E-03,1.30E-02
10108,6.53E-03,1.28E-02
10109,7.91E-03,1.29E-02
10110,5.39E-03,1.21E-02
10111,4.71E-03,1.20E-02
10112,5.39E-03,1.20E-02
10113,9.46E-03,1.13E-02
10114,1.04E-02,1.07E-02
10115,6.57E-03,1.13E-02
10116,8.00E-03,9.98E-03
10117,1.07E-02,1.03E-02
10118,9.63E-03,1.42E-02
10119,1.00E-02,1.35E-02
10120,7.99E-03,1.34E-02
10121,8.25E-03,1.26E-02
10122,6.71E-03,1.28E-02
10123,2.21E-03,2.26E-02
10124,3.53E-03,2.25E-02
10125,7.99E-03,1.41E-02
10126,8.37E-03,1.26E-02
10127,1.04E-02,1.25E-02
10128,9.94E-03,1.26E-02
10129,9.58E-03,1.26E-02
10130,6.47E-03,1.26E-02
10131,8.06E-03,1.26E-02
10132,5.35E-03,2.22E-02
10133,7.07E-03,7.52E-03
10134,7.68E-03,7.38E-03
10135,6.81E-03,7.66E-03
10136,6.73E-03,7.65E-03
10137,5.17E-03,7.58E-03
10138,7.35E-03,2.46E-02
10139,9.90E-03,2.52E-02
10140,7.35E-03,2.49E-02
10141,6.23E-03,1.32E-02
10142,9.82E-03,1.89E-02
10143,8.42E-03,1.90E-02
10144,8.84E-03,1.87E-02
10145,1.07E-02,7.25E-03
10146,1.25E-02,7.44E-03
10147,9.99E-03,7.49E-03
10148,6.68E-03,7.21E-03
10149,8.06E-03,1.40E-02
10150,7.42E-03,1.41E-02
10151,7.94E-03,1.44E-02
10152,7.79E-03,4.42E-03
10153,9.47E-03,4.79E-03
10154,1.20E-02,5.30E-03
10155,8.99E-03,5.51E-03
10156,8.94E-03,1.31E-02
10157,8.88E-03,1.32E-02
10158,8.75E-03,1.30E-02
10159,8.61E-03,1.44E-02
10160,8.17E-03,1.72E-02
10161,6.55E-03,1.73E-02
10162,9.44E-03,1.29E-02
10163,9.26E-03,1.31E-02
10164,1.02E-02,1.33E-02
10165,8.89E-03,1.32E-02
10166,1.14E-02,1.18E-02
10167,1.01E-02,1.18E-02
10168,9.75E-03,5.54E-03
10169,5.96E-03,8.38E-03
10170,5.37E-03,2.41E-02
10171,7.23E-03,2.43E-02
10172,7.82E-03,2.47E-02
10173,7.20E-03,2.47E-02
10174,7.06E-03,1.29E-02
10175,7.81E-03,1.27E-02
10176,7.17E-03,1.63E-02
10177,7.24E-03,2.69E-02
10178,5.10E-03,2.66E-02
10179,8.33E-03,2.72E-02
10180,8.57E-03,2.69E-02
10181,1.04E-02,2.88E-02
10182,9.31E-03,2.88E-02
10183,7.48E-03,1.50E-02
10184,7.49E-03,1.51E-02
10185,7.65E-03,1.52E-02
10186,7.85E-03,1.51E-02
10187,7.19E-03,1.92E-02
10188,7.17E-03,1.91E-02
10189,6.64E-03,1.91E-02
10190,6.73E-03,1.90E-02
10191,6.79E-03,1.24E-02
10192,8.91E-03,1.24E-02
10193,1.00E-02,1.27E-02
10194,7.70E-03,6.64E-03
10195,8.22E-03,6.53E-03
10196,8.11E-03,6.73E-03
10197,8.49E-03,6.81E-03
10198,7.55E-03,2.11E-02
10199,9.61E-03,2.09E-02
10200,9.53E-03,2.08E-02
10201,6.28E-03,2.06E-02
10202,6.21E-03,1.40E-02
10203,8.23E-03,1.40E-02
10204,8.36E-03,1.40E-02
10205,1.01E-02,5.57E-03
10206,1.06E-02,5.52E-03
10207,9.02E-03,5.59E-03
10208,8.54E-03,5.64E-03
10209,1.01E-02,1.23E-02
10210,7.24E-03,1.23E-02
10211,6.29E-03,1.25E-02
10212,8.65E-03,1.25E-02
10213,6.66E-03,1.91E-02
10214,9.06E-03,1.91E-02
10215,8.46E-03,1.90E-02
10216,6.06E-03,1.90E-02
10217,7.81E-03,1.15E-02
10218,1.05E-02,1.12E-02
10219,9.78E-03,1.14E-02
10220,8.56E-03,1.11E-02
10221,7.92E-03,2.48E-02
10222,7.03E-03,2.47E-02
10223,7.45E-03,2.46E-02
10224,7.87E-03,1.11E-02
10225,9.60E-03,1.12E-02
10226,8.20E-03,1.10E-02
10227,7.21E-03,1.10E-02
10228,8.33E-03,7.48E-03
10229,9.11E-03,7.49E-03
10230,1.10E-02,7.18E-03
10231,1.05E-02,7.19E-03
10232,1.06E-02,1.25E-02
10233,9.22E-03,1.24E-02
10234,8.28E-03,1.23E-02
10235,8.37E-03,1.24E-02
10236,7.20E-03,9.77E-03
10237,8.37E-03,9.99E-03
10238,7.55E-03,9.95E-03
10239,4.95E-03,1.01E-02
10240,7.41E-03,7.46E-03
10241,9.05E-03,7.43E-03
10242,1.02E-02,7.20E-03
10243,8.70E-03,6.09E-03
10244,6.91E-03,6.43E-03
10245,8.60E-03,5.96E-03
10246,9.39E-03,6.23E-03
10247,9.19E-03,1.28E-02
10248,6.51E-03,1.25E-02
10249,8.08E-03,1.27E-02
10250,6.77E-03,1.37E-02
10251,9.26E-03,1.35E-02
10252,9.60E-03,1.34E-02
10253,9.00E-03,4.42E-03
10254,9.00E-03,4.68E-03
10255,9.14E-03,4.38E-03
10256,9.87E-03,4.63E-03
10257,7.56E-03,3.49E-02
10258,7.56E-03,3.55E-02
10259,3.73E-03,4.64E-03
10260,2.72E-03,4.56E-03
10261,9.55E-03,1.36E-02
10262,3.25E-03,1.11E-02
10263,6.70E-03,2.79E-02
10264,8.77E-03,2.76E-02
10265,3.50E-03,9.64E-03
10266,2.67E-03,9.71E-03
10267,1.01E-02,2.73E-02
10268,8.83E-03,2.70E-02
10269,5.20E-03,9.83E-03
10270,6.77E-03,9.79E-03
10271,8.59E-03,1.27E-02
10272,9.64E-03,1.25E-02
10273,1.04E-02,9.43E-03
10274,8.84E-03,9.41E-03
10275,6.64E-03,2.45E-02
10276,9.94E-03,2.49E-02
10277,5.93E-03,1.09E-02
10278,4.34E-03,1.07E-02
10279,1.04E-02,1.05E-02
10280,1.14E-02,1.03E-02
10281,7.83E-03,5.22E-03
10282,1.02E-02,5.31E-03
10283,4.01E-03,1.13E-02
10284,3.62E-03,1.13E-02
10285,7.72E-03,1.42E-02
10286,8.87E-03,1.42E-02
10287,5.71E-03,1.69E-02
10288,7.68E-03,1.70E-02
10289,8.90E-03,1.43E-02
10290,7.34E-03,1.46E-02
10291,8.35E-03,1.43E-02
10292,3.36E-03,1.27E-02
10293,2.24E-03,1.27E-02
10294,3.61E-03,1.47E-02
10295,2.48E-03,1.44E-02
10296,3.80E-03,1.44E-02
10297,6.86E-03,1.92E-02
10298,6.80E-03,1.92E-02
10299,8.10E-03,1.51E-02
10300,9.01E-03,3.31E-02
10301,7.62E-03,3.25E-02
10302,6.56E-03,1.61E-02
10303,7.29E-03,1.61E-02
10304,7.26E-03,1.61E-02
10305,6.81E-03,1.70E-02
10306,8.00E-03,1.70E-02
10307,5.24E-03,1.64E-02
10308,5.46E-03,1.63E-02
10309,5.38E-03,1.64E-02
10310,4.29E-03,1.64E-02
10311,7.05E-03,1.63E-02
10312,6.25E-03,1.64E-02
10313,6.99E-03,1.25E-02
10314,5.17E-03,1.39E-02
10315,5.32E-03,1.38E-02
10316,3.97E-03,1.38E-02
10317,5.46E-03,1.39E-02
10318,6.33E-03,1.64E-02
10319,6.18E-03,1.65E-02
10320,6.00E-03,1.65E-02
10321,5.60E-03,1.64E-02
10322,6.31E-03,1.63E-02
10323,7.27E-03,1.63E-02
10324,7.18E-03,1.81E-02
10325,1.03E-02,1.90E-02
10326,9.65E-03,1.90E-02
10327,8.34E-03,1.88E-02
10328,7.16E-03,1.86E-02
10329,1.16E-02,1.41E-02
10330,1.01E-02,1.41E-02
10331,4.69E-03,1.26E-02
10332,6.13E-03,1.28E-02
10333,9.22E-03,1.25E-02
10334,6.67E-03,1.27E-02
10335,6.54E-03,1.26E-02
10336,6.89E-03,2.00E-02
10337,7.83E-03,2.01E-02
10338,6.62E-03,2.01E-02
10339,5.12E-03,2.00E-02
10340,7.06E-03,1.99E-02
10341,6.80E-03,1.99E-02
10342,5.72E-03,1.10E-02
10343,7.07E-03,1.08E-02
10344,6.99E-03,1.10E-02
10345,7.02E-03,8.68E-03
10346,7.14E-03,8.64E-03
10347,9.59E-03,1.58E-02
10348,7.76E-03,1.59E-02
10349,3.82E-03,1.64E-02
10350,4.51E-03,1.62E-02
10351,5.06E-03,1.63E-02
10352,4.37E-03,1.65E-02
10353,2.63E-03,1.66E-02
10354,3.54E-03,1.67E-02
10355,6.67E-03,1.33E-02
10356,6.12E-03,2.22E-02
10357,7.14E-03,2.22E-02
10358,7.29E-03,2.21E-02
10359,6.80E-03,2.20E-02
10360,5.37E-03,2.22E-02
10361,6.93E-03,2.21E-02
10362,7.55E-03,1.22E-02
10363,8.40E-03,1.22E-02
10364,6.11E-03,1.23E-02
10365,7.11E-03,1.23E-02
10366,6.96E-03,5.16E-03
10367,7.43E-03,5.27E-03
10368,6.41E-03,2.31E-02
10369,7.10E-03,2.31E-02
10370,7.01E-03,2.34E-02
10371,6.10E-03,2.34E-02
10372,4.83E-03,2.31E-02
10373,7.56E-03,1.61E-02
10374,8.60E-03,1.61E-02
10375,8.04E-03,1.61E-02
10376,6.85E-03,2.13E-02
10377,6.77E-03,2.14E-02
10378,7.28E-03,1.61E-02
10379,7.11E-03,1.62E-02
10380,7.20E-03,1.60E-02
10381,7.13E-03,1.60E-02
10382,7.15E-03,5.97E-03
10383,6.87E-03,6.00E-03
10384,6.99E-03,5.85E-03
10385,6.89E-03,5.85E-03
10386,6.89E-03,6.06E-03
10387,7.12E-03,5.94E-03
10388,9.44E-03,1.47E-02
10389,6.95E-03,1.50E-02
10390,7.32E-03,2.20E-02
10391,7.97E-03,2.19E-02
10392,8.09E-03,2.18E-02
10393,6.57E-03,2.39E-02
10394,6.22E-03,2.36E-02
10395,5.79E-03,2.37E-02
10396,7.13E-03,2.39E-02
10397,6.34E-03,2.41E-02
10398,6.46E-03,2.41E-02
10399,7.25E-03,2.33E-02
10400,7.50E-03,2.35E-02
10401,5.47E-03,1.08E-02
10402,5.75E-03,1.10E-02
10403,5.81E-03,1.10E-02
10404,4.19E-03,1.08E-02
10405,6.15E-03,1.06E-02
10406,5.85E-03,1.05E-02
10407,8.73E-03,1.22E-02
10408,8.37E-03,1.20E-02
10409,9.25E-03,1.21E-02
10410,8.19E-03,1.23E-02
10411,6.31E-03,1.67E-02
10412,5.38E-03,1.66E-02
10413,5.74E-03,1.65E-02
10414,7.56E-03,1.66E-02
10415,8.03E-03,8.24E-03
10416,7.96E-03,8.31E-03
10417,7.26E-03,8.42E-03
10418,9.61E-03,1.06E-02
10419,9.05E-03,1.05E-02
10420,7.91E-03,1.64E-02
10421,4.53E-03,1.03E-02
10422,5.80E-03,1.02E-02
10423,6.51E-03,1.03E-02
10424,5.34E-03,1.03E-02
10425,5.65E-03,1.01E-02
10426,5.15E-03,1.03E-02
10427,7.11E-03,2.76E-02
10428,8.12E-03,2.75E-02
10429,6.49E-03,1.18E-02
10430,6.37E-03,1.17E-02
10431,8.30E-03,1.28E-02
10432,8.04E-03,1.26E-02
10433,6.24E-03,1.25E-02
10434,7.84E-03,1.25E-02
10435,1.03E-02,1.30E-02
10436,9.70E-03,1.31E-02
10437,8.65E-03,1.28E-02
10438,9.72E-03,1.31E-02
10439,7.48E-03,9.20E-03
10440,7.55E-03,9.26E-03
10441,7.96E-03,9.13E-03
10442,8.48E-03,9.06E-03
10443,9.16E-03,9.47E-03
10444,9.16E-03,9.71E-03
10445,9.59E-03,1.24E-02
10446,9.17E-03,1.23E-02
10447,5.32E-03,1.12E-02
10448,6.60E-03,3.44E-02
10449,6.06E-03,3.37E-02
10450,5.05E-03,3.43E-02
10451,6.62E-03,3.49E-02
10452,7.17E-03,3.49E-02
10453,4.36E-03,1.86E-02
10454,5.69E-03,1.87E-02
10455,5.31E-03,1.88E-02
10456,5.68E-03,1.87E-02
10457,6.28E-03,1.40E-02
10458,7.37E-03,1.39E-02
10459,7.28E-03,1.40E-02
10460,6.80E-03,1.41E-02
10461,7.44E-03,1.19E-02
10462,7.09E-03,1.20E-02
10463,7.03E-03,1.19E-02
10464,6.61E-03,1.18E-02
10465,6.83E-03,1.23E-02
10466,5.55E-03,1.24E-02
10467,7.30E-03,1.23E-02
10468,6.89E-03,1.22E-02
10469,7.06E-03,6.59E-03
10470,7.18E-03,6.76E-03
10471,6.11E-03,6.76E-03
10472,6.76E-03,6.59E-03
10473,3.59E-03,1.22E-02
10474,2.74E-03,1.21E-02
10475,2.06E-03,1.21E-02
10476,3.32E-03,1.21E-02
10477,6.83E-03,1.04E-02
10478,5.28E-03,1.04E-02
10479,6.64E-03,1.03E-02
10480,6.59E-03,1.03E-02
10481,8.90E-04,1.50E-02
10482,3.76E-03,1.75E-02
10483,6.53E-03,1.74E-02
10484,1.80E-03,1.86E-02
10485,2.62E-03,1.85E-02
10486,2.89E-03,1.86E-02
10487,8.33E-03,1.55E-02
10488,6.53E-03,1.53E-02
10489,6.73E-03,1.54E-02
10490,4.51E-03,1.63E-02
10491,6.21E-03,1.63E-02
10492,2.28E-03,1.84E-02
10493,5.21E-03,1.83E-02
10494,3.78E-03,1.84E-02
10495,4.94E-03,1.40E-02
10496,4.81E-03,1.38E-02
10497,4.78E-03,1.40E-02
10498,4.55E-03,1.38E-02
10499,4.77E-03,1.38E-02
10500,5.67E-03,1.32E-02
10501,6.54E-03,1.31E-02
10502,3.24E-03,5.44E-03
10503,5.61E-03,5.44E-03
10504,5.28E-03,5.41E-03
10505,3.75E-03,1.45E-02
10506,2.38E-03,1.48E-02
10507,3.60E-03,1.45E-02
10508,3.57E-03,1.11E-02
10509,5.81E-03,1.12E-02
10510,1.08E-03,7.11E-03
10511,1.70E-03,7.21E-03
10512,1.88E-03,7.22E-03
10513,3.99E-03,1.08E-02
10514,5.62E-03,1.10E-02
10515,7.45E-03,1.64E-02
10516,5.63E-03,1.64E-02
10517,6.29E-03,1.74E-02
10518,6.00E-03,1.72E-02
10519,3.93E-03,8.32E-03
10520,4.36E-03,8.40E-03
10521,6.66E-03,8.29E-03
10522,3.71E-03,1.17E-02
10523,4.52E-03,1.17E-02
10524,3.23E-03,2.09E-02
10525,4.58E-03,2.11E-02
10526,5.45E-03,2.09E-02
10527,2.43E-03,1.50E-02
10528,3.08E-03,1.50E-02
10529,2.62E-03,1.51E-02
10530,2.19E-03,2.86E-02
10531,3.62E-03,2.90E-02
10532,2.59E-03,2.88E-02
10533,1.71E-03,9.16E-03
10534,1.56E-03,9.07E-03
10535,1.74E-03,9.11E-03
10536,1.90E-03,1.85E-02
10537,1.77E-03,1.85E-02
10538,1.50E-03,1.86E-02
10539,5.70E-03,2.25E-02
10540,6.44E-03,2.24E-02
10541,1.47E-03,7.63E-03
10542,2.45E-03,7.63E-03
10543,2.40E-03,7.70E-03
10544,3.55E-03,5.43E-03
10545,4.16E-03,5.78E-03
10546,5.22E-03,5.79E-03
10547,3.42E-03,1.01E-02
10548,4.49E-03,1.06E-02
10549,5.42E-03,1.07E-02
10550,2.99E-03,3.41E-02
10551,4.55E-03,3.43E-02
10552,5.03E-03,3.32E-02
10553,4.87E-03,9.80E-03
10554,6.53E-03,9.86E-03
10555,5.97E-03,1.44E-02
10556,5.79E-03,1.46E-02
10557,5.95E-03,1.44E-02
10558,6.25E-03,9.74E-03
10559,6.81E-03,9.57E-03
10560,8.13E-03,2.45E-02
10561,6.26E-03,3.82E-02
10562,6.72E-03,7.03E-03
10563,3.89E-03,1.46E-02
10564,6.84E-03,1.40E-02
10565,5.32E-03,1.90E-02
10566,5.13E-03,1.68E-02
10567,9.09E-03,2.50E-02
10568,2.73E-03,2.39E-02
10569,7.61E-03,6.06E-03
10570,1.08E-02,6.31E-03
10571,1.03E-02,1.56E-02
10572,8.95E-03,2.42E-02
10573,5.46E-03,1.25E-02
10574,8.12E-03,1.35E-02
10575,5.87E-03,9.38E-03
10576,7.27E-03,1.59E-02
10577,6.92E-03,1.60E-02
10578,7.60E-03,1.58E-02
10579,7.65E-03,1.57E-02
10580,6.86E-03,1.55E-02
10581,7.33E-03,1.55E-02
10582,7.65E-03,1.54E-02
10583,5.63E-03,1.52E-02
10584,6.30E-03,1.54E-02
10585,6.95E-03,1.55E-02
10586,6.48E-03,1.61E-02
10587,6.83E-03,1.56E-02
10588,6.07E-03,1.53E-02
10589,5.34E-03,1.52E-02
10590,5.29E-03,1.52E-02
10591,4.91E-03,1.52E-02
10592,6.68E-03,1.53E-02
10593,6.67E-03,1.54E-02
10594,5.74E-03,1.53E-02
10595,6.68E-03,1.51E-02
10596,5.35E-03,1.52E-02
10597,6.70E-03,1.61E-02
10598,5.59E-03,1.62E-02
10599,5.19E-03,1.62E-02
10600,5.36E-03,1.63E-02
10601,6.35E-03,1.60E-02
10602,8.08E-03,1.59E-02
10603,8.21E-03,1.57E-02
10604,7.23E-03,1.56E-02
10605,6.79E-03,1.54E-02
10606,6.60E-03,1.62E-02
10607,7.17E-03,1.61E-02
10608,3.56E-03,1.49E-02
10609,3.36E-03,1.48E-02
10610,3.22E-03,1.48E-02
10611,4.88E-03,1.48E-02
10612,6.89E-03,1.48E-02
10613,6.31E-03,1.60E-02
10614,5.12E-03,1.60E-02
10615,8.63E-03,1.51E-02
10616,8.53E-03,1.51E-02
10617,7.61E-03,1.50E-02
10618,8.09E-03,1.48E-02
10619,8.18E-03,1.49E-02
10620,7.22E-03,1.49E-02
10621,2.84E-03,1.50E-02
10622,2.42E-03,1.49E-02
10623,2.20E-03,1.49E-02
10624,2.33E-03,1.50E-02
10625,2.77E-03,1.50E-02
10626,4.52E-03,1.50E-02
10627,4.67E-03,1.51E-02
10628,4.80E-03,1.51E-02
10629,4.34E-03,1.51E-02
10630,4.76E-03,1.51E-02
10631,5.69E-03,1.51E-02
10632,6.59E-03,1.53E-02
10633,6.31E-03,1.52E-02
10634,6.90E-03,1.56E-02
10635,4.84E-03,1.48E-02
10636,5.17E-03,1.49E-02
10637,5.14E-03,1.49E-02
10638,6.55E-03,1.57E-02
10639,4.91E-03,1.62E-02
10640,6.42E-03,1.63E-02
10641,6.96E-03,1.54E-02
10642,6.58E-03,1.53E-02
10643,6.82E-03,1.52E-02
10644,6.46E-03,1.50E-02
10645,6.31E-03,1.61E-02
10646,6.00E-03,1.59E-02
10647,6.34E-03,1.64E-02
10648,7.79E-03,1.60E-02
10649,7.44E-03,1.59E-02
10650,7.72E-03,1.58E-02
10651,7.06E-03,1.52E-02
10652,6.97E-03,1.53E-02
10653,7.46E-03,1.56E-02
10654,7.13E-03,1.55E-02
10655,7.39E-03,1.52E-02
10656,7.36E-03,1.52E-02
10657,7.21E-03,1.51E-02
10658,5.96E-03,1.50E-02
10659,6.72E-03,1.58E-02
10660,5.28E-03,1.53E-02
10661,5.93E-03,1.53E-02
10662,6.58E-03,1.63E-02
10663,7.83E-03,1.61E-02
10664,7.45E-03,1.57E-02
10665,6.50E-03,1.62E-02
10666,8.65E-03,1.64E-02
10667,7.00E-03,1.65E-02
10668,5.94E-03,1.48E-02
10669,5.74E-03,1.49E-02
10670,7.15E-03,1.48E-02
10671,6.73E-03,1.47E-02
10672,6.27E-03,1.47E-02
10673,6.51E-03,1.47E-02
10674,5.66E-03,1.47E-02
10675,4.96E-03,1.47E-02
10676,4.69E-03,1.47E-02
10677,4.49E-03,1.47E-02
10678,4.74E-03,1.47E-02
10679,6.08E-03,1.46E-02
10680,5.86E-03,1.46E-02
10681,7.61E-03,1.47E-02
10682,7.19E-03,1.48E-02
10683,7.17E-03,1.48E-02
10684,6.39E-03,1.49E-02
10685,2.74E-03,1.48E-02
10686,2.84E-03,1.48E-02
10687,2.69E-03,1.48E-02
10688,3.24E-03,1.49E-02
10689,3.80E-03,1.49E-02
10690,4.03E-03,1.49E-02
10691,4.22E-03,1.49E-02
10692,4.45E-03,1.49E-02
10693,4.52E-03,1.49E-02
10694,5.02E-03,1.50E-02
10695,5.67E-03,1.50E-02
10696,6.13E-03,1.50E-02
10697,6.92E-03,1.50E-02
10698,7.21E-03,1.52E-02
10699,7.32E-03,1.50E-02
10700,7.87E-03,1.51E-02
10701,7.06E-03,1.55E-02
10702,7.44E-03,1.54E-02
10703,7.50E-03,1.53E-02
10704,6.82E-03,1.51E-02
10705,6.08E-03,1.52E-02
10706,5.20E-03,1.49E-02
10707,5.11E-03,1.50E-02
10708,7.06E-03,1.64E-02
10709,7.37E-03,1.60E-02
10710,7.30E-03,1.59E-02
10711,7.30E-03,1.58E-02
10712,7.19E-03,1.54E-02
10713,7.18E-03,1.57E-02
10714,8.00E-03,1.56E-02
10715,7.91E-03,1.53E-02
10716,7.21E-03,1.51E-02
10717,8.93E-03,1.58E-02
10718,6.94E-03,1.63E-02
10719,9.17E-03,1.62E-02
10720,7.65E-03,1.52E-02
10721,4.78E-03,1.49E-02
10722,5.84E-03,1.48E-02
10723,7.14E-03,1.50E-02
10724,7.58E-03,1.65E-02
10725,8.28E-03,1.46E-02
10726,6.31E-03,1.46E-02
10727,6.20E-03,1.46E-02
10728,5.75E-03,1.46E-02
10729,5.34E-03,1.46E-02
10730,5.01E-03,1.46E-02
10731,4.74E-03,1.46E-02
10732,4.67E-03,1.45E-02
10733,4.79E-03,1.45E-02
10734,4.29E-03,1.45E-02
10735,5.22E-03,1.45E-02
10736,6.57E-03,1.46E-02
10737,6.96E-03,1.46E-02
10738,6.08E-03,1.46E-02
10739,2.75E-03,1.47E-02
10740,3.06E-03,1.47E-02
10741,3.36E-03,1.47E-02
10742,3.79E-03,1.47E-02
10743,3.88E-03,1.47E-02
10744,4.00E-03,1.48E-02
10745,4.18E-03,1.48E-02
10746,4.39E-03,1.48E-02
10747,4.54E-03,1.48E-02
10748,4.95E-03,1.48E-02
10749,5.71E-03,1.49E-02
10750,6.02E-03,1.49E-02
10751,6.46E-03,1.49E-02
10752,6.81E-03,1.49E-02
10753,7.35E-03,1.62E-02
10754,7.12E-03,1.55E-02
10755,8.30E-03,1.55E-02
10756,8.11E-03,1.54E-02
10757,8.92E-03,1.52E-02
10758,7.40E-03,1.64E-02
10759,5.63E-03,1.44E-02
10760,4.77E-03,1.44E-02
10761,3.70E-03,1.44E-02
10762,4.32E-03,1.44E-02
10763,4.52E-03,1.44E-02
10764,4.93E-03,1.44E-02
10765,5.20E-03,1.44E-02
10766,5.56E-03,1.45E-02
10767,5.88E-03,1.45E-02
10768,6.17E-03,1.45E-02
10769,6.68E-03,1.45E-02
10770,7.72E-03,1.45E-02
10771,7.59E-03,1.61E-02
10772,7.38E-03,1.59E-02
10773,7.18E-03,1.58E-02
10774,7.28E-03,1.54E-02
10775,7.04E-03,1.57E-02
10776,9.71E-03,1.57E-02
10777,8.11E-03,1.54E-02
10778,8.05E-03,1.47E-02
10779,9.41E-03,1.51E-02
10780,8.74E-03,1.82E-02
10781,6.99E-03,1.82E-02
10782,6.26E-03,1.83E-02
10783,8.94E-03,1.63E-02
10784,9.06E-03,1.64E-02
10785,8.84E-03,1.66E-02
10786,8.07E-03,1.53E-02
10787,7.71E-03,1.79E-02
10788,7.34E-03,1.79E-02
10789,7.14E-03,1.50E-02
10790,7.88E-03,1.50E-02
10791,5.97E-03,1.51E-02
10792,5.05E-03,1.51E-02
10793,4.50E-03,1.51E-02
10794,6.93E-03,1.44E-02
10795,7.65E-03,1.45E-02
10796,4.16E-03,1.45E-02
10797,3.04E-03,1.45E-02
10798,3.13E-03,1.45E-02
10799,3.49E-03,1.46E-02
10800,3.89E-03,1.46E-02
10801,3.93E-03,1.46E-02
10802,4.02E-03,1.46E-02
10803,4.25E-03,1.46E-02
10804,4.40E-03,1.46E-02
10805,4.62E-03,1.47E-02
10806,4.73E-03,1.47E-02
10807,5.56E-03,1.47E-02
10808,5.86E-03,1.47E-02
10809,6.02E-03,1.48E-02
10810,6.04E-03,1.48E-02
10811,8.18E-03,1.50E-02
10812,8.00E-03,1.51E-02
10813,7.88E-03,1.63E-02
10814,8.62E-03,1.62E-02
10815,7.61E-03,1.82E-02
10816,7.98E-03,1.65E-02
10817,8.13E-03,1.81E-02
10818,7.80E-03,1.79E-02
10819,6.48E-03,1.42E-02
10820,6.86E-03,1.69E-02
10821,6.87E-03,1.55E-02
10822,8.62E-03,1.56E-02
10823,8.43E-03,1.55E-02
10824,6.31E-03,1.48E-02
10825,7.42E-03,1.48E-02
10826,8.86E-03,1.47E-02
10827,9.87E-03,1.54E-02
10828,1.16E-02,1.53E-02
10829,7.71E-03,1.61E-02
10830,8.13E-03,1.83E-02
10831,7.60E-03,1.64E-02
10832,6.93E-03,1.78E-02
10833,6.06E-03,1.78E-02
10834,5.20E-03,1.77E-02
10835,7.24E-03,1.77E-02
10836,4.16E-03,1.76E-02
10837,9.48E-03,1.76E-02
10838,5.77E-03,1.43E-02
10839,3.98E-03,1.43E-02
10840,4.20E-03,1.43E-02
10841,4.47E-03,1.43E-02
10842,4.91E-03,1.43E-02
10843,5.38E-03,1.43E-02
10844,5.87E-03,1.43E-02
10845,6.03E-03,1.43E-02
10846,6.19E-03,1.44E-02
10847,6.78E-03,1.44E-02
10848,7.51E-03,1.44E-02
10849,8.33E-03,1.44E-02
10850,8.02E-03,1.44E-02
10851,7.27E-03,1.45E-02
10852,6.19E-03,1.45E-02
10853,8.95E-03,1.67E-02
10854,8.27E-03,1.68E-02
10855,7.32E-03,1.60E-02
10856,7.22E-03,1.58E-02
10857,6.21E-03,1.67E-02
10858,8.18E-03,1.54E-02
10859,6.81E-03,1.57E-02
10860,7.27E-03,1.69E-02
10861,9.35E-03,1.58E-02
10862,8.51E-03,1.55E-02
10863,5.74E-03,1.76E-02
10864,7.68E-03,1.79E-02
10865,9.28E-03,1.51E-02
10866,7.70E-03,1.52E-02
10867,7.26E-03,1.52E-02
10868,5.64E-03,1.52E-02
10869,5.16E-03,1.52E-02
10870,7.41E-03,1.46E-02
10871,7.54E-03,1.48E-02
10872,7.78E-03,1.45E-02
10873,8.69E-03,1.43E-02
10874,5.82E-03,1.76E-02
10875,8.04E-03,1.43E-02
10876,3.12E-03,1.44E-02
10877,3.27E-03,1.44E-02
10878,3.31E-03,1.44E-02
10879,3.60E-03,1.44E-02
10880,3.82E-03,1.44E-02
10881,3.95E-03,1.44E-02
10882,4.11E-03,1.44E-02
10883,4.24E-03,1.45E-02
10884,4.45E-03,1.45E-02
10885,4.61E-03,1.45E-02
10886,4.66E-03,1.45E-02
10887,5.29E-03,1.45E-02
10888,5.62E-03,1.46E-02
10889,5.77E-03,1.46E-02
10890,5.98E-03,1.46E-02
10891,5.95E-03,1.46E-02
10892,4.10E-03,1.46E-02
10893,7.29E-03,1.47E-02
10894,8.83E-03,1.48E-02
10895,8.12E-03,1.49E-02
10896,5.75E-03,1.75E-02
10897,8.87E-03,1.64E-02
10898,7.83E-03,1.83E-02
10899,9.25E-03,1.67E-02
10900,8.14E-03,1.53E-02
10901,7.90E-03,1.80E-02
10902,5.20E-03,1.76E-02
10903,7.49E-03,1.81E-02
10904,8.05E-03,1.66E-02
10905,7.15E-03,1.73E-02
10906,9.10E-03,1.72E-02
10907,5.91E-03,1.60E-02
10908,4.93E-03,1.61E-02
10909,8.02E-03,1.82E-02
10910,7.26E-03,1.61E-02
10911,5.03E-03,1.87E-02
10912,3.17E-03,1.86E-02
10913,4.92E-03,1.86E-02
10914,8.01E-03,1.84E-02
10915,6.83E-03,1.86E-02
10916,8.10E-03,1.62E-02
10917,6.23E-03,1.80E-02
10918,6.01E-03,1.79E-02
10919,8.89E-03,1.54E-02
10920,4.36E-03,1.51E-02
10921,4.48E-03,1.51E-02
10922,7.27E-03,1.68E-02
10923,6.82E-03,1.56E-02
10924,9.20E-03,1.71E-02
10925,9.61E-03,1.72E-02
10926,7.59E-03,1.73E-02
10927,8.83E-03,1.57E-02
10928,8.67E-03,1.56E-02
10929,7.21E-03,1.77E-02
10930,8.30E-03,1.78E-02
10931,5.61E-03,1.84E-02
10932,3.39E-03,1.85E-02
10933,4.60E-03,1.85E-02
10934,4.74E-03,1.52E-02
10935,5.00E-03,1.52E-02
10936,5.95E-03,1.49E-02
10937,6.49E-03,1.46E-02
10938,7.74E-03,1.47E-02
10939,7.83E-03,1.49E-02
10940,1.07E-02,1.75E-02
10941,4.84E-03,1.51E-02
10942,4.89E-03,1.51E-02
10943,7.56E-03,1.05E-02
10944,7.61E-03,1.65E-02
10945,6.92E-03,1.74E-02
10946,8.72E-03,1.83E-02
10947,9.46E-03,1.68E-02
10948,7.10E-03,1.60E-02
10949,7.12E-03,1.59E-02
10950,7.44E-03,1.68E-02
10951,8.58E-03,1.55E-02
10952,6.66E-03,1.57E-02
10953,8.74E-03,1.69E-02
10954,8.38E-03,1.74E-02
10955,7.87E-03,1.59E-02
10956,8.94E-03,1.55E-02
10957,7.85E-03,1.79E-02
10958,8.42E-03,1.83E-02
10959,7.17E-03,1.87E-02
10960,7.43E-03,1.87E-02
10961,7.40E-03,1.86E-02
10962,5.67E-03,1.85E-02
10963,5.85E-03,1.77E-02
10964,9.38E-03,1.53E-02
10965,8.98E-03,1.52E-02
10966,7.95E-03,1.52E-02
10967,7.92E-03,1.53E-02
10968,6.40E-03,1.53E-02
10969,6.55E-03,1.53E-02
10970,6.98E-03,1.76E-02
10971,7.15E-03,1.75E-02
10972,7.07E-03,1.44E-02
10973,6.35E-03,1.43E-02
10974,7.18E-03,1.43E-02
10975,7.59E-03,1.43E-02
10976,7.76E-03,1.43E-02
10977,7.18E-03,1.43E-02
10978,6.67E-03,1.43E-02
10979,6.30E-03,1.42E-02
10980,6.08E-03,1.42E-02
10981,5.96E-03,1.42E-02
10982,5.50E-03,1.42E-02
10983,4.98E-03,1.42E-02
10984,4.48E-03,1.41E-02
10985,4.35E-03,1.41E-02
10986,4.20E-03,1.41E-02
10987,5.41E-03,1.41E-02
10988,6.38E-03,1.41E-02
10989,7.73E-03,1.82E-02
10990,8.64E-03,1.67E-02
10991,3.82E-03,1.64E-02
10992,7.11E-03,1.67E-02
10993,9.24E-03,1.71E-02
10994,8.27E-03,1.53E-02
10995,6.45E-03,1.60E-02
10996,7.85E-03,1.81E-02
10997,4.44E-03,1.65E-02
10998,6.57E-03,1.62E-02
10999,5.91E-03,1.83E-02
11000,6.49E-03,1.84E-02
11001,7.86E-03,1.85E-02
11002,8.33E-03,1.64E-02
11003,8.18E-03,1.63E-02
11004,6.46E-03,1.62E-02
11005,7.48E-03,1.88E-02
11006,7.78E-03,1.86E-02
11007,7.80E-03,1.52E-02
11008,7.77E-03,1.73E-02
11009,6.70E-03,1.80E-02
11010,7.92E-03,1.66E-02
11011,7.64E-03,1.82E-02
11012,8.63E-03,1.75E-02
11013,6.24E-03,1.75E-02
11014,7.67E-03,1.86E-02
11015,8.02E-03,1.42E-02
11016,7.64E-03,1.42E-02
11017,3.03E-03,1.42E-02
11018,3.02E-03,1.42E-02
11019,3.47E-03,1.42E-02
11020,3.64E-03,1.43E-02
11021,3.73E-03,1.43E-02
11022,4.03E-03,1.43E-02
11023,4.12E-03,1.43E-02
11024,4.32E-03,1.43E-02
11025,4.50E-03,1.43E-02
11026,4.59E-03,1.43E-02
11027,4.76E-03,1.44E-02
11028,5.15E-03,1.44E-02
11029,5.45E-03,1.44E-02
11030,5.66E-03,1.44E-02
11031,5.61E-03,1.44E-02
11032,5.52E-03,1.44E-02
11033,4.29E-03,1.45E-02
11034,4.21E-03,1.45E-02
11035,6.36E-03,1.46E-02
11036,7.60E-03,1.46E-02
11037,8.06E-03,1.47E-02
11038,6.51E-03,1.02E-02
11039,7.80E-03,1.04E-02
11040,7.52E-03,1.05E-02
11041,6.90E-03,1.06E-02
11042,5.29E-03,1.52E-02
11043,4.83E-03,1.52E-02
11044,4.98E-03,1.78E-02
11045,5.73E-03,1.78E-02
11046,7.13E-03,1.69E-02
11047,6.50E-03,1.56E-02
11048,8.74E-03,1.70E-02
11049,8.79E-03,1.71E-02
11050,8.46E-03,1.73E-02
11051,8.57E-03,1.58E-02
11052,8.82E-03,1.57E-02
11053,7.39E-03,1.78E-02
11054,7.78E-03,1.78E-02
11055,6.56E-03,1.84E-02
11056,5.42E-03,1.84E-02
11057,5.76E-03,1.84E-02
11058,7.30E-03,1.87E-02
11059,4.54E-03,1.78E-02
11060,6.33E-03,1.77E-02
11061,6.23E-03,1.77E-02
11062,6.85E-03,1.53E-02
11063,1.03E-02,1.42E-02
11064,1.09E-02,1.43E-02
11065,9.08E-03,1.55E-02
11066,5.94E-03,1.50E-02
11067,5.99E-03,1.51E-02
11068,7.73E-03,1.65E-02
11069,8.32E-03,1.74E-02
11070,7.12E-03,1.74E-02
11071,6.80E-03,1.40E-02
11072,7.60E-03,1.82E-02
11073,8.67E-03,1.68E-02
11074,6.81E-03,1.60E-02
11075,6.92E-03,1.59E-02
11076,7.11E-03,1.68E-02
11077,7.81E-03,1.70E-02
11078,8.37E-03,1.55E-02
11079,6.47E-03,1.58E-02
11080,8.94E-03,1.69E-02
11081,9.57E-03,1.73E-02
11082,7.67E-03,1.59E-02
11083,9.42E-03,1.56E-02
11084,7.63E-03,1.53E-02
11085,7.89E-03,1.80E-02
11086,7.65E-03,1.82E-02
11087,7.48E-03,1.85E-02
11088,7.74E-03,1.84E-02
11089,5.66E-03,1.66E-02
11090,8.00E-03,1.43E-02
11091,7.07E-03,1.42E-02
11092,7.23E-03,1.42E-02
11093,7.49E-03,1.42E-02
11094,7.42E-03,1.42E-02
11095,6.82E-03,1.42E-02
11096,6.71E-03,1.41E-02
11097,6.43E-03,1.41E-02
11098,6.14E-03,1.41E-02
11099,5.91E-03,1.41E-02
11100,5.53E-03,1.40E-02
11101,5.11E-03,1.40E-02
11102,4.56E-03,1.40E-02
11103,4.55E-03,1.40E-02
11104,4.39E-03,1.40E-02
11105,4.78E-03,1.40E-02
11106,5.21E-03,1.39E-02
11107,5.04E-03,1.39E-02
11108,5.26E-03,1.62E-02
11109,8.48E-03,1.54E-02
11110,6.29E-03,1.54E-02
11111,5.35E-03,1.77E-02
11112,5.70E-03,1.78E-02
11113,8.80E-03,1.42E-02
11114,8.11E-03,1.41E-02
11115,7.02E-03,1.85E-02
11116,7.41E-03,1.86E-02
11117,7.26E-03,1.62E-02
11118,7.84E-03,1.60E-02
11119,6.24E-03,1.52E-02
11120,6.43E-03,1.53E-02
11121,7.62E-03,1.54E-02
11122,7.41E-03,1.77E-02
11123,7.54E-03,1.76E-02
11124,7.51E-03,1.73E-02
11125,6.50E-03,1.66E-02
11126,7.22E-03,1.67E-02
11127,7.49E-03,1.68E-02
11128,8.17E-03,1.41E-02
11129,7.12E-03,1.81E-02
11130,8.46E-03,1.67E-02
11131,8.00E-03,1.72E-02
11132,7.54E-03,1.81E-02
11133,7.53E-03,1.46E-02
11134,6.01E-03,1.75E-02
11135,7.65E-03,1.86E-02
11136,5.68E-03,1.64E-02
11137,6.01E-03,1.63E-02
11138,7.84E-03,1.66E-02
11139,6.89E-03,1.41E-02
11140,2.92E-03,1.41E-02
11141,3.08E-03,1.41E-02
11142,3.50E-03,1.41E-02
11143,3.61E-03,1.41E-02
11144,3.74E-03,1.41E-02
11145,3.94E-03,1.41E-02
11146,4.21E-03,1.41E-02
11147,4.43E-03,1.41E-02
11148,4.53E-03,1.42E-02
11149,4.69E-03,1.42E-02
11150,4.84E-03,1.42E-02
11151,5.12E-03,1.42E-02
11152,5.41E-03,1.42E-02
11153,5.55E-03,1.42E-02
11154,5.52E-03,1.43E-02
11155,5.34E-03,1.43E-02
11156,5.45E-03,1.43E-02
11157,5.68E-03,1.44E-02
11158,6.28E-03,1.44E-02
11159,7.68E-03,1.45E-02
11160,8.32E-03,1.45E-02
11161,6.01E-03,1.80E-02
11162,4.05E-03,1.84E-02
11163,5.83E-03,1.83E-02
11164,5.04E-03,1.84E-02
11165,5.97E-03,1.85E-02
11166,7.92E-03,1.48E-02
11167,7.62E-03,1.48E-02
11168,4.51E-03,1.90E-02
11169,7.40E-03,1.51E-02
11170,6.45E-03,1.53E-02
11171,7.98E-03,1.12E-02
11172,7.45E-03,1.11E-02
11173,8.38E-03,1.06E-02
11174,7.09E-03,1.07E-02
11175,6.52E-03,1.07E-02
11176,6.68E-03,1.08E-02
11177,7.43E-03,1.08E-02
11178,6.93E-03,1.07E-02
11179,6.68E-03,1.06E-02
11180,7.88E-03,1.05E-02
11181,6.95E-03,1.03E-02
11182,6.01E-03,1.01E-02
11183,6.35E-03,1.00E-02
11184,6.25E-03,1.01E-02
11185,6.38E-03,1.02E-02
11186,7.04E-03,1.03E-02
11187,7.64E-03,1.04E-02
11188,8.43E-03,1.05E-02
11189,6.62E-03,1.06E-02
11190,7.52E-03,1.88E-02
11191,5.71E-03,1.53E-02
11192,6.17E-03,1.52E-02
11193,6.27E-03,1.76E-02
11194,6.18E-03,1.76E-02
11195,7.23E-03,1.69E-02
11196,6.41E-03,1.57E-02
11197,8.74E-03,1.70E-02
11198,8.72E-03,1.71E-02
11199,8.83E-03,1.72E-02
11200,8.44E-03,1.58E-02
11201,9.06E-03,1.57E-02
11202,8.06E-03,1.78E-02
11203,8.02E-03,1.79E-02
11204,7.22E-03,1.83E-02
11205,7.40E-03,1.84E-02
11206,6.78E-03,1.83E-02
11207,6.83E-03,1.68E-02
11208,6.00E-03,1.67E-02
11209,7.05E-03,1.89E-02
11210,5.77E-03,1.88E-02
11211,6.04E-03,1.88E-02
11212,6.48E-03,1.76E-02
11213,6.54E-03,1.76E-02
11214,9.26E-03,1.08E-02
11215,8.02E-03,1.07E-02
11216,7.68E-03,1.06E-02
11217,7.49E-03,1.04E-02
11218,7.55E-03,1.03E-02
11219,7.67E-03,1.02E-02
11220,7.98E-03,9.99E-03
11221,5.31E-03,1.63E-02
11222,6.74E-03,1.53E-02
11223,6.55E-03,1.77E-02
11224,6.45E-03,1.90E-02
11225,7.09E-03,1.61E-02
11226,7.70E-03,1.11E-02
11227,7.14E-03,1.86E-02
11228,7.76E-03,1.88E-02
11229,5.11E-03,1.88E-02
11230,5.41E-03,1.88E-02
11231,6.31E-03,1.88E-02
11232,7.90E-03,1.61E-02
11233,5.55E-03,1.74E-02
11234,4.98E-03,1.54E-02
11235,6.79E-03,1.55E-02
11236,7.23E-03,1.75E-02
11237,7.51E-03,1.74E-02
11238,6.93E-03,1.69E-02
11239,6.15E-03,1.40E-02
11240,7.74E-03,1.65E-02
11241,7.49E-03,1.81E-02
11242,8.61E-03,1.68E-02
11243,7.22E-03,1.69E-02
11244,7.95E-03,1.71E-02
11245,7.39E-03,1.55E-02
11246,8.65E-03,1.69E-02
11247,9.38E-03,1.73E-02
11248,7.82E-03,1.60E-02
11249,7.81E-03,1.80E-02
11250,7.61E-03,1.82E-02
11251,6.79E-03,1.66E-02
11252,9.57E-03,1.46E-02
11253,9.01E-03,1.45E-02
11254,7.66E-03,1.47E-02
11255,6.03E-03,1.91E-02
11256,7.41E-03,1.84E-02
11257,8.00E-03,1.83E-02
11258,8.58E-03,1.10E-02
11259,6.30E-03,1.75E-02
11260,7.57E-03,1.87E-02
11261,7.02E-03,1.78E-02
11262,6.44E-03,1.76E-02
11263,6.30E-03,1.64E-02
11264,7.86E-03,1.66E-02
11265,6.83E-03,1.87E-02
11266,5.83E-03,1.39E-02
11267,2.89E-03,1.39E-02
11268,3.16E-03,1.39E-02
11269,3.48E-03,1.39E-02
11270,3.64E-03,1.39E-02
11271,3.82E-03,1.39E-02
11272,3.88E-03,1.40E-02
11273,4.30E-03,1.40E-02
11274,4.52E-03,1.40E-02
11275,4.60E-03,1.40E-02
11276,4.68E-03,1.40E-02
11277,4.87E-03,1.40E-02
11278,5.11E-03,1.40E-02
11279,5.44E-03,1.41E-02
11280,5.50E-03,1.41E-02
11281,5.53E-03,1.41E-02
11282,5.69E-03,1.41E-02
11283,5.78E-03,1.42E-02
11284,6.04E-03,1.42E-02
11285,6.32E-03,1.42E-02
11286,7.12E-03,1.43E-02
11287,5.36E-03,1.43E-02
11288,6.18E-03,1.44E-02
11289,6.89E-03,1.80E-02
11290,8.51E-03,1.67E-02
11291,7.75E-03,1.42E-02
11292,7.44E-03,1.41E-02
11293,7.46E-03,1.41E-02
11294,7.38E-03,1.41E-02
11295,7.17E-03,1.41E-02
11296,6.92E-03,1.40E-02
11297,6.74E-03,1.40E-02
11298,6.47E-03,1.40E-02
11299,6.16E-03,1.40E-02
11300,5.80E-03,1.39E-02
11301,5.55E-03,1.39E-02
11302,5.20E-03,1.39E-02
11303,4.65E-03,1.39E-02
11304,4.56E-03,1.39E-02
11305,4.48E-03,1.38E-02
11306,4.57E-03,1.38E-02
11307,4.99E-03,1.38E-02
11308,4.99E-03,1.38E-02
11309,6.06E-03,1.68E-02
11310,6.11E-03,1.69E-02
11311,7.68E-03,1.73E-02
11312,7.61E-03,1.73E-02
11313,6.39E-03,1.55E-02
11314,5.00E-03,1.74E-02
11315,5.21E-03,1.73E-02
11316,7.55E-03,1.62E-02
11317,8.19E-03,1.62E-02
11318,6.42E-03,1.85E-02
11319,7.29E-03,1.82E-02
11320,7.81E-03,1.83E-02
11321,7.54E-03,1.46E-02
11322,7.60E-03,1.47E-02
11323,6.23E-03,1.88E-02
11324,6.58E-03,1.86E-02
11325,7.01E-03,1.87E-02
11326,5.94E-03,1.79E-02
11327,6.43E-03,1.78E-02
11328,4.28E-03,1.91E-02
11329,3.96E-03,1.89E-02
11330,7.77E-03,1.49E-02
11331,6.84E-03,1.55E-02
11332,5.56E-03,1.55E-02
11333,8.50E-03,1.55E-02
11334,7.31E-03,1.51E-02
11335,6.01E-03,1.54E-02
11336,8.23E-03,1.52E-02
11337,6.63E-03,1.44E-02
11338,1.06E-02,1.43E-02
11339,9.30E-03,1.43E-02
11340,9.10E-03,1.43E-02
11341,8.19E-03,1.13E-02
11342,8.31E-03,1.13E-02
11343,7.84E-03,1.11E-02
11344,7.11E-03,1.10E-02
11345,5.87E-03,9.77E-03
11346,8.44E-03,9.85E-03
11347,7.24E-03,9.94E-03
11348,7.10E-03,1.00E-02
11349,7.00E-03,1.01E-02
11350,7.21E-03,1.02E-02
11351,7.49E-03,1.03E-02
11352,7.49E-03,1.04E-02
11353,7.22E-03,1.05E-02
11354,7.53E-03,1.06E-02
11355,6.01E-03,1.07E-02
11356,6.76E-03,1.07E-02
11357,8.42E-03,1.08E-02
11358,7.54E-03,1.08E-02
11359,7.13E-03,1.09E-02
11360,7.33E-03,1.09E-02
11361,8.06E-03,1.10E-02
11362,8.10E-03,1.11E-02
11363,8.41E-03,1.12E-02
11364,7.78E-03,1.13E-02
11365,6.98E-03,1.13E-02
11366,8.50E-03,1.14E-02
11367,9.61E-03,1.14E-02
11368,7.42E-03,1.13E-02
11369,8.46E-03,1.15E-02
11370,8.84E-03,1.15E-02
11371,7.22E-03,1.16E-02
11372,6.40E-03,1.16E-02
11373,6.72E-03,1.17E-02
11374,9.64E-03,1.17E-02
11375,9.29E-03,1.18E-02
11376,7.93E-03,1.20E-02
11377,7.17E-03,1.88E-02
11378,8.91E-03,1.90E-02
11379,6.67E-03,1.88E-02
11380,6.66E-03,1.59E-02
11381,4.80E-03,1.88E-02
11382,6.44E-03,1.58E-02
11383,7.35E-03,1.70E-02
11384,6.58E-03,1.57E-02
11385,8.73E-03,1.70E-02
11386,8.72E-03,1.71E-02
11387,8.72E-03,1.72E-02
11388,8.51E-03,1.59E-02
11389,9.28E-03,1.58E-02
11390,1.00E-02,1.57E-02
11391,9.05E-03,1.79E-02
11392,8.25E-03,1.80E-02
11393,7.73E-03,1.82E-02
11394,6.59E-03,1.83E-02
11395,7.34E-03,1.82E-02
11396,6.84E-03,1.67E-02
11397,7.90E-03,1.47E-02
11398,7.94E-03,1.47E-02
11399,5.95E-03,1.89E-02
11400,6.05E-03,1.89E-02
11401,4.74E-03,1.91E-02
11402,9.72E-03,1.28E-02
11403,6.77E-03,1.26E-02
11404,8.39E-03,1.27E-02
11405,6.70E-03,1.83E-02
11406,6.68E-03,1.82E-02
11407,7.27E-03,1.10E-02
11408,7.92E-03,1.40E-02
11409,9.01E-03,1.41E-02
11410,8.72E-03,1.42E-02
11411,8.49E-03,1.41E-02
11412,6.92E-03,1.75E-02
11413,7.43E-03,1.75E-02
11414,8.84E-03,1.76E-02
11415,7.85E-03,1.45E-02
11416,6.47E-03,1.89E-02
11417,7.13E-03,1.87E-02
11418,7.21E-03,1.48E-02
11419,7.12E-03,1.76E-02
11420,7.76E-03,1.75E-02
11421,8.34E-03,1.65E-02
11422,7.87E-03,1.66E-02
11423,6.22E-03,1.40E-02
11424,6.33E-03,1.86E-02
11425,6.43E-03,1.87E-02
11426,8.25E-03,1.60E-02
11427,7.47E-03,1.73E-02
11428,6.81E-03,1.56E-02
11429,7.12E-03,1.70E-02
11430,5.30E-03,1.43E-02
11431,1.07E-02,1.24E-02
11432,5.59E-03,1.22E-02
11433,6.77E-03,1.23E-02
11434,9.09E-03,1.23E-02
11435,9.66E-03,1.22E-02
11436,8.26E-03,1.20E-02
11437,8.32E-03,1.20E-02
11438,1.02E-02,1.19E-02
11439,1.05E-02,1.18E-02
11440,9.50E-03,1.18E-02
11441,1.02E-02,1.17E-02
11442,9.89E-03,1.16E-02
11443,9.15E-03,1.16E-02
11444,8.63E-03,1.15E-02
11445,8.23E-03,1.14E-02
11446,8.11E-03,1.14E-02
11447,8.25E-03,1.13E-02
11448,8.52E-03,1.13E-02
11449,8.50E-03,1.12E-02
11450,8.43E-03,1.12E-02
11451,8.29E-03,1.11E-02
11452,8.05E-03,1.10E-02
11453,7.73E-03,1.10E-02
11454,7.72E-03,1.10E-02
11455,7.60E-03,1.09E-02
11456,7.46E-03,1.09E-02
11457,7.57E-03,1.08E-02
11458,8.33E-03,1.07E-02
11459,7.38E-03,1.80E-02
11460,8.59E-03,1.68E-02
11461,8.60E-03,1.69E-02
11462,7.09E-03,1.83E-02
11463,6.99E-03,1.83E-02
11464,7.01E-03,1.84E-02
11465,7.59E-03,1.80E-02
11466,6.98E-03,9.66E-03
11467,7.25E-03,9.73E-03
11468,7.50E-03,9.83E-03
11469,7.45E-03,9.91E-03
11470,7.33E-03,1.00E-02
11471,7.36E-03,1.01E-02
11472,7.42E-03,1.02E-02
11473,7.46E-03,1.03E-02
11474,7.43E-03,1.04E-02
11475,7.73E-03,1.05E-02
11476,8.72E-03,1.06E-02
11477,9.68E-03,1.09E-02
11478,8.43E-03,1.07E-02
11479,7.96E-03,1.05E-02
11480,7.78E-03,1.04E-02
11481,7.68E-03,1.03E-02
11482,7.84E-03,1.01E-02
11483,8.75E-03,9.99E-03
11484,6.77E-03,9.81E-03
11485,6.82E-03,9.71E-03
11486,9.43E-03,9.60E-03
11487,6.87E-03,9.41E-03
11488,5.82E-03,1.38E-02
11489,6.13E-03,1.37E-02
11490,5.19E-03,1.37E-02
11491,5.11E-03,1.37E-02
11492,3.55E-03,1.37E-02
11493,3.38E-03,1.38E-02
11494,3.54E-03,1.38E-02
11495,3.76E-03,1.38E-02
11496,3.86E-03,1.38E-02
11497,3.89E-03,1.38E-02
11498,4.32E-03,1.38E-02
11499,4.56E-03,1.38E-02
11500,4.70E-03,1.38E-02
11501,4.73E-03,1.38E-02
11502,4.95E-03,1.39E-02
11503,5.10E-03,1.39E-02
11504,5.50E-03,1.39E-02
11505,5.56E-03,1.39E-02
11506,5.61E-03,1.39E-02
11507,5.77E-03,1.40E-02
11508,5.89E-03,1.40E-02
11509,6.16E-03,1.40E-02
11510,6.20E-03,1.41E-02
11511,6.12E-03,1.41E-02
11512,5.77E-03,1.41E-02
11513,6.66E-03,1.41E-02
11514,7.36E-03,1.41E-02
11515,7.57E-03,1.41E-02
11516,7.50E-03,1.40E-02
11517,7.50E-03,1.40E-02
11518,7.31E-03,1.40E-02
11519,7.19E-03,1.39E-02
11520,7.00E-03,1.39E-02
11521,6.78E-03,1.39E-02
11522,6.56E-03,1.39E-02
11523,6.06E-03,1.38E-02
11524,5.80E-03,1.38E-02
11525,5.51E-03,1.38E-02
11526,5.16E-03,1.38E-02
11527,4.73E-03,1.37E-02
11528,4.60E-03,1.37E-02
11529,4.41E-03,1.37E-02
11530,4.36E-03,1.37E-02
11531,4.63E-03,1.37E-02
11532,5.28E-03,1.36E-02
11533,6.84E-03,1.70E-02
11534,7.71E-03,1.72E-02
11535,7.67E-03,1.72E-02
11536,6.73E-03,1.56E-02
11537,7.11E-03,1.72E-02
11538,8.44E-03,1.61E-02
11539,8.07E-03,1.81E-02
11540,7.49E-03,1.84E-02
11541,8.93E-03,1.82E-02
11542,7.03E-03,1.45E-02
11543,7.56E-03,1.45E-02
11544,6.28E-03,1.87E-02
11545,4.65E-03,1.85E-02
11546,3.59E-03,1.86E-02
11547,6.81E-03,1.86E-02
11548,7.14E-03,1.87E-02
11549,6.43E-03,1.74E-02
11550,6.97E-03,1.73E-02
11551,6.81E-03,1.78E-02
11552,8.41E-03,1.79E-02
11553,6.47E-03,1.39E-02
11554,6.73E-03,1.66E-02
11555,5.64E-03,1.39E-02
11556,6.16E-03,1.38E-02
11557,7.03E-03,1.79E-02
11558,7.22E-03,1.78E-02
11559,8.40E-03,1.67E-02
11560,8.25E-03,1.67E-02
11561,4.88E-03,1.68E-02
11562,5.10E-03,1.70E-02
11563,7.71E-03,1.74E-02
11564,6.53E-03,1.56E-02
11565,8.46E-03,1.63E-02
11566,8.36E-03,1.62E-02
11567,4.48E-03,1.91E-02
11568,5.90E-03,1.89E-02
11569,5.99E-03,1.91E-02
11570,6.89E-03,1.91E-02
11571,6.91E-03,1.89E-02
11572,7.07E-03,1.88E-02
11573,7.18E-03,1.88E-02
11574,7.76E-03,1.48E-02
11575,7.10E-03,1.55E-02
11576,9.89E-03,1.56E-02
11577,9.52E-03,1.55E-02
11578,6.66E-03,1.52E-02
11579,6.61E-03,1.49E-02
11580,7.34E-03,1.48E-02
11581,7.12E-03,1.88E-02
11582,6.90E-03,1.88E-02
11583,5.11E-03,1.88E-02
11584,4.72E-03,1.90E-02
11585,5.67E-03,1.90E-02
11586,6.68E-03,1.91E-02
11587,7.21E-03,1.93E-02
11588,6.17E-03,1.90E-02
11589,6.25E-03,1.92E-02
11590,7.04E-03,1.61E-02
11591,6.77E-03,1.91E-02
11592,7.16E-03,1.90E-02
11593,8.39E-03,1.92E-02
11594,7.80E-03,1.50E-02
11595,7.75E-03,1.54E-02
11596,8.10E-03,1.53E-02
11597,7.63E-03,1.46E-02
11598,7.65E-03,1.77E-02
11599,6.28E-03,1.51E-02
11600,5.92E-03,1.50E-02
11601,8.11E-03,1.76E-02
11602,8.20E-03,1.41E-02
11603,8.40E-03,1.42E-02
11604,8.81E-03,1.43E-02
11605,7.11E-03,1.45E-02
11606,9.84E-03,1.44E-02
11607,9.16E-03,1.44E-02
11608,9.03E-03,1.44E-02
11609,7.72E-03,1.13E-02
11610,7.22E-03,1.12E-02
11611,7.87E-03,1.11E-02
11612,7.74E-03,1.10E-02
11613,7.69E-03,1.09E-02
11614,7.83E-03,1.14E-02
11615,8.05E-03,1.15E-02
11616,9.87E-03,1.17E-02
11617,7.82E-03,1.18E-02
11618,7.96E-03,1.20E-02
11619,7.19E-03,1.19E-02
11620,7.39E-03,1.21E-02
11621,6.02E-03,1.22E-02
11622,9.63E-03,1.23E-02
11623,6.52E-03,1.25E-02
11624,9.45E-03,1.24E-02
11625,6.20E-03,1.26E-02
11626,7.87E-03,1.27E-02
11627,9.26E-03,1.29E-02
11628,8.54E-03,1.29E-02
11629,8.13E-03,1.32E-02
11630,6.40E-03,1.32E-02
11631,5.84E-03,1.32E-02
11632,6.74E-03,1.33E-02
11633,8.06E-03,1.33E-02
11634,8.81E-03,1.35E-02
11635,8.32E-03,1.36E-02
11636,6.76E-03,1.64E-02
11637,7.81E-03,1.93E-02
11638,6.34E-03,1.60E-02
11639,6.39E-03,1.58E-02
11640,9.28E-03,1.81E-02
11641,8.45E-03,1.93E-02
11642,9.61E-03,1.80E-02
11643,7.36E-03,1.71E-02
11644,6.55E-03,1.57E-02
11645,8.83E-03,1.70E-02
11646,8.88E-03,1.71E-02
11647,8.54E-03,1.72E-02
11648,8.49E-03,1.59E-02
11649,9.32E-03,1.58E-02
11650,1.02E-02,1.57E-02
11651,8.89E-03,1.79E-02
11652,8.60E-03,1.80E-02
11653,5.65E-03,1.86E-02
11654,6.60E-03,1.82E-02
11655,5.70E-03,1.85E-02
11656,6.59E-03,1.85E-02
11657,6.27E-03,1.84E-02
11658,5.87E-03,1.86E-02
11659,7.02E-03,1.86E-02
11660,8.44E-03,1.81E-02
11661,8.02E-03,1.81E-02
11662,6.56E-03,1.83E-02
11663,6.74E-03,1.82E-02
11664,6.39E-03,1.82E-02
11665,6.00E-03,1.68E-02
11666,7.88E-03,1.66E-02
11667,8.49E-03,1.64E-02
11668,8.37E-03,1.65E-02
11669,7.85E-03,1.76E-02
11670,6.85E-03,1.77E-02
11671,7.16E-03,1.39E-02
11672,8.33E-03,1.39E-02
11673,8.03E-03,1.39E-02
11674,7.82E-03,1.79E-02
11675,7.51E-03,1.79E-02
11676,6.99E-03,1.91E-02
11677,8.63E-03,1.69E-02
11678,8.53E-03,1.68E-02
11679,7.19E-03,1.48E-02
11680,5.91E-03,1.89E-02
11681,8.26E-03,1.91E-02
11682,5.63E-03,1.90E-02
11683,8.24E-03,1.92E-02
11684,6.56E-03,1.88E-02
11685,5.95E-03,1.90E-02
11686,6.13E-03,1.89E-02
11687,7.36E-03,1.74E-02
11688,8.33E-03,1.74E-02
11689,8.37E-03,1.74E-02
11690,8.40E-03,1.75E-02
11691,6.45E-03,1.92E-02
11692,6.84E-03,1.92E-02
11693,6.56E-03,1.93E-02
11694,8.94E-03,1.45E-02
11695,9.22E-03,1.45E-02
11696,8.83E-03,1.45E-02
11697,5.40E-03,1.43E-02
11698,6.90E-03,1.42E-02
11699,7.31E-03,1.42E-02
11700,5.58E-03,1.41E-02
11701,6.09E-03,1.41E-02
11702,6.30E-03,1.41E-02
11703,6.42E-03,1.41E-02
11704,6.34E-03,1.39E-02
11705,7.00E-03,1.38E-02
11706,6.89E-03,1.38E-02
11707,7.79E-03,1.37E-02
11708,7.94E-03,1.38E-02
11709,6.99E-03,1.37E-02
11710,7.38E-03,1.37E-02
11711,8.93E-03,1.36E-02
11712,9.11E-03,1.35E-02
11713,8.44E-03,1.35E-02
11714,9.47E-03,1.34E-02
11715,9.41E-03,1.33E-02
11716,8.88E-03,1.33E-02
11717,1.11E-02,1.29E-02
11718,1.08E-02,1.29E-02
11719,9.63E-03,1.28E-02
11720,9.41E-03,1.27E-02
11721,1.01E-02,1.25E-02
11722,1.03E-02,1.24E-02
11723,1.13E-02,1.23E-02
11724,1.09E-02,1.22E-02
11725,9.51E-03,1.21E-02
11726,9.42E-03,1.21E-02
11727,9.67E-03,1.20E-02
11728,9.81E-03,1.19E-02
11729,1.01E-02,1.19E-02
11730,9.69E-03,1.18E-02
11731,9.50E-03,1.17E-02
11732,9.23E-03,1.17E-02
11733,8.85E-03,1.16E-02
11734,8.63E-03,1.15E-02
11735,8.41E-03,1.15E-02
11736,8.39E-03,1.14E-02
11737,8.50E-03,1.14E-02
11738,8.35E-03,1.13E-02
11739,8.31E-03,1.13E-02
11740,8.26E-03,1.12E-02
11741,8.18E-03,1.12E-02
11742,8.07E-03,1.11E-02
11743,7.81E-03,1.11E-02
11744,7.74E-03,1.10E-02
11745,7.71E-03,1.10E-02
11746,7.89E-03,1.09E-02
11747,8.27E-03,1.09E-02
11748,6.40E-03,1.07E-02
11749,6.75E-03,1.09E-02
11750,5.54E-03,1.08E-02
11751,8.19E-03,1.08E-02
11752,8.37E-03,1.07E-02
11753,8.17E-03,1.05E-02
11754,8.06E-03,1.04E-02
11755,8.13E-03,1.03E-02
11756,8.24E-03,1.01E-02
11757,7.90E-03,9.97E-03
11758,7.74E-03,9.82E-03
11759,7.84E-03,9.70E-03
11760,7.93E-03,9.57E-03
11761,8.13E-03,9.40E-03
11762,6.45E-03,9.15E-03
11763,7.54E-03,9.24E-03
11764,5.93E-03,9.30E-03
11765,6.62E-03,9.39E-03
11766,8.38E-03,9.51E-03
11767,7.48E-03,9.62E-03
11768,7.53E-03,9.72E-03
11769,7.55E-03,9.81E-03
11770,7.52E-03,9.91E-03
11771,7.48E-03,1.00E-02
11772,7.52E-03,1.01E-02
11773,7.47E-03,1.02E-02
11774,7.56E-03,1.03E-02
11775,7.78E-03,1.04E-02
11776,7.53E-03,1.05E-02
11777,7.23E-03,1.08E-02
11778,7.32E-03,1.06E-02
11779,6.64E-03,1.43E-02
11780,6.46E-03,1.42E-02
11781,6.69E-03,1.39E-02
11782,7.14E-03,1.39E-02
11783,7.37E-03,1.39E-02
11784,7.37E-03,1.39E-02
11785,7.27E-03,1.38E-02
11786,7.26E-03,1.38E-02
11787,6.91E-03,1.38E-02
11788,6.78E-03,1.38E-02
11789,6.60E-03,1.37E-02
11790,5.96E-03,1.37E-02
11791,5.87E-03,1.37E-02
11792,5.55E-03,1.36E-02
11793,5.10E-03,1.36E-02
11794,4.75E-03,1.36E-02
11795,4.68E-03,1.36E-02
11796,4.44E-03,1.36E-02
11797,4.19E-03,1.35E-02
11798,4.05E-03,1.35E-02
11799,4.99E-03,1.35E-02
11800,7.75E-03,1.36E-02
11801,8.95E-03,1.36E-02
11802,4.84E-03,1.36E-02
11803,4.31E-03,1.36E-02
11804,3.79E-03,1.36E-02
11805,3.55E-03,1.36E-02
11806,3.58E-03,1.36E-02
11807,3.81E-03,1.36E-02
11808,3.81E-03,1.36E-02
11809,4.02E-03,1.36E-02
11810,4.41E-03,1.37E-02
11811,4.62E-03,1.37E-02
11812,4.73E-03,1.37E-02
11813,4.79E-03,1.37E-02
11814,5.02E-03,1.37E-02
11815,5.10E-03,1.37E-02
11816,5.51E-03,1.37E-02
11817,5.60E-03,1.38E-02
11818,5.67E-03,1.38E-02
11819,5.74E-03,1.38E-02
11820,5.92E-03,1.38E-02
11821,6.08E-03,1.39E-02
11822,6.06E-03,1.39E-02
11823,6.03E-03,1.39E-02
11824,5.88E-03,1.39E-02
11825,6.60E-03,1.40E-02
11826,6.31E-03,1.40E-02
11827,6.18E-03,1.61E-02
11828,5.70E-03,1.65E-02
11829,5.78E-03,1.60E-02
11830,6.11E-03,1.59E-02
11831,7.44E-03,1.71E-02
11832,6.58E-03,1.57E-02
11833,8.71E-03,1.70E-02
11834,8.68E-03,1.71E-02
11835,8.47E-03,1.72E-02
11836,8.71E-03,1.60E-02
11837,9.32E-03,1.59E-02
11838,9.71E-03,1.58E-02
11839,9.72E-03,1.57E-02
11840,9.53E-03,1.57E-02
11841,8.19E-03,1.80E-02
11842,8.39E-03,1.81E-02
11843,7.18E-03,1.44E-02
11844,6.63E-03,1.40E-02
11845,6.90E-03,1.42E-02
11846,5.85E-03,1.87E-02
11847,7.38E-03,1.81E-02
11848,5.67E-03,1.84E-02
11849,6.49E-03,1.83E-02
11850,8.40E-03,1.87E-02
11851,7.42E-03,1.88E-02
11852,8.82E-03,1.80E-02
11853,9.71E-03,1.80E-02
11854,7.57E-03,1.09E-02
11855,8.25E-03,1.09E-02
11856,7.42E-03,1.10E-02
11857,7.59E-03,1.11E-02
11858,7.85E-03,1.11E-02
11859,7.79E-03,1.11E-02
11860,7.84E-03,1.12E-02
11861,7.90E-03,1.12E-02
11862,8.08E-03,1.13E-02
11863,8.15E-03,1.13E-02
11864,8.26E-03,1.14E-02
11865,8.35E-03,1.14E-02
11866,8.36E-03,1.14E-02
11867,8.50E-03,1.15E-02
11868,8.55E-03,1.15E-02
11869,8.68E-03,1.16E-02
11870,8.91E-03,1.16E-02
11871,9.03E-03,1.17E-02
11872,9.21E-03,1.18E-02
11873,9.31E-03,1.18E-02
11874,9.44E-03,1.19E-02
11875,9.59E-03,1.20E-02
11876,9.72E-03,1.20E-02
11877,9.79E-03,1.21E-02
11878,9.75E-03,1.22E-02
11879,1.00E-02,1.22E-02
11880,1.03E-02,1.23E-02
11881,1.05E-02,1.24E-02
11882,1.05E-02,1.25E-02
11883,1.03E-02,1.25E-02
11884,1.02E-02,1.26E-02
11885,1.01E-02,1.27E-02
11886,1.00E-02,1.28E-02
11887,1.03E-02,1.29E-02
11888,1.06E-02,1.30E-02
11889,1.14E-02,1.30E-02
11890,1.02E-02,1.33E-02
11891,9.81E-03,1.34E-02
11892,9.60E-03,1.34E-02
11893,9.46E-03,1.35E-02
11894,8.78E-03,1.36E-02
11895,8.54E-03,1.36E-02
11896,8.25E-03,1.37E-02
11897,7.99E-03,1.38E-02
11898,7.61E-03,1.38E-02
11899,7.63E-03,1.39E-02
11900,7.92E-03,1.39E-02
11901,9.08E-03,1.40E-02
11902,8.67E-03,1.40E-02
11903,6.70E-03,1.41E-02
11904,5.84E-03,1.41E-02
11905,5.17E-03,1.41E-02
11906,5.66E-03,1.42E-02
11907,5.75E-03,1.42E-02
11908,5.40E-03,1.42E-02
11909,5.21E-03,1.42E-02
11910,4.97E-03,1.43E-02
11911,5.33E-03,1.43E-02
11912,5.92E-03,1.43E-02
11913,5.61E-03,1.43E-02
11914,5.51E-03,1.44E-02
11915,4.41E-03,1.44E-02
11916,5.52E-03,1.44E-02
11917,4.82E-03,1.45E-02
11918,2.94E-03,1.45E-02
11919,5.73E-03,1.45E-02
11920,4.45E-03,1.45E-02
11921,5.99E-03,1.45E-02
11922,5.51E-03,1.45E-02
11923,5.97E-03,1.46E-02
11924,5.60E-03,1.46E-02
11925,5.06E-03,1.81E-02
11926,5.42E-03,1.82E-02
11927,5.45E-03,1.81E-02
11928,7.48E-03,1.79E-02
11929,8.02E-03,1.80E-02
11930,4.83E-03,1.38E-02
11931,5.40E-03,1.37E-02
11932,6.25E-03,1.68E-02
11933,6.23E-03,1.65E-02
11934,6.19E-03,1.64E-02
11935,7.77E-03,1.77E-02
11936,7.06E-03,1.38E-02
11937,8.22E-03,1.38E-02
11938,7.93E-03,1.78E-02
11939,7.13E-03,1.90E-02
11940,6.79E-03,1.90E-02
11941,8.48E-03,1.68E-02
11942,6.25E-03,1.85E-02
11943,9.26E-03,1.86E-02
11944,7.40E-03,1.71E-02
11945,7.70E-03,1.73E-02
11946,6.71E-03,1.57E-02
11947,8.60E-03,1.69E-02
11948,7.51E-03,1.72E-02
11949,8.52E-03,1.61E-02
11950,7.19E-03,1.81E-02
11951,8.91E-03,1.83E-02
11952,7.05E-03,1.88E-02
11953,7.35E-03,1.88E-02
11954,8.00E-03,1.46E-02
11955,5.81E-03,1.67E-02
11956,6.85E-03,1.87E-02
11957,8.12E-03,1.55E-02
11958,7.76E-03,1.54E-02
11959,7.06E-03,1.53E-02
11960,6.31E-03,1.49E-02
11961,6.78E-03,1.49E-02
11962,7.13E-03,1.81E-02
11963,4.44E-03,1.85E-02
11964,5.05E-03,1.37E-02
11965,7.39E-03,1.88E-02
11966,6.44E-03,1.90E-02
11967,4.71E-03,1.91E-02
11968,6.12E-03,1.92E-02
11969,6.09E-03,1.91E-02
11970,8.68E-03,1.92E-02
11971,6.65E-03,1.92E-02
11972,7.13E-03,1.90E-02
11973,6.88E-03,1.89E-02
11974,8.35E-03,1.78E-02
11975,8.23E-03,1.67E-02
11976,7.91E-03,1.75E-02
11977,7.23E-03,1.46E-02
11978,6.11E-03,1.49E-02
11979,6.72E-03,1.47E-02
11980,9.30E-03,1.35E-02
11981,7.64E-03,1.38E-02
11982,6.82E-03,1.41E-02
11983,7.19E-03,1.42E-02
11984,8.37E-03,1.44E-02
11985,7.45E-03,1.42E-02
11986,7.99E-03,1.40E-02
11987,9.06E-03,1.37E-02
11988,6.78E-03,1.56E-02
11989,8.17E-03,1.63E-02
11990,7.06E-03,1.89E-02
11991,7.81E-03,1.48E-02
11992,6.19E-03,1.63E-02
11993,6.56E-03,1.64E-02
11994,5.78E-03,1.66E-02
11995,8.11E-03,1.39E-02
11996,8.22E-03,1.38E-02
11997,1.03E-02,1.56E-02
11998,9.70E-03,1.56E-02
11999,7.11E-03,1.92E-02
12000,7.92E-03,1.77E-02
12001,8.00E-03,1.66E-02
12002,7.55E-03,1.51E-02
12003,6.85E-03,1.55E-02
12004,6.87E-03,1.53E-02
12005,7.20E-03,1.52E-02
12006,6.87E-03,1.08E-02
12007,6.91E-03,1.11E-02
12008,7.50E-03,1.47E-02
12009,6.74E-03,1.86E-02
12010,6.98E-03,1.89E-02
12011,7.95E-03,1.77E-02
12012,8.20E-03,1.23E-02
12013,7.08E-03,1.20E-02
12014,7.15E-03,1.06E-02
12015,6.98E-03,1.04E-02
12016,6.90E-03,1.07E-02
12017,7.10E-03,1.16E-02
12018,8.10E-03,1.17E-02
12019,6.96E-03,1.20E-02
12020,4.74E-03,1.62E-02
12021,7.78E-03,1.43E-02
12022,4.73E-03,1.60E-02
12023,6.25E-03,1.59E-02
12024,8.01E-03,1.23E-02
12025,9.04E-03,1.33E-02
12026,6.72E-03,1.36E-02
12027,3.34E-03,1.51E-02
12028,5.74E-03,1.50E-02
12029,5.59E-03,1.38E-02
12030,4.44E-03,1.39E-02
12031,5.53E-03,1.40E-02
12032,6.36E-03,1.38E-02
12033,6.99E-03,1.38E-02
12034,7.35E-03,1.38E-02
12035,7.43E-03,1.38E-02
12036,7.30E-03,1.37E-02
12037,7.22E-03,1.37E-02
12038,6.96E-03,1.37E-02
12039,6.77E-03,1.36E-02
12040,6.54E-03,1.36E-02
12041,6.12E-03,1.36E-02
12042,5.84E-03,1.35E-02
12043,5.45E-03,1.35E-02
12044,5.23E-03,1.35E-02
12045,4.94E-03,1.35E-02
12046,4.70E-03,1.34E-02
12047,4.43E-03,1.34E-02
12048,4.08E-03,1.34E-02
12049,3.83E-03,1.34E-02
12050,3.71E-03,1.34E-02
12051,3.38E-03,1.33E-02
12052,8.17E-03,1.75E-02
12053,8.39E-03,1.76E-02
12054,7.36E-03,1.94E-02
12055,7.29E-03,1.94E-02
12056,7.21E-03,1.94E-02
12057,7.22E-03,1.94E-02
12058,7.45E-03,1.94E-02
12059,8.51E-03,1.94E-02
12060,8.63E-03,1.94E-02
12061,9.65E-03,1.50E-02
12062,5.81E-03,1.62E-02
12063,6.91E-03,1.65E-02
12064,7.97E-03,1.41E-02
12065,8.05E-03,1.42E-02
12066,8.48E-03,1.43E-02
12067,8.84E-03,1.44E-02
12068,7.61E-03,1.12E-02
12069,7.84E-03,1.11E-02
12070,7.83E-03,1.10E-02
12071,7.71E-03,1.09E-02
12072,8.88E-03,1.45E-02
12073,8.34E-03,1.13E-02
12074,8.73E-03,1.46E-02
12075,8.86E-03,1.46E-02
12076,8.84E-03,1.46E-02
12077,7.97E-03,1.14E-02
12078,8.58E-03,1.15E-02
12079,8.46E-03,1.17E-02
12080,7.60E-03,1.19E-02
12081,7.55E-03,1.18E-02
12082,7.94E-03,1.20E-02
12083,7.34E-03,1.21E-02
12084,7.84E-03,1.22E-02
12085,7.97E-03,1.24E-02
12086,9.86E-03,1.23E-02
12087,6.75E-03,1.25E-02
12088,7.30E-03,1.26E-02
12089,8.18E-03,1.27E-02
12090,7.78E-03,1.28E-02
12091,7.42E-03,1.31E-02
12092,8.70E-03,1.31E-02
12093,8.89E-03,1.29E-02
12094,4.98E-03,1.46E-02
12095,6.87E-03,1.46E-02
12096,7.29E-03,1.32E-02
12097,7.35E-03,1.33E-02
12098,8.85E-03,1.35E-02
12099,7.57E-03,1.34E-02
12100,7.39E-03,1.36E-02
12101,7.08E-03,1.45E-02
12102,7.06E-03,1.37E-02
12103,7.50E-03,1.45E-02
12104,8.45E-03,1.38E-02
12105,7.43E-03,1.45E-02
12106,7.99E-03,1.38E-02
12107,8.14E-03,1.44E-02
12108,9.07E-03,1.44E-02
12109,7.44E-03,1.40E-02
12110,6.72E-03,1.41E-02
12111,6.25E-03,1.43E-02
12112,7.93E-03,1.41E-02
12113,7.23E-03,1.42E-02
12114,7.89E-03,1.08E-02
12115,8.14E-03,1.07E-02
12116,8.24E-03,1.05E-02
12117,8.09E-03,1.04E-02
12118,8.09E-03,1.02E-02
12119,8.09E-03,1.01E-02
12120,8.03E-03,9.95E-03
12121,7.95E-03,9.81E-03
12122,7.96E-03,9.68E-03
12123,8.11E-03,9.54E-03
12124,8.70E-03,9.39E-03
12125,6.94E-03,9.21E-03
12126,6.63E-03,9.09E-03
12127,8.76E-03,8.98E-03
12128,6.53E-03,9.06E-03
12129,6.84E-03,9.13E-03
12130,7.00E-03,9.22E-03
12131,7.14E-03,9.32E-03
12132,7.34E-03,9.41E-03
12133,7.66E-03,9.51E-03
12134,7.62E-03,9.61E-03
12135,7.59E-03,9.71E-03
12136,7.61E-03,9.81E-03
12137,7.56E-03,9.91E-03
12138,7.59E-03,1.00E-02
12139,7.64E-03,1.01E-02
12140,7.79E-03,1.02E-02
12141,7.75E-03,1.03E-02
12142,7.60E-03,1.04E-02
12143,7.56E-03,1.06E-02
12144,7.54E-03,1.07E-02
12145,6.89E-03,1.07E-02
12146,8.37E-03,1.34E-02
12147,4.42E-03,1.34E-02
12148,3.79E-03,1.35E-02
12149,3.70E-03,1.35E-02
12150,3.62E-03,1.35E-02
12151,3.65E-03,1.35E-02
12152,3.72E-03,1.35E-02
12153,3.96E-03,1.35E-02
12154,4.15E-03,1.35E-02
12155,4.38E-03,1.35E-02
12156,4.66E-03,1.35E-02
12157,4.75E-03,1.35E-02
12158,4.82E-03,1.35E-02
12159,5.11E-03,1.35E-02
12160,5.21E-03,1.35E-02
12161,5.52E-03,1.36E-02
12162,5.63E-03,1.36E-02
12163,5.74E-03,1.36E-02
12164,5.75E-03,1.36E-02
12165,5.95E-03,1.36E-02
12166,6.02E-03,1.37E-02
12167,6.10E-03,1.37E-02
12168,6.11E-03,1.37E-02
12169,6.26E-03,1.38E-02
12170,6.51E-03,1.38E-02
12171,6.55E-03,1.38E-02
12172,6.58E-03,1.38E-02
12173,6.27E-03,1.38E-02
12174,6.43E-03,1.41E-02
12175,4.06E-03,1.69E-02
12176,7.61E-03,1.36E-02
12177,7.59E-03,1.72E-02
12178,6.86E-03,1.58E-02
12179,8.63E-03,1.70E-02
12180,8.68E-03,1.71E-02
12181,8.59E-03,1.71E-02
12182,8.71E-03,1.61E-02
12183,9.16E-03,1.60E-02
12184,9.29E-03,1.59E-02
12185,9.32E-03,1.58E-02
12186,9.36E-03,1.57E-02
12187,8.24E-03,1.82E-02
12188,8.04E-03,1.85E-02
12189,7.35E-03,1.87E-02
12190,8.21E-03,1.84E-02
12191,8.10E-03,1.44E-02
12192,5.26E-03,1.68E-02
12193,7.39E-03,1.86E-02
12194,6.89E-03,1.86E-02
12195,8.24E-03,1.55E-02
12196,7.75E-03,1.55E-02
12197,7.48E-03,1.54E-02
12198,4.44E-03,1.49E-02
12199,5.90E-03,1.50E-02
12200,7.66E-03,1.80E-02
12201,7.61E-03,1.81E-02
12202,7.99E-03,1.82E-02
12203,7.32E-03,1.82E-02
12204,8.02E-03,1.93E-02
12205,5.76E-03,1.37E-02
12206,5.99E-03,1.92E-02
12207,7.56E-03,1.92E-02
12208,9.30E-03,1.84E-02
12209,8.10E-03,1.93E-02
12210,8.50E-03,1.93E-02
12211,7.89E-03,1.82E-02
12212,7.74E-03,1.54E-02
12213,8.92E-03,1.90E-02
12214,7.22E-03,1.89E-02
12215,6.24E-03,1.87E-02
12216,8.31E-03,1.36E-02
12217,9.17E-03,1.36E-02
12218,7.94E-03,1.20E-02
12219,9.08E-03,1.79E-02
12220,1.02E-02,1.79E-02
12221,9.59E-03,1.79E-02
12222,8.47E-03,1.67E-02
12223,9.81E-03,1.27E-02
12224,7.91E-03,1.71E-02
12225,7.86E-03,1.74E-02
12226,8.14E-03,1.51E-02
12227,7.73E-03,1.49E-02
12228,7.84E-03,1.47E-02
12229,7.80E-03,1.44E-02
12230,7.88E-03,1.42E-02
12231,7.97E-03,1.40E-02
12232,6.97E-03,1.57E-02
12233,8.55E-03,1.68E-02
12234,9.67E-03,1.72E-02
12235,8.53E-03,1.62E-02
12236,7.32E-03,1.89E-02
12237,7.61E-03,1.88E-02
12238,6.02E-03,1.86E-02
12239,7.54E-03,1.87E-02
12240,6.31E-03,1.84E-02
12241,8.32E-03,1.84E-02
12242,7.28E-03,1.87E-02
12243,7.91E-03,1.85E-02
12244,7.77E-03,1.78E-02
12245,7.16E-03,1.74E-02
12246,8.28E-03,1.46E-02
12247,5.67E-03,1.67E-02
12248,4.63E-03,1.69E-02
12249,8.01E-03,1.38E-02
12250,7.96E-03,1.56E-02
12251,7.54E-03,1.79E-02
12252,7.87E-03,1.92E-02
12253,7.93E-03,1.90E-02
12254,7.99E-03,1.76E-02
12255,8.38E-03,1.24E-02
12256,6.92E-03,1.56E-02
12257,7.95E-03,1.37E-02
12258,8.46E-03,1.66E-02
12259,7.03E-03,1.51E-02
12260,7.62E-03,1.49E-02
12261,6.03E-03,1.53E-02
12262,5.60E-03,1.54E-02
12263,7.23E-03,1.53E-02
12264,5.65E-03,1.51E-02
12265,6.88E-03,1.87E-02
12266,7.26E-03,1.08E-02
12267,7.63E-03,1.48E-02
12268,7.39E-03,1.49E-02
12269,6.38E-03,1.85E-02
12270,7.37E-03,1.86E-02
12271,7.98E-03,1.87E-02
12272,7.01E-03,1.88E-02
12273,7.38E-03,1.85E-02
12274,6.91E-03,1.87E-02
12275,8.05E-03,1.63E-02
12276,7.82E-03,1.39E-02
12277,7.52E-03,1.41E-02
12278,7.65E-03,1.40E-02
12279,8.32E-03,1.78E-02
12280,7.97E-03,1.46E-02
12281,7.33E-03,1.43E-02
12282,8.96E-03,1.77E-02
12283,7.11E-03,1.88E-02
12284,7.21E-03,1.88E-02
12285,2.58E-03,1.37E-02
12286,5.70E-03,1.36E-02
12287,6.66E-03,1.34E-02
12288,9.66E-03,1.32E-02
12289,8.18E-03,1.28E-02
12290,8.37E-03,1.25E-02
12291,6.42E-03,1.37E-02
12292,7.32E-03,1.37E-02
12293,7.50E-03,1.37E-02
12294,7.48E-03,1.36E-02
12295,7.31E-03,1.36E-02
12296,7.20E-03,1.36E-02
12297,7.03E-03,1.35E-02
12298,6.75E-03,1.35E-02
12299,6.50E-03,1.35E-02
12300,6.08E-03,1.34E-02
12301,5.83E-03,1.34E-02
12302,5.44E-03,1.34E-02
12303,5.28E-03,1.33E-02
12304,5.07E-03,1.33E-02
12305,4.75E-03,1.33E-02
12306,4.47E-03,1.33E-02
12307,4.14E-03,1.32E-02
12308,4.13E-03,1.32E-02
12309,3.80E-03,1.32E-02
12310,2.79E-03,1.32E-02
12311,7.61E-03,1.23E-02
12312,7.36E-03,9.57E-03
12313,7.46E-03,9.81E-03
12314,7.28E-03,1.01E-02
12315,7.58E-03,1.03E-02
12316,8.14E-03,1.06E-02
12317,8.48E-03,1.09E-02
12318,6.97E-03,1.12E-02
12319,8.09E-03,1.74E-02
12320,7.38E-03,1.73E-02
12321,8.52E-03,1.75E-02
12322,7.72E-03,1.95E-02
12323,7.76E-03,1.95E-02
12324,7.71E-03,1.95E-02
12325,7.82E-03,1.95E-02
12326,7.50E-03,1.95E-02
12327,7.61E-03,1.95E-02
12328,7.65E-03,1.94E-02
12329,5.95E-03,1.79E-02
12330,6.71E-03,1.78E-02
12331,9.41E-03,1.17E-02
12332,8.40E-03,1.76E-02
12333,6.64E-03,1.87E-02
12334,9.29E-03,1.78E-02
12335,7.70E-03,1.39E-02
12336,7.41E-03,1.89E-02
12337,7.30E-03,1.90E-02
12338,7.72E-03,1.95E-02
12339,8.20E-03,1.57E-02
12340,7.66E-03,1.57E-02
12341,8.50E-03,1.78E-02
12342,7.36E-03,1.61E-02
12343,7.98E-03,1.63E-02
12344,6.76E-03,1.64E-02
12345,6.10E-03,1.66E-02
12346,5.37E-03,1.40E-02
12347,6.99E-03,1.41E-02
12348,8.77E-03,1.65E-02
12349,8.99E-03,1.64E-02
12350,6.36E-03,1.33E-02
12351,6.96E-03,1.92E-02
12352,3.99E-03,1.33E-02
12353,3.51E-03,1.33E-02
12354,3.60E-03,1.33E-02
12355,3.57E-03,1.33E-02
12356,3.61E-03,1.33E-02
12357,3.63E-03,1.33E-02
12358,3.77E-03,1.33E-02
12359,4.07E-03,1.33E-02
12360,4.19E-03,1.33E-02
12361,4.46E-03,1.33E-02
12362,4.68E-03,1.33E-02
12363,4.76E-03,1.33E-02
12364,4.94E-03,1.34E-02
12365,5.07E-03,1.34E-02
12366,5.35E-03,1.34E-02
12367,5.52E-03,1.34E-02
12368,5.66E-03,1.34E-02
12369,5.73E-03,1.34E-02
12370,5.78E-03,1.34E-02
12371,5.98E-03,1.35E-02
12372,6.05E-03,1.35E-02
12373,6.13E-03,1.35E-02
12374,6.21E-03,1.35E-02
12375,6.31E-03,1.36E-02
12376,6.48E-03,1.36E-02
12377,6.57E-03,1.36E-02
12378,6.61E-03,1.36E-02
12379,7.05E-03,1.36E-02
12380,7.90E-03,1.41E-02
12381,8.29E-03,1.43E-02
12382,9.28E-03,1.57E-02
12383,7.26E-03,1.62E-02
12384,5.84E-03,1.61E-02
12385,7.17E-03,1.85E-02
12386,5.33E-03,1.87E-02
12387,7.08E-03,1.85E-02
12388,8.68E-03,1.86E-02
12389,8.62E-03,1.44E-02
12390,6.21E-03,9.44E-03
12391,6.21E-03,9.27E-03
12392,5.20E-03,8.90E-03
12393,7.77E-03,1.11E-02
12394,7.82E-03,1.10E-02
12395,7.80E-03,1.09E-02
12396,8.80E-03,1.45E-02
12397,9.02E-03,1.93E-02
12398,8.05E-03,1.12E-02
12399,6.10E-03,1.52E-02
12400,8.81E-03,1.46E-02
12401,8.04E-03,1.13E-02
12402,7.50E-03,1.03E-02
12403,8.53E-03,1.47E-02
12404,8.84E-03,1.47E-02
12405,8.92E-03,1.47E-02
12406,8.25E-03,1.14E-02
12407,8.47E-03,1.15E-02
12408,7.72E-03,1.17E-02
12409,7.99E-03,1.17E-02
12410,7.89E-03,1.19E-02
12411,7.88E-03,1.20E-02
12412,7.65E-03,1.21E-02
12413,8.38E-03,1.23E-02
12414,8.45E-03,1.22E-02
12415,7.47E-03,1.24E-02
12416,7.29E-03,1.25E-02
12417,7.74E-03,1.26E-02
12418,8.23E-03,1.27E-02
12419,8.02E-03,1.31E-02
12420,8.65E-03,1.29E-02
12421,8.34E-03,1.28E-02
12422,8.00E-03,1.10E-02
12423,8.67E-03,1.11E-02
12424,7.80E-03,1.11E-02
12425,7.75E-03,1.12E-02
12426,7.81E-03,1.12E-02
12427,7.84E-03,1.13E-02
12428,7.87E-03,1.13E-02
12429,7.95E-03,1.13E-02
12430,8.03E-03,1.14E-02
12431,8.12E-03,1.14E-02
12432,8.20E-03,1.15E-02
12433,8.28E-03,1.15E-02
12434,8.36E-03,1.16E-02
12435,8.57E-03,1.16E-02
12436,8.63E-03,1.17E-02
12437,8.82E-03,1.17E-02
12438,8.97E-03,1.18E-02
12439,9.08E-03,1.18E-02
12440,9.16E-03,1.19E-02
12441,9.24E-03,1.19E-02
12442,9.39E-03,1.20E-02
12443,9.49E-03,1.21E-02
12444,9.60E-03,1.21E-02
12445,9.78E-03,1.22E-02
12446,9.86E-03,1.23E-02
12447,1.00E-02,1.23E-02
12448,1.03E-02,1.24E-02
12449,1.04E-02,1.25E-02
12450,1.04E-02,1.26E-02
12451,1.05E-02,1.26E-02
12452,1.04E-02,1.27E-02
12453,1.03E-02,1.28E-02
12454,1.04E-02,1.29E-02
12455,1.06E-02,1.29E-02
12456,1.10E-02,1.30E-02
12457,1.14E-02,1.31E-02
12458,1.09E-02,1.32E-02
12459,1.10E-02,1.33E-02
12460,1.05E-02,1.33E-02
12461,1.01E-02,1.34E-02
12462,9.96E-03,1.35E-02
12463,9.32E-03,1.36E-02
12464,9.00E-03,1.36E-02
12465,8.63E-03,1.37E-02
12466,8.57E-03,1.37E-02
12467,7.90E-03,1.38E-02
12468,7.87E-03,1.39E-02
12469,7.86E-03,1.39E-02
12470,7.86E-03,1.40E-02
12471,7.68E-03,1.40E-02
12472,7.51E-03,1.40E-02
12473,7.03E-03,1.41E-02
12474,6.66E-03,1.41E-02
12475,6.12E-03,1.42E-02
12476,5.64E-03,1.42E-02
12477,5.59E-03,1.42E-02
12478,5.36E-03,1.42E-02
12479,5.22E-03,1.43E-02
12480,5.16E-03,1.43E-02
12481,5.03E-03,1.43E-02
12482,5.28E-03,1.43E-02
12483,4.93E-03,1.44E-02
12484,4.49E-03,1.44E-02
12485,3.60E-03,1.44E-02
12486,4.53E-03,1.44E-02
12487,5.06E-03,1.44E-02
12488,4.90E-03,1.45E-02
12489,4.32E-03,1.45E-02
12490,3.04E-03,1.45E-02
12491,2.69E-03,1.45E-02
12492,3.99E-03,1.45E-02
12493,4.59E-03,1.45E-02
12494,4.71E-03,1.45E-02
12495,4.53E-03,1.45E-02
12496,4.60E-03,1.46E-02
12497,4.61E-03,1.46E-02
12498,4.43E-03,1.46E-02
12499,4.41E-03,1.46E-02
12500,6.48E-03,1.46E-02
12501,5.64E-03,1.46E-02
12502,5.17E-03,1.47E-02
12503,4.77E-03,1.46E-02
12504,3.60E-03,1.47E-02
12505,4.35E-03,1.47E-02
12506,5.55E-03,1.47E-02
12507,7.90E-03,1.46E-02
12508,7.73E-03,1.46E-02
12509,7.08E-03,1.46E-02
12510,7.42E-03,1.31E-02
12511,7.64E-03,1.32E-02
12512,7.87E-03,1.34E-02
12513,7.44E-03,1.33E-02
12514,7.95E-03,1.35E-02
12515,8.07E-03,1.46E-02
12516,7.30E-03,1.36E-02
12517,7.31E-03,1.45E-02
12518,7.71E-03,1.37E-02
12519,8.36E-03,1.45E-02
12520,7.97E-03,1.38E-02
12521,7.93E-03,1.45E-02
12522,8.43E-03,1.39E-02
12523,9.46E-03,1.44E-02
12524,8.30E-03,1.39E-02
12525,7.41E-03,1.40E-02
12526,9.51E-03,1.44E-02
12527,8.41E-03,1.43E-02
12528,7.38E-03,1.41E-02
12529,7.15E-03,1.42E-02
12530,8.54E-03,1.42E-02
12531,6.81E-03,1.10E-02
12532,7.92E-03,1.08E-02
12533,7.96E-03,1.06E-02
12534,8.09E-03,1.05E-02
12535,8.09E-03,1.04E-02
12536,8.09E-03,1.02E-02
12537,8.09E-03,1.01E-02
12538,8.09E-03,9.93E-03
12539,8.05E-03,9.79E-03
12540,8.04E-03,9.65E-03
12541,8.27E-03,9.51E-03
12542,7.87E-03,9.37E-03
12543,7.69E-03,9.22E-03
12544,7.79E-03,9.09E-03
12545,8.60E-03,8.94E-03
12546,7.06E-03,8.75E-03
12547,5.58E-03,8.64E-03
12548,6.81E-03,8.71E-03
12549,8.35E-03,8.84E-03
12550,7.43E-03,8.93E-03
12551,7.13E-03,9.02E-03
12552,7.19E-03,9.12E-03
12553,7.25E-03,9.21E-03
12554,7.41E-03,9.31E-03
12555,7.55E-03,9.41E-03
12556,7.64E-03,9.51E-03
12557,7.67E-03,9.61E-03
12558,7.74E-03,9.71E-03
12559,7.73E-03,9.82E-03
12560,7.73E-03,9.92E-03
12561,7.73E-03,1.00E-02
12562,7.73E-03,1.01E-02
12563,7.73E-03,1.02E-02
12564,7.68E-03,1.04E-02
12565,7.49E-03,1.05E-02
12566,7.35E-03,1.06E-02
12567,7.00E-03,1.07E-02
12568,6.74E-03,1.08E-02
12569,6.41E-03,1.09E-02
12570,5.70E-03,1.50E-02
12571,8.53E-03,1.80E-02
12572,7.90E-03,1.73E-02
12573,7.90E-03,1.39E-02
12574,7.11E-03,1.59E-02
12575,8.63E-03,1.69E-02
12576,8.75E-03,1.70E-02
12577,8.77E-03,1.71E-02
12578,8.80E-03,1.61E-02
12579,8.98E-03,1.60E-02
12580,8.85E-03,1.60E-02
12581,8.91E-03,1.59E-02
12582,8.97E-03,1.58E-02
12583,7.90E-03,1.87E-02
12584,6.17E-03,1.85E-02
12585,8.52E-03,1.83E-02
12586,7.52E-03,1.86E-02
12587,7.31E-03,1.82E-02
12588,8.76E-03,1.80E-02
12589,8.93E-03,1.78E-02
12590,8.12E-03,1.74E-02
12591,7.67E-03,1.72E-02
12592,8.13E-03,1.71E-02
12593,8.31E-03,1.66E-02
12594,8.02E-03,1.66E-02
12595,8.40E-03,1.59E-02
12596,1.01E-02,1.56E-02
12597,9.20E-03,1.44E-02
12598,5.18E-03,1.68E-02
12599,7.82E-03,1.38E-02
12600,7.53E-03,1.39E-02
12601,5.48E-03,1.39E-02
12602,6.80E-03,1.39E-02
12603,9.67E-03,1.39E-02
12604,8.10E-03,1.39E-02
12605,7.63E-03,1.56E-02
12606,5.91E-03,1.78E-02
12607,8.44E-03,1.92E-02
12608,7.98E-03,1.74E-02
12609,8.50E-03,1.72E-02
12610,9.14E-03,1.28E-02
12611,9.45E-03,1.31E-02
12612,7.26E-03,1.58E-02
12613,8.03E-03,1.37E-02
12614,8.54E-03,1.67E-02
12615,8.65E-03,1.68E-02
12616,9.67E-03,1.72E-02
12617,6.38E-03,1.52E-02
12618,7.25E-03,1.50E-02
12619,6.51E-03,1.56E-02
12620,6.25E-03,1.56E-02
12621,5.52E-03,1.54E-02
12622,7.57E-03,1.54E-02
12623,6.02E-03,1.51E-02
12624,7.73E-03,1.86E-02
12625,7.96E-03,1.86E-02
12626,7.64E-03,1.36E-02
12627,7.78E-03,1.36E-02
12628,7.89E-03,1.35E-02
12629,7.42E-03,1.35E-02
12630,7.33E-03,1.35E-02
12631,7.21E-03,1.34E-02
12632,7.05E-03,1.34E-02
12633,6.72E-03,1.34E-02
12634,6.47E-03,1.33E-02
12635,6.05E-03,1.33E-02
12636,5.85E-03,1.33E-02
12637,5.58E-03,1.32E-02
12638,5.31E-03,1.32E-02
12639,5.09E-03,1.32E-02
12640,4.66E-03,1.31E-02
12641,4.54E-03,1.31E-02
12642,4.25E-03,1.31E-02
12643,4.30E-03,1.30E-02
12644,4.85E-03,1.30E-02
12645,4.86E-03,1.30E-02
12646,6.79E-03,1.20E-02
12647,5.90E-03,1.18E-02
12648,5.43E-03,1.16E-02
12649,6.05E-03,1.13E-02
12650,6.62E-03,1.10E-02
12651,7.94E-03,1.08E-02
12652,7.81E-03,1.05E-02
12653,7.84E-03,1.03E-02
12654,7.61E-03,9.97E-03
12655,7.54E-03,9.70E-03
12656,7.20E-03,9.16E-03
12657,7.48E-03,9.43E-03
12658,7.67E-03,1.79E-02
12659,7.56E-03,1.74E-02
12660,8.21E-03,1.75E-02
12661,7.71E-03,1.95E-02
12662,8.19E-03,1.20E-02
12663,8.47E-03,1.46E-02
12664,7.92E-03,1.42E-02
12665,7.45E-03,1.14E-02
12666,7.35E-03,1.87E-02
12667,7.18E-03,1.86E-02
12668,8.50E-03,1.75E-02
12669,6.98E-03,1.86E-02
12670,8.89E-03,1.81E-02
12671,8.44E-03,1.84E-02
12672,7.18E-03,1.88E-02
12673,7.35E-03,1.77E-02
12674,7.98E-03,1.17E-02
12675,7.64E-03,1.83E-02
12676,7.33E-03,1.39E-02
12677,8.07E-03,1.47E-02
12678,8.44E-03,1.66E-02
12679,8.29E-03,1.24E-02
12680,5.46E-03,1.96E-02
12681,7.04E-03,1.97E-02
12682,7.64E-03,1.97E-02
12683,8.05E-03,1.97E-02
12684,8.30E-03,1.97E-02
12685,8.31E-03,1.96E-02
12686,8.40E-03,1.86E-02
12687,7.30E-03,1.85E-02
12688,8.15E-03,1.94E-02
12689,8.74E-03,1.94E-02
12690,6.15E-03,1.86E-02
12691,8.68E-03,1.78E-02
12692,8.54E-03,1.78E-02
12693,8.01E-03,1.78E-02
12694,9.63E-03,1.80E-02
12695,6.90E-03,1.87E-02
12696,5.64E-03,1.37E-02
12697,5.97E-03,1.35E-02
12698,6.89E-03,1.32E-02
12699,8.57E-03,1.30E-02
12700,7.87E-03,1.27E-02
12701,7.75E-03,1.24E-02
12702,9.01E-03,1.77E-02
12703,6.20E-03,1.56E-02
12704,9.11E-03,1.62E-02
12705,6.24E-03,1.88E-02
12706,7.82E-03,1.94E-02
12707,8.14E-03,1.76E-02
12708,5.89E-03,1.67E-02
12709,5.96E-03,1.73E-02
12710,5.82E-03,1.72E-02
12711,9.04E-03,1.38E-02
12712,8.34E-03,1.38E-02
12713,7.45E-03,1.40E-02
12714,8.59E-03,1.63E-02
12715,8.16E-03,1.58E-02
12716,5.16E-03,1.57E-02
12717,4.53E-03,1.57E-02
12718,7.47E-03,1.37E-02
12719,7.58E-03,1.39E-02
12720,9.10E-03,1.36E-02
12721,8.09E-03,1.36E-02
12722,8.38E-03,1.35E-02
12723,7.13E-03,1.76E-02
12724,8.34E-03,1.61E-02
12725,7.83E-03,1.63E-02
12726,7.13E-03,1.64E-02
12727,6.27E-03,1.66E-02
12728,7.41E-03,1.22E-02
12729,7.62E-03,1.82E-02
12730,8.68E-03,1.88E-02
12731,7.74E-03,1.41E-02
12732,7.99E-03,1.42E-02
12733,8.91E-03,1.79E-02
12734,7.33E-03,1.74E-02
12735,8.94E-03,1.68E-02
12736,6.88E-03,1.65E-02
12737,5.17E-03,1.64E-02
12738,5.24E-03,1.62E-02
12739,8.24E-03,1.60E-02
12740,8.95E-03,1.58E-02
12741,9.00E-03,1.55E-02
12742,8.68E-03,1.53E-02
12743,8.33E-03,1.51E-02
12744,7.57E-03,1.49E-02
12745,7.58E-03,1.47E-02
12746,7.51E-03,1.45E-02
12747,7.37E-03,1.43E-02
12748,7.00E-03,1.42E-02
12749,7.65E-03,1.38E-02
12750,6.03E-03,1.41E-02
12751,9.08E-03,1.84E-02
12752,8.89E-03,1.65E-02
12753,8.90E-03,1.65E-02
12754,7.29E-03,1.78E-02
12755,8.48E-03,1.43E-02
12756,6.25E-03,1.87E-02
12757,8.09E-03,1.83E-02
12758,8.49E-03,1.85E-02
12759,6.61E-03,9.70E-03
12760,7.24E-03,9.43E-03
12761,5.22E-03,9.12E-03
12762,6.81E-03,1.88E-02
12763,7.87E-03,1.10E-02
12764,7.86E-03,1.08E-02
12765,8.63E-03,1.44E-02
12766,8.08E-03,1.93E-02
12767,8.10E-03,1.94E-02
12768,7.84E-03,1.93E-02
12769,7.95E-03,1.11E-02
12770,7.31E-03,1.53E-02
12771,8.70E-03,1.46E-02
12772,8.03E-03,1.90E-02
12773,8.42E-03,1.89E-02
12774,7.59E-03,1.87E-02
12775,6.04E-03,1.85E-02
12776,5.82E-03,1.87E-02
12777,7.51E-03,1.86E-02
12778,9.27E-03,1.84E-02
12779,9.16E-03,1.87E-02
12780,8.16E-03,1.84E-02
12781,8.06E-03,1.12E-02
12782,7.66E-03,1.05E-02
12783,7.94E-03,1.01E-02
12784,8.73E-03,1.47E-02
12785,7.31E-03,1.83E-02
12786,8.11E-03,1.13E-02
12787,8.39E-03,1.48E-02
12788,8.95E-03,1.48E-02
12789,8.80E-03,1.48E-02
12790,7.92E-03,1.84E-02
12791,8.31E-03,1.14E-02
12792,7.90E-03,1.16E-02
12793,8.24E-03,1.15E-02
12794,6.12E-03,1.52E-02
12795,8.47E-03,1.84E-02
12796,7.04E-03,1.45E-02
12797,8.30E-03,1.45E-02
12798,7.91E-03,1.17E-02
12799,7.96E-03,1.19E-02
12800,7.84E-03,1.20E-02
12801,8.48E-03,1.22E-02
12802,8.03E-03,1.21E-02
12803,8.10E-03,1.46E-02
12804,7.47E-03,1.46E-02
12805,7.41E-03,1.46E-02
12806,7.88E-03,1.23E-02
12807,7.53E-03,1.24E-02
12808,7.63E-03,1.25E-02
12809,7.94E-03,1.26E-02
12810,5.76E-03,1.47E-02
12811,3.15E-03,1.47E-02
12812,3.43E-03,1.47E-02
12813,7.21E-03,1.47E-02
12814,8.28E-03,1.30E-02
12815,8.46E-03,1.28E-02
12816,8.22E-03,1.27E-02
12817,6.69E-03,1.47E-02
12818,7.75E-03,1.47E-02
12819,8.72E-03,1.46E-02
12820,9.34E-03,1.46E-02
12821,7.83E-03,1.46E-02
12822,7.80E-03,1.31E-02
12823,7.60E-03,1.31E-02
12824,7.78E-03,1.33E-02
12825,7.66E-03,1.32E-02
12826,8.10E-03,1.34E-02
12827,7.60E-03,1.46E-02
12828,7.74E-03,1.35E-02
12829,7.76E-03,1.45E-02
12830,7.68E-03,1.36E-02
12831,8.02E-03,1.45E-02
12832,7.96E-03,1.37E-02
12833,7.98E-03,1.45E-02
12834,8.19E-03,1.38E-02
12835,8.40E-03,1.44E-02
12836,8.42E-03,1.39E-02
12837,7.98E-03,1.40E-02
12838,8.34E-03,1.44E-02
12839,9.51E-03,1.43E-02
12840,7.60E-03,1.40E-02
12841,7.93E-03,1.42E-02
12842,7.79E-03,1.42E-02
12843,7.91E-03,1.41E-02
12844,6.02E-03,1.30E-02
12845,6.09E-03,1.31E-02
12846,5.73E-03,1.31E-02
12847,3.99E-03,1.31E-02
12848,3.42E-03,1.31E-02
12849,3.53E-03,1.31E-02
12850,3.50E-03,1.31E-02
12851,3.60E-03,1.31E-02
12852,3.57E-03,1.31E-02
12853,3.88E-03,1.31E-02
12854,4.06E-03,1.31E-02
12855,4.29E-03,1.31E-02
12856,4.55E-03,1.32E-02
12857,4.62E-03,1.32E-02
12858,4.80E-03,1.32E-02
12859,4.97E-03,1.32E-02
12860,5.13E-03,1.32E-02
12861,5.43E-03,1.32E-02
12862,5.56E-03,1.32E-02
12863,5.63E-03,1.32E-02
12864,5.71E-03,1.32E-02
12865,5.83E-03,1.33E-02
12866,6.01E-03,1.33E-02
12867,6.08E-03,1.33E-02
12868,6.16E-03,1.33E-02
12869,6.24E-03,1.33E-02
12870,6.31E-03,1.34E-02
12871,6.52E-03,1.34E-02
12872,6.55E-03,1.34E-02
12873,6.54E-03,1.34E-02
12874,6.85E-03,1.35E-02
12875,6.01E-03,1.29E-02
12876,7.99E-03,1.89E-02
12877,7.81E-03,1.91E-02
12878,7.65E-03,1.92E-02
12879,6.63E-03,1.46E-02
12880,6.30E-03,1.47E-02
12881,5.54E-03,1.47E-02
12882,3.84E-03,1.47E-02
12883,2.96E-03,1.47E-02
12884,3.39E-03,1.47E-02
12885,4.26E-03,1.47E-02
12886,3.18E-03,1.46E-02
12887,4.13E-03,1.46E-02
12888,4.77E-03,1.46E-02
12889,4.85E-03,1.46E-02
12890,4.38E-03,1.46E-02
12891,3.75E-03,1.46E-02
12892,3.76E-03,1.46E-02
12893,4.72E-03,1.46E-02
12894,5.13E-03,1.46E-02
12895,5.14E-03,1.46E-02
12896,4.55E-03,1.46E-02
12897,4.08E-03,1.46E-02
12898,4.00E-03,1.46E-02
12899,4.30E-03,1.46E-02
12900,4.52E-03,1.46E-02
12901,4.53E-03,1.46E-02
12902,4.59E-03,1.46E-02
12903,4.56E-03,1.46E-02
12904,4.39E-03,1.46E-02
12905,3.94E-03,1.45E-02
12906,3.86E-03,1.45E-02
12907,4.20E-03,1.45E-02
12908,4.12E-03,1.45E-02
12909,4.37E-03,1.45E-02
12910,4.32E-03,1.45E-02
12911,4.02E-03,1.45E-02
12912,3.32E-03,1.45E-02
12913,2.16E-03,1.44E-02
12914,2.45E-03,1.44E-02
12915,3.68E-03,1.44E-02
12916,4.23E-03,1.44E-02
12917,4.56E-03,1.44E-02
12918,4.90E-03,1.43E-02
12919,4.90E-03,1.43E-02
12920,5.04E-03,1.43E-02
12921,5.17E-03,1.43E-02
12922,5.30E-03,1.43E-02
12923,5.45E-03,1.42E-02
12924,5.77E-03,1.42E-02
12925,6.39E-03,1.42E-02
12926,6.88E-03,1.41E-02
12927,6.99E-03,1.41E-02
12928,7.22E-03,1.41E-02
12929,7.34E-03,1.40E-02
12930,7.64E-03,1.40E-02
12931,7.93E-03,1.39E-02
12932,8.08E-03,1.39E-02
12933,8.14E-03,1.38E-02
12934,8.44E-03,1.38E-02
12935,8.73E-03,1.37E-02
12936,9.01E-03,1.37E-02
12937,9.63E-03,1.36E-02
12938,9.89E-03,1.35E-02
12939,1.02E-02,1.35E-02
12940,1.04E-02,1.34E-02
12941,1.07E-02,1.33E-02
12942,1.09E-02,1.32E-02
12943,1.09E-02,1.32E-02
12944,1.09E-02,1.31E-02
12945,1.08E-02,1.30E-02
12946,1.07E-02,1.29E-02
12947,1.06E-02,1.29E-02
12948,1.06E-02,1.28E-02
12949,1.06E-02,1.27E-02
12950,1.04E-02,1.26E-02
12951,1.03E-02,1.26E-02
12952,1.02E-02,1.25E-02
12953,9.96E-03,1.24E-02
12954,9.92E-03,1.23E-02
12955,9.81E-03,1.23E-02
12956,9.58E-03,1.22E-02
12957,9.47E-03,1.22E-02
12958,9.39E-03,1.21E-02
12959,9.25E-03,1.20E-02
12960,9.13E-03,1.20E-02
12961,9.07E-03,1.19E-02
12962,8.88E-03,1.19E-02
12963,8.83E-03,1.18E-02
12964,8.65E-03,1.18E-02
12965,8.56E-03,1.17E-02
12966,8.36E-03,1.17E-02
12967,8.28E-03,1.16E-02
12968,8.20E-03,1.16E-02
12969,8.12E-03,1.16E-02
12970,8.04E-03,1.15E-02
12971,7.95E-03,1.15E-02
12972,7.87E-03,1.14E-02
12973,7.84E-03,1.14E-02
12974,7.87E-03,1.14E-02
12975,7.85E-03,1.13E-02
12976,8.00E-03,1.13E-02
12977,7.91E-03,1.13E-02
12978,7.57E-03,1.12E-02
12979,7.29E-03,1.12E-02
12980,7.05E-03,1.10E-02
12981,7.40E-03,1.11E-02
12982,7.89E-03,1.07E-02
12983,7.95E-03,1.06E-02
12984,8.09E-03,1.05E-02
12985,8.09E-03,1.03E-02
12986,8.09E-03,1.02E-02
12987,8.09E-03,1.01E-02
12988,8.09E-03,9.91E-03
12989,8.09E-03,9.77E-03
12990,8.09E-03,9.63E-03
12991,8.09E-03,9.49E-03
12992,8.00E-03,9.35E-03
12993,7.94E-03,9.21E-03
12994,8.04E-03,9.07E-03
12995,7.94E-03,8.93E-03
12996,7.81E-03,8.77E-03
12997,7.17E-03,8.35E-03
12998,8.25E-03,8.46E-03
12999,7.22E-03,8.55E-03
13000,7.22E-03,8.65E-03
13001,7.39E-03,8.73E-03
13002,7.57E-03,8.82E-03
13003,7.36E-03,8.91E-03
13004,7.31E-03,9.01E-03
13005,7.41E-03,9.11E-03
13006,7.48E-03,9.20E-03
13007,7.57E-03,9.30E-03
13008,7.66E-03,9.40E-03
13009,7.74E-03,9.51E-03
13010,7.74E-03,9.61E-03
13011,7.74E-03,9.72E-03
13012,7.74E-03,9.83E-03
13013,7.73E-03,9.93E-03
13014,7.73E-03,1.00E-02
13015,7.73E-03,1.02E-02
13016,7.64E-03,1.03E-02
13017,7.55E-03,1.04E-02
13018,7.44E-03,1.05E-02
13019,7.27E-03,1.06E-02
13020,7.31E-03,1.07E-02
13021,7.31E-03,1.08E-02
13022,8.27E-03,1.09E-02
13023,8.11E-03,1.11E-02
13024,6.11E-03,1.11E-02
13025,7.99E-03,1.96E-02
13026,5.48E-03,1.12E-02
13027,6.81E-03,1.13E-02
13028,8.05E-03,1.88E-02
13029,8.17E-03,1.88E-02
13030,9.84E-03,1.88E-02
13031,8.70E-03,1.91E-02
13032,9.15E-03,1.91E-02
13033,9.43E-03,1.90E-02
13034,1.08E-02,1.89E-02
13035,7.97E-03,1.73E-02
13036,8.79E-03,1.34E-02
13037,7.66E-03,1.59E-02
13038,7.87E-03,1.37E-02
13039,7.62E-03,1.38E-02
13040,9.25E-03,1.38E-02
13041,8.26E-03,1.38E-02
13042,8.75E-03,1.69E-02
13043,8.84E-03,1.70E-02
13044,9.05E-03,1.71E-02
13045,9.16E-03,1.62E-02
13046,8.64E-03,1.61E-02
13047,8.52E-03,1.60E-02
13048,8.54E-03,1.59E-02
13049,8.35E-03,1.59E-02
13050,5.44E-03,1.52E-02
13051,6.74E-03,1.51E-02
13052,8.15E-03,1.47E-02
13053,6.88E-03,1.47E-02
13054,8.55E-03,1.46E-02
13055,7.55E-03,1.46E-02
13056,6.90E-03,1.47E-02
13057,6.13E-03,1.47E-02
13058,5.62E-03,1.47E-02
13059,2.85E-03,1.47E-02
13060,3.24E-03,1.47E-02
13061,3.23E-03,1.47E-02
13062,3.11E-03,1.46E-02
13063,2.67E-03,1.46E-02
13064,1.68E-03,1.46E-02
13065,2.35E-03,1.46E-02
13066,3.19E-03,1.46E-02
13067,3.72E-03,1.46E-02
13068,4.13E-03,1.46E-02
13069,4.26E-03,1.46E-02
13070,4.25E-03,1.46E-02
13071,4.21E-03,1.46E-02
13072,4.41E-03,1.46E-02
13073,4.60E-03,1.46E-02
13074,4.80E-03,1.46E-02
13075,4.92E-03,1.46E-02
13076,4.86E-03,1.46E-02
13077,4.87E-03,1.46E-02
13078,4.82E-03,1.46E-02
13079,4.70E-03,1.46E-02
13080,4.60E-03,1.46E-02
13081,4.66E-03,1.46E-02
13082,4.67E-03,1.46E-02
13083,4.55E-03,1.46E-02
13084,4.38E-03,1.46E-02
13085,4.25E-03,1.45E-02
13086,4.19E-03,1.45E-02
13087,4.12E-03,1.45E-02
13088,4.18E-03,1.45E-02
13089,4.13E-03,1.45E-02
13090,3.99E-03,1.45E-02
13091,3.88E-03,1.45E-02
13092,3.41E-03,1.45E-02
13093,3.58E-03,1.44E-02
13094,3.77E-03,1.44E-02
13095,3.75E-03,1.44E-02
13096,4.24E-03,1.44E-02
13097,4.49E-03,1.44E-02
13098,4.71E-03,1.44E-02
13099,4.85E-03,1.44E-02
13100,4.98E-03,1.43E-02
13101,5.18E-03,1.43E-02
13102,5.29E-03,1.43E-02
13103,5.45E-03,1.43E-02
13104,5.86E-03,1.42E-02
13105,6.49E-03,1.42E-02
13106,6.85E-03,1.42E-02
13107,6.99E-03,1.41E-02
13108,7.06E-03,1.41E-02
13109,7.24E-03,1.41E-02
13110,7.61E-03,1.40E-02
13111,7.95E-03,1.40E-02
13112,8.08E-03,1.39E-02
13113,8.14E-03,1.39E-02
13114,8.27E-03,1.38E-02
13115,8.86E-03,1.38E-02
13116,9.08E-03,1.37E-02
13117,9.86E-03,1.37E-02
13118,9.90E-03,1.36E-02
13119,1.01E-02,1.35E-02
13120,1.04E-02,1.35E-02
13121,1.05E-02,1.34E-02
13122,1.07E-02,1.33E-02
13123,1.08E-02,1.32E-02
13124,1.08E-02,1.32E-02
13125,1.09E-02,1.31E-02
13126,1.09E-02,1.30E-02
13127,1.08E-02,1.29E-02
13128,1.08E-02,1.29E-02
13129,1.07E-02,1.28E-02
13130,1.04E-02,1.27E-02
13131,1.04E-02,1.26E-02
13132,1.02E-02,1.26E-02
13133,9.91E-03,1.25E-02
13134,9.83E-03,1.24E-02
13135,9.78E-03,1.24E-02
13136,9.55E-03,1.23E-02
13137,9.45E-03,1.23E-02
13138,9.37E-03,1.22E-02
13139,9.29E-03,1.21E-02
13140,9.15E-03,1.21E-02
13141,9.09E-03,1.20E-02
13142,8.83E-03,1.20E-02
13143,8.79E-03,1.19E-02
13144,8.69E-03,1.19E-02
13145,8.53E-03,1.19E-02
13146,8.35E-03,1.18E-02
13147,8.27E-03,1.18E-02
13148,8.20E-03,1.17E-02
13149,8.12E-03,1.17E-02
13150,8.04E-03,1.17E-02
13151,7.95E-03,1.16E-02
13152,7.88E-03,1.16E-02
13153,7.84E-03,1.15E-02
13154,7.87E-03,1.15E-02
13155,7.92E-03,1.15E-02
13156,7.98E-03,1.14E-02
13157,8.04E-03,1.14E-02
13158,8.09E-03,1.14E-02
13159,8.27E-03,1.13E-02
13160,8.40E-03,1.13E-02
13161,7.97E-03,1.13E-02
13162,5.65E-03,1.12E-02
13163,5.81E-03,1.53E-02
13164,7.54E-03,1.73E-02
13165,8.09E-03,1.74E-02
13166,4.32E-03,1.52E-02
13167,7.76E-03,1.97E-02
13168,8.15E-03,1.84E-02
13169,8.70E-03,1.46E-02
13170,5.48E-03,1.88E-02
13171,8.17E-03,1.75E-02
13172,6.68E-03,1.85E-02
13173,9.80E-03,1.82E-02
13174,8.53E-03,1.83E-02
13175,9.83E-03,1.82E-02
13176,9.87E-03,1.81E-02
13177,7.52E-03,1.89E-02
13178,7.64E-03,1.77E-02
13179,8.55E-03,1.77E-02
13180,7.55E-03,1.77E-02
13181,7.64E-03,1.20E-02
13182,7.52E-03,1.85E-02
13183,7.41E-03,1.85E-02
13184,8.00E-03,1.81E-02
13185,8.50E-03,1.78E-02
13186,8.62E-03,1.76E-02
13187,8.78E-03,1.73E-02
13188,8.19E-03,1.70E-02
13189,8.19E-03,1.67E-02
13190,7.74E-03,1.65E-02
13191,7.37E-03,1.62E-02
13192,7.43E-03,1.59E-02
13193,8.06E-03,1.57E-02
13194,8.78E-03,1.54E-02
13195,9.31E-03,1.52E-02
13196,8.95E-03,1.49E-02
13197,8.45E-03,1.46E-02
13198,7.90E-03,1.42E-02
13199,7.04E-03,1.37E-02
13200,7.01E-03,1.34E-02
13201,7.52E-03,1.31E-02
13202,7.98E-03,1.28E-02
13203,7.86E-03,1.26E-02
13204,7.65E-03,1.23E-02
13205,6.95E-03,1.35E-02
13206,7.61E-03,1.35E-02
13207,8.59E-03,1.35E-02
13208,9.55E-03,1.45E-02
13209,8.05E-03,1.43E-02
13210,5.00E-03,1.40E-02
13211,8.52E-03,1.67E-02
13212,8.59E-03,1.27E-02
13213,7.07E-03,1.88E-02
13214,5.31E-03,1.87E-02
13215,5.91E-03,1.86E-02
13216,9.14E-03,1.88E-02
13217,8.65E-03,1.93E-02
13218,8.10E-03,1.75E-02
13219,5.99E-03,1.68E-02
13220,5.65E-03,1.69E-02
13221,8.70E-03,1.30E-02
13222,8.33E-03,1.58E-02
13223,8.00E-03,1.36E-02
13224,6.62E-03,1.44E-02
13225,7.08E-03,1.44E-02
13226,8.67E-03,1.68E-02
13227,8.94E-03,1.71E-02
13228,6.66E-03,1.39E-02
13229,7.97E-03,1.40E-02
13230,7.91E-03,1.40E-02
13231,6.50E-03,1.40E-02
13232,3.89E-03,1.58E-02
13233,7.46E-03,1.59E-02
13234,7.77E-03,1.48E-02
13235,7.05E-03,1.51E-02
13236,8.48E-03,1.46E-02
13237,8.40E-03,1.75E-02
13238,9.15E-03,1.72E-02
13239,7.15E-03,1.40E-02
13240,6.48E-03,1.42E-02
13241,5.74E-03,1.43E-02
13242,6.38E-03,1.42E-02
13243,7.32E-03,1.35E-02
13244,7.83E-03,1.34E-02
13245,4.42E-03,1.76E-02
13246,6.99E-03,1.56E-02
13247,7.55E-03,1.62E-02
13248,6.55E-03,1.63E-02
13249,6.69E-03,1.64E-02
13250,6.33E-03,1.66E-02
13251,7.33E-03,1.21E-02
13252,7.58E-03,1.39E-02
13253,7.25E-03,1.84E-02
13254,7.98E-03,1.81E-02
13255,8.11E-03,1.66E-02
13256,8.04E-03,1.23E-02
13257,8.07E-03,1.88E-02
13258,8.26E-03,1.95E-02
13259,7.71E-03,1.41E-02
13260,7.86E-03,1.42E-02
13261,8.37E-03,1.77E-02
13262,7.87E-03,1.73E-02
13263,7.93E-03,1.71E-02
13264,7.32E-03,1.67E-02
13265,6.84E-03,1.66E-02
13266,6.85E-03,1.64E-02
13267,7.42E-03,1.62E-02
13268,8.14E-03,1.60E-02
13269,8.54E-03,1.58E-02
13270,8.58E-03,1.56E-02
13271,8.55E-03,1.54E-02
13272,7.48E-03,1.52E-02
13273,7.40E-03,1.50E-02
13274,7.26E-03,1.48E-02
13275,7.01E-03,1.46E-02
13276,6.48E-03,1.45E-02
13277,5.47E-03,1.44E-02
13278,6.49E-03,1.40E-02
13279,2.31E-03,1.43E-02
13280,6.52E-03,1.55E-02
13281,7.60E-03,1.57E-02
13282,8.13E-03,1.81E-02
13283,7.22E-03,1.64E-02
13284,6.48E-03,1.58E-02
13285,6.26E-03,1.67E-02
13286,7.06E-03,1.78E-02
13287,6.40E-03,1.77E-02
13288,7.98E-03,1.90E-02
13289,8.16E-03,1.43E-02
13290,8.97E-03,1.79E-02
13291,7.04E-03,1.78E-02
13292,1.19E-02,1.82E-02
13293,8.26E-03,1.82E-02
13294,7.72E-03,1.85E-02
13295,7.71E-03,1.35E-02
13296,7.51E-03,1.34E-02
13297,8.15E-03,1.35E-02
13298,7.26E-03,1.37E-02
13299,8.49E-03,1.84E-02
13300,8.39E-03,1.75E-02
13301,7.13E-03,9.14E-03
13302,5.76E-03,8.84E-03
13303,5.88E-03,8.62E-03
13304,7.97E-03,1.90E-02
13305,9.06E-03,1.90E-02
13306,8.27E-03,1.90E-02
13307,6.94E-03,1.45E-02
13308,6.23E-03,1.90E-02
13309,5.84E-03,1.18E-02
13310,5.85E-03,1.16E-02
13311,8.46E-03,1.46E-02
13312,7.91E-03,1.08E-02
13313,8.46E-03,1.44E-02
13314,8.21E-03,1.82E-02
13315,6.26E-03,1.65E-02
13316,7.43E-03,1.65E-02
13317,8.53E-03,1.93E-02
13318,7.89E-03,1.94E-02
13319,7.49E-03,1.94E-02
13320,7.93E-03,1.09E-02
13321,8.00E-03,1.54E-02
13322,8.61E-03,1.45E-02
13323,8.42E-03,1.82E-02
13324,8.03E-03,1.11E-02
13325,7.85E-03,1.08E-02
13326,7.64E-03,1.04E-02
13327,8.67E-03,1.46E-02
13328,7.84E-03,1.82E-02
13329,8.10E-03,1.12E-02
13330,8.70E-03,1.48E-02
13331,7.59E-03,1.82E-02
13332,8.19E-03,1.13E-02
13333,8.08E-03,1.15E-02
13334,8.27E-03,1.14E-02
13335,7.37E-03,1.53E-02
13336,6.66E-03,1.51E-02
13337,8.21E-03,1.83E-02
13338,8.65E-03,1.83E-02
13339,8.18E-03,1.45E-02
13340,8.01E-03,1.46E-02
13341,7.98E-03,1.16E-02
13342,9.92E-03,1.46E-02
13343,7.99E-03,1.17E-02
13344,7.97E-03,1.19E-02
13345,8.56E-03,1.46E-02
13346,8.23E-03,1.21E-02
13347,7.93E-03,1.20E-02
13348,7.88E-03,1.46E-02
13349,8.11E-03,1.22E-02
13350,7.14E-03,1.47E-02
13351,7.71E-03,1.47E-02
13352,7.80E-03,1.23E-02
13353,7.72E-03,1.24E-02
13354,7.81E-03,1.25E-02
13355,7.73E-03,1.47E-02
13356,6.85E-03,1.47E-02
13357,8.31E-03,1.29E-02
13358,8.30E-03,1.27E-02
13359,8.22E-03,1.26E-02
13360,6.97E-03,1.47E-02
13361,7.38E-03,1.47E-02
13362,9.26E-03,1.47E-02
13363,8.55E-03,1.46E-02
13364,8.23E-03,1.46E-02
13365,8.03E-03,1.30E-02
13366,7.75E-03,1.31E-02
13367,7.82E-03,1.33E-02
13368,7.73E-03,1.32E-02
13369,7.93E-03,1.34E-02
13370,7.82E-03,1.46E-02
13371,7.95E-03,1.35E-02
13372,7.85E-03,1.46E-02
13373,7.77E-03,1.35E-02
13374,7.94E-03,1.45E-02
13375,7.91E-03,1.36E-02
13376,8.45E-03,1.45E-02
13377,8.04E-03,1.37E-02
13378,8.30E-03,1.44E-02
13379,8.25E-03,1.38E-02
13380,8.16E-03,1.39E-02
13381,8.56E-03,1.44E-02
13382,8.65E-03,1.43E-02
13383,7.88E-03,1.40E-02
13384,8.41E-03,1.42E-02
13385,8.05E-03,1.42E-02
13386,7.86E-03,1.40E-02
13387,8.27E-03,1.41E-02
13388,8.14E-03,1.83E-02
13389,7.56E-03,1.81E-02
13390,8.86E-03,1.84E-02
13391,3.59E-03,1.34E-02
13392,7.11E-03,1.34E-02
13393,7.22E-03,1.93E-02
13394,8.29E-03,1.85E-02
13395,7.65E-03,1.34E-02
13396,4.96E-03,1.33E-02
13397,4.55E-03,1.32E-02
13398,5.83E-03,1.32E-02
13399,6.46E-03,1.32E-02
13400,6.51E-03,1.32E-02
13401,6.48E-03,1.32E-02
13402,6.34E-03,1.32E-02
13403,6.26E-03,1.32E-02
13404,6.19E-03,1.31E-02
13405,6.11E-03,1.31E-02
13406,6.00E-03,1.31E-02
13407,5.88E-03,1.31E-02
13408,5.73E-03,1.31E-02
13409,5.66E-03,1.31E-02
13410,5.56E-03,1.30E-02
13411,5.44E-03,1.30E-02
13412,5.24E-03,1.30E-02
13413,5.00E-03,1.30E-02
13414,4.84E-03,1.30E-02
13415,4.66E-03,1.30E-02
13416,4.49E-03,1.30E-02
13417,4.40E-03,1.30E-02
13418,4.18E-03,1.30E-02
13419,3.93E-03,1.30E-02
13420,3.66E-03,1.30E-02
13421,3.60E-03,1.30E-02
13422,3.43E-03,1.30E-02
13423,3.45E-03,1.30E-02
13424,3.40E-03,1.30E-02
13425,3.66E-03,1.30E-02
13426,4.80E-03,1.30E-02
13427,5.89E-03,1.29E-02
13428,6.02E-03,1.29E-02
13429,7.39E-03,1.34E-02
13430,7.43E-03,1.33E-02
13431,7.24E-03,1.33E-02
13432,6.96E-03,1.33E-02
13433,6.66E-03,1.32E-02
13434,6.47E-03,1.32E-02
13435,6.19E-03,1.31E-02
13436,5.90E-03,1.31E-02
13437,5.60E-03,1.31E-02
13438,5.33E-03,1.30E-02
13439,5.13E-03,1.30E-02
13440,4.68E-03,1.30E-02
13441,4.47E-03,1.30E-02
13442,4.27E-03,1.29E-02
13443,4.28E-03,1.29E-02
13444,4.98E-03,1.29E-02
13445,4.75E-03,1.28E-02
13446,3.98E-03,1.27E-02
13447,6.18E-03,1.28E-02
13448,6.88E-03,1.20E-02
13449,6.31E-03,1.17E-02
13450,5.91E-03,1.15E-02
13451,6.18E-03,1.12E-02
13452,6.91E-03,1.09E-02
13453,7.42E-03,1.07E-02
13454,7.71E-03,1.04E-02
13455,7.88E-03,1.01E-02
13456,7.84E-03,9.87E-03
13457,7.72E-03,9.60E-03
13458,7.69E-03,9.33E-03
13459,7.77E-03,9.04E-03
13460,8.42E-03,8.71E-03
13461,8.78E-03,8.36E-03
13462,8.15E-03,8.51E-03
13463,4.61E-03,1.34E-02
13464,6.66E-03,1.33E-02
13465,4.43E-03,1.33E-02
13466,6.25E-03,1.12E-02
13467,6.70E-03,1.11E-02
13468,7.79E-03,1.10E-02
13469,8.44E-03,1.09E-02
13470,7.57E-03,1.08E-02
13471,7.52E-03,1.06E-02
13472,7.52E-03,1.05E-02
13473,7.56E-03,1.04E-02
13474,7.56E-03,1.03E-02
13475,7.66E-03,1.02E-02
13476,7.74E-03,1.01E-02
13477,7.74E-03,9.95E-03
13478,7.74E-03,9.84E-03
13479,7.74E-03,9.73E-03
13480,7.74E-03,9.62E-03
13481,7.75E-03,9.51E-03
13482,7.74E-03,9.41E-03
13483,7.73E-03,9.30E-03
13484,7.63E-03,9.20E-03
13485,7.56E-03,9.10E-03
13486,7.51E-03,9.00E-03
13487,7.44E-03,8.90E-03
13488,7.42E-03,8.81E-03
13489,7.42E-03,8.72E-03
13490,7.42E-03,8.62E-03
13491,7.33E-03,8.54E-03
13492,7.41E-03,8.45E-03
13493,7.08E-03,8.37E-03
13494,6.24E-03,8.28E-03
13495,6.21E-03,8.21E-03
13496,7.92E-03,1.07E-02
13497,8.02E-03,1.06E-02
13498,8.09E-03,1.05E-02
13499,8.09E-03,1.03E-02
13500,8.09E-03,1.02E-02
13501,8.09E-03,1.00E-02
13502,8.09E-03,9.90E-03
13503,8.09E-03,9.76E-03
13504,8.09E-03,9.62E-03
13505,8.09E-03,9.47E-03
13506,8.09E-03,9.33E-03
13507,8.09E-03,9.19E-03
13508,8.09E-03,9.05E-03
13509,8.17E-03,8.90E-03
13510,8.22E-03,8.76E-03
13511,6.77E-03,8.15E-03
13512,6.26E-03,8.28E-03
13513,7.89E-03,1.98E-02
13514,7.18E-03,1.98E-02
13515,6.34E-03,1.99E-02
13516,6.70E-03,1.99E-02
13517,7.11E-03,1.95E-02
13518,9.52E-03,1.80E-02
13519,8.85E-03,1.78E-02
13520,9.19E-03,1.79E-02
13521,8.56E-03,1.90E-02
13522,8.30E-03,1.93E-02
13523,8.34E-03,1.91E-02
13524,7.42E-03,9.98E-03
13525,7.77E-03,9.57E-03
13526,6.91E-03,9.79E-03
13527,9.98E-03,1.49E-02
13528,8.71E-03,1.49E-02
13529,8.94E-03,1.49E-02
13530,7.19E-03,1.37E-02
13531,6.98E-03,1.93E-02
13532,5.62E-03,1.37E-02
13533,7.76E-03,1.37E-02
13534,8.29E-03,1.89E-02
13535,8.99E-03,1.90E-02
13536,9.15E-03,1.90E-02
13537,9.41E-03,1.93E-02
13538,9.60E-03,1.92E-02
13539,9.97E-03,1.92E-02
13540,9.52E-03,1.91E-02
13541,8.06E-03,1.74E-02
13542,8.37E-03,1.34E-02
13543,7.72E-03,1.37E-02
13544,7.70E-03,1.60E-02
13545,8.01E-03,1.36E-02
13546,8.01E-03,1.37E-02
13547,8.22E-03,1.37E-02
13548,8.22E-03,1.37E-02
13549,8.68E-03,1.45E-02
13550,8.96E-03,1.44E-02
13551,8.09E-03,1.44E-02
13552,9.28E-03,1.44E-02
13553,8.78E-03,1.69E-02
13554,8.88E-03,1.70E-02
13555,9.07E-03,1.71E-02
13556,5.07E-03,1.39E-02
13557,7.36E-03,1.40E-02
13558,5.29E-03,1.39E-02
13559,8.33E-03,1.62E-02
13560,8.08E-03,1.61E-02
13561,8.13E-03,1.61E-02
13562,8.34E-03,1.60E-02
13563,8.36E-03,1.59E-02
13564,7.62E-03,1.49E-02
13565,8.36E-03,1.46E-02
13566,7.71E-03,1.45E-02
13567,7.54E-03,1.33E-02
13568,7.66E-03,1.32E-02
13569,7.45E-03,1.32E-02
13570,6.84E-03,1.31E-02
13571,6.70E-03,1.31E-02
13572,6.48E-03,1.30E-02
13573,6.20E-03,1.30E-02
13574,5.90E-03,1.30E-02
13575,5.60E-03,1.29E-02
13576,5.29E-03,1.29E-02
13577,5.02E-03,1.29E-02
13578,4.77E-03,1.28E-02
13579,4.41E-03,1.28E-02
13580,4.23E-03,1.28E-02
13581,4.14E-03,1.28E-02
13582,3.88E-03,1.27E-02
13583,8.80E-03,1.46E-02
13584,8.01E-03,1.46E-02
13585,7.52E-03,1.46E-02
13586,7.58E-03,1.46E-02
13587,5.01E-03,1.47E-02
13588,2.87E-03,1.47E-02
13589,3.02E-03,1.47E-02
13590,2.97E-03,1.46E-02
13591,2.92E-03,1.46E-02
13592,2.55E-03,1.46E-02
13593,2.73E-03,1.46E-02
13594,3.34E-03,1.46E-02
13595,3.28E-03,1.46E-02
13596,3.64E-03,1.46E-02
13597,3.90E-03,1.46E-02
13598,4.01E-03,1.46E-02
13599,4.12E-03,1.46E-02
13600,4.52E-03,1.46E-02
13601,4.66E-03,1.46E-02
13602,4.68E-03,1.46E-02
13603,4.76E-03,1.46E-02
13604,4.89E-03,1.46E-02
13605,4.93E-03,1.46E-02
13606,4.92E-03,1.46E-02
13607,4.87E-03,1.46E-02
13608,4.83E-03,1.46E-02
13609,4.79E-03,1.46E-02
13610,4.74E-03,1.46E-02
13611,4.69E-03,1.46E-02
13612,4.61E-03,1.46E-02
13613,4.49E-03,1.46E-02
13614,4.37E-03,1.46E-02
13615,4.25E-03,1.46E-02
13616,4.16E-03,1.45E-02
13617,4.09E-03,1.45E-02
13618,4.05E-03,1.45E-02
13619,3.93E-03,1.45E-02
13620,3.78E-03,1.45E-02
13621,3.71E-03,1.45E-02
13622,3.95E-03,1.45E-02
13623,4.03E-03,1.45E-02
13624,4.26E-03,1.44E-02
13625,4.34E-03,1.44E-02
13626,4.49E-03,1.44E-02
13627,4.65E-03,1.44E-02
13628,4.80E-03,1.44E-02
13629,4.96E-03,1.44E-02
13630,5.14E-03,1.43E-02
13631,5.29E-03,1.43E-02
13632,5.58E-03,1.43E-02
13633,5.84E-03,1.43E-02
13634,6.59E-03,1.42E-02
13635,6.80E-03,1.42E-02
13636,6.94E-03,1.42E-02
13637,6.99E-03,1.41E-02
13638,7.16E-03,1.41E-02
13639,7.62E-03,1.41E-02
13640,7.94E-03,1.40E-02
13641,8.01E-03,1.40E-02
13642,8.09E-03,1.39E-02
13643,8.16E-03,1.39E-02
13644,9.03E-03,1.38E-02
13645,9.12E-03,1.38E-02
13646,9.92E-03,1.37E-02
13647,9.95E-03,1.36E-02
13648,1.01E-02,1.36E-02
13649,1.04E-02,1.35E-02
13650,1.04E-02,1.34E-02
13651,1.06E-02,1.34E-02
13652,1.06E-02,1.33E-02
13653,1.07E-02,1.32E-02
13654,1.08E-02,1.31E-02
13655,1.09E-02,1.31E-02
13656,1.10E-02,1.30E-02
13657,1.08E-02,1.29E-02
13658,1.07E-02,1.29E-02
13659,1.04E-02,1.28E-02
13660,1.04E-02,1.27E-02
13661,1.02E-02,1.27E-02
13662,9.89E-03,1.26E-02
13663,9.78E-03,1.25E-02
13664,9.71E-03,1.25E-02
13665,9.53E-03,1.24E-02
13666,9.43E-03,1.24E-02
13667,9.35E-03,1.23E-02
13668,9.27E-03,1.23E-02
13669,9.19E-03,1.22E-02
13670,9.11E-03,1.22E-02
13671,8.81E-03,1.21E-02
13672,8.78E-03,1.21E-02
13673,8.64E-03,1.20E-02
13674,8.52E-03,1.20E-02
13675,8.35E-03,1.19E-02
13676,8.27E-03,1.19E-02
13677,8.20E-03,1.19E-02
13678,8.12E-03,1.18E-02
13679,8.04E-03,1.18E-02
13680,7.96E-03,1.17E-02
13681,7.88E-03,1.17E-02
13682,7.85E-03,1.17E-02
13683,7.88E-03,1.16E-02
13684,7.93E-03,1.16E-02
13685,7.98E-03,1.16E-02
13686,8.04E-03,1.15E-02
13687,8.09E-03,1.15E-02
13688,8.25E-03,1.15E-02
13689,8.15E-03,1.15E-02
13690,7.91E-03,1.14E-02
13691,8.08E-03,1.14E-02
13692,8.39E-03,1.73E-02
13693,6.46E-03,1.41E-02
13694,5.86E-03,1.53E-02
13695,6.50E-03,1.34E-02
13696,6.33E-03,1.34E-02
13697,6.48E-03,1.34E-02
13698,7.02E-03,1.76E-02
13699,7.92E-03,1.76E-02
13700,6.73E-03,1.76E-02
13701,5.67E-03,1.75E-02
13702,7.30E-03,1.44E-02
13703,4.92E-03,1.64E-02
13704,6.43E-03,1.66E-02
13705,9.14E-03,1.82E-02
13706,9.31E-03,1.81E-02
13707,8.53E-03,1.84E-02
13708,8.90E-03,1.83E-02
13709,8.93E-03,1.82E-02
13710,8.88E-03,1.91E-02
13711,7.03E-03,1.19E-02
13712,6.76E-03,1.16E-02
13713,5.62E-03,1.13E-02
13714,5.95E-03,1.11E-02
13715,7.24E-03,1.09E-02
13716,7.45E-03,1.06E-02
13717,7.71E-03,1.03E-02
13718,7.90E-03,1.00E-02
13719,7.95E-03,9.77E-03
13720,7.82E-03,9.50E-03
13721,7.91E-03,9.24E-03
13722,8.10E-03,8.97E-03
13723,8.89E-03,8.66E-03
13724,8.78E-03,8.42E-03
13725,7.58E-03,1.36E-02
13726,7.85E-03,1.33E-02
13727,8.17E-03,1.30E-02
13728,8.18E-03,1.27E-02
13729,7.89E-03,1.25E-02
13730,7.72E-03,1.22E-02
13731,8.75E-03,1.45E-02
13732,6.94E-03,1.32E-02
13733,6.51E-03,1.31E-02
13734,6.22E-03,1.30E-02
13735,6.37E-03,1.30E-02
13736,6.48E-03,1.30E-02
13737,6.44E-03,1.30E-02
13738,6.36E-03,1.30E-02
13739,6.29E-03,1.30E-02
13740,6.22E-03,1.29E-02
13741,6.14E-03,1.29E-02
13742,5.98E-03,1.29E-02
13743,5.97E-03,1.29E-02
13744,5.80E-03,1.29E-02
13745,5.72E-03,1.29E-02
13746,5.51E-03,1.29E-02
13747,5.43E-03,1.28E-02
13748,5.28E-03,1.28E-02
13749,5.12E-03,1.28E-02
13750,4.81E-03,1.28E-02
13751,4.79E-03,1.28E-02
13752,4.53E-03,1.28E-02
13753,4.35E-03,1.28E-02
13754,4.19E-03,1.28E-02
13755,4.01E-03,1.28E-02
13756,3.76E-03,1.28E-02
13757,3.59E-03,1.28E-02
13758,3.42E-03,1.28E-02
13759,3.37E-03,1.28E-02
13760,3.40E-03,1.28E-02
13761,3.41E-03,1.28E-02
13762,3.63E-03,1.28E-02
13763,5.77E-03,1.28E-02
13764,5.60E-03,1.27E-02
13765,7.81E-03,1.84E-02
13766,7.58E-03,1.83E-02
13767,8.47E-03,1.74E-02
13768,7.19E-03,1.83E-02
13769,7.30E-03,1.20E-02
13770,8.38E-03,1.79E-02
13771,8.49E-03,1.76E-02
13772,8.61E-03,1.74E-02
13773,8.87E-03,1.71E-02
13774,8.21E-03,1.69E-02
13775,8.15E-03,1.66E-02
13776,7.93E-03,1.64E-02
13777,7.83E-03,1.61E-02
13778,7.82E-03,1.58E-02
13779,8.10E-03,1.55E-02
13780,8.48E-03,1.53E-02
13781,8.65E-03,1.50E-02
13782,8.45E-03,1.48E-02
13783,7.79E-03,1.45E-02
13784,7.56E-03,1.42E-02
13785,8.47E-03,1.67E-02
13786,6.42E-03,1.63E-02
13787,8.35E-03,1.26E-02
13788,7.82E-03,1.89E-02
13789,8.05E-03,1.90E-02
13790,9.07E-03,1.95E-02
13791,7.81E-03,1.41E-02
13792,7.80E-03,1.41E-02
13793,7.60E-03,1.41E-02
13794,7.44E-03,1.41E-02
13795,7.59E-03,1.41E-02
13796,9.21E-03,1.41E-02
13797,8.64E-03,1.41E-02
13798,7.33E-03,1.40E-02
13799,7.81E-03,1.42E-02
13800,8.25E-03,1.76E-02
13801,8.36E-03,1.30E-02
13802,7.77E-03,1.69E-02
13803,7.48E-03,1.68E-02
13804,7.24E-03,1.66E-02
13805,7.54E-03,1.64E-02
13806,7.79E-03,1.63E-02
13807,8.23E-03,1.61E-02
13808,8.37E-03,1.59E-02
13809,8.26E-03,1.56E-02
13810,7.47E-03,1.54E-02
13811,7.31E-03,1.52E-02
13812,7.11E-03,1.51E-02
13813,6.86E-03,1.49E-02
13814,6.43E-03,1.48E-02
13815,5.63E-03,1.46E-02
13816,3.95E-03,1.45E-02
13817,5.68E-03,1.43E-02
13818,8.56E-03,1.40E-02
13819,8.36E-03,1.58E-02
13820,7.29E-03,1.62E-02
13821,8.02E-03,1.35E-02
13822,4.88E-03,1.36E-02
13823,5.04E-03,1.36E-02
13824,6.46E-03,1.36E-02
13825,8.18E-03,1.79E-02
13826,7.80E-03,1.44E-02
13827,8.00E-03,1.44E-02
13828,8.89E-03,1.68E-02
13829,8.35E-03,1.71E-02
13830,6.86E-03,1.38E-02
13831,7.73E-03,1.39E-02
13832,6.80E-03,1.63E-02
13833,7.80E-03,1.59E-02
13834,7.53E-03,1.39E-02
13835,6.28E-03,1.68E-02
13836,6.25E-03,1.69E-02
13837,6.68E-03,1.77E-02
13838,8.15E-03,1.91E-02
13839,1.05E-02,1.97E-02
13840,7.53E-03,1.42E-02
13841,7.47E-03,1.42E-02
13842,7.99E-03,1.43E-02
13843,8.49E-03,1.78E-02
13844,8.03E-03,1.23E-02
13845,7.53E-03,1.75E-02
13846,7.67E-03,1.74E-02
13847,9.77E-03,1.82E-02
13848,8.42E-03,1.80E-02
13849,7.24E-03,1.80E-02
13850,6.68E-03,1.39E-02
13851,6.40E-03,1.37E-02
13852,7.68E-03,1.33E-02
13853,6.06E-03,1.33E-02
13854,6.45E-03,1.33E-02
13855,5.07E-03,1.31E-02
13856,6.25E-03,1.33E-02
13857,6.47E-03,1.75E-02
13858,5.56E-03,1.65E-02
13859,7.17E-03,1.36E-02
13860,8.71E-03,1.83E-02
13861,8.51E-03,1.83E-02
13862,6.88E-03,1.75E-02
13863,8.20E-03,1.74E-02
13864,7.14E-03,1.86E-02
13865,6.91E-03,8.86E-03
13866,6.54E-03,8.59E-03
13867,5.82E-03,9.12E-03
13868,8.01E-03,1.92E-02
13869,7.49E-03,1.93E-02
13870,8.25E-03,1.45E-02
13871,7.93E-03,1.44E-02
13872,7.01E-03,1.92E-02
13873,7.44E-03,1.83E-02
13874,6.37E-03,1.26E-02
13875,5.92E-03,1.18E-02
13876,8.39E-03,1.46E-02
13877,8.56E-03,1.45E-02
13878,7.26E-03,1.20E-02
13879,7.69E-03,8.43E-03
13880,7.94E-03,8.34E-03
13881,8.56E-03,8.08E-03
13882,8.39E-03,7.83E-03
13883,7.97E-03,1.92E-02
13884,5.17E-03,1.33E-02
13885,7.54E-03,8.03E-03
13886,6.97E-03,8.09E-03
13887,6.94E-03,8.16E-03
13888,7.09E-03,8.25E-03
13889,7.28E-03,8.34E-03
13890,7.34E-03,8.43E-03
13891,7.47E-03,8.52E-03
13892,7.48E-03,8.61E-03
13893,7.52E-03,8.70E-03
13894,7.55E-03,8.80E-03
13895,7.60E-03,8.89E-03
13896,7.62E-03,8.99E-03
13897,7.66E-03,9.10E-03
13898,7.74E-03,9.20E-03
13899,7.75E-03,9.31E-03
13900,7.75E-03,9.41E-03
13901,7.75E-03,9.52E-03
13902,7.75E-03,9.63E-03
13903,7.74E-03,9.74E-03
13904,7.74E-03,9.86E-03
13905,7.74E-03,9.97E-03
13906,7.73E-03,1.01E-02
13907,7.64E-03,1.02E-02
13908,7.61E-03,1.03E-02
13909,7.62E-03,1.04E-02
13910,7.61E-03,1.05E-02
13911,7.72E-03,1.07E-02
13912,7.68E-03,1.08E-02
13913,7.38E-03,1.09E-02
13914,6.99E-03,1.10E-02
13915,6.46E-03,1.11E-02
13916,6.06E-03,1.12E-02
13917,6.51E-03,1.13E-02
13918,8.01E-03,1.07E-02
13919,8.09E-03,1.06E-02
13920,8.09E-03,1.04E-02
13921,8.09E-03,1.03E-02
13922,8.09E-03,1.02E-02
13923,8.09E-03,1.00E-02
13924,8.09E-03,9.88E-03
13925,8.09E-03,9.74E-03
13926,8.09E-03,9.60E-03
13927,8.09E-03,9.46E-03
13928,8.09E-03,9.32E-03
13929,8.09E-03,9.18E-03
13930,8.09E-03,9.03E-03
13931,8.28E-03,8.88E-03
13932,8.40E-03,8.74E-03
13933,8.27E-03,8.59E-03
13934,8.09E-03,8.43E-03
13935,8.04E-03,8.30E-03
13936,7.91E-03,8.14E-03
13937,7.05E-03,1.99E-02
13938,6.52E-03,2.00E-02
13939,6.77E-03,2.00E-02
13940,8.32E-03,1.44E-02
13941,8.72E-03,1.80E-02
13942,6.71E-03,1.67E-02
13943,9.27E-03,1.81E-02
13944,8.22E-03,1.80E-02
13945,7.22E-03,1.66E-02
13946,6.72E-03,1.66E-02
13947,7.00E-03,1.65E-02
13948,7.28E-03,1.64E-02
13949,7.48E-03,1.58E-02
13950,6.79E-03,1.94E-02
13951,7.21E-03,1.94E-02
13952,7.79E-03,1.95E-02
13953,7.58E-03,1.95E-02
13954,6.55E-03,1.94E-02
13955,7.17E-03,1.38E-02
13956,6.86E-03,1.96E-02
13957,6.74E-03,1.97E-02
13958,6.77E-03,1.97E-02
13959,8.35E-03,1.97E-02
13960,7.66E-03,1.79E-02
13961,7.83E-03,1.78E-02
13962,8.02E-03,1.08E-02
13963,6.93E-03,1.58E-02
13964,6.56E-03,1.56E-02
13965,8.31E-03,1.54E-02
13966,8.39E-03,1.45E-02
13967,8.42E-03,1.80E-02
13968,9.52E-03,1.92E-02
13969,7.77E-03,1.93E-02
13970,8.24E-03,1.78E-02
13971,8.05E-03,1.09E-02
13972,7.74E-03,1.10E-02
13973,7.88E-03,1.05E-02
13974,6.07E-03,9.37E-03
13975,9.58E-03,1.44E-02
13976,8.57E-03,1.46E-02
13977,8.13E-03,1.81E-02
13978,8.10E-03,1.10E-02
13979,7.35E-03,1.02E-02
13980,7.75E-03,9.95E-03
13981,7.21E-03,9.74E-03
13982,9.12E-03,1.45E-02
13983,8.69E-03,1.47E-02
13984,7.82E-03,1.80E-02
13985,8.10E-03,1.12E-02
13986,8.60E-03,1.45E-02
13987,8.10E-03,1.14E-02
13988,8.17E-03,1.13E-02
13989,7.51E-03,1.52E-02
13990,6.20E-03,1.92E-02
13991,8.68E-03,1.48E-02
13992,8.01E-03,1.81E-02
13993,8.33E-03,1.81E-02
13994,8.37E-03,1.46E-02
13995,7.69E-03,1.51E-02
13996,9.18E-03,1.50E-02
13997,8.64E-03,1.50E-02
13998,8.62E-03,1.49E-02
13999,8.54E-03,1.81E-02
14000,8.04E-03,1.15E-02
14001,8.60E-03,1.46E-02
14002,8.02E-03,1.16E-02
14003,8.10E-03,1.17E-02
14004,8.83E-03,1.46E-02
14005,8.10E-03,1.20E-02
14006,8.03E-03,1.19E-02
14007,8.19E-03,1.46E-02
14008,8.20E-03,1.21E-02
14009,7.73E-03,1.47E-02
14010,7.78E-03,1.47E-02
14011,7.95E-03,1.22E-02
14012,7.88E-03,1.23E-02
14013,7.87E-03,1.24E-02
14014,7.68E-03,1.47E-02
14015,8.05E-03,1.47E-02
14016,7.80E-03,1.47E-02
14017,8.27E-03,1.28E-02
14018,8.19E-03,1.26E-02
14019,8.06E-03,1.25E-02
14020,7.44E-03,1.47E-02
14021,7.49E-03,1.47E-02
14022,8.15E-03,1.47E-02
14023,8.47E-03,1.47E-02
14024,8.47E-03,1.46E-02
14025,8.19E-03,1.29E-02
14026,7.95E-03,1.30E-02
14027,7.83E-03,1.32E-02
14028,7.86E-03,1.31E-02
14029,7.94E-03,1.33E-02
14030,8.09E-03,1.46E-02
14031,8.03E-03,1.34E-02
14032,7.97E-03,1.46E-02
14033,7.99E-03,1.35E-02
14034,7.95E-03,1.45E-02
14035,7.94E-03,1.36E-02
14036,8.17E-03,1.45E-02
14037,8.02E-03,1.37E-02
14038,8.23E-03,1.44E-02
14039,8.19E-03,1.37E-02
14040,8.27E-03,1.38E-02
14041,8.37E-03,1.44E-02
14042,8.48E-03,1.43E-02
14043,8.04E-03,1.39E-02
14044,8.55E-03,1.43E-02
14045,8.25E-03,1.42E-02
14046,7.95E-03,1.40E-02
14047,8.02E-03,1.41E-02
14048,8.22E-03,1.41E-02
14049,8.10E-03,1.32E-02
14050,8.31E-03,1.91E-02
14051,8.79E-03,1.92E-02
14052,8.79E-03,1.92E-02
14053,9.73E-03,1.95E-02
14054,9.67E-03,1.94E-02
14055,1.04E-02,1.94E-02
14056,8.73E-03,1.93E-02
14057,7.43E-03,1.42E-02
14058,8.35E-03,1.42E-02
14059,8.11E-03,1.42E-02
14060,7.05E-03,1.41E-02
14061,7.63E-03,1.42E-02
14062,7.86E-03,1.42E-02
14063,7.76E-03,1.42E-02
14064,8.02E-03,1.42E-02
14065,7.84E-03,1.42E-02
14066,7.85E-03,1.42E-02
14067,7.79E-03,1.42E-02
14068,7.75E-03,1.42E-02
14069,8.02E-03,1.42E-02
14070,8.16E-03,1.42E-02
14071,8.04E-03,1.75E-02
14072,7.59E-03,1.73E-02
14073,8.25E-03,1.33E-02
14074,7.99E-03,1.36E-02
14075,7.39E-03,1.60E-02
14076,8.08E-03,1.35E-02
14077,8.06E-03,1.35E-02
14078,8.10E-03,1.36E-02
14079,8.07E-03,1.36E-02
14080,8.32E-03,1.77E-02
14081,8.48E-03,1.75E-02
14082,8.70E-03,1.72E-02
14083,8.76E-03,1.70E-02
14084,8.29E-03,1.67E-02
14085,8.20E-03,1.65E-02
14086,8.00E-03,1.62E-02
14087,7.91E-03,1.60E-02
14088,7.97E-03,1.57E-02
14089,8.16E-03,1.54E-02
14090,8.25E-03,1.51E-02
14091,8.40E-03,1.49E-02
14092,8.39E-03,1.46E-02
14093,5.95E-03,1.42E-02
14094,7.60E-03,1.44E-02
14095,8.12E-03,1.44E-02
14096,8.93E-03,1.69E-02
14097,8.91E-03,1.70E-02
14098,8.92E-03,1.70E-02
14099,9.80E-03,1.41E-02
14100,8.44E-03,1.41E-02
14101,8.09E-03,1.41E-02
14102,6.84E-03,1.38E-02
14103,6.95E-03,1.39E-02
14104,6.75E-03,1.62E-02
14105,7.53E-03,1.62E-02
14106,7.65E-03,1.61E-02
14107,8.14E-03,1.60E-02
14108,8.88E-03,1.59E-02
14109,8.21E-03,1.48E-02
14110,8.29E-03,1.46E-02
14111,7.05E-03,1.39E-02
14112,7.74E-03,1.71E-02
14113,6.36E-03,1.76E-02
14114,7.78E-03,1.91E-02
14115,7.93E-03,1.92E-02
14116,9.41E-03,1.97E-02
14117,7.50E-03,1.43E-02
14118,7.98E-03,1.43E-02
14119,8.36E-03,1.77E-02
14120,8.17E-03,1.26E-02
14121,8.24E-03,1.29E-02
14122,7.63E-03,1.72E-02
14123,7.62E-03,1.70E-02
14124,7.44E-03,1.69E-02
14125,7.59E-03,1.67E-02
14126,7.74E-03,1.65E-02
14127,8.09E-03,1.63E-02
14128,8.09E-03,1.61E-02
14129,8.11E-03,1.59E-02
14130,7.60E-03,1.57E-02
14131,7.40E-03,1.55E-02
14132,7.10E-03,1.54E-02
14133,6.86E-03,1.52E-02
14134,6.53E-03,1.51E-02
14135,6.38E-03,1.50E-02
14136,6.80E-03,1.47E-02
14137,8.61E-03,1.43E-02
14138,8.08E-03,1.40E-02
14139,6.40E-03,1.64E-02
14140,6.81E-03,1.62E-02
14141,7.24E-03,1.59E-02
14142,8.18E-03,1.34E-02
14143,8.70E-03,1.82E-02
14144,8.31E-03,1.78E-02
14145,8.77E-03,1.44E-02
14146,7.84E-03,1.43E-02
14147,7.49E-03,1.78E-02
14148,9.47E-03,1.67E-02
14149,8.90E-03,1.68E-02
14150,8.79E-03,1.71E-02
14151,7.49E-03,1.76E-02
14152,5.69E-03,1.39E-02
14153,7.70E-03,1.39E-02
14154,7.77E-03,1.72E-02
14155,7.08E-03,1.40E-02
14156,9.61E-03,1.41E-02
14157,7.38E-03,1.37E-02
14158,5.43E-03,1.33E-02
14159,6.52E-03,1.32E-02
14160,5.98E-03,1.32E-02
14161,5.20E-03,1.30E-02
14162,6.70E-03,1.31E-02
14163,7.90E-03,1.82E-02
14164,6.69E-03,1.34E-02
14165,6.32E-03,1.33E-02
14166,5.96E-03,1.32E-02
14167,8.60E-03,1.82E-02
14168,5.49E-03,1.88E-02
14169,6.34E-03,1.91E-02
14170,7.73E-03,1.74E-02
14171,8.75E-03,1.85E-02
14172,7.96E-03,8.61E-03
14173,6.61E-03,8.92E-03
14174,6.32E-03,1.94E-02
14175,8.07E-03,1.44E-02
14176,6.97E-03,1.94E-02
14177,8.13E-03,1.83E-02
14178,7.77E-03,1.82E-02
14179,7.53E-03,1.81E-02
14180,5.71E-03,1.29E-02
14181,6.98E-03,1.29E-02
14182,6.48E-03,1.28E-02
14183,6.45E-03,1.28E-02
14184,6.47E-03,1.28E-02
14185,6.46E-03,1.28E-02
14186,6.39E-03,1.28E-02
14187,6.32E-03,1.28E-02
14188,6.24E-03,1.28E-02
14189,6.17E-03,1.27E-02
14190,6.01E-03,1.27E-02
14191,6.01E-03,1.27E-02
14192,5.91E-03,1.27E-02
14193,5.71E-03,1.27E-02
14194,5.49E-03,1.27E-02
14195,5.47E-03,1.27E-02
14196,5.31E-03,1.27E-02
14197,5.16E-03,1.27E-02
14198,4.92E-03,1.26E-02
14199,4.75E-03,1.26E-02
14200,4.60E-03,1.26E-02
14201,4.41E-03,1.26E-02
14202,4.27E-03,1.26E-02
14203,4.02E-03,1.26E-02
14204,3.80E-03,1.26E-02
14205,3.65E-03,1.26E-02
14206,3.44E-03,1.26E-02
14207,3.24E-03,1.26E-02
14208,3.36E-03,1.26E-02
14209,3.30E-03,1.26E-02
14210,3.24E-03,1.27E-02
14211,5.14E-03,1.27E-02
14212,4.93E-03,1.26E-02
14213,4.82E-03,1.25E-02
14214,7.87E-03,1.31E-02
14215,7.83E-03,1.31E-02
14216,7.68E-03,1.30E-02
14217,6.91E-03,1.30E-02
14218,6.75E-03,1.29E-02
14219,6.50E-03,1.29E-02
14220,6.21E-03,1.29E-02
14221,5.89E-03,1.28E-02
14222,5.58E-03,1.28E-02
14223,5.28E-03,1.28E-02
14224,4.99E-03,1.27E-02
14225,4.71E-03,1.27E-02
14226,4.43E-03,1.27E-02
14227,4.14E-03,1.26E-02
14228,3.94E-03,1.26E-02
14229,3.57E-03,1.26E-02
14230,3.00E-03,1.26E-02
14231,2.16E-03,1.26E-02
14232,2.45E-03,1.25E-02
14233,3.44E-03,1.25E-02
14234,5.65E-03,1.25E-02
14235,8.92E-03,1.58E-02
14236,7.93E-03,1.17E-02
14237,8.52E-03,1.46E-02
14238,7.91E-03,1.36E-02
14239,8.53E-03,1.33E-02
14240,9.28E-03,1.29E-02
14241,8.74E-03,1.26E-02
14242,7.67E-03,1.24E-02
14243,7.65E-03,1.21E-02
14244,7.14E-03,1.18E-02
14245,7.01E-03,1.17E-02
14246,7.06E-03,1.15E-02
14247,5.25E-03,1.12E-02
14248,5.58E-03,1.10E-02
14249,7.76E-03,1.08E-02
14250,7.66E-03,1.05E-02
14251,7.86E-03,1.02E-02
14252,8.01E-03,9.95E-03
14253,8.04E-03,9.68E-03
14254,7.92E-03,9.41E-03
14255,8.00E-03,9.15E-03
14256,8.10E-03,8.87E-03
14257,8.02E-03,8.62E-03
14258,7.76E-03,8.44E-03
14259,7.28E-03,8.22E-03
14260,7.10E-03,7.94E-03
14261,7.53E-03,7.71E-03
14262,8.69E-03,7.65E-03
14263,7.72E-03,7.57E-03
14264,6.11E-03,7.46E-03
14265,7.80E-03,7.42E-03
14266,7.48E-03,8.45E-03
14267,8.20E-03,8.25E-03
14268,9.28E-03,7.93E-03
14269,9.07E-03,7.71E-03
14270,6.35E-03,7.54E-03
14271,7.02E-03,7.27E-03
14272,8.70E-03,7.18E-03
14273,8.92E-03,7.01E-03
14274,7.35E-03,6.85E-03
14275,7.29E-03,1.20E-02
14276,7.70E-03,1.22E-02
14277,7.93E-03,1.93E-02
14278,9.76E-03,1.83E-02
14279,9.87E-03,1.81E-02
14280,6.65E-03,1.75E-02
14281,7.04E-03,1.75E-02
14282,7.45E-03,1.32E-02
14283,6.30E-03,1.32E-02
14284,7.34E-03,1.39E-02
14285,4.76E-03,1.38E-02
14286,8.03E-03,1.79E-02
14287,9.07E-03,1.84E-02
14288,8.38E-03,1.82E-02
14289,8.18E-03,1.93E-02
14290,6.58E-03,1.35E-02
14291,6.01E-03,1.35E-02
14292,5.83E-03,1.36E-02
14293,8.45E-03,1.46E-02
14294,8.46E-03,1.46E-02
14295,8.52E-03,1.46E-02
14296,8.60E-03,1.46E-02
14297,4.71E-03,1.47E-02
14298,2.88E-03,1.46E-02
14299,2.97E-03,1.46E-02
14300,2.97E-03,1.46E-02
14301,2.90E-03,1.46E-02
14302,2.79E-03,1.46E-02
14303,3.26E-03,1.46E-02
14304,3.35E-03,1.46E-02
14305,3.53E-03,1.46E-02
14306,3.64E-03,1.46E-02
14307,3.85E-03,1.46E-02
14308,3.93E-03,1.46E-02
14309,4.15E-03,1.46E-02
14310,4.62E-03,1.46E-02
14311,4.69E-03,1.46E-02
14312,4.67E-03,1.46E-02
14313,4.81E-03,1.46E-02
14314,4.89E-03,1.46E-02
14315,4.97E-03,1.46E-02
14316,4.97E-03,1.46E-02
14317,4.91E-03,1.46E-02
14318,4.88E-03,1.46E-02
14319,4.84E-03,1.46E-02
14320,4.79E-03,1.46E-02
14321,4.75E-03,1.46E-02
14322,4.66E-03,1.46E-02
14323,4.55E-03,1.46E-02
14324,4.43E-03,1.46E-02
14325,4.31E-03,1.46E-02
14326,4.19E-03,1.46E-02
14327,4.07E-03,1.45E-02
14328,4.01E-03,1.45E-02
14329,3.92E-03,1.45E-02
14330,3.82E-03,1.45E-02
14331,3.77E-03,1.45E-02
14332,4.05E-03,1.45E-02
14333,4.14E-03,1.45E-02
14334,4.26E-03,1.45E-02
14335,4.40E-03,1.45E-02
14336,4.52E-03,1.44E-02
14337,4.65E-03,1.44E-02
14338,4.81E-03,1.44E-02
14339,4.95E-03,1.44E-02
14340,5.23E-03,1.44E-02
14341,5.40E-03,1.43E-02
14342,5.64E-03,1.43E-02
14343,5.79E-03,1.43E-02
14344,6.63E-03,1.43E-02
14345,6.71E-03,1.42E-02
14346,6.90E-03,1.42E-02
14347,7.01E-03,1.42E-02
14348,7.17E-03,1.41E-02
14349,7.62E-03,1.41E-02
14350,7.92E-03,1.41E-02
14351,7.95E-03,1.40E-02
14352,8.06E-03,1.40E-02
14353,8.03E-03,1.39E-02
14354,9.19E-03,1.39E-02
14355,9.25E-03,1.38E-02
14356,9.91E-03,1.38E-02
14357,9.97E-03,1.37E-02
14358,1.02E-02,1.36E-02
14359,1.03E-02,1.36E-02
14360,1.04E-02,1.35E-02
14361,1.05E-02,1.34E-02
14362,1.06E-02,1.34E-02
14363,1.07E-02,1.33E-02
14364,1.08E-02,1.32E-02
14365,1.09E-02,1.31E-02
14366,1.09E-02,1.31E-02
14367,1.08E-02,1.30E-02
14368,1.07E-02,1.29E-02
14369,1.04E-02,1.29E-02
14370,1.03E-02,1.28E-02
14371,1.02E-02,1.28E-02
14372,9.86E-03,1.27E-02
14373,9.74E-03,1.26E-02
14374,9.62E-03,1.26E-02
14375,9.51E-03,1.25E-02
14376,9.41E-03,1.25E-02
14377,9.33E-03,1.24E-02
14378,9.25E-03,1.24E-02
14379,9.18E-03,1.23E-02
14380,9.09E-03,1.23E-02
14381,8.87E-03,1.22E-02
14382,8.76E-03,1.22E-02
14383,8.61E-03,1.21E-02
14384,8.48E-03,1.21E-02
14385,8.35E-03,1.21E-02
14386,8.27E-03,1.20E-02
14387,8.20E-03,1.20E-02
14388,8.12E-03,1.20E-02
14389,8.04E-03,1.19E-02
14390,7.96E-03,1.19E-02
14391,7.88E-03,1.18E-02
14392,7.85E-03,1.18E-02
14393,7.88E-03,1.18E-02
14394,7.93E-03,1.18E-02
14395,7.98E-03,1.17E-02
14396,8.04E-03,1.17E-02
14397,8.09E-03,1.17E-02
14398,8.16E-03,1.16E-02
14399,8.13E-03,1.16E-02
14400,8.18E-03,1.16E-02
14401,8.75E-03,1.15E-02
14402,7.97E-03,1.15E-02
14403,6.84E-03,1.15E-02
14404,7.03E-03,1.15E-02
14405,8.09E-03,1.14E-02
14406,7.06E-03,1.13E-02
14407,6.80E-03,1.12E-02
14408,6.84E-03,1.10E-02
14409,7.04E-03,1.09E-02
14410,7.29E-03,1.08E-02
14411,7.47E-03,1.07E-02
14412,7.56E-03,1.06E-02
14413,7.64E-03,1.05E-02
14414,7.63E-03,1.03E-02
14415,7.67E-03,1.02E-02
14416,7.71E-03,1.01E-02
14417,7.74E-03,9.99E-03
14418,7.75E-03,9.88E-03
14419,7.75E-03,9.76E-03
14420,7.75E-03,9.65E-03
14421,7.75E-03,9.53E-03
14422,7.75E-03,9.42E-03
14423,7.76E-03,9.31E-03
14424,7.75E-03,9.21E-03
14425,7.74E-03,9.10E-03
14426,7.72E-03,8.99E-03
14427,7.69E-03,8.89E-03
14428,7.66E-03,8.79E-03
14429,7.63E-03,8.69E-03
14430,7.60E-03,8.59E-03
14431,7.58E-03,8.50E-03
14432,7.54E-03,8.41E-03
14433,7.42E-03,8.32E-03
14434,7.32E-03,8.23E-03
14435,7.28E-03,8.14E-03
14436,7.24E-03,8.05E-03
14437,7.39E-03,7.98E-03
14438,7.89E-03,7.90E-03
14439,9.23E-03,7.83E-03
14440,8.55E-03,7.71E-03
14441,8.62E-03,1.45E-02
14442,8.52E-03,1.73E-02
14443,7.26E-03,1.82E-02
14444,7.66E-03,1.99E-02
14445,1.03E-02,1.99E-02
14446,8.20E-03,1.43E-02
14447,8.10E-03,1.44E-02
14448,8.57E-03,1.79E-02
14449,6.62E-03,1.68E-02
14450,6.91E-03,1.70E-02
14451,8.78E-03,1.32E-02
14452,8.82E-03,1.81E-02
14453,8.28E-03,1.78E-02
14454,6.83E-03,1.43E-02
14455,7.13E-03,1.64E-02
14456,7.20E-03,1.63E-02
14457,7.97E-03,1.59E-02
14458,7.67E-03,1.58E-02
14459,7.42E-03,1.80E-02
14460,6.52E-03,1.95E-02
14461,7.71E-03,1.95E-02
14462,7.56E-03,1.96E-02
14463,6.49E-03,1.95E-02
14464,7.31E-03,1.40E-02
14465,7.32E-03,1.37E-02
14466,7.58E-03,1.97E-02
14467,7.49E-03,1.98E-02
14468,6.97E-03,1.98E-02
14469,8.16E-03,1.98E-02
14470,9.10E-03,1.99E-02
14471,7.97E-03,1.81E-02
14472,6.08E-03,1.85E-02
14473,7.30E-03,1.83E-02
14474,8.26E-03,1.73E-02
14475,5.67E-03,1.78E-02
14476,5.44E-03,1.77E-02
14477,8.95E-03,1.44E-02
14478,8.47E-03,1.45E-02
14479,8.09E-03,1.07E-02
14480,8.09E-03,1.06E-02
14481,8.09E-03,1.04E-02
14482,8.09E-03,1.03E-02
14483,8.09E-03,1.01E-02
14484,8.09E-03,1.00E-02
14485,8.09E-03,9.87E-03
14486,8.09E-03,9.73E-03
14487,8.09E-03,9.59E-03
14488,8.09E-03,9.45E-03
14489,8.09E-03,9.30E-03
14490,8.09E-03,9.16E-03
14491,8.09E-03,9.02E-03
14492,8.21E-03,8.87E-03
14493,8.23E-03,8.73E-03
14494,8.26E-03,8.58E-03
14495,8.22E-03,8.43E-03
14496,8.23E-03,8.29E-03
14497,8.57E-03,8.13E-03
14498,6.43E-03,7.60E-03
14499,6.64E-03,7.58E-03
14500,6.01E-03,1.54E-02
14501,6.25E-03,1.36E-02
14502,8.62E-03,1.55E-02
14503,7.69E-03,1.94E-02
14504,8.56E-03,1.43E-02
14505,8.34E-03,1.45E-02
14506,8.31E-03,1.81E-02
14507,8.12E-03,1.67E-02
14508,8.37E-03,1.79E-02
14509,8.23E-03,1.78E-02
14510,3.46E-03,1.38E-02
14511,5.79E-03,1.38E-02
14512,6.25E-03,1.33E-02
14513,6.09E-03,1.33E-02
14514,1.07E-02,1.71E-02
14515,8.14E-03,1.66E-02
14516,6.84E-03,1.65E-02
14517,6.29E-03,1.94E-02
14518,6.46E-03,1.58E-02
14519,6.38E-03,1.56E-02
14520,8.83E-03,1.78E-02
14521,8.96E-03,1.77E-02
14522,8.10E-03,1.08E-02
14523,7.21E-03,1.14E-02
14524,6.06E-03,1.11E-02
14525,8.72E-03,1.07E-02
14526,5.43E-03,9.14E-03
14527,5.04E-03,2.00E-02
14528,5.00E-03,2.00E-02
14529,6.91E-03,2.01E-02
14530,9.17E-03,1.44E-02
14531,8.34E-03,1.46E-02
14532,7.16E-03,1.77E-02
14533,6.79E-03,1.75E-02
14534,8.23E-03,1.79E-02
14535,8.10E-03,1.09E-02
14536,7.79E-03,1.03E-02
14537,7.92E-03,1.01E-02
14538,7.46E-03,9.86E-03
14539,6.91E-03,9.51E-03
14540,8.57E-03,1.92E-02
14541,6.43E-03,1.93E-02
14542,9.03E-03,1.45E-02
14543,8.49E-03,1.47E-02
14544,7.99E-03,1.79E-02
14545,8.10E-03,1.10E-02
14546,8.69E-03,1.45E-02
14547,8.10E-03,1.13E-02
14548,8.10E-03,1.12E-02
14549,8.76E-03,1.53E-02
14550,6.92E-03,1.94E-02
14551,7.08E-03,1.95E-02
14552,8.60E-03,1.48E-02
14553,7.93E-03,1.79E-02
14554,8.20E-03,1.79E-02
14555,8.44E-03,1.46E-02
14556,8.70E-03,1.49E-02
14557,8.32E-03,1.80E-02
14558,8.10E-03,1.14E-02
14559,8.43E-03,1.46E-02
14560,7.78E-03,1.52E-02
14561,7.82E-03,1.51E-02
14562,8.03E-03,1.50E-02
14563,8.63E-03,1.50E-02
14564,8.71E-03,1.80E-02
14565,8.10E-03,1.15E-02
14566,8.10E-03,1.16E-02
14567,8.71E-03,1.46E-02
14568,8.10E-03,1.19E-02
14569,8.10E-03,1.18E-02
14570,8.41E-03,1.47E-02
14571,8.10E-03,1.20E-02
14572,8.04E-03,1.47E-02
14573,7.78E-03,1.47E-02
14574,8.10E-03,1.21E-02
14575,7.95E-03,1.22E-02
14576,7.95E-03,1.23E-02
14577,7.84E-03,1.47E-02
14578,7.77E-03,1.47E-02
14579,7.74E-03,1.47E-02
14580,8.16E-03,1.27E-02
14581,8.10E-03,1.25E-02
14582,8.01E-03,1.24E-02
14583,7.57E-03,1.47E-02
14584,7.58E-03,1.47E-02
14585,7.88E-03,1.47E-02
14586,8.49E-03,1.47E-02
14587,8.40E-03,1.47E-02
14588,8.19E-03,1.28E-02
14589,8.07E-03,1.29E-02
14590,7.92E-03,1.31E-02
14591,8.01E-03,1.30E-02
14592,7.93E-03,1.32E-02
14593,8.28E-03,1.46E-02
14594,8.00E-03,1.33E-02
14595,8.07E-03,1.46E-02
14596,8.03E-03,1.34E-02
14597,8.03E-03,1.46E-02
14598,8.00E-03,1.35E-02
14599,8.04E-03,1.45E-02
14600,8.01E-03,1.36E-02
14601,8.29E-03,1.45E-02
14602,8.10E-03,1.37E-02
14603,8.17E-03,1.38E-02
14604,8.23E-03,1.44E-02
14605,8.32E-03,1.44E-02
14606,8.17E-03,1.39E-02
14607,8.44E-03,1.43E-02
14608,8.27E-03,1.42E-02
14609,8.00E-03,1.39E-02
14610,8.03E-03,1.40E-02
14611,8.21E-03,1.42E-02
14612,8.16E-03,1.41E-02
14613,8.12E-03,1.93E-02
14614,8.47E-03,1.94E-02
14615,8.59E-03,1.94E-02
14616,9.74E-03,1.97E-02
14617,9.81E-03,1.96E-02
14618,1.05E-02,1.96E-02
14619,8.55E-03,1.95E-02
14620,7.93E-03,1.43E-02
14621,7.98E-03,1.43E-02
14622,7.97E-03,1.42E-02
14623,7.85E-03,1.42E-02
14624,7.99E-03,1.42E-02
14625,8.06E-03,1.42E-02
14626,7.96E-03,1.43E-02
14627,7.89E-03,1.43E-02
14628,7.88E-03,1.43E-02
14629,7.92E-03,1.43E-02
14630,8.03E-03,1.43E-02
14631,8.12E-03,1.43E-02
14632,8.20E-03,1.75E-02
14633,8.02E-03,1.74E-02
14634,8.29E-03,1.33E-02
14635,8.40E-03,1.36E-02
14636,6.93E-03,1.61E-02
14637,8.04E-03,1.34E-02
14638,8.03E-03,1.34E-02
14639,7.77E-03,1.35E-02
14640,7.97E-03,1.35E-02
14641,7.63E-03,1.81E-02
14642,8.05E-03,1.82E-02
14643,8.38E-03,1.75E-02
14644,8.54E-03,1.73E-02
14645,8.60E-03,1.71E-02
14646,8.64E-03,1.69E-02
14647,8.35E-03,1.66E-02
14648,8.24E-03,1.64E-02
14649,8.12E-03,1.61E-02
14650,8.01E-03,1.59E-02
14651,8.04E-03,1.56E-02
14652,8.17E-03,1.53E-02
14653,8.19E-03,1.50E-02
14654,8.16E-03,1.48E-02
14655,8.12E-03,1.45E-02
14656,7.78E-03,1.42E-02
14657,8.23E-03,1.43E-02
14658,8.88E-03,1.43E-02
14659,1.05E-02,1.43E-02
14660,8.88E-03,1.68E-02
14661,8.99E-03,1.69E-02
14662,9.18E-03,1.70E-02
14663,6.54E-03,1.48E-02
14664,7.52E-03,1.75E-02
14665,7.51E-03,1.73E-02
14666,7.51E-03,1.71E-02
14667,7.59E-03,1.69E-02
14668,7.72E-03,1.68E-02
14669,7.95E-03,1.66E-02
14670,7.97E-03,1.64E-02
14671,7.95E-03,1.62E-02
14672,7.59E-03,1.60E-02
14673,7.53E-03,1.58E-02
14674,7.25E-03,1.56E-02
14675,6.95E-03,1.54E-02
14676,6.55E-03,1.53E-02
14677,6.34E-03,1.51E-02
14678,3.78E-03,1.25E-02
14679,3.98E-03,1.25E-02
14680,3.06E-03,1.25E-02
14681,3.17E-03,1.25E-02
14682,3.27E-03,1.25E-02
14683,3.21E-03,1.25E-02
14684,3.44E-03,1.25E-02
14685,3.71E-03,1.25E-02
14686,3.77E-03,1.24E-02
14687,4.14E-03,1.24E-02
14688,4.41E-03,1.24E-02
14689,4.52E-03,1.25E-02
14690,4.56E-03,1.25E-02
14691,4.77E-03,1.25E-02
14692,5.04E-03,1.25E-02
14693,5.20E-03,1.25E-02
14694,5.33E-03,1.25E-02
14695,5.52E-03,1.25E-02
14696,5.52E-03,1.25E-02
14697,5.71E-03,1.25E-02
14698,5.97E-03,1.25E-02
14699,6.00E-03,1.25E-02
14700,6.08E-03,1.25E-02
14701,6.20E-03,1.25E-02
14702,6.27E-03,1.26E-02
14703,6.34E-03,1.26E-02
14704,6.42E-03,1.26E-02
14705,6.49E-03,1.26E-02
14706,6.56E-03,1.26E-02
14707,6.61E-03,1.26E-02
14708,6.80E-03,1.27E-02
14709,6.72E-03,1.27E-02
14710,6.66E-03,1.27E-02
14711,9.31E-03,1.40E-02
14712,8.80E-03,1.40E-02
14713,8.64E-03,1.40E-02
14714,8.28E-03,1.38E-02
14715,8.99E-03,1.38E-02
14716,8.79E-03,1.81E-02
14717,8.86E-03,1.80E-02
14718,5.31E-03,1.88E-02
14719,6.41E-03,1.91E-02
14720,7.15E-03,1.74E-02
14721,7.13E-03,1.74E-02
14722,7.68E-03,1.78E-02
14723,6.80E-03,1.84E-02
14724,7.76E-03,1.83E-02
14725,8.09E-03,8.66E-03
14726,6.48E-03,1.96E-02
14727,8.09E-03,1.45E-02
14728,6.23E-03,1.96E-02
14729,7.47E-03,1.81E-02
14730,8.77E-03,1.72E-02
14731,4.69E-03,1.24E-02
14732,8.04E-03,1.57E-02
14733,7.69E-03,1.20E-02
14734,8.49E-03,1.46E-02
14735,8.70E-03,1.46E-02
14736,8.74E-03,1.46E-02
14737,8.71E-03,1.46E-02
14738,4.77E-03,1.46E-02
14739,2.88E-03,1.46E-02
14740,3.03E-03,1.46E-02
14741,3.01E-03,1.46E-02
14742,2.98E-03,1.46E-02
14743,2.87E-03,1.46E-02
14744,3.29E-03,1.46E-02
14745,3.57E-03,1.46E-02
14746,3.62E-03,1.46E-02
14747,3.68E-03,1.46E-02
14748,3.88E-03,1.46E-02
14749,3.96E-03,1.46E-02
14750,4.27E-03,1.46E-02
14751,4.62E-03,1.46E-02
14752,4.66E-03,1.46E-02
14753,4.73E-03,1.46E-02
14754,4.88E-03,1.46E-02
14755,4.97E-03,1.46E-02
14756,5.02E-03,1.46E-02
14757,5.02E-03,1.46E-02
14758,4.96E-03,1.46E-02
14759,4.93E-03,1.46E-02
14760,4.89E-03,1.46E-02
14761,4.85E-03,1.46E-02
14762,4.80E-03,1.46E-02
14763,4.71E-03,1.46E-02
14764,4.60E-03,1.46E-02
14765,4.49E-03,1.46E-02
14766,4.37E-03,1.46E-02
14767,4.25E-03,1.46E-02
14768,4.14E-03,1.46E-02
14769,4.03E-03,1.46E-02
14770,3.93E-03,1.45E-02
14771,3.84E-03,1.45E-02
14772,3.84E-03,1.45E-02
14773,4.13E-03,1.45E-02
14774,4.15E-03,1.45E-02
14775,4.38E-03,1.45E-02
14776,4.38E-03,1.45E-02
14777,4.61E-03,1.45E-02
14778,4.64E-03,1.44E-02
14779,4.79E-03,1.44E-02
14780,4.93E-03,1.44E-02
14781,5.29E-03,1.44E-02
14782,5.46E-03,1.44E-02
14783,5.69E-03,1.44E-02
14784,5.93E-03,1.43E-02
14785,6.60E-03,1.43E-02
14786,6.58E-03,1.43E-02
14787,6.90E-03,1.42E-02
14788,7.13E-03,1.42E-02
14789,7.21E-03,1.42E-02
14790,7.63E-03,1.41E-02
14791,7.86E-03,1.41E-02
14792,7.84E-03,1.41E-02
14793,8.04E-03,1.40E-02
14794,8.01E-03,1.40E-02
14795,9.14E-03,1.39E-02
14796,9.20E-03,1.39E-02
14797,9.88E-03,1.38E-02
14798,1.01E-02,1.37E-02
14799,1.03E-02,1.37E-02
14800,1.03E-02,1.36E-02
14801,1.04E-02,1.36E-02
14802,1.05E-02,1.35E-02
14803,1.06E-02,1.34E-02
14804,1.06E-02,1.34E-02
14805,1.07E-02,1.33E-02
14806,1.08E-02,1.32E-02
14807,1.09E-02,1.32E-02
14808,1.07E-02,1.31E-02
14809,1.07E-02,1.30E-02
14810,1.04E-02,1.30E-02
14811,1.03E-02,1.29E-02
14812,1.02E-02,1.28E-02
14813,9.83E-03,1.28E-02
14814,9.71E-03,1.27E-02
14815,9.60E-03,1.27E-02
14816,9.49E-03,1.26E-02
14817,9.39E-03,1.26E-02
14818,9.31E-03,1.25E-02
14819,9.24E-03,1.25E-02
14820,9.16E-03,1.24E-02
14821,9.08E-03,1.24E-02
14822,8.94E-03,1.23E-02
14823,8.75E-03,1.23E-02
14824,8.56E-03,1.23E-02
14825,8.43E-03,1.22E-02
14826,8.34E-03,1.22E-02
14827,8.27E-03,1.22E-02
14828,8.20E-03,1.21E-02
14829,8.12E-03,1.21E-02
14830,8.04E-03,1.20E-02
14831,7.96E-03,1.20E-02
14832,7.89E-03,1.20E-02
14833,7.85E-03,1.20E-02
14834,7.88E-03,1.19E-02
14835,7.93E-03,1.19E-02
14836,7.98E-03,1.19E-02
14837,8.04E-03,1.18E-02
14838,8.09E-03,1.18E-02
14839,8.16E-03,1.18E-02
14840,8.21E-03,1.17E-02
14841,8.33E-03,1.17E-02
14842,8.19E-03,1.17E-02
14843,7.95E-03,1.17E-02
14844,7.57E-03,1.16E-02
14845,7.34E-03,1.16E-02
14846,8.43E-03,1.16E-02
14847,6.02E-03,1.16E-02
14848,9.66E-03,1.86E-02
14849,6.73E-03,1.86E-02
14850,1.06E-02,1.50E-02
14851,6.99E-03,1.16E-02
14852,7.02E-03,1.13E-02
14853,5.06E-03,1.11E-02
14854,5.33E-03,1.10E-02
14855,7.85E-03,1.07E-02
14856,7.89E-03,1.04E-02
14857,8.03E-03,1.01E-02
14858,8.11E-03,9.86E-03
14859,8.06E-03,9.59E-03
14860,7.99E-03,9.32E-03
14861,8.07E-03,9.06E-03
14862,8.09E-03,8.80E-03
14863,7.93E-03,8.58E-03
14864,7.80E-03,8.37E-03
14865,7.67E-03,8.13E-03
14866,7.50E-03,7.89E-03
14867,7.57E-03,7.67E-03
14868,7.80E-03,7.49E-03
14869,8.03E-03,7.29E-03
14870,7.89E-03,7.10E-03
14871,7.88E-03,6.94E-03
14872,7.53E-03,6.80E-03
14873,6.34E-03,6.77E-03
14874,5.88E-03,6.70E-03
14875,6.54E-03,6.60E-03
14876,8.79E-03,1.67E-02
14877,6.70E-03,1.26E-02
14878,7.26E-03,1.23E-02
14879,7.55E-03,1.20E-02
14880,9.20E-03,1.36E-02
14881,8.78E-03,1.33E-02
14882,9.39E-03,1.29E-02
14883,6.95E-03,1.27E-02
14884,8.11E-03,1.26E-02
14885,7.83E-03,1.93E-02
14886,7.85E-03,1.94E-02
14887,9.69E-03,1.99E-02
14888,7.90E-03,1.43E-02
14889,8.04E-03,1.44E-02
14890,8.47E-03,1.78E-02
14891,7.92E-03,1.71E-02
14892,8.23E-03,1.29E-02
14893,8.90E-03,1.43E-02
14894,8.54E-03,1.39E-02
14895,6.58E-03,1.60E-02
14896,8.18E-03,1.32E-02
14897,6.44E-03,1.35E-02
14898,6.60E-03,1.34E-02
14899,6.93E-03,1.34E-02
14900,8.38E-03,1.81E-02
14901,8.33E-03,1.76E-02
14902,5.67E-03,1.24E-02
14903,7.18E-03,1.43E-02
14904,7.08E-03,1.17E-02
14905,8.47E-03,1.67E-02
14906,7.12E-03,1.64E-02
14907,7.01E-03,1.63E-02
14908,7.03E-03,1.62E-02
14909,7.22E-03,1.61E-02
14910,7.46E-03,1.61E-02
14911,8.44E-03,1.60E-02
14912,6.39E-03,1.60E-02
14913,6.90E-03,1.59E-02
14914,9.08E-03,1.91E-02
14915,7.40E-03,1.79E-02
14916,8.48E-03,8.43E-03
14917,7.99E-03,8.15E-03
14918,8.34E-03,7.92E-03
14919,8.22E-03,7.75E-03
14920,8.25E-03,7.58E-03
14921,9.10E-03,7.22E-03
14922,9.00E-03,7.05E-03
14923,7.65E-03,6.89E-03
14924,8.11E-03,6.77E-03
14925,8.05E-03,6.53E-03
14926,7.68E-03,6.64E-03
14927,7.59E-03,1.96E-02
14928,7.33E-03,1.97E-02
14929,6.20E-03,1.96E-02
14930,8.74E-03,1.47E-02
14931,8.06E-03,1.41E-02
14932,7.84E-03,1.38E-02
14933,7.68E-03,1.99E-02
14934,7.95E-03,2.00E-02
14935,9.64E-03,1.99E-02
14936,1.04E-02,2.00E-02
14937,8.28E-03,1.80E-02
14938,7.96E-03,1.73E-02
14939,5.40E-03,1.77E-02
14940,6.14E-03,1.85E-02
14941,6.97E-03,1.96E-02
14942,7.51E-03,1.80E-02
14943,8.16E-03,1.44E-02
14944,8.84E-03,1.16E-02
14945,8.49E-03,1.45E-02
14946,6.94E-03,7.52E-03
14947,7.62E-03,7.62E-03
14948,7.89E-03,7.71E-03
14949,7.85E-03,7.79E-03
14950,7.54E-03,7.86E-03
14951,7.37E-03,7.94E-03
14952,7.37E-03,8.03E-03
14953,7.41E-03,8.12E-03
14954,7.46E-03,8.21E-03
14955,7.55E-03,8.30E-03
14956,7.58E-03,8.39E-03
14957,7.61E-03,8.49E-03
14958,7.64E-03,8.59E-03
14959,7.67E-03,8.69E-03
14960,7.69E-03,8.79E-03
14961,7.72E-03,8.89E-03
14962,7.75E-03,9.00E-03
14963,7.76E-03,9.11E-03
14964,7.76E-03,9.21E-03
14965,7.76E-03,9.33E-03
14966,7.76E-03,9.44E-03
14967,7.75E-03,9.55E-03
14968,7.75E-03,9.67E-03
14969,7.75E-03,9.78E-03
14970,7.74E-03,9.90E-03
14971,7.72E-03,1.00E-02
14972,7.68E-03,1.01E-02
14973,7.64E-03,1.03E-02
14974,7.60E-03,1.04E-02
14975,7.49E-03,1.05E-02
14976,7.47E-03,1.06E-02
14977,7.34E-03,1.07E-02
14978,7.18E-03,1.09E-02
14979,7.13E-03,1.10E-02
14980,7.15E-03,1.11E-02
14981,7.38E-03,1.12E-02
14982,8.08E-03,1.14E-02
14983,6.44E-03,1.15E-02
14984,5.87E-03,1.16E-02
14985,6.36E-03,1.52E-02
14986,6.91E-03,1.36E-02
14987,7.38E-03,1.56E-02
14988,7.77E-03,1.22E-02
14989,7.66E-03,1.95E-02
14990,4.52E-03,1.24E-02
14991,7.84E-03,2.00E-02
14992,8.13E-03,2.01E-02
14993,9.53E-03,2.01E-02
14994,8.31E-03,1.44E-02
14995,8.10E-03,1.45E-02
14996,8.45E-03,1.80E-02
14997,6.79E-03,1.69E-02
14998,6.90E-03,1.70E-02
14999,8.09E-03,1.79E-02
15000,8.18E-03,1.77E-02
15001,7.70E-03,1.58E-02
15002,8.00E-03,1.58E-02
15003,6.76E-03,1.57E-02
15004,7.83E-03,1.55E-02
15005,6.96E-03,1.43E-02
15006,3.92E-03,1.42E-02
15007,6.54E-03,1.35E-02
15008,4.66E-03,1.38E-02
15009,6.97E-03,1.39E-02
15010,6.45E-03,1.32E-02
15011,6.92E-03,1.32E-02
15012,6.37E-03,1.32E-02
15013,6.98E-03,1.31E-02
15014,8.48E-03,1.31E-02
15015,9.00E-03,1.30E-02
15016,8.28E-03,1.30E-02
15017,7.97E-03,1.29E-02
15018,7.80E-03,1.29E-02
15019,7.06E-03,1.29E-02
15020,6.81E-03,1.28E-02
15021,6.52E-03,1.28E-02
15022,6.22E-03,1.27E-02
15023,5.91E-03,1.27E-02
15024,5.58E-03,1.26E-02
15025,5.28E-03,1.26E-02
15026,4.99E-03,1.26E-02
15027,4.73E-03,1.26E-02
15028,4.42E-03,1.25E-02
15029,4.04E-03,1.25E-02
15030,3.82E-03,1.25E-02
15031,3.54E-03,1.25E-02
15032,3.03E-03,1.24E-02
15033,2.87E-03,1.24E-02
15034,2.93E-03,1.24E-02
15035,2.91E-03,1.24E-02
15036,4.25E-03,1.23E-02
15037,4.00E-03,1.23E-02
15038,1.06E-02,1.70E-02
15039,8.95E-03,1.28E-02
15040,6.85E-03,1.30E-02
15041,5.26E-03,1.32E-02
15042,5.90E-03,1.33E-02
15043,6.71E-03,1.36E-02
15044,3.82E-03,1.23E-02
15045,7.01E-03,1.64E-02
15046,6.35E-03,1.95E-02
15047,8.27E-03,1.72E-02
15048,7.73E-03,1.80E-02
15049,8.67E-03,1.43E-02
15050,6.48E-03,1.54E-02
15051,7.76E-03,1.77E-02
15052,8.15E-03,1.76E-02
15053,7.45E-03,1.97E-02
15054,8.49E-03,1.99E-02
15055,6.59E-03,1.46E-02
15056,8.33E-03,1.45E-02
15057,8.09E-03,1.07E-02
15058,8.09E-03,1.05E-02
15059,8.09E-03,1.04E-02
15060,8.09E-03,1.03E-02
15061,8.09E-03,1.01E-02
15062,8.09E-03,1.00E-02
15063,8.09E-03,9.86E-03
15064,8.09E-03,9.72E-03
15065,8.09E-03,9.58E-03
15066,8.09E-03,9.44E-03
15067,8.09E-03,9.29E-03
15068,8.09E-03,9.15E-03
15069,8.09E-03,9.00E-03
15070,8.09E-03,8.86E-03
15071,8.17E-03,8.71E-03
15072,8.21E-03,8.57E-03
15073,8.22E-03,8.42E-03
15074,8.35E-03,8.27E-03
15075,8.54E-03,8.11E-03
15076,8.58E-03,7.96E-03
15077,7.98E-03,7.81E-03
15078,6.95E-03,7.69E-03
15079,6.54E-03,7.58E-03
15080,7.06E-03,7.45E-03
15081,7.61E-03,7.29E-03
15082,4.89E-03,1.14E-02
15083,8.18E-03,1.10E-02
15084,6.63E-03,1.62E-02
15085,6.47E-03,1.64E-02
15086,7.04E-03,1.65E-02
15087,7.65E-03,1.67E-02
15088,7.25E-03,1.96E-02
15089,6.78E-03,8.98E-03
15090,7.08E-03,8.81E-03
15091,4.50E-03,2.01E-02
15092,8.26E-03,2.02E-02
15093,8.70E-03,1.44E-02
15094,8.31E-03,1.46E-02
15095,8.03E-03,1.82E-02
15096,6.07E-03,1.66E-02
15097,6.38E-03,1.65E-02
15098,7.83E-03,1.78E-02
15099,7.78E-03,1.76E-02
15100,7.08E-03,1.76E-02
15101,6.79E-03,1.74E-02
15102,7.10E-03,1.74E-02
15103,8.19E-03,1.77E-02
15104,8.10E-03,1.08E-02
15105,8.87E-03,1.05E-02
15106,7.89E-03,1.02E-02
15107,7.45E-03,9.95E-03
15108,7.31E-03,9.61E-03
15109,6.87E-03,9.23E-03
15110,7.19E-03,1.82E-02
15111,5.47E-03,1.93E-02
15112,4.67E-03,1.94E-02
15113,8.92E-03,1.45E-02
15114,8.31E-03,1.47E-02
15115,5.48E-03,1.57E-02
15116,5.51E-03,1.59E-02
15117,7.26E-03,1.80E-02
15118,6.06E-03,1.95E-02
15119,8.10E-03,1.77E-02
15120,8.10E-03,1.09E-02
15121,8.83E-03,1.45E-02
15122,8.10E-03,1.12E-02
15123,8.10E-03,1.10E-02
15124,7.41E-03,1.53E-02
15125,8.01E-03,1.97E-02
15126,7.39E-03,1.94E-02
15127,6.94E-03,1.94E-02
15128,2.18E-03,1.93E-02
15129,8.49E-03,1.48E-02
15130,8.03E-03,1.78E-02
15131,8.10E-03,1.78E-02
15132,8.53E-03,1.46E-02
15133,8.60E-03,1.49E-02
15134,8.29E-03,1.78E-02
15135,8.10E-03,1.13E-02
15136,8.39E-03,1.46E-02
15137,8.77E-03,1.50E-02
15138,8.69E-03,1.78E-02
15139,8.42E-03,1.78E-02
15140,8.10E-03,1.14E-02
15141,8.10E-03,1.15E-02
15142,8.43E-03,1.46E-02
15143,7.30E-03,1.52E-02
15144,7.08E-03,1.52E-02
15145,7.16E-03,1.51E-02
15146,9.08E-03,1.51E-02
15147,8.10E-03,1.18E-02
15148,8.10E-03,1.16E-02
15149,8.46E-03,1.47E-02
15150,8.10E-03,1.19E-02
15151,8.17E-03,1.47E-02
15152,7.99E-03,1.47E-02
15153,8.10E-03,1.20E-02
15154,8.10E-03,1.21E-02
15155,7.99E-03,1.22E-02
15156,7.89E-03,1.47E-02
15157,7.82E-03,1.47E-02
15158,7.86E-03,1.47E-02
15159,8.10E-03,1.26E-02
15160,8.10E-03,1.24E-02
15161,8.01E-03,1.23E-02
15162,7.77E-03,1.47E-02
15163,7.67E-03,1.47E-02
15164,7.86E-03,1.47E-02
15165,8.21E-03,1.47E-02
15166,8.30E-03,1.47E-02
15167,8.10E-03,1.27E-02
15168,8.10E-03,1.28E-02
15169,7.97E-03,1.30E-02
15170,8.02E-03,1.29E-02
15171,7.99E-03,1.31E-02
15172,8.36E-03,1.46E-02
15173,8.01E-03,1.32E-02
15174,8.21E-03,1.46E-02
15175,8.10E-03,1.33E-02
15176,8.03E-03,1.46E-02
15177,8.04E-03,1.34E-02
15178,8.04E-03,1.45E-02
15179,8.03E-03,1.35E-02
15180,8.10E-03,1.45E-02
15181,8.10E-03,1.36E-02
15182,8.10E-03,1.37E-02
15183,8.20E-03,1.44E-02
15184,8.21E-03,1.44E-02
15185,8.10E-03,1.38E-02
15186,8.27E-03,1.43E-02
15187,8.25E-03,1.42E-02
15188,8.10E-03,1.39E-02
15189,8.03E-03,1.40E-02
15190,8.23E-03,1.42E-02
15191,8.10E-03,1.40E-02
15192,8.10E-03,1.41E-02
15193,8.13E-03,1.95E-02
15194,8.24E-03,1.96E-02
15195,8.37E-03,1.96E-02
15196,9.58E-03,1.98E-02
15197,1.00E-02,1.98E-02
15198,1.01E-02,1.98E-02
15199,8.76E-03,1.97E-02
15200,7.91E-03,1.43E-02
15201,7.92E-03,1.43E-02
15202,7.99E-03,1.43E-02
15203,7.96E-03,1.43E-02
15204,8.04E-03,1.43E-02
15205,8.04E-03,1.43E-02
15206,8.01E-03,1.44E-02
15207,8.00E-03,1.44E-02
15208,8.05E-03,1.44E-02
15209,8.10E-03,1.44E-02
15210,8.15E-03,1.43E-02
15211,8.14E-03,1.43E-02
15212,8.45E-03,1.76E-02
15213,8.25E-03,1.73E-02
15214,8.58E-03,1.74E-02
15215,8.36E-03,1.32E-02
15216,8.42E-03,1.36E-02
15217,6.66E-03,1.61E-02
15218,8.05E-03,1.33E-02
15219,8.06E-03,1.33E-02
15220,7.58E-03,1.34E-02
15221,7.97E-03,1.33E-02
15222,7.61E-03,1.80E-02
15223,6.36E-03,1.34E-02
15224,8.39E-03,1.74E-02
15225,8.62E-03,1.72E-02
15226,8.73E-03,1.70E-02
15227,8.58E-03,1.67E-02
15228,8.43E-03,1.65E-02
15229,8.25E-03,1.62E-02
15230,8.12E-03,1.60E-02
15231,8.09E-03,1.57E-02
15232,8.09E-03,1.55E-02
15233,8.15E-03,1.52E-02
15234,8.19E-03,1.49E-02
15235,8.22E-03,1.46E-02
15236,8.27E-03,1.44E-02
15237,8.37E-03,1.41E-02
15238,9.36E-03,1.39E-02
15239,9.68E-03,1.36E-02
15240,8.86E-03,1.32E-02
15241,8.08E-03,1.29E-02
15242,7.06E-03,1.21E-02
15243,6.73E-03,1.23E-02
15244,7.17E-03,1.27E-02
15245,8.09E-03,1.43E-02
15246,8.81E-03,1.43E-02
15247,1.02E-02,1.42E-02
15248,7.00E-03,1.15E-02
15249,6.98E-03,1.12E-02
15250,5.19E-03,1.10E-02
15251,4.89E-03,1.09E-02
15252,8.13E-03,1.06E-02
15253,8.12E-03,1.04E-02
15254,8.20E-03,1.01E-02
15255,8.14E-03,9.78E-03
15256,8.09E-03,9.50E-03
15257,8.09E-03,9.24E-03
15258,8.09E-03,8.98E-03
15259,8.09E-03,8.73E-03
15260,7.97E-03,8.50E-03
15261,7.86E-03,8.28E-03
15262,7.74E-03,8.05E-03
15263,7.72E-03,7.82E-03
15264,7.80E-03,7.61E-03
15265,7.86E-03,7.40E-03
15266,7.97E-03,7.20E-03
15267,7.87E-03,7.03E-03
15268,7.74E-03,6.87E-03
15269,7.40E-03,6.75E-03
15270,7.25E-03,6.63E-03
15271,7.39E-03,6.47E-03
15272,6.83E-03,6.42E-03
15273,8.27E-03,6.34E-03
15274,9.01E-03,1.68E-02
15275,9.15E-03,1.69E-02
15276,9.45E-03,1.69E-02
15277,7.10E-03,1.58E-02
15278,8.12E-03,1.58E-02
15279,7.04E-03,1.63E-02
15280,6.92E-03,1.62E-02
15281,6.92E-03,1.62E-02
15282,6.93E-03,1.61E-02
15283,7.05E-03,1.61E-02
15284,5.48E-03,1.60E-02
15285,5.11E-03,1.60E-02
15286,2.27E-03,1.49E-02
15287,4.12E-03,1.50E-02
15288,4.60E-03,1.52E-02
15289,7.48E-03,1.77E-02
15290,7.47E-03,1.76E-02
15291,7.52E-03,1.74E-02
15292,7.59E-03,1.72E-02
15293,7.69E-03,1.70E-02
15294,7.78E-03,1.69E-02
15295,8.03E-03,1.67E-02
15296,7.86E-03,1.65E-02
15297,7.68E-03,1.63E-02
15298,7.55E-03,1.61E-02
15299,7.39E-03,1.59E-02
15300,7.31E-03,1.57E-02
15301,6.73E-03,1.56E-02
15302,5.30E-03,1.54E-02
15303,7.93E-03,1.31E-02
15304,6.45E-03,6.74E-03
15305,6.98E-03,6.80E-03
15306,7.73E-03,6.92E-03
15307,7.96E-03,7.09E-03
15308,8.17E-03,7.25E-03
15309,8.90E-03,7.57E-03
15310,7.06E-03,8.47E-03
15311,7.63E-03,8.31E-03
15312,7.38E-03,8.09E-03
15313,7.64E-03,7.91E-03
15314,8.73E-03,7.76E-03
15315,3.49E-03,1.23E-02
15316,3.28E-03,1.23E-02
15317,3.17E-03,1.23E-02
15318,3.23E-03,1.23E-02
15319,3.26E-03,1.23E-02
15320,3.50E-03,1.23E-02
15321,3.64E-03,1.23E-02
15322,3.82E-03,1.23E-02
15323,4.35E-03,1.23E-02
15324,4.45E-03,1.23E-02
15325,4.52E-03,1.23E-02
15326,4.62E-03,1.23E-02
15327,4.91E-03,1.23E-02
15328,5.07E-03,1.23E-02
15329,5.23E-03,1.23E-02
15330,5.36E-03,1.23E-02
15331,5.56E-03,1.23E-02
15332,5.56E-03,1.23E-02
15333,5.74E-03,1.23E-02
15334,5.95E-03,1.23E-02
15335,6.04E-03,1.23E-02
15336,6.16E-03,1.23E-02
15337,6.23E-03,1.24E-02
15338,6.30E-03,1.24E-02
15339,6.37E-03,1.24E-02
15340,6.44E-03,1.24E-02
15341,6.51E-03,1.24E-02
15342,6.59E-03,1.24E-02
15343,6.68E-03,1.24E-02
15344,6.95E-03,1.25E-02
15345,7.08E-03,1.25E-02
15346,7.35E-03,1.25E-02
15347,6.75E-03,6.52E-03
15348,6.13E-03,6.61E-03
15349,7.20E-03,1.97E-02
15350,7.42E-03,1.97E-02
15351,7.14E-03,1.98E-02
15352,9.48E-03,1.44E-02
15353,8.91E-03,1.42E-02
15354,7.67E-03,1.40E-02
15355,5.17E-03,1.40E-02
15356,7.89E-03,2.01E-02
15357,7.89E-03,2.02E-02
15358,8.37E-03,1.79E-02
15359,8.42E-03,1.78E-02
15360,6.25E-03,1.90E-02
15361,7.57E-03,1.73E-02
15362,7.39E-03,1.73E-02
15363,7.76E-03,1.76E-02
15364,7.48E-03,1.84E-02
15365,6.60E-03,1.98E-02
15366,7.54E-03,1.79E-02
15367,8.77E-03,1.71E-02
15368,7.99E-03,1.44E-02
15369,7.83E-03,1.19E-02
15370,8.52E-03,1.45E-02
15371,8.85E-03,1.46E-02
15372,8.77E-03,1.46E-02
15373,8.76E-03,1.46E-02
15374,4.82E-03,1.46E-02
15375,2.92E-03,1.46E-02
15376,3.07E-03,1.46E-02
15377,3.16E-03,1.46E-02
15378,3.06E-03,1.46E-02
15379,2.92E-03,1.46E-02
15380,3.37E-03,1.46E-02
15381,3.61E-03,1.46E-02
15382,3.64E-03,1.46E-02
15383,3.77E-03,1.46E-02
15384,3.93E-03,1.46E-02
15385,4.08E-03,1.46E-02
15386,4.41E-03,1.46E-02
15387,4.54E-03,1.46E-02
15388,4.64E-03,1.46E-02
15389,4.84E-03,1.46E-02
15390,4.93E-03,1.46E-02
15391,5.02E-03,1.46E-02
15392,5.07E-03,1.46E-02
15393,5.06E-03,1.46E-02
15394,5.01E-03,1.46E-02
15395,4.98E-03,1.46E-02
15396,4.94E-03,1.46E-02
15397,4.90E-03,1.46E-02
15398,4.85E-03,1.46E-02
15399,4.77E-03,1.46E-02
15400,4.66E-03,1.46E-02
15401,4.54E-03,1.46E-02
15402,4.43E-03,1.46E-02
15403,4.31E-03,1.46E-02
15404,4.20E-03,1.46E-02
15405,4.09E-03,1.46E-02
15406,4.00E-03,1.46E-02
15407,3.90E-03,1.46E-02
15408,3.90E-03,1.45E-02
15409,4.12E-03,1.45E-02
15410,4.21E-03,1.45E-02
15411,4.39E-03,1.45E-02
15412,4.46E-03,1.45E-02
15413,4.71E-03,1.45E-02
15414,4.69E-03,1.45E-02
15415,4.84E-03,1.45E-02
15416,4.98E-03,1.44E-02
15417,5.18E-03,1.44E-02
15418,5.52E-03,1.44E-02
15419,5.83E-03,1.44E-02
15420,6.10E-03,1.44E-02
15421,6.47E-03,1.43E-02
15422,6.60E-03,1.43E-02
15423,6.91E-03,1.43E-02
15424,7.13E-03,1.42E-02
15425,7.31E-03,1.42E-02
15426,7.62E-03,1.42E-02
15427,7.87E-03,1.41E-02
15428,7.79E-03,1.41E-02
15429,8.01E-03,1.41E-02
15430,8.07E-03,1.40E-02
15431,9.03E-03,1.40E-02
15432,9.16E-03,1.39E-02
15433,9.96E-03,1.39E-02
15434,1.02E-02,1.38E-02
15435,1.03E-02,1.37E-02
15436,1.03E-02,1.37E-02
15437,1.03E-02,1.36E-02
15438,1.04E-02,1.36E-02
15439,1.05E-02,1.35E-02
15440,1.06E-02,1.34E-02
15441,1.07E-02,1.34E-02
15442,1.08E-02,1.33E-02
15443,1.09E-02,1.32E-02
15444,1.07E-02,1.32E-02
15445,1.06E-02,1.31E-02
15446,1.04E-02,1.30E-02
15447,1.03E-02,1.30E-02
15448,1.01E-02,1.29E-02
15449,9.81E-03,1.29E-02
15450,9.69E-03,1.28E-02
15451,9.58E-03,1.28E-02
15452,9.47E-03,1.27E-02
15453,9.37E-03,1.27E-02
15454,9.29E-03,1.26E-02
15455,9.22E-03,1.26E-02
15456,9.14E-03,1.25E-02
15457,9.06E-03,1.25E-02
15458,8.93E-03,1.25E-02
15459,8.74E-03,1.24E-02
15460,8.56E-03,1.24E-02
15461,8.42E-03,1.24E-02
15462,8.34E-03,1.23E-02
15463,8.26E-03,1.23E-02
15464,8.19E-03,1.22E-02
15465,8.12E-03,1.22E-02
15466,8.04E-03,1.22E-02
15467,7.96E-03,1.22E-02
15468,7.89E-03,1.21E-02
15469,7.86E-03,1.21E-02
15470,7.89E-03,1.21E-02
15471,7.93E-03,1.20E-02
15472,7.98E-03,1.20E-02
15473,8.04E-03,1.20E-02
15474,8.09E-03,1.20E-02
15475,8.16E-03,1.19E-02
15476,8.21E-03,1.19E-02
15477,8.26E-03,1.19E-02
15478,8.13E-03,1.19E-02
15479,8.01E-03,1.18E-02
15480,8.06E-03,1.18E-02
15481,8.15E-03,1.18E-02
15482,7.74E-03,1.18E-02
15483,7.06E-03,1.17E-02
15484,7.88E-03,1.17E-02
15485,7.88E-03,1.39E-02
15486,8.52E-03,1.39E-02
15487,9.18E-03,1.39E-02
15488,1.05E-02,1.40E-02
15489,9.10E-03,1.88E-02
15490,7.50E-03,1.87E-02
15491,7.37E-03,1.58E-02
15492,9.59E-03,1.50E-02
15493,7.84E-03,1.66E-02
15494,7.62E-03,1.19E-02
15495,8.28E-03,1.37E-02
15496,5.34E-03,1.56E-02
15497,4.90E-03,6.23E-03
15498,6.67E-03,1.66E-02
15499,6.54E-03,1.64E-02
15500,8.06E-03,1.25E-02
15501,7.81E-03,1.96E-02
15502,4.85E-03,6.22E-03
15503,5.88E-03,6.22E-03
15504,6.16E-03,6.15E-03
15505,8.67E-03,2.00E-02
15506,7.70E-03,2.02E-02
15507,7.77E-03,2.02E-02
15508,7.80E-03,1.96E-02
15509,9.45E-03,2.01E-02
15510,8.20E-03,1.44E-02
15511,8.10E-03,1.45E-02
15512,8.58E-03,1.78E-02
15513,8.37E-03,1.71E-02
15514,8.23E-03,1.29E-02
15515,6.50E-03,1.63E-02
15516,6.68E-03,1.33E-02
15517,6.66E-03,1.33E-02
15518,6.97E-03,1.33E-02
15519,7.82E-03,1.79E-02
15520,6.33E-03,6.32E-03
15521,5.39E-03,6.29E-03
15522,6.27E-03,1.28E-02
15523,6.13E-03,1.29E-02
15524,5.10E-03,1.31E-02
15525,4.94E-03,1.33E-02
15526,6.10E-03,1.34E-02
15527,6.59E-03,1.37E-02
15528,8.26E-03,1.75E-02
15529,5.31E-03,1.57E-02
15530,7.17E-03,1.56E-02
15531,6.78E-03,1.42E-02
15532,7.08E-03,1.35E-02
15533,8.57E-03,1.37E-02
15534,6.17E-03,1.37E-02
15535,5.30E-03,1.37E-02
15536,7.47E-03,1.31E-02
15537,7.81E-03,1.30E-02
15538,8.30E-03,1.30E-02
15539,8.61E-03,1.29E-02
15540,8.61E-03,1.29E-02
15541,8.22E-03,1.28E-02
15542,7.82E-03,1.28E-02
15543,7.13E-03,1.27E-02
15544,6.86E-03,1.27E-02
15545,6.55E-03,1.26E-02
15546,6.24E-03,1.26E-02
15547,5.92E-03,1.25E-02
15548,5.60E-03,1.25E-02
15549,5.29E-03,1.25E-02
15550,5.00E-03,1.24E-02
15551,4.76E-03,1.24E-02
15552,4.33E-03,1.24E-02
15553,4.05E-03,1.24E-02
15554,3.79E-03,1.23E-02
15555,3.50E-03,1.23E-02
15556,3.20E-03,1.23E-02
15557,2.98E-03,1.23E-02
15558,2.82E-03,1.22E-02
15559,2.66E-03,1.22E-02
15560,3.44E-03,1.22E-02
15561,3.20E-03,1.22E-02
15562,4.93E-03,1.23E-02
15563,7.00E-03,1.98E-02
15564,7.15E-03,1.16E-02
15565,8.24E-03,1.67E-02
15566,6.98E-03,1.59E-02
15567,7.18E-03,1.64E-02
15568,8.22E-03,1.47E-02
15569,8.29E-03,1.31E-02
15570,7.74E-03,1.30E-02
15571,6.41E-03,1.96E-02
15572,7.41E-03,1.57E-02
15573,8.93E-03,1.59E-02
15574,7.11E-03,1.58E-02
15575,4.31E-03,8.26E-03
15576,8.01E-03,1.73E-02
15577,7.95E-03,1.79E-02
15578,7.52E-03,1.42E-02
15579,6.45E-03,1.42E-02
15580,7.82E-03,1.86E-02
15581,7.98E-03,1.44E-02
15582,5.99E-03,1.99E-02
15583,7.11E-03,1.98E-02
15584,6.71E-03,1.16E-02
15585,6.89E-03,1.92E-02
15586,7.48E-03,1.52E-02
15587,7.65E-03,1.76E-02
15588,7.26E-03,1.75E-02
15589,8.54E-03,1.39E-02
15590,1.04E-02,1.40E-02
15591,8.32E-03,1.45E-02
15592,6.59E-03,7.14E-03
15593,6.76E-03,7.33E-03
15594,7.17E-03,7.41E-03
15595,7.32E-03,7.50E-03
15596,7.53E-03,7.59E-03
15597,7.55E-03,7.67E-03
15598,7.51E-03,7.75E-03
15599,7.43E-03,7.83E-03
15600,7.45E-03,7.92E-03
15601,7.48E-03,8.01E-03
15602,7.52E-03,8.10E-03
15603,7.56E-03,8.19E-03
15604,7.59E-03,8.29E-03
15605,7.62E-03,8.38E-03
15606,7.65E-03,8.48E-03
15607,7.67E-03,8.58E-03
15608,7.70E-03,8.69E-03
15609,7.73E-03,8.79E-03
15610,7.75E-03,8.90E-03
15611,7.76E-03,9.01E-03
15612,7.77E-03,9.12E-03
15613,7.76E-03,9.23E-03
15614,7.76E-03,9.34E-03
15615,7.76E-03,9.46E-03
15616,7.76E-03,9.57E-03
15617,7.76E-03,9.69E-03
15618,7.75E-03,9.81E-03
15619,7.72E-03,9.93E-03
15620,7.68E-03,1.00E-02
15621,7.64E-03,1.02E-02
15622,7.60E-03,1.03E-02
15623,7.52E-03,1.04E-02
15624,7.49E-03,1.05E-02
15625,7.37E-03,1.07E-02
15626,7.35E-03,1.08E-02
15627,7.29E-03,1.09E-02
15628,7.33E-03,1.10E-02
15629,7.41E-03,1.12E-02
15630,7.24E-03,1.13E-02
15631,7.09E-03,1.14E-02
15632,7.18E-03,1.15E-02
15633,8.01E-03,1.17E-02
15634,8.42E-03,1.06E-02
15635,8.14E-03,1.09E-02
15636,7.89E-03,1.22E-02
15637,6.83E-03,1.69E-02
15638,5.92E-03,1.70E-02
15639,7.49E-03,1.97E-02
15640,6.57E-03,8.67E-03
15641,5.09E-03,8.49E-03
15642,6.31E-03,1.38E-02
15643,9.13E-03,2.03E-02
15644,8.41E-03,1.44E-02
15645,8.10E-03,1.46E-02
15646,8.25E-03,1.81E-02
15647,6.67E-03,1.67E-02
15648,6.99E-03,1.66E-02
15649,7.62E-03,1.65E-02
15650,7.91E-03,1.78E-02
15651,6.91E-03,1.14E-02
15652,7.50E-03,1.75E-02
15653,7.69E-03,1.74E-02
15654,7.73E-03,1.74E-02
15655,7.41E-03,1.74E-02
15656,7.38E-03,1.97E-02
15657,7.44E-03,1.98E-02
15658,8.10E-03,1.75E-02
15659,7.38E-03,1.55E-02
15660,8.06E-03,1.44E-02
15661,8.09E-03,1.07E-02
15662,8.09E-03,1.05E-02
15663,8.09E-03,1.04E-02
15664,8.09E-03,1.03E-02
15665,8.09E-03,1.01E-02
15666,8.09E-03,9.99E-03
15667,8.09E-03,9.85E-03
15668,8.09E-03,9.71E-03
15669,8.09E-03,9.57E-03
15670,8.09E-03,9.43E-03
15671,8.09E-03,9.28E-03
15672,8.09E-03,9.14E-03
15673,8.09E-03,8.99E-03
15674,8.09E-03,8.85E-03
15675,8.09E-03,8.70E-03
15676,8.17E-03,8.56E-03
15677,8.24E-03,8.41E-03
15678,8.30E-03,8.25E-03
15679,8.29E-03,8.10E-03
15680,8.10E-03,7.96E-03
15681,7.86E-03,7.83E-03
15682,7.50E-03,7.69E-03
15683,7.27E-03,7.56E-03
15684,7.40E-03,7.42E-03
15685,7.60E-03,7.27E-03
15686,8.17E-03,7.12E-03
15687,7.41E-03,9.72E-03
15688,7.60E-03,9.36E-03
15689,7.29E-03,1.03E-02
15690,7.27E-03,1.01E-02
15691,7.19E-03,1.81E-02
15692,6.83E-03,1.85E-02
15693,6.85E-03,1.34E-02
15694,6.90E-03,9.04E-03
15695,7.08E-03,8.89E-03
15696,8.22E-03,1.72E-02
15697,7.62E-03,1.79E-02
15698,7.52E-03,1.43E-02
15699,6.89E-03,1.20E-02
15700,5.60E-03,1.23E-02
15701,6.90E-03,1.20E-02
15702,6.30E-03,1.55E-02
15703,6.30E-03,1.99E-02
15704,7.85E-03,1.75E-02
15705,3.74E-03,1.94E-02
15706,6.82E-03,1.99E-02
15707,7.06E-03,2.02E-02
15708,7.99E-03,2.04E-02
15709,8.74E-03,1.45E-02
15710,8.31E-03,1.47E-02
15711,7.87E-03,1.83E-02
15712,6.35E-03,1.60E-02
15713,7.35E-03,1.76E-02
15714,7.42E-03,1.73E-02
15715,6.17E-03,1.25E-02
15716,5.83E-03,1.27E-02
15717,7.18E-03,1.79E-02
15718,5.76E-03,1.79E-02
15719,6.42E-03,1.78E-02
15720,5.59E-03,1.95E-02
15721,8.10E-03,1.76E-02
15722,8.10E-03,1.08E-02
15723,8.76E-03,1.45E-02
15724,8.10E-03,1.10E-02
15725,8.10E-03,1.09E-02
15726,5.73E-03,1.54E-02
15727,4.58E-03,1.54E-02
15728,6.20E-03,1.92E-02
15729,8.31E-03,1.48E-02
15730,8.10E-03,1.76E-02
15731,6.36E-03,1.96E-02
15732,8.10E-03,1.76E-02
15733,8.58E-03,1.46E-02
15734,8.44E-03,1.49E-02
15735,6.61E-03,1.96E-02
15736,3.99E-03,1.96E-02
15737,3.54E-03,1.95E-02
15738,8.19E-03,1.77E-02
15739,8.10E-03,1.12E-02
15740,8.44E-03,1.46E-02
15741,8.61E-03,1.50E-02
15742,8.53E-03,1.77E-02
15743,8.31E-03,1.77E-02
15744,8.10E-03,1.13E-02
15745,8.10E-03,1.14E-02
15746,8.40E-03,1.47E-02
15747,8.89E-03,1.51E-02
15748,8.10E-03,1.16E-02
15749,8.10E-03,1.15E-02
15750,8.42E-03,1.47E-02
15751,6.41E-03,1.53E-02
15752,6.20E-03,1.52E-02
15753,5.92E-03,1.52E-02
15754,1.00E-02,1.52E-02
15755,8.10E-03,1.18E-02
15756,8.38E-03,1.77E-02
15757,8.22E-03,1.47E-02
15758,8.11E-03,1.47E-02
15759,8.10E-03,1.19E-02
15760,8.10E-03,1.20E-02
15761,8.10E-03,1.21E-02
15762,7.98E-03,1.47E-02
15763,7.89E-03,1.48E-02
15764,7.87E-03,1.48E-02
15765,8.10E-03,1.25E-02
15766,8.10E-03,1.23E-02
15767,8.03E-03,1.22E-02
15768,7.85E-03,1.48E-02
15769,7.78E-03,1.48E-02
15770,7.85E-03,1.47E-02
15771,8.03E-03,1.47E-02
15772,8.25E-03,1.47E-02
15773,8.10E-03,1.26E-02
15774,8.10E-03,1.27E-02
15775,8.04E-03,1.29E-02
15776,8.10E-03,1.28E-02
15777,8.04E-03,1.30E-02
15778,8.25E-03,1.47E-02
15779,8.04E-03,1.31E-02
15780,8.23E-03,1.46E-02
15781,8.10E-03,1.32E-02
15782,8.10E-03,1.46E-02
15783,8.10E-03,1.33E-02
15784,8.10E-03,1.45E-02
15785,8.10E-03,1.34E-02
15786,8.10E-03,1.45E-02
15787,8.10E-03,1.35E-02
15788,8.10E-03,1.36E-02
15789,8.10E-03,1.44E-02
15790,8.16E-03,1.44E-02
15791,8.10E-03,1.37E-02
15792,8.16E-03,1.43E-02
15793,8.19E-03,1.43E-02
15794,8.10E-03,1.38E-02
15795,8.10E-03,1.39E-02
15796,8.19E-03,1.42E-02
15797,8.10E-03,1.40E-02
15798,8.10E-03,1.41E-02
15799,8.10E-03,1.40E-02
15800,5.31E-03,2.03E-02
15801,6.21E-03,2.05E-02
15802,6.59E-03,1.40E-02
15803,8.61E-03,1.59E-02
15804,6.99E-03,1.98E-02
15805,7.06E-03,1.21E-02
15806,7.45E-03,2.03E-02
15807,8.10E-03,2.04E-02
15808,7.47E-03,2.03E-02
15809,6.18E-03,2.06E-02
15810,7.06E-03,2.05E-02
15811,8.00E-03,1.97E-02
15812,8.08E-03,1.98E-02
15813,8.10E-03,1.98E-02
15814,9.53E-03,2.00E-02
15815,9.89E-03,2.00E-02
15816,1.02E-02,1.99E-02
15817,8.51E-03,1.99E-02
15818,8.07E-03,1.44E-02
15819,7.98E-03,1.44E-02
15820,8.03E-03,1.44E-02
15821,8.03E-03,1.44E-02
15822,8.10E-03,1.44E-02
15823,8.10E-03,1.44E-02
15824,8.10E-03,1.45E-02
15825,8.10E-03,1.45E-02
15826,8.10E-03,1.45E-02
15827,8.10E-03,1.44E-02
15828,8.10E-03,1.44E-02
15829,8.10E-03,1.44E-02
15830,8.68E-03,1.77E-02
15831,9.86E-03,1.73E-02
15832,8.92E-03,1.75E-02
15833,8.38E-03,1.32E-02
15834,8.45E-03,1.36E-02
15835,6.51E-03,1.61E-02
15836,7.81E-03,1.32E-02
15837,8.39E-03,1.32E-02
15838,7.93E-03,1.32E-02
15839,8.15E-03,1.32E-02
15840,7.29E-03,1.79E-02
15841,5.92E-03,6.28E-03
15842,6.52E-03,1.36E-02
15843,6.17E-03,1.38E-02
15844,8.31E-03,1.73E-02
15845,8.53E-03,1.71E-02
15846,9.19E-03,1.68E-02
15847,8.48E-03,1.66E-02
15848,8.38E-03,1.63E-02
15849,8.27E-03,1.61E-02
15850,8.09E-03,1.59E-02
15851,8.09E-03,1.56E-02
15852,8.09E-03,1.53E-02
15853,8.09E-03,1.51E-02
15854,8.18E-03,1.48E-02
15855,8.27E-03,1.45E-02
15856,8.35E-03,1.43E-02
15857,8.80E-03,1.40E-02
15858,8.83E-03,1.37E-02
15859,8.92E-03,1.35E-02
15860,8.83E-03,1.32E-02
15861,8.17E-03,1.29E-02
15862,7.35E-03,1.26E-02
15863,5.56E-03,1.56E-02
15864,6.99E-03,2.02E-02
15865,8.08E-03,1.42E-02
15866,8.82E-03,1.42E-02
15867,9.84E-03,1.42E-02
15868,7.42E-03,1.35E-02
15869,5.74E-03,1.36E-02
15870,5.77E-03,1.36E-02
15871,6.36E-03,1.37E-02
15872,3.33E-03,1.20E-02
15873,6.70E-03,1.99E-02
15874,7.02E-03,1.14E-02
15875,6.87E-03,1.12E-02
15876,5.54E-03,1.09E-02
15877,4.15E-03,1.08E-02
15878,8.52E-03,1.06E-02
15879,8.26E-03,1.03E-02
15880,8.24E-03,9.98E-03
15881,8.09E-03,9.70E-03
15882,8.09E-03,9.43E-03
15883,8.09E-03,9.16E-03
15884,8.09E-03,8.91E-03
15885,8.09E-03,8.66E-03
15886,8.04E-03,8.43E-03
15887,8.02E-03,8.20E-03
15888,8.05E-03,7.97E-03
15889,8.05E-03,7.75E-03
15890,8.05E-03,7.53E-03
15891,8.09E-03,7.32E-03
15892,8.02E-03,7.13E-03
15893,7.96E-03,6.96E-03
15894,7.76E-03,6.80E-03
15895,7.62E-03,6.67E-03
15896,7.56E-03,6.53E-03
15897,7.84E-03,6.39E-03
15898,8.40E-03,6.24E-03
15899,8.18E-03,6.12E-03
15900,9.12E-03,1.68E-02
15901,9.16E-03,1.68E-02
15902,9.58E-03,1.69E-02
15903,7.93E-03,1.59E-02
15904,7.08E-03,1.63E-02
15905,6.90E-03,1.63E-02
15906,6.83E-03,1.62E-02
15907,6.81E-03,1.62E-02
15908,6.71E-03,1.61E-02
15909,6.74E-03,1.61E-02
15910,6.39E-03,1.60E-02
15911,8.67E-03,1.45E-02
15912,7.13E-03,1.41E-02
15913,8.84E-03,1.43E-02
15914,8.08E-03,1.30E-02
15915,8.42E-03,1.29E-02
15916,8.67E-03,1.28E-02
15917,8.75E-03,1.28E-02
15918,8.65E-03,1.27E-02
15919,8.52E-03,1.27E-02
15920,7.77E-03,1.26E-02
15921,7.19E-03,1.26E-02
15922,6.91E-03,1.25E-02
15923,6.60E-03,1.25E-02
15924,6.24E-03,1.24E-02
15925,5.94E-03,1.24E-02
15926,5.62E-03,1.24E-02
15927,5.32E-03,1.23E-02
15928,5.03E-03,1.23E-02
15929,4.87E-03,1.23E-02
15930,4.22E-03,1.22E-02
15931,4.06E-03,1.22E-02
15932,3.78E-03,1.22E-02
15933,3.54E-03,1.22E-02
15934,3.23E-03,1.21E-02
15935,3.04E-03,1.21E-02
15936,2.76E-03,1.21E-02
15937,2.59E-03,1.21E-02
15938,2.75E-03,1.21E-02
15939,2.75E-03,1.20E-02
15940,2.32E-03,1.20E-02
15941,1.51E-03,1.20E-02
15942,2.45E-03,1.20E-02
15943,7.19E-03,1.97E-02
15944,5.99E-03,8.18E-03
15945,6.06E-03,1.89E-02
15946,6.11E-03,1.66E-02
15947,6.11E-03,1.65E-02
15948,7.66E-03,1.73E-02
15949,7.62E-03,1.72E-02
15950,8.00E-03,1.78E-02
15951,8.06E-03,1.77E-02
15952,5.93E-03,1.75E-02
15953,7.66E-03,1.75E-02
15954,7.63E-03,1.85E-02
15955,7.92E-03,1.44E-02
15956,6.03E-03,2.01E-02
15957,6.86E-03,2.00E-02
15958,7.50E-03,1.78E-02
15959,8.47E-03,1.71E-02
15960,6.66E-03,6.86E-03
15961,7.31E-03,6.96E-03
15962,7.46E-03,7.09E-03
15963,7.57E-03,7.25E-03
15964,7.68E-03,7.47E-03
15965,7.82E-03,1.19E-02
15966,6.36E-03,1.92E-02
15967,5.63E-03,1.89E-02
15968,5.06E-03,1.91E-02
15969,7.55E-03,1.66E-02
15970,7.82E-03,1.18E-02
15971,8.83E-03,1.50E-02
15972,5.53E-03,1.74E-02
15973,8.02E-03,1.89E-02
15974,7.77E-03,1.88E-02
15975,3.40E-03,1.49E-02
15976,2.39E-03,1.50E-02
15977,3.64E-03,1.52E-02
15978,4.66E-03,1.54E-02
15979,7.36E-03,1.38E-02
15980,7.75E-03,1.38E-02
15981,9.07E-03,1.39E-02
15982,9.36E-03,1.39E-02
15983,7.33E-03,1.39E-02
15984,8.48E-03,1.45E-02
15985,8.86E-03,1.45E-02
15986,8.85E-03,1.46E-02
15987,8.81E-03,1.46E-02
15988,4.87E-03,1.46E-02
15989,3.00E-03,1.46E-02
15990,3.11E-03,1.46E-02
15991,3.29E-03,1.46E-02
15992,3.14E-03,1.46E-02
15993,3.00E-03,1.46E-02
15994,3.44E-03,1.46E-02
15995,3.54E-03,1.46E-02
15996,3.71E-03,1.46E-02
15997,3.85E-03,1.46E-02
15998,4.04E-03,1.46E-02
15999,4.28E-03,1.46E-02
16000,4.47E-03,1.46E-02
16001,4.54E-03,1.46E-02
16002,4.69E-03,1.46E-02
16003,4.89E-03,1.46E-02
16004,4.98E-03,1.46E-02
16005,5.07E-03,1.46E-02
16006,5.12E-03,1.46E-02
16007,5.11E-03,1.46E-02
16008,5.06E-03,1.46E-02
16009,5.03E-03,1.46E-02
16010,4.99E-03,1.46E-02
16011,4.95E-03,1.46E-02
16012,4.90E-03,1.46E-02
16013,4.82E-03,1.46E-02
16014,4.71E-03,1.46E-02
16015,4.60E-03,1.46E-02
16016,4.48E-03,1.46E-02
16017,4.37E-03,1.46E-02
16018,4.26E-03,1.46E-02
16019,4.16E-03,1.46E-02
16020,4.06E-03,1.46E-02
16021,3.97E-03,1.46E-02
16022,3.97E-03,1.46E-02
16023,4.12E-03,1.46E-02
16024,4.31E-03,1.45E-02
16025,4.48E-03,1.45E-02
16026,4.58E-03,1.45E-02
16027,4.70E-03,1.45E-02
16028,4.80E-03,1.45E-02
16029,4.89E-03,1.45E-02
16030,5.03E-03,1.45E-02
16031,5.14E-03,1.44E-02
16032,5.50E-03,1.44E-02
16033,5.91E-03,1.44E-02
16034,6.11E-03,1.44E-02
16035,6.41E-03,1.44E-02
16036,6.70E-03,1.43E-02
16037,6.96E-03,1.43E-02
16038,7.12E-03,1.43E-02
16039,7.36E-03,1.42E-02
16040,7.63E-03,1.42E-02
16041,7.87E-03,1.42E-02
16042,7.74E-03,1.41E-02
16043,7.92E-03,1.41E-02
16044,8.17E-03,1.40E-02
16045,8.86E-03,1.40E-02
16046,9.30E-03,1.40E-02
16047,9.87E-03,1.39E-02
16048,1.02E-02,1.38E-02
16049,1.02E-02,1.38E-02
16050,1.02E-02,1.37E-02
16051,1.03E-02,1.37E-02
16052,1.04E-02,1.36E-02
16053,1.05E-02,1.36E-02
16054,1.06E-02,1.35E-02
16055,1.07E-02,1.34E-02
16056,1.08E-02,1.34E-02
16057,1.08E-02,1.33E-02
16058,1.08E-02,1.32E-02
16059,1.05E-02,1.32E-02
16060,1.04E-02,1.31E-02
16061,1.02E-02,1.31E-02
16062,9.99E-03,1.30E-02
16063,9.78E-03,1.30E-02
16064,9.66E-03,1.29E-02
16065,9.55E-03,1.29E-02
16066,9.45E-03,1.28E-02
16067,9.35E-03,1.28E-02
16068,9.27E-03,1.27E-02
16069,9.20E-03,1.27E-02
16070,9.13E-03,1.27E-02
16071,9.04E-03,1.26E-02
16072,8.91E-03,1.26E-02
16073,8.73E-03,1.25E-02
16074,8.55E-03,1.25E-02
16075,8.42E-03,1.25E-02
16076,8.33E-03,1.24E-02
16077,8.26E-03,1.24E-02
16078,8.19E-03,1.24E-02
16079,8.12E-03,1.23E-02
16080,8.04E-03,1.23E-02
16081,7.96E-03,1.23E-02
16082,7.89E-03,1.23E-02
16083,7.86E-03,1.22E-02
16084,7.89E-03,1.22E-02
16085,7.94E-03,1.22E-02
16086,7.99E-03,1.22E-02
16087,8.04E-03,1.21E-02
16088,8.09E-03,1.21E-02
16089,8.16E-03,1.21E-02
16090,8.21E-03,1.21E-02
16091,8.26E-03,1.20E-02
16092,8.21E-03,1.20E-02
16093,8.17E-03,1.20E-02
16094,8.14E-03,1.20E-02
16095,8.05E-03,1.20E-02
16096,7.95E-03,1.19E-02
16097,7.90E-03,1.19E-02
16098,7.98E-03,1.19E-02
16099,8.96E-03,1.19E-02
16100,5.99E-03,1.18E-02
16101,8.03E-03,1.25E-02
16102,6.20E-03,1.71E-02
16103,7.70E-03,1.98E-02
16104,3.77E-03,8.25E-03
16105,5.47E-03,8.13E-03
16106,6.27E-03,1.37E-02
16107,7.86E-03,1.99E-02
16108,9.14E-03,2.02E-02
16109,8.25E-03,1.44E-02
16110,8.10E-03,1.46E-02
16111,8.53E-03,1.79E-02
16112,6.58E-03,1.69E-02
16113,5.93E-03,1.70E-02
16114,5.28E-03,1.71E-02
16115,7.17E-03,1.64E-02
16116,8.15E-03,1.28E-02
16117,6.43E-03,1.63E-02
16118,6.80E-03,1.32E-02
16119,6.69E-03,1.32E-02
16120,6.97E-03,1.32E-02
16121,7.64E-03,1.78E-02
16122,6.44E-03,6.43E-03
16123,7.24E-03,1.12E-02
16124,7.45E-03,1.11E-02
16125,7.26E-03,1.74E-02
16126,7.62E-03,1.74E-02
16127,7.64E-03,1.73E-02
16128,7.06E-03,1.99E-02
16129,6.20E-03,1.29E-02
16130,6.28E-03,1.31E-02
16131,6.06E-03,1.33E-02
16132,7.05E-03,1.35E-02
16133,8.17E-03,1.73E-02
16134,7.19E-03,1.57E-02
16135,7.16E-03,1.55E-02
16136,8.13E-03,1.45E-02
16137,6.64E-03,6.85E-03
16138,7.80E-03,6.95E-03
16139,6.44E-03,7.02E-03
16140,6.14E-03,7.08E-03
16141,6.20E-03,7.15E-03
16142,6.55E-03,7.22E-03
16143,6.96E-03,7.31E-03
16144,7.20E-03,7.39E-03
16145,7.39E-03,7.47E-03
16146,7.45E-03,7.56E-03
16147,7.46E-03,7.64E-03
16148,7.47E-03,7.72E-03
16149,7.46E-03,7.81E-03
16150,7.49E-03,7.90E-03
16151,7.53E-03,7.99E-03
16152,7.57E-03,8.09E-03
16153,7.60E-03,8.18E-03
16154,7.63E-03,8.28E-03
16155,7.65E-03,8.38E-03
16156,7.68E-03,8.48E-03
16157,7.71E-03,8.58E-03
16158,7.73E-03,8.69E-03
16159,7.76E-03,8.80E-03
16160,7.77E-03,8.91E-03
16161,7.77E-03,9.02E-03
16162,7.77E-03,9.13E-03
16163,7.77E-03,9.25E-03
16164,7.76E-03,9.36E-03
16165,7.76E-03,9.48E-03
16166,7.76E-03,9.60E-03
16167,7.75E-03,9.72E-03
16168,7.73E-03,9.84E-03
16169,7.69E-03,9.96E-03
16170,7.65E-03,1.01E-02
16171,7.61E-03,1.02E-02
16172,7.57E-03,1.03E-02
16173,7.53E-03,1.05E-02
16174,7.42E-03,1.06E-02
16175,7.40E-03,1.07E-02
16176,7.41E-03,1.08E-02
16177,7.37E-03,1.10E-02
16178,7.33E-03,1.11E-02
16179,7.24E-03,1.12E-02
16180,7.26E-03,1.13E-02
16181,7.35E-03,1.15E-02
16182,7.79E-03,1.16E-02
16183,6.19E-03,1.17E-02
16184,5.68E-03,1.18E-02
16185,6.70E-03,1.42E-02
16186,9.68E-03,1.40E-02
16187,8.97E-03,1.39E-02
16188,8.08E-03,1.39E-02
16189,7.31E-03,9.83E-03
16190,8.36E-03,1.39E-02
16191,8.63E-03,1.42E-02
16192,7.34E-03,1.80E-02
16193,7.42E-03,1.78E-02
16194,7.60E-03,1.77E-02
16195,7.67E-03,1.75E-02
16196,7.69E-03,1.73E-02
16197,7.73E-03,1.71E-02
16198,8.15E-03,1.69E-02
16199,7.79E-03,1.68E-02
16200,7.79E-03,1.66E-02
16201,7.55E-03,1.64E-02
16202,7.51E-03,1.62E-02
16203,7.59E-03,1.60E-02
16204,6.88E-03,1.84E-02
16205,7.03E-03,1.34E-02
16206,5.95E-03,1.36E-02
16207,7.40E-03,6.33E-03
16208,5.57E-03,2.05E-02
16209,6.81E-03,1.99E-02
16210,7.70E-03,9.12E-03
16211,7.66E-03,8.96E-03
16212,8.64E-03,1.31E-02
16213,9.40E-03,1.30E-02
16214,8.13E-03,1.29E-02
16215,7.96E-03,1.72E-02
16216,7.62E-03,1.78E-02
16217,7.46E-03,1.87E-02
16218,5.64E-03,1.74E-02
16219,7.55E-03,1.43E-02
16220,8.65E-03,1.48E-02
16221,7.02E-03,1.16E-02
16222,7.55E-03,1.16E-02
16223,7.61E-03,1.53E-02
16224,6.04E-03,2.01E-02
16225,7.46E-03,1.74E-02
16226,7.96E-03,1.67E-02
16227,4.95E-03,1.90E-02
16228,5.41E-03,1.94E-02
16229,7.94E-03,1.22E-02
16230,7.38E-03,2.00E-02
16231,6.90E-03,8.04E-03
16232,6.93E-03,7.86E-03
16233,7.16E-03,7.76E-03
16234,5.70E-03,7.63E-03
16235,6.74E-03,8.73E-03
16236,6.64E-03,8.54E-03
16237,7.03E-03,1.33E-02
16238,9.03E-03,2.04E-02
16239,8.52E-03,1.45E-02
16240,8.10E-03,1.47E-02
16241,8.14E-03,1.81E-02
16242,6.13E-03,1.68E-02
16243,8.04E-03,1.66E-02
16244,7.04E-03,1.65E-02
16245,6.84E-03,1.60E-02
16246,7.60E-03,1.76E-02
16247,7.59E-03,1.74E-02
16248,7.66E-03,1.73E-02
16249,7.97E-03,1.71E-02
16250,5.28E-03,1.22E-02
16251,5.19E-03,1.22E-02
16252,3.70E-03,1.21E-02
16253,3.27E-03,1.21E-02
16254,3.17E-03,1.21E-02
16255,3.19E-03,1.21E-02
16256,3.30E-03,1.21E-02
16257,3.46E-03,1.21E-02
16258,3.66E-03,1.21E-02
16259,3.85E-03,1.21E-02
16260,4.45E-03,1.21E-02
16261,4.47E-03,1.21E-02
16262,4.60E-03,1.21E-02
16263,4.74E-03,1.21E-02
16264,4.96E-03,1.21E-02
16265,5.11E-03,1.21E-02
16266,5.26E-03,1.21E-02
16267,5.39E-03,1.21E-02
16268,5.53E-03,1.21E-02
16269,5.66E-03,1.21E-02
16270,5.76E-03,1.21E-02
16271,5.94E-03,1.21E-02
16272,6.12E-03,1.21E-02
16273,6.19E-03,1.22E-02
16274,6.26E-03,1.22E-02
16275,6.33E-03,1.22E-02
16276,6.40E-03,1.22E-02
16277,6.47E-03,1.22E-02
16278,6.54E-03,1.22E-02
16279,6.61E-03,1.22E-02
16280,6.70E-03,1.22E-02
16281,7.06E-03,1.23E-02
16282,7.30E-03,1.23E-02
16283,7.57E-03,1.23E-02
16284,8.02E-03,1.24E-02
16285,6.07E-03,1.24E-02
16286,6.40E-03,1.24E-02
16287,6.33E-03,1.24E-02
16288,7.68E-03,1.77E-02
16289,5.78E-03,1.42E-02
16290,6.72E-03,2.01E-02
16291,6.66E-03,2.02E-02
16292,6.63E-03,1.77E-02
16293,5.36E-03,1.96E-02
16294,8.10E-03,1.74E-02
16295,7.03E-03,1.55E-02
16296,7.87E-03,1.44E-02
16297,8.09E-03,1.07E-02
16298,8.09E-03,1.05E-02
16299,8.09E-03,1.04E-02
16300,8.09E-03,1.03E-02
16301,8.09E-03,1.01E-02
16302,8.09E-03,9.98E-03
16303,8.09E-03,9.84E-03
16304,8.09E-03,9.70E-03
16305,8.09E-03,9.56E-03
16306,8.09E-03,9.42E-03
16307,8.09E-03,9.27E-03
16308,8.09E-03,9.13E-03
16309,8.09E-03,8.98E-03
16310,8.09E-03,8.84E-03
16311,8.09E-03,8.69E-03
16312,8.09E-03,8.54E-03
16313,8.15E-03,8.39E-03
16314,8.17E-03,8.24E-03
16315,8.20E-03,8.10E-03
16316,8.03E-03,7.96E-03
16317,7.84E-03,7.82E-03
16318,7.67E-03,7.68E-03
16319,7.57E-03,7.54E-03
16320,7.56E-03,7.39E-03
16321,7.77E-03,7.25E-03
16322,8.53E-03,7.10E-03
16323,7.36E-03,6.89E-03
16324,8.56E-03,1.45E-02
16325,7.07E-03,1.05E-02
16326,7.39E-03,1.02E-02
16327,8.10E-03,1.09E-02
16328,8.10E-03,1.08E-02
16329,4.17E-03,1.54E-02
16330,6.21E-03,1.91E-02
16331,6.45E-03,1.88E-02
16332,4.54E-03,2.07E-02
16333,5.80E-03,2.08E-02
16334,8.82E-03,2.08E-02
16335,9.61E-03,2.07E-02
16336,8.27E-03,1.48E-02
16337,7.94E-03,1.84E-02
16338,5.04E-03,1.65E-02
16339,4.88E-03,1.67E-02
16340,7.55E-03,1.75E-02
16341,8.10E-03,1.74E-02
16342,6.31E-03,1.56E-02
16343,6.43E-03,1.96E-02
16344,8.10E-03,1.75E-02
16345,6.68E-03,1.97E-02
16346,8.52E-03,1.46E-02
16347,8.21E-03,1.49E-02
16348,5.51E-03,1.99E-02
16349,5.57E-03,1.99E-02
16350,4.98E-03,1.98E-02
16351,8.10E-03,1.75E-02
16352,8.10E-03,1.10E-02
16353,8.44E-03,1.46E-02
16354,8.37E-03,1.50E-02
16355,5.67E-03,1.95E-02
16356,8.21E-03,1.76E-02
16357,8.24E-03,1.75E-02
16358,8.10E-03,1.12E-02
16359,8.10E-03,1.13E-02
16360,8.32E-03,1.47E-02
16361,8.60E-03,1.50E-02
16362,8.10E-03,1.15E-02
16363,8.10E-03,1.14E-02
16364,8.30E-03,1.47E-02
16365,8.61E-03,1.51E-02
16366,8.10E-03,1.16E-02
16367,7.69E-03,1.72E-02
16368,8.31E-03,1.75E-02
16369,8.27E-03,1.47E-02
16370,5.25E-03,1.53E-02
16371,5.27E-03,1.53E-02
16372,5.00E-03,1.53E-02
16373,1.10E-02,1.52E-02
16374,8.20E-03,1.47E-02
16375,8.31E-03,1.76E-02
16376,8.10E-03,1.18E-02
16377,8.10E-03,1.19E-02
16378,8.10E-03,1.20E-02
16379,8.03E-03,1.48E-02
16380,7.95E-03,1.48E-02
16381,7.93E-03,1.48E-02
16382,8.10E-03,1.24E-02
16383,8.10E-03,1.22E-02
16384,8.10E-03,1.21E-02
16385,7.93E-03,1.48E-02
16386,7.90E-03,1.48E-02
16387,7.94E-03,1.48E-02
16388,7.94E-03,1.47E-02
16389,8.18E-03,1.47E-02
16390,8.10E-03,1.25E-02
16391,8.10E-03,1.26E-02
16392,8.10E-03,1.28E-02
16393,8.10E-03,1.27E-02
16394,8.10E-03,1.29E-02
16395,8.25E-03,1.47E-02
16396,8.10E-03,1.30E-02
16397,8.20E-03,1.46E-02
16398,8.10E-03,1.31E-02
16399,8.10E-03,1.46E-02
16400,8.10E-03,1.33E-02
16401,8.10E-03,1.46E-02
16402,8.10E-03,1.34E-02
16403,8.10E-03,1.45E-02
16404,8.10E-03,1.35E-02
16405,8.10E-03,1.35E-02
16406,8.10E-03,1.45E-02
16407,8.10E-03,1.44E-02
16408,8.10E-03,1.36E-02
16409,8.10E-03,1.44E-02
16410,8.10E-03,1.43E-02
16411,8.10E-03,1.37E-02
16412,8.10E-03,1.38E-02
16413,8.16E-03,1.42E-02
16414,8.10E-03,1.39E-02
16415,8.10E-03,1.41E-02
16416,8.10E-03,1.40E-02
16417,8.10E-03,1.41E-02
16418,7.73E-03,2.05E-02
16419,6.28E-03,2.06E-02
16420,6.04E-03,8.04E-03
16421,5.30E-03,7.80E-03
16422,6.53E-03,7.91E-03
16423,7.46E-03,1.37E-02
16424,7.74E-03,1.37E-02
16425,6.99E-03,1.38E-02
16426,8.25E-03,1.38E-02
16427,8.43E-03,1.38E-02
16428,8.10E-03,1.99E-02
16429,8.15E-03,2.00E-02
16430,8.10E-03,2.00E-02
16431,9.32E-03,2.02E-02
16432,9.53E-03,2.02E-02
16433,1.07E-02,2.01E-02
16434,8.12E-03,2.01E-02
16435,8.22E-03,1.44E-02
16436,8.10E-03,1.45E-02
16437,8.10E-03,1.45E-02
16438,8.10E-03,1.45E-02
16439,8.10E-03,1.45E-02
16440,8.10E-03,1.45E-02
16441,8.10E-03,1.46E-02
16442,8.10E-03,1.45E-02
16443,8.10E-03,1.45E-02
16444,8.10E-03,1.45E-02
16445,8.10E-03,1.45E-02
16446,8.10E-03,1.45E-02
16447,8.85E-03,1.78E-02
16448,7.40E-03,1.73E-02
16449,9.79E-03,1.74E-02
16450,8.96E-03,1.76E-02
16451,6.73E-03,1.61E-02
16452,6.67E-03,1.61E-02
16453,7.07E-03,1.63E-02
16454,6.92E-03,1.63E-02
16455,6.86E-03,1.62E-02
16456,6.77E-03,1.62E-02
16457,8.48E-03,1.32E-02
16458,8.41E-03,1.36E-02
16459,6.53E-03,1.62E-02
16460,9.27E-03,1.30E-02
16461,8.82E-03,1.31E-02
16462,8.23E-03,1.31E-02
16463,8.55E-03,1.31E-02
16464,7.59E-03,1.29E-02
16465,7.26E-03,1.77E-02
16466,5.77E-03,6.60E-03
16467,6.35E-03,6.51E-03
16468,6.46E-03,6.37E-03
16469,7.07E-03,1.11E-02
16470,7.57E-03,1.73E-02
16471,5.74E-03,1.73E-02
16472,7.40E-03,1.73E-02
16473,6.78E-03,2.05E-02
16474,7.08E-03,2.02E-02
16475,7.47E-03,1.37E-02
16476,8.22E-03,1.71E-02
16477,8.25E-03,1.69E-02
16478,1.01E-02,1.67E-02
16479,8.25E-03,1.64E-02
16480,8.30E-03,1.62E-02
16481,8.17E-03,1.60E-02
16482,8.09E-03,1.57E-02
16483,8.09E-03,1.55E-02
16484,8.09E-03,1.52E-02
16485,8.09E-03,1.50E-02
16486,8.17E-03,1.47E-02
16487,8.27E-03,1.44E-02
16488,8.37E-03,1.42E-02
16489,8.50E-03,1.39E-02
16490,8.63E-03,1.36E-02
16491,8.66E-03,1.34E-02
16492,8.76E-03,1.31E-02
16493,8.33E-03,1.28E-02
16494,7.77E-03,1.24E-02
16495,7.07E-03,1.56E-02
16496,8.25E-03,1.45E-02
16497,9.40E-03,1.45E-02
16498,8.73E-03,1.45E-02
16499,8.70E-03,1.46E-02
16500,4.92E-03,1.46E-02
16501,3.09E-03,1.46E-02
16502,3.19E-03,1.46E-02
16503,3.37E-03,1.46E-02
16504,3.22E-03,1.46E-02
16505,3.08E-03,1.46E-02
16506,3.43E-03,1.46E-02
16507,3.52E-03,1.46E-02
16508,3.82E-03,1.46E-02
16509,3.89E-03,1.46E-02
16510,4.14E-03,1.46E-02
16511,4.42E-03,1.46E-02
16512,4.46E-03,1.46E-02
16513,4.59E-03,1.46E-02
16514,4.77E-03,1.46E-02
16515,4.95E-03,1.46E-02
16516,5.03E-03,1.46E-02
16517,5.12E-03,1.46E-02
16518,5.16E-03,1.46E-02
16519,5.16E-03,1.46E-02
16520,5.11E-03,1.46E-02
16521,5.07E-03,1.46E-02
16522,5.03E-03,1.46E-02
16523,5.00E-03,1.46E-02
16524,4.95E-03,1.46E-02
16525,4.87E-03,1.46E-02
16526,4.76E-03,1.46E-02
16527,4.65E-03,1.46E-02
16528,4.54E-03,1.46E-02
16529,4.43E-03,1.46E-02
16530,4.32E-03,1.46E-02
16531,4.22E-03,1.46E-02
16532,4.13E-03,1.46E-02
16533,4.04E-03,1.46E-02
16534,4.04E-03,1.46E-02
16535,4.18E-03,1.46E-02
16536,4.37E-03,1.46E-02
16537,4.54E-03,1.46E-02
16538,4.64E-03,1.45E-02
16539,4.71E-03,1.45E-02
16540,4.85E-03,1.45E-02
16541,4.92E-03,1.45E-02
16542,5.05E-03,1.45E-02
16543,5.23E-03,1.45E-02
16544,5.41E-03,1.45E-02
16545,5.85E-03,1.44E-02
16546,6.14E-03,1.44E-02
16547,6.47E-03,1.44E-02
16548,6.75E-03,1.44E-02
16549,7.06E-03,1.43E-02
16550,7.21E-03,1.43E-02
16551,7.35E-03,1.43E-02
16552,7.70E-03,1.43E-02
16553,7.87E-03,1.42E-02
16554,7.74E-03,1.42E-02
16555,7.81E-03,1.41E-02
16556,8.19E-03,1.41E-02
16557,8.78E-03,1.40E-02
16558,9.37E-03,1.40E-02
16559,9.87E-03,1.40E-02
16560,1.02E-02,1.39E-02
16561,1.02E-02,1.38E-02
16562,1.02E-02,1.38E-02
16563,1.03E-02,1.37E-02
16564,1.04E-02,1.37E-02
16565,1.04E-02,1.36E-02
16566,1.05E-02,1.36E-02
16567,1.06E-02,1.35E-02
16568,1.07E-02,1.34E-02
16569,1.08E-02,1.34E-02
16570,1.07E-02,1.33E-02
16571,1.06E-02,1.33E-02
16572,1.04E-02,1.32E-02
16573,1.01E-02,1.32E-02
16574,9.91E-03,1.31E-02
16575,9.75E-03,1.31E-02
16576,9.64E-03,1.30E-02
16577,9.53E-03,1.30E-02
16578,9.42E-03,1.29E-02
16579,9.33E-03,1.29E-02
16580,9.26E-03,1.28E-02
16581,9.18E-03,1.28E-02
16582,9.11E-03,1.28E-02
16583,9.03E-03,1.27E-02
16584,8.90E-03,1.27E-02
16585,8.72E-03,1.27E-02
16586,8.54E-03,1.26E-02
16587,8.41E-03,1.26E-02
16588,8.33E-03,1.26E-02
16589,8.26E-03,1.25E-02
16590,8.19E-03,1.25E-02
16591,8.12E-03,1.25E-02
16592,8.04E-03,1.25E-02
16593,7.97E-03,1.24E-02
16594,7.90E-03,1.24E-02
16595,7.87E-03,1.24E-02
16596,7.89E-03,1.23E-02
16597,7.94E-03,1.23E-02
16598,7.99E-03,1.23E-02
16599,8.04E-03,1.23E-02
16600,8.09E-03,1.22E-02
16601,8.16E-03,1.22E-02
16602,8.21E-03,1.22E-02
16603,8.25E-03,1.22E-02
16604,8.28E-03,1.22E-02
16605,8.22E-03,1.21E-02
16606,8.18E-03,1.21E-02
16607,8.12E-03,1.21E-02
16608,8.10E-03,1.21E-02
16609,8.13E-03,1.21E-02
16610,8.27E-03,1.21E-02
16611,8.08E-03,1.21E-02
16612,7.90E-03,1.20E-02
16613,7.86E-03,1.20E-02
16614,6.89E-03,2.04E-02
16615,7.80E-03,1.42E-02
16616,8.83E-03,1.41E-02
16617,9.27E-03,1.41E-02
16618,9.49E-03,1.41E-02
16619,9.24E-03,1.40E-02
16620,8.12E-03,1.40E-02
16621,7.75E-03,1.39E-02
16622,9.33E-03,1.38E-02
16623,5.26E-03,1.45E-02
16624,5.46E-03,1.46E-02
16625,3.67E-03,1.48E-02
16626,3.28E-03,1.50E-02
16627,3.65E-03,1.52E-02
16628,4.63E-03,1.54E-02
16629,5.97E-03,1.57E-02
16630,7.03E-03,1.82E-02
16631,7.45E-03,1.81E-02
16632,7.57E-03,1.79E-02
16633,7.68E-03,1.78E-02
16634,7.73E-03,1.76E-02
16635,7.76E-03,1.74E-02
16636,8.24E-03,1.72E-02
16637,7.78E-03,1.70E-02
16638,7.77E-03,1.69E-02
16639,7.61E-03,1.67E-02
16640,7.55E-03,1.65E-02
16641,7.59E-03,1.62E-02
16642,7.30E-03,1.34E-02
16643,7.59E-03,1.35E-02
16644,8.83E-03,2.02E-02
16645,8.39E-03,1.28E-02
16646,7.77E-03,1.72E-02
16647,7.75E-03,1.72E-02
16648,7.71E-03,1.77E-02
16649,7.69E-03,1.76E-02
16650,8.00E-03,1.86E-02
16651,7.09E-03,1.74E-02
16652,7.86E-03,1.43E-02
16653,8.78E-03,1.46E-02
16654,7.12E-03,2.02E-02
16655,7.57E-03,1.18E-02
16656,7.45E-03,1.13E-02
16657,6.83E-03,1.11E-02
16658,5.92E-03,1.08E-02
16659,3.69E-03,1.07E-02
16660,8.62E-03,1.05E-02
16661,8.30E-03,1.02E-02
16662,8.17E-03,9.89E-03
16663,8.09E-03,9.62E-03
16664,8.09E-03,9.35E-03
16665,8.09E-03,9.09E-03
16666,8.09E-03,8.84E-03
16667,8.09E-03,8.59E-03
16668,8.09E-03,8.35E-03
16669,8.09E-03,8.12E-03
16670,8.09E-03,7.89E-03
16671,8.09E-03,7.67E-03
16672,8.09E-03,7.46E-03
16673,8.09E-03,7.25E-03
16674,8.02E-03,7.06E-03
16675,7.94E-03,6.88E-03
16676,7.87E-03,6.73E-03
16677,7.84E-03,6.58E-03
16678,7.80E-03,6.44E-03
16679,7.86E-03,6.29E-03
16680,8.05E-03,6.16E-03
16681,8.08E-03,6.06E-03
16682,8.06E-03,5.95E-03
16683,9.40E-03,1.18E-02
16684,9.12E-03,1.51E-02
16685,6.23E-03,2.02E-02
16686,7.88E-03,1.73E-02
16687,8.66E-03,1.67E-02
16688,8.89E-03,1.68E-02
16689,9.22E-03,1.69E-02
16690,9.11E-03,1.69E-02
16691,8.98E-03,1.70E-02
16692,7.78E-03,1.70E-02
16693,6.92E-03,1.90E-02
16694,5.48E-03,1.89E-02
16695,6.00E-03,1.93E-02
16696,6.01E-03,1.92E-02
16697,7.50E-03,1.66E-02
16698,8.08E-03,1.25E-02
16699,7.85E-03,2.00E-02
16700,6.81E-03,6.92E-03
16701,7.31E-03,6.99E-03
16702,7.07E-03,7.10E-03
16703,6.94E-03,7.23E-03
16704,6.23E-03,7.31E-03
16705,4.62E-03,7.37E-03
16706,4.76E-03,2.08E-02
16707,5.91E-03,8.32E-03
16708,5.33E-03,8.18E-03
16709,3.33E-03,7.84E-03
16710,7.24E-03,1.33E-02
16711,6.82E-03,1.36E-02
16712,1.05E-02,1.37E-02
16713,9.46E-03,1.37E-02
16714,8.09E-03,2.01E-02
16715,8.75E-03,2.04E-02
16716,8.28E-03,1.45E-02
16717,8.10E-03,1.46E-02
16718,8.47E-03,1.80E-02
16719,6.25E-03,1.69E-02
16720,6.21E-03,1.70E-02
16721,6.60E-03,1.72E-02
16722,6.98E-03,1.64E-02
16723,8.18E-03,1.28E-02
16724,8.68E-03,1.60E-02
16725,6.75E-03,1.64E-02
16726,7.94E-03,1.66E-02
16727,6.84E-03,1.31E-02
16728,6.72E-03,1.31E-02
16729,6.81E-03,1.31E-02
16730,6.30E-03,1.91E-02
16731,6.46E-03,1.88E-02
16732,7.57E-03,1.76E-02
16733,7.65E-03,1.16E-02
16734,7.19E-03,1.73E-02
16735,7.65E-03,1.72E-02
16736,7.23E-03,1.70E-02
16737,7.74E-03,1.71E-02
16738,7.51E-03,1.76E-02
16739,7.92E-03,1.73E-02
16740,7.64E-03,1.43E-02
16741,6.70E-03,2.02E-02
16742,6.60E-03,2.04E-02
16743,9.20E-03,1.49E-02
16744,7.50E-03,1.74E-02
16745,8.15E-03,1.15E-02
16746,7.26E-03,6.09E-03
16747,8.34E-03,5.99E-03
16748,7.78E-03,5.87E-03
16749,5.87E-03,1.95E-02
16750,8.27E-03,1.39E-02
16751,7.60E-03,1.42E-02
16752,6.64E-03,1.30E-02
16753,6.42E-03,1.32E-02
16754,6.24E-03,1.33E-02
16755,5.88E-03,1.35E-02
16756,8.10E-03,1.72E-02
16757,8.01E-03,1.21E-02
16758,7.39E-03,2.02E-02
16759,7.20E-03,1.55E-02
16760,7.84E-03,1.44E-02
16761,6.39E-03,6.77E-03
16762,6.61E-03,6.85E-03
16763,6.46E-03,6.92E-03
16764,6.67E-03,6.98E-03
16765,6.61E-03,7.05E-03
16766,6.72E-03,7.12E-03
16767,6.93E-03,7.20E-03
16768,7.07E-03,7.28E-03
16769,7.28E-03,7.36E-03
16770,7.40E-03,7.44E-03
16771,7.41E-03,7.53E-03
16772,7.43E-03,7.62E-03
16773,7.47E-03,7.70E-03
16774,7.50E-03,7.79E-03
16775,7.54E-03,7.89E-03
16776,7.57E-03,7.98E-03
16777,7.61E-03,8.08E-03
16778,7.63E-03,8.17E-03
16779,7.66E-03,8.27E-03
16780,7.69E-03,8.38E-03
16781,7.71E-03,8.48E-03
16782,7.74E-03,8.59E-03
16783,7.76E-03,8.70E-03
16784,7.77E-03,8.81E-03
16785,7.77E-03,8.92E-03
16786,7.77E-03,9.03E-03
16787,7.77E-03,9.15E-03
16788,7.77E-03,9.27E-03
16789,7.77E-03,9.38E-03
16790,7.77E-03,9.50E-03
16791,7.76E-03,9.62E-03
16792,7.73E-03,9.75E-03
16793,7.69E-03,9.87E-03
16794,7.66E-03,1.00E-02
16795,7.62E-03,1.01E-02
16796,7.58E-03,1.02E-02
16797,7.54E-03,1.04E-02
16798,7.50E-03,1.05E-02
16799,7.46E-03,1.06E-02
16800,7.42E-03,1.08E-02
16801,7.39E-03,1.09E-02
16802,7.33E-03,1.10E-02
16803,7.25E-03,1.11E-02
16804,7.24E-03,1.13E-02
16805,7.20E-03,1.14E-02
16806,6.98E-03,1.15E-02
16807,6.77E-03,1.17E-02
16808,6.71E-03,1.18E-02
16809,6.58E-03,1.19E-02
16810,8.41E-03,1.45E-02
16811,7.62E-03,1.41E-02
16812,7.67E-03,1.08E-02
16813,7.13E-03,1.04E-02
16814,7.10E-03,9.93E-03
16815,7.39E-03,8.78E-03
16816,6.88E-03,8.57E-03
16817,7.29E-03,1.32E-02
16818,8.10E-03,1.08E-02
16819,8.09E-03,1.06E-02
16820,8.09E-03,1.05E-02
16821,8.09E-03,1.04E-02
16822,8.09E-03,1.02E-02
16823,8.09E-03,1.01E-02
16824,8.09E-03,9.97E-03
16825,8.09E-03,9.83E-03
16826,8.09E-03,9.69E-03
16827,8.09E-03,9.55E-03
16828,8.09E-03,9.41E-03
16829,8.09E-03,9.27E-03
16830,8.09E-03,9.12E-03
16831,8.09E-03,8.98E-03
16832,8.09E-03,8.83E-03
16833,8.09E-03,8.68E-03
16834,8.09E-03,8.53E-03
16835,8.09E-03,8.39E-03
16836,8.09E-03,8.24E-03
16837,8.09E-03,8.09E-03
16838,8.01E-03,7.95E-03
16839,7.95E-03,7.81E-03
16840,7.80E-03,7.67E-03
16841,7.79E-03,7.52E-03
16842,7.83E-03,7.37E-03
16843,7.92E-03,7.23E-03
16844,7.64E-03,7.09E-03
16845,7.15E-03,6.94E-03
16846,6.55E-03,6.83E-03
16847,6.35E-03,6.71E-03
16848,6.43E-03,6.60E-03
16849,7.17E-03,2.04E-02
16850,5.93E-03,1.55E-02
16851,6.32E-03,1.90E-02
16852,6.62E-03,1.87E-02
16853,9.35E-03,2.07E-02
16854,8.44E-03,2.06E-02
16855,8.10E-03,1.47E-02
16856,8.12E-03,1.82E-02
16857,6.44E-03,1.68E-02
16858,6.21E-03,1.65E-02
16859,5.67E-03,1.64E-02
16860,7.40E-03,6.81E-03
16861,7.18E-03,6.57E-03
16862,5.84E-03,1.67E-02
16863,8.30E-03,1.44E-02
16864,5.46E-03,1.42E-02
16865,8.98E-03,1.28E-02
16866,8.41E-03,1.76E-02
16867,6.22E-03,1.72E-02
16868,7.04E-03,1.72E-02
16869,7.31E-03,2.09E-02
16870,8.35E-03,2.10E-02
16871,9.77E-03,2.10E-02
16872,7.62E-03,1.76E-02
16873,7.68E-03,1.75E-02
16874,8.10E-03,1.72E-02
16875,7.70E-03,1.44E-02
16876,7.91E-03,1.54E-02
16877,7.25E-03,1.97E-02
16878,7.49E-03,1.74E-02
16879,8.10E-03,1.73E-02
16880,8.77E-03,1.29E-02
16881,9.22E-03,1.28E-02
16882,9.07E-03,1.27E-02
16883,9.00E-03,1.27E-02
16884,8.80E-03,1.26E-02
16885,8.67E-03,1.25E-02
16886,7.75E-03,1.25E-02
16887,7.24E-03,1.24E-02
16888,6.94E-03,1.24E-02
16889,6.65E-03,1.23E-02
16890,6.25E-03,1.23E-02
16891,5.98E-03,1.23E-02
16892,5.64E-03,1.22E-02
16893,5.33E-03,1.22E-02
16894,5.05E-03,1.21E-02
16895,4.85E-03,1.21E-02
16896,4.35E-03,1.21E-02
16897,4.14E-03,1.21E-02
16898,3.79E-03,1.20E-02
16899,3.59E-03,1.20E-02
16900,3.25E-03,1.20E-02
16901,3.01E-03,1.20E-02
16902,2.80E-03,1.19E-02
16903,2.59E-03,1.19E-02
16904,2.48E-03,1.19E-02
16905,2.48E-03,1.19E-02
16906,2.31E-03,1.19E-02
16907,2.68E-03,1.19E-02
16908,3.67E-03,1.18E-02
16909,3.49E-03,1.18E-02
16910,4.07E-03,1.19E-02
16911,3.16E-03,1.19E-02
16912,3.80E-03,1.20E-02
16913,3.71E-03,1.20E-02
16914,3.11E-03,1.20E-02
16915,3.15E-03,1.19E-02
16916,3.19E-03,1.19E-02
16917,3.31E-03,1.19E-02
16918,3.53E-03,1.19E-02
16919,3.78E-03,1.19E-02
16920,3.90E-03,1.19E-02
16921,4.50E-03,1.19E-02
16922,4.53E-03,1.19E-02
16923,4.67E-03,1.19E-02
16924,4.84E-03,1.19E-02
16925,5.00E-03,1.19E-02
16926,5.15E-03,1.19E-02
16927,5.26E-03,1.19E-02
16928,5.44E-03,1.19E-02
16929,5.55E-03,1.19E-02
16930,5.79E-03,1.19E-02
16931,5.78E-03,1.19E-02
16932,5.98E-03,1.19E-02
16933,6.15E-03,1.20E-02
16934,6.22E-03,1.20E-02
16935,6.29E-03,1.20E-02
16936,6.36E-03,1.20E-02
16937,6.43E-03,1.20E-02
16938,6.49E-03,1.20E-02
16939,6.56E-03,1.20E-02
16940,6.63E-03,1.20E-02
16941,6.72E-03,1.20E-02
16942,7.15E-03,1.21E-02
16943,7.36E-03,1.21E-02
16944,7.50E-03,1.21E-02
16945,7.75E-03,1.22E-02
16946,7.66E-03,1.22E-02
16947,7.27E-03,1.22E-02
16948,7.16E-03,1.22E-02
16949,7.12E-03,1.22E-02
16950,8.55E-03,1.22E-02
16951,9.59E-03,1.23E-02
16952,9.34E-03,1.58E-02
16953,6.91E-03,1.97E-02
16954,6.96E-03,1.98E-02
16955,8.44E-03,1.46E-02
16956,8.21E-03,1.48E-02
16957,8.26E-03,1.85E-02
16958,6.03E-03,2.03E-02
16959,6.14E-03,2.02E-02
16960,5.98E-03,2.02E-02
16961,8.10E-03,1.73E-02
16962,8.10E-03,1.09E-02
16963,8.40E-03,1.46E-02
16964,8.31E-03,1.49E-02
16965,5.58E-03,1.98E-02
16966,6.06E-03,1.94E-02
16967,8.08E-03,1.74E-02
16968,8.10E-03,1.74E-02
16969,8.10E-03,1.10E-02
16970,8.10E-03,1.12E-02
16971,8.22E-03,1.47E-02
16972,8.32E-03,1.50E-02
16973,8.10E-03,1.14E-02
16974,8.10E-03,1.13E-02
16975,8.25E-03,1.47E-02
16976,8.43E-03,1.51E-02
16977,8.10E-03,1.15E-02
16978,7.71E-03,1.72E-02
16979,7.71E-03,1.71E-02
16980,8.21E-03,1.74E-02
16981,8.20E-03,1.47E-02
16982,8.12E-03,1.52E-02
16983,8.18E-03,1.47E-02
16984,4.89E-03,1.54E-02
16985,4.96E-03,1.54E-02
16986,4.74E-03,1.54E-02
16987,1.11E-02,1.53E-02
16988,8.24E-03,1.74E-02
16989,8.19E-03,1.74E-02
16990,8.10E-03,1.17E-02
16991,8.10E-03,1.18E-02
16992,8.10E-03,1.19E-02
16993,8.10E-03,1.48E-02
16994,8.04E-03,1.48E-02
16995,8.02E-03,1.48E-02
16996,8.10E-03,1.23E-02
16997,8.10E-03,1.21E-02
16998,8.10E-03,1.20E-02
16999,8.02E-03,1.48E-02
17000,8.02E-03,1.48E-02
17001,7.98E-03,1.48E-02
17002,8.00E-03,1.47E-02
17003,8.10E-03,1.47E-02
17004,8.10E-03,1.24E-02
17005,8.10E-03,1.25E-02
17006,8.10E-03,1.27E-02
17007,8.10E-03,1.26E-02
17008,8.10E-03,1.28E-02
17009,8.16E-03,1.47E-02
17010,8.10E-03,1.30E-02
17011,8.17E-03,1.47E-02
17012,8.10E-03,1.31E-02
17013,8.10E-03,1.46E-02
17014,8.10E-03,1.32E-02
17015,8.10E-03,1.46E-02
17016,8.10E-03,1.33E-02
17017,8.10E-03,1.45E-02
17018,8.10E-03,1.34E-02
17019,8.10E-03,1.35E-02
17020,8.10E-03,1.45E-02
17021,8.10E-03,1.44E-02
17022,8.10E-03,1.36E-02
17023,8.10E-03,1.44E-02
17024,8.10E-03,1.43E-02
17025,8.10E-03,1.37E-02
17026,8.10E-03,1.38E-02
17027,8.10E-03,1.42E-02
17028,8.10E-03,1.38E-02
17029,8.10E-03,1.42E-02
17030,8.10E-03,1.39E-02
17031,8.10E-03,1.40E-02
17032,8.10E-03,1.41E-02
17033,5.99E-03,2.07E-02
17034,5.59E-03,8.08E-03
17035,5.75E-03,7.98E-03
17036,4.46E-03,7.92E-03
17037,2.65E-03,7.78E-03
17038,3.98E-03,7.75E-03
17039,4.07E-03,7.60E-03
17040,4.60E-03,7.38E-03
17041,5.72E-03,7.27E-03
17042,6.36E-03,7.20E-03
17043,6.95E-03,7.11E-03
17044,7.39E-03,7.01E-03
17045,8.37E-03,6.92E-03
17046,8.14E-03,1.34E-02
17047,7.45E-03,1.33E-02
17048,7.82E-03,1.36E-02
17049,7.80E-03,1.36E-02
17050,7.72E-03,1.37E-02
17051,7.78E-03,1.37E-02
17052,8.12E-03,2.02E-02
17053,8.17E-03,2.02E-02
17054,8.17E-03,2.03E-02
17055,8.90E-03,2.04E-02
17056,9.09E-03,2.04E-02
17057,1.07E-02,2.03E-02
17058,8.07E-03,2.03E-02
17059,8.26E-03,1.45E-02
17060,8.10E-03,1.45E-02
17061,8.10E-03,1.45E-02
17062,8.10E-03,1.45E-02
17063,8.10E-03,1.45E-02
17064,8.10E-03,1.46E-02
17065,8.10E-03,1.46E-02
17066,8.10E-03,1.46E-02
17067,8.10E-03,1.46E-02
17068,8.10E-03,1.46E-02
17069,8.10E-03,1.46E-02
17070,8.10E-03,1.46E-02
17071,8.80E-03,1.78E-02
17072,7.91E-03,1.74E-02
17073,8.79E-03,1.75E-02
17074,9.09E-03,1.77E-02
17075,6.80E-03,1.61E-02
17076,6.82E-03,1.61E-02
17077,7.06E-03,1.64E-02
17078,6.98E-03,1.63E-02
17079,6.91E-03,1.63E-02
17080,6.85E-03,1.62E-02
17081,8.61E-03,1.32E-02
17082,8.38E-03,1.35E-02
17083,7.24E-03,1.62E-02
17084,8.38E-03,1.67E-02
17085,6.57E-03,1.70E-02
17086,8.32E-03,1.69E-02
17087,8.69E-03,1.69E-02
17088,8.53E-03,1.68E-02
17089,8.47E-03,1.68E-02
17090,9.28E-03,1.29E-02
17091,8.25E-03,1.30E-02
17092,8.96E-03,1.30E-02
17093,6.50E-03,1.90E-02
17094,5.75E-03,1.90E-02
17095,7.47E-03,1.76E-02
17096,6.78E-03,6.45E-03
17097,8.53E-03,1.15E-02
17098,6.49E-03,1.72E-02
17099,7.76E-03,1.72E-02
17100,5.79E-03,1.70E-02
17101,7.64E-03,1.69E-02
17102,7.84E-03,1.71E-02
17103,7.84E-03,1.71E-02
17104,7.42E-03,1.75E-02
17105,7.20E-03,1.74E-02
17106,9.57E-03,1.87E-02
17107,7.70E-03,2.04E-02
17108,7.45E-03,1.73E-02
17109,7.52E-03,1.43E-02
17110,5.22E-03,2.03E-02
17111,8.24E-03,1.47E-02
17112,7.95E-03,1.18E-02
17113,8.03E-03,1.73E-02
17114,7.84E-03,1.12E-02
17115,7.75E-03,1.09E-02
17116,4.73E-03,1.07E-02
17117,3.42E-03,1.06E-02
17118,8.76E-03,1.04E-02
17119,8.20E-03,1.01E-02
17120,8.09E-03,9.82E-03
17121,8.09E-03,9.55E-03
17122,8.09E-03,9.28E-03
17123,8.09E-03,9.02E-03
17124,8.09E-03,8.76E-03
17125,8.09E-03,8.52E-03
17126,8.09E-03,8.28E-03
17127,8.09E-03,8.04E-03
17128,8.09E-03,7.82E-03
17129,8.09E-03,7.60E-03
17130,8.09E-03,7.38E-03
17131,8.09E-03,7.18E-03
17132,8.09E-03,6.99E-03
17133,8.03E-03,6.81E-03
17134,7.99E-03,6.65E-03
17135,7.93E-03,6.49E-03
17136,8.02E-03,6.35E-03
17137,8.09E-03,6.21E-03
17138,8.16E-03,6.08E-03
17139,8.26E-03,5.97E-03
17140,8.26E-03,5.86E-03
17141,7.90E-03,5.78E-03
17142,6.27E-03,1.95E-02
17143,6.53E-03,1.94E-02
17144,5.87E-03,1.44E-02
17145,1.99E-03,1.47E-02
17146,3.02E-03,1.49E-02
17147,2.90E-03,1.50E-02
17148,3.22E-03,1.51E-02
17149,3.59E-03,1.52E-02
17150,4.49E-03,1.55E-02
17151,5.41E-03,1.57E-02
17152,5.80E-03,1.59E-02
17153,9.21E-03,1.38E-02
17154,6.62E-03,1.37E-02
17155,4.92E-03,1.35E-02
17156,6.48E-03,1.34E-02
17157,8.10E-03,1.70E-02
17158,7.96E-03,1.68E-02
17159,1.06E-02,1.66E-02
17160,8.14E-03,1.63E-02
17161,8.17E-03,1.61E-02
17162,8.09E-03,1.58E-02
17163,8.09E-03,1.56E-02
17164,8.09E-03,1.54E-02
17165,8.09E-03,1.51E-02
17166,8.09E-03,1.49E-02
17167,8.16E-03,1.46E-02
17168,8.27E-03,1.43E-02
17169,8.33E-03,1.41E-02
17170,8.40E-03,1.38E-02
17171,8.45E-03,1.35E-02
17172,8.57E-03,1.33E-02
17173,9.48E-03,1.30E-02
17174,8.31E-03,1.26E-02
17175,8.29E-03,1.24E-02
17176,9.14E-03,1.21E-02
17177,9.59E-03,1.18E-02
17178,7.54E-03,1.66E-02
17179,8.04E-03,1.25E-02
17180,8.08E-03,2.03E-02
17181,7.84E-03,1.56E-02
17182,7.71E-03,1.44E-02
17183,1.07E-02,1.45E-02
17184,8.41E-03,1.45E-02
17185,8.50E-03,1.45E-02
17186,4.97E-03,1.45E-02
17187,3.17E-03,1.46E-02
17188,3.27E-03,1.45E-02
17189,3.44E-03,1.46E-02
17190,3.30E-03,1.46E-02
17191,3.16E-03,1.46E-02
17192,3.44E-03,1.46E-02
17193,3.56E-03,1.46E-02
17194,3.85E-03,1.46E-02
17195,3.94E-03,1.46E-02
17196,4.31E-03,1.46E-02
17197,4.46E-03,1.46E-02
17198,4.53E-03,1.46E-02
17199,4.70E-03,1.46E-02
17200,4.90E-03,1.46E-02
17201,5.00E-03,1.46E-02
17202,5.08E-03,1.46E-02
17203,5.17E-03,1.46E-02
17204,5.21E-03,1.46E-02
17205,5.21E-03,1.46E-02
17206,5.16E-03,1.46E-02
17207,5.12E-03,1.46E-02
17208,5.08E-03,1.46E-02
17209,5.05E-03,1.46E-02
17210,5.00E-03,1.46E-02
17211,4.92E-03,1.46E-02
17212,4.82E-03,1.46E-02
17213,4.71E-03,1.46E-02
17214,4.60E-03,1.46E-02
17215,4.49E-03,1.46E-02
17216,4.38E-03,1.46E-02
17217,4.28E-03,1.46E-02
17218,4.19E-03,1.46E-02
17219,4.10E-03,1.46E-02
17220,4.10E-03,1.46E-02
17221,4.24E-03,1.46E-02
17222,4.43E-03,1.46E-02
17223,4.59E-03,1.46E-02
17224,4.70E-03,1.46E-02
17225,4.77E-03,1.46E-02
17226,4.84E-03,1.45E-02
17227,4.96E-03,1.45E-02
17228,5.10E-03,1.45E-02
17229,5.36E-03,1.45E-02
17230,5.36E-03,1.45E-02
17231,5.80E-03,1.45E-02
17232,6.19E-03,1.44E-02
17233,6.53E-03,1.44E-02
17234,6.80E-03,1.44E-02
17235,7.11E-03,1.44E-02
17236,7.23E-03,1.44E-02
17237,7.42E-03,1.43E-02
17238,7.77E-03,1.43E-02
17239,7.88E-03,1.43E-02
17240,7.75E-03,1.42E-02
17241,7.74E-03,1.42E-02
17242,8.15E-03,1.41E-02
17243,8.77E-03,1.41E-02
17244,9.38E-03,1.41E-02
17245,9.92E-03,1.40E-02
17246,1.02E-02,1.40E-02
17247,1.02E-02,1.39E-02
17248,1.02E-02,1.38E-02
17249,1.02E-02,1.38E-02
17250,1.03E-02,1.37E-02
17251,1.04E-02,1.37E-02
17252,1.05E-02,1.36E-02
17253,1.06E-02,1.36E-02
17254,1.07E-02,1.35E-02
17255,1.07E-02,1.35E-02
17256,1.07E-02,1.34E-02
17257,1.05E-02,1.34E-02
17258,1.03E-02,1.33E-02
17259,1.01E-02,1.33E-02
17260,9.88E-03,1.32E-02
17261,9.73E-03,1.32E-02
17262,9.61E-03,1.31E-02
17263,9.51E-03,1.31E-02
17264,9.40E-03,1.30E-02
17265,9.31E-03,1.30E-02
17266,9.24E-03,1.30E-02
17267,9.17E-03,1.29E-02
17268,9.09E-03,1.29E-02
17269,9.01E-03,1.29E-02
17270,8.89E-03,1.28E-02
17271,8.71E-03,1.28E-02
17272,8.54E-03,1.28E-02
17273,8.41E-03,1.27E-02
17274,8.33E-03,1.27E-02
17275,8.26E-03,1.27E-02
17276,8.19E-03,1.26E-02
17277,8.12E-03,1.26E-02
17278,8.04E-03,1.26E-02
17279,7.97E-03,1.26E-02
17280,7.90E-03,1.25E-02
17281,7.87E-03,1.25E-02
17282,7.90E-03,1.25E-02
17283,7.94E-03,1.25E-02
17284,7.99E-03,1.24E-02
17285,8.04E-03,1.24E-02
17286,8.09E-03,1.24E-02
17287,8.16E-03,1.24E-02
17288,8.20E-03,1.24E-02
17289,8.25E-03,1.23E-02
17290,8.27E-03,1.23E-02
17291,8.28E-03,1.23E-02
17292,8.29E-03,1.23E-02
17293,8.24E-03,1.23E-02
17294,8.23E-03,1.22E-02
17295,8.32E-03,1.22E-02
17296,8.31E-03,1.22E-02
17297,8.37E-03,1.22E-02
17298,8.98E-03,1.22E-02
17299,6.91E-03,1.20E-02
17300,8.79E-03,1.21E-02
17301,8.52E-03,9.29E-03
17302,7.77E-03,2.03E-02
17303,7.39E-03,2.04E-02
17304,7.05E-03,2.05E-02
17305,7.24E-03,2.05E-02
17306,7.52E-03,1.70E-02
17307,9.77E-03,1.36E-02
17308,6.68E-03,1.36E-02
17309,8.33E-03,1.46E-02
17310,7.62E-03,1.41E-02
17311,8.30E-03,1.41E-02
17312,8.51E-03,1.40E-02
17313,8.43E-03,1.40E-02
17314,7.93E-03,1.39E-02
17315,6.90E-03,1.39E-02
17316,5.04E-03,1.38E-02
17317,5.95E-03,1.38E-02
17318,6.62E-03,2.09E-02
17319,6.89E-03,1.01E-02
17320,6.77E-03,9.65E-03
17321,5.32E-03,9.47E-03
17322,6.58E-03,8.39E-03
17323,5.49E-03,8.24E-03
17324,7.31E-03,1.32E-02
17325,8.09E-03,1.06E-02
17326,8.09E-03,1.05E-02
17327,8.09E-03,1.04E-02
17328,8.09E-03,1.02E-02
17329,8.09E-03,1.01E-02
17330,8.09E-03,9.97E-03
17331,8.09E-03,9.83E-03
17332,8.09E-03,9.69E-03
17333,8.09E-03,9.55E-03
17334,8.09E-03,9.41E-03
17335,8.09E-03,9.26E-03
17336,8.09E-03,9.12E-03
17337,8.09E-03,8.97E-03
17338,8.09E-03,8.82E-03
17339,8.09E-03,8.68E-03
17340,8.09E-03,8.53E-03
17341,8.09E-03,8.38E-03
17342,8.09E-03,8.23E-03
17343,8.09E-03,8.09E-03
17344,8.03E-03,7.95E-03
17345,8.00E-03,7.80E-03
17346,7.92E-03,7.65E-03
17347,7.83E-03,7.51E-03
17348,7.83E-03,7.36E-03
17349,7.83E-03,7.22E-03
17350,7.67E-03,7.08E-03
17351,7.42E-03,6.95E-03
17352,7.20E-03,6.82E-03
17353,7.24E-03,6.69E-03
17354,7.84E-03,6.56E-03
17355,7.37E-03,6.44E-03
17356,6.55E-03,6.49E-03
17357,6.32E-03,6.55E-03
17358,6.27E-03,6.61E-03
17359,6.42E-03,6.68E-03
17360,6.54E-03,6.75E-03
17361,6.69E-03,6.82E-03
17362,6.82E-03,6.88E-03
17363,6.84E-03,6.95E-03
17364,6.86E-03,7.02E-03
17365,6.99E-03,7.10E-03
17366,7.09E-03,7.18E-03
17367,7.21E-03,7.26E-03
17368,7.36E-03,7.34E-03
17369,7.40E-03,7.42E-03
17370,7.44E-03,7.51E-03
17371,7.48E-03,7.60E-03
17372,7.51E-03,7.69E-03
17373,7.55E-03,7.78E-03
17374,7.58E-03,7.88E-03
17375,7.61E-03,7.97E-03
17376,7.64E-03,8.07E-03
17377,7.67E-03,8.17E-03
17378,7.69E-03,8.28E-03
17379,7.72E-03,8.38E-03
17380,7.74E-03,8.49E-03
17381,7.77E-03,8.60E-03
17382,7.78E-03,8.71E-03
17383,7.78E-03,8.82E-03
17384,7.78E-03,8.94E-03
17385,7.78E-03,9.06E-03
17386,7.77E-03,9.17E-03
17387,7.77E-03,9.29E-03
17388,7.77E-03,9.41E-03
17389,7.76E-03,9.54E-03
17390,7.74E-03,9.66E-03
17391,7.70E-03,9.78E-03
17392,7.66E-03,9.91E-03
17393,7.62E-03,1.00E-02
17394,7.59E-03,1.02E-02
17395,7.55E-03,1.03E-02
17396,7.51E-03,1.04E-02
17397,7.47E-03,1.06E-02
17398,7.44E-03,1.07E-02
17399,7.40E-03,1.08E-02
17400,7.34E-03,1.09E-02
17401,7.26E-03,1.11E-02
17402,7.20E-03,1.12E-02
17403,7.06E-03,1.13E-02
17404,6.96E-03,1.15E-02
17405,6.81E-03,1.16E-02
17406,6.80E-03,1.17E-02
17407,6.72E-03,1.18E-02
17408,6.68E-03,1.20E-02
17409,7.93E-03,1.22E-02
17410,7.18E-03,2.06E-02
17411,7.37E-03,1.55E-02
17412,6.51E-03,1.89E-02
17413,8.32E-03,2.03E-02
17414,8.17E-03,2.06E-02
17415,8.10E-03,1.47E-02
17416,8.44E-03,1.81E-02
17417,6.72E-03,1.69E-02
17418,6.20E-03,1.70E-02
17419,6.80E-03,1.72E-02
17420,7.14E-03,1.64E-02
17421,8.29E-03,1.28E-02
17422,8.08E-03,1.65E-02
17423,7.95E-03,1.68E-02
17424,7.81E-03,1.66E-02
17425,7.10E-03,1.73E-02
17426,8.82E-03,1.14E-02
17427,8.41E-03,1.39E-02
17428,7.93E-03,1.41E-02
17429,6.82E-03,1.32E-02
17430,8.94E-03,1.42E-02
17431,6.64E-03,1.85E-02
17432,7.69E-03,1.84E-02
17433,7.62E-03,1.82E-02
17434,7.63E-03,1.81E-02
17435,7.76E-03,1.79E-02
17436,7.78E-03,1.77E-02
17437,8.21E-03,1.75E-02
17438,7.82E-03,1.73E-02
17439,7.70E-03,1.72E-02
17440,7.61E-03,1.70E-02
17441,7.44E-03,1.68E-02
17442,7.48E-03,1.66E-02
17443,7.17E-03,1.64E-02
17444,6.09E-03,1.62E-02
17445,4.66E-03,1.62E-02
17446,6.71E-03,1.30E-02
17447,6.68E-03,1.30E-02
17448,6.61E-03,1.30E-02
17449,8.35E-03,2.11E-02
17450,9.68E-03,2.12E-02
17451,6.96E-03,1.92E-02
17452,6.23E-03,5.88E-03
17453,7.09E-03,5.73E-03
17454,7.39E-03,1.75E-02
17455,6.21E-03,1.72E-02
17456,8.62E-03,1.72E-02
17457,7.61E-03,1.75E-02
17458,6.87E-03,1.42E-02
17459,8.10E-03,1.71E-02
17460,6.42E-03,1.65E-02
17461,8.19E-03,1.21E-02
17462,6.75E-03,1.49E-02
17463,8.37E-03,1.26E-02
17464,7.61E-03,1.44E-02
17465,8.83E-03,1.52E-02
17466,6.74E-03,6.04E-03
17467,6.77E-03,1.97E-02
17468,7.62E-03,1.75E-02
17469,7.80E-03,1.74E-02
17470,8.10E-03,1.71E-02
17471,8.13E-03,1.45E-02
17472,7.77E-03,2.05E-02
17473,7.49E-03,1.43E-02
17474,3.61E-03,1.18E-02
17475,3.08E-03,1.18E-02
17476,2.14E-03,1.18E-02
17477,2.82E-03,1.18E-02
17478,3.27E-03,1.18E-02
17479,2.92E-03,1.18E-02
17480,3.07E-03,1.18E-02
17481,3.17E-03,1.18E-02
17482,3.26E-03,1.18E-02
17483,3.67E-03,1.18E-02
17484,3.77E-03,1.17E-02
17485,4.03E-03,1.17E-02
17486,4.53E-03,1.17E-02
17487,4.56E-03,1.17E-02
17488,4.73E-03,1.17E-02
17489,4.90E-03,1.17E-02
17490,5.06E-03,1.17E-02
17491,5.21E-03,1.17E-02
17492,5.33E-03,1.17E-02
17493,5.52E-03,1.17E-02
17494,5.64E-03,1.17E-02
17495,5.77E-03,1.17E-02
17496,5.87E-03,1.17E-02
17497,6.01E-03,1.18E-02
17498,6.18E-03,1.18E-02
17499,6.25E-03,1.18E-02
17500,6.32E-03,1.18E-02
17501,6.39E-03,1.18E-02
17502,6.45E-03,1.18E-02
17503,6.52E-03,1.18E-02
17504,6.59E-03,1.18E-02
17505,6.66E-03,1.18E-02
17506,6.74E-03,1.18E-02
17507,7.18E-03,1.19E-02
17508,7.33E-03,1.19E-02
17509,7.45E-03,1.19E-02
17510,7.56E-03,1.19E-02
17511,7.49E-03,1.19E-02
17512,7.45E-03,1.20E-02
17513,7.57E-03,1.20E-02
17514,7.76E-03,1.20E-02
17515,7.96E-03,1.20E-02
17516,7.70E-03,1.20E-02
17517,6.54E-03,1.22E-02
17518,7.08E-03,1.20E-02
17519,7.66E-03,1.56E-02
17520,8.65E-03,5.94E-03
17521,7.20E-03,1.98E-02
17522,6.83E-03,1.99E-02
17523,8.15E-03,2.01E-02
17524,8.45E-03,2.09E-02
17525,7.39E-03,2.08E-02
17526,8.42E-03,1.46E-02
17527,8.10E-03,1.48E-02
17528,8.18E-03,1.83E-02
17529,7.94E-03,2.11E-02
17530,6.77E-03,1.05E-02
17531,7.44E-03,1.73E-02
17532,7.89E-03,8.78E-03
17533,7.19E-03,8.59E-03
17534,6.94E-03,2.06E-02
17535,7.79E-03,2.06E-02
17536,6.89E-03,2.05E-02
17537,7.41E-03,2.06E-02
17538,8.10E-03,1.72E-02
17539,7.48E-03,1.31E-02
17540,1.08E-02,1.28E-02
17541,9.79E-03,1.27E-02
17542,9.58E-03,1.26E-02
17543,9.29E-03,1.25E-02
17544,8.97E-03,1.25E-02
17545,8.77E-03,1.24E-02
17546,7.73E-03,1.24E-02
17547,7.28E-03,1.23E-02
17548,7.03E-03,1.23E-02
17549,6.60E-03,1.22E-02
17550,6.32E-03,1.22E-02
17551,6.01E-03,1.21E-02
17552,5.67E-03,1.21E-02
17553,5.36E-03,1.20E-02
17554,5.06E-03,1.20E-02
17555,4.77E-03,1.20E-02
17556,4.60E-03,1.19E-02
17557,4.08E-03,1.19E-02
17558,3.81E-03,1.19E-02
17559,3.59E-03,1.18E-02
17560,3.31E-03,1.18E-02
17561,3.01E-03,1.18E-02
17562,2.79E-03,1.18E-02
17563,2.59E-03,1.18E-02
17564,2.58E-03,1.18E-02
17565,2.58E-03,1.18E-02
17566,2.58E-03,1.17E-02
17567,3.25E-03,1.17E-02
17568,3.57E-03,1.17E-02
17569,3.79E-03,1.17E-02
17570,8.10E-03,1.08E-02
17571,9.50E-03,1.61E-02
17572,8.93E-03,1.59E-02
17573,8.40E-03,1.98E-02
17574,8.33E-03,1.46E-02
17575,8.16E-03,1.49E-02
17576,8.51E-03,1.86E-02
17577,6.12E-03,1.97E-02
17578,6.30E-03,1.93E-02
17579,7.90E-03,1.73E-02
17580,8.10E-03,1.72E-02
17581,8.10E-03,1.09E-02
17582,8.10E-03,1.10E-02
17583,8.22E-03,1.47E-02
17584,8.31E-03,1.50E-02
17585,8.10E-03,1.13E-02
17586,8.10E-03,1.12E-02
17587,8.21E-03,1.47E-02
17588,8.30E-03,1.51E-02
17589,8.10E-03,1.14E-02
17590,7.86E-03,1.71E-02
17591,7.76E-03,1.71E-02
17592,8.10E-03,1.72E-02
17593,6.10E-03,2.01E-02
17594,8.17E-03,1.47E-02
17595,8.25E-03,1.52E-02
17596,8.10E-03,1.48E-02
17597,7.89E-03,1.53E-02
17598,8.18E-03,1.73E-02
17599,7.99E-03,1.71E-02
17600,8.20E-03,1.73E-02
17601,8.06E-03,1.73E-02
17602,8.10E-03,1.15E-02
17603,8.10E-03,1.17E-02
17604,5.52E-03,1.55E-02
17605,5.35E-03,1.54E-02
17606,5.25E-03,1.54E-02
17607,9.72E-03,1.54E-02
17608,8.10E-03,1.18E-02
17609,8.10E-03,1.48E-02
17610,8.10E-03,1.48E-02
17611,8.10E-03,1.48E-02
17612,8.10E-03,1.22E-02
17613,8.10E-03,1.20E-02
17614,8.10E-03,1.19E-02
17615,8.10E-03,1.48E-02
17616,8.10E-03,1.48E-02
17617,8.04E-03,1.48E-02
17618,8.03E-03,1.48E-02
17619,8.10E-03,1.47E-02
17620,8.10E-03,1.23E-02
17621,8.10E-03,1.24E-02
17622,8.10E-03,1.26E-02
17623,8.10E-03,1.25E-02
17624,8.10E-03,1.27E-02
17625,8.10E-03,1.47E-02
17626,8.10E-03,1.29E-02
17627,8.10E-03,1.47E-02
17628,8.10E-03,1.30E-02
17629,8.10E-03,1.46E-02
17630,8.10E-03,1.31E-02
17631,8.10E-03,1.46E-02
17632,8.10E-03,1.32E-02
17633,8.10E-03,1.46E-02
17634,8.10E-03,1.33E-02
17635,8.10E-03,1.34E-02
17636,8.10E-03,1.45E-02
17637,8.10E-03,1.45E-02
17638,8.10E-03,1.35E-02
17639,8.10E-03,1.44E-02
17640,8.10E-03,1.43E-02
17641,8.10E-03,1.36E-02
17642,8.10E-03,1.37E-02
17643,8.10E-03,1.43E-02
17644,8.10E-03,1.38E-02
17645,8.10E-03,1.42E-02
17646,8.10E-03,1.39E-02
17647,8.10E-03,1.40E-02
17648,8.10E-03,1.41E-02
17649,8.10E-03,1.40E-02
17650,9.53E-03,1.69E-02
17651,7.42E-03,2.06E-02
17652,7.58E-03,2.08E-02
17653,7.63E-03,1.70E-02
17654,8.05E-03,1.35E-02
17655,8.18E-03,1.35E-02
17656,5.22E-03,1.35E-02
17657,4.28E-03,1.35E-02
17658,8.10E-03,1.46E-02
17659,8.26E-03,1.46E-02
17660,7.78E-03,1.39E-02
17661,4.76E-03,1.38E-02
17662,6.45E-03,1.39E-02
17663,7.34E-03,1.39E-02
17664,7.01E-03,2.08E-02
17665,6.45E-03,2.08E-02
17666,6.60E-03,9.80E-03
17667,5.43E-03,9.42E-03
17668,5.19E-03,9.61E-03
17669,6.41E-03,1.35E-02
17670,5.49E-03,8.14E-03
17671,5.05E-03,8.05E-03
17672,4.58E-03,7.97E-03
17673,3.78E-03,7.82E-03
17674,3.64E-03,7.71E-03
17675,4.07E-03,7.55E-03
17676,4.69E-03,7.38E-03
17677,5.52E-03,7.30E-03
17678,6.13E-03,7.22E-03
17679,6.63E-03,7.13E-03
17680,7.45E-03,7.02E-03
17681,8.83E-03,6.87E-03
17682,8.44E-03,1.33E-02
17683,7.58E-03,1.32E-02
17684,6.73E-03,6.33E-03
17685,5.28E-03,6.28E-03
17686,6.19E-03,6.36E-03
17687,6.70E-03,6.41E-03
17688,6.49E-03,6.46E-03
17689,6.45E-03,6.52E-03
17690,6.48E-03,6.58E-03
17691,6.58E-03,6.65E-03
17692,6.72E-03,6.72E-03
17693,6.82E-03,6.78E-03
17694,7.01E-03,6.85E-03
17695,6.97E-03,6.92E-03
17696,7.09E-03,7.00E-03
17697,7.19E-03,7.07E-03
17698,7.24E-03,7.15E-03
17699,7.37E-03,7.23E-03
17700,7.41E-03,7.32E-03
17701,7.45E-03,7.40E-03
17702,7.49E-03,7.49E-03
17703,7.52E-03,7.59E-03
17704,7.56E-03,7.68E-03
17705,7.59E-03,7.77E-03
17706,7.62E-03,7.87E-03
17707,7.65E-03,7.97E-03
17708,7.67E-03,8.07E-03
17709,7.70E-03,8.18E-03
17710,7.72E-03,8.28E-03
17711,7.75E-03,8.39E-03
17712,7.77E-03,8.50E-03
17713,7.78E-03,8.61E-03
17714,7.78E-03,8.73E-03
17715,7.78E-03,8.84E-03
17716,7.78E-03,8.96E-03
17717,7.78E-03,9.08E-03
17718,7.78E-03,9.20E-03
17719,7.78E-03,9.32E-03
17720,7.77E-03,9.45E-03
17721,7.74E-03,9.57E-03
17722,7.71E-03,9.70E-03
17723,7.67E-03,9.82E-03
17724,7.63E-03,9.95E-03
17725,7.60E-03,1.01E-02
17726,7.56E-03,1.02E-02
17727,7.52E-03,1.03E-02
17728,7.48E-03,1.05E-02
17729,7.45E-03,1.06E-02
17730,7.41E-03,1.07E-02
17731,7.35E-03,1.09E-02
17732,7.27E-03,1.10E-02
17733,7.17E-03,1.11E-02
17734,7.00E-03,1.13E-02
17735,6.99E-03,1.14E-02
17736,6.86E-03,1.15E-02
17737,6.79E-03,1.17E-02
17738,6.64E-03,1.18E-02
17739,6.48E-03,1.19E-02
17740,7.90E-03,1.21E-02
17741,6.62E-03,1.20E-02
17742,6.30E-03,2.06E-02
17743,1.01E-02,1.57E-02
17744,8.23E-03,1.56E-02
17745,7.63E-03,1.87E-02
17746,6.44E-03,1.88E-02
17747,7.22E-03,1.36E-02
17748,7.64E-03,1.36E-02
17749,8.37E-03,2.04E-02
17750,8.21E-03,2.05E-02
17751,8.26E-03,2.04E-02
17752,8.46E-03,2.06E-02
17753,1.05E-02,2.05E-02
17754,8.92E-03,2.05E-02
17755,8.09E-03,2.05E-02
17756,8.10E-03,1.46E-02
17757,8.10E-03,1.46E-02
17758,8.10E-03,1.46E-02
17759,8.10E-03,1.46E-02
17760,8.10E-03,1.47E-02
17761,8.10E-03,1.47E-02
17762,8.10E-03,1.47E-02
17763,8.10E-03,1.46E-02
17764,8.10E-03,1.47E-02
17765,8.10E-03,1.46E-02
17766,7.94E-03,1.40E-02
17767,7.94E-03,1.40E-02
17768,7.85E-03,1.40E-02
17769,8.65E-03,1.79E-02
17770,8.55E-03,1.74E-02
17771,9.60E-03,1.76E-02
17772,8.82E-03,1.78E-02
17773,8.81E-03,2.03E-02
17774,7.50E-03,2.05E-02
17775,7.73E-03,2.04E-02
17776,7.45E-03,2.06E-02
17777,7.38E-03,2.06E-02
17778,7.06E-03,2.07E-02
17779,7.18E-03,1.64E-02
17780,6.98E-03,1.63E-02
17781,6.92E-03,1.63E-02
17782,6.82E-03,1.61E-02
17783,6.90E-03,1.61E-02
17784,6.98E-03,1.62E-02
17785,8.55E-03,1.31E-02
17786,8.52E-03,1.35E-02
17787,8.38E-03,1.63E-02
17788,5.65E-03,1.72E-02
17789,6.59E-03,1.71E-02
17790,7.13E-03,1.69E-02
17791,8.22E-03,1.67E-02
17792,9.34E-03,1.68E-02
17793,8.27E-03,1.68E-02
17794,8.01E-03,1.68E-02
17795,8.09E-03,1.67E-02
17796,9.09E-03,8.99E-03
17797,8.19E-03,9.15E-03
17798,6.81E-03,1.72E-02
17799,5.39E-03,1.71E-02
17800,8.26E-03,1.11E-02
17801,3.06E-03,1.06E-02
17802,8.50E-03,1.08E-02
17803,8.83E-03,1.03E-02
17804,3.94E-03,1.05E-02
17805,8.09E-03,9.74E-03
17806,8.10E-03,1.00E-02
17807,8.09E-03,9.21E-03
17808,8.09E-03,9.47E-03
17809,8.09E-03,8.70E-03
17810,8.09E-03,8.95E-03
17811,8.09E-03,8.21E-03
17812,8.09E-03,8.45E-03
17813,8.09E-03,7.74E-03
17814,8.09E-03,7.97E-03
17815,8.09E-03,7.31E-03
17816,8.09E-03,7.52E-03
17817,8.09E-03,6.92E-03
17818,8.09E-03,7.11E-03
17819,8.09E-03,6.57E-03
17820,8.09E-03,6.74E-03
17821,8.09E-03,6.26E-03
17822,8.09E-03,6.41E-03
17823,8.09E-03,6.00E-03
17824,8.09E-03,6.13E-03
17825,8.25E-03,5.78E-03
17826,8.16E-03,5.88E-03
17827,9.16E-03,5.65E-03
17828,8.17E-03,5.72E-03
17829,2.09E-03,1.48E-02
17830,8.22E-03,1.45E-02
17831,2.98E-03,1.50E-02
17832,2.64E-03,1.49E-02
17833,3.56E-03,1.54E-02
17834,3.11E-03,1.52E-02
17835,5.62E-03,1.58E-02
17836,3.92E-03,1.55E-02
17837,7.18E-03,1.33E-02
17838,7.98E-03,1.40E-02
17839,6.73E-03,1.38E-02
17840,7.21E-03,1.36E-02
17841,7.50E-03,1.35E-02
17842,7.47E-03,1.41E-02
17843,7.61E-03,1.84E-02
17844,7.58E-03,1.85E-02
17845,7.90E-03,1.80E-02
17846,7.76E-03,1.82E-02
17847,7.83E-03,1.76E-02
17848,8.13E-03,1.78E-02
17849,7.48E-03,1.73E-02
17850,7.68E-03,1.74E-02
17851,7.17E-03,1.69E-02
17852,7.27E-03,1.71E-02
17853,6.19E-03,1.66E-02
17854,6.83E-03,1.68E-02
17855,5.04E-03,1.63E-02
17856,5.01E-03,1.65E-02
17857,7.45E-03,1.60E-02
17858,8.42E-03,1.29E-02
17859,9.60E-03,1.28E-02
17860,9.34E-03,1.29E-02
17861,1.02E-02,1.27E-02
17862,1.00E-02,1.28E-02
17863,1.16E-02,1.26E-02
17864,1.15E-02,1.27E-02
17865,9.85E-03,1.25E-02
17866,1.06E-02,1.26E-02
17867,9.09E-03,1.23E-02
17868,9.55E-03,1.24E-02
17869,7.94E-03,1.22E-02
17870,8.69E-03,1.23E-02
17871,7.09E-03,1.21E-02
17872,7.31E-03,1.22E-02
17873,6.38E-03,1.20E-02
17874,6.60E-03,1.21E-02
17875,5.70E-03,1.19E-02
17876,6.04E-03,1.20E-02
17877,5.10E-03,1.18E-02
17878,5.39E-03,1.19E-02
17879,4.67E-03,1.18E-02
17880,4.83E-03,1.18E-02
17881,3.91E-03,1.17E-02
17882,4.08E-03,1.17E-02
17883,3.33E-03,1.17E-02
17884,3.65E-03,1.17E-02
17885,2.82E-03,1.16E-02
17886,3.01E-03,1.17E-02
17887,2.65E-03,1.16E-02
17888,2.68E-03,1.16E-02
17889,2.82E-03,1.16E-02
17890,2.64E-03,1.16E-02
17891,3.69E-03,1.15E-02
17892,3.31E-03,1.15E-02
17893,7.90E-03,1.70E-02
17894,8.06E-03,1.70E-02
17895,8.39E-03,2.13E-02
17896,8.00E-03,2.14E-02
17897,7.49E-03,1.91E-02
17898,8.65E-03,1.90E-02
17899,9.78E-03,1.88E-02
17900,7.24E-03,5.73E-03
17901,7.05E-03,1.74E-02
17902,6.84E-03,1.73E-02
17903,7.67E-03,1.72E-02
17904,7.50E-03,1.75E-02
17905,7.42E-03,1.74E-02
17906,7.28E-03,1.74E-02
17907,7.45E-03,1.43E-02
17908,8.10E-03,1.69E-02
17909,7.87E-03,1.67E-02
17910,1.05E-02,1.64E-02
17911,8.18E-03,1.62E-02
17912,8.09E-03,1.60E-02
17913,8.09E-03,1.57E-02
17914,8.09E-03,1.55E-02
17915,8.09E-03,1.52E-02
17916,8.09E-03,1.50E-02
17917,8.09E-03,1.48E-02
17918,8.09E-03,1.45E-02
17919,8.18E-03,1.42E-02
17920,8.23E-03,1.40E-02
17921,8.35E-03,1.37E-02
17922,8.36E-03,1.34E-02
17923,8.29E-03,1.32E-02
17924,1.10E-02,1.29E-02
17925,8.39E-03,1.25E-02
17926,8.69E-03,1.22E-02
17927,8.86E-03,1.19E-02
17928,8.94E-03,1.16E-02
17929,8.18E-03,2.11E-02
17930,7.29E-03,6.41E-03
17931,8.40E-03,1.65E-02
17932,8.14E-03,1.24E-02
17933,7.31E-03,1.48E-02
17934,8.65E-03,2.05E-02
17935,6.39E-03,1.24E-02
17936,7.47E-03,1.44E-02
17937,1.15E-02,1.44E-02
17938,8.27E-03,1.45E-02
17939,8.35E-03,1.45E-02
17940,5.02E-03,1.45E-02
17941,3.25E-03,1.45E-02
17942,3.35E-03,1.45E-02
17943,3.52E-03,1.45E-02
17944,3.38E-03,1.45E-02
17945,3.24E-03,1.45E-02
17946,3.44E-03,1.45E-02
17947,3.57E-03,1.45E-02
17948,3.82E-03,1.46E-02
17949,4.05E-03,1.46E-02
17950,4.38E-03,1.46E-02
17951,4.49E-03,1.46E-02
17952,4.66E-03,1.46E-02
17953,4.84E-03,1.46E-02
17954,4.95E-03,1.46E-02
17955,5.05E-03,1.46E-02
17956,5.13E-03,1.46E-02
17957,5.22E-03,1.46E-02
17958,5.26E-03,1.46E-02
17959,5.26E-03,1.46E-02
17960,5.20E-03,1.46E-02
17961,5.17E-03,1.46E-02
17962,5.13E-03,1.46E-02
17963,5.10E-03,1.46E-02
17964,5.05E-03,1.46E-02
17965,4.98E-03,1.46E-02
17966,4.87E-03,1.46E-02
17967,4.77E-03,1.46E-02
17968,4.66E-03,1.46E-02
17969,4.55E-03,1.46E-02
17970,4.44E-03,1.46E-02
17971,4.35E-03,1.46E-02
17972,4.25E-03,1.46E-02
17973,4.17E-03,1.46E-02
17974,4.17E-03,1.46E-02
17975,4.31E-03,1.46E-02
17976,4.49E-03,1.46E-02
17977,4.65E-03,1.46E-02
17978,4.75E-03,1.46E-02
17979,4.82E-03,1.46E-02
17980,4.90E-03,1.46E-02
17981,5.01E-03,1.46E-02
17982,5.15E-03,1.45E-02
17983,5.35E-03,1.45E-02
17984,5.46E-03,1.45E-02
17985,5.84E-03,1.45E-02
17986,6.22E-03,1.45E-02
17987,6.56E-03,1.45E-02
17988,6.82E-03,1.44E-02
17989,7.04E-03,1.44E-02
17990,7.26E-03,1.44E-02
17991,7.51E-03,1.44E-02
17992,7.77E-03,1.43E-02
17993,7.88E-03,1.43E-02
17994,7.75E-03,1.43E-02
17995,7.75E-03,1.42E-02
17996,8.15E-03,1.42E-02
17997,8.76E-03,1.41E-02
17998,9.36E-03,1.41E-02
17999,9.89E-03,1.41E-02
18000,1.01E-02,1.40E-02
18001,1.01E-02,1.40E-02
18002,1.01E-02,1.39E-02
18003,1.02E-02,1.39E-02
18004,1.03E-02,1.38E-02
18005,1.04E-02,1.37E-02
18006,1.04E-02,1.37E-02
18007,1.05E-02,1.36E-02
18008,1.06E-02,1.36E-02
18009,1.07E-02,1.35E-02
18010,1.06E-02,1.35E-02
18011,1.05E-02,1.34E-02
18012,1.03E-02,1.34E-02
18013,1.01E-02,1.33E-02
18014,9.85E-03,1.33E-02
18015,9.70E-03,1.33E-02
18016,9.59E-03,1.32E-02
18017,9.48E-03,1.32E-02
18018,9.38E-03,1.31E-02
18019,9.29E-03,1.31E-02
18020,9.22E-03,1.31E-02
18021,9.15E-03,1.30E-02
18022,9.08E-03,1.30E-02
18023,9.00E-03,1.30E-02
18024,8.88E-03,1.29E-02
18025,8.70E-03,1.29E-02
18026,8.53E-03,1.29E-02
18027,8.40E-03,1.29E-02
18028,8.32E-03,1.28E-02
18029,8.25E-03,1.28E-02
18030,8.19E-03,1.28E-02
18031,8.11E-03,1.28E-02
18032,8.04E-03,1.27E-02
18033,7.97E-03,1.27E-02
18034,7.90E-03,1.27E-02
18035,7.87E-03,1.27E-02
18036,7.90E-03,1.26E-02
18037,7.94E-03,1.26E-02
18038,7.99E-03,1.26E-02
18039,8.04E-03,1.26E-02
18040,8.09E-03,1.26E-02
18041,8.16E-03,1.25E-02
18042,8.20E-03,1.25E-02
18043,8.25E-03,1.25E-02
18044,8.27E-03,1.25E-02
18045,8.28E-03,1.25E-02
18046,8.28E-03,1.24E-02
18047,8.30E-03,1.24E-02
18048,8.39E-03,1.24E-02
18049,8.37E-03,1.24E-02
18050,8.48E-03,1.24E-02
18051,8.65E-03,1.24E-02
18052,8.78E-03,1.24E-02
18053,8.83E-03,1.23E-02
18054,9.57E-03,1.23E-02
18055,8.89E-03,1.23E-02
18056,6.84E-03,1.51E-02
18057,8.81E-03,1.17E-02
18058,6.44E-03,6.20E-03
18059,6.66E-03,1.96E-02
18060,7.12E-03,1.95E-02
18061,9.59E-03,1.37E-02
18062,7.57E-03,2.12E-02
18063,6.21E-03,1.97E-02
18064,7.89E-03,1.94E-02
18065,7.18E-03,1.42E-02
18066,7.34E-03,6.30E-03
18067,7.11E-03,1.74E-02
18068,7.91E-03,1.74E-02
18069,8.10E-03,1.69E-02
18070,8.24E-03,1.21E-02
18071,8.04E-03,1.43E-02
18072,4.44E-03,1.50E-02
18073,7.42E-03,1.43E-02
18074,7.64E-03,1.23E-02
18075,6.80E-03,1.20E-02
18076,7.44E-03,1.54E-02
18077,8.58E-03,5.97E-03
18078,1.05E-02,1.34E-02
18079,7.21E-03,1.99E-02
18080,6.33E-03,2.00E-02
18081,8.74E-03,2.06E-02
18082,7.36E-03,2.08E-02
18083,8.30E-03,1.46E-02
18084,8.10E-03,1.48E-02
18085,7.68E-03,1.46E-02
18086,8.33E-03,1.82E-02
18087,7.82E-03,2.10E-02
18088,7.98E-03,1.65E-02
18089,8.30E-03,1.28E-02
18090,5.19E-03,1.73E-02
18091,7.77E-03,1.66E-02
18092,6.77E-03,1.02E-02
18093,7.63E-03,1.73E-02
18094,7.12E-03,1.72E-02
18095,6.47E-03,8.42E-03
18096,5.75E-03,8.29E-03
18097,7.84E-03,8.79E-03
18098,7.35E-03,8.60E-03
18099,8.35E-03,2.09E-02
18100,7.43E-03,2.08E-02
18101,7.36E-03,2.08E-02
18102,8.96E-03,1.13E-02
18103,8.10E-03,1.70E-02
18104,7.50E-03,1.31E-02
18105,4.47E-03,1.15E-02
18106,3.82E-03,1.16E-02
18107,4.18E-03,1.16E-02
18108,2.38E-03,1.16E-02
18109,2.66E-03,1.16E-02
18110,2.89E-03,1.16E-02
18111,2.81E-03,1.16E-02
18112,2.99E-03,1.16E-02
18113,3.18E-03,1.16E-02
18114,3.37E-03,1.16E-02
18115,3.62E-03,1.16E-02
18116,3.85E-03,1.16E-02
18117,4.25E-03,1.16E-02
18118,4.51E-03,1.16E-02
18119,4.60E-03,1.16E-02
18120,4.79E-03,1.16E-02
18121,4.97E-03,1.16E-02
18122,5.13E-03,1.16E-02
18123,5.27E-03,1.16E-02
18124,5.42E-03,1.16E-02
18125,5.55E-03,1.16E-02
18126,5.68E-03,1.16E-02
18127,5.79E-03,1.16E-02
18128,5.96E-03,1.16E-02
18129,6.05E-03,1.16E-02
18130,6.21E-03,1.16E-02
18131,6.28E-03,1.16E-02
18132,6.35E-03,1.16E-02
18133,6.41E-03,1.16E-02
18134,6.48E-03,1.16E-02
18135,6.55E-03,1.16E-02
18136,6.61E-03,1.16E-02
18137,6.68E-03,1.16E-02
18138,6.77E-03,1.16E-02
18139,7.10E-03,1.17E-02
18140,7.24E-03,1.17E-02
18141,7.33E-03,1.17E-02
18142,7.39E-03,1.17E-02
18143,7.42E-03,1.17E-02
18144,7.48E-03,1.17E-02
18145,7.62E-03,1.17E-02
18146,7.65E-03,1.18E-02
18147,7.67E-03,1.18E-02
18148,7.51E-03,1.18E-02
18149,7.31E-03,1.18E-02
18150,7.39E-03,1.18E-02
18151,7.37E-03,1.43E-02
18152,8.09E-03,1.06E-02
18153,8.09E-03,1.05E-02
18154,8.09E-03,1.04E-02
18155,8.09E-03,1.02E-02
18156,8.09E-03,1.01E-02
18157,8.09E-03,9.97E-03
18158,8.09E-03,9.83E-03
18159,8.09E-03,9.69E-03
18160,8.09E-03,9.54E-03
18161,8.09E-03,9.40E-03
18162,8.09E-03,9.26E-03
18163,8.09E-03,9.11E-03
18164,8.09E-03,8.97E-03
18165,8.09E-03,8.82E-03
18166,8.09E-03,8.67E-03
18167,8.09E-03,8.52E-03
18168,8.09E-03,8.38E-03
18169,8.09E-03,8.23E-03
18170,8.09E-03,8.08E-03
18171,8.09E-03,7.94E-03
18172,8.09E-03,7.79E-03
18173,8.09E-03,7.64E-03
18174,8.03E-03,7.50E-03
18175,7.93E-03,7.35E-03
18176,7.88E-03,7.21E-03
18177,7.76E-03,7.08E-03
18178,7.66E-03,6.95E-03
18179,7.65E-03,6.81E-03
18180,8.04E-03,6.67E-03
18181,8.84E-03,6.54E-03
18182,7.92E-03,6.38E-03
18183,6.56E-03,6.27E-03
18184,6.82E-03,6.18E-03
18185,7.76E-03,2.07E-02
18186,6.50E-03,1.57E-02
18187,6.94E-03,1.73E-02
18188,7.17E-03,1.99E-02
18189,5.92E-03,2.10E-02
18190,6.26E-03,2.10E-02
18191,8.29E-03,1.47E-02
18192,8.10E-03,1.49E-02
18193,8.37E-03,1.84E-02
18194,8.48E-03,2.12E-02
18195,6.43E-03,1.96E-02
18196,6.48E-03,1.92E-02
18197,7.56E-03,1.72E-02
18198,6.45E-03,1.98E-02
18199,7.72E-03,1.72E-02
18200,8.10E-03,1.70E-02
18201,7.92E-03,5.82E-03
18202,8.10E-03,1.08E-02
18203,8.10E-03,1.09E-02
18204,7.69E-03,1.29E-02
18205,6.84E-03,1.29E-02
18206,6.56E-03,1.29E-02
18207,6.23E-03,1.29E-02
18208,8.27E-03,1.47E-02
18209,8.10E-03,1.50E-02
18210,8.57E-03,1.86E-02
18211,8.10E-03,1.12E-02
18212,8.10E-03,1.10E-02
18213,8.19E-03,1.47E-02
18214,8.27E-03,1.51E-02
18215,8.10E-03,1.13E-02
18216,8.03E-03,1.71E-02
18217,8.03E-03,1.71E-02
18218,8.10E-03,1.71E-02
18219,6.33E-03,2.00E-02
18220,8.10E-03,1.48E-02
18221,8.27E-03,1.52E-02
18222,6.67E-03,2.04E-02
18223,5.52E-03,2.15E-02
18224,6.84E-03,2.15E-02
18225,8.10E-03,1.48E-02
18226,8.18E-03,1.52E-02
18227,8.10E-03,1.71E-02
18228,8.14E-03,1.70E-02
18229,8.09E-03,1.70E-02
18230,8.11E-03,1.72E-02
18231,8.01E-03,1.72E-02
18232,7.90E-03,1.72E-02
18233,8.10E-03,1.14E-02
18234,8.10E-03,1.15E-02
18235,8.08E-03,1.53E-02
18236,8.10E-03,1.17E-02
18237,8.10E-03,1.48E-02
18238,8.10E-03,1.48E-02
18239,7.05E-03,1.55E-02
18240,5.94E-03,1.55E-02
18241,6.35E-03,1.55E-02
18242,7.91E-03,1.54E-02
18243,8.10E-03,1.48E-02
18244,8.10E-03,1.20E-02
18245,8.10E-03,1.19E-02
18246,8.10E-03,1.18E-02
18247,8.10E-03,1.48E-02
18248,8.10E-03,1.48E-02
18249,8.10E-03,1.48E-02
18250,8.10E-03,1.48E-02
18251,8.10E-03,1.48E-02
18252,8.10E-03,1.22E-02
18253,8.10E-03,1.23E-02
18254,8.10E-03,1.25E-02
18255,8.10E-03,1.24E-02
18256,8.10E-03,1.26E-02
18257,8.10E-03,1.47E-02
18258,8.10E-03,1.28E-02
18259,8.10E-03,1.47E-02
18260,8.10E-03,1.29E-02
18261,8.10E-03,1.47E-02
18262,8.10E-03,1.30E-02
18263,8.10E-03,1.46E-02
18264,8.10E-03,1.31E-02
18265,8.10E-03,1.46E-02
18266,8.10E-03,1.32E-02
18267,8.10E-03,1.33E-02
18268,8.10E-03,1.45E-02
18269,8.10E-03,1.45E-02
18270,8.10E-03,1.34E-02
18271,8.10E-03,1.44E-02
18272,8.10E-03,1.44E-02
18273,8.10E-03,1.35E-02
18274,8.10E-03,1.36E-02
18275,8.10E-03,1.43E-02
18276,8.10E-03,1.37E-02
18277,8.10E-03,1.42E-02
18278,8.10E-03,1.38E-02
18279,8.10E-03,1.39E-02
18280,8.10E-03,1.41E-02
18281,8.10E-03,1.41E-02
18282,8.10E-03,1.40E-02
18283,1.00E-02,1.68E-02
18284,6.44E-03,1.38E-02
18285,6.76E-03,1.38E-02
18286,6.92E-03,2.14E-02
18287,4.66E-03,2.13E-02
18288,6.63E-03,1.97E-02
18289,8.29E-03,1.69E-02
18290,8.27E-03,1.69E-02
18291,9.31E-03,1.92E-02
18292,9.07E-03,1.91E-02
18293,8.23E-03,1.89E-02
18294,7.25E-03,1.42E-02
18295,7.76E-03,1.41E-02
18296,7.45E-03,6.40E-03
18297,7.63E-03,6.49E-03
18298,6.73E-03,1.73E-02
18299,6.36E-03,1.72E-02
18300,7.32E-03,1.74E-02
18301,6.85E-03,1.73E-02
18302,6.38E-03,1.73E-02
18303,8.05E-03,1.67E-02
18304,7.83E-03,1.65E-02
18305,1.04E-02,1.63E-02
18306,8.17E-03,1.61E-02
18307,8.09E-03,1.58E-02
18308,8.09E-03,1.56E-02
18309,8.09E-03,1.54E-02
18310,8.09E-03,1.51E-02
18311,8.09E-03,1.49E-02
18312,8.09E-03,1.46E-02
18313,8.09E-03,1.44E-02
18314,8.15E-03,1.41E-02
18315,8.16E-03,1.39E-02
18316,8.24E-03,1.36E-02
18317,8.27E-03,1.34E-02
18318,8.18E-03,1.31E-02
18319,1.17E-02,1.28E-02
18320,8.57E-03,1.24E-02
18321,8.71E-03,1.22E-02
18322,8.80E-03,1.19E-02
18323,8.78E-03,1.16E-02
18324,8.20E-03,1.24E-02
18325,7.31E-03,1.41E-02
18326,6.17E-03,1.39E-02
18327,7.02E-03,1.49E-02
18328,1.05E-02,2.08E-02
18329,6.21E-03,1.11E-02
18330,7.47E-03,1.44E-02
18331,1.14E-02,1.44E-02
18332,8.29E-03,1.44E-02
18333,8.29E-03,1.45E-02
18334,5.08E-03,1.45E-02
18335,3.34E-03,1.45E-02
18336,3.43E-03,1.45E-02
18337,3.60E-03,1.45E-02
18338,3.46E-03,1.45E-02
18339,3.33E-03,1.45E-02
18340,3.42E-03,1.45E-02
18341,3.65E-03,1.45E-02
18342,3.90E-03,1.45E-02
18343,4.17E-03,1.45E-02
18344,4.44E-03,1.46E-02
18345,4.66E-03,1.46E-02
18346,4.79E-03,1.46E-02
18347,4.90E-03,1.46E-02
18348,5.01E-03,1.46E-02
18349,5.10E-03,1.46E-02
18350,5.18E-03,1.46E-02
18351,5.26E-03,1.46E-02
18352,5.31E-03,1.46E-02
18353,5.30E-03,1.46E-02
18354,5.25E-03,1.46E-02
18355,5.22E-03,1.46E-02
18356,5.18E-03,1.46E-02
18357,5.15E-03,1.47E-02
18358,5.10E-03,1.47E-02
18359,5.03E-03,1.47E-02
18360,4.93E-03,1.47E-02
18361,4.82E-03,1.47E-02
18362,4.72E-03,1.47E-02
18363,4.61E-03,1.47E-02
18364,4.51E-03,1.47E-02
18365,4.41E-03,1.47E-02
18366,4.32E-03,1.46E-02
18367,4.23E-03,1.46E-02
18368,4.24E-03,1.46E-02
18369,4.37E-03,1.46E-02
18370,4.55E-03,1.46E-02
18371,4.71E-03,1.46E-02
18372,4.81E-03,1.46E-02
18373,4.88E-03,1.46E-02
18374,4.95E-03,1.46E-02
18375,5.06E-03,1.46E-02
18376,5.20E-03,1.46E-02
18377,5.35E-03,1.46E-02
18378,5.56E-03,1.45E-02
18379,5.88E-03,1.45E-02
18380,6.25E-03,1.45E-02
18381,6.58E-03,1.45E-02
18382,6.84E-03,1.45E-02
18383,7.05E-03,1.44E-02
18384,7.27E-03,1.44E-02
18385,7.52E-03,1.44E-02
18386,7.78E-03,1.44E-02
18387,7.88E-03,1.43E-02
18388,7.76E-03,1.43E-02
18389,7.75E-03,1.43E-02
18390,8.15E-03,1.42E-02
18391,8.74E-03,1.42E-02
18392,9.34E-03,1.41E-02
18393,9.86E-03,1.41E-02
18394,1.01E-02,1.41E-02
18395,1.01E-02,1.40E-02
18396,1.01E-02,1.40E-02
18397,1.02E-02,1.39E-02
18398,1.03E-02,1.39E-02
18399,1.03E-02,1.38E-02
18400,1.04E-02,1.38E-02
18401,1.05E-02,1.37E-02
18402,1.06E-02,1.37E-02
18403,1.06E-02,1.36E-02
18404,1.06E-02,1.36E-02
18405,1.05E-02,1.35E-02
18406,1.03E-02,1.35E-02
18407,1.00E-02,1.34E-02
18408,9.82E-03,1.34E-02
18409,9.67E-03,1.34E-02
18410,9.56E-03,1.33E-02
18411,9.46E-03,1.33E-02
18412,9.36E-03,1.32E-02
18413,9.27E-03,1.32E-02
18414,9.20E-03,1.32E-02
18415,9.13E-03,1.31E-02
18416,9.06E-03,1.31E-02
18417,8.98E-03,1.31E-02
18418,8.86E-03,1.31E-02
18419,8.69E-03,1.30E-02
18420,8.52E-03,1.30E-02
18421,8.40E-03,1.30E-02
18422,8.32E-03,1.30E-02
18423,8.25E-03,1.29E-02
18424,8.19E-03,1.29E-02
18425,8.11E-03,1.29E-02
18426,8.04E-03,1.29E-02
18427,7.97E-03,1.28E-02
18428,7.90E-03,1.28E-02
18429,7.88E-03,1.28E-02
18430,7.90E-03,1.28E-02
18431,7.95E-03,1.28E-02
18432,7.99E-03,1.27E-02
18433,8.04E-03,1.27E-02
18434,8.09E-03,1.27E-02
18435,8.15E-03,1.27E-02
18436,8.20E-03,1.27E-02
18437,8.25E-03,1.27E-02
18438,8.27E-03,1.26E-02
18439,8.27E-03,1.26E-02
18440,8.28E-03,1.26E-02
18441,8.29E-03,1.26E-02
18442,8.37E-03,1.26E-02
18443,8.47E-03,1.26E-02
18444,8.64E-03,1.25E-02
18445,8.75E-03,1.25E-02
18446,8.90E-03,1.25E-02
18447,9.05E-03,1.25E-02
18448,9.09E-03,1.25E-02
18449,8.95E-03,1.25E-02
18450,8.75E-03,1.25E-02
18451,6.49E-03,1.20E-02
18452,8.11E-03,1.52E-02
18453,8.55E-03,1.17E-02
18454,6.22E-03,6.06E-03
18455,5.86E-03,6.16E-03
18456,8.97E-03,5.69E-03
18457,8.66E-03,5.65E-03
18458,7.69E-03,1.60E-02
18459,6.82E-03,1.61E-02
18460,8.53E-03,1.34E-02
18461,6.55E-03,1.35E-02
18462,7.06E-03,2.01E-02
18463,5.96E-03,2.01E-02
18464,6.43E-03,2.03E-02
18465,8.47E-03,2.06E-02
18466,7.60E-03,2.08E-02
18467,8.18E-03,1.46E-02
18468,8.10E-03,1.48E-02
18469,7.55E-03,1.44E-02
18470,7.25E-03,1.38E-02
18471,8.35E-03,1.80E-02
18472,7.03E-03,2.10E-02
18473,8.61E-03,2.04E-02
18474,7.03E-03,1.64E-02
18475,7.22E-03,1.61E-02
18476,8.37E-03,1.31E-02
18477,6.86E-03,1.72E-02
18478,9.93E-03,1.68E-02
18479,7.32E-03,1.67E-02
18480,7.56E-03,1.67E-02
18481,7.95E-03,1.66E-02
18482,6.94E-03,9.95E-03
18483,7.74E-03,9.67E-03
18484,7.83E-03,1.37E-02
18485,8.74E-03,1.36E-02
18486,8.33E-03,1.36E-02
18487,7.58E-03,1.35E-02
18488,7.74E-03,1.72E-02
18489,6.86E-03,1.71E-02
18490,5.35E-03,8.19E-03
18491,5.03E-03,8.10E-03
18492,4.45E-03,7.99E-03
18493,3.84E-03,7.88E-03
18494,3.21E-03,7.76E-03
18495,3.49E-03,7.67E-03
18496,3.79E-03,7.51E-03
18497,4.27E-03,7.45E-03
18498,5.23E-03,7.37E-03
18499,6.19E-03,7.27E-03
18500,6.38E-03,7.17E-03
18501,7.68E-03,7.06E-03
18502,8.19E-03,6.91E-03
18503,6.42E-03,6.91E-03
18504,7.11E-03,6.71E-03
18505,6.68E-03,8.46E-03
18506,5.87E-03,8.33E-03
18507,6.95E-03,2.11E-02
18508,7.72E-03,1.96E-02
18509,8.85E-03,1.95E-02
18510,8.49E-03,1.10E-02
18511,4.50E-03,5.65E-03
18512,8.10E-03,1.68E-02
18513,6.82E-03,6.25E-03
18514,8.13E-03,1.20E-02
18515,7.36E-03,1.51E-02
18516,7.80E-03,1.31E-02
18517,4.71E-03,1.15E-02
18518,3.59E-03,1.15E-02
18519,2.79E-03,1.15E-02
18520,2.74E-03,1.14E-02
18521,2.78E-03,1.14E-02
18522,2.80E-03,1.14E-02
18523,2.96E-03,1.14E-02
18524,3.17E-03,1.14E-02
18525,3.43E-03,1.14E-02
18526,3.54E-03,1.14E-02
18527,3.95E-03,1.14E-02
18528,4.43E-03,1.14E-02
18529,4.43E-03,1.14E-02
18530,4.67E-03,1.14E-02
18531,4.86E-03,1.14E-02
18532,5.03E-03,1.14E-02
18533,5.18E-03,1.14E-02
18534,5.33E-03,1.14E-02
18535,5.47E-03,1.14E-02
18536,5.61E-03,1.14E-02
18537,5.74E-03,1.14E-02
18538,5.88E-03,1.14E-02
18539,6.00E-03,1.14E-02
18540,6.11E-03,1.14E-02
18541,6.25E-03,1.14E-02
18542,6.31E-03,1.14E-02
18543,6.38E-03,1.14E-02
18544,6.44E-03,1.14E-02
18545,6.51E-03,1.14E-02
18546,6.57E-03,1.14E-02
18547,6.64E-03,1.14E-02
18548,6.70E-03,1.14E-02
18549,6.79E-03,1.14E-02
18550,7.05E-03,1.14E-02
18551,7.19E-03,1.15E-02
18552,7.28E-03,1.15E-02
18553,7.30E-03,1.15E-02
18554,7.36E-03,1.15E-02
18555,7.45E-03,1.15E-02
18556,7.54E-03,1.15E-02
18557,7.57E-03,1.15E-02
18558,7.54E-03,1.15E-02
18559,7.49E-03,1.15E-02
18560,7.40E-03,1.16E-02
18561,7.49E-03,1.16E-02
18562,7.28E-03,1.18E-02
18563,7.38E-03,1.43E-02
18564,5.18E-03,5.96E-03
18565,6.25E-03,6.05E-03
18566,5.31E-03,6.10E-03
18567,5.18E-03,6.15E-03
18568,5.53E-03,6.21E-03
18569,5.93E-03,6.27E-03
18570,6.44E-03,6.33E-03
18571,6.49E-03,6.37E-03
18572,6.47E-03,6.43E-03
18573,6.54E-03,6.49E-03
18574,6.69E-03,6.55E-03
18575,6.75E-03,6.62E-03
18576,6.91E-03,6.69E-03
18577,6.98E-03,6.76E-03
18578,7.09E-03,6.83E-03
18579,7.18E-03,6.90E-03
18580,7.24E-03,6.98E-03
18581,7.28E-03,7.05E-03
18582,7.38E-03,7.14E-03
18583,7.42E-03,7.22E-03
18584,7.46E-03,7.30E-03
18585,7.50E-03,7.39E-03
18586,7.53E-03,7.48E-03
18587,7.56E-03,7.58E-03
18588,7.60E-03,7.67E-03
18589,7.63E-03,7.77E-03
18590,7.65E-03,7.87E-03
18591,7.68E-03,7.97E-03
18592,7.71E-03,8.08E-03
18593,7.73E-03,8.19E-03
18594,7.76E-03,8.29E-03
18595,7.78E-03,8.41E-03
18596,7.79E-03,8.52E-03
18597,7.79E-03,8.63E-03
18598,7.79E-03,8.75E-03
18599,7.79E-03,8.87E-03
18600,7.78E-03,8.99E-03
18601,7.78E-03,9.11E-03
18602,7.78E-03,9.23E-03
18603,7.77E-03,9.36E-03
18604,7.75E-03,9.48E-03
18605,7.71E-03,9.61E-03
18606,7.68E-03,9.74E-03
18607,7.64E-03,9.87E-03
18608,7.60E-03,1.00E-02
18609,7.57E-03,1.01E-02
18610,7.53E-03,1.03E-02
18611,7.49E-03,1.04E-02
18612,7.46E-03,1.05E-02
18613,7.42E-03,1.07E-02
18614,7.36E-03,1.08E-02
18615,7.28E-03,1.09E-02
18616,7.19E-03,1.11E-02
18617,7.05E-03,1.12E-02
18618,7.00E-03,1.13E-02
18619,6.87E-03,1.15E-02
18620,6.72E-03,1.16E-02
18621,6.62E-03,1.17E-02
18622,6.34E-03,1.18E-02
18623,6.24E-03,1.19E-02
18624,6.12E-03,1.21E-02
18625,6.46E-03,1.22E-02
18626,7.21E-03,1.23E-02
18627,9.16E-03,1.25E-02
18628,9.34E-03,2.08E-02
18629,7.23E-03,1.56E-02
18630,6.86E-03,1.14E-02
18631,6.81E-03,1.72E-02
18632,8.91E-03,1.33E-02
18633,7.11E-03,2.00E-02
18634,8.67E-03,2.08E-02
18635,6.64E-03,2.10E-02
18636,8.25E-03,1.47E-02
18637,8.10E-03,1.49E-02
18638,6.63E-03,1.24E-02
18639,7.42E-03,1.47E-02
18640,5.44E-03,1.37E-02
18641,7.77E-03,1.37E-02
18642,8.31E-03,1.82E-02
18643,8.10E-03,2.12E-02
18644,8.51E-03,1.65E-02
18645,8.27E-03,1.64E-02
18646,8.21E-03,1.27E-02
18647,7.78E-03,1.66E-02
18648,8.74E-03,1.13E-02
18649,6.54E-03,1.95E-02
18650,7.33E-03,1.71E-02
18651,5.86E-03,1.99E-02
18652,6.28E-03,1.72E-02
18653,7.58E-03,1.71E-02
18654,7.81E-03,1.30E-02
18655,8.10E-03,1.69E-02
18656,8.67E-03,5.93E-03
18657,8.60E-03,1.71E-02
18658,7.97E-03,2.10E-02
18659,7.44E-03,1.42E-02
18660,8.09E-03,1.06E-02
18661,8.09E-03,1.05E-02
18662,8.09E-03,1.04E-02
18663,8.09E-03,1.02E-02
18664,8.09E-03,1.01E-02
18665,8.09E-03,9.96E-03
18666,8.09E-03,9.83E-03
18667,8.09E-03,9.69E-03
18668,8.09E-03,9.54E-03
18669,8.09E-03,9.40E-03
18670,8.09E-03,9.26E-03
18671,8.09E-03,9.11E-03
18672,8.09E-03,8.96E-03
18673,8.09E-03,8.82E-03
18674,8.09E-03,8.67E-03
18675,8.09E-03,8.52E-03
18676,8.09E-03,8.37E-03
18677,8.09E-03,8.23E-03
18678,8.09E-03,8.08E-03
18679,8.09E-03,7.93E-03
18680,8.09E-03,7.78E-03
18681,8.09E-03,7.64E-03
18682,8.09E-03,7.49E-03
18683,8.03E-03,7.35E-03
18684,7.91E-03,7.21E-03
18685,7.90E-03,7.07E-03
18686,7.88E-03,6.93E-03
18687,7.87E-03,6.79E-03
18688,8.04E-03,6.65E-03
18689,8.03E-03,6.54E-03
18690,7.83E-03,6.40E-03
18691,7.59E-03,6.29E-03
18692,7.83E-03,6.17E-03
18693,6.40E-03,6.02E-03
18694,5.58E-03,5.93E-03
18695,8.10E-03,1.08E-02
18696,9.01E-03,1.28E-02
18697,7.63E-03,6.58E-03
18698,7.10E-03,1.99E-02
18699,5.63E-03,2.12E-02
18700,8.25E-03,1.47E-02
18701,8.10E-03,1.50E-02
18702,7.48E-03,8.80E-03
18703,8.36E-03,1.85E-02
18704,6.63E-03,1.03E-02
18705,8.10E-03,1.10E-02
18706,8.10E-03,1.09E-02
18707,7.99E-03,5.78E-03
18708,7.39E-03,1.42E-02
18709,6.80E-03,1.74E-02
18710,7.98E-03,1.28E-02
18711,7.12E-03,1.28E-02
18712,6.45E-03,1.28E-02
18713,6.13E-03,1.27E-02
18714,6.19E-03,2.14E-02
18715,8.16E-03,1.47E-02
18716,8.10E-03,1.50E-02
18717,8.36E-03,1.87E-02
18718,8.10E-03,1.12E-02
18719,9.07E-03,1.71E-02
18720,8.40E-03,1.70E-02
18721,7.60E-03,5.67E-03
18722,6.65E-03,1.71E-02
18723,8.10E-03,1.69E-02
18724,6.57E-03,1.99E-02
18725,6.63E-03,2.15E-02
18726,8.10E-03,1.48E-02
18727,8.22E-03,1.51E-02
18728,7.10E-03,2.07E-02
18729,6.63E-03,2.03E-02
18730,1.02E-02,2.15E-02
18731,6.64E-03,2.17E-02
18732,8.10E-03,1.48E-02
18733,8.25E-03,1.52E-02
18734,8.10E-03,1.70E-02
18735,8.36E-03,1.70E-02
18736,8.20E-03,1.69E-02
18737,8.01E-03,1.70E-02
18738,8.00E-03,1.70E-02
18739,7.69E-03,1.71E-02
18740,8.10E-03,1.13E-02
18741,8.10E-03,1.14E-02
18742,8.11E-03,1.53E-02
18743,8.10E-03,1.16E-02
18744,8.10E-03,1.48E-02
18745,7.83E-03,1.71E-02
18746,8.25E-03,1.69E-02
18747,8.10E-03,1.48E-02
18748,8.01E-03,1.54E-02
18749,8.10E-03,1.48E-02
18750,8.17E-03,1.56E-02
18751,6.78E-03,1.55E-02
18752,7.05E-03,1.55E-02
18753,7.42E-03,1.55E-02
18754,8.10E-03,1.19E-02
18755,8.10E-03,1.18E-02
18756,8.10E-03,1.17E-02
18757,8.10E-03,1.48E-02
18758,8.10E-03,1.48E-02
18759,8.10E-03,1.48E-02
18760,8.10E-03,1.48E-02
18761,8.10E-03,1.48E-02
18762,8.10E-03,1.21E-02
18763,8.10E-03,1.22E-02
18764,8.10E-03,1.24E-02
18765,8.10E-03,1.23E-02
18766,8.10E-03,1.25E-02
18767,8.10E-03,1.48E-02
18768,8.10E-03,1.27E-02
18769,8.10E-03,1.47E-02
18770,8.10E-03,1.28E-02
18771,8.10E-03,1.47E-02
18772,8.10E-03,1.29E-02
18773,8.10E-03,1.46E-02
18774,8.10E-03,1.30E-02
18775,8.10E-03,1.46E-02
18776,8.10E-03,1.31E-02
18777,8.10E-03,1.32E-02
18778,8.10E-03,1.45E-02
18779,8.10E-03,1.45E-02
18780,8.10E-03,1.33E-02
18781,8.10E-03,1.44E-02
18782,8.10E-03,1.44E-02
18783,8.10E-03,1.34E-02
18784,8.10E-03,1.35E-02
18785,8.10E-03,1.43E-02
18786,8.10E-03,1.36E-02
18787,8.10E-03,1.42E-02
18788,8.10E-03,1.37E-02
18789,8.10E-03,1.38E-02
18790,8.10E-03,1.42E-02
18791,8.10E-03,1.41E-02
18792,8.10E-03,1.39E-02
18793,8.10E-03,1.40E-02
18794,7.47E-03,1.58E-02
18795,7.54E-03,1.70E-02
18796,8.92E-03,1.40E-02
18797,6.54E-03,1.91E-02
18798,8.45E-03,1.34E-02
18799,7.99E-03,1.35E-02
18800,5.57E-03,2.02E-02
18801,8.25E-03,2.06E-02
18802,8.20E-03,2.07E-02
18803,9.45E-03,2.07E-02
18804,1.02E-02,2.07E-02
18805,8.03E-03,2.07E-02
18806,8.10E-03,1.46E-02
18807,8.10E-03,1.46E-02
18808,8.10E-03,1.47E-02
18809,8.10E-03,1.47E-02
18810,8.10E-03,1.47E-02
18811,8.10E-03,1.48E-02
18812,8.10E-03,1.47E-02
18813,8.10E-03,1.47E-02
18814,8.10E-03,1.47E-02
18815,8.10E-03,1.47E-02
18816,7.42E-03,1.42E-02
18817,7.44E-03,1.39E-02
18818,7.53E-03,1.40E-02
18819,7.54E-03,1.39E-02
18820,8.33E-03,1.78E-02
18821,8.94E-03,1.76E-02
18822,7.18E-03,2.09E-02
18823,7.95E-03,2.05E-02
18824,7.62E-03,2.06E-02
18825,7.49E-03,2.07E-02
18826,7.37E-03,2.08E-02
18827,7.36E-03,2.09E-02
18828,6.88E-03,1.63E-02
18829,7.03E-03,1.63E-02
18830,7.11E-03,1.62E-02
18831,9.13E-03,1.38E-02
18832,8.39E-03,1.35E-02
18833,8.27E-03,1.60E-02
18834,8.74E-03,1.61E-02
18835,9.53E-03,1.66E-02
18836,8.89E-03,1.63E-02
18837,9.33E-03,1.68E-02
18838,8.01E-03,1.70E-02
18839,7.86E-03,1.67E-02
18840,7.94E-03,9.44E-03
18841,7.29E-03,9.12E-03
18842,7.45E-03,8.99E-03
18843,5.95E-03,1.36E-02
18844,6.05E-03,1.35E-02
18845,7.33E-03,1.35E-02
18846,5.12E-03,1.72E-02
18847,6.75E-03,1.72E-02
18848,7.22E-03,1.72E-02
18849,6.39E-03,1.70E-02
18850,6.39E-03,1.70E-02
18851,7.35E-03,6.81E-03
18852,5.55E-03,8.23E-03
18853,5.02E-03,8.11E-03
18854,4.36E-03,8.01E-03
18855,3.67E-03,7.90E-03
18856,3.54E-03,7.82E-03
18857,3.82E-03,7.67E-03
18858,3.95E-03,7.58E-03
18859,4.48E-03,7.51E-03
18860,4.94E-03,7.43E-03
18861,6.03E-03,7.33E-03
18862,6.80E-03,7.23E-03
18863,7.30E-03,7.11E-03
18864,7.72E-03,7.04E-03
18865,7.24E-03,6.96E-03
18866,6.31E-03,2.12E-02
18867,1.04E-02,1.97E-02
18868,8.75E-03,1.68E-02
18869,8.45E-03,1.68E-02
18870,8.46E-03,1.07E-02
18871,2.72E-03,1.05E-02
18872,4.48E-03,1.05E-02
18873,8.80E-03,1.02E-02
18874,8.10E-03,9.94E-03
18875,8.09E-03,9.67E-03
18876,8.09E-03,9.40E-03
18877,8.09E-03,9.14E-03
18878,8.09E-03,8.88E-03
18879,8.09E-03,8.63E-03
18880,8.09E-03,8.38E-03
18881,8.09E-03,8.14E-03
18882,8.09E-03,7.90E-03
18883,8.09E-03,7.68E-03
18884,8.09E-03,7.46E-03
18885,8.09E-03,7.24E-03
18886,8.09E-03,7.04E-03
18887,8.09E-03,6.85E-03
18888,8.09E-03,6.66E-03
18889,8.09E-03,6.49E-03
18890,8.09E-03,6.33E-03
18891,8.09E-03,6.18E-03
18892,8.09E-03,6.05E-03
18893,8.09E-03,5.92E-03
18894,8.09E-03,5.81E-03
18895,8.22E-03,5.71E-03
18896,8.31E-03,5.62E-03
18897,8.29E-03,5.54E-03
18898,8.14E-03,5.52E-03
18899,5.70E-03,5.53E-03
18900,4.20E-03,5.51E-03
18901,5.42E-03,5.51E-03
18902,6.44E-03,1.91E-02
18903,7.07E-03,1.90E-02
18904,8.07E-03,1.41E-02
18905,8.00E-03,1.41E-02
18906,8.00E-03,1.66E-02
18907,7.79E-03,1.64E-02
18908,1.03E-02,1.62E-02
18909,8.16E-03,1.59E-02
18910,8.09E-03,1.57E-02
18911,8.09E-03,1.55E-02
18912,8.09E-03,1.53E-02
18913,8.09E-03,1.50E-02
18914,8.09E-03,1.48E-02
18915,8.09E-03,1.45E-02
18916,8.09E-03,1.43E-02
18917,8.09E-03,1.40E-02
18918,8.10E-03,1.38E-02
18919,8.14E-03,1.35E-02
18920,8.23E-03,1.33E-02
18921,8.23E-03,1.30E-02
18922,1.16E-02,1.27E-02
18923,8.75E-03,1.24E-02
18924,8.77E-03,1.21E-02
18925,8.75E-03,1.18E-02
18926,8.75E-03,1.15E-02
18927,7.59E-03,6.36E-03
18928,7.62E-03,6.46E-03
18929,8.15E-03,1.24E-02
18930,6.91E-03,1.49E-02
18931,8.76E-03,2.10E-02
18932,8.32E-03,1.32E-02
18933,8.44E-03,1.32E-02
18934,8.23E-03,1.16E-02
18935,5.76E-03,1.22E-02
18936,6.45E-03,1.20E-02
18937,7.40E-03,1.43E-02
18938,1.13E-02,1.44E-02
18939,8.67E-03,1.44E-02
18940,7.90E-03,1.44E-02
18941,5.13E-03,1.45E-02
18942,3.42E-03,1.45E-02
18943,3.51E-03,1.45E-02
18944,3.67E-03,1.45E-02
18945,3.54E-03,1.45E-02
18946,3.41E-03,1.45E-02
18947,3.50E-03,1.45E-02
18948,3.73E-03,1.45E-02
18949,3.97E-03,1.45E-02
18950,4.24E-03,1.45E-02
18951,4.50E-03,1.45E-02
18952,4.71E-03,1.45E-02
18953,4.85E-03,1.46E-02
18954,4.95E-03,1.46E-02
18955,5.06E-03,1.46E-02
18956,5.15E-03,1.46E-02
18957,5.23E-03,1.46E-02
18958,5.31E-03,1.46E-02
18959,5.35E-03,1.46E-02
18960,5.35E-03,1.46E-02
18961,5.30E-03,1.46E-02
18962,5.27E-03,1.46E-02
18963,5.23E-03,1.47E-02
18964,5.20E-03,1.47E-02
18965,5.15E-03,1.47E-02
18966,5.08E-03,1.47E-02
18967,4.98E-03,1.47E-02
18968,4.88E-03,1.47E-02
18969,4.77E-03,1.47E-02
18970,4.67E-03,1.47E-02
18971,4.57E-03,1.47E-02
18972,4.47E-03,1.47E-02
18973,4.38E-03,1.47E-02
18974,4.30E-03,1.47E-02
18975,4.30E-03,1.47E-02
18976,4.43E-03,1.47E-02
18977,4.61E-03,1.46E-02
18978,4.77E-03,1.46E-02
18979,4.87E-03,1.46E-02
18980,4.93E-03,1.46E-02
18981,5.01E-03,1.46E-02
18982,5.11E-03,1.46E-02
18983,5.25E-03,1.46E-02
18984,5.40E-03,1.46E-02
18985,5.60E-03,1.46E-02
18986,5.91E-03,1.46E-02
18987,6.28E-03,1.45E-02
18988,6.61E-03,1.45E-02
18989,6.86E-03,1.45E-02
18990,7.07E-03,1.45E-02
18991,7.29E-03,1.45E-02
18992,7.53E-03,1.44E-02
18993,7.78E-03,1.44E-02
18994,7.89E-03,1.44E-02
18995,7.77E-03,1.43E-02
18996,7.76E-03,1.43E-02
18997,8.15E-03,1.43E-02
18998,8.73E-03,1.42E-02
18999,9.32E-03,1.42E-02
19000,9.83E-03,1.42E-02
19001,1.01E-02,1.41E-02
19002,1.01E-02,1.41E-02
19003,1.01E-02,1.40E-02
19004,1.01E-02,1.40E-02
19005,1.02E-02,1.39E-02
19006,1.03E-02,1.39E-02
19007,1.04E-02,1.38E-02
19008,1.05E-02,1.38E-02
19009,1.05E-02,1.37E-02
19010,1.06E-02,1.37E-02
19011,1.06E-02,1.37E-02
19012,1.04E-02,1.36E-02
19013,1.02E-02,1.36E-02
19014,9.99E-03,1.35E-02
19015,9.79E-03,1.35E-02
19016,9.64E-03,1.35E-02
19017,9.54E-03,1.34E-02
19018,9.44E-03,1.34E-02
19019,9.34E-03,1.33E-02
19020,9.25E-03,1.33E-02
19021,9.18E-03,1.33E-02
19022,9.11E-03,1.33E-02
19023,9.04E-03,1.32E-02
19024,8.97E-03,1.32E-02
19025,8.85E-03,1.32E-02
19026,8.68E-03,1.32E-02
19027,8.51E-03,1.31E-02
19028,8.39E-03,1.31E-02
19029,8.31E-03,1.31E-02
19030,8.25E-03,1.31E-02
19031,8.19E-03,1.30E-02
19032,8.11E-03,1.30E-02
19033,8.05E-03,1.30E-02
19034,7.97E-03,1.30E-02
19035,7.91E-03,1.30E-02
19036,7.88E-03,1.29E-02
19037,7.91E-03,1.29E-02
19038,7.95E-03,1.29E-02
19039,7.99E-03,1.29E-02
19040,8.04E-03,1.29E-02
19041,8.09E-03,1.29E-02
19042,8.15E-03,1.28E-02
19043,8.20E-03,1.28E-02
19044,8.24E-03,1.28E-02
19045,8.27E-03,1.28E-02
19046,8.27E-03,1.28E-02
19047,8.28E-03,1.28E-02
19048,8.29E-03,1.27E-02
19049,8.36E-03,1.27E-02
19050,8.60E-03,1.27E-02
19051,8.68E-03,1.27E-02
19052,8.72E-03,1.27E-02
19053,8.98E-03,1.27E-02
19054,9.05E-03,1.27E-02
19055,9.06E-03,1.27E-02
19056,9.05E-03,1.27E-02
19057,9.12E-03,1.27E-02
19058,8.85E-03,1.54E-02
19059,5.19E-03,1.11E-02
19060,6.38E-03,1.12E-02
19061,7.56E-03,1.17E-02
19062,5.83E-03,6.10E-03
19063,5.91E-03,6.19E-03
19064,6.65E-03,1.72E-02
19065,5.86E-03,1.71E-02
19066,7.97E-03,1.46E-02
19067,2.15E-03,1.48E-02
19068,2.86E-03,1.49E-02
19069,2.93E-03,1.51E-02
19070,3.21E-03,1.52E-02
19071,3.49E-03,1.54E-02
19072,4.12E-03,1.56E-02
19073,5.31E-03,1.58E-02
19074,8.75E-03,1.33E-02
19075,6.90E-03,2.01E-02
19076,8.43E-03,2.08E-02
19077,6.66E-03,2.10E-02
19078,8.17E-03,1.47E-02
19079,8.10E-03,1.48E-02
19080,6.58E-03,1.25E-02
19081,7.42E-03,1.45E-02
19082,7.16E-03,1.26E-02
19083,7.68E-03,1.28E-02
19084,7.53E-03,1.30E-02
19085,7.41E-03,1.33E-02
19086,7.91E-03,1.35E-02
19087,6.01E-03,1.37E-02
19088,7.27E-03,1.38E-02
19089,8.03E-03,1.81E-02
19090,7.52E-03,2.11E-02
19091,7.16E-03,2.03E-02
19092,7.64E-03,2.05E-02
19093,7.16E-03,1.64E-02
19094,8.19E-03,1.31E-02
19095,8.91E-03,1.66E-02
19096,5.65E-03,1.67E-02
19097,7.71E-03,1.67E-02
19098,7.72E-03,1.66E-02
19099,9.69E-03,1.94E-02
19100,8.55E-03,1.10E-02
19101,7.27E-03,1.90E-02
19102,7.62E-03,1.88E-02
19103,7.69E-03,1.86E-02
19104,7.75E-03,1.85E-02
19105,7.97E-03,1.83E-02
19106,8.12E-03,1.81E-02
19107,7.88E-03,1.79E-02
19108,7.62E-03,1.77E-02
19109,7.32E-03,1.76E-02
19110,7.20E-03,1.74E-02
19111,6.99E-03,1.72E-02
19112,6.79E-03,1.71E-02
19113,6.37E-03,1.69E-02
19114,6.21E-03,1.67E-02
19115,6.16E-03,1.64E-02
19116,7.02E-03,1.62E-02
19117,6.54E-03,1.60E-02
19118,6.73E-03,1.94E-02
19119,5.28E-03,1.22E-02
19120,6.65E-03,1.25E-02
19121,6.46E-03,1.34E-02
19122,7.37E-03,1.71E-02
19123,7.13E-03,1.99E-02
19124,6.54E-03,1.71E-02
19125,6.94E-03,1.70E-02
19126,7.98E-03,1.61E-02
19127,7.66E-03,1.61E-02
19128,7.01E-03,1.60E-02
19129,7.91E-03,1.30E-02
19130,8.10E-03,1.67E-02
19131,6.61E-03,5.97E-03
19132,7.02E-03,6.26E-03
19133,8.07E-03,1.20E-02
19134,7.31E-03,1.14E-02
19135,7.46E-03,1.70E-02
19136,8.30E-03,2.11E-02
19137,7.89E-03,1.52E-02
19138,7.40E-03,1.43E-02
19139,4.46E-03,5.87E-03
19140,4.47E-03,5.91E-03
19141,4.87E-03,5.94E-03
19142,5.35E-03,6.01E-03
19143,5.51E-03,6.04E-03
19144,5.56E-03,6.08E-03
19145,5.79E-03,6.13E-03
19146,6.01E-03,6.18E-03
19147,6.27E-03,6.24E-03
19148,6.38E-03,6.29E-03
19149,6.49E-03,6.34E-03
19150,6.60E-03,6.40E-03
19151,6.73E-03,6.46E-03
19152,6.81E-03,6.53E-03
19153,6.97E-03,6.59E-03
19154,7.07E-03,6.66E-03
19155,7.19E-03,6.73E-03
19156,7.24E-03,6.81E-03
19157,7.29E-03,6.88E-03
19158,7.34E-03,6.96E-03
19159,7.39E-03,7.04E-03
19160,7.44E-03,7.12E-03
19161,7.47E-03,7.21E-03
19162,7.51E-03,7.30E-03
19163,7.54E-03,7.39E-03
19164,7.57E-03,7.48E-03
19165,7.61E-03,7.58E-03
19166,7.64E-03,7.67E-03
19167,7.66E-03,7.78E-03
19168,7.69E-03,7.88E-03
19169,7.71E-03,7.98E-03
19170,7.74E-03,8.09E-03
19171,7.76E-03,8.20E-03
19172,7.78E-03,8.31E-03
19173,7.79E-03,8.43E-03
19174,7.79E-03,8.54E-03
19175,7.79E-03,8.66E-03
19176,7.79E-03,8.78E-03
19177,7.79E-03,8.90E-03
19178,7.79E-03,9.02E-03
19179,7.79E-03,9.15E-03
19180,7.78E-03,9.27E-03
19181,7.75E-03,9.40E-03
19182,7.72E-03,9.53E-03
19183,7.68E-03,9.66E-03
19184,7.65E-03,9.79E-03
19185,7.61E-03,9.92E-03
19186,7.57E-03,1.00E-02
19187,7.54E-03,1.02E-02
19188,7.50E-03,1.03E-02
19189,7.47E-03,1.04E-02
19190,7.43E-03,1.06E-02
19191,7.38E-03,1.07E-02
19192,7.30E-03,1.09E-02
19193,7.20E-03,1.10E-02
19194,7.11E-03,1.11E-02
19195,7.02E-03,1.13E-02
19196,6.83E-03,1.14E-02
19197,6.74E-03,1.15E-02
19198,6.65E-03,1.16E-02
19199,6.48E-03,1.18E-02
19200,6.40E-03,1.19E-02
19201,6.45E-03,1.20E-02
19202,6.63E-03,1.22E-02
19203,7.12E-03,1.23E-02
19204,8.06E-03,1.24E-02
19205,6.32E-03,1.25E-02
19206,8.09E-03,1.06E-02
19207,8.09E-03,1.05E-02
19208,8.09E-03,1.04E-02
19209,8.09E-03,1.02E-02
19210,8.09E-03,1.01E-02
19211,8.09E-03,9.97E-03
19212,8.09E-03,9.83E-03
19213,8.09E-03,9.69E-03
19214,8.09E-03,9.54E-03
19215,8.09E-03,9.40E-03
19216,8.09E-03,9.26E-03
19217,8.09E-03,9.11E-03
19218,8.09E-03,8.96E-03
19219,8.09E-03,8.82E-03
19220,8.09E-03,8.67E-03
19221,8.09E-03,8.52E-03
19222,8.09E-03,8.37E-03
19223,8.09E-03,8.23E-03
19224,8.09E-03,8.08E-03
19225,8.09E-03,7.93E-03
19226,8.09E-03,7.78E-03
19227,8.09E-03,7.63E-03
19228,8.09E-03,7.49E-03
19229,8.09E-03,7.34E-03
19230,8.03E-03,7.20E-03
19231,7.96E-03,7.06E-03
19232,7.95E-03,6.92E-03
19233,8.00E-03,6.78E-03
19234,8.03E-03,6.65E-03
19235,7.98E-03,6.52E-03
19236,7.84E-03,6.40E-03
19237,7.72E-03,6.27E-03
19238,7.49E-03,6.16E-03
19239,7.30E-03,6.03E-03
19240,7.51E-03,5.94E-03
19241,7.73E-03,5.81E-03
19242,7.31E-03,1.18E-02
19243,9.47E-03,1.28E-02
19244,9.51E-03,1.27E-02
19245,9.95E-03,1.27E-02
19246,1.05E-02,1.26E-02
19247,1.09E-02,1.25E-02
19248,1.09E-02,1.25E-02
19249,1.08E-02,1.24E-02
19250,1.01E-02,1.24E-02
19251,9.88E-03,1.23E-02
19252,8.98E-03,1.22E-02
19253,8.52E-03,1.21E-02
19254,8.15E-03,1.21E-02
19255,7.33E-03,1.20E-02
19256,7.06E-03,1.20E-02
19257,6.74E-03,1.19E-02
19258,6.42E-03,1.19E-02
19259,6.06E-03,1.18E-02
19260,5.72E-03,1.18E-02
19261,5.42E-03,1.17E-02
19262,5.14E-03,1.17E-02
19263,4.87E-03,1.17E-02
19264,4.64E-03,1.16E-02
19265,4.29E-03,1.16E-02
19266,3.97E-03,1.16E-02
19267,3.65E-03,1.15E-02
19268,3.33E-03,1.15E-02
19269,3.02E-03,1.15E-02
19270,2.85E-03,1.15E-02
19271,2.77E-03,1.15E-02
19272,2.76E-03,1.14E-02
19273,2.74E-03,1.14E-02
19274,3.05E-03,1.14E-02
19275,3.28E-03,1.14E-02
19276,3.50E-03,1.14E-02
19277,4.33E-03,1.13E-02
19278,3.08E-03,1.13E-02
19279,2.98E-03,1.13E-02
19280,2.82E-03,1.13E-02
19281,2.72E-03,1.13E-02
19282,2.81E-03,1.13E-02
19283,2.99E-03,1.12E-02
19284,3.19E-03,1.12E-02
19285,3.37E-03,1.12E-02
19286,3.65E-03,1.12E-02
19287,4.10E-03,1.12E-02
19288,4.46E-03,1.12E-02
19289,4.54E-03,1.12E-02
19290,4.79E-03,1.12E-02
19291,4.95E-03,1.12E-02
19292,5.10E-03,1.12E-02
19293,5.25E-03,1.12E-02
19294,5.39E-03,1.12E-02
19295,5.52E-03,1.12E-02
19296,5.66E-03,1.12E-02
19297,5.80E-03,1.12E-02
19298,5.93E-03,1.12E-02
19299,6.07E-03,1.12E-02
19300,6.19E-03,1.12E-02
19301,6.28E-03,1.12E-02
19302,6.34E-03,1.12E-02
19303,6.41E-03,1.12E-02
19304,6.47E-03,1.12E-02
19305,6.53E-03,1.12E-02
19306,6.60E-03,1.12E-02
19307,6.66E-03,1.12E-02
19308,6.73E-03,1.12E-02
19309,6.81E-03,1.12E-02
19310,7.05E-03,1.12E-02
19311,7.14E-03,1.12E-02
19312,7.24E-03,1.12E-02
19313,7.29E-03,1.13E-02
19314,7.36E-03,1.13E-02
19315,7.43E-03,1.13E-02
19316,7.49E-03,1.13E-02
19317,7.54E-03,1.13E-02
19318,7.47E-03,1.13E-02
19319,7.39E-03,1.13E-02
19320,7.37E-03,1.13E-02
19321,7.32E-03,1.14E-02
19322,7.72E-03,1.14E-02
19323,7.82E-03,6.66E-03
19324,8.55E-03,1.32E-02
19325,7.28E-03,2.00E-02
19326,8.27E-03,2.10E-02
19327,6.18E-03,2.12E-02
19328,8.16E-03,1.47E-02
19329,8.10E-03,1.49E-02
19330,7.36E-03,1.48E-02
19331,5.85E-03,1.36E-02
19332,4.45E-03,1.36E-02
19333,7.46E-03,1.37E-02
19334,6.83E-03,8.49E-03
19335,6.03E-03,8.36E-03
19336,8.29E-03,1.83E-02
19337,8.04E-03,1.29E-02
19338,8.14E-03,2.14E-02
19339,7.06E-03,1.65E-02
19340,7.04E-03,1.64E-02
19341,6.48E-03,1.04E-02
19342,8.10E-03,1.09E-02
19343,8.10E-03,1.08E-02
19344,7.71E-03,5.84E-03
19345,7.57E-03,1.42E-02
19346,8.39E-03,2.12E-02
19347,8.10E-03,1.27E-02
19348,7.43E-03,1.65E-02
19349,7.67E-03,1.27E-02
19350,6.73E-03,1.26E-02
19351,6.27E-03,1.26E-02
19352,7.21E-03,2.00E-02
19353,5.94E-03,2.14E-02
19354,8.10E-03,1.48E-02
19355,8.10E-03,1.50E-02
19356,7.07E-03,1.00E-02
19357,8.62E-03,9.79E-03
19358,8.31E-03,1.86E-02
19359,6.70E-03,1.76E-02
19360,6.74E-03,1.75E-02
19361,8.55E-03,1.27E-02
19362,8.10E-03,1.10E-02
19363,9.21E-03,1.70E-02
19364,8.66E-03,1.70E-02
19365,7.63E-03,5.73E-03
19366,5.05E-03,1.70E-02
19367,6.73E-03,1.70E-02
19368,5.07E-03,1.71E-02
19369,6.06E-03,1.70E-02
19370,7.35E-03,1.67E-02
19371,8.10E-03,1.67E-02
19372,7.89E-03,6.55E-03
19373,8.68E-03,1.12E-02
19374,9.30E-03,1.27E-02
19375,6.69E-03,1.98E-02
19376,7.70E-03,1.41E-02
19377,6.49E-03,2.16E-02
19378,8.10E-03,1.48E-02
19379,8.10E-03,1.51E-02
19380,6.89E-03,2.06E-02
19381,6.73E-03,2.02E-02
19382,8.04E-03,1.88E-02
19383,6.67E-03,2.17E-02
19384,8.10E-03,1.48E-02
19385,8.17E-03,1.52E-02
19386,7.35E-03,2.10E-02
19387,8.10E-03,1.68E-02
19388,8.47E-03,1.70E-02
19389,8.33E-03,1.69E-02
19390,8.04E-03,1.68E-02
19391,8.00E-03,1.69E-02
19392,6.30E-03,5.62E-03
19393,7.40E-03,1.70E-02
19394,8.10E-03,1.12E-02
19395,8.10E-03,1.13E-02
19396,9.28E-03,2.17E-02
19397,8.32E-03,2.18E-02
19398,8.19E-03,1.53E-02
19399,8.10E-03,1.14E-02
19400,8.10E-03,1.48E-02
19401,7.62E-03,1.70E-02
19402,8.32E-03,1.69E-02
19403,7.83E-03,1.69E-02
19404,8.41E-03,1.68E-02
19405,8.10E-03,1.48E-02
19406,7.95E-03,1.54E-02
19407,8.10E-03,1.48E-02
19408,7.72E-03,1.54E-02
19409,8.10E-03,1.18E-02
19410,8.10E-03,1.17E-02
19411,8.10E-03,1.16E-02
19412,8.90E-03,1.56E-02
19413,7.35E-03,1.56E-02
19414,7.38E-03,1.56E-02
19415,7.45E-03,1.55E-02
19416,8.10E-03,1.48E-02
19417,8.10E-03,1.48E-02
19418,8.10E-03,1.48E-02
19419,8.10E-03,1.48E-02
19420,8.10E-03,1.48E-02
19421,8.10E-03,1.19E-02
19422,8.10E-03,1.21E-02
19423,8.10E-03,1.23E-02
19424,8.10E-03,1.22E-02
19425,8.10E-03,1.24E-02
19426,8.10E-03,1.48E-02
19427,8.10E-03,1.26E-02
19428,8.10E-03,1.47E-02
19429,8.10E-03,1.27E-02
19430,8.10E-03,1.47E-02
19431,8.10E-03,1.28E-02
19432,8.10E-03,1.47E-02
19433,8.10E-03,1.29E-02
19434,8.10E-03,1.46E-02
19435,8.10E-03,1.30E-02
19436,8.10E-03,1.31E-02
19437,8.10E-03,1.46E-02
19438,8.10E-03,1.45E-02
19439,8.10E-03,1.33E-02
19440,8.10E-03,1.45E-02
19441,8.10E-03,1.44E-02
19442,8.10E-03,1.34E-02
19443,8.10E-03,1.35E-02
19444,8.10E-03,1.43E-02
19445,8.10E-03,1.36E-02
19446,8.10E-03,1.43E-02
19447,8.10E-03,1.37E-02
19448,8.10E-03,1.38E-02
19449,8.10E-03,1.42E-02
19450,8.10E-03,1.41E-02
19451,8.10E-03,1.39E-02
19452,8.10E-03,1.39E-02
19453,8.10E-03,1.40E-02
19454,8.17E-03,1.33E-02
19455,6.13E-03,1.35E-02
19456,8.43E-03,1.34E-02
19457,7.85E-03,1.34E-02
19458,6.92E-03,2.02E-02
19459,8.26E-03,2.08E-02
19460,8.21E-03,2.09E-02
19461,1.00E-02,2.09E-02
19462,9.92E-03,2.10E-02
19463,7.95E-03,2.09E-02
19464,8.10E-03,1.47E-02
19465,8.10E-03,1.47E-02
19466,8.10E-03,1.47E-02
19467,8.10E-03,1.47E-02
19468,8.10E-03,1.47E-02
19469,8.10E-03,1.48E-02
19470,8.10E-03,1.48E-02
19471,8.10E-03,1.48E-02
19472,8.10E-03,1.48E-02
19473,8.10E-03,1.48E-02
19474,5.84E-03,1.25E-02
19475,7.24E-03,1.43E-02
19476,6.87E-03,1.41E-02
19477,6.71E-03,1.39E-02
19478,6.92E-03,1.37E-02
19479,7.27E-03,1.35E-02
19480,6.96E-03,1.27E-02
19481,7.64E-03,1.29E-02
19482,7.76E-03,1.31E-02
19483,7.60E-03,1.33E-02
19484,7.23E-03,1.38E-02
19485,7.09E-03,1.39E-02
19486,7.33E-03,1.39E-02
19487,7.81E-03,1.79E-02
19488,7.19E-03,1.78E-02
19489,7.51E-03,2.10E-02
19490,8.03E-03,2.06E-02
19491,7.66E-03,2.07E-02
19492,7.49E-03,2.08E-02
19493,7.54E-03,2.09E-02
19494,7.55E-03,2.10E-02
19495,7.02E-03,1.63E-02
19496,6.95E-03,1.63E-02
19497,7.08E-03,1.62E-02
19498,6.90E-03,1.12E-02
19499,5.98E-03,1.11E-02
19500,5.97E-03,1.35E-02
19501,4.82E-03,1.35E-02
19502,8.05E-03,1.37E-02
19503,8.15E-03,1.34E-02
19504,8.76E-03,1.56E-02
19505,8.99E-03,1.58E-02
19506,8.34E-03,1.60E-02
19507,8.50E-03,1.62E-02
19508,8.68E-03,1.64E-02
19509,8.93E-03,1.68E-02
19510,7.71E-03,1.66E-02
19511,7.42E-03,9.32E-03
19512,6.59E-03,9.12E-03
19513,6.78E-03,8.97E-03
19514,6.96E-03,8.83E-03
19515,4.70E-03,1.91E-02
19516,6.78E-03,1.92E-02
19517,8.45E-03,1.07E-02
19518,2.82E-03,1.05E-02
19519,4.56E-03,1.04E-02
19520,8.77E-03,1.02E-02
19521,8.10E-03,9.86E-03
19522,8.09E-03,9.60E-03
19523,8.09E-03,9.33E-03
19524,8.09E-03,9.07E-03
19525,8.09E-03,8.81E-03
19526,8.09E-03,8.56E-03
19527,8.09E-03,8.32E-03
19528,8.09E-03,8.07E-03
19529,8.09E-03,7.84E-03
19530,8.09E-03,7.61E-03
19531,8.09E-03,7.39E-03
19532,8.09E-03,7.18E-03
19533,8.09E-03,6.97E-03
19534,8.09E-03,6.78E-03
19535,8.09E-03,6.60E-03
19536,8.09E-03,6.42E-03
19537,8.09E-03,6.26E-03
19538,8.09E-03,6.11E-03
19539,8.09E-03,5.97E-03
19540,8.09E-03,5.84E-03
19541,8.09E-03,5.73E-03
19542,8.17E-03,5.63E-03
19543,8.15E-03,5.54E-03
19544,8.06E-03,5.46E-03
19545,7.92E-03,5.42E-03
19546,7.31E-03,5.40E-03
19547,7.97E-03,5.40E-03
19548,7.08E-03,1.46E-02
19549,2.16E-03,1.48E-02
19550,2.82E-03,1.50E-02
19551,3.01E-03,1.51E-02
19552,3.25E-03,1.53E-02
19553,3.29E-03,1.54E-02
19554,4.23E-03,1.56E-02
19555,4.31E-03,1.59E-02
19556,5.02E-03,1.60E-02
19557,6.94E-03,1.92E-02
19558,7.74E-03,1.91E-02
19559,7.68E-03,1.89E-02
19560,7.83E-03,1.88E-02
19561,7.90E-03,1.86E-02
19562,8.07E-03,1.84E-02
19563,8.06E-03,1.82E-02
19564,7.37E-03,1.81E-02
19565,7.25E-03,1.79E-02
19566,7.18E-03,1.77E-02
19567,6.93E-03,1.75E-02
19568,6.82E-03,1.73E-02
19569,6.70E-03,1.72E-02
19570,6.87E-03,1.70E-02
19571,6.75E-03,1.67E-02
19572,5.63E-03,1.64E-02
19573,7.93E-03,1.70E-02
19574,7.37E-03,1.71E-02
19575,7.33E-03,1.70E-02
19576,9.11E-03,1.68E-02
19577,8.78E-03,1.68E-02
19578,5.84E-03,1.61E-02
19579,5.03E-03,1.60E-02
19580,8.04E-03,1.31E-02
19581,7.90E-03,1.31E-02
19582,6.36E-03,5.45E-03
19583,7.97E-03,1.65E-02
19584,7.73E-03,1.63E-02
19585,1.02E-02,1.61E-02
19586,8.16E-03,1.58E-02
19587,8.09E-03,1.56E-02
19588,8.09E-03,1.54E-02
19589,8.09E-03,1.52E-02
19590,8.09E-03,1.49E-02
19591,8.09E-03,1.47E-02
19592,8.09E-03,1.44E-02
19593,8.09E-03,1.42E-02
19594,8.09E-03,1.39E-02
19595,8.10E-03,1.37E-02
19596,8.09E-03,1.34E-02
19597,8.23E-03,1.32E-02
19598,8.23E-03,1.29E-02
19599,1.15E-02,1.26E-02
19600,8.85E-03,1.23E-02
19601,8.84E-03,1.20E-02
19602,8.82E-03,1.17E-02
19603,8.60E-03,1.14E-02
19604,5.91E-03,6.05E-03
19605,6.87E-03,6.16E-03
19606,7.90E-03,1.40E-02
19607,7.62E-03,6.34E-03
19608,7.70E-03,6.44E-03
19609,8.10E-03,1.23E-02
19610,7.82E-03,1.17E-02
19611,7.05E-03,1.70E-02
19612,6.93E-03,1.69E-02
19613,7.45E-03,1.69E-02
19614,8.21E-03,2.12E-02
19615,7.69E-03,1.50E-02
19616,7.43E-03,1.43E-02
19617,1.12E-02,1.43E-02
19618,8.85E-03,1.44E-02
19619,7.71E-03,1.44E-02
19620,5.18E-03,1.44E-02
19621,3.50E-03,1.44E-02
19622,3.59E-03,1.44E-02
19623,3.75E-03,1.45E-02
19624,3.62E-03,1.45E-02
19625,3.49E-03,1.45E-02
19626,3.58E-03,1.45E-02
19627,3.80E-03,1.45E-02
19628,4.04E-03,1.45E-02
19629,4.31E-03,1.45E-02
19630,4.57E-03,1.45E-02
19631,4.77E-03,1.45E-02
19632,4.90E-03,1.45E-02
19633,5.01E-03,1.46E-02
19634,5.11E-03,1.46E-02
19635,5.20E-03,1.46E-02
19636,5.28E-03,1.46E-02
19637,5.36E-03,1.46E-02
19638,5.40E-03,1.46E-02
19639,5.40E-03,1.46E-02
19640,5.35E-03,1.46E-02
19641,5.32E-03,1.46E-02
19642,5.28E-03,1.47E-02
19643,5.25E-03,1.47E-02
19644,5.21E-03,1.47E-02
19645,5.13E-03,1.47E-02
19646,5.03E-03,1.47E-02
19647,4.93E-03,1.47E-02
19648,4.83E-03,1.47E-02
19649,4.73E-03,1.47E-02
19650,4.63E-03,1.47E-02
19651,4.53E-03,1.47E-02
19652,4.45E-03,1.47E-02
19653,4.37E-03,1.47E-02
19654,4.37E-03,1.47E-02
19655,4.50E-03,1.47E-02
19656,4.67E-03,1.47E-02
19657,4.82E-03,1.47E-02
19658,4.92E-03,1.47E-02
19659,4.99E-03,1.47E-02
19660,5.06E-03,1.46E-02
19661,5.16E-03,1.46E-02
19662,5.30E-03,1.46E-02
19663,5.45E-03,1.46E-02
19664,5.64E-03,1.46E-02
19665,5.95E-03,1.46E-02
19666,6.31E-03,1.46E-02
19667,6.63E-03,1.46E-02
19668,6.88E-03,1.45E-02
19669,7.09E-03,1.45E-02
19670,7.30E-03,1.45E-02
19671,7.54E-03,1.45E-02
19672,7.79E-03,1.44E-02
19673,7.89E-03,1.44E-02
19674,7.77E-03,1.44E-02
19675,7.76E-03,1.44E-02
19676,8.15E-03,1.43E-02
19677,8.72E-03,1.43E-02
19678,9.30E-03,1.42E-02
19679,9.80E-03,1.42E-02
19680,1.00E-02,1.42E-02
19681,1.00E-02,1.41E-02
19682,1.00E-02,1.41E-02
19683,1.01E-02,1.40E-02
19684,1.02E-02,1.40E-02
19685,1.03E-02,1.39E-02
19686,1.03E-02,1.39E-02
19687,1.04E-02,1.39E-02
19688,1.05E-02,1.38E-02
19689,1.05E-02,1.38E-02
19690,1.05E-02,1.37E-02
19691,1.04E-02,1.37E-02
19692,1.02E-02,1.37E-02
19693,9.96E-03,1.36E-02
19694,9.76E-03,1.36E-02
19695,9.62E-03,1.35E-02
19696,9.51E-03,1.35E-02
19697,9.41E-03,1.35E-02
19698,9.32E-03,1.35E-02
19699,9.23E-03,1.34E-02
19700,9.16E-03,1.34E-02
19701,9.10E-03,1.34E-02
19702,9.03E-03,1.33E-02
19703,8.95E-03,1.33E-02
19704,8.84E-03,1.33E-02
19705,8.67E-03,1.33E-02
19706,8.51E-03,1.33E-02
19707,8.39E-03,1.32E-02
19708,8.31E-03,1.32E-02
19709,8.24E-03,1.32E-02
19710,8.18E-03,1.32E-02
19711,8.11E-03,1.32E-02
19712,8.05E-03,1.31E-02
19713,7.98E-03,1.31E-02
19714,7.91E-03,1.31E-02
19715,7.88E-03,1.31E-02
19716,7.91E-03,1.31E-02
19717,7.95E-03,1.31E-02
19718,8.00E-03,1.30E-02
19719,8.05E-03,1.30E-02
19720,8.09E-03,1.30E-02
19721,8.15E-03,1.30E-02
19722,8.20E-03,1.30E-02
19723,8.24E-03,1.30E-02
19724,8.26E-03,1.30E-02
19725,8.27E-03,1.29E-02
19726,8.27E-03,1.29E-02
19727,8.29E-03,1.29E-02
19728,8.35E-03,1.29E-02
19729,8.60E-03,1.29E-02
19730,8.64E-03,1.29E-02
19731,8.86E-03,1.29E-02
19732,8.94E-03,1.29E-02
19733,9.07E-03,1.29E-02
19734,9.12E-03,1.29E-02
19735,9.25E-03,1.28E-02
19736,9.32E-03,1.28E-02
19737,5.17E-03,1.24E-02
19738,6.46E-03,1.23E-02
19739,6.83E-03,1.22E-02
19740,6.67E-03,1.21E-02
19741,6.61E-03,1.20E-02
19742,6.51E-03,1.18E-02
19743,6.59E-03,1.17E-02
19744,6.68E-03,1.16E-02
19745,6.79E-03,1.15E-02
19746,6.89E-03,1.13E-02
19747,7.00E-03,1.12E-02
19748,7.13E-03,1.11E-02
19749,7.22E-03,1.09E-02
19750,7.31E-03,1.08E-02
19751,7.39E-03,1.06E-02
19752,7.44E-03,1.05E-02
19753,7.48E-03,1.04E-02
19754,7.51E-03,1.02E-02
19755,7.55E-03,1.01E-02
19756,7.58E-03,9.97E-03
19757,7.62E-03,9.84E-03
19758,7.65E-03,9.70E-03
19759,7.69E-03,9.57E-03
19760,7.73E-03,9.44E-03
19761,7.76E-03,9.31E-03
19762,7.78E-03,9.18E-03
19763,7.79E-03,9.06E-03
19764,7.79E-03,8.93E-03
19765,7.79E-03,8.81E-03
19766,7.80E-03,8.69E-03
19767,7.80E-03,8.57E-03
19768,7.80E-03,8.45E-03
19769,7.80E-03,8.33E-03
19770,7.79E-03,8.22E-03
19771,7.77E-03,8.11E-03
19772,7.74E-03,8.00E-03
19773,7.72E-03,7.89E-03
19774,7.69E-03,7.78E-03
19775,7.67E-03,7.68E-03
19776,7.64E-03,7.58E-03
19777,7.61E-03,7.48E-03
19778,7.58E-03,7.39E-03
19779,7.55E-03,7.29E-03
19780,7.51E-03,7.20E-03
19781,7.48E-03,7.11E-03
19782,7.45E-03,7.03E-03
19783,7.41E-03,6.95E-03
19784,7.36E-03,6.87E-03
19785,7.31E-03,6.79E-03
19786,7.26E-03,6.71E-03
19787,7.21E-03,6.64E-03
19788,7.16E-03,6.57E-03
19789,7.05E-03,6.50E-03
19790,6.89E-03,6.44E-03
19791,6.77E-03,6.38E-03
19792,6.65E-03,6.32E-03
19793,6.55E-03,6.26E-03
19794,6.37E-03,6.21E-03
19795,6.21E-03,6.15E-03
19796,6.05E-03,6.10E-03
19797,5.93E-03,6.06E-03
19798,5.67E-03,6.02E-03
19799,5.45E-03,5.98E-03
19800,5.15E-03,5.94E-03
19801,4.97E-03,5.90E-03
19802,4.91E-03,5.86E-03
19803,4.11E-03,5.84E-03
19804,3.97E-03,5.75E-03
19805,7.84E-03,5.75E-03
19806,8.34E-03,1.16E-02
19807,5.50E-03,1.13E-02
19808,7.24E-03,1.14E-02
19809,6.61E-03,1.21E-02
19810,8.91E-03,6.77E-03
19811,8.36E-03,1.33E-02
19812,7.32E-03,2.02E-02
19813,8.25E-03,2.10E-02
19814,6.21E-03,2.12E-02
19815,8.10E-03,1.47E-02
19816,8.10E-03,1.49E-02
19817,7.44E-03,1.46E-02
19818,8.11E-03,1.40E-02
19819,6.93E-03,1.37E-02
19820,6.46E-03,1.40E-02
19821,5.59E-03,1.39E-02
19822,5.83E-03,8.24E-03
19823,5.00E-03,8.14E-03
19824,4.15E-03,8.03E-03
19825,3.61E-03,7.94E-03
19826,3.51E-03,7.84E-03
19827,3.81E-03,7.74E-03
19828,4.11E-03,7.65E-03
19829,4.78E-03,7.57E-03
19830,5.12E-03,7.49E-03
19831,6.06E-03,7.39E-03
19832,6.86E-03,7.28E-03
19833,7.07E-03,7.18E-03
19834,7.43E-03,7.09E-03
19835,8.58E-03,6.97E-03
19836,8.83E-03,6.90E-03
19837,6.78E-03,8.52E-03
19838,6.24E-03,8.39E-03
19839,8.04E-03,1.82E-02
19840,8.02E-03,1.29E-02
19841,7.99E-03,2.13E-02
19842,7.49E-03,2.04E-02
19843,7.66E-03,2.06E-02
19844,7.03E-03,1.64E-02
19845,6.73E-03,1.07E-02
19846,7.58E-03,1.19E-02
19847,2.72E-03,1.12E-02
19848,3.07E-03,1.12E-02
19849,3.00E-03,1.11E-02
19850,2.82E-03,1.11E-02
19851,2.80E-03,1.11E-02
19852,2.74E-03,1.11E-02
19853,2.90E-03,1.11E-02
19854,3.07E-03,1.11E-02
19855,3.25E-03,1.11E-02
19856,3.51E-03,1.11E-02
19857,3.84E-03,1.10E-02
19858,4.17E-03,1.10E-02
19859,4.47E-03,1.10E-02
19860,4.69E-03,1.10E-02
19861,4.85E-03,1.10E-02
19862,5.00E-03,1.10E-02
19863,5.16E-03,1.10E-02
19864,5.30E-03,1.10E-02
19865,5.44E-03,1.10E-02
19866,5.57E-03,1.10E-02
19867,5.70E-03,1.10E-02
19868,5.84E-03,1.10E-02
19869,5.97E-03,1.10E-02
19870,6.11E-03,1.10E-02
19871,6.22E-03,1.10E-02
19872,6.31E-03,1.10E-02
19873,6.37E-03,1.10E-02
19874,6.44E-03,1.10E-02
19875,6.50E-03,1.10E-02
19876,6.56E-03,1.10E-02
19877,6.62E-03,1.10E-02
19878,6.69E-03,1.10E-02
19879,6.75E-03,1.10E-02
19880,6.83E-03,1.10E-02
19881,7.01E-03,1.10E-02
19882,7.08E-03,1.10E-02
19883,7.21E-03,1.10E-02
19884,7.27E-03,1.10E-02
19885,7.38E-03,1.10E-02
19886,7.44E-03,1.11E-02
19887,7.50E-03,1.11E-02
19888,7.55E-03,1.11E-02
19889,7.54E-03,1.11E-02
19890,7.44E-03,1.11E-02
19891,7.43E-03,1.11E-02
19892,7.52E-03,1.11E-02
19893,6.85E-03,1.11E-02
19894,5.24E-03,1.11E-02
19895,5.13E-03,1.12E-02
19896,5.73E-03,1.12E-02
19897,7.24E-03,2.15E-02
19898,8.10E-03,1.08E-02
19899,8.09E-03,1.06E-02
19900,8.09E-03,1.05E-02
19901,8.09E-03,1.04E-02
19902,8.09E-03,1.02E-02
19903,8.09E-03,1.01E-02
19904,8.09E-03,9.97E-03
19905,8.09E-03,9.83E-03
19906,8.09E-03,9.69E-03
19907,8.09E-03,9.54E-03
19908,8.09E-03,9.40E-03
19909,8.09E-03,9.26E-03
19910,8.09E-03,9.11E-03
19911,8.09E-03,8.96E-03
19912,8.09E-03,8.82E-03
19913,8.09E-03,8.67E-03
19914,8.09E-03,8.52E-03
19915,8.09E-03,8.37E-03
19916,8.09E-03,8.22E-03
19917,8.09E-03,8.08E-03
19918,8.09E-03,7.93E-03
19919,8.09E-03,7.78E-03
19920,8.09E-03,7.63E-03
19921,8.09E-03,7.48E-03
19922,8.09E-03,7.34E-03
19923,8.09E-03,7.20E-03
19924,8.09E-03,7.06E-03
19925,8.09E-03,6.91E-03
19926,8.09E-03,6.78E-03
19927,8.09E-03,6.64E-03
19928,7.95E-03,6.51E-03
19929,7.89E-03,6.39E-03
19930,7.76E-03,6.27E-03
19931,7.67E-03,6.14E-03
19932,7.66E-03,6.03E-03
19933,7.72E-03,5.92E-03
19934,8.44E-03,5.81E-03
19935,6.28E-03,5.68E-03
19936,6.49E-03,5.70E-03
19937,5.90E-03,5.69E-03
19938,7.45E-03,5.91E-03
19939,7.55E-03,1.42E-02
19940,6.81E-03,1.29E-02
19941,8.00E-03,2.14E-02
19942,7.99E-03,1.30E-02
19943,7.41E-03,1.65E-02
19944,6.95E-03,1.60E-02
19945,9.11E-03,1.59E-02
19946,7.56E-03,2.01E-02
19947,7.46E-03,2.13E-02
19948,6.17E-03,2.14E-02
19949,8.10E-03,1.48E-02
19950,8.10E-03,1.50E-02
19951,7.53E-03,1.49E-02
19952,4.11E-03,1.35E-02
19953,5.36E-03,1.36E-02
19954,8.30E-03,9.62E-03
19955,8.24E-03,1.84E-02
19956,4.39E-03,1.77E-02
19957,5.12E-03,1.76E-02
19958,8.22E-03,1.28E-02
19959,8.08E-03,2.15E-02
19960,7.62E-03,2.14E-02
19961,5.67E-03,1.64E-02
19962,8.10E-03,1.09E-02
19963,8.28E-03,1.70E-02
19964,8.93E-03,1.69E-02
19965,7.68E-03,5.80E-03
19966,4.95E-03,1.68E-02
19967,6.58E-03,1.68E-02
19968,6.35E-03,1.69E-02
19969,8.77E-03,1.96E-02
19970,6.94E-03,1.69E-02
19971,9.50E-03,1.67E-02
19972,6.01E-03,1.66E-02
19973,8.05E-03,1.65E-02
19974,7.99E-03,6.65E-03
19975,8.00E-03,1.20E-02
19976,8.61E-03,1.09E-02
19977,7.60E-03,5.41E-03
19978,9.07E-03,1.26E-02
19979,9.30E-03,1.26E-02
19980,9.44E-03,1.26E-02
19981,1.00E-02,1.25E-02
19982,1.04E-02,1.25E-02
19983,1.06E-02,1.24E-02
19984,1.07E-02,1.24E-02
19985,1.06E-02,1.23E-02
19986,1.04E-02,1.22E-02
19987,1.02E-02,1.21E-02
19988,8.64E-03,1.21E-02
19989,8.52E-03,1.20E-02
19990,8.21E-03,1.19E-02
19991,7.38E-03,1.19E-02
19992,7.10E-03,1.18E-02
19993,6.80E-03,1.18E-02
19994,6.44E-03,1.17E-02
19995,6.06E-03,1.17E-02
19996,5.73E-03,1.16E-02
19997,5.46E-03,1.16E-02
19998,5.20E-03,1.16E-02
19999,4.96E-03,1.15E-02
20000,4.58E-03,1.15E-02
20001,4.47E-03,1.14E-02
20002,4.10E-03,1.14E-02
20003,3.66E-03,1.14E-02
20004,3.31E-03,1.14E-02
20005,2.99E-03,1.13E-02
20006,2.87E-03,1.13E-02
20007,2.86E-03,1.13E-02
20008,2.85E-03,1.13E-02
20009,2.83E-03,1.13E-02
20010,2.98E-03,1.12E-02
20011,3.20E-03,1.12E-02
20012,3.22E-03,1.12E-02
20013,3.03E-03,1.12E-02
20014,2.73E-03,1.11E-02
20015,1.64E-03,1.11E-02
20016,6.80E-03,1.97E-02
20017,8.41E-03,1.74E-02
20018,7.71E-03,1.42E-02
20019,8.03E-03,1.27E-02
20020,7.84E-03,6.55E-03
20021,7.83E-03,2.00E-02
20022,6.39E-03,2.16E-02
20023,8.10E-03,1.48E-02
20024,8.10E-03,1.51E-02
20025,8.01E-03,1.41E-02
20026,6.87E-03,2.05E-02
20027,6.83E-03,2.01E-02
20028,8.38E-03,1.87E-02
20029,9.66E-03,1.25E-02
20030,8.37E-03,1.26E-02
20031,7.46E-03,1.61E-02
20032,7.24E-03,1.61E-02
20033,8.79E-03,1.33E-02
20034,7.11E-03,1.70E-02
20035,6.69E-03,2.18E-02
20036,8.10E-03,1.48E-02
20037,8.10E-03,1.52E-02
20038,7.76E-03,6.28E-03
20039,9.31E-03,6.30E-03
20040,7.34E-03,1.02E-02
20041,8.12E-03,1.00E-02
20042,7.04E-03,2.09E-02
20043,8.10E-03,1.66E-02
20044,8.54E-03,1.11E-02
20045,8.57E-03,1.69E-02
20046,8.41E-03,1.69E-02
20047,8.01E-03,1.14E-02
20048,8.10E-03,1.67E-02
20049,7.96E-03,1.67E-02
20050,6.76E-03,1.70E-02
20051,7.32E-03,5.69E-03
20052,6.73E-03,5.57E-03
20053,6.92E-03,1.69E-02
20054,8.10E-03,1.10E-02
20055,7.40E-03,2.14E-02
20056,7.61E-03,1.31E-02
20057,6.34E-03,1.31E-02
20058,5.92E-03,1.31E-02
20059,7.05E-03,1.34E-02
20060,6.16E-03,2.16E-02
20061,7.08E-03,2.18E-02
20062,7.22E-03,1.36E-02
20063,9.10E-03,1.66E-02
20064,7.84E-03,1.53E-02
20065,6.33E-03,1.57E-02
20066,7.25E-03,1.55E-02
20067,8.10E-03,1.12E-02
20068,7.02E-03,2.19E-02
20069,8.11E-03,1.52E-02
20070,7.77E-03,2.18E-02
20071,7.94E-03,2.19E-02
20072,8.83E-03,2.17E-02
20073,7.72E-03,2.14E-02
20074,7.13E-03,2.13E-02
20075,8.10E-03,1.13E-02
20076,8.10E-03,1.48E-02
20077,7.46E-03,1.68E-02
20078,8.30E-03,1.68E-02
20079,7.85E-03,1.68E-02
20080,5.44E-03,1.60E-02
20081,8.35E-03,1.68E-02
20082,7.68E-03,1.68E-02
20083,8.10E-03,1.48E-02
20084,8.21E-03,1.53E-02
20085,8.29E-03,1.67E-02
20086,8.10E-03,1.49E-02
20087,6.59E-03,1.58E-02
20088,6.33E-03,1.58E-02
20089,7.67E-03,1.54E-02
20090,8.10E-03,1.17E-02
20091,8.10E-03,1.16E-02
20092,8.10E-03,1.14E-02
20093,7.62E-03,1.56E-02
20094,7.53E-03,1.56E-02
20095,7.50E-03,1.56E-02
20096,7.51E-03,1.55E-02
20097,8.10E-03,1.49E-02
20098,8.10E-03,1.49E-02
20099,8.10E-03,1.48E-02
20100,8.10E-03,1.48E-02
20101,8.10E-03,1.48E-02
20102,8.10E-03,1.18E-02
20103,8.10E-03,1.20E-02
20104,8.10E-03,1.22E-02
20105,8.10E-03,1.21E-02
20106,8.10E-03,1.23E-02
20107,8.10E-03,1.48E-02
20108,8.10E-03,1.25E-02
20109,8.10E-03,1.48E-02
20110,8.10E-03,1.26E-02
20111,8.10E-03,1.47E-02
20112,8.10E-03,1.27E-02
20113,8.10E-03,1.47E-02
20114,8.10E-03,1.28E-02
20115,8.10E-03,1.46E-02
20116,8.10E-03,1.29E-02
20117,8.10E-03,1.31E-02
20118,8.10E-03,1.46E-02
20119,8.10E-03,1.45E-02
20120,8.10E-03,1.32E-02
20121,8.10E-03,1.45E-02
20122,8.10E-03,1.44E-02
20123,8.10E-03,1.33E-02
20124,8.10E-03,1.34E-02
20125,8.10E-03,1.44E-02
20126,8.10E-03,1.35E-02
20127,8.10E-03,1.43E-02
20128,8.10E-03,1.36E-02
20129,8.10E-03,1.37E-02
20130,8.10E-03,1.42E-02
20131,8.10E-03,1.41E-02
20132,8.10E-03,1.38E-02
20133,8.10E-03,1.39E-02
20134,8.10E-03,1.40E-02
20135,8.10E-03,1.40E-02
20136,7.42E-03,1.32E-02
20137,8.24E-03,1.33E-02
20138,8.26E-03,1.33E-02
20139,7.38E-03,2.03E-02
20140,8.20E-03,2.11E-02
20141,8.15E-03,2.11E-02
20142,1.01E-02,2.12E-02
20143,9.90E-03,2.12E-02
20144,7.91E-03,2.12E-02
20145,8.10E-03,1.47E-02
20146,8.10E-03,1.48E-02
20147,8.10E-03,1.48E-02
20148,8.10E-03,1.48E-02
20149,8.10E-03,1.48E-02
20150,8.10E-03,1.49E-02
20151,8.10E-03,1.49E-02
20152,8.10E-03,1.49E-02
20153,8.10E-03,1.48E-02
20154,8.10E-03,1.48E-02
20155,7.22E-03,1.44E-02
20156,7.02E-03,1.42E-02
20157,7.18E-03,1.40E-02
20158,7.29E-03,1.38E-02
20159,7.44E-03,1.35E-02
20160,7.22E-03,1.27E-02
20161,7.99E-03,1.29E-02
20162,7.87E-03,1.31E-02
20163,7.62E-03,1.33E-02
20164,8.96E-03,1.39E-02
20165,8.45E-03,1.40E-02
20166,7.16E-03,1.38E-02
20167,7.13E-03,1.38E-02
20168,7.31E-03,1.38E-02
20169,7.21E-03,7.07E-03
20170,7.28E-03,7.06E-03
20171,7.44E-03,7.16E-03
20172,6.86E-03,7.26E-03
20173,6.64E-03,7.35E-03
20174,6.16E-03,7.45E-03
20175,5.55E-03,7.55E-03
20176,5.07E-03,7.64E-03
20177,4.21E-03,7.72E-03
20178,3.65E-03,7.80E-03
20179,3.39E-03,7.89E-03
20180,3.51E-03,7.97E-03
20181,3.97E-03,8.07E-03
20182,5.13E-03,8.18E-03
20183,5.84E-03,8.27E-03
20184,7.68E-03,1.80E-02
20185,6.87E-03,1.79E-02
20186,7.94E-03,1.30E-02
20187,7.49E-03,1.30E-02
20188,7.84E-03,2.12E-02
20189,7.84E-03,2.07E-02
20190,7.70E-03,2.08E-02
20191,7.59E-03,2.09E-02
20192,7.71E-03,2.10E-02
20193,7.79E-03,2.11E-02
20194,7.04E-03,1.63E-02
20195,7.00E-03,1.63E-02
20196,6.89E-03,1.62E-02
20197,7.63E-03,1.10E-02
20198,7.73E-03,1.17E-02
20199,5.16E-03,1.13E-02
20200,6.82E-03,1.15E-02
20201,8.12E-03,2.16E-02
20202,8.09E-03,1.06E-02
20203,8.09E-03,1.05E-02
20204,8.09E-03,1.04E-02
20205,8.09E-03,1.02E-02
20206,8.09E-03,1.01E-02
20207,8.09E-03,9.97E-03
20208,8.09E-03,9.83E-03
20209,8.09E-03,9.69E-03
20210,8.09E-03,9.55E-03
20211,8.09E-03,9.40E-03
20212,8.09E-03,9.26E-03
20213,8.09E-03,9.11E-03
20214,8.09E-03,8.97E-03
20215,8.09E-03,8.82E-03
20216,8.09E-03,8.67E-03
20217,8.09E-03,8.52E-03
20218,8.09E-03,8.37E-03
20219,8.09E-03,8.22E-03
20220,8.09E-03,8.08E-03
20221,8.09E-03,7.93E-03
20222,8.09E-03,7.78E-03
20223,8.09E-03,7.63E-03
20224,8.09E-03,7.48E-03
20225,8.09E-03,7.34E-03
20226,8.09E-03,7.19E-03
20227,8.09E-03,7.05E-03
20228,8.09E-03,6.91E-03
20229,8.09E-03,6.77E-03
20230,8.09E-03,6.64E-03
20231,8.03E-03,6.51E-03
20232,7.92E-03,6.38E-03
20233,7.88E-03,6.26E-03
20234,7.81E-03,6.14E-03
20235,7.80E-03,6.02E-03
20236,7.88E-03,5.91E-03
20237,7.60E-03,5.82E-03
20238,7.47E-03,5.71E-03
20239,7.71E-03,5.67E-03
20240,8.40E-03,5.62E-03
20241,7.32E-03,6.06E-03
20242,7.56E-03,6.18E-03
20243,7.50E-03,1.34E-02
20244,5.91E-03,1.35E-02
20245,7.41E-03,1.42E-02
20246,1.11E-02,1.43E-02
20247,8.44E-03,1.43E-02
20248,8.16E-03,1.44E-02
20249,5.23E-03,1.44E-02
20250,3.59E-03,1.44E-02
20251,3.67E-03,1.44E-02
20252,3.83E-03,1.44E-02
20253,3.70E-03,1.44E-02
20254,3.57E-03,1.44E-02
20255,3.66E-03,1.45E-02
20256,3.88E-03,1.45E-02
20257,4.11E-03,1.45E-02
20258,4.37E-03,1.45E-02
20259,4.63E-03,1.45E-02
20260,4.83E-03,1.45E-02
20261,4.96E-03,1.45E-02
20262,5.06E-03,1.45E-02
20263,5.16E-03,1.46E-02
20264,5.25E-03,1.46E-02
20265,5.33E-03,1.46E-02
20266,5.41E-03,1.46E-02
20267,5.45E-03,1.46E-02
20268,5.45E-03,1.46E-02
20269,5.40E-03,1.46E-02
20270,5.37E-03,1.46E-02
20271,5.33E-03,1.47E-02
20272,5.30E-03,1.47E-02
20273,5.26E-03,1.47E-02
20274,5.19E-03,1.47E-02
20275,5.09E-03,1.47E-02
20276,4.99E-03,1.47E-02
20277,4.89E-03,1.47E-02
20278,4.79E-03,1.47E-02
20279,4.69E-03,1.47E-02
20280,4.60E-03,1.47E-02
20281,4.51E-03,1.47E-02
20282,4.43E-03,1.47E-02
20283,4.43E-03,1.47E-02
20284,4.56E-03,1.47E-02
20285,4.73E-03,1.47E-02
20286,4.88E-03,1.47E-02
20287,4.98E-03,1.47E-02
20288,5.04E-03,1.47E-02
20289,5.11E-03,1.47E-02
20290,5.22E-03,1.47E-02
20291,5.35E-03,1.47E-02
20292,5.49E-03,1.46E-02
20293,5.69E-03,1.46E-02
20294,5.99E-03,1.46E-02
20295,6.34E-03,1.46E-02
20296,6.66E-03,1.46E-02
20297,6.90E-03,1.46E-02
20298,7.11E-03,1.46E-02
20299,7.31E-03,1.45E-02
20300,7.55E-03,1.45E-02
20301,7.79E-03,1.45E-02
20302,7.89E-03,1.45E-02
20303,7.78E-03,1.44E-02
20304,7.77E-03,1.44E-02
20305,8.14E-03,1.44E-02
20306,8.71E-03,1.43E-02
20307,9.27E-03,1.43E-02
20308,9.77E-03,1.43E-02
20309,1.00E-02,1.42E-02
20310,1.00E-02,1.42E-02
20311,9.98E-03,1.41E-02
20312,1.01E-02,1.41E-02
20313,1.01E-02,1.41E-02
20314,1.02E-02,1.40E-02
20315,1.03E-02,1.40E-02
20316,1.04E-02,1.39E-02
20317,1.05E-02,1.39E-02
20318,1.05E-02,1.39E-02
20319,1.05E-02,1.38E-02
20320,1.03E-02,1.38E-02
20321,1.01E-02,1.37E-02
20322,9.92E-03,1.37E-02
20323,9.73E-03,1.37E-02
20324,9.59E-03,1.36E-02
20325,9.49E-03,1.36E-02
20326,9.39E-03,1.36E-02
20327,9.30E-03,1.36E-02
20328,9.21E-03,1.35E-02
20329,9.14E-03,1.35E-02
20330,9.08E-03,1.35E-02
20331,9.01E-03,1.35E-02
20332,8.94E-03,1.34E-02
20333,8.82E-03,1.34E-02
20334,8.66E-03,1.34E-02
20335,8.50E-03,1.34E-02
20336,8.38E-03,1.34E-02
20337,8.31E-03,1.34E-02
20338,8.24E-03,1.33E-02
20339,8.18E-03,1.33E-02
20340,8.11E-03,1.33E-02
20341,8.05E-03,1.33E-02
20342,7.98E-03,1.33E-02
20343,7.91E-03,1.33E-02
20344,7.89E-03,1.32E-02
20345,7.91E-03,1.32E-02
20346,7.95E-03,1.32E-02
20347,8.00E-03,1.32E-02
20348,8.05E-03,1.32E-02
20349,8.09E-03,1.32E-02
20350,8.15E-03,1.32E-02
20351,8.20E-03,1.31E-02
20352,8.24E-03,1.31E-02
20353,8.26E-03,1.31E-02
20354,8.27E-03,1.31E-02
20355,8.27E-03,1.31E-02
20356,8.28E-03,1.31E-02
20357,8.39E-03,1.31E-02
20358,8.52E-03,1.31E-02
20359,8.63E-03,1.30E-02
20360,8.90E-03,1.30E-02
20361,8.91E-03,1.30E-02
20362,9.15E-03,1.30E-02
20363,9.28E-03,1.30E-02
20364,9.44E-03,1.30E-02
20365,9.40E-03,1.30E-02
20366,9.26E-03,1.30E-02
20367,9.37E-03,1.30E-02
20368,8.65E-03,1.31E-02
20369,7.55E-03,1.31E-02
20370,7.58E-03,2.15E-02
20371,7.89E-03,1.34E-02
20372,7.94E-03,1.58E-02
20373,8.30E-03,1.60E-02
20374,8.37E-03,1.62E-02
20375,8.49E-03,1.64E-02
20376,8.62E-03,1.67E-02
20377,8.55E-03,1.69E-02
20378,7.80E-03,1.66E-02
20379,6.55E-03,1.60E-02
20380,8.16E-03,1.59E-02
20381,7.63E-03,2.02E-02
20382,7.94E-03,2.13E-02
20383,6.15E-03,2.14E-02
20384,8.10E-03,1.48E-02
20385,8.10E-03,1.50E-02
20386,7.52E-03,1.47E-02
20387,6.64E-03,1.37E-02
20388,6.34E-03,8.99E-03
20389,6.57E-03,8.85E-03
20390,6.78E-03,8.71E-03
20391,6.95E-03,8.59E-03
20392,6.37E-03,8.41E-03
20393,8.03E-03,1.83E-02
20394,4.92E-03,1.78E-02
20395,8.15E-03,1.28E-02
20396,7.82E-03,1.30E-02
20397,7.99E-03,2.14E-02
20398,7.62E-03,2.05E-02
20399,7.66E-03,2.06E-02
20400,6.95E-03,2.15E-02
20401,7.26E-03,2.17E-02
20402,7.93E-03,2.15E-02
20403,7.72E-03,2.16E-02
20404,7.42E-03,1.63E-02
20405,8.10E-03,1.23E-02
20406,8.06E-03,1.20E-02
20407,8.29E-03,2.19E-02
20408,8.10E-03,1.08E-02
20409,7.13E-03,5.44E-03
20410,9.47E-03,1.69E-02
20411,7.86E-03,5.90E-03
20412,5.40E-03,1.35E-02
20413,6.54E-03,1.67E-02
20414,6.29E-03,1.68E-02
20415,7.67E-03,1.92E-02
20416,8.08E-03,1.94E-02
20417,7.07E-03,1.67E-02
20418,6.68E-03,1.68E-02
20419,7.02E-03,1.57E-02
20420,9.33E-03,1.67E-02
20421,9.07E-03,1.67E-02
20422,7.22E-03,1.69E-02
20423,7.13E-03,1.24E-02
20424,8.18E-03,1.16E-02
20425,7.99E-03,1.64E-02
20426,7.66E-03,1.62E-02
20427,1.01E-02,1.59E-02
20428,8.15E-03,1.57E-02
20429,8.09E-03,1.55E-02
20430,8.09E-03,1.53E-02
20431,8.09E-03,1.50E-02
20432,8.09E-03,1.48E-02
20433,8.09E-03,1.46E-02
20434,8.09E-03,1.43E-02
20435,8.09E-03,1.41E-02
20436,8.09E-03,1.39E-02
20437,8.10E-03,1.36E-02
20438,8.09E-03,1.34E-02
20439,8.22E-03,1.31E-02
20440,8.22E-03,1.28E-02
20441,1.14E-02,1.25E-02
20442,8.95E-03,1.22E-02
20443,8.89E-03,1.19E-02
20444,8.93E-03,1.16E-02
20445,8.64E-03,1.13E-02
20446,8.07E-03,6.77E-03
20447,7.90E-03,6.87E-03
20448,7.37E-03,7.00E-03
20449,7.62E-03,1.38E-02
20450,8.08E-03,1.23E-02
20451,7.85E-03,6.37E-03
20452,7.79E-03,6.46E-03
20453,7.94E-03,1.39E-02
20454,7.50E-03,1.40E-02
20455,7.86E-03,1.52E-02
20456,8.41E-03,1.06E-02
20457,2.92E-03,1.04E-02
20458,4.64E-03,1.03E-02
20459,8.75E-03,1.01E-02
20460,8.10E-03,9.79E-03
20461,8.09E-03,9.53E-03
20462,8.09E-03,9.26E-03
20463,8.09E-03,9.00E-03
20464,8.09E-03,8.75E-03
20465,8.09E-03,8.50E-03
20466,8.09E-03,8.25E-03
20467,8.09E-03,8.01E-03
20468,8.09E-03,7.78E-03
20469,8.09E-03,7.55E-03
20470,8.09E-03,7.33E-03
20471,8.09E-03,7.11E-03
20472,8.09E-03,6.91E-03
20473,8.09E-03,6.71E-03
20474,8.09E-03,6.53E-03
20475,8.09E-03,6.35E-03
20476,8.09E-03,6.19E-03
20477,8.09E-03,6.04E-03
20478,8.09E-03,5.90E-03
20479,8.09E-03,5.77E-03
20480,8.09E-03,5.65E-03
20481,8.09E-03,5.55E-03
20482,8.09E-03,5.47E-03
20483,8.07E-03,5.40E-03
20484,8.16E-03,5.35E-03
20485,8.99E-03,5.32E-03
20486,7.98E-03,5.32E-03
20487,6.78E-03,5.49E-03
20488,9.00E-03,1.25E-02
20489,9.93E-03,1.25E-02
20490,9.89E-03,1.24E-02
20491,9.98E-03,1.24E-02
20492,1.06E-02,1.23E-02
20493,1.03E-02,1.22E-02
20494,1.06E-02,1.22E-02
20495,1.05E-02,1.21E-02
20496,1.05E-02,1.20E-02
20497,8.62E-03,1.19E-02
20498,8.57E-03,1.19E-02
20499,8.24E-03,1.18E-02
20500,7.39E-03,1.18E-02
20501,7.17E-03,1.17E-02
20502,6.82E-03,1.16E-02
20503,6.45E-03,1.16E-02
20504,6.05E-03,1.15E-02
20505,5.75E-03,1.15E-02
20506,5.50E-03,1.14E-02
20507,5.28E-03,1.14E-02
20508,5.03E-03,1.14E-02
20509,4.71E-03,1.13E-02
20510,4.49E-03,1.13E-02
20511,4.17E-03,1.13E-02
20512,3.68E-03,1.12E-02
20513,3.30E-03,1.12E-02
20514,3.04E-03,1.12E-02
20515,2.96E-03,1.12E-02
20516,2.96E-03,1.11E-02
20517,2.94E-03,1.11E-02
20518,2.93E-03,1.11E-02
20519,2.91E-03,1.11E-02
20520,3.05E-03,1.11E-02
20521,2.97E-03,1.10E-02
20522,2.84E-03,1.10E-02
20523,2.52E-03,1.10E-02
20524,1.82E-03,1.10E-02
20525,1.73E-03,1.09E-02
20526,2.49E-03,1.10E-02
20527,2.67E-03,1.09E-02
20528,2.80E-03,1.09E-02
20529,2.76E-03,1.09E-02
20530,2.77E-03,1.09E-02
20531,2.83E-03,1.09E-02
20532,2.99E-03,1.09E-02
20533,3.16E-03,1.09E-02
20534,3.34E-03,1.09E-02
20535,3.59E-03,1.09E-02
20536,3.91E-03,1.09E-02
20537,4.24E-03,1.09E-02
20538,4.53E-03,1.09E-02
20539,4.75E-03,1.08E-02
20540,4.90E-03,1.08E-02
20541,5.06E-03,1.08E-02
20542,5.21E-03,1.08E-02
20543,5.35E-03,1.08E-02
20544,5.48E-03,1.08E-02
20545,5.61E-03,1.08E-02
20546,5.75E-03,1.08E-02
20547,5.88E-03,1.08E-02
20548,6.01E-03,1.08E-02
20549,6.14E-03,1.08E-02
20550,6.26E-03,1.08E-02
20551,6.34E-03,1.08E-02
20552,6.40E-03,1.08E-02
20553,6.47E-03,1.08E-02
20554,6.53E-03,1.08E-02
20555,6.59E-03,1.08E-02
20556,6.65E-03,1.08E-02
20557,6.71E-03,1.08E-02
20558,6.78E-03,1.08E-02
20559,6.86E-03,1.08E-02
20560,6.97E-03,1.08E-02
20561,7.09E-03,1.08E-02
20562,7.22E-03,1.08E-02
20563,7.32E-03,1.08E-02
20564,7.40E-03,1.08E-02
20565,7.45E-03,1.08E-02
20566,7.51E-03,1.08E-02
20567,7.56E-03,1.09E-02
20568,7.55E-03,1.09E-02
20569,7.45E-03,1.09E-02
20570,7.38E-03,1.09E-02
20571,7.32E-03,1.09E-02
20572,7.12E-03,1.08E-02
20573,6.75E-03,1.09E-02
20574,6.46E-03,1.09E-02
20575,6.32E-03,1.09E-02
20576,7.41E-03,1.11E-02
20577,6.90E-03,1.95E-02
20578,7.60E-03,1.94E-02
20579,7.66E-03,1.92E-02
20580,7.75E-03,1.91E-02
20581,7.83E-03,1.89E-02
20582,8.03E-03,1.87E-02
20583,8.18E-03,1.85E-02
20584,7.26E-03,1.84E-02
20585,7.14E-03,1.82E-02
20586,7.09E-03,1.80E-02
20587,6.95E-03,1.78E-02
20588,6.82E-03,1.76E-02
20589,6.85E-03,1.74E-02
20590,6.20E-03,1.72E-02
20591,8.88E-03,1.73E-02
20592,7.22E-03,1.76E-02
20593,7.66E-03,1.42E-02
20594,7.13E-03,5.66E-03
20595,7.41E-03,5.70E-03
20596,3.84E-03,5.72E-03
20597,4.59E-03,5.76E-03
20598,4.79E-03,5.81E-03
20599,5.04E-03,5.84E-03
20600,5.13E-03,5.87E-03
20601,5.46E-03,5.91E-03
20602,5.70E-03,5.95E-03
20603,6.01E-03,5.99E-03
20604,6.10E-03,6.03E-03
20605,6.26E-03,6.08E-03
20606,6.42E-03,6.13E-03
20607,6.57E-03,6.18E-03
20608,6.70E-03,6.24E-03
20609,6.82E-03,6.29E-03
20610,6.99E-03,6.36E-03
20611,7.12E-03,6.42E-03
20612,7.17E-03,6.48E-03
20613,7.22E-03,6.55E-03
20614,7.27E-03,6.63E-03
20615,7.32E-03,6.70E-03
20616,7.37E-03,6.78E-03
20617,7.42E-03,6.86E-03
20618,7.46E-03,6.94E-03
20619,7.49E-03,7.02E-03
20620,7.52E-03,7.11E-03
20621,7.56E-03,7.20E-03
20622,7.59E-03,7.29E-03
20623,7.62E-03,7.39E-03
20624,7.65E-03,7.49E-03
20625,7.68E-03,7.59E-03
20626,7.70E-03,7.69E-03
20627,7.72E-03,7.80E-03
20628,7.75E-03,7.90E-03
20629,7.77E-03,8.01E-03
20630,7.79E-03,8.13E-03
20631,7.80E-03,8.24E-03
20632,7.80E-03,8.36E-03
20633,7.80E-03,8.48E-03
20634,7.80E-03,8.60E-03
20635,7.80E-03,8.72E-03
20636,7.80E-03,8.85E-03
20637,7.80E-03,8.97E-03
20638,7.79E-03,9.10E-03
20639,7.77E-03,9.23E-03
20640,7.73E-03,9.36E-03
20641,7.70E-03,9.49E-03
20642,7.66E-03,9.62E-03
20643,7.63E-03,9.76E-03
20644,7.59E-03,9.89E-03
20645,7.56E-03,1.00E-02
20646,7.52E-03,1.02E-02
20647,7.49E-03,1.03E-02
20648,7.45E-03,1.04E-02
20649,7.40E-03,1.06E-02
20650,7.32E-03,1.07E-02
20651,7.23E-03,1.08E-02
20652,7.14E-03,1.10E-02
20653,7.01E-03,1.11E-02
20654,6.95E-03,1.13E-02
20655,6.85E-03,1.14E-02
20656,6.75E-03,1.15E-02
20657,6.67E-03,1.16E-02
20658,6.58E-03,1.18E-02
20659,6.58E-03,1.19E-02
20660,6.62E-03,1.20E-02
20661,6.54E-03,1.22E-02
20662,6.32E-03,1.23E-02
20663,6.28E-03,1.24E-02
20664,6.26E-03,1.25E-02
20665,7.13E-03,1.27E-02
20666,6.65E-03,1.28E-02
20667,5.56E-03,1.30E-02
20668,7.80E-03,1.30E-02
20669,3.23E-03,1.64E-02
20670,3.90E-03,1.62E-02
20671,4.36E-03,1.60E-02
20672,4.06E-03,1.59E-02
20673,3.96E-03,1.57E-02
20674,3.23E-03,1.55E-02
20675,3.25E-03,1.53E-02
20676,3.04E-03,1.51E-02
20677,2.84E-03,1.50E-02
20678,2.18E-03,1.49E-02
20679,6.23E-03,1.47E-02
20680,6.07E-03,1.45E-02
20681,7.84E-03,6.66E-03
20682,8.09E-03,2.01E-02
20683,7.35E-03,2.16E-02
20684,6.50E-03,2.16E-02
20685,8.10E-03,1.48E-02
20686,8.10E-03,1.51E-02
20687,7.96E-03,1.50E-02
20688,7.27E-03,1.40E-02
20689,7.71E-03,6.57E-03
20690,7.26E-03,1.65E-02
20691,8.00E-03,1.26E-02
20692,6.96E-03,2.04E-02
20693,6.85E-03,2.00E-02
20694,5.64E-03,1.69E-02
20695,4.78E-03,1.67E-02
20696,8.28E-03,1.85E-02
20697,8.18E-03,1.27E-02
20698,7.66E-03,2.17E-02
20699,5.37E-03,1.61E-02
20700,5.63E-03,1.61E-02
20701,6.76E-03,1.39E-02
20702,7.69E-03,1.41E-02
20703,7.48E-03,1.70E-02
20704,6.86E-03,1.69E-02
20705,6.94E-03,1.25E-02
20706,6.85E-03,2.18E-02
20707,8.10E-03,1.48E-02
20708,8.10E-03,1.51E-02
20709,7.41E-03,1.13E-02
20710,7.27E-03,2.19E-02
20711,9.23E-03,6.33E-03
20712,5.19E-03,7.19E-03
20713,6.59E-03,7.12E-03
20714,7.55E-03,9.83E-03
20715,8.05E-03,1.04E-02
20716,8.49E-03,1.02E-02
20717,6.98E-03,2.08E-02
20718,7.99E-03,1.64E-02
20719,8.60E-03,1.10E-02
20720,8.57E-03,1.08E-02
20721,8.62E-03,1.69E-02
20722,8.42E-03,1.68E-02
20723,9.72E-03,1.66E-02
20724,8.22E-03,1.20E-02
20725,8.10E-03,1.65E-02
20726,8.03E-03,1.65E-02
20727,8.06E-03,1.69E-02
20728,7.62E-03,5.78E-03
20729,7.20E-03,5.66E-03
20730,7.99E-03,1.69E-02
20731,6.63E-03,1.68E-02
20732,9.37E-03,1.88E-02
20733,7.82E-03,1.25E-02
20734,8.10E-03,1.09E-02
20735,8.10E-03,1.11E-02
20736,7.06E-03,2.19E-02
20737,8.10E-03,1.52E-02
20738,6.82E-03,2.19E-02
20739,7.12E-03,2.12E-02
20740,8.10E-03,1.12E-02
20741,6.72E-03,5.46E-03
20742,8.10E-03,1.48E-02
20743,7.21E-03,1.67E-02
20744,6.96E-03,5.54E-03
20745,8.34E-03,1.68E-02
20746,6.75E-03,2.18E-02
20747,5.56E-03,2.17E-02
20748,6.63E-03,2.16E-02
20749,7.88E-03,1.66E-02
20750,6.64E-03,1.60E-02
20751,6.79E-03,1.60E-02
20752,8.29E-03,1.67E-02
20753,7.76E-03,1.67E-02
20754,8.10E-03,1.49E-02
20755,8.20E-03,1.53E-02
20756,8.25E-03,1.67E-02
20757,7.52E-03,1.67E-02
20758,8.10E-03,1.49E-02
20759,6.75E-03,1.68E-02
20760,6.73E-03,1.68E-02
20761,6.27E-03,1.59E-02
20762,7.52E-03,1.58E-02
20763,8.31E-03,1.54E-02
20764,8.24E-03,1.67E-02
20765,8.10E-03,1.16E-02
20766,8.10E-03,1.15E-02
20767,8.10E-03,1.13E-02
20768,7.90E-03,1.57E-02
20769,7.54E-03,1.56E-02
20770,7.47E-03,1.56E-02
20771,7.44E-03,1.55E-02
20772,8.10E-03,1.49E-02
20773,7.47E-03,1.55E-02
20774,8.10E-03,1.49E-02
20775,8.10E-03,1.49E-02
20776,8.10E-03,1.48E-02
20777,8.10E-03,1.48E-02
20778,8.10E-03,1.17E-02
20779,8.10E-03,1.18E-02
20780,8.10E-03,1.21E-02
20781,8.10E-03,1.20E-02
20782,8.10E-03,1.22E-02
20783,8.10E-03,1.48E-02
20784,8.10E-03,1.24E-02
20785,8.10E-03,1.48E-02
20786,8.10E-03,1.25E-02
20787,8.10E-03,1.47E-02
20788,8.10E-03,1.26E-02
20789,8.10E-03,1.47E-02
20790,8.10E-03,1.27E-02
20791,8.10E-03,1.47E-02
20792,8.10E-03,1.28E-02
20793,8.10E-03,1.30E-02
20794,8.10E-03,1.46E-02
20795,8.10E-03,1.46E-02
20796,8.10E-03,1.31E-02
20797,8.10E-03,1.45E-02
20798,8.10E-03,1.44E-02
20799,8.10E-03,1.32E-02
20800,8.10E-03,1.33E-02
20801,8.10E-03,1.44E-02
20802,8.10E-03,1.34E-02
20803,8.10E-03,1.43E-02
20804,8.10E-03,1.35E-02
20805,8.10E-03,1.36E-02
20806,8.10E-03,1.42E-02
20807,8.10E-03,1.42E-02
20808,8.10E-03,1.37E-02
20809,8.10E-03,1.38E-02
20810,8.10E-03,1.41E-02
20811,8.10E-03,1.39E-02
20812,8.10E-03,1.40E-02
20813,7.96E-03,1.32E-02
20814,8.75E-03,1.32E-02
20815,7.55E-03,2.04E-02
20816,8.05E-03,2.13E-02
20817,8.10E-03,2.14E-02
20818,9.98E-03,2.14E-02
20819,9.77E-03,2.14E-02
20820,7.87E-03,2.14E-02
20821,8.10E-03,1.48E-02
20822,8.10E-03,1.48E-02
20823,8.10E-03,1.48E-02
20824,8.10E-03,1.48E-02
20825,8.10E-03,1.49E-02
20826,8.10E-03,1.50E-02
20827,8.10E-03,1.49E-02
20828,8.10E-03,1.49E-02
20829,8.10E-03,1.49E-02
20830,8.10E-03,1.49E-02
20831,7.46E-03,1.45E-02
20832,7.33E-03,1.43E-02
20833,7.40E-03,1.40E-02
20834,7.53E-03,1.38E-02
20835,7.51E-03,1.36E-02
20836,8.90E-03,1.26E-02
20837,8.25E-03,1.29E-02
20838,7.96E-03,1.31E-02
20839,7.70E-03,1.34E-02
20840,7.95E-03,1.39E-02
20841,7.06E-03,1.37E-02
20842,7.67E-03,1.38E-02
20843,7.85E-03,1.37E-02
20844,6.83E-03,7.19E-03
20845,7.17E-03,7.26E-03
20846,6.88E-03,7.35E-03
20847,6.71E-03,7.44E-03
20848,6.21E-03,7.52E-03
20849,5.72E-03,7.62E-03
20850,5.35E-03,7.71E-03
20851,4.21E-03,7.80E-03
20852,3.23E-03,7.87E-03
20853,3.33E-03,7.94E-03
20854,3.42E-03,8.03E-03
20855,3.67E-03,8.10E-03
20856,5.32E-03,8.22E-03
20857,5.99E-03,8.36E-03
20858,7.74E-03,1.81E-02
20859,7.40E-03,1.79E-02
20860,8.11E-03,1.29E-02
20861,8.19E-03,1.29E-02
20862,8.16E-03,2.13E-02
20863,7.73E-03,2.08E-02
20864,7.77E-03,2.09E-02
20865,7.73E-03,2.10E-02
20866,7.92E-03,2.11E-02
20867,8.26E-03,2.12E-02
20868,7.49E-03,2.19E-02
20869,7.34E-03,2.18E-02
20870,6.89E-03,1.63E-02
20871,6.90E-03,1.62E-02
20872,6.86E-03,1.62E-02
20873,7.91E-03,1.17E-02
20874,7.96E-03,1.15E-02
20875,7.83E-03,2.19E-02
20876,8.09E-03,1.07E-02
20877,8.09E-03,1.05E-02
20878,8.09E-03,1.04E-02
20879,8.09E-03,1.03E-02
20880,8.09E-03,1.01E-02
20881,8.09E-03,9.98E-03
20882,8.09E-03,9.84E-03
20883,8.09E-03,9.69E-03
20884,8.09E-03,9.55E-03
20885,8.09E-03,9.41E-03
20886,8.09E-03,9.26E-03
20887,8.09E-03,9.12E-03
20888,8.09E-03,8.97E-03
20889,8.09E-03,8.82E-03
20890,8.09E-03,8.67E-03
20891,8.09E-03,8.52E-03
20892,8.09E-03,8.38E-03
20893,8.09E-03,8.23E-03
20894,8.09E-03,8.08E-03
20895,8.09E-03,7.93E-03
20896,8.09E-03,7.78E-03
20897,8.09E-03,7.63E-03
20898,8.09E-03,7.48E-03
20899,8.09E-03,7.34E-03
20900,8.09E-03,7.19E-03
20901,8.09E-03,7.05E-03
20902,8.09E-03,6.91E-03
20903,8.09E-03,6.77E-03
20904,8.09E-03,6.63E-03
20905,8.09E-03,6.50E-03
20906,8.02E-03,6.38E-03
20907,7.96E-03,6.25E-03
20908,7.94E-03,6.13E-03
20909,7.87E-03,6.01E-03
20910,7.87E-03,5.91E-03
20911,7.84E-03,5.81E-03
20912,7.90E-03,5.72E-03
20913,8.15E-03,5.65E-03
20914,8.55E-03,5.60E-03
20915,9.32E-03,5.54E-03
20916,7.04E-03,5.42E-03
20917,6.54E-03,5.48E-03
20918,9.23E-03,5.46E-03
20919,9.26E-03,5.47E-03
20920,7.90E-03,5.40E-03
20921,8.13E-03,6.03E-03
20922,8.48E-03,6.18E-03
20923,7.89E-03,1.34E-02
20924,6.97E-03,1.66E-02
20925,7.91E-03,1.33E-02
20926,4.85E-03,1.72E-02
20927,7.55E-03,1.76E-02
20928,7.53E-03,1.42E-02
20929,1.02E-02,1.42E-02
20930,8.49E-03,1.43E-02
20931,8.47E-03,1.43E-02
20932,5.28E-03,1.44E-02
20933,3.67E-03,1.44E-02
20934,3.75E-03,1.44E-02
20935,3.90E-03,1.44E-02
20936,3.77E-03,1.44E-02
20937,3.65E-03,1.44E-02
20938,3.74E-03,1.44E-02
20939,3.95E-03,1.44E-02
20940,4.19E-03,1.45E-02
20941,4.44E-03,1.45E-02
20942,4.69E-03,1.45E-02
20943,4.89E-03,1.45E-02
20944,5.01E-03,1.45E-02
20945,5.12E-03,1.45E-02
20946,5.22E-03,1.46E-02
20947,5.30E-03,1.46E-02
20948,5.38E-03,1.46E-02
20949,5.46E-03,1.46E-02
20950,5.50E-03,1.46E-02
20951,5.50E-03,1.46E-02
20952,5.45E-03,1.46E-02
20953,5.42E-03,1.47E-02
20954,5.38E-03,1.47E-02
20955,5.35E-03,1.47E-02
20956,5.31E-03,1.47E-02
20957,5.24E-03,1.47E-02
20958,5.14E-03,1.47E-02
20959,5.04E-03,1.47E-02
20960,4.95E-03,1.47E-02
20961,4.85E-03,1.47E-02
20962,4.75E-03,1.47E-02
20963,4.66E-03,1.47E-02
20964,4.58E-03,1.47E-02
20965,4.50E-03,1.47E-02
20966,4.50E-03,1.47E-02
20967,4.63E-03,1.47E-02
20968,4.80E-03,1.47E-02
20969,4.94E-03,1.47E-02
20970,5.03E-03,1.47E-02
20971,5.10E-03,1.47E-02
20972,5.17E-03,1.47E-02
20973,5.27E-03,1.47E-02
20974,5.40E-03,1.47E-02
20975,5.54E-03,1.47E-02
20976,5.73E-03,1.47E-02
20977,6.03E-03,1.47E-02
20978,6.37E-03,1.46E-02
20979,6.69E-03,1.46E-02
20980,6.93E-03,1.46E-02
20981,7.13E-03,1.46E-02
20982,7.33E-03,1.46E-02
20983,7.56E-03,1.46E-02
20984,7.80E-03,1.45E-02
20985,7.90E-03,1.45E-02
20986,7.78E-03,1.45E-02
20987,7.78E-03,1.44E-02
20988,8.14E-03,1.44E-02
20989,8.70E-03,1.44E-02
20990,9.25E-03,1.44E-02
20991,9.74E-03,1.43E-02
20992,9.98E-03,1.43E-02
20993,9.96E-03,1.42E-02
20994,9.95E-03,1.42E-02
20995,1.00E-02,1.42E-02
20996,1.01E-02,1.41E-02
20997,1.02E-02,1.41E-02
20998,1.02E-02,1.40E-02
20999,1.03E-02,1.40E-02
21000,1.04E-02,1.40E-02
21001,1.05E-02,1.39E-02
21002,1.04E-02,1.39E-02
21003,1.03E-02,1.39E-02
21004,1.01E-02,1.38E-02
21005,9.89E-03,1.38E-02
21006,9.70E-03,1.38E-02
21007,9.56E-03,1.37E-02
21008,9.46E-03,1.37E-02
21009,9.37E-03,1.37E-02
21010,9.27E-03,1.37E-02
21011,9.19E-03,1.37E-02
21012,9.12E-03,1.36E-02
21013,9.06E-03,1.36E-02
21014,9.00E-03,1.36E-02
21015,8.92E-03,1.36E-02
21016,8.81E-03,1.36E-02
21017,8.65E-03,1.35E-02
21018,8.49E-03,1.35E-02
21019,8.38E-03,1.35E-02
21020,8.30E-03,1.35E-02
21021,8.24E-03,1.35E-02
21022,8.18E-03,1.35E-02
21023,8.11E-03,1.34E-02
21024,8.05E-03,1.34E-02
21025,7.98E-03,1.34E-02
21026,7.92E-03,1.34E-02
21027,7.89E-03,1.34E-02
21028,7.92E-03,1.34E-02
21029,7.96E-03,1.34E-02
21030,8.00E-03,1.33E-02
21031,8.05E-03,1.33E-02
21032,8.09E-03,1.33E-02
21033,8.15E-03,1.33E-02
21034,8.19E-03,1.33E-02
21035,8.24E-03,1.33E-02
21036,8.26E-03,1.33E-02
21037,8.26E-03,1.33E-02
21038,8.27E-03,1.33E-02
21039,8.28E-03,1.32E-02
21040,8.44E-03,1.32E-02
21041,8.48E-03,1.32E-02
21042,8.62E-03,1.32E-02
21043,8.88E-03,1.32E-02
21044,8.90E-03,1.32E-02
21045,9.20E-03,1.32E-02
21046,9.25E-03,1.32E-02
21047,9.37E-03,1.32E-02
21048,9.43E-03,1.32E-02
21049,9.28E-03,1.32E-02
21050,9.13E-03,1.32E-02
21051,8.86E-03,1.32E-02
21052,8.70E-03,1.32E-02
21053,8.16E-03,1.32E-02
21054,7.85E-03,2.17E-02
21055,7.46E-03,1.33E-02
21056,6.90E-03,1.36E-02
21057,6.48E-03,1.39E-02
21058,6.00E-03,1.42E-02
21059,5.64E-03,1.45E-02
21060,5.86E-03,1.47E-02
21061,2.21E-03,1.49E-02
21062,2.86E-03,1.50E-02
21063,2.95E-03,1.52E-02
21064,3.29E-03,1.53E-02
21065,3.29E-03,1.55E-02
21066,3.68E-03,1.57E-02
21067,3.84E-03,1.59E-02
21068,4.00E-03,1.61E-02
21069,3.72E-03,1.62E-02
21070,2.74E-03,1.64E-02
21071,7.78E-03,6.77E-03
21072,7.64E-03,6.88E-03
21073,7.89E-03,2.03E-02
21074,7.84E-03,2.16E-02
21075,6.49E-03,2.16E-02
21076,8.10E-03,1.48E-02
21077,8.10E-03,1.50E-02
21078,7.61E-03,1.48E-02
21079,5.46E-03,1.40E-02
21080,7.63E-03,1.39E-02
21081,7.98E-03,1.39E-02
21082,6.87E-03,1.36E-02
21083,7.65E-03,6.68E-03
21084,7.44E-03,7.00E-03
21085,7.24E-03,1.64E-02
21086,7.54E-03,1.30E-02
21087,6.96E-03,2.03E-02
21088,7.01E-03,1.98E-02
21089,7.45E-03,1.97E-02
21090,7.66E-03,1.95E-02
21091,7.66E-03,1.94E-02
21092,7.76E-03,1.92E-02
21093,8.03E-03,1.90E-02
21094,8.13E-03,1.89E-02
21095,7.23E-03,1.87E-02
21096,7.16E-03,1.85E-02
21097,7.08E-03,1.83E-02
21098,6.90E-03,1.81E-02
21099,6.74E-03,1.80E-02
21100,6.82E-03,1.78E-02
21101,5.85E-03,1.77E-02
21102,4.38E-03,1.75E-02
21103,3.45E-03,1.74E-02
21104,3.97E-03,1.73E-02
21105,4.11E-03,1.71E-02
21106,3.98E-03,1.69E-02
21107,1.73E-03,1.65E-02
21108,8.03E-03,1.84E-02
21109,7.85E-03,1.78E-02
21110,8.22E-03,1.27E-02
21111,7.87E-03,2.16E-02
21112,7.98E-03,2.19E-02
21113,8.30E-03,1.63E-02
21114,6.28E-03,1.61E-02
21115,7.89E-03,1.41E-02
21116,8.12E-03,5.61E-03
21117,7.25E-03,5.63E-03
21118,3.84E-03,5.67E-03
21119,4.68E-03,5.71E-03
21120,4.87E-03,5.75E-03
21121,5.12E-03,5.78E-03
21122,5.24E-03,5.82E-03
21123,5.46E-03,5.85E-03
21124,5.69E-03,5.89E-03
21125,6.12E-03,5.93E-03
21126,6.14E-03,5.97E-03
21127,6.29E-03,6.01E-03
21128,6.46E-03,6.06E-03
21129,6.60E-03,6.11E-03
21130,6.73E-03,6.16E-03
21131,6.90E-03,6.22E-03
21132,7.09E-03,6.28E-03
21133,7.14E-03,6.34E-03
21134,7.19E-03,6.40E-03
21135,7.24E-03,6.47E-03
21136,7.28E-03,6.54E-03
21137,7.33E-03,6.62E-03
21138,7.38E-03,6.69E-03
21139,7.43E-03,6.77E-03
21140,7.47E-03,6.85E-03
21141,7.50E-03,6.94E-03
21142,7.53E-03,7.02E-03
21143,7.57E-03,7.11E-03
21144,7.60E-03,7.20E-03
21145,7.63E-03,7.30E-03
21146,7.66E-03,7.40E-03
21147,7.68E-03,7.50E-03
21148,7.71E-03,7.60E-03
21149,7.73E-03,7.71E-03
21150,7.75E-03,7.81E-03
21151,7.78E-03,7.93E-03
21152,7.80E-03,8.04E-03
21153,7.81E-03,8.15E-03
21154,7.81E-03,8.27E-03
21155,7.81E-03,8.39E-03
21156,7.81E-03,8.51E-03
21157,7.81E-03,8.64E-03
21158,7.80E-03,8.76E-03
21159,7.80E-03,8.89E-03
21160,7.79E-03,9.02E-03
21161,7.77E-03,9.15E-03
21162,7.74E-03,9.28E-03
21163,7.70E-03,9.41E-03
21164,7.67E-03,9.54E-03
21165,7.64E-03,9.68E-03
21166,7.60E-03,9.81E-03
21167,7.57E-03,9.95E-03
21168,7.53E-03,1.01E-02
21169,7.50E-03,1.02E-02
21170,7.46E-03,1.04E-02
21171,7.41E-03,1.05E-02
21172,7.33E-03,1.06E-02
21173,7.25E-03,1.08E-02
21174,7.16E-03,1.09E-02
21175,7.07E-03,1.11E-02
21176,6.98E-03,1.12E-02
21177,6.90E-03,1.13E-02
21178,6.81E-03,1.15E-02
21179,6.72E-03,1.16E-02
21180,6.65E-03,1.17E-02
21181,6.59E-03,1.19E-02
21182,6.53E-03,1.20E-02
21183,6.41E-03,1.21E-02
21184,6.37E-03,1.22E-02
21185,6.35E-03,1.24E-02
21186,6.37E-03,1.25E-02
21187,6.31E-03,1.26E-02
21188,5.99E-03,1.27E-02
21189,5.52E-03,1.28E-02
21190,5.80E-03,1.30E-02
21191,6.03E-03,1.31E-02
21192,7.21E-03,1.32E-02
21193,5.89E-03,5.30E-03
21194,1.03E-02,1.33E-02
21195,7.33E-03,1.68E-02
21196,7.81E-03,1.59E-02
21197,8.12E-03,1.61E-02
21198,8.27E-03,1.63E-02
21199,8.35E-03,1.65E-02
21200,8.35E-03,1.67E-02
21201,8.29E-03,1.69E-02
21202,7.31E-03,1.71E-02
21203,6.78E-03,1.73E-02
21204,6.44E-03,1.75E-02
21205,9.73E-03,1.24E-02
21206,8.65E-03,1.21E-02
21207,9.26E-03,1.24E-02
21208,9.62E-03,1.24E-02
21209,9.74E-03,1.23E-02
21210,9.74E-03,1.22E-02
21211,1.08E-02,1.22E-02
21212,9.78E-03,1.21E-02
21213,1.06E-02,1.20E-02
21214,1.05E-02,1.20E-02
21215,1.05E-02,1.19E-02
21216,8.83E-03,1.18E-02
21217,8.56E-03,1.17E-02
21218,8.21E-03,1.17E-02
21219,7.49E-03,1.16E-02
21220,7.25E-03,1.16E-02
21221,6.84E-03,1.15E-02
21222,6.41E-03,1.14E-02
21223,6.04E-03,1.14E-02
21224,5.77E-03,1.13E-02
21225,5.54E-03,1.13E-02
21226,5.33E-03,1.13E-02
21227,5.05E-03,1.12E-02
21228,4.89E-03,1.12E-02
21229,4.50E-03,1.11E-02
21230,4.13E-03,1.11E-02
21231,3.76E-03,1.11E-02
21232,3.39E-03,1.10E-02
21233,3.13E-03,1.10E-02
21234,3.06E-03,1.10E-02
21235,3.05E-03,1.10E-02
21236,3.03E-03,1.10E-02
21237,3.02E-03,1.09E-02
21238,3.00E-03,1.09E-02
21239,3.02E-03,1.09E-02
21240,2.96E-03,1.09E-02
21241,2.86E-03,1.09E-02
21242,2.71E-03,1.09E-02
21243,2.80E-03,1.09E-02
21244,2.55E-03,1.08E-02
21245,2.47E-03,1.08E-02
21246,2.65E-03,1.08E-02
21247,2.72E-03,1.08E-02
21248,2.73E-03,1.08E-02
21249,2.81E-03,1.07E-02
21250,2.93E-03,1.07E-02
21251,3.09E-03,1.07E-02
21252,3.25E-03,1.07E-02
21253,3.42E-03,1.07E-02
21254,3.68E-03,1.07E-02
21255,3.99E-03,1.07E-02
21256,4.31E-03,1.07E-02
21257,4.60E-03,1.07E-02
21258,4.81E-03,1.07E-02
21259,4.96E-03,1.07E-02
21260,5.11E-03,1.06E-02
21261,5.26E-03,1.06E-02
21262,5.40E-03,1.06E-02
21263,5.53E-03,1.06E-02
21264,5.66E-03,1.06E-02
21265,5.79E-03,1.06E-02
21266,5.92E-03,1.06E-02
21267,6.05E-03,1.06E-02
21268,6.18E-03,1.06E-02
21269,6.29E-03,1.06E-02
21270,6.37E-03,1.06E-02
21271,6.43E-03,1.06E-02
21272,6.49E-03,1.06E-02
21273,6.56E-03,1.06E-02
21274,6.62E-03,1.06E-02
21275,6.68E-03,1.06E-02
21276,6.74E-03,1.06E-02
21277,6.80E-03,1.06E-02
21278,6.88E-03,1.06E-02
21279,6.99E-03,1.06E-02
21280,7.11E-03,1.06E-02
21281,7.23E-03,1.06E-02
21282,7.34E-03,1.06E-02
21283,7.41E-03,1.06E-02
21284,7.47E-03,1.06E-02
21285,7.52E-03,1.06E-02
21286,7.57E-03,1.06E-02
21287,7.56E-03,1.06E-02
21288,7.47E-03,1.06E-02
21289,7.40E-03,1.06E-02
21290,7.40E-03,1.06E-02
21291,7.49E-03,1.06E-02
21292,8.24E-03,1.06E-02
21293,8.22E-03,1.06E-02
21294,6.93E-03,1.08E-02
21295,7.74E-03,1.24E-02
21296,8.35E-03,2.02E-02
21297,7.07E-03,2.18E-02
21298,8.10E-03,1.48E-02
21299,8.10E-03,1.51E-02
21300,7.01E-03,1.41E-02
21301,7.18E-03,1.40E-02
21302,8.99E-03,6.40E-03
21303,7.81E-03,6.50E-03
21304,7.61E-03,6.60E-03
21305,6.08E-03,7.28E-03
21306,6.80E-03,8.53E-03
21307,6.50E-03,8.60E-03
21308,6.56E-03,8.73E-03
21309,6.56E-03,8.88E-03
21310,6.25E-03,9.03E-03
21311,6.75E-03,9.57E-03
21312,8.10E-03,9.96E-03
21313,7.05E-03,2.07E-02
21314,7.99E-03,1.62E-02
21315,7.63E-03,1.60E-02
21316,1.01E-02,1.58E-02
21317,8.15E-03,1.56E-02
21318,8.09E-03,1.54E-02
21319,8.09E-03,1.52E-02
21320,8.09E-03,1.49E-02
21321,8.09E-03,1.47E-02
21322,8.09E-03,1.45E-02
21323,8.09E-03,1.42E-02
21324,8.09E-03,1.40E-02
21325,8.09E-03,1.38E-02
21326,8.10E-03,1.35E-02
21327,8.09E-03,1.33E-02
21328,8.21E-03,1.30E-02
21329,8.21E-03,1.28E-02
21330,1.14E-02,1.24E-02
21331,8.98E-03,1.21E-02
21332,8.87E-03,1.18E-02
21333,8.83E-03,1.15E-02
21334,8.66E-03,1.12E-02
21335,8.61E-03,1.10E-02
21336,8.55E-03,1.07E-02
21337,8.26E-03,2.21E-02
21338,9.01E-03,2.21E-02
21339,8.48E-03,1.68E-02
21340,9.46E-03,1.68E-02
21341,7.92E-03,1.65E-02
21342,8.87E-03,1.65E-02
21343,9.34E-03,1.66E-02
21344,9.62E-03,1.17E-02
21345,8.18E-03,1.20E-02
21346,8.10E-03,1.64E-02
21347,7.95E-03,1.63E-02
21348,6.83E-03,1.68E-02
21349,8.47E-03,1.69E-02
21350,8.52E-03,1.68E-02
21351,7.78E-03,5.76E-03
21352,7.98E-03,5.89E-03
21353,7.84E-03,1.67E-02
21354,6.63E-03,1.66E-02
21355,7.61E-03,1.67E-02
21356,8.08E-03,1.23E-02
21357,7.94E-03,1.26E-02
21358,8.10E-03,1.86E-02
21359,7.14E-03,2.18E-02
21360,8.05E-03,1.25E-02
21361,8.10E-03,1.08E-02
21362,9.31E-03,5.54E-03
21363,6.36E-03,5.42E-03
21364,4.25E-03,5.39E-03
21365,7.77E-03,2.06E-02
21366,7.81E-03,2.07E-02
21367,8.87E-03,1.54E-02
21368,9.20E-03,1.66E-02
21369,8.82E-03,1.66E-02
21370,8.48E-03,1.95E-02
21371,1.02E-02,1.93E-02
21372,8.37E-03,1.05E-02
21373,3.01E-03,1.03E-02
21374,4.72E-03,1.02E-02
21375,8.73E-03,1.00E-02
21376,8.10E-03,9.73E-03
21377,8.09E-03,9.46E-03
21378,8.09E-03,9.20E-03
21379,8.09E-03,8.94E-03
21380,8.09E-03,8.69E-03
21381,8.09E-03,8.44E-03
21382,8.09E-03,8.19E-03
21383,8.09E-03,7.95E-03
21384,8.09E-03,7.71E-03
21385,8.09E-03,7.49E-03
21386,8.09E-03,7.27E-03
21387,8.09E-03,7.05E-03
21388,8.09E-03,6.85E-03
21389,8.09E-03,6.65E-03
21390,8.09E-03,6.46E-03
21391,8.09E-03,6.29E-03
21392,8.09E-03,6.12E-03
21393,8.09E-03,5.97E-03
21394,8.09E-03,5.83E-03
21395,8.09E-03,5.70E-03
21396,8.09E-03,5.58E-03
21397,8.09E-03,5.48E-03
21398,8.09E-03,5.40E-03
21399,8.12E-03,5.33E-03
21400,8.26E-03,5.27E-03
21401,8.13E-03,5.22E-03
21402,7.66E-03,5.23E-03
21403,7.33E-03,5.24E-03
21404,8.99E-03,5.50E-03
21405,8.10E-03,1.09E-02
21406,7.22E-03,2.20E-02
21407,8.10E-03,1.52E-02
21408,5.78E-03,2.21E-02
21409,7.15E-03,2.11E-02
21410,8.10E-03,1.11E-02
21411,7.07E-03,1.89E-02
21412,7.12E-03,5.35E-03
21413,8.10E-03,1.49E-02
21414,7.02E-03,1.66E-02
21415,7.29E-03,5.62E-03
21416,8.36E-03,1.67E-02
21417,5.64E-03,2.20E-02
21418,6.70E-03,2.20E-02
21419,7.36E-03,2.15E-02
21420,7.90E-03,1.64E-02
21421,7.52E-03,1.24E-02
21422,7.08E-03,1.61E-02
21423,6.94E-03,1.60E-02
21424,8.27E-03,1.67E-02
21425,9.10E-03,5.44E-03
21426,7.83E-03,1.65E-02
21427,7.18E-03,5.50E-03
21428,8.10E-03,1.49E-02
21429,8.15E-03,1.53E-02
21430,8.13E-03,1.67E-02
21431,7.57E-03,1.65E-02
21432,8.10E-03,1.49E-02
21433,6.59E-03,1.67E-02
21434,6.54E-03,1.67E-02
21435,7.42E-03,1.59E-02
21436,7.75E-03,1.59E-02
21437,7.51E-03,1.58E-02
21438,8.28E-03,1.53E-02
21439,7.40E-03,1.66E-02
21440,8.22E-03,1.66E-02
21441,8.30E-03,1.66E-02
21442,8.10E-03,1.15E-02
21443,8.10E-03,1.13E-02
21444,8.10E-03,1.12E-02
21445,7.80E-03,1.57E-02
21446,7.77E-03,1.57E-02
21447,7.56E-03,1.57E-02
21448,7.53E-03,1.56E-02
21449,7.49E-03,1.56E-02
21450,8.10E-03,1.49E-02
21451,8.38E-03,1.54E-02
21452,5.61E-03,1.68E-02
21453,8.10E-03,1.49E-02
21454,7.47E-03,1.55E-02
21455,8.10E-03,1.49E-02
21456,8.10E-03,1.49E-02
21457,8.10E-03,1.48E-02
21458,8.10E-03,1.16E-02
21459,8.10E-03,1.17E-02
21460,8.10E-03,1.20E-02
21461,8.10E-03,1.19E-02
21462,8.10E-03,1.21E-02
21463,8.10E-03,1.48E-02
21464,8.10E-03,1.23E-02
21465,8.10E-03,1.48E-02
21466,8.10E-03,1.24E-02
21467,8.10E-03,1.48E-02
21468,8.10E-03,1.25E-02
21469,8.10E-03,1.47E-02
21470,8.10E-03,1.26E-02
21471,8.10E-03,1.47E-02
21472,8.10E-03,1.28E-02
21473,8.10E-03,1.29E-02
21474,8.10E-03,1.46E-02
21475,8.10E-03,1.46E-02
21476,8.10E-03,1.30E-02
21477,8.10E-03,1.45E-02
21478,8.10E-03,1.45E-02
21479,8.10E-03,1.31E-02
21480,8.10E-03,1.32E-02
21481,8.10E-03,1.44E-02
21482,8.10E-03,1.33E-02
21483,8.10E-03,1.43E-02
21484,8.10E-03,1.34E-02
21485,8.10E-03,1.35E-02
21486,8.10E-03,1.43E-02
21487,8.10E-03,1.42E-02
21488,8.10E-03,1.36E-02
21489,8.10E-03,1.37E-02
21490,8.10E-03,1.41E-02
21491,8.10E-03,1.38E-02
21492,8.10E-03,1.39E-02
21493,8.10E-03,1.40E-02
21494,8.08E-03,1.51E-02
21495,7.43E-03,2.18E-02
21496,8.18E-03,2.19E-02
21497,8.11E-03,2.21E-02
21498,6.21E-03,1.52E-02
21499,7.57E-03,1.50E-02
21500,1.08E-02,1.29E-02
21501,7.82E-03,2.08E-02
21502,8.44E-03,1.31E-02
21503,9.33E-03,1.31E-02
21504,7.65E-03,2.04E-02
21505,7.99E-03,2.16E-02
21506,8.06E-03,2.16E-02
21507,9.39E-03,2.16E-02
21508,9.65E-03,2.16E-02
21509,7.89E-03,2.16E-02
21510,8.10E-03,1.48E-02
21511,8.10E-03,1.49E-02
21512,8.10E-03,1.49E-02
21513,8.10E-03,1.49E-02
21514,8.10E-03,1.49E-02
21515,8.10E-03,1.50E-02
21516,8.10E-03,1.50E-02
21517,8.10E-03,1.50E-02
21518,8.10E-03,1.49E-02
21519,8.10E-03,1.49E-02
21520,5.13E-03,1.73E-02
21521,6.94E-03,1.72E-02
21522,8.12E-03,1.70E-02
21523,8.02E-03,1.68E-02
21524,8.24E-03,1.66E-02
21525,8.19E-03,1.63E-02
21526,8.08E-03,1.61E-02
21527,8.06E-03,1.59E-02
21528,9.00E-03,1.54E-02
21529,9.14E-03,1.57E-02
21530,7.80E-03,1.48E-02
21531,7.76E-03,1.45E-02
21532,7.71E-03,1.43E-02
21533,7.70E-03,1.41E-02
21534,7.63E-03,1.39E-02
21535,7.61E-03,1.36E-02
21536,9.84E-03,1.26E-02
21537,8.78E-03,1.29E-02
21538,7.85E-03,1.32E-02
21539,7.74E-03,1.34E-02
21540,8.07E-03,1.38E-02
21541,7.28E-03,1.36E-02
21542,9.59E-03,1.37E-02
21543,8.16E-03,1.37E-02
21544,7.63E-03,6.79E-03
21545,7.43E-03,6.90E-03
21546,7.55E-03,7.03E-03
21547,6.26E-03,1.65E-02
21548,7.76E-03,1.65E-02
21549,6.78E-03,7.35E-03
21550,7.02E-03,7.38E-03
21551,7.09E-03,7.45E-03
21552,6.92E-03,7.53E-03
21553,6.25E-03,7.61E-03
21554,5.95E-03,7.70E-03
21555,5.46E-03,7.78E-03
21556,4.15E-03,7.87E-03
21557,2.93E-03,7.95E-03
21558,3.27E-03,8.00E-03
21559,3.41E-03,8.07E-03
21560,3.40E-03,8.13E-03
21561,5.04E-03,8.24E-03
21562,6.85E-03,8.43E-03
21563,7.33E-03,1.33E-02
21564,7.06E-03,1.36E-02
21565,6.86E-03,1.39E-02
21566,6.70E-03,1.42E-02
21567,5.68E-03,1.45E-02
21568,5.81E-03,1.48E-02
21569,2.27E-03,1.49E-02
21570,2.83E-03,1.51E-02
21571,2.92E-03,1.52E-02
21572,3.36E-03,1.54E-02
21573,3.40E-03,1.55E-02
21574,3.60E-03,1.57E-02
21575,3.74E-03,1.59E-02
21576,4.02E-03,1.61E-02
21577,4.00E-03,1.62E-02
21578,7.07E-03,2.01E-02
21579,7.41E-03,2.00E-02
21580,7.53E-03,1.99E-02
21581,7.61E-03,1.97E-02
21582,7.75E-03,1.95E-02
21583,8.02E-03,1.94E-02
21584,8.06E-03,1.92E-02
21585,7.29E-03,1.90E-02
21586,7.13E-03,1.88E-02
21587,7.04E-03,1.87E-02
21588,6.87E-03,1.85E-02
21589,6.65E-03,1.83E-02
21590,6.36E-03,1.82E-02
21591,5.91E-03,1.80E-02
21592,5.70E-03,1.78E-02
21593,4.52E-03,1.76E-02
21594,4.03E-03,1.75E-02
21595,4.06E-03,1.74E-02
21596,3.81E-03,1.73E-02
21597,3.56E-03,1.72E-02
21598,3.20E-03,1.70E-02
21599,2.50E-03,1.69E-02
21600,4.23E-03,1.66E-02
21601,4.55E-03,1.64E-02
21602,7.94E-03,1.82E-02
21603,8.23E-03,1.80E-02
21604,8.36E-03,1.28E-02
21605,8.71E-03,1.28E-02
21606,8.83E-03,2.15E-02
21607,7.74E-03,2.09E-02
21608,7.76E-03,2.10E-02
21609,7.79E-03,2.11E-02
21610,7.88E-03,2.12E-02
21611,8.90E-03,2.14E-02
21612,7.82E-03,2.20E-02
21613,6.74E-03,1.63E-02
21614,7.12E-03,1.62E-02
21615,8.18E-03,1.62E-02
21616,8.61E-03,1.52E-02
21617,8.30E-03,1.42E-02
21618,9.21E-03,1.42E-02
21619,8.80E-03,1.42E-02
21620,8.64E-03,1.43E-02
21621,5.33E-03,1.43E-02
21622,3.75E-03,1.43E-02
21623,3.83E-03,1.44E-02
21624,3.98E-03,1.44E-02
21625,3.85E-03,1.44E-02
21626,3.74E-03,1.44E-02
21627,3.82E-03,1.44E-02
21628,4.03E-03,1.44E-02
21629,4.26E-03,1.44E-02
21630,4.51E-03,1.45E-02
21631,4.75E-03,1.45E-02
21632,4.95E-03,1.45E-02
21633,5.07E-03,1.45E-02
21634,5.17E-03,1.45E-02
21635,5.27E-03,1.45E-02
21636,5.35E-03,1.46E-02
21637,5.43E-03,1.46E-02
21638,5.51E-03,1.46E-02
21639,5.55E-03,1.46E-02
21640,5.54E-03,1.46E-02
21641,5.50E-03,1.46E-02
21642,5.47E-03,1.47E-02
21643,5.43E-03,1.47E-02
21644,5.40E-03,1.47E-02
21645,5.36E-03,1.47E-02
21646,5.29E-03,1.47E-02
21647,5.20E-03,1.47E-02
21648,5.10E-03,1.47E-02
21649,5.00E-03,1.47E-02
21650,4.91E-03,1.47E-02
21651,4.81E-03,1.47E-02
21652,4.72E-03,1.47E-02
21653,4.64E-03,1.47E-02
21654,4.56E-03,1.47E-02
21655,4.57E-03,1.47E-02
21656,4.69E-03,1.47E-02
21657,4.86E-03,1.47E-02
21658,5.00E-03,1.47E-02
21659,5.09E-03,1.47E-02
21660,5.15E-03,1.47E-02
21661,5.22E-03,1.47E-02
21662,5.32E-03,1.47E-02
21663,5.45E-03,1.47E-02
21664,5.59E-03,1.47E-02
21665,5.77E-03,1.47E-02
21666,6.06E-03,1.47E-02
21667,6.41E-03,1.47E-02
21668,6.71E-03,1.47E-02
21669,6.95E-03,1.46E-02
21670,7.14E-03,1.46E-02
21671,7.34E-03,1.46E-02
21672,7.57E-03,1.46E-02
21673,7.80E-03,1.46E-02
21674,7.90E-03,1.45E-02
21675,7.79E-03,1.45E-02
21676,7.78E-03,1.45E-02
21677,8.14E-03,1.45E-02
21678,8.69E-03,1.44E-02
21679,9.23E-03,1.44E-02
21680,9.71E-03,1.44E-02
21681,9.94E-03,1.43E-02
21682,9.93E-03,1.43E-02
21683,9.92E-03,1.43E-02
21684,9.99E-03,1.42E-02
21685,1.01E-02,1.42E-02
21686,1.01E-02,1.42E-02
21687,1.02E-02,1.41E-02
21688,1.03E-02,1.41E-02
21689,1.04E-02,1.41E-02
21690,1.04E-02,1.40E-02
21691,1.04E-02,1.40E-02
21692,1.03E-02,1.40E-02
21693,1.01E-02,1.39E-02
21694,9.86E-03,1.39E-02
21695,9.67E-03,1.39E-02
21696,9.54E-03,1.38E-02
21697,9.44E-03,1.38E-02
21698,9.34E-03,1.38E-02
21699,9.25E-03,1.38E-02
21700,9.17E-03,1.38E-02
21701,9.11E-03,1.37E-02
21702,9.04E-03,1.37E-02
21703,8.98E-03,1.37E-02
21704,8.91E-03,1.37E-02
21705,8.80E-03,1.37E-02
21706,8.64E-03,1.37E-02
21707,8.48E-03,1.37E-02
21708,8.37E-03,1.36E-02
21709,8.30E-03,1.36E-02
21710,8.24E-03,1.36E-02
21711,8.18E-03,1.36E-02
21712,8.11E-03,1.36E-02
21713,8.05E-03,1.36E-02
21714,7.98E-03,1.36E-02
21715,7.92E-03,1.36E-02
21716,7.90E-03,1.35E-02
21717,7.92E-03,1.35E-02
21718,7.96E-03,1.35E-02
21719,8.00E-03,1.35E-02
21720,8.05E-03,1.35E-02
21721,8.09E-03,1.35E-02
21722,8.15E-03,1.35E-02
21723,8.19E-03,1.35E-02
21724,8.23E-03,1.34E-02
21725,8.25E-03,1.34E-02
21726,8.26E-03,1.34E-02
21727,8.26E-03,1.34E-02
21728,8.28E-03,1.34E-02
21729,8.44E-03,1.34E-02
21730,8.47E-03,1.34E-02
21731,8.58E-03,1.34E-02
21732,8.84E-03,1.34E-02
21733,8.91E-03,1.34E-02
21734,9.20E-03,1.34E-02
21735,9.27E-03,1.34E-02
21736,9.35E-03,1.34E-02
21737,9.35E-03,1.34E-02
21738,9.34E-03,1.34E-02
21739,9.20E-03,1.34E-02
21740,9.05E-03,1.34E-02
21741,8.95E-03,1.34E-02
21742,8.78E-03,1.34E-02
21743,9.15E-03,1.34E-02
21744,4.51E-03,5.35E-03
21745,6.47E-03,5.37E-03
21746,7.88E-03,1.78E-02
21747,7.86E-03,1.32E-02
21748,7.42E-03,1.68E-02
21749,7.31E-03,1.16E-02
21750,4.91E-03,1.75E-02
21751,8.41E-03,1.18E-02
21752,9.38E-03,1.10E-02
21753,8.21E-03,1.16E-02
21754,1.11E-02,1.23E-02
21755,8.06E-03,2.04E-02
21756,7.82E-03,2.07E-02
21757,7.91E-03,2.18E-02
21758,7.39E-03,2.18E-02
21759,8.10E-03,1.49E-02
21760,8.10E-03,1.51E-02
21761,6.31E-03,1.74E-02
21762,7.73E-03,1.39E-02
21763,8.18E-03,1.39E-02
21764,8.37E-03,1.38E-02
21765,7.54E-03,6.71E-03
21766,7.49E-03,1.64E-02
21767,7.27E-03,7.31E-03
21768,6.09E-03,9.31E-03
21769,6.08E-03,9.19E-03
21770,6.56E-03,9.06E-03
21771,6.67E-03,8.92E-03
21772,6.45E-03,8.78E-03
21773,5.76E-03,8.64E-03
21774,5.24E-03,8.59E-03
21775,7.41E-03,9.67E-03
21776,7.01E-03,2.06E-02
21777,8.48E-03,1.07E-02
21778,9.68E-03,1.23E-02
21779,9.66E-03,1.22E-02
21780,9.63E-03,1.22E-02
21781,9.53E-03,1.21E-02
21782,1.07E-02,1.21E-02
21783,9.22E-03,1.20E-02
21784,1.09E-02,1.19E-02
21785,1.05E-02,1.18E-02
21786,1.04E-02,1.18E-02
21787,9.11E-03,1.17E-02
21788,8.58E-03,1.16E-02
21789,8.07E-03,1.15E-02
21790,7.64E-03,1.15E-02
21791,7.28E-03,1.14E-02
21792,6.85E-03,1.14E-02
21793,6.39E-03,1.13E-02
21794,6.05E-03,1.12E-02
21795,5.82E-03,1.12E-02
21796,5.59E-03,1.12E-02
21797,5.37E-03,1.11E-02
21798,5.14E-03,1.11E-02
21799,4.89E-03,1.10E-02
21800,4.56E-03,1.10E-02
21801,4.20E-03,1.09E-02
21802,3.84E-03,1.09E-02
21803,3.47E-03,1.09E-02
21804,3.22E-03,1.09E-02
21805,3.15E-03,1.08E-02
21806,3.14E-03,1.08E-02
21807,3.13E-03,1.08E-02
21808,3.11E-03,1.08E-02
21809,3.10E-03,1.08E-02
21810,3.08E-03,1.07E-02
21811,3.01E-03,1.07E-02
21812,2.98E-03,1.07E-02
21813,2.86E-03,1.07E-02
21814,2.80E-03,1.07E-02
21815,2.79E-03,1.07E-02
21816,2.73E-03,1.06E-02
21817,2.71E-03,1.06E-02
21818,2.76E-03,1.06E-02
21819,2.83E-03,1.06E-02
21820,2.91E-03,1.06E-02
21821,3.02E-03,1.06E-02
21822,3.18E-03,1.06E-02
21823,3.34E-03,1.05E-02
21824,3.51E-03,1.05E-02
21825,3.76E-03,1.05E-02
21826,4.06E-03,1.05E-02
21827,4.38E-03,1.05E-02
21828,4.66E-03,1.05E-02
21829,4.87E-03,1.05E-02
21830,5.02E-03,1.05E-02
21831,5.17E-03,1.05E-02
21832,5.31E-03,1.05E-02
21833,5.45E-03,1.04E-02
21834,5.58E-03,1.04E-02
21835,5.70E-03,1.04E-02
21836,5.83E-03,1.04E-02
21837,5.96E-03,1.04E-02
21838,6.08E-03,1.04E-02
21839,6.21E-03,1.04E-02
21840,6.32E-03,1.04E-02
21841,6.40E-03,1.04E-02
21842,6.46E-03,1.04E-02
21843,6.52E-03,1.04E-02
21844,6.58E-03,1.04E-02
21845,6.64E-03,1.04E-02
21846,6.70E-03,1.04E-02
21847,6.76E-03,1.04E-02
21848,6.82E-03,1.04E-02
21849,6.90E-03,1.04E-02
21850,7.01E-03,1.04E-02
21851,7.13E-03,1.04E-02
21852,7.25E-03,1.04E-02
21853,7.35E-03,1.04E-02
21854,7.42E-03,1.04E-02
21855,7.48E-03,1.04E-02
21856,7.53E-03,1.04E-02
21857,7.58E-03,1.04E-02
21858,7.53E-03,1.04E-02
21859,7.46E-03,1.04E-02
21860,7.41E-03,1.04E-02
21861,7.49E-03,1.04E-02
21862,7.71E-03,1.04E-02
21863,8.57E-03,1.04E-02
21864,7.62E-03,1.03E-02
21865,6.45E-03,1.05E-02
21866,5.93E-03,1.06E-02
21867,7.29E-03,2.24E-02
21868,7.60E-03,2.24E-02
21869,8.28E-03,1.67E-02
21870,7.74E-03,1.65E-02
21871,7.80E-03,1.19E-02
21872,6.01E-03,2.01E-02
21873,7.53E-03,1.99E-02
21874,7.92E-03,1.62E-02
21875,8.04E-03,2.21E-02
21876,7.23E-03,1.67E-02
21877,7.76E-03,1.67E-02
21878,9.05E-03,1.32E-02
21879,5.97E-03,1.32E-02
21880,6.32E-03,1.32E-02
21881,8.09E-03,5.87E-03
21882,6.85E-03,1.65E-02
21883,7.44E-03,1.66E-02
21884,7.11E-03,1.64E-02
21885,7.44E-03,1.29E-02
21886,6.55E-03,1.77E-02
21887,7.97E-03,1.85E-02
21888,7.52E-03,2.17E-02
21889,8.27E-03,1.26E-02
21890,9.24E-03,1.24E-02
21891,9.03E-03,1.21E-02
21892,8.09E-03,1.07E-02
21893,8.09E-03,1.05E-02
21894,8.09E-03,1.04E-02
21895,8.09E-03,1.03E-02
21896,8.09E-03,1.01E-02
21897,8.09E-03,9.98E-03
21898,8.09E-03,9.84E-03
21899,8.09E-03,9.70E-03
21900,8.09E-03,9.56E-03
21901,8.09E-03,9.41E-03
21902,8.09E-03,9.27E-03
21903,8.09E-03,9.12E-03
21904,8.09E-03,8.97E-03
21905,8.09E-03,8.83E-03
21906,8.09E-03,8.68E-03
21907,8.09E-03,8.53E-03
21908,8.09E-03,8.38E-03
21909,8.09E-03,8.23E-03
21910,8.09E-03,8.08E-03
21911,8.09E-03,7.93E-03
21912,8.09E-03,7.78E-03
21913,8.09E-03,7.63E-03
21914,8.09E-03,7.48E-03
21915,8.09E-03,7.34E-03
21916,8.09E-03,7.19E-03
21917,8.09E-03,7.05E-03
21918,8.09E-03,6.90E-03
21919,8.09E-03,6.77E-03
21920,8.09E-03,6.63E-03
21921,8.09E-03,6.50E-03
21922,8.09E-03,6.37E-03
21923,8.02E-03,6.25E-03
21924,8.01E-03,6.12E-03
21925,7.97E-03,6.01E-03
21926,7.99E-03,5.90E-03
21927,8.01E-03,5.80E-03
21928,8.08E-03,5.72E-03
21929,8.25E-03,5.64E-03
21930,8.44E-03,5.57E-03
21931,8.21E-03,5.52E-03
21932,7.89E-03,5.44E-03
21933,7.75E-03,5.46E-03
21934,7.80E-03,5.45E-03
21935,8.14E-03,5.39E-03
21936,6.07E-03,5.30E-03
21937,5.42E-03,5.36E-03
21938,6.79E-03,5.38E-03
21939,8.13E-03,1.41E-02
21940,9.11E-03,5.56E-03
21941,6.94E-03,5.58E-03
21942,3.84E-03,5.62E-03
21943,4.76E-03,5.67E-03
21944,4.80E-03,5.70E-03
21945,5.18E-03,5.74E-03
21946,5.41E-03,5.77E-03
21947,5.49E-03,5.80E-03
21948,5.71E-03,5.84E-03
21949,6.18E-03,5.87E-03
21950,6.20E-03,5.91E-03
21951,6.35E-03,5.95E-03
21952,6.52E-03,6.00E-03
21953,6.65E-03,6.04E-03
21954,6.78E-03,6.10E-03
21955,6.97E-03,6.15E-03
21956,7.11E-03,6.21E-03
21957,7.16E-03,6.27E-03
21958,7.20E-03,6.33E-03
21959,7.25E-03,6.40E-03
21960,7.30E-03,6.47E-03
21961,7.35E-03,6.54E-03
21962,7.39E-03,6.61E-03
21963,7.44E-03,6.69E-03
21964,7.48E-03,6.77E-03
21965,7.51E-03,6.85E-03
21966,7.54E-03,6.94E-03
21967,7.58E-03,7.03E-03
21968,7.61E-03,7.12E-03
21969,7.64E-03,7.21E-03
21970,7.67E-03,7.31E-03
21971,7.69E-03,7.41E-03
21972,7.71E-03,7.51E-03
21973,7.74E-03,7.62E-03
21974,7.76E-03,7.73E-03
21975,7.78E-03,7.84E-03
21976,7.80E-03,7.95E-03
21977,7.81E-03,8.07E-03
21978,7.81E-03,8.18E-03
21979,7.81E-03,8.31E-03
21980,7.81E-03,8.43E-03
21981,7.81E-03,8.55E-03
21982,7.81E-03,8.68E-03
21983,7.81E-03,8.80E-03
21984,7.80E-03,8.93E-03
21985,7.78E-03,9.07E-03
21986,7.74E-03,9.20E-03
21987,7.71E-03,9.33E-03
21988,7.68E-03,9.47E-03
21989,7.64E-03,9.60E-03
21990,7.61E-03,9.74E-03
21991,7.58E-03,9.87E-03
21992,7.54E-03,1.00E-02
21993,7.51E-03,1.02E-02
21994,7.47E-03,1.03E-02
21995,7.42E-03,1.04E-02
21996,7.35E-03,1.06E-02
21997,7.26E-03,1.07E-02
21998,7.18E-03,1.08E-02
21999,7.09E-03,1.10E-02
22000,7.00E-03,1.11E-02
22001,6.92E-03,1.13E-02
22002,6.83E-03,1.14E-02
22003,6.75E-03,1.15E-02
22004,6.68E-03,1.17E-02
22005,6.62E-03,1.18E-02
22006,6.56E-03,1.19E-02
22007,6.50E-03,1.21E-02
22008,6.45E-03,1.22E-02
22009,6.39E-03,1.23E-02
22010,6.29E-03,1.25E-02
22011,6.17E-03,1.26E-02
22012,6.05E-03,1.27E-02
22013,5.93E-03,1.28E-02
22014,5.98E-03,1.29E-02
22015,6.33E-03,1.31E-02
22016,6.85E-03,1.32E-02
22017,7.82E-03,1.34E-02
22018,6.24E-03,1.34E-02
22019,7.21E-03,1.68E-02
22020,8.81E-03,1.66E-02
22021,8.47E-03,1.65E-02
22022,8.49E-03,1.96E-02
22023,8.48E-03,1.94E-02
22024,8.18E-03,1.93E-02
22025,7.95E-03,1.61E-02
22026,7.62E-03,1.59E-02
22027,9.95E-03,1.57E-02
22028,8.14E-03,1.55E-02
22029,8.09E-03,1.53E-02
22030,8.09E-03,1.51E-02
22031,8.09E-03,1.48E-02
22032,8.09E-03,1.46E-02
22033,8.09E-03,1.44E-02
22034,8.09E-03,1.41E-02
22035,8.09E-03,1.39E-02
22036,8.09E-03,1.37E-02
22037,8.10E-03,1.34E-02
22038,8.09E-03,1.32E-02
22039,8.20E-03,1.29E-02
22040,8.20E-03,1.27E-02
22041,1.13E-02,1.24E-02
22042,9.03E-03,1.20E-02
22043,8.94E-03,1.17E-02
22044,8.76E-03,1.15E-02
22045,8.71E-03,1.12E-02
22046,8.97E-03,2.20E-02
22047,8.63E-03,6.01E-03
22048,7.87E-03,1.23E-02
22049,8.34E-03,1.05E-02
22050,3.11E-03,1.03E-02
22051,4.80E-03,1.02E-02
22052,8.70E-03,9.94E-03
22053,8.10E-03,9.66E-03
22054,8.09E-03,9.40E-03
22055,8.09E-03,9.14E-03
22056,8.09E-03,8.88E-03
22057,8.09E-03,8.63E-03
22058,8.09E-03,8.38E-03
22059,8.09E-03,8.13E-03
22060,8.09E-03,7.89E-03
22061,8.09E-03,7.66E-03
22062,8.09E-03,7.43E-03
22063,8.09E-03,7.21E-03
22064,8.09E-03,6.99E-03
22065,8.09E-03,6.79E-03
22066,8.09E-03,6.59E-03
22067,8.09E-03,6.40E-03
22068,8.09E-03,6.22E-03
22069,8.09E-03,6.06E-03
22070,8.09E-03,5.90E-03
22071,8.09E-03,5.76E-03
22072,8.09E-03,5.63E-03
22073,8.09E-03,5.51E-03
22074,8.09E-03,5.41E-03
22075,8.09E-03,5.32E-03
22076,8.09E-03,5.25E-03
22077,8.13E-03,5.20E-03
22078,8.12E-03,5.17E-03
22079,8.04E-03,5.16E-03
22080,8.20E-03,5.17E-03
22081,9.43E-03,5.18E-03
22082,8.47E-03,2.02E-02
22083,5.93E-03,2.02E-02
22084,9.23E-03,5.52E-03
22085,8.10E-03,1.08E-02
22086,7.57E-03,2.20E-02
22087,8.10E-03,1.52E-02
22088,6.45E-03,2.19E-02
22089,8.15E-03,1.63E-02
22090,6.93E-03,1.67E-02
22091,7.11E-03,2.10E-02
22092,8.10E-03,1.09E-02
22093,7.57E-03,6.64E-03
22094,7.33E-03,6.52E-03
22095,7.78E-03,1.87E-02
22096,8.54E-03,5.24E-03
22097,8.10E-03,1.49E-02
22098,8.37E-03,1.00E-02
22099,7.83E-03,1.26E-02
22100,9.02E-03,6.14E-03
22101,7.76E-03,1.35E-02
22102,7.21E-03,1.67E-02
22103,6.91E-03,1.65E-02
22104,7.89E-03,5.72E-03
22105,8.24E-03,1.67E-02
22106,6.93E-03,2.23E-02
22107,7.02E-03,2.23E-02
22108,8.02E-03,2.19E-02
22109,7.48E-03,2.14E-02
22110,8.04E-03,2.21E-02
22111,8.00E-03,1.63E-02
22112,8.00E-03,1.24E-02
22113,8.57E-03,1.09E-02
22114,8.42E-03,1.61E-02
22115,7.52E-03,1.60E-02
22116,8.30E-03,1.67E-02
22117,8.81E-03,5.47E-03
22118,5.55E-03,2.23E-02
22119,7.87E-03,1.63E-02
22120,4.20E-03,2.22E-02
22121,6.52E-03,1.90E-02
22122,7.65E-03,5.45E-03
22123,6.95E-03,5.41E-03
22124,7.82E-03,2.22E-02
22125,8.10E-03,1.49E-02
22126,8.10E-03,1.52E-02
22127,8.12E-03,1.66E-02
22128,6.77E-03,1.92E-02
22129,7.65E-03,1.64E-02
22130,8.10E-03,1.49E-02
22131,6.78E-03,1.66E-02
22132,6.64E-03,1.67E-02
22133,7.45E-03,1.60E-02
22134,7.67E-03,1.59E-02
22135,7.45E-03,1.59E-02
22136,7.57E-03,5.58E-03
22137,8.14E-03,1.53E-02
22138,7.49E-03,1.64E-02
22139,3.21E-03,2.23E-02
22140,8.12E-03,1.66E-02
22141,8.13E-03,1.66E-02
22142,8.10E-03,1.13E-02
22143,8.10E-03,1.12E-02
22144,8.10E-03,1.11E-02
22145,7.73E-03,1.58E-02
22146,7.66E-03,1.57E-02
22147,7.52E-03,1.57E-02
22148,7.42E-03,1.57E-02
22149,7.52E-03,1.56E-02
22150,8.10E-03,1.49E-02
22151,8.31E-03,1.54E-02
22152,7.26E-03,1.65E-02
22153,8.04E-03,1.65E-02
22154,6.13E-03,1.67E-02
22155,8.10E-03,1.49E-02
22156,8.27E-03,1.55E-02
22157,5.11E-03,1.66E-02
22158,7.63E-03,5.45E-03
22159,8.10E-03,1.49E-02
22160,7.55E-03,1.55E-02
22161,8.10E-03,1.49E-02
22162,8.10E-03,1.49E-02
22163,8.10E-03,1.15E-02
22164,8.10E-03,1.16E-02
22165,8.10E-03,1.19E-02
22166,8.10E-03,1.18E-02
22167,8.10E-03,1.20E-02
22168,8.10E-03,1.48E-02
22169,8.10E-03,1.21E-02
22170,8.10E-03,1.48E-02
22171,8.10E-03,1.23E-02
22172,8.10E-03,1.48E-02
22173,8.10E-03,1.24E-02
22174,8.10E-03,1.48E-02
22175,8.10E-03,1.25E-02
22176,8.10E-03,1.47E-02
22177,8.10E-03,1.27E-02
22178,8.10E-03,1.28E-02
22179,8.10E-03,1.47E-02
22180,8.10E-03,1.46E-02
22181,8.10E-03,1.29E-02
22182,8.10E-03,1.46E-02
22183,8.10E-03,1.45E-02
22184,5.71E-03,1.66E-02
22185,8.10E-03,1.30E-02
22186,8.10E-03,1.31E-02
22187,8.10E-03,1.44E-02
22188,8.10E-03,1.32E-02
22189,8.10E-03,1.44E-02
22190,8.10E-03,1.33E-02
22191,8.10E-03,1.35E-02
22192,8.10E-03,1.43E-02
22193,8.10E-03,1.42E-02
22194,8.10E-03,1.36E-02
22195,8.10E-03,1.37E-02
22196,8.10E-03,1.41E-02
22197,8.10E-03,1.38E-02
22198,8.10E-03,1.39E-02
22199,8.10E-03,1.40E-02
22200,8.10E-03,1.40E-02
22201,7.04E-03,5.38E-03
22202,1.04E-02,1.10E-02
22203,9.30E-03,1.13E-02
22204,9.98E-03,1.30E-02
22205,9.33E-03,1.30E-02
22206,1.01E-02,1.22E-02
22207,9.55E-03,1.21E-02
22208,9.50E-03,1.20E-02
22209,9.39E-03,1.20E-02
22210,1.06E-02,1.19E-02
22211,8.84E-03,1.19E-02
22212,1.13E-02,1.18E-02
22213,1.06E-02,1.17E-02
22214,1.01E-02,1.16E-02
22215,9.36E-03,1.15E-02
22216,8.44E-03,1.15E-02
22217,7.97E-03,1.14E-02
22218,7.65E-03,1.13E-02
22219,7.30E-03,1.13E-02
22220,6.88E-03,1.12E-02
22221,6.42E-03,1.12E-02
22222,6.09E-03,1.11E-02
22223,5.86E-03,1.11E-02
22224,5.64E-03,1.10E-02
22225,5.42E-03,1.10E-02
22226,5.20E-03,1.09E-02
22227,4.95E-03,1.09E-02
22228,4.63E-03,1.08E-02
22229,4.27E-03,1.08E-02
22230,3.92E-03,1.08E-02
22231,3.56E-03,1.07E-02
22232,3.31E-03,1.07E-02
22233,3.24E-03,1.07E-02
22234,3.23E-03,1.07E-02
22235,3.22E-03,1.06E-02
22236,3.21E-03,1.06E-02
22237,3.19E-03,1.06E-02
22238,3.17E-03,1.06E-02
22239,3.13E-03,1.06E-02
22240,3.08E-03,1.05E-02
22241,2.98E-03,1.05E-02
22242,2.96E-03,1.05E-02
22243,2.85E-03,1.05E-02
22244,2.83E-03,1.05E-02
22245,2.81E-03,1.04E-02
22246,2.83E-03,1.04E-02
22247,2.93E-03,1.04E-02
22248,3.01E-03,1.04E-02
22249,3.12E-03,1.04E-02
22250,3.27E-03,1.04E-02
22251,3.42E-03,1.04E-02
22252,3.59E-03,1.04E-02
22253,3.84E-03,1.03E-02
22254,4.14E-03,1.03E-02
22255,4.45E-03,1.03E-02
22256,4.73E-03,1.03E-02
22257,4.93E-03,1.03E-02
22258,5.08E-03,1.03E-02
22259,5.22E-03,1.03E-02
22260,5.36E-03,1.03E-02
22261,5.50E-03,1.03E-02
22262,5.62E-03,1.03E-02
22263,5.75E-03,1.02E-02
22264,5.87E-03,1.02E-02
22265,6.00E-03,1.02E-02
22266,6.12E-03,1.02E-02
22267,6.25E-03,1.02E-02
22268,6.36E-03,1.02E-02
22269,6.44E-03,1.02E-02
22270,6.50E-03,1.02E-02
22271,6.55E-03,1.02E-02
22272,6.61E-03,1.02E-02
22273,6.67E-03,1.02E-02
22274,6.73E-03,1.02E-02
22275,6.79E-03,1.02E-02
22276,6.85E-03,1.02E-02
22277,6.92E-03,1.02E-02
22278,7.03E-03,1.02E-02
22279,7.15E-03,1.02E-02
22280,7.27E-03,1.02E-02
22281,7.37E-03,1.02E-02
22282,7.43E-03,1.02E-02
22283,7.49E-03,1.02E-02
22284,7.54E-03,1.02E-02
22285,7.59E-03,1.02E-02
22286,7.49E-03,1.02E-02
22287,7.42E-03,1.02E-02
22288,7.41E-03,1.02E-02
22289,7.41E-03,1.02E-02
22290,7.55E-03,1.02E-02
22291,7.24E-03,1.01E-02
22292,7.47E-03,1.01E-02
22293,7.83E-03,2.05E-02
22294,8.06E-03,2.18E-02
22295,8.05E-03,2.18E-02
22296,8.51E-03,2.18E-02
22297,9.30E-03,2.18E-02
22298,8.02E-03,2.18E-02
22299,8.10E-03,1.49E-02
22300,8.10E-03,1.49E-02
22301,8.10E-03,1.49E-02
22302,8.10E-03,1.49E-02
22303,8.10E-03,1.50E-02
22304,8.10E-03,1.51E-02
22305,8.10E-03,1.50E-02
22306,8.10E-03,1.50E-02
22307,8.10E-03,1.50E-02
22308,8.10E-03,1.50E-02
22309,7.89E-03,1.72E-02
22310,7.68E-03,1.70E-02
22311,7.80E-03,1.68E-02
22312,7.98E-03,1.66E-02
22313,8.14E-03,1.64E-02
22314,8.16E-03,1.62E-02
22315,8.36E-03,1.59E-02
22316,8.61E-03,1.54E-02
22317,8.46E-03,1.57E-02
22318,8.23E-03,1.46E-02
22319,8.31E-03,1.44E-02
22320,8.10E-03,1.42E-02
22321,7.78E-03,1.39E-02
22322,7.67E-03,1.37E-02
22323,9.43E-03,1.27E-02
22324,9.38E-03,1.30E-02
22325,7.59E-03,1.32E-02
22326,7.62E-03,1.35E-02
22327,8.60E-03,1.38E-02
22328,8.11E-03,1.36E-02
22329,1.01E-02,1.37E-02
22330,8.86E-03,1.36E-02
22331,7.49E-03,6.83E-03
22332,7.29E-03,6.95E-03
22333,7.24E-03,7.07E-03
22334,7.17E-03,7.20E-03
22335,7.46E-03,1.64E-02
22336,7.05E-03,7.42E-03
22337,7.20E-03,7.50E-03
22338,7.12E-03,7.56E-03
22339,7.11E-03,7.63E-03
22340,6.28E-03,7.71E-03
22341,6.10E-03,7.79E-03
22342,5.36E-03,7.87E-03
22343,3.84E-03,7.94E-03
22344,3.02E-03,8.02E-03
22345,3.12E-03,8.06E-03
22346,3.40E-03,8.12E-03
22347,3.31E-03,8.19E-03
22348,4.50E-03,8.25E-03
22349,6.56E-03,8.38E-03
22350,5.30E-03,8.50E-03
22351,4.47E-03,8.76E-03
22352,5.69E-03,8.78E-03
22353,6.73E-03,8.87E-03
22354,7.10E-03,9.39E-03
22355,7.01E-03,9.22E-03
22356,7.14E-03,9.10E-03
22357,6.97E-03,8.99E-03
22358,7.12E-03,2.05E-02
22359,7.33E-03,2.03E-02
22360,7.37E-03,2.02E-02
22361,7.53E-03,2.00E-02
22362,7.81E-03,1.99E-02
22363,8.01E-03,1.97E-02
22364,7.99E-03,1.95E-02
22365,7.35E-03,1.93E-02
22366,7.11E-03,1.92E-02
22367,6.97E-03,1.90E-02
22368,6.83E-03,1.88E-02
22369,6.55E-03,1.87E-02
22370,6.30E-03,1.85E-02
22371,6.18E-03,1.83E-02
22372,5.93E-03,1.81E-02
22373,5.49E-03,1.80E-02
22374,4.48E-03,1.78E-02
22375,4.00E-03,1.77E-02
22376,3.89E-03,1.75E-02
22377,3.60E-03,1.73E-02
22378,3.37E-03,1.71E-02
22379,3.46E-03,1.69E-02
22380,8.31E-03,1.04E-02
22381,3.21E-03,1.02E-02
22382,4.87E-03,1.01E-02
22383,8.68E-03,9.88E-03
22384,8.10E-03,9.60E-03
22385,8.09E-03,9.34E-03
22386,8.09E-03,9.08E-03
22387,8.09E-03,8.82E-03
22388,8.09E-03,8.57E-03
22389,8.09E-03,8.32E-03
22390,8.09E-03,8.07E-03
22391,8.09E-03,7.83E-03
22392,8.09E-03,7.60E-03
22393,8.09E-03,7.37E-03
22394,8.09E-03,7.15E-03
22395,8.09E-03,6.93E-03
22396,8.09E-03,6.73E-03
22397,8.09E-03,6.53E-03
22398,8.09E-03,6.34E-03
22399,8.09E-03,6.16E-03
22400,8.09E-03,5.99E-03
22401,8.09E-03,5.84E-03
22402,8.09E-03,5.69E-03
22403,8.09E-03,5.56E-03
22404,8.09E-03,5.44E-03
22405,8.09E-03,5.34E-03
22406,8.09E-03,5.25E-03
22407,8.09E-03,5.18E-03
22408,8.09E-03,5.13E-03
22409,8.19E-03,5.10E-03
22410,8.27E-03,5.08E-03
22411,8.48E-03,5.07E-03
22412,8.35E-03,5.06E-03
22413,7.83E-03,5.10E-03
22414,6.45E-03,5.25E-03
22415,7.31E-03,5.13E-03
22416,7.07E-03,1.63E-02
22417,4.48E-03,1.04E-02
22418,6.64E-03,2.28E-02
22419,7.29E-03,2.27E-02
22420,7.93E-03,1.67E-02
22421,9.23E-03,1.65E-02
22422,7.99E-03,1.65E-02
22423,7.75E-03,1.22E-02
22424,7.80E-03,1.98E-02
22425,7.72E-03,1.96E-02
22426,7.65E-03,1.95E-02
22427,7.94E-03,1.60E-02
22428,7.58E-03,1.58E-02
22429,9.86E-03,1.56E-02
22430,8.14E-03,1.54E-02
22431,8.09E-03,1.52E-02
22432,8.09E-03,1.50E-02
22433,8.09E-03,1.47E-02
22434,8.09E-03,1.45E-02
22435,8.09E-03,1.43E-02
22436,8.09E-03,1.41E-02
22437,8.09E-03,1.38E-02
22438,8.09E-03,1.36E-02
22439,8.10E-03,1.33E-02
22440,8.09E-03,1.31E-02
22441,8.15E-03,1.28E-02
22442,8.24E-03,1.26E-02
22443,1.12E-02,1.23E-02
22444,9.00E-03,1.20E-02
22445,9.02E-03,1.17E-02
22446,8.84E-03,1.14E-02
22447,8.73E-03,1.11E-02
22448,9.00E-03,2.21E-02
22449,8.96E-03,2.22E-02
22450,6.98E-03,1.66E-02
22451,6.41E-03,1.66E-02
22452,8.07E-03,2.04E-02
22453,6.40E-03,1.31E-02
22454,6.55E-03,1.31E-02
22455,8.87E-03,5.99E-03
22456,1.08E-02,1.07E-02
22457,9.50E-03,1.11E-02
22458,6.60E-03,1.17E-02
22459,7.29E-03,1.65E-02
22460,7.38E-03,1.32E-02
22461,7.12E-03,1.36E-02
22462,7.08E-03,1.39E-02
22463,6.99E-03,1.42E-02
22464,5.91E-03,1.45E-02
22465,5.96E-03,1.48E-02
22466,2.34E-03,1.50E-02
22467,2.75E-03,1.51E-02
22468,2.91E-03,1.53E-02
22469,3.29E-03,1.54E-02
22470,3.53E-03,1.56E-02
22471,3.79E-03,1.57E-02
22472,3.82E-03,1.59E-02
22473,4.10E-03,1.61E-02
22474,3.82E-03,1.63E-02
22475,4.73E-03,1.65E-02
22476,6.26E-03,1.77E-02
22477,7.87E-03,1.83E-02
22478,8.29E-03,1.81E-02
22479,6.18E-03,1.79E-02
22480,8.03E-03,2.16E-02
22481,8.45E-03,1.27E-02
22482,8.76E-03,1.18E-02
22483,6.94E-03,5.43E-03
22484,7.39E-03,5.42E-03
22485,9.15E-03,1.41E-02
22486,8.93E-03,1.42E-02
22487,8.81E-03,1.42E-02
22488,8.70E-03,1.43E-02
22489,5.39E-03,1.43E-02
22490,3.84E-03,1.43E-02
22491,3.91E-03,1.43E-02
22492,4.05E-03,1.43E-02
22493,3.93E-03,1.44E-02
22494,3.82E-03,1.44E-02
22495,3.90E-03,1.44E-02
22496,4.11E-03,1.44E-02
22497,4.33E-03,1.44E-02
22498,4.57E-03,1.44E-02
22499,4.82E-03,1.45E-02
22500,5.01E-03,1.45E-02
22501,5.13E-03,1.45E-02
22502,5.23E-03,1.45E-02
22503,5.32E-03,1.45E-02
22504,5.41E-03,1.46E-02
22505,5.48E-03,1.46E-02
22506,5.55E-03,1.46E-02
22507,5.59E-03,1.46E-02
22508,5.59E-03,1.46E-02
22509,5.54E-03,1.46E-02
22510,5.52E-03,1.47E-02
22511,5.48E-03,1.47E-02
22512,5.45E-03,1.47E-02
22513,5.41E-03,1.47E-02
22514,5.34E-03,1.47E-02
22515,5.25E-03,1.47E-02
22516,5.16E-03,1.47E-02
22517,5.06E-03,1.47E-02
22518,4.97E-03,1.47E-02
22519,4.87E-03,1.47E-02
22520,4.79E-03,1.48E-02
22521,4.71E-03,1.48E-02
22522,4.63E-03,1.48E-02
22523,4.63E-03,1.48E-02
22524,4.75E-03,1.48E-02
22525,4.92E-03,1.48E-02
22526,5.06E-03,1.48E-02
22527,5.15E-03,1.48E-02
22528,5.21E-03,1.48E-02
22529,5.27E-03,1.48E-02
22530,5.37E-03,1.48E-02
22531,5.50E-03,1.47E-02
22532,5.63E-03,1.47E-02
22533,5.82E-03,1.47E-02
22534,6.10E-03,1.47E-02
22535,6.44E-03,1.47E-02
22536,6.74E-03,1.47E-02
22537,6.97E-03,1.47E-02
22538,7.16E-03,1.47E-02
22539,7.36E-03,1.47E-02
22540,7.58E-03,1.46E-02
22541,7.81E-03,1.46E-02
22542,7.91E-03,1.46E-02
22543,7.79E-03,1.46E-02
22544,7.79E-03,1.45E-02
22545,8.14E-03,1.45E-02
22546,8.68E-03,1.45E-02
22547,9.21E-03,1.45E-02
22548,9.68E-03,1.44E-02
22549,9.91E-03,1.44E-02
22550,9.89E-03,1.44E-02
22551,9.88E-03,1.43E-02
22552,9.95E-03,1.43E-02
22553,1.00E-02,1.43E-02
22554,1.01E-02,1.42E-02
22555,1.02E-02,1.42E-02
22556,1.03E-02,1.42E-02
22557,1.03E-02,1.41E-02
22558,1.04E-02,1.41E-02
22559,1.03E-02,1.41E-02
22560,1.02E-02,1.40E-02
22561,1.00E-02,1.40E-02
22562,9.82E-03,1.40E-02
22563,9.64E-03,1.40E-02
22564,9.51E-03,1.40E-02
22565,9.41E-03,1.39E-02
22566,9.32E-03,1.39E-02
22567,9.23E-03,1.39E-02
22568,9.15E-03,1.39E-02
22569,9.09E-03,1.39E-02
22570,9.02E-03,1.38E-02
22571,8.96E-03,1.38E-02
22572,8.89E-03,1.38E-02
22573,8.78E-03,1.38E-02
22574,8.63E-03,1.38E-02
22575,8.48E-03,1.38E-02
22576,8.37E-03,1.38E-02
22577,8.30E-03,1.38E-02
22578,8.23E-03,1.38E-02
22579,8.18E-03,1.37E-02
22580,8.11E-03,1.37E-02
22581,8.05E-03,1.37E-02
22582,7.99E-03,1.37E-02
22583,7.92E-03,1.37E-02
22584,7.90E-03,1.37E-02
22585,7.92E-03,1.37E-02
22586,7.96E-03,1.37E-02
22587,8.00E-03,1.37E-02
22588,8.05E-03,1.37E-02
22589,8.09E-03,1.36E-02
22590,8.15E-03,1.36E-02
22591,8.19E-03,1.36E-02
22592,8.23E-03,1.36E-02
22593,8.25E-03,1.36E-02
22594,8.26E-03,1.36E-02
22595,8.26E-03,1.36E-02
22596,8.27E-03,1.36E-02
22597,8.39E-03,1.36E-02
22598,8.46E-03,1.36E-02
22599,8.55E-03,1.36E-02
22600,8.83E-03,1.36E-02
22601,8.90E-03,1.35E-02
22602,9.18E-03,1.35E-02
22603,9.32E-03,1.35E-02
22604,9.32E-03,1.35E-02
22605,9.33E-03,1.36E-02
22606,9.36E-03,1.36E-02
22607,9.31E-03,1.36E-02
22608,9.29E-03,1.36E-02
22609,9.29E-03,1.36E-02
22610,9.37E-03,1.36E-02
22611,1.01E-02,1.36E-02
22612,8.78E-03,1.35E-02
22613,9.44E-03,1.40E-02
22614,9.23E-03,5.53E-03
22615,6.91E-03,5.54E-03
22616,3.86E-03,5.59E-03
22617,4.80E-03,5.63E-03
22618,4.83E-03,5.67E-03
22619,5.22E-03,5.70E-03
22620,5.47E-03,5.73E-03
22621,5.58E-03,5.76E-03
22622,5.73E-03,5.79E-03
22623,6.16E-03,5.83E-03
22624,6.25E-03,5.86E-03
22625,6.40E-03,5.90E-03
22626,6.57E-03,5.94E-03
22627,6.69E-03,5.99E-03
22628,6.86E-03,6.04E-03
22629,7.02E-03,6.09E-03
22630,7.13E-03,6.14E-03
22631,7.17E-03,6.20E-03
22632,7.22E-03,6.26E-03
22633,7.27E-03,6.33E-03
22634,7.31E-03,6.39E-03
22635,7.36E-03,6.46E-03
22636,7.41E-03,6.54E-03
22637,7.45E-03,6.61E-03
22638,7.49E-03,6.69E-03
22639,7.52E-03,6.77E-03
22640,7.55E-03,6.86E-03
22641,7.59E-03,6.95E-03
22642,7.62E-03,7.04E-03
22643,7.65E-03,7.13E-03
22644,7.67E-03,7.23E-03
22645,7.70E-03,7.33E-03
22646,7.72E-03,7.43E-03
22647,7.74E-03,7.54E-03
22648,7.77E-03,7.64E-03
22649,7.79E-03,7.75E-03
22650,7.81E-03,7.87E-03
22651,7.82E-03,7.98E-03
22652,7.82E-03,8.10E-03
22653,7.82E-03,8.22E-03
22654,7.82E-03,8.34E-03
22655,7.82E-03,8.47E-03
22656,7.81E-03,8.60E-03
22657,7.81E-03,8.72E-03
22658,7.80E-03,8.85E-03
22659,7.78E-03,8.99E-03
22660,7.75E-03,9.12E-03
22661,7.72E-03,9.25E-03
22662,7.68E-03,9.39E-03
22663,7.65E-03,9.53E-03
22664,7.62E-03,9.66E-03
22665,7.58E-03,9.80E-03
22666,7.55E-03,9.94E-03
22667,7.52E-03,1.01E-02
22668,7.48E-03,1.02E-02
22669,7.44E-03,1.04E-02
22670,7.36E-03,1.05E-02
22671,7.28E-03,1.06E-02
22672,7.19E-03,1.08E-02
22673,7.11E-03,1.09E-02
22674,7.02E-03,1.11E-02
22675,6.94E-03,1.12E-02
22676,6.85E-03,1.13E-02
22677,6.77E-03,1.15E-02
22678,6.70E-03,1.16E-02
22679,6.65E-03,1.17E-02
22680,6.59E-03,1.19E-02
22681,6.53E-03,1.20E-02
22682,6.48E-03,1.21E-02
22683,6.42E-03,1.23E-02
22684,6.26E-03,1.24E-02
22685,6.21E-03,1.25E-02
22686,6.15E-03,1.27E-02
22687,6.11E-03,1.28E-02
22688,6.08E-03,1.29E-02
22689,6.23E-03,1.30E-02
22690,6.43E-03,1.32E-02
22691,6.08E-03,1.33E-02
22692,4.66E-03,1.33E-02
22693,4.56E-03,1.34E-02
22694,6.28E-03,1.36E-02
22695,8.09E-03,1.07E-02
22696,8.09E-03,1.05E-02
22697,8.09E-03,1.04E-02
22698,8.09E-03,1.03E-02
22699,8.09E-03,1.01E-02
22700,8.09E-03,9.99E-03
22701,8.09E-03,9.85E-03
22702,8.09E-03,9.71E-03
22703,8.09E-03,9.56E-03
22704,8.09E-03,9.42E-03
22705,8.09E-03,9.27E-03
22706,8.09E-03,9.13E-03
22707,8.09E-03,8.98E-03
22708,8.09E-03,8.83E-03
22709,8.09E-03,8.68E-03
22710,8.09E-03,8.53E-03
22711,8.09E-03,8.38E-03
22712,8.09E-03,8.23E-03
22713,8.09E-03,8.08E-03
22714,8.09E-03,7.93E-03
22715,8.09E-03,7.78E-03
22716,8.09E-03,7.63E-03
22717,8.09E-03,7.49E-03
22718,8.09E-03,7.34E-03
22719,8.09E-03,7.19E-03
22720,8.09E-03,7.05E-03
22721,8.09E-03,6.90E-03
22722,8.09E-03,6.76E-03
22723,8.09E-03,6.63E-03
22724,8.09E-03,6.50E-03
22725,8.09E-03,6.37E-03
22726,8.09E-03,6.24E-03
22727,8.09E-03,6.12E-03
22728,8.09E-03,6.01E-03
22729,8.09E-03,5.90E-03
22730,8.09E-03,5.80E-03
22731,8.09E-03,5.71E-03
22732,8.21E-03,5.63E-03
22733,8.22E-03,5.56E-03
22734,8.21E-03,5.49E-03
22735,7.97E-03,5.45E-03
22736,7.89E-03,5.42E-03
22737,7.89E-03,5.40E-03
22738,7.55E-03,5.38E-03
22739,7.28E-03,5.32E-03
22740,7.17E-03,5.35E-03
22741,7.26E-03,5.37E-03
22742,7.49E-03,5.42E-03
22743,8.71E-03,1.16E-02
22744,9.11E-03,1.27E-02
22745,8.04E-03,2.24E-02
22746,8.46E-03,2.21E-02
22747,7.93E-03,2.20E-02
22748,8.10E-03,1.51E-02
22749,7.56E-03,6.76E-03
22750,7.17E-03,2.19E-02
22751,7.83E-03,2.09E-02
22752,7.80E-03,2.11E-02
22753,7.72E-03,2.12E-02
22754,7.82E-03,2.13E-02
22755,8.19E-03,2.15E-02
22756,6.00E-03,2.15E-02
22757,6.85E-03,7.46E-03
22758,6.25E-03,1.63E-02
22759,9.20E-03,1.21E-02
22760,9.32E-03,1.21E-02
22761,7.07E-03,1.66E-02
22762,7.04E-03,2.09E-02
22763,5.64E-03,1.31E-02
22764,8.10E-03,1.08E-02
22765,7.81E-03,6.45E-03
22766,7.19E-03,6.39E-03
22767,7.96E-03,1.86E-02
22768,5.55E-03,1.79E-02
22769,7.16E-03,5.35E-03
22770,5.46E-03,5.26E-03
22771,8.10E-03,1.49E-02
22772,7.69E-03,1.75E-02
22773,7.64E-03,9.74E-03
22774,7.46E-03,1.29E-02
22775,9.08E-03,6.23E-03
22776,8.77E-03,1.34E-02
22777,8.42E-03,1.33E-02
22778,7.26E-03,1.65E-02
22779,7.00E-03,1.64E-02
22780,7.13E-03,1.63E-02
22781,8.24E-03,5.84E-03
22782,8.18E-03,1.67E-02
22783,8.00E-03,2.23E-02
22784,8.40E-03,2.17E-02
22785,7.71E-03,2.22E-02
22786,7.95E-03,1.19E-02
22787,7.93E-03,1.61E-02
22788,8.17E-03,1.01E-02
22789,7.51E-03,2.01E-02
22790,8.26E-03,1.25E-02
22791,9.27E-03,1.24E-02
22792,9.07E-03,1.22E-02
22793,8.41E-03,1.06E-02
22794,9.19E-03,1.14E-02
22795,8.85E-03,1.38E-02
22796,8.53E-03,1.38E-02
22797,9.30E-03,6.11E-03
22798,4.41E-03,1.32E-02
22799,5.08E-03,1.31E-02
22800,7.08E-03,1.31E-02
22801,7.70E-03,2.04E-02
22802,6.65E-03,1.62E-02
22803,7.23E-03,1.62E-02
22804,8.64E-03,1.61E-02
22805,9.12E-03,1.61E-02
22806,7.90E-03,1.61E-02
22807,8.24E-03,1.66E-02
22808,7.27E-03,2.13E-02
22809,8.92E-03,5.50E-03
22810,7.62E-03,1.66E-02
22811,6.95E-03,1.65E-02
22812,8.00E-03,2.23E-02
22813,6.74E-03,2.24E-02
22814,7.89E-03,1.61E-02
22815,8.48E-03,1.08E-02
22816,6.21E-03,2.21E-02
22817,7.61E-03,1.88E-02
22818,7.15E-03,5.42E-03
22819,8.13E-03,2.22E-02
22820,8.10E-03,1.49E-02
22821,8.10E-03,1.52E-02
22822,7.17E-03,6.57E-03
22823,7.38E-03,6.68E-03
22824,8.11E-03,1.66E-02
22825,7.34E-03,1.93E-02
22826,7.73E-03,1.62E-02
22827,7.11E-03,1.65E-02
22828,7.71E-03,1.26E-02
22829,7.71E-03,1.23E-02
22830,7.28E-03,1.22E-02
22831,8.09E-03,1.91E-02
22832,8.10E-03,1.49E-02
22833,7.09E-03,1.65E-02
22834,6.79E-03,1.66E-02
22835,7.64E-03,1.60E-02
22836,7.64E-03,1.59E-02
22837,7.58E-03,1.59E-02
22838,7.94E-03,5.69E-03
22839,7.57E-03,5.56E-03
22840,6.70E-03,5.55E-03
22841,8.10E-03,1.53E-02
22842,7.57E-03,1.63E-02
22843,4.35E-03,2.24E-02
22844,8.11E-03,1.66E-02
22845,8.04E-03,1.65E-02
22846,8.10E-03,1.12E-02
22847,8.10E-03,1.11E-02
22848,8.10E-03,1.09E-02
22849,5.02E-03,2.24E-02
22850,7.54E-03,1.58E-02
22851,7.57E-03,1.58E-02
22852,7.36E-03,1.57E-02
22853,7.27E-03,1.57E-02
22854,7.46E-03,1.56E-02
22855,8.10E-03,1.49E-02
22856,8.10E-03,1.54E-02
22857,7.43E-03,1.63E-02
22858,7.90E-03,1.65E-02
22859,7.49E-03,1.65E-02
22860,6.48E-03,1.66E-02
22861,8.10E-03,1.49E-02
22862,8.23E-03,1.54E-02
22863,7.18E-03,1.64E-02
22864,5.84E-03,1.66E-02
22865,8.78E-03,5.47E-03
22866,8.82E-03,5.47E-03
22867,7.02E-03,2.25E-02
22868,7.08E-03,2.26E-02
22869,8.10E-03,1.49E-02
22870,8.09E-03,1.55E-02
22871,8.10E-03,1.49E-02
22872,7.52E-03,1.56E-02
22873,8.10E-03,1.49E-02
22874,8.10E-03,1.14E-02
22875,8.10E-03,1.15E-02
22876,8.10E-03,1.18E-02
22877,8.10E-03,1.16E-02
22878,8.10E-03,1.19E-02
22879,8.10E-03,1.49E-02
22880,8.10E-03,1.20E-02
22881,8.10E-03,1.48E-02
22882,8.10E-03,1.22E-02
22883,8.10E-03,1.48E-02
22884,8.10E-03,1.23E-02
22885,8.10E-03,1.48E-02
22886,8.10E-03,1.24E-02
22887,8.10E-03,1.47E-02
22888,8.10E-03,1.26E-02
22889,8.10E-03,1.27E-02
22890,8.10E-03,1.47E-02
22891,8.10E-03,1.46E-02
22892,8.10E-03,1.28E-02
22893,8.10E-03,1.46E-02
22894,8.10E-03,1.45E-02
22895,6.25E-03,1.65E-02
22896,7.68E-03,1.66E-02
22897,8.10E-03,1.29E-02
22898,8.10E-03,1.30E-02
22899,8.10E-03,1.45E-02
22900,8.10E-03,1.32E-02
22901,8.10E-03,1.44E-02
22902,8.10E-03,1.33E-02
22903,8.10E-03,1.34E-02
22904,8.10E-03,1.43E-02
22905,8.10E-03,1.42E-02
22906,8.10E-03,1.35E-02
22907,8.10E-03,1.36E-02
22908,8.10E-03,1.42E-02
22909,8.10E-03,1.37E-02
22910,8.10E-03,1.38E-02
22911,8.10E-03,1.41E-02
22912,8.10E-03,1.40E-02
22913,8.10E-03,1.39E-02
22914,8.95E-03,1.10E-02
22915,7.29E-03,2.31E-02
22916,7.02E-03,9.88E-03
22917,1.03E-02,1.20E-02
22918,7.20E-03,1.63E-02
22919,9.42E-03,1.41E-02
22920,9.23E-03,1.41E-02
22921,8.76E-03,1.42E-02
22922,8.62E-03,1.42E-02
22923,5.44E-03,1.43E-02
22924,3.92E-03,1.43E-02
22925,3.99E-03,1.43E-02
22926,4.13E-03,1.43E-02
22927,4.01E-03,1.43E-02
22928,3.90E-03,1.43E-02
22929,3.98E-03,1.44E-02
22930,4.18E-03,1.44E-02
22931,4.40E-03,1.44E-02
22932,4.64E-03,1.44E-02
22933,4.88E-03,1.44E-02
22934,5.07E-03,1.45E-02
22935,5.18E-03,1.45E-02
22936,5.28E-03,1.45E-02
22937,5.38E-03,1.45E-02
22938,5.46E-03,1.45E-02
22939,5.53E-03,1.46E-02
22940,5.60E-03,1.46E-02
22941,5.64E-03,1.46E-02
22942,5.64E-03,1.46E-02
22943,5.59E-03,1.46E-02
22944,5.57E-03,1.47E-02
22945,5.53E-03,1.47E-02
22946,5.50E-03,1.47E-02
22947,5.46E-03,1.47E-02
22948,5.39E-03,1.47E-02
22949,5.31E-03,1.47E-02
22950,5.21E-03,1.47E-02
22951,5.12E-03,1.47E-02
22952,5.03E-03,1.48E-02
22953,4.94E-03,1.48E-02
22954,4.85E-03,1.48E-02
22955,4.77E-03,1.48E-02
22956,4.70E-03,1.48E-02
22957,4.70E-03,1.48E-02
22958,4.82E-03,1.48E-02
22959,4.98E-03,1.48E-02
22960,5.11E-03,1.48E-02
22961,5.20E-03,1.48E-02
22962,5.26E-03,1.48E-02
22963,5.33E-03,1.48E-02
22964,5.42E-03,1.48E-02
22965,5.55E-03,1.48E-02
22966,5.68E-03,1.48E-02
22967,5.86E-03,1.48E-02
22968,6.14E-03,1.48E-02
22969,6.47E-03,1.47E-02
22970,6.76E-03,1.47E-02
22971,6.99E-03,1.47E-02
22972,7.18E-03,1.47E-02
22973,7.37E-03,1.47E-02
22974,7.59E-03,1.47E-02
22975,7.82E-03,1.47E-02
22976,7.91E-03,1.46E-02
22977,7.80E-03,1.46E-02
22978,7.79E-03,1.46E-02
22979,8.14E-03,1.46E-02
22980,8.67E-03,1.45E-02
22981,9.19E-03,1.45E-02
22982,9.65E-03,1.45E-02
22983,9.87E-03,1.45E-02
22984,9.86E-03,1.44E-02
22985,9.85E-03,1.44E-02
22986,9.91E-03,1.44E-02
22987,1.00E-02,1.43E-02
22988,1.01E-02,1.43E-02
22989,1.01E-02,1.43E-02
22990,1.02E-02,1.42E-02
22991,1.03E-02,1.42E-02
22992,1.03E-02,1.42E-02
22993,1.03E-02,1.42E-02
22994,1.02E-02,1.41E-02
22995,9.99E-03,1.41E-02
22996,9.79E-03,1.41E-02
22997,9.61E-03,1.41E-02
22998,9.48E-03,1.41E-02
22999,9.39E-03,1.40E-02
23000,9.30E-03,1.40E-02
23001,9.21E-03,1.40E-02
23002,9.13E-03,1.40E-02
23003,9.07E-03,1.40E-02
23004,9.01E-03,1.40E-02
23005,8.95E-03,1.40E-02
23006,8.88E-03,1.39E-02
23007,8.77E-03,1.39E-02
23008,8.62E-03,1.39E-02
23009,8.47E-03,1.39E-02
23010,8.36E-03,1.39E-02
23011,8.29E-03,1.39E-02
23012,8.23E-03,1.39E-02
23013,8.18E-03,1.39E-02
23014,8.11E-03,1.39E-02
23015,8.05E-03,1.39E-02
23016,7.99E-03,1.39E-02
23017,7.93E-03,1.39E-02
23018,7.90E-03,1.38E-02
23019,7.93E-03,1.38E-02
23020,7.96E-03,1.38E-02
23021,8.01E-03,1.38E-02
23022,8.05E-03,1.38E-02
23023,8.09E-03,1.38E-02
23024,8.15E-03,1.38E-02
23025,8.19E-03,1.38E-02
23026,8.23E-03,1.38E-02
23027,8.25E-03,1.38E-02
23028,8.25E-03,1.38E-02
23029,8.26E-03,1.38E-02
23030,8.27E-03,1.37E-02
23031,8.33E-03,1.37E-02
23032,8.43E-03,1.37E-02
23033,8.56E-03,1.37E-02
23034,8.86E-03,1.37E-02
23035,8.86E-03,1.37E-02
23036,9.21E-03,1.37E-02
23037,9.29E-03,1.37E-02
23038,9.30E-03,1.37E-02
23039,9.30E-03,1.37E-02
23040,9.44E-03,1.37E-02
23041,9.43E-03,1.37E-02
23042,9.45E-03,1.37E-02
23043,9.55E-03,1.38E-02
23044,9.74E-03,1.38E-02
23045,9.79E-03,1.38E-02
23046,1.00E-02,1.38E-02
23047,8.75E-03,5.35E-03
23048,7.85E-03,5.47E-03
23049,7.87E-03,5.51E-03
23050,7.78E-03,5.43E-03
23051,9.28E-03,1.13E-02
23052,9.08E-03,1.28E-02
23053,8.84E-03,1.28E-02
23054,8.68E-03,1.29E-02
23055,7.63E-03,2.28E-02
23056,8.44E-03,2.25E-02
23057,7.95E-03,2.25E-02
23058,8.08E-03,2.21E-02
23059,8.04E-03,2.21E-02
23060,8.73E-03,2.21E-02
23061,8.22E-03,2.20E-02
23062,8.10E-03,1.51E-02
23063,8.10E-03,1.51E-02
23064,7.43E-03,6.88E-03
23065,6.85E-03,7.13E-03
23066,7.04E-03,7.02E-03
23067,6.65E-03,2.19E-02
23068,4.99E-03,2.18E-02
23069,5.18E-03,2.17E-02
23070,6.71E-03,2.16E-02
23071,7.69E-03,2.13E-02
23072,7.52E-03,2.15E-02
23073,9.37E-03,7.57E-03
23074,7.37E-03,7.60E-03
23075,7.50E-03,7.52E-03
23076,6.40E-03,1.62E-02
23077,7.87E-03,1.61E-02
23078,7.11E-03,1.62E-02
23079,1.05E-02,1.20E-02
23080,9.22E-03,1.20E-02
23081,9.32E-03,1.19E-02
23082,9.32E-03,1.19E-02
23083,1.04E-02,1.18E-02
23084,8.74E-03,1.17E-02
23085,1.14E-02,1.17E-02
23086,1.09E-02,1.16E-02
23087,9.93E-03,1.15E-02
23088,9.13E-03,1.14E-02
23089,8.29E-03,1.13E-02
23090,7.97E-03,1.13E-02
23091,7.65E-03,1.12E-02
23092,7.31E-03,1.11E-02
23093,6.90E-03,1.11E-02
23094,6.45E-03,1.10E-02
23095,6.13E-03,1.10E-02
23096,5.90E-03,1.09E-02
23097,5.69E-03,1.09E-02
23098,5.47E-03,1.08E-02
23099,5.25E-03,1.08E-02
23100,5.01E-03,1.07E-02
23101,4.69E-03,1.07E-02
23102,4.35E-03,1.06E-02
23103,4.00E-03,1.06E-02
23104,3.65E-03,1.06E-02
23105,3.40E-03,1.06E-02
23106,3.33E-03,1.05E-02
23107,3.33E-03,1.05E-02
23108,3.31E-03,1.05E-02
23109,3.30E-03,1.05E-02
23110,3.28E-03,1.04E-02
23111,3.27E-03,1.04E-02
23112,3.23E-03,1.04E-02
23113,3.17E-03,1.04E-02
23114,3.11E-03,1.03E-02
23115,3.05E-03,1.03E-02
23116,2.99E-03,1.03E-02
23117,2.93E-03,1.03E-02
23118,2.91E-03,1.03E-02
23119,2.96E-03,1.03E-02
23120,3.03E-03,1.02E-02
23121,3.10E-03,1.02E-02
23122,3.21E-03,1.02E-02
23123,3.36E-03,1.02E-02
23124,3.51E-03,1.02E-02
23125,3.68E-03,1.02E-02
23126,3.92E-03,1.02E-02
23127,4.22E-03,1.02E-02
23128,4.52E-03,1.01E-02
23129,4.79E-03,1.01E-02
23130,4.99E-03,1.01E-02
23131,5.13E-03,1.01E-02
23132,5.27E-03,1.01E-02
23133,5.42E-03,1.01E-02
23134,5.55E-03,1.01E-02
23135,5.67E-03,1.01E-02
23136,5.79E-03,1.01E-02
23137,5.92E-03,1.00E-02
23138,6.04E-03,1.00E-02
23139,6.16E-03,1.00E-02
23140,6.28E-03,1.00E-02
23141,6.39E-03,1.00E-02
23142,6.47E-03,1.00E-02
23143,6.53E-03,1.00E-02
23144,6.58E-03,1.00E-02
23145,6.64E-03,9.99E-03
23146,6.70E-03,9.99E-03
23147,6.76E-03,9.98E-03
23148,6.81E-03,9.98E-03
23149,6.87E-03,9.98E-03
23150,6.95E-03,9.98E-03
23151,7.05E-03,9.97E-03
23152,7.17E-03,9.97E-03
23153,7.28E-03,9.97E-03
23154,7.38E-03,9.97E-03
23155,7.45E-03,9.97E-03
23156,7.50E-03,9.96E-03
23157,7.55E-03,9.96E-03
23158,7.55E-03,9.96E-03
23159,7.43E-03,9.96E-03
23160,7.35E-03,9.96E-03
23161,7.35E-03,9.96E-03
23162,7.25E-03,9.96E-03
23163,7.17E-03,9.95E-03
23164,7.10E-03,9.92E-03
23165,7.04E-03,1.64E-02
23166,6.35E-03,1.65E-02
23167,7.07E-03,2.08E-02
23168,7.25E-03,2.05E-02
23169,7.19E-03,2.06E-02
23170,7.99E-03,2.06E-02
23171,8.09E-03,1.07E-02
23172,8.09E-03,1.05E-02
23173,8.09E-03,1.04E-02
23174,8.09E-03,1.03E-02
23175,8.09E-03,1.01E-02
23176,8.09E-03,1.00E-02
23177,8.09E-03,9.86E-03
23178,8.09E-03,9.72E-03
23179,8.09E-03,9.57E-03
23180,8.09E-03,9.43E-03
23181,8.09E-03,9.28E-03
23182,8.09E-03,9.14E-03
23183,8.09E-03,8.99E-03
23184,8.09E-03,8.84E-03
23185,8.09E-03,8.69E-03
23186,8.09E-03,8.54E-03
23187,8.09E-03,8.39E-03
23188,8.09E-03,8.24E-03
23189,8.09E-03,8.09E-03
23190,8.09E-03,7.94E-03
23191,8.09E-03,7.79E-03
23192,8.09E-03,7.64E-03
23193,8.09E-03,7.49E-03
23194,8.09E-03,7.34E-03
23195,8.09E-03,7.19E-03
23196,8.09E-03,7.05E-03
23197,8.09E-03,6.91E-03
23198,8.09E-03,6.77E-03
23199,8.09E-03,6.63E-03
23200,8.09E-03,6.49E-03
23201,8.09E-03,6.36E-03
23202,8.09E-03,6.24E-03
23203,8.09E-03,6.12E-03
23204,8.09E-03,6.00E-03
23205,8.09E-03,5.90E-03
23206,8.09E-03,5.79E-03
23207,8.09E-03,5.70E-03
23208,8.09E-03,5.62E-03
23209,8.09E-03,5.54E-03
23210,8.09E-03,5.48E-03
23211,8.00E-03,5.43E-03
23212,7.97E-03,5.39E-03
23213,7.90E-03,5.37E-03
23214,7.81E-03,5.34E-03
23215,7.87E-03,5.32E-03
23216,8.75E-03,5.34E-03
23217,6.47E-03,6.49E-03
23218,6.38E-03,2.28E-02
23219,7.97E-03,1.84E-02
23220,5.71E-03,1.81E-02
23221,7.47E-03,1.82E-02
23222,6.59E-03,5.32E-03
23223,6.49E-03,5.35E-03
23224,8.21E-03,2.21E-02
23225,8.10E-03,1.49E-02
23226,8.10E-03,1.50E-02
23227,8.10E-03,1.49E-02
23228,8.10E-03,1.50E-02
23229,8.10E-03,1.50E-02
23230,8.10E-03,1.50E-02
23231,8.10E-03,1.51E-02
23232,8.10E-03,1.50E-02
23233,7.68E-03,1.69E-02
23234,5.80E-03,1.74E-02
23235,7.41E-03,1.73E-02
23236,7.52E-03,1.71E-02
23237,8.06E-03,1.64E-02
23238,7.86E-03,1.67E-02
23239,8.35E-03,1.60E-02
23240,8.24E-03,1.62E-02
23241,8.79E-03,1.55E-02
23242,8.52E-03,1.57E-02
23243,1.02E-02,1.48E-02
23244,9.00E-03,1.45E-02
23245,8.56E-03,1.42E-02
23246,7.53E-03,1.37E-02
23247,7.77E-03,1.40E-02
23248,9.31E-03,1.27E-02
23249,7.41E-03,1.33E-02
23250,9.43E-03,1.30E-02
23251,7.48E-03,1.35E-02
23252,9.47E-03,1.37E-02
23253,9.17E-03,1.37E-02
23254,8.95E-03,1.35E-02
23255,9.56E-03,1.36E-02
23256,9.41E-03,1.35E-02
23257,5.82E-03,1.22E-02
23258,8.03E-03,1.21E-02
23259,5.72E-03,7.35E-03
23260,6.68E-03,7.24E-03
23261,9.05E-03,1.64E-02
23262,9.03E-03,1.64E-02
23263,7.62E-03,1.64E-02
23264,7.96E-03,2.07E-02
23265,7.93E-03,2.10E-02
23266,7.92E-03,2.09E-02
23267,7.85E-03,2.12E-02
23268,7.14E-03,7.75E-03
23269,7.25E-03,7.68E-03
23270,5.98E-03,7.90E-03
23271,6.54E-03,7.83E-03
23272,3.64E-03,8.02E-03
23273,5.32E-03,7.97E-03
23274,3.18E-03,8.13E-03
23275,3.10E-03,8.08E-03
23276,3.42E-03,8.25E-03
23277,3.33E-03,8.18E-03
23278,4.91E-03,8.32E-03
23279,3.99E-03,8.30E-03
23280,5.72E-03,8.77E-03
23281,5.51E-03,8.47E-03
23282,6.51E-03,8.96E-03
23283,6.04E-03,8.87E-03
23284,7.79E-03,9.48E-03
23285,8.06E-03,9.19E-03
23286,7.85E-03,9.27E-03
23287,7.50E-03,9.09E-03
23288,7.40E-03,1.32E-02
23289,7.15E-03,1.39E-02
23290,7.23E-03,1.35E-02
23291,6.28E-03,1.45E-02
23292,7.05E-03,1.42E-02
23293,2.42E-03,1.50E-02
23294,6.19E-03,1.48E-02
23295,2.99E-03,1.53E-02
23296,2.73E-03,1.51E-02
23297,3.79E-03,1.56E-02
23298,3.29E-03,1.54E-02
23299,3.87E-03,1.60E-02
23300,3.91E-03,1.58E-02
23301,4.11E-03,1.64E-02
23302,4.11E-03,1.62E-02
23303,3.88E-03,1.67E-02
23304,4.74E-03,1.66E-02
23305,7.90E-03,2.02E-02
23306,7.55E-03,2.03E-02
23307,7.88E-03,1.99E-02
23308,7.95E-03,2.00E-02
23309,7.20E-03,1.95E-02
23310,7.36E-03,1.97E-02
23311,6.76E-03,1.92E-02
23312,6.90E-03,1.93E-02
23313,6.30E-03,1.88E-02
23314,6.47E-03,1.90E-02
23315,6.67E-03,1.86E-02
23316,6.20E-03,1.87E-02
23317,4.88E-03,1.80E-02
23318,6.16E-03,1.83E-02
23319,3.95E-03,1.77E-02
23320,4.18E-03,1.79E-02
23321,3.64E-03,1.74E-02
23322,3.73E-03,1.76E-02
23323,3.91E-03,1.72E-02
23324,4.03E-03,1.73E-02
23325,3.13E-03,1.70E-02
23326,5.03E-03,1.32E-02
23327,7.27E-03,1.64E-02
23328,7.32E-03,1.62E-02
23329,7.69E-03,1.05E-02
23330,8.61E-03,1.07E-02
23331,9.74E-03,1.10E-02
23332,8.96E-03,5.97E-03
23333,8.04E-03,1.66E-02
23334,7.25E-03,2.23E-02
23335,6.77E-03,2.20E-02
23336,6.17E-03,1.64E-02
23337,8.21E-03,2.24E-02
23338,7.42E-03,2.23E-02
23339,6.20E-03,2.25E-02
23340,7.83E-03,1.22E-02
23341,7.86E-03,1.59E-02
23342,7.58E-03,1.57E-02
23343,9.76E-03,1.55E-02
23344,8.13E-03,1.53E-02
23345,8.09E-03,1.51E-02
23346,8.09E-03,1.49E-02
23347,8.09E-03,1.46E-02
23348,8.09E-03,1.44E-02
23349,8.09E-03,1.42E-02
23350,8.09E-03,1.40E-02
23351,8.09E-03,1.37E-02
23352,8.09E-03,1.35E-02
23353,8.10E-03,1.33E-02
23354,8.09E-03,1.30E-02
23355,8.09E-03,1.28E-02
23356,8.27E-03,1.25E-02
23357,1.11E-02,1.22E-02
23358,8.96E-03,1.19E-02
23359,8.97E-03,1.16E-02
23360,8.77E-03,1.13E-02
23361,8.72E-03,1.10E-02
23362,7.23E-03,1.02E-02
23363,7.35E-03,1.99E-02
23364,7.36E-03,1.98E-02
23365,7.43E-03,1.96E-02
23366,8.45E-03,1.26E-02
23367,8.92E-03,1.19E-02
23368,8.34E-03,1.03E-02
23369,3.30E-03,1.02E-02
23370,4.95E-03,1.00E-02
23371,8.66E-03,9.82E-03
23372,8.10E-03,9.54E-03
23373,8.09E-03,9.28E-03
23374,8.09E-03,9.02E-03
23375,8.09E-03,8.76E-03
23376,8.09E-03,8.51E-03
23377,8.09E-03,8.26E-03
23378,8.09E-03,8.02E-03
23379,8.09E-03,7.78E-03
23380,8.09E-03,7.54E-03
23381,8.09E-03,7.32E-03
23382,8.09E-03,7.09E-03
23383,8.09E-03,6.88E-03
23384,8.09E-03,6.67E-03
23385,8.09E-03,6.47E-03
23386,8.09E-03,6.28E-03
23387,8.09E-03,6.10E-03
23388,8.09E-03,5.93E-03
23389,8.09E-03,5.78E-03
23390,8.09E-03,5.63E-03
23391,8.09E-03,5.50E-03
23392,8.09E-03,5.38E-03
23393,8.09E-03,5.27E-03
23394,8.09E-03,5.18E-03
23395,8.09E-03,5.11E-03
23396,8.09E-03,5.06E-03
23397,8.16E-03,5.02E-03
23398,8.21E-03,5.00E-03
23399,8.19E-03,4.98E-03
23400,8.13E-03,4.98E-03
23401,7.87E-03,5.00E-03
23402,7.63E-03,5.03E-03
23403,7.20E-03,5.11E-03
23404,8.48E-03,1.18E-02
23405,9.79E-03,1.39E-02
23406,1.05E-02,6.26E-03
23407,8.20E-03,5.60E-03
23408,7.60E-03,2.05E-02
23409,8.33E-03,1.61E-02
23410,8.08E-03,1.61E-02
23411,8.18E-03,1.66E-02
23412,7.12E-03,2.16E-02
23413,1.06E-02,1.39E-02
23414,8.91E-03,5.51E-03
23415,7.34E-03,5.52E-03
23416,3.87E-03,5.56E-03
23417,4.78E-03,5.60E-03
23418,4.86E-03,5.64E-03
23419,5.19E-03,5.67E-03
23420,5.55E-03,5.69E-03
23421,5.65E-03,5.72E-03
23422,5.82E-03,5.75E-03
23423,6.18E-03,5.78E-03
23424,6.29E-03,5.82E-03
23425,6.45E-03,5.85E-03
23426,6.61E-03,5.89E-03
23427,6.73E-03,5.94E-03
23428,6.92E-03,5.98E-03
23429,7.10E-03,6.03E-03
23430,7.14E-03,6.08E-03
23431,7.19E-03,6.14E-03
23432,7.24E-03,6.20E-03
23433,7.28E-03,6.26E-03
23434,7.33E-03,6.33E-03
23435,7.37E-03,6.40E-03
23436,7.42E-03,6.47E-03
23437,7.46E-03,6.54E-03
23438,7.50E-03,6.62E-03
23439,7.53E-03,6.70E-03
23440,7.56E-03,6.78E-03
23441,7.59E-03,6.87E-03
23442,7.62E-03,6.96E-03
23443,7.66E-03,7.05E-03
23444,7.68E-03,7.15E-03
23445,7.70E-03,7.25E-03
23446,7.73E-03,7.35E-03
23447,7.75E-03,7.45E-03
23448,7.77E-03,7.56E-03
23449,7.79E-03,7.67E-03
23450,7.81E-03,7.79E-03
23451,7.82E-03,7.90E-03
23452,7.82E-03,8.02E-03
23453,7.82E-03,8.14E-03
23454,7.82E-03,8.26E-03
23455,7.82E-03,8.39E-03
23456,7.82E-03,8.52E-03
23457,7.82E-03,8.64E-03
23458,7.81E-03,8.78E-03
23459,7.79E-03,8.91E-03
23460,7.76E-03,9.04E-03
23461,7.72E-03,9.18E-03
23462,7.69E-03,9.31E-03
23463,7.66E-03,9.45E-03
23464,7.63E-03,9.59E-03
23465,7.59E-03,9.73E-03
23466,7.56E-03,9.87E-03
23467,7.53E-03,1.00E-02
23468,7.50E-03,1.02E-02
23469,7.45E-03,1.03E-02
23470,7.37E-03,1.04E-02
23471,7.29E-03,1.06E-02
23472,7.21E-03,1.07E-02
23473,7.12E-03,1.09E-02
23474,7.04E-03,1.10E-02
23475,6.96E-03,1.11E-02
23476,6.87E-03,1.13E-02
23477,6.80E-03,1.14E-02
23478,6.73E-03,1.15E-02
23479,6.67E-03,1.17E-02
23480,6.62E-03,1.18E-02
23481,6.56E-03,1.20E-02
23482,6.50E-03,1.21E-02
23483,6.45E-03,1.22E-02
23484,6.33E-03,1.24E-02
23485,6.27E-03,1.25E-02
23486,6.16E-03,1.26E-02
23487,6.16E-03,1.27E-02
23488,6.03E-03,1.29E-02
23489,6.09E-03,1.30E-02
23490,5.88E-03,1.31E-02
23491,5.62E-03,1.32E-02
23492,5.53E-03,1.33E-02
23493,5.47E-03,1.35E-02
23494,5.78E-03,1.36E-02
23495,5.89E-03,1.37E-02
23496,5.20E-03,1.38E-02
23497,7.75E-03,1.20E-02
23498,7.68E-03,2.24E-02
23499,7.84E-03,5.30E-03
23500,7.89E-03,1.60E-02
23501,8.39E-03,1.06E-02
23502,8.89E-03,1.16E-02
23503,7.18E-03,1.03E-02
23504,6.94E-03,2.02E-02
23505,8.85E-03,1.26E-02
23506,8.26E-03,1.24E-02
23507,7.56E-03,2.21E-02
23508,1.03E-02,1.52E-02
23509,8.11E-03,1.79E-02
23510,7.79E-03,1.87E-02
23511,7.10E-03,5.41E-03
23512,8.15E-03,2.23E-02
23513,8.27E-03,2.22E-02
23514,8.10E-03,1.49E-02
23515,8.10E-03,1.52E-02
23516,9.08E-03,1.22E-02
23517,9.21E-03,1.25E-02
23518,1.04E-02,1.33E-02
23519,8.32E-03,6.84E-03
23520,7.97E-03,2.06E-02
23521,1.02E-02,1.20E-02
23522,8.35E-03,1.20E-02
23523,7.00E-03,2.04E-02
23524,8.11E-03,1.65E-02
23525,7.03E-03,2.12E-02
23526,7.40E-03,1.95E-02
23527,7.83E-03,1.60E-02
23528,7.24E-03,1.65E-02
23529,6.57E-03,2.25E-02
23530,7.68E-03,9.81E-03
23531,7.53E-03,1.29E-02
23532,8.49E-03,1.08E-02
23533,4.54E-03,7.49E-03
23534,7.70E-03,1.89E-02
23535,8.10E-03,1.49E-02
23536,7.62E-03,1.25E-02
23537,7.23E-03,1.65E-02
23538,7.04E-03,1.65E-02
23539,7.78E-03,1.60E-02
23540,7.62E-03,1.59E-02
23541,7.67E-03,1.59E-02
23542,7.89E-03,5.68E-03
23543,6.73E-03,5.67E-03
23544,6.56E-03,5.54E-03
23545,5.80E-03,2.26E-02
23546,9.47E-03,2.24E-02
23547,8.10E-03,1.53E-02
23548,7.66E-03,1.61E-02
23549,9.07E-03,1.29E-02
23550,6.09E-03,2.24E-02
23551,8.14E-03,1.65E-02
23552,8.05E-03,1.65E-02
23553,8.10E-03,1.11E-02
23554,8.10E-03,1.10E-02
23555,8.10E-03,1.08E-02
23556,5.89E-03,2.25E-02
23557,6.51E-03,2.25E-02
23558,7.59E-03,1.58E-02
23559,7.35E-03,1.58E-02
23560,7.20E-03,1.57E-02
23561,7.17E-03,1.57E-02
23562,7.40E-03,1.56E-02
23563,7.92E-03,1.92E-02
23564,8.10E-03,1.49E-02
23565,8.10E-03,1.53E-02
23566,7.51E-03,1.62E-02
23567,7.69E-03,1.64E-02
23568,6.12E-03,1.64E-02
23569,6.73E-03,1.65E-02
23570,7.60E-03,1.64E-02
23571,8.10E-03,1.49E-02
23572,8.10E-03,1.54E-02
23573,7.34E-03,1.62E-02
23574,6.33E-03,1.65E-02
23575,8.39E-03,5.83E-03
23576,7.98E-03,1.65E-02
23577,7.78E-03,5.48E-03
23578,7.67E-03,5.46E-03
23579,8.66E-03,5.43E-03
23580,9.14E-03,5.49E-03
23581,8.70E-03,5.49E-03
23582,8.73E-03,5.49E-03
23583,7.37E-03,2.27E-02
23584,7.60E-03,2.27E-02
23585,8.10E-03,1.49E-02
23586,8.07E-03,1.55E-02
23587,5.29E-03,2.24E-02
23588,8.10E-03,1.49E-02
23589,7.84E-03,1.55E-02
23590,8.10E-03,1.49E-02
23591,7.50E-03,1.56E-02
23592,8.10E-03,1.12E-02
23593,8.10E-03,1.14E-02
23594,8.10E-03,1.17E-02
23595,8.10E-03,1.15E-02
23596,8.10E-03,1.18E-02
23597,8.10E-03,1.49E-02
23598,8.10E-03,1.19E-02
23599,8.10E-03,1.49E-02
23600,8.10E-03,1.21E-02
23601,8.10E-03,1.48E-02
23602,8.10E-03,1.22E-02
23603,8.10E-03,1.48E-02
23604,8.10E-03,1.23E-02
23605,8.10E-03,1.48E-02
23606,8.10E-03,1.24E-02
23607,8.10E-03,1.26E-02
23608,8.10E-03,1.47E-02
23609,8.10E-03,1.47E-02
23610,8.10E-03,1.27E-02
23611,8.10E-03,1.46E-02
23612,8.10E-03,1.45E-02
23613,7.09E-03,1.65E-02
23614,7.15E-03,1.65E-02
23615,7.82E-03,1.65E-02
23616,8.10E-03,1.28E-02
23617,8.10E-03,1.29E-02
23618,8.10E-03,1.45E-02
23619,8.10E-03,1.31E-02
23620,8.10E-03,1.44E-02
23621,8.10E-03,1.32E-02
23622,8.10E-03,1.33E-02
23623,8.10E-03,1.43E-02
23624,8.10E-03,1.43E-02
23625,8.10E-03,1.34E-02
23626,8.10E-03,1.35E-02
23627,8.10E-03,1.42E-02
23628,8.10E-03,1.36E-02
23629,8.10E-03,1.37E-02
23630,8.10E-03,1.41E-02
23631,8.10E-03,1.40E-02
23632,8.10E-03,1.38E-02
23633,8.10E-03,1.39E-02
23634,9.41E-03,6.13E-03
23635,7.16E-03,1.63E-02
23636,9.03E-03,1.12E-02
23637,8.89E-03,1.31E-02
23638,8.33E-03,2.06E-02
23639,8.25E-03,2.06E-02
23640,8.03E-03,1.61E-02
23641,8.04E-03,1.65E-02
23642,6.92E-03,2.19E-02
23643,9.80E-03,1.40E-02
23644,9.73E-03,1.41E-02
23645,8.50E-03,1.41E-02
23646,8.50E-03,1.42E-02
23647,5.49E-03,1.42E-02
23648,4.00E-03,1.42E-02
23649,4.07E-03,1.43E-02
23650,4.21E-03,1.43E-02
23651,4.09E-03,1.43E-02
23652,3.98E-03,1.43E-02
23653,4.06E-03,1.43E-02
23654,4.26E-03,1.43E-02
23655,4.47E-03,1.44E-02
23656,4.71E-03,1.44E-02
23657,4.94E-03,1.44E-02
23658,5.12E-03,1.44E-02
23659,5.24E-03,1.45E-02
23660,5.34E-03,1.45E-02
23661,5.43E-03,1.45E-02
23662,5.51E-03,1.45E-02
23663,5.58E-03,1.46E-02
23664,5.65E-03,1.46E-02
23665,5.69E-03,1.46E-02
23666,5.69E-03,1.46E-02
23667,5.64E-03,1.46E-02
23668,5.61E-03,1.47E-02
23669,5.58E-03,1.47E-02
23670,5.55E-03,1.47E-02
23671,5.51E-03,1.47E-02
23672,5.45E-03,1.47E-02
23673,5.36E-03,1.47E-02
23674,5.27E-03,1.48E-02
23675,5.18E-03,1.48E-02
23676,5.09E-03,1.48E-02
23677,5.00E-03,1.48E-02
23678,4.91E-03,1.48E-02
23679,4.84E-03,1.48E-02
23680,4.76E-03,1.48E-02
23681,4.76E-03,1.48E-02
23682,4.88E-03,1.48E-02
23683,5.04E-03,1.48E-02
23684,5.17E-03,1.48E-02
23685,5.26E-03,1.48E-02
23686,5.32E-03,1.48E-02
23687,5.38E-03,1.48E-02
23688,5.48E-03,1.48E-02
23689,5.60E-03,1.48E-02
23690,5.73E-03,1.48E-02
23691,5.90E-03,1.48E-02
23692,6.18E-03,1.48E-02
23693,6.50E-03,1.48E-02
23694,6.79E-03,1.48E-02
23695,7.01E-03,1.48E-02
23696,7.20E-03,1.48E-02
23697,7.38E-03,1.47E-02
23698,7.60E-03,1.47E-02
23699,7.82E-03,1.47E-02
23700,7.91E-03,1.47E-02
23701,7.81E-03,1.47E-02
23702,7.80E-03,1.46E-02
23703,8.14E-03,1.46E-02
23704,8.66E-03,1.46E-02
23705,9.17E-03,1.46E-02
23706,9.62E-03,1.45E-02
23707,9.84E-03,1.45E-02
23708,9.82E-03,1.45E-02
23709,9.81E-03,1.45E-02
23710,9.88E-03,1.44E-02
23711,9.96E-03,1.44E-02
23712,1.00E-02,1.44E-02
23713,1.01E-02,1.43E-02
23714,1.02E-02,1.43E-02
23715,1.02E-02,1.43E-02
23716,1.03E-02,1.43E-02
23717,1.03E-02,1.43E-02
23718,1.01E-02,1.42E-02
23719,9.96E-03,1.42E-02
23720,9.76E-03,1.42E-02
23721,9.58E-03,1.42E-02
23722,9.46E-03,1.42E-02
23723,9.36E-03,1.41E-02
23724,9.27E-03,1.41E-02
23725,9.19E-03,1.41E-02
23726,9.11E-03,1.41E-02
23727,9.05E-03,1.41E-02
23728,8.99E-03,1.41E-02
23729,8.93E-03,1.41E-02
23730,8.86E-03,1.41E-02
23731,8.76E-03,1.41E-02
23732,8.61E-03,1.41E-02
23733,8.46E-03,1.41E-02
23734,8.35E-03,1.40E-02
23735,8.29E-03,1.40E-02
23736,8.23E-03,1.40E-02
23737,8.17E-03,1.40E-02
23738,8.11E-03,1.40E-02
23739,8.05E-03,1.40E-02
23740,7.99E-03,1.40E-02
23741,7.93E-03,1.40E-02
23742,7.91E-03,1.40E-02
23743,7.93E-03,1.40E-02
23744,7.97E-03,1.40E-02
23745,8.01E-03,1.40E-02
23746,8.05E-03,1.40E-02
23747,8.09E-03,1.40E-02
23748,8.15E-03,1.40E-02
23749,8.19E-03,1.39E-02
23750,8.23E-03,1.39E-02
23751,8.25E-03,1.39E-02
23752,8.25E-03,1.39E-02
23753,8.25E-03,1.39E-02
23754,8.27E-03,1.39E-02
23755,8.32E-03,1.39E-02
23756,8.43E-03,1.39E-02
23757,8.55E-03,1.39E-02
23758,8.78E-03,1.39E-02
23759,8.90E-03,1.39E-02
23760,9.18E-03,1.39E-02
23761,9.27E-03,1.39E-02
23762,9.28E-03,1.39E-02
23763,9.28E-03,1.39E-02
23764,9.39E-03,1.39E-02
23765,9.53E-03,1.39E-02
23766,9.58E-03,1.39E-02
23767,9.73E-03,1.39E-02
23768,9.91E-03,1.40E-02
23769,9.95E-03,1.40E-02
23770,1.05E-02,1.40E-02
23771,9.03E-03,1.40E-02
23772,7.79E-03,1.22E-02
23773,7.64E-03,2.26E-02
23774,7.51E-03,2.27E-02
23775,7.85E-03,1.18E-02
23776,7.30E-03,5.40E-03
23777,7.82E-03,1.58E-02
23778,7.58E-03,1.56E-02
23779,9.66E-03,1.54E-02
23780,8.13E-03,1.52E-02
23781,8.09E-03,1.50E-02
23782,8.09E-03,1.48E-02
23783,8.09E-03,1.46E-02
23784,8.09E-03,1.43E-02
23785,8.09E-03,1.41E-02
23786,8.09E-03,1.39E-02
23787,8.09E-03,1.36E-02
23788,8.09E-03,1.34E-02
23789,8.10E-03,1.32E-02
23790,8.09E-03,1.29E-02
23791,8.14E-03,1.27E-02
23792,8.22E-03,1.24E-02
23793,1.10E-02,1.21E-02
23794,9.03E-03,1.18E-02
23795,8.98E-03,1.15E-02
23796,8.68E-03,1.13E-02
23797,8.70E-03,1.10E-02
23798,8.35E-03,1.03E-02
23799,3.40E-03,1.01E-02
23800,5.02E-03,9.98E-03
23801,8.63E-03,9.75E-03
23802,8.10E-03,9.48E-03
23803,8.09E-03,9.22E-03
23804,8.09E-03,8.96E-03
23805,8.09E-03,8.71E-03
23806,8.09E-03,8.46E-03
23807,8.09E-03,8.21E-03
23808,8.09E-03,7.96E-03
23809,8.09E-03,7.73E-03
23810,8.09E-03,7.49E-03
23811,8.09E-03,7.26E-03
23812,8.09E-03,7.04E-03
23813,8.09E-03,6.83E-03
23814,8.09E-03,6.62E-03
23815,8.09E-03,6.42E-03
23816,8.09E-03,6.23E-03
23817,8.09E-03,6.05E-03
23818,8.09E-03,5.88E-03
23819,8.09E-03,5.72E-03
23820,8.09E-03,5.57E-03
23821,8.09E-03,5.44E-03
23822,8.09E-03,5.31E-03
23823,8.09E-03,5.21E-03
23824,8.09E-03,5.12E-03
23825,8.09E-03,5.04E-03
23826,8.09E-03,4.99E-03
23827,8.09E-03,4.94E-03
23828,8.16E-03,4.92E-03
23829,8.16E-03,4.90E-03
23830,8.06E-03,4.91E-03
23831,7.91E-03,4.93E-03
23832,7.72E-03,4.97E-03
23833,7.62E-03,5.04E-03
23834,7.78E-03,5.09E-03
23835,8.23E-03,5.15E-03
23836,9.03E-03,1.13E-02
23837,8.98E-03,1.10E-02
23838,8.89E-03,1.08E-02
23839,8.98E-03,1.19E-02
23840,7.17E-03,2.00E-02
23841,7.22E-03,1.99E-02
23842,7.35E-03,1.97E-02
23843,8.80E-03,1.27E-02
23844,8.36E-03,1.27E-02
23845,7.92E-03,1.28E-02
23846,6.65E-03,1.28E-02
23847,8.54E-03,1.24E-02
23848,6.96E-03,2.20E-02
23849,5.60E-03,2.19E-02
23850,6.06E-03,2.17E-02
23851,6.52E-03,2.17E-02
23852,1.06E-02,1.49E-02
23853,1.03E-02,1.45E-02
23854,8.24E-03,1.81E-02
23855,7.83E-03,1.85E-02
23856,7.69E-03,2.28E-02
23857,8.01E-03,5.42E-03
23858,7.95E-03,2.23E-02
23859,8.21E-03,2.23E-02
23860,8.10E-03,1.50E-02
23861,8.10E-03,1.52E-02
23862,8.62E-03,1.42E-02
23863,9.15E-03,1.28E-02
23864,1.00E-02,1.39E-02
23865,8.83E-03,1.38E-02
23866,9.67E-03,1.34E-02
23867,7.41E-03,6.98E-03
23868,6.27E-03,7.08E-03
23869,7.22E-03,2.16E-02
23870,8.07E-03,2.08E-02
23871,7.38E-03,7.63E-03
23872,8.64E-03,1.25E-02
23873,6.44E-03,1.28E-02
23874,5.98E-03,1.62E-02
23875,6.88E-03,1.62E-02
23876,8.75E-03,1.19E-02
23877,8.92E-03,1.19E-02
23878,9.33E-03,1.18E-02
23879,9.39E-03,1.17E-02
23880,9.95E-03,1.17E-02
23881,8.85E-03,1.16E-02
23882,1.16E-02,1.15E-02
23883,1.09E-02,1.14E-02
23884,9.92E-03,1.13E-02
23885,8.75E-03,1.13E-02
23886,8.28E-03,1.12E-02
23887,7.98E-03,1.11E-02
23888,7.66E-03,1.11E-02
23889,7.33E-03,1.10E-02
23890,6.92E-03,1.09E-02
23891,6.49E-03,1.09E-02
23892,6.16E-03,1.08E-02
23893,5.94E-03,1.08E-02
23894,5.73E-03,1.07E-02
23895,5.52E-03,1.07E-02
23896,5.31E-03,1.06E-02
23897,5.07E-03,1.06E-02
23898,4.76E-03,1.05E-02
23899,4.42E-03,1.05E-02
23900,4.08E-03,1.05E-02
23901,3.73E-03,1.04E-02
23902,3.49E-03,1.04E-02
23903,3.43E-03,1.04E-02
23904,3.42E-03,1.03E-02
23905,3.41E-03,1.03E-02
23906,3.39E-03,1.03E-02
23907,3.38E-03,1.03E-02
23908,3.36E-03,1.02E-02
23909,3.32E-03,1.02E-02
23910,3.27E-03,1.02E-02
23911,3.21E-03,1.02E-02
23912,3.15E-03,1.02E-02
23913,3.09E-03,1.01E-02
23914,3.03E-03,1.01E-02
23915,3.01E-03,1.01E-02
23916,3.06E-03,1.01E-02
23917,3.13E-03,1.01E-02
23918,3.20E-03,1.01E-02
23919,3.31E-03,1.00E-02
23920,3.45E-03,1.00E-02
23921,3.60E-03,1.00E-02
23922,3.77E-03,1.00E-02
23923,4.00E-03,9.99E-03
23924,4.29E-03,9.98E-03
23925,4.58E-03,9.96E-03
23926,4.85E-03,9.95E-03
23927,5.05E-03,9.94E-03
23928,5.19E-03,9.92E-03
23929,5.33E-03,9.91E-03
23930,5.47E-03,9.90E-03
23931,5.60E-03,9.89E-03
23932,5.72E-03,9.88E-03
23933,5.84E-03,9.87E-03
23934,5.96E-03,9.86E-03
23935,6.08E-03,9.85E-03
23936,6.20E-03,9.84E-03
23937,6.32E-03,9.83E-03
23938,6.42E-03,9.82E-03
23939,6.50E-03,9.81E-03
23940,6.56E-03,9.81E-03
23941,6.61E-03,9.80E-03
23942,6.67E-03,9.79E-03
23943,6.72E-03,9.79E-03
23944,6.78E-03,9.78E-03
23945,6.84E-03,9.78E-03
23946,6.89E-03,9.77E-03
23947,6.97E-03,9.77E-03
23948,7.07E-03,9.76E-03
23949,7.18E-03,9.76E-03
23950,7.30E-03,9.76E-03
23951,7.39E-03,9.75E-03
23952,7.46E-03,9.75E-03
23953,7.51E-03,9.75E-03
23954,7.57E-03,9.74E-03
23955,7.51E-03,9.74E-03
23956,7.41E-03,9.74E-03
23957,7.36E-03,9.74E-03
23958,7.25E-03,9.74E-03
23959,7.20E-03,9.73E-03
23960,6.95E-03,9.72E-03
23961,6.77E-03,9.70E-03
23962,6.57E-03,9.66E-03
23963,6.56E-03,2.03E-02
23964,8.10E-03,1.65E-02
23965,6.90E-03,2.15E-02
23966,7.81E-03,1.96E-02
23967,7.88E-03,1.59E-02
23968,7.55E-03,1.64E-02
23969,7.46E-03,2.27E-02
23970,8.94E-03,1.16E-02
23971,6.23E-03,1.00E-02
23972,9.92E-03,1.01E-02
23973,9.88E-03,1.03E-02
23974,9.03E-03,1.04E-02
23975,5.42E-03,7.77E-03
23976,7.21E-03,9.90E-03
23977,7.45E-03,1.32E-02
23978,8.43E-03,1.05E-02
23979,7.72E-03,1.21E-02
23980,9.44E-03,1.22E-02
23981,6.91E-03,2.11E-02
23982,7.06E-03,2.10E-02
23983,6.66E-03,1.18E-02
23984,7.83E-03,1.88E-02
23985,8.10E-03,1.50E-02
23986,9.22E-03,1.22E-02
23987,9.16E-03,1.25E-02
23988,7.59E-03,1.29E-02
23989,8.30E-03,2.07E-02
23990,7.63E-03,1.64E-02
23991,7.30E-03,1.64E-02
23992,7.86E-03,1.60E-02
23993,7.74E-03,1.59E-02
23994,6.41E-03,5.67E-03
23995,6.61E-03,5.53E-03
23996,7.36E-03,2.29E-02
23997,9.33E-03,1.52E-02
23998,9.48E-03,1.35E-02
23999,5.23E-03,7.47E-03
24000,7.31E-03,2.26E-02
24001,8.38E-03,2.25E-02
24002,8.10E-03,1.52E-02
24003,7.69E-03,1.59E-02
24004,6.80E-03,1.63E-02
24005,7.73E-03,1.28E-02
24006,7.55E-03,2.23E-02
24007,8.49E-03,1.07E-02
24008,8.14E-03,9.59E-03
24009,8.12E-03,1.65E-02
24010,7.07E-03,1.07E-02
24011,8.12E-03,1.64E-02
24012,8.10E-03,1.10E-02
24013,8.10E-03,1.08E-02
24014,8.09E-03,1.07E-02
24015,8.09E-03,1.06E-02
24016,8.09E-03,1.04E-02
24017,8.09E-03,1.03E-02
24018,8.09E-03,1.01E-02
24019,8.09E-03,1.00E-02
24020,8.09E-03,9.87E-03
24021,8.09E-03,9.73E-03
24022,8.09E-03,9.58E-03
24023,8.09E-03,9.44E-03
24024,8.09E-03,9.29E-03
24025,8.09E-03,9.14E-03
24026,8.09E-03,9.00E-03
24027,8.09E-03,8.85E-03
24028,8.09E-03,8.70E-03
24029,8.09E-03,8.55E-03
24030,8.09E-03,8.40E-03
24031,8.09E-03,8.25E-03
24032,8.09E-03,8.09E-03
24033,8.09E-03,7.94E-03
24034,8.09E-03,7.79E-03
24035,8.09E-03,7.64E-03
24036,8.09E-03,7.49E-03
24037,8.09E-03,7.34E-03
24038,8.09E-03,7.20E-03
24039,8.09E-03,7.05E-03
24040,8.09E-03,6.91E-03
24041,8.09E-03,6.77E-03
24042,8.09E-03,6.63E-03
24043,8.09E-03,6.49E-03
24044,8.09E-03,6.36E-03
24045,8.09E-03,6.24E-03
24046,8.09E-03,6.12E-03
24047,8.09E-03,6.00E-03
24048,8.09E-03,5.89E-03
24049,8.09E-03,5.79E-03
24050,8.09E-03,5.69E-03
24051,8.09E-03,5.60E-03
24052,8.09E-03,5.53E-03
24053,8.09E-03,5.46E-03
24054,8.03E-03,5.41E-03
24055,7.99E-03,5.37E-03
24056,8.00E-03,5.34E-03
24057,7.97E-03,5.32E-03
24058,8.08E-03,5.30E-03
24059,8.96E-03,5.29E-03
24060,7.69E-03,5.24E-03
24061,6.74E-03,5.38E-03
24062,6.23E-03,2.26E-02
24063,6.35E-03,2.27E-02
24064,7.09E-03,2.27E-02
24065,7.03E-03,2.28E-02
24066,7.68E-03,1.20E-02
24067,7.60E-03,1.58E-02
24068,7.23E-03,1.58E-02
24069,7.16E-03,1.58E-02
24070,7.06E-03,1.57E-02
24071,7.27E-03,1.57E-02
24072,7.90E-03,1.90E-02
24073,8.99E-03,2.26E-02
24074,7.26E-03,2.28E-02
24075,8.10E-03,1.50E-02
24076,8.10E-03,1.53E-02
24077,7.80E-03,1.93E-02
24078,7.64E-03,1.60E-02
24079,7.71E-03,1.25E-02
24080,7.54E-03,6.90E-03
24081,7.07E-03,1.63E-02
24082,8.30E-03,1.63E-02
24083,6.93E-03,1.64E-02
24084,7.87E-03,1.60E-02
24085,7.67E-03,1.63E-02
24086,8.57E-03,1.63E-02
24087,8.10E-03,1.50E-02
24088,8.10E-03,1.54E-02
24089,7.43E-03,1.61E-02
24090,6.77E-03,1.64E-02
24091,8.79E-03,5.97E-03
24092,8.47E-03,5.81E-03
24093,6.68E-03,5.80E-03
24094,7.97E-03,1.64E-02
24095,8.47E-03,5.54E-03
24096,7.65E-03,5.51E-03
24097,7.93E-03,5.50E-03
24098,8.18E-03,5.53E-03
24099,8.67E-03,5.50E-03
24100,8.69E-03,5.50E-03
24101,8.66E-03,5.51E-03
24102,7.84E-03,5.51E-03
24103,3.89E-03,5.54E-03
24104,4.75E-03,5.58E-03
24105,4.77E-03,5.61E-03
24106,5.13E-03,5.65E-03
24107,5.68E-03,5.67E-03
24108,5.72E-03,5.70E-03
24109,5.88E-03,5.72E-03
24110,6.23E-03,5.75E-03
24111,6.34E-03,5.78E-03
24112,6.50E-03,5.82E-03
24113,6.65E-03,5.86E-03
24114,6.82E-03,5.90E-03
24115,7.00E-03,5.94E-03
24116,7.12E-03,5.99E-03
24117,7.16E-03,6.04E-03
24118,7.21E-03,6.09E-03
24119,7.25E-03,6.15E-03
24120,7.30E-03,6.20E-03
24121,7.34E-03,6.27E-03
24122,7.39E-03,6.33E-03
24123,7.43E-03,6.40E-03
24124,7.47E-03,6.48E-03
24125,7.51E-03,6.55E-03
24126,7.54E-03,6.63E-03
24127,7.57E-03,6.71E-03
24128,7.60E-03,6.80E-03
24129,7.63E-03,6.89E-03
24130,7.66E-03,6.98E-03
24131,7.69E-03,7.07E-03
24132,7.71E-03,7.17E-03
24133,7.73E-03,7.27E-03
24134,7.76E-03,7.38E-03
24135,7.78E-03,7.48E-03
24136,7.80E-03,7.59E-03
24137,7.82E-03,7.71E-03
24138,7.83E-03,7.82E-03
24139,7.83E-03,7.94E-03
24140,7.83E-03,8.06E-03
24141,7.83E-03,8.18E-03
24142,7.83E-03,8.31E-03
24143,7.82E-03,8.44E-03
24144,7.82E-03,8.57E-03
24145,7.82E-03,8.70E-03
24146,7.79E-03,8.83E-03
24147,7.76E-03,8.97E-03
24148,7.73E-03,9.10E-03
24149,7.70E-03,9.24E-03
24150,7.67E-03,9.38E-03
24151,7.64E-03,9.52E-03
24152,7.60E-03,9.66E-03
24153,7.57E-03,9.80E-03
24154,7.54E-03,9.94E-03
24155,7.51E-03,1.01E-02
24156,7.46E-03,1.02E-02
24157,7.39E-03,1.04E-02
24158,7.31E-03,1.05E-02
24159,7.22E-03,1.07E-02
24160,7.14E-03,1.08E-02
24161,7.06E-03,1.09E-02
24162,6.98E-03,1.11E-02
24163,6.90E-03,1.12E-02
24164,6.82E-03,1.14E-02
24165,6.75E-03,1.15E-02
24166,6.70E-03,1.16E-02
24167,6.64E-03,1.18E-02
24168,6.59E-03,1.19E-02
24169,6.53E-03,1.20E-02
24170,6.48E-03,1.22E-02
24171,6.41E-03,1.23E-02
24172,6.33E-03,1.24E-02
24173,6.25E-03,1.26E-02
24174,6.17E-03,1.27E-02
24175,6.07E-03,1.28E-02
24176,5.97E-03,1.30E-02
24177,5.81E-03,1.31E-02
24178,5.72E-03,1.32E-02
24179,5.58E-03,1.33E-02
24180,5.54E-03,1.34E-02
24181,5.53E-03,1.36E-02
24182,5.39E-03,1.37E-02
24183,5.05E-03,1.37E-02
24184,4.53E-03,1.38E-02
24185,4.80E-03,1.40E-02
24186,5.53E-03,1.41E-02
24187,6.81E-03,1.42E-02
24188,5.44E-03,1.43E-02
24189,7.29E-03,1.61E-02
24190,6.67E-03,2.30E-02
24191,7.44E-03,2.30E-02
24192,8.14E-03,2.30E-02
24193,6.45E-03,5.60E-03
24194,8.10E-03,1.50E-02
24195,8.10E-03,1.54E-02
24196,8.69E-03,2.27E-02
24197,6.94E-03,2.23E-02
24198,8.10E-03,1.49E-02
24199,7.94E-03,1.55E-02
24200,8.00E-03,1.64E-02
24201,8.10E-03,1.49E-02
24202,7.67E-03,1.55E-02
24203,8.10E-03,1.11E-02
24204,8.10E-03,1.13E-02
24205,8.10E-03,1.15E-02
24206,8.10E-03,1.14E-02
24207,8.10E-03,1.17E-02
24208,8.10E-03,1.49E-02
24209,7.50E-03,1.56E-02
24210,8.10E-03,1.18E-02
24211,8.10E-03,1.49E-02
24212,8.10E-03,1.19E-02
24213,8.10E-03,1.49E-02
24214,8.10E-03,1.21E-02
24215,8.10E-03,1.48E-02
24216,8.10E-03,1.22E-02
24217,8.10E-03,1.48E-02
24218,8.10E-03,1.23E-02
24219,8.10E-03,1.25E-02
24220,8.10E-03,1.47E-02
24221,8.10E-03,1.47E-02
24222,8.10E-03,1.26E-02
24223,8.10E-03,1.46E-02
24224,8.10E-03,1.46E-02
24225,7.28E-03,1.64E-02
24226,7.17E-03,1.64E-02
24227,7.89E-03,1.64E-02
24228,8.10E-03,1.27E-02
24229,8.10E-03,1.28E-02
24230,7.69E-03,1.64E-02
24231,8.10E-03,1.45E-02
24232,8.10E-03,1.30E-02
24233,8.10E-03,1.44E-02
24234,8.10E-03,1.31E-02
24235,8.10E-03,1.32E-02
24236,8.10E-03,1.44E-02
24237,8.10E-03,1.43E-02
24238,8.10E-03,1.33E-02
24239,8.10E-03,1.34E-02
24240,8.10E-03,1.42E-02
24241,8.10E-03,1.35E-02
24242,8.10E-03,1.36E-02
24243,8.10E-03,1.41E-02
24244,8.10E-03,1.40E-02
24245,8.10E-03,1.37E-02
24246,8.10E-03,1.38E-02
24247,8.10E-03,1.39E-02
24248,7.76E-03,1.83E-02
24249,8.10E-03,2.29E-02
24250,9.15E-03,5.43E-03
24251,9.08E-03,5.37E-03
24252,8.07E-03,2.23E-02
24253,8.23E-03,2.23E-02
24254,8.17E-03,2.23E-02
24255,8.10E-03,1.50E-02
24256,8.10E-03,1.50E-02
24257,8.10E-03,1.50E-02
24258,8.10E-03,1.50E-02
24259,8.10E-03,1.51E-02
24260,8.10E-03,1.51E-02
24261,8.10E-03,1.51E-02
24262,8.10E-03,1.51E-02
24263,6.47E-03,1.76E-02
24264,3.37E-03,1.74E-02
24265,6.65E-03,1.73E-02
24266,7.33E-03,1.71E-02
24267,7.61E-03,1.69E-02
24268,7.84E-03,1.67E-02
24269,7.92E-03,1.65E-02
24270,8.24E-03,1.62E-02
24271,8.38E-03,1.60E-02
24272,8.78E-03,1.55E-02
24273,8.48E-03,1.58E-02
24274,9.86E-03,1.46E-02
24275,9.24E-03,1.50E-02
24276,7.31E-03,1.40E-02
24277,7.38E-03,1.38E-02
24278,9.29E-03,1.31E-02
24279,7.23E-03,1.33E-02
24280,7.28E-03,1.35E-02
24281,8.06E-03,1.42E-02
24282,8.42E-03,1.42E-02
24283,8.83E-03,1.42E-02
24284,9.26E-03,1.42E-02
24285,1.00E-02,1.41E-02
24286,1.01E-02,1.41E-02
24287,9.81E-03,1.41E-02
24288,9.76E-03,1.41E-02
24289,9.63E-03,1.41E-02
24290,9.31E-03,1.41E-02
24291,9.25E-03,1.41E-02
24292,9.25E-03,1.41E-02
24293,9.25E-03,1.41E-02
24294,9.16E-03,1.41E-02
24295,8.95E-03,1.41E-02
24296,8.71E-03,1.41E-02
24297,8.54E-03,1.41E-02
24298,8.42E-03,1.41E-02
24299,8.32E-03,1.41E-02
24300,8.26E-03,1.41E-02
24301,8.25E-03,1.41E-02
24302,8.25E-03,1.41E-02
24303,8.24E-03,1.41E-02
24304,8.22E-03,1.41E-02
24305,8.18E-03,1.41E-02
24306,8.15E-03,1.41E-02
24307,8.09E-03,1.41E-02
24308,8.05E-03,1.41E-02
24309,8.01E-03,1.41E-02
24310,7.97E-03,1.41E-02
24311,7.93E-03,1.41E-02
24312,7.91E-03,1.42E-02
24313,7.93E-03,1.42E-02
24314,7.99E-03,1.42E-02
24315,8.05E-03,1.42E-02
24316,8.11E-03,1.42E-02
24317,8.17E-03,1.42E-02
24318,8.23E-03,1.42E-02
24319,8.28E-03,1.42E-02
24320,8.35E-03,1.42E-02
24321,8.46E-03,1.42E-02
24322,8.60E-03,1.42E-02
24323,8.74E-03,1.42E-02
24324,8.85E-03,1.42E-02
24325,8.91E-03,1.42E-02
24326,8.97E-03,1.42E-02
24327,9.03E-03,1.42E-02
24328,9.09E-03,1.42E-02
24329,9.17E-03,1.42E-02
24330,9.25E-03,1.42E-02
24331,9.34E-03,1.43E-02
24332,9.43E-03,1.43E-02
24333,9.55E-03,1.43E-02
24334,9.73E-03,1.43E-02
24335,9.92E-03,1.43E-02
24336,1.01E-02,1.43E-02
24337,1.02E-02,1.43E-02
24338,1.02E-02,1.44E-02
24339,1.02E-02,1.44E-02
24340,1.01E-02,1.44E-02
24341,1.00E-02,1.44E-02
24342,9.99E-03,1.45E-02
24343,9.93E-03,1.45E-02
24344,9.84E-03,1.45E-02
24345,9.78E-03,1.45E-02
24346,9.79E-03,1.46E-02
24347,9.80E-03,1.46E-02
24348,9.59E-03,1.46E-02
24349,9.15E-03,1.46E-02
24350,8.64E-03,1.46E-02
24351,8.14E-03,1.47E-02
24352,7.81E-03,1.47E-02
24353,7.81E-03,1.47E-02
24354,7.92E-03,1.47E-02
24355,7.83E-03,1.48E-02
24356,7.61E-03,1.48E-02
24357,7.40E-03,1.48E-02
24358,7.21E-03,1.48E-02
24359,7.03E-03,1.48E-02
24360,6.82E-03,1.48E-02
24361,6.53E-03,1.48E-02
24362,6.22E-03,1.48E-02
24363,5.95E-03,1.48E-02
24364,5.77E-03,1.48E-02
24365,5.65E-03,1.48E-02
24366,5.53E-03,1.48E-02
24367,5.44E-03,1.48E-02
24368,5.37E-03,1.48E-02
24369,5.31E-03,1.48E-02
24370,5.23E-03,1.48E-02
24371,5.10E-03,1.48E-02
24372,4.94E-03,1.48E-02
24373,4.83E-03,1.48E-02
24374,4.83E-03,1.48E-02
24375,4.90E-03,1.48E-02
24376,4.98E-03,1.48E-02
24377,5.06E-03,1.48E-02
24378,5.15E-03,1.48E-02
24379,5.24E-03,1.48E-02
24380,5.32E-03,1.48E-02
24381,5.41E-03,1.48E-02
24382,5.50E-03,1.47E-02
24383,5.56E-03,1.47E-02
24384,5.60E-03,1.47E-02
24385,5.63E-03,1.47E-02
24386,5.66E-03,1.47E-02
24387,5.69E-03,1.46E-02
24388,5.73E-03,1.46E-02
24389,5.74E-03,1.46E-02
24390,5.70E-03,1.46E-02
24391,5.63E-03,1.45E-02
24392,5.56E-03,1.45E-02
24393,5.48E-03,1.45E-02
24394,5.39E-03,1.45E-02
24395,5.30E-03,1.44E-02
24396,5.18E-03,1.44E-02
24397,5.00E-03,1.44E-02
24398,4.77E-03,1.44E-02
24399,4.55E-03,1.43E-02
24400,4.33E-03,1.43E-02
24401,4.14E-03,1.43E-02
24402,4.06E-03,1.43E-02
24403,4.17E-03,1.43E-02
24404,4.28E-03,1.42E-02
24405,4.15E-03,1.42E-02
24406,4.09E-03,1.42E-02
24407,5.54E-03,1.42E-02
24408,8.37E-03,1.41E-02
24409,8.32E-03,1.41E-02
24410,1.04E-02,1.40E-02
24411,9.78E-03,1.40E-02
24412,9.44E-03,1.36E-02
24413,9.05E-03,1.38E-02
24414,9.49E-03,1.37E-02
24415,9.35E-03,1.37E-02
24416,9.62E-03,1.35E-02
24417,1.04E-02,1.19E-02
24418,8.54E-03,1.20E-02
24419,6.61E-03,7.18E-03
24420,6.02E-03,7.39E-03
24421,6.47E-03,7.30E-03
24422,7.81E-03,1.63E-02
24423,8.29E-03,1.63E-02
24424,8.27E-03,1.63E-02
24425,7.58E-03,2.14E-02
24426,8.06E-03,2.10E-02
24427,8.05E-03,2.11E-02
24428,7.95E-03,2.13E-02
24429,7.45E-03,7.73E-03
24430,7.46E-03,7.80E-03
24431,7.40E-03,7.87E-03
24432,6.73E-03,7.94E-03
24433,5.97E-03,8.01E-03
24434,5.06E-03,8.07E-03
24435,3.37E-03,8.12E-03
24436,3.07E-03,8.17E-03
24437,3.22E-03,8.22E-03
24438,3.28E-03,8.26E-03
24439,3.44E-03,8.29E-03
24440,3.82E-03,8.36E-03
24441,3.72E-03,8.38E-03
24442,5.50E-03,8.46E-03
24443,6.80E-03,8.75E-03
24444,6.46E-03,8.88E-03
24445,6.63E-03,9.03E-03
24446,9.58E-03,9.30E-03
24447,7.73E-03,9.16E-03
24448,8.52E-03,1.26E-02
24449,6.29E-03,1.27E-02
24450,7.65E-03,1.26E-02
24451,8.03E-03,1.26E-02
24452,9.25E-03,1.81E-02
24453,6.29E-03,9.58E-03
24454,5.42E-03,2.32E-02
24455,6.86E-03,2.01E-02
24456,7.10E-03,2.00E-02
24457,6.15E-03,2.04E-02
24458,7.47E-03,1.48E-02
24459,8.02E-03,1.64E-02
24460,6.73E-03,2.18E-02
24461,7.14E-03,1.99E-02
24462,7.46E-03,1.97E-02
24463,5.02E-03,1.96E-02
24464,7.84E-03,1.57E-02
24465,7.54E-03,1.55E-02
24466,9.57E-03,1.53E-02
24467,8.12E-03,1.51E-02
24468,8.09E-03,1.49E-02
24469,8.09E-03,1.47E-02
24470,8.09E-03,1.45E-02
24471,8.09E-03,1.42E-02
24472,8.09E-03,1.40E-02
24473,8.09E-03,1.38E-02
24474,8.09E-03,1.36E-02
24475,8.09E-03,1.33E-02
24476,8.10E-03,1.31E-02
24477,8.15E-03,1.29E-02
24478,8.20E-03,1.26E-02
24479,8.13E-03,1.24E-02
24480,1.10E-02,1.21E-02
24481,9.01E-03,1.17E-02
24482,8.96E-03,1.15E-02
24483,8.67E-03,1.12E-02
24484,8.66E-03,1.09E-02
24485,7.67E-03,5.47E-03
24486,8.54E-03,1.63E-02
24487,4.46E-03,2.34E-02
24488,9.17E-03,2.29E-02
24489,8.09E-03,2.30E-02
24490,9.02E-03,1.13E-02
24491,9.17E-03,1.10E-02
24492,8.79E-03,1.08E-02
24493,7.24E-03,1.02E-02
24494,6.57E-03,7.73E-03
24495,4.56E-03,7.84E-03
24496,7.68E-03,7.65E-03
24497,5.41E-03,7.96E-03
24498,6.62E-03,1.00E-02
24499,6.49E-03,1.03E-02
24500,7.27E-03,1.35E-02
24501,7.26E-03,1.39E-02
24502,7.17E-03,1.42E-02
24503,6.53E-03,1.45E-02
24504,6.43E-03,1.48E-02
24505,2.51E-03,1.50E-02
24506,2.86E-03,1.51E-02
24507,3.17E-03,1.53E-02
24508,3.43E-03,1.55E-02
24509,3.80E-03,1.56E-02
24510,3.91E-03,1.58E-02
24511,4.02E-03,1.60E-02
24512,4.23E-03,1.62E-02
24513,4.41E-03,1.64E-02
24514,4.56E-03,1.66E-02
24515,8.37E-03,1.02E-02
24516,3.49E-03,1.00E-02
24517,5.10E-03,9.92E-03
24518,8.61E-03,9.69E-03
24519,8.10E-03,9.42E-03
24520,8.09E-03,9.16E-03
24521,8.09E-03,8.91E-03
24522,8.09E-03,8.65E-03
24523,8.09E-03,8.40E-03
24524,8.09E-03,8.16E-03
24525,8.09E-03,7.91E-03
24526,8.09E-03,7.67E-03
24527,8.09E-03,7.44E-03
24528,8.09E-03,7.21E-03
24529,8.09E-03,6.99E-03
24530,8.09E-03,6.77E-03
24531,8.09E-03,6.57E-03
24532,8.09E-03,6.37E-03
24533,8.09E-03,6.17E-03
24534,8.09E-03,5.99E-03
24535,8.09E-03,5.82E-03
24536,8.09E-03,5.66E-03
24537,8.09E-03,5.51E-03
24538,8.09E-03,5.38E-03
24539,8.09E-03,5.25E-03
24540,8.09E-03,5.15E-03
24541,8.09E-03,5.05E-03
24542,8.09E-03,4.98E-03
24543,8.09E-03,4.92E-03
24544,8.09E-03,4.87E-03
24545,8.09E-03,4.84E-03
24546,8.09E-03,4.83E-03
24547,7.99E-03,4.83E-03
24548,7.97E-03,4.85E-03
24549,7.89E-03,4.90E-03
24550,7.85E-03,4.95E-03
24551,7.91E-03,5.01E-03
24552,8.08E-03,5.07E-03
24553,7.95E-03,5.11E-03
24554,6.59E-03,5.19E-03
24555,8.56E-03,1.23E-02
24556,6.09E-03,2.21E-02
24557,5.86E-03,2.20E-02
24558,7.94E-03,1.00E-02
24559,8.76E-03,9.93E-03
24560,7.48E-03,9.81E-03
24561,7.56E-03,9.65E-03
24562,8.87E-03,1.19E-02
24563,6.71E-03,2.03E-02
24564,7.91E-03,1.86E-02
24565,8.10E-03,1.50E-02
24566,9.07E-03,1.28E-02
24567,7.44E-03,1.32E-02
24568,7.61E-03,2.31E-02
24569,8.08E-03,2.09E-02
24570,9.04E-03,1.63E-02
24571,7.66E-03,1.63E-02
24572,7.94E-03,1.59E-02
24573,6.90E-03,2.02E-02
24574,6.42E-03,5.68E-03
24575,6.66E-03,7.95E-03
24576,7.68E-03,2.26E-02
24577,8.18E-03,2.25E-02
24578,8.10E-03,1.52E-02
24579,7.76E-03,1.58E-02
24580,8.82E-03,1.17E-02
24581,9.23E-03,1.39E-02
24582,9.03E-03,1.38E-02
24583,7.12E-03,1.18E-02
24584,8.91E-03,1.17E-02
24585,9.33E-03,1.17E-02
24586,9.43E-03,1.16E-02
24587,9.54E-03,1.15E-02
24588,9.18E-03,1.15E-02
24589,1.17E-02,1.14E-02
24590,1.09E-02,1.13E-02
24591,9.72E-03,1.12E-02
24592,8.73E-03,1.11E-02
24593,8.28E-03,1.11E-02
24594,7.98E-03,1.10E-02
24595,7.67E-03,1.09E-02
24596,7.34E-03,1.09E-02
24597,6.95E-03,1.08E-02
24598,6.52E-03,1.07E-02
24599,6.20E-03,1.07E-02
24600,5.99E-03,1.06E-02
24601,5.78E-03,1.06E-02
24602,5.57E-03,1.05E-02
24603,5.37E-03,1.05E-02
24604,5.13E-03,1.04E-02
24605,4.83E-03,1.04E-02
24606,4.49E-03,1.03E-02
24607,4.16E-03,1.03E-02
24608,3.82E-03,1.03E-02
24609,3.59E-03,1.02E-02
24610,3.52E-03,1.02E-02
24611,3.51E-03,1.02E-02
24612,3.50E-03,1.02E-02
24613,3.49E-03,1.01E-02
24614,3.47E-03,1.01E-02
24615,3.45E-03,1.01E-02
24616,3.42E-03,1.01E-02
24617,3.36E-03,1.00E-02
24618,3.30E-03,1.00E-02
24619,3.25E-03,9.99E-03
24620,3.19E-03,9.97E-03
24621,3.13E-03,9.96E-03
24622,3.11E-03,9.94E-03
24623,3.16E-03,9.92E-03
24624,3.23E-03,9.91E-03
24625,3.30E-03,9.89E-03
24626,3.40E-03,9.87E-03
24627,3.55E-03,9.86E-03
24628,3.69E-03,9.84E-03
24629,3.85E-03,9.83E-03
24630,4.08E-03,9.81E-03
24631,4.37E-03,9.80E-03
24632,4.65E-03,9.79E-03
24633,4.92E-03,9.77E-03
24634,5.11E-03,9.76E-03
24635,5.25E-03,9.74E-03
24636,5.38E-03,9.73E-03
24637,5.52E-03,9.72E-03
24638,5.65E-03,9.70E-03
24639,5.76E-03,9.69E-03
24640,5.88E-03,9.68E-03
24641,6.00E-03,9.67E-03
24642,6.12E-03,9.66E-03
24643,6.23E-03,9.65E-03
24644,6.35E-03,9.64E-03
24645,6.46E-03,9.63E-03
24646,6.53E-03,9.62E-03
24647,6.59E-03,9.61E-03
24648,6.64E-03,9.60E-03
24649,6.70E-03,9.60E-03
24650,6.75E-03,9.59E-03
24651,6.81E-03,9.58E-03
24652,6.86E-03,9.57E-03
24653,6.92E-03,9.57E-03
24654,6.99E-03,9.56E-03
24655,7.09E-03,9.56E-03
24656,7.20E-03,9.55E-03
24657,7.31E-03,9.55E-03
24658,7.41E-03,9.54E-03
24659,7.47E-03,9.54E-03
24660,7.52E-03,9.53E-03
24661,7.58E-03,9.53E-03
24662,7.50E-03,9.52E-03
24663,7.38E-03,9.52E-03
24664,7.33E-03,9.51E-03
24665,7.18E-03,9.51E-03
24666,7.11E-03,9.50E-03
24667,6.76E-03,9.49E-03
24668,6.71E-03,9.47E-03
24669,6.30E-03,9.44E-03
24670,5.61E-03,9.40E-03
24671,5.81E-03,9.48E-03
24672,7.09E-03,2.08E-02
24673,7.38E-03,2.07E-02
24674,7.97E-03,2.05E-02
24675,8.01E-03,2.04E-02
24676,7.96E-03,2.02E-02
24677,7.40E-03,2.00E-02
24678,7.16E-03,1.99E-02
24679,6.93E-03,1.97E-02
24680,6.70E-03,1.95E-02
24681,6.39E-03,1.94E-02
24682,6.23E-03,1.92E-02
24683,6.10E-03,1.90E-02
24684,6.18E-03,1.89E-02
24685,7.17E-03,7.75E-03
24686,6.87E-03,1.62E-02
24687,6.16E-03,2.19E-02
24688,6.69E-03,2.18E-02
24689,7.22E-03,2.17E-02
24690,8.41E-03,1.24E-02
24691,6.85E-03,1.27E-02
24692,6.97E-03,2.23E-02
24693,8.42E-03,1.04E-02
24694,5.55E-03,1.86E-02
24695,4.66E-03,1.83E-02
24696,4.30E-03,1.82E-02
24697,3.97E-03,1.80E-02
24698,3.97E-03,1.78E-02
24699,3.88E-03,1.77E-02
24700,4.14E-03,1.76E-02
24701,4.18E-03,1.74E-02
24702,4.83E-03,1.72E-02
24703,8.14E-03,2.07E-02
24704,7.81E-03,9.67E-03
24705,8.11E-03,1.64E-02
24706,6.53E-03,2.07E-02
24707,6.61E-03,1.29E-02
24708,6.15E-03,1.28E-02
24709,9.54E-03,1.20E-02
24710,9.33E-03,1.21E-02
24711,6.73E-03,1.06E-02
24712,6.35E-03,1.05E-02
24713,6.27E-03,1.42E-02
24714,6.48E-03,5.54E-03
24715,8.40E-03,7.62E-03
24716,6.98E-03,7.78E-03
24717,6.57E-03,7.89E-03
24718,6.29E-03,1.62E-02
24719,6.93E-03,1.62E-02
24720,8.13E-03,1.64E-02
24721,8.10E-03,1.08E-02
24722,8.09E-03,1.07E-02
24723,8.09E-03,1.06E-02
24724,8.09E-03,1.04E-02
24725,8.09E-03,1.03E-02
24726,8.09E-03,1.02E-02
24727,8.09E-03,1.00E-02
24728,8.09E-03,9.88E-03
24729,8.09E-03,9.74E-03
24730,8.09E-03,9.59E-03
24731,8.09E-03,9.45E-03
24732,8.09E-03,9.30E-03
24733,8.09E-03,9.15E-03
24734,8.09E-03,9.01E-03
24735,8.09E-03,8.86E-03
24736,8.09E-03,8.71E-03
24737,8.09E-03,8.56E-03
24738,8.09E-03,8.40E-03
24739,8.09E-03,8.25E-03
24740,8.09E-03,8.10E-03
24741,8.09E-03,7.95E-03
24742,8.09E-03,7.80E-03
24743,8.09E-03,7.65E-03
24744,8.09E-03,7.50E-03
24745,8.09E-03,7.35E-03
24746,8.09E-03,7.20E-03
24747,8.09E-03,7.05E-03
24748,8.09E-03,6.91E-03
24749,8.09E-03,6.77E-03
24750,8.09E-03,6.63E-03
24751,8.09E-03,6.49E-03
24752,8.09E-03,6.36E-03
24753,8.09E-03,6.24E-03
24754,8.09E-03,6.11E-03
24755,8.09E-03,6.00E-03
24756,8.09E-03,5.88E-03
24757,8.09E-03,5.78E-03
24758,8.09E-03,5.68E-03
24759,8.09E-03,5.59E-03
24760,8.09E-03,5.52E-03
24761,8.09E-03,5.45E-03
24762,8.09E-03,5.39E-03
24763,8.03E-03,5.35E-03
24764,8.00E-03,5.31E-03
24765,8.00E-03,5.29E-03
24766,8.06E-03,5.28E-03
24767,7.83E-03,5.28E-03
24768,7.05E-03,5.24E-03
24769,5.86E-03,5.29E-03
24770,6.53E-03,5.34E-03
24771,6.50E-03,5.40E-03
24772,6.54E-03,2.28E-02
24773,6.62E-03,2.28E-02
24774,6.63E-03,2.29E-02
24775,6.26E-03,2.29E-02
24776,8.00E-03,1.22E-02
24777,7.58E-03,1.58E-02
24778,7.14E-03,1.58E-02
24779,6.94E-03,1.58E-02
24780,6.82E-03,1.57E-02
24781,7.12E-03,1.57E-02
24782,7.81E-03,1.88E-02
24783,8.18E-03,2.26E-02
24784,7.33E-03,2.28E-02
24785,8.10E-03,1.50E-02
24786,8.10E-03,1.53E-02
24787,7.80E-03,1.91E-02
24788,9.74E-03,1.22E-02
24789,9.62E-03,1.25E-02
24790,7.68E-03,1.58E-02
24791,8.03E-03,9.99E-03
24792,8.45E-03,1.02E-02
24793,7.57E-03,1.28E-02
24794,6.01E-03,7.11E-03
24795,7.04E-03,7.01E-03
24796,7.85E-03,2.30E-02
24797,7.28E-03,2.34E-02
24798,8.76E-03,1.63E-02
24799,8.40E-03,1.63E-02
24800,4.59E-03,6.92E-03
24801,7.21E-03,1.63E-02
24802,8.08E-03,1.59E-02
24803,6.63E-03,2.26E-02
24804,7.70E-03,1.62E-02
24805,8.73E-03,1.62E-02
24806,7.53E-03,1.61E-02
24807,7.32E-03,2.28E-02
24808,8.10E-03,1.50E-02
24809,8.10E-03,1.53E-02
24810,7.58E-03,1.59E-02
24811,7.18E-03,1.63E-02
24812,9.34E-03,6.11E-03
24813,8.92E-03,5.94E-03
24814,6.83E-03,5.92E-03
24815,8.01E-03,1.64E-02
24816,7.84E-03,1.60E-02
24817,7.41E-03,5.46E-03
24818,8.63E-03,5.54E-03
24819,8.69E-03,5.52E-03
24820,8.62E-03,5.51E-03
24821,8.20E-03,5.51E-03
24822,3.91E-03,5.53E-03
24823,4.76E-03,5.58E-03
24824,4.76E-03,5.61E-03
24825,5.08E-03,5.64E-03
24826,5.78E-03,5.66E-03
24827,5.79E-03,5.68E-03
24828,5.92E-03,5.71E-03
24829,6.28E-03,5.73E-03
24830,6.40E-03,5.76E-03
24831,6.56E-03,5.79E-03
24832,6.70E-03,5.83E-03
24833,6.88E-03,5.86E-03
24834,7.09E-03,5.90E-03
24835,7.13E-03,5.95E-03
24836,7.18E-03,5.99E-03
24837,7.22E-03,6.04E-03
24838,7.27E-03,6.10E-03
24839,7.31E-03,6.15E-03
24840,7.36E-03,6.22E-03
24841,7.40E-03,6.28E-03
24842,7.44E-03,6.35E-03
24843,7.49E-03,6.42E-03
24844,7.52E-03,6.49E-03
24845,7.55E-03,6.57E-03
24846,7.58E-03,6.65E-03
24847,7.61E-03,6.73E-03
24848,7.64E-03,6.82E-03
24849,7.67E-03,6.91E-03
24850,7.70E-03,7.00E-03
24851,7.72E-03,7.10E-03
24852,7.74E-03,7.20E-03
24853,7.76E-03,7.30E-03
24854,7.78E-03,7.41E-03
24855,7.81E-03,7.52E-03
24856,7.82E-03,7.63E-03
24857,7.83E-03,7.75E-03
24858,7.83E-03,7.86E-03
24859,7.83E-03,7.98E-03
24860,7.83E-03,8.11E-03
24861,7.83E-03,8.23E-03
24862,7.83E-03,8.36E-03
24863,7.83E-03,8.49E-03
24864,7.82E-03,8.62E-03
24865,7.80E-03,8.76E-03
24866,7.77E-03,8.89E-03
24867,7.74E-03,9.03E-03
24868,7.71E-03,9.17E-03
24869,7.68E-03,9.31E-03
24870,7.64E-03,9.45E-03
24871,7.61E-03,9.59E-03
24872,7.58E-03,9.73E-03
24873,7.55E-03,9.87E-03
24874,7.52E-03,1.00E-02
24875,7.47E-03,1.02E-02
24876,7.40E-03,1.03E-02
24877,7.32E-03,1.04E-02
24878,7.24E-03,1.06E-02
24879,7.16E-03,1.07E-02
24880,7.08E-03,1.09E-02
24881,7.00E-03,1.10E-02
24882,6.92E-03,1.12E-02
24883,6.84E-03,1.13E-02
24884,6.78E-03,1.14E-02
24885,6.72E-03,1.16E-02
24886,6.67E-03,1.17E-02
24887,6.62E-03,1.18E-02
24888,6.56E-03,1.20E-02
24889,6.51E-03,1.21E-02
24890,6.44E-03,1.23E-02
24891,6.36E-03,1.24E-02
24892,6.28E-03,1.25E-02
24893,6.20E-03,1.27E-02
24894,6.13E-03,1.28E-02
24895,5.93E-03,1.29E-02
24896,5.85E-03,1.30E-02
24897,5.73E-03,1.32E-02
24898,5.63E-03,1.33E-02
24899,5.58E-03,1.34E-02
24900,5.47E-03,1.35E-02
24901,5.30E-03,1.36E-02
24902,5.17E-03,1.37E-02
24903,5.20E-03,1.38E-02
24904,5.23E-03,1.40E-02
24905,5.42E-03,1.41E-02
24906,5.03E-03,1.42E-02
24907,3.94E-03,1.43E-02
24908,4.86E-03,1.44E-02
24909,8.01E-03,1.44E-02
24910,6.15E-03,1.45E-02
24911,8.52E-03,1.07E-02
24912,6.73E-03,5.80E-03
24913,7.82E-03,1.25E-02
24914,6.84E-03,6.94E-03
24915,7.39E-03,1.60E-02
24916,8.12E-03,2.35E-02
24917,9.45E-03,2.35E-02
24918,7.95E-03,1.94E-02
24919,5.41E-03,1.94E-02
24920,3.60E-03,1.95E-02
24921,4.07E-03,1.96E-02
24922,5.68E-03,7.78E-03
24923,7.05E-03,5.58E-03
24924,7.50E-03,5.58E-03
24925,8.10E-03,1.50E-02
24926,8.10E-03,1.54E-02
24927,7.73E-03,5.59E-03
24928,7.18E-03,2.27E-02
24929,6.68E-03,2.22E-02
24930,8.10E-03,1.50E-02
24931,8.03E-03,1.55E-02
24932,7.91E-03,1.63E-02
24933,9.65E-03,2.31E-02
24934,8.10E-03,1.50E-02
24935,7.83E-03,1.55E-02
24936,7.94E-03,1.63E-02
24937,8.10E-03,1.10E-02
24938,8.10E-03,1.11E-02
24939,8.10E-03,1.14E-02
24940,8.10E-03,1.13E-02
24941,8.10E-03,1.16E-02
24942,8.10E-03,1.49E-02
24943,7.59E-03,1.56E-02
24944,8.10E-03,1.17E-02
24945,8.10E-03,1.49E-02
24946,7.42E-03,1.56E-02
24947,6.14E-03,5.65E-03
24948,6.54E-03,5.74E-03
24949,6.62E-03,5.74E-03
24950,8.10E-03,1.18E-02
24951,8.10E-03,1.49E-02
24952,8.10E-03,1.20E-02
24953,8.10E-03,1.48E-02
24954,8.10E-03,1.21E-02
24955,8.10E-03,1.48E-02
24956,8.10E-03,1.22E-02
24957,8.10E-03,1.24E-02
24958,8.10E-03,1.48E-02
24959,8.10E-03,1.47E-02
24960,8.10E-03,1.25E-02
24961,8.10E-03,1.47E-02
24962,8.10E-03,1.46E-02
24963,7.28E-03,1.63E-02
24964,7.43E-03,1.63E-02
24965,8.09E-03,1.64E-02
24966,8.10E-03,1.26E-02
24967,8.10E-03,1.28E-02
24968,7.76E-03,1.64E-02
24969,8.10E-03,1.45E-02
24970,7.56E-03,1.63E-02
24971,8.10E-03,1.29E-02
24972,8.10E-03,1.45E-02
24973,8.10E-03,1.30E-02
24974,8.10E-03,1.31E-02
24975,8.10E-03,1.44E-02
24976,8.10E-03,1.43E-02
24977,8.10E-03,1.32E-02
24978,8.10E-03,1.33E-02
24979,8.10E-03,1.42E-02
24980,8.10E-03,1.35E-02
24981,8.10E-03,1.36E-02
24982,8.10E-03,1.41E-02
24983,8.10E-03,1.41E-02
24984,8.10E-03,1.37E-02
24985,8.10E-03,1.38E-02
24986,8.10E-03,1.40E-02
24987,8.10E-03,1.39E-02
24988,8.92E-03,1.17E-02
24989,5.10E-03,5.66E-03
24990,7.18E-03,5.67E-03
24991,8.34E-03,1.16E-02
24992,8.11E-03,1.84E-02
24993,8.10E-03,1.50E-02
24994,8.10E-03,1.50E-02
24995,7.12E-03,1.38E-02
24996,6.98E-03,1.40E-02
24997,7.19E-03,1.34E-02
24998,8.72E-03,1.31E-02
24999,7.26E-03,1.38E-02
25000,7.26E-03,1.35E-02
25001,9.48E-03,2.31E-02
25002,8.20E-03,2.31E-02
25003,8.23E-03,2.12E-02
25004,8.12E-03,2.10E-02
25005,8.86E-03,1.62E-02
25006,7.39E-03,1.58E-02
25007,7.67E-03,1.58E-02
25008,6.49E-03,1.99E-02
25009,7.13E-03,2.00E-02
25010,5.28E-03,5.69E-03
25011,7.58E-03,5.60E-03
25012,9.68E-03,5.55E-03
25013,1.00E-02,5.47E-03
25014,1.13E-02,5.43E-03
25015,6.22E-03,8.25E-03
25016,6.08E-03,8.18E-03
25017,6.64E-03,5.69E-03
25018,8.04E-03,2.25E-02
25019,8.17E-03,2.25E-02
25020,7.99E-03,2.25E-02
25021,8.10E-03,1.51E-02
25022,8.10E-03,1.50E-02
25023,8.10E-03,1.52E-02
25024,8.10E-03,1.51E-02
25025,8.10E-03,1.51E-02
25026,8.10E-03,1.51E-02
25027,8.39E-03,1.77E-02
25028,6.57E-03,1.73E-02
25029,6.16E-03,1.75E-02
25030,7.62E-03,1.70E-02
25031,7.30E-03,1.72E-02
25032,7.97E-03,1.65E-02
25033,7.86E-03,1.68E-02
25034,8.30E-03,1.60E-02
25035,8.14E-03,1.63E-02
25036,8.52E-03,1.55E-02
25037,8.41E-03,1.58E-02
25038,8.59E-03,1.50E-02
25039,8.68E-03,1.53E-02
25040,7.19E-03,1.36E-02
25041,7.74E-03,1.56E-02
25042,9.47E-03,1.52E-02
25043,7.52E-03,1.54E-02
25044,8.09E-03,1.48E-02
25045,8.12E-03,1.50E-02
25046,8.09E-03,1.44E-02
25047,8.09E-03,1.46E-02
25048,8.09E-03,1.39E-02
25049,8.09E-03,1.42E-02
25050,8.09E-03,1.35E-02
25051,8.09E-03,1.37E-02
25052,8.15E-03,1.30E-02
25053,8.09E-03,1.32E-02
25054,8.25E-03,1.25E-02
25055,8.19E-03,1.28E-02
25056,1.03E-02,1.20E-02
25057,8.24E-03,1.23E-02
25058,8.90E-03,1.14E-02
25059,9.88E-03,1.05E-02
25060,1.03E-02,1.07E-02
25061,9.21E-03,1.11E-02
25062,9.52E-03,1.44E-02
25063,8.66E-03,1.44E-02
25064,9.10E-03,1.44E-02
25065,8.82E-03,1.44E-02
25066,1.01E-02,1.43E-02
25067,9.53E-03,1.43E-02
25068,9.70E-03,1.43E-02
25069,9.81E-03,1.43E-02
25070,9.28E-03,1.43E-02
25071,9.65E-03,1.43E-02
25072,9.23E-03,1.42E-02
25073,9.23E-03,1.42E-02
25074,9.14E-03,1.42E-02
25075,9.22E-03,1.42E-02
25076,8.69E-03,1.42E-02
25077,8.93E-03,1.42E-02
25078,8.41E-03,1.43E-02
25079,8.53E-03,1.42E-02
25080,8.26E-03,1.43E-02
25081,8.31E-03,1.43E-02
25082,8.24E-03,1.43E-02
25083,8.25E-03,1.43E-02
25084,8.22E-03,1.43E-02
25085,8.24E-03,1.43E-02
25086,8.15E-03,1.43E-02
25087,8.18E-03,1.43E-02
25088,8.05E-03,1.43E-02
25089,8.09E-03,1.43E-02
25090,7.97E-03,1.43E-02
25091,8.01E-03,1.43E-02
25092,7.91E-03,1.43E-02
25093,7.94E-03,1.43E-02
25094,7.99E-03,1.43E-02
25095,7.94E-03,1.43E-02
25096,8.11E-03,1.43E-02
25097,8.05E-03,1.43E-02
25098,8.22E-03,1.43E-02
25099,8.17E-03,1.43E-02
25100,8.34E-03,1.43E-02
25101,8.28E-03,1.43E-02
25102,8.59E-03,1.43E-02
25103,8.45E-03,1.43E-02
25104,8.83E-03,1.43E-02
25105,8.73E-03,1.43E-02
25106,8.95E-03,1.43E-02
25107,8.90E-03,1.43E-02
25108,9.07E-03,1.43E-02
25109,9.01E-03,1.43E-02
25110,9.23E-03,1.44E-02
25111,9.14E-03,1.44E-02
25112,9.40E-03,1.44E-02
25113,9.31E-03,1.44E-02
25114,9.69E-03,1.44E-02
25115,9.52E-03,1.44E-02
25116,1.01E-02,1.44E-02
25117,9.88E-03,1.44E-02
25118,1.02E-02,1.45E-02
25119,1.02E-02,1.44E-02
25120,1.01E-02,1.45E-02
25121,1.02E-02,1.45E-02
25122,9.95E-03,1.45E-02
25123,1.00E-02,1.45E-02
25124,9.81E-03,1.46E-02
25125,9.89E-03,1.46E-02
25126,9.76E-03,1.46E-02
25127,9.75E-03,1.46E-02
25128,9.56E-03,1.47E-02
25129,9.77E-03,1.46E-02
25130,8.63E-03,1.47E-02
25131,9.13E-03,1.47E-02
25132,7.81E-03,1.48E-02
25133,8.14E-03,1.47E-02
25134,7.92E-03,1.48E-02
25135,7.82E-03,1.48E-02
25136,7.62E-03,1.48E-02
25137,7.83E-03,1.48E-02
25138,7.23E-03,1.48E-02
25139,7.41E-03,1.48E-02
25140,6.84E-03,1.49E-02
25141,7.05E-03,1.48E-02
25142,6.25E-03,1.49E-02
25143,6.56E-03,1.49E-02
25144,5.82E-03,1.49E-02
25145,5.99E-03,1.49E-02
25146,5.58E-03,1.49E-02
25147,5.70E-03,1.49E-02
25148,5.43E-03,1.49E-02
25149,5.49E-03,1.49E-02
25150,5.29E-03,1.49E-02
25151,5.37E-03,1.49E-02
25152,5.01E-03,1.49E-02
25153,5.16E-03,1.49E-02
25154,4.90E-03,1.48E-02
25155,4.90E-03,1.49E-02
25156,5.04E-03,1.48E-02
25157,4.96E-03,1.48E-02
25158,5.21E-03,1.48E-02
25159,5.12E-03,1.48E-02
25160,5.38E-03,1.48E-02
25161,5.29E-03,1.48E-02
25162,5.55E-03,1.47E-02
25163,5.47E-03,1.48E-02
25164,5.65E-03,1.47E-02
25165,5.61E-03,1.47E-02
25166,5.71E-03,1.47E-02
25167,5.68E-03,1.47E-02
25168,5.78E-03,1.46E-02
25169,5.74E-03,1.46E-02
25170,5.75E-03,1.46E-02
25171,5.78E-03,1.46E-02
25172,5.61E-03,1.45E-02
25173,5.68E-03,1.45E-02
25174,5.45E-03,1.45E-02
25175,5.53E-03,1.45E-02
25176,5.24E-03,1.44E-02
25177,5.35E-03,1.44E-02
25178,4.84E-03,1.43E-02
25179,5.07E-03,1.44E-02
25180,4.41E-03,1.43E-02
25181,4.62E-03,1.43E-02
25182,4.15E-03,1.43E-02
25183,4.22E-03,1.43E-02
25184,4.36E-03,1.42E-02
25185,4.25E-03,1.42E-02
25186,4.17E-03,1.42E-02
25187,4.23E-03,1.42E-02
25188,8.28E-03,1.41E-02
25189,5.59E-03,1.41E-02
25190,1.10E-02,1.40E-02
25191,8.23E-03,1.40E-02
25192,9.33E-03,1.39E-02
25193,9.81E-03,1.37E-02
25194,9.88E-03,1.37E-02
25195,6.86E-03,2.12E-02
25196,7.11E-03,2.10E-02
25197,6.62E-03,2.17E-02
25198,4.66E-03,9.33E-03
25199,4.15E-03,1.88E-02
25200,9.46E-03,1.35E-02
25201,9.50E-03,1.36E-02
25202,9.73E-03,1.34E-02
25203,9.57E-03,1.35E-02
25204,8.29E-03,9.72E-03
25205,8.14E-03,9.84E-03
25206,6.30E-03,9.50E-03
25207,6.79E-03,9.60E-03
25208,4.14E-03,9.23E-03
25209,5.51E-03,9.37E-03
25210,9.46E-03,1.15E-02
25211,9.50E-03,1.16E-02
25212,9.32E-03,1.13E-02
25213,9.40E-03,1.14E-02
25214,1.09E-02,1.12E-02
25215,1.16E-02,1.13E-02
25216,8.72E-03,1.10E-02
25217,9.69E-03,1.11E-02
25218,7.98E-03,1.08E-02
25219,8.27E-03,1.09E-02
25220,7.36E-03,1.07E-02
25221,7.68E-03,1.08E-02
25222,6.55E-03,1.06E-02
25223,6.97E-03,1.06E-02
25224,6.03E-03,1.05E-02
25225,6.24E-03,1.05E-02
25226,5.62E-03,1.04E-02
25227,5.83E-03,1.04E-02
25228,5.19E-03,1.03E-02
25229,5.42E-03,1.03E-02
25230,4.56E-03,1.02E-02
25231,4.89E-03,1.02E-02
25232,3.91E-03,1.01E-02
25233,4.24E-03,1.01E-02
25234,3.61E-03,1.01E-02
25235,3.68E-03,1.01E-02
25236,3.59E-03,1.00E-02
25237,3.60E-03,1.00E-02
25238,3.57E-03,9.94E-03
25239,3.58E-03,9.97E-03
25240,3.51E-03,9.89E-03
25241,3.55E-03,9.92E-03
25242,3.40E-03,9.85E-03
25243,3.46E-03,9.87E-03
25244,3.29E-03,9.80E-03
25245,3.34E-03,9.82E-03
25246,3.21E-03,9.77E-03
25247,3.23E-03,9.79E-03
25248,3.32E-03,9.73E-03
25249,3.26E-03,9.75E-03
25250,3.50E-03,9.70E-03
25251,3.39E-03,9.72E-03
25252,3.78E-03,9.67E-03
25253,3.64E-03,9.68E-03
25254,4.16E-03,9.64E-03
25255,3.94E-03,9.65E-03
25256,4.72E-03,9.61E-03
25257,4.44E-03,9.62E-03
25258,5.17E-03,9.58E-03
25259,4.98E-03,9.59E-03
25260,5.44E-03,9.55E-03
25261,5.31E-03,9.56E-03
25262,5.70E-03,9.52E-03
25263,5.57E-03,9.53E-03
25264,5.93E-03,9.49E-03
25265,5.81E-03,9.50E-03
25266,6.16E-03,9.47E-03
25267,6.04E-03,9.48E-03
25268,6.39E-03,9.45E-03
25269,6.27E-03,9.46E-03
25270,6.56E-03,9.43E-03
25271,6.49E-03,9.44E-03
25272,6.67E-03,9.41E-03
25273,6.62E-03,9.42E-03
25274,6.78E-03,9.39E-03
25275,6.73E-03,9.40E-03
25276,6.89E-03,9.37E-03
25277,6.83E-03,9.38E-03
25278,7.01E-03,9.36E-03
25279,6.94E-03,9.36E-03
25280,7.22E-03,9.34E-03
25281,7.11E-03,9.35E-03
25282,7.42E-03,9.33E-03
25283,7.33E-03,9.34E-03
25284,7.54E-03,9.31E-03
25285,7.48E-03,9.32E-03
25286,7.52E-03,9.30E-03
25287,7.59E-03,9.31E-03
25288,7.24E-03,9.29E-03
25289,7.35E-03,9.29E-03
25290,7.02E-03,9.27E-03
25291,7.14E-03,9.28E-03
25292,6.56E-03,9.23E-03
25293,6.67E-03,9.26E-03
25294,5.73E-03,9.19E-03
25295,6.22E-03,9.21E-03
25296,2.04E-03,9.11E-03
25297,4.19E-03,9.17E-03
25298,2.67E-03,1.50E-02
25299,6.55E-03,1.48E-02
25300,6.81E-03,1.45E-02
25301,7.70E-03,1.42E-02
25302,8.86E-03,1.18E-02
25303,8.67E-03,1.19E-02
25304,6.66E-03,7.24E-03
25305,6.86E-03,7.67E-03
25306,6.77E-03,7.56E-03
25307,6.70E-03,7.46E-03
25308,6.92E-03,7.35E-03
25309,8.33E-03,1.62E-02
25310,7.85E-03,1.63E-02
25311,8.28E-03,1.63E-02
25312,7.48E-03,2.15E-02
25313,8.22E-03,2.14E-02
25314,7.47E-03,6.65E-03
25315,6.51E-03,6.71E-03
25316,7.22E-03,7.87E-03
25317,7.66E-03,7.92E-03
25318,7.84E-03,7.99E-03
25319,6.77E-03,8.06E-03
25320,6.21E-03,8.13E-03
25321,4.87E-03,8.19E-03
25322,3.19E-03,8.24E-03
25323,3.04E-03,8.27E-03
25324,3.26E-03,8.32E-03
25325,3.32E-03,8.36E-03
25326,3.27E-03,8.40E-03
25327,3.57E-03,8.44E-03
25328,3.48E-03,8.46E-03
25329,3.07E-03,8.59E-03
25330,5.71E-03,8.65E-03
25331,6.77E-03,8.92E-03
25332,6.88E-03,9.08E-03
25333,9.37E-03,9.34E-03
25334,7.66E-03,9.21E-03
25335,8.27E-03,1.24E-02
25336,5.82E-03,1.27E-02
25337,6.40E-03,1.26E-02
25338,7.58E-03,1.25E-02
25339,8.07E-03,1.25E-02
25340,5.26E-03,1.97E-02
25341,6.34E-03,2.20E-02
25342,5.36E-03,2.21E-02
25343,3.36E-03,1.53E-02
25344,3.11E-03,1.51E-02
25345,3.75E-03,1.57E-02
25346,3.56E-03,1.55E-02
25347,4.17E-03,1.61E-02
25348,3.92E-03,1.59E-02
25349,4.43E-03,1.65E-02
25350,4.31E-03,1.63E-02
25351,4.68E-03,1.67E-02
25352,8.38E-03,1.02E-02
25353,5.17E-03,9.86E-03
25354,3.59E-03,9.98E-03
25355,8.10E-03,9.37E-03
25356,8.59E-03,9.64E-03
25357,8.09E-03,8.85E-03
25358,8.09E-03,9.11E-03
25359,8.09E-03,8.35E-03
25360,8.09E-03,8.60E-03
25361,8.09E-03,7.86E-03
25362,8.09E-03,8.10E-03
25363,8.09E-03,7.39E-03
25364,8.09E-03,7.62E-03
25365,8.09E-03,6.94E-03
25366,8.09E-03,7.16E-03
25367,8.09E-03,6.52E-03
25368,8.09E-03,6.72E-03
25369,8.09E-03,6.12E-03
25370,8.09E-03,6.32E-03
25371,8.09E-03,5.77E-03
25372,8.09E-03,5.94E-03
25373,8.09E-03,5.46E-03
25374,8.09E-03,5.61E-03
25375,8.09E-03,5.20E-03
25376,8.09E-03,5.32E-03
25377,8.09E-03,4.99E-03
25378,8.09E-03,5.09E-03
25379,8.09E-03,4.85E-03
25380,8.09E-03,4.91E-03
25381,8.09E-03,4.77E-03
25382,8.09E-03,4.80E-03
25383,8.03E-03,4.76E-03
25384,8.09E-03,4.76E-03
25385,7.95E-03,4.82E-03
25386,8.01E-03,4.78E-03
25387,8.02E-03,4.92E-03
25388,8.01E-03,4.86E-03
25389,7.43E-03,5.01E-03
25390,7.76E-03,4.96E-03
25391,6.92E-03,5.09E-03
25392,8.11E-03,5.44E-03
25393,7.48E-03,5.40E-03
25394,7.55E-03,5.37E-03
25395,4.90E-03,1.93E-02
25396,7.80E-03,2.08E-02
25397,7.62E-03,2.08E-02
25398,7.32E-03,9.84E-03
25399,7.99E-03,1.63E-02
25400,8.52E-03,5.55E-03
25401,8.64E-03,1.46E-02
25402,5.38E-03,1.46E-02
25403,5.91E-03,1.46E-02
25404,9.11E-03,1.17E-02
25405,9.03E-03,1.14E-02
25406,8.72E-03,1.11E-02
25407,8.67E-03,1.09E-02
25408,6.95E-03,2.38E-02
25409,7.09E-03,2.37E-02
25410,6.95E-03,2.05E-02
25411,5.91E-03,2.31E-02
25412,6.61E-03,1.28E-02
25413,8.37E-03,1.22E-02
25414,6.83E-03,2.19E-02
25415,9.68E-03,2.31E-02
25416,8.72E-03,2.32E-02
25417,8.60E-03,1.20E-02
25418,7.49E-03,1.08E-02
25419,8.01E-03,1.05E-02
25420,7.36E-03,1.61E-02
25421,5.76E-03,7.93E-03
25422,6.14E-03,7.98E-03
25423,8.12E-03,1.63E-02
25424,8.09E-03,1.07E-02
25425,8.09E-03,1.06E-02
25426,8.09E-03,1.04E-02
25427,8.09E-03,1.03E-02
25428,8.09E-03,1.02E-02
25429,8.09E-03,1.00E-02
25430,8.09E-03,9.89E-03
25431,8.09E-03,9.75E-03
25432,8.09E-03,9.60E-03
25433,8.09E-03,9.46E-03
25434,8.09E-03,9.31E-03
25435,8.09E-03,9.16E-03
25436,8.09E-03,9.02E-03
25437,8.09E-03,8.87E-03
25438,8.09E-03,8.72E-03
25439,8.09E-03,8.56E-03
25440,8.09E-03,8.41E-03
25441,8.09E-03,8.26E-03
25442,8.09E-03,8.11E-03
25443,8.09E-03,7.96E-03
25444,8.09E-03,7.81E-03
25445,8.09E-03,7.65E-03
25446,8.09E-03,7.50E-03
25447,8.09E-03,7.35E-03
25448,8.09E-03,7.21E-03
25449,8.09E-03,7.06E-03
25450,8.09E-03,6.91E-03
25451,8.09E-03,6.77E-03
25452,8.09E-03,6.63E-03
25453,8.09E-03,6.50E-03
25454,8.09E-03,6.36E-03
25455,8.09E-03,6.23E-03
25456,8.09E-03,6.11E-03
25457,8.09E-03,5.99E-03
25458,8.09E-03,5.88E-03
25459,8.09E-03,5.77E-03
25460,8.09E-03,5.67E-03
25461,8.09E-03,5.59E-03
25462,8.09E-03,5.51E-03
25463,8.09E-03,5.44E-03
25464,8.09E-03,5.38E-03
25465,8.09E-03,5.33E-03
25466,8.01E-03,5.29E-03
25467,8.02E-03,5.27E-03
25468,7.85E-03,5.26E-03
25469,7.64E-03,5.25E-03
25470,7.31E-03,5.25E-03
25471,6.92E-03,5.28E-03
25472,7.30E-03,5.32E-03
25473,6.71E-03,5.40E-03
25474,6.71E-03,2.29E-02
25475,6.77E-03,2.30E-02
25476,6.23E-03,2.31E-02
25477,8.14E-03,1.22E-02
25478,8.28E-03,5.67E-03
25479,8.22E-03,1.27E-02
25480,6.75E-03,1.58E-02
25481,6.42E-03,1.57E-02
25482,6.84E-03,1.57E-02
25483,7.91E-03,1.86E-02
25484,7.96E-03,2.27E-02
25485,7.57E-03,2.28E-02
25486,8.10E-03,1.50E-02
25487,8.10E-03,1.52E-02
25488,7.70E-03,1.89E-02
25489,8.57E-03,1.29E-02
25490,7.74E-03,1.57E-02
25491,8.56E-03,1.17E-02
25492,7.35E-03,1.32E-02
25493,6.08E-03,7.20E-03
25494,8.40E-03,2.32E-02
25495,7.43E-03,2.34E-02
25496,7.61E-03,1.62E-02
25497,8.18E-03,2.09E-02
25498,7.49E-03,2.18E-02
25499,7.98E-03,1.23E-02
25500,1.00E-02,1.30E-02
25501,9.02E-03,1.29E-02
25502,8.44E-03,1.28E-02
25503,9.28E-03,1.31E-02
25504,9.87E-03,1.31E-02
25505,7.67E-03,1.62E-02
25506,8.03E-03,1.59E-02
25507,5.67E-03,2.31E-02
25508,6.91E-03,2.03E-02
25509,6.69E-03,2.28E-02
25510,8.08E-03,1.61E-02
25511,5.90E-03,1.61E-02
25512,7.53E-03,1.60E-02
25513,7.54E-03,2.28E-02
25514,7.66E-03,2.30E-02
25515,8.10E-03,1.50E-02
25516,8.10E-03,1.53E-02
25517,7.64E-03,1.57E-02
25518,7.44E-03,1.62E-02
25519,1.01E-02,6.54E-03
25520,1.06E-02,6.46E-03
25521,9.42E-03,6.25E-03
25522,9.05E-03,6.07E-03
25523,7.28E-03,6.05E-03
25524,8.03E-03,1.63E-02
25525,6.99E-03,1.60E-02
25526,8.09E-03,1.59E-02
25527,7.24E-03,5.46E-03
25528,8.08E-03,1.26E-02
25529,8.27E-03,1.22E-02
25530,6.10E-03,1.24E-02
25531,8.66E-03,5.55E-03
25532,8.61E-03,5.53E-03
25533,8.45E-03,5.52E-03
25534,3.93E-03,5.54E-03
25535,4.65E-03,5.58E-03
25536,4.87E-03,5.61E-03
25537,5.09E-03,5.64E-03
25538,5.89E-03,5.66E-03
25539,5.86E-03,5.67E-03
25540,5.94E-03,5.70E-03
25541,6.30E-03,5.72E-03
25542,6.45E-03,5.75E-03
25543,6.63E-03,5.78E-03
25544,6.80E-03,5.81E-03
25545,6.94E-03,5.84E-03
25546,7.10E-03,5.88E-03
25547,7.15E-03,5.92E-03
25548,7.20E-03,5.96E-03
25549,7.24E-03,6.01E-03
25550,7.28E-03,6.06E-03
25551,7.33E-03,6.11E-03
25552,7.37E-03,6.17E-03
25553,7.41E-03,6.23E-03
25554,7.46E-03,6.29E-03
25555,7.50E-03,6.36E-03
25556,7.53E-03,6.43E-03
25557,7.56E-03,6.51E-03
25558,7.59E-03,6.59E-03
25559,7.62E-03,6.67E-03
25560,7.65E-03,6.75E-03
25561,7.68E-03,6.84E-03
25562,7.70E-03,6.93E-03
25563,7.73E-03,7.03E-03
25564,7.75E-03,7.13E-03
25565,7.77E-03,7.23E-03
25566,7.79E-03,7.34E-03
25567,7.81E-03,7.44E-03
25568,7.83E-03,7.56E-03
25569,7.84E-03,7.67E-03
25570,7.84E-03,7.79E-03
25571,7.84E-03,7.91E-03
25572,7.84E-03,8.03E-03
25573,7.84E-03,8.16E-03
25574,7.83E-03,8.29E-03
25575,7.83E-03,8.42E-03
25576,7.83E-03,8.55E-03
25577,7.81E-03,8.69E-03
25578,7.78E-03,8.82E-03
25579,7.74E-03,8.96E-03
25580,7.71E-03,9.10E-03
25581,7.68E-03,9.24E-03
25582,7.65E-03,9.38E-03
25583,7.62E-03,9.52E-03
25584,7.59E-03,9.67E-03
25585,7.56E-03,9.81E-03
25586,7.53E-03,9.95E-03
25587,7.48E-03,1.01E-02
25588,7.41E-03,1.02E-02
25589,7.34E-03,1.04E-02
25590,7.26E-03,1.05E-02
25591,7.18E-03,1.07E-02
25592,7.10E-03,1.08E-02
25593,7.02E-03,1.10E-02
25594,6.94E-03,1.11E-02
25595,6.87E-03,1.12E-02
25596,6.80E-03,1.14E-02
25597,6.75E-03,1.15E-02
25598,6.70E-03,1.17E-02
25599,6.65E-03,1.18E-02
25600,6.59E-03,1.19E-02
25601,6.54E-03,1.21E-02
25602,6.47E-03,1.22E-02
25603,6.40E-03,1.23E-02
25604,6.32E-03,1.25E-02
25605,6.24E-03,1.26E-02
25606,6.12E-03,1.27E-02
25607,6.00E-03,1.29E-02
25608,5.92E-03,1.30E-02
25609,5.79E-03,1.31E-02
25610,5.64E-03,1.33E-02
25611,5.50E-03,1.34E-02
25612,5.34E-03,1.35E-02
25613,5.32E-03,1.36E-02
25614,5.26E-03,1.37E-02
25615,5.22E-03,1.38E-02
25616,5.24E-03,1.39E-02
25617,5.27E-03,1.40E-02
25618,4.95E-03,1.42E-02
25619,5.17E-03,1.43E-02
25620,5.91E-03,1.44E-02
25621,6.48E-03,1.45E-02
25622,6.48E-03,2.26E-02
25623,8.38E-03,1.04E-02
25624,6.51E-03,5.79E-03
25625,7.47E-03,1.28E-02
25626,6.57E-03,7.06E-03
25627,7.29E-03,2.37E-02
25628,5.35E-03,7.01E-03
25629,7.33E-03,1.59E-02
25630,7.38E-03,1.60E-02
25631,7.48E-03,1.58E-02
25632,8.48E-03,1.06E-02
25633,6.95E-03,5.92E-03
25634,9.14E-03,2.39E-02
25635,7.40E-03,7.88E-03
25636,6.66E-03,2.16E-02
25637,6.62E-03,1.47E-02
25638,5.21E-03,1.48E-02
25639,6.26E-03,2.31E-02
25640,8.10E-03,1.50E-02
25641,8.10E-03,1.54E-02
25642,7.65E-03,5.67E-03
25643,8.72E-03,5.60E-03
25644,6.31E-03,2.25E-02
25645,6.41E-03,2.21E-02
25646,7.95E-03,1.25E-02
25647,7.88E-03,1.61E-02
25648,6.74E-03,1.61E-02
25649,7.85E-03,5.55E-03
25650,8.10E-03,1.50E-02
25651,8.10E-03,1.54E-02
25652,5.16E-03,2.28E-02
25653,7.76E-03,1.63E-02
25654,8.47E-03,2.36E-02
25655,6.72E-03,2.31E-02
25656,8.10E-03,1.50E-02
25657,7.92E-03,1.55E-02
25658,7.87E-03,1.63E-02
25659,7.93E-03,1.63E-02
25660,8.10E-03,1.09E-02
25661,8.10E-03,1.10E-02
25662,8.10E-03,1.13E-02
25663,8.10E-03,1.11E-02
25664,8.10E-03,1.14E-02
25665,8.10E-03,1.50E-02
25666,7.75E-03,1.55E-02
25667,8.10E-03,1.16E-02
25668,8.10E-03,1.49E-02
25669,7.50E-03,1.56E-02
25670,6.54E-03,5.71E-03
25671,7.34E-03,5.81E-03
25672,8.10E-03,1.17E-02
25673,8.10E-03,1.49E-02
25674,7.33E-03,1.56E-02
25675,8.10E-03,1.18E-02
25676,8.10E-03,1.49E-02
25677,8.10E-03,1.20E-02
25678,8.10E-03,1.48E-02
25679,8.10E-03,1.21E-02
25680,8.10E-03,1.23E-02
25681,8.10E-03,1.48E-02
25682,8.10E-03,1.47E-02
25683,8.10E-03,1.24E-02
25684,8.10E-03,1.47E-02
25685,8.10E-03,1.46E-02
25686,7.21E-03,1.62E-02
25687,7.64E-03,1.62E-02
25688,8.10E-03,1.63E-02
25689,8.10E-03,1.25E-02
25690,8.10E-03,1.26E-02
25691,8.09E-03,1.63E-02
25692,8.10E-03,1.46E-02
25693,7.56E-03,1.62E-02
25694,7.81E-03,1.63E-02
25695,8.10E-03,1.28E-02
25696,8.10E-03,1.45E-02
25697,8.10E-03,1.29E-02
25698,8.10E-03,1.30E-02
25699,8.10E-03,1.44E-02
25700,8.10E-03,1.43E-02
25701,8.10E-03,1.31E-02
25702,8.10E-03,1.33E-02
25703,8.10E-03,1.43E-02
25704,8.10E-03,1.34E-02
25705,8.10E-03,1.35E-02
25706,8.10E-03,1.42E-02
25707,8.10E-03,1.41E-02
25708,8.10E-03,1.36E-02
25709,8.10E-03,1.37E-02
25710,8.10E-03,1.40E-02
25711,8.10E-03,1.38E-02
25712,8.10E-03,1.39E-02
25713,7.78E-03,1.03E-02
25714,7.17E-03,1.01E-02
25715,8.15E-03,2.07E-02
25716,8.24E-03,2.08E-02
25717,7.34E-03,2.04E-02
25718,8.16E-03,2.05E-02
25719,6.86E-03,2.00E-02
25720,7.09E-03,2.02E-02
25721,6.38E-03,1.97E-02
25722,6.62E-03,1.99E-02
25723,5.91E-03,1.94E-02
25724,6.15E-03,1.96E-02
25725,4.06E-03,1.92E-02
25726,5.38E-03,1.93E-02
25727,4.75E-03,1.88E-02
25728,3.92E-03,1.90E-02
25729,4.24E-03,1.85E-02
25730,4.41E-03,1.87E-02
25731,3.95E-03,1.81E-02
25732,4.03E-03,1.83E-02
25733,4.19E-03,1.78E-02
25734,3.98E-03,1.79E-02
25735,4.99E-03,1.73E-02
25736,4.44E-03,1.75E-02
25737,6.12E-03,8.01E-03
25738,7.87E-03,8.12E-03
25739,7.29E-03,8.13E-03
25740,7.42E-03,1.92E-02
25741,7.02E-03,1.92E-02
25742,8.30E-03,2.09E-02
25743,8.42E-03,2.10E-02
25744,7.92E-03,1.60E-02
25745,7.97E-03,1.63E-02
25746,7.41E-03,5.39E-03
25747,7.35E-03,2.07E-02
25748,6.88E-03,2.32E-02
25749,5.40E-03,1.14E-02
25750,8.86E-03,1.19E-02
25751,8.23E-03,1.23E-02
25752,8.61E-03,5.64E-03
25753,7.51E-03,1.48E-02
25754,6.29E-03,1.48E-02
25755,6.70E-03,1.27E-02
25756,8.15E-03,1.20E-02
25757,8.69E-03,1.16E-02
25758,7.39E-03,1.16E-02
25759,6.93E-03,1.15E-02
25760,6.42E-03,1.57E-02
25761,7.34E-03,8.00E-03
25762,8.01E-03,8.04E-03
25763,8.11E-03,8.11E-03
25764,6.80E-03,8.18E-03
25765,6.24E-03,8.25E-03
25766,4.93E-03,8.31E-03
25767,3.34E-03,8.36E-03
25768,3.01E-03,8.38E-03
25769,3.44E-03,8.42E-03
25770,3.48E-03,8.47E-03
25771,3.36E-03,8.51E-03
25772,3.40E-03,8.55E-03
25773,3.43E-03,8.61E-03
25774,3.75E-03,8.59E-03
25775,7.27E-03,8.77E-03
25776,6.82E-03,8.94E-03
25777,8.06E-03,1.84E-02
25778,8.18E-03,1.83E-02
25779,8.11E-03,1.80E-02
25780,7.93E-03,2.27E-02
25781,7.86E-03,2.28E-02
25782,8.10E-03,1.50E-02
25783,8.10E-03,1.52E-02
25784,7.79E-03,1.87E-02
25785,7.54E-03,1.78E-02
25786,6.73E-03,1.41E-02
25787,8.00E-03,1.32E-02
25788,7.71E-03,1.55E-02
25789,8.74E-03,1.08E-02
25790,8.80E-03,1.11E-02
25791,9.09E-03,1.13E-02
25792,9.26E-03,1.16E-02
25793,1.04E-02,1.08E-02
25794,8.66E-03,1.14E-02
25795,8.59E-03,1.46E-02
25796,9.60E-03,1.33E-02
25797,7.18E-03,1.35E-02
25798,7.91E-03,1.17E-02
25799,7.77E-03,7.77E-03
25800,7.86E-03,7.68E-03
25801,7.72E-03,7.54E-03
25802,7.32E-03,7.31E-03
25803,8.63E-03,2.34E-02
25804,8.66E-03,2.34E-02
25805,8.81E-03,2.34E-02
25806,8.61E-03,2.34E-02
25807,8.11E-03,1.62E-02
25808,8.88E-03,1.62E-02
25809,8.24E-03,2.11E-02
25810,7.69E-03,2.16E-02
25811,7.59E-03,6.65E-03
25812,5.37E-03,6.86E-03
25813,6.99E-03,9.12E-03
25814,8.41E-03,1.26E-02
25815,7.88E-03,1.25E-02
25816,8.07E-03,1.25E-02
25817,7.96E-03,1.23E-02
25818,8.50E-03,1.29E-02
25819,7.76E-03,1.28E-02
25820,9.53E-03,1.30E-02
25821,7.99E-03,1.61E-02
25822,7.84E-03,1.58E-02
25823,7.08E-03,1.58E-02
25824,6.09E-03,2.32E-02
25825,7.01E-03,2.02E-02
25826,6.93E-03,2.30E-02
25827,7.13E-03,2.31E-02
25828,8.43E-03,1.60E-02
25829,7.84E-03,1.60E-02
25830,7.63E-03,2.29E-02
25831,7.68E-03,2.30E-02
25832,8.10E-03,1.50E-02
25833,8.10E-03,1.53E-02
25834,7.59E-03,1.90E-02
25835,7.65E-03,1.29E-02
25836,7.70E-03,1.56E-02
25837,8.19E-03,1.17E-02
25838,8.33E-03,1.51E-02
25839,6.15E-03,1.27E-02
25840,7.58E-03,1.61E-02
25841,9.00E-03,6.38E-03
25842,8.77E-03,6.20E-03
25843,7.82E-03,6.18E-03
25844,8.07E-03,1.63E-02
25845,8.35E-03,1.60E-02
25846,4.65E-03,1.59E-02
25847,8.17E-03,1.59E-02
25848,7.11E-03,5.47E-03
25849,7.49E-03,1.09E-02
25850,7.67E-03,5.77E-03
25851,8.66E-03,5.56E-03
25852,8.66E-03,5.55E-03
25853,4.02E-03,5.56E-03
25854,4.64E-03,5.60E-03
25855,5.04E-03,5.63E-03
25856,5.07E-03,5.65E-03
25857,5.95E-03,5.67E-03
25858,5.92E-03,5.68E-03
25859,6.00E-03,5.70E-03
25860,6.26E-03,5.72E-03
25861,6.50E-03,5.74E-03
25862,6.68E-03,5.77E-03
25863,6.86E-03,5.80E-03
25864,7.03E-03,5.83E-03
25865,7.12E-03,5.86E-03
25866,7.17E-03,5.90E-03
25867,7.21E-03,5.94E-03
25868,7.26E-03,5.98E-03
25869,7.30E-03,6.03E-03
25870,7.34E-03,6.08E-03
25871,7.38E-03,6.13E-03
25872,7.43E-03,6.19E-03
25873,7.47E-03,6.25E-03
25874,7.51E-03,6.32E-03
25875,7.54E-03,6.38E-03
25876,7.57E-03,6.46E-03
25877,7.60E-03,6.53E-03
25878,7.63E-03,6.61E-03
25879,7.66E-03,6.69E-03
25880,7.69E-03,6.78E-03
25881,7.71E-03,6.87E-03
25882,7.73E-03,6.96E-03
25883,7.75E-03,7.06E-03
25884,7.78E-03,7.16E-03
25885,7.80E-03,7.27E-03
25886,7.82E-03,7.38E-03
25887,7.84E-03,7.49E-03
25888,7.84E-03,7.60E-03
25889,7.84E-03,7.72E-03
25890,7.84E-03,7.84E-03
25891,7.84E-03,7.96E-03
25892,7.84E-03,8.09E-03
25893,7.84E-03,8.22E-03
25894,7.84E-03,8.35E-03
25895,7.83E-03,8.48E-03
25896,7.81E-03,8.62E-03
25897,7.78E-03,8.75E-03
25898,7.75E-03,8.89E-03
25899,7.72E-03,9.03E-03
25900,7.69E-03,9.17E-03
25901,7.66E-03,9.31E-03
25902,7.63E-03,9.46E-03
25903,7.60E-03,9.60E-03
25904,7.57E-03,9.75E-03
25905,7.54E-03,9.89E-03
25906,7.49E-03,1.00E-02
25907,7.43E-03,1.02E-02
25908,7.35E-03,1.03E-02
25909,7.27E-03,1.05E-02
25910,7.20E-03,1.06E-02
25911,7.12E-03,1.08E-02
25912,7.04E-03,1.09E-02
25913,6.96E-03,1.10E-02
25914,6.89E-03,1.12E-02
25915,6.83E-03,1.13E-02
25916,6.78E-03,1.15E-02
25917,6.72E-03,1.16E-02
25918,6.67E-03,1.18E-02
25919,6.62E-03,1.19E-02
25920,6.57E-03,1.20E-02
25921,6.50E-03,1.22E-02
25922,6.43E-03,1.23E-02
25923,6.35E-03,1.24E-02
25924,6.28E-03,1.26E-02
25925,6.11E-03,1.27E-02
25926,6.08E-03,1.28E-02
25927,5.96E-03,1.30E-02
25928,5.83E-03,1.31E-02
25929,5.69E-03,1.32E-02
25930,5.56E-03,1.33E-02
25931,5.38E-03,1.35E-02
25932,5.39E-03,1.36E-02
25933,5.28E-03,1.37E-02
25934,5.27E-03,1.38E-02
25935,5.26E-03,1.39E-02
25936,5.20E-03,1.40E-02
25937,5.41E-03,1.41E-02
25938,5.76E-03,1.42E-02
25939,6.20E-03,1.44E-02
25940,7.34E-03,1.45E-02
25941,8.33E-03,1.01E-02
25942,7.12E-03,5.77E-03
25943,8.07E-03,5.69E-03
25944,8.67E-03,5.65E-03
25945,1.04E-02,5.61E-03
25946,1.03E-02,5.56E-03
25947,9.87E-03,5.55E-03
25948,9.22E-03,5.52E-03
25949,8.86E-03,5.49E-03
25950,8.66E-03,5.47E-03
25951,7.04E-03,9.72E-03
25952,7.29E-03,1.31E-02
25953,7.84E-03,1.21E-02
25954,6.99E-03,1.22E-02
25955,6.76E-03,7.22E-03
25956,8.07E-03,2.32E-02
25957,8.05E-03,2.35E-02
25958,7.42E-03,2.37E-02
25959,8.24E-03,2.09E-02
25960,5.21E-03,6.95E-03
25961,7.09E-03,1.58E-02
25962,7.18E-03,1.59E-02
25963,7.44E-03,1.59E-02
25964,7.47E-03,1.57E-02
25965,9.49E-03,1.32E-02
25966,8.13E-03,1.31E-02
25967,9.19E-03,1.30E-02
25968,8.35E-03,1.03E-02
25969,7.05E-03,5.90E-03
25970,7.44E-03,6.04E-03
25971,8.28E-03,6.58E-03
25972,7.24E-03,2.43E-02
25973,8.13E-03,1.59E-02
25974,4.96E-03,1.26E-02
25975,6.11E-03,1.28E-02
25976,6.65E-03,2.15E-02
25977,7.09E-03,1.48E-02
25978,5.10E-03,1.49E-02
25979,7.04E-03,8.22E-03
25980,7.21E-03,1.47E-02
25981,6.75E-03,2.31E-02
25982,8.10E-03,1.50E-02
25983,8.10E-03,1.53E-02
25984,7.63E-03,1.56E-02
25985,8.45E-03,5.66E-03
25986,8.66E-03,5.59E-03
25987,6.26E-03,2.24E-02
25988,6.47E-03,2.20E-02
25989,7.37E-03,1.28E-02
25990,6.73E-03,7.11E-03
25991,7.40E-03,2.40E-02
25992,7.36E-03,2.40E-02
25993,6.81E-03,1.61E-02
25994,4.82E-03,1.60E-02
25995,7.64E-03,5.55E-03
25996,8.00E-03,5.62E-03
25997,4.06E-03,2.32E-02
25998,4.44E-03,2.32E-02
25999,4.26E-03,2.34E-02
26000,5.71E-03,2.32E-02
26001,8.10E-03,1.50E-02
26002,8.10E-03,1.54E-02
26003,5.85E-03,2.28E-02
26004,7.99E-03,1.25E-02
26005,6.52E-03,1.60E-02
26006,7.58E-03,1.62E-02
26007,8.30E-03,2.35E-02
26008,4.85E-03,2.33E-02
26009,8.08E-03,2.39E-02
26010,8.10E-03,1.50E-02
26011,8.04E-03,1.54E-02
26012,6.61E-03,5.76E-03
26013,6.89E-03,5.77E-03
26014,7.65E-03,5.75E-03
26015,7.70E-03,9.51E-03
26016,6.87E-03,2.28E-02
26017,7.87E-03,1.62E-02
26018,7.93E-03,1.62E-02
26019,7.96E-03,1.62E-02
26020,7.13E-03,2.05E-02
26021,8.09E-03,1.07E-02
26022,8.09E-03,1.06E-02
26023,8.09E-03,1.05E-02
26024,8.09E-03,1.03E-02
26025,8.09E-03,1.02E-02
26026,8.09E-03,1.00E-02
26027,8.09E-03,9.90E-03
26028,8.09E-03,9.76E-03
26029,8.09E-03,9.62E-03
26030,8.09E-03,9.47E-03
26031,8.09E-03,9.32E-03
26032,8.09E-03,9.18E-03
26033,8.09E-03,9.03E-03
26034,8.09E-03,8.88E-03
26035,8.09E-03,8.73E-03
26036,8.09E-03,8.58E-03
26037,8.09E-03,8.42E-03
26038,8.09E-03,8.27E-03
26039,8.09E-03,8.12E-03
26040,8.09E-03,7.97E-03
26041,8.09E-03,7.81E-03
26042,8.09E-03,7.66E-03
26043,8.09E-03,7.51E-03
26044,8.09E-03,7.36E-03
26045,8.09E-03,7.21E-03
26046,8.09E-03,7.06E-03
26047,8.09E-03,6.92E-03
26048,8.09E-03,6.78E-03
26049,8.09E-03,6.63E-03
26050,8.09E-03,6.50E-03
26051,8.09E-03,6.36E-03
26052,8.09E-03,6.23E-03
26053,8.09E-03,6.11E-03
26054,8.09E-03,5.99E-03
26055,8.09E-03,5.88E-03
26056,8.09E-03,5.77E-03
26057,8.09E-03,5.67E-03
26058,8.09E-03,5.58E-03
26059,8.09E-03,5.50E-03
26060,8.09E-03,5.42E-03
26061,8.09E-03,5.36E-03
26062,8.09E-03,5.31E-03
26063,8.04E-03,5.27E-03
26064,7.95E-03,5.25E-03
26065,7.85E-03,5.23E-03
26066,7.72E-03,5.23E-03
26067,7.59E-03,5.23E-03
26068,7.68E-03,5.26E-03
26069,8.05E-03,5.30E-03
26070,8.22E-03,5.37E-03
26071,8.10E-03,1.09E-02
26072,8.10E-03,1.12E-02
26073,8.10E-03,1.10E-02
26074,8.10E-03,1.13E-02
26075,8.44E-03,1.05E-02
26076,8.10E-03,1.50E-02
26077,7.88E-03,1.55E-02
26078,8.10E-03,1.15E-02
26079,8.10E-03,1.50E-02
26080,7.70E-03,1.55E-02
26081,8.10E-03,1.16E-02
26082,8.10E-03,1.49E-02
26083,7.49E-03,1.56E-02
26084,8.10E-03,1.17E-02
26085,8.10E-03,1.49E-02
26086,7.15E-03,1.56E-02
26087,8.10E-03,1.19E-02
26088,8.10E-03,1.49E-02
26089,8.10E-03,1.20E-02
26090,8.10E-03,1.21E-02
26091,8.10E-03,1.48E-02
26092,8.10E-03,1.48E-02
26093,8.10E-03,1.23E-02
26094,8.10E-03,1.47E-02
26095,8.10E-03,1.46E-02
26096,7.44E-03,1.61E-02
26097,7.72E-03,1.61E-02
26098,8.04E-03,1.62E-02
26099,8.10E-03,1.24E-02
26100,8.10E-03,1.25E-02
26101,8.10E-03,1.62E-02
26102,8.10E-03,1.46E-02
26103,7.72E-03,1.62E-02
26104,8.04E-03,1.62E-02
26105,7.79E-03,1.62E-02
26106,8.10E-03,1.27E-02
26107,8.10E-03,1.45E-02
26108,8.10E-03,1.28E-02
26109,8.10E-03,1.29E-02
26110,8.10E-03,1.44E-02
26111,8.10E-03,1.44E-02
26112,8.10E-03,1.31E-02
26113,8.10E-03,1.32E-02
26114,8.10E-03,1.43E-02
26115,8.10E-03,1.33E-02
26116,8.10E-03,1.34E-02
26117,8.10E-03,1.42E-02
26118,8.10E-03,1.41E-02
26119,8.10E-03,1.35E-02
26120,8.10E-03,1.36E-02
26121,8.10E-03,1.40E-02
26122,8.10E-03,1.37E-02
26123,8.10E-03,1.38E-02
26124,8.10E-03,1.39E-02
26125,6.08E-03,1.48E-02
26126,6.47E-03,1.45E-02
26127,7.92E-03,2.27E-02
26128,8.10E-03,1.51E-02
26129,8.10E-03,1.51E-02
26130,8.10E-03,1.51E-02
26131,8.10E-03,1.52E-02
26132,8.10E-03,1.52E-02
26133,8.10E-03,1.51E-02
26134,7.71E-03,1.85E-02
26135,7.51E-03,1.82E-02
26136,7.55E-03,1.84E-02
26137,7.47E-03,1.76E-02
26138,7.42E-03,1.74E-02
26139,7.57E-03,1.72E-02
26140,7.80E-03,1.70E-02
26141,7.92E-03,1.68E-02
26142,8.03E-03,1.66E-02
26143,8.05E-03,1.63E-02
26144,8.21E-03,1.61E-02
26145,8.30E-03,1.58E-02
26146,8.21E-03,1.56E-02
26147,8.00E-03,1.53E-02
26148,7.07E-03,1.39E-02
26149,7.30E-03,1.34E-02
26150,7.17E-03,1.36E-02
26151,7.50E-03,1.53E-02
26152,9.22E-03,1.51E-02
26153,8.19E-03,1.49E-02
26154,8.17E-03,1.47E-02
26155,8.09E-03,1.45E-02
26156,8.09E-03,1.43E-02
26157,8.09E-03,1.41E-02
26158,8.09E-03,1.38E-02
26159,8.09E-03,1.36E-02
26160,8.09E-03,1.34E-02
26161,8.09E-03,1.32E-02
26162,8.18E-03,1.29E-02
26163,8.21E-03,1.27E-02
26164,8.34E-03,1.25E-02
26165,8.45E-03,1.22E-02
26166,9.44E-03,1.19E-02
26167,8.94E-03,1.11E-02
26168,8.59E-03,1.38E-02
26169,8.62E-03,1.45E-02
26170,8.94E-03,1.45E-02
26171,9.39E-03,1.45E-02
26172,9.87E-03,1.45E-02
26173,9.84E-03,1.45E-02
26174,9.67E-03,1.45E-02
26175,9.55E-03,1.44E-02
26176,9.31E-03,1.44E-02
26177,9.21E-03,1.44E-02
26178,9.21E-03,1.44E-02
26179,9.20E-03,1.44E-02
26180,9.12E-03,1.44E-02
26181,8.91E-03,1.44E-02
26182,8.68E-03,1.44E-02
26183,8.52E-03,1.44E-02
26184,8.41E-03,1.44E-02
26185,8.31E-03,1.44E-02
26186,8.26E-03,1.44E-02
26187,8.24E-03,1.44E-02
26188,8.24E-03,1.44E-02
26189,8.24E-03,1.44E-02
26190,8.22E-03,1.44E-02
26191,8.18E-03,1.44E-02
26192,8.14E-03,1.45E-02
26193,8.09E-03,1.45E-02
26194,8.05E-03,1.45E-02
26195,8.01E-03,1.45E-02
26196,7.97E-03,1.45E-02
26197,7.94E-03,1.45E-02
26198,7.92E-03,1.45E-02
26199,7.94E-03,1.45E-02
26200,8.00E-03,1.45E-02
26201,8.05E-03,1.45E-02
26202,8.11E-03,1.45E-02
26203,8.17E-03,1.45E-02
26204,8.22E-03,1.45E-02
26205,8.28E-03,1.45E-02
26206,8.34E-03,1.45E-02
26207,8.44E-03,1.45E-02
26208,8.58E-03,1.45E-02
26209,8.72E-03,1.45E-02
26210,8.82E-03,1.45E-02
26211,8.88E-03,1.45E-02
26212,8.94E-03,1.45E-02
26213,8.99E-03,1.45E-02
26214,9.05E-03,1.45E-02
26215,9.12E-03,1.45E-02
26216,9.20E-03,1.45E-02
26217,9.29E-03,1.45E-02
26218,9.37E-03,1.45E-02
26219,9.49E-03,1.45E-02
26220,9.66E-03,1.45E-02
26221,9.85E-03,1.45E-02
26222,1.00E-02,1.45E-02
26223,1.01E-02,1.45E-02
26224,1.02E-02,1.45E-02
26225,1.01E-02,1.46E-02
26226,1.00E-02,1.46E-02
26227,9.97E-03,1.46E-02
26228,9.91E-03,1.46E-02
26229,9.85E-03,1.46E-02
26230,9.77E-03,1.46E-02
26231,9.71E-03,1.47E-02
26232,9.72E-03,1.47E-02
26233,9.74E-03,1.47E-02
26234,9.53E-03,1.47E-02
26235,9.10E-03,1.47E-02
26236,8.62E-03,1.48E-02
26237,8.14E-03,1.48E-02
26238,7.82E-03,1.48E-02
26239,7.82E-03,1.48E-02
26240,7.92E-03,1.48E-02
26241,7.84E-03,1.49E-02
26242,7.63E-03,1.49E-02
26243,7.43E-03,1.49E-02
26244,7.25E-03,1.49E-02
26245,7.08E-03,1.49E-02
26246,6.87E-03,1.49E-02
26247,6.60E-03,1.49E-02
26248,6.29E-03,1.49E-02
26249,6.03E-03,1.49E-02
26250,5.87E-03,1.49E-02
26251,5.75E-03,1.49E-02
26252,5.63E-03,1.49E-02
26253,5.54E-03,1.49E-02
26254,5.48E-03,1.49E-02
26255,5.43E-03,1.49E-02
26256,5.34E-03,1.49E-02
26257,5.22E-03,1.49E-02
26258,5.07E-03,1.49E-02
26259,4.96E-03,1.49E-02
26260,4.96E-03,1.49E-02
26261,5.03E-03,1.49E-02
26262,5.10E-03,1.49E-02
26263,5.18E-03,1.48E-02
26264,5.27E-03,1.48E-02
26265,5.35E-03,1.48E-02
26266,5.44E-03,1.48E-02
26267,5.52E-03,1.48E-02
26268,5.60E-03,1.48E-02
26269,5.67E-03,1.47E-02
26270,5.70E-03,1.47E-02
26271,5.73E-03,1.47E-02
26272,5.76E-03,1.47E-02
26273,5.79E-03,1.46E-02
26274,5.83E-03,1.46E-02
26275,5.83E-03,1.46E-02
26276,5.80E-03,1.46E-02
26277,5.73E-03,1.45E-02
26278,5.66E-03,1.45E-02
26279,5.59E-03,1.45E-02
26280,5.50E-03,1.44E-02
26281,5.41E-03,1.44E-02
26282,5.30E-03,1.44E-02
26283,5.13E-03,1.44E-02
26284,4.91E-03,1.43E-02
26285,4.69E-03,1.43E-02
26286,4.49E-03,1.43E-02
26287,4.30E-03,1.42E-02
26288,4.23E-03,1.42E-02
26289,4.33E-03,1.42E-02
26290,4.44E-03,1.42E-02
26291,4.31E-03,1.41E-02
26292,4.25E-03,1.41E-02
26293,5.64E-03,1.41E-02
26294,8.30E-03,1.41E-02
26295,8.22E-03,1.40E-02
26296,1.11E-02,1.39E-02
26297,8.86E-03,1.39E-02
26298,9.71E-03,1.37E-02
26299,9.48E-03,1.36E-02
26300,9.47E-03,1.35E-02
26301,9.53E-03,1.35E-02
26302,9.50E-03,1.34E-02
26303,9.72E-03,1.00E-02
26304,8.39E-03,9.83E-03
26305,8.22E-03,9.66E-03
26306,8.15E-03,9.51E-03
26307,6.42E-03,9.40E-03
26308,5.79E-03,9.31E-03
26309,5.20E-03,9.22E-03
26310,4.88E-03,9.13E-03
26311,3.85E-03,9.03E-03
26312,4.29E-03,8.90E-03
26313,1.06E-02,1.15E-02
26314,9.70E-03,1.14E-02
26315,9.42E-03,1.14E-02
26316,9.40E-03,1.13E-02
26317,9.37E-03,1.12E-02
26318,1.16E-02,1.11E-02
26319,1.08E-02,1.10E-02
26320,9.66E-03,1.09E-02
26321,8.71E-03,1.09E-02
26322,8.27E-03,1.08E-02
26323,7.98E-03,1.07E-02
26324,7.69E-03,1.06E-02
26325,7.37E-03,1.06E-02
26326,6.99E-03,1.05E-02
26327,6.58E-03,1.04E-02
26328,6.28E-03,1.04E-02
26329,6.07E-03,1.03E-02
26330,5.87E-03,1.03E-02
26331,5.67E-03,1.02E-02
26332,5.48E-03,1.02E-02
26333,5.25E-03,1.01E-02
26334,4.96E-03,1.01E-02
26335,4.64E-03,1.00E-02
26336,4.32E-03,1.00E-02
26337,3.99E-03,9.96E-03
26338,3.77E-03,9.93E-03
26339,3.70E-03,9.90E-03
26340,3.70E-03,9.87E-03
26341,3.68E-03,9.84E-03
26342,3.67E-03,9.81E-03
26343,3.66E-03,9.78E-03
26344,3.64E-03,9.75E-03
26345,3.61E-03,9.73E-03
26346,3.55E-03,9.70E-03
26347,3.50E-03,9.68E-03
26348,3.44E-03,9.66E-03
26349,3.39E-03,9.64E-03
26350,3.33E-03,9.62E-03
26351,3.31E-03,9.60E-03
26352,3.36E-03,9.58E-03
26353,3.42E-03,9.56E-03
26354,3.49E-03,9.54E-03
26355,3.59E-03,9.53E-03
26356,3.73E-03,9.51E-03
26357,3.87E-03,9.49E-03
26358,4.02E-03,9.48E-03
26359,4.24E-03,9.46E-03
26360,4.52E-03,9.44E-03
26361,4.79E-03,9.43E-03
26362,5.05E-03,9.41E-03
26363,5.23E-03,9.39E-03
26364,5.36E-03,9.38E-03
26365,5.49E-03,9.36E-03
26366,5.62E-03,9.35E-03
26367,5.74E-03,9.33E-03
26368,5.86E-03,9.32E-03
26369,5.97E-03,9.31E-03
26370,6.08E-03,9.29E-03
26371,6.20E-03,9.28E-03
26372,6.31E-03,9.27E-03
26373,6.42E-03,9.25E-03
26374,6.52E-03,9.24E-03
26375,6.59E-03,9.23E-03
26376,6.65E-03,9.22E-03
26377,6.70E-03,9.21E-03
26378,6.75E-03,9.20E-03
26379,6.81E-03,9.19E-03
26380,6.86E-03,9.18E-03
26381,6.91E-03,9.17E-03
26382,6.97E-03,9.16E-03
26383,7.04E-03,9.15E-03
26384,7.13E-03,9.14E-03
26385,7.24E-03,9.14E-03
26386,7.34E-03,9.13E-03
26387,7.43E-03,9.12E-03
26388,7.50E-03,9.11E-03
26389,7.55E-03,9.10E-03
26390,7.60E-03,9.09E-03
26391,7.55E-03,9.08E-03
26392,7.31E-03,9.07E-03
26393,7.22E-03,9.06E-03
26394,7.15E-03,9.05E-03
26395,6.89E-03,9.04E-03
26396,6.65E-03,9.02E-03
26397,6.44E-03,9.00E-03
26398,6.25E-03,8.98E-03
26399,5.96E-03,8.96E-03
26400,6.15E-03,8.93E-03
26401,7.02E-03,1.38E-02
26402,7.22E-03,1.41E-02
26403,8.51E-03,1.20E-02
26404,8.56E-03,1.19E-02
26405,8.37E-03,1.18E-02
26406,7.79E-03,7.41E-03
26407,8.66E-03,2.34E-02
26408,8.51E-03,1.62E-02
26409,8.47E-03,2.13E-02
26410,8.66E-03,2.15E-02
26411,7.23E-03,6.74E-03
26412,6.48E-03,6.82E-03
26413,7.28E-03,9.27E-03
26414,7.92E-03,9.42E-03
26415,7.74E-03,2.40E-02
26416,8.15E-03,1.24E-02
26417,6.37E-03,1.28E-02
26418,8.44E-03,1.29E-02
26419,6.00E-03,1.26E-02
26420,9.60E-03,1.24E-02
26421,8.53E-03,1.25E-02
26422,6.31E-03,1.60E-02
26423,7.78E-03,1.58E-02
26424,6.83E-03,2.34E-02
26425,5.33E-03,1.14E-02
26426,5.57E-03,1.14E-02
26427,6.78E-03,1.14E-02
26428,8.07E-03,1.14E-02
26429,6.78E-03,2.00E-02
26430,5.37E-03,1.93E-02
26431,3.30E-03,1.95E-02
26432,3.80E-03,1.97E-02
26433,6.58E-03,1.98E-02
26434,8.33E-03,1.59E-02
26435,8.97E-03,1.59E-02
26436,9.87E-03,1.57E-02
26437,8.41E-03,1.06E-02
26438,9.15E-03,1.02E-02
26439,7.67E-03,2.29E-02
26440,7.71E-03,2.30E-02
26441,8.10E-03,1.51E-02
26442,8.10E-03,1.52E-02
26443,7.67E-03,1.88E-02
26444,6.93E-03,1.41E-02
26445,7.48E-03,1.32E-02
26446,7.70E-03,1.54E-02
26447,9.18E-03,1.13E-02
26448,9.25E-03,1.16E-02
26449,8.69E-03,1.09E-02
26450,8.27E-03,1.15E-02
26451,8.21E-03,1.48E-02
26452,9.05E-03,1.33E-02
26453,9.31E-03,1.01E-02
26454,6.30E-03,1.27E-02
26455,6.09E-03,1.26E-02
26456,7.62E-03,1.59E-02
26457,7.44E-03,1.59E-02
26458,8.37E-03,6.34E-03
26459,8.01E-03,6.31E-03
26460,7.98E-03,1.62E-02
26461,6.89E-03,1.59E-02
26462,5.24E-03,1.59E-02
26463,8.95E-03,1.10E-02
26464,8.78E-03,1.07E-02
26465,7.47E-03,5.46E-03
26466,6.89E-03,1.13E-02
26467,6.16E-03,1.15E-02
26468,7.81E-03,1.17E-02
26469,8.27E-03,1.20E-02
26470,8.13E-03,1.23E-02
26471,7.71E-03,1.20E-02
26472,5.85E-03,2.23E-02
26473,6.69E-03,2.22E-02
26474,7.95E-03,5.76E-03
26475,3.18E-03,1.50E-02
26476,3.38E-03,1.52E-02
26477,3.51E-03,1.54E-02
26478,3.66E-03,1.55E-02
26479,3.78E-03,1.57E-02
26480,3.94E-03,1.59E-02
26481,4.24E-03,1.61E-02
26482,4.32E-03,1.63E-02
26483,4.36E-03,1.66E-02
26484,4.53E-03,1.68E-02
26485,4.53E-03,1.71E-02
26486,4.09E-03,1.72E-02
26487,3.68E-03,9.93E-03
26488,5.25E-03,9.80E-03
26489,8.57E-03,9.58E-03
26490,8.10E-03,9.31E-03
26491,8.09E-03,9.06E-03
26492,8.09E-03,8.80E-03
26493,8.09E-03,8.55E-03
26494,8.09E-03,8.30E-03
26495,8.09E-03,8.06E-03
26496,8.09E-03,7.81E-03
26497,8.09E-03,7.58E-03
26498,8.09E-03,7.34E-03
26499,8.09E-03,7.12E-03
26500,8.09E-03,6.89E-03
26501,8.09E-03,6.68E-03
26502,8.09E-03,6.47E-03
26503,8.09E-03,6.27E-03
26504,8.09E-03,6.07E-03
26505,8.09E-03,5.89E-03
26506,8.09E-03,5.72E-03
26507,8.09E-03,5.55E-03
26508,8.09E-03,5.40E-03
26509,8.09E-03,5.27E-03
26510,8.09E-03,5.14E-03
26511,8.09E-03,5.03E-03
26512,8.09E-03,4.93E-03
26513,8.09E-03,4.85E-03
26514,8.09E-03,4.79E-03
26515,8.09E-03,4.74E-03
26516,8.09E-03,4.71E-03
26517,8.09E-03,4.69E-03
26518,8.09E-03,4.69E-03
26519,8.09E-03,4.71E-03
26520,8.09E-03,4.74E-03
26521,8.00E-03,4.78E-03
26522,7.89E-03,4.83E-03
26523,7.73E-03,4.88E-03
26524,7.52E-03,4.95E-03
26525,7.29E-03,5.04E-03
26526,7.16E-03,5.14E-03
26527,7.30E-03,5.23E-03
26528,7.63E-03,5.33E-03
26529,8.42E-03,5.44E-03
26530,8.34E-03,8.08E-03
26531,8.41E-03,8.18E-03
26532,8.43E-03,8.24E-03
26533,6.82E-03,8.31E-03
26534,6.28E-03,8.37E-03
26535,4.99E-03,8.43E-03
26536,3.44E-03,8.47E-03
26537,3.11E-03,8.51E-03
26538,3.53E-03,8.54E-03
26539,3.57E-03,8.58E-03
26540,3.50E-03,8.62E-03
26541,3.52E-03,8.67E-03
26542,3.63E-03,8.68E-03
26543,4.51E-03,8.77E-03
26544,6.33E-03,8.85E-03
26545,6.54E-03,8.98E-03
26546,7.03E-03,1.34E-02
26547,7.17E-03,1.17E-02
26548,7.10E-03,7.35E-03
26549,9.79E-03,7.80E-03
26550,8.09E-03,7.61E-03
26551,6.83E-03,2.38E-02
26552,8.13E-03,2.37E-02
26553,8.32E-03,2.37E-02
26554,8.39E-03,2.37E-02
26555,8.37E-03,2.37E-02
26556,8.80E-03,1.61E-02
26557,8.46E-03,2.11E-02
26558,5.47E-03,6.93E-03
26559,6.73E-03,9.17E-03
26560,6.68E-03,9.94E-03
26561,6.52E-03,8.30E-03
26562,6.82E-03,1.57E-02
26563,7.38E-03,1.58E-02
26564,7.03E-03,1.56E-02
26565,9.59E-03,1.24E-02
26566,7.39E-03,1.23E-02
26567,9.56E-03,1.29E-02
26568,7.58E-03,1.30E-02
26569,9.86E-03,1.29E-02
26570,7.72E-03,1.58E-02
26571,8.23E-03,1.01E-02
26572,7.80E-03,5.87E-03
26573,8.41E-03,5.82E-03
26574,9.29E-03,5.78E-03
26575,9.75E-03,5.74E-03
26576,1.02E-02,5.70E-03
26577,1.01E-02,5.67E-03
26578,9.78E-03,5.64E-03
26579,9.54E-03,5.61E-03
26580,9.67E-03,5.59E-03
26581,1.00E-02,5.56E-03
26582,7.61E-03,6.02E-03
26583,8.18E-03,6.52E-03
26584,4.92E-03,1.26E-02
26585,5.25E-03,1.25E-02
26586,8.16E-03,1.58E-02
26587,9.50E-03,7.95E-03
26588,6.87E-03,7.96E-03
26589,6.24E-03,1.27E-02
26590,4.70E-03,1.29E-02
26591,6.80E-03,1.30E-02
26592,5.17E-03,1.46E-02
26593,5.50E-03,1.48E-02
26594,6.77E-03,2.14E-02
26595,8.48E-03,2.12E-02
26596,8.28E-03,2.11E-02
26597,8.23E-03,2.09E-02
26598,7.46E-03,2.07E-02
26599,7.23E-03,2.06E-02
26600,6.82E-03,2.04E-02
26601,6.49E-03,2.02E-02
26602,6.31E-03,2.01E-02
26603,6.07E-03,1.99E-02
26604,5.76E-03,1.98E-02
26605,5.45E-03,1.96E-02
26606,5.10E-03,1.94E-02
26607,4.73E-03,1.93E-02
26608,4.51E-03,1.91E-02
26609,4.35E-03,1.89E-02
26610,4.27E-03,1.88E-02
26611,4.11E-03,1.86E-02
26612,3.98E-03,1.84E-02
26613,4.09E-03,1.82E-02
26614,4.18E-03,1.80E-02
26615,4.32E-03,1.78E-02
26616,4.28E-03,1.76E-02
26617,4.15E-03,1.75E-02
26618,3.45E-03,1.74E-02
26619,6.25E-03,1.50E-02
26620,8.09E-03,8.25E-03
26621,6.90E-03,2.24E-02
26622,8.04E-03,5.93E-03
26623,8.38E-03,1.47E-02
26624,7.40E-03,2.31E-02
26625,8.19E-03,2.32E-02
26626,8.10E-03,1.51E-02
26627,8.10E-03,1.53E-02
26628,7.88E-03,1.91E-02
26629,7.59E-03,1.79E-02
26630,5.77E-03,1.82E-02
26631,7.19E-03,1.81E-02
26632,7.68E-03,1.55E-02
26633,9.67E-03,1.12E-02
26634,7.56E-03,1.48E-02
26635,8.58E-03,5.65E-03
26636,8.66E-03,5.60E-03
26637,8.85E-03,5.60E-03
26638,4.21E-03,5.60E-03
26639,4.86E-03,5.64E-03
26640,5.03E-03,5.67E-03
26641,5.09E-03,5.68E-03
26642,5.98E-03,5.70E-03
26643,5.96E-03,5.70E-03
26644,6.05E-03,5.72E-03
26645,6.23E-03,5.74E-03
26646,6.58E-03,5.76E-03
26647,6.66E-03,5.78E-03
26648,6.89E-03,5.80E-03
26649,7.05E-03,5.83E-03
26650,7.14E-03,5.86E-03
26651,7.19E-03,5.89E-03
26652,7.23E-03,5.92E-03
26653,7.27E-03,5.96E-03
26654,7.31E-03,6.01E-03
26655,7.36E-03,6.05E-03
26656,7.40E-03,6.10E-03
26657,7.44E-03,6.16E-03
26658,7.48E-03,6.22E-03
26659,7.52E-03,6.28E-03
26660,7.56E-03,6.34E-03
26661,7.58E-03,6.41E-03
26662,7.61E-03,6.48E-03
26663,7.64E-03,6.56E-03
26664,7.67E-03,6.64E-03
26665,7.70E-03,6.72E-03
26666,7.72E-03,6.81E-03
26667,7.74E-03,6.91E-03
26668,7.76E-03,7.00E-03
26669,7.78E-03,7.10E-03
26670,7.80E-03,7.20E-03
26671,7.82E-03,7.31E-03
26672,7.84E-03,7.42E-03
26673,7.85E-03,7.54E-03
26674,7.85E-03,7.65E-03
26675,7.85E-03,7.77E-03
26676,7.85E-03,7.90E-03
26677,7.85E-03,8.02E-03
26678,7.84E-03,8.15E-03
26679,7.84E-03,8.28E-03
26680,7.84E-03,8.41E-03
26681,7.82E-03,8.55E-03
26682,7.79E-03,8.69E-03
26683,7.76E-03,8.82E-03
26684,7.73E-03,8.96E-03
26685,7.70E-03,9.11E-03
26686,7.67E-03,9.25E-03
26687,7.64E-03,9.39E-03
26688,7.61E-03,9.54E-03
26689,7.58E-03,9.68E-03
26690,7.55E-03,9.83E-03
26691,7.51E-03,9.98E-03
26692,7.44E-03,1.01E-02
26693,7.37E-03,1.03E-02
26694,7.29E-03,1.04E-02
26695,7.21E-03,1.06E-02
26696,7.14E-03,1.07E-02
26697,7.06E-03,1.09E-02
26698,6.99E-03,1.10E-02
26699,6.91E-03,1.11E-02
26700,6.85E-03,1.13E-02
26701,6.80E-03,1.14E-02
26702,6.75E-03,1.16E-02
26703,6.70E-03,1.17E-02
26704,6.65E-03,1.18E-02
26705,6.60E-03,1.20E-02
26706,6.54E-03,1.21E-02
26707,6.46E-03,1.23E-02
26708,6.39E-03,1.24E-02
26709,6.31E-03,1.25E-02
26710,6.15E-03,1.27E-02
26711,6.12E-03,1.28E-02
26712,6.01E-03,1.29E-02
26713,5.88E-03,1.31E-02
26714,5.74E-03,1.32E-02
26715,5.62E-03,1.33E-02
26716,5.47E-03,1.34E-02
26717,5.40E-03,1.35E-02
26718,5.34E-03,1.37E-02
26719,5.33E-03,1.38E-02
26720,5.34E-03,1.39E-02
26721,5.39E-03,1.40E-02
26722,5.63E-03,1.41E-02
26723,5.80E-03,1.42E-02
26724,6.13E-03,1.44E-02
26725,6.89E-03,1.07E-02
26726,7.75E-03,1.18E-02
26727,6.27E-03,1.50E-02
26728,7.07E-03,1.50E-02
26729,7.58E-03,1.50E-02
26730,7.34E-03,1.31E-02
26731,8.55E-03,8.34E-03
26732,6.30E-03,2.23E-02
26733,6.50E-03,2.18E-02
26734,7.15E-03,1.31E-02
26735,5.93E-03,1.15E-02
26736,7.26E-03,7.19E-03
26737,7.41E-03,2.40E-02
26738,6.01E-03,1.60E-02
26739,8.11E-03,5.64E-03
26740,7.54E-03,5.73E-03
26741,8.27E-03,2.10E-02
26742,7.87E-03,6.16E-03
26743,7.60E-03,7.04E-03
26744,7.45E-03,1.55E-02
26745,5.85E-03,2.34E-02
26746,5.92E-03,2.36E-02
26747,5.92E-03,2.35E-02
26748,6.08E-03,6.77E-03
26749,6.85E-03,6.70E-03
26750,6.55E-03,2.33E-02
26751,8.10E-03,1.50E-02
26752,8.10E-03,1.54E-02
26753,6.51E-03,1.51E-02
26754,6.76E-03,1.22E-02
26755,7.19E-03,1.20E-02
26756,6.17E-03,2.27E-02
26757,7.19E-03,1.28E-02
26758,5.67E-03,1.13E-02
26759,6.41E-03,1.60E-02
26760,9.24E-03,1.61E-02
26761,8.62E-03,1.61E-02
26762,7.29E-03,5.55E-03
26763,6.88E-03,2.36E-02
26764,5.81E-03,2.32E-02
26765,7.96E-03,2.39E-02
26766,8.10E-03,1.50E-02
26767,8.10E-03,1.54E-02
26768,7.97E-03,5.73E-03
26769,7.56E-03,2.43E-02
26770,7.37E-03,2.44E-02
26771,8.03E-03,1.25E-02
26772,8.59E-03,1.08E-02
26773,7.60E-03,1.60E-02
26774,7.54E-03,2.43E-02
26775,7.25E-03,2.30E-02
26776,7.88E-03,1.61E-02
26777,7.98E-03,1.62E-02
26778,7.91E-03,1.62E-02
26779,7.95E-03,1.62E-02
26780,7.05E-03,2.03E-02
26781,7.48E-03,2.08E-02
26782,7.14E-03,2.06E-02
26783,7.05E-03,2.28E-02
26784,8.35E-03,5.44E-03
26785,8.09E-03,1.07E-02
26786,8.09E-03,1.06E-02
26787,8.09E-03,1.05E-02
26788,8.09E-03,1.03E-02
26789,8.09E-03,1.02E-02
26790,8.09E-03,1.01E-02
26791,8.09E-03,9.92E-03
26792,8.09E-03,9.77E-03
26793,8.09E-03,9.63E-03
26794,8.09E-03,9.48E-03
26795,8.09E-03,9.34E-03
26796,8.09E-03,9.19E-03
26797,8.09E-03,9.04E-03
26798,8.09E-03,8.89E-03
26799,8.09E-03,8.74E-03
26800,8.09E-03,8.59E-03
26801,8.09E-03,8.43E-03
26802,8.09E-03,8.28E-03
26803,8.09E-03,8.13E-03
26804,8.09E-03,7.98E-03
26805,8.09E-03,7.82E-03
26806,8.09E-03,7.67E-03
26807,8.09E-03,7.52E-03
26808,8.09E-03,7.37E-03
26809,8.09E-03,7.22E-03
26810,8.09E-03,7.07E-03
26811,8.09E-03,6.92E-03
26812,8.09E-03,6.78E-03
26813,8.09E-03,6.64E-03
26814,8.09E-03,6.50E-03
26815,8.09E-03,6.37E-03
26816,8.09E-03,6.23E-03
26817,8.09E-03,6.11E-03
26818,8.09E-03,5.99E-03
26819,8.09E-03,5.87E-03
26820,8.09E-03,5.76E-03
26821,8.09E-03,5.66E-03
26822,8.09E-03,5.57E-03
26823,8.09E-03,5.49E-03
26824,8.09E-03,5.41E-03
26825,8.09E-03,5.35E-03
26826,8.09E-03,5.29E-03
26827,8.09E-03,5.25E-03
26828,8.00E-03,5.22E-03
26829,7.95E-03,5.21E-03
26830,7.81E-03,5.20E-03
26831,7.85E-03,5.21E-03
26832,7.92E-03,5.23E-03
26833,8.19E-03,5.27E-03
26834,9.43E-03,5.34E-03
26835,8.10E-03,1.10E-02
26836,8.10E-03,1.09E-02
26837,8.10E-03,1.12E-02
26838,8.28E-03,1.03E-02
26839,8.36E-03,1.05E-02
26840,8.10E-03,1.50E-02
26841,7.98E-03,1.55E-02
26842,8.28E-03,1.59E-02
26843,8.15E-03,1.59E-02
26844,8.10E-03,1.13E-02
26845,8.10E-03,1.50E-02
26846,7.85E-03,1.55E-02
26847,5.80E-03,6.09E-03
26848,7.06E-03,5.83E-03
26849,6.95E-03,5.86E-03
26850,7.58E-03,5.84E-03
26851,8.10E-03,1.15E-02
26852,8.10E-03,1.50E-02
26853,7.64E-03,1.56E-02
26854,8.10E-03,1.16E-02
26855,8.10E-03,1.49E-02
26856,7.46E-03,1.56E-02
26857,8.10E-03,1.18E-02
26858,8.10E-03,1.49E-02
26859,6.85E-03,1.56E-02
26860,8.10E-03,1.19E-02
26861,8.10E-03,1.20E-02
26862,8.10E-03,1.48E-02
26863,8.10E-03,1.48E-02
26864,8.10E-03,1.22E-02
26865,8.10E-03,1.47E-02
26866,8.10E-03,1.47E-02
26867,7.67E-03,1.60E-02
26868,7.82E-03,1.60E-02
26869,7.98E-03,1.61E-02
26870,8.10E-03,1.23E-02
26871,8.10E-03,1.24E-02
26872,8.10E-03,1.61E-02
26873,8.10E-03,1.46E-02
26874,7.90E-03,1.61E-02
26875,8.10E-03,1.61E-02
26876,8.00E-03,1.61E-02
26877,8.10E-03,1.26E-02
26878,7.83E-03,1.61E-02
26879,8.10E-03,1.45E-02
26880,8.10E-03,1.27E-02
26881,8.10E-03,1.28E-02
26882,8.10E-03,1.45E-02
26883,8.10E-03,1.44E-02
26884,8.10E-03,1.30E-02
26885,8.10E-03,1.31E-02
26886,8.10E-03,1.43E-02
26887,8.10E-03,1.32E-02
26888,8.10E-03,1.33E-02
26889,8.10E-03,1.42E-02
26890,8.10E-03,1.41E-02
26891,8.10E-03,1.34E-02
26892,8.10E-03,1.35E-02
26893,8.10E-03,1.41E-02
26894,8.10E-03,1.37E-02
26895,8.10E-03,1.38E-02
26896,8.10E-03,1.40E-02
26897,8.10E-03,1.39E-02
26898,7.07E-03,1.27E-02
26899,7.85E-03,6.45E-03
26900,9.90E-03,1.23E-02
26901,7.48E-03,1.58E-02
26902,8.57E-03,1.57E-02
26903,7.73E-03,2.29E-02
26904,8.10E-03,1.51E-02
26905,8.10E-03,1.51E-02
26906,8.10E-03,1.51E-02
26907,8.10E-03,1.52E-02
26908,8.10E-03,1.52E-02
26909,8.10E-03,1.52E-02
26910,7.57E-03,1.86E-02
26911,7.27E-03,1.84E-02
26912,7.94E-03,1.77E-02
26913,8.24E-03,1.75E-02
26914,8.00E-03,1.73E-02
26915,8.03E-03,1.71E-02
26916,8.02E-03,1.68E-02
26917,8.06E-03,1.66E-02
26918,8.03E-03,1.63E-02
26919,8.10E-03,1.61E-02
26920,8.16E-03,1.58E-02
26921,8.08E-03,1.56E-02
26922,7.83E-03,1.53E-02
26923,7.11E-03,1.39E-02
26924,7.36E-03,1.34E-02
26925,7.24E-03,1.37E-02
26926,7.56E-03,1.52E-02
26927,8.72E-03,1.50E-02
26928,8.32E-03,1.48E-02
26929,8.22E-03,1.46E-02
26930,8.09E-03,1.44E-02
26931,8.09E-03,1.42E-02
26932,8.09E-03,1.40E-02
26933,8.09E-03,1.38E-02
26934,8.09E-03,1.35E-02
26935,8.09E-03,1.33E-02
26936,8.09E-03,1.31E-02
26937,8.19E-03,1.29E-02
26938,8.28E-03,1.26E-02
26939,8.39E-03,1.24E-02
26940,8.59E-03,1.21E-02
26941,9.05E-03,1.18E-02
26942,8.41E-03,1.12E-02
26943,8.27E-03,1.47E-02
26944,8.74E-03,1.47E-02
26945,9.55E-03,1.47E-02
26946,9.83E-03,1.47E-02
26947,9.74E-03,1.46E-02
26948,9.69E-03,1.46E-02
26949,9.39E-03,1.46E-02
26950,9.35E-03,1.46E-02
26951,9.18E-03,1.46E-02
26952,9.18E-03,1.46E-02
26953,9.18E-03,1.46E-02
26954,9.10E-03,1.46E-02
26955,8.90E-03,1.46E-02
26956,8.67E-03,1.46E-02
26957,8.51E-03,1.46E-02
26958,8.40E-03,1.46E-02
26959,8.31E-03,1.46E-02
26960,8.25E-03,1.46E-02
26961,8.24E-03,1.46E-02
26962,8.24E-03,1.46E-02
26963,8.23E-03,1.46E-02
26964,8.22E-03,1.46E-02
26965,8.18E-03,1.46E-02
26966,8.14E-03,1.46E-02
26967,8.09E-03,1.46E-02
26968,8.05E-03,1.46E-02
26969,8.01E-03,1.46E-02
26970,7.98E-03,1.46E-02
26971,7.94E-03,1.46E-02
26972,7.92E-03,1.46E-02
26973,7.94E-03,1.46E-02
26974,8.00E-03,1.46E-02
26975,8.05E-03,1.46E-02
26976,8.11E-03,1.46E-02
26977,8.17E-03,1.46E-02
26978,8.22E-03,1.46E-02
26979,8.27E-03,1.46E-02
26980,8.33E-03,1.46E-02
26981,8.43E-03,1.46E-02
26982,8.57E-03,1.46E-02
26983,8.70E-03,1.46E-02
26984,8.80E-03,1.46E-02
26985,8.86E-03,1.46E-02
26986,8.92E-03,1.46E-02
26987,8.97E-03,1.46E-02
26988,9.03E-03,1.46E-02
26989,9.10E-03,1.46E-02
26990,9.18E-03,1.46E-02
26991,9.26E-03,1.46E-02
26992,9.35E-03,1.46E-02
26993,9.46E-03,1.46E-02
26994,9.63E-03,1.46E-02
26995,9.81E-03,1.46E-02
26996,9.98E-03,1.46E-02
26997,1.01E-02,1.46E-02
26998,1.01E-02,1.46E-02
26999,1.01E-02,1.46E-02
27000,1.00E-02,1.47E-02
27001,9.93E-03,1.47E-02
27002,9.87E-03,1.47E-02
27003,9.81E-03,1.47E-02
27004,9.74E-03,1.47E-02
27005,9.68E-03,1.47E-02
27006,9.69E-03,1.48E-02
27007,9.70E-03,1.48E-02
27008,9.50E-03,1.48E-02
27009,9.08E-03,1.48E-02
27010,8.61E-03,1.48E-02
27011,8.14E-03,1.48E-02
27012,7.82E-03,1.49E-02
27013,7.83E-03,1.49E-02
27014,7.93E-03,1.49E-02
27015,7.84E-03,1.49E-02
27016,7.64E-03,1.49E-02
27017,7.44E-03,1.49E-02
27018,7.27E-03,1.49E-02
27019,7.10E-03,1.49E-02
27020,6.89E-03,1.49E-02
27021,6.63E-03,1.49E-02
27022,6.33E-03,1.50E-02
27023,6.08E-03,1.50E-02
27024,5.91E-03,1.50E-02
27025,5.80E-03,1.50E-02
27026,5.68E-03,1.50E-02
27027,5.60E-03,1.50E-02
27028,5.54E-03,1.49E-02
27029,5.48E-03,1.49E-02
27030,5.40E-03,1.49E-02
27031,5.28E-03,1.49E-02
27032,5.14E-03,1.49E-02
27033,5.03E-03,1.49E-02
27034,5.03E-03,1.49E-02
27035,5.09E-03,1.49E-02
27036,5.16E-03,1.49E-02
27037,5.24E-03,1.49E-02
27038,5.33E-03,1.48E-02
27039,5.41E-03,1.48E-02
27040,5.49E-03,1.48E-02
27041,5.58E-03,1.48E-02
27042,5.66E-03,1.48E-02
27043,5.72E-03,1.47E-02
27044,5.75E-03,1.47E-02
27045,5.78E-03,1.47E-02
27046,5.81E-03,1.47E-02
27047,5.84E-03,1.46E-02
27048,5.88E-03,1.46E-02
27049,5.88E-03,1.46E-02
27050,5.84E-03,1.46E-02
27051,5.78E-03,1.45E-02
27052,5.71E-03,1.45E-02
27053,5.64E-03,1.45E-02
27054,5.55E-03,1.44E-02
27055,5.47E-03,1.44E-02
27056,5.36E-03,1.44E-02
27057,5.19E-03,1.43E-02
27058,4.98E-03,1.43E-02
27059,4.76E-03,1.43E-02
27060,4.56E-03,1.42E-02
27061,4.38E-03,1.42E-02
27062,4.31E-03,1.42E-02
27063,4.41E-03,1.42E-02
27064,4.51E-03,1.41E-02
27065,4.39E-03,1.41E-02
27066,4.33E-03,1.41E-02
27067,5.70E-03,1.41E-02
27068,8.39E-03,1.40E-02
27069,8.39E-03,1.39E-02
27070,1.05E-02,1.39E-02
27071,8.34E-03,1.38E-02
27072,9.20E-03,1.38E-02
27073,8.64E-03,1.37E-02
27074,8.43E-03,1.36E-02
27075,9.00E-03,1.35E-02
27076,9.29E-03,1.35E-02
27077,9.39E-03,1.34E-02
27078,9.48E-03,1.33E-02
27079,9.63E-03,9.85E-03
27080,8.87E-03,9.64E-03
27081,8.10E-03,9.47E-03
27082,8.00E-03,9.33E-03
27083,6.85E-03,9.21E-03
27084,5.53E-03,9.12E-03
27085,5.21E-03,9.04E-03
27086,4.77E-03,8.96E-03
27087,4.76E-03,8.88E-03
27088,5.25E-03,8.60E-03
27089,5.10E-03,8.73E-03
27090,1.12E-02,1.14E-02
27091,9.76E-03,1.13E-02
27092,9.45E-03,1.12E-02
27093,9.35E-03,1.12E-02
27094,9.33E-03,1.11E-02
27095,1.15E-02,1.10E-02
27096,1.08E-02,1.09E-02
27097,9.62E-03,1.08E-02
27098,8.69E-03,1.07E-02
27099,8.27E-03,1.06E-02
27100,7.95E-03,1.06E-02
27101,7.74E-03,1.05E-02
27102,7.39E-03,1.04E-02
27103,7.01E-03,1.04E-02
27104,6.61E-03,1.03E-02
27105,6.32E-03,1.02E-02
27106,6.11E-03,1.02E-02
27107,5.92E-03,1.01E-02
27108,5.72E-03,1.01E-02
27109,5.53E-03,1.00E-02
27110,5.31E-03,9.97E-03
27111,5.02E-03,9.93E-03
27112,4.71E-03,9.88E-03
27113,4.40E-03,9.84E-03
27114,4.08E-03,9.81E-03
27115,3.86E-03,9.77E-03
27116,3.80E-03,9.74E-03
27117,3.79E-03,9.71E-03
27118,3.78E-03,9.68E-03
27119,3.76E-03,9.65E-03
27120,3.75E-03,9.62E-03
27121,3.74E-03,9.59E-03
27122,3.70E-03,9.56E-03
27123,3.65E-03,9.54E-03
27124,3.60E-03,9.51E-03
27125,3.54E-03,9.49E-03
27126,3.49E-03,9.47E-03
27127,3.43E-03,9.45E-03
27128,3.41E-03,9.43E-03
27129,3.46E-03,9.41E-03
27130,3.52E-03,9.39E-03
27131,3.59E-03,9.37E-03
27132,3.69E-03,9.35E-03
27133,3.82E-03,9.34E-03
27134,3.96E-03,9.32E-03
27135,4.11E-03,9.30E-03
27136,4.32E-03,9.28E-03
27137,4.59E-03,9.27E-03
27138,4.86E-03,9.25E-03
27139,5.11E-03,9.23E-03
27140,5.29E-03,9.21E-03
27141,5.42E-03,9.20E-03
27142,5.55E-03,9.18E-03
27143,5.68E-03,9.17E-03
27144,5.79E-03,9.15E-03
27145,5.91E-03,9.13E-03
27146,6.02E-03,9.12E-03
27147,6.13E-03,9.11E-03
27148,6.24E-03,9.09E-03
27149,6.35E-03,9.08E-03
27150,6.46E-03,9.06E-03
27151,6.56E-03,9.05E-03
27152,6.63E-03,9.04E-03
27153,6.68E-03,9.03E-03
27154,6.73E-03,9.01E-03
27155,6.78E-03,9.00E-03
27156,6.83E-03,8.99E-03
27157,6.89E-03,8.98E-03
27158,6.94E-03,8.97E-03
27159,6.99E-03,8.96E-03
27160,7.06E-03,8.95E-03
27161,7.15E-03,8.94E-03
27162,7.26E-03,8.93E-03
27163,7.36E-03,8.92E-03
27164,7.45E-03,8.91E-03
27165,7.51E-03,8.90E-03
27166,7.56E-03,8.89E-03
27167,7.61E-03,8.87E-03
27168,7.56E-03,8.86E-03
27169,7.38E-03,8.85E-03
27170,7.23E-03,8.84E-03
27171,7.08E-03,8.82E-03
27172,6.80E-03,8.81E-03
27173,6.69E-03,8.79E-03
27174,6.44E-03,8.77E-03
27175,6.27E-03,8.75E-03
27176,6.20E-03,8.74E-03
27177,5.78E-03,8.70E-03
27178,6.76E-03,1.37E-02
27179,6.09E-03,1.40E-02
27180,5.50E-03,1.43E-02
27181,7.80E-03,1.19E-02
27182,7.87E-03,1.18E-02
27183,7.71E-03,1.18E-02
27184,8.04E-03,7.47E-03
27185,8.35E-03,2.37E-02
27186,8.80E-03,1.61E-02
27187,8.75E-03,2.13E-02
27188,8.99E-03,2.16E-02
27189,5.97E-03,6.82E-03
27190,6.17E-03,6.88E-03
27191,6.35E-03,1.24E-02
27192,6.90E-03,9.36E-03
27193,7.53E-03,9.47E-03
27194,7.77E-03,9.61E-03
27195,7.60E-03,9.78E-03
27196,7.89E-03,1.01E-02
27197,6.69E-03,9.92E-03
27198,6.87E-03,7.97E-03
27199,7.95E-03,2.43E-02
27200,7.06E-03,1.56E-02
27201,5.46E-03,1.55E-02
27202,6.68E-03,1.56E-02
27203,8.10E-03,1.23E-02
27204,9.69E-03,1.28E-02
27205,7.87E-03,1.28E-02
27206,9.38E-03,1.29E-02
27207,8.86E-03,1.57E-02
27208,3.77E-03,9.88E-03
27209,5.32E-03,9.75E-03
27210,8.55E-03,9.53E-03
27211,8.09E-03,9.26E-03
27212,8.09E-03,9.00E-03
27213,8.09E-03,8.75E-03
27214,8.09E-03,8.50E-03
27215,8.09E-03,8.25E-03
27216,8.09E-03,8.01E-03
27217,8.09E-03,7.77E-03
27218,8.09E-03,7.53E-03
27219,8.09E-03,7.30E-03
27220,8.09E-03,7.07E-03
27221,8.09E-03,6.85E-03
27222,8.09E-03,6.63E-03
27223,8.09E-03,6.42E-03
27224,8.09E-03,6.22E-03
27225,8.09E-03,6.03E-03
27226,8.09E-03,5.84E-03
27227,8.09E-03,5.67E-03
27228,8.09E-03,5.51E-03
27229,8.09E-03,5.35E-03
27230,8.09E-03,5.21E-03
27231,8.09E-03,5.09E-03
27232,8.09E-03,4.97E-03
27233,8.09E-03,4.88E-03
27234,8.09E-03,4.79E-03
27235,8.09E-03,4.73E-03
27236,8.09E-03,4.68E-03
27237,8.09E-03,4.64E-03
27238,8.09E-03,4.62E-03
27239,8.09E-03,4.62E-03
27240,8.09E-03,4.64E-03
27241,8.09E-03,4.66E-03
27242,8.01E-03,4.70E-03
27243,7.88E-03,4.75E-03
27244,7.76E-03,4.81E-03
27245,7.69E-03,4.88E-03
27246,7.59E-03,4.97E-03
27247,7.54E-03,5.07E-03
27248,7.66E-03,5.17E-03
27249,7.89E-03,5.28E-03
27250,8.35E-03,5.39E-03
27251,1.09E-02,5.66E-03
27252,8.88E-03,5.52E-03
27253,8.09E-03,5.99E-03
27254,9.12E-03,5.96E-03
27255,9.57E-03,5.92E-03
27256,9.79E-03,5.87E-03
27257,1.03E-02,5.84E-03
27258,1.03E-02,5.80E-03
27259,1.02E-02,5.77E-03
27260,1.01E-02,5.75E-03
27261,1.03E-02,5.73E-03
27262,1.11E-02,5.71E-03
27263,7.92E-03,6.48E-03
27264,7.31E-03,1.24E-02
27265,8.31E-03,1.59E-02
27266,8.30E-03,1.58E-02
27267,6.92E-03,1.83E-02
27268,5.60E-03,1.31E-02
27269,6.19E-03,1.31E-02
27270,6.47E-03,2.38E-02
27271,4.21E-03,1.51E-02
27272,3.62E-03,1.52E-02
27273,3.61E-03,1.54E-02
27274,3.70E-03,1.56E-02
27275,3.82E-03,1.58E-02
27276,4.02E-03,1.60E-02
27277,4.26E-03,1.62E-02
27278,4.28E-03,1.64E-02
27279,4.34E-03,1.67E-02
27280,4.30E-03,1.69E-02
27281,4.13E-03,1.71E-02
27282,3.74E-03,1.73E-02
27283,3.00E-03,1.75E-02
27284,9.19E-03,8.27E-03
27285,9.46E-03,8.21E-03
27286,8.74E-03,8.30E-03
27287,8.66E-03,8.38E-03
27288,6.85E-03,8.45E-03
27289,6.31E-03,8.50E-03
27290,5.05E-03,8.56E-03
27291,3.53E-03,8.60E-03
27292,3.21E-03,8.63E-03
27293,3.63E-03,8.67E-03
27294,3.67E-03,8.71E-03
27295,3.57E-03,8.75E-03
27296,3.68E-03,8.79E-03
27297,3.80E-03,8.84E-03
27298,4.97E-03,8.91E-03
27299,5.59E-03,8.92E-03
27300,5.88E-03,9.00E-03
27301,7.67E-03,2.23E-02
27302,7.89E-03,5.90E-03
27303,9.18E-03,9.99E-03
27304,7.45E-03,2.31E-02
27305,7.33E-03,2.32E-02
27306,8.10E-03,1.51E-02
27307,8.10E-03,1.53E-02
27308,7.53E-03,1.89E-02
27309,7.32E-03,1.41E-02
27310,7.05E-03,1.33E-02
27311,7.67E-03,1.53E-02
27312,8.82E-03,1.15E-02
27313,7.96E-03,1.49E-02
27314,8.44E-03,5.64E-03
27315,8.68E-03,5.66E-03
27316,4.68E-03,5.66E-03
27317,5.00E-03,5.70E-03
27318,5.08E-03,5.71E-03
27319,5.12E-03,5.72E-03
27320,5.96E-03,5.73E-03
27321,6.04E-03,5.74E-03
27322,6.07E-03,5.75E-03
27323,6.27E-03,5.76E-03
27324,6.63E-03,5.78E-03
27325,6.67E-03,5.79E-03
27326,6.91E-03,5.81E-03
27327,7.06E-03,5.84E-03
27328,7.12E-03,5.86E-03
27329,7.21E-03,5.89E-03
27330,7.25E-03,5.92E-03
27331,7.29E-03,5.96E-03
27332,7.33E-03,6.00E-03
27333,7.37E-03,6.04E-03
27334,7.41E-03,6.08E-03
27335,7.45E-03,6.13E-03
27336,7.49E-03,6.19E-03
27337,7.53E-03,6.25E-03
27338,7.57E-03,6.31E-03
27339,7.60E-03,6.37E-03
27340,7.62E-03,6.44E-03
27341,7.65E-03,6.52E-03
27342,7.68E-03,6.59E-03
27343,7.70E-03,6.68E-03
27344,7.73E-03,6.76E-03
27345,7.75E-03,6.85E-03
27346,7.77E-03,6.95E-03
27347,7.79E-03,7.04E-03
27348,7.81E-03,7.15E-03
27349,7.83E-03,7.25E-03
27350,7.85E-03,7.36E-03
27351,7.85E-03,7.47E-03
27352,7.85E-03,7.59E-03
27353,7.85E-03,7.71E-03
27354,7.85E-03,7.83E-03
27355,7.85E-03,7.96E-03
27356,7.85E-03,8.08E-03
27357,7.85E-03,8.21E-03
27358,7.84E-03,8.35E-03
27359,7.82E-03,8.48E-03
27360,7.79E-03,8.62E-03
27361,7.77E-03,8.76E-03
27362,7.74E-03,8.90E-03
27363,7.71E-03,9.04E-03
27364,7.68E-03,9.19E-03
27365,7.65E-03,9.33E-03
27366,7.62E-03,9.48E-03
27367,7.59E-03,9.62E-03
27368,7.56E-03,9.77E-03
27369,7.52E-03,9.92E-03
27370,7.45E-03,1.01E-02
27371,7.38E-03,1.02E-02
27372,7.31E-03,1.04E-02
27373,7.23E-03,1.05E-02
27374,7.16E-03,1.07E-02
27375,7.08E-03,1.08E-02
27376,7.01E-03,1.09E-02
27377,6.94E-03,1.11E-02
27378,6.88E-03,1.12E-02
27379,6.83E-03,1.14E-02
27380,6.78E-03,1.15E-02
27381,6.73E-03,1.17E-02
27382,6.68E-03,1.18E-02
27383,6.63E-03,1.19E-02
27384,6.57E-03,1.21E-02
27385,6.50E-03,1.22E-02
27386,6.42E-03,1.24E-02
27387,6.35E-03,1.25E-02
27388,6.18E-03,1.26E-02
27389,6.16E-03,1.28E-02
27390,6.05E-03,1.29E-02
27391,5.92E-03,1.30E-02
27392,5.79E-03,1.31E-02
27393,5.67E-03,1.33E-02
27394,5.57E-03,1.34E-02
27395,5.42E-03,1.35E-02
27396,5.40E-03,1.36E-02
27397,5.38E-03,1.37E-02
27398,5.40E-03,1.39E-02
27399,5.45E-03,1.40E-02
27400,5.56E-03,1.41E-02
27401,5.81E-03,1.42E-02
27402,5.78E-03,1.44E-02
27403,5.97E-03,1.45E-02
27404,5.19E-03,1.46E-02
27405,3.54E-03,1.47E-02
27406,4.00E-03,1.47E-02
27407,4.11E-03,1.47E-02
27408,5.22E-03,1.48E-02
27409,7.45E-03,1.10E-02
27410,7.82E-03,1.15E-02
27411,7.90E-03,1.50E-02
27412,9.67E-03,1.37E-02
27413,9.00E-03,1.32E-02
27414,8.38E-03,8.39E-03
27415,6.37E-03,2.22E-02
27416,1.03E-02,9.82E-03
27417,6.93E-03,1.34E-02
27418,6.82E-03,1.16E-02
27419,6.71E-03,7.32E-03
27420,7.90E-03,7.70E-03
27421,7.88E-03,2.40E-02
27422,8.02E-03,2.40E-02
27423,8.05E-03,2.40E-02
27424,7.87E-03,1.60E-02
27425,7.55E-03,5.75E-03
27426,7.67E-03,5.88E-03
27427,8.85E-03,2.12E-02
27428,8.34E-03,2.22E-02
27429,8.80E-03,6.08E-03
27430,7.82E-03,1.56E-02
27431,8.11E-03,6.14E-03
27432,5.22E-03,6.87E-03
27433,7.57E-03,7.01E-03
27434,6.47E-03,9.27E-03
27435,7.20E-03,1.54E-02
27436,6.98E-03,2.35E-02
27437,7.28E-03,2.38E-02
27438,6.48E-03,2.37E-02
27439,9.28E-03,1.36E-02
27440,7.58E-03,2.40E-02
27441,5.32E-03,6.77E-03
27442,7.26E-03,2.33E-02
27443,8.10E-03,1.51E-02
27444,8.10E-03,1.53E-02
27445,7.55E-03,1.92E-02
27446,7.25E-03,1.52E-02
27447,7.48E-03,1.54E-02
27448,8.10E-03,1.12E-02
27449,8.89E-03,1.50E-02
27450,7.44E-03,1.18E-02
27451,7.77E-03,1.51E-02
27452,7.27E-03,1.30E-02
27453,6.27E-03,2.27E-02
27454,6.58E-03,2.17E-02
27455,8.58E-03,2.15E-02
27456,8.41E-03,2.14E-02
27457,8.20E-03,2.13E-02
27458,7.52E-03,2.11E-02
27459,7.32E-03,2.09E-02
27460,6.70E-03,2.08E-02
27461,6.36E-03,2.06E-02
27462,6.27E-03,2.04E-02
27463,6.02E-03,2.03E-02
27464,5.72E-03,2.01E-02
27465,5.53E-03,2.00E-02
27466,6.12E-03,1.99E-02
27467,5.81E-03,1.96E-02
27468,4.65E-03,1.94E-02
27469,4.39E-03,1.92E-02
27470,4.28E-03,1.90E-02
27471,4.08E-03,1.89E-02
27472,4.06E-03,1.87E-02
27473,4.10E-03,1.85E-02
27474,4.13E-03,1.83E-02
27475,4.12E-03,1.81E-02
27476,4.00E-03,1.79E-02
27477,3.64E-03,1.78E-02
27478,2.86E-03,1.76E-02
27479,1.93E-03,1.76E-02
27480,6.89E-03,1.13E-02
27481,7.18E-03,1.13E-02
27482,7.03E-03,1.31E-02
27483,6.89E-03,1.22E-02
27484,5.97E-03,1.14E-02
27485,8.20E-03,7.17E-03
27486,7.22E-03,1.60E-02
27487,9.72E-03,1.60E-02
27488,8.76E-03,1.60E-02
27489,7.43E-03,5.66E-03
27490,7.23E-03,6.65E-03
27491,5.96E-03,2.36E-02
27492,6.70E-03,2.35E-02
27493,5.83E-03,2.34E-02
27494,8.10E-03,1.51E-02
27495,8.10E-03,1.54E-02
27496,4.46E-03,1.96E-02
27497,7.73E-03,1.52E-02
27498,8.23E-03,5.72E-03
27499,6.96E-03,1.23E-02
27500,7.10E-03,1.21E-02
27501,6.03E-03,2.31E-02
27502,7.36E-03,2.44E-02
27503,7.05E-03,1.28E-02
27504,7.85E-03,1.11E-02
27505,8.81E-03,1.16E-02
27506,7.56E-03,1.59E-02
27507,9.47E-03,1.28E-02
27508,7.08E-03,2.43E-02
27509,7.59E-03,2.32E-02
27510,7.82E-03,1.61E-02
27511,4.49E-03,1.06E-02
27512,8.84E-03,1.03E-02
27513,8.11E-03,1.07E-02
27514,7.91E-03,1.61E-02
27515,7.80E-03,1.61E-02
27516,7.95E-03,1.61E-02
27517,7.16E-03,2.04E-02
27518,6.96E-03,2.09E-02
27519,6.79E-03,2.07E-02
27520,8.06E-03,1.20E-02
27521,7.85E-03,1.23E-02
27522,7.33E-03,2.27E-02
27523,8.15E-03,6.29E-03
27524,9.48E-03,1.09E-02
27525,8.51E-03,1.07E-02
27526,7.62E-03,5.55E-03
27527,7.13E-03,2.01E-02
27528,6.30E-03,1.26E-02
27529,6.72E-03,1.25E-02
27530,7.66E-03,2.30E-02
27531,7.69E-03,1.99E-02
27532,7.95E-03,5.54E-03
27533,8.10E-03,1.09E-02
27534,8.09E-03,1.08E-02
27535,8.09E-03,1.06E-02
27536,8.09E-03,1.05E-02
27537,8.09E-03,1.04E-02
27538,8.09E-03,1.02E-02
27539,8.09E-03,1.01E-02
27540,8.09E-03,9.93E-03
27541,8.09E-03,9.79E-03
27542,8.09E-03,9.64E-03
27543,8.09E-03,9.50E-03
27544,8.09E-03,9.35E-03
27545,8.09E-03,9.20E-03
27546,8.09E-03,9.05E-03
27547,8.09E-03,8.90E-03
27548,8.09E-03,8.75E-03
27549,8.09E-03,8.60E-03
27550,8.09E-03,8.45E-03
27551,8.09E-03,8.29E-03
27552,8.09E-03,8.14E-03
27553,8.09E-03,7.99E-03
27554,8.09E-03,7.83E-03
27555,8.09E-03,7.68E-03
27556,8.09E-03,7.53E-03
27557,8.09E-03,7.38E-03
27558,8.09E-03,7.23E-03
27559,8.09E-03,7.08E-03
27560,8.09E-03,6.93E-03
27561,8.09E-03,6.78E-03
27562,8.09E-03,6.64E-03
27563,8.09E-03,6.50E-03
27564,8.09E-03,6.37E-03
27565,8.09E-03,6.24E-03
27566,8.09E-03,6.11E-03
27567,8.09E-03,5.99E-03
27568,8.09E-03,5.87E-03
27569,8.09E-03,5.76E-03
27570,8.09E-03,5.66E-03
27571,8.09E-03,5.56E-03
27572,8.09E-03,5.48E-03
27573,8.09E-03,5.40E-03
27574,8.09E-03,5.33E-03
27575,8.09E-03,5.28E-03
27576,8.09E-03,5.23E-03
27577,8.03E-03,5.20E-03
27578,8.01E-03,5.18E-03
27579,7.91E-03,5.18E-03
27580,7.94E-03,5.18E-03
27581,8.03E-03,5.20E-03
27582,8.28E-03,5.24E-03
27583,8.72E-03,5.29E-03
27584,6.95E-03,5.26E-03
27585,8.10E-03,1.11E-02
27586,8.25E-03,1.02E-02
27587,8.19E-03,1.04E-02
27588,8.20E-03,1.00E-02
27589,7.49E-03,1.54E-02
27590,7.87E-03,6.42E-03
27591,9.08E-03,6.43E-03
27592,7.89E-03,1.29E-02
27593,4.04E-03,1.11E-02
27594,8.06E-03,2.46E-02
27595,6.53E-03,1.53E-02
27596,7.89E-03,2.26E-02
27597,8.10E-03,1.50E-02
27598,8.05E-03,1.54E-02
27599,7.78E-03,1.26E-02
27600,6.11E-03,2.46E-02
27601,8.42E-03,1.59E-02
27602,9.31E-03,1.59E-02
27603,8.50E-03,1.58E-02
27604,8.10E-03,1.12E-02
27605,8.10E-03,1.50E-02
27606,7.98E-03,1.55E-02
27607,5.94E-03,6.10E-03
27608,7.89E-03,6.00E-03
27609,7.81E-03,5.97E-03
27610,7.05E-03,5.92E-03
27611,7.50E-03,5.81E-03
27612,8.76E-03,8.46E-03
27613,7.97E-03,8.44E-03
27614,7.32E-03,8.55E-03
27615,8.10E-03,1.13E-02
27616,8.10E-03,1.50E-02
27617,7.75E-03,1.55E-02
27618,8.10E-03,1.15E-02
27619,5.65E-03,6.19E-03
27620,6.91E-03,6.16E-03
27621,8.10E-03,1.49E-02
27622,7.68E-03,1.56E-02
27623,8.10E-03,1.16E-02
27624,8.10E-03,1.49E-02
27625,7.57E-03,1.56E-02
27626,8.10E-03,1.18E-02
27627,8.10E-03,1.19E-02
27628,8.10E-03,1.49E-02
27629,7.13E-03,1.57E-02
27630,8.10E-03,1.48E-02
27631,8.10E-03,1.21E-02
27632,8.10E-03,1.48E-02
27633,8.10E-03,1.47E-02
27634,7.94E-03,1.61E-02
27635,8.12E-03,1.59E-02
27636,8.04E-03,1.59E-02
27637,7.93E-03,1.61E-02
27638,8.10E-03,1.22E-02
27639,8.10E-03,1.23E-02
27640,8.03E-03,1.61E-02
27641,8.10E-03,1.46E-02
27642,8.07E-03,1.60E-02
27643,8.10E-03,1.60E-02
27644,8.10E-03,1.60E-02
27645,8.10E-03,1.25E-02
27646,7.95E-03,1.60E-02
27647,8.10E-03,1.46E-02
27648,8.03E-03,1.60E-02
27649,8.10E-03,1.26E-02
27650,8.10E-03,1.27E-02
27651,8.10E-03,1.45E-02
27652,8.10E-03,1.44E-02
27653,8.10E-03,1.29E-02
27654,8.10E-03,1.30E-02
27655,8.10E-03,1.43E-02
27656,8.10E-03,1.31E-02
27657,8.10E-03,1.32E-02
27658,8.10E-03,1.43E-02
27659,8.10E-03,1.42E-02
27660,8.10E-03,1.33E-02
27661,8.10E-03,1.35E-02
27662,8.10E-03,1.41E-02
27663,8.10E-03,1.36E-02
27664,8.10E-03,1.37E-02
27665,8.10E-03,1.40E-02
27666,8.10E-03,1.39E-02
27667,8.10E-03,1.38E-02
27668,4.09E-03,1.13E-02
27669,7.46E-03,2.31E-02
27670,8.10E-03,1.51E-02
27671,8.10E-03,1.51E-02
27672,8.10E-03,1.52E-02
27673,8.10E-03,1.52E-02
27674,8.10E-03,1.52E-02
27675,8.10E-03,1.52E-02
27676,7.47E-03,1.87E-02
27677,7.33E-03,1.85E-02
27678,9.36E-03,1.79E-02
27679,8.60E-03,1.76E-02
27680,8.43E-03,1.74E-02
27681,8.21E-03,1.71E-02
27682,8.17E-03,1.69E-02
27683,8.14E-03,1.66E-02
27684,8.03E-03,1.64E-02
27685,8.03E-03,1.61E-02
27686,7.99E-03,1.59E-02
27687,7.91E-03,1.56E-02
27688,7.76E-03,1.54E-02
27689,7.19E-03,1.39E-02
27690,7.19E-03,1.35E-02
27691,7.22E-03,1.37E-02
27692,7.66E-03,1.51E-02
27693,8.36E-03,1.49E-02
27694,8.33E-03,1.47E-02
27695,8.23E-03,1.45E-02
27696,8.09E-03,1.43E-02
27697,8.09E-03,1.41E-02
27698,8.09E-03,1.39E-02
27699,8.09E-03,1.37E-02
27700,8.09E-03,1.35E-02
27701,8.09E-03,1.32E-02
27702,8.09E-03,1.30E-02
27703,8.15E-03,1.28E-02
27704,8.35E-03,1.26E-02
27705,8.42E-03,1.23E-02
27706,8.62E-03,1.21E-02
27707,8.73E-03,1.18E-02
27708,7.39E-03,1.50E-02
27709,7.73E-03,1.12E-02
27710,8.09E-03,1.49E-02
27711,8.53E-03,1.49E-02
27712,1.00E-02,1.49E-02
27713,9.97E-03,1.48E-02
27714,9.63E-03,1.48E-02
27715,9.58E-03,1.48E-02
27716,9.33E-03,1.48E-02
27717,9.34E-03,1.48E-02
27718,9.16E-03,1.48E-02
27719,9.16E-03,1.48E-02
27720,9.16E-03,1.48E-02
27721,9.08E-03,1.48E-02
27722,8.88E-03,1.48E-02
27723,8.66E-03,1.48E-02
27724,8.50E-03,1.48E-02
27725,8.39E-03,1.48E-02
27726,8.30E-03,1.48E-02
27727,8.25E-03,1.48E-02
27728,8.24E-03,1.48E-02
27729,8.23E-03,1.48E-02
27730,8.23E-03,1.48E-02
27731,8.21E-03,1.48E-02
27732,8.18E-03,1.48E-02
27733,8.14E-03,1.48E-02
27734,8.09E-03,1.48E-02
27735,8.06E-03,1.48E-02
27736,8.02E-03,1.48E-02
27737,7.98E-03,1.48E-02
27738,7.95E-03,1.48E-02
27739,7.93E-03,1.48E-02
27740,7.95E-03,1.48E-02
27741,8.00E-03,1.48E-02
27742,8.06E-03,1.48E-02
27743,8.11E-03,1.48E-02
27744,8.17E-03,1.48E-02
27745,8.22E-03,1.48E-02
27746,8.27E-03,1.48E-02
27747,8.33E-03,1.48E-02
27748,8.43E-03,1.48E-02
27749,8.56E-03,1.48E-02
27750,8.69E-03,1.47E-02
27751,8.79E-03,1.47E-02
27752,8.85E-03,1.47E-02
27753,8.90E-03,1.47E-02
27754,8.95E-03,1.47E-02
27755,9.01E-03,1.47E-02
27756,9.08E-03,1.47E-02
27757,9.16E-03,1.47E-02
27758,9.24E-03,1.47E-02
27759,9.32E-03,1.47E-02
27760,9.43E-03,1.47E-02
27761,9.59E-03,1.47E-02
27762,9.77E-03,1.47E-02
27763,9.94E-03,1.47E-02
27764,1.00E-02,1.47E-02
27765,1.01E-02,1.47E-02
27766,1.00E-02,1.47E-02
27767,9.96E-03,1.47E-02
27768,9.89E-03,1.48E-02
27769,9.83E-03,1.48E-02
27770,9.78E-03,1.48E-02
27771,9.70E-03,1.48E-02
27772,9.64E-03,1.48E-02
27773,9.65E-03,1.48E-02
27774,9.67E-03,1.48E-02
27775,9.47E-03,1.49E-02
27776,9.06E-03,1.49E-02
27777,8.60E-03,1.49E-02
27778,8.14E-03,1.49E-02
27779,7.83E-03,1.49E-02
27780,7.83E-03,1.49E-02
27781,7.93E-03,1.49E-02
27782,7.85E-03,1.50E-02
27783,7.65E-03,1.50E-02
27784,7.46E-03,1.50E-02
27785,7.29E-03,1.50E-02
27786,7.12E-03,1.50E-02
27787,6.92E-03,1.50E-02
27788,6.66E-03,1.50E-02
27789,6.37E-03,1.50E-02
27790,6.12E-03,1.50E-02
27791,5.96E-03,1.50E-02
27792,5.85E-03,1.50E-02
27793,5.74E-03,1.50E-02
27794,5.65E-03,1.50E-02
27795,5.59E-03,1.50E-02
27796,5.54E-03,1.50E-02
27797,5.46E-03,1.50E-02
27798,5.34E-03,1.50E-02
27799,5.20E-03,1.49E-02
27800,5.10E-03,1.49E-02
27801,5.09E-03,1.49E-02
27802,5.16E-03,1.49E-02
27803,5.23E-03,1.49E-02
27804,5.30E-03,1.49E-02
27805,5.39E-03,1.49E-02
27806,5.47E-03,1.48E-02
27807,5.55E-03,1.48E-02
27808,5.63E-03,1.48E-02
27809,5.71E-03,1.48E-02
27810,5.77E-03,1.48E-02
27811,5.80E-03,1.47E-02
27812,5.83E-03,1.47E-02
27813,5.86E-03,1.47E-02
27814,5.88E-03,1.46E-02
27815,5.93E-03,1.46E-02
27816,5.93E-03,1.46E-02
27817,5.89E-03,1.45E-02
27818,5.83E-03,1.45E-02
27819,5.76E-03,1.45E-02
27820,5.69E-03,1.44E-02
27821,5.61E-03,1.44E-02
27822,5.52E-03,1.44E-02
27823,5.42E-03,1.43E-02
27824,5.25E-03,1.43E-02
27825,5.04E-03,1.43E-02
27826,4.83E-03,1.42E-02
27827,4.64E-03,1.42E-02
27828,4.46E-03,1.42E-02
27829,4.39E-03,1.42E-02
27830,4.49E-03,1.41E-02
27831,4.59E-03,1.41E-02
27832,4.47E-03,1.41E-02
27833,4.42E-03,1.40E-02
27834,5.75E-03,1.40E-02
27835,8.58E-03,1.40E-02
27836,8.74E-03,1.39E-02
27837,9.95E-03,1.38E-02
27838,9.96E-03,1.38E-02
27839,7.54E-03,1.35E-02
27840,8.85E-03,1.35E-02
27841,9.28E-03,1.34E-02
27842,9.31E-03,1.33E-02
27843,9.34E-03,1.33E-02
27844,8.68E-03,8.42E-03
27845,8.84E-03,8.40E-03
27846,8.79E-03,8.45E-03
27847,8.73E-03,8.52E-03
27848,6.87E-03,8.59E-03
27849,6.35E-03,8.64E-03
27850,5.11E-03,8.69E-03
27851,3.63E-03,8.73E-03
27852,3.32E-03,8.76E-03
27853,3.72E-03,8.80E-03
27854,3.76E-03,8.84E-03
27855,3.64E-03,8.88E-03
27856,3.79E-03,8.93E-03
27857,3.98E-03,9.00E-03
27858,5.10E-03,9.05E-03
27859,4.91E-03,9.08E-03
27860,5.00E-03,9.04E-03
27861,6.59E-03,2.20E-02
27862,8.53E-03,2.19E-02
27863,8.55E-03,2.18E-02
27864,8.17E-03,2.16E-02
27865,7.62E-03,2.15E-02
27866,7.38E-03,2.13E-02
27867,6.58E-03,2.11E-02
27868,6.33E-03,2.10E-02
27869,6.28E-03,2.08E-02
27870,5.96E-03,2.07E-02
27871,5.63E-03,2.05E-02
27872,5.58E-03,2.02E-02
27873,5.45E-03,2.03E-02
27874,9.30E-03,9.63E-03
27875,8.92E-03,9.45E-03
27876,8.09E-03,9.28E-03
27877,7.93E-03,9.14E-03
27878,7.24E-03,9.02E-03
27879,5.21E-03,8.91E-03
27880,5.18E-03,8.83E-03
27881,4.73E-03,8.76E-03
27882,4.74E-03,8.68E-03
27883,4.45E-03,8.59E-03
27884,4.10E-03,8.52E-03
27885,8.51E-03,1.13E-02
27886,9.11E-03,1.12E-02
27887,9.34E-03,1.12E-02
27888,9.35E-03,1.11E-02
27889,9.25E-03,1.10E-02
27890,9.25E-03,1.09E-02
27891,1.15E-02,1.09E-02
27892,1.07E-02,1.08E-02
27893,9.59E-03,1.07E-02
27894,8.68E-03,1.06E-02
27895,8.19E-03,1.05E-02
27896,7.98E-03,1.04E-02
27897,7.80E-03,1.04E-02
27898,7.40E-03,1.03E-02
27899,7.04E-03,1.02E-02
27900,6.65E-03,1.02E-02
27901,6.36E-03,1.01E-02
27902,6.16E-03,1.00E-02
27903,5.97E-03,9.98E-03
27904,5.78E-03,9.93E-03
27905,5.59E-03,9.87E-03
27906,5.37E-03,9.82E-03
27907,5.09E-03,9.78E-03
27908,4.78E-03,9.73E-03
27909,4.47E-03,9.69E-03
27910,4.17E-03,9.65E-03
27911,3.95E-03,9.62E-03
27912,3.89E-03,9.58E-03
27913,3.88E-03,9.55E-03
27914,3.87E-03,9.52E-03
27915,3.86E-03,9.49E-03
27916,3.85E-03,9.46E-03
27917,3.83E-03,9.43E-03
27918,3.80E-03,9.40E-03
27919,3.74E-03,9.37E-03
27920,3.69E-03,9.35E-03
27921,3.64E-03,9.32E-03
27922,3.58E-03,9.30E-03
27923,3.53E-03,9.28E-03
27924,3.51E-03,9.26E-03
27925,3.56E-03,9.24E-03
27926,3.62E-03,9.22E-03
27927,3.69E-03,9.20E-03
27928,3.78E-03,9.18E-03
27929,3.91E-03,9.16E-03
27930,4.05E-03,9.14E-03
27931,4.20E-03,9.13E-03
27932,4.41E-03,9.11E-03
27933,4.67E-03,9.09E-03
27934,4.93E-03,9.07E-03
27935,5.17E-03,9.05E-03
27936,5.35E-03,9.03E-03
27937,5.48E-03,9.02E-03
27938,5.60E-03,9.00E-03
27939,5.73E-03,8.98E-03
27940,5.84E-03,8.97E-03
27941,5.95E-03,8.95E-03
27942,6.06E-03,8.93E-03
27943,6.17E-03,8.92E-03
27944,6.28E-03,8.90E-03
27945,6.39E-03,8.89E-03
27946,6.49E-03,8.87E-03
27947,6.59E-03,8.86E-03
27948,6.66E-03,8.85E-03
27949,6.71E-03,8.83E-03
27950,6.76E-03,8.82E-03
27951,6.81E-03,8.81E-03
27952,6.86E-03,8.80E-03
27953,6.91E-03,8.78E-03
27954,6.96E-03,8.77E-03
27955,7.01E-03,8.76E-03
27956,7.08E-03,8.75E-03
27957,7.17E-03,8.74E-03
27958,7.27E-03,8.72E-03
27959,7.38E-03,8.71E-03
27960,7.46E-03,8.70E-03
27961,7.52E-03,8.69E-03
27962,7.57E-03,8.67E-03
27963,7.62E-03,8.66E-03
27964,7.62E-03,8.65E-03
27965,7.41E-03,8.63E-03
27966,7.16E-03,8.62E-03
27967,7.01E-03,8.60E-03
27968,6.88E-03,8.58E-03
27969,6.71E-03,8.57E-03
27970,6.46E-03,8.55E-03
27971,6.33E-03,8.53E-03
27972,6.16E-03,8.50E-03
27973,4.29E-03,8.39E-03
27974,6.46E-03,1.37E-02
27975,6.16E-03,1.40E-02
27976,5.95E-03,1.42E-02
27977,6.20E-03,1.19E-02
27978,7.20E-03,1.19E-02
27979,7.67E-03,1.18E-02
27980,7.41E-03,1.17E-02
27981,6.04E-03,7.43E-03
27982,6.90E-03,7.58E-03
27983,8.07E-03,2.40E-02
27984,8.95E-03,1.61E-02
27985,6.76E-03,5.98E-03
27986,5.91E-03,5.85E-03
27987,8.77E-03,2.14E-02
27988,9.12E-03,2.16E-02
27989,8.40E-03,2.19E-02
27990,8.73E-03,2.20E-02
27991,8.05E-03,6.03E-03
27992,7.25E-03,6.01E-03
27993,7.67E-03,1.55E-02
27994,8.43E-03,6.28E-03
27995,6.14E-03,6.92E-03
27996,6.81E-03,6.96E-03
27997,6.88E-03,1.26E-02
27998,3.23E-03,1.11E-02
27999,3.55E-03,1.12E-02
28000,7.08E-03,9.41E-03
28001,7.90E-03,9.52E-03
28002,8.02E-03,9.69E-03
28003,8.91E-03,9.89E-03
28004,8.04E-03,1.02E-02
28005,8.58E-03,1.00E-02
28006,7.28E-03,8.34E-03
28007,7.75E-03,2.46E-02
28008,6.88E-03,1.54E-02
28009,7.51E-03,2.39E-02
28010,1.16E-02,1.36E-02
28011,6.60E-03,6.92E-03
28012,5.56E-03,9.28E-03
28013,7.91E-03,2.37E-02
28014,8.06E-03,2.39E-02
28015,9.21E-03,2.41E-02
28016,6.73E-03,2.34E-02
28017,7.38E-03,2.34E-02
28018,8.10E-03,1.51E-02
28019,8.10E-03,1.53E-02
28020,7.48E-03,1.90E-02
28021,8.58E-03,1.48E-02
28022,7.87E-03,1.44E-02
28023,7.34E-03,1.42E-02
28024,6.87E-03,1.33E-02
28025,7.66E-03,1.52E-02
28026,8.31E-03,1.15E-02
28027,8.27E-03,1.51E-02
28028,7.33E-03,1.16E-02
28029,6.59E-03,1.11E-02
28030,7.82E-03,1.51E-02
28031,8.66E-03,1.31E-02
28032,8.44E-03,8.53E-03
28033,6.30E-03,2.25E-02
28034,3.93E-03,1.50E-02
28035,3.57E-03,1.52E-02
28036,3.66E-03,1.54E-02
28037,3.77E-03,1.56E-02
28038,3.88E-03,1.58E-02
28039,4.08E-03,1.60E-02
28040,4.30E-03,1.63E-02
28041,4.31E-03,1.65E-02
28042,4.31E-03,1.67E-02
28043,4.20E-03,1.70E-02
28044,4.03E-03,1.71E-02
28045,3.73E-03,1.73E-02
28046,3.43E-03,1.74E-02
28047,2.80E-03,1.76E-02
28048,2.15E-03,1.79E-02
28049,3.17E-03,1.80E-02
28050,3.67E-03,1.82E-02
28051,3.93E-03,1.83E-02
28052,4.01E-03,1.85E-02
28053,4.07E-03,1.86E-02
28054,4.13E-03,1.88E-02
28055,4.14E-03,1.90E-02
28056,4.06E-03,1.92E-02
28057,4.26E-03,1.93E-02
28058,4.33E-03,1.95E-02
28059,4.62E-03,1.96E-02
28060,5.17E-03,1.99E-02
28061,4.81E-03,2.07E-02
28062,6.66E-03,1.11E-02
28063,6.80E-03,1.34E-02
28064,7.81E-03,1.20E-02
28065,6.83E-03,1.15E-02
28066,7.10E-03,7.36E-03
28067,7.19E-03,7.80E-03
28068,7.51E-03,2.42E-02
28069,8.42E-03,1.60E-02
28070,6.04E-03,1.60E-02
28071,7.14E-03,5.80E-03
28072,8.94E-03,2.13E-02
28073,7.11E-03,6.79E-03
28074,8.08E-03,7.00E-03
28075,5.39E-03,2.38E-02
28076,7.01E-03,9.84E-03
28077,9.84E-03,9.58E-03
28078,6.94E-03,9.64E-03
28079,7.17E-03,2.36E-02
28080,8.10E-03,1.51E-02
28081,8.10E-03,1.53E-02
28082,5.81E-03,1.94E-02
28083,6.68E-03,1.93E-02
28084,7.51E-03,1.53E-02
28085,8.85E-03,1.52E-02
28086,9.21E-03,1.52E-02
28087,8.84E-03,5.70E-03
28088,7.65E-03,5.74E-03
28089,5.35E-03,5.71E-03
28090,5.16E-03,5.74E-03
28091,5.18E-03,5.76E-03
28092,5.21E-03,5.77E-03
28093,5.91E-03,5.78E-03
28094,6.01E-03,5.78E-03
28095,6.15E-03,5.79E-03
28096,6.31E-03,5.80E-03
28097,6.61E-03,5.81E-03
28098,6.74E-03,5.82E-03
28099,6.93E-03,5.84E-03
28100,7.04E-03,5.86E-03
28101,7.14E-03,5.88E-03
28102,7.23E-03,5.90E-03
28103,7.27E-03,5.93E-03
28104,7.31E-03,5.96E-03
28105,7.35E-03,5.99E-03
28106,7.39E-03,6.03E-03
28107,7.43E-03,6.07E-03
28108,7.47E-03,6.12E-03
28109,7.51E-03,6.17E-03
28110,7.54E-03,6.22E-03
28111,7.58E-03,6.28E-03
28112,7.61E-03,6.34E-03
28113,7.63E-03,6.41E-03
28114,7.66E-03,6.48E-03
28115,7.69E-03,6.55E-03
28116,7.71E-03,6.63E-03
28117,7.73E-03,6.72E-03
28118,7.76E-03,6.80E-03
28119,7.77E-03,6.89E-03
28120,7.79E-03,6.99E-03
28121,7.81E-03,7.09E-03
28122,7.83E-03,7.19E-03
28123,7.85E-03,7.30E-03
28124,7.86E-03,7.41E-03
28125,7.86E-03,7.53E-03
28126,7.86E-03,7.65E-03
28127,7.86E-03,7.77E-03
28128,7.86E-03,7.89E-03
28129,7.85E-03,8.02E-03
28130,7.85E-03,8.15E-03
28131,7.85E-03,8.29E-03
28132,7.83E-03,8.42E-03
28133,7.80E-03,8.56E-03
28134,7.77E-03,8.70E-03
28135,7.74E-03,8.84E-03
28136,7.72E-03,8.98E-03
28137,7.69E-03,9.13E-03
28138,7.66E-03,9.27E-03
28139,7.63E-03,9.42E-03
28140,7.60E-03,9.57E-03
28141,7.57E-03,9.71E-03
28142,7.53E-03,9.86E-03
28143,7.47E-03,1.00E-02
28144,7.39E-03,1.02E-02
28145,7.32E-03,1.03E-02
28146,7.25E-03,1.05E-02
28147,7.18E-03,1.06E-02
28148,7.10E-03,1.08E-02
28149,7.03E-03,1.09E-02
28150,6.96E-03,1.10E-02
28151,6.90E-03,1.12E-02
28152,6.85E-03,1.13E-02
28153,6.81E-03,1.15E-02
28154,6.76E-03,1.16E-02
28155,6.71E-03,1.18E-02
28156,6.66E-03,1.19E-02
28157,6.60E-03,1.20E-02
28158,6.53E-03,1.22E-02
28159,6.46E-03,1.23E-02
28160,6.38E-03,1.25E-02
28161,6.22E-03,1.26E-02
28162,6.21E-03,1.27E-02
28163,6.08E-03,1.29E-02
28164,5.96E-03,1.30E-02
28165,5.83E-03,1.31E-02
28166,5.71E-03,1.32E-02
28167,5.64E-03,1.34E-02
28168,5.47E-03,1.35E-02
28169,5.45E-03,1.36E-02
28170,5.44E-03,1.37E-02
28171,5.45E-03,1.38E-02
28172,5.50E-03,1.40E-02
28173,5.56E-03,1.41E-02
28174,5.70E-03,1.42E-02
28175,5.71E-03,1.43E-02
28176,5.57E-03,1.45E-02
28177,5.22E-03,1.46E-02
28178,4.88E-03,1.47E-02
28179,4.95E-03,1.48E-02
28180,5.47E-03,1.49E-02
28181,6.76E-03,1.50E-02
28182,7.70E-03,1.52E-02
28183,7.39E-03,1.52E-02
28184,7.24E-03,1.18E-02
28185,9.40E-03,1.29E-02
28186,6.25E-03,2.30E-02
28187,7.68E-03,2.43E-02
28188,4.36E-03,1.11E-02
28189,6.95E-03,1.31E-02
28190,7.89E-03,1.22E-02
28191,9.07E-03,1.22E-02
28192,9.28E-03,1.22E-02
28193,5.80E-03,1.14E-02
28194,7.83E-03,1.60E-02
28195,9.82E-03,1.27E-02
28196,8.92E-03,1.28E-02
28197,6.01E-03,2.35E-02
28198,8.12E-03,2.34E-02
28199,8.41E-03,2.36E-02
28200,7.30E-03,1.60E-02
28201,8.61E-03,6.03E-03
28202,8.56E-03,1.56E-02
28203,7.85E-03,1.60E-02
28204,7.88E-03,1.60E-02
28205,7.12E-03,2.05E-02
28206,8.00E-03,1.11E-02
28207,9.30E-03,1.14E-02
28208,8.38E-03,1.16E-02
28209,6.52E-03,1.20E-02
28210,7.55E-03,1.25E-02
28211,7.98E-03,1.24E-02
28212,8.12E-03,2.32E-02
28213,7.28E-03,2.02E-02
28214,7.27E-03,2.00E-02
28215,6.91E-03,1.97E-02
28216,7.61E-03,5.65E-03
28217,7.99E-03,5.64E-03
28218,8.09E-03,1.08E-02
28219,8.09E-03,1.06E-02
28220,8.09E-03,1.05E-02
28221,8.09E-03,1.04E-02
28222,8.09E-03,1.02E-02
28223,8.09E-03,1.01E-02
28224,8.09E-03,9.95E-03
28225,8.09E-03,9.80E-03
28226,8.09E-03,9.66E-03
28227,8.09E-03,9.51E-03
28228,8.09E-03,9.37E-03
28229,8.09E-03,9.22E-03
28230,8.09E-03,9.07E-03
28231,8.09E-03,8.92E-03
28232,8.09E-03,8.76E-03
28233,8.09E-03,8.61E-03
28234,8.09E-03,8.46E-03
28235,8.09E-03,8.30E-03
28236,8.09E-03,8.15E-03
28237,8.09E-03,8.00E-03
28238,8.09E-03,7.84E-03
28239,8.09E-03,7.69E-03
28240,8.09E-03,7.54E-03
28241,8.09E-03,7.38E-03
28242,8.09E-03,7.23E-03
28243,8.09E-03,7.08E-03
28244,8.09E-03,6.94E-03
28245,8.09E-03,6.79E-03
28246,8.09E-03,6.65E-03
28247,8.09E-03,6.51E-03
28248,8.09E-03,6.37E-03
28249,8.09E-03,6.24E-03
28250,8.09E-03,6.11E-03
28251,8.09E-03,5.98E-03
28252,8.09E-03,5.87E-03
28253,8.09E-03,5.76E-03
28254,8.09E-03,5.65E-03
28255,8.09E-03,5.56E-03
28256,8.09E-03,5.47E-03
28257,8.09E-03,5.39E-03
28258,8.09E-03,5.32E-03
28259,8.09E-03,5.26E-03
28260,8.09E-03,5.22E-03
28261,8.09E-03,5.18E-03
28262,8.09E-03,5.16E-03
28263,8.09E-03,5.15E-03
28264,8.14E-03,5.15E-03
28265,8.21E-03,5.17E-03
28266,8.27E-03,5.20E-03
28267,7.91E-03,5.22E-03
28268,6.31E-03,5.23E-03
28269,8.10E-03,1.09E-02
28270,8.06E-03,1.02E-02
28271,8.15E-03,9.96E-03
28272,3.86E-03,9.83E-03
28273,5.39E-03,9.69E-03
28274,8.53E-03,9.48E-03
28275,8.09E-03,9.21E-03
28276,8.09E-03,8.95E-03
28277,8.09E-03,8.70E-03
28278,8.09E-03,8.45E-03
28279,8.09E-03,8.21E-03
28280,8.09E-03,7.96E-03
28281,8.09E-03,7.72E-03
28282,8.09E-03,7.49E-03
28283,8.09E-03,7.25E-03
28284,8.09E-03,7.03E-03
28285,8.09E-03,6.81E-03
28286,8.09E-03,6.59E-03
28287,8.09E-03,6.38E-03
28288,8.09E-03,6.18E-03
28289,8.09E-03,5.98E-03
28290,8.09E-03,5.80E-03
28291,8.09E-03,5.62E-03
28292,8.09E-03,5.46E-03
28293,8.09E-03,5.31E-03
28294,8.09E-03,5.16E-03
28295,8.09E-03,5.04E-03
28296,8.09E-03,4.92E-03
28297,8.09E-03,4.82E-03
28298,8.09E-03,4.74E-03
28299,8.09E-03,4.67E-03
28300,8.09E-03,4.62E-03
28301,8.09E-03,4.58E-03
28302,8.09E-03,4.56E-03
28303,8.09E-03,4.56E-03
28304,8.09E-03,4.57E-03
28305,8.09E-03,4.59E-03
28306,8.03E-03,4.63E-03
28307,7.91E-03,4.68E-03
28308,7.80E-03,4.74E-03
28309,7.77E-03,4.82E-03
28310,7.78E-03,4.91E-03
28311,7.79E-03,5.00E-03
28312,7.87E-03,5.11E-03
28313,8.05E-03,5.22E-03
28314,8.29E-03,5.33E-03
28315,8.78E-03,5.43E-03
28316,8.51E-03,5.53E-03
28317,6.71E-03,5.82E-03
28318,6.32E-03,5.71E-03
28319,5.75E-03,5.79E-03
28320,8.56E-03,6.14E-03
28321,9.80E-03,6.11E-03
28322,9.84E-03,6.06E-03
28323,1.01E-02,6.02E-03
28324,1.03E-02,5.98E-03
28325,1.04E-02,5.94E-03
28326,1.04E-02,5.91E-03
28327,1.05E-02,5.89E-03
28328,1.07E-02,5.86E-03
28329,1.11E-02,5.86E-03
28330,9.61E-03,5.90E-03
28331,7.76E-03,5.90E-03
28332,8.11E-03,5.90E-03
28333,7.47E-03,6.63E-03
28334,7.45E-03,1.53E-02
28335,8.08E-03,1.53E-02
28336,7.16E-03,2.38E-02
28337,8.10E-03,1.51E-02
28338,8.10E-03,1.54E-02
28339,7.42E-03,1.24E-02
28340,7.34E-03,1.21E-02
28341,7.64E-03,2.11E-02
28342,7.02E-03,1.28E-02
28343,7.29E-03,1.24E-02
28344,7.72E-03,7.29E-03
28345,7.05E-03,2.46E-02
28346,7.61E-03,1.60E-02
28347,8.91E-03,1.58E-02
28348,8.08E-03,1.59E-02
28349,5.85E-03,1.10E-02
28350,8.21E-03,1.09E-02
28351,8.01E-03,1.06E-02
28352,7.90E-03,1.04E-02
28353,8.10E-03,1.11E-02
28354,8.10E-03,1.50E-02
28355,8.07E-03,1.54E-02
28356,5.57E-03,8.59E-03
28357,7.90E-03,8.67E-03
28358,8.25E-03,2.29E-02
28359,8.86E-03,2.28E-02
28360,7.56E-03,1.21E-02
28361,7.51E-03,1.23E-02
28362,7.43E-03,1.26E-02
28363,7.64E-03,6.16E-03
28364,5.64E-03,6.11E-03
28365,6.41E-03,6.04E-03
28366,7.07E-03,5.91E-03
28367,7.69E-03,5.79E-03
28368,7.57E-03,1.03E-02
28369,9.23E-03,1.57E-02
28370,8.10E-03,1.12E-02
28371,8.10E-03,1.50E-02
28372,7.99E-03,1.55E-02
28373,8.10E-03,1.14E-02
28374,6.30E-03,6.23E-03
28375,7.86E-03,6.18E-03
28376,4.55E-03,6.27E-03
28377,5.41E-03,6.27E-03
28378,8.10E-03,1.50E-02
28379,7.75E-03,1.55E-02
28380,8.10E-03,1.15E-02
28381,8.10E-03,1.49E-02
28382,7.78E-03,1.56E-02
28383,8.10E-03,1.17E-02
28384,8.10E-03,1.18E-02
28385,8.10E-03,1.49E-02
28386,7.91E-03,1.56E-02
28387,8.10E-03,1.48E-02
28388,8.53E-03,1.57E-02
28389,8.10E-03,1.19E-02
28390,8.10E-03,1.48E-02
28391,8.87E-03,1.58E-02
28392,8.10E-03,1.47E-02
28393,9.72E-03,1.58E-02
28394,8.58E-03,1.58E-02
28395,7.95E-03,1.61E-02
28396,7.89E-03,1.60E-02
28397,8.10E-03,1.21E-02
28398,8.10E-03,1.22E-02
28399,7.98E-03,1.60E-02
28400,8.10E-03,1.47E-02
28401,8.25E-03,1.59E-02
28402,8.10E-03,1.60E-02
28403,8.10E-03,1.60E-02
28404,8.10E-03,1.24E-02
28405,8.11E-03,1.59E-02
28406,8.10E-03,1.46E-02
28407,8.10E-03,1.59E-02
28408,8.10E-03,1.25E-02
28409,8.10E-03,1.26E-02
28410,8.10E-03,1.45E-02
28411,8.09E-03,1.59E-02
28412,8.10E-03,1.45E-02
28413,8.10E-03,1.28E-02
28414,8.10E-03,1.29E-02
28415,8.10E-03,1.44E-02
28416,8.10E-03,1.30E-02
28417,8.10E-03,1.31E-02
28418,8.10E-03,1.43E-02
28419,8.10E-03,1.42E-02
28420,8.10E-03,1.33E-02
28421,8.10E-03,1.34E-02
28422,8.10E-03,1.41E-02
28423,8.10E-03,1.35E-02
28424,8.10E-03,1.36E-02
28425,8.10E-03,1.40E-02
28426,8.10E-03,1.39E-02
28427,8.10E-03,1.38E-02
28428,8.10E-03,1.37E-02
28429,7.37E-03,2.34E-02
28430,8.10E-03,1.51E-02
28431,8.10E-03,1.51E-02
28432,8.10E-03,1.52E-02
28433,8.10E-03,1.53E-02
28434,8.10E-03,1.52E-02
28435,8.10E-03,1.52E-02
28436,7.50E-03,1.88E-02
28437,7.72E-03,1.86E-02
28438,8.99E-03,1.83E-02
28439,9.74E-03,1.80E-02
28440,9.56E-03,1.77E-02
28441,8.58E-03,1.75E-02
28442,8.34E-03,1.72E-02
28443,8.25E-03,1.69E-02
28444,8.09E-03,1.67E-02
28445,8.03E-03,1.64E-02
28446,8.03E-03,1.62E-02
28447,7.93E-03,1.59E-02
28448,7.85E-03,1.56E-02
28449,7.76E-03,1.54E-02
28450,8.68E-03,1.51E-02
28451,7.33E-03,1.39E-02
28452,7.20E-03,1.35E-02
28453,7.29E-03,1.37E-02
28454,7.72E-03,1.50E-02
28455,8.21E-03,1.48E-02
28456,8.31E-03,1.46E-02
28457,8.24E-03,1.44E-02
28458,8.09E-03,1.42E-02
28459,8.09E-03,1.40E-02
28460,8.09E-03,1.38E-02
28461,8.09E-03,1.36E-02
28462,8.09E-03,1.34E-02
28463,8.09E-03,1.32E-02
28464,8.09E-03,1.29E-02
28465,8.10E-03,1.27E-02
28466,8.35E-03,1.25E-02
28467,8.44E-03,1.22E-02
28468,8.52E-03,1.20E-02
28469,8.66E-03,1.17E-02
28470,8.12E-03,1.51E-02
28471,7.98E-03,1.51E-02
28472,7.04E-03,1.13E-02
28473,8.08E-03,1.51E-02
28474,8.34E-03,1.51E-02
28475,1.01E-02,1.50E-02
28476,1.00E-02,1.50E-02
28477,9.64E-03,1.50E-02
28478,9.44E-03,1.50E-02
28479,9.36E-03,1.50E-02
28480,9.24E-03,1.50E-02
28481,9.14E-03,1.50E-02
28482,9.14E-03,1.50E-02
28483,9.13E-03,1.50E-02
28484,9.06E-03,1.50E-02
28485,8.86E-03,1.50E-02
28486,8.64E-03,1.50E-02
28487,8.49E-03,1.50E-02
28488,8.39E-03,1.50E-02
28489,8.30E-03,1.50E-02
28490,8.25E-03,1.50E-02
28491,8.24E-03,1.50E-02
28492,8.23E-03,1.50E-02
28493,8.23E-03,1.50E-02
28494,8.21E-03,1.50E-02
28495,8.18E-03,1.50E-02
28496,8.14E-03,1.50E-02
28497,8.09E-03,1.50E-02
28498,8.06E-03,1.50E-02
28499,8.02E-03,1.50E-02
28500,7.98E-03,1.50E-02
28501,7.95E-03,1.50E-02
28502,7.93E-03,1.50E-02
28503,7.95E-03,1.50E-02
28504,8.00E-03,1.49E-02
28505,8.06E-03,1.49E-02
28506,8.11E-03,1.49E-02
28507,8.17E-03,1.49E-02
28508,8.21E-03,1.49E-02
28509,8.27E-03,1.49E-02
28510,8.32E-03,1.49E-02
28511,8.42E-03,1.49E-02
28512,8.55E-03,1.49E-02
28513,8.68E-03,1.49E-02
28514,8.77E-03,1.49E-02
28515,8.83E-03,1.49E-02
28516,8.88E-03,1.49E-02
28517,8.94E-03,1.49E-02
28518,8.99E-03,1.48E-02
28519,9.06E-03,1.48E-02
28520,9.13E-03,1.48E-02
28521,9.21E-03,1.48E-02
28522,9.29E-03,1.48E-02
28523,9.41E-03,1.48E-02
28524,9.56E-03,1.48E-02
28525,9.73E-03,1.48E-02
28526,9.90E-03,1.48E-02
28527,1.00E-02,1.48E-02
28528,1.00E-02,1.48E-02
28529,9.99E-03,1.48E-02
28530,9.92E-03,1.48E-02
28531,9.85E-03,1.48E-02
28532,9.80E-03,1.49E-02
28533,9.74E-03,1.49E-02
28534,9.67E-03,1.49E-02
28535,9.61E-03,1.49E-02
28536,9.62E-03,1.49E-02
28537,9.63E-03,1.49E-02
28538,9.44E-03,1.49E-02
28539,9.04E-03,1.49E-02
28540,8.59E-03,1.50E-02
28541,8.13E-03,1.50E-02
28542,7.84E-03,1.50E-02
28543,7.84E-03,1.50E-02
28544,7.93E-03,1.50E-02
28545,7.85E-03,1.50E-02
28546,7.65E-03,1.50E-02
28547,7.47E-03,1.50E-02
28548,7.30E-03,1.50E-02
28549,7.14E-03,1.50E-02
28550,6.94E-03,1.50E-02
28551,6.69E-03,1.50E-02
28552,6.41E-03,1.50E-02
28553,6.17E-03,1.50E-02
28554,6.01E-03,1.50E-02
28555,5.90E-03,1.50E-02
28556,5.79E-03,1.50E-02
28557,5.70E-03,1.50E-02
28558,5.65E-03,1.50E-02
28559,5.60E-03,1.50E-02
28560,5.52E-03,1.50E-02
28561,5.40E-03,1.50E-02
28562,5.26E-03,1.50E-02
28563,5.16E-03,1.50E-02
28564,5.16E-03,1.50E-02
28565,5.22E-03,1.49E-02
28566,5.29E-03,1.49E-02
28567,5.36E-03,1.49E-02
28568,5.44E-03,1.49E-02
28569,5.52E-03,1.49E-02
28570,5.60E-03,1.48E-02
28571,5.68E-03,1.48E-02
28572,5.76E-03,1.48E-02
28573,5.82E-03,1.48E-02
28574,5.85E-03,1.47E-02
28575,5.88E-03,1.47E-02
28576,5.91E-03,1.47E-02
28577,5.93E-03,1.46E-02
28578,5.97E-03,1.46E-02
28579,5.97E-03,1.46E-02
28580,5.94E-03,1.45E-02
28581,5.88E-03,1.45E-02
28582,5.82E-03,1.45E-02
28583,5.75E-03,1.44E-02
28584,5.66E-03,1.44E-02
28585,5.58E-03,1.44E-02
28586,5.48E-03,1.43E-02
28587,5.32E-03,1.43E-02
28588,5.11E-03,1.43E-02
28589,4.90E-03,1.42E-02
28590,4.71E-03,1.42E-02
28591,4.54E-03,1.42E-02
28592,4.47E-03,1.41E-02
28593,4.57E-03,1.41E-02
28594,4.67E-03,1.41E-02
28595,4.55E-03,1.40E-02
28596,4.50E-03,1.40E-02
28597,5.80E-03,1.40E-02
28598,8.71E-03,1.39E-02
28599,8.75E-03,1.38E-02
28600,1.02E-02,1.38E-02
28601,1.03E-02,1.37E-02
28602,8.72E-03,1.35E-02
28603,9.11E-03,1.34E-02
28604,9.32E-03,1.34E-02
28605,9.27E-03,1.33E-02
28606,9.02E-03,1.32E-02
28607,8.74E-03,8.55E-03
28608,8.66E-03,8.58E-03
28609,8.64E-03,8.61E-03
28610,8.66E-03,8.67E-03
28611,6.90E-03,8.73E-03
28612,6.38E-03,8.78E-03
28613,5.17E-03,8.83E-03
28614,3.73E-03,8.87E-03
28615,3.42E-03,8.90E-03
28616,3.81E-03,8.93E-03
28617,3.85E-03,8.97E-03
28618,3.74E-03,9.01E-03
28619,3.89E-03,9.07E-03
28620,4.12E-03,9.13E-03
28621,5.35E-03,9.22E-03
28622,5.33E-03,9.28E-03
28623,6.31E-03,2.24E-02
28624,8.74E-03,2.23E-02
28625,8.68E-03,2.21E-02
28626,8.05E-03,2.20E-02
28627,7.72E-03,2.18E-02
28628,7.51E-03,2.17E-02
28629,6.46E-03,2.15E-02
28630,6.30E-03,2.13E-02
28631,6.32E-03,2.12E-02
28632,5.80E-03,2.10E-02
28633,5.50E-03,2.09E-02
28634,5.33E-03,2.08E-02
28635,9.13E-03,9.40E-03
28636,8.73E-03,9.24E-03
28637,8.16E-03,9.09E-03
28638,7.95E-03,8.95E-03
28639,7.36E-03,8.82E-03
28640,5.21E-03,8.71E-03
28641,5.13E-03,8.63E-03
28642,4.65E-03,8.55E-03
28643,4.56E-03,8.48E-03
28644,4.31E-03,8.42E-03
28645,3.87E-03,8.35E-03
28646,7.79E-03,1.11E-02
28647,8.43E-03,1.11E-02
28648,8.76E-03,1.10E-02
28649,9.14E-03,1.10E-02
28650,9.07E-03,1.09E-02
28651,9.24E-03,1.08E-02
28652,1.15E-02,1.07E-02
28653,1.06E-02,1.06E-02
28654,9.56E-03,1.05E-02
28655,8.61E-03,1.05E-02
28656,8.17E-03,1.04E-02
28657,8.10E-03,1.03E-02
28658,7.76E-03,1.02E-02
28659,7.42E-03,1.02E-02
28660,7.06E-03,1.01E-02
28661,6.68E-03,1.00E-02
28662,6.39E-03,9.95E-03
28663,6.20E-03,9.89E-03
28664,6.01E-03,9.84E-03
28665,5.83E-03,9.78E-03
28666,5.64E-03,9.73E-03
28667,5.43E-03,9.67E-03
28668,5.16E-03,9.63E-03
28669,4.86E-03,9.58E-03
28670,4.55E-03,9.54E-03
28671,4.25E-03,9.50E-03
28672,4.04E-03,9.46E-03
28673,3.98E-03,9.43E-03
28674,3.97E-03,9.39E-03
28675,3.96E-03,9.36E-03
28676,3.95E-03,9.33E-03
28677,3.94E-03,9.30E-03
28678,3.92E-03,9.27E-03
28679,3.89E-03,9.24E-03
28680,3.84E-03,9.21E-03
28681,3.79E-03,9.18E-03
28682,3.74E-03,9.16E-03
28683,3.68E-03,9.13E-03
28684,3.63E-03,9.11E-03
28685,3.61E-03,9.09E-03
28686,3.66E-03,9.07E-03
28687,3.72E-03,9.05E-03
28688,3.78E-03,9.03E-03
28689,3.88E-03,9.01E-03
28690,4.01E-03,8.99E-03
28691,4.14E-03,8.97E-03
28692,4.28E-03,8.95E-03
28693,4.49E-03,8.93E-03
28694,4.74E-03,8.91E-03
28695,5.00E-03,8.89E-03
28696,5.24E-03,8.87E-03
28697,5.41E-03,8.86E-03
28698,5.54E-03,8.84E-03
28699,5.66E-03,8.82E-03
28700,5.78E-03,8.80E-03
28701,5.89E-03,8.78E-03
28702,6.00E-03,8.77E-03
28703,6.11E-03,8.75E-03
28704,6.21E-03,8.73E-03
28705,6.32E-03,8.72E-03
28706,6.42E-03,8.70E-03
28707,6.53E-03,8.69E-03
28708,6.62E-03,8.67E-03
28709,6.69E-03,8.66E-03
28710,6.74E-03,8.64E-03
28711,6.79E-03,8.63E-03
28712,6.84E-03,8.61E-03
28713,6.89E-03,8.60E-03
28714,6.94E-03,8.59E-03
28715,6.99E-03,8.57E-03
28716,7.04E-03,8.56E-03
28717,7.10E-03,8.55E-03
28718,7.19E-03,8.53E-03
28719,7.29E-03,8.52E-03
28720,7.39E-03,8.51E-03
28721,7.48E-03,8.49E-03
28722,7.54E-03,8.48E-03
28723,7.58E-03,8.46E-03
28724,7.63E-03,8.45E-03
28725,7.67E-03,8.43E-03
28726,7.42E-03,8.41E-03
28727,7.16E-03,8.40E-03
28728,7.07E-03,8.38E-03
28729,6.91E-03,8.36E-03
28730,6.72E-03,8.34E-03
28731,6.50E-03,8.32E-03
28732,6.40E-03,8.30E-03
28733,6.22E-03,8.27E-03
28734,1.27E-03,8.20E-03
28735,2.96E-03,8.30E-03
28736,6.41E-03,1.37E-02
28737,6.07E-03,1.39E-02
28738,5.89E-03,1.42E-02
28739,8.40E-03,1.19E-02
28740,8.11E-03,1.18E-02
28741,8.04E-03,1.17E-02
28742,7.65E-03,1.16E-02
28743,6.89E-03,7.53E-03
28744,7.02E-03,7.68E-03
28745,7.77E-03,2.43E-02
28746,7.86E-03,2.42E-02
28747,6.62E-03,5.93E-03
28748,8.55E-03,2.15E-02
28749,8.48E-03,2.17E-02
28750,9.21E-03,2.19E-02
28751,9.59E-03,2.21E-02
28752,5.08E-03,1.10E-02
28753,8.48E-03,1.20E-02
28754,5.75E-03,1.21E-02
28755,7.39E-03,9.41E-03
28756,7.42E-03,2.36E-02
28757,7.39E-03,2.37E-02
28758,8.10E-03,1.51E-02
28759,8.10E-03,1.53E-02
28760,7.37E-03,1.91E-02
28761,6.85E-03,1.45E-02
28762,7.16E-03,1.43E-02
28763,8.00E-03,1.33E-02
28764,7.72E-03,1.51E-02
28765,8.82E-03,1.14E-02
28766,8.68E-03,1.53E-02
28767,8.07E-03,1.53E-02
28768,8.35E-03,1.53E-02
28769,7.11E-03,1.16E-02
28770,7.65E-03,1.53E-02
28771,8.56E-03,1.30E-02
28772,8.71E-03,2.13E-02
28773,6.35E-03,2.29E-02
28774,8.18E-03,9.27E-03
28775,6.41E-03,1.10E-02
28776,6.81E-03,1.34E-02
28777,5.80E-03,1.21E-02
28778,7.14E-03,1.14E-02
28779,7.23E-03,7.47E-03
28780,7.08E-03,2.46E-02
28781,8.48E-03,1.60E-02
28782,8.54E-03,1.27E-02
28783,6.34E-03,2.38E-02
28784,7.54E-03,1.52E-02
28785,8.73E-03,2.38E-02
28786,8.33E-03,2.40E-02
28787,6.10E-03,1.59E-02
28788,5.71E-03,1.60E-02
28789,7.58E-03,6.07E-03
28790,7.13E-03,6.04E-03
28791,9.73E-03,1.53E-02
28792,8.28E-03,1.54E-02
28793,6.37E-03,1.12E-02
28794,7.64E-03,1.27E-02
28795,6.07E-03,1.27E-02
28796,6.58E-03,1.28E-02
28797,7.85E-03,1.60E-02
28798,7.74E-03,2.07E-02
28799,6.20E-03,1.17E-02
28800,7.61E-03,1.24E-02
28801,8.76E-03,2.34E-02
28802,6.97E-03,1.98E-02
28803,7.77E-03,5.75E-03
28804,8.15E-03,5.76E-03
28805,8.17E-03,5.65E-03
28806,7.96E-03,5.65E-03
28807,1.04E-02,5.63E-03
28808,8.09E-03,1.08E-02
28809,8.09E-03,1.07E-02
28810,8.09E-03,1.05E-02
28811,8.09E-03,1.04E-02
28812,8.09E-03,1.02E-02
28813,8.09E-03,1.01E-02
28814,8.09E-03,9.97E-03
28815,8.09E-03,9.82E-03
28816,8.09E-03,9.68E-03
28817,8.09E-03,9.53E-03
28818,8.09E-03,9.38E-03
28819,8.09E-03,9.23E-03
28820,8.09E-03,9.08E-03
28821,8.09E-03,8.93E-03
28822,8.09E-03,8.78E-03
28823,8.09E-03,8.63E-03
28824,8.09E-03,8.47E-03
28825,8.09E-03,8.32E-03
28826,8.09E-03,8.16E-03
28827,8.09E-03,8.01E-03
28828,8.09E-03,7.85E-03
28829,8.09E-03,7.70E-03
28830,8.09E-03,7.55E-03
28831,8.09E-03,7.39E-03
28832,8.09E-03,7.24E-03
28833,8.09E-03,7.09E-03
28834,8.09E-03,6.94E-03
28835,8.09E-03,6.80E-03
28836,8.09E-03,6.65E-03
28837,8.09E-03,6.51E-03
28838,8.09E-03,6.37E-03
28839,8.09E-03,6.24E-03
28840,8.09E-03,6.11E-03
28841,8.09E-03,5.98E-03
28842,8.09E-03,5.87E-03
28843,8.09E-03,5.75E-03
28844,8.09E-03,5.65E-03
28845,8.09E-03,5.55E-03
28846,8.09E-03,5.46E-03
28847,8.09E-03,5.38E-03
28848,8.09E-03,5.31E-03
28849,8.09E-03,5.25E-03
28850,8.09E-03,5.20E-03
28851,8.09E-03,5.16E-03
28852,8.09E-03,5.14E-03
28853,8.09E-03,5.13E-03
28854,8.09E-03,5.13E-03
28855,8.09E-03,5.14E-03
28856,8.01E-03,5.16E-03
28857,7.67E-03,5.19E-03
28858,7.55E-03,5.24E-03
28859,7.84E-03,5.34E-03
28860,8.93E-03,5.44E-03
28861,1.07E-02,5.54E-03
28862,1.15E-02,5.65E-03
28863,7.53E-03,5.63E-03
28864,8.03E-03,9.91E-03
28865,3.95E-03,9.78E-03
28866,5.46E-03,9.64E-03
28867,8.51E-03,9.42E-03
28868,8.09E-03,9.16E-03
28869,8.09E-03,8.91E-03
28870,8.09E-03,8.66E-03
28871,8.09E-03,8.41E-03
28872,8.09E-03,8.16E-03
28873,8.09E-03,7.92E-03
28874,8.09E-03,7.68E-03
28875,8.09E-03,7.44E-03
28876,8.09E-03,7.21E-03
28877,8.09E-03,6.99E-03
28878,8.09E-03,6.76E-03
28879,8.09E-03,6.55E-03
28880,8.09E-03,6.34E-03
28881,8.09E-03,6.14E-03
28882,8.09E-03,5.94E-03
28883,8.09E-03,5.76E-03
28884,8.09E-03,5.58E-03
28885,8.09E-03,5.41E-03
28886,8.09E-03,5.26E-03
28887,8.09E-03,5.12E-03
28888,8.09E-03,4.99E-03
28889,8.09E-03,4.87E-03
28890,8.09E-03,4.77E-03
28891,8.09E-03,4.68E-03
28892,8.09E-03,4.61E-03
28893,8.09E-03,4.56E-03
28894,8.09E-03,4.52E-03
28895,8.09E-03,4.50E-03
28896,8.09E-03,4.49E-03
28897,8.09E-03,4.50E-03
28898,8.09E-03,4.53E-03
28899,8.09E-03,4.56E-03
28900,8.02E-03,4.61E-03
28901,7.94E-03,4.68E-03
28902,7.90E-03,4.75E-03
28903,7.90E-03,4.84E-03
28904,7.85E-03,4.94E-03
28905,7.86E-03,5.04E-03
28906,8.05E-03,5.15E-03
28907,8.18E-03,5.25E-03
28908,8.01E-03,5.35E-03
28909,7.55E-03,5.46E-03
28910,7.31E-03,5.61E-03
28911,7.25E-03,5.73E-03
28912,8.04E-03,5.86E-03
28913,9.29E-03,6.29E-03
28914,1.03E-02,6.26E-03
28915,1.02E-02,6.21E-03
28916,1.03E-02,6.16E-03
28917,1.05E-02,6.12E-03
28918,1.05E-02,6.08E-03
28919,1.06E-02,6.05E-03
28920,1.07E-02,6.03E-03
28921,1.07E-02,6.01E-03
28922,9.78E-03,6.01E-03
28923,9.50E-03,6.02E-03
28924,9.15E-03,6.01E-03
28925,9.39E-03,6.03E-03
28926,7.11E-03,6.00E-03
28927,7.50E-03,6.10E-03
28928,6.41E-03,6.13E-03
28929,4.78E-03,1.09E-02
28930,3.06E-03,1.48E-02
28931,3.16E-03,1.52E-02
28932,3.49E-03,1.53E-02
28933,3.62E-03,1.55E-02
28934,3.83E-03,1.57E-02
28935,3.90E-03,1.59E-02
28936,4.17E-03,1.61E-02
28937,4.36E-03,1.63E-02
28938,4.38E-03,1.65E-02
28939,4.33E-03,1.68E-02
28940,4.22E-03,1.70E-02
28941,4.10E-03,1.72E-02
28942,3.87E-03,1.74E-02
28943,3.56E-03,1.75E-02
28944,3.96E-03,1.78E-02
28945,4.08E-03,1.81E-02
28946,3.97E-03,1.83E-02
28947,3.87E-03,1.85E-02
28948,3.93E-03,1.86E-02
28949,4.01E-03,1.88E-02
28950,4.10E-03,1.89E-02
28951,4.21E-03,1.91E-02
28952,4.23E-03,1.93E-02
28953,4.10E-03,1.95E-02
28954,4.23E-03,1.96E-02
28955,4.23E-03,1.98E-02
28956,4.40E-03,2.00E-02
28957,7.86E-03,1.60E-02
28958,7.34E-03,1.53E-02
28959,6.87E-03,1.52E-02
28960,6.30E-03,1.50E-02
28961,5.60E-03,1.49E-02
28962,5.46E-03,1.48E-02
28963,5.35E-03,1.47E-02
28964,5.46E-03,1.46E-02
28965,5.58E-03,1.44E-02
28966,5.70E-03,1.43E-02
28967,5.66E-03,1.42E-02
28968,5.61E-03,1.41E-02
28969,5.55E-03,1.39E-02
28970,5.51E-03,1.38E-02
28971,5.49E-03,1.37E-02
28972,5.51E-03,1.36E-02
28973,5.53E-03,1.35E-02
28974,5.66E-03,1.33E-02
28975,5.79E-03,1.32E-02
28976,5.89E-03,1.31E-02
28977,6.01E-03,1.30E-02
28978,6.12E-03,1.28E-02
28979,6.21E-03,1.27E-02
28980,6.30E-03,1.26E-02
28981,6.42E-03,1.24E-02
28982,6.49E-03,1.23E-02
28983,6.56E-03,1.21E-02
28984,6.63E-03,1.20E-02
28985,6.69E-03,1.19E-02
28986,6.74E-03,1.17E-02
28987,6.79E-03,1.16E-02
28988,6.83E-03,1.14E-02
28989,6.88E-03,1.13E-02
28990,6.93E-03,1.11E-02
28991,6.99E-03,1.10E-02
28992,7.05E-03,1.08E-02
28993,7.13E-03,1.07E-02
28994,7.20E-03,1.06E-02
28995,7.27E-03,1.04E-02
28996,7.34E-03,1.03E-02
28997,7.41E-03,1.01E-02
28998,7.48E-03,9.96E-03
28999,7.54E-03,9.81E-03
29000,7.58E-03,9.66E-03
29001,7.61E-03,9.51E-03
29002,7.64E-03,9.36E-03
29003,7.67E-03,9.21E-03
29004,7.70E-03,9.07E-03
29005,7.72E-03,8.92E-03
29006,7.75E-03,8.78E-03
29007,7.78E-03,8.64E-03
29008,7.81E-03,8.50E-03
29009,7.83E-03,8.36E-03
29010,7.85E-03,8.23E-03
29011,7.86E-03,8.09E-03
29012,7.86E-03,7.96E-03
29013,7.86E-03,7.84E-03
29014,7.86E-03,7.71E-03
29015,7.86E-03,7.59E-03
29016,7.86E-03,7.47E-03
29017,7.86E-03,7.36E-03
29018,7.86E-03,7.25E-03
29019,7.84E-03,7.14E-03
29020,7.82E-03,7.04E-03
29021,7.80E-03,6.94E-03
29022,7.78E-03,6.85E-03
29023,7.76E-03,6.76E-03
29024,7.74E-03,6.68E-03
29025,7.72E-03,6.60E-03
29026,7.69E-03,6.52E-03
29027,7.67E-03,6.45E-03
29028,7.64E-03,6.38E-03
29029,7.62E-03,6.32E-03
29030,7.59E-03,6.26E-03
29031,7.56E-03,6.21E-03
29032,7.52E-03,6.16E-03
29033,7.48E-03,6.11E-03
29034,7.44E-03,6.07E-03
29035,7.40E-03,6.04E-03
29036,7.36E-03,6.00E-03
29037,7.32E-03,5.97E-03
29038,7.28E-03,5.95E-03
29039,7.24E-03,5.92E-03
29040,7.20E-03,5.90E-03
29041,7.02E-03,5.89E-03
29042,6.94E-03,5.88E-03
29043,6.79E-03,5.87E-03
29044,6.62E-03,5.86E-03
29045,6.32E-03,5.85E-03
29046,6.29E-03,5.85E-03
29047,5.87E-03,5.84E-03
29048,5.85E-03,5.84E-03
29049,5.33E-03,5.83E-03
29050,5.26E-03,5.83E-03
29051,5.22E-03,5.81E-03
29052,5.37E-03,5.79E-03
29053,5.87E-03,5.82E-03
29054,6.72E-03,1.21E-02
29055,7.08E-03,1.23E-02
29056,7.66E-03,6.60E-03
29057,6.53E-03,1.07E-02
29058,7.46E-03,1.05E-02
29059,7.96E-03,7.04E-03
29060,7.29E-03,7.10E-03
29061,8.59E-03,2.31E-02
29062,8.41E-03,9.36E-03
29063,8.18E-03,9.58E-03
29064,8.24E-03,9.75E-03
29065,8.40E-03,9.90E-03
29066,7.57E-03,1.09E-02
29067,7.89E-03,1.11E-02
29068,7.44E-03,2.03E-02
29069,8.54E-03,1.54E-02
29070,6.34E-03,1.50E-02
29071,4.65E-03,1.47E-02
29072,6.38E-03,1.95E-02
29073,7.50E-03,2.38E-02
29074,8.10E-03,1.51E-02
29075,8.10E-03,1.54E-02
29076,6.84E-03,1.93E-02
29077,5.33E-03,1.45E-02
29078,7.80E-03,1.27E-02
29079,8.62E-03,1.30E-02
29080,8.79E-03,1.54E-02
29081,7.23E-03,1.19E-02
29082,9.08E-03,1.55E-02
29083,6.73E-03,1.55E-02
29084,8.03E-03,1.29E-02
29085,8.27E-03,2.12E-02
29086,6.18E-03,2.34E-02
29087,6.03E-03,1.13E-02
29088,6.92E-03,1.31E-02
29089,8.34E-03,1.23E-02
29090,8.02E-03,1.22E-02
29091,5.36E-03,7.42E-03
29092,7.24E-03,2.46E-02
29093,7.91E-03,1.23E-02
29094,7.77E-03,1.60E-02
29095,8.29E-03,1.58E-02
29096,7.95E-03,1.59E-02
29097,7.39E-03,2.01E-02
29098,7.90E-03,1.01E-02
29099,8.10E-03,1.09E-02
29100,7.36E-03,1.12E-02
29101,7.74E-03,2.50E-02
29102,7.92E-03,2.40E-02
29103,8.10E-03,1.51E-02
29104,8.10E-03,1.54E-02
29105,9.36E-03,8.71E-03
29106,5.91E-03,8.79E-03
29107,7.24E-03,1.03E-02
29108,8.28E-03,1.01E-02
29109,6.99E-03,2.11E-02
29110,9.01E-03,2.31E-02
29111,7.08E-03,1.28E-02
29112,6.30E-03,6.19E-03
29113,5.39E-03,6.22E-03
29114,6.77E-03,6.22E-03
29115,6.78E-03,6.04E-03
29116,7.04E-03,5.90E-03
29117,8.14E-03,1.02E-02
29118,8.02E-03,1.55E-02
29119,8.08E-03,1.55E-02
29120,9.36E-03,1.57E-02
29121,7.33E-03,1.60E-02
29122,8.82E-03,8.34E-03
29123,7.16E-03,8.70E-03
29124,7.73E-03,8.61E-03
29125,8.10E-03,1.11E-02
29126,7.61E-03,1.03E-02
29127,7.68E-03,6.79E-03
29128,7.84E-03,6.76E-03
29129,8.10E-03,1.50E-02
29130,8.10E-03,1.55E-02
29131,7.39E-03,1.55E-02
29132,7.21E-03,1.57E-02
29133,8.10E-03,1.12E-02
29134,1.01E-02,2.27E-02
29135,7.15E-03,1.26E-02
29136,5.81E-03,6.34E-03
29137,6.67E-03,6.30E-03
29138,6.54E-03,6.31E-03
29139,4.92E-03,6.40E-03
29140,7.05E-03,6.14E-03
29141,8.15E-03,1.59E-02
29142,8.10E-03,1.50E-02
29143,8.00E-03,1.55E-02
29144,8.73E-03,1.55E-02
29145,8.06E-03,5.77E-03
29146,5.02E-03,5.79E-03
29147,8.10E-03,1.14E-02
29148,8.10E-03,1.50E-02
29149,7.91E-03,1.55E-02
29150,8.10E-03,1.17E-02
29151,8.10E-03,1.15E-02
29152,8.10E-03,1.49E-02
29153,7.95E-03,1.56E-02
29154,9.18E-03,2.51E-02
29155,8.10E-03,1.49E-02
29156,8.33E-03,1.56E-02
29157,8.10E-03,1.18E-02
29158,8.10E-03,1.48E-02
29159,9.83E-03,1.57E-02
29160,9.85E-03,1.57E-02
29161,8.10E-03,1.48E-02
29162,9.14E-03,1.58E-02
29163,8.60E-03,1.57E-02
29164,7.82E-03,1.59E-02
29165,8.10E-03,1.20E-02
29166,8.10E-03,1.21E-02
29167,7.98E-03,1.59E-02
29168,8.10E-03,1.47E-02
29169,8.50E-03,1.57E-02
29170,8.10E-03,1.59E-02
29171,8.10E-03,1.59E-02
29172,8.10E-03,1.22E-02
29173,8.20E-03,1.58E-02
29174,8.10E-03,1.46E-02
29175,8.10E-03,1.59E-02
29176,8.10E-03,1.24E-02
29177,8.10E-03,1.25E-02
29178,8.10E-03,1.46E-02
29179,8.19E-03,1.58E-02
29180,8.10E-03,1.45E-02
29181,8.10E-03,1.58E-02
29182,8.10E-03,1.27E-02
29183,8.10E-03,1.28E-02
29184,8.10E-03,1.44E-02
29185,8.10E-03,1.30E-02
29186,8.10E-03,1.29E-02
29187,8.10E-03,1.43E-02
29188,8.10E-03,1.42E-02
29189,8.10E-03,1.32E-02
29190,8.10E-03,1.33E-02
29191,8.10E-03,1.41E-02
29192,8.10E-03,1.35E-02
29193,8.10E-03,1.34E-02
29194,8.10E-03,1.40E-02
29195,8.10E-03,1.39E-02
29196,8.10E-03,1.38E-02
29197,8.10E-03,1.36E-02
29198,8.10E-03,1.37E-02
29199,4.34E-03,2.03E-02
29200,4.89E-03,2.10E-02
29201,4.39E-03,2.08E-02
29202,4.41E-03,2.07E-02
29203,7.40E-03,2.36E-02
29204,8.10E-03,1.51E-02
29205,8.10E-03,1.52E-02
29206,8.10E-03,1.52E-02
29207,8.10E-03,1.53E-02
29208,8.10E-03,1.52E-02
29209,8.10E-03,1.52E-02
29210,7.56E-03,1.89E-02
29211,7.91E-03,1.86E-02
29212,8.32E-03,1.84E-02
29213,8.46E-03,1.81E-02
29214,1.11E-02,1.78E-02
29215,8.44E-03,1.75E-02
29216,8.30E-03,1.72E-02
29217,8.28E-03,1.70E-02
29218,8.03E-03,1.67E-02
29219,8.03E-03,1.65E-02
29220,7.98E-03,1.62E-02
29221,7.89E-03,1.59E-02
29222,7.76E-03,1.57E-02
29223,7.78E-03,1.54E-02
29224,7.74E-03,1.52E-02
29225,7.44E-03,1.40E-02
29226,7.47E-03,1.35E-02
29227,7.32E-03,1.38E-02
29228,7.89E-03,1.49E-02
29229,8.21E-03,1.47E-02
29230,8.28E-03,1.45E-02
29231,8.20E-03,1.44E-02
29232,8.14E-03,1.42E-02
29233,8.09E-03,1.39E-02
29234,8.09E-03,1.37E-02
29235,8.09E-03,1.35E-02
29236,8.09E-03,1.33E-02
29237,8.09E-03,1.31E-02
29238,8.09E-03,1.29E-02
29239,8.10E-03,1.27E-02
29240,8.28E-03,1.24E-02
29241,8.37E-03,1.22E-02
29242,8.41E-03,1.19E-02
29243,8.64E-03,1.17E-02
29244,8.50E-03,1.53E-02
29245,8.55E-03,1.53E-02
29246,6.72E-03,1.14E-02
29247,8.19E-03,1.53E-02
29248,8.32E-03,1.52E-02
29249,1.00E-02,1.52E-02
29250,9.94E-03,1.52E-02
29251,9.66E-03,1.52E-02
29252,9.42E-03,1.52E-02
29253,9.35E-03,1.52E-02
29254,9.16E-03,1.52E-02
29255,9.11E-03,1.51E-02
29256,9.11E-03,1.51E-02
29257,9.11E-03,1.51E-02
29258,9.03E-03,1.51E-02
29259,8.85E-03,1.51E-02
29260,8.63E-03,1.51E-02
29261,8.48E-03,1.51E-02
29262,8.38E-03,1.51E-02
29263,8.29E-03,1.51E-02
29264,8.24E-03,1.51E-02
29265,8.23E-03,1.51E-02
29266,8.23E-03,1.51E-02
29267,8.22E-03,1.51E-02
29268,8.21E-03,1.51E-02
29269,8.17E-03,1.51E-02
29270,8.14E-03,1.51E-02
29271,8.09E-03,1.51E-02
29272,8.06E-03,1.51E-02
29273,8.02E-03,1.51E-02
29274,7.98E-03,1.51E-02
29275,7.95E-03,1.51E-02
29276,7.93E-03,1.51E-02
29277,7.95E-03,1.51E-02
29278,8.00E-03,1.51E-02
29279,8.06E-03,1.51E-02
29280,8.11E-03,1.51E-02
29281,8.16E-03,1.51E-02
29282,8.21E-03,1.51E-02
29283,8.26E-03,1.51E-02
29284,8.32E-03,1.51E-02
29285,8.41E-03,1.51E-02
29286,8.54E-03,1.50E-02
29287,8.67E-03,1.50E-02
29288,8.76E-03,1.50E-02
29289,8.81E-03,1.50E-02
29290,8.87E-03,1.50E-02
29291,8.92E-03,1.50E-02
29292,8.97E-03,1.50E-02
29293,9.04E-03,1.50E-02
29294,9.11E-03,1.50E-02
29295,9.19E-03,1.50E-02
29296,9.27E-03,1.49E-02
29297,9.38E-03,1.49E-02
29298,9.53E-03,1.49E-02
29299,9.70E-03,1.49E-02
29300,9.86E-03,1.49E-02
29301,9.96E-03,1.49E-02
29302,9.98E-03,1.49E-02
29303,9.95E-03,1.49E-02
29304,9.88E-03,1.49E-02
29305,9.81E-03,1.49E-02
29306,9.76E-03,1.49E-02
29307,9.70E-03,1.49E-02
29308,9.63E-03,1.50E-02
29309,9.58E-03,1.50E-02
29310,9.59E-03,1.50E-02
29311,9.60E-03,1.50E-02
29312,9.41E-03,1.50E-02
29313,9.02E-03,1.50E-02
29314,8.58E-03,1.50E-02
29315,8.13E-03,1.50E-02
29316,7.84E-03,1.50E-02
29317,7.85E-03,1.51E-02
29318,7.94E-03,1.51E-02
29319,7.86E-03,1.51E-02
29320,7.66E-03,1.51E-02
29321,7.48E-03,1.51E-02
29322,7.32E-03,1.51E-02
29323,7.16E-03,1.51E-02
29324,6.97E-03,1.51E-02
29325,6.72E-03,1.51E-02
29326,6.44E-03,1.51E-02
29327,6.21E-03,1.51E-02
29328,6.06E-03,1.51E-02
29329,5.95E-03,1.51E-02
29330,5.84E-03,1.51E-02
29331,5.76E-03,1.51E-02
29332,5.70E-03,1.51E-02
29333,5.65E-03,1.51E-02
29334,5.58E-03,1.50E-02
29335,5.46E-03,1.50E-02
29336,5.33E-03,1.50E-02
29337,5.23E-03,1.50E-02
29338,5.23E-03,1.50E-02
29339,5.29E-03,1.50E-02
29340,5.35E-03,1.50E-02
29341,5.43E-03,1.49E-02
29342,5.50E-03,1.49E-02
29343,5.58E-03,1.49E-02
29344,5.66E-03,1.49E-02
29345,5.74E-03,1.48E-02
29346,5.81E-03,1.48E-02
29347,5.87E-03,1.48E-02
29348,5.90E-03,1.47E-02
29349,5.93E-03,1.47E-02
29350,5.96E-03,1.47E-02
29351,5.98E-03,1.46E-02
29352,6.02E-03,1.46E-02
29353,6.02E-03,1.46E-02
29354,5.99E-03,1.45E-02
29355,5.93E-03,1.45E-02
29356,5.87E-03,1.45E-02
29357,5.80E-03,1.44E-02
29358,5.72E-03,1.44E-02
29359,5.64E-03,1.43E-02
29360,5.54E-03,1.43E-02
29361,5.38E-03,1.43E-02
29362,5.18E-03,1.42E-02
29363,4.98E-03,1.42E-02
29364,4.79E-03,1.42E-02
29365,4.62E-03,1.41E-02
29366,4.55E-03,1.41E-02
29367,4.65E-03,1.41E-02
29368,4.74E-03,1.40E-02
29369,4.63E-03,1.40E-02
29370,4.58E-03,1.40E-02
29371,5.85E-03,1.39E-02
29372,8.73E-03,1.39E-02
29373,8.75E-03,1.38E-02
29374,1.03E-02,1.37E-02
29375,1.04E-02,1.36E-02
29376,1.13E-02,1.35E-02
29377,1.08E-02,1.35E-02
29378,9.59E-03,1.34E-02
29379,9.50E-03,1.33E-02
29380,9.12E-03,1.32E-02
29381,8.78E-03,1.31E-02
29382,8.40E-03,8.68E-03
29383,8.41E-03,8.73E-03
29384,8.49E-03,8.77E-03
29385,8.57E-03,8.83E-03
29386,6.92E-03,8.88E-03
29387,6.42E-03,8.93E-03
29388,5.24E-03,8.97E-03
29389,3.83E-03,9.01E-03
29390,3.52E-03,9.04E-03
29391,3.90E-03,9.07E-03
29392,3.94E-03,9.10E-03
29393,3.83E-03,9.14E-03
29394,3.97E-03,9.18E-03
29395,4.50E-03,9.25E-03
29396,5.41E-03,9.32E-03
29397,6.40E-03,9.44E-03
29398,9.36E-03,9.41E-03
29399,7.42E-03,9.98E-03
29400,8.33E-03,9.79E-03
29401,8.09E-03,9.60E-03
29402,8.09E-03,2.15E-02
29403,6.92E-03,2.19E-02
29404,7.44E-03,2.17E-02
29405,5.91E-03,2.28E-02
29406,8.99E-03,2.26E-02
29407,8.73E-03,2.25E-02
29408,7.90E-03,2.24E-02
29409,7.76E-03,2.22E-02
29410,7.57E-03,2.21E-02
29411,6.31E-03,2.19E-02
29412,6.28E-03,2.17E-02
29413,6.22E-03,2.16E-02
29414,5.70E-03,2.14E-02
29415,5.54E-03,2.13E-02
29416,5.32E-03,2.12E-02
29417,8.40E-03,2.50E-02
29418,8.90E-03,9.16E-03
29419,8.64E-03,9.01E-03
29420,8.14E-03,8.87E-03
29421,7.92E-03,8.73E-03
29422,7.47E-03,8.60E-03
29423,5.12E-03,8.50E-03
29424,5.04E-03,8.42E-03
29425,4.66E-03,8.34E-03
29426,4.51E-03,8.27E-03
29427,4.31E-03,8.20E-03
29428,4.01E-03,8.15E-03
29429,7.79E-03,1.10E-02
29430,8.28E-03,1.09E-02
29431,8.35E-03,1.09E-02
29432,8.60E-03,1.08E-02
29433,8.82E-03,1.08E-02
29434,8.94E-03,1.07E-02
29435,1.13E-02,1.06E-02
29436,1.06E-02,1.05E-02
29437,9.52E-03,1.04E-02
29438,8.44E-03,1.03E-02
29439,8.29E-03,1.02E-02
29440,8.20E-03,1.02E-02
29441,7.72E-03,1.01E-02
29442,7.43E-03,1.00E-02
29443,7.08E-03,9.94E-03
29444,6.71E-03,9.87E-03
29445,6.43E-03,9.81E-03
29446,6.24E-03,9.75E-03
29447,6.06E-03,9.69E-03
29448,5.88E-03,9.63E-03
29449,5.70E-03,9.58E-03
29450,5.49E-03,9.53E-03
29451,5.22E-03,9.48E-03
29452,4.93E-03,9.43E-03
29453,4.63E-03,9.39E-03
29454,4.34E-03,9.35E-03
29455,4.13E-03,9.31E-03
29456,4.07E-03,9.27E-03
29457,4.07E-03,9.24E-03
29458,4.06E-03,9.20E-03
29459,4.04E-03,9.17E-03
29460,4.03E-03,9.14E-03
29461,4.02E-03,9.11E-03
29462,3.98E-03,9.08E-03
29463,3.94E-03,9.05E-03
29464,3.89E-03,9.02E-03
29465,3.83E-03,8.99E-03
29466,3.78E-03,8.97E-03
29467,3.73E-03,8.94E-03
29468,3.71E-03,8.92E-03
29469,3.76E-03,8.90E-03
29470,3.82E-03,8.88E-03
29471,3.88E-03,8.86E-03
29472,3.97E-03,8.84E-03
29473,4.10E-03,8.82E-03
29474,4.23E-03,8.80E-03
29475,4.37E-03,8.78E-03
29476,4.57E-03,8.76E-03
29477,4.82E-03,8.74E-03
29478,5.07E-03,8.72E-03
29479,5.30E-03,8.70E-03
29480,5.47E-03,8.68E-03
29481,5.59E-03,8.66E-03
29482,5.71E-03,8.64E-03
29483,5.83E-03,8.62E-03
29484,5.94E-03,8.60E-03
29485,6.05E-03,8.58E-03
29486,6.15E-03,8.57E-03
29487,6.25E-03,8.55E-03
29488,6.36E-03,8.53E-03
29489,6.46E-03,8.51E-03
29490,6.56E-03,8.50E-03
29491,6.66E-03,8.48E-03
29492,6.72E-03,8.47E-03
29493,6.77E-03,8.45E-03
29494,6.82E-03,8.43E-03
29495,6.87E-03,8.42E-03
29496,6.91E-03,8.41E-03
29497,6.96E-03,8.39E-03
29498,7.01E-03,8.38E-03
29499,7.06E-03,8.36E-03
29500,7.12E-03,8.35E-03
29501,7.21E-03,8.33E-03
29502,7.31E-03,8.32E-03
29503,7.41E-03,8.30E-03
29504,7.49E-03,8.29E-03
29505,7.55E-03,8.27E-03
29506,7.59E-03,8.25E-03
29507,7.64E-03,8.24E-03
29508,7.68E-03,8.22E-03
29509,7.45E-03,8.20E-03
29510,7.19E-03,8.18E-03
29511,7.09E-03,8.16E-03
29512,6.93E-03,8.15E-03
29513,6.74E-03,8.12E-03
29514,6.52E-03,8.10E-03
29515,6.40E-03,8.08E-03
29516,6.29E-03,8.05E-03
29517,5.98E-03,8.03E-03
29518,6.91E-03,8.03E-03
29519,3.84E-03,8.01E-03
29520,2.99E-03,8.06E-03
29521,3.45E-03,8.13E-03
29522,6.27E-03,1.36E-02
29523,5.90E-03,1.39E-02
29524,5.50E-03,1.42E-02
29525,4.76E-03,1.43E-02
29526,2.89E-03,1.50E-02
29527,2.78E-03,1.51E-02
29528,3.22E-03,1.52E-02
29529,3.42E-03,1.54E-02
29530,3.58E-03,1.56E-02
29531,3.83E-03,1.57E-02
29532,3.99E-03,1.59E-02
29533,4.34E-03,1.61E-02
29534,4.37E-03,1.64E-02
29535,4.44E-03,1.66E-02
29536,4.42E-03,1.68E-02
29537,4.32E-03,1.70E-02
29538,4.25E-03,1.72E-02
29539,4.21E-03,1.75E-02
29540,4.16E-03,1.77E-02
29541,4.09E-03,1.80E-02
29542,4.34E-03,1.82E-02
29543,3.34E-03,1.83E-02
29544,4.30E-03,1.84E-02
29545,3.99E-03,1.86E-02
29546,4.02E-03,1.89E-02
29547,4.13E-03,1.91E-02
29548,4.19E-03,1.92E-02
29549,4.27E-03,1.94E-02
29550,4.31E-03,1.96E-02
29551,4.14E-03,1.98E-02
29552,4.19E-03,2.00E-02
29553,4.22E-03,2.02E-02
29554,4.23E-03,2.03E-02
29555,4.20E-03,2.05E-02
29556,6.01E-03,1.20E-02
29557,8.74E-03,1.19E-02
29558,9.56E-03,1.18E-02
29559,8.88E-03,1.17E-02
29560,8.78E-03,1.16E-02
29561,8.54E-03,1.15E-02
29562,7.33E-03,7.62E-03
29563,6.81E-03,7.89E-03
29564,7.27E-03,7.75E-03
29565,7.40E-03,2.46E-02
29566,8.20E-03,2.45E-02
29567,7.96E-03,2.45E-02
29568,8.77E-03,8.46E-03
29569,5.53E-03,2.40E-02
29570,8.11E-03,1.26E-02
29571,6.35E-03,1.26E-02
29572,8.09E-03,1.06E-02
29573,4.78E-03,9.41E-03
29574,5.66E-03,9.44E-03
29575,7.86E-03,1.59E-02
29576,8.17E-03,2.05E-02
29577,7.81E-03,2.10E-02
29578,6.05E-03,1.22E-02
29579,6.76E-03,1.24E-02
29580,6.45E-03,1.06E-02
29581,7.09E-03,1.04E-02
29582,8.55E-03,1.24E-02
29583,9.16E-03,2.34E-02
29584,8.73E-03,1.55E-02
29585,6.91E-03,1.96E-02
29586,8.18E-03,5.77E-03
29587,8.28E-03,5.76E-03
29588,1.12E-02,5.78E-03
29589,9.45E-03,5.82E-03
29590,9.07E-03,5.79E-03
29591,9.03E-03,5.87E-03
29592,4.04E-03,9.73E-03
29593,5.53E-03,9.59E-03
29594,8.49E-03,9.37E-03
29595,8.09E-03,9.11E-03
29596,8.09E-03,8.86E-03
29597,8.09E-03,8.61E-03
29598,8.09E-03,8.36E-03
29599,8.09E-03,8.12E-03
29600,8.09E-03,7.88E-03
29601,8.09E-03,7.64E-03
29602,8.09E-03,7.40E-03
29603,8.09E-03,7.17E-03
29604,8.09E-03,6.95E-03
29605,8.09E-03,6.72E-03
29606,8.09E-03,6.51E-03
29607,8.09E-03,6.30E-03
29608,8.09E-03,6.10E-03
29609,8.09E-03,5.90E-03
29610,8.09E-03,5.72E-03
29611,8.09E-03,5.54E-03
29612,8.09E-03,5.37E-03
29613,8.09E-03,5.22E-03
29614,8.09E-03,5.07E-03
29615,8.09E-03,4.94E-03
29616,8.09E-03,4.82E-03
29617,8.09E-03,4.72E-03
29618,8.09E-03,4.63E-03
29619,8.09E-03,4.56E-03
29620,8.09E-03,4.50E-03
29621,8.09E-03,4.46E-03
29622,8.09E-03,4.44E-03
29623,8.09E-03,4.43E-03
29624,8.09E-03,4.44E-03
29625,8.09E-03,4.46E-03
29626,8.09E-03,4.50E-03
29627,8.09E-03,4.55E-03
29628,8.02E-03,4.61E-03
29629,7.94E-03,4.69E-03
29630,7.97E-03,4.77E-03
29631,8.04E-03,4.87E-03
29632,8.09E-03,4.97E-03
29633,8.09E-03,5.08E-03
29634,8.06E-03,5.18E-03
29635,7.86E-03,5.29E-03
29636,7.71E-03,5.42E-03
29637,7.63E-03,5.54E-03
29638,7.66E-03,5.68E-03
29639,7.63E-03,5.80E-03
29640,7.62E-03,5.94E-03
29641,7.95E-03,6.08E-03
29642,6.58E-03,9.32E-03
29643,7.55E-03,9.18E-03
29644,8.85E-03,2.22E-02
29645,6.55E-03,2.21E-02
29646,7.62E-03,2.39E-02
29647,7.08E-03,2.39E-02
29648,8.10E-03,1.51E-02
29649,8.10E-03,1.53E-02
29650,7.20E-03,1.91E-02
29651,5.82E-03,1.47E-02
29652,6.55E-03,1.49E-02
29653,8.09E-03,1.43E-02
29654,8.68E-03,1.33E-02
29655,8.00E-03,1.50E-02
29656,8.52E-03,1.14E-02
29657,8.83E-03,1.54E-02
29658,9.69E-03,1.55E-02
29659,7.05E-03,1.17E-02
29660,7.75E-03,1.55E-02
29661,8.46E-03,1.30E-02
29662,8.28E-03,2.14E-02
29663,5.54E-03,2.19E-02
29664,6.24E-03,2.33E-02
29665,5.63E-03,1.11E-02
29666,5.54E-03,1.10E-02
29667,5.59E-03,1.09E-02
29668,5.80E-03,1.08E-02
29669,8.88E-03,9.94E-03
29670,8.04E-03,9.03E-03
29671,7.25E-03,1.09E-02
29672,6.81E-03,1.34E-02
29673,7.52E-03,1.21E-02
29674,8.07E-03,1.13E-02
29675,7.11E-03,7.55E-03
29676,7.89E-03,1.23E-02
29677,7.83E-03,1.59E-02
29678,9.11E-03,1.58E-02
29679,6.76E-03,1.06E-02
29680,8.18E-03,1.59E-02
29681,6.99E-03,1.99E-02
29682,7.94E-03,9.87E-03
29683,1.10E-02,6.45E-03
29684,1.06E-02,6.41E-03
29685,1.04E-02,6.36E-03
29686,1.05E-02,6.31E-03
29687,1.07E-02,6.26E-03
29688,1.07E-02,6.23E-03
29689,1.07E-02,6.20E-03
29690,1.07E-02,6.17E-03
29691,1.05E-02,6.16E-03
29692,9.86E-03,6.16E-03
29693,9.49E-03,6.16E-03
29694,9.61E-03,6.16E-03
29695,8.89E-03,6.18E-03
29696,8.33E-03,6.20E-03
29697,8.29E-03,6.23E-03
29698,9.41E-03,6.24E-03
29699,8.39E-03,5.89E-03
29700,8.09E-03,1.08E-02
29701,8.09E-03,1.07E-02
29702,8.09E-03,1.05E-02
29703,8.09E-03,1.04E-02
29704,8.09E-03,1.03E-02
29705,8.09E-03,1.01E-02
29706,8.09E-03,9.98E-03
29707,8.09E-03,9.84E-03
29708,8.09E-03,9.69E-03
29709,8.09E-03,9.55E-03
29710,8.09E-03,9.40E-03
29711,8.09E-03,9.25E-03
29712,8.09E-03,9.10E-03
29713,8.09E-03,8.95E-03
29714,8.09E-03,8.79E-03
29715,8.09E-03,8.64E-03
29716,8.09E-03,8.49E-03
29717,8.09E-03,8.33E-03
29718,8.09E-03,8.18E-03
29719,8.09E-03,8.02E-03
29720,8.09E-03,7.87E-03
29721,8.09E-03,7.71E-03
29722,8.09E-03,7.56E-03
29723,8.09E-03,7.40E-03
29724,8.09E-03,7.25E-03
29725,8.09E-03,7.10E-03
29726,8.09E-03,6.95E-03
29727,8.09E-03,6.80E-03
29728,8.09E-03,6.66E-03
29729,8.09E-03,6.52E-03
29730,8.09E-03,6.38E-03
29731,8.09E-03,6.24E-03
29732,8.09E-03,6.11E-03
29733,8.09E-03,5.98E-03
29734,8.09E-03,5.86E-03
29735,8.09E-03,5.75E-03
29736,8.09E-03,5.64E-03
29737,8.09E-03,5.54E-03
29738,8.09E-03,5.45E-03
29739,8.09E-03,5.37E-03
29740,8.09E-03,5.30E-03
29741,8.09E-03,5.24E-03
29742,8.09E-03,5.19E-03
29743,8.09E-03,5.15E-03
29744,8.09E-03,5.12E-03
29745,8.09E-03,5.10E-03
29746,8.09E-03,5.10E-03
29747,8.09E-03,5.11E-03
29748,7.97E-03,5.14E-03
29749,7.89E-03,5.17E-03
29750,7.91E-03,5.23E-03
29751,8.06E-03,5.32E-03
29752,8.46E-03,5.42E-03
29753,8.38E-03,5.51E-03
29754,6.72E-03,5.53E-03
29755,6.38E-03,5.70E-03
29756,9.12E-03,5.82E-03
29757,6.27E-03,1.15E-02
29758,7.75E-03,2.50E-02
29759,8.13E-03,2.41E-02
29760,7.12E-03,2.41E-02
29761,8.10E-03,1.51E-02
29762,8.10E-03,1.54E-02
29763,7.03E-03,1.94E-02
29764,7.69E-03,1.31E-02
29765,8.88E-03,1.56E-02
29766,7.34E-03,1.19E-02
29767,6.00E-03,1.58E-02
29768,7.38E-03,1.28E-02
29769,7.12E-03,8.79E-03
29770,6.28E-03,8.94E-03
29771,6.92E-03,1.04E-02
29772,6.87E-03,1.03E-02
29773,7.18E-03,1.01E-02
29774,7.82E-03,1.01E-02
29775,7.44E-03,2.13E-02
29776,9.10E-03,2.34E-02
29777,6.19E-03,2.37E-02
29778,8.86E-03,2.37E-02
29779,9.39E-03,2.39E-02
29780,9.28E-03,2.41E-02
29781,6.94E-03,1.31E-02
29782,7.88E-03,1.24E-02
29783,6.90E-03,6.19E-03
29784,6.50E-03,6.04E-03
29785,6.12E-03,2.44E-02
29786,5.82E-03,1.08E-02
29787,7.09E-03,1.54E-02
29788,8.00E-03,1.55E-02
29789,8.32E-03,1.08E-02
29790,7.01E-03,1.11E-02
29791,7.72E-03,1.59E-02
29792,7.09E-03,2.03E-02
29793,5.77E-03,7.42E-03
29794,6.60E-03,8.93E-03
29795,7.36E-03,8.81E-03
29796,7.57E-03,8.69E-03
29797,8.10E-03,1.10E-02
29798,7.75E-03,1.01E-02
29799,9.34E-03,2.42E-02
29800,8.03E-03,1.22E-02
29801,8.06E-03,1.21E-02
29802,8.10E-03,1.51E-02
29803,8.10E-03,1.54E-02
29804,7.11E-03,1.58E-02
29805,7.17E-03,1.59E-02
29806,6.62E-03,1.58E-02
29807,5.83E-03,1.59E-02
29808,8.22E-03,1.03E-02
29809,5.60E-03,1.06E-02
29810,7.18E-03,2.12E-02
29811,7.50E-03,1.02E-02
29812,7.96E-03,6.94E-03
29813,7.57E-03,6.92E-03
29814,8.10E-03,1.11E-02
29815,9.28E-03,2.26E-02
29816,8.92E-03,2.30E-02
29817,6.15E-03,8.59E-03
29818,7.17E-03,1.59E-02
29819,7.12E-03,1.28E-02
29820,6.99E-03,6.44E-03
29821,6.57E-03,6.43E-03
29822,6.56E-03,6.47E-03
29823,6.74E-03,6.17E-03
29824,6.24E-03,6.20E-03
29825,7.29E-03,7.27E-03
29826,1.04E-02,7.22E-03
29827,7.41E-03,1.59E-02
29828,8.10E-03,1.50E-02
29829,8.10E-03,1.55E-02
29830,8.90E-03,1.53E-02
29831,7.23E-03,6.31E-03
29832,7.27E-03,6.33E-03
29833,7.12E-03,6.37E-03
29834,5.91E-03,1.58E-02
29835,5.88E-03,1.58E-02
29836,6.61E-03,5.92E-03
29837,5.10E-03,5.91E-03
29838,3.41E-03,5.81E-03
29839,4.60E-03,5.89E-03
29840,4.94E-03,5.91E-03
29841,5.19E-03,5.90E-03
29842,5.28E-03,5.91E-03
29843,5.47E-03,5.91E-03
29844,5.81E-03,5.91E-03
29845,5.83E-03,5.91E-03
29846,6.32E-03,5.92E-03
29847,6.37E-03,5.91E-03
29848,6.65E-03,5.92E-03
29849,6.80E-03,5.92E-03
29850,6.97E-03,5.93E-03
29851,7.03E-03,5.93E-03
29852,7.22E-03,5.94E-03
29853,7.26E-03,5.96E-03
29854,7.30E-03,5.98E-03
29855,7.34E-03,6.00E-03
29856,7.38E-03,6.02E-03
29857,7.42E-03,6.05E-03
29858,7.45E-03,6.08E-03
29859,7.49E-03,6.12E-03
29860,7.53E-03,6.16E-03
29861,7.57E-03,6.20E-03
29862,7.60E-03,6.25E-03
29863,7.63E-03,6.30E-03
29864,7.65E-03,6.36E-03
29865,7.68E-03,6.43E-03
29866,7.70E-03,6.49E-03
29867,7.73E-03,6.57E-03
29868,7.75E-03,6.64E-03
29869,7.77E-03,6.72E-03
29870,7.79E-03,6.81E-03
29871,7.81E-03,6.90E-03
29872,7.83E-03,7.00E-03
29873,7.84E-03,7.10E-03
29874,7.86E-03,7.20E-03
29875,7.87E-03,7.31E-03
29876,7.87E-03,7.42E-03
29877,7.87E-03,7.54E-03
29878,7.87E-03,7.66E-03
29879,7.87E-03,7.78E-03
29880,7.86E-03,7.91E-03
29881,7.86E-03,8.04E-03
29882,7.86E-03,8.17E-03
29883,7.84E-03,8.31E-03
29884,7.81E-03,8.44E-03
29885,7.79E-03,8.58E-03
29886,7.76E-03,8.72E-03
29887,7.73E-03,8.87E-03
29888,7.70E-03,9.01E-03
29889,7.68E-03,9.16E-03
29890,7.65E-03,9.31E-03
29891,7.62E-03,9.46E-03
29892,7.59E-03,9.61E-03
29893,7.55E-03,9.76E-03
29894,7.49E-03,9.91E-03
29895,7.42E-03,1.01E-02
29896,7.35E-03,1.02E-02
29897,7.29E-03,1.04E-02
29898,7.22E-03,1.05E-02
29899,7.15E-03,1.07E-02
29900,7.08E-03,1.08E-02
29901,7.01E-03,1.10E-02
29902,6.95E-03,1.11E-02
29903,6.91E-03,1.12E-02
29904,6.86E-03,1.14E-02
29905,6.81E-03,1.15E-02
29906,6.77E-03,1.17E-02
29907,6.72E-03,1.18E-02
29908,6.66E-03,1.20E-02
29909,6.59E-03,1.21E-02
29910,6.53E-03,1.23E-02
29911,6.46E-03,1.24E-02
29912,6.39E-03,1.25E-02
29913,6.25E-03,1.27E-02
29914,6.17E-03,1.28E-02
29915,6.05E-03,1.29E-02
29916,5.92E-03,1.31E-02
29917,5.83E-03,1.32E-02
29918,5.65E-03,1.33E-02
29919,5.58E-03,1.34E-02
29920,5.56E-03,1.36E-02
29921,5.55E-03,1.37E-02
29922,5.56E-03,1.38E-02
29923,5.61E-03,1.39E-02
29924,5.66E-03,1.41E-02
29925,5.71E-03,1.42E-02
29926,5.75E-03,1.43E-02
29927,5.68E-03,1.44E-02
29928,5.73E-03,1.45E-02
29929,5.68E-03,1.47E-02
29930,5.64E-03,1.48E-02
29931,5.90E-03,1.49E-02
29932,6.26E-03,1.51E-02
29933,6.37E-03,1.52E-02
29934,6.49E-03,1.53E-02
29935,6.58E-03,1.55E-02
29936,6.38E-03,1.56E-02
29937,6.53E-03,1.58E-02
29938,6.67E-03,1.60E-02
29939,6.78E-03,1.60E-02
29940,8.10E-03,1.13E-02
29941,6.99E-03,6.29E-03
29942,7.25E-03,1.26E-02
29943,8.10E-03,1.50E-02
29944,8.03E-03,1.55E-02
29945,8.53E-03,1.54E-02
29946,8.10E-03,1.16E-02
29947,8.10E-03,1.14E-02
29948,8.10E-03,1.49E-02
29949,8.03E-03,1.55E-02
29950,6.96E-03,2.06E-02
29951,6.22E-03,2.08E-02
29952,9.49E-03,2.55E-02
29953,9.40E-03,2.56E-02
29954,8.29E-03,2.54E-02
29955,8.10E-03,1.49E-02
29956,8.20E-03,1.56E-02
29957,8.10E-03,1.17E-02
29958,8.10E-03,1.48E-02
29959,8.67E-03,1.56E-02
29960,8.10E-03,1.48E-02
29961,9.20E-03,1.57E-02
29962,9.18E-03,1.57E-02
29963,9.61E-03,1.57E-02
29964,8.60E-03,1.56E-02
29965,7.75E-03,1.58E-02
29966,8.10E-03,1.19E-02
29967,8.10E-03,1.20E-02
29968,8.00E-03,1.58E-02
29969,8.10E-03,1.47E-02
29970,8.92E-03,1.58E-02
29971,8.48E-03,1.56E-02
29972,8.10E-03,1.58E-02
29973,8.10E-03,1.58E-02
29974,8.10E-03,1.21E-02
29975,8.32E-03,1.57E-02
29976,8.10E-03,1.47E-02
29977,8.10E-03,1.58E-02
29978,8.10E-03,1.23E-02
29979,8.10E-03,1.24E-02
29980,8.10E-03,1.46E-02
29981,8.22E-03,1.57E-02
29982,8.10E-03,1.45E-02
29983,8.10E-03,1.57E-02
29984,8.10E-03,1.25E-02
29985,8.10E-03,1.27E-02
29986,8.10E-03,1.44E-02
29987,8.10E-03,1.58E-02
29988,8.10E-03,1.29E-02
29989,8.10E-03,1.28E-02
29990,8.10E-03,1.44E-02
29991,8.10E-03,1.43E-02
29992,8.10E-03,1.31E-02
29993,8.10E-03,1.32E-02
29994,8.10E-03,1.42E-02
29995,8.10E-03,1.34E-02
29996,8.10E-03,1.33E-02
29997,8.10E-03,1.41E-02
29998,8.10E-03,1.40E-02
29999,8.10E-03,1.39E-02
30000,8.10E-03,1.35E-02
30001,8.10E-03,1.38E-02
30002,8.10E-03,1.37E-02
30003,5.40E-03,2.14E-02
30004,5.38E-03,2.12E-02
30005,7.37E-03,7.96E-03
30006,8.90E-03,2.49E-02
30007,5.83E-03,9.28E-03
30008,5.33E-03,2.10E-02
30009,6.26E-03,1.12E-02
30010,7.67E-03,2.39E-02
30011,8.10E-03,1.51E-02
30012,8.10E-03,1.52E-02
30013,8.10E-03,1.52E-02
30014,8.10E-03,1.53E-02
30015,8.10E-03,1.53E-02
30016,8.10E-03,1.52E-02
30017,7.59E-03,1.89E-02
30018,7.74E-03,1.87E-02
30019,7.95E-03,1.85E-02
30020,8.36E-03,1.82E-02
30021,1.21E-02,1.79E-02
30022,8.34E-03,1.76E-02
30023,8.21E-03,1.73E-02
30024,8.24E-03,1.70E-02
30025,8.03E-03,1.68E-02
30026,8.03E-03,1.65E-02
30027,7.94E-03,1.62E-02
30028,7.83E-03,1.60E-02
30029,7.76E-03,1.57E-02
30030,7.53E-03,1.54E-02
30031,7.19E-03,1.52E-02
30032,7.56E-03,1.41E-02
30033,7.63E-03,1.35E-02
30034,7.48E-03,1.38E-02
30035,8.13E-03,1.48E-02
30036,8.21E-03,1.47E-02
30037,8.24E-03,1.45E-02
30038,8.21E-03,1.43E-02
30039,8.20E-03,1.41E-02
30040,8.09E-03,1.39E-02
30041,8.09E-03,1.37E-02
30042,8.09E-03,1.35E-02
30043,8.09E-03,1.32E-02
30044,8.09E-03,1.30E-02
30045,8.09E-03,1.28E-02
30046,8.10E-03,1.26E-02
30047,8.22E-03,1.24E-02
30048,8.25E-03,1.21E-02
30049,8.37E-03,1.19E-02
30050,8.48E-03,1.16E-02
30051,8.82E-03,1.55E-02
30052,8.99E-03,1.55E-02
30053,6.58E-03,1.14E-02
30054,8.82E-03,1.55E-02
30055,8.97E-03,1.54E-02
30056,9.76E-03,1.54E-02
30057,9.84E-03,1.54E-02
30058,9.62E-03,1.54E-02
30059,9.44E-03,1.54E-02
30060,9.26E-03,1.53E-02
30061,9.13E-03,1.53E-02
30062,9.09E-03,1.53E-02
30063,9.09E-03,1.53E-02
30064,9.09E-03,1.53E-02
30065,9.01E-03,1.53E-02
30066,8.83E-03,1.53E-02
30067,8.62E-03,1.53E-02
30068,8.47E-03,1.53E-02
30069,8.38E-03,1.53E-02
30070,8.29E-03,1.53E-02
30071,8.24E-03,1.53E-02
30072,8.23E-03,1.53E-02
30073,8.23E-03,1.53E-02
30074,8.22E-03,1.53E-02
30075,8.21E-03,1.53E-02
30076,8.17E-03,1.53E-02
30077,8.14E-03,1.53E-02
30078,8.09E-03,1.53E-02
30079,8.06E-03,1.53E-02
30080,8.02E-03,1.53E-02
30081,7.99E-03,1.53E-02
30082,7.96E-03,1.53E-02
30083,7.94E-03,1.53E-02
30084,7.96E-03,1.53E-02
30085,8.01E-03,1.53E-02
30086,8.06E-03,1.53E-02
30087,8.11E-03,1.53E-02
30088,8.16E-03,1.53E-02
30089,8.21E-03,1.52E-02
30090,8.26E-03,1.52E-02
30091,8.31E-03,1.52E-02
30092,8.40E-03,1.52E-02
30093,8.53E-03,1.52E-02
30094,8.65E-03,1.52E-02
30095,8.74E-03,1.52E-02
30096,8.80E-03,1.52E-02
30097,8.85E-03,1.51E-02
30098,8.90E-03,1.51E-02
30099,8.95E-03,1.51E-02
30100,9.01E-03,1.51E-02
30101,9.09E-03,1.51E-02
30102,9.16E-03,1.51E-02
30103,9.24E-03,1.51E-02
30104,9.35E-03,1.51E-02
30105,9.50E-03,1.50E-02
30106,9.66E-03,1.50E-02
30107,9.82E-03,1.50E-02
30108,9.92E-03,1.50E-02
30109,9.94E-03,1.50E-02
30110,9.91E-03,1.50E-02
30111,9.84E-03,1.50E-02
30112,9.77E-03,1.50E-02
30113,9.72E-03,1.50E-02
30114,9.67E-03,1.50E-02
30115,9.60E-03,1.50E-02
30116,9.54E-03,1.50E-02
30117,9.55E-03,1.51E-02
30118,9.56E-03,1.51E-02
30119,9.38E-03,1.51E-02
30120,9.00E-03,1.51E-02
30121,8.57E-03,1.51E-02
30122,8.13E-03,1.51E-02
30123,7.85E-03,1.51E-02
30124,7.85E-03,1.51E-02
30125,7.94E-03,1.51E-02
30126,7.86E-03,1.51E-02
30127,7.67E-03,1.51E-02
30128,7.50E-03,1.51E-02
30129,7.34E-03,1.51E-02
30130,7.18E-03,1.51E-02
30131,7.00E-03,1.51E-02
30132,6.75E-03,1.51E-02
30133,6.48E-03,1.51E-02
30134,6.25E-03,1.51E-02
30135,6.10E-03,1.51E-02
30136,5.99E-03,1.51E-02
30137,5.89E-03,1.51E-02
30138,5.81E-03,1.51E-02
30139,5.76E-03,1.51E-02
30140,5.71E-03,1.51E-02
30141,5.63E-03,1.51E-02
30142,5.52E-03,1.51E-02
30143,5.39E-03,1.50E-02
30144,5.29E-03,1.50E-02
30145,5.29E-03,1.50E-02
30146,5.35E-03,1.50E-02
30147,5.42E-03,1.50E-02
30148,5.49E-03,1.50E-02
30149,5.56E-03,1.49E-02
30150,5.64E-03,1.49E-02
30151,5.72E-03,1.49E-02
30152,5.79E-03,1.49E-02
30153,5.87E-03,1.48E-02
30154,5.92E-03,1.48E-02
30155,5.95E-03,1.48E-02
30156,5.98E-03,1.47E-02
30157,6.01E-03,1.47E-02
30158,6.03E-03,1.47E-02
30159,6.06E-03,1.46E-02
30160,6.07E-03,1.46E-02
30161,6.04E-03,1.45E-02
30162,5.98E-03,1.45E-02
30163,5.92E-03,1.45E-02
30164,5.85E-03,1.44E-02
30165,5.77E-03,1.44E-02
30166,5.69E-03,1.43E-02
30167,5.59E-03,1.43E-02
30168,5.44E-03,1.42E-02
30169,5.24E-03,1.42E-02
30170,5.05E-03,1.42E-02
30171,4.87E-03,1.41E-02
30172,4.70E-03,1.41E-02
30173,4.64E-03,1.41E-02
30174,4.73E-03,1.40E-02
30175,4.82E-03,1.40E-02
30176,4.71E-03,1.39E-02
30177,4.66E-03,1.39E-02
30178,5.90E-03,1.39E-02
30179,8.76E-03,1.38E-02
30180,8.82E-03,1.37E-02
30181,1.01E-02,1.37E-02
30182,1.05E-02,1.36E-02
30183,1.08E-02,1.35E-02
30184,1.07E-02,1.34E-02
30185,1.01E-02,1.33E-02
30186,9.69E-03,1.32E-02
30187,8.98E-03,1.31E-02
30188,8.70E-03,1.31E-02
30189,7.74E-03,8.84E-03
30190,7.98E-03,8.89E-03
30191,8.39E-03,8.93E-03
30192,8.46E-03,8.99E-03
30193,6.95E-03,9.04E-03
30194,6.45E-03,9.08E-03
30195,5.30E-03,9.12E-03
30196,3.92E-03,9.16E-03
30197,3.63E-03,9.18E-03
30198,3.99E-03,9.21E-03
30199,4.03E-03,9.24E-03
30200,3.93E-03,9.28E-03
30201,4.07E-03,9.32E-03
30202,4.63E-03,9.35E-03
30203,4.89E-03,9.36E-03
30204,6.31E-03,9.40E-03
30205,7.55E-03,9.59E-03
30206,7.66E-03,9.57E-03
30207,7.65E-03,9.83E-03
30208,7.93E-03,9.68E-03
30209,7.71E-03,2.16E-02
30210,6.97E-03,2.18E-02
30211,6.08E-03,2.31E-02
30212,8.65E-03,2.30E-02
30213,8.44E-03,2.29E-02
30214,7.85E-03,2.28E-02
30215,7.70E-03,2.26E-02
30216,7.53E-03,2.25E-02
30217,6.28E-03,2.23E-02
30218,6.25E-03,2.21E-02
30219,6.11E-03,2.20E-02
30220,5.79E-03,2.18E-02
30221,5.63E-03,2.17E-02
30222,5.42E-03,2.16E-02
30223,5.84E-03,1.09E-02
30224,4.58E-03,1.07E-02
30225,5.97E-03,1.08E-02
30226,7.95E-03,1.05E-02
30227,6.67E-03,1.03E-02
30228,6.94E-03,1.04E-02
30229,9.00E-03,2.54E-02
30230,7.54E-03,9.63E-03
30231,8.62E-03,8.91E-03
30232,8.59E-03,8.78E-03
30233,8.33E-03,8.65E-03
30234,8.08E-03,8.52E-03
30235,7.56E-03,8.39E-03
30236,5.00E-03,8.29E-03
30237,4.98E-03,8.21E-03
30238,4.61E-03,8.13E-03
30239,4.53E-03,8.06E-03
30240,4.38E-03,7.98E-03
30241,4.23E-03,7.92E-03
30242,8.89E-03,1.09E-02
30243,8.01E-03,1.08E-02
30244,7.91E-03,1.07E-02
30245,8.12E-03,1.07E-02
30246,8.48E-03,1.06E-02
30247,8.71E-03,1.05E-02
30248,1.13E-02,1.05E-02
30249,1.05E-02,1.04E-02
30250,9.37E-03,1.03E-02
30251,8.40E-03,1.02E-02
30252,8.35E-03,1.01E-02
30253,8.27E-03,1.00E-02
30254,7.73E-03,9.94E-03
30255,7.45E-03,9.87E-03
30256,7.11E-03,9.80E-03
30257,6.74E-03,9.73E-03
30258,6.47E-03,9.67E-03
30259,6.28E-03,9.61E-03
30260,6.11E-03,9.55E-03
30261,5.93E-03,9.49E-03
30262,5.75E-03,9.43E-03
30263,5.55E-03,9.38E-03
30264,5.29E-03,9.33E-03
30265,5.00E-03,9.28E-03
30266,4.71E-03,9.24E-03
30267,4.43E-03,9.19E-03
30268,4.23E-03,9.15E-03
30269,4.17E-03,9.12E-03
30270,4.16E-03,9.08E-03
30271,4.15E-03,9.05E-03
30272,4.14E-03,9.01E-03
30273,4.13E-03,8.98E-03
30274,4.11E-03,8.95E-03
30275,4.08E-03,8.92E-03
30276,4.03E-03,8.89E-03
30277,3.98E-03,8.86E-03
30278,3.93E-03,8.83E-03
30279,3.88E-03,8.80E-03
30280,3.83E-03,8.78E-03
30281,3.81E-03,8.75E-03
30282,3.86E-03,8.73E-03
30283,3.92E-03,8.71E-03
30284,3.98E-03,8.69E-03
30285,4.07E-03,8.66E-03
30286,4.19E-03,8.64E-03
30287,4.31E-03,8.62E-03
30288,4.45E-03,8.60E-03
30289,4.65E-03,8.58E-03
30290,4.89E-03,8.56E-03
30291,5.14E-03,8.54E-03
30292,5.37E-03,8.52E-03
30293,5.53E-03,8.50E-03
30294,5.65E-03,8.48E-03
30295,5.77E-03,8.46E-03
30296,5.88E-03,8.44E-03
30297,5.99E-03,8.42E-03
30298,6.09E-03,8.40E-03
30299,6.20E-03,8.38E-03
30300,6.30E-03,8.36E-03
30301,6.40E-03,8.35E-03
30302,6.50E-03,8.33E-03
30303,6.60E-03,8.31E-03
30304,6.69E-03,8.29E-03
30305,6.75E-03,8.28E-03
30306,6.80E-03,8.26E-03
30307,6.85E-03,8.24E-03
30308,6.89E-03,8.23E-03
30309,6.94E-03,8.21E-03
30310,6.99E-03,8.20E-03
30311,7.04E-03,8.18E-03
30312,7.08E-03,8.16E-03
30313,7.15E-03,8.15E-03
30314,7.23E-03,8.13E-03
30315,7.33E-03,8.12E-03
30316,7.42E-03,8.10E-03
30317,7.50E-03,8.08E-03
30318,7.56E-03,8.07E-03
30319,7.60E-03,8.05E-03
30320,7.65E-03,8.03E-03
30321,7.69E-03,8.01E-03
30322,7.50E-03,7.99E-03
30323,7.22E-03,7.97E-03
30324,7.13E-03,7.95E-03
30325,6.94E-03,7.93E-03
30326,6.77E-03,7.91E-03
30327,6.57E-03,7.89E-03
30328,6.44E-03,7.87E-03
30329,6.31E-03,7.85E-03
30330,6.12E-03,7.83E-03
30331,5.98E-03,7.80E-03
30332,5.24E-03,7.82E-03
30333,4.36E-03,7.85E-03
30334,4.07E-03,7.87E-03
30335,6.03E-03,1.36E-02
30336,5.83E-03,1.39E-02
30337,5.40E-03,1.41E-02
30338,4.80E-03,1.43E-02
30339,4.68E-03,1.45E-02
30340,2.59E-03,1.48E-02
30341,2.79E-03,1.50E-02
30342,2.87E-03,1.51E-02
30343,3.21E-03,1.53E-02
30344,3.39E-03,1.54E-02
30345,3.68E-03,1.56E-02
30346,3.82E-03,1.58E-02
30347,4.22E-03,1.60E-02
30348,4.35E-03,1.62E-02
30349,4.46E-03,1.64E-02
30350,4.53E-03,1.67E-02
30351,4.50E-03,1.69E-02
30352,4.46E-03,1.71E-02
30353,4.40E-03,1.74E-02
30354,4.28E-03,1.76E-02
30355,4.21E-03,1.78E-02
30356,4.20E-03,1.81E-02
30357,3.97E-03,1.83E-02
30358,3.09E-03,1.84E-02
30359,3.00E-03,1.87E-02
30360,3.91E-03,1.89E-02
30361,4.13E-03,1.90E-02
30362,4.19E-03,1.92E-02
30363,4.24E-03,1.94E-02
30364,4.30E-03,1.96E-02
30365,4.31E-03,1.97E-02
30366,4.36E-03,1.99E-02
30367,4.23E-03,2.01E-02
30368,4.19E-03,2.03E-02
30369,4.17E-03,2.05E-02
30370,4.17E-03,2.06E-02
30371,4.26E-03,2.08E-02
30372,7.78E-03,1.19E-02
30373,8.23E-03,1.18E-02
30374,8.81E-03,1.17E-02
30375,9.32E-03,1.16E-02
30376,9.32E-03,1.15E-02
30377,1.02E-02,1.14E-02
30378,7.91E-03,7.68E-03
30379,7.87E-03,7.84E-03
30380,7.61E-03,2.49E-02
30381,8.61E-03,2.49E-02
30382,9.25E-03,1.22E-02
30383,7.91E-03,1.59E-02
30384,8.78E-03,1.58E-02
30385,6.11E-03,1.24E-02
30386,6.74E-03,1.24E-02
30387,7.16E-03,1.04E-02
30388,7.04E-03,1.97E-02
30389,4.13E-03,9.69E-03
30390,5.60E-03,9.55E-03
30391,8.47E-03,9.33E-03
30392,8.09E-03,9.07E-03
30393,8.09E-03,8.82E-03
30394,8.09E-03,8.57E-03
30395,8.09E-03,8.32E-03
30396,8.09E-03,8.08E-03
30397,8.09E-03,7.84E-03
30398,8.09E-03,7.60E-03
30399,8.09E-03,7.36E-03
30400,8.09E-03,7.13E-03
30401,8.09E-03,6.91E-03
30402,8.09E-03,6.69E-03
30403,8.09E-03,6.47E-03
30404,8.09E-03,6.26E-03
30405,8.09E-03,6.06E-03
30406,8.09E-03,5.86E-03
30407,8.09E-03,5.68E-03
30408,8.09E-03,5.50E-03
30409,8.09E-03,5.33E-03
30410,8.09E-03,5.17E-03
30411,8.09E-03,5.03E-03
30412,8.09E-03,4.90E-03
30413,8.09E-03,4.78E-03
30414,8.09E-03,4.67E-03
30415,8.09E-03,4.58E-03
30416,8.09E-03,4.51E-03
30417,8.09E-03,4.45E-03
30418,8.09E-03,4.41E-03
30419,8.09E-03,4.38E-03
30420,8.09E-03,4.37E-03
30421,8.09E-03,4.38E-03
30422,8.09E-03,4.40E-03
30423,8.09E-03,4.44E-03
30424,8.09E-03,4.48E-03
30425,8.09E-03,4.55E-03
30426,8.09E-03,4.62E-03
30427,8.09E-03,4.71E-03
30428,8.09E-03,4.80E-03
30429,8.09E-03,4.90E-03
30430,8.09E-03,5.01E-03
30431,8.03E-03,5.12E-03
30432,7.94E-03,5.24E-03
30433,7.79E-03,5.36E-03
30434,7.76E-03,5.49E-03
30435,7.78E-03,5.62E-03
30436,7.81E-03,5.75E-03
30437,7.94E-03,5.89E-03
30438,8.29E-03,6.03E-03
30439,9.42E-03,6.20E-03
30440,8.40E-03,5.89E-03
30441,8.50E-03,5.89E-03
30442,1.08E-02,5.92E-03
30443,9.89E-03,5.94E-03
30444,9.96E-03,5.95E-03
30445,1.10E-02,5.99E-03
30446,9.16E-03,5.99E-03
30447,5.18E-03,1.17E-02
30448,8.92E-03,1.57E-02
30449,7.03E-03,9.10E-03
30450,7.61E-03,8.95E-03
30451,6.88E-03,1.08E-02
30452,6.03E-03,1.07E-02
30453,5.87E-03,1.06E-02
30454,5.89E-03,2.17E-02
30455,8.01E-03,2.51E-02
30456,9.06E-03,2.52E-02
30457,8.02E-03,2.42E-02
30458,7.38E-03,2.42E-02
30459,8.10E-03,1.51E-02
30460,8.10E-03,1.53E-02
30461,7.16E-03,1.92E-02
30462,7.85E-03,1.47E-02
30463,7.08E-03,1.50E-02
30464,8.05E-03,1.44E-02
30465,7.63E-03,1.33E-02
30466,8.37E-03,1.49E-02
30467,7.11E-03,1.09E-02
30468,7.38E-03,1.11E-02
30469,8.91E-03,1.56E-02
30470,9.51E-03,1.57E-02
30471,6.97E-03,1.17E-02
30472,9.49E-03,1.57E-02
30473,8.10E-03,1.29E-02
30474,7.48E-03,1.04E-02
30475,7.15E-03,1.00E-02
30476,7.22E-03,9.88E-03
30477,7.67E-03,2.15E-02
30478,6.54E-03,2.36E-02
30479,5.43E-03,2.18E-02
30480,5.71E-03,1.07E-02
30481,7.28E-03,1.04E-02
30482,8.40E-03,9.98E-03
30483,8.39E-03,2.44E-02
30484,8.06E-03,8.82E-03
30485,6.82E-03,1.34E-02
30486,7.55E-03,1.25E-02
30487,5.10E-03,1.24E-02
30488,6.31E-03,6.18E-03
30489,6.18E-03,6.04E-03
30490,6.20E-03,6.01E-03
30491,4.25E-03,5.96E-03
30492,4.50E-03,5.99E-03
30493,4.82E-03,6.02E-03
30494,5.11E-03,6.02E-03
30495,5.25E-03,6.01E-03
30496,5.53E-03,6.01E-03
30497,5.79E-03,6.00E-03
30498,5.96E-03,6.00E-03
30499,6.27E-03,6.00E-03
30500,6.47E-03,5.99E-03
30501,6.64E-03,5.99E-03
30502,6.83E-03,5.99E-03
30503,6.99E-03,5.99E-03
30504,7.05E-03,5.99E-03
30505,7.24E-03,6.00E-03
30506,7.28E-03,6.00E-03
30507,7.32E-03,6.02E-03
30508,7.36E-03,6.03E-03
30509,7.39E-03,6.05E-03
30510,7.43E-03,6.07E-03
30511,7.47E-03,6.10E-03
30512,7.51E-03,6.13E-03
30513,7.54E-03,6.17E-03
30514,7.58E-03,6.21E-03
30515,7.61E-03,6.25E-03
30516,7.64E-03,6.30E-03
30517,7.66E-03,6.35E-03
30518,7.69E-03,6.41E-03
30519,7.71E-03,6.47E-03
30520,7.74E-03,6.54E-03
30521,7.76E-03,6.62E-03
30522,7.78E-03,6.69E-03
30523,7.79E-03,6.78E-03
30524,7.81E-03,6.87E-03
30525,7.83E-03,6.96E-03
30526,7.85E-03,7.06E-03
30527,7.87E-03,7.16E-03
30528,7.87E-03,7.26E-03
30529,7.87E-03,7.37E-03
30530,7.87E-03,7.49E-03
30531,7.87E-03,7.61E-03
30532,7.87E-03,7.73E-03
30533,7.87E-03,7.86E-03
30534,7.87E-03,7.98E-03
30535,7.86E-03,8.12E-03
30536,7.84E-03,8.25E-03
30537,7.82E-03,8.39E-03
30538,7.79E-03,8.53E-03
30539,7.77E-03,8.67E-03
30540,7.74E-03,8.82E-03
30541,7.71E-03,8.96E-03
30542,7.69E-03,9.11E-03
30543,7.66E-03,9.26E-03
30544,7.63E-03,9.41E-03
30545,7.61E-03,9.56E-03
30546,7.57E-03,9.71E-03
30547,7.51E-03,9.86E-03
30548,7.44E-03,1.00E-02
30549,7.37E-03,1.02E-02
30550,7.30E-03,1.03E-02
30551,7.23E-03,1.05E-02
30552,7.17E-03,1.06E-02
30553,7.10E-03,1.08E-02
30554,7.03E-03,1.09E-02
30555,6.98E-03,1.11E-02
30556,6.93E-03,1.12E-02
30557,6.89E-03,1.14E-02
30558,6.84E-03,1.15E-02
30559,6.80E-03,1.16E-02
30560,6.75E-03,1.18E-02
30561,6.69E-03,1.19E-02
30562,6.63E-03,1.21E-02
30563,6.56E-03,1.22E-02
30564,6.49E-03,1.24E-02
30565,6.43E-03,1.25E-02
30566,6.35E-03,1.26E-02
30567,6.23E-03,1.28E-02
30568,6.10E-03,1.29E-02
30569,5.97E-03,1.30E-02
30570,5.83E-03,1.32E-02
30571,5.71E-03,1.33E-02
30572,5.64E-03,1.34E-02
30573,5.62E-03,1.35E-02
30574,5.61E-03,1.37E-02
30575,5.62E-03,1.38E-02
30576,5.66E-03,1.39E-02
30577,5.72E-03,1.40E-02
30578,5.77E-03,1.42E-02
30579,5.80E-03,1.43E-02
30580,5.84E-03,1.44E-02
30581,5.81E-03,1.45E-02
30582,5.87E-03,1.47E-02
30583,5.94E-03,1.48E-02
30584,6.01E-03,1.49E-02
30585,6.18E-03,1.51E-02
30586,6.22E-03,1.52E-02
30587,6.25E-03,1.53E-02
30588,6.25E-03,1.55E-02
30589,6.11E-03,1.56E-02
30590,5.79E-03,1.58E-02
30591,5.91E-03,1.59E-02
30592,7.21E-03,1.06E-02
30593,6.22E-03,2.46E-02
30594,5.95E-03,1.10E-02
30595,8.45E-03,1.55E-02
30596,8.19E-03,1.53E-02
30597,8.27E-03,1.53E-02
30598,8.15E-03,1.59E-02
30599,6.33E-03,1.14E-02
30600,5.99E-03,1.21E-02
30601,7.94E-03,1.59E-02
30602,6.92E-03,2.00E-02
30603,8.58E-03,7.57E-03
30604,7.23E-03,8.99E-03
30605,7.47E-03,8.88E-03
30606,8.64E-03,6.01E-03
30607,8.09E-03,1.08E-02
30608,8.09E-03,1.07E-02
30609,8.09E-03,1.06E-02
30610,8.09E-03,1.04E-02
30611,8.09E-03,1.03E-02
30612,8.09E-03,1.01E-02
30613,8.09E-03,1.00E-02
30614,8.09E-03,9.86E-03
30615,8.09E-03,9.71E-03
30616,8.09E-03,9.56E-03
30617,8.09E-03,9.41E-03
30618,8.09E-03,9.27E-03
30619,8.09E-03,9.11E-03
30620,8.09E-03,8.96E-03
30621,8.09E-03,8.81E-03
30622,8.09E-03,8.65E-03
30623,8.09E-03,8.50E-03
30624,8.09E-03,8.35E-03
30625,8.09E-03,8.19E-03
30626,8.09E-03,8.03E-03
30627,8.09E-03,7.88E-03
30628,8.09E-03,7.72E-03
30629,8.09E-03,7.57E-03
30630,8.09E-03,7.41E-03
30631,8.09E-03,7.26E-03
30632,8.09E-03,7.11E-03
30633,8.09E-03,6.96E-03
30634,8.09E-03,6.81E-03
30635,8.09E-03,6.66E-03
30636,8.09E-03,6.52E-03
30637,8.09E-03,6.38E-03
30638,8.09E-03,6.25E-03
30639,8.09E-03,6.11E-03
30640,8.09E-03,5.99E-03
30641,8.09E-03,5.86E-03
30642,8.09E-03,5.75E-03
30643,8.09E-03,5.64E-03
30644,8.09E-03,5.54E-03
30645,8.09E-03,5.45E-03
30646,8.09E-03,5.36E-03
30647,8.09E-03,5.29E-03
30648,8.09E-03,5.22E-03
30649,8.09E-03,5.17E-03
30650,8.09E-03,5.13E-03
30651,8.09E-03,5.10E-03
30652,8.09E-03,5.08E-03
30653,8.09E-03,5.08E-03
30654,8.09E-03,5.09E-03
30655,8.03E-03,5.11E-03
30656,8.01E-03,5.15E-03
30657,8.07E-03,5.21E-03
30658,8.14E-03,5.28E-03
30659,8.09E-03,5.37E-03
30660,7.72E-03,5.44E-03
30661,7.60E-03,5.51E-03
30662,7.72E-03,5.69E-03
30663,8.35E-03,5.83E-03
30664,9.49E-03,5.96E-03
30665,8.12E-03,6.18E-03
30666,7.83E-03,9.82E-03
30667,7.17E-03,6.69E-03
30668,1.10E-02,6.63E-03
30669,1.04E-02,6.56E-03
30670,1.07E-02,6.51E-03
30671,1.06E-02,6.46E-03
30672,1.09E-02,6.41E-03
30673,1.08E-02,6.37E-03
30674,1.06E-02,6.34E-03
30675,1.06E-02,6.32E-03
30676,1.04E-02,6.31E-03
30677,1.01E-02,6.30E-03
30678,9.59E-03,6.30E-03
30679,9.24E-03,6.31E-03
30680,9.07E-03,6.32E-03
30681,8.86E-03,6.34E-03
30682,8.92E-03,6.35E-03
30683,9.66E-03,6.39E-03
30684,8.68E-03,6.36E-03
30685,8.64E-03,6.48E-03
30686,8.59E-03,2.44E-02
30687,7.14E-03,2.44E-02
30688,8.05E-03,1.20E-02
30689,8.61E-03,1.12E-02
30690,8.33E-03,1.22E-02
30691,8.20E-03,1.21E-02
30692,8.10E-03,1.51E-02
30693,8.10E-03,1.54E-02
30694,7.13E-03,1.95E-02
30695,8.79E-03,1.57E-02
30696,6.28E-03,1.59E-02
30697,5.74E-03,1.08E-02
30698,6.00E-03,1.10E-02
30699,7.02E-03,2.14E-02
30700,6.99E-03,1.06E-02
30701,6.03E-03,1.10E-02
30702,7.63E-03,1.00E-02
30703,7.43E-03,6.90E-03
30704,8.10E-03,1.10E-02
30705,6.59E-03,2.40E-02
30706,8.53E-03,2.30E-02
30707,8.77E-03,2.34E-02
30708,6.63E-03,9.05E-03
30709,7.23E-03,8.76E-03
30710,1.07E-02,2.40E-02
30711,9.07E-03,2.43E-02
30712,1.02E-02,7.15E-03
30713,7.53E-03,7.06E-03
30714,7.18E-03,7.08E-03
30715,8.58E-03,1.04E-02
30716,4.88E-03,1.06E-02
30717,7.81E-03,1.59E-02
30718,6.98E-03,1.31E-02
30719,6.55E-03,2.03E-02
30720,7.23E-03,6.55E-03
30721,6.22E-03,6.35E-03
30722,5.44E-03,8.69E-03
30723,5.59E-03,8.50E-03
30724,7.54E-03,1.58E-02
30725,6.57E-03,2.20E-02
30726,6.85E-03,2.22E-02
30727,7.28E-03,2.24E-02
30728,6.56E-03,2.25E-02
30729,6.14E-03,2.26E-02
30730,7.13E-03,2.44E-02
30731,9.38E-03,2.44E-02
30732,8.10E-03,1.51E-02
30733,8.10E-03,1.54E-02
30734,9.02E-03,1.52E-02
30735,7.01E-03,1.28E-02
30736,8.75E-03,6.52E-03
30737,9.17E-03,6.53E-03
30738,7.52E-03,6.50E-03
30739,7.68E-03,1.58E-02
30740,6.98E-03,1.58E-02
30741,7.80E-03,7.43E-03
30742,7.49E-03,1.02E-02
30743,6.95E-03,6.34E-03
30744,6.79E-03,1.61E-02
30745,7.20E-03,1.61E-02
30746,8.10E-03,1.11E-02
30747,6.81E-03,1.31E-02
30748,7.02E-03,6.33E-03
30749,7.01E-03,6.47E-03
30750,7.16E-03,1.29E-02
30751,8.10E-03,1.50E-02
30752,8.10E-03,1.55E-02
30753,8.82E-03,1.53E-02
30754,4.85E-03,1.26E-02
30755,7.49E-03,1.27E-02
30756,8.10E-03,1.14E-02
30757,8.10E-03,1.13E-02
30758,8.10E-03,1.50E-02
30759,8.08E-03,1.55E-02
30760,8.16E-03,1.53E-02
30761,4.66E-03,2.10E-02
30762,8.64E-03,2.58E-02
30763,8.64E-03,2.59E-02
30764,8.53E-03,2.57E-02
30765,8.08E-03,2.54E-02
30766,8.10E-03,1.49E-02
30767,8.24E-03,1.55E-02
30768,8.10E-03,1.16E-02
30769,8.10E-03,1.49E-02
30770,8.41E-03,1.56E-02
30771,8.10E-03,1.48E-02
30772,8.77E-03,1.56E-02
30773,8.32E-03,1.54E-02
30774,7.84E-03,1.58E-02
30775,8.10E-03,1.17E-02
30776,8.10E-03,1.19E-02
30777,8.00E-03,1.58E-02
30778,8.10E-03,1.48E-02
30779,8.99E-03,1.57E-02
30780,8.90E-03,1.56E-02
30781,8.30E-03,1.55E-02
30782,8.10E-03,1.57E-02
30783,8.10E-03,1.58E-02
30784,8.10E-03,1.20E-02
30785,8.35E-03,1.55E-02
30786,8.10E-03,1.47E-02
30787,8.10E-03,1.57E-02
30788,8.10E-03,1.22E-02
30789,8.10E-03,1.23E-02
30790,8.62E-03,1.57E-02
30791,8.10E-03,1.46E-02
30792,8.32E-03,1.56E-02
30793,8.10E-03,1.45E-02
30794,8.10E-03,1.56E-02
30795,8.10E-03,1.24E-02
30796,8.10E-03,1.26E-02
30797,8.10E-03,1.45E-02
30798,8.10E-03,1.57E-02
30799,8.10E-03,1.28E-02
30800,8.10E-03,1.27E-02
30801,8.10E-03,1.44E-02
30802,8.10E-03,1.57E-02
30803,8.10E-03,1.43E-02
30804,8.10E-03,1.30E-02
30805,8.10E-03,1.31E-02
30806,8.10E-03,1.42E-02
30807,8.10E-03,1.33E-02
30808,8.10E-03,1.32E-02
30809,8.10E-03,1.41E-02
30810,8.10E-03,1.40E-02
30811,8.10E-03,1.39E-02
30812,8.10E-03,1.35E-02
30813,8.10E-03,1.38E-02
30814,8.10E-03,1.37E-02
30815,8.10E-03,1.36E-02
30816,6.83E-03,1.60E-02
30817,7.88E-03,1.61E-02
30818,8.23E-03,1.22E-02
30819,6.01E-03,2.14E-02
30820,6.25E-03,1.13E-02
30821,4.97E-03,2.12E-02
30822,6.64E-03,2.13E-02
30823,7.93E-03,2.42E-02
30824,8.10E-03,1.52E-02
30825,8.10E-03,1.52E-02
30826,8.10E-03,1.52E-02
30827,8.10E-03,1.53E-02
30828,8.10E-03,1.53E-02
30829,8.10E-03,1.52E-02
30830,7.45E-03,1.90E-02
30831,7.60E-03,1.88E-02
30832,7.61E-03,1.86E-02
30833,9.15E-03,1.83E-02
30834,1.19E-02,1.80E-02
30835,8.36E-03,1.76E-02
30836,8.19E-03,1.74E-02
30837,8.20E-03,1.71E-02
30838,8.03E-03,1.68E-02
30839,8.03E-03,1.65E-02
30840,7.95E-03,1.63E-02
30841,7.74E-03,1.60E-02
30842,7.74E-03,1.57E-02
30843,7.39E-03,1.55E-02
30844,7.21E-03,1.52E-02
30845,7.48E-03,1.41E-02
30846,7.51E-03,1.36E-02
30847,7.39E-03,1.38E-02
30848,8.32E-03,1.48E-02
30849,8.32E-03,1.46E-02
30850,8.29E-03,1.44E-02
30851,8.28E-03,1.42E-02
30852,8.22E-03,1.40E-02
30853,8.09E-03,1.38E-02
30854,8.09E-03,1.36E-02
30855,8.09E-03,1.34E-02
30856,8.09E-03,1.32E-02
30857,8.09E-03,1.30E-02
30858,8.09E-03,1.27E-02
30859,8.10E-03,1.25E-02
30860,8.16E-03,1.23E-02
30861,8.23E-03,1.21E-02
30862,8.24E-03,1.18E-02
30863,8.15E-03,1.16E-02
30864,7.90E-03,1.14E-02
30865,9.02E-03,1.56E-02
30866,9.26E-03,1.57E-02
30867,6.56E-03,1.15E-02
30868,9.07E-03,1.56E-02
30869,9.22E-03,1.56E-02
30870,9.30E-03,1.56E-02
30871,9.76E-03,1.56E-02
30872,9.59E-03,1.56E-02
30873,9.41E-03,1.55E-02
30874,9.24E-03,1.55E-02
30875,9.11E-03,1.55E-02
30876,9.07E-03,1.55E-02
30877,9.07E-03,1.55E-02
30878,9.06E-03,1.55E-02
30879,8.99E-03,1.55E-02
30880,8.81E-03,1.55E-02
30881,8.61E-03,1.55E-02
30882,8.47E-03,1.55E-02
30883,8.37E-03,1.55E-02
30884,8.28E-03,1.55E-02
30885,8.24E-03,1.55E-02
30886,8.23E-03,1.55E-02
30887,8.22E-03,1.55E-02
30888,8.22E-03,1.55E-02
30889,8.20E-03,1.55E-02
30890,8.17E-03,1.55E-02
30891,8.14E-03,1.55E-02
30892,8.09E-03,1.55E-02
30893,8.06E-03,1.55E-02
30894,8.02E-03,1.55E-02
30895,7.99E-03,1.55E-02
30896,7.96E-03,1.55E-02
30897,7.94E-03,1.55E-02
30898,7.96E-03,1.55E-02
30899,8.01E-03,1.54E-02
30900,8.06E-03,1.54E-02
30901,8.11E-03,1.54E-02
30902,8.16E-03,1.54E-02
30903,8.20E-03,1.54E-02
30904,8.25E-03,1.54E-02
30905,8.31E-03,1.54E-02
30906,8.40E-03,1.54E-02
30907,8.52E-03,1.53E-02
30908,8.64E-03,1.53E-02
30909,8.73E-03,1.53E-02
30910,8.78E-03,1.53E-02
30911,8.83E-03,1.53E-02
30912,8.88E-03,1.53E-02
30913,8.93E-03,1.52E-02
30914,8.99E-03,1.52E-02
30915,9.06E-03,1.52E-02
30916,9.14E-03,1.52E-02
30917,9.21E-03,1.52E-02
30918,9.32E-03,1.52E-02
30919,9.46E-03,1.52E-02
30920,9.62E-03,1.52E-02
30921,9.78E-03,1.51E-02
30922,9.88E-03,1.51E-02
30923,9.90E-03,1.51E-02
30924,9.87E-03,1.51E-02
30925,9.80E-03,1.51E-02
30926,9.73E-03,1.51E-02
30927,9.68E-03,1.51E-02
30928,9.63E-03,1.51E-02
30929,9.56E-03,1.51E-02
30930,9.51E-03,1.51E-02
30931,9.52E-03,1.51E-02
30932,9.53E-03,1.51E-02
30933,9.35E-03,1.51E-02
30934,8.98E-03,1.51E-02
30935,8.56E-03,1.52E-02
30936,8.13E-03,1.52E-02
30937,7.85E-03,1.52E-02
30938,7.86E-03,1.52E-02
30939,7.95E-03,1.52E-02
30940,7.87E-03,1.52E-02
30941,7.68E-03,1.52E-02
30942,7.51E-03,1.52E-02
30943,7.36E-03,1.52E-02
30944,7.20E-03,1.52E-02
30945,7.02E-03,1.52E-02
30946,6.78E-03,1.52E-02
30947,6.52E-03,1.52E-02
30948,6.30E-03,1.52E-02
30949,6.15E-03,1.52E-02
30950,6.04E-03,1.52E-02
30951,5.94E-03,1.52E-02
30952,5.87E-03,1.52E-02
30953,5.81E-03,1.51E-02
30954,5.76E-03,1.51E-02
30955,5.69E-03,1.51E-02
30956,5.58E-03,1.51E-02
30957,5.45E-03,1.51E-02
30958,5.36E-03,1.51E-02
30959,5.36E-03,1.51E-02
30960,5.42E-03,1.50E-02
30961,5.48E-03,1.50E-02
30962,5.55E-03,1.50E-02
30963,5.62E-03,1.50E-02
30964,5.70E-03,1.49E-02
30965,5.77E-03,1.49E-02
30966,5.85E-03,1.49E-02
30967,5.92E-03,1.48E-02
30968,5.97E-03,1.48E-02
30969,6.00E-03,1.48E-02
30970,6.03E-03,1.47E-02
30971,6.06E-03,1.47E-02
30972,6.08E-03,1.47E-02
30973,6.11E-03,1.46E-02
30974,6.12E-03,1.46E-02
30975,6.09E-03,1.45E-02
30976,6.03E-03,1.45E-02
30977,5.97E-03,1.44E-02
30978,5.90E-03,1.44E-02
30979,5.83E-03,1.44E-02
30980,5.75E-03,1.43E-02
30981,5.65E-03,1.43E-02
30982,5.50E-03,1.42E-02
30983,5.31E-03,1.42E-02
30984,5.12E-03,1.41E-02
30985,4.94E-03,1.41E-02
30986,4.78E-03,1.41E-02
30987,4.72E-03,1.40E-02
30988,4.81E-03,1.40E-02
30989,4.90E-03,1.39E-02
30990,4.79E-03,1.39E-02
30991,4.75E-03,1.39E-02
30992,5.95E-03,1.38E-02
30993,8.85E-03,1.38E-02
30994,8.92E-03,1.37E-02
30995,9.47E-03,1.36E-02
30996,1.08E-02,1.35E-02
30997,1.06E-02,1.34E-02
30998,1.05E-02,1.33E-02
30999,1.03E-02,1.32E-02
31000,9.72E-03,1.31E-02
31001,9.00E-03,1.31E-02
31002,8.65E-03,1.30E-02
31003,7.15E-03,9.05E-03
31004,7.91E-03,9.06E-03
31005,8.44E-03,9.10E-03
31006,8.39E-03,9.15E-03
31007,6.97E-03,9.20E-03
31008,6.49E-03,9.24E-03
31009,5.36E-03,9.28E-03
31010,4.02E-03,9.31E-03
31011,3.73E-03,9.34E-03
31012,4.09E-03,9.36E-03
31013,4.13E-03,9.39E-03
31014,4.02E-03,9.42E-03
31015,4.27E-03,9.46E-03
31016,4.40E-03,9.49E-03
31017,4.65E-03,9.50E-03
31018,4.96E-03,9.53E-03
31019,5.27E-03,9.67E-03
31020,6.22E-03,9.72E-03
31021,6.96E-03,9.76E-03
31022,7.45E-03,9.80E-03
31023,7.35E-03,2.17E-02
31024,6.69E-03,2.18E-02
31025,6.85E-03,2.35E-02
31026,8.06E-03,2.34E-02
31027,8.01E-03,2.33E-02
31028,7.89E-03,2.32E-02
31029,7.53E-03,2.30E-02
31030,7.47E-03,2.29E-02
31031,6.32E-03,2.27E-02
31032,6.28E-03,2.25E-02
31033,6.12E-03,2.24E-02
31034,5.90E-03,2.22E-02
31035,5.65E-03,2.21E-02
31036,5.49E-03,2.20E-02
31037,6.91E-03,1.09E-02
31038,6.57E-03,1.07E-02
31039,7.74E-03,1.06E-02
31040,7.38E-03,1.05E-02
31041,9.07E-03,2.57E-02
31042,8.32E-03,9.69E-03
31043,6.49E-03,2.47E-02
31044,6.52E-03,2.45E-02
31045,8.49E-03,8.69E-03
31046,8.57E-03,8.56E-03
31047,8.54E-03,8.43E-03
31048,8.39E-03,8.29E-03
31049,7.42E-03,8.17E-03
31050,4.96E-03,8.07E-03
31051,4.90E-03,8.00E-03
31052,4.61E-03,7.92E-03
31053,4.52E-03,7.85E-03
31054,4.44E-03,7.78E-03
31055,4.41E-03,7.70E-03
31056,7.79E-03,1.07E-02
31057,8.08E-03,1.07E-02
31058,7.41E-03,1.07E-02
31059,7.39E-03,1.06E-02
31060,7.69E-03,1.06E-02
31061,8.14E-03,1.05E-02
31062,8.84E-03,1.04E-02
31063,1.12E-02,1.03E-02
31064,1.03E-02,1.02E-02
31065,9.32E-03,1.01E-02
31066,8.45E-03,1.00E-02
31067,8.41E-03,9.96E-03
31068,8.25E-03,9.88E-03
31069,7.74E-03,9.81E-03
31070,7.46E-03,9.73E-03
31071,7.13E-03,9.66E-03
31072,6.77E-03,9.59E-03
31073,6.51E-03,9.53E-03
31074,6.33E-03,9.46E-03
31075,6.15E-03,9.40E-03
31076,5.98E-03,9.34E-03
31077,5.81E-03,9.29E-03
31078,5.61E-03,9.23E-03
31079,5.35E-03,9.18E-03
31080,5.07E-03,9.13E-03
31081,4.79E-03,9.08E-03
31082,4.51E-03,9.04E-03
31083,4.32E-03,9.00E-03
31084,4.26E-03,8.96E-03
31085,4.25E-03,8.93E-03
31086,4.24E-03,8.89E-03
31087,4.23E-03,8.86E-03
31088,4.22E-03,8.82E-03
31089,4.20E-03,8.79E-03
31090,4.17E-03,8.76E-03
31091,4.13E-03,8.72E-03
31092,4.08E-03,8.69E-03
31093,4.03E-03,8.67E-03
31094,3.98E-03,8.64E-03
31095,3.93E-03,8.61E-03
31096,3.92E-03,8.59E-03
31097,3.95E-03,8.56E-03
31098,4.01E-03,8.54E-03
31099,4.07E-03,8.52E-03
31100,4.16E-03,8.49E-03
31101,4.28E-03,8.47E-03
31102,4.40E-03,8.45E-03
31103,4.54E-03,8.43E-03
31104,4.73E-03,8.41E-03
31105,4.97E-03,8.39E-03
31106,5.21E-03,8.36E-03
31107,5.43E-03,8.34E-03
31108,5.59E-03,8.32E-03
31109,5.71E-03,8.30E-03
31110,5.82E-03,8.28E-03
31111,5.94E-03,8.26E-03
31112,6.04E-03,8.24E-03
31113,6.14E-03,8.22E-03
31114,6.24E-03,8.20E-03
31115,6.34E-03,8.18E-03
31116,6.44E-03,8.16E-03
31117,6.54E-03,8.14E-03
31118,6.63E-03,8.13E-03
31119,6.72E-03,8.11E-03
31120,6.78E-03,8.09E-03
31121,6.83E-03,8.07E-03
31122,6.88E-03,8.05E-03
31123,6.92E-03,8.04E-03
31124,6.97E-03,8.02E-03
31125,7.02E-03,8.00E-03
31126,7.06E-03,7.99E-03
31127,7.11E-03,7.97E-03
31128,7.17E-03,7.95E-03
31129,7.25E-03,7.94E-03
31130,7.35E-03,7.92E-03
31131,7.44E-03,7.90E-03
31132,7.52E-03,7.88E-03
31133,7.57E-03,7.86E-03
31134,7.62E-03,7.84E-03
31135,7.66E-03,7.82E-03
31136,7.70E-03,7.80E-03
31137,7.57E-03,7.78E-03
31138,7.26E-03,7.76E-03
31139,7.12E-03,7.74E-03
31140,6.95E-03,7.72E-03
31141,6.80E-03,7.70E-03
31142,6.60E-03,7.68E-03
31143,6.47E-03,7.66E-03
31144,6.19E-03,7.64E-03
31145,5.99E-03,7.61E-03
31146,5.49E-03,7.59E-03
31147,5.04E-03,7.60E-03
31148,4.55E-03,7.59E-03
31149,5.63E-03,7.60E-03
31150,4.97E-03,7.60E-03
31151,5.97E-03,1.36E-02
31152,5.79E-03,1.39E-02
31153,5.40E-03,1.41E-02
31154,4.93E-03,1.43E-02
31155,4.59E-03,1.46E-02
31156,3.14E-03,1.48E-02
31157,2.82E-03,1.50E-02
31158,2.98E-03,1.52E-02
31159,3.30E-03,1.53E-02
31160,3.31E-03,1.55E-02
31161,3.70E-03,1.56E-02
31162,3.91E-03,1.58E-02
31163,4.36E-03,1.60E-02
31164,4.38E-03,1.63E-02
31165,4.59E-03,1.65E-02
31166,4.60E-03,1.67E-02
31167,4.59E-03,1.70E-02
31168,4.51E-03,1.72E-02
31169,4.44E-03,1.75E-02
31170,4.35E-03,1.77E-02
31171,4.32E-03,1.79E-02
31172,4.26E-03,1.82E-02
31173,4.06E-03,1.83E-02
31174,4.60E-03,1.86E-02
31175,4.36E-03,1.88E-02
31176,4.02E-03,1.91E-02
31177,4.24E-03,1.93E-02
31178,4.26E-03,1.95E-02
31179,4.31E-03,1.97E-02
31180,4.33E-03,1.99E-02
31181,4.41E-03,2.01E-02
31182,4.38E-03,2.03E-02
31183,4.31E-03,2.04E-02
31184,4.21E-03,2.06E-02
31185,4.19E-03,2.08E-02
31186,4.22E-03,2.09E-02
31187,4.68E-03,2.11E-02
31188,8.66E-03,1.24E-02
31189,6.21E-03,1.24E-02
31190,5.78E-03,1.23E-02
31191,6.14E-03,6.16E-03
31192,6.07E-03,6.14E-03
31193,4.87E-03,6.12E-03
31194,4.66E-03,6.12E-03
31195,4.83E-03,6.12E-03
31196,5.06E-03,6.13E-03
31197,5.27E-03,6.12E-03
31198,5.47E-03,6.11E-03
31199,5.88E-03,6.11E-03
31200,6.13E-03,6.10E-03
31201,6.24E-03,6.09E-03
31202,6.53E-03,6.08E-03
31203,6.66E-03,6.07E-03
31204,6.82E-03,6.06E-03
31205,6.99E-03,6.06E-03
31206,7.09E-03,6.06E-03
31207,7.26E-03,6.06E-03
31208,7.30E-03,6.06E-03
31209,7.34E-03,6.07E-03
31210,7.37E-03,6.08E-03
31211,7.41E-03,6.09E-03
31212,7.45E-03,6.11E-03
31213,7.48E-03,6.13E-03
31214,7.52E-03,6.16E-03
31215,7.56E-03,6.19E-03
31216,7.59E-03,6.22E-03
31217,7.62E-03,6.26E-03
31218,7.65E-03,6.30E-03
31219,7.67E-03,6.35E-03
31220,7.70E-03,6.41E-03
31221,7.72E-03,6.46E-03
31222,7.74E-03,6.53E-03
31223,7.77E-03,6.60E-03
31224,7.78E-03,6.67E-03
31225,7.80E-03,6.75E-03
31226,7.82E-03,6.84E-03
31227,7.84E-03,6.92E-03
31228,7.86E-03,7.02E-03
31229,7.87E-03,7.12E-03
31230,7.88E-03,7.22E-03
31231,7.88E-03,7.33E-03
31232,7.88E-03,7.44E-03
31233,7.88E-03,7.56E-03
31234,7.88E-03,7.68E-03
31235,7.87E-03,7.81E-03
31236,7.87E-03,7.94E-03
31237,7.87E-03,8.07E-03
31238,7.85E-03,8.20E-03
31239,7.83E-03,8.34E-03
31240,7.80E-03,8.48E-03
31241,7.77E-03,8.62E-03
31242,7.75E-03,8.76E-03
31243,7.72E-03,8.91E-03
31244,7.70E-03,9.06E-03
31245,7.67E-03,9.21E-03
31246,7.64E-03,9.36E-03
31247,7.62E-03,9.51E-03
31248,7.58E-03,9.66E-03
31249,7.52E-03,9.81E-03
31250,7.45E-03,9.96E-03
31251,7.39E-03,1.01E-02
31252,7.32E-03,1.03E-02
31253,7.25E-03,1.04E-02
31254,7.19E-03,1.06E-02
31255,7.12E-03,1.07E-02
31256,7.06E-03,1.09E-02
31257,7.00E-03,1.10E-02
31258,6.96E-03,1.12E-02
31259,6.91E-03,1.13E-02
31260,6.87E-03,1.15E-02
31261,6.83E-03,1.16E-02
31262,6.78E-03,1.18E-02
31263,6.72E-03,1.19E-02
31264,6.66E-03,1.20E-02
31265,6.59E-03,1.22E-02
31266,6.53E-03,1.23E-02
31267,6.46E-03,1.25E-02
31268,6.39E-03,1.26E-02
31269,6.28E-03,1.27E-02
31270,6.15E-03,1.29E-02
31271,6.01E-03,1.30E-02
31272,5.88E-03,1.31E-02
31273,5.76E-03,1.33E-02
31274,5.69E-03,1.34E-02
31275,5.67E-03,1.35E-02
31276,5.66E-03,1.36E-02
31277,5.67E-03,1.38E-02
31278,5.72E-03,1.39E-02
31279,5.77E-03,1.40E-02
31280,5.82E-03,1.41E-02
31281,5.86E-03,1.43E-02
31282,5.89E-03,1.44E-02
31283,5.92E-03,1.45E-02
31284,5.95E-03,1.46E-02
31285,5.99E-03,1.48E-02
31286,6.02E-03,1.49E-02
31287,6.13E-03,1.50E-02
31288,6.13E-03,1.52E-02
31289,6.18E-03,1.53E-02
31290,6.05E-03,1.54E-02
31291,6.09E-03,1.56E-02
31292,6.32E-03,1.57E-02
31293,6.19E-03,1.59E-02
31294,6.03E-03,1.60E-02
31295,5.75E-03,1.61E-02
31296,5.93E-03,1.08E-02
31297,6.17E-03,1.06E-02
31298,6.82E-03,1.07E-02
31299,8.32E-03,2.50E-02
31300,9.39E-03,8.09E-03
31301,6.95E-03,1.06E-02
31302,7.79E-03,1.51E-02
31303,8.83E-03,1.60E-02
31304,6.37E-03,1.16E-02
31305,7.05E-03,1.19E-02
31306,8.01E-03,1.58E-02
31307,7.02E-03,1.98E-02
31308,6.56E-03,8.36E-03
31309,9.17E-03,2.53E-02
31310,8.81E-03,9.17E-03
31311,7.83E-03,8.91E-03
31312,7.92E-03,8.75E-03
31313,9.02E-03,7.74E-03
31314,7.57E-03,9.07E-03
31315,8.55E-03,6.03E-03
31316,8.68E-03,6.04E-03
31317,1.03E-02,6.06E-03
31318,1.02E-02,6.08E-03
31319,1.04E-02,6.11E-03
31320,1.08E-02,6.16E-03
31321,6.92E-03,6.03E-03
31322,7.69E-03,6.15E-03
31323,6.14E-03,6.23E-03
31324,8.41E-03,6.16E-03
31325,4.22E-03,9.64E-03
31326,5.67E-03,9.50E-03
31327,8.45E-03,9.28E-03
31328,8.09E-03,9.02E-03
31329,8.09E-03,8.77E-03
31330,8.09E-03,8.53E-03
31331,8.09E-03,8.28E-03
31332,8.09E-03,8.04E-03
31333,8.09E-03,7.80E-03
31334,8.09E-03,7.56E-03
31335,8.09E-03,7.33E-03
31336,8.09E-03,7.10E-03
31337,8.09E-03,6.87E-03
31338,8.09E-03,6.65E-03
31339,8.09E-03,6.44E-03
31340,8.09E-03,6.23E-03
31341,8.09E-03,6.02E-03
31342,8.09E-03,5.83E-03
31343,8.09E-03,5.64E-03
31344,8.09E-03,5.46E-03
31345,8.09E-03,5.29E-03
31346,8.09E-03,5.14E-03
31347,8.09E-03,4.99E-03
31348,8.09E-03,4.86E-03
31349,8.09E-03,4.74E-03
31350,8.09E-03,4.63E-03
31351,8.09E-03,4.54E-03
31352,8.09E-03,4.46E-03
31353,8.09E-03,4.40E-03
31354,8.09E-03,4.36E-03
31355,8.09E-03,4.33E-03
31356,8.09E-03,4.32E-03
31357,8.09E-03,4.32E-03
31358,8.09E-03,4.34E-03
31359,8.09E-03,4.38E-03
31360,8.09E-03,4.42E-03
31361,8.09E-03,4.49E-03
31362,8.09E-03,4.56E-03
31363,8.09E-03,4.64E-03
31364,8.09E-03,4.74E-03
31365,8.09E-03,4.84E-03
31366,8.09E-03,4.94E-03
31367,8.09E-03,5.06E-03
31368,8.01E-03,5.18E-03
31369,7.91E-03,5.30E-03
31370,7.88E-03,5.43E-03
31371,7.91E-03,5.56E-03
31372,7.90E-03,5.70E-03
31373,8.00E-03,5.84E-03
31374,8.15E-03,5.99E-03
31375,8.09E-03,6.11E-03
31376,7.41E-03,6.24E-03
31377,8.48E-03,2.44E-02
31378,7.72E-03,2.44E-02
31379,8.35E-03,1.19E-02
31380,8.48E-03,1.18E-02
31381,8.95E-03,1.17E-02
31382,9.17E-03,1.15E-02
31383,9.50E-03,1.14E-02
31384,1.03E-02,1.13E-02
31385,8.17E-03,1.19E-02
31386,8.10E-03,1.51E-02
31387,8.10E-03,1.53E-02
31388,7.25E-03,1.93E-02
31389,7.31E-03,1.47E-02
31390,7.38E-03,1.50E-02
31391,7.28E-03,1.44E-02
31392,7.00E-03,1.34E-02
31393,8.75E-03,1.49E-02
31394,7.40E-03,1.11E-02
31395,9.05E-03,1.58E-02
31396,8.72E-03,1.59E-02
31397,6.27E-03,1.13E-02
31398,6.96E-03,1.17E-02
31399,9.80E-03,1.59E-02
31400,7.89E-03,1.29E-02
31401,7.16E-03,2.16E-02
31402,5.98E-03,1.13E-02
31403,7.70E-03,9.78E-03
31404,7.64E-03,6.88E-03
31405,8.39E-03,6.83E-03
31406,9.15E-03,6.79E-03
31407,1.07E-02,6.72E-03
31408,1.08E-02,6.66E-03
31409,1.08E-02,6.61E-03
31410,1.10E-02,6.56E-03
31411,1.08E-02,6.52E-03
31412,1.07E-02,6.50E-03
31413,1.04E-02,6.47E-03
31414,1.02E-02,6.46E-03
31415,1.01E-02,6.45E-03
31416,9.76E-03,6.45E-03
31417,9.18E-03,6.46E-03
31418,9.13E-03,6.47E-03
31419,9.03E-03,6.48E-03
31420,9.11E-03,6.50E-03
31421,8.63E-03,6.53E-03
31422,7.90E-03,6.58E-03
31423,7.16E-03,6.62E-03
31424,6.54E-03,6.65E-03
31425,7.20E-03,6.67E-03
31426,8.57E-03,6.17E-03
31427,8.09E-03,1.09E-02
31428,8.09E-03,1.07E-02
31429,8.09E-03,1.06E-02
31430,8.09E-03,1.04E-02
31431,8.09E-03,1.03E-02
31432,8.09E-03,1.02E-02
31433,8.09E-03,1.00E-02
31434,8.09E-03,9.88E-03
31435,8.09E-03,9.73E-03
31436,8.09E-03,9.58E-03
31437,8.09E-03,9.43E-03
31438,8.09E-03,9.28E-03
31439,8.09E-03,9.13E-03
31440,8.09E-03,8.98E-03
31441,8.09E-03,8.82E-03
31442,8.09E-03,8.67E-03
31443,8.09E-03,8.52E-03
31444,8.09E-03,8.36E-03
31445,8.09E-03,8.20E-03
31446,8.09E-03,8.05E-03
31447,8.09E-03,7.89E-03
31448,8.09E-03,7.74E-03
31449,8.09E-03,7.58E-03
31450,8.09E-03,7.43E-03
31451,8.09E-03,7.27E-03
31452,8.09E-03,7.12E-03
31453,8.09E-03,6.97E-03
31454,8.09E-03,6.82E-03
31455,8.09E-03,6.67E-03
31456,8.09E-03,6.53E-03
31457,8.09E-03,6.39E-03
31458,8.09E-03,6.25E-03
31459,8.09E-03,6.12E-03
31460,8.09E-03,5.99E-03
31461,8.09E-03,5.86E-03
31462,8.09E-03,5.75E-03
31463,8.09E-03,5.64E-03
31464,8.09E-03,5.53E-03
31465,8.09E-03,5.44E-03
31466,8.09E-03,5.35E-03
31467,8.09E-03,5.28E-03
31468,8.09E-03,5.21E-03
31469,8.09E-03,5.16E-03
31470,8.09E-03,5.11E-03
31471,8.09E-03,5.08E-03
31472,8.09E-03,5.06E-03
31473,8.09E-03,5.06E-03
31474,8.09E-03,5.07E-03
31475,8.09E-03,5.09E-03
31476,8.09E-03,5.13E-03
31477,8.09E-03,5.18E-03
31478,8.09E-03,5.24E-03
31479,7.99E-03,5.32E-03
31480,7.89E-03,5.40E-03
31481,7.85E-03,5.51E-03
31482,7.97E-03,5.64E-03
31483,8.09E-03,5.78E-03
31484,7.74E-03,5.89E-03
31485,7.52E-03,6.00E-03
31486,7.62E-03,6.20E-03
31487,6.91E-03,2.40E-02
31488,7.97E-03,2.33E-02
31489,8.50E-03,2.36E-02
31490,7.66E-03,2.37E-02
31491,8.11E-03,1.05E-02
31492,7.09E-03,9.13E-03
31493,7.79E-03,9.24E-03
31494,7.28E-03,8.98E-03
31495,8.45E-03,1.06E-02
31496,7.78E-03,7.92E-03
31497,8.23E-03,1.00E-02
31498,7.77E-03,2.45E-02
31499,8.70E-03,2.49E-02
31500,7.65E-03,7.03E-03
31501,8.76E-03,8.18E-03
31502,8.96E-03,2.60E-02
31503,6.01E-03,1.04E-02
31504,5.76E-03,1.06E-02
31505,8.56E-03,8.62E-03
31506,8.09E-03,1.58E-02
31507,8.82E-03,2.52E-02
31508,9.23E-03,1.21E-02
31509,8.10E-03,1.20E-02
31510,6.84E-03,1.34E-02
31511,6.81E-03,2.01E-02
31512,8.32E-03,6.71E-03
31513,8.10E-03,6.38E-03
31514,5.68E-03,8.79E-03
31515,6.28E-03,8.55E-03
31516,6.53E-03,7.33E-03
31517,6.47E-03,7.22E-03
31518,5.62E-03,7.18E-03
31519,1.07E-02,1.59E-02
31520,8.79E-03,1.58E-02
31521,7.66E-03,1.58E-02
31522,6.56E-03,2.23E-02
31523,6.89E-03,2.25E-02
31524,5.76E-03,2.26E-02
31525,3.64E-03,2.27E-02
31526,7.79E-03,2.30E-02
31527,8.61E-03,2.46E-02
31528,7.51E-03,2.47E-02
31529,8.10E-03,1.51E-02
31530,8.10E-03,1.54E-02
31531,7.17E-03,1.96E-02
31532,9.01E-03,1.50E-02
31533,8.72E-03,1.59E-02
31534,6.43E-03,1.27E-02
31535,6.87E-03,9.14E-03
31536,6.81E-03,2.15E-02
31537,8.88E-03,6.69E-03
31538,7.44E-03,6.65E-03
31539,8.72E-03,1.58E-02
31540,7.14E-03,1.57E-02
31541,8.67E-03,7.40E-03
31542,8.11E-03,1.58E-02
31543,6.96E-03,8.88E-03
31544,7.57E-03,9.96E-03
31545,6.56E-03,6.32E-03
31546,7.03E-03,6.48E-03
31547,8.10E-03,1.10E-02
31548,9.00E-03,7.60E-03
31549,8.94E-03,1.23E-02
31550,8.16E-03,1.26E-02
31551,6.49E-03,1.06E-02
31552,5.74E-03,1.05E-02
31553,5.87E-03,1.05E-02
31554,6.99E-03,6.44E-03
31555,7.40E-03,6.63E-03
31556,7.01E-03,1.31E-02
31557,8.10E-03,1.51E-02
31558,8.10E-03,1.54E-02
31559,6.10E-03,1.32E-02
31560,8.88E-03,1.51E-02
31561,5.16E-03,1.26E-02
31562,7.11E-03,1.29E-02
31563,7.34E-03,2.45E-02
31564,6.83E-03,1.57E-02
31565,8.10E-03,1.13E-02
31566,8.10E-03,1.12E-02
31567,7.21E-03,6.51E-03
31568,8.10E-03,1.50E-02
31569,8.10E-03,1.55E-02
31570,8.77E-03,1.51E-02
31571,5.05E-03,2.10E-02
31572,6.04E-03,2.05E-02
31573,8.05E-03,2.60E-02
31574,8.12E-03,2.58E-02
31575,8.25E-03,2.55E-02
31576,8.20E-03,2.62E-02
31577,8.10E-03,1.50E-02
31578,8.18E-03,1.55E-02
31579,8.10E-03,1.15E-02
31580,8.10E-03,1.49E-02
31581,8.36E-03,1.55E-02
31582,8.10E-03,1.49E-02
31583,8.47E-03,1.56E-02
31584,7.64E-03,1.53E-02
31585,8.02E-03,1.57E-02
31586,8.10E-03,1.16E-02
31587,8.10E-03,1.18E-02
31588,8.02E-03,1.57E-02
31589,8.10E-03,1.48E-02
31590,8.67E-03,1.56E-02
31591,8.02E-03,1.54E-02
31592,8.10E-03,1.57E-02
31593,8.10E-03,1.57E-02
31594,8.10E-03,1.19E-02
31595,8.24E-03,1.54E-02
31596,8.10E-03,1.47E-02
31597,8.10E-03,1.56E-02
31598,8.10E-03,1.20E-02
31599,8.10E-03,1.22E-02
31600,8.18E-03,1.57E-02
31601,8.10E-03,1.47E-02
31602,8.17E-03,1.55E-02
31603,8.10E-03,1.46E-02
31604,8.10E-03,1.55E-02
31605,8.10E-03,1.23E-02
31606,8.10E-03,1.25E-02
31607,8.10E-03,1.45E-02
31608,8.10E-03,1.56E-02
31609,8.10E-03,1.27E-02
31610,8.10E-03,1.26E-02
31611,8.10E-03,1.44E-02
31612,8.10E-03,1.56E-02
31613,8.10E-03,1.43E-02
31614,8.10E-03,1.56E-02
31615,8.10E-03,1.29E-02
31616,8.10E-03,1.30E-02
31617,8.10E-03,1.42E-02
31618,8.10E-03,1.33E-02
31619,8.10E-03,1.31E-02
31620,8.10E-03,1.41E-02
31621,8.10E-03,1.40E-02
31622,8.10E-03,1.39E-02
31623,8.10E-03,1.34E-02
31624,8.10E-03,1.38E-02
31625,8.10E-03,1.37E-02
31626,8.10E-03,1.36E-02
31627,8.10E-03,1.35E-02
31628,8.33E-03,2.48E-02
31629,9.05E-03,1.61E-02
31630,6.96E-03,1.62E-02
31631,6.27E-03,1.62E-02
31632,6.14E-03,1.10E-02
31633,5.49E-03,1.08E-02
31634,5.44E-03,1.25E-02
31635,4.47E-03,1.26E-02
31636,6.08E-03,2.14E-02
31637,4.38E-03,2.13E-02
31638,7.35E-03,9.99E-03
31639,6.26E-03,1.00E-02
31640,5.96E-03,1.03E-02
31641,1.02E-02,2.41E-02
31642,8.70E-03,2.44E-02
31643,7.79E-03,1.24E-02
31644,7.33E-03,1.28E-02
31645,7.58E-03,1.25E-02
31646,8.84E-03,1.52E-02
31647,8.65E-03,1.56E-02
31648,8.66E-03,1.57E-02
31649,7.45E-03,1.01E-02
31650,8.01E-03,1.03E-02
31651,6.57E-03,2.21E-02
31652,8.20E-03,2.45E-02
31653,9.47E-03,1.13E-02
31654,9.18E-03,1.12E-02
31655,8.52E-03,1.18E-02
31656,8.93E-03,1.17E-02
31657,9.16E-03,1.16E-02
31658,9.25E-03,1.15E-02
31659,8.10E-03,1.52E-02
31660,8.10E-03,1.52E-02
31661,8.10E-03,1.52E-02
31662,8.10E-03,1.53E-02
31663,8.10E-03,1.53E-02
31664,8.10E-03,1.52E-02
31665,7.39E-03,1.91E-02
31666,7.52E-03,1.89E-02
31667,7.57E-03,1.87E-02
31668,9.81E-03,1.84E-02
31669,1.14E-02,1.80E-02
31670,8.35E-03,1.77E-02
31671,8.19E-03,1.74E-02
31672,8.15E-03,1.71E-02
31673,8.03E-03,1.68E-02
31674,8.03E-03,1.66E-02
31675,7.94E-03,1.63E-02
31676,7.70E-03,1.60E-02
31677,7.68E-03,1.58E-02
31678,7.38E-03,1.55E-02
31679,7.28E-03,1.52E-02
31680,7.26E-03,1.41E-02
31681,7.14E-03,1.36E-02
31682,7.14E-03,1.39E-02
31683,8.54E-03,1.47E-02
31684,8.51E-03,1.45E-02
31685,8.31E-03,1.43E-02
31686,8.32E-03,1.41E-02
31687,8.26E-03,1.39E-02
31688,8.09E-03,1.37E-02
31689,8.09E-03,1.35E-02
31690,8.09E-03,1.33E-02
31691,8.09E-03,1.31E-02
31692,8.09E-03,1.29E-02
31693,8.09E-03,1.27E-02
31694,8.10E-03,1.24E-02
31695,8.09E-03,1.22E-02
31696,8.16E-03,1.20E-02
31697,8.06E-03,1.18E-02
31698,7.95E-03,1.15E-02
31699,7.82E-03,1.13E-02
31700,9.17E-03,1.58E-02
31701,9.29E-03,1.59E-02
31702,6.50E-03,1.15E-02
31703,9.23E-03,1.58E-02
31704,9.13E-03,1.58E-02
31705,9.28E-03,1.58E-02
31706,9.58E-03,1.58E-02
31707,9.55E-03,1.57E-02
31708,9.38E-03,1.57E-02
31709,9.21E-03,1.57E-02
31710,9.09E-03,1.57E-02
31711,9.04E-03,1.57E-02
31712,9.04E-03,1.57E-02
31713,9.04E-03,1.57E-02
31714,8.97E-03,1.57E-02
31715,8.79E-03,1.57E-02
31716,8.59E-03,1.57E-02
31717,8.46E-03,1.57E-02
31718,8.36E-03,1.57E-02
31719,8.28E-03,1.57E-02
31720,8.23E-03,1.57E-02
31721,8.22E-03,1.57E-02
31722,8.22E-03,1.57E-02
31723,8.22E-03,1.57E-02
31724,8.20E-03,1.57E-02
31725,8.17E-03,1.57E-02
31726,8.14E-03,1.57E-02
31727,8.09E-03,1.57E-02
31728,8.06E-03,1.57E-02
31729,8.02E-03,1.57E-02
31730,7.99E-03,1.56E-02
31731,7.96E-03,1.56E-02
31732,7.94E-03,1.56E-02
31733,7.96E-03,1.56E-02
31734,8.01E-03,1.56E-02
31735,8.06E-03,1.56E-02
31736,8.11E-03,1.56E-02
31737,8.16E-03,1.56E-02
31738,8.20E-03,1.56E-02
31739,8.25E-03,1.55E-02
31740,8.30E-03,1.55E-02
31741,8.39E-03,1.55E-02
31742,8.51E-03,1.55E-02
31743,8.63E-03,1.55E-02
31744,8.71E-03,1.55E-02
31745,8.76E-03,1.54E-02
31746,8.81E-03,1.54E-02
31747,8.86E-03,1.54E-02
31748,8.91E-03,1.54E-02
31749,8.97E-03,1.54E-02
31750,9.04E-03,1.53E-02
31751,9.11E-03,1.53E-02
31752,9.19E-03,1.53E-02
31753,9.29E-03,1.53E-02
31754,9.43E-03,1.53E-02
31755,9.59E-03,1.53E-02
31756,9.74E-03,1.53E-02
31757,9.83E-03,1.52E-02
31758,9.85E-03,1.52E-02
31759,9.82E-03,1.52E-02
31760,9.76E-03,1.52E-02
31761,9.69E-03,1.52E-02
31762,9.64E-03,1.52E-02
31763,9.59E-03,1.52E-02
31764,9.53E-03,1.52E-02
31765,9.47E-03,1.52E-02
31766,9.48E-03,1.52E-02
31767,9.49E-03,1.52E-02
31768,9.32E-03,1.52E-02
31769,8.95E-03,1.52E-02
31770,8.54E-03,1.52E-02
31771,8.13E-03,1.52E-02
31772,7.86E-03,1.52E-02
31773,7.86E-03,1.53E-02
31774,7.95E-03,1.53E-02
31775,7.87E-03,1.53E-02
31776,7.69E-03,1.53E-02
31777,7.53E-03,1.53E-02
31778,7.37E-03,1.53E-02
31779,7.23E-03,1.53E-02
31780,7.05E-03,1.53E-02
31781,6.82E-03,1.53E-02
31782,6.56E-03,1.52E-02
31783,6.34E-03,1.52E-02
31784,6.20E-03,1.52E-02
31785,6.09E-03,1.52E-02
31786,5.99E-03,1.52E-02
31787,5.92E-03,1.52E-02
31788,5.87E-03,1.52E-02
31789,5.82E-03,1.52E-02
31790,5.75E-03,1.52E-02
31791,5.64E-03,1.51E-02
31792,5.52E-03,1.51E-02
31793,5.43E-03,1.51E-02
31794,5.42E-03,1.51E-02
31795,5.48E-03,1.51E-02
31796,5.54E-03,1.50E-02
31797,5.61E-03,1.50E-02
31798,5.68E-03,1.50E-02
31799,5.76E-03,1.50E-02
31800,5.83E-03,1.49E-02
31801,5.90E-03,1.49E-02
31802,5.97E-03,1.49E-02
31803,6.02E-03,1.48E-02
31804,6.05E-03,1.48E-02
31805,6.08E-03,1.47E-02
31806,6.11E-03,1.47E-02
31807,6.13E-03,1.47E-02
31808,6.16E-03,1.46E-02
31809,6.17E-03,1.46E-02
31810,6.14E-03,1.45E-02
31811,6.08E-03,1.45E-02
31812,6.02E-03,1.44E-02
31813,5.96E-03,1.44E-02
31814,5.88E-03,1.43E-02
31815,5.81E-03,1.43E-02
31816,5.71E-03,1.42E-02
31817,5.56E-03,1.42E-02
31818,5.38E-03,1.41E-02
31819,5.19E-03,1.41E-02
31820,5.02E-03,1.41E-02
31821,4.86E-03,1.40E-02
31822,4.80E-03,1.40E-02
31823,4.88E-03,1.39E-02
31824,4.97E-03,1.39E-02
31825,4.87E-03,1.39E-02
31826,4.83E-03,1.38E-02
31827,6.00E-03,1.38E-02
31828,8.84E-03,1.37E-02
31829,8.96E-03,1.36E-02
31830,9.05E-03,1.35E-02
31831,1.13E-02,1.35E-02
31832,1.04E-02,1.34E-02
31833,1.04E-02,1.33E-02
31834,1.04E-02,1.32E-02
31835,9.72E-03,1.31E-02
31836,9.40E-03,1.30E-02
31837,8.72E-03,1.29E-02
31838,7.47E-03,9.23E-03
31839,8.24E-03,9.25E-03
31840,8.43E-03,9.28E-03
31841,8.44E-03,9.32E-03
31842,7.00E-03,9.37E-03
31843,6.52E-03,9.41E-03
31844,5.42E-03,9.45E-03
31845,4.12E-03,9.48E-03
31846,3.83E-03,9.50E-03
31847,4.18E-03,9.52E-03
31848,4.22E-03,9.55E-03
31849,4.12E-03,9.58E-03
31850,4.36E-03,9.61E-03
31851,4.45E-03,9.64E-03
31852,4.54E-03,9.67E-03
31853,4.77E-03,9.70E-03
31854,5.41E-03,9.76E-03
31855,6.19E-03,9.84E-03
31856,6.51E-03,9.91E-03
31857,7.16E-03,9.95E-03
31858,6.97E-03,2.17E-02
31859,6.75E-03,2.19E-02
31860,9.84E-03,2.39E-02
31861,6.08E-03,1.06E-02
31862,6.52E-03,1.05E-02
31863,6.77E-03,1.05E-02
31864,7.03E-03,1.04E-02
31865,7.94E-03,1.04E-02
31866,9.36E-03,1.03E-02
31867,1.08E-02,1.02E-02
31868,1.04E-02,1.01E-02
31869,9.17E-03,9.99E-03
31870,8.54E-03,9.91E-03
31871,8.49E-03,9.83E-03
31872,8.17E-03,9.75E-03
31873,7.79E-03,9.67E-03
31874,7.48E-03,9.59E-03
31875,7.15E-03,9.52E-03
31876,6.81E-03,9.45E-03
31877,6.55E-03,9.38E-03
31878,6.37E-03,9.32E-03
31879,6.20E-03,9.26E-03
31880,6.03E-03,9.20E-03
31881,5.86E-03,9.14E-03
31882,5.67E-03,9.08E-03
31883,5.42E-03,9.03E-03
31884,5.15E-03,8.98E-03
31885,4.87E-03,8.93E-03
31886,4.60E-03,8.89E-03
31887,4.41E-03,8.85E-03
31888,4.35E-03,8.81E-03
31889,4.34E-03,8.77E-03
31890,4.33E-03,8.73E-03
31891,4.32E-03,8.70E-03
31892,4.31E-03,8.66E-03
31893,4.30E-03,8.63E-03
31894,4.27E-03,8.60E-03
31895,4.22E-03,8.56E-03
31896,4.18E-03,8.53E-03
31897,4.13E-03,8.50E-03
31898,4.08E-03,8.47E-03
31899,4.03E-03,8.45E-03
31900,4.02E-03,8.42E-03
31901,4.05E-03,8.40E-03
31902,4.11E-03,8.37E-03
31903,4.17E-03,8.35E-03
31904,4.26E-03,8.32E-03
31905,4.37E-03,8.30E-03
31906,4.49E-03,8.28E-03
31907,4.62E-03,8.26E-03
31908,4.81E-03,8.23E-03
31909,5.04E-03,8.21E-03
31910,5.28E-03,8.19E-03
31911,5.50E-03,8.17E-03
31912,5.65E-03,8.15E-03
31913,5.77E-03,8.12E-03
31914,5.88E-03,8.10E-03
31915,5.99E-03,8.08E-03
31916,6.09E-03,8.06E-03
31917,6.19E-03,8.04E-03
31918,6.28E-03,8.02E-03
31919,6.38E-03,8.00E-03
31920,6.48E-03,7.98E-03
31921,6.57E-03,7.96E-03
31922,6.67E-03,7.94E-03
31923,6.75E-03,7.92E-03
31924,6.82E-03,7.90E-03
31925,6.86E-03,7.88E-03
31926,6.91E-03,7.87E-03
31927,6.95E-03,7.85E-03
31928,7.00E-03,7.83E-03
31929,7.04E-03,7.81E-03
31930,7.09E-03,7.79E-03
31931,7.13E-03,7.78E-03
31932,7.19E-03,7.76E-03
31933,7.27E-03,7.74E-03
31934,7.36E-03,7.72E-03
31935,7.46E-03,7.70E-03
31936,7.53E-03,7.68E-03
31937,7.59E-03,7.66E-03
31938,7.63E-03,7.64E-03
31939,7.67E-03,7.62E-03
31940,7.71E-03,7.60E-03
31941,7.65E-03,7.58E-03
31942,7.35E-03,7.55E-03
31943,7.09E-03,7.53E-03
31944,6.98E-03,7.51E-03
31945,6.82E-03,7.49E-03
31946,6.59E-03,7.47E-03
31947,6.42E-03,7.45E-03
31948,6.21E-03,7.43E-03
31949,5.96E-03,7.41E-03
31950,5.74E-03,7.39E-03
31951,5.84E-03,7.38E-03
31952,5.10E-03,7.37E-03
31953,5.38E-03,7.38E-03
31954,6.37E-03,6.85E-03
31955,7.06E-03,7.05E-03
31956,6.74E-03,1.15E-02
31957,7.06E-03,1.18E-02
31958,4.31E-03,9.60E-03
31959,5.74E-03,9.46E-03
31960,8.43E-03,9.24E-03
31961,8.09E-03,8.98E-03
31962,8.09E-03,8.73E-03
31963,8.09E-03,8.48E-03
31964,8.09E-03,8.24E-03
31965,8.09E-03,8.00E-03
31966,8.09E-03,7.76E-03
31967,8.09E-03,7.52E-03
31968,8.09E-03,7.29E-03
31969,8.09E-03,7.06E-03
31970,8.09E-03,6.84E-03
31971,8.09E-03,6.62E-03
31972,8.09E-03,6.40E-03
31973,8.09E-03,6.19E-03
31974,8.09E-03,5.99E-03
31975,8.09E-03,5.79E-03
31976,8.09E-03,5.61E-03
31977,8.09E-03,5.43E-03
31978,8.09E-03,5.26E-03
31979,8.09E-03,5.10E-03
31980,8.09E-03,4.95E-03
31981,8.09E-03,4.82E-03
31982,8.09E-03,4.69E-03
31983,8.09E-03,4.59E-03
31984,8.09E-03,4.49E-03
31985,8.09E-03,4.42E-03
31986,8.09E-03,4.35E-03
31987,8.09E-03,4.31E-03
31988,8.09E-03,4.28E-03
31989,8.09E-03,4.27E-03
31990,8.09E-03,4.27E-03
31991,8.09E-03,4.29E-03
31992,8.09E-03,4.32E-03
31993,8.09E-03,4.37E-03
31994,8.09E-03,4.43E-03
31995,8.09E-03,4.50E-03
31996,8.09E-03,4.58E-03
31997,8.09E-03,4.68E-03
31998,8.09E-03,4.78E-03
31999,8.09E-03,4.88E-03
32000,8.09E-03,5.00E-03
32001,8.09E-03,5.12E-03
32002,8.02E-03,5.24E-03
32003,7.96E-03,5.38E-03
32004,7.99E-03,5.51E-03
32005,8.02E-03,5.65E-03
32006,8.06E-03,5.79E-03
32007,7.98E-03,5.92E-03
32008,7.75E-03,6.05E-03
32009,7.54E-03,6.19E-03
32010,7.39E-03,6.33E-03
32011,7.40E-03,6.48E-03
32012,9.22E-03,6.80E-03
32013,7.93E-03,6.64E-03
32014,8.55E-03,6.17E-03
32015,8.59E-03,6.18E-03
32016,1.03E-02,6.21E-03
32017,1.03E-02,6.24E-03
32018,1.03E-02,6.28E-03
32019,9.47E-03,6.35E-03
32020,8.86E-03,6.32E-03
32021,8.27E-03,6.37E-03
32022,9.07E-03,6.40E-03
32023,7.27E-03,2.39E-02
32024,7.67E-03,2.38E-02
32025,7.86E-03,2.37E-02
32026,7.79E-03,2.36E-02
32027,7.47E-03,2.34E-02
32028,7.40E-03,2.33E-02
32029,6.42E-03,2.31E-02
32030,6.37E-03,2.30E-02
32031,6.21E-03,2.28E-02
32032,5.81E-03,2.27E-02
32033,5.63E-03,2.25E-02
32034,5.42E-03,2.23E-02
32035,7.59E-03,2.35E-02
32036,8.51E-03,1.08E-02
32037,8.57E-03,1.07E-02
32038,8.40E-03,9.38E-03
32039,7.57E-03,9.16E-03
32040,7.50E-03,1.07E-02
32041,7.60E-03,8.03E-03
32042,8.54E-03,2.60E-02
32043,8.99E-03,9.72E-03
32044,7.53E-03,2.47E-02
32045,8.44E-03,7.02E-03
32046,9.07E-03,6.98E-03
32047,9.41E-03,6.93E-03
32048,1.05E-02,6.88E-03
32049,1.09E-02,6.82E-03
32050,1.09E-02,6.76E-03
32051,1.11E-02,6.72E-03
32052,1.08E-02,6.68E-03
32053,1.07E-02,6.65E-03
32054,1.04E-02,6.63E-03
32055,1.01E-02,6.61E-03
32056,9.91E-03,6.60E-03
32057,9.72E-03,6.60E-03
32058,9.25E-03,6.60E-03
32059,9.15E-03,6.61E-03
32060,9.06E-03,6.63E-03
32061,8.83E-03,6.65E-03
32062,8.50E-03,6.68E-03
32063,8.15E-03,6.71E-03
32064,7.76E-03,6.74E-03
32065,7.66E-03,6.76E-03
32066,8.00E-03,6.79E-03
32067,6.15E-03,1.05E-02
32068,6.90E-03,2.39E-02
32069,7.80E-03,1.09E-02
32070,5.27E-03,1.09E-02
32071,5.71E-03,1.08E-02
32072,8.73E-03,8.48E-03
32073,8.76E-03,8.35E-03
32074,8.74E-03,8.21E-03
32075,8.77E-03,8.08E-03
32076,7.40E-03,7.95E-03
32077,4.93E-03,7.86E-03
32078,4.90E-03,7.79E-03
32079,4.60E-03,7.72E-03
32080,4.57E-03,7.65E-03
32081,4.43E-03,7.59E-03
32082,4.46E-03,7.52E-03
32083,4.77E-03,7.42E-03
32084,3.78E-03,7.34E-03
32085,8.11E-03,1.57E-02
32086,9.39E-03,2.52E-02
32087,8.14E-03,1.19E-02
32088,5.94E-03,1.37E-02
32089,5.81E-03,1.39E-02
32090,5.50E-03,1.41E-02
32091,4.99E-03,1.44E-02
32092,4.30E-03,1.46E-02
32093,3.47E-03,1.48E-02
32094,3.04E-03,1.50E-02
32095,3.15E-03,1.52E-02
32096,3.31E-03,1.53E-02
32097,3.39E-03,1.55E-02
32098,3.83E-03,1.57E-02
32099,4.08E-03,1.59E-02
32100,4.41E-03,1.61E-02
32101,4.50E-03,1.63E-02
32102,4.63E-03,1.66E-02
32103,4.71E-03,1.68E-02
32104,4.73E-03,1.71E-02
32105,4.60E-03,1.73E-02
32106,4.52E-03,1.75E-02
32107,4.45E-03,1.78E-02
32108,4.39E-03,1.80E-02
32109,4.45E-03,1.82E-02
32110,4.62E-03,1.85E-02
32111,5.82E-03,1.88E-02
32112,5.70E-03,1.91E-02
32113,4.63E-03,1.94E-02
32114,4.39E-03,1.96E-02
32115,4.34E-03,1.98E-02
32116,4.35E-03,2.00E-02
32117,4.41E-03,2.02E-02
32118,4.54E-03,2.04E-02
32119,4.46E-03,2.06E-02
32120,4.43E-03,2.08E-02
32121,4.21E-03,2.09E-02
32122,4.18E-03,2.11E-02
32123,4.21E-03,2.12E-02
32124,4.58E-03,2.14E-02
32125,6.97E-03,1.99E-02
32126,6.37E-03,8.36E-03
32127,1.03E-02,6.87E-03
32128,1.00E-02,2.56E-02
32129,6.49E-03,6.48E-03
32130,8.71E-03,6.34E-03
32131,6.49E-03,8.79E-03
32132,7.25E-03,7.16E-03
32133,6.12E-03,1.57E-02
32134,5.78E-03,2.29E-02
32135,4.48E-03,2.28E-02
32136,5.93E-03,2.27E-02
32137,8.56E-03,2.47E-02
32138,8.68E-03,2.47E-02
32139,7.27E-03,1.24E-02
32140,8.30E-03,1.23E-02
32141,8.66E-03,1.22E-02
32142,9.02E-03,1.21E-02
32143,7.54E-03,1.10E-02
32144,9.20E-03,1.13E-02
32145,8.10E-03,1.51E-02
32146,8.10E-03,1.54E-02
32147,7.30E-03,1.94E-02
32148,7.15E-03,1.47E-02
32149,7.29E-03,1.50E-02
32150,6.94E-03,1.44E-02
32151,6.57E-03,1.34E-02
32152,8.82E-03,1.48E-02
32153,9.16E-03,1.60E-02
32154,8.59E-03,1.61E-02
32155,6.36E-03,1.13E-02
32156,6.94E-03,1.17E-02
32157,8.96E-03,1.62E-02
32158,8.69E-03,1.61E-02
32159,8.90E-03,1.61E-02
32160,8.34E-03,1.28E-02
32161,8.41E-03,9.27E-03
32162,6.59E-03,1.02E-02
32163,7.41E-03,1.02E-02
32164,7.07E-03,2.16E-02
32165,6.77E-03,2.26E-02
32166,7.25E-03,6.84E-03
32167,1.05E-02,7.22E-03
32168,9.72E-03,1.57E-02
32169,7.36E-03,1.57E-02
32170,6.27E-03,7.50E-03
32171,5.69E-03,7.44E-03
32172,6.01E-03,7.29E-03
32173,8.76E-03,1.57E-02
32174,6.72E-03,8.97E-03
32175,6.78E-03,9.03E-03
32176,7.55E-03,9.07E-03
32177,6.40E-03,1.12E-02
32178,7.59E-03,9.73E-03
32179,6.28E-03,6.30E-03
32180,6.08E-03,6.27E-03
32181,5.41E-03,6.28E-03
32182,4.81E-03,6.26E-03
32183,4.85E-03,6.25E-03
32184,4.99E-03,6.25E-03
32185,5.24E-03,6.24E-03
32186,5.57E-03,6.23E-03
32187,5.92E-03,6.22E-03
32188,6.23E-03,6.21E-03
32189,6.36E-03,6.19E-03
32190,6.52E-03,6.18E-03
32191,6.71E-03,6.17E-03
32192,6.80E-03,6.16E-03
32193,7.02E-03,6.15E-03
32194,7.11E-03,6.14E-03
32195,7.28E-03,6.13E-03
32196,7.32E-03,6.13E-03
32197,7.35E-03,6.13E-03
32198,7.39E-03,6.14E-03
32199,7.42E-03,6.14E-03
32200,7.46E-03,6.16E-03
32201,7.50E-03,6.17E-03
32202,7.53E-03,6.19E-03
32203,7.57E-03,6.22E-03
32204,7.60E-03,6.24E-03
32205,7.63E-03,6.28E-03
32206,7.66E-03,6.32E-03
32207,7.68E-03,6.36E-03
32208,7.70E-03,6.41E-03
32209,7.73E-03,6.46E-03
32210,7.75E-03,6.52E-03
32211,7.77E-03,6.59E-03
32212,7.79E-03,6.66E-03
32213,7.81E-03,6.73E-03
32214,7.83E-03,6.81E-03
32215,7.84E-03,6.90E-03
32216,7.86E-03,6.99E-03
32217,7.88E-03,7.09E-03
32218,7.88E-03,7.19E-03
32219,7.88E-03,7.29E-03
32220,7.88E-03,7.41E-03
32221,7.88E-03,7.52E-03
32222,7.88E-03,7.64E-03
32223,7.88E-03,7.76E-03
32224,7.88E-03,7.89E-03
32225,7.87E-03,8.02E-03
32226,7.86E-03,8.16E-03
32227,7.83E-03,8.29E-03
32228,7.81E-03,8.43E-03
32229,7.78E-03,8.57E-03
32230,7.76E-03,8.72E-03
32231,7.73E-03,8.86E-03
32232,7.70E-03,9.01E-03
32233,7.68E-03,9.16E-03
32234,7.65E-03,9.31E-03
32235,7.63E-03,9.46E-03
32236,7.59E-03,9.62E-03
32237,7.53E-03,9.77E-03
32238,7.47E-03,9.92E-03
32239,7.40E-03,1.01E-02
32240,7.34E-03,1.02E-02
32241,7.27E-03,1.04E-02
32242,7.21E-03,1.05E-02
32243,7.14E-03,1.07E-02
32244,7.08E-03,1.08E-02
32245,7.03E-03,1.10E-02
32246,6.99E-03,1.11E-02
32247,6.94E-03,1.13E-02
32248,6.90E-03,1.14E-02
32249,6.86E-03,1.16E-02
32250,6.81E-03,1.17E-02
32251,6.76E-03,1.19E-02
32252,6.69E-03,1.20E-02
32253,6.63E-03,1.22E-02
32254,6.56E-03,1.23E-02
32255,6.50E-03,1.24E-02
32256,6.42E-03,1.26E-02
32257,6.32E-03,1.27E-02
32258,6.19E-03,1.29E-02
32259,6.06E-03,1.30E-02
32260,5.93E-03,1.31E-02
32261,5.81E-03,1.32E-02
32262,5.75E-03,1.34E-02
32263,5.73E-03,1.35E-02
32264,5.72E-03,1.36E-02
32265,5.73E-03,1.37E-02
32266,5.77E-03,1.39E-02
32267,5.82E-03,1.40E-02
32268,5.87E-03,1.41E-02
32269,5.91E-03,1.42E-02
32270,5.94E-03,1.44E-02
32271,5.97E-03,1.45E-02
32272,6.00E-03,1.46E-02
32273,6.03E-03,1.48E-02
32274,6.07E-03,1.49E-02
32275,6.10E-03,1.50E-02
32276,6.13E-03,1.52E-02
32277,6.16E-03,1.53E-02
32278,6.17E-03,1.55E-02
32279,6.23E-03,1.56E-02
32280,6.18E-03,1.57E-02
32281,6.08E-03,1.59E-02
32282,5.65E-03,1.60E-02
32283,4.49E-03,1.62E-02
32284,6.78E-03,6.46E-03
32285,8.16E-03,6.32E-03
32286,8.09E-03,1.09E-02
32287,8.09E-03,1.07E-02
32288,8.09E-03,1.06E-02
32289,8.09E-03,1.05E-02
32290,8.09E-03,1.03E-02
32291,8.09E-03,1.02E-02
32292,8.09E-03,1.00E-02
32293,8.09E-03,9.90E-03
32294,8.09E-03,9.75E-03
32295,8.09E-03,9.60E-03
32296,8.09E-03,9.45E-03
32297,8.09E-03,9.30E-03
32298,8.09E-03,9.15E-03
32299,8.09E-03,9.00E-03
32300,8.09E-03,8.84E-03
32301,8.09E-03,8.69E-03
32302,8.09E-03,8.53E-03
32303,8.09E-03,8.38E-03
32304,8.09E-03,8.22E-03
32305,8.09E-03,8.06E-03
32306,8.09E-03,7.91E-03
32307,8.09E-03,7.75E-03
32308,8.09E-03,7.59E-03
32309,8.09E-03,7.44E-03
32310,8.09E-03,7.28E-03
32311,8.09E-03,7.13E-03
32312,8.09E-03,6.98E-03
32313,8.09E-03,6.83E-03
32314,8.09E-03,6.68E-03
32315,8.09E-03,6.53E-03
32316,8.09E-03,6.39E-03
32317,8.09E-03,6.25E-03
32318,8.09E-03,6.12E-03
32319,8.09E-03,5.99E-03
32320,8.09E-03,5.87E-03
32321,8.09E-03,5.75E-03
32322,8.09E-03,5.63E-03
32323,8.09E-03,5.53E-03
32324,8.09E-03,5.43E-03
32325,8.09E-03,5.35E-03
32326,8.09E-03,5.27E-03
32327,8.09E-03,5.20E-03
32328,8.09E-03,5.14E-03
32329,8.09E-03,5.10E-03
32330,8.09E-03,5.06E-03
32331,8.09E-03,5.04E-03
32332,8.09E-03,5.04E-03
32333,8.09E-03,5.04E-03
32334,8.09E-03,5.06E-03
32335,8.09E-03,5.10E-03
32336,8.09E-03,5.14E-03
32337,8.09E-03,5.20E-03
32338,8.03E-03,5.28E-03
32339,8.00E-03,5.37E-03
32340,7.94E-03,5.47E-03
32341,7.97E-03,5.59E-03
32342,7.98E-03,5.72E-03
32343,7.84E-03,5.84E-03
32344,7.66E-03,5.99E-03
32345,7.64E-03,6.15E-03
32346,7.44E-03,6.30E-03
32347,7.26E-03,6.44E-03
32348,8.33E-03,1.57E-02
32349,8.32E-03,7.87E-03
32350,8.42E-03,7.77E-03
32351,6.72E-03,1.06E-02
32352,8.25E-03,1.09E-02
32353,7.23E-03,1.06E-02
32354,7.69E-03,1.23E-02
32355,7.37E-03,1.26E-02
32356,7.41E-03,1.05E-02
32357,7.23E-03,9.27E-03
32358,7.54E-03,9.40E-03
32359,7.63E-03,9.57E-03
32360,8.76E-03,2.55E-02
32361,7.79E-03,6.53E-03
32362,6.65E-03,2.03E-02
32363,8.50E-03,6.78E-03
32364,1.07E-02,6.97E-03
32365,6.74E-03,8.59E-03
32366,9.21E-03,8.43E-03
32367,8.12E-03,8.57E-03
32368,8.11E-03,8.71E-03
32369,9.49E-03,9.00E-03
32370,7.22E-03,2.32E-02
32371,6.90E-03,1.34E-02
32372,7.47E-03,2.50E-02
32373,8.59E-03,2.49E-02
32374,8.21E-03,1.19E-02
32375,9.20E-03,6.76E-03
32376,6.15E-03,1.08E-02
32377,8.10E-03,1.51E-02
32378,8.10E-03,1.54E-02
32379,7.21E-03,1.98E-02
32380,5.85E-03,1.32E-02
32381,8.78E-03,1.49E-02
32382,5.54E-03,1.63E-02
32383,3.71E-03,1.63E-02
32384,6.13E-03,1.64E-02
32385,9.18E-03,1.64E-02
32386,9.66E-03,1.63E-02
32387,6.71E-03,1.08E-02
32388,6.16E-03,1.10E-02
32389,6.48E-03,1.26E-02
32390,7.05E-03,1.32E-02
32391,7.36E-03,2.44E-02
32392,8.72E-03,2.49E-02
32393,6.92E-03,2.16E-02
32394,7.18E-03,6.66E-03
32395,6.53E-03,1.19E-02
32396,9.10E-03,2.52E-02
32397,7.38E-03,1.57E-02
32398,7.85E-03,7.59E-03
32399,8.10E-03,1.12E-02
32400,8.10E-03,1.10E-02
32401,7.56E-03,6.70E-03
32402,5.74E-03,1.25E-02
32403,6.70E-03,1.24E-02
32404,8.10E-03,1.50E-02
32405,8.10E-03,1.54E-02
32406,6.62E-03,1.29E-02
32407,8.68E-03,1.50E-02
32408,6.97E-03,1.30E-02
32409,5.97E-03,2.13E-02
32410,7.07E-03,2.15E-02
32411,7.28E-03,6.58E-03
32412,7.41E-03,1.05E-02
32413,8.23E-03,2.42E-02
32414,7.65E-03,2.46E-02
32415,5.76E-03,2.06E-02
32416,5.20E-03,2.10E-02
32417,7.42E-03,8.03E-03
32418,7.87E-03,2.62E-02
32419,8.10E-03,2.60E-02
32420,9.15E-03,2.56E-02
32421,6.27E-03,1.26E-02
32422,5.84E-03,1.28E-02
32423,7.67E-03,2.65E-02
32424,8.10E-03,1.50E-02
32425,8.10E-03,1.55E-02
32426,8.25E-03,1.50E-02
32427,8.18E-03,1.01E-02
32428,7.44E-03,9.91E-03
32429,7.25E-03,1.57E-02
32430,8.10E-03,1.13E-02
32431,8.10E-03,1.49E-02
32432,8.25E-03,1.55E-02
32433,8.10E-03,1.49E-02
32434,8.45E-03,1.55E-02
32435,5.83E-03,1.51E-02
32436,8.12E-03,1.56E-02
32437,8.10E-03,1.15E-02
32438,8.10E-03,1.16E-02
32439,8.07E-03,1.56E-02
32440,8.10E-03,1.48E-02
32441,8.52E-03,1.56E-02
32442,7.47E-03,1.52E-02
32443,8.10E-03,1.56E-02
32444,8.09E-03,1.56E-02
32445,8.10E-03,1.18E-02
32446,8.54E-03,1.56E-02
32447,7.96E-03,1.53E-02
32448,8.10E-03,1.48E-02
32449,8.10E-03,1.56E-02
32450,8.10E-03,1.19E-02
32451,8.10E-03,1.21E-02
32452,7.86E-03,1.57E-02
32453,8.10E-03,1.47E-02
32454,8.36E-03,1.56E-02
32455,8.53E-03,1.56E-02
32456,8.04E-03,1.54E-02
32457,8.10E-03,1.46E-02
32458,8.10E-03,1.54E-02
32459,8.10E-03,1.22E-02
32460,8.10E-03,1.24E-02
32461,8.10E-03,1.45E-02
32462,8.10E-03,1.54E-02
32463,8.10E-03,1.26E-02
32464,8.10E-03,1.25E-02
32465,8.10E-03,1.44E-02
32466,8.10E-03,1.55E-02
32467,8.10E-03,1.44E-02
32468,8.10E-03,1.55E-02
32469,8.10E-03,1.28E-02
32470,8.10E-03,1.29E-02
32471,8.10E-03,1.43E-02
32472,8.10E-03,1.56E-02
32473,8.10E-03,1.32E-02
32474,8.10E-03,1.30E-02
32475,8.10E-03,1.42E-02
32476,8.10E-03,1.41E-02
32477,8.10E-03,1.40E-02
32478,8.10E-03,1.33E-02
32479,8.10E-03,1.39E-02
32480,8.10E-03,1.38E-02
32481,7.56E-03,1.04E-02
32482,7.29E-03,1.01E-02
32483,8.10E-03,1.35E-02
32484,8.10E-03,1.34E-02
32485,8.10E-03,1.36E-02
32486,5.29E-03,1.66E-02
32487,9.14E-03,2.48E-02
32488,9.37E-03,1.20E-02
32489,9.05E-03,1.11E-02
32490,8.51E-03,1.17E-02
32491,9.49E-03,1.16E-02
32492,9.42E-03,1.15E-02
32493,9.36E-03,1.14E-02
32494,8.10E-03,1.52E-02
32495,8.10E-03,1.52E-02
32496,8.10E-03,1.52E-02
32497,8.10E-03,1.53E-02
32498,8.10E-03,1.53E-02
32499,8.10E-03,1.52E-02
32500,7.48E-03,1.92E-02
32501,7.52E-03,1.90E-02
32502,7.61E-03,1.87E-02
32503,1.00E-02,1.84E-02
32504,1.13E-02,1.81E-02
32505,8.37E-03,1.77E-02
32506,8.20E-03,1.75E-02
32507,8.13E-03,1.72E-02
32508,8.03E-03,1.69E-02
32509,8.03E-03,1.66E-02
32510,7.91E-03,1.63E-02
32511,7.67E-03,1.60E-02
32512,7.66E-03,1.58E-02
32513,7.39E-03,1.55E-02
32514,7.30E-03,1.52E-02
32515,6.87E-03,1.42E-02
32516,6.86E-03,1.36E-02
32517,6.93E-03,1.39E-02
32518,8.66E-03,1.46E-02
32519,8.58E-03,1.44E-02
32520,8.44E-03,1.42E-02
32521,8.33E-03,1.40E-02
32522,8.28E-03,1.38E-02
32523,8.09E-03,1.36E-02
32524,8.09E-03,1.34E-02
32525,8.09E-03,1.32E-02
32526,8.09E-03,1.30E-02
32527,8.09E-03,1.28E-02
32528,8.09E-03,1.26E-02
32529,8.10E-03,1.24E-02
32530,8.09E-03,1.22E-02
32531,8.03E-03,1.19E-02
32532,7.95E-03,1.17E-02
32533,7.86E-03,1.15E-02
32534,7.77E-03,1.12E-02
32535,9.26E-03,1.60E-02
32536,8.93E-03,1.61E-02
32537,6.51E-03,1.15E-02
32538,9.00E-03,1.60E-02
32539,9.00E-03,1.60E-02
32540,9.26E-03,1.60E-02
32541,9.42E-03,1.59E-02
32542,9.52E-03,1.59E-02
32543,9.30E-03,1.59E-02
32544,9.23E-03,1.59E-02
32545,9.06E-03,1.59E-02
32546,9.02E-03,1.59E-02
32547,9.02E-03,1.59E-02
32548,9.02E-03,1.59E-02
32549,8.95E-03,1.59E-02
32550,8.78E-03,1.59E-02
32551,8.58E-03,1.59E-02
32552,8.45E-03,1.59E-02
32553,8.36E-03,1.59E-02
32554,8.27E-03,1.59E-02
32555,8.23E-03,1.59E-02
32556,8.22E-03,1.59E-02
32557,8.22E-03,1.59E-02
32558,8.21E-03,1.59E-02
32559,8.20E-03,1.59E-02
32560,8.17E-03,1.59E-02
32561,8.14E-03,1.58E-02
32562,8.09E-03,1.58E-02
32563,8.06E-03,1.58E-02
32564,8.03E-03,1.58E-02
32565,7.99E-03,1.58E-02
32566,7.97E-03,1.58E-02
32567,7.95E-03,1.58E-02
32568,7.97E-03,1.58E-02
32569,8.01E-03,1.58E-02
32570,8.06E-03,1.58E-02
32571,8.11E-03,1.58E-02
32572,8.16E-03,1.57E-02
32573,8.20E-03,1.57E-02
32574,8.25E-03,1.57E-02
32575,8.30E-03,1.57E-02
32576,8.38E-03,1.57E-02
32577,8.50E-03,1.57E-02
32578,8.61E-03,1.56E-02
32579,8.70E-03,1.56E-02
32580,8.75E-03,1.56E-02
32581,8.79E-03,1.56E-02
32582,8.84E-03,1.55E-02
32583,8.89E-03,1.55E-02
32584,8.95E-03,1.55E-02
32585,9.02E-03,1.55E-02
32586,9.09E-03,1.55E-02
32587,9.16E-03,1.54E-02
32588,9.26E-03,1.54E-02
32589,9.40E-03,1.54E-02
32590,9.55E-03,1.54E-02
32591,9.70E-03,1.54E-02
32592,9.79E-03,1.54E-02
32593,9.81E-03,1.53E-02
32594,9.78E-03,1.53E-02
32595,9.72E-03,1.53E-02
32596,9.65E-03,1.53E-02
32597,9.60E-03,1.53E-02
32598,9.56E-03,1.53E-02
32599,9.49E-03,1.53E-02
32600,9.44E-03,1.53E-02
32601,9.45E-03,1.53E-02
32602,9.46E-03,1.53E-02
32603,9.29E-03,1.53E-02
32604,8.93E-03,1.53E-02
32605,8.53E-03,1.53E-02
32606,8.13E-03,1.53E-02
32607,7.86E-03,1.53E-02
32608,7.87E-03,1.53E-02
32609,7.95E-03,1.53E-02
32610,7.88E-03,1.53E-02
32611,7.70E-03,1.53E-02
32612,7.54E-03,1.53E-02
32613,7.39E-03,1.53E-02
32614,7.25E-03,1.53E-02
32615,7.07E-03,1.53E-02
32616,6.85E-03,1.53E-02
32617,6.60E-03,1.53E-02
32618,6.38E-03,1.53E-02
32619,6.24E-03,1.53E-02
32620,6.14E-03,1.53E-02
32621,6.05E-03,1.53E-02
32622,5.97E-03,1.53E-02
32623,5.92E-03,1.52E-02
32624,5.88E-03,1.52E-02
32625,5.81E-03,1.52E-02
32626,5.70E-03,1.52E-02
32627,5.58E-03,1.52E-02
32628,5.49E-03,1.51E-02
32629,5.49E-03,1.51E-02
32630,5.55E-03,1.51E-02
32631,5.61E-03,1.51E-02
32632,5.67E-03,1.50E-02
32633,5.74E-03,1.50E-02
32634,5.81E-03,1.50E-02
32635,5.88E-03,1.49E-02
32636,5.96E-03,1.49E-02
32637,6.02E-03,1.49E-02
32638,6.07E-03,1.48E-02
32639,6.10E-03,1.48E-02
32640,6.13E-03,1.48E-02
32641,6.16E-03,1.47E-02
32642,6.18E-03,1.47E-02
32643,6.21E-03,1.46E-02
32644,6.21E-03,1.46E-02
32645,6.18E-03,1.45E-02
32646,6.13E-03,1.45E-02
32647,6.07E-03,1.44E-02
32648,6.01E-03,1.44E-02
32649,5.94E-03,1.43E-02
32650,5.86E-03,1.43E-02
32651,5.77E-03,1.42E-02
32652,5.63E-03,1.42E-02
32653,5.45E-03,1.41E-02
32654,5.26E-03,1.41E-02
32655,5.09E-03,1.40E-02
32656,4.94E-03,1.40E-02
32657,4.88E-03,1.39E-02
32658,4.96E-03,1.39E-02
32659,5.05E-03,1.39E-02
32660,4.95E-03,1.38E-02
32661,4.91E-03,1.38E-02
32662,6.06E-03,1.37E-02
32663,8.70E-03,1.37E-02
32664,8.96E-03,1.36E-02
32665,8.98E-03,1.35E-02
32666,1.16E-02,1.34E-02
32667,1.04E-02,1.33E-02
32668,1.04E-02,1.32E-02
32669,1.03E-02,1.31E-02
32670,9.95E-03,1.30E-02
32671,9.83E-03,1.29E-02
32672,9.27E-03,1.28E-02
32673,9.19E-03,9.36E-03
32674,8.65E-03,9.45E-03
32675,8.60E-03,9.48E-03
32676,8.53E-03,9.51E-03
32677,7.02E-03,9.55E-03
32678,6.56E-03,9.59E-03
32679,5.49E-03,9.62E-03
32680,4.21E-03,9.65E-03
32681,3.94E-03,9.67E-03
32682,4.27E-03,9.69E-03
32683,4.31E-03,9.72E-03
32684,4.21E-03,9.75E-03
32685,4.36E-03,9.78E-03
32686,4.47E-03,9.81E-03
32687,4.51E-03,9.85E-03
32688,4.63E-03,9.87E-03
32689,5.20E-03,9.90E-03
32690,5.94E-03,9.95E-03
32691,6.56E-03,1.00E-02
32692,7.17E-03,1.01E-02
32693,6.89E-03,2.18E-02
32694,6.88E-03,2.20E-02
32695,6.53E-03,2.22E-02
32696,6.44E-03,2.24E-02
32697,7.95E-03,2.41E-02
32698,4.69E-03,1.04E-02
32699,5.70E-03,1.04E-02
32700,6.15E-03,1.03E-02
32701,6.45E-03,1.03E-02
32702,7.80E-03,1.02E-02
32703,1.00E-02,1.01E-02
32704,1.07E-02,1.00E-02
32705,1.07E-02,9.95E-03
32706,8.88E-03,9.86E-03
32707,8.69E-03,9.77E-03
32708,8.48E-03,9.69E-03
32709,8.18E-03,9.61E-03
32710,7.80E-03,9.53E-03
32711,7.49E-03,9.45E-03
32712,7.18E-03,9.38E-03
32713,6.84E-03,9.31E-03
32714,6.59E-03,9.24E-03
32715,6.41E-03,9.18E-03
32716,6.25E-03,9.12E-03
32717,6.08E-03,9.05E-03
32718,5.92E-03,9.00E-03
32719,5.73E-03,8.94E-03
32720,5.49E-03,8.88E-03
32721,5.22E-03,8.83E-03
32722,4.95E-03,8.79E-03
32723,4.69E-03,8.74E-03
32724,4.50E-03,8.70E-03
32725,4.44E-03,8.66E-03
32726,4.44E-03,8.62E-03
32727,4.43E-03,8.58E-03
32728,4.42E-03,8.54E-03
32729,4.41E-03,8.51E-03
32730,4.39E-03,8.47E-03
32731,4.36E-03,8.44E-03
32732,4.32E-03,8.40E-03
32733,4.27E-03,8.37E-03
32734,4.23E-03,8.34E-03
32735,4.18E-03,8.31E-03
32736,4.13E-03,8.28E-03
32737,4.12E-03,8.26E-03
32738,4.15E-03,8.23E-03
32739,4.21E-03,8.20E-03
32740,4.27E-03,8.18E-03
32741,4.35E-03,8.16E-03
32742,4.46E-03,8.13E-03
32743,4.58E-03,8.11E-03
32744,4.71E-03,8.08E-03
32745,4.89E-03,8.06E-03
32746,5.12E-03,8.04E-03
32747,5.35E-03,8.02E-03
32748,5.56E-03,7.99E-03
32749,5.71E-03,7.97E-03
32750,5.82E-03,7.95E-03
32751,5.93E-03,7.92E-03
32752,6.04E-03,7.90E-03
32753,6.14E-03,7.88E-03
32754,6.24E-03,7.86E-03
32755,6.33E-03,7.84E-03
32756,6.42E-03,7.82E-03
32757,6.52E-03,7.80E-03
32758,6.61E-03,7.78E-03
32759,6.70E-03,7.76E-03
32760,6.79E-03,7.74E-03
32761,6.85E-03,7.72E-03
32762,6.89E-03,7.70E-03
32763,6.94E-03,7.68E-03
32764,6.98E-03,7.66E-03
32765,7.02E-03,7.64E-03
32766,7.07E-03,7.62E-03
32767,7.11E-03,7.60E-03
32768,7.16E-03,7.58E-03
32769,7.21E-03,7.56E-03
32770,7.29E-03,7.55E-03
32771,7.38E-03,7.53E-03
32772,7.47E-03,7.51E-03
32773,7.55E-03,7.48E-03
32774,7.60E-03,7.46E-03
32775,7.64E-03,7.44E-03
32776,7.68E-03,7.42E-03
32777,7.72E-03,7.40E-03
32778,7.71E-03,7.37E-03
32779,7.43E-03,7.35E-03
32780,7.07E-03,7.33E-03
32781,7.01E-03,7.31E-03
32782,6.85E-03,7.28E-03
32783,6.60E-03,7.26E-03
32784,6.44E-03,7.24E-03
32785,6.24E-03,7.22E-03
32786,6.03E-03,7.21E-03
32787,5.89E-03,7.19E-03
32788,6.00E-03,7.16E-03
32789,6.49E-03,7.12E-03
32790,4.54E-03,7.08E-03
32791,2.00E-03,7.06E-03
32792,1.88E-03,7.07E-03
32793,2.71E-03,7.15E-03
32794,3.35E-03,7.25E-03
32795,3.99E-03,7.28E-03
32796,4.33E-03,7.33E-03
32797,4.28E-03,7.39E-03
32798,4.72E-03,7.45E-03
32799,4.66E-03,7.51E-03
32800,4.97E-03,7.58E-03
32801,5.00E-03,7.65E-03
32802,7.21E-03,7.74E-03
32803,9.04E-03,7.86E-03
32804,8.96E-03,8.00E-03
32805,9.08E-03,8.14E-03
32806,9.05E-03,8.28E-03
32807,8.36E-03,7.06E-03
32808,4.20E-03,1.64E-02
32809,5.24E-03,1.65E-02
32810,1.02E-02,6.99E-03
32811,8.13E-03,7.11E-03
32812,6.30E-03,1.56E-02
32813,6.56E-03,7.38E-03
32814,9.55E-03,1.57E-02
32815,8.80E-03,1.08E-02
32816,7.40E-03,9.23E-03
32817,8.25E-03,9.14E-03
32818,7.19E-03,1.14E-02
32819,7.29E-03,1.16E-02
32820,4.40E-03,9.56E-03
32821,5.81E-03,9.41E-03
32822,8.41E-03,9.19E-03
32823,8.09E-03,8.94E-03
32824,8.09E-03,8.69E-03
32825,8.09E-03,8.44E-03
32826,8.09E-03,8.20E-03
32827,8.09E-03,7.96E-03
32828,8.09E-03,7.72E-03
32829,8.09E-03,7.49E-03
32830,8.09E-03,7.26E-03
32831,8.09E-03,7.03E-03
32832,8.09E-03,6.80E-03
32833,8.09E-03,6.58E-03
32834,8.09E-03,6.37E-03
32835,8.09E-03,6.16E-03
32836,8.09E-03,5.96E-03
32837,8.09E-03,5.76E-03
32838,8.09E-03,5.57E-03
32839,8.09E-03,5.39E-03
32840,8.09E-03,5.22E-03
32841,8.09E-03,5.06E-03
32842,8.09E-03,4.92E-03
32843,8.09E-03,4.78E-03
32844,8.09E-03,4.66E-03
32845,8.09E-03,4.55E-03
32846,8.09E-03,4.45E-03
32847,8.09E-03,4.37E-03
32848,8.09E-03,4.31E-03
32849,8.09E-03,4.26E-03
32850,8.09E-03,4.23E-03
32851,8.09E-03,4.22E-03
32852,8.09E-03,4.22E-03
32853,8.09E-03,4.23E-03
32854,8.09E-03,4.27E-03
32855,8.09E-03,4.31E-03
32856,8.09E-03,4.37E-03
32857,8.09E-03,4.44E-03
32858,8.09E-03,4.53E-03
32859,8.09E-03,4.62E-03
32860,8.09E-03,4.72E-03
32861,8.09E-03,4.83E-03
32862,8.09E-03,4.94E-03
32863,8.09E-03,5.06E-03
32864,8.09E-03,5.19E-03
32865,8.09E-03,5.32E-03
32866,8.09E-03,5.46E-03
32867,8.09E-03,5.59E-03
32868,8.09E-03,5.73E-03
32869,7.98E-03,5.87E-03
32870,7.84E-03,6.00E-03
32871,7.69E-03,6.14E-03
32872,7.60E-03,6.29E-03
32873,7.69E-03,6.44E-03
32874,8.04E-03,6.60E-03
32875,6.30E-03,6.44E-03
32876,6.24E-03,6.41E-03
32877,5.71E-03,6.44E-03
32878,4.84E-03,6.40E-03
32879,4.88E-03,6.39E-03
32880,4.94E-03,6.38E-03
32881,5.22E-03,6.37E-03
32882,5.65E-03,6.36E-03
32883,5.89E-03,6.35E-03
32884,6.38E-03,6.33E-03
32885,6.45E-03,6.31E-03
32886,6.53E-03,6.29E-03
32887,6.74E-03,6.28E-03
32888,6.83E-03,6.26E-03
32889,7.04E-03,6.25E-03
32890,7.13E-03,6.23E-03
32891,7.30E-03,6.22E-03
32892,7.34E-03,6.21E-03
32893,7.37E-03,6.21E-03
32894,7.41E-03,6.21E-03
32895,7.44E-03,6.21E-03
32896,7.48E-03,6.21E-03
32897,7.51E-03,6.22E-03
32898,7.55E-03,6.24E-03
32899,7.58E-03,6.26E-03
32900,7.61E-03,6.28E-03
32901,7.64E-03,6.31E-03
32902,7.67E-03,6.34E-03
32903,7.69E-03,6.38E-03
32904,7.71E-03,6.42E-03
32905,7.74E-03,6.47E-03
32906,7.76E-03,6.52E-03
32907,7.78E-03,6.58E-03
32908,7.80E-03,6.65E-03
32909,7.82E-03,6.72E-03
32910,7.83E-03,6.80E-03
32911,7.85E-03,6.88E-03
32912,7.87E-03,6.97E-03
32913,7.88E-03,7.06E-03
32914,7.89E-03,7.16E-03
32915,7.89E-03,7.26E-03
32916,7.89E-03,7.37E-03
32917,7.89E-03,7.48E-03
32918,7.89E-03,7.60E-03
32919,7.88E-03,7.72E-03
32920,7.88E-03,7.85E-03
32921,7.88E-03,7.98E-03
32922,7.86E-03,8.11E-03
32923,7.84E-03,8.25E-03
32924,7.81E-03,8.39E-03
32925,7.79E-03,8.53E-03
32926,7.76E-03,8.67E-03
32927,7.74E-03,8.82E-03
32928,7.71E-03,8.97E-03
32929,7.69E-03,9.12E-03
32930,7.66E-03,9.27E-03
32931,7.64E-03,9.42E-03
32932,7.60E-03,9.57E-03
32933,7.55E-03,9.73E-03
32934,7.48E-03,9.88E-03
32935,7.42E-03,1.00E-02
32936,7.36E-03,1.02E-02
32937,7.29E-03,1.03E-02
32938,7.23E-03,1.05E-02
32939,7.17E-03,1.06E-02
32940,7.11E-03,1.08E-02
32941,7.05E-03,1.09E-02
32942,7.01E-03,1.11E-02
32943,6.97E-03,1.12E-02
32944,6.93E-03,1.14E-02
32945,6.88E-03,1.15E-02
32946,6.84E-03,1.17E-02
32947,6.79E-03,1.18E-02
32948,6.73E-03,1.20E-02
32949,6.66E-03,1.21E-02
32950,6.60E-03,1.23E-02
32951,6.54E-03,1.24E-02
32952,6.46E-03,1.26E-02
32953,6.36E-03,1.27E-02
32954,6.24E-03,1.28E-02
32955,6.11E-03,1.30E-02
32956,5.98E-03,1.31E-02
32957,5.87E-03,1.32E-02
32958,5.81E-03,1.34E-02
32959,5.79E-03,1.35E-02
32960,5.77E-03,1.36E-02
32961,5.79E-03,1.37E-02
32962,5.83E-03,1.39E-02
32963,5.88E-03,1.40E-02
32964,5.92E-03,1.41E-02
32965,5.96E-03,1.42E-02
32966,5.99E-03,1.44E-02
32967,6.02E-03,1.45E-02
32968,6.05E-03,1.46E-02
32969,6.08E-03,1.48E-02
32970,6.12E-03,1.49E-02
32971,6.15E-03,1.50E-02
32972,6.18E-03,1.52E-02
32973,6.20E-03,1.53E-02
32974,6.22E-03,1.54E-02
32975,6.21E-03,1.56E-02
32976,6.20E-03,1.57E-02
32977,6.12E-03,1.58E-02
32978,5.98E-03,1.60E-02
32979,6.82E-03,1.61E-02
32980,8.38E-03,6.32E-03
32981,8.58E-03,6.34E-03
32982,1.03E-02,6.38E-03
32983,1.03E-02,6.42E-03
32984,9.82E-03,6.47E-03
32985,9.77E-03,6.49E-03
32986,9.44E-03,6.51E-03
32987,9.57E-03,6.56E-03
32988,6.90E-03,6.57E-03
32989,5.84E-03,6.68E-03
32990,7.37E-03,6.67E-03
32991,8.33E-03,1.57E-02
32992,5.55E-03,7.99E-03
32993,6.15E-03,7.90E-03
32994,4.89E-03,1.05E-02
32995,6.35E-03,1.03E-02
32996,4.64E-03,1.05E-02
32997,7.34E-03,1.23E-02
32998,7.02E-03,1.26E-02
32999,7.82E-03,1.04E-02
33000,8.11E-03,2.55E-02
33001,6.39E-03,6.48E-03
33002,6.30E-03,6.54E-03
33003,6.96E-03,2.01E-02
33004,7.10E-03,8.81E-03
33005,6.89E-03,9.02E-03
33006,6.68E-03,8.57E-03
33007,6.62E-03,8.74E-03
33008,9.01E-03,2.59E-02
33009,9.52E-03,8.42E-03
33010,6.78E-03,2.31E-02
33011,6.50E-03,2.29E-02
33012,6.78E-03,2.28E-02
33013,5.93E-03,1.37E-02
33014,5.82E-03,1.39E-02
33015,5.45E-03,1.42E-02
33016,4.91E-03,1.44E-02
33017,4.22E-03,1.46E-02
33018,3.66E-03,1.48E-02
33019,3.17E-03,1.50E-02
33020,3.21E-03,1.52E-02
33021,3.37E-03,1.53E-02
33022,3.56E-03,1.55E-02
33023,4.00E-03,1.57E-02
33024,4.06E-03,1.59E-02
33025,4.51E-03,1.61E-02
33026,4.54E-03,1.64E-02
33027,4.66E-03,1.66E-02
33028,4.85E-03,1.69E-02
33029,4.81E-03,1.71E-02
33030,4.69E-03,1.74E-02
33031,4.60E-03,1.76E-02
33032,4.56E-03,1.79E-02
33033,4.47E-03,1.81E-02
33034,4.47E-03,1.84E-02
33035,4.71E-03,1.87E-02
33036,5.42E-03,1.90E-02
33037,8.08E-03,2.49E-02
33038,8.40E-03,2.49E-02
33039,8.20E-03,1.09E-02
33040,8.10E-03,1.51E-02
33041,8.10E-03,1.54E-02
33042,7.44E-03,1.95E-02
33043,7.00E-03,1.47E-02
33044,7.15E-03,1.50E-02
33045,6.79E-03,1.44E-02
33046,6.51E-03,1.34E-02
33047,8.70E-03,1.47E-02
33048,8.71E-03,1.63E-02
33049,6.31E-03,1.12E-02
33050,6.92E-03,1.17E-02
33051,8.01E-03,1.63E-02
33052,8.43E-03,1.63E-02
33053,9.27E-03,1.26E-02
33054,7.00E-03,1.34E-02
33055,7.47E-03,2.44E-02
33056,7.64E-03,2.42E-02
33057,7.81E-03,2.41E-02
33058,7.54E-03,2.40E-02
33059,7.45E-03,2.38E-02
33060,7.35E-03,2.37E-02
33061,6.55E-03,2.35E-02
33062,6.45E-03,2.34E-02
33063,6.27E-03,2.32E-02
33064,5.76E-03,2.31E-02
33065,5.57E-03,2.29E-02
33066,5.26E-03,2.28E-02
33067,4.98E-03,2.27E-02
33068,4.43E-03,2.26E-02
33069,3.27E-03,2.23E-02
33070,3.87E-03,2.21E-02
33071,4.15E-03,2.19E-02
33072,4.12E-03,2.17E-02
33073,4.22E-03,2.15E-02
33074,4.21E-03,2.13E-02
33075,4.49E-03,2.11E-02
33076,4.55E-03,2.09E-02
33077,4.63E-03,2.07E-02
33078,4.54E-03,2.05E-02
33079,4.45E-03,2.03E-02
33080,4.50E-03,2.01E-02
33081,4.52E-03,1.99E-02
33082,4.75E-03,1.95E-02
33083,5.37E-03,1.92E-02
33084,4.30E-03,1.91E-02
33085,7.67E-03,2.49E-02
33086,6.92E-03,2.17E-02
33087,6.86E-03,2.27E-02
33088,9.53E-03,8.25E-03
33089,6.98E-03,6.88E-03
33090,8.69E-03,2.58E-02
33091,7.37E-03,1.11E-02
33092,6.39E-03,8.48E-03
33093,7.69E-03,2.53E-02
33094,1.03E-02,7.39E-03
33095,7.66E-03,1.56E-02
33096,7.29E-03,7.60E-03
33097,7.02E-03,7.55E-03
33098,7.70E-03,6.48E-03
33099,8.10E-03,1.11E-02
33100,6.83E-03,6.62E-03
33101,8.81E-03,1.57E-02
33102,7.23E-03,2.34E-02
33103,6.73E-03,8.59E-03
33104,9.06E-03,9.42E-03
33105,7.78E-03,9.58E-03
33106,8.15E-03,6.88E-03
33107,8.88E-03,7.07E-03
33108,7.99E-03,2.52E-02
33109,7.38E-03,1.24E-02
33110,8.74E-03,1.23E-02
33111,7.55E-03,1.20E-02
33112,7.99E-03,1.21E-02
33113,7.78E-03,9.26E-03
33114,7.61E-03,9.40E-03
33115,8.10E-03,1.51E-02
33116,8.10E-03,1.54E-02
33117,7.22E-03,1.99E-02
33118,7.09E-03,1.29E-02
33119,6.49E-03,1.32E-02
33120,8.75E-03,1.48E-02
33121,6.87E-03,1.66E-02
33122,7.20E-03,1.66E-02
33123,8.26E-03,1.65E-02
33124,6.96E-03,1.20E-02
33125,7.12E-03,1.32E-02
33126,1.01E-02,2.53E-02
33127,8.25E-03,2.51E-02
33128,6.66E-03,2.17E-02
33129,6.70E-03,6.67E-03
33130,5.87E-03,6.73E-03
33131,7.38E-03,6.76E-03
33132,7.85E-03,2.56E-02
33133,5.82E-03,2.58E-02
33134,6.69E-03,2.59E-02
33135,8.55E-03,7.48E-03
33136,7.41E-03,1.63E-02
33137,1.10E-02,1.55E-02
33138,6.73E-03,2.41E-02
33139,8.50E-03,1.24E-02
33140,7.45E-03,1.08E-02
33141,8.71E-03,1.08E-02
33142,8.05E-03,1.07E-02
33143,7.15E-03,1.06E-02
33144,8.25E-03,1.04E-02
33145,7.58E-03,1.06E-02
33146,7.25E-03,2.44E-02
33147,6.89E-03,2.46E-02
33148,7.11E-03,2.48E-02
33149,6.74E-03,2.04E-02
33150,6.27E-03,2.08E-02
33151,7.79E-03,8.12E-03
33152,7.15E-03,8.12E-03
33153,6.12E-03,1.04E-02
33154,7.79E-03,2.64E-02
33155,8.19E-03,2.61E-02
33156,5.83E-03,1.29E-02
33157,7.88E-03,2.64E-02
33158,6.40E-03,2.12E-02
33159,5.95E-03,2.12E-02
33160,6.74E-03,2.15E-02
33161,7.67E-03,1.04E-02
33162,6.17E-03,1.04E-02
33163,8.10E-03,1.50E-02
33164,8.10E-03,1.54E-02
33165,8.66E-03,1.49E-02
33166,6.71E-03,1.25E-02
33167,7.14E-03,1.22E-02
33168,7.19E-03,1.30E-02
33169,4.86E-03,1.04E-02
33170,9.63E-03,9.76E-03
33171,4.31E-03,2.55E-02
33172,8.24E-03,2.56E-02
33173,6.18E-03,2.58E-02
33174,7.54E-03,9.70E-03
33175,8.19E-03,1.10E-02
33176,7.55E-03,1.07E-02
33177,7.26E-03,1.25E-02
33178,7.62E-03,1.24E-02
33179,7.69E-03,2.49E-02
33180,7.53E-03,1.56E-02
33181,6.56E-03,2.68E-02
33182,7.32E-03,9.88E-03
33183,6.96E-03,1.01E-02
33184,1.07E-02,7.18E-03
33185,9.83E-03,7.14E-03
33186,1.01E-02,7.09E-03
33187,1.02E-02,7.03E-03
33188,1.09E-02,6.98E-03
33189,1.11E-02,6.92E-03
33190,1.12E-02,6.87E-03
33191,1.09E-02,6.83E-03
33192,1.07E-02,6.80E-03
33193,1.04E-02,6.78E-03
33194,1.01E-02,6.77E-03
33195,9.79E-03,6.76E-03
33196,9.60E-03,6.75E-03
33197,9.30E-03,6.76E-03
33198,9.11E-03,6.76E-03
33199,8.89E-03,6.78E-03
33200,8.79E-03,6.80E-03
33201,8.55E-03,6.82E-03
33202,8.33E-03,6.85E-03
33203,8.16E-03,6.87E-03
33204,8.21E-03,6.90E-03
33205,8.44E-03,6.92E-03
33206,9.32E-03,6.96E-03
33207,8.23E-03,6.92E-03
33208,8.23E-03,7.03E-03
33209,7.75E-03,7.74E-03
33210,8.10E-03,1.12E-02
33211,5.71E-03,8.07E-03
33212,8.00E-03,1.02E-02
33213,9.93E-03,9.14E-03
33214,9.90E-03,1.61E-02
33215,8.44E-03,1.64E-02
33216,8.10E-03,1.50E-02
33217,8.10E-03,1.54E-02
33218,7.98E-03,1.50E-02
33219,7.45E-03,2.66E-02
33220,8.10E-03,1.49E-02
33221,8.28E-03,1.55E-02
33222,6.27E-03,1.50E-02
33223,8.33E-03,1.56E-02
33224,8.10E-03,1.14E-02
33225,8.10E-03,1.15E-02
33226,8.10E-03,1.56E-02
33227,8.10E-03,1.49E-02
33228,8.40E-03,1.55E-02
33229,6.97E-03,1.51E-02
33230,8.10E-03,1.55E-02
33231,8.05E-03,1.56E-02
33232,8.10E-03,1.17E-02
33233,8.53E-03,1.55E-02
33234,7.64E-03,1.52E-02
33235,8.10E-03,1.48E-02
33236,8.10E-03,1.55E-02
33237,8.10E-03,1.18E-02
33238,8.10E-03,1.20E-02
33239,7.63E-03,1.56E-02
33240,8.10E-03,1.47E-02
33241,8.45E-03,1.55E-02
33242,7.88E-03,1.52E-02
33243,8.10E-03,1.46E-02
33244,8.21E-03,1.56E-02
33245,8.44E-03,1.56E-02
33246,8.03E-03,1.53E-02
33247,8.10E-03,1.21E-02
33248,8.10E-03,1.22E-02
33249,8.10E-03,1.46E-02
33250,8.10E-03,1.53E-02
33251,8.10E-03,1.25E-02
33252,8.10E-03,1.24E-02
33253,8.10E-03,1.45E-02
33254,8.10E-03,1.54E-02
33255,8.10E-03,1.44E-02
33256,8.10E-03,1.54E-02
33257,8.10E-03,1.27E-02
33258,8.10E-03,1.28E-02
33259,8.10E-03,1.43E-02
33260,8.10E-03,1.55E-02
33261,8.10E-03,1.31E-02
33262,8.10E-03,1.29E-02
33263,8.10E-03,1.42E-02
33264,8.10E-03,1.55E-02
33265,8.10E-03,1.41E-02
33266,8.10E-03,1.40E-02
33267,8.10E-03,1.32E-02
33268,8.10E-03,1.39E-02
33269,8.10E-03,1.38E-02
33270,8.10E-03,1.34E-02
33271,8.10E-03,1.33E-02
33272,8.10E-03,1.36E-02
33273,8.10E-03,1.37E-02
33274,8.09E-03,1.09E-02
33275,8.09E-03,1.08E-02
33276,8.09E-03,1.06E-02
33277,8.09E-03,1.05E-02
33278,8.09E-03,1.03E-02
33279,8.09E-03,1.02E-02
33280,8.09E-03,1.01E-02
33281,8.09E-03,9.92E-03
33282,8.09E-03,9.77E-03
33283,8.09E-03,9.62E-03
33284,8.09E-03,9.47E-03
33285,8.09E-03,9.32E-03
33286,8.09E-03,9.17E-03
33287,8.09E-03,9.01E-03
33288,8.09E-03,8.86E-03
33289,8.09E-03,8.70E-03
33290,8.09E-03,8.55E-03
33291,8.09E-03,8.39E-03
33292,8.09E-03,8.23E-03
33293,8.09E-03,8.08E-03
33294,8.09E-03,7.92E-03
33295,8.09E-03,7.76E-03
33296,8.09E-03,7.61E-03
33297,8.09E-03,7.45E-03
33298,8.09E-03,7.29E-03
33299,8.09E-03,7.14E-03
33300,8.09E-03,6.99E-03
33301,8.09E-03,6.84E-03
33302,8.09E-03,6.69E-03
33303,8.09E-03,6.54E-03
33304,8.09E-03,6.40E-03
33305,8.09E-03,6.26E-03
33306,8.09E-03,6.12E-03
33307,8.09E-03,5.99E-03
33308,8.09E-03,5.87E-03
33309,8.09E-03,5.75E-03
33310,8.09E-03,5.63E-03
33311,8.09E-03,5.53E-03
33312,8.09E-03,5.43E-03
33313,8.09E-03,5.34E-03
33314,8.09E-03,5.26E-03
33315,8.09E-03,5.19E-03
33316,8.09E-03,5.13E-03
33317,8.09E-03,5.08E-03
33318,8.09E-03,5.05E-03
33319,8.09E-03,5.02E-03
33320,8.09E-03,5.01E-03
33321,8.09E-03,5.02E-03
33322,8.09E-03,5.03E-03
33323,8.09E-03,5.07E-03
33324,8.09E-03,5.11E-03
33325,8.09E-03,5.17E-03
33326,8.09E-03,5.24E-03
33327,8.09E-03,5.33E-03
33328,8.09E-03,5.43E-03
33329,8.02E-03,5.54E-03
33330,7.93E-03,5.66E-03
33331,7.85E-03,5.80E-03
33332,7.82E-03,5.94E-03
33333,7.71E-03,6.09E-03
33334,7.63E-03,6.24E-03
33335,7.60E-03,6.42E-03
33336,7.86E-03,6.61E-03
33337,6.01E-03,1.67E-02
33338,5.93E-03,2.50E-02
33339,8.37E-03,2.50E-02
33340,7.68E-03,1.19E-02
33341,8.60E-03,1.11E-02
33342,9.74E-03,1.17E-02
33343,9.67E-03,1.16E-02
33344,9.73E-03,1.14E-02
33345,9.49E-03,1.13E-02
33346,8.94E-03,1.12E-02
33347,8.10E-03,1.51E-02
33348,8.10E-03,1.52E-02
33349,8.10E-03,1.52E-02
33350,8.10E-03,1.53E-02
33351,8.10E-03,1.53E-02
33352,8.10E-03,1.52E-02
33353,7.62E-03,1.93E-02
33354,7.57E-03,1.91E-02
33355,7.70E-03,1.88E-02
33356,9.95E-03,1.85E-02
33357,1.12E-02,1.81E-02
33358,8.44E-03,1.78E-02
33359,8.18E-03,1.75E-02
33360,8.07E-03,1.72E-02
33361,8.03E-03,1.69E-02
33362,8.03E-03,1.66E-02
33363,7.89E-03,1.63E-02
33364,7.70E-03,1.61E-02
33365,7.61E-03,1.58E-02
33366,7.45E-03,1.55E-02
33367,7.30E-03,1.52E-02
33368,6.64E-03,1.42E-02
33369,6.66E-03,1.37E-02
33370,6.63E-03,1.39E-02
33371,8.67E-03,1.46E-02
33372,8.61E-03,1.44E-02
33373,8.53E-03,1.42E-02
33374,8.31E-03,1.40E-02
33375,8.29E-03,1.38E-02
33376,8.09E-03,1.36E-02
33377,8.09E-03,1.34E-02
33378,8.09E-03,1.32E-02
33379,8.09E-03,1.30E-02
33380,8.09E-03,1.28E-02
33381,8.09E-03,1.25E-02
33382,8.10E-03,1.23E-02
33383,8.03E-03,1.21E-02
33384,7.90E-03,1.19E-02
33385,7.83E-03,1.17E-02
33386,7.64E-03,1.14E-02
33387,7.40E-03,1.12E-02
33388,8.97E-03,1.62E-02
33389,8.65E-03,1.62E-02
33390,6.56E-03,1.15E-02
33391,8.38E-03,1.62E-02
33392,8.88E-03,1.62E-02
33393,9.17E-03,1.61E-02
33394,9.43E-03,1.61E-02
33395,9.44E-03,1.61E-02
33396,9.32E-03,1.61E-02
33397,9.20E-03,1.61E-02
33398,9.04E-03,1.61E-02
33399,9.00E-03,1.61E-02
33400,9.00E-03,1.61E-02
33401,8.99E-03,1.61E-02
33402,8.93E-03,1.61E-02
33403,8.76E-03,1.61E-02
33404,8.57E-03,1.61E-02
33405,8.44E-03,1.60E-02
33406,8.35E-03,1.60E-02
33407,8.27E-03,1.60E-02
33408,8.23E-03,1.60E-02
33409,8.22E-03,1.60E-02
33410,8.21E-03,1.60E-02
33411,8.21E-03,1.60E-02
33412,8.20E-03,1.60E-02
33413,8.16E-03,1.60E-02
33414,8.14E-03,1.60E-02
33415,8.09E-03,1.60E-02
33416,8.06E-03,1.60E-02
33417,8.03E-03,1.60E-02
33418,8.00E-03,1.60E-02
33419,7.97E-03,1.60E-02
33420,7.95E-03,1.60E-02
33421,7.97E-03,1.60E-02
33422,8.01E-03,1.60E-02
33423,8.06E-03,1.59E-02
33424,8.11E-03,1.59E-02
33425,8.16E-03,1.59E-02
33426,8.20E-03,1.59E-02
33427,8.24E-03,1.59E-02
33428,8.29E-03,1.59E-02
33429,8.38E-03,1.58E-02
33430,8.49E-03,1.58E-02
33431,8.60E-03,1.58E-02
33432,8.68E-03,1.58E-02
33433,8.73E-03,1.57E-02
33434,8.78E-03,1.57E-02
33435,8.82E-03,1.57E-02
33436,8.87E-03,1.57E-02
33437,8.93E-03,1.56E-02
33438,8.99E-03,1.56E-02
33439,9.06E-03,1.56E-02
33440,9.13E-03,1.56E-02
33441,9.23E-03,1.55E-02
33442,9.36E-03,1.55E-02
33443,9.51E-03,1.55E-02
33444,9.66E-03,1.55E-02
33445,9.75E-03,1.55E-02
33446,9.77E-03,1.54E-02
33447,9.74E-03,1.54E-02
33448,9.68E-03,1.54E-02
33449,9.61E-03,1.54E-02
33450,9.57E-03,1.54E-02
33451,9.52E-03,1.54E-02
33452,9.46E-03,1.54E-02
33453,9.41E-03,1.54E-02
33454,9.41E-03,1.54E-02
33455,9.43E-03,1.54E-02
33456,9.26E-03,1.54E-02
33457,8.91E-03,1.54E-02
33458,8.52E-03,1.54E-02
33459,8.13E-03,1.54E-02
33460,7.87E-03,1.54E-02
33461,7.87E-03,1.54E-02
33462,7.96E-03,1.54E-02
33463,7.89E-03,1.54E-02
33464,7.71E-03,1.54E-02
33465,7.55E-03,1.54E-02
33466,7.41E-03,1.54E-02
33467,7.27E-03,1.54E-02
33468,7.10E-03,1.54E-02
33469,6.88E-03,1.54E-02
33470,6.63E-03,1.54E-02
33471,6.43E-03,1.54E-02
33472,6.29E-03,1.53E-02
33473,6.19E-03,1.53E-02
33474,6.10E-03,1.53E-02
33475,6.03E-03,1.53E-02
33476,5.98E-03,1.53E-02
33477,5.93E-03,1.53E-02
33478,5.87E-03,1.53E-02
33479,5.76E-03,1.52E-02
33480,5.65E-03,1.52E-02
33481,5.56E-03,1.52E-02
33482,5.56E-03,1.52E-02
33483,5.61E-03,1.51E-02
33484,5.67E-03,1.51E-02
33485,5.73E-03,1.51E-02
33486,5.80E-03,1.50E-02
33487,5.87E-03,1.50E-02
33488,5.94E-03,1.50E-02
33489,6.01E-03,1.49E-02
33490,6.08E-03,1.49E-02
33491,6.13E-03,1.49E-02
33492,6.16E-03,1.48E-02
33493,6.18E-03,1.48E-02
33494,6.20E-03,1.47E-02
33495,6.23E-03,1.47E-02
33496,6.25E-03,1.46E-02
33497,6.26E-03,1.46E-02
33498,6.23E-03,1.45E-02
33499,6.18E-03,1.45E-02
33500,6.12E-03,1.44E-02
33501,6.06E-03,1.44E-02
33502,5.99E-03,1.43E-02
33503,5.92E-03,1.43E-02
33504,5.83E-03,1.42E-02
33505,5.69E-03,1.41E-02
33506,5.51E-03,1.41E-02
33507,5.33E-03,1.40E-02
33508,5.17E-03,1.40E-02
33509,5.02E-03,1.40E-02
33510,4.96E-03,1.39E-02
33511,5.04E-03,1.39E-02
33512,5.13E-03,1.38E-02
33513,5.03E-03,1.38E-02
33514,4.99E-03,1.37E-02
33515,6.11E-03,1.37E-02
33516,8.62E-03,1.36E-02
33517,8.99E-03,1.35E-02
33518,8.97E-03,1.34E-02
33519,1.15E-02,1.33E-02
33520,1.04E-02,1.32E-02
33521,1.02E-02,1.31E-02
33522,1.01E-02,1.30E-02
33523,1.00E-02,1.29E-02
33524,1.01E-02,1.28E-02
33525,1.10E-02,1.27E-02
33526,9.32E-03,9.60E-03
33527,9.84E-03,9.52E-03
33528,8.85E-03,9.61E-03
33529,8.61E-03,9.67E-03
33530,8.58E-03,9.71E-03
33531,7.05E-03,9.74E-03
33532,6.60E-03,9.77E-03
33533,5.55E-03,9.80E-03
33534,4.31E-03,9.83E-03
33535,4.04E-03,9.84E-03
33536,4.36E-03,9.86E-03
33537,4.40E-03,9.89E-03
33538,4.31E-03,9.92E-03
33539,4.39E-03,9.95E-03
33540,4.42E-03,9.98E-03
33541,4.53E-03,1.00E-02
33542,4.57E-03,1.00E-02
33543,5.00E-03,1.01E-02
33544,5.56E-03,1.01E-02
33545,6.77E-03,1.01E-02
33546,6.90E-03,1.02E-02
33547,5.95E-03,1.37E-02
33548,5.83E-03,1.39E-02
33549,5.37E-03,1.42E-02
33550,4.90E-03,1.44E-02
33551,4.22E-03,1.46E-02
33552,3.72E-03,1.48E-02
33553,3.36E-03,1.50E-02
33554,3.30E-03,1.52E-02
33555,3.59E-03,1.54E-02
33556,3.73E-03,1.55E-02
33557,4.01E-03,1.58E-02
33558,4.17E-03,1.60E-02
33559,4.54E-03,1.62E-02
33560,4.68E-03,1.64E-02
33561,4.76E-03,1.67E-02
33562,4.92E-03,1.69E-02
33563,4.89E-03,1.72E-02
33564,4.77E-03,1.75E-02
33565,4.72E-03,1.77E-02
33566,4.66E-03,1.80E-02
33567,4.54E-03,1.83E-02
33568,4.46E-03,1.85E-02
33569,4.68E-03,1.88E-02
33570,4.87E-03,1.90E-02
33571,4.08E-03,1.92E-02
33572,7.55E-03,2.47E-02
33573,7.68E-03,2.46E-02
33574,7.74E-03,2.45E-02
33575,7.54E-03,2.44E-02
33576,7.46E-03,2.43E-02
33577,7.25E-03,2.41E-02
33578,6.73E-03,2.40E-02
33579,6.55E-03,2.38E-02
33580,6.16E-03,2.37E-02
33581,5.84E-03,2.35E-02
33582,5.50E-03,2.34E-02
33583,5.10E-03,2.33E-02
33584,4.72E-03,2.32E-02
33585,4.11E-03,2.31E-02
33586,3.65E-03,2.30E-02
33587,2.45E-03,2.29E-02
33588,1.93E-03,2.28E-02
33589,2.89E-03,2.27E-02
33590,3.49E-03,2.25E-02
33591,3.80E-03,2.23E-02
33592,4.05E-03,2.21E-02
33593,4.17E-03,2.19E-02
33594,4.36E-03,2.17E-02
33595,4.53E-03,2.15E-02
33596,4.63E-03,2.13E-02
33597,4.71E-03,2.11E-02
33598,4.63E-03,2.09E-02
33599,4.54E-03,2.07E-02
33600,4.59E-03,2.04E-02
33601,4.63E-03,2.02E-02
33602,4.88E-03,2.00E-02
33603,4.86E-03,1.98E-02
33604,4.00E-03,1.95E-02
33605,6.86E-03,2.19E-02
33606,6.93E-03,2.21E-02
33607,6.81E-03,2.23E-02
33608,6.35E-03,2.25E-02
33609,7.40E-03,2.43E-02
33610,4.47E-03,1.02E-02
33611,5.31E-03,1.02E-02
33612,5.78E-03,1.02E-02
33613,5.95E-03,1.01E-02
33614,7.04E-03,1.01E-02
33615,1.07E-02,1.00E-02
33616,1.08E-02,9.91E-03
33617,1.06E-02,9.81E-03
33618,8.78E-03,9.72E-03
33619,8.77E-03,9.64E-03
33620,8.49E-03,9.55E-03
33621,8.18E-03,9.47E-03
33622,7.76E-03,9.39E-03
33623,7.51E-03,9.32E-03
33624,7.20E-03,9.24E-03
33625,6.87E-03,9.17E-03
33626,6.62E-03,9.10E-03
33627,6.45E-03,9.04E-03
33628,6.29E-03,8.97E-03
33629,6.13E-03,8.91E-03
33630,5.97E-03,8.85E-03
33631,5.79E-03,8.79E-03
33632,5.55E-03,8.74E-03
33633,5.29E-03,8.69E-03
33634,5.03E-03,8.64E-03
33635,4.77E-03,8.59E-03
33636,4.59E-03,8.55E-03
33637,4.54E-03,8.51E-03
33638,4.53E-03,8.46E-03
33639,4.52E-03,8.43E-03
33640,4.51E-03,8.39E-03
33641,4.50E-03,8.35E-03
33642,4.49E-03,8.31E-03
33643,4.46E-03,8.28E-03
33644,4.41E-03,8.24E-03
33645,4.37E-03,8.21E-03
33646,4.32E-03,8.18E-03
33647,4.28E-03,8.15E-03
33648,4.23E-03,8.12E-03
33649,4.22E-03,8.09E-03
33650,4.25E-03,8.06E-03
33651,4.31E-03,8.04E-03
33652,4.36E-03,8.01E-03
33653,4.45E-03,7.99E-03
33654,4.56E-03,7.96E-03
33655,4.67E-03,7.94E-03
33656,4.80E-03,7.91E-03
33657,4.97E-03,7.89E-03
33658,5.19E-03,7.87E-03
33659,5.42E-03,7.84E-03
33660,5.62E-03,7.82E-03
33661,5.77E-03,7.80E-03
33662,5.88E-03,7.77E-03
33663,5.99E-03,7.75E-03
33664,6.09E-03,7.73E-03
33665,6.19E-03,7.70E-03
33666,6.28E-03,7.68E-03
33667,6.37E-03,7.66E-03
33668,6.47E-03,7.64E-03
33669,6.56E-03,7.62E-03
33670,6.65E-03,7.60E-03
33671,6.74E-03,7.58E-03
33672,6.82E-03,7.55E-03
33673,6.88E-03,7.53E-03
33674,6.92E-03,7.51E-03
33675,6.96E-03,7.49E-03
33676,7.01E-03,7.47E-03
33677,7.05E-03,7.45E-03
33678,7.09E-03,7.43E-03
33679,7.14E-03,7.41E-03
33680,7.18E-03,7.39E-03
33681,7.24E-03,7.37E-03
33682,7.31E-03,7.35E-03
33683,7.40E-03,7.33E-03
33684,7.49E-03,7.31E-03
33685,7.56E-03,7.29E-03
33686,7.61E-03,7.27E-03
33687,7.65E-03,7.24E-03
33688,7.69E-03,7.22E-03
33689,7.73E-03,7.20E-03
33690,7.72E-03,7.17E-03
33691,7.48E-03,7.15E-03
33692,7.14E-03,7.12E-03
33693,7.07E-03,7.10E-03
33694,6.81E-03,7.08E-03
33695,6.61E-03,7.06E-03
33696,6.46E-03,7.04E-03
33697,6.32E-03,7.02E-03
33698,6.05E-03,7.00E-03
33699,5.85E-03,6.97E-03
33700,5.82E-03,6.94E-03
33701,5.85E-03,6.87E-03
33702,5.09E-03,6.77E-03
33703,4.08E-03,6.88E-03
33704,3.30E-03,6.93E-03
33705,2.90E-03,6.99E-03
33706,2.93E-03,7.00E-03
33707,3.55E-03,7.05E-03
33708,3.96E-03,7.10E-03
33709,4.16E-03,7.14E-03
33710,4.26E-03,7.19E-03
33711,4.80E-03,7.25E-03
33712,4.74E-03,7.31E-03
33713,5.03E-03,7.38E-03
33714,5.07E-03,7.45E-03
33715,7.05E-03,7.54E-03
33716,9.23E-03,7.65E-03
33717,9.15E-03,7.79E-03
33718,9.32E-03,7.93E-03
33719,9.39E-03,8.08E-03
33720,5.97E-03,7.10E-03
33721,7.63E-03,2.58E-02
33722,7.49E-03,1.10E-02
33723,1.03E-02,8.28E-03
33724,7.05E-03,2.56E-02
33725,6.59E-03,1.66E-02
33726,7.15E-03,1.67E-02
33727,8.92E-03,7.23E-03
33728,8.48E-03,1.56E-02
33729,7.29E-03,7.54E-03
33730,8.40E-03,6.51E-03
33731,8.90E-03,6.53E-03
33732,1.01E-02,6.57E-03
33733,1.02E-02,6.61E-03
33734,9.91E-03,6.65E-03
33735,9.69E-03,6.67E-03
33736,9.63E-03,6.71E-03
33737,8.34E-03,6.77E-03
33738,7.94E-03,6.75E-03
33739,7.57E-03,6.83E-03
33740,7.59E-03,6.87E-03
33741,8.09E-03,1.09E-02
33742,8.09E-03,1.08E-02
33743,8.09E-03,1.06E-02
33744,8.09E-03,1.05E-02
33745,8.09E-03,1.04E-02
33746,8.09E-03,1.02E-02
33747,8.09E-03,1.01E-02
33748,8.09E-03,9.94E-03
33749,8.09E-03,9.79E-03
33750,8.09E-03,9.64E-03
33751,8.09E-03,9.49E-03
33752,8.09E-03,9.34E-03
33753,8.09E-03,9.19E-03
33754,8.09E-03,9.03E-03
33755,8.09E-03,8.88E-03
33756,8.09E-03,8.72E-03
33757,8.09E-03,8.57E-03
33758,8.09E-03,8.41E-03
33759,8.09E-03,8.25E-03
33760,8.09E-03,8.09E-03
33761,8.09E-03,7.93E-03
33762,8.09E-03,7.78E-03
33763,8.09E-03,7.62E-03
33764,8.09E-03,7.46E-03
33765,8.09E-03,7.31E-03
33766,8.09E-03,7.15E-03
33767,8.09E-03,7.00E-03
33768,8.09E-03,6.85E-03
33769,8.09E-03,6.70E-03
33770,8.09E-03,6.55E-03
33771,8.09E-03,6.40E-03
33772,8.09E-03,6.26E-03
33773,8.09E-03,6.13E-03
33774,8.09E-03,6.00E-03
33775,8.09E-03,5.87E-03
33776,8.09E-03,5.75E-03
33777,8.09E-03,5.63E-03
33778,8.09E-03,5.52E-03
33779,8.09E-03,5.42E-03
33780,8.09E-03,5.33E-03
33781,8.09E-03,5.25E-03
33782,8.09E-03,5.18E-03
33783,8.09E-03,5.12E-03
33784,8.09E-03,5.07E-03
33785,8.09E-03,5.03E-03
33786,8.09E-03,5.00E-03
33787,8.09E-03,4.99E-03
33788,8.09E-03,4.99E-03
33789,8.09E-03,5.01E-03
33790,8.09E-03,5.03E-03
33791,8.09E-03,5.08E-03
33792,8.09E-03,5.13E-03
33793,8.09E-03,5.20E-03
33794,8.09E-03,5.29E-03
33795,8.09E-03,5.38E-03
33796,8.09E-03,5.50E-03
33797,8.02E-03,5.62E-03
33798,7.95E-03,5.75E-03
33799,7.85E-03,5.89E-03
33800,7.78E-03,6.04E-03
33801,7.72E-03,6.19E-03
33802,7.80E-03,6.37E-03
33803,8.01E-03,6.56E-03
33804,6.08E-03,6.58E-03
33805,5.89E-03,6.57E-03
33806,5.18E-03,6.57E-03
33807,4.67E-03,6.54E-03
33808,4.86E-03,6.54E-03
33809,5.00E-03,6.53E-03
33810,5.25E-03,6.52E-03
33811,5.71E-03,6.50E-03
33812,5.86E-03,6.48E-03
33813,6.46E-03,6.46E-03
33814,6.55E-03,6.44E-03
33815,6.64E-03,6.42E-03
33816,6.77E-03,6.40E-03
33817,6.86E-03,6.38E-03
33818,7.07E-03,6.36E-03
33819,7.16E-03,6.34E-03
33820,7.32E-03,6.32E-03
33821,7.35E-03,6.31E-03
33822,7.39E-03,6.30E-03
33823,7.42E-03,6.29E-03
33824,7.46E-03,6.29E-03
33825,7.49E-03,6.28E-03
33826,7.52E-03,6.29E-03
33827,7.56E-03,6.30E-03
33828,7.59E-03,6.31E-03
33829,7.63E-03,6.32E-03
33830,7.65E-03,6.34E-03
33831,7.68E-03,6.37E-03
33832,7.70E-03,6.40E-03
33833,7.72E-03,6.44E-03
33834,7.75E-03,6.48E-03
33835,7.77E-03,6.53E-03
33836,7.79E-03,6.59E-03
33837,7.81E-03,6.65E-03
33838,7.82E-03,6.71E-03
33839,7.84E-03,6.79E-03
33840,7.86E-03,6.86E-03
33841,7.87E-03,6.95E-03
33842,7.89E-03,7.04E-03
33843,7.89E-03,7.13E-03
33844,7.89E-03,7.24E-03
33845,7.89E-03,7.34E-03
33846,7.89E-03,7.45E-03
33847,7.89E-03,7.57E-03
33848,7.89E-03,7.69E-03
33849,7.89E-03,7.81E-03
33850,7.88E-03,7.94E-03
33851,7.87E-03,8.07E-03
33852,7.84E-03,8.21E-03
33853,7.82E-03,8.35E-03
33854,7.80E-03,8.49E-03
33855,7.77E-03,8.63E-03
33856,7.75E-03,8.78E-03
33857,7.72E-03,8.93E-03
33858,7.70E-03,9.08E-03
33859,7.67E-03,9.23E-03
33860,7.65E-03,9.38E-03
33861,7.61E-03,9.53E-03
33862,7.56E-03,9.69E-03
33863,7.50E-03,9.84E-03
33864,7.44E-03,1.00E-02
33865,7.37E-03,1.02E-02
33866,7.31E-03,1.03E-02
33867,7.25E-03,1.05E-02
33868,7.19E-03,1.06E-02
33869,7.13E-03,1.08E-02
33870,7.08E-03,1.09E-02
33871,7.04E-03,1.11E-02
33872,7.00E-03,1.12E-02
33873,6.95E-03,1.14E-02
33874,6.91E-03,1.15E-02
33875,6.87E-03,1.17E-02
33876,6.82E-03,1.18E-02
33877,6.76E-03,1.20E-02
33878,6.70E-03,1.21E-02
33879,6.64E-03,1.23E-02
33880,6.58E-03,1.24E-02
33881,6.50E-03,1.25E-02
33882,6.40E-03,1.27E-02
33883,6.28E-03,1.28E-02
33884,6.16E-03,1.29E-02
33885,6.03E-03,1.31E-02
33886,5.92E-03,1.32E-02
33887,5.86E-03,1.33E-02
33888,5.84E-03,1.35E-02
33889,5.83E-03,1.36E-02
33890,5.84E-03,1.37E-02
33891,5.88E-03,1.38E-02
33892,5.93E-03,1.40E-02
33893,5.98E-03,1.41E-02
33894,6.01E-03,1.42E-02
33895,6.04E-03,1.44E-02
33896,6.07E-03,1.45E-02
33897,6.10E-03,1.46E-02
33898,6.13E-03,1.48E-02
33899,6.16E-03,1.49E-02
33900,6.19E-03,1.50E-02
33901,6.22E-03,1.52E-02
33902,6.25E-03,1.53E-02
33903,6.28E-03,1.54E-02
33904,6.29E-03,1.56E-02
33905,6.28E-03,1.57E-02
33906,6.39E-03,1.58E-02
33907,6.56E-03,1.60E-02
33908,7.05E-03,1.61E-02
33909,9.93E-03,1.55E-02
33910,9.29E-03,1.56E-02
33911,8.42E-03,9.03E-03
33912,8.82E-03,8.80E-03
33913,7.21E-03,2.33E-02
33914,8.00E-03,2.29E-02
33915,8.41E-03,2.31E-02
33916,7.58E-03,9.72E-03
33917,5.09E-03,2.27E-02
33918,4.52E-03,2.28E-02
33919,7.67E-03,9.45E-03
33920,7.09E-03,2.54E-02
33921,5.28E-03,2.54E-02
33922,5.53E-03,2.53E-02
33923,8.10E-03,2.52E-02
33924,7.71E-03,1.22E-02
33925,9.29E-03,1.06E-02
33926,9.07E-03,1.08E-02
33927,7.88E-03,1.09E-02
33928,8.35E-03,9.34E-03
33929,6.56E-03,9.52E-03
33930,7.36E-03,9.57E-03
33931,5.34E-03,9.64E-03
33932,8.10E-03,1.51E-02
33933,8.10E-03,1.53E-02
33934,7.67E-03,1.97E-02
33935,6.77E-03,1.29E-02
33936,6.43E-03,1.28E-02
33937,6.91E-03,1.32E-02
33938,6.96E-03,1.50E-02
33939,6.77E-03,1.47E-02
33940,6.42E-03,1.44E-02
33941,6.52E-03,1.34E-02
33942,8.69E-03,1.47E-02
33943,8.31E-03,1.64E-02
33944,6.86E-03,1.17E-02
33945,6.15E-03,1.12E-02
33946,8.09E-03,1.65E-02
33947,7.13E-03,1.64E-02
33948,7.17E-03,1.34E-02
33949,7.34E-03,2.51E-02
33950,6.75E-03,2.18E-02
33951,6.42E-03,6.66E-03
33952,7.54E-03,6.90E-03
33953,6.81E-03,6.81E-03
33954,8.26E-03,1.12E-02
33955,8.42E-03,1.14E-02
33956,7.66E-03,1.18E-02
33957,7.60E-03,1.10E-02
33958,7.86E-03,1.09E-02
33959,7.79E-03,1.08E-02
33960,7.60E-03,1.08E-02
33961,7.16E-03,1.07E-02
33962,6.44E-03,2.49E-02
33963,8.27E-03,6.70E-03
33964,7.11E-03,2.06E-02
33965,7.64E-03,8.24E-03
33966,6.45E-03,1.68E-02
33967,7.21E-03,1.67E-02
33968,5.24E-03,2.48E-02
33969,7.04E-03,2.46E-02
33970,7.44E-03,2.43E-02
33971,5.62E-03,1.03E-02
33972,4.90E-03,1.02E-02
33973,8.03E-03,2.65E-02
33974,7.42E-03,1.28E-02
33975,6.46E-03,6.80E-03
33976,8.23E-03,2.63E-02
33977,8.47E-03,2.62E-02
33978,8.29E-03,2.62E-02
33979,6.20E-03,2.10E-02
33980,5.01E-03,2.09E-02
33981,5.79E-03,1.03E-02
33982,5.82E-03,1.03E-02
33983,7.19E-03,2.02E-02
33984,6.92E-03,2.52E-02
33985,7.71E-03,2.54E-02
33986,8.10E-03,1.51E-02
33987,8.10E-03,1.54E-02
33988,7.65E-03,2.00E-02
33989,8.53E-03,1.47E-02
33990,6.92E-03,1.19E-02
33991,9.61E-03,1.25E-02
33992,6.60E-03,1.68E-02
33993,6.24E-03,1.03E-02
33994,6.55E-03,1.05E-02
33995,6.44E-03,1.07E-02
33996,7.33E-03,1.32E-02
33997,6.33E-03,2.17E-02
33998,7.80E-03,6.95E-03
33999,7.80E-03,9.72E-03
34000,7.29E-03,9.89E-03
34001,6.22E-03,1.02E-02
34002,8.64E-03,1.56E-02
34003,1.03E-02,9.47E-03
34004,4.48E-03,2.55E-02
34005,4.26E-03,2.59E-02
34006,4.42E-03,2.61E-02
34007,4.48E-03,9.52E-03
34008,5.88E-03,9.37E-03
34009,8.40E-03,9.15E-03
34010,8.09E-03,8.89E-03
34011,8.09E-03,8.65E-03
34012,8.09E-03,8.41E-03
34013,8.09E-03,8.17E-03
34014,8.09E-03,7.93E-03
34015,8.09E-03,7.69E-03
34016,8.09E-03,7.46E-03
34017,8.09E-03,7.22E-03
34018,8.09E-03,7.00E-03
34019,8.09E-03,6.77E-03
34020,8.09E-03,6.55E-03
34021,8.09E-03,6.34E-03
34022,8.09E-03,6.13E-03
34023,8.09E-03,5.93E-03
34024,8.09E-03,5.73E-03
34025,8.09E-03,5.54E-03
34026,8.09E-03,5.36E-03
34027,8.09E-03,5.19E-03
34028,8.09E-03,5.03E-03
34029,8.09E-03,4.88E-03
34030,8.09E-03,4.74E-03
34031,8.09E-03,4.62E-03
34032,8.09E-03,4.51E-03
34033,8.09E-03,4.41E-03
34034,8.09E-03,4.33E-03
34035,8.09E-03,4.27E-03
34036,8.09E-03,4.22E-03
34037,8.09E-03,4.19E-03
34038,8.09E-03,4.17E-03
34039,8.09E-03,4.17E-03
34040,8.09E-03,4.19E-03
34041,8.09E-03,4.22E-03
34042,8.09E-03,4.26E-03
34043,8.09E-03,4.32E-03
34044,8.09E-03,4.39E-03
34045,8.09E-03,4.47E-03
34046,8.09E-03,4.56E-03
34047,8.09E-03,4.66E-03
34048,8.09E-03,4.77E-03
34049,8.09E-03,4.89E-03
34050,8.09E-03,5.01E-03
34051,8.09E-03,5.14E-03
34052,8.09E-03,5.27E-03
34053,8.09E-03,5.40E-03
34054,8.09E-03,5.54E-03
34055,8.09E-03,5.68E-03
34056,8.02E-03,5.82E-03
34057,7.95E-03,5.96E-03
34058,7.88E-03,6.10E-03
34059,7.78E-03,6.25E-03
34060,7.86E-03,6.40E-03
34061,8.08E-03,6.56E-03
34062,7.95E-03,6.69E-03
34063,7.37E-03,6.82E-03
34064,6.16E-03,1.06E-02
34065,7.51E-03,2.50E-02
34066,7.98E-03,1.56E-02
34067,5.21E-03,1.69E-02
34068,6.20E-03,1.70E-02
34069,5.76E-03,1.10E-02
34070,6.61E-03,1.08E-02
34071,6.71E-03,1.04E-02
34072,7.32E-03,2.67E-02
34073,7.45E-03,9.65E-03
34074,7.21E-03,9.84E-03
34075,1.09E-02,7.39E-03
34076,1.04E-02,7.31E-03
34077,1.03E-02,7.25E-03
34078,1.05E-02,7.19E-03
34079,1.08E-02,7.13E-03
34080,1.10E-02,7.07E-03
34081,1.11E-02,7.02E-03
34082,1.10E-02,6.99E-03
34083,1.07E-02,6.96E-03
34084,1.03E-02,6.93E-03
34085,1.00E-02,6.92E-03
34086,9.68E-03,6.91E-03
34087,9.60E-03,6.91E-03
34088,9.36E-03,6.91E-03
34089,9.23E-03,6.91E-03
34090,8.88E-03,6.93E-03
34091,8.81E-03,6.94E-03
34092,8.64E-03,6.96E-03
34093,8.49E-03,6.98E-03
34094,8.40E-03,7.01E-03
34095,8.48E-03,7.04E-03
34096,8.35E-03,7.06E-03
34097,8.22E-03,7.10E-03
34098,7.60E-03,7.14E-03
34099,6.98E-03,7.19E-03
34100,6.87E-03,7.24E-03
34101,7.43E-03,7.26E-03
34102,7.72E-03,7.73E-03
34103,7.92E-03,7.70E-03
34104,7.81E-03,2.61E-02
34105,6.63E-03,2.63E-02
34106,6.87E-03,2.61E-02
34107,8.10E-03,1.11E-02
34108,6.22E-03,8.21E-03
34109,8.49E-03,9.87E-03
34110,8.87E-03,9.18E-03
34111,8.42E-03,1.65E-02
34112,8.85E-03,1.63E-02
34113,8.46E-03,8.80E-03
34114,8.35E-03,2.51E-02
34115,6.66E-03,2.52E-02
34116,6.08E-03,2.56E-02
34117,7.74E-03,1.23E-02
34118,7.65E-03,1.22E-02
34119,8.10E-03,1.50E-02
34120,8.10E-03,1.54E-02
34121,8.25E-03,1.48E-02
34122,5.14E-03,1.06E-02
34123,6.40E-03,1.25E-02
34124,7.06E-03,1.22E-02
34125,8.17E-03,7.91E-03
34126,8.11E-03,1.32E-02
34127,6.70E-03,8.63E-03
34128,4.22E-03,8.74E-03
34129,6.96E-03,1.02E-02
34130,7.54E-03,2.67E-02
34131,8.10E-03,1.49E-02
34132,8.10E-03,1.54E-02
34133,8.27E-03,1.48E-02
34134,8.48E-03,1.55E-02
34135,8.10E-03,1.12E-02
34136,6.81E-03,1.00E-02
34137,7.00E-03,2.69E-02
34138,5.02E-03,2.71E-02
34139,6.01E-03,2.71E-02
34140,8.10E-03,1.14E-02
34141,8.19E-03,1.55E-02
34142,8.10E-03,1.49E-02
34143,8.29E-03,1.55E-02
34144,7.10E-03,1.49E-02
34145,8.10E-03,1.55E-02
34146,8.10E-03,1.55E-02
34147,8.10E-03,1.15E-02
34148,8.32E-03,1.55E-02
34149,7.41E-03,1.50E-02
34150,8.10E-03,1.48E-02
34151,8.10E-03,1.54E-02
34152,8.10E-03,1.17E-02
34153,8.10E-03,1.18E-02
34154,7.50E-03,1.56E-02
34155,8.10E-03,1.48E-02
34156,8.46E-03,1.55E-02
34157,7.70E-03,1.51E-02
34158,8.10E-03,1.47E-02
34159,8.38E-03,1.55E-02
34160,7.93E-03,1.52E-02
34161,8.10E-03,1.20E-02
34162,8.10E-03,1.21E-02
34163,8.10E-03,1.46E-02
34164,8.34E-03,1.56E-02
34165,8.28E-03,1.55E-02
34166,8.10E-03,1.52E-02
34167,8.10E-03,1.24E-02
34168,8.10E-03,1.23E-02
34169,8.10E-03,1.45E-02
34170,8.10E-03,1.53E-02
34171,8.10E-03,1.44E-02
34172,8.10E-03,1.53E-02
34173,8.10E-03,1.26E-02
34174,8.10E-03,1.27E-02
34175,8.10E-03,1.43E-02
34176,8.10E-03,1.53E-02
34177,8.10E-03,1.30E-02
34178,8.10E-03,1.28E-02
34179,8.10E-03,1.42E-02
34180,8.10E-03,1.54E-02
34181,8.10E-03,1.41E-02
34182,8.10E-03,1.54E-02
34183,8.10E-03,1.40E-02
34184,8.10E-03,1.31E-02
34185,8.10E-03,1.39E-02
34186,8.10E-03,1.38E-02
34187,8.10E-03,1.34E-02
34188,8.10E-03,1.32E-02
34189,8.10E-03,1.35E-02
34190,8.10E-03,1.37E-02
34191,8.10E-03,1.36E-02
34192,4.62E-03,2.12E-02
34193,6.93E-03,2.15E-02
34194,6.69E-03,2.10E-02
34195,1.02E-02,2.11E-02
34196,7.92E-03,9.83E-03
34197,7.37E-03,2.54E-02
34198,7.48E-03,1.18E-02
34199,8.28E-03,1.10E-02
34200,1.06E-02,1.16E-02
34201,9.93E-03,1.15E-02
34202,9.96E-03,1.14E-02
34203,9.94E-03,1.12E-02
34204,8.52E-03,1.11E-02
34205,7.55E-03,9.64E-03
34206,5.49E-03,9.75E-03
34207,8.10E-03,1.51E-02
34208,8.10E-03,1.52E-02
34209,8.10E-03,1.52E-02
34210,8.10E-03,1.53E-02
34211,8.10E-03,1.53E-02
34212,8.10E-03,1.52E-02
34213,7.69E-03,1.94E-02
34214,7.67E-03,1.92E-02
34215,7.77E-03,1.89E-02
34216,9.91E-03,1.86E-02
34217,1.12E-02,1.82E-02
34218,8.55E-03,1.79E-02
34219,8.08E-03,1.76E-02
34220,8.01E-03,1.73E-02
34221,8.03E-03,1.70E-02
34222,8.03E-03,1.67E-02
34223,7.89E-03,1.64E-02
34224,7.74E-03,1.61E-02
34225,7.64E-03,1.58E-02
34226,7.46E-03,1.55E-02
34227,7.22E-03,1.52E-02
34228,6.14E-03,1.31E-02
34229,6.73E-03,1.31E-02
34230,6.42E-03,1.42E-02
34231,6.53E-03,1.37E-02
34232,6.56E-03,1.39E-02
34233,8.63E-03,1.45E-02
34234,8.59E-03,1.43E-02
34235,8.49E-03,1.41E-02
34236,8.36E-03,1.39E-02
34237,8.29E-03,1.37E-02
34238,8.09E-03,1.35E-02
34239,8.09E-03,1.33E-02
34240,8.09E-03,1.31E-02
34241,8.09E-03,1.29E-02
34242,8.09E-03,1.27E-02
34243,8.09E-03,1.25E-02
34244,8.10E-03,1.23E-02
34245,8.01E-03,1.20E-02
34246,7.88E-03,1.18E-02
34247,7.82E-03,1.16E-02
34248,7.70E-03,1.14E-02
34249,7.32E-03,1.12E-02
34250,8.39E-03,1.64E-02
34251,8.32E-03,1.64E-02
34252,6.46E-03,1.14E-02
34253,8.34E-03,1.64E-02
34254,8.81E-03,1.63E-02
34255,9.23E-03,1.63E-02
34256,9.38E-03,1.63E-02
34257,9.42E-03,1.63E-02
34258,9.38E-03,1.63E-02
34259,9.13E-03,1.63E-02
34260,9.01E-03,1.63E-02
34261,8.97E-03,1.63E-02
34262,8.97E-03,1.63E-02
34263,8.97E-03,1.62E-02
34264,8.90E-03,1.62E-02
34265,8.74E-03,1.62E-02
34266,8.56E-03,1.62E-02
34267,8.43E-03,1.62E-02
34268,8.34E-03,1.62E-02
34269,8.27E-03,1.62E-02
34270,8.22E-03,1.62E-02
34271,8.21E-03,1.62E-02
34272,8.21E-03,1.62E-02
34273,8.21E-03,1.62E-02
34274,8.19E-03,1.62E-02
34275,8.16E-03,1.62E-02
34276,8.14E-03,1.62E-02
34277,8.09E-03,1.62E-02
34278,8.06E-03,1.62E-02
34279,8.03E-03,1.62E-02
34280,8.00E-03,1.62E-02
34281,7.97E-03,1.62E-02
34282,7.96E-03,1.62E-02
34283,7.97E-03,1.61E-02
34284,8.02E-03,1.61E-02
34285,8.06E-03,1.61E-02
34286,8.11E-03,1.61E-02
34287,8.16E-03,1.61E-02
34288,8.19E-03,1.61E-02
34289,8.24E-03,1.60E-02
34290,8.29E-03,1.60E-02
34291,8.37E-03,1.60E-02
34292,8.48E-03,1.60E-02
34293,8.59E-03,1.59E-02
34294,8.67E-03,1.59E-02
34295,8.71E-03,1.59E-02
34296,8.76E-03,1.59E-02
34297,8.80E-03,1.58E-02
34298,8.85E-03,1.58E-02
34299,8.91E-03,1.58E-02
34300,8.97E-03,1.58E-02
34301,9.04E-03,1.57E-02
34302,9.11E-03,1.57E-02
34303,9.20E-03,1.57E-02
34304,9.33E-03,1.57E-02
34305,9.48E-03,1.56E-02
34306,9.62E-03,1.56E-02
34307,9.71E-03,1.56E-02
34308,9.72E-03,1.56E-02
34309,9.70E-03,1.55E-02
34310,9.64E-03,1.55E-02
34311,9.57E-03,1.55E-02
34312,9.53E-03,1.55E-02
34313,9.48E-03,1.55E-02
34314,9.42E-03,1.55E-02
34315,9.37E-03,1.55E-02
34316,9.38E-03,1.55E-02
34317,9.39E-03,1.55E-02
34318,9.23E-03,1.55E-02
34319,8.89E-03,1.55E-02
34320,8.51E-03,1.55E-02
34321,8.13E-03,1.55E-02
34322,7.88E-03,1.55E-02
34323,7.88E-03,1.55E-02
34324,7.96E-03,1.55E-02
34325,7.89E-03,1.55E-02
34326,7.72E-03,1.55E-02
34327,7.57E-03,1.55E-02
34328,7.43E-03,1.55E-02
34329,7.29E-03,1.55E-02
34330,7.13E-03,1.54E-02
34331,6.91E-03,1.54E-02
34332,6.67E-03,1.54E-02
34333,6.47E-03,1.54E-02
34334,6.34E-03,1.54E-02
34335,6.24E-03,1.54E-02
34336,6.15E-03,1.54E-02
34337,6.08E-03,1.54E-02
34338,6.03E-03,1.53E-02
34339,5.99E-03,1.53E-02
34340,5.92E-03,1.53E-02
34341,5.82E-03,1.53E-02
34342,5.71E-03,1.53E-02
34343,5.62E-03,1.52E-02
34344,5.62E-03,1.52E-02
34345,5.68E-03,1.52E-02
34346,5.73E-03,1.51E-02
34347,5.79E-03,1.51E-02
34348,5.86E-03,1.51E-02
34349,5.93E-03,1.50E-02
34350,6.00E-03,1.50E-02
34351,6.06E-03,1.50E-02
34352,6.13E-03,1.49E-02
34353,6.18E-03,1.49E-02
34354,6.21E-03,1.48E-02
34355,6.23E-03,1.48E-02
34356,6.25E-03,1.47E-02
34357,6.28E-03,1.47E-02
34358,6.30E-03,1.46E-02
34359,6.31E-03,1.46E-02
34360,6.28E-03,1.45E-02
34361,6.23E-03,1.45E-02
34362,6.17E-03,1.44E-02
34363,6.11E-03,1.43E-02
34364,6.05E-03,1.43E-02
34365,5.98E-03,1.42E-02
34366,5.89E-03,1.42E-02
34367,5.75E-03,1.41E-02
34368,5.58E-03,1.41E-02
34369,5.41E-03,1.40E-02
34370,5.25E-03,1.40E-02
34371,5.10E-03,1.39E-02
34372,5.04E-03,1.39E-02
34373,5.12E-03,1.38E-02
34374,5.20E-03,1.38E-02
34375,5.11E-03,1.37E-02
34376,5.07E-03,1.37E-02
34377,6.16E-03,1.36E-02
34378,8.60E-03,1.36E-02
34379,8.87E-03,1.35E-02
34380,9.09E-03,1.34E-02
34381,1.15E-02,1.33E-02
34382,1.03E-02,1.32E-02
34383,1.02E-02,1.31E-02
34384,1.00E-02,1.30E-02
34385,1.00E-02,1.29E-02
34386,1.01E-02,1.27E-02
34387,1.11E-02,1.26E-02
34388,8.57E-03,9.79E-03
34389,8.78E-03,9.82E-03
34390,8.71E-03,9.86E-03
34391,8.61E-03,9.90E-03
34392,7.07E-03,9.94E-03
34393,6.63E-03,9.96E-03
34394,5.61E-03,9.99E-03
34395,4.40E-03,1.00E-02
34396,4.14E-03,1.00E-02
34397,4.46E-03,1.00E-02
34398,4.49E-03,1.01E-02
34399,4.40E-03,1.01E-02
34400,4.38E-03,1.01E-02
34401,4.44E-03,1.02E-02
34402,4.51E-03,1.02E-02
34403,4.57E-03,1.02E-02
34404,4.84E-03,1.03E-02
34405,5.45E-03,1.03E-02
34406,6.70E-03,1.03E-02
34407,6.92E-03,1.03E-02
34408,6.03E-03,1.37E-02
34409,5.91E-03,1.40E-02
34410,5.36E-03,1.42E-02
34411,4.90E-03,1.44E-02
34412,4.26E-03,1.46E-02
34413,3.63E-03,1.48E-02
34414,3.47E-03,1.50E-02
34415,3.30E-03,1.52E-02
34416,3.64E-03,1.54E-02
34417,3.79E-03,1.56E-02
34418,4.06E-03,1.58E-02
34419,4.41E-03,1.60E-02
34420,4.56E-03,1.62E-02
34421,4.78E-03,1.65E-02
34422,4.92E-03,1.67E-02
34423,5.00E-03,1.70E-02
34424,4.96E-03,1.73E-02
34425,4.84E-03,1.75E-02
34426,4.84E-03,1.78E-02
34427,4.73E-03,1.81E-02
34428,4.68E-03,1.84E-02
34429,4.51E-03,1.86E-02
34430,4.58E-03,1.89E-02
34431,4.68E-03,1.91E-02
34432,5.49E-03,1.94E-02
34433,7.67E-03,2.51E-02
34434,7.78E-03,2.51E-02
34435,7.77E-03,2.50E-02
34436,7.64E-03,2.48E-02
34437,7.43E-03,2.47E-02
34438,7.17E-03,2.46E-02
34439,6.86E-03,2.44E-02
34440,6.64E-03,2.43E-02
34441,6.16E-03,2.41E-02
34442,5.84E-03,2.40E-02
34443,5.45E-03,2.38E-02
34444,5.01E-03,2.37E-02
34445,4.59E-03,2.36E-02
34446,3.97E-03,2.35E-02
34447,3.59E-03,2.34E-02
34448,3.25E-03,2.32E-02
34449,2.80E-03,2.30E-02
34450,2.95E-03,2.29E-02
34451,3.48E-03,2.28E-02
34452,3.69E-03,2.26E-02
34453,4.03E-03,2.25E-02
34454,4.15E-03,2.23E-02
34455,4.54E-03,2.21E-02
34456,4.58E-03,2.19E-02
34457,4.67E-03,2.17E-02
34458,4.79E-03,2.14E-02
34459,4.71E-03,2.12E-02
34460,4.63E-03,2.10E-02
34461,4.67E-03,2.08E-02
34462,4.68E-03,2.06E-02
34463,4.84E-03,2.04E-02
34464,4.93E-03,2.01E-02
34465,5.44E-03,1.97E-02
34466,6.82E-03,2.20E-02
34467,7.07E-03,2.22E-02
34468,7.07E-03,2.24E-02
34469,6.84E-03,2.26E-02
34470,5.40E-03,6.82E-03
34471,7.49E-03,1.20E-02
34472,8.84E-03,1.12E-02
34473,7.97E-03,1.11E-02
34474,7.73E-03,1.10E-02
34475,7.66E-03,1.10E-02
34476,7.36E-03,1.09E-02
34477,7.50E-03,1.09E-02
34478,6.36E-03,2.50E-02
34479,5.25E-03,2.51E-02
34480,9.32E-03,6.95E-03
34481,8.03E-03,2.08E-02
34482,7.73E-03,8.35E-03
34483,8.29E-03,8.51E-03
34484,5.68E-03,1.69E-02
34485,7.53E-03,2.45E-02
34486,5.03E-03,1.01E-02
34487,5.39E-03,1.01E-02
34488,5.73E-03,1.00E-02
34489,5.80E-03,1.00E-02
34490,6.42E-03,9.96E-03
34491,1.11E-02,9.88E-03
34492,1.06E-02,9.78E-03
34493,1.05E-02,9.68E-03
34494,8.84E-03,9.59E-03
34495,8.82E-03,9.50E-03
34496,8.44E-03,9.42E-03
34497,8.15E-03,9.33E-03
34498,7.77E-03,9.26E-03
34499,7.52E-03,9.18E-03
34500,7.22E-03,9.10E-03
34501,6.90E-03,9.03E-03
34502,6.66E-03,8.96E-03
34503,6.50E-03,8.90E-03
34504,6.34E-03,8.83E-03
34505,6.18E-03,8.77E-03
34506,6.03E-03,8.71E-03
34507,5.85E-03,8.65E-03
34508,5.62E-03,8.59E-03
34509,5.36E-03,8.54E-03
34510,5.11E-03,8.49E-03
34511,4.86E-03,8.44E-03
34512,4.68E-03,8.40E-03
34513,4.63E-03,8.35E-03
34514,4.62E-03,8.31E-03
34515,4.61E-03,8.27E-03
34516,4.60E-03,8.23E-03
34517,4.59E-03,8.19E-03
34518,4.58E-03,8.16E-03
34519,4.55E-03,8.12E-03
34520,4.51E-03,8.08E-03
34521,4.47E-03,8.05E-03
34522,4.42E-03,8.02E-03
34523,4.38E-03,7.99E-03
34524,4.33E-03,7.96E-03
34525,4.32E-03,7.93E-03
34526,4.35E-03,7.90E-03
34527,4.41E-03,7.87E-03
34528,4.46E-03,7.85E-03
34529,4.54E-03,7.82E-03
34530,4.65E-03,7.79E-03
34531,4.76E-03,7.77E-03
34532,4.88E-03,7.74E-03
34533,5.05E-03,7.72E-03
34534,5.27E-03,7.70E-03
34535,5.49E-03,7.67E-03
34536,5.69E-03,7.65E-03
34537,5.83E-03,7.62E-03
34538,5.94E-03,7.60E-03
34539,6.04E-03,7.57E-03
34540,6.14E-03,7.55E-03
34541,6.24E-03,7.53E-03
34542,6.33E-03,7.50E-03
34543,6.42E-03,7.48E-03
34544,6.51E-03,7.46E-03
34545,6.60E-03,7.44E-03
34546,6.69E-03,7.42E-03
34547,6.77E-03,7.39E-03
34548,6.85E-03,7.37E-03
34549,6.91E-03,7.35E-03
34550,6.95E-03,7.33E-03
34551,6.99E-03,7.31E-03
34552,7.04E-03,7.29E-03
34553,7.08E-03,7.27E-03
34554,7.12E-03,7.25E-03
34555,7.16E-03,7.23E-03
34556,7.20E-03,7.21E-03
34557,7.26E-03,7.18E-03
34558,7.33E-03,7.16E-03
34559,7.42E-03,7.14E-03
34560,7.50E-03,7.12E-03
34561,7.57E-03,7.10E-03
34562,7.62E-03,7.07E-03
34563,7.66E-03,7.05E-03
34564,7.70E-03,7.02E-03
34565,7.74E-03,7.00E-03
34566,7.73E-03,6.98E-03
34567,7.50E-03,6.95E-03
34568,7.24E-03,6.93E-03
34569,7.12E-03,6.90E-03
34570,6.83E-03,6.88E-03
34571,6.62E-03,6.86E-03
34572,6.48E-03,6.83E-03
34573,6.36E-03,6.81E-03
34574,6.09E-03,6.78E-03
34575,5.81E-03,6.75E-03
34576,5.65E-03,6.71E-03
34577,5.22E-03,6.65E-03
34578,4.34E-03,6.62E-03
34579,2.96E-03,6.53E-03
34580,3.61E-03,6.65E-03
34581,3.15E-03,6.71E-03
34582,3.09E-03,6.76E-03
34583,2.99E-03,6.78E-03
34584,3.52E-03,6.82E-03
34585,3.91E-03,6.85E-03
34586,4.04E-03,6.89E-03
34587,4.20E-03,6.94E-03
34588,4.37E-03,6.99E-03
34589,4.72E-03,7.05E-03
34590,4.88E-03,7.11E-03
34591,5.11E-03,7.18E-03
34592,5.13E-03,7.25E-03
34593,7.08E-03,7.33E-03
34594,9.32E-03,7.45E-03
34595,9.25E-03,7.59E-03
34596,9.57E-03,7.73E-03
34597,9.65E-03,7.88E-03
34598,9.93E-03,8.04E-03
34599,8.62E-03,2.67E-02
34600,7.96E-03,2.67E-02
34601,8.76E-03,1.26E-02
34602,8.89E-03,1.24E-02
34603,5.53E-03,6.99E-03
34604,7.59E-03,2.62E-02
34605,6.90E-03,2.56E-02
34606,6.87E-03,2.57E-02
34607,6.88E-03,2.56E-02
34608,7.63E-03,2.55E-02
34609,8.10E-03,1.51E-02
34610,8.10E-03,1.53E-02
34611,7.83E-03,1.98E-02
34612,6.34E-03,1.47E-02
34613,6.83E-03,1.50E-02
34614,6.42E-03,1.35E-02
34615,5.91E-03,1.45E-02
34616,8.60E-03,1.46E-02
34617,7.52E-03,1.66E-02
34618,6.99E-03,1.16E-02
34619,6.27E-03,1.12E-02
34620,6.63E-03,1.66E-02
34621,7.28E-03,1.69E-02
34622,6.96E-03,1.03E-02
34623,7.19E-03,1.04E-02
34624,5.93E-03,1.06E-02
34625,7.55E-03,1.35E-02
34626,7.25E-03,1.69E-02
34627,5.62E-03,1.69E-02
34628,7.20E-03,1.69E-02
34629,6.69E-03,2.19E-02
34630,7.15E-03,7.00E-03
34631,6.92E-03,2.56E-02
34632,6.05E-03,1.30E-02
34633,5.85E-03,1.28E-02
34634,6.54E-03,1.08E-02
34635,8.66E-03,1.67E-02
34636,9.33E-03,7.46E-03
34637,5.46E-03,1.16E-02
34638,6.52E-03,1.13E-02
34639,7.04E-03,2.52E-02
34640,8.77E-03,1.56E-02
34641,1.02E-02,1.55E-02
34642,6.61E-03,1.09E-02
34643,8.20E-03,1.06E-02
34644,7.23E-03,1.04E-02
34645,7.21E-03,2.71E-02
34646,8.35E-03,7.14E-03
34647,7.33E-03,9.61E-03
34648,4.57E-03,9.48E-03
34649,5.95E-03,9.32E-03
34650,8.38E-03,9.11E-03
34651,8.09E-03,8.85E-03
34652,8.09E-03,8.61E-03
34653,8.09E-03,8.37E-03
34654,8.09E-03,8.13E-03
34655,8.09E-03,7.89E-03
34656,8.09E-03,7.66E-03
34657,8.09E-03,7.42E-03
34658,8.09E-03,7.19E-03
34659,8.09E-03,6.97E-03
34660,8.09E-03,6.74E-03
34661,8.09E-03,6.52E-03
34662,8.09E-03,6.31E-03
34663,8.09E-03,6.10E-03
34664,8.09E-03,5.90E-03
34665,8.09E-03,5.70E-03
34666,8.09E-03,5.51E-03
34667,8.09E-03,5.33E-03
34668,8.09E-03,5.16E-03
34669,8.09E-03,5.00E-03
34670,8.09E-03,4.85E-03
34671,8.09E-03,4.71E-03
34672,8.09E-03,4.59E-03
34673,8.09E-03,4.47E-03
34674,8.09E-03,4.38E-03
34675,8.09E-03,4.29E-03
34676,8.09E-03,4.23E-03
34677,8.09E-03,4.18E-03
34678,8.09E-03,4.14E-03
34679,8.09E-03,4.13E-03
34680,8.09E-03,4.12E-03
34681,8.09E-03,4.14E-03
34682,8.09E-03,4.17E-03
34683,8.09E-03,4.21E-03
34684,8.09E-03,4.27E-03
34685,8.09E-03,4.34E-03
34686,8.09E-03,4.42E-03
34687,8.09E-03,4.51E-03
34688,8.09E-03,4.61E-03
34689,8.09E-03,4.72E-03
34690,8.09E-03,4.84E-03
34691,8.09E-03,4.96E-03
34692,8.09E-03,5.08E-03
34693,8.09E-03,5.22E-03
34694,8.09E-03,5.35E-03
34695,8.09E-03,5.49E-03
34696,8.09E-03,5.63E-03
34697,8.04E-03,5.77E-03
34698,7.96E-03,5.91E-03
34699,7.95E-03,6.06E-03
34700,7.99E-03,6.21E-03
34701,8.01E-03,6.36E-03
34702,7.98E-03,6.50E-03
34703,7.80E-03,6.64E-03
34704,7.59E-03,6.78E-03
34705,7.40E-03,6.93E-03
34706,7.36E-03,7.08E-03
34707,7.85E-03,7.25E-03
34708,8.25E-03,7.68E-03
34709,8.83E-03,7.63E-03
34710,9.96E-03,7.57E-03
34711,1.06E-02,7.48E-03
34712,1.06E-02,7.41E-03
34713,1.07E-02,7.34E-03
34714,1.08E-02,7.28E-03
34715,1.11E-02,7.22E-03
34716,1.12E-02,7.18E-03
34717,1.09E-02,7.14E-03
34718,1.06E-02,7.11E-03
34719,1.03E-02,7.08E-03
34720,9.97E-03,7.07E-03
34721,9.70E-03,7.06E-03
34722,9.61E-03,7.06E-03
34723,9.33E-03,7.06E-03
34724,9.29E-03,7.06E-03
34725,8.91E-03,7.07E-03
34726,8.87E-03,7.09E-03
34727,8.74E-03,7.10E-03
34728,8.58E-03,7.13E-03
34729,8.56E-03,7.15E-03
34730,8.57E-03,7.17E-03
34731,8.19E-03,7.20E-03
34732,8.05E-03,7.24E-03
34733,7.79E-03,7.28E-03
34734,7.65E-03,7.32E-03
34735,7.72E-03,7.35E-03
34736,8.31E-03,7.39E-03
34737,9.61E-03,7.42E-03
34738,8.93E-03,6.72E-03
34739,9.15E-03,6.74E-03
34740,9.95E-03,6.77E-03
34741,1.00E-02,6.80E-03
34742,1.00E-02,6.83E-03
34743,9.68E-03,6.87E-03
34744,9.16E-03,6.92E-03
34745,8.61E-03,6.95E-03
34746,8.44E-03,6.97E-03
34747,8.37E-03,7.01E-03
34748,7.66E-03,7.05E-03
34749,8.82E-03,7.07E-03
34750,7.72E-03,6.92E-03
34751,7.53E-03,7.09E-03
34752,8.09E-03,1.09E-02
34753,8.09E-03,1.08E-02
34754,8.09E-03,1.07E-02
34755,8.09E-03,1.05E-02
34756,8.09E-03,1.04E-02
34757,8.09E-03,1.02E-02
34758,8.09E-03,1.01E-02
34759,8.09E-03,9.96E-03
34760,8.09E-03,9.81E-03
34761,8.09E-03,9.66E-03
34762,8.09E-03,9.51E-03
34763,8.09E-03,9.36E-03
34764,8.09E-03,9.21E-03
34765,8.09E-03,9.05E-03
34766,8.09E-03,8.90E-03
34767,8.09E-03,8.74E-03
34768,8.09E-03,8.58E-03
34769,8.09E-03,8.42E-03
34770,8.09E-03,8.27E-03
34771,8.09E-03,8.11E-03
34772,8.09E-03,7.95E-03
34773,8.09E-03,7.79E-03
34774,8.09E-03,7.63E-03
34775,8.09E-03,7.48E-03
34776,8.09E-03,7.32E-03
34777,8.09E-03,7.16E-03
34778,8.09E-03,7.01E-03
34779,8.09E-03,6.86E-03
34780,8.09E-03,6.71E-03
34781,8.09E-03,6.56E-03
34782,8.09E-03,6.41E-03
34783,8.09E-03,6.27E-03
34784,8.09E-03,6.13E-03
34785,8.09E-03,6.00E-03
34786,8.09E-03,5.87E-03
34787,8.09E-03,5.75E-03
34788,8.09E-03,5.63E-03
34789,8.09E-03,5.52E-03
34790,8.09E-03,5.42E-03
34791,8.09E-03,5.33E-03
34792,8.09E-03,5.24E-03
34793,8.09E-03,5.17E-03
34794,8.09E-03,5.10E-03
34795,8.09E-03,5.05E-03
34796,8.09E-03,5.01E-03
34797,8.09E-03,4.98E-03
34798,8.09E-03,4.97E-03
34799,8.09E-03,4.97E-03
34800,8.09E-03,4.98E-03
34801,8.09E-03,5.01E-03
34802,8.09E-03,5.04E-03
34803,8.09E-03,5.10E-03
34804,8.09E-03,5.17E-03
34805,8.09E-03,5.25E-03
34806,8.09E-03,5.34E-03
34807,8.09E-03,5.45E-03
34808,8.03E-03,5.57E-03
34809,8.00E-03,5.70E-03
34810,7.93E-03,5.84E-03
34811,7.93E-03,5.98E-03
34812,7.86E-03,6.15E-03
34813,7.83E-03,6.32E-03
34814,7.95E-03,6.51E-03
34815,7.84E-03,6.69E-03
34816,7.23E-03,6.83E-03
34817,6.51E-03,7.03E-03
34818,6.21E-03,7.26E-03
34819,8.54E-03,1.07E-02
34820,7.54E-03,1.08E-02
34821,7.79E-03,1.65E-02
34822,6.13E-03,6.75E-03
34823,5.19E-03,6.78E-03
34824,4.80E-03,6.71E-03
34825,3.93E-03,6.74E-03
34826,4.46E-03,6.72E-03
34827,4.60E-03,6.71E-03
34828,4.99E-03,6.70E-03
34829,5.42E-03,6.69E-03
34830,5.86E-03,6.66E-03
34831,5.89E-03,6.63E-03
34832,6.45E-03,6.61E-03
34833,6.63E-03,6.58E-03
34834,6.67E-03,6.55E-03
34835,6.80E-03,6.53E-03
34836,6.92E-03,6.51E-03
34837,7.06E-03,6.48E-03
34838,7.21E-03,6.46E-03
34839,7.34E-03,6.44E-03
34840,7.37E-03,6.42E-03
34841,7.41E-03,6.40E-03
34842,7.44E-03,6.38E-03
34843,7.47E-03,6.37E-03
34844,7.51E-03,6.37E-03
34845,7.54E-03,6.36E-03
34846,7.57E-03,6.36E-03
34847,7.60E-03,6.37E-03
34848,7.64E-03,6.38E-03
34849,7.66E-03,6.39E-03
34850,7.69E-03,6.41E-03
34851,7.71E-03,6.44E-03
34852,7.73E-03,6.47E-03
34853,7.75E-03,6.51E-03
34854,7.78E-03,6.55E-03
34855,7.80E-03,6.60E-03
34856,7.81E-03,6.65E-03
34857,7.83E-03,6.72E-03
34858,7.84E-03,6.78E-03
34859,7.86E-03,6.86E-03
34860,7.88E-03,6.94E-03
34861,7.89E-03,7.02E-03
34862,7.90E-03,7.12E-03
34863,7.90E-03,7.21E-03
34864,7.90E-03,7.32E-03
34865,7.90E-03,7.43E-03
34866,7.90E-03,7.54E-03
34867,7.89E-03,7.66E-03
34868,7.89E-03,7.78E-03
34869,7.89E-03,7.91E-03
34870,7.87E-03,8.04E-03
34871,7.85E-03,8.17E-03
34872,7.83E-03,8.31E-03
34873,7.80E-03,8.45E-03
34874,7.78E-03,8.60E-03
34875,7.76E-03,8.74E-03
34876,7.73E-03,8.89E-03
34877,7.71E-03,9.04E-03
34878,7.68E-03,9.19E-03
34879,7.66E-03,9.34E-03
34880,7.63E-03,9.50E-03
34881,7.57E-03,9.65E-03
34882,7.51E-03,9.81E-03
34883,7.45E-03,9.96E-03
34884,7.39E-03,1.01E-02
34885,7.33E-03,1.03E-02
34886,7.27E-03,1.04E-02
34887,7.21E-03,1.06E-02
34888,7.15E-03,1.07E-02
34889,7.10E-03,1.09E-02
34890,7.06E-03,1.10E-02
34891,7.02E-03,1.12E-02
34892,6.98E-03,1.13E-02
34893,6.94E-03,1.15E-02
34894,6.90E-03,1.16E-02
34895,6.85E-03,1.18E-02
34896,6.79E-03,1.19E-02
34897,6.73E-03,1.21E-02
34898,6.67E-03,1.22E-02
34899,6.61E-03,1.24E-02
34900,6.54E-03,1.25E-02
34901,6.44E-03,1.27E-02
34902,6.33E-03,1.28E-02
34903,6.21E-03,1.29E-02
34904,6.09E-03,1.31E-02
34905,5.98E-03,1.32E-02
34906,5.92E-03,1.33E-02
34907,5.90E-03,1.34E-02
34908,5.89E-03,1.36E-02
34909,5.90E-03,1.37E-02
34910,5.94E-03,1.38E-02
34911,5.98E-03,1.40E-02
34912,6.03E-03,1.41E-02
34913,6.06E-03,1.42E-02
34914,6.09E-03,1.44E-02
34915,6.12E-03,1.45E-02
34916,6.15E-03,1.46E-02
34917,6.18E-03,1.48E-02
34918,6.21E-03,1.49E-02
34919,6.24E-03,1.50E-02
34920,6.27E-03,1.52E-02
34921,6.29E-03,1.53E-02
34922,6.32E-03,1.54E-02
34923,6.35E-03,1.56E-02
34924,6.41E-03,1.57E-02
34925,6.59E-03,1.58E-02
34926,6.68E-03,1.60E-02
34927,6.88E-03,1.61E-02
34928,7.10E-03,1.63E-02
34929,7.39E-03,1.65E-02
34930,8.45E-03,8.39E-03
34931,6.78E-03,9.65E-03
34932,7.34E-03,9.44E-03
34933,7.89E-03,9.23E-03
34934,7.35E-03,1.66E-02
34935,7.40E-03,1.65E-02
34936,7.93E-03,2.30E-02
34937,6.59E-03,1.01E-02
34938,8.82E-03,1.55E-02
34939,7.36E-03,2.34E-02
34940,7.87E-03,2.66E-02
34941,8.16E-03,2.66E-02
34942,8.91E-03,8.87E-03
34943,7.80E-03,2.04E-02
34944,7.60E-03,2.57E-02
34945,7.15E-03,1.21E-02
34946,6.47E-03,1.20E-02
34947,6.29E-03,1.19E-02
34948,8.10E-03,1.50E-02
34949,8.10E-03,1.54E-02
34950,8.11E-03,2.02E-02
34951,8.38E-03,1.47E-02
34952,4.30E-03,1.08E-02
34953,5.83E-03,1.09E-02
34954,7.15E-03,1.19E-02
34955,1.00E-02,8.44E-03
34956,9.12E-03,8.54E-03
34957,6.31E-03,8.30E-03
34958,8.08E-03,8.08E-03
34959,8.32E-03,1.06E-02
34960,5.96E-03,1.02E-02
34961,5.96E-03,1.01E-02
34962,8.26E-03,1.32E-02
34963,8.08E-03,1.30E-02
34964,7.05E-03,8.88E-03
34965,4.48E-03,8.86E-03
34966,6.23E-03,8.84E-03
34967,6.58E-03,1.04E-02
34968,8.01E-03,2.69E-02
34969,7.74E-03,2.53E-02
34970,7.75E-03,2.55E-02
34971,7.96E-03,2.57E-02
34972,5.10E-03,1.70E-02
34973,4.64E-03,1.70E-02
34974,7.13E-03,1.00E-02
34975,6.86E-03,1.67E-02
34976,7.82E-03,1.68E-02
34977,7.97E-03,2.65E-02
34978,7.89E-03,1.23E-02
34979,7.63E-03,1.22E-02
34980,8.10E-03,1.50E-02
34981,8.10E-03,1.54E-02
34982,8.02E-03,1.47E-02
34983,6.20E-03,2.18E-02
34984,9.07E-03,2.33E-02
34985,7.17E-03,9.87E-03
34986,7.07E-03,1.00E-02
34987,8.22E-03,7.90E-03
34988,8.32E-03,7.86E-03
34989,8.58E-03,1.55E-02
34990,8.10E-03,1.11E-02
34991,7.10E-03,9.80E-03
34992,5.18E-03,2.74E-02
34993,7.56E-03,2.49E-02
34994,8.86E-03,2.53E-02
34995,9.80E-03,2.51E-02
34996,7.33E-03,2.70E-02
34997,5.31E-03,2.75E-02
34998,7.01E-03,9.94E-03
34999,8.10E-03,1.13E-02
35000,8.29E-03,1.55E-02
35001,6.75E-03,9.76E-03
35002,7.50E-03,9.75E-03
35003,6.30E-03,9.78E-03
35004,5.80E-03,9.60E-03
35005,7.35E-03,9.31E-03
35006,6.65E-03,2.72E-02
35007,8.10E-03,1.49E-02
35008,8.10E-03,1.54E-02
35009,6.48E-03,1.22E-02
35010,6.12E-03,1.25E-02
35011,7.51E-03,1.48E-02
35012,8.10E-03,1.54E-02
35013,8.16E-03,1.54E-02
35014,8.10E-03,1.14E-02
35015,8.29E-03,1.54E-02
35016,7.38E-03,1.49E-02
35017,8.10E-03,1.49E-02
35018,8.10E-03,1.54E-02
35019,8.10E-03,1.16E-02
35020,8.10E-03,1.17E-02
35021,8.17E-03,1.55E-02
35022,8.10E-03,1.48E-02
35023,8.28E-03,1.55E-02
35024,7.62E-03,1.50E-02
35025,8.10E-03,1.47E-02
35026,8.40E-03,1.55E-02
35027,7.84E-03,1.50E-02
35028,8.10E-03,1.19E-02
35029,8.10E-03,1.20E-02
35030,8.10E-03,1.46E-02
35031,8.37E-03,1.55E-02
35032,8.01E-03,1.51E-02
35033,8.10E-03,1.23E-02
35034,8.10E-03,1.22E-02
35035,8.10E-03,1.45E-02
35036,8.27E-03,1.55E-02
35037,8.32E-03,1.55E-02
35038,8.10E-03,1.51E-02
35039,8.10E-03,1.45E-02
35040,8.10E-03,1.52E-02
35041,8.10E-03,1.24E-02
35042,8.10E-03,1.26E-02
35043,8.10E-03,1.44E-02
35044,8.10E-03,1.52E-02
35045,8.10E-03,1.29E-02
35046,8.10E-03,1.27E-02
35047,8.10E-03,1.43E-02
35048,8.10E-03,1.53E-02
35049,8.10E-03,1.42E-02
35050,8.10E-03,1.53E-02
35051,8.10E-03,1.41E-02
35052,8.10E-03,1.54E-02
35053,8.10E-03,1.30E-02
35054,8.10E-03,1.40E-02
35055,8.10E-03,1.39E-02
35056,8.10E-03,1.33E-02
35057,8.10E-03,1.31E-02
35058,8.10E-03,1.34E-02
35059,8.10E-03,1.37E-02
35060,8.10E-03,1.35E-02
35061,8.10E-03,1.36E-02
35062,7.41E-03,1.10E-02
35063,7.85E-03,1.01E-02
35064,7.26E-03,2.56E-02
35065,7.44E-03,1.17E-02
35066,8.59E-03,1.16E-02
35067,9.88E-03,1.15E-02
35068,1.01E-02,1.14E-02
35069,1.02E-02,1.13E-02
35070,1.04E-02,1.11E-02
35071,7.71E-03,1.09E-02
35072,8.62E-03,1.10E-02
35073,8.17E-03,9.90E-03
35074,6.95E-03,9.85E-03
35075,8.10E-03,1.51E-02
35076,8.10E-03,1.52E-02
35077,8.10E-03,1.52E-02
35078,8.10E-03,1.53E-02
35079,8.10E-03,1.53E-02
35080,8.10E-03,1.52E-02
35081,7.82E-03,1.95E-02
35082,7.83E-03,1.92E-02
35083,7.84E-03,1.90E-02
35084,9.86E-03,1.86E-02
35085,1.11E-02,1.83E-02
35086,8.62E-03,1.79E-02
35087,8.00E-03,1.76E-02
35088,8.01E-03,1.73E-02
35089,8.02E-03,1.70E-02
35090,8.02E-03,1.67E-02
35091,7.93E-03,1.64E-02
35092,7.80E-03,1.61E-02
35093,7.73E-03,1.58E-02
35094,7.53E-03,1.55E-02
35095,7.31E-03,1.52E-02
35096,7.30E-03,1.34E-02
35097,6.29E-03,1.42E-02
35098,6.85E-03,1.37E-02
35099,6.65E-03,1.40E-02
35100,8.51E-03,1.44E-02
35101,8.51E-03,1.42E-02
35102,8.41E-03,1.40E-02
35103,8.36E-03,1.38E-02
35104,8.27E-03,1.36E-02
35105,8.09E-03,1.34E-02
35106,8.09E-03,1.32E-02
35107,8.09E-03,1.30E-02
35108,8.09E-03,1.28E-02
35109,8.09E-03,1.26E-02
35110,8.09E-03,1.24E-02
35111,8.10E-03,1.22E-02
35112,7.97E-03,1.20E-02
35113,7.82E-03,1.18E-02
35114,7.74E-03,1.15E-02
35115,7.57E-03,1.13E-02
35116,7.34E-03,1.11E-02
35117,8.07E-03,1.66E-02
35118,7.97E-03,1.66E-02
35119,6.62E-03,1.14E-02
35120,8.37E-03,1.66E-02
35121,8.69E-03,1.65E-02
35122,9.24E-03,1.65E-02
35123,9.33E-03,1.65E-02
35124,9.48E-03,1.65E-02
35125,9.29E-03,1.65E-02
35126,9.10E-03,1.65E-02
35127,8.99E-03,1.65E-02
35128,8.95E-03,1.64E-02
35129,8.95E-03,1.64E-02
35130,8.95E-03,1.64E-02
35131,8.88E-03,1.64E-02
35132,8.72E-03,1.64E-02
35133,8.55E-03,1.64E-02
35134,8.42E-03,1.64E-02
35135,8.34E-03,1.64E-02
35136,8.26E-03,1.64E-02
35137,8.22E-03,1.64E-02
35138,8.21E-03,1.64E-02
35139,8.21E-03,1.64E-02
35140,8.20E-03,1.64E-02
35141,8.19E-03,1.64E-02
35142,8.16E-03,1.64E-02
35143,8.13E-03,1.64E-02
35144,8.09E-03,1.64E-02
35145,8.06E-03,1.64E-02
35146,8.03E-03,1.64E-02
35147,8.00E-03,1.64E-02
35148,7.97E-03,1.64E-02
35149,7.96E-03,1.63E-02
35150,7.98E-03,1.63E-02
35151,8.02E-03,1.63E-02
35152,8.06E-03,1.63E-02
35153,8.11E-03,1.63E-02
35154,8.15E-03,1.63E-02
35155,8.19E-03,1.62E-02
35156,8.23E-03,1.62E-02
35157,8.28E-03,1.62E-02
35158,8.36E-03,1.62E-02
35159,8.47E-03,1.61E-02
35160,8.57E-03,1.61E-02
35161,8.65E-03,1.61E-02
35162,8.70E-03,1.61E-02
35163,8.74E-03,1.60E-02
35164,8.78E-03,1.60E-02
35165,8.83E-03,1.60E-02
35166,8.88E-03,1.59E-02
35167,8.95E-03,1.59E-02
35168,9.01E-03,1.59E-02
35169,9.08E-03,1.58E-02
35170,9.17E-03,1.58E-02
35171,9.30E-03,1.58E-02
35172,9.44E-03,1.58E-02
35173,9.58E-03,1.57E-02
35174,9.66E-03,1.57E-02
35175,9.68E-03,1.57E-02
35176,9.65E-03,1.57E-02
35177,9.59E-03,1.56E-02
35178,9.54E-03,1.56E-02
35179,9.49E-03,1.56E-02
35180,9.44E-03,1.56E-02
35181,9.38E-03,1.56E-02
35182,9.34E-03,1.56E-02
35183,9.35E-03,1.56E-02
35184,9.36E-03,1.56E-02
35185,9.20E-03,1.55E-02
35186,8.87E-03,1.55E-02
35187,8.50E-03,1.55E-02
35188,8.13E-03,1.55E-02
35189,7.88E-03,1.55E-02
35190,7.89E-03,1.55E-02
35191,7.96E-03,1.55E-02
35192,7.90E-03,1.55E-02
35193,7.73E-03,1.55E-02
35194,7.58E-03,1.55E-02
35195,7.45E-03,1.55E-02
35196,7.31E-03,1.55E-02
35197,7.15E-03,1.55E-02
35198,6.94E-03,1.55E-02
35199,6.71E-03,1.55E-02
35200,6.51E-03,1.55E-02
35201,6.38E-03,1.55E-02
35202,6.29E-03,1.55E-02
35203,6.20E-03,1.54E-02
35204,6.13E-03,1.54E-02
35205,6.09E-03,1.54E-02
35206,6.04E-03,1.54E-02
35207,5.98E-03,1.54E-02
35208,5.88E-03,1.53E-02
35209,5.77E-03,1.53E-02
35210,5.69E-03,1.53E-02
35211,5.69E-03,1.52E-02
35212,5.74E-03,1.52E-02
35213,5.79E-03,1.52E-02
35214,5.86E-03,1.51E-02
35215,5.92E-03,1.51E-02
35216,5.99E-03,1.51E-02
35217,6.05E-03,1.50E-02
35218,6.12E-03,1.50E-02
35219,6.18E-03,1.49E-02
35220,6.23E-03,1.49E-02
35221,6.26E-03,1.48E-02
35222,6.28E-03,1.48E-02
35223,6.30E-03,1.47E-02
35224,6.33E-03,1.47E-02
35225,6.35E-03,1.46E-02
35226,6.36E-03,1.46E-02
35227,6.33E-03,1.45E-02
35228,6.28E-03,1.45E-02
35229,6.23E-03,1.44E-02
35230,6.17E-03,1.43E-02
35231,6.10E-03,1.43E-02
35232,6.03E-03,1.42E-02
35233,5.95E-03,1.42E-02
35234,5.81E-03,1.41E-02
35235,5.65E-03,1.40E-02
35236,5.48E-03,1.40E-02
35237,5.32E-03,1.39E-02
35238,5.18E-03,1.39E-02
35239,5.13E-03,1.38E-02
35240,5.20E-03,1.38E-02
35241,5.28E-03,1.37E-02
35242,5.19E-03,1.37E-02
35243,5.15E-03,1.36E-02
35244,6.21E-03,1.36E-02
35245,8.32E-03,1.35E-02
35246,8.73E-03,1.34E-02
35247,9.40E-03,1.33E-02
35248,1.14E-02,1.32E-02
35249,1.01E-02,1.31E-02
35250,1.01E-02,1.30E-02
35251,9.93E-03,1.29E-02
35252,9.96E-03,1.28E-02
35253,9.98E-03,1.27E-02
35254,9.39E-03,1.25E-02
35255,6.47E-03,1.70E-02
35256,7.70E-03,1.05E-02
35257,8.22E-03,1.00E-02
35258,8.59E-03,1.00E-02
35259,8.68E-03,1.01E-02
35260,8.60E-03,1.01E-02
35261,7.18E-03,1.01E-02
35262,6.67E-03,1.02E-02
35263,5.67E-03,1.02E-02
35264,4.50E-03,1.02E-02
35265,4.24E-03,1.02E-02
35266,4.55E-03,1.02E-02
35267,4.59E-03,1.03E-02
35268,4.50E-03,1.03E-02
35269,4.41E-03,1.03E-02
35270,4.45E-03,1.03E-02
35271,4.46E-03,1.04E-02
35272,4.54E-03,1.04E-02
35273,4.76E-03,1.04E-02
35274,5.36E-03,1.05E-02
35275,6.73E-03,1.05E-02
35276,6.92E-03,1.06E-02
35277,6.12E-03,1.37E-02
35278,6.05E-03,1.40E-02
35279,5.49E-03,1.42E-02
35280,4.73E-03,1.44E-02
35281,4.19E-03,1.46E-02
35282,3.78E-03,1.48E-02
35283,3.41E-03,1.50E-02
35284,3.34E-03,1.52E-02
35285,3.62E-03,1.54E-02
35286,3.91E-03,1.56E-02
35287,4.29E-03,1.58E-02
35288,4.51E-03,1.60E-02
35289,4.60E-03,1.63E-02
35290,4.86E-03,1.65E-02
35291,5.10E-03,1.68E-02
35292,5.08E-03,1.71E-02
35293,5.04E-03,1.73E-02
35294,4.93E-03,1.76E-02
35295,4.93E-03,1.79E-02
35296,4.77E-03,1.82E-02
35297,4.79E-03,1.85E-02
35298,4.57E-03,1.87E-02
35299,4.55E-03,1.90E-02
35300,4.46E-03,1.92E-02
35301,7.44E-03,1.95E-02
35302,7.80E-03,2.55E-02
35303,8.11E-03,2.55E-02
35304,7.82E-03,2.54E-02
35305,7.72E-03,2.53E-02
35306,7.43E-03,2.52E-02
35307,7.14E-03,2.50E-02
35308,6.89E-03,2.49E-02
35309,6.62E-03,2.47E-02
35310,6.29E-03,2.46E-02
35311,5.85E-03,2.44E-02
35312,5.43E-03,2.43E-02
35313,4.96E-03,2.42E-02
35314,4.55E-03,2.41E-02
35315,3.94E-03,2.40E-02
35316,3.33E-03,2.39E-02
35317,2.91E-03,2.37E-02
35318,2.50E-03,2.36E-02
35319,3.00E-03,2.35E-02
35320,3.24E-03,2.33E-02
35321,3.50E-03,2.32E-02
35322,3.71E-03,2.30E-02
35323,3.98E-03,2.29E-02
35324,4.40E-03,2.27E-02
35325,4.58E-03,2.25E-02
35326,4.64E-03,2.23E-02
35327,4.74E-03,2.20E-02
35328,4.87E-03,2.18E-02
35329,4.80E-03,2.16E-02
35330,4.71E-03,2.14E-02
35331,4.68E-03,2.12E-02
35332,4.76E-03,2.09E-02
35333,4.85E-03,2.07E-02
35334,5.07E-03,2.04E-02
35335,7.26E-03,2.00E-02
35336,5.24E-03,1.69E-02
35337,4.65E-03,1.69E-02
35338,6.94E-03,1.68E-02
35339,6.96E-03,2.21E-02
35340,7.22E-03,2.23E-02
35341,7.31E-03,2.25E-02
35342,7.63E-03,2.27E-02
35343,6.27E-03,7.56E-03
35344,6.54E-03,1.19E-02
35345,8.29E-03,1.23E-02
35346,8.06E-03,1.23E-02
35347,8.46E-03,1.13E-02
35348,7.99E-03,1.12E-02
35349,7.76E-03,1.12E-02
35350,7.67E-03,1.11E-02
35351,7.53E-03,1.11E-02
35352,6.42E-03,2.54E-02
35353,8.83E-03,1.55E-02
35354,7.15E-03,1.01E-02
35355,8.33E-03,2.70E-02
35356,7.68E-03,2.69E-02
35357,6.49E-03,1.67E-02
35358,9.33E-03,7.26E-03
35359,8.63E-03,7.34E-03
35360,4.65E-03,9.43E-03
35361,6.02E-03,9.28E-03
35362,8.36E-03,9.06E-03
35363,8.09E-03,8.81E-03
35364,8.09E-03,8.57E-03
35365,8.09E-03,8.33E-03
35366,8.09E-03,8.10E-03
35367,8.09E-03,7.86E-03
35368,8.09E-03,7.62E-03
35369,8.09E-03,7.39E-03
35370,8.09E-03,7.16E-03
35371,8.09E-03,6.94E-03
35372,8.09E-03,6.71E-03
35373,8.09E-03,6.50E-03
35374,8.09E-03,6.28E-03
35375,8.09E-03,6.07E-03
35376,8.09E-03,5.87E-03
35377,8.09E-03,5.67E-03
35378,8.09E-03,5.49E-03
35379,8.09E-03,5.30E-03
35380,8.09E-03,5.13E-03
35381,8.09E-03,4.97E-03
35382,8.09E-03,4.82E-03
35383,8.09E-03,4.68E-03
35384,8.09E-03,4.56E-03
35385,8.09E-03,4.44E-03
35386,8.09E-03,4.34E-03
35387,8.09E-03,4.26E-03
35388,8.09E-03,4.19E-03
35389,8.09E-03,4.14E-03
35390,8.09E-03,4.10E-03
35391,8.09E-03,4.08E-03
35392,8.09E-03,4.08E-03
35393,8.09E-03,4.09E-03
35394,8.09E-03,4.12E-03
35395,8.09E-03,4.17E-03
35396,8.09E-03,4.22E-03
35397,8.09E-03,4.29E-03
35398,8.09E-03,4.37E-03
35399,8.09E-03,4.46E-03
35400,8.09E-03,4.56E-03
35401,8.09E-03,4.67E-03
35402,8.09E-03,4.79E-03
35403,8.09E-03,4.91E-03
35404,8.09E-03,5.04E-03
35405,8.09E-03,5.17E-03
35406,8.09E-03,5.31E-03
35407,8.09E-03,5.44E-03
35408,8.09E-03,5.58E-03
35409,8.09E-03,5.73E-03
35410,8.09E-03,5.87E-03
35411,8.09E-03,6.02E-03
35412,8.09E-03,6.17E-03
35413,8.03E-03,6.32E-03
35414,7.93E-03,6.46E-03
35415,7.86E-03,6.60E-03
35416,7.77E-03,6.75E-03
35417,7.65E-03,6.90E-03
35418,7.74E-03,7.05E-03
35419,8.33E-03,7.21E-03
35420,9.81E-03,7.40E-03
35421,8.33E-03,7.57E-03
35422,9.23E-03,6.95E-03
35423,9.62E-03,6.97E-03
35424,9.92E-03,6.98E-03
35425,1.01E-02,7.00E-03
35426,9.97E-03,7.04E-03
35427,9.70E-03,7.08E-03
35428,9.04E-03,7.12E-03
35429,8.79E-03,7.15E-03
35430,8.71E-03,7.19E-03
35431,8.77E-03,7.22E-03
35432,7.46E-03,7.26E-03
35433,7.52E-03,7.32E-03
35434,7.04E-03,7.33E-03
35435,6.36E-03,7.46E-03
35436,9.40E-03,1.55E-02
35437,9.56E-03,2.07E-02
35438,8.08E-03,1.67E-02
35439,7.62E-03,1.66E-02
35440,8.31E-03,8.53E-03
35441,6.22E-03,8.68E-03
35442,6.94E-03,1.02E-02
35443,5.89E-03,9.46E-03
35444,8.08E-03,8.96E-03
35445,6.90E-03,1.66E-02
35446,6.89E-03,1.67E-02
35447,8.30E-03,2.60E-02
35448,7.86E-03,2.60E-02
35449,7.66E-03,2.58E-02
35450,7.56E-03,2.59E-02
35451,6.42E-03,1.18E-02
35452,8.10E-03,1.51E-02
35453,8.10E-03,1.53E-02
35454,8.10E-03,1.99E-02
35455,5.29E-03,1.47E-02
35456,6.96E-03,1.49E-02
35457,8.44E-03,1.45E-02
35458,8.47E-03,1.06E-02
35459,8.52E-03,1.09E-02
35460,7.34E-03,1.67E-02
35461,7.36E-03,1.68E-02
35462,6.55E-03,1.11E-02
35463,7.32E-03,1.16E-02
35464,7.81E-03,1.24E-02
35465,8.19E-03,8.68E-03
35466,7.21E-03,9.24E-03
35467,7.15E-03,8.27E-03
35468,8.24E-03,2.47E-02
35469,4.23E-03,1.04E-02
35470,5.59E-03,1.04E-02
35471,5.41E-03,1.00E-02
35472,5.72E-03,9.96E-03
35473,5.92E-03,9.91E-03
35474,6.12E-03,9.86E-03
35475,6.58E-03,9.81E-03
35476,1.06E-02,9.74E-03
35477,1.04E-02,9.65E-03
35478,1.03E-02,9.55E-03
35479,9.18E-03,9.46E-03
35480,8.77E-03,9.37E-03
35481,8.37E-03,9.28E-03
35482,8.15E-03,9.20E-03
35483,7.78E-03,9.12E-03
35484,7.54E-03,9.04E-03
35485,7.25E-03,8.96E-03
35486,6.93E-03,8.89E-03
35487,6.70E-03,8.82E-03
35488,6.54E-03,8.75E-03
35489,6.39E-03,8.69E-03
35490,6.23E-03,8.63E-03
35491,6.08E-03,8.56E-03
35492,5.91E-03,8.50E-03
35493,5.68E-03,8.45E-03
35494,5.44E-03,8.39E-03
35495,5.19E-03,8.34E-03
35496,4.94E-03,8.29E-03
35497,4.77E-03,8.25E-03
35498,4.72E-03,8.20E-03
35499,4.72E-03,8.16E-03
35500,4.71E-03,8.12E-03
35501,4.70E-03,8.08E-03
35502,4.69E-03,8.04E-03
35503,4.67E-03,8.00E-03
35504,4.65E-03,7.96E-03
35505,4.61E-03,7.93E-03
35506,4.56E-03,7.89E-03
35507,4.52E-03,7.86E-03
35508,4.48E-03,7.83E-03
35509,4.43E-03,7.79E-03
35510,4.42E-03,7.77E-03
35511,4.45E-03,7.74E-03
35512,4.51E-03,7.71E-03
35513,4.56E-03,7.68E-03
35514,4.64E-03,7.65E-03
35515,4.74E-03,7.63E-03
35516,4.85E-03,7.60E-03
35517,4.97E-03,7.58E-03
35518,5.14E-03,7.55E-03
35519,5.34E-03,7.53E-03
35520,5.56E-03,7.50E-03
35521,5.75E-03,7.48E-03
35522,5.89E-03,7.45E-03
35523,6.00E-03,7.43E-03
35524,6.10E-03,7.40E-03
35525,6.20E-03,7.38E-03
35526,6.29E-03,7.35E-03
35527,6.38E-03,7.33E-03
35528,6.46E-03,7.31E-03
35529,6.55E-03,7.28E-03
35530,6.64E-03,7.26E-03
35531,6.72E-03,7.24E-03
35532,6.81E-03,7.22E-03
35533,6.89E-03,7.19E-03
35534,6.94E-03,7.17E-03
35535,6.98E-03,7.15E-03
35536,7.02E-03,7.13E-03
35537,7.06E-03,7.11E-03
35538,7.10E-03,7.08E-03
35539,7.15E-03,7.06E-03
35540,7.19E-03,7.04E-03
35541,7.23E-03,7.02E-03
35542,7.28E-03,7.00E-03
35543,7.35E-03,6.97E-03
35544,7.44E-03,6.95E-03
35545,7.52E-03,6.93E-03
35546,7.59E-03,6.91E-03
35547,7.64E-03,6.88E-03
35548,7.67E-03,6.86E-03
35549,7.71E-03,6.83E-03
35550,7.75E-03,6.81E-03
35551,7.74E-03,6.78E-03
35552,7.56E-03,6.75E-03
35553,7.28E-03,6.73E-03
35554,7.09E-03,6.70E-03
35555,6.95E-03,6.68E-03
35556,6.64E-03,6.65E-03
35557,6.49E-03,6.63E-03
35558,6.30E-03,6.60E-03
35559,6.07E-03,6.57E-03
35560,5.82E-03,6.54E-03
35561,5.53E-03,6.50E-03
35562,5.15E-03,6.47E-03
35563,4.59E-03,6.43E-03
35564,3.60E-03,6.42E-03
35565,2.22E-03,6.45E-03
35566,3.18E-03,6.48E-03
35567,2.92E-03,6.52E-03
35568,2.92E-03,6.54E-03
35569,3.07E-03,6.57E-03
35570,3.65E-03,6.61E-03
35571,4.02E-03,6.65E-03
35572,4.16E-03,6.69E-03
35573,4.30E-03,6.74E-03
35574,4.54E-03,6.79E-03
35575,4.73E-03,6.84E-03
35576,5.00E-03,6.91E-03
35577,5.25E-03,6.97E-03
35578,5.30E-03,7.04E-03
35579,7.08E-03,7.13E-03
35580,9.28E-03,7.25E-03
35581,9.33E-03,7.38E-03
35582,9.56E-03,7.52E-03
35583,9.96E-03,7.67E-03
35584,1.03E-02,7.85E-03
35585,1.15E-02,8.04E-03
35586,1.12E-02,8.16E-03
35587,9.22E-03,8.29E-03
35588,8.18E-03,1.32E-02
35589,7.59E-03,1.34E-02
35590,7.21E-03,1.01E-02
35591,6.45E-03,1.00E-02
35592,5.87E-03,8.83E-03
35593,8.04E-03,8.50E-03
35594,7.06E-03,1.06E-02
35595,7.12E-03,1.08E-02
35596,9.56E-03,2.71E-02
35597,9.55E-03,2.71E-02
35598,7.92E-03,2.55E-02
35599,9.25E-03,2.58E-02
35600,9.42E-03,2.60E-02
35601,8.23E-03,1.27E-02
35602,9.04E-03,1.25E-02
35603,5.85E-03,1.71E-02
35604,6.98E-03,6.97E-03
35605,5.62E-03,6.96E-03
35606,5.10E-03,6.92E-03
35607,4.01E-03,6.89E-03
35608,4.29E-03,6.91E-03
35609,4.39E-03,6.90E-03
35610,5.09E-03,6.88E-03
35611,5.55E-03,6.85E-03
35612,5.92E-03,6.82E-03
35613,5.99E-03,6.80E-03
35614,6.38E-03,6.77E-03
35615,6.62E-03,6.74E-03
35616,6.72E-03,6.71E-03
35617,6.86E-03,6.68E-03
35618,6.99E-03,6.65E-03
35619,7.10E-03,6.62E-03
35620,7.28E-03,6.59E-03
35621,7.35E-03,6.56E-03
35622,7.39E-03,6.53E-03
35623,7.42E-03,6.51E-03
35624,7.46E-03,6.49E-03
35625,7.49E-03,6.47E-03
35626,7.52E-03,6.46E-03
35627,7.55E-03,6.45E-03
35628,7.59E-03,6.44E-03
35629,7.62E-03,6.44E-03
35630,7.65E-03,6.45E-03
35631,7.68E-03,6.45E-03
35632,7.70E-03,6.47E-03
35633,7.72E-03,6.49E-03
35634,7.74E-03,6.51E-03
35635,7.76E-03,6.54E-03
35636,7.78E-03,6.58E-03
35637,7.80E-03,6.62E-03
35638,7.82E-03,6.67E-03
35639,7.84E-03,6.73E-03
35640,7.85E-03,6.79E-03
35641,7.87E-03,6.86E-03
35642,7.88E-03,6.93E-03
35643,7.90E-03,7.02E-03
35644,7.90E-03,7.10E-03
35645,7.90E-03,7.20E-03
35646,7.90E-03,7.30E-03
35647,7.90E-03,7.40E-03
35648,7.90E-03,7.52E-03
35649,7.90E-03,7.63E-03
35650,7.90E-03,7.75E-03
35651,7.89E-03,7.88E-03
35652,7.88E-03,8.01E-03
35653,7.86E-03,8.14E-03
35654,7.83E-03,8.28E-03
35655,7.81E-03,8.42E-03
35656,7.79E-03,8.56E-03
35657,7.76E-03,8.71E-03
35658,7.74E-03,8.86E-03
35659,7.72E-03,9.01E-03
35660,7.70E-03,9.16E-03
35661,7.67E-03,9.31E-03
35662,7.64E-03,9.46E-03
35663,7.59E-03,9.62E-03
35664,7.53E-03,9.78E-03
35665,7.47E-03,9.93E-03
35666,7.41E-03,1.01E-02
35667,7.35E-03,1.02E-02
35668,7.29E-03,1.04E-02
35669,7.23E-03,1.06E-02
35670,7.18E-03,1.07E-02
35671,7.13E-03,1.09E-02
35672,7.09E-03,1.10E-02
35673,7.05E-03,1.12E-02
35674,7.01E-03,1.13E-02
35675,6.97E-03,1.15E-02
35676,6.93E-03,1.16E-02
35677,6.88E-03,1.18E-02
35678,6.83E-03,1.19E-02
35679,6.77E-03,1.21E-02
35680,6.71E-03,1.22E-02
35681,6.65E-03,1.24E-02
35682,6.58E-03,1.25E-02
35683,6.49E-03,1.26E-02
35684,6.37E-03,1.28E-02
35685,6.25E-03,1.29E-02
35686,6.14E-03,1.30E-02
35687,6.03E-03,1.32E-02
35688,5.97E-03,1.33E-02
35689,5.95E-03,1.34E-02
35690,5.94E-03,1.36E-02
35691,5.95E-03,1.37E-02
35692,5.99E-03,1.38E-02
35693,6.04E-03,1.40E-02
35694,6.08E-03,1.41E-02
35695,6.11E-03,1.42E-02
35696,6.14E-03,1.43E-02
35697,6.17E-03,1.45E-02
35698,6.20E-03,1.46E-02
35699,6.23E-03,1.48E-02
35700,6.26E-03,1.49E-02
35701,6.29E-03,1.50E-02
35702,6.32E-03,1.52E-02
35703,6.34E-03,1.53E-02
35704,6.37E-03,1.54E-02
35705,6.40E-03,1.56E-02
35706,6.43E-03,1.57E-02
35707,6.63E-03,1.58E-02
35708,6.74E-03,1.60E-02
35709,6.75E-03,1.61E-02
35710,6.85E-03,1.63E-02
35711,7.20E-03,1.65E-02
35712,7.51E-03,1.66E-02
35713,6.85E-03,9.81E-03
35714,7.36E-03,1.68E-02
35715,8.05E-03,2.65E-02
35716,7.96E-03,2.60E-02
35717,7.29E-03,1.20E-02
35718,6.94E-03,1.19E-02
35719,6.95E-03,1.18E-02
35720,7.67E-03,1.08E-02
35721,8.10E-03,1.50E-02
35722,8.10E-03,1.54E-02
35723,8.42E-03,2.03E-02
35724,4.73E-03,1.45E-02
35725,5.45E-03,1.47E-02
35726,8.15E-03,1.46E-02
35727,6.88E-03,2.19E-02
35728,8.74E-03,2.32E-02
35729,9.64E-03,2.38E-02
35730,6.59E-03,2.18E-02
35731,6.32E-03,1.72E-02
35732,6.51E-03,9.99E-03
35733,6.74E-03,1.02E-02
35734,8.76E-03,8.06E-03
35735,8.40E-03,8.03E-03
35736,7.75E-03,1.04E-02
35737,8.43E-03,1.71E-02
35738,8.76E-03,1.54E-02
35739,8.09E-03,1.10E-02
35740,8.09E-03,1.08E-02
35741,8.09E-03,1.07E-02
35742,8.09E-03,1.06E-02
35743,8.09E-03,1.04E-02
35744,8.09E-03,1.03E-02
35745,8.09E-03,1.01E-02
35746,8.09E-03,9.98E-03
35747,8.09E-03,9.83E-03
35748,8.09E-03,9.68E-03
35749,8.09E-03,9.53E-03
35750,8.09E-03,9.38E-03
35751,8.09E-03,9.23E-03
35752,8.09E-03,9.07E-03
35753,8.09E-03,8.91E-03
35754,8.09E-03,8.76E-03
35755,8.09E-03,8.60E-03
35756,8.09E-03,8.44E-03
35757,8.09E-03,8.28E-03
35758,8.09E-03,8.12E-03
35759,8.09E-03,7.97E-03
35760,8.09E-03,7.81E-03
35761,8.09E-03,7.65E-03
35762,8.09E-03,7.49E-03
35763,8.09E-03,7.33E-03
35764,8.09E-03,7.17E-03
35765,8.09E-03,7.02E-03
35766,8.09E-03,6.87E-03
35767,8.09E-03,6.71E-03
35768,8.09E-03,6.57E-03
35769,8.09E-03,6.42E-03
35770,8.09E-03,6.28E-03
35771,8.09E-03,6.14E-03
35772,8.09E-03,6.00E-03
35773,8.09E-03,5.87E-03
35774,8.09E-03,5.75E-03
35775,8.09E-03,5.63E-03
35776,8.09E-03,5.52E-03
35777,8.09E-03,5.42E-03
35778,8.09E-03,5.32E-03
35779,8.09E-03,5.23E-03
35780,8.09E-03,5.16E-03
35781,8.09E-03,5.09E-03
35782,8.09E-03,5.04E-03
35783,8.09E-03,5.00E-03
35784,8.09E-03,4.97E-03
35785,8.09E-03,4.95E-03
35786,8.09E-03,4.94E-03
35787,8.09E-03,4.95E-03
35788,8.09E-03,4.98E-03
35789,8.09E-03,5.01E-03
35790,8.09E-03,5.06E-03
35791,8.09E-03,5.13E-03
35792,8.09E-03,5.21E-03
35793,8.09E-03,5.30E-03
35794,8.09E-03,5.40E-03
35795,8.09E-03,5.52E-03
35796,8.09E-03,5.65E-03
35797,8.01E-03,5.79E-03
35798,7.98E-03,5.93E-03
35799,8.05E-03,6.10E-03
35800,8.09E-03,6.27E-03
35801,7.91E-03,6.44E-03
35802,7.72E-03,6.61E-03
35803,7.41E-03,6.79E-03
35804,7.19E-03,6.98E-03
35805,7.05E-03,7.21E-03
35806,7.07E-03,7.44E-03
35807,7.34E-03,9.58E-03
35808,8.69E-03,7.82E-03
35809,8.84E-03,7.78E-03
35810,9.97E-03,7.72E-03
35811,1.07E-02,7.64E-03
35812,1.08E-02,7.56E-03
35813,1.08E-02,7.49E-03
35814,1.09E-02,7.43E-03
35815,1.12E-02,7.37E-03
35816,1.11E-02,7.33E-03
35817,1.09E-02,7.29E-03
35818,1.05E-02,7.26E-03
35819,1.02E-02,7.23E-03
35820,9.92E-03,7.22E-03
35821,9.73E-03,7.21E-03
35822,9.59E-03,7.20E-03
35823,9.37E-03,7.21E-03
35824,9.32E-03,7.21E-03
35825,9.00E-03,7.22E-03
35826,8.91E-03,7.23E-03
35827,8.84E-03,7.25E-03
35828,8.73E-03,7.27E-03
35829,8.72E-03,7.29E-03
35830,8.43E-03,7.31E-03
35831,8.25E-03,7.34E-03
35832,8.09E-03,7.38E-03
35833,8.02E-03,7.41E-03
35834,7.97E-03,7.45E-03
35835,8.17E-03,7.48E-03
35836,8.59E-03,7.52E-03
35837,7.24E-03,7.71E-03
35838,6.96E-03,2.75E-02
35839,7.88E-03,2.72E-02
35840,8.91E-03,1.06E-02
35841,7.50E-03,1.04E-02
35842,6.28E-03,2.78E-02
35843,7.02E-03,1.02E-02
35844,7.42E-03,7.19E-03
35845,8.04E-03,7.37E-03
35846,7.15E-03,9.75E-03
35847,5.43E-03,1.15E-02
35848,8.10E-03,1.11E-02
35849,6.17E-03,1.70E-02
35850,8.23E-03,1.54E-02
35851,7.83E-03,2.69E-02
35852,8.15E-03,1.22E-02
35853,7.75E-03,1.21E-02
35854,6.38E-03,1.00E-02
35855,5.64E-03,1.02E-02
35856,4.84E-03,9.69E-03
35857,6.51E-03,9.48E-03
35858,7.52E-03,9.22E-03
35859,6.61E-03,2.76E-02
35860,7.11E-03,2.74E-02
35861,8.10E-03,1.50E-02
35862,8.10E-03,1.54E-02
35863,5.93E-03,1.27E-02
35864,7.94E-03,1.46E-02
35865,8.07E-03,1.53E-02
35866,8.07E-03,1.54E-02
35867,8.10E-03,1.13E-02
35868,7.78E-03,9.05E-03
35869,5.73E-03,8.95E-03
35870,5.72E-03,8.94E-03
35871,7.23E-03,9.91E-03
35872,8.10E-03,1.54E-02
35873,7.54E-03,1.47E-02
35874,7.48E-03,9.94E-03
35875,7.05E-03,9.91E-03
35876,6.58E-03,9.88E-03
35877,8.10E-03,1.49E-02
35878,8.10E-03,1.53E-02
35879,8.10E-03,1.14E-02
35880,8.10E-03,1.16E-02
35881,4.69E-03,1.24E-02
35882,5.04E-03,1.22E-02
35883,8.60E-03,1.55E-02
35884,8.10E-03,1.48E-02
35885,8.24E-03,1.54E-02
35886,7.53E-03,1.48E-02
35887,8.10E-03,1.47E-02
35888,8.24E-03,1.54E-02
35889,7.74E-03,1.49E-02
35890,8.10E-03,1.17E-02
35891,8.10E-03,1.19E-02
35892,8.10E-03,1.47E-02
35893,8.39E-03,1.54E-02
35894,7.93E-03,1.50E-02
35895,8.10E-03,1.22E-02
35896,8.10E-03,1.20E-02
35897,8.10E-03,1.46E-02
35898,8.41E-03,1.54E-02
35899,8.10E-03,1.50E-02
35900,8.10E-03,1.45E-02
35901,8.27E-03,1.55E-02
35902,8.35E-03,1.54E-02
35903,8.10E-03,1.51E-02
35904,8.10E-03,1.23E-02
35905,8.10E-03,1.25E-02
35906,8.10E-03,1.44E-02
35907,8.10E-03,1.51E-02
35908,8.10E-03,1.28E-02
35909,8.10E-03,1.26E-02
35910,8.10E-03,1.43E-02
35911,8.10E-03,1.52E-02
35912,8.10E-03,1.42E-02
35913,8.10E-03,1.52E-02
35914,8.10E-03,1.41E-02
35915,8.10E-03,1.53E-02
35916,8.10E-03,1.29E-02
35917,8.10E-03,1.40E-02
35918,8.10E-03,1.53E-02
35919,8.10E-03,1.39E-02
35920,8.10E-03,1.32E-02
35921,8.10E-03,1.30E-02
35922,8.10E-03,1.33E-02
35923,8.10E-03,1.38E-02
35924,8.10E-03,1.34E-02
35925,8.10E-03,1.37E-02
35926,8.10E-03,1.35E-02
35927,7.65E-03,2.58E-02
35928,7.27E-03,1.17E-02
35929,9.04E-03,1.16E-02
35930,9.12E-03,1.14E-02
35931,1.03E-02,1.13E-02
35932,1.04E-02,1.12E-02
35933,1.05E-02,1.10E-02
35934,8.83E-03,1.09E-02
35935,8.05E-03,1.00E-02
35936,7.59E-03,9.96E-03
35937,8.10E-03,1.51E-02
35938,8.10E-03,1.51E-02
35939,8.10E-03,1.52E-02
35940,8.10E-03,1.53E-02
35941,8.10E-03,1.53E-02
35942,8.10E-03,1.52E-02
35943,8.00E-03,1.96E-02
35944,7.81E-03,1.93E-02
35945,7.91E-03,1.90E-02
35946,9.81E-03,1.87E-02
35947,1.10E-02,1.83E-02
35948,8.60E-03,1.80E-02
35949,8.00E-03,1.76E-02
35950,8.01E-03,1.73E-02
35951,8.02E-03,1.70E-02
35952,8.02E-03,1.67E-02
35953,7.97E-03,1.64E-02
35954,7.88E-03,1.61E-02
35955,7.81E-03,1.58E-02
35956,7.70E-03,1.55E-02
35957,7.65E-03,1.52E-02
35958,6.37E-03,1.43E-02
35959,7.53E-03,1.37E-02
35960,7.04E-03,1.40E-02
35961,8.42E-03,1.43E-02
35962,8.43E-03,1.41E-02
35963,8.37E-03,1.40E-02
35964,8.31E-03,1.38E-02
35965,8.22E-03,1.36E-02
35966,8.09E-03,1.34E-02
35967,8.09E-03,1.32E-02
35968,8.09E-03,1.30E-02
35969,8.09E-03,1.28E-02
35970,8.09E-03,1.26E-02
35971,8.09E-03,1.24E-02
35972,8.10E-03,1.21E-02
35973,7.91E-03,1.19E-02
35974,7.72E-03,1.17E-02
35975,7.73E-03,1.15E-02
35976,7.53E-03,1.13E-02
35977,7.52E-03,1.11E-02
35978,7.78E-03,1.68E-02
35979,7.92E-03,1.68E-02
35980,6.98E-03,1.13E-02
35981,8.38E-03,1.67E-02
35982,8.91E-03,1.67E-02
35983,9.17E-03,1.67E-02
35984,9.34E-03,1.67E-02
35985,9.52E-03,1.67E-02
35986,9.22E-03,1.67E-02
35987,9.07E-03,1.66E-02
35988,8.96E-03,1.66E-02
35989,8.93E-03,1.66E-02
35990,8.93E-03,1.66E-02
35991,8.92E-03,1.66E-02
35992,8.86E-03,1.66E-02
35993,8.71E-03,1.66E-02
35994,8.53E-03,1.66E-02
35995,8.41E-03,1.66E-02
35996,8.33E-03,1.66E-02
35997,8.26E-03,1.66E-02
35998,8.22E-03,1.66E-02
35999,8.21E-03,1.66E-02
36000,8.20E-03,1.66E-02
36001,8.20E-03,1.66E-02
36002,8.19E-03,1.66E-02
36003,8.16E-03,1.66E-02
36004,8.13E-03,1.66E-02
36005,8.09E-03,1.66E-02
36006,8.06E-03,1.66E-02
36007,8.03E-03,1.66E-02
36008,8.01E-03,1.66E-02
36009,7.98E-03,1.65E-02
36010,7.96E-03,1.65E-02
36011,7.98E-03,1.65E-02
36012,8.02E-03,1.65E-02
36013,8.06E-03,1.65E-02
36014,8.11E-03,1.65E-02
36015,8.15E-03,1.64E-02
36016,8.19E-03,1.64E-02
36017,8.23E-03,1.64E-02
36018,8.28E-03,1.64E-02
36019,8.35E-03,1.63E-02
36020,8.46E-03,1.63E-02
36021,8.56E-03,1.63E-02
36022,8.63E-03,1.62E-02
36023,8.68E-03,1.62E-02
36024,8.72E-03,1.62E-02
36025,8.77E-03,1.61E-02
36026,8.81E-03,1.61E-02
36027,8.86E-03,1.61E-02
36028,8.92E-03,1.60E-02
36029,8.99E-03,1.60E-02
36030,9.05E-03,1.60E-02
36031,9.14E-03,1.59E-02
36032,9.26E-03,1.59E-02
36033,9.40E-03,1.59E-02
36034,9.54E-03,1.59E-02
36035,9.62E-03,1.58E-02
36036,9.64E-03,1.58E-02
36037,9.61E-03,1.58E-02
36038,9.55E-03,1.57E-02
36039,9.50E-03,1.57E-02
36040,9.45E-03,1.57E-02
36041,9.41E-03,1.57E-02
36042,9.35E-03,1.57E-02
36043,9.30E-03,1.57E-02
36044,9.31E-03,1.57E-02
36045,9.32E-03,1.56E-02
36046,9.17E-03,1.56E-02
36047,8.85E-03,1.56E-02
36048,8.49E-03,1.56E-02
36049,8.13E-03,1.56E-02
36050,7.89E-03,1.56E-02
36051,7.89E-03,1.56E-02
36052,7.97E-03,1.56E-02
36053,7.90E-03,1.56E-02
36054,7.74E-03,1.56E-02
36055,7.60E-03,1.56E-02
36056,7.46E-03,1.56E-02
36057,7.33E-03,1.56E-02
36058,7.18E-03,1.56E-02
36059,6.97E-03,1.56E-02
36060,6.75E-03,1.56E-02
36061,6.56E-03,1.55E-02
36062,6.43E-03,1.55E-02
36063,6.34E-03,1.55E-02
36064,6.25E-03,1.55E-02
36065,6.19E-03,1.55E-02
36066,6.14E-03,1.55E-02
36067,6.10E-03,1.54E-02
36068,6.04E-03,1.54E-02
36069,5.95E-03,1.54E-02
36070,5.84E-03,1.54E-02
36071,5.76E-03,1.53E-02
36072,5.75E-03,1.53E-02
36073,5.80E-03,1.53E-02
36074,5.86E-03,1.52E-02
36075,5.92E-03,1.52E-02
36076,5.98E-03,1.51E-02
36077,6.04E-03,1.51E-02
36078,6.11E-03,1.51E-02
36079,6.17E-03,1.50E-02
36080,6.23E-03,1.50E-02
36081,6.28E-03,1.49E-02
36082,6.31E-03,1.49E-02
36083,6.33E-03,1.48E-02
36084,6.35E-03,1.47E-02
36085,6.37E-03,1.47E-02
36086,6.40E-03,1.46E-02
36087,6.40E-03,1.46E-02
36088,6.38E-03,1.45E-02
36089,6.33E-03,1.44E-02
36090,6.28E-03,1.44E-02
36091,6.22E-03,1.43E-02
36092,6.16E-03,1.43E-02
36093,6.09E-03,1.42E-02
36094,6.01E-03,1.41E-02
36095,5.88E-03,1.41E-02
36096,5.71E-03,1.40E-02
36097,5.55E-03,1.40E-02
36098,5.40E-03,1.39E-02
36099,5.26E-03,1.38E-02
36100,5.21E-03,1.38E-02
36101,5.28E-03,1.37E-02
36102,5.36E-03,1.37E-02
36103,5.27E-03,1.36E-02
36104,5.24E-03,1.36E-02
36105,6.26E-03,1.35E-02
36106,7.87E-03,1.34E-02
36107,8.70E-03,1.34E-02
36108,9.82E-03,1.33E-02
36109,1.13E-02,1.31E-02
36110,9.94E-03,1.30E-02
36111,9.94E-03,1.29E-02
36112,9.87E-03,1.28E-02
36113,9.86E-03,1.27E-02
36114,9.94E-03,1.26E-02
36115,9.23E-03,1.25E-02
36116,6.54E-03,8.79E-03
36117,7.66E-03,9.00E-03
36118,6.02E-03,8.21E-03
36119,5.02E-03,8.33E-03
36120,9.60E-03,2.42E-02
36121,8.48E-03,2.45E-02
36122,9.21E-03,8.05E-03
36123,8.32E-03,1.03E-02
36124,8.61E-03,1.03E-02
36125,8.75E-03,1.03E-02
36126,8.71E-03,1.03E-02
36127,7.25E-03,1.03E-02
36128,6.77E-03,1.04E-02
36129,5.73E-03,1.04E-02
36130,4.60E-03,1.04E-02
36131,4.35E-03,1.04E-02
36132,4.64E-03,1.04E-02
36133,4.68E-03,1.05E-02
36134,4.59E-03,1.05E-02
36135,4.50E-03,1.05E-02
36136,4.49E-03,1.05E-02
36137,4.46E-03,1.05E-02
36138,4.47E-03,1.06E-02
36139,4.60E-03,1.06E-02
36140,5.06E-03,1.06E-02
36141,7.35E-03,1.07E-02
36142,7.58E-03,1.33E-02
36143,6.43E-03,1.37E-02
36144,6.17E-03,1.40E-02
36145,5.64E-03,1.42E-02
36146,4.61E-03,1.45E-02
36147,4.28E-03,1.47E-02
36148,3.69E-03,1.48E-02
36149,3.43E-03,1.51E-02
36150,3.36E-03,1.52E-02
36151,3.65E-03,1.54E-02
36152,3.90E-03,1.56E-02
36153,4.39E-03,1.58E-02
36154,4.52E-03,1.60E-02
36155,4.76E-03,1.63E-02
36156,5.08E-03,1.66E-02
36157,5.17E-03,1.68E-02
36158,5.15E-03,1.71E-02
36159,5.12E-03,1.74E-02
36160,5.00E-03,1.77E-02
36161,5.00E-03,1.80E-02
36162,4.86E-03,1.83E-02
36163,4.79E-03,1.86E-02
36164,4.64E-03,1.88E-02
36165,4.51E-03,1.91E-02
36166,4.20E-03,1.93E-02
36167,9.93E-03,1.97E-02
36168,8.75E-03,2.61E-02
36169,8.16E-03,2.60E-02
36170,7.93E-03,2.59E-02
36171,7.79E-03,2.58E-02
36172,7.39E-03,2.56E-02
36173,7.17E-03,2.55E-02
36174,6.99E-03,2.53E-02
36175,6.67E-03,2.52E-02
36176,6.30E-03,2.50E-02
36177,5.87E-03,2.49E-02
36178,5.44E-03,2.48E-02
36179,4.96E-03,2.46E-02
36180,4.56E-03,2.45E-02
36181,3.97E-03,2.44E-02
36182,3.53E-03,2.43E-02
36183,3.37E-03,2.41E-02
36184,2.88E-03,2.39E-02
36185,3.11E-03,2.38E-02
36186,3.26E-03,2.37E-02
36187,3.49E-03,2.36E-02
36188,3.75E-03,2.34E-02
36189,4.04E-03,2.33E-02
36190,4.59E-03,2.31E-02
36191,4.58E-03,2.29E-02
36192,4.75E-03,2.27E-02
36193,4.85E-03,2.24E-02
36194,4.96E-03,2.22E-02
36195,4.88E-03,2.20E-02
36196,4.80E-03,2.17E-02
36197,4.72E-03,2.15E-02
36198,4.80E-03,2.13E-02
36199,4.81E-03,2.10E-02
36200,5.09E-03,2.08E-02
36201,9.43E-03,2.04E-02
36202,1.02E-02,7.91E-03
36203,1.10E-02,7.77E-03
36204,1.07E-02,7.62E-03
36205,9.99E-03,7.46E-03
36206,9.54E-03,7.31E-03
36207,9.39E-03,7.17E-03
36208,9.00E-03,7.04E-03
36209,7.09E-03,6.93E-03
36210,5.57E-03,6.85E-03
36211,5.35E-03,6.77E-03
36212,5.00E-03,6.71E-03
36213,4.85E-03,6.64E-03
36214,4.70E-03,6.59E-03
36215,4.50E-03,6.53E-03
36216,4.29E-03,6.49E-03
36217,4.16E-03,6.44E-03
36218,3.79E-03,6.40E-03
36219,3.16E-03,6.36E-03
36220,3.04E-03,6.33E-03
36221,2.97E-03,6.31E-03
36222,6.00E-03,9.94E-03
36223,6.15E-03,9.86E-03
36224,6.23E-03,9.79E-03
36225,6.43E-03,9.73E-03
36226,6.64E-03,9.67E-03
36227,1.02E-02,9.60E-03
36228,1.01E-02,9.51E-03
36229,1.00E-02,9.42E-03
36230,9.57E-03,9.32E-03
36231,8.55E-03,9.23E-03
36232,8.41E-03,9.15E-03
36233,8.15E-03,9.06E-03
36234,7.79E-03,8.98E-03
36235,7.56E-03,8.90E-03
36236,7.27E-03,8.83E-03
36237,6.96E-03,8.75E-03
36238,6.74E-03,8.68E-03
36239,6.58E-03,8.61E-03
36240,6.43E-03,8.55E-03
36241,6.29E-03,8.48E-03
36242,6.14E-03,8.42E-03
36243,5.97E-03,8.36E-03
36244,5.75E-03,8.30E-03
36245,5.51E-03,8.25E-03
36246,5.27E-03,8.19E-03
36247,5.03E-03,8.14E-03
36248,4.86E-03,8.10E-03
36249,4.81E-03,8.05E-03
36250,4.81E-03,8.01E-03
36251,4.80E-03,7.97E-03
36252,4.79E-03,7.93E-03
36253,4.78E-03,7.88E-03
36254,4.77E-03,7.85E-03
36255,4.74E-03,7.81E-03
36256,4.70E-03,7.77E-03
36257,4.66E-03,7.73E-03
36258,4.62E-03,7.70E-03
36259,4.58E-03,7.67E-03
36260,4.53E-03,7.63E-03
36261,4.52E-03,7.60E-03
36262,4.55E-03,7.57E-03
36263,4.60E-03,7.54E-03
36264,4.66E-03,7.52E-03
36265,4.73E-03,7.49E-03
36266,4.83E-03,7.46E-03
36267,4.94E-03,7.43E-03
36268,5.05E-03,7.41E-03
36269,5.22E-03,7.38E-03
36270,5.42E-03,7.36E-03
36271,5.63E-03,7.33E-03
36272,5.82E-03,7.31E-03
36273,5.95E-03,7.28E-03
36274,6.05E-03,7.25E-03
36275,6.15E-03,7.23E-03
36276,6.25E-03,7.20E-03
36277,6.34E-03,7.18E-03
36278,6.42E-03,7.16E-03
36279,6.51E-03,7.13E-03
36280,6.59E-03,7.11E-03
36281,6.68E-03,7.08E-03
36282,6.76E-03,7.06E-03
36283,6.85E-03,7.04E-03
36284,6.92E-03,7.02E-03
36285,6.97E-03,6.99E-03
36286,7.01E-03,6.97E-03
36287,7.05E-03,6.95E-03
36288,7.09E-03,6.93E-03
36289,7.13E-03,6.90E-03
36290,7.17E-03,6.88E-03
36291,7.21E-03,6.86E-03
36292,7.25E-03,6.84E-03
36293,7.30E-03,6.81E-03
36294,7.37E-03,6.79E-03
36295,7.45E-03,6.77E-03
36296,7.53E-03,6.74E-03
36297,7.60E-03,6.72E-03
36298,7.65E-03,6.69E-03
36299,7.69E-03,6.67E-03
36300,7.72E-03,6.64E-03
36301,7.76E-03,6.61E-03
36302,7.75E-03,6.59E-03
36303,7.63E-03,6.56E-03
36304,7.34E-03,6.53E-03
36305,7.18E-03,6.51E-03
36306,6.94E-03,6.48E-03
36307,6.67E-03,6.45E-03
36308,6.53E-03,6.42E-03
36309,6.31E-03,6.40E-03
36310,6.09E-03,6.36E-03
36311,5.83E-03,6.33E-03
36312,5.55E-03,6.30E-03
36313,5.31E-03,6.28E-03
36314,5.04E-03,6.25E-03
36315,5.60E-03,6.25E-03
36316,3.15E-03,6.28E-03
36317,3.49E-03,6.25E-03
36318,4.81E-03,8.77E-03
36319,6.92E-03,1.07E-02
36320,8.96E-03,2.62E-02
36321,8.09E-03,1.29E-02
36322,8.00E-03,1.33E-02
36323,7.95E-03,1.49E-02
36324,5.89E-03,1.71E-02
36325,6.40E-03,1.70E-02
36326,6.92E-03,1.70E-02
36327,7.69E-03,1.69E-02
36328,8.68E-03,1.69E-02
36329,8.70E-03,1.68E-02
36330,8.28E-03,1.68E-02
36331,6.73E-03,1.68E-02
36332,9.05E-03,7.21E-03
36333,7.10E-03,7.17E-03
36334,4.46E-03,7.12E-03
36335,4.31E-03,7.10E-03
36336,4.47E-03,7.09E-03
36337,4.45E-03,7.08E-03
36338,5.20E-03,7.06E-03
36339,5.40E-03,7.04E-03
36340,6.05E-03,7.00E-03
36341,6.13E-03,6.97E-03
36342,6.32E-03,6.94E-03
36343,6.64E-03,6.91E-03
36344,6.77E-03,6.87E-03
36345,6.91E-03,6.83E-03
36346,7.04E-03,6.80E-03
36347,7.18E-03,6.76E-03
36348,7.30E-03,6.73E-03
36349,7.37E-03,6.70E-03
36350,7.41E-03,6.67E-03
36351,7.44E-03,6.64E-03
36352,7.47E-03,6.61E-03
36353,7.50E-03,6.59E-03
36354,7.54E-03,6.57E-03
36355,7.57E-03,6.55E-03
36356,7.60E-03,6.54E-03
36357,7.63E-03,6.53E-03
36358,7.66E-03,6.52E-03
36359,7.69E-03,6.53E-03
36360,7.71E-03,6.53E-03
36361,7.73E-03,6.54E-03
36362,7.75E-03,6.56E-03
36363,7.77E-03,6.59E-03
36364,7.79E-03,6.62E-03
36365,7.81E-03,6.65E-03
36366,7.83E-03,6.70E-03
36367,7.84E-03,6.75E-03
36368,7.86E-03,6.80E-03
36369,7.87E-03,6.87E-03
36370,7.89E-03,6.94E-03
36371,7.90E-03,7.02E-03
36372,7.91E-03,7.10E-03
36373,7.91E-03,7.19E-03
36374,7.91E-03,7.29E-03
36375,7.91E-03,7.39E-03
36376,7.91E-03,7.50E-03
36377,7.91E-03,7.61E-03
36378,7.90E-03,7.73E-03
36379,7.90E-03,7.85E-03
36380,7.88E-03,7.98E-03
36381,7.86E-03,8.11E-03
36382,7.84E-03,8.25E-03
36383,7.82E-03,8.39E-03
36384,7.80E-03,8.53E-03
36385,7.77E-03,8.68E-03
36386,7.75E-03,8.82E-03
36387,7.73E-03,8.97E-03
36388,7.71E-03,9.13E-03
36389,7.68E-03,9.28E-03
36390,7.65E-03,9.43E-03
36391,7.60E-03,9.59E-03
36392,7.54E-03,9.75E-03
36393,7.48E-03,9.90E-03
36394,7.43E-03,1.01E-02
36395,7.37E-03,1.02E-02
36396,7.31E-03,1.04E-02
36397,7.26E-03,1.05E-02
36398,7.20E-03,1.07E-02
36399,7.15E-03,1.08E-02
36400,7.12E-03,1.10E-02
36401,7.08E-03,1.11E-02
36402,7.04E-03,1.13E-02
36403,7.00E-03,1.14E-02
36404,6.96E-03,1.16E-02
36405,6.91E-03,1.18E-02
36406,6.86E-03,1.19E-02
36407,6.80E-03,1.20E-02
36408,6.74E-03,1.22E-02
36409,6.69E-03,1.23E-02
36410,6.62E-03,1.25E-02
36411,6.53E-03,1.26E-02
36412,6.41E-03,1.28E-02
36413,6.30E-03,1.29E-02
36414,6.19E-03,1.30E-02
36415,6.08E-03,1.32E-02
36416,6.03E-03,1.33E-02
36417,6.01E-03,1.34E-02
36418,6.00E-03,1.36E-02
36419,6.01E-03,1.37E-02
36420,6.05E-03,1.38E-02
36421,6.09E-03,1.39E-02
36422,6.13E-03,1.41E-02
36423,6.16E-03,1.42E-02
36424,6.19E-03,1.43E-02
36425,6.22E-03,1.45E-02
36426,6.25E-03,1.46E-02
36427,6.28E-03,1.47E-02
36428,6.31E-03,1.49E-02
36429,6.34E-03,1.50E-02
36430,6.36E-03,1.52E-02
36431,6.39E-03,1.53E-02
36432,6.41E-03,1.54E-02
36433,6.44E-03,1.56E-02
36434,6.47E-03,1.57E-02
36435,6.59E-03,1.58E-02
36436,6.64E-03,1.60E-02
36437,6.66E-03,1.61E-02
36438,6.66E-03,1.63E-02
36439,6.69E-03,1.64E-02
36440,6.81E-03,1.66E-02
36441,6.08E-03,1.68E-02
36442,7.15E-03,9.54E-03
36443,7.43E-03,1.68E-02
36444,7.57E-03,1.69E-02
36445,8.89E-03,2.64E-02
36446,8.76E-03,2.63E-02
36447,8.20E-03,2.62E-02
36448,7.98E-03,2.61E-02
36449,7.99E-03,2.62E-02
36450,6.81E-03,1.17E-02
36451,8.49E-03,1.07E-02
36452,8.10E-03,1.50E-02
36453,8.10E-03,1.53E-02
36454,8.29E-03,2.00E-02
36455,8.30E-03,1.44E-02
36456,7.28E-03,2.22E-02
36457,7.40E-03,2.24E-02
36458,7.43E-03,2.26E-02
36459,7.80E-03,2.28E-02
36460,7.73E-03,2.31E-02
36461,5.65E-03,2.32E-02
36462,1.02E-02,2.38E-02
36463,7.42E-03,2.20E-02
36464,7.62E-03,1.69E-02
36465,8.83E-03,1.70E-02
36466,6.72E-03,1.10E-02
36467,6.36E-03,1.73E-02
36468,6.91E-03,9.27E-03
36469,6.59E-03,8.48E-03
36470,5.76E-03,8.46E-03
36471,5.99E-03,1.03E-02
36472,8.57E-03,8.14E-03
36473,7.59E-03,1.01E-02
36474,6.29E-03,2.73E-02
36475,7.20E-03,2.73E-02
36476,9.56E-03,7.50E-03
36477,8.64E-03,7.53E-03
36478,1.02E-02,2.08E-02
36479,1.05E-02,1.54E-02
36480,9.38E-03,1.53E-02
36481,1.04E-02,7.18E-03
36482,9.57E-03,7.17E-03
36483,9.61E-03,7.18E-03
36484,1.01E-02,7.21E-03
36485,9.88E-03,7.26E-03
36486,9.65E-03,7.30E-03
36487,9.15E-03,7.33E-03
36488,8.96E-03,7.37E-03
36489,8.70E-03,7.41E-03
36490,8.73E-03,7.45E-03
36491,7.47E-03,7.50E-03
36492,7.32E-03,7.53E-03
36493,7.13E-03,7.56E-03
36494,6.84E-03,7.58E-03
36495,6.74E-03,7.63E-03
36496,6.69E-03,7.65E-03
36497,7.28E-03,7.66E-03
36498,4.74E-03,9.40E-03
36499,6.08E-03,9.24E-03
36500,8.34E-03,9.02E-03
36501,8.09E-03,8.78E-03
36502,8.09E-03,8.54E-03
36503,8.09E-03,8.30E-03
36504,8.09E-03,8.06E-03
36505,8.09E-03,7.83E-03
36506,8.09E-03,7.59E-03
36507,8.09E-03,7.36E-03
36508,8.09E-03,7.13E-03
36509,8.09E-03,6.91E-03
36510,8.09E-03,6.69E-03
36511,8.09E-03,6.47E-03
36512,8.09E-03,6.26E-03
36513,8.09E-03,6.05E-03
36514,8.09E-03,5.84E-03
36515,8.09E-03,5.65E-03
36516,8.09E-03,5.46E-03
36517,8.09E-03,5.28E-03
36518,8.09E-03,5.11E-03
36519,8.09E-03,4.94E-03
36520,8.09E-03,4.79E-03
36521,8.09E-03,4.65E-03
36522,8.09E-03,4.53E-03
36523,8.09E-03,4.41E-03
36524,8.09E-03,4.31E-03
36525,8.09E-03,4.23E-03
36526,8.09E-03,4.16E-03
36527,8.09E-03,4.10E-03
36528,8.09E-03,4.07E-03
36529,8.09E-03,4.05E-03
36530,8.09E-03,4.04E-03
36531,8.09E-03,4.05E-03
36532,8.09E-03,4.08E-03
36533,8.09E-03,4.12E-03
36534,8.09E-03,4.18E-03
36535,8.09E-03,4.25E-03
36536,8.09E-03,4.33E-03
36537,8.09E-03,4.42E-03
36538,8.09E-03,4.52E-03
36539,8.09E-03,4.62E-03
36540,8.09E-03,4.74E-03
36541,8.09E-03,4.86E-03
36542,8.09E-03,4.99E-03
36543,8.09E-03,5.12E-03
36544,8.09E-03,5.26E-03
36545,8.09E-03,5.40E-03
36546,8.09E-03,5.54E-03
36547,8.09E-03,5.69E-03
36548,8.09E-03,5.83E-03
36549,8.09E-03,5.98E-03
36550,8.09E-03,6.13E-03
36551,8.09E-03,6.28E-03
36552,8.02E-03,6.42E-03
36553,7.98E-03,6.57E-03
36554,7.92E-03,6.72E-03
36555,8.08E-03,6.87E-03
36556,8.25E-03,7.02E-03
36557,8.52E-03,7.18E-03
36558,8.41E-03,7.31E-03
36559,7.43E-03,7.44E-03
36560,7.16E-03,7.60E-03
36561,8.00E-03,7.75E-03
36562,6.55E-03,7.63E-03
36563,4.97E-03,7.77E-03
36564,6.48E-03,7.80E-03
36565,8.99E-03,7.82E-03
36566,7.67E-03,1.08E-02
36567,7.89E-03,1.06E-02
36568,5.96E-03,2.77E-02
36569,8.94E-03,2.49E-02
36570,9.81E-03,2.74E-02
36571,5.37E-03,1.03E-02
36572,6.53E-03,2.80E-02
36573,5.57E-03,2.78E-02
36574,7.87E-03,1.04E-02
36575,7.20E-03,9.92E-03
36576,8.02E-03,1.01E-02
36577,1.01E-02,7.79E-03
36578,8.02E-03,7.38E-03
36579,7.38E-03,9.54E-03
36580,9.04E-03,7.99E-03
36581,9.35E-03,7.94E-03
36582,1.02E-02,7.88E-03
36583,1.08E-02,7.80E-03
36584,1.08E-02,7.72E-03
36585,1.09E-02,7.65E-03
36586,1.11E-02,7.58E-03
36587,1.12E-02,7.52E-03
36588,1.10E-02,7.48E-03
36589,1.08E-02,7.44E-03
36590,1.05E-02,7.41E-03
36591,1.02E-02,7.38E-03
36592,9.87E-03,7.37E-03
36593,9.69E-03,7.36E-03
36594,9.55E-03,7.35E-03
36595,9.42E-03,7.35E-03
36596,9.31E-03,7.35E-03
36597,9.11E-03,7.36E-03
36598,9.04E-03,7.37E-03
36599,8.88E-03,7.39E-03
36600,8.81E-03,7.40E-03
36601,8.73E-03,7.43E-03
36602,8.52E-03,7.45E-03
36603,8.35E-03,7.48E-03
36604,8.18E-03,7.51E-03
36605,8.19E-03,7.54E-03
36606,8.14E-03,7.58E-03
36607,8.28E-03,7.61E-03
36608,8.40E-03,7.65E-03
36609,8.20E-03,7.70E-03
36610,8.04E-03,7.74E-03
36611,7.80E-03,7.79E-03
36612,6.16E-03,1.15E-02
36613,8.09E-03,1.10E-02
36614,8.09E-03,1.09E-02
36615,8.09E-03,1.07E-02
36616,8.09E-03,1.06E-02
36617,8.09E-03,1.04E-02
36618,8.09E-03,1.03E-02
36619,8.09E-03,1.01E-02
36620,8.09E-03,1.00E-02
36621,8.09E-03,9.85E-03
36622,8.09E-03,9.70E-03
36623,8.09E-03,9.55E-03
36624,8.09E-03,9.40E-03
36625,8.09E-03,9.25E-03
36626,8.09E-03,9.09E-03
36627,8.09E-03,8.93E-03
36628,8.09E-03,8.78E-03
36629,8.09E-03,8.62E-03
36630,8.09E-03,8.46E-03
36631,8.09E-03,8.30E-03
36632,8.09E-03,8.14E-03
36633,8.09E-03,7.98E-03
36634,8.09E-03,7.82E-03
36635,8.09E-03,7.66E-03
36636,8.09E-03,7.50E-03
36637,8.09E-03,7.34E-03
36638,8.09E-03,7.19E-03
36639,8.09E-03,7.03E-03
36640,8.09E-03,6.88E-03
36641,8.09E-03,6.72E-03
36642,8.09E-03,6.57E-03
36643,8.09E-03,6.43E-03
36644,8.09E-03,6.28E-03
36645,8.09E-03,6.14E-03
36646,8.09E-03,6.01E-03
36647,8.09E-03,5.88E-03
36648,8.09E-03,5.75E-03
36649,8.09E-03,5.63E-03
36650,8.09E-03,5.52E-03
36651,8.09E-03,5.41E-03
36652,8.09E-03,5.32E-03
36653,8.09E-03,5.23E-03
36654,8.09E-03,5.15E-03
36655,8.09E-03,5.08E-03
36656,8.09E-03,5.02E-03
36657,8.09E-03,4.98E-03
36658,8.09E-03,4.95E-03
36659,8.09E-03,4.93E-03
36660,8.09E-03,4.92E-03
36661,8.09E-03,4.93E-03
36662,8.09E-03,4.95E-03
36663,8.09E-03,4.98E-03
36664,8.09E-03,5.03E-03
36665,8.09E-03,5.09E-03
36666,8.09E-03,5.17E-03
36667,8.09E-03,5.26E-03
36668,8.09E-03,5.36E-03
36669,8.09E-03,5.47E-03
36670,8.09E-03,5.60E-03
36671,8.09E-03,5.74E-03
36672,8.09E-03,5.88E-03
36673,8.09E-03,6.04E-03
36674,8.09E-03,6.21E-03
36675,7.94E-03,6.38E-03
36676,7.84E-03,6.56E-03
36677,7.64E-03,6.74E-03
36678,7.55E-03,6.93E-03
36679,7.69E-03,7.15E-03
36680,7.95E-03,7.38E-03
36681,7.65E-03,1.70E-02
36682,7.99E-03,1.53E-02
36683,7.05E-03,1.53E-02
36684,7.19E-03,1.35E-02
36685,7.49E-03,1.01E-02
36686,6.69E-03,9.94E-03
36687,8.12E-03,2.68E-02
36688,8.38E-03,2.62E-02
36689,7.37E-03,1.20E-02
36690,7.14E-03,1.19E-02
36691,7.19E-03,1.18E-02
36692,9.09E-03,1.25E-02
36693,5.94E-03,1.01E-02
36694,7.29E-03,1.03E-02
36695,6.16E-03,9.63E-03
36696,6.71E-03,9.39E-03
36697,7.13E-03,2.78E-02
36698,7.36E-03,2.76E-02
36699,8.10E-03,1.50E-02
36700,8.10E-03,1.53E-02
36701,8.71E-03,2.04E-02
36702,5.93E-03,1.30E-02
36703,6.35E-03,1.32E-02
36704,8.04E-03,1.45E-02
36705,8.65E-03,2.18E-02
36706,8.54E-03,1.22E-02
36707,8.18E-03,1.21E-02
36708,7.66E-03,1.15E-02
36709,7.98E-03,1.13E-02
36710,7.47E-03,1.13E-02
36711,7.60E-03,1.12E-02
36712,7.67E-03,1.12E-02
36713,7.70E-03,1.13E-02
36714,7.63E-03,1.13E-02
36715,7.94E-03,1.53E-02
36716,7.92E-03,1.53E-02
36717,8.74E-03,8.39E-03
36718,7.96E-03,8.58E-03
36719,8.10E-03,1.11E-02
36720,7.88E-03,1.05E-02
36721,9.54E-03,1.04E-02
36722,6.44E-03,9.15E-03
36723,6.02E-03,9.11E-03
36724,5.90E-03,9.07E-03
36725,5.83E-03,8.91E-03
36726,7.43E-03,2.80E-02
36727,8.47E-03,7.59E-03
36728,7.40E-03,9.70E-03
36729,8.02E-03,1.04E-02
36730,7.69E-03,2.72E-02
36731,8.10E-03,1.53E-02
36732,7.76E-03,1.45E-02
36733,6.15E-03,9.80E-03
36734,8.10E-03,1.49E-02
36735,5.91E-03,1.26E-02
36736,6.84E-03,1.71E-02
36737,8.05E-03,1.53E-02
36738,8.21E-03,2.55E-02
36739,9.60E-03,2.58E-02
36740,8.08E-03,2.60E-02
36741,7.55E-03,9.89E-03
36742,8.10E-03,1.13E-02
36743,8.10E-03,1.15E-02
36744,7.77E-03,1.01E-02
36745,7.31E-03,1.01E-02
36746,6.97E-03,1.00E-02
36747,5.02E-03,1.23E-02
36748,8.74E-03,1.55E-02
36749,8.10E-03,1.49E-02
36750,8.10E-03,1.54E-02
36751,7.56E-03,1.46E-02
36752,8.10E-03,1.48E-02
36753,8.20E-03,1.54E-02
36754,7.68E-03,1.47E-02
36755,8.10E-03,1.16E-02
36756,8.10E-03,1.18E-02
36757,8.10E-03,1.47E-02
36758,8.22E-03,1.54E-02
36759,7.92E-03,1.48E-02
36760,8.10E-03,1.21E-02
36761,8.10E-03,1.19E-02
36762,8.10E-03,1.46E-02
36763,8.32E-03,1.54E-02
36764,8.10E-03,1.49E-02
36765,8.10E-03,1.45E-02
36766,8.38E-03,1.54E-02
36767,8.10E-03,1.49E-02
36768,8.10E-03,1.22E-02
36769,8.10E-03,1.24E-02
36770,8.10E-03,1.44E-02
36771,8.42E-03,1.55E-02
36772,8.41E-03,1.54E-02
36773,8.10E-03,1.50E-02
36774,8.10E-03,1.27E-02
36775,8.10E-03,1.25E-02
36776,8.10E-03,1.43E-02
36777,8.10E-03,1.51E-02
36778,8.10E-03,1.42E-02
36779,8.10E-03,1.51E-02
36780,8.10E-03,1.41E-02
36781,8.10E-03,1.51E-02
36782,8.10E-03,1.28E-02
36783,8.10E-03,1.40E-02
36784,8.10E-03,1.52E-02
36785,8.10E-03,1.39E-02
36786,8.10E-03,1.52E-02
36787,8.10E-03,1.31E-02
36788,8.10E-03,1.29E-02
36789,8.10E-03,1.32E-02
36790,8.10E-03,1.38E-02
36791,8.10E-03,1.33E-02
36792,8.10E-03,1.37E-02
36793,8.10E-03,1.36E-02
36794,8.10E-03,1.34E-02
36795,8.74E-03,1.23E-02
36796,7.40E-03,8.79E-03
36797,8.04E-03,1.67E-02
36798,1.03E-02,2.43E-02
36799,9.02E-03,7.81E-03
36800,8.02E-03,1.04E-02
36801,7.95E-03,2.61E-02
36802,6.98E-03,1.16E-02
36803,9.00E-03,1.15E-02
36804,9.23E-03,1.14E-02
36805,1.04E-02,1.12E-02
36806,1.05E-02,1.11E-02
36807,1.05E-02,1.10E-02
36808,9.62E-03,1.08E-02
36809,7.32E-03,1.01E-02
36810,8.01E-03,1.01E-02
36811,8.10E-03,1.51E-02
36812,8.10E-03,1.51E-02
36813,8.10E-03,1.52E-02
36814,8.10E-03,1.53E-02
36815,8.10E-03,1.52E-02
36816,8.10E-03,1.52E-02
36817,8.01E-03,1.97E-02
36818,7.76E-03,1.94E-02
36819,7.70E-03,1.91E-02
36820,9.99E-03,1.88E-02
36821,1.10E-02,1.84E-02
36822,8.58E-03,1.80E-02
36823,8.00E-03,1.77E-02
36824,8.01E-03,1.74E-02
36825,8.02E-03,1.71E-02
36826,8.02E-03,1.68E-02
36827,8.02E-03,1.64E-02
36828,7.96E-03,1.61E-02
36829,7.93E-03,1.58E-02
36830,7.92E-03,1.55E-02
36831,7.97E-03,1.52E-02
36832,7.69E-03,1.44E-02
36833,7.75E-03,1.38E-02
36834,7.40E-03,1.41E-02
36835,8.36E-03,1.42E-02
36836,8.32E-03,1.41E-02
36837,8.28E-03,1.39E-02
36838,8.24E-03,1.37E-02
36839,8.14E-03,1.35E-02
36840,8.09E-03,1.33E-02
36841,8.09E-03,1.31E-02
36842,8.09E-03,1.29E-02
36843,8.09E-03,1.27E-02
36844,8.09E-03,1.25E-02
36845,8.09E-03,1.23E-02
36846,8.10E-03,1.21E-02
36847,7.85E-03,1.19E-02
36848,7.67E-03,1.17E-02
36849,7.67E-03,1.15E-02
36850,7.47E-03,1.13E-02
36851,7.53E-03,1.11E-02
36852,6.20E-03,9.97E-03
36853,6.87E-03,1.01E-02
36854,7.07E-03,2.36E-02
36855,5.68E-03,2.33E-02
36856,7.55E-03,2.22E-02
36857,7.65E-03,2.25E-02
36858,7.50E-03,2.27E-02
36859,7.00E-03,2.30E-02
36860,7.37E-03,2.32E-02
36861,7.86E-03,1.69E-02
36862,8.13E-03,1.70E-02
36863,7.23E-03,1.13E-02
36864,6.71E-03,1.75E-02
36865,6.32E-03,1.72E-02
36866,7.03E-03,1.72E-02
36867,7.15E-03,1.71E-02
36868,7.27E-03,1.71E-02
36869,9.30E-03,1.70E-02
36870,9.16E-03,1.70E-02
36871,8.89E-03,1.69E-02
36872,8.40E-03,1.69E-02
36873,8.61E-03,1.69E-02
36874,9.05E-03,1.69E-02
36875,9.25E-03,1.69E-02
36876,9.31E-03,1.69E-02
36877,9.47E-03,1.69E-02
36878,9.19E-03,1.68E-02
36879,9.04E-03,1.68E-02
36880,8.94E-03,1.68E-02
36881,8.90E-03,1.68E-02
36882,8.90E-03,1.68E-02
36883,8.90E-03,1.68E-02
36884,8.84E-03,1.68E-02
36885,8.69E-03,1.68E-02
36886,8.52E-03,1.68E-02
36887,8.40E-03,1.68E-02
36888,8.32E-03,1.68E-02
36889,8.25E-03,1.68E-02
36890,8.21E-03,1.68E-02
36891,8.20E-03,1.68E-02
36892,8.20E-03,1.68E-02
36893,8.20E-03,1.68E-02
36894,8.18E-03,1.68E-02
36895,8.16E-03,1.68E-02
36896,8.13E-03,1.68E-02
36897,8.09E-03,1.68E-02
36898,8.07E-03,1.68E-02
36899,8.04E-03,1.67E-02
36900,8.01E-03,1.67E-02
36901,7.98E-03,1.67E-02
36902,7.97E-03,1.67E-02
36903,7.98E-03,1.67E-02
36904,8.02E-03,1.67E-02
36905,8.07E-03,1.67E-02
36906,8.11E-03,1.66E-02
36907,8.15E-03,1.66E-02
36908,8.19E-03,1.66E-02
36909,8.23E-03,1.66E-02
36910,8.27E-03,1.65E-02
36911,8.35E-03,1.65E-02
36912,8.45E-03,1.65E-02
36913,8.55E-03,1.64E-02
36914,8.62E-03,1.64E-02
36915,8.67E-03,1.64E-02
36916,8.71E-03,1.63E-02
36917,8.75E-03,1.63E-02
36918,8.79E-03,1.63E-02
36919,8.84E-03,1.62E-02
36920,8.90E-03,1.62E-02
36921,8.96E-03,1.62E-02
36922,9.02E-03,1.61E-02
36923,9.11E-03,1.61E-02
36924,9.23E-03,1.61E-02
36925,9.37E-03,1.60E-02
36926,9.50E-03,1.60E-02
36927,9.58E-03,1.59E-02
36928,9.59E-03,1.59E-02
36929,9.57E-03,1.59E-02
36930,9.51E-03,1.59E-02
36931,9.46E-03,1.58E-02
36932,9.41E-03,1.58E-02
36933,9.37E-03,1.58E-02
36934,9.31E-03,1.58E-02
36935,9.27E-03,1.58E-02
36936,9.28E-03,1.58E-02
36937,9.29E-03,1.57E-02
36938,9.14E-03,1.57E-02
36939,8.83E-03,1.57E-02
36940,8.48E-03,1.57E-02
36941,8.13E-03,1.57E-02
36942,7.89E-03,1.57E-02
36943,7.90E-03,1.57E-02
36944,7.97E-03,1.57E-02
36945,7.91E-03,1.57E-02
36946,7.75E-03,1.57E-02
36947,7.61E-03,1.57E-02
36948,7.48E-03,1.57E-02
36949,7.35E-03,1.57E-02
36950,7.20E-03,1.57E-02
36951,7.01E-03,1.56E-02
36952,6.79E-03,1.56E-02
36953,6.60E-03,1.56E-02
36954,6.48E-03,1.56E-02
36955,6.39E-03,1.56E-02
36956,6.31E-03,1.56E-02
36957,6.24E-03,1.55E-02
36958,6.20E-03,1.55E-02
36959,6.16E-03,1.55E-02
36960,6.10E-03,1.55E-02
36961,6.01E-03,1.54E-02
36962,5.90E-03,1.54E-02
36963,5.82E-03,1.54E-02
36964,5.82E-03,1.53E-02
36965,5.87E-03,1.53E-02
36966,5.92E-03,1.53E-02
36967,5.98E-03,1.52E-02
36968,6.04E-03,1.52E-02
36969,6.10E-03,1.51E-02
36970,6.16E-03,1.51E-02
36971,6.23E-03,1.50E-02
36972,6.29E-03,1.50E-02
36973,6.33E-03,1.49E-02
36974,6.36E-03,1.49E-02
36975,6.38E-03,1.48E-02
36976,6.40E-03,1.48E-02
36977,6.42E-03,1.47E-02
36978,6.44E-03,1.46E-02
36979,6.45E-03,1.46E-02
36980,6.43E-03,1.45E-02
36981,6.38E-03,1.44E-02
36982,6.33E-03,1.44E-02
36983,6.27E-03,1.43E-02
36984,6.21E-03,1.42E-02
36985,6.15E-03,1.42E-02
36986,6.07E-03,1.41E-02
36987,5.94E-03,1.41E-02
36988,5.78E-03,1.40E-02
36989,5.62E-03,1.39E-02
36990,5.47E-03,1.39E-02
36991,5.34E-03,1.38E-02
36992,5.29E-03,1.38E-02
36993,5.36E-03,1.37E-02
36994,5.43E-03,1.36E-02
36995,5.35E-03,1.36E-02
36996,5.32E-03,1.35E-02
36997,6.31E-03,1.35E-02
36998,7.72E-03,1.34E-02
36999,8.66E-03,1.33E-02
37000,9.95E-03,1.32E-02
37001,1.13E-02,1.31E-02
37002,9.74E-03,1.30E-02
37003,9.77E-03,1.29E-02
37004,9.84E-03,1.27E-02
37005,9.78E-03,1.26E-02
37006,9.61E-03,1.25E-02
37007,9.32E-03,1.24E-02
37008,7.13E-03,9.02E-03
37009,1.07E-02,7.39E-03
37010,6.93E-03,7.33E-03
37011,4.61E-03,7.31E-03
37012,4.33E-03,7.32E-03
37013,4.44E-03,7.29E-03
37014,4.62E-03,7.27E-03
37015,5.28E-03,7.26E-03
37016,5.28E-03,7.23E-03
37017,6.17E-03,7.20E-03
37018,6.20E-03,7.16E-03
37019,6.44E-03,7.13E-03
37020,6.67E-03,7.09E-03
37021,6.81E-03,7.05E-03
37022,6.94E-03,7.01E-03
37023,7.07E-03,6.96E-03
37024,7.20E-03,6.92E-03
37025,7.32E-03,6.88E-03
37026,7.39E-03,6.85E-03
37027,7.43E-03,6.81E-03
37028,7.46E-03,6.77E-03
37029,7.49E-03,6.74E-03
37030,7.52E-03,6.71E-03
37031,7.55E-03,6.68E-03
37032,7.58E-03,6.66E-03
37033,7.61E-03,6.64E-03
37034,7.64E-03,6.62E-03
37035,7.67E-03,6.61E-03
37036,7.70E-03,6.61E-03
37037,7.72E-03,6.61E-03
37038,7.74E-03,6.61E-03
37039,7.76E-03,6.62E-03
37040,7.78E-03,6.64E-03
37041,7.80E-03,6.66E-03
37042,7.82E-03,6.69E-03
37043,7.83E-03,6.73E-03
37044,7.85E-03,6.77E-03
37045,7.86E-03,6.83E-03
37046,7.88E-03,6.88E-03
37047,7.89E-03,6.95E-03
37048,7.91E-03,7.02E-03
37049,7.91E-03,7.10E-03
37050,7.91E-03,7.19E-03
37051,7.91E-03,7.28E-03
37052,7.91E-03,7.38E-03
37053,7.91E-03,7.48E-03
37054,7.91E-03,7.60E-03
37055,7.91E-03,7.71E-03
37056,7.90E-03,7.83E-03
37057,7.89E-03,7.96E-03
37058,7.87E-03,8.09E-03
37059,7.85E-03,8.23E-03
37060,7.83E-03,8.36E-03
37061,7.80E-03,8.51E-03
37062,7.78E-03,8.65E-03
37063,7.76E-03,8.80E-03
37064,7.74E-03,8.95E-03
37065,7.72E-03,9.10E-03
37066,7.69E-03,9.25E-03
37067,7.66E-03,9.41E-03
37068,7.61E-03,9.56E-03
37069,7.56E-03,9.72E-03
37070,7.50E-03,9.88E-03
37071,7.45E-03,1.00E-02
37072,7.39E-03,1.02E-02
37073,7.33E-03,1.03E-02
37074,7.28E-03,1.05E-02
37075,7.22E-03,1.07E-02
37076,7.18E-03,1.08E-02
37077,7.14E-03,1.10E-02
37078,7.10E-03,1.11E-02
37079,7.07E-03,1.13E-02
37080,7.03E-03,1.14E-02
37081,6.99E-03,1.16E-02
37082,6.95E-03,1.17E-02
37083,6.89E-03,1.19E-02
37084,6.84E-03,1.20E-02
37085,6.78E-03,1.22E-02
37086,6.73E-03,1.23E-02
37087,6.66E-03,1.25E-02
37088,6.57E-03,1.26E-02
37089,6.46E-03,1.28E-02
37090,6.35E-03,1.29E-02
37091,6.24E-03,1.30E-02
37092,6.14E-03,1.32E-02
37093,6.08E-03,1.33E-02
37094,6.06E-03,1.34E-02
37095,6.05E-03,1.36E-02
37096,6.06E-03,1.37E-02
37097,6.10E-03,1.38E-02
37098,6.15E-03,1.39E-02
37099,6.18E-03,1.41E-02
37100,6.22E-03,1.42E-02
37101,6.24E-03,1.43E-02
37102,6.27E-03,1.45E-02
37103,6.30E-03,1.46E-02
37104,6.33E-03,1.47E-02
37105,6.35E-03,1.49E-02
37106,6.38E-03,1.50E-02
37107,6.41E-03,1.51E-02
37108,6.43E-03,1.53E-02
37109,6.46E-03,1.54E-02
37110,6.48E-03,1.56E-02
37111,6.51E-03,1.57E-02
37112,6.60E-03,1.58E-02
37113,6.61E-03,1.60E-02
37114,6.66E-03,1.61E-02
37115,6.72E-03,1.63E-02
37116,6.78E-03,1.64E-02
37117,6.84E-03,1.65E-02
37118,9.00E-03,2.46E-02
37119,3.97E-03,2.84E-02
37120,7.17E-03,1.02E-02
37121,6.75E-03,2.80E-02
37122,6.97E-03,2.77E-02
37123,7.24E-03,2.81E-02
37124,7.94E-03,1.01E-02
37125,7.34E-03,9.62E-03
37126,8.86E-03,7.74E-03
37127,8.12E-03,7.73E-03
37128,7.81E-03,7.40E-03
37129,4.82E-03,9.36E-03
37130,6.15E-03,9.20E-03
37131,8.33E-03,8.98E-03
37132,8.09E-03,8.74E-03
37133,8.09E-03,8.50E-03
37134,8.09E-03,8.27E-03
37135,8.09E-03,8.03E-03
37136,8.09E-03,7.80E-03
37137,8.09E-03,7.57E-03
37138,8.09E-03,7.33E-03
37139,8.09E-03,7.11E-03
37140,8.09E-03,6.88E-03
37141,8.09E-03,6.66E-03
37142,8.09E-03,6.44E-03
37143,8.09E-03,6.23E-03
37144,8.09E-03,6.02E-03
37145,8.09E-03,5.82E-03
37146,8.09E-03,5.62E-03
37147,8.09E-03,5.44E-03
37148,8.09E-03,5.25E-03
37149,8.09E-03,5.08E-03
37150,8.09E-03,4.92E-03
37151,8.09E-03,4.77E-03
37152,8.09E-03,4.63E-03
37153,8.09E-03,4.50E-03
37154,8.09E-03,4.38E-03
37155,8.09E-03,4.28E-03
37156,8.09E-03,4.19E-03
37157,8.09E-03,4.12E-03
37158,8.09E-03,4.07E-03
37159,8.09E-03,4.03E-03
37160,8.09E-03,4.01E-03
37161,8.09E-03,4.00E-03
37162,8.09E-03,4.01E-03
37163,8.09E-03,4.04E-03
37164,8.09E-03,4.08E-03
37165,8.09E-03,4.14E-03
37166,8.09E-03,4.20E-03
37167,8.09E-03,4.28E-03
37168,8.09E-03,4.37E-03
37169,8.09E-03,4.47E-03
37170,8.09E-03,4.58E-03
37171,8.09E-03,4.70E-03
37172,8.09E-03,4.82E-03
37173,8.09E-03,4.95E-03
37174,8.09E-03,5.08E-03
37175,8.09E-03,5.22E-03
37176,8.09E-03,5.36E-03
37177,8.09E-03,5.50E-03
37178,8.09E-03,5.65E-03
37179,8.09E-03,5.79E-03
37180,8.09E-03,5.94E-03
37181,8.09E-03,6.09E-03
37182,8.09E-03,6.24E-03
37183,8.09E-03,6.39E-03
37184,8.09E-03,6.54E-03
37185,8.09E-03,6.69E-03
37186,8.17E-03,6.84E-03
37187,8.20E-03,6.99E-03
37188,8.19E-03,7.13E-03
37189,8.06E-03,7.27E-03
37190,7.94E-03,7.41E-03
37191,7.97E-03,7.56E-03
37192,9.00E-03,7.71E-03
37193,7.93E-03,7.86E-03
37194,6.94E-03,8.01E-03
37195,7.66E-03,1.20E-02
37196,8.32E-03,7.35E-03
37197,9.26E-03,7.37E-03
37198,9.54E-03,7.41E-03
37199,9.99E-03,7.44E-03
37200,9.85E-03,7.48E-03
37201,9.56E-03,7.52E-03
37202,9.27E-03,7.56E-03
37203,9.16E-03,7.60E-03
37204,8.58E-03,7.64E-03
37205,8.33E-03,7.68E-03
37206,7.68E-03,7.72E-03
37207,7.41E-03,7.75E-03
37208,7.28E-03,7.79E-03
37209,7.07E-03,7.82E-03
37210,6.99E-03,7.85E-03
37211,6.93E-03,7.87E-03
37212,7.30E-03,7.88E-03
37213,8.16E-03,7.90E-03
37214,7.54E-03,7.95E-03
37215,6.02E-03,8.07E-03
37216,8.13E-03,1.70E-02
37217,7.97E-03,1.71E-02
37218,4.26E-03,1.52E-02
37219,9.32E-03,7.67E-03
37220,1.14E-02,7.52E-03
37221,1.09E-02,7.38E-03
37222,9.77E-03,7.23E-03
37223,9.62E-03,7.10E-03
37224,9.31E-03,6.96E-03
37225,8.85E-03,6.84E-03
37226,7.12E-03,6.73E-03
37227,5.76E-03,6.65E-03
37228,5.37E-03,6.57E-03
37229,5.17E-03,6.50E-03
37230,4.98E-03,6.44E-03
37231,4.78E-03,6.38E-03
37232,4.63E-03,6.33E-03
37233,4.26E-03,6.29E-03
37234,4.21E-03,6.24E-03
37235,3.91E-03,6.20E-03
37236,3.29E-03,6.16E-03
37237,3.31E-03,6.14E-03
37238,3.16E-03,6.10E-03
37239,6.63E-03,1.37E-02
37240,6.22E-03,1.40E-02
37241,5.60E-03,1.42E-02
37242,4.92E-03,1.45E-02
37243,4.23E-03,1.47E-02
37244,3.68E-03,1.49E-02
37245,3.28E-03,1.50E-02
37246,3.33E-03,1.52E-02
37247,3.78E-03,1.54E-02
37248,4.14E-03,1.56E-02
37249,4.53E-03,1.58E-02
37250,4.74E-03,1.61E-02
37251,4.96E-03,1.63E-02
37252,5.16E-03,1.66E-02
37253,5.25E-03,1.69E-02
37254,5.23E-03,1.72E-02
37255,5.20E-03,1.75E-02
37256,5.11E-03,1.78E-02
37257,5.03E-03,1.81E-02
37258,4.96E-03,1.84E-02
37259,4.83E-03,1.86E-02
37260,4.77E-03,1.89E-02
37261,4.56E-03,1.92E-02
37262,4.26E-03,1.94E-02
37263,9.36E-03,1.99E-02
37264,8.96E-03,8.17E-03
37265,8.55E-03,1.04E-02
37266,8.74E-03,1.05E-02
37267,8.79E-03,1.05E-02
37268,8.82E-03,1.05E-02
37269,8.80E-03,1.05E-02
37270,7.32E-03,1.05E-02
37271,6.88E-03,1.06E-02
37272,5.80E-03,1.06E-02
37273,4.69E-03,1.06E-02
37274,4.45E-03,1.06E-02
37275,4.73E-03,1.06E-02
37276,4.77E-03,1.07E-02
37277,4.69E-03,1.07E-02
37278,4.62E-03,1.07E-02
37279,4.45E-03,1.07E-02
37280,4.45E-03,1.07E-02
37281,4.43E-03,1.07E-02
37282,4.36E-03,1.08E-02
37283,4.55E-03,1.08E-02
37284,7.97E-03,1.09E-02
37285,6.53E-03,1.11E-02
37286,7.33E-03,1.22E-02
37287,8.07E-03,2.67E-02
37288,7.99E-03,2.67E-02
37289,8.16E-03,2.66E-02
37290,8.34E-03,2.63E-02
37291,8.16E-03,2.65E-02
37292,7.14E-03,1.16E-02
37293,7.29E-03,1.36E-02
37294,6.55E-03,1.25E-02
37295,6.74E-03,1.26E-02
37296,8.22E-03,1.28E-02
37297,7.97E-03,1.03E-02
37298,6.42E-03,9.55E-03
37299,7.42E-03,2.80E-02
37300,8.10E-03,1.50E-02
37301,8.10E-03,1.53E-02
37302,8.31E-03,2.01E-02
37303,6.58E-03,1.35E-02
37304,8.08E-03,1.43E-02
37305,7.07E-03,1.06E-02
37306,7.14E-03,1.08E-02
37307,4.68E-03,9.89E-03
37308,1.00E-02,2.40E-02
37309,8.10E-03,2.20E-02
37310,1.02E-02,1.21E-02
37311,8.45E-03,1.20E-02
37312,7.54E-03,1.19E-02
37313,7.02E-03,1.18E-02
37314,7.09E-03,1.17E-02
37315,5.85E-03,1.13E-02
37316,8.57E-03,7.96E-03
37317,6.53E-03,9.84E-03
37318,6.47E-03,9.77E-03
37319,6.46E-03,9.69E-03
37320,6.76E-03,9.60E-03
37321,6.85E-03,9.53E-03
37322,9.90E-03,9.46E-03
37323,1.01E-02,9.38E-03
37324,9.95E-03,9.28E-03
37325,9.34E-03,9.19E-03
37326,8.56E-03,9.10E-03
37327,8.41E-03,9.01E-03
37328,8.14E-03,8.93E-03
37329,7.84E-03,8.85E-03
37330,7.57E-03,8.77E-03
37331,7.29E-03,8.69E-03
37332,7.00E-03,8.62E-03
37333,6.78E-03,8.54E-03
37334,6.62E-03,8.47E-03
37335,6.48E-03,8.41E-03
37336,6.34E-03,8.34E-03
37337,6.19E-03,8.28E-03
37338,6.03E-03,8.22E-03
37339,5.82E-03,8.16E-03
37340,5.58E-03,8.10E-03
37341,5.35E-03,8.05E-03
37342,5.12E-03,8.00E-03
37343,4.96E-03,7.95E-03
37344,4.91E-03,7.90E-03
37345,4.90E-03,7.86E-03
37346,4.89E-03,7.82E-03
37347,4.88E-03,7.77E-03
37348,4.87E-03,7.73E-03
37349,4.86E-03,7.69E-03
37350,4.83E-03,7.65E-03
37351,4.80E-03,7.61E-03
37352,4.76E-03,7.58E-03
37353,4.72E-03,7.54E-03
37354,4.68E-03,7.51E-03
37355,4.63E-03,7.47E-03
37356,4.62E-03,7.44E-03
37357,4.65E-03,7.41E-03
37358,4.70E-03,7.38E-03
37359,4.75E-03,7.35E-03
37360,4.83E-03,7.32E-03
37361,4.92E-03,7.30E-03
37362,5.03E-03,7.27E-03
37363,5.14E-03,7.24E-03
37364,5.30E-03,7.22E-03
37365,5.50E-03,7.19E-03
37366,5.70E-03,7.16E-03
37367,5.88E-03,7.14E-03
37368,6.01E-03,7.11E-03
37369,6.11E-03,7.08E-03
37370,6.21E-03,7.06E-03
37371,6.30E-03,7.03E-03
37372,6.39E-03,7.01E-03
37373,6.47E-03,6.98E-03
37374,6.55E-03,6.96E-03
37375,6.63E-03,6.93E-03
37376,6.72E-03,6.91E-03
37377,6.80E-03,6.89E-03
37378,6.88E-03,6.86E-03
37379,6.95E-03,6.84E-03
37380,7.00E-03,6.82E-03
37381,7.04E-03,6.79E-03
37382,7.08E-03,6.77E-03
37383,7.12E-03,6.75E-03
37384,7.16E-03,6.72E-03
37385,7.20E-03,6.70E-03
37386,7.24E-03,6.68E-03
37387,7.28E-03,6.65E-03
37388,7.33E-03,6.63E-03
37389,7.40E-03,6.61E-03
37390,7.47E-03,6.58E-03
37391,7.55E-03,6.56E-03
37392,7.62E-03,6.53E-03
37393,7.66E-03,6.51E-03
37394,7.70E-03,6.48E-03
37395,7.73E-03,6.45E-03
37396,7.76E-03,6.42E-03
37397,7.76E-03,6.40E-03
37398,7.64E-03,6.37E-03
37399,7.45E-03,6.34E-03
37400,7.34E-03,6.31E-03
37401,6.89E-03,6.28E-03
37402,6.74E-03,6.25E-03
37403,6.50E-03,6.22E-03
37404,6.34E-03,6.20E-03
37405,6.14E-03,6.17E-03
37406,5.88E-03,6.14E-03
37407,5.66E-03,6.11E-03
37408,5.43E-03,6.09E-03
37409,5.38E-03,6.08E-03
37410,5.44E-03,6.04E-03
37411,9.07E-03,2.66E-02
37412,8.35E-03,2.64E-02
37413,8.10E-03,2.63E-02
37414,7.81E-03,2.62E-02
37415,7.40E-03,2.61E-02
37416,7.31E-03,2.59E-02
37417,7.06E-03,2.58E-02
37418,6.73E-03,2.57E-02
37419,6.35E-03,2.55E-02
37420,5.93E-03,2.54E-02
37421,5.47E-03,2.52E-02
37422,4.99E-03,2.51E-02
37423,4.60E-03,2.50E-02
37424,4.04E-03,2.48E-02
37425,3.66E-03,2.47E-02
37426,3.36E-03,2.46E-02
37427,3.05E-03,2.44E-02
37428,3.24E-03,2.43E-02
37429,3.31E-03,2.41E-02
37430,3.57E-03,2.40E-02
37431,3.89E-03,2.38E-02
37432,4.31E-03,2.37E-02
37433,4.60E-03,2.35E-02
37434,4.69E-03,2.33E-02
37435,4.84E-03,2.31E-02
37436,4.99E-03,2.28E-02
37437,5.04E-03,2.26E-02
37438,4.97E-03,2.23E-02
37439,4.89E-03,2.21E-02
37440,4.81E-03,2.19E-02
37441,4.81E-03,2.16E-02
37442,4.77E-03,2.13E-02
37443,4.83E-03,2.10E-02
37444,8.99E-03,2.06E-02
37445,6.62E-03,2.03E-02
37446,3.18E-03,6.10E-03
37447,3.61E-03,6.08E-03
37448,3.29E-03,5.98E-03
37449,7.75E-03,1.52E-02
37450,7.49E-03,1.53E-02
37451,5.63E-03,1.52E-02
37452,3.99E-03,1.52E-02
37453,7.89E-03,1.71E-02
37454,8.09E-03,1.10E-02
37455,8.09E-03,1.09E-02
37456,8.09E-03,1.07E-02
37457,8.09E-03,1.06E-02
37458,8.09E-03,1.05E-02
37459,8.09E-03,1.03E-02
37460,8.09E-03,1.02E-02
37461,8.09E-03,1.00E-02
37462,8.09E-03,9.88E-03
37463,8.09E-03,9.73E-03
37464,8.09E-03,9.57E-03
37465,8.09E-03,9.42E-03
37466,8.09E-03,9.27E-03
37467,8.09E-03,9.11E-03
37468,8.09E-03,8.95E-03
37469,8.09E-03,8.80E-03
37470,8.09E-03,8.64E-03
37471,8.09E-03,8.48E-03
37472,8.09E-03,8.32E-03
37473,8.09E-03,8.16E-03
37474,8.09E-03,8.00E-03
37475,8.09E-03,7.84E-03
37476,8.09E-03,7.68E-03
37477,8.09E-03,7.52E-03
37478,8.09E-03,7.36E-03
37479,8.09E-03,7.20E-03
37480,8.09E-03,7.04E-03
37481,8.09E-03,6.89E-03
37482,8.09E-03,6.73E-03
37483,8.09E-03,6.58E-03
37484,8.09E-03,6.43E-03
37485,8.09E-03,6.29E-03
37486,8.09E-03,6.15E-03
37487,8.09E-03,6.01E-03
37488,8.09E-03,5.88E-03
37489,8.09E-03,5.75E-03
37490,8.09E-03,5.63E-03
37491,8.09E-03,5.52E-03
37492,8.09E-03,5.41E-03
37493,8.09E-03,5.31E-03
37494,8.09E-03,5.22E-03
37495,8.09E-03,5.14E-03
37496,8.09E-03,5.07E-03
37497,8.09E-03,5.01E-03
37498,8.09E-03,4.96E-03
37499,8.09E-03,4.93E-03
37500,8.09E-03,4.91E-03
37501,8.09E-03,4.90E-03
37502,8.09E-03,4.90E-03
37503,8.09E-03,4.92E-03
37504,8.09E-03,4.95E-03
37505,8.09E-03,5.00E-03
37506,8.09E-03,5.06E-03
37507,8.09E-03,5.13E-03
37508,8.09E-03,5.22E-03
37509,8.09E-03,5.32E-03
37510,8.09E-03,5.43E-03
37511,8.09E-03,5.55E-03
37512,8.09E-03,5.69E-03
37513,8.09E-03,5.83E-03
37514,8.09E-03,5.99E-03
37515,8.09E-03,6.15E-03
37516,7.95E-03,6.33E-03
37517,7.90E-03,6.50E-03
37518,7.86E-03,6.68E-03
37519,7.84E-03,6.88E-03
37520,8.01E-03,7.09E-03
37521,8.41E-03,7.32E-03
37522,6.69E-03,7.97E-03
37523,6.45E-03,1.09E-02
37524,7.99E-03,1.04E-02
37525,6.54E-03,9.31E-03
37526,6.18E-03,9.26E-03
37527,6.02E-03,9.22E-03
37528,5.99E-03,9.04E-03
37529,8.85E-03,2.83E-02
37530,7.48E-03,1.21E-02
37531,7.66E-03,7.65E-03
37532,6.47E-03,1.75E-02
37533,7.52E-03,9.49E-03
37534,1.04E-02,8.16E-03
37535,9.91E-03,8.10E-03
37536,1.06E-02,8.03E-03
37537,1.08E-02,7.95E-03
37538,1.09E-02,7.87E-03
37539,1.10E-02,7.80E-03
37540,1.11E-02,7.73E-03
37541,1.11E-02,7.67E-03
37542,1.09E-02,7.63E-03
37543,1.07E-02,7.59E-03
37544,1.04E-02,7.55E-03
37545,1.01E-02,7.53E-03
37546,9.83E-03,7.51E-03
37547,9.65E-03,7.50E-03
37548,9.51E-03,7.50E-03
37549,9.39E-03,7.49E-03
37550,9.27E-03,7.49E-03
37551,9.11E-03,7.50E-03
37552,9.05E-03,7.51E-03
37553,8.96E-03,7.52E-03
37554,8.83E-03,7.54E-03
37555,8.61E-03,7.56E-03
37556,8.58E-03,7.59E-03
37557,8.40E-03,7.61E-03
37558,8.26E-03,7.64E-03
37559,8.26E-03,7.67E-03
37560,8.19E-03,7.71E-03
37561,8.22E-03,7.74E-03
37562,8.19E-03,7.78E-03
37563,7.99E-03,7.82E-03
37564,7.84E-03,7.87E-03
37565,7.81E-03,7.91E-03
37566,7.40E-03,7.97E-03
37567,6.66E-03,8.01E-03
37568,6.66E-03,8.08E-03
37569,7.94E-03,8.14E-03
37570,6.95E-03,9.99E-03
37571,7.91E-03,2.71E-02
37572,8.10E-03,1.53E-02
37573,7.99E-03,1.44E-02
37574,7.64E-03,2.76E-02
37575,6.22E-03,9.76E-03
37576,7.28E-03,1.15E-02
37577,6.87E-03,1.14E-02
37578,7.30E-03,1.14E-02
37579,7.41E-03,1.14E-02
37580,8.08E-03,1.14E-02
37581,8.12E-03,1.15E-02
37582,7.31E-03,1.14E-02
37583,7.67E-03,2.81E-02
37584,8.10E-03,1.50E-02
37585,6.59E-03,1.29E-02
37586,7.54E-03,1.32E-02
37587,8.02E-03,7.81E-03
37588,8.14E-03,2.05E-02
37589,9.27E-03,2.09E-02
37590,1.10E-02,2.13E-02
37591,9.99E-03,2.16E-02
37592,9.12E-03,1.72E-02
37593,9.34E-03,1.71E-02
37594,8.03E-03,1.52E-02
37595,5.20E-03,2.63E-02
37596,6.84E-03,2.64E-02
37597,8.00E-03,2.64E-02
37598,6.12E-03,8.86E-03
37599,7.09E-03,8.61E-03
37600,6.36E-03,8.58E-03
37601,7.30E-03,9.33E-03
37602,7.54E-03,9.67E-03
37603,7.86E-03,9.88E-03
37604,5.49E-03,1.77E-02
37605,4.23E-03,1.76E-02
37606,7.68E-03,8.04E-03
37607,7.04E-03,8.12E-03
37608,6.56E-03,8.04E-03
37609,6.14E-03,7.95E-03
37610,7.44E-03,7.78E-03
37611,8.58E-03,7.68E-03
37612,8.10E-03,1.12E-02
37613,8.10E-03,1.13E-02
37614,8.20E-03,1.03E-02
37615,7.57E-03,1.02E-02
37616,7.12E-03,1.02E-02
37617,6.67E-03,9.95E-03
37618,7.01E-03,1.22E-02
37619,6.30E-03,1.26E-02
37620,7.77E-03,1.53E-02
37621,8.28E-03,1.53E-02
37622,9.34E-03,1.53E-02
37623,9.66E-03,1.54E-02
37624,7.04E-03,2.81E-02
37625,8.10E-03,1.49E-02
37626,8.10E-03,1.53E-02
37627,7.65E-03,1.45E-02
37628,8.71E-03,1.02E-02
37629,8.10E-03,1.48E-02
37630,8.10E-03,1.53E-02
37631,7.73E-03,1.46E-02
37632,8.68E-03,2.58E-02
37633,7.32E-03,2.59E-02
37634,5.27E-03,2.62E-02
37635,8.10E-03,1.15E-02
37636,8.10E-03,1.16E-02
37637,8.10E-03,1.47E-02
37638,8.16E-03,1.53E-02
37639,7.90E-03,1.47E-02
37640,8.10E-03,1.20E-02
37641,8.10E-03,1.18E-02
37642,8.10E-03,1.47E-02
37643,8.19E-03,1.53E-02
37644,8.10E-03,1.47E-02
37645,8.10E-03,1.46E-02
37646,8.26E-03,1.53E-02
37647,8.10E-03,1.48E-02
37648,8.10E-03,1.21E-02
37649,8.10E-03,1.22E-02
37650,8.10E-03,1.45E-02
37651,8.38E-03,1.53E-02
37652,8.10E-03,1.49E-02
37653,8.10E-03,1.25E-02
37654,8.10E-03,1.24E-02
37655,8.10E-03,1.44E-02
37656,8.56E-03,1.54E-02
37657,8.38E-03,1.53E-02
37658,8.10E-03,1.49E-02
37659,8.10E-03,1.43E-02
37660,8.10E-03,1.50E-02
37661,8.10E-03,1.42E-02
37662,8.10E-03,1.50E-02
37663,8.10E-03,1.27E-02
37664,8.10E-03,1.41E-02
37665,8.10E-03,1.51E-02
37666,8.10E-03,1.40E-02
37667,8.10E-03,1.51E-02
37668,8.10E-03,1.30E-02
37669,8.10E-03,1.28E-02
37670,8.10E-03,1.31E-02
37671,8.10E-03,1.38E-02
37672,8.10E-03,1.52E-02
37673,8.10E-03,1.32E-02
37674,8.10E-03,1.37E-02
37675,8.10E-03,1.36E-02
37676,8.10E-03,1.35E-02
37677,8.10E-03,1.34E-02
37678,8.34E-03,2.78E-02
37679,7.24E-03,2.78E-02
37680,5.27E-03,2.80E-02
37681,3.00E-03,2.83E-02
37682,8.31E-03,2.64E-02
37683,7.32E-03,1.15E-02
37684,9.04E-03,1.14E-02
37685,9.78E-03,1.13E-02
37686,1.04E-02,1.12E-02
37687,1.06E-02,1.10E-02
37688,1.06E-02,1.09E-02
37689,1.05E-02,1.07E-02
37690,1.06E-02,1.06E-02
37691,6.64E-03,1.38E-02
37692,6.23E-03,1.40E-02
37693,5.51E-03,1.42E-02
37694,5.01E-03,1.45E-02
37695,4.37E-03,1.47E-02
37696,3.73E-03,1.49E-02
37697,3.12E-03,1.51E-02
37698,3.41E-03,1.52E-02
37699,4.00E-03,1.54E-02
37700,4.41E-03,1.56E-02
37701,4.63E-03,1.59E-02
37702,4.83E-03,1.61E-02
37703,5.04E-03,1.64E-02
37704,5.24E-03,1.66E-02
37705,5.33E-03,1.69E-02
37706,5.31E-03,1.72E-02
37707,5.28E-03,1.75E-02
37708,5.24E-03,1.78E-02
37709,5.09E-03,1.81E-02
37710,5.06E-03,1.84E-02
37711,4.91E-03,1.87E-02
37712,4.84E-03,1.90E-02
37713,4.70E-03,1.93E-02
37714,4.33E-03,1.97E-02
37715,7.73E-03,2.00E-02
37716,8.56E-03,2.71E-02
37717,8.45E-03,2.69E-02
37718,8.20E-03,2.68E-02
37719,7.80E-03,2.67E-02
37720,7.50E-03,2.66E-02
37721,7.38E-03,2.64E-02
37722,7.12E-03,2.63E-02
37723,6.79E-03,2.61E-02
37724,6.41E-03,2.60E-02
37725,5.98E-03,2.59E-02
37726,5.52E-03,2.57E-02
37727,5.04E-03,2.56E-02
37728,4.66E-03,2.54E-02
37729,4.10E-03,2.53E-02
37730,3.77E-03,2.52E-02
37731,3.35E-03,2.50E-02
37732,3.01E-03,2.49E-02
37733,3.27E-03,2.47E-02
37734,3.36E-03,2.46E-02
37735,3.67E-03,2.44E-02
37736,4.04E-03,2.43E-02
37737,4.57E-03,2.41E-02
37738,4.60E-03,2.39E-02
37739,4.78E-03,2.37E-02
37740,4.98E-03,2.35E-02
37741,5.13E-03,2.32E-02
37742,5.12E-03,2.30E-02
37743,5.05E-03,2.27E-02
37744,4.97E-03,2.25E-02
37745,4.90E-03,2.22E-02
37746,4.77E-03,2.20E-02
37747,4.71E-03,2.17E-02
37748,4.53E-03,2.15E-02
37749,6.94E-03,2.13E-02
37750,5.43E-03,2.09E-02
37751,5.91E-03,2.04E-02
37752,8.31E-03,1.28E-02
37753,8.03E-03,1.28E-02
37754,6.54E-03,1.18E-02
37755,6.78E-03,9.60E-03
37756,7.02E-03,9.69E-03
37757,6.80E-03,9.47E-03
37758,8.46E-03,1.03E-02
37759,8.71E-03,1.03E-02
37760,6.29E-03,9.43E-03
37761,6.40E-03,9.49E-03
37762,3.73E-03,2.85E-02
37763,5.96E-03,2.84E-02
37764,7.87E-03,2.82E-02
37765,7.37E-03,2.84E-02
37766,8.10E-03,1.51E-02
37767,8.10E-03,1.51E-02
37768,8.10E-03,1.51E-02
37769,8.10E-03,1.52E-02
37770,8.10E-03,1.52E-02
37771,8.10E-03,1.52E-02
37772,8.23E-03,1.98E-02
37773,7.52E-03,1.95E-02
37774,7.17E-03,1.92E-02
37775,1.08E-02,1.88E-02
37776,1.07E-02,1.84E-02
37777,8.89E-03,1.81E-02
37778,8.00E-03,1.77E-02
37779,8.01E-03,1.74E-02
37780,8.02E-03,1.71E-02
37781,8.02E-03,1.68E-02
37782,8.02E-03,1.65E-02
37783,8.03E-03,1.61E-02
37784,8.10E-03,1.58E-02
37785,8.06E-03,1.55E-02
37786,8.17E-03,1.52E-02
37787,8.91E-03,1.48E-02
37788,8.64E-03,1.45E-02
37789,7.20E-03,1.38E-02
37790,7.48E-03,1.41E-02
37791,8.13E-03,1.42E-02
37792,8.24E-03,1.40E-02
37793,8.23E-03,1.38E-02
37794,8.16E-03,1.36E-02
37795,8.09E-03,1.34E-02
37796,8.09E-03,1.32E-02
37797,8.09E-03,1.31E-02
37798,8.09E-03,1.29E-02
37799,8.09E-03,1.27E-02
37800,8.09E-03,1.24E-02
37801,8.09E-03,1.22E-02
37802,8.10E-03,1.20E-02
37803,7.80E-03,1.18E-02
37804,7.61E-03,1.16E-02
37805,7.60E-03,1.14E-02
37806,7.42E-03,1.12E-02
37807,7.22E-03,1.10E-02
37808,6.60E-03,1.15E-02
37809,4.82E-03,1.16E-02
37810,6.95E-03,1.16E-02
37811,6.89E-03,1.16E-02
37812,5.98E-03,1.16E-02
37813,5.85E-03,1.16E-02
37814,6.73E-03,1.16E-02
37815,6.59E-03,9.93E-03
37816,8.12E-03,2.37E-02
37817,6.90E-03,2.34E-02
37818,7.98E-03,2.23E-02
37819,8.01E-03,2.26E-02
37820,7.29E-03,2.28E-02
37821,7.24E-03,2.31E-02
37822,7.22E-03,2.33E-02
37823,7.91E-03,1.19E-02
37824,5.85E-03,1.17E-02
37825,7.37E-03,1.18E-02
37826,6.71E-03,1.12E-02
37827,8.93E-03,1.11E-02
37828,8.51E-03,1.10E-02
37829,4.03E-03,1.09E-02
37830,4.24E-03,1.09E-02
37831,4.38E-03,1.09E-02
37832,4.43E-03,1.09E-02
37833,4.50E-03,1.09E-02
37834,4.78E-03,1.09E-02
37835,4.78E-03,1.09E-02
37836,4.86E-03,1.09E-02
37837,4.83E-03,1.08E-02
37838,4.55E-03,1.08E-02
37839,4.79E-03,1.08E-02
37840,5.86E-03,1.08E-02
37841,7.00E-03,1.08E-02
37842,7.47E-03,1.08E-02
37843,8.85E-03,1.07E-02
37844,8.96E-03,1.07E-02
37845,8.99E-03,1.07E-02
37846,9.19E-03,1.07E-02
37847,9.43E-03,1.06E-02
37848,1.05E-02,1.05E-02
37849,8.30E-03,8.02E-03
37850,8.07E-03,7.72E-03
37851,9.00E-03,7.66E-03
37852,9.23E-03,7.55E-03
37853,9.10E-03,7.43E-03
37854,1.15E-02,7.29E-03
37855,1.10E-02,7.14E-03
37856,9.73E-03,7.00E-03
37857,9.58E-03,6.87E-03
37858,9.05E-03,6.75E-03
37859,8.73E-03,6.63E-03
37860,7.13E-03,6.53E-03
37861,5.83E-03,6.44E-03
37862,5.56E-03,6.37E-03
37863,5.32E-03,6.30E-03
37864,5.13E-03,6.24E-03
37865,4.82E-03,6.19E-03
37866,4.74E-03,6.13E-03
37867,4.42E-03,6.08E-03
37868,4.21E-03,6.04E-03
37869,3.98E-03,6.00E-03
37870,3.52E-03,5.96E-03
37871,3.35E-03,5.94E-03
37872,3.35E-03,5.91E-03
37873,3.36E-03,5.88E-03
37874,3.24E-03,5.85E-03
37875,7.45E-03,9.40E-03
37876,9.46E-03,9.33E-03
37877,9.97E-03,9.25E-03
37878,1.00E-02,9.15E-03
37879,9.31E-03,9.06E-03
37880,8.53E-03,8.97E-03
37881,8.30E-03,8.88E-03
37882,8.18E-03,8.79E-03
37883,7.89E-03,8.71E-03
37884,7.59E-03,8.63E-03
37885,7.32E-03,8.55E-03
37886,7.03E-03,8.48E-03
37887,6.81E-03,8.41E-03
37888,6.67E-03,8.34E-03
37889,6.53E-03,8.27E-03
37890,6.39E-03,8.20E-03
37891,6.25E-03,8.14E-03
37892,6.09E-03,8.07E-03
37893,5.88E-03,8.01E-03
37894,5.66E-03,7.96E-03
37895,5.43E-03,7.90E-03
37896,5.20E-03,7.85E-03
37897,5.05E-03,7.80E-03
37898,5.00E-03,7.76E-03
37899,4.99E-03,7.71E-03
37900,4.98E-03,7.67E-03
37901,4.98E-03,7.62E-03
37902,4.97E-03,7.58E-03
37903,4.95E-03,7.54E-03
37904,4.93E-03,7.50E-03
37905,4.89E-03,7.46E-03
37906,4.85E-03,7.42E-03
37907,4.81E-03,7.38E-03
37908,4.77E-03,7.35E-03
37909,4.73E-03,7.32E-03
37910,4.72E-03,7.28E-03
37911,4.75E-03,7.25E-03
37912,4.80E-03,7.22E-03
37913,4.85E-03,7.19E-03
37914,4.92E-03,7.16E-03
37915,5.02E-03,7.13E-03
37916,5.12E-03,7.10E-03
37917,5.22E-03,7.08E-03
37918,5.38E-03,7.05E-03
37919,5.57E-03,7.02E-03
37920,5.77E-03,7.00E-03
37921,5.94E-03,6.97E-03
37922,6.07E-03,6.94E-03
37923,6.17E-03,6.91E-03
37924,6.26E-03,6.89E-03
37925,6.35E-03,6.86E-03
37926,6.44E-03,6.84E-03
37927,6.52E-03,6.81E-03
37928,6.60E-03,6.79E-03
37929,6.68E-03,6.76E-03
37930,6.76E-03,6.74E-03
37931,6.84E-03,6.71E-03
37932,6.92E-03,6.69E-03
37933,6.99E-03,6.66E-03
37934,7.04E-03,6.64E-03
37935,7.07E-03,6.62E-03
37936,7.11E-03,6.59E-03
37937,7.15E-03,6.57E-03
37938,7.19E-03,6.54E-03
37939,7.22E-03,6.52E-03
37940,7.26E-03,6.50E-03
37941,7.30E-03,6.47E-03
37942,7.35E-03,6.45E-03
37943,7.42E-03,6.42E-03
37944,7.49E-03,6.40E-03
37945,7.57E-03,6.37E-03
37946,7.63E-03,6.35E-03
37947,7.67E-03,6.32E-03
37948,7.71E-03,6.29E-03
37949,7.74E-03,6.27E-03
37950,7.77E-03,6.24E-03
37951,7.77E-03,6.21E-03
37952,7.61E-03,6.18E-03
37953,7.59E-03,6.15E-03
37954,7.42E-03,6.12E-03
37955,6.90E-03,6.09E-03
37956,6.78E-03,6.06E-03
37957,6.51E-03,6.03E-03
37958,6.43E-03,6.00E-03
37959,6.16E-03,5.97E-03
37960,5.99E-03,5.95E-03
37961,5.75E-03,5.93E-03
37962,5.69E-03,5.90E-03
37963,5.62E-03,5.88E-03
37964,5.78E-03,5.86E-03
37965,4.68E-03,5.84E-03
37966,4.09E-03,5.83E-03
37967,4.88E-03,1.52E-02
37968,3.46E-03,1.51E-02
37969,7.22E-03,1.52E-02
37970,6.41E-03,1.52E-02
37971,3.50E-03,1.51E-02
37972,1.13E-02,8.31E-03
37973,7.95E-03,1.71E-02
37974,8.31E-03,1.72E-02
37975,9.41E-03,1.72E-02
37976,1.03E-02,1.73E-02
37977,7.77E-03,7.61E-03
37978,9.31E-03,7.63E-03
37979,9.65E-03,7.64E-03
37980,9.95E-03,7.68E-03
37981,9.88E-03,7.71E-03
37982,9.54E-03,7.75E-03
37983,9.35E-03,7.79E-03
37984,9.30E-03,7.83E-03
37985,8.45E-03,7.88E-03
37986,8.06E-03,7.92E-03
37987,7.76E-03,7.95E-03
37988,7.57E-03,7.99E-03
37989,7.44E-03,8.02E-03
37990,7.27E-03,8.06E-03
37991,6.94E-03,8.08E-03
37992,6.91E-03,8.10E-03
37993,7.05E-03,8.13E-03
37994,6.73E-03,8.19E-03
37995,6.18E-03,8.21E-03
37996,5.48E-03,8.26E-03
37997,5.79E-03,8.15E-03
37998,7.14E-03,1.12E-02
37999,5.72E-03,9.49E-03
38000,5.87E-03,9.38E-03
38001,6.21E-03,9.32E-03
38002,7.46E-03,1.16E-02
38003,7.27E-03,1.15E-02
38004,6.21E-03,1.77E-02
38005,8.77E-03,1.01E-02
38006,6.03E-03,9.18E-03
38007,6.19E-03,1.00E-02
38008,6.21E-03,1.01E-02
38009,8.83E-03,2.85E-02
38010,7.83E-03,2.85E-02
38011,6.90E-03,1.22E-02
38012,7.12E-03,1.24E-02
38013,5.55E-03,8.38E-03
38014,7.59E-03,7.66E-03
38015,7.52E-03,7.67E-03
38016,6.89E-03,1.74E-02
38017,7.49E-03,1.74E-02
38018,7.42E-03,1.73E-02
38019,7.32E-03,1.73E-02
38020,9.75E-03,1.72E-02
38021,9.65E-03,1.72E-02
38022,9.85E-03,1.71E-02
38023,1.10E-02,1.70E-02
38024,9.10E-03,1.69E-02
38025,4.90E-03,9.32E-03
38026,6.22E-03,9.16E-03
38027,8.31E-03,8.95E-03
38028,8.09E-03,8.71E-03
38029,8.09E-03,8.47E-03
38030,8.09E-03,8.23E-03
38031,8.09E-03,8.00E-03
38032,8.09E-03,7.77E-03
38033,8.09E-03,7.54E-03
38034,8.09E-03,7.31E-03
38035,8.09E-03,7.08E-03
38036,8.09E-03,6.86E-03
38037,8.09E-03,6.64E-03
38038,8.09E-03,6.42E-03
38039,8.09E-03,6.21E-03
38040,8.09E-03,6.00E-03
38041,8.09E-03,5.80E-03
38042,8.09E-03,5.60E-03
38043,8.09E-03,5.41E-03
38044,8.09E-03,5.23E-03
38045,8.09E-03,5.06E-03
38046,8.09E-03,4.90E-03
38047,8.09E-03,4.74E-03
38048,8.09E-03,4.60E-03
38049,8.09E-03,4.47E-03
38050,8.09E-03,4.36E-03
38051,8.09E-03,4.25E-03
38052,8.09E-03,4.17E-03
38053,8.09E-03,4.09E-03
38054,8.09E-03,4.04E-03
38055,8.09E-03,4.00E-03
38056,8.09E-03,3.97E-03
38057,8.09E-03,3.97E-03
38058,8.09E-03,3.98E-03
38059,8.09E-03,4.00E-03
38060,8.09E-03,4.04E-03
38061,8.09E-03,4.10E-03
38062,8.09E-03,4.16E-03
38063,8.09E-03,4.24E-03
38064,8.09E-03,4.33E-03
38065,8.09E-03,4.43E-03
38066,8.09E-03,4.54E-03
38067,8.09E-03,4.66E-03
38068,8.09E-03,4.78E-03
38069,8.09E-03,4.91E-03
38070,8.09E-03,5.04E-03
38071,8.09E-03,5.18E-03
38072,8.09E-03,5.32E-03
38073,8.09E-03,5.46E-03
38074,8.09E-03,5.61E-03
38075,8.09E-03,5.76E-03
38076,8.09E-03,5.91E-03
38077,8.09E-03,6.06E-03
38078,8.09E-03,6.21E-03
38079,8.09E-03,6.36E-03
38080,8.09E-03,6.51E-03
38081,8.09E-03,6.66E-03
38082,8.09E-03,6.81E-03
38083,8.09E-03,6.96E-03
38084,8.09E-03,7.10E-03
38085,8.09E-03,7.25E-03
38086,8.21E-03,7.39E-03
38087,8.38E-03,7.54E-03
38088,8.23E-03,7.68E-03
38089,8.17E-03,7.82E-03
38090,8.24E-03,7.96E-03
38091,8.77E-03,8.11E-03
38092,7.04E-03,9.66E-03
38093,8.16E-03,7.99E-03
38094,7.84E-03,7.99E-03
38095,8.32E-03,1.72E-02
38096,8.21E-03,1.73E-02
38097,7.92E-03,2.70E-02
38098,7.61E-03,2.69E-02
38099,7.50E-03,2.69E-02
38100,8.53E-03,2.68E-02
38101,8.10E-03,1.53E-02
38102,8.22E-03,2.02E-02
38103,8.01E-03,1.42E-02
38104,8.02E-03,2.75E-02
38105,6.59E-03,1.19E-02
38106,5.98E-03,8.99E-03
38107,6.00E-03,8.96E-03
38108,5.84E-03,8.94E-03
38109,6.94E-03,1.36E-02
38110,8.40E-03,2.75E-02
38111,8.72E-03,1.31E-02
38112,6.42E-03,9.71E-03
38113,8.08E-03,1.15E-02
38114,7.90E-03,1.73E-02
38115,7.59E-03,2.84E-02
38116,8.10E-03,1.50E-02
38117,7.28E-03,1.35E-02
38118,5.99E-03,1.04E-02
38119,6.20E-03,1.06E-02
38120,6.53E-03,1.08E-02
38121,7.99E-03,8.31E-03
38122,6.71E-03,7.94E-03
38123,6.23E-03,8.01E-03
38124,9.05E-03,9.57E-03
38125,8.60E-03,2.20E-02
38126,9.05E-03,1.71E-02
38127,9.22E-03,1.71E-02
38128,9.43E-03,1.71E-02
38129,9.46E-03,1.71E-02
38130,9.41E-03,1.71E-02
38131,9.15E-03,1.70E-02
38132,9.02E-03,1.70E-02
38133,8.91E-03,1.70E-02
38134,8.88E-03,1.70E-02
38135,8.88E-03,1.70E-02
38136,8.88E-03,1.70E-02
38137,8.82E-03,1.70E-02
38138,8.67E-03,1.70E-02
38139,8.51E-03,1.70E-02
38140,8.39E-03,1.70E-02
38141,8.32E-03,1.70E-02
38142,8.25E-03,1.70E-02
38143,8.21E-03,1.70E-02
38144,8.20E-03,1.70E-02
38145,8.20E-03,1.70E-02
38146,8.19E-03,1.70E-02
38147,8.18E-03,1.70E-02
38148,8.16E-03,1.70E-02
38149,8.13E-03,1.70E-02
38150,8.09E-03,1.70E-02
38151,8.07E-03,1.70E-02
38152,8.04E-03,1.69E-02
38153,8.01E-03,1.69E-02
38154,7.98E-03,1.69E-02
38155,7.97E-03,1.69E-02
38156,7.99E-03,1.69E-02
38157,8.03E-03,1.69E-02
38158,8.07E-03,1.68E-02
38159,8.11E-03,1.68E-02
38160,8.15E-03,1.68E-02
38161,8.18E-03,1.68E-02
38162,8.22E-03,1.67E-02
38163,8.27E-03,1.67E-02
38164,8.34E-03,1.67E-02
38165,8.44E-03,1.66E-02
38166,8.53E-03,1.66E-02
38167,8.60E-03,1.66E-02
38168,8.65E-03,1.65E-02
38169,8.69E-03,1.65E-02
38170,8.73E-03,1.65E-02
38171,8.77E-03,1.64E-02
38172,8.82E-03,1.64E-02
38173,8.88E-03,1.63E-02
38174,8.94E-03,1.63E-02
38175,9.00E-03,1.63E-02
38176,9.08E-03,1.62E-02
38177,9.20E-03,1.62E-02
38178,9.33E-03,1.62E-02
38179,9.45E-03,1.61E-02
38180,9.53E-03,1.61E-02
38181,9.55E-03,1.60E-02
38182,9.52E-03,1.60E-02
38183,9.47E-03,1.60E-02
38184,9.42E-03,1.60E-02
38185,9.38E-03,1.59E-02
38186,9.33E-03,1.59E-02
38187,9.28E-03,1.59E-02
38188,9.24E-03,1.59E-02
38189,9.24E-03,1.59E-02
38190,9.25E-03,1.58E-02
38191,9.11E-03,1.58E-02
38192,8.81E-03,1.58E-02
38193,8.47E-03,1.58E-02
38194,8.12E-03,1.58E-02
38195,7.90E-03,1.58E-02
38196,7.90E-03,1.58E-02
38197,7.97E-03,1.58E-02
38198,7.91E-03,1.58E-02
38199,7.76E-03,1.58E-02
38200,7.62E-03,1.58E-02
38201,7.50E-03,1.58E-02
38202,7.38E-03,1.57E-02
38203,7.23E-03,1.57E-02
38204,7.04E-03,1.57E-02
38205,6.82E-03,1.57E-02
38206,6.64E-03,1.57E-02
38207,6.52E-03,1.57E-02
38208,6.44E-03,1.57E-02
38209,6.36E-03,1.56E-02
38210,6.30E-03,1.56E-02
38211,6.25E-03,1.56E-02
38212,6.21E-03,1.56E-02
38213,6.16E-03,1.55E-02
38214,6.07E-03,1.55E-02
38215,5.96E-03,1.55E-02
38216,5.89E-03,1.54E-02
38217,5.89E-03,1.54E-02
38218,5.93E-03,1.54E-02
38219,5.98E-03,1.53E-02
38220,6.04E-03,1.53E-02
38221,6.10E-03,1.52E-02
38222,6.16E-03,1.52E-02
38223,6.22E-03,1.51E-02
38224,6.28E-03,1.51E-02
38225,6.34E-03,1.50E-02
38226,6.38E-03,1.50E-02
38227,6.41E-03,1.49E-02
38228,6.43E-03,1.48E-02
38229,6.45E-03,1.48E-02
38230,6.47E-03,1.47E-02
38231,6.49E-03,1.46E-02
38232,6.50E-03,1.46E-02
38233,6.47E-03,1.45E-02
38234,6.43E-03,1.44E-02
38235,6.38E-03,1.44E-02
38236,6.33E-03,1.43E-02
38237,6.26E-03,1.42E-02
38238,6.20E-03,1.42E-02
38239,6.12E-03,1.41E-02
38240,6.00E-03,1.40E-02
38241,5.85E-03,1.40E-02
38242,5.69E-03,1.39E-02
38243,5.55E-03,1.38E-02
38244,5.42E-03,1.38E-02
38245,5.37E-03,1.37E-02
38246,5.44E-03,1.37E-02
38247,5.51E-03,1.36E-02
38248,5.43E-03,1.35E-02
38249,5.40E-03,1.35E-02
38250,6.37E-03,1.34E-02
38251,7.73E-03,1.33E-02
38252,8.64E-03,1.32E-02
38253,9.90E-03,1.31E-02
38254,1.12E-02,1.30E-02
38255,9.63E-03,1.29E-02
38256,9.68E-03,1.28E-02
38257,9.80E-03,1.27E-02
38258,9.73E-03,1.26E-02
38259,9.71E-03,1.24E-02
38260,9.56E-03,1.23E-02
38261,1.06E-02,1.22E-02
38262,1.04E-02,1.21E-02
38263,8.35E-03,1.19E-02
38264,7.90E-03,1.51E-02
38265,8.33E-03,2.66E-02
38266,7.46E-03,2.66E-02
38267,7.49E-03,8.77E-03
38268,7.64E-03,8.74E-03
38269,6.88E-03,1.00E-02
38270,7.70E-03,9.06E-03
38271,7.36E-03,9.38E-03
38272,7.99E-03,7.94E-03
38273,7.62E-03,9.45E-03
38274,7.72E-03,9.64E-03
38275,6.94E-03,8.54E-03
38276,9.61E-03,8.43E-03
38277,1.07E-02,8.34E-03
38278,1.03E-02,8.26E-03
38279,1.08E-02,8.18E-03
38280,1.08E-02,8.09E-03
38281,1.10E-02,8.02E-03
38282,1.11E-02,7.94E-03
38283,1.12E-02,7.88E-03
38284,1.10E-02,7.82E-03
38285,1.09E-02,7.77E-03
38286,1.06E-02,7.73E-03
38287,1.03E-02,7.70E-03
38288,1.00E-02,7.68E-03
38289,9.78E-03,7.66E-03
38290,9.60E-03,7.65E-03
38291,9.47E-03,7.64E-03
38292,9.35E-03,7.63E-03
38293,9.24E-03,7.63E-03
38294,9.15E-03,7.64E-03
38295,9.06E-03,7.65E-03
38296,8.98E-03,7.66E-03
38297,8.77E-03,7.68E-03
38298,8.69E-03,7.70E-03
38299,8.62E-03,7.72E-03
38300,8.43E-03,7.74E-03
38301,8.32E-03,7.77E-03
38302,8.36E-03,7.80E-03
38303,8.19E-03,7.84E-03
38304,8.20E-03,7.87E-03
38305,8.13E-03,7.91E-03
38306,7.93E-03,7.95E-03
38307,7.79E-03,7.99E-03
38308,7.57E-03,8.04E-03
38309,7.30E-03,8.08E-03
38310,7.15E-03,8.13E-03
38311,7.09E-03,8.18E-03
38312,8.18E-03,8.24E-03
38313,8.68E-03,8.26E-03
38314,8.00E-03,8.33E-03
38315,5.75E-03,1.77E-02
38316,9.56E-03,7.68E-03
38317,1.03E-02,7.59E-03
38318,4.97E-03,7.54E-03
38319,5.10E-03,7.51E-03
38320,4.30E-03,7.52E-03
38321,4.32E-03,7.51E-03
38322,4.84E-03,7.49E-03
38323,5.25E-03,7.46E-03
38324,5.31E-03,7.43E-03
38325,6.23E-03,7.40E-03
38326,6.33E-03,7.36E-03
38327,6.59E-03,7.32E-03
38328,6.71E-03,7.28E-03
38329,6.84E-03,7.23E-03
38330,6.97E-03,7.19E-03
38331,7.10E-03,7.14E-03
38332,7.23E-03,7.10E-03
38333,7.34E-03,7.05E-03
38334,7.41E-03,7.01E-03
38335,7.45E-03,6.96E-03
38336,7.48E-03,6.92E-03
38337,7.51E-03,6.88E-03
38338,7.54E-03,6.85E-03
38339,7.57E-03,6.81E-03
38340,7.60E-03,6.78E-03
38341,7.62E-03,6.76E-03
38342,7.65E-03,6.73E-03
38343,7.68E-03,6.71E-03
38344,7.71E-03,6.70E-03
38345,7.73E-03,6.69E-03
38346,7.75E-03,6.69E-03
38347,7.77E-03,6.69E-03
38348,7.79E-03,6.70E-03
38349,7.81E-03,6.72E-03
38350,7.83E-03,6.74E-03
38351,7.84E-03,6.77E-03
38352,7.86E-03,6.81E-03
38353,7.87E-03,6.86E-03
38354,7.88E-03,6.91E-03
38355,7.90E-03,6.97E-03
38356,7.91E-03,7.04E-03
38357,7.92E-03,7.11E-03
38358,7.92E-03,7.19E-03
38359,7.92E-03,7.28E-03
38360,7.92E-03,7.38E-03
38361,7.92E-03,7.48E-03
38362,7.92E-03,7.59E-03
38363,7.91E-03,7.70E-03
38364,7.91E-03,7.82E-03
38365,7.90E-03,7.94E-03
38366,7.88E-03,8.07E-03
38367,7.85E-03,8.21E-03
38368,7.83E-03,8.34E-03
38369,7.81E-03,8.48E-03
38370,7.79E-03,8.63E-03
38371,7.77E-03,8.77E-03
38372,7.75E-03,8.92E-03
38373,7.73E-03,9.08E-03
38374,7.70E-03,9.23E-03
38375,7.67E-03,9.38E-03
38376,7.63E-03,9.54E-03
38377,7.57E-03,9.70E-03
38378,7.52E-03,9.85E-03
38379,7.46E-03,1.00E-02
38380,7.41E-03,1.02E-02
38381,7.35E-03,1.03E-02
38382,7.30E-03,1.05E-02
38383,7.25E-03,1.06E-02
38384,7.21E-03,1.08E-02
38385,7.17E-03,1.10E-02
38386,7.13E-03,1.11E-02
38387,7.10E-03,1.13E-02
38388,7.06E-03,1.14E-02
38389,7.02E-03,1.16E-02
38390,6.98E-03,1.17E-02
38391,6.92E-03,1.19E-02
38392,6.87E-03,1.20E-02
38393,6.82E-03,1.22E-02
38394,6.76E-03,1.23E-02
38395,6.70E-03,1.25E-02
38396,6.61E-03,1.26E-02
38397,6.50E-03,1.27E-02
38398,6.40E-03,1.29E-02
38399,6.29E-03,1.30E-02
38400,6.19E-03,1.32E-02
38401,6.14E-03,1.33E-02
38402,6.12E-03,1.34E-02
38403,6.11E-03,1.35E-02
38404,6.12E-03,1.37E-02
38405,6.16E-03,1.38E-02
38406,6.20E-03,1.39E-02
38407,6.24E-03,1.41E-02
38408,6.27E-03,1.42E-02
38409,6.29E-03,1.43E-02
38410,6.32E-03,1.45E-02
38411,6.35E-03,1.46E-02
38412,6.37E-03,1.47E-02
38413,6.40E-03,1.49E-02
38414,6.43E-03,1.50E-02
38415,6.45E-03,1.51E-02
38416,6.48E-03,1.53E-02
38417,6.50E-03,1.54E-02
38418,6.53E-03,1.56E-02
38419,6.56E-03,1.57E-02
38420,6.59E-03,1.58E-02
38421,6.61E-03,1.60E-02
38422,6.66E-03,1.61E-02
38423,6.81E-03,1.63E-02
38424,6.94E-03,1.64E-02
38425,7.08E-03,1.66E-02
38426,7.82E-03,1.67E-02
38427,8.06E-03,1.69E-02
38428,5.91E-03,8.36E-03
38429,6.73E-03,8.28E-03
38430,6.91E-03,8.13E-03
38431,7.12E-03,8.05E-03
38432,8.55E-03,7.94E-03
38433,6.62E-03,7.66E-03
38434,8.09E-03,1.10E-02
38435,8.09E-03,1.09E-02
38436,8.09E-03,1.08E-02
38437,8.09E-03,1.06E-02
38438,8.09E-03,1.05E-02
38439,8.09E-03,1.03E-02
38440,8.09E-03,1.02E-02
38441,8.09E-03,1.00E-02
38442,8.09E-03,9.90E-03
38443,8.09E-03,9.75E-03
38444,8.09E-03,9.60E-03
38445,8.09E-03,9.44E-03
38446,8.09E-03,9.29E-03
38447,8.09E-03,9.13E-03
38448,8.09E-03,8.97E-03
38449,8.09E-03,8.82E-03
38450,8.09E-03,8.66E-03
38451,8.09E-03,8.50E-03
38452,8.09E-03,8.34E-03
38453,8.09E-03,8.18E-03
38454,8.09E-03,8.01E-03
38455,8.09E-03,7.85E-03
38456,8.09E-03,7.69E-03
38457,8.09E-03,7.53E-03
38458,8.09E-03,7.37E-03
38459,8.09E-03,7.21E-03
38460,8.09E-03,7.06E-03
38461,8.09E-03,6.90E-03
38462,8.09E-03,6.74E-03
38463,8.09E-03,6.59E-03
38464,8.09E-03,6.44E-03
38465,8.09E-03,6.30E-03
38466,8.09E-03,6.15E-03
38467,8.09E-03,6.02E-03
38468,8.09E-03,5.88E-03
38469,8.09E-03,5.75E-03
38470,8.09E-03,5.63E-03
38471,8.09E-03,5.51E-03
38472,8.09E-03,5.41E-03
38473,8.09E-03,5.31E-03
38474,8.09E-03,5.21E-03
38475,8.09E-03,5.13E-03
38476,8.09E-03,5.06E-03
38477,8.09E-03,5.00E-03
38478,8.09E-03,4.95E-03
38479,8.09E-03,4.91E-03
38480,8.09E-03,4.88E-03
38481,8.09E-03,4.87E-03
38482,8.09E-03,4.87E-03
38483,8.09E-03,4.89E-03
38484,8.09E-03,4.92E-03
38485,8.09E-03,4.96E-03
38486,8.09E-03,5.02E-03
38487,8.09E-03,5.09E-03
38488,8.09E-03,5.18E-03
38489,8.09E-03,5.27E-03
38490,8.09E-03,5.38E-03
38491,8.09E-03,5.51E-03
38492,8.09E-03,5.64E-03
38493,8.09E-03,5.78E-03
38494,8.09E-03,5.94E-03
38495,8.09E-03,6.10E-03
38496,8.03E-03,6.27E-03
38497,7.95E-03,6.45E-03
38498,7.95E-03,6.63E-03
38499,8.03E-03,6.82E-03
38500,8.14E-03,7.03E-03
38501,8.47E-03,7.27E-03
38502,8.39E-03,7.49E-03
38503,7.97E-03,7.67E-03
38504,7.30E-03,7.88E-03
38505,6.67E-03,8.10E-03
38506,6.53E-03,8.33E-03
38507,8.10E-03,1.12E-02
38508,7.24E-03,2.79E-02
38509,5.06E-03,2.84E-02
38510,6.97E-03,1.01E-02
38511,6.53E-03,9.90E-03
38512,8.91E-03,1.04E-02
38513,7.44E-03,1.04E-02
38514,9.02E-03,2.85E-02
38515,9.34E-03,1.16E-02
38516,8.50E-03,1.20E-02
38517,7.26E-03,1.25E-02
38518,6.27E-03,1.52E-02
38519,5.56E-03,1.52E-02
38520,5.08E-03,1.53E-02
38521,8.66E-03,1.53E-02
38522,7.02E-03,1.16E-02
38523,1.05E-02,1.73E-02
38524,1.03E-02,1.74E-02
38525,7.39E-03,2.84E-02
38526,8.10E-03,1.49E-02
38527,8.10E-03,1.53E-02
38528,7.10E-03,2.06E-02
38529,7.80E-03,1.43E-02
38530,8.42E-03,1.02E-02
38531,6.57E-03,1.01E-02
38532,7.61E-03,2.80E-02
38533,6.07E-03,8.58E-03
38534,6.51E-03,8.55E-03
38535,9.05E-03,2.14E-02
38536,8.75E-03,2.16E-02
38537,4.60E-03,1.07E-02
38538,6.07E-03,9.38E-03
38539,6.08E-03,9.34E-03
38540,8.10E-03,1.48E-02
38541,8.10E-03,1.53E-02
38542,7.75E-03,1.44E-02
38543,8.71E-03,2.42E-02
38544,8.65E-03,2.44E-02
38545,8.81E-03,2.47E-02
38546,9.18E-03,2.49E-02
38547,7.83E-03,2.58E-02
38548,7.08E-03,2.60E-02
38549,6.39E-03,2.63E-02
38550,8.10E-03,1.14E-02
38551,8.03E-03,9.85E-03
38552,3.93E-03,1.18E-02
38553,8.10E-03,1.15E-02
38554,5.60E-03,1.78E-02
38555,6.31E-03,1.78E-02
38556,6.60E-03,1.79E-02
38557,8.10E-03,1.48E-02
38558,8.10E-03,1.53E-02
38559,7.83E-03,1.45E-02
38560,5.68E-03,2.07E-02
38561,3.94E-03,2.10E-02
38562,5.58E-03,2.12E-02
38563,5.08E-03,2.66E-02
38564,6.67E-03,2.67E-02
38565,7.05E-03,1.28E-02
38566,8.76E-03,1.31E-02
38567,8.10E-03,1.18E-02
38568,8.10E-03,1.17E-02
38569,8.10E-03,1.47E-02
38570,8.10E-03,1.53E-02
38571,8.10E-03,1.46E-02
38572,8.10E-03,1.46E-02
38573,8.15E-03,1.53E-02
38574,8.10E-03,1.47E-02
38575,8.10E-03,1.20E-02
38576,8.10E-03,1.21E-02
38577,8.10E-03,1.45E-02
38578,8.28E-03,1.53E-02
38579,8.10E-03,1.47E-02
38580,8.10E-03,1.24E-02
38581,8.10E-03,1.23E-02
38582,8.10E-03,1.44E-02
38583,8.21E-03,1.53E-02
38584,8.10E-03,1.48E-02
38585,8.10E-03,1.43E-02
38586,8.46E-03,1.53E-02
38587,8.16E-03,1.53E-02
38588,8.10E-03,1.49E-02
38589,8.10E-03,1.42E-02
38590,8.10E-03,1.49E-02
38591,8.10E-03,1.26E-02
38592,8.10E-03,1.41E-02
38593,8.10E-03,1.50E-02
38594,8.10E-03,1.40E-02
38595,8.10E-03,1.50E-02
38596,8.10E-03,1.29E-02
38597,8.10E-03,1.27E-02
38598,8.10E-03,1.30E-02
38599,8.10E-03,1.39E-02
38600,8.10E-03,1.51E-02
38601,8.10E-03,1.31E-02
38602,8.10E-03,1.38E-02
38603,8.10E-03,1.51E-02
38604,8.10E-03,1.36E-02
38605,8.10E-03,1.35E-02
38606,8.10E-03,1.34E-02
38607,8.10E-03,1.33E-02
38608,8.65E-03,1.30E-02
38609,6.35E-03,9.59E-03
38610,8.06E-03,7.51E-03
38611,6.85E-03,1.16E-02
38612,9.27E-03,2.67E-02
38613,8.10E-03,1.52E-02
38614,8.10E-03,1.52E-02
38615,7.32E-03,1.95E-02
38616,8.33E-03,1.98E-02
38617,8.06E-03,1.39E-02
38618,8.10E-03,1.41E-02
38619,7.44E-03,2.72E-02
38620,7.95E-03,2.73E-02
38621,6.48E-03,1.18E-02
38622,6.49E-03,1.18E-02
38623,8.47E-03,1.23E-02
38624,7.10E-03,1.21E-02
38625,8.00E-03,1.15E-02
38626,9.29E-03,1.13E-02
38627,1.04E-02,1.12E-02
38628,1.04E-02,1.11E-02
38629,1.07E-02,1.09E-02
38630,1.07E-02,1.08E-02
38631,1.08E-02,1.06E-02
38632,1.19E-02,1.05E-02
38633,5.89E-03,9.14E-03
38634,5.70E-03,9.11E-03
38635,5.57E-03,9.07E-03
38636,6.79E-03,1.38E-02
38637,6.31E-03,1.40E-02
38638,5.46E-03,1.43E-02
38639,4.91E-03,1.45E-02
38640,4.53E-03,1.47E-02
38641,3.60E-03,1.49E-02
38642,3.26E-03,1.51E-02
38643,3.54E-03,1.52E-02
38644,4.12E-03,1.54E-02
38645,4.51E-03,1.57E-02
38646,4.72E-03,1.59E-02
38647,4.92E-03,1.61E-02
38648,5.13E-03,1.64E-02
38649,5.32E-03,1.67E-02
38650,5.40E-03,1.70E-02
38651,5.38E-03,1.73E-02
38652,5.35E-03,1.76E-02
38653,5.32E-03,1.79E-02
38654,5.17E-03,1.82E-02
38655,5.16E-03,1.85E-02
38656,5.01E-03,1.88E-02
38657,4.88E-03,1.91E-02
38658,4.87E-03,1.94E-02
38659,4.76E-03,1.97E-02
38660,7.84E-03,2.02E-02
38661,8.59E-03,2.75E-02
38662,8.48E-03,2.74E-02
38663,8.20E-03,2.73E-02
38664,7.79E-03,2.72E-02
38665,7.62E-03,2.70E-02
38666,7.45E-03,2.69E-02
38667,7.19E-03,2.68E-02
38668,6.86E-03,2.66E-02
38669,6.46E-03,2.65E-02
38670,6.03E-03,2.64E-02
38671,5.58E-03,2.62E-02
38672,5.11E-03,2.61E-02
38673,4.75E-03,2.59E-02
38674,4.17E-03,2.58E-02
38675,3.84E-03,2.57E-02
38676,3.44E-03,2.55E-02
38677,2.98E-03,2.54E-02
38678,3.19E-03,2.52E-02
38679,3.47E-03,2.51E-02
38680,3.75E-03,2.49E-02
38681,4.39E-03,2.47E-02
38682,4.69E-03,2.45E-02
38683,4.73E-03,2.43E-02
38684,4.96E-03,2.41E-02
38685,5.15E-03,2.39E-02
38686,5.21E-03,2.36E-02
38687,5.20E-03,2.34E-02
38688,5.13E-03,2.31E-02
38689,5.06E-03,2.29E-02
38690,4.99E-03,2.26E-02
38691,4.83E-03,2.23E-02
38692,4.71E-03,2.21E-02
38693,4.68E-03,2.18E-02
38694,6.54E-03,2.16E-02
38695,6.54E-03,2.12E-02
38696,7.35E-03,2.07E-02
38697,8.03E-03,1.30E-02
38698,9.77E-03,1.06E-02
38699,1.01E-02,1.05E-02
38700,6.35E-03,9.64E-03
38701,9.04E-03,7.29E-03
38702,8.82E-03,7.41E-03
38703,6.26E-03,1.51E-02
38704,6.07E-03,1.51E-02
38705,7.88E-03,1.12E-02
38706,8.36E-03,1.13E-02
38707,7.86E-03,1.73E-02
38708,8.22E-03,1.74E-02
38709,8.15E-03,1.73E-02
38710,7.93E-03,2.87E-02
38711,7.87E-03,2.89E-02
38712,8.10E-03,1.50E-02
38713,8.10E-03,1.51E-02
38714,8.10E-03,1.51E-02
38715,8.10E-03,1.51E-02
38716,1.09E-02,1.89E-02
38717,6.72E-03,1.93E-02
38718,8.85E-03,1.81E-02
38719,1.08E-02,1.85E-02
38720,8.01E-03,1.75E-02
38721,8.00E-03,1.78E-02
38722,8.02E-03,1.68E-02
38723,8.02E-03,1.71E-02
38724,8.02E-03,1.61E-02
38725,8.02E-03,1.65E-02
38726,8.10E-03,1.55E-02
38727,8.14E-03,1.58E-02
38728,8.03E-03,1.48E-02
38729,8.15E-03,1.51E-02
38730,8.01E-03,1.45E-02
38731,7.28E-03,1.38E-02
38732,7.47E-03,1.42E-02
38733,8.09E-03,1.36E-02
38734,8.09E-03,1.37E-02
38735,8.09E-03,1.32E-02
38736,8.09E-03,1.34E-02
38737,8.09E-03,1.28E-02
38738,8.09E-03,1.30E-02
38739,8.09E-03,1.24E-02
38740,8.09E-03,1.26E-02
38741,8.10E-03,1.20E-02
38742,8.09E-03,1.22E-02
38743,7.63E-03,1.16E-02
38744,7.73E-03,1.18E-02
38745,7.34E-03,1.12E-02
38746,7.47E-03,1.14E-02
38747,7.04E-03,1.10E-02
38748,8.76E-03,2.51E-02
38749,8.38E-03,2.56E-02
38750,8.71E-03,2.54E-02
38751,7.66E-03,2.46E-02
38752,8.20E-03,2.48E-02
38753,6.89E-03,9.82E-03
38754,5.39E-03,9.92E-03
38755,6.01E-03,9.90E-03
38756,5.58E-03,1.18E-02
38757,6.45E-03,1.18E-02
38758,6.61E-03,1.18E-02
38759,9.49E-03,1.73E-02
38760,9.61E-03,1.73E-02
38761,9.49E-03,1.73E-02
38762,9.51E-03,1.73E-02
38763,9.12E-03,1.72E-02
38764,9.38E-03,1.72E-02
38765,8.89E-03,1.72E-02
38766,8.99E-03,1.72E-02
38767,8.86E-03,1.72E-02
38768,8.86E-03,1.72E-02
38769,8.80E-03,1.72E-02
38770,8.85E-03,1.72E-02
38771,8.50E-03,1.72E-02
38772,8.66E-03,1.72E-02
38773,8.31E-03,1.72E-02
38774,8.39E-03,1.72E-02
38775,8.21E-03,1.72E-02
38776,8.24E-03,1.72E-02
38777,8.20E-03,1.72E-02
38778,8.20E-03,1.72E-02
38779,8.18E-03,1.72E-02
38780,8.19E-03,1.72E-02
38781,8.13E-03,1.72E-02
38782,8.15E-03,1.72E-02
38783,8.07E-03,1.71E-02
38784,8.09E-03,1.72E-02
38785,8.01E-03,1.71E-02
38786,8.04E-03,1.71E-02
38787,7.97E-03,1.71E-02
38788,7.99E-03,1.71E-02
38789,8.03E-03,1.71E-02
38790,7.99E-03,1.71E-02
38791,8.11E-03,1.70E-02
38792,8.07E-03,1.70E-02
38793,8.18E-03,1.70E-02
38794,8.15E-03,1.70E-02
38795,8.26E-03,1.69E-02
38796,8.22E-03,1.69E-02
38797,8.43E-03,1.68E-02
38798,8.33E-03,1.69E-02
38799,8.59E-03,1.67E-02
38800,8.52E-03,1.68E-02
38801,8.67E-03,1.67E-02
38802,8.63E-03,1.67E-02
38803,8.75E-03,1.66E-02
38804,8.71E-03,1.66E-02
38805,8.85E-03,1.65E-02
38806,8.80E-03,1.65E-02
38807,8.97E-03,1.64E-02
38808,8.91E-03,1.65E-02
38809,9.17E-03,1.63E-02
38810,9.05E-03,1.64E-02
38811,9.41E-03,1.63E-02
38812,9.29E-03,1.63E-02
38813,9.51E-03,1.62E-02
38814,9.49E-03,1.62E-02
38815,9.43E-03,1.61E-02
38816,9.48E-03,1.61E-02
38817,9.34E-03,1.60E-02
38818,9.38E-03,1.61E-02
38819,9.24E-03,1.60E-02
38820,9.30E-03,1.60E-02
38821,9.21E-03,1.60E-02
38822,9.20E-03,1.60E-02
38823,9.08E-03,1.59E-02
38824,9.22E-03,1.59E-02
38825,8.46E-03,1.59E-02
38826,8.79E-03,1.59E-02
38827,7.91E-03,1.59E-02
38828,8.12E-03,1.59E-02
38829,7.98E-03,1.59E-02
38830,7.91E-03,1.59E-02
38831,7.77E-03,1.59E-02
38832,7.92E-03,1.59E-02
38833,7.52E-03,1.58E-02
38834,7.64E-03,1.59E-02
38835,7.25E-03,1.58E-02
38836,7.40E-03,1.58E-02
38837,6.86E-03,1.58E-02
38838,7.07E-03,1.58E-02
38839,6.57E-03,1.58E-02
38840,6.69E-03,1.58E-02
38841,6.41E-03,1.57E-02
38842,6.49E-03,1.57E-02
38843,6.31E-03,1.57E-02
38844,6.35E-03,1.57E-02
38845,6.21E-03,1.56E-02
38846,6.27E-03,1.56E-02
38847,6.03E-03,1.55E-02
38848,6.13E-03,1.56E-02
38849,5.95E-03,1.54E-02
38850,5.95E-03,1.55E-02
38851,6.05E-03,1.54E-02
38852,6.00E-03,1.54E-02
38853,6.16E-03,1.53E-02
38854,6.10E-03,1.53E-02
38855,6.28E-03,1.52E-02
38856,6.22E-03,1.52E-02
38857,6.39E-03,1.50E-02
38858,6.33E-03,1.51E-02
38859,6.46E-03,1.49E-02
38860,6.43E-03,1.50E-02
38861,6.50E-03,1.48E-02
38862,6.48E-03,1.48E-02
38863,6.54E-03,1.46E-02
38864,6.52E-03,1.47E-02
38865,6.52E-03,1.45E-02
38866,6.55E-03,1.46E-02
38867,6.43E-03,1.44E-02
38868,6.48E-03,1.44E-02
38869,6.32E-03,1.42E-02
38870,6.38E-03,1.43E-02
38871,6.18E-03,1.41E-02
38872,6.26E-03,1.41E-02
38873,5.91E-03,1.39E-02
38874,6.06E-03,1.40E-02
38875,5.63E-03,1.38E-02
38876,5.76E-03,1.39E-02
38877,5.45E-03,1.37E-02
38878,5.50E-03,1.37E-02
38879,5.59E-03,1.35E-02
38880,5.52E-03,1.36E-02
38881,5.48E-03,1.34E-02
38882,5.51E-03,1.35E-02
38883,7.74E-03,1.33E-02
38884,6.42E-03,1.34E-02
38885,9.85E-03,1.31E-02
38886,8.62E-03,1.32E-02
38887,9.51E-03,1.28E-02
38888,1.12E-02,1.29E-02
38889,9.77E-03,1.26E-02
38890,9.58E-03,1.27E-02
38891,9.74E-03,1.24E-02
38892,9.85E-03,1.25E-02
38893,8.01E-03,8.27E-03
38894,6.09E-03,8.16E-03
38895,7.12E-03,8.27E-03
38896,7.76E-03,8.28E-03
38897,5.71E-03,5.69E-03
38898,6.17E-03,5.64E-03
38899,5.57E-03,5.66E-03
38900,5.84E-03,5.74E-03
38901,5.82E-03,5.71E-03
38902,6.21E-03,5.79E-03
38903,6.05E-03,5.76E-03
38904,6.64E-03,5.84E-03
38905,6.49E-03,5.81E-03
38906,6.95E-03,5.90E-03
38907,6.81E-03,5.87E-03
38908,7.63E-03,5.96E-03
38909,7.38E-03,5.93E-03
38910,7.78E-03,6.02E-03
38911,7.63E-03,5.99E-03
38912,7.75E-03,6.08E-03
38913,7.78E-03,6.05E-03
38914,7.69E-03,6.14E-03
38915,7.72E-03,6.11E-03
38916,7.58E-03,6.19E-03
38917,7.64E-03,6.17E-03
38918,7.44E-03,6.25E-03
38919,7.51E-03,6.22E-03
38920,7.32E-03,6.30E-03
38921,7.37E-03,6.27E-03
38922,7.25E-03,6.34E-03
38923,7.29E-03,6.32E-03
38924,7.18E-03,6.39E-03
38925,7.21E-03,6.37E-03
38926,7.10E-03,6.44E-03
38927,7.14E-03,6.42E-03
38928,7.02E-03,6.49E-03
38929,7.07E-03,6.47E-03
38930,6.87E-03,6.54E-03
38931,6.95E-03,6.52E-03
38932,6.72E-03,6.59E-03
38933,6.80E-03,6.57E-03
38934,6.57E-03,6.64E-03
38935,6.64E-03,6.62E-03
38936,6.40E-03,6.69E-03
38937,6.49E-03,6.67E-03
38938,6.23E-03,6.75E-03
38939,6.32E-03,6.72E-03
38940,6.01E-03,6.80E-03
38941,6.13E-03,6.77E-03
38942,5.65E-03,6.86E-03
38943,5.84E-03,6.83E-03
38944,5.31E-03,6.91E-03
38945,5.46E-03,6.89E-03
38946,5.11E-03,6.97E-03
38947,5.20E-03,6.94E-03
38948,4.95E-03,7.03E-03
38949,5.02E-03,7.00E-03
38950,4.85E-03,7.09E-03
38951,4.90E-03,7.06E-03
38952,4.83E-03,7.16E-03
38953,4.82E-03,7.12E-03
38954,4.91E-03,7.23E-03
38955,4.87E-03,7.19E-03
38956,4.99E-03,7.30E-03
38957,4.95E-03,7.27E-03
38958,5.05E-03,7.38E-03
38959,5.02E-03,7.34E-03
38960,5.07E-03,7.47E-03
38961,5.06E-03,7.43E-03
38962,5.09E-03,7.56E-03
38963,5.08E-03,7.52E-03
38964,5.14E-03,7.66E-03
38965,5.09E-03,7.61E-03
38966,5.51E-03,7.76E-03
38967,5.29E-03,7.71E-03
38968,5.95E-03,7.87E-03
38969,5.73E-03,7.81E-03
38970,6.30E-03,8.00E-03
38971,6.15E-03,7.93E-03
38972,6.57E-03,8.13E-03
38973,6.44E-03,8.06E-03
38974,6.85E-03,8.27E-03
38975,6.71E-03,8.20E-03
38976,7.34E-03,8.42E-03
38977,7.06E-03,8.34E-03
38978,7.91E-03,8.58E-03
38979,7.60E-03,8.49E-03
38980,8.22E-03,8.74E-03
38981,8.22E-03,8.66E-03
38982,9.77E-03,8.92E-03
38983,8.35E-03,8.83E-03
38984,9.89E-03,9.11E-03
38985,9.95E-03,9.02E-03
38986,8.70E-03,9.30E-03
38987,9.49E-03,9.21E-03
38988,8.30E-03,2.23E-02
38989,8.29E-03,2.26E-02
38990,7.53E-03,2.31E-02
38991,7.36E-03,2.29E-02
38992,8.30E-03,2.38E-02
38993,8.00E-03,2.36E-02
38994,7.67E-03,2.33E-02
38995,8.02E-03,1.18E-02
38996,7.63E-03,1.17E-02
38997,3.81E-03,1.11E-02
38998,8.48E-03,1.11E-02
38999,4.28E-03,1.11E-02
39000,4.17E-03,1.11E-02
39001,4.64E-03,1.11E-02
39002,4.50E-03,1.11E-02
39003,4.88E-03,1.11E-02
39004,4.88E-03,1.11E-02
39005,4.92E-03,1.11E-02
39006,4.95E-03,1.11E-02
39007,4.88E-03,1.10E-02
39008,4.65E-03,1.10E-02
39009,7.20E-03,1.10E-02
39010,5.92E-03,1.10E-02
39011,8.91E-03,1.10E-02
39012,7.57E-03,1.10E-02
39013,9.13E-03,1.09E-02
39014,8.98E-03,1.09E-02
39015,1.01E-02,1.08E-02
39016,9.37E-03,1.09E-02
39017,1.19E-02,1.07E-02
39018,1.15E-02,7.05E-03
39019,8.87E-03,7.18E-03
39020,9.65E-03,6.78E-03
39021,1.10E-02,6.91E-03
39022,9.03E-03,6.53E-03
39023,9.52E-03,6.65E-03
39024,7.38E-03,6.32E-03
39025,8.30E-03,6.42E-03
39026,5.80E-03,6.17E-03
39027,5.94E-03,6.24E-03
39028,5.19E-03,6.04E-03
39029,5.42E-03,6.10E-03
39030,4.71E-03,5.93E-03
39031,4.87E-03,5.99E-03
39032,4.36E-03,5.84E-03
39033,4.57E-03,5.88E-03
39034,3.69E-03,5.77E-03
39035,4.03E-03,5.81E-03
39036,3.46E-03,5.71E-03
39037,3.48E-03,5.74E-03
39038,3.59E-03,5.66E-03
39039,3.42E-03,5.68E-03
39040,5.70E-03,5.63E-03
39041,6.19E-03,8.55E-03
39042,8.17E-03,8.42E-03
39043,6.91E-03,8.51E-03
39044,7.78E-03,1.51E-02
39045,4.73E-03,1.50E-02
39046,7.40E-03,1.50E-02
39047,7.77E-03,2.68E-02
39048,9.80E-03,1.22E-02
39049,9.26E-03,1.21E-02
39050,8.51E-03,1.20E-02
39051,8.25E-03,1.19E-02
39052,6.59E-03,1.01E-02
39053,7.88E-03,9.09E-03
39054,9.38E-03,8.77E-03
39055,1.04E-02,8.43E-03
39056,8.88E-03,8.10E-03
39057,8.71E-03,1.74E-02
39058,7.62E-03,1.75E-02
39059,7.77E-03,9.41E-03
39060,4.98E-03,9.28E-03
39061,6.28E-03,9.12E-03
39062,8.29E-03,8.91E-03
39063,8.09E-03,8.67E-03
39064,8.09E-03,8.44E-03
39065,8.09E-03,8.20E-03
39066,8.09E-03,7.97E-03
39067,8.09E-03,7.74E-03
39068,8.09E-03,7.51E-03
39069,8.09E-03,7.28E-03
39070,8.09E-03,7.06E-03
39071,8.09E-03,6.83E-03
39072,8.09E-03,6.61E-03
39073,8.09E-03,6.40E-03
39074,8.09E-03,6.18E-03
39075,8.09E-03,5.98E-03
39076,8.09E-03,5.78E-03
39077,8.09E-03,5.58E-03
39078,8.09E-03,5.39E-03
39079,8.09E-03,5.21E-03
39080,8.09E-03,5.04E-03
39081,8.09E-03,4.87E-03
39082,8.09E-03,4.72E-03
39083,8.09E-03,4.58E-03
39084,8.09E-03,4.45E-03
39085,8.09E-03,4.33E-03
39086,8.09E-03,4.23E-03
39087,8.09E-03,4.14E-03
39088,8.09E-03,4.07E-03
39089,8.09E-03,4.01E-03
39090,8.09E-03,3.97E-03
39091,8.09E-03,3.94E-03
39092,8.09E-03,3.94E-03
39093,8.09E-03,3.94E-03
39094,8.09E-03,3.97E-03
39095,8.09E-03,4.01E-03
39096,8.09E-03,4.06E-03
39097,8.09E-03,4.13E-03
39098,8.09E-03,4.20E-03
39099,8.09E-03,4.29E-03
39100,8.09E-03,4.39E-03
39101,8.09E-03,4.50E-03
39102,8.09E-03,4.62E-03
39103,8.09E-03,4.74E-03
39104,8.09E-03,4.87E-03
39105,8.09E-03,5.00E-03
39106,8.09E-03,5.14E-03
39107,8.09E-03,5.28E-03
39108,8.09E-03,5.43E-03
39109,8.09E-03,5.58E-03
39110,8.09E-03,5.72E-03
39111,8.09E-03,5.87E-03
39112,8.09E-03,6.03E-03
39113,8.09E-03,6.18E-03
39114,8.09E-03,6.33E-03
39115,8.09E-03,6.48E-03
39116,8.09E-03,6.63E-03
39117,8.09E-03,6.78E-03
39118,8.09E-03,6.93E-03
39119,8.09E-03,7.08E-03
39120,8.09E-03,7.22E-03
39121,8.19E-03,7.37E-03
39122,8.22E-03,7.51E-03
39123,8.22E-03,7.66E-03
39124,8.25E-03,7.80E-03
39125,8.46E-03,7.95E-03
39126,8.42E-03,8.08E-03
39127,8.47E-03,8.22E-03
39128,7.93E-03,8.37E-03
39129,9.40E-03,8.68E-03
39130,9.44E-03,8.59E-03
39131,9.86E-03,8.51E-03
39132,1.07E-02,8.41E-03
39133,1.09E-02,8.32E-03
39134,1.10E-02,8.24E-03
39135,1.10E-02,8.16E-03
39136,1.11E-02,8.08E-03
39137,1.11E-02,8.02E-03
39138,1.09E-02,7.96E-03
39139,1.08E-02,7.92E-03
39140,1.06E-02,7.88E-03
39141,1.03E-02,7.84E-03
39142,9.99E-03,7.82E-03
39143,9.73E-03,7.80E-03
39144,9.56E-03,7.79E-03
39145,9.44E-03,7.78E-03
39146,9.32E-03,7.77E-03
39147,9.21E-03,7.77E-03
39148,9.12E-03,7.78E-03
39149,9.04E-03,7.78E-03
39150,8.95E-03,7.80E-03
39151,8.80E-03,7.81E-03
39152,8.73E-03,7.83E-03
39153,8.61E-03,7.85E-03
39154,8.47E-03,7.87E-03
39155,8.36E-03,7.90E-03
39156,8.33E-03,7.93E-03
39157,8.21E-03,7.96E-03
39158,8.19E-03,8.00E-03
39159,8.04E-03,8.04E-03
39160,7.87E-03,8.07E-03
39161,7.70E-03,8.11E-03
39162,7.43E-03,8.16E-03
39163,7.35E-03,8.20E-03
39164,7.30E-03,8.25E-03
39165,7.27E-03,8.30E-03
39166,7.08E-03,8.36E-03
39167,6.38E-03,8.43E-03
39168,4.90E-03,8.53E-03
39169,8.48E-03,1.76E-02
39170,7.63E-03,1.76E-02
39171,7.50E-03,1.75E-02
39172,7.47E-03,1.74E-02
39173,1.02E-02,1.74E-02
39174,1.01E-02,1.73E-02
39175,1.03E-02,1.73E-02
39176,9.26E-03,1.72E-02
39177,8.62E-03,1.71E-02
39178,7.98E-03,1.71E-02
39179,8.44E-03,7.85E-03
39180,8.78E-03,7.81E-03
39181,4.50E-03,7.77E-03
39182,4.70E-03,7.76E-03
39183,4.21E-03,7.75E-03
39184,4.39E-03,7.74E-03
39185,4.89E-03,7.71E-03
39186,5.24E-03,7.69E-03
39187,5.42E-03,7.65E-03
39188,6.27E-03,7.62E-03
39189,6.49E-03,7.57E-03
39190,6.63E-03,7.52E-03
39191,6.75E-03,7.48E-03
39192,6.88E-03,7.43E-03
39193,7.00E-03,7.38E-03
39194,7.13E-03,7.33E-03
39195,7.25E-03,7.28E-03
39196,7.36E-03,7.23E-03
39197,7.43E-03,7.18E-03
39198,7.46E-03,7.13E-03
39199,7.49E-03,7.08E-03
39200,7.52E-03,7.04E-03
39201,7.55E-03,6.99E-03
39202,7.58E-03,6.95E-03
39203,7.61E-03,6.92E-03
39204,7.64E-03,6.88E-03
39205,7.67E-03,6.85E-03
39206,7.70E-03,6.83E-03
39207,7.72E-03,6.81E-03
39208,7.74E-03,6.79E-03
39209,7.76E-03,6.78E-03
39210,7.78E-03,6.78E-03
39211,7.80E-03,6.78E-03
39212,7.82E-03,6.79E-03
39213,7.83E-03,6.80E-03
39214,7.85E-03,6.83E-03
39215,7.86E-03,6.86E-03
39216,7.88E-03,6.90E-03
39217,7.89E-03,6.94E-03
39218,7.90E-03,7.00E-03
39219,7.92E-03,7.06E-03
39220,7.92E-03,7.13E-03
39221,7.92E-03,7.20E-03
39222,7.92E-03,7.29E-03
39223,7.92E-03,7.38E-03
39224,7.92E-03,7.48E-03
39225,7.92E-03,7.58E-03
39226,7.92E-03,7.69E-03
39227,7.91E-03,7.81E-03
39228,7.90E-03,7.93E-03
39229,7.88E-03,8.06E-03
39230,7.86E-03,8.19E-03
39231,7.84E-03,8.33E-03
39232,7.82E-03,8.47E-03
39233,7.80E-03,8.61E-03
39234,7.78E-03,8.75E-03
39235,7.76E-03,8.90E-03
39236,7.74E-03,9.05E-03
39237,7.72E-03,9.21E-03
39238,7.69E-03,9.36E-03
39239,7.64E-03,9.52E-03
39240,7.59E-03,9.68E-03
39241,7.53E-03,9.83E-03
39242,7.48E-03,9.99E-03
39243,7.43E-03,1.02E-02
39244,7.38E-03,1.03E-02
39245,7.32E-03,1.05E-02
39246,7.27E-03,1.06E-02
39247,7.23E-03,1.08E-02
39248,7.19E-03,1.09E-02
39249,7.16E-03,1.11E-02
39250,7.12E-03,1.12E-02
39251,7.09E-03,1.14E-02
39252,7.05E-03,1.16E-02
39253,7.01E-03,1.17E-02
39254,6.96E-03,1.19E-02
39255,6.91E-03,1.20E-02
39256,6.85E-03,1.22E-02
39257,6.80E-03,1.23E-02
39258,6.74E-03,1.25E-02
39259,6.65E-03,1.26E-02
39260,6.55E-03,1.27E-02
39261,6.44E-03,1.29E-02
39262,6.34E-03,1.30E-02
39263,6.24E-03,1.31E-02
39264,6.19E-03,1.33E-02
39265,6.18E-03,1.34E-02
39266,6.17E-03,1.35E-02
39267,6.18E-03,1.37E-02
39268,6.21E-03,1.38E-02
39269,6.25E-03,1.39E-02
39270,6.29E-03,1.41E-02
39271,6.32E-03,1.42E-02
39272,6.34E-03,1.43E-02
39273,6.37E-03,1.45E-02
39274,6.40E-03,1.46E-02
39275,6.42E-03,1.47E-02
39276,6.45E-03,1.49E-02
39277,6.48E-03,1.50E-02
39278,6.50E-03,1.51E-02
39279,6.52E-03,1.53E-02
39280,6.55E-03,1.54E-02
39281,6.57E-03,1.56E-02
39282,6.60E-03,1.57E-02
39283,6.63E-03,1.58E-02
39284,6.65E-03,1.60E-02
39285,6.66E-03,1.61E-02
39286,6.89E-03,1.63E-02
39287,7.03E-03,1.64E-02
39288,7.17E-03,1.66E-02
39289,7.34E-03,1.67E-02
39290,7.64E-03,1.69E-02
39291,7.50E-03,1.71E-02
39292,7.24E-03,7.90E-03
39293,7.27E-03,7.94E-03
39294,6.39E-03,7.96E-03
39295,1.01E-02,7.82E-03
39296,9.56E-03,7.87E-03
39297,9.77E-03,7.89E-03
39298,9.88E-03,7.92E-03
39299,9.88E-03,7.95E-03
39300,9.56E-03,7.99E-03
39301,9.43E-03,8.03E-03
39302,9.31E-03,8.08E-03
39303,8.39E-03,8.12E-03
39304,8.12E-03,8.15E-03
39305,7.77E-03,8.19E-03
39306,7.72E-03,8.23E-03
39307,7.56E-03,8.27E-03
39308,7.51E-03,8.30E-03
39309,6.75E-03,8.34E-03
39310,6.68E-03,8.36E-03
39311,6.66E-03,8.40E-03
39312,6.32E-03,8.44E-03
39313,5.98E-03,8.46E-03
39314,5.36E-03,8.49E-03
39315,5.75E-03,8.60E-03
39316,6.84E-03,8.59E-03
39317,8.09E-03,1.11E-02
39318,8.09E-03,1.09E-02
39319,8.09E-03,1.08E-02
39320,8.09E-03,1.07E-02
39321,8.09E-03,1.05E-02
39322,8.09E-03,1.04E-02
39323,8.09E-03,1.02E-02
39324,8.09E-03,1.01E-02
39325,8.09E-03,9.92E-03
39326,8.09E-03,9.77E-03
39327,8.09E-03,9.62E-03
39328,8.09E-03,9.46E-03
39329,8.09E-03,9.31E-03
39330,8.09E-03,9.15E-03
39331,8.09E-03,9.00E-03
39332,8.09E-03,8.84E-03
39333,8.09E-03,8.68E-03
39334,8.09E-03,8.52E-03
39335,8.09E-03,8.35E-03
39336,8.09E-03,8.19E-03
39337,8.09E-03,8.03E-03
39338,8.09E-03,7.87E-03
39339,8.09E-03,7.71E-03
39340,8.09E-03,7.55E-03
39341,8.09E-03,7.39E-03
39342,8.09E-03,7.23E-03
39343,8.09E-03,7.07E-03
39344,8.09E-03,6.91E-03
39345,8.09E-03,6.76E-03
39346,8.09E-03,6.60E-03
39347,8.09E-03,6.45E-03
39348,8.09E-03,6.30E-03
39349,8.09E-03,6.16E-03
39350,8.09E-03,6.02E-03
39351,8.09E-03,5.89E-03
39352,8.09E-03,5.76E-03
39353,8.09E-03,5.63E-03
39354,8.09E-03,5.51E-03
39355,8.09E-03,5.40E-03
39356,8.09E-03,5.30E-03
39357,8.09E-03,5.21E-03
39358,8.09E-03,5.12E-03
39359,8.09E-03,5.05E-03
39360,8.09E-03,4.98E-03
39361,8.09E-03,4.93E-03
39362,8.09E-03,4.89E-03
39363,8.09E-03,4.86E-03
39364,8.09E-03,4.85E-03
39365,8.09E-03,4.85E-03
39366,8.09E-03,4.86E-03
39367,8.09E-03,4.89E-03
39368,8.09E-03,4.93E-03
39369,8.09E-03,4.99E-03
39370,8.09E-03,5.05E-03
39371,8.09E-03,5.14E-03
39372,8.09E-03,5.23E-03
39373,8.09E-03,5.34E-03
39374,8.09E-03,5.46E-03
39375,8.09E-03,5.59E-03
39376,8.09E-03,5.73E-03
39377,8.09E-03,5.88E-03
39378,8.09E-03,6.04E-03
39379,8.09E-03,6.21E-03
39380,8.09E-03,6.39E-03
39381,8.09E-03,6.57E-03
39382,8.15E-03,6.77E-03
39383,8.20E-03,6.98E-03
39384,8.24E-03,7.19E-03
39385,8.15E-03,7.40E-03
39386,7.81E-03,7.61E-03
39387,7.53E-03,7.81E-03
39388,7.31E-03,8.03E-03
39389,7.28E-03,8.28E-03
39390,8.09E-03,8.53E-03
39391,6.66E-03,8.72E-03
39392,8.56E-03,2.79E-02
39393,5.97E-03,2.83E-02
39394,6.80E-03,1.36E-02
39395,6.37E-03,1.35E-02
39396,6.58E-03,1.33E-02
39397,6.78E-03,1.01E-02
39398,7.09E-03,1.05E-02
39399,6.16E-03,7.71E-03
39400,8.22E-03,1.23E-02
39401,4.09E-03,1.52E-02
39402,6.70E-03,1.52E-02
39403,6.94E-03,1.77E-02
39404,8.25E-03,1.01E-02
39405,6.66E-03,1.17E-02
39406,7.12E-03,9.73E-03
39407,8.99E-03,1.74E-02
39408,8.32E-03,1.75E-02
39409,7.93E-03,1.75E-02
39410,7.36E-03,2.87E-02
39411,7.19E-03,2.87E-02
39412,7.57E-03,2.87E-02
39413,8.10E-03,1.50E-02
39414,8.10E-03,1.52E-02
39415,8.66E-03,2.02E-02
39416,7.86E-03,1.42E-02
39417,7.49E-03,2.44E-02
39418,8.07E-03,1.00E-02
39419,4.58E-03,9.94E-03
39420,7.92E-03,2.78E-02
39421,7.29E-03,8.55E-03
39422,8.68E-03,2.20E-02
39423,7.86E-03,1.02E-02
39424,4.98E-03,1.06E-02
39425,5.91E-03,1.08E-02
39426,7.46E-03,2.83E-02
39427,8.10E-03,1.49E-02
39428,8.10E-03,1.52E-02
39429,7.82E-03,1.43E-02
39430,4.29E-03,2.88E-02
39431,7.58E-03,1.06E-02
39432,7.38E-03,9.45E-03
39433,7.39E-03,2.58E-02
39434,7.02E-03,2.61E-02
39435,6.72E-03,2.65E-02
39436,8.10E-03,1.12E-02
39437,7.87E-03,9.61E-03
39438,4.60E-03,1.20E-02
39439,5.54E-03,1.18E-02
39440,6.34E-03,2.67E-02
39441,7.75E-03,9.83E-03
39442,8.58E-03,8.36E-03
39443,7.97E-03,8.13E-03
39444,8.10E-03,1.14E-02
39445,6.48E-03,8.87E-03
39446,6.78E-03,8.80E-03
39447,6.66E-03,1.79E-02
39448,8.10E-03,1.48E-02
39449,8.10E-03,1.52E-02
39450,7.79E-03,1.44E-02
39451,6.30E-03,2.06E-02
39452,5.63E-03,2.10E-02
39453,6.24E-03,2.12E-02
39454,7.56E-03,2.14E-02
39455,8.26E-03,2.17E-02
39456,7.69E-03,2.69E-02
39457,6.52E-03,9.85E-03
39458,6.15E-03,9.54E-03
39459,7.53E-03,1.27E-02
39460,8.77E-03,1.30E-02
39461,8.10E-03,1.17E-02
39462,8.10E-03,1.15E-02
39463,8.28E-03,1.79E-02
39464,7.15E-03,1.80E-02
39465,6.99E-03,1.80E-02
39466,8.10E-03,1.47E-02
39467,8.10E-03,1.52E-02
39468,8.10E-03,1.45E-02
39469,8.05E-03,1.35E-02
39470,8.10E-03,1.46E-02
39471,8.10E-03,1.52E-02
39472,8.10E-03,1.45E-02
39473,8.10E-03,1.19E-02
39474,8.10E-03,1.20E-02
39475,8.10E-03,1.45E-02
39476,8.10E-03,1.52E-02
39477,8.10E-03,1.46E-02
39478,8.10E-03,1.23E-02
39479,8.10E-03,1.22E-02
39480,7.92E-03,1.16E-02
39481,8.10E-03,1.44E-02
39482,8.15E-03,1.52E-02
39483,8.10E-03,1.47E-02
39484,8.10E-03,1.43E-02
39485,7.98E-03,1.52E-02
39486,8.10E-03,1.47E-02
39487,8.10E-03,1.42E-02
39488,7.92E-03,1.53E-02
39489,7.83E-03,1.52E-02
39490,8.10E-03,1.48E-02
39491,8.10E-03,1.25E-02
39492,8.10E-03,1.41E-02
39493,8.10E-03,1.49E-02
39494,8.10E-03,1.40E-02
39495,8.10E-03,1.49E-02
39496,8.10E-03,1.27E-02
39497,8.10E-03,1.26E-02
39498,8.10E-03,1.29E-02
39499,8.10E-03,1.39E-02
39500,5.67E-03,1.51E-02
39501,5.99E-03,1.51E-02
39502,8.10E-03,1.50E-02
39503,8.10E-03,1.30E-02
39504,8.10E-03,1.38E-02
39505,8.20E-03,1.50E-02
39506,8.10E-03,1.37E-02
39507,8.11E-03,1.51E-02
39508,8.10E-03,1.35E-02
39509,8.10E-03,1.34E-02
39510,8.10E-03,1.33E-02
39511,8.10E-03,1.32E-02
39512,9.73E-03,1.22E-02
39513,9.58E-03,1.19E-02
39514,8.59E-03,1.50E-02
39515,9.08E-03,2.70E-02
39516,8.91E-03,8.48E-03
39517,1.02E-02,9.22E-03
39518,8.18E-03,1.18E-02
39519,6.14E-03,1.18E-02
39520,8.51E-03,1.17E-02
39521,7.18E-03,9.85E-03
39522,8.31E-03,8.81E-03
39523,8.36E-03,8.56E-03
39524,7.83E-03,8.29E-03
39525,6.26E-03,1.77E-02
39526,5.07E-03,9.24E-03
39527,6.35E-03,9.08E-03
39528,8.28E-03,8.88E-03
39529,8.09E-03,8.64E-03
39530,8.09E-03,8.41E-03
39531,8.09E-03,8.17E-03
39532,8.09E-03,7.94E-03
39533,8.09E-03,7.71E-03
39534,8.09E-03,7.48E-03
39535,8.09E-03,7.26E-03
39536,8.09E-03,7.03E-03
39537,8.09E-03,6.81E-03
39538,8.09E-03,6.59E-03
39539,8.09E-03,6.37E-03
39540,8.09E-03,6.16E-03
39541,8.09E-03,5.96E-03
39542,8.09E-03,5.76E-03
39543,8.09E-03,5.56E-03
39544,8.09E-03,5.37E-03
39545,8.09E-03,5.19E-03
39546,8.09E-03,5.02E-03
39547,8.09E-03,4.85E-03
39548,8.09E-03,4.70E-03
39549,8.09E-03,4.56E-03
39550,8.09E-03,4.43E-03
39551,8.09E-03,4.31E-03
39552,8.09E-03,4.20E-03
39553,8.09E-03,4.12E-03
39554,8.09E-03,4.04E-03
39555,8.09E-03,3.98E-03
39556,8.09E-03,3.94E-03
39557,8.09E-03,3.91E-03
39558,8.09E-03,3.91E-03
39559,8.09E-03,3.91E-03
39560,8.09E-03,3.94E-03
39561,8.09E-03,3.97E-03
39562,8.09E-03,4.03E-03
39563,8.09E-03,4.09E-03
39564,8.09E-03,4.17E-03
39565,8.09E-03,4.26E-03
39566,8.09E-03,4.36E-03
39567,8.09E-03,4.47E-03
39568,8.09E-03,4.58E-03
39569,8.09E-03,4.71E-03
39570,8.09E-03,4.84E-03
39571,8.09E-03,4.97E-03
39572,8.09E-03,5.11E-03
39573,8.09E-03,5.25E-03
39574,8.09E-03,5.40E-03
39575,8.09E-03,5.54E-03
39576,8.09E-03,5.69E-03
39577,8.09E-03,5.84E-03
39578,8.09E-03,6.00E-03
39579,8.09E-03,6.15E-03
39580,8.09E-03,6.30E-03
39581,8.09E-03,6.45E-03
39582,8.09E-03,6.61E-03
39583,8.09E-03,6.76E-03
39584,8.09E-03,6.91E-03
39585,8.09E-03,7.06E-03
39586,8.09E-03,7.21E-03
39587,8.09E-03,7.35E-03
39588,8.16E-03,7.50E-03
39589,8.21E-03,7.64E-03
39590,8.26E-03,7.79E-03
39591,8.28E-03,7.93E-03
39592,8.33E-03,8.07E-03
39593,8.09E-03,8.21E-03
39594,7.73E-03,8.34E-03
39595,7.05E-03,8.47E-03
39596,6.28E-03,8.59E-03
39597,5.87E-03,8.73E-03
39598,9.17E-03,1.78E-02
39599,8.00E-03,1.78E-02
39600,7.63E-03,1.77E-02
39601,7.44E-03,1.76E-02
39602,1.04E-02,1.75E-02
39603,1.04E-02,1.75E-02
39604,9.92E-03,1.74E-02
39605,8.44E-03,1.74E-02
39606,8.31E-03,1.73E-02
39607,7.98E-03,1.73E-02
39608,7.22E-03,1.72E-02
39609,1.03E-02,8.03E-03
39610,9.91E-03,8.08E-03
39611,9.86E-03,8.13E-03
39612,9.80E-03,8.16E-03
39613,9.78E-03,8.20E-03
39614,9.57E-03,8.23E-03
39615,9.49E-03,8.28E-03
39616,9.33E-03,8.32E-03
39617,8.45E-03,8.36E-03
39618,8.09E-03,8.40E-03
39619,7.83E-03,8.44E-03
39620,7.80E-03,8.48E-03
39621,7.67E-03,8.52E-03
39622,7.56E-03,8.56E-03
39623,6.60E-03,8.60E-03
39624,6.60E-03,8.63E-03
39625,6.47E-03,8.66E-03
39626,6.23E-03,8.68E-03
39627,5.97E-03,8.71E-03
39628,5.72E-03,8.74E-03
39629,5.54E-03,8.75E-03
39630,5.75E-03,8.79E-03
39631,6.00E-03,8.81E-03
39632,6.72E-03,8.85E-03
39633,5.88E-03,8.86E-03
39634,4.82E-03,8.92E-03
39635,7.81E-03,8.17E-03
39636,7.30E-03,8.22E-03
39637,7.21E-03,2.83E-02
39638,6.83E-03,1.38E-02
39639,6.48E-03,1.41E-02
39640,5.40E-03,1.43E-02
39641,5.00E-03,1.45E-02
39642,4.46E-03,1.47E-02
39643,3.73E-03,1.49E-02
39644,3.40E-03,1.51E-02
39645,3.67E-03,1.53E-02
39646,4.23E-03,1.55E-02
39647,4.61E-03,1.57E-02
39648,4.82E-03,1.59E-02
39649,5.01E-03,1.62E-02
39650,5.21E-03,1.64E-02
39651,5.40E-03,1.67E-02
39652,5.48E-03,1.70E-02
39653,5.46E-03,1.73E-02
39654,5.43E-03,1.76E-02
39655,5.40E-03,1.80E-02
39656,5.29E-03,1.83E-02
39657,5.22E-03,1.86E-02
39658,5.07E-03,1.89E-02
39659,4.96E-03,1.92E-02
39660,5.00E-03,1.95E-02
39661,5.27E-03,1.99E-02
39662,6.79E-03,2.04E-02
39663,5.41E-03,1.36E-02
39664,6.43E-03,1.02E-02
39665,5.86E-03,1.03E-02
39666,7.79E-03,1.19E-02
39667,8.64E-03,1.20E-02
39668,5.47E-03,1.20E-02
39669,7.86E-03,1.75E-02
39670,5.63E-03,2.89E-02
39671,7.66E-03,2.90E-02
39672,6.69E-03,2.90E-02
39673,7.91E-03,2.91E-02
39674,8.10E-03,1.50E-02
39675,8.10E-03,1.52E-02
39676,7.98E-03,1.99E-02
39677,7.98E-03,1.40E-02
39678,6.03E-03,1.03E-02
39679,5.24E-03,1.04E-02
39680,5.46E-03,2.44E-02
39681,5.94E-03,9.91E-03
39682,4.63E-03,9.80E-03
39683,5.70E-03,9.70E-03
39684,8.68E-03,2.77E-02
39685,7.22E-03,1.20E-02
39686,6.38E-03,1.20E-02
39687,9.45E-03,1.22E-02
39688,7.99E-03,1.77E-02
39689,9.12E-03,1.76E-02
39690,6.59E-03,1.05E-02
39691,8.04E-03,8.54E-03
39692,8.32E-03,2.24E-02
39693,8.23E-03,2.27E-02
39694,1.04E-02,1.14E-02
39695,9.99E-03,1.13E-02
39696,1.06E-02,1.11E-02
39697,1.06E-02,1.10E-02
39698,1.07E-02,1.08E-02
39699,1.08E-02,1.07E-02
39700,1.06E-02,1.05E-02
39701,1.03E-02,1.04E-02
39702,8.46E-03,1.03E-02
39703,7.00E-03,1.02E-02
39704,7.31E-03,1.00E-02
39705,6.86E-03,9.86E-03
39706,6.02E-03,1.07E-02
39707,6.54E-03,8.77E-03
39708,5.85E-03,9.30E-03
39709,5.76E-03,9.26E-03
39710,5.03E-03,9.24E-03
39711,9.15E-03,2.37E-02
39712,6.84E-03,1.18E-02
39713,6.61E-03,1.37E-02
39714,9.18E-03,2.79E-02
39715,8.37E-03,2.78E-02
39716,8.14E-03,2.78E-02
39717,7.85E-03,2.77E-02
39718,7.69E-03,2.75E-02
39719,7.52E-03,2.74E-02
39720,7.29E-03,2.73E-02
39721,6.91E-03,2.72E-02
39722,6.52E-03,2.70E-02
39723,6.07E-03,2.69E-02
39724,5.61E-03,2.67E-02
39725,5.24E-03,2.66E-02
39726,4.82E-03,2.65E-02
39727,4.15E-03,2.63E-02
39728,3.86E-03,2.62E-02
39729,3.44E-03,2.60E-02
39730,2.92E-03,2.59E-02
39731,3.11E-03,2.57E-02
39732,3.49E-03,2.56E-02
39733,3.88E-03,2.54E-02
39734,4.73E-03,2.52E-02
39735,4.75E-03,2.50E-02
39736,4.90E-03,2.48E-02
39737,5.16E-03,2.46E-02
39738,5.23E-03,2.43E-02
39739,5.29E-03,2.41E-02
39740,5.28E-03,2.38E-02
39741,5.22E-03,2.35E-02
39742,5.15E-03,2.33E-02
39743,5.08E-03,2.30E-02
39744,4.90E-03,2.27E-02
39745,4.83E-03,2.25E-02
39746,4.68E-03,2.22E-02
39747,6.91E-03,2.18E-02
39748,6.76E-03,2.14E-02
39749,7.13E-03,2.09E-02
39750,5.95E-03,2.06E-02
39751,7.60E-03,1.32E-02
39752,5.11E-03,1.23E-02
39753,7.82E-03,1.77E-02
39754,6.96E-03,1.76E-02
39755,7.23E-03,2.86E-02
39756,6.99E-03,2.89E-02
39757,8.10E-03,1.49E-02
39758,8.10E-03,1.52E-02
39759,7.98E-03,2.03E-02
39760,7.85E-03,1.41E-02
39761,5.71E-03,2.88E-02
39762,6.00E-03,2.90E-02
39763,1.09E-02,1.07E-02
39764,1.13E-02,1.07E-02
39765,8.45E-03,1.08E-02
39766,7.18E-03,1.08E-02
39767,7.63E-03,9.16E-03
39768,6.88E-03,2.59E-02
39769,6.69E-03,2.62E-02
39770,6.88E-03,2.68E-02
39771,7.11E-03,8.23E-03
39772,8.09E-03,1.11E-02
39773,8.09E-03,1.10E-02
39774,8.09E-03,1.08E-02
39775,8.09E-03,1.07E-02
39776,8.09E-03,1.05E-02
39777,8.09E-03,1.04E-02
39778,8.09E-03,1.02E-02
39779,8.09E-03,1.01E-02
39780,8.09E-03,9.95E-03
39781,8.09E-03,9.79E-03
39782,8.09E-03,9.64E-03
39783,8.09E-03,9.49E-03
39784,8.09E-03,9.33E-03
39785,8.09E-03,9.17E-03
39786,8.09E-03,9.02E-03
39787,8.09E-03,8.86E-03
39788,8.09E-03,8.70E-03
39789,8.09E-03,8.54E-03
39790,8.09E-03,8.37E-03
39791,8.09E-03,8.21E-03
39792,8.09E-03,8.05E-03
39793,8.09E-03,7.89E-03
39794,8.09E-03,7.72E-03
39795,8.09E-03,7.56E-03
39796,8.09E-03,7.40E-03
39797,8.09E-03,7.24E-03
39798,8.09E-03,7.08E-03
39799,8.09E-03,6.92E-03
39800,8.09E-03,6.77E-03
39801,8.09E-03,6.61E-03
39802,8.09E-03,6.46E-03
39803,8.09E-03,6.31E-03
39804,8.09E-03,6.17E-03
39805,8.09E-03,6.03E-03
39806,8.09E-03,5.89E-03
39807,8.09E-03,5.76E-03
39808,8.09E-03,5.63E-03
39809,8.09E-03,5.51E-03
39810,8.09E-03,5.40E-03
39811,8.09E-03,5.30E-03
39812,8.09E-03,5.20E-03
39813,8.09E-03,5.11E-03
39814,8.09E-03,5.04E-03
39815,8.09E-03,4.97E-03
39816,8.09E-03,4.92E-03
39817,8.09E-03,4.87E-03
39818,8.09E-03,4.84E-03
39819,8.09E-03,4.83E-03
39820,8.09E-03,4.82E-03
39821,8.09E-03,4.83E-03
39822,8.09E-03,4.86E-03
39823,8.09E-03,4.90E-03
39824,8.09E-03,4.95E-03
39825,8.09E-03,5.02E-03
39826,8.09E-03,5.10E-03
39827,8.09E-03,5.19E-03
39828,8.09E-03,5.30E-03
39829,8.09E-03,5.41E-03
39830,8.09E-03,5.54E-03
39831,8.09E-03,5.68E-03
39832,8.09E-03,5.83E-03
39833,8.09E-03,5.99E-03
39834,8.09E-03,6.16E-03
39835,8.09E-03,6.33E-03
39836,8.09E-03,6.52E-03
39837,8.09E-03,6.71E-03
39838,8.16E-03,6.91E-03
39839,8.16E-03,7.12E-03
39840,8.00E-03,7.33E-03
39841,7.89E-03,7.54E-03
39842,7.66E-03,7.75E-03
39843,7.59E-03,7.98E-03
39844,7.68E-03,8.22E-03
39845,7.44E-03,8.45E-03
39846,7.07E-03,8.65E-03
39847,6.87E-03,8.89E-03
39848,7.45E-03,8.04E-03
39849,7.74E-03,8.03E-03
39850,4.34E-03,8.01E-03
39851,4.37E-03,8.02E-03
39852,4.33E-03,7.99E-03
39853,4.61E-03,7.97E-03
39854,4.75E-03,7.96E-03
39855,5.52E-03,7.92E-03
39856,5.57E-03,7.88E-03
39857,6.32E-03,7.84E-03
39858,6.54E-03,7.79E-03
39859,6.67E-03,7.74E-03
39860,6.79E-03,7.69E-03
39861,6.91E-03,7.64E-03
39862,7.03E-03,7.58E-03
39863,7.16E-03,7.53E-03
39864,7.28E-03,7.48E-03
39865,7.39E-03,7.42E-03
39866,7.45E-03,7.36E-03
39867,7.48E-03,7.31E-03
39868,7.51E-03,7.26E-03
39869,7.54E-03,7.20E-03
39870,7.57E-03,7.15E-03
39871,7.60E-03,7.11E-03
39872,7.62E-03,7.06E-03
39873,7.65E-03,7.02E-03
39874,7.68E-03,6.98E-03
39875,7.71E-03,6.95E-03
39876,7.73E-03,6.92E-03
39877,7.75E-03,6.90E-03
39878,7.77E-03,6.88E-03
39879,7.79E-03,6.87E-03
39880,7.81E-03,6.86E-03
39881,7.82E-03,6.86E-03
39882,7.84E-03,6.87E-03
39883,7.86E-03,6.89E-03
39884,7.87E-03,6.91E-03
39885,7.88E-03,6.94E-03
39886,7.90E-03,6.98E-03
39887,7.91E-03,7.03E-03
39888,7.92E-03,7.09E-03
39889,7.93E-03,7.15E-03
39890,7.93E-03,7.22E-03
39891,7.93E-03,7.30E-03
39892,7.93E-03,7.39E-03
39893,7.93E-03,7.48E-03
39894,7.93E-03,7.58E-03
39895,7.92E-03,7.69E-03
39896,7.92E-03,7.80E-03
39897,7.91E-03,7.92E-03
39898,7.89E-03,8.05E-03
39899,7.87E-03,8.18E-03
39900,7.85E-03,8.31E-03
39901,7.83E-03,8.45E-03
39902,7.81E-03,8.59E-03
39903,7.79E-03,8.74E-03
39904,7.77E-03,8.89E-03
39905,7.75E-03,9.04E-03
39906,7.73E-03,9.19E-03
39907,7.70E-03,9.35E-03
39908,7.65E-03,9.50E-03
39909,7.60E-03,9.66E-03
39910,7.55E-03,9.82E-03
39911,7.50E-03,9.98E-03
39912,7.45E-03,1.01E-02
39913,7.40E-03,1.03E-02
39914,7.35E-03,1.05E-02
39915,7.30E-03,1.06E-02
39916,7.26E-03,1.08E-02
39917,7.22E-03,1.09E-02
39918,7.19E-03,1.11E-02
39919,7.15E-03,1.12E-02
39920,7.12E-03,1.14E-02
39921,7.08E-03,1.15E-02
39922,7.04E-03,1.17E-02
39923,6.99E-03,1.18E-02
39924,6.94E-03,1.20E-02
39925,6.89E-03,1.21E-02
39926,6.84E-03,1.23E-02
39927,6.78E-03,1.24E-02
39928,6.69E-03,1.26E-02
39929,6.59E-03,1.27E-02
39930,6.49E-03,1.29E-02
39931,6.39E-03,1.30E-02
39932,6.30E-03,1.31E-02
39933,6.25E-03,1.33E-02
39934,6.23E-03,1.34E-02
39935,6.22E-03,1.35E-02
39936,6.23E-03,1.37E-02
39937,6.27E-03,1.38E-02
39938,6.31E-03,1.39E-02
39939,6.34E-03,1.41E-02
39940,6.37E-03,1.42E-02
39941,6.39E-03,1.43E-02
39942,6.42E-03,1.45E-02
39943,6.44E-03,1.46E-02
39944,6.47E-03,1.47E-02
39945,6.50E-03,1.49E-02
39946,6.52E-03,1.50E-02
39947,6.55E-03,1.51E-02
39948,6.57E-03,1.53E-02
39949,6.59E-03,1.54E-02
39950,6.62E-03,1.56E-02
39951,6.64E-03,1.57E-02
39952,6.67E-03,1.58E-02
39953,6.69E-03,1.60E-02
39954,6.70E-03,1.61E-02
39955,6.88E-03,1.63E-02
39956,7.03E-03,1.64E-02
39957,7.12E-03,1.66E-02
39958,7.16E-03,1.67E-02
39959,7.32E-03,1.69E-02
39960,7.17E-03,1.70E-02
39961,6.99E-03,1.72E-02
39962,7.90E-03,9.39E-03
39963,9.54E-03,8.83E-03
39964,1.01E-02,8.74E-03
39965,1.01E-02,8.65E-03
39966,1.07E-02,8.56E-03
39967,1.10E-02,8.46E-03
39968,1.10E-02,8.38E-03
39969,1.11E-02,8.30E-03
39970,1.12E-02,8.22E-03
39971,1.10E-02,8.16E-03
39972,1.09E-02,8.11E-03
39973,1.07E-02,8.06E-03
39974,1.05E-02,8.02E-03
39975,1.02E-02,7.99E-03
39976,9.93E-03,7.96E-03
39977,9.68E-03,7.94E-03
39978,9.52E-03,7.92E-03
39979,9.40E-03,7.91E-03
39980,9.28E-03,7.91E-03
39981,9.18E-03,7.91E-03
39982,9.09E-03,7.91E-03
39983,9.01E-03,7.92E-03
39984,8.93E-03,7.93E-03
39985,8.83E-03,7.94E-03
39986,8.72E-03,7.96E-03
39987,8.61E-03,7.98E-03
39988,8.49E-03,8.00E-03
39989,8.37E-03,8.03E-03
39990,8.27E-03,8.06E-03
39991,8.21E-03,8.09E-03
39992,8.19E-03,8.12E-03
39993,8.02E-03,8.16E-03
39994,7.94E-03,8.20E-03
39995,7.65E-03,8.24E-03
39996,7.38E-03,8.28E-03
39997,7.33E-03,8.32E-03
39998,7.28E-03,8.37E-03
39999,7.10E-03,8.41E-03
40000,6.68E-03,8.47E-03
40001,6.01E-03,8.53E-03
40002,4.77E-03,8.58E-03
40003,4.08E-03,8.63E-03
40004,6.10E-03,8.63E-03
40005,6.20E-03,8.86E-03
40006,5.04E-03,1.23E-02
40007,6.93E-03,2.69E-02
40008,7.80E-03,9.58E-03
40009,6.62E-03,1.03E-02
40010,8.10E-03,1.13E-02
40011,7.77E-03,8.79E-03
40012,7.73E-03,2.81E-02
40013,6.34E-03,1.79E-02
40014,8.10E-03,1.48E-02
40015,8.10E-03,1.52E-02
40016,7.88E-03,1.42E-02
40017,7.32E-03,2.15E-02
40018,8.21E-03,2.18E-02
40019,8.44E-03,2.20E-02
40020,7.35E-03,2.71E-02
40021,6.55E-03,9.99E-03
40022,6.41E-03,9.79E-03
40023,6.33E-03,9.74E-03
40024,6.23E-03,9.69E-03
40025,6.06E-03,9.50E-03
40026,9.90E-03,7.18E-03
40027,7.52E-03,9.55E-03
40028,8.55E-03,1.26E-02
40029,8.18E-03,1.29E-02
40030,7.14E-03,7.84E-03
40031,7.07E-03,7.97E-03
40032,8.10E-03,1.16E-02
40033,8.10E-03,1.14E-02
40034,4.42E-03,9.04E-03
40035,8.71E-03,9.13E-03
40036,6.95E-03,1.81E-02
40037,5.79E-03,2.93E-02
40038,8.10E-03,1.48E-02
40039,8.10E-03,1.52E-02
40040,8.10E-03,1.43E-02
40041,4.98E-03,2.07E-02
40042,6.88E-03,2.09E-02
40043,7.61E-03,2.13E-02
40044,6.74E-03,2.70E-02
40045,7.36E-03,2.72E-02
40046,6.05E-03,1.35E-02
40047,6.37E-03,1.33E-02
40048,7.14E-03,1.52E-02
40049,5.70E-03,1.18E-02
40050,6.63E-03,1.00E-02
40051,7.27E-03,9.79E-03
40052,8.73E-03,1.81E-02
40053,7.68E-03,1.82E-02
40054,7.54E-03,1.82E-02
40055,8.10E-03,1.47E-02
40056,8.10E-03,1.52E-02
40057,8.10E-03,1.44E-02
40058,8.10E-03,1.17E-02
40059,8.10E-03,1.19E-02
40060,8.10E-03,1.46E-02
40061,8.10E-03,1.52E-02
40062,8.10E-03,1.45E-02
40063,8.10E-03,1.22E-02
40064,8.10E-03,1.20E-02
40065,7.18E-03,1.17E-02
40066,8.10E-03,1.45E-02
40067,8.10E-03,1.52E-02
40068,8.10E-03,1.45E-02
40069,8.10E-03,1.44E-02
40070,7.99E-03,1.52E-02
40071,8.10E-03,1.46E-02
40072,8.10E-03,1.43E-02
40073,7.78E-03,1.52E-02
40074,8.10E-03,1.47E-02
40075,8.10E-03,1.23E-02
40076,8.10E-03,1.42E-02
40077,7.50E-03,1.52E-02
40078,8.10E-03,1.47E-02
40079,8.10E-03,1.41E-02
40080,8.10E-03,1.48E-02
40081,8.10E-03,1.26E-02
40082,8.10E-03,1.25E-02
40083,8.10E-03,1.28E-02
40084,8.10E-03,1.39E-02
40085,5.99E-03,1.51E-02
40086,8.10E-03,1.49E-02
40087,8.10E-03,1.29E-02
40088,8.10E-03,1.38E-02
40089,6.36E-03,1.51E-02
40090,8.20E-03,1.49E-02
40091,8.10E-03,1.37E-02
40092,8.29E-03,1.50E-02
40093,8.10E-03,1.36E-02
40094,8.22E-03,1.50E-02
40095,8.10E-03,1.35E-02
40096,8.10E-03,1.33E-02
40097,8.10E-03,1.32E-02
40098,8.10E-03,1.31E-02
40099,6.86E-03,1.14E-02
40100,6.08E-03,1.16E-02
40101,7.11E-03,1.39E-02
40102,6.76E-03,1.51E-02
40103,7.89E-03,1.75E-02
40104,7.80E-03,1.76E-02
40105,8.10E-03,2.92E-02
40106,8.10E-03,1.50E-02
40107,8.10E-03,1.51E-02
40108,8.10E-03,1.52E-02
40109,8.10E-03,1.51E-02
40110,7.52E-03,1.96E-02
40111,6.70E-03,1.93E-02
40112,1.06E-02,1.90E-02
40113,1.14E-02,1.85E-02
40114,8.46E-03,1.82E-02
40115,8.06E-03,1.78E-02
40116,8.01E-03,1.75E-02
40117,8.02E-03,1.72E-02
40118,8.02E-03,1.68E-02
40119,8.02E-03,1.65E-02
40120,8.02E-03,1.61E-02
40121,8.05E-03,1.58E-02
40122,7.97E-03,1.55E-02
40123,7.83E-03,1.51E-02
40124,7.77E-03,1.48E-02
40125,7.22E-03,1.42E-02
40126,7.56E-03,1.45E-02
40127,8.00E-03,1.38E-02
40128,8.09E-03,1.37E-02
40129,8.09E-03,1.35E-02
40130,8.09E-03,1.33E-02
40131,8.09E-03,1.31E-02
40132,8.09E-03,1.29E-02
40133,8.09E-03,1.27E-02
40134,8.09E-03,1.25E-02
40135,8.09E-03,1.23E-02
40136,8.09E-03,1.21E-02
40137,8.06E-03,1.19E-02
40138,7.76E-03,1.17E-02
40139,7.64E-03,1.15E-02
40140,7.45E-03,1.13E-02
40141,7.26E-03,1.11E-02
40142,6.37E-03,1.06E-02
40143,6.59E-03,1.07E-02
40144,7.03E-03,1.09E-02
40145,7.58E-03,2.57E-02
40146,7.98E-03,2.55E-02
40147,7.90E-03,2.52E-02
40148,6.86E-03,2.47E-02
40149,7.58E-03,2.49E-02
40150,5.38E-03,9.75E-03
40151,5.79E-03,9.74E-03
40152,7.02E-03,1.20E-02
40153,6.85E-03,1.20E-02
40154,9.71E-03,1.23E-02
40155,9.57E-03,1.76E-02
40156,9.99E-03,1.75E-02
40157,9.85E-03,1.75E-02
40158,9.74E-03,1.75E-02
40159,9.61E-03,1.75E-02
40160,9.53E-03,1.74E-02
40161,9.37E-03,1.74E-02
40162,9.09E-03,1.74E-02
40163,8.96E-03,1.74E-02
40164,8.87E-03,1.74E-02
40165,8.83E-03,1.74E-02
40166,8.83E-03,1.74E-02
40167,8.83E-03,1.74E-02
40168,8.78E-03,1.74E-02
40169,8.64E-03,1.74E-02
40170,8.48E-03,1.74E-02
40171,8.38E-03,1.74E-02
40172,8.30E-03,1.74E-02
40173,8.24E-03,1.74E-02
40174,8.20E-03,1.74E-02
40175,8.19E-03,1.74E-02
40176,8.19E-03,1.74E-02
40177,8.19E-03,1.74E-02
40178,8.18E-03,1.74E-02
40179,8.15E-03,1.74E-02
40180,8.13E-03,1.74E-02
40181,8.09E-03,1.73E-02
40182,8.07E-03,1.73E-02
40183,8.04E-03,1.73E-02
40184,8.02E-03,1.73E-02
40185,7.99E-03,1.73E-02
40186,7.98E-03,1.73E-02
40187,7.99E-03,1.73E-02
40188,8.03E-03,1.72E-02
40189,8.07E-03,1.72E-02
40190,8.11E-03,1.72E-02
40191,8.15E-03,1.72E-02
40192,8.18E-03,1.71E-02
40193,8.22E-03,1.71E-02
40194,8.26E-03,1.71E-02
40195,8.32E-03,1.70E-02
40196,8.42E-03,1.70E-02
40197,8.51E-03,1.70E-02
40198,8.57E-03,1.69E-02
40199,8.62E-03,1.69E-02
40200,8.65E-03,1.68E-02
40201,8.69E-03,1.68E-02
40202,8.73E-03,1.68E-02
40203,8.78E-03,1.67E-02
40204,8.83E-03,1.67E-02
40205,8.89E-03,1.66E-02
40206,8.94E-03,1.66E-02
40207,9.02E-03,1.65E-02
40208,9.13E-03,1.65E-02
40209,9.26E-03,1.64E-02
40210,9.37E-03,1.64E-02
40211,9.45E-03,1.63E-02
40212,9.46E-03,1.63E-02
40213,9.44E-03,1.63E-02
40214,9.39E-03,1.62E-02
40215,9.34E-03,1.62E-02
40216,9.30E-03,1.62E-02
40217,9.26E-03,1.61E-02
40218,9.21E-03,1.61E-02
40219,9.17E-03,1.61E-02
40220,9.17E-03,1.61E-02
40221,9.18E-03,1.60E-02
40222,9.05E-03,1.60E-02
40223,8.76E-03,1.60E-02
40224,8.44E-03,1.60E-02
40225,8.12E-03,1.60E-02
40226,7.91E-03,1.60E-02
40227,7.92E-03,1.60E-02
40228,7.98E-03,1.60E-02
40229,7.92E-03,1.60E-02
40230,7.78E-03,1.60E-02
40231,7.65E-03,1.59E-02
40232,7.53E-03,1.59E-02
40233,7.42E-03,1.59E-02
40234,7.28E-03,1.59E-02
40235,7.10E-03,1.59E-02
40236,6.90E-03,1.59E-02
40237,6.73E-03,1.59E-02
40238,6.62E-03,1.58E-02
40239,6.54E-03,1.58E-02
40240,6.46E-03,1.58E-02
40241,6.40E-03,1.58E-02
40242,6.36E-03,1.57E-02
40243,6.33E-03,1.57E-02
40244,6.27E-03,1.57E-02
40245,6.19E-03,1.56E-02
40246,6.09E-03,1.56E-02
40247,6.02E-03,1.55E-02
40248,6.02E-03,1.55E-02
40249,6.06E-03,1.55E-02
40250,6.11E-03,1.54E-02
40251,6.16E-03,1.54E-02
40252,6.22E-03,1.53E-02
40253,6.28E-03,1.53E-02
40254,6.33E-03,1.52E-02
40255,6.39E-03,1.51E-02
40256,6.44E-03,1.51E-02
40257,6.48E-03,1.50E-02
40258,6.51E-03,1.49E-02
40259,6.53E-03,1.49E-02
40260,6.55E-03,1.48E-02
40261,6.57E-03,1.47E-02
40262,6.59E-03,1.47E-02
40263,6.59E-03,1.46E-02
40264,6.57E-03,1.45E-02
40265,6.53E-03,1.44E-02
40266,6.48E-03,1.44E-02
40267,6.43E-03,1.43E-02
40268,6.37E-03,1.42E-02
40269,6.31E-03,1.41E-02
40270,6.24E-03,1.40E-02
40271,6.13E-03,1.40E-02
40272,5.98E-03,1.39E-02
40273,5.84E-03,1.38E-02
40274,5.70E-03,1.38E-02
40275,5.58E-03,1.37E-02
40276,5.53E-03,1.36E-02
40277,5.60E-03,1.36E-02
40278,5.67E-03,1.35E-02
40279,5.59E-03,1.34E-02
40280,5.56E-03,1.34E-02
40281,6.47E-03,1.33E-02
40282,7.86E-03,1.32E-02
40283,8.50E-03,1.31E-02
40284,9.79E-03,1.30E-02
40285,1.11E-02,1.29E-02
40286,9.32E-03,1.28E-02
40287,9.44E-03,1.26E-02
40288,9.71E-03,1.25E-02
40289,9.80E-03,1.24E-02
40290,7.54E-03,1.07E-02
40291,7.27E-03,1.06E-02
40292,8.06E-03,8.52E-03
40293,6.10E-03,5.43E-03
40294,5.87E-03,5.47E-03
40295,5.81E-03,5.49E-03
40296,5.87E-03,5.52E-03
40297,5.92E-03,5.55E-03
40298,6.07E-03,5.57E-03
40299,6.30E-03,5.60E-03
40300,6.51E-03,5.63E-03
40301,6.73E-03,5.66E-03
40302,6.87E-03,5.69E-03
40303,7.08E-03,5.72E-03
40304,7.37E-03,5.75E-03
40305,7.65E-03,5.78E-03
40306,7.63E-03,5.81E-03
40307,7.79E-03,5.84E-03
40308,7.79E-03,5.87E-03
40309,7.76E-03,5.90E-03
40310,7.73E-03,5.93E-03
40311,7.70E-03,5.96E-03
40312,7.66E-03,5.99E-03
40313,7.60E-03,6.02E-03
40314,7.53E-03,6.04E-03
40315,7.46E-03,6.07E-03
40316,7.39E-03,6.09E-03
40317,7.35E-03,6.12E-03
40318,7.31E-03,6.15E-03
40319,7.28E-03,6.17E-03
40320,7.24E-03,6.20E-03
40321,7.21E-03,6.22E-03
40322,7.17E-03,6.25E-03
40323,7.14E-03,6.27E-03
40324,7.10E-03,6.30E-03
40325,7.05E-03,6.32E-03
40326,6.99E-03,6.35E-03
40327,6.91E-03,6.37E-03
40328,6.84E-03,6.40E-03
40329,6.76E-03,6.42E-03
40330,6.69E-03,6.45E-03
40331,6.61E-03,6.47E-03
40332,6.54E-03,6.50E-03
40333,6.46E-03,6.53E-03
40334,6.37E-03,6.55E-03
40335,6.28E-03,6.58E-03
40336,6.19E-03,6.61E-03
40337,6.07E-03,6.64E-03
40338,5.90E-03,6.67E-03
40339,5.72E-03,6.69E-03
40340,5.54E-03,6.72E-03
40341,5.40E-03,6.75E-03
40342,5.29E-03,6.78E-03
40343,5.20E-03,6.81E-03
40344,5.11E-03,6.84E-03
40345,5.04E-03,6.87E-03
40346,5.00E-03,6.90E-03
40347,4.95E-03,6.93E-03
40348,4.92E-03,6.97E-03
40349,4.94E-03,7.00E-03
40350,4.97E-03,7.04E-03
40351,5.01E-03,7.07E-03
40352,5.05E-03,7.11E-03
40353,5.08E-03,7.15E-03
40354,5.12E-03,7.19E-03
40355,5.14E-03,7.23E-03
40356,5.15E-03,7.28E-03
40357,5.16E-03,7.32E-03
40358,5.17E-03,7.37E-03
40359,5.18E-03,7.41E-03
40360,5.18E-03,7.46E-03
40361,5.23E-03,7.51E-03
40362,5.38E-03,7.56E-03
40363,5.59E-03,7.61E-03
40364,5.80E-03,7.67E-03
40365,6.01E-03,7.73E-03
40366,6.21E-03,7.79E-03
40367,6.36E-03,7.85E-03
40368,6.49E-03,7.92E-03
40369,6.62E-03,7.99E-03
40370,6.75E-03,8.06E-03
40371,6.89E-03,8.13E-03
40372,7.09E-03,8.20E-03
40373,7.36E-03,8.28E-03
40374,7.62E-03,8.36E-03
40375,7.93E-03,8.44E-03
40376,8.17E-03,8.52E-03
40377,8.24E-03,8.61E-03
40378,8.25E-03,8.69E-03
40379,9.96E-03,8.79E-03
40380,1.00E-02,8.89E-03
40381,1.01E-02,8.99E-03
40382,1.01E-02,9.09E-03
40383,1.19E-02,9.36E-03
40384,1.09E-02,9.44E-03
40385,8.66E-03,9.45E-03
40386,7.49E-03,2.30E-02
40387,7.75E-03,2.32E-02
40388,8.05E-03,2.35E-02
40389,8.92E-03,1.16E-02
40390,1.05E-02,1.15E-02
40391,1.15E-02,1.14E-02
40392,1.08E-02,1.12E-02
40393,1.07E-02,1.11E-02
40394,1.07E-02,1.09E-02
40395,1.07E-02,1.08E-02
40396,1.07E-02,1.06E-02
40397,1.00E-02,1.05E-02
40398,9.61E-03,1.03E-02
40399,8.30E-03,1.02E-02
40400,7.19E-03,1.01E-02
40401,6.71E-03,1.09E-02
40402,6.95E-03,1.11E-02
40403,4.21E-03,9.23E-03
40404,5.70E-03,9.03E-03
40405,8.64E-03,9.14E-03
40406,7.63E-03,1.19E-02
40407,8.05E-03,1.20E-02
40408,6.67E-03,1.39E-02
40409,6.63E-03,1.41E-02
40410,5.48E-03,1.43E-02
40411,5.09E-03,1.45E-02
40412,4.56E-03,1.47E-02
40413,3.86E-03,1.49E-02
40414,3.54E-03,1.51E-02
40415,3.80E-03,1.53E-02
40416,4.34E-03,1.55E-02
40417,4.71E-03,1.57E-02
40418,4.91E-03,1.59E-02
40419,5.10E-03,1.62E-02
40420,5.30E-03,1.65E-02
40421,5.48E-03,1.68E-02
40422,5.56E-03,1.71E-02
40423,5.54E-03,1.74E-02
40424,5.51E-03,1.77E-02
40425,5.48E-03,1.80E-02
40426,5.40E-03,1.84E-02
40427,5.30E-03,1.87E-02
40428,5.13E-03,1.90E-02
40429,5.00E-03,1.93E-02
40430,5.03E-03,1.97E-02
40431,5.12E-03,2.01E-02
40432,4.91E-03,2.04E-02
40433,4.19E-03,2.05E-02
40434,6.04E-03,2.14E-02
40435,6.66E-03,2.17E-02
40436,7.07E-03,2.22E-02
40437,4.94E-03,2.26E-02
40438,5.02E-03,2.29E-02
40439,5.03E-03,2.31E-02
40440,5.16E-03,2.34E-02
40441,5.23E-03,2.37E-02
40442,5.30E-03,2.39E-02
40443,5.37E-03,2.42E-02
40444,5.37E-03,2.45E-02
40445,5.32E-03,2.48E-02
40446,5.25E-03,2.50E-02
40447,5.09E-03,2.52E-02
40448,5.00E-03,2.55E-02
40449,4.89E-03,2.57E-02
40450,4.11E-03,2.59E-02
40451,3.48E-03,2.61E-02
40452,3.22E-03,2.62E-02
40453,2.91E-03,2.64E-02
40454,3.50E-03,2.65E-02
40455,3.96E-03,2.67E-02
40456,4.10E-03,2.68E-02
40457,4.99E-03,2.70E-02
40458,5.38E-03,2.71E-02
40459,5.70E-03,2.73E-02
40460,6.17E-03,2.74E-02
40461,6.49E-03,2.75E-02
40462,7.04E-03,2.77E-02
40463,7.38E-03,2.78E-02
40464,7.57E-03,2.79E-02
40465,7.77E-03,2.81E-02
40466,7.88E-03,2.82E-02
40467,8.08E-03,2.83E-02
40468,8.17E-03,2.83E-02
40469,8.37E-03,2.82E-02
40470,6.05E-03,2.84E-02
40471,7.22E-03,1.36E-02
40472,5.93E-03,1.24E-02
40473,7.45E-03,1.77E-02
40474,6.62E-03,1.78E-02
40475,7.32E-03,2.93E-02
40476,7.93E-03,2.95E-02
40477,6.85E-03,2.94E-02
40478,8.10E-03,1.50E-02
40479,8.10E-03,1.52E-02
40480,7.48E-03,1.99E-02
40481,6.21E-03,1.38E-02
40482,7.97E-03,1.39E-02
40483,6.22E-03,1.02E-02
40484,6.19E-03,1.04E-02
40485,5.40E-03,2.64E-02
40486,6.46E-03,2.62E-02
40487,5.34E-03,2.47E-02
40488,7.15E-03,9.81E-03
40489,6.17E-03,9.70E-03
40490,5.84E-03,9.57E-03
40491,8.16E-03,2.71E-02
40492,8.50E-03,1.22E-02
40493,6.93E-03,1.22E-02
40494,6.59E-03,1.37E-02
40495,5.11E-03,2.89E-02
40496,8.73E-03,1.21E-02
40497,7.92E-03,1.13E-02
40498,8.09E-03,1.14E-02
40499,3.94E-03,1.14E-02
40500,4.10E-03,1.13E-02
40501,4.29E-03,1.13E-02
40502,4.52E-03,1.13E-02
40503,4.80E-03,1.13E-02
40504,4.97E-03,1.13E-02
40505,4.97E-03,1.13E-02
40506,5.05E-03,1.13E-02
40507,5.01E-03,1.13E-02
40508,4.76E-03,1.13E-02
40509,4.98E-03,1.13E-02
40510,5.98E-03,1.13E-02
40511,7.35E-03,1.12E-02
40512,7.66E-03,1.12E-02
40513,8.82E-03,1.12E-02
40514,8.98E-03,1.11E-02
40515,9.15E-03,1.11E-02
40516,9.58E-03,1.11E-02
40517,1.05E-02,1.10E-02
40518,1.09E-02,1.09E-02
40519,1.11E-02,1.10E-02
40520,1.11E-02,1.09E-02
40521,1.05E-02,1.10E-02
40522,1.00E-02,1.09E-02
40523,9.93E-03,1.09E-02
40524,8.75E-03,1.08E-02
40525,9.05E-03,7.06E-03
40526,8.87E-03,6.95E-03
40527,1.14E-02,6.82E-03
40528,1.11E-02,6.68E-03
40529,9.63E-03,6.54E-03
40530,9.38E-03,6.43E-03
40531,9.05E-03,6.31E-03
40532,7.99E-03,6.21E-03
40533,7.61E-03,6.12E-03
40534,6.10E-03,6.03E-03
40535,5.99E-03,5.96E-03
40536,5.47E-03,5.90E-03
40537,5.15E-03,5.84E-03
40538,5.01E-03,5.79E-03
40539,4.77E-03,5.74E-03
40540,4.66E-03,5.69E-03
40541,4.45E-03,5.65E-03
40542,4.10E-03,5.61E-03
40543,3.84E-03,5.58E-03
40544,3.58E-03,5.55E-03
40545,3.56E-03,5.52E-03
40546,3.55E-03,5.49E-03
40547,3.96E-03,5.49E-03
40548,5.29E-03,5.46E-03
40549,7.77E-03,8.89E-03
40550,7.69E-03,8.64E-03
40551,7.32E-03,8.38E-03
40552,6.87E-03,2.69E-02
40553,9.02E-03,1.78E-02
40554,7.76E-03,1.78E-02
40555,9.78E-03,8.27E-03
40556,1.00E-02,8.31E-03
40557,9.88E-03,8.36E-03
40558,9.87E-03,8.40E-03
40559,9.82E-03,8.44E-03
40560,9.57E-03,8.48E-03
40561,9.45E-03,8.53E-03
40562,9.27E-03,8.57E-03
40563,8.57E-03,8.61E-03
40564,8.10E-03,8.65E-03
40565,7.89E-03,8.69E-03
40566,7.87E-03,8.73E-03
40567,7.76E-03,8.78E-03
40568,7.63E-03,8.82E-03
40569,6.47E-03,8.86E-03
40570,6.49E-03,8.89E-03
40571,6.31E-03,8.91E-03
40572,6.23E-03,8.94E-03
40573,6.08E-03,8.96E-03
40574,5.95E-03,8.98E-03
40575,6.02E-03,9.01E-03
40576,6.14E-03,9.03E-03
40577,6.28E-03,9.06E-03
40578,6.24E-03,9.11E-03
40579,5.80E-03,9.08E-03
40580,6.05E-03,9.11E-03
40581,6.64E-03,9.15E-03
40582,8.25E-03,8.43E-03
40583,7.61E-03,8.47E-03
40584,8.53E-03,1.80E-02
40585,8.08E-03,1.79E-02
40586,7.82E-03,1.79E-02
40587,7.28E-03,1.78E-02
40588,1.05E-02,1.77E-02
40589,1.03E-02,1.77E-02
40590,9.67E-03,1.76E-02
40591,8.47E-03,1.75E-02
40592,8.39E-03,1.75E-02
40593,7.93E-03,1.74E-02
40594,7.22E-03,1.74E-02
40595,7.01E-03,1.73E-02
40596,5.15E-03,9.21E-03
40597,6.42E-03,9.05E-03
40598,8.26E-03,8.84E-03
40599,8.09E-03,8.61E-03
40600,8.09E-03,8.38E-03
40601,8.09E-03,8.15E-03
40602,8.09E-03,7.92E-03
40603,8.09E-03,7.69E-03
40604,8.09E-03,7.46E-03
40605,8.09E-03,7.23E-03
40606,8.09E-03,7.01E-03
40607,8.09E-03,6.79E-03
40608,8.09E-03,6.57E-03
40609,8.09E-03,6.35E-03
40610,8.09E-03,6.14E-03
40611,8.09E-03,5.94E-03
40612,8.09E-03,5.74E-03
40613,8.09E-03,5.54E-03
40614,8.09E-03,5.35E-03
40615,8.09E-03,5.17E-03
40616,8.09E-03,5.00E-03
40617,8.09E-03,4.84E-03
40618,8.09E-03,4.68E-03
40619,8.09E-03,4.54E-03
40620,8.09E-03,4.41E-03
40621,8.09E-03,4.29E-03
40622,8.09E-03,4.18E-03
40623,8.09E-03,4.09E-03
40624,8.09E-03,4.02E-03
40625,8.09E-03,3.96E-03
40626,8.09E-03,3.91E-03
40627,8.09E-03,3.89E-03
40628,8.09E-03,3.88E-03
40629,8.09E-03,3.88E-03
40630,8.09E-03,3.91E-03
40631,8.09E-03,3.94E-03
40632,8.09E-03,4.00E-03
40633,8.09E-03,4.06E-03
40634,8.09E-03,4.14E-03
40635,8.09E-03,4.23E-03
40636,8.09E-03,4.33E-03
40637,8.09E-03,4.43E-03
40638,8.09E-03,4.55E-03
40639,8.09E-03,4.67E-03
40640,8.09E-03,4.80E-03
40641,8.09E-03,4.94E-03
40642,8.09E-03,5.08E-03
40643,8.09E-03,5.22E-03
40644,8.09E-03,5.37E-03
40645,8.09E-03,5.51E-03
40646,8.09E-03,5.67E-03
40647,8.09E-03,5.82E-03
40648,8.09E-03,5.97E-03
40649,8.09E-03,6.12E-03
40650,8.09E-03,6.28E-03
40651,8.09E-03,6.43E-03
40652,8.09E-03,6.58E-03
40653,8.09E-03,6.74E-03
40654,8.09E-03,6.89E-03
40655,8.09E-03,7.04E-03
40656,8.09E-03,7.19E-03
40657,8.09E-03,7.34E-03
40658,8.09E-03,7.49E-03
40659,8.09E-03,7.63E-03
40660,8.16E-03,7.78E-03
40661,8.19E-03,7.92E-03
40662,8.04E-03,8.06E-03
40663,7.77E-03,8.19E-03
40664,7.53E-03,8.32E-03
40665,7.19E-03,8.45E-03
40666,6.82E-03,8.58E-03
40667,6.61E-03,8.70E-03
40668,7.05E-03,8.82E-03
40669,6.10E-03,8.95E-03
40670,6.18E-03,2.03E-02
40671,6.21E-03,2.05E-02
40672,5.61E-03,1.25E-02
40673,7.37E-03,2.70E-02
40674,7.98E-03,9.36E-03
40675,9.49E-03,8.98E-03
40676,1.06E-02,8.89E-03
40677,1.06E-02,8.79E-03
40678,1.07E-02,8.70E-03
40679,1.10E-02,8.60E-03
40680,1.10E-02,8.52E-03
40681,1.11E-02,8.43E-03
40682,1.11E-02,8.36E-03
40683,1.09E-02,8.30E-03
40684,1.08E-02,8.25E-03
40685,1.06E-02,8.20E-03
40686,1.04E-02,8.16E-03
40687,1.02E-02,8.12E-03
40688,9.88E-03,8.10E-03
40689,9.63E-03,8.08E-03
40690,9.48E-03,8.06E-03
40691,9.36E-03,8.05E-03
40692,9.24E-03,8.04E-03
40693,9.14E-03,8.04E-03
40694,9.06E-03,8.04E-03
40695,8.98E-03,8.05E-03
40696,8.90E-03,8.06E-03
40697,8.81E-03,8.07E-03
40698,8.70E-03,8.08E-03
40699,8.59E-03,8.10E-03
40700,8.48E-03,8.13E-03
40701,8.36E-03,8.15E-03
40702,8.26E-03,8.18E-03
40703,8.20E-03,8.21E-03
40704,8.19E-03,8.24E-03
40705,8.02E-03,8.28E-03
40706,7.99E-03,8.31E-03
40707,7.62E-03,8.35E-03
40708,7.36E-03,8.39E-03
40709,7.29E-03,8.43E-03
40710,7.21E-03,8.48E-03
40711,6.99E-03,8.52E-03
40712,6.67E-03,8.57E-03
40713,6.21E-03,8.62E-03
40714,6.15E-03,8.66E-03
40715,5.48E-03,8.71E-03
40716,6.31E-03,8.76E-03
40717,6.37E-03,8.79E-03
40718,5.26E-03,8.86E-03
40719,4.94E-03,8.92E-03
40720,5.73E-03,8.97E-03
40721,5.16E-03,9.04E-03
40722,4.72E-03,9.08E-03
40723,7.07E-03,8.29E-03
40724,6.87E-03,8.27E-03
40725,4.26E-03,8.27E-03
40726,4.19E-03,8.26E-03
40727,4.32E-03,8.24E-03
40728,4.74E-03,8.22E-03
40729,4.70E-03,8.20E-03
40730,5.62E-03,8.17E-03
40731,5.83E-03,8.12E-03
40732,6.37E-03,8.08E-03
40733,6.59E-03,8.02E-03
40734,6.71E-03,7.97E-03
40735,6.83E-03,7.91E-03
40736,6.95E-03,7.86E-03
40737,7.07E-03,7.80E-03
40738,7.18E-03,7.74E-03
40739,7.30E-03,7.68E-03
40740,7.41E-03,7.62E-03
40741,7.47E-03,7.56E-03
40742,7.50E-03,7.50E-03
40743,7.53E-03,7.44E-03
40744,7.56E-03,7.38E-03
40745,7.58E-03,7.33E-03
40746,7.61E-03,7.27E-03
40747,7.64E-03,7.22E-03
40748,7.66E-03,7.17E-03
40749,7.69E-03,7.13E-03
40750,7.72E-03,7.09E-03
40751,7.74E-03,7.05E-03
40752,7.76E-03,7.02E-03
40753,7.78E-03,6.99E-03
40754,7.80E-03,6.97E-03
40755,7.82E-03,6.96E-03
40756,7.83E-03,6.95E-03
40757,7.85E-03,6.95E-03
40758,7.86E-03,6.96E-03
40759,7.88E-03,6.98E-03
40760,7.89E-03,7.00E-03
40761,7.90E-03,7.03E-03
40762,7.92E-03,7.07E-03
40763,7.93E-03,7.12E-03
40764,7.93E-03,7.18E-03
40765,7.93E-03,7.25E-03
40766,7.93E-03,7.32E-03
40767,7.93E-03,7.40E-03
40768,7.93E-03,7.49E-03
40769,7.93E-03,7.59E-03
40770,7.93E-03,7.69E-03
40771,7.93E-03,7.80E-03
40772,7.91E-03,7.92E-03
40773,7.89E-03,8.04E-03
40774,7.87E-03,8.17E-03
40775,7.85E-03,8.30E-03
40776,7.84E-03,8.44E-03
40777,7.82E-03,8.58E-03
40778,7.80E-03,8.73E-03
40779,7.78E-03,8.88E-03
40780,7.76E-03,9.03E-03
40781,7.74E-03,9.18E-03
40782,7.71E-03,9.33E-03
40783,7.67E-03,9.49E-03
40784,7.62E-03,9.65E-03
40785,7.57E-03,9.81E-03
40786,7.52E-03,9.96E-03
40787,7.47E-03,1.01E-02
40788,7.42E-03,1.03E-02
40789,7.37E-03,1.04E-02
40790,7.32E-03,1.06E-02
40791,7.28E-03,1.08E-02
40792,7.25E-03,1.09E-02
40793,7.21E-03,1.11E-02
40794,7.18E-03,1.12E-02
40795,7.15E-03,1.14E-02
40796,7.11E-03,1.15E-02
40797,7.07E-03,1.17E-02
40798,7.02E-03,1.18E-02
40799,6.97E-03,1.20E-02
40800,6.92E-03,1.21E-02
40801,6.88E-03,1.23E-02
40802,6.82E-03,1.24E-02
40803,6.74E-03,1.26E-02
40804,6.64E-03,1.27E-02
40805,6.54E-03,1.29E-02
40806,6.44E-03,1.30E-02
40807,6.35E-03,1.31E-02
40808,6.30E-03,1.33E-02
40809,6.29E-03,1.34E-02
40810,6.28E-03,1.35E-02
40811,6.29E-03,1.37E-02
40812,6.32E-03,1.38E-02
40813,6.36E-03,1.39E-02
40814,6.39E-03,1.41E-02
40815,6.42E-03,1.42E-02
40816,6.45E-03,1.43E-02
40817,6.47E-03,1.45E-02
40818,6.49E-03,1.46E-02
40819,6.52E-03,1.47E-02
40820,6.55E-03,1.49E-02
40821,6.57E-03,1.50E-02
40822,6.59E-03,1.52E-02
40823,6.61E-03,1.53E-02
40824,6.64E-03,1.54E-02
40825,6.66E-03,1.56E-02
40826,6.69E-03,1.57E-02
40827,6.71E-03,1.58E-02
40828,6.73E-03,1.60E-02
40829,6.74E-03,1.61E-02
40830,6.85E-03,1.63E-02
40831,6.99E-03,1.64E-02
40832,7.04E-03,1.66E-02
40833,7.01E-03,1.67E-02
40834,7.11E-03,1.69E-02
40835,6.94E-03,1.70E-02
40836,6.92E-03,1.72E-02
40837,6.79E-03,1.73E-02
40838,7.72E-03,9.24E-03
40839,7.58E-03,8.49E-03
40840,8.09E-03,1.11E-02
40841,8.09E-03,1.10E-02
40842,8.09E-03,1.08E-02
40843,8.09E-03,1.07E-02
40844,8.09E-03,1.06E-02
40845,8.09E-03,1.04E-02
40846,8.09E-03,1.03E-02
40847,8.09E-03,1.01E-02
40848,8.09E-03,9.97E-03
40849,8.09E-03,9.82E-03
40850,8.09E-03,9.67E-03
40851,8.09E-03,9.51E-03
40852,8.09E-03,9.35E-03
40853,8.09E-03,9.20E-03
40854,8.09E-03,9.04E-03
40855,8.09E-03,8.88E-03
40856,8.09E-03,8.72E-03
40857,8.09E-03,8.55E-03
40858,8.09E-03,8.39E-03
40859,8.09E-03,8.23E-03
40860,8.09E-03,8.07E-03
40861,8.09E-03,7.90E-03
40862,8.09E-03,7.74E-03
40863,8.09E-03,7.58E-03
40864,8.09E-03,7.42E-03
40865,8.09E-03,7.25E-03
40866,8.09E-03,7.09E-03
40867,8.09E-03,6.93E-03
40868,8.09E-03,6.78E-03
40869,8.09E-03,6.62E-03
40870,8.09E-03,6.47E-03
40871,8.09E-03,6.32E-03
40872,8.09E-03,6.17E-03
40873,8.09E-03,6.03E-03
40874,8.09E-03,5.89E-03
40875,8.09E-03,5.76E-03
40876,8.09E-03,5.63E-03
40877,8.09E-03,5.51E-03
40878,8.09E-03,5.40E-03
40879,8.09E-03,5.29E-03
40880,8.09E-03,5.19E-03
40881,8.09E-03,5.11E-03
40882,8.09E-03,5.03E-03
40883,8.09E-03,4.96E-03
40884,8.09E-03,4.90E-03
40885,8.09E-03,4.86E-03
40886,8.09E-03,4.82E-03
40887,8.09E-03,4.80E-03
40888,8.09E-03,4.80E-03
40889,8.09E-03,4.81E-03
40890,8.09E-03,4.83E-03
40891,8.09E-03,4.87E-03
40892,8.09E-03,4.92E-03
40893,8.09E-03,4.98E-03
40894,8.09E-03,5.06E-03
40895,8.09E-03,5.15E-03
40896,8.09E-03,5.25E-03
40897,8.09E-03,5.37E-03
40898,8.09E-03,5.49E-03
40899,8.09E-03,5.63E-03
40900,8.09E-03,5.78E-03
40901,8.09E-03,5.94E-03
40902,8.09E-03,6.10E-03
40903,8.09E-03,6.28E-03
40904,8.09E-03,6.46E-03
40905,8.09E-03,6.65E-03
40906,8.09E-03,6.85E-03
40907,8.09E-03,7.06E-03
40908,8.00E-03,7.27E-03
40909,7.93E-03,7.48E-03
40910,7.77E-03,7.69E-03
40911,7.78E-03,7.92E-03
40912,7.75E-03,8.15E-03
40913,7.58E-03,8.37E-03
40914,7.52E-03,8.60E-03
40915,7.84E-03,8.86E-03
40916,8.42E-03,9.13E-03
40917,7.55E-03,9.32E-03
40918,8.04E-03,8.81E-03
40919,8.28E-03,2.80E-02
40920,8.57E-03,1.31E-02
40921,7.51E-03,1.79E-02
40922,5.95E-03,1.79E-02
40923,8.10E-03,1.49E-02
40924,8.10E-03,1.52E-02
40925,7.93E-03,1.40E-02
40926,8.24E-03,2.21E-02
40927,8.32E-03,2.24E-02
40928,8.16E-03,2.27E-02
40929,6.46E-03,2.68E-02
40930,7.96E-03,2.85E-02
40931,7.82E-03,2.74E-02
40932,7.52E-03,1.05E-02
40933,6.44E-03,9.94E-03
40934,6.37E-03,9.89E-03
40935,6.33E-03,9.84E-03
40936,6.01E-03,9.64E-03
40937,9.92E-03,1.25E-02
40938,8.35E-03,1.29E-02
40939,6.49E-03,7.46E-03
40940,6.38E-03,7.56E-03
40941,6.16E-03,7.70E-03
40942,6.75E-03,8.10E-03
40943,8.10E-03,1.14E-02
40944,8.10E-03,1.13E-02
40945,8.65E-03,9.11E-03
40946,6.89E-03,1.81E-02
40947,6.35E-03,2.94E-02
40948,6.30E-03,2.95E-02
40949,8.10E-03,1.48E-02
40950,8.10E-03,1.52E-02
40951,8.06E-03,1.41E-02
40952,7.89E-03,2.15E-02
40953,8.13E-03,2.19E-02
40954,7.52E-03,2.75E-02
40955,6.95E-03,1.32E-02
40956,6.99E-03,8.60E-03
40957,6.93E-03,8.70E-03
40958,5.21E-03,1.23E-02
40959,7.83E-03,9.56E-03
40960,5.06E-03,9.98E-03
40961,6.77E-03,9.79E-03
40962,5.84E-03,9.46E-03
40963,5.81E-03,9.43E-03
40964,6.15E-03,9.40E-03
40965,7.52E-03,1.83E-02
40966,8.96E-03,1.83E-02
40967,8.10E-03,1.47E-02
40968,7.91E-03,2.95E-02
40969,7.16E-03,2.72E-02
40970,7.46E-03,2.75E-02
40971,7.08E-03,1.02E-02
40972,8.10E-03,1.52E-02
40973,8.10E-03,1.42E-02
40974,8.10E-03,1.16E-02
40975,8.24E-03,2.08E-02
40976,8.78E-03,2.12E-02
40977,8.10E-03,1.18E-02
40978,8.10E-03,1.46E-02
40979,8.10E-03,1.52E-02
40980,7.15E-03,9.38E-03
40981,8.10E-03,1.43E-02
40982,8.10E-03,1.21E-02
40983,8.10E-03,1.19E-02
40984,6.05E-03,1.17E-02
40985,8.10E-03,1.45E-02
40986,8.10E-03,1.51E-02
40987,8.10E-03,1.44E-02
40988,8.10E-03,1.44E-02
40989,8.06E-03,1.51E-02
40990,8.10E-03,1.45E-02
40991,8.10E-03,1.43E-02
40992,7.88E-03,1.51E-02
40993,8.10E-03,1.46E-02
40994,8.10E-03,1.22E-02
40995,8.10E-03,1.42E-02
40996,7.60E-03,1.51E-02
40997,8.10E-03,1.46E-02
40998,8.10E-03,1.41E-02
40999,7.12E-03,1.51E-02
41000,8.10E-03,1.47E-02
41001,8.10E-03,1.25E-02
41002,8.10E-03,1.24E-02
41003,8.10E-03,1.27E-02
41004,8.10E-03,1.40E-02
41005,6.61E-03,1.50E-02
41006,8.10E-03,1.47E-02
41007,8.10E-03,1.28E-02
41008,8.10E-03,1.39E-02
41009,6.37E-03,1.50E-02
41010,8.18E-03,1.48E-02
41011,8.10E-03,1.37E-02
41012,7.77E-03,1.50E-02
41013,8.33E-03,1.49E-02
41014,8.10E-03,1.36E-02
41015,8.59E-03,1.49E-02
41016,8.10E-03,1.34E-02
41017,8.10E-03,1.32E-02
41018,8.10E-03,1.31E-02
41019,8.10E-03,1.30E-02
41020,8.10E-03,1.35E-02
41021,9.25E-03,1.49E-02
41022,6.47E-03,1.15E-02
41023,5.38E-03,1.36E-02
41024,8.68E-03,3.00E-02
41025,8.68E-03,1.06E-02
41026,5.52E-03,5.24E-03
41027,7.46E-03,1.77E-02
41028,7.37E-03,1.78E-02
41029,8.38E-03,2.95E-02
41030,8.82E-03,3.00E-02
41031,8.10E-03,1.50E-02
41032,8.10E-03,1.50E-02
41033,8.10E-03,1.51E-02
41034,8.10E-03,1.51E-02
41035,7.44E-03,1.97E-02
41036,6.93E-03,1.94E-02
41037,1.05E-02,1.90E-02
41038,1.12E-02,1.86E-02
41039,8.32E-03,1.82E-02
41040,8.14E-03,1.79E-02
41041,8.08E-03,1.75E-02
41042,8.02E-03,1.72E-02
41043,8.02E-03,1.68E-02
41044,8.02E-03,1.65E-02
41045,8.02E-03,1.61E-02
41046,7.99E-03,1.58E-02
41047,7.87E-03,1.54E-02
41048,7.74E-03,1.51E-02
41049,7.55E-03,1.48E-02
41050,6.93E-03,1.42E-02
41051,7.31E-03,1.45E-02
41052,8.03E-03,1.38E-02
41053,8.09E-03,1.36E-02
41054,8.09E-03,1.34E-02
41055,8.09E-03,1.33E-02
41056,8.09E-03,1.31E-02
41057,8.09E-03,1.29E-02
41058,8.09E-03,1.27E-02
41059,8.09E-03,1.25E-02
41060,8.09E-03,1.23E-02
41061,8.09E-03,1.21E-02
41062,8.02E-03,1.19E-02
41063,7.82E-03,1.17E-02
41064,7.59E-03,1.15E-02
41065,7.51E-03,1.13E-02
41066,7.25E-03,1.11E-02
41067,6.20E-03,1.05E-02
41068,6.66E-03,1.07E-02
41069,7.07E-03,1.09E-02
41070,7.06E-03,2.59E-02
41071,7.36E-03,2.56E-02
41072,7.39E-03,2.53E-02
41073,6.56E-03,2.49E-02
41074,7.10E-03,2.51E-02
41075,5.85E-03,9.63E-03
41076,5.95E-03,9.59E-03
41077,7.17E-03,1.22E-02
41078,7.23E-03,1.22E-02
41079,7.87E-03,1.17E-02
41080,8.17E-03,1.16E-02
41081,3.99E-03,1.16E-02
41082,4.12E-03,1.16E-02
41083,4.39E-03,1.16E-02
41084,4.71E-03,1.16E-02
41085,4.86E-03,1.16E-02
41086,5.07E-03,1.15E-02
41087,5.07E-03,1.15E-02
41088,5.14E-03,1.15E-02
41089,5.10E-03,1.15E-02
41090,4.86E-03,1.15E-02
41091,5.07E-03,1.15E-02
41092,6.05E-03,1.15E-02
41093,7.45E-03,1.15E-02
41094,7.77E-03,1.14E-02
41095,8.72E-03,1.14E-02
41096,8.94E-03,1.14E-02
41097,9.11E-03,1.13E-02
41098,9.84E-03,1.13E-02
41099,1.04E-02,1.12E-02
41100,1.06E-02,1.12E-02
41101,1.09E-02,1.12E-02
41102,1.09E-02,1.12E-02
41103,1.08E-02,1.11E-02
41104,1.06E-02,1.11E-02
41105,1.15E-02,1.10E-02
41106,6.78E-03,1.39E-02
41107,6.78E-03,1.41E-02
41108,5.56E-03,1.43E-02
41109,5.18E-03,1.45E-02
41110,4.67E-03,1.47E-02
41111,3.99E-03,1.49E-02
41112,3.68E-03,1.51E-02
41113,3.94E-03,1.53E-02
41114,4.46E-03,1.55E-02
41115,4.81E-03,1.57E-02
41116,5.01E-03,1.60E-02
41117,5.19E-03,1.62E-02
41118,5.38E-03,1.65E-02
41119,5.56E-03,1.68E-02
41120,5.63E-03,1.71E-02
41121,5.62E-03,1.74E-02
41122,5.59E-03,1.78E-02
41123,5.55E-03,1.81E-02
41124,5.42E-03,1.84E-02
41125,5.40E-03,1.88E-02
41126,5.14E-03,1.91E-02
41127,4.99E-03,1.95E-02
41128,4.95E-03,1.98E-02
41129,4.81E-03,2.02E-02
41130,4.38E-03,2.04E-02
41131,3.72E-03,2.05E-02
41132,6.20E-03,2.19E-02
41133,5.48E-03,2.91E-02
41134,7.17E-03,2.90E-02
41135,7.90E-03,2.89E-02
41136,7.99E-03,2.88E-02
41137,7.91E-03,2.87E-02
41138,7.80E-03,2.86E-02
41139,7.62E-03,2.85E-02
41140,7.42E-03,2.84E-02
41141,7.19E-03,2.82E-02
41142,6.57E-03,2.81E-02
41143,6.26E-03,2.80E-02
41144,5.76E-03,2.78E-02
41145,5.32E-03,2.77E-02
41146,4.99E-03,2.75E-02
41147,4.14E-03,2.74E-02
41148,3.88E-03,2.72E-02
41149,3.51E-03,2.71E-02
41150,3.07E-03,2.69E-02
41151,3.37E-03,2.67E-02
41152,3.62E-03,2.66E-02
41153,4.23E-03,2.64E-02
41154,4.92E-03,2.62E-02
41155,5.19E-03,2.60E-02
41156,5.26E-03,2.57E-02
41157,5.33E-03,2.55E-02
41158,5.40E-03,2.52E-02
41159,5.46E-03,2.50E-02
41160,5.45E-03,2.47E-02
41161,5.39E-03,2.44E-02
41162,5.32E-03,2.41E-02
41163,5.25E-03,2.38E-02
41164,5.13E-03,2.35E-02
41165,5.16E-03,2.32E-02
41166,5.30E-03,2.29E-02
41167,7.00E-03,2.27E-02
41168,6.97E-03,2.23E-02
41169,1.01E-02,1.22E-02
41170,9.64E-03,1.78E-02
41171,9.92E-03,1.77E-02
41172,9.92E-03,1.77E-02
41173,9.80E-03,1.77E-02
41174,9.67E-03,1.77E-02
41175,9.48E-03,1.76E-02
41176,9.36E-03,1.76E-02
41177,9.06E-03,1.76E-02
41178,8.93E-03,1.76E-02
41179,8.84E-03,1.76E-02
41180,8.81E-03,1.76E-02
41181,8.81E-03,1.76E-02
41182,8.81E-03,1.76E-02
41183,8.75E-03,1.76E-02
41184,8.62E-03,1.76E-02
41185,8.47E-03,1.76E-02
41186,8.37E-03,1.76E-02
41187,8.30E-03,1.76E-02
41188,8.23E-03,1.76E-02
41189,8.20E-03,1.76E-02
41190,8.19E-03,1.76E-02
41191,8.19E-03,1.76E-02
41192,8.19E-03,1.76E-02
41193,8.17E-03,1.76E-02
41194,8.15E-03,1.76E-02
41195,8.13E-03,1.76E-02
41196,8.09E-03,1.75E-02
41197,8.07E-03,1.75E-02
41198,8.04E-03,1.75E-02
41199,8.02E-03,1.75E-02
41200,7.99E-03,1.75E-02
41201,7.98E-03,1.75E-02
41202,8.00E-03,1.75E-02
41203,8.03E-03,1.74E-02
41204,8.07E-03,1.74E-02
41205,8.10E-03,1.74E-02
41206,8.14E-03,1.74E-02
41207,8.18E-03,1.73E-02
41208,8.21E-03,1.73E-02
41209,8.25E-03,1.73E-02
41210,8.32E-03,1.72E-02
41211,8.41E-03,1.72E-02
41212,8.50E-03,1.71E-02
41213,8.56E-03,1.71E-02
41214,8.60E-03,1.71E-02
41215,8.64E-03,1.70E-02
41216,8.67E-03,1.70E-02
41217,8.71E-03,1.69E-02
41218,8.75E-03,1.69E-02
41219,8.81E-03,1.68E-02
41220,8.86E-03,1.68E-02
41221,8.92E-03,1.67E-02
41222,8.99E-03,1.67E-02
41223,9.10E-03,1.66E-02
41224,9.22E-03,1.66E-02
41225,9.33E-03,1.65E-02
41226,9.41E-03,1.65E-02
41227,9.42E-03,1.64E-02
41228,9.40E-03,1.64E-02
41229,9.35E-03,1.64E-02
41230,9.30E-03,1.63E-02
41231,9.26E-03,1.63E-02
41232,9.22E-03,1.63E-02
41233,9.17E-03,1.62E-02
41234,9.13E-03,1.62E-02
41235,9.14E-03,1.62E-02
41236,9.15E-03,1.62E-02
41237,9.02E-03,1.61E-02
41238,8.74E-03,1.61E-02
41239,8.43E-03,1.61E-02
41240,8.12E-03,1.61E-02
41241,7.92E-03,1.61E-02
41242,7.92E-03,1.61E-02
41243,7.99E-03,1.61E-02
41244,7.93E-03,1.61E-02
41245,7.79E-03,1.60E-02
41246,7.67E-03,1.60E-02
41247,7.55E-03,1.60E-02
41248,7.44E-03,1.60E-02
41249,7.31E-03,1.60E-02
41250,7.13E-03,1.60E-02
41251,6.94E-03,1.60E-02
41252,6.77E-03,1.59E-02
41253,6.67E-03,1.59E-02
41254,6.59E-03,1.59E-02
41255,6.51E-03,1.59E-02
41256,6.46E-03,1.58E-02
41257,6.42E-03,1.58E-02
41258,6.38E-03,1.58E-02
41259,6.33E-03,1.57E-02
41260,6.25E-03,1.57E-02
41261,6.15E-03,1.57E-02
41262,6.09E-03,1.56E-02
41263,6.08E-03,1.56E-02
41264,6.13E-03,1.55E-02
41265,6.17E-03,1.55E-02
41266,6.22E-03,1.54E-02
41267,6.28E-03,1.54E-02
41268,6.33E-03,1.53E-02
41269,6.39E-03,1.52E-02
41270,6.44E-03,1.52E-02
41271,6.50E-03,1.51E-02
41272,6.54E-03,1.50E-02
41273,6.56E-03,1.50E-02
41274,6.58E-03,1.49E-02
41275,6.60E-03,1.48E-02
41276,6.62E-03,1.47E-02
41277,6.64E-03,1.47E-02
41278,6.64E-03,1.46E-02
41279,6.62E-03,1.45E-02
41280,6.58E-03,1.44E-02
41281,6.53E-03,1.43E-02
41282,6.48E-03,1.43E-02
41283,6.43E-03,1.42E-02
41284,6.37E-03,1.41E-02
41285,6.30E-03,1.40E-02
41286,6.19E-03,1.39E-02
41287,6.05E-03,1.39E-02
41288,5.91E-03,1.38E-02
41289,5.78E-03,1.37E-02
41290,5.66E-03,1.37E-02
41291,5.61E-03,1.36E-02
41292,5.68E-03,1.35E-02
41293,5.74E-03,1.35E-02
41294,5.67E-03,1.34E-02
41295,5.64E-03,1.33E-02
41296,6.52E-03,1.32E-02
41297,8.10E-03,1.32E-02
41298,8.28E-03,1.31E-02
41299,9.74E-03,1.29E-02
41300,1.11E-02,1.28E-02
41301,9.20E-03,1.27E-02
41302,9.29E-03,1.26E-02
41303,9.46E-03,1.24E-02
41304,1.03E-02,1.23E-02
41305,7.91E-03,1.07E-02
41306,7.30E-03,1.26E-02
41307,8.84E-03,2.71E-02
41308,5.23E-03,9.18E-03
41309,6.48E-03,9.02E-03
41310,8.25E-03,8.81E-03
41311,8.09E-03,8.58E-03
41312,8.09E-03,8.35E-03
41313,8.09E-03,8.12E-03
41314,8.09E-03,7.89E-03
41315,8.09E-03,7.66E-03
41316,8.09E-03,7.43E-03
41317,8.09E-03,7.21E-03
41318,8.09E-03,6.99E-03
41319,8.09E-03,6.77E-03
41320,8.09E-03,6.55E-03
41321,8.09E-03,6.33E-03
41322,8.09E-03,6.12E-03
41323,8.09E-03,5.92E-03
41324,8.09E-03,5.72E-03
41325,8.09E-03,5.52E-03
41326,8.09E-03,5.34E-03
41327,8.09E-03,5.16E-03
41328,8.09E-03,4.98E-03
41329,8.09E-03,4.82E-03
41330,8.09E-03,4.66E-03
41331,8.09E-03,4.52E-03
41332,8.09E-03,4.39E-03
41333,8.09E-03,4.27E-03
41334,8.09E-03,4.16E-03
41335,8.09E-03,4.07E-03
41336,8.09E-03,4.00E-03
41337,8.09E-03,3.94E-03
41338,8.09E-03,3.89E-03
41339,8.09E-03,3.86E-03
41340,8.09E-03,3.85E-03
41341,8.09E-03,3.86E-03
41342,8.09E-03,3.88E-03
41343,8.09E-03,3.92E-03
41344,8.09E-03,3.97E-03
41345,8.09E-03,4.03E-03
41346,8.09E-03,4.11E-03
41347,8.09E-03,4.20E-03
41348,8.09E-03,4.30E-03
41349,8.09E-03,4.40E-03
41350,8.09E-03,4.52E-03
41351,8.09E-03,4.64E-03
41352,8.09E-03,4.77E-03
41353,8.09E-03,4.91E-03
41354,8.09E-03,5.05E-03
41355,8.09E-03,5.19E-03
41356,8.09E-03,5.34E-03
41357,8.09E-03,5.49E-03
41358,8.09E-03,5.64E-03
41359,8.09E-03,5.79E-03
41360,8.09E-03,5.95E-03
41361,8.09E-03,6.10E-03
41362,8.09E-03,6.26E-03
41363,8.09E-03,6.41E-03
41364,8.09E-03,6.56E-03
41365,8.09E-03,6.72E-03
41366,8.09E-03,6.87E-03
41367,8.09E-03,7.02E-03
41368,8.09E-03,7.18E-03
41369,8.09E-03,7.33E-03
41370,8.09E-03,7.48E-03
41371,8.09E-03,7.62E-03
41372,8.09E-03,7.77E-03
41373,8.06E-03,7.92E-03
41374,7.89E-03,8.05E-03
41375,7.76E-03,8.19E-03
41376,7.54E-03,8.32E-03
41377,7.26E-03,8.45E-03
41378,7.04E-03,8.58E-03
41379,7.01E-03,8.71E-03
41380,6.79E-03,8.83E-03
41381,6.33E-03,8.96E-03
41382,5.49E-03,9.09E-03
41383,8.22E-03,1.82E-02
41384,7.96E-03,1.81E-02
41385,7.88E-03,1.80E-02
41386,7.44E-03,1.80E-02
41387,1.02E-02,1.79E-02
41388,1.00E-02,1.78E-02
41389,9.52E-03,1.78E-02
41390,8.59E-03,1.77E-02
41391,8.50E-03,1.76E-02
41392,7.55E-03,1.76E-02
41393,7.11E-03,1.75E-02
41394,6.86E-03,1.75E-02
41395,6.58E-03,1.75E-02
41396,7.64E-03,8.95E-03
41397,7.45E-03,8.69E-03
41398,6.94E-03,8.45E-03
41399,7.74E-03,9.66E-03
41400,9.23E-03,8.52E-03
41401,9.84E-03,8.55E-03
41402,9.82E-03,8.60E-03
41403,9.81E-03,8.64E-03
41404,9.81E-03,8.69E-03
41405,9.68E-03,8.74E-03
41406,9.38E-03,8.78E-03
41407,9.24E-03,8.83E-03
41408,8.58E-03,8.87E-03
41409,8.16E-03,8.91E-03
41410,7.93E-03,8.95E-03
41411,7.90E-03,9.00E-03
41412,7.73E-03,9.04E-03
41413,7.64E-03,9.08E-03
41414,6.42E-03,9.12E-03
41415,6.42E-03,9.15E-03
41416,6.35E-03,9.17E-03
41417,6.34E-03,9.20E-03
41418,6.24E-03,9.22E-03
41419,6.10E-03,9.24E-03
41420,6.11E-03,9.27E-03
41421,6.18E-03,9.30E-03
41422,6.28E-03,9.33E-03
41423,6.31E-03,9.35E-03
41424,6.59E-03,9.35E-03
41425,6.81E-03,9.37E-03
41426,6.90E-03,9.44E-03
41427,6.13E-03,9.44E-03
41428,5.55E-03,9.51E-03
41429,8.28E-03,8.77E-03
41430,8.13E-03,8.76E-03
41431,8.00E-03,8.74E-03
41432,7.79E-03,8.74E-03
41433,5.95E-03,5.27E-03
41434,5.82E-03,5.30E-03
41435,5.84E-03,5.33E-03
41436,5.94E-03,5.36E-03
41437,6.10E-03,5.39E-03
41438,6.33E-03,5.41E-03
41439,6.61E-03,5.44E-03
41440,6.72E-03,5.47E-03
41441,6.99E-03,5.50E-03
41442,7.18E-03,5.54E-03
41443,7.40E-03,5.57E-03
41444,7.61E-03,5.60E-03
41445,7.65E-03,5.63E-03
41446,7.80E-03,5.66E-03
41447,7.80E-03,5.69E-03
41448,7.78E-03,5.72E-03
41449,7.74E-03,5.75E-03
41450,7.71E-03,5.78E-03
41451,7.67E-03,5.81E-03
41452,7.61E-03,5.84E-03
41453,7.55E-03,5.87E-03
41454,7.48E-03,5.89E-03
41455,7.41E-03,5.92E-03
41456,7.37E-03,5.95E-03
41457,7.34E-03,5.97E-03
41458,7.30E-03,6.00E-03
41459,7.27E-03,6.02E-03
41460,7.23E-03,6.05E-03
41461,7.20E-03,6.07E-03
41462,7.17E-03,6.10E-03
41463,7.13E-03,6.13E-03
41464,7.09E-03,6.15E-03
41465,7.02E-03,6.18E-03
41466,6.95E-03,6.20E-03
41467,6.88E-03,6.23E-03
41468,6.80E-03,6.25E-03
41469,6.73E-03,6.28E-03
41470,6.66E-03,6.31E-03
41471,6.59E-03,6.33E-03
41472,6.51E-03,6.36E-03
41473,6.43E-03,6.39E-03
41474,6.34E-03,6.42E-03
41475,6.25E-03,6.45E-03
41476,6.14E-03,6.47E-03
41477,5.97E-03,6.50E-03
41478,5.80E-03,6.53E-03
41479,5.62E-03,6.56E-03
41480,5.48E-03,6.59E-03
41481,5.38E-03,6.62E-03
41482,5.29E-03,6.65E-03
41483,5.21E-03,6.68E-03
41484,5.14E-03,6.71E-03
41485,5.10E-03,6.74E-03
41486,5.05E-03,6.78E-03
41487,5.02E-03,6.81E-03
41488,5.04E-03,6.85E-03
41489,5.07E-03,6.88E-03
41490,5.11E-03,6.92E-03
41491,5.14E-03,6.96E-03
41492,5.18E-03,7.00E-03
41493,5.21E-03,7.04E-03
41494,5.24E-03,7.08E-03
41495,5.25E-03,7.13E-03
41496,5.25E-03,7.17E-03
41497,5.26E-03,7.22E-03
41498,5.27E-03,7.27E-03
41499,5.28E-03,7.31E-03
41500,5.32E-03,7.36E-03
41501,5.46E-03,7.42E-03
41502,5.67E-03,7.47E-03
41503,5.87E-03,7.53E-03
41504,6.08E-03,7.59E-03
41505,6.27E-03,7.65E-03
41506,6.41E-03,7.71E-03
41507,6.54E-03,7.78E-03
41508,6.67E-03,7.85E-03
41509,6.80E-03,7.92E-03
41510,6.93E-03,7.99E-03
41511,7.12E-03,8.07E-03
41512,7.39E-03,8.14E-03
41513,7.63E-03,8.22E-03
41514,7.93E-03,8.31E-03
41515,8.17E-03,8.39E-03
41516,8.28E-03,8.48E-03
41517,8.28E-03,8.56E-03
41518,9.88E-03,8.65E-03
41519,1.01E-02,8.76E-03
41520,1.02E-02,8.86E-03
41521,1.05E-02,8.98E-03
41522,1.18E-02,9.10E-03
41523,1.19E-02,9.17E-03
41524,9.76E-03,9.25E-03
41525,8.80E-03,9.32E-03
41526,8.03E-03,9.35E-03
41527,7.75E-03,9.40E-03
41528,8.52E-03,1.35E-02
41529,6.91E-03,1.79E-02
41530,6.80E-03,1.79E-02
41531,7.01E-03,1.37E-02
41532,7.68E-03,9.31E-03
41533,8.10E-03,1.49E-02
41534,8.10E-03,1.51E-02
41535,7.44E-03,2.01E-02
41536,8.02E-03,1.39E-02
41537,6.36E-03,1.01E-02
41538,6.59E-03,1.03E-02
41539,8.24E-03,2.25E-02
41540,8.06E-03,2.28E-02
41541,6.39E-03,2.64E-02
41542,7.74E-03,2.31E-02
41543,7.76E-03,2.33E-02
41544,8.13E-03,2.36E-02
41545,9.22E-03,2.39E-02
41546,7.95E-03,2.41E-02
41547,6.66E-03,2.48E-02
41548,1.18E-02,1.16E-02
41549,1.08E-02,1.14E-02
41550,1.09E-02,1.13E-02
41551,1.10E-02,1.11E-02
41552,1.09E-02,1.10E-02
41553,1.08E-02,1.08E-02
41554,1.08E-02,1.07E-02
41555,1.05E-02,1.05E-02
41556,9.72E-03,1.04E-02
41557,8.99E-03,1.02E-02
41558,7.93E-03,1.01E-02
41559,7.93E-03,1.00E-02
41560,6.70E-03,9.95E-03
41561,6.25E-03,9.81E-03
41562,6.32E-03,9.73E-03
41563,6.04E-03,9.67E-03
41564,6.53E-03,9.60E-03
41565,6.27E-03,9.44E-03
41566,7.76E-03,2.86E-02
41567,7.84E-03,2.76E-02
41568,7.76E-03,8.76E-03
41569,6.13E-03,9.79E-03
41570,6.75E-03,1.23E-02
41571,6.24E-03,1.81E-02
41572,6.71E-03,1.83E-02
41573,8.32E-03,1.25E-02
41574,9.51E-03,1.24E-02
41575,7.91E-03,1.28E-02
41576,6.08E-03,7.80E-03
41577,8.10E-03,1.13E-02
41578,8.09E-03,1.11E-02
41579,8.09E-03,1.10E-02
41580,8.09E-03,1.09E-02
41581,8.09E-03,1.07E-02
41582,8.09E-03,1.06E-02
41583,8.09E-03,1.04E-02
41584,8.09E-03,1.03E-02
41585,8.09E-03,1.01E-02
41586,8.09E-03,1.00E-02
41587,8.09E-03,9.84E-03
41588,8.09E-03,9.69E-03
41589,8.09E-03,9.53E-03
41590,8.09E-03,9.38E-03
41591,8.09E-03,9.22E-03
41592,8.09E-03,9.06E-03
41593,8.09E-03,8.90E-03
41594,8.09E-03,8.74E-03
41595,8.09E-03,8.57E-03
41596,8.09E-03,8.41E-03
41597,8.09E-03,8.25E-03
41598,8.09E-03,8.08E-03
41599,8.09E-03,7.92E-03
41600,8.09E-03,7.76E-03
41601,8.09E-03,7.59E-03
41602,8.09E-03,7.43E-03
41603,8.09E-03,7.27E-03
41604,8.09E-03,7.11E-03
41605,8.09E-03,6.95E-03
41606,8.09E-03,6.79E-03
41607,8.09E-03,6.63E-03
41608,8.09E-03,6.48E-03
41609,8.09E-03,6.33E-03
41610,8.09E-03,6.18E-03
41611,8.09E-03,6.04E-03
41612,8.09E-03,5.90E-03
41613,8.09E-03,5.76E-03
41614,8.09E-03,5.63E-03
41615,8.09E-03,5.51E-03
41616,8.09E-03,5.40E-03
41617,8.09E-03,5.29E-03
41618,8.09E-03,5.19E-03
41619,8.09E-03,5.10E-03
41620,8.09E-03,5.02E-03
41621,8.09E-03,4.95E-03
41622,8.09E-03,4.89E-03
41623,8.09E-03,4.84E-03
41624,8.09E-03,4.80E-03
41625,8.09E-03,4.78E-03
41626,8.09E-03,4.78E-03
41627,8.09E-03,4.78E-03
41628,8.09E-03,4.80E-03
41629,8.09E-03,4.83E-03
41630,8.09E-03,4.88E-03
41631,8.09E-03,4.94E-03
41632,8.09E-03,5.02E-03
41633,8.09E-03,5.11E-03
41634,8.09E-03,5.21E-03
41635,8.09E-03,5.32E-03
41636,8.09E-03,5.45E-03
41637,8.09E-03,5.58E-03
41638,8.09E-03,5.73E-03
41639,8.09E-03,5.88E-03
41640,8.09E-03,6.05E-03
41641,8.09E-03,6.22E-03
41642,8.09E-03,6.40E-03
41643,8.09E-03,6.59E-03
41644,8.09E-03,6.79E-03
41645,8.09E-03,6.99E-03
41646,8.09E-03,7.20E-03
41647,8.02E-03,7.42E-03
41648,7.92E-03,7.63E-03
41649,7.85E-03,7.86E-03
41650,7.84E-03,8.08E-03
41651,7.81E-03,8.31E-03
41652,7.87E-03,8.55E-03
41653,8.12E-03,8.81E-03
41654,7.25E-03,9.06E-03
41655,7.38E-03,9.26E-03
41656,7.43E-03,9.51E-03
41657,9.03E-03,9.74E-03
41658,8.03E-03,9.06E-03
41659,7.56E-03,1.07E-02
41660,6.06E-03,1.09E-02
41661,5.83E-03,1.11E-02
41662,5.29E-03,1.13E-02
41663,7.99E-03,1.15E-02
41664,6.57E-03,7.23E-03
41665,4.40E-03,7.36E-03
41666,4.31E-03,7.44E-03
41667,7.31E-03,1.81E-02
41668,6.23E-03,2.95E-02
41669,7.80E-03,9.73E-03
41670,8.10E-03,1.48E-02
41671,8.10E-03,1.51E-02
41672,8.05E-03,1.40E-02
41673,8.12E-03,2.22E-02
41674,7.58E-03,2.77E-02
41675,7.92E-03,1.80E-02
41676,9.00E-03,1.80E-02
41677,6.70E-03,1.32E-02
41678,6.43E-03,8.20E-03
41679,5.72E-03,8.21E-03
41680,5.49E-03,7.90E-03
41681,6.94E-03,8.57E-03
41682,4.01E-03,8.53E-03
41683,4.06E-03,8.51E-03
41684,4.24E-03,8.50E-03
41685,4.87E-03,8.49E-03
41686,4.82E-03,8.45E-03
41687,5.78E-03,8.42E-03
41688,6.12E-03,8.37E-03
41689,6.42E-03,8.32E-03
41690,6.63E-03,8.26E-03
41691,6.76E-03,8.21E-03
41692,6.87E-03,8.15E-03
41693,6.98E-03,8.09E-03
41694,7.10E-03,8.03E-03
41695,7.21E-03,7.96E-03
41696,7.33E-03,7.90E-03
41697,7.43E-03,7.83E-03
41698,7.49E-03,7.77E-03
41699,7.52E-03,7.70E-03
41700,7.55E-03,7.63E-03
41701,7.57E-03,7.57E-03
41702,7.60E-03,7.51E-03
41703,7.62E-03,7.45E-03
41704,7.65E-03,7.39E-03
41705,7.68E-03,7.33E-03
41706,7.70E-03,7.28E-03
41707,7.73E-03,7.23E-03
41708,7.75E-03,7.19E-03
41709,7.77E-03,7.15E-03
41710,7.79E-03,7.11E-03
41711,7.81E-03,7.09E-03
41712,7.82E-03,7.07E-03
41713,7.84E-03,7.05E-03
41714,7.86E-03,7.04E-03
41715,7.87E-03,7.04E-03
41716,7.88E-03,7.05E-03
41717,7.90E-03,7.07E-03
41718,7.91E-03,7.09E-03
41719,7.92E-03,7.13E-03
41720,7.93E-03,7.17E-03
41721,7.94E-03,7.22E-03
41722,7.94E-03,7.28E-03
41723,7.94E-03,7.35E-03
41724,7.94E-03,7.43E-03
41725,7.94E-03,7.51E-03
41726,7.94E-03,7.60E-03
41727,7.93E-03,7.70E-03
41728,7.93E-03,7.81E-03
41729,7.92E-03,7.93E-03
41730,7.90E-03,8.05E-03
41731,7.88E-03,8.17E-03
41732,7.86E-03,8.30E-03
41733,7.84E-03,8.44E-03
41734,7.82E-03,8.58E-03
41735,7.81E-03,8.72E-03
41736,7.79E-03,8.87E-03
41737,7.77E-03,9.02E-03
41738,7.75E-03,9.17E-03
41739,7.72E-03,9.32E-03
41740,7.68E-03,9.48E-03
41741,7.63E-03,9.64E-03
41742,7.58E-03,9.80E-03
41743,7.53E-03,9.96E-03
41744,7.49E-03,1.01E-02
41745,7.44E-03,1.03E-02
41746,7.39E-03,1.04E-02
41747,7.34E-03,1.06E-02
41748,7.31E-03,1.08E-02
41749,7.27E-03,1.09E-02
41750,7.24E-03,1.11E-02
41751,7.21E-03,1.12E-02
41752,7.18E-03,1.14E-02
41753,7.14E-03,1.15E-02
41754,7.10E-03,1.17E-02
41755,7.06E-03,1.18E-02
41756,7.01E-03,1.20E-02
41757,6.96E-03,1.21E-02
41758,6.91E-03,1.23E-02
41759,6.86E-03,1.24E-02
41760,6.78E-03,1.26E-02
41761,6.68E-03,1.27E-02
41762,6.59E-03,1.29E-02
41763,6.49E-03,1.30E-02
41764,6.41E-03,1.31E-02
41765,6.36E-03,1.33E-02
41766,6.34E-03,1.34E-02
41767,6.33E-03,1.35E-02
41768,6.34E-03,1.37E-02
41769,6.37E-03,1.38E-02
41770,6.41E-03,1.39E-02
41771,6.45E-03,1.41E-02
41772,6.47E-03,1.42E-02
41773,6.50E-03,1.43E-02
41774,6.52E-03,1.45E-02
41775,6.54E-03,1.46E-02
41776,6.57E-03,1.48E-02
41777,6.59E-03,1.49E-02
41778,6.62E-03,1.50E-02
41779,6.64E-03,1.52E-02
41780,6.66E-03,1.53E-02
41781,6.68E-03,1.54E-02
41782,6.70E-03,1.56E-02
41783,6.73E-03,1.57E-02
41784,6.76E-03,1.58E-02
41785,6.78E-03,1.60E-02
41786,6.78E-03,1.61E-02
41787,6.84E-03,1.63E-02
41788,6.95E-03,1.64E-02
41789,6.97E-03,1.66E-02
41790,6.95E-03,1.67E-02
41791,6.98E-03,1.68E-02
41792,6.90E-03,1.70E-02
41793,6.82E-03,1.71E-02
41794,6.58E-03,1.73E-02
41795,6.38E-03,1.75E-02
41796,8.26E-03,8.68E-03
41797,8.15E-03,8.70E-03
41798,7.73E-03,8.81E-03
41799,7.73E-03,8.88E-03
41800,7.23E-03,8.96E-03
41801,6.14E-03,1.25E-02
41802,8.24E-03,9.35E-03
41803,6.38E-03,9.85E-03
41804,8.95E-03,9.57E-03
41805,5.80E-03,9.61E-03
41806,5.93E-03,9.59E-03
41807,6.98E-03,9.54E-03
41808,8.35E-03,9.31E-03
41809,8.96E-03,9.22E-03
41810,9.62E-03,9.14E-03
41811,1.11E-02,9.03E-03
41812,1.07E-02,8.92E-03
41813,1.09E-02,8.83E-03
41814,1.09E-02,8.74E-03
41815,1.11E-02,8.65E-03
41816,1.11E-02,8.57E-03
41817,1.10E-02,8.50E-03
41818,1.08E-02,8.44E-03
41819,1.07E-02,8.38E-03
41820,1.05E-02,8.33E-03
41821,1.04E-02,8.29E-03
41822,1.01E-02,8.26E-03
41823,9.82E-03,8.23E-03
41824,9.59E-03,8.21E-03
41825,9.43E-03,8.19E-03
41826,9.32E-03,8.18E-03
41827,9.21E-03,8.17E-03
41828,9.11E-03,8.17E-03
41829,9.03E-03,8.17E-03
41830,8.95E-03,8.18E-03
41831,8.88E-03,8.18E-03
41832,8.79E-03,8.19E-03
41833,8.69E-03,8.21E-03
41834,8.58E-03,8.23E-03
41835,8.47E-03,8.25E-03
41836,8.36E-03,8.27E-03
41837,8.26E-03,8.30E-03
41838,8.20E-03,8.33E-03
41839,8.18E-03,8.36E-03
41840,8.04E-03,8.39E-03
41841,7.95E-03,8.43E-03
41842,7.61E-03,8.47E-03
41843,7.37E-03,8.51E-03
41844,7.32E-03,8.55E-03
41845,7.17E-03,8.59E-03
41846,6.95E-03,8.63E-03
41847,6.72E-03,8.67E-03
41848,6.61E-03,8.72E-03
41849,6.48E-03,8.76E-03
41850,6.10E-03,8.80E-03
41851,5.57E-03,8.85E-03
41852,5.69E-03,8.88E-03
41853,5.55E-03,8.94E-03
41854,5.48E-03,8.99E-03
41855,5.21E-03,9.04E-03
41856,4.19E-03,9.08E-03
41857,3.55E-03,9.12E-03
41858,2.65E-03,9.17E-03
41859,1.93E-03,9.18E-03
41860,3.23E-03,9.21E-03
41861,3.41E-03,9.24E-03
41862,4.87E-03,9.24E-03
41863,9.69E-03,1.20E-02
41864,7.36E-03,1.83E-02
41865,7.55E-03,1.85E-02
41866,6.32E-03,1.86E-02
41867,6.48E-03,1.86E-02
41868,7.91E-03,1.84E-02
41869,7.93E-03,1.85E-02
41870,8.10E-03,1.47E-02
41871,7.30E-03,2.98E-02
41872,7.17E-03,3.00E-02
41873,8.92E-03,2.15E-02
41874,8.13E-03,2.19E-02
41875,1.03E-02,2.98E-02
41876,7.56E-03,2.77E-02
41877,8.40E-03,1.03E-02
41878,8.10E-03,1.51E-02
41879,8.10E-03,1.41E-02
41880,8.10E-03,1.15E-02
41881,4.88E-03,1.22E-02
41882,8.10E-03,1.16E-02
41883,8.10E-03,1.47E-02
41884,8.10E-03,1.51E-02
41885,8.37E-03,9.39E-03
41886,7.05E-03,9.53E-03
41887,8.10E-03,1.42E-02
41888,8.10E-03,1.19E-02
41889,8.10E-03,1.18E-02
41890,5.68E-03,9.62E-03
41891,5.40E-03,1.20E-02
41892,8.10E-03,1.46E-02
41893,8.10E-03,1.51E-02
41894,8.10E-03,1.43E-02
41895,8.10E-03,1.45E-02
41896,8.10E-03,1.51E-02
41897,8.10E-03,1.43E-02
41898,8.10E-03,1.44E-02
41899,7.93E-03,1.51E-02
41900,8.10E-03,1.44E-02
41901,8.10E-03,1.21E-02
41902,8.10E-03,1.42E-02
41903,7.73E-03,1.51E-02
41904,8.10E-03,1.45E-02
41905,8.10E-03,1.41E-02
41906,7.47E-03,1.50E-02
41907,8.10E-03,1.46E-02
41908,8.10E-03,1.24E-02
41909,8.10E-03,1.23E-02
41910,8.10E-03,1.26E-02
41911,8.10E-03,1.40E-02
41912,7.02E-03,1.50E-02
41913,8.10E-03,1.46E-02
41914,8.10E-03,1.27E-02
41915,8.10E-03,1.39E-02
41916,6.82E-03,1.50E-02
41917,8.16E-03,1.47E-02
41918,8.10E-03,1.38E-02
41919,7.33E-03,1.49E-02
41920,8.23E-03,1.47E-02
41921,8.10E-03,1.37E-02
41922,8.48E-03,1.49E-02
41923,8.49E-03,1.48E-02
41924,8.10E-03,1.33E-02
41925,8.10E-03,1.31E-02
41926,8.10E-03,1.30E-02
41927,8.10E-03,1.28E-02
41928,8.10E-03,1.35E-02
41929,9.28E-03,1.49E-02
41930,8.77E-03,1.48E-02
41931,8.10E-03,1.34E-02
41932,4.43E-03,5.25E-03
41933,4.38E-03,5.27E-03
41934,3.66E-03,5.31E-03
41935,3.61E-03,5.34E-03
41936,3.60E-03,5.36E-03
41937,4.02E-03,5.39E-03
41938,4.26E-03,5.42E-03
41939,4.52E-03,5.46E-03
41940,4.78E-03,5.50E-03
41941,4.87E-03,5.54E-03
41942,5.07E-03,5.59E-03
41943,5.23E-03,5.64E-03
41944,5.47E-03,5.70E-03
41945,6.03E-03,5.76E-03
41946,6.28E-03,5.83E-03
41947,7.57E-03,5.91E-03
41948,8.09E-03,5.99E-03
41949,8.95E-03,6.09E-03
41950,9.13E-03,6.21E-03
41951,9.85E-03,6.32E-03
41952,1.11E-02,6.45E-03
41953,1.13E-02,6.58E-03
41954,8.63E-03,6.71E-03
41955,8.68E-03,6.83E-03
41956,9.67E-03,6.94E-03
41957,8.25E-03,6.90E-03
41958,7.82E-03,1.11E-02
41959,7.80E-03,1.13E-02
41960,6.67E-03,1.11E-02
41961,8.66E-03,1.10E-02
41962,7.80E-03,1.20E-02
41963,7.70E-03,1.19E-02
41964,8.55E-03,1.16E-02
41965,7.64E-03,1.18E-02
41966,9.07E-03,2.97E-02
41967,8.10E-03,3.00E-02
41968,8.14E-03,2.99E-02
41969,6.39E-03,1.01E-02
41970,6.47E-03,1.00E-02
41971,6.55E-03,1.01E-02
41972,7.67E-03,2.77E-02
41973,7.72E-03,2.74E-02
41974,8.88E-03,1.18E-02
41975,8.24E-03,1.20E-02
41976,6.36E-03,1.36E-02
41977,6.19E-03,1.39E-02
41978,5.61E-03,1.81E-02
41979,7.23E-03,1.79E-02
41980,7.49E-03,1.79E-02
41981,7.10E-03,1.80E-02
41982,5.09E-03,2.22E-02
41983,4.10E-03,2.17E-02
41984,3.87E-03,2.12E-02
41985,3.59E-03,2.09E-02
41986,3.86E-03,2.06E-02
41987,4.28E-03,2.04E-02
41988,4.72E-03,2.02E-02
41989,4.87E-03,1.99E-02
41990,4.98E-03,1.96E-02
41991,5.16E-03,1.92E-02
41992,5.50E-03,1.89E-02
41993,5.49E-03,1.85E-02
41994,5.63E-03,1.82E-02
41995,5.67E-03,1.78E-02
41996,5.69E-03,1.75E-02
41997,5.71E-03,1.72E-02
41998,5.63E-03,1.68E-02
41999,5.47E-03,1.65E-02
42000,5.28E-03,1.63E-02
42001,5.11E-03,1.60E-02
42002,4.92E-03,1.58E-02
42003,4.57E-03,1.55E-02
42004,4.07E-03,1.53E-02
42005,3.82E-03,1.51E-02
42006,4.12E-03,1.50E-02
42007,4.78E-03,1.48E-02
42008,5.27E-03,1.46E-02
42009,5.64E-03,1.44E-02
42010,7.00E-03,1.41E-02
42011,7.06E-03,1.39E-02
42012,7.99E-03,2.97E-02
42013,7.59E-03,9.00E-03
42014,7.18E-03,8.45E-03
42015,7.52E-03,8.71E-03
42016,8.10E-03,1.50E-02
42017,8.10E-03,1.50E-02
42018,8.10E-03,1.51E-02
42019,8.10E-03,1.50E-02
42020,7.40E-03,1.98E-02
42021,7.09E-03,1.94E-02
42022,1.05E-02,1.91E-02
42023,1.06E-02,1.87E-02
42024,8.52E-03,1.83E-02
42025,8.20E-03,1.79E-02
42026,8.11E-03,1.75E-02
42027,8.07E-03,1.72E-02
42028,8.02E-03,1.68E-02
42029,8.02E-03,1.65E-02
42030,8.02E-03,1.61E-02
42031,7.92E-03,1.58E-02
42032,7.80E-03,1.54E-02
42033,7.73E-03,1.51E-02
42034,7.38E-03,1.48E-02
42035,6.78E-03,1.41E-02
42036,7.23E-03,1.44E-02
42037,8.04E-03,1.37E-02
42038,8.09E-03,1.35E-02
42039,8.09E-03,1.34E-02
42040,8.09E-03,1.32E-02
42041,8.09E-03,1.30E-02
42042,8.09E-03,1.28E-02
42043,8.09E-03,1.26E-02
42044,8.09E-03,1.24E-02
42045,8.09E-03,1.22E-02
42046,8.09E-03,1.20E-02
42047,7.99E-03,1.18E-02
42048,7.81E-03,1.16E-02
42049,7.64E-03,1.14E-02
42050,7.52E-03,1.12E-02
42051,7.34E-03,1.10E-02
42052,6.60E-03,1.05E-02
42053,6.86E-03,1.07E-02
42054,7.09E-03,1.08E-02
42055,6.85E-03,2.43E-02
42056,8.43E-03,2.41E-02
42057,7.93E-03,2.31E-02
42058,7.90E-03,2.35E-02
42059,8.00E-03,2.38E-02
42060,6.66E-03,2.61E-02
42061,6.81E-03,2.58E-02
42062,7.06E-03,2.55E-02
42063,6.71E-03,2.50E-02
42064,7.06E-03,2.52E-02
42065,6.41E-03,9.52E-03
42066,6.25E-03,9.47E-03
42067,6.37E-03,2.85E-02
42068,7.59E-03,2.79E-02
42069,6.86E-03,2.81E-02
42070,4.29E-03,2.82E-02
42071,3.83E-03,1.10E-02
42072,5.26E-03,1.07E-02
42073,5.20E-03,1.09E-02
42074,6.30E-03,1.05E-02
42075,9.00E-03,8.79E-03
42076,9.35E-03,8.82E-03
42077,9.61E-03,8.85E-03
42078,9.75E-03,8.90E-03
42079,9.80E-03,8.95E-03
42080,9.61E-03,8.99E-03
42081,9.38E-03,9.04E-03
42082,9.29E-03,9.09E-03
42083,8.61E-03,9.13E-03
42084,8.19E-03,9.18E-03
42085,7.99E-03,9.22E-03
42086,7.94E-03,9.26E-03
42087,7.72E-03,9.30E-03
42088,7.52E-03,9.35E-03
42089,6.48E-03,9.38E-03
42090,6.42E-03,9.41E-03
42091,6.43E-03,9.43E-03
42092,6.37E-03,9.46E-03
42093,6.39E-03,9.49E-03
42094,6.45E-03,9.51E-03
42095,6.50E-03,9.54E-03
42096,6.48E-03,9.57E-03
42097,6.42E-03,9.59E-03
42098,6.50E-03,9.61E-03
42099,6.68E-03,9.63E-03
42100,6.73E-03,9.66E-03
42101,6.79E-03,9.70E-03
42102,6.45E-03,9.66E-03
42103,6.90E-03,9.70E-03
42104,7.39E-03,9.75E-03
42105,5.50E-03,9.69E-03
42106,5.43E-03,9.73E-03
42107,7.26E-03,1.24E-02
42108,7.44E-03,1.24E-02
42109,7.33E-03,1.24E-02
42110,6.71E-03,1.27E-02
42111,8.71E-03,1.19E-02
42112,7.99E-03,1.18E-02
42113,4.00E-03,1.18E-02
42114,4.06E-03,1.18E-02
42115,4.59E-03,1.18E-02
42116,4.80E-03,1.18E-02
42117,4.97E-03,1.18E-02
42118,5.16E-03,1.18E-02
42119,5.16E-03,1.18E-02
42120,5.23E-03,1.17E-02
42121,5.20E-03,1.17E-02
42122,4.96E-03,1.17E-02
42123,5.17E-03,1.17E-02
42124,6.11E-03,1.17E-02
42125,7.44E-03,1.17E-02
42126,7.88E-03,1.17E-02
42127,8.63E-03,1.16E-02
42128,8.82E-03,1.16E-02
42129,9.10E-03,1.15E-02
42130,9.86E-03,1.15E-02
42131,1.01E-02,1.14E-02
42132,1.03E-02,1.14E-02
42133,1.09E-02,1.14E-02
42134,1.10E-02,1.14E-02
42135,1.10E-02,1.13E-02
42136,1.10E-02,1.13E-02
42137,5.55E-03,1.13E-02
42138,1.06E-02,1.12E-02
42139,6.24E-03,1.85E-02
42140,6.40E-03,7.84E-03
42141,8.09E-03,1.12E-02
42142,8.09E-03,1.10E-02
42143,8.09E-03,1.09E-02
42144,8.09E-03,1.08E-02
42145,8.09E-03,1.06E-02
42146,8.09E-03,1.05E-02
42147,8.09E-03,1.03E-02
42148,8.09E-03,1.02E-02
42149,8.09E-03,1.00E-02
42150,8.09E-03,9.87E-03
42151,8.09E-03,9.71E-03
42152,8.09E-03,9.56E-03
42153,8.09E-03,9.40E-03
42154,8.09E-03,9.24E-03
42155,8.09E-03,9.08E-03
42156,8.09E-03,8.92E-03
42157,8.09E-03,8.76E-03
42158,8.09E-03,8.59E-03
42159,8.09E-03,8.43E-03
42160,8.09E-03,8.27E-03
42161,8.09E-03,8.10E-03
42162,8.09E-03,7.94E-03
42163,8.09E-03,7.77E-03
42164,8.09E-03,7.61E-03
42165,8.09E-03,7.45E-03
42166,8.09E-03,7.28E-03
42167,8.09E-03,7.12E-03
42168,8.09E-03,6.96E-03
42169,8.09E-03,6.80E-03
42170,8.09E-03,6.64E-03
42171,8.09E-03,6.49E-03
42172,8.09E-03,6.34E-03
42173,8.09E-03,6.19E-03
42174,8.09E-03,6.04E-03
42175,8.09E-03,5.90E-03
42176,8.09E-03,5.77E-03
42177,8.09E-03,5.64E-03
42178,8.09E-03,5.51E-03
42179,8.09E-03,5.39E-03
42180,8.09E-03,5.28E-03
42181,8.09E-03,5.18E-03
42182,8.09E-03,5.09E-03
42183,8.09E-03,5.01E-03
42184,8.09E-03,4.93E-03
42185,8.09E-03,4.87E-03
42186,8.09E-03,4.82E-03
42187,8.09E-03,4.79E-03
42188,8.09E-03,4.76E-03
42189,8.09E-03,4.75E-03
42190,8.09E-03,4.75E-03
42191,8.09E-03,4.77E-03
42192,8.09E-03,4.80E-03
42193,8.09E-03,4.85E-03
42194,8.09E-03,4.91E-03
42195,8.09E-03,4.98E-03
42196,8.09E-03,5.07E-03
42197,8.09E-03,5.17E-03
42198,8.09E-03,5.28E-03
42199,8.09E-03,5.40E-03
42200,8.09E-03,5.53E-03
42201,8.09E-03,5.68E-03
42202,8.09E-03,5.83E-03
42203,8.09E-03,6.00E-03
42204,8.09E-03,6.17E-03
42205,8.09E-03,6.35E-03
42206,8.09E-03,6.54E-03
42207,8.09E-03,6.73E-03
42208,8.09E-03,6.93E-03
42209,8.09E-03,7.14E-03
42210,8.09E-03,7.35E-03
42211,8.03E-03,7.57E-03
42212,7.96E-03,7.79E-03
42213,7.96E-03,8.02E-03
42214,7.94E-03,8.25E-03
42215,8.00E-03,8.49E-03
42216,8.01E-03,8.74E-03
42217,7.62E-03,8.98E-03
42218,7.66E-03,9.20E-03
42219,7.99E-03,9.44E-03
42220,7.74E-03,8.17E-03
42221,5.80E-03,2.48E-02
42222,7.89E-03,9.02E-03
42223,7.80E-03,9.02E-03
42224,7.76E-03,9.02E-03
42225,7.81E-03,9.02E-03
42226,8.39E-03,1.21E-02
42227,6.02E-03,1.12E-02
42228,4.24E-03,7.25E-03
42229,5.84E-03,7.11E-03
42230,6.43E-03,6.68E-03
42231,7.57E-03,6.64E-03
42232,8.14E-03,6.58E-03
42233,8.16E-03,6.47E-03
42234,1.12E-02,6.35E-03
42235,1.10E-02,6.22E-03
42236,9.90E-03,6.09E-03
42237,9.17E-03,5.98E-03
42238,8.89E-03,5.88E-03
42239,8.35E-03,5.78E-03
42240,7.58E-03,5.69E-03
42241,6.32E-03,5.62E-03
42242,5.80E-03,5.56E-03
42243,5.50E-03,5.50E-03
42244,5.35E-03,5.44E-03
42245,5.24E-03,5.39E-03
42246,4.96E-03,5.35E-03
42247,4.77E-03,5.30E-03
42248,4.65E-03,5.26E-03
42249,4.39E-03,5.23E-03
42250,4.23E-03,5.20E-03
42251,3.68E-03,5.17E-03
42252,3.55E-03,5.16E-03
42253,3.52E-03,5.14E-03
42254,3.86E-03,5.10E-03
42255,4.19E-03,5.06E-03
42256,4.46E-03,5.06E-03
42257,5.66E-03,5.04E-03
42258,6.17E-03,5.04E-03
42259,5.88E-03,5.07E-03
42260,5.78E-03,5.11E-03
42261,5.81E-03,5.15E-03
42262,5.97E-03,5.18E-03
42263,6.12E-03,5.21E-03
42264,6.39E-03,5.23E-03
42265,6.65E-03,5.26E-03
42266,6.71E-03,5.30E-03
42267,7.09E-03,5.33E-03
42268,7.27E-03,5.36E-03
42269,7.46E-03,5.39E-03
42270,7.51E-03,5.42E-03
42271,7.72E-03,5.46E-03
42272,7.81E-03,5.49E-03
42273,7.81E-03,5.52E-03
42274,7.79E-03,5.55E-03
42275,7.76E-03,5.58E-03
42276,7.72E-03,5.61E-03
42277,7.69E-03,5.64E-03
42278,7.63E-03,5.67E-03
42279,7.56E-03,5.70E-03
42280,7.50E-03,5.72E-03
42281,7.44E-03,5.75E-03
42282,7.39E-03,5.78E-03
42283,7.36E-03,5.80E-03
42284,7.33E-03,5.83E-03
42285,7.29E-03,5.85E-03
42286,7.26E-03,5.88E-03
42287,7.23E-03,5.91E-03
42288,7.20E-03,5.93E-03
42289,7.16E-03,5.96E-03
42290,7.12E-03,5.98E-03
42291,7.06E-03,6.01E-03
42292,6.99E-03,6.04E-03
42293,6.92E-03,6.06E-03
42294,6.85E-03,6.09E-03
42295,6.78E-03,6.12E-03
42296,6.71E-03,6.14E-03
42297,6.64E-03,6.17E-03
42298,6.56E-03,6.20E-03
42299,6.48E-03,6.23E-03
42300,6.40E-03,6.25E-03
42301,6.31E-03,6.28E-03
42302,6.20E-03,6.31E-03
42303,6.04E-03,6.34E-03
42304,5.87E-03,6.37E-03
42305,5.70E-03,6.40E-03
42306,5.57E-03,6.43E-03
42307,5.47E-03,6.46E-03
42308,5.38E-03,6.49E-03
42309,5.30E-03,6.52E-03
42310,5.24E-03,6.55E-03
42311,5.19E-03,6.59E-03
42312,5.15E-03,6.62E-03
42313,5.13E-03,6.65E-03
42314,5.14E-03,6.69E-03
42315,5.17E-03,6.73E-03
42316,5.21E-03,6.77E-03
42317,5.24E-03,6.81E-03
42318,5.27E-03,6.85E-03
42319,5.31E-03,6.89E-03
42320,5.33E-03,6.93E-03
42321,5.34E-03,6.98E-03
42322,5.35E-03,7.02E-03
42323,5.36E-03,7.07E-03
42324,5.36E-03,7.12E-03
42325,5.37E-03,7.17E-03
42326,5.41E-03,7.22E-03
42327,5.55E-03,7.27E-03
42328,5.75E-03,7.33E-03
42329,5.95E-03,7.39E-03
42330,6.15E-03,7.45E-03
42331,6.33E-03,7.51E-03
42332,6.47E-03,7.58E-03
42333,6.59E-03,7.64E-03
42334,6.71E-03,7.71E-03
42335,6.84E-03,7.78E-03
42336,6.97E-03,7.86E-03
42337,7.16E-03,7.93E-03
42338,7.41E-03,8.01E-03
42339,7.65E-03,8.09E-03
42340,7.93E-03,8.17E-03
42341,8.19E-03,8.26E-03
42342,8.33E-03,8.34E-03
42343,8.40E-03,8.43E-03
42344,9.49E-03,8.52E-03
42345,1.03E-02,8.63E-03
42346,1.03E-02,8.73E-03
42347,1.07E-02,8.85E-03
42348,1.11E-02,8.95E-03
42349,1.11E-02,9.03E-03
42350,9.21E-03,9.11E-03
42351,8.88E-03,9.18E-03
42352,8.43E-03,9.23E-03
42353,8.07E-03,9.28E-03
42354,8.66E-03,1.34E-02
42355,7.88E-03,1.81E-02
42356,6.75E-03,2.95E-02
42357,7.13E-03,2.95E-02
42358,7.70E-03,2.95E-02
42359,7.95E-03,2.94E-02
42360,7.99E-03,2.93E-02
42361,7.81E-03,2.92E-02
42362,7.67E-03,2.91E-02
42363,7.45E-03,2.89E-02
42364,7.18E-03,2.88E-02
42365,6.81E-03,2.87E-02
42366,6.36E-03,2.85E-02
42367,5.85E-03,2.84E-02
42368,5.34E-03,2.82E-02
42369,4.98E-03,2.81E-02
42370,4.61E-03,2.79E-02
42371,3.87E-03,2.78E-02
42372,3.36E-03,2.76E-02
42373,3.23E-03,2.75E-02
42374,3.52E-03,2.73E-02
42375,3.76E-03,2.71E-02
42376,4.35E-03,2.69E-02
42377,5.02E-03,2.67E-02
42378,5.28E-03,2.65E-02
42379,5.35E-03,2.62E-02
42380,5.42E-03,2.60E-02
42381,5.49E-03,2.57E-02
42382,5.54E-03,2.54E-02
42383,5.53E-03,2.51E-02
42384,5.47E-03,2.48E-02
42385,5.41E-03,2.45E-02
42386,5.30E-03,2.42E-02
42387,5.26E-03,2.39E-02
42388,5.30E-03,2.35E-02
42389,5.60E-03,2.32E-02
42390,6.55E-03,2.30E-02
42391,7.51E-03,2.26E-02
42392,5.75E-03,2.24E-02
42393,7.53E-03,1.37E-02
42394,7.68E-03,9.36E-03
42395,8.10E-03,1.49E-02
42396,8.10E-03,1.51E-02
42397,8.25E-03,2.02E-02
42398,6.37E-03,1.38E-02
42399,8.10E-03,1.38E-02
42400,6.74E-03,9.99E-03
42401,6.90E-03,1.02E-02
42402,7.86E-03,2.46E-02
42403,8.18E-03,2.25E-02
42404,8.07E-03,2.29E-02
42405,1.10E-02,1.15E-02
42406,1.12E-02,1.14E-02
42407,1.11E-02,1.12E-02
42408,1.11E-02,1.11E-02
42409,1.10E-02,1.09E-02
42410,1.09E-02,1.07E-02
42411,1.09E-02,1.06E-02
42412,1.05E-02,1.04E-02
42413,9.41E-03,1.03E-02
42414,8.63E-03,1.02E-02
42415,8.18E-03,1.00E-02
42416,7.62E-03,9.93E-03
42417,6.39E-03,9.69E-03
42418,6.44E-03,9.60E-03
42419,6.40E-03,9.54E-03
42420,7.04E-03,9.47E-03
42421,6.64E-03,9.32E-03
42422,7.95E-03,2.90E-02
42423,7.66E-03,2.79E-02
42424,4.59E-03,1.09E-02
42425,9.64E-03,1.82E-02
42426,9.55E-03,1.82E-02
42427,9.84E-03,1.80E-02
42428,9.89E-03,1.79E-02
42429,9.97E-03,1.79E-02
42430,9.72E-03,1.79E-02
42431,9.68E-03,1.79E-02
42432,9.41E-03,1.78E-02
42433,9.32E-03,1.78E-02
42434,9.03E-03,1.78E-02
42435,8.91E-03,1.78E-02
42436,8.82E-03,1.78E-02
42437,8.79E-03,1.78E-02
42438,8.79E-03,1.78E-02
42439,8.78E-03,1.78E-02
42440,8.73E-03,1.78E-02
42441,8.60E-03,1.78E-02
42442,8.46E-03,1.78E-02
42443,8.36E-03,1.78E-02
42444,8.29E-03,1.78E-02
42445,8.23E-03,1.78E-02
42446,8.20E-03,1.78E-02
42447,8.19E-03,1.78E-02
42448,8.19E-03,1.78E-02
42449,8.18E-03,1.78E-02
42450,8.17E-03,1.78E-02
42451,8.15E-03,1.78E-02
42452,8.13E-03,1.78E-02
42453,8.09E-03,1.77E-02
42454,8.07E-03,1.77E-02
42455,8.04E-03,1.77E-02
42456,8.02E-03,1.77E-02
42457,8.00E-03,1.77E-02
42458,7.99E-03,1.77E-02
42459,8.00E-03,1.77E-02
42460,8.03E-03,1.76E-02
42461,8.07E-03,1.76E-02
42462,8.10E-03,1.76E-02
42463,8.14E-03,1.76E-02
42464,8.17E-03,1.75E-02
42465,8.21E-03,1.75E-02
42466,8.25E-03,1.75E-02
42467,8.31E-03,1.74E-02
42468,8.40E-03,1.74E-02
42469,8.48E-03,1.73E-02
42470,8.54E-03,1.73E-02
42471,8.58E-03,1.72E-02
42472,8.62E-03,1.72E-02
42473,8.65E-03,1.71E-02
42474,8.69E-03,1.71E-02
42475,8.73E-03,1.70E-02
42476,8.78E-03,1.70E-02
42477,8.84E-03,1.69E-02
42478,8.89E-03,1.69E-02
42479,8.96E-03,1.68E-02
42480,9.07E-03,1.68E-02
42481,9.18E-03,1.67E-02
42482,9.29E-03,1.67E-02
42483,9.36E-03,1.66E-02
42484,9.38E-03,1.66E-02
42485,9.35E-03,1.65E-02
42486,9.31E-03,1.65E-02
42487,9.26E-03,1.65E-02
42488,9.22E-03,1.64E-02
42489,9.19E-03,1.64E-02
42490,9.14E-03,1.64E-02
42491,9.10E-03,1.63E-02
42492,9.11E-03,1.63E-02
42493,9.12E-03,1.63E-02
42494,8.99E-03,1.62E-02
42495,8.72E-03,1.62E-02
42496,8.42E-03,1.62E-02
42497,8.12E-03,1.62E-02
42498,7.92E-03,1.62E-02
42499,7.93E-03,1.62E-02
42500,7.99E-03,1.62E-02
42501,7.93E-03,1.62E-02
42502,7.80E-03,1.61E-02
42503,7.68E-03,1.61E-02
42504,7.57E-03,1.61E-02
42505,7.46E-03,1.61E-02
42506,7.33E-03,1.61E-02
42507,7.16E-03,1.61E-02
42508,6.98E-03,1.61E-02
42509,6.82E-03,1.60E-02
42510,6.71E-03,1.60E-02
42511,6.64E-03,1.60E-02
42512,6.57E-03,1.60E-02
42513,6.51E-03,1.59E-02
42514,6.47E-03,1.59E-02
42515,6.44E-03,1.59E-02
42516,6.39E-03,1.58E-02
42517,6.31E-03,1.58E-02
42518,6.22E-03,1.57E-02
42519,6.15E-03,1.57E-02
42520,6.15E-03,1.56E-02
42521,6.19E-03,1.56E-02
42522,6.24E-03,1.55E-02
42523,6.29E-03,1.55E-02
42524,6.34E-03,1.54E-02
42525,6.39E-03,1.53E-02
42526,6.44E-03,1.53E-02
42527,6.50E-03,1.52E-02
42528,6.55E-03,1.51E-02
42529,6.59E-03,1.51E-02
42530,6.61E-03,1.50E-02
42531,6.63E-03,1.49E-02
42532,6.65E-03,1.48E-02
42533,6.67E-03,1.47E-02
42534,6.68E-03,1.47E-02
42535,6.69E-03,1.46E-02
42536,6.67E-03,1.45E-02
42537,6.63E-03,1.44E-02
42538,6.58E-03,1.43E-02
42539,6.54E-03,1.43E-02
42540,6.48E-03,1.42E-02
42541,6.43E-03,1.41E-02
42542,6.36E-03,1.40E-02
42543,6.25E-03,1.39E-02
42544,6.12E-03,1.38E-02
42545,5.98E-03,1.38E-02
42546,5.85E-03,1.37E-02
42547,5.74E-03,1.36E-02
42548,5.70E-03,1.35E-02
42549,5.76E-03,1.35E-02
42550,5.82E-03,1.34E-02
42551,5.75E-03,1.33E-02
42552,5.72E-03,1.33E-02
42553,6.57E-03,1.32E-02
42554,8.28E-03,1.31E-02
42555,8.22E-03,1.30E-02
42556,9.54E-03,1.29E-02
42557,1.10E-02,1.27E-02
42558,9.11E-03,1.26E-02
42559,8.83E-03,1.25E-02
42560,8.85E-03,1.24E-02
42561,8.80E-03,1.22E-02
42562,6.50E-03,1.21E-02
42563,6.12E-03,7.47E-03
42564,7.86E-03,9.03E-03
42565,6.40E-03,9.94E-03
42566,6.20E-03,1.31E-02
42567,8.06E-03,3.03E-02
42568,7.50E-03,3.05E-02
42569,8.64E-03,3.06E-02
42570,5.37E-03,1.14E-02
42571,7.83E-03,1.83E-02
42572,7.87E-03,1.83E-02
42573,7.77E-03,1.82E-02
42574,7.58E-03,1.81E-02
42575,9.95E-03,1.81E-02
42576,9.65E-03,1.80E-02
42577,9.47E-03,1.79E-02
42578,8.66E-03,1.79E-02
42579,8.52E-03,1.78E-02
42580,7.31E-03,1.78E-02
42581,7.02E-03,1.77E-02
42582,6.77E-03,1.77E-02
42583,6.49E-03,1.76E-02
42584,5.79E-03,1.76E-02
42585,7.36E-03,8.83E-03
42586,3.68E-03,8.81E-03
42587,3.93E-03,8.79E-03
42588,4.35E-03,8.78E-03
42589,4.84E-03,8.75E-03
42590,5.20E-03,8.72E-03
42591,5.86E-03,8.68E-03
42592,6.18E-03,8.62E-03
42593,6.48E-03,8.57E-03
42594,6.68E-03,8.51E-03
42595,6.80E-03,8.45E-03
42596,6.91E-03,8.39E-03
42597,7.02E-03,8.33E-03
42598,7.13E-03,8.26E-03
42599,7.24E-03,8.19E-03
42600,7.35E-03,8.13E-03
42601,7.45E-03,8.06E-03
42602,7.51E-03,7.98E-03
42603,7.54E-03,7.91E-03
42604,7.56E-03,7.84E-03
42605,7.59E-03,7.77E-03
42606,7.61E-03,7.70E-03
42607,7.64E-03,7.63E-03
42608,7.67E-03,7.57E-03
42609,7.69E-03,7.51E-03
42610,7.72E-03,7.45E-03
42611,7.74E-03,7.39E-03
42612,7.76E-03,7.34E-03
42613,7.78E-03,7.29E-03
42614,7.80E-03,7.25E-03
42615,7.82E-03,7.21E-03
42616,7.83E-03,7.18E-03
42617,7.85E-03,7.16E-03
42618,7.86E-03,7.14E-03
42619,7.88E-03,7.14E-03
42620,7.89E-03,7.14E-03
42621,7.90E-03,7.14E-03
42622,7.91E-03,7.16E-03
42623,7.93E-03,7.19E-03
42624,7.94E-03,7.22E-03
42625,7.94E-03,7.27E-03
42626,7.94E-03,7.32E-03
42627,7.94E-03,7.38E-03
42628,7.94E-03,7.46E-03
42629,7.94E-03,7.54E-03
42630,7.94E-03,7.62E-03
42631,7.94E-03,7.72E-03
42632,7.94E-03,7.82E-03
42633,7.92E-03,7.93E-03
42634,7.91E-03,8.05E-03
42635,7.89E-03,8.17E-03
42636,7.87E-03,8.30E-03
42637,7.85E-03,8.44E-03
42638,7.83E-03,8.57E-03
42639,7.81E-03,8.72E-03
42640,7.80E-03,8.86E-03
42641,7.78E-03,9.01E-03
42642,7.76E-03,9.16E-03
42643,7.73E-03,9.32E-03
42644,7.69E-03,9.47E-03
42645,7.65E-03,9.63E-03
42646,7.60E-03,9.79E-03
42647,7.55E-03,9.95E-03
42648,7.51E-03,1.01E-02
42649,7.46E-03,1.03E-02
42650,7.41E-03,1.04E-02
42651,7.37E-03,1.06E-02
42652,7.33E-03,1.07E-02
42653,7.30E-03,1.09E-02
42654,7.27E-03,1.11E-02
42655,7.24E-03,1.12E-02
42656,7.21E-03,1.14E-02
42657,7.17E-03,1.15E-02
42658,7.13E-03,1.17E-02
42659,7.09E-03,1.18E-02
42660,7.04E-03,1.20E-02
42661,7.00E-03,1.21E-02
42662,6.95E-03,1.23E-02
42663,6.90E-03,1.24E-02
42664,6.82E-03,1.26E-02
42665,6.73E-03,1.27E-02
42666,6.64E-03,1.29E-02
42667,6.54E-03,1.30E-02
42668,6.46E-03,1.31E-02
42669,6.41E-03,1.33E-02
42670,6.40E-03,1.34E-02
42671,6.39E-03,1.36E-02
42672,6.40E-03,1.37E-02
42673,6.43E-03,1.38E-02
42674,6.47E-03,1.40E-02
42675,6.50E-03,1.41E-02
42676,6.52E-03,1.42E-02
42677,6.55E-03,1.44E-02
42678,6.57E-03,1.45E-02
42679,6.59E-03,1.46E-02
42680,6.62E-03,1.48E-02
42681,6.64E-03,1.49E-02
42682,6.66E-03,1.50E-02
42683,6.69E-03,1.52E-02
42684,6.71E-03,1.53E-02
42685,6.73E-03,1.54E-02
42686,6.75E-03,1.56E-02
42687,6.77E-03,1.57E-02
42688,6.80E-03,1.59E-02
42689,6.82E-03,1.60E-02
42690,6.83E-03,1.61E-02
42691,6.83E-03,1.63E-02
42692,6.88E-03,1.64E-02
42693,6.94E-03,1.66E-02
42694,6.95E-03,1.67E-02
42695,6.90E-03,1.68E-02
42696,6.92E-03,1.70E-02
42697,6.76E-03,1.71E-02
42698,6.57E-03,1.73E-02
42699,6.26E-03,1.74E-02
42700,5.79E-03,1.76E-02
42701,6.88E-03,8.96E-03
42702,6.95E-03,8.97E-03
42703,7.29E-03,9.03E-03
42704,7.56E-03,9.13E-03
42705,7.93E-03,1.27E-02
42706,8.46E-03,9.31E-03
42707,5.31E-03,9.15E-03
42708,6.55E-03,8.98E-03
42709,8.23E-03,8.78E-03
42710,8.09E-03,8.55E-03
42711,8.09E-03,8.32E-03
42712,8.09E-03,8.09E-03
42713,8.09E-03,7.86E-03
42714,8.09E-03,7.64E-03
42715,8.09E-03,7.41E-03
42716,8.09E-03,7.19E-03
42717,8.09E-03,6.97E-03
42718,8.09E-03,6.75E-03
42719,8.09E-03,6.53E-03
42720,8.09E-03,6.32E-03
42721,8.09E-03,6.11E-03
42722,8.09E-03,5.90E-03
42723,8.09E-03,5.70E-03
42724,8.09E-03,5.51E-03
42725,8.09E-03,5.32E-03
42726,8.09E-03,5.14E-03
42727,8.09E-03,4.97E-03
42728,8.09E-03,4.80E-03
42729,8.09E-03,4.65E-03
42730,8.09E-03,4.50E-03
42731,8.09E-03,4.37E-03
42732,8.09E-03,4.25E-03
42733,8.09E-03,4.15E-03
42734,8.09E-03,4.05E-03
42735,8.09E-03,3.98E-03
42736,8.09E-03,3.92E-03
42737,8.09E-03,3.87E-03
42738,8.09E-03,3.84E-03
42739,8.09E-03,3.83E-03
42740,8.09E-03,3.83E-03
42741,8.09E-03,3.85E-03
42742,8.09E-03,3.89E-03
42743,8.09E-03,3.94E-03
42744,8.09E-03,4.01E-03
42745,8.09E-03,4.08E-03
42746,8.09E-03,4.17E-03
42747,8.09E-03,4.27E-03
42748,8.09E-03,4.38E-03
42749,8.09E-03,4.49E-03
42750,8.09E-03,4.62E-03
42751,8.09E-03,4.75E-03
42752,8.09E-03,4.88E-03
42753,8.09E-03,5.02E-03
42754,8.09E-03,5.17E-03
42755,8.09E-03,5.31E-03
42756,8.09E-03,5.46E-03
42757,8.09E-03,5.62E-03
42758,8.09E-03,5.77E-03
42759,8.09E-03,5.92E-03
42760,8.09E-03,6.08E-03
42761,8.09E-03,6.24E-03
42762,8.09E-03,6.39E-03
42763,8.09E-03,6.55E-03
42764,8.09E-03,6.70E-03
42765,8.09E-03,6.86E-03
42766,8.09E-03,7.01E-03
42767,8.09E-03,7.16E-03
42768,8.09E-03,7.32E-03
42769,8.09E-03,7.47E-03
42770,8.09E-03,7.62E-03
42771,8.09E-03,7.77E-03
42772,8.01E-03,7.91E-03
42773,7.90E-03,8.05E-03
42774,7.77E-03,8.19E-03
42775,7.58E-03,8.32E-03
42776,7.44E-03,8.46E-03
42777,7.28E-03,8.59E-03
42778,7.13E-03,8.72E-03
42779,6.94E-03,8.85E-03
42780,6.65E-03,8.99E-03
42781,6.27E-03,9.12E-03
42782,8.29E-03,9.47E-03
42783,9.08E-03,9.38E-03
42784,1.03E-02,9.28E-03
42785,1.09E-02,9.16E-03
42786,1.09E-02,9.06E-03
42787,1.10E-02,8.96E-03
42788,1.10E-02,8.87E-03
42789,1.11E-02,8.78E-03
42790,1.10E-02,8.70E-03
42791,1.09E-02,8.63E-03
42792,1.07E-02,8.57E-03
42793,1.06E-02,8.51E-03
42794,1.05E-02,8.47E-03
42795,1.03E-02,8.42E-03
42796,1.00E-02,8.39E-03
42797,9.77E-03,8.36E-03
42798,9.54E-03,8.34E-03
42799,9.39E-03,8.32E-03
42800,9.28E-03,8.31E-03
42801,9.17E-03,8.30E-03
42802,9.08E-03,8.30E-03
42803,9.00E-03,8.30E-03
42804,8.93E-03,8.30E-03
42805,8.85E-03,8.31E-03
42806,8.77E-03,8.32E-03
42807,8.67E-03,8.33E-03
42808,8.56E-03,8.35E-03
42809,8.45E-03,8.37E-03
42810,8.35E-03,8.39E-03
42811,8.25E-03,8.42E-03
42812,8.20E-03,8.44E-03
42813,8.18E-03,8.47E-03
42814,8.05E-03,8.51E-03
42815,7.88E-03,8.54E-03
42816,7.63E-03,8.58E-03
42817,7.47E-03,8.61E-03
42818,7.36E-03,8.65E-03
42819,7.23E-03,8.69E-03
42820,6.97E-03,8.73E-03
42821,6.84E-03,8.77E-03
42822,6.80E-03,8.82E-03
42823,6.77E-03,8.86E-03
42824,6.31E-03,8.90E-03
42825,5.50E-03,8.94E-03
42826,5.61E-03,8.99E-03
42827,5.45E-03,9.03E-03
42828,5.31E-03,9.07E-03
42829,4.97E-03,9.11E-03
42830,4.62E-03,9.14E-03
42831,3.97E-03,9.18E-03
42832,4.03E-03,9.20E-03
42833,3.25E-03,9.25E-03
42834,3.07E-03,9.29E-03
42835,3.72E-03,9.33E-03
42836,4.22E-03,9.35E-03
42837,5.74E-03,9.25E-03
42838,5.12E-03,9.37E-03
42839,5.94E-03,9.41E-03
42840,7.72E-03,9.28E-03
42841,8.24E-03,1.16E-02
42842,7.66E-03,1.83E-02
42843,7.34E-03,1.85E-02
42844,7.58E-03,1.87E-02
42845,7.15E-03,1.87E-02
42846,6.48E-03,1.88E-02
42847,6.97E-03,9.63E-03
42848,8.71E-03,1.87E-02
42849,6.88E-03,1.88E-02
42850,4.98E-03,1.06E-02
42851,9.43E-03,1.00E-02
42852,6.61E-03,9.76E-03
42853,6.21E-03,1.30E-02
42854,6.91E-03,1.14E-02
42855,8.10E-03,1.48E-02
42856,7.20E-03,3.00E-02
42857,8.06E-03,2.22E-02
42858,9.38E-03,3.02E-02
42859,8.98E-03,3.02E-02
42860,7.92E-03,3.04E-02
42861,7.53E-03,2.80E-02
42862,7.57E-03,9.77E-03
42863,8.12E-03,1.08E-02
42864,8.40E-03,1.05E-02
42865,8.10E-03,1.51E-02
42866,6.52E-03,1.35E-02
42867,8.10E-03,1.39E-02
42868,7.06E-03,1.18E-02
42869,7.59E-03,1.17E-02
42870,8.57E-03,1.16E-02
42871,8.26E-03,1.21E-02
42872,8.10E-03,1.13E-02
42873,8.47E-03,9.78E-03
42874,9.00E-03,9.57E-03
42875,7.74E-03,1.25E-02
42876,8.48E-03,3.03E-02
42877,7.95E-03,3.04E-02
42878,6.78E-03,1.03E-02
42879,6.75E-03,1.02E-02
42880,6.70E-03,1.02E-02
42881,7.84E-03,2.06E-02
42882,8.14E-03,2.10E-02
42883,6.45E-03,2.12E-02
42884,8.23E-03,2.15E-02
42885,8.03E-03,2.19E-02
42886,6.46E-03,1.24E-02
42887,8.10E-03,1.15E-02
42888,8.10E-03,1.47E-02
42889,8.10E-03,1.51E-02
42890,6.08E-03,9.66E-03
42891,5.42E-03,9.75E-03
42892,8.10E-03,1.40E-02
42893,7.59E-03,2.80E-02
42894,6.43E-03,2.65E-02
42895,8.25E-03,2.75E-02
42896,7.86E-03,2.79E-02
42897,8.10E-03,1.18E-02
42898,8.10E-03,1.17E-02
42899,6.00E-03,9.26E-03
42900,5.87E-03,9.69E-03
42901,5.85E-03,1.22E-02
42902,8.10E-03,1.46E-02
42903,8.10E-03,1.51E-02
42904,8.10E-03,1.41E-02
42905,6.59E-03,1.21E-02
42906,7.48E-03,1.22E-02
42907,8.10E-03,1.45E-02
42908,8.10E-03,1.50E-02
42909,8.10E-03,1.42E-02
42910,8.10E-03,1.44E-02
42911,8.02E-03,1.50E-02
42912,8.10E-03,1.43E-02
42913,8.10E-03,1.20E-02
42914,8.10E-03,1.43E-02
42915,7.85E-03,1.50E-02
42916,8.10E-03,1.44E-02
42917,8.10E-03,1.42E-02
42918,7.61E-03,1.50E-02
42919,8.10E-03,1.44E-02
42920,8.10E-03,1.23E-02
42921,8.10E-03,1.21E-02
42922,8.10E-03,1.24E-02
42923,8.10E-03,1.41E-02
42924,7.36E-03,1.50E-02
42925,8.10E-03,1.45E-02
42926,8.10E-03,1.26E-02
42927,8.10E-03,1.39E-02
42928,7.08E-03,1.49E-02
42929,8.10E-03,1.46E-02
42930,8.10E-03,1.38E-02
42931,7.15E-03,1.49E-02
42932,8.21E-03,1.46E-02
42933,8.10E-03,1.37E-02
42934,7.91E-03,1.49E-02
42935,8.35E-03,1.47E-02
42936,8.10E-03,1.32E-02
42937,8.10E-03,1.30E-02
42938,8.10E-03,1.29E-02
42939,8.10E-03,1.27E-02
42940,8.10E-03,1.36E-02
42941,8.45E-03,1.48E-02
42942,8.61E-03,1.47E-02
42943,8.10E-03,1.33E-02
42944,8.10E-03,1.34E-02
42945,8.72E-03,1.48E-02
42946,7.72E-03,1.81E-02
42947,8.12E-03,1.81E-02
42948,8.01E-03,1.81E-02
42949,3.11E-03,2.23E-02
42950,3.52E-03,2.22E-02
42951,3.90E-03,2.19E-02
42952,3.63E-03,2.16E-02
42953,3.56E-03,2.12E-02
42954,4.30E-03,2.08E-02
42955,4.38E-03,2.05E-02
42956,4.73E-03,2.03E-02
42957,4.82E-03,2.00E-02
42958,5.11E-03,1.96E-02
42959,5.17E-03,1.93E-02
42960,5.56E-03,1.89E-02
42961,5.57E-03,1.86E-02
42962,5.71E-03,1.82E-02
42963,5.74E-03,1.79E-02
42964,5.77E-03,1.75E-02
42965,5.78E-03,1.72E-02
42966,5.71E-03,1.69E-02
42967,5.55E-03,1.66E-02
42968,5.37E-03,1.63E-02
42969,5.20E-03,1.60E-02
42970,5.02E-03,1.58E-02
42971,4.68E-03,1.56E-02
42972,4.20E-03,1.54E-02
42973,3.96E-03,1.52E-02
42974,4.25E-03,1.50E-02
42975,4.88E-03,1.48E-02
42976,5.36E-03,1.46E-02
42977,5.72E-03,1.44E-02
42978,7.28E-03,1.42E-02
42979,7.36E-03,1.39E-02
42980,9.17E-03,3.03E-02
42981,7.79E-03,9.05E-03
42982,7.84E-03,8.44E-03
42983,7.85E-03,8.75E-03
42984,6.03E-03,9.24E-03
42985,6.17E-03,9.29E-03
42986,5.67E-03,9.37E-03
42987,8.10E-03,1.49E-02
42988,8.10E-03,1.50E-02
42989,8.10E-03,1.50E-02
42990,8.10E-03,1.50E-02
42991,7.35E-03,1.98E-02
42992,7.34E-03,1.95E-02
42993,1.01E-02,1.91E-02
42994,1.02E-02,1.87E-02
42995,8.60E-03,1.83E-02
42996,8.30E-03,1.79E-02
42997,8.18E-03,1.76E-02
42998,8.12E-03,1.72E-02
42999,8.02E-03,1.68E-02
43000,8.02E-03,1.65E-02
43001,8.02E-03,1.61E-02
43002,7.90E-03,1.58E-02
43003,7.75E-03,1.54E-02
43004,7.63E-03,1.51E-02
43005,7.41E-03,1.47E-02
43006,6.76E-03,1.41E-02
43007,7.20E-03,1.44E-02
43008,8.10E-03,1.37E-02
43009,8.09E-03,1.35E-02
43010,8.09E-03,1.33E-02
43011,8.09E-03,1.31E-02
43012,8.09E-03,1.29E-02
43013,8.09E-03,1.28E-02
43014,8.09E-03,1.26E-02
43015,8.09E-03,1.24E-02
43016,8.09E-03,1.22E-02
43017,8.09E-03,1.20E-02
43018,7.98E-03,1.18E-02
43019,7.85E-03,1.16E-02
43020,7.75E-03,1.14E-02
43021,7.57E-03,1.12E-02
43022,7.40E-03,1.10E-02
43023,6.95E-03,1.04E-02
43024,7.08E-03,1.06E-02
43025,7.27E-03,1.08E-02
43026,8.27E-03,2.43E-02
43027,8.04E-03,2.32E-02
43028,8.05E-03,2.36E-02
43029,8.11E-03,2.39E-02
43030,6.39E-03,2.61E-02
43031,6.41E-03,2.59E-02
43032,6.65E-03,2.57E-02
43033,7.69E-03,2.51E-02
43034,7.58E-03,2.54E-02
43035,6.94E-03,9.40E-03
43036,6.80E-03,9.36E-03
43037,7.75E-03,2.88E-02
43038,7.29E-03,2.82E-02
43039,6.45E-03,2.84E-02
43040,5.94E-03,2.85E-02
43041,5.30E-03,1.07E-02
43042,6.09E-03,1.02E-02
43043,4.32E-03,1.04E-02
43044,6.98E-03,1.19E-02
43045,9.88E-03,1.82E-02
43046,9.90E-03,1.81E-02
43047,9.91E-03,1.81E-02
43048,9.79E-03,1.81E-02
43049,9.63E-03,1.81E-02
43050,9.40E-03,1.80E-02
43051,9.28E-03,1.80E-02
43052,9.00E-03,1.80E-02
43053,8.88E-03,1.80E-02
43054,8.79E-03,1.80E-02
43055,8.76E-03,1.80E-02
43056,8.76E-03,1.80E-02
43057,8.76E-03,1.80E-02
43058,8.71E-03,1.80E-02
43059,8.59E-03,1.80E-02
43060,8.45E-03,1.80E-02
43061,8.35E-03,1.80E-02
43062,8.28E-03,1.80E-02
43063,8.22E-03,1.80E-02
43064,8.19E-03,1.80E-02
43065,8.19E-03,1.80E-02
43066,8.18E-03,1.80E-02
43067,8.18E-03,1.80E-02
43068,8.17E-03,1.80E-02
43069,8.15E-03,1.80E-02
43070,8.13E-03,1.80E-02
43071,8.09E-03,1.79E-02
43072,8.07E-03,1.79E-02
43073,8.05E-03,1.79E-02
43074,8.02E-03,1.79E-02
43075,8.00E-03,1.79E-02
43076,7.99E-03,1.79E-02
43077,8.00E-03,1.79E-02
43078,8.04E-03,1.78E-02
43079,8.07E-03,1.78E-02
43080,8.10E-03,1.78E-02
43081,8.14E-03,1.77E-02
43082,8.17E-03,1.77E-02
43083,8.20E-03,1.77E-02
43084,8.24E-03,1.76E-02
43085,8.30E-03,1.76E-02
43086,8.39E-03,1.76E-02
43087,8.47E-03,1.75E-02
43088,8.53E-03,1.75E-02
43089,8.57E-03,1.74E-02
43090,8.60E-03,1.74E-02
43091,8.63E-03,1.73E-02
43092,8.67E-03,1.73E-02
43093,8.71E-03,1.72E-02
43094,8.76E-03,1.72E-02
43095,8.81E-03,1.71E-02
43096,8.86E-03,1.71E-02
43097,8.93E-03,1.70E-02
43098,9.03E-03,1.69E-02
43099,9.15E-03,1.69E-02
43100,9.25E-03,1.68E-02
43101,9.32E-03,1.68E-02
43102,9.33E-03,1.67E-02
43103,9.31E-03,1.67E-02
43104,9.27E-03,1.66E-02
43105,9.22E-03,1.66E-02
43106,9.18E-03,1.66E-02
43107,9.15E-03,1.65E-02
43108,9.10E-03,1.65E-02
43109,9.07E-03,1.64E-02
43110,9.07E-03,1.64E-02
43111,9.08E-03,1.64E-02
43112,8.96E-03,1.64E-02
43113,8.70E-03,1.63E-02
43114,8.41E-03,1.63E-02
43115,8.12E-03,1.63E-02
43116,7.93E-03,1.63E-02
43117,7.93E-03,1.63E-02
43118,7.99E-03,1.63E-02
43119,7.94E-03,1.63E-02
43120,7.81E-03,1.62E-02
43121,7.69E-03,1.62E-02
43122,7.59E-03,1.62E-02
43123,7.48E-03,1.62E-02
43124,7.36E-03,1.62E-02
43125,7.19E-03,1.62E-02
43126,7.01E-03,1.61E-02
43127,6.86E-03,1.61E-02
43128,6.76E-03,1.61E-02
43129,6.69E-03,1.61E-02
43130,6.62E-03,1.60E-02
43131,6.56E-03,1.60E-02
43132,6.53E-03,1.60E-02
43133,6.49E-03,1.59E-02
43134,6.44E-03,1.59E-02
43135,6.37E-03,1.58E-02
43136,6.28E-03,1.58E-02
43137,6.22E-03,1.57E-02
43138,6.22E-03,1.57E-02
43139,6.26E-03,1.56E-02
43140,6.30E-03,1.56E-02
43141,6.35E-03,1.55E-02
43142,6.40E-03,1.55E-02
43143,6.45E-03,1.54E-02
43144,6.50E-03,1.53E-02
43145,6.55E-03,1.52E-02
43146,6.60E-03,1.52E-02
43147,6.64E-03,1.51E-02
43148,6.66E-03,1.50E-02
43149,6.68E-03,1.49E-02
43150,6.70E-03,1.48E-02
43151,6.71E-03,1.48E-02
43152,6.73E-03,1.47E-02
43153,6.74E-03,1.46E-02
43154,6.72E-03,1.45E-02
43155,6.68E-03,1.44E-02
43156,6.64E-03,1.43E-02
43157,6.59E-03,1.42E-02
43158,6.54E-03,1.42E-02
43159,6.48E-03,1.41E-02
43160,6.42E-03,1.40E-02
43161,6.31E-03,1.39E-02
43162,6.18E-03,1.38E-02
43163,6.05E-03,1.37E-02
43164,5.93E-03,1.37E-02
43165,5.82E-03,1.36E-02
43166,5.78E-03,1.35E-02
43167,5.84E-03,1.34E-02
43168,5.90E-03,1.34E-02
43169,5.83E-03,1.33E-02
43170,5.81E-03,1.32E-02
43171,6.62E-03,1.31E-02
43172,8.44E-03,1.30E-02
43173,8.45E-03,1.29E-02
43174,9.13E-03,1.28E-02
43175,1.10E-02,1.27E-02
43176,8.99E-03,1.25E-02
43177,8.66E-03,1.24E-02
43178,8.21E-03,1.23E-02
43179,7.15E-03,1.22E-02
43180,5.35E-03,1.21E-02
43181,5.39E-03,1.20E-02
43182,6.74E-03,1.19E-02
43183,4.34E-03,4.90E-03
43184,3.67E-03,4.89E-03
43185,3.60E-03,4.92E-03
43186,3.10E-03,4.93E-03
43187,3.41E-03,4.95E-03
43188,3.50E-03,4.96E-03
43189,3.82E-03,4.98E-03
43190,4.34E-03,5.01E-03
43191,4.55E-03,5.04E-03
43192,4.73E-03,5.07E-03
43193,4.86E-03,5.11E-03
43194,5.07E-03,5.15E-03
43195,5.39E-03,5.20E-03
43196,5.44E-03,5.25E-03
43197,5.59E-03,5.30E-03
43198,5.75E-03,5.35E-03
43199,6.36E-03,5.42E-03
43200,7.49E-03,5.49E-03
43201,8.38E-03,5.57E-03
43202,8.76E-03,5.66E-03
43203,9.45E-03,5.76E-03
43204,9.83E-03,5.87E-03
43205,1.09E-02,5.98E-03
43206,1.11E-02,6.11E-03
43207,7.65E-03,6.22E-03
43208,7.51E-03,6.29E-03
43209,7.01E-03,6.35E-03
43210,6.15E-03,6.39E-03
43211,4.73E-03,6.45E-03
43212,1.01E-03,6.51E-03
43213,3.76E-03,6.59E-03
43214,5.43E-03,6.71E-03
43215,6.19E-03,6.83E-03
43216,6.92E-03,6.99E-03
43217,8.74E-03,9.06E-03
43218,8.97E-03,9.09E-03
43219,9.31E-03,9.12E-03
43220,9.80E-03,9.16E-03
43221,9.76E-03,9.21E-03
43222,9.60E-03,9.26E-03
43223,9.38E-03,9.31E-03
43224,9.28E-03,9.35E-03
43225,8.63E-03,9.40E-03
43226,8.20E-03,9.45E-03
43227,8.10E-03,9.49E-03
43228,8.02E-03,9.54E-03
43229,7.75E-03,9.58E-03
43230,7.28E-03,9.62E-03
43231,6.54E-03,9.65E-03
43232,6.48E-03,9.68E-03
43233,6.53E-03,9.71E-03
43234,6.47E-03,9.74E-03
43235,6.46E-03,9.76E-03
43236,6.51E-03,9.79E-03
43237,6.55E-03,9.82E-03
43238,6.58E-03,9.84E-03
43239,6.58E-03,9.86E-03
43240,6.60E-03,9.88E-03
43241,6.80E-03,9.91E-03
43242,6.80E-03,9.94E-03
43243,6.89E-03,9.94E-03
43244,7.34E-03,9.94E-03
43245,7.78E-03,9.96E-03
43246,7.72E-03,9.99E-03
43247,5.62E-03,9.89E-03
43248,7.35E-03,1.25E-02
43249,7.93E-03,1.27E-02
43250,7.39E-03,1.26E-02
43251,6.01E-03,1.31E-02
43252,6.73E-03,1.21E-02
43253,8.71E-03,1.21E-02
43254,6.86E-03,1.20E-02
43255,3.98E-03,1.20E-02
43256,3.99E-03,1.20E-02
43257,4.78E-03,1.20E-02
43258,4.87E-03,1.20E-02
43259,5.20E-03,1.20E-02
43260,5.25E-03,1.20E-02
43261,5.26E-03,1.20E-02
43262,5.32E-03,1.20E-02
43263,5.29E-03,1.20E-02
43264,5.06E-03,1.20E-02
43265,5.26E-03,1.20E-02
43266,6.17E-03,1.20E-02
43267,7.37E-03,1.19E-02
43268,7.89E-03,1.19E-02
43269,8.54E-03,1.18E-02
43270,8.71E-03,1.18E-02
43271,9.09E-03,1.18E-02
43272,9.79E-03,1.17E-02
43273,1.01E-02,1.17E-02
43274,1.04E-02,1.16E-02
43275,1.08E-02,1.16E-02
43276,1.10E-02,1.16E-02
43277,1.10E-02,1.15E-02
43278,1.10E-02,1.15E-02
43279,1.06E-02,1.15E-02
43280,5.95E-03,1.16E-02
43281,5.60E-03,1.18E-02
43282,5.70E-03,1.16E-02
43283,7.40E-03,1.85E-02
43284,7.72E-03,1.84E-02
43285,7.78E-03,1.84E-02
43286,7.65E-03,1.83E-02
43287,9.85E-03,1.82E-02
43288,9.45E-03,1.82E-02
43289,9.40E-03,1.81E-02
43290,8.61E-03,1.80E-02
43291,8.36E-03,1.80E-02
43292,7.27E-03,1.79E-02
43293,7.06E-03,1.79E-02
43294,6.73E-03,1.78E-02
43295,6.62E-03,1.78E-02
43296,5.88E-03,1.78E-02
43297,4.43E-03,1.78E-02
43298,7.06E-03,9.09E-03
43299,3.61E-03,9.08E-03
43300,3.77E-03,9.08E-03
43301,4.48E-03,9.05E-03
43302,4.92E-03,9.03E-03
43303,5.62E-03,8.99E-03
43304,5.92E-03,8.94E-03
43305,6.22E-03,8.88E-03
43306,6.49E-03,8.83E-03
43307,6.72E-03,8.77E-03
43308,6.84E-03,8.71E-03
43309,6.95E-03,8.65E-03
43310,7.05E-03,8.58E-03
43311,7.16E-03,8.51E-03
43312,7.27E-03,8.44E-03
43313,7.38E-03,8.36E-03
43314,7.47E-03,8.29E-03
43315,7.53E-03,8.21E-03
43316,7.56E-03,8.14E-03
43317,7.58E-03,8.06E-03
43318,7.61E-03,7.98E-03
43319,7.63E-03,7.91E-03
43320,7.65E-03,7.83E-03
43321,7.68E-03,7.76E-03
43322,7.70E-03,7.69E-03
43323,7.73E-03,7.62E-03
43324,7.75E-03,7.56E-03
43325,7.77E-03,7.50E-03
43326,7.79E-03,7.44E-03
43327,7.81E-03,7.39E-03
43328,7.82E-03,7.35E-03
43329,7.84E-03,7.31E-03
43330,7.86E-03,7.28E-03
43331,7.87E-03,7.25E-03
43332,7.88E-03,7.24E-03
43333,7.90E-03,7.23E-03
43334,7.91E-03,7.23E-03
43335,7.92E-03,7.24E-03
43336,7.93E-03,7.26E-03
43337,7.94E-03,7.29E-03
43338,7.95E-03,7.32E-03
43339,7.95E-03,7.37E-03
43340,7.95E-03,7.43E-03
43341,7.95E-03,7.49E-03
43342,7.95E-03,7.57E-03
43343,7.95E-03,7.65E-03
43344,7.94E-03,7.74E-03
43345,7.94E-03,7.84E-03
43346,7.93E-03,7.95E-03
43347,7.91E-03,8.06E-03
43348,7.89E-03,8.18E-03
43349,7.88E-03,8.31E-03
43350,7.86E-03,8.44E-03
43351,7.84E-03,8.58E-03
43352,7.82E-03,8.72E-03
43353,7.81E-03,8.86E-03
43354,7.79E-03,9.01E-03
43355,7.77E-03,9.16E-03
43356,7.74E-03,9.32E-03
43357,7.71E-03,9.47E-03
43358,7.66E-03,9.63E-03
43359,7.62E-03,9.79E-03
43360,7.57E-03,9.95E-03
43361,7.53E-03,1.01E-02
43362,7.48E-03,1.03E-02
43363,7.43E-03,1.04E-02
43364,7.39E-03,1.06E-02
43365,7.36E-03,1.07E-02
43366,7.32E-03,1.09E-02
43367,7.29E-03,1.11E-02
43368,7.26E-03,1.12E-02
43369,7.23E-03,1.14E-02
43370,7.20E-03,1.15E-02
43371,7.17E-03,1.17E-02
43372,7.12E-03,1.18E-02
43373,7.08E-03,1.20E-02
43374,7.03E-03,1.21E-02
43375,6.99E-03,1.23E-02
43376,6.94E-03,1.24E-02
43377,6.86E-03,1.26E-02
43378,6.77E-03,1.27E-02
43379,6.68E-03,1.29E-02
43380,6.59E-03,1.30E-02
43381,6.51E-03,1.32E-02
43382,6.47E-03,1.33E-02
43383,6.45E-03,1.34E-02
43384,6.45E-03,1.36E-02
43385,6.45E-03,1.37E-02
43386,6.48E-03,1.38E-02
43387,6.52E-03,1.40E-02
43388,6.55E-03,1.41E-02
43389,6.58E-03,1.42E-02
43390,6.60E-03,1.44E-02
43391,6.62E-03,1.45E-02
43392,6.64E-03,1.46E-02
43393,6.67E-03,1.48E-02
43394,6.69E-03,1.49E-02
43395,6.71E-03,1.50E-02
43396,6.73E-03,1.52E-02
43397,6.75E-03,1.53E-02
43398,6.77E-03,1.54E-02
43399,6.79E-03,1.56E-02
43400,6.82E-03,1.57E-02
43401,6.84E-03,1.59E-02
43402,6.86E-03,1.60E-02
43403,6.87E-03,1.61E-02
43404,6.87E-03,1.63E-02
43405,6.87E-03,1.64E-02
43406,6.90E-03,1.66E-02
43407,6.97E-03,1.67E-02
43408,6.97E-03,1.68E-02
43409,6.93E-03,1.70E-02
43410,6.76E-03,1.71E-02
43411,6.58E-03,1.73E-02
43412,6.33E-03,1.74E-02
43413,5.97E-03,1.76E-02
43414,5.74E-03,1.77E-02
43415,4.79E-03,9.58E-03
43416,8.40E-03,3.01E-02
43417,7.85E-03,1.27E-02
43418,7.52E-03,1.89E-02
43419,7.78E-03,1.89E-02
43420,7.91E-03,1.90E-02
43421,5.39E-03,9.12E-03
43422,6.61E-03,8.95E-03
43423,8.22E-03,8.75E-03
43424,8.09E-03,8.52E-03
43425,8.09E-03,8.29E-03
43426,8.09E-03,8.07E-03
43427,8.09E-03,7.84E-03
43428,8.09E-03,7.61E-03
43429,8.09E-03,7.39E-03
43430,8.09E-03,7.17E-03
43431,8.09E-03,6.95E-03
43432,8.09E-03,6.73E-03
43433,8.09E-03,6.51E-03
43434,8.09E-03,6.30E-03
43435,8.09E-03,6.09E-03
43436,8.09E-03,5.89E-03
43437,8.09E-03,5.69E-03
43438,8.09E-03,5.49E-03
43439,8.09E-03,5.31E-03
43440,8.09E-03,5.13E-03
43441,8.09E-03,4.95E-03
43442,8.09E-03,4.79E-03
43443,8.09E-03,4.63E-03
43444,8.09E-03,4.49E-03
43445,8.09E-03,4.36E-03
43446,8.09E-03,4.24E-03
43447,8.09E-03,4.13E-03
43448,8.09E-03,4.04E-03
43449,8.09E-03,3.96E-03
43450,8.09E-03,3.90E-03
43451,8.09E-03,3.85E-03
43452,8.09E-03,3.82E-03
43453,8.09E-03,3.81E-03
43454,8.09E-03,3.81E-03
43455,8.09E-03,3.83E-03
43456,8.09E-03,3.87E-03
43457,8.09E-03,3.92E-03
43458,8.09E-03,3.98E-03
43459,8.09E-03,4.06E-03
43460,8.09E-03,4.15E-03
43461,8.09E-03,4.25E-03
43462,8.09E-03,4.35E-03
43463,8.09E-03,4.47E-03
43464,8.09E-03,4.59E-03
43465,8.09E-03,4.72E-03
43466,8.09E-03,4.86E-03
43467,8.09E-03,5.00E-03
43468,8.09E-03,5.14E-03
43469,8.09E-03,5.29E-03
43470,8.09E-03,5.44E-03
43471,8.09E-03,5.60E-03
43472,8.09E-03,5.75E-03
43473,8.09E-03,5.91E-03
43474,8.09E-03,6.06E-03
43475,8.09E-03,6.22E-03
43476,8.09E-03,6.38E-03
43477,8.09E-03,6.53E-03
43478,8.09E-03,6.69E-03
43479,8.09E-03,6.85E-03
43480,8.09E-03,7.00E-03
43481,8.09E-03,7.16E-03
43482,8.09E-03,7.31E-03
43483,8.09E-03,7.46E-03
43484,8.09E-03,7.61E-03
43485,8.09E-03,7.76E-03
43486,8.01E-03,7.91E-03
43487,7.93E-03,8.05E-03
43488,7.87E-03,8.19E-03
43489,7.71E-03,8.33E-03
43490,7.60E-03,8.47E-03
43491,7.48E-03,8.61E-03
43492,7.37E-03,8.74E-03
43493,7.33E-03,8.88E-03
43494,7.19E-03,9.02E-03
43495,7.14E-03,9.16E-03
43496,7.74E-03,9.27E-03
43497,7.63E-03,9.28E-03
43498,7.55E-03,9.29E-03
43499,7.77E-03,9.30E-03
43500,6.39E-03,4.85E-03
43501,5.82E-03,4.90E-03
43502,5.69E-03,4.94E-03
43503,5.79E-03,4.97E-03
43504,5.94E-03,5.00E-03
43505,6.24E-03,5.03E-03
43506,6.45E-03,5.06E-03
43507,6.65E-03,5.09E-03
43508,6.71E-03,5.12E-03
43509,7.15E-03,5.15E-03
43510,7.33E-03,5.18E-03
43511,7.44E-03,5.22E-03
43512,7.48E-03,5.25E-03
43513,7.77E-03,5.28E-03
43514,7.82E-03,5.31E-03
43515,7.82E-03,5.35E-03
43516,7.80E-03,5.38E-03
43517,7.77E-03,5.41E-03
43518,7.74E-03,5.44E-03
43519,7.70E-03,5.47E-03
43520,7.65E-03,5.50E-03
43521,7.58E-03,5.53E-03
43522,7.52E-03,5.55E-03
43523,7.46E-03,5.58E-03
43524,7.42E-03,5.61E-03
43525,7.39E-03,5.63E-03
43526,7.35E-03,5.66E-03
43527,7.32E-03,5.69E-03
43528,7.29E-03,5.71E-03
43529,7.26E-03,5.74E-03
43530,7.23E-03,5.77E-03
43531,7.19E-03,5.79E-03
43532,7.15E-03,5.82E-03
43533,7.09E-03,5.85E-03
43534,7.02E-03,5.87E-03
43535,6.96E-03,5.90E-03
43536,6.89E-03,5.93E-03
43537,6.82E-03,5.95E-03
43538,6.75E-03,5.98E-03
43539,6.69E-03,6.01E-03
43540,6.61E-03,6.04E-03
43541,6.53E-03,6.06E-03
43542,6.46E-03,6.09E-03
43543,6.38E-03,6.12E-03
43544,6.27E-03,6.15E-03
43545,6.11E-03,6.18E-03
43546,5.95E-03,6.21E-03
43547,5.78E-03,6.24E-03
43548,5.65E-03,6.27E-03
43549,5.56E-03,6.30E-03
43550,5.48E-03,6.33E-03
43551,5.39E-03,6.36E-03
43552,5.33E-03,6.40E-03
43553,5.29E-03,6.43E-03
43554,5.25E-03,6.47E-03
43555,5.23E-03,6.50E-03
43556,5.24E-03,6.54E-03
43557,5.27E-03,6.57E-03
43558,5.30E-03,6.61E-03
43559,5.34E-03,6.65E-03
43560,5.37E-03,6.70E-03
43561,5.40E-03,6.74E-03
43562,5.42E-03,6.78E-03
43563,5.43E-03,6.83E-03
43564,5.44E-03,6.88E-03
43565,5.45E-03,6.92E-03
43566,5.46E-03,6.97E-03
43567,5.46E-03,7.02E-03
43568,5.50E-03,7.08E-03
43569,5.64E-03,7.13E-03
43570,5.83E-03,7.19E-03
43571,6.02E-03,7.24E-03
43572,6.21E-03,7.31E-03
43573,6.39E-03,7.37E-03
43574,6.52E-03,7.44E-03
43575,6.64E-03,7.51E-03
43576,6.76E-03,7.58E-03
43577,6.88E-03,7.65E-03
43578,7.01E-03,7.72E-03
43579,7.19E-03,7.80E-03
43580,7.43E-03,7.87E-03
43581,7.66E-03,7.96E-03
43582,7.90E-03,8.04E-03
43583,8.20E-03,8.12E-03
43584,8.47E-03,8.21E-03
43585,8.54E-03,8.30E-03
43586,9.10E-03,8.39E-03
43587,1.03E-02,8.49E-03
43588,1.04E-02,8.60E-03
43589,1.06E-02,8.71E-03
43590,1.07E-02,8.80E-03
43591,1.07E-02,8.89E-03
43592,9.13E-03,8.97E-03
43593,8.85E-03,9.04E-03
43594,8.29E-03,9.10E-03
43595,8.16E-03,9.14E-03
43596,8.04E-03,1.12E-02
43597,7.49E-03,1.85E-02
43598,4.77E-03,1.89E-02
43599,4.16E-03,1.90E-02
43600,6.92E-03,7.48E-03
43601,8.80E-03,1.84E-02
43602,8.10E-03,1.48E-02
43603,7.37E-03,3.00E-02
43604,7.63E-03,3.01E-02
43605,7.84E-03,3.00E-02
43606,8.04E-03,3.00E-02
43607,8.11E-03,2.99E-02
43608,7.87E-03,2.98E-02
43609,7.72E-03,2.96E-02
43610,7.54E-03,2.95E-02
43611,7.30E-03,2.94E-02
43612,6.94E-03,2.93E-02
43613,6.43E-03,2.91E-02
43614,5.89E-03,2.90E-02
43615,5.38E-03,2.88E-02
43616,4.99E-03,2.87E-02
43617,4.69E-03,2.85E-02
43618,3.85E-03,2.84E-02
43619,3.34E-03,2.82E-02
43620,3.39E-03,2.80E-02
43621,3.67E-03,2.78E-02
43622,3.90E-03,2.77E-02
43623,4.47E-03,2.75E-02
43624,5.11E-03,2.73E-02
43625,5.37E-03,2.70E-02
43626,5.44E-03,2.68E-02
43627,5.50E-03,2.65E-02
43628,5.57E-03,2.62E-02
43629,5.62E-03,2.59E-02
43630,5.61E-03,2.56E-02
43631,5.56E-03,2.53E-02
43632,5.49E-03,2.50E-02
43633,5.34E-03,2.46E-02
43634,5.31E-03,2.43E-02
43635,5.36E-03,2.39E-02
43636,5.45E-03,2.35E-02
43637,5.63E-03,2.32E-02
43638,5.75E-03,2.30E-02
43639,7.42E-03,9.55E-03
43640,7.27E-03,9.95E-03
43641,7.18E-03,1.01E-02
43642,8.14E-03,2.26E-02
43643,8.08E-03,2.29E-02
43644,6.09E-03,3.05E-02
43645,8.28E-03,3.05E-02
43646,7.71E-03,3.07E-02
43647,7.54E-03,2.83E-02
43648,7.58E-03,9.41E-03
43649,6.12E-03,9.46E-03
43650,8.14E-03,1.07E-02
43651,8.00E-03,1.06E-02
43652,6.01E-03,1.90E-02
43653,6.83E-03,1.87E-02
43654,8.10E-03,1.50E-02
43655,7.91E-03,2.02E-02
43656,6.62E-03,1.38E-02
43657,8.10E-03,1.38E-02
43658,9.56E-03,1.15E-02
43659,1.14E-02,1.13E-02
43660,1.12E-02,1.12E-02
43661,1.10E-02,1.10E-02
43662,1.10E-02,1.08E-02
43663,1.09E-02,1.07E-02
43664,1.08E-02,1.05E-02
43665,1.07E-02,1.03E-02
43666,9.02E-03,1.02E-02
43667,8.31E-03,1.01E-02
43668,8.17E-03,9.96E-03
43669,7.09E-03,9.86E-03
43670,5.42E-03,9.78E-03
43671,5.01E-03,9.66E-03
43672,6.13E-03,9.59E-03
43673,6.43E-03,9.54E-03
43674,6.78E-03,9.47E-03
43675,6.72E-03,9.40E-03
43676,6.84E-03,9.34E-03
43677,7.99E-03,2.93E-02
43678,6.45E-03,1.08E-02
43679,9.72E-03,1.15E-02
43680,1.01E-02,1.84E-02
43681,1.10E-02,1.85E-02
43682,6.93E-03,9.20E-03
43683,7.11E-03,9.06E-03
43684,8.46E-03,1.17E-02
43685,7.95E-03,3.06E-02
43686,7.92E-03,9.32E-03
43687,8.09E-03,1.12E-02
43688,8.09E-03,1.11E-02
43689,8.09E-03,1.09E-02
43690,8.09E-03,1.08E-02
43691,8.09E-03,1.06E-02
43692,8.09E-03,1.05E-02
43693,8.09E-03,1.03E-02
43694,8.09E-03,1.02E-02
43695,8.09E-03,1.00E-02
43696,8.09E-03,9.89E-03
43697,8.09E-03,9.74E-03
43698,8.09E-03,9.58E-03
43699,8.09E-03,9.42E-03
43700,8.09E-03,9.26E-03
43701,8.09E-03,9.10E-03
43702,8.09E-03,8.94E-03
43703,8.09E-03,8.78E-03
43704,8.09E-03,8.62E-03
43705,8.09E-03,8.45E-03
43706,8.09E-03,8.29E-03
43707,8.09E-03,8.12E-03
43708,8.09E-03,7.96E-03
43709,8.09E-03,7.79E-03
43710,8.09E-03,7.63E-03
43711,8.09E-03,7.46E-03
43712,8.09E-03,7.30E-03
43713,8.09E-03,7.13E-03
43714,8.09E-03,6.97E-03
43715,8.09E-03,6.81E-03
43716,8.09E-03,6.65E-03
43717,8.09E-03,6.50E-03
43718,8.09E-03,6.34E-03
43719,8.09E-03,6.19E-03
43720,8.09E-03,6.05E-03
43721,8.09E-03,5.91E-03
43722,8.09E-03,5.77E-03
43723,8.09E-03,5.64E-03
43724,8.09E-03,5.51E-03
43725,8.09E-03,5.39E-03
43726,8.09E-03,5.28E-03
43727,8.09E-03,5.18E-03
43728,8.09E-03,5.08E-03
43729,8.09E-03,5.00E-03
43730,8.09E-03,4.92E-03
43731,8.09E-03,4.86E-03
43732,8.09E-03,4.81E-03
43733,8.09E-03,4.77E-03
43734,8.09E-03,4.74E-03
43735,8.09E-03,4.73E-03
43736,8.09E-03,4.73E-03
43737,8.09E-03,4.74E-03
43738,8.09E-03,4.77E-03
43739,8.09E-03,4.82E-03
43740,8.09E-03,4.87E-03
43741,8.09E-03,4.94E-03
43742,8.09E-03,5.03E-03
43743,8.09E-03,5.12E-03
43744,8.09E-03,5.23E-03
43745,8.09E-03,5.35E-03
43746,8.09E-03,5.49E-03
43747,8.09E-03,5.63E-03
43748,8.09E-03,5.78E-03
43749,8.09E-03,5.94E-03
43750,8.09E-03,6.11E-03
43751,8.09E-03,6.29E-03
43752,8.09E-03,6.48E-03
43753,8.09E-03,6.67E-03
43754,8.09E-03,6.87E-03
43755,8.09E-03,7.08E-03
43756,8.09E-03,7.29E-03
43757,8.09E-03,7.50E-03
43758,8.09E-03,7.72E-03
43759,8.04E-03,7.95E-03
43760,8.01E-03,8.18E-03
43761,8.06E-03,8.42E-03
43762,7.99E-03,8.66E-03
43763,7.93E-03,8.90E-03
43764,7.99E-03,9.14E-03
43765,8.24E-03,9.40E-03
43766,9.10E-03,9.67E-03
43767,7.23E-03,1.00E-02
43768,7.29E-03,9.88E-03
43769,5.87E-03,1.01E-02
43770,8.55E-03,9.30E-03
43771,1.05E-02,9.61E-03
43772,9.83E-03,9.53E-03
43773,1.06E-02,9.41E-03
43774,1.08E-02,9.30E-03
43775,1.09E-02,9.19E-03
43776,1.11E-02,9.09E-03
43777,1.10E-02,8.99E-03
43778,1.11E-02,8.91E-03
43779,1.09E-02,8.83E-03
43780,1.08E-02,8.76E-03
43781,1.07E-02,8.70E-03
43782,1.05E-02,8.64E-03
43783,1.04E-02,8.59E-03
43784,1.02E-02,8.55E-03
43785,9.97E-03,8.52E-03
43786,9.71E-03,8.49E-03
43787,9.49E-03,8.47E-03
43788,9.35E-03,8.45E-03
43789,9.24E-03,8.44E-03
43790,9.14E-03,8.43E-03
43791,9.05E-03,8.42E-03
43792,8.97E-03,8.42E-03
43793,8.90E-03,8.42E-03
43794,8.83E-03,8.43E-03
43795,8.74E-03,8.44E-03
43796,8.65E-03,8.45E-03
43797,8.54E-03,8.46E-03
43798,8.44E-03,8.48E-03
43799,8.34E-03,8.50E-03
43800,8.25E-03,8.53E-03
43801,8.19E-03,8.56E-03
43802,8.18E-03,8.58E-03
43803,8.05E-03,8.62E-03
43804,7.87E-03,8.65E-03
43805,7.66E-03,8.68E-03
43806,7.53E-03,8.72E-03
43807,7.39E-03,8.76E-03
43808,7.28E-03,8.79E-03
43809,6.99E-03,8.83E-03
43810,6.96E-03,8.87E-03
43811,6.93E-03,8.92E-03
43812,6.73E-03,8.96E-03
43813,6.37E-03,9.00E-03
43814,5.59E-03,9.04E-03
43815,5.57E-03,9.09E-03
43816,5.43E-03,9.12E-03
43817,5.29E-03,9.16E-03
43818,4.98E-03,9.19E-03
43819,4.73E-03,9.23E-03
43820,4.45E-03,9.26E-03
43821,3.85E-03,9.29E-03
43822,3.87E-03,9.32E-03
43823,3.47E-03,9.37E-03
43824,3.59E-03,9.41E-03
43825,3.80E-03,9.44E-03
43826,4.39E-03,9.47E-03
43827,4.51E-03,9.49E-03
43828,3.94E-03,9.53E-03
43829,4.65E-03,9.60E-03
43830,6.58E-03,9.59E-03
43831,8.45E-03,1.22E-02
43832,6.64E-03,1.22E-02
43833,7.39E-03,3.07E-02
43834,7.38E-03,3.10E-02
43835,8.07E-03,3.07E-02
43836,8.22E-03,3.09E-02
43837,7.49E-03,1.04E-02
43838,6.81E-03,1.03E-02
43839,6.79E-03,1.03E-02
43840,6.68E-03,1.01E-02
43841,5.64E-03,2.06E-02
43842,6.33E-03,2.08E-02
43843,5.56E-03,2.09E-02
43844,5.85E-03,2.13E-02
43845,6.91E-03,2.16E-02
43846,7.58E-03,2.19E-02
43847,8.05E-03,2.23E-02
43848,7.23E-03,1.26E-02
43849,8.10E-03,1.14E-02
43850,6.16E-03,9.81E-03
43851,8.10E-03,1.47E-02
43852,8.10E-03,1.50E-02
43853,6.51E-03,1.34E-02
43854,6.21E-03,9.95E-03
43855,8.10E-03,1.39E-02
43856,8.07E-03,9.49E-03
43857,7.83E-03,9.69E-03
43858,7.60E-03,2.82E-02
43859,8.40E-03,2.99E-02
43860,5.94E-03,2.66E-02
43861,6.40E-03,2.72E-02
43862,8.44E-03,2.77E-02
43863,8.05E-03,2.80E-02
43864,7.59E-03,2.82E-02
43865,8.10E-03,1.17E-02
43866,8.10E-03,1.15E-02
43867,6.34E-03,9.87E-03
43868,5.48E-03,9.83E-03
43869,6.87E-03,1.24E-02
43870,8.10E-03,1.46E-02
43871,8.10E-03,1.50E-02
43872,8.10E-03,1.40E-02
43873,5.96E-03,1.24E-02
43874,7.60E-03,1.10E-02
43875,6.95E-03,1.24E-02
43876,7.47E-03,1.25E-02
43877,8.10E-03,1.45E-02
43878,8.10E-03,1.50E-02
43879,8.10E-03,1.41E-02
43880,8.10E-03,1.44E-02
43881,8.10E-03,1.50E-02
43882,8.10E-03,1.41E-02
43883,8.10E-03,1.19E-02
43884,8.10E-03,1.43E-02
43885,7.97E-03,1.50E-02
43886,8.10E-03,1.42E-02
43887,8.10E-03,1.42E-02
43888,7.71E-03,1.49E-02
43889,8.10E-03,1.43E-02
43890,8.10E-03,1.22E-02
43891,8.10E-03,1.20E-02
43892,8.10E-03,1.23E-02
43893,8.10E-03,1.41E-02
43894,7.52E-03,1.49E-02
43895,8.10E-03,1.44E-02
43896,8.10E-03,1.25E-02
43897,8.10E-03,1.40E-02
43898,7.34E-03,1.49E-02
43899,8.10E-03,1.44E-02
43900,8.10E-03,1.39E-02
43901,7.26E-03,1.48E-02
43902,8.16E-03,1.45E-02
43903,8.10E-03,1.37E-02
43904,7.53E-03,1.48E-02
43905,8.28E-03,1.46E-02
43906,8.10E-03,1.31E-02
43907,8.10E-03,1.29E-02
43908,8.10E-03,1.28E-02
43909,8.10E-03,1.26E-02
43910,8.10E-03,1.36E-02
43911,8.21E-03,1.48E-02
43912,8.42E-03,1.46E-02
43913,8.10E-03,1.32E-02
43914,8.10E-03,1.35E-02
43915,8.53E-03,1.47E-02
43916,8.57E-03,1.47E-02
43917,8.10E-03,1.33E-02
43918,7.84E-03,1.36E-02
43919,6.87E-03,1.77E-02
43920,4.76E-03,9.64E-03
43921,7.60E-03,1.87E-02
43922,7.89E-03,1.86E-02
43923,7.86E-03,1.86E-02
43924,7.85E-03,1.85E-02
43925,9.37E-03,1.84E-02
43926,9.44E-03,1.83E-02
43927,9.40E-03,1.83E-02
43928,8.32E-03,1.82E-02
43929,8.10E-03,1.81E-02
43930,7.23E-03,1.81E-02
43931,7.12E-03,1.80E-02
43932,6.82E-03,1.80E-02
43933,6.53E-03,1.79E-02
43934,6.14E-03,1.79E-02
43935,5.48E-03,1.79E-02
43936,9.06E-03,1.83E-02
43937,8.95E-03,1.83E-02
43938,9.46E-03,1.83E-02
43939,8.10E-03,1.49E-02
43940,8.10E-03,1.49E-02
43941,2.37E-03,2.24E-02
43942,3.10E-03,2.24E-02
43943,3.45E-03,2.21E-02
43944,3.58E-03,2.18E-02
43945,3.58E-03,2.14E-02
43946,4.37E-03,2.11E-02
43947,4.54E-03,2.07E-02
43948,4.74E-03,2.04E-02
43949,4.87E-03,2.01E-02
43950,5.21E-03,1.97E-02
43951,5.25E-03,1.94E-02
43952,5.57E-03,1.90E-02
43953,5.68E-03,1.87E-02
43954,5.79E-03,1.83E-02
43955,5.82E-03,1.79E-02
43956,5.85E-03,1.76E-02
43957,5.86E-03,1.72E-02
43958,5.79E-03,1.69E-02
43959,5.64E-03,1.66E-02
43960,5.46E-03,1.63E-02
43961,5.30E-03,1.61E-02
43962,5.12E-03,1.58E-02
43963,4.80E-03,1.56E-02
43964,4.33E-03,1.54E-02
43965,4.10E-03,1.52E-02
43966,4.38E-03,1.50E-02
43967,4.99E-03,1.48E-02
43968,5.45E-03,1.46E-02
43969,5.80E-03,1.44E-02
43970,7.38E-03,1.41E-02
43971,7.60E-03,1.39E-02
43972,7.36E-03,9.54E-03
43973,7.71E-03,9.56E-03
43974,7.33E-03,1.05E-02
43975,7.25E-03,1.03E-02
43976,8.08E-03,2.36E-02
43977,8.10E-03,2.33E-02
43978,9.73E-03,3.05E-02
43979,6.74E-03,3.07E-02
43980,4.79E-03,3.11E-02
43981,7.20E-03,3.12E-02
43982,6.71E-03,3.12E-02
43983,7.71E-03,2.87E-02
43984,7.46E-03,2.85E-02
43985,8.02E-03,9.11E-03
43986,8.44E-03,8.51E-03
43987,8.31E-03,8.83E-03
43988,6.65E-03,9.39E-03
43989,3.59E-03,9.36E-03
43990,3.92E-03,9.35E-03
43991,4.53E-03,9.34E-03
43992,5.23E-03,9.30E-03
43993,5.74E-03,9.26E-03
43994,5.93E-03,9.21E-03
43995,6.31E-03,9.15E-03
43996,6.49E-03,9.10E-03
43997,6.73E-03,9.04E-03
43998,6.88E-03,8.98E-03
43999,6.99E-03,8.91E-03
44000,7.09E-03,8.84E-03
44001,7.19E-03,8.77E-03
44002,7.30E-03,8.69E-03
44003,7.40E-03,8.61E-03
44004,7.49E-03,8.53E-03
44005,7.55E-03,8.45E-03
44006,7.57E-03,8.37E-03
44007,7.60E-03,8.29E-03
44008,7.62E-03,8.21E-03
44009,7.65E-03,8.12E-03
44010,7.67E-03,8.04E-03
44011,7.69E-03,7.96E-03
44012,7.72E-03,7.89E-03
44013,7.74E-03,7.81E-03
44014,7.76E-03,7.74E-03
44015,7.78E-03,7.67E-03
44016,7.80E-03,7.61E-03
44017,7.82E-03,7.55E-03
44018,7.83E-03,7.50E-03
44019,7.85E-03,7.45E-03
44020,7.87E-03,7.41E-03
44021,7.88E-03,7.38E-03
44022,7.89E-03,7.35E-03
44023,7.90E-03,7.33E-03
44024,7.91E-03,7.33E-03
44025,7.93E-03,7.33E-03
44026,7.94E-03,7.34E-03
44027,7.95E-03,7.36E-03
44028,7.95E-03,7.39E-03
44029,7.95E-03,7.43E-03
44030,7.95E-03,7.48E-03
44031,7.95E-03,7.54E-03
44032,7.95E-03,7.61E-03
44033,7.95E-03,7.68E-03
44034,7.95E-03,7.77E-03
44035,7.95E-03,7.87E-03
44036,7.94E-03,7.97E-03
44037,7.92E-03,8.08E-03
44038,7.90E-03,8.20E-03
44039,7.88E-03,8.32E-03
44040,7.87E-03,8.45E-03
44041,7.85E-03,8.59E-03
44042,7.83E-03,8.73E-03
44043,7.82E-03,8.87E-03
44044,7.80E-03,9.02E-03
44045,7.78E-03,9.17E-03
44046,7.76E-03,9.32E-03
44047,7.72E-03,9.47E-03
44048,7.68E-03,9.63E-03
44049,7.63E-03,9.79E-03
44050,7.59E-03,9.95E-03
44051,7.54E-03,1.01E-02
44052,7.50E-03,1.03E-02
44053,7.46E-03,1.04E-02
44054,7.42E-03,1.06E-02
44055,7.38E-03,1.07E-02
44056,7.35E-03,1.09E-02
44057,7.32E-03,1.11E-02
44058,7.29E-03,1.12E-02
44059,7.26E-03,1.14E-02
44060,7.23E-03,1.15E-02
44061,7.20E-03,1.17E-02
44062,7.16E-03,1.18E-02
44063,7.11E-03,1.20E-02
44064,7.07E-03,1.22E-02
44065,7.03E-03,1.23E-02
44066,6.98E-03,1.25E-02
44067,6.90E-03,1.26E-02
44068,6.82E-03,1.27E-02
44069,6.73E-03,1.29E-02
44070,6.65E-03,1.30E-02
44071,6.57E-03,1.32E-02
44072,6.52E-03,1.33E-02
44073,6.51E-03,1.34E-02
44074,6.50E-03,1.36E-02
44075,6.51E-03,1.37E-02
44076,6.54E-03,1.38E-02
44077,6.57E-03,1.40E-02
44078,6.60E-03,1.41E-02
44079,6.63E-03,1.42E-02
44080,6.65E-03,1.44E-02
44081,6.67E-03,1.45E-02
44082,6.69E-03,1.46E-02
44083,6.71E-03,1.48E-02
44084,6.74E-03,1.49E-02
44085,6.76E-03,1.50E-02
44086,6.78E-03,1.52E-02
44087,6.80E-03,1.53E-02
44088,6.82E-03,1.55E-02
44089,6.84E-03,1.56E-02
44090,6.86E-03,1.57E-02
44091,6.88E-03,1.59E-02
44092,6.90E-03,1.60E-02
44093,6.91E-03,1.61E-02
44094,6.91E-03,1.63E-02
44095,6.91E-03,1.64E-02
44096,6.94E-03,1.66E-02
44097,7.01E-03,1.67E-02
44098,7.03E-03,1.68E-02
44099,6.95E-03,1.70E-02
44100,6.87E-03,1.71E-02
44101,6.78E-03,1.73E-02
44102,6.66E-03,1.74E-02
44103,6.48E-03,1.76E-02
44104,7.34E-03,1.05E-02
44105,7.60E-03,1.05E-02
44106,5.32E-03,9.58E-03
44107,5.73E-03,9.63E-03
44108,5.65E-03,9.68E-03
44109,7.46E-03,1.91E-02
44110,8.23E-03,1.92E-02
44111,7.81E-03,1.91E-02
44112,7.47E-03,1.91E-02
44113,6.42E-03,1.89E-02
44114,8.10E-03,1.50E-02
44115,8.10E-03,1.49E-02
44116,7.41E-03,1.99E-02
44117,9.31E-03,1.92E-02
44118,7.59E-03,1.95E-02
44119,8.47E-03,1.84E-02
44120,1.00E-02,1.88E-02
44121,8.26E-03,1.76E-02
44122,8.31E-03,1.80E-02
44123,8.01E-03,1.68E-02
44124,8.16E-03,1.72E-02
44125,8.02E-03,1.61E-02
44126,8.02E-03,1.65E-02
44127,7.74E-03,1.54E-02
44128,7.90E-03,1.57E-02
44129,7.49E-03,1.47E-02
44130,7.63E-03,1.50E-02
44131,6.83E-03,1.41E-02
44132,7.24E-03,1.44E-02
44133,8.10E-03,1.36E-02
44134,8.09E-03,1.33E-02
44135,8.09E-03,1.34E-02
44136,8.09E-03,1.29E-02
44137,8.09E-03,1.31E-02
44138,8.09E-03,1.25E-02
44139,8.09E-03,1.27E-02
44140,8.09E-03,1.21E-02
44141,8.09E-03,1.23E-02
44142,8.03E-03,1.17E-02
44143,8.09E-03,1.19E-02
44144,7.82E-03,1.13E-02
44145,7.89E-03,1.15E-02
44146,7.49E-03,1.09E-02
44147,7.62E-03,1.11E-02
44148,7.50E-03,1.07E-02
44149,8.72E-03,2.43E-02
44150,8.30E-03,2.40E-02
44151,9.43E-03,2.52E-02
44152,1.08E-02,2.47E-02
44153,5.72E-03,2.63E-02
44154,6.20E-03,2.60E-02
44155,6.26E-03,2.58E-02
44156,7.88E-03,2.55E-02
44157,7.65E-03,9.27E-03
44158,7.40E-03,9.23E-03
44159,7.53E-03,2.91E-02
44160,7.63E-03,2.89E-02
44161,1.00E-02,1.83E-02
44162,1.01E-02,1.84E-02
44163,9.67E-03,1.83E-02
44164,9.89E-03,1.83E-02
44165,9.40E-03,1.82E-02
44166,9.59E-03,1.82E-02
44167,8.96E-03,1.82E-02
44168,9.24E-03,1.82E-02
44169,8.77E-03,1.82E-02
44170,8.85E-03,1.82E-02
44171,8.74E-03,1.82E-02
44172,8.74E-03,1.82E-02
44173,8.69E-03,1.82E-02
44174,8.74E-03,1.82E-02
44175,8.43E-03,1.82E-02
44176,8.57E-03,1.82E-02
44177,8.28E-03,1.82E-02
44178,8.34E-03,1.82E-02
44179,8.19E-03,1.82E-02
44180,8.22E-03,1.82E-02
44181,8.18E-03,1.82E-02
44182,8.18E-03,1.82E-02
44183,8.17E-03,1.82E-02
44184,8.18E-03,1.82E-02
44185,8.13E-03,1.82E-02
44186,8.14E-03,1.82E-02
44187,8.07E-03,1.81E-02
44188,8.09E-03,1.82E-02
44189,8.03E-03,1.81E-02
44190,8.05E-03,1.81E-02
44191,7.99E-03,1.81E-02
44192,8.00E-03,1.81E-02
44193,8.04E-03,1.80E-02
44194,8.01E-03,1.81E-02
44195,8.10E-03,1.80E-02
44196,8.07E-03,1.80E-02
44197,8.17E-03,1.79E-02
44198,8.14E-03,1.79E-02
44199,8.24E-03,1.78E-02
44200,8.20E-03,1.79E-02
44201,8.38E-03,1.78E-02
44202,8.30E-03,1.78E-02
44203,8.51E-03,1.77E-02
44204,8.46E-03,1.77E-02
44205,8.58E-03,1.76E-02
44206,8.55E-03,1.76E-02
44207,8.65E-03,1.75E-02
44208,8.61E-03,1.75E-02
44209,8.74E-03,1.73E-02
44210,8.69E-03,1.74E-02
44211,8.84E-03,1.72E-02
44212,8.79E-03,1.73E-02
44213,9.00E-03,1.71E-02
44214,8.90E-03,1.72E-02
44215,9.21E-03,1.70E-02
44216,9.11E-03,1.71E-02
44217,9.29E-03,1.69E-02
44218,9.28E-03,1.69E-02
44219,9.23E-03,1.68E-02
44220,9.27E-03,1.68E-02
44221,9.15E-03,1.67E-02
44222,9.18E-03,1.67E-02
44223,9.07E-03,1.66E-02
44224,9.11E-03,1.66E-02
44225,9.04E-03,1.65E-02
44226,9.03E-03,1.66E-02
44227,8.93E-03,1.65E-02
44228,9.05E-03,1.65E-02
44229,8.40E-03,1.64E-02
44230,8.68E-03,1.65E-02
44231,7.93E-03,1.64E-02
44232,8.12E-03,1.64E-02
44233,8.00E-03,1.64E-02
44234,7.94E-03,1.64E-02
44235,7.82E-03,1.64E-02
44236,7.95E-03,1.64E-02
44237,7.61E-03,1.63E-02
44238,7.71E-03,1.63E-02
44239,7.38E-03,1.63E-02
44240,7.50E-03,1.63E-02
44241,7.05E-03,1.62E-02
44242,7.23E-03,1.63E-02
44243,6.81E-03,1.62E-02
44244,6.90E-03,1.62E-02
44245,6.67E-03,1.61E-02
44246,6.74E-03,1.62E-02
44247,6.58E-03,1.61E-02
44248,6.62E-03,1.61E-02
44249,6.50E-03,1.60E-02
44250,6.55E-03,1.60E-02
44251,6.35E-03,1.59E-02
44252,6.43E-03,1.59E-02
44253,6.28E-03,1.58E-02
44254,6.28E-03,1.58E-02
44255,6.36E-03,1.56E-02
44256,6.32E-03,1.57E-02
44257,6.46E-03,1.55E-02
44258,6.41E-03,1.56E-02
44259,6.56E-03,1.54E-02
44260,6.51E-03,1.54E-02
44261,6.65E-03,1.52E-02
44262,6.61E-03,1.53E-02
44263,6.71E-03,1.50E-02
44264,6.69E-03,1.51E-02
44265,6.74E-03,1.49E-02
44266,6.73E-03,1.50E-02
44267,6.78E-03,1.47E-02
44268,6.76E-03,1.48E-02
44269,6.76E-03,1.45E-02
44270,6.79E-03,1.46E-02
44271,6.69E-03,1.43E-02
44272,6.73E-03,1.44E-02
44273,6.59E-03,1.41E-02
44274,6.64E-03,1.42E-02
44275,6.48E-03,1.40E-02
44276,6.54E-03,1.40E-02
44277,6.25E-03,1.38E-02
44278,6.38E-03,1.39E-02
44279,6.01E-03,1.36E-02
44280,6.12E-03,1.37E-02
44281,5.86E-03,1.35E-02
44282,5.90E-03,1.35E-02
44283,5.97E-03,1.33E-02
44284,5.92E-03,1.34E-02
44285,5.89E-03,1.31E-02
44286,5.91E-03,1.32E-02
44287,8.67E-03,1.30E-02
44288,6.68E-03,1.31E-02
44289,8.90E-03,1.27E-02
44290,8.74E-03,1.28E-02
44291,7.43E-03,1.23E-02
44292,8.90E-03,1.24E-02
44293,8.92E-03,1.25E-02
44294,1.04E-02,1.26E-02
44295,5.44E-03,1.06E-02
44296,4.17E-03,1.04E-02
44297,5.24E-03,1.04E-02
44298,7.00E-03,1.18E-02
44299,6.46E-03,1.22E-02
44300,6.23E-03,1.21E-02
44301,6.02E-03,1.19E-02
44302,6.35E-03,1.18E-02
44303,1.14E-02,1.12E-02
44304,9.77E-03,1.14E-02
44305,1.12E-02,1.09E-02
44306,1.12E-02,1.11E-02
44307,1.08E-02,1.06E-02
44308,1.12E-02,1.07E-02
44309,1.06E-02,1.03E-02
44310,1.08E-02,1.04E-02
44311,8.14E-03,9.99E-03
44312,9.09E-03,1.01E-02
44313,6.86E-03,9.79E-03
44314,7.55E-03,9.88E-03
44315,6.23E-03,9.57E-03
44316,6.41E-03,9.70E-03
44317,7.32E-03,9.34E-03
44318,6.86E-03,9.40E-03
44319,6.40E-03,9.47E-03
44320,5.67E-03,2.02E-02
44321,8.00E-03,2.06E-02
44322,5.72E-03,2.04E-02
44323,3.74E-03,4.73E-03
44324,4.18E-03,4.70E-03
44325,3.21E-03,4.75E-03
44326,3.71E-03,4.76E-03
44327,3.65E-03,4.77E-03
44328,3.48E-03,4.75E-03
44329,4.41E-03,4.82E-03
44330,3.90E-03,4.80E-03
44331,4.67E-03,4.88E-03
44332,4.68E-03,4.85E-03
44333,5.28E-03,4.96E-03
44334,5.00E-03,4.92E-03
44335,5.57E-03,5.05E-03
44336,5.41E-03,5.00E-03
44337,5.86E-03,5.15E-03
44338,5.73E-03,5.10E-03
44339,7.34E-03,5.28E-03
44340,6.42E-03,5.21E-03
44341,8.70E-03,5.45E-03
44342,8.17E-03,5.36E-03
44343,1.00E-02,5.64E-03
44344,9.52E-03,5.54E-03
44345,1.10E-02,5.87E-03
44346,1.09E-02,5.75E-03
44347,7.13E-03,6.02E-03
44348,7.33E-03,5.96E-03
44349,6.15E-03,6.13E-03
44350,6.67E-03,6.08E-03
44351,3.17E-03,6.22E-03
44352,6.44E-03,6.21E-03
44353,4.45E-03,6.47E-03
44354,3.00E-03,6.37E-03
44355,6.17E-03,6.67E-03
44356,5.58E-03,6.55E-03
44357,7.38E-03,6.80E-03
44358,6.72E-03,9.04E-03
44359,8.27E-03,8.98E-03
44360,8.79E-03,8.91E-03
44361,1.01E-02,8.75E-03
44362,9.28E-03,8.83E-03
44363,1.04E-02,8.57E-03
44364,1.05E-02,8.66E-03
44365,1.02E-02,8.36E-03
44366,1.03E-02,8.47E-03
44367,8.61E-03,8.17E-03
44368,8.97E-03,8.26E-03
44369,8.23E-03,7.99E-03
44370,8.49E-03,8.08E-03
44371,7.68E-03,7.82E-03
44372,7.86E-03,7.90E-03
44373,7.22E-03,7.66E-03
44374,7.46E-03,7.74E-03
44375,6.92E-03,7.51E-03
44376,7.04E-03,7.59E-03
44377,6.69E-03,7.37E-03
44378,6.81E-03,7.44E-03
44379,6.45E-03,7.23E-03
44380,6.58E-03,7.30E-03
44381,6.09E-03,7.10E-03
44382,6.28E-03,7.17E-03
44383,5.72E-03,6.99E-03
44384,5.91E-03,7.04E-03
44385,5.55E-03,6.88E-03
44386,5.59E-03,6.93E-03
44387,5.54E-03,6.78E-03
44388,5.55E-03,6.83E-03
44389,5.53E-03,6.68E-03
44390,5.53E-03,6.73E-03
44391,5.50E-03,6.59E-03
44392,5.52E-03,6.64E-03
44393,5.43E-03,6.50E-03
44394,5.47E-03,6.55E-03
44395,5.37E-03,6.42E-03
44396,5.40E-03,6.46E-03
44397,5.33E-03,6.35E-03
44398,5.34E-03,6.38E-03
44399,5.39E-03,6.28E-03
44400,5.35E-03,6.31E-03
44401,5.49E-03,6.21E-03
44402,5.43E-03,6.24E-03
44403,5.65E-03,6.15E-03
44404,5.57E-03,6.18E-03
44405,5.87E-03,6.08E-03
44406,5.74E-03,6.11E-03
44407,6.18E-03,6.02E-03
44408,6.02E-03,6.05E-03
44409,6.44E-03,5.96E-03
44410,6.33E-03,5.99E-03
44411,6.59E-03,5.90E-03
44412,6.51E-03,5.93E-03
44413,6.73E-03,5.85E-03
44414,6.66E-03,5.88E-03
44415,6.87E-03,5.79E-03
44416,6.80E-03,5.82E-03
44417,7.00E-03,5.74E-03
44418,6.93E-03,5.76E-03
44419,7.13E-03,5.68E-03
44420,7.06E-03,5.71E-03
44421,7.23E-03,5.63E-03
44422,7.18E-03,5.66E-03
44423,7.29E-03,5.58E-03
44424,7.26E-03,5.60E-03
44425,7.35E-03,5.52E-03
44426,7.32E-03,5.55E-03
44427,7.41E-03,5.47E-03
44428,7.38E-03,5.49E-03
44429,7.48E-03,5.41E-03
44430,7.44E-03,5.44E-03
44431,7.60E-03,5.36E-03
44432,7.54E-03,5.39E-03
44433,7.71E-03,5.30E-03
44434,7.66E-03,5.33E-03
44435,7.78E-03,5.24E-03
44436,7.75E-03,5.27E-03
44437,7.83E-03,5.18E-03
44438,7.81E-03,5.21E-03
44439,7.78E-03,5.11E-03
44440,7.83E-03,5.14E-03
44441,7.40E-03,5.05E-03
44442,7.58E-03,5.08E-03
44443,7.19E-03,4.98E-03
44444,7.23E-03,5.01E-03
44445,6.63E-03,4.92E-03
44446,6.83E-03,4.95E-03
44447,6.31E-03,4.85E-03
44448,6.47E-03,4.89E-03
44449,5.76E-03,4.79E-03
44450,5.87E-03,4.82E-03
44451,5.52E-03,4.72E-03
44452,5.59E-03,4.76E-03
44453,5.21E-03,4.67E-03
44454,7.21E-03,2.13E-02
44455,8.35E-03,2.08E-02
44456,8.33E-03,1.13E-02
44457,8.11E-03,3.05E-02
44458,8.10E-03,1.85E-02
44459,8.77E-03,3.11E-02
44460,8.38E-03,9.34E-03
44461,8.69E-03,9.36E-03
44462,9.26E-03,9.39E-03
44463,9.75E-03,9.43E-03
44464,9.69E-03,9.48E-03
44465,9.61E-03,9.53E-03
44466,9.23E-03,9.58E-03
44467,9.23E-03,9.63E-03
44468,8.62E-03,9.67E-03
44469,8.24E-03,9.72E-03
44470,8.16E-03,9.76E-03
44471,8.12E-03,9.81E-03
44472,7.78E-03,9.85E-03
44473,7.10E-03,9.89E-03
44474,6.59E-03,9.92E-03
44475,6.53E-03,9.96E-03
44476,6.59E-03,9.99E-03
44477,6.52E-03,1.00E-02
44478,6.52E-03,1.00E-02
44479,6.56E-03,1.01E-02
44480,6.60E-03,1.01E-02
44481,6.63E-03,1.01E-02
44482,6.64E-03,1.01E-02
44483,6.64E-03,1.02E-02
44484,6.88E-03,1.02E-02
44485,6.93E-03,1.02E-02
44486,7.13E-03,1.02E-02
44487,7.48E-03,1.02E-02
44488,7.76E-03,1.03E-02
44489,8.02E-03,1.03E-02
44490,8.26E-03,1.03E-02
44491,7.77E-03,1.03E-02
44492,8.10E-03,1.03E-02
44493,7.24E-03,9.55E-03
44494,7.39E-03,9.58E-03
44495,5.61E-03,9.09E-03
44496,6.56E-03,8.93E-03
44497,8.20E-03,8.72E-03
44498,8.09E-03,8.49E-03
44499,8.09E-03,8.27E-03
44500,8.09E-03,8.04E-03
44501,8.09E-03,7.81E-03
44502,8.09E-03,7.59E-03
44503,8.09E-03,7.37E-03
44504,8.09E-03,7.15E-03
44505,8.09E-03,6.93E-03
44506,8.09E-03,6.71E-03
44507,8.09E-03,6.49E-03
44508,8.09E-03,6.28E-03
44509,8.09E-03,6.07E-03
44510,8.09E-03,5.87E-03
44511,8.09E-03,5.67E-03
44512,8.09E-03,5.48E-03
44513,8.09E-03,5.29E-03
44514,8.09E-03,5.11E-03
44515,8.09E-03,4.94E-03
44516,8.09E-03,4.78E-03
44517,8.09E-03,4.62E-03
44518,8.09E-03,4.48E-03
44519,8.09E-03,4.34E-03
44520,8.09E-03,4.22E-03
44521,8.09E-03,4.12E-03
44522,8.09E-03,4.02E-03
44523,8.09E-03,3.94E-03
44524,8.09E-03,3.88E-03
44525,8.09E-03,3.84E-03
44526,8.09E-03,3.81E-03
44527,8.09E-03,3.79E-03
44528,8.09E-03,3.79E-03
44529,8.09E-03,3.81E-03
44530,8.09E-03,3.85E-03
44531,8.09E-03,3.90E-03
44532,8.09E-03,3.96E-03
44533,8.09E-03,4.04E-03
44534,8.09E-03,4.12E-03
44535,8.09E-03,4.22E-03
44536,8.09E-03,4.33E-03
44537,8.09E-03,4.45E-03
44538,8.09E-03,4.57E-03
44539,8.09E-03,4.70E-03
44540,8.09E-03,4.84E-03
44541,8.09E-03,4.98E-03
44542,8.09E-03,5.12E-03
44543,8.09E-03,5.27E-03
44544,8.09E-03,5.42E-03
44545,8.09E-03,5.58E-03
44546,8.09E-03,5.73E-03
44547,8.09E-03,5.89E-03
44548,8.09E-03,6.05E-03
44549,8.09E-03,6.20E-03
44550,8.09E-03,6.36E-03
44551,8.09E-03,6.52E-03
44552,8.09E-03,6.68E-03
44553,8.09E-03,6.84E-03
44554,8.09E-03,6.99E-03
44555,8.09E-03,7.15E-03
44556,8.09E-03,7.30E-03
44557,8.09E-03,7.46E-03
44558,8.09E-03,7.61E-03
44559,8.09E-03,7.76E-03
44560,8.03E-03,7.91E-03
44561,7.96E-03,8.06E-03
44562,7.91E-03,8.20E-03
44563,7.81E-03,8.34E-03
44564,7.73E-03,8.48E-03
44565,7.70E-03,8.62E-03
44566,7.62E-03,8.76E-03
44567,7.63E-03,8.90E-03
44568,7.71E-03,9.04E-03
44569,8.27E-03,9.17E-03
44570,8.05E-03,9.59E-03
44571,7.87E-03,1.18E-02
44572,6.50E-03,1.18E-02
44573,1.03E-02,8.12E-03
44574,8.56E-03,8.22E-03
44575,7.54E-03,3.11E-02
44576,6.35E-03,3.10E-02
44577,5.87E-03,3.14E-02
44578,5.55E-03,1.04E-02
44579,7.16E-03,1.02E-02
44580,6.94E-03,2.17E-02
44581,5.81E-03,2.19E-02
44582,7.88E-03,2.24E-02
44583,7.33E-03,1.27E-02
44584,7.51E-03,7.58E-03
44585,8.02E-03,9.27E-03
44586,7.30E-03,1.00E-02
44587,9.21E-03,9.91E-03
44588,1.11E-02,9.76E-03
44589,1.06E-02,9.65E-03
44590,1.05E-02,9.54E-03
44591,1.09E-02,9.43E-03
44592,1.09E-02,9.32E-03
44593,1.10E-02,9.21E-03
44594,1.10E-02,9.11E-03
44595,1.10E-02,9.03E-03
44596,1.08E-02,8.95E-03
44597,1.07E-02,8.88E-03
44598,1.06E-02,8.82E-03
44599,1.04E-02,8.77E-03
44600,1.03E-02,8.72E-03
44601,1.01E-02,8.68E-03
44602,9.90E-03,8.64E-03
44603,9.66E-03,8.61E-03
44604,9.44E-03,8.59E-03
44605,9.30E-03,8.57E-03
44606,9.20E-03,8.56E-03
44607,9.10E-03,8.55E-03
44608,9.01E-03,8.54E-03
44609,8.94E-03,8.54E-03
44610,8.87E-03,8.54E-03
44611,8.80E-03,8.54E-03
44612,8.72E-03,8.55E-03
44613,8.63E-03,8.56E-03
44614,8.53E-03,8.58E-03
44615,8.43E-03,8.60E-03
44616,8.33E-03,8.62E-03
44617,8.24E-03,8.64E-03
44618,8.19E-03,8.66E-03
44619,8.18E-03,8.69E-03
44620,8.04E-03,8.72E-03
44621,7.95E-03,8.75E-03
44622,7.69E-03,8.79E-03
44623,7.52E-03,8.82E-03
44624,7.45E-03,8.86E-03
44625,7.34E-03,8.89E-03
44626,7.02E-03,8.93E-03
44627,7.02E-03,8.97E-03
44628,6.95E-03,9.02E-03
44629,6.72E-03,9.06E-03
44630,6.42E-03,9.10E-03
44631,5.70E-03,9.14E-03
44632,5.61E-03,9.18E-03
44633,5.52E-03,9.22E-03
44634,5.37E-03,9.25E-03
44635,5.06E-03,9.29E-03
44636,4.93E-03,9.32E-03
44637,4.68E-03,9.36E-03
44638,4.03E-03,9.39E-03
44639,3.88E-03,9.42E-03
44640,3.53E-03,9.46E-03
44641,3.52E-03,9.49E-03
44642,3.57E-03,9.52E-03
44643,3.90E-03,9.54E-03
44644,3.83E-03,9.56E-03
44645,3.42E-03,9.59E-03
44646,4.66E-03,9.72E-03
44647,5.92E-03,9.73E-03
44648,7.19E-03,9.74E-03
44649,8.26E-03,1.92E-02
44650,7.79E-03,9.61E-03
44651,8.09E-03,1.12E-02
44652,8.09E-03,1.11E-02
44653,8.09E-03,1.10E-02
44654,8.09E-03,1.08E-02
44655,8.09E-03,1.07E-02
44656,8.09E-03,1.05E-02
44657,8.09E-03,1.04E-02
44658,8.09E-03,1.02E-02
44659,8.09E-03,1.01E-02
44660,8.09E-03,9.92E-03
44661,8.09E-03,9.76E-03
44662,8.09E-03,9.60E-03
44663,8.09E-03,9.45E-03
44664,8.09E-03,9.29E-03
44665,8.09E-03,9.13E-03
44666,8.09E-03,8.96E-03
44667,8.09E-03,8.80E-03
44668,8.09E-03,8.64E-03
44669,8.09E-03,8.47E-03
44670,8.09E-03,8.31E-03
44671,8.09E-03,8.14E-03
44672,8.09E-03,7.97E-03
44673,8.09E-03,7.81E-03
44674,8.09E-03,7.64E-03
44675,8.09E-03,7.48E-03
44676,8.09E-03,7.31E-03
44677,8.09E-03,7.15E-03
44678,8.09E-03,6.98E-03
44679,8.09E-03,6.82E-03
44680,8.09E-03,6.66E-03
44681,8.09E-03,6.51E-03
44682,8.09E-03,6.35E-03
44683,8.09E-03,6.20E-03
44684,8.09E-03,6.05E-03
44685,8.09E-03,5.91E-03
44686,8.09E-03,5.77E-03
44687,8.09E-03,5.64E-03
44688,8.09E-03,5.51E-03
44689,8.09E-03,5.39E-03
44690,8.09E-03,5.28E-03
44691,8.09E-03,5.17E-03
44692,8.09E-03,5.07E-03
44693,8.09E-03,4.99E-03
44694,8.09E-03,4.91E-03
44695,8.09E-03,4.84E-03
44696,8.09E-03,4.79E-03
44697,8.09E-03,4.75E-03
44698,8.09E-03,4.72E-03
44699,8.09E-03,4.70E-03
44700,8.09E-03,4.70E-03
44701,8.09E-03,4.72E-03
44702,8.09E-03,4.74E-03
44703,8.09E-03,4.78E-03
44704,8.09E-03,4.84E-03
44705,8.09E-03,4.91E-03
44706,8.09E-03,4.99E-03
44707,8.09E-03,5.08E-03
44708,8.09E-03,5.19E-03
44709,8.09E-03,5.31E-03
44710,8.09E-03,5.44E-03
44711,8.09E-03,5.58E-03
44712,8.09E-03,5.73E-03
44713,8.09E-03,5.89E-03
44714,8.09E-03,6.06E-03
44715,8.09E-03,6.23E-03
44716,8.09E-03,6.42E-03
44717,8.09E-03,6.61E-03
44718,8.09E-03,6.81E-03
44719,8.09E-03,7.01E-03
44720,8.09E-03,7.22E-03
44721,8.09E-03,7.44E-03
44722,8.09E-03,7.66E-03
44723,8.09E-03,7.88E-03
44724,8.09E-03,8.11E-03
44725,8.09E-03,8.35E-03
44726,8.09E-03,8.58E-03
44727,8.09E-03,8.82E-03
44728,8.12E-03,9.07E-03
44729,8.29E-03,9.33E-03
44730,8.13E-03,9.56E-03
44731,7.80E-03,9.79E-03
44732,7.79E-03,1.01E-02
44733,8.10E-03,1.03E-02
44734,7.58E-03,9.51E-03
44735,4.65E-03,2.68E-02
44736,7.48E-03,1.27E-02
44737,8.10E-03,1.48E-02
44738,8.10E-03,1.50E-02
44739,6.76E-03,1.37E-02
44740,8.12E-03,3.06E-02
44741,8.23E-03,3.07E-02
44742,8.14E-03,3.07E-02
44743,8.17E-03,3.06E-02
44744,8.17E-03,3.05E-02
44745,7.94E-03,3.04E-02
44746,7.82E-03,3.03E-02
44747,7.61E-03,3.01E-02
44748,7.42E-03,3.00E-02
44749,7.05E-03,2.99E-02
44750,6.49E-03,2.97E-02
44751,5.94E-03,2.96E-02
44752,5.50E-03,2.94E-02
44753,5.13E-03,2.93E-02
44754,4.65E-03,2.91E-02
44755,4.00E-03,2.90E-02
44756,3.50E-03,2.88E-02
44757,3.55E-03,2.86E-02
44758,3.82E-03,2.84E-02
44759,4.04E-03,2.82E-02
44760,4.59E-03,2.80E-02
44761,5.21E-03,2.78E-02
44762,5.46E-03,2.76E-02
44763,5.53E-03,2.73E-02
44764,5.59E-03,2.70E-02
44765,5.65E-03,2.67E-02
44766,5.70E-03,2.64E-02
44767,5.70E-03,2.61E-02
44768,5.64E-03,2.58E-02
44769,5.58E-03,2.54E-02
44770,5.38E-03,2.51E-02
44771,5.29E-03,2.47E-02
44772,5.20E-03,2.44E-02
44773,5.19E-03,2.40E-02
44774,4.99E-03,2.37E-02
44775,4.30E-03,2.35E-02
44776,2.84E-03,2.34E-02
44777,8.31E-03,1.34E-02
44778,1.01E-02,1.33E-02
44779,8.17E-03,9.91E-03
44780,8.10E-03,1.37E-02
44781,7.61E-03,9.88E-03
44782,7.55E-03,1.01E-02
44783,8.12E-03,2.26E-02
44784,8.09E-03,2.30E-02
44785,6.64E-03,3.15E-02
44786,7.56E-03,2.85E-02
44787,7.63E-03,2.97E-02
44788,6.63E-03,1.87E-02
44789,7.78E-03,2.84E-02
44790,7.31E-03,2.85E-02
44791,8.44E-03,2.78E-02
44792,8.23E-03,2.82E-02
44793,6.12E-03,9.69E-03
44794,6.00E-03,9.72E-03
44795,8.19E-03,1.09E-02
44796,8.08E-03,1.08E-02
44797,8.10E-03,1.16E-02
44798,8.10E-03,1.14E-02
44799,4.61E-03,9.90E-03
44800,5.49E-03,1.00E-02
44801,7.35E-03,1.01E-02
44802,6.21E-03,1.01E-02
44803,7.27E-03,2.72E-02
44804,7.53E-03,1.26E-02
44805,8.10E-03,1.47E-02
44806,8.10E-03,1.50E-02
44807,6.62E-03,1.33E-02
44808,8.10E-03,1.38E-02
44809,7.07E-03,9.44E-03
44810,7.13E-03,9.64E-03
44811,7.81E-03,3.03E-02
44812,5.68E-03,1.23E-02
44813,7.24E-03,1.23E-02
44814,6.15E-03,1.23E-02
44815,4.06E-03,1.23E-02
44816,4.08E-03,1.23E-02
44817,4.87E-03,1.23E-02
44818,5.14E-03,1.23E-02
44819,5.22E-03,1.22E-02
44820,5.35E-03,1.22E-02
44821,5.35E-03,1.22E-02
44822,5.41E-03,1.22E-02
44823,5.38E-03,1.22E-02
44824,5.16E-03,1.22E-02
44825,5.36E-03,1.22E-02
44826,6.24E-03,1.22E-02
44827,7.24E-03,1.22E-02
44828,7.93E-03,1.21E-02
44829,8.43E-03,1.21E-02
44830,8.61E-03,1.20E-02
44831,9.05E-03,1.20E-02
44832,9.77E-03,1.19E-02
44833,9.90E-03,1.19E-02
44834,1.05E-02,1.18E-02
44835,1.07E-02,1.18E-02
44836,1.10E-02,1.18E-02
44837,1.11E-02,1.17E-02
44838,1.11E-02,1.17E-02
44839,9.85E-03,1.16E-02
44840,1.04E-02,1.16E-02
44841,8.49E-03,1.15E-02
44842,8.20E-03,1.14E-02
44843,8.62E-03,1.11E-02
44844,5.76E-03,1.07E-02
44845,6.15E-03,1.09E-02
44846,5.13E-03,1.00E-02
44847,7.88E-03,1.25E-02
44848,8.41E-03,1.27E-02
44849,8.10E-03,1.46E-02
44850,8.10E-03,1.50E-02
44851,8.10E-03,1.39E-02
44852,7.26E-03,1.26E-02
44853,8.10E-03,1.45E-02
44854,8.10E-03,1.49E-02
44855,8.10E-03,1.40E-02
44856,8.10E-03,1.17E-02
44857,8.10E-03,1.44E-02
44858,8.10E-03,1.49E-02
44859,8.10E-03,1.41E-02
44860,8.10E-03,1.42E-02
44861,7.99E-03,1.49E-02
44862,8.10E-03,1.42E-02
44863,8.10E-03,1.20E-02
44864,8.10E-03,1.19E-02
44865,8.10E-03,1.22E-02
44866,8.10E-03,1.41E-02
44867,7.66E-03,1.49E-02
44868,8.10E-03,1.42E-02
44869,8.10E-03,1.24E-02
44870,8.10E-03,1.40E-02
44871,7.44E-03,1.48E-02
44872,8.10E-03,1.43E-02
44873,8.10E-03,1.39E-02
44874,7.35E-03,1.48E-02
44875,8.10E-03,1.44E-02
44876,8.10E-03,1.38E-02
44877,7.39E-03,1.47E-02
44878,8.18E-03,1.45E-02
44879,8.10E-03,1.29E-02
44880,8.10E-03,1.28E-02
44881,8.10E-03,1.27E-02
44882,8.10E-03,1.25E-02
44883,8.10E-03,1.36E-02
44884,7.81E-03,1.47E-02
44885,8.34E-03,1.45E-02
44886,8.10E-03,1.31E-02
44887,8.10E-03,1.35E-02
44888,8.36E-03,1.47E-02
44889,8.48E-03,1.46E-02
44890,8.10E-03,1.32E-02
44891,8.10E-03,1.34E-02
44892,8.53E-03,1.46E-02
44893,6.97E-03,1.21E-02
44894,5.03E-03,1.20E-02
44895,4.15E-03,1.19E-02
44896,5.54E-03,1.19E-02
44897,7.48E-03,3.15E-02
44898,7.39E-03,1.03E-02
44899,7.19E-03,2.24E-02
44900,7.29E-03,1.14E-02
44901,7.20E-03,1.29E-02
44902,8.31E-03,7.31E-03
44903,6.18E-03,9.08E-03
44904,6.48E-03,8.91E-03
44905,8.19E-03,8.70E-03
44906,8.09E-03,8.47E-03
44907,8.09E-03,8.24E-03
44908,8.09E-03,8.02E-03
44909,8.09E-03,7.79E-03
44910,8.09E-03,7.57E-03
44911,8.09E-03,7.35E-03
44912,8.09E-03,7.13E-03
44913,8.09E-03,6.91E-03
44914,8.09E-03,6.69E-03
44915,8.09E-03,6.48E-03
44916,8.09E-03,6.27E-03
44917,8.09E-03,6.06E-03
44918,8.09E-03,5.86E-03
44919,8.09E-03,5.66E-03
44920,8.09E-03,5.47E-03
44921,8.09E-03,5.28E-03
44922,8.09E-03,5.10E-03
44923,8.09E-03,4.93E-03
44924,8.09E-03,4.76E-03
44925,8.09E-03,4.61E-03
44926,8.09E-03,4.47E-03
44927,8.09E-03,4.33E-03
44928,8.09E-03,4.21E-03
44929,8.09E-03,4.10E-03
44930,8.09E-03,4.01E-03
44931,8.09E-03,3.93E-03
44932,8.09E-03,3.87E-03
44933,8.09E-03,3.82E-03
44934,8.09E-03,3.79E-03
44935,8.09E-03,3.78E-03
44936,8.09E-03,3.78E-03
44937,8.09E-03,3.80E-03
44938,8.09E-03,3.83E-03
44939,8.09E-03,3.88E-03
44940,8.09E-03,3.94E-03
44941,8.09E-03,4.02E-03
44942,8.09E-03,4.11E-03
44943,8.09E-03,4.20E-03
44944,8.09E-03,4.31E-03
44945,8.09E-03,4.43E-03
44946,8.09E-03,4.55E-03
44947,8.09E-03,4.68E-03
44948,8.09E-03,4.82E-03
44949,8.09E-03,4.96E-03
44950,8.09E-03,5.11E-03
44951,8.09E-03,5.26E-03
44952,8.09E-03,5.41E-03
44953,8.09E-03,5.56E-03
44954,8.09E-03,5.72E-03
44955,8.09E-03,5.88E-03
44956,8.09E-03,6.03E-03
44957,8.09E-03,6.19E-03
44958,8.09E-03,6.35E-03
44959,8.09E-03,6.51E-03
44960,8.09E-03,6.67E-03
44961,8.09E-03,6.83E-03
44962,8.09E-03,6.99E-03
44963,8.09E-03,7.15E-03
44964,8.09E-03,7.30E-03
44965,8.09E-03,7.46E-03
44966,8.09E-03,7.61E-03
44967,8.09E-03,7.76E-03
44968,8.09E-03,7.92E-03
44969,8.03E-03,8.06E-03
44970,7.99E-03,8.21E-03
44971,7.91E-03,8.35E-03
44972,7.86E-03,8.50E-03
44973,7.79E-03,8.64E-03
44974,7.86E-03,8.78E-03
44975,7.87E-03,8.92E-03
44976,8.13E-03,9.06E-03
44977,8.36E-03,9.20E-03
44978,8.54E-03,9.33E-03
44979,8.42E-03,9.45E-03
44980,8.11E-03,9.59E-03
44981,7.79E-03,9.73E-03
44982,8.42E-03,1.02E-02
44983,9.82E-03,1.01E-02
44984,1.02E-02,9.92E-03
44985,1.09E-02,9.78E-03
44986,1.07E-02,9.66E-03
44987,1.08E-02,9.55E-03
44988,1.09E-02,9.43E-03
44989,1.11E-02,9.33E-03
44990,1.10E-02,9.23E-03
44991,1.09E-02,9.15E-03
44992,1.07E-02,9.07E-03
44993,1.06E-02,9.01E-03
44994,1.05E-02,8.94E-03
44995,1.04E-02,8.89E-03
44996,1.02E-02,8.84E-03
44997,1.01E-02,8.80E-03
44998,9.84E-03,8.76E-03
44999,9.60E-03,8.73E-03
45000,9.40E-03,8.71E-03
45001,9.26E-03,8.69E-03
45002,9.16E-03,8.68E-03
45003,9.07E-03,8.66E-03
45004,8.98E-03,8.66E-03
45005,8.91E-03,8.65E-03
45006,8.84E-03,8.65E-03
45007,8.78E-03,8.66E-03
45008,8.70E-03,8.66E-03
45009,8.61E-03,8.67E-03
45010,8.51E-03,8.69E-03
45011,8.42E-03,8.70E-03
45012,8.32E-03,8.72E-03
45013,8.24E-03,8.75E-03
45014,8.19E-03,8.77E-03
45015,8.17E-03,8.80E-03
45016,8.08E-03,8.82E-03
45017,7.93E-03,8.86E-03
45018,7.73E-03,8.89E-03
45019,7.54E-03,8.92E-03
45020,7.50E-03,8.96E-03
45021,7.39E-03,8.99E-03
45022,7.11E-03,9.03E-03
45023,6.99E-03,9.07E-03
45024,6.91E-03,9.11E-03
45025,6.74E-03,9.15E-03
45026,6.45E-03,9.19E-03
45027,5.84E-03,9.23E-03
45028,5.79E-03,9.27E-03
45029,5.61E-03,9.31E-03
45030,5.41E-03,9.35E-03
45031,5.20E-03,9.39E-03
45032,5.06E-03,9.42E-03
45033,4.77E-03,9.46E-03
45034,4.32E-03,9.49E-03
45035,4.01E-03,9.52E-03
45036,3.55E-03,9.55E-03
45037,3.59E-03,9.58E-03
45038,3.64E-03,9.61E-03
45039,3.75E-03,9.63E-03
45040,3.69E-03,9.65E-03
45041,3.51E-03,9.67E-03
45042,3.98E-03,9.69E-03
45043,3.31E-03,9.72E-03
45044,3.39E-03,9.80E-03
45045,4.63E-03,9.84E-03
45046,5.62E-03,9.85E-03
45047,7.12E-03,9.88E-03
45048,8.49E-03,9.87E-03
45049,7.85E-03,1.93E-02
45050,8.13E-03,9.63E-03
45051,8.66E-03,9.64E-03
45052,9.29E-03,9.67E-03
45053,9.74E-03,9.71E-03
45054,9.75E-03,9.76E-03
45055,9.55E-03,9.81E-03
45056,9.18E-03,9.86E-03
45057,9.15E-03,9.91E-03
45058,8.60E-03,9.95E-03
45059,8.28E-03,1.00E-02
45060,8.12E-03,1.00E-02
45061,8.12E-03,1.01E-02
45062,7.79E-03,1.01E-02
45063,7.14E-03,1.02E-02
45064,6.64E-03,1.02E-02
45065,6.59E-03,1.02E-02
45066,6.64E-03,1.03E-02
45067,6.58E-03,1.03E-02
45068,6.57E-03,1.03E-02
45069,6.61E-03,1.04E-02
45070,6.66E-03,1.04E-02
45071,6.68E-03,1.04E-02
45072,6.69E-03,1.04E-02
45073,6.73E-03,1.05E-02
45074,6.87E-03,1.05E-02
45075,7.00E-03,1.05E-02
45076,7.31E-03,1.05E-02
45077,7.49E-03,1.05E-02
45078,7.93E-03,1.05E-02
45079,7.98E-03,1.06E-02
45080,8.04E-03,1.06E-02
45081,8.08E-03,1.06E-02
45082,8.76E-03,1.06E-02
45083,9.59E-03,1.06E-02
45084,8.51E-03,1.88E-02
45085,7.83E-03,1.88E-02
45086,7.89E-03,1.87E-02
45087,7.99E-03,1.86E-02
45088,8.84E-03,1.86E-02
45089,9.40E-03,1.85E-02
45090,9.43E-03,1.84E-02
45091,8.06E-03,1.84E-02
45092,8.02E-03,1.83E-02
45093,7.31E-03,1.83E-02
45094,7.19E-03,1.82E-02
45095,6.97E-03,1.81E-02
45096,6.63E-03,1.81E-02
45097,6.50E-03,1.80E-02
45098,7.27E-03,1.80E-02
45099,7.27E-03,1.79E-02
45100,8.52E-03,9.20E-03
45101,1.07E-02,1.85E-02
45102,9.47E-03,1.85E-02
45103,9.56E-03,1.86E-02
45104,5.74E-03,1.86E-02
45105,4.88E-03,2.65E-02
45106,5.87E-03,2.63E-02
45107,7.76E-03,1.27E-02
45108,8.10E-03,1.48E-02
45109,8.10E-03,1.49E-02
45110,7.32E-03,2.00E-02
45111,6.94E-03,1.40E-02
45112,9.51E-03,3.13E-02
45113,8.55E-03,3.13E-02
45114,8.33E-03,3.13E-02
45115,8.21E-03,3.12E-02
45116,8.20E-03,3.11E-02
45117,7.93E-03,3.10E-02
45118,7.87E-03,3.09E-02
45119,7.62E-03,3.08E-02
45120,7.44E-03,3.07E-02
45121,7.09E-03,3.05E-02
45122,6.55E-03,3.04E-02
45123,6.01E-03,3.02E-02
45124,5.59E-03,3.01E-02
45125,5.23E-03,2.99E-02
45126,4.77E-03,2.98E-02
45127,4.14E-03,2.96E-02
45128,3.66E-03,2.94E-02
45129,3.71E-03,2.92E-02
45130,3.96E-03,2.90E-02
45131,4.18E-03,2.89E-02
45132,4.71E-03,2.86E-02
45133,5.31E-03,2.84E-02
45134,5.55E-03,2.82E-02
45135,5.62E-03,2.79E-02
45136,5.68E-03,2.76E-02
45137,5.74E-03,2.73E-02
45138,5.78E-03,2.69E-02
45139,5.78E-03,2.66E-02
45140,5.72E-03,2.63E-02
45141,5.62E-03,2.59E-02
45142,5.47E-03,2.55E-02
45143,5.27E-03,2.52E-02
45144,5.13E-03,2.49E-02
45145,5.02E-03,2.46E-02
45146,4.63E-03,2.43E-02
45147,4.14E-03,2.41E-02
45148,3.15E-03,2.38E-02
45149,2.08E-03,2.34E-02
45150,3.21E-03,2.33E-02
45151,3.03E-03,2.33E-02
45152,2.77E-03,2.31E-02
45153,2.52E-03,2.27E-02
45154,2.80E-03,2.24E-02
45155,3.18E-03,2.22E-02
45156,3.33E-03,2.20E-02
45157,3.52E-03,2.18E-02
45158,3.77E-03,2.16E-02
45159,4.38E-03,2.13E-02
45160,4.60E-03,2.09E-02
45161,4.85E-03,2.05E-02
45162,5.05E-03,2.02E-02
45163,5.18E-03,1.98E-02
45164,5.39E-03,1.95E-02
45165,5.59E-03,1.91E-02
45166,5.78E-03,1.87E-02
45167,5.87E-03,1.83E-02
45168,5.90E-03,1.80E-02
45169,5.92E-03,1.76E-02
45170,5.94E-03,1.73E-02
45171,5.87E-03,1.69E-02
45172,5.72E-03,1.66E-02
45173,5.55E-03,1.63E-02
45174,5.40E-03,1.61E-02
45175,5.22E-03,1.58E-02
45176,4.91E-03,1.56E-02
45177,4.46E-03,1.54E-02
45178,4.24E-03,1.52E-02
45179,4.51E-03,1.50E-02
45180,5.10E-03,1.48E-02
45181,5.54E-03,1.46E-02
45182,5.88E-03,1.44E-02
45183,7.26E-03,1.41E-02
45184,7.79E-03,1.39E-02
45185,7.94E-03,1.36E-02
45186,8.03E-03,1.35E-02
45187,6.73E-03,9.85E-03
45188,6.89E-03,9.81E-03
45189,7.63E-03,9.86E-03
45190,7.39E-03,9.91E-03
45191,8.10E-03,1.35E-02
45192,7.54E-03,1.03E-02
45193,8.10E-03,2.34E-02
45194,6.45E-03,2.60E-02
45195,8.78E-03,3.09E-02
45196,8.19E-03,3.11E-02
45197,6.35E-03,3.16E-02
45198,6.76E-03,3.18E-02
45199,7.01E-03,3.20E-02
45200,5.71E-03,3.21E-02
45201,7.47E-03,2.87E-02
45202,7.39E-03,2.94E-02
45203,5.31E-03,1.87E-02
45204,8.81E-03,8.89E-03
45205,7.39E-03,2.87E-02
45206,7.16E-03,2.88E-02
45207,7.94E-03,2.86E-02
45208,9.03E-03,1.24E-02
45209,8.89E-03,1.23E-02
45210,6.80E-03,1.21E-02
45211,9.54E-03,1.17E-02
45212,6.09E-03,9.70E-03
45213,3.58E-03,9.65E-03
45214,4.07E-03,9.65E-03
45215,4.73E-03,9.62E-03
45216,5.45E-03,9.58E-03
45217,5.75E-03,9.53E-03
45218,5.82E-03,9.49E-03
45219,6.46E-03,9.44E-03
45220,6.51E-03,9.38E-03
45221,6.77E-03,9.32E-03
45222,6.93E-03,9.25E-03
45223,7.03E-03,9.18E-03
45224,7.12E-03,9.11E-03
45225,7.22E-03,9.03E-03
45226,7.32E-03,8.95E-03
45227,7.42E-03,8.87E-03
45228,7.51E-03,8.79E-03
45229,7.57E-03,8.70E-03
45230,7.59E-03,8.61E-03
45231,7.62E-03,8.53E-03
45232,7.64E-03,8.44E-03
45233,7.66E-03,8.35E-03
45234,7.68E-03,8.26E-03
45235,7.71E-03,8.18E-03
45236,7.73E-03,8.09E-03
45237,7.75E-03,8.01E-03
45238,7.78E-03,7.93E-03
45239,7.80E-03,7.86E-03
45240,7.81E-03,7.78E-03
45241,7.83E-03,7.72E-03
45242,7.84E-03,7.65E-03
45243,7.86E-03,7.60E-03
45244,7.87E-03,7.55E-03
45245,7.89E-03,7.51E-03
45246,7.90E-03,7.47E-03
45247,7.91E-03,7.45E-03
45248,7.92E-03,7.43E-03
45249,7.93E-03,7.42E-03
45250,7.94E-03,7.43E-03
45251,7.95E-03,7.44E-03
45252,7.96E-03,7.46E-03
45253,7.96E-03,7.49E-03
45254,7.96E-03,7.54E-03
45255,7.96E-03,7.59E-03
45256,7.96E-03,7.65E-03
45257,7.96E-03,7.73E-03
45258,7.96E-03,7.81E-03
45259,7.95E-03,7.90E-03
45260,7.94E-03,8.00E-03
45261,7.92E-03,8.10E-03
45262,7.91E-03,8.22E-03
45263,7.89E-03,8.34E-03
45264,7.88E-03,8.47E-03
45265,7.86E-03,8.60E-03
45266,7.84E-03,8.74E-03
45267,7.83E-03,8.88E-03
45268,7.81E-03,9.02E-03
45269,7.79E-03,9.17E-03
45270,7.77E-03,9.33E-03
45271,7.73E-03,9.48E-03
45272,7.69E-03,9.64E-03
45273,7.65E-03,9.80E-03
45274,7.61E-03,9.95E-03
45275,7.56E-03,1.01E-02
45276,7.52E-03,1.03E-02
45277,7.48E-03,1.04E-02
45278,7.44E-03,1.06E-02
45279,7.41E-03,1.08E-02
45280,7.38E-03,1.09E-02
45281,7.35E-03,1.11E-02
45282,7.32E-03,1.12E-02
45283,7.29E-03,1.14E-02
45284,7.26E-03,1.15E-02
45285,7.23E-03,1.17E-02
45286,7.19E-03,1.19E-02
45287,7.15E-03,1.20E-02
45288,7.11E-03,1.22E-02
45289,7.06E-03,1.23E-02
45290,7.01E-03,1.25E-02
45291,6.95E-03,1.26E-02
45292,6.86E-03,1.28E-02
45293,6.78E-03,1.29E-02
45294,6.70E-03,1.30E-02
45295,6.62E-03,1.32E-02
45296,6.58E-03,1.33E-02
45297,6.57E-03,1.34E-02
45298,6.56E-03,1.36E-02
45299,6.57E-03,1.37E-02
45300,6.59E-03,1.38E-02
45301,6.63E-03,1.40E-02
45302,6.66E-03,1.41E-02
45303,6.68E-03,1.42E-02
45304,6.70E-03,1.44E-02
45305,6.72E-03,1.45E-02
45306,6.74E-03,1.47E-02
45307,6.76E-03,1.48E-02
45308,6.78E-03,1.49E-02
45309,6.80E-03,1.51E-02
45310,6.82E-03,1.52E-02
45311,6.84E-03,1.53E-02
45312,6.86E-03,1.55E-02
45313,6.88E-03,1.56E-02
45314,6.90E-03,1.57E-02
45315,6.93E-03,1.59E-02
45316,6.94E-03,1.60E-02
45317,6.95E-03,1.61E-02
45318,6.95E-03,1.63E-02
45319,6.95E-03,1.64E-02
45320,6.98E-03,1.66E-02
45321,7.05E-03,1.67E-02
45322,7.08E-03,1.68E-02
45323,7.05E-03,1.70E-02
45324,7.00E-03,1.71E-02
45325,6.92E-03,1.73E-02
45326,6.96E-03,1.74E-02
45327,7.34E-03,1.76E-02
45328,7.39E-03,1.77E-02
45329,6.95E-03,1.79E-02
45330,7.77E-03,1.07E-02
45331,6.55E-03,3.16E-02
45332,8.10E-03,1.14E-02
45333,8.09E-03,1.13E-02
45334,8.09E-03,1.11E-02
45335,8.09E-03,1.10E-02
45336,8.09E-03,1.08E-02
45337,8.09E-03,1.07E-02
45338,8.09E-03,1.05E-02
45339,8.09E-03,1.04E-02
45340,8.09E-03,1.02E-02
45341,8.09E-03,1.01E-02
45342,8.09E-03,9.94E-03
45343,8.09E-03,9.79E-03
45344,8.09E-03,9.63E-03
45345,8.09E-03,9.47E-03
45346,8.09E-03,9.31E-03
45347,8.09E-03,9.15E-03
45348,8.09E-03,8.99E-03
45349,8.09E-03,8.82E-03
45350,8.09E-03,8.66E-03
45351,8.09E-03,8.49E-03
45352,8.09E-03,8.32E-03
45353,8.09E-03,8.16E-03
45354,8.09E-03,7.99E-03
45355,8.09E-03,7.82E-03
45356,8.09E-03,7.66E-03
45357,8.09E-03,7.49E-03
45358,8.09E-03,7.33E-03
45359,8.09E-03,7.16E-03
45360,8.09E-03,7.00E-03
45361,8.09E-03,6.84E-03
45362,8.09E-03,6.67E-03
45363,8.09E-03,6.52E-03
45364,8.09E-03,6.36E-03
45365,8.09E-03,6.21E-03
45366,8.09E-03,6.06E-03
45367,8.09E-03,5.92E-03
45368,8.09E-03,5.78E-03
45369,8.09E-03,5.64E-03
45370,8.09E-03,5.51E-03
45371,8.09E-03,5.39E-03
45372,8.09E-03,5.27E-03
45373,8.09E-03,5.17E-03
45374,8.09E-03,5.07E-03
45375,8.09E-03,4.98E-03
45376,8.09E-03,4.90E-03
45377,8.09E-03,4.83E-03
45378,8.09E-03,4.77E-03
45379,8.09E-03,4.73E-03
45380,8.09E-03,4.70E-03
45381,8.09E-03,4.68E-03
45382,8.09E-03,4.68E-03
45383,8.09E-03,4.69E-03
45384,8.09E-03,4.71E-03
45385,8.09E-03,4.75E-03
45386,8.09E-03,4.80E-03
45387,8.09E-03,4.87E-03
45388,8.09E-03,4.95E-03
45389,8.09E-03,5.04E-03
45390,8.09E-03,5.15E-03
45391,8.09E-03,5.26E-03
45392,8.09E-03,5.39E-03
45393,8.09E-03,5.53E-03
45394,8.09E-03,5.68E-03
45395,8.09E-03,5.84E-03
45396,8.09E-03,6.00E-03
45397,8.09E-03,6.18E-03
45398,8.09E-03,6.36E-03
45399,8.09E-03,6.55E-03
45400,8.09E-03,6.75E-03
45401,8.09E-03,6.95E-03
45402,8.09E-03,7.16E-03
45403,8.09E-03,7.37E-03
45404,8.09E-03,7.59E-03
45405,8.09E-03,7.81E-03
45406,8.09E-03,8.04E-03
45407,8.09E-03,8.27E-03
45408,8.09E-03,8.51E-03
45409,8.09E-03,8.75E-03
45410,8.14E-03,9.00E-03
45411,8.15E-03,9.24E-03
45412,8.07E-03,9.48E-03
45413,8.04E-03,9.73E-03
45414,8.17E-03,9.98E-03
45415,8.27E-03,1.03E-02
45416,9.31E-03,1.05E-02
45417,7.20E-03,1.07E-02
45418,7.08E-03,1.09E-02
45419,5.85E-03,1.10E-02
45420,5.31E-03,9.93E-03
45421,5.91E-03,9.96E-03
45422,6.00E-03,1.00E-02
45423,6.97E-03,1.00E-02
45424,7.79E-03,9.74E-03
45425,6.66E-03,1.03E-02
45426,7.92E-03,1.93E-02
45427,7.14E-03,9.25E-03
45428,7.24E-03,1.00E-02
45429,9.35E-03,7.78E-03
45430,8.09E-03,7.05E-03
45431,5.62E-03,2.68E-02
45432,8.05E-03,1.27E-02
45433,8.64E-03,1.30E-02
45434,7.41E-03,1.32E-02
45435,8.10E-03,1.47E-02
45436,8.10E-03,1.49E-02
45437,6.96E-03,1.36E-02
45438,7.44E-03,1.03E-02
45439,7.76E-03,1.02E-02
45440,8.10E-03,1.36E-02
45441,7.60E-03,9.82E-03
45442,7.75E-03,1.00E-02
45443,8.46E-03,2.27E-02
45444,8.10E-03,2.31E-02
45445,7.85E-03,8.95E-03
45446,8.73E-03,8.85E-03
45447,8.95E-03,8.78E-03
45448,7.33E-03,3.01E-02
45449,9.35E-03,1.13E-02
45450,8.62E-03,1.11E-02
45451,8.01E-03,1.09E-02
45452,7.64E-03,1.16E-02
45453,7.87E-03,1.15E-02
45454,6.74E-03,1.89E-02
45455,4.69E-03,1.06E-02
45456,9.03E-03,2.81E-02
45457,8.12E-03,2.85E-02
45458,5.94E-03,1.02E-02
45459,1.03E-02,1.28E-02
45460,5.37E-03,2.74E-02
45461,8.10E-03,1.46E-02
45462,8.10E-03,1.49E-02
45463,7.12E-03,1.32E-02
45464,8.10E-03,1.37E-02
45465,9.39E-03,1.28E-02
45466,7.90E-03,3.10E-02
45467,7.51E-03,3.07E-02
45468,5.15E-03,1.01E-02
45469,6.89E-03,1.26E-02
45470,6.77E-03,1.25E-02
45471,6.47E-03,1.25E-02
45472,4.16E-03,1.25E-02
45473,4.43E-03,1.25E-02
45474,5.00E-03,1.25E-02
45475,5.23E-03,1.25E-02
45476,5.21E-03,1.25E-02
45477,5.44E-03,1.25E-02
45478,5.45E-03,1.25E-02
45479,5.51E-03,1.25E-02
45480,5.48E-03,1.25E-02
45481,5.27E-03,1.25E-02
45482,5.45E-03,1.24E-02
45483,6.30E-03,1.24E-02
45484,7.10E-03,1.24E-02
45485,8.01E-03,1.24E-02
45486,8.25E-03,1.23E-02
45487,8.59E-03,1.23E-02
45488,9.03E-03,1.22E-02
45489,9.51E-03,1.22E-02
45490,9.96E-03,1.21E-02
45491,1.05E-02,1.21E-02
45492,1.07E-02,1.20E-02
45493,1.10E-02,1.20E-02
45494,1.10E-02,1.19E-02
45495,1.07E-02,1.19E-02
45496,1.06E-02,1.18E-02
45497,1.06E-02,1.17E-02
45498,8.17E-03,1.18E-02
45499,6.88E-03,1.17E-02
45500,5.61E-03,9.42E-03
45501,6.56E-03,9.56E-03
45502,7.02E-03,1.11E-02
45503,8.10E-03,1.45E-02
45504,8.10E-03,1.49E-02
45505,6.85E-03,2.22E-02
45506,7.44E-03,2.18E-02
45507,8.10E-03,1.38E-02
45508,8.10E-03,1.16E-02
45509,8.10E-03,1.44E-02
45510,8.10E-03,1.49E-02
45511,8.10E-03,1.39E-02
45512,8.10E-03,1.43E-02
45513,8.10E-03,1.48E-02
45514,8.10E-03,1.40E-02
45515,7.65E-03,9.20E-03
45516,8.10E-03,1.19E-02
45517,8.10E-03,1.18E-02
45518,8.10E-03,1.21E-02
45519,8.10E-03,1.42E-02
45520,8.00E-03,1.48E-02
45521,8.10E-03,1.41E-02
45522,8.10E-03,1.22E-02
45523,8.10E-03,1.40E-02
45524,7.61E-03,1.48E-02
45525,8.10E-03,1.42E-02
45526,8.10E-03,1.39E-02
45527,7.50E-03,1.47E-02
45528,8.10E-03,1.43E-02
45529,8.10E-03,1.38E-02
45530,7.39E-03,1.47E-02
45531,8.10E-03,1.43E-02
45532,8.10E-03,1.28E-02
45533,8.10E-03,1.27E-02
45534,8.10E-03,1.25E-02
45535,8.10E-03,1.24E-02
45536,8.10E-03,1.37E-02
45537,7.45E-03,1.47E-02
45538,8.24E-03,1.44E-02
45539,8.10E-03,1.30E-02
45540,8.10E-03,1.35E-02
45541,7.89E-03,1.46E-02
45542,8.37E-03,1.45E-02
45543,8.10E-03,1.31E-02
45544,8.10E-03,1.34E-02
45545,8.48E-03,1.46E-02
45546,8.45E-03,1.45E-02
45547,8.10E-03,1.33E-02
45548,6.43E-03,1.04E-02
45549,9.13E-03,1.94E-02
45550,5.06E-03,1.02E-02
45551,5.42E-03,1.05E-02
45552,8.10E-03,1.49E-02
45553,8.10E-03,1.49E-02
45554,7.99E-03,1.96E-02
45555,9.02E-03,1.93E-02
45556,9.48E-03,1.88E-02
45557,8.60E-03,1.84E-02
45558,8.39E-03,1.80E-02
45559,8.29E-03,1.76E-02
45560,8.13E-03,1.72E-02
45561,8.01E-03,1.68E-02
45562,8.01E-03,1.65E-02
45563,8.02E-03,1.61E-02
45564,7.90E-03,1.57E-02
45565,7.79E-03,1.54E-02
45566,7.69E-03,1.50E-02
45567,7.50E-03,1.47E-02
45568,7.33E-03,1.43E-02
45569,8.83E-03,1.28E-02
45570,8.70E-03,1.28E-02
45571,7.76E-03,1.36E-02
45572,8.13E-03,1.37E-02
45573,8.09E-03,1.39E-02
45574,7.14E-03,1.41E-02
45575,5.96E-03,1.44E-02
45576,5.63E-03,1.46E-02
45577,5.20E-03,1.48E-02
45578,4.64E-03,1.50E-02
45579,4.38E-03,1.52E-02
45580,4.59E-03,1.54E-02
45581,5.02E-03,1.56E-02
45582,5.32E-03,1.58E-02
45583,5.49E-03,1.61E-02
45584,5.64E-03,1.64E-02
45585,5.80E-03,1.67E-02
45586,5.95E-03,1.70E-02
45587,6.01E-03,1.73E-02
45588,6.00E-03,1.77E-02
45589,5.98E-03,1.80E-02
45590,5.91E-03,1.84E-02
45591,5.82E-03,1.88E-02
45592,5.68E-03,1.92E-02
45593,5.55E-03,1.95E-02
45594,5.31E-03,1.99E-02
45595,5.17E-03,2.03E-02
45596,5.01E-03,2.07E-02
45597,4.73E-03,2.11E-02
45598,4.32E-03,2.14E-02
45599,3.92E-03,2.18E-02
45600,3.46E-03,2.21E-02
45601,3.34E-03,2.24E-02
45602,3.06E-03,2.26E-02
45603,2.64E-03,2.26E-02
45604,2.61E-03,2.27E-02
45605,2.79E-03,2.30E-02
45606,2.84E-03,2.33E-02
45607,2.89E-03,2.35E-02
45608,3.38E-03,2.37E-02
45609,4.57E-03,2.41E-02
45610,4.38E-03,2.45E-02
45611,4.68E-03,2.48E-02
45612,4.95E-03,2.51E-02
45613,5.10E-03,2.54E-02
45614,5.29E-03,2.57E-02
45615,5.57E-03,2.60E-02
45616,5.70E-03,2.64E-02
45617,5.78E-03,2.68E-02
45618,5.86E-03,2.71E-02
45619,5.87E-03,2.75E-02
45620,5.82E-03,2.78E-02
45621,5.76E-03,2.82E-02
45622,5.70E-03,2.85E-02
45623,5.64E-03,2.88E-02
45624,5.41E-03,2.90E-02
45625,4.83E-03,2.93E-02
45626,4.33E-03,2.95E-02
45627,4.11E-03,2.97E-02
45628,3.87E-03,2.99E-02
45629,3.82E-03,3.01E-02
45630,4.28E-03,3.03E-02
45631,4.89E-03,3.04E-02
45632,5.33E-03,3.06E-02
45633,5.68E-03,3.08E-02
45634,6.09E-03,3.09E-02
45635,6.60E-03,3.11E-02
45636,7.12E-03,3.12E-02
45637,7.46E-03,3.13E-02
45638,7.64E-03,3.15E-02
45639,7.88E-03,3.16E-02
45640,8.00E-03,3.17E-02
45641,8.18E-03,3.18E-02
45642,8.29E-03,3.18E-02
45643,8.48E-03,3.19E-02
45644,8.73E-03,3.19E-02
45645,9.55E-03,3.19E-02
45646,7.28E-03,9.82E-03
45647,8.08E-03,9.90E-03
45648,9.00E-03,9.93E-03
45649,9.34E-03,9.97E-03
45650,9.64E-03,1.00E-02
45651,9.72E-03,1.00E-02
45652,9.49E-03,1.01E-02
45653,9.18E-03,1.01E-02
45654,9.00E-03,1.02E-02
45655,8.63E-03,1.02E-02
45656,8.27E-03,1.03E-02
45657,8.12E-03,1.03E-02
45658,8.12E-03,1.04E-02
45659,7.80E-03,1.04E-02
45660,7.17E-03,1.05E-02
45661,6.70E-03,1.05E-02
45662,6.64E-03,1.05E-02
45663,6.69E-03,1.06E-02
45664,6.63E-03,1.06E-02
45665,6.63E-03,1.06E-02
45666,6.67E-03,1.07E-02
45667,6.71E-03,1.07E-02
45668,6.73E-03,1.07E-02
45669,6.74E-03,1.07E-02
45670,6.83E-03,1.07E-02
45671,6.89E-03,1.08E-02
45672,7.01E-03,1.08E-02
45673,7.30E-03,1.08E-02
45674,7.53E-03,1.08E-02
45675,8.01E-03,1.08E-02
45676,8.04E-03,1.09E-02
45677,8.10E-03,1.09E-02
45678,8.48E-03,1.09E-02
45679,8.96E-03,1.09E-02
45680,9.67E-03,1.09E-02
45681,8.09E-03,1.34E-02
45682,8.09E-03,1.32E-02
45683,8.09E-03,1.30E-02
45684,8.09E-03,1.28E-02
45685,8.09E-03,1.27E-02
45686,8.09E-03,1.25E-02
45687,8.09E-03,1.23E-02
45688,8.09E-03,1.21E-02
45689,8.09E-03,1.19E-02
45690,8.09E-03,1.17E-02
45691,7.99E-03,1.15E-02
45692,7.88E-03,1.13E-02
45693,7.75E-03,1.11E-02
45694,7.68E-03,1.09E-02
45695,7.62E-03,1.05E-02
45696,7.64E-03,1.07E-02
45697,8.15E-03,2.37E-02
45698,8.32E-03,2.41E-02
45699,9.04E-03,2.45E-02
45700,9.07E-03,2.49E-02
45701,8.79E-03,2.52E-02
45702,8.26E-03,2.56E-02
45703,9.04E-03,9.06E-03
45704,8.19E-03,9.13E-03
45705,6.90E-03,3.20E-02
45706,8.30E-03,2.90E-02
45707,7.68E-03,2.92E-02
45708,5.45E-03,1.88E-02
45709,8.22E-03,1.88E-02
45710,9.48E-03,1.87E-02
45711,1.01E-02,1.87E-02
45712,1.04E-02,1.87E-02
45713,1.03E-02,1.86E-02
45714,1.02E-02,1.86E-02
45715,1.02E-02,1.85E-02
45716,1.00E-02,1.85E-02
45717,9.58E-03,1.85E-02
45718,9.53E-03,1.84E-02
45719,9.28E-03,1.84E-02
45720,9.21E-03,1.84E-02
45721,8.93E-03,1.84E-02
45722,8.82E-03,1.84E-02
45723,8.74E-03,1.84E-02
45724,8.72E-03,1.84E-02
45725,8.72E-03,1.84E-02
45726,8.71E-03,1.84E-02
45727,8.67E-03,1.84E-02
45728,8.55E-03,1.84E-02
45729,8.42E-03,1.84E-02
45730,8.33E-03,1.84E-02
45731,8.27E-03,1.84E-02
45732,8.22E-03,1.84E-02
45733,8.19E-03,1.84E-02
45734,8.18E-03,1.84E-02
45735,8.18E-03,1.84E-02
45736,8.17E-03,1.84E-02
45737,8.16E-03,1.84E-02
45738,8.14E-03,1.84E-02
45739,8.13E-03,1.84E-02
45740,8.09E-03,1.84E-02
45741,8.07E-03,1.83E-02
45742,8.05E-03,1.83E-02
45743,8.03E-03,1.83E-02
45744,8.01E-03,1.83E-02
45745,8.00E-03,1.83E-02
45746,8.01E-03,1.83E-02
45747,8.04E-03,1.82E-02
45748,8.07E-03,1.82E-02
45749,8.10E-03,1.82E-02
45750,8.14E-03,1.82E-02
45751,8.16E-03,1.81E-02
45752,8.20E-03,1.81E-02
45753,8.23E-03,1.80E-02
45754,8.29E-03,1.80E-02
45755,8.37E-03,1.79E-02
45756,8.44E-03,1.79E-02
45757,8.50E-03,1.79E-02
45758,8.53E-03,1.78E-02
45759,8.56E-03,1.77E-02
45760,8.60E-03,1.77E-02
45761,8.63E-03,1.76E-02
45762,8.67E-03,1.76E-02
45763,8.71E-03,1.75E-02
45764,8.76E-03,1.75E-02
45765,8.81E-03,1.74E-02
45766,8.88E-03,1.73E-02
45767,8.97E-03,1.73E-02
45768,9.07E-03,1.72E-02
45769,9.17E-03,1.72E-02
45770,9.23E-03,1.71E-02
45771,9.25E-03,1.70E-02
45772,9.23E-03,1.70E-02
45773,9.18E-03,1.69E-02
45774,9.14E-03,1.69E-02
45775,9.11E-03,1.68E-02
45776,9.08E-03,1.68E-02
45777,9.03E-03,1.67E-02
45778,9.00E-03,1.67E-02
45779,9.00E-03,1.67E-02
45780,9.01E-03,1.66E-02
45781,8.90E-03,1.66E-02
45782,8.66E-03,1.66E-02
45783,8.39E-03,1.66E-02
45784,8.12E-03,1.65E-02
45785,7.94E-03,1.65E-02
45786,7.94E-03,1.65E-02
45787,8.00E-03,1.65E-02
45788,7.95E-03,1.65E-02
45789,7.83E-03,1.65E-02
45790,7.72E-03,1.65E-02
45791,7.62E-03,1.64E-02
45792,7.53E-03,1.64E-02
45793,7.41E-03,1.64E-02
45794,7.26E-03,1.64E-02
45795,7.09E-03,1.64E-02
45796,6.95E-03,1.63E-02
45797,6.85E-03,1.63E-02
45798,6.79E-03,1.63E-02
45799,6.72E-03,1.62E-02
45800,6.67E-03,1.62E-02
45801,6.64E-03,1.62E-02
45802,6.61E-03,1.61E-02
45803,6.56E-03,1.61E-02
45804,6.49E-03,1.60E-02
45805,6.41E-03,1.60E-02
45806,6.35E-03,1.59E-02
45807,6.35E-03,1.58E-02
45808,6.39E-03,1.58E-02
45809,6.43E-03,1.57E-02
45810,6.47E-03,1.56E-02
45811,6.52E-03,1.56E-02
45812,6.56E-03,1.55E-02
45813,6.61E-03,1.54E-02
45814,6.66E-03,1.53E-02
45815,6.71E-03,1.52E-02
45816,6.74E-03,1.52E-02
45817,6.76E-03,1.51E-02
45818,6.78E-03,1.50E-02
45819,6.79E-03,1.49E-02
45820,6.81E-03,1.48E-02
45821,6.83E-03,1.47E-02
45822,6.83E-03,1.46E-02
45823,6.81E-03,1.45E-02
45824,6.78E-03,1.44E-02
45825,6.74E-03,1.43E-02
45826,6.70E-03,1.42E-02
45827,6.65E-03,1.41E-02
45828,6.60E-03,1.40E-02
45829,6.54E-03,1.39E-02
45830,6.44E-03,1.38E-02
45831,6.32E-03,1.38E-02
45832,6.19E-03,1.37E-02
45833,6.08E-03,1.36E-02
45834,5.98E-03,1.35E-02
45835,5.94E-03,1.34E-02
45836,5.99E-03,1.33E-02
45837,6.05E-03,1.33E-02
45838,5.99E-03,1.32E-02
45839,5.97E-03,1.31E-02
45840,6.73E-03,1.30E-02
45841,8.81E-03,1.29E-02
45842,8.93E-03,1.28E-02
45843,9.08E-03,1.27E-02
45844,9.54E-03,1.25E-02
45845,5.72E-03,1.03E-02
45846,8.64E-03,8.57E-03
45847,7.19E-03,2.90E-02
45848,7.38E-03,2.93E-02
45849,7.69E-03,2.89E-02
45850,7.57E-03,1.22E-02
45851,7.95E-03,1.18E-02
45852,1.10E-02,1.15E-02
45853,1.09E-02,1.13E-02
45854,1.13E-02,1.12E-02
45855,1.13E-02,1.10E-02
45856,1.14E-02,1.08E-02
45857,1.13E-02,1.07E-02
45858,1.08E-02,1.05E-02
45859,1.08E-02,1.03E-02
45860,1.05E-02,1.02E-02
45861,9.41E-03,1.00E-02
45862,7.69E-03,9.90E-03
45863,7.24E-03,9.80E-03
45864,7.04E-03,9.70E-03
45865,6.82E-03,9.59E-03
45866,6.80E-03,9.48E-03
45867,6.94E-03,9.37E-03
45868,8.45E-03,1.90E-02
45869,7.89E-03,1.90E-02
45870,7.97E-03,1.89E-02
45871,8.17E-03,1.88E-02
45872,8.91E-03,1.87E-02
45873,9.22E-03,1.87E-02
45874,9.33E-03,1.86E-02
45875,8.00E-03,1.85E-02
45876,8.02E-03,1.85E-02
45877,7.47E-03,1.84E-02
45878,7.33E-03,1.84E-02
45879,6.96E-03,1.83E-02
45880,6.74E-03,1.83E-02
45881,6.72E-03,1.82E-02
45882,6.66E-03,1.81E-02
45883,6.52E-03,1.81E-02
45884,6.52E-03,1.81E-02
45885,5.41E-03,9.95E-03
45886,3.93E-03,9.95E-03
45887,4.31E-03,9.95E-03
45888,4.97E-03,9.91E-03
45889,5.54E-03,9.86E-03
45890,5.67E-03,9.82E-03
45891,5.72E-03,9.78E-03
45892,6.50E-03,9.73E-03
45893,6.60E-03,9.67E-03
45894,6.86E-03,9.61E-03
45895,6.97E-03,9.54E-03
45896,7.06E-03,9.46E-03
45897,7.16E-03,9.39E-03
45898,7.26E-03,9.31E-03
45899,7.35E-03,9.22E-03
45900,7.45E-03,9.14E-03
45901,7.53E-03,9.05E-03
45902,7.59E-03,8.96E-03
45903,7.61E-03,8.87E-03
45904,7.63E-03,8.78E-03
45905,7.66E-03,8.68E-03
45906,7.68E-03,8.59E-03
45907,7.70E-03,8.50E-03
45908,7.72E-03,8.40E-03
45909,7.74E-03,8.31E-03
45910,7.77E-03,8.22E-03
45911,7.79E-03,8.14E-03
45912,7.81E-03,8.05E-03
45913,7.82E-03,7.97E-03
45914,7.84E-03,7.90E-03
45915,7.85E-03,7.82E-03
45916,7.87E-03,7.76E-03
45917,7.88E-03,7.70E-03
45918,7.89E-03,7.65E-03
45919,7.91E-03,7.61E-03
45920,7.92E-03,7.57E-03
45921,7.93E-03,7.55E-03
45922,7.94E-03,7.53E-03
45923,7.95E-03,7.52E-03
45924,7.96E-03,7.53E-03
45925,7.96E-03,7.54E-03
45926,7.96E-03,7.57E-03
45927,7.96E-03,7.60E-03
45928,7.96E-03,7.65E-03
45929,7.96E-03,7.71E-03
45930,7.96E-03,7.77E-03
45931,7.96E-03,7.85E-03
45932,7.96E-03,7.94E-03
45933,7.95E-03,8.03E-03
45934,7.93E-03,8.13E-03
45935,7.92E-03,8.24E-03
45936,7.90E-03,8.36E-03
45937,7.88E-03,8.49E-03
45938,7.87E-03,8.62E-03
45939,7.85E-03,8.75E-03
45940,7.84E-03,8.89E-03
45941,7.82E-03,9.04E-03
45942,7.80E-03,9.19E-03
45943,7.78E-03,9.34E-03
45944,7.75E-03,9.49E-03
45945,7.70E-03,9.65E-03
45946,7.66E-03,9.80E-03
45947,7.62E-03,9.96E-03
45948,7.58E-03,1.01E-02
45949,7.54E-03,1.03E-02
45950,7.50E-03,1.04E-02
45951,7.46E-03,1.06E-02
45952,7.43E-03,1.08E-02
45953,7.40E-03,1.09E-02
45954,7.38E-03,1.11E-02
45955,7.35E-03,1.12E-02
45956,7.32E-03,1.14E-02
45957,7.29E-03,1.16E-02
45958,7.26E-03,1.17E-02
45959,7.22E-03,1.19E-02
45960,7.18E-03,1.20E-02
45961,7.14E-03,1.22E-02
45962,7.10E-03,1.23E-02
45963,7.05E-03,1.25E-02
45964,6.99E-03,1.26E-02
45965,6.91E-03,1.28E-02
45966,6.83E-03,1.29E-02
45967,6.75E-03,1.30E-02
45968,6.67E-03,1.32E-02
45969,6.63E-03,1.33E-02
45970,6.62E-03,1.35E-02
45971,6.61E-03,1.36E-02
45972,6.62E-03,1.37E-02
45973,6.65E-03,1.39E-02
45974,6.68E-03,1.40E-02
45975,6.71E-03,1.41E-02
45976,6.73E-03,1.43E-02
45977,6.75E-03,1.44E-02
45978,6.77E-03,1.45E-02
45979,6.79E-03,1.47E-02
45980,6.81E-03,1.48E-02
45981,6.83E-03,1.49E-02
45982,6.85E-03,1.51E-02
45983,6.87E-03,1.52E-02
45984,6.89E-03,1.53E-02
45985,6.91E-03,1.55E-02
45986,6.93E-03,1.56E-02
45987,6.95E-03,1.57E-02
45988,6.97E-03,1.59E-02
45989,6.99E-03,1.60E-02
45990,6.99E-03,1.62E-02
45991,6.99E-03,1.63E-02
45992,7.00E-03,1.64E-02
45993,7.03E-03,1.66E-02
45994,7.09E-03,1.67E-02
45995,7.16E-03,1.69E-02
45996,7.18E-03,1.70E-02
45997,7.18E-03,1.71E-02
45998,7.26E-03,1.73E-02
45999,7.27E-03,1.74E-02
46000,7.23E-03,1.76E-02
46001,7.47E-03,1.77E-02
46002,7.20E-03,1.79E-02
46003,7.30E-03,1.80E-02
46004,7.27E-03,1.06E-02
46005,8.25E-03,3.13E-02
46006,8.39E-03,3.15E-02
46007,8.09E-03,1.13E-02
46008,8.09E-03,1.12E-02
46009,8.09E-03,1.10E-02
46010,8.09E-03,1.09E-02
46011,8.09E-03,1.07E-02
46012,8.09E-03,1.06E-02
46013,8.09E-03,1.04E-02
46014,8.09E-03,1.03E-02
46015,8.09E-03,1.01E-02
46016,8.09E-03,9.97E-03
46017,8.09E-03,9.81E-03
46018,8.09E-03,9.65E-03
46019,8.09E-03,9.49E-03
46020,8.09E-03,9.33E-03
46021,8.09E-03,9.17E-03
46022,8.09E-03,9.01E-03
46023,8.09E-03,8.84E-03
46024,8.09E-03,8.68E-03
46025,8.09E-03,8.51E-03
46026,8.09E-03,8.34E-03
46027,8.09E-03,8.18E-03
46028,8.09E-03,8.01E-03
46029,8.09E-03,7.84E-03
46030,8.09E-03,7.67E-03
46031,8.09E-03,7.51E-03
46032,8.09E-03,7.34E-03
46033,8.09E-03,7.17E-03
46034,8.09E-03,7.01E-03
46035,8.09E-03,6.85E-03
46036,8.09E-03,6.69E-03
46037,8.09E-03,6.53E-03
46038,8.09E-03,6.37E-03
46039,8.09E-03,6.22E-03
46040,8.09E-03,6.07E-03
46041,8.09E-03,5.92E-03
46042,8.09E-03,5.78E-03
46043,8.09E-03,5.64E-03
46044,8.09E-03,5.51E-03
46045,8.09E-03,5.39E-03
46046,8.09E-03,5.27E-03
46047,8.09E-03,5.16E-03
46048,8.09E-03,5.06E-03
46049,8.09E-03,4.97E-03
46050,8.09E-03,4.89E-03
46051,8.09E-03,4.82E-03
46052,8.09E-03,4.76E-03
46053,8.09E-03,4.71E-03
46054,8.09E-03,4.68E-03
46055,8.09E-03,4.66E-03
46056,8.09E-03,4.65E-03
46057,8.09E-03,4.66E-03
46058,8.09E-03,4.68E-03
46059,8.09E-03,4.72E-03
46060,8.09E-03,4.77E-03
46061,8.09E-03,4.83E-03
46062,8.09E-03,4.91E-03
46063,8.09E-03,5.00E-03
46064,8.09E-03,5.10E-03
46065,8.09E-03,5.22E-03
46066,8.09E-03,5.35E-03
46067,8.09E-03,5.48E-03
46068,8.09E-03,5.63E-03
46069,8.09E-03,5.79E-03
46070,8.09E-03,5.95E-03
46071,8.09E-03,6.12E-03
46072,8.09E-03,6.30E-03
46073,8.09E-03,6.49E-03
46074,8.09E-03,6.69E-03
46075,8.09E-03,6.89E-03
46076,8.09E-03,7.09E-03
46077,8.09E-03,7.31E-03
46078,8.09E-03,7.52E-03
46079,8.09E-03,7.74E-03
46080,8.09E-03,7.97E-03
46081,8.09E-03,8.20E-03
46082,8.09E-03,8.43E-03
46083,8.09E-03,8.67E-03
46084,8.09E-03,8.91E-03
46085,8.09E-03,9.16E-03
46086,8.09E-03,9.40E-03
46087,8.09E-03,9.65E-03
46088,8.12E-03,9.91E-03
46089,8.27E-03,1.02E-02
46090,8.20E-03,1.04E-02
46091,7.98E-03,1.06E-02
46092,6.90E-03,1.12E-02
46093,7.40E-03,1.12E-02
46094,8.32E-03,1.09E-02
46095,8.71E-03,3.18E-02
46096,6.27E-03,1.22E-02
46097,4.94E-03,1.22E-02
46098,9.74E-03,9.37E-03
46099,7.44E-03,1.15E-02
46100,6.53E-03,1.05E-02
46101,5.00E-03,1.05E-02
46102,4.80E-03,1.06E-02
46103,7.95E-03,1.94E-02
46104,6.75E-03,9.08E-03
46105,6.72E-03,8.89E-03
46106,8.03E-03,8.67E-03
46107,8.00E-03,8.44E-03
46108,8.09E-03,8.22E-03
46109,8.09E-03,7.99E-03
46110,8.09E-03,7.77E-03
46111,8.09E-03,7.55E-03
46112,8.09E-03,7.33E-03
46113,8.09E-03,7.11E-03
46114,8.09E-03,6.89E-03
46115,8.09E-03,6.67E-03
46116,8.09E-03,6.46E-03
46117,8.09E-03,6.25E-03
46118,8.09E-03,6.05E-03
46119,8.09E-03,5.84E-03
46120,8.09E-03,5.65E-03
46121,8.09E-03,5.45E-03
46122,8.09E-03,5.27E-03
46123,8.09E-03,5.09E-03
46124,8.09E-03,4.92E-03
46125,8.09E-03,4.75E-03
46126,8.09E-03,4.60E-03
46127,8.09E-03,4.46E-03
46128,8.09E-03,4.32E-03
46129,8.09E-03,4.20E-03
46130,8.09E-03,4.09E-03
46131,8.09E-03,4.00E-03
46132,8.09E-03,3.92E-03
46133,8.09E-03,3.86E-03
46134,8.09E-03,3.81E-03
46135,8.09E-03,3.78E-03
46136,8.09E-03,3.76E-03
46137,8.09E-03,3.76E-03
46138,8.09E-03,3.78E-03
46139,8.09E-03,3.82E-03
46140,8.09E-03,3.86E-03
46141,8.09E-03,3.93E-03
46142,8.09E-03,4.00E-03
46143,8.09E-03,4.09E-03
46144,8.09E-03,4.19E-03
46145,8.09E-03,4.30E-03
46146,8.09E-03,4.41E-03
46147,8.09E-03,4.54E-03
46148,8.09E-03,4.67E-03
46149,8.09E-03,4.80E-03
46150,8.09E-03,4.95E-03
46151,8.09E-03,5.09E-03
46152,8.09E-03,5.24E-03
46153,8.09E-03,5.39E-03
46154,8.09E-03,5.55E-03
46155,8.09E-03,5.71E-03
46156,8.09E-03,5.86E-03
46157,8.09E-03,6.02E-03
46158,8.09E-03,6.18E-03
46159,8.09E-03,6.34E-03
46160,8.09E-03,6.50E-03
46161,8.09E-03,6.66E-03
46162,8.09E-03,6.82E-03
46163,8.09E-03,6.98E-03
46164,8.09E-03,7.14E-03
46165,8.09E-03,7.30E-03
46166,8.09E-03,7.46E-03
46167,8.09E-03,7.61E-03
46168,8.09E-03,7.77E-03
46169,8.09E-03,7.92E-03
46170,8.09E-03,8.07E-03
46171,8.09E-03,8.22E-03
46172,8.02E-03,8.37E-03
46173,8.01E-03,8.51E-03
46174,7.93E-03,8.66E-03
46175,7.96E-03,8.80E-03
46176,8.05E-03,8.94E-03
46177,8.19E-03,9.08E-03
46178,8.24E-03,9.22E-03
46179,8.25E-03,9.35E-03
46180,8.17E-03,9.48E-03
46181,8.00E-03,9.61E-03
46182,7.91E-03,9.76E-03
46183,7.60E-03,9.89E-03
46184,6.95E-03,1.00E-02
46185,8.08E-03,1.95E-02
46186,8.37E-03,7.43E-03
46187,8.24E-03,7.15E-03
46188,5.88E-03,2.66E-02
46189,6.34E-03,2.64E-02
46190,8.23E-03,1.29E-02
46191,7.14E-03,1.32E-02
46192,8.10E-03,1.48E-02
46193,8.10E-03,1.49E-02
46194,7.43E-03,2.01E-02
46195,7.08E-03,1.39E-02
46196,8.74E-03,1.31E-02
46197,5.52E-03,1.01E-02
46198,6.75E-03,1.01E-02
46199,7.47E-03,1.01E-02
46200,7.36E-03,1.12E-02
46201,8.10E-03,1.35E-02
46202,7.86E-03,1.02E-02
46203,7.99E-03,2.34E-02
46204,6.85E-03,2.61E-02
46205,8.04E-03,3.13E-02
46206,8.16E-03,3.17E-02
46207,7.25E-03,3.21E-02
46208,7.43E-03,3.23E-02
46209,7.90E-03,3.25E-02
46210,4.02E-03,4.53E-03
46211,3.70E-03,4.55E-03
46212,3.49E-03,4.56E-03
46213,3.39E-03,4.56E-03
46214,3.68E-03,4.57E-03
46215,3.86E-03,4.59E-03
46216,3.98E-03,4.61E-03
46217,4.61E-03,4.63E-03
46218,4.71E-03,4.66E-03
46219,4.76E-03,4.69E-03
46220,5.18E-03,4.73E-03
46221,5.44E-03,4.77E-03
46222,5.53E-03,4.81E-03
46223,5.72E-03,4.86E-03
46224,5.86E-03,4.91E-03
46225,5.99E-03,4.96E-03
46226,6.48E-03,5.01E-03
46227,7.37E-03,5.08E-03
46228,8.07E-03,5.15E-03
46229,8.63E-03,5.24E-03
46230,9.37E-03,5.33E-03
46231,1.01E-02,5.42E-03
46232,1.09E-02,5.52E-03
46233,1.09E-02,5.63E-03
46234,7.14E-03,5.71E-03
46235,6.88E-03,5.76E-03
46236,6.60E-03,5.82E-03
46237,6.34E-03,5.89E-03
46238,5.81E-03,5.94E-03
46239,4.98E-03,6.01E-03
46240,4.60E-03,6.12E-03
46241,4.78E-03,6.22E-03
46242,5.73E-03,6.34E-03
46243,6.13E-03,6.46E-03
46244,6.51E-03,6.58E-03
46245,7.79E-03,6.68E-03
46246,7.48E-03,6.81E-03
46247,7.83E-03,6.90E-03
46248,1.02E-02,8.84E-03
46249,9.17E-03,8.74E-03
46250,9.20E-03,8.65E-03
46251,9.42E-03,8.70E-03
46252,9.61E-03,8.62E-03
46253,1.04E-02,8.53E-03
46254,1.03E-02,8.43E-03
46255,1.02E-02,8.33E-03
46256,1.01E-02,8.23E-03
46257,8.94E-03,8.13E-03
46258,8.65E-03,8.04E-03
46259,8.47E-03,7.95E-03
46260,8.22E-03,7.86E-03
46261,7.87E-03,7.77E-03
46262,7.69E-03,7.69E-03
46263,7.48E-03,7.61E-03
46264,7.25E-03,7.53E-03
46265,7.08E-03,7.45E-03
46266,6.97E-03,7.38E-03
46267,6.86E-03,7.30E-03
46268,6.74E-03,7.23E-03
46269,6.63E-03,7.16E-03
46270,6.51E-03,7.09E-03
46271,6.34E-03,7.03E-03
46272,6.17E-03,6.96E-03
46273,5.99E-03,6.90E-03
46274,5.81E-03,6.85E-03
46275,5.68E-03,6.79E-03
46276,5.65E-03,6.74E-03
46277,5.64E-03,6.69E-03
46278,5.63E-03,6.63E-03
46279,5.63E-03,6.58E-03
46280,5.62E-03,6.54E-03
46281,5.61E-03,6.49E-03
46282,5.59E-03,6.44E-03
46283,5.56E-03,6.40E-03
46284,5.53E-03,6.36E-03
46285,5.50E-03,6.31E-03
46286,5.47E-03,6.27E-03
46287,5.44E-03,6.23E-03
46288,5.43E-03,6.20E-03
46289,5.45E-03,6.16E-03
46290,5.49E-03,6.12E-03
46291,5.53E-03,6.09E-03
46292,5.58E-03,6.06E-03
46293,5.66E-03,6.02E-03
46294,5.74E-03,5.99E-03
46295,5.82E-03,5.96E-03
46296,5.95E-03,5.93E-03
46297,6.10E-03,5.90E-03
46298,6.25E-03,5.87E-03
46299,6.39E-03,5.84E-03
46300,6.50E-03,5.80E-03
46301,6.57E-03,5.78E-03
46302,6.64E-03,5.75E-03
46303,6.72E-03,5.72E-03
46304,6.78E-03,5.69E-03
46305,6.85E-03,5.66E-03
46306,6.91E-03,5.63E-03
46307,6.97E-03,5.60E-03
46308,7.04E-03,5.58E-03
46309,7.10E-03,5.55E-03
46310,7.16E-03,5.52E-03
46311,7.22E-03,5.49E-03
46312,7.26E-03,5.47E-03
46313,7.29E-03,5.44E-03
46314,7.32E-03,5.41E-03
46315,7.35E-03,5.39E-03
46316,7.38E-03,5.36E-03
46317,7.41E-03,5.33E-03
46318,7.44E-03,5.30E-03
46319,7.47E-03,5.28E-03
46320,7.50E-03,5.25E-03
46321,7.56E-03,5.22E-03
46322,7.62E-03,5.19E-03
46323,7.68E-03,5.16E-03
46324,7.73E-03,5.13E-03
46325,7.76E-03,5.10E-03
46326,7.79E-03,5.07E-03
46327,7.82E-03,5.04E-03
46328,7.84E-03,5.01E-03
46329,7.84E-03,4.98E-03
46330,7.79E-03,4.94E-03
46331,7.70E-03,4.91E-03
46332,7.39E-03,4.88E-03
46333,7.21E-03,4.84E-03
46334,7.10E-03,4.81E-03
46335,6.94E-03,4.78E-03
46336,6.64E-03,4.75E-03
46337,6.43E-03,4.71E-03
46338,6.25E-03,4.68E-03
46339,5.87E-03,4.65E-03
46340,5.71E-03,4.62E-03
46341,5.53E-03,4.59E-03
46342,5.27E-03,4.55E-03
46343,4.80E-03,4.51E-03
46344,6.64E-03,1.92E-02
46345,6.76E-03,1.82E-02
46346,6.95E-03,2.91E-02
46347,7.12E-03,2.99E-02
46348,7.98E-03,1.12E-02
46349,7.51E-03,1.10E-02
46350,7.32E-03,1.14E-02
46351,6.32E-03,1.13E-02
46352,6.84E-03,1.89E-02
46353,8.81E-03,1.24E-02
46354,8.08E-03,1.00E-02
46355,5.73E-03,1.04E-02
46356,8.08E-03,2.88E-02
46357,1.02E-02,8.98E-03
46358,7.75E-03,2.95E-02
46359,9.29E-03,1.20E-02
46360,8.26E-03,7.87E-03
46361,9.32E-03,8.08E-03
46362,7.95E-03,1.08E-02
46363,6.38E-03,1.05E-02
46364,7.90E-03,1.95E-02
46365,9.52E-03,1.30E-02
46366,6.89E-03,9.25E-03
46367,1.05E-02,1.03E-02
46368,1.03E-02,1.02E-02
46369,1.04E-02,1.00E-02
46370,1.08E-02,9.91E-03
46371,1.07E-02,9.78E-03
46372,1.10E-02,9.66E-03
46373,1.10E-02,9.55E-03
46374,1.11E-02,9.44E-03
46375,1.09E-02,9.35E-03
46376,1.08E-02,9.27E-03
46377,1.06E-02,9.19E-03
46378,1.05E-02,9.12E-03
46379,1.04E-02,9.06E-03
46380,1.03E-02,9.01E-03
46381,1.02E-02,8.96E-03
46382,9.99E-03,8.92E-03
46383,9.78E-03,8.88E-03
46384,9.55E-03,8.85E-03
46385,9.35E-03,8.83E-03
46386,9.22E-03,8.81E-03
46387,9.12E-03,8.79E-03
46388,9.03E-03,8.78E-03
46389,8.95E-03,8.77E-03
46390,8.88E-03,8.77E-03
46391,8.82E-03,8.77E-03
46392,8.75E-03,8.77E-03
46393,8.68E-03,8.77E-03
46394,8.59E-03,8.78E-03
46395,8.50E-03,8.80E-03
46396,8.41E-03,8.81E-03
46397,8.31E-03,8.83E-03
46398,8.23E-03,8.85E-03
46399,8.18E-03,8.87E-03
46400,8.17E-03,8.90E-03
46401,8.13E-03,8.92E-03
46402,7.92E-03,8.95E-03
46403,7.74E-03,8.98E-03
46404,7.62E-03,9.02E-03
46405,7.54E-03,9.05E-03
46406,7.33E-03,9.09E-03
46407,7.17E-03,9.13E-03
46408,6.98E-03,9.16E-03
46409,6.88E-03,9.20E-03
46410,6.72E-03,9.24E-03
46411,6.49E-03,9.28E-03
46412,6.10E-03,9.32E-03
46413,5.93E-03,9.36E-03
46414,5.73E-03,9.40E-03
46415,5.51E-03,9.44E-03
46416,5.29E-03,9.48E-03
46417,5.14E-03,9.52E-03
46418,4.83E-03,9.55E-03
46419,4.50E-03,9.59E-03
46420,4.13E-03,9.62E-03
46421,3.65E-03,9.65E-03
46422,3.68E-03,9.67E-03
46423,3.73E-03,9.70E-03
46424,3.71E-03,9.72E-03
46425,3.77E-03,9.74E-03
46426,3.79E-03,9.76E-03
46427,3.73E-03,9.79E-03
46428,3.98E-03,9.80E-03
46429,4.35E-03,9.87E-03
46430,4.63E-03,9.92E-03
46431,5.42E-03,9.95E-03
46432,6.26E-03,1.00E-02
46433,6.02E-03,1.00E-02
46434,3.78E-03,1.01E-02
46435,5.04E-03,1.01E-02
46436,6.19E-03,1.01E-02
46437,6.28E-03,2.71E-02
46438,8.10E-03,1.47E-02
46439,8.10E-03,1.49E-02
46440,7.35E-03,1.35E-02
46441,6.83E-03,1.05E-02
46442,5.87E-03,1.02E-02
46443,5.52E-03,1.04E-02
46444,6.81E-03,1.13E-02
46445,5.35E-03,1.15E-02
46446,6.37E-03,1.15E-02
46447,7.04E-03,1.14E-02
46448,8.10E-03,1.36E-02
46449,8.68E-03,9.72E-03
46450,8.02E-03,9.94E-03
46451,1.00E-02,2.28E-02
46452,7.95E-03,2.31E-02
46453,1.03E-02,1.30E-02
46454,7.08E-03,3.05E-02
46455,5.93E-03,1.04E-02
46456,5.67E-03,1.02E-02
46457,5.96E-03,1.03E-02
46458,6.34E-03,1.03E-02
46459,6.13E-03,1.27E-02
46460,4.71E-03,1.27E-02
46461,4.74E-03,1.27E-02
46462,5.06E-03,1.27E-02
46463,5.17E-03,1.28E-02
46464,5.35E-03,1.28E-02
46465,5.49E-03,1.27E-02
46466,5.54E-03,1.27E-02
46467,5.60E-03,1.27E-02
46468,5.57E-03,1.27E-02
46469,5.37E-03,1.27E-02
46470,5.55E-03,1.27E-02
46471,6.36E-03,1.27E-02
46472,7.07E-03,1.27E-02
46473,7.91E-03,1.26E-02
46474,8.23E-03,1.26E-02
46475,8.56E-03,1.25E-02
46476,9.01E-03,1.25E-02
46477,9.34E-03,1.24E-02
46478,1.01E-02,1.23E-02
46479,1.05E-02,1.23E-02
46480,1.05E-02,1.22E-02
46481,1.09E-02,1.22E-02
46482,1.08E-02,1.21E-02
46483,1.05E-02,1.20E-02
46484,1.05E-02,1.20E-02
46485,9.79E-03,1.19E-02
46486,9.49E-03,1.19E-02
46487,1.01E-02,1.18E-02
46488,8.07E-03,1.16E-02
46489,8.59E-03,1.91E-02
46490,6.52E-03,9.43E-03
46491,6.29E-03,1.07E-02
46492,8.10E-03,1.45E-02
46493,8.10E-03,1.48E-02
46494,7.96E-03,2.13E-02
46495,8.08E-03,1.30E-02
46496,5.33E-03,1.08E-02
46497,8.10E-03,1.37E-02
46498,8.10E-03,1.15E-02
46499,7.38E-03,1.12E-02
46500,8.10E-03,1.44E-02
46501,8.10E-03,1.48E-02
46502,9.07E-03,2.22E-02
46503,7.94E-03,2.17E-02
46504,7.83E-03,2.82E-02
46505,7.80E-03,2.87E-02
46506,8.10E-03,1.38E-02
46507,8.10E-03,1.43E-02
46508,8.10E-03,1.48E-02
46509,8.10E-03,1.39E-02
46510,8.17E-03,9.07E-03
46511,8.45E-03,9.01E-03
46512,8.10E-03,1.18E-02
46513,8.10E-03,1.16E-02
46514,8.10E-03,1.19E-02
46515,8.10E-03,1.42E-02
46516,8.10E-03,1.48E-02
46517,8.10E-03,1.40E-02
46518,8.10E-03,1.21E-02
46519,8.10E-03,1.41E-02
46520,8.05E-03,1.47E-02
46521,8.10E-03,1.41E-02
46522,8.10E-03,1.40E-02
46523,7.57E-03,1.47E-02
46524,8.10E-03,1.41E-02
46525,8.10E-03,1.38E-02
46526,7.52E-03,1.47E-02
46527,8.10E-03,1.42E-02
46528,8.10E-03,1.27E-02
46529,8.10E-03,1.26E-02
46530,8.10E-03,1.24E-02
46531,8.10E-03,1.23E-02
46532,8.10E-03,1.37E-02
46533,7.50E-03,1.46E-02
46534,8.10E-03,1.43E-02
46535,8.10E-03,1.29E-02
46536,8.10E-03,1.36E-02
46537,7.56E-03,1.46E-02
46538,8.27E-03,1.43E-02
46539,8.10E-03,1.30E-02
46540,8.10E-03,1.34E-02
46541,7.71E-03,1.45E-02
46542,8.33E-03,1.44E-02
46543,8.10E-03,1.33E-02
46544,8.46E-03,1.45E-02
46545,8.10E-03,1.32E-02
46546,8.22E-03,3.15E-02
46547,6.69E-03,3.12E-02
46548,4.32E-03,3.15E-02
46549,6.04E-03,3.19E-02
46550,1.10E-02,1.19E-02
46551,8.10E-03,1.48E-02
46552,8.10E-03,1.48E-02
46553,8.96E-03,1.97E-02
46554,9.10E-03,1.93E-02
46555,9.15E-03,1.89E-02
46556,8.64E-03,1.84E-02
46557,8.46E-03,1.80E-02
46558,8.30E-03,1.76E-02
46559,8.11E-03,1.72E-02
46560,8.01E-03,1.68E-02
46561,8.01E-03,1.64E-02
46562,8.02E-03,1.61E-02
46563,7.94E-03,1.57E-02
46564,7.84E-03,1.53E-02
46565,7.70E-03,1.50E-02
46566,7.60E-03,1.46E-02
46567,7.37E-03,1.42E-02
46568,9.26E-03,1.31E-02
46569,9.49E-03,1.34E-02
46570,8.39E-03,1.37E-02
46571,8.31E-03,1.38E-02
46572,8.30E-03,1.40E-02
46573,6.86E-03,1.42E-02
46574,6.04E-03,1.44E-02
46575,5.72E-03,1.46E-02
46576,5.31E-03,1.48E-02
46577,4.76E-03,1.50E-02
46578,4.52E-03,1.52E-02
46579,4.72E-03,1.54E-02
46580,5.14E-03,1.56E-02
46581,5.43E-03,1.59E-02
46582,5.59E-03,1.61E-02
46583,5.73E-03,1.64E-02
46584,5.89E-03,1.67E-02
46585,6.03E-03,1.70E-02
46586,6.09E-03,1.73E-02
46587,6.08E-03,1.77E-02
46588,6.06E-03,1.81E-02
46589,5.97E-03,1.85E-02
46590,5.88E-03,1.88E-02
46591,5.75E-03,1.92E-02
46592,5.59E-03,1.96E-02
46593,5.49E-03,2.00E-02
46594,5.29E-03,2.04E-02
46595,5.07E-03,2.08E-02
46596,4.91E-03,2.12E-02
46597,4.46E-03,2.16E-02
46598,4.04E-03,2.19E-02
46599,3.60E-03,2.22E-02
46600,3.34E-03,2.24E-02
46601,2.98E-03,2.26E-02
46602,2.66E-03,2.29E-02
46603,2.59E-03,2.32E-02
46604,2.63E-03,2.34E-02
46605,2.91E-03,2.36E-02
46606,2.92E-03,2.38E-02
46607,3.03E-03,2.39E-02
46608,4.04E-03,2.42E-02
46609,4.30E-03,2.46E-02
46610,4.69E-03,2.49E-02
46611,4.77E-03,2.53E-02
46612,4.97E-03,2.56E-02
46613,5.15E-03,2.59E-02
46614,5.40E-03,2.62E-02
46615,5.59E-03,2.66E-02
46616,5.82E-03,2.69E-02
46617,5.82E-03,2.73E-02
46618,5.94E-03,2.77E-02
46619,5.95E-03,2.81E-02
46620,5.90E-03,2.84E-02
46621,5.85E-03,2.88E-02
46622,5.79E-03,2.91E-02
46623,5.74E-03,2.94E-02
46624,5.51E-03,2.97E-02
46625,4.95E-03,2.99E-02
46626,4.47E-03,3.01E-02
46627,4.26E-03,3.04E-02
46628,4.02E-03,3.06E-02
46629,3.98E-03,3.08E-02
46630,4.42E-03,3.10E-02
46631,5.01E-03,3.11E-02
46632,5.44E-03,3.13E-02
46633,5.77E-03,3.15E-02
46634,6.16E-03,3.16E-02
46635,6.65E-03,3.18E-02
46636,7.16E-03,3.19E-02
46637,7.48E-03,3.21E-02
46638,7.65E-03,3.22E-02
46639,7.89E-03,3.23E-02
46640,7.97E-03,3.24E-02
46641,8.13E-03,3.24E-02
46642,8.27E-03,3.25E-02
46643,8.51E-03,3.25E-02
46644,8.77E-03,3.26E-02
46645,8.35E-03,3.26E-02
46646,7.56E-03,1.01E-02
46647,9.22E-03,1.02E-02
46648,9.38E-03,1.02E-02
46649,9.57E-03,1.03E-02
46650,9.72E-03,1.03E-02
46651,9.71E-03,1.03E-02
46652,9.44E-03,1.04E-02
46653,9.19E-03,1.04E-02
46654,8.92E-03,1.05E-02
46655,8.66E-03,1.05E-02
46656,8.26E-03,1.06E-02
46657,8.11E-03,1.06E-02
46658,8.12E-03,1.07E-02
46659,7.81E-03,1.07E-02
46660,7.21E-03,1.08E-02
46661,6.75E-03,1.08E-02
46662,6.70E-03,1.08E-02
46663,6.75E-03,1.09E-02
46664,6.69E-03,1.09E-02
46665,6.68E-03,1.09E-02
46666,6.72E-03,1.09E-02
46667,6.76E-03,1.10E-02
46668,6.78E-03,1.10E-02
46669,6.79E-03,1.10E-02
46670,6.88E-03,1.10E-02
46671,6.93E-03,1.11E-02
46672,7.00E-03,1.11E-02
46673,7.24E-03,1.11E-02
46674,7.59E-03,1.11E-02
46675,8.09E-03,1.11E-02
46676,8.11E-03,1.11E-02
46677,8.35E-03,1.12E-02
46678,8.67E-03,1.12E-02
46679,8.80E-03,1.12E-02
46680,8.58E-03,1.12E-02
46681,8.09E-03,1.33E-02
46682,8.09E-03,1.31E-02
46683,8.09E-03,1.30E-02
46684,8.09E-03,1.28E-02
46685,8.09E-03,1.26E-02
46686,8.09E-03,1.24E-02
46687,8.09E-03,1.22E-02
46688,8.09E-03,1.20E-02
46689,8.09E-03,1.18E-02
46690,8.09E-03,1.16E-02
46691,8.04E-03,1.14E-02
46692,7.91E-03,1.12E-02
46693,7.82E-03,1.10E-02
46694,7.82E-03,1.08E-02
46695,7.89E-03,1.04E-02
46696,7.80E-03,1.06E-02
46697,8.10E-03,2.38E-02
46698,8.34E-03,2.42E-02
46699,8.76E-03,2.46E-02
46700,8.69E-03,2.50E-02
46701,8.41E-03,2.54E-02
46702,7.80E-03,2.58E-02
46703,9.99E-03,8.91E-03
46704,9.23E-03,8.99E-03
46705,7.46E-03,3.26E-02
46706,6.85E-03,6.67E-03
46707,6.79E-03,6.57E-03
46708,7.13E-03,6.46E-03
46709,6.21E-03,6.35E-03
46710,6.02E-03,6.23E-03
46711,5.81E-03,6.09E-03
46712,9.51E-03,8.57E-03
46713,9.65E-03,8.49E-03
46714,1.03E-02,8.40E-03
46715,1.02E-02,8.30E-03
46716,1.01E-02,8.20E-03
46717,9.99E-03,8.10E-03
46718,8.91E-03,8.00E-03
46719,8.64E-03,7.91E-03
46720,8.46E-03,7.82E-03
46721,8.22E-03,7.73E-03
46722,7.88E-03,7.64E-03
46723,7.71E-03,7.56E-03
46724,7.50E-03,7.47E-03
46725,7.28E-03,7.39E-03
46726,7.12E-03,7.32E-03
46727,7.01E-03,7.24E-03
46728,6.90E-03,7.17E-03
46729,6.80E-03,7.09E-03
46730,6.69E-03,7.02E-03
46731,6.57E-03,6.96E-03
46732,6.41E-03,6.89E-03
46733,6.24E-03,6.83E-03
46734,6.07E-03,6.76E-03
46735,5.89E-03,6.71E-03
46736,5.78E-03,6.65E-03
46737,5.74E-03,6.60E-03
46738,5.73E-03,6.54E-03
46739,5.73E-03,6.49E-03
46740,5.72E-03,6.44E-03
46741,5.71E-03,6.39E-03
46742,5.70E-03,6.34E-03
46743,5.69E-03,6.30E-03
46744,5.66E-03,6.25E-03
46745,5.63E-03,6.21E-03
46746,5.60E-03,6.16E-03
46747,5.57E-03,6.12E-03
46748,5.54E-03,6.08E-03
46749,5.53E-03,6.05E-03
46750,5.55E-03,6.01E-03
46751,5.59E-03,5.97E-03
46752,5.62E-03,5.94E-03
46753,5.68E-03,5.90E-03
46754,5.75E-03,5.87E-03
46755,5.83E-03,5.84E-03
46756,5.91E-03,5.80E-03
46757,6.03E-03,5.77E-03
46758,6.17E-03,5.74E-03
46759,6.32E-03,5.71E-03
46760,6.46E-03,5.68E-03
46761,6.56E-03,5.65E-03
46762,6.63E-03,5.62E-03
46763,6.70E-03,5.59E-03
46764,6.77E-03,5.56E-03
46765,6.83E-03,5.53E-03
46766,6.89E-03,5.50E-03
46767,6.96E-03,5.47E-03
46768,7.02E-03,5.45E-03
46769,7.08E-03,5.42E-03
46770,7.14E-03,5.39E-03
46771,7.20E-03,5.36E-03
46772,7.25E-03,5.34E-03
46773,7.29E-03,5.31E-03
46774,7.32E-03,5.28E-03
46775,7.35E-03,5.25E-03
46776,7.38E-03,5.23E-03
46777,7.40E-03,5.20E-03
46778,7.43E-03,5.17E-03
46779,7.46E-03,5.14E-03
46780,7.49E-03,5.12E-03
46781,7.53E-03,5.09E-03
46782,7.58E-03,5.06E-03
46783,7.64E-03,5.03E-03
46784,7.69E-03,5.00E-03
46785,7.74E-03,4.97E-03
46786,7.77E-03,4.94E-03
46787,7.80E-03,4.91E-03
46788,7.83E-03,4.88E-03
46789,7.85E-03,4.85E-03
46790,7.84E-03,4.81E-03
46791,7.80E-03,4.78E-03
46792,7.75E-03,4.74E-03
46793,7.40E-03,4.71E-03
46794,7.21E-03,4.68E-03
46795,7.02E-03,4.64E-03
46796,6.92E-03,4.61E-03
46797,6.74E-03,4.58E-03
46798,6.41E-03,4.55E-03
46799,6.27E-03,4.51E-03
46800,5.86E-03,4.48E-03
46801,5.68E-03,4.45E-03
46802,5.42E-03,4.42E-03
46803,5.08E-03,4.39E-03
46804,4.66E-03,4.36E-03
46805,4.00E-03,4.33E-03
46806,3.28E-03,4.30E-03
46807,3.74E-03,4.31E-03
46808,3.64E-03,4.35E-03
46809,3.55E-03,4.36E-03
46810,3.51E-03,4.36E-03
46811,3.48E-03,4.37E-03
46812,3.84E-03,4.39E-03
46813,4.09E-03,4.40E-03
46814,4.17E-03,4.42E-03
46815,4.70E-03,4.45E-03
46816,4.74E-03,4.48E-03
46817,4.93E-03,4.51E-03
46818,5.29E-03,4.54E-03
46819,5.50E-03,4.58E-03
46820,5.68E-03,4.62E-03
46821,5.81E-03,4.66E-03
46822,5.94E-03,4.71E-03
46823,6.07E-03,4.76E-03
46824,6.54E-03,4.82E-03
46825,7.40E-03,4.88E-03
46826,8.07E-03,4.95E-03
46827,8.60E-03,5.03E-03
46828,9.33E-03,5.11E-03
46829,1.00E-02,5.20E-03
46830,1.08E-02,5.30E-03
46831,1.08E-02,5.39E-03
46832,6.97E-03,5.47E-03
46833,6.85E-03,5.52E-03
46834,6.68E-03,5.58E-03
46835,6.43E-03,5.64E-03
46836,5.83E-03,5.70E-03
46837,5.51E-03,5.78E-03
46838,5.38E-03,5.86E-03
46839,5.46E-03,5.96E-03
46840,7.60E-03,1.91E-02
46841,7.94E-03,1.91E-02
46842,8.34E-03,1.90E-02
46843,8.87E-03,1.89E-02
46844,9.04E-03,1.88E-02
46845,9.15E-03,1.88E-02
46846,8.16E-03,1.87E-02
46847,7.96E-03,1.87E-02
46848,7.64E-03,1.86E-02
46849,7.45E-03,1.85E-02
46850,6.94E-03,1.85E-02
46851,6.79E-03,1.84E-02
46852,6.57E-03,1.84E-02
46853,6.33E-03,1.83E-02
46854,6.20E-03,1.83E-02
46855,6.27E-03,1.82E-02
46856,7.12E-03,2.93E-02
46857,6.41E-03,2.93E-02
46858,5.63E-03,2.94E-02
46859,6.23E-03,2.98E-02
46860,5.98E-03,1.11E-02
46861,6.45E-03,1.12E-02
46862,8.48E-03,7.59E-03
46863,8.09E-03,6.98E-03
46864,8.38E-03,7.28E-03
46865,7.23E-03,1.90E-02
46866,7.85E-03,1.90E-02
46867,8.74E-03,1.89E-02
46868,1.04E-02,1.89E-02
46869,1.03E-02,1.88E-02
46870,1.03E-02,1.88E-02
46871,1.02E-02,1.88E-02
46872,1.01E-02,1.87E-02
46873,1.00E-02,1.87E-02
46874,9.53E-03,1.87E-02
46875,9.47E-03,1.86E-02
46876,9.24E-03,1.86E-02
46877,9.10E-03,1.86E-02
46878,8.90E-03,1.86E-02
46879,8.80E-03,1.86E-02
46880,8.72E-03,1.86E-02
46881,8.69E-03,1.86E-02
46882,8.69E-03,1.86E-02
46883,8.69E-03,1.86E-02
46884,8.65E-03,1.86E-02
46885,8.54E-03,1.86E-02
46886,8.41E-03,1.86E-02
46887,8.32E-03,1.86E-02
46888,8.26E-03,1.86E-02
46889,8.21E-03,1.86E-02
46890,8.18E-03,1.86E-02
46891,8.18E-03,1.86E-02
46892,8.17E-03,1.86E-02
46893,8.17E-03,1.86E-02
46894,8.16E-03,1.86E-02
46895,8.14E-03,1.86E-02
46896,8.12E-03,1.86E-02
46897,8.09E-03,1.86E-02
46898,8.07E-03,1.86E-02
46899,8.05E-03,1.85E-02
46900,8.03E-03,1.85E-02
46901,8.01E-03,1.85E-02
46902,8.00E-03,1.85E-02
46903,8.01E-03,1.85E-02
46904,8.04E-03,1.84E-02
46905,8.07E-03,1.84E-02
46906,8.10E-03,1.84E-02
46907,8.14E-03,1.84E-02
46908,8.16E-03,1.83E-02
46909,8.19E-03,1.83E-02
46910,8.23E-03,1.82E-02
46911,8.28E-03,1.82E-02
46912,8.36E-03,1.81E-02
46913,8.43E-03,1.81E-02
46914,8.48E-03,1.80E-02
46915,8.52E-03,1.80E-02
46916,8.55E-03,1.79E-02
46917,8.58E-03,1.79E-02
46918,8.61E-03,1.78E-02
46919,8.65E-03,1.78E-02
46920,8.69E-03,1.77E-02
46921,8.74E-03,1.76E-02
46922,8.78E-03,1.76E-02
46923,8.85E-03,1.75E-02
46924,8.94E-03,1.75E-02
46925,9.03E-03,1.74E-02
46926,9.13E-03,1.73E-02
46927,9.19E-03,1.73E-02
46928,9.20E-03,1.72E-02
46929,9.18E-03,1.71E-02
46930,9.14E-03,1.71E-02
46931,9.10E-03,1.70E-02
46932,9.07E-03,1.70E-02
46933,9.04E-03,1.69E-02
46934,9.00E-03,1.69E-02
46935,8.96E-03,1.68E-02
46936,8.97E-03,1.68E-02
46937,8.98E-03,1.68E-02
46938,8.87E-03,1.67E-02
46939,8.64E-03,1.67E-02
46940,8.38E-03,1.67E-02
46941,8.12E-03,1.67E-02
46942,7.95E-03,1.66E-02
46943,7.95E-03,1.66E-02
46944,8.00E-03,1.66E-02
46945,7.96E-03,1.66E-02
46946,7.84E-03,1.66E-02
46947,7.74E-03,1.66E-02
46948,7.64E-03,1.66E-02
46949,7.55E-03,1.65E-02
46950,7.44E-03,1.65E-02
46951,7.29E-03,1.65E-02
46952,7.13E-03,1.65E-02
46953,6.99E-03,1.64E-02
46954,6.90E-03,1.64E-02
46955,6.84E-03,1.64E-02
46956,6.77E-03,1.63E-02
46957,6.73E-03,1.63E-02
46958,6.69E-03,1.63E-02
46959,6.66E-03,1.62E-02
46960,6.62E-03,1.62E-02
46961,6.55E-03,1.61E-02
46962,6.47E-03,1.60E-02
46963,6.42E-03,1.60E-02
46964,6.41E-03,1.59E-02
46965,6.45E-03,1.59E-02
46966,6.49E-03,1.58E-02
46967,6.53E-03,1.57E-02
46968,6.58E-03,1.56E-02
46969,6.62E-03,1.55E-02
46970,6.67E-03,1.55E-02
46971,6.71E-03,1.54E-02
46972,6.76E-03,1.53E-02
46973,6.79E-03,1.52E-02
46974,6.81E-03,1.51E-02
46975,6.83E-03,1.50E-02
46976,6.84E-03,1.49E-02
46977,6.86E-03,1.48E-02
46978,6.88E-03,1.47E-02
46979,6.88E-03,1.46E-02
46980,6.86E-03,1.45E-02
46981,6.83E-03,1.44E-02
46982,6.79E-03,1.43E-02
46983,6.75E-03,1.42E-02
46984,6.70E-03,1.41E-02
46985,6.65E-03,1.40E-02
46986,6.59E-03,1.39E-02
46987,6.50E-03,1.38E-02
46988,6.38E-03,1.37E-02
46989,6.27E-03,1.36E-02
46990,6.16E-03,1.35E-02
46991,6.06E-03,1.35E-02
46992,6.02E-03,1.34E-02
46993,6.07E-03,1.33E-02
46994,6.13E-03,1.32E-02
46995,6.07E-03,1.31E-02
46996,6.05E-03,1.30E-02
46997,6.78E-03,1.29E-02
46998,8.92E-03,1.28E-02
46999,9.11E-03,1.27E-02
47000,9.28E-03,1.26E-02
47001,9.28E-03,1.25E-02
47002,7.19E-03,1.02E-02
47003,9.53E-03,8.55E-03
47004,7.97E-03,2.92E-02
47005,8.65E-03,1.21E-02
47006,1.07E-02,1.18E-02
47007,1.15E-02,1.16E-02
47008,1.20E-02,1.14E-02
47009,1.13E-02,1.13E-02
47010,1.13E-02,1.11E-02
47011,1.13E-02,1.09E-02
47012,1.12E-02,1.07E-02
47013,1.12E-02,1.06E-02
47014,1.08E-02,1.04E-02
47015,1.06E-02,1.02E-02
47016,1.04E-02,1.01E-02
47017,9.53E-03,9.94E-03
47018,7.37E-03,9.81E-03
47019,7.30E-03,9.71E-03
47020,7.22E-03,9.60E-03
47021,7.13E-03,9.49E-03
47022,7.14E-03,9.38E-03
47023,7.39E-03,9.27E-03
47024,5.94E-03,3.21E-02
47025,8.16E-03,1.05E-02
47026,7.97E-03,1.09E-02
47027,7.58E-03,1.10E-02
47028,9.96E-03,1.20E-02
47029,9.91E-03,1.21E-02
47030,1.02E-02,1.22E-02
47031,1.04E-02,1.22E-02
47032,1.07E-02,1.23E-02
47033,1.11E-02,1.24E-02
47034,1.06E-02,1.24E-02
47035,1.04E-02,1.25E-02
47036,9.90E-03,1.26E-02
47037,9.42E-03,1.26E-02
47038,8.94E-03,1.27E-02
47039,8.48E-03,1.28E-02
47040,8.22E-03,1.28E-02
47041,7.73E-03,1.29E-02
47042,7.10E-03,1.29E-02
47043,6.43E-03,1.29E-02
47044,5.64E-03,1.30E-02
47045,5.47E-03,1.30E-02
47046,5.66E-03,1.30E-02
47047,5.69E-03,1.30E-02
47048,5.63E-03,1.30E-02
47049,5.55E-03,1.30E-02
47050,5.48E-03,1.30E-02
47051,5.23E-03,1.30E-02
47052,5.03E-03,1.30E-02
47053,4.92E-03,1.30E-02
47054,5.07E-03,1.30E-02
47055,5.44E-03,1.30E-02
47056,8.05E-03,1.17E-02
47057,6.75E-03,1.07E-02
47058,6.76E-03,1.08E-02
47059,7.87E-03,1.96E-02
47060,8.13E-03,1.31E-02
47061,7.31E-03,1.32E-02
47062,6.65E-03,1.35E-02
47063,6.93E-03,9.05E-03
47064,7.10E-03,8.85E-03
47065,7.88E-03,8.64E-03
47066,7.95E-03,8.42E-03
47067,8.02E-03,8.19E-03
47068,8.09E-03,7.97E-03
47069,8.09E-03,7.75E-03
47070,8.09E-03,7.53E-03
47071,8.09E-03,7.31E-03
47072,8.09E-03,7.09E-03
47073,8.09E-03,6.87E-03
47074,8.09E-03,6.66E-03
47075,8.09E-03,6.45E-03
47076,8.09E-03,6.24E-03
47077,8.09E-03,6.03E-03
47078,8.09E-03,5.83E-03
47079,8.09E-03,5.64E-03
47080,8.09E-03,5.44E-03
47081,8.09E-03,5.26E-03
47082,8.09E-03,5.08E-03
47083,8.09E-03,4.91E-03
47084,8.09E-03,4.75E-03
47085,8.09E-03,4.59E-03
47086,8.09E-03,4.45E-03
47087,8.09E-03,4.31E-03
47088,8.09E-03,4.19E-03
47089,8.09E-03,4.08E-03
47090,8.09E-03,3.99E-03
47091,8.09E-03,3.91E-03
47092,8.09E-03,3.85E-03
47093,8.09E-03,3.80E-03
47094,8.09E-03,3.77E-03
47095,8.09E-03,3.75E-03
47096,8.09E-03,3.75E-03
47097,8.09E-03,3.77E-03
47098,8.09E-03,3.80E-03
47099,8.09E-03,3.85E-03
47100,8.09E-03,3.91E-03
47101,8.09E-03,3.99E-03
47102,8.09E-03,4.08E-03
47103,8.09E-03,4.17E-03
47104,8.09E-03,4.28E-03
47105,8.09E-03,4.40E-03
47106,8.09E-03,4.52E-03
47107,8.09E-03,4.65E-03
47108,8.09E-03,4.79E-03
47109,8.09E-03,4.93E-03
47110,8.09E-03,5.08E-03
47111,8.09E-03,5.23E-03
47112,8.09E-03,5.38E-03
47113,8.09E-03,5.54E-03
47114,8.09E-03,5.70E-03
47115,8.09E-03,5.86E-03
47116,8.09E-03,6.02E-03
47117,8.09E-03,6.18E-03
47118,8.09E-03,6.34E-03
47119,8.09E-03,6.50E-03
47120,8.09E-03,6.66E-03
47121,8.09E-03,6.82E-03
47122,8.09E-03,6.98E-03
47123,8.09E-03,7.14E-03
47124,8.09E-03,7.30E-03
47125,8.09E-03,7.46E-03
47126,8.09E-03,7.62E-03
47127,8.09E-03,7.77E-03
47128,8.09E-03,7.93E-03
47129,8.09E-03,8.08E-03
47130,8.09E-03,8.23E-03
47131,8.09E-03,8.38E-03
47132,8.09E-03,8.53E-03
47133,8.09E-03,8.67E-03
47134,8.09E-03,8.82E-03
47135,8.09E-03,8.96E-03
47136,8.17E-03,9.11E-03
47137,8.19E-03,9.24E-03
47138,8.14E-03,9.38E-03
47139,8.08E-03,9.51E-03
47140,7.93E-03,9.65E-03
47141,7.74E-03,9.78E-03
47142,7.52E-03,9.91E-03
47143,7.14E-03,1.00E-02
47144,6.77E-03,1.02E-02
47145,5.30E-03,1.93E-02
47146,7.30E-03,6.72E-03
47147,6.52E-03,2.68E-02
47148,6.91E-03,2.65E-02
47149,8.10E-03,1.47E-02
47150,8.10E-03,1.48E-02
47151,7.46E-03,1.38E-02
47152,7.73E-03,1.33E-02
47153,7.60E-03,1.05E-02
47154,6.78E-03,1.15E-02
47155,8.10E-03,1.34E-02
47156,8.15E-03,1.02E-02
47157,7.86E-03,2.35E-02
47158,7.29E-03,2.62E-02
47159,8.24E-03,1.31E-02
47160,9.46E-03,8.71E-03
47161,9.44E-03,8.62E-03
47162,9.31E-03,8.53E-03
47163,8.00E-03,3.17E-02
47164,7.93E-03,3.21E-02
47165,8.06E-03,3.25E-02
47166,8.15E-03,3.27E-02
47167,8.28E-03,3.32E-02
47168,6.65E-03,1.93E-02
47169,4.82E-03,1.02E-02
47170,4.45E-03,1.02E-02
47171,4.56E-03,1.02E-02
47172,4.99E-03,1.02E-02
47173,5.45E-03,1.02E-02
47174,5.65E-03,1.01E-02
47175,5.80E-03,1.01E-02
47176,6.49E-03,1.00E-02
47177,6.74E-03,9.97E-03
47178,6.91E-03,9.90E-03
47179,7.01E-03,9.83E-03
47180,7.10E-03,9.75E-03
47181,7.20E-03,9.68E-03
47182,7.29E-03,9.59E-03
47183,7.38E-03,9.51E-03
47184,7.47E-03,9.42E-03
47185,7.56E-03,9.32E-03
47186,7.60E-03,9.23E-03
47187,7.63E-03,9.13E-03
47188,7.65E-03,9.04E-03
47189,7.67E-03,8.94E-03
47190,7.69E-03,8.84E-03
47191,7.71E-03,8.74E-03
47192,7.74E-03,8.64E-03
47193,7.76E-03,8.54E-03
47194,7.78E-03,8.44E-03
47195,7.80E-03,8.35E-03
47196,7.82E-03,8.26E-03
47197,7.83E-03,8.17E-03
47198,7.85E-03,8.08E-03
47199,7.86E-03,8.00E-03
47200,7.88E-03,7.93E-03
47201,7.89E-03,7.86E-03
47202,7.90E-03,7.80E-03
47203,7.91E-03,7.75E-03
47204,7.92E-03,7.71E-03
47205,7.93E-03,7.67E-03
47206,7.94E-03,7.65E-03
47207,7.95E-03,7.63E-03
47208,7.96E-03,7.63E-03
47209,7.97E-03,7.63E-03
47210,7.97E-03,7.65E-03
47211,7.97E-03,7.68E-03
47212,7.97E-03,7.72E-03
47213,7.97E-03,7.77E-03
47214,7.97E-03,7.83E-03
47215,7.97E-03,7.90E-03
47216,7.96E-03,7.98E-03
47217,7.95E-03,8.07E-03
47218,7.94E-03,8.17E-03
47219,7.92E-03,8.28E-03
47220,7.91E-03,8.39E-03
47221,7.89E-03,8.51E-03
47222,7.88E-03,8.64E-03
47223,7.86E-03,8.77E-03
47224,7.85E-03,8.91E-03
47225,7.83E-03,9.05E-03
47226,7.81E-03,9.20E-03
47227,7.79E-03,9.35E-03
47228,7.76E-03,9.51E-03
47229,7.72E-03,9.66E-03
47230,7.68E-03,9.82E-03
47231,7.64E-03,9.98E-03
47232,7.60E-03,1.01E-02
47233,7.56E-03,1.03E-02
47234,7.52E-03,1.05E-02
47235,7.49E-03,1.06E-02
47236,7.46E-03,1.08E-02
47237,7.43E-03,1.09E-02
47238,7.40E-03,1.11E-02
47239,7.38E-03,1.13E-02
47240,7.35E-03,1.14E-02
47241,7.32E-03,1.16E-02
47242,7.29E-03,1.17E-02
47243,7.25E-03,1.19E-02
47244,7.22E-03,1.20E-02
47245,7.18E-03,1.22E-02
47246,7.14E-03,1.23E-02
47247,7.09E-03,1.25E-02
47248,7.03E-03,1.26E-02
47249,6.95E-03,1.28E-02
47250,6.88E-03,1.29E-02
47251,6.80E-03,1.31E-02
47252,6.73E-03,1.32E-02
47253,6.69E-03,1.33E-02
47254,6.68E-03,1.35E-02
47255,6.67E-03,1.36E-02
47256,6.68E-03,1.37E-02
47257,6.70E-03,1.39E-02
47258,6.73E-03,1.40E-02
47259,6.76E-03,1.41E-02
47260,6.78E-03,1.43E-02
47261,6.80E-03,1.44E-02
47262,6.82E-03,1.45E-02
47263,6.84E-03,1.47E-02
47264,6.86E-03,1.48E-02
47265,6.88E-03,1.49E-02
47266,6.90E-03,1.51E-02
47267,6.92E-03,1.52E-02
47268,6.93E-03,1.53E-02
47269,6.95E-03,1.55E-02
47270,6.97E-03,1.56E-02
47271,6.99E-03,1.58E-02
47272,7.01E-03,1.59E-02
47273,7.03E-03,1.60E-02
47274,7.03E-03,1.62E-02
47275,7.03E-03,1.63E-02
47276,7.04E-03,1.64E-02
47277,7.07E-03,1.66E-02
47278,7.13E-03,1.67E-02
47279,7.20E-03,1.69E-02
47280,7.26E-03,1.70E-02
47281,7.31E-03,1.71E-02
47282,7.33E-03,1.73E-02
47283,7.24E-03,1.74E-02
47284,7.27E-03,1.76E-02
47285,7.32E-03,1.77E-02
47286,7.32E-03,1.79E-02
47287,7.33E-03,1.80E-02
47288,7.01E-03,1.81E-02
47289,6.76E-03,3.03E-02
47290,6.11E-03,1.05E-02
47291,6.22E-03,1.05E-02
47292,6.23E-03,1.06E-02
47293,7.04E-03,1.04E-02
47294,6.55E-03,1.05E-02
47295,7.65E-03,1.15E-02
47296,7.09E-03,1.14E-02
47297,7.77E-03,1.92E-02
47298,6.82E-03,1.06E-02
47299,6.91E-03,9.21E-03
47300,8.20E-03,1.07E-02
47301,9.62E-03,1.06E-02
47302,1.16E-02,1.04E-02
47303,1.08E-02,1.03E-02
47304,1.06E-02,1.02E-02
47305,1.08E-02,1.00E-02
47306,1.09E-02,9.89E-03
47307,1.10E-02,9.77E-03
47308,1.10E-02,9.66E-03
47309,1.09E-02,9.55E-03
47310,1.08E-02,9.46E-03
47311,1.07E-02,9.38E-03
47312,1.05E-02,9.30E-03
47313,1.04E-02,9.24E-03
47314,1.03E-02,9.18E-03
47315,1.02E-02,9.12E-03
47316,1.01E-02,9.07E-03
47317,9.92E-03,9.03E-03
47318,9.71E-03,8.99E-03
47319,9.49E-03,8.96E-03
47320,9.30E-03,8.94E-03
47321,9.18E-03,8.92E-03
47322,9.08E-03,8.90E-03
47323,9.00E-03,8.89E-03
47324,8.92E-03,8.88E-03
47325,8.85E-03,8.87E-03
47326,8.79E-03,8.87E-03
47327,8.73E-03,8.87E-03
47328,8.66E-03,8.88E-03
47329,8.57E-03,8.89E-03
47330,8.48E-03,8.90E-03
47331,8.39E-03,8.91E-03
47332,8.31E-03,8.93E-03
47333,8.23E-03,8.95E-03
47334,8.18E-03,8.97E-03
47335,8.17E-03,8.99E-03
47336,8.13E-03,9.02E-03
47337,7.93E-03,9.05E-03
47338,7.78E-03,9.08E-03
47339,7.71E-03,9.11E-03
47340,7.58E-03,9.15E-03
47341,7.29E-03,9.18E-03
47342,7.20E-03,9.22E-03
47343,7.05E-03,9.26E-03
47344,6.90E-03,9.30E-03
47345,6.71E-03,9.33E-03
47346,6.51E-03,9.37E-03
47347,6.29E-03,9.41E-03
47348,6.07E-03,9.45E-03
47349,5.85E-03,9.49E-03
47350,5.61E-03,9.53E-03
47351,5.39E-03,9.57E-03
47352,5.19E-03,9.61E-03
47353,4.89E-03,9.64E-03
47354,4.62E-03,9.68E-03
47355,4.26E-03,9.71E-03
47356,3.82E-03,9.74E-03
47357,3.77E-03,9.76E-03
47358,3.80E-03,9.79E-03
47359,3.76E-03,9.81E-03
47360,3.90E-03,9.84E-03
47361,3.96E-03,9.87E-03
47362,3.99E-03,9.89E-03
47363,4.30E-03,9.93E-03
47364,4.53E-03,9.96E-03
47365,4.67E-03,1.00E-02
47366,5.01E-03,1.00E-02
47367,5.10E-03,1.01E-02
47368,4.68E-03,1.01E-02
47369,3.82E-03,1.01E-02
47370,4.00E-03,1.02E-02
47371,4.96E-03,1.03E-02
47372,5.74E-03,1.03E-02
47373,6.42E-03,1.03E-02
47374,6.06E-03,1.04E-02
47375,8.10E-03,1.46E-02
47376,8.10E-03,1.48E-02
47377,8.02E-03,1.33E-02
47378,8.12E-03,3.16E-02
47379,9.49E-03,3.18E-02
47380,8.02E-03,1.38E-02
47381,6.81E-03,1.08E-02
47382,5.43E-03,1.18E-02
47383,5.89E-03,1.18E-02
47384,6.27E-03,1.18E-02
47385,8.10E-03,1.35E-02
47386,8.42E-03,9.43E-03
47387,8.79E-03,9.68E-03
47388,8.26E-03,9.91E-03
47389,9.83E-03,2.27E-02
47390,8.05E-03,2.32E-02
47391,8.09E-03,1.13E-02
47392,8.09E-03,1.12E-02
47393,8.09E-03,1.10E-02
47394,8.09E-03,1.09E-02
47395,8.09E-03,1.08E-02
47396,8.09E-03,1.06E-02
47397,8.09E-03,1.05E-02
47398,8.09E-03,1.03E-02
47399,8.09E-03,1.01E-02
47400,8.09E-03,9.99E-03
47401,8.09E-03,9.84E-03
47402,8.09E-03,9.68E-03
47403,8.09E-03,9.52E-03
47404,8.09E-03,9.36E-03
47405,8.09E-03,9.19E-03
47406,8.09E-03,9.03E-03
47407,8.09E-03,8.86E-03
47408,8.09E-03,8.70E-03
47409,8.09E-03,8.53E-03
47410,8.09E-03,8.36E-03
47411,8.09E-03,8.20E-03
47412,8.09E-03,8.03E-03
47413,8.09E-03,7.86E-03
47414,8.09E-03,7.69E-03
47415,8.09E-03,7.52E-03
47416,8.09E-03,7.36E-03
47417,8.09E-03,7.19E-03
47418,8.09E-03,7.02E-03
47419,8.09E-03,6.86E-03
47420,8.09E-03,6.70E-03
47421,8.09E-03,6.54E-03
47422,8.09E-03,6.38E-03
47423,8.09E-03,6.22E-03
47424,8.09E-03,6.07E-03
47425,8.09E-03,5.93E-03
47426,8.09E-03,5.78E-03
47427,8.09E-03,5.64E-03
47428,8.09E-03,5.51E-03
47429,8.09E-03,5.39E-03
47430,8.09E-03,5.27E-03
47431,8.09E-03,5.16E-03
47432,8.09E-03,5.05E-03
47433,8.09E-03,4.96E-03
47434,8.09E-03,4.88E-03
47435,8.09E-03,4.80E-03
47436,8.09E-03,4.74E-03
47437,8.09E-03,4.69E-03
47438,8.09E-03,4.66E-03
47439,8.09E-03,4.64E-03
47440,8.09E-03,4.63E-03
47441,8.09E-03,4.63E-03
47442,8.09E-03,4.65E-03
47443,8.09E-03,4.69E-03
47444,8.09E-03,4.74E-03
47445,8.09E-03,4.80E-03
47446,8.09E-03,4.87E-03
47447,8.09E-03,4.96E-03
47448,8.09E-03,5.06E-03
47449,8.09E-03,5.17E-03
47450,8.09E-03,5.30E-03
47451,8.09E-03,5.43E-03
47452,8.09E-03,5.58E-03
47453,8.09E-03,5.73E-03
47454,8.09E-03,5.90E-03
47455,8.09E-03,6.07E-03
47456,8.09E-03,6.25E-03
47457,8.09E-03,6.43E-03
47458,8.09E-03,6.63E-03
47459,8.09E-03,6.83E-03
47460,8.09E-03,7.03E-03
47461,8.09E-03,7.24E-03
47462,8.09E-03,7.45E-03
47463,8.09E-03,7.67E-03
47464,8.09E-03,7.90E-03
47465,8.09E-03,8.13E-03
47466,8.09E-03,8.36E-03
47467,8.09E-03,8.59E-03
47468,8.09E-03,8.83E-03
47469,8.09E-03,9.07E-03
47470,8.09E-03,9.32E-03
47471,8.09E-03,9.57E-03
47472,8.14E-03,9.82E-03
47473,8.13E-03,1.01E-02
47474,8.14E-03,1.03E-02
47475,8.17E-03,1.06E-02
47476,8.94E-03,1.09E-02
47477,8.00E-03,1.11E-02
47478,6.30E-03,1.13E-02
47479,5.90E-03,1.16E-02
47480,6.05E-03,1.18E-02
47481,1.00E-02,9.61E-03
47482,7.40E-03,1.07E-02
47483,7.92E-03,1.31E-02
47484,7.87E-03,1.97E-02
47485,7.99E-03,1.96E-02
47486,9.17E-03,1.94E-02
47487,9.79E-03,1.28E-02
47488,6.95E-03,1.95E-02
47489,8.10E-03,1.45E-02
47490,8.10E-03,1.48E-02
47491,8.09E-03,2.13E-02
47492,8.19E-03,2.90E-02
47493,6.63E-03,3.09E-02
47494,7.67E-03,1.11E-02
47495,8.10E-03,1.36E-02
47496,7.63E-03,1.12E-02
47497,8.10E-03,1.44E-02
47498,8.10E-03,1.47E-02
47499,8.19E-03,2.23E-02
47500,8.00E-03,2.18E-02
47501,5.33E-03,2.84E-02
47502,7.17E-03,2.89E-02
47503,8.10E-03,1.37E-02
47504,9.10E-03,8.92E-03
47505,8.10E-03,1.17E-02
47506,8.10E-03,1.15E-02
47507,8.10E-03,1.18E-02
47508,8.10E-03,1.42E-02
47509,8.10E-03,1.47E-02
47510,8.10E-03,1.38E-02
47511,8.10E-03,1.20E-02
47512,8.10E-03,1.41E-02
47513,8.10E-03,1.47E-02
47514,8.10E-03,1.39E-02
47515,8.10E-03,1.40E-02
47516,8.10E-03,1.46E-02
47517,8.10E-03,1.40E-02
47518,8.10E-03,1.39E-02
47519,7.64E-03,1.46E-02
47520,8.10E-03,1.41E-02
47521,8.10E-03,1.26E-02
47522,8.10E-03,1.25E-02
47523,8.10E-03,1.23E-02
47524,8.10E-03,1.21E-02
47525,8.10E-03,1.37E-02
47526,7.58E-03,1.46E-02
47527,8.10E-03,1.42E-02
47528,8.10E-03,1.28E-02
47529,8.10E-03,1.36E-02
47530,7.54E-03,1.45E-02
47531,8.10E-03,1.42E-02
47532,8.10E-03,1.29E-02
47533,8.10E-03,1.35E-02
47534,7.64E-03,1.45E-02
47535,8.28E-03,1.43E-02
47536,8.10E-03,1.33E-02
47537,7.76E-03,1.44E-02
47538,8.26E-03,1.44E-02
47539,8.10E-03,1.31E-02
47540,8.10E-03,1.32E-02
47541,6.73E-03,1.11E-02
47542,9.44E-03,7.02E-03
47543,9.95E-03,1.22E-02
47544,8.10E-03,1.47E-02
47545,8.10E-03,1.48E-02
47546,9.38E-03,1.98E-02
47547,9.52E-03,1.93E-02
47548,9.45E-03,1.89E-02
47549,8.48E-03,1.84E-02
47550,8.34E-03,1.80E-02
47551,8.24E-03,1.76E-02
47552,8.12E-03,1.72E-02
47553,8.01E-03,1.68E-02
47554,8.01E-03,1.64E-02
47555,8.02E-03,1.60E-02
47556,8.02E-03,1.57E-02
47557,7.92E-03,1.53E-02
47558,7.76E-03,1.49E-02
47559,7.69E-03,1.45E-02
47560,7.50E-03,1.42E-02
47561,9.55E-03,1.33E-02
47562,1.05E-02,1.33E-02
47563,8.94E-03,1.36E-02
47564,8.53E-03,1.38E-02
47565,8.47E-03,1.40E-02
47566,6.73E-03,1.42E-02
47567,6.12E-03,1.44E-02
47568,5.81E-03,1.46E-02
47569,5.42E-03,1.48E-02
47570,4.89E-03,1.50E-02
47571,4.66E-03,1.52E-02
47572,4.85E-03,1.54E-02
47573,5.25E-03,1.56E-02
47574,5.53E-03,1.59E-02
47575,5.68E-03,1.61E-02
47576,5.82E-03,1.64E-02
47577,5.97E-03,1.67E-02
47578,6.11E-03,1.70E-02
47579,6.17E-03,1.74E-02
47580,6.16E-03,1.77E-02
47581,6.13E-03,1.81E-02
47582,6.11E-03,1.85E-02
47583,5.98E-03,1.89E-02
47584,5.84E-03,1.93E-02
47585,5.71E-03,1.97E-02
47586,5.61E-03,2.02E-02
47587,5.41E-03,2.06E-02
47588,5.19E-03,2.10E-02
47589,5.01E-03,2.14E-02
47590,4.48E-03,2.17E-02
47591,4.19E-03,2.21E-02
47592,3.84E-03,2.24E-02
47593,3.37E-03,2.27E-02
47594,3.28E-03,2.30E-02
47595,2.89E-03,2.32E-02
47596,2.80E-03,2.34E-02
47597,2.77E-03,2.36E-02
47598,3.00E-03,2.39E-02
47599,2.99E-03,2.41E-02
47600,3.48E-03,2.43E-02
47601,4.23E-03,2.46E-02
47602,4.53E-03,2.50E-02
47603,4.83E-03,2.54E-02
47604,4.88E-03,2.57E-02
47605,5.07E-03,2.61E-02
47606,5.29E-03,2.64E-02
47607,5.49E-03,2.68E-02
47608,5.64E-03,2.71E-02
47609,5.87E-03,2.75E-02
47610,5.90E-03,2.79E-02
47611,6.03E-03,2.83E-02
47612,6.03E-03,2.87E-02
47613,5.99E-03,2.90E-02
47614,5.93E-03,2.94E-02
47615,5.88E-03,2.97E-02
47616,5.83E-03,3.00E-02
47617,5.61E-03,3.03E-02
47618,5.07E-03,3.06E-02
47619,4.61E-03,3.08E-02
47620,4.41E-03,3.11E-02
47621,4.18E-03,3.13E-02
47622,4.14E-03,3.15E-02
47623,4.57E-03,3.17E-02
47624,5.12E-03,3.19E-02
47625,5.54E-03,3.20E-02
47626,5.86E-03,3.22E-02
47627,6.24E-03,3.24E-02
47628,6.71E-03,3.25E-02
47629,7.19E-03,3.27E-02
47630,7.51E-03,3.28E-02
47631,7.67E-03,3.29E-02
47632,7.87E-03,3.30E-02
47633,7.93E-03,3.31E-02
47634,8.17E-03,3.31E-02
47635,8.26E-03,3.32E-02
47636,8.53E-03,3.32E-02
47637,8.53E-03,3.32E-02
47638,8.35E-03,3.32E-02
47639,7.74E-03,1.05E-02
47640,1.02E-02,1.04E-02
47641,9.87E-03,1.05E-02
47642,9.71E-03,1.06E-02
47643,9.73E-03,1.06E-02
47644,9.71E-03,1.06E-02
47645,9.31E-03,1.07E-02
47646,9.16E-03,1.07E-02
47647,8.83E-03,1.08E-02
47648,8.69E-03,1.08E-02
47649,8.26E-03,1.09E-02
47650,8.11E-03,1.09E-02
47651,8.12E-03,1.10E-02
47652,7.83E-03,1.10E-02
47653,7.24E-03,1.11E-02
47654,6.80E-03,1.11E-02
47655,6.75E-03,1.11E-02
47656,6.80E-03,1.12E-02
47657,6.74E-03,1.12E-02
47658,6.74E-03,1.12E-02
47659,6.78E-03,1.12E-02
47660,6.81E-03,1.13E-02
47661,6.83E-03,1.13E-02
47662,6.84E-03,1.13E-02
47663,6.89E-03,1.13E-02
47664,7.01E-03,1.14E-02
47665,7.02E-03,1.14E-02
47666,7.22E-03,1.14E-02
47667,7.62E-03,1.14E-02
47668,8.12E-03,1.14E-02
47669,8.21E-03,1.14E-02
47670,8.58E-03,1.14E-02
47671,8.69E-03,1.15E-02
47672,8.79E-03,1.15E-02
47673,8.77E-03,1.15E-02
47674,8.09E-03,1.33E-02
47675,8.09E-03,1.31E-02
47676,8.09E-03,1.29E-02
47677,8.09E-03,1.27E-02
47678,8.09E-03,1.26E-02
47679,8.09E-03,1.24E-02
47680,8.09E-03,1.22E-02
47681,8.09E-03,1.20E-02
47682,8.09E-03,1.18E-02
47683,8.09E-03,1.16E-02
47684,8.09E-03,1.14E-02
47685,7.99E-03,1.12E-02
47686,8.00E-03,1.10E-02
47687,8.00E-03,1.08E-02
47688,8.12E-03,1.04E-02
47689,8.03E-03,1.06E-02
47690,7.92E-03,2.39E-02
47691,8.35E-03,2.43E-02
47692,8.61E-03,2.47E-02
47693,8.45E-03,2.51E-02
47694,8.13E-03,2.55E-02
47695,7.64E-03,2.59E-02
47696,9.65E-03,8.77E-03
47697,9.15E-03,8.85E-03
47698,6.37E-03,1.32E-02
47699,6.17E-03,5.61E-03
47700,5.71E-03,5.54E-03
47701,9.46E-03,8.44E-03
47702,9.72E-03,8.35E-03
47703,1.01E-02,8.26E-03
47704,1.01E-02,8.17E-03
47705,1.00E-02,8.07E-03
47706,9.85E-03,7.97E-03
47707,8.89E-03,7.87E-03
47708,8.62E-03,7.78E-03
47709,8.45E-03,7.69E-03
47710,8.19E-03,7.60E-03
47711,7.92E-03,7.51E-03
47712,7.72E-03,7.42E-03
47713,7.53E-03,7.34E-03
47714,7.32E-03,7.26E-03
47715,7.16E-03,7.18E-03
47716,7.05E-03,7.11E-03
47717,6.95E-03,7.03E-03
47718,6.85E-03,6.96E-03
47719,6.74E-03,6.89E-03
47720,6.63E-03,6.82E-03
47721,6.48E-03,6.75E-03
47722,6.31E-03,6.69E-03
47723,6.15E-03,6.63E-03
47724,5.98E-03,6.57E-03
47725,5.87E-03,6.51E-03
47726,5.83E-03,6.45E-03
47727,5.83E-03,6.40E-03
47728,5.82E-03,6.35E-03
47729,5.81E-03,6.30E-03
47730,5.81E-03,6.25E-03
47731,5.80E-03,6.20E-03
47732,5.78E-03,6.15E-03
47733,5.75E-03,6.10E-03
47734,5.72E-03,6.06E-03
47735,5.70E-03,6.02E-03
47736,5.67E-03,5.98E-03
47737,5.64E-03,5.94E-03
47738,5.63E-03,5.90E-03
47739,5.65E-03,5.86E-03
47740,5.69E-03,5.82E-03
47741,5.72E-03,5.79E-03
47742,5.77E-03,5.75E-03
47743,5.84E-03,5.72E-03
47744,5.92E-03,5.68E-03
47745,6.00E-03,5.65E-03
47746,6.11E-03,5.62E-03
47747,6.25E-03,5.59E-03
47748,6.39E-03,5.56E-03
47749,6.52E-03,5.53E-03
47750,6.62E-03,5.49E-03
47751,6.69E-03,5.46E-03
47752,6.75E-03,5.43E-03
47753,6.82E-03,5.40E-03
47754,6.88E-03,5.38E-03
47755,6.94E-03,5.35E-03
47756,7.00E-03,5.32E-03
47757,7.06E-03,5.29E-03
47758,7.12E-03,5.26E-03
47759,7.17E-03,5.23E-03
47760,7.23E-03,5.21E-03
47761,7.28E-03,5.18E-03
47762,7.32E-03,5.15E-03
47763,7.35E-03,5.12E-03
47764,7.38E-03,5.10E-03
47765,7.40E-03,5.07E-03
47766,7.43E-03,5.04E-03
47767,7.46E-03,5.01E-03
47768,7.49E-03,4.98E-03
47769,7.51E-03,4.96E-03
47770,7.55E-03,4.93E-03
47771,7.60E-03,4.90E-03
47772,7.65E-03,4.87E-03
47773,7.71E-03,4.84E-03
47774,7.75E-03,4.81E-03
47775,7.79E-03,4.78E-03
47776,7.81E-03,4.75E-03
47777,7.84E-03,4.72E-03
47778,7.86E-03,4.68E-03
47779,7.85E-03,4.65E-03
47780,7.81E-03,4.62E-03
47781,7.76E-03,4.58E-03
47782,7.45E-03,4.55E-03
47783,7.17E-03,4.51E-03
47784,7.02E-03,4.48E-03
47785,6.95E-03,4.45E-03
47786,6.75E-03,4.41E-03
47787,6.54E-03,4.38E-03
47788,6.24E-03,4.35E-03
47789,5.94E-03,4.32E-03
47790,5.74E-03,4.29E-03
47791,5.43E-03,4.26E-03
47792,5.06E-03,4.23E-03
47793,4.67E-03,4.21E-03
47794,4.14E-03,4.19E-03
47795,3.62E-03,4.17E-03
47796,3.46E-03,4.16E-03
47797,2.64E-03,4.13E-03
47798,2.60E-03,4.10E-03
47799,2.72E-03,4.08E-03
47800,2.49E-03,4.10E-03
47801,2.34E-03,4.13E-03
47802,3.06E-03,4.14E-03
47803,3.34E-03,4.15E-03
47804,3.45E-03,4.16E-03
47805,3.55E-03,4.17E-03
47806,3.57E-03,4.18E-03
47807,3.97E-03,4.20E-03
47808,4.22E-03,4.22E-03
47809,4.43E-03,4.24E-03
47810,4.74E-03,4.26E-03
47811,4.81E-03,4.29E-03
47812,5.13E-03,4.32E-03
47813,5.40E-03,4.36E-03
47814,5.60E-03,4.39E-03
47815,5.77E-03,4.43E-03
47816,5.90E-03,4.47E-03
47817,6.03E-03,4.52E-03
47818,6.15E-03,4.57E-03
47819,6.60E-03,4.62E-03
47820,7.42E-03,4.68E-03
47821,8.07E-03,4.75E-03
47822,8.58E-03,4.82E-03
47823,9.28E-03,4.90E-03
47824,9.94E-03,4.98E-03
47825,1.07E-02,5.07E-03
47826,1.07E-02,5.16E-03
47827,6.88E-03,5.23E-03
47828,6.84E-03,5.28E-03
47829,6.68E-03,5.34E-03
47830,6.61E-03,5.39E-03
47831,6.12E-03,5.47E-03
47832,8.75E-03,3.30E-02
47833,7.65E-03,9.63E-03
47834,5.27E-03,9.39E-03
47835,7.53E-03,9.39E-03
47836,6.40E-03,6.35E-03
47837,6.80E-03,6.22E-03
47838,6.10E-03,6.10E-03
47839,5.98E-03,5.99E-03
47840,5.89E-03,5.85E-03
47841,6.09E-03,5.68E-03
47842,7.50E-03,1.93E-02
47843,7.93E-03,1.93E-02
47844,8.71E-03,1.92E-02
47845,8.83E-03,1.91E-02
47846,8.98E-03,1.90E-02
47847,9.03E-03,1.90E-02
47848,8.37E-03,1.89E-02
47849,7.96E-03,1.88E-02
47850,7.76E-03,1.88E-02
47851,7.41E-03,1.87E-02
47852,7.05E-03,1.86E-02
47853,6.73E-03,1.86E-02
47854,6.40E-03,1.85E-02
47855,6.18E-03,1.85E-02
47856,6.05E-03,1.84E-02
47857,5.91E-03,1.84E-02
47858,5.86E-03,1.84E-02
47859,6.13E-03,1.83E-02
47860,6.03E-03,1.07E-02
47861,5.45E-03,1.08E-02
47862,6.85E-03,1.13E-02
47863,8.47E-03,7.74E-03
47864,8.21E-03,7.41E-03
47865,7.84E-03,1.92E-02
47866,8.60E-03,1.92E-02
47867,8.88E-03,1.91E-02
47868,1.03E-02,1.91E-02
47869,1.02E-02,1.90E-02
47870,1.03E-02,1.90E-02
47871,1.03E-02,1.90E-02
47872,1.01E-02,1.89E-02
47873,1.00E-02,1.89E-02
47874,9.56E-03,1.89E-02
47875,9.33E-03,1.88E-02
47876,9.29E-03,1.88E-02
47877,8.98E-03,1.88E-02
47878,8.87E-03,1.88E-02
47879,8.77E-03,1.88E-02
47880,8.69E-03,1.88E-02
47881,8.67E-03,1.88E-02
47882,8.67E-03,1.88E-02
47883,8.67E-03,1.88E-02
47884,8.62E-03,1.88E-02
47885,8.52E-03,1.88E-02
47886,8.40E-03,1.88E-02
47887,8.31E-03,1.88E-02
47888,8.26E-03,1.88E-02
47889,8.21E-03,1.88E-02
47890,8.18E-03,1.88E-02
47891,8.17E-03,1.88E-02
47892,8.17E-03,1.88E-02
47893,8.17E-03,1.88E-02
47894,8.16E-03,1.88E-02
47895,8.14E-03,1.88E-02
47896,8.12E-03,1.88E-02
47897,8.09E-03,1.88E-02
47898,8.07E-03,1.88E-02
47899,8.05E-03,1.88E-02
47900,8.03E-03,1.87E-02
47901,8.01E-03,1.87E-02
47902,8.00E-03,1.87E-02
47903,8.02E-03,1.87E-02
47904,8.04E-03,1.87E-02
47905,8.07E-03,1.86E-02
47906,8.10E-03,1.86E-02
47907,8.14E-03,1.86E-02
47908,8.16E-03,1.85E-02
47909,8.19E-03,1.85E-02
47910,8.22E-03,1.84E-02
47911,8.27E-03,1.84E-02
47912,8.35E-03,1.83E-02
47913,8.42E-03,1.83E-02
47914,8.47E-03,1.82E-02
47915,8.50E-03,1.82E-02
47916,8.53E-03,1.81E-02
47917,8.56E-03,1.81E-02
47918,8.59E-03,1.80E-02
47919,8.63E-03,1.80E-02
47920,8.67E-03,1.79E-02
47921,8.71E-03,1.78E-02
47922,8.76E-03,1.78E-02
47923,8.82E-03,1.77E-02
47924,8.90E-03,1.76E-02
47925,9.00E-03,1.76E-02
47926,9.09E-03,1.75E-02
47927,9.15E-03,1.74E-02
47928,9.16E-03,1.74E-02
47929,9.14E-03,1.73E-02
47930,9.10E-03,1.73E-02
47931,9.06E-03,1.72E-02
47932,9.03E-03,1.71E-02
47933,9.00E-03,1.71E-02
47934,8.96E-03,1.70E-02
47935,8.93E-03,1.70E-02
47936,8.93E-03,1.70E-02
47937,8.94E-03,1.69E-02
47938,8.84E-03,1.69E-02
47939,8.62E-03,1.68E-02
47940,8.37E-03,1.68E-02
47941,8.12E-03,1.68E-02
47942,7.95E-03,1.68E-02
47943,7.96E-03,1.68E-02
47944,8.01E-03,1.67E-02
47945,7.96E-03,1.67E-02
47946,7.85E-03,1.67E-02
47947,7.75E-03,1.67E-02
47948,7.66E-03,1.67E-02
47949,7.57E-03,1.67E-02
47950,7.46E-03,1.66E-02
47951,7.32E-03,1.66E-02
47952,7.17E-03,1.66E-02
47953,7.03E-03,1.66E-02
47954,6.95E-03,1.65E-02
47955,6.88E-03,1.65E-02
47956,6.83E-03,1.65E-02
47957,6.78E-03,1.64E-02
47958,6.75E-03,1.64E-02
47959,6.72E-03,1.63E-02
47960,6.68E-03,1.63E-02
47961,6.61E-03,1.62E-02
47962,6.54E-03,1.61E-02
47963,6.48E-03,1.61E-02
47964,6.48E-03,1.60E-02
47965,6.51E-03,1.59E-02
47966,6.55E-03,1.59E-02
47967,6.59E-03,1.58E-02
47968,6.64E-03,1.57E-02
47969,6.68E-03,1.56E-02
47970,6.72E-03,1.55E-02
47971,6.77E-03,1.54E-02
47972,6.81E-03,1.53E-02
47973,6.84E-03,1.52E-02
47974,6.86E-03,1.51E-02
47975,6.88E-03,1.50E-02
47976,6.89E-03,1.49E-02
47977,6.91E-03,1.48E-02
47978,6.92E-03,1.47E-02
47979,6.93E-03,1.46E-02
47980,6.91E-03,1.45E-02
47981,6.88E-03,1.44E-02
47982,6.84E-03,1.43E-02
47983,6.80E-03,1.42E-02
47984,6.76E-03,1.41E-02
47985,6.71E-03,1.40E-02
47986,6.65E-03,1.39E-02
47987,6.56E-03,1.38E-02
47988,6.45E-03,1.37E-02
47989,6.34E-03,1.36E-02
47990,6.23E-03,1.35E-02
47991,6.14E-03,1.34E-02
47992,6.10E-03,1.33E-02
47993,6.15E-03,1.32E-02
47994,6.20E-03,1.31E-02
47995,6.14E-03,1.31E-02
47996,6.13E-03,1.30E-02
47997,6.83E-03,1.29E-02
47998,9.01E-03,1.28E-02
47999,9.07E-03,1.26E-02
48000,9.39E-03,1.25E-02
48001,9.59E-03,1.24E-02
48002,9.44E-03,8.98E-03
48003,6.27E-03,8.94E-03
48004,8.27E-03,1.09E-02
48005,8.65E-03,1.11E-02
48006,8.20E-03,1.31E-02
48007,7.34E-03,1.33E-02
48008,7.61E-03,1.35E-02
48009,7.11E-03,1.95E-02
48010,7.89E-03,1.98E-02
48011,8.06E-03,1.98E-02
48012,7.06E-03,9.01E-03
48013,7.34E-03,8.82E-03
48014,7.82E-03,8.61E-03
48015,7.93E-03,8.39E-03
48016,7.98E-03,8.17E-03
48017,8.09E-03,7.95E-03
48018,8.09E-03,7.73E-03
48019,8.09E-03,7.51E-03
48020,8.09E-03,7.29E-03
48021,8.09E-03,7.07E-03
48022,8.09E-03,6.86E-03
48023,8.09E-03,6.64E-03
48024,8.09E-03,6.43E-03
48025,8.09E-03,6.22E-03
48026,8.09E-03,6.02E-03
48027,8.09E-03,5.82E-03
48028,8.09E-03,5.62E-03
48029,8.09E-03,5.43E-03
48030,8.09E-03,5.25E-03
48031,8.09E-03,5.07E-03
48032,8.09E-03,4.90E-03
48033,8.09E-03,4.74E-03
48034,8.09E-03,4.58E-03
48035,8.09E-03,4.44E-03
48036,8.09E-03,4.31E-03
48037,8.09E-03,4.19E-03
48038,8.09E-03,4.08E-03
48039,8.09E-03,3.98E-03
48040,8.09E-03,3.90E-03
48041,8.09E-03,3.84E-03
48042,8.09E-03,3.79E-03
48043,8.09E-03,3.76E-03
48044,8.09E-03,3.74E-03
48045,8.09E-03,3.74E-03
48046,8.09E-03,3.76E-03
48047,8.09E-03,3.79E-03
48048,8.09E-03,3.84E-03
48049,8.09E-03,3.90E-03
48050,8.09E-03,3.98E-03
48051,8.09E-03,4.06E-03
48052,8.09E-03,4.16E-03
48053,8.09E-03,4.27E-03
48054,8.09E-03,4.39E-03
48055,8.09E-03,4.51E-03
48056,8.09E-03,4.64E-03
48057,8.09E-03,4.78E-03
48058,8.09E-03,4.92E-03
48059,8.09E-03,5.07E-03
48060,8.09E-03,5.22E-03
48061,8.09E-03,5.37E-03
48062,8.09E-03,5.53E-03
48063,8.09E-03,5.69E-03
48064,8.09E-03,5.85E-03
48065,8.09E-03,6.01E-03
48066,8.09E-03,6.17E-03
48067,8.09E-03,6.33E-03
48068,8.09E-03,6.50E-03
48069,8.09E-03,6.66E-03
48070,8.09E-03,6.82E-03
48071,8.09E-03,6.98E-03
48072,8.09E-03,7.15E-03
48073,8.09E-03,7.31E-03
48074,8.09E-03,7.47E-03
48075,8.09E-03,7.63E-03
48076,8.09E-03,7.78E-03
48077,8.09E-03,7.94E-03
48078,8.09E-03,8.09E-03
48079,8.09E-03,8.24E-03
48080,8.09E-03,8.40E-03
48081,8.09E-03,8.54E-03
48082,8.09E-03,8.69E-03
48083,8.09E-03,8.84E-03
48084,8.09E-03,8.99E-03
48085,8.09E-03,9.13E-03
48086,8.13E-03,9.27E-03
48087,8.16E-03,9.41E-03
48088,7.98E-03,9.55E-03
48089,7.86E-03,9.68E-03
48090,7.71E-03,9.82E-03
48091,7.49E-03,9.95E-03
48092,7.28E-03,1.01E-02
48093,7.15E-03,1.02E-02
48094,7.23E-03,1.04E-02
48095,6.75E-03,9.55E-03
48096,7.54E-03,1.01E-02
48097,7.22E-03,2.71E-02
48098,7.52E-03,2.68E-02
48099,8.10E-03,1.46E-02
48100,8.10E-03,1.48E-02
48101,7.84E-03,1.37E-02
48102,9.32E-03,3.21E-02
48103,8.69E-03,1.36E-02
48104,8.44E-03,3.36E-02
48105,8.36E-03,3.38E-02
48106,7.55E-03,1.08E-02
48107,6.24E-03,1.18E-02
48108,8.10E-03,1.34E-02
48109,8.38E-03,1.01E-02
48110,7.72E-03,2.36E-02
48111,7.68E-03,2.64E-02
48112,7.32E-03,1.21E-02
48113,6.62E-03,1.21E-02
48114,8.96E-03,9.27E-03
48115,6.01E-03,9.83E-03
48116,6.68E-03,1.03E-02
48117,7.33E-03,1.33E-02
48118,7.85E-03,1.96E-02
48119,8.01E-03,1.96E-02
48120,9.29E-03,8.57E-03
48121,9.30E-03,8.49E-03
48122,9.32E-03,8.41E-03
48123,4.32E-03,5.41E-03
48124,9.45E-03,8.57E-03
48125,7.33E-03,9.18E-03
48126,8.88E-03,6.70E-03
48127,7.71E-03,6.41E-03
48128,8.80E-03,1.17E-02
48129,1.03E-02,1.22E-02
48130,9.81E-03,1.26E-02
48131,8.20E-03,1.32E-02
48132,8.16E-03,1.94E-02
48133,8.02E-03,1.16E-02
48134,7.67E-03,1.15E-02
48135,6.58E-03,1.25E-02
48136,7.43E-03,1.24E-02
48137,8.44E-03,9.83E-03
48138,6.05E-03,9.30E-03
48139,5.40E-03,9.48E-03
48140,8.80E-03,1.08E-02
48141,1.03E-02,1.07E-02
48142,1.08E-02,1.05E-02
48143,1.10E-02,1.04E-02
48144,1.08E-02,1.03E-02
48145,1.09E-02,1.01E-02
48146,1.10E-02,9.99E-03
48147,1.10E-02,9.87E-03
48148,1.10E-02,9.76E-03
48149,1.08E-02,9.66E-03
48150,1.07E-02,9.57E-03
48151,1.06E-02,9.49E-03
48152,1.04E-02,9.41E-03
48153,1.03E-02,9.34E-03
48154,1.02E-02,9.28E-03
48155,1.01E-02,9.23E-03
48156,1.00E-02,9.18E-03
48157,9.85E-03,9.14E-03
48158,9.65E-03,9.10E-03
48159,9.44E-03,9.07E-03
48160,9.25E-03,9.04E-03
48161,9.13E-03,9.02E-03
48162,9.05E-03,9.01E-03
48163,8.96E-03,8.99E-03
48164,8.89E-03,8.98E-03
48165,8.82E-03,8.98E-03
48166,8.76E-03,8.98E-03
48167,8.70E-03,8.98E-03
48168,8.63E-03,8.98E-03
48169,8.55E-03,8.99E-03
48170,8.47E-03,9.00E-03
48171,8.38E-03,9.01E-03
48172,8.30E-03,9.03E-03
48173,8.22E-03,9.04E-03
48174,8.18E-03,9.07E-03
48175,8.16E-03,9.09E-03
48176,8.13E-03,9.11E-03
48177,7.92E-03,9.14E-03
48178,7.88E-03,9.17E-03
48179,7.71E-03,9.20E-03
48180,7.58E-03,9.24E-03
48181,7.37E-03,9.27E-03
48182,7.24E-03,9.31E-03
48183,7.10E-03,9.35E-03
48184,6.89E-03,9.38E-03
48185,6.77E-03,9.42E-03
48186,6.59E-03,9.46E-03
48187,6.39E-03,9.50E-03
48188,6.17E-03,9.54E-03
48189,5.95E-03,9.58E-03
48190,5.75E-03,9.62E-03
48191,5.46E-03,9.66E-03
48192,5.22E-03,9.70E-03
48193,5.03E-03,9.73E-03
48194,4.62E-03,9.77E-03
48195,4.30E-03,9.80E-03
48196,3.98E-03,9.82E-03
48197,3.94E-03,9.85E-03
48198,3.92E-03,9.88E-03
48199,3.92E-03,9.91E-03
48200,4.00E-03,9.94E-03
48201,4.10E-03,9.97E-03
48202,4.25E-03,1.00E-02
48203,4.36E-03,1.00E-02
48204,4.68E-03,1.01E-02
48205,4.76E-03,1.01E-02
48206,4.85E-03,1.01E-02
48207,4.95E-03,1.02E-02
48208,4.67E-03,1.02E-02
48209,4.45E-03,1.02E-02
48210,4.49E-03,1.03E-02
48211,5.04E-03,1.03E-02
48212,5.47E-03,1.04E-02
48213,5.93E-03,1.04E-02
48214,6.53E-03,1.05E-02
48215,7.84E-03,1.99E-02
48216,7.91E-03,1.99E-02
48217,7.95E-03,1.97E-02
48218,8.23E-03,1.99E-02
48219,7.35E-03,1.95E-02
48220,3.76E-03,1.06E-02
48221,4.31E-03,1.06E-02
48222,4.42E-03,1.05E-02
48223,4.54E-03,1.05E-02
48224,4.66E-03,1.05E-02
48225,4.97E-03,1.05E-02
48226,5.46E-03,1.05E-02
48227,5.74E-03,1.05E-02
48228,5.92E-03,1.04E-02
48229,6.56E-03,1.03E-02
48230,6.80E-03,1.03E-02
48231,6.96E-03,1.02E-02
48232,7.05E-03,1.01E-02
48233,7.14E-03,1.01E-02
48234,7.23E-03,9.97E-03
48235,7.32E-03,9.89E-03
48236,7.41E-03,9.80E-03
48237,7.50E-03,9.70E-03
48238,7.58E-03,9.61E-03
48239,7.62E-03,9.51E-03
48240,7.65E-03,9.41E-03
48241,7.67E-03,9.31E-03
48242,7.69E-03,9.20E-03
48243,7.71E-03,9.10E-03
48244,7.73E-03,8.99E-03
48245,7.75E-03,8.89E-03
48246,7.77E-03,8.78E-03
48247,7.79E-03,8.68E-03
48248,7.81E-03,8.57E-03
48249,7.83E-03,8.47E-03
48250,7.84E-03,8.38E-03
48251,7.86E-03,8.28E-03
48252,7.87E-03,8.20E-03
48253,7.88E-03,8.11E-03
48254,7.90E-03,8.04E-03
48255,7.91E-03,7.97E-03
48256,7.92E-03,7.90E-03
48257,7.93E-03,7.85E-03
48258,7.94E-03,7.81E-03
48259,7.95E-03,7.77E-03
48260,7.96E-03,7.75E-03
48261,7.97E-03,7.73E-03
48262,7.97E-03,7.73E-03
48263,7.97E-03,7.74E-03
48264,7.97E-03,7.76E-03
48265,7.97E-03,7.79E-03
48266,7.97E-03,7.84E-03
48267,7.97E-03,7.89E-03
48268,7.97E-03,7.96E-03
48269,7.97E-03,8.03E-03
48270,7.96E-03,8.12E-03
48271,7.94E-03,8.21E-03
48272,7.93E-03,8.31E-03
48273,7.91E-03,8.42E-03
48274,7.90E-03,8.54E-03
48275,7.88E-03,8.67E-03
48276,7.87E-03,8.80E-03
48277,7.86E-03,8.94E-03
48278,7.84E-03,9.08E-03
48279,7.83E-03,9.22E-03
48280,7.80E-03,9.37E-03
48281,7.77E-03,9.52E-03
48282,7.73E-03,9.68E-03
48283,7.70E-03,9.83E-03
48284,7.66E-03,9.99E-03
48285,7.62E-03,1.02E-02
48286,7.58E-03,1.03E-02
48287,7.55E-03,1.05E-02
48288,7.51E-03,1.06E-02
48289,7.48E-03,1.08E-02
48290,7.46E-03,1.10E-02
48291,7.43E-03,1.11E-02
48292,7.41E-03,1.13E-02
48293,7.38E-03,1.14E-02
48294,7.35E-03,1.16E-02
48295,7.32E-03,1.17E-02
48296,7.29E-03,1.19E-02
48297,7.25E-03,1.20E-02
48298,7.21E-03,1.22E-02
48299,7.18E-03,1.24E-02
48300,7.13E-03,1.25E-02
48301,7.07E-03,1.26E-02
48302,7.00E-03,1.28E-02
48303,6.92E-03,1.29E-02
48304,6.85E-03,1.31E-02
48305,6.78E-03,1.32E-02
48306,6.74E-03,1.34E-02
48307,6.73E-03,1.35E-02
48308,6.73E-03,1.36E-02
48309,6.73E-03,1.38E-02
48310,6.76E-03,1.39E-02
48311,6.79E-03,1.40E-02
48312,6.81E-03,1.42E-02
48313,6.83E-03,1.43E-02
48314,6.85E-03,1.44E-02
48315,6.87E-03,1.46E-02
48316,6.89E-03,1.47E-02
48317,6.91E-03,1.48E-02
48318,6.93E-03,1.50E-02
48319,6.95E-03,1.51E-02
48320,6.96E-03,1.52E-02
48321,6.98E-03,1.54E-02
48322,7.00E-03,1.55E-02
48323,7.01E-03,1.56E-02
48324,7.03E-03,1.58E-02
48325,7.05E-03,1.59E-02
48326,7.07E-03,1.60E-02
48327,7.08E-03,1.62E-02
48328,7.08E-03,1.63E-02
48329,7.08E-03,1.64E-02
48330,7.11E-03,1.66E-02
48331,7.16E-03,1.67E-02
48332,7.23E-03,1.69E-02
48333,7.29E-03,1.70E-02
48334,7.34E-03,1.71E-02
48335,7.36E-03,1.73E-02
48336,7.23E-03,1.74E-02
48337,7.20E-03,1.76E-02
48338,7.16E-03,1.77E-02
48339,7.30E-03,1.78E-02
48340,7.78E-03,1.80E-02
48341,7.06E-03,1.82E-02
48342,8.10E-03,1.45E-02
48343,8.10E-03,1.47E-02
48344,8.47E-03,2.08E-02
48345,8.37E-03,2.94E-02
48346,6.78E-03,3.07E-02
48347,7.24E-03,3.14E-02
48348,8.53E-03,3.20E-02
48349,8.79E-03,3.23E-02
48350,7.89E-03,1.11E-02
48351,5.62E-03,1.21E-02
48352,5.75E-03,1.21E-02
48353,5.90E-03,1.21E-02
48354,8.10E-03,1.35E-02
48355,8.41E-03,2.27E-02
48356,7.65E-03,2.32E-02
48357,6.87E-03,1.07E-02
48358,6.59E-03,1.08E-02
48359,6.18E-03,1.09E-02
48360,7.48E-03,1.08E-02
48361,4.59E-03,1.33E-02
48362,4.58E-03,1.32E-02
48363,5.34E-03,1.32E-02
48364,4.90E-03,1.32E-02
48365,4.88E-03,1.33E-02
48366,5.01E-03,1.33E-02
48367,5.05E-03,1.33E-02
48368,5.44E-03,1.33E-02
48369,5.46E-03,1.33E-02
48370,5.65E-03,1.33E-02
48371,5.73E-03,1.33E-02
48372,5.78E-03,1.33E-02
48373,5.76E-03,1.32E-02
48374,5.57E-03,1.32E-02
48375,5.74E-03,1.32E-02
48376,6.49E-03,1.32E-02
48377,7.14E-03,1.32E-02
48378,7.54E-03,1.31E-02
48379,8.09E-03,1.31E-02
48380,8.40E-03,1.30E-02
48381,8.88E-03,1.29E-02
48382,9.32E-03,1.29E-02
48383,9.87E-03,1.28E-02
48384,1.04E-02,1.27E-02
48385,1.08E-02,1.26E-02
48386,1.10E-02,1.26E-02
48387,1.07E-02,1.25E-02
48388,1.03E-02,1.24E-02
48389,1.03E-02,1.23E-02
48390,9.89E-03,1.23E-02
48391,9.94E-03,1.22E-02
48392,9.50E-03,1.21E-02
48393,7.84E-03,1.21E-02
48394,8.10E-03,1.44E-02
48395,8.10E-03,1.47E-02
48396,8.04E-03,2.13E-02
48397,7.37E-03,2.89E-02
48398,9.37E-03,2.92E-02
48399,8.30E-03,1.37E-02
48400,8.10E-03,1.36E-02
48401,1.06E-02,1.21E-02
48402,1.15E-02,1.18E-02
48403,1.19E-02,1.17E-02
48404,1.14E-02,1.15E-02
48405,1.15E-02,1.14E-02
48406,1.14E-02,1.12E-02
48407,1.13E-02,1.10E-02
48408,1.12E-02,1.08E-02
48409,1.12E-02,1.07E-02
48410,1.11E-02,1.05E-02
48411,1.08E-02,1.03E-02
48412,1.07E-02,1.02E-02
48413,1.04E-02,1.00E-02
48414,9.48E-03,9.85E-03
48415,7.35E-03,9.72E-03
48416,7.33E-03,9.61E-03
48417,7.31E-03,9.50E-03
48418,7.24E-03,9.39E-03
48419,7.36E-03,9.28E-03
48420,7.78E-03,9.17E-03
48421,9.41E-03,8.79E-03
48422,7.35E-03,1.12E-02
48423,8.10E-03,1.15E-02
48424,8.09E-03,1.13E-02
48425,8.09E-03,1.12E-02
48426,8.09E-03,1.11E-02
48427,8.09E-03,1.09E-02
48428,8.09E-03,1.08E-02
48429,8.09E-03,1.06E-02
48430,8.09E-03,1.05E-02
48431,8.09E-03,1.03E-02
48432,8.09E-03,1.02E-02
48433,8.09E-03,1.00E-02
48434,8.09E-03,9.86E-03
48435,8.09E-03,9.70E-03
48436,8.09E-03,9.54E-03
48437,8.09E-03,9.38E-03
48438,8.09E-03,9.22E-03
48439,8.09E-03,9.05E-03
48440,8.09E-03,8.89E-03
48441,8.09E-03,8.72E-03
48442,8.09E-03,8.55E-03
48443,8.09E-03,8.38E-03
48444,8.09E-03,8.21E-03
48445,8.09E-03,8.05E-03
48446,8.09E-03,7.88E-03
48447,8.09E-03,7.71E-03
48448,8.09E-03,7.54E-03
48449,8.09E-03,7.37E-03
48450,8.09E-03,7.20E-03
48451,8.09E-03,7.04E-03
48452,8.09E-03,6.87E-03
48453,8.09E-03,6.71E-03
48454,8.09E-03,6.55E-03
48455,8.09E-03,6.39E-03
48456,8.09E-03,6.23E-03
48457,8.09E-03,6.08E-03
48458,8.09E-03,5.93E-03
48459,8.09E-03,5.79E-03
48460,8.09E-03,5.65E-03
48461,8.09E-03,5.51E-03
48462,8.09E-03,5.39E-03
48463,8.09E-03,5.26E-03
48464,8.09E-03,5.15E-03
48465,8.09E-03,5.05E-03
48466,8.09E-03,4.95E-03
48467,8.09E-03,4.87E-03
48468,8.09E-03,4.79E-03
48469,8.09E-03,4.73E-03
48470,8.09E-03,4.68E-03
48471,8.09E-03,4.64E-03
48472,8.09E-03,4.61E-03
48473,8.09E-03,4.60E-03
48474,8.09E-03,4.61E-03
48475,8.09E-03,4.62E-03
48476,8.09E-03,4.66E-03
48477,8.09E-03,4.70E-03
48478,8.09E-03,4.76E-03
48479,8.09E-03,4.83E-03
48480,8.09E-03,4.92E-03
48481,8.09E-03,5.02E-03
48482,8.09E-03,5.13E-03
48483,8.09E-03,5.25E-03
48484,8.09E-03,5.39E-03
48485,8.09E-03,5.53E-03
48486,8.09E-03,5.68E-03
48487,8.09E-03,5.84E-03
48488,8.09E-03,6.01E-03
48489,8.09E-03,6.19E-03
48490,8.09E-03,6.38E-03
48491,8.09E-03,6.57E-03
48492,8.09E-03,6.76E-03
48493,8.09E-03,6.97E-03
48494,8.09E-03,7.18E-03
48495,8.09E-03,7.39E-03
48496,8.09E-03,7.61E-03
48497,8.09E-03,7.83E-03
48498,8.09E-03,8.05E-03
48499,8.09E-03,8.28E-03
48500,8.09E-03,8.52E-03
48501,8.09E-03,8.75E-03
48502,8.09E-03,8.99E-03
48503,8.09E-03,9.24E-03
48504,8.09E-03,9.48E-03
48505,8.09E-03,9.73E-03
48506,8.11E-03,9.98E-03
48507,8.17E-03,1.02E-02
48508,8.23E-03,1.05E-02
48509,8.09E-03,1.07E-02
48510,7.77E-03,1.10E-02
48511,7.34E-03,1.12E-02
48512,7.25E-03,1.15E-02
48513,7.53E-03,1.18E-02
48514,8.61E-03,1.20E-02
48515,7.82E-03,1.23E-02
48516,7.23E-03,2.23E-02
48517,7.44E-03,2.19E-02
48518,8.10E-03,1.17E-02
48519,8.10E-03,1.43E-02
48520,8.10E-03,1.47E-02
48521,8.44E-03,1.13E-02
48522,8.10E-03,1.37E-02
48523,6.35E-03,2.82E-02
48524,1.01E-02,2.87E-02
48525,8.10E-03,1.18E-02
48526,8.10E-03,1.42E-02
48527,8.10E-03,1.46E-02
48528,8.10E-03,1.38E-02
48529,8.10E-03,1.40E-02
48530,8.10E-03,1.46E-02
48531,8.10E-03,1.39E-02
48532,8.10E-03,1.39E-02
48533,8.10E-03,1.46E-02
48534,8.10E-03,1.39E-02
48535,8.10E-03,1.25E-02
48536,8.10E-03,1.23E-02
48537,8.10E-03,1.22E-02
48538,8.10E-03,1.20E-02
48539,8.10E-03,1.38E-02
48540,7.71E-03,1.45E-02
48541,8.10E-03,1.40E-02
48542,8.10E-03,1.26E-02
48543,8.10E-03,1.37E-02
48544,7.71E-03,1.45E-02
48545,8.07E-03,1.41E-02
48546,8.10E-03,1.28E-02
48547,8.10E-03,1.35E-02
48548,7.71E-03,1.44E-02
48549,8.08E-03,1.42E-02
48550,8.10E-03,1.34E-02
48551,7.77E-03,1.44E-02
48552,8.19E-03,1.42E-02
48553,8.10E-03,1.29E-02
48554,8.10E-03,1.32E-02
48555,8.00E-03,1.43E-02
48556,8.10E-03,1.31E-02
48557,8.09E-03,3.22E-02
48558,7.67E-03,3.25E-02
48559,7.71E-03,3.29E-02
48560,7.91E-03,8.79E-03
48561,5.95E-03,9.21E-03
48562,7.29E-03,3.33E-02
48563,8.10E-03,1.47E-02
48564,8.10E-03,1.47E-02
48565,9.81E-03,1.98E-02
48566,9.73E-03,1.94E-02
48567,9.99E-03,1.89E-02
48568,8.25E-03,1.84E-02
48569,8.19E-03,1.80E-02
48570,8.15E-03,1.76E-02
48571,8.11E-03,1.72E-02
48572,8.01E-03,1.68E-02
48573,8.01E-03,1.64E-02
48574,8.01E-03,1.60E-02
48575,8.01E-03,1.56E-02
48576,7.95E-03,1.52E-02
48577,7.87E-03,1.48E-02
48578,7.85E-03,1.44E-02
48579,7.78E-03,1.41E-02
48580,7.68E-03,3.30E-02
48581,8.17E-03,3.26E-02
48582,8.70E-03,1.34E-02
48583,8.91E-03,1.34E-02
48584,9.08E-03,1.35E-02
48585,8.87E-03,1.37E-02
48586,8.60E-03,1.39E-02
48587,8.50E-03,1.41E-02
48588,6.78E-03,1.43E-02
48589,6.19E-03,1.44E-02
48590,5.90E-03,1.46E-02
48591,5.52E-03,1.48E-02
48592,5.02E-03,1.50E-02
48593,4.80E-03,1.52E-02
48594,4.98E-03,1.54E-02
48595,5.36E-03,1.56E-02
48596,5.63E-03,1.59E-02
48597,5.78E-03,1.61E-02
48598,5.92E-03,1.64E-02
48599,6.06E-03,1.67E-02
48600,6.19E-03,1.71E-02
48601,6.24E-03,1.74E-02
48602,6.23E-03,1.78E-02
48603,6.21E-03,1.82E-02
48604,6.19E-03,1.86E-02
48605,6.07E-03,1.90E-02
48606,5.95E-03,1.94E-02
48607,5.87E-03,1.98E-02
48608,5.71E-03,2.03E-02
48609,5.53E-03,2.07E-02
48610,5.29E-03,2.11E-02
48611,5.13E-03,2.15E-02
48612,4.66E-03,2.19E-02
48613,4.45E-03,2.23E-02
48614,3.89E-03,2.26E-02
48615,3.54E-03,2.29E-02
48616,3.31E-03,2.32E-02
48617,3.10E-03,2.35E-02
48618,3.02E-03,2.37E-02
48619,2.99E-03,2.40E-02
48620,3.05E-03,2.42E-02
48621,3.09E-03,2.44E-02
48622,3.91E-03,2.47E-02
48623,4.37E-03,2.51E-02
48624,4.70E-03,2.54E-02
48625,4.85E-03,2.58E-02
48626,4.98E-03,2.62E-02
48627,5.19E-03,2.66E-02
48628,5.41E-03,2.69E-02
48629,5.62E-03,2.73E-02
48630,5.78E-03,2.77E-02
48631,5.89E-03,2.81E-02
48632,6.01E-03,2.85E-02
48633,6.11E-03,2.89E-02
48634,6.11E-03,2.93E-02
48635,6.07E-03,2.97E-02
48636,6.02E-03,3.00E-02
48637,5.97E-03,3.04E-02
48638,5.92E-03,3.07E-02
48639,5.70E-03,3.10E-02
48640,5.20E-03,3.13E-02
48641,4.75E-03,3.15E-02
48642,4.56E-03,3.18E-02
48643,4.34E-03,3.20E-02
48644,4.30E-03,3.22E-02
48645,4.71E-03,3.24E-02
48646,5.24E-03,3.26E-02
48647,5.64E-03,3.28E-02
48648,5.95E-03,3.30E-02
48649,6.31E-03,3.31E-02
48650,6.76E-03,3.33E-02
48651,7.22E-03,3.34E-02
48652,7.53E-03,3.36E-02
48653,7.68E-03,3.37E-02
48654,7.81E-03,3.38E-02
48655,7.94E-03,3.38E-02
48656,8.16E-03,3.39E-02
48657,8.23E-03,3.39E-02
48658,8.46E-03,3.39E-02
48659,8.45E-03,3.39E-02
48660,8.38E-03,3.39E-02
48661,7.90E-03,1.08E-02
48662,9.25E-03,1.08E-02
48663,1.10E-02,1.08E-02
48664,1.03E-02,1.08E-02
48665,1.00E-02,1.09E-02
48666,9.85E-03,1.09E-02
48667,9.81E-03,1.10E-02
48668,9.18E-03,1.10E-02
48669,9.17E-03,1.10E-02
48670,8.74E-03,1.11E-02
48671,8.69E-03,1.11E-02
48672,8.25E-03,1.12E-02
48673,8.11E-03,1.12E-02
48674,8.12E-03,1.13E-02
48675,7.84E-03,1.13E-02
48676,7.28E-03,1.14E-02
48677,6.86E-03,1.14E-02
48678,6.81E-03,1.14E-02
48679,6.85E-03,1.15E-02
48680,6.80E-03,1.15E-02
48681,6.79E-03,1.15E-02
48682,6.83E-03,1.15E-02
48683,6.86E-03,1.16E-02
48684,6.89E-03,1.16E-02
48685,6.89E-03,1.16E-02
48686,6.89E-03,1.16E-02
48687,7.00E-03,1.17E-02
48688,7.13E-03,1.17E-02
48689,7.23E-03,1.17E-02
48690,7.62E-03,1.17E-02
48691,8.10E-03,1.17E-02
48692,8.44E-03,1.17E-02
48693,8.61E-03,1.17E-02
48694,8.71E-03,1.18E-02
48695,8.95E-03,1.18E-02
48696,9.25E-03,1.18E-02
48697,8.09E-03,1.32E-02
48698,8.09E-03,1.30E-02
48699,8.09E-03,1.29E-02
48700,8.09E-03,1.27E-02
48701,8.09E-03,1.25E-02
48702,8.09E-03,1.23E-02
48703,8.09E-03,1.21E-02
48704,8.09E-03,1.19E-02
48705,8.09E-03,1.17E-02
48706,8.09E-03,1.15E-02
48707,8.09E-03,1.14E-02
48708,8.05E-03,1.12E-02
48709,8.05E-03,1.10E-02
48710,8.09E-03,1.07E-02
48711,8.38E-03,1.03E-02
48712,8.24E-03,1.05E-02
48713,7.78E-03,2.40E-02
48714,8.30E-03,2.44E-02
48715,8.39E-03,2.48E-02
48716,8.29E-03,2.52E-02
48717,8.04E-03,2.56E-02
48718,7.83E-03,2.60E-02
48719,5.60E-03,1.21E-02
48720,9.29E-03,8.64E-03
48721,9.18E-03,8.71E-03
48722,6.01E-03,9.57E-03
48723,4.84E-03,9.85E-03
48724,6.51E-03,1.00E-02
48725,7.60E-03,1.34E-02
48726,6.06E-03,1.98E-02
48727,7.50E-03,1.98E-02
48728,9.39E-03,8.32E-03
48729,9.76E-03,8.23E-03
48730,1.01E-02,8.13E-03
48731,1.01E-02,8.03E-03
48732,9.92E-03,7.93E-03
48733,9.75E-03,7.83E-03
48734,8.77E-03,7.74E-03
48735,8.61E-03,7.65E-03
48736,8.38E-03,7.55E-03
48737,8.16E-03,7.47E-03
48738,7.98E-03,7.38E-03
48739,7.74E-03,7.29E-03
48740,7.55E-03,7.21E-03
48741,7.35E-03,7.13E-03
48742,7.20E-03,7.05E-03
48743,7.09E-03,6.97E-03
48744,7.00E-03,6.90E-03
48745,6.90E-03,6.82E-03
48746,6.80E-03,6.75E-03
48747,6.69E-03,6.68E-03
48748,6.54E-03,6.61E-03
48749,6.38E-03,6.55E-03
48750,6.22E-03,6.49E-03
48751,6.07E-03,6.43E-03
48752,5.96E-03,6.37E-03
48753,5.92E-03,6.31E-03
48754,5.92E-03,6.26E-03
48755,5.91E-03,6.21E-03
48756,5.91E-03,6.15E-03
48757,5.90E-03,6.10E-03
48758,5.89E-03,6.05E-03
48759,5.87E-03,6.01E-03
48760,5.85E-03,5.96E-03
48761,5.82E-03,5.91E-03
48762,5.79E-03,5.87E-03
48763,5.77E-03,5.83E-03
48764,5.74E-03,5.79E-03
48765,5.73E-03,5.75E-03
48766,5.75E-03,5.71E-03
48767,5.78E-03,5.67E-03
48768,5.82E-03,5.64E-03
48769,5.87E-03,5.60E-03
48770,5.94E-03,5.57E-03
48771,6.00E-03,5.53E-03
48772,6.08E-03,5.50E-03
48773,6.19E-03,5.47E-03
48774,6.32E-03,5.44E-03
48775,6.46E-03,5.40E-03
48776,6.59E-03,5.37E-03
48777,6.68E-03,5.34E-03
48778,6.74E-03,5.31E-03
48779,6.81E-03,5.28E-03
48780,6.87E-03,5.25E-03
48781,6.93E-03,5.22E-03
48782,6.99E-03,5.19E-03
48783,7.04E-03,5.16E-03
48784,7.10E-03,5.14E-03
48785,7.16E-03,5.11E-03
48786,7.21E-03,5.08E-03
48787,7.27E-03,5.05E-03
48788,7.32E-03,5.02E-03
48789,7.35E-03,5.00E-03
48790,7.38E-03,4.97E-03
48791,7.41E-03,4.94E-03
48792,7.43E-03,4.91E-03
48793,7.46E-03,4.88E-03
48794,7.48E-03,4.86E-03
48795,7.51E-03,4.83E-03
48796,7.54E-03,4.80E-03
48797,7.57E-03,4.77E-03
48798,7.62E-03,4.74E-03
48799,7.67E-03,4.71E-03
48800,7.72E-03,4.68E-03
48801,7.77E-03,4.65E-03
48802,7.80E-03,4.62E-03
48803,7.82E-03,4.59E-03
48804,7.85E-03,4.56E-03
48805,7.87E-03,4.53E-03
48806,7.86E-03,4.49E-03
48807,7.82E-03,4.46E-03
48808,7.72E-03,4.42E-03
48809,7.51E-03,4.39E-03
48810,7.15E-03,4.35E-03
48811,7.07E-03,4.32E-03
48812,6.98E-03,4.29E-03
48813,6.80E-03,4.25E-03
48814,6.64E-03,4.22E-03
48815,6.25E-03,4.19E-03
48816,6.08E-03,4.16E-03
48817,5.81E-03,4.13E-03
48818,5.48E-03,4.10E-03
48819,5.11E-03,4.08E-03
48820,4.78E-03,4.05E-03
48821,4.28E-03,4.04E-03
48822,3.84E-03,4.02E-03
48823,3.63E-03,4.01E-03
48824,3.23E-03,3.99E-03
48825,2.90E-03,3.96E-03
48826,2.76E-03,3.95E-03
48827,2.61E-03,3.93E-03
48828,2.88E-03,3.96E-03
48829,2.82E-03,3.95E-03
48830,3.07E-03,3.96E-03
48831,3.35E-03,3.96E-03
48832,3.42E-03,3.98E-03
48833,3.60E-03,3.99E-03
48834,3.79E-03,4.01E-03
48835,4.04E-03,4.02E-03
48836,4.41E-03,4.04E-03
48837,4.65E-03,4.06E-03
48838,4.73E-03,4.08E-03
48839,4.96E-03,4.11E-03
48840,5.30E-03,4.14E-03
48841,5.51E-03,4.17E-03
48842,5.71E-03,4.21E-03
48843,5.87E-03,4.25E-03
48844,5.99E-03,4.29E-03
48845,6.11E-03,4.33E-03
48846,6.23E-03,4.38E-03
48847,6.66E-03,4.43E-03
48848,7.45E-03,4.48E-03
48849,8.07E-03,4.54E-03
48850,8.56E-03,4.61E-03
48851,9.23E-03,4.69E-03
48852,9.86E-03,4.76E-03
48853,1.06E-02,4.85E-03
48854,1.06E-02,4.93E-03
48855,6.90E-03,5.00E-03
48856,6.85E-03,5.05E-03
48857,6.70E-03,5.11E-03
48858,6.60E-03,5.15E-03
48859,6.01E-03,5.27E-03
48860,6.96E-03,5.20E-03
48861,8.18E-03,3.34E-02
48862,6.90E-03,8.61E-03
48863,7.15E-03,9.18E-03
48864,8.55E-03,2.70E-02
48865,8.21E-03,2.73E-02
48866,6.88E-03,6.14E-03
48867,8.68E-03,6.11E-03
48868,8.17E-03,1.31E-02
48869,7.40E-03,1.25E-02
48870,7.38E-03,1.29E-02
48871,8.19E-03,1.96E-02
48872,7.59E-03,1.99E-02
48873,7.79E-03,1.17E-02
48874,7.66E-03,1.16E-02
48875,9.09E-03,1.33E-02
48876,7.75E-03,1.34E-02
48877,7.57E-03,1.36E-02
48878,8.35E-03,1.22E-02
48879,8.42E-03,1.17E-02
48880,5.42E-03,1.28E-02
48881,6.46E-03,1.28E-02
48882,9.02E-03,9.72E-03
48883,7.37E-03,9.60E-03
48884,7.35E-03,8.98E-03
48885,7.52E-03,8.79E-03
48886,7.80E-03,8.58E-03
48887,7.92E-03,8.37E-03
48888,7.97E-03,8.15E-03
48889,8.09E-03,7.93E-03
48890,8.09E-03,7.71E-03
48891,8.09E-03,7.49E-03
48892,8.09E-03,7.27E-03
48893,8.09E-03,7.05E-03
48894,8.09E-03,6.84E-03
48895,8.09E-03,6.63E-03
48896,8.09E-03,6.42E-03
48897,8.09E-03,6.21E-03
48898,8.09E-03,6.01E-03
48899,8.09E-03,5.81E-03
48900,8.09E-03,5.61E-03
48901,8.09E-03,5.43E-03
48902,8.09E-03,5.24E-03
48903,8.09E-03,5.06E-03
48904,8.09E-03,4.89E-03
48905,8.09E-03,4.73E-03
48906,8.09E-03,4.58E-03
48907,8.09E-03,4.43E-03
48908,8.09E-03,4.30E-03
48909,8.09E-03,4.18E-03
48910,8.09E-03,4.07E-03
48911,8.09E-03,3.98E-03
48912,8.09E-03,3.90E-03
48913,8.09E-03,3.83E-03
48914,8.09E-03,3.78E-03
48915,8.09E-03,3.75E-03
48916,8.09E-03,3.73E-03
48917,8.09E-03,3.73E-03
48918,8.09E-03,3.75E-03
48919,8.09E-03,3.78E-03
48920,8.09E-03,3.83E-03
48921,8.09E-03,3.89E-03
48922,8.09E-03,3.97E-03
48923,8.09E-03,4.05E-03
48924,8.09E-03,4.15E-03
48925,8.09E-03,4.26E-03
48926,8.09E-03,4.38E-03
48927,8.09E-03,4.50E-03
48928,8.09E-03,4.63E-03
48929,8.09E-03,4.77E-03
48930,8.09E-03,4.91E-03
48931,8.09E-03,5.06E-03
48932,8.09E-03,5.21E-03
48933,8.09E-03,5.37E-03
48934,8.09E-03,5.52E-03
48935,8.09E-03,5.68E-03
48936,8.09E-03,5.84E-03
48937,8.09E-03,6.01E-03
48938,8.09E-03,6.17E-03
48939,8.09E-03,6.33E-03
48940,8.09E-03,6.50E-03
48941,8.09E-03,6.66E-03
48942,8.09E-03,6.82E-03
48943,8.09E-03,6.99E-03
48944,8.09E-03,7.15E-03
48945,8.09E-03,7.31E-03
48946,8.09E-03,7.47E-03
48947,8.09E-03,7.63E-03
48948,8.09E-03,7.79E-03
48949,8.09E-03,7.95E-03
48950,8.09E-03,8.11E-03
48951,8.09E-03,8.26E-03
48952,8.09E-03,8.41E-03
48953,8.09E-03,8.56E-03
48954,8.09E-03,8.71E-03
48955,8.09E-03,8.86E-03
48956,8.09E-03,9.01E-03
48957,8.09E-03,9.16E-03
48958,8.09E-03,9.30E-03
48959,8.09E-03,9.45E-03
48960,7.94E-03,9.58E-03
48961,7.80E-03,9.72E-03
48962,7.73E-03,9.85E-03
48963,7.58E-03,9.99E-03
48964,7.48E-03,1.01E-02
48965,7.49E-03,1.02E-02
48966,7.82E-03,1.04E-02
48967,7.22E-03,1.06E-02
48968,9.35E-03,8.18E-03
48969,8.59E-03,7.81E-03
48970,7.94E-03,2.00E-02
48971,8.06E-03,2.00E-02
48972,8.20E-03,1.97E-02
48973,8.74E-03,2.00E-02
48974,7.02E-03,5.98E-03
48975,6.49E-03,5.84E-03
48976,6.10E-03,5.73E-03
48977,5.66E-03,5.62E-03
48978,5.63E-03,5.47E-03
48979,3.97E-03,5.35E-03
48980,3.50E-03,5.19E-03
48981,7.87E-03,1.95E-02
48982,8.12E-03,1.95E-02
48983,8.75E-03,1.94E-02
48984,8.95E-03,1.93E-02
48985,9.00E-03,1.92E-02
48986,9.05E-03,1.91E-02
48987,8.57E-03,1.91E-02
48988,8.07E-03,1.90E-02
48989,7.85E-03,1.89E-02
48990,7.49E-03,1.89E-02
48991,7.23E-03,1.88E-02
48992,6.49E-03,1.88E-02
48993,6.22E-03,1.87E-02
48994,6.02E-03,1.87E-02
48995,5.83E-03,1.86E-02
48996,5.56E-03,1.86E-02
48997,5.34E-03,1.86E-02
48998,4.85E-03,1.86E-02
48999,3.60E-03,1.86E-02
49000,3.10E-03,1.84E-02
49001,5.05E-03,1.83E-02
49002,8.10E-03,1.46E-02
49003,8.10E-03,1.47E-02
49004,8.69E-03,2.04E-02
49005,7.99E-03,1.36E-02
49006,8.20E-03,2.98E-02
49007,5.64E-03,3.02E-02
49008,6.90E-03,3.12E-02
49009,8.40E-03,3.25E-02
49010,7.99E-03,3.46E-02
49011,6.36E-03,3.33E-02
49012,8.85E-03,3.45E-02
49013,7.50E-03,1.11E-02
49014,5.86E-03,1.21E-02
49015,8.10E-03,1.33E-02
49016,8.69E-03,1.00E-02
49017,7.54E-03,2.36E-02
49018,7.71E-03,2.64E-02
49019,6.74E-03,1.24E-02
49020,8.47E-03,1.97E-02
49021,5.67E-03,1.10E-02
49022,4.95E-03,1.10E-02
49023,3.05E-03,1.08E-02
49024,3.72E-03,1.09E-02
49025,4.08E-03,1.09E-02
49026,4.41E-03,1.09E-02
49027,4.67E-03,1.09E-02
49028,4.88E-03,1.08E-02
49029,5.71E-03,1.08E-02
49030,5.78E-03,1.08E-02
49031,6.19E-03,1.07E-02
49032,6.62E-03,1.07E-02
49033,6.85E-03,1.06E-02
49034,7.00E-03,1.05E-02
49035,7.10E-03,1.04E-02
49036,7.18E-03,1.04E-02
49037,7.27E-03,1.03E-02
49038,7.35E-03,1.02E-02
49039,7.44E-03,1.01E-02
49040,7.52E-03,1.00E-02
49041,7.60E-03,9.90E-03
49042,7.64E-03,9.80E-03
49043,7.67E-03,9.69E-03
49044,7.69E-03,9.58E-03
49045,7.71E-03,9.48E-03
49046,7.72E-03,9.37E-03
49047,7.74E-03,9.25E-03
49048,7.76E-03,9.14E-03
49049,7.78E-03,9.03E-03
49050,7.80E-03,8.92E-03
49051,7.82E-03,8.81E-03
49052,7.84E-03,8.70E-03
49053,7.85E-03,8.60E-03
49054,7.87E-03,8.50E-03
49055,7.88E-03,8.40E-03
49056,7.89E-03,8.31E-03
49057,7.91E-03,8.22E-03
49058,7.92E-03,8.14E-03
49059,7.93E-03,8.07E-03
49060,7.94E-03,8.01E-03
49061,7.95E-03,7.95E-03
49062,7.96E-03,7.91E-03
49063,7.97E-03,7.87E-03
49064,7.97E-03,7.85E-03
49065,7.98E-03,7.84E-03
49066,7.98E-03,7.84E-03
49067,7.98E-03,7.85E-03
49068,7.98E-03,7.88E-03
49069,7.98E-03,7.91E-03
49070,7.98E-03,7.96E-03
49071,7.98E-03,8.02E-03
49072,7.97E-03,8.09E-03
49073,7.96E-03,8.17E-03
49074,7.95E-03,8.26E-03
49075,7.94E-03,8.36E-03
49076,7.92E-03,8.46E-03
49077,7.91E-03,8.58E-03
49078,7.89E-03,8.70E-03
49079,7.88E-03,8.83E-03
49080,7.87E-03,8.96E-03
49081,7.85E-03,9.10E-03
49082,7.84E-03,9.25E-03
49083,7.82E-03,9.40E-03
49084,7.78E-03,9.55E-03
49085,7.75E-03,9.70E-03
49086,7.71E-03,9.86E-03
49087,7.68E-03,1.00E-02
49088,7.64E-03,1.02E-02
49089,7.61E-03,1.03E-02
49090,7.57E-03,1.05E-02
49091,7.53E-03,1.07E-02
49092,7.51E-03,1.08E-02
49093,7.48E-03,1.10E-02
49094,7.46E-03,1.11E-02
49095,7.43E-03,1.13E-02
49096,7.41E-03,1.14E-02
49097,7.38E-03,1.16E-02
49098,7.36E-03,1.18E-02
49099,7.32E-03,1.19E-02
49100,7.28E-03,1.21E-02
49101,7.25E-03,1.22E-02
49102,7.21E-03,1.24E-02
49103,7.17E-03,1.25E-02
49104,7.11E-03,1.27E-02
49105,7.04E-03,1.28E-02
49106,6.97E-03,1.30E-02
49107,6.90E-03,1.31E-02
49108,6.84E-03,1.32E-02
49109,6.80E-03,1.34E-02
49110,6.79E-03,1.35E-02
49111,6.78E-03,1.36E-02
49112,6.79E-03,1.38E-02
49113,6.81E-03,1.39E-02
49114,6.84E-03,1.40E-02
49115,6.87E-03,1.42E-02
49116,6.89E-03,1.43E-02
49117,6.90E-03,1.44E-02
49118,6.92E-03,1.46E-02
49119,6.94E-03,1.47E-02
49120,6.96E-03,1.48E-02
49121,6.97E-03,1.50E-02
49122,6.99E-03,1.51E-02
49123,7.01E-03,1.52E-02
49124,7.02E-03,1.54E-02
49125,7.04E-03,1.55E-02
49126,7.06E-03,1.56E-02
49127,7.08E-03,1.58E-02
49128,7.10E-03,1.59E-02
49129,7.11E-03,1.60E-02
49130,7.12E-03,1.62E-02
49131,7.12E-03,1.63E-02
49132,7.12E-03,1.65E-02
49133,7.15E-03,1.66E-02
49134,7.20E-03,1.67E-02
49135,7.27E-03,1.69E-02
49136,7.33E-03,1.70E-02
49137,7.37E-03,1.71E-02
49138,7.39E-03,1.73E-02
49139,7.18E-03,1.74E-02
49140,7.09E-03,1.76E-02
49141,7.04E-03,1.77E-02
49142,7.05E-03,1.79E-02
49143,7.24E-03,1.80E-02
49144,5.90E-03,1.82E-02
49145,8.58E-03,1.10E-02
49146,6.84E-03,1.11E-02
49147,6.25E-03,1.12E-02
49148,7.24E-03,9.12E-03
49149,7.22E-03,1.04E-02
49150,5.73E-03,1.34E-02
49151,3.01E-03,1.35E-02
49152,4.30E-03,1.34E-02
49153,4.92E-03,1.35E-02
49154,4.31E-03,1.36E-02
49155,4.83E-03,1.36E-02
49156,4.99E-03,1.36E-02
49157,5.09E-03,1.36E-02
49158,5.48E-03,1.36E-02
49159,5.59E-03,1.36E-02
49160,5.74E-03,1.36E-02
49161,5.79E-03,1.35E-02
49162,5.87E-03,1.35E-02
49163,5.85E-03,1.35E-02
49164,5.67E-03,1.35E-02
49165,5.83E-03,1.35E-02
49166,6.55E-03,1.34E-02
49167,7.17E-03,1.34E-02
49168,7.45E-03,1.34E-02
49169,7.90E-03,1.33E-02
49170,8.35E-03,1.32E-02
49171,8.84E-03,1.32E-02
49172,9.28E-03,1.31E-02
49173,9.88E-03,1.30E-02
49174,1.05E-02,1.29E-02
49175,1.09E-02,1.28E-02
49176,1.09E-02,1.28E-02
49177,1.07E-02,1.27E-02
49178,1.03E-02,1.26E-02
49179,1.02E-02,1.25E-02
49180,9.80E-03,1.24E-02
49181,9.78E-03,1.24E-02
49182,8.92E-03,1.23E-02
49183,8.29E-03,1.22E-02
49184,7.88E-03,1.22E-02
49185,7.41E-03,1.18E-02
49186,9.11E-03,8.43E-03
49187,9.09E-03,8.36E-03
49188,9.20E-03,8.28E-03
49189,7.92E-03,1.13E-02
49190,8.10E-03,1.44E-02
49191,8.10E-03,1.47E-02
49192,8.29E-03,2.09E-02
49193,8.80E-03,2.96E-02
49194,8.32E-03,3.20E-02
49195,9.05E-03,3.24E-02
49196,8.44E-03,3.28E-02
49197,7.71E-03,3.34E-02
49198,6.34E-03,3.37E-02
49199,6.03E-03,3.35E-02
49200,5.67E-03,3.41E-02
49201,7.92E-03,1.38E-02
49202,7.16E-03,1.38E-02
49203,5.64E-03,1.24E-02
49204,5.74E-03,1.24E-02
49205,5.71E-03,1.24E-02
49206,8.10E-03,1.34E-02
49207,7.26E-03,2.28E-02
49208,7.17E-03,2.32E-02
49209,8.35E-03,2.01E-02
49210,7.76E-03,2.01E-02
49211,7.80E-03,2.01E-02
49212,8.04E-03,7.46E-03
49213,8.19E-03,1.94E-02
49214,9.45E-03,1.94E-02
49215,9.56E-03,1.93E-02
49216,1.01E-02,1.93E-02
49217,1.03E-02,1.92E-02
49218,1.04E-02,1.92E-02
49219,1.03E-02,1.92E-02
49220,1.01E-02,1.91E-02
49221,9.76E-03,1.91E-02
49222,9.63E-03,1.91E-02
49223,9.35E-03,1.90E-02
49224,9.16E-03,1.90E-02
49225,8.94E-03,1.90E-02
49226,8.84E-03,1.90E-02
49227,8.74E-03,1.90E-02
49228,8.67E-03,1.90E-02
49229,8.65E-03,1.90E-02
49230,8.65E-03,1.90E-02
49231,8.64E-03,1.90E-02
49232,8.60E-03,1.90E-02
49233,8.50E-03,1.90E-02
49234,8.39E-03,1.90E-02
49235,8.31E-03,1.90E-02
49236,8.25E-03,1.90E-02
49237,8.20E-03,1.90E-02
49238,8.18E-03,1.90E-02
49239,8.17E-03,1.90E-02
49240,8.17E-03,1.90E-02
49241,8.17E-03,1.90E-02
49242,8.16E-03,1.90E-02
49243,8.14E-03,1.90E-02
49244,8.12E-03,1.90E-02
49245,8.09E-03,1.90E-02
49246,8.07E-03,1.90E-02
49247,8.05E-03,1.90E-02
49248,8.04E-03,1.90E-02
49249,8.02E-03,1.89E-02
49250,8.01E-03,1.89E-02
49251,8.02E-03,1.89E-02
49252,8.05E-03,1.89E-02
49253,8.08E-03,1.88E-02
49254,8.10E-03,1.88E-02
49255,8.13E-03,1.88E-02
49256,8.16E-03,1.87E-02
49257,8.19E-03,1.87E-02
49258,8.22E-03,1.87E-02
49259,8.27E-03,1.86E-02
49260,8.34E-03,1.86E-02
49261,8.40E-03,1.85E-02
49262,8.45E-03,1.84E-02
49263,8.48E-03,1.84E-02
49264,8.51E-03,1.83E-02
49265,8.54E-03,1.83E-02
49266,8.57E-03,1.82E-02
49267,8.60E-03,1.81E-02
49268,8.64E-03,1.81E-02
49269,8.69E-03,1.80E-02
49270,8.73E-03,1.80E-02
49271,8.79E-03,1.79E-02
49272,8.87E-03,1.78E-02
49273,8.96E-03,1.78E-02
49274,9.05E-03,1.77E-02
49275,9.11E-03,1.76E-02
49276,9.12E-03,1.75E-02
49277,9.10E-03,1.75E-02
49278,9.06E-03,1.74E-02
49279,9.02E-03,1.74E-02
49280,8.99E-03,1.73E-02
49281,8.96E-03,1.72E-02
49282,8.93E-03,1.72E-02
49283,8.90E-03,1.71E-02
49284,8.90E-03,1.71E-02
49285,8.91E-03,1.71E-02
49286,8.81E-03,1.70E-02
49287,8.59E-03,1.70E-02
49288,8.36E-03,1.70E-02
49289,8.12E-03,1.69E-02
49290,7.96E-03,1.69E-02
49291,7.96E-03,1.69E-02
49292,8.01E-03,1.69E-02
49293,7.97E-03,1.69E-02
49294,7.86E-03,1.68E-02
49295,7.76E-03,1.68E-02
49296,7.68E-03,1.68E-02
49297,7.59E-03,1.68E-02
49298,7.49E-03,1.68E-02
49299,7.35E-03,1.67E-02
49300,7.20E-03,1.67E-02
49301,7.08E-03,1.67E-02
49302,6.99E-03,1.67E-02
49303,6.93E-03,1.66E-02
49304,6.88E-03,1.66E-02
49305,6.83E-03,1.65E-02
49306,6.80E-03,1.65E-02
49307,6.77E-03,1.64E-02
49308,6.73E-03,1.64E-02
49309,6.67E-03,1.63E-02
49310,6.60E-03,1.62E-02
49311,6.55E-03,1.62E-02
49312,6.55E-03,1.61E-02
49313,6.58E-03,1.60E-02
49314,6.61E-03,1.59E-02
49315,6.65E-03,1.58E-02
49316,6.70E-03,1.58E-02
49317,6.74E-03,1.57E-02
49318,6.78E-03,1.56E-02
49319,6.82E-03,1.55E-02
49320,6.86E-03,1.54E-02
49321,6.89E-03,1.53E-02
49322,6.91E-03,1.52E-02
49323,6.93E-03,1.50E-02
49324,6.94E-03,1.49E-02
49325,6.96E-03,1.48E-02
49326,6.97E-03,1.47E-02
49327,6.98E-03,1.46E-02
49328,6.96E-03,1.45E-02
49329,6.93E-03,1.44E-02
49330,6.89E-03,1.43E-02
49331,6.85E-03,1.42E-02
49332,6.81E-03,1.41E-02
49333,6.77E-03,1.40E-02
49334,6.71E-03,1.39E-02
49335,6.63E-03,1.38E-02
49336,6.52E-03,1.37E-02
49337,6.41E-03,1.36E-02
49338,6.31E-03,1.35E-02
49339,6.22E-03,1.34E-02
49340,6.19E-03,1.33E-02
49341,6.23E-03,1.32E-02
49342,6.28E-03,1.31E-02
49343,6.22E-03,1.30E-02
49344,6.21E-03,1.29E-02
49345,7.04E-03,1.28E-02
49346,8.75E-03,1.27E-02
49347,9.04E-03,1.26E-02
49348,9.22E-03,1.24E-02
49349,1.03E-02,1.23E-02
49350,1.15E-02,1.21E-02
49351,1.18E-02,1.20E-02
49352,1.14E-02,1.18E-02
49353,1.15E-02,1.16E-02
49354,1.15E-02,1.15E-02
49355,1.15E-02,1.13E-02
49356,1.15E-02,1.11E-02
49357,1.13E-02,1.09E-02
49358,1.12E-02,1.08E-02
49359,1.11E-02,1.06E-02
49360,1.09E-02,1.04E-02
49361,1.07E-02,1.02E-02
49362,1.05E-02,1.01E-02
49363,1.03E-02,9.91E-03
49364,9.42E-03,9.76E-03
49365,7.45E-03,9.63E-03
49366,7.40E-03,9.52E-03
49367,7.36E-03,9.40E-03
49368,7.37E-03,9.29E-03
49369,7.49E-03,9.18E-03
49370,7.66E-03,9.07E-03
49371,8.19E-03,8.96E-03
49372,9.75E-03,8.84E-03
49373,1.01E-02,8.75E-03
49374,7.26E-03,1.08E-02
49375,8.09E-03,1.14E-02
49376,8.09E-03,1.12E-02
49377,8.09E-03,1.11E-02
49378,8.09E-03,1.10E-02
49379,8.09E-03,1.08E-02
49380,8.09E-03,1.07E-02
49381,8.09E-03,1.05E-02
49382,8.09E-03,1.04E-02
49383,8.09E-03,1.02E-02
49384,8.09E-03,1.00E-02
49385,8.09E-03,9.89E-03
49386,8.09E-03,9.73E-03
49387,8.09E-03,9.57E-03
49388,8.09E-03,9.40E-03
49389,8.09E-03,9.24E-03
49390,8.09E-03,9.07E-03
49391,8.09E-03,8.91E-03
49392,8.09E-03,8.74E-03
49393,8.09E-03,8.57E-03
49394,8.09E-03,8.40E-03
49395,8.09E-03,8.23E-03
49396,8.09E-03,8.06E-03
49397,8.09E-03,7.89E-03
49398,8.09E-03,7.72E-03
49399,8.09E-03,7.55E-03
49400,8.09E-03,7.39E-03
49401,8.09E-03,7.22E-03
49402,8.09E-03,7.05E-03
49403,8.09E-03,6.88E-03
49404,8.09E-03,6.72E-03
49405,8.09E-03,6.56E-03
49406,8.09E-03,6.40E-03
49407,8.09E-03,6.24E-03
49408,8.09E-03,6.09E-03
49409,8.09E-03,5.94E-03
49410,8.09E-03,5.79E-03
49411,8.09E-03,5.65E-03
49412,8.09E-03,5.51E-03
49413,8.09E-03,5.38E-03
49414,8.09E-03,5.26E-03
49415,8.09E-03,5.15E-03
49416,8.09E-03,5.04E-03
49417,8.09E-03,4.94E-03
49418,8.09E-03,4.86E-03
49419,8.09E-03,4.78E-03
49420,8.09E-03,4.71E-03
49421,8.09E-03,4.66E-03
49422,8.09E-03,4.62E-03
49423,8.09E-03,4.59E-03
49424,8.09E-03,4.58E-03
49425,8.09E-03,4.58E-03
49426,8.09E-03,4.60E-03
49427,8.09E-03,4.62E-03
49428,8.09E-03,4.67E-03
49429,8.09E-03,4.73E-03
49430,8.09E-03,4.80E-03
49431,8.09E-03,4.88E-03
49432,8.09E-03,4.98E-03
49433,8.09E-03,5.09E-03
49434,8.09E-03,5.21E-03
49435,8.09E-03,5.34E-03
49436,8.09E-03,5.48E-03
49437,8.09E-03,5.63E-03
49438,8.09E-03,5.79E-03
49439,8.09E-03,5.96E-03
49440,8.09E-03,6.14E-03
49441,8.09E-03,6.32E-03
49442,8.09E-03,6.51E-03
49443,8.09E-03,6.70E-03
49444,8.09E-03,6.91E-03
49445,8.09E-03,7.11E-03
49446,8.09E-03,7.32E-03
49447,8.09E-03,7.54E-03
49448,8.09E-03,7.76E-03
49449,8.09E-03,7.98E-03
49450,8.09E-03,8.21E-03
49451,8.09E-03,8.44E-03
49452,8.09E-03,8.68E-03
49453,8.09E-03,8.91E-03
49454,8.09E-03,9.15E-03
49455,8.09E-03,9.39E-03
49456,8.09E-03,9.64E-03
49457,8.09E-03,9.89E-03
49458,8.14E-03,1.01E-02
49459,8.15E-03,1.04E-02
49460,7.94E-03,1.06E-02
49461,7.81E-03,1.09E-02
49462,7.70E-03,1.11E-02
49463,7.59E-03,1.14E-02
49464,7.68E-03,1.17E-02
49465,7.74E-03,1.19E-02
49466,7.18E-03,1.21E-02
49467,6.53E-03,1.23E-02
49468,1.05E-02,1.09E-02
49469,1.07E-02,1.08E-02
49470,1.09E-02,1.07E-02
49471,1.10E-02,1.05E-02
49472,1.09E-02,1.04E-02
49473,1.10E-02,1.02E-02
49474,1.11E-02,1.01E-02
49475,1.10E-02,9.97E-03
49476,1.09E-02,9.86E-03
49477,1.07E-02,9.76E-03
49478,1.06E-02,9.67E-03
49479,1.05E-02,9.59E-03
49480,1.03E-02,9.52E-03
49481,1.02E-02,9.45E-03
49482,1.01E-02,9.39E-03
49483,1.00E-02,9.33E-03
49484,9.92E-03,9.29E-03
49485,9.78E-03,9.24E-03
49486,9.59E-03,9.21E-03
49487,9.38E-03,9.17E-03
49488,9.21E-03,9.15E-03
49489,9.09E-03,9.13E-03
49490,9.01E-03,9.11E-03
49491,8.93E-03,9.10E-03
49492,8.85E-03,9.08E-03
49493,8.79E-03,9.08E-03
49494,8.74E-03,9.07E-03
49495,8.68E-03,9.07E-03
49496,8.61E-03,9.08E-03
49497,8.53E-03,9.08E-03
49498,8.45E-03,9.09E-03
49499,8.37E-03,9.11E-03
49500,8.29E-03,9.12E-03
49501,8.21E-03,9.14E-03
49502,8.17E-03,9.16E-03
49503,8.16E-03,9.18E-03
49504,8.13E-03,9.20E-03
49505,7.99E-03,9.23E-03
49506,7.92E-03,9.26E-03
49507,7.75E-03,9.29E-03
49508,7.59E-03,9.32E-03
49509,7.41E-03,9.36E-03
49510,7.28E-03,9.39E-03
49511,7.13E-03,9.43E-03
49512,6.91E-03,9.47E-03
49513,6.86E-03,9.51E-03
49514,6.68E-03,9.55E-03
49515,6.47E-03,9.59E-03
49516,6.25E-03,9.63E-03
49517,6.04E-03,9.67E-03
49518,5.91E-03,9.71E-03
49519,5.57E-03,9.75E-03
49520,5.36E-03,9.78E-03
49521,5.25E-03,9.82E-03
49522,4.67E-03,9.85E-03
49523,4.34E-03,9.88E-03
49524,4.15E-03,9.91E-03
49525,4.11E-03,9.94E-03
49526,4.09E-03,9.97E-03
49527,4.09E-03,1.00E-02
49528,4.14E-03,1.00E-02
49529,4.24E-03,1.01E-02
49530,4.40E-03,1.01E-02
49531,4.55E-03,1.01E-02
49532,4.75E-03,1.02E-02
49533,4.82E-03,1.02E-02
49534,4.91E-03,1.02E-02
49535,4.98E-03,1.03E-02
49536,5.14E-03,1.03E-02
49537,5.36E-03,1.03E-02
49538,5.43E-03,1.04E-02
49539,5.55E-03,1.04E-02
49540,5.62E-03,1.05E-02
49541,5.73E-03,1.05E-02
49542,5.29E-03,1.06E-02
49543,5.46E-03,1.06E-02
49544,6.14E-03,1.07E-02
49545,7.11E-03,2.20E-02
49546,5.97E-03,9.45E-03
49547,8.10E-03,1.15E-02
49548,8.10E-03,1.43E-02
49549,8.10E-03,1.46E-02
49550,7.66E-03,2.14E-02
49551,6.51E-03,1.14E-02
49552,6.34E-03,1.15E-02
49553,8.10E-03,1.35E-02
49554,7.21E-03,2.80E-02
49555,8.10E-03,1.17E-02
49556,8.10E-03,1.42E-02
49557,8.10E-03,1.46E-02
49558,8.45E-03,1.14E-02
49559,7.19E-03,1.16E-02
49560,8.10E-03,1.36E-02
49561,3.67E-03,1.30E-02
49562,4.82E-03,1.31E-02
49563,6.59E-03,1.12E-02
49564,8.10E-03,1.41E-02
49565,8.10E-03,1.46E-02
49566,6.98E-03,1.38E-02
49567,8.10E-03,1.37E-02
49568,8.10E-03,1.40E-02
49569,8.10E-03,1.45E-02
49570,8.10E-03,1.38E-02
49571,8.10E-03,1.24E-02
49572,8.10E-03,1.22E-02
49573,8.10E-03,1.20E-02
49574,8.10E-03,1.19E-02
49575,8.10E-03,1.38E-02
49576,8.10E-03,1.45E-02
49577,8.10E-03,1.39E-02
49578,8.10E-03,1.25E-02
49579,8.10E-03,1.37E-02
49580,7.79E-03,1.44E-02
49581,7.99E-03,1.40E-02
49582,8.10E-03,1.27E-02
49583,8.10E-03,1.36E-02
49584,7.85E-03,1.44E-02
49585,8.09E-03,1.40E-02
49586,8.10E-03,1.34E-02
49587,7.84E-03,1.43E-02
49588,8.15E-03,1.41E-02
49589,8.10E-03,1.28E-02
49590,8.10E-03,1.33E-02
49591,7.93E-03,1.42E-02
49592,8.13E-03,1.42E-02
49593,8.10E-03,1.30E-02
49594,8.10E-03,1.31E-02
49595,6.91E-03,2.00E-02
49596,8.37E-03,5.93E-03
49597,5.93E-03,1.16E-02
49598,7.98E-03,1.15E-02
49599,7.94E-03,1.26E-02
49600,9.02E-03,6.30E-03
49601,8.10E-03,1.46E-02
49602,8.10E-03,1.46E-02
49603,1.10E-02,1.99E-02
49604,9.37E-03,1.94E-02
49605,1.07E-02,1.89E-02
49606,8.15E-03,1.84E-02
49607,8.15E-03,1.80E-02
49608,8.12E-03,1.76E-02
49609,8.07E-03,1.72E-02
49610,8.01E-03,1.68E-02
49611,8.01E-03,1.64E-02
49612,8.01E-03,1.60E-02
49613,8.01E-03,1.56E-02
49614,8.08E-03,1.52E-02
49615,8.03E-03,1.48E-02
49616,7.99E-03,1.44E-02
49617,8.07E-03,1.40E-02
49618,7.96E-03,3.02E-02
49619,6.92E-03,3.05E-02
49620,3.78E-03,3.07E-02
49621,6.91E-03,3.08E-02
49622,6.60E-03,3.09E-02
49623,8.00E-03,3.29E-02
49624,7.42E-03,1.36E-02
49625,7.84E-03,1.36E-02
49626,8.05E-03,1.36E-02
49627,8.49E-03,1.38E-02
49628,8.55E-03,1.39E-02
49629,8.45E-03,1.41E-02
49630,6.84E-03,1.43E-02
49631,6.27E-03,1.45E-02
49632,6.00E-03,1.47E-02
49633,5.63E-03,1.48E-02
49634,5.15E-03,1.50E-02
49635,4.94E-03,1.52E-02
49636,5.11E-03,1.54E-02
49637,5.48E-03,1.57E-02
49638,5.73E-03,1.59E-02
49639,5.88E-03,1.62E-02
49640,6.01E-03,1.64E-02
49641,6.14E-03,1.67E-02
49642,6.27E-03,1.71E-02
49643,6.32E-03,1.74E-02
49644,6.31E-03,1.78E-02
49645,6.29E-03,1.82E-02
49646,6.27E-03,1.86E-02
49647,6.17E-03,1.90E-02
49648,6.09E-03,1.95E-02
49649,5.96E-03,1.99E-02
49650,5.83E-03,2.04E-02
49651,5.64E-03,2.08E-02
49652,5.43E-03,2.13E-02
49653,5.12E-03,2.17E-02
49654,4.90E-03,2.21E-02
49655,4.57E-03,2.25E-02
49656,3.97E-03,2.28E-02
49657,3.83E-03,2.32E-02
49658,3.44E-03,2.35E-02
49659,3.31E-03,2.38E-02
49660,3.23E-03,2.40E-02
49661,3.20E-03,2.43E-02
49662,3.18E-03,2.45E-02
49663,3.29E-03,2.48E-02
49664,4.18E-03,2.51E-02
49665,4.62E-03,2.55E-02
49666,4.72E-03,2.59E-02
49667,4.94E-03,2.63E-02
49668,5.08E-03,2.67E-02
49669,5.32E-03,2.71E-02
49670,5.55E-03,2.75E-02
49671,5.75E-03,2.79E-02
49672,5.89E-03,2.83E-02
49673,5.99E-03,2.87E-02
49674,6.15E-03,2.91E-02
49675,6.19E-03,2.95E-02
49676,6.20E-03,2.99E-02
49677,6.16E-03,3.03E-02
49678,6.11E-03,3.07E-02
49679,6.06E-03,3.11E-02
49680,6.01E-03,3.14E-02
49681,5.80E-03,3.17E-02
49682,5.32E-03,3.20E-02
49683,4.89E-03,3.23E-02
49684,4.70E-03,3.25E-02
49685,4.50E-03,3.28E-02
49686,4.46E-03,3.30E-02
49687,4.85E-03,3.32E-02
49688,5.36E-03,3.34E-02
49689,5.74E-03,3.36E-02
49690,6.04E-03,3.38E-02
49691,6.38E-03,3.40E-02
49692,6.82E-03,3.41E-02
49693,7.26E-03,3.42E-02
49694,7.55E-03,3.44E-02
49695,7.70E-03,3.45E-02
49696,7.82E-03,3.45E-02
49697,7.95E-03,3.46E-02
49698,8.17E-03,3.47E-02
49699,8.17E-03,3.47E-02
49700,8.40E-03,3.47E-02
49701,8.51E-03,3.46E-02
49702,8.66E-03,3.46E-02
49703,7.94E-03,1.11E-02
49704,8.42E-03,1.11E-02
49705,1.05E-02,1.11E-02
49706,1.03E-02,1.11E-02
49707,9.99E-03,1.12E-02
49708,9.83E-03,1.12E-02
49709,9.75E-03,1.13E-02
49710,9.18E-03,1.13E-02
49711,9.13E-03,1.14E-02
49712,8.76E-03,1.14E-02
49713,8.57E-03,1.14E-02
49714,8.24E-03,1.15E-02
49715,8.11E-03,1.15E-02
49716,8.12E-03,1.16E-02
49717,7.85E-03,1.16E-02
49718,7.31E-03,1.17E-02
49719,6.91E-03,1.17E-02
49720,6.86E-03,1.17E-02
49721,6.90E-03,1.18E-02
49722,6.85E-03,1.18E-02
49723,6.85E-03,1.18E-02
49724,6.88E-03,1.19E-02
49725,6.92E-03,1.19E-02
49726,6.94E-03,1.19E-02
49727,6.94E-03,1.19E-02
49728,6.94E-03,1.20E-02
49729,6.97E-03,1.20E-02
49730,7.17E-03,1.20E-02
49731,7.29E-03,1.20E-02
49732,7.62E-03,1.20E-02
49733,8.12E-03,1.20E-02
49734,8.52E-03,1.20E-02
49735,8.57E-03,1.20E-02
49736,8.74E-03,1.21E-02
49737,9.04E-03,1.21E-02
49738,9.45E-03,1.21E-02
49739,8.09E-03,1.31E-02
49740,8.09E-03,1.30E-02
49741,8.09E-03,1.28E-02
49742,8.09E-03,1.26E-02
49743,8.09E-03,1.25E-02
49744,8.09E-03,1.23E-02
49745,8.09E-03,1.21E-02
49746,8.09E-03,1.19E-02
49747,8.09E-03,1.17E-02
49748,8.09E-03,1.15E-02
49749,8.09E-03,1.13E-02
49750,8.09E-03,1.11E-02
49751,8.12E-03,1.09E-02
49752,8.15E-03,1.07E-02
49753,8.68E-03,1.03E-02
49754,8.40E-03,1.05E-02
49755,7.80E-03,2.40E-02
49756,8.04E-03,2.44E-02
49757,8.28E-03,2.49E-02
49758,8.23E-03,2.53E-02
49759,8.12E-03,2.57E-02
49760,8.08E-03,2.62E-02
49761,6.07E-03,1.24E-02
49762,1.04E-02,2.00E-02
49763,8.74E-03,1.97E-02
49764,8.74E-03,1.96E-02
49765,8.91E-03,1.96E-02
49766,9.13E-03,1.95E-02
49767,9.08E-03,1.94E-02
49768,9.05E-03,1.93E-02
49769,8.79E-03,1.92E-02
49770,8.05E-03,1.92E-02
49771,7.88E-03,1.91E-02
49772,7.69E-03,1.90E-02
49773,7.55E-03,1.90E-02
49774,6.12E-03,1.89E-02
49775,6.01E-03,1.89E-02
49776,5.88E-03,1.88E-02
49777,5.66E-03,1.88E-02
49778,5.36E-03,1.88E-02
49779,5.04E-03,1.87E-02
49780,4.45E-03,1.87E-02
49781,3.62E-03,1.87E-02
49782,2.59E-03,1.87E-02
49783,2.13E-03,1.86E-02
49784,2.04E-03,1.86E-02
49785,1.70E-03,1.86E-02
49786,1.31E-03,1.85E-02
49787,1.70E-03,1.85E-02
49788,2.78E-03,1.84E-02
49789,3.53E-03,1.83E-02
49790,4.03E-03,1.83E-02
49791,5.66E-03,1.12E-02
49792,5.04E-03,1.13E-02
49793,4.09E-03,1.13E-02
49794,2.16E-03,1.12E-02
49795,4.06E-03,1.11E-02
49796,3.33E-03,1.11E-02
49797,2.94E-03,1.12E-02
49798,3.51E-03,1.12E-02
49799,3.82E-03,1.12E-02
49800,4.12E-03,1.12E-02
49801,4.86E-03,1.12E-02
49802,5.15E-03,1.12E-02
49803,5.80E-03,1.11E-02
49804,5.83E-03,1.11E-02
49805,6.44E-03,1.10E-02
49806,6.68E-03,1.10E-02
49807,6.90E-03,1.09E-02
49808,7.05E-03,1.08E-02
49809,7.14E-03,1.08E-02
49810,7.22E-03,1.07E-02
49811,7.30E-03,1.06E-02
49812,7.38E-03,1.05E-02
49813,7.46E-03,1.04E-02
49814,7.55E-03,1.03E-02
49815,7.62E-03,1.02E-02
49816,7.66E-03,1.01E-02
49817,7.68E-03,9.99E-03
49818,7.70E-03,9.87E-03
49819,7.72E-03,9.76E-03
49820,7.74E-03,9.65E-03
49821,7.76E-03,9.53E-03
49822,7.78E-03,9.41E-03
49823,7.80E-03,9.29E-03
49824,7.82E-03,9.17E-03
49825,7.83E-03,9.06E-03
49826,7.85E-03,8.94E-03
49827,7.86E-03,8.83E-03
49828,7.88E-03,8.72E-03
49829,7.89E-03,8.61E-03
49830,7.90E-03,8.51E-03
49831,7.91E-03,8.42E-03
49832,7.92E-03,8.33E-03
49833,7.93E-03,8.25E-03
49834,7.94E-03,8.17E-03
49835,7.95E-03,8.11E-03
49836,7.96E-03,8.05E-03
49837,7.97E-03,8.01E-03
49838,7.98E-03,7.98E-03
49839,7.98E-03,7.96E-03
49840,7.98E-03,7.95E-03
49841,7.98E-03,7.95E-03
49842,7.98E-03,7.97E-03
49843,7.98E-03,8.00E-03
49844,7.98E-03,8.04E-03
49845,7.98E-03,8.09E-03
49846,7.98E-03,8.15E-03
49847,7.97E-03,8.23E-03
49848,7.96E-03,8.31E-03
49849,7.94E-03,8.41E-03
49850,7.93E-03,8.51E-03
49851,7.92E-03,8.62E-03
49852,7.90E-03,8.74E-03
49853,7.89E-03,8.87E-03
49854,7.88E-03,9.00E-03
49855,7.86E-03,9.14E-03
49856,7.85E-03,9.28E-03
49857,7.83E-03,9.42E-03
49858,7.80E-03,9.57E-03
49859,7.76E-03,9.73E-03
49860,7.73E-03,9.88E-03
49861,7.69E-03,1.00E-02
49862,7.66E-03,1.02E-02
49863,7.63E-03,1.04E-02
49864,7.59E-03,1.05E-02
49865,7.56E-03,1.07E-02
49866,7.53E-03,1.08E-02
49867,7.51E-03,1.10E-02
49868,7.48E-03,1.12E-02
49869,7.46E-03,1.13E-02
49870,7.44E-03,1.15E-02
49871,7.42E-03,1.16E-02
49872,7.39E-03,1.18E-02
49873,7.35E-03,1.19E-02
49874,7.32E-03,1.21E-02
49875,7.29E-03,1.22E-02
49876,7.25E-03,1.24E-02
49877,7.21E-03,1.25E-02
49878,7.15E-03,1.27E-02
49879,7.09E-03,1.28E-02
49880,7.02E-03,1.30E-02
49881,6.95E-03,1.31E-02
49882,6.89E-03,1.33E-02
49883,6.85E-03,1.34E-02
49884,6.84E-03,1.35E-02
49885,6.84E-03,1.37E-02
49886,6.84E-03,1.38E-02
49887,6.87E-03,1.39E-02
49888,6.89E-03,1.41E-02
49889,6.92E-03,1.42E-02
49890,6.94E-03,1.43E-02
49891,6.95E-03,1.45E-02
49892,6.97E-03,1.46E-02
49893,6.99E-03,1.47E-02
49894,7.00E-03,1.49E-02
49895,7.02E-03,1.50E-02
49896,7.04E-03,1.51E-02
49897,7.06E-03,1.53E-02
49898,7.07E-03,1.54E-02
49899,7.09E-03,1.55E-02
49900,7.10E-03,1.57E-02
49901,7.12E-03,1.58E-02
49902,7.14E-03,1.59E-02
49903,7.15E-03,1.61E-02
49904,7.16E-03,1.62E-02
49905,7.16E-03,1.63E-02
49906,7.16E-03,1.65E-02
49907,7.19E-03,1.66E-02
49908,7.24E-03,1.67E-02
49909,7.30E-03,1.69E-02
49910,7.36E-03,1.70E-02
49911,7.40E-03,1.72E-02
49912,7.42E-03,1.73E-02
49913,7.17E-03,1.74E-02
49914,7.03E-03,1.76E-02
49915,6.92E-03,1.77E-02
49916,6.68E-03,1.79E-02
49917,6.21E-03,1.80E-02
49918,5.30E-03,1.82E-02
49919,3.84E-03,1.83E-02
49920,9.20E-03,8.50E-03
49921,9.14E-03,8.58E-03
49922,9.30E-03,8.66E-03
49923,7.41E-03,9.42E-03
49924,6.73E-03,9.78E-03
49925,6.87E-03,1.00E-02
49926,8.14E-03,1.36E-02
49927,5.38E-03,1.37E-02
49928,4.55E-03,1.38E-02
49929,4.76E-03,1.38E-02
49930,4.63E-03,1.38E-02
49931,4.89E-03,1.39E-02
49932,4.98E-03,1.39E-02
49933,5.26E-03,1.39E-02
49934,5.52E-03,1.39E-02
49935,5.73E-03,1.39E-02
49936,5.82E-03,1.38E-02
49937,5.84E-03,1.38E-02
49938,5.97E-03,1.38E-02
49939,5.94E-03,1.38E-02
49940,5.77E-03,1.38E-02
49941,5.93E-03,1.37E-02
49942,6.61E-03,1.37E-02
49943,7.21E-03,1.37E-02
49944,7.48E-03,1.36E-02
49945,7.82E-03,1.36E-02
49946,8.34E-03,1.35E-02
49947,8.83E-03,1.34E-02
49948,9.29E-03,1.33E-02
49949,9.80E-03,1.32E-02
49950,1.04E-02,1.32E-02
49951,1.08E-02,1.31E-02
49952,1.08E-02,1.30E-02
49953,1.06E-02,1.29E-02
49954,1.03E-02,1.28E-02
49955,1.00E-02,1.27E-02
49956,9.73E-03,1.26E-02
49957,9.77E-03,1.25E-02
49958,9.01E-03,1.24E-02
49959,8.92E-03,1.24E-02
49960,7.58E-03,1.17E-02
49961,7.59E-03,2.00E-02
49962,9.22E-03,8.19E-03
49963,9.93E-03,8.10E-03
49964,1.02E-02,8.00E-03
49965,1.00E-02,7.90E-03
49966,9.91E-03,7.80E-03
49967,9.68E-03,7.70E-03
49968,8.71E-03,7.61E-03
49969,8.59E-03,7.51E-03
49970,8.24E-03,7.42E-03
49971,8.13E-03,7.34E-03
49972,7.99E-03,7.25E-03
49973,7.75E-03,7.16E-03
49974,7.57E-03,7.08E-03
49975,7.38E-03,7.00E-03
49976,7.24E-03,6.92E-03
49977,7.14E-03,6.84E-03
49978,7.04E-03,6.76E-03
49979,6.95E-03,6.69E-03
49980,6.85E-03,6.62E-03
49981,6.75E-03,6.55E-03
49982,6.61E-03,6.48E-03
49983,6.46E-03,6.41E-03
49984,6.30E-03,6.35E-03
49985,6.15E-03,6.29E-03
49986,6.05E-03,6.23E-03
49987,6.02E-03,6.17E-03
49988,6.01E-03,6.12E-03
49989,6.01E-03,6.06E-03
49990,6.00E-03,6.01E-03
49991,5.99E-03,5.96E-03
49992,5.99E-03,5.91E-03
49993,5.97E-03,5.86E-03
49994,5.94E-03,5.82E-03
49995,5.92E-03,5.77E-03
49996,5.89E-03,5.73E-03
49997,5.86E-03,5.68E-03
49998,5.84E-03,5.64E-03
49999,5.83E-03,5.60E-03
50000,5.85E-03,5.56E-03
50001,5.88E-03,5.53E-03
50002,5.92E-03,5.49E-03
50003,5.96E-03,5.45E-03
50004,6.03E-03,5.42E-03
50005,6.09E-03,5.38E-03
50006,6.17E-03,5.35E-03
50007,6.27E-03,5.32E-03
50008,6.40E-03,5.29E-03
50009,6.53E-03,5.25E-03
50010,6.65E-03,5.22E-03
50011,6.74E-03,5.19E-03
50012,6.80E-03,5.16E-03
50013,6.86E-03,5.13E-03
50014,6.92E-03,5.10E-03
50015,6.98E-03,5.07E-03
50016,7.04E-03,5.04E-03
50017,7.09E-03,5.01E-03
50018,7.14E-03,4.98E-03
50019,7.20E-03,4.95E-03
50020,7.25E-03,4.93E-03
50021,7.30E-03,4.90E-03
50022,7.35E-03,4.87E-03
50023,7.38E-03,4.84E-03
50024,7.41E-03,4.81E-03
50025,7.43E-03,4.79E-03
50026,7.46E-03,4.76E-03
50027,7.48E-03,4.73E-03
50028,7.51E-03,4.70E-03
50029,7.54E-03,4.67E-03
50030,7.56E-03,4.65E-03
50031,7.59E-03,4.62E-03
50032,7.64E-03,4.59E-03
50033,7.69E-03,4.56E-03
50034,7.74E-03,4.53E-03
50035,7.78E-03,4.50E-03
50036,7.81E-03,4.47E-03
50037,7.84E-03,4.44E-03
50038,7.86E-03,4.40E-03
50039,7.88E-03,4.37E-03
50040,7.87E-03,4.34E-03
50041,7.84E-03,4.30E-03
50042,7.60E-03,4.27E-03
50043,7.53E-03,4.23E-03
50044,7.27E-03,4.20E-03
50045,7.17E-03,4.16E-03
50046,7.03E-03,4.13E-03
50047,6.83E-03,4.09E-03
50048,6.64E-03,4.06E-03
50049,6.41E-03,4.03E-03
50050,6.17E-03,4.00E-03
50051,5.88E-03,3.97E-03
50052,5.56E-03,3.94E-03
50053,5.20E-03,3.92E-03
50054,4.93E-03,3.90E-03
50055,4.56E-03,3.88E-03
50056,4.15E-03,3.86E-03
50057,3.77E-03,3.85E-03
50058,3.44E-03,3.83E-03
50059,3.04E-03,3.82E-03
50060,2.81E-03,3.81E-03
50061,2.63E-03,3.80E-03
50062,2.97E-03,3.80E-03
50063,2.97E-03,3.79E-03
50064,3.25E-03,3.79E-03
50065,3.44E-03,3.79E-03
50066,3.55E-03,3.80E-03
50067,3.80E-03,3.81E-03
50068,3.99E-03,3.83E-03
50069,4.07E-03,3.85E-03
50070,4.61E-03,3.87E-03
50071,4.66E-03,3.89E-03
50072,4.86E-03,3.91E-03
50073,5.22E-03,3.93E-03
50074,5.42E-03,3.96E-03
50075,5.62E-03,3.99E-03
50076,5.81E-03,4.03E-03
50077,5.96E-03,4.06E-03
50078,6.08E-03,4.10E-03
50079,6.19E-03,4.14E-03
50080,6.31E-03,4.19E-03
50081,6.72E-03,4.23E-03
50082,7.48E-03,4.29E-03
50083,8.07E-03,4.35E-03
50084,8.54E-03,4.41E-03
50085,9.18E-03,4.48E-03
50086,9.78E-03,4.55E-03
50087,1.05E-02,4.63E-03
50088,1.05E-02,4.71E-03
50089,6.94E-03,4.77E-03
50090,6.88E-03,4.82E-03
50091,6.67E-03,4.88E-03
50092,6.45E-03,4.92E-03
50093,6.81E-03,4.94E-03
50094,4.20E-03,5.03E-03
50095,4.13E-03,5.23E-03
50096,4.41E-03,5.29E-03
50097,5.01E-03,5.36E-03
50098,6.69E-03,5.46E-03
50099,6.76E-03,5.60E-03
50100,7.14E-03,5.74E-03
50101,8.51E-03,1.14E-02
50102,8.13E-03,1.17E-02
50103,7.44E-03,1.21E-02
50104,8.10E-03,1.45E-02
50105,8.10E-03,1.46E-02
50106,8.11E-03,2.05E-02
50107,8.45E-03,1.35E-02
50108,8.71E-03,3.01E-02
50109,6.98E-03,3.17E-02
50110,7.94E-03,3.30E-02
50111,6.31E-03,3.41E-02
50112,6.21E-03,3.46E-02
50113,6.38E-03,3.42E-02
50114,7.29E-03,3.51E-02
50115,7.82E-03,3.53E-02
50116,8.39E-03,3.53E-02
50117,7.44E-03,1.14E-02
50118,5.90E-03,1.24E-02
50119,8.10E-03,1.33E-02
50120,9.90E-03,9.96E-03
50121,7.30E-03,2.37E-02
50122,8.56E-03,2.68E-02
50123,6.85E-03,1.27E-02
50124,8.91E-03,1.13E-02
50125,6.89E-03,1.14E-02
50126,6.17E-03,1.15E-02
50127,8.24E-03,8.57E-03
50128,8.89E-03,2.02E-02
50129,7.89E-03,2.02E-02
50130,8.00E-03,2.02E-02
50131,8.62E-03,8.29E-03
50132,8.80E-03,7.94E-03
50133,6.49E-03,7.11E-03
50134,9.25E-03,6.62E-03
50135,6.82E-03,6.92E-03
50136,8.62E-03,7.54E-03
50137,8.23E-03,2.03E-02
50138,7.39E-03,1.04E-02
50139,6.10E-03,2.33E-02
50140,4.78E-03,2.33E-02
50141,8.41E-03,1.96E-02
50142,1.01E-02,1.96E-02
50143,1.00E-02,1.95E-02
50144,1.01E-02,1.95E-02
50145,1.04E-02,1.94E-02
50146,1.05E-02,1.94E-02
50147,1.01E-02,1.94E-02
50148,1.01E-02,1.93E-02
50149,9.65E-03,1.93E-02
50150,9.56E-03,1.93E-02
50151,9.38E-03,1.92E-02
50152,9.02E-03,1.92E-02
50153,8.90E-03,1.92E-02
50154,8.81E-03,1.92E-02
50155,8.71E-03,1.92E-02
50156,8.65E-03,1.92E-02
50157,8.62E-03,1.92E-02
50158,8.62E-03,1.92E-02
50159,8.62E-03,1.92E-02
50160,8.58E-03,1.92E-02
50161,8.48E-03,1.92E-02
50162,8.37E-03,1.92E-02
50163,8.30E-03,1.92E-02
50164,8.24E-03,1.92E-02
50165,8.20E-03,1.92E-02
50166,8.17E-03,1.92E-02
50167,8.17E-03,1.92E-02
50168,8.16E-03,1.92E-02
50169,8.16E-03,1.92E-02
50170,8.15E-03,1.92E-02
50171,8.14E-03,1.92E-02
50172,8.12E-03,1.92E-02
50173,8.09E-03,1.92E-02
50174,8.08E-03,1.92E-02
50175,8.06E-03,1.92E-02
50176,8.04E-03,1.92E-02
50177,8.02E-03,1.92E-02
50178,8.01E-03,1.91E-02
50179,8.02E-03,1.91E-02
50180,8.05E-03,1.91E-02
50181,8.08E-03,1.91E-02
50182,8.10E-03,1.90E-02
50183,8.13E-03,1.90E-02
50184,8.15E-03,1.89E-02
50185,8.18E-03,1.89E-02
50186,8.21E-03,1.89E-02
50187,8.26E-03,1.88E-02
50188,8.33E-03,1.88E-02
50189,8.39E-03,1.87E-02
50190,8.44E-03,1.87E-02
50191,8.47E-03,1.86E-02
50192,8.49E-03,1.85E-02
50193,8.52E-03,1.85E-02
50194,8.55E-03,1.84E-02
50195,8.58E-03,1.83E-02
50196,8.62E-03,1.83E-02
50197,8.66E-03,1.82E-02
50198,8.70E-03,1.81E-02
50199,8.76E-03,1.81E-02
50200,8.84E-03,1.80E-02
50201,8.92E-03,1.79E-02
50202,9.01E-03,1.79E-02
50203,9.06E-03,1.78E-02
50204,9.07E-03,1.77E-02
50205,9.06E-03,1.77E-02
50206,9.02E-03,1.76E-02
50207,8.98E-03,1.75E-02
50208,8.96E-03,1.75E-02
50209,8.93E-03,1.74E-02
50210,8.89E-03,1.74E-02
50211,8.86E-03,1.73E-02
50212,8.87E-03,1.73E-02
50213,8.87E-03,1.72E-02
50214,8.78E-03,1.72E-02
50215,8.57E-03,1.71E-02
50216,8.34E-03,1.71E-02
50217,8.11E-03,1.71E-02
50218,7.96E-03,1.71E-02
50219,7.97E-03,1.70E-02
50220,8.01E-03,1.70E-02
50221,7.97E-03,1.70E-02
50222,7.87E-03,1.70E-02
50223,7.78E-03,1.70E-02
50224,7.70E-03,1.69E-02
50225,7.61E-03,1.69E-02
50226,7.51E-03,1.69E-02
50227,7.38E-03,1.69E-02
50228,7.24E-03,1.68E-02
50229,7.12E-03,1.68E-02
50230,7.04E-03,1.68E-02
50231,6.98E-03,1.67E-02
50232,6.93E-03,1.67E-02
50233,6.89E-03,1.67E-02
50234,6.86E-03,1.66E-02
50235,6.83E-03,1.65E-02
50236,6.79E-03,1.65E-02
50237,6.73E-03,1.64E-02
50238,6.66E-03,1.63E-02
50239,6.61E-03,1.63E-02
50240,6.61E-03,1.62E-02
50241,6.64E-03,1.61E-02
50242,6.68E-03,1.60E-02
50243,6.71E-03,1.59E-02
50244,6.76E-03,1.58E-02
50245,6.80E-03,1.57E-02
50246,6.84E-03,1.56E-02
50247,6.88E-03,1.55E-02
50248,6.92E-03,1.54E-02
50249,6.94E-03,1.53E-02
50250,6.96E-03,1.52E-02
50251,6.98E-03,1.51E-02
50252,6.99E-03,1.50E-02
50253,7.00E-03,1.48E-02
50254,7.02E-03,1.47E-02
50255,7.02E-03,1.46E-02
50256,7.01E-03,1.45E-02
50257,6.98E-03,1.44E-02
50258,6.94E-03,1.43E-02
50259,6.91E-03,1.42E-02
50260,6.87E-03,1.41E-02
50261,6.82E-03,1.39E-02
50262,6.77E-03,1.38E-02
50263,6.69E-03,1.37E-02
50264,6.59E-03,1.36E-02
50265,6.48E-03,1.35E-02
50266,6.39E-03,1.34E-02
50267,6.30E-03,1.33E-02
50268,6.27E-03,1.32E-02
50269,6.31E-03,1.31E-02
50270,6.36E-03,1.30E-02
50271,6.30E-03,1.30E-02
50272,6.29E-03,1.29E-02
50273,7.41E-03,1.28E-02
50274,8.42E-03,1.26E-02
50275,8.95E-03,1.25E-02
50276,8.95E-03,1.24E-02
50277,1.09E-02,1.22E-02
50278,1.10E-02,1.20E-02
50279,1.12E-02,1.19E-02
50280,1.14E-02,1.17E-02
50281,1.14E-02,1.16E-02
50282,1.15E-02,1.14E-02
50283,1.15E-02,1.12E-02
50284,1.13E-02,1.10E-02
50285,1.12E-02,1.08E-02
50286,1.10E-02,1.07E-02
50287,1.09E-02,1.05E-02
50288,1.08E-02,1.03E-02
50289,1.06E-02,1.02E-02
50290,1.04E-02,9.98E-03
50291,1.02E-02,9.82E-03
50292,9.36E-03,9.67E-03
50293,7.47E-03,9.54E-03
50294,7.41E-03,9.42E-03
50295,7.35E-03,9.31E-03
50296,7.33E-03,9.20E-03
50297,7.48E-03,9.08E-03
50298,7.44E-03,8.98E-03
50299,7.54E-03,8.87E-03
50300,7.28E-03,8.75E-03
50301,8.53E-03,1.35E-02
50302,7.83E-03,1.36E-02
50303,7.19E-03,1.37E-02
50304,8.08E-03,1.21E-02
50305,6.29E-03,1.26E-02
50306,7.46E-03,8.97E-03
50307,7.92E-03,8.78E-03
50308,7.88E-03,8.56E-03
50309,7.99E-03,8.34E-03
50310,8.01E-03,8.12E-03
50311,8.09E-03,7.91E-03
50312,8.09E-03,7.69E-03
50313,8.09E-03,7.47E-03
50314,8.09E-03,7.25E-03
50315,8.09E-03,7.04E-03
50316,8.09E-03,6.83E-03
50317,8.09E-03,6.61E-03
50318,8.09E-03,6.41E-03
50319,8.09E-03,6.20E-03
50320,8.09E-03,6.00E-03
50321,8.09E-03,5.80E-03
50322,8.09E-03,5.61E-03
50323,8.09E-03,5.42E-03
50324,8.09E-03,5.23E-03
50325,8.09E-03,5.06E-03
50326,8.09E-03,4.89E-03
50327,8.09E-03,4.72E-03
50328,8.09E-03,4.57E-03
50329,8.09E-03,4.43E-03
50330,8.09E-03,4.30E-03
50331,8.09E-03,4.18E-03
50332,8.09E-03,4.07E-03
50333,8.09E-03,3.97E-03
50334,8.09E-03,3.89E-03
50335,8.09E-03,3.83E-03
50336,8.09E-03,3.78E-03
50337,8.09E-03,3.75E-03
50338,8.09E-03,3.73E-03
50339,8.09E-03,3.73E-03
50340,8.09E-03,3.75E-03
50341,8.09E-03,3.78E-03
50342,8.09E-03,3.82E-03
50343,8.09E-03,3.89E-03
50344,8.09E-03,3.96E-03
50345,8.09E-03,4.05E-03
50346,8.09E-03,4.15E-03
50347,8.09E-03,4.25E-03
50348,8.09E-03,4.37E-03
50349,8.09E-03,4.50E-03
50350,8.09E-03,4.63E-03
50351,8.09E-03,4.77E-03
50352,8.09E-03,4.91E-03
50353,8.09E-03,5.06E-03
50354,8.09E-03,5.21E-03
50355,8.09E-03,5.36E-03
50356,8.09E-03,5.52E-03
50357,8.09E-03,5.68E-03
50358,8.09E-03,5.84E-03
50359,8.09E-03,6.01E-03
50360,8.09E-03,6.17E-03
50361,8.09E-03,6.33E-03
50362,8.09E-03,6.50E-03
50363,8.09E-03,6.66E-03
50364,8.09E-03,6.83E-03
50365,8.09E-03,6.99E-03
50366,8.09E-03,7.16E-03
50367,8.09E-03,7.32E-03
50368,8.09E-03,7.48E-03
50369,8.09E-03,7.65E-03
50370,8.09E-03,7.81E-03
50371,8.09E-03,7.96E-03
50372,8.09E-03,8.12E-03
50373,8.09E-03,8.28E-03
50374,8.09E-03,8.43E-03
50375,8.09E-03,8.59E-03
50376,8.09E-03,8.74E-03
50377,8.09E-03,8.89E-03
50378,8.09E-03,9.04E-03
50379,8.09E-03,9.19E-03
50380,8.09E-03,9.34E-03
50381,8.09E-03,9.48E-03
50382,8.00E-03,9.62E-03
50383,7.89E-03,9.76E-03
50384,7.81E-03,9.90E-03
50385,7.71E-03,1.00E-02
50386,7.66E-03,1.02E-02
50387,7.57E-03,1.03E-02
50388,7.50E-03,1.04E-02
50389,7.24E-03,1.06E-02
50390,6.90E-03,1.07E-02
50391,7.28E-03,1.19E-02
50392,7.36E-03,2.22E-02
50393,8.38E-03,9.24E-03
50394,9.46E-03,1.12E-02
50395,1.11E-02,1.10E-02
50396,1.09E-02,1.09E-02
50397,1.11E-02,1.07E-02
50398,1.10E-02,1.06E-02
50399,1.10E-02,1.04E-02
50400,1.12E-02,1.03E-02
50401,1.11E-02,1.02E-02
50402,1.09E-02,1.01E-02
50403,1.08E-02,9.96E-03
50404,1.06E-02,9.86E-03
50405,1.05E-02,9.77E-03
50406,1.04E-02,9.69E-03
50407,1.03E-02,9.62E-03
50408,1.02E-02,9.55E-03
50409,1.00E-02,9.49E-03
50410,9.95E-03,9.43E-03
50411,9.84E-03,9.39E-03
50412,9.70E-03,9.34E-03
50413,9.52E-03,9.31E-03
50414,9.33E-03,9.27E-03
50415,9.16E-03,9.25E-03
50416,9.05E-03,9.23E-03
50417,8.97E-03,9.21E-03
50418,8.89E-03,9.19E-03
50419,8.82E-03,9.18E-03
50420,8.76E-03,9.17E-03
50421,8.71E-03,9.17E-03
50422,8.65E-03,9.17E-03
50423,8.59E-03,9.17E-03
50424,8.52E-03,9.18E-03
50425,8.44E-03,9.19E-03
50426,8.36E-03,9.20E-03
50427,8.28E-03,9.21E-03
50428,8.21E-03,9.23E-03
50429,8.17E-03,9.25E-03
50430,8.16E-03,9.27E-03
50431,8.13E-03,9.29E-03
50432,8.05E-03,9.32E-03
50433,7.93E-03,9.35E-03
50434,7.79E-03,9.38E-03
50435,7.62E-03,9.41E-03
50436,7.44E-03,9.44E-03
50437,7.33E-03,9.48E-03
50438,7.15E-03,9.51E-03
50439,7.03E-03,9.55E-03
50440,6.94E-03,9.59E-03
50441,6.76E-03,9.63E-03
50442,6.54E-03,9.67E-03
50443,6.31E-03,9.71E-03
50444,6.10E-03,9.75E-03
50445,5.94E-03,9.79E-03
50446,5.68E-03,9.82E-03
50447,5.49E-03,9.86E-03
50448,5.33E-03,9.90E-03
50449,4.82E-03,9.93E-03
50450,4.50E-03,9.97E-03
50451,4.32E-03,1.00E-02
50452,4.28E-03,1.00E-02
50453,4.26E-03,1.01E-02
50454,4.26E-03,1.01E-02
50455,4.31E-03,1.01E-02
50456,4.38E-03,1.02E-02
50457,4.50E-03,1.02E-02
50458,4.71E-03,1.02E-02
50459,4.77E-03,1.03E-02
50460,4.91E-03,1.03E-02
50461,5.09E-03,1.03E-02
50462,5.18E-03,1.04E-02
50463,5.34E-03,1.04E-02
50464,5.47E-03,1.04E-02
50465,5.57E-03,1.05E-02
50466,5.70E-03,1.05E-02
50467,5.80E-03,1.06E-02
50468,5.76E-03,1.06E-02
50469,5.87E-03,1.07E-02
50470,5.98E-03,1.07E-02
50471,6.37E-03,1.08E-02
50472,6.68E-03,1.08E-02
50473,8.09E-03,1.14E-02
50474,8.09E-03,1.13E-02
50475,8.09E-03,1.11E-02
50476,8.09E-03,1.10E-02
50477,8.09E-03,1.08E-02
50478,8.09E-03,1.07E-02
50479,8.09E-03,1.05E-02
50480,8.09E-03,1.04E-02
50481,8.09E-03,1.02E-02
50482,8.09E-03,1.01E-02
50483,8.09E-03,9.91E-03
50484,8.09E-03,9.75E-03
50485,8.09E-03,9.59E-03
50486,8.09E-03,9.43E-03
50487,8.09E-03,9.26E-03
50488,8.09E-03,9.10E-03
50489,8.09E-03,8.93E-03
50490,8.09E-03,8.76E-03
50491,8.09E-03,8.59E-03
50492,8.09E-03,8.42E-03
50493,8.09E-03,8.25E-03
50494,8.09E-03,8.08E-03
50495,8.09E-03,7.91E-03
50496,8.09E-03,7.74E-03
50497,8.09E-03,7.57E-03
50498,8.09E-03,7.40E-03
50499,8.09E-03,7.23E-03
50500,8.09E-03,7.06E-03
50501,8.09E-03,6.90E-03
50502,8.09E-03,6.73E-03
50503,8.09E-03,6.57E-03
50504,8.09E-03,6.41E-03
50505,8.09E-03,6.25E-03
50506,8.09E-03,6.09E-03
50507,8.09E-03,5.94E-03
50508,8.09E-03,5.79E-03
50509,8.09E-03,5.65E-03
50510,8.09E-03,5.51E-03
50511,8.09E-03,5.38E-03
50512,8.09E-03,5.26E-03
50513,8.09E-03,5.14E-03
50514,8.09E-03,5.03E-03
50515,8.09E-03,4.93E-03
50516,8.09E-03,4.85E-03
50517,8.09E-03,4.77E-03
50518,8.09E-03,4.70E-03
50519,8.09E-03,4.64E-03
50520,8.09E-03,4.60E-03
50521,8.09E-03,4.57E-03
50522,8.09E-03,4.56E-03
50523,8.09E-03,4.55E-03
50524,8.09E-03,4.57E-03
50525,8.09E-03,4.59E-03
50526,8.09E-03,4.64E-03
50527,8.09E-03,4.69E-03
50528,8.09E-03,4.76E-03
50529,8.09E-03,4.84E-03
50530,8.09E-03,4.94E-03
50531,8.09E-03,5.04E-03
50532,8.09E-03,5.16E-03
50533,8.09E-03,5.29E-03
50534,8.09E-03,5.43E-03
50535,8.09E-03,5.58E-03
50536,8.09E-03,5.74E-03
50537,8.09E-03,5.91E-03
50538,8.09E-03,6.08E-03
50539,8.09E-03,6.26E-03
50540,8.09E-03,6.45E-03
50541,8.09E-03,6.64E-03
50542,8.09E-03,6.84E-03
50543,8.09E-03,7.05E-03
50544,8.09E-03,7.26E-03
50545,8.09E-03,7.47E-03
50546,8.09E-03,7.69E-03
50547,8.09E-03,7.91E-03
50548,8.09E-03,8.14E-03
50549,8.09E-03,8.37E-03
50550,8.09E-03,8.60E-03
50551,8.09E-03,8.83E-03
50552,8.09E-03,9.07E-03
50553,8.09E-03,9.31E-03
50554,8.09E-03,9.55E-03
50555,8.09E-03,9.80E-03
50556,8.09E-03,1.00E-02
50557,8.09E-03,1.03E-02
50558,8.01E-03,1.05E-02
50559,7.96E-03,1.08E-02
50560,7.86E-03,1.10E-02
50561,7.93E-03,1.13E-02
50562,7.81E-03,1.16E-02
50563,7.62E-03,1.18E-02
50564,7.46E-03,1.20E-02
50565,7.22E-03,1.22E-02
50566,7.24E-03,1.25E-02
50567,8.10E-03,1.44E-02
50568,8.10E-03,1.46E-02
50569,7.69E-03,2.10E-02
50570,9.40E-03,2.99E-02
50571,9.25E-03,3.25E-02
50572,9.48E-03,3.28E-02
50573,8.27E-03,3.32E-02
50574,7.40E-03,3.38E-02
50575,6.23E-03,3.43E-02
50576,5.62E-03,1.17E-02
50577,5.98E-03,1.27E-02
50578,5.89E-03,1.27E-02
50579,5.75E-03,1.27E-02
50580,8.10E-03,1.34E-02
50581,7.68E-03,2.76E-02
50582,7.95E-03,2.84E-02
50583,2.48E-03,1.31E-02
50584,4.00E-03,1.30E-02
50585,7.68E-03,2.03E-02
50586,7.74E-03,2.03E-02
50587,1.10E-02,1.22E-02
50588,8.97E-03,8.29E-03
50589,8.88E-03,8.22E-03
50590,8.95E-03,8.14E-03
50591,8.10E-03,1.16E-02
50592,8.10E-03,1.42E-02
50593,8.10E-03,1.45E-02
50594,7.58E-03,2.15E-02
50595,7.09E-03,1.16E-02
50596,8.10E-03,1.35E-02
50597,3.47E-03,1.33E-02
50598,5.74E-03,1.31E-02
50599,6.25E-03,1.17E-02
50600,6.84E-03,1.19E-02
50601,7.14E-03,1.08E-02
50602,8.10E-03,1.41E-02
50603,8.10E-03,1.45E-02
50604,6.52E-03,1.38E-02
50605,6.58E-03,1.38E-02
50606,8.10E-03,1.36E-02
50607,7.21E-03,1.13E-02
50608,8.10E-03,1.40E-02
50609,8.10E-03,1.45E-02
50610,8.10E-03,1.37E-02
50611,8.10E-03,1.22E-02
50612,8.10E-03,1.21E-02
50613,8.10E-03,1.19E-02
50614,8.10E-03,1.17E-02
50615,8.10E-03,1.39E-02
50616,8.10E-03,1.44E-02
50617,8.10E-03,1.38E-02
50618,8.10E-03,1.24E-02
50619,8.10E-03,1.37E-02
50620,8.10E-03,1.44E-02
50621,8.02E-03,1.38E-02
50622,8.10E-03,1.26E-02
50623,8.10E-03,1.36E-02
50624,7.86E-03,1.43E-02
50625,8.11E-03,1.39E-02
50626,8.10E-03,1.34E-02
50627,7.90E-03,1.43E-02
50628,8.11E-03,1.40E-02
50629,8.10E-03,1.27E-02
50630,8.10E-03,1.33E-02
50631,7.93E-03,1.42E-02
50632,8.10E-03,1.41E-02
50633,8.10E-03,1.29E-02
50634,8.10E-03,1.32E-02
50635,8.03E-03,1.41E-02
50636,8.10E-03,1.30E-02
50637,6.61E-03,8.70E-03
50638,6.30E-03,8.59E-03
50639,8.81E-03,9.02E-03
50640,7.63E-03,1.16E-02
50641,8.10E-03,1.45E-02
50642,8.10E-03,1.46E-02
50643,1.16E-02,1.99E-02
50644,8.72E-03,1.94E-02
50645,1.09E-02,1.89E-02
50646,8.13E-03,1.84E-02
50647,8.13E-03,1.80E-02
50648,8.11E-03,1.76E-02
50649,8.06E-03,1.72E-02
50650,8.01E-03,1.67E-02
50651,8.01E-03,1.63E-02
50652,8.01E-03,1.59E-02
50653,8.07E-03,1.55E-02
50654,8.13E-03,1.51E-02
50655,8.13E-03,1.47E-02
50656,8.21E-03,1.43E-02
50657,8.41E-03,1.39E-02
50658,8.49E-03,3.05E-02
50659,9.42E-03,3.08E-02
50660,4.60E-03,3.11E-02
50661,5.95E-03,3.13E-02
50662,6.47E-03,3.15E-02
50663,7.56E-03,3.33E-02
50664,6.20E-03,3.48E-02
50665,6.72E-03,3.48E-02
50666,6.38E-03,1.38E-02
50667,7.16E-03,1.38E-02
50668,7.48E-03,1.38E-02
50669,8.42E-03,1.39E-02
50670,8.42E-03,1.40E-02
50671,8.36E-03,1.42E-02
50672,6.89E-03,1.44E-02
50673,6.35E-03,1.45E-02
50674,6.09E-03,1.47E-02
50675,5.74E-03,1.49E-02
50676,5.28E-03,1.51E-02
50677,5.08E-03,1.53E-02
50678,5.24E-03,1.55E-02
50679,5.59E-03,1.57E-02
50680,5.84E-03,1.59E-02
50681,5.97E-03,1.62E-02
50682,6.10E-03,1.65E-02
50683,6.23E-03,1.68E-02
50684,6.35E-03,1.71E-02
50685,6.40E-03,1.75E-02
50686,6.39E-03,1.78E-02
50687,6.37E-03,1.82E-02
50688,6.35E-03,1.87E-02
50689,6.31E-03,1.91E-02
50690,6.19E-03,1.95E-02
50691,6.10E-03,2.00E-02
50692,5.93E-03,2.05E-02
50693,5.79E-03,2.09E-02
50694,5.56E-03,2.14E-02
50695,5.29E-03,2.18E-02
50696,5.09E-03,2.23E-02
50697,4.72E-03,2.27E-02
50698,4.12E-03,2.31E-02
50699,3.87E-03,2.34E-02
50700,3.64E-03,2.37E-02
50701,3.52E-03,2.40E-02
50702,3.44E-03,2.43E-02
50703,3.42E-03,2.46E-02
50704,3.39E-03,2.49E-02
50705,3.50E-03,2.52E-02
50706,4.33E-03,2.56E-02
50707,4.72E-03,2.60E-02
50708,4.73E-03,2.64E-02
50709,5.11E-03,2.68E-02
50710,5.20E-03,2.72E-02
50711,5.43E-03,2.76E-02
50712,5.74E-03,2.80E-02
50713,5.87E-03,2.85E-02
50714,6.01E-03,2.89E-02
50715,6.13E-03,2.93E-02
50716,6.23E-03,2.98E-02
50717,6.27E-03,3.02E-02
50718,6.28E-03,3.06E-02
50719,6.24E-03,3.10E-02
50720,6.19E-03,3.14E-02
50721,6.15E-03,3.18E-02
50722,6.10E-03,3.22E-02
50723,5.90E-03,3.25E-02
50724,5.44E-03,3.28E-02
50725,5.03E-03,3.31E-02
50726,4.85E-03,3.33E-02
50727,4.66E-03,3.36E-02
50728,4.62E-03,3.38E-02
50729,4.99E-03,3.41E-02
50730,5.48E-03,3.43E-02
50731,5.84E-03,3.45E-02
50732,6.13E-03,3.46E-02
50733,6.46E-03,3.48E-02
50734,6.87E-03,3.50E-02
50735,7.29E-03,3.51E-02
50736,7.57E-03,3.52E-02
50737,7.71E-03,3.53E-02
50738,7.83E-03,3.54E-02
50739,8.00E-03,3.54E-02
50740,8.13E-03,3.55E-02
50741,8.17E-03,3.55E-02
50742,8.43E-03,3.55E-02
50743,8.52E-03,3.54E-02
50744,8.65E-03,3.54E-02
50745,7.96E-03,1.14E-02
50746,8.30E-03,1.14E-02
50747,1.03E-02,1.14E-02
50748,1.01E-02,1.15E-02
50749,9.98E-03,1.15E-02
50750,9.80E-03,1.15E-02
50751,9.64E-03,1.16E-02
50752,9.31E-03,1.16E-02
50753,9.05E-03,1.17E-02
50754,8.78E-03,1.17E-02
50755,8.49E-03,1.18E-02
50756,8.24E-03,1.18E-02
50757,8.11E-03,1.18E-02
50758,8.12E-03,1.19E-02
50759,7.86E-03,1.19E-02
50760,7.35E-03,1.20E-02
50761,6.96E-03,1.20E-02
50762,6.92E-03,1.20E-02
50763,6.96E-03,1.21E-02
50764,6.91E-03,1.21E-02
50765,6.91E-03,1.21E-02
50766,6.94E-03,1.22E-02
50767,6.97E-03,1.22E-02
50768,6.99E-03,1.22E-02
50769,6.99E-03,1.22E-02
50770,7.00E-03,1.23E-02
50771,7.02E-03,1.23E-02
50772,7.14E-03,1.23E-02
50773,7.33E-03,1.23E-02
50774,7.62E-03,1.23E-02
50775,8.21E-03,1.23E-02
50776,8.46E-03,1.23E-02
50777,8.57E-03,1.23E-02
50778,8.75E-03,1.24E-02
50779,9.04E-03,1.24E-02
50780,9.39E-03,1.24E-02
50781,8.09E-03,1.31E-02
50782,8.09E-03,1.29E-02
50783,8.09E-03,1.28E-02
50784,8.09E-03,1.26E-02
50785,8.09E-03,1.24E-02
50786,8.09E-03,1.22E-02
50787,8.09E-03,1.20E-02
50788,8.09E-03,1.18E-02
50789,8.09E-03,1.17E-02
50790,8.09E-03,1.15E-02
50791,8.09E-03,1.13E-02
50792,8.09E-03,1.11E-02
50793,8.18E-03,1.09E-02
50794,8.20E-03,1.07E-02
50795,8.88E-03,1.02E-02
50796,8.49E-03,1.05E-02
50797,7.71E-03,2.40E-02
50798,8.10E-03,2.45E-02
50799,8.29E-03,2.49E-02
50800,8.18E-03,2.54E-02
50801,8.15E-03,2.58E-02
50802,8.18E-03,2.63E-02
50803,6.33E-03,1.27E-02
50804,4.30E-03,1.83E-02
50805,5.72E-03,1.15E-02
50806,5.61E-03,1.16E-02
50807,5.90E-03,1.16E-02
50808,2.52E-03,1.14E-02
50809,3.04E-03,1.15E-02
50810,3.15E-03,1.15E-02
50811,3.27E-03,1.15E-02
50812,3.56E-03,1.16E-02
50813,3.82E-03,1.16E-02
50814,3.78E-03,1.16E-02
50815,5.07E-03,1.16E-02
50816,5.42E-03,1.15E-02
50817,5.81E-03,1.15E-02
50818,5.96E-03,1.14E-02
50819,6.52E-03,1.14E-02
50820,6.74E-03,1.13E-02
50821,6.95E-03,1.12E-02
50822,7.10E-03,1.12E-02
50823,7.18E-03,1.11E-02
50824,7.26E-03,1.10E-02
50825,7.34E-03,1.09E-02
50826,7.41E-03,1.08E-02
50827,7.49E-03,1.07E-02
50828,7.57E-03,1.06E-02
50829,7.64E-03,1.05E-02
50830,7.68E-03,1.04E-02
50831,7.70E-03,1.03E-02
50832,7.72E-03,1.02E-02
50833,7.74E-03,1.01E-02
50834,7.76E-03,9.94E-03
50835,7.77E-03,9.81E-03
50836,7.79E-03,9.69E-03
50837,7.81E-03,9.56E-03
50838,7.83E-03,9.44E-03
50839,7.85E-03,9.32E-03
50840,7.86E-03,9.19E-03
50841,7.87E-03,9.07E-03
50842,7.89E-03,8.95E-03
50843,7.90E-03,8.84E-03
50844,7.91E-03,8.73E-03
50845,7.92E-03,8.62E-03
50846,7.93E-03,8.52E-03
50847,7.94E-03,8.43E-03
50848,7.95E-03,8.35E-03
50849,7.96E-03,8.28E-03
50850,7.97E-03,8.21E-03
50851,7.98E-03,8.16E-03
50852,7.98E-03,8.12E-03
50853,7.99E-03,8.09E-03
50854,7.99E-03,8.07E-03
50855,7.99E-03,8.06E-03
50856,7.99E-03,8.07E-03
50857,7.99E-03,8.09E-03
50858,7.99E-03,8.12E-03
50859,7.99E-03,8.17E-03
50860,7.98E-03,8.23E-03
50861,7.97E-03,8.30E-03
50862,7.96E-03,8.37E-03
50863,7.95E-03,8.46E-03
50864,7.94E-03,8.56E-03
50865,7.92E-03,8.67E-03
50866,7.91E-03,8.79E-03
50867,7.90E-03,8.91E-03
50868,7.88E-03,9.04E-03
50869,7.87E-03,9.17E-03
50870,7.86E-03,9.31E-03
50871,7.84E-03,9.46E-03
50872,7.81E-03,9.61E-03
50873,7.78E-03,9.76E-03
50874,7.75E-03,9.91E-03
50875,7.71E-03,1.01E-02
50876,7.68E-03,1.02E-02
50877,7.65E-03,1.04E-02
50878,7.61E-03,1.05E-02
50879,7.58E-03,1.07E-02
50880,7.56E-03,1.09E-02
50881,7.53E-03,1.10E-02
50882,7.51E-03,1.12E-02
50883,7.49E-03,1.13E-02
50884,7.47E-03,1.15E-02
50885,7.45E-03,1.16E-02
50886,7.42E-03,1.18E-02
50887,7.39E-03,1.20E-02
50888,7.35E-03,1.21E-02
50889,7.32E-03,1.23E-02
50890,7.29E-03,1.24E-02
50891,7.25E-03,1.26E-02
50892,7.20E-03,1.27E-02
50893,7.13E-03,1.29E-02
50894,7.07E-03,1.30E-02
50895,7.00E-03,1.31E-02
50896,6.94E-03,1.33E-02
50897,6.91E-03,1.34E-02
50898,6.90E-03,1.36E-02
50899,6.89E-03,1.37E-02
50900,6.90E-03,1.38E-02
50901,6.92E-03,1.40E-02
50902,6.95E-03,1.41E-02
50903,6.97E-03,1.42E-02
50904,6.99E-03,1.44E-02
50905,7.00E-03,1.45E-02
50906,7.02E-03,1.46E-02
50907,7.04E-03,1.47E-02
50908,7.05E-03,1.49E-02
50909,7.07E-03,1.50E-02
50910,7.09E-03,1.51E-02
50911,7.10E-03,1.53E-02
50912,7.12E-03,1.54E-02
50913,7.13E-03,1.55E-02
50914,7.15E-03,1.57E-02
50915,7.16E-03,1.58E-02
50916,7.18E-03,1.59E-02
50917,7.20E-03,1.61E-02
50918,7.20E-03,1.62E-02
50919,7.20E-03,1.63E-02
50920,7.20E-03,1.65E-02
50921,7.23E-03,1.66E-02
50922,7.28E-03,1.67E-02
50923,7.34E-03,1.69E-02
50924,7.39E-03,1.70E-02
50925,7.43E-03,1.72E-02
50926,7.41E-03,1.73E-02
50927,7.20E-03,1.75E-02
50928,7.05E-03,1.76E-02
50929,6.80E-03,1.78E-02
50930,6.43E-03,1.79E-02
50931,5.98E-03,1.80E-02
50932,5.20E-03,1.82E-02
50933,1.05E-02,1.98E-02
50934,1.03E-02,1.98E-02
50935,1.02E-02,1.97E-02
50936,1.03E-02,1.97E-02
50937,1.03E-02,1.96E-02
50938,1.04E-02,1.96E-02
50939,1.01E-02,1.96E-02
50940,1.00E-02,1.95E-02
50941,9.67E-03,1.95E-02
50942,9.49E-03,1.95E-02
50943,9.20E-03,1.94E-02
50944,8.98E-03,1.94E-02
50945,8.87E-03,1.94E-02
50946,8.78E-03,1.94E-02
50947,8.69E-03,1.94E-02
50948,8.62E-03,1.94E-02
50949,8.60E-03,1.94E-02
50950,8.60E-03,1.94E-02
50951,8.60E-03,1.94E-02
50952,8.56E-03,1.94E-02
50953,8.47E-03,1.94E-02
50954,8.36E-03,1.94E-02
50955,8.29E-03,1.94E-02
50956,8.24E-03,1.94E-02
50957,8.19E-03,1.94E-02
50958,8.17E-03,1.94E-02
50959,8.16E-03,1.94E-02
50960,8.16E-03,1.94E-02
50961,8.16E-03,1.94E-02
50962,8.15E-03,1.94E-02
50963,8.13E-03,1.94E-02
50964,8.12E-03,1.94E-02
50965,8.09E-03,1.94E-02
50966,8.08E-03,1.94E-02
50967,8.06E-03,1.94E-02
50968,8.04E-03,1.94E-02
50969,8.02E-03,1.94E-02
50970,8.02E-03,1.94E-02
50971,8.03E-03,1.93E-02
50972,8.05E-03,1.93E-02
50973,8.08E-03,1.93E-02
50974,8.10E-03,1.92E-02
50975,8.13E-03,1.92E-02
50976,8.15E-03,1.92E-02
50977,8.18E-03,1.91E-02
50978,8.21E-03,1.91E-02
50979,8.25E-03,1.90E-02
50980,8.32E-03,1.90E-02
50981,8.38E-03,1.89E-02
50982,8.42E-03,1.89E-02
50983,8.45E-03,1.88E-02
50984,8.48E-03,1.87E-02
50985,8.50E-03,1.87E-02
50986,8.53E-03,1.86E-02
50987,8.56E-03,1.85E-02
50988,8.60E-03,1.85E-02
50989,8.64E-03,1.84E-02
50990,8.67E-03,1.83E-02
50991,8.73E-03,1.83E-02
50992,8.80E-03,1.82E-02
50993,8.89E-03,1.81E-02
50994,8.97E-03,1.81E-02
50995,9.02E-03,1.80E-02
50996,9.03E-03,1.79E-02
50997,9.01E-03,1.78E-02
50998,8.98E-03,1.78E-02
50999,8.94E-03,1.77E-02
51000,8.92E-03,1.76E-02
51001,8.89E-03,1.76E-02
51002,8.86E-03,1.75E-02
51003,8.83E-03,1.75E-02
51004,8.83E-03,1.74E-02
51005,8.84E-03,1.74E-02
51006,8.75E-03,1.73E-02
51007,8.55E-03,1.73E-02
51008,8.33E-03,1.73E-02
51009,8.11E-03,1.72E-02
51010,7.97E-03,1.72E-02
51011,7.97E-03,1.72E-02
51012,8.02E-03,1.72E-02
51013,7.98E-03,1.71E-02
51014,7.88E-03,1.71E-02
51015,7.79E-03,1.71E-02
51016,7.71E-03,1.71E-02
51017,7.63E-03,1.71E-02
51018,7.54E-03,1.70E-02
51019,7.42E-03,1.70E-02
51020,7.28E-03,1.70E-02
51021,7.16E-03,1.70E-02
51022,7.09E-03,1.69E-02
51023,7.03E-03,1.69E-02
51024,6.98E-03,1.68E-02
51025,6.94E-03,1.68E-02
51026,6.91E-03,1.67E-02
51027,6.89E-03,1.67E-02
51028,6.85E-03,1.66E-02
51029,6.79E-03,1.65E-02
51030,6.73E-03,1.65E-02
51031,6.68E-03,1.64E-02
51032,6.68E-03,1.63E-02
51033,6.71E-03,1.62E-02
51034,6.74E-03,1.61E-02
51035,6.78E-03,1.60E-02
51036,6.81E-03,1.59E-02
51037,6.85E-03,1.58E-02
51038,6.89E-03,1.57E-02
51039,6.93E-03,1.56E-02
51040,6.97E-03,1.55E-02
51041,7.00E-03,1.53E-02
51042,7.01E-03,1.52E-02
51043,7.03E-03,1.51E-02
51044,7.04E-03,1.50E-02
51045,7.05E-03,1.49E-02
51046,7.07E-03,1.47E-02
51047,7.07E-03,1.46E-02
51048,7.05E-03,1.45E-02
51049,7.02E-03,1.44E-02
51050,6.99E-03,1.43E-02
51051,6.96E-03,1.42E-02
51052,6.92E-03,1.40E-02
51053,6.88E-03,1.39E-02
51054,6.83E-03,1.38E-02
51055,6.75E-03,1.37E-02
51056,6.65E-03,1.36E-02
51057,6.55E-03,1.35E-02
51058,6.46E-03,1.34E-02
51059,6.38E-03,1.33E-02
51060,6.35E-03,1.32E-02
51061,6.39E-03,1.31E-02
51062,6.44E-03,1.30E-02
51063,6.38E-03,1.29E-02
51064,6.37E-03,1.28E-02
51065,7.59E-03,1.27E-02
51066,8.35E-03,1.26E-02
51067,8.78E-03,1.24E-02
51068,8.80E-03,1.23E-02
51069,1.09E-02,1.22E-02
51070,1.10E-02,1.20E-02
51071,1.11E-02,1.18E-02
51072,1.12E-02,1.17E-02
51073,1.14E-02,1.15E-02
51074,1.13E-02,1.13E-02
51075,1.13E-02,1.11E-02
51076,1.12E-02,1.09E-02
51077,1.10E-02,1.08E-02
51078,1.09E-02,1.06E-02
51079,1.08E-02,1.04E-02
51080,1.07E-02,1.02E-02
51081,1.05E-02,1.01E-02
51082,1.03E-02,9.90E-03
51083,1.01E-02,9.73E-03
51084,9.15E-03,9.58E-03
51085,7.49E-03,9.45E-03
51086,7.43E-03,9.33E-03
51087,7.30E-03,9.21E-03
51088,7.28E-03,9.10E-03
51089,7.30E-03,8.99E-03
51090,7.23E-03,8.89E-03
51091,6.87E-03,8.79E-03
51092,6.41E-03,7.22E-03
51093,8.55E-03,2.04E-02
51094,8.29E-03,2.05E-02
51095,9.51E-03,1.99E-02
51096,9.25E-03,1.98E-02
51097,9.32E-03,1.98E-02
51098,9.29E-03,1.97E-02
51099,9.11E-03,1.96E-02
51100,9.07E-03,1.95E-02
51101,8.87E-03,1.94E-02
51102,8.08E-03,1.93E-02
51103,8.00E-03,1.93E-02
51104,7.79E-03,1.92E-02
51105,7.69E-03,1.92E-02
51106,5.90E-03,1.91E-02
51107,5.84E-03,1.90E-02
51108,5.80E-03,1.90E-02
51109,5.58E-03,1.90E-02
51110,5.30E-03,1.89E-02
51111,4.93E-03,1.89E-02
51112,4.50E-03,1.89E-02
51113,3.87E-03,1.88E-02
51114,3.35E-03,1.88E-02
51115,2.51E-03,1.88E-02
51116,1.85E-03,1.87E-02
51117,2.00E-03,1.87E-02
51118,2.21E-03,1.86E-02
51119,2.08E-03,1.86E-02
51120,1.90E-03,1.86E-02
51121,1.86E-03,1.86E-02
51122,2.09E-03,1.85E-02
51123,2.70E-03,1.84E-02
51124,3.15E-03,1.84E-02
51125,3.25E-03,1.84E-02
51126,3.04E-03,1.84E-02
51127,9.02E-03,8.37E-03
51128,8.98E-03,8.45E-03
51129,8.95E-03,8.52E-03
51130,7.63E-03,9.28E-03
51131,8.33E-03,9.65E-03
51132,8.14E-03,1.00E-02
51133,8.76E-03,1.38E-02
51134,6.24E-03,1.40E-02
51135,5.13E-03,1.41E-02
51136,4.89E-03,1.41E-02
51137,4.86E-03,1.41E-02
51138,4.96E-03,1.41E-02
51139,5.05E-03,1.42E-02
51140,5.49E-03,1.42E-02
51141,5.60E-03,1.42E-02
51142,5.80E-03,1.41E-02
51143,5.85E-03,1.41E-02
51144,5.95E-03,1.41E-02
51145,6.06E-03,1.41E-02
51146,6.03E-03,1.41E-02
51147,5.88E-03,1.40E-02
51148,6.02E-03,1.40E-02
51149,6.68E-03,1.40E-02
51150,7.25E-03,1.39E-02
51151,7.50E-03,1.39E-02
51152,7.83E-03,1.38E-02
51153,8.33E-03,1.37E-02
51154,8.79E-03,1.37E-02
51155,9.24E-03,1.36E-02
51156,9.72E-03,1.35E-02
51157,1.03E-02,1.34E-02
51158,1.06E-02,1.33E-02
51159,1.07E-02,1.32E-02
51160,1.05E-02,1.30E-02
51161,1.03E-02,1.29E-02
51162,9.91E-03,1.28E-02
51163,9.77E-03,1.28E-02
51164,9.47E-03,1.27E-02
51165,9.20E-03,1.26E-02
51166,9.12E-03,1.25E-02
51167,7.79E-03,1.18E-02
51168,6.16E-03,8.53E-03
51169,8.66E-03,9.01E-03
51170,8.17E-03,8.76E-03
51171,8.07E-03,8.53E-03
51172,8.04E-03,8.32E-03
51173,8.03E-03,8.10E-03
51174,8.09E-03,7.89E-03
51175,8.09E-03,7.67E-03
51176,8.09E-03,7.45E-03
51177,8.09E-03,7.24E-03
51178,8.09E-03,7.02E-03
51179,8.09E-03,6.81E-03
51180,8.09E-03,6.60E-03
51181,8.09E-03,6.39E-03
51182,8.09E-03,6.19E-03
51183,8.09E-03,5.99E-03
51184,8.09E-03,5.79E-03
51185,8.09E-03,5.60E-03
51186,8.09E-03,5.41E-03
51187,8.09E-03,5.23E-03
51188,8.09E-03,5.05E-03
51189,8.09E-03,4.88E-03
51190,8.09E-03,4.72E-03
51191,8.09E-03,4.57E-03
51192,8.09E-03,4.42E-03
51193,8.09E-03,4.29E-03
51194,8.09E-03,4.17E-03
51195,8.09E-03,4.06E-03
51196,8.09E-03,3.97E-03
51197,8.09E-03,3.89E-03
51198,8.09E-03,3.82E-03
51199,8.09E-03,3.78E-03
51200,8.09E-03,3.74E-03
51201,8.09E-03,3.73E-03
51202,8.09E-03,3.73E-03
51203,8.09E-03,3.74E-03
51204,8.09E-03,3.77E-03
51205,8.09E-03,3.82E-03
51206,8.09E-03,3.88E-03
51207,8.09E-03,3.96E-03
51208,8.09E-03,4.04E-03
51209,8.09E-03,4.14E-03
51210,8.09E-03,4.25E-03
51211,8.09E-03,4.37E-03
51212,8.09E-03,4.49E-03
51213,8.09E-03,4.62E-03
51214,8.09E-03,4.76E-03
51215,8.09E-03,4.91E-03
51216,8.09E-03,5.05E-03
51217,8.09E-03,5.21E-03
51218,8.09E-03,5.36E-03
51219,8.09E-03,5.52E-03
51220,8.09E-03,5.68E-03
51221,8.09E-03,5.84E-03
51222,8.09E-03,6.01E-03
51223,8.09E-03,6.17E-03
51224,8.09E-03,6.34E-03
51225,8.09E-03,6.50E-03
51226,8.09E-03,6.67E-03
51227,8.09E-03,6.84E-03
51228,8.09E-03,7.00E-03
51229,8.09E-03,7.17E-03
51230,8.09E-03,7.33E-03
51231,8.09E-03,7.50E-03
51232,8.09E-03,7.66E-03
51233,8.09E-03,7.82E-03
51234,8.09E-03,7.98E-03
51235,8.09E-03,8.14E-03
51236,8.09E-03,8.30E-03
51237,8.09E-03,8.46E-03
51238,8.09E-03,8.61E-03
51239,8.09E-03,8.77E-03
51240,8.09E-03,8.92E-03
51241,8.09E-03,9.07E-03
51242,8.09E-03,9.22E-03
51243,8.09E-03,9.37E-03
51244,8.09E-03,9.52E-03
51245,8.03E-03,9.66E-03
51246,7.95E-03,9.80E-03
51247,7.89E-03,9.94E-03
51248,7.75E-03,1.01E-02
51249,7.74E-03,1.02E-02
51250,7.64E-03,1.04E-02
51251,7.59E-03,1.05E-02
51252,7.48E-03,1.06E-02
51253,7.23E-03,1.08E-02
51254,6.90E-03,1.09E-02
51255,6.82E-03,1.28E-02
51256,7.66E-03,1.28E-02
51257,8.56E-03,1.19E-02
51258,9.57E-03,8.47E-03
51259,8.82E-03,8.04E-03
51260,7.74E-03,2.04E-02
51261,7.83E-03,2.04E-02
51262,8.10E-03,1.44E-02
51263,8.10E-03,1.45E-02
51264,7.91E-03,2.05E-02
51265,9.82E-03,1.33E-02
51266,9.09E-03,3.04E-02
51267,7.52E-03,3.21E-02
51268,7.44E-03,3.35E-02
51269,6.43E-03,3.47E-02
51270,6.66E-03,3.50E-02
51271,8.00E-03,3.58E-02
51272,8.17E-03,3.60E-02
51273,8.33E-03,3.62E-02
51274,7.79E-03,1.18E-02
51275,6.16E-03,1.27E-02
51276,8.10E-03,1.32E-02
51277,8.05E-03,2.05E-02
51278,6.06E-03,2.80E-02
51279,8.03E-03,2.87E-02
51280,7.05E-03,2.37E-02
51281,6.43E-03,1.30E-02
51282,7.68E-03,1.17E-02
51283,6.78E-03,1.18E-02
51284,6.41E-03,1.18E-02
51285,7.79E-03,2.02E-02
51286,5.79E-03,8.64E-03
51287,8.49E-03,7.63E-03
51288,1.16E-02,1.23E-02
51289,1.16E-02,1.20E-02
51290,9.01E-03,8.06E-03
51291,9.97E-03,7.97E-03
51292,1.02E-02,7.87E-03
51293,9.92E-03,7.77E-03
51294,9.86E-03,7.67E-03
51295,9.59E-03,7.57E-03
51296,8.74E-03,7.47E-03
51297,8.53E-03,7.38E-03
51298,8.16E-03,7.29E-03
51299,8.07E-03,7.20E-03
51300,7.96E-03,7.12E-03
51301,7.77E-03,7.03E-03
51302,7.60E-03,6.95E-03
51303,7.41E-03,6.86E-03
51304,7.27E-03,6.78E-03
51305,7.18E-03,6.71E-03
51306,7.09E-03,6.63E-03
51307,7.00E-03,6.55E-03
51308,6.91E-03,6.48E-03
51309,6.81E-03,6.41E-03
51310,6.67E-03,6.34E-03
51311,6.53E-03,6.28E-03
51312,6.38E-03,6.21E-03
51313,6.24E-03,6.15E-03
51314,6.14E-03,6.09E-03
51315,6.11E-03,6.03E-03
51316,6.10E-03,5.98E-03
51317,6.10E-03,5.92E-03
51318,6.09E-03,5.87E-03
51319,6.09E-03,5.82E-03
51320,6.08E-03,5.77E-03
51321,6.06E-03,5.72E-03
51322,6.04E-03,5.67E-03
51323,6.01E-03,5.63E-03
51324,5.99E-03,5.58E-03
51325,5.96E-03,5.54E-03
51326,5.94E-03,5.50E-03
51327,5.93E-03,5.46E-03
51328,5.95E-03,5.42E-03
51329,5.98E-03,5.38E-03
51330,6.01E-03,5.34E-03
51331,6.06E-03,5.31E-03
51332,6.12E-03,5.27E-03
51333,6.18E-03,5.24E-03
51334,6.25E-03,5.20E-03
51335,6.35E-03,5.17E-03
51336,6.48E-03,5.14E-03
51337,6.60E-03,5.11E-03
51338,6.71E-03,5.07E-03
51339,6.80E-03,5.04E-03
51340,6.86E-03,5.01E-03
51341,6.92E-03,4.98E-03
51342,6.98E-03,4.95E-03
51343,7.03E-03,4.92E-03
51344,7.08E-03,4.89E-03
51345,7.13E-03,4.86E-03
51346,7.19E-03,4.83E-03
51347,7.24E-03,4.80E-03
51348,7.29E-03,4.78E-03
51349,7.34E-03,4.75E-03
51350,7.38E-03,4.72E-03
51351,7.42E-03,4.69E-03
51352,7.44E-03,4.66E-03
51353,7.46E-03,4.64E-03
51354,7.49E-03,4.61E-03
51355,7.51E-03,4.58E-03
51356,7.54E-03,4.55E-03
51357,7.56E-03,4.52E-03
51358,7.58E-03,4.49E-03
51359,7.62E-03,4.47E-03
51360,7.66E-03,4.44E-03
51361,7.71E-03,4.41E-03
51362,7.76E-03,4.38E-03
51363,7.80E-03,4.35E-03
51364,7.82E-03,4.31E-03
51365,7.85E-03,4.28E-03
51366,7.87E-03,4.25E-03
51367,7.89E-03,4.22E-03
51368,7.88E-03,4.18E-03
51369,7.80E-03,4.15E-03
51370,7.62E-03,4.11E-03
51371,7.54E-03,4.08E-03
51372,7.38E-03,4.04E-03
51373,7.23E-03,4.01E-03
51374,7.07E-03,3.97E-03
51375,6.91E-03,3.94E-03
51376,6.73E-03,3.91E-03
51377,6.51E-03,3.87E-03
51378,6.26E-03,3.84E-03
51379,5.97E-03,3.82E-03
51380,5.66E-03,3.79E-03
51381,5.31E-03,3.76E-03
51382,4.97E-03,3.74E-03
51383,4.64E-03,3.72E-03
51384,4.41E-03,3.70E-03
51385,3.96E-03,3.68E-03
51386,3.63E-03,3.67E-03
51387,3.22E-03,3.67E-03
51388,2.90E-03,3.66E-03
51389,2.52E-03,3.66E-03
51390,2.53E-03,3.66E-03
51391,2.72E-03,3.62E-03
51392,3.17E-03,3.63E-03
51393,3.44E-03,3.63E-03
51394,3.55E-03,3.63E-03
51395,3.75E-03,3.63E-03
51396,3.92E-03,3.64E-03
51397,4.09E-03,3.66E-03
51398,4.18E-03,3.68E-03
51399,4.65E-03,3.69E-03
51400,4.80E-03,3.71E-03
51401,5.13E-03,3.73E-03
51402,5.35E-03,3.76E-03
51403,5.54E-03,3.78E-03
51404,5.73E-03,3.81E-03
51405,5.91E-03,3.85E-03
51406,6.06E-03,3.88E-03
51407,6.17E-03,3.92E-03
51408,6.28E-03,3.96E-03
51409,6.39E-03,4.00E-03
51410,6.78E-03,4.04E-03
51411,7.51E-03,4.09E-03
51412,8.07E-03,4.15E-03
51413,8.52E-03,4.21E-03
51414,9.13E-03,4.27E-03
51415,9.71E-03,4.34E-03
51416,1.04E-02,4.41E-03
51417,1.04E-02,4.48E-03
51418,7.03E-03,4.54E-03
51419,6.87E-03,4.59E-03
51420,6.63E-03,4.63E-03
51421,6.14E-03,4.67E-03
51422,5.77E-03,4.67E-03
51423,4.80E-03,4.67E-03
51424,3.01E-03,4.67E-03
51425,3.37E-03,4.78E-03
51426,3.68E-03,4.88E-03
51427,3.85E-03,4.99E-03
51428,4.03E-03,5.06E-03
51429,4.01E-03,5.10E-03
51430,6.81E-03,5.20E-03
51431,6.54E-03,5.35E-03
51432,7.03E-03,5.48E-03
51433,9.00E-03,5.65E-03
51434,8.76E-03,8.08E-03
51435,8.74E-03,8.00E-03
51436,8.09E-03,1.14E-02
51437,8.09E-03,1.13E-02
51438,8.09E-03,1.12E-02
51439,8.09E-03,1.10E-02
51440,8.09E-03,1.09E-02
51441,8.09E-03,1.07E-02
51442,8.09E-03,1.06E-02
51443,8.09E-03,1.04E-02
51444,8.09E-03,1.03E-02
51445,8.09E-03,1.01E-02
51446,8.09E-03,9.94E-03
51447,8.09E-03,9.78E-03
51448,8.09E-03,9.62E-03
51449,8.09E-03,9.45E-03
51450,8.09E-03,9.29E-03
51451,8.09E-03,9.12E-03
51452,8.09E-03,8.95E-03
51453,8.09E-03,8.78E-03
51454,8.09E-03,8.61E-03
51455,8.09E-03,8.44E-03
51456,8.09E-03,8.27E-03
51457,8.09E-03,8.10E-03
51458,8.09E-03,7.93E-03
51459,8.09E-03,7.76E-03
51460,8.09E-03,7.59E-03
51461,8.09E-03,7.42E-03
51462,8.09E-03,7.24E-03
51463,8.09E-03,7.08E-03
51464,8.09E-03,6.91E-03
51465,8.09E-03,6.74E-03
51466,8.09E-03,6.58E-03
51467,8.09E-03,6.41E-03
51468,8.09E-03,6.25E-03
51469,8.09E-03,6.10E-03
51470,8.09E-03,5.95E-03
51471,8.09E-03,5.80E-03
51472,8.09E-03,5.65E-03
51473,8.09E-03,5.51E-03
51474,8.09E-03,5.38E-03
51475,8.09E-03,5.26E-03
51476,8.09E-03,5.14E-03
51477,8.09E-03,5.03E-03
51478,8.09E-03,4.93E-03
51479,8.09E-03,4.83E-03
51480,8.09E-03,4.75E-03
51481,8.09E-03,4.68E-03
51482,8.09E-03,4.63E-03
51483,8.09E-03,4.58E-03
51484,8.09E-03,4.55E-03
51485,8.09E-03,4.53E-03
51486,8.09E-03,4.53E-03
51487,8.09E-03,4.54E-03
51488,8.09E-03,4.56E-03
51489,8.09E-03,4.60E-03
51490,8.09E-03,4.66E-03
51491,8.09E-03,4.72E-03
51492,8.09E-03,4.80E-03
51493,8.09E-03,4.90E-03
51494,8.09E-03,5.00E-03
51495,8.09E-03,5.12E-03
51496,8.09E-03,5.25E-03
51497,8.09E-03,5.39E-03
51498,8.09E-03,5.53E-03
51499,8.09E-03,5.69E-03
51500,8.09E-03,5.85E-03
51501,8.09E-03,6.03E-03
51502,8.09E-03,6.21E-03
51503,8.09E-03,6.39E-03
51504,8.09E-03,6.58E-03
51505,8.09E-03,6.78E-03
51506,8.09E-03,6.98E-03
51507,8.09E-03,7.19E-03
51508,8.09E-03,7.40E-03
51509,8.09E-03,7.62E-03
51510,8.09E-03,7.84E-03
51511,8.09E-03,8.06E-03
51512,8.09E-03,8.29E-03
51513,8.09E-03,8.52E-03
51514,8.09E-03,8.75E-03
51515,8.09E-03,8.99E-03
51516,8.09E-03,9.23E-03
51517,8.09E-03,9.47E-03
51518,8.09E-03,9.71E-03
51519,8.09E-03,9.95E-03
51520,8.09E-03,1.02E-02
51521,8.03E-03,1.04E-02
51522,8.00E-03,1.07E-02
51523,8.05E-03,1.09E-02
51524,8.00E-03,1.12E-02
51525,7.88E-03,1.14E-02
51526,7.75E-03,1.17E-02
51527,7.62E-03,1.19E-02
51528,7.58E-03,1.22E-02
51529,7.73E-03,1.24E-02
51530,8.07E-03,1.27E-02
51531,9.52E-03,1.13E-02
51532,1.05E-02,1.11E-02
51533,1.12E-02,1.10E-02
51534,1.11E-02,1.08E-02
51535,1.10E-02,1.07E-02
51536,1.10E-02,1.05E-02
51537,1.11E-02,1.04E-02
51538,1.09E-02,1.03E-02
51539,1.08E-02,1.01E-02
51540,1.06E-02,1.00E-02
51541,1.05E-02,9.95E-03
51542,1.04E-02,9.86E-03
51543,1.03E-02,9.78E-03
51544,1.02E-02,9.71E-03
51545,1.01E-02,9.64E-03
51546,9.96E-03,9.58E-03
51547,9.87E-03,9.53E-03
51548,9.77E-03,9.48E-03
51549,9.63E-03,9.44E-03
51550,9.46E-03,9.40E-03
51551,9.27E-03,9.37E-03
51552,9.11E-03,9.34E-03
51553,9.01E-03,9.32E-03
51554,8.93E-03,9.30E-03
51555,8.85E-03,9.29E-03
51556,8.79E-03,9.27E-03
51557,8.73E-03,9.27E-03
51558,8.68E-03,9.26E-03
51559,8.63E-03,9.26E-03
51560,8.57E-03,9.26E-03
51561,8.50E-03,9.27E-03
51562,8.42E-03,9.27E-03
51563,8.35E-03,9.28E-03
51564,8.27E-03,9.30E-03
51565,8.20E-03,9.31E-03
51566,8.17E-03,9.33E-03
51567,8.15E-03,9.35E-03
51568,8.13E-03,9.37E-03
51569,8.05E-03,9.40E-03
51570,7.94E-03,9.43E-03
51571,7.81E-03,9.46E-03
51572,7.64E-03,9.49E-03
51573,7.47E-03,9.52E-03
51574,7.36E-03,9.56E-03
51575,7.23E-03,9.59E-03
51576,7.16E-03,9.63E-03
51577,7.03E-03,9.67E-03
51578,6.85E-03,9.71E-03
51579,6.61E-03,9.75E-03
51580,6.37E-03,9.79E-03
51581,6.15E-03,9.82E-03
51582,5.96E-03,9.86E-03
51583,5.77E-03,9.90E-03
51584,5.57E-03,9.94E-03
51585,5.37E-03,9.98E-03
51586,4.96E-03,1.00E-02
51587,4.66E-03,1.00E-02
51588,4.49E-03,1.01E-02
51589,4.45E-03,1.01E-02
51590,4.43E-03,1.01E-02
51591,4.43E-03,1.02E-02
51592,4.48E-03,1.02E-02
51593,4.55E-03,1.02E-02
51594,4.62E-03,1.03E-02
51595,4.79E-03,1.03E-02
51596,4.88E-03,1.03E-02
51597,5.14E-03,1.04E-02
51598,5.29E-03,1.04E-02
51599,5.32E-03,1.05E-02
51600,5.43E-03,1.05E-02
51601,5.59E-03,1.05E-02
51602,5.69E-03,1.06E-02
51603,5.80E-03,1.06E-02
51604,5.91E-03,1.07E-02
51605,5.96E-03,1.07E-02
51606,5.99E-03,1.08E-02
51607,6.09E-03,1.08E-02
51608,6.62E-03,1.09E-02
51609,6.66E-03,1.09E-02
51610,6.59E-03,1.10E-02
51611,8.82E-03,8.16E-03
51612,8.10E-03,1.43E-02
51613,8.10E-03,1.45E-02
51614,7.83E-03,2.10E-02
51615,9.49E-03,3.02E-02
51616,8.40E-03,3.30E-02
51617,8.54E-03,3.33E-02
51618,8.15E-03,3.36E-02
51619,6.80E-03,3.41E-02
51620,6.33E-03,3.49E-02
51621,8.88E-03,6.78E-03
51622,8.34E-03,6.48E-03
51623,7.02E-03,1.19E-02
51624,6.00E-03,1.30E-02
51625,6.04E-03,1.30E-02
51626,6.08E-03,1.30E-02
51627,8.10E-03,1.33E-02
51628,3.40E-03,1.33E-02
51629,5.15E-03,1.33E-02
51630,6.85E-03,1.31E-02
51631,7.56E-03,2.05E-02
51632,7.69E-03,2.05E-02
51633,5.19E-03,8.46E-03
51634,6.76E-03,1.20E-02
51635,8.03E-03,1.20E-02
51636,7.51E-03,1.05E-02
51637,6.22E-03,1.37E-02
51638,7.58E-03,1.37E-02
51639,8.83E-03,1.38E-02
51640,9.47E-03,1.36E-02
51641,8.10E-03,1.42E-02
51642,8.10E-03,1.45E-02
51643,9.12E-03,2.95E-02
51644,9.39E-03,3.00E-02
51645,6.52E-03,1.40E-02
51646,8.10E-03,1.34E-02
51647,8.12E-03,1.09E-02
51648,7.32E-03,1.33E-02
51649,8.10E-03,1.40E-02
51650,8.10E-03,1.44E-02
51651,8.10E-03,1.35E-02
51652,8.10E-03,1.21E-02
51653,8.10E-03,1.19E-02
51654,8.10E-03,1.18E-02
51655,8.10E-03,1.16E-02
51656,9.16E-03,1.21E-02
51657,9.16E-03,1.14E-02
51658,8.10E-03,1.39E-02
51659,8.10E-03,1.44E-02
51660,8.10E-03,1.36E-02
51661,8.10E-03,1.23E-02
51662,8.10E-03,1.38E-02
51663,8.10E-03,1.43E-02
51664,8.10E-03,1.37E-02
51665,8.10E-03,1.24E-02
51666,8.10E-03,1.36E-02
51667,8.10E-03,1.43E-02
51668,8.02E-03,1.38E-02
51669,8.10E-03,1.35E-02
51670,7.97E-03,1.42E-02
51671,8.10E-03,1.39E-02
51672,8.10E-03,1.26E-02
51673,8.10E-03,1.33E-02
51674,7.98E-03,1.42E-02
51675,8.13E-03,1.39E-02
51676,8.10E-03,1.27E-02
51677,8.10E-03,1.32E-02
51678,8.01E-03,1.41E-02
51679,8.10E-03,1.29E-02
51680,8.04E-03,1.40E-02
51681,8.10E-03,1.30E-02
51682,8.58E-03,2.72E-02
51683,8.10E-03,1.45E-02
51684,8.10E-03,1.45E-02
51685,1.05E-02,1.99E-02
51686,9.27E-03,1.94E-02
51687,1.02E-02,1.89E-02
51688,8.22E-03,1.84E-02
51689,8.22E-03,1.80E-02
51690,8.12E-03,1.76E-02
51691,8.12E-03,1.71E-02
51692,8.01E-03,1.67E-02
51693,8.01E-03,1.63E-02
51694,8.01E-03,1.58E-02
51695,8.10E-03,1.54E-02
51696,8.12E-03,1.50E-02
51697,8.21E-03,1.46E-02
51698,8.42E-03,1.42E-02
51699,8.60E-03,1.37E-02
51700,8.98E-03,3.07E-02
51701,8.81E-03,3.12E-02
51702,5.59E-03,3.15E-02
51703,6.12E-03,3.18E-02
51704,6.56E-03,3.19E-02
51705,6.89E-03,3.37E-02
51706,6.64E-03,3.54E-02
51707,7.98E-03,3.56E-02
51708,6.17E-03,1.41E-02
51709,6.94E-03,1.40E-02
51710,7.29E-03,1.40E-02
51711,8.34E-03,1.41E-02
51712,8.32E-03,1.42E-02
51713,8.28E-03,1.43E-02
51714,6.94E-03,1.44E-02
51715,6.43E-03,1.46E-02
51716,6.18E-03,1.47E-02
51717,5.84E-03,1.49E-02
51718,5.41E-03,1.51E-02
51719,5.22E-03,1.53E-02
51720,5.38E-03,1.55E-02
51721,5.71E-03,1.57E-02
51722,5.94E-03,1.59E-02
51723,6.07E-03,1.62E-02
51724,6.19E-03,1.65E-02
51725,6.31E-03,1.68E-02
51726,6.42E-03,1.71E-02
51727,6.47E-03,1.75E-02
51728,6.46E-03,1.79E-02
51729,6.45E-03,1.83E-02
51730,6.42E-03,1.87E-02
51731,6.39E-03,1.92E-02
51732,6.30E-03,1.96E-02
51733,6.21E-03,2.01E-02
51734,6.05E-03,2.06E-02
51735,5.92E-03,2.11E-02
51736,5.68E-03,2.15E-02
51737,5.41E-03,2.20E-02
51738,5.12E-03,2.25E-02
51739,4.94E-03,2.29E-02
51740,4.27E-03,2.33E-02
51741,3.97E-03,2.37E-02
51742,3.85E-03,2.40E-02
51743,3.73E-03,2.44E-02
51744,3.66E-03,2.47E-02
51745,3.63E-03,2.50E-02
51746,3.61E-03,2.53E-02
51747,3.72E-03,2.56E-02
51748,4.46E-03,2.60E-02
51749,4.74E-03,2.64E-02
51750,4.93E-03,2.68E-02
51751,5.14E-03,2.73E-02
51752,5.35E-03,2.77E-02
51753,5.59E-03,2.81E-02
51754,5.92E-03,2.86E-02
51755,5.98E-03,2.91E-02
51756,6.15E-03,2.95E-02
51757,6.27E-03,3.00E-02
51758,6.32E-03,3.05E-02
51759,6.35E-03,3.09E-02
51760,6.36E-03,3.13E-02
51761,6.32E-03,3.18E-02
51762,6.28E-03,3.22E-02
51763,6.23E-03,3.26E-02
51764,6.19E-03,3.30E-02
51765,6.00E-03,3.33E-02
51766,5.56E-03,3.36E-02
51767,5.17E-03,3.39E-02
51768,5.00E-03,3.42E-02
51769,4.81E-03,3.44E-02
51770,4.78E-03,3.47E-02
51771,5.13E-03,3.49E-02
51772,5.60E-03,3.51E-02
51773,5.95E-03,3.53E-02
51774,6.22E-03,3.55E-02
51775,6.53E-03,3.57E-02
51776,6.93E-03,3.59E-02
51777,7.33E-03,3.60E-02
51778,7.59E-03,3.61E-02
51779,7.73E-03,3.62E-02
51780,7.84E-03,3.63E-02
51781,8.05E-03,3.63E-02
51782,8.08E-03,3.63E-02
51783,8.17E-03,3.63E-02
51784,8.44E-03,3.63E-02
51785,8.44E-03,3.63E-02
51786,8.46E-03,3.62E-02
51787,8.42E-03,1.17E-02
51788,8.30E-03,1.17E-02
51789,1.01E-02,1.18E-02
51790,9.93E-03,1.18E-02
51791,9.84E-03,1.18E-02
51792,9.71E-03,1.19E-02
51793,9.45E-03,1.19E-02
51794,9.36E-03,1.19E-02
51795,8.94E-03,1.20E-02
51796,8.69E-03,1.20E-02
51797,8.52E-03,1.21E-02
51798,8.23E-03,1.21E-02
51799,8.11E-03,1.22E-02
51800,8.11E-03,1.22E-02
51801,7.87E-03,1.23E-02
51802,7.38E-03,1.23E-02
51803,7.01E-03,1.23E-02
51804,6.97E-03,1.24E-02
51805,7.01E-03,1.24E-02
51806,6.96E-03,1.24E-02
51807,6.96E-03,1.25E-02
51808,6.99E-03,1.25E-02
51809,7.02E-03,1.25E-02
51810,7.04E-03,1.25E-02
51811,7.05E-03,1.26E-02
51812,7.05E-03,1.26E-02
51813,7.07E-03,1.26E-02
51814,7.18E-03,1.26E-02
51815,7.37E-03,1.26E-02
51816,7.64E-03,1.26E-02
51817,8.15E-03,1.26E-02
51818,8.44E-03,1.26E-02
51819,8.55E-03,1.27E-02
51820,8.69E-03,1.27E-02
51821,8.85E-03,1.27E-02
51822,9.21E-03,1.27E-02
51823,8.09E-03,1.30E-02
51824,8.09E-03,1.29E-02
51825,8.09E-03,1.27E-02
51826,8.09E-03,1.25E-02
51827,8.09E-03,1.24E-02
51828,8.09E-03,1.22E-02
51829,8.09E-03,1.20E-02
51830,8.09E-03,1.18E-02
51831,8.09E-03,1.16E-02
51832,8.09E-03,1.14E-02
51833,8.09E-03,1.12E-02
51834,8.09E-03,1.10E-02
51835,8.19E-03,1.08E-02
51836,8.23E-03,1.06E-02
51837,8.71E-03,1.02E-02
51838,8.48E-03,1.04E-02
51839,9.79E-03,2.08E-02
51840,1.06E-02,2.07E-02
51841,8.43E-03,2.07E-02
51842,8.18E-03,2.06E-02
51843,7.22E-03,2.84E-02
51844,7.74E-03,2.40E-02
51845,8.06E-03,2.45E-02
51846,8.27E-03,2.49E-02
51847,8.23E-03,2.54E-02
51848,8.16E-03,2.59E-02
51849,8.11E-03,2.64E-02
51850,8.64E-03,2.69E-02
51851,7.52E-03,2.70E-02
51852,6.16E-03,1.30E-02
51853,6.07E-03,1.18E-02
51854,6.00E-03,1.19E-02
51855,6.24E-03,1.19E-02
51856,3.01E-03,1.19E-02
51857,3.07E-03,1.19E-02
51858,3.10E-03,1.19E-02
51859,3.35E-03,1.19E-02
51860,3.53E-03,1.19E-02
51861,4.06E-03,1.20E-02
51862,4.11E-03,1.19E-02
51863,5.15E-03,1.19E-02
51864,5.28E-03,1.19E-02
51865,6.01E-03,1.18E-02
51866,6.18E-03,1.18E-02
51867,6.59E-03,1.17E-02
51868,6.81E-03,1.16E-02
51869,7.01E-03,1.16E-02
51870,7.14E-03,1.15E-02
51871,7.22E-03,1.14E-02
51872,7.30E-03,1.13E-02
51873,7.37E-03,1.12E-02
51874,7.45E-03,1.11E-02
51875,7.52E-03,1.10E-02
51876,7.59E-03,1.09E-02
51877,7.66E-03,1.08E-02
51878,7.70E-03,1.07E-02
51879,7.72E-03,1.06E-02
51880,7.74E-03,1.05E-02
51881,7.75E-03,1.04E-02
51882,7.77E-03,1.02E-02
51883,7.79E-03,1.01E-02
51884,7.81E-03,9.98E-03
51885,7.82E-03,9.85E-03
51886,7.84E-03,9.72E-03
51887,7.86E-03,9.58E-03
51888,7.87E-03,9.45E-03
51889,7.88E-03,9.32E-03
51890,7.90E-03,9.20E-03
51891,7.91E-03,9.07E-03
51892,7.92E-03,8.95E-03
51893,7.93E-03,8.84E-03
51894,7.94E-03,8.73E-03
51895,7.95E-03,8.63E-03
51896,7.96E-03,8.54E-03
51897,7.97E-03,8.45E-03
51898,7.97E-03,8.38E-03
51899,7.98E-03,8.31E-03
51900,7.99E-03,8.26E-03
51901,7.99E-03,8.22E-03
51902,7.99E-03,8.20E-03
51903,7.99E-03,8.18E-03
51904,7.99E-03,8.18E-03
51905,7.99E-03,8.19E-03
51906,7.99E-03,8.22E-03
51907,7.99E-03,8.26E-03
51908,7.99E-03,8.31E-03
51909,7.98E-03,8.37E-03
51910,7.97E-03,8.44E-03
51911,7.96E-03,8.53E-03
51912,7.94E-03,8.62E-03
51913,7.93E-03,8.73E-03
51914,7.92E-03,8.84E-03
51915,7.91E-03,8.96E-03
51916,7.89E-03,9.08E-03
51917,7.88E-03,9.22E-03
51918,7.87E-03,9.35E-03
51919,7.85E-03,9.50E-03
51920,7.82E-03,9.64E-03
51921,7.79E-03,9.79E-03
51922,7.76E-03,9.95E-03
51923,7.73E-03,1.01E-02
51924,7.70E-03,1.03E-02
51925,7.67E-03,1.04E-02
51926,7.64E-03,1.06E-02
51927,7.61E-03,1.07E-02
51928,7.58E-03,1.09E-02
51929,7.56E-03,1.10E-02
51930,7.54E-03,1.12E-02
51931,7.52E-03,1.14E-02
51932,7.50E-03,1.15E-02
51933,7.48E-03,1.17E-02
51934,7.45E-03,1.18E-02
51935,7.42E-03,1.20E-02
51936,7.39E-03,1.21E-02
51937,7.36E-03,1.23E-02
51938,7.33E-03,1.24E-02
51939,7.29E-03,1.26E-02
51940,7.24E-03,1.27E-02
51941,7.18E-03,1.29E-02
51942,7.11E-03,1.30E-02
51943,7.05E-03,1.32E-02
51944,7.00E-03,1.33E-02
51945,6.96E-03,1.34E-02
51946,6.95E-03,1.36E-02
51947,6.95E-03,1.37E-02
51948,6.95E-03,1.38E-02
51949,6.98E-03,1.40E-02
51950,7.00E-03,1.41E-02
51951,7.02E-03,1.42E-02
51952,7.04E-03,1.44E-02
51953,7.05E-03,1.45E-02
51954,7.07E-03,1.46E-02
51955,7.09E-03,1.48E-02
51956,7.10E-03,1.49E-02
51957,7.12E-03,1.50E-02
51958,7.13E-03,1.52E-02
51959,7.15E-03,1.53E-02
51960,7.16E-03,1.54E-02
51961,7.18E-03,1.56E-02
51962,7.19E-03,1.57E-02
51963,7.21E-03,1.58E-02
51964,7.22E-03,1.59E-02
51965,7.24E-03,1.61E-02
51966,7.24E-03,1.62E-02
51967,7.24E-03,1.63E-02
51968,7.24E-03,1.65E-02
51969,7.27E-03,1.66E-02
51970,7.32E-03,1.67E-02
51971,7.37E-03,1.69E-02
51972,7.43E-03,1.70E-02
51973,7.46E-03,1.72E-02
51974,7.40E-03,1.73E-02
51975,7.28E-03,1.75E-02
51976,7.16E-03,1.76E-02
51977,6.87E-03,1.78E-02
51978,6.47E-03,1.79E-02
51979,6.10E-03,1.80E-02
51980,5.43E-03,1.81E-02
51981,9.33E-03,2.01E-02
51982,1.12E-02,2.01E-02
51983,1.03E-02,2.00E-02
51984,1.03E-02,2.00E-02
51985,1.03E-02,1.99E-02
51986,1.04E-02,1.99E-02
51987,1.04E-02,1.98E-02
51988,1.01E-02,1.98E-02
51989,9.90E-03,1.97E-02
51990,9.61E-03,1.97E-02
51991,9.44E-03,1.97E-02
51992,9.06E-03,1.96E-02
51993,8.94E-03,1.96E-02
51994,8.83E-03,1.96E-02
51995,8.74E-03,1.96E-02
51996,8.66E-03,1.96E-02
51997,8.60E-03,1.96E-02
51998,8.58E-03,1.96E-02
51999,8.58E-03,1.96E-02
52000,8.57E-03,1.96E-02
52001,8.54E-03,1.96E-02
52002,8.45E-03,1.96E-02
52003,8.35E-03,1.96E-02
52004,8.28E-03,1.96E-02
52005,8.23E-03,1.96E-02
52006,8.19E-03,1.96E-02
52007,8.17E-03,1.96E-02
52008,8.16E-03,1.96E-02
52009,8.16E-03,1.96E-02
52010,8.16E-03,1.96E-02
52011,8.15E-03,1.96E-02
52012,8.13E-03,1.96E-02
52013,8.12E-03,1.96E-02
52014,8.09E-03,1.96E-02
52015,8.08E-03,1.96E-02
52016,8.06E-03,1.96E-02
52017,8.04E-03,1.96E-02
52018,8.03E-03,1.96E-02
52019,8.02E-03,1.96E-02
52020,8.03E-03,1.96E-02
52021,8.05E-03,1.95E-02
52022,8.08E-03,1.95E-02
52023,8.10E-03,1.95E-02
52024,8.13E-03,1.94E-02
52025,8.15E-03,1.94E-02
52026,8.17E-03,1.93E-02
52027,8.20E-03,1.93E-02
52028,8.24E-03,1.92E-02
52029,8.30E-03,1.92E-02
52030,8.36E-03,1.91E-02
52031,8.41E-03,1.91E-02
52032,8.43E-03,1.90E-02
52033,8.46E-03,1.90E-02
52034,8.48E-03,1.89E-02
52035,8.51E-03,1.88E-02
52036,8.54E-03,1.88E-02
52037,8.57E-03,1.87E-02
52038,8.61E-03,1.86E-02
52039,8.65E-03,1.85E-02
52040,8.70E-03,1.85E-02
52041,8.77E-03,1.84E-02
52042,8.85E-03,1.83E-02
52043,8.93E-03,1.83E-02
52044,8.98E-03,1.82E-02
52045,8.99E-03,1.81E-02
52046,8.97E-03,1.80E-02
52047,8.94E-03,1.80E-02
52048,8.90E-03,1.79E-02
52049,8.88E-03,1.78E-02
52050,8.85E-03,1.78E-02
52051,8.82E-03,1.77E-02
52052,8.79E-03,1.76E-02
52053,8.80E-03,1.76E-02
52054,8.80E-03,1.75E-02
52055,8.72E-03,1.75E-02
52056,8.53E-03,1.74E-02
52057,8.32E-03,1.74E-02
52058,8.11E-03,1.74E-02
52059,7.98E-03,1.74E-02
52060,7.98E-03,1.73E-02
52061,8.02E-03,1.73E-02
52062,7.98E-03,1.73E-02
52063,7.89E-03,1.73E-02
52064,7.81E-03,1.72E-02
52065,7.73E-03,1.72E-02
52066,7.66E-03,1.72E-02
52067,7.56E-03,1.72E-02
52068,7.45E-03,1.72E-02
52069,7.32E-03,1.71E-02
52070,7.21E-03,1.71E-02
52071,7.13E-03,1.71E-02
52072,7.08E-03,1.70E-02
52073,7.03E-03,1.70E-02
52074,6.99E-03,1.69E-02
52075,6.97E-03,1.69E-02
52076,6.94E-03,1.68E-02
52077,6.91E-03,1.67E-02
52078,6.85E-03,1.66E-02
52079,6.79E-03,1.66E-02
52080,6.75E-03,1.65E-02
52081,6.74E-03,1.64E-02
52082,6.77E-03,1.63E-02
52083,6.80E-03,1.62E-02
52084,6.84E-03,1.61E-02
52085,6.87E-03,1.60E-02
52086,6.91E-03,1.59E-02
52087,6.95E-03,1.57E-02
52088,6.98E-03,1.56E-02
52089,7.02E-03,1.55E-02
52090,7.05E-03,1.54E-02
52091,7.06E-03,1.53E-02
52092,7.08E-03,1.51E-02
52093,7.09E-03,1.50E-02
52094,7.10E-03,1.49E-02
52095,7.11E-03,1.48E-02
52096,7.12E-03,1.46E-02
52097,7.10E-03,1.45E-02
52098,7.07E-03,1.44E-02
52099,7.05E-03,1.43E-02
52100,7.01E-03,1.41E-02
52101,6.98E-03,1.40E-02
52102,6.94E-03,1.39E-02
52103,6.89E-03,1.38E-02
52104,6.81E-03,1.37E-02
52105,6.72E-03,1.36E-02
52106,6.63E-03,1.35E-02
52107,6.54E-03,1.33E-02
52108,6.46E-03,1.32E-02
52109,6.43E-03,1.31E-02
52110,6.47E-03,1.30E-02
52111,6.51E-03,1.29E-02
52112,6.46E-03,1.28E-02
52113,6.45E-03,1.27E-02
52114,7.70E-03,1.26E-02
52115,8.20E-03,1.25E-02
52116,8.75E-03,1.24E-02
52117,8.71E-03,1.22E-02
52118,1.08E-02,1.21E-02
52119,1.08E-02,1.19E-02
52120,1.09E-02,1.18E-02
52121,1.11E-02,1.16E-02
52122,1.13E-02,1.14E-02
52123,1.13E-02,1.12E-02
52124,1.12E-02,1.10E-02
52125,1.10E-02,1.09E-02
52126,1.09E-02,1.07E-02
52127,1.08E-02,1.05E-02
52128,1.07E-02,1.03E-02
52129,1.06E-02,1.02E-02
52130,1.04E-02,9.98E-03
52131,1.02E-02,9.81E-03
52132,1.00E-02,9.65E-03
52133,8.97E-03,9.49E-03
52134,7.65E-03,9.36E-03
52135,7.42E-03,9.24E-03
52136,7.28E-03,9.12E-03
52137,7.18E-03,9.01E-03
52138,7.09E-03,8.90E-03
52139,6.99E-03,8.80E-03
52140,6.53E-03,8.72E-03
52141,8.93E-03,7.18E-03
52142,9.27E-03,5.98E-03
52143,7.27E-03,5.72E-03
52144,8.77E-03,7.93E-03
52145,9.86E-03,7.84E-03
52146,1.02E-02,7.74E-03
52147,9.85E-03,7.64E-03
52148,9.81E-03,7.54E-03
52149,9.59E-03,7.44E-03
52150,8.60E-03,7.34E-03
52151,8.48E-03,7.25E-03
52152,8.18E-03,7.16E-03
52153,8.10E-03,7.07E-03
52154,7.92E-03,6.98E-03
52155,7.78E-03,6.90E-03
52156,7.62E-03,6.81E-03
52157,7.44E-03,6.73E-03
52158,7.31E-03,6.65E-03
52159,7.22E-03,6.57E-03
52160,7.14E-03,6.50E-03
52161,7.05E-03,6.42E-03
52162,6.96E-03,6.35E-03
52163,6.87E-03,6.28E-03
52164,6.74E-03,6.21E-03
52165,6.60E-03,6.14E-03
52166,6.46E-03,6.08E-03
52167,6.33E-03,6.01E-03
52168,6.23E-03,5.95E-03
52169,6.20E-03,5.90E-03
52170,6.20E-03,5.84E-03
52171,6.19E-03,5.79E-03
52172,6.19E-03,5.73E-03
52173,6.18E-03,5.68E-03
52174,6.17E-03,5.63E-03
52175,6.16E-03,5.58E-03
52176,6.14E-03,5.53E-03
52177,6.11E-03,5.48E-03
52178,6.09E-03,5.44E-03
52179,6.06E-03,5.40E-03
52180,6.04E-03,5.35E-03
52181,6.03E-03,5.31E-03
52182,6.05E-03,5.27E-03
52183,6.08E-03,5.23E-03
52184,6.11E-03,5.20E-03
52185,6.15E-03,5.16E-03
52186,6.21E-03,5.13E-03
52187,6.27E-03,5.09E-03
52188,6.34E-03,5.06E-03
52189,6.43E-03,5.02E-03
52190,6.55E-03,4.99E-03
52191,6.67E-03,4.96E-03
52192,6.78E-03,4.93E-03
52193,6.86E-03,4.89E-03
52194,6.92E-03,4.86E-03
52195,6.97E-03,4.83E-03
52196,7.03E-03,4.80E-03
52197,7.08E-03,4.77E-03
52198,7.13E-03,4.74E-03
52199,7.18E-03,4.71E-03
52200,7.23E-03,4.68E-03
52201,7.28E-03,4.66E-03
52202,7.33E-03,4.63E-03
52203,7.37E-03,4.60E-03
52204,7.42E-03,4.57E-03
52205,7.45E-03,4.54E-03
52206,7.47E-03,4.51E-03
52207,7.49E-03,4.49E-03
52208,7.52E-03,4.46E-03
52209,7.54E-03,4.43E-03
52210,7.56E-03,4.40E-03
52211,7.58E-03,4.37E-03
52212,7.61E-03,4.34E-03
52213,7.64E-03,4.32E-03
52214,7.68E-03,4.29E-03
52215,7.73E-03,4.26E-03
52216,7.77E-03,4.23E-03
52217,7.81E-03,4.20E-03
52218,7.84E-03,4.16E-03
52219,7.86E-03,4.13E-03
52220,7.88E-03,4.10E-03
52221,7.90E-03,4.07E-03
52222,7.89E-03,4.03E-03
52223,7.81E-03,4.00E-03
52224,7.71E-03,3.96E-03
52225,7.56E-03,3.93E-03
52226,7.44E-03,3.89E-03
52227,7.30E-03,3.86E-03
52228,7.13E-03,3.82E-03
52229,6.99E-03,3.79E-03
52230,6.81E-03,3.75E-03
52231,6.59E-03,3.72E-03
52232,6.35E-03,3.69E-03
52233,6.08E-03,3.66E-03
52234,5.78E-03,3.64E-03
52235,5.45E-03,3.61E-03
52236,5.12E-03,3.59E-03
52237,4.79E-03,3.56E-03
52238,4.67E-03,3.54E-03
52239,4.10E-03,3.53E-03
52240,3.85E-03,3.52E-03
52241,3.47E-03,3.51E-03
52242,3.06E-03,3.50E-03
52243,2.74E-03,3.50E-03
52244,2.71E-03,3.50E-03
52245,3.21E-03,3.48E-03
52246,3.39E-03,3.46E-03
52247,3.59E-03,3.47E-03
52248,3.73E-03,3.47E-03
52249,3.91E-03,3.47E-03
52250,4.10E-03,3.48E-03
52251,4.28E-03,3.49E-03
52252,4.49E-03,3.50E-03
52253,4.68E-03,3.52E-03
52254,5.05E-03,3.54E-03
52255,5.28E-03,3.56E-03
52256,5.48E-03,3.59E-03
52257,5.60E-03,3.61E-03
52258,5.84E-03,3.64E-03
52259,6.01E-03,3.67E-03
52260,6.15E-03,3.70E-03
52261,6.26E-03,3.74E-03
52262,6.36E-03,3.77E-03
52263,6.47E-03,3.81E-03
52264,6.85E-03,3.86E-03
52265,7.53E-03,3.90E-03
52266,8.07E-03,3.95E-03
52267,8.50E-03,4.01E-03
52268,9.08E-03,4.07E-03
52269,9.63E-03,4.13E-03
52270,1.03E-02,4.20E-03
52271,1.03E-02,4.26E-03
52272,7.10E-03,4.32E-03
52273,6.79E-03,4.35E-03
52274,6.63E-03,4.39E-03
52275,5.84E-03,4.41E-03
52276,5.59E-03,4.42E-03
52277,4.59E-03,4.43E-03
52278,3.71E-03,4.43E-03
52279,2.76E-03,4.42E-03
52280,2.17E-03,4.48E-03
52281,2.40E-03,4.57E-03
52282,2.96E-03,4.64E-03
52283,3.39E-03,4.69E-03
52284,3.78E-03,4.74E-03
52285,3.91E-03,4.80E-03
52286,4.24E-03,4.86E-03
52287,6.46E-03,4.96E-03
52288,6.23E-03,5.08E-03
52289,7.50E-03,5.20E-03
52290,7.66E-03,5.32E-03
52291,5.86E-03,5.43E-03
52292,7.79E-03,1.23E-02
52293,5.54E-03,1.27E-02
52294,9.27E-03,9.02E-03
52295,8.44E-03,8.75E-03
52296,8.24E-03,8.52E-03
52297,8.14E-03,8.30E-03
52298,8.09E-03,8.08E-03
52299,8.09E-03,7.87E-03
52300,8.09E-03,7.65E-03
52301,8.09E-03,7.44E-03
52302,8.09E-03,7.22E-03
52303,8.09E-03,7.01E-03
52304,8.09E-03,6.80E-03
52305,8.09E-03,6.59E-03
52306,8.09E-03,6.38E-03
52307,8.09E-03,6.18E-03
52308,8.09E-03,5.98E-03
52309,8.09E-03,5.78E-03
52310,8.09E-03,5.59E-03
52311,8.09E-03,5.40E-03
52312,8.09E-03,5.22E-03
52313,8.09E-03,5.05E-03
52314,8.09E-03,4.88E-03
52315,8.09E-03,4.72E-03
52316,8.09E-03,4.56E-03
52317,8.09E-03,4.42E-03
52318,8.09E-03,4.29E-03
52319,8.09E-03,4.17E-03
52320,8.09E-03,4.06E-03
52321,8.09E-03,3.97E-03
52322,8.09E-03,3.89E-03
52323,8.09E-03,3.82E-03
52324,8.09E-03,3.77E-03
52325,8.09E-03,3.74E-03
52326,8.09E-03,3.72E-03
52327,8.09E-03,3.72E-03
52328,8.09E-03,3.74E-03
52329,8.09E-03,3.77E-03
52330,8.09E-03,3.82E-03
52331,8.09E-03,3.88E-03
52332,8.09E-03,3.95E-03
52333,8.09E-03,4.04E-03
52334,8.09E-03,4.14E-03
52335,8.09E-03,4.25E-03
52336,8.09E-03,4.36E-03
52337,8.09E-03,4.49E-03
52338,8.09E-03,4.62E-03
52339,8.09E-03,4.76E-03
52340,8.09E-03,4.91E-03
52341,8.09E-03,5.05E-03
52342,8.09E-03,5.21E-03
52343,8.09E-03,5.36E-03
52344,8.09E-03,5.52E-03
52345,8.09E-03,5.68E-03
52346,8.09E-03,5.85E-03
52347,8.09E-03,6.01E-03
52348,8.09E-03,6.18E-03
52349,8.09E-03,6.34E-03
52350,8.09E-03,6.51E-03
52351,8.09E-03,6.68E-03
52352,8.09E-03,6.85E-03
52353,8.09E-03,7.01E-03
52354,8.09E-03,7.18E-03
52355,8.09E-03,7.35E-03
52356,8.09E-03,7.51E-03
52357,8.09E-03,7.67E-03
52358,8.09E-03,7.84E-03
52359,8.09E-03,8.00E-03
52360,8.09E-03,8.16E-03
52361,8.09E-03,8.32E-03
52362,8.09E-03,8.48E-03
52363,8.09E-03,8.64E-03
52364,8.09E-03,8.80E-03
52365,8.09E-03,8.95E-03
52366,8.09E-03,9.10E-03
52367,8.09E-03,9.26E-03
52368,8.09E-03,9.41E-03
52369,8.09E-03,9.56E-03
52370,8.09E-03,9.70E-03
52371,8.02E-03,9.85E-03
52372,7.97E-03,9.99E-03
52373,7.86E-03,1.01E-02
52374,7.78E-03,1.03E-02
52375,7.75E-03,1.04E-02
52376,7.68E-03,1.06E-02
52377,7.65E-03,1.07E-02
52378,7.62E-03,1.08E-02
52379,7.72E-03,1.10E-02
52380,7.83E-03,1.11E-02
52381,9.52E-03,9.95E-03
52382,9.95E-03,2.01E-02
52383,9.72E-03,2.00E-02
52384,9.55E-03,1.99E-02
52385,9.43E-03,1.98E-02
52386,9.26E-03,1.98E-02
52387,8.98E-03,1.97E-02
52388,8.78E-03,1.96E-02
52389,8.29E-03,1.95E-02
52390,8.10E-03,1.94E-02
52391,7.85E-03,1.94E-02
52392,7.59E-03,1.93E-02
52393,5.87E-03,1.93E-02
52394,5.79E-03,1.92E-02
52395,5.77E-03,1.92E-02
52396,5.56E-03,1.91E-02
52397,5.30E-03,1.91E-02
52398,4.97E-03,1.90E-02
52399,4.65E-03,1.90E-02
52400,4.19E-03,1.90E-02
52401,4.24E-03,1.89E-02
52402,4.16E-03,1.89E-02
52403,2.41E-03,1.88E-02
52404,2.36E-03,1.88E-02
52405,2.36E-03,1.87E-02
52406,2.46E-03,1.87E-02
52407,2.54E-03,1.87E-02
52408,2.55E-03,1.86E-02
52409,2.50E-03,1.86E-02
52410,2.91E-03,1.85E-02
52411,3.08E-03,1.85E-02
52412,3.05E-03,1.85E-02
52413,3.09E-03,1.85E-02
52414,4.11E-03,1.84E-02
52415,8.89E-03,8.23E-03
52416,8.83E-03,8.31E-03
52417,8.67E-03,8.36E-03
52418,7.56E-03,8.39E-03
52419,7.73E-03,2.06E-02
52420,7.79E-03,2.06E-02
52421,8.10E-03,1.43E-02
52422,8.10E-03,1.45E-02
52423,8.10E-03,2.05E-02
52424,9.99E-03,1.25E-02
52425,1.02E-02,1.31E-02
52426,9.37E-03,3.07E-02
52427,7.65E-03,3.27E-02
52428,7.42E-03,3.40E-02
52429,6.62E-03,3.52E-02
52430,7.09E-03,3.55E-02
52431,9.11E-03,3.66E-02
52432,8.32E-03,3.68E-02
52433,8.34E-03,3.69E-02
52434,8.76E-03,6.17E-03
52435,7.31E-03,1.20E-02
52436,6.48E-03,1.30E-02
52437,8.10E-03,1.32E-02
52438,7.89E-03,2.07E-02
52439,7.35E-03,5.25E-03
52440,8.61E-03,7.94E-03
52441,8.64E-03,7.86E-03
52442,8.62E-03,8.02E-03
52443,6.64E-03,8.47E-03
52444,7.57E-03,2.91E-02
52445,7.70E-03,2.36E-02
52446,5.87E-03,1.34E-02
52447,7.02E-03,1.21E-02
52448,6.75E-03,1.21E-02
52449,6.58E-03,1.21E-02
52450,7.87E-03,1.31E-02
52451,8.07E-03,2.04E-02
52452,5.78E-03,8.58E-03
52453,7.89E-03,1.24E-02
52454,8.59E-03,7.67E-03
52455,8.62E-03,8.07E-03
52456,9.52E-03,8.50E-03
52457,9.16E-03,8.86E-03
52458,7.69E-03,9.21E-03
52459,6.25E-03,9.48E-03
52460,8.06E-03,1.01E-02
52461,9.48E-03,1.38E-02
52462,9.04E-03,1.40E-02
52463,4.85E-03,1.44E-02
52464,5.03E-03,1.44E-02
52465,5.02E-03,1.44E-02
52466,5.23E-03,1.45E-02
52467,5.65E-03,1.45E-02
52468,5.65E-03,1.45E-02
52469,5.85E-03,1.44E-02
52470,5.95E-03,1.44E-02
52471,6.11E-03,1.44E-02
52472,6.15E-03,1.44E-02
52473,6.13E-03,1.43E-02
52474,5.98E-03,1.43E-02
52475,6.12E-03,1.43E-02
52476,6.74E-03,1.42E-02
52477,7.28E-03,1.42E-02
52478,7.53E-03,1.41E-02
52479,7.84E-03,1.41E-02
52480,8.31E-03,1.40E-02
52481,8.76E-03,1.39E-02
52482,9.18E-03,1.38E-02
52483,9.65E-03,1.37E-02
52484,1.02E-02,1.36E-02
52485,1.05E-02,1.35E-02
52486,1.05E-02,1.33E-02
52487,1.04E-02,1.32E-02
52488,1.02E-02,1.31E-02
52489,9.92E-03,1.30E-02
52490,9.73E-03,1.29E-02
52491,9.38E-03,1.28E-02
52492,9.26E-03,1.27E-02
52493,9.01E-03,1.26E-02
52494,8.96E-03,1.25E-02
52495,1.16E-02,1.14E-02
52496,1.09E-02,1.12E-02
52497,1.13E-02,1.10E-02
52498,1.13E-02,1.09E-02
52499,1.11E-02,1.07E-02
52500,1.10E-02,1.06E-02
52501,1.10E-02,1.05E-02
52502,1.08E-02,1.03E-02
52503,1.07E-02,1.02E-02
52504,1.05E-02,1.01E-02
52505,1.04E-02,1.00E-02
52506,1.03E-02,9.95E-03
52507,1.02E-02,9.87E-03
52508,1.01E-02,9.80E-03
52509,9.97E-03,9.73E-03
52510,9.88E-03,9.67E-03
52511,9.78E-03,9.62E-03
52512,9.69E-03,9.57E-03
52513,9.56E-03,9.53E-03
52514,9.40E-03,9.49E-03
52515,9.22E-03,9.46E-03
52516,9.06E-03,9.43E-03
52517,8.96E-03,9.41E-03
52518,8.89E-03,9.39E-03
52519,8.82E-03,9.38E-03
52520,8.76E-03,9.36E-03
52521,8.70E-03,9.35E-03
52522,8.65E-03,9.35E-03
52523,8.60E-03,9.35E-03
52524,8.55E-03,9.35E-03
52525,8.48E-03,9.35E-03
52526,8.41E-03,9.36E-03
52527,8.34E-03,9.37E-03
52528,8.26E-03,9.38E-03
52529,8.20E-03,9.39E-03
52530,8.16E-03,9.41E-03
52531,8.15E-03,9.43E-03
52532,8.12E-03,9.45E-03
52533,8.05E-03,9.48E-03
52534,7.95E-03,9.50E-03
52535,7.82E-03,9.53E-03
52536,7.66E-03,9.56E-03
52537,7.50E-03,9.60E-03
52538,7.39E-03,9.63E-03
52539,7.34E-03,9.67E-03
52540,7.25E-03,9.70E-03
52541,7.12E-03,9.74E-03
52542,6.94E-03,9.78E-03
52543,6.69E-03,9.82E-03
52544,6.44E-03,9.86E-03
52545,6.25E-03,9.90E-03
52546,6.08E-03,9.94E-03
52547,5.90E-03,9.98E-03
52548,5.69E-03,1.00E-02
52549,5.42E-03,1.01E-02
52550,5.11E-03,1.01E-02
52551,4.82E-03,1.01E-02
52552,4.66E-03,1.02E-02
52553,4.62E-03,1.02E-02
52554,4.60E-03,1.02E-02
52555,4.60E-03,1.03E-02
52556,4.64E-03,1.03E-02
52557,4.71E-03,1.03E-02
52558,4.79E-03,1.04E-02
52559,4.90E-03,1.04E-02
52560,5.07E-03,1.04E-02
52561,5.33E-03,1.05E-02
52562,5.35E-03,1.05E-02
52563,5.45E-03,1.06E-02
52564,5.62E-03,1.06E-02
52565,5.71E-03,1.06E-02
52566,5.80E-03,1.07E-02
52567,5.90E-03,1.07E-02
52568,6.01E-03,1.08E-02
52569,6.12E-03,1.08E-02
52570,6.16E-03,1.09E-02
52571,6.18E-03,1.09E-02
52572,6.59E-03,1.10E-02
52573,6.69E-03,1.11E-02
52574,6.69E-03,1.11E-02
52575,7.46E-03,1.12E-02
52576,7.24E-03,2.07E-02
52577,7.39E-03,2.07E-02
52578,8.10E-03,1.42E-02
52579,8.10E-03,1.44E-02
52580,7.70E-03,2.10E-02
52581,9.66E-03,3.05E-02
52582,7.87E-03,3.35E-02
52583,8.16E-03,3.39E-02
52584,7.90E-03,3.42E-02
52585,5.10E-03,3.45E-02
52586,6.28E-03,3.53E-02
52587,6.64E-03,1.42E-02
52588,7.38E-03,6.63E-03
52589,7.93E-03,6.38E-03
52590,7.68E-03,1.22E-02
52591,6.00E-03,1.33E-02
52592,5.88E-03,1.33E-02
52593,6.09E-03,1.33E-02
52594,8.10E-03,1.33E-02
52595,9.29E-03,1.18E-02
52596,8.01E-03,1.05E-02
52597,7.24E-03,1.35E-02
52598,6.23E-03,1.36E-02
52599,4.25E-03,8.52E-03
52600,8.34E-03,1.02E-02
52601,5.72E-03,1.30E-02
52602,9.24E-03,1.34E-02
52603,4.32E-03,1.37E-02
52604,6.67E-03,1.39E-02
52605,5.88E-03,1.41E-02
52606,6.20E-03,1.39E-02
52607,7.61E-03,1.39E-02
52608,8.55E-03,2.99E-02
52609,8.20E-03,3.04E-02
52610,8.10E-03,1.41E-02
52611,8.10E-03,1.44E-02
52612,6.53E-03,1.41E-02
52613,8.10E-03,1.34E-02
52614,8.10E-03,1.20E-02
52615,8.10E-03,1.18E-02
52616,8.10E-03,1.16E-02
52617,8.09E-03,1.15E-02
52618,8.09E-03,1.13E-02
52619,8.09E-03,1.12E-02
52620,8.09E-03,1.10E-02
52621,8.09E-03,1.09E-02
52622,8.09E-03,1.07E-02
52623,8.09E-03,1.06E-02
52624,8.09E-03,1.04E-02
52625,8.09E-03,1.03E-02
52626,8.09E-03,1.01E-02
52627,8.09E-03,9.97E-03
52628,8.09E-03,9.80E-03
52629,8.09E-03,9.64E-03
52630,8.09E-03,9.48E-03
52631,8.09E-03,9.31E-03
52632,8.09E-03,9.14E-03
52633,8.09E-03,8.97E-03
52634,8.09E-03,8.81E-03
52635,8.09E-03,8.63E-03
52636,8.09E-03,8.46E-03
52637,8.09E-03,8.29E-03
52638,8.09E-03,8.12E-03
52639,8.09E-03,7.95E-03
52640,8.09E-03,7.77E-03
52641,8.09E-03,7.60E-03
52642,8.09E-03,7.43E-03
52643,8.09E-03,7.26E-03
52644,8.09E-03,7.09E-03
52645,8.09E-03,6.92E-03
52646,8.09E-03,6.75E-03
52647,8.09E-03,6.59E-03
52648,8.09E-03,6.42E-03
52649,8.09E-03,6.26E-03
52650,8.09E-03,6.10E-03
52651,8.09E-03,5.95E-03
52652,8.09E-03,5.80E-03
52653,8.09E-03,5.65E-03
52654,8.09E-03,5.51E-03
52655,8.09E-03,5.38E-03
52656,8.09E-03,5.25E-03
52657,8.09E-03,5.13E-03
52658,8.09E-03,5.02E-03
52659,8.09E-03,4.92E-03
52660,8.09E-03,4.82E-03
52661,8.09E-03,4.74E-03
52662,8.09E-03,4.67E-03
52663,8.09E-03,4.61E-03
52664,8.09E-03,4.56E-03
52665,8.09E-03,4.53E-03
52666,8.09E-03,4.51E-03
52667,8.09E-03,4.50E-03
52668,8.09E-03,4.51E-03
52669,8.09E-03,4.53E-03
52670,8.09E-03,4.57E-03
52671,8.09E-03,4.62E-03
52672,8.09E-03,4.69E-03
52673,8.09E-03,4.77E-03
52674,8.09E-03,4.86E-03
52675,8.09E-03,4.96E-03
52676,8.09E-03,5.08E-03
52677,8.09E-03,5.20E-03
52678,8.09E-03,5.34E-03
52679,8.09E-03,5.48E-03
52680,8.09E-03,5.64E-03
52681,8.09E-03,5.80E-03
52682,8.09E-03,5.97E-03
52683,8.09E-03,6.15E-03
52684,8.09E-03,6.33E-03
52685,8.09E-03,6.53E-03
52686,8.09E-03,6.72E-03
52687,8.09E-03,6.92E-03
52688,8.09E-03,7.13E-03
52689,8.09E-03,7.34E-03
52690,8.09E-03,7.55E-03
52691,8.09E-03,7.77E-03
52692,8.09E-03,7.99E-03
52693,8.09E-03,8.22E-03
52694,8.09E-03,8.44E-03
52695,8.09E-03,8.67E-03
52696,8.09E-03,8.91E-03
52697,8.09E-03,9.14E-03
52698,8.09E-03,9.38E-03
52699,8.09E-03,9.62E-03
52700,8.09E-03,9.86E-03
52701,8.09E-03,1.01E-02
52702,8.09E-03,1.03E-02
52703,8.09E-03,1.06E-02
52704,8.09E-03,1.08E-02
52705,8.02E-03,1.11E-02
52706,7.90E-03,1.13E-02
52707,7.86E-03,1.16E-02
52708,7.79E-03,1.18E-02
52709,7.77E-03,1.21E-02
52710,7.88E-03,1.23E-02
52711,8.03E-03,1.26E-02
52712,7.90E-03,1.28E-02
52713,7.12E-03,1.30E-02
52714,8.34E-03,1.10E-02
52715,8.10E-03,1.39E-02
52716,8.10E-03,1.43E-02
52717,9.58E-03,1.20E-02
52718,9.36E-03,1.14E-02
52719,8.10E-03,1.35E-02
52720,8.10E-03,1.21E-02
52721,8.10E-03,1.38E-02
52722,8.10E-03,1.43E-02
52723,8.10E-03,1.36E-02
52724,8.10E-03,1.23E-02
52725,8.10E-03,1.37E-02
52726,8.10E-03,1.42E-02
52727,8.03E-03,1.37E-02
52728,8.10E-03,1.35E-02
52729,8.10E-03,1.42E-02
52730,8.03E-03,1.37E-02
52731,8.10E-03,1.25E-02
52732,8.10E-03,1.34E-02
52733,8.04E-03,1.41E-02
52734,8.09E-03,1.38E-02
52735,8.10E-03,1.26E-02
52736,8.10E-03,1.32E-02
52737,8.10E-03,1.40E-02
52738,8.10E-03,1.28E-02
52739,8.12E-03,1.39E-02
52740,8.10E-03,1.31E-02
52741,8.11E-03,1.40E-02
52742,8.10E-03,1.29E-02
52743,8.10E-03,1.44E-02
52744,8.10E-03,1.44E-02
52745,9.20E-03,1.99E-02
52746,9.79E-03,1.94E-02
52747,9.31E-03,1.89E-02
52748,8.56E-03,1.84E-02
52749,8.33E-03,1.80E-02
52750,8.15E-03,1.75E-02
52751,8.15E-03,1.71E-02
52752,8.01E-03,1.66E-02
52753,8.01E-03,1.62E-02
52754,8.01E-03,1.58E-02
52755,8.10E-03,1.53E-02
52756,8.16E-03,1.49E-02
52757,8.30E-03,1.45E-02
52758,8.51E-03,1.40E-02
52759,8.87E-03,1.36E-02
52760,8.89E-03,3.11E-02
52761,8.25E-03,3.16E-02
52762,6.23E-03,3.19E-02
52763,6.43E-03,3.22E-02
52764,6.60E-03,3.24E-02
52765,6.64E-03,3.43E-02
52766,7.16E-03,3.59E-02
52767,8.99E-03,3.64E-02
52768,6.28E-03,1.43E-02
52769,6.97E-03,1.43E-02
52770,7.41E-03,1.42E-02
52771,8.04E-03,1.43E-02
52772,8.17E-03,1.43E-02
52773,8.24E-03,1.44E-02
52774,7.00E-03,1.45E-02
52775,6.51E-03,1.46E-02
52776,6.27E-03,1.48E-02
52777,5.95E-03,1.49E-02
52778,5.54E-03,1.51E-02
52779,5.35E-03,1.53E-02
52780,5.51E-03,1.55E-02
52781,5.82E-03,1.57E-02
52782,6.04E-03,1.59E-02
52783,6.17E-03,1.62E-02
52784,6.28E-03,1.65E-02
52785,6.40E-03,1.68E-02
52786,6.50E-03,1.71E-02
52787,6.55E-03,1.75E-02
52788,6.54E-03,1.79E-02
52789,6.52E-03,1.83E-02
52790,6.50E-03,1.87E-02
52791,6.48E-03,1.92E-02
52792,6.44E-03,1.97E-02
52793,6.32E-03,2.02E-02
52794,6.23E-03,2.07E-02
52795,6.06E-03,2.12E-02
52796,5.82E-03,2.17E-02
52797,5.56E-03,2.22E-02
52798,5.24E-03,2.27E-02
52799,4.93E-03,2.31E-02
52800,4.40E-03,2.36E-02
52801,4.17E-03,2.39E-02
52802,4.05E-03,2.43E-02
52803,3.94E-03,2.47E-02
52804,3.87E-03,2.50E-02
52805,3.85E-03,2.54E-02
52806,3.83E-03,2.57E-02
52807,3.93E-03,2.61E-02
52808,4.57E-03,2.65E-02
52809,4.81E-03,2.69E-02
52810,5.09E-03,2.74E-02
52811,5.24E-03,2.78E-02
52812,5.53E-03,2.83E-02
52813,5.79E-03,2.87E-02
52814,5.97E-03,2.92E-02
52815,6.16E-03,2.97E-02
52816,6.32E-03,3.02E-02
52817,6.36E-03,3.07E-02
52818,6.40E-03,3.12E-02
52819,6.44E-03,3.16E-02
52820,6.44E-03,3.21E-02
52821,6.41E-03,3.25E-02
52822,6.37E-03,3.30E-02
52823,6.32E-03,3.34E-02
52824,6.28E-03,3.38E-02
52825,6.10E-03,3.41E-02
52826,5.68E-03,3.45E-02
52827,5.31E-03,3.48E-02
52828,5.15E-03,3.51E-02
52829,4.97E-03,3.53E-02
52830,4.94E-03,3.56E-02
52831,5.28E-03,3.58E-02
52832,5.72E-03,3.61E-02
52833,6.05E-03,3.63E-02
52834,6.31E-03,3.65E-02
52835,6.60E-03,3.66E-02
52836,6.98E-03,3.68E-02
52837,7.36E-03,3.69E-02
52838,7.62E-03,3.70E-02
52839,7.75E-03,3.71E-02
52840,7.85E-03,3.72E-02
52841,8.05E-03,3.73E-02
52842,8.13E-03,3.73E-02
52843,8.21E-03,3.72E-02
52844,8.38E-03,3.72E-02
52845,8.43E-03,3.71E-02
52846,8.43E-03,3.71E-02
52847,6.48E-03,5.68E-03
52848,8.41E-03,5.86E-03
52849,8.39E-03,1.21E-02
52850,8.31E-03,1.21E-02
52851,9.95E-03,1.21E-02
52852,9.74E-03,1.21E-02
52853,9.69E-03,1.21E-02
52854,9.63E-03,1.22E-02
52855,9.40E-03,1.22E-02
52856,9.31E-03,1.23E-02
52857,8.86E-03,1.23E-02
52858,8.67E-03,1.24E-02
52859,8.56E-03,1.24E-02
52860,8.22E-03,1.24E-02
52861,8.11E-03,1.25E-02
52862,8.11E-03,1.25E-02
52863,7.88E-03,1.26E-02
52864,7.42E-03,1.26E-02
52865,7.07E-03,1.27E-02
52866,7.03E-03,1.27E-02
52867,7.06E-03,1.27E-02
52868,7.02E-03,1.28E-02
52869,7.02E-03,1.28E-02
52870,7.05E-03,1.28E-02
52871,7.07E-03,1.28E-02
52872,7.09E-03,1.29E-02
52873,7.10E-03,1.29E-02
52874,7.10E-03,1.29E-02
52875,7.12E-03,1.29E-02
52876,7.23E-03,1.29E-02
52877,7.40E-03,1.29E-02
52878,7.71E-03,1.30E-02
52879,8.00E-03,1.30E-02
52880,8.42E-03,1.30E-02
52881,8.46E-03,1.30E-02
52882,8.58E-03,1.30E-02
52883,8.73E-03,1.30E-02
52884,8.65E-03,1.30E-02
52885,8.09E-03,1.30E-02
52886,8.09E-03,1.28E-02
52887,8.09E-03,1.27E-02
52888,8.09E-03,1.25E-02
52889,8.09E-03,1.23E-02
52890,8.09E-03,1.21E-02
52891,8.09E-03,1.19E-02
52892,8.09E-03,1.18E-02
52893,8.09E-03,1.16E-02
52894,8.09E-03,1.14E-02
52895,8.09E-03,1.12E-02
52896,8.09E-03,1.10E-02
52897,8.15E-03,1.08E-02
52898,8.19E-03,1.06E-02
52899,8.27E-03,1.04E-02
52900,7.93E-03,2.08E-02
52901,7.86E-03,2.08E-02
52902,7.52E-03,5.04E-03
52903,7.70E-03,4.93E-03
52904,6.08E-03,4.81E-03
52905,6.03E-03,4.72E-03
52906,4.77E-03,4.63E-03
52907,4.22E-03,4.54E-03
52908,3.81E-03,4.50E-03
52909,3.34E-03,4.47E-03
52910,2.75E-03,4.45E-03
52911,2.29E-03,4.42E-03
52912,1.78E-03,4.36E-03
52913,2.64E-03,4.29E-03
52914,3.07E-03,4.22E-03
52915,4.08E-03,4.21E-03
52916,4.83E-03,4.19E-03
52917,5.54E-03,4.18E-03
52918,5.88E-03,4.16E-03
52919,6.57E-03,4.14E-03
52920,6.77E-03,4.12E-03
52921,7.18E-03,4.09E-03
52922,1.02E-02,4.04E-03
52923,1.02E-02,3.98E-03
52924,9.56E-03,3.92E-03
52925,9.04E-03,3.87E-03
52926,8.48E-03,3.81E-03
52927,8.07E-03,3.76E-03
52928,7.56E-03,3.71E-03
52929,6.91E-03,3.67E-03
52930,6.55E-03,3.63E-03
52931,6.45E-03,3.59E-03
52932,6.35E-03,3.56E-03
52933,6.25E-03,3.53E-03
52934,6.11E-03,3.50E-03
52935,5.91E-03,3.47E-03
52936,5.68E-03,3.44E-03
52937,5.60E-03,3.42E-03
52938,5.41E-03,3.40E-03
52939,5.17E-03,3.38E-03
52940,4.82E-03,3.36E-03
52941,4.75E-03,3.34E-03
52942,4.59E-03,3.33E-03
52943,4.28E-03,3.32E-03
52944,4.14E-03,3.32E-03
52945,3.92E-03,3.31E-03
52946,3.80E-03,3.31E-03
52947,3.64E-03,3.32E-03
52948,3.34E-03,3.33E-03
52949,2.93E-03,3.33E-03
52950,2.96E-03,3.34E-03
52951,3.26E-03,3.35E-03
52952,3.61E-03,3.35E-03
52953,3.91E-03,3.36E-03
52954,4.47E-03,3.37E-03
52955,4.82E-03,3.39E-03
52956,4.93E-03,3.41E-03
52957,5.24E-03,3.43E-03
52958,5.56E-03,3.46E-03
52959,5.91E-03,3.49E-03
52960,6.19E-03,3.51E-03
52961,6.45E-03,3.54E-03
52962,6.69E-03,3.57E-03
52963,6.89E-03,3.61E-03
52964,7.07E-03,3.64E-03
52965,7.21E-03,3.67E-03
52966,7.33E-03,3.71E-03
52967,7.50E-03,3.74E-03
52968,7.61E-03,3.78E-03
52969,7.74E-03,3.82E-03
52970,7.87E-03,3.85E-03
52971,7.90E-03,3.89E-03
52972,7.91E-03,3.92E-03
52973,7.89E-03,3.95E-03
52974,7.87E-03,3.99E-03
52975,7.85E-03,4.02E-03
52976,7.82E-03,4.05E-03
52977,7.79E-03,4.08E-03
52978,7.74E-03,4.11E-03
52979,7.70E-03,4.14E-03
52980,7.66E-03,4.17E-03
52981,7.63E-03,4.20E-03
52982,7.61E-03,4.23E-03
52983,7.59E-03,4.26E-03
52984,7.57E-03,4.28E-03
52985,7.54E-03,4.31E-03
52986,7.52E-03,4.34E-03
52987,7.50E-03,4.37E-03
52988,7.48E-03,4.40E-03
52989,7.45E-03,4.42E-03
52990,7.41E-03,4.45E-03
52991,7.36E-03,4.48E-03
52992,7.32E-03,4.51E-03
52993,7.27E-03,4.54E-03
52994,7.22E-03,4.57E-03
52995,7.18E-03,4.60E-03
52996,7.13E-03,4.63E-03
52997,7.08E-03,4.66E-03
52998,7.03E-03,4.69E-03
52999,6.97E-03,4.72E-03
53000,6.92E-03,4.75E-03
53001,6.84E-03,4.78E-03
53002,6.74E-03,4.81E-03
53003,6.63E-03,4.85E-03
53004,6.51E-03,4.88E-03
53005,6.42E-03,4.91E-03
53006,6.36E-03,4.95E-03
53007,6.30E-03,4.98E-03
53008,6.25E-03,5.02E-03
53009,6.21E-03,5.05E-03
53010,6.18E-03,5.09E-03
53011,6.15E-03,5.13E-03
53012,6.13E-03,5.17E-03
53013,6.14E-03,5.21E-03
53014,6.16E-03,5.25E-03
53015,6.19E-03,5.30E-03
53016,6.21E-03,5.34E-03
53017,6.23E-03,5.39E-03
53018,6.25E-03,5.44E-03
53019,6.27E-03,5.49E-03
53020,6.27E-03,5.54E-03
53021,6.28E-03,5.59E-03
53022,6.28E-03,5.65E-03
53023,6.29E-03,5.70E-03
53024,6.29E-03,5.76E-03
53025,6.32E-03,5.82E-03
53026,6.41E-03,5.88E-03
53027,6.54E-03,5.94E-03
53028,6.68E-03,6.00E-03
53029,6.81E-03,6.07E-03
53030,6.93E-03,6.14E-03
53031,7.02E-03,6.21E-03
53032,7.10E-03,6.29E-03
53033,7.18E-03,6.36E-03
53034,7.26E-03,6.44E-03
53035,7.35E-03,6.52E-03
53036,7.47E-03,6.60E-03
53037,7.64E-03,6.68E-03
53038,7.80E-03,6.77E-03
53039,7.93E-03,6.85E-03
53040,8.14E-03,6.94E-03
53041,8.18E-03,7.03E-03
53042,8.51E-03,7.12E-03
53043,8.53E-03,7.22E-03
53044,9.43E-03,7.31E-03
53045,9.77E-03,7.42E-03
53046,9.82E-03,7.52E-03
53047,9.98E-03,7.62E-03
53048,9.65E-03,7.71E-03
53049,8.70E-03,7.79E-03
53050,8.72E-03,8.10E-03
53051,8.69E-03,8.17E-03
53052,8.53E-03,8.21E-03
53053,7.85E-03,8.25E-03
53054,7.49E-03,8.34E-03
53055,6.74E-03,2.88E-02
53056,6.15E-03,2.83E-02
53057,8.32E-03,2.40E-02
53058,8.22E-03,2.45E-02
53059,8.24E-03,2.50E-02
53060,8.12E-03,2.55E-02
53061,8.05E-03,2.60E-02
53062,8.07E-03,2.65E-02
53063,7.51E-03,2.71E-02
53064,6.95E-03,2.73E-02
53065,6.65E-03,2.78E-02
53066,6.31E-03,1.33E-02
53067,6.25E-03,1.22E-02
53068,6.14E-03,1.22E-02
53069,6.08E-03,1.22E-02
53070,4.47E-03,1.23E-02
53071,2.97E-03,1.23E-02
53072,3.15E-03,1.23E-02
53073,3.34E-03,1.23E-02
53074,3.72E-03,1.23E-02
53075,4.33E-03,1.23E-02
53076,4.52E-03,1.23E-02
53077,5.12E-03,1.22E-02
53078,5.20E-03,1.22E-02
53079,6.07E-03,1.22E-02
53080,6.42E-03,1.21E-02
53081,6.66E-03,1.21E-02
53082,6.87E-03,1.20E-02
53083,7.06E-03,1.19E-02
53084,7.19E-03,1.18E-02
53085,7.27E-03,1.18E-02
53086,7.34E-03,1.17E-02
53087,7.41E-03,1.16E-02
53088,7.48E-03,1.15E-02
53089,7.55E-03,1.14E-02
53090,7.62E-03,1.13E-02
53091,7.68E-03,1.12E-02
53092,7.72E-03,1.10E-02
53093,7.74E-03,1.09E-02
53094,7.76E-03,1.08E-02
53095,7.77E-03,1.07E-02
53096,7.79E-03,1.05E-02
53097,7.80E-03,1.04E-02
53098,7.82E-03,1.03E-02
53099,7.84E-03,1.01E-02
53100,7.85E-03,1.00E-02
53101,7.87E-03,9.87E-03
53102,7.88E-03,9.73E-03
53103,7.89E-03,9.59E-03
53104,7.91E-03,9.45E-03
53105,7.92E-03,9.32E-03
53106,7.93E-03,9.19E-03
53107,7.94E-03,9.07E-03
53108,7.95E-03,8.95E-03
53109,7.96E-03,8.84E-03
53110,7.96E-03,8.73E-03
53111,7.97E-03,8.64E-03
53112,7.98E-03,8.56E-03
53113,7.99E-03,8.48E-03
53114,8.00E-03,8.42E-03
53115,8.00E-03,8.37E-03
53116,8.00E-03,8.33E-03
53117,8.00E-03,8.31E-03
53118,8.00E-03,8.30E-03
53119,8.00E-03,8.30E-03
53120,8.00E-03,8.32E-03
53121,8.00E-03,8.35E-03
53122,7.99E-03,8.40E-03
53123,7.99E-03,8.45E-03
53124,7.97E-03,8.52E-03
53125,7.96E-03,8.60E-03
53126,7.95E-03,8.69E-03
53127,7.94E-03,8.79E-03
53128,7.93E-03,8.90E-03
53129,7.92E-03,9.01E-03
53130,7.90E-03,9.13E-03
53131,7.89E-03,9.26E-03
53132,7.88E-03,9.40E-03
53133,7.86E-03,9.54E-03
53134,7.84E-03,9.68E-03
53135,7.81E-03,9.83E-03
53136,7.78E-03,9.98E-03
53137,7.75E-03,1.01E-02
53138,7.72E-03,1.03E-02
53139,7.69E-03,1.04E-02
53140,7.66E-03,1.06E-02
53141,7.63E-03,1.08E-02
53142,7.61E-03,1.09E-02
53143,7.59E-03,1.11E-02
53144,7.57E-03,1.12E-02
53145,7.55E-03,1.14E-02
53146,7.53E-03,1.16E-02
53147,7.51E-03,1.17E-02
53148,7.48E-03,1.19E-02
53149,7.45E-03,1.20E-02
53150,7.42E-03,1.22E-02
53151,7.39E-03,1.23E-02
53152,7.36E-03,1.25E-02
53153,7.33E-03,1.26E-02
53154,7.28E-03,1.28E-02
53155,7.22E-03,1.29E-02
53156,7.16E-03,1.31E-02
53157,7.10E-03,1.32E-02
53158,7.05E-03,1.33E-02
53159,7.02E-03,1.35E-02
53160,7.01E-03,1.36E-02
53161,7.00E-03,1.37E-02
53162,7.01E-03,1.39E-02
53163,7.03E-03,1.40E-02
53164,7.05E-03,1.41E-02
53165,7.07E-03,1.43E-02
53166,7.09E-03,1.44E-02
53167,7.11E-03,1.45E-02
53168,7.12E-03,1.47E-02
53169,7.13E-03,1.48E-02
53170,7.15E-03,1.49E-02
53171,7.17E-03,1.50E-02
53172,7.18E-03,1.52E-02
53173,7.19E-03,1.53E-02
53174,7.21E-03,1.54E-02
53175,7.22E-03,1.56E-02
53176,7.23E-03,1.57E-02
53177,7.25E-03,1.58E-02
53178,7.27E-03,1.60E-02
53179,7.28E-03,1.61E-02
53180,7.28E-03,1.62E-02
53181,7.28E-03,1.64E-02
53182,7.29E-03,1.65E-02
53183,7.31E-03,1.66E-02
53184,7.35E-03,1.68E-02
53185,7.41E-03,1.69E-02
53186,7.46E-03,1.70E-02
53187,7.49E-03,1.72E-02
53188,7.46E-03,1.73E-02
53189,7.32E-03,1.75E-02
53190,7.27E-03,1.76E-02
53191,7.04E-03,1.78E-02
53192,6.75E-03,1.79E-02
53193,6.41E-03,1.80E-02
53194,5.78E-03,1.82E-02
53195,8.36E-03,1.32E-02
53196,9.01E-03,8.96E-03
53197,9.53E-03,9.22E-03
53198,8.94E-03,2.04E-02
53199,9.80E-03,2.03E-02
53200,1.04E-02,2.02E-02
53201,1.04E-02,2.02E-02
53202,1.05E-02,2.01E-02
53203,1.05E-02,2.01E-02
53204,1.04E-02,2.00E-02
53205,1.01E-02,2.00E-02
53206,9.71E-03,1.99E-02
53207,9.54E-03,1.99E-02
53208,9.28E-03,1.99E-02
53209,9.01E-03,1.99E-02
53210,8.90E-03,1.98E-02
53211,8.80E-03,1.98E-02
53212,8.71E-03,1.98E-02
53213,8.63E-03,1.98E-02
53214,8.57E-03,1.98E-02
53215,8.55E-03,1.98E-02
53216,8.55E-03,1.98E-02
53217,8.55E-03,1.98E-02
53218,8.52E-03,1.98E-02
53219,8.43E-03,1.98E-02
53220,8.34E-03,1.98E-02
53221,8.27E-03,1.98E-02
53222,8.22E-03,1.98E-02
53223,8.18E-03,1.98E-02
53224,8.16E-03,1.98E-02
53225,8.16E-03,1.98E-02
53226,8.16E-03,1.98E-02
53227,8.15E-03,1.99E-02
53228,8.15E-03,1.99E-02
53229,8.13E-03,1.99E-02
53230,8.12E-03,1.99E-02
53231,8.09E-03,1.99E-02
53232,8.08E-03,1.99E-02
53233,8.06E-03,1.98E-02
53234,8.05E-03,1.98E-02
53235,8.03E-03,1.98E-02
53236,8.02E-03,1.98E-02
53237,8.03E-03,1.98E-02
53238,8.05E-03,1.97E-02
53239,8.08E-03,1.97E-02
53240,8.10E-03,1.97E-02
53241,8.13E-03,1.96E-02
53242,8.15E-03,1.96E-02
53243,8.17E-03,1.96E-02
53244,8.20E-03,1.95E-02
53245,8.24E-03,1.95E-02
53246,8.29E-03,1.94E-02
53247,8.35E-03,1.93E-02
53248,8.39E-03,1.93E-02
53249,8.42E-03,1.92E-02
53250,8.44E-03,1.92E-02
53251,8.46E-03,1.91E-02
53252,8.49E-03,1.90E-02
53253,8.52E-03,1.90E-02
53254,8.55E-03,1.89E-02
53255,8.59E-03,1.88E-02
53256,8.62E-03,1.88E-02
53257,8.67E-03,1.87E-02
53258,8.74E-03,1.86E-02
53259,8.81E-03,1.85E-02
53260,8.89E-03,1.85E-02
53261,8.93E-03,1.84E-02
53262,8.94E-03,1.83E-02
53263,8.93E-03,1.82E-02
53264,8.90E-03,1.82E-02
53265,8.86E-03,1.81E-02
53266,8.84E-03,1.80E-02
53267,8.82E-03,1.80E-02
53268,8.78E-03,1.79E-02
53269,8.76E-03,1.78E-02
53270,8.76E-03,1.78E-02
53271,8.77E-03,1.77E-02
53272,8.69E-03,1.77E-02
53273,8.51E-03,1.76E-02
53274,8.31E-03,1.76E-02
53275,8.11E-03,1.75E-02
53276,7.98E-03,1.75E-02
53277,7.98E-03,1.75E-02
53278,8.02E-03,1.75E-02
53279,7.99E-03,1.74E-02
53280,7.90E-03,1.74E-02
53281,7.82E-03,1.74E-02
53282,7.75E-03,1.74E-02
53283,7.68E-03,1.74E-02
53284,7.59E-03,1.73E-02
53285,7.48E-03,1.73E-02
53286,7.36E-03,1.73E-02
53287,7.25E-03,1.73E-02
53288,7.18E-03,1.72E-02
53289,7.13E-03,1.72E-02
53290,7.08E-03,1.71E-02
53291,7.05E-03,1.71E-02
53292,7.02E-03,1.70E-02
53293,7.00E-03,1.69E-02
53294,6.97E-03,1.69E-02
53295,6.91E-03,1.68E-02
53296,6.85E-03,1.67E-02
53297,6.81E-03,1.66E-02
53298,6.81E-03,1.65E-02
53299,6.84E-03,1.64E-02
53300,6.87E-03,1.63E-02
53301,6.90E-03,1.62E-02
53302,6.93E-03,1.61E-02
53303,6.97E-03,1.59E-02
53304,7.00E-03,1.58E-02
53305,7.04E-03,1.57E-02
53306,7.07E-03,1.56E-02
53307,7.10E-03,1.54E-02
53308,7.11E-03,1.53E-02
53309,7.13E-03,1.52E-02
53310,7.14E-03,1.50E-02
53311,7.15E-03,1.49E-02
53312,7.16E-03,1.48E-02
53313,7.17E-03,1.46E-02
53314,7.15E-03,1.45E-02
53315,7.12E-03,1.44E-02
53316,7.10E-03,1.42E-02
53317,7.07E-03,1.41E-02
53318,7.03E-03,1.40E-02
53319,6.99E-03,1.39E-02
53320,6.95E-03,1.38E-02
53321,6.88E-03,1.36E-02
53322,6.79E-03,1.35E-02
53323,6.70E-03,1.34E-02
53324,6.61E-03,1.33E-02
53325,6.54E-03,1.32E-02
53326,6.51E-03,1.31E-02
53327,6.55E-03,1.30E-02
53328,6.59E-03,1.29E-02
53329,6.54E-03,1.28E-02
53330,6.53E-03,1.27E-02
53331,7.78E-03,1.26E-02
53332,8.04E-03,1.24E-02
53333,8.69E-03,1.23E-02
53334,8.77E-03,1.22E-02
53335,1.06E-02,1.20E-02
53336,1.06E-02,1.19E-02
53337,1.08E-02,1.17E-02
53338,1.10E-02,1.15E-02
53339,1.11E-02,1.13E-02
53340,1.11E-02,1.12E-02
53341,1.10E-02,1.10E-02
53342,1.09E-02,1.08E-02
53343,1.08E-02,1.06E-02
53344,1.06E-02,1.04E-02
53345,1.06E-02,1.03E-02
53346,1.05E-02,1.01E-02
53347,1.03E-02,9.90E-03
53348,1.01E-02,9.73E-03
53349,9.93E-03,9.56E-03
53350,9.06E-03,9.41E-03
53351,7.65E-03,9.27E-03
53352,7.27E-03,9.14E-03
53353,7.12E-03,9.03E-03
53354,7.05E-03,8.92E-03
53355,6.98E-03,8.81E-03
53356,6.87E-03,8.71E-03
53357,6.80E-03,8.61E-03
53358,5.71E-03,1.27E-02
53359,9.47E-03,7.24E-03
53360,7.52E-03,6.87E-03
53361,6.06E-03,9.72E-03
53362,5.55E-03,9.36E-03
53363,7.51E-03,9.07E-03
53364,7.87E-03,8.76E-03
53365,7.88E-03,8.47E-03
53366,8.00E-03,8.10E-03
53367,8.99E-03,1.24E-02
53368,9.85E-03,2.05E-02
53369,1.02E-02,2.03E-02
53370,1.00E-02,2.02E-02
53371,9.87E-03,2.01E-02
53372,9.65E-03,2.00E-02
53373,9.48E-03,1.99E-02
53374,8.83E-03,1.98E-02
53375,8.74E-03,1.98E-02
53376,8.37E-03,1.97E-02
53377,8.23E-03,1.96E-02
53378,7.85E-03,1.95E-02
53379,7.36E-03,1.95E-02
53380,5.97E-03,1.94E-02
53381,5.90E-03,1.94E-02
53382,5.81E-03,1.93E-02
53383,5.61E-03,1.93E-02
53384,5.36E-03,1.92E-02
53385,5.04E-03,1.92E-02
53386,4.78E-03,1.91E-02
53387,4.32E-03,1.91E-02
53388,4.19E-03,1.91E-02
53389,3.84E-03,1.90E-02
53390,2.76E-03,1.89E-02
53391,2.66E-03,1.89E-02
53392,2.67E-03,1.89E-02
53393,2.69E-03,1.88E-02
53394,2.73E-03,1.88E-02
53395,2.82E-03,1.87E-02
53396,2.78E-03,1.87E-02
53397,2.96E-03,1.86E-02
53398,3.03E-03,1.86E-02
53399,3.01E-03,1.86E-02
53400,3.32E-03,1.85E-02
53401,4.55E-03,1.85E-02
53402,4.22E-03,1.85E-02
53403,7.53E-03,2.08E-02
53404,7.73E-03,2.08E-02
53405,8.57E-03,8.74E-03
53406,8.31E-03,8.51E-03
53407,8.20E-03,8.28E-03
53408,8.14E-03,8.06E-03
53409,8.09E-03,7.85E-03
53410,8.09E-03,7.63E-03
53411,8.09E-03,7.42E-03
53412,8.09E-03,7.21E-03
53413,8.09E-03,7.00E-03
53414,8.09E-03,6.79E-03
53415,8.09E-03,6.58E-03
53416,8.09E-03,6.37E-03
53417,8.09E-03,6.17E-03
53418,8.09E-03,5.97E-03
53419,8.09E-03,5.77E-03
53420,8.09E-03,5.58E-03
53421,8.09E-03,5.40E-03
53422,8.09E-03,5.22E-03
53423,8.09E-03,5.04E-03
53424,8.09E-03,4.87E-03
53425,8.09E-03,4.71E-03
53426,8.09E-03,4.56E-03
53427,8.09E-03,4.42E-03
53428,8.09E-03,4.29E-03
53429,8.09E-03,4.17E-03
53430,8.09E-03,4.06E-03
53431,8.09E-03,3.97E-03
53432,8.09E-03,3.89E-03
53433,8.09E-03,3.82E-03
53434,8.09E-03,3.77E-03
53435,8.09E-03,3.74E-03
53436,8.09E-03,3.72E-03
53437,8.09E-03,3.72E-03
53438,8.09E-03,3.74E-03
53439,8.09E-03,3.77E-03
53440,8.09E-03,3.82E-03
53441,8.09E-03,3.88E-03
53442,8.09E-03,3.95E-03
53443,8.09E-03,4.04E-03
53444,8.09E-03,4.14E-03
53445,8.09E-03,4.25E-03
53446,8.09E-03,4.37E-03
53447,8.09E-03,4.49E-03
53448,8.09E-03,4.62E-03
53449,8.09E-03,4.76E-03
53450,8.09E-03,4.91E-03
53451,8.09E-03,5.06E-03
53452,8.09E-03,5.21E-03
53453,8.09E-03,5.37E-03
53454,8.09E-03,5.53E-03
53455,8.09E-03,5.69E-03
53456,8.09E-03,5.85E-03
53457,8.09E-03,6.02E-03
53458,8.09E-03,6.18E-03
53459,8.09E-03,6.35E-03
53460,8.09E-03,6.52E-03
53461,8.09E-03,6.69E-03
53462,8.09E-03,6.86E-03
53463,8.09E-03,7.03E-03
53464,8.09E-03,7.19E-03
53465,8.09E-03,7.36E-03
53466,8.09E-03,7.53E-03
53467,8.09E-03,7.69E-03
53468,8.09E-03,7.86E-03
53469,8.09E-03,8.02E-03
53470,8.09E-03,8.19E-03
53471,8.09E-03,8.35E-03
53472,8.09E-03,8.51E-03
53473,8.09E-03,8.67E-03
53474,8.09E-03,8.83E-03
53475,8.09E-03,8.98E-03
53476,8.09E-03,9.14E-03
53477,8.09E-03,9.29E-03
53478,8.09E-03,9.45E-03
53479,8.09E-03,9.60E-03
53480,8.09E-03,9.75E-03
53481,8.09E-03,9.89E-03
53482,8.02E-03,1.00E-02
53483,8.01E-03,1.02E-02
53484,7.92E-03,1.03E-02
53485,7.89E-03,1.05E-02
53486,7.83E-03,1.06E-02
53487,7.84E-03,1.08E-02
53488,8.03E-03,1.09E-02
53489,8.15E-03,1.10E-02
53490,8.27E-03,1.11E-02
53491,8.56E-03,1.13E-02
53492,7.86E-03,9.96E-03
53493,7.65E-03,9.75E-03
53494,6.80E-03,2.09E-02
53495,8.10E-03,1.42E-02
53496,8.10E-03,1.44E-02
53497,8.32E-03,2.05E-02
53498,9.39E-03,1.25E-02
53499,9.33E-03,1.29E-02
53500,9.03E-03,3.10E-02
53501,7.46E-03,3.32E-02
53502,7.24E-03,3.46E-02
53503,5.98E-03,3.53E-02
53504,7.86E-03,3.56E-02
53505,7.14E-03,3.61E-02
53506,6.84E-03,1.43E-02
53507,8.46E-03,3.73E-02
53508,8.17E-03,3.75E-02
53509,8.44E-03,3.78E-02
53510,8.69E-03,6.07E-03
53511,6.65E-03,1.23E-02
53512,6.79E-03,1.33E-02
53513,8.10E-03,1.31E-02
53514,8.48E-03,9.56E-03
53515,1.08E-02,1.16E-02
53516,1.22E-02,1.15E-02
53517,1.13E-02,1.13E-02
53518,1.12E-02,1.11E-02
53519,1.12E-02,1.09E-02
53520,1.11E-02,1.08E-02
53521,1.09E-02,1.07E-02
53522,1.09E-02,1.05E-02
53523,1.07E-02,1.04E-02
53524,1.05E-02,1.03E-02
53525,1.04E-02,1.02E-02
53526,1.03E-02,1.01E-02
53527,1.02E-02,1.00E-02
53528,1.01E-02,9.95E-03
53529,9.96E-03,9.88E-03
53530,9.88E-03,9.82E-03
53531,9.79E-03,9.76E-03
53532,9.70E-03,9.70E-03
53533,9.61E-03,9.66E-03
53534,9.49E-03,9.61E-03
53535,9.33E-03,9.58E-03
53536,9.16E-03,9.55E-03
53537,9.02E-03,9.52E-03
53538,8.92E-03,9.50E-03
53539,8.85E-03,9.48E-03
53540,8.78E-03,9.46E-03
53541,8.72E-03,9.45E-03
53542,8.67E-03,9.44E-03
53543,8.63E-03,9.43E-03
53544,8.58E-03,9.43E-03
53545,8.52E-03,9.43E-03
53546,8.46E-03,9.43E-03
53547,8.39E-03,9.44E-03
53548,8.32E-03,9.45E-03
53549,8.26E-03,9.46E-03
53550,8.19E-03,9.47E-03
53551,8.16E-03,9.49E-03
53552,8.15E-03,9.51E-03
53553,8.12E-03,9.53E-03
53554,8.05E-03,9.55E-03
53555,7.95E-03,9.58E-03
53556,7.83E-03,9.61E-03
53557,7.68E-03,9.64E-03
53558,7.53E-03,9.67E-03
53559,7.43E-03,9.70E-03
53560,7.37E-03,9.74E-03
53561,7.29E-03,9.77E-03
53562,7.17E-03,9.81E-03
53563,6.99E-03,9.85E-03
53564,6.76E-03,9.89E-03
53565,6.52E-03,9.93E-03
53566,6.34E-03,9.97E-03
53567,6.18E-03,1.00E-02
53568,6.01E-03,1.00E-02
53569,5.81E-03,1.01E-02
53570,5.55E-03,1.01E-02
53571,5.25E-03,1.02E-02
53572,4.98E-03,1.02E-02
53573,4.82E-03,1.02E-02
53574,4.79E-03,1.03E-02
53575,4.77E-03,1.03E-02
53576,4.77E-03,1.03E-02
53577,4.81E-03,1.04E-02
53578,4.88E-03,1.04E-02
53579,4.95E-03,1.04E-02
53580,5.06E-03,1.05E-02
53581,5.21E-03,1.05E-02
53582,5.41E-03,1.06E-02
53583,5.49E-03,1.06E-02
53584,5.65E-03,1.06E-02
53585,5.74E-03,1.07E-02
53586,5.82E-03,1.07E-02
53587,5.91E-03,1.08E-02
53588,6.01E-03,1.08E-02
53589,6.11E-03,1.09E-02
53590,6.21E-03,1.09E-02
53591,6.26E-03,1.10E-02
53592,6.23E-03,1.10E-02
53593,6.61E-03,1.11E-02
53594,6.65E-03,1.12E-02
53595,6.69E-03,1.12E-02
53596,7.02E-03,1.13E-02
53597,8.21E-03,1.14E-02
53598,1.07E-02,1.18E-02
53599,7.72E-03,2.09E-02
53600,8.28E-03,7.81E-03
53601,8.52E-03,7.73E-03
53602,8.31E-03,7.89E-03
53603,8.08E-03,8.40E-03
53604,7.43E-03,1.01E-02
53605,6.78E-03,2.95E-02
53606,8.65E-03,2.33E-02
53607,6.44E-03,1.37E-02
53608,6.77E-03,1.24E-02
53609,6.91E-03,1.24E-02
53610,6.75E-03,1.25E-02
53611,8.99E-03,1.34E-02
53612,5.30E-03,1.42E-02
53613,6.85E-03,1.44E-02
53614,8.44E-03,1.41E-02
53615,1.01E-02,1.44E-02
53616,7.21E-03,1.47E-02
53617,4.95E-03,1.47E-02
53618,5.06E-03,1.47E-02
53619,5.29E-03,1.48E-02
53620,5.39E-03,1.48E-02
53621,5.69E-03,1.48E-02
53622,5.74E-03,1.48E-02
53623,5.97E-03,1.47E-02
53624,6.11E-03,1.47E-02
53625,6.20E-03,1.47E-02
53626,6.24E-03,1.47E-02
53627,6.22E-03,1.46E-02
53628,6.08E-03,1.46E-02
53629,6.21E-03,1.46E-02
53630,6.80E-03,1.45E-02
53631,7.32E-03,1.45E-02
53632,7.55E-03,1.44E-02
53633,7.85E-03,1.43E-02
53634,8.30E-03,1.42E-02
53635,8.72E-03,1.41E-02
53636,9.12E-03,1.40E-02
53637,9.57E-03,1.39E-02
53638,1.01E-02,1.38E-02
53639,1.04E-02,1.37E-02
53640,1.04E-02,1.35E-02
53641,1.03E-02,1.34E-02
53642,1.01E-02,1.33E-02
53643,9.97E-03,1.32E-02
53644,9.64E-03,1.31E-02
53645,9.51E-03,1.29E-02
53646,9.12E-03,1.28E-02
53647,8.88E-03,1.27E-02
53648,8.14E-03,1.26E-02
53649,6.32E-03,1.36E-02
53650,4.92E-03,1.36E-02
53651,5.10E-03,1.36E-02
53652,8.46E-03,3.10E-02
53653,8.26E-03,7.66E-03
53654,6.92E-03,2.09E-02
53655,8.10E-03,1.41E-02
53656,8.10E-03,1.43E-02
53657,7.09E-03,2.10E-02
53658,7.48E-03,3.41E-02
53659,7.88E-03,3.44E-02
53660,7.88E-03,3.48E-02
53661,7.08E-03,1.43E-02
53662,6.84E-03,6.53E-03
53663,7.99E-03,6.25E-03
53664,7.48E-03,1.25E-02
53665,8.10E-03,1.32E-02
53666,7.86E-03,2.06E-02
53667,8.10E-03,1.18E-02
53668,8.10E-03,1.17E-02
53669,8.09E-03,1.15E-02
53670,8.09E-03,1.14E-02
53671,8.09E-03,1.12E-02
53672,8.09E-03,1.11E-02
53673,8.09E-03,1.09E-02
53674,8.09E-03,1.08E-02
53675,8.09E-03,1.06E-02
53676,8.09E-03,1.05E-02
53677,8.09E-03,1.03E-02
53678,8.09E-03,1.02E-02
53679,8.09E-03,9.99E-03
53680,8.09E-03,9.83E-03
53681,8.09E-03,9.67E-03
53682,8.09E-03,9.50E-03
53683,8.09E-03,9.33E-03
53684,8.09E-03,9.17E-03
53685,8.09E-03,9.00E-03
53686,8.09E-03,8.83E-03
53687,8.09E-03,8.66E-03
53688,8.09E-03,8.48E-03
53689,8.09E-03,8.31E-03
53690,8.09E-03,8.14E-03
53691,8.09E-03,7.96E-03
53692,8.09E-03,7.79E-03
53693,8.09E-03,7.62E-03
53694,8.09E-03,7.45E-03
53695,8.09E-03,7.27E-03
53696,8.09E-03,7.10E-03
53697,8.09E-03,6.93E-03
53698,8.09E-03,6.76E-03
53699,8.09E-03,6.60E-03
53700,8.09E-03,6.43E-03
53701,8.09E-03,6.27E-03
53702,8.09E-03,6.11E-03
53703,8.09E-03,5.96E-03
53704,8.09E-03,5.80E-03
53705,8.09E-03,5.66E-03
53706,8.09E-03,5.52E-03
53707,8.09E-03,5.38E-03
53708,8.09E-03,5.25E-03
53709,8.09E-03,5.13E-03
53710,8.09E-03,5.02E-03
53711,8.09E-03,4.91E-03
53712,8.09E-03,4.81E-03
53713,8.09E-03,4.73E-03
53714,8.09E-03,4.66E-03
53715,8.09E-03,4.59E-03
53716,8.09E-03,4.54E-03
53717,8.09E-03,4.51E-03
53718,8.09E-03,4.49E-03
53719,8.09E-03,4.48E-03
53720,8.09E-03,4.48E-03
53721,8.09E-03,4.50E-03
53722,8.09E-03,4.54E-03
53723,8.09E-03,4.59E-03
53724,8.09E-03,4.65E-03
53725,8.09E-03,4.73E-03
53726,8.09E-03,4.82E-03
53727,8.09E-03,4.92E-03
53728,8.09E-03,5.03E-03
53729,8.09E-03,5.16E-03
53730,8.09E-03,5.29E-03
53731,8.09E-03,5.44E-03
53732,8.09E-03,5.59E-03
53733,8.09E-03,5.75E-03
53734,8.09E-03,5.92E-03
53735,8.09E-03,6.10E-03
53736,8.09E-03,6.28E-03
53737,8.09E-03,6.47E-03
53738,8.09E-03,6.66E-03
53739,8.09E-03,6.86E-03
53740,8.09E-03,7.06E-03
53741,8.09E-03,7.27E-03
53742,8.09E-03,7.49E-03
53743,8.09E-03,7.70E-03
53744,8.09E-03,7.92E-03
53745,8.09E-03,8.14E-03
53746,8.09E-03,8.37E-03
53747,8.09E-03,8.60E-03
53748,8.09E-03,8.83E-03
53749,8.09E-03,9.06E-03
53750,8.09E-03,9.30E-03
53751,8.09E-03,9.53E-03
53752,8.09E-03,9.77E-03
53753,8.09E-03,1.00E-02
53754,8.09E-03,1.03E-02
53755,8.09E-03,1.05E-02
53756,8.09E-03,1.07E-02
53757,8.09E-03,1.10E-02
53758,8.01E-03,1.12E-02
53759,7.96E-03,1.15E-02
53760,7.89E-03,1.17E-02
53761,7.96E-03,1.19E-02
53762,8.06E-03,1.22E-02
53763,7.73E-03,1.24E-02
53764,7.59E-03,1.27E-02
53765,7.03E-03,1.29E-02
53766,6.43E-03,1.31E-02
53767,6.18E-03,1.33E-02
53768,5.29E-03,1.35E-02
53769,4.96E-03,1.35E-02
53770,8.09E-03,1.05E-02
53771,6.71E-03,3.07E-02
53772,9.47E-03,3.04E-02
53773,9.51E-03,1.37E-02
53774,8.59E-03,1.38E-02
53775,7.23E-03,1.39E-02
53776,4.38E-03,1.41E-02
53777,5.70E-03,1.43E-02
53778,6.05E-03,1.45E-02
53779,8.10E-03,1.40E-02
53780,8.10E-03,1.43E-02
53781,5.13E-03,2.16E-02
53782,7.42E-03,2.20E-02
53783,9.19E-03,1.19E-02
53784,9.18E-03,1.14E-02
53785,6.84E-03,1.42E-02
53786,8.10E-03,1.33E-02
53787,1.02E-02,2.10E-02
53788,7.33E-03,2.10E-02
53789,8.10E-03,1.20E-02
53790,8.84E-03,1.09E-02
53791,8.10E-03,1.38E-02
53792,8.10E-03,1.42E-02
53793,8.10E-03,1.34E-02
53794,8.10E-03,1.22E-02
53795,8.10E-03,1.37E-02
53796,8.10E-03,1.42E-02
53797,8.10E-03,1.35E-02
53798,8.10E-03,1.36E-02
53799,8.10E-03,1.41E-02
53800,8.06E-03,1.36E-02
53801,8.10E-03,1.23E-02
53802,8.10E-03,1.34E-02
53803,8.10E-03,1.41E-02
53804,7.99E-03,1.37E-02
53805,8.10E-03,1.25E-02
53806,8.10E-03,1.33E-02
53807,8.10E-03,1.40E-02
53808,8.10E-03,1.27E-02
53809,8.12E-03,1.38E-02
53810,8.10E-03,1.31E-02
53811,8.13E-03,1.39E-02
53812,8.14E-03,1.39E-02
53813,8.10E-03,1.28E-02
53814,8.10E-03,1.30E-02
53815,8.65E-03,8.95E-03
53816,8.18E-03,1.35E-02
53817,8.10E-03,1.43E-02
53818,8.10E-03,1.43E-02
53819,8.99E-03,1.99E-02
53820,9.69E-03,1.95E-02
53821,9.15E-03,1.89E-02
53822,8.70E-03,1.84E-02
53823,8.36E-03,1.79E-02
53824,8.16E-03,1.75E-02
53825,8.15E-03,1.70E-02
53826,8.01E-03,1.66E-02
53827,8.01E-03,1.61E-02
53828,8.01E-03,1.57E-02
53829,8.10E-03,1.52E-02
53830,8.14E-03,1.48E-02
53831,8.35E-03,1.44E-02
53832,8.53E-03,1.39E-02
53833,8.86E-03,1.34E-02
53834,8.66E-03,3.15E-02
53835,8.30E-03,3.19E-02
53836,6.61E-03,3.23E-02
53837,6.64E-03,3.26E-02
53838,6.73E-03,3.29E-02
53839,6.71E-03,3.50E-02
53840,7.57E-03,3.65E-02
53841,8.35E-03,3.70E-02
53842,6.86E-03,1.44E-02
53843,7.27E-03,1.44E-02
53844,7.66E-03,1.44E-02
53845,7.90E-03,1.44E-02
53846,8.11E-03,1.45E-02
53847,8.24E-03,1.45E-02
53848,7.05E-03,1.46E-02
53849,6.59E-03,1.47E-02
53850,6.36E-03,1.48E-02
53851,6.06E-03,1.50E-02
53852,5.67E-03,1.51E-02
53853,5.49E-03,1.53E-02
53854,5.64E-03,1.55E-02
53855,5.93E-03,1.57E-02
53856,6.14E-03,1.59E-02
53857,6.26E-03,1.62E-02
53858,6.37E-03,1.65E-02
53859,6.48E-03,1.68E-02
53860,6.58E-03,1.71E-02
53861,6.63E-03,1.75E-02
53862,6.62E-03,1.79E-02
53863,6.60E-03,1.83E-02
53864,6.58E-03,1.88E-02
53865,6.56E-03,1.92E-02
53866,6.52E-03,1.97E-02
53867,6.49E-03,2.02E-02
53868,6.39E-03,2.08E-02
53869,6.21E-03,2.13E-02
53870,5.99E-03,2.18E-02
53871,5.75E-03,2.24E-02
53872,5.39E-03,2.29E-02
53873,4.96E-03,2.34E-02
53874,4.58E-03,2.38E-02
53875,4.36E-03,2.42E-02
53876,4.26E-03,2.46E-02
53877,4.15E-03,2.50E-02
53878,4.09E-03,2.54E-02
53879,4.06E-03,2.58E-02
53880,4.04E-03,2.62E-02
53881,4.14E-03,2.66E-02
53882,4.70E-03,2.70E-02
53883,4.98E-03,2.74E-02
53884,5.01E-03,2.79E-02
53885,5.39E-03,2.83E-02
53886,5.70E-03,2.88E-02
53887,5.95E-03,2.93E-02
53888,6.15E-03,2.99E-02
53889,6.36E-03,3.04E-02
53890,6.40E-03,3.09E-02
53891,6.44E-03,3.14E-02
53892,6.48E-03,3.19E-02
53893,6.52E-03,3.24E-02
53894,6.52E-03,3.29E-02
53895,6.49E-03,3.34E-02
53896,6.45E-03,3.38E-02
53897,6.41E-03,3.42E-02
53898,6.37E-03,3.46E-02
53899,6.20E-03,3.50E-02
53900,5.80E-03,3.54E-02
53901,5.45E-03,3.57E-02
53902,5.30E-03,3.60E-02
53903,5.13E-03,3.63E-02
53904,5.10E-03,3.66E-02
53905,5.42E-03,3.68E-02
53906,5.84E-03,3.70E-02
53907,6.15E-03,3.73E-02
53908,6.40E-03,3.75E-02
53909,6.68E-03,3.76E-02
53910,7.04E-03,3.78E-02
53911,7.40E-03,3.79E-02
53912,7.64E-03,3.80E-02
53913,7.76E-03,3.81E-02
53914,7.86E-03,3.82E-02
53915,8.05E-03,3.82E-02
53916,8.17E-03,3.82E-02
53917,8.20E-03,3.82E-02
53918,8.33E-03,3.82E-02
53919,8.45E-03,3.81E-02
53920,8.37E-03,3.79E-02
53921,8.74E-03,5.76E-03
53922,6.91E-03,1.23E-02
53923,7.66E-03,1.25E-02
53924,8.61E-03,1.24E-02
53925,9.67E-03,1.24E-02
53926,9.58E-03,1.25E-02
53927,9.58E-03,1.25E-02
53928,9.54E-03,1.25E-02
53929,9.37E-03,1.26E-02
53930,9.22E-03,1.26E-02
53931,8.77E-03,1.26E-02
53932,8.69E-03,1.27E-02
53933,8.48E-03,1.27E-02
53934,8.22E-03,1.28E-02
53935,8.11E-03,1.28E-02
53936,8.11E-03,1.29E-02
53937,7.89E-03,1.29E-02
53938,7.45E-03,1.29E-02
53939,7.12E-03,1.30E-02
53940,7.08E-03,1.30E-02
53941,7.12E-03,1.31E-02
53942,7.07E-03,1.31E-02
53943,7.07E-03,1.31E-02
53944,7.10E-03,1.31E-02
53945,7.13E-03,1.32E-02
53946,7.14E-03,1.32E-02
53947,7.15E-03,1.32E-02
53948,7.15E-03,1.32E-02
53949,7.17E-03,1.32E-02
53950,7.27E-03,1.33E-02
53951,7.44E-03,1.33E-02
53952,7.77E-03,1.33E-02
53953,7.95E-03,1.33E-02
53954,8.39E-03,1.33E-02
53955,8.47E-03,1.33E-02
53956,8.58E-03,1.33E-02
53957,8.56E-03,1.33E-02
53958,8.24E-03,1.33E-02
53959,8.09E-03,1.29E-02
53960,8.09E-03,1.28E-02
53961,8.09E-03,1.26E-02
53962,8.09E-03,1.24E-02
53963,8.09E-03,1.23E-02
53964,8.09E-03,1.21E-02
53965,8.09E-03,1.19E-02
53966,8.09E-03,1.17E-02
53967,8.09E-03,1.15E-02
53968,8.09E-03,1.13E-02
53969,8.09E-03,1.12E-02
53970,8.09E-03,1.10E-02
53971,8.08E-03,1.08E-02
53972,8.08E-03,1.06E-02
53973,8.02E-03,1.04E-02
53974,8.00E-03,1.01E-02
53975,7.31E-03,9.95E-03
53976,4.78E-03,9.62E-03
53977,6.29E-03,9.76E-03
53978,8.48E-03,8.71E-03
53979,8.37E-03,8.49E-03
53980,8.22E-03,8.26E-03
53981,8.14E-03,8.04E-03
53982,8.09E-03,7.83E-03
53983,8.09E-03,7.62E-03
53984,8.09E-03,7.40E-03
53985,8.09E-03,7.19E-03
53986,8.09E-03,6.98E-03
53987,8.09E-03,6.77E-03
53988,8.09E-03,6.57E-03
53989,8.09E-03,6.36E-03
53990,8.09E-03,6.16E-03
53991,8.09E-03,5.96E-03
53992,8.09E-03,5.77E-03
53993,8.09E-03,5.58E-03
53994,8.09E-03,5.39E-03
53995,8.09E-03,5.21E-03
53996,8.09E-03,5.04E-03
53997,8.09E-03,4.87E-03
53998,8.09E-03,4.71E-03
53999,8.09E-03,4.56E-03
54000,8.09E-03,4.42E-03
54001,8.09E-03,4.29E-03
54002,8.09E-03,4.17E-03
54003,8.09E-03,4.06E-03
54004,8.09E-03,3.97E-03
54005,8.09E-03,3.89E-03
54006,8.09E-03,3.82E-03
54007,8.09E-03,3.78E-03
54008,8.09E-03,3.74E-03
54009,8.09E-03,3.73E-03
54010,8.09E-03,3.73E-03
54011,8.09E-03,3.74E-03
54012,8.09E-03,3.77E-03
54013,8.09E-03,3.82E-03
54014,8.09E-03,3.88E-03
54015,8.09E-03,3.96E-03
54016,8.09E-03,4.04E-03
54017,8.09E-03,4.14E-03
54018,8.09E-03,4.25E-03
54019,8.09E-03,4.37E-03
54020,8.09E-03,4.49E-03
54021,8.09E-03,4.63E-03
54022,8.09E-03,4.77E-03
54023,8.09E-03,4.91E-03
54024,8.09E-03,5.06E-03
54025,8.09E-03,5.21E-03
54026,8.09E-03,5.37E-03
54027,8.09E-03,5.53E-03
54028,8.09E-03,5.70E-03
54029,8.09E-03,5.86E-03
54030,8.09E-03,6.03E-03
54031,8.09E-03,6.19E-03
54032,8.09E-03,6.36E-03
54033,8.09E-03,6.53E-03
54034,8.09E-03,6.70E-03
54035,8.09E-03,6.87E-03
54036,8.09E-03,7.04E-03
54037,8.09E-03,7.21E-03
54038,8.09E-03,7.38E-03
54039,8.09E-03,7.55E-03
54040,8.09E-03,7.71E-03
54041,8.09E-03,7.88E-03
54042,8.09E-03,8.05E-03
54043,8.09E-03,8.21E-03
54044,8.09E-03,8.37E-03
54045,8.09E-03,8.54E-03
54046,8.09E-03,8.70E-03
54047,8.09E-03,8.86E-03
54048,8.09E-03,9.02E-03
54049,8.09E-03,9.18E-03
54050,8.09E-03,9.33E-03
54051,8.09E-03,9.49E-03
54052,8.09E-03,9.64E-03
54053,8.09E-03,9.79E-03
54054,8.09E-03,9.94E-03
54055,8.09E-03,1.01E-02
54056,8.09E-03,1.02E-02
54057,8.03E-03,1.04E-02
54058,7.95E-03,1.05E-02
54059,7.95E-03,1.07E-02
54060,7.97E-03,1.08E-02
54061,8.03E-03,1.10E-02
54062,8.04E-03,1.11E-02
54063,7.93E-03,1.12E-02
54064,8.37E-03,1.13E-02
54065,5.22E-03,1.15E-02
54066,6.30E-03,1.15E-02
54067,5.00E-03,1.16E-02
54068,6.79E-03,1.17E-02
54069,6.94E-03,1.15E-02
54070,7.06E-03,1.15E-02
54071,7.31E-03,1.14E-02
54072,6.80E-03,1.13E-02
54073,6.66E-03,1.13E-02
54074,6.65E-03,1.12E-02
54075,6.32E-03,1.12E-02
54076,6.35E-03,1.11E-02
54077,6.31E-03,1.10E-02
54078,6.21E-03,1.10E-02
54079,6.12E-03,1.09E-02
54080,6.02E-03,1.09E-02
54081,5.94E-03,1.08E-02
54082,5.86E-03,1.08E-02
54083,5.78E-03,1.07E-02
54084,5.67E-03,1.07E-02
54085,5.52E-03,1.06E-02
54086,5.36E-03,1.06E-02
54087,5.21E-03,1.06E-02
54088,5.11E-03,1.05E-02
54089,5.04E-03,1.05E-02
54090,4.98E-03,1.05E-02
54091,4.94E-03,1.04E-02
54092,4.94E-03,1.04E-02
54093,4.96E-03,1.03E-02
54094,4.99E-03,1.03E-02
54095,5.14E-03,1.03E-02
54096,5.40E-03,1.02E-02
54097,5.68E-03,1.02E-02
54098,5.93E-03,1.02E-02
54099,6.12E-03,1.01E-02
54100,6.27E-03,1.01E-02
54101,6.43E-03,1.00E-02
54102,6.61E-03,9.99E-03
54103,6.83E-03,9.96E-03
54104,7.05E-03,9.92E-03
54105,7.21E-03,9.88E-03
54106,7.33E-03,9.84E-03
54107,7.41E-03,9.81E-03
54108,7.46E-03,9.77E-03
54109,7.56E-03,9.74E-03
54110,7.70E-03,9.71E-03
54111,7.84E-03,9.68E-03
54112,7.96E-03,9.65E-03
54113,8.05E-03,9.63E-03
54114,8.12E-03,9.60E-03
54115,8.15E-03,9.58E-03
54116,8.16E-03,9.56E-03
54117,8.19E-03,9.55E-03
54118,8.25E-03,9.53E-03
54119,8.31E-03,9.52E-03
54120,8.38E-03,9.52E-03
54121,8.44E-03,9.51E-03
54122,8.50E-03,9.51E-03
54123,8.55E-03,9.51E-03
54124,8.60E-03,9.51E-03
54125,8.64E-03,9.52E-03
54126,8.69E-03,9.53E-03
54127,8.75E-03,9.54E-03
54128,8.81E-03,9.56E-03
54129,8.88E-03,9.58E-03
54130,8.97E-03,9.60E-03
54131,9.11E-03,9.63E-03
54132,9.27E-03,9.66E-03
54133,9.42E-03,9.70E-03
54134,9.53E-03,9.74E-03
54135,9.62E-03,9.79E-03
54136,9.70E-03,9.84E-03
54137,9.78E-03,9.90E-03
54138,9.87E-03,9.96E-03
54139,9.95E-03,1.00E-02
54140,1.01E-02,1.01E-02
54141,1.02E-02,1.02E-02
54142,1.03E-02,1.03E-02
54143,1.04E-02,1.04E-02
54144,1.05E-02,1.05E-02
54145,1.08E-02,1.06E-02
54146,1.08E-02,1.07E-02
54147,1.09E-02,1.08E-02
54148,1.11E-02,1.10E-02
54149,1.13E-02,1.11E-02
54150,1.14E-02,1.13E-02
54151,1.13E-02,1.15E-02
54152,1.10E-02,1.16E-02
54153,7.59E-03,2.10E-02
54154,7.74E-03,4.68E-03
54155,5.94E-03,4.57E-03
54156,5.83E-03,4.48E-03
54157,5.20E-03,4.39E-03
54158,4.85E-03,4.31E-03
54159,3.92E-03,4.25E-03
54160,3.24E-03,4.22E-03
54161,2.85E-03,4.19E-03
54162,2.29E-03,4.18E-03
54163,2.40E-03,4.17E-03
54164,3.76E-03,4.12E-03
54165,3.70E-03,4.02E-03
54166,4.32E-03,4.00E-03
54167,5.11E-03,3.97E-03
54168,5.41E-03,3.95E-03
54169,6.01E-03,3.93E-03
54170,6.56E-03,3.91E-03
54171,6.91E-03,3.88E-03
54172,7.26E-03,3.86E-03
54173,1.01E-02,3.82E-03
54174,1.01E-02,3.77E-03
54175,9.48E-03,3.72E-03
54176,8.99E-03,3.67E-03
54177,8.46E-03,3.62E-03
54178,8.07E-03,3.57E-03
54179,7.59E-03,3.53E-03
54180,6.97E-03,3.49E-03
54181,6.63E-03,3.45E-03
54182,6.53E-03,3.42E-03
54183,6.44E-03,3.38E-03
54184,6.30E-03,3.35E-03
54185,6.22E-03,3.33E-03
54186,6.02E-03,3.30E-03
54187,5.78E-03,3.27E-03
54188,5.71E-03,3.25E-03
54189,5.54E-03,3.23E-03
54190,5.29E-03,3.21E-03
54191,5.05E-03,3.20E-03
54192,4.88E-03,3.19E-03
54193,4.78E-03,3.18E-03
54194,4.54E-03,3.17E-03
54195,4.35E-03,3.17E-03
54196,4.11E-03,3.16E-03
54197,4.11E-03,3.16E-03
54198,3.84E-03,3.17E-03
54199,3.43E-03,3.17E-03
54200,3.20E-03,3.18E-03
54201,3.23E-03,3.18E-03
54202,3.45E-03,3.19E-03
54203,3.81E-03,3.20E-03
54204,4.11E-03,3.21E-03
54205,4.75E-03,3.23E-03
54206,4.89E-03,3.24E-03
54207,5.11E-03,3.26E-03
54208,5.41E-03,3.29E-03
54209,5.67E-03,3.31E-03
54210,6.05E-03,3.34E-03
54211,6.31E-03,3.37E-03
54212,6.56E-03,3.40E-03
54213,6.79E-03,3.43E-03
54214,6.98E-03,3.46E-03
54215,7.15E-03,3.50E-03
54216,7.29E-03,3.53E-03
54217,7.40E-03,3.57E-03
54218,7.58E-03,3.60E-03
54219,7.69E-03,3.64E-03
54220,7.75E-03,3.67E-03
54221,7.88E-03,3.71E-03
54222,7.91E-03,3.74E-03
54223,7.92E-03,3.78E-03
54224,7.90E-03,3.81E-03
54225,7.88E-03,3.84E-03
54226,7.86E-03,3.87E-03
54227,7.84E-03,3.90E-03
54228,7.80E-03,3.94E-03
54229,7.76E-03,3.97E-03
54230,7.72E-03,4.00E-03
54231,7.68E-03,4.02E-03
54232,7.66E-03,4.05E-03
54233,7.63E-03,4.08E-03
54234,7.61E-03,4.11E-03
54235,7.59E-03,4.14E-03
54236,7.57E-03,4.17E-03
54237,7.55E-03,4.20E-03
54238,7.53E-03,4.22E-03
54239,7.51E-03,4.25E-03
54240,7.48E-03,4.28E-03
54241,7.44E-03,4.31E-03
54242,7.40E-03,4.34E-03
54243,7.36E-03,4.37E-03
54244,7.31E-03,4.39E-03
54245,7.27E-03,4.42E-03
54246,7.22E-03,4.45E-03
54247,7.18E-03,4.48E-03
54248,7.13E-03,4.51E-03
54249,7.08E-03,4.54E-03
54250,7.03E-03,4.57E-03
54251,6.98E-03,4.61E-03
54252,6.91E-03,4.64E-03
54253,6.81E-03,4.67E-03
54254,6.70E-03,4.70E-03
54255,6.60E-03,4.74E-03
54256,6.51E-03,4.77E-03
54257,6.45E-03,4.80E-03
54258,6.40E-03,4.84E-03
54259,6.34E-03,4.88E-03
54260,6.30E-03,4.91E-03
54261,6.28E-03,4.95E-03
54262,6.25E-03,4.99E-03
54263,6.23E-03,5.03E-03
54264,6.24E-03,5.07E-03
54265,6.26E-03,5.11E-03
54266,6.28E-03,5.16E-03
54267,6.31E-03,5.20E-03
54268,6.33E-03,5.25E-03
54269,6.35E-03,5.30E-03
54270,6.36E-03,5.35E-03
54271,6.37E-03,5.40E-03
54272,6.37E-03,5.45E-03
54273,6.38E-03,5.51E-03
54274,6.38E-03,5.56E-03
54275,6.39E-03,5.62E-03
54276,6.41E-03,5.68E-03
54277,6.50E-03,5.74E-03
54278,6.62E-03,5.80E-03
54279,6.75E-03,5.87E-03
54280,6.87E-03,5.94E-03
54281,6.99E-03,6.01E-03
54282,7.07E-03,6.08E-03
54283,7.15E-03,6.15E-03
54284,7.23E-03,6.23E-03
54285,7.31E-03,6.31E-03
54286,7.39E-03,6.39E-03
54287,7.51E-03,6.47E-03
54288,7.67E-03,6.55E-03
54289,7.86E-03,6.64E-03
54290,7.94E-03,6.72E-03
54291,8.10E-03,6.81E-03
54292,8.21E-03,6.90E-03
54293,8.55E-03,7.00E-03
54294,8.57E-03,7.09E-03
54295,9.18E-03,7.19E-03
54296,9.70E-03,7.29E-03
54297,9.74E-03,7.39E-03
54298,9.81E-03,7.49E-03
54299,9.43E-03,7.58E-03
54300,8.81E-03,7.65E-03
54301,8.55E-03,7.97E-03
54302,8.72E-03,8.03E-03
54303,8.56E-03,8.07E-03
54304,8.62E-03,8.13E-03
54305,9.11E-03,8.25E-03
54306,6.88E-03,9.72E-03
54307,6.94E-03,9.29E-03
54308,7.18E-03,8.96E-03
54309,7.50E-03,8.66E-03
54310,5.85E-03,8.09E-03
54311,7.38E-03,8.36E-03
54312,6.80E-03,2.91E-02
54313,6.57E-03,2.86E-02
54314,8.57E-03,2.39E-02
54315,8.35E-03,2.45E-02
54316,8.25E-03,2.50E-02
54317,8.03E-03,2.56E-02
54318,7.90E-03,2.61E-02
54319,7.73E-03,2.66E-02
54320,7.40E-03,2.71E-02
54321,6.75E-03,2.77E-02
54322,7.04E-03,2.81E-02
54323,6.70E-03,1.37E-02
54324,1.03E-02,2.07E-02
54325,1.03E-02,2.06E-02
54326,1.03E-02,2.04E-02
54327,9.97E-03,2.03E-02
54328,9.87E-03,2.02E-02
54329,9.76E-03,2.01E-02
54330,8.76E-03,2.00E-02
54331,8.72E-03,1.99E-02
54332,8.38E-03,1.98E-02
54333,8.30E-03,1.98E-02
54334,7.78E-03,1.97E-02
54335,7.14E-03,1.97E-02
54336,6.19E-03,1.96E-02
54337,6.03E-03,1.95E-02
54338,5.91E-03,1.95E-02
54339,5.70E-03,1.94E-02
54340,5.43E-03,1.94E-02
54341,5.12E-03,1.93E-02
54342,4.83E-03,1.93E-02
54343,4.42E-03,1.92E-02
54344,3.84E-03,1.92E-02
54345,3.46E-03,1.92E-02
54346,2.88E-03,1.91E-02
54347,3.04E-03,1.91E-02
54348,2.94E-03,1.90E-02
54349,2.96E-03,1.90E-02
54350,3.01E-03,1.89E-02
54351,3.06E-03,1.89E-02
54352,3.09E-03,1.88E-02
54353,3.05E-03,1.88E-02
54354,3.04E-03,1.88E-02
54355,3.07E-03,1.87E-02
54356,3.16E-03,1.87E-02
54357,3.38E-03,1.86E-02
54358,3.77E-03,1.86E-02
54359,3.30E-03,1.86E-02
54360,3.37E-03,1.85E-02
54361,6.30E-03,1.25E-02
54362,6.21E-03,1.25E-02
54363,5.82E-03,1.26E-02
54364,5.59E-03,1.26E-02
54365,2.75E-03,1.26E-02
54366,3.17E-03,1.27E-02
54367,3.65E-03,1.27E-02
54368,4.05E-03,1.27E-02
54369,4.45E-03,1.26E-02
54370,4.90E-03,1.26E-02
54371,5.18E-03,1.26E-02
54372,5.33E-03,1.26E-02
54373,6.09E-03,1.25E-02
54374,6.50E-03,1.25E-02
54375,6.74E-03,1.24E-02
54376,6.93E-03,1.23E-02
54377,7.11E-03,1.23E-02
54378,7.24E-03,1.22E-02
54379,7.31E-03,1.21E-02
54380,7.38E-03,1.20E-02
54381,7.44E-03,1.19E-02
54382,7.51E-03,1.18E-02
54383,7.58E-03,1.17E-02
54384,7.64E-03,1.16E-02
54385,7.70E-03,1.15E-02
54386,7.74E-03,1.14E-02
54387,7.76E-03,1.13E-02
54388,7.77E-03,1.11E-02
54389,7.79E-03,1.10E-02
54390,7.80E-03,1.09E-02
54391,7.82E-03,1.07E-02
54392,7.83E-03,1.06E-02
54393,7.85E-03,1.04E-02
54394,7.87E-03,1.03E-02
54395,7.88E-03,1.02E-02
54396,7.89E-03,1.00E-02
54397,7.90E-03,9.87E-03
54398,7.92E-03,9.72E-03
54399,7.93E-03,9.58E-03
54400,7.94E-03,9.44E-03
54401,7.95E-03,9.31E-03
54402,7.96E-03,9.18E-03
54403,7.96E-03,9.06E-03
54404,7.97E-03,8.94E-03
54405,7.98E-03,8.84E-03
54406,7.99E-03,8.74E-03
54407,7.99E-03,8.66E-03
54408,8.00E-03,8.59E-03
54409,8.00E-03,8.53E-03
54410,8.00E-03,8.48E-03
54411,8.00E-03,8.45E-03
54412,8.00E-03,8.43E-03
54413,8.00E-03,8.42E-03
54414,8.00E-03,8.43E-03
54415,8.00E-03,8.46E-03
54416,8.00E-03,8.49E-03
54417,7.99E-03,8.54E-03
54418,7.98E-03,8.60E-03
54419,7.97E-03,8.68E-03
54420,7.96E-03,8.76E-03
54421,7.95E-03,8.86E-03
54422,7.94E-03,8.96E-03
54423,7.93E-03,9.07E-03
54424,7.91E-03,9.19E-03
54425,7.90E-03,9.32E-03
54426,7.89E-03,9.45E-03
54427,7.88E-03,9.59E-03
54428,7.85E-03,9.73E-03
54429,7.82E-03,9.88E-03
54430,7.79E-03,1.00E-02
54431,7.77E-03,1.02E-02
54432,7.74E-03,1.03E-02
54433,7.71E-03,1.05E-02
54434,7.68E-03,1.06E-02
54435,7.65E-03,1.08E-02
54436,7.63E-03,1.10E-02
54437,7.61E-03,1.11E-02
54438,7.59E-03,1.13E-02
54439,7.57E-03,1.14E-02
54440,7.56E-03,1.16E-02
54441,7.54E-03,1.17E-02
54442,7.51E-03,1.19E-02
54443,7.49E-03,1.20E-02
54444,7.46E-03,1.22E-02
54445,7.43E-03,1.24E-02
54446,7.40E-03,1.25E-02
54447,7.37E-03,1.26E-02
54448,7.32E-03,1.28E-02
54449,7.27E-03,1.29E-02
54450,7.21E-03,1.31E-02
54451,7.15E-03,1.32E-02
54452,7.10E-03,1.34E-02
54453,7.08E-03,1.35E-02
54454,7.07E-03,1.36E-02
54455,7.06E-03,1.38E-02
54456,7.07E-03,1.39E-02
54457,7.08E-03,1.40E-02
54458,7.11E-03,1.42E-02
54459,7.13E-03,1.43E-02
54460,7.14E-03,1.44E-02
54461,7.16E-03,1.45E-02
54462,7.17E-03,1.47E-02
54463,7.18E-03,1.48E-02
54464,7.20E-03,1.49E-02
54465,7.21E-03,1.51E-02
54466,7.23E-03,1.52E-02
54467,7.24E-03,1.53E-02
54468,7.25E-03,1.55E-02
54469,7.26E-03,1.56E-02
54470,7.28E-03,1.57E-02
54471,7.29E-03,1.58E-02
54472,7.31E-03,1.60E-02
54473,7.32E-03,1.61E-02
54474,7.33E-03,1.62E-02
54475,7.33E-03,1.64E-02
54476,7.33E-03,1.65E-02
54477,7.35E-03,1.66E-02
54478,7.39E-03,1.68E-02
54479,7.44E-03,1.69E-02
54480,7.49E-03,1.70E-02
54481,7.52E-03,1.72E-02
54482,7.54E-03,1.73E-02
54483,7.43E-03,1.75E-02
54484,7.42E-03,1.76E-02
54485,7.33E-03,1.77E-02
54486,7.24E-03,1.79E-02
54487,6.83E-03,1.80E-02
54488,6.13E-03,1.82E-02
54489,1.01E-02,1.34E-02
54490,9.59E-03,1.35E-02
54491,7.85E-03,1.46E-02
54492,7.47E-03,1.47E-02
54493,6.37E-03,1.49E-02
54494,4.75E-03,1.48E-02
54495,5.78E-03,1.49E-02
54496,5.61E-03,1.49E-02
54497,5.21E-03,1.50E-02
54498,5.03E-03,1.50E-02
54499,5.39E-03,1.51E-02
54500,5.56E-03,1.51E-02
54501,5.71E-03,1.51E-02
54502,5.94E-03,1.51E-02
54503,6.08E-03,1.50E-02
54504,6.18E-03,1.50E-02
54505,6.30E-03,1.50E-02
54506,6.34E-03,1.50E-02
54507,6.31E-03,1.49E-02
54508,6.18E-03,1.49E-02
54509,6.31E-03,1.48E-02
54510,6.87E-03,1.48E-02
54511,7.36E-03,1.47E-02
54512,7.58E-03,1.46E-02
54513,7.86E-03,1.46E-02
54514,8.29E-03,1.45E-02
54515,8.69E-03,1.44E-02
54516,9.07E-03,1.42E-02
54517,9.49E-03,1.41E-02
54518,9.95E-03,1.40E-02
54519,1.03E-02,1.39E-02
54520,1.03E-02,1.37E-02
54521,1.02E-02,1.36E-02
54522,1.00E-02,1.35E-02
54523,9.88E-03,1.33E-02
54524,9.61E-03,1.32E-02
54525,9.56E-03,1.31E-02
54526,9.28E-03,1.29E-02
54527,8.81E-03,1.28E-02
54528,8.13E-03,1.27E-02
54529,9.89E-03,1.26E-02
54530,5.65E-03,1.38E-02
54531,7.83E-03,7.67E-03
54532,6.08E-03,7.57E-03
54533,6.65E-03,3.12E-02
54534,6.93E-03,3.12E-02
54535,8.12E-03,7.33E-03
54536,8.60E-03,6.90E-03
54537,8.93E-03,6.41E-03
54538,6.80E-03,8.31E-03
54539,4.23E-03,8.35E-03
54540,2.78E-03,8.34E-03
54541,7.59E-03,2.10E-02
54542,7.75E-03,2.11E-02
54543,8.10E-03,1.42E-02
54544,8.10E-03,1.43E-02
54545,1.01E-02,2.27E-02
54546,1.01E-02,2.32E-02
54547,8.20E-03,2.05E-02
54548,8.82E-03,1.24E-02
54549,8.63E-03,1.28E-02
54550,8.41E-03,3.14E-02
54551,7.33E-03,3.37E-02
54552,7.16E-03,3.51E-02
54553,7.16E-03,3.67E-02
54554,7.49E-03,1.44E-02
54555,7.39E-03,3.85E-02
54556,8.19E-03,3.85E-02
54557,8.89E-03,5.94E-03
54558,7.66E-03,1.26E-02
54559,7.74E-03,1.36E-02
54560,8.10E-03,1.31E-02
54561,9.77E-03,9.21E-03
54562,8.49E-03,9.41E-03
54563,5.25E-03,9.53E-03
54564,4.31E-03,9.62E-03
54565,8.90E-03,1.23E-02
54566,1.20E-02,1.22E-02
54567,7.65E-03,2.11E-02
54568,8.27E-03,7.60E-03
54569,7.86E-03,7.78E-03
54570,7.35E-03,2.09E-02
54571,8.31E-03,2.06E-02
54572,9.48E-03,2.05E-02
54573,1.03E-02,2.05E-02
54574,1.03E-02,2.04E-02
54575,1.06E-02,2.03E-02
54576,1.04E-02,2.03E-02
54577,1.03E-02,2.02E-02
54578,1.01E-02,2.02E-02
54579,9.64E-03,2.01E-02
54580,9.42E-03,2.01E-02
54581,9.10E-03,2.01E-02
54582,8.97E-03,2.01E-02
54583,8.86E-03,2.00E-02
54584,8.76E-03,2.00E-02
54585,8.68E-03,2.00E-02
54586,8.60E-03,2.00E-02
54587,8.55E-03,2.00E-02
54588,8.53E-03,2.00E-02
54589,8.53E-03,2.00E-02
54590,8.53E-03,2.00E-02
54591,8.50E-03,2.00E-02
54592,8.41E-03,2.00E-02
54593,8.32E-03,2.00E-02
54594,8.26E-03,2.00E-02
54595,8.22E-03,2.00E-02
54596,8.18E-03,2.00E-02
54597,8.16E-03,2.00E-02
54598,8.15E-03,2.01E-02
54599,8.15E-03,2.01E-02
54600,8.15E-03,2.01E-02
54601,8.14E-03,2.01E-02
54602,8.13E-03,2.01E-02
54603,8.12E-03,2.01E-02
54604,8.09E-03,2.01E-02
54605,8.08E-03,2.01E-02
54606,8.06E-03,2.01E-02
54607,8.05E-03,2.01E-02
54608,8.03E-03,2.00E-02
54609,8.03E-03,2.00E-02
54610,8.04E-03,2.00E-02
54611,8.06E-03,2.00E-02
54612,8.08E-03,1.99E-02
54613,8.10E-03,1.99E-02
54614,8.13E-03,1.99E-02
54615,8.14E-03,1.98E-02
54616,8.17E-03,1.98E-02
54617,8.19E-03,1.97E-02
54618,8.23E-03,1.97E-02
54619,8.28E-03,1.96E-02
54620,8.34E-03,1.96E-02
54621,8.38E-03,1.95E-02
54622,8.40E-03,1.94E-02
54623,8.42E-03,1.94E-02
54624,8.44E-03,1.93E-02
54625,8.47E-03,1.92E-02
54626,8.50E-03,1.92E-02
54627,8.53E-03,1.91E-02
54628,8.56E-03,1.90E-02
54629,8.59E-03,1.90E-02
54630,8.64E-03,1.89E-02
54631,8.70E-03,1.88E-02
54632,8.78E-03,1.88E-02
54633,8.85E-03,1.87E-02
54634,8.89E-03,1.86E-02
54635,8.90E-03,1.85E-02
54636,8.89E-03,1.84E-02
54637,8.86E-03,1.84E-02
54638,8.83E-03,1.83E-02
54639,8.80E-03,1.82E-02
54640,8.78E-03,1.82E-02
54641,8.75E-03,1.81E-02
54642,8.72E-03,1.80E-02
54643,8.73E-03,1.80E-02
54644,8.74E-03,1.79E-02
54645,8.66E-03,1.78E-02
54646,8.49E-03,1.78E-02
54647,8.30E-03,1.77E-02
54648,8.11E-03,1.77E-02
54649,7.99E-03,1.77E-02
54650,7.99E-03,1.77E-02
54651,8.03E-03,1.76E-02
54652,7.99E-03,1.76E-02
54653,7.91E-03,1.76E-02
54654,7.84E-03,1.76E-02
54655,7.77E-03,1.76E-02
54656,7.70E-03,1.75E-02
54657,7.62E-03,1.75E-02
54658,7.51E-03,1.75E-02
54659,7.39E-03,1.75E-02
54660,7.29E-03,1.74E-02
54661,7.23E-03,1.74E-02
54662,7.18E-03,1.73E-02
54663,7.14E-03,1.73E-02
54664,7.10E-03,1.72E-02
54665,7.08E-03,1.72E-02
54666,7.06E-03,1.71E-02
54667,7.02E-03,1.70E-02
54668,6.97E-03,1.69E-02
54669,6.92E-03,1.68E-02
54670,6.88E-03,1.67E-02
54671,6.88E-03,1.66E-02
54672,6.90E-03,1.65E-02
54673,6.93E-03,1.64E-02
54674,6.96E-03,1.63E-02
54675,6.99E-03,1.61E-02
54676,7.03E-03,1.60E-02
54677,7.06E-03,1.59E-02
54678,7.09E-03,1.57E-02
54679,7.13E-03,1.56E-02
54680,7.15E-03,1.55E-02
54681,7.16E-03,1.53E-02
54682,7.18E-03,1.52E-02
54683,7.19E-03,1.51E-02
54684,7.20E-03,1.49E-02
54685,7.21E-03,1.48E-02
54686,7.21E-03,1.46E-02
54687,7.20E-03,1.45E-02
54688,7.17E-03,1.44E-02
54689,7.15E-03,1.42E-02
54690,7.12E-03,1.41E-02
54691,7.08E-03,1.40E-02
54692,7.05E-03,1.39E-02
54693,7.01E-03,1.37E-02
54694,6.94E-03,1.36E-02
54695,6.85E-03,1.35E-02
54696,6.77E-03,1.34E-02
54697,6.69E-03,1.33E-02
54698,6.62E-03,1.32E-02
54699,6.59E-03,1.30E-02
54700,6.63E-03,1.29E-02
54701,6.67E-03,1.28E-02
54702,6.62E-03,1.27E-02
54703,6.61E-03,1.26E-02
54704,7.75E-03,1.25E-02
54705,8.03E-03,1.24E-02
54706,8.66E-03,1.22E-02
54707,8.92E-03,1.21E-02
54708,1.03E-02,1.20E-02
54709,1.04E-02,1.18E-02
54710,1.07E-02,1.16E-02
54711,1.09E-02,1.14E-02
54712,1.09E-02,1.13E-02
54713,1.10E-02,1.11E-02
54714,1.09E-02,1.09E-02
54715,1.08E-02,1.07E-02
54716,1.06E-02,1.05E-02
54717,1.05E-02,1.04E-02
54718,1.04E-02,1.02E-02
54719,1.03E-02,9.99E-03
54720,1.02E-02,9.82E-03
54721,1.00E-02,9.65E-03
54722,9.84E-03,9.48E-03
54723,9.14E-03,9.32E-03
54724,7.56E-03,9.18E-03
54725,7.18E-03,9.06E-03
54726,7.10E-03,8.94E-03
54727,7.02E-03,8.83E-03
54728,6.86E-03,8.72E-03
54729,6.69E-03,8.62E-03
54730,6.73E-03,8.51E-03
54731,4.52E-03,8.39E-03
54732,1.70E-03,8.27E-03
54733,6.94E-03,1.27E-02
54734,7.19E-03,1.28E-02
54735,6.81E-03,1.28E-02
54736,8.10E-03,1.17E-02
54737,6.70E-03,1.36E-02
54738,8.09E-03,1.15E-02
54739,8.09E-03,1.14E-02
54740,8.09E-03,1.12E-02
54741,8.09E-03,1.11E-02
54742,8.09E-03,1.10E-02
54743,8.09E-03,1.08E-02
54744,8.09E-03,1.07E-02
54745,8.09E-03,1.05E-02
54746,8.09E-03,1.03E-02
54747,8.09E-03,1.02E-02
54748,8.09E-03,1.00E-02
54749,8.09E-03,9.86E-03
54750,8.09E-03,9.69E-03
54751,8.09E-03,9.53E-03
54752,8.09E-03,9.36E-03
54753,8.09E-03,9.19E-03
54754,8.09E-03,9.02E-03
54755,8.09E-03,8.85E-03
54756,8.09E-03,8.68E-03
54757,8.09E-03,8.50E-03
54758,8.09E-03,8.33E-03
54759,8.09E-03,8.16E-03
54760,8.09E-03,7.98E-03
54761,8.09E-03,7.81E-03
54762,8.09E-03,7.63E-03
54763,8.09E-03,7.46E-03
54764,8.09E-03,7.29E-03
54765,8.09E-03,7.11E-03
54766,8.09E-03,6.94E-03
54767,8.09E-03,6.77E-03
54768,8.09E-03,6.61E-03
54769,8.09E-03,6.44E-03
54770,8.09E-03,6.28E-03
54771,8.09E-03,6.12E-03
54772,8.09E-03,5.96E-03
54773,8.09E-03,5.81E-03
54774,8.09E-03,5.66E-03
54775,8.09E-03,5.52E-03
54776,8.09E-03,5.38E-03
54777,8.09E-03,5.25E-03
54778,8.09E-03,5.12E-03
54779,8.09E-03,5.01E-03
54780,8.09E-03,4.90E-03
54781,8.09E-03,4.80E-03
54782,8.09E-03,4.72E-03
54783,8.09E-03,4.64E-03
54784,8.09E-03,4.58E-03
54785,8.09E-03,4.53E-03
54786,8.09E-03,4.49E-03
54787,8.09E-03,4.46E-03
54788,8.09E-03,4.45E-03
54789,8.09E-03,4.46E-03
54790,8.09E-03,4.47E-03
54791,8.09E-03,4.51E-03
54792,8.09E-03,4.55E-03
54793,8.09E-03,4.62E-03
54794,8.09E-03,4.69E-03
54795,8.09E-03,4.78E-03
54796,8.09E-03,4.88E-03
54797,8.09E-03,4.99E-03
54798,8.09E-03,5.11E-03
54799,8.09E-03,5.24E-03
54800,8.09E-03,5.39E-03
54801,8.09E-03,5.54E-03
54802,8.09E-03,5.70E-03
54803,8.09E-03,5.87E-03
54804,8.09E-03,6.04E-03
54805,8.09E-03,6.22E-03
54806,8.09E-03,6.41E-03
54807,8.09E-03,6.60E-03
54808,8.09E-03,6.80E-03
54809,8.09E-03,7.00E-03
54810,8.09E-03,7.21E-03
54811,8.09E-03,7.42E-03
54812,8.09E-03,7.63E-03
54813,8.09E-03,7.85E-03
54814,8.09E-03,8.07E-03
54815,8.09E-03,8.29E-03
54816,8.09E-03,8.52E-03
54817,8.09E-03,8.75E-03
54818,8.09E-03,8.98E-03
54819,8.09E-03,9.21E-03
54820,8.09E-03,9.44E-03
54821,8.09E-03,9.68E-03
54822,8.09E-03,9.92E-03
54823,8.09E-03,1.02E-02
54824,8.09E-03,1.04E-02
54825,8.09E-03,1.06E-02
54826,8.09E-03,1.09E-02
54827,8.09E-03,1.11E-02
54828,8.09E-03,1.14E-02
54829,8.09E-03,1.16E-02
54830,8.09E-03,1.18E-02
54831,8.02E-03,1.21E-02
54832,7.72E-03,1.23E-02
54833,7.65E-03,1.25E-02
54834,7.33E-03,1.27E-02
54835,7.16E-03,1.29E-02
54836,7.00E-03,1.32E-02
54837,7.24E-03,1.34E-02
54838,7.78E-03,1.01E-02
54839,6.65E-03,2.99E-02
54840,7.11E-03,1.40E-02
54841,6.34E-03,1.46E-02
54842,6.52E-03,1.48E-02
54843,7.18E-03,1.42E-02
54844,7.73E-03,7.69E-03
54845,9.24E-03,1.37E-02
54846,8.10E-03,1.40E-02
54847,8.10E-03,1.42E-02
54848,5.54E-03,2.11E-02
54849,5.44E-03,2.14E-02
54850,6.28E-03,2.17E-02
54851,6.67E-03,2.24E-02
54852,8.40E-03,1.19E-02
54853,7.18E-03,3.46E-02
54854,7.76E-03,3.50E-02
54855,7.79E-03,3.54E-02
54856,8.72E-03,1.44E-02
54857,6.97E-03,3.91E-02
54858,7.42E-03,3.94E-02
54859,8.38E-03,6.08E-03
54860,7.76E-03,1.28E-02
54861,8.10E-03,1.32E-02
54862,9.99E-03,2.11E-02
54863,6.79E-03,2.13E-02
54864,8.10E-03,1.19E-02
54865,8.30E-03,1.05E-02
54866,7.89E-03,3.13E-02
54867,8.87E-03,3.08E-02
54868,8.10E-03,1.39E-02
54869,8.10E-03,1.42E-02
54870,9.36E-03,1.09E-02
54871,8.10E-03,1.33E-02
54872,8.10E-03,1.20E-02
54873,8.10E-03,1.37E-02
54874,8.10E-03,1.41E-02
54875,8.10E-03,1.34E-02
54876,8.10E-03,1.36E-02
54877,8.10E-03,1.41E-02
54878,8.10E-03,1.35E-02
54879,8.10E-03,1.22E-02
54880,8.10E-03,1.35E-02
54881,8.10E-03,1.40E-02
54882,8.10E-03,1.36E-02
54883,8.10E-03,1.24E-02
54884,8.10E-03,1.33E-02
54885,8.10E-03,1.39E-02
54886,8.10E-03,1.25E-02
54887,8.05E-03,1.36E-02
54888,8.10E-03,1.32E-02
54889,8.10E-03,1.39E-02
54890,8.10E-03,1.37E-02
54891,8.10E-03,1.27E-02
54892,8.10E-03,1.30E-02
54893,8.10E-03,1.38E-02
54894,8.10E-03,1.29E-02
54895,6.14E-03,1.43E-02
54896,6.22E-03,1.46E-02
54897,6.42E-03,1.48E-02
54898,9.67E-03,1.27E-02
54899,7.05E-03,1.18E-02
54900,6.43E-03,7.53E-03
54901,6.92E-03,7.97E-03
54902,8.26E-03,1.39E-02
54903,7.38E-03,3.16E-02
54904,8.10E-03,1.42E-02
54905,8.10E-03,1.42E-02
54906,7.58E-03,2.79E-02
54907,7.15E-03,2.72E-02
54908,7.45E-03,2.67E-02
54909,7.75E-03,2.62E-02
54910,8.00E-03,2.56E-02
54911,8.27E-03,2.51E-02
54912,8.47E-03,2.45E-02
54913,8.89E-03,2.39E-02
54914,9.67E-03,2.00E-02
54915,9.90E-03,1.95E-02
54916,9.63E-03,1.89E-02
54917,8.49E-03,1.84E-02
54918,8.32E-03,1.79E-02
54919,8.16E-03,1.74E-02
54920,8.14E-03,1.70E-02
54921,8.00E-03,1.65E-02
54922,8.00E-03,1.61E-02
54923,8.01E-03,1.56E-02
54924,8.06E-03,1.51E-02
54925,8.11E-03,1.47E-02
54926,8.39E-03,1.42E-02
54927,8.48E-03,1.38E-02
54928,8.55E-03,1.33E-02
54929,8.64E-03,3.18E-02
54930,8.57E-03,3.23E-02
54931,6.88E-03,3.27E-02
54932,6.77E-03,3.31E-02
54933,6.72E-03,3.34E-02
54934,6.99E-03,3.54E-02
54935,7.36E-03,3.72E-02
54936,7.02E-03,3.76E-02
54937,7.65E-03,1.44E-02
54938,7.70E-03,1.45E-02
54939,7.81E-03,1.45E-02
54940,8.05E-03,1.46E-02
54941,8.12E-03,1.46E-02
54942,8.24E-03,1.46E-02
54943,7.11E-03,1.47E-02
54944,6.67E-03,1.48E-02
54945,6.45E-03,1.49E-02
54946,6.17E-03,1.50E-02
54947,5.80E-03,1.52E-02
54948,5.63E-03,1.53E-02
54949,5.77E-03,1.55E-02
54950,6.05E-03,1.57E-02
54951,6.25E-03,1.59E-02
54952,6.36E-03,1.62E-02
54953,6.46E-03,1.65E-02
54954,6.56E-03,1.68E-02
54955,6.66E-03,1.71E-02
54956,6.70E-03,1.75E-02
54957,6.70E-03,1.79E-02
54958,6.68E-03,1.83E-02
54959,6.66E-03,1.88E-02
54960,6.64E-03,1.93E-02
54961,6.61E-03,1.98E-02
54962,6.57E-03,2.03E-02
54963,6.48E-03,2.09E-02
54964,6.31E-03,2.14E-02
54965,6.10E-03,2.20E-02
54966,5.87E-03,2.25E-02
54967,5.54E-03,2.31E-02
54968,5.13E-03,2.36E-02
54969,4.77E-03,2.40E-02
54970,4.56E-03,2.45E-02
54971,4.46E-03,2.49E-02
54972,4.36E-03,2.54E-02
54973,4.30E-03,2.58E-02
54974,4.28E-03,2.62E-02
54975,4.26E-03,2.66E-02
54976,4.35E-03,2.70E-02
54977,4.85E-03,2.75E-02
54978,4.94E-03,2.80E-02
54979,5.19E-03,2.84E-02
54980,5.66E-03,2.89E-02
54981,5.90E-03,2.95E-02
54982,6.13E-03,3.00E-02
54983,6.34E-03,3.05E-02
54984,6.45E-03,3.11E-02
54985,6.49E-03,3.16E-02
54986,6.53E-03,3.22E-02
54987,6.57E-03,3.27E-02
54988,6.60E-03,3.32E-02
54989,6.61E-03,3.37E-02
54990,6.58E-03,3.42E-02
54991,6.54E-03,3.47E-02
54992,6.50E-03,3.51E-02
54993,6.46E-03,3.55E-02
54994,6.30E-03,3.59E-02
54995,5.92E-03,3.63E-02
54996,5.59E-03,3.67E-02
54997,5.45E-03,3.70E-02
54998,5.29E-03,3.73E-02
54999,5.26E-03,3.76E-02
55000,5.56E-03,3.78E-02
55001,5.96E-03,3.81E-02
55002,6.25E-03,3.83E-02
55003,6.48E-03,3.85E-02
55004,6.75E-03,3.87E-02
55005,7.09E-03,3.88E-02
55006,7.43E-03,3.90E-02
55007,7.66E-03,3.91E-02
55008,7.78E-03,3.92E-02
55009,7.87E-03,3.92E-02
55010,8.01E-03,3.93E-02
55011,8.20E-03,3.93E-02
55012,8.22E-03,3.92E-02
55013,8.34E-03,3.92E-02
55014,8.45E-03,3.90E-02
55015,8.36E-03,3.89E-02
55016,8.43E-03,3.87E-02
55017,9.22E-03,5.62E-03
55018,8.17E-03,1.26E-02
55019,8.49E-03,1.28E-02
55020,8.91E-03,1.28E-02
55021,9.37E-03,1.28E-02
55022,9.56E-03,1.28E-02
55023,9.60E-03,1.28E-02
55024,9.53E-03,1.29E-02
55025,9.25E-03,1.29E-02
55026,9.19E-03,1.29E-02
55027,8.72E-03,1.30E-02
55028,8.68E-03,1.30E-02
55029,8.42E-03,1.31E-02
55030,8.21E-03,1.31E-02
55031,8.11E-03,1.32E-02
55032,8.11E-03,1.32E-02
55033,7.90E-03,1.32E-02
55034,7.49E-03,1.33E-02
55035,7.17E-03,1.33E-02
55036,7.14E-03,1.34E-02
55037,7.17E-03,1.34E-02
55038,7.13E-03,1.34E-02
55039,7.13E-03,1.34E-02
55040,7.15E-03,1.35E-02
55041,7.18E-03,1.35E-02
55042,7.19E-03,1.35E-02
55043,7.20E-03,1.35E-02
55044,7.20E-03,1.36E-02
55045,7.22E-03,1.36E-02
55046,7.32E-03,1.36E-02
55047,7.47E-03,1.36E-02
55048,7.77E-03,1.36E-02
55049,8.02E-03,1.36E-02
55050,8.35E-03,1.36E-02
55051,8.53E-03,1.36E-02
55052,8.60E-03,1.36E-02
55053,8.57E-03,1.36E-02
55054,8.37E-03,1.36E-02
55055,8.09E-03,1.29E-02
55056,8.09E-03,1.27E-02
55057,8.09E-03,1.26E-02
55058,8.09E-03,1.24E-02
55059,8.09E-03,1.22E-02
55060,8.09E-03,1.20E-02
55061,8.09E-03,1.19E-02
55062,8.09E-03,1.17E-02
55063,8.09E-03,1.15E-02
55064,8.09E-03,1.13E-02
55065,8.09E-03,1.11E-02
55066,8.09E-03,1.09E-02
55067,8.03E-03,1.07E-02
55068,7.98E-03,1.05E-02
55069,7.89E-03,1.03E-02
55070,7.61E-03,1.01E-02
55071,7.09E-03,9.93E-03
55072,5.63E-03,9.77E-03
55073,6.28E-03,9.46E-03
55074,6.90E-03,9.30E-03
55075,8.43E-03,9.12E-03
55076,8.69E-03,8.92E-03
55077,8.36E-03,8.69E-03
55078,8.26E-03,8.46E-03
55079,8.21E-03,8.24E-03
55080,8.09E-03,8.03E-03
55081,8.09E-03,7.81E-03
55082,8.09E-03,7.60E-03
55083,8.09E-03,7.39E-03
55084,8.09E-03,7.18E-03
55085,8.09E-03,6.97E-03
55086,8.09E-03,6.76E-03
55087,8.09E-03,6.56E-03
55088,8.09E-03,6.35E-03
55089,8.09E-03,6.15E-03
55090,8.09E-03,5.95E-03
55091,8.09E-03,5.76E-03
55092,8.09E-03,5.57E-03
55093,8.09E-03,5.39E-03
55094,8.09E-03,5.21E-03
55095,8.09E-03,5.03E-03
55096,8.09E-03,4.87E-03
55097,8.09E-03,4.71E-03
55098,8.09E-03,4.56E-03
55099,8.09E-03,4.42E-03
55100,8.09E-03,4.29E-03
55101,8.09E-03,4.17E-03
55102,8.09E-03,4.06E-03
55103,8.09E-03,3.97E-03
55104,8.09E-03,3.89E-03
55105,8.09E-03,3.83E-03
55106,8.09E-03,3.78E-03
55107,8.09E-03,3.75E-03
55108,8.09E-03,3.73E-03
55109,8.09E-03,3.73E-03
55110,8.09E-03,3.75E-03
55111,8.09E-03,3.78E-03
55112,8.09E-03,3.82E-03
55113,8.09E-03,3.89E-03
55114,8.09E-03,3.96E-03
55115,8.09E-03,4.05E-03
55116,8.09E-03,4.15E-03
55117,8.09E-03,4.25E-03
55118,8.09E-03,4.37E-03
55119,8.09E-03,4.50E-03
55120,8.09E-03,4.63E-03
55121,8.09E-03,4.77E-03
55122,8.09E-03,4.92E-03
55123,8.09E-03,5.07E-03
55124,8.09E-03,5.22E-03
55125,8.09E-03,5.38E-03
55126,8.09E-03,5.54E-03
55127,8.09E-03,5.70E-03
55128,8.09E-03,5.87E-03
55129,8.09E-03,6.04E-03
55130,8.09E-03,6.21E-03
55131,8.09E-03,6.38E-03
55132,8.09E-03,6.55E-03
55133,8.09E-03,6.72E-03
55134,8.09E-03,6.89E-03
55135,8.09E-03,7.06E-03
55136,8.09E-03,7.23E-03
55137,8.09E-03,7.40E-03
55138,8.09E-03,7.57E-03
55139,8.09E-03,7.74E-03
55140,8.09E-03,7.91E-03
55141,8.09E-03,8.07E-03
55142,8.09E-03,8.24E-03
55143,8.09E-03,8.40E-03
55144,8.09E-03,8.57E-03
55145,8.09E-03,8.73E-03
55146,8.09E-03,8.90E-03
55147,8.09E-03,9.06E-03
55148,8.09E-03,9.22E-03
55149,8.09E-03,9.37E-03
55150,8.09E-03,9.53E-03
55151,8.09E-03,9.69E-03
55152,8.09E-03,9.84E-03
55153,8.09E-03,9.99E-03
55154,8.09E-03,1.01E-02
55155,8.09E-03,1.03E-02
55156,8.09E-03,1.04E-02
55157,8.09E-03,1.06E-02
55158,8.09E-03,1.07E-02
55159,8.09E-03,1.09E-02
55160,8.04E-03,1.10E-02
55161,7.95E-03,1.12E-02
55162,7.80E-03,1.13E-02
55163,7.38E-03,1.14E-02
55164,6.85E-03,1.15E-02
55165,6.65E-03,1.17E-02
55166,7.04E-03,1.17E-02
55167,7.04E-03,1.16E-02
55168,7.04E-03,1.15E-02
55169,6.95E-03,1.15E-02
55170,6.74E-03,1.14E-02
55171,6.68E-03,1.13E-02
55172,6.42E-03,1.13E-02
55173,6.44E-03,1.12E-02
55174,6.40E-03,1.11E-02
55175,6.32E-03,1.11E-02
55176,6.22E-03,1.10E-02
55177,6.13E-03,1.10E-02
55178,6.06E-03,1.09E-02
55179,5.98E-03,1.09E-02
55180,5.90E-03,1.08E-02
55181,5.80E-03,1.08E-02
55182,5.66E-03,1.07E-02
55183,5.51E-03,1.07E-02
55184,5.37E-03,1.06E-02
55185,5.27E-03,1.06E-02
55186,5.21E-03,1.06E-02
55187,5.15E-03,1.05E-02
55188,5.11E-03,1.05E-02
55189,5.11E-03,1.05E-02
55190,5.13E-03,1.04E-02
55191,5.16E-03,1.04E-02
55192,5.30E-03,1.03E-02
55193,5.54E-03,1.03E-02
55194,5.81E-03,1.03E-02
55195,6.04E-03,1.02E-02
55196,6.22E-03,1.02E-02
55197,6.37E-03,1.01E-02
55198,6.52E-03,1.01E-02
55199,6.69E-03,1.01E-02
55200,6.90E-03,1.00E-02
55201,7.10E-03,9.98E-03
55202,7.26E-03,9.94E-03
55203,7.37E-03,9.91E-03
55204,7.45E-03,9.87E-03
55205,7.50E-03,9.84E-03
55206,7.59E-03,9.80E-03
55207,7.72E-03,9.77E-03
55208,7.86E-03,9.75E-03
55209,7.97E-03,9.72E-03
55210,8.06E-03,9.69E-03
55211,8.12E-03,9.67E-03
55212,8.14E-03,9.65E-03
55213,8.15E-03,9.63E-03
55214,8.18E-03,9.62E-03
55215,8.24E-03,9.61E-03
55216,8.30E-03,9.60E-03
55217,8.36E-03,9.59E-03
55218,8.42E-03,9.58E-03
55219,8.48E-03,9.58E-03
55220,8.53E-03,9.58E-03
55221,8.57E-03,9.59E-03
55222,8.61E-03,9.59E-03
55223,8.66E-03,9.60E-03
55224,8.71E-03,9.62E-03
55225,8.77E-03,9.63E-03
55226,8.84E-03,9.65E-03
55227,8.92E-03,9.68E-03
55228,9.05E-03,9.70E-03
55229,9.20E-03,9.74E-03
55230,9.35E-03,9.77E-03
55231,9.45E-03,9.81E-03
55232,9.54E-03,9.86E-03
55233,9.61E-03,9.91E-03
55234,9.69E-03,9.97E-03
55235,9.77E-03,1.00E-02
55236,9.85E-03,1.01E-02
55237,9.94E-03,1.02E-02
55238,1.01E-02,1.03E-02
55239,1.02E-02,1.03E-02
55240,1.03E-02,1.04E-02
55241,1.04E-02,1.05E-02
55242,1.06E-02,1.06E-02
55243,1.07E-02,1.08E-02
55244,1.08E-02,1.09E-02
55245,1.10E-02,1.10E-02
55246,1.11E-02,1.12E-02
55247,1.12E-02,1.13E-02
55248,1.12E-02,1.15E-02
55249,1.11E-02,1.17E-02
55250,1.13E-02,1.18E-02
55251,1.27E-02,1.21E-02
55252,7.44E-03,2.12E-02
55253,7.58E-03,4.45E-03
55254,6.02E-03,4.33E-03
55255,5.86E-03,4.23E-03
55256,5.48E-03,4.15E-03
55257,5.09E-03,4.08E-03
55258,4.16E-03,4.01E-03
55259,3.51E-03,3.95E-03
55260,2.88E-03,3.94E-03
55261,2.67E-03,3.93E-03
55262,2.95E-03,3.91E-03
55263,3.82E-03,3.87E-03
55264,4.10E-03,3.82E-03
55265,4.35E-03,3.78E-03
55266,5.41E-03,3.75E-03
55267,5.55E-03,3.73E-03
55268,6.18E-03,3.71E-03
55269,6.72E-03,3.68E-03
55270,7.11E-03,3.66E-03
55271,7.35E-03,3.64E-03
55272,9.96E-03,3.61E-03
55273,9.95E-03,3.57E-03
55274,9.41E-03,3.52E-03
55275,8.94E-03,3.48E-03
55276,8.44E-03,3.43E-03
55277,8.07E-03,3.39E-03
55278,7.61E-03,3.35E-03
55279,7.03E-03,3.31E-03
55280,6.71E-03,3.27E-03
55281,6.62E-03,3.24E-03
55282,6.50E-03,3.21E-03
55283,6.39E-03,3.18E-03
55284,6.30E-03,3.16E-03
55285,6.17E-03,3.13E-03
55286,5.92E-03,3.11E-03
55287,5.81E-03,3.09E-03
55288,5.63E-03,3.07E-03
55289,5.45E-03,3.06E-03
55290,5.25E-03,3.04E-03
55291,5.05E-03,3.03E-03
55292,4.87E-03,3.02E-03
55293,4.78E-03,3.02E-03
55294,4.62E-03,3.01E-03
55295,4.45E-03,3.01E-03
55296,4.39E-03,3.01E-03
55297,3.99E-03,3.02E-03
55298,3.64E-03,3.02E-03
55299,3.47E-03,3.02E-03
55300,3.49E-03,3.03E-03
55301,3.70E-03,3.04E-03
55302,4.04E-03,3.05E-03
55303,4.32E-03,3.06E-03
55304,4.79E-03,3.08E-03
55305,5.03E-03,3.10E-03
55306,5.31E-03,3.12E-03
55307,5.53E-03,3.14E-03
55308,5.82E-03,3.17E-03
55309,6.16E-03,3.19E-03
55310,6.43E-03,3.22E-03
55311,6.68E-03,3.26E-03
55312,6.88E-03,3.29E-03
55313,7.06E-03,3.32E-03
55314,7.22E-03,3.36E-03
55315,7.36E-03,3.39E-03
55316,7.49E-03,3.43E-03
55317,7.61E-03,3.46E-03
55318,7.70E-03,3.50E-03
55319,7.80E-03,3.53E-03
55320,7.89E-03,3.57E-03
55321,7.92E-03,3.60E-03
55322,7.93E-03,3.63E-03
55323,7.91E-03,3.67E-03
55324,7.89E-03,3.70E-03
55325,7.88E-03,3.73E-03
55326,7.85E-03,3.76E-03
55327,7.82E-03,3.79E-03
55328,7.78E-03,3.82E-03
55329,7.74E-03,3.85E-03
55330,7.71E-03,3.88E-03
55331,7.68E-03,3.91E-03
55332,7.66E-03,3.94E-03
55333,7.64E-03,3.97E-03
55334,7.62E-03,4.00E-03
55335,7.60E-03,4.03E-03
55336,7.58E-03,4.05E-03
55337,7.56E-03,4.08E-03
55338,7.54E-03,4.11E-03
55339,7.52E-03,4.14E-03
55340,7.48E-03,4.17E-03
55341,7.44E-03,4.20E-03
55342,7.40E-03,4.22E-03
55343,7.35E-03,4.25E-03
55344,7.31E-03,4.28E-03
55345,7.27E-03,4.31E-03
55346,7.23E-03,4.34E-03
55347,7.18E-03,4.37E-03
55348,7.14E-03,4.40E-03
55349,7.09E-03,4.43E-03
55350,7.04E-03,4.46E-03
55351,6.97E-03,4.50E-03
55352,6.88E-03,4.53E-03
55353,6.78E-03,4.56E-03
55354,6.68E-03,4.59E-03
55355,6.60E-03,4.63E-03
55356,6.54E-03,4.66E-03
55357,6.49E-03,4.70E-03
55358,6.44E-03,4.73E-03
55359,6.40E-03,4.77E-03
55360,6.37E-03,4.81E-03
55361,6.35E-03,4.85E-03
55362,6.33E-03,4.89E-03
55363,6.34E-03,4.93E-03
55364,6.36E-03,4.98E-03
55365,6.38E-03,5.02E-03
55366,6.40E-03,5.07E-03
55367,6.42E-03,5.11E-03
55368,6.44E-03,5.16E-03
55369,6.45E-03,5.21E-03
55370,6.46E-03,5.26E-03
55371,6.47E-03,5.32E-03
55372,6.47E-03,5.37E-03
55373,6.47E-03,5.43E-03
55374,6.48E-03,5.49E-03
55375,6.50E-03,5.55E-03
55376,6.59E-03,5.61E-03
55377,6.70E-03,5.67E-03
55378,6.82E-03,5.74E-03
55379,6.94E-03,5.80E-03
55380,7.05E-03,5.87E-03
55381,7.13E-03,5.95E-03
55382,7.20E-03,6.02E-03
55383,7.28E-03,6.10E-03
55384,7.35E-03,6.18E-03
55385,7.43E-03,6.26E-03
55386,7.54E-03,6.34E-03
55387,7.69E-03,6.42E-03
55388,7.92E-03,6.51E-03
55389,7.96E-03,6.60E-03
55390,8.08E-03,6.68E-03
55391,8.22E-03,6.78E-03
55392,8.55E-03,6.87E-03
55393,8.57E-03,6.96E-03
55394,9.06E-03,7.06E-03
55395,9.64E-03,7.16E-03
55396,9.75E-03,7.26E-03
55397,9.73E-03,7.36E-03
55398,9.44E-03,7.45E-03
55399,9.10E-03,7.53E-03
55400,5.97E-03,7.68E-03
55401,8.25E-03,7.85E-03
55402,8.91E-03,7.88E-03
55403,9.03E-03,7.93E-03
55404,8.70E-03,8.01E-03
55405,9.65E-03,8.11E-03
55406,6.77E-03,8.15E-03
55407,5.15E-03,8.17E-03
55408,7.79E-03,2.08E-02
55409,9.85E-03,2.07E-02
55410,1.03E-02,2.07E-02
55411,1.02E-02,2.06E-02
55412,1.06E-02,2.06E-02
55413,1.04E-02,2.05E-02
55414,1.02E-02,2.04E-02
55415,1.01E-02,2.04E-02
55416,9.57E-03,2.04E-02
55417,9.26E-03,2.03E-02
55418,9.05E-03,2.03E-02
55419,8.92E-03,2.03E-02
55420,8.82E-03,2.02E-02
55421,8.72E-03,2.02E-02
55422,8.65E-03,2.02E-02
55423,8.58E-03,2.02E-02
55424,8.52E-03,2.02E-02
55425,8.51E-03,2.02E-02
55426,8.51E-03,2.02E-02
55427,8.50E-03,2.02E-02
55428,8.47E-03,2.02E-02
55429,8.40E-03,2.02E-02
55430,8.31E-03,2.02E-02
55431,8.25E-03,2.02E-02
55432,8.21E-03,2.02E-02
55433,8.17E-03,2.02E-02
55434,8.15E-03,2.03E-02
55435,8.15E-03,2.03E-02
55436,8.15E-03,2.03E-02
55437,8.15E-03,2.03E-02
55438,8.14E-03,2.03E-02
55439,8.13E-03,2.03E-02
55440,8.12E-03,2.03E-02
55441,8.09E-03,2.03E-02
55442,8.08E-03,2.03E-02
55443,8.07E-03,2.03E-02
55444,8.05E-03,2.03E-02
55445,8.04E-03,2.03E-02
55446,8.03E-03,2.03E-02
55447,8.04E-03,2.02E-02
55448,8.06E-03,2.02E-02
55449,8.08E-03,2.02E-02
55450,8.10E-03,2.01E-02
55451,8.12E-03,2.01E-02
55452,8.14E-03,2.01E-02
55453,8.16E-03,2.00E-02
55454,8.19E-03,2.00E-02
55455,8.22E-03,1.99E-02
55456,8.27E-03,1.98E-02
55457,8.33E-03,1.98E-02
55458,8.36E-03,1.97E-02
55459,8.38E-03,1.97E-02
55460,8.41E-03,1.96E-02
55461,8.43E-03,1.95E-02
55462,8.45E-03,1.95E-02
55463,8.47E-03,1.94E-02
55464,8.50E-03,1.93E-02
55465,8.53E-03,1.93E-02
55466,8.57E-03,1.92E-02
55467,8.61E-03,1.91E-02
55468,8.67E-03,1.90E-02
55469,8.74E-03,1.90E-02
55470,8.81E-03,1.89E-02
55471,8.85E-03,1.88E-02
55472,8.86E-03,1.87E-02
55473,8.84E-03,1.87E-02
55474,8.81E-03,1.86E-02
55475,8.79E-03,1.85E-02
55476,8.76E-03,1.84E-02
55477,8.74E-03,1.84E-02
55478,8.71E-03,1.83E-02
55479,8.69E-03,1.82E-02
55480,8.69E-03,1.81E-02
55481,8.70E-03,1.81E-02
55482,8.63E-03,1.80E-02
55483,8.47E-03,1.80E-02
55484,8.29E-03,1.79E-02
55485,8.11E-03,1.79E-02
55486,7.99E-03,1.79E-02
55487,8.00E-03,1.78E-02
55488,8.03E-03,1.78E-02
55489,8.00E-03,1.78E-02
55490,7.92E-03,1.78E-02
55491,7.85E-03,1.77E-02
55492,7.78E-03,1.77E-02
55493,7.72E-03,1.77E-02
55494,7.64E-03,1.77E-02
55495,7.54E-03,1.77E-02
55496,7.43E-03,1.76E-02
55497,7.34E-03,1.76E-02
55498,7.28E-03,1.76E-02
55499,7.23E-03,1.75E-02
55500,7.19E-03,1.74E-02
55501,7.16E-03,1.74E-02
55502,7.13E-03,1.73E-02
55503,7.11E-03,1.72E-02
55504,7.08E-03,1.71E-02
55505,7.04E-03,1.70E-02
55506,6.98E-03,1.69E-02
55507,6.94E-03,1.68E-02
55508,6.94E-03,1.67E-02
55509,6.97E-03,1.66E-02
55510,6.99E-03,1.65E-02
55511,7.02E-03,1.64E-02
55512,7.05E-03,1.62E-02
55513,7.08E-03,1.61E-02
55514,7.12E-03,1.59E-02
55515,7.15E-03,1.58E-02
55516,7.18E-03,1.57E-02
55517,7.20E-03,1.55E-02
55518,7.21E-03,1.54E-02
55519,7.22E-03,1.52E-02
55520,7.24E-03,1.51E-02
55521,7.25E-03,1.49E-02
55522,7.26E-03,1.48E-02
55523,7.26E-03,1.46E-02
55524,7.25E-03,1.45E-02
55525,7.22E-03,1.44E-02
55526,7.20E-03,1.42E-02
55527,7.17E-03,1.41E-02
55528,7.14E-03,1.40E-02
55529,7.11E-03,1.38E-02
55530,7.07E-03,1.37E-02
55531,7.00E-03,1.36E-02
55532,6.92E-03,1.35E-02
55533,6.84E-03,1.33E-02
55534,6.77E-03,1.32E-02
55535,6.70E-03,1.31E-02
55536,6.67E-03,1.30E-02
55537,6.71E-03,1.29E-02
55538,6.74E-03,1.28E-02
55539,6.70E-03,1.27E-02
55540,6.70E-03,1.26E-02
55541,7.66E-03,1.24E-02
55542,8.02E-03,1.23E-02
55543,8.62E-03,1.22E-02
55544,8.87E-03,1.20E-02
55545,9.98E-03,1.19E-02
55546,1.04E-02,1.17E-02
55547,1.07E-02,1.16E-02
55548,1.08E-02,1.14E-02
55549,1.09E-02,1.12E-02
55550,1.08E-02,1.10E-02
55551,1.07E-02,1.08E-02
55552,1.06E-02,1.06E-02
55553,1.05E-02,1.05E-02
55554,1.04E-02,1.03E-02
55555,1.03E-02,1.01E-02
55556,1.02E-02,9.91E-03
55557,1.00E-02,9.74E-03
55558,9.92E-03,9.56E-03
55559,9.74E-03,9.39E-03
55560,9.08E-03,9.23E-03
55561,7.54E-03,9.09E-03
55562,7.18E-03,8.97E-03
55563,7.10E-03,8.85E-03
55564,6.93E-03,8.74E-03
55565,6.78E-03,8.64E-03
55566,6.59E-03,8.53E-03
55567,6.00E-03,8.44E-03
55568,5.75E-03,8.38E-03
55569,3.95E-03,8.27E-03
55570,2.40E-03,8.16E-03
55571,3.33E-03,8.15E-03
55572,3.88E-03,8.15E-03
55573,6.41E-03,1.29E-02
55574,6.29E-03,1.29E-02
55575,5.92E-03,1.30E-02
55576,5.57E-03,1.30E-02
55577,2.89E-03,1.30E-02
55578,3.40E-03,1.30E-02
55579,4.07E-03,1.30E-02
55580,4.11E-03,1.30E-02
55581,4.65E-03,1.30E-02
55582,5.06E-03,1.30E-02
55583,5.23E-03,1.30E-02
55584,5.55E-03,1.29E-02
55585,6.17E-03,1.29E-02
55586,6.59E-03,1.28E-02
55587,6.81E-03,1.28E-02
55588,6.99E-03,1.27E-02
55589,7.17E-03,1.26E-02
55590,7.28E-03,1.25E-02
55591,7.35E-03,1.25E-02
55592,7.41E-03,1.24E-02
55593,7.48E-03,1.23E-02
55594,7.54E-03,1.22E-02
55595,7.60E-03,1.21E-02
55596,7.67E-03,1.20E-02
55597,7.72E-03,1.18E-02
55598,7.76E-03,1.17E-02
55599,7.78E-03,1.16E-02
55600,7.79E-03,1.15E-02
55601,7.80E-03,1.13E-02
55602,7.82E-03,1.12E-02
55603,7.83E-03,1.11E-02
55604,7.85E-03,1.09E-02
55605,7.86E-03,1.08E-02
55606,7.88E-03,1.06E-02
55607,7.89E-03,1.05E-02
55608,7.90E-03,1.03E-02
55609,7.92E-03,1.02E-02
55610,7.92E-03,1.00E-02
55611,7.93E-03,9.85E-03
55612,7.94E-03,9.70E-03
55613,7.95E-03,9.56E-03
55614,7.96E-03,9.42E-03
55615,7.97E-03,9.29E-03
55616,7.98E-03,9.16E-03
55617,7.98E-03,9.05E-03
55618,7.99E-03,8.94E-03
55619,8.00E-03,8.85E-03
55620,8.01E-03,8.76E-03
55621,8.01E-03,8.69E-03
55622,8.01E-03,8.64E-03
55623,8.01E-03,8.59E-03
55624,8.01E-03,8.57E-03
55625,8.01E-03,8.55E-03
55626,8.01E-03,8.55E-03
55627,8.01E-03,8.57E-03
55628,8.00E-03,8.60E-03
55629,8.00E-03,8.64E-03
55630,7.99E-03,8.69E-03
55631,7.98E-03,8.76E-03
55632,7.97E-03,8.84E-03
55633,7.96E-03,8.93E-03
55634,7.95E-03,9.03E-03
55635,7.93E-03,9.14E-03
55636,7.92E-03,9.25E-03
55637,7.91E-03,9.38E-03
55638,7.90E-03,9.51E-03
55639,7.89E-03,9.64E-03
55640,7.86E-03,9.78E-03
55641,7.84E-03,9.93E-03
55642,7.81E-03,1.01E-02
55643,7.78E-03,1.02E-02
55644,7.76E-03,1.04E-02
55645,7.73E-03,1.05E-02
55646,7.70E-03,1.07E-02
55647,7.68E-03,1.08E-02
55648,7.66E-03,1.10E-02
55649,7.64E-03,1.12E-02
55650,7.62E-03,1.13E-02
55651,7.60E-03,1.15E-02
55652,7.58E-03,1.16E-02
55653,7.57E-03,1.18E-02
55654,7.54E-03,1.19E-02
55655,7.52E-03,1.21E-02
55656,7.49E-03,1.22E-02
55657,7.47E-03,1.24E-02
55658,7.44E-03,1.25E-02
55659,7.41E-03,1.27E-02
55660,7.36E-03,1.28E-02
55661,7.31E-03,1.30E-02
55662,7.26E-03,1.31E-02
55663,7.20E-03,1.33E-02
55664,7.16E-03,1.34E-02
55665,7.13E-03,1.35E-02
55666,7.12E-03,1.37E-02
55667,7.12E-03,1.38E-02
55668,7.12E-03,1.39E-02
55669,7.14E-03,1.41E-02
55670,7.16E-03,1.42E-02
55671,7.18E-03,1.43E-02
55672,7.19E-03,1.44E-02
55673,7.21E-03,1.46E-02
55674,7.22E-03,1.47E-02
55675,7.23E-03,1.48E-02
55676,7.25E-03,1.50E-02
55677,7.26E-03,1.51E-02
55678,7.27E-03,1.52E-02
55679,7.29E-03,1.53E-02
55680,7.30E-03,1.55E-02
55681,7.31E-03,1.56E-02
55682,7.32E-03,1.57E-02
55683,7.34E-03,1.59E-02
55684,7.35E-03,1.60E-02
55685,7.36E-03,1.61E-02
55686,7.37E-03,1.62E-02
55687,7.37E-03,1.64E-02
55688,7.37E-03,1.65E-02
55689,7.39E-03,1.66E-02
55690,7.43E-03,1.68E-02
55691,7.48E-03,1.69E-02
55692,7.52E-03,1.70E-02
55693,7.55E-03,1.72E-02
55694,7.57E-03,1.73E-02
55695,7.55E-03,1.75E-02
55696,7.61E-03,1.76E-02
55697,7.66E-03,1.77E-02
55698,7.81E-03,1.79E-02
55699,8.09E-03,1.16E-02
55700,8.09E-03,1.14E-02
55701,8.09E-03,1.13E-02
55702,8.09E-03,1.11E-02
55703,8.09E-03,1.10E-02
55704,8.09E-03,1.08E-02
55705,8.09E-03,1.07E-02
55706,8.09E-03,1.05E-02
55707,8.09E-03,1.04E-02
55708,8.09E-03,1.02E-02
55709,8.09E-03,1.00E-02
55710,8.09E-03,9.88E-03
55711,8.09E-03,9.72E-03
55712,8.09E-03,9.55E-03
55713,8.09E-03,9.38E-03
55714,8.09E-03,9.21E-03
55715,8.09E-03,9.04E-03
55716,8.09E-03,8.87E-03
55717,8.09E-03,8.70E-03
55718,8.09E-03,8.52E-03
55719,8.09E-03,8.35E-03
55720,8.09E-03,8.18E-03
55721,8.09E-03,8.00E-03
55722,8.09E-03,7.83E-03
55723,8.09E-03,7.65E-03
55724,8.09E-03,7.48E-03
55725,8.09E-03,7.30E-03
55726,8.09E-03,7.13E-03
55727,8.09E-03,6.96E-03
55728,8.09E-03,6.78E-03
55729,8.09E-03,6.62E-03
55730,8.09E-03,6.45E-03
55731,8.09E-03,6.28E-03
55732,8.09E-03,6.12E-03
55733,8.09E-03,5.97E-03
55734,8.09E-03,5.81E-03
55735,8.09E-03,5.66E-03
55736,8.09E-03,5.52E-03
55737,8.09E-03,5.38E-03
55738,8.09E-03,5.25E-03
55739,8.09E-03,5.12E-03
55740,8.09E-03,5.00E-03
55741,8.09E-03,4.89E-03
55742,8.09E-03,4.80E-03
55743,8.09E-03,4.71E-03
55744,8.09E-03,4.63E-03
55745,8.09E-03,4.56E-03
55746,8.09E-03,4.51E-03
55747,8.09E-03,4.47E-03
55748,8.09E-03,4.44E-03
55749,8.09E-03,4.43E-03
55750,8.09E-03,4.43E-03
55751,8.09E-03,4.45E-03
55752,8.09E-03,4.48E-03
55753,8.09E-03,4.52E-03
55754,8.09E-03,4.58E-03
55755,8.09E-03,4.65E-03
55756,8.09E-03,4.74E-03
55757,8.09E-03,4.84E-03
55758,8.09E-03,4.95E-03
55759,8.09E-03,5.07E-03
55760,8.09E-03,5.20E-03
55761,8.09E-03,5.34E-03
55762,8.09E-03,5.49E-03
55763,8.09E-03,5.65E-03
55764,8.09E-03,5.81E-03
55765,8.09E-03,5.99E-03
55766,8.09E-03,6.17E-03
55767,8.09E-03,6.35E-03
55768,8.09E-03,6.54E-03
55769,8.09E-03,6.74E-03
55770,8.09E-03,6.94E-03
55771,8.09E-03,7.14E-03
55772,8.09E-03,7.35E-03
55773,8.09E-03,7.57E-03
55774,8.09E-03,7.78E-03
55775,8.09E-03,8.00E-03
55776,8.09E-03,8.22E-03
55777,8.09E-03,8.44E-03
55778,8.09E-03,8.67E-03
55779,8.09E-03,8.90E-03
55780,8.09E-03,9.13E-03
55781,8.09E-03,9.36E-03
55782,8.09E-03,9.59E-03
55783,8.09E-03,9.83E-03
55784,8.09E-03,1.01E-02
55785,8.09E-03,1.03E-02
55786,8.09E-03,1.05E-02
55787,8.09E-03,1.08E-02
55788,8.09E-03,1.10E-02
55789,8.09E-03,1.12E-02
55790,8.09E-03,1.15E-02
55791,8.09E-03,1.17E-02
55792,7.95E-03,1.20E-02
55793,7.85E-03,1.22E-02
55794,7.72E-03,1.24E-02
55795,7.66E-03,1.26E-02
55796,7.65E-03,1.28E-02
55797,7.90E-03,1.31E-02
55798,7.83E-03,1.37E-02
55799,9.53E-03,1.37E-02
55800,9.12E-03,1.33E-02
55801,7.47E-03,9.67E-03
55802,7.33E-03,9.26E-03
55803,7.43E-03,8.90E-03
55804,7.50E-03,8.57E-03
55805,7.43E-03,8.24E-03
55806,6.71E-03,2.95E-02
55807,6.79E-03,2.90E-02
55808,7.39E-03,2.84E-02
55809,8.58E-03,3.18E-02
55810,7.46E-03,1.40E-02
55811,7.10E-03,1.49E-02
55812,6.99E-03,1.50E-02
55813,7.12E-03,1.51E-02
55814,5.56E-03,1.51E-02
55815,5.74E-03,1.53E-02
55816,5.72E-03,1.53E-02
55817,5.29E-03,1.53E-02
55818,5.10E-03,1.54E-02
55819,5.33E-03,1.54E-02
55820,5.79E-03,1.54E-02
55821,5.84E-03,1.54E-02
55822,6.08E-03,1.54E-02
55823,6.15E-03,1.54E-02
55824,6.31E-03,1.53E-02
55825,6.39E-03,1.53E-02
55826,6.43E-03,1.53E-02
55827,6.41E-03,1.52E-02
55828,6.28E-03,1.52E-02
55829,6.40E-03,1.51E-02
55830,6.93E-03,1.51E-02
55831,7.40E-03,1.50E-02
55832,7.60E-03,1.49E-02
55833,7.87E-03,1.48E-02
55834,8.27E-03,1.47E-02
55835,8.65E-03,1.46E-02
55836,9.01E-03,1.45E-02
55837,9.41E-03,1.43E-02
55838,9.85E-03,1.42E-02
55839,1.02E-02,1.41E-02
55840,1.02E-02,1.39E-02
55841,1.01E-02,1.38E-02
55842,9.91E-03,1.36E-02
55843,9.78E-03,1.35E-02
55844,9.59E-03,1.33E-02
55845,9.39E-03,1.32E-02
55846,9.40E-03,1.31E-02
55847,8.81E-03,1.30E-02
55848,8.80E-03,1.28E-02
55849,7.69E-03,1.47E-02
55850,9.44E-03,7.33E-03
55851,6.31E-03,6.85E-03
55852,1.28E-02,2.10E-02
55853,1.11E-02,2.09E-02
55854,1.06E-02,2.07E-02
55855,1.04E-02,2.06E-02
55856,1.01E-02,2.05E-02
55857,9.95E-03,2.04E-02
55858,9.88E-03,2.03E-02
55859,8.71E-03,2.02E-02
55860,8.63E-03,2.01E-02
55861,8.48E-03,2.00E-02
55862,8.14E-03,1.99E-02
55863,7.90E-03,1.99E-02
55864,6.91E-03,1.98E-02
55865,6.50E-03,1.97E-02
55866,6.20E-03,1.97E-02
55867,6.04E-03,1.96E-02
55868,5.81E-03,1.96E-02
55869,5.53E-03,1.95E-02
55870,5.20E-03,1.95E-02
55871,4.87E-03,1.94E-02
55872,4.63E-03,1.94E-02
55873,4.21E-03,1.93E-02
55874,3.92E-03,1.93E-02
55875,3.24E-03,1.92E-02
55876,3.22E-03,1.92E-02
55877,3.22E-03,1.91E-02
55878,3.24E-03,1.91E-02
55879,3.29E-03,1.90E-02
55880,3.33E-03,1.90E-02
55881,3.36E-03,1.90E-02
55882,3.32E-03,1.89E-02
55883,3.23E-03,1.89E-02
55884,3.22E-03,1.88E-02
55885,3.38E-03,1.88E-02
55886,3.44E-03,1.87E-02
55887,3.42E-03,1.87E-02
55888,3.34E-03,1.86E-02
55889,3.73E-03,1.86E-02
55890,5.66E-03,1.84E-02
55891,7.63E-03,1.83E-02
55892,9.45E-03,1.38E-02
55893,9.65E-03,1.38E-02
55894,1.02E-02,1.38E-02
55895,9.21E-03,1.38E-02
55896,8.67E-03,1.39E-02
55897,8.75E-03,1.40E-02
55898,8.57E-03,1.37E-02
55899,8.37E-03,1.40E-02
55900,8.10E-03,1.41E-02
55901,8.10E-03,1.42E-02
55902,5.13E-03,2.78E-02
55903,5.42E-03,2.19E-02
55904,5.82E-03,2.27E-02
55905,7.93E-03,2.29E-02
55906,8.95E-03,2.33E-02
55907,7.92E-03,1.23E-02
55908,8.21E-03,1.27E-02
55909,7.22E-03,3.42E-02
55910,7.26E-03,3.57E-02
55911,6.70E-03,3.67E-02
55912,7.09E-03,3.63E-02
55913,6.84E-03,3.74E-02
55914,6.95E-03,3.85E-02
55915,9.26E-03,1.44E-02
55916,8.00E-03,3.96E-02
55917,9.01E-03,5.79E-03
55918,8.70E-03,1.29E-02
55919,9.14E-03,1.39E-02
55920,8.10E-03,1.30E-02
55921,5.47E-03,9.60E-03
55922,1.00E-02,1.23E-02
55923,8.26E-03,2.14E-02
55924,7.09E-03,2.15E-02
55925,7.31E-03,2.15E-02
55926,9.00E-03,1.40E-02
55927,7.84E-03,1.40E-02
55928,8.92E-03,7.50E-03
55929,5.85E-03,2.11E-02
55930,7.74E-03,1.30E-02
55931,7.59E-03,1.31E-02
55932,7.07E-03,1.32E-02
55933,8.10E-03,1.17E-02
55934,7.95E-03,1.01E-02
55935,6.40E-03,6.53E-03
55936,7.68E-03,2.14E-02
55937,7.81E-03,2.13E-02
55938,7.90E-03,2.12E-02
55939,6.80E-03,3.03E-02
55940,8.10E-03,1.39E-02
55941,8.10E-03,1.41E-02
55942,8.46E-03,2.06E-02
55943,7.87E-03,2.09E-02
55944,6.69E-03,2.13E-02
55945,6.09E-03,1.18E-02
55946,6.93E-03,3.51E-02
55947,7.60E-03,3.55E-02
55948,7.60E-03,3.60E-02
55949,7.84E-03,3.99E-02
55950,7.90E-03,4.04E-02
55951,8.10E-03,1.31E-02
55952,5.21E-03,9.43E-03
55953,8.74E-03,1.04E-02
55954,8.10E-03,1.19E-02
55955,7.57E-03,3.12E-02
55956,8.10E-03,1.38E-02
55957,8.10E-03,1.41E-02
55958,9.41E-03,1.32E-02
55959,8.10E-03,1.32E-02
55960,8.10E-03,1.36E-02
55961,8.10E-03,1.40E-02
55962,8.10E-03,1.33E-02
55963,8.10E-03,1.21E-02
55964,8.10E-03,1.35E-02
55965,8.10E-03,1.40E-02
55966,8.10E-03,1.34E-02
55967,8.10E-03,1.22E-02
55968,8.10E-03,1.33E-02
55969,8.10E-03,1.39E-02
55970,8.10E-03,1.24E-02
55971,8.10E-03,1.35E-02
55972,8.10E-03,1.32E-02
55973,8.10E-03,1.38E-02
55974,8.10E-03,1.36E-02
55975,8.10E-03,1.26E-02
55976,8.10E-03,1.30E-02
55977,8.10E-03,1.38E-02
55978,8.10E-03,1.37E-02
55979,8.10E-03,1.27E-02
55980,8.10E-03,1.29E-02
55981,7.52E-03,1.42E-02
55982,9.16E-03,2.13E-02
55983,6.59E-03,1.49E-02
55984,6.83E-03,1.50E-02
55985,8.35E-03,1.45E-02
55986,7.02E-03,1.48E-02
55987,6.84E-03,1.50E-02
55988,5.53E-03,3.73E-02
55989,8.10E-03,1.41E-02
55990,8.10E-03,1.41E-02
55991,6.32E-03,2.74E-02
55992,7.37E-03,2.68E-02
55993,7.71E-03,2.63E-02
55994,8.04E-03,2.57E-02
55995,8.31E-03,2.51E-02
55996,8.50E-03,2.45E-02
55997,8.93E-03,2.39E-02
55998,1.11E-02,2.01E-02
55999,1.01E-02,1.95E-02
56000,1.02E-02,1.89E-02
56001,8.20E-03,1.83E-02
56002,8.17E-03,1.79E-02
56003,8.14E-03,1.74E-02
56004,8.06E-03,1.69E-02
56005,8.00E-03,1.64E-02
56006,8.00E-03,1.60E-02
56007,8.01E-03,1.55E-02
56008,8.01E-03,1.50E-02
56009,8.05E-03,1.46E-02
56010,8.39E-03,1.41E-02
56011,8.40E-03,1.36E-02
56012,8.41E-03,1.31E-02
56013,8.99E-03,3.22E-02
56014,8.71E-03,3.28E-02
56015,7.29E-03,3.32E-02
56016,6.74E-03,3.35E-02
56017,6.57E-03,3.39E-02
56018,7.28E-03,3.60E-02
56019,5.39E-03,3.82E-02
56020,6.94E-03,3.79E-02
56021,6.88E-03,3.82E-02
56022,8.16E-03,1.45E-02
56023,8.05E-03,1.46E-02
56024,8.10E-03,1.47E-02
56025,8.18E-03,1.47E-02
56026,8.22E-03,1.47E-02
56027,8.34E-03,1.48E-02
56028,7.16E-03,1.48E-02
56029,6.75E-03,1.49E-02
56030,6.54E-03,1.50E-02
56031,6.27E-03,1.51E-02
56032,5.93E-03,1.52E-02
56033,5.77E-03,1.54E-02
56034,5.90E-03,1.55E-02
56035,6.16E-03,1.57E-02
56036,6.35E-03,1.59E-02
56037,6.46E-03,1.62E-02
56038,6.55E-03,1.65E-02
56039,6.65E-03,1.68E-02
56040,6.74E-03,1.71E-02
56041,6.78E-03,1.75E-02
56042,6.77E-03,1.79E-02
56043,6.76E-03,1.84E-02
56044,6.74E-03,1.88E-02
56045,6.72E-03,1.93E-02
56046,6.69E-03,1.99E-02
56047,6.66E-03,2.04E-02
56048,6.57E-03,2.10E-02
56049,6.41E-03,2.15E-02
56050,6.22E-03,2.21E-02
56051,5.99E-03,2.27E-02
56052,5.68E-03,2.33E-02
56053,5.30E-03,2.38E-02
56054,4.96E-03,2.43E-02
56055,4.76E-03,2.48E-02
56056,4.67E-03,2.53E-02
56057,4.57E-03,2.57E-02
56058,4.52E-03,2.62E-02
56059,4.49E-03,2.67E-02
56060,4.48E-03,2.71E-02
56061,4.56E-03,2.76E-02
56062,4.91E-03,2.80E-02
56063,5.08E-03,2.85E-02
56064,5.52E-03,2.90E-02
56065,5.79E-03,2.96E-02
56066,6.02E-03,3.01E-02
56067,6.24E-03,3.07E-02
56068,6.44E-03,3.13E-02
56069,6.54E-03,3.18E-02
56070,6.58E-03,3.24E-02
56071,6.62E-03,3.30E-02
56072,6.65E-03,3.35E-02
56073,6.68E-03,3.41E-02
56074,6.69E-03,3.46E-02
56075,6.66E-03,3.51E-02
56076,6.62E-03,3.56E-02
56077,6.59E-03,3.60E-02
56078,6.55E-03,3.65E-02
56079,6.40E-03,3.69E-02
56080,6.04E-03,3.73E-02
56081,5.73E-03,3.77E-02
56082,5.59E-03,3.80E-02
56083,5.45E-03,3.83E-02
56084,5.42E-03,3.86E-02
56085,5.70E-03,3.89E-02
56086,6.07E-03,3.91E-02
56087,6.35E-03,3.94E-02
56088,6.57E-03,3.96E-02
56089,6.83E-03,3.98E-02
56090,7.14E-03,4.00E-02
56091,7.47E-03,4.01E-02
56092,7.68E-03,4.02E-02
56093,7.79E-03,4.03E-02
56094,7.88E-03,4.04E-02
56095,7.97E-03,4.04E-02
56096,8.20E-03,4.04E-02
56097,8.22E-03,4.03E-02
56098,8.36E-03,4.02E-02
56099,8.37E-03,4.01E-02
56100,8.35E-03,3.99E-02
56101,8.23E-03,3.98E-02
56102,1.18E-02,5.10E-03
56103,9.58E-03,5.46E-03
56104,9.09E-03,1.30E-02
56105,9.21E-03,1.31E-02
56106,9.21E-03,1.31E-02
56107,9.43E-03,1.32E-02
56108,9.56E-03,1.32E-02
56109,9.55E-03,1.32E-02
56110,9.48E-03,1.32E-02
56111,9.17E-03,1.33E-02
56112,9.10E-03,1.33E-02
56113,8.69E-03,1.33E-02
56114,8.60E-03,1.34E-02
56115,8.44E-03,1.34E-02
56116,8.20E-03,1.35E-02
56117,8.11E-03,1.35E-02
56118,8.11E-03,1.35E-02
56119,7.91E-03,1.36E-02
56120,7.52E-03,1.36E-02
56121,7.23E-03,1.37E-02
56122,7.19E-03,1.37E-02
56123,7.22E-03,1.37E-02
56124,7.18E-03,1.38E-02
56125,7.18E-03,1.38E-02
56126,7.21E-03,1.38E-02
56127,7.23E-03,1.38E-02
56128,7.25E-03,1.39E-02
56129,7.25E-03,1.39E-02
56130,7.25E-03,1.39E-02
56131,7.27E-03,1.39E-02
56132,7.36E-03,1.39E-02
56133,7.51E-03,1.39E-02
56134,7.77E-03,1.39E-02
56135,8.09E-03,1.40E-02
56136,8.41E-03,1.40E-02
56137,8.62E-03,1.40E-02
56138,8.67E-03,1.40E-02
56139,8.77E-03,1.40E-02
56140,8.83E-03,1.40E-02
56141,8.09E-03,1.29E-02
56142,8.09E-03,1.27E-02
56143,8.09E-03,1.25E-02
56144,8.09E-03,1.24E-02
56145,8.09E-03,1.22E-02
56146,8.09E-03,1.20E-02
56147,8.09E-03,1.18E-02
56148,8.09E-03,1.16E-02
56149,8.09E-03,1.15E-02
56150,8.09E-03,1.13E-02
56151,8.09E-03,1.11E-02
56152,8.09E-03,1.09E-02
56153,8.00E-03,1.07E-02
56154,7.90E-03,1.05E-02
56155,7.81E-03,1.03E-02
56156,7.59E-03,1.01E-02
56157,7.16E-03,9.92E-03
56158,6.21E-03,9.75E-03
56159,6.91E-03,9.25E-03
56160,7.61E-03,9.06E-03
56161,8.12E-03,8.86E-03
56162,8.20E-03,8.66E-03
56163,8.19E-03,8.44E-03
56164,8.18E-03,8.22E-03
56165,8.09E-03,8.01E-03
56166,8.09E-03,7.80E-03
56167,8.09E-03,7.58E-03
56168,8.09E-03,7.37E-03
56169,8.09E-03,7.16E-03
56170,8.09E-03,6.96E-03
56171,8.09E-03,6.75E-03
56172,8.09E-03,6.55E-03
56173,8.09E-03,6.34E-03
56174,8.09E-03,6.14E-03
56175,8.09E-03,5.95E-03
56176,8.09E-03,5.75E-03
56177,8.09E-03,5.57E-03
56178,8.09E-03,5.38E-03
56179,8.09E-03,5.20E-03
56180,8.09E-03,5.03E-03
56181,8.09E-03,4.87E-03
56182,8.09E-03,4.71E-03
56183,8.09E-03,4.56E-03
56184,8.09E-03,4.42E-03
56185,8.09E-03,4.29E-03
56186,8.09E-03,4.17E-03
56187,8.09E-03,4.07E-03
56188,8.09E-03,3.97E-03
56189,8.09E-03,3.90E-03
56190,8.09E-03,3.83E-03
56191,8.09E-03,3.78E-03
56192,8.09E-03,3.75E-03
56193,8.09E-03,3.74E-03
56194,8.09E-03,3.74E-03
56195,8.09E-03,3.75E-03
56196,8.09E-03,3.78E-03
56197,8.09E-03,3.83E-03
56198,8.09E-03,3.89E-03
56199,8.09E-03,3.97E-03
56200,8.09E-03,4.05E-03
56201,8.09E-03,4.15E-03
56202,8.09E-03,4.26E-03
56203,8.09E-03,4.38E-03
56204,8.09E-03,4.51E-03
56205,8.09E-03,4.64E-03
56206,8.09E-03,4.78E-03
56207,8.09E-03,4.93E-03
56208,8.09E-03,5.08E-03
56209,8.09E-03,5.23E-03
56210,8.09E-03,5.39E-03
56211,8.09E-03,5.55E-03
56212,8.09E-03,5.72E-03
56213,8.09E-03,5.88E-03
56214,8.09E-03,6.05E-03
56215,8.09E-03,6.22E-03
56216,8.09E-03,6.39E-03
56217,8.09E-03,6.56E-03
56218,8.09E-03,6.73E-03
56219,8.09E-03,6.91E-03
56220,8.09E-03,7.08E-03
56221,8.09E-03,7.25E-03
56222,8.09E-03,7.42E-03
56223,8.09E-03,7.59E-03
56224,8.09E-03,7.76E-03
56225,8.09E-03,7.93E-03
56226,8.09E-03,8.10E-03
56227,8.09E-03,8.27E-03
56228,8.09E-03,8.44E-03
56229,8.09E-03,8.60E-03
56230,8.09E-03,8.77E-03
56231,8.09E-03,8.93E-03
56232,8.09E-03,9.10E-03
56233,8.09E-03,9.26E-03
56234,8.09E-03,9.42E-03
56235,8.09E-03,9.58E-03
56236,8.09E-03,9.73E-03
56237,8.09E-03,9.89E-03
56238,8.09E-03,1.00E-02
56239,8.09E-03,1.02E-02
56240,8.09E-03,1.04E-02
56241,8.09E-03,1.05E-02
56242,8.09E-03,1.07E-02
56243,8.09E-03,1.08E-02
56244,8.09E-03,1.09E-02
56245,7.99E-03,1.11E-02
56246,7.85E-03,1.12E-02
56247,7.65E-03,1.14E-02
56248,7.39E-03,1.15E-02
56249,7.19E-03,1.16E-02
56250,7.08E-03,1.18E-02
56251,7.07E-03,1.21E-02
56252,7.10E-03,1.20E-02
56253,7.30E-03,1.19E-02
56254,7.19E-03,1.18E-02
56255,7.13E-03,1.17E-02
56256,7.10E-03,1.16E-02
56257,6.94E-03,1.16E-02
56258,6.88E-03,1.15E-02
56259,6.65E-03,1.14E-02
56260,6.51E-03,1.14E-02
56261,6.54E-03,1.13E-02
56262,6.50E-03,1.12E-02
56263,6.42E-03,1.12E-02
56264,6.33E-03,1.11E-02
56265,6.25E-03,1.11E-02
56266,6.17E-03,1.10E-02
56267,6.10E-03,1.10E-02
56268,6.03E-03,1.09E-02
56269,5.93E-03,1.09E-02
56270,5.80E-03,1.08E-02
56271,5.66E-03,1.08E-02
56272,5.52E-03,1.07E-02
56273,5.43E-03,1.07E-02
56274,5.37E-03,1.06E-02
56275,5.32E-03,1.06E-02
56276,5.28E-03,1.06E-02
56277,5.28E-03,1.05E-02
56278,5.30E-03,1.05E-02
56279,5.33E-03,1.04E-02
56280,5.46E-03,1.04E-02
56281,5.69E-03,1.04E-02
56282,5.94E-03,1.03E-02
56283,6.16E-03,1.03E-02
56284,6.33E-03,1.02E-02
56285,6.47E-03,1.02E-02
56286,6.61E-03,1.02E-02
56287,6.77E-03,1.01E-02
56288,6.96E-03,1.01E-02
56289,7.16E-03,1.00E-02
56290,7.31E-03,1.00E-02
56291,7.41E-03,9.97E-03
56292,7.48E-03,9.93E-03
56293,7.53E-03,9.90E-03
56294,7.61E-03,9.87E-03
56295,7.74E-03,9.84E-03
56296,7.87E-03,9.81E-03
56297,7.98E-03,9.78E-03
56298,8.06E-03,9.76E-03
56299,8.12E-03,9.74E-03
56300,8.14E-03,9.72E-03
56301,8.15E-03,9.70E-03
56302,8.18E-03,9.69E-03
56303,8.23E-03,9.67E-03
56304,8.29E-03,9.67E-03
56305,8.35E-03,9.66E-03
56306,8.40E-03,9.65E-03
56307,8.46E-03,9.65E-03
56308,8.50E-03,9.65E-03
56309,8.54E-03,9.66E-03
56310,8.58E-03,9.67E-03
56311,8.63E-03,9.68E-03
56312,8.68E-03,9.69E-03
56313,8.73E-03,9.71E-03
56314,8.79E-03,9.73E-03
56315,8.87E-03,9.75E-03
56316,9.00E-03,9.78E-03
56317,9.14E-03,9.81E-03
56318,9.27E-03,9.84E-03
56319,9.38E-03,9.89E-03
56320,9.45E-03,9.93E-03
56321,9.53E-03,9.98E-03
56322,9.60E-03,1.00E-02
56323,9.68E-03,1.01E-02
56324,9.75E-03,1.02E-02
56325,9.84E-03,1.02E-02
56326,9.94E-03,1.03E-02
56327,1.00E-02,1.04E-02
56328,1.02E-02,1.05E-02
56329,1.03E-02,1.06E-02
56330,1.04E-02,1.07E-02
56331,1.05E-02,1.08E-02
56332,1.07E-02,1.09E-02
56333,1.08E-02,1.11E-02
56334,1.10E-02,1.12E-02
56335,1.10E-02,1.14E-02
56336,1.11E-02,1.15E-02
56337,1.12E-02,1.17E-02
56338,1.14E-02,1.19E-02
56339,1.14E-02,1.20E-02
56340,1.11E-02,1.22E-02
56341,7.56E-03,2.14E-02
56342,9.34E-03,1.40E-02
56343,9.76E-03,1.41E-02
56344,1.02E-02,1.41E-02
56345,1.00E-02,1.41E-02
56346,9.08E-03,1.42E-02
56347,8.95E-03,1.43E-02
56348,8.73E-03,1.43E-02
56349,9.74E-03,1.43E-02
56350,8.86E-03,1.43E-02
56351,7.54E-03,4.33E-03
56352,7.26E-03,4.20E-03
56353,6.43E-03,4.09E-03
56354,6.11E-03,3.99E-03
56355,5.66E-03,3.90E-03
56356,5.14E-03,3.83E-03
56357,4.30E-03,3.78E-03
56358,3.90E-03,3.73E-03
56359,2.99E-03,3.70E-03
56360,2.95E-03,3.68E-03
56361,3.04E-03,3.65E-03
56362,3.99E-03,3.62E-03
56363,4.37E-03,3.61E-03
56364,4.96E-03,3.56E-03
56365,5.52E-03,3.54E-03
56366,5.71E-03,3.52E-03
56367,6.35E-03,3.49E-03
56368,6.91E-03,3.47E-03
56369,7.29E-03,3.45E-03
56370,7.52E-03,3.43E-03
56371,9.86E-03,3.40E-03
56372,9.85E-03,3.36E-03
56373,9.33E-03,3.32E-03
56374,8.89E-03,3.28E-03
56375,8.42E-03,3.24E-03
56376,8.08E-03,3.20E-03
56377,7.64E-03,3.17E-03
56378,7.09E-03,3.13E-03
56379,6.79E-03,3.10E-03
56380,6.70E-03,3.07E-03
56381,6.57E-03,3.04E-03
56382,6.50E-03,3.02E-03
56383,6.39E-03,2.99E-03
56384,6.26E-03,2.97E-03
56385,6.11E-03,2.95E-03
56386,5.95E-03,2.93E-03
56387,5.78E-03,2.92E-03
56388,5.60E-03,2.90E-03
56389,5.40E-03,2.89E-03
56390,5.21E-03,2.88E-03
56391,5.04E-03,2.87E-03
56392,4.90E-03,2.87E-03
56393,4.76E-03,2.86E-03
56394,4.63E-03,2.86E-03
56395,4.52E-03,2.86E-03
56396,4.18E-03,2.86E-03
56397,3.89E-03,2.87E-03
56398,3.73E-03,2.87E-03
56399,3.75E-03,2.88E-03
56400,3.96E-03,2.89E-03
56401,4.27E-03,2.90E-03
56402,4.54E-03,2.92E-03
56403,4.98E-03,2.93E-03
56404,5.05E-03,2.95E-03
56405,5.45E-03,2.98E-03
56406,5.63E-03,3.00E-03
56407,5.95E-03,3.03E-03
56408,6.29E-03,3.05E-03
56409,6.56E-03,3.08E-03
56410,6.79E-03,3.12E-03
56411,6.98E-03,3.15E-03
56412,7.14E-03,3.18E-03
56413,7.28E-03,3.22E-03
56414,7.42E-03,3.25E-03
56415,7.55E-03,3.29E-03
56416,7.65E-03,3.32E-03
56417,7.77E-03,3.36E-03
56418,7.87E-03,3.39E-03
56419,7.91E-03,3.43E-03
56420,7.93E-03,3.46E-03
56421,7.94E-03,3.50E-03
56422,7.92E-03,3.53E-03
56423,7.91E-03,3.56E-03
56424,7.89E-03,3.59E-03
56425,7.87E-03,3.62E-03
56426,7.83E-03,3.65E-03
56427,7.80E-03,3.68E-03
56428,7.76E-03,3.71E-03
56429,7.73E-03,3.74E-03
56430,7.70E-03,3.77E-03
56431,7.68E-03,3.80E-03
56432,7.67E-03,3.83E-03
56433,7.65E-03,3.86E-03
56434,7.63E-03,3.89E-03
56435,7.61E-03,3.91E-03
56436,7.59E-03,3.94E-03
56437,7.57E-03,3.97E-03
56438,7.55E-03,4.00E-03
56439,7.51E-03,4.03E-03
56440,7.48E-03,4.06E-03
56441,7.44E-03,4.08E-03
56442,7.40E-03,4.11E-03
56443,7.36E-03,4.14E-03
56444,7.32E-03,4.17E-03
56445,7.28E-03,4.20E-03
56446,7.24E-03,4.23E-03
56447,7.19E-03,4.26E-03
56448,7.15E-03,4.29E-03
56449,7.10E-03,4.32E-03
56450,7.04E-03,4.36E-03
56451,6.95E-03,4.39E-03
56452,6.85E-03,4.42E-03
56453,6.76E-03,4.45E-03
56454,6.68E-03,4.49E-03
56455,6.63E-03,4.52E-03
56456,6.58E-03,4.56E-03
56457,6.53E-03,4.60E-03
56458,6.50E-03,4.63E-03
56459,6.47E-03,4.67E-03
56460,6.45E-03,4.71E-03
56461,6.43E-03,4.75E-03
56462,6.44E-03,4.79E-03
56463,6.46E-03,4.84E-03
56464,6.48E-03,4.88E-03
56465,6.50E-03,4.93E-03
56466,6.52E-03,4.98E-03
56467,6.54E-03,5.03E-03
56468,6.55E-03,5.08E-03
56469,6.55E-03,5.13E-03
56470,6.56E-03,5.18E-03
56471,6.56E-03,5.24E-03
56472,6.57E-03,5.29E-03
56473,6.57E-03,5.35E-03
56474,6.60E-03,5.41E-03
56475,6.67E-03,5.47E-03
56476,6.78E-03,5.54E-03
56477,6.89E-03,5.60E-03
56478,7.01E-03,5.67E-03
56479,7.11E-03,5.74E-03
56480,7.18E-03,5.81E-03
56481,7.25E-03,5.89E-03
56482,7.32E-03,5.97E-03
56483,7.39E-03,6.04E-03
56484,7.47E-03,6.12E-03
56485,7.57E-03,6.21E-03
56486,7.71E-03,6.29E-03
56487,7.94E-03,6.38E-03
56488,7.97E-03,6.47E-03
56489,8.13E-03,6.56E-03
56490,8.23E-03,6.65E-03
56491,8.47E-03,6.74E-03
56492,8.55E-03,6.84E-03
56493,9.04E-03,6.93E-03
56494,9.58E-03,7.03E-03
56495,9.70E-03,7.13E-03
56496,9.67E-03,7.23E-03
56497,9.72E-03,7.32E-03
56498,9.52E-03,7.41E-03
56499,8.96E-03,7.69E-03
56500,9.42E-03,7.73E-03
56501,9.43E-03,7.80E-03
56502,8.60E-03,7.88E-03
56503,7.92E-03,7.94E-03
56504,6.94E-03,7.97E-03
56505,6.23E-03,8.03E-03
56506,8.55E-03,2.10E-02
56507,9.89E-03,2.10E-02
56508,1.04E-02,2.09E-02
56509,1.04E-02,2.08E-02
56510,1.05E-02,2.08E-02
56511,1.05E-02,2.07E-02
56512,1.01E-02,2.07E-02
56513,9.88E-03,2.06E-02
56514,9.48E-03,2.06E-02
56515,9.20E-03,2.05E-02
56516,8.99E-03,2.05E-02
56517,8.87E-03,2.05E-02
56518,8.77E-03,2.05E-02
56519,8.69E-03,2.04E-02
56520,8.62E-03,2.04E-02
56521,8.55E-03,2.04E-02
56522,8.50E-03,2.04E-02
56523,8.48E-03,2.04E-02
56524,8.48E-03,2.04E-02
56525,8.48E-03,2.04E-02
56526,8.45E-03,2.04E-02
56527,8.38E-03,2.04E-02
56528,8.30E-03,2.04E-02
56529,8.24E-03,2.04E-02
56530,8.20E-03,2.04E-02
56531,8.17E-03,2.05E-02
56532,8.15E-03,2.05E-02
56533,8.15E-03,2.05E-02
56534,8.15E-03,2.05E-02
56535,8.14E-03,2.05E-02
56536,8.14E-03,2.05E-02
56537,8.12E-03,2.05E-02
56538,8.12E-03,2.05E-02
56539,8.09E-03,2.05E-02
56540,8.08E-03,2.05E-02
56541,8.07E-03,2.05E-02
56542,8.05E-03,2.05E-02
56543,8.04E-03,2.05E-02
56544,8.03E-03,2.05E-02
56545,8.04E-03,2.05E-02
56546,8.06E-03,2.04E-02
56547,8.08E-03,2.04E-02
56548,8.10E-03,2.04E-02
56549,8.12E-03,2.03E-02
56550,8.14E-03,2.03E-02
56551,8.16E-03,2.02E-02
56552,8.18E-03,2.02E-02
56553,8.22E-03,2.01E-02
56554,8.26E-03,2.01E-02
56555,8.31E-03,2.00E-02
56556,8.35E-03,1.99E-02
56557,8.37E-03,1.99E-02
56558,8.39E-03,1.98E-02
56559,8.41E-03,1.98E-02
56560,8.43E-03,1.97E-02
56561,8.45E-03,1.96E-02
56562,8.48E-03,1.96E-02
56563,8.51E-03,1.95E-02
56564,8.54E-03,1.94E-02
56565,8.58E-03,1.93E-02
56566,8.64E-03,1.93E-02
56567,8.70E-03,1.92E-02
56568,8.77E-03,1.91E-02
56569,8.80E-03,1.90E-02
56570,8.81E-03,1.90E-02
56571,8.80E-03,1.89E-02
56572,8.77E-03,1.88E-02
56573,8.75E-03,1.87E-02
56574,8.73E-03,1.87E-02
56575,8.71E-03,1.86E-02
56576,8.68E-03,1.85E-02
56577,8.66E-03,1.84E-02
56578,8.66E-03,1.84E-02
56579,8.67E-03,1.83E-02
56580,8.60E-03,1.82E-02
56581,8.45E-03,1.82E-02
56582,8.28E-03,1.81E-02
56583,8.11E-03,1.81E-02
56584,8.00E-03,1.80E-02
56585,8.00E-03,1.80E-02
56586,8.04E-03,1.80E-02
56587,8.01E-03,1.80E-02
56588,7.93E-03,1.79E-02
56589,7.86E-03,1.79E-02
56590,7.80E-03,1.79E-02
56591,7.74E-03,1.79E-02
56592,7.67E-03,1.79E-02
56593,7.57E-03,1.78E-02
56594,7.47E-03,1.78E-02
56595,7.38E-03,1.78E-02
56596,7.32E-03,1.77E-02
56597,7.28E-03,1.77E-02
56598,7.24E-03,1.76E-02
56599,7.21E-03,1.76E-02
56600,7.19E-03,1.75E-02
56601,7.17E-03,1.74E-02
56602,7.14E-03,1.73E-02
56603,7.10E-03,1.72E-02
56604,7.05E-03,1.71E-02
56605,7.01E-03,1.70E-02
56606,7.01E-03,1.69E-02
56607,7.03E-03,1.67E-02
56608,7.06E-03,1.66E-02
56609,7.08E-03,1.65E-02
56610,7.11E-03,1.63E-02
56611,7.14E-03,1.62E-02
56612,7.17E-03,1.60E-02
56613,7.20E-03,1.59E-02
56614,7.23E-03,1.57E-02
56615,7.25E-03,1.56E-02
56616,7.26E-03,1.54E-02
56617,7.27E-03,1.53E-02
56618,7.29E-03,1.51E-02
56619,7.30E-03,1.49E-02
56620,7.31E-03,1.48E-02
56621,7.31E-03,1.46E-02
56622,7.30E-03,1.45E-02
56623,7.27E-03,1.44E-02
56624,7.25E-03,1.42E-02
56625,7.22E-03,1.41E-02
56626,7.19E-03,1.39E-02
56627,7.16E-03,1.38E-02
56628,7.12E-03,1.37E-02
56629,7.06E-03,1.35E-02
56630,6.99E-03,1.34E-02
56631,6.91E-03,1.33E-02
56632,6.84E-03,1.32E-02
56633,6.78E-03,1.31E-02
56634,6.75E-03,1.29E-02
56635,6.79E-03,1.28E-02
56636,6.82E-03,1.27E-02
56637,6.78E-03,1.26E-02
56638,6.78E-03,1.25E-02
56639,7.54E-03,1.24E-02
56640,7.94E-03,1.23E-02
56641,8.55E-03,1.21E-02
56642,8.73E-03,1.20E-02
56643,1.01E-02,1.18E-02
56644,1.04E-02,1.17E-02
56645,1.05E-02,1.15E-02
56646,1.07E-02,1.13E-02
56647,1.07E-02,1.11E-02
56648,1.07E-02,1.09E-02
56649,1.06E-02,1.08E-02
56650,1.05E-02,1.06E-02
56651,1.04E-02,1.04E-02
56652,1.03E-02,1.02E-02
56653,1.02E-02,1.00E-02
56654,1.01E-02,9.84E-03
56655,9.94E-03,9.66E-03
56656,9.82E-03,9.48E-03
56657,9.65E-03,9.31E-03
56658,9.02E-03,9.15E-03
56659,7.50E-03,9.01E-03
56660,7.20E-03,8.89E-03
56661,7.10E-03,8.77E-03
56662,6.91E-03,8.66E-03
56663,6.76E-03,8.55E-03
56664,6.48E-03,8.45E-03
56665,6.14E-03,8.37E-03
56666,5.50E-03,8.29E-03
56667,4.98E-03,8.21E-03
56668,4.00E-03,8.08E-03
56669,4.25E-03,8.04E-03
56670,5.09E-03,8.02E-03
56671,6.76E-03,1.33E-02
56672,6.51E-03,1.33E-02
56673,5.99E-03,1.33E-02
56674,5.42E-03,1.33E-02
56675,3.19E-03,1.34E-02
56676,3.73E-03,1.34E-02
56677,4.03E-03,1.34E-02
56678,4.47E-03,1.34E-02
56679,4.89E-03,1.34E-02
56680,5.04E-03,1.34E-02
56681,5.39E-03,1.33E-02
56682,5.82E-03,1.33E-02
56683,6.38E-03,1.32E-02
56684,6.67E-03,1.32E-02
56685,6.88E-03,1.31E-02
56686,7.06E-03,1.31E-02
56687,7.22E-03,1.30E-02
56688,7.33E-03,1.29E-02
56689,7.39E-03,1.28E-02
56690,7.45E-03,1.27E-02
56691,7.51E-03,1.26E-02
56692,7.57E-03,1.25E-02
56693,7.63E-03,1.24E-02
56694,7.69E-03,1.23E-02
56695,7.75E-03,1.22E-02
56696,7.78E-03,1.21E-02
56697,7.79E-03,1.19E-02
56698,7.81E-03,1.18E-02
56699,7.82E-03,1.17E-02
56700,7.84E-03,1.15E-02
56701,7.85E-03,1.14E-02
56702,7.86E-03,1.12E-02
56703,7.88E-03,1.11E-02
56704,7.89E-03,1.09E-02
56705,7.90E-03,1.08E-02
56706,7.92E-03,1.06E-02
56707,7.93E-03,1.05E-02
56708,7.93E-03,1.03E-02
56709,7.94E-03,1.01E-02
56710,7.95E-03,9.98E-03
56711,7.96E-03,9.82E-03
56712,7.97E-03,9.67E-03
56713,7.98E-03,9.53E-03
56714,7.98E-03,9.40E-03
56715,7.99E-03,9.27E-03
56716,8.00E-03,9.15E-03
56717,8.00E-03,9.05E-03
56718,8.01E-03,8.95E-03
56719,8.01E-03,8.87E-03
56720,8.01E-03,8.80E-03
56721,8.01E-03,8.75E-03
56722,8.01E-03,8.71E-03
56723,8.01E-03,8.69E-03
56724,8.01E-03,8.68E-03
56725,8.01E-03,8.69E-03
56726,8.01E-03,8.71E-03
56727,8.00E-03,8.74E-03
56728,7.99E-03,8.79E-03
56729,7.98E-03,8.85E-03
56730,7.97E-03,8.93E-03
56731,7.96E-03,9.01E-03
56732,7.95E-03,9.11E-03
56733,7.94E-03,9.21E-03
56734,7.93E-03,9.32E-03
56735,7.92E-03,9.44E-03
56736,7.91E-03,9.57E-03
56737,7.90E-03,9.70E-03
56738,7.88E-03,9.84E-03
56739,7.85E-03,9.98E-03
56740,7.83E-03,1.01E-02
56741,7.80E-03,1.03E-02
56742,7.78E-03,1.04E-02
56743,7.75E-03,1.06E-02
56744,7.73E-03,1.07E-02
56745,7.70E-03,1.09E-02
56746,7.68E-03,1.10E-02
56747,7.66E-03,1.12E-02
56748,7.65E-03,1.14E-02
56749,7.63E-03,1.15E-02
56750,7.61E-03,1.17E-02
56751,7.60E-03,1.18E-02
56752,7.58E-03,1.20E-02
56753,7.55E-03,1.21E-02
56754,7.53E-03,1.23E-02
56755,7.50E-03,1.24E-02
56756,7.48E-03,1.26E-02
56757,7.45E-03,1.27E-02
56758,7.41E-03,1.29E-02
56759,7.36E-03,1.30E-02
56760,7.31E-03,1.31E-02
56761,7.26E-03,1.33E-02
56762,7.21E-03,1.34E-02
56763,7.19E-03,1.36E-02
56764,7.18E-03,1.37E-02
56765,7.17E-03,1.38E-02
56766,7.18E-03,1.40E-02
56767,7.19E-03,1.41E-02
56768,7.21E-03,1.42E-02
56769,7.23E-03,1.43E-02
56770,7.25E-03,1.45E-02
56771,7.26E-03,1.46E-02
56772,7.27E-03,1.47E-02
56773,7.28E-03,1.49E-02
56774,7.30E-03,1.50E-02
56775,7.31E-03,1.51E-02
56776,7.32E-03,1.52E-02
56777,7.33E-03,1.54E-02
56778,7.34E-03,1.55E-02
56779,7.35E-03,1.56E-02
56780,7.37E-03,1.57E-02
56781,7.38E-03,1.59E-02
56782,7.39E-03,1.60E-02
56783,7.40E-03,1.61E-02
56784,7.41E-03,1.63E-02
56785,7.41E-03,1.64E-02
56786,7.41E-03,1.65E-02
56787,7.43E-03,1.67E-02
56788,7.47E-03,1.68E-02
56789,7.51E-03,1.69E-02
56790,7.56E-03,1.71E-02
56791,7.59E-03,1.72E-02
56792,7.60E-03,1.73E-02
56793,7.59E-03,1.75E-02
56794,7.63E-03,1.76E-02
56795,7.75E-03,1.77E-02
56796,8.02E-03,1.79E-02
56797,8.09E-03,1.16E-02
56798,8.09E-03,1.15E-02
56799,8.09E-03,1.13E-02
56800,8.09E-03,1.12E-02
56801,8.09E-03,1.10E-02
56802,8.09E-03,1.09E-02
56803,8.09E-03,1.07E-02
56804,8.09E-03,1.06E-02
56805,8.09E-03,1.04E-02
56806,8.09E-03,1.02E-02
56807,8.09E-03,1.01E-02
56808,8.09E-03,9.91E-03
56809,8.09E-03,9.74E-03
56810,8.09E-03,9.58E-03
56811,8.09E-03,9.41E-03
56812,8.09E-03,9.24E-03
56813,8.09E-03,9.06E-03
56814,8.09E-03,8.89E-03
56815,8.09E-03,8.72E-03
56816,8.09E-03,8.54E-03
56817,8.09E-03,8.37E-03
56818,8.09E-03,8.19E-03
56819,8.09E-03,8.02E-03
56820,8.09E-03,7.84E-03
56821,8.09E-03,7.67E-03
56822,8.09E-03,7.49E-03
56823,8.09E-03,7.32E-03
56824,8.09E-03,7.14E-03
56825,8.09E-03,6.97E-03
56826,8.09E-03,6.80E-03
56827,8.09E-03,6.63E-03
56828,8.09E-03,6.46E-03
56829,8.09E-03,6.29E-03
56830,8.09E-03,6.13E-03
56831,8.09E-03,5.97E-03
56832,8.09E-03,5.81E-03
56833,8.09E-03,5.66E-03
56834,8.09E-03,5.52E-03
56835,8.09E-03,5.38E-03
56836,8.09E-03,5.24E-03
56837,8.09E-03,5.12E-03
56838,8.09E-03,5.00E-03
56839,8.09E-03,4.89E-03
56840,8.09E-03,4.79E-03
56841,8.09E-03,4.69E-03
56842,8.09E-03,4.61E-03
56843,8.09E-03,4.55E-03
56844,8.09E-03,4.49E-03
56845,8.09E-03,4.45E-03
56846,8.09E-03,4.42E-03
56847,8.09E-03,4.40E-03
56848,8.09E-03,4.40E-03
56849,8.09E-03,4.42E-03
56850,8.09E-03,4.45E-03
56851,8.09E-03,4.49E-03
56852,8.09E-03,4.55E-03
56853,8.09E-03,4.62E-03
56854,8.09E-03,4.70E-03
56855,8.09E-03,4.80E-03
56856,8.09E-03,4.90E-03
56857,8.09E-03,5.02E-03
56858,8.09E-03,5.15E-03
56859,8.09E-03,5.29E-03
56860,8.09E-03,5.44E-03
56861,8.09E-03,5.60E-03
56862,8.09E-03,5.76E-03
56863,8.09E-03,5.93E-03
56864,8.09E-03,6.11E-03
56865,8.09E-03,6.30E-03
56866,8.09E-03,6.49E-03
56867,8.09E-03,6.68E-03
56868,8.09E-03,6.88E-03
56869,8.09E-03,7.08E-03
56870,8.09E-03,7.29E-03
56871,8.09E-03,7.50E-03
56872,8.09E-03,7.71E-03
56873,8.09E-03,7.93E-03
56874,8.09E-03,8.15E-03
56875,8.09E-03,8.37E-03
56876,8.09E-03,8.59E-03
56877,8.09E-03,8.82E-03
56878,8.09E-03,9.05E-03
56879,8.09E-03,9.27E-03
56880,8.09E-03,9.51E-03
56881,8.09E-03,9.74E-03
56882,8.09E-03,9.97E-03
56883,8.09E-03,1.02E-02
56884,8.09E-03,1.04E-02
56885,8.09E-03,1.07E-02
56886,8.09E-03,1.09E-02
56887,8.09E-03,1.11E-02
56888,8.09E-03,1.14E-02
56889,8.09E-03,1.16E-02
56890,8.00E-03,1.18E-02
56891,7.92E-03,1.21E-02
56892,7.81E-03,1.23E-02
56893,7.84E-03,1.25E-02
56894,7.96E-03,1.27E-02
56895,8.38E-03,1.30E-02
56896,9.52E-03,1.32E-02
56897,8.63E-03,1.34E-02
56898,7.64E-03,1.40E-02
56899,7.71E-03,9.63E-03
56900,7.69E-03,9.21E-03
56901,7.68E-03,8.84E-03
56902,7.70E-03,8.49E-03
56903,7.85E-03,8.16E-03
56904,8.86E-03,7.76E-03
56905,1.01E-02,7.29E-03
56906,7.57E-03,6.93E-03
56907,8.15E-03,4.68E-03
56908,1.02E-02,1.46E-02
56909,1.05E-02,7.43E-03
56910,6.14E-03,2.13E-02
56911,6.65E-03,2.98E-02
56912,6.74E-03,2.93E-02
56913,7.24E-03,2.88E-02
56914,5.56E-03,2.85E-02
56915,8.10E-03,1.40E-02
56916,8.10E-03,1.41E-02
56917,5.32E-03,2.79E-02
56918,6.45E-03,2.18E-02
56919,7.06E-03,2.26E-02
56920,7.80E-03,2.29E-02
56921,8.03E-03,2.34E-02
56922,7.48E-03,1.21E-02
56923,8.15E-03,1.25E-02
56924,7.00E-03,3.47E-02
56925,7.45E-03,3.64E-02
56926,7.08E-03,3.70E-02
56927,7.85E-03,3.95E-02
56928,8.09E-03,4.07E-02
56929,9.45E-03,5.62E-03
56930,8.10E-03,1.30E-02
56931,5.79E-03,9.54E-03
56932,7.15E-03,1.22E-02
56933,9.34E-03,1.44E-02
56934,7.33E-03,1.00E-02
56935,8.10E-03,1.18E-02
56936,6.71E-03,3.06E-02
56937,8.10E-03,1.38E-02
56938,8.10E-03,1.40E-02
56939,9.68E-03,2.05E-02
56940,6.87E-03,2.12E-02
56941,8.57E-03,4.10E-02
56942,8.45E-03,4.16E-02
56943,1.09E-02,1.33E-02
56944,8.10E-03,1.31E-02
56945,8.63E-03,2.17E-02
56946,1.05E-02,2.17E-02
56947,8.10E-03,1.37E-02
56948,8.10E-03,1.40E-02
56949,7.13E-03,3.16E-02
56950,6.93E-03,3.21E-02
56951,8.10E-03,1.32E-02
56952,8.10E-03,1.19E-02
56953,8.10E-03,1.35E-02
56954,8.10E-03,1.39E-02
56955,8.10E-03,1.33E-02
56956,8.10E-03,1.21E-02
56957,8.10E-03,1.34E-02
56958,8.10E-03,1.39E-02
56959,8.10E-03,1.23E-02
56960,8.10E-03,1.34E-02
56961,8.10E-03,1.32E-02
56962,8.10E-03,1.38E-02
56963,8.10E-03,1.35E-02
56964,8.10E-03,1.24E-02
56965,8.10E-03,1.31E-02
56966,8.10E-03,1.37E-02
56967,8.10E-03,1.35E-02
56968,8.10E-03,1.26E-02
56969,8.10E-03,1.29E-02
56970,8.10E-03,1.36E-02
56971,8.10E-03,1.28E-02
56972,6.22E-03,1.14E-02
56973,6.06E-03,1.17E-02
56974,9.85E-03,1.42E-02
56975,8.29E-03,1.43E-02
56976,9.30E-03,1.48E-02
56977,8.25E-03,1.45E-02
56978,7.59E-03,2.16E-02
56979,7.88E-03,2.15E-02
56980,9.03E-03,2.14E-02
56981,8.20E-03,2.14E-02
56982,5.37E-03,1.83E-02
56983,6.69E-03,1.84E-02
56984,5.85E-03,1.85E-02
56985,4.17E-03,1.86E-02
56986,3.72E-03,1.87E-02
56987,3.53E-03,1.88E-02
56988,3.50E-03,1.88E-02
56989,3.50E-03,1.89E-02
56990,3.41E-03,1.89E-02
56991,3.51E-03,1.90E-02
56992,3.59E-03,1.90E-02
56993,3.63E-03,1.91E-02
56994,3.61E-03,1.91E-02
56995,3.56E-03,1.92E-02
56996,3.51E-03,1.92E-02
56997,3.49E-03,1.93E-02
56998,3.52E-03,1.93E-02
56999,3.55E-03,1.94E-02
57000,4.06E-03,1.94E-02
57001,4.64E-03,1.95E-02
57002,4.82E-03,1.95E-02
57003,5.03E-03,1.96E-02
57004,5.33E-03,1.96E-02
57005,5.61E-03,1.97E-02
57006,5.89E-03,1.97E-02
57007,6.17E-03,1.98E-02
57008,6.40E-03,1.98E-02
57009,6.64E-03,1.99E-02
57010,6.83E-03,2.00E-02
57011,7.94E-03,2.00E-02
57012,8.07E-03,2.01E-02
57013,8.41E-03,2.02E-02
57014,8.57E-03,2.03E-02
57015,8.73E-03,2.03E-02
57016,9.85E-03,2.04E-02
57017,9.88E-03,2.05E-02
57018,1.01E-02,2.07E-02
57019,1.04E-02,2.08E-02
57020,1.09E-02,2.09E-02
57021,1.14E-02,2.11E-02
57022,1.17E-02,2.13E-02
57023,6.85E-03,1.52E-02
57024,6.88E-03,1.53E-02
57025,6.71E-03,1.53E-02
57026,6.89E-03,1.55E-02
57027,6.61E-03,1.57E-02
57028,5.61E-03,1.57E-02
57029,5.20E-03,1.57E-02
57030,5.09E-03,1.57E-02
57031,5.43E-03,1.57E-02
57032,5.84E-03,1.57E-02
57033,5.95E-03,1.57E-02
57034,6.11E-03,1.57E-02
57035,6.30E-03,1.57E-02
57036,6.48E-03,1.57E-02
57037,6.49E-03,1.56E-02
57038,6.52E-03,1.56E-02
57039,6.50E-03,1.55E-02
57040,6.38E-03,1.55E-02
57041,6.50E-03,1.54E-02
57042,6.99E-03,1.53E-02
57043,7.43E-03,1.53E-02
57044,7.63E-03,1.52E-02
57045,7.88E-03,1.51E-02
57046,8.26E-03,1.49E-02
57047,8.62E-03,1.48E-02
57048,8.96E-03,1.47E-02
57049,9.33E-03,1.46E-02
57050,9.75E-03,1.44E-02
57051,1.00E-02,1.43E-02
57052,1.01E-02,1.41E-02
57053,9.94E-03,1.39E-02
57054,9.81E-03,1.38E-02
57055,9.68E-03,1.36E-02
57056,9.57E-03,1.35E-02
57057,9.40E-03,1.33E-02
57058,9.33E-03,1.32E-02
57059,9.27E-03,1.31E-02
57060,1.08E-02,1.28E-02
57061,9.50E-03,1.29E-02
57062,6.78E-03,3.56E-02
57063,7.34E-03,3.67E-02
57064,7.33E-03,3.61E-02
57065,6.97E-03,1.53E-02
57066,6.90E-03,1.52E-02
57067,7.47E-03,1.36E-02
57068,8.03E-03,1.35E-02
57069,8.95E-03,1.45E-02
57070,8.16E-03,1.47E-02
57071,7.20E-03,1.52E-02
57072,7.37E-03,1.50E-02
57073,8.10E-03,1.40E-02
57074,8.10E-03,1.41E-02
57075,7.12E-03,2.75E-02
57076,7.24E-03,2.70E-02
57077,7.76E-03,2.64E-02
57078,8.13E-03,2.58E-02
57079,8.34E-03,2.52E-02
57080,8.38E-03,2.45E-02
57081,8.58E-03,2.39E-02
57082,1.06E-02,2.00E-02
57083,1.02E-02,1.94E-02
57084,1.03E-02,1.88E-02
57085,8.05E-03,1.83E-02
57086,8.14E-03,1.78E-02
57087,8.13E-03,1.73E-02
57088,8.00E-03,1.68E-02
57089,8.00E-03,1.63E-02
57090,8.00E-03,1.59E-02
57091,8.00E-03,1.54E-02
57092,8.01E-03,1.49E-02
57093,8.00E-03,1.44E-02
57094,8.34E-03,1.39E-02
57095,8.35E-03,1.35E-02
57096,8.37E-03,1.30E-02
57097,9.03E-03,3.27E-02
57098,8.57E-03,3.32E-02
57099,7.76E-03,3.37E-02
57100,6.59E-03,3.41E-02
57101,6.46E-03,3.44E-02
57102,7.50E-03,3.68E-02
57103,7.14E-03,3.85E-02
57104,7.58E-03,3.90E-02
57105,8.29E-03,1.47E-02
57106,8.32E-03,1.48E-02
57107,8.39E-03,1.48E-02
57108,8.32E-03,1.49E-02
57109,8.37E-03,1.49E-02
57110,8.38E-03,1.49E-02
57111,7.32E-03,1.49E-02
57112,6.83E-03,1.50E-02
57113,6.63E-03,1.51E-02
57114,6.38E-03,1.51E-02
57115,6.05E-03,1.53E-02
57116,5.91E-03,1.54E-02
57117,6.03E-03,1.56E-02
57118,6.27E-03,1.57E-02
57119,6.45E-03,1.59E-02
57120,6.55E-03,1.62E-02
57121,6.64E-03,1.65E-02
57122,6.73E-03,1.68E-02
57123,6.82E-03,1.71E-02
57124,6.86E-03,1.75E-02
57125,6.85E-03,1.79E-02
57126,6.84E-03,1.84E-02
57127,6.82E-03,1.89E-02
57128,6.80E-03,1.94E-02
57129,6.77E-03,1.99E-02
57130,6.74E-03,2.05E-02
57131,6.66E-03,2.11E-02
57132,6.51E-03,2.17E-02
57133,6.33E-03,2.23E-02
57134,6.12E-03,2.29E-02
57135,5.82E-03,2.35E-02
57136,5.46E-03,2.40E-02
57137,5.15E-03,2.46E-02
57138,4.96E-03,2.51E-02
57139,4.87E-03,2.56E-02
57140,4.78E-03,2.61E-02
57141,4.73E-03,2.66E-02
57142,4.71E-03,2.71E-02
57143,4.69E-03,2.76E-02
57144,4.78E-03,2.81E-02
57145,5.03E-03,2.86E-02
57146,5.36E-03,2.91E-02
57147,5.67E-03,2.97E-02
57148,5.93E-03,3.03E-02
57149,6.14E-03,3.08E-02
57150,6.35E-03,3.14E-02
57151,6.53E-03,3.20E-02
57152,6.63E-03,3.26E-02
57153,6.67E-03,3.32E-02
57154,6.70E-03,3.38E-02
57155,6.74E-03,3.44E-02
57156,6.77E-03,3.49E-02
57157,6.77E-03,3.55E-02
57158,6.74E-03,3.60E-02
57159,6.71E-03,3.65E-02
57160,6.68E-03,3.70E-02
57161,6.64E-03,3.75E-02
57162,6.50E-03,3.79E-02
57163,6.17E-03,3.83E-02
57164,5.87E-03,3.87E-02
57165,5.74E-03,3.91E-02
57166,5.60E-03,3.94E-02
57167,5.58E-03,3.97E-02
57168,5.84E-03,4.00E-02
57169,6.19E-03,4.03E-02
57170,6.46E-03,4.05E-02
57171,6.66E-03,4.08E-02
57172,6.90E-03,4.10E-02
57173,7.20E-03,4.11E-02
57174,7.50E-03,4.13E-02
57175,7.70E-03,4.14E-02
57176,7.81E-03,4.15E-02
57177,7.89E-03,4.15E-02
57178,7.98E-03,4.16E-02
57179,8.16E-03,4.15E-02
57180,8.18E-03,4.15E-02
57181,8.39E-03,4.14E-02
57182,8.28E-03,4.12E-02
57183,8.29E-03,4.11E-02
57184,8.13E-03,4.09E-02
57185,9.62E-03,4.94E-03
57186,9.53E-03,5.27E-03
57187,9.76E-03,1.34E-02
57188,9.59E-03,1.34E-02
57189,9.54E-03,1.35E-02
57190,9.56E-03,1.35E-02
57191,9.52E-03,1.35E-02
57192,9.57E-03,1.35E-02
57193,9.40E-03,1.36E-02
57194,9.11E-03,1.36E-02
57195,9.01E-03,1.36E-02
57196,8.71E-03,1.37E-02
57197,8.53E-03,1.37E-02
57198,8.43E-03,1.38E-02
57199,8.20E-03,1.38E-02
57200,8.11E-03,1.38E-02
57201,8.11E-03,1.39E-02
57202,7.92E-03,1.39E-02
57203,7.56E-03,1.40E-02
57204,7.28E-03,1.40E-02
57205,7.25E-03,1.40E-02
57206,7.27E-03,1.41E-02
57207,7.24E-03,1.41E-02
57208,7.24E-03,1.41E-02
57209,7.26E-03,1.42E-02
57210,7.28E-03,1.42E-02
57211,7.30E-03,1.42E-02
57212,7.30E-03,1.42E-02
57213,7.30E-03,1.42E-02
57214,7.32E-03,1.43E-02
57215,7.41E-03,1.43E-02
57216,7.55E-03,1.43E-02
57217,7.80E-03,1.43E-02
57218,8.10E-03,1.43E-02
57219,8.51E-03,1.43E-02
57220,8.61E-03,1.43E-02
57221,8.74E-03,1.43E-02
57222,8.93E-03,1.43E-02
57223,9.12E-03,1.43E-02
57224,1.03E-02,1.43E-02
57225,8.09E-03,1.28E-02
57226,8.09E-03,1.26E-02
57227,8.09E-03,1.25E-02
57228,8.09E-03,1.23E-02
57229,8.09E-03,1.21E-02
57230,8.09E-03,1.20E-02
57231,8.09E-03,1.18E-02
57232,8.09E-03,1.16E-02
57233,8.09E-03,1.14E-02
57234,8.09E-03,1.12E-02
57235,8.09E-03,1.10E-02
57236,8.09E-03,1.08E-02
57237,8.00E-03,1.07E-02
57238,7.93E-03,1.05E-02
57239,7.80E-03,1.03E-02
57240,7.74E-03,1.01E-02
57241,7.55E-03,9.88E-03
57242,7.85E-03,9.68E-03
57243,6.03E-03,9.42E-03
57244,6.82E-03,9.20E-03
57245,7.57E-03,9.01E-03
57246,7.87E-03,8.82E-03
57247,8.05E-03,8.62E-03
57248,8.14E-03,8.42E-03
57249,8.09E-03,8.20E-03
57250,8.09E-03,7.99E-03
57251,8.09E-03,7.78E-03
57252,8.09E-03,7.57E-03
57253,8.09E-03,7.36E-03
57254,8.09E-03,7.15E-03
57255,8.09E-03,6.94E-03
57256,8.09E-03,6.74E-03
57257,8.09E-03,6.54E-03
57258,8.09E-03,6.33E-03
57259,8.09E-03,6.14E-03
57260,8.09E-03,5.94E-03
57261,8.09E-03,5.75E-03
57262,8.09E-03,5.56E-03
57263,8.09E-03,5.38E-03
57264,8.09E-03,5.20E-03
57265,8.09E-03,5.03E-03
57266,8.09E-03,4.87E-03
57267,8.09E-03,4.71E-03
57268,8.09E-03,4.56E-03
57269,8.09E-03,4.42E-03
57270,8.09E-03,4.29E-03
57271,8.09E-03,4.18E-03
57272,8.09E-03,4.07E-03
57273,8.09E-03,3.98E-03
57274,8.09E-03,3.90E-03
57275,8.09E-03,3.84E-03
57276,8.09E-03,3.79E-03
57277,8.09E-03,3.76E-03
57278,8.09E-03,3.74E-03
57279,8.09E-03,3.74E-03
57280,8.09E-03,3.76E-03
57281,8.09E-03,3.79E-03
57282,8.09E-03,3.84E-03
57283,8.09E-03,3.90E-03
57284,8.09E-03,3.97E-03
57285,8.09E-03,4.06E-03
57286,8.09E-03,4.16E-03
57287,8.09E-03,4.27E-03
57288,8.09E-03,4.39E-03
57289,8.09E-03,4.51E-03
57290,8.09E-03,4.65E-03
57291,8.09E-03,4.79E-03
57292,8.09E-03,4.94E-03
57293,8.09E-03,5.09E-03
57294,8.09E-03,5.24E-03
57295,8.09E-03,5.40E-03
57296,8.09E-03,5.56E-03
57297,8.09E-03,5.73E-03
57298,8.09E-03,5.90E-03
57299,8.09E-03,6.07E-03
57300,8.09E-03,6.24E-03
57301,8.09E-03,6.41E-03
57302,8.09E-03,6.58E-03
57303,8.09E-03,6.75E-03
57304,8.09E-03,6.93E-03
57305,8.09E-03,7.10E-03
57306,8.09E-03,7.27E-03
57307,8.09E-03,7.45E-03
57308,8.09E-03,7.62E-03
57309,8.09E-03,7.79E-03
57310,8.09E-03,7.96E-03
57311,8.09E-03,8.13E-03
57312,8.09E-03,8.30E-03
57313,8.09E-03,8.47E-03
57314,8.09E-03,8.64E-03
57315,8.09E-03,8.81E-03
57316,8.09E-03,8.97E-03
57317,8.09E-03,9.14E-03
57318,8.09E-03,9.30E-03
57319,8.09E-03,9.46E-03
57320,8.09E-03,9.62E-03
57321,8.09E-03,9.78E-03
57322,8.09E-03,9.94E-03
57323,8.09E-03,1.01E-02
57324,8.09E-03,1.03E-02
57325,8.09E-03,1.04E-02
57326,8.09E-03,1.06E-02
57327,8.09E-03,1.07E-02
57328,8.09E-03,1.09E-02
57329,8.09E-03,1.10E-02
57330,7.99E-03,1.12E-02
57331,7.85E-03,1.13E-02
57332,7.70E-03,1.14E-02
57333,7.54E-03,1.16E-02
57334,7.47E-03,1.17E-02
57335,7.36E-03,1.19E-02
57336,7.26E-03,1.20E-02
57337,7.25E-03,1.21E-02
57338,7.34E-03,1.21E-02
57339,7.27E-03,1.20E-02
57340,7.26E-03,1.19E-02
57341,7.18E-03,1.18E-02
57342,7.17E-03,1.17E-02
57343,6.95E-03,1.17E-02
57344,6.98E-03,1.16E-02
57345,6.62E-03,1.15E-02
57346,6.61E-03,1.15E-02
57347,6.63E-03,1.14E-02
57348,6.60E-03,1.13E-02
57349,6.52E-03,1.13E-02
57350,6.44E-03,1.12E-02
57351,6.36E-03,1.12E-02
57352,6.29E-03,1.11E-02
57353,6.22E-03,1.10E-02
57354,6.15E-03,1.10E-02
57355,6.06E-03,1.09E-02
57356,5.94E-03,1.09E-02
57357,5.80E-03,1.08E-02
57358,5.68E-03,1.08E-02
57359,5.59E-03,1.08E-02
57360,5.54E-03,1.07E-02
57361,5.49E-03,1.07E-02
57362,5.45E-03,1.06E-02
57363,5.45E-03,1.06E-02
57364,5.47E-03,1.05E-02
57365,5.50E-03,1.05E-02
57366,5.62E-03,1.05E-02
57367,5.84E-03,1.04E-02
57368,6.07E-03,1.04E-02
57369,6.28E-03,1.03E-02
57370,6.44E-03,1.03E-02
57371,6.57E-03,1.03E-02
57372,6.70E-03,1.02E-02
57373,6.85E-03,1.02E-02
57374,7.03E-03,1.01E-02
57375,7.22E-03,1.01E-02
57376,7.36E-03,1.01E-02
57377,7.46E-03,1.00E-02
57378,7.52E-03,9.99E-03
57379,7.56E-03,9.96E-03
57380,7.64E-03,9.93E-03
57381,7.76E-03,9.90E-03
57382,7.88E-03,9.87E-03
57383,7.98E-03,9.84E-03
57384,8.06E-03,9.82E-03
57385,8.12E-03,9.80E-03
57386,8.14E-03,9.78E-03
57387,8.15E-03,9.76E-03
57388,8.17E-03,9.75E-03
57389,8.22E-03,9.74E-03
57390,8.28E-03,9.73E-03
57391,8.33E-03,9.72E-03
57392,8.38E-03,9.72E-03
57393,8.43E-03,9.72E-03
57394,8.48E-03,9.72E-03
57395,8.52E-03,9.72E-03
57396,8.55E-03,9.73E-03
57397,8.59E-03,9.74E-03
57398,8.64E-03,9.76E-03
57399,8.70E-03,9.77E-03
57400,8.75E-03,9.79E-03
57401,8.83E-03,9.82E-03
57402,8.94E-03,9.84E-03
57403,9.08E-03,9.87E-03
57404,9.20E-03,9.91E-03
57405,9.30E-03,9.95E-03
57406,9.37E-03,1.00E-02
57407,9.44E-03,1.00E-02
57408,9.51E-03,1.01E-02
57409,9.58E-03,1.02E-02
57410,9.65E-03,1.02E-02
57411,9.73E-03,1.03E-02
57412,9.83E-03,1.04E-02
57413,9.93E-03,1.05E-02
57414,1.00E-02,1.05E-02
57415,1.01E-02,1.06E-02
57416,1.02E-02,1.07E-02
57417,1.04E-02,1.09E-02
57418,1.06E-02,1.10E-02
57419,1.06E-02,1.11E-02
57420,1.07E-02,1.12E-02
57421,1.09E-02,1.14E-02
57422,1.11E-02,1.15E-02
57423,1.13E-02,1.17E-02
57424,1.12E-02,1.18E-02
57425,1.11E-02,1.20E-02
57426,1.10E-02,1.21E-02
57427,1.08E-02,1.23E-02
57428,8.39E-03,1.27E-02
57429,1.20E-02,1.26E-02
57430,7.65E-03,2.16E-02
57431,7.99E-03,2.17E-02
57432,9.75E-03,1.44E-02
57433,1.01E-02,1.44E-02
57434,1.01E-02,1.44E-02
57435,1.01E-02,1.44E-02
57436,9.55E-03,1.45E-02
57437,9.30E-03,1.45E-02
57438,9.09E-03,1.46E-02
57439,9.33E-03,1.46E-02
57440,7.04E-03,4.09E-03
57441,7.41E-03,4.02E-03
57442,7.06E-03,3.92E-03
57443,6.78E-03,3.83E-03
57444,6.35E-03,3.74E-03
57445,5.83E-03,3.65E-03
57446,5.31E-03,3.59E-03
57447,4.56E-03,3.54E-03
57448,3.70E-03,3.50E-03
57449,3.29E-03,3.47E-03
57450,3.26E-03,3.44E-03
57451,3.28E-03,3.41E-03
57452,3.98E-03,3.39E-03
57453,4.72E-03,3.36E-03
57454,5.23E-03,3.35E-03
57455,5.39E-03,3.32E-03
57456,5.91E-03,3.31E-03
57457,6.39E-03,3.29E-03
57458,7.25E-03,3.26E-03
57459,7.49E-03,3.24E-03
57460,7.69E-03,3.22E-03
57461,9.75E-03,3.20E-03
57462,9.74E-03,3.17E-03
57463,9.26E-03,3.13E-03
57464,8.84E-03,3.10E-03
57465,8.40E-03,3.06E-03
57466,8.08E-03,3.02E-03
57467,7.67E-03,2.99E-03
57468,7.15E-03,2.96E-03
57469,6.87E-03,2.93E-03
57470,6.79E-03,2.90E-03
57471,6.71E-03,2.88E-03
57472,6.63E-03,2.85E-03
57473,6.52E-03,2.83E-03
57474,6.39E-03,2.81E-03
57475,6.25E-03,2.79E-03
57476,6.11E-03,2.78E-03
57477,5.96E-03,2.76E-03
57478,5.78E-03,2.75E-03
57479,5.60E-03,2.74E-03
57480,5.42E-03,2.73E-03
57481,5.28E-03,2.73E-03
57482,5.17E-03,2.72E-03
57483,5.06E-03,2.72E-03
57484,4.92E-03,2.72E-03
57485,4.69E-03,2.72E-03
57486,4.42E-03,2.72E-03
57487,4.15E-03,2.72E-03
57488,4.00E-03,2.73E-03
57489,4.02E-03,2.74E-03
57490,4.21E-03,2.75E-03
57491,4.50E-03,2.76E-03
57492,4.75E-03,2.78E-03
57493,5.05E-03,2.80E-03
57494,5.17E-03,2.81E-03
57495,5.41E-03,2.84E-03
57496,5.73E-03,2.86E-03
57497,6.11E-03,2.89E-03
57498,6.45E-03,2.92E-03
57499,6.71E-03,2.95E-03
57500,6.91E-03,2.98E-03
57501,7.07E-03,3.01E-03
57502,7.21E-03,3.05E-03
57503,7.34E-03,3.08E-03
57504,7.47E-03,3.12E-03
57505,7.61E-03,3.15E-03
57506,7.72E-03,3.19E-03
57507,7.85E-03,3.22E-03
57508,7.88E-03,3.26E-03
57509,7.92E-03,3.29E-03
57510,7.94E-03,3.33E-03
57511,7.95E-03,3.36E-03
57512,7.93E-03,3.39E-03
57513,7.92E-03,3.42E-03
57514,7.90E-03,3.46E-03
57515,7.88E-03,3.49E-03
57516,7.85E-03,3.52E-03
57517,7.82E-03,3.55E-03
57518,7.78E-03,3.58E-03
57519,7.75E-03,3.61E-03
57520,7.73E-03,3.64E-03
57521,7.71E-03,3.66E-03
57522,7.69E-03,3.69E-03
57523,7.68E-03,3.72E-03
57524,7.66E-03,3.75E-03
57525,7.64E-03,3.78E-03
57526,7.62E-03,3.81E-03
57527,7.61E-03,3.83E-03
57528,7.58E-03,3.86E-03
57529,7.55E-03,3.89E-03
57530,7.51E-03,3.92E-03
57531,7.48E-03,3.95E-03
57532,7.44E-03,3.98E-03
57533,7.40E-03,4.00E-03
57534,7.37E-03,4.03E-03
57535,7.33E-03,4.06E-03
57536,7.29E-03,4.09E-03
57537,7.25E-03,4.12E-03
57538,7.20E-03,4.15E-03
57539,7.16E-03,4.19E-03
57540,7.10E-03,4.22E-03
57541,7.02E-03,4.25E-03
57542,6.93E-03,4.28E-03
57543,6.84E-03,4.32E-03
57544,6.77E-03,4.35E-03
57545,6.72E-03,4.39E-03
57546,6.67E-03,4.42E-03
57547,6.63E-03,4.46E-03
57548,6.59E-03,4.50E-03
57549,6.57E-03,4.53E-03
57550,6.55E-03,4.57E-03
57551,6.54E-03,4.62E-03
57552,6.54E-03,4.66E-03
57553,6.56E-03,4.70E-03
57554,6.58E-03,4.75E-03
57555,6.60E-03,4.79E-03
57556,6.61E-03,4.84E-03
57557,6.63E-03,4.89E-03
57558,6.64E-03,4.94E-03
57559,6.65E-03,4.99E-03
57560,6.65E-03,5.05E-03
57561,6.66E-03,5.10E-03
57562,6.66E-03,5.16E-03
57563,6.66E-03,5.22E-03
57564,6.69E-03,5.28E-03
57565,6.76E-03,5.34E-03
57566,6.86E-03,5.40E-03
57567,6.97E-03,5.47E-03
57568,7.07E-03,5.54E-03
57569,7.17E-03,5.61E-03
57570,7.24E-03,5.68E-03
57571,7.31E-03,5.76E-03
57572,7.37E-03,5.83E-03
57573,7.43E-03,5.91E-03
57574,7.50E-03,5.99E-03
57575,7.60E-03,6.08E-03
57576,7.73E-03,6.16E-03
57577,7.95E-03,6.25E-03
57578,7.98E-03,6.34E-03
57579,8.13E-03,6.43E-03
57580,8.22E-03,6.52E-03
57581,8.43E-03,6.61E-03
57582,8.47E-03,6.71E-03
57583,9.15E-03,6.80E-03
57584,9.50E-03,6.90E-03
57585,9.56E-03,7.00E-03
57586,9.73E-03,7.10E-03
57587,9.88E-03,7.20E-03
57588,1.01E-02,7.30E-03
57589,1.08E-02,7.51E-03
57590,1.03E-02,7.58E-03
57591,1.00E-02,7.66E-03
57592,7.96E-03,7.74E-03
57593,7.39E-03,7.79E-03
57594,6.84E-03,7.83E-03
57595,6.29E-03,7.87E-03
57596,1.00E-02,2.13E-02
57597,1.02E-02,2.12E-02
57598,1.04E-02,2.11E-02
57599,1.04E-02,2.11E-02
57600,1.04E-02,2.10E-02
57601,1.02E-02,2.09E-02
57602,1.01E-02,2.09E-02
57603,9.68E-03,2.08E-02
57604,9.40E-03,2.08E-02
57605,9.13E-03,2.07E-02
57606,8.94E-03,2.07E-02
57607,8.83E-03,2.07E-02
57608,8.73E-03,2.07E-02
57609,8.65E-03,2.06E-02
57610,8.59E-03,2.06E-02
57611,8.52E-03,2.06E-02
57612,8.47E-03,2.06E-02
57613,8.46E-03,2.06E-02
57614,8.46E-03,2.06E-02
57615,8.46E-03,2.06E-02
57616,8.43E-03,2.06E-02
57617,8.36E-03,2.06E-02
57618,8.29E-03,2.06E-02
57619,8.23E-03,2.06E-02
57620,8.20E-03,2.07E-02
57621,8.17E-03,2.07E-02
57622,8.15E-03,2.07E-02
57623,8.14E-03,2.07E-02
57624,8.14E-03,2.07E-02
57625,8.14E-03,2.07E-02
57626,8.14E-03,2.07E-02
57627,8.12E-03,2.07E-02
57628,8.11E-03,2.08E-02
57629,8.09E-03,2.08E-02
57630,8.08E-03,2.08E-02
57631,8.07E-03,2.08E-02
57632,8.06E-03,2.07E-02
57633,8.04E-03,2.07E-02
57634,8.04E-03,2.07E-02
57635,8.05E-03,2.07E-02
57636,8.06E-03,2.07E-02
57637,8.08E-03,2.06E-02
57638,8.10E-03,2.06E-02
57639,8.12E-03,2.06E-02
57640,8.14E-03,2.05E-02
57641,8.15E-03,2.05E-02
57642,8.18E-03,2.04E-02
57643,8.21E-03,2.04E-02
57644,8.25E-03,2.03E-02
57645,8.30E-03,2.02E-02
57646,8.33E-03,2.02E-02
57647,8.35E-03,2.01E-02
57648,8.37E-03,2.00E-02
57649,8.39E-03,2.00E-02
57650,8.41E-03,1.99E-02
57651,8.43E-03,1.98E-02
57652,8.46E-03,1.98E-02
57653,8.48E-03,1.97E-02
57654,8.51E-03,1.96E-02
57655,8.55E-03,1.96E-02
57656,8.61E-03,1.95E-02
57657,8.67E-03,1.94E-02
57658,8.72E-03,1.94E-02
57659,8.76E-03,1.93E-02
57660,8.77E-03,1.92E-02
57661,8.76E-03,1.91E-02
57662,8.73E-03,1.90E-02
57663,8.71E-03,1.90E-02
57664,8.69E-03,1.89E-02
57665,8.67E-03,1.88E-02
57666,8.64E-03,1.87E-02
57667,8.62E-03,1.87E-02
57668,8.63E-03,1.86E-02
57669,8.63E-03,1.85E-02
57670,8.57E-03,1.84E-02
57671,8.42E-03,1.84E-02
57672,8.27E-03,1.83E-02
57673,8.11E-03,1.83E-02
57674,8.01E-03,1.82E-02
57675,8.01E-03,1.82E-02
57676,8.04E-03,1.82E-02
57677,8.01E-03,1.82E-02
57678,7.94E-03,1.81E-02
57679,7.88E-03,1.81E-02
57680,7.82E-03,1.81E-02
57681,7.76E-03,1.81E-02
57682,7.69E-03,1.81E-02
57683,7.61E-03,1.80E-02
57684,7.51E-03,1.80E-02
57685,7.42E-03,1.80E-02
57686,7.37E-03,1.79E-02
57687,7.33E-03,1.79E-02
57688,7.29E-03,1.78E-02
57689,7.26E-03,1.77E-02
57690,7.24E-03,1.77E-02
57691,7.22E-03,1.76E-02
57692,7.20E-03,1.75E-02
57693,7.16E-03,1.74E-02
57694,7.11E-03,1.72E-02
57695,7.07E-03,1.71E-02
57696,7.07E-03,1.70E-02
57697,7.10E-03,1.68E-02
57698,7.12E-03,1.67E-02
57699,7.14E-03,1.65E-02
57700,7.17E-03,1.64E-02
57701,7.20E-03,1.62E-02
57702,7.23E-03,1.61E-02
57703,7.26E-03,1.59E-02
57704,7.28E-03,1.58E-02
57705,7.30E-03,1.56E-02
57706,7.31E-03,1.54E-02
57707,7.32E-03,1.53E-02
57708,7.33E-03,1.51E-02
57709,7.34E-03,1.50E-02
57710,7.35E-03,1.48E-02
57711,7.36E-03,1.47E-02
57712,7.35E-03,1.45E-02
57713,7.32E-03,1.44E-02
57714,7.30E-03,1.42E-02
57715,7.28E-03,1.41E-02
57716,7.25E-03,1.39E-02
57717,7.22E-03,1.38E-02
57718,7.18E-03,1.36E-02
57719,7.13E-03,1.35E-02
57720,7.06E-03,1.34E-02
57721,6.98E-03,1.33E-02
57722,6.92E-03,1.31E-02
57723,6.86E-03,1.30E-02
57724,6.84E-03,1.29E-02
57725,6.87E-03,1.28E-02
57726,6.90E-03,1.27E-02
57727,6.86E-03,1.25E-02
57728,6.86E-03,1.24E-02
57729,7.40E-03,1.23E-02
57730,7.92E-03,1.22E-02
57731,8.41E-03,1.21E-02
57732,8.75E-03,1.19E-02
57733,1.01E-02,1.18E-02
57734,1.02E-02,1.16E-02
57735,1.05E-02,1.14E-02
57736,1.06E-02,1.12E-02
57737,1.06E-02,1.10E-02
57738,1.05E-02,1.09E-02
57739,1.04E-02,1.07E-02
57740,1.03E-02,1.05E-02
57741,1.02E-02,1.03E-02
57742,1.01E-02,1.01E-02
57743,1.01E-02,9.94E-03
57744,9.97E-03,9.76E-03
57745,9.83E-03,9.58E-03
57746,9.71E-03,9.41E-03
57747,9.56E-03,9.23E-03
57748,8.86E-03,9.07E-03
57749,7.49E-03,8.93E-03
57750,7.27E-03,8.81E-03
57751,7.15E-03,8.69E-03
57752,6.99E-03,8.57E-03
57753,6.79E-03,8.47E-03
57754,6.55E-03,8.37E-03
57755,6.28E-03,8.27E-03
57756,6.01E-03,8.18E-03
57757,4.68E-03,8.09E-03
57758,5.15E-03,7.99E-03
57759,5.61E-03,7.96E-03
57760,5.87E-03,7.91E-03
57761,6.92E-03,1.55E-02
57762,6.72E-03,1.56E-02
57763,6.53E-03,1.56E-02
57764,7.11E-03,1.36E-02
57765,6.72E-03,1.37E-02
57766,6.17E-03,1.37E-02
57767,5.25E-03,1.37E-02
57768,3.49E-03,1.37E-02
57769,3.79E-03,1.37E-02
57770,4.05E-03,1.37E-02
57771,4.84E-03,1.38E-02
57772,4.84E-03,1.37E-02
57773,5.29E-03,1.37E-02
57774,5.67E-03,1.37E-02
57775,6.15E-03,1.36E-02
57776,6.48E-03,1.36E-02
57777,6.76E-03,1.36E-02
57778,6.96E-03,1.35E-02
57779,7.12E-03,1.34E-02
57780,7.27E-03,1.34E-02
57781,7.37E-03,1.33E-02
57782,7.44E-03,1.32E-02
57783,7.49E-03,1.31E-02
57784,7.55E-03,1.30E-02
57785,7.60E-03,1.29E-02
57786,7.66E-03,1.28E-02
57787,7.72E-03,1.27E-02
57788,7.77E-03,1.26E-02
57789,7.80E-03,1.24E-02
57790,7.81E-03,1.23E-02
57791,7.83E-03,1.22E-02
57792,7.84E-03,1.20E-02
57793,7.85E-03,1.19E-02
57794,7.86E-03,1.17E-02
57795,7.88E-03,1.16E-02
57796,7.89E-03,1.14E-02
57797,7.90E-03,1.13E-02
57798,7.92E-03,1.11E-02
57799,7.93E-03,1.09E-02
57800,7.94E-03,1.08E-02
57801,7.94E-03,1.06E-02
57802,7.95E-03,1.04E-02
57803,7.96E-03,1.03E-02
57804,7.97E-03,1.01E-02
57805,7.98E-03,9.94E-03
57806,7.98E-03,9.79E-03
57807,7.99E-03,9.64E-03
57808,8.00E-03,9.50E-03
57809,8.00E-03,9.37E-03
57810,8.01E-03,9.26E-03
57811,8.02E-03,9.15E-03
57812,8.02E-03,9.06E-03
57813,8.02E-03,8.98E-03
57814,8.02E-03,8.92E-03
57815,8.02E-03,8.87E-03
57816,8.02E-03,8.84E-03
57817,8.02E-03,8.82E-03
57818,8.02E-03,8.82E-03
57819,8.01E-03,8.83E-03
57820,8.01E-03,8.86E-03
57821,8.00E-03,8.90E-03
57822,7.99E-03,8.96E-03
57823,7.98E-03,9.02E-03
57824,7.97E-03,9.10E-03
57825,7.96E-03,9.19E-03
57826,7.95E-03,9.29E-03
57827,7.94E-03,9.40E-03
57828,7.93E-03,9.51E-03
57829,7.92E-03,9.64E-03
57830,7.91E-03,9.76E-03
57831,7.89E-03,9.90E-03
57832,7.87E-03,1.00E-02
57833,7.84E-03,1.02E-02
57834,7.82E-03,1.03E-02
57835,7.80E-03,1.05E-02
57836,7.77E-03,1.06E-02
57837,7.75E-03,1.08E-02
57838,7.73E-03,1.09E-02
57839,7.71E-03,1.11E-02
57840,7.69E-03,1.12E-02
57841,7.67E-03,1.14E-02
57842,7.66E-03,1.16E-02
57843,7.64E-03,1.17E-02
57844,7.63E-03,1.19E-02
57845,7.61E-03,1.20E-02
57846,7.58E-03,1.22E-02
57847,7.56E-03,1.23E-02
57848,7.54E-03,1.25E-02
57849,7.51E-03,1.26E-02
57850,7.49E-03,1.28E-02
57851,7.45E-03,1.29E-02
57852,7.40E-03,1.30E-02
57853,7.35E-03,1.32E-02
57854,7.31E-03,1.33E-02
57855,7.26E-03,1.35E-02
57856,7.24E-03,1.36E-02
57857,7.23E-03,1.37E-02
57858,7.23E-03,1.39E-02
57859,7.23E-03,1.40E-02
57860,7.25E-03,1.41E-02
57861,7.27E-03,1.42E-02
57862,7.28E-03,1.44E-02
57863,7.30E-03,1.45E-02
57864,7.31E-03,1.46E-02
57865,7.32E-03,1.48E-02
57866,7.33E-03,1.49E-02
57867,7.34E-03,1.50E-02
57868,7.36E-03,1.51E-02
57869,7.37E-03,1.53E-02
57870,7.38E-03,1.54E-02
57871,7.39E-03,1.55E-02
57872,7.40E-03,1.56E-02
57873,7.41E-03,1.58E-02
57874,7.42E-03,1.59E-02
57875,7.44E-03,1.60E-02
57876,7.45E-03,1.61E-02
57877,7.45E-03,1.63E-02
57878,7.45E-03,1.64E-02
57879,7.45E-03,1.65E-02
57880,7.47E-03,1.67E-02
57881,7.51E-03,1.68E-02
57882,7.55E-03,1.69E-02
57883,7.59E-03,1.71E-02
57884,7.62E-03,1.72E-02
57885,7.63E-03,1.73E-02
57886,7.57E-03,1.75E-02
57887,7.58E-03,1.76E-02
57888,7.67E-03,1.77E-02
57889,7.79E-03,1.79E-02
57890,7.79E-03,1.80E-02
57891,6.56E-03,1.82E-02
57892,4.82E-03,1.83E-02
57893,2.74E-03,1.84E-02
57894,3.84E-03,1.84E-02
57895,4.93E-03,1.84E-02
57896,8.09E-03,1.16E-02
57897,8.09E-03,1.15E-02
57898,8.09E-03,1.13E-02
57899,8.09E-03,1.12E-02
57900,8.09E-03,1.10E-02
57901,8.09E-03,1.09E-02
57902,8.09E-03,1.07E-02
57903,8.09E-03,1.06E-02
57904,8.09E-03,1.04E-02
57905,8.09E-03,1.03E-02
57906,8.09E-03,1.01E-02
57907,8.09E-03,9.93E-03
57908,8.09E-03,9.77E-03
57909,8.09E-03,9.60E-03
57910,8.09E-03,9.43E-03
57911,8.09E-03,9.26E-03
57912,8.09E-03,9.09E-03
57913,8.09E-03,8.91E-03
57914,8.09E-03,8.74E-03
57915,8.09E-03,8.56E-03
57916,8.09E-03,8.39E-03
57917,8.09E-03,8.21E-03
57918,8.09E-03,8.04E-03
57919,8.09E-03,7.86E-03
57920,8.09E-03,7.68E-03
57921,8.09E-03,7.51E-03
57922,8.09E-03,7.33E-03
57923,8.09E-03,7.15E-03
57924,8.09E-03,6.98E-03
57925,8.09E-03,6.81E-03
57926,8.09E-03,6.64E-03
57927,8.09E-03,6.47E-03
57928,8.09E-03,6.30E-03
57929,8.09E-03,6.14E-03
57930,8.09E-03,5.98E-03
57931,8.09E-03,5.82E-03
57932,8.09E-03,5.67E-03
57933,8.09E-03,5.52E-03
57934,8.09E-03,5.38E-03
57935,8.09E-03,5.24E-03
57936,8.09E-03,5.11E-03
57937,8.09E-03,4.99E-03
57938,8.09E-03,4.88E-03
57939,8.09E-03,4.78E-03
57940,8.09E-03,4.68E-03
57941,8.09E-03,4.60E-03
57942,8.09E-03,4.53E-03
57943,8.09E-03,4.47E-03
57944,8.09E-03,4.43E-03
57945,8.09E-03,4.40E-03
57946,8.09E-03,4.38E-03
57947,8.09E-03,4.38E-03
57948,8.09E-03,4.39E-03
57949,8.09E-03,4.41E-03
57950,8.09E-03,4.46E-03
57951,8.09E-03,4.51E-03
57952,8.09E-03,4.58E-03
57953,8.09E-03,4.66E-03
57954,8.09E-03,4.76E-03
57955,8.09E-03,4.86E-03
57956,8.09E-03,4.98E-03
57957,8.09E-03,5.11E-03
57958,8.09E-03,5.25E-03
57959,8.09E-03,5.39E-03
57960,8.09E-03,5.55E-03
57961,8.09E-03,5.71E-03
57962,8.09E-03,5.88E-03
57963,8.09E-03,6.06E-03
57964,8.09E-03,6.24E-03
57965,8.09E-03,6.43E-03
57966,8.09E-03,6.62E-03
57967,8.09E-03,6.82E-03
57968,8.09E-03,7.02E-03
57969,8.09E-03,7.22E-03
57970,8.09E-03,7.43E-03
57971,8.09E-03,7.64E-03
57972,8.09E-03,7.86E-03
57973,8.09E-03,8.08E-03
57974,8.09E-03,8.30E-03
57975,8.09E-03,8.52E-03
57976,8.09E-03,8.74E-03
57977,8.09E-03,8.97E-03
57978,8.09E-03,9.19E-03
57979,8.09E-03,9.42E-03
57980,8.09E-03,9.65E-03
57981,8.09E-03,9.88E-03
57982,8.09E-03,1.01E-02
57983,8.09E-03,1.03E-02
57984,8.09E-03,1.06E-02
57985,8.09E-03,1.08E-02
57986,8.09E-03,1.10E-02
57987,8.09E-03,1.13E-02
57988,8.09E-03,1.15E-02
57989,8.09E-03,1.17E-02
57990,8.03E-03,1.19E-02
57991,7.95E-03,1.22E-02
57992,7.96E-03,1.24E-02
57993,8.06E-03,1.26E-02
57994,8.36E-03,1.29E-02
57995,8.32E-03,1.31E-02
57996,7.84E-03,1.33E-02
57997,7.26E-03,1.35E-02
57998,7.01E-03,1.37E-02
57999,7.53E-03,1.39E-02
58000,9.07E-03,1.42E-02
58001,8.58E-03,1.46E-02
58002,8.37E-03,1.44E-02
58003,7.62E-03,2.18E-02
58004,6.09E-03,2.20E-02
58005,8.13E-03,9.58E-03
58006,7.78E-03,9.15E-03
58007,7.92E-03,8.78E-03
58008,7.99E-03,8.41E-03
58009,8.28E-03,8.03E-03
58010,8.63E-03,7.61E-03
58011,8.77E-03,7.24E-03
58012,9.08E-03,6.83E-03
58013,9.30E-03,5.79E-03
58014,6.51E-03,3.01E-02
58015,6.45E-03,2.97E-02
58016,6.21E-03,2.92E-02
58017,6.06E-03,2.87E-02
58018,8.10E-03,1.39E-02
58019,8.10E-03,1.40E-02
58020,6.39E-03,2.81E-02
58021,6.67E-03,2.17E-02
58022,6.94E-03,2.21E-02
58023,7.52E-03,2.29E-02
58024,7.68E-03,2.34E-02
58025,7.21E-03,1.20E-02
58026,8.06E-03,1.24E-02
58027,7.22E-03,3.28E-02
58028,6.83E-03,3.52E-02
58029,7.51E-03,3.72E-02
58030,8.03E-03,3.81E-02
58031,8.65E-03,4.05E-02
58032,8.32E-03,4.19E-02
58033,9.06E-03,5.40E-03
58034,9.20E-03,1.45E-02
58035,8.10E-03,1.29E-02
58036,7.26E-03,2.18E-02
58037,8.57E-03,2.16E-02
58038,1.05E-02,2.16E-02
58039,9.62E-03,1.47E-02
58040,4.18E-03,1.87E-02
58041,3.85E-03,1.88E-02
58042,3.75E-03,1.89E-02
58043,3.60E-03,1.89E-02
58044,3.65E-03,1.90E-02
58045,3.70E-03,1.90E-02
58046,3.78E-03,1.91E-02
58047,3.87E-03,1.91E-02
58048,3.90E-03,1.92E-02
58049,3.88E-03,1.92E-02
58050,3.84E-03,1.93E-02
58051,3.79E-03,1.94E-02
58052,3.77E-03,1.94E-02
58053,3.80E-03,1.95E-02
58054,3.82E-03,1.95E-02
58055,4.28E-03,1.96E-02
58056,4.74E-03,1.96E-02
58057,4.96E-03,1.97E-02
58058,5.22E-03,1.97E-02
58059,5.47E-03,1.98E-02
58060,5.76E-03,1.98E-02
58061,6.01E-03,1.99E-02
58062,6.27E-03,1.99E-02
58063,6.53E-03,2.00E-02
58064,6.75E-03,2.01E-02
58065,6.93E-03,2.01E-02
58066,7.92E-03,2.02E-02
58067,8.10E-03,2.03E-02
58068,8.35E-03,2.03E-02
58069,8.55E-03,2.04E-02
58070,8.79E-03,2.05E-02
58071,9.70E-03,2.06E-02
58072,9.69E-03,2.07E-02
58073,1.02E-02,2.08E-02
58074,1.06E-02,2.10E-02
58075,1.09E-02,2.11E-02
58076,1.12E-02,2.13E-02
58077,1.12E-02,2.14E-02
58078,1.08E-02,2.19E-02
58079,5.86E-03,1.60E-02
58080,5.11E-03,1.59E-02
58081,5.13E-03,1.60E-02
58082,5.07E-03,1.60E-02
58083,5.60E-03,1.61E-02
58084,5.74E-03,1.61E-02
58085,6.12E-03,1.61E-02
58086,6.25E-03,1.60E-02
58087,6.50E-03,1.60E-02
58088,6.58E-03,1.60E-02
58089,6.58E-03,1.59E-02
58090,6.61E-03,1.59E-02
58091,6.59E-03,1.58E-02
58092,6.48E-03,1.58E-02
58093,6.59E-03,1.57E-02
58094,7.06E-03,1.56E-02
58095,7.47E-03,1.55E-02
58096,7.65E-03,1.54E-02
58097,7.89E-03,1.53E-02
58098,8.25E-03,1.52E-02
58099,8.58E-03,1.51E-02
58100,8.90E-03,1.49E-02
58101,9.25E-03,1.48E-02
58102,9.64E-03,1.46E-02
58103,9.92E-03,1.44E-02
58104,9.94E-03,1.43E-02
58105,9.82E-03,1.41E-02
58106,9.70E-03,1.39E-02
58107,9.58E-03,1.38E-02
58108,9.48E-03,1.36E-02
58109,9.41E-03,1.35E-02
58110,9.42E-03,1.33E-02
58111,9.52E-03,1.32E-02
58112,1.00E-02,1.30E-02
58113,9.68E-03,1.29E-02
58114,7.36E-03,1.28E-02
58115,6.73E-03,3.10E-02
58116,8.10E-03,1.37E-02
58117,8.10E-03,1.39E-02
58118,8.48E-03,2.03E-02
58119,6.50E-03,2.11E-02
58120,7.81E-03,4.28E-03
58121,7.35E-03,1.26E-02
58122,6.48E-03,2.22E-02
58123,9.27E-03,2.19E-02
58124,7.60E-03,4.03E-03
58125,7.24E-03,3.25E-02
58126,6.67E-03,3.62E-02
58127,6.68E-03,3.67E-02
58128,6.80E-03,3.74E-02
58129,6.77E-03,1.49E-02
58130,6.36E-03,1.49E-02
58131,9.82E-03,4.24E-02
58132,8.64E-03,4.28E-02
58133,8.10E-03,1.30E-02
58134,6.94E-03,3.20E-02
58135,7.05E-03,3.25E-02
58136,7.17E-03,1.55E-02
58137,7.14E-03,1.56E-02
58138,8.51E-03,1.38E-02
58139,7.78E-03,1.39E-02
58140,8.10E-03,1.18E-02
58141,8.10E-03,1.36E-02
58142,8.10E-03,1.39E-02
58143,8.10E-03,1.31E-02
58144,8.10E-03,1.20E-02
58145,8.10E-03,1.34E-02
58146,8.10E-03,1.38E-02
58147,8.10E-03,1.21E-02
58148,8.10E-03,1.32E-02
58149,8.10E-03,1.33E-02
58150,8.10E-03,1.37E-02
58151,7.35E-03,1.52E-02
58152,7.54E-03,1.55E-02
58153,8.10E-03,1.33E-02
58154,8.10E-03,1.23E-02
58155,8.10E-03,1.31E-02
58156,8.10E-03,1.37E-02
58157,8.10E-03,1.34E-02
58158,8.10E-03,1.25E-02
58159,8.10E-03,1.30E-02
58160,8.10E-03,1.36E-02
58161,8.10E-03,1.35E-02
58162,8.10E-03,1.28E-02
58163,8.10E-03,1.26E-02
58164,8.10E-03,1.39E-02
58165,8.10E-03,1.40E-02
58166,6.70E-03,2.77E-02
58167,7.66E-03,2.72E-02
58168,7.94E-03,2.66E-02
58169,8.18E-03,2.59E-02
58170,8.27E-03,2.52E-02
58171,8.27E-03,2.46E-02
58172,8.32E-03,2.40E-02
58173,8.50E-03,1.99E-02
58174,9.78E-03,1.94E-02
58175,9.76E-03,1.88E-02
58176,8.15E-03,1.83E-02
58177,8.16E-03,1.78E-02
58178,8.14E-03,1.73E-02
58179,8.00E-03,1.67E-02
58180,8.00E-03,1.63E-02
58181,8.00E-03,1.58E-02
58182,8.00E-03,1.53E-02
58183,8.00E-03,1.48E-02
58184,8.00E-03,1.43E-02
58185,8.26E-03,1.38E-02
58186,8.33E-03,1.33E-02
58187,8.28E-03,1.28E-02
58188,9.55E-03,3.32E-02
58189,7.91E-03,3.37E-02
58190,8.06E-03,3.42E-02
58191,6.35E-03,3.46E-02
58192,6.55E-03,3.49E-02
58193,7.75E-03,3.76E-02
58194,8.71E-03,3.88E-02
58195,8.43E-03,3.98E-02
58196,8.33E-03,1.49E-02
58197,8.83E-03,1.49E-02
58198,8.62E-03,1.50E-02
58199,8.56E-03,1.50E-02
58200,8.51E-03,1.50E-02
58201,8.46E-03,1.50E-02
58202,7.36E-03,1.50E-02
58203,6.90E-03,1.51E-02
58204,6.72E-03,1.51E-02
58205,6.49E-03,1.52E-02
58206,6.18E-03,1.53E-02
58207,6.05E-03,1.54E-02
58208,6.16E-03,1.56E-02
58209,6.39E-03,1.58E-02
58210,6.55E-03,1.60E-02
58211,6.65E-03,1.62E-02
58212,6.73E-03,1.65E-02
58213,6.82E-03,1.68E-02
58214,6.90E-03,1.71E-02
58215,6.93E-03,1.75E-02
58216,6.93E-03,1.79E-02
58217,6.91E-03,1.84E-02
58218,6.90E-03,1.89E-02
58219,6.88E-03,1.94E-02
58220,6.85E-03,2.00E-02
58221,6.82E-03,2.05E-02
58222,6.75E-03,2.12E-02
58223,6.60E-03,2.18E-02
58224,6.44E-03,2.24E-02
58225,6.24E-03,2.30E-02
58226,5.96E-03,2.37E-02
58227,5.63E-03,2.43E-02
58228,5.33E-03,2.49E-02
58229,5.16E-03,2.54E-02
58230,5.08E-03,2.60E-02
58231,4.99E-03,2.65E-02
58232,4.94E-03,2.71E-02
58233,4.92E-03,2.76E-02
58234,4.91E-03,2.81E-02
58235,4.99E-03,2.87E-02
58236,5.23E-03,2.92E-02
58237,5.54E-03,2.98E-02
58238,5.83E-03,3.04E-02
58239,6.07E-03,3.10E-02
58240,6.26E-03,3.16E-02
58241,6.46E-03,3.22E-02
58242,6.63E-03,3.28E-02
58243,6.72E-03,3.35E-02
58244,6.76E-03,3.41E-02
58245,6.79E-03,3.47E-02
58246,6.82E-03,3.53E-02
58247,6.85E-03,3.59E-02
58248,6.85E-03,3.64E-02
58249,6.83E-03,3.70E-02
58250,6.80E-03,3.75E-02
58251,6.76E-03,3.81E-02
58252,6.73E-03,3.85E-02
58253,6.60E-03,3.90E-02
58254,6.29E-03,3.94E-02
58255,6.01E-03,3.98E-02
58256,5.89E-03,4.02E-02
58257,5.76E-03,4.06E-02
58258,5.74E-03,4.09E-02
58259,5.99E-03,4.12E-02
58260,6.31E-03,4.15E-02
58261,6.56E-03,4.17E-02
58262,6.75E-03,4.20E-02
58263,6.97E-03,4.22E-02
58264,7.25E-03,4.24E-02
58265,7.54E-03,4.25E-02
58266,7.73E-03,4.27E-02
58267,7.82E-03,4.27E-02
58268,7.90E-03,4.28E-02
58269,7.98E-03,4.28E-02
58270,8.11E-03,4.28E-02
58271,8.16E-03,4.27E-02
58272,8.43E-03,4.26E-02
58273,8.29E-03,4.24E-02
58274,8.25E-03,4.23E-02
58275,8.21E-03,4.21E-02
58276,8.53E-03,4.53E-03
58277,9.10E-03,4.81E-03
58278,8.93E-03,5.10E-03
58279,1.02E-02,1.38E-02
58280,9.82E-03,1.38E-02
58281,9.76E-03,1.38E-02
58282,9.67E-03,1.38E-02
58283,9.72E-03,1.39E-02
58284,9.67E-03,1.39E-02
58285,9.21E-03,1.39E-02
58286,9.10E-03,1.40E-02
58287,8.93E-03,1.40E-02
58288,8.70E-03,1.40E-02
58289,8.49E-03,1.41E-02
58290,8.36E-03,1.41E-02
58291,8.19E-03,1.42E-02
58292,8.11E-03,1.42E-02
58293,8.11E-03,1.42E-02
58294,7.93E-03,1.43E-02
58295,7.59E-03,1.43E-02
58296,7.33E-03,1.43E-02
58297,7.30E-03,1.44E-02
58298,7.33E-03,1.44E-02
58299,7.30E-03,1.44E-02
58300,7.29E-03,1.45E-02
58301,7.31E-03,1.45E-02
58302,7.34E-03,1.45E-02
58303,7.35E-03,1.45E-02
58304,7.35E-03,1.46E-02
58305,7.35E-03,1.46E-02
58306,7.37E-03,1.46E-02
58307,7.45E-03,1.46E-02
58308,7.63E-03,1.46E-02
58309,7.83E-03,1.46E-02
58310,8.10E-03,1.46E-02
58311,8.42E-03,1.46E-02
58312,8.62E-03,1.46E-02
58313,8.82E-03,1.46E-02
58314,9.09E-03,1.46E-02
58315,9.53E-03,1.46E-02
58316,1.01E-02,1.46E-02
58317,1.00E-02,1.46E-02
58318,8.09E-03,1.28E-02
58319,8.09E-03,1.26E-02
58320,8.09E-03,1.24E-02
58321,8.09E-03,1.23E-02
58322,8.09E-03,1.21E-02
58323,8.09E-03,1.19E-02
58324,8.09E-03,1.17E-02
58325,8.09E-03,1.16E-02
58326,8.09E-03,1.14E-02
58327,8.09E-03,1.12E-02
58328,8.09E-03,1.10E-02
58329,8.09E-03,1.08E-02
58330,8.04E-03,1.06E-02
58331,7.99E-03,1.04E-02
58332,7.88E-03,1.02E-02
58333,7.90E-03,1.00E-02
58334,7.89E-03,9.86E-03
58335,8.37E-03,9.65E-03
58336,8.17E-03,9.42E-03
58337,7.44E-03,9.17E-03
58338,7.67E-03,8.97E-03
58339,7.82E-03,8.79E-03
58340,7.94E-03,8.60E-03
58341,8.09E-03,8.39E-03
58342,8.09E-03,8.18E-03
58343,8.09E-03,7.97E-03
58344,8.09E-03,7.76E-03
58345,8.09E-03,7.55E-03
58346,8.09E-03,7.35E-03
58347,8.09E-03,7.14E-03
58348,8.09E-03,6.93E-03
58349,8.09E-03,6.73E-03
58350,8.09E-03,6.53E-03
58351,8.09E-03,6.33E-03
58352,8.09E-03,6.13E-03
58353,8.09E-03,5.93E-03
58354,8.09E-03,5.74E-03
58355,8.09E-03,5.56E-03
58356,8.09E-03,5.38E-03
58357,8.09E-03,5.20E-03
58358,8.09E-03,5.03E-03
58359,8.09E-03,4.87E-03
58360,8.09E-03,4.71E-03
58361,8.09E-03,4.56E-03
58362,8.09E-03,4.42E-03
58363,8.09E-03,4.30E-03
58364,8.09E-03,4.18E-03
58365,8.09E-03,4.08E-03
58366,8.09E-03,3.98E-03
58367,8.09E-03,3.91E-03
58368,8.09E-03,3.84E-03
58369,8.09E-03,3.80E-03
58370,8.09E-03,3.77E-03
58371,8.09E-03,3.75E-03
58372,8.09E-03,3.75E-03
58373,8.09E-03,3.77E-03
58374,8.09E-03,3.80E-03
58375,8.09E-03,3.85E-03
58376,8.09E-03,3.91E-03
58377,8.09E-03,3.98E-03
58378,8.09E-03,4.07E-03
58379,8.09E-03,4.17E-03
58380,8.09E-03,4.28E-03
58381,8.09E-03,4.40E-03
58382,8.09E-03,4.53E-03
58383,8.09E-03,4.66E-03
58384,8.09E-03,4.80E-03
58385,8.09E-03,4.95E-03
58386,8.09E-03,5.10E-03
58387,8.09E-03,5.26E-03
58388,8.09E-03,5.42E-03
58389,8.09E-03,5.58E-03
58390,8.09E-03,5.75E-03
58391,8.09E-03,5.91E-03
58392,8.09E-03,6.08E-03
58393,8.09E-03,6.25E-03
58394,8.09E-03,6.43E-03
58395,8.09E-03,6.60E-03
58396,8.09E-03,6.77E-03
58397,8.09E-03,6.95E-03
58398,8.09E-03,7.12E-03
58399,8.09E-03,7.30E-03
58400,8.09E-03,7.47E-03
58401,8.09E-03,7.65E-03
58402,8.09E-03,7.82E-03
58403,8.09E-03,7.99E-03
58404,8.09E-03,8.16E-03
58405,8.09E-03,8.34E-03
58406,8.09E-03,8.51E-03
58407,8.09E-03,8.68E-03
58408,8.09E-03,8.85E-03
58409,8.09E-03,9.01E-03
58410,8.09E-03,9.18E-03
58411,8.09E-03,9.35E-03
58412,8.09E-03,9.51E-03
58413,8.09E-03,9.67E-03
58414,8.09E-03,9.84E-03
58415,8.09E-03,1.00E-02
58416,8.09E-03,1.02E-02
58417,8.09E-03,1.03E-02
58418,8.09E-03,1.05E-02
58419,8.09E-03,1.06E-02
58420,8.09E-03,1.08E-02
58421,8.09E-03,1.09E-02
58422,8.09E-03,1.11E-02
58423,7.99E-03,1.12E-02
58424,7.94E-03,1.14E-02
58425,7.77E-03,1.15E-02
58426,7.66E-03,1.17E-02
58427,7.58E-03,1.18E-02
58428,7.52E-03,1.20E-02
58429,7.42E-03,1.21E-02
58430,7.45E-03,1.22E-02
58431,7.04E-03,1.24E-02
58432,7.28E-03,1.23E-02
58433,7.40E-03,1.22E-02
58434,7.38E-03,1.21E-02
58435,7.36E-03,1.20E-02
58436,7.24E-03,1.19E-02
58437,7.14E-03,1.19E-02
58438,7.01E-03,1.18E-02
58439,6.99E-03,1.17E-02
58440,6.67E-03,1.16E-02
58441,6.71E-03,1.16E-02
58442,6.73E-03,1.15E-02
58443,6.69E-03,1.14E-02
58444,6.62E-03,1.14E-02
58445,6.54E-03,1.13E-02
58446,6.47E-03,1.12E-02
58447,6.40E-03,1.12E-02
58448,6.34E-03,1.11E-02
58449,6.28E-03,1.11E-02
58450,6.19E-03,1.10E-02
58451,6.08E-03,1.10E-02
58452,5.95E-03,1.09E-02
58453,5.83E-03,1.09E-02
58454,5.75E-03,1.08E-02
58455,5.70E-03,1.08E-02
58456,5.65E-03,1.07E-02
58457,5.62E-03,1.07E-02
58458,5.62E-03,1.06E-02
58459,5.64E-03,1.06E-02
58460,5.66E-03,1.06E-02
58461,5.78E-03,1.05E-02
58462,5.98E-03,1.05E-02
58463,6.20E-03,1.04E-02
58464,6.39E-03,1.04E-02
58465,6.54E-03,1.04E-02
58466,6.67E-03,1.03E-02
58467,6.79E-03,1.03E-02
58468,6.93E-03,1.02E-02
58469,7.10E-03,1.02E-02
58470,7.27E-03,1.02E-02
58471,7.40E-03,1.01E-02
58472,7.50E-03,1.01E-02
58473,7.56E-03,1.00E-02
58474,7.60E-03,1.00E-02
58475,7.67E-03,9.98E-03
58476,7.78E-03,9.95E-03
58477,7.90E-03,9.93E-03
58478,7.99E-03,9.90E-03
58479,8.06E-03,9.88E-03
58480,8.11E-03,9.86E-03
58481,8.13E-03,9.84E-03
58482,8.14E-03,9.82E-03
58483,8.17E-03,9.81E-03
58484,8.21E-03,9.80E-03
58485,8.26E-03,9.79E-03
58486,8.31E-03,9.78E-03
58487,8.36E-03,9.78E-03
58488,8.41E-03,9.78E-03
58489,8.45E-03,9.78E-03
58490,8.49E-03,9.79E-03
58491,8.52E-03,9.80E-03
58492,8.56E-03,9.81E-03
58493,8.61E-03,9.82E-03
58494,8.66E-03,9.84E-03
58495,8.71E-03,9.86E-03
58496,8.78E-03,9.88E-03
58497,8.89E-03,9.91E-03
58498,9.01E-03,9.94E-03
58499,9.13E-03,9.97E-03
58500,9.22E-03,1.00E-02
58501,9.29E-03,1.01E-02
58502,9.35E-03,1.01E-02
58503,9.42E-03,1.02E-02
58504,9.48E-03,1.02E-02
58505,9.55E-03,1.03E-02
58506,9.63E-03,1.03E-02
58507,9.72E-03,1.04E-02
58508,9.81E-03,1.05E-02
58509,9.90E-03,1.06E-02
58510,1.00E-02,1.07E-02
58511,1.01E-02,1.08E-02
58512,1.02E-02,1.09E-02
58513,1.04E-02,1.10E-02
58514,1.05E-02,1.11E-02
58515,1.07E-02,1.12E-02
58516,1.08E-02,1.14E-02
58517,1.10E-02,1.15E-02
58518,1.11E-02,1.17E-02
58519,1.12E-02,1.18E-02
58520,1.11E-02,1.20E-02
58521,1.11E-02,1.21E-02
58522,1.12E-02,1.23E-02
58523,1.05E-02,1.25E-02
58524,6.10E-03,2.20E-02
58525,7.57E-03,2.18E-02
58526,8.66E-03,2.19E-02
58527,9.88E-03,1.47E-02
58528,1.00E-02,1.47E-02
58529,1.01E-02,1.47E-02
58530,9.82E-03,1.48E-02
58531,9.64E-03,1.48E-02
58532,9.47E-03,1.48E-02
58533,9.31E-03,1.48E-02
58534,9.32E-03,1.48E-02
58535,8.54E-03,1.49E-02
58536,7.94E-03,1.49E-02
58537,7.24E-03,1.49E-02
58538,7.46E-03,1.49E-02
58539,7.63E-03,3.83E-03
58540,7.50E-03,3.73E-03
58541,7.31E-03,3.65E-03
58542,7.00E-03,3.57E-03
58543,6.59E-03,3.49E-03
58544,6.00E-03,3.41E-03
58545,5.66E-03,3.35E-03
58546,4.56E-03,3.30E-03
58547,3.63E-03,3.26E-03
58548,3.60E-03,3.23E-03
58549,3.57E-03,3.20E-03
58550,3.55E-03,3.18E-03
58551,3.99E-03,3.16E-03
58552,5.15E-03,3.14E-03
58553,5.13E-03,3.12E-03
58554,5.60E-03,3.10E-03
58555,6.04E-03,3.09E-03
58556,6.43E-03,3.08E-03
58557,7.61E-03,3.06E-03
58558,7.64E-03,3.04E-03
58559,8.00E-03,3.02E-03
58560,9.48E-03,3.00E-03
58561,9.64E-03,2.97E-03
58562,9.18E-03,2.94E-03
58563,8.79E-03,2.91E-03
58564,8.38E-03,2.88E-03
58565,8.08E-03,2.85E-03
58566,7.70E-03,2.82E-03
58567,7.21E-03,2.79E-03
58568,6.95E-03,2.76E-03
58569,6.87E-03,2.74E-03
58570,6.80E-03,2.72E-03
58571,6.72E-03,2.69E-03
58572,6.62E-03,2.67E-03
58573,6.50E-03,2.66E-03
58574,6.37E-03,2.64E-03
58575,6.24E-03,2.63E-03
58576,6.10E-03,2.61E-03
58577,5.93E-03,2.60E-03
58578,5.76E-03,2.59E-03
58579,5.60E-03,2.58E-03
58580,5.47E-03,2.58E-03
58581,5.36E-03,2.57E-03
58582,5.26E-03,2.57E-03
58583,5.12E-03,2.57E-03
58584,4.91E-03,2.57E-03
58585,4.65E-03,2.58E-03
58586,4.40E-03,2.58E-03
58587,4.26E-03,2.59E-03
58588,4.28E-03,2.60E-03
58589,4.46E-03,2.61E-03
58590,4.74E-03,2.62E-03
58591,4.97E-03,2.64E-03
58592,5.16E-03,2.66E-03
58593,5.35E-03,2.68E-03
58594,5.58E-03,2.70E-03
58595,5.90E-03,2.73E-03
58596,6.31E-03,2.75E-03
58597,6.63E-03,2.78E-03
58598,6.84E-03,2.81E-03
58599,7.02E-03,2.85E-03
58600,7.16E-03,2.88E-03
58601,7.27E-03,2.91E-03
58602,7.39E-03,2.95E-03
58603,7.53E-03,2.98E-03
58604,7.67E-03,3.02E-03
58605,7.79E-03,3.05E-03
58606,7.86E-03,3.09E-03
58607,7.90E-03,3.12E-03
58608,7.93E-03,3.16E-03
58609,7.95E-03,3.19E-03
58610,7.96E-03,3.23E-03
58611,7.94E-03,3.26E-03
58612,7.93E-03,3.29E-03
58613,7.91E-03,3.32E-03
58614,7.89E-03,3.35E-03
58615,7.87E-03,3.38E-03
58616,7.83E-03,3.41E-03
58617,7.80E-03,3.44E-03
58618,7.77E-03,3.47E-03
58619,7.75E-03,3.50E-03
58620,7.73E-03,3.53E-03
58621,7.72E-03,3.56E-03
58622,7.70E-03,3.59E-03
58623,7.69E-03,3.61E-03
58624,7.67E-03,3.64E-03
58625,7.65E-03,3.67E-03
58626,7.64E-03,3.70E-03
58627,7.62E-03,3.73E-03
58628,7.58E-03,3.75E-03
58629,7.55E-03,3.78E-03
58630,7.52E-03,3.81E-03
58631,7.48E-03,3.84E-03
58632,7.45E-03,3.87E-03
58633,7.41E-03,3.90E-03
58634,7.38E-03,3.93E-03
58635,7.34E-03,3.96E-03
58636,7.30E-03,3.99E-03
58637,7.26E-03,4.02E-03
58638,7.22E-03,4.05E-03
58639,7.16E-03,4.08E-03
58640,7.09E-03,4.11E-03
58641,7.00E-03,4.15E-03
58642,6.92E-03,4.18E-03
58643,6.85E-03,4.22E-03
58644,6.81E-03,4.25E-03
58645,6.76E-03,4.29E-03
58646,6.72E-03,4.32E-03
58647,6.69E-03,4.36E-03
58648,6.67E-03,4.40E-03
58649,6.65E-03,4.44E-03
58650,6.64E-03,4.48E-03
58651,6.64E-03,4.52E-03
58652,6.66E-03,4.57E-03
58653,6.68E-03,4.61E-03
58654,6.69E-03,4.66E-03
58655,6.71E-03,4.71E-03
58656,6.72E-03,4.76E-03
58657,6.74E-03,4.81E-03
58658,6.74E-03,4.86E-03
58659,6.75E-03,4.91E-03
58660,6.75E-03,4.97E-03
58661,6.75E-03,5.02E-03
58662,6.76E-03,5.08E-03
58663,6.78E-03,5.14E-03
58664,6.84E-03,5.21E-03
58665,6.94E-03,5.27E-03
58666,7.04E-03,5.34E-03
58667,7.14E-03,5.41E-03
58668,7.23E-03,5.48E-03
58669,7.30E-03,5.55E-03
58670,7.36E-03,5.63E-03
58671,7.42E-03,5.70E-03
58672,7.48E-03,5.78E-03
58673,7.54E-03,5.86E-03
58674,7.63E-03,5.95E-03
58675,7.76E-03,6.03E-03
58676,7.96E-03,6.12E-03
58677,7.99E-03,6.21E-03
58678,8.08E-03,6.30E-03
58679,8.20E-03,6.39E-03
58680,8.46E-03,6.48E-03
58681,8.40E-03,6.58E-03
58682,9.20E-03,6.68E-03
58683,9.28E-03,6.78E-03
58684,9.55E-03,6.88E-03
58685,9.75E-03,6.98E-03
58686,9.98E-03,7.08E-03
58687,1.04E-02,7.19E-03
58688,1.17E-02,7.31E-03
58689,1.20E-02,7.36E-03
58690,1.08E-02,7.45E-03
58691,1.08E-02,7.54E-03
58692,7.25E-03,7.61E-03
58693,7.32E-03,7.66E-03
58694,6.50E-03,7.70E-03
58695,6.47E-03,7.73E-03
58696,1.13E-02,2.15E-02
58697,1.06E-02,2.15E-02
58698,1.04E-02,2.14E-02
58699,1.04E-02,2.13E-02
58700,1.03E-02,2.12E-02
58701,1.00E-02,2.12E-02
58702,9.88E-03,2.11E-02
58703,9.57E-03,2.11E-02
58704,9.31E-03,2.10E-02
58705,9.06E-03,2.10E-02
58706,8.88E-03,2.09E-02
58707,8.78E-03,2.09E-02
58708,8.69E-03,2.09E-02
58709,8.62E-03,2.08E-02
58710,8.55E-03,2.08E-02
58711,8.49E-03,2.08E-02
58712,8.45E-03,2.08E-02
58713,8.44E-03,2.08E-02
58714,8.43E-03,2.08E-02
58715,8.43E-03,2.08E-02
58716,8.41E-03,2.08E-02
58717,8.35E-03,2.08E-02
58718,8.27E-03,2.08E-02
58719,8.22E-03,2.08E-02
58720,8.19E-03,2.09E-02
58721,8.16E-03,2.09E-02
58722,8.14E-03,2.09E-02
58723,8.14E-03,2.09E-02
58724,8.14E-03,2.09E-02
58725,8.14E-03,2.09E-02
58726,8.13E-03,2.10E-02
58727,8.12E-03,2.10E-02
58728,8.11E-03,2.10E-02
58729,8.10E-03,2.10E-02
58730,8.08E-03,2.10E-02
58731,8.07E-03,2.10E-02
58732,8.06E-03,2.10E-02
58733,8.05E-03,2.10E-02
58734,8.04E-03,2.09E-02
58735,8.05E-03,2.09E-02
58736,8.07E-03,2.09E-02
58737,8.08E-03,2.09E-02
58738,8.10E-03,2.08E-02
58739,8.12E-03,2.08E-02
58740,8.13E-03,2.07E-02
58741,8.15E-03,2.07E-02
58742,8.17E-03,2.06E-02
58743,8.20E-03,2.06E-02
58744,8.24E-03,2.05E-02
58745,8.29E-03,2.05E-02
58746,8.32E-03,2.04E-02
58747,8.34E-03,2.03E-02
58748,8.35E-03,2.03E-02
58749,8.37E-03,2.02E-02
58750,8.39E-03,2.01E-02
58751,8.41E-03,2.01E-02
58752,8.43E-03,2.00E-02
58753,8.46E-03,1.99E-02
58754,8.49E-03,1.99E-02
58755,8.52E-03,1.98E-02
58756,8.57E-03,1.97E-02
58757,8.63E-03,1.97E-02
58758,8.68E-03,1.96E-02
58759,8.72E-03,1.95E-02
58760,8.73E-03,1.95E-02
58761,8.71E-03,1.94E-02
58762,8.69E-03,1.93E-02
58763,8.67E-03,1.92E-02
58764,8.65E-03,1.91E-02
58765,8.63E-03,1.91E-02
58766,8.61E-03,1.90E-02
58767,8.59E-03,1.89E-02
58768,8.59E-03,1.88E-02
58769,8.60E-03,1.87E-02
58770,8.53E-03,1.87E-02
58771,8.40E-03,1.86E-02
58772,8.26E-03,1.85E-02
58773,8.11E-03,1.85E-02
58774,8.01E-03,1.85E-02
58775,8.01E-03,1.84E-02
58776,8.04E-03,1.84E-02
58777,8.02E-03,1.84E-02
58778,7.95E-03,1.83E-02
58779,7.89E-03,1.83E-02
58780,7.84E-03,1.83E-02
58781,7.78E-03,1.83E-02
58782,7.72E-03,1.83E-02
58783,7.64E-03,1.82E-02
58784,7.55E-03,1.82E-02
58785,7.47E-03,1.82E-02
58786,7.42E-03,1.81E-02
58787,7.38E-03,1.81E-02
58788,7.34E-03,1.80E-02
58789,7.32E-03,1.79E-02
58790,7.30E-03,1.78E-02
58791,7.28E-03,1.77E-02
58792,7.26E-03,1.76E-02
58793,7.22E-03,1.75E-02
58794,7.17E-03,1.74E-02
58795,7.14E-03,1.73E-02
58796,7.14E-03,1.71E-02
58797,7.16E-03,1.70E-02
58798,7.18E-03,1.68E-02
58799,7.21E-03,1.67E-02
58800,7.23E-03,1.65E-02
58801,7.26E-03,1.63E-02
58802,7.28E-03,1.62E-02
58803,7.31E-03,1.60E-02
58804,7.34E-03,1.58E-02
58805,7.35E-03,1.56E-02
58806,7.36E-03,1.55E-02
58807,7.37E-03,1.53E-02
58808,7.38E-03,1.51E-02
58809,7.39E-03,1.50E-02
58810,7.40E-03,1.48E-02
58811,7.40E-03,1.47E-02
58812,7.39E-03,1.45E-02
58813,7.37E-03,1.43E-02
58814,7.35E-03,1.42E-02
58815,7.33E-03,1.40E-02
58816,7.30E-03,1.39E-02
58817,7.28E-03,1.38E-02
58818,7.24E-03,1.36E-02
58819,7.19E-03,1.35E-02
58820,7.12E-03,1.33E-02
58821,7.06E-03,1.32E-02
58822,6.99E-03,1.31E-02
58823,6.94E-03,1.30E-02
58824,6.92E-03,1.28E-02
58825,6.95E-03,1.27E-02
58826,6.98E-03,1.26E-02
58827,6.94E-03,1.25E-02
58828,6.94E-03,1.24E-02
58829,7.35E-03,1.23E-02
58830,7.93E-03,1.21E-02
58831,8.33E-03,1.20E-02
58832,8.99E-03,1.18E-02
58833,9.78E-03,1.17E-02
58834,1.01E-02,1.15E-02
58835,1.04E-02,1.13E-02
58836,1.04E-02,1.12E-02
58837,1.04E-02,1.10E-02
58838,1.04E-02,1.08E-02
58839,1.03E-02,1.06E-02
58840,1.02E-02,1.04E-02
58841,1.01E-02,1.02E-02
58842,9.99E-03,1.01E-02
58843,9.93E-03,9.87E-03
58844,9.85E-03,9.69E-03
58845,9.71E-03,9.51E-03
58846,9.61E-03,9.33E-03
58847,9.46E-03,9.16E-03
58848,8.70E-03,9.00E-03
58849,7.57E-03,8.86E-03
58850,7.38E-03,8.73E-03
58851,7.21E-03,8.60E-03
58852,7.05E-03,8.49E-03
58853,6.85E-03,8.38E-03
58854,6.65E-03,8.28E-03
58855,6.52E-03,8.18E-03
58856,6.59E-03,8.07E-03
58857,4.40E-03,7.98E-03
58858,5.03E-03,7.90E-03
58859,5.76E-03,7.83E-03
58860,6.81E-03,7.79E-03
58861,7.52E-03,9.49E-03
58862,8.43E-03,9.15E-03
58863,8.21E-03,8.71E-03
58864,8.18E-03,8.30E-03
58865,8.32E-03,7.90E-03
58866,8.33E-03,7.51E-03
58867,8.53E-03,7.12E-03
58868,8.80E-03,6.71E-03
58869,7.63E-03,6.35E-03
58870,8.24E-03,6.03E-03
58871,7.87E-03,5.49E-03
58872,6.11E-03,3.05E-02
58873,6.02E-03,3.00E-02
58874,5.93E-03,2.96E-02
58875,6.09E-03,2.91E-02
58876,8.10E-03,1.38E-02
58877,8.10E-03,1.39E-02
58878,6.47E-03,2.85E-02
58879,6.76E-03,2.15E-02
58880,6.21E-03,2.18E-02
58881,6.17E-03,2.24E-02
58882,6.76E-03,2.30E-02
58883,7.54E-03,2.34E-02
58884,8.06E-03,1.18E-02
58885,8.24E-03,1.22E-02
58886,7.83E-03,3.32E-02
58887,6.79E-03,3.59E-02
58888,7.29E-03,3.78E-02
58889,9.81E-03,4.17E-02
58890,7.49E-03,1.52E-02
58891,8.38E-03,4.30E-02
58892,6.83E-03,3.14E-02
58893,9.89E-03,4.03E-03
58894,7.97E-03,5.21E-03
58895,1.00E-02,2.19E-02
58896,1.04E-02,2.19E-02
58897,8.10E-03,1.29E-02
58898,1.09E-02,1.49E-02
58899,7.56E-03,3.31E-02
58900,5.33E-03,3.72E-02
58901,5.49E-03,3.81E-02
58902,7.04E-03,1.58E-02
58903,6.55E-03,1.59E-02
58904,6.46E-03,1.60E-02
58905,5.72E-03,1.62E-02
58906,4.20E-03,1.64E-02
58907,3.79E-03,1.63E-02
58908,4.71E-03,1.63E-02
58909,4.87E-03,1.63E-02
58910,5.10E-03,1.64E-02
58911,5.22E-03,1.64E-02
58912,5.69E-03,1.64E-02
58913,5.62E-03,1.64E-02
58914,6.31E-03,1.64E-02
58915,6.36E-03,1.64E-02
58916,6.65E-03,1.64E-02
58917,6.67E-03,1.63E-02
58918,6.67E-03,1.63E-02
58919,6.70E-03,1.62E-02
58920,6.69E-03,1.61E-02
58921,6.58E-03,1.61E-02
58922,6.68E-03,1.60E-02
58923,7.12E-03,1.59E-02
58924,7.51E-03,1.58E-02
58925,7.68E-03,1.57E-02
58926,7.90E-03,1.56E-02
58927,8.23E-03,1.54E-02
58928,8.55E-03,1.53E-02
58929,8.85E-03,1.51E-02
58930,9.18E-03,1.50E-02
58931,9.54E-03,1.48E-02
58932,9.80E-03,1.46E-02
58933,9.81E-03,1.44E-02
58934,9.71E-03,1.43E-02
58935,9.59E-03,1.41E-02
58936,9.48E-03,1.39E-02
58937,9.38E-03,1.38E-02
58938,9.32E-03,1.36E-02
58939,9.42E-03,1.34E-02
58940,9.50E-03,1.33E-02
58941,9.45E-03,1.31E-02
58942,9.87E-03,1.30E-02
58943,1.15E-02,1.28E-02
58944,7.32E-03,1.40E-02
58945,6.76E-03,1.40E-02
58946,6.43E-03,1.41E-02
58947,4.83E-03,1.41E-02
58948,3.79E-03,1.41E-02
58949,3.88E-03,1.41E-02
58950,4.33E-03,1.41E-02
58951,4.99E-03,1.41E-02
58952,5.14E-03,1.41E-02
58953,5.67E-03,1.41E-02
58954,5.97E-03,1.41E-02
58955,6.28E-03,1.40E-02
58956,6.59E-03,1.40E-02
58957,6.85E-03,1.39E-02
58958,7.03E-03,1.39E-02
58959,7.18E-03,1.38E-02
58960,7.33E-03,1.37E-02
58961,7.42E-03,1.36E-02
58962,7.48E-03,1.36E-02
58963,7.53E-03,1.35E-02
58964,7.58E-03,1.34E-02
58965,7.64E-03,1.33E-02
58966,7.69E-03,1.32E-02
58967,7.74E-03,1.30E-02
58968,7.79E-03,1.29E-02
58969,7.82E-03,1.28E-02
58970,7.83E-03,1.27E-02
58971,7.84E-03,1.25E-02
58972,7.85E-03,1.24E-02
58973,7.87E-03,1.22E-02
58974,7.88E-03,1.21E-02
58975,7.89E-03,1.19E-02
58976,7.90E-03,1.18E-02
58977,7.92E-03,1.16E-02
58978,7.93E-03,1.14E-02
58979,7.94E-03,1.13E-02
58980,7.95E-03,1.11E-02
58981,7.95E-03,1.09E-02
58982,7.96E-03,1.07E-02
58983,7.97E-03,1.06E-02
58984,7.98E-03,1.04E-02
58985,7.99E-03,1.02E-02
58986,7.99E-03,1.01E-02
58987,8.00E-03,9.90E-03
58988,8.00E-03,9.75E-03
58989,8.01E-03,9.61E-03
58990,8.02E-03,9.48E-03
58991,8.02E-03,9.36E-03
58992,8.02E-03,9.26E-03
58993,8.02E-03,9.17E-03
58994,8.02E-03,9.10E-03
58995,8.02E-03,9.04E-03
58996,8.02E-03,9.00E-03
58997,8.02E-03,8.97E-03
58998,8.02E-03,8.96E-03
58999,8.02E-03,8.96E-03
59000,8.01E-03,8.98E-03
59001,8.01E-03,9.02E-03
59002,8.00E-03,9.06E-03
59003,7.99E-03,9.12E-03
59004,7.98E-03,9.20E-03
59005,7.97E-03,9.28E-03
59006,7.96E-03,9.37E-03
59007,7.95E-03,9.48E-03
59008,7.94E-03,9.59E-03
59009,7.94E-03,9.71E-03
59010,7.92E-03,9.83E-03
59011,7.90E-03,9.97E-03
59012,7.88E-03,1.01E-02
59013,7.86E-03,1.02E-02
59014,7.84E-03,1.04E-02
59015,7.82E-03,1.05E-02
59016,7.79E-03,1.07E-02
59017,7.77E-03,1.08E-02
59018,7.75E-03,1.10E-02
59019,7.73E-03,1.11E-02
59020,7.72E-03,1.13E-02
59021,7.70E-03,1.14E-02
59022,7.69E-03,1.16E-02
59023,7.67E-03,1.18E-02
59024,7.66E-03,1.19E-02
59025,7.64E-03,1.21E-02
59026,7.62E-03,1.22E-02
59027,7.60E-03,1.24E-02
59028,7.57E-03,1.25E-02
59029,7.55E-03,1.26E-02
59030,7.53E-03,1.28E-02
59031,7.49E-03,1.29E-02
59032,7.45E-03,1.31E-02
59033,7.40E-03,1.32E-02
59034,7.36E-03,1.34E-02
59035,7.32E-03,1.35E-02
59036,7.30E-03,1.36E-02
59037,7.29E-03,1.38E-02
59038,7.28E-03,1.39E-02
59039,7.29E-03,1.40E-02
59040,7.30E-03,1.41E-02
59041,7.32E-03,1.43E-02
59042,7.34E-03,1.44E-02
59043,7.35E-03,1.45E-02
59044,7.36E-03,1.47E-02
59045,7.37E-03,1.48E-02
59046,7.38E-03,1.49E-02
59047,7.39E-03,1.50E-02
59048,7.40E-03,1.52E-02
59049,7.42E-03,1.53E-02
59050,7.43E-03,1.54E-02
59051,7.43E-03,1.55E-02
59052,7.44E-03,1.57E-02
59053,7.46E-03,1.58E-02
59054,7.47E-03,1.59E-02
59055,7.48E-03,1.60E-02
59056,7.49E-03,1.62E-02
59057,7.49E-03,1.63E-02
59058,7.49E-03,1.64E-02
59059,7.49E-03,1.65E-02
59060,7.51E-03,1.67E-02
59061,7.54E-03,1.68E-02
59062,7.58E-03,1.69E-02
59063,7.62E-03,1.71E-02
59064,7.65E-03,1.72E-02
59065,7.66E-03,1.73E-02
59066,7.54E-03,1.75E-02
59067,7.50E-03,1.76E-02
59068,7.51E-03,1.77E-02
59069,7.40E-03,1.79E-02
59070,6.97E-03,1.80E-02
59071,6.19E-03,1.81E-02
59072,5.60E-03,1.82E-02
59073,4.26E-03,1.83E-02
59074,2.44E-03,1.84E-02
59075,3.23E-03,1.84E-02
59076,3.81E-03,1.85E-02
59077,3.45E-03,1.86E-02
59078,2.25E-03,1.87E-02
59079,3.27E-03,1.87E-02
59080,3.57E-03,1.87E-02
59081,3.87E-03,1.88E-02
59082,3.85E-03,1.88E-02
59083,3.83E-03,1.89E-02
59084,3.83E-03,1.90E-02
59085,3.90E-03,1.91E-02
59086,3.98E-03,1.91E-02
59087,4.06E-03,1.92E-02
59088,4.14E-03,1.92E-02
59089,4.17E-03,1.93E-02
59090,4.15E-03,1.94E-02
59091,4.11E-03,1.94E-02
59092,4.07E-03,1.95E-02
59093,4.05E-03,1.95E-02
59094,4.07E-03,1.96E-02
59095,4.10E-03,1.96E-02
59096,4.54E-03,1.97E-02
59097,4.73E-03,1.98E-02
59098,5.26E-03,1.98E-02
59099,5.39E-03,1.99E-02
59100,5.62E-03,1.99E-02
59101,5.91E-03,2.00E-02
59102,6.18E-03,2.00E-02
59103,6.40E-03,2.01E-02
59104,6.66E-03,2.02E-02
59105,6.84E-03,2.02E-02
59106,7.02E-03,2.03E-02
59107,7.89E-03,2.04E-02
59108,8.20E-03,2.04E-02
59109,8.36E-03,2.05E-02
59110,8.57E-03,2.06E-02
59111,8.87E-03,2.07E-02
59112,9.52E-03,2.08E-02
59113,9.52E-03,2.09E-02
59114,1.02E-02,2.10E-02
59115,1.05E-02,2.11E-02
59116,1.08E-02,2.13E-02
59117,1.11E-02,2.14E-02
59118,1.12E-02,2.16E-02
59119,8.09E-03,1.17E-02
59120,8.09E-03,1.15E-02
59121,8.09E-03,1.14E-02
59122,8.09E-03,1.12E-02
59123,8.09E-03,1.11E-02
59124,8.09E-03,1.09E-02
59125,8.09E-03,1.08E-02
59126,8.09E-03,1.06E-02
59127,8.09E-03,1.05E-02
59128,8.09E-03,1.03E-02
59129,8.09E-03,1.01E-02
59130,8.09E-03,9.96E-03
59131,8.09E-03,9.79E-03
59132,8.09E-03,9.62E-03
59133,8.09E-03,9.45E-03
59134,8.09E-03,9.28E-03
59135,8.09E-03,9.11E-03
59136,8.09E-03,8.94E-03
59137,8.09E-03,8.76E-03
59138,8.09E-03,8.59E-03
59139,8.09E-03,8.41E-03
59140,8.09E-03,8.23E-03
59141,8.09E-03,8.05E-03
59142,8.09E-03,7.88E-03
59143,8.09E-03,7.70E-03
59144,8.09E-03,7.52E-03
59145,8.09E-03,7.34E-03
59146,8.09E-03,7.17E-03
59147,8.09E-03,6.99E-03
59148,8.09E-03,6.82E-03
59149,8.09E-03,6.65E-03
59150,8.09E-03,6.48E-03
59151,8.09E-03,6.31E-03
59152,8.09E-03,6.14E-03
59153,8.09E-03,5.98E-03
59154,8.09E-03,5.82E-03
59155,8.09E-03,5.67E-03
59156,8.09E-03,5.52E-03
59157,8.09E-03,5.38E-03
59158,8.09E-03,5.24E-03
59159,8.09E-03,5.11E-03
59160,8.09E-03,4.99E-03
59161,8.09E-03,4.87E-03
59162,8.09E-03,4.77E-03
59163,8.09E-03,4.67E-03
59164,8.09E-03,4.59E-03
59165,8.09E-03,4.51E-03
59166,8.09E-03,4.45E-03
59167,8.09E-03,4.41E-03
59168,8.09E-03,4.37E-03
59169,8.09E-03,4.36E-03
59170,8.09E-03,4.35E-03
59171,8.09E-03,4.36E-03
59172,8.09E-03,4.38E-03
59173,8.09E-03,4.42E-03
59174,8.09E-03,4.48E-03
59175,8.09E-03,4.54E-03
59176,8.09E-03,4.62E-03
59177,8.09E-03,4.72E-03
59178,8.09E-03,4.82E-03
59179,8.09E-03,4.94E-03
59180,8.09E-03,5.06E-03
59181,8.09E-03,5.20E-03
59182,8.09E-03,5.35E-03
59183,8.09E-03,5.50E-03
59184,8.09E-03,5.66E-03
59185,8.09E-03,5.83E-03
59186,8.09E-03,6.00E-03
59187,8.09E-03,6.19E-03
59188,8.09E-03,6.37E-03
59189,8.09E-03,6.56E-03
59190,8.09E-03,6.76E-03
59191,8.09E-03,6.96E-03
59192,8.09E-03,7.16E-03
59193,8.09E-03,7.37E-03
59194,8.09E-03,7.58E-03
59195,8.09E-03,7.79E-03
59196,8.09E-03,8.01E-03
59197,8.09E-03,8.22E-03
59198,8.09E-03,8.44E-03
59199,8.09E-03,8.66E-03
59200,8.09E-03,8.89E-03
59201,8.09E-03,9.11E-03
59202,8.09E-03,9.33E-03
59203,8.09E-03,9.56E-03
59204,8.09E-03,9.79E-03
59205,8.09E-03,1.00E-02
59206,8.09E-03,1.02E-02
59207,8.09E-03,1.05E-02
59208,8.09E-03,1.07E-02
59209,8.09E-03,1.09E-02
59210,8.09E-03,1.12E-02
59211,8.09E-03,1.14E-02
59212,8.09E-03,1.16E-02
59213,8.09E-03,1.18E-02
59214,8.09E-03,1.21E-02
59215,8.09E-03,1.23E-02
59216,8.16E-03,1.25E-02
59217,8.17E-03,1.27E-02
59218,8.07E-03,1.29E-02
59219,7.84E-03,1.32E-02
59220,7.72E-03,1.34E-02
59221,7.83E-03,1.36E-02
59222,7.90E-03,1.38E-02
59223,7.96E-03,1.40E-02
59224,7.70E-03,1.42E-02
59225,7.46E-03,1.44E-02
59226,8.17E-03,1.47E-02
59227,6.40E-03,1.50E-02
59228,8.10E-03,1.36E-02
59229,8.10E-03,1.38E-02
59230,6.28E-03,2.02E-02
59231,6.49E-03,2.08E-02
59232,7.10E-03,3.70E-02
59233,9.46E-03,4.38E-02
59234,8.26E-03,4.39E-02
59235,7.03E-03,3.31E-02
59236,6.80E-03,3.25E-02
59237,5.38E-03,5.18E-03
59238,8.10E-03,1.30E-02
59239,8.10E-03,1.18E-02
59240,1.03E-02,1.42E-02
59241,8.18E-03,1.42E-02
59242,7.68E-03,1.43E-02
59243,8.10E-03,1.35E-02
59244,8.10E-03,1.38E-02
59245,8.10E-03,1.20E-02
59246,8.10E-03,1.31E-02
59247,8.10E-03,1.33E-02
59248,8.10E-03,1.37E-02
59249,8.86E-03,1.54E-02
59250,7.90E-03,1.58E-02
59251,8.10E-03,1.32E-02
59252,7.49E-03,1.57E-02
59253,7.43E-03,1.59E-02
59254,8.10E-03,1.22E-02
59255,8.10E-03,1.32E-02
59256,8.10E-03,1.36E-02
59257,8.10E-03,1.33E-02
59258,8.10E-03,1.23E-02
59259,8.10E-03,1.30E-02
59260,8.10E-03,1.35E-02
59261,8.10E-03,1.34E-02
59262,8.10E-03,1.28E-02
59263,8.10E-03,1.35E-02
59264,8.10E-03,1.25E-02
59265,8.10E-03,1.27E-02
59266,8.10E-03,1.38E-02
59267,8.10E-03,1.39E-02
59268,6.77E-03,2.79E-02
59269,8.11E-03,2.74E-02
59270,8.21E-03,2.67E-02
59271,8.22E-03,2.60E-02
59272,8.23E-03,2.53E-02
59273,8.21E-03,2.46E-02
59274,8.04E-03,2.40E-02
59275,8.06E-03,1.99E-02
59276,8.95E-03,1.93E-02
59277,9.02E-03,1.88E-02
59278,8.42E-03,1.82E-02
59279,8.23E-03,1.77E-02
59280,8.16E-03,1.72E-02
59281,8.00E-03,1.67E-02
59282,8.00E-03,1.61E-02
59283,8.00E-03,1.56E-02
59284,8.00E-03,1.51E-02
59285,8.00E-03,1.46E-02
59286,8.04E-03,1.41E-02
59287,8.15E-03,1.36E-02
59288,8.37E-03,1.31E-02
59289,8.40E-03,1.26E-02
59290,8.20E-03,3.38E-02
59291,7.68E-03,3.43E-02
59292,7.68E-03,3.47E-02
59293,6.67E-03,3.53E-02
59294,6.69E-03,3.56E-02
59295,8.12E-03,3.82E-02
59296,9.45E-03,3.88E-02
59297,9.61E-03,3.93E-02
59298,8.75E-03,4.04E-02
59299,9.37E-03,1.52E-02
59300,9.07E-03,1.52E-02
59301,8.92E-03,1.52E-02
59302,8.74E-03,1.52E-02
59303,8.61E-03,1.52E-02
59304,8.56E-03,1.52E-02
59305,7.32E-03,1.52E-02
59306,6.98E-03,1.52E-02
59307,6.81E-03,1.52E-02
59308,6.59E-03,1.53E-02
59309,6.31E-03,1.54E-02
59310,6.19E-03,1.55E-02
59311,6.29E-03,1.56E-02
59312,6.50E-03,1.58E-02
59313,6.66E-03,1.60E-02
59314,6.74E-03,1.62E-02
59315,6.82E-03,1.64E-02
59316,6.90E-03,1.68E-02
59317,6.98E-03,1.71E-02
59318,7.01E-03,1.75E-02
59319,7.00E-03,1.79E-02
59320,6.99E-03,1.84E-02
59321,6.98E-03,1.89E-02
59322,6.96E-03,1.94E-02
59323,6.94E-03,2.00E-02
59324,6.91E-03,2.06E-02
59325,6.84E-03,2.13E-02
59326,6.70E-03,2.19E-02
59327,6.55E-03,2.26E-02
59328,6.37E-03,2.32E-02
59329,6.11E-03,2.39E-02
59330,5.80E-03,2.45E-02
59331,5.52E-03,2.52E-02
59332,5.36E-03,2.58E-02
59333,5.28E-03,2.63E-02
59334,5.21E-03,2.69E-02
59335,5.16E-03,2.75E-02
59336,5.14E-03,2.81E-02
59337,5.13E-03,2.87E-02
59338,5.20E-03,2.93E-02
59339,5.42E-03,2.98E-02
59340,5.71E-03,3.04E-02
59341,5.98E-03,3.11E-02
59342,6.20E-03,3.17E-02
59343,6.39E-03,3.24E-02
59344,6.57E-03,3.30E-02
59345,6.73E-03,3.37E-02
59346,6.81E-03,3.43E-02
59347,6.85E-03,3.50E-02
59348,6.88E-03,3.56E-02
59349,6.91E-03,3.62E-02
59350,6.93E-03,3.69E-02
59351,6.93E-03,3.75E-02
59352,6.91E-03,3.80E-02
59353,6.88E-03,3.86E-02
59354,6.85E-03,3.91E-02
59355,6.82E-03,3.96E-02
59356,6.70E-03,4.01E-02
59357,6.41E-03,4.06E-02
59358,6.15E-03,4.10E-02
59359,6.04E-03,4.14E-02
59360,5.92E-03,4.18E-02
59361,5.90E-03,4.21E-02
59362,6.13E-03,4.25E-02
59363,6.43E-03,4.28E-02
59364,6.66E-03,4.30E-02
59365,6.84E-03,4.33E-02
59366,7.05E-03,4.35E-02
59367,7.31E-03,4.37E-02
59368,7.57E-03,4.39E-02
59369,7.75E-03,4.40E-02
59370,7.84E-03,4.41E-02
59371,7.91E-03,4.41E-02
59372,7.99E-03,4.41E-02
59373,8.06E-03,4.41E-02
59374,8.13E-03,4.40E-02
59375,8.39E-03,4.39E-02
59376,8.32E-03,4.37E-02
59377,8.31E-03,4.35E-02
59378,8.28E-03,4.33E-02
59379,5.68E-03,3.03E-02
59380,5.75E-03,3.08E-02
59381,9.04E-03,4.34E-03
59382,9.06E-03,4.64E-03
59383,8.92E-03,4.94E-03
59384,4.07E-03,7.70E-03
59385,4.47E-03,7.74E-03
59386,4.15E-03,7.84E-03
59387,4.14E-03,7.88E-03
59388,6.76E-03,7.97E-03
59389,6.66E-03,8.08E-03
59390,6.74E-03,8.18E-03
59391,6.92E-03,8.29E-03
59392,7.11E-03,8.40E-03
59393,7.29E-03,8.52E-03
59394,7.42E-03,8.65E-03
59395,7.64E-03,8.78E-03
59396,8.75E-03,8.92E-03
59397,9.37E-03,9.09E-03
59398,9.51E-03,9.26E-03
59399,9.60E-03,9.44E-03
59400,9.73E-03,9.62E-03
59401,9.80E-03,9.80E-03
59402,9.86E-03,9.98E-03
59403,9.94E-03,1.02E-02
59404,1.00E-02,1.04E-02
59405,1.01E-02,1.05E-02
59406,1.02E-02,1.07E-02
59407,1.02E-02,1.09E-02
59408,1.03E-02,1.11E-02
59409,1.03E-02,1.13E-02
59410,1.00E-02,1.14E-02
59411,9.59E-03,1.16E-02
59412,8.93E-03,1.18E-02
59413,8.31E-03,1.19E-02
59414,7.94E-03,1.21E-02
59415,7.40E-03,1.22E-02
59416,7.02E-03,1.23E-02
59417,7.02E-03,1.24E-02
59418,7.05E-03,1.25E-02
59419,7.03E-03,1.27E-02
59420,7.00E-03,1.28E-02
59421,7.02E-03,1.29E-02
59422,7.07E-03,1.30E-02
59423,7.13E-03,1.32E-02
59424,7.19E-03,1.33E-02
59425,7.25E-03,1.34E-02
59426,7.30E-03,1.36E-02
59427,7.33E-03,1.37E-02
59428,7.36E-03,1.39E-02
59429,7.38E-03,1.40E-02
59430,7.40E-03,1.42E-02
59431,7.42E-03,1.43E-02
59432,7.44E-03,1.45E-02
59433,7.45E-03,1.47E-02
59434,7.45E-03,1.48E-02
59435,7.44E-03,1.50E-02
59436,7.43E-03,1.52E-02
59437,7.42E-03,1.53E-02
59438,7.42E-03,1.55E-02
59439,7.40E-03,1.57E-02
59440,7.39E-03,1.59E-02
59441,7.36E-03,1.60E-02
59442,7.34E-03,1.62E-02
59443,7.32E-03,1.64E-02
59444,7.29E-03,1.66E-02
59445,7.27E-03,1.68E-02
59446,7.24E-03,1.69E-02
59447,7.22E-03,1.71E-02
59448,7.21E-03,1.72E-02
59449,7.21E-03,1.74E-02
59450,7.24E-03,1.75E-02
59451,7.28E-03,1.77E-02
59452,7.31E-03,1.78E-02
59453,7.34E-03,1.79E-02
59454,7.35E-03,1.80E-02
59455,7.37E-03,1.81E-02
59456,7.40E-03,1.82E-02
59457,7.43E-03,1.83E-02
59458,7.46E-03,1.84E-02
59459,7.51E-03,1.84E-02
59460,7.58E-03,1.84E-02
59461,7.67E-03,1.85E-02
59462,7.75E-03,1.85E-02
59463,7.81E-03,1.85E-02
59464,7.86E-03,1.85E-02
59465,7.91E-03,1.86E-02
59466,7.96E-03,1.86E-02
59467,8.02E-03,1.86E-02
59468,8.05E-03,1.86E-02
59469,8.02E-03,1.86E-02
59470,8.02E-03,1.87E-02
59471,8.11E-03,1.87E-02
59472,8.24E-03,1.88E-02
59473,8.38E-03,1.88E-02
59474,8.50E-03,1.89E-02
59475,8.56E-03,1.90E-02
59476,8.56E-03,1.91E-02
59477,8.55E-03,1.91E-02
59478,8.57E-03,1.92E-02
59479,8.59E-03,1.93E-02
59480,8.61E-03,1.94E-02
59481,8.63E-03,1.95E-02
59482,8.65E-03,1.96E-02
59483,8.67E-03,1.96E-02
59484,8.68E-03,1.97E-02
59485,8.68E-03,1.98E-02
59486,8.64E-03,1.98E-02
59487,8.59E-03,1.99E-02
59488,8.54E-03,2.00E-02
59489,8.49E-03,2.00E-02
59490,8.46E-03,2.01E-02
59491,8.43E-03,2.02E-02
59492,8.41E-03,2.02E-02
59493,8.39E-03,2.03E-02
59494,8.37E-03,2.04E-02
59495,8.35E-03,2.04E-02
59496,8.33E-03,2.05E-02
59497,8.32E-03,2.06E-02
59498,8.30E-03,2.06E-02
59499,8.27E-03,2.07E-02
59500,8.23E-03,2.07E-02
59501,8.19E-03,2.08E-02
59502,8.16E-03,2.09E-02
59503,8.15E-03,2.09E-02
59504,8.13E-03,2.10E-02
59505,8.12E-03,2.10E-02
59506,8.10E-03,2.11E-02
59507,8.08E-03,2.11E-02
59508,8.07E-03,2.11E-02
59509,8.05E-03,2.12E-02
59510,8.05E-03,2.12E-02
59511,8.05E-03,2.12E-02
59512,8.06E-03,2.12E-02
59513,8.07E-03,2.12E-02
59514,8.08E-03,2.12E-02
59515,8.10E-03,2.12E-02
59516,8.11E-03,2.12E-02
59517,8.12E-03,2.12E-02
59518,8.13E-03,2.12E-02
59519,8.14E-03,2.12E-02
59520,8.14E-03,2.12E-02
59521,8.14E-03,2.11E-02
59522,8.14E-03,2.11E-02
59523,8.16E-03,2.11E-02
59524,8.18E-03,2.11E-02
59525,8.22E-03,2.11E-02
59526,8.26E-03,2.10E-02
59527,8.33E-03,2.10E-02
59528,8.39E-03,2.10E-02
59529,8.41E-03,2.10E-02
59530,8.41E-03,2.10E-02
59531,8.41E-03,2.10E-02
59532,8.43E-03,2.10E-02
59533,8.47E-03,2.10E-02
59534,8.52E-03,2.10E-02
59535,8.58E-03,2.11E-02
59536,8.65E-03,2.11E-02
59537,8.73E-03,2.11E-02
59538,8.83E-03,2.11E-02
59539,9.00E-03,2.12E-02
59540,9.23E-03,2.12E-02
59541,9.47E-03,2.13E-02
59542,9.70E-03,2.13E-02
59543,9.92E-03,2.14E-02
59544,1.03E-02,2.15E-02
59545,1.04E-02,2.15E-02
59546,1.05E-02,2.16E-02
59547,1.07E-02,2.17E-02
59548,1.08E-02,2.18E-02
59549,8.37E-03,9.64E-03
59550,8.80E-03,9.08E-03
59551,8.37E-03,8.61E-03
59552,8.39E-03,8.18E-03
59553,8.37E-03,7.77E-03
59554,8.15E-03,7.37E-03
59555,8.12E-03,6.99E-03
59556,8.07E-03,6.59E-03
59557,8.00E-03,6.20E-03
59558,6.46E-03,5.93E-03
59559,8.09E-03,1.27E-02
59560,8.09E-03,1.26E-02
59561,8.09E-03,1.24E-02
59562,8.09E-03,1.22E-02
59563,8.09E-03,1.21E-02
59564,8.09E-03,1.19E-02
59565,8.09E-03,1.17E-02
59566,8.09E-03,1.15E-02
59567,8.09E-03,1.13E-02
59568,8.09E-03,1.12E-02
59569,8.09E-03,1.10E-02
59570,8.09E-03,1.08E-02
59571,8.09E-03,1.06E-02
59572,8.03E-03,1.04E-02
59573,7.96E-03,1.02E-02
59574,7.97E-03,1.00E-02
59575,8.02E-03,9.82E-03
59576,8.03E-03,9.62E-03
59577,7.98E-03,9.40E-03
59578,7.82E-03,9.18E-03
59579,7.83E-03,8.96E-03
59580,7.87E-03,8.76E-03
59581,7.96E-03,8.57E-03
59582,8.09E-03,8.37E-03
59583,8.09E-03,8.16E-03
59584,8.09E-03,7.96E-03
59585,8.09E-03,7.75E-03
59586,8.09E-03,7.54E-03
59587,8.09E-03,7.33E-03
59588,8.09E-03,7.13E-03
59589,8.09E-03,6.92E-03
59590,8.09E-03,6.72E-03
59591,8.09E-03,6.52E-03
59592,8.09E-03,6.32E-03
59593,8.09E-03,6.12E-03
59594,8.09E-03,5.93E-03
59595,8.09E-03,5.74E-03
59596,8.09E-03,5.55E-03
59597,8.09E-03,5.37E-03
59598,8.09E-03,5.20E-03
59599,8.09E-03,5.03E-03
59600,8.09E-03,4.87E-03
59601,8.09E-03,4.71E-03
59602,8.09E-03,4.56E-03
59603,8.09E-03,4.43E-03
59604,8.09E-03,4.30E-03
59605,8.09E-03,4.18E-03
59606,8.09E-03,4.08E-03
59607,8.09E-03,3.99E-03
59608,8.09E-03,3.91E-03
59609,8.09E-03,3.85E-03
59610,8.09E-03,3.81E-03
59611,8.09E-03,3.77E-03
59612,8.09E-03,3.76E-03
59613,8.09E-03,3.76E-03
59614,8.09E-03,3.78E-03
59615,8.09E-03,3.81E-03
59616,8.09E-03,3.86E-03
59617,8.09E-03,3.92E-03
59618,8.09E-03,4.00E-03
59619,8.09E-03,4.08E-03
59620,8.09E-03,4.18E-03
59621,8.09E-03,4.29E-03
59622,8.09E-03,4.41E-03
59623,8.09E-03,4.54E-03
59624,8.09E-03,4.67E-03
59625,8.09E-03,4.82E-03
59626,8.09E-03,4.96E-03
59627,8.09E-03,5.12E-03
59628,8.09E-03,5.27E-03
59629,8.09E-03,5.43E-03
59630,8.09E-03,5.60E-03
59631,8.09E-03,5.76E-03
59632,8.09E-03,5.93E-03
59633,8.09E-03,6.10E-03
59634,8.09E-03,6.28E-03
59635,8.09E-03,6.45E-03
59636,8.09E-03,6.62E-03
59637,8.09E-03,6.80E-03
59638,8.09E-03,6.97E-03
59639,8.09E-03,7.15E-03
59640,8.09E-03,7.33E-03
59641,8.09E-03,7.50E-03
59642,8.09E-03,7.68E-03
59643,8.09E-03,7.85E-03
59644,8.09E-03,8.03E-03
59645,8.09E-03,8.20E-03
59646,8.09E-03,8.37E-03
59647,8.09E-03,8.55E-03
59648,8.09E-03,8.72E-03
59649,8.09E-03,8.89E-03
59650,8.09E-03,9.06E-03
59651,8.09E-03,9.23E-03
59652,8.09E-03,9.39E-03
59653,8.09E-03,9.56E-03
59654,8.09E-03,9.73E-03
59655,8.09E-03,9.89E-03
59656,8.09E-03,1.01E-02
59657,8.09E-03,1.02E-02
59658,8.09E-03,1.04E-02
59659,8.09E-03,1.05E-02
59660,8.09E-03,1.07E-02
59661,8.09E-03,1.09E-02
59662,8.09E-03,1.10E-02
59663,8.09E-03,1.12E-02
59664,8.02E-03,1.13E-02
59665,7.94E-03,1.15E-02
59666,7.81E-03,1.16E-02
59667,7.78E-03,1.18E-02
59668,7.71E-03,1.19E-02
59669,7.67E-03,1.21E-02
59670,7.62E-03,1.22E-02
59671,7.70E-03,1.23E-02
59672,7.47E-03,1.25E-02
59673,6.76E-03,1.26E-02
59674,1.03E-02,1.42E-02
59675,1.02E-02,1.41E-02
59676,9.95E-03,1.42E-02
59677,9.89E-03,1.42E-02
59678,9.89E-03,1.42E-02
59679,9.91E-03,1.42E-02
59680,9.62E-03,1.43E-02
59681,9.11E-03,1.43E-02
59682,9.11E-03,1.43E-02
59683,8.85E-03,1.44E-02
59684,8.62E-03,1.44E-02
59685,8.46E-03,1.44E-02
59686,8.34E-03,1.45E-02
59687,8.18E-03,1.45E-02
59688,8.11E-03,1.46E-02
59689,8.11E-03,1.46E-02
59690,7.95E-03,1.46E-02
59691,7.62E-03,1.47E-02
59692,7.38E-03,1.47E-02
59693,7.36E-03,1.47E-02
59694,7.38E-03,1.48E-02
59695,7.35E-03,1.48E-02
59696,7.35E-03,1.48E-02
59697,7.37E-03,1.49E-02
59698,7.39E-03,1.49E-02
59699,7.40E-03,1.49E-02
59700,7.40E-03,1.49E-02
59701,7.41E-03,1.49E-02
59702,7.42E-03,1.50E-02
59703,7.50E-03,1.50E-02
59704,7.72E-03,1.50E-02
59705,7.85E-03,1.50E-02
59706,8.10E-03,1.50E-02
59707,8.30E-03,1.50E-02
59708,8.62E-03,1.50E-02
59709,8.88E-03,1.50E-02
59710,9.26E-03,1.50E-02
59711,9.77E-03,1.50E-02
59712,1.01E-02,1.50E-02
59713,1.03E-02,1.50E-02
59714,7.30E-03,3.37E-02
59715,9.61E-03,3.80E-03
59716,5.86E-03,3.82E-02
59717,7.56E-03,1.26E-02
59718,7.52E-03,1.25E-02
59719,7.51E-03,1.24E-02
59720,7.48E-03,1.23E-02
59721,7.43E-03,1.22E-02
59722,7.37E-03,1.21E-02
59723,7.14E-03,1.20E-02
59724,7.06E-03,1.19E-02
59725,7.00E-03,1.18E-02
59726,6.76E-03,1.17E-02
59727,6.80E-03,1.17E-02
59728,6.82E-03,1.16E-02
59729,6.79E-03,1.15E-02
59730,6.72E-03,1.14E-02
59731,6.65E-03,1.14E-02
59732,6.58E-03,1.13E-02
59733,6.52E-03,1.13E-02
59734,6.46E-03,1.12E-02
59735,6.40E-03,1.11E-02
59736,6.32E-03,1.11E-02
59737,6.22E-03,1.10E-02
59738,6.10E-03,1.10E-02
59739,5.99E-03,1.09E-02
59740,5.91E-03,1.09E-02
59741,5.87E-03,1.08E-02
59742,5.82E-03,1.08E-02
59743,5.79E-03,1.07E-02
59744,5.79E-03,1.07E-02
59745,5.81E-03,1.07E-02
59746,5.83E-03,1.06E-02
59747,5.94E-03,1.06E-02
59748,6.13E-03,1.05E-02
59749,6.33E-03,1.05E-02
59750,6.51E-03,1.04E-02
59751,6.65E-03,1.04E-02
59752,6.77E-03,1.04E-02
59753,6.88E-03,1.03E-02
59754,7.01E-03,1.03E-02
59755,7.17E-03,1.02E-02
59756,7.33E-03,1.02E-02
59757,7.45E-03,1.02E-02
59758,7.54E-03,1.01E-02
59759,7.59E-03,1.01E-02
59760,7.63E-03,1.01E-02
59761,7.70E-03,1.00E-02
59762,7.81E-03,1.00E-02
59763,7.91E-03,9.98E-03
59764,8.00E-03,9.96E-03
59765,8.06E-03,9.93E-03
59766,8.11E-03,9.91E-03
59767,8.13E-03,9.90E-03
59768,8.14E-03,9.88E-03
59769,8.16E-03,9.87E-03
59770,8.20E-03,9.86E-03
59771,8.25E-03,9.85E-03
59772,8.30E-03,9.84E-03
59773,8.35E-03,9.84E-03
59774,8.39E-03,9.84E-03
59775,8.43E-03,9.84E-03
59776,8.46E-03,9.85E-03
59777,8.49E-03,9.85E-03
59778,8.53E-03,9.86E-03
59779,8.57E-03,9.88E-03
59780,8.62E-03,9.89E-03
59781,8.67E-03,9.91E-03
59782,8.73E-03,9.94E-03
59783,8.83E-03,9.96E-03
59784,8.95E-03,9.99E-03
59785,9.06E-03,1.00E-02
59786,9.14E-03,1.01E-02
59787,9.21E-03,1.01E-02
59788,9.27E-03,1.02E-02
59789,9.33E-03,1.02E-02
59790,9.39E-03,1.03E-02
59791,9.45E-03,1.03E-02
59792,9.52E-03,1.04E-02
59793,9.60E-03,1.05E-02
59794,9.69E-03,1.05E-02
59795,9.78E-03,1.06E-02
59796,9.87E-03,1.07E-02
59797,9.96E-03,1.08E-02
59798,1.01E-02,1.09E-02
59799,1.02E-02,1.10E-02
59800,1.03E-02,1.11E-02
59801,1.05E-02,1.13E-02
59802,1.06E-02,1.14E-02
59803,1.08E-02,1.15E-02
59804,1.09E-02,1.17E-02
59805,1.08E-02,1.18E-02
59806,1.09E-02,1.19E-02
59807,1.11E-02,1.21E-02
59808,1.13E-02,1.23E-02
59809,1.07E-02,1.24E-02
59810,6.84E-03,3.37E-02
59811,7.79E-03,2.20E-02
59812,9.56E-03,2.21E-02
59813,9.09E-03,2.22E-02
59814,1.02E-02,1.50E-02
59815,1.01E-02,1.50E-02
59816,1.01E-02,1.51E-02
59817,9.86E-03,1.51E-02
59818,9.66E-03,1.51E-02
59819,9.44E-03,1.51E-02
59820,9.36E-03,1.51E-02
59821,9.08E-03,1.51E-02
59822,8.20E-03,1.52E-02
59823,8.03E-03,1.52E-02
59824,7.98E-03,1.52E-02
59825,7.44E-03,1.52E-02
59826,5.82E-03,1.52E-02
59827,8.23E-03,1.49E-02
59828,6.42E-03,1.52E-02
59829,9.59E-03,3.80E-03
59830,8.19E-03,3.60E-03
59831,7.81E-03,3.49E-03
59832,7.61E-03,3.40E-03
59833,7.20E-03,3.32E-03
59834,6.76E-03,3.24E-03
59835,6.21E-03,3.17E-03
59836,5.69E-03,3.11E-03
59837,4.37E-03,3.06E-03
59838,3.94E-03,3.02E-03
59839,3.91E-03,2.99E-03
59840,3.88E-03,2.97E-03
59841,3.86E-03,2.95E-03
59842,4.27E-03,2.93E-03
59843,5.11E-03,2.92E-03
59844,5.42E-03,2.90E-03
59845,5.77E-03,2.89E-03
59846,6.13E-03,2.88E-03
59847,6.62E-03,2.87E-03
59848,7.67E-03,2.86E-03
59849,7.80E-03,2.84E-03
59850,8.19E-03,2.83E-03
59851,9.36E-03,2.81E-03
59852,9.53E-03,2.78E-03
59853,9.11E-03,2.76E-03
59854,8.75E-03,2.73E-03
59855,8.36E-03,2.70E-03
59856,8.08E-03,2.68E-03
59857,7.72E-03,2.65E-03
59858,7.27E-03,2.62E-03
59859,7.03E-03,2.60E-03
59860,6.95E-03,2.58E-03
59861,6.89E-03,2.56E-03
59862,6.82E-03,2.54E-03
59863,6.72E-03,2.52E-03
59864,6.61E-03,2.50E-03
59865,6.49E-03,2.49E-03
59866,6.37E-03,2.48E-03
59867,6.23E-03,2.46E-03
59868,6.08E-03,2.45E-03
59869,5.92E-03,2.45E-03
59870,5.77E-03,2.44E-03
59871,5.65E-03,2.43E-03
59872,5.55E-03,2.43E-03
59873,5.45E-03,2.43E-03
59874,5.33E-03,2.43E-03
59875,5.13E-03,2.43E-03
59876,4.89E-03,2.44E-03
59877,4.66E-03,2.44E-03
59878,4.53E-03,2.45E-03
59879,4.55E-03,2.46E-03
59880,4.71E-03,2.47E-03
59881,4.97E-03,2.49E-03
59882,5.18E-03,2.51E-03
59883,5.36E-03,2.52E-03
59884,5.54E-03,2.55E-03
59885,5.75E-03,2.57E-03
59886,6.05E-03,2.60E-03
59887,6.43E-03,2.62E-03
59888,6.73E-03,2.65E-03
59889,6.93E-03,2.69E-03
59890,7.09E-03,2.72E-03
59891,7.22E-03,2.75E-03
59892,7.33E-03,2.79E-03
59893,7.44E-03,2.82E-03
59894,7.57E-03,2.86E-03
59895,7.70E-03,2.89E-03
59896,7.81E-03,2.93E-03
59897,7.88E-03,2.96E-03
59898,7.91E-03,2.99E-03
59899,7.94E-03,3.03E-03
59900,7.96E-03,3.06E-03
59901,7.97E-03,3.10E-03
59902,7.95E-03,3.13E-03
59903,7.94E-03,3.16E-03
59904,7.93E-03,3.19E-03
59905,7.91E-03,3.22E-03
59906,7.88E-03,3.25E-03
59907,7.85E-03,3.28E-03
59908,7.82E-03,3.31E-03
59909,7.79E-03,3.34E-03
59910,7.77E-03,3.37E-03
59911,7.76E-03,3.40E-03
59912,7.74E-03,3.43E-03
59913,7.73E-03,3.45E-03
59914,7.71E-03,3.48E-03
59915,7.70E-03,3.51E-03
59916,7.68E-03,3.54E-03
59917,7.67E-03,3.57E-03
59918,7.65E-03,3.59E-03
59919,7.62E-03,3.62E-03
59920,7.59E-03,3.65E-03
59921,7.56E-03,3.68E-03
59922,7.52E-03,3.71E-03
59923,7.49E-03,3.74E-03
59924,7.46E-03,3.76E-03
59925,7.43E-03,3.79E-03
59926,7.39E-03,3.82E-03
59927,7.36E-03,3.85E-03
59928,7.32E-03,3.88E-03
59929,7.28E-03,3.92E-03
59930,7.23E-03,3.95E-03
59931,7.16E-03,3.98E-03
59932,7.08E-03,4.01E-03
59933,7.00E-03,4.05E-03
59934,6.94E-03,4.08E-03
59935,6.89E-03,4.12E-03
59936,6.85E-03,4.15E-03
59937,6.82E-03,4.19E-03
59938,6.79E-03,4.23E-03
59939,6.77E-03,4.27E-03
59940,6.75E-03,4.31E-03
59941,6.74E-03,4.35E-03
59942,6.74E-03,4.39E-03
59943,6.76E-03,4.43E-03
59944,6.77E-03,4.48E-03
59945,6.79E-03,4.53E-03
59946,6.80E-03,4.57E-03
59947,6.82E-03,4.62E-03
59948,6.83E-03,4.67E-03
59949,6.83E-03,4.73E-03
59950,6.84E-03,4.78E-03
59951,6.84E-03,4.84E-03
59952,6.85E-03,4.89E-03
59953,6.85E-03,4.95E-03
59954,6.87E-03,5.01E-03
59955,6.93E-03,5.07E-03
59956,7.02E-03,5.14E-03
59957,7.11E-03,5.20E-03
59958,7.20E-03,5.27E-03
59959,7.29E-03,5.34E-03
59960,7.35E-03,5.42E-03
59961,7.41E-03,5.49E-03
59962,7.46E-03,5.57E-03
59963,7.52E-03,5.65E-03
59964,7.58E-03,5.73E-03
59965,7.67E-03,5.82E-03
59966,7.78E-03,5.90E-03
59967,7.94E-03,5.99E-03
59968,8.04E-03,6.08E-03
59969,8.08E-03,6.17E-03
59970,8.20E-03,6.26E-03
59971,8.40E-03,6.36E-03
59972,8.49E-03,6.45E-03
59973,9.02E-03,6.55E-03
59974,9.17E-03,6.65E-03
59975,9.51E-03,6.75E-03
59976,9.69E-03,6.85E-03
59977,1.00E-02,6.96E-03
59978,1.05E-02,7.06E-03
59979,1.10E-02,7.16E-03
59980,1.12E-02,7.23E-03
59981,1.10E-02,7.33E-03
59982,1.10E-02,7.41E-03
59983,7.02E-03,7.48E-03
59984,6.98E-03,7.52E-03
59985,6.60E-03,7.56E-03
59986,6.50E-03,7.61E-03
59987,6.71E-03,7.67E-03
59988,4.53E-03,7.63E-03
59989,8.10E-03,1.37E-02
59990,8.10E-03,1.38E-02
59991,7.82E-03,2.11E-02
59992,6.85E-03,2.17E-02
59993,6.76E-03,2.23E-02
59994,7.00E-03,2.29E-02
59995,7.35E-03,2.34E-02
59996,7.08E-03,2.04E-02
59997,8.87E-03,1.09E-02
59998,9.00E-03,1.14E-02
59999,8.65E-03,1.19E-02
60000,7.75E-03,3.37E-02
60001,7.22E-03,3.67E-02
60002,7.79E-03,3.84E-02
60003,8.28E-03,4.42E-02
60004,6.70E-03,3.18E-02
60005,7.91E-03,5.04E-03
60006,8.10E-03,1.28E-02
60007,8.09E-03,1.17E-02
60008,8.09E-03,1.16E-02
60009,8.09E-03,1.14E-02
60010,8.09E-03,1.13E-02
60011,8.09E-03,1.11E-02
60012,8.09E-03,1.10E-02
60013,8.09E-03,1.08E-02
60014,8.09E-03,1.06E-02
60015,8.09E-03,1.05E-02
60016,8.09E-03,1.03E-02
60017,8.09E-03,1.02E-02
60018,8.09E-03,9.99E-03
60019,8.09E-03,9.82E-03
60020,8.09E-03,9.65E-03
60021,8.09E-03,9.48E-03
60022,8.09E-03,9.31E-03
60023,8.09E-03,9.13E-03
60024,8.09E-03,8.96E-03
60025,8.09E-03,8.78E-03
60026,8.09E-03,8.61E-03
60027,8.09E-03,8.43E-03
60028,8.09E-03,8.25E-03
60029,8.09E-03,8.07E-03
60030,8.09E-03,7.89E-03
60031,8.09E-03,7.71E-03
60032,8.09E-03,7.54E-03
60033,8.09E-03,7.36E-03
60034,8.09E-03,7.18E-03
60035,8.09E-03,7.00E-03
60036,8.09E-03,6.83E-03
60037,8.09E-03,6.66E-03
60038,8.09E-03,6.48E-03
60039,8.09E-03,6.31E-03
60040,8.09E-03,6.15E-03
60041,8.09E-03,5.99E-03
60042,8.09E-03,5.83E-03
60043,8.09E-03,5.67E-03
60044,8.09E-03,5.52E-03
60045,8.09E-03,5.38E-03
60046,8.09E-03,5.24E-03
60047,8.09E-03,5.10E-03
60048,8.09E-03,4.98E-03
60049,8.09E-03,4.86E-03
60050,8.09E-03,4.76E-03
60051,8.09E-03,4.66E-03
60052,8.09E-03,4.57E-03
60053,8.09E-03,4.50E-03
60054,8.09E-03,4.44E-03
60055,8.09E-03,4.39E-03
60056,8.09E-03,4.35E-03
60057,8.09E-03,4.33E-03
60058,8.09E-03,4.32E-03
60059,8.09E-03,4.33E-03
60060,8.09E-03,4.35E-03
60061,8.09E-03,4.39E-03
60062,8.09E-03,4.44E-03
60063,8.09E-03,4.51E-03
60064,8.09E-03,4.59E-03
60065,8.09E-03,4.68E-03
60066,8.09E-03,4.78E-03
60067,8.09E-03,4.90E-03
60068,8.09E-03,5.02E-03
60069,8.09E-03,5.16E-03
60070,8.09E-03,5.30E-03
60071,8.09E-03,5.45E-03
60072,8.09E-03,5.61E-03
60073,8.09E-03,5.78E-03
60074,8.09E-03,5.95E-03
60075,8.09E-03,6.13E-03
60076,8.09E-03,6.32E-03
60077,8.09E-03,6.51E-03
60078,8.09E-03,6.70E-03
60079,8.09E-03,6.90E-03
60080,8.09E-03,7.10E-03
60081,8.09E-03,7.30E-03
60082,8.09E-03,7.51E-03
60083,8.09E-03,7.72E-03
60084,8.09E-03,7.94E-03
60085,8.09E-03,8.15E-03
60086,8.09E-03,8.37E-03
60087,8.09E-03,8.59E-03
60088,8.09E-03,8.81E-03
60089,8.09E-03,9.03E-03
60090,8.09E-03,9.25E-03
60091,8.09E-03,9.47E-03
60092,8.09E-03,9.70E-03
60093,8.09E-03,9.92E-03
60094,8.09E-03,1.01E-02
60095,8.09E-03,1.04E-02
60096,8.09E-03,1.06E-02
60097,8.09E-03,1.08E-02
60098,8.09E-03,1.10E-02
60099,8.09E-03,1.13E-02
60100,8.09E-03,1.15E-02
60101,8.09E-03,1.17E-02
60102,8.09E-03,1.19E-02
60103,8.09E-03,1.22E-02
60104,8.09E-03,1.24E-02
60105,8.09E-03,1.26E-02
60106,8.02E-03,1.28E-02
60107,7.94E-03,1.30E-02
60108,7.88E-03,1.33E-02
60109,7.96E-03,1.35E-02
60110,7.96E-03,1.37E-02
60111,7.92E-03,1.39E-02
60112,7.78E-03,1.41E-02
60113,7.89E-03,1.43E-02
60114,7.90E-03,1.45E-02
60115,7.98E-03,1.48E-02
60116,8.46E-03,1.51E-02
60117,7.65E-03,1.50E-02
60118,7.39E-03,1.53E-02
60119,7.02E-03,1.51E-02
60120,5.46E-03,2.99E-02
60121,5.68E-03,2.96E-02
60122,7.47E-03,1.43E-02
60123,7.12E-03,1.44E-02
60124,6.19E-03,1.44E-02
60125,4.59E-03,1.45E-02
60126,4.09E-03,1.45E-02
60127,4.17E-03,1.45E-02
60128,4.59E-03,1.45E-02
60129,5.11E-03,1.45E-02
60130,5.54E-03,1.45E-02
60131,5.84E-03,1.45E-02
60132,6.12E-03,1.44E-02
60133,6.40E-03,1.44E-02
60134,6.69E-03,1.44E-02
60135,6.93E-03,1.43E-02
60136,7.10E-03,1.42E-02
60137,7.25E-03,1.42E-02
60138,7.38E-03,1.41E-02
60139,7.47E-03,1.40E-02
60140,7.52E-03,1.39E-02
60141,7.57E-03,1.38E-02
60142,7.62E-03,1.37E-02
60143,7.67E-03,1.36E-02
60144,7.72E-03,1.35E-02
60145,7.77E-03,1.34E-02
60146,7.81E-03,1.33E-02
60147,7.84E-03,1.32E-02
60148,7.85E-03,1.30E-02
60149,7.86E-03,1.29E-02
60150,7.87E-03,1.28E-02
60151,7.88E-03,1.26E-02
60152,7.89E-03,1.25E-02
60153,7.91E-03,1.23E-02
60154,7.92E-03,1.21E-02
60155,7.93E-03,1.20E-02
60156,7.94E-03,1.18E-02
60157,7.95E-03,1.16E-02
60158,7.96E-03,1.14E-02
60159,7.96E-03,1.12E-02
60160,7.97E-03,1.11E-02
60161,7.98E-03,1.09E-02
60162,7.99E-03,1.07E-02
60163,7.99E-03,1.05E-02
60164,8.00E-03,1.03E-02
60165,8.00E-03,1.02E-02
60166,8.01E-03,1.00E-02
60167,8.02E-03,9.85E-03
60168,8.02E-03,9.71E-03
60169,8.03E-03,9.58E-03
60170,8.03E-03,9.47E-03
60171,8.03E-03,9.37E-03
60172,8.03E-03,9.28E-03
60173,8.03E-03,9.22E-03
60174,8.03E-03,9.16E-03
60175,8.03E-03,9.13E-03
60176,8.03E-03,9.11E-03
60177,8.03E-03,9.10E-03
60178,8.02E-03,9.11E-03
60179,8.01E-03,9.14E-03
60180,8.00E-03,9.18E-03
60181,8.00E-03,9.24E-03
60182,7.99E-03,9.30E-03
60183,7.98E-03,9.38E-03
60184,7.97E-03,9.47E-03
60185,7.96E-03,9.57E-03
60186,7.96E-03,9.67E-03
60187,7.95E-03,9.79E-03
60188,7.94E-03,9.91E-03
60189,7.92E-03,1.00E-02
60190,7.90E-03,1.02E-02
60191,7.88E-03,1.03E-02
60192,7.86E-03,1.04E-02
60193,7.83E-03,1.06E-02
60194,7.81E-03,1.07E-02
60195,7.79E-03,1.09E-02
60196,7.77E-03,1.10E-02
60197,7.76E-03,1.12E-02
60198,7.74E-03,1.13E-02
60199,7.73E-03,1.15E-02
60200,7.72E-03,1.16E-02
60201,7.70E-03,1.18E-02
60202,7.69E-03,1.20E-02
60203,7.67E-03,1.21E-02
60204,7.65E-03,1.23E-02
60205,7.63E-03,1.24E-02
60206,7.61E-03,1.25E-02
60207,7.59E-03,1.27E-02
60208,7.56E-03,1.28E-02
60209,7.53E-03,1.30E-02
60210,7.49E-03,1.31E-02
60211,7.45E-03,1.33E-02
60212,7.41E-03,1.34E-02
60213,7.37E-03,1.35E-02
60214,7.35E-03,1.37E-02
60215,7.34E-03,1.38E-02
60216,7.34E-03,1.39E-02
60217,7.34E-03,1.40E-02
60218,7.36E-03,1.42E-02
60219,7.37E-03,1.43E-02
60220,7.39E-03,1.44E-02
60221,7.40E-03,1.46E-02
60222,7.41E-03,1.47E-02
60223,7.42E-03,1.48E-02
60224,7.43E-03,1.49E-02
60225,7.44E-03,1.51E-02
60226,7.45E-03,1.52E-02
60227,7.46E-03,1.53E-02
60228,7.47E-03,1.54E-02
60229,7.48E-03,1.56E-02
60230,7.49E-03,1.57E-02
60231,7.50E-03,1.58E-02
60232,7.51E-03,1.59E-02
60233,7.52E-03,1.60E-02
60234,7.53E-03,1.62E-02
60235,7.53E-03,1.63E-02
60236,7.53E-03,1.64E-02
60237,7.54E-03,1.66E-02
60238,7.55E-03,1.67E-02
60239,7.58E-03,1.68E-02
60240,7.62E-03,1.69E-02
60241,7.65E-03,1.71E-02
60242,7.68E-03,1.72E-02
60243,7.69E-03,1.73E-02
60244,7.54E-03,1.75E-02
60245,7.39E-03,1.76E-02
60246,7.31E-03,1.77E-02
60247,7.16E-03,1.79E-02
60248,6.72E-03,1.80E-02
60249,6.21E-03,1.81E-02
60250,5.65E-03,1.82E-02
60251,5.65E-03,1.83E-02
60252,4.20E-03,1.84E-02
60253,3.49E-03,1.85E-02
60254,3.69E-03,1.85E-02
60255,3.42E-03,1.86E-02
60256,2.59E-03,1.87E-02
60257,1.81E-03,1.87E-02
60258,2.93E-03,1.88E-02
60259,3.31E-03,1.88E-02
60260,3.68E-03,1.89E-02
60261,3.85E-03,1.89E-02
60262,3.94E-03,1.90E-02
60263,4.11E-03,1.91E-02
60264,4.19E-03,1.91E-02
60265,4.26E-03,1.92E-02
60266,4.34E-03,1.93E-02
60267,4.41E-03,1.93E-02
60268,4.44E-03,1.94E-02
60269,4.42E-03,1.95E-02
60270,4.38E-03,1.95E-02
60271,4.35E-03,1.96E-02
60272,4.33E-03,1.97E-02
60273,4.35E-03,1.97E-02
60274,4.37E-03,1.98E-02
60275,4.77E-03,1.98E-02
60276,4.88E-03,1.99E-02
60277,5.37E-03,2.00E-02
60278,5.56E-03,2.00E-02
60279,5.81E-03,2.01E-02
60280,6.08E-03,2.01E-02
60281,6.35E-03,2.02E-02
60282,6.57E-03,2.03E-02
60283,6.75E-03,2.03E-02
60284,6.92E-03,2.04E-02
60285,7.11E-03,2.05E-02
60286,7.85E-03,2.05E-02
60287,8.28E-03,2.06E-02
60288,8.33E-03,2.07E-02
60289,8.55E-03,2.08E-02
60290,8.87E-03,2.09E-02
60291,9.32E-03,2.10E-02
60292,9.52E-03,2.11E-02
60293,1.00E-02,2.12E-02
60294,1.04E-02,2.13E-02
60295,1.07E-02,2.15E-02
60296,1.10E-02,2.16E-02
60297,1.14E-02,2.18E-02
60298,1.08E-02,2.20E-02
60299,8.34E-03,2.21E-02
60300,5.76E-03,5.09E-03
60301,8.10E-03,1.35E-02
60302,8.10E-03,1.37E-02
60303,6.79E-03,2.89E-02
60304,4.19E-03,3.00E-02
60305,7.30E-03,2.92E-02
60306,6.54E-03,3.30E-02
60307,9.70E-03,1.46E-02
60308,6.89E-03,1.46E-02
60309,7.25E-03,1.46E-02
60310,8.10E-03,1.19E-02
60311,8.10E-03,1.29E-02
60312,8.10E-03,1.34E-02
60313,8.10E-03,1.36E-02
60314,9.40E-03,1.57E-02
60315,7.88E-03,1.60E-02
60316,7.75E-03,4.52E-02
60317,7.20E-03,4.54E-02
60318,8.10E-03,1.30E-02
60319,7.70E-03,1.60E-02
60320,7.62E-03,1.63E-02
60321,7.22E-03,1.61E-02
60322,6.63E-03,1.62E-02
60323,6.34E-03,1.64E-02
60324,5.85E-03,1.65E-02
60325,5.36E-03,1.66E-02
60326,4.93E-03,1.65E-02
60327,4.89E-03,1.66E-02
60328,4.85E-03,1.67E-02
60329,5.16E-03,1.67E-02
60330,5.44E-03,1.68E-02
60331,5.67E-03,1.68E-02
60332,5.70E-03,1.68E-02
60333,6.36E-03,1.68E-02
60334,6.52E-03,1.67E-02
60335,6.74E-03,1.67E-02
60336,6.77E-03,1.66E-02
60337,6.77E-03,1.66E-02
60338,6.80E-03,1.65E-02
60339,6.78E-03,1.65E-02
60340,6.69E-03,1.64E-02
60341,6.78E-03,1.63E-02
60342,7.18E-03,1.62E-02
60343,7.54E-03,1.61E-02
60344,7.70E-03,1.59E-02
60345,7.91E-03,1.58E-02
60346,8.22E-03,1.57E-02
60347,8.51E-03,1.55E-02
60348,8.79E-03,1.53E-02
60349,9.10E-03,1.52E-02
60350,9.44E-03,1.50E-02
60351,9.67E-03,1.48E-02
60352,9.69E-03,1.46E-02
60353,9.59E-03,1.44E-02
60354,9.49E-03,1.42E-02
60355,9.38E-03,1.41E-02
60356,9.29E-03,1.39E-02
60357,9.24E-03,1.37E-02
60358,9.35E-03,1.36E-02
60359,9.42E-03,1.34E-02
60360,9.62E-03,1.32E-02
60361,1.03E-02,1.31E-02
60362,1.24E-02,1.29E-02
60363,8.10E-03,1.20E-02
60364,8.10E-03,1.32E-02
60365,8.10E-03,1.36E-02
60366,9.01E-03,4.23E-02
60367,8.28E-03,4.40E-02
60368,8.10E-03,1.31E-02
60369,8.10E-03,1.22E-02
60370,8.10E-03,1.30E-02
60371,8.10E-03,1.35E-02
60372,8.10E-03,1.32E-02
60373,8.10E-03,1.29E-02
60374,8.10E-03,1.34E-02
60375,8.10E-03,1.24E-02
60376,8.10E-03,1.25E-02
60377,8.10E-03,1.33E-02
60378,8.10E-03,1.27E-02
60379,1.13E-02,2.21E-02
60380,6.80E-03,5.33E-03
60381,5.06E-03,3.01E-02
60382,8.68E-03,3.81E-02
60383,4.88E-03,3.02E-02
60384,5.48E-03,3.07E-02
60385,8.10E-03,1.37E-02
60386,8.10E-03,1.37E-02
60387,7.40E-03,2.83E-02
60388,8.49E-03,2.77E-02
60389,8.41E-03,2.69E-02
60390,8.34E-03,2.61E-02
60391,8.28E-03,2.54E-02
60392,8.08E-03,2.47E-02
60393,7.80E-03,2.40E-02
60394,8.00E-03,1.98E-02
60395,8.47E-03,1.93E-02
60396,8.53E-03,1.87E-02
60397,8.51E-03,1.82E-02
60398,8.34E-03,1.76E-02
60399,8.16E-03,1.71E-02
60400,8.07E-03,1.66E-02
60401,8.00E-03,1.60E-02
60402,8.00E-03,1.55E-02
60403,8.00E-03,1.50E-02
60404,8.00E-03,1.44E-02
60405,8.08E-03,1.39E-02
60406,8.13E-03,1.34E-02
60407,8.30E-03,1.29E-02
60408,8.44E-03,1.24E-02
60409,7.82E-03,3.43E-02
60410,7.75E-03,3.49E-02
60411,7.36E-03,3.54E-02
60412,7.16E-03,3.59E-02
60413,6.61E-03,3.63E-02
60414,8.49E-03,3.89E-02
60415,8.85E-03,3.96E-02
60416,8.87E-03,4.02E-02
60417,8.47E-03,4.09E-02
60418,9.71E-03,1.54E-02
60419,9.20E-03,1.54E-02
60420,8.94E-03,1.54E-02
60421,8.82E-03,1.54E-02
60422,8.72E-03,1.54E-02
60423,8.61E-03,1.53E-02
60424,7.37E-03,1.53E-02
60425,7.06E-03,1.53E-02
60426,6.90E-03,1.53E-02
60427,6.70E-03,1.54E-02
60428,6.44E-03,1.54E-02
60429,6.32E-03,1.55E-02
60430,6.42E-03,1.56E-02
60431,6.62E-03,1.58E-02
60432,6.76E-03,1.60E-02
60433,6.84E-03,1.62E-02
60434,6.91E-03,1.64E-02
60435,6.99E-03,1.67E-02
60436,7.06E-03,1.71E-02
60437,7.09E-03,1.75E-02
60438,7.08E-03,1.79E-02
60439,7.07E-03,1.84E-02
60440,7.06E-03,1.89E-02
60441,7.04E-03,1.95E-02
60442,7.02E-03,2.01E-02
60443,6.99E-03,2.07E-02
60444,6.93E-03,2.14E-02
60445,6.80E-03,2.20E-02
60446,6.66E-03,2.27E-02
60447,6.49E-03,2.34E-02
60448,6.25E-03,2.41E-02
60449,5.96E-03,2.48E-02
60450,5.71E-03,2.55E-02
60451,5.56E-03,2.61E-02
60452,5.48E-03,2.67E-02
60453,5.42E-03,2.74E-02
60454,5.37E-03,2.80E-02
60455,5.35E-03,2.86E-02
60456,5.34E-03,2.93E-02
60457,5.41E-03,2.99E-02
60458,5.62E-03,3.05E-02
60459,5.88E-03,3.12E-02
60460,6.13E-03,3.18E-02
60461,6.34E-03,3.25E-02
60462,6.51E-03,3.32E-02
60463,6.68E-03,3.39E-02
60464,6.82E-03,3.46E-02
60465,6.91E-03,3.53E-02
60466,6.94E-03,3.59E-02
60467,6.96E-03,3.66E-02
60468,6.99E-03,3.73E-02
60469,7.01E-03,3.79E-02
60470,7.02E-03,3.85E-02
60471,7.00E-03,3.91E-02
60472,6.97E-03,3.97E-02
60473,6.94E-03,4.03E-02
60474,6.91E-03,4.08E-02
60475,6.80E-03,4.13E-02
60476,6.53E-03,4.18E-02
60477,6.29E-03,4.22E-02
60478,6.19E-03,4.27E-02
60479,6.08E-03,4.31E-02
60480,6.06E-03,4.34E-02
60481,6.27E-03,4.38E-02
60482,6.55E-03,4.41E-02
60483,6.76E-03,4.44E-02
60484,6.93E-03,4.46E-02
60485,7.12E-03,4.49E-02
60486,7.36E-03,4.51E-02
60487,7.61E-03,4.53E-02
60488,7.77E-03,4.54E-02
60489,7.85E-03,4.55E-02
60490,7.92E-03,4.55E-02
60491,7.99E-03,4.56E-02
60492,8.06E-03,4.55E-02
60493,8.12E-03,4.54E-02
60494,8.31E-03,4.53E-02
60495,8.29E-03,4.51E-02
60496,8.31E-03,4.48E-02
60497,8.31E-03,4.45E-02
60498,5.62E-03,3.12E-02
60499,9.26E-03,4.13E-03
60500,9.17E-03,4.44E-03
60501,9.20E-03,4.75E-03
60502,8.96E-03,3.52E-03
60503,9.87E-03,3.49E-03
60504,8.36E-03,3.36E-03
60505,8.05E-03,3.25E-03
60506,7.93E-03,3.16E-03
60507,7.28E-03,3.07E-03
60508,6.87E-03,3.00E-03
60509,6.44E-03,2.93E-03
60510,5.59E-03,2.87E-03
60511,4.65E-03,2.82E-03
60512,4.25E-03,2.79E-03
60513,4.22E-03,2.76E-03
60514,4.19E-03,2.74E-03
60515,4.18E-03,2.72E-03
60516,4.48E-03,2.71E-03
60517,5.19E-03,2.69E-03
60518,5.60E-03,2.68E-03
60519,5.87E-03,2.68E-03
60520,6.31E-03,2.67E-03
60521,6.83E-03,2.66E-03
60522,7.64E-03,2.65E-03
60523,7.88E-03,2.65E-03
60524,8.27E-03,2.64E-03
60525,9.43E-03,2.62E-03
60526,9.43E-03,2.60E-03
60527,9.03E-03,2.58E-03
60528,8.70E-03,2.56E-03
60529,8.34E-03,2.53E-03
60530,8.08E-03,2.51E-03
60531,7.75E-03,2.48E-03
60532,7.33E-03,2.46E-03
60533,7.11E-03,2.44E-03
60534,7.04E-03,2.42E-03
60535,6.98E-03,2.40E-03
60536,6.91E-03,2.39E-03
60537,6.82E-03,2.37E-03
60538,6.72E-03,2.35E-03
60539,6.61E-03,2.34E-03
60540,6.50E-03,2.33E-03
60541,6.37E-03,2.32E-03
60542,6.23E-03,2.31E-03
60543,6.08E-03,2.30E-03
60544,5.94E-03,2.30E-03
60545,5.83E-03,2.29E-03
60546,5.74E-03,2.29E-03
60547,5.65E-03,2.29E-03
60548,5.53E-03,2.29E-03
60549,5.35E-03,2.30E-03
60550,5.13E-03,2.30E-03
60551,4.91E-03,2.31E-03
60552,4.79E-03,2.32E-03
60553,4.81E-03,2.33E-03
60554,4.96E-03,2.34E-03
60555,5.20E-03,2.36E-03
60556,5.40E-03,2.38E-03
60557,5.56E-03,2.40E-03
60558,5.73E-03,2.42E-03
60559,5.92E-03,2.44E-03
60560,6.21E-03,2.47E-03
60561,6.55E-03,2.50E-03
60562,6.83E-03,2.53E-03
60563,7.02E-03,2.56E-03
60564,7.17E-03,2.59E-03
60565,7.29E-03,2.63E-03
60566,7.38E-03,2.66E-03
60567,7.49E-03,2.69E-03
60568,7.60E-03,2.73E-03
60569,7.73E-03,2.76E-03
60570,7.84E-03,2.80E-03
60571,7.89E-03,2.83E-03
60572,7.92E-03,2.87E-03
60573,7.95E-03,2.90E-03
60574,7.97E-03,2.93E-03
60575,7.98E-03,2.97E-03
60576,7.96E-03,3.00E-03
60577,7.95E-03,3.03E-03
60578,7.94E-03,3.06E-03
60579,7.92E-03,3.09E-03
60580,7.90E-03,3.12E-03
60581,7.87E-03,3.15E-03
60582,7.84E-03,3.18E-03
60583,7.82E-03,3.21E-03
60584,7.80E-03,3.24E-03
60585,7.78E-03,3.27E-03
60586,7.77E-03,3.30E-03
60587,7.76E-03,3.32E-03
60588,7.74E-03,3.35E-03
60589,7.73E-03,3.38E-03
60590,7.71E-03,3.41E-03
60591,7.70E-03,3.44E-03
60592,7.68E-03,3.46E-03
60593,7.66E-03,3.49E-03
60594,7.63E-03,3.52E-03
60595,7.60E-03,3.55E-03
60596,7.57E-03,3.58E-03
60597,7.54E-03,3.60E-03
60598,7.51E-03,3.63E-03
60599,7.48E-03,3.66E-03
60600,7.45E-03,3.69E-03
60601,7.41E-03,3.72E-03
60602,7.38E-03,3.75E-03
60603,7.34E-03,3.78E-03
60604,7.29E-03,3.82E-03
60605,7.23E-03,3.85E-03
60606,7.15E-03,3.88E-03
60607,7.08E-03,3.92E-03
60608,7.02E-03,3.95E-03
60609,6.98E-03,3.98E-03
60610,6.95E-03,4.02E-03
60611,6.91E-03,4.06E-03
60612,6.88E-03,4.10E-03
60613,6.87E-03,4.13E-03
60614,6.85E-03,4.17E-03
60615,6.84E-03,4.22E-03
60616,6.84E-03,4.26E-03
60617,6.86E-03,4.30E-03
60618,6.87E-03,4.35E-03
60619,6.89E-03,4.39E-03
60620,6.90E-03,4.44E-03
60621,6.91E-03,4.49E-03
60622,6.92E-03,4.54E-03
60623,6.93E-03,4.59E-03
60624,6.93E-03,4.65E-03
60625,6.93E-03,4.70E-03
60626,6.94E-03,4.76E-03
60627,6.94E-03,4.82E-03
60628,6.96E-03,4.88E-03
60629,7.02E-03,4.94E-03
60630,7.10E-03,5.01E-03
60631,7.19E-03,5.07E-03
60632,7.27E-03,5.14E-03
60633,7.35E-03,5.21E-03
60634,7.41E-03,5.29E-03
60635,7.46E-03,5.36E-03
60636,7.51E-03,5.44E-03
60637,7.56E-03,5.52E-03
60638,7.62E-03,5.60E-03
60639,7.70E-03,5.69E-03
60640,7.80E-03,5.77E-03
60641,7.91E-03,5.86E-03
60642,8.04E-03,5.95E-03
60643,8.08E-03,6.04E-03
60644,8.18E-03,6.13E-03
60645,8.31E-03,6.23E-03
60646,8.58E-03,6.32E-03
60647,8.85E-03,6.42E-03
60648,9.15E-03,6.52E-03
60649,9.46E-03,6.62E-03
60650,9.63E-03,6.73E-03
60651,1.00E-02,6.83E-03
60652,1.04E-02,6.93E-03
60653,1.09E-02,7.02E-03
60654,1.09E-02,7.11E-03
60655,1.10E-02,7.20E-03
60656,1.03E-02,7.28E-03
60657,7.15E-03,7.34E-03
60658,6.85E-03,7.38E-03
60659,6.61E-03,7.43E-03
60660,6.35E-03,7.47E-03
60661,5.59E-03,7.49E-03
60662,4.43E-03,7.49E-03
60663,3.11E-03,7.51E-03
60664,1.80E-03,7.53E-03
60665,1.47E-03,7.54E-03
60666,2.91E-03,7.57E-03
60667,4.32E-03,7.67E-03
60668,4.30E-03,7.74E-03
60669,4.31E-03,7.80E-03
60670,6.76E-03,7.88E-03
60671,6.71E-03,7.98E-03
60672,6.80E-03,8.09E-03
60673,6.99E-03,8.20E-03
60674,7.19E-03,8.32E-03
60675,7.37E-03,8.44E-03
60676,7.48E-03,8.57E-03
60677,7.69E-03,8.70E-03
60678,8.80E-03,8.85E-03
60679,9.27E-03,9.02E-03
60680,9.40E-03,9.19E-03
60681,9.49E-03,9.37E-03
60682,9.61E-03,9.55E-03
60683,9.67E-03,9.73E-03
60684,9.73E-03,9.92E-03
60685,9.80E-03,1.01E-02
60686,9.89E-03,1.03E-02
60687,9.98E-03,1.05E-02
60688,1.00E-02,1.07E-02
60689,1.01E-02,1.08E-02
60690,1.01E-02,1.10E-02
60691,1.01E-02,1.12E-02
60692,9.92E-03,1.14E-02
60693,9.52E-03,1.15E-02
60694,8.76E-03,1.17E-02
60695,8.29E-03,1.18E-02
60696,7.95E-03,1.20E-02
60697,7.45E-03,1.21E-02
60698,7.10E-03,1.22E-02
60699,7.10E-03,1.24E-02
60700,7.13E-03,1.25E-02
60701,7.10E-03,1.26E-02
60702,7.08E-03,1.27E-02
60703,7.10E-03,1.29E-02
60704,7.15E-03,1.30E-02
60705,7.20E-03,1.31E-02
60706,7.26E-03,1.33E-02
60707,7.31E-03,1.34E-02
60708,7.36E-03,1.36E-02
60709,7.39E-03,1.37E-02
60710,7.41E-03,1.39E-02
60711,7.44E-03,1.40E-02
60712,7.46E-03,1.42E-02
60713,7.47E-03,1.43E-02
60714,7.49E-03,1.45E-02
60715,7.50E-03,1.47E-02
60716,7.50E-03,1.48E-02
60717,7.49E-03,1.50E-02
60718,7.48E-03,1.52E-02
60719,7.47E-03,1.54E-02
60720,7.47E-03,1.56E-02
60721,7.46E-03,1.57E-02
60722,7.44E-03,1.59E-02
60723,7.42E-03,1.61E-02
60724,7.40E-03,1.63E-02
60725,7.37E-03,1.65E-02
60726,7.35E-03,1.67E-02
60727,7.33E-03,1.69E-02
60728,7.31E-03,1.70E-02
60729,7.29E-03,1.72E-02
60730,7.27E-03,1.74E-02
60731,7.27E-03,1.76E-02
60732,7.30E-03,1.77E-02
60733,7.34E-03,1.79E-02
60734,7.37E-03,1.80E-02
60735,7.39E-03,1.81E-02
60736,7.41E-03,1.82E-02
60737,7.42E-03,1.83E-02
60738,7.45E-03,1.84E-02
60739,7.48E-03,1.85E-02
60740,7.51E-03,1.86E-02
60741,7.55E-03,1.86E-02
60742,7.62E-03,1.87E-02
60743,7.70E-03,1.87E-02
60744,7.77E-03,1.87E-02
60745,7.83E-03,1.88E-02
60746,7.87E-03,1.88E-02
60747,7.92E-03,1.88E-02
60748,7.97E-03,1.88E-02
60749,8.03E-03,1.88E-02
60750,8.05E-03,1.89E-02
60751,8.02E-03,1.89E-02
60752,8.02E-03,1.89E-02
60753,8.11E-03,1.90E-02
60754,8.23E-03,1.90E-02
60755,8.36E-03,1.91E-02
60756,8.47E-03,1.92E-02
60757,8.53E-03,1.92E-02
60758,8.52E-03,1.93E-02
60759,8.52E-03,1.94E-02
60760,8.54E-03,1.95E-02
60761,8.56E-03,1.96E-02
60762,8.57E-03,1.97E-02
60763,8.59E-03,1.97E-02
60764,8.61E-03,1.98E-02
60765,8.63E-03,1.99E-02
60766,8.64E-03,2.00E-02
60767,8.63E-03,2.00E-02
60768,8.60E-03,2.01E-02
60769,8.56E-03,2.02E-02
60770,8.51E-03,2.02E-02
60771,8.46E-03,2.03E-02
60772,8.43E-03,2.03E-02
60773,8.41E-03,2.04E-02
60774,8.39E-03,2.05E-02
60775,8.37E-03,2.05E-02
60776,8.35E-03,2.06E-02
60777,8.33E-03,2.07E-02
60778,8.32E-03,2.07E-02
60779,8.30E-03,2.08E-02
60780,8.29E-03,2.08E-02
60781,8.26E-03,2.09E-02
60782,8.22E-03,2.10E-02
60783,8.19E-03,2.10E-02
60784,8.16E-03,2.11E-02
60785,8.14E-03,2.12E-02
60786,8.13E-03,2.12E-02
60787,8.12E-03,2.13E-02
60788,8.10E-03,2.13E-02
60789,8.08E-03,2.13E-02
60790,8.07E-03,2.14E-02
60791,8.06E-03,2.14E-02
60792,8.05E-03,2.14E-02
60793,8.05E-03,2.14E-02
60794,8.06E-03,2.14E-02
60795,8.07E-03,2.14E-02
60796,8.08E-03,2.15E-02
60797,8.10E-03,2.14E-02
60798,8.11E-03,2.14E-02
60799,8.12E-03,2.14E-02
60800,8.13E-03,2.14E-02
60801,8.13E-03,2.14E-02
60802,8.13E-03,2.14E-02
60803,8.14E-03,2.14E-02
60804,8.14E-03,2.13E-02
60805,8.15E-03,2.13E-02
60806,8.18E-03,2.13E-02
60807,8.21E-03,2.13E-02
60808,8.25E-03,2.13E-02
60809,8.31E-03,2.12E-02
60810,8.37E-03,2.12E-02
60811,8.39E-03,2.12E-02
60812,8.39E-03,2.12E-02
60813,8.39E-03,2.12E-02
60814,8.40E-03,2.12E-02
60815,8.44E-03,2.12E-02
60816,8.49E-03,2.12E-02
60817,8.55E-03,2.13E-02
60818,8.61E-03,2.13E-02
60819,8.68E-03,2.13E-02
60820,8.77E-03,2.14E-02
60821,8.93E-03,2.14E-02
60822,9.15E-03,2.15E-02
60823,9.37E-03,2.15E-02
60824,9.58E-03,2.16E-02
60825,9.78E-03,2.16E-02
60826,1.02E-02,2.17E-02
60827,1.03E-02,2.18E-02
60828,1.04E-02,2.19E-02
60829,1.07E-02,2.19E-02
60830,1.08E-02,2.20E-02
60831,1.09E-02,2.21E-02
60832,1.16E-02,9.50E-03
60833,9.61E-03,8.94E-03
60834,8.76E-03,8.48E-03
60835,8.49E-03,8.04E-03
60836,8.26E-03,7.61E-03
60837,8.04E-03,7.21E-03
60838,7.51E-03,6.82E-03
60839,7.37E-03,6.48E-03
60840,7.88E-03,6.06E-03
60841,7.33E-03,5.70E-03
60842,5.95E-03,1.51E-02
60843,4.59E-03,1.54E-02
60844,8.09E-03,1.27E-02
60845,8.09E-03,1.25E-02
60846,8.09E-03,1.23E-02
60847,8.09E-03,1.22E-02
60848,8.09E-03,1.20E-02
60849,8.09E-03,1.18E-02
60850,8.09E-03,1.17E-02
60851,8.09E-03,1.15E-02
60852,8.09E-03,1.13E-02
60853,8.09E-03,1.11E-02
60854,8.09E-03,1.09E-02
60855,8.09E-03,1.07E-02
60856,8.09E-03,1.06E-02
60857,8.09E-03,1.04E-02
60858,8.09E-03,1.02E-02
60859,8.09E-03,9.98E-03
60860,8.09E-03,9.79E-03
60861,8.04E-03,9.58E-03
60862,8.00E-03,9.37E-03
60863,7.97E-03,9.16E-03
60864,7.94E-03,8.95E-03
60865,7.95E-03,8.75E-03
60866,8.03E-03,8.55E-03
60867,8.09E-03,8.35E-03
60868,8.09E-03,8.14E-03
60869,8.09E-03,7.94E-03
60870,8.09E-03,7.73E-03
60871,8.09E-03,7.52E-03
60872,8.09E-03,7.32E-03
60873,8.09E-03,7.11E-03
60874,8.09E-03,6.91E-03
60875,8.09E-03,6.71E-03
60876,8.09E-03,6.51E-03
60877,8.09E-03,6.31E-03
60878,8.09E-03,6.12E-03
60879,8.09E-03,5.92E-03
60880,8.09E-03,5.73E-03
60881,8.09E-03,5.55E-03
60882,8.09E-03,5.37E-03
60883,8.09E-03,5.20E-03
60884,8.09E-03,5.03E-03
60885,8.09E-03,4.87E-03
60886,8.09E-03,4.71E-03
60887,8.09E-03,4.57E-03
60888,8.09E-03,4.43E-03
60889,8.09E-03,4.31E-03
60890,8.09E-03,4.19E-03
60891,8.09E-03,4.09E-03
60892,8.09E-03,4.00E-03
60893,8.09E-03,3.92E-03
60894,8.09E-03,3.86E-03
60895,8.09E-03,3.81E-03
60896,8.09E-03,3.78E-03
60897,8.09E-03,3.77E-03
60898,8.09E-03,3.77E-03
60899,8.09E-03,3.79E-03
60900,8.09E-03,3.82E-03
60901,8.09E-03,3.87E-03
60902,8.09E-03,3.93E-03
60903,8.09E-03,4.01E-03
60904,8.09E-03,4.10E-03
60905,8.09E-03,4.20E-03
60906,8.09E-03,4.31E-03
60907,8.09E-03,4.43E-03
60908,8.09E-03,4.55E-03
60909,8.09E-03,4.69E-03
60910,8.09E-03,4.83E-03
60911,8.09E-03,4.98E-03
60912,8.09E-03,5.13E-03
60913,8.09E-03,5.29E-03
60914,8.09E-03,5.45E-03
60915,8.09E-03,5.62E-03
60916,8.09E-03,5.78E-03
60917,8.09E-03,5.95E-03
60918,8.09E-03,6.12E-03
60919,8.09E-03,6.30E-03
60920,8.09E-03,6.47E-03
60921,8.09E-03,6.65E-03
60922,8.09E-03,6.82E-03
60923,8.09E-03,7.00E-03
60924,8.09E-03,7.18E-03
60925,8.09E-03,7.35E-03
60926,8.09E-03,7.53E-03
60927,8.09E-03,7.71E-03
60928,8.09E-03,7.89E-03
60929,8.09E-03,8.06E-03
60930,8.09E-03,8.24E-03
60931,8.09E-03,8.41E-03
60932,8.09E-03,8.59E-03
60933,8.09E-03,8.76E-03
60934,8.09E-03,8.93E-03
60935,8.09E-03,9.10E-03
60936,8.09E-03,9.27E-03
60937,8.09E-03,9.44E-03
60938,8.09E-03,9.61E-03
60939,8.09E-03,9.78E-03
60940,8.09E-03,9.95E-03
60941,8.09E-03,1.01E-02
60942,8.09E-03,1.03E-02
60943,8.09E-03,1.04E-02
60944,8.09E-03,1.06E-02
60945,8.09E-03,1.08E-02
60946,8.09E-03,1.09E-02
60947,8.09E-03,1.11E-02
60948,8.09E-03,1.12E-02
60949,8.09E-03,1.14E-02
60950,8.02E-03,1.16E-02
60951,7.92E-03,1.17E-02
60952,7.89E-03,1.19E-02
60953,7.88E-03,1.20E-02
60954,7.81E-03,1.22E-02
60955,7.83E-03,1.23E-02
60956,7.88E-03,1.25E-02
60957,8.16E-03,1.26E-02
60958,9.99E-03,1.27E-02
60959,9.88E-03,1.46E-02
60960,9.83E-03,1.45E-02
60961,1.01E-02,1.45E-02
60962,1.00E-02,1.45E-02
60963,9.98E-03,1.46E-02
60964,9.87E-03,1.46E-02
60965,9.53E-03,1.46E-02
60966,9.07E-03,1.47E-02
60967,9.07E-03,1.47E-02
60968,8.80E-03,1.47E-02
60969,8.53E-03,1.48E-02
60970,8.44E-03,1.48E-02
60971,8.32E-03,1.48E-02
60972,8.18E-03,1.49E-02
60973,8.11E-03,1.49E-02
60974,8.11E-03,1.50E-02
60975,7.96E-03,1.50E-02
60976,7.66E-03,1.50E-02
60977,7.44E-03,1.51E-02
60978,7.41E-03,1.51E-02
60979,7.43E-03,1.51E-02
60980,7.41E-03,1.52E-02
60981,7.40E-03,1.52E-02
60982,7.42E-03,1.52E-02
60983,7.44E-03,1.52E-02
60984,7.45E-03,1.53E-02
60985,7.46E-03,1.53E-02
60986,7.46E-03,1.53E-02
60987,7.47E-03,1.53E-02
60988,7.54E-03,1.53E-02
60989,7.75E-03,1.53E-02
60990,7.91E-03,1.53E-02
60991,8.06E-03,1.53E-02
60992,8.28E-03,1.53E-02
60993,8.63E-03,1.53E-02
60994,8.98E-03,1.53E-02
60995,9.42E-03,1.53E-02
60996,9.78E-03,1.53E-02
60997,1.01E-02,1.53E-02
60998,1.06E-02,1.53E-02
60999,1.21E-02,1.52E-02
61000,1.04E-02,1.53E-02
61001,1.02E-02,1.54E-02
61002,1.00E-02,1.54E-02
61003,9.83E-03,1.54E-02
61004,9.68E-03,1.54E-02
61005,9.40E-03,1.54E-02
61006,9.17E-03,1.54E-02
61007,8.95E-03,1.54E-02
61008,8.11E-03,1.55E-02
61009,8.08E-03,1.55E-02
61010,7.84E-03,1.55E-02
61011,7.57E-03,1.55E-02
61012,7.63E-03,1.55E-02
61013,7.91E-03,1.55E-02
61014,7.71E-03,1.55E-02
61015,5.31E-03,1.56E-02
61016,5.10E-03,1.56E-02
61017,1.02E-02,2.23E-02
61018,9.86E-03,2.23E-02
61019,8.01E-03,2.24E-02
61020,7.96E-03,2.25E-02
61021,7.23E-03,2.25E-02
61022,6.79E-03,2.26E-02
61023,8.10E-03,1.35E-02
61024,8.10E-03,1.37E-02
61025,7.79E-03,2.08E-02
61026,6.91E-03,2.16E-02
61027,6.87E-03,2.21E-02
61028,7.20E-03,2.27E-02
61029,7.46E-03,2.33E-02
61030,8.97E-03,2.03E-02
61031,1.23E-02,1.06E-02
61032,9.92E-03,1.11E-02
61033,8.69E-03,1.17E-02
61034,7.95E-03,3.76E-02
61035,9.08E-03,3.88E-02
61036,8.20E-03,4.55E-02
61037,5.17E-03,3.08E-02
61038,5.54E-03,3.11E-02
61039,6.47E-03,3.23E-02
61040,9.19E-03,1.50E-02
61041,9.25E-03,4.84E-03
61042,7.43E-03,1.47E-02
61043,7.49E-03,1.47E-02
61044,5.81E-03,1.48E-02
61045,4.85E-03,1.48E-02
61046,4.39E-03,1.49E-02
61047,4.46E-03,1.49E-02
61048,4.85E-03,1.49E-02
61049,5.33E-03,1.49E-02
61050,5.72E-03,1.49E-02
61051,6.00E-03,1.48E-02
61052,6.26E-03,1.48E-02
61053,6.53E-03,1.48E-02
61054,6.79E-03,1.47E-02
61055,7.02E-03,1.47E-02
61056,7.18E-03,1.46E-02
61057,7.31E-03,1.46E-02
61058,7.43E-03,1.45E-02
61059,7.51E-03,1.44E-02
61060,7.56E-03,1.43E-02
61061,7.61E-03,1.42E-02
61062,7.65E-03,1.41E-02
61063,7.70E-03,1.40E-02
61064,7.75E-03,1.39E-02
61065,7.79E-03,1.38E-02
61066,7.83E-03,1.37E-02
61067,7.86E-03,1.36E-02
61068,7.87E-03,1.34E-02
61069,7.88E-03,1.33E-02
61070,7.89E-03,1.31E-02
61071,7.90E-03,1.30E-02
61072,7.91E-03,1.28E-02
61073,7.92E-03,1.27E-02
61074,7.93E-03,1.25E-02
61075,7.94E-03,1.23E-02
61076,7.95E-03,1.21E-02
61077,7.96E-03,1.20E-02
61078,7.97E-03,1.18E-02
61079,7.97E-03,1.16E-02
61080,7.98E-03,1.14E-02
61081,7.99E-03,1.12E-02
61082,7.99E-03,1.10E-02
61083,8.00E-03,1.08E-02
61084,8.01E-03,1.06E-02
61085,8.01E-03,1.04E-02
61086,8.02E-03,1.03E-02
61087,8.02E-03,1.01E-02
61088,8.03E-03,9.96E-03
61089,8.03E-03,9.82E-03
61090,8.03E-03,9.69E-03
61091,8.03E-03,9.58E-03
61092,8.03E-03,9.48E-03
61093,8.03E-03,9.41E-03
61094,8.03E-03,9.34E-03
61095,8.03E-03,9.30E-03
61096,8.03E-03,9.27E-03
61097,8.03E-03,9.25E-03
61098,8.03E-03,9.26E-03
61099,8.02E-03,9.28E-03
61100,8.01E-03,9.31E-03
61101,8.00E-03,9.35E-03
61102,8.00E-03,9.41E-03
61103,7.99E-03,9.49E-03
61104,7.98E-03,9.57E-03
61105,7.97E-03,9.66E-03
61106,7.97E-03,9.76E-03
61107,7.96E-03,9.87E-03
61108,7.95E-03,9.99E-03
61109,7.93E-03,1.01E-02
61110,7.91E-03,1.02E-02
61111,7.89E-03,1.04E-02
61112,7.87E-03,1.05E-02
61113,7.85E-03,1.07E-02
61114,7.83E-03,1.08E-02
61115,7.82E-03,1.09E-02
61116,7.80E-03,1.11E-02
61117,7.78E-03,1.12E-02
61118,7.77E-03,1.14E-02
61119,7.76E-03,1.15E-02
61120,7.74E-03,1.17E-02
61121,7.73E-03,1.18E-02
61122,7.72E-03,1.20E-02
61123,7.70E-03,1.21E-02
61124,7.68E-03,1.23E-02
61125,7.66E-03,1.24E-02
61126,7.65E-03,1.26E-02
61127,7.63E-03,1.27E-02
61128,7.60E-03,1.29E-02
61129,7.57E-03,1.30E-02
61130,7.54E-03,1.32E-02
61131,7.50E-03,1.33E-02
61132,7.46E-03,1.34E-02
61133,7.43E-03,1.36E-02
61134,7.41E-03,1.37E-02
61135,7.40E-03,1.38E-02
61136,7.40E-03,1.40E-02
61137,7.40E-03,1.41E-02
61138,7.41E-03,1.42E-02
61139,7.43E-03,1.43E-02
61140,7.44E-03,1.45E-02
61141,7.45E-03,1.46E-02
61142,7.46E-03,1.47E-02
61143,7.47E-03,1.48E-02
61144,7.48E-03,1.50E-02
61145,7.49E-03,1.51E-02
61146,7.50E-03,1.52E-02
61147,7.51E-03,1.53E-02
61148,7.52E-03,1.54E-02
61149,7.53E-03,1.56E-02
61150,7.53E-03,1.57E-02
61151,7.54E-03,1.58E-02
61152,7.55E-03,1.59E-02
61153,7.56E-03,1.61E-02
61154,7.57E-03,1.62E-02
61155,7.58E-03,1.63E-02
61156,7.58E-03,1.64E-02
61157,7.58E-03,1.66E-02
61158,7.59E-03,1.67E-02
61159,7.62E-03,1.68E-02
61160,7.65E-03,1.69E-02
61161,7.69E-03,1.71E-02
61162,7.71E-03,1.72E-02
61163,7.72E-03,1.73E-02
61164,7.52E-03,1.75E-02
61165,7.32E-03,1.76E-02
61166,7.18E-03,1.77E-02
61167,7.02E-03,1.79E-02
61168,6.67E-03,1.80E-02
61169,6.29E-03,1.81E-02
61170,5.80E-03,1.82E-02
61171,5.40E-03,1.83E-02
61172,4.99E-03,1.84E-02
61173,4.23E-03,1.85E-02
61174,3.90E-03,1.86E-02
61175,3.59E-03,1.87E-02
61176,3.71E-03,1.88E-02
61177,2.92E-03,1.88E-02
61178,3.17E-03,1.88E-02
61179,3.47E-03,1.89E-02
61180,3.86E-03,1.89E-02
61181,3.96E-03,1.90E-02
61182,4.24E-03,1.91E-02
61183,4.36E-03,1.91E-02
61184,4.49E-03,1.92E-02
61185,4.55E-03,1.93E-02
61186,4.62E-03,1.94E-02
61187,4.68E-03,1.95E-02
61188,4.71E-03,1.95E-02
61189,4.69E-03,1.96E-02
61190,4.66E-03,1.97E-02
61191,4.62E-03,1.97E-02
61192,4.61E-03,1.98E-02
61193,4.63E-03,1.99E-02
61194,4.65E-03,1.99E-02
61195,4.84E-03,2.00E-02
61196,5.03E-03,2.01E-02
61197,5.50E-03,2.01E-02
61198,5.71E-03,2.02E-02
61199,5.97E-03,2.02E-02
61200,6.26E-03,2.03E-02
61201,6.53E-03,2.04E-02
61202,6.72E-03,2.04E-02
61203,6.86E-03,2.05E-02
61204,6.99E-03,2.06E-02
61205,7.22E-03,2.06E-02
61206,7.98E-03,2.07E-02
61207,8.24E-03,2.08E-02
61208,8.31E-03,2.09E-02
61209,8.51E-03,2.09E-02
61210,8.79E-03,2.10E-02
61211,9.12E-03,2.11E-02
61212,9.49E-03,2.12E-02
61213,9.86E-03,2.14E-02
61214,1.02E-02,2.15E-02
61215,1.05E-02,2.16E-02
61216,1.06E-02,2.18E-02
61217,1.09E-02,2.19E-02
61218,1.00E-02,2.21E-02
61219,8.03E-03,2.23E-02
61220,7.35E-03,2.25E-02
61221,6.23E-03,2.26E-02
61222,8.09E-03,1.17E-02
61223,8.09E-03,1.16E-02
61224,8.09E-03,1.14E-02
61225,8.09E-03,1.13E-02
61226,8.09E-03,1.11E-02
61227,8.09E-03,1.10E-02
61228,8.09E-03,1.08E-02
61229,8.09E-03,1.07E-02
61230,8.09E-03,1.05E-02
61231,8.09E-03,1.03E-02
61232,8.09E-03,1.02E-02
61233,8.09E-03,1.00E-02
61234,8.09E-03,9.85E-03
61235,8.09E-03,9.68E-03
61236,8.09E-03,9.50E-03
61237,8.09E-03,9.33E-03
61238,8.09E-03,9.16E-03
61239,8.09E-03,8.98E-03
61240,8.09E-03,8.80E-03
61241,8.09E-03,8.63E-03
61242,8.09E-03,8.45E-03
61243,8.09E-03,8.27E-03
61244,8.09E-03,8.09E-03
61245,8.09E-03,7.91E-03
61246,8.09E-03,7.73E-03
61247,8.09E-03,7.55E-03
61248,8.09E-03,7.37E-03
61249,8.09E-03,7.19E-03
61250,8.09E-03,7.02E-03
61251,8.09E-03,6.84E-03
61252,8.09E-03,6.66E-03
61253,8.09E-03,6.49E-03
61254,8.09E-03,6.32E-03
61255,8.09E-03,6.15E-03
61256,8.09E-03,5.99E-03
61257,8.09E-03,5.83E-03
61258,8.09E-03,5.67E-03
61259,8.09E-03,5.52E-03
61260,8.09E-03,5.37E-03
61261,8.09E-03,5.23E-03
61262,8.09E-03,5.10E-03
61263,8.09E-03,4.97E-03
61264,8.09E-03,4.86E-03
61265,8.09E-03,4.75E-03
61266,8.09E-03,4.65E-03
61267,8.09E-03,4.56E-03
61268,8.09E-03,4.48E-03
61269,8.09E-03,4.42E-03
61270,8.09E-03,4.37E-03
61271,8.09E-03,4.33E-03
61272,8.09E-03,4.31E-03
61273,8.09E-03,4.30E-03
61274,8.09E-03,4.31E-03
61275,8.09E-03,4.33E-03
61276,8.09E-03,4.36E-03
61277,8.09E-03,4.41E-03
61278,8.09E-03,4.47E-03
61279,8.09E-03,4.55E-03
61280,8.09E-03,4.64E-03
61281,8.09E-03,4.74E-03
61282,8.09E-03,4.85E-03
61283,8.09E-03,4.98E-03
61284,8.09E-03,5.11E-03
61285,8.09E-03,5.25E-03
61286,8.09E-03,5.40E-03
61287,8.09E-03,5.56E-03
61288,8.09E-03,5.73E-03
61289,8.09E-03,5.90E-03
61290,8.09E-03,6.08E-03
61291,8.09E-03,6.26E-03
61292,8.09E-03,6.45E-03
61293,8.09E-03,6.64E-03
61294,8.09E-03,6.84E-03
61295,8.09E-03,7.04E-03
61296,8.09E-03,7.24E-03
61297,8.09E-03,7.45E-03
61298,8.09E-03,7.66E-03
61299,8.09E-03,7.87E-03
61300,8.09E-03,8.08E-03
61301,8.09E-03,8.30E-03
61302,8.09E-03,8.51E-03
61303,8.09E-03,8.73E-03
61304,8.09E-03,8.95E-03
61305,8.09E-03,9.17E-03
61306,8.09E-03,9.39E-03
61307,8.09E-03,9.61E-03
61308,8.09E-03,9.83E-03
61309,8.09E-03,1.01E-02
61310,8.09E-03,1.03E-02
61311,8.09E-03,1.05E-02
61312,8.09E-03,1.07E-02
61313,8.09E-03,1.09E-02
61314,8.09E-03,1.12E-02
61315,8.09E-03,1.14E-02
61316,8.09E-03,1.16E-02
61317,8.09E-03,1.18E-02
61318,8.09E-03,1.20E-02
61319,8.09E-03,1.23E-02
61320,8.09E-03,1.25E-02
61321,8.03E-03,1.27E-02
61322,8.01E-03,1.29E-02
61323,8.00E-03,1.31E-02
61324,7.98E-03,1.34E-02
61325,8.00E-03,1.36E-02
61326,7.90E-03,1.38E-02
61327,7.83E-03,1.40E-02
61328,7.87E-03,1.42E-02
61329,7.90E-03,1.44E-02
61330,7.83E-03,1.46E-02
61331,7.62E-03,1.48E-02
61332,7.39E-03,1.50E-02
61333,7.24E-03,1.52E-02
61334,6.44E-03,1.55E-02
61335,8.10E-03,1.28E-02
61336,1.16E-02,1.23E-02
61337,1.12E-02,1.22E-02
61338,1.10E-02,1.20E-02
61339,1.08E-02,1.19E-02
61340,1.08E-02,1.18E-02
61341,1.08E-02,1.16E-02
61342,1.06E-02,1.15E-02
61343,1.04E-02,1.14E-02
61344,1.03E-02,1.13E-02
61345,1.02E-02,1.11E-02
61346,1.00E-02,1.10E-02
61347,9.92E-03,1.09E-02
61348,9.82E-03,1.08E-02
61349,9.74E-03,1.07E-02
61350,9.65E-03,1.07E-02
61351,9.57E-03,1.06E-02
61352,9.49E-03,1.05E-02
61353,9.41E-03,1.04E-02
61354,9.35E-03,1.04E-02
61355,9.29E-03,1.03E-02
61356,9.24E-03,1.03E-02
61357,9.18E-03,1.02E-02
61358,9.12E-03,1.02E-02
61359,9.06E-03,1.01E-02
61360,8.99E-03,1.01E-02
61361,8.89E-03,1.00E-02
61362,8.78E-03,1.00E-02
61363,8.68E-03,9.99E-03
61364,8.62E-03,9.97E-03
61365,8.58E-03,9.95E-03
61366,8.53E-03,9.93E-03
61367,8.50E-03,9.92E-03
61368,8.46E-03,9.91E-03
61369,8.43E-03,9.90E-03
61370,8.40E-03,9.89E-03
61371,8.37E-03,9.89E-03
61372,8.33E-03,9.89E-03
61373,8.28E-03,9.90E-03
61374,8.24E-03,9.90E-03
61375,8.20E-03,9.91E-03
61376,8.16E-03,9.92E-03
61377,8.13E-03,9.93E-03
61378,8.13E-03,9.95E-03
61379,8.11E-03,9.96E-03
61380,8.07E-03,9.98E-03
61381,8.00E-03,1.00E-02
61382,7.92E-03,1.00E-02
61383,7.83E-03,1.01E-02
61384,7.73E-03,1.01E-02
61385,7.67E-03,1.01E-02
61386,7.63E-03,1.01E-02
61387,7.58E-03,1.02E-02
61388,7.50E-03,1.02E-02
61389,7.39E-03,1.03E-02
61390,7.24E-03,1.03E-02
61391,7.09E-03,1.03E-02
61392,6.97E-03,1.04E-02
61393,6.86E-03,1.04E-02
61394,6.76E-03,1.05E-02
61395,6.63E-03,1.05E-02
61396,6.46E-03,1.05E-02
61397,6.27E-03,1.06E-02
61398,6.10E-03,1.06E-02
61399,6.00E-03,1.07E-02
61400,5.98E-03,1.07E-02
61401,5.96E-03,1.08E-02
61402,5.96E-03,1.08E-02
61403,5.99E-03,1.09E-02
61404,6.03E-03,1.09E-02
61405,6.08E-03,1.09E-02
61406,6.15E-03,1.10E-02
61407,6.25E-03,1.11E-02
61408,6.36E-03,1.11E-02
61409,6.46E-03,1.12E-02
61410,6.53E-03,1.12E-02
61411,6.58E-03,1.13E-02
61412,6.64E-03,1.13E-02
61413,6.69E-03,1.14E-02
61414,6.76E-03,1.15E-02
61415,6.82E-03,1.15E-02
61416,6.89E-03,1.16E-02
61417,6.91E-03,1.17E-02
61418,6.90E-03,1.18E-02
61419,6.86E-03,1.18E-02
61420,6.97E-03,1.19E-02
61421,7.09E-03,1.20E-02
61422,7.28E-03,1.21E-02
61423,7.56E-03,1.22E-02
61424,7.55E-03,1.23E-02
61425,7.64E-03,1.24E-02
61426,7.66E-03,1.25E-02
61427,7.70E-03,1.26E-02
61428,7.94E-03,1.27E-02
61429,8.36E-03,1.28E-02
61430,8.10E-03,1.34E-02
61431,8.10E-03,1.36E-02
61432,6.84E-03,1.60E-02
61433,7.34E-03,1.62E-02
61434,8.10E-03,1.29E-02
61435,7.99E-03,1.63E-02
61436,7.90E-03,1.65E-02
61437,7.25E-03,1.64E-02
61438,6.91E-03,1.66E-02
61439,6.53E-03,1.67E-02
61440,6.05E-03,1.68E-02
61441,5.52E-03,1.68E-02
61442,5.14E-03,1.69E-02
61443,4.92E-03,1.70E-02
61444,4.92E-03,1.70E-02
61445,5.36E-03,1.71E-02
61446,5.61E-03,1.71E-02
61447,5.75E-03,1.71E-02
61448,5.97E-03,1.71E-02
61449,6.32E-03,1.71E-02
61450,6.65E-03,1.71E-02
61451,6.84E-03,1.70E-02
61452,6.86E-03,1.70E-02
61453,6.86E-03,1.69E-02
61454,6.89E-03,1.68E-02
61455,6.87E-03,1.68E-02
61456,6.79E-03,1.67E-02
61457,6.87E-03,1.66E-02
61458,7.25E-03,1.65E-02
61459,7.58E-03,1.63E-02
61460,7.73E-03,1.62E-02
61461,7.92E-03,1.61E-02
61462,8.21E-03,1.59E-02
61463,8.48E-03,1.57E-02
61464,8.74E-03,1.56E-02
61465,9.02E-03,1.54E-02
61466,9.33E-03,1.52E-02
61467,9.55E-03,1.50E-02
61468,9.57E-03,1.48E-02
61469,9.48E-03,1.46E-02
61470,9.38E-03,1.44E-02
61471,9.28E-03,1.42E-02
61472,9.20E-03,1.40E-02
61473,9.15E-03,1.38E-02
61474,9.30E-03,1.37E-02
61475,9.42E-03,1.35E-02
61476,9.65E-03,1.33E-02
61477,9.95E-03,1.31E-02
61478,1.02E-02,1.30E-02
61479,1.07E-02,1.28E-02
61480,7.65E-03,3.43E-02
61481,7.17E-03,3.43E-02
61482,8.10E-03,1.19E-02
61483,8.10E-03,1.32E-02
61484,8.10E-03,1.35E-02
61485,5.91E-03,4.27E-02
61486,5.49E-03,4.40E-02
61487,6.76E-03,4.52E-02
61488,8.10E-03,1.30E-02
61489,8.10E-03,1.21E-02
61490,6.83E-03,1.51E-02
61491,8.10E-03,1.31E-02
61492,8.10E-03,1.35E-02
61493,8.10E-03,1.31E-02
61494,8.10E-03,1.29E-02
61495,8.10E-03,1.34E-02
61496,8.10E-03,1.22E-02
61497,8.10E-03,1.24E-02
61498,8.10E-03,1.32E-02
61499,8.10E-03,1.28E-02
61500,8.10E-03,1.33E-02
61501,8.10E-03,1.26E-02
61502,5.53E-03,1.56E-02
61503,7.09E-03,3.41E-03
61504,8.10E-03,1.36E-02
61505,8.10E-03,1.36E-02
61506,9.79E-03,2.88E-02
61507,8.74E-03,2.79E-02
61508,8.69E-03,2.71E-02
61509,8.50E-03,2.62E-02
61510,8.28E-03,2.54E-02
61511,7.92E-03,2.46E-02
61512,7.65E-03,2.40E-02
61513,8.04E-03,1.97E-02
61514,8.35E-03,1.92E-02
61515,8.45E-03,1.87E-02
61516,8.48E-03,1.81E-02
61517,8.31E-03,1.76E-02
61518,8.16E-03,1.70E-02
61519,8.10E-03,1.65E-02
61520,8.00E-03,1.59E-02
61521,8.00E-03,1.54E-02
61522,8.00E-03,1.48E-02
61523,8.00E-03,1.43E-02
61524,8.05E-03,1.37E-02
61525,8.16E-03,1.32E-02
61526,8.21E-03,1.27E-02
61527,8.35E-03,1.22E-02
61528,1.05E-02,9.40E-03
61529,9.77E-03,8.83E-03
61530,8.76E-03,8.33E-03
61531,8.42E-03,7.88E-03
61532,8.17E-03,7.45E-03
61533,8.11E-03,7.03E-03
61534,7.14E-03,6.64E-03
61535,5.43E-03,5.99E-03
61536,6.59E-03,6.30E-03
61537,7.67E-03,3.49E-02
61538,7.80E-03,3.55E-02
61539,7.69E-03,3.60E-02
61540,6.13E-03,3.64E-02
61541,7.24E-03,3.70E-02
61542,8.77E-03,3.98E-02
61543,8.97E-03,4.05E-02
61544,8.31E-03,4.11E-02
61545,8.09E-03,4.18E-02
61546,8.87E-03,1.58E-02
61547,9.20E-03,1.57E-02
61548,8.97E-03,1.57E-02
61549,8.90E-03,1.56E-02
61550,8.77E-03,1.55E-02
61551,8.61E-03,1.55E-02
61552,7.43E-03,1.55E-02
61553,7.14E-03,1.54E-02
61554,7.00E-03,1.54E-02
61555,6.81E-03,1.54E-02
61556,6.57E-03,1.55E-02
61557,6.46E-03,1.56E-02
61558,6.55E-03,1.57E-02
61559,6.73E-03,1.58E-02
61560,6.86E-03,1.60E-02
61561,6.94E-03,1.62E-02
61562,7.00E-03,1.64E-02
61563,7.07E-03,1.67E-02
61564,7.14E-03,1.71E-02
61565,7.16E-03,1.75E-02
61566,7.16E-03,1.79E-02
61567,7.15E-03,1.84E-02
61568,7.14E-03,1.89E-02
61569,7.12E-03,1.95E-02
61570,7.10E-03,2.01E-02
61571,7.08E-03,2.08E-02
61572,7.02E-03,2.15E-02
61573,6.90E-03,2.22E-02
61574,6.77E-03,2.29E-02
61575,6.61E-03,2.36E-02
61576,6.39E-03,2.44E-02
61577,6.13E-03,2.51E-02
61578,5.89E-03,2.58E-02
61579,5.76E-03,2.65E-02
61580,5.69E-03,2.72E-02
61581,5.63E-03,2.78E-02
61582,5.59E-03,2.85E-02
61583,5.57E-03,2.92E-02
61584,5.56E-03,2.99E-02
61585,5.62E-03,3.05E-02
61586,5.81E-03,3.12E-02
61587,6.05E-03,3.19E-02
61588,6.28E-03,3.26E-02
61589,6.48E-03,3.33E-02
61590,6.63E-03,3.41E-02
61591,6.79E-03,3.48E-02
61592,6.92E-03,3.55E-02
61593,7.00E-03,3.62E-02
61594,7.03E-03,3.69E-02
61595,7.05E-03,3.76E-02
61596,7.07E-03,3.83E-02
61597,7.10E-03,3.90E-02
61598,7.10E-03,3.96E-02
61599,7.08E-03,4.03E-02
61600,7.05E-03,4.09E-02
61601,7.03E-03,4.15E-02
61602,7.00E-03,4.20E-02
61603,6.90E-03,4.26E-02
61604,6.65E-03,4.31E-02
61605,6.43E-03,4.35E-02
61606,6.34E-03,4.40E-02
61607,6.24E-03,4.44E-02
61608,6.22E-03,4.48E-02
61609,6.41E-03,4.52E-02
61610,6.67E-03,4.55E-02
61611,6.87E-03,4.58E-02
61612,7.02E-03,4.61E-02
61613,7.20E-03,4.63E-02
61614,7.42E-03,4.66E-02
61615,7.64E-03,4.68E-02
61616,7.79E-03,4.69E-02
61617,7.87E-03,4.70E-02
61618,7.93E-03,4.71E-02
61619,7.99E-03,4.71E-02
61620,8.06E-03,4.70E-02
61621,8.12E-03,4.69E-02
61622,8.21E-03,4.68E-02
61623,8.38E-03,4.66E-02
61624,8.39E-03,4.63E-02
61625,8.39E-03,4.59E-02
61626,5.58E-03,3.16E-02
61627,7.16E-03,1.53E-02
61628,7.98E-03,3.63E-03
61629,9.14E-03,3.91E-03
61630,9.16E-03,4.23E-03
61631,9.08E-03,4.54E-03
61632,6.31E-03,2.09E-02
61633,5.07E-03,2.10E-02
61634,8.07E-03,3.13E-03
61635,8.17E-03,3.09E-03
61636,8.13E-03,3.00E-03
61637,7.99E-03,2.91E-03
61638,7.24E-03,2.83E-03
61639,6.97E-03,2.76E-03
61640,6.57E-03,2.70E-03
61641,5.79E-03,2.64E-03
61642,4.93E-03,2.60E-03
61643,4.56E-03,2.57E-03
61644,4.53E-03,2.54E-03
61645,4.51E-03,2.52E-03
61646,4.49E-03,2.51E-03
61647,4.62E-03,2.49E-03
61648,5.44E-03,2.48E-03
61649,5.56E-03,2.47E-03
61650,6.09E-03,2.47E-03
61651,6.54E-03,2.46E-03
61652,7.02E-03,2.46E-03
61653,7.61E-03,2.46E-03
61654,7.90E-03,2.46E-03
61655,8.36E-03,2.45E-03
61656,9.33E-03,2.44E-03
61657,9.32E-03,2.42E-03
61658,8.96E-03,2.40E-03
61659,8.65E-03,2.38E-03
61660,8.32E-03,2.36E-03
61661,8.08E-03,2.34E-03
61662,7.78E-03,2.32E-03
61663,7.39E-03,2.30E-03
61664,7.19E-03,2.28E-03
61665,7.12E-03,2.27E-03
61666,7.07E-03,2.25E-03
61667,7.00E-03,2.24E-03
61668,6.93E-03,2.22E-03
61669,6.83E-03,2.21E-03
61670,6.73E-03,2.20E-03
61671,6.62E-03,2.19E-03
61672,6.51E-03,2.18E-03
61673,6.38E-03,2.17E-03
61674,6.24E-03,2.16E-03
61675,6.11E-03,2.16E-03
61676,6.01E-03,2.16E-03
61677,5.93E-03,2.16E-03
61678,5.84E-03,2.16E-03
61679,5.73E-03,2.16E-03
61680,5.57E-03,2.16E-03
61681,5.37E-03,2.17E-03
61682,5.17E-03,2.18E-03
61683,5.06E-03,2.19E-03
61684,5.07E-03,2.20E-03
61685,5.21E-03,2.21E-03
61686,5.43E-03,2.23E-03
61687,5.61E-03,2.25E-03
61688,5.76E-03,2.27E-03
61689,5.92E-03,2.29E-03
61690,6.10E-03,2.32E-03
61691,6.36E-03,2.35E-03
61692,6.68E-03,2.37E-03
61693,6.93E-03,2.40E-03
61694,7.10E-03,2.44E-03
61695,7.24E-03,2.47E-03
61696,7.35E-03,2.50E-03
61697,7.44E-03,2.54E-03
61698,7.54E-03,2.57E-03
61699,7.64E-03,2.61E-03
61700,7.76E-03,2.64E-03
61701,7.86E-03,2.67E-03
61702,7.91E-03,2.71E-03
61703,7.94E-03,2.74E-03
61704,7.96E-03,2.78E-03
61705,7.98E-03,2.81E-03
61706,7.99E-03,2.84E-03
61707,7.97E-03,2.87E-03
61708,7.96E-03,2.91E-03
61709,7.95E-03,2.94E-03
61710,7.94E-03,2.97E-03
61711,7.91E-03,3.00E-03
61712,7.89E-03,3.03E-03
61713,7.86E-03,3.06E-03
61714,7.84E-03,3.08E-03
61715,7.82E-03,3.11E-03
61716,7.81E-03,3.14E-03
61717,7.80E-03,3.17E-03
61718,7.78E-03,3.20E-03
61719,7.77E-03,3.22E-03
61720,7.76E-03,3.25E-03
61721,7.75E-03,3.28E-03
61722,7.73E-03,3.31E-03
61723,7.71E-03,3.33E-03
61724,7.69E-03,3.36E-03
61725,7.66E-03,3.39E-03
61726,7.64E-03,3.42E-03
61727,7.61E-03,3.45E-03
61728,7.58E-03,3.47E-03
61729,7.55E-03,3.50E-03
61730,7.53E-03,3.53E-03
61731,7.50E-03,3.56E-03
61732,7.47E-03,3.59E-03
61733,7.43E-03,3.62E-03
61734,7.40E-03,3.65E-03
61735,7.36E-03,3.69E-03
61736,7.30E-03,3.72E-03
61737,7.23E-03,3.75E-03
61738,7.16E-03,3.78E-03
61739,7.11E-03,3.82E-03
61740,7.07E-03,3.85E-03
61741,7.04E-03,3.89E-03
61742,7.01E-03,3.93E-03
61743,6.98E-03,3.97E-03
61744,6.96E-03,4.00E-03
61745,6.95E-03,4.04E-03
61746,6.94E-03,4.09E-03
61747,6.94E-03,4.13E-03
61748,6.96E-03,4.17E-03
61749,6.97E-03,4.22E-03
61750,6.98E-03,4.26E-03
61751,7.00E-03,4.31E-03
61752,7.01E-03,4.36E-03
61753,7.02E-03,4.41E-03
61754,7.02E-03,4.46E-03
61755,7.02E-03,4.52E-03
61756,7.03E-03,4.57E-03
61757,7.03E-03,4.63E-03
61758,7.03E-03,4.69E-03
61759,7.05E-03,4.75E-03
61760,7.10E-03,4.81E-03
61761,7.18E-03,4.87E-03
61762,7.26E-03,4.94E-03
61763,7.34E-03,5.01E-03
61764,7.41E-03,5.08E-03
61765,7.46E-03,5.16E-03
61766,7.51E-03,5.23E-03
61767,7.56E-03,5.31E-03
61768,7.61E-03,5.39E-03
61769,7.66E-03,5.47E-03
61770,7.73E-03,5.55E-03
61771,7.83E-03,5.64E-03
61772,7.92E-03,5.73E-03
61773,8.00E-03,5.82E-03
61774,8.07E-03,5.91E-03
61775,8.14E-03,6.00E-03
61776,8.24E-03,6.10E-03
61777,8.59E-03,6.19E-03
61778,8.84E-03,6.29E-03
61779,9.06E-03,6.39E-03
61780,9.42E-03,6.50E-03
61781,9.56E-03,6.60E-03
61782,9.95E-03,6.70E-03
61783,1.02E-02,6.80E-03
61784,1.05E-02,6.89E-03
61785,1.07E-02,6.98E-03
61786,1.08E-02,7.07E-03
61787,9.66E-03,7.15E-03
61788,7.24E-03,7.20E-03
61789,6.93E-03,7.25E-03
61790,6.56E-03,7.28E-03
61791,6.07E-03,7.31E-03
61792,5.59E-03,7.32E-03
61793,4.65E-03,7.35E-03
61794,3.83E-03,7.39E-03
61795,3.46E-03,7.43E-03
61796,3.07E-03,7.53E-03
61797,3.58E-03,7.61E-03
61798,4.07E-03,7.62E-03
61799,4.53E-03,7.66E-03
61800,4.57E-03,7.72E-03
61801,6.62E-03,7.80E-03
61802,6.71E-03,7.90E-03
61803,6.86E-03,8.01E-03
61804,7.07E-03,8.12E-03
61805,7.27E-03,8.24E-03
61806,7.40E-03,8.36E-03
61807,7.62E-03,8.50E-03
61808,7.74E-03,8.63E-03
61809,8.74E-03,8.78E-03
61810,9.18E-03,8.95E-03
61811,9.30E-03,9.12E-03
61812,9.38E-03,9.30E-03
61813,9.49E-03,9.48E-03
61814,9.55E-03,9.67E-03
61815,9.60E-03,9.85E-03
61816,9.67E-03,1.00E-02
61817,9.75E-03,1.02E-02
61818,9.83E-03,1.04E-02
61819,9.88E-03,1.06E-02
61820,9.93E-03,1.08E-02
61821,9.96E-03,1.10E-02
61822,9.98E-03,1.11E-02
61823,9.84E-03,1.13E-02
61824,9.34E-03,1.15E-02
61825,8.71E-03,1.16E-02
61826,8.28E-03,1.18E-02
61827,7.96E-03,1.19E-02
61828,7.50E-03,1.21E-02
61829,7.18E-03,1.22E-02
61830,7.18E-03,1.23E-02
61831,7.21E-03,1.24E-02
61832,7.18E-03,1.26E-02
61833,7.16E-03,1.27E-02
61834,7.18E-03,1.28E-02
61835,7.22E-03,1.30E-02
61836,7.27E-03,1.31E-02
61837,7.32E-03,1.32E-02
61838,7.38E-03,1.34E-02
61839,7.42E-03,1.35E-02
61840,7.45E-03,1.37E-02
61841,7.47E-03,1.38E-02
61842,7.49E-03,1.40E-02
61843,7.51E-03,1.42E-02
61844,7.52E-03,1.43E-02
61845,7.54E-03,1.45E-02
61846,7.55E-03,1.47E-02
61847,7.55E-03,1.49E-02
61848,7.54E-03,1.50E-02
61849,7.53E-03,1.52E-02
61850,7.52E-03,1.54E-02
61851,7.52E-03,1.56E-02
61852,7.51E-03,1.58E-02
61853,7.49E-03,1.60E-02
61854,7.47E-03,1.62E-02
61855,7.45E-03,1.64E-02
61856,7.43E-03,1.66E-02
61857,7.41E-03,1.68E-02
61858,7.39E-03,1.70E-02
61859,7.37E-03,1.72E-02
61860,7.35E-03,1.73E-02
61861,7.34E-03,1.75E-02
61862,7.34E-03,1.77E-02
61863,7.36E-03,1.79E-02
61864,7.40E-03,1.80E-02
61865,7.43E-03,1.82E-02
61866,7.45E-03,1.83E-02
61867,7.46E-03,1.85E-02
61868,7.48E-03,1.86E-02
61869,7.50E-03,1.87E-02
61870,7.53E-03,1.88E-02
61871,7.56E-03,1.88E-02
61872,7.60E-03,1.89E-02
61873,7.66E-03,1.89E-02
61874,7.73E-03,1.90E-02
61875,7.80E-03,1.90E-02
61876,7.85E-03,1.90E-02
61877,7.89E-03,1.90E-02
61878,7.93E-03,1.90E-02
61879,7.98E-03,1.91E-02
61880,8.03E-03,1.91E-02
61881,8.05E-03,1.91E-02
61882,8.03E-03,1.91E-02
61883,8.03E-03,1.92E-02
61884,8.11E-03,1.92E-02
61885,8.22E-03,1.93E-02
61886,8.34E-03,1.94E-02
61887,8.44E-03,1.94E-02
61888,8.49E-03,1.95E-02
61889,8.49E-03,1.96E-02
61890,8.49E-03,1.97E-02
61891,8.50E-03,1.98E-02
61892,8.52E-03,1.99E-02
61893,8.54E-03,2.00E-02
61894,8.55E-03,2.00E-02
61895,8.57E-03,2.01E-02
61896,8.59E-03,2.02E-02
61897,8.60E-03,2.02E-02
61898,8.59E-03,2.03E-02
61899,8.56E-03,2.04E-02
61900,8.52E-03,2.04E-02
61901,8.47E-03,2.05E-02
61902,8.43E-03,2.05E-02
61903,8.41E-03,2.06E-02
61904,8.38E-03,2.06E-02
61905,8.36E-03,2.07E-02
61906,8.34E-03,2.08E-02
61907,8.33E-03,2.08E-02
61908,8.31E-03,2.09E-02
61909,8.30E-03,2.09E-02
61910,8.29E-03,2.10E-02
61911,8.27E-03,2.11E-02
61912,8.25E-03,2.11E-02
61913,8.21E-03,2.12E-02
61914,8.18E-03,2.13E-02
61915,8.15E-03,2.13E-02
61916,8.14E-03,2.14E-02
61917,8.13E-03,2.14E-02
61918,8.12E-03,2.15E-02
61919,8.10E-03,2.15E-02
61920,8.09E-03,2.16E-02
61921,8.07E-03,2.16E-02
61922,8.06E-03,2.16E-02
61923,8.05E-03,2.17E-02
61924,8.06E-03,2.17E-02
61925,8.07E-03,2.17E-02
61926,8.08E-03,2.17E-02
61927,8.09E-03,2.17E-02
61928,8.10E-03,2.17E-02
61929,8.11E-03,2.17E-02
61930,8.12E-03,2.17E-02
61931,8.13E-03,2.16E-02
61932,8.13E-03,2.16E-02
61933,8.13E-03,2.16E-02
61934,8.13E-03,2.16E-02
61935,8.13E-03,2.16E-02
61936,8.15E-03,2.15E-02
61937,8.17E-03,2.15E-02
61938,8.20E-03,2.15E-02
61939,8.24E-03,2.15E-02
61940,8.29E-03,2.15E-02
61941,8.34E-03,2.14E-02
61942,8.36E-03,2.14E-02
61943,8.36E-03,2.14E-02
61944,8.36E-03,2.14E-02
61945,8.38E-03,2.14E-02
61946,8.41E-03,2.14E-02
61947,8.46E-03,2.15E-02
61948,8.51E-03,2.15E-02
61949,8.57E-03,2.15E-02
61950,8.64E-03,2.15E-02
61951,8.72E-03,2.16E-02
61952,8.86E-03,2.16E-02
61953,9.06E-03,2.17E-02
61954,9.27E-03,2.17E-02
61955,9.46E-03,2.18E-02
61956,9.65E-03,2.19E-02
61957,1.01E-02,2.19E-02
61958,1.00E-02,2.20E-02
61959,1.05E-02,2.21E-02
61960,1.06E-02,2.22E-02
61961,1.07E-02,2.23E-02
61962,1.10E-02,2.23E-02
61963,1.20E-02,2.24E-02
61964,1.18E-02,2.25E-02
61965,1.05E-02,2.26E-02
61966,7.76E-03,2.27E-02
61967,7.23E-03,2.27E-02
61968,6.59E-03,2.27E-02
61969,6.18E-03,2.28E-02
61970,5.60E-03,2.28E-02
61971,9.27E-03,1.49E-02
61972,9.91E-03,1.49E-02
61973,1.01E-02,1.49E-02
61974,1.00E-02,1.49E-02
61975,9.99E-03,1.49E-02
61976,9.65E-03,1.50E-02
61977,9.45E-03,1.50E-02
61978,9.06E-03,1.50E-02
61979,8.92E-03,1.51E-02
61980,8.80E-03,1.51E-02
61981,8.50E-03,1.52E-02
61982,8.41E-03,1.52E-02
61983,8.31E-03,1.52E-02
61984,8.17E-03,1.53E-02
61985,8.10E-03,1.53E-02
61986,8.11E-03,1.53E-02
61987,7.97E-03,1.54E-02
61988,7.69E-03,1.54E-02
61989,7.49E-03,1.54E-02
61990,7.47E-03,1.55E-02
61991,7.49E-03,1.55E-02
61992,7.46E-03,1.55E-02
61993,7.46E-03,1.56E-02
61994,7.48E-03,1.56E-02
61995,7.49E-03,1.56E-02
61996,7.50E-03,1.56E-02
61997,7.51E-03,1.56E-02
61998,7.51E-03,1.57E-02
61999,7.52E-03,1.57E-02
62000,7.58E-03,1.57E-02
62001,7.73E-03,1.57E-02
62002,7.97E-03,1.57E-02
62003,8.01E-03,1.57E-02
62004,8.32E-03,1.57E-02
62005,8.62E-03,1.57E-02
62006,8.76E-03,1.57E-02
62007,9.44E-03,1.56E-02
62008,9.73E-03,1.56E-02
62009,1.00E-02,1.56E-02
62010,1.06E-02,1.56E-02
62011,1.09E-02,1.56E-02
62012,1.10E-02,1.56E-02
62013,1.08E-02,1.56E-02
62014,1.04E-02,1.56E-02
62015,1.02E-02,1.57E-02
62016,1.00E-02,1.57E-02
62017,9.86E-03,1.57E-02
62018,9.50E-03,1.57E-02
62019,9.44E-03,1.57E-02
62020,9.16E-03,1.57E-02
62021,8.73E-03,1.57E-02
62022,8.18E-03,1.58E-02
62023,8.12E-03,1.58E-02
62024,7.91E-03,1.58E-02
62025,7.90E-03,1.58E-02
62026,7.99E-03,1.58E-02
62027,7.35E-03,1.58E-02
62028,7.10E-03,1.58E-02
62029,6.63E-03,1.58E-02
62030,6.51E-03,1.58E-02
62031,7.35E-03,1.54E-02
62032,7.17E-03,1.58E-02
62033,8.09E-03,1.26E-02
62034,8.09E-03,1.25E-02
62035,8.09E-03,1.23E-02
62036,8.09E-03,1.21E-02
62037,8.09E-03,1.20E-02
62038,8.09E-03,1.18E-02
62039,8.09E-03,1.16E-02
62040,8.09E-03,1.14E-02
62041,8.09E-03,1.13E-02
62042,8.09E-03,1.11E-02
62043,8.09E-03,1.09E-02
62044,8.09E-03,1.07E-02
62045,8.09E-03,1.05E-02
62046,8.09E-03,1.03E-02
62047,8.09E-03,1.01E-02
62048,8.09E-03,9.95E-03
62049,8.09E-03,9.75E-03
62050,8.09E-03,9.55E-03
62051,8.09E-03,9.35E-03
62052,8.09E-03,9.14E-03
62053,8.09E-03,8.94E-03
62054,8.09E-03,8.73E-03
62055,8.09E-03,8.53E-03
62056,8.09E-03,8.32E-03
62057,8.09E-03,8.12E-03
62058,8.09E-03,7.92E-03
62059,8.09E-03,7.71E-03
62060,8.09E-03,7.51E-03
62061,8.09E-03,7.31E-03
62062,8.09E-03,7.10E-03
62063,8.09E-03,6.90E-03
62064,8.09E-03,6.70E-03
62065,8.09E-03,6.50E-03
62066,8.09E-03,6.30E-03
62067,8.09E-03,6.11E-03
62068,8.09E-03,5.92E-03
62069,8.09E-03,5.73E-03
62070,8.09E-03,5.55E-03
62071,8.09E-03,5.37E-03
62072,8.09E-03,5.20E-03
62073,8.09E-03,5.03E-03
62074,8.09E-03,4.87E-03
62075,8.09E-03,4.72E-03
62076,8.09E-03,4.57E-03
62077,8.09E-03,4.44E-03
62078,8.09E-03,4.31E-03
62079,8.09E-03,4.20E-03
62080,8.09E-03,4.10E-03
62081,8.09E-03,4.01E-03
62082,8.09E-03,3.93E-03
62083,8.09E-03,3.87E-03
62084,8.09E-03,3.83E-03
62085,8.09E-03,3.80E-03
62086,8.09E-03,3.78E-03
62087,8.09E-03,3.78E-03
62088,8.09E-03,3.80E-03
62089,8.09E-03,3.84E-03
62090,8.09E-03,3.89E-03
62091,8.09E-03,3.95E-03
62092,8.09E-03,4.02E-03
62093,8.09E-03,4.11E-03
62094,8.09E-03,4.21E-03
62095,8.09E-03,4.32E-03
62096,8.09E-03,4.44E-03
62097,8.09E-03,4.57E-03
62098,8.09E-03,4.71E-03
62099,8.09E-03,4.85E-03
62100,8.09E-03,5.00E-03
62101,8.09E-03,5.15E-03
62102,8.09E-03,5.31E-03
62103,8.09E-03,5.47E-03
62104,8.09E-03,5.64E-03
62105,8.09E-03,5.81E-03
62106,8.09E-03,5.98E-03
62107,8.09E-03,6.15E-03
62108,8.09E-03,6.32E-03
62109,8.09E-03,6.50E-03
62110,8.09E-03,6.67E-03
62111,8.09E-03,6.85E-03
62112,8.09E-03,7.03E-03
62113,8.09E-03,7.21E-03
62114,8.09E-03,7.39E-03
62115,8.09E-03,7.57E-03
62116,8.09E-03,7.74E-03
62117,8.09E-03,7.92E-03
62118,8.09E-03,8.10E-03
62119,8.09E-03,8.28E-03
62120,8.09E-03,8.45E-03
62121,8.09E-03,8.63E-03
62122,8.09E-03,8.80E-03
62123,8.09E-03,8.98E-03
62124,8.09E-03,9.15E-03
62125,8.09E-03,9.32E-03
62126,8.09E-03,9.50E-03
62127,8.09E-03,9.67E-03
62128,8.09E-03,9.84E-03
62129,8.09E-03,1.00E-02
62130,8.09E-03,1.02E-02
62131,8.09E-03,1.03E-02
62132,8.09E-03,1.05E-02
62133,8.09E-03,1.07E-02
62134,8.09E-03,1.08E-02
62135,8.09E-03,1.10E-02
62136,8.09E-03,1.12E-02
62137,8.09E-03,1.13E-02
62138,8.09E-03,1.15E-02
62139,8.09E-03,1.16E-02
62140,8.03E-03,1.18E-02
62141,7.95E-03,1.20E-02
62142,7.95E-03,1.21E-02
62143,7.95E-03,1.23E-02
62144,8.01E-03,1.24E-02
62145,8.12E-03,1.26E-02
62146,8.23E-03,1.27E-02
62147,8.55E-03,1.28E-02
62148,8.90E-03,1.29E-02
62149,8.10E-03,1.34E-02
62150,8.10E-03,1.36E-02
62151,6.59E-03,2.15E-02
62152,6.86E-03,2.20E-02
62153,7.31E-03,2.25E-02
62154,7.49E-03,2.32E-02
62155,7.67E-03,2.03E-02
62156,9.38E-03,1.01E-02
62157,8.78E-03,1.10E-02
62158,8.29E-03,1.14E-02
62159,9.55E-03,9.68E-03
62160,8.20E-03,3.82E-02
62161,9.58E-03,3.89E-02
62162,9.77E-03,3.95E-02
62163,7.49E-03,1.64E-02
62164,8.41E-03,4.70E-02
62165,6.02E-03,3.11E-02
62166,5.84E-03,3.16E-02
62167,5.95E-03,3.26E-02
62168,8.10E-03,1.27E-02
62169,9.07E-03,1.66E-02
62170,8.09E-03,1.69E-02
62171,7.50E-03,1.67E-02
62172,7.22E-03,1.69E-02
62173,6.85E-03,1.70E-02
62174,6.41E-03,1.71E-02
62175,5.95E-03,1.72E-02
62176,5.48E-03,1.73E-02
62177,5.15E-03,1.74E-02
62178,5.28E-03,1.75E-02
62179,5.68E-03,1.75E-02
62180,5.74E-03,1.75E-02
62181,5.92E-03,1.75E-02
62182,6.17E-03,1.75E-02
62183,6.43E-03,1.75E-02
62184,6.72E-03,1.75E-02
62185,6.93E-03,1.74E-02
62186,6.96E-03,1.73E-02
62187,6.96E-03,1.73E-02
62188,6.98E-03,1.72E-02
62189,6.97E-03,1.71E-02
62190,6.89E-03,1.70E-02
62191,6.97E-03,1.69E-02
62192,7.31E-03,1.68E-02
62193,7.62E-03,1.66E-02
62194,7.75E-03,1.65E-02
62195,7.93E-03,1.63E-02
62196,8.19E-03,1.61E-02
62197,8.44E-03,1.60E-02
62198,8.68E-03,1.58E-02
62199,8.94E-03,1.56E-02
62200,9.23E-03,1.54E-02
62201,9.43E-03,1.52E-02
62202,9.45E-03,1.49E-02
62203,9.36E-03,1.47E-02
62204,9.27E-03,1.45E-02
62205,9.18E-03,1.43E-02
62206,9.11E-03,1.41E-02
62207,9.06E-03,1.39E-02
62208,9.10E-03,1.38E-02
62209,9.25E-03,1.36E-02
62210,9.32E-03,1.34E-02
62211,9.37E-03,1.32E-02
62212,9.43E-03,1.30E-02
62213,8.65E-03,1.29E-02
62214,8.82E-03,1.27E-02
62215,1.01E-02,1.27E-02
62216,1.10E-02,1.26E-02
62217,1.14E-02,1.24E-02
62218,1.13E-02,1.23E-02
62219,1.10E-02,1.21E-02
62220,1.09E-02,1.20E-02
62221,1.07E-02,1.19E-02
62222,1.06E-02,1.17E-02
62223,1.05E-02,1.16E-02
62224,1.04E-02,1.15E-02
62225,1.02E-02,1.14E-02
62226,1.01E-02,1.13E-02
62227,1.00E-02,1.11E-02
62228,9.89E-03,1.10E-02
62229,9.78E-03,1.09E-02
62230,9.68E-03,1.09E-02
62231,9.60E-03,1.08E-02
62232,9.53E-03,1.07E-02
62233,9.45E-03,1.06E-02
62234,9.38E-03,1.05E-02
62235,9.31E-03,1.05E-02
62236,9.25E-03,1.04E-02
62237,9.20E-03,1.04E-02
62238,9.14E-03,1.03E-02
62239,9.09E-03,1.02E-02
62240,9.04E-03,1.02E-02
62241,8.99E-03,1.02E-02
62242,8.92E-03,1.01E-02
62243,8.82E-03,1.01E-02
62244,8.72E-03,1.01E-02
62245,8.64E-03,1.00E-02
62246,8.58E-03,1.00E-02
62247,8.54E-03,1.00E-02
62248,8.50E-03,9.98E-03
62249,8.46E-03,9.97E-03
62250,8.43E-03,9.96E-03
62251,8.41E-03,9.95E-03
62252,8.38E-03,9.94E-03
62253,8.35E-03,9.94E-03
62254,8.31E-03,9.94E-03
62255,8.27E-03,9.95E-03
62256,8.23E-03,9.95E-03
62257,8.19E-03,9.96E-03
62258,8.15E-03,9.97E-03
62259,8.13E-03,9.98E-03
62260,8.13E-03,1.00E-02
62261,8.11E-03,1.00E-02
62262,8.07E-03,1.00E-02
62263,8.01E-03,1.01E-02
62264,7.94E-03,1.01E-02
62265,7.85E-03,1.01E-02
62266,7.76E-03,1.01E-02
62267,7.70E-03,1.02E-02
62268,7.67E-03,1.02E-02
62269,7.62E-03,1.02E-02
62270,7.55E-03,1.03E-02
62271,7.44E-03,1.03E-02
62272,7.31E-03,1.03E-02
62273,7.17E-03,1.04E-02
62274,7.06E-03,1.04E-02
62275,6.96E-03,1.05E-02
62276,6.86E-03,1.05E-02
62277,6.75E-03,1.05E-02
62278,6.59E-03,1.06E-02
62279,6.42E-03,1.06E-02
62280,6.26E-03,1.07E-02
62281,6.17E-03,1.07E-02
62282,6.14E-03,1.08E-02
62283,6.13E-03,1.08E-02
62284,6.13E-03,1.09E-02
62285,6.16E-03,1.09E-02
62286,6.20E-03,1.10E-02
62287,6.24E-03,1.10E-02
62288,6.30E-03,1.11E-02
62289,6.39E-03,1.11E-02
62290,6.49E-03,1.12E-02
62291,6.59E-03,1.12E-02
62292,6.65E-03,1.13E-02
62293,6.70E-03,1.14E-02
62294,6.75E-03,1.14E-02
62295,6.80E-03,1.15E-02
62296,6.86E-03,1.15E-02
62297,6.92E-03,1.16E-02
62298,6.98E-03,1.17E-02
62299,7.01E-03,1.18E-02
62300,6.99E-03,1.18E-02
62301,6.96E-03,1.19E-02
62302,6.95E-03,1.20E-02
62303,7.17E-03,1.21E-02
62304,7.41E-03,1.22E-02
62305,7.59E-03,1.23E-02
62306,7.61E-03,1.24E-02
62307,7.79E-03,1.25E-02
62308,7.82E-03,1.26E-02
62309,7.93E-03,1.27E-02
62310,8.15E-03,1.28E-02
62311,8.29E-03,1.29E-02
62312,8.57E-03,1.31E-02
62313,8.94E-03,1.32E-02
62314,8.09E-03,1.18E-02
62315,8.09E-03,1.16E-02
62316,8.09E-03,1.15E-02
62317,8.09E-03,1.13E-02
62318,8.09E-03,1.12E-02
62319,8.09E-03,1.10E-02
62320,8.09E-03,1.09E-02
62321,8.09E-03,1.07E-02
62322,8.09E-03,1.05E-02
62323,8.09E-03,1.04E-02
62324,8.09E-03,1.02E-02
62325,8.09E-03,1.00E-02
62326,8.09E-03,9.87E-03
62327,8.09E-03,9.70E-03
62328,8.09E-03,9.53E-03
62329,8.09E-03,9.35E-03
62330,8.09E-03,9.18E-03
62331,8.09E-03,9.00E-03
62332,8.09E-03,8.83E-03
62333,8.09E-03,8.65E-03
62334,8.09E-03,8.47E-03
62335,8.09E-03,8.29E-03
62336,8.09E-03,8.11E-03
62337,8.09E-03,7.93E-03
62338,8.09E-03,7.75E-03
62339,8.09E-03,7.57E-03
62340,8.09E-03,7.39E-03
62341,8.09E-03,7.21E-03
62342,8.09E-03,7.03E-03
62343,8.09E-03,6.85E-03
62344,8.09E-03,6.67E-03
62345,8.09E-03,6.50E-03
62346,8.09E-03,6.33E-03
62347,8.09E-03,6.16E-03
62348,8.09E-03,5.99E-03
62349,8.09E-03,5.83E-03
62350,8.09E-03,5.67E-03
62351,8.09E-03,5.52E-03
62352,8.09E-03,5.37E-03
62353,8.09E-03,5.23E-03
62354,8.09E-03,5.10E-03
62355,8.09E-03,4.97E-03
62356,8.09E-03,4.85E-03
62357,8.09E-03,4.74E-03
62358,8.09E-03,4.64E-03
62359,8.09E-03,4.55E-03
62360,8.09E-03,4.47E-03
62361,8.09E-03,4.40E-03
62362,8.09E-03,4.35E-03
62363,8.09E-03,4.31E-03
62364,8.09E-03,4.29E-03
62365,8.09E-03,4.27E-03
62366,8.09E-03,4.28E-03
62367,8.09E-03,4.30E-03
62368,8.09E-03,4.33E-03
62369,8.09E-03,4.38E-03
62370,8.09E-03,4.44E-03
62371,8.09E-03,4.51E-03
62372,8.09E-03,4.60E-03
62373,8.09E-03,4.70E-03
62374,8.09E-03,4.81E-03
62375,8.09E-03,4.93E-03
62376,8.09E-03,5.07E-03
62377,8.09E-03,5.21E-03
62378,8.09E-03,5.36E-03
62379,8.09E-03,5.51E-03
62380,8.09E-03,5.68E-03
62381,8.09E-03,5.85E-03
62382,8.09E-03,6.03E-03
62383,8.09E-03,6.21E-03
62384,8.09E-03,6.39E-03
62385,8.09E-03,6.59E-03
62386,8.09E-03,6.78E-03
62387,8.09E-03,6.98E-03
62388,8.09E-03,7.18E-03
62389,8.09E-03,7.38E-03
62390,8.09E-03,7.59E-03
62391,8.09E-03,7.80E-03
62392,8.09E-03,8.01E-03
62393,8.09E-03,8.22E-03
62394,8.09E-03,8.44E-03
62395,8.09E-03,8.65E-03
62396,8.09E-03,8.87E-03
62397,8.09E-03,9.09E-03
62398,8.09E-03,9.31E-03
62399,8.09E-03,9.53E-03
62400,8.09E-03,9.75E-03
62401,8.09E-03,9.97E-03
62402,8.09E-03,1.02E-02
62403,8.09E-03,1.04E-02
62404,8.09E-03,1.06E-02
62405,8.09E-03,1.08E-02
62406,8.09E-03,1.11E-02
62407,8.09E-03,1.13E-02
62408,8.09E-03,1.15E-02
62409,8.09E-03,1.17E-02
62410,8.09E-03,1.19E-02
62411,8.09E-03,1.21E-02
62412,8.09E-03,1.24E-02
62413,8.09E-03,1.26E-02
62414,8.09E-03,1.28E-02
62415,8.09E-03,1.30E-02
62416,8.09E-03,1.32E-02
62417,8.09E-03,1.34E-02
62418,8.02E-03,1.37E-02
62419,7.95E-03,1.39E-02
62420,7.93E-03,1.41E-02
62421,7.89E-03,1.43E-02
62422,7.89E-03,1.45E-02
62423,7.77E-03,1.47E-02
62424,7.69E-03,1.49E-02
62425,7.90E-03,1.51E-02
62426,8.25E-03,1.54E-02
62427,6.20E-03,1.60E-02
62428,8.10E-03,1.33E-02
62429,8.10E-03,1.35E-02
62430,5.88E-03,9.66E-03
62431,4.18E-03,4.37E-02
62432,6.60E-03,4.48E-02
62433,4.98E-03,4.61E-02
62434,5.43E-03,4.75E-02
62435,8.10E-03,1.28E-02
62436,8.10E-03,1.19E-02
62437,7.48E-03,1.54E-02
62438,7.54E-03,1.51E-02
62439,7.66E-03,1.51E-02
62440,6.00E-03,1.52E-02
62441,5.12E-03,1.52E-02
62442,4.69E-03,1.53E-02
62443,4.76E-03,1.53E-02
62444,5.11E-03,1.53E-02
62445,5.55E-03,1.53E-02
62446,5.91E-03,1.53E-02
62447,6.17E-03,1.52E-02
62448,6.41E-03,1.52E-02
62449,6.65E-03,1.52E-02
62450,6.90E-03,1.51E-02
62451,7.10E-03,1.51E-02
62452,7.25E-03,1.50E-02
62453,7.37E-03,1.49E-02
62454,7.48E-03,1.49E-02
62455,7.56E-03,1.48E-02
62456,7.61E-03,1.47E-02
62457,7.65E-03,1.46E-02
62458,7.69E-03,1.45E-02
62459,7.73E-03,1.44E-02
62460,7.77E-03,1.43E-02
62461,7.81E-03,1.42E-02
62462,7.85E-03,1.41E-02
62463,7.87E-03,1.39E-02
62464,7.89E-03,1.38E-02
62465,7.89E-03,1.37E-02
62466,7.90E-03,1.35E-02
62467,7.91E-03,1.34E-02
62468,7.92E-03,1.32E-02
62469,7.93E-03,1.30E-02
62470,7.94E-03,1.29E-02
62471,7.95E-03,1.27E-02
62472,7.96E-03,1.25E-02
62473,7.97E-03,1.23E-02
62474,7.98E-03,1.21E-02
62475,7.98E-03,1.19E-02
62476,7.99E-03,1.17E-02
62477,8.00E-03,1.15E-02
62478,8.00E-03,1.13E-02
62479,8.01E-03,1.11E-02
62480,8.01E-03,1.09E-02
62481,8.02E-03,1.07E-02
62482,8.02E-03,1.06E-02
62483,8.03E-03,1.04E-02
62484,8.03E-03,1.02E-02
62485,8.04E-03,1.01E-02
62486,8.04E-03,9.93E-03
62487,8.04E-03,9.80E-03
62488,8.04E-03,9.70E-03
62489,8.04E-03,9.61E-03
62490,8.04E-03,9.53E-03
62491,8.04E-03,9.48E-03
62492,8.04E-03,9.44E-03
62493,8.04E-03,9.42E-03
62494,8.03E-03,9.41E-03
62495,8.02E-03,9.42E-03
62496,8.02E-03,9.44E-03
62497,8.01E-03,9.48E-03
62498,8.00E-03,9.53E-03
62499,8.00E-03,9.60E-03
62500,7.99E-03,9.67E-03
62501,7.98E-03,9.76E-03
62502,7.98E-03,9.86E-03
62503,7.97E-03,9.96E-03
62504,7.96E-03,1.01E-02
62505,7.94E-03,1.02E-02
62506,7.93E-03,1.03E-02
62507,7.91E-03,1.05E-02
62508,7.89E-03,1.06E-02
62509,7.87E-03,1.07E-02
62510,7.86E-03,1.09E-02
62511,7.84E-03,1.10E-02
62512,7.82E-03,1.12E-02
62513,7.81E-03,1.13E-02
62514,7.80E-03,1.15E-02
62515,7.78E-03,1.16E-02
62516,7.77E-03,1.18E-02
62517,7.76E-03,1.19E-02
62518,7.75E-03,1.21E-02
62519,7.73E-03,1.22E-02
62520,7.72E-03,1.23E-02
62521,7.70E-03,1.25E-02
62522,7.68E-03,1.26E-02
62523,7.66E-03,1.28E-02
62524,7.64E-03,1.29E-02
62525,7.61E-03,1.31E-02
62526,7.58E-03,1.32E-02
62527,7.55E-03,1.33E-02
62528,7.51E-03,1.35E-02
62529,7.48E-03,1.36E-02
62530,7.46E-03,1.37E-02
62531,7.46E-03,1.39E-02
62532,7.45E-03,1.40E-02
62533,7.46E-03,1.41E-02
62534,7.47E-03,1.42E-02
62535,7.48E-03,1.44E-02
62536,7.49E-03,1.45E-02
62537,7.50E-03,1.46E-02
62538,7.51E-03,1.47E-02
62539,7.52E-03,1.49E-02
62540,7.53E-03,1.50E-02
62541,7.54E-03,1.51E-02
62542,7.55E-03,1.52E-02
62543,7.56E-03,1.53E-02
62544,7.56E-03,1.55E-02
62545,7.57E-03,1.56E-02
62546,7.58E-03,1.57E-02
62547,7.59E-03,1.58E-02
62548,7.60E-03,1.60E-02
62549,7.61E-03,1.61E-02
62550,7.61E-03,1.62E-02
62551,7.62E-03,1.63E-02
62552,7.62E-03,1.64E-02
62553,7.62E-03,1.66E-02
62554,7.63E-03,1.67E-02
62555,7.66E-03,1.68E-02
62556,7.69E-03,1.70E-02
62557,7.72E-03,1.71E-02
62558,7.74E-03,1.72E-02
62559,7.75E-03,1.73E-02
62560,7.48E-03,1.75E-02
62561,7.31E-03,1.76E-02
62562,7.19E-03,1.77E-02
62563,7.02E-03,1.78E-02
62564,6.75E-03,1.80E-02
62565,6.46E-03,1.81E-02
62566,5.90E-03,1.82E-02
62567,5.56E-03,1.83E-02
62568,5.08E-03,1.84E-02
62569,4.76E-03,1.85E-02
62570,4.22E-03,1.86E-02
62571,3.94E-03,1.86E-02
62572,3.35E-03,1.87E-02
62573,3.09E-03,1.88E-02
62574,2.97E-03,1.88E-02
62575,3.56E-03,1.89E-02
62576,3.68E-03,1.89E-02
62577,4.10E-03,1.90E-02
62578,4.22E-03,1.91E-02
62579,4.45E-03,1.91E-02
62580,4.62E-03,1.92E-02
62581,4.74E-03,1.93E-02
62582,4.84E-03,1.94E-02
62583,4.90E-03,1.95E-02
62584,4.96E-03,1.96E-02
62585,4.98E-03,1.96E-02
62586,4.97E-03,1.97E-02
62587,4.93E-03,1.98E-02
62588,4.90E-03,1.99E-02
62589,4.89E-03,1.99E-02
62590,4.90E-03,2.00E-02
62591,4.92E-03,2.01E-02
62592,4.94E-03,2.01E-02
62593,5.20E-03,2.02E-02
62594,5.81E-03,2.03E-02
62595,5.94E-03,2.03E-02
62596,6.07E-03,2.04E-02
62597,6.47E-03,2.05E-02
62598,6.70E-03,2.05E-02
62599,6.88E-03,2.06E-02
62600,7.00E-03,2.07E-02
62601,7.07E-03,2.07E-02
62602,7.39E-03,2.08E-02
62603,7.99E-03,2.09E-02
62604,8.12E-03,2.09E-02
62605,8.23E-03,2.10E-02
62606,8.43E-03,2.11E-02
62607,8.70E-03,2.12E-02
62608,9.02E-03,2.13E-02
62609,9.40E-03,2.14E-02
62610,9.77E-03,2.15E-02
62611,1.01E-02,2.17E-02
62612,1.03E-02,2.18E-02
62613,1.05E-02,2.19E-02
62614,1.07E-02,2.21E-02
62615,8.80E-03,2.23E-02
62616,7.97E-03,2.24E-02
62617,7.26E-03,2.26E-02
62618,6.17E-03,2.28E-02
62619,4.00E-03,2.29E-02
62620,8.10E-03,1.31E-02
62621,8.10E-03,1.34E-02
62622,8.10E-03,1.29E-02
62623,8.10E-03,1.30E-02
62624,8.10E-03,1.33E-02
62625,8.10E-03,1.21E-02
62626,8.10E-03,1.23E-02
62627,8.10E-03,1.30E-02
62628,8.10E-03,1.28E-02
62629,8.10E-03,1.32E-02
62630,8.10E-03,1.31E-02
62631,8.10E-03,1.26E-02
62632,8.10E-03,1.25E-02
62633,9.15E-03,4.94E-03
62634,8.36E-03,5.33E-03
62635,5.89E-03,5.62E-03
62636,5.70E-03,2.05E-02
62637,5.38E-03,5.95E-03
62638,8.10E-03,1.35E-02
62639,8.10E-03,1.35E-02
62640,7.00E-03,3.01E-02
62641,9.74E-03,2.91E-02
62642,9.20E-03,2.82E-02
62643,8.86E-03,2.72E-02
62644,8.68E-03,2.63E-02
62645,8.14E-03,2.54E-02
62646,7.79E-03,2.46E-02
62647,7.66E-03,2.39E-02
62648,5.95E-03,2.02E-02
62649,7.98E-03,1.97E-02
62650,8.39E-03,1.92E-02
62651,8.52E-03,1.87E-02
62652,8.51E-03,1.81E-02
62653,8.31E-03,1.75E-02
62654,8.22E-03,1.69E-02
62655,8.10E-03,1.64E-02
62656,8.00E-03,1.58E-02
62657,8.00E-03,1.52E-02
62658,8.00E-03,1.46E-02
62659,8.00E-03,1.41E-02
62660,8.00E-03,1.35E-02
62661,8.09E-03,1.30E-02
62662,8.16E-03,1.24E-02
62663,8.13E-03,1.19E-02
62664,9.75E-03,9.21E-03
62665,9.28E-03,8.69E-03
62666,8.96E-03,8.17E-03
62667,8.42E-03,7.70E-03
62668,8.12E-03,7.26E-03
62669,7.97E-03,6.85E-03
62670,7.19E-03,6.47E-03
62671,6.59E-03,6.14E-03
62672,7.70E-03,3.55E-02
62673,8.00E-03,3.61E-02
62674,7.99E-03,3.67E-02
62675,4.98E-03,3.72E-02
62676,8.07E-03,3.76E-02
62677,9.04E-03,4.06E-02
62678,9.04E-03,4.15E-02
62679,8.38E-03,4.24E-02
62680,7.26E-03,4.31E-02
62681,8.77E-03,1.64E-02
62682,9.02E-03,1.61E-02
62683,9.00E-03,1.60E-02
62684,8.90E-03,1.59E-02
62685,8.80E-03,1.58E-02
62686,8.56E-03,1.57E-02
62687,7.48E-03,1.56E-02
62688,7.22E-03,1.56E-02
62689,7.09E-03,1.55E-02
62690,6.92E-03,1.55E-02
62691,6.70E-03,1.55E-02
62692,6.60E-03,1.56E-02
62693,6.68E-03,1.57E-02
62694,6.84E-03,1.58E-02
62695,6.96E-03,1.59E-02
62696,7.03E-03,1.61E-02
62697,7.09E-03,1.64E-02
62698,7.16E-03,1.67E-02
62699,7.21E-03,1.70E-02
62700,7.24E-03,1.74E-02
62701,7.24E-03,1.79E-02
62702,7.23E-03,1.84E-02
62703,7.21E-03,1.89E-02
62704,7.20E-03,1.95E-02
62705,7.18E-03,2.02E-02
62706,7.16E-03,2.08E-02
62707,7.11E-03,2.16E-02
62708,7.00E-03,2.23E-02
62709,6.88E-03,2.30E-02
62710,6.74E-03,2.38E-02
62711,6.54E-03,2.46E-02
62712,6.30E-03,2.54E-02
62713,6.08E-03,2.61E-02
62714,5.96E-03,2.69E-02
62715,5.89E-03,2.76E-02
62716,5.84E-03,2.83E-02
62717,5.80E-03,2.91E-02
62718,5.78E-03,2.98E-02
62719,5.78E-03,3.05E-02
62720,5.83E-03,3.12E-02
62721,6.00E-03,3.20E-02
62722,6.23E-03,3.27E-02
62723,6.44E-03,3.35E-02
62724,6.61E-03,3.42E-02
62725,6.76E-03,3.50E-02
62726,6.90E-03,3.57E-02
62727,7.02E-03,3.65E-02
62728,7.09E-03,3.73E-02
62729,7.11E-03,3.80E-02
62730,7.14E-03,3.87E-02
62731,7.16E-03,3.95E-02
62732,7.18E-03,4.01E-02
62733,7.18E-03,4.08E-02
62734,7.16E-03,4.15E-02
62735,7.14E-03,4.21E-02
62736,7.12E-03,4.27E-02
62737,7.09E-03,4.33E-02
62738,7.00E-03,4.39E-02
62739,6.77E-03,4.44E-02
62740,6.57E-03,4.49E-02
62741,6.49E-03,4.54E-02
62742,6.39E-03,4.58E-02
62743,6.38E-03,4.62E-02
62744,6.55E-03,4.66E-02
62745,6.79E-03,4.70E-02
62746,6.97E-03,4.73E-02
62747,7.11E-03,4.76E-02
62748,7.27E-03,4.79E-02
62749,7.47E-03,4.81E-02
62750,7.68E-03,4.83E-02
62751,7.81E-03,4.85E-02
62752,7.88E-03,4.86E-02
62753,7.94E-03,4.87E-02
62754,8.00E-03,4.87E-02
62755,8.05E-03,4.87E-02
62756,8.11E-03,4.86E-02
62757,8.16E-03,4.84E-02
62758,8.45E-03,4.81E-02
62759,8.46E-03,4.79E-02
62760,8.57E-03,4.76E-02
62761,5.69E-03,3.20E-02
62762,8.09E-03,1.26E-02
62763,8.09E-03,1.24E-02
62764,8.09E-03,1.23E-02
62765,8.09E-03,1.21E-02
62766,8.09E-03,1.19E-02
62767,8.09E-03,1.18E-02
62768,8.09E-03,1.16E-02
62769,8.09E-03,1.14E-02
62770,8.09E-03,1.12E-02
62771,8.09E-03,1.10E-02
62772,8.09E-03,1.09E-02
62773,8.09E-03,1.07E-02
62774,8.09E-03,1.05E-02
62775,8.09E-03,1.03E-02
62776,8.09E-03,1.01E-02
62777,8.09E-03,9.92E-03
62778,8.09E-03,9.72E-03
62779,8.09E-03,9.52E-03
62780,8.09E-03,9.32E-03
62781,8.09E-03,9.12E-03
62782,8.09E-03,8.92E-03
62783,8.09E-03,8.71E-03
62784,8.09E-03,8.51E-03
62785,8.09E-03,8.31E-03
62786,8.09E-03,8.10E-03
62787,8.09E-03,7.90E-03
62788,8.09E-03,7.70E-03
62789,8.09E-03,7.49E-03
62790,8.09E-03,7.29E-03
62791,8.09E-03,7.09E-03
62792,8.09E-03,6.89E-03
62793,8.09E-03,6.69E-03
62794,8.09E-03,6.49E-03
62795,8.09E-03,6.30E-03
62796,8.09E-03,6.10E-03
62797,8.09E-03,5.91E-03
62798,8.09E-03,5.73E-03
62799,8.09E-03,5.54E-03
62800,8.09E-03,5.37E-03
62801,8.09E-03,5.20E-03
62802,8.09E-03,5.03E-03
62803,8.09E-03,4.87E-03
62804,8.09E-03,4.72E-03
62805,8.09E-03,4.58E-03
62806,8.09E-03,4.44E-03
62807,8.09E-03,4.32E-03
62808,8.09E-03,4.20E-03
62809,8.09E-03,4.10E-03
62810,8.09E-03,4.02E-03
62811,8.09E-03,3.94E-03
62812,8.09E-03,3.88E-03
62813,8.09E-03,3.84E-03
62814,8.09E-03,3.81E-03
62815,8.09E-03,3.80E-03
62816,8.09E-03,3.80E-03
62817,8.09E-03,3.82E-03
62818,8.09E-03,3.85E-03
62819,8.09E-03,3.90E-03
62820,8.09E-03,3.96E-03
62821,8.09E-03,4.04E-03
62822,8.09E-03,4.13E-03
62823,8.09E-03,4.23E-03
62824,8.09E-03,4.34E-03
62825,8.09E-03,4.46E-03
62826,8.09E-03,4.59E-03
62827,8.09E-03,4.73E-03
62828,8.09E-03,4.87E-03
62829,8.09E-03,5.02E-03
62830,8.09E-03,5.17E-03
62831,8.09E-03,5.33E-03
62832,8.09E-03,5.49E-03
62833,8.09E-03,5.66E-03
62834,8.09E-03,5.83E-03
62835,8.09E-03,6.00E-03
62836,8.09E-03,6.17E-03
62837,8.09E-03,6.35E-03
62838,8.09E-03,6.53E-03
62839,8.09E-03,6.70E-03
62840,8.09E-03,6.88E-03
62841,8.09E-03,7.06E-03
62842,8.09E-03,7.24E-03
62843,8.09E-03,7.42E-03
62844,8.09E-03,7.60E-03
62845,8.09E-03,7.78E-03
62846,8.09E-03,7.96E-03
62847,8.09E-03,8.14E-03
62848,8.09E-03,8.32E-03
62849,8.09E-03,8.50E-03
62850,8.09E-03,8.67E-03
62851,8.09E-03,8.85E-03
62852,8.09E-03,9.03E-03
62853,8.09E-03,9.20E-03
62854,8.09E-03,9.38E-03
62855,8.09E-03,9.55E-03
62856,8.09E-03,9.72E-03
62857,8.09E-03,9.90E-03
62858,8.09E-03,1.01E-02
62859,8.09E-03,1.02E-02
62860,8.09E-03,1.04E-02
62861,8.09E-03,1.06E-02
62862,8.09E-03,1.07E-02
62863,8.09E-03,1.09E-02
62864,8.09E-03,1.11E-02
62865,8.09E-03,1.12E-02
62866,8.09E-03,1.14E-02
62867,8.09E-03,1.16E-02
62868,8.09E-03,1.17E-02
62869,8.09E-03,1.19E-02
62870,8.09E-03,1.20E-02
62871,8.09E-03,1.22E-02
62872,8.09E-03,1.24E-02
62873,8.11E-03,1.25E-02
62874,8.24E-03,1.27E-02
62875,8.32E-03,1.28E-02
62876,8.47E-03,1.30E-02
62877,8.66E-03,1.31E-02
62878,7.70E-03,1.70E-02
62879,7.51E-03,1.71E-02
62880,7.12E-03,1.73E-02
62881,6.73E-03,1.75E-02
62882,6.24E-03,1.76E-02
62883,5.79E-03,1.77E-02
62884,5.10E-03,1.78E-02
62885,5.37E-03,1.79E-02
62886,5.91E-03,1.79E-02
62887,5.91E-03,1.79E-02
62888,6.09E-03,1.79E-02
62889,6.34E-03,1.79E-02
62890,6.59E-03,1.79E-02
62891,6.85E-03,1.78E-02
62892,7.03E-03,1.78E-02
62893,7.05E-03,1.77E-02
62894,7.05E-03,1.76E-02
62895,7.07E-03,1.75E-02
62896,7.06E-03,1.74E-02
62897,6.99E-03,1.73E-02
62898,7.06E-03,1.72E-02
62899,7.38E-03,1.70E-02
62900,7.65E-03,1.69E-02
62901,7.78E-03,1.67E-02
62902,7.94E-03,1.65E-02
62903,8.18E-03,1.64E-02
62904,8.41E-03,1.62E-02
62905,8.63E-03,1.60E-02
62906,8.86E-03,1.58E-02
62907,9.13E-03,1.55E-02
62908,9.31E-03,1.53E-02
62909,9.33E-03,1.51E-02
62910,9.25E-03,1.49E-02
62911,9.17E-03,1.47E-02
62912,9.08E-03,1.45E-02
62913,9.01E-03,1.42E-02
62914,8.97E-03,1.40E-02
62915,8.94E-03,1.38E-02
62916,9.01E-03,1.36E-02
62917,9.07E-03,1.34E-02
62918,9.10E-03,1.33E-02
62919,8.66E-03,1.31E-02
62920,6.29E-03,1.28E-02
62921,8.09E-03,1.29E-02
62922,9.43E-03,1.53E-02
62923,1.02E-02,1.53E-02
62924,1.01E-02,1.53E-02
62925,1.01E-02,1.53E-02
62926,1.00E-02,1.53E-02
62927,9.36E-03,1.54E-02
62928,9.31E-03,1.54E-02
62929,9.05E-03,1.54E-02
62930,8.81E-03,1.55E-02
62931,8.76E-03,1.55E-02
62932,8.46E-03,1.55E-02
62933,8.38E-03,1.56E-02
62934,8.29E-03,1.56E-02
62935,8.16E-03,1.56E-02
62936,8.10E-03,1.57E-02
62937,8.10E-03,1.57E-02
62938,7.98E-03,1.57E-02
62939,7.73E-03,1.58E-02
62940,7.54E-03,1.58E-02
62941,7.52E-03,1.58E-02
62942,7.54E-03,1.59E-02
62943,7.52E-03,1.59E-02
62944,7.51E-03,1.59E-02
62945,7.53E-03,1.59E-02
62946,7.55E-03,1.60E-02
62947,7.55E-03,1.60E-02
62948,7.56E-03,1.60E-02
62949,7.56E-03,1.60E-02
62950,7.57E-03,1.60E-02
62951,7.63E-03,1.60E-02
62952,7.72E-03,1.60E-02
62953,7.99E-03,1.60E-02
62954,7.99E-03,1.60E-02
62955,8.31E-03,1.60E-02
62956,8.58E-03,1.60E-02
62957,8.63E-03,1.60E-02
62958,9.45E-03,1.60E-02
62959,9.63E-03,1.60E-02
62960,9.88E-03,1.60E-02
62961,1.02E-02,1.60E-02
62962,1.04E-02,1.60E-02
62963,1.07E-02,1.60E-02
62964,1.07E-02,1.60E-02
62965,1.04E-02,1.60E-02
62966,1.02E-02,1.60E-02
62967,9.99E-03,1.60E-02
62968,9.75E-03,1.60E-02
62969,9.28E-03,1.60E-02
62970,9.27E-03,1.60E-02
62971,9.04E-03,1.60E-02
62972,8.65E-03,1.61E-02
62973,8.23E-03,1.61E-02
62974,8.21E-03,1.61E-02
62975,8.03E-03,1.61E-02
62976,8.00E-03,1.61E-02
62977,7.68E-03,1.61E-02
62978,7.39E-03,1.61E-02
62979,7.29E-03,1.61E-02
62980,7.14E-03,1.61E-02
62981,7.16E-03,1.61E-02
62982,7.59E-03,1.61E-02
62983,9.08E-03,1.61E-02
62984,8.68E-03,1.61E-02
62985,6.27E-03,1.62E-02
62986,8.10E-03,1.33E-02
62987,8.10E-03,1.34E-02
62988,6.92E-03,1.08E-02
62989,8.58E-03,9.42E-03
62990,8.02E-03,3.90E-02
62991,8.94E-03,3.98E-02
62992,8.94E-03,4.05E-02
62993,6.98E-03,4.44E-02
62994,8.67E-03,4.89E-02
62995,9.72E-03,4.91E-02
62996,7.30E-03,3.14E-02
62997,6.09E-03,3.22E-02
62998,8.10E-03,1.27E-02
62999,9.68E-03,1.66E-02
63000,8.94E-03,1.68E-02
63001,8.11E-03,1.70E-02
63002,8.09E-03,1.18E-02
63003,8.09E-03,1.16E-02
63004,8.09E-03,1.15E-02
63005,8.09E-03,1.14E-02
63006,8.09E-03,1.12E-02
63007,8.09E-03,1.10E-02
63008,8.09E-03,1.09E-02
63009,8.09E-03,1.07E-02
63010,8.09E-03,1.06E-02
63011,8.09E-03,1.04E-02
63012,8.09E-03,1.02E-02
63013,8.09E-03,1.01E-02
63014,8.09E-03,9.90E-03
63015,8.09E-03,9.73E-03
63016,8.09E-03,9.55E-03
63017,8.09E-03,9.38E-03
63018,8.09E-03,9.20E-03
63019,8.09E-03,9.02E-03
63020,8.09E-03,8.85E-03
63021,8.09E-03,8.67E-03
63022,8.09E-03,8.49E-03
63023,8.09E-03,8.31E-03
63024,8.09E-03,8.13E-03
63025,8.09E-03,7.94E-03
63026,8.09E-03,7.76E-03
63027,8.09E-03,7.58E-03
63028,8.09E-03,7.40E-03
63029,8.09E-03,7.22E-03
63030,8.09E-03,7.04E-03
63031,8.09E-03,6.86E-03
63032,8.09E-03,6.68E-03
63033,8.09E-03,6.51E-03
63034,8.09E-03,6.34E-03
63035,8.09E-03,6.17E-03
63036,8.09E-03,6.00E-03
63037,8.09E-03,5.84E-03
63038,8.09E-03,5.68E-03
63039,8.09E-03,5.52E-03
63040,8.09E-03,5.37E-03
63041,8.09E-03,5.23E-03
63042,8.09E-03,5.09E-03
63043,8.09E-03,4.96E-03
63044,8.09E-03,4.84E-03
63045,8.09E-03,4.73E-03
63046,8.09E-03,4.63E-03
63047,8.09E-03,4.54E-03
63048,8.09E-03,4.45E-03
63049,8.09E-03,4.39E-03
63050,8.09E-03,4.33E-03
63051,8.09E-03,4.29E-03
63052,8.09E-03,4.26E-03
63053,8.09E-03,4.25E-03
63054,8.09E-03,4.25E-03
63055,8.09E-03,4.27E-03
63056,8.09E-03,4.30E-03
63057,8.09E-03,4.34E-03
63058,8.09E-03,4.40E-03
63059,8.09E-03,4.48E-03
63060,8.09E-03,4.56E-03
63061,8.09E-03,4.66E-03
63062,8.09E-03,4.77E-03
63063,8.09E-03,4.89E-03
63064,8.09E-03,5.02E-03
63065,8.09E-03,5.16E-03
63066,8.09E-03,5.31E-03
63067,8.09E-03,5.47E-03
63068,8.09E-03,5.63E-03
63069,8.09E-03,5.80E-03
63070,8.09E-03,5.97E-03
63071,8.09E-03,6.15E-03
63072,8.09E-03,6.34E-03
63073,8.09E-03,6.53E-03
63074,8.09E-03,6.72E-03
63075,8.09E-03,6.92E-03
63076,8.09E-03,7.12E-03
63077,8.09E-03,7.32E-03
63078,8.09E-03,7.53E-03
63079,8.09E-03,7.73E-03
63080,8.09E-03,7.94E-03
63081,8.09E-03,8.15E-03
63082,8.09E-03,8.37E-03
63083,8.09E-03,8.58E-03
63084,8.09E-03,8.79E-03
63085,8.09E-03,9.01E-03
63086,8.09E-03,9.23E-03
63087,8.09E-03,9.44E-03
63088,8.09E-03,9.66E-03
63089,8.09E-03,9.88E-03
63090,8.09E-03,1.01E-02
63091,8.09E-03,1.03E-02
63092,8.09E-03,1.05E-02
63093,8.09E-03,1.07E-02
63094,8.09E-03,1.10E-02
63095,8.09E-03,1.12E-02
63096,8.09E-03,1.14E-02
63097,8.09E-03,1.16E-02
63098,8.09E-03,1.18E-02
63099,8.09E-03,1.20E-02
63100,8.09E-03,1.22E-02
63101,8.09E-03,1.25E-02
63102,8.09E-03,1.27E-02
63103,8.09E-03,1.29E-02
63104,8.09E-03,1.31E-02
63105,8.09E-03,1.33E-02
63106,8.09E-03,1.35E-02
63107,8.03E-03,1.37E-02
63108,8.00E-03,1.39E-02
63109,7.91E-03,1.41E-02
63110,7.91E-03,1.44E-02
63111,7.87E-03,1.46E-02
63112,7.90E-03,1.48E-02
63113,8.06E-03,1.50E-02
63114,8.37E-03,1.52E-02
63115,8.35E-03,1.54E-02
63116,7.78E-03,1.56E-02
63117,6.78E-03,1.58E-02
63118,6.17E-03,1.59E-02
63119,7.31E-03,1.62E-02
63120,8.05E-03,1.55E-02
63121,8.11E-03,1.55E-02
63122,6.18E-03,1.56E-02
63123,5.38E-03,1.56E-02
63124,4.99E-03,1.56E-02
63125,5.05E-03,1.57E-02
63126,5.37E-03,1.57E-02
63127,5.77E-03,1.57E-02
63128,6.10E-03,1.56E-02
63129,6.34E-03,1.56E-02
63130,6.56E-03,1.56E-02
63131,6.78E-03,1.56E-02
63132,7.00E-03,1.55E-02
63133,7.19E-03,1.55E-02
63134,7.32E-03,1.54E-02
63135,7.44E-03,1.53E-02
63136,7.54E-03,1.52E-02
63137,7.61E-03,1.52E-02
63138,7.65E-03,1.51E-02
63139,7.69E-03,1.50E-02
63140,7.73E-03,1.49E-02
63141,7.76E-03,1.48E-02
63142,7.80E-03,1.47E-02
63143,7.84E-03,1.46E-02
63144,7.87E-03,1.44E-02
63145,7.89E-03,1.43E-02
63146,7.90E-03,1.42E-02
63147,7.91E-03,1.41E-02
63148,7.92E-03,1.39E-02
63149,7.93E-03,1.38E-02
63150,7.94E-03,1.36E-02
63151,7.95E-03,1.34E-02
63152,7.96E-03,1.33E-02
63153,7.97E-03,1.31E-02
63154,7.97E-03,1.29E-02
63155,7.98E-03,1.27E-02
63156,7.99E-03,1.25E-02
63157,7.99E-03,1.23E-02
63158,8.00E-03,1.21E-02
63159,8.01E-03,1.19E-02
63160,8.01E-03,1.17E-02
63161,8.02E-03,1.15E-02
63162,8.02E-03,1.12E-02
63163,8.02E-03,1.10E-02
63164,8.03E-03,1.08E-02
63165,8.03E-03,1.07E-02
63166,8.04E-03,1.05E-02
63167,8.04E-03,1.03E-02
63168,8.04E-03,1.02E-02
63169,8.04E-03,1.00E-02
63170,8.04E-03,9.92E-03
63171,8.04E-03,9.82E-03
63172,8.04E-03,9.74E-03
63173,8.04E-03,9.67E-03
63174,8.04E-03,9.62E-03
63175,8.04E-03,9.59E-03
63176,8.04E-03,9.57E-03
63177,8.03E-03,9.57E-03
63178,8.02E-03,9.59E-03
63179,8.02E-03,9.62E-03
63180,8.01E-03,9.66E-03
63181,8.01E-03,9.72E-03
63182,8.00E-03,9.79E-03
63183,7.99E-03,9.87E-03
63184,7.99E-03,9.96E-03
63185,7.98E-03,1.01E-02
63186,7.97E-03,1.02E-02
63187,7.96E-03,1.03E-02
63188,7.94E-03,1.04E-02
63189,7.92E-03,1.05E-02
63190,7.91E-03,1.07E-02
63191,7.89E-03,1.08E-02
63192,7.88E-03,1.09E-02
63193,7.86E-03,1.11E-02
63194,7.85E-03,1.12E-02
63195,7.83E-03,1.14E-02
63196,7.82E-03,1.15E-02
63197,7.81E-03,1.17E-02
63198,7.80E-03,1.18E-02
63199,7.79E-03,1.20E-02
63200,7.78E-03,1.21E-02
63201,7.76E-03,1.23E-02
63202,7.75E-03,1.24E-02
63203,7.73E-03,1.25E-02
63204,7.72E-03,1.27E-02
63205,7.70E-03,1.28E-02
63206,7.68E-03,1.30E-02
63207,7.66E-03,1.31E-02
63208,7.63E-03,1.32E-02
63209,7.59E-03,1.34E-02
63210,7.56E-03,1.35E-02
63211,7.53E-03,1.36E-02
63212,7.52E-03,1.38E-02
63213,7.51E-03,1.39E-02
63214,7.51E-03,1.40E-02
63215,7.51E-03,1.41E-02
63216,7.52E-03,1.43E-02
63217,7.53E-03,1.44E-02
63218,7.55E-03,1.45E-02
63219,7.55E-03,1.46E-02
63220,7.56E-03,1.48E-02
63221,7.57E-03,1.49E-02
63222,7.58E-03,1.50E-02
63223,7.59E-03,1.51E-02
63224,7.59E-03,1.52E-02
63225,7.60E-03,1.54E-02
63226,7.61E-03,1.55E-02
63227,7.62E-03,1.56E-02
63228,7.62E-03,1.57E-02
63229,7.63E-03,1.58E-02
63230,7.64E-03,1.60E-02
63231,7.65E-03,1.61E-02
63232,7.66E-03,1.62E-02
63233,7.66E-03,1.63E-02
63234,7.66E-03,1.65E-02
63235,7.66E-03,1.66E-02
63236,7.67E-03,1.67E-02
63237,7.70E-03,1.68E-02
63238,7.73E-03,1.70E-02
63239,7.75E-03,1.71E-02
63240,7.77E-03,1.72E-02
63241,7.74E-03,1.73E-02
63242,7.52E-03,1.75E-02
63243,7.36E-03,1.76E-02
63244,7.28E-03,1.77E-02
63245,7.09E-03,1.78E-02
63246,6.83E-03,1.80E-02
63247,6.52E-03,1.81E-02
63248,6.16E-03,1.82E-02
63249,5.77E-03,1.83E-02
63250,5.34E-03,1.84E-02
63251,5.08E-03,1.85E-02
63252,4.67E-03,1.86E-02
63253,4.15E-03,1.87E-02
63254,3.60E-03,1.87E-02
63255,3.19E-03,1.88E-02
63256,3.55E-03,1.89E-02
63257,3.84E-03,1.89E-02
63258,4.11E-03,1.90E-02
63259,4.37E-03,1.91E-02
63260,4.48E-03,1.91E-02
63261,4.77E-03,1.92E-02
63262,4.90E-03,1.93E-02
63263,4.96E-03,1.94E-02
63264,5.06E-03,1.95E-02
63265,5.17E-03,1.96E-02
63266,5.23E-03,1.97E-02
63267,5.25E-03,1.97E-02
63268,5.24E-03,1.98E-02
63269,5.21E-03,1.99E-02
63270,5.18E-03,2.00E-02
63271,5.17E-03,2.01E-02
63272,5.18E-03,2.01E-02
63273,5.20E-03,2.02E-02
63274,5.22E-03,2.03E-02
63275,5.39E-03,2.03E-02
63276,5.96E-03,2.04E-02
63277,6.06E-03,2.05E-02
63278,6.31E-03,2.05E-02
63279,6.70E-03,2.06E-02
63280,6.88E-03,2.07E-02
63281,7.05E-03,2.08E-02
63282,7.15E-03,2.08E-02
63283,7.15E-03,2.09E-02
63284,7.45E-03,2.10E-02
63285,7.94E-03,2.10E-02
63286,8.04E-03,2.11E-02
63287,8.17E-03,2.12E-02
63288,8.35E-03,2.13E-02
63289,8.58E-03,2.14E-02
63290,8.88E-03,2.15E-02
63291,9.27E-03,2.16E-02
63292,9.78E-03,2.17E-02
63293,9.97E-03,2.18E-02
63294,1.02E-02,2.20E-02
63295,1.04E-02,2.21E-02
63296,1.03E-02,2.23E-02
63297,8.25E-03,2.24E-02
63298,7.99E-03,2.26E-02
63299,7.51E-03,2.28E-02
63300,6.95E-03,2.29E-02
63301,5.45E-03,2.30E-02
63302,4.26E-03,2.31E-02
63303,5.38E-03,2.31E-02
63304,5.94E-03,2.30E-02
63305,6.29E-03,2.30E-02
63306,6.56E-03,2.29E-02
63307,7.16E-03,2.29E-02
63308,1.11E-02,2.28E-02
63309,1.11E-02,2.28E-02
63310,1.12E-02,2.27E-02
63311,1.10E-02,2.26E-02
63312,1.08E-02,2.25E-02
63313,1.06E-02,2.24E-02
63314,1.03E-02,2.23E-02
63315,9.92E-03,2.22E-02
63316,9.91E-03,2.22E-02
63317,9.51E-03,2.21E-02
63318,9.34E-03,2.20E-02
63319,9.17E-03,2.20E-02
63320,8.98E-03,2.19E-02
63321,8.80E-03,2.18E-02
63322,8.67E-03,2.18E-02
63323,8.59E-03,2.18E-02
63324,8.53E-03,2.17E-02
63325,8.47E-03,2.17E-02
63326,8.43E-03,2.17E-02
63327,8.38E-03,2.17E-02
63328,8.35E-03,2.16E-02
63329,8.34E-03,2.16E-02
63330,8.34E-03,2.16E-02
63331,8.34E-03,2.16E-02
63332,8.32E-03,2.17E-02
63333,8.28E-03,2.17E-02
63334,8.22E-03,2.17E-02
63335,8.19E-03,2.17E-02
63336,8.16E-03,2.17E-02
63337,8.14E-03,2.18E-02
63338,8.13E-03,2.18E-02
63339,8.13E-03,2.18E-02
63340,8.13E-03,2.18E-02
63341,8.13E-03,2.18E-02
63342,8.12E-03,2.19E-02
63343,8.11E-03,2.19E-02
63344,8.11E-03,2.19E-02
63345,8.10E-03,2.19E-02
63346,8.09E-03,2.19E-02
63347,8.08E-03,2.19E-02
63348,8.07E-03,2.19E-02
63349,8.06E-03,2.19E-02
63350,8.06E-03,2.19E-02
63351,8.06E-03,2.19E-02
63352,8.07E-03,2.18E-02
63353,8.09E-03,2.18E-02
63354,8.10E-03,2.18E-02
63355,8.11E-03,2.17E-02
63356,8.12E-03,2.17E-02
63357,8.14E-03,2.16E-02
63358,8.15E-03,2.16E-02
63359,8.17E-03,2.15E-02
63360,8.20E-03,2.14E-02
63361,8.23E-03,2.14E-02
63362,8.26E-03,2.13E-02
63363,8.27E-03,2.12E-02
63364,8.28E-03,2.12E-02
63365,8.29E-03,2.11E-02
63366,8.31E-03,2.10E-02
63367,8.32E-03,2.10E-02
63368,8.34E-03,2.09E-02
63369,8.36E-03,2.09E-02
63370,8.38E-03,2.08E-02
63371,8.40E-03,2.08E-02
63372,8.44E-03,2.07E-02
63373,8.48E-03,2.07E-02
63374,8.52E-03,2.06E-02
63375,8.55E-03,2.06E-02
63376,8.55E-03,2.05E-02
63377,8.54E-03,2.05E-02
63378,8.53E-03,2.04E-02
63379,8.51E-03,2.03E-02
63380,8.50E-03,2.03E-02
63381,8.48E-03,2.02E-02
63382,8.47E-03,2.01E-02
63383,8.45E-03,2.00E-02
63384,8.46E-03,1.99E-02
63385,8.46E-03,1.98E-02
63386,8.41E-03,1.97E-02
63387,8.32E-03,1.96E-02
63388,8.21E-03,1.96E-02
63389,8.10E-03,1.95E-02
63390,8.03E-03,1.94E-02
63391,8.04E-03,1.94E-02
63392,8.06E-03,1.94E-02
63393,8.04E-03,1.93E-02
63394,7.99E-03,1.93E-02
63395,7.95E-03,1.93E-02
63396,7.91E-03,1.93E-02
63397,7.87E-03,1.93E-02
63398,7.82E-03,1.93E-02
63399,7.76E-03,1.92E-02
63400,7.70E-03,1.92E-02
63401,7.64E-03,1.92E-02
63402,7.60E-03,1.91E-02
63403,7.58E-03,1.90E-02
63404,7.55E-03,1.89E-02
63405,7.53E-03,1.88E-02
63406,7.52E-03,1.87E-02
63407,7.51E-03,1.85E-02
63408,7.49E-03,1.84E-02
63409,7.46E-03,1.82E-02
63410,7.43E-03,1.80E-02
63411,7.40E-03,1.79E-02
63412,7.40E-03,1.77E-02
63413,7.42E-03,1.75E-02
63414,7.43E-03,1.73E-02
63415,7.45E-03,1.71E-02
63416,7.47E-03,1.69E-02
63417,7.49E-03,1.66E-02
63418,7.51E-03,1.64E-02
63419,7.53E-03,1.62E-02
63420,7.54E-03,1.60E-02
63421,7.56E-03,1.58E-02
63422,7.57E-03,1.56E-02
63423,7.57E-03,1.54E-02
63424,7.58E-03,1.52E-02
63425,7.59E-03,1.50E-02
63426,7.59E-03,1.49E-02
63427,7.60E-03,1.47E-02
63428,7.59E-03,1.45E-02
63429,7.57E-03,1.43E-02
63430,7.56E-03,1.42E-02
63431,7.54E-03,1.40E-02
63432,7.52E-03,1.38E-02
63433,7.50E-03,1.37E-02
63434,7.48E-03,1.35E-02
63435,7.44E-03,1.33E-02
63436,7.39E-03,1.32E-02
63437,7.34E-03,1.30E-02
63438,7.30E-03,1.29E-02
63439,7.26E-03,1.28E-02
63440,7.24E-03,1.26E-02
63441,7.26E-03,1.25E-02
63442,7.28E-03,1.24E-02
63443,7.26E-03,1.22E-02
63444,7.26E-03,1.21E-02
63445,7.55E-03,1.20E-02
63446,7.97E-03,1.18E-02
63447,8.26E-03,1.17E-02
63448,8.65E-03,1.16E-02
63449,9.24E-03,1.14E-02
63450,9.69E-03,1.12E-02
63451,9.81E-03,1.11E-02
63452,9.80E-03,1.09E-02
63453,9.77E-03,1.07E-02
63454,9.73E-03,1.05E-02
63455,9.68E-03,1.03E-02
63456,9.61E-03,1.02E-02
63457,9.53E-03,9.97E-03
63458,9.47E-03,9.79E-03
63459,9.42E-03,9.61E-03
63460,9.37E-03,9.42E-03
63461,9.27E-03,9.24E-03
63462,9.19E-03,9.06E-03
63463,9.09E-03,8.89E-03
63464,8.62E-03,8.72E-03
63465,7.83E-03,8.57E-03
63466,7.77E-03,8.43E-03
63467,7.43E-03,8.29E-03
63468,7.36E-03,8.16E-03
63469,7.14E-03,8.04E-03
63470,6.90E-03,7.92E-03
63471,6.68E-03,7.82E-03
63472,6.52E-03,7.72E-03
63473,4.92E-03,7.64E-03
63474,4.76E-03,7.59E-03
63475,4.45E-03,7.54E-03
63476,4.00E-03,7.50E-03
63477,3.64E-03,7.43E-03
63478,3.66E-03,7.36E-03
63479,4.86E-03,7.29E-03
63480,5.02E-03,7.24E-03
63481,5.71E-03,7.20E-03
63482,6.11E-03,7.17E-03
63483,6.64E-03,7.14E-03
63484,6.99E-03,7.11E-03
63485,7.23E-03,7.07E-03
63486,9.50E-03,7.01E-03
63487,1.05E-02,6.94E-03
63488,1.04E-02,6.86E-03
63489,1.03E-02,6.76E-03
63490,1.01E-02,6.67E-03
63491,9.81E-03,6.57E-03
63492,9.54E-03,6.47E-03
63493,9.22E-03,6.37E-03
63494,8.95E-03,6.27E-03
63495,8.82E-03,6.17E-03
63496,8.54E-03,6.07E-03
63497,8.27E-03,5.97E-03
63498,8.13E-03,5.87E-03
63499,8.07E-03,5.78E-03
63500,8.01E-03,5.69E-03
63501,7.94E-03,5.60E-03
63502,7.85E-03,5.51E-03
63503,7.76E-03,5.42E-03
63504,7.69E-03,5.34E-03
63505,7.65E-03,5.26E-03
63506,7.60E-03,5.18E-03
63507,7.56E-03,5.10E-03
63508,7.52E-03,5.02E-03
63509,7.47E-03,4.95E-03
63510,7.40E-03,4.88E-03
63511,7.33E-03,4.81E-03
63512,7.26E-03,4.74E-03
63513,7.19E-03,4.68E-03
63514,7.14E-03,4.62E-03
63515,7.13E-03,4.56E-03
63516,7.12E-03,4.50E-03
63517,7.12E-03,4.44E-03
63518,7.12E-03,4.39E-03
63519,7.11E-03,4.33E-03
63520,7.11E-03,4.28E-03
63521,7.10E-03,4.23E-03
63522,7.09E-03,4.18E-03
63523,7.08E-03,4.13E-03
63524,7.07E-03,4.09E-03
63525,7.05E-03,4.04E-03
63526,7.04E-03,4.00E-03
63527,7.04E-03,3.96E-03
63528,7.05E-03,3.92E-03
63529,7.06E-03,3.88E-03
63530,7.08E-03,3.84E-03
63531,7.10E-03,3.80E-03
63532,7.13E-03,3.76E-03
63533,7.16E-03,3.73E-03
63534,7.20E-03,3.69E-03
63535,7.24E-03,3.66E-03
63536,7.30E-03,3.62E-03
63537,7.37E-03,3.59E-03
63538,7.42E-03,3.56E-03
63539,7.46E-03,3.53E-03
63540,7.49E-03,3.50E-03
63541,7.52E-03,3.46E-03
63542,7.55E-03,3.43E-03
63543,7.58E-03,3.41E-03
63544,7.60E-03,3.38E-03
63545,7.63E-03,3.35E-03
63546,7.65E-03,3.32E-03
63547,7.68E-03,3.29E-03
63548,7.70E-03,3.26E-03
63549,7.73E-03,3.24E-03
63550,7.75E-03,3.21E-03
63551,7.76E-03,3.18E-03
63552,7.78E-03,3.15E-03
63553,7.79E-03,3.13E-03
63554,7.80E-03,3.10E-03
63555,7.81E-03,3.07E-03
63556,7.82E-03,3.04E-03
63557,7.83E-03,3.02E-03
63558,7.85E-03,2.99E-03
63559,7.86E-03,2.96E-03
63560,7.88E-03,2.93E-03
63561,7.91E-03,2.90E-03
63562,7.93E-03,2.87E-03
63563,7.95E-03,2.84E-03
63564,7.96E-03,2.81E-03
63565,7.97E-03,2.78E-03
63566,7.99E-03,2.75E-03
63567,7.99E-03,2.72E-03
63568,7.99E-03,2.69E-03
63569,7.97E-03,2.65E-03
63570,7.95E-03,2.62E-03
63571,7.93E-03,2.59E-03
63572,7.88E-03,2.55E-03
63573,7.79E-03,2.52E-03
63574,7.68E-03,2.48E-03
63575,7.58E-03,2.45E-03
63576,7.50E-03,2.42E-03
63577,7.41E-03,2.38E-03
63578,7.31E-03,2.35E-03
63579,7.19E-03,2.32E-03
63580,7.03E-03,2.28E-03
63581,6.80E-03,2.25E-03
63582,6.51E-03,2.22E-03
63583,6.27E-03,2.20E-03
63584,6.11E-03,2.17E-03
63585,5.97E-03,2.15E-03
63586,5.83E-03,2.13E-03
63587,5.66E-03,2.11E-03
63588,5.46E-03,2.09E-03
63589,5.34E-03,2.07E-03
63590,5.32E-03,2.06E-03
63591,5.42E-03,2.05E-03
63592,5.60E-03,2.04E-03
63593,5.79E-03,2.03E-03
63594,5.94E-03,2.03E-03
63595,6.04E-03,2.03E-03
63596,6.11E-03,2.02E-03
63597,6.19E-03,2.02E-03
63598,6.29E-03,2.03E-03
63599,6.40E-03,2.03E-03
63600,6.53E-03,2.03E-03
63601,6.65E-03,2.04E-03
63602,6.75E-03,2.05E-03
63603,6.85E-03,2.06E-03
63604,6.94E-03,2.07E-03
63605,7.03E-03,2.08E-03
63606,7.10E-03,2.09E-03
63607,7.16E-03,2.10E-03
63608,7.21E-03,2.12E-03
63609,7.26E-03,2.13E-03
63610,7.46E-03,2.15E-03
63611,7.81E-03,2.17E-03
63612,8.08E-03,2.18E-03
63613,8.30E-03,2.20E-03
63614,8.60E-03,2.22E-03
63615,8.88E-03,2.23E-03
63616,9.21E-03,2.25E-03
63617,9.22E-03,2.26E-03
63618,8.41E-03,2.26E-03
63619,7.90E-03,2.27E-03
63620,7.57E-03,2.27E-03
63621,7.17E-03,2.27E-03
63622,6.80E-03,2.27E-03
63623,6.45E-03,2.27E-03
63624,5.81E-03,2.27E-03
63625,5.42E-03,2.27E-03
63626,4.84E-03,2.28E-03
63627,4.80E-03,2.29E-03
63628,4.82E-03,2.30E-03
63629,4.84E-03,2.32E-03
63630,4.87E-03,2.35E-03
63631,5.20E-03,2.38E-03
63632,5.99E-03,2.41E-03
63633,6.70E-03,2.46E-03
63634,7.06E-03,2.52E-03
63635,7.31E-03,2.58E-03
63636,7.95E-03,2.65E-03
63637,8.01E-03,2.72E-03
63638,7.92E-03,2.77E-03
63639,7.66E-03,2.81E-03
63640,6.72E-03,3.23E-03
63641,8.10E-03,1.32E-02
63642,8.10E-03,1.34E-02
63643,4.88E-03,3.30E-02
63644,7.72E-03,3.46E-03
63645,8.61E-03,3.71E-03
63646,9.10E-03,4.00E-03
63647,9.20E-03,4.32E-03
63648,7.42E-03,4.61E-02
63649,8.54E-03,4.78E-02
63650,8.10E-03,1.28E-02
63651,8.10E-03,1.30E-02
63652,8.10E-03,1.33E-02
63653,8.10E-03,1.20E-02
63654,8.10E-03,1.21E-02
63655,8.10E-03,1.29E-02
63656,8.10E-03,1.28E-02
63657,8.10E-03,1.32E-02
63658,8.10E-03,1.30E-02
63659,8.10E-03,1.27E-02
63660,8.10E-03,1.31E-02
63661,8.10E-03,1.25E-02
63662,8.10E-03,1.23E-02
63663,5.65E-03,9.55E-03
63664,6.72E-03,2.13E-02
63665,7.04E-03,2.18E-02
63666,6.87E-03,4.97E-03
63667,7.38E-03,1.27E-02
63668,8.95E-03,1.26E-02
63669,9.52E-03,1.25E-02
63670,1.05E-02,1.24E-02
63671,1.08E-02,1.23E-02
63672,1.09E-02,1.22E-02
63673,1.07E-02,1.21E-02
63674,1.06E-02,1.19E-02
63675,1.04E-02,1.18E-02
63676,1.04E-02,1.17E-02
63677,1.03E-02,1.16E-02
63678,1.02E-02,1.15E-02
63679,1.01E-02,1.13E-02
63680,9.95E-03,1.12E-02
63681,9.84E-03,1.11E-02
63682,9.73E-03,1.10E-02
63683,9.63E-03,1.10E-02
63684,9.54E-03,1.09E-02
63685,9.47E-03,1.08E-02
63686,9.40E-03,1.07E-02
63687,9.34E-03,1.06E-02
63688,9.27E-03,1.06E-02
63689,9.20E-03,1.05E-02
63690,9.15E-03,1.04E-02
63691,9.10E-03,1.04E-02
63692,9.05E-03,1.03E-02
63693,9.00E-03,1.03E-02
63694,8.96E-03,1.02E-02
63695,8.91E-03,1.02E-02
63696,8.84E-03,1.02E-02
63697,8.76E-03,1.01E-02
63698,8.67E-03,1.01E-02
63699,8.59E-03,1.01E-02
63700,8.54E-03,1.01E-02
63701,8.50E-03,1.00E-02
63702,8.46E-03,1.00E-02
63703,8.43E-03,1.00E-02
63704,8.40E-03,1.00E-02
63705,8.38E-03,1.00E-02
63706,8.35E-03,9.99E-03
63707,8.32E-03,9.99E-03
63708,8.29E-03,9.99E-03
63709,8.25E-03,9.99E-03
63710,8.22E-03,1.00E-02
63711,8.18E-03,1.00E-02
63712,8.15E-03,1.00E-02
63713,8.13E-03,1.00E-02
63714,8.12E-03,1.00E-02
63715,8.11E-03,1.01E-02
63716,8.07E-03,1.01E-02
63717,8.02E-03,1.01E-02
63718,7.95E-03,1.01E-02
63719,7.87E-03,1.01E-02
63720,7.79E-03,1.02E-02
63721,7.73E-03,1.02E-02
63722,7.70E-03,1.02E-02
63723,7.66E-03,1.03E-02
63724,7.59E-03,1.03E-02
63725,7.50E-03,1.03E-02
63726,7.37E-03,1.04E-02
63727,7.25E-03,1.04E-02
63728,7.15E-03,1.05E-02
63729,7.06E-03,1.05E-02
63730,6.97E-03,1.05E-02
63731,6.86E-03,1.06E-02
63732,6.72E-03,1.06E-02
63733,6.56E-03,1.07E-02
63734,6.42E-03,1.07E-02
63735,6.33E-03,1.08E-02
63736,6.31E-03,1.08E-02
63737,6.30E-03,1.09E-02
63738,6.30E-03,1.09E-02
63739,6.33E-03,1.10E-02
63740,6.36E-03,1.10E-02
63741,6.40E-03,1.11E-02
63742,6.46E-03,1.11E-02
63743,6.54E-03,1.12E-02
63744,6.63E-03,1.12E-02
63745,6.72E-03,1.13E-02
63746,6.78E-03,1.14E-02
63747,6.82E-03,1.14E-02
63748,6.87E-03,1.15E-02
63749,6.92E-03,1.16E-02
63750,6.97E-03,1.16E-02
63751,7.03E-03,1.17E-02
63752,7.08E-03,1.18E-02
63753,7.10E-03,1.19E-02
63754,7.09E-03,1.19E-02
63755,7.06E-03,1.20E-02
63756,7.05E-03,1.21E-02
63757,7.25E-03,1.22E-02
63758,7.47E-03,1.23E-02
63759,7.60E-03,1.24E-02
63760,7.72E-03,1.25E-02
63761,7.95E-03,1.26E-02
63762,8.03E-03,1.27E-02
63763,8.14E-03,1.28E-02
63764,8.21E-03,1.29E-02
63765,8.29E-03,1.31E-02
63766,8.46E-03,1.32E-02
63767,8.57E-03,1.33E-02
63768,9.26E-03,1.35E-02
63769,6.72E-03,1.36E-02
63770,7.11E-03,3.03E-03
63771,5.81E-03,1.38E-02
63772,9.44E-03,1.58E-02
63773,7.14E-03,1.28E-02
63774,6.54E-03,5.32E-03
63775,7.32E-03,2.24E-02
63776,8.10E-03,1.34E-02
63777,8.10E-03,1.34E-02
63778,7.59E-03,3.03E-02
63779,8.39E-03,2.94E-02
63780,9.13E-03,2.84E-02
63781,8.92E-03,2.73E-02
63782,8.97E-03,2.63E-02
63783,8.02E-03,2.54E-02
63784,7.73E-03,2.46E-02
63785,7.63E-03,2.38E-02
63786,7.45E-03,2.31E-02
63787,8.48E-03,1.98E-02
63788,8.60E-03,1.93E-02
63789,8.55E-03,1.87E-02
63790,8.47E-03,1.81E-02
63791,8.41E-03,1.75E-02
63792,8.29E-03,1.69E-02
63793,8.09E-03,1.63E-02
63794,8.00E-03,1.57E-02
63795,8.00E-03,1.51E-02
63796,8.00E-03,1.45E-02
63797,8.00E-03,1.39E-02
63798,8.00E-03,1.33E-02
63799,7.96E-03,1.27E-02
63800,7.95E-03,1.22E-02
63801,7.85E-03,1.17E-02
63802,7.71E-03,1.12E-02
63803,9.30E-03,8.99E-03
63804,9.09E-03,8.48E-03
63805,8.79E-03,7.97E-03
63806,8.40E-03,7.49E-03
63807,8.05E-03,7.06E-03
63808,7.66E-03,6.65E-03
63809,7.10E-03,6.30E-03
63810,7.06E-03,5.97E-03
63811,6.65E-03,5.77E-03
63812,7.79E-03,3.61E-02
63813,8.00E-03,3.67E-02
63814,8.06E-03,3.74E-02
63815,5.28E-03,3.79E-02
63816,7.99E-03,3.83E-02
63817,9.27E-03,4.07E-03
63818,8.82E-03,3.77E-03
63819,8.38E-03,3.50E-03
63820,7.92E-03,3.25E-03
63821,8.96E-03,4.15E-02
63822,8.81E-03,4.26E-02
63823,8.68E-03,4.37E-02
63824,7.85E-03,4.44E-02
63825,9.15E-03,1.66E-02
63826,9.11E-03,1.65E-02
63827,9.08E-03,1.63E-02
63828,8.92E-03,1.61E-02
63829,8.79E-03,1.60E-02
63830,8.48E-03,1.59E-02
63831,7.53E-03,1.58E-02
63832,7.30E-03,1.57E-02
63833,7.18E-03,1.57E-02
63834,7.02E-03,1.56E-02
63835,6.83E-03,1.56E-02
63836,6.74E-03,1.57E-02
63837,6.81E-03,1.57E-02
63838,6.96E-03,1.58E-02
63839,7.07E-03,1.59E-02
63840,7.13E-03,1.61E-02
63841,7.18E-03,1.64E-02
63842,7.24E-03,1.67E-02
63843,7.29E-03,1.70E-02
63844,7.32E-03,1.74E-02
63845,7.31E-03,1.79E-02
63846,7.30E-03,1.84E-02
63847,7.29E-03,1.89E-02
63848,7.28E-03,1.95E-02
63849,7.26E-03,2.02E-02
63850,7.25E-03,2.09E-02
63851,7.20E-03,2.17E-02
63852,7.10E-03,2.24E-02
63853,6.99E-03,2.32E-02
63854,6.86E-03,2.40E-02
63855,6.68E-03,2.49E-02
63856,6.46E-03,2.57E-02
63857,6.27E-03,2.65E-02
63858,6.16E-03,2.73E-02
63859,6.10E-03,2.81E-02
63860,6.05E-03,2.89E-02
63861,6.01E-03,2.96E-02
63862,6.00E-03,3.04E-02
63863,5.99E-03,3.12E-02
63864,6.04E-03,3.20E-02
63865,6.20E-03,3.27E-02
63866,6.40E-03,3.35E-02
63867,6.59E-03,3.43E-02
63868,6.75E-03,3.51E-02
63869,6.88E-03,3.59E-02
63870,7.01E-03,3.68E-02
63871,7.12E-03,3.76E-02
63872,7.18E-03,3.83E-02
63873,7.20E-03,3.91E-02
63874,7.22E-03,3.99E-02
63875,7.24E-03,4.06E-02
63876,7.26E-03,4.14E-02
63877,7.26E-03,4.21E-02
63878,7.25E-03,4.28E-02
63879,7.23E-03,4.34E-02
63880,7.21E-03,4.41E-02
63881,7.18E-03,4.47E-02
63882,7.09E-03,4.53E-02
63883,6.89E-03,4.58E-02
63884,6.71E-03,4.64E-02
63885,6.63E-03,4.69E-02
63886,6.55E-03,4.73E-02
63887,6.54E-03,4.78E-02
63888,6.70E-03,4.82E-02
63889,6.91E-03,4.85E-02
63890,7.07E-03,4.89E-02
63891,7.20E-03,4.92E-02
63892,7.34E-03,4.95E-02
63893,7.53E-03,4.98E-02
63894,7.71E-03,5.00E-02
63895,7.84E-03,5.02E-02
63896,7.90E-03,5.03E-02
63897,7.95E-03,5.04E-02
63898,8.00E-03,5.04E-02
63899,8.05E-03,5.04E-02
63900,8.10E-03,5.03E-02
63901,8.19E-03,5.01E-02
63902,8.34E-03,4.98E-02
63903,8.47E-03,4.95E-02
63904,8.64E-03,4.93E-02
63905,6.24E-03,3.27E-02
63906,8.09E-03,1.25E-02
63907,8.09E-03,1.24E-02
63908,8.09E-03,1.22E-02
63909,8.09E-03,1.21E-02
63910,8.09E-03,1.19E-02
63911,8.09E-03,1.17E-02
63912,8.09E-03,1.15E-02
63913,8.09E-03,1.14E-02
63914,8.09E-03,1.12E-02
63915,8.09E-03,1.10E-02
63916,8.09E-03,1.08E-02
63917,8.09E-03,1.06E-02
63918,8.09E-03,1.05E-02
63919,8.09E-03,1.03E-02
63920,8.09E-03,1.01E-02
63921,8.09E-03,9.89E-03
63922,8.09E-03,9.69E-03
63923,8.09E-03,9.50E-03
63924,8.09E-03,9.30E-03
63925,8.09E-03,9.10E-03
63926,8.09E-03,8.89E-03
63927,8.09E-03,8.69E-03
63928,8.09E-03,8.49E-03
63929,8.09E-03,8.29E-03
63930,8.09E-03,8.09E-03
63931,8.09E-03,7.88E-03
63932,8.09E-03,7.68E-03
63933,8.09E-03,7.48E-03
63934,8.09E-03,7.28E-03
63935,8.09E-03,7.08E-03
63936,8.09E-03,6.88E-03
63937,8.09E-03,6.68E-03
63938,8.09E-03,6.48E-03
63939,8.09E-03,6.29E-03
63940,8.09E-03,6.10E-03
63941,8.09E-03,5.91E-03
63942,8.09E-03,5.72E-03
63943,8.09E-03,5.54E-03
63944,8.09E-03,5.37E-03
63945,8.09E-03,5.20E-03
63946,8.09E-03,5.03E-03
63947,8.09E-03,4.87E-03
63948,8.09E-03,4.72E-03
63949,8.09E-03,4.58E-03
63950,8.09E-03,4.45E-03
63951,8.09E-03,4.32E-03
63952,8.09E-03,4.21E-03
63953,8.09E-03,4.11E-03
63954,8.09E-03,4.03E-03
63955,8.09E-03,3.95E-03
63956,8.09E-03,3.89E-03
63957,8.09E-03,3.85E-03
63958,8.09E-03,3.82E-03
63959,8.09E-03,3.81E-03
63960,8.09E-03,3.81E-03
63961,8.09E-03,3.83E-03
63962,8.09E-03,3.87E-03
63963,8.09E-03,3.92E-03
63964,8.09E-03,3.98E-03
63965,8.09E-03,4.06E-03
63966,8.09E-03,4.15E-03
63967,8.09E-03,4.25E-03
63968,8.09E-03,4.36E-03
63969,8.09E-03,4.48E-03
63970,8.09E-03,4.61E-03
63971,8.09E-03,4.75E-03
63972,8.09E-03,4.89E-03
63973,8.09E-03,5.04E-03
63974,8.09E-03,5.20E-03
63975,8.09E-03,5.36E-03
63976,8.09E-03,5.52E-03
63977,8.09E-03,5.69E-03
63978,8.09E-03,5.86E-03
63979,8.09E-03,6.03E-03
63980,8.09E-03,6.20E-03
63981,8.09E-03,6.38E-03
63982,8.09E-03,6.56E-03
63983,8.09E-03,6.73E-03
63984,8.09E-03,6.91E-03
63985,8.09E-03,7.09E-03
63986,8.09E-03,7.28E-03
63987,8.09E-03,7.46E-03
63988,8.09E-03,7.64E-03
63989,8.09E-03,7.82E-03
63990,8.09E-03,8.00E-03
63991,8.09E-03,8.18E-03
63992,8.09E-03,8.36E-03
63993,8.09E-03,8.54E-03
63994,8.09E-03,8.72E-03
63995,8.09E-03,8.90E-03
63996,8.09E-03,9.08E-03
63997,8.09E-03,9.25E-03
63998,8.09E-03,9.43E-03
63999,8.09E-03,9.61E-03
64000,8.09E-03,9.78E-03
64001,8.09E-03,9.96E-03
64002,8.09E-03,1.01E-02
64003,8.09E-03,1.03E-02
64004,8.09E-03,1.05E-02
64005,8.09E-03,1.06E-02
64006,8.09E-03,1.08E-02
64007,8.09E-03,1.10E-02
64008,8.09E-03,1.12E-02
64009,8.09E-03,1.13E-02
64010,8.09E-03,1.15E-02
64011,8.09E-03,1.17E-02
64012,8.09E-03,1.18E-02
64013,8.09E-03,1.20E-02
64014,8.09E-03,1.21E-02
64015,8.09E-03,1.23E-02
64016,8.09E-03,1.25E-02
64017,8.16E-03,1.26E-02
64018,8.24E-03,1.28E-02
64019,8.33E-03,1.29E-02
64020,8.39E-03,1.31E-02
64021,8.52E-03,1.32E-02
64022,8.71E-03,1.33E-02
64023,8.86E-03,1.59E-02
64024,8.72E-03,1.59E-02
64025,6.36E-03,1.60E-02
64026,5.64E-03,1.60E-02
64027,5.29E-03,1.60E-02
64028,5.34E-03,1.60E-02
64029,5.63E-03,1.61E-02
64030,5.99E-03,1.61E-02
64031,6.29E-03,1.60E-02
64032,6.50E-03,1.60E-02
64033,6.70E-03,1.60E-02
64034,6.90E-03,1.59E-02
64035,7.11E-03,1.59E-02
64036,7.28E-03,1.58E-02
64037,7.40E-03,1.58E-02
64038,7.50E-03,1.57E-02
64039,7.59E-03,1.56E-02
64040,7.65E-03,1.56E-02
64041,7.69E-03,1.55E-02
64042,7.73E-03,1.54E-02
64043,7.76E-03,1.53E-02
64044,7.79E-03,1.52E-02
64045,7.83E-03,1.51E-02
64046,7.86E-03,1.50E-02
64047,7.89E-03,1.48E-02
64048,7.91E-03,1.47E-02
64049,7.92E-03,1.46E-02
64050,7.93E-03,1.45E-02
64051,7.94E-03,1.43E-02
64052,7.95E-03,1.42E-02
64053,7.95E-03,1.40E-02
64054,7.96E-03,1.38E-02
64055,7.97E-03,1.37E-02
64056,7.98E-03,1.35E-02
64057,7.99E-03,1.33E-02
64058,7.99E-03,1.31E-02
64059,8.00E-03,1.29E-02
64060,8.00E-03,1.27E-02
64061,8.01E-03,1.25E-02
64062,8.01E-03,1.22E-02
64063,8.02E-03,1.20E-02
64064,8.02E-03,1.18E-02
64065,8.03E-03,1.16E-02
64066,8.03E-03,1.14E-02
64067,8.04E-03,1.12E-02
64068,8.04E-03,1.10E-02
64069,8.04E-03,1.08E-02
64070,8.05E-03,1.06E-02
64071,8.05E-03,1.04E-02
64072,8.05E-03,1.03E-02
64073,8.05E-03,1.02E-02
64074,8.05E-03,1.00E-02
64075,8.05E-03,9.95E-03
64076,8.05E-03,9.87E-03
64077,8.05E-03,9.81E-03
64078,8.05E-03,9.77E-03
64079,8.04E-03,9.75E-03
64080,8.04E-03,9.74E-03
64081,8.03E-03,9.75E-03
64082,8.03E-03,9.77E-03
64083,8.02E-03,9.80E-03
64084,8.01E-03,9.85E-03
64085,8.01E-03,9.91E-03
64086,8.00E-03,9.98E-03
64087,8.00E-03,1.01E-02
64088,7.99E-03,1.02E-02
64089,7.98E-03,1.03E-02
64090,7.97E-03,1.04E-02
64091,7.96E-03,1.05E-02
64092,7.94E-03,1.06E-02
64093,7.93E-03,1.07E-02
64094,7.91E-03,1.09E-02
64095,7.90E-03,1.10E-02
64096,7.88E-03,1.11E-02
64097,7.87E-03,1.13E-02
64098,7.86E-03,1.14E-02
64099,7.85E-03,1.16E-02
64100,7.84E-03,1.17E-02
64101,7.83E-03,1.19E-02
64102,7.82E-03,1.20E-02
64103,7.81E-03,1.22E-02
64104,7.80E-03,1.23E-02
64105,7.78E-03,1.24E-02
64106,7.77E-03,1.26E-02
64107,7.75E-03,1.27E-02
64108,7.74E-03,1.29E-02
64109,7.72E-03,1.30E-02
64110,7.70E-03,1.31E-02
64111,7.67E-03,1.33E-02
64112,7.64E-03,1.34E-02
64113,7.61E-03,1.35E-02
64114,7.59E-03,1.37E-02
64115,7.57E-03,1.38E-02
64116,7.57E-03,1.39E-02
64117,7.56E-03,1.41E-02
64118,7.57E-03,1.42E-02
64119,7.58E-03,1.43E-02
64120,7.59E-03,1.44E-02
64121,7.60E-03,1.45E-02
64122,7.61E-03,1.47E-02
64123,7.61E-03,1.48E-02
64124,7.62E-03,1.49E-02
64125,7.63E-03,1.50E-02
64126,7.64E-03,1.52E-02
64127,7.64E-03,1.53E-02
64128,7.65E-03,1.54E-02
64129,7.66E-03,1.55E-02
64130,7.66E-03,1.56E-02
64131,7.67E-03,1.57E-02
64132,7.68E-03,1.59E-02
64133,7.68E-03,1.60E-02
64134,7.69E-03,1.61E-02
64135,7.70E-03,1.62E-02
64136,7.70E-03,1.63E-02
64137,7.70E-03,1.65E-02
64138,7.70E-03,1.66E-02
64139,7.71E-03,1.67E-02
64140,7.73E-03,1.68E-02
64141,7.76E-03,1.70E-02
64142,7.79E-03,1.71E-02
64143,7.80E-03,1.72E-02
64144,7.72E-03,1.73E-02
64145,7.64E-03,1.75E-02
64146,7.43E-03,1.76E-02
64147,7.37E-03,1.77E-02
64148,7.19E-03,1.78E-02
64149,6.97E-03,1.79E-02
64150,6.69E-03,1.81E-02
64151,6.38E-03,1.82E-02
64152,6.03E-03,1.83E-02
64153,5.66E-03,1.84E-02
64154,5.17E-03,1.85E-02
64155,5.05E-03,1.86E-02
64156,4.80E-03,1.87E-02
64157,3.81E-03,1.88E-02
64158,3.35E-03,1.88E-02
64159,3.85E-03,1.89E-02
64160,4.24E-03,1.90E-02
64161,4.45E-03,1.90E-02
64162,4.73E-03,1.91E-02
64163,4.90E-03,1.92E-02
64164,5.09E-03,1.93E-02
64165,5.10E-03,1.94E-02
64166,5.19E-03,1.95E-02
64167,5.31E-03,1.96E-02
64168,5.45E-03,1.97E-02
64169,5.50E-03,1.98E-02
64170,5.52E-03,1.98E-02
64171,5.51E-03,1.99E-02
64172,5.48E-03,2.00E-02
64173,5.46E-03,2.01E-02
64174,5.45E-03,2.02E-02
64175,5.46E-03,2.03E-02
64176,5.48E-03,2.03E-02
64177,5.49E-03,2.04E-02
64178,5.65E-03,2.05E-02
64179,6.06E-03,2.06E-02
64180,6.23E-03,2.06E-02
64181,6.62E-03,2.07E-02
64182,6.83E-03,2.08E-02
64183,6.99E-03,2.08E-02
64184,7.15E-03,2.09E-02
64185,7.24E-03,2.10E-02
64186,7.24E-03,2.11E-02
64187,7.51E-03,2.11E-02
64188,7.88E-03,2.12E-02
64189,8.02E-03,2.13E-02
64190,8.13E-03,2.14E-02
64191,8.28E-03,2.15E-02
64192,8.48E-03,2.16E-02
64193,8.76E-03,2.16E-02
64194,9.20E-03,2.18E-02
64195,9.76E-03,2.19E-02
64196,9.89E-03,2.20E-02
64197,1.01E-02,2.21E-02
64198,1.02E-02,2.23E-02
64199,9.71E-03,2.24E-02
64200,8.30E-03,2.26E-02
64201,8.04E-03,2.28E-02
64202,7.84E-03,2.30E-02
64203,8.18E-03,2.32E-02
64204,7.99E-03,2.31E-02
64205,7.89E-03,1.73E-02
64206,7.75E-03,1.75E-02
64207,7.36E-03,1.77E-02
64208,6.93E-03,1.79E-02
64209,6.46E-03,1.80E-02
64210,6.07E-03,1.81E-02
64211,5.09E-03,1.82E-02
64212,5.55E-03,1.83E-02
64213,6.04E-03,1.83E-02
64214,6.07E-03,1.83E-02
64215,6.28E-03,1.83E-02
64216,6.51E-03,1.83E-02
64217,6.81E-03,1.83E-02
64218,7.06E-03,1.82E-02
64219,7.13E-03,1.81E-02
64220,7.15E-03,1.81E-02
64221,7.15E-03,1.80E-02
64222,7.17E-03,1.78E-02
64223,7.16E-03,1.77E-02
64224,7.09E-03,1.76E-02
64225,7.16E-03,1.75E-02
64226,7.44E-03,1.73E-02
64227,7.69E-03,1.71E-02
64228,7.80E-03,1.70E-02
64229,7.95E-03,1.68E-02
64230,8.17E-03,1.66E-02
64231,8.37E-03,1.64E-02
64232,8.57E-03,1.62E-02
64233,8.79E-03,1.59E-02
64234,9.03E-03,1.57E-02
64235,9.19E-03,1.55E-02
64236,9.20E-03,1.52E-02
64237,9.13E-03,1.50E-02
64238,9.06E-03,1.48E-02
64239,8.98E-03,1.46E-02
64240,8.92E-03,1.44E-02
64241,8.88E-03,1.41E-02
64242,8.86E-03,1.39E-02
64243,8.84E-03,1.37E-02
64244,8.79E-03,1.35E-02
64245,8.61E-03,1.33E-02
64246,8.41E-03,1.31E-02
64247,7.97E-03,1.30E-02
64248,6.43E-03,1.71E-02
64249,6.56E-03,1.72E-02
64250,6.62E-03,1.75E-02
64251,1.04E-02,1.57E-02
64252,1.03E-02,1.57E-02
64253,1.02E-02,1.57E-02
64254,1.01E-02,1.57E-02
64255,1.01E-02,1.57E-02
64256,9.13E-03,1.58E-02
64257,9.14E-03,1.58E-02
64258,8.94E-03,1.58E-02
64259,8.84E-03,1.59E-02
64260,8.65E-03,1.59E-02
64261,8.43E-03,1.59E-02
64262,8.35E-03,1.60E-02
64263,8.27E-03,1.60E-02
64264,8.16E-03,1.60E-02
64265,8.10E-03,1.61E-02
64266,8.10E-03,1.61E-02
64267,7.99E-03,1.61E-02
64268,7.76E-03,1.62E-02
64269,7.60E-03,1.62E-02
64270,7.58E-03,1.62E-02
64271,7.59E-03,1.63E-02
64272,7.57E-03,1.63E-02
64273,7.57E-03,1.63E-02
64274,7.58E-03,1.63E-02
64275,7.60E-03,1.63E-02
64276,7.61E-03,1.64E-02
64277,7.61E-03,1.64E-02
64278,7.61E-03,1.64E-02
64279,7.62E-03,1.64E-02
64280,7.67E-03,1.64E-02
64281,7.76E-03,1.64E-02
64282,7.96E-03,1.64E-02
64283,8.06E-03,1.64E-02
64284,8.26E-03,1.64E-02
64285,8.59E-03,1.64E-02
64286,8.72E-03,1.64E-02
64287,9.18E-03,1.63E-02
64288,9.33E-03,1.63E-02
64289,9.80E-03,1.63E-02
64290,9.99E-03,1.63E-02
64291,1.01E-02,1.63E-02
64292,1.03E-02,1.63E-02
64293,1.04E-02,1.63E-02
64294,1.03E-02,1.63E-02
64295,1.01E-02,1.63E-02
64296,9.99E-03,1.63E-02
64297,9.59E-03,1.63E-02
64298,9.14E-03,1.63E-02
64299,9.06E-03,1.63E-02
64300,8.93E-03,1.64E-02
64301,8.56E-03,1.64E-02
64302,8.29E-03,1.64E-02
64303,8.25E-03,1.64E-02
64304,8.15E-03,1.64E-02
64305,7.90E-03,1.64E-02
64306,7.67E-03,1.64E-02
64307,7.54E-03,1.64E-02
64308,7.46E-03,1.64E-02
64309,7.42E-03,1.64E-02
64310,7.45E-03,1.64E-02
64311,7.68E-03,1.64E-02
64312,7.56E-03,1.64E-02
64313,7.28E-03,1.64E-02
64314,6.64E-03,1.64E-02
64315,6.10E-03,1.65E-02
64316,6.31E-03,1.65E-02
64317,7.25E-03,1.65E-02
64318,8.10E-03,1.32E-02
64319,8.10E-03,1.33E-02
64320,5.99E-03,4.70E-03
64321,6.15E-03,5.05E-03
64322,7.47E-03,3.54E-02
64323,5.72E-03,2.33E-02
64324,5.44E-03,2.33E-02
64325,5.88E-03,2.33E-02
64326,6.23E-03,2.33E-02
64327,6.44E-03,2.32E-02
64328,6.70E-03,2.31E-02
64329,1.09E-02,2.31E-02
64330,1.09E-02,2.30E-02
64331,1.09E-02,2.29E-02
64332,1.08E-02,2.28E-02
64333,1.05E-02,2.28E-02
64334,1.05E-02,2.27E-02
64335,9.90E-03,2.26E-02
64336,9.83E-03,2.25E-02
64337,9.63E-03,2.24E-02
64338,9.38E-03,2.23E-02
64339,9.22E-03,2.23E-02
64340,9.06E-03,2.22E-02
64341,8.89E-03,2.21E-02
64342,8.73E-03,2.21E-02
64343,8.61E-03,2.20E-02
64344,8.54E-03,2.20E-02
64345,8.49E-03,2.19E-02
64346,8.44E-03,2.19E-02
64347,8.40E-03,2.19E-02
64348,8.36E-03,2.19E-02
64349,8.33E-03,2.19E-02
64350,8.32E-03,2.18E-02
64351,8.32E-03,2.18E-02
64352,8.32E-03,2.19E-02
64353,8.30E-03,2.19E-02
64354,8.26E-03,2.19E-02
64355,8.21E-03,2.19E-02
64356,8.18E-03,2.19E-02
64357,8.16E-03,2.19E-02
64358,8.14E-03,2.20E-02
64359,8.13E-03,2.20E-02
64360,8.13E-03,2.20E-02
64361,8.12E-03,2.20E-02
64362,8.12E-03,2.21E-02
64363,8.12E-03,2.21E-02
64364,8.11E-03,2.21E-02
64365,8.10E-03,2.21E-02
64366,8.10E-03,2.21E-02
64367,8.09E-03,2.22E-02
64368,8.08E-03,2.22E-02
64369,8.07E-03,2.22E-02
64370,8.06E-03,2.21E-02
64371,8.06E-03,2.21E-02
64372,8.06E-03,2.21E-02
64373,8.08E-03,2.21E-02
64374,8.09E-03,2.20E-02
64375,8.10E-03,2.20E-02
64376,8.11E-03,2.20E-02
64377,8.12E-03,2.19E-02
64378,8.13E-03,2.18E-02
64379,8.14E-03,2.18E-02
64380,8.16E-03,2.17E-02
64381,8.19E-03,2.17E-02
64382,8.22E-03,2.16E-02
64383,8.24E-03,2.15E-02
64384,8.25E-03,2.14E-02
64385,8.26E-03,2.14E-02
64386,8.27E-03,2.13E-02
64387,8.29E-03,2.13E-02
64388,8.30E-03,2.12E-02
64389,8.32E-03,2.12E-02
64390,8.33E-03,2.11E-02
64391,8.35E-03,2.11E-02
64392,8.38E-03,2.10E-02
64393,8.41E-03,2.10E-02
64394,8.45E-03,2.10E-02
64395,8.48E-03,2.09E-02
64396,8.50E-03,2.09E-02
64397,8.51E-03,2.08E-02
64398,8.50E-03,2.08E-02
64399,8.49E-03,2.07E-02
64400,8.47E-03,2.06E-02
64401,8.46E-03,2.06E-02
64402,8.45E-03,2.05E-02
64403,8.43E-03,2.04E-02
64404,8.42E-03,2.03E-02
64405,8.42E-03,2.02E-02
64406,8.42E-03,2.01E-02
64407,8.38E-03,2.00E-02
64408,8.30E-03,2.00E-02
64409,8.20E-03,1.99E-02
64410,8.10E-03,1.98E-02
64411,8.04E-03,1.97E-02
64412,8.04E-03,1.97E-02
64413,8.06E-03,1.97E-02
64414,8.04E-03,1.96E-02
64415,8.00E-03,1.96E-02
64416,7.96E-03,1.96E-02
64417,7.93E-03,1.96E-02
64418,7.89E-03,1.96E-02
64419,7.85E-03,1.96E-02
64420,7.80E-03,1.95E-02
64421,7.74E-03,1.95E-02
64422,7.68E-03,1.94E-02
64423,7.65E-03,1.94E-02
64424,7.63E-03,1.93E-02
64425,7.60E-03,1.92E-02
64426,7.59E-03,1.91E-02
64427,7.57E-03,1.89E-02
64428,7.56E-03,1.88E-02
64429,7.55E-03,1.86E-02
64430,7.52E-03,1.84E-02
64431,7.49E-03,1.82E-02
64432,7.47E-03,1.80E-02
64433,7.47E-03,1.78E-02
64434,7.48E-03,1.76E-02
64435,7.50E-03,1.74E-02
64436,7.51E-03,1.72E-02
64437,7.53E-03,1.69E-02
64438,7.55E-03,1.67E-02
64439,7.56E-03,1.65E-02
64440,7.58E-03,1.63E-02
64441,7.60E-03,1.61E-02
64442,7.61E-03,1.59E-02
64443,7.62E-03,1.57E-02
64444,7.62E-03,1.55E-02
64445,7.63E-03,1.53E-02
64446,7.64E-03,1.51E-02
64447,7.64E-03,1.49E-02
64448,7.64E-03,1.47E-02
64449,7.64E-03,1.45E-02
64450,7.62E-03,1.43E-02
64451,7.61E-03,1.41E-02
64452,7.59E-03,1.40E-02
64453,7.58E-03,1.38E-02
64454,7.56E-03,1.36E-02
64455,7.54E-03,1.35E-02
64456,7.50E-03,1.33E-02
64457,7.46E-03,1.32E-02
64458,7.41E-03,1.30E-02
64459,7.37E-03,1.29E-02
64460,7.34E-03,1.27E-02
64461,7.32E-03,1.26E-02
64462,7.34E-03,1.24E-02
64463,7.36E-03,1.23E-02
64464,7.34E-03,1.22E-02
64465,7.34E-03,1.20E-02
64466,7.61E-03,1.19E-02
64467,7.99E-03,1.18E-02
64468,8.25E-03,1.16E-02
64469,8.60E-03,1.15E-02
64470,9.13E-03,1.13E-02
64471,9.54E-03,1.12E-02
64472,9.65E-03,1.10E-02
64473,9.64E-03,1.08E-02
64474,9.61E-03,1.06E-02
64475,9.57E-03,1.05E-02
64476,9.53E-03,1.03E-02
64477,9.46E-03,1.01E-02
64478,9.39E-03,9.91E-03
64479,9.34E-03,9.73E-03
64480,9.29E-03,9.55E-03
64481,9.24E-03,9.36E-03
64482,9.16E-03,9.18E-03
64483,9.09E-03,9.00E-03
64484,8.99E-03,8.83E-03
64485,8.45E-03,8.66E-03
64486,8.02E-03,8.51E-03
64487,7.84E-03,8.36E-03
64488,7.52E-03,8.22E-03
64489,7.42E-03,8.09E-03
64490,7.21E-03,7.96E-03
64491,6.92E-03,7.85E-03
64492,6.62E-03,7.74E-03
64493,6.45E-03,7.65E-03
64494,5.28E-03,7.57E-03
64495,5.12E-03,7.50E-03
64496,4.90E-03,7.43E-03
64497,4.28E-03,7.38E-03
64498,4.26E-03,7.32E-03
64499,4.12E-03,7.26E-03
64500,5.23E-03,7.20E-03
64501,5.40E-03,7.14E-03
64502,5.78E-03,7.09E-03
64503,6.29E-03,7.05E-03
64504,6.82E-03,7.01E-03
64505,7.21E-03,6.97E-03
64506,7.35E-03,6.93E-03
64507,9.29E-03,6.88E-03
64508,1.03E-02,6.81E-03
64509,1.01E-02,6.73E-03
64510,1.00E-02,6.64E-03
64511,9.89E-03,6.54E-03
64512,9.58E-03,6.44E-03
64513,9.38E-03,6.34E-03
64514,9.05E-03,6.24E-03
64515,8.86E-03,6.14E-03
64516,8.77E-03,6.04E-03
64517,8.44E-03,5.94E-03
64518,8.33E-03,5.84E-03
64519,8.13E-03,5.74E-03
64520,8.07E-03,5.65E-03
64521,8.01E-03,5.56E-03
64522,7.95E-03,5.47E-03
64523,7.87E-03,5.38E-03
64524,7.79E-03,5.29E-03
64525,7.73E-03,5.21E-03
64526,7.69E-03,5.13E-03
64527,7.65E-03,5.05E-03
64528,7.61E-03,4.97E-03
64529,7.57E-03,4.89E-03
64530,7.53E-03,4.82E-03
64531,7.47E-03,4.75E-03
64532,7.40E-03,4.68E-03
64533,7.34E-03,4.61E-03
64534,7.28E-03,4.55E-03
64535,7.23E-03,4.49E-03
64536,7.22E-03,4.43E-03
64537,7.22E-03,4.37E-03
64538,7.21E-03,4.31E-03
64539,7.21E-03,4.26E-03
64540,7.21E-03,4.21E-03
64541,7.20E-03,4.15E-03
64542,7.20E-03,4.10E-03
64543,7.19E-03,4.05E-03
64544,7.18E-03,4.01E-03
64545,7.17E-03,3.96E-03
64546,7.15E-03,3.92E-03
64547,7.14E-03,3.87E-03
64548,7.14E-03,3.83E-03
64549,7.15E-03,3.79E-03
64550,7.16E-03,3.75E-03
64551,7.18E-03,3.71E-03
64552,7.20E-03,3.67E-03
64553,7.22E-03,3.64E-03
64554,7.25E-03,3.60E-03
64555,7.28E-03,3.56E-03
64556,7.33E-03,3.53E-03
64557,7.38E-03,3.50E-03
64558,7.43E-03,3.46E-03
64559,7.49E-03,3.43E-03
64560,7.52E-03,3.40E-03
64561,7.55E-03,3.37E-03
64562,7.58E-03,3.34E-03
64563,7.60E-03,3.31E-03
64564,7.63E-03,3.28E-03
64565,7.65E-03,3.25E-03
64566,7.67E-03,3.22E-03
64567,7.69E-03,3.19E-03
64568,7.72E-03,3.17E-03
64569,7.74E-03,3.14E-03
64570,7.76E-03,3.11E-03
64571,7.78E-03,3.08E-03
64572,7.80E-03,3.06E-03
64573,7.81E-03,3.03E-03
64574,7.82E-03,3.00E-03
64575,7.83E-03,2.98E-03
64576,7.84E-03,2.95E-03
64577,7.85E-03,2.92E-03
64578,7.86E-03,2.89E-03
64579,7.87E-03,2.87E-03
64580,7.88E-03,2.84E-03
64581,7.90E-03,2.81E-03
64582,7.92E-03,2.78E-03
64583,7.95E-03,2.75E-03
64584,7.96E-03,2.72E-03
64585,7.98E-03,2.69E-03
64586,7.99E-03,2.66E-03
64587,8.00E-03,2.63E-03
64588,8.00E-03,2.60E-03
64589,8.00E-03,2.57E-03
64590,7.99E-03,2.53E-03
64591,7.97E-03,2.50E-03
64592,7.94E-03,2.47E-03
64593,7.90E-03,2.43E-03
64594,7.82E-03,2.40E-03
64595,7.72E-03,2.37E-03
64596,7.63E-03,2.33E-03
64597,7.55E-03,2.30E-03
64598,7.48E-03,2.26E-03
64599,7.39E-03,2.23E-03
64600,7.28E-03,2.20E-03
64601,7.13E-03,2.17E-03
64602,6.92E-03,2.14E-03
64603,6.66E-03,2.11E-03
64604,6.44E-03,2.08E-03
64605,6.30E-03,2.05E-03
64606,6.17E-03,2.03E-03
64607,6.05E-03,2.01E-03
64608,5.89E-03,1.99E-03
64609,5.71E-03,1.97E-03
64610,5.60E-03,1.95E-03
64611,5.59E-03,1.94E-03
64612,5.68E-03,1.93E-03
64613,5.84E-03,1.92E-03
64614,6.01E-03,1.91E-03
64615,6.14E-03,1.90E-03
64616,6.23E-03,1.90E-03
64617,6.30E-03,1.90E-03
64618,6.37E-03,1.90E-03
64619,6.46E-03,1.90E-03
64620,6.56E-03,1.90E-03
64621,6.68E-03,1.90E-03
64622,6.78E-03,1.91E-03
64623,6.88E-03,1.91E-03
64624,6.97E-03,1.92E-03
64625,7.05E-03,1.93E-03
64626,7.13E-03,1.94E-03
64627,7.19E-03,1.95E-03
64628,7.25E-03,1.96E-03
64629,7.29E-03,1.97E-03
64630,7.34E-03,1.98E-03
64631,7.52E-03,2.00E-03
64632,7.83E-03,2.01E-03
64633,8.08E-03,2.03E-03
64634,8.28E-03,2.04E-03
64635,8.55E-03,2.05E-03
64636,8.81E-03,2.07E-03
64637,9.11E-03,2.08E-03
64638,9.11E-03,2.08E-03
64639,8.46E-03,2.09E-03
64640,7.95E-03,2.08E-03
64641,7.65E-03,2.08E-03
64642,7.24E-03,2.08E-03
64643,6.92E-03,2.07E-03
64644,6.61E-03,2.07E-03
64645,6.16E-03,2.07E-03
64646,5.52E-03,2.07E-03
64647,5.15E-03,2.07E-03
64648,5.12E-03,2.08E-03
64649,5.13E-03,2.09E-03
64650,5.15E-03,2.11E-03
64651,5.18E-03,2.13E-03
64652,5.48E-03,2.16E-03
64653,6.19E-03,2.19E-03
64654,6.83E-03,2.24E-03
64655,7.16E-03,2.29E-03
64656,7.39E-03,2.34E-03
64657,7.97E-03,2.39E-03
64658,8.01E-03,2.44E-03
64659,7.94E-03,2.48E-03
64660,7.70E-03,2.51E-03
64661,7.18E-03,2.56E-03
64662,7.75E-03,3.99E-02
64663,8.36E-03,4.07E-02
64664,8.49E-03,4.17E-02
64665,9.96E-03,1.70E-02
64666,7.56E-03,3.17E-02
64667,6.51E-03,3.28E-02
64668,5.83E-03,3.39E-02
64669,9.33E-03,4.99E-02
64670,8.10E-03,1.27E-02
64671,9.21E-03,1.25E-02
64672,9.43E-03,1.24E-02
64673,9.95E-03,1.23E-02
64674,1.04E-02,1.22E-02
64675,1.05E-02,1.21E-02
64676,1.04E-02,1.20E-02
64677,1.03E-02,1.19E-02
64678,1.02E-02,1.18E-02
64679,1.01E-02,1.16E-02
64680,1.00E-02,1.15E-02
64681,9.96E-03,1.14E-02
64682,9.87E-03,1.13E-02
64683,9.77E-03,1.12E-02
64684,9.67E-03,1.11E-02
64685,9.57E-03,1.10E-02
64686,9.48E-03,1.10E-02
64687,9.41E-03,1.09E-02
64688,9.34E-03,1.08E-02
64689,9.28E-03,1.07E-02
64690,9.22E-03,1.07E-02
64691,9.16E-03,1.06E-02
64692,9.10E-03,1.05E-02
64693,9.05E-03,1.05E-02
64694,9.00E-03,1.04E-02
64695,8.96E-03,1.04E-02
64696,8.92E-03,1.03E-02
64697,8.88E-03,1.03E-02
64698,8.83E-03,1.02E-02
64699,8.77E-03,1.02E-02
64700,8.70E-03,1.02E-02
64701,8.61E-03,1.01E-02
64702,8.54E-03,1.01E-02
64703,8.50E-03,1.01E-02
64704,8.46E-03,1.01E-02
64705,8.43E-03,1.01E-02
64706,8.40E-03,1.01E-02
64707,8.37E-03,1.00E-02
64708,8.35E-03,1.00E-02
64709,8.33E-03,1.00E-02
64710,8.30E-03,1.00E-02
64711,8.27E-03,1.00E-02
64712,8.24E-03,1.00E-02
64713,8.20E-03,1.00E-02
64714,8.17E-03,1.00E-02
64715,8.14E-03,1.01E-02
64716,8.12E-03,1.01E-02
64717,8.12E-03,1.01E-02
64718,8.11E-03,1.01E-02
64719,8.07E-03,1.01E-02
64720,8.02E-03,1.01E-02
64721,7.96E-03,1.02E-02
64722,7.89E-03,1.02E-02
64723,7.82E-03,1.02E-02
64724,7.77E-03,1.02E-02
64725,7.74E-03,1.03E-02
64726,7.70E-03,1.03E-02
64727,7.64E-03,1.03E-02
64728,7.56E-03,1.04E-02
64729,7.44E-03,1.04E-02
64730,7.33E-03,1.05E-02
64731,7.24E-03,1.05E-02
64732,7.16E-03,1.05E-02
64733,7.08E-03,1.06E-02
64734,6.98E-03,1.06E-02
64735,6.85E-03,1.07E-02
64736,6.71E-03,1.07E-02
64737,6.58E-03,1.08E-02
64738,6.50E-03,1.08E-02
64739,6.48E-03,1.09E-02
64740,6.47E-03,1.09E-02
64741,6.47E-03,1.10E-02
64742,6.49E-03,1.10E-02
64743,6.53E-03,1.11E-02
64744,6.56E-03,1.11E-02
64745,6.61E-03,1.12E-02
64746,6.69E-03,1.12E-02
64747,6.77E-03,1.13E-02
64748,6.85E-03,1.14E-02
64749,6.90E-03,1.14E-02
64750,6.95E-03,1.15E-02
64751,6.99E-03,1.16E-02
64752,7.03E-03,1.16E-02
64753,7.08E-03,1.17E-02
64754,7.13E-03,1.18E-02
64755,7.18E-03,1.19E-02
64756,7.20E-03,1.19E-02
64757,7.18E-03,1.20E-02
64758,7.16E-03,1.21E-02
64759,7.15E-03,1.22E-02
64760,7.29E-03,1.23E-02
64761,7.49E-03,1.24E-02
64762,7.64E-03,1.25E-02
64763,7.81E-03,1.26E-02
64764,7.99E-03,1.27E-02
64765,8.05E-03,1.28E-02
64766,8.17E-03,1.29E-02
64767,8.28E-03,1.30E-02
64768,8.38E-03,1.32E-02
64769,8.41E-03,1.33E-02
64770,8.42E-03,1.34E-02
64771,8.09E-03,1.36E-02
64772,7.30E-03,1.37E-02
64773,7.18E-03,1.39E-02
64774,8.10E-03,1.30E-02
64775,8.10E-03,1.32E-02
64776,8.09E-03,1.18E-02
64777,8.09E-03,1.17E-02
64778,8.09E-03,1.15E-02
64779,8.09E-03,1.14E-02
64780,8.09E-03,1.12E-02
64781,8.09E-03,1.11E-02
64782,8.09E-03,1.09E-02
64783,8.09E-03,1.08E-02
64784,8.09E-03,1.06E-02
64785,8.09E-03,1.04E-02
64786,8.09E-03,1.03E-02
64787,8.09E-03,1.01E-02
64788,8.09E-03,9.92E-03
64789,8.09E-03,9.75E-03
64790,8.09E-03,9.58E-03
64791,8.09E-03,9.40E-03
64792,8.09E-03,9.23E-03
64793,8.09E-03,9.05E-03
64794,8.09E-03,8.87E-03
64795,8.09E-03,8.69E-03
64796,8.09E-03,8.51E-03
64797,8.09E-03,8.33E-03
64798,8.09E-03,8.14E-03
64799,8.09E-03,7.96E-03
64800,8.09E-03,7.78E-03
64801,8.09E-03,7.60E-03
64802,8.09E-03,7.41E-03
64803,8.09E-03,7.23E-03
64804,8.09E-03,7.05E-03
64805,8.09E-03,6.87E-03
64806,8.09E-03,6.69E-03
64807,8.09E-03,6.52E-03
64808,8.09E-03,6.34E-03
64809,8.09E-03,6.17E-03
64810,8.09E-03,6.00E-03
64811,8.09E-03,5.84E-03
64812,8.09E-03,5.68E-03
64813,8.09E-03,5.52E-03
64814,8.09E-03,5.37E-03
64815,8.09E-03,5.23E-03
64816,8.09E-03,5.09E-03
64817,8.09E-03,4.96E-03
64818,8.09E-03,4.83E-03
64819,8.09E-03,4.72E-03
64820,8.09E-03,4.62E-03
64821,8.09E-03,4.52E-03
64822,8.09E-03,4.44E-03
64823,8.09E-03,4.37E-03
64824,8.09E-03,4.31E-03
64825,8.09E-03,4.27E-03
64826,8.09E-03,4.24E-03
64827,8.09E-03,4.22E-03
64828,8.09E-03,4.22E-03
64829,8.09E-03,4.24E-03
64830,8.09E-03,4.27E-03
64831,8.09E-03,4.31E-03
64832,8.09E-03,4.37E-03
64833,8.09E-03,4.44E-03
64834,8.09E-03,4.53E-03
64835,8.09E-03,4.62E-03
64836,8.09E-03,4.73E-03
64837,8.09E-03,4.85E-03
64838,8.09E-03,4.98E-03
64839,8.09E-03,5.12E-03
64840,8.09E-03,5.27E-03
64841,8.09E-03,5.42E-03
64842,8.09E-03,5.58E-03
64843,8.09E-03,5.75E-03
64844,8.09E-03,5.92E-03
64845,8.09E-03,6.10E-03
64846,8.09E-03,6.29E-03
64847,8.09E-03,6.47E-03
64848,8.09E-03,6.67E-03
64849,8.09E-03,6.86E-03
64850,8.09E-03,7.06E-03
64851,8.09E-03,7.26E-03
64852,8.09E-03,7.46E-03
64853,8.09E-03,7.67E-03
64854,8.09E-03,7.88E-03
64855,8.09E-03,8.09E-03
64856,8.09E-03,8.30E-03
64857,8.09E-03,8.51E-03
64858,8.09E-03,8.72E-03
64859,8.09E-03,8.93E-03
64860,8.09E-03,9.15E-03
64861,8.09E-03,9.36E-03
64862,8.09E-03,9.58E-03
64863,8.09E-03,9.79E-03
64864,8.09E-03,1.00E-02
64865,8.09E-03,1.02E-02
64866,8.09E-03,1.04E-02
64867,8.09E-03,1.06E-02
64868,8.09E-03,1.09E-02
64869,8.09E-03,1.11E-02
64870,8.09E-03,1.13E-02
64871,8.09E-03,1.15E-02
64872,8.09E-03,1.17E-02
64873,8.09E-03,1.19E-02
64874,8.09E-03,1.21E-02
64875,8.09E-03,1.23E-02
64876,8.09E-03,1.26E-02
64877,8.09E-03,1.28E-02
64878,8.09E-03,1.30E-02
64879,8.09E-03,1.32E-02
64880,8.09E-03,1.34E-02
64881,8.09E-03,1.36E-02
64882,8.09E-03,1.38E-02
64883,8.03E-03,1.40E-02
64884,8.00E-03,1.42E-02
64885,8.05E-03,1.44E-02
64886,8.17E-03,1.46E-02
64887,8.21E-03,1.49E-02
64888,8.17E-03,1.51E-02
64889,8.06E-03,1.53E-02
64890,7.70E-03,1.55E-02
64891,7.23E-03,1.57E-02
64892,7.20E-03,1.59E-02
64893,8.25E-03,1.61E-02
64894,8.70E-03,1.64E-02
64895,5.64E-03,1.66E-02
64896,8.10E-03,1.20E-02
64897,8.10E-03,1.28E-02
64898,9.77E-03,1.26E-02
64899,8.10E-03,1.29E-02
64900,8.10E-03,1.32E-02
64901,8.10E-03,1.29E-02
64902,8.10E-03,1.27E-02
64903,8.10E-03,1.31E-02
64904,8.10E-03,1.30E-02
64905,8.10E-03,1.25E-02
64906,8.10E-03,1.22E-02
64907,8.10E-03,1.24E-02
64908,8.79E-03,9.22E-03
64909,6.94E-03,9.95E-03
64910,9.35E-03,5.08E-02
64911,8.03E-03,2.08E-02
64912,7.06E-03,2.16E-02
64913,7.05E-03,1.05E-02
64914,7.34E-03,2.23E-02
64915,8.10E-03,1.32E-02
64916,8.10E-03,1.33E-02
64917,7.87E-03,3.06E-02
64918,8.17E-03,2.96E-02
64919,8.73E-03,2.85E-02
64920,8.81E-03,2.74E-02
64921,8.90E-03,2.63E-02
64922,8.09E-03,2.53E-02
64923,7.73E-03,2.45E-02
64924,7.61E-03,2.37E-02
64925,7.48E-03,2.30E-02
64926,9.23E-03,2.00E-02
64927,8.86E-03,1.93E-02
64928,8.67E-03,1.87E-02
64929,8.52E-03,1.80E-02
64930,8.43E-03,1.74E-02
64931,8.29E-03,1.68E-02
64932,8.08E-03,1.62E-02
64933,8.00E-03,1.55E-02
64934,8.00E-03,1.49E-02
64935,8.00E-03,1.43E-02
64936,8.00E-03,1.36E-02
64937,8.00E-03,1.30E-02
64938,7.90E-03,1.24E-02
64939,7.84E-03,1.19E-02
64940,7.71E-03,1.14E-02
64941,7.46E-03,1.09E-02
64942,8.72E-03,8.73E-03
64943,8.73E-03,8.23E-03
64944,8.61E-03,7.74E-03
64945,8.27E-03,7.27E-03
64946,8.10E-03,6.84E-03
64947,7.35E-03,6.44E-03
64948,7.02E-03,6.09E-03
64949,7.09E-03,5.74E-03
64950,6.34E-03,5.35E-03
64951,7.83E-03,3.62E-02
64952,7.83E-03,3.68E-02
64953,8.06E-03,3.75E-02
64954,8.08E-03,3.81E-02
64955,5.56E-03,3.86E-02
64956,7.80E-03,3.92E-02
64957,8.93E-03,4.10E-03
64958,8.97E-03,3.81E-03
64959,8.66E-03,3.53E-03
64960,8.39E-03,3.27E-03
64961,8.19E-03,3.01E-03
64962,7.80E-03,2.56E-03
64963,7.89E-03,2.76E-03
64964,8.60E-03,4.27E-02
64965,8.80E-03,4.37E-02
64966,8.91E-03,4.48E-02
64967,1.03E-02,4.58E-02
64968,9.76E-03,1.70E-02
64969,9.32E-03,1.69E-02
64970,9.19E-03,1.66E-02
64971,8.97E-03,1.64E-02
64972,8.68E-03,1.63E-02
64973,8.38E-03,1.61E-02
64974,7.59E-03,1.60E-02
64975,7.38E-03,1.59E-02
64976,7.27E-03,1.58E-02
64977,7.13E-03,1.57E-02
64978,6.95E-03,1.57E-02
64979,6.88E-03,1.57E-02
64980,6.94E-03,1.57E-02
64981,7.07E-03,1.58E-02
64982,7.17E-03,1.59E-02
64983,7.23E-03,1.61E-02
64984,7.27E-03,1.63E-02
64985,7.33E-03,1.66E-02
64986,7.37E-03,1.70E-02
64987,7.39E-03,1.74E-02
64988,7.39E-03,1.78E-02
64989,7.38E-03,1.83E-02
64990,7.37E-03,1.89E-02
64991,7.36E-03,1.96E-02
64992,7.35E-03,2.03E-02
64993,7.33E-03,2.10E-02
64994,7.28E-03,2.18E-02
64995,7.20E-03,2.26E-02
64996,7.10E-03,2.34E-02
64997,6.99E-03,2.43E-02
64998,6.82E-03,2.51E-02
64999,6.63E-03,2.60E-02
65000,6.46E-03,2.68E-02
65001,6.36E-03,2.77E-02
65002,6.30E-03,2.85E-02
65003,6.26E-03,2.94E-02
65004,6.23E-03,3.02E-02
65005,6.22E-03,3.11E-02
65006,6.21E-03,3.19E-02
65007,6.25E-03,3.27E-02
65008,6.39E-03,3.36E-02
65009,6.57E-03,3.44E-02
65010,6.74E-03,3.53E-02
65011,6.88E-03,3.61E-02
65012,7.00E-03,3.70E-02
65013,7.12E-03,3.78E-02
65014,7.21E-03,3.87E-02
65015,7.27E-03,3.95E-02
65016,7.29E-03,4.03E-02
65017,7.31E-03,4.11E-02
65018,7.33E-03,4.19E-02
65019,7.34E-03,4.27E-02
65020,7.35E-03,4.34E-02
65021,7.33E-03,4.41E-02
65022,7.31E-03,4.48E-02
65023,7.29E-03,4.55E-02
65024,7.27E-03,4.62E-02
65025,7.19E-03,4.68E-02
65026,7.01E-03,4.73E-02
65027,6.86E-03,4.79E-02
65028,6.78E-03,4.84E-02
65029,6.71E-03,4.89E-02
65030,6.70E-03,4.94E-02
65031,6.84E-03,4.98E-02
65032,7.03E-03,5.02E-02
65033,7.17E-03,5.06E-02
65034,7.29E-03,5.09E-02
65035,7.42E-03,5.13E-02
65036,7.58E-03,5.15E-02
65037,7.75E-03,5.18E-02
65038,7.86E-03,5.20E-02
65039,7.91E-03,5.22E-02
65040,7.96E-03,5.23E-02
65041,8.01E-03,5.23E-02
65042,8.05E-03,5.23E-02
65043,8.10E-03,5.22E-02
65044,8.18E-03,5.20E-02
65045,8.27E-03,5.17E-02
65046,8.37E-03,5.13E-02
65047,8.32E-03,5.09E-02
65048,7.62E-03,3.36E-02
65049,7.79E-03,2.40E-03
65050,9.62E-03,2.23E-03
65051,7.91E-03,2.28E-03
65052,7.94E-03,2.24E-03
65053,8.03E-03,2.21E-03
65054,8.00E-03,2.18E-03
65055,8.01E-03,2.14E-03
65056,7.46E-03,2.10E-03
65057,7.26E-03,2.05E-03
65058,6.96E-03,2.01E-03
65059,6.39E-03,1.98E-03
65060,5.76E-03,1.94E-03
65061,5.48E-03,1.92E-03
65062,5.46E-03,1.90E-03
65063,5.44E-03,1.89E-03
65064,5.43E-03,1.88E-03
65065,5.46E-03,1.87E-03
65066,5.79E-03,1.87E-03
65067,6.36E-03,1.88E-03
65068,6.77E-03,1.88E-03
65069,7.05E-03,1.89E-03
65070,7.33E-03,1.89E-03
65071,7.69E-03,1.90E-03
65072,7.96E-03,1.91E-03
65073,8.42E-03,1.91E-03
65074,9.01E-03,1.91E-03
65075,9.00E-03,1.91E-03
65076,8.73E-03,1.90E-03
65077,8.50E-03,1.90E-03
65078,8.26E-03,1.89E-03
65079,8.08E-03,1.87E-03
65080,7.86E-03,1.86E-03
65081,7.58E-03,1.85E-03
65082,7.42E-03,1.84E-03
65083,7.38E-03,1.83E-03
65084,7.33E-03,1.82E-03
65085,7.29E-03,1.81E-03
65086,7.23E-03,1.80E-03
65087,7.16E-03,1.79E-03
65088,7.08E-03,1.79E-03
65089,7.01E-03,1.78E-03
65090,6.92E-03,1.78E-03
65091,6.83E-03,1.77E-03
65092,6.73E-03,1.77E-03
65093,6.63E-03,1.77E-03
65094,6.55E-03,1.77E-03
65095,6.49E-03,1.77E-03
65096,6.43E-03,1.77E-03
65097,6.35E-03,1.78E-03
65098,6.23E-03,1.79E-03
65099,6.08E-03,1.80E-03
65100,5.93E-03,1.81E-03
65101,5.85E-03,1.82E-03
65102,5.86E-03,1.83E-03
65103,5.96E-03,1.85E-03
65104,6.12E-03,1.87E-03
65105,6.26E-03,1.89E-03
65106,6.37E-03,1.91E-03
65107,6.49E-03,1.94E-03
65108,6.62E-03,1.96E-03
65109,6.81E-03,1.99E-03
65110,7.05E-03,2.02E-03
65111,7.24E-03,2.05E-03
65112,7.36E-03,2.08E-03
65113,7.46E-03,2.12E-03
65114,7.54E-03,2.15E-03
65115,7.61E-03,2.18E-03
65116,7.68E-03,2.22E-03
65117,7.76E-03,2.25E-03
65118,7.85E-03,2.28E-03
65119,7.92E-03,2.32E-03
65120,7.96E-03,2.35E-03
65121,7.98E-03,2.38E-03
65122,8.00E-03,2.42E-03
65123,8.01E-03,2.45E-03
65124,8.01E-03,2.48E-03
65125,8.01E-03,2.51E-03
65126,8.00E-03,2.54E-03
65127,7.99E-03,2.57E-03
65128,7.98E-03,2.60E-03
65129,7.96E-03,2.63E-03
65130,7.94E-03,2.66E-03
65131,7.92E-03,2.69E-03
65132,7.91E-03,2.72E-03
65133,7.89E-03,2.75E-03
65134,7.88E-03,2.77E-03
65135,7.87E-03,2.80E-03
65136,7.87E-03,2.83E-03
65137,7.86E-03,2.86E-03
65138,7.85E-03,2.88E-03
65139,7.84E-03,2.91E-03
65140,7.83E-03,2.94E-03
65141,7.81E-03,2.96E-03
65142,7.80E-03,2.99E-03
65143,7.78E-03,3.02E-03
65144,7.76E-03,3.04E-03
65145,7.74E-03,3.07E-03
65146,7.72E-03,3.10E-03
65147,7.70E-03,3.13E-03
65148,7.67E-03,3.16E-03
65149,7.65E-03,3.19E-03
65150,7.63E-03,3.22E-03
65151,7.61E-03,3.25E-03
65152,7.58E-03,3.28E-03
65153,7.55E-03,3.31E-03
65154,7.50E-03,3.34E-03
65155,7.45E-03,3.37E-03
65156,7.41E-03,3.41E-03
65157,7.37E-03,3.44E-03
65158,7.34E-03,3.47E-03
65159,7.31E-03,3.51E-03
65160,7.29E-03,3.55E-03
65161,7.27E-03,3.59E-03
65162,7.26E-03,3.62E-03
65163,7.25E-03,3.66E-03
65164,7.24E-03,3.70E-03
65165,7.24E-03,3.75E-03
65166,7.25E-03,3.79E-03
65167,7.26E-03,3.84E-03
65168,7.27E-03,3.88E-03
65169,7.28E-03,3.93E-03
65170,7.29E-03,3.98E-03
65171,7.30E-03,4.03E-03
65172,7.30E-03,4.08E-03
65173,7.30E-03,4.13E-03
65174,7.31E-03,4.19E-03
65175,7.31E-03,4.24E-03
65176,7.31E-03,4.30E-03
65177,7.32E-03,4.36E-03
65178,7.36E-03,4.42E-03
65179,7.42E-03,4.48E-03
65180,7.48E-03,4.55E-03
65181,7.53E-03,4.62E-03
65182,7.59E-03,4.69E-03
65183,7.63E-03,4.76E-03
65184,7.66E-03,4.84E-03
65185,7.70E-03,4.92E-03
65186,7.73E-03,5.00E-03
65187,7.77E-03,5.08E-03
65188,7.82E-03,5.16E-03
65189,7.90E-03,5.25E-03
65190,7.97E-03,5.34E-03
65191,8.02E-03,5.43E-03
65192,8.08E-03,5.52E-03
65193,8.13E-03,5.62E-03
65194,8.33E-03,5.71E-03
65195,8.45E-03,5.81E-03
65196,8.66E-03,5.91E-03
65197,8.77E-03,6.01E-03
65198,8.95E-03,6.11E-03
65199,9.16E-03,6.21E-03
65200,9.38E-03,6.31E-03
65201,9.74E-03,6.41E-03
65202,9.80E-03,6.50E-03
65203,1.00E-02,6.59E-03
65204,1.01E-02,6.68E-03
65205,8.79E-03,6.75E-03
65206,7.78E-03,6.80E-03
65207,7.43E-03,6.85E-03
65208,7.01E-03,6.90E-03
65209,6.51E-03,6.94E-03
65210,6.04E-03,6.99E-03
65211,5.64E-03,7.04E-03
65212,5.37E-03,7.10E-03
65213,4.58E-03,7.16E-03
65214,4.17E-03,7.21E-03
65215,4.86E-03,7.26E-03
65216,5.26E-03,7.33E-03
65217,5.46E-03,7.41E-03
65218,5.74E-03,7.49E-03
65219,6.37E-03,7.57E-03
65220,6.64E-03,7.67E-03
65221,6.95E-03,7.77E-03
65222,7.28E-03,7.89E-03
65223,7.45E-03,8.02E-03
65224,7.63E-03,8.15E-03
65225,7.88E-03,8.30E-03
65226,8.12E-03,8.45E-03
65227,8.40E-03,8.61E-03
65228,8.90E-03,8.77E-03
65229,8.98E-03,8.95E-03
65230,9.04E-03,9.13E-03
65231,9.12E-03,9.31E-03
65232,9.17E-03,9.49E-03
65233,9.21E-03,9.67E-03
65234,9.26E-03,9.85E-03
65235,9.32E-03,1.00E-02
65236,9.38E-03,1.02E-02
65237,9.42E-03,1.04E-02
65238,9.45E-03,1.06E-02
65239,9.47E-03,1.07E-02
65240,9.49E-03,1.09E-02
65241,9.39E-03,1.11E-02
65242,9.02E-03,1.12E-02
65243,8.55E-03,1.14E-02
65244,8.23E-03,1.16E-02
65245,8.00E-03,1.17E-02
65246,7.66E-03,1.18E-02
65247,7.42E-03,1.20E-02
65248,7.42E-03,1.21E-02
65249,7.44E-03,1.23E-02
65250,7.42E-03,1.24E-02
65251,7.41E-03,1.25E-02
65252,7.42E-03,1.27E-02
65253,7.45E-03,1.28E-02
65254,7.49E-03,1.30E-02
65255,7.53E-03,1.31E-02
65256,7.56E-03,1.33E-02
65257,7.60E-03,1.34E-02
65258,7.62E-03,1.36E-02
65259,7.63E-03,1.38E-02
65260,7.65E-03,1.40E-02
65261,7.66E-03,1.41E-02
65262,7.67E-03,1.43E-02
65263,7.68E-03,1.45E-02
65264,7.69E-03,1.47E-02
65265,7.69E-03,1.49E-02
65266,7.68E-03,1.51E-02
65267,7.68E-03,1.53E-02
65268,7.67E-03,1.55E-02
65269,7.67E-03,1.57E-02
65270,7.66E-03,1.59E-02
65271,7.65E-03,1.61E-02
65272,7.64E-03,1.63E-02
65273,7.62E-03,1.66E-02
65274,7.60E-03,1.68E-02
65275,7.59E-03,1.70E-02
65276,7.57E-03,1.73E-02
65277,7.56E-03,1.75E-02
65278,7.55E-03,1.77E-02
65279,7.54E-03,1.80E-02
65280,7.54E-03,1.82E-02
65281,7.55E-03,1.84E-02
65282,7.58E-03,1.86E-02
65283,7.60E-03,1.88E-02
65284,7.62E-03,1.90E-02
65285,7.63E-03,1.92E-02
65286,7.64E-03,1.93E-02
65287,7.65E-03,1.95E-02
65288,7.68E-03,1.96E-02
65289,7.70E-03,1.97E-02
65290,7.73E-03,1.98E-02
65291,7.77E-03,1.98E-02
65292,7.83E-03,1.99E-02
65293,7.88E-03,1.99E-02
65294,7.91E-03,1.99E-02
65295,7.94E-03,1.99E-02
65296,7.98E-03,1.99E-02
65297,8.01E-03,1.99E-02
65298,8.05E-03,2.00E-02
65299,8.06E-03,2.00E-02
65300,8.05E-03,2.00E-02
65301,8.05E-03,2.01E-02
65302,8.10E-03,2.01E-02
65303,8.19E-03,2.02E-02
65304,8.28E-03,2.03E-02
65305,8.35E-03,2.04E-02
65306,8.39E-03,2.05E-02
65307,8.39E-03,2.06E-02
65308,8.38E-03,2.07E-02
65309,8.40E-03,2.08E-02
65310,8.41E-03,2.08E-02
65311,8.42E-03,2.09E-02
65312,8.43E-03,2.10E-02
65313,8.44E-03,2.10E-02
65314,8.46E-03,2.11E-02
65315,8.46E-03,2.11E-02
65316,8.46E-03,2.12E-02
65317,8.44E-03,2.12E-02
65318,8.41E-03,2.12E-02
65319,8.38E-03,2.13E-02
65320,8.35E-03,2.13E-02
65321,8.32E-03,2.13E-02
65322,8.31E-03,2.13E-02
65323,8.29E-03,2.14E-02
65324,8.28E-03,2.14E-02
65325,8.27E-03,2.15E-02
65326,8.26E-03,2.15E-02
65327,8.25E-03,2.16E-02
65328,8.24E-03,2.17E-02
65329,8.22E-03,2.17E-02
65330,8.21E-03,2.18E-02
65331,8.18E-03,2.19E-02
65332,8.16E-03,2.19E-02
65333,8.14E-03,2.20E-02
65334,8.13E-03,2.21E-02
65335,8.12E-03,2.21E-02
65336,8.11E-03,2.22E-02
65337,8.10E-03,2.22E-02
65338,8.09E-03,2.23E-02
65339,8.08E-03,2.23E-02
65340,8.07E-03,2.23E-02
65341,8.06E-03,2.24E-02
65342,8.07E-03,2.24E-02
65343,8.07E-03,2.24E-02
65344,8.08E-03,2.24E-02
65345,8.09E-03,2.24E-02
65346,8.10E-03,2.24E-02
65347,8.10E-03,2.24E-02
65348,8.11E-03,2.23E-02
65349,8.12E-03,2.23E-02
65350,8.12E-03,2.23E-02
65351,8.12E-03,2.23E-02
65352,8.12E-03,2.22E-02
65353,8.12E-03,2.22E-02
65354,8.13E-03,2.22E-02
65355,8.15E-03,2.22E-02
65356,8.17E-03,2.21E-02
65357,8.20E-03,2.21E-02
65358,8.24E-03,2.21E-02
65359,8.28E-03,2.21E-02
65360,8.29E-03,2.21E-02
65361,8.29E-03,2.21E-02
65362,8.29E-03,2.21E-02
65363,8.30E-03,2.21E-02
65364,8.33E-03,2.21E-02
65365,8.36E-03,2.21E-02
65366,8.40E-03,2.21E-02
65367,8.45E-03,2.22E-02
65368,8.50E-03,2.22E-02
65369,8.56E-03,2.22E-02
65370,8.66E-03,2.23E-02
65371,8.81E-03,2.24E-02
65372,8.96E-03,2.24E-02
65373,9.10E-03,2.25E-02
65374,9.24E-03,2.26E-02
65375,9.39E-03,2.27E-02
65376,9.76E-03,2.27E-02
65377,9.75E-03,2.28E-02
65378,1.03E-02,2.29E-02
65379,1.04E-02,2.30E-02
65380,1.04E-02,2.31E-02
65381,1.05E-02,2.32E-02
65382,1.06E-02,2.33E-02
65383,1.06E-02,2.33E-02
65384,6.56E-03,2.34E-02
65385,6.52E-03,2.35E-02
65386,6.23E-03,2.35E-02
65387,5.90E-03,2.35E-02
65388,5.65E-03,2.36E-02
65389,5.02E-03,2.36E-02
65390,5.12E-03,2.35E-02
65391,5.09E-03,2.36E-02
65392,9.17E-03,5.14E-02
65393,8.09E-03,1.25E-02
65394,8.09E-03,1.23E-02
65395,8.09E-03,1.22E-02
65396,8.09E-03,1.20E-02
65397,8.09E-03,1.19E-02
65398,8.09E-03,1.17E-02
65399,8.09E-03,1.15E-02
65400,8.09E-03,1.13E-02
65401,8.09E-03,1.12E-02
65402,8.09E-03,1.10E-02
65403,8.09E-03,1.08E-02
65404,8.09E-03,1.06E-02
65405,8.09E-03,1.04E-02
65406,8.09E-03,1.02E-02
65407,8.09E-03,1.01E-02
65408,8.09E-03,9.86E-03
65409,8.09E-03,9.67E-03
65410,8.09E-03,9.47E-03
65411,8.09E-03,9.27E-03
65412,8.09E-03,9.07E-03
65413,8.09E-03,8.87E-03
65414,8.09E-03,8.67E-03
65415,8.09E-03,8.47E-03
65416,8.09E-03,8.27E-03
65417,8.09E-03,8.07E-03
65418,8.09E-03,7.87E-03
65419,8.09E-03,7.67E-03
65420,8.09E-03,7.47E-03
65421,8.09E-03,7.27E-03
65422,8.09E-03,7.07E-03
65423,8.09E-03,6.87E-03
65424,8.09E-03,6.67E-03
65425,8.09E-03,6.47E-03
65426,8.09E-03,6.28E-03
65427,8.09E-03,6.09E-03
65428,8.09E-03,5.90E-03
65429,8.09E-03,5.72E-03
65430,8.09E-03,5.54E-03
65431,8.09E-03,5.37E-03
65432,8.09E-03,5.20E-03
65433,8.09E-03,5.03E-03
65434,8.09E-03,4.88E-03
65435,8.09E-03,4.73E-03
65436,8.09E-03,4.58E-03
65437,8.09E-03,4.45E-03
65438,8.09E-03,4.33E-03
65439,8.09E-03,4.22E-03
65440,8.09E-03,4.12E-03
65441,8.09E-03,4.04E-03
65442,8.09E-03,3.96E-03
65443,8.09E-03,3.91E-03
65444,8.09E-03,3.86E-03
65445,8.09E-03,3.84E-03
65446,8.09E-03,3.83E-03
65447,8.09E-03,3.83E-03
65448,8.09E-03,3.85E-03
65449,8.09E-03,3.89E-03
65450,8.09E-03,3.94E-03
65451,8.09E-03,4.00E-03
65452,8.09E-03,4.08E-03
65453,8.09E-03,4.17E-03
65454,8.09E-03,4.27E-03
65455,8.09E-03,4.38E-03
65456,8.09E-03,4.50E-03
65457,8.09E-03,4.63E-03
65458,8.09E-03,4.77E-03
65459,8.09E-03,4.91E-03
65460,8.09E-03,5.07E-03
65461,8.09E-03,5.22E-03
65462,8.09E-03,5.38E-03
65463,8.09E-03,5.54E-03
65464,8.09E-03,5.71E-03
65465,8.09E-03,5.88E-03
65466,8.09E-03,6.06E-03
65467,8.09E-03,6.23E-03
65468,8.09E-03,6.41E-03
65469,8.09E-03,6.59E-03
65470,8.09E-03,6.77E-03
65471,8.09E-03,6.95E-03
65472,8.09E-03,7.13E-03
65473,8.09E-03,7.31E-03
65474,8.09E-03,7.49E-03
65475,8.09E-03,7.68E-03
65476,8.09E-03,7.86E-03
65477,8.09E-03,8.04E-03
65478,8.09E-03,8.22E-03
65479,8.09E-03,8.41E-03
65480,8.09E-03,8.59E-03
65481,8.09E-03,8.77E-03
65482,8.09E-03,8.95E-03
65483,8.09E-03,9.13E-03
65484,8.09E-03,9.31E-03
65485,8.09E-03,9.49E-03
65486,8.09E-03,9.67E-03
65487,8.09E-03,9.84E-03
65488,8.09E-03,1.00E-02
65489,8.09E-03,1.02E-02
65490,8.09E-03,1.04E-02
65491,8.09E-03,1.05E-02
65492,8.09E-03,1.07E-02
65493,8.09E-03,1.09E-02
65494,8.09E-03,1.11E-02
65495,8.09E-03,1.12E-02
65496,8.09E-03,1.14E-02
65497,8.09E-03,1.16E-02
65498,8.09E-03,1.17E-02
65499,8.09E-03,1.19E-02
65500,8.09E-03,1.21E-02
65501,8.09E-03,1.22E-02
65502,8.09E-03,1.24E-02
65503,8.09E-03,1.26E-02
65504,8.15E-03,1.27E-02
65505,8.23E-03,1.29E-02
65506,8.34E-03,1.31E-02
65507,8.41E-03,1.32E-02
65508,8.40E-03,1.34E-02
65509,8.46E-03,1.35E-02
65510,8.05E-03,1.36E-02
65511,7.44E-03,1.38E-02
65512,7.14E-03,1.40E-02
65513,7.03E-03,1.41E-02
65514,8.10E-03,1.31E-02
65515,8.10E-03,1.32E-02
65516,7.34E-03,2.15E-02
65517,7.35E-03,2.23E-02
65518,8.81E-03,2.05E-02
65519,8.28E-03,9.40E-03
65520,7.33E-03,1.01E-02
65521,9.18E-03,8.97E-03
65522,4.99E-03,4.43E-03
65523,5.57E-03,4.69E-03
65524,7.62E-03,3.49E-02
65525,7.33E-03,3.59E-02
65526,8.78E-03,4.14E-03
65527,7.46E-03,4.08E-02
65528,7.87E-03,4.18E-02
65529,8.06E-03,4.29E-02
65530,5.80E-03,1.67E-02
65531,6.14E-03,1.68E-02
65532,7.39E-03,1.67E-02
65533,6.44E-03,1.68E-02
65534,6.75E-03,1.67E-02
65535,6.78E-03,1.67E-02
65536,6.92E-03,1.67E-02
65537,7.17E-03,1.67E-02
65538,7.31E-03,1.67E-02
65539,7.39E-03,1.67E-02
65540,7.52E-03,1.67E-02
65541,7.55E-03,1.67E-02
65542,7.59E-03,1.67E-02
65543,7.66E-03,1.67E-02
65544,7.70E-03,1.67E-02
65545,7.93E-03,1.67E-02
65546,8.14E-03,1.67E-02
65547,8.22E-03,1.67E-02
65548,8.36E-03,1.67E-02
65549,8.50E-03,1.67E-02
65550,8.78E-03,1.67E-02
65551,8.86E-03,1.67E-02
65552,9.08E-03,1.67E-02
65553,9.50E-03,1.67E-02
65554,9.92E-03,1.66E-02
65555,9.86E-03,1.66E-02
65556,1.03E-02,1.66E-02
65557,1.02E-02,1.66E-02
65558,1.02E-02,1.66E-02
65559,9.84E-03,1.67E-02
65560,9.75E-03,1.67E-02
65561,9.68E-03,1.67E-02
65562,9.08E-03,1.67E-02
65563,8.91E-03,1.67E-02
65564,8.71E-03,1.67E-02
65565,8.55E-03,1.67E-02
65566,8.29E-03,1.68E-02
65567,8.12E-03,1.68E-02
65568,7.92E-03,1.68E-02
65569,7.79E-03,1.68E-02
65570,7.72E-03,1.68E-02
65571,7.67E-03,1.68E-02
65572,7.66E-03,1.68E-02
65573,7.66E-03,1.68E-02
65574,7.66E-03,1.67E-02
65575,7.65E-03,1.67E-02
65576,7.64E-03,1.67E-02
65577,7.63E-03,1.67E-02
65578,7.63E-03,1.67E-02
65579,7.65E-03,1.66E-02
65580,7.63E-03,1.66E-02
65581,7.65E-03,1.66E-02
65582,7.80E-03,1.66E-02
65583,8.00E-03,1.65E-02
65584,8.10E-03,1.65E-02
65585,8.10E-03,1.65E-02
65586,8.15E-03,1.64E-02
65587,8.25E-03,1.64E-02
65588,8.33E-03,1.64E-02
65589,8.39E-03,1.63E-02
65590,8.53E-03,1.63E-02
65591,8.79E-03,1.63E-02
65592,8.83E-03,1.62E-02
65593,8.99E-03,1.62E-02
65594,9.09E-03,1.62E-02
65595,9.90E-03,1.61E-02
65596,9.96E-03,1.61E-02
65597,1.02E-02,1.61E-02
65598,1.03E-02,1.61E-02
65599,1.10E-02,1.61E-02
65600,1.05E-02,1.62E-02
65601,9.25E-03,1.62E-02
65602,9.08E-03,1.63E-02
65603,6.66E-03,1.63E-02
65604,5.90E-03,1.64E-02
65605,5.58E-03,1.64E-02
65606,5.63E-03,1.64E-02
65607,5.89E-03,1.64E-02
65608,6.21E-03,1.64E-02
65609,6.48E-03,1.64E-02
65610,6.67E-03,1.64E-02
65611,6.85E-03,1.64E-02
65612,7.03E-03,1.63E-02
65613,7.21E-03,1.63E-02
65614,7.36E-03,1.62E-02
65615,7.47E-03,1.62E-02
65616,7.56E-03,1.61E-02
65617,7.64E-03,1.60E-02
65618,7.70E-03,1.59E-02
65619,7.73E-03,1.59E-02
65620,7.76E-03,1.58E-02
65621,7.80E-03,1.57E-02
65622,7.83E-03,1.56E-02
65623,7.86E-03,1.55E-02
65624,7.89E-03,1.53E-02
65625,7.92E-03,1.52E-02
65626,7.93E-03,1.51E-02
65627,7.94E-03,1.50E-02
65628,7.95E-03,1.49E-02
65629,7.95E-03,1.47E-02
65630,7.96E-03,1.46E-02
65631,7.97E-03,1.44E-02
65632,7.98E-03,1.43E-02
65633,7.98E-03,1.41E-02
65634,7.99E-03,1.39E-02
65635,8.00E-03,1.37E-02
65636,8.00E-03,1.35E-02
65637,8.01E-03,1.33E-02
65638,8.01E-03,1.31E-02
65639,8.02E-03,1.29E-02
65640,8.02E-03,1.26E-02
65641,8.03E-03,1.24E-02
65642,8.03E-03,1.22E-02
65643,8.03E-03,1.19E-02
65644,8.04E-03,1.17E-02
65645,8.04E-03,1.15E-02
65646,8.05E-03,1.13E-02
65647,8.05E-03,1.11E-02
65648,8.05E-03,1.09E-02
65649,8.05E-03,1.07E-02
65650,8.05E-03,1.05E-02
65651,8.05E-03,1.04E-02
65652,8.05E-03,1.03E-02
65653,8.05E-03,1.02E-02
65654,8.05E-03,1.01E-02
65655,8.05E-03,1.00E-02
65656,8.05E-03,9.97E-03
65657,8.05E-03,9.93E-03
65658,8.04E-03,9.91E-03
65659,8.04E-03,9.91E-03
65660,8.03E-03,9.92E-03
65661,8.03E-03,9.95E-03
65662,8.02E-03,9.99E-03
65663,8.02E-03,1.00E-02
65664,8.01E-03,1.01E-02
65665,8.01E-03,1.02E-02
65666,8.00E-03,1.03E-02
65667,7.99E-03,1.04E-02
65668,7.98E-03,1.05E-02
65669,7.97E-03,1.06E-02
65670,7.96E-03,1.07E-02
65671,7.94E-03,1.08E-02
65672,7.93E-03,1.09E-02
65673,7.92E-03,1.11E-02
65674,7.91E-03,1.12E-02
65675,7.89E-03,1.14E-02
65676,7.88E-03,1.15E-02
65677,7.87E-03,1.16E-02
65678,7.87E-03,1.18E-02
65679,7.86E-03,1.19E-02
65680,7.85E-03,1.21E-02
65681,7.84E-03,1.22E-02
65682,7.83E-03,1.24E-02
65683,7.82E-03,1.25E-02
65684,7.80E-03,1.26E-02
65685,7.79E-03,1.28E-02
65686,7.78E-03,1.29E-02
65687,7.76E-03,1.31E-02
65688,7.74E-03,1.32E-02
65689,7.71E-03,1.33E-02
65690,7.69E-03,1.35E-02
65691,7.66E-03,1.36E-02
65692,7.64E-03,1.37E-02
65693,7.63E-03,1.38E-02
65694,7.62E-03,1.40E-02
65695,7.62E-03,1.41E-02
65696,7.62E-03,1.42E-02
65697,7.63E-03,1.43E-02
65698,7.64E-03,1.45E-02
65699,7.65E-03,1.46E-02
65700,7.66E-03,1.47E-02
65701,7.66E-03,1.48E-02
65702,7.67E-03,1.49E-02
65703,7.68E-03,1.51E-02
65704,7.68E-03,1.52E-02
65705,7.69E-03,1.53E-02
65706,7.70E-03,1.54E-02
65707,7.70E-03,1.55E-02
65708,7.71E-03,1.56E-02
65709,7.71E-03,1.58E-02
65710,7.72E-03,1.59E-02
65711,7.73E-03,1.60E-02
65712,7.73E-03,1.61E-02
65713,7.74E-03,1.62E-02
65714,7.74E-03,1.64E-02
65715,7.74E-03,1.65E-02
65716,7.74E-03,1.66E-02
65717,7.75E-03,1.67E-02
65718,7.77E-03,1.68E-02
65719,7.80E-03,1.70E-02
65720,7.82E-03,1.71E-02
65721,7.83E-03,1.72E-02
65722,7.79E-03,1.73E-02
65723,7.72E-03,1.75E-02
65724,7.53E-03,1.76E-02
65725,7.47E-03,1.77E-02
65726,7.31E-03,1.78E-02
65727,7.11E-03,1.79E-02
65728,6.86E-03,1.81E-02
65729,6.58E-03,1.82E-02
65730,6.28E-03,1.83E-02
65731,6.03E-03,1.84E-02
65732,5.49E-03,1.85E-02
65733,5.29E-03,1.86E-02
65734,5.21E-03,1.87E-02
65735,4.25E-03,1.88E-02
65736,3.69E-03,1.89E-02
65737,4.26E-03,1.89E-02
65738,4.72E-03,1.90E-02
65739,5.01E-03,1.91E-02
65740,5.12E-03,1.92E-02
65741,5.15E-03,1.93E-02
65742,5.31E-03,1.94E-02
65743,5.43E-03,1.95E-02
65744,5.53E-03,1.96E-02
65745,5.68E-03,1.97E-02
65746,5.73E-03,1.98E-02
65747,5.77E-03,1.98E-02
65748,5.79E-03,1.99E-02
65749,5.78E-03,2.00E-02
65750,5.76E-03,2.01E-02
65751,5.73E-03,2.02E-02
65752,5.73E-03,2.03E-02
65753,5.74E-03,2.04E-02
65754,5.75E-03,2.05E-02
65755,5.77E-03,2.06E-02
65756,5.90E-03,2.06E-02
65757,6.21E-03,2.07E-02
65758,6.53E-03,2.08E-02
65759,6.78E-03,2.09E-02
65760,6.96E-03,2.09E-02
65761,7.11E-03,2.10E-02
65762,7.25E-03,2.11E-02
65763,7.33E-03,2.12E-02
65764,7.33E-03,2.12E-02
65765,7.57E-03,2.13E-02
65766,7.90E-03,2.14E-02
65767,8.03E-03,2.15E-02
65768,8.12E-03,2.16E-02
65769,8.26E-03,2.16E-02
65770,8.44E-03,2.17E-02
65771,8.69E-03,2.18E-02
65772,9.09E-03,2.19E-02
65773,9.53E-03,2.20E-02
65774,9.79E-03,2.22E-02
65775,9.89E-03,2.23E-02
65776,9.97E-03,2.25E-02
65777,9.38E-03,2.26E-02
65778,8.33E-03,2.28E-02
65779,8.12E-03,2.29E-02
65780,8.05E-03,2.31E-02
65781,7.70E-03,2.33E-02
65782,8.09E-03,1.19E-02
65783,8.09E-03,1.17E-02
65784,8.09E-03,1.16E-02
65785,8.09E-03,1.14E-02
65786,8.09E-03,1.13E-02
65787,8.09E-03,1.11E-02
65788,8.09E-03,1.09E-02
65789,8.09E-03,1.08E-02
65790,8.09E-03,1.06E-02
65791,8.09E-03,1.05E-02
65792,8.09E-03,1.03E-02
65793,8.09E-03,1.01E-02
65794,8.09E-03,9.95E-03
65795,8.09E-03,9.78E-03
65796,8.09E-03,9.60E-03
65797,8.09E-03,9.43E-03
65798,8.09E-03,9.25E-03
65799,8.09E-03,9.07E-03
65800,8.09E-03,8.89E-03
65801,8.09E-03,8.71E-03
65802,8.09E-03,8.53E-03
65803,8.09E-03,8.34E-03
65804,8.09E-03,8.16E-03
65805,8.09E-03,7.98E-03
65806,8.09E-03,7.79E-03
65807,8.09E-03,7.61E-03
65808,8.09E-03,7.43E-03
65809,8.09E-03,7.24E-03
65810,8.09E-03,7.06E-03
65811,8.09E-03,6.88E-03
65812,8.09E-03,6.70E-03
65813,8.09E-03,6.53E-03
65814,8.09E-03,6.35E-03
65815,8.09E-03,6.18E-03
65816,8.09E-03,6.01E-03
65817,8.09E-03,5.84E-03
65818,8.09E-03,5.68E-03
65819,8.09E-03,5.52E-03
65820,8.09E-03,5.37E-03
65821,8.09E-03,5.22E-03
65822,8.09E-03,5.08E-03
65823,8.09E-03,4.95E-03
65824,8.09E-03,4.83E-03
65825,8.09E-03,4.71E-03
65826,8.09E-03,4.61E-03
65827,8.09E-03,4.51E-03
65828,8.09E-03,4.43E-03
65829,8.09E-03,4.35E-03
65830,8.09E-03,4.29E-03
65831,8.09E-03,4.25E-03
65832,8.09E-03,4.22E-03
65833,8.09E-03,4.20E-03
65834,8.09E-03,4.20E-03
65835,8.09E-03,4.21E-03
65836,8.09E-03,4.24E-03
65837,8.09E-03,4.28E-03
65838,8.09E-03,4.34E-03
65839,8.09E-03,4.41E-03
65840,8.09E-03,4.49E-03
65841,8.09E-03,4.59E-03
65842,8.09E-03,4.69E-03
65843,8.09E-03,4.81E-03
65844,8.09E-03,4.94E-03
65845,8.09E-03,5.08E-03
65846,8.09E-03,5.22E-03
65847,8.09E-03,5.38E-03
65848,8.09E-03,5.54E-03
65849,8.09E-03,5.70E-03
65850,8.09E-03,5.87E-03
65851,8.09E-03,6.05E-03
65852,8.09E-03,6.23E-03
65853,8.09E-03,6.42E-03
65854,8.09E-03,6.61E-03
65855,8.09E-03,6.80E-03
65856,8.09E-03,7.00E-03
65857,8.09E-03,7.20E-03
65858,8.09E-03,7.40E-03
65859,8.09E-03,7.61E-03
65860,8.09E-03,7.81E-03
65861,8.09E-03,8.02E-03
65862,8.09E-03,8.23E-03
65863,8.09E-03,8.44E-03
65864,8.09E-03,8.65E-03
65865,8.09E-03,8.86E-03
65866,8.09E-03,9.07E-03
65867,8.09E-03,9.28E-03
65868,8.09E-03,9.49E-03
65869,8.09E-03,9.71E-03
65870,8.09E-03,9.92E-03
65871,8.09E-03,1.01E-02
65872,8.09E-03,1.03E-02
65873,8.09E-03,1.06E-02
65874,8.09E-03,1.08E-02
65875,8.09E-03,1.10E-02
65876,8.09E-03,1.12E-02
65877,8.09E-03,1.14E-02
65878,8.09E-03,1.16E-02
65879,8.09E-03,1.18E-02
65880,8.09E-03,1.20E-02
65881,8.09E-03,1.22E-02
65882,8.09E-03,1.24E-02
65883,8.09E-03,1.27E-02
65884,8.09E-03,1.29E-02
65885,8.09E-03,1.31E-02
65886,8.09E-03,1.33E-02
65887,8.09E-03,1.35E-02
65888,8.09E-03,1.37E-02
65889,8.09E-03,1.39E-02
65890,8.09E-03,1.41E-02
65891,8.09E-03,1.43E-02
65892,8.09E-03,1.45E-02
65893,8.14E-03,1.47E-02
65894,8.05E-03,1.49E-02
65895,7.88E-03,1.52E-02
65896,7.71E-03,1.54E-02
65897,7.61E-03,1.56E-02
65898,7.71E-03,1.58E-02
65899,7.84E-03,1.60E-02
65900,7.55E-03,1.62E-02
65901,7.02E-03,1.64E-02
65902,8.25E-03,1.67E-02
65903,8.10E-03,1.26E-02
65904,8.76E-03,1.24E-02
65905,9.54E-03,1.23E-02
65906,9.52E-03,1.22E-02
65907,9.64E-03,1.22E-02
65908,1.00E-02,1.21E-02
65909,1.02E-02,1.20E-02
65910,1.01E-02,1.19E-02
65911,1.01E-02,1.18E-02
65912,9.99E-03,1.17E-02
65913,9.91E-03,1.16E-02
65914,9.84E-03,1.15E-02
65915,9.77E-03,1.14E-02
65916,9.68E-03,1.13E-02
65917,9.59E-03,1.12E-02
65918,9.51E-03,1.11E-02
65919,9.42E-03,1.10E-02
65920,9.34E-03,1.10E-02
65921,9.27E-03,1.09E-02
65922,9.21E-03,1.08E-02
65923,9.15E-03,1.07E-02
65924,9.10E-03,1.07E-02
65925,9.04E-03,1.06E-02
65926,8.99E-03,1.05E-02
65927,8.95E-03,1.05E-02
65928,8.91E-03,1.04E-02
65929,8.87E-03,1.04E-02
65930,8.83E-03,1.03E-02
65931,8.79E-03,1.03E-02
65932,8.75E-03,1.03E-02
65933,8.70E-03,1.02E-02
65934,8.63E-03,1.02E-02
65935,8.56E-03,1.02E-02
65936,8.49E-03,1.02E-02
65937,8.45E-03,1.01E-02
65938,8.42E-03,1.01E-02
65939,8.39E-03,1.01E-02
65940,8.37E-03,1.01E-02
65941,8.34E-03,1.01E-02
65942,8.32E-03,1.01E-02
65943,8.30E-03,1.01E-02
65944,8.28E-03,1.01E-02
65945,8.25E-03,1.01E-02
65946,8.22E-03,1.01E-02
65947,8.19E-03,1.01E-02
65948,8.16E-03,1.01E-02
65949,8.14E-03,1.01E-02
65950,8.12E-03,1.01E-02
65951,8.12E-03,1.01E-02
65952,8.10E-03,1.01E-02
65953,8.07E-03,1.02E-02
65954,8.03E-03,1.02E-02
65955,7.98E-03,1.02E-02
65956,7.91E-03,1.02E-02
65957,7.85E-03,1.02E-02
65958,7.80E-03,1.03E-02
65959,7.78E-03,1.03E-02
65960,7.74E-03,1.03E-02
65961,7.69E-03,1.04E-02
65962,7.61E-03,1.04E-02
65963,7.51E-03,1.04E-02
65964,7.41E-03,1.05E-02
65965,7.33E-03,1.05E-02
65966,7.26E-03,1.06E-02
65967,7.18E-03,1.06E-02
65968,7.10E-03,1.07E-02
65969,6.98E-03,1.07E-02
65970,6.85E-03,1.08E-02
65971,6.74E-03,1.08E-02
65972,6.67E-03,1.09E-02
65973,6.65E-03,1.09E-02
65974,6.64E-03,1.10E-02
65975,6.64E-03,1.10E-02
65976,6.66E-03,1.11E-02
65977,6.69E-03,1.11E-02
65978,6.72E-03,1.12E-02
65979,6.77E-03,1.12E-02
65980,6.84E-03,1.13E-02
65981,6.91E-03,1.14E-02
65982,6.98E-03,1.14E-02
65983,7.03E-03,1.15E-02
65984,7.07E-03,1.16E-02
65985,7.10E-03,1.16E-02
65986,7.14E-03,1.17E-02
65987,7.18E-03,1.18E-02
65988,7.23E-03,1.19E-02
65989,7.27E-03,1.19E-02
65990,7.29E-03,1.20E-02
65991,7.28E-03,1.21E-02
65992,7.26E-03,1.22E-02
65993,7.25E-03,1.23E-02
65994,7.33E-03,1.24E-02
65995,7.52E-03,1.25E-02
65996,7.71E-03,1.26E-02
65997,7.90E-03,1.27E-02
65998,8.01E-03,1.28E-02
65999,8.04E-03,1.29E-02
66000,8.15E-03,1.30E-02
66001,8.23E-03,1.32E-02
66002,8.29E-03,1.33E-02
66003,8.25E-03,1.34E-02
66004,8.13E-03,1.36E-02
66005,7.87E-03,1.37E-02
66006,7.66E-03,1.39E-02
66007,7.52E-03,1.40E-02
66008,7.47E-03,1.42E-02
66009,8.10E-03,1.29E-02
66010,8.10E-03,1.31E-02
66011,7.61E-03,3.20E-02
66012,7.57E-03,3.30E-02
66013,8.90E-03,5.03E-02
66014,7.93E-03,5.19E-02
66015,8.10E-03,1.27E-02
66016,8.26E-03,1.76E-02
66017,8.21E-03,1.79E-02
66018,7.78E-03,1.81E-02
66019,7.21E-03,1.83E-02
66020,6.80E-03,1.84E-02
66021,5.89E-03,1.85E-02
66022,5.30E-03,1.86E-02
66023,5.84E-03,1.87E-02
66024,6.09E-03,1.87E-02
66025,6.23E-03,1.87E-02
66026,6.46E-03,1.87E-02
66027,6.78E-03,1.87E-02
66028,7.08E-03,1.87E-02
66029,7.16E-03,1.86E-02
66030,7.22E-03,1.85E-02
66031,7.24E-03,1.84E-02
66032,7.24E-03,1.83E-02
66033,7.26E-03,1.82E-02
66034,7.25E-03,1.81E-02
66035,7.19E-03,1.79E-02
66036,7.25E-03,1.78E-02
66037,7.50E-03,1.76E-02
66038,7.73E-03,1.74E-02
66039,7.83E-03,1.72E-02
66040,7.96E-03,1.70E-02
66041,8.16E-03,1.68E-02
66042,8.34E-03,1.66E-02
66043,8.51E-03,1.63E-02
66044,8.71E-03,1.61E-02
66045,8.92E-03,1.59E-02
66046,9.07E-03,1.56E-02
66047,9.08E-03,1.54E-02
66048,9.02E-03,1.51E-02
66049,8.95E-03,1.49E-02
66050,8.89E-03,1.47E-02
66051,8.83E-03,1.44E-02
66052,8.79E-03,1.42E-02
66053,8.77E-03,1.40E-02
66054,8.75E-03,1.38E-02
66055,8.73E-03,1.36E-02
66056,8.47E-03,1.34E-02
66057,8.41E-03,1.32E-02
66058,8.27E-03,1.30E-02
66059,9.14E-03,1.28E-02
66060,9.28E-03,1.26E-02
66061,8.19E-03,1.24E-02
66062,8.10E-03,1.27E-02
66063,8.10E-03,1.30E-02
66064,8.10E-03,1.28E-02
66065,8.10E-03,1.26E-02
66066,8.10E-03,1.29E-02
66067,8.10E-03,1.20E-02
66068,8.10E-03,1.22E-02
66069,8.10E-03,1.24E-02
66070,9.71E-03,2.09E-03
66071,4.24E-03,2.38E-02
66072,1.08E-02,1.75E-02
66073,8.10E-03,1.31E-02
66074,8.10E-03,1.32E-02
66075,7.99E-03,3.09E-02
66076,8.26E-03,2.98E-02
66077,8.51E-03,2.87E-02
66078,8.73E-03,2.75E-02
66079,8.77E-03,2.64E-02
66080,8.13E-03,2.53E-02
66081,7.82E-03,2.44E-02
66082,7.64E-03,2.36E-02
66083,7.48E-03,2.29E-02
66084,9.35E-03,1.99E-02
66085,8.86E-03,1.93E-02
66086,8.72E-03,1.87E-02
66087,8.65E-03,1.80E-02
66088,8.51E-03,1.74E-02
66089,8.25E-03,1.67E-02
66090,8.03E-03,1.60E-02
66091,7.99E-03,1.54E-02
66092,7.99E-03,1.47E-02
66093,8.00E-03,1.40E-02
66094,8.00E-03,1.34E-02
66095,7.99E-03,1.27E-02
66096,7.92E-03,1.21E-02
66097,7.70E-03,1.16E-02
66098,7.64E-03,1.11E-02
66099,7.47E-03,1.06E-02
66100,8.55E-03,8.44E-03
66101,8.46E-03,7.95E-03
66102,8.36E-03,7.48E-03
66103,8.09E-03,7.03E-03
66104,7.82E-03,6.60E-03
66105,7.21E-03,6.21E-03
66106,7.03E-03,5.84E-03
66107,6.50E-03,5.49E-03
66108,5.87E-03,5.17E-03
66109,5.55E-03,4.95E-03
66110,7.68E-03,3.67E-02
66111,7.94E-03,3.76E-02
66112,8.13E-03,3.83E-02
66113,8.21E-03,3.90E-02
66114,5.85E-03,3.95E-02
66115,7.52E-03,4.01E-02
66116,8.79E-03,3.82E-03
66117,8.72E-03,3.54E-03
66118,8.69E-03,3.28E-03
66119,8.49E-03,3.01E-03
66120,8.35E-03,2.74E-03
66121,8.55E-03,2.48E-03
66122,8.33E-03,4.40E-02
66123,8.73E-03,4.49E-02
66124,9.19E-03,4.59E-02
66125,1.10E-02,4.71E-02
66126,4.20E-03,2.39E-02
66127,4.96E-03,2.38E-02
66128,5.45E-03,2.38E-02
66129,5.62E-03,2.38E-02
66130,5.98E-03,2.38E-02
66131,6.32E-03,2.38E-02
66132,6.61E-03,2.37E-02
66133,6.80E-03,2.37E-02
66134,9.96E-03,2.36E-02
66135,1.04E-02,2.35E-02
66136,1.04E-02,2.34E-02
66137,1.02E-02,2.34E-02
66138,1.01E-02,2.33E-02
66139,9.89E-03,2.32E-02
66140,9.67E-03,2.31E-02
66141,9.57E-03,2.30E-02
66142,9.24E-03,2.29E-02
66143,9.11E-03,2.28E-02
66144,8.99E-03,2.27E-02
66145,8.86E-03,2.27E-02
66146,8.73E-03,2.26E-02
66147,8.60E-03,2.25E-02
66148,8.50E-03,2.25E-02
66149,8.45E-03,2.24E-02
66150,8.40E-03,2.24E-02
66151,8.37E-03,2.23E-02
66152,8.33E-03,2.23E-02
66153,8.30E-03,2.23E-02
66154,8.28E-03,2.23E-02
66155,8.27E-03,2.23E-02
66156,8.27E-03,2.23E-02
66157,8.27E-03,2.23E-02
66158,8.26E-03,2.23E-02
66159,8.23E-03,2.23E-02
66160,8.19E-03,2.23E-02
66161,8.16E-03,2.24E-02
66162,8.15E-03,2.24E-02
66163,8.13E-03,2.24E-02
66164,8.12E-03,2.24E-02
66165,8.12E-03,2.25E-02
66166,8.12E-03,2.25E-02
66167,8.12E-03,2.25E-02
66168,8.12E-03,2.25E-02
66169,8.11E-03,2.26E-02
66170,8.10E-03,2.26E-02
66171,8.10E-03,2.26E-02
66172,8.09E-03,2.26E-02
66173,8.08E-03,2.26E-02
66174,8.08E-03,2.26E-02
66175,8.07E-03,2.26E-02
66176,8.07E-03,2.26E-02
66177,8.07E-03,2.26E-02
66178,8.08E-03,2.26E-02
66179,8.09E-03,2.25E-02
66180,8.10E-03,2.25E-02
66181,8.11E-03,2.24E-02
66182,8.11E-03,2.24E-02
66183,8.12E-03,2.23E-02
66184,8.13E-03,2.22E-02
66185,8.15E-03,2.22E-02
66186,8.17E-03,2.21E-02
66187,8.19E-03,2.20E-02
66188,8.21E-03,2.19E-02
66189,8.22E-03,2.19E-02
66190,8.23E-03,2.18E-02
66191,8.24E-03,2.18E-02
66192,8.25E-03,2.17E-02
66193,8.26E-03,2.17E-02
66194,8.27E-03,2.16E-02
66195,8.28E-03,2.16E-02
66196,8.30E-03,2.16E-02
66197,8.32E-03,2.15E-02
66198,8.34E-03,2.15E-02
66199,8.37E-03,2.15E-02
66200,8.40E-03,2.15E-02
66201,8.42E-03,2.15E-02
66202,8.42E-03,2.14E-02
66203,8.42E-03,2.14E-02
66204,8.40E-03,2.14E-02
66205,8.39E-03,2.13E-02
66206,8.38E-03,2.13E-02
66207,8.37E-03,2.12E-02
66208,8.36E-03,2.11E-02
66209,8.35E-03,2.10E-02
66210,8.35E-03,2.10E-02
66211,8.36E-03,2.09E-02
66212,8.32E-03,2.08E-02
66213,8.25E-03,2.07E-02
66214,8.18E-03,2.06E-02
66215,8.10E-03,2.05E-02
66216,8.05E-03,2.04E-02
66217,8.05E-03,2.04E-02
66218,8.07E-03,2.03E-02
66219,8.05E-03,2.03E-02
66220,8.02E-03,2.03E-02
66221,7.99E-03,2.03E-02
66222,7.96E-03,2.03E-02
66223,7.93E-03,2.03E-02
66224,7.90E-03,2.02E-02
66225,7.86E-03,2.02E-02
66226,7.81E-03,2.02E-02
66227,7.77E-03,2.01E-02
66228,7.74E-03,2.00E-02
66229,7.72E-03,1.99E-02
66230,7.71E-03,1.97E-02
66231,7.69E-03,1.96E-02
66232,7.68E-03,1.94E-02
66233,7.67E-03,1.92E-02
66234,7.66E-03,1.90E-02
66235,7.64E-03,1.88E-02
66236,7.62E-03,1.86E-02
66237,7.60E-03,1.83E-02
66238,7.60E-03,1.81E-02
66239,7.61E-03,1.78E-02
66240,7.62E-03,1.76E-02
66241,7.64E-03,1.73E-02
66242,7.65E-03,1.71E-02
66243,7.66E-03,1.68E-02
66244,7.68E-03,1.66E-02
66245,7.69E-03,1.64E-02
66246,7.70E-03,1.62E-02
66247,7.71E-03,1.59E-02
66248,7.72E-03,1.57E-02
66249,7.72E-03,1.55E-02
66250,7.73E-03,1.53E-02
66251,7.73E-03,1.51E-02
66252,7.74E-03,1.49E-02
66253,7.74E-03,1.47E-02
66254,7.73E-03,1.45E-02
66255,7.72E-03,1.43E-02
66256,7.71E-03,1.41E-02
66257,7.70E-03,1.39E-02
66258,7.69E-03,1.38E-02
66259,7.67E-03,1.36E-02
66260,7.65E-03,1.34E-02
66261,7.63E-03,1.32E-02
66262,7.59E-03,1.31E-02
66263,7.56E-03,1.29E-02
66264,7.53E-03,1.28E-02
66265,7.50E-03,1.26E-02
66266,7.49E-03,1.25E-02
66267,7.50E-03,1.23E-02
66268,7.52E-03,1.22E-02
66269,7.50E-03,1.21E-02
66270,7.50E-03,1.19E-02
66271,7.71E-03,1.18E-02
66272,8.01E-03,1.16E-02
66273,8.21E-03,1.15E-02
66274,8.49E-03,1.13E-02
66275,8.91E-03,1.12E-02
66276,9.24E-03,1.10E-02
66277,9.32E-03,1.08E-02
66278,9.31E-03,1.07E-02
66279,9.29E-03,1.05E-02
66280,9.26E-03,1.03E-02
66281,9.23E-03,1.02E-02
66282,9.17E-03,9.98E-03
66283,9.12E-03,9.80E-03
66284,9.08E-03,9.62E-03
66285,9.04E-03,9.44E-03
66286,9.00E-03,9.26E-03
66287,8.93E-03,9.08E-03
66288,8.88E-03,8.90E-03
66289,8.80E-03,8.72E-03
66290,8.41E-03,8.55E-03
66291,8.13E-03,8.39E-03
66292,7.90E-03,8.24E-03
66293,7.73E-03,8.10E-03
66294,7.50E-03,7.96E-03
66295,7.33E-03,7.83E-03
66296,7.08E-03,7.71E-03
66297,6.77E-03,7.60E-03
66298,6.39E-03,7.50E-03
66299,6.09E-03,7.41E-03
66300,5.80E-03,7.32E-03
66301,5.57E-03,7.24E-03
66302,5.51E-03,7.16E-03
66303,4.28E-03,7.10E-03
66304,4.77E-03,7.06E-03
66305,5.76E-03,7.00E-03
66306,5.85E-03,6.94E-03
66307,6.28E-03,6.89E-03
66308,6.74E-03,6.84E-03
66309,7.21E-03,6.78E-03
66310,7.64E-03,6.73E-03
66311,8.12E-03,6.67E-03
66312,8.43E-03,6.61E-03
66313,9.76E-03,6.55E-03
66314,9.89E-03,6.46E-03
66315,9.66E-03,6.37E-03
66316,9.42E-03,6.28E-03
66317,9.22E-03,6.18E-03
66318,9.01E-03,6.08E-03
66319,8.83E-03,5.98E-03
66320,8.68E-03,5.88E-03
66321,8.55E-03,5.78E-03
66322,8.44E-03,5.68E-03
66323,8.29E-03,5.58E-03
66324,8.12E-03,5.49E-03
66325,8.08E-03,5.39E-03
66326,8.03E-03,5.30E-03
66327,7.98E-03,5.21E-03
66328,7.92E-03,5.12E-03
66329,7.86E-03,5.03E-03
66330,7.81E-03,4.95E-03
66331,7.78E-03,4.86E-03
66332,7.74E-03,4.79E-03
66333,7.71E-03,4.71E-03
66334,7.68E-03,4.63E-03
66335,7.65E-03,4.56E-03
66336,7.60E-03,4.49E-03
66337,7.55E-03,4.42E-03
66338,7.50E-03,4.36E-03
66339,7.45E-03,4.29E-03
66340,7.41E-03,4.23E-03
66341,7.40E-03,4.17E-03
66342,7.40E-03,4.11E-03
66343,7.40E-03,4.06E-03
66344,7.40E-03,4.00E-03
66345,7.40E-03,3.95E-03
66346,7.39E-03,3.90E-03
66347,7.39E-03,3.85E-03
66348,7.38E-03,3.80E-03
66349,7.37E-03,3.76E-03
66350,7.36E-03,3.71E-03
66351,7.35E-03,3.67E-03
66352,7.34E-03,3.62E-03
66353,7.34E-03,3.58E-03
66354,7.35E-03,3.54E-03
66355,7.36E-03,3.50E-03
66356,7.37E-03,3.46E-03
66357,7.39E-03,3.42E-03
66358,7.41E-03,3.39E-03
66359,7.43E-03,3.35E-03
66360,7.45E-03,3.32E-03
66361,7.49E-03,3.28E-03
66362,7.53E-03,3.25E-03
66363,7.57E-03,3.22E-03
66364,7.61E-03,3.19E-03
66365,7.64E-03,3.15E-03
66366,7.66E-03,3.12E-03
66367,7.68E-03,3.09E-03
66368,7.71E-03,3.06E-03
66369,7.72E-03,3.04E-03
66370,7.74E-03,3.01E-03
66371,7.76E-03,2.98E-03
66372,7.78E-03,2.95E-03
66373,7.80E-03,2.92E-03
66374,7.81E-03,2.90E-03
66375,7.83E-03,2.87E-03
66376,7.85E-03,2.84E-03
66377,7.86E-03,2.82E-03
66378,7.87E-03,2.79E-03
66379,7.88E-03,2.76E-03
66380,7.88E-03,2.74E-03
66381,7.89E-03,2.71E-03
66382,7.90E-03,2.68E-03
66383,7.91E-03,2.66E-03
66384,7.92E-03,2.63E-03
66385,7.93E-03,2.60E-03
66386,7.94E-03,2.57E-03
66387,7.96E-03,2.54E-03
66388,7.98E-03,2.52E-03
66389,7.99E-03,2.49E-03
66390,8.00E-03,2.46E-03
66391,8.01E-03,2.43E-03
66392,8.02E-03,2.40E-03
66393,8.02E-03,2.36E-03
66394,8.02E-03,2.33E-03
66395,8.01E-03,2.30E-03
66396,7.99E-03,2.27E-03
66397,7.98E-03,2.24E-03
66398,7.94E-03,2.20E-03
66399,7.88E-03,2.17E-03
66400,7.80E-03,2.14E-03
66401,7.73E-03,2.10E-03
66402,7.67E-03,2.07E-03
66403,7.61E-03,2.04E-03
66404,7.54E-03,2.01E-03
66405,7.45E-03,1.97E-03
66406,7.34E-03,1.94E-03
66407,7.17E-03,1.91E-03
66408,6.96E-03,1.88E-03
66409,6.79E-03,1.85E-03
66410,6.68E-03,1.83E-03
66411,6.57E-03,1.80E-03
66412,6.48E-03,1.78E-03
66413,6.36E-03,1.75E-03
66414,6.22E-03,1.73E-03
66415,6.13E-03,1.72E-03
66416,6.12E-03,1.70E-03
66417,6.19E-03,1.69E-03
66418,6.31E-03,1.68E-03
66419,6.45E-03,1.67E-03
66420,6.56E-03,1.66E-03
66421,6.63E-03,1.65E-03
66422,6.68E-03,1.65E-03
66423,6.73E-03,1.65E-03
66424,6.80E-03,1.64E-03
66425,6.89E-03,1.64E-03
66426,6.98E-03,1.65E-03
66427,7.06E-03,1.65E-03
66428,7.14E-03,1.65E-03
66429,7.20E-03,1.66E-03
66430,7.27E-03,1.66E-03
66431,7.33E-03,1.67E-03
66432,7.38E-03,1.68E-03
66433,7.42E-03,1.68E-03
66434,7.46E-03,1.69E-03
66435,7.50E-03,1.70E-03
66436,7.64E-03,1.71E-03
66437,7.89E-03,1.72E-03
66438,8.09E-03,1.73E-03
66439,8.24E-03,1.73E-03
66440,8.46E-03,1.74E-03
66441,8.66E-03,1.75E-03
66442,8.90E-03,1.75E-03
66443,8.90E-03,1.75E-03
66444,8.38E-03,1.74E-03
66445,7.98E-03,1.73E-03
66446,7.74E-03,1.73E-03
66447,7.42E-03,1.72E-03
66448,7.17E-03,1.71E-03
66449,6.92E-03,1.70E-03
66450,6.56E-03,1.69E-03
66451,6.07E-03,1.68E-03
66452,5.77E-03,1.68E-03
66453,5.74E-03,1.68E-03
66454,5.75E-03,1.69E-03
66455,5.77E-03,1.70E-03
66456,5.79E-03,1.72E-03
66457,6.03E-03,1.74E-03
66458,6.59E-03,1.76E-03
66459,7.10E-03,1.79E-03
66460,7.36E-03,1.83E-03
66461,7.54E-03,1.86E-03
66462,8.05E-03,1.89E-03
66463,8.12E-03,1.93E-03
66464,8.13E-03,1.96E-03
66465,8.26E-03,1.98E-03
66466,8.55E-03,2.02E-03
66467,7.15E-03,4.29E-02
66468,7.35E-03,4.44E-02
66469,4.71E-03,2.38E-02
66470,3.53E-03,2.37E-02
66471,5.57E-03,2.35E-02
66472,6.94E-03,2.34E-02
66473,8.18E-03,2.33E-02
66474,8.08E-03,2.31E-02
66475,8.24E-03,2.29E-02
66476,9.38E-03,2.28E-02
66477,9.72E-03,2.26E-02
66478,9.68E-03,2.25E-02
66479,9.59E-03,2.23E-02
66480,9.36E-03,2.22E-02
66481,8.97E-03,2.21E-02
66482,8.62E-03,2.20E-02
66483,8.40E-03,2.19E-02
66484,8.24E-03,2.18E-02
66485,8.12E-03,2.17E-02
66486,8.04E-03,2.17E-02
66487,7.92E-03,2.16E-02
66488,7.63E-03,2.15E-02
66489,7.42E-03,2.14E-02
66490,7.42E-03,2.13E-02
66491,7.35E-03,2.13E-02
66492,7.22E-03,2.12E-02
66493,7.10E-03,2.11E-02
66494,6.93E-03,2.10E-02
66495,6.71E-03,2.09E-02
66496,6.43E-03,2.09E-02
66497,6.16E-03,2.08E-02
66498,6.04E-03,2.07E-02
66499,6.03E-03,2.06E-02
66500,6.01E-03,2.05E-02
66501,6.00E-03,2.04E-02
66502,6.01E-03,2.03E-02
66503,6.03E-03,2.03E-02
66504,6.05E-03,2.02E-02
66505,6.06E-03,2.01E-02
66506,6.05E-03,1.99E-02
66507,6.01E-03,1.98E-02
66508,5.97E-03,1.97E-02
66509,5.86E-03,1.96E-02
66510,5.78E-03,1.95E-02
66511,5.68E-03,1.94E-02
66512,5.53E-03,1.93E-02
66513,5.39E-03,1.92E-02
66514,5.30E-03,1.91E-02
66515,4.97E-03,1.91E-02
66516,4.80E-03,1.90E-02
66517,4.17E-03,1.89E-02
66518,4.70E-03,1.88E-02
66519,5.41E-03,1.87E-02
66520,5.56E-03,1.86E-02
66521,5.90E-03,1.85E-02
66522,6.20E-03,1.84E-02
66523,6.50E-03,1.83E-02
66524,6.80E-03,1.82E-02
66525,6.98E-03,1.80E-02
66526,7.20E-03,1.79E-02
66527,7.47E-03,1.78E-02
66528,7.57E-03,1.77E-02
66529,7.66E-03,1.76E-02
66530,7.76E-03,1.74E-02
66531,7.87E-03,1.73E-02
66532,7.86E-03,1.72E-02
66533,7.85E-03,1.71E-02
66534,7.83E-03,1.70E-02
66535,7.81E-03,1.68E-02
66536,7.79E-03,1.67E-02
66537,7.78E-03,1.66E-02
66538,7.78E-03,1.65E-02
66539,7.78E-03,1.64E-02
66540,7.78E-03,1.62E-02
66541,7.78E-03,1.61E-02
66542,7.77E-03,1.60E-02
66543,7.76E-03,1.59E-02
66544,7.76E-03,1.58E-02
66545,7.75E-03,1.57E-02
66546,7.75E-03,1.55E-02
66547,7.74E-03,1.54E-02
66548,7.74E-03,1.53E-02
66549,7.73E-03,1.52E-02
66550,7.73E-03,1.51E-02
66551,7.72E-03,1.50E-02
66552,7.71E-03,1.48E-02
66553,7.71E-03,1.47E-02
66554,7.70E-03,1.46E-02
66555,7.69E-03,1.45E-02
66556,7.69E-03,1.44E-02
66557,7.68E-03,1.43E-02
66558,7.68E-03,1.41E-02
66559,7.68E-03,1.40E-02
66560,7.68E-03,1.39E-02
66561,7.69E-03,1.38E-02
66562,7.71E-03,1.36E-02
66563,7.74E-03,1.35E-02
66564,7.76E-03,1.34E-02
66565,7.78E-03,1.32E-02
66566,7.80E-03,1.31E-02
66567,7.81E-03,1.30E-02
66568,7.83E-03,1.28E-02
66569,7.84E-03,1.27E-02
66570,7.85E-03,1.26E-02
66571,7.86E-03,1.24E-02
66572,7.87E-03,1.23E-02
66573,7.88E-03,1.21E-02
66574,7.88E-03,1.20E-02
66575,7.89E-03,1.18E-02
66576,7.90E-03,1.17E-02
66577,7.91E-03,1.16E-02
66578,7.92E-03,1.14E-02
66579,7.93E-03,1.13E-02
66580,7.94E-03,1.12E-02
66581,7.95E-03,1.10E-02
66582,7.96E-03,1.09E-02
66583,7.97E-03,1.08E-02
66584,7.99E-03,1.07E-02
66585,8.00E-03,1.06E-02
66586,8.01E-03,1.05E-02
66587,8.01E-03,1.04E-02
66588,8.02E-03,1.03E-02
66589,8.02E-03,1.02E-02
66590,8.03E-03,1.02E-02
66591,8.03E-03,1.01E-02
66592,8.04E-03,1.01E-02
66593,8.04E-03,1.01E-02
66594,8.04E-03,1.01E-02
66595,8.05E-03,1.01E-02
66596,8.05E-03,1.01E-02
66597,8.06E-03,1.02E-02
66598,8.06E-03,1.02E-02
66599,8.06E-03,1.03E-02
66600,8.06E-03,1.04E-02
66601,8.06E-03,1.05E-02
66602,8.06E-03,1.07E-02
66603,8.06E-03,1.08E-02
66604,8.06E-03,1.10E-02
66605,8.06E-03,1.12E-02
66606,8.05E-03,1.14E-02
66607,8.05E-03,1.16E-02
66608,8.05E-03,1.18E-02
66609,8.05E-03,1.21E-02
66610,8.04E-03,1.23E-02
66611,8.04E-03,1.25E-02
66612,8.04E-03,1.28E-02
66613,8.03E-03,1.30E-02
66614,8.03E-03,1.33E-02
66615,8.02E-03,1.35E-02
66616,8.02E-03,1.37E-02
66617,8.01E-03,1.39E-02
66618,8.01E-03,1.41E-02
66619,8.00E-03,1.43E-02
66620,8.00E-03,1.45E-02
66621,7.99E-03,1.47E-02
66622,7.98E-03,1.48E-02
66623,7.98E-03,1.50E-02
66624,7.97E-03,1.51E-02
66625,7.96E-03,1.53E-02
66626,7.96E-03,1.54E-02
66627,7.95E-03,1.55E-02
66628,7.94E-03,1.56E-02
66629,7.91E-03,1.57E-02
66630,7.89E-03,1.58E-02
66631,7.86E-03,1.59E-02
66632,7.83E-03,1.60E-02
66633,7.80E-03,1.61E-02
66634,7.78E-03,1.62E-02
66635,7.75E-03,1.63E-02
66636,7.70E-03,1.64E-02
66637,7.62E-03,1.65E-02
66638,7.54E-03,1.66E-02
66639,7.45E-03,1.66E-02
66640,7.31E-03,1.67E-02
66641,7.15E-03,1.67E-02
66642,7.00E-03,1.68E-02
66643,6.84E-03,1.68E-02
66644,6.67E-03,1.68E-02
66645,6.43E-03,1.68E-02
66646,6.15E-03,1.68E-02
66647,5.92E-03,1.68E-02
66648,5.88E-03,1.68E-02
66649,6.15E-03,1.68E-02
66650,7.09E-03,1.67E-02
66651,9.13E-03,1.67E-02
66652,9.31E-03,1.66E-02
66653,9.84E-03,1.66E-02
66654,1.01E-02,1.65E-02
66655,1.02E-02,1.65E-02
66656,1.00E-02,1.65E-02
66657,9.86E-03,1.65E-02
66658,9.70E-03,1.66E-02
66659,9.11E-03,1.66E-02
66660,8.93E-03,1.66E-02
66661,8.74E-03,1.67E-02
66662,8.66E-03,1.67E-02
66663,8.43E-03,1.67E-02
66664,8.36E-03,1.68E-02
66665,8.30E-03,1.68E-02
66666,8.23E-03,1.68E-02
66667,8.14E-03,1.69E-02
66668,8.10E-03,1.69E-02
66669,8.10E-03,1.69E-02
66670,8.01E-03,1.69E-02
66671,7.83E-03,1.70E-02
66672,7.70E-03,1.70E-02
66673,7.68E-03,1.70E-02
66674,7.70E-03,1.70E-02
66675,7.68E-03,1.71E-02
66676,7.68E-03,1.71E-02
66677,7.69E-03,1.71E-02
66678,7.70E-03,1.71E-02
66679,7.71E-03,1.71E-02
66680,7.71E-03,1.71E-02
66681,7.71E-03,1.71E-02
66682,7.72E-03,1.71E-02
66683,7.76E-03,1.71E-02
66684,7.83E-03,1.71E-02
66685,7.90E-03,1.71E-02
66686,8.09E-03,1.71E-02
66687,8.32E-03,1.71E-02
66688,8.48E-03,1.71E-02
66689,8.60E-03,1.71E-02
66690,8.79E-03,1.71E-02
66691,9.00E-03,1.70E-02
66692,9.43E-03,1.70E-02
66693,9.53E-03,1.70E-02
66694,9.80E-03,1.70E-02
66695,1.01E-02,1.70E-02
66696,1.00E-02,1.70E-02
66697,1.01E-02,1.70E-02
66698,9.72E-03,1.70E-02
66699,9.63E-03,1.70E-02
66700,9.40E-03,1.70E-02
66701,9.09E-03,1.70E-02
66702,8.77E-03,1.70E-02
66703,8.64E-03,1.70E-02
66704,8.46E-03,1.70E-02
66705,8.33E-03,1.70E-02
66706,8.22E-03,1.70E-02
66707,8.09E-03,1.70E-02
66708,7.98E-03,1.70E-02
66709,7.71E-03,1.70E-02
66710,7.72E-03,1.70E-02
66711,7.63E-03,1.70E-02
66712,7.56E-03,1.70E-02
66713,7.38E-03,1.70E-02
66714,7.32E-03,1.70E-02
66715,7.33E-03,1.70E-02
66716,7.20E-03,1.70E-02
66717,7.02E-03,1.70E-02
66718,6.91E-03,1.70E-02
66719,6.86E-03,1.71E-02
66720,7.00E-03,1.70E-02
66721,6.88E-03,1.71E-02
66722,6.86E-03,1.70E-02
66723,7.09E-03,1.70E-02
66724,7.99E-03,1.70E-02
66725,7.07E-03,1.70E-02
66726,8.09E-03,1.25E-02
66727,8.09E-03,1.23E-02
66728,8.09E-03,1.21E-02
66729,8.09E-03,1.20E-02
66730,8.09E-03,1.18E-02
66731,8.09E-03,1.16E-02
66732,8.09E-03,1.15E-02
66733,8.09E-03,1.13E-02
66734,8.09E-03,1.11E-02
66735,8.09E-03,1.09E-02
66736,8.09E-03,1.08E-02
66737,8.09E-03,1.06E-02
66738,8.09E-03,1.04E-02
66739,8.09E-03,1.02E-02
66740,8.09E-03,1.00E-02
66741,8.09E-03,9.83E-03
66742,8.09E-03,9.64E-03
66743,8.09E-03,9.45E-03
66744,8.09E-03,9.25E-03
66745,8.09E-03,9.05E-03
66746,8.09E-03,8.85E-03
66747,8.09E-03,8.65E-03
66748,8.09E-03,8.45E-03
66749,8.09E-03,8.25E-03
66750,8.09E-03,8.05E-03
66751,8.09E-03,7.85E-03
66752,8.09E-03,7.65E-03
66753,8.09E-03,7.45E-03
66754,8.09E-03,7.25E-03
66755,8.09E-03,7.05E-03
66756,8.09E-03,6.86E-03
66757,8.09E-03,6.66E-03
66758,8.09E-03,6.47E-03
66759,8.09E-03,6.27E-03
66760,8.09E-03,6.09E-03
66761,8.09E-03,5.90E-03
66762,8.09E-03,5.72E-03
66763,8.09E-03,5.54E-03
66764,8.09E-03,5.36E-03
66765,8.09E-03,5.20E-03
66766,8.09E-03,5.03E-03
66767,8.09E-03,4.88E-03
66768,8.09E-03,4.73E-03
66769,8.09E-03,4.59E-03
66770,8.09E-03,4.46E-03
66771,8.09E-03,4.34E-03
66772,8.09E-03,4.23E-03
66773,8.09E-03,4.13E-03
66774,8.09E-03,4.05E-03
66775,8.09E-03,3.98E-03
66776,8.09E-03,3.92E-03
66777,8.09E-03,3.88E-03
66778,8.09E-03,3.85E-03
66779,8.09E-03,3.84E-03
66780,8.09E-03,3.85E-03
66781,8.09E-03,3.87E-03
66782,8.09E-03,3.91E-03
66783,8.09E-03,3.96E-03
66784,8.09E-03,4.02E-03
66785,8.09E-03,4.10E-03
66786,8.09E-03,4.19E-03
66787,8.09E-03,4.29E-03
66788,8.09E-03,4.41E-03
66789,8.09E-03,4.53E-03
66790,8.09E-03,4.66E-03
66791,8.09E-03,4.80E-03
66792,8.09E-03,4.94E-03
66793,8.09E-03,5.09E-03
66794,8.09E-03,5.25E-03
66795,8.09E-03,5.41E-03
66796,8.09E-03,5.57E-03
66797,8.09E-03,5.74E-03
66798,8.09E-03,5.91E-03
66799,8.09E-03,6.09E-03
66800,8.09E-03,6.26E-03
66801,8.09E-03,6.44E-03
66802,8.09E-03,6.62E-03
66803,8.09E-03,6.80E-03
66804,8.09E-03,6.98E-03
66805,8.09E-03,7.17E-03
66806,8.09E-03,7.35E-03
66807,8.09E-03,7.53E-03
66808,8.09E-03,7.72E-03
66809,8.09E-03,7.90E-03
66810,8.09E-03,8.09E-03
66811,8.09E-03,8.27E-03
66812,8.09E-03,8.45E-03
66813,8.09E-03,8.64E-03
66814,8.09E-03,8.82E-03
66815,8.09E-03,9.00E-03
66816,8.09E-03,9.18E-03
66817,8.09E-03,9.37E-03
66818,8.09E-03,9.55E-03
66819,8.09E-03,9.73E-03
66820,8.09E-03,9.90E-03
66821,8.09E-03,1.01E-02
66822,8.09E-03,1.03E-02
66823,8.09E-03,1.04E-02
66824,8.09E-03,1.06E-02
66825,8.09E-03,1.08E-02
66826,8.09E-03,1.10E-02
66827,8.09E-03,1.11E-02
66828,8.09E-03,1.13E-02
66829,8.09E-03,1.15E-02
66830,8.09E-03,1.17E-02
66831,8.09E-03,1.18E-02
66832,8.09E-03,1.20E-02
66833,8.09E-03,1.22E-02
66834,8.09E-03,1.23E-02
66835,8.09E-03,1.25E-02
66836,8.09E-03,1.27E-02
66837,8.09E-03,1.28E-02
66838,8.15E-03,1.30E-02
66839,8.26E-03,1.32E-02
66840,8.26E-03,1.33E-02
66841,8.21E-03,1.35E-02
66842,8.15E-03,1.36E-02
66843,7.93E-03,1.38E-02
66844,7.57E-03,1.39E-02
66845,7.33E-03,1.41E-02
66846,7.33E-03,1.43E-02
66847,7.45E-03,1.44E-02
66848,1.00E-02,1.74E-02
66849,9.53E-03,1.72E-02
66850,9.19E-03,1.70E-02
66851,9.12E-03,1.67E-02
66852,8.40E-03,1.66E-02
66853,8.31E-03,1.64E-02
66854,7.68E-03,1.62E-02
66855,7.46E-03,1.61E-02
66856,7.36E-03,1.60E-02
66857,7.24E-03,1.59E-02
66858,7.08E-03,1.58E-02
66859,7.01E-03,1.58E-02
66860,7.07E-03,1.58E-02
66861,7.19E-03,1.58E-02
66862,7.27E-03,1.59E-02
66863,7.32E-03,1.61E-02
66864,7.37E-03,1.63E-02
66865,7.41E-03,1.66E-02
66866,7.45E-03,1.69E-02
66867,7.47E-03,1.73E-02
66868,7.47E-03,1.78E-02
66869,7.46E-03,1.83E-02
66870,7.45E-03,1.89E-02
66871,7.44E-03,1.96E-02
66872,7.43E-03,2.03E-02
66873,7.41E-03,2.11E-02
66874,7.37E-03,2.19E-02
66875,7.30E-03,2.27E-02
66876,7.21E-03,2.36E-02
66877,7.11E-03,2.45E-02
66878,6.97E-03,2.54E-02
66879,6.80E-03,2.63E-02
66880,6.64E-03,2.72E-02
66881,6.55E-03,2.81E-02
66882,6.51E-03,2.91E-02
66883,6.47E-03,3.00E-02
66884,6.44E-03,3.09E-02
66885,6.43E-03,3.18E-02
66886,6.42E-03,3.27E-02
66887,6.47E-03,3.36E-02
66888,6.59E-03,3.44E-02
66889,6.75E-03,3.53E-02
66890,6.90E-03,3.62E-02
66891,7.02E-03,3.71E-02
66892,7.12E-03,3.80E-02
66893,7.22E-03,3.89E-02
66894,7.31E-03,3.98E-02
66895,7.36E-03,4.07E-02
66896,7.38E-03,4.15E-02
66897,7.40E-03,4.24E-02
66898,7.41E-03,4.32E-02
66899,7.43E-03,4.40E-02
66900,7.43E-03,4.48E-02
66901,7.42E-03,4.56E-02
66902,7.40E-03,4.63E-02
66903,7.38E-03,4.70E-02
66904,7.36E-03,4.77E-02
66905,7.29E-03,4.83E-02
66906,7.14E-03,4.89E-02
66907,7.00E-03,4.95E-02
66908,6.93E-03,5.01E-02
66909,6.87E-03,5.06E-02
66910,6.86E-03,5.11E-02
66911,6.98E-03,5.15E-02
66912,7.15E-03,5.20E-02
66913,7.28E-03,5.24E-02
66914,7.38E-03,5.27E-02
66915,7.49E-03,5.31E-02
66916,7.64E-03,5.34E-02
66917,7.78E-03,5.37E-02
66918,7.88E-03,5.39E-02
66919,7.93E-03,5.41E-02
66920,7.97E-03,5.42E-02
66921,8.01E-03,5.43E-02
66922,8.05E-03,5.43E-02
66923,8.09E-03,5.42E-02
66924,8.13E-03,5.40E-02
66925,8.21E-03,5.37E-02
66926,8.20E-03,5.33E-02
66927,8.20E-03,5.29E-02
66928,7.80E-03,5.28E-02
66929,5.82E-03,5.30E-02
66930,8.10E-03,1.29E-02
66931,8.10E-03,1.31E-02
66932,7.06E-03,2.15E-02
66933,7.24E-03,2.23E-02
66934,7.78E-03,2.04E-02
66935,7.34E-03,9.11E-03
66936,7.41E-03,9.70E-03
66937,8.19E-03,8.64E-03
66938,4.53E-03,4.11E-03
66939,5.10E-03,4.30E-03
66940,8.24E-03,3.41E-02
66941,8.33E-03,3.49E-02
66942,7.70E-03,3.63E-02
66943,7.20E-03,4.20E-02
66944,5.80E-03,5.35E-02
66945,8.67E-03,3.80E-03
66946,8.10E-03,1.26E-02
66947,1.01E-02,1.79E-02
66948,8.70E-03,1.83E-02
66949,8.12E-03,1.86E-02
66950,7.70E-03,1.87E-02
66951,7.19E-03,1.88E-02
66952,5.45E-03,1.90E-02
66953,5.51E-03,1.91E-02
66954,6.07E-03,1.91E-02
66955,6.12E-03,1.91E-02
66956,6.46E-03,1.92E-02
66957,6.75E-03,1.91E-02
66958,7.08E-03,1.91E-02
66959,7.20E-03,1.91E-02
66960,7.27E-03,1.90E-02
66961,7.32E-03,1.89E-02
66962,7.33E-03,1.88E-02
66963,7.34E-03,1.87E-02
66964,7.35E-03,1.85E-02
66965,7.34E-03,1.84E-02
66966,7.29E-03,1.82E-02
66967,7.34E-03,1.80E-02
66968,7.57E-03,1.79E-02
66969,7.77E-03,1.77E-02
66970,7.85E-03,1.75E-02
66971,7.97E-03,1.72E-02
66972,8.14E-03,1.70E-02
66973,8.30E-03,1.68E-02
66974,8.46E-03,1.65E-02
66975,8.63E-03,1.63E-02
66976,8.82E-03,1.60E-02
66977,8.95E-03,1.58E-02
66978,8.96E-03,1.55E-02
66979,8.90E-03,1.53E-02
66980,8.85E-03,1.50E-02
66981,8.79E-03,1.48E-02
66982,8.74E-03,1.45E-02
66983,8.71E-03,1.43E-02
66984,8.69E-03,1.41E-02
66985,8.67E-03,1.39E-02
66986,8.65E-03,1.36E-02
66987,8.51E-03,1.34E-02
66988,8.47E-03,1.32E-02
66989,8.49E-03,1.30E-02
66990,8.32E-03,1.28E-02
66991,8.17E-03,1.26E-02
66992,7.68E-03,1.25E-02
66993,6.99E-03,1.23E-02
66994,7.63E-03,1.23E-02
66995,8.82E-03,1.22E-02
66996,9.22E-03,1.22E-02
66997,9.47E-03,1.21E-02
66998,9.48E-03,1.20E-02
66999,9.82E-03,1.20E-02
67000,9.94E-03,1.19E-02
67001,9.88E-03,1.18E-02
67002,9.82E-03,1.17E-02
67003,9.76E-03,1.16E-02
67004,9.70E-03,1.15E-02
67005,9.64E-03,1.14E-02
67006,9.57E-03,1.14E-02
67007,9.50E-03,1.13E-02
67008,9.42E-03,1.12E-02
67009,9.34E-03,1.11E-02
67010,9.26E-03,1.10E-02
67011,9.19E-03,1.09E-02
67012,9.13E-03,1.09E-02
67013,9.08E-03,1.08E-02
67014,9.03E-03,1.07E-02
67015,8.98E-03,1.07E-02
67016,8.93E-03,1.06E-02
67017,8.89E-03,1.06E-02
67018,8.85E-03,1.05E-02
67019,8.81E-03,1.05E-02
67020,8.78E-03,1.04E-02
67021,8.74E-03,1.04E-02
67022,8.71E-03,1.03E-02
67023,8.68E-03,1.03E-02
67024,8.63E-03,1.03E-02
67025,8.57E-03,1.02E-02
67026,8.50E-03,1.02E-02
67027,8.45E-03,1.02E-02
67028,8.41E-03,1.02E-02
67029,8.38E-03,1.02E-02
67030,8.36E-03,1.01E-02
67031,8.33E-03,1.01E-02
67032,8.31E-03,1.01E-02
67033,8.30E-03,1.01E-02
67034,8.28E-03,1.01E-02
67035,8.26E-03,1.01E-02
67036,8.23E-03,1.01E-02
67037,8.21E-03,1.01E-02
67038,8.18E-03,1.01E-02
67039,8.15E-03,1.01E-02
67040,8.13E-03,1.01E-02
67041,8.12E-03,1.01E-02
67042,8.11E-03,1.02E-02
67043,8.10E-03,1.02E-02
67044,8.08E-03,1.02E-02
67045,8.04E-03,1.02E-02
67046,7.99E-03,1.02E-02
67047,7.93E-03,1.03E-02
67048,7.87E-03,1.03E-02
67049,7.84E-03,1.03E-02
67050,7.81E-03,1.03E-02
67051,7.78E-03,1.04E-02
67052,7.74E-03,1.04E-02
67053,7.67E-03,1.04E-02
67054,7.58E-03,1.05E-02
67055,7.49E-03,1.05E-02
67056,7.42E-03,1.06E-02
67057,7.35E-03,1.06E-02
67058,7.29E-03,1.06E-02
67059,7.21E-03,1.07E-02
67060,7.11E-03,1.07E-02
67061,7.00E-03,1.08E-02
67062,6.90E-03,1.08E-02
67063,6.84E-03,1.09E-02
67064,6.82E-03,1.09E-02
67065,6.81E-03,1.10E-02
67066,6.81E-03,1.10E-02
67067,6.83E-03,1.11E-02
67068,6.86E-03,1.12E-02
67069,6.88E-03,1.12E-02
67070,6.92E-03,1.13E-02
67071,6.98E-03,1.13E-02
67072,7.05E-03,1.14E-02
67073,7.11E-03,1.15E-02
67074,7.15E-03,1.15E-02
67075,7.19E-03,1.16E-02
67076,7.22E-03,1.17E-02
67077,7.25E-03,1.18E-02
67078,7.29E-03,1.18E-02
67079,7.33E-03,1.19E-02
67080,7.37E-03,1.20E-02
67081,7.38E-03,1.21E-02
67082,7.37E-03,1.22E-02
67083,7.35E-03,1.23E-02
67084,7.35E-03,1.24E-02
67085,7.42E-03,1.25E-02
67086,7.58E-03,1.26E-02
67087,7.75E-03,1.27E-02
67088,7.87E-03,1.28E-02
67089,7.99E-03,1.29E-02
67090,8.02E-03,1.30E-02
67091,8.09E-03,1.31E-02
67092,8.16E-03,1.33E-02
67093,8.22E-03,1.34E-02
67094,8.18E-03,1.35E-02
67095,8.07E-03,1.37E-02
67096,7.94E-03,1.38E-02
67097,7.77E-03,1.40E-02
67098,7.65E-03,1.42E-02
67099,7.56E-03,1.44E-02
67100,7.50E-03,1.45E-02
67101,8.10E-03,1.28E-02
67102,8.10E-03,1.30E-02
67103,8.02E-03,3.22E-02
67104,7.54E-03,3.35E-02
67105,9.02E-03,5.08E-02
67106,8.01E-03,5.30E-02
67107,8.10E-03,1.27E-02
67108,8.10E-03,1.26E-02
67109,8.10E-03,1.29E-02
67110,8.10E-03,1.28E-02
67111,8.09E-03,1.19E-02
67112,8.09E-03,1.18E-02
67113,8.09E-03,1.16E-02
67114,8.09E-03,1.14E-02
67115,8.09E-03,1.13E-02
67116,8.09E-03,1.11E-02
67117,8.09E-03,1.10E-02
67118,8.09E-03,1.08E-02
67119,8.09E-03,1.07E-02
67120,8.09E-03,1.05E-02
67121,8.09E-03,1.03E-02
67122,8.09E-03,1.01E-02
67123,8.09E-03,9.98E-03
67124,8.09E-03,9.80E-03
67125,8.09E-03,9.63E-03
67126,8.09E-03,9.45E-03
67127,8.09E-03,9.27E-03
67128,8.09E-03,9.09E-03
67129,8.09E-03,8.91E-03
67130,8.09E-03,8.73E-03
67131,8.09E-03,8.55E-03
67132,8.09E-03,8.36E-03
67133,8.09E-03,8.18E-03
67134,8.09E-03,7.99E-03
67135,8.09E-03,7.81E-03
67136,8.09E-03,7.63E-03
67137,8.09E-03,7.44E-03
67138,8.09E-03,7.26E-03
67139,8.09E-03,7.07E-03
67140,8.09E-03,6.89E-03
67141,8.09E-03,6.71E-03
67142,8.09E-03,6.53E-03
67143,8.09E-03,6.36E-03
67144,8.09E-03,6.18E-03
67145,8.09E-03,6.01E-03
67146,8.09E-03,5.85E-03
67147,8.09E-03,5.68E-03
67148,8.09E-03,5.52E-03
67149,8.09E-03,5.37E-03
67150,8.09E-03,5.22E-03
67151,8.09E-03,5.08E-03
67152,8.09E-03,4.95E-03
67153,8.09E-03,4.82E-03
67154,8.09E-03,4.70E-03
67155,8.09E-03,4.59E-03
67156,8.09E-03,4.50E-03
67157,8.09E-03,4.41E-03
67158,8.09E-03,4.34E-03
67159,8.09E-03,4.28E-03
67160,8.09E-03,4.23E-03
67161,8.09E-03,4.20E-03
67162,8.09E-03,4.18E-03
67163,8.09E-03,4.17E-03
67164,8.09E-03,4.18E-03
67165,8.09E-03,4.21E-03
67166,8.09E-03,4.25E-03
67167,8.09E-03,4.31E-03
67168,8.09E-03,4.37E-03
67169,8.09E-03,4.46E-03
67170,8.09E-03,4.55E-03
67171,8.09E-03,4.66E-03
67172,8.09E-03,4.77E-03
67173,8.09E-03,4.90E-03
67174,8.09E-03,5.03E-03
67175,8.09E-03,5.18E-03
67176,8.09E-03,5.33E-03
67177,8.09E-03,5.49E-03
67178,8.09E-03,5.65E-03
67179,8.09E-03,5.83E-03
67180,8.09E-03,6.00E-03
67181,8.09E-03,6.18E-03
67182,8.09E-03,6.37E-03
67183,8.09E-03,6.56E-03
67184,8.09E-03,6.75E-03
67185,8.09E-03,6.94E-03
67186,8.09E-03,7.14E-03
67187,8.09E-03,7.34E-03
67188,8.09E-03,7.54E-03
67189,8.09E-03,7.75E-03
67190,8.09E-03,7.95E-03
67191,8.09E-03,8.16E-03
67192,8.09E-03,8.37E-03
67193,8.09E-03,8.58E-03
67194,8.09E-03,8.78E-03
67195,8.09E-03,8.99E-03
67196,8.09E-03,9.20E-03
67197,8.09E-03,9.41E-03
67198,8.09E-03,9.62E-03
67199,8.09E-03,9.83E-03
67200,8.09E-03,1.00E-02
67201,8.09E-03,1.03E-02
67202,8.09E-03,1.05E-02
67203,8.09E-03,1.07E-02
67204,8.09E-03,1.09E-02
67205,8.09E-03,1.11E-02
67206,8.09E-03,1.13E-02
67207,8.09E-03,1.15E-02
67208,8.09E-03,1.17E-02
67209,8.09E-03,1.19E-02
67210,8.09E-03,1.21E-02
67211,8.09E-03,1.23E-02
67212,8.09E-03,1.25E-02
67213,8.09E-03,1.27E-02
67214,8.09E-03,1.30E-02
67215,8.09E-03,1.32E-02
67216,8.09E-03,1.34E-02
67217,8.09E-03,1.36E-02
67218,8.09E-03,1.38E-02
67219,8.09E-03,1.40E-02
67220,8.09E-03,1.42E-02
67221,8.09E-03,1.44E-02
67222,8.09E-03,1.46E-02
67223,8.03E-03,1.48E-02
67224,7.91E-03,1.50E-02
67225,7.79E-03,1.52E-02
67226,7.80E-03,1.55E-02
67227,7.85E-03,1.57E-02
67228,7.81E-03,1.59E-02
67229,7.73E-03,1.61E-02
67230,7.85E-03,1.64E-02
67231,8.63E-03,1.66E-02
67232,7.54E-03,1.68E-02
67233,8.10E-03,1.21E-02
67234,8.10E-03,1.24E-02
67235,8.10E-03,1.23E-02
67236,5.63E-03,4.58E-02
67237,5.74E-03,4.43E-02
67238,8.10E-03,1.30E-02
67239,8.10E-03,1.30E-02
67240,8.10E-03,3.13E-02
67241,8.34E-03,3.00E-02
67242,8.43E-03,2.87E-02
67243,8.61E-03,2.75E-02
67244,8.74E-03,2.64E-02
67245,8.05E-03,2.54E-02
67246,7.90E-03,2.45E-02
67247,7.84E-03,2.36E-02
67248,7.59E-03,2.29E-02
67249,8.06E-03,1.99E-02
67250,8.99E-03,1.94E-02
67251,8.81E-03,1.87E-02
67252,8.68E-03,1.80E-02
67253,8.50E-03,1.73E-02
67254,8.22E-03,1.66E-02
67255,7.99E-03,1.59E-02
67256,7.99E-03,1.52E-02
67257,7.99E-03,1.45E-02
67258,7.99E-03,1.38E-02
67259,7.99E-03,1.31E-02
67260,7.99E-03,1.24E-02
67261,7.98E-03,1.18E-02
67262,7.71E-03,1.12E-02
67263,7.61E-03,1.07E-02
67264,7.41E-03,1.02E-02
67265,8.21E-03,8.12E-03
67266,8.31E-03,7.67E-03
67267,8.24E-03,7.21E-03
67268,7.90E-03,6.77E-03
67269,7.65E-03,6.34E-03
67270,7.24E-03,5.93E-03
67271,6.98E-03,5.54E-03
67272,6.65E-03,5.18E-03
67273,6.64E-03,4.85E-03
67274,5.89E-03,4.42E-03
67275,7.75E-03,3.74E-02
67276,8.10E-03,3.82E-02
67277,8.26E-03,3.91E-02
67278,8.39E-03,4.00E-02
67279,6.46E-03,4.08E-02
67280,7.41E-03,4.14E-02
67281,5.80E-03,5.48E-02
67282,7.32E-03,5.51E-02
67283,7.90E-03,5.53E-02
67284,8.07E-03,5.56E-02
67285,8.14E-03,5.59E-02
67286,8.11E-03,5.61E-02
67287,8.08E-03,5.63E-02
67288,8.05E-03,5.64E-02
67289,8.02E-03,5.64E-02
67290,7.98E-03,5.64E-02
67291,7.94E-03,5.62E-02
67292,7.90E-03,5.60E-02
67293,7.82E-03,5.57E-02
67294,7.69E-03,5.54E-02
67295,7.56E-03,5.50E-02
67296,7.47E-03,5.47E-02
67297,7.38E-03,5.43E-02
67298,7.27E-03,5.38E-02
67299,7.12E-03,5.34E-02
67300,7.02E-03,5.29E-02
67301,7.02E-03,5.24E-02
67302,7.08E-03,5.18E-02
67303,7.14E-03,5.13E-02
67304,7.26E-03,5.06E-02
67305,7.39E-03,5.00E-02
67306,7.45E-03,4.93E-02
67307,7.47E-03,4.86E-02
67308,7.48E-03,4.79E-02
67309,7.50E-03,4.71E-02
67310,7.51E-03,4.63E-02
67311,7.51E-03,4.55E-02
67312,7.50E-03,4.46E-02
67313,7.48E-03,4.37E-02
67314,7.47E-03,4.29E-02
67315,7.45E-03,4.20E-02
67316,7.41E-03,4.10E-02
67317,7.33E-03,4.01E-02
67318,7.25E-03,3.92E-02
67319,7.16E-03,3.82E-02
67320,7.05E-03,3.73E-02
67321,6.92E-03,3.63E-02
67322,6.78E-03,3.54E-02
67323,6.68E-03,3.44E-02
67324,6.64E-03,3.35E-02
67325,6.65E-03,3.25E-02
67326,6.65E-03,3.15E-02
67327,6.68E-03,3.06E-02
67328,6.71E-03,2.96E-02
67329,6.75E-03,2.86E-02
67330,6.83E-03,2.76E-02
67331,6.96E-03,2.67E-02
67332,7.11E-03,2.57E-02
67333,7.24E-03,2.47E-02
67334,7.32E-03,2.38E-02
67335,7.40E-03,2.29E-02
67336,7.46E-03,2.20E-02
67337,7.50E-03,2.11E-02
67338,7.51E-03,2.03E-02
67339,7.52E-03,1.96E-02
67340,7.53E-03,1.89E-02
67341,7.54E-03,1.83E-02
67342,7.54E-03,1.77E-02
67343,7.55E-03,1.73E-02
67344,7.53E-03,1.69E-02
67345,7.50E-03,1.65E-02
67346,7.46E-03,1.63E-02
67347,7.42E-03,1.61E-02
67348,7.38E-03,1.59E-02
67349,7.30E-03,1.59E-02
67350,7.20E-03,1.58E-02
67351,7.15E-03,1.59E-02
67352,7.21E-03,1.59E-02
67353,7.35E-03,1.60E-02
67354,7.45E-03,1.61E-02
67355,7.53E-03,1.63E-02
67356,7.81E-03,1.64E-02
67357,8.23E-03,1.66E-02
67358,8.35E-03,1.68E-02
67359,9.02E-03,1.71E-02
67360,9.17E-03,1.73E-02
67361,9.43E-03,1.75E-02
67362,1.02E-02,1.77E-02
67363,1.13E-02,1.78E-02
67364,1.09E-02,1.82E-02
67365,9.51E-03,1.87E-02
67366,8.35E-03,1.89E-02
67367,8.08E-03,1.91E-02
67368,6.92E-03,1.93E-02
67369,5.44E-03,1.94E-02
67370,5.80E-03,1.95E-02
67371,6.17E-03,1.96E-02
67372,6.40E-03,1.96E-02
67373,6.82E-03,1.96E-02
67374,7.04E-03,1.96E-02
67375,7.21E-03,1.95E-02
67376,7.31E-03,1.95E-02
67377,7.37E-03,1.94E-02
67378,7.42E-03,1.93E-02
67379,7.43E-03,1.92E-02
67380,7.43E-03,1.90E-02
67381,7.44E-03,1.89E-02
67382,7.44E-03,1.87E-02
67383,7.39E-03,1.85E-02
67384,7.44E-03,1.83E-02
67385,7.63E-03,1.81E-02
67386,7.80E-03,1.79E-02
67387,7.88E-03,1.77E-02
67388,7.98E-03,1.75E-02
67389,8.13E-03,1.72E-02
67390,8.27E-03,1.70E-02
67391,8.40E-03,1.67E-02
67392,8.55E-03,1.64E-02
67393,8.72E-03,1.62E-02
67394,8.83E-03,1.59E-02
67395,8.84E-03,1.56E-02
67396,8.79E-03,1.54E-02
67397,8.74E-03,1.51E-02
67398,8.69E-03,1.49E-02
67399,8.64E-03,1.46E-02
67400,8.62E-03,1.44E-02
67401,8.60E-03,1.41E-02
67402,8.59E-03,1.39E-02
67403,8.57E-03,1.37E-02
67404,8.49E-03,1.35E-02
67405,8.49E-03,1.32E-02
67406,8.22E-03,1.30E-02
67407,8.10E-03,1.28E-02
67408,7.87E-03,1.26E-02
67409,7.48E-03,1.25E-02
67410,6.73E-03,1.23E-02
67411,6.08E-03,4.62E-02
67412,8.39E-03,3.54E-03
67413,8.60E-03,3.27E-03
67414,8.68E-03,2.99E-03
67415,8.57E-03,2.73E-03
67416,8.52E-03,2.47E-03
67417,8.23E-03,2.21E-03
67418,9.71E-03,1.96E-03
67419,8.09E-03,1.24E-02
67420,8.09E-03,1.23E-02
67421,8.09E-03,1.21E-02
67422,8.09E-03,1.19E-02
67423,8.09E-03,1.18E-02
67424,8.09E-03,1.16E-02
67425,8.09E-03,1.14E-02
67426,8.09E-03,1.13E-02
67427,8.09E-03,1.11E-02
67428,8.09E-03,1.09E-02
67429,8.09E-03,1.07E-02
67430,8.09E-03,1.06E-02
67431,8.09E-03,1.04E-02
67432,8.09E-03,1.02E-02
67433,8.09E-03,1.00E-02
67434,8.09E-03,9.81E-03
67435,8.09E-03,9.61E-03
67436,8.09E-03,9.42E-03
67437,8.09E-03,9.22E-03
67438,8.09E-03,9.03E-03
67439,8.09E-03,8.83E-03
67440,8.09E-03,8.63E-03
67441,8.09E-03,8.43E-03
67442,8.09E-03,8.23E-03
67443,8.09E-03,8.04E-03
67444,8.09E-03,7.84E-03
67445,8.09E-03,7.64E-03
67446,8.09E-03,7.44E-03
67447,8.09E-03,7.24E-03
67448,8.09E-03,7.04E-03
67449,8.09E-03,6.85E-03
67450,8.09E-03,6.65E-03
67451,8.09E-03,6.46E-03
67452,8.09E-03,6.27E-03
67453,8.09E-03,6.08E-03
67454,8.09E-03,5.90E-03
67455,8.09E-03,5.71E-03
67456,8.09E-03,5.54E-03
67457,8.09E-03,5.36E-03
67458,8.09E-03,5.20E-03
67459,8.09E-03,5.04E-03
67460,8.09E-03,4.88E-03
67461,8.09E-03,4.73E-03
67462,8.09E-03,4.60E-03
67463,8.09E-03,4.47E-03
67464,8.09E-03,4.35E-03
67465,8.09E-03,4.24E-03
67466,8.09E-03,4.14E-03
67467,8.09E-03,4.06E-03
67468,8.09E-03,3.99E-03
67469,8.09E-03,3.93E-03
67470,8.09E-03,3.89E-03
67471,8.09E-03,3.87E-03
67472,8.09E-03,3.86E-03
67473,8.09E-03,3.87E-03
67474,8.09E-03,3.89E-03
67475,8.09E-03,3.93E-03
67476,8.09E-03,3.98E-03
67477,8.09E-03,4.04E-03
67478,8.09E-03,4.12E-03
67479,8.09E-03,4.21E-03
67480,8.09E-03,4.32E-03
67481,8.09E-03,4.43E-03
67482,8.09E-03,4.55E-03
67483,8.09E-03,4.68E-03
67484,8.09E-03,4.82E-03
67485,8.09E-03,4.97E-03
67486,8.09E-03,5.12E-03
67487,8.09E-03,5.28E-03
67488,8.09E-03,5.44E-03
67489,8.09E-03,5.60E-03
67490,8.09E-03,5.77E-03
67491,8.09E-03,5.94E-03
67492,8.09E-03,6.12E-03
67493,8.09E-03,6.30E-03
67494,8.09E-03,6.48E-03
67495,8.09E-03,6.66E-03
67496,8.09E-03,6.84E-03
67497,8.09E-03,7.02E-03
67498,8.09E-03,7.21E-03
67499,8.09E-03,7.39E-03
67500,8.09E-03,7.58E-03
67501,8.09E-03,7.76E-03
67502,8.09E-03,7.95E-03
67503,8.09E-03,8.13E-03
67504,8.09E-03,8.32E-03
67505,8.09E-03,8.50E-03
67506,8.09E-03,8.69E-03
67507,8.09E-03,8.87E-03
67508,8.09E-03,9.06E-03
67509,8.09E-03,9.24E-03
67510,8.09E-03,9.42E-03
67511,8.09E-03,9.61E-03
67512,8.09E-03,9.79E-03
67513,8.09E-03,9.97E-03
67514,8.09E-03,1.01E-02
67515,8.09E-03,1.03E-02
67516,8.09E-03,1.05E-02
67517,8.09E-03,1.07E-02
67518,8.09E-03,1.09E-02
67519,8.09E-03,1.10E-02
67520,8.09E-03,1.12E-02
67521,8.09E-03,1.14E-02
67522,8.09E-03,1.16E-02
67523,8.09E-03,1.17E-02
67524,8.09E-03,1.19E-02
67525,8.09E-03,1.21E-02
67526,8.09E-03,1.23E-02
67527,8.09E-03,1.24E-02
67528,8.09E-03,1.26E-02
67529,8.09E-03,1.28E-02
67530,8.09E-03,1.30E-02
67531,8.09E-03,1.31E-02
67532,8.17E-03,1.33E-02
67533,8.16E-03,1.35E-02
67534,8.16E-03,1.36E-02
67535,8.06E-03,1.38E-02
67536,7.89E-03,1.39E-02
67537,7.76E-03,1.41E-02
67538,7.52E-03,1.43E-02
67539,7.48E-03,1.44E-02
67540,7.49E-03,1.46E-02
67541,7.48E-03,1.47E-02
67542,8.10E-03,1.28E-02
67543,8.10E-03,1.29E-02
67544,6.86E-03,3.41E-02
67545,7.92E-03,3.27E-02
67546,5.88E-03,2.16E-02
67547,7.45E-03,2.21E-02
67548,6.55E-03,8.89E-03
67549,7.07E-03,9.39E-03
67550,7.27E-03,8.24E-03
67551,4.17E-03,3.67E-03
67552,5.81E-03,3.77E-03
67553,7.23E-03,3.42E-02
67554,7.47E-03,3.53E-02
67555,7.63E-03,3.68E-02
67556,7.31E-03,4.37E-02
67557,7.99E-03,4.52E-02
67558,8.69E-03,4.61E-02
67559,9.02E-03,4.73E-02
67560,9.42E-03,4.88E-02
67561,8.83E-03,4.99E-02
67562,8.33E-03,5.16E-02
67563,7.94E-03,5.43E-02
67564,8.10E-03,1.25E-02
67565,8.41E-03,1.21E-02
67566,8.89E-03,1.21E-02
67567,9.02E-03,1.20E-02
67568,9.34E-03,1.20E-02
67569,9.36E-03,1.19E-02
67570,9.60E-03,1.19E-02
67571,9.69E-03,1.18E-02
67572,9.64E-03,1.17E-02
67573,9.59E-03,1.16E-02
67574,9.54E-03,1.16E-02
67575,9.49E-03,1.15E-02
67576,9.43E-03,1.14E-02
67577,9.37E-03,1.13E-02
67578,9.31E-03,1.12E-02
67579,9.24E-03,1.11E-02
67580,9.17E-03,1.11E-02
67581,9.11E-03,1.10E-02
67582,9.04E-03,1.09E-02
67583,8.99E-03,1.09E-02
67584,8.95E-03,1.08E-02
67585,8.90E-03,1.07E-02
67586,8.86E-03,1.07E-02
67587,8.82E-03,1.06E-02
67588,8.78E-03,1.06E-02
67589,8.75E-03,1.05E-02
67590,8.72E-03,1.05E-02
67591,8.69E-03,1.04E-02
67592,8.66E-03,1.04E-02
67593,8.63E-03,1.03E-02
67594,8.60E-03,1.03E-02
67595,8.56E-03,1.03E-02
67596,8.50E-03,1.03E-02
67597,8.45E-03,1.02E-02
67598,8.40E-03,1.02E-02
67599,8.37E-03,1.02E-02
67600,8.34E-03,1.02E-02
67601,8.32E-03,1.02E-02
67602,8.30E-03,1.02E-02
67603,8.29E-03,1.01E-02
67604,8.27E-03,1.01E-02
67605,8.25E-03,1.01E-02
67606,8.24E-03,1.01E-02
67607,8.21E-03,1.01E-02
67608,8.19E-03,1.01E-02
67609,8.17E-03,1.01E-02
67610,8.15E-03,1.01E-02
67611,8.13E-03,1.02E-02
67612,8.11E-03,1.02E-02
67613,8.11E-03,1.02E-02
67614,8.10E-03,1.02E-02
67615,8.08E-03,1.02E-02
67616,8.05E-03,1.02E-02
67617,8.00E-03,1.03E-02
67618,7.95E-03,1.03E-02
67619,7.90E-03,1.03E-02
67620,7.87E-03,1.03E-02
67621,7.85E-03,1.04E-02
67622,7.82E-03,1.04E-02
67623,7.78E-03,1.04E-02
67624,7.72E-03,1.05E-02
67625,7.65E-03,1.05E-02
67626,7.57E-03,1.06E-02
67627,7.51E-03,1.06E-02
67628,7.45E-03,1.06E-02
67629,7.40E-03,1.07E-02
67630,7.33E-03,1.07E-02
67631,7.24E-03,1.08E-02
67632,7.14E-03,1.08E-02
67633,7.05E-03,1.09E-02
67634,7.00E-03,1.09E-02
67635,6.99E-03,1.10E-02
67636,6.98E-03,1.10E-02
67637,6.98E-03,1.11E-02
67638,7.00E-03,1.11E-02
67639,7.02E-03,1.12E-02
67640,7.04E-03,1.13E-02
67641,7.08E-03,1.13E-02
67642,7.13E-03,1.14E-02
67643,7.19E-03,1.15E-02
67644,7.24E-03,1.15E-02
67645,7.28E-03,1.16E-02
67646,7.31E-03,1.17E-02
67647,7.33E-03,1.18E-02
67648,7.36E-03,1.18E-02
67649,7.40E-03,1.19E-02
67650,7.43E-03,1.20E-02
67651,7.46E-03,1.21E-02
67652,7.48E-03,1.22E-02
67653,7.47E-03,1.23E-02
67654,7.45E-03,1.24E-02
67655,7.45E-03,1.25E-02
67656,7.51E-03,1.26E-02
67657,7.65E-03,1.27E-02
67658,7.80E-03,1.28E-02
67659,7.90E-03,1.29E-02
67660,7.96E-03,1.30E-02
67661,8.00E-03,1.31E-02
67662,8.05E-03,1.32E-02
67663,8.12E-03,1.34E-02
67664,8.23E-03,1.35E-02
67665,8.15E-03,1.37E-02
67666,8.06E-03,1.38E-02
67667,7.90E-03,1.40E-02
67668,7.82E-03,1.41E-02
67669,7.71E-03,1.43E-02
67670,7.60E-03,1.45E-02
67671,7.59E-03,1.47E-02
67672,7.53E-03,1.48E-02
67673,8.10E-03,1.26E-02
67674,8.10E-03,1.28E-02
67675,6.16E-03,2.06E-02
67676,6.84E-03,2.11E-02
67677,8.10E-03,1.26E-02
67678,6.75E-03,3.45E-03
67679,5.66E-03,3.22E-03
67680,6.92E-03,1.74E-02
67681,7.32E-03,1.73E-02
67682,7.36E-03,1.73E-02
67683,7.18E-03,1.73E-02
67684,7.18E-03,1.74E-02
67685,7.22E-03,1.74E-02
67686,7.23E-03,1.74E-02
67687,7.14E-03,1.74E-02
67688,7.19E-03,1.74E-02
67689,7.25E-03,1.74E-02
67690,7.34E-03,1.74E-02
67691,7.40E-03,1.74E-02
67692,7.48E-03,1.74E-02
67693,7.60E-03,1.74E-02
67694,7.70E-03,1.74E-02
67695,7.74E-03,1.74E-02
67696,7.81E-03,1.74E-02
67697,8.00E-03,1.74E-02
67698,8.07E-03,1.74E-02
67699,8.22E-03,1.74E-02
67700,8.26E-03,1.74E-02
67701,8.35E-03,1.74E-02
67702,8.65E-03,1.74E-02
67703,8.74E-03,1.73E-02
67704,8.93E-03,1.73E-02
67705,9.25E-03,1.73E-02
67706,9.34E-03,1.73E-02
67707,9.60E-03,1.73E-02
67708,9.92E-03,1.73E-02
67709,9.82E-03,1.73E-02
67710,9.77E-03,1.73E-02
67711,9.56E-03,1.73E-02
67712,9.39E-03,1.74E-02
67713,9.13E-03,1.74E-02
67714,8.98E-03,1.74E-02
67715,8.70E-03,1.74E-02
67716,8.53E-03,1.74E-02
67717,8.38E-03,1.75E-02
67718,8.28E-03,1.75E-02
67719,8.05E-03,1.75E-02
67720,7.93E-03,1.75E-02
67721,7.86E-03,1.75E-02
67722,7.81E-03,1.75E-02
67723,7.77E-03,1.75E-02
67724,7.76E-03,1.75E-02
67725,7.76E-03,1.75E-02
67726,7.76E-03,1.75E-02
67727,7.76E-03,1.75E-02
67728,7.75E-03,1.75E-02
67729,7.74E-03,1.75E-02
67730,7.74E-03,1.75E-02
67731,7.75E-03,1.75E-02
67732,7.74E-03,1.74E-02
67733,7.75E-03,1.74E-02
67734,7.87E-03,1.74E-02
67735,8.02E-03,1.74E-02
67736,8.10E-03,1.73E-02
67737,8.10E-03,1.73E-02
67738,8.14E-03,1.73E-02
67739,8.21E-03,1.73E-02
67740,8.27E-03,1.72E-02
67741,8.32E-03,1.72E-02
67742,8.38E-03,1.72E-02
67743,8.54E-03,1.71E-02
67744,8.59E-03,1.71E-02
67745,8.87E-03,1.71E-02
67746,9.13E-03,1.70E-02
67747,9.44E-03,1.70E-02
67748,9.61E-03,1.70E-02
67749,9.79E-03,1.69E-02
67750,9.89E-03,1.69E-02
67751,9.67E-03,1.69E-02
67752,9.56E-03,1.70E-02
67753,8.99E-03,1.70E-02
67754,8.84E-03,1.71E-02
67755,7.67E-03,1.71E-02
67756,6.41E-03,1.72E-02
67757,6.18E-03,1.72E-02
67758,6.21E-03,1.72E-02
67759,6.41E-03,1.72E-02
67760,6.65E-03,1.72E-02
67761,6.86E-03,1.72E-02
67762,7.01E-03,1.72E-02
67763,7.14E-03,1.72E-02
67764,7.28E-03,1.71E-02
67765,7.42E-03,1.71E-02
67766,7.53E-03,1.70E-02
67767,7.62E-03,1.70E-02
67768,7.69E-03,1.69E-02
67769,7.75E-03,1.68E-02
67770,7.79E-03,1.67E-02
67771,7.82E-03,1.66E-02
67772,7.84E-03,1.65E-02
67773,7.87E-03,1.64E-02
67774,7.89E-03,1.63E-02
67775,7.91E-03,1.62E-02
67776,7.94E-03,1.61E-02
67777,7.96E-03,1.60E-02
67778,7.97E-03,1.59E-02
67779,7.98E-03,1.58E-02
67780,7.98E-03,1.57E-02
67781,7.99E-03,1.55E-02
67782,7.99E-03,1.54E-02
67783,8.00E-03,1.53E-02
67784,8.00E-03,1.51E-02
67785,8.01E-03,1.49E-02
67786,8.02E-03,1.48E-02
67787,8.02E-03,1.46E-02
67788,8.02E-03,1.44E-02
67789,8.03E-03,1.41E-02
67790,8.03E-03,1.39E-02
67791,8.04E-03,1.37E-02
67792,8.04E-03,1.34E-02
67793,8.04E-03,1.32E-02
67794,8.05E-03,1.29E-02
67795,8.05E-03,1.27E-02
67796,8.05E-03,1.24E-02
67797,8.05E-03,1.22E-02
67798,8.06E-03,1.19E-02
67799,8.06E-03,1.17E-02
67800,8.06E-03,1.15E-02
67801,8.06E-03,1.13E-02
67802,8.06E-03,1.11E-02
67803,8.06E-03,1.10E-02
67804,8.06E-03,1.08E-02
67805,8.06E-03,1.07E-02
67806,8.06E-03,1.06E-02
67807,8.06E-03,1.05E-02
67808,8.06E-03,1.04E-02
67809,8.06E-03,1.03E-02
67810,8.06E-03,1.03E-02
67811,8.05E-03,1.03E-02
67812,8.05E-03,1.03E-02
67813,8.04E-03,1.03E-02
67814,8.04E-03,1.03E-02
67815,8.04E-03,1.03E-02
67816,8.03E-03,1.04E-02
67817,8.03E-03,1.04E-02
67818,8.02E-03,1.05E-02
67819,8.02E-03,1.06E-02
67820,8.01E-03,1.07E-02
67821,8.00E-03,1.08E-02
67822,7.99E-03,1.09E-02
67823,7.98E-03,1.10E-02
67824,7.97E-03,1.11E-02
67825,7.96E-03,1.12E-02
67826,7.95E-03,1.14E-02
67827,7.94E-03,1.15E-02
67828,7.93E-03,1.16E-02
67829,7.93E-03,1.18E-02
67830,7.92E-03,1.19E-02
67831,7.91E-03,1.21E-02
67832,7.91E-03,1.22E-02
67833,7.90E-03,1.23E-02
67834,7.89E-03,1.25E-02
67835,7.88E-03,1.26E-02
67836,7.87E-03,1.28E-02
67837,7.86E-03,1.29E-02
67838,7.85E-03,1.30E-02
67839,7.84E-03,1.32E-02
67840,7.82E-03,1.33E-02
67841,7.80E-03,1.34E-02
67842,7.78E-03,1.35E-02
67843,7.76E-03,1.37E-02
67844,7.75E-03,1.38E-02
67845,7.74E-03,1.39E-02
67846,7.73E-03,1.40E-02
67847,7.73E-03,1.42E-02
67848,7.73E-03,1.43E-02
67849,7.74E-03,1.44E-02
67850,7.75E-03,1.45E-02
67851,7.76E-03,1.46E-02
67852,7.76E-03,1.48E-02
67853,7.77E-03,1.49E-02
67854,7.77E-03,1.50E-02
67855,7.78E-03,1.51E-02
67856,7.78E-03,1.52E-02
67857,7.79E-03,1.53E-02
67858,7.79E-03,1.55E-02
67859,7.80E-03,1.56E-02
67860,7.80E-03,1.57E-02
67861,7.80E-03,1.58E-02
67862,7.81E-03,1.59E-02
67863,7.81E-03,1.60E-02
67864,7.82E-03,1.61E-02
67865,7.82E-03,1.63E-02
67866,7.83E-03,1.64E-02
67867,7.83E-03,1.65E-02
67868,7.83E-03,1.66E-02
67869,7.83E-03,1.67E-02
67870,7.85E-03,1.68E-02
67871,7.87E-03,1.70E-02
67872,7.88E-03,1.71E-02
67873,7.89E-03,1.72E-02
67874,7.90E-03,1.73E-02
67875,7.83E-03,1.74E-02
67876,7.74E-03,1.76E-02
67877,7.67E-03,1.77E-02
67878,7.61E-03,1.78E-02
67879,7.36E-03,1.79E-02
67880,7.15E-03,1.80E-02
67881,7.01E-03,1.82E-02
67882,6.76E-03,1.83E-02
67883,6.49E-03,1.84E-02
67884,6.24E-03,1.85E-02
67885,5.95E-03,1.86E-02
67886,5.52E-03,1.87E-02
67887,4.95E-03,1.88E-02
67888,4.69E-03,1.89E-02
67889,5.22E-03,1.90E-02
67890,5.28E-03,1.91E-02
67891,5.61E-03,1.92E-02
67892,5.76E-03,1.93E-02
67893,5.94E-03,1.94E-02
67894,6.05E-03,1.95E-02
67895,6.13E-03,1.96E-02
67896,6.22E-03,1.97E-02
67897,6.25E-03,1.98E-02
67898,6.29E-03,1.99E-02
67899,6.32E-03,2.00E-02
67900,6.33E-03,2.02E-02
67901,6.33E-03,2.03E-02
67902,6.31E-03,2.04E-02
67903,6.29E-03,2.05E-02
67904,6.28E-03,2.06E-02
67905,6.29E-03,2.07E-02
67906,6.30E-03,2.08E-02
67907,6.32E-03,2.08E-02
67908,6.42E-03,2.09E-02
67909,6.65E-03,2.10E-02
67910,6.90E-03,2.11E-02
67911,7.09E-03,2.12E-02
67912,7.23E-03,2.13E-02
67913,7.34E-03,2.14E-02
67914,7.45E-03,2.14E-02
67915,7.51E-03,2.15E-02
67916,7.51E-03,2.16E-02
67917,7.69E-03,2.17E-02
67918,7.95E-03,2.18E-02
67919,8.04E-03,2.18E-02
67920,8.12E-03,2.19E-02
67921,8.22E-03,2.20E-02
67922,8.36E-03,2.21E-02
67923,8.55E-03,2.22E-02
67924,8.85E-03,2.23E-02
67925,9.19E-03,2.24E-02
67926,9.39E-03,2.25E-02
67927,9.47E-03,2.26E-02
67928,9.40E-03,2.28E-02
67929,9.35E-03,2.29E-02
67930,8.20E-03,2.31E-02
67931,8.05E-03,2.32E-02
67932,7.62E-03,2.34E-02
67933,7.14E-03,2.35E-02
67934,7.23E-03,2.37E-02
67935,3.79E-03,2.38E-02
67936,4.33E-03,2.39E-02
67937,4.51E-03,2.40E-02
67938,3.17E-03,2.40E-02
67939,3.57E-03,2.41E-02
67940,4.39E-03,2.41E-02
67941,5.11E-03,2.41E-02
67942,5.43E-03,2.41E-02
67943,5.81E-03,2.41E-02
67944,6.15E-03,2.41E-02
67945,6.50E-03,2.40E-02
67946,6.81E-03,2.40E-02
67947,7.03E-03,2.39E-02
67948,9.30E-03,2.39E-02
67949,1.01E-02,2.38E-02
67950,1.01E-02,2.37E-02
67951,1.00E-02,2.36E-02
67952,9.84E-03,2.35E-02
67953,9.53E-03,2.34E-02
67954,9.51E-03,2.33E-02
67955,9.38E-03,2.33E-02
67956,9.09E-03,2.32E-02
67957,8.97E-03,2.31E-02
67958,8.87E-03,2.30E-02
67959,8.76E-03,2.29E-02
67960,8.64E-03,2.28E-02
67961,8.53E-03,2.28E-02
67962,8.45E-03,2.27E-02
67963,8.40E-03,2.26E-02
67964,8.36E-03,2.26E-02
67965,8.33E-03,2.26E-02
67966,8.30E-03,2.25E-02
67967,8.27E-03,2.25E-02
67968,8.25E-03,2.25E-02
67969,8.25E-03,2.25E-02
67970,8.25E-03,2.25E-02
67971,8.25E-03,2.25E-02
67972,8.24E-03,2.25E-02
67973,8.21E-03,2.25E-02
67974,8.18E-03,2.26E-02
67975,8.15E-03,2.26E-02
67976,8.14E-03,2.26E-02
67977,8.13E-03,2.26E-02
67978,8.12E-03,2.27E-02
67979,8.12E-03,2.27E-02
67980,8.12E-03,2.27E-02
67981,8.12E-03,2.28E-02
67982,8.11E-03,2.28E-02
67983,8.11E-03,2.28E-02
67984,8.10E-03,2.28E-02
67985,8.10E-03,2.28E-02
67986,8.09E-03,2.28E-02
67987,8.08E-03,2.29E-02
67988,8.08E-03,2.29E-02
67989,8.07E-03,2.29E-02
67990,8.07E-03,2.28E-02
67991,8.07E-03,2.28E-02
67992,8.08E-03,2.28E-02
67993,8.09E-03,2.28E-02
67994,8.10E-03,2.27E-02
67995,8.11E-03,2.27E-02
67996,8.11E-03,2.26E-02
67997,8.12E-03,2.25E-02
67998,8.13E-03,2.25E-02
67999,8.14E-03,2.24E-02
68000,8.16E-03,2.23E-02
68001,8.18E-03,2.22E-02
68002,8.19E-03,2.22E-02
68003,8.20E-03,2.21E-02
68004,8.21E-03,2.20E-02
68005,8.22E-03,2.20E-02
68006,8.23E-03,2.19E-02
68007,8.24E-03,2.19E-02
68008,8.25E-03,2.18E-02
68009,8.26E-03,2.18E-02
68010,8.27E-03,2.18E-02
68011,8.29E-03,2.18E-02
68012,8.31E-03,2.18E-02
68013,8.34E-03,2.18E-02
68014,8.36E-03,2.18E-02
68015,8.38E-03,2.18E-02
68016,8.38E-03,2.17E-02
68017,8.37E-03,2.17E-02
68018,8.36E-03,2.17E-02
68019,8.35E-03,2.17E-02
68020,8.34E-03,2.16E-02
68021,8.34E-03,2.16E-02
68022,8.33E-03,2.15E-02
68023,8.32E-03,2.14E-02
68024,8.32E-03,2.14E-02
68025,8.32E-03,2.13E-02
68026,8.29E-03,2.12E-02
68027,8.23E-03,2.11E-02
68028,8.17E-03,2.10E-02
68029,8.10E-03,2.09E-02
68030,8.06E-03,2.08E-02
68031,8.06E-03,2.08E-02
68032,8.07E-03,2.07E-02
68033,8.06E-03,2.07E-02
68034,8.03E-03,2.07E-02
68035,8.00E-03,2.07E-02
68036,7.98E-03,2.07E-02
68037,7.96E-03,2.07E-02
68038,7.93E-03,2.06E-02
68039,7.89E-03,2.06E-02
68040,7.85E-03,2.05E-02
68041,7.81E-03,2.04E-02
68042,7.79E-03,2.03E-02
68043,7.77E-03,2.02E-02
68044,7.76E-03,2.00E-02
68045,7.75E-03,1.98E-02
68046,7.74E-03,1.96E-02
68047,7.73E-03,1.94E-02
68048,7.72E-03,1.92E-02
68049,7.70E-03,1.90E-02
68050,7.68E-03,1.87E-02
68051,7.67E-03,1.85E-02
68052,7.67E-03,1.82E-02
68053,7.68E-03,1.80E-02
68054,7.69E-03,1.77E-02
68055,7.70E-03,1.74E-02
68056,7.71E-03,1.72E-02
68057,7.72E-03,1.69E-02
68058,7.73E-03,1.67E-02
68059,7.74E-03,1.64E-02
68060,7.75E-03,1.62E-02
68061,7.76E-03,1.60E-02
68062,7.77E-03,1.58E-02
68063,7.77E-03,1.56E-02
68064,7.78E-03,1.54E-02
68065,7.78E-03,1.52E-02
68066,7.78E-03,1.50E-02
68067,7.79E-03,1.48E-02
68068,7.78E-03,1.45E-02
68069,7.77E-03,1.43E-02
68070,7.76E-03,1.41E-02
68071,7.75E-03,1.39E-02
68072,7.74E-03,1.37E-02
68073,7.73E-03,1.36E-02
68074,7.71E-03,1.34E-02
68075,7.69E-03,1.32E-02
68076,7.66E-03,1.30E-02
68077,7.63E-03,1.29E-02
68078,7.60E-03,1.27E-02
68079,7.58E-03,1.26E-02
68080,7.57E-03,1.24E-02
68081,7.58E-03,1.23E-02
68082,7.59E-03,1.21E-02
68083,7.58E-03,1.20E-02
68084,7.58E-03,1.18E-02
68085,7.76E-03,1.17E-02
68086,8.02E-03,1.15E-02
68087,8.20E-03,1.14E-02
68088,8.44E-03,1.12E-02
68089,8.80E-03,1.11E-02
68090,9.08E-03,1.09E-02
68091,9.16E-03,1.08E-02
68092,9.15E-03,1.06E-02
68093,9.13E-03,1.04E-02
68094,9.11E-03,1.03E-02
68095,9.07E-03,1.01E-02
68096,9.03E-03,9.92E-03
68097,8.98E-03,9.74E-03
68098,8.94E-03,9.57E-03
68099,8.92E-03,9.39E-03
68100,8.88E-03,9.21E-03
68101,8.82E-03,9.03E-03
68102,8.77E-03,8.85E-03
68103,8.71E-03,8.68E-03
68104,8.36E-03,8.51E-03
68105,8.11E-03,8.35E-03
68106,7.92E-03,8.20E-03
68107,7.80E-03,8.05E-03
68108,7.56E-03,7.91E-03
68109,7.39E-03,7.78E-03
68110,7.21E-03,7.66E-03
68111,6.95E-03,7.54E-03
68112,6.66E-03,7.43E-03
68113,6.39E-03,7.33E-03
68114,6.13E-03,7.23E-03
68115,5.91E-03,7.14E-03
68116,5.65E-03,7.07E-03
68117,4.79E-03,7.00E-03
68118,4.84E-03,6.96E-03
68119,6.14E-03,6.90E-03
68120,6.12E-03,6.84E-03
68121,6.54E-03,6.79E-03
68122,6.98E-03,6.73E-03
68123,7.39E-03,6.67E-03
68124,7.80E-03,6.62E-03
68125,8.17E-03,6.55E-03
68126,8.55E-03,6.49E-03
68127,9.50E-03,6.42E-03
68128,9.78E-03,6.33E-03
68129,9.64E-03,6.24E-03
68130,9.27E-03,6.14E-03
68131,9.05E-03,6.05E-03
68132,8.85E-03,5.95E-03
68133,8.70E-03,5.85E-03
68134,8.58E-03,5.75E-03
68135,8.47E-03,5.65E-03
68136,8.34E-03,5.55E-03
68137,8.23E-03,5.45E-03
68138,8.12E-03,5.35E-03
68139,8.08E-03,5.26E-03
68140,8.04E-03,5.17E-03
68141,8.00E-03,5.08E-03
68142,7.94E-03,4.99E-03
68143,7.89E-03,4.90E-03
68144,7.85E-03,4.82E-03
68145,7.82E-03,4.73E-03
68146,7.79E-03,4.65E-03
68147,7.76E-03,4.58E-03
68148,7.74E-03,4.50E-03
68149,7.71E-03,4.43E-03
68150,7.67E-03,4.36E-03
68151,7.62E-03,4.29E-03
68152,7.58E-03,4.23E-03
68153,7.54E-03,4.16E-03
68154,7.50E-03,4.10E-03
68155,7.50E-03,4.04E-03
68156,7.49E-03,3.99E-03
68157,7.49E-03,3.93E-03
68158,7.49E-03,3.88E-03
68159,7.49E-03,3.83E-03
68160,7.49E-03,3.78E-03
68161,7.48E-03,3.73E-03
68162,7.47E-03,3.68E-03
68163,7.47E-03,3.63E-03
68164,7.46E-03,3.59E-03
68165,7.45E-03,3.54E-03
68166,7.44E-03,3.50E-03
68167,7.44E-03,3.46E-03
68168,7.45E-03,3.42E-03
68169,7.46E-03,3.38E-03
68170,7.47E-03,3.34E-03
68171,7.48E-03,3.30E-03
68172,7.50E-03,3.27E-03
68173,7.52E-03,3.23E-03
68174,7.54E-03,3.20E-03
68175,7.57E-03,3.16E-03
68176,7.61E-03,3.13E-03
68177,7.64E-03,3.10E-03
68178,7.68E-03,3.07E-03
68179,7.70E-03,3.03E-03
68180,7.72E-03,3.00E-03
68181,7.74E-03,2.97E-03
68182,7.76E-03,2.95E-03
68183,7.77E-03,2.92E-03
68184,7.79E-03,2.89E-03
68185,7.81E-03,2.86E-03
68186,7.82E-03,2.83E-03
68187,7.84E-03,2.81E-03
68188,7.85E-03,2.78E-03
68189,7.87E-03,2.75E-03
68190,7.88E-03,2.73E-03
68191,7.89E-03,2.70E-03
68192,7.90E-03,2.68E-03
68193,7.90E-03,2.65E-03
68194,7.91E-03,2.62E-03
68195,7.92E-03,2.60E-03
68196,7.93E-03,2.57E-03
68197,7.93E-03,2.54E-03
68198,7.94E-03,2.51E-03
68199,7.95E-03,2.49E-03
68200,7.96E-03,2.46E-03
68201,7.98E-03,2.43E-03
68202,7.99E-03,2.40E-03
68203,8.01E-03,2.37E-03
68204,8.01E-03,2.34E-03
68205,8.02E-03,2.31E-03
68206,8.03E-03,2.28E-03
68207,8.03E-03,2.25E-03
68208,8.03E-03,2.22E-03
68209,8.02E-03,2.19E-03
68210,8.01E-03,2.16E-03
68211,7.99E-03,2.12E-03
68212,7.96E-03,2.09E-03
68213,7.90E-03,2.06E-03
68214,7.84E-03,2.03E-03
68215,7.78E-03,1.99E-03
68216,7.73E-03,1.96E-03
68217,7.67E-03,1.93E-03
68218,7.61E-03,1.90E-03
68219,7.53E-03,1.86E-03
68220,7.44E-03,1.83E-03
68221,7.29E-03,1.80E-03
68222,7.11E-03,1.77E-03
68223,6.97E-03,1.74E-03
68224,6.86E-03,1.72E-03
68225,6.78E-03,1.69E-03
68226,6.69E-03,1.67E-03
68227,6.59E-03,1.64E-03
68228,6.47E-03,1.62E-03
68229,6.39E-03,1.60E-03
68230,6.38E-03,1.59E-03
68231,6.44E-03,1.57E-03
68232,6.55E-03,1.56E-03
68233,6.67E-03,1.55E-03
68234,6.76E-03,1.54E-03
68235,6.82E-03,1.54E-03
68236,6.87E-03,1.53E-03
68237,6.92E-03,1.53E-03
68238,6.97E-03,1.52E-03
68239,7.05E-03,1.52E-03
68240,7.12E-03,1.52E-03
68241,7.20E-03,1.53E-03
68242,7.26E-03,1.53E-03
68243,7.32E-03,1.53E-03
68244,7.38E-03,1.53E-03
68245,7.43E-03,1.54E-03
68246,7.48E-03,1.54E-03
68247,7.51E-03,1.55E-03
68248,7.55E-03,1.56E-03
68249,7.58E-03,1.56E-03
68250,7.70E-03,1.57E-03
68251,7.92E-03,1.58E-03
68252,8.09E-03,1.58E-03
68253,8.22E-03,1.59E-03
68254,8.41E-03,1.59E-03
68255,8.58E-03,1.59E-03
68256,8.79E-03,1.59E-03
68257,8.79E-03,1.59E-03
68258,8.34E-03,1.58E-03
68259,7.99E-03,1.57E-03
68260,7.79E-03,1.56E-03
68261,7.51E-03,1.54E-03
68262,7.29E-03,1.53E-03
68263,7.08E-03,1.52E-03
68264,6.77E-03,1.51E-03
68265,6.34E-03,1.50E-03
68266,6.08E-03,1.49E-03
68267,6.06E-03,1.49E-03
68268,6.07E-03,1.50E-03
68269,6.08E-03,1.50E-03
68270,6.10E-03,1.51E-03
68271,6.31E-03,1.53E-03
68272,6.79E-03,1.55E-03
68273,7.23E-03,1.58E-03
68274,7.46E-03,1.60E-03
68275,7.61E-03,1.63E-03
68276,8.07E-03,1.66E-03
68277,8.15E-03,1.68E-03
68278,8.20E-03,1.71E-03
68279,8.44E-03,1.73E-03
68280,8.72E-03,1.75E-03
68281,9.82E-03,1.76E-03
68282,8.87E-03,1.70E-03
68283,8.09E-03,1.19E-02
68284,8.09E-03,1.18E-02
68285,8.09E-03,1.16E-02
68286,8.09E-03,1.15E-02
68287,8.09E-03,1.13E-02
68288,8.09E-03,1.12E-02
68289,8.09E-03,1.10E-02
68290,8.09E-03,1.08E-02
68291,8.09E-03,1.07E-02
68292,8.09E-03,1.05E-02
68293,8.09E-03,1.03E-02
68294,8.09E-03,1.02E-02
68295,8.09E-03,1.00E-02
68296,8.09E-03,9.83E-03
68297,8.09E-03,9.65E-03
68298,8.09E-03,9.47E-03
68299,8.09E-03,9.30E-03
68300,8.09E-03,9.11E-03
68301,8.09E-03,8.93E-03
68302,8.09E-03,8.75E-03
68303,8.09E-03,8.57E-03
68304,8.09E-03,8.38E-03
68305,8.09E-03,8.20E-03
68306,8.09E-03,8.01E-03
68307,8.09E-03,7.83E-03
68308,8.09E-03,7.64E-03
68309,8.09E-03,7.45E-03
68310,8.09E-03,7.27E-03
68311,8.09E-03,7.09E-03
68312,8.09E-03,6.90E-03
68313,8.09E-03,6.72E-03
68314,8.09E-03,6.54E-03
68315,8.09E-03,6.37E-03
68316,8.09E-03,6.19E-03
68317,8.09E-03,6.02E-03
68318,8.09E-03,5.85E-03
68319,8.09E-03,5.68E-03
68320,8.09E-03,5.52E-03
68321,8.09E-03,5.37E-03
68322,8.09E-03,5.22E-03
68323,8.09E-03,5.08E-03
68324,8.09E-03,4.94E-03
68325,8.09E-03,4.81E-03
68326,8.09E-03,4.69E-03
68327,8.09E-03,4.58E-03
68328,8.09E-03,4.49E-03
68329,8.09E-03,4.40E-03
68330,8.09E-03,4.32E-03
68331,8.09E-03,4.26E-03
68332,8.09E-03,4.21E-03
68333,8.09E-03,4.17E-03
68334,8.09E-03,4.15E-03
68335,8.09E-03,4.15E-03
68336,8.09E-03,4.16E-03
68337,8.09E-03,4.18E-03
68338,8.09E-03,4.22E-03
68339,8.09E-03,4.27E-03
68340,8.09E-03,4.34E-03
68341,8.09E-03,4.42E-03
68342,8.09E-03,4.51E-03
68343,8.09E-03,4.62E-03
68344,8.09E-03,4.73E-03
68345,8.09E-03,4.86E-03
68346,8.09E-03,4.99E-03
68347,8.09E-03,5.14E-03
68348,8.09E-03,5.29E-03
68349,8.09E-03,5.44E-03
68350,8.09E-03,5.61E-03
68351,8.09E-03,5.78E-03
68352,8.09E-03,5.95E-03
68353,8.09E-03,6.13E-03
68354,8.09E-03,6.32E-03
68355,8.09E-03,6.50E-03
68356,8.09E-03,6.69E-03
68357,8.09E-03,6.89E-03
68358,8.09E-03,7.08E-03
68359,8.09E-03,7.28E-03
68360,8.09E-03,7.48E-03
68361,8.09E-03,7.68E-03
68362,8.09E-03,7.89E-03
68363,8.09E-03,8.09E-03
68364,8.09E-03,8.30E-03
68365,8.09E-03,8.51E-03
68366,8.09E-03,8.71E-03
68367,8.09E-03,8.92E-03
68368,8.09E-03,9.13E-03
68369,8.09E-03,9.34E-03
68370,8.09E-03,9.54E-03
68371,8.09E-03,9.75E-03
68372,8.09E-03,9.96E-03
68373,8.09E-03,1.02E-02
68374,8.09E-03,1.04E-02
68375,8.09E-03,1.06E-02
68376,8.09E-03,1.08E-02
68377,8.09E-03,1.10E-02
68378,8.09E-03,1.12E-02
68379,8.09E-03,1.14E-02
68380,8.09E-03,1.16E-02
68381,8.09E-03,1.18E-02
68382,8.09E-03,1.20E-02
68383,8.09E-03,1.22E-02
68384,8.09E-03,1.24E-02
68385,8.09E-03,1.26E-02
68386,8.09E-03,1.28E-02
68387,8.09E-03,1.30E-02
68388,8.09E-03,1.32E-02
68389,8.09E-03,1.35E-02
68390,8.09E-03,1.37E-02
68391,8.09E-03,1.39E-02
68392,8.09E-03,1.41E-02
68393,8.09E-03,1.43E-02
68394,8.09E-03,1.45E-02
68395,8.09E-03,1.47E-02
68396,8.02E-03,1.49E-02
68397,7.95E-03,1.51E-02
68398,7.89E-03,1.53E-02
68399,7.85E-03,1.56E-02
68400,7.92E-03,1.58E-02
68401,7.89E-03,1.60E-02
68402,8.04E-03,1.62E-02
68403,7.79E-03,1.65E-02
68404,7.22E-03,1.66E-02
68405,6.65E-03,1.68E-02
68406,6.45E-03,1.70E-02
68407,6.85E-03,1.72E-02
68408,8.10E-03,1.25E-02
68409,8.10E-03,1.27E-02
68410,8.10E-03,1.23E-02
68411,8.10E-03,1.21E-02
68412,8.30E-03,5.51E-02
68413,8.10E-03,1.29E-02
68414,8.10E-03,1.29E-02
68415,6.43E-03,3.54E-02
68416,6.60E-03,3.42E-02
68417,8.73E-03,3.17E-02
68418,8.27E-03,3.00E-02
68419,8.41E-03,2.87E-02
68420,8.64E-03,2.75E-02
68421,8.74E-03,2.64E-02
68422,8.06E-03,2.54E-02
68423,8.01E-03,2.46E-02
68424,7.98E-03,2.37E-02
68425,7.95E-03,2.28E-02
68426,8.09E-03,2.01E-02
68427,9.16E-03,1.96E-02
68428,8.96E-03,1.88E-02
68429,8.75E-03,1.81E-02
68430,8.48E-03,1.73E-02
68431,8.13E-03,1.66E-02
68432,7.99E-03,1.58E-02
68433,7.99E-03,1.50E-02
68434,7.99E-03,1.43E-02
68435,7.99E-03,1.35E-02
68436,7.99E-03,1.28E-02
68437,7.99E-03,1.21E-02
68438,7.99E-03,1.15E-02
68439,7.81E-03,1.09E-02
68440,7.78E-03,1.03E-02
68441,7.47E-03,9.80E-03
68442,7.66E-03,7.81E-03
68443,8.23E-03,7.40E-03
68444,8.17E-03,6.94E-03
68445,7.85E-03,6.48E-03
68446,7.66E-03,6.02E-03
68447,7.35E-03,5.58E-03
68448,7.05E-03,5.17E-03
68449,6.77E-03,4.78E-03
68450,6.05E-03,4.42E-03
68451,5.55E-03,4.16E-03
68452,5.03E-03,3.84E-03
68453,7.73E-03,3.79E-02
68454,8.42E-03,3.88E-02
68455,8.36E-03,4.00E-02
68456,8.35E-03,4.12E-02
68457,7.59E-03,4.24E-02
68458,7.59E-03,4.33E-02
68459,8.49E-03,4.64E-02
68460,8.88E-03,4.77E-02
68461,8.88E-03,4.92E-02
68462,8.73E-03,5.06E-02
68463,6.21E-03,5.30E-02
68464,8.12E-03,5.18E-02
68465,8.83E-03,2.17E-02
68466,7.81E-03,3.16E-03
68467,7.49E-03,5.51E-02
68468,8.71E-03,3.27E-03
68469,8.89E-03,2.97E-03
68470,8.76E-03,2.69E-03
68471,8.71E-03,2.43E-03
68472,8.51E-03,2.17E-03
68473,8.04E-03,1.93E-03
68474,8.29E-03,1.69E-03
68475,8.09E-03,1.24E-02
68476,8.09E-03,1.22E-02
68477,8.09E-03,1.21E-02
68478,8.09E-03,1.19E-02
68479,8.09E-03,1.17E-02
68480,8.09E-03,1.16E-02
68481,8.09E-03,1.14E-02
68482,8.09E-03,1.12E-02
68483,8.09E-03,1.11E-02
68484,8.09E-03,1.09E-02
68485,8.09E-03,1.07E-02
68486,8.09E-03,1.05E-02
68487,8.09E-03,1.03E-02
68488,8.09E-03,1.02E-02
68489,8.09E-03,9.97E-03
68490,8.09E-03,9.78E-03
68491,8.09E-03,9.59E-03
68492,8.09E-03,9.40E-03
68493,8.09E-03,9.20E-03
68494,8.09E-03,9.01E-03
68495,8.09E-03,8.81E-03
68496,8.09E-03,8.61E-03
68497,8.09E-03,8.42E-03
68498,8.09E-03,8.22E-03
68499,8.09E-03,8.02E-03
68500,8.09E-03,7.82E-03
68501,8.09E-03,7.62E-03
68502,8.09E-03,7.42E-03
68503,8.09E-03,7.23E-03
68504,8.09E-03,7.03E-03
68505,8.09E-03,6.84E-03
68506,8.09E-03,6.64E-03
68507,8.09E-03,6.45E-03
68508,8.09E-03,6.26E-03
68509,8.09E-03,6.08E-03
68510,8.09E-03,5.89E-03
68511,8.09E-03,5.71E-03
68512,8.09E-03,5.54E-03
68513,8.09E-03,5.36E-03
68514,8.09E-03,5.20E-03
68515,8.09E-03,5.04E-03
68516,8.09E-03,4.88E-03
68517,8.09E-03,4.74E-03
68518,8.09E-03,4.60E-03
68519,8.09E-03,4.47E-03
68520,8.09E-03,4.36E-03
68521,8.09E-03,4.25E-03
68522,8.09E-03,4.15E-03
68523,8.09E-03,4.07E-03
68524,8.09E-03,4.00E-03
68525,8.09E-03,3.95E-03
68526,8.09E-03,3.91E-03
68527,8.09E-03,3.89E-03
68528,8.09E-03,3.88E-03
68529,8.09E-03,3.89E-03
68530,8.09E-03,3.91E-03
68531,8.09E-03,3.95E-03
68532,8.09E-03,4.00E-03
68533,8.09E-03,4.07E-03
68534,8.09E-03,4.15E-03
68535,8.09E-03,4.24E-03
68536,8.09E-03,4.34E-03
68537,8.09E-03,4.46E-03
68538,8.09E-03,4.58E-03
68539,8.09E-03,4.71E-03
68540,8.09E-03,4.85E-03
68541,8.09E-03,5.00E-03
68542,8.09E-03,5.15E-03
68543,8.09E-03,5.31E-03
68544,8.09E-03,5.47E-03
68545,8.09E-03,5.63E-03
68546,8.09E-03,5.80E-03
68547,8.09E-03,5.98E-03
68548,8.09E-03,6.15E-03
68549,8.09E-03,6.33E-03
68550,8.09E-03,6.51E-03
68551,8.09E-03,6.70E-03
68552,8.09E-03,6.88E-03
68553,8.09E-03,7.06E-03
68554,8.09E-03,7.25E-03
68555,8.09E-03,7.43E-03
68556,8.09E-03,7.62E-03
68557,8.09E-03,7.81E-03
68558,8.09E-03,7.99E-03
68559,8.09E-03,8.18E-03
68560,8.09E-03,8.37E-03
68561,8.09E-03,8.56E-03
68562,8.09E-03,8.74E-03
68563,8.09E-03,8.93E-03
68564,8.09E-03,9.11E-03
68565,8.09E-03,9.30E-03
68566,8.09E-03,9.48E-03
68567,8.09E-03,9.67E-03
68568,8.09E-03,9.85E-03
68569,8.09E-03,1.00E-02
68570,8.09E-03,1.02E-02
68571,8.09E-03,1.04E-02
68572,8.09E-03,1.06E-02
68573,8.09E-03,1.08E-02
68574,8.09E-03,1.09E-02
68575,8.09E-03,1.11E-02
68576,8.09E-03,1.13E-02
68577,8.09E-03,1.15E-02
68578,8.09E-03,1.17E-02
68579,8.09E-03,1.18E-02
68580,8.09E-03,1.20E-02
68581,8.09E-03,1.22E-02
68582,8.09E-03,1.24E-02
68583,8.09E-03,1.25E-02
68584,8.09E-03,1.27E-02
68585,8.09E-03,1.29E-02
68586,8.09E-03,1.31E-02
68587,8.09E-03,1.32E-02
68588,8.09E-03,1.34E-02
68589,8.12E-03,1.36E-02
68590,8.09E-03,1.38E-02
68591,7.93E-03,1.39E-02
68592,7.87E-03,1.41E-02
68593,7.80E-03,1.43E-02
68594,7.66E-03,1.44E-02
68595,7.60E-03,1.46E-02
68596,7.55E-03,1.47E-02
68597,7.57E-03,1.49E-02
68598,7.63E-03,1.50E-02
68599,8.10E-03,1.27E-02
68600,8.10E-03,1.28E-02
68601,5.44E-03,8.60E-03
68602,7.29E-03,8.91E-03
68603,7.22E-03,3.76E-02
68604,8.81E-03,4.63E-02
68605,8.10E-03,1.25E-02
68606,9.46E-03,1.19E-02
68607,9.08E-03,1.19E-02
68608,8.99E-03,1.19E-02
68609,9.16E-03,1.18E-02
68610,9.20E-03,1.18E-02
68611,9.37E-03,1.17E-02
68612,9.44E-03,1.17E-02
68613,9.40E-03,1.16E-02
68614,9.36E-03,1.15E-02
68615,9.32E-03,1.15E-02
68616,9.27E-03,1.14E-02
68617,9.22E-03,1.13E-02
68618,9.18E-03,1.13E-02
68619,9.12E-03,1.12E-02
68620,9.06E-03,1.11E-02
68621,9.01E-03,1.10E-02
68622,8.95E-03,1.10E-02
68623,8.90E-03,1.09E-02
68624,8.85E-03,1.08E-02
68625,8.81E-03,1.08E-02
68626,8.78E-03,1.07E-02
68627,8.74E-03,1.07E-02
68628,8.71E-03,1.06E-02
68629,8.67E-03,1.06E-02
68630,8.64E-03,1.05E-02
68631,8.62E-03,1.05E-02
68632,8.59E-03,1.04E-02
68633,8.57E-03,1.04E-02
68634,8.55E-03,1.04E-02
68635,8.52E-03,1.03E-02
68636,8.49E-03,1.03E-02
68637,8.44E-03,1.03E-02
68638,8.39E-03,1.03E-02
68639,8.35E-03,1.02E-02
68640,8.33E-03,1.02E-02
68641,8.31E-03,1.02E-02
68642,8.29E-03,1.02E-02
68643,8.27E-03,1.02E-02
68644,8.26E-03,1.02E-02
68645,8.24E-03,1.02E-02
68646,8.23E-03,1.02E-02
68647,8.21E-03,1.02E-02
68648,8.20E-03,1.02E-02
68649,8.18E-03,1.02E-02
68650,8.16E-03,1.02E-02
68651,8.14E-03,1.02E-02
68652,8.12E-03,1.02E-02
68653,8.11E-03,1.02E-02
68654,8.11E-03,1.02E-02
68655,8.10E-03,1.02E-02
68656,8.08E-03,1.02E-02
68657,8.05E-03,1.03E-02
68658,8.02E-03,1.03E-02
68659,7.97E-03,1.03E-02
68660,7.93E-03,1.03E-02
68661,7.90E-03,1.04E-02
68662,7.89E-03,1.04E-02
68663,7.87E-03,1.04E-02
68664,7.83E-03,1.05E-02
68665,7.78E-03,1.05E-02
68666,7.72E-03,1.05E-02
68667,7.65E-03,1.06E-02
68668,7.60E-03,1.06E-02
68669,7.55E-03,1.07E-02
68670,7.50E-03,1.07E-02
68671,7.45E-03,1.08E-02
68672,7.37E-03,1.08E-02
68673,7.29E-03,1.09E-02
68674,7.21E-03,1.09E-02
68675,7.17E-03,1.10E-02
68676,7.16E-03,1.10E-02
68677,7.15E-03,1.11E-02
68678,7.15E-03,1.11E-02
68679,7.17E-03,1.12E-02
68680,7.18E-03,1.12E-02
68681,7.20E-03,1.13E-02
68682,7.24E-03,1.14E-02
68683,7.28E-03,1.14E-02
68684,7.33E-03,1.15E-02
68685,7.37E-03,1.16E-02
68686,7.40E-03,1.17E-02
68687,7.43E-03,1.17E-02
68688,7.45E-03,1.18E-02
68689,7.48E-03,1.19E-02
68690,7.50E-03,1.20E-02
68691,7.53E-03,1.21E-02
68692,7.56E-03,1.22E-02
68693,7.57E-03,1.23E-02
68694,7.57E-03,1.23E-02
68695,7.55E-03,1.24E-02
68696,7.55E-03,1.25E-02
68697,7.60E-03,1.26E-02
68698,7.72E-03,1.28E-02
68699,7.84E-03,1.29E-02
68700,7.93E-03,1.30E-02
68701,7.98E-03,1.31E-02
68702,8.02E-03,1.32E-02
68703,8.06E-03,1.34E-02
68704,8.12E-03,1.35E-02
68705,8.21E-03,1.36E-02
68706,8.14E-03,1.38E-02
68707,8.09E-03,1.39E-02
68708,7.92E-03,1.41E-02
68709,7.86E-03,1.43E-02
68710,7.79E-03,1.44E-02
68711,7.78E-03,1.46E-02
68712,7.73E-03,1.48E-02
68713,7.66E-03,1.50E-02
68714,7.67E-03,1.52E-02
68715,6.90E-03,1.51E-03
68716,7.90E-03,1.74E-02
68717,7.47E-03,1.75E-02
68718,7.06E-03,1.76E-02
68719,7.15E-03,1.76E-02
68720,7.31E-03,1.77E-02
68721,7.42E-03,1.77E-02
68722,7.40E-03,1.77E-02
68723,7.36E-03,1.77E-02
68724,7.38E-03,1.77E-02
68725,7.36E-03,1.77E-02
68726,7.29E-03,1.77E-02
68727,7.27E-03,1.77E-02
68728,7.33E-03,1.77E-02
68729,7.42E-03,1.77E-02
68730,7.51E-03,1.77E-02
68731,7.57E-03,1.77E-02
68732,7.64E-03,1.77E-02
68733,7.75E-03,1.77E-02
68734,7.79E-03,1.77E-02
68735,7.88E-03,1.77E-02
68736,8.02E-03,1.77E-02
68737,8.08E-03,1.77E-02
68738,8.18E-03,1.77E-02
68739,8.23E-03,1.77E-02
68740,8.31E-03,1.77E-02
68741,8.57E-03,1.77E-02
68742,8.62E-03,1.77E-02
68743,8.74E-03,1.77E-02
68744,9.09E-03,1.77E-02
68745,9.17E-03,1.77E-02
68746,9.44E-03,1.77E-02
68747,9.76E-03,1.77E-02
68748,9.73E-03,1.77E-02
68749,9.70E-03,1.77E-02
68750,9.36E-03,1.77E-02
68751,9.23E-03,1.77E-02
68752,9.00E-03,1.77E-02
68753,8.81E-03,1.78E-02
68754,8.59E-03,1.78E-02
68755,8.44E-03,1.78E-02
68756,8.30E-03,1.78E-02
68757,8.23E-03,1.78E-02
68758,8.00E-03,1.79E-02
68759,7.95E-03,1.79E-02
68760,7.90E-03,1.79E-02
68761,7.85E-03,1.79E-02
68762,7.82E-03,1.79E-02
68763,7.81E-03,1.79E-02
68764,7.81E-03,1.79E-02
68765,7.81E-03,1.79E-02
68766,7.81E-03,1.79E-02
68767,7.80E-03,1.79E-02
68768,7.79E-03,1.79E-02
68769,7.79E-03,1.79E-02
68770,7.80E-03,1.79E-02
68771,7.79E-03,1.79E-02
68772,7.81E-03,1.78E-02
68773,7.90E-03,1.78E-02
68774,8.03E-03,1.78E-02
68775,8.10E-03,1.78E-02
68776,8.10E-03,1.77E-02
68777,8.13E-03,1.77E-02
68778,8.20E-03,1.77E-02
68779,8.25E-03,1.77E-02
68780,8.29E-03,1.76E-02
68781,8.34E-03,1.76E-02
68782,8.45E-03,1.76E-02
68783,8.56E-03,1.76E-02
68784,8.72E-03,1.75E-02
68785,9.09E-03,1.75E-02
68786,9.22E-03,1.74E-02
68787,9.40E-03,1.74E-02
68788,9.51E-03,1.74E-02
68789,9.60E-03,1.74E-02
68790,9.37E-03,1.74E-02
68791,9.36E-03,1.74E-02
68792,8.64E-03,1.74E-02
68793,8.52E-03,1.75E-02
68794,8.14E-03,1.75E-02
68795,6.67E-03,1.76E-02
68796,6.47E-03,1.76E-02
68797,6.50E-03,1.76E-02
68798,6.67E-03,1.76E-02
68799,6.88E-03,1.76E-02
68800,7.05E-03,1.76E-02
68801,7.17E-03,1.76E-02
68802,7.29E-03,1.76E-02
68803,7.41E-03,1.75E-02
68804,7.52E-03,1.75E-02
68805,7.62E-03,1.74E-02
68806,7.69E-03,1.73E-02
68807,7.75E-03,1.73E-02
68808,7.80E-03,1.72E-02
68809,7.84E-03,1.71E-02
68810,7.86E-03,1.70E-02
68811,7.88E-03,1.69E-02
68812,7.90E-03,1.68E-02
68813,7.92E-03,1.67E-02
68814,7.94E-03,1.66E-02
68815,7.96E-03,1.65E-02
68816,7.98E-03,1.64E-02
68817,7.99E-03,1.63E-02
68818,8.00E-03,1.62E-02
68819,8.00E-03,1.61E-02
68820,8.00E-03,1.60E-02
68821,8.01E-03,1.58E-02
68822,8.01E-03,1.57E-02
68823,8.02E-03,1.56E-02
68824,8.02E-03,1.54E-02
68825,8.03E-03,1.52E-02
68826,8.03E-03,1.50E-02
68827,8.04E-03,1.48E-02
68828,8.04E-03,1.46E-02
68829,8.04E-03,1.44E-02
68830,8.05E-03,1.41E-02
68831,8.05E-03,1.39E-02
68832,8.05E-03,1.36E-02
68833,8.05E-03,1.33E-02
68834,8.06E-03,1.31E-02
68835,8.06E-03,1.28E-02
68836,8.06E-03,1.26E-02
68837,8.06E-03,1.23E-02
68838,8.07E-03,1.21E-02
68839,8.07E-03,1.18E-02
68840,8.07E-03,1.16E-02
68841,8.07E-03,1.14E-02
68842,8.07E-03,1.13E-02
68843,8.07E-03,1.11E-02
68844,8.07E-03,1.10E-02
68845,8.07E-03,1.08E-02
68846,8.07E-03,1.07E-02
68847,8.07E-03,1.06E-02
68848,8.06E-03,1.06E-02
68849,8.06E-03,1.05E-02
68850,8.06E-03,1.05E-02
68851,8.06E-03,1.05E-02
68852,8.05E-03,1.05E-02
68853,8.05E-03,1.05E-02
68854,8.05E-03,1.05E-02
68855,8.04E-03,1.05E-02
68856,8.04E-03,1.06E-02
68857,8.04E-03,1.06E-02
68858,8.03E-03,1.07E-02
68859,8.02E-03,1.08E-02
68860,8.01E-03,1.09E-02
68861,8.01E-03,1.10E-02
68862,8.00E-03,1.11E-02
68863,7.99E-03,1.12E-02
68864,7.98E-03,1.13E-02
68865,7.97E-03,1.14E-02
68866,7.96E-03,1.16E-02
68867,7.96E-03,1.17E-02
68868,7.95E-03,1.18E-02
68869,7.95E-03,1.20E-02
68870,7.94E-03,1.21E-02
68871,7.94E-03,1.23E-02
68872,7.93E-03,1.24E-02
68873,7.92E-03,1.25E-02
68874,7.91E-03,1.27E-02
68875,7.91E-03,1.28E-02
68876,7.90E-03,1.29E-02
68877,7.89E-03,1.31E-02
68878,7.88E-03,1.32E-02
68879,7.87E-03,1.33E-02
68880,7.85E-03,1.35E-02
68881,7.83E-03,1.36E-02
68882,7.82E-03,1.37E-02
68883,7.80E-03,1.38E-02
68884,7.79E-03,1.40E-02
68885,7.79E-03,1.41E-02
68886,7.79E-03,1.42E-02
68887,7.79E-03,1.43E-02
68888,7.80E-03,1.44E-02
68889,7.80E-03,1.46E-02
68890,7.81E-03,1.47E-02
68891,7.81E-03,1.48E-02
68892,7.82E-03,1.49E-02
68893,7.82E-03,1.50E-02
68894,7.82E-03,1.51E-02
68895,7.83E-03,1.52E-02
68896,7.83E-03,1.54E-02
68897,7.84E-03,1.55E-02
68898,7.84E-03,1.56E-02
68899,7.85E-03,1.57E-02
68900,7.85E-03,1.58E-02
68901,7.85E-03,1.59E-02
68902,7.86E-03,1.60E-02
68903,7.86E-03,1.62E-02
68904,7.87E-03,1.63E-02
68905,7.87E-03,1.64E-02
68906,7.87E-03,1.65E-02
68907,7.87E-03,1.66E-02
68908,7.87E-03,1.67E-02
68909,7.89E-03,1.68E-02
68910,7.90E-03,1.70E-02
68911,7.92E-03,1.71E-02
68912,7.93E-03,1.72E-02
68913,7.93E-03,1.73E-02
68914,7.93E-03,1.74E-02
68915,7.83E-03,1.76E-02
68916,7.73E-03,1.77E-02
68917,7.63E-03,1.78E-02
68918,7.49E-03,1.79E-02
68919,7.36E-03,1.80E-02
68920,7.20E-03,1.81E-02
68921,6.99E-03,1.83E-02
68922,6.76E-03,1.84E-02
68923,6.53E-03,1.85E-02
68924,6.43E-03,1.86E-02
68925,5.67E-03,1.87E-02
68926,5.27E-03,1.88E-02
68927,5.22E-03,1.89E-02
68928,5.56E-03,1.90E-02
68929,5.69E-03,1.91E-02
68930,6.04E-03,1.92E-02
68931,6.25E-03,1.93E-02
68932,6.39E-03,1.95E-02
68933,6.45E-03,1.96E-02
68934,6.48E-03,1.97E-02
68935,6.50E-03,1.98E-02
68936,6.53E-03,1.99E-02
68937,6.56E-03,2.00E-02
68938,6.59E-03,2.01E-02
68939,6.61E-03,2.03E-02
68940,6.60E-03,2.04E-02
68941,6.58E-03,2.05E-02
68942,6.57E-03,2.06E-02
68943,6.56E-03,2.07E-02
68944,6.57E-03,2.08E-02
68945,6.58E-03,2.09E-02
68946,6.59E-03,2.10E-02
68947,6.68E-03,2.11E-02
68948,6.87E-03,2.12E-02
68949,7.08E-03,2.13E-02
68950,7.24E-03,2.14E-02
68951,7.36E-03,2.14E-02
68952,7.46E-03,2.15E-02
68953,7.55E-03,2.16E-02
68954,7.60E-03,2.17E-02
68955,7.60E-03,2.18E-02
68956,7.76E-03,2.19E-02
68957,7.97E-03,2.19E-02
68958,8.05E-03,2.20E-02
68959,8.11E-03,2.21E-02
68960,8.20E-03,2.22E-02
68961,8.32E-03,2.23E-02
68962,8.48E-03,2.24E-02
68963,8.74E-03,2.25E-02
68964,9.02E-03,2.26E-02
68965,9.19E-03,2.27E-02
68966,9.26E-03,2.28E-02
68967,9.19E-03,2.30E-02
68968,9.09E-03,2.31E-02
68969,8.12E-03,2.32E-02
68970,7.98E-03,2.34E-02
68971,7.54E-03,2.35E-02
68972,7.24E-03,2.37E-02
68973,7.23E-03,2.38E-02
68974,4.94E-03,2.40E-02
68975,4.65E-03,2.41E-02
68976,4.48E-03,2.42E-02
68977,4.37E-03,2.42E-02
68978,4.96E-03,2.43E-02
68979,4.87E-03,2.44E-02
68980,5.29E-03,2.44E-02
68981,5.67E-03,2.44E-02
68982,6.04E-03,2.44E-02
68983,6.39E-03,2.43E-02
68984,6.75E-03,2.43E-02
68985,7.09E-03,2.42E-02
68986,7.29E-03,2.42E-02
68987,8.81E-03,2.41E-02
68988,9.80E-03,2.40E-02
68989,9.73E-03,2.40E-02
68990,9.74E-03,2.39E-02
68991,9.55E-03,2.38E-02
68992,9.32E-03,2.37E-02
68993,9.28E-03,2.36E-02
68994,9.12E-03,2.35E-02
68995,8.94E-03,2.34E-02
68996,8.84E-03,2.33E-02
68997,8.75E-03,2.32E-02
68998,8.66E-03,2.31E-02
68999,8.56E-03,2.31E-02
69000,8.46E-03,2.30E-02
69001,8.39E-03,2.29E-02
69002,8.35E-03,2.29E-02
69003,8.32E-03,2.28E-02
69004,8.29E-03,2.28E-02
69005,8.27E-03,2.28E-02
69006,8.25E-03,2.27E-02
69007,8.23E-03,2.27E-02
69008,8.22E-03,2.27E-02
69009,8.22E-03,2.27E-02
69010,8.22E-03,2.27E-02
69011,8.21E-03,2.28E-02
69012,8.19E-03,2.28E-02
69013,8.16E-03,2.28E-02
69014,8.14E-03,2.28E-02
69015,8.13E-03,2.28E-02
69016,8.12E-03,2.29E-02
69017,8.11E-03,2.29E-02
69018,8.11E-03,2.29E-02
69019,8.11E-03,2.30E-02
69020,8.11E-03,2.30E-02
69021,8.11E-03,2.30E-02
69022,8.11E-03,2.30E-02
69023,8.10E-03,2.30E-02
69024,8.10E-03,2.31E-02
69025,8.09E-03,2.31E-02
69026,8.09E-03,2.31E-02
69027,8.08E-03,2.31E-02
69028,8.08E-03,2.31E-02
69029,8.08E-03,2.31E-02
69030,8.08E-03,2.31E-02
69031,8.08E-03,2.30E-02
69032,8.09E-03,2.30E-02
69033,8.10E-03,2.29E-02
69034,8.11E-03,2.29E-02
69035,8.11E-03,2.28E-02
69036,8.12E-03,2.28E-02
69037,8.12E-03,2.27E-02
69038,8.14E-03,2.26E-02
69039,8.15E-03,2.25E-02
69040,8.17E-03,2.24E-02
69041,8.18E-03,2.24E-02
69042,8.19E-03,2.23E-02
69043,8.19E-03,2.22E-02
69044,8.20E-03,2.22E-02
69045,8.21E-03,2.21E-02
69046,8.21E-03,2.21E-02
69047,8.22E-03,2.21E-02
69048,8.23E-03,2.20E-02
69049,8.24E-03,2.20E-02
69050,8.26E-03,2.20E-02
69051,8.28E-03,2.20E-02
69052,8.30E-03,2.20E-02
69053,8.32E-03,2.20E-02
69054,8.33E-03,2.21E-02
69055,8.33E-03,2.21E-02
69056,8.33E-03,2.21E-02
69057,8.32E-03,2.20E-02
69058,8.31E-03,2.20E-02
69059,8.31E-03,2.20E-02
69060,8.30E-03,2.20E-02
69061,8.29E-03,2.19E-02
69062,8.28E-03,2.19E-02
69063,8.28E-03,2.18E-02
69064,8.29E-03,2.17E-02
69065,8.26E-03,2.16E-02
69066,8.21E-03,2.15E-02
69067,8.16E-03,2.14E-02
69068,8.10E-03,2.13E-02
69069,8.06E-03,2.12E-02
69070,8.06E-03,2.12E-02
69071,8.08E-03,2.12E-02
69072,8.07E-03,2.11E-02
69073,8.04E-03,2.11E-02
69074,8.02E-03,2.11E-02
69075,8.00E-03,2.11E-02
69076,7.98E-03,2.11E-02
69077,7.95E-03,2.11E-02
69078,7.92E-03,2.10E-02
69079,7.89E-03,2.10E-02
69080,7.86E-03,2.08E-02
69081,7.84E-03,2.07E-02
69082,7.82E-03,2.05E-02
69083,7.81E-03,2.03E-02
69084,7.80E-03,2.01E-02
69085,7.79E-03,1.99E-02
69086,7.79E-03,1.96E-02
69087,7.78E-03,1.94E-02
69088,7.76E-03,1.91E-02
69089,7.75E-03,1.89E-02
69090,7.73E-03,1.86E-02
69091,7.73E-03,1.83E-02
69092,7.74E-03,1.81E-02
69093,7.75E-03,1.78E-02
69094,7.76E-03,1.75E-02
69095,7.77E-03,1.72E-02
69096,7.78E-03,1.69E-02
69097,7.79E-03,1.67E-02
69098,7.80E-03,1.64E-02
69099,7.81E-03,1.62E-02
69100,7.81E-03,1.60E-02
69101,7.82E-03,1.58E-02
69102,7.82E-03,1.56E-02
69103,7.83E-03,1.54E-02
69104,7.83E-03,1.52E-02
69105,7.83E-03,1.50E-02
69106,7.83E-03,1.48E-02
69107,7.83E-03,1.46E-02
69108,7.82E-03,1.44E-02
69109,7.81E-03,1.41E-02
69110,7.81E-03,1.39E-02
69111,7.80E-03,1.37E-02
69112,7.78E-03,1.35E-02
69113,7.77E-03,1.34E-02
69114,7.75E-03,1.32E-02
69115,7.73E-03,1.30E-02
69116,7.70E-03,1.28E-02
69117,7.68E-03,1.27E-02
69118,7.66E-03,1.25E-02
69119,7.65E-03,1.24E-02
69120,7.66E-03,1.22E-02
69121,7.67E-03,1.21E-02
69122,7.66E-03,1.19E-02
69123,7.66E-03,1.18E-02
69124,7.81E-03,1.16E-02
69125,8.03E-03,1.15E-02
69126,8.18E-03,1.13E-02
69127,8.39E-03,1.12E-02
69128,8.69E-03,1.10E-02
69129,8.93E-03,1.08E-02
69130,9.00E-03,1.07E-02
69131,8.99E-03,1.05E-02
69132,8.97E-03,1.04E-02
69133,8.95E-03,1.02E-02
69134,8.92E-03,1.00E-02
69135,8.89E-03,9.86E-03
69136,8.85E-03,9.69E-03
69137,8.81E-03,9.52E-03
69138,8.79E-03,9.34E-03
69139,8.76E-03,9.16E-03
69140,8.71E-03,8.99E-03
69141,8.67E-03,8.81E-03
69142,8.62E-03,8.64E-03
69143,8.32E-03,8.47E-03
69144,8.09E-03,8.31E-03
69145,7.96E-03,8.16E-03
69146,7.86E-03,8.01E-03
69147,7.62E-03,7.87E-03
69148,7.52E-03,7.74E-03
69149,7.36E-03,7.61E-03
69150,7.15E-03,7.49E-03
69151,6.92E-03,7.37E-03
69152,6.66E-03,7.26E-03
69153,6.45E-03,7.16E-03
69154,6.34E-03,7.06E-03
69155,5.72E-03,6.98E-03
69156,5.30E-03,6.92E-03
69157,5.34E-03,6.86E-03
69158,6.12E-03,6.81E-03
69159,6.38E-03,6.75E-03
69160,6.85E-03,6.68E-03
69161,7.20E-03,6.62E-03
69162,7.57E-03,6.56E-03
69163,7.94E-03,6.50E-03
69164,8.15E-03,6.43E-03
69165,8.73E-03,6.36E-03
69166,9.26E-03,6.28E-03
69167,9.43E-03,6.20E-03
69168,9.48E-03,6.11E-03
69169,9.17E-03,6.01E-03
69170,8.88E-03,5.91E-03
69171,8.71E-03,5.81E-03
69172,8.59E-03,5.71E-03
69173,8.51E-03,5.61E-03
69174,8.41E-03,5.51E-03
69175,8.27E-03,5.42E-03
69176,8.16E-03,5.32E-03
69177,8.12E-03,5.22E-03
69178,8.08E-03,5.13E-03
69179,8.05E-03,5.03E-03
69180,8.01E-03,4.94E-03
69181,7.97E-03,4.85E-03
69182,7.92E-03,4.77E-03
69183,7.89E-03,4.68E-03
69184,7.86E-03,4.60E-03
69185,7.84E-03,4.52E-03
69186,7.82E-03,4.45E-03
69187,7.79E-03,4.37E-03
69188,7.77E-03,4.30E-03
69189,7.73E-03,4.23E-03
69190,7.70E-03,4.16E-03
69191,7.66E-03,4.10E-03
69192,7.62E-03,4.04E-03
69193,7.60E-03,3.98E-03
69194,7.59E-03,3.92E-03
69195,7.59E-03,3.86E-03
69196,7.58E-03,3.81E-03
69197,7.58E-03,3.76E-03
69198,7.58E-03,3.70E-03
69199,7.58E-03,3.65E-03
69200,7.58E-03,3.61E-03
69201,7.57E-03,3.56E-03
69202,7.56E-03,3.51E-03
69203,7.56E-03,3.47E-03
69204,7.55E-03,3.42E-03
69205,7.54E-03,3.38E-03
69206,7.54E-03,3.34E-03
69207,7.55E-03,3.30E-03
69208,7.55E-03,3.26E-03
69209,7.56E-03,3.22E-03
69210,7.57E-03,3.18E-03
69211,7.59E-03,3.15E-03
69212,7.61E-03,3.11E-03
69213,7.62E-03,3.08E-03
69214,7.65E-03,3.04E-03
69215,7.68E-03,3.01E-03
69216,7.71E-03,2.98E-03
69217,7.74E-03,2.95E-03
69218,7.76E-03,2.92E-03
69219,7.78E-03,2.89E-03
69220,7.79E-03,2.86E-03
69221,7.81E-03,2.83E-03
69222,7.82E-03,2.80E-03
69223,7.84E-03,2.77E-03
69224,7.85E-03,2.75E-03
69225,7.86E-03,2.72E-03
69226,7.88E-03,2.69E-03
69227,7.89E-03,2.67E-03
69228,7.90E-03,2.64E-03
69229,7.91E-03,2.61E-03
69230,7.92E-03,2.59E-03
69231,7.93E-03,2.56E-03
69232,7.93E-03,2.54E-03
69233,7.94E-03,2.51E-03
69234,7.95E-03,2.48E-03
69235,7.95E-03,2.46E-03
69236,7.96E-03,2.43E-03
69237,7.96E-03,2.40E-03
69238,7.97E-03,2.38E-03
69239,7.98E-03,2.35E-03
69240,8.00E-03,2.32E-03
69241,8.01E-03,2.29E-03
69242,8.02E-03,2.26E-03
69243,8.03E-03,2.23E-03
69244,8.03E-03,2.20E-03
69245,8.04E-03,2.17E-03
69246,8.04E-03,2.14E-03
69247,8.04E-03,2.11E-03
69248,8.03E-03,2.08E-03
69249,8.02E-03,2.05E-03
69250,8.01E-03,2.01E-03
69251,7.98E-03,1.98E-03
69252,7.93E-03,1.95E-03
69253,7.88E-03,1.92E-03
69254,7.83E-03,1.89E-03
69255,7.78E-03,1.85E-03
69256,7.74E-03,1.82E-03
69257,7.69E-03,1.79E-03
69258,7.62E-03,1.76E-03
69259,7.54E-03,1.73E-03
69260,7.42E-03,1.70E-03
69261,7.26E-03,1.67E-03
69262,7.14E-03,1.64E-03
69263,7.05E-03,1.61E-03
69264,6.98E-03,1.58E-03
69265,6.91E-03,1.56E-03
69266,6.82E-03,1.54E-03
69267,6.72E-03,1.51E-03
69268,6.65E-03,1.50E-03
69269,6.64E-03,1.48E-03
69270,6.70E-03,1.46E-03
69271,6.79E-03,1.45E-03
69272,6.89E-03,1.44E-03
69273,6.97E-03,1.43E-03
69274,7.02E-03,1.42E-03
69275,7.06E-03,1.42E-03
69276,7.10E-03,1.41E-03
69277,7.15E-03,1.41E-03
69278,7.21E-03,1.41E-03
69279,7.27E-03,1.41E-03
69280,7.34E-03,1.41E-03
69281,7.39E-03,1.41E-03
69282,7.44E-03,1.41E-03
69283,7.49E-03,1.41E-03
69284,7.54E-03,1.42E-03
69285,7.57E-03,1.42E-03
69286,7.60E-03,1.42E-03
69287,7.63E-03,1.43E-03
69288,7.66E-03,1.43E-03
69289,7.76E-03,1.44E-03
69290,7.94E-03,1.44E-03
69291,8.09E-03,1.44E-03
69292,8.20E-03,1.45E-03
69293,8.36E-03,1.45E-03
69294,8.51E-03,1.45E-03
69295,8.68E-03,1.44E-03
69296,8.69E-03,1.43E-03
69297,8.31E-03,1.42E-03
69298,8.01E-03,1.41E-03
69299,7.84E-03,1.39E-03
69300,7.60E-03,1.38E-03
69301,7.42E-03,1.36E-03
69302,7.24E-03,1.35E-03
69303,6.97E-03,1.33E-03
69304,6.61E-03,1.32E-03
69305,6.39E-03,1.31E-03
69306,6.37E-03,1.31E-03
69307,6.38E-03,1.31E-03
69308,6.39E-03,1.31E-03
69309,6.41E-03,1.32E-03
69310,6.58E-03,1.33E-03
69311,6.99E-03,1.35E-03
69312,7.36E-03,1.37E-03
69313,7.55E-03,1.39E-03
69314,7.69E-03,1.41E-03
69315,8.09E-03,1.43E-03
69316,8.15E-03,1.44E-03
69317,8.24E-03,1.46E-03
69318,8.39E-03,1.46E-03
69319,8.56E-03,1.46E-03
69320,8.26E-03,1.42E-03
69321,7.19E-03,1.40E-03
69322,8.10E-03,1.25E-02
69323,8.10E-03,1.27E-02
69324,8.10E-03,1.23E-02
69325,8.10E-03,1.21E-02
69326,5.93E-03,7.93E-03
69327,6.39E-03,7.93E-03
69328,8.09E-03,1.20E-02
69329,8.09E-03,1.18E-02
69330,8.09E-03,1.17E-02
69331,8.09E-03,1.15E-02
69332,8.09E-03,1.14E-02
69333,8.09E-03,1.12E-02
69334,8.09E-03,1.10E-02
69335,8.09E-03,1.09E-02
69336,8.09E-03,1.07E-02
69337,8.09E-03,1.05E-02
69338,8.09E-03,1.04E-02
69339,8.09E-03,1.02E-02
69340,8.09E-03,1.00E-02
69341,8.09E-03,9.86E-03
69342,8.09E-03,9.68E-03
69343,8.09E-03,9.50E-03
69344,8.09E-03,9.32E-03
69345,8.09E-03,9.14E-03
69346,8.09E-03,8.95E-03
69347,8.09E-03,8.77E-03
69348,8.09E-03,8.59E-03
69349,8.09E-03,8.40E-03
69350,8.09E-03,8.21E-03
69351,8.09E-03,8.03E-03
69352,8.09E-03,7.84E-03
69353,8.09E-03,7.65E-03
69354,8.09E-03,7.47E-03
69355,8.09E-03,7.28E-03
69356,8.09E-03,7.10E-03
69357,8.09E-03,6.91E-03
69358,8.09E-03,6.73E-03
69359,8.09E-03,6.55E-03
69360,8.09E-03,6.37E-03
69361,8.09E-03,6.20E-03
69362,8.09E-03,6.02E-03
69363,8.09E-03,5.85E-03
69364,8.09E-03,5.69E-03
69365,8.09E-03,5.53E-03
69366,8.09E-03,5.37E-03
69367,8.09E-03,5.22E-03
69368,8.09E-03,5.07E-03
69369,8.09E-03,4.94E-03
69370,8.09E-03,4.81E-03
69371,8.09E-03,4.69E-03
69372,8.09E-03,4.57E-03
69373,8.09E-03,4.47E-03
69374,8.09E-03,4.38E-03
69375,8.09E-03,4.31E-03
69376,8.09E-03,4.24E-03
69377,8.09E-03,4.19E-03
69378,8.09E-03,4.15E-03
69379,8.09E-03,4.13E-03
69380,8.09E-03,4.12E-03
69381,8.09E-03,4.13E-03
69382,8.09E-03,4.15E-03
69383,8.09E-03,4.19E-03
69384,8.09E-03,4.24E-03
69385,8.09E-03,4.31E-03
69386,8.09E-03,4.39E-03
69387,8.09E-03,4.48E-03
69388,8.09E-03,4.58E-03
69389,8.09E-03,4.70E-03
69390,8.09E-03,4.82E-03
69391,8.09E-03,4.95E-03
69392,8.09E-03,5.09E-03
69393,8.09E-03,5.24E-03
69394,8.09E-03,5.40E-03
69395,8.09E-03,5.56E-03
69396,8.09E-03,5.73E-03
69397,8.09E-03,5.91E-03
69398,8.09E-03,6.08E-03
69399,8.09E-03,6.27E-03
69400,8.09E-03,6.45E-03
69401,8.09E-03,6.64E-03
69402,8.09E-03,6.83E-03
69403,8.09E-03,7.03E-03
69404,8.09E-03,7.22E-03
69405,8.09E-03,7.42E-03
69406,8.09E-03,7.62E-03
69407,8.09E-03,7.83E-03
69408,8.09E-03,8.03E-03
69409,8.09E-03,8.23E-03
69410,8.09E-03,8.44E-03
69411,8.09E-03,8.64E-03
69412,8.09E-03,8.85E-03
69413,8.09E-03,9.05E-03
69414,8.09E-03,9.26E-03
69415,8.09E-03,9.47E-03
69416,8.09E-03,9.67E-03
69417,8.09E-03,9.88E-03
69418,8.09E-03,1.01E-02
69419,8.09E-03,1.03E-02
69420,8.09E-03,1.05E-02
69421,8.09E-03,1.07E-02
69422,8.09E-03,1.09E-02
69423,8.09E-03,1.11E-02
69424,8.09E-03,1.13E-02
69425,8.09E-03,1.15E-02
69426,8.09E-03,1.17E-02
69427,8.09E-03,1.19E-02
69428,8.09E-03,1.21E-02
69429,8.09E-03,1.23E-02
69430,8.09E-03,1.25E-02
69431,8.09E-03,1.27E-02
69432,8.09E-03,1.29E-02
69433,8.09E-03,1.31E-02
69434,8.09E-03,1.33E-02
69435,8.09E-03,1.35E-02
69436,8.09E-03,1.37E-02
69437,8.09E-03,1.39E-02
69438,8.09E-03,1.42E-02
69439,8.09E-03,1.44E-02
69440,8.09E-03,1.46E-02
69441,8.09E-03,1.48E-02
69442,8.04E-03,1.50E-02
69443,8.00E-03,1.52E-02
69444,7.93E-03,1.54E-02
69445,7.91E-03,1.56E-02
69446,7.96E-03,1.59E-02
69447,7.87E-03,1.61E-02
69448,7.70E-03,1.63E-02
69449,7.38E-03,1.65E-02
69450,7.21E-03,1.67E-02
69451,7.12E-03,1.69E-02
69452,7.23E-03,1.72E-02
69453,7.77E-03,1.73E-02
69454,8.10E-03,1.26E-02
69455,8.27E-03,5.65E-02
69456,7.73E-03,5.74E-02
69457,7.96E-03,5.77E-02
69458,8.07E-03,5.80E-02
69459,8.13E-03,5.82E-02
69460,8.10E-03,5.85E-02
69461,8.08E-03,5.87E-02
69462,8.05E-03,5.87E-02
69463,8.02E-03,5.87E-02
69464,7.99E-03,5.86E-02
69465,7.96E-03,5.84E-02
69466,7.92E-03,5.82E-02
69467,7.85E-03,5.79E-02
69468,7.74E-03,5.75E-02
69469,7.64E-03,5.71E-02
69470,7.55E-03,5.67E-02
69471,7.48E-03,5.63E-02
69472,7.39E-03,5.58E-02
69473,7.26E-03,5.53E-02
69474,7.17E-03,5.48E-02
69475,7.18E-03,5.43E-02
69476,7.23E-03,5.37E-02
69477,7.28E-03,5.31E-02
69478,7.38E-03,5.24E-02
69479,7.49E-03,5.18E-02
69480,7.55E-03,5.10E-02
69481,7.56E-03,5.03E-02
69482,7.57E-03,4.95E-02
69483,7.58E-03,4.87E-02
69484,7.59E-03,4.78E-02
69485,7.59E-03,4.70E-02
69486,7.58E-03,4.61E-02
69487,7.57E-03,4.52E-02
69488,7.56E-03,4.42E-02
69489,7.54E-03,4.33E-02
69490,7.51E-03,4.23E-02
69491,7.44E-03,4.13E-02
69492,7.37E-03,4.04E-02
69493,7.29E-03,3.94E-02
69494,7.20E-03,3.83E-02
69495,7.09E-03,3.73E-02
69496,6.98E-03,3.63E-02
69497,6.89E-03,3.53E-02
69498,6.86E-03,3.43E-02
69499,6.86E-03,3.33E-02
69500,6.87E-03,3.22E-02
69501,6.89E-03,3.12E-02
69502,6.92E-03,3.01E-02
69503,6.95E-03,2.91E-02
69504,7.02E-03,2.81E-02
69505,7.13E-03,2.70E-02
69506,7.25E-03,2.60E-02
69507,7.36E-03,2.50E-02
69508,7.43E-03,2.40E-02
69509,7.50E-03,2.30E-02
69510,7.55E-03,2.21E-02
69511,7.58E-03,2.12E-02
69512,7.59E-03,2.04E-02
69513,7.60E-03,1.96E-02
69514,7.61E-03,1.89E-02
69515,7.62E-03,1.83E-02
69516,7.62E-03,1.77E-02
69517,7.62E-03,1.72E-02
69518,7.61E-03,1.68E-02
69519,7.58E-03,1.65E-02
69520,7.55E-03,1.62E-02
69521,7.51E-03,1.60E-02
69522,7.48E-03,1.59E-02
69523,7.42E-03,1.59E-02
69524,7.33E-03,1.59E-02
69525,7.29E-03,1.59E-02
69526,7.34E-03,1.60E-02
69527,7.45E-03,1.62E-02
69528,7.54E-03,1.63E-02
69529,7.61E-03,1.65E-02
69530,7.90E-03,1.67E-02
69531,8.20E-03,1.69E-02
69532,8.42E-03,1.72E-02
69533,8.71E-03,1.74E-02
69534,9.16E-03,1.76E-02
69535,9.23E-03,1.79E-02
69536,1.03E-02,1.81E-02
69537,1.03E-02,1.84E-02
69538,1.01E-02,1.87E-02
69539,9.50E-03,1.90E-02
69540,8.76E-03,1.93E-02
69541,8.40E-03,1.95E-02
69542,6.38E-03,1.97E-02
69543,5.81E-03,1.99E-02
69544,6.14E-03,1.99E-02
69545,6.47E-03,2.00E-02
69546,6.77E-03,2.00E-02
69547,7.01E-03,2.00E-02
69548,7.19E-03,2.00E-02
69549,7.34E-03,2.00E-02
69550,7.42E-03,1.99E-02
69551,7.48E-03,1.98E-02
69552,7.51E-03,1.97E-02
69553,7.52E-03,1.95E-02
69554,7.53E-03,1.94E-02
69555,7.54E-03,1.92E-02
69556,7.53E-03,1.90E-02
69557,7.49E-03,1.88E-02
69558,7.53E-03,1.86E-02
69559,7.69E-03,1.84E-02
69560,7.84E-03,1.82E-02
69561,7.91E-03,1.79E-02
69562,7.99E-03,1.77E-02
69563,8.12E-03,1.74E-02
69564,8.24E-03,1.71E-02
69565,8.35E-03,1.69E-02
69566,8.47E-03,1.66E-02
69567,8.61E-03,1.63E-02
69568,8.71E-03,1.60E-02
69569,8.72E-03,1.58E-02
69570,8.68E-03,1.55E-02
69571,8.63E-03,1.52E-02
69572,8.59E-03,1.50E-02
69573,8.55E-03,1.47E-02
69574,8.53E-03,1.44E-02
69575,8.52E-03,1.42E-02
69576,8.50E-03,1.40E-02
69577,8.49E-03,1.37E-02
69578,8.47E-03,1.35E-02
69579,8.45E-03,1.33E-02
69580,8.05E-03,1.30E-02
69581,8.04E-03,1.28E-02
69582,7.82E-03,1.26E-02
69583,7.49E-03,1.25E-02
69584,7.10E-03,1.23E-02
69585,6.90E-03,1.21E-02
69586,8.24E-03,1.19E-02
69587,8.70E-03,5.63E-02
69588,7.32E-03,5.53E-02
69589,8.10E-03,1.27E-02
69590,8.10E-03,1.28E-02
69591,6.54E-03,3.49E-02
69592,5.82E-03,3.46E-02
69593,3.90E-03,3.44E-02
69594,4.14E-03,3.33E-02
69595,6.49E-03,3.25E-02
69596,8.45E-03,3.13E-02
69597,7.97E-03,2.98E-02
69598,8.45E-03,2.85E-02
69599,8.68E-03,2.74E-02
69600,8.53E-03,2.65E-02
69601,8.16E-03,2.56E-02
69602,8.10E-03,2.48E-02
69603,8.13E-03,2.39E-02
69604,8.30E-03,2.29E-02
69605,9.49E-03,2.07E-02
69606,9.12E-03,1.98E-02
69607,8.95E-03,1.90E-02
69608,8.68E-03,1.82E-02
69609,8.47E-03,1.73E-02
69610,8.10E-03,1.65E-02
69611,7.99E-03,1.56E-02
69612,7.99E-03,1.48E-02
69613,7.99E-03,1.40E-02
69614,7.99E-03,1.32E-02
69615,7.99E-03,1.25E-02
69616,7.99E-03,1.18E-02
69617,7.99E-03,1.11E-02
69618,7.94E-03,1.05E-02
69619,7.89E-03,9.88E-03
69620,7.83E-03,9.29E-03
69621,7.75E-03,7.61E-03
69622,8.30E-03,7.14E-03
69623,8.13E-03,6.64E-03
69624,7.97E-03,6.13E-03
69625,7.70E-03,5.64E-03
69626,7.44E-03,5.17E-03
69627,7.17E-03,4.73E-03
69628,6.84E-03,4.32E-03
69629,6.56E-03,3.96E-03
69630,6.33E-03,3.61E-03
69631,6.06E-03,3.33E-03
69632,8.17E-03,3.81E-02
69633,8.81E-03,3.93E-02
69634,8.54E-03,4.10E-02
69635,8.27E-03,4.28E-02
69636,8.17E-03,4.43E-02
69637,8.14E-03,4.56E-02
69638,9.42E-03,4.75E-02
69639,8.99E-03,4.96E-02
69640,8.79E-03,5.13E-02
69641,8.50E-03,5.28E-02
69642,8.06E-03,5.43E-02
69643,8.73E-03,8.17E-03
69644,8.09E-03,1.23E-02
69645,8.09E-03,1.22E-02
69646,8.09E-03,1.20E-02
69647,8.09E-03,1.19E-02
69648,8.09E-03,1.17E-02
69649,8.09E-03,1.15E-02
69650,8.09E-03,1.14E-02
69651,8.09E-03,1.12E-02
69652,8.09E-03,1.10E-02
69653,8.09E-03,1.09E-02
69654,8.09E-03,1.07E-02
69655,8.09E-03,1.05E-02
69656,8.09E-03,1.03E-02
69657,8.09E-03,1.01E-02
69658,8.09E-03,9.94E-03
69659,8.09E-03,9.75E-03
69660,8.09E-03,9.56E-03
69661,8.09E-03,9.37E-03
69662,8.09E-03,9.18E-03
69663,8.09E-03,8.98E-03
69664,8.09E-03,8.79E-03
69665,8.09E-03,8.59E-03
69666,8.09E-03,8.40E-03
69667,8.09E-03,8.20E-03
69668,8.09E-03,8.00E-03
69669,8.09E-03,7.80E-03
69670,8.09E-03,7.61E-03
69671,8.09E-03,7.41E-03
69672,8.09E-03,7.22E-03
69673,8.09E-03,7.02E-03
69674,8.09E-03,6.83E-03
69675,8.09E-03,6.63E-03
69676,8.09E-03,6.44E-03
69677,8.09E-03,6.26E-03
69678,8.09E-03,6.07E-03
69679,8.09E-03,5.89E-03
69680,8.09E-03,5.71E-03
69681,8.09E-03,5.53E-03
69682,8.09E-03,5.36E-03
69683,8.09E-03,5.20E-03
69684,8.09E-03,5.04E-03
69685,8.09E-03,4.89E-03
69686,8.09E-03,4.74E-03
69687,8.09E-03,4.61E-03
69688,8.09E-03,4.48E-03
69689,8.09E-03,4.36E-03
69690,8.09E-03,4.26E-03
69691,8.09E-03,4.17E-03
69692,8.09E-03,4.08E-03
69693,8.09E-03,4.02E-03
69694,8.09E-03,3.97E-03
69695,8.09E-03,3.93E-03
69696,8.09E-03,3.90E-03
69697,8.09E-03,3.90E-03
69698,8.09E-03,3.91E-03
69699,8.09E-03,3.93E-03
69700,8.09E-03,3.97E-03
69701,8.09E-03,4.02E-03
69702,8.09E-03,4.09E-03
69703,8.09E-03,4.17E-03
69704,8.09E-03,4.26E-03
69705,8.09E-03,4.37E-03
69706,8.09E-03,4.48E-03
69707,8.09E-03,4.61E-03
69708,8.09E-03,4.74E-03
69709,8.09E-03,4.88E-03
69710,8.09E-03,5.03E-03
69711,8.09E-03,5.18E-03
69712,8.09E-03,5.34E-03
69713,8.09E-03,5.50E-03
69714,8.09E-03,5.67E-03
69715,8.09E-03,5.84E-03
69716,8.09E-03,6.01E-03
69717,8.09E-03,6.19E-03
69718,8.09E-03,6.37E-03
69719,8.09E-03,6.55E-03
69720,8.09E-03,6.73E-03
69721,8.09E-03,6.92E-03
69722,8.09E-03,7.11E-03
69723,8.09E-03,7.29E-03
69724,8.09E-03,7.48E-03
69725,8.09E-03,7.67E-03
69726,8.09E-03,7.86E-03
69727,8.09E-03,8.04E-03
69728,8.09E-03,8.23E-03
69729,8.09E-03,8.42E-03
69730,8.09E-03,8.61E-03
69731,8.09E-03,8.80E-03
69732,8.09E-03,8.99E-03
69733,8.09E-03,9.17E-03
69734,8.09E-03,9.36E-03
69735,8.09E-03,9.55E-03
69736,8.09E-03,9.73E-03
69737,8.09E-03,9.92E-03
69738,8.09E-03,1.01E-02
69739,8.09E-03,1.03E-02
69740,8.09E-03,1.05E-02
69741,8.09E-03,1.07E-02
69742,8.09E-03,1.08E-02
69743,8.09E-03,1.10E-02
69744,8.09E-03,1.12E-02
69745,8.09E-03,1.14E-02
69746,8.09E-03,1.16E-02
69747,8.09E-03,1.17E-02
69748,8.09E-03,1.19E-02
69749,8.09E-03,1.21E-02
69750,8.09E-03,1.23E-02
69751,8.09E-03,1.25E-02
69752,8.09E-03,1.26E-02
69753,8.09E-03,1.28E-02
69754,8.09E-03,1.30E-02
69755,8.09E-03,1.32E-02
69756,8.09E-03,1.34E-02
69757,8.09E-03,1.35E-02
69758,8.09E-03,1.37E-02
69759,8.04E-03,1.39E-02
69760,7.92E-03,1.41E-02
69761,7.91E-03,1.42E-02
69762,7.77E-03,1.44E-02
69763,7.77E-03,1.46E-02
69764,7.69E-03,1.48E-02
69765,7.65E-03,1.49E-02
69766,7.60E-03,1.51E-02
69767,7.64E-03,1.52E-02
69768,7.57E-03,1.54E-02
69769,9.44E-03,2.96E-03
69770,8.93E-03,2.64E-03
69771,8.85E-03,2.37E-03
69772,8.90E-03,2.11E-03
69773,8.18E-03,1.86E-03
69774,7.84E-03,1.64E-03
69775,7.38E-03,1.43E-03
69776,6.29E-03,1.25E-03
69777,6.94E-03,1.08E-03
69778,7.91E-03,1.10E-03
69779,8.21E-03,1.15E-03
69780,8.35E-03,1.19E-03
69781,8.25E-03,1.20E-03
69782,8.12E-03,1.20E-03
69783,8.07E-03,1.20E-03
69784,7.76E-03,1.19E-03
69785,7.65E-03,1.17E-03
69786,7.49E-03,1.16E-03
69787,7.19E-03,1.15E-03
69788,6.86E-03,1.14E-03
69789,6.72E-03,1.13E-03
69790,6.70E-03,1.13E-03
69791,6.69E-03,1.13E-03
69792,6.68E-03,1.13E-03
69793,6.70E-03,1.14E-03
69794,6.88E-03,1.15E-03
69795,7.17E-03,1.17E-03
69796,7.39E-03,1.18E-03
69797,7.54E-03,1.20E-03
69798,7.69E-03,1.22E-03
69799,7.88E-03,1.24E-03
69800,8.02E-03,1.26E-03
69801,8.27E-03,1.27E-03
69802,8.58E-03,1.29E-03
69803,8.58E-03,1.30E-03
69804,8.43E-03,1.30E-03
69805,8.31E-03,1.31E-03
69806,8.18E-03,1.31E-03
69807,8.09E-03,1.31E-03
69808,7.97E-03,1.31E-03
69809,7.82E-03,1.31E-03
69810,7.74E-03,1.30E-03
69811,7.72E-03,1.30E-03
69812,7.69E-03,1.30E-03
69813,7.67E-03,1.30E-03
69814,7.64E-03,1.29E-03
69815,7.60E-03,1.29E-03
69816,7.56E-03,1.29E-03
69817,7.52E-03,1.29E-03
69818,7.47E-03,1.29E-03
69819,7.42E-03,1.29E-03
69820,7.37E-03,1.29E-03
69821,7.32E-03,1.30E-03
69822,7.28E-03,1.30E-03
69823,7.25E-03,1.30E-03
69824,7.21E-03,1.31E-03
69825,7.17E-03,1.32E-03
69826,7.11E-03,1.33E-03
69827,7.03E-03,1.34E-03
69828,6.95E-03,1.36E-03
69829,6.91E-03,1.37E-03
69830,6.91E-03,1.39E-03
69831,6.97E-03,1.41E-03
69832,7.05E-03,1.43E-03
69833,7.12E-03,1.45E-03
69834,7.18E-03,1.48E-03
69835,7.24E-03,1.51E-03
69836,7.31E-03,1.53E-03
69837,7.42E-03,1.56E-03
69838,7.54E-03,1.59E-03
69839,7.64E-03,1.62E-03
69840,7.71E-03,1.65E-03
69841,7.76E-03,1.68E-03
69842,7.80E-03,1.72E-03
69843,7.84E-03,1.75E-03
69844,7.88E-03,1.78E-03
69845,7.92E-03,1.81E-03
69846,7.96E-03,1.84E-03
69847,8.00E-03,1.87E-03
69848,8.02E-03,1.91E-03
69849,8.03E-03,1.94E-03
69850,8.04E-03,1.97E-03
69851,8.05E-03,2.00E-03
69852,8.05E-03,2.03E-03
69853,8.05E-03,2.06E-03
69854,8.04E-03,2.09E-03
69855,8.04E-03,2.12E-03
69856,8.03E-03,2.15E-03
69857,8.02E-03,2.18E-03
69858,8.01E-03,2.21E-03
69859,8.00E-03,2.24E-03
69860,8.00E-03,2.27E-03
69861,7.99E-03,2.29E-03
69862,7.98E-03,2.32E-03
69863,7.98E-03,2.35E-03
69864,7.97E-03,2.37E-03
69865,7.97E-03,2.40E-03
69866,7.96E-03,2.43E-03
69867,7.96E-03,2.45E-03
69868,7.95E-03,2.48E-03
69869,7.95E-03,2.50E-03
69870,7.94E-03,2.53E-03
69871,7.93E-03,2.55E-03
69872,7.92E-03,2.58E-03
69873,7.91E-03,2.61E-03
69874,7.89E-03,2.63E-03
69875,7.88E-03,2.66E-03
69876,7.87E-03,2.69E-03
69877,7.86E-03,2.71E-03
69878,7.85E-03,2.74E-03
69879,7.84E-03,2.77E-03
69880,7.82E-03,2.80E-03
69881,7.81E-03,2.83E-03
69882,7.78E-03,2.86E-03
69883,7.76E-03,2.89E-03
69884,7.73E-03,2.93E-03
69885,7.71E-03,2.96E-03
69886,7.70E-03,3.00E-03
69887,7.68E-03,3.03E-03
69888,7.67E-03,3.07E-03
69889,7.66E-03,3.10E-03
69890,7.65E-03,3.14E-03
69891,7.65E-03,3.18E-03
69892,7.64E-03,3.22E-03
69893,7.64E-03,3.26E-03
69894,7.65E-03,3.30E-03
69895,7.65E-03,3.35E-03
69896,7.66E-03,3.39E-03
69897,7.67E-03,3.44E-03
69898,7.67E-03,3.48E-03
69899,7.67E-03,3.53E-03
69900,7.68E-03,3.58E-03
69901,7.68E-03,3.63E-03
69902,7.68E-03,3.68E-03
69903,7.68E-03,3.74E-03
69904,7.68E-03,3.79E-03
69905,7.69E-03,3.85E-03
69906,7.71E-03,3.91E-03
69907,7.74E-03,3.97E-03
69908,7.77E-03,4.04E-03
69909,7.80E-03,4.10E-03
69910,7.83E-03,4.17E-03
69911,7.85E-03,4.24E-03
69912,7.87E-03,4.32E-03
69913,7.89E-03,4.39E-03
69914,7.90E-03,4.47E-03
69915,7.92E-03,4.55E-03
69916,7.95E-03,4.64E-03
69917,7.99E-03,4.72E-03
69918,8.03E-03,4.81E-03
69919,8.06E-03,4.90E-03
69920,8.08E-03,4.99E-03
69921,8.11E-03,5.09E-03
69922,8.15E-03,5.18E-03
69923,8.24E-03,5.28E-03
69924,8.35E-03,5.38E-03
69925,8.43E-03,5.48E-03
69926,8.50E-03,5.58E-03
69927,8.60E-03,5.68E-03
69928,8.74E-03,5.78E-03
69929,8.98E-03,5.88E-03
69930,9.23E-03,5.97E-03
69931,9.19E-03,6.07E-03
69932,9.00E-03,6.15E-03
69933,8.72E-03,6.23E-03
69934,8.24E-03,6.31E-03
69935,8.07E-03,6.38E-03
69936,7.73E-03,6.45E-03
69937,7.36E-03,6.51E-03
69938,7.14E-03,6.58E-03
69939,6.65E-03,6.65E-03
69940,6.19E-03,6.71E-03
69941,5.84E-03,6.77E-03
69942,5.81E-03,6.84E-03
69943,5.98E-03,6.91E-03
69944,6.69E-03,6.99E-03
69945,6.73E-03,7.09E-03
69946,6.94E-03,7.20E-03
69947,7.16E-03,7.32E-03
69948,7.36E-03,7.45E-03
69949,7.53E-03,7.57E-03
69950,7.65E-03,7.71E-03
69951,7.71E-03,7.84E-03
69952,7.91E-03,7.99E-03
69953,8.02E-03,8.13E-03
69954,8.10E-03,8.28E-03
69955,8.30E-03,8.44E-03
69956,8.52E-03,8.60E-03
69957,8.57E-03,8.77E-03
69958,8.60E-03,8.94E-03
69959,8.64E-03,9.12E-03
69960,8.66E-03,9.29E-03
69961,8.68E-03,9.47E-03
69962,8.71E-03,9.64E-03
69963,8.74E-03,9.81E-03
69964,8.77E-03,9.97E-03
69965,8.80E-03,1.01E-02
69966,8.81E-03,1.03E-02
69967,8.82E-03,1.04E-02
69968,8.83E-03,1.06E-02
69969,8.78E-03,1.07E-02
69970,8.58E-03,1.09E-02
69971,8.33E-03,1.11E-02
69972,8.17E-03,1.12E-02
69973,8.04E-03,1.14E-02
69974,7.86E-03,1.15E-02
69975,7.74E-03,1.17E-02
69976,7.74E-03,1.19E-02
69977,7.75E-03,1.20E-02
69978,7.74E-03,1.22E-02
69979,7.73E-03,1.23E-02
69980,7.74E-03,1.25E-02
69981,7.75E-03,1.26E-02
69982,7.77E-03,1.28E-02
69983,7.79E-03,1.30E-02
69984,7.81E-03,1.31E-02
69985,7.83E-03,1.33E-02
69986,7.84E-03,1.35E-02
69987,7.85E-03,1.37E-02
69988,7.86E-03,1.39E-02
69989,7.87E-03,1.42E-02
69990,7.87E-03,1.44E-02
69991,7.88E-03,1.46E-02
69992,7.88E-03,1.48E-02
69993,7.88E-03,1.51E-02
69994,7.88E-03,1.53E-02
69995,7.87E-03,1.55E-02
69996,7.87E-03,1.57E-02
69997,7.87E-03,1.58E-02
69998,7.87E-03,1.60E-02
69999,7.86E-03,1.63E-02
70000,7.85E-03,1.65E-02
70001,7.84E-03,1.67E-02
70002,7.84E-03,1.70E-02
70003,7.83E-03,1.73E-02
70004,7.82E-03,1.76E-02
70005,7.81E-03,1.79E-02
70006,7.81E-03,1.81E-02
70007,7.80E-03,1.84E-02
70008,7.80E-03,1.87E-02
70009,7.81E-03,1.90E-02
70010,7.82E-03,1.93E-02
70011,7.83E-03,1.95E-02
70012,7.84E-03,1.98E-02
70013,7.85E-03,2.01E-02
70014,7.85E-03,2.03E-02
70015,7.86E-03,2.06E-02
70016,7.87E-03,2.08E-02
70017,7.88E-03,2.11E-02
70018,7.90E-03,2.13E-02
70019,7.92E-03,2.14E-02
70020,7.95E-03,2.15E-02
70021,7.98E-03,2.16E-02
70022,8.00E-03,2.17E-02
70023,8.02E-03,2.17E-02
70024,8.03E-03,2.17E-02
70025,8.05E-03,2.16E-02
70026,8.07E-03,2.16E-02
70027,8.08E-03,2.16E-02
70028,8.07E-03,2.17E-02
70029,8.07E-03,2.17E-02
70030,8.10E-03,2.18E-02
70031,8.15E-03,2.19E-02
70032,8.19E-03,2.20E-02
70033,8.23E-03,2.21E-02
70034,8.25E-03,2.22E-02
70035,8.25E-03,2.22E-02
70036,8.25E-03,2.23E-02
70037,8.25E-03,2.23E-02
70038,8.26E-03,2.24E-02
70039,8.27E-03,2.24E-02
70040,8.27E-03,2.24E-02
70041,8.28E-03,2.24E-02
70042,8.29E-03,2.24E-02
70043,8.29E-03,2.24E-02
70044,8.29E-03,2.24E-02
70045,8.28E-03,2.23E-02
70046,8.26E-03,2.23E-02
70047,8.24E-03,2.23E-02
70048,8.23E-03,2.23E-02
70049,8.22E-03,2.23E-02
70050,8.21E-03,2.23E-02
70051,8.20E-03,2.23E-02
70052,8.19E-03,2.23E-02
70053,8.19E-03,2.23E-02
70054,8.18E-03,2.24E-02
70055,8.18E-03,2.24E-02
70056,8.17E-03,2.25E-02
70057,8.16E-03,2.26E-02
70058,8.15E-03,2.26E-02
70059,8.14E-03,2.27E-02
70060,8.13E-03,2.28E-02
70061,8.12E-03,2.29E-02
70062,8.11E-03,2.30E-02
70063,8.11E-03,2.31E-02
70064,8.11E-03,2.31E-02
70065,8.10E-03,2.32E-02
70066,8.09E-03,2.32E-02
70067,8.09E-03,2.33E-02
70068,8.08E-03,2.33E-02
70069,8.08E-03,2.33E-02
70070,8.08E-03,2.33E-02
70071,8.08E-03,2.33E-02
70072,8.09E-03,2.33E-02
70073,8.09E-03,2.33E-02
70074,8.10E-03,2.33E-02
70075,8.10E-03,2.33E-02
70076,8.10E-03,2.32E-02
70077,8.11E-03,2.32E-02
70078,8.11E-03,2.32E-02
70079,8.11E-03,2.32E-02
70080,8.11E-03,2.32E-02
70081,8.11E-03,2.31E-02
70082,8.12E-03,2.31E-02
70083,8.13E-03,2.31E-02
70084,8.14E-03,2.31E-02
70085,8.15E-03,2.30E-02
70086,8.17E-03,2.30E-02
70087,8.19E-03,2.30E-02
70088,8.20E-03,2.30E-02
70089,8.20E-03,2.30E-02
70090,8.20E-03,2.30E-02
70091,8.21E-03,2.30E-02
70092,8.22E-03,2.30E-02
70093,8.24E-03,2.30E-02
70094,8.26E-03,2.30E-02
70095,8.28E-03,2.30E-02
70096,8.31E-03,2.31E-02
70097,8.34E-03,2.32E-02
70098,8.40E-03,2.32E-02
70099,8.47E-03,2.33E-02
70100,8.55E-03,2.34E-02
70101,8.63E-03,2.35E-02
70102,8.70E-03,2.36E-02
70103,8.78E-03,2.37E-02
70104,8.88E-03,2.38E-02
70105,9.06E-03,2.39E-02
70106,9.12E-03,2.40E-02
70107,9.31E-03,2.41E-02
70108,9.37E-03,2.42E-02
70109,9.46E-03,2.42E-02
70110,9.56E-03,2.43E-02
70111,8.28E-03,2.44E-02
70112,7.67E-03,2.44E-02
70113,7.35E-03,2.45E-02
70114,7.00E-03,2.46E-02
70115,6.66E-03,2.46E-02
70116,6.32E-03,2.46E-02
70117,6.04E-03,2.46E-02
70118,5.58E-03,2.46E-02
70119,5.43E-03,2.46E-02
70120,5.18E-03,2.46E-02
70121,4.48E-03,2.45E-02
70122,3.98E-03,2.44E-02
70123,4.52E-03,2.43E-02
70124,5.31E-03,2.42E-02
70125,5.93E-03,2.41E-02
70126,6.70E-03,2.40E-02
70127,7.21E-03,2.39E-02
70128,7.55E-03,2.37E-02
70129,7.93E-03,2.36E-02
70130,8.16E-03,2.34E-02
70131,8.80E-03,2.33E-02
70132,9.02E-03,2.31E-02
70133,9.04E-03,2.30E-02
70134,8.99E-03,2.29E-02
70135,8.86E-03,2.28E-02
70136,8.62E-03,2.27E-02
70137,8.41E-03,2.26E-02
70138,8.28E-03,2.25E-02
70139,8.18E-03,2.24E-02
70140,8.11E-03,2.23E-02
70141,8.06E-03,2.22E-02
70142,7.99E-03,2.21E-02
70143,7.82E-03,2.20E-02
70144,7.69E-03,2.20E-02
70145,7.69E-03,2.19E-02
70146,7.65E-03,2.18E-02
70147,7.57E-03,2.17E-02
70148,7.49E-03,2.16E-02
70149,7.40E-03,2.15E-02
70150,7.26E-03,2.14E-02
70151,7.10E-03,2.13E-02
70152,6.94E-03,2.12E-02
70153,6.86E-03,2.11E-02
70154,6.85E-03,2.10E-02
70155,6.85E-03,2.09E-02
70156,6.84E-03,2.08E-02
70157,6.85E-03,2.07E-02
70158,6.86E-03,2.06E-02
70159,6.87E-03,2.05E-02
70160,6.88E-03,2.04E-02
70161,6.87E-03,2.02E-02
70162,6.84E-03,2.01E-02
70163,6.82E-03,2.00E-02
70164,6.79E-03,1.99E-02
70165,6.77E-03,1.97E-02
70166,6.75E-03,1.96E-02
70167,6.70E-03,1.95E-02
70168,6.58E-03,1.94E-02
70169,6.41E-03,1.93E-02
70170,6.22E-03,1.92E-02
70171,5.99E-03,1.91E-02
70172,5.74E-03,1.89E-02
70173,5.72E-03,1.88E-02
70174,6.05E-03,1.87E-02
70175,6.77E-03,1.86E-02
70176,6.87E-03,1.85E-02
70177,7.04E-03,1.84E-02
70178,7.22E-03,1.83E-02
70179,7.39E-03,1.81E-02
70180,7.52E-03,1.80E-02
70181,7.64E-03,1.79E-02
70182,7.71E-03,1.78E-02
70183,7.83E-03,1.77E-02
70184,7.93E-03,1.75E-02
70185,7.96E-03,1.74E-02
70186,7.96E-03,1.73E-02
70187,7.96E-03,1.72E-02
70188,7.95E-03,1.71E-02
70189,7.94E-03,1.70E-02
70190,7.92E-03,1.68E-02
70191,7.91E-03,1.67E-02
70192,7.91E-03,1.66E-02
70193,7.91E-03,1.65E-02
70194,7.91E-03,1.64E-02
70195,7.91E-03,1.63E-02
70196,7.90E-03,1.62E-02
70197,7.90E-03,1.60E-02
70198,7.90E-03,1.59E-02
70199,7.89E-03,1.58E-02
70200,7.89E-03,1.57E-02
70201,7.89E-03,1.56E-02
70202,7.88E-03,1.55E-02
70203,7.88E-03,1.54E-02
70204,7.88E-03,1.53E-02
70205,7.87E-03,1.52E-02
70206,7.87E-03,1.50E-02
70207,7.87E-03,1.49E-02
70208,7.86E-03,1.48E-02
70209,7.86E-03,1.47E-02
70210,7.86E-03,1.46E-02
70211,7.85E-03,1.45E-02
70212,7.85E-03,1.44E-02
70213,7.84E-03,1.42E-02
70214,7.85E-03,1.41E-02
70215,7.85E-03,1.40E-02
70216,7.85E-03,1.39E-02
70217,7.87E-03,1.38E-02
70218,7.88E-03,1.36E-02
70219,7.89E-03,1.35E-02
70220,7.91E-03,1.34E-02
70221,7.92E-03,1.33E-02
70222,7.93E-03,1.31E-02
70223,7.93E-03,1.30E-02
70224,7.94E-03,1.29E-02
70225,7.95E-03,1.27E-02
70226,7.95E-03,1.26E-02
70227,7.96E-03,1.25E-02
70228,7.96E-03,1.23E-02
70229,7.97E-03,1.22E-02
70230,7.97E-03,1.20E-02
70231,7.98E-03,1.19E-02
70232,7.98E-03,1.18E-02
70233,7.99E-03,1.17E-02
70234,7.99E-03,1.15E-02
70235,8.00E-03,1.14E-02
70236,8.01E-03,1.13E-02
70237,8.02E-03,1.12E-02
70238,8.02E-03,1.11E-02
70239,8.03E-03,1.10E-02
70240,8.04E-03,1.09E-02
70241,8.04E-03,1.08E-02
70242,8.05E-03,1.08E-02
70243,8.05E-03,1.07E-02
70244,8.05E-03,1.07E-02
70245,8.05E-03,1.06E-02
70246,8.06E-03,1.06E-02
70247,8.06E-03,1.06E-02
70248,8.06E-03,1.07E-02
70249,8.07E-03,1.07E-02
70250,8.07E-03,1.08E-02
70251,8.07E-03,1.08E-02
70252,8.07E-03,1.09E-02
70253,8.07E-03,1.10E-02
70254,8.07E-03,1.11E-02
70255,8.07E-03,1.12E-02
70256,8.07E-03,1.14E-02
70257,8.07E-03,1.16E-02
70258,8.07E-03,1.18E-02
70259,8.07E-03,1.20E-02
70260,8.07E-03,1.22E-02
70261,8.07E-03,1.24E-02
70262,8.07E-03,1.27E-02
70263,8.07E-03,1.29E-02
70264,8.07E-03,1.32E-02
70265,8.06E-03,1.35E-02
70266,8.06E-03,1.38E-02
70267,8.06E-03,1.41E-02
70268,8.06E-03,1.43E-02
70269,8.05E-03,1.46E-02
70270,8.05E-03,1.48E-02
70271,8.05E-03,1.51E-02
70272,8.05E-03,1.53E-02
70273,8.04E-03,1.55E-02
70274,8.04E-03,1.57E-02
70275,8.04E-03,1.58E-02
70276,8.03E-03,1.60E-02
70277,8.03E-03,1.61E-02
70278,8.02E-03,1.63E-02
70279,8.02E-03,1.64E-02
70280,8.02E-03,1.65E-02
70281,8.01E-03,1.66E-02
70282,8.01E-03,1.67E-02
70283,8.00E-03,1.68E-02
70284,7.99E-03,1.69E-02
70285,7.97E-03,1.70E-02
70286,7.95E-03,1.71E-02
70287,7.94E-03,1.72E-02
70288,7.92E-03,1.73E-02
70289,7.90E-03,1.74E-02
70290,7.89E-03,1.75E-02
70291,7.86E-03,1.76E-02
70292,7.81E-03,1.76E-02
70293,7.76E-03,1.77E-02
70294,7.71E-03,1.78E-02
70295,7.63E-03,1.79E-02
70296,7.53E-03,1.79E-02
70297,7.44E-03,1.80E-02
70298,7.34E-03,1.80E-02
70299,7.24E-03,1.80E-02
70300,7.10E-03,1.80E-02
70301,6.93E-03,1.80E-02
70302,6.79E-03,1.80E-02
70303,6.77E-03,1.80E-02
70304,6.93E-03,1.80E-02
70305,8.22E-03,1.79E-02
70306,8.33E-03,1.79E-02
70307,8.41E-03,1.78E-02
70308,9.17E-03,1.78E-02
70309,9.13E-03,1.78E-02
70310,9.22E-03,1.78E-02
70311,9.22E-03,1.78E-02
70312,9.14E-03,1.78E-02
70313,8.98E-03,1.79E-02
70314,8.84E-03,1.79E-02
70315,8.59E-03,1.80E-02
70316,8.55E-03,1.80E-02
70317,8.35E-03,1.81E-02
70318,8.29E-03,1.81E-02
70319,8.25E-03,1.81E-02
70320,8.22E-03,1.81E-02
70321,8.18E-03,1.81E-02
70322,8.13E-03,1.82E-02
70323,8.10E-03,1.82E-02
70324,8.10E-03,1.82E-02
70325,8.05E-03,1.82E-02
70326,7.94E-03,1.82E-02
70327,7.86E-03,1.83E-02
70328,7.85E-03,1.83E-02
70329,7.86E-03,1.83E-02
70330,7.85E-03,1.83E-02
70331,7.85E-03,1.83E-02
70332,7.85E-03,1.84E-02
70333,7.86E-03,1.84E-02
70334,7.86E-03,1.83E-02
70335,7.87E-03,1.83E-02
70336,7.87E-03,1.83E-02
70337,7.87E-03,1.83E-02
70338,7.90E-03,1.83E-02
70339,7.94E-03,1.83E-02
70340,7.98E-03,1.83E-02
70341,8.02E-03,1.82E-02
70342,8.14E-03,1.82E-02
70343,8.24E-03,1.82E-02
70344,8.35E-03,1.82E-02
70345,8.49E-03,1.81E-02
70346,8.58E-03,1.81E-02
70347,8.86E-03,1.81E-02
70348,9.10E-03,1.81E-02
70349,9.24E-03,1.80E-02
70350,9.41E-03,1.80E-02
70351,9.43E-03,1.80E-02
70352,9.46E-03,1.80E-02
70353,9.27E-03,1.80E-02
70354,8.94E-03,1.80E-02
70355,8.94E-03,1.80E-02
70356,8.63E-03,1.80E-02
70357,8.52E-03,1.80E-02
70358,8.44E-03,1.80E-02
70359,8.32E-03,1.81E-02
70360,8.19E-03,1.81E-02
70361,8.12E-03,1.81E-02
70362,8.08E-03,1.81E-02
70363,8.03E-03,1.81E-02
70364,7.96E-03,1.81E-02
70365,7.86E-03,1.81E-02
70366,7.78E-03,1.81E-02
70367,7.72E-03,1.81E-02
70368,7.67E-03,1.81E-02
70369,7.61E-03,1.81E-02
70370,7.54E-03,1.80E-02
70371,7.47E-03,1.80E-02
70372,7.42E-03,1.80E-02
70373,7.43E-03,1.80E-02
70374,7.49E-03,1.80E-02
70375,7.55E-03,1.80E-02
70376,7.59E-03,1.80E-02
70377,7.56E-03,1.80E-02
70378,7.55E-03,1.80E-02
70379,7.52E-03,1.80E-02
70380,7.45E-03,1.79E-02
70381,7.54E-03,1.78E-02
70382,8.01E-03,1.78E-02
70383,8.10E-03,1.25E-02
70384,8.10E-03,1.27E-02
70385,8.10E-03,1.22E-02
70386,8.09E-03,1.20E-02
70387,8.09E-03,1.19E-02
70388,8.09E-03,1.17E-02
70389,8.09E-03,1.15E-02
70390,8.09E-03,1.14E-02
70391,8.09E-03,1.12E-02
70392,8.09E-03,1.11E-02
70393,8.09E-03,1.09E-02
70394,8.09E-03,1.07E-02
70395,8.09E-03,1.06E-02
70396,8.09E-03,1.04E-02
70397,8.09E-03,1.02E-02
70398,8.09E-03,1.01E-02
70399,8.09E-03,9.88E-03
70400,8.09E-03,9.70E-03
70401,8.09E-03,9.52E-03
70402,8.09E-03,9.34E-03
70403,8.09E-03,9.16E-03
70404,8.09E-03,8.98E-03
70405,8.09E-03,8.79E-03
70406,8.09E-03,8.61E-03
70407,8.09E-03,8.42E-03
70408,8.09E-03,8.23E-03
70409,8.09E-03,8.04E-03
70410,8.09E-03,7.86E-03
70411,8.09E-03,7.67E-03
70412,8.09E-03,7.48E-03
70413,8.09E-03,7.30E-03
70414,8.09E-03,7.11E-03
70415,8.09E-03,6.92E-03
70416,8.09E-03,6.74E-03
70417,8.09E-03,6.56E-03
70418,8.09E-03,6.38E-03
70419,8.09E-03,6.20E-03
70420,8.09E-03,6.03E-03
70421,8.09E-03,5.86E-03
70422,8.09E-03,5.69E-03
70423,8.09E-03,5.53E-03
70424,8.09E-03,5.37E-03
70425,8.09E-03,5.22E-03
70426,8.09E-03,5.07E-03
70427,8.09E-03,4.93E-03
70428,8.09E-03,4.80E-03
70429,8.09E-03,4.68E-03
70430,8.09E-03,4.56E-03
70431,8.09E-03,4.46E-03
70432,8.09E-03,4.37E-03
70433,8.09E-03,4.29E-03
70434,8.09E-03,4.22E-03
70435,8.09E-03,4.17E-03
70436,8.09E-03,4.13E-03
70437,8.09E-03,4.11E-03
70438,8.09E-03,4.10E-03
70439,8.09E-03,4.10E-03
70440,8.09E-03,4.13E-03
70441,8.09E-03,4.16E-03
70442,8.09E-03,4.21E-03
70443,8.09E-03,4.28E-03
70444,8.09E-03,4.35E-03
70445,8.09E-03,4.44E-03
70446,8.09E-03,4.55E-03
70447,8.09E-03,4.66E-03
70448,8.09E-03,4.78E-03
70449,8.09E-03,4.91E-03
70450,8.09E-03,5.05E-03
70451,8.09E-03,5.20E-03
70452,8.09E-03,5.36E-03
70453,8.09E-03,5.52E-03
70454,8.09E-03,5.69E-03
70455,8.09E-03,5.86E-03
70456,8.09E-03,6.04E-03
70457,8.09E-03,6.22E-03
70458,8.09E-03,6.40E-03
70459,8.09E-03,6.59E-03
70460,8.09E-03,6.78E-03
70461,8.09E-03,6.97E-03
70462,8.09E-03,7.17E-03
70463,8.09E-03,7.37E-03
70464,8.09E-03,7.56E-03
70465,8.09E-03,7.76E-03
70466,8.09E-03,7.97E-03
70467,8.09E-03,8.17E-03
70468,8.09E-03,8.37E-03
70469,8.09E-03,8.57E-03
70470,8.09E-03,8.78E-03
70471,8.09E-03,8.98E-03
70472,8.09E-03,9.19E-03
70473,8.09E-03,9.39E-03
70474,8.09E-03,9.59E-03
70475,8.09E-03,9.80E-03
70476,8.09E-03,1.00E-02
70477,8.09E-03,1.02E-02
70478,8.09E-03,1.04E-02
70479,8.09E-03,1.06E-02
70480,8.09E-03,1.08E-02
70481,8.09E-03,1.10E-02
70482,8.09E-03,1.12E-02
70483,8.09E-03,1.14E-02
70484,8.09E-03,1.16E-02
70485,8.09E-03,1.18E-02
70486,8.09E-03,1.20E-02
70487,8.09E-03,1.22E-02
70488,8.09E-03,1.24E-02
70489,8.09E-03,1.26E-02
70490,8.09E-03,1.28E-02
70491,8.09E-03,1.30E-02
70492,8.09E-03,1.32E-02
70493,8.09E-03,1.34E-02
70494,8.09E-03,1.36E-02
70495,8.09E-03,1.38E-02
70496,8.09E-03,1.40E-02
70497,8.09E-03,1.42E-02
70498,8.09E-03,1.44E-02
70499,8.09E-03,1.47E-02
70500,8.09E-03,1.49E-02
70501,8.09E-03,1.51E-02
70502,8.03E-03,1.53E-02
70503,8.00E-03,1.55E-02
70504,7.98E-03,1.57E-02
70505,7.92E-03,1.60E-02
70506,7.76E-03,1.62E-02
70507,7.57E-03,1.64E-02
70508,7.42E-03,1.66E-02
70509,7.43E-03,1.68E-02
70510,7.61E-03,1.70E-02
70511,7.52E-03,1.72E-02
70512,5.99E-03,1.74E-02
70513,9.70E-03,1.75E-02
70514,8.10E-03,1.24E-02
70515,9.17E-03,1.18E-02
70516,9.60E-03,1.17E-02
70517,9.10E-03,1.17E-02
70518,8.91E-03,1.17E-02
70519,9.01E-03,1.17E-02
70520,9.01E-03,1.17E-02
70521,9.12E-03,1.16E-02
70522,9.20E-03,1.16E-02
70523,9.17E-03,1.15E-02
70524,9.13E-03,1.15E-02
70525,9.09E-03,1.14E-02
70526,9.06E-03,1.13E-02
70527,9.02E-03,1.13E-02
70528,8.98E-03,1.12E-02
70529,8.93E-03,1.11E-02
70530,8.89E-03,1.11E-02
70531,8.84E-03,1.10E-02
70532,8.79E-03,1.09E-02
70533,8.75E-03,1.09E-02
70534,8.71E-03,1.08E-02
70535,8.68E-03,1.08E-02
70536,8.65E-03,1.07E-02
70537,8.62E-03,1.07E-02
70538,8.60E-03,1.06E-02
70539,8.57E-03,1.06E-02
70540,8.54E-03,1.05E-02
70541,8.52E-03,1.05E-02
70542,8.50E-03,1.04E-02
70543,8.48E-03,1.04E-02
70544,8.46E-03,1.04E-02
70545,8.44E-03,1.03E-02
70546,8.41E-03,1.03E-02
70547,8.38E-03,1.03E-02
70548,8.34E-03,1.03E-02
70549,8.30E-03,1.02E-02
70550,8.28E-03,1.02E-02
70551,8.27E-03,1.02E-02
70552,8.25E-03,1.02E-02
70553,8.24E-03,1.02E-02
70554,8.23E-03,1.02E-02
70555,8.21E-03,1.02E-02
70556,8.20E-03,1.02E-02
70557,8.19E-03,1.02E-02
70558,8.18E-03,1.02E-02
70559,8.16E-03,1.02E-02
70560,8.14E-03,1.02E-02
70561,8.13E-03,1.02E-02
70562,8.11E-03,1.02E-02
70563,8.11E-03,1.02E-02
70564,8.10E-03,1.02E-02
70565,8.10E-03,1.03E-02
70566,8.08E-03,1.03E-02
70567,8.06E-03,1.03E-02
70568,8.03E-03,1.03E-02
70569,8.00E-03,1.03E-02
70570,7.96E-03,1.04E-02
70571,7.94E-03,1.04E-02
70572,7.93E-03,1.04E-02
70573,7.91E-03,1.05E-02
70574,7.88E-03,1.05E-02
70575,7.84E-03,1.05E-02
70576,7.78E-03,1.06E-02
70577,7.73E-03,1.06E-02
70578,7.69E-03,1.06E-02
70579,7.65E-03,1.07E-02
70580,7.61E-03,1.07E-02
70581,7.56E-03,1.08E-02
70582,7.50E-03,1.08E-02
70583,7.44E-03,1.09E-02
70584,7.37E-03,1.09E-02
70585,7.34E-03,1.10E-02
70586,7.33E-03,1.10E-02
70587,7.32E-03,1.11E-02
70588,7.32E-03,1.12E-02
70589,7.33E-03,1.12E-02
70590,7.35E-03,1.13E-02
70591,7.37E-03,1.14E-02
70592,7.39E-03,1.14E-02
70593,7.43E-03,1.15E-02
70594,7.47E-03,1.16E-02
70595,7.50E-03,1.16E-02
70596,7.53E-03,1.17E-02
70597,7.55E-03,1.18E-02
70598,7.57E-03,1.19E-02
70599,7.59E-03,1.20E-02
70600,7.61E-03,1.21E-02
70601,7.63E-03,1.21E-02
70602,7.66E-03,1.22E-02
70603,7.67E-03,1.23E-02
70604,7.66E-03,1.24E-02
70605,7.65E-03,1.25E-02
70606,7.65E-03,1.26E-02
70607,7.69E-03,1.27E-02
70608,7.79E-03,1.28E-02
70609,7.89E-03,1.30E-02
70610,7.96E-03,1.31E-02
70611,8.00E-03,1.32E-02
70612,8.03E-03,1.33E-02
70613,8.06E-03,1.35E-02
70614,8.11E-03,1.36E-02
70615,8.19E-03,1.37E-02
70616,8.18E-03,1.39E-02
70617,8.11E-03,1.40E-02
70618,7.98E-03,1.42E-02
70619,7.93E-03,1.44E-02
70620,7.80E-03,1.46E-02
70621,7.76E-03,1.47E-02
70622,7.71E-03,1.49E-02
70623,7.67E-03,1.51E-02
70624,7.69E-03,1.53E-02
70625,7.67E-03,1.55E-02
70626,8.10E-03,1.24E-02
70627,8.10E-03,1.26E-02
70628,6.71E-03,5.82E-02
70629,8.78E-03,5.82E-02
70630,8.15E-03,5.93E-02
70631,8.09E-03,5.99E-02
70632,8.10E-03,6.03E-02
70633,8.11E-03,6.07E-02
70634,8.09E-03,6.10E-02
70635,8.07E-03,6.12E-02
70636,8.05E-03,6.12E-02
70637,8.03E-03,6.12E-02
70638,8.00E-03,6.11E-02
70639,7.98E-03,6.08E-02
70640,7.95E-03,6.05E-02
70641,7.89E-03,6.02E-02
70642,7.80E-03,5.98E-02
70643,7.71E-03,5.93E-02
70644,7.64E-03,5.89E-02
70645,7.58E-03,5.84E-02
70646,7.51E-03,5.79E-02
70647,7.41E-03,5.74E-02
70648,7.33E-03,5.69E-02
70649,7.34E-03,5.63E-02
70650,7.38E-03,5.57E-02
70651,7.42E-03,5.51E-02
70652,7.50E-03,5.44E-02
70653,7.59E-03,5.36E-02
70654,7.64E-03,5.29E-02
70655,7.65E-03,5.21E-02
70656,7.66E-03,5.12E-02
70657,7.67E-03,5.03E-02
70658,7.67E-03,4.95E-02
70659,7.67E-03,4.85E-02
70660,7.67E-03,4.76E-02
70661,7.66E-03,4.66E-02
70662,7.65E-03,4.57E-02
70663,7.63E-03,4.47E-02
70664,7.61E-03,4.37E-02
70665,7.55E-03,4.26E-02
70666,7.49E-03,4.16E-02
70667,7.43E-03,4.05E-02
70668,7.36E-03,3.95E-02
70669,7.27E-03,3.84E-02
70670,7.17E-03,3.73E-02
70671,7.10E-03,3.63E-02
70672,7.07E-03,3.52E-02
70673,7.08E-03,3.41E-02
70674,7.08E-03,3.30E-02
70675,7.10E-03,3.18E-02
70676,7.12E-03,3.07E-02
70677,7.15E-03,2.96E-02
70678,7.20E-03,2.85E-02
70679,7.30E-03,2.74E-02
70680,7.40E-03,2.63E-02
70681,7.48E-03,2.52E-02
70682,7.55E-03,2.42E-02
70683,7.60E-03,2.32E-02
70684,7.64E-03,2.22E-02
70685,7.67E-03,2.13E-02
70686,7.67E-03,2.04E-02
70687,7.68E-03,1.96E-02
70688,7.69E-03,1.89E-02
70689,7.69E-03,1.82E-02
70690,7.70E-03,1.76E-02
70691,7.70E-03,1.71E-02
70692,7.69E-03,1.67E-02
70693,7.66E-03,1.64E-02
70694,7.64E-03,1.62E-02
70695,7.61E-03,1.60E-02
70696,7.58E-03,1.59E-02
70697,7.53E-03,1.59E-02
70698,7.46E-03,1.59E-02
70699,7.43E-03,1.60E-02
70700,7.47E-03,1.62E-02
70701,7.56E-03,1.63E-02
70702,7.63E-03,1.65E-02
70703,7.69E-03,1.68E-02
70704,7.95E-03,1.70E-02
70705,8.28E-03,1.72E-02
70706,8.37E-03,1.75E-02
70707,8.57E-03,1.78E-02
70708,8.92E-03,1.80E-02
70709,9.06E-03,1.83E-02
70710,9.76E-03,1.86E-02
70711,9.80E-03,1.89E-02
70712,9.78E-03,1.92E-02
70713,9.28E-03,1.94E-02
70714,9.01E-03,1.97E-02
70715,8.14E-03,2.00E-02
70716,6.40E-03,2.01E-02
70717,6.22E-03,2.03E-02
70718,6.48E-03,2.04E-02
70719,6.75E-03,2.05E-02
70720,7.00E-03,2.05E-02
70721,7.20E-03,2.05E-02
70722,7.35E-03,2.05E-02
70723,7.46E-03,2.04E-02
70724,7.54E-03,2.03E-02
70725,7.58E-03,2.02E-02
70726,7.61E-03,2.01E-02
70727,7.62E-03,1.99E-02
70728,7.62E-03,1.98E-02
70729,7.63E-03,1.96E-02
70730,7.62E-03,1.94E-02
70731,7.59E-03,1.91E-02
70732,7.62E-03,1.89E-02
70733,7.76E-03,1.87E-02
70734,7.88E-03,1.84E-02
70735,7.93E-03,1.81E-02
70736,8.00E-03,1.79E-02
70737,8.10E-03,1.76E-02
70738,8.20E-03,1.73E-02
70739,8.29E-03,1.70E-02
70740,8.40E-03,1.67E-02
70741,8.51E-03,1.64E-02
70742,8.59E-03,1.61E-02
70743,8.59E-03,1.59E-02
70744,8.56E-03,1.56E-02
70745,8.53E-03,1.53E-02
70746,8.49E-03,1.50E-02
70747,8.46E-03,1.48E-02
70748,8.44E-03,1.45E-02
70749,8.43E-03,1.42E-02
70750,8.42E-03,1.40E-02
70751,8.41E-03,1.37E-02
70752,8.40E-03,1.35E-02
70753,8.37E-03,1.33E-02
70754,8.02E-03,1.30E-02
70755,7.97E-03,1.28E-02
70756,7.80E-03,1.26E-02
70757,7.66E-03,1.24E-02
70758,7.52E-03,1.22E-02
70759,7.73E-03,1.21E-02
70760,7.72E-03,1.19E-02
70761,7.69E-03,1.17E-02
70762,8.77E-03,5.69E-02
70763,6.26E-03,5.87E-02
70764,8.10E-03,1.26E-02
70765,8.10E-03,1.26E-02
70766,6.89E-03,1.72E-02
70767,7.42E-03,1.70E-02
70768,7.65E-03,1.69E-02
70769,7.68E-03,1.67E-02
70770,7.76E-03,1.64E-02
70771,7.79E-03,1.62E-02
70772,7.80E-03,1.60E-02
70773,7.93E-03,1.58E-02
70774,7.95E-03,1.56E-02
70775,8.03E-03,1.54E-02
70776,8.09E-03,1.52E-02
70777,8.09E-03,1.50E-02
70778,8.09E-03,1.47E-02
70779,8.09E-03,1.45E-02
70780,8.09E-03,1.43E-02
70781,8.09E-03,1.41E-02
70782,8.09E-03,1.39E-02
70783,8.09E-03,1.37E-02
70784,8.09E-03,1.35E-02
70785,8.09E-03,1.33E-02
70786,8.09E-03,1.31E-02
70787,8.09E-03,1.29E-02
70788,8.09E-03,1.27E-02
70789,8.09E-03,1.25E-02
70790,8.09E-03,1.23E-02
70791,8.09E-03,1.21E-02
70792,8.09E-03,1.19E-02
70793,8.09E-03,1.17E-02
70794,8.09E-03,1.15E-02
70795,8.09E-03,1.13E-02
70796,8.09E-03,1.11E-02
70797,8.09E-03,1.09E-02
70798,8.09E-03,1.07E-02
70799,8.09E-03,1.05E-02
70800,8.09E-03,1.03E-02
70801,8.09E-03,1.01E-02
70802,8.09E-03,9.92E-03
70803,8.09E-03,9.72E-03
70804,8.09E-03,9.52E-03
70805,8.09E-03,9.32E-03
70806,8.09E-03,9.11E-03
70807,8.09E-03,8.91E-03
70808,8.09E-03,8.71E-03
70809,8.09E-03,8.51E-03
70810,8.09E-03,8.31E-03
70811,8.09E-03,8.10E-03
70812,8.09E-03,7.90E-03
70813,8.09E-03,7.70E-03
70814,8.09E-03,7.51E-03
70815,8.09E-03,7.31E-03
70816,8.09E-03,7.11E-03
70817,8.09E-03,6.92E-03
70818,8.09E-03,6.73E-03
70819,8.09E-03,6.54E-03
70820,8.09E-03,6.35E-03
70821,8.09E-03,6.17E-03
70822,8.09E-03,5.99E-03
70823,8.09E-03,5.81E-03
70824,8.09E-03,5.64E-03
70825,8.09E-03,5.48E-03
70826,8.09E-03,5.32E-03
70827,8.09E-03,5.16E-03
70828,8.09E-03,5.01E-03
70829,8.09E-03,4.87E-03
70830,8.09E-03,4.74E-03
70831,8.09E-03,4.62E-03
70832,8.09E-03,4.51E-03
70833,8.09E-03,4.41E-03
70834,8.09E-03,4.32E-03
70835,8.09E-03,4.24E-03
70836,8.09E-03,4.18E-03
70837,8.09E-03,4.13E-03
70838,8.09E-03,4.10E-03
70839,8.09E-03,4.08E-03
70840,8.09E-03,4.08E-03
70841,8.09E-03,4.09E-03
70842,8.09E-03,4.11E-03
70843,8.09E-03,4.15E-03
70844,8.09E-03,4.21E-03
70845,8.09E-03,4.28E-03
70846,8.09E-03,4.36E-03
70847,8.09E-03,4.45E-03
70848,8.09E-03,4.55E-03
70849,8.09E-03,4.67E-03
70850,8.09E-03,4.79E-03
70851,8.09E-03,4.93E-03
70852,8.09E-03,5.07E-03
70853,8.09E-03,5.21E-03
70854,8.09E-03,5.37E-03
70855,8.09E-03,5.53E-03
70856,8.09E-03,5.69E-03
70857,8.09E-03,5.86E-03
70858,8.09E-03,6.03E-03
70859,8.09E-03,6.21E-03
70860,8.09E-03,6.39E-03
70861,8.09E-03,6.57E-03
70862,8.09E-03,6.75E-03
70863,8.09E-03,6.94E-03
70864,8.09E-03,7.12E-03
70865,8.09E-03,7.31E-03
70866,8.09E-03,7.50E-03
70867,8.09E-03,7.68E-03
70868,8.09E-03,7.87E-03
70869,8.09E-03,8.06E-03
70870,8.09E-03,8.25E-03
70871,8.09E-03,8.44E-03
70872,8.09E-03,8.63E-03
70873,8.09E-03,8.81E-03
70874,8.09E-03,9.00E-03
70875,8.09E-03,9.18E-03
70876,8.09E-03,9.37E-03
70877,8.09E-03,9.55E-03
70878,8.09E-03,9.73E-03
70879,8.09E-03,9.91E-03
70880,8.09E-03,1.01E-02
70881,8.09E-03,1.03E-02
70882,8.09E-03,1.04E-02
70883,8.09E-03,1.06E-02
70884,8.09E-03,1.08E-02
70885,8.09E-03,1.09E-02
70886,8.09E-03,1.11E-02
70887,8.09E-03,1.13E-02
70888,8.09E-03,1.14E-02
70889,8.09E-03,1.16E-02
70890,8.09E-03,1.17E-02
70891,8.09E-03,1.19E-02
70892,8.09E-03,1.20E-02
70893,6.39E-03,3.56E-02
70894,5.72E-03,3.41E-02
70895,5.61E-03,3.24E-02
70896,6.42E-03,3.10E-02
70897,7.40E-03,3.02E-02
70898,7.71E-03,2.92E-02
70899,8.34E-03,2.82E-02
70900,8.49E-03,2.74E-02
70901,8.38E-03,2.66E-02
70902,8.24E-03,2.59E-02
70903,8.23E-03,2.51E-02
70904,8.36E-03,2.42E-02
70905,8.66E-03,2.32E-02
70906,9.93E-03,2.19E-02
70907,1.02E-02,2.12E-02
70908,9.19E-03,2.02E-02
70909,8.82E-03,1.93E-02
70910,8.62E-03,1.84E-02
70911,8.39E-03,1.74E-02
70912,8.10E-03,1.64E-02
70913,8.03E-03,1.54E-02
70914,7.99E-03,1.45E-02
70915,7.99E-03,1.36E-02
70916,7.99E-03,1.29E-02
70917,7.99E-03,1.21E-02
70918,7.99E-03,1.14E-02
70919,8.04E-03,1.08E-02
70920,8.10E-03,1.01E-02
70921,8.09E-03,9.50E-03
70922,8.20E-03,8.86E-03
70923,8.99E-03,7.49E-03
70924,8.45E-03,6.88E-03
70925,8.23E-03,6.31E-03
70926,7.95E-03,5.74E-03
70927,7.76E-03,5.20E-03
70928,7.54E-03,4.69E-03
70929,7.32E-03,4.23E-03
70930,7.11E-03,3.81E-03
70931,6.95E-03,3.45E-03
70932,6.90E-03,3.13E-03
70933,7.34E-03,2.89E-03
70934,8.69E-03,2.67E-03
70935,9.50E-03,2.54E-03
70936,8.87E-03,2.28E-03
70937,8.76E-03,2.02E-03
70938,8.64E-03,1.78E-03
70939,8.05E-03,1.55E-03
70940,7.69E-03,1.34E-03
70941,7.26E-03,1.15E-03
70942,6.73E-03,9.91E-04
70943,6.45E-03,8.62E-04
70944,7.26E-03,7.62E-04
70945,7.19E-03,1.74E-02
70946,9.96E-03,1.77E-02
70947,8.15E-03,1.80E-02
70948,7.85E-03,1.81E-02
70949,7.70E-03,1.82E-02
70950,7.66E-03,1.83E-02
70951,7.68E-03,1.83E-02
70952,7.73E-03,1.84E-02
70953,7.70E-03,1.84E-02
70954,7.67E-03,1.84E-02
70955,7.63E-03,1.84E-02
70956,7.58E-03,1.84E-02
70957,7.57E-03,1.84E-02
70958,7.61E-03,1.84E-02
70959,7.67E-03,1.84E-02
70960,7.72E-03,1.84E-02
70961,7.76E-03,1.84E-02
70962,7.80E-03,1.84E-02
70963,7.85E-03,1.85E-02
70964,7.91E-03,1.85E-02
70965,7.99E-03,1.85E-02
70966,8.05E-03,1.84E-02
70967,8.08E-03,1.84E-02
70968,8.12E-03,1.84E-02
70969,8.17E-03,1.84E-02
70970,8.27E-03,1.84E-02
70971,8.36E-03,1.84E-02
70972,8.43E-03,1.84E-02
70973,8.51E-03,1.84E-02
70974,8.70E-03,1.84E-02
70975,8.77E-03,1.83E-02
70976,9.05E-03,1.83E-02
70977,9.16E-03,1.83E-02
70978,9.14E-03,1.83E-02
70979,9.12E-03,1.84E-02
70980,9.05E-03,1.84E-02
70981,8.99E-03,1.84E-02
70982,8.74E-03,1.84E-02
70983,8.41E-03,1.85E-02
70984,8.37E-03,1.85E-02
70985,8.27E-03,1.85E-02
70986,8.19E-03,1.85E-02
70987,8.07E-03,1.86E-02
70988,8.04E-03,1.86E-02
70989,8.00E-03,1.86E-02
70990,7.97E-03,1.87E-02
70991,7.94E-03,1.87E-02
70992,7.92E-03,1.87E-02
70993,7.92E-03,1.87E-02
70994,7.92E-03,1.88E-02
70995,7.92E-03,1.88E-02
70996,7.91E-03,1.88E-02
70997,7.91E-03,1.88E-02
70998,7.90E-03,1.88E-02
70999,7.90E-03,1.88E-02
71000,7.91E-03,1.88E-02
71001,7.90E-03,1.87E-02
71002,7.91E-03,1.87E-02
71003,7.97E-03,1.87E-02
71004,8.06E-03,1.87E-02
71005,8.10E-03,1.87E-02
71006,8.10E-03,1.86E-02
71007,8.12E-03,1.86E-02
71008,8.16E-03,1.86E-02
71009,8.19E-03,1.86E-02
71010,8.22E-03,1.86E-02
71011,8.25E-03,1.86E-02
71012,8.29E-03,1.85E-02
71013,8.45E-03,1.85E-02
71014,8.52E-03,1.85E-02
71015,8.62E-03,1.84E-02
71016,8.77E-03,1.83E-02
71017,8.94E-03,1.83E-02
71018,9.00E-03,1.82E-02
71019,9.04E-03,1.82E-02
71020,8.96E-03,1.82E-02
71021,8.97E-03,1.82E-02
71022,8.39E-03,1.82E-02
71023,8.16E-03,1.83E-02
71024,8.16E-03,1.83E-02
71025,7.19E-03,1.84E-02
71026,7.06E-03,1.84E-02
71027,7.08E-03,1.84E-02
71028,7.19E-03,1.84E-02
71029,7.32E-03,1.84E-02
71030,7.43E-03,1.84E-02
71031,7.51E-03,1.84E-02
71032,7.58E-03,1.84E-02
71033,7.66E-03,1.83E-02
71034,7.73E-03,1.83E-02
71035,7.79E-03,1.82E-02
71036,7.84E-03,1.81E-02
71037,7.88E-03,1.80E-02
71038,7.91E-03,1.79E-02
71039,7.93E-03,1.78E-02
71040,7.95E-03,1.77E-02
71041,7.96E-03,1.76E-02
71042,7.97E-03,1.75E-02
71043,7.98E-03,1.74E-02
71044,8.00E-03,1.73E-02
71045,8.01E-03,1.73E-02
71046,8.02E-03,1.72E-02
71047,8.03E-03,1.71E-02
71048,8.03E-03,1.70E-02
71049,8.03E-03,1.69E-02
71050,8.04E-03,1.68E-02
71051,8.04E-03,1.67E-02
71052,8.04E-03,1.66E-02
71053,8.05E-03,1.65E-02
71054,8.05E-03,1.63E-02
71055,8.05E-03,1.61E-02
71056,8.06E-03,1.60E-02
71057,8.06E-03,1.58E-02
71058,8.06E-03,1.55E-02
71059,8.06E-03,1.53E-02
71060,8.06E-03,1.51E-02
71061,8.07E-03,1.48E-02
71062,8.07E-03,1.45E-02
71063,8.07E-03,1.42E-02
71064,8.07E-03,1.39E-02
71065,8.07E-03,1.36E-02
71066,8.07E-03,1.34E-02
71067,8.08E-03,1.31E-02
71068,8.08E-03,1.28E-02
71069,8.08E-03,1.26E-02
71070,8.08E-03,1.23E-02
71071,8.08E-03,1.21E-02
71072,8.08E-03,1.19E-02
71073,8.08E-03,1.17E-02
71074,8.08E-03,1.16E-02
71075,8.08E-03,1.14E-02
71076,8.08E-03,1.13E-02
71077,8.08E-03,1.12E-02
71078,8.08E-03,1.11E-02
71079,8.07E-03,1.10E-02
71080,8.07E-03,1.09E-02
71081,8.07E-03,1.09E-02
71082,8.07E-03,1.08E-02
71083,8.07E-03,1.08E-02
71084,8.06E-03,1.08E-02
71085,8.06E-03,1.08E-02
71086,8.06E-03,1.09E-02
71087,8.06E-03,1.09E-02
71088,8.05E-03,1.09E-02
71089,8.05E-03,1.10E-02
71090,8.04E-03,1.11E-02
71091,8.04E-03,1.12E-02
71092,8.03E-03,1.13E-02
71093,8.03E-03,1.14E-02
71094,8.02E-03,1.15E-02
71095,8.02E-03,1.16E-02
71096,8.01E-03,1.17E-02
71097,8.01E-03,1.19E-02
71098,8.00E-03,1.20E-02
71099,8.00E-03,1.21E-02
71100,8.00E-03,1.22E-02
71101,7.99E-03,1.24E-02
71102,7.99E-03,1.25E-02
71103,7.99E-03,1.27E-02
71104,7.98E-03,1.28E-02
71105,7.98E-03,1.29E-02
71106,7.97E-03,1.30E-02
71107,7.96E-03,1.32E-02
71108,7.96E-03,1.33E-02
71109,7.95E-03,1.34E-02
71110,7.94E-03,1.36E-02
71111,7.93E-03,1.37E-02
71112,7.92E-03,1.38E-02
71113,7.91E-03,1.39E-02
71114,7.90E-03,1.40E-02
71115,7.90E-03,1.42E-02
71116,7.90E-03,1.43E-02
71117,7.90E-03,1.44E-02
71118,7.90E-03,1.45E-02
71119,7.91E-03,1.46E-02
71120,7.91E-03,1.47E-02
71121,7.92E-03,1.48E-02
71122,7.92E-03,1.50E-02
71123,7.92E-03,1.51E-02
71124,7.92E-03,1.52E-02
71125,7.93E-03,1.53E-02
71126,7.93E-03,1.54E-02
71127,7.93E-03,1.55E-02
71128,7.93E-03,1.56E-02
71129,7.94E-03,1.57E-02
71130,7.94E-03,1.58E-02
71131,7.94E-03,1.59E-02
71132,7.94E-03,1.61E-02
71133,7.95E-03,1.62E-02
71134,7.95E-03,1.63E-02
71135,7.95E-03,1.64E-02
71136,7.95E-03,1.65E-02
71137,7.95E-03,1.66E-02
71138,7.95E-03,1.67E-02
71139,7.96E-03,1.68E-02
71140,7.97E-03,1.70E-02
71141,7.98E-03,1.71E-02
71142,7.99E-03,1.72E-02
71143,7.99E-03,1.73E-02
71144,7.99E-03,1.74E-02
71145,7.97E-03,1.75E-02
71146,7.94E-03,1.76E-02
71147,7.83E-03,1.78E-02
71148,7.75E-03,1.79E-02
71149,7.67E-03,1.80E-02
71150,7.57E-03,1.81E-02
71151,7.43E-03,1.82E-02
71152,7.29E-03,1.84E-02
71153,7.10E-03,1.85E-02
71154,6.92E-03,1.86E-02
71155,6.51E-03,1.87E-02
71156,6.25E-03,1.89E-02
71157,6.27E-03,1.90E-02
71158,6.46E-03,1.91E-02
71159,6.64E-03,1.92E-02
71160,6.79E-03,1.93E-02
71161,6.92E-03,1.94E-02
71162,7.01E-03,1.96E-02
71163,7.05E-03,1.97E-02
71164,7.07E-03,1.98E-02
71165,7.08E-03,1.99E-02
71166,7.10E-03,2.01E-02
71167,7.12E-03,2.02E-02
71168,7.14E-03,2.03E-02
71169,7.15E-03,2.05E-02
71170,7.14E-03,2.06E-02
71171,7.13E-03,2.07E-02
71172,7.12E-03,2.08E-02
71173,7.12E-03,2.09E-02
71174,7.12E-03,2.11E-02
71175,7.13E-03,2.12E-02
71176,7.14E-03,2.13E-02
71177,7.19E-03,2.14E-02
71178,7.32E-03,2.15E-02
71179,7.45E-03,2.16E-02
71180,7.55E-03,2.17E-02
71181,7.63E-03,2.18E-02
71182,7.69E-03,2.19E-02
71183,7.75E-03,2.20E-02
71184,7.78E-03,2.21E-02
71185,7.78E-03,2.21E-02
71186,7.88E-03,2.22E-02
71187,8.01E-03,2.23E-02
71188,8.07E-03,2.24E-02
71189,8.11E-03,2.25E-02
71190,8.16E-03,2.26E-02
71191,8.24E-03,2.27E-02
71192,8.34E-03,2.28E-02
71193,8.50E-03,2.29E-02
71194,8.69E-03,2.30E-02
71195,8.79E-03,2.31E-02
71196,8.83E-03,2.32E-02
71197,8.87E-03,2.33E-02
71198,8.64E-03,2.34E-02
71199,8.15E-03,2.36E-02
71200,7.91E-03,2.37E-02
71201,7.63E-03,2.39E-02
71202,7.25E-03,2.40E-02
71203,6.77E-03,2.42E-02
71204,6.30E-03,2.43E-02
71205,5.87E-03,2.44E-02
71206,5.61E-03,2.45E-02
71207,4.94E-03,2.46E-02
71208,5.41E-03,2.47E-02
71209,5.73E-03,2.48E-02
71210,5.87E-03,2.48E-02
71211,6.10E-03,2.49E-02
71212,6.32E-03,2.49E-02
71213,6.68E-03,2.49E-02
71214,6.93E-03,2.49E-02
71215,7.24E-03,2.48E-02
71216,7.56E-03,2.48E-02
71217,7.87E-03,2.47E-02
71218,8.08E-03,2.47E-02
71219,9.24E-03,2.46E-02
71220,9.23E-03,2.45E-02
71221,9.09E-03,2.44E-02
71222,9.06E-03,2.43E-02
71223,8.90E-03,2.42E-02
71224,8.79E-03,2.42E-02
71225,8.71E-03,2.41E-02
71226,8.63E-03,2.39E-02
71227,8.57E-03,2.38E-02
71228,8.51E-03,2.37E-02
71229,8.45E-03,2.36E-02
71230,8.39E-03,2.36E-02
71231,8.33E-03,2.35E-02
71232,8.29E-03,2.34E-02
71233,8.26E-03,2.33E-02
71234,8.24E-03,2.33E-02
71235,8.22E-03,2.32E-02
71236,8.21E-03,2.32E-02
71237,8.19E-03,2.32E-02
71238,8.18E-03,2.32E-02
71239,8.18E-03,2.32E-02
71240,8.18E-03,2.32E-02
71241,8.18E-03,2.32E-02
71242,8.17E-03,2.32E-02
71243,8.16E-03,2.33E-02
71244,8.14E-03,2.33E-02
71245,8.13E-03,2.33E-02
71246,8.12E-03,2.33E-02
71247,8.11E-03,2.33E-02
71248,8.11E-03,2.34E-02
71249,8.11E-03,2.34E-02
71250,8.11E-03,2.34E-02
71251,8.11E-03,2.34E-02
71252,8.10E-03,2.34E-02
71253,8.10E-03,2.35E-02
71254,8.10E-03,2.35E-02
71255,8.10E-03,2.35E-02
71256,8.09E-03,2.35E-02
71257,8.09E-03,2.35E-02
71258,8.09E-03,2.35E-02
71259,8.08E-03,2.35E-02
71260,8.08E-03,2.35E-02
71261,8.08E-03,2.35E-02
71262,8.09E-03,2.35E-02
71263,8.09E-03,2.34E-02
71264,8.10E-03,2.34E-02
71265,8.10E-03,2.33E-02
71266,8.10E-03,2.33E-02
71267,8.11E-03,2.32E-02
71268,8.11E-03,2.31E-02
71269,8.12E-03,2.30E-02
71270,8.13E-03,2.29E-02
71271,8.14E-03,2.28E-02
71272,8.15E-03,2.27E-02
71273,8.15E-03,2.27E-02
71274,8.16E-03,2.26E-02
71275,8.16E-03,2.25E-02
71276,8.17E-03,2.25E-02
71277,8.17E-03,2.25E-02
71278,8.18E-03,2.25E-02
71279,8.18E-03,2.25E-02
71280,8.19E-03,2.25E-02
71281,8.20E-03,2.25E-02
71282,8.21E-03,2.26E-02
71283,8.22E-03,2.26E-02
71284,8.24E-03,2.26E-02
71285,8.25E-03,2.27E-02
71286,8.25E-03,2.27E-02
71287,8.25E-03,2.27E-02
71288,8.24E-03,2.27E-02
71289,8.23E-03,2.28E-02
71290,8.23E-03,2.28E-02
71291,8.23E-03,2.28E-02
71292,8.22E-03,2.28E-02
71293,8.21E-03,2.27E-02
71294,8.22E-03,2.27E-02
71295,8.22E-03,2.27E-02
71296,8.20E-03,2.26E-02
71297,8.17E-03,2.25E-02
71298,8.13E-03,2.24E-02
71299,8.10E-03,2.23E-02
71300,8.08E-03,2.23E-02
71301,8.08E-03,2.22E-02
71302,8.08E-03,2.22E-02
71303,8.08E-03,2.22E-02
71304,8.06E-03,2.22E-02
71305,8.05E-03,2.23E-02
71306,8.03E-03,2.23E-02
71307,8.02E-03,2.23E-02
71308,8.01E-03,2.22E-02
71309,7.99E-03,2.21E-02
71310,7.96E-03,2.19E-02
71311,7.94E-03,2.17E-02
71312,7.93E-03,2.14E-02
71313,7.92E-03,2.12E-02
71314,7.91E-03,2.09E-02
71315,7.91E-03,2.06E-02
71316,7.90E-03,2.03E-02
71317,7.90E-03,2.00E-02
71318,7.89E-03,1.97E-02
71319,7.88E-03,1.94E-02
71320,7.87E-03,1.91E-02
71321,7.87E-03,1.88E-02
71322,7.87E-03,1.85E-02
71323,7.87E-03,1.82E-02
71324,7.88E-03,1.79E-02
71325,7.88E-03,1.76E-02
71326,7.89E-03,1.73E-02
71327,7.89E-03,1.70E-02
71328,7.90E-03,1.67E-02
71329,7.91E-03,1.65E-02
71330,7.91E-03,1.63E-02
71331,7.92E-03,1.61E-02
71332,7.92E-03,1.59E-02
71333,7.92E-03,1.57E-02
71334,7.92E-03,1.55E-02
71335,7.93E-03,1.53E-02
71336,7.93E-03,1.51E-02
71337,7.93E-03,1.49E-02
71338,7.93E-03,1.47E-02
71339,7.92E-03,1.44E-02
71340,7.92E-03,1.42E-02
71341,7.91E-03,1.40E-02
71342,7.90E-03,1.37E-02
71343,7.90E-03,1.35E-02
71344,7.89E-03,1.33E-02
71345,7.88E-03,1.31E-02
71346,7.86E-03,1.29E-02
71347,7.84E-03,1.28E-02
71348,7.83E-03,1.26E-02
71349,7.82E-03,1.24E-02
71350,7.81E-03,1.23E-02
71351,7.82E-03,1.21E-02
71352,7.83E-03,1.19E-02
71353,7.82E-03,1.18E-02
71354,7.82E-03,1.16E-02
71355,7.91E-03,1.14E-02
71356,8.05E-03,1.13E-02
71357,8.15E-03,1.11E-02
71358,8.28E-03,1.09E-02
71359,8.48E-03,1.08E-02
71360,8.63E-03,1.06E-02
71361,8.67E-03,1.05E-02
71362,8.66E-03,1.03E-02
71363,8.65E-03,1.02E-02
71364,8.64E-03,1.00E-02
71365,8.62E-03,9.90E-03
71366,8.60E-03,9.75E-03
71367,8.57E-03,9.59E-03
71368,8.55E-03,9.42E-03
71369,8.54E-03,9.25E-03
71370,8.52E-03,9.08E-03
71371,8.49E-03,8.90E-03
71372,8.46E-03,8.73E-03
71373,8.43E-03,8.57E-03
71374,8.29E-03,8.41E-03
71375,8.11E-03,8.26E-03
71376,8.06E-03,8.12E-03
71377,7.97E-03,7.97E-03
71378,7.79E-03,7.84E-03
71379,7.78E-03,7.70E-03
71380,7.68E-03,7.56E-03
71381,7.56E-03,7.43E-03
71382,7.43E-03,7.29E-03
71383,7.19E-03,7.16E-03
71384,7.01E-03,7.04E-03
71385,6.83E-03,6.94E-03
71386,6.45E-03,6.85E-03
71387,6.32E-03,6.77E-03
71388,6.34E-03,6.69E-03
71389,6.54E-03,6.62E-03
71390,6.89E-03,6.55E-03
71391,7.24E-03,6.48E-03
71392,7.49E-03,6.40E-03
71393,7.88E-03,6.33E-03
71394,8.11E-03,6.25E-03
71395,8.38E-03,6.18E-03
71396,8.53E-03,6.10E-03
71397,8.87E-03,6.02E-03
71398,9.01E-03,5.93E-03
71399,8.98E-03,5.84E-03
71400,8.78E-03,5.74E-03
71401,8.59E-03,5.64E-03
71402,8.49E-03,5.55E-03
71403,8.41E-03,5.45E-03
71404,8.36E-03,5.35E-03
71405,8.30E-03,5.25E-03
71406,8.21E-03,5.15E-03
71407,8.14E-03,5.05E-03
71408,8.11E-03,4.95E-03
71409,8.09E-03,4.86E-03
71410,8.07E-03,4.77E-03
71411,8.04E-03,4.68E-03
71412,8.01E-03,4.59E-03
71413,7.98E-03,4.50E-03
71414,7.96E-03,4.42E-03
71415,7.95E-03,4.34E-03
71416,7.93E-03,4.26E-03
71417,7.92E-03,4.19E-03
71418,7.90E-03,4.11E-03
71419,7.89E-03,4.04E-03
71420,7.86E-03,3.98E-03
71421,7.84E-03,3.91E-03
71422,7.82E-03,3.85E-03
71423,7.79E-03,3.79E-03
71424,7.78E-03,3.73E-03
71425,7.77E-03,3.67E-03
71426,7.77E-03,3.62E-03
71427,7.77E-03,3.56E-03
71428,7.77E-03,3.51E-03
71429,7.77E-03,3.46E-03
71430,7.77E-03,3.41E-03
71431,7.76E-03,3.36E-03
71432,7.76E-03,3.32E-03
71433,7.76E-03,3.27E-03
71434,7.75E-03,3.23E-03
71435,7.75E-03,3.19E-03
71436,7.74E-03,3.15E-03
71437,7.74E-03,3.10E-03
71438,7.75E-03,3.07E-03
71439,7.75E-03,3.03E-03
71440,7.76E-03,2.99E-03
71441,7.76E-03,2.95E-03
71442,7.77E-03,2.92E-03
71443,7.78E-03,2.88E-03
71444,7.80E-03,2.85E-03
71445,7.81E-03,2.81E-03
71446,7.83E-03,2.78E-03
71447,7.85E-03,2.75E-03
71448,7.87E-03,2.72E-03
71449,7.88E-03,2.69E-03
71450,7.89E-03,2.66E-03
71451,7.90E-03,2.63E-03
71452,7.91E-03,2.60E-03
71453,7.92E-03,2.57E-03
71454,7.93E-03,2.55E-03
71455,7.94E-03,2.52E-03
71456,7.95E-03,2.49E-03
71457,7.96E-03,2.47E-03
71458,7.96E-03,2.44E-03
71459,7.97E-03,2.42E-03
71460,7.98E-03,2.39E-03
71461,7.99E-03,2.37E-03
71462,7.99E-03,2.34E-03
71463,7.99E-03,2.32E-03
71464,8.00E-03,2.29E-03
71465,8.00E-03,2.27E-03
71466,8.00E-03,2.24E-03
71467,8.01E-03,2.21E-03
71468,8.01E-03,2.19E-03
71469,8.02E-03,2.16E-03
71470,8.02E-03,2.13E-03
71471,8.03E-03,2.10E-03
71472,8.04E-03,2.07E-03
71473,8.05E-03,2.05E-03
71474,8.05E-03,2.02E-03
71475,8.06E-03,1.99E-03
71476,8.06E-03,1.96E-03
71477,8.06E-03,1.93E-03
71478,8.06E-03,1.90E-03
71479,8.06E-03,1.86E-03
71480,8.05E-03,1.83E-03
71481,8.04E-03,1.80E-03
71482,8.02E-03,1.77E-03
71483,7.99E-03,1.74E-03
71484,7.96E-03,1.71E-03
71485,7.93E-03,1.68E-03
71486,7.90E-03,1.64E-03
71487,7.87E-03,1.61E-03
71488,7.84E-03,1.58E-03
71489,7.79E-03,1.55E-03
71490,7.74E-03,1.52E-03
71491,7.66E-03,1.49E-03
71492,7.57E-03,1.46E-03
71493,7.49E-03,1.43E-03
71494,7.43E-03,1.40E-03
71495,7.39E-03,1.38E-03
71496,7.34E-03,1.35E-03
71497,7.28E-03,1.33E-03
71498,7.22E-03,1.31E-03
71499,7.18E-03,1.29E-03
71500,7.17E-03,1.27E-03
71501,7.20E-03,1.25E-03
71502,7.26E-03,1.24E-03
71503,7.33E-03,1.22E-03
71504,7.38E-03,1.21E-03
71505,7.41E-03,1.20E-03
71506,7.43E-03,1.20E-03
71507,7.46E-03,1.19E-03
71508,7.49E-03,1.19E-03
71509,7.53E-03,1.18E-03
71510,7.57E-03,1.18E-03
71511,7.61E-03,1.18E-03
71512,7.65E-03,1.18E-03
71513,7.68E-03,1.18E-03
71514,7.71E-03,1.18E-03
71515,7.74E-03,1.18E-03
71516,7.76E-03,1.18E-03
71517,7.78E-03,1.18E-03
71518,7.80E-03,1.18E-03
71519,7.82E-03,1.18E-03
71520,7.88E-03,1.18E-03
71521,8.00E-03,1.18E-03
71522,8.09E-03,1.18E-03
71523,8.16E-03,1.18E-03
71524,8.26E-03,1.17E-03
71525,8.36E-03,1.17E-03
71526,8.47E-03,1.16E-03
71527,8.47E-03,1.14E-03
71528,8.23E-03,1.13E-03
71529,8.04E-03,1.11E-03
71530,7.93E-03,1.09E-03
71531,7.78E-03,1.07E-03
71532,7.66E-03,1.05E-03
71533,7.55E-03,1.03E-03
71534,7.38E-03,1.01E-03
71535,7.15E-03,9.90E-04
71536,7.01E-03,9.75E-04
71537,7.00E-03,9.64E-04
71538,7.00E-03,9.55E-04
71539,7.01E-03,9.51E-04
71540,7.02E-03,9.49E-04
71541,7.13E-03,9.52E-04
71542,7.39E-03,9.57E-04
71543,7.63E-03,9.63E-04
71544,7.75E-03,9.70E-04
71545,7.83E-03,9.73E-04
71546,8.03E-03,9.70E-04
71547,8.07E-03,9.62E-04
71548,8.16E-03,9.46E-04
71549,8.26E-03,9.16E-04
71550,8.08E-03,8.70E-04
71551,7.90E-03,8.11E-04
71552,7.97E-03,7.35E-04
71553,8.09E-03,1.23E-02
71554,8.09E-03,1.21E-02
71555,8.09E-03,1.20E-02
71556,8.09E-03,1.18E-02
71557,8.09E-03,1.17E-02
71558,8.09E-03,1.15E-02
71559,8.09E-03,1.13E-02
71560,8.09E-03,1.12E-02
71561,8.09E-03,1.10E-02
71562,8.09E-03,1.08E-02
71563,8.09E-03,1.06E-02
71564,8.09E-03,1.05E-02
71565,8.09E-03,1.03E-02
71566,8.09E-03,1.01E-02
71567,8.09E-03,9.91E-03
71568,8.09E-03,9.73E-03
71569,8.09E-03,9.54E-03
71570,8.09E-03,9.35E-03
71571,8.09E-03,9.15E-03
71572,8.09E-03,8.96E-03
71573,8.09E-03,8.77E-03
71574,8.09E-03,8.57E-03
71575,8.09E-03,8.38E-03
71576,8.09E-03,8.18E-03
71577,8.09E-03,7.99E-03
71578,8.09E-03,7.79E-03
71579,8.09E-03,7.59E-03
71580,8.09E-03,7.40E-03
71581,8.09E-03,7.20E-03
71582,8.09E-03,7.01E-03
71583,8.09E-03,6.82E-03
71584,8.09E-03,6.63E-03
71585,8.09E-03,6.44E-03
71586,8.09E-03,6.25E-03
71587,8.09E-03,6.06E-03
71588,8.09E-03,5.88E-03
71589,8.09E-03,5.71E-03
71590,8.09E-03,5.53E-03
71591,8.09E-03,5.36E-03
71592,8.09E-03,5.20E-03
71593,8.09E-03,5.04E-03
71594,8.09E-03,4.89E-03
71595,8.09E-03,4.75E-03
71596,8.09E-03,4.61E-03
71597,8.09E-03,4.49E-03
71598,8.09E-03,4.37E-03
71599,8.09E-03,4.27E-03
71600,8.09E-03,4.18E-03
71601,8.09E-03,4.10E-03
71602,8.09E-03,4.03E-03
71603,8.09E-03,3.98E-03
71604,8.09E-03,3.94E-03
71605,8.09E-03,3.92E-03
71606,8.09E-03,3.92E-03
71607,8.09E-03,3.93E-03
71608,8.09E-03,3.95E-03
71609,8.09E-03,3.99E-03
71610,8.09E-03,4.05E-03
71611,8.09E-03,4.12E-03
71612,8.09E-03,4.20E-03
71613,8.09E-03,4.29E-03
71614,8.09E-03,4.40E-03
71615,8.09E-03,4.51E-03
71616,8.09E-03,4.64E-03
71617,8.09E-03,4.77E-03
71618,8.09E-03,4.91E-03
71619,8.09E-03,5.06E-03
71620,8.09E-03,5.21E-03
71621,8.09E-03,5.37E-03
71622,8.09E-03,5.53E-03
71623,8.09E-03,5.70E-03
71624,8.09E-03,5.87E-03
71625,8.09E-03,6.05E-03
71626,8.09E-03,6.23E-03
71627,8.09E-03,6.41E-03
71628,8.09E-03,6.59E-03
71629,8.09E-03,6.78E-03
71630,8.09E-03,6.96E-03
71631,8.09E-03,7.15E-03
71632,8.09E-03,7.34E-03
71633,8.09E-03,7.53E-03
71634,8.09E-03,7.72E-03
71635,8.09E-03,7.91E-03
71636,8.09E-03,8.10E-03
71637,8.09E-03,8.29E-03
71638,8.09E-03,8.48E-03
71639,8.09E-03,8.67E-03
71640,8.09E-03,8.86E-03
71641,8.09E-03,9.04E-03
71642,8.09E-03,9.23E-03
71643,8.09E-03,9.42E-03
71644,8.09E-03,9.61E-03
71645,8.09E-03,9.80E-03
71646,8.09E-03,9.99E-03
71647,8.09E-03,1.02E-02
71648,8.09E-03,1.04E-02
71649,8.09E-03,1.05E-02
71650,8.09E-03,1.07E-02
71651,8.09E-03,1.09E-02
71652,8.09E-03,1.11E-02
71653,8.09E-03,1.13E-02
71654,8.09E-03,1.15E-02
71655,8.09E-03,1.17E-02
71656,8.09E-03,1.18E-02
71657,8.09E-03,1.20E-02
71658,8.09E-03,1.22E-02
71659,8.09E-03,1.24E-02
71660,8.09E-03,1.26E-02
71661,8.09E-03,1.28E-02
71662,8.09E-03,1.29E-02
71663,8.09E-03,1.31E-02
71664,8.09E-03,1.33E-02
71665,8.09E-03,1.35E-02
71666,8.09E-03,1.37E-02
71667,8.09E-03,1.38E-02
71668,8.09E-03,1.40E-02
71669,8.00E-03,1.42E-02
71670,7.94E-03,1.44E-02
71671,7.81E-03,1.46E-02
71672,7.81E-03,1.47E-02
71673,7.79E-03,1.49E-02
71674,7.75E-03,1.51E-02
71675,7.68E-03,1.53E-02
71676,7.62E-03,1.54E-02
71677,7.63E-03,1.56E-02
71678,7.62E-03,1.57E-02
71679,8.10E-03,1.24E-02
71680,8.10E-03,1.25E-02
71681,8.10E-03,1.22E-02
71682,8.10E-03,1.24E-02
71683,7.82E-03,1.15E-02
71684,8.49E-03,1.16E-02
71685,8.78E-03,1.16E-02
71686,8.85E-03,1.16E-02
71687,8.77E-03,1.16E-02
71688,8.86E-03,1.16E-02
71689,8.89E-03,1.15E-02
71690,8.96E-03,1.15E-02
71691,8.95E-03,1.15E-02
71692,8.93E-03,1.14E-02
71693,8.90E-03,1.14E-02
71694,8.87E-03,1.13E-02
71695,8.84E-03,1.13E-02
71696,8.81E-03,1.12E-02
71697,8.78E-03,1.11E-02
71698,8.75E-03,1.11E-02
71699,8.71E-03,1.10E-02
71700,8.67E-03,1.10E-02
71701,8.64E-03,1.09E-02
71702,8.60E-03,1.08E-02
71703,8.58E-03,1.08E-02
71704,8.55E-03,1.07E-02
71705,8.53E-03,1.07E-02
71706,8.51E-03,1.06E-02
71707,8.48E-03,1.06E-02
71708,8.46E-03,1.06E-02
71709,8.44E-03,1.05E-02
71710,8.43E-03,1.05E-02
71711,8.41E-03,1.04E-02
71712,8.40E-03,1.04E-02
71713,8.38E-03,1.04E-02
71714,8.36E-03,1.03E-02
71715,8.34E-03,1.03E-02
71716,8.31E-03,1.03E-02
71717,8.28E-03,1.03E-02
71718,8.26E-03,1.03E-02
71719,8.24E-03,1.02E-02
71720,8.23E-03,1.02E-02
71721,8.22E-03,1.02E-02
71722,8.20E-03,1.02E-02
71723,8.20E-03,1.02E-02
71724,8.19E-03,1.02E-02
71725,8.18E-03,1.02E-02
71726,8.17E-03,1.02E-02
71727,8.16E-03,1.02E-02
71728,8.15E-03,1.02E-02
71729,8.13E-03,1.02E-02
71730,8.12E-03,1.02E-02
71731,8.11E-03,1.02E-02
71732,8.10E-03,1.02E-02
71733,8.10E-03,1.03E-02
71734,8.10E-03,1.03E-02
71735,8.08E-03,1.03E-02
71736,8.07E-03,1.03E-02
71737,8.04E-03,1.03E-02
71738,8.02E-03,1.04E-02
71739,7.99E-03,1.04E-02
71740,7.97E-03,1.04E-02
71741,7.96E-03,1.04E-02
71742,7.95E-03,1.05E-02
71743,7.93E-03,1.05E-02
71744,7.89E-03,1.05E-02
71745,7.85E-03,1.06E-02
71746,7.81E-03,1.06E-02
71747,7.78E-03,1.07E-02
71748,7.75E-03,1.07E-02
71749,7.72E-03,1.08E-02
71750,7.68E-03,1.08E-02
71751,7.63E-03,1.09E-02
71752,7.58E-03,1.09E-02
71753,7.53E-03,1.10E-02
71754,7.51E-03,1.10E-02
71755,7.50E-03,1.11E-02
71756,7.50E-03,1.11E-02
71757,7.50E-03,1.12E-02
71758,7.50E-03,1.13E-02
71759,7.51E-03,1.13E-02
71760,7.53E-03,1.14E-02
71761,7.55E-03,1.15E-02
71762,7.57E-03,1.15E-02
71763,7.61E-03,1.16E-02
71764,7.63E-03,1.17E-02
71765,7.65E-03,1.18E-02
71766,7.67E-03,1.19E-02
71767,7.68E-03,1.19E-02
71768,7.70E-03,1.20E-02
71769,7.72E-03,1.21E-02
71770,7.74E-03,1.22E-02
71771,7.75E-03,1.23E-02
71772,7.76E-03,1.24E-02
71773,7.76E-03,1.25E-02
71774,7.75E-03,1.26E-02
71775,7.74E-03,1.27E-02
71776,7.78E-03,1.28E-02
71777,7.85E-03,1.29E-02
71778,7.93E-03,1.30E-02
71779,7.99E-03,1.32E-02
71780,8.02E-03,1.33E-02
71781,8.04E-03,1.34E-02
71782,8.07E-03,1.36E-02
71783,8.11E-03,1.37E-02
71784,8.17E-03,1.38E-02
71785,8.22E-03,1.40E-02
71786,8.17E-03,1.42E-02
71787,8.03E-03,1.43E-02
71788,7.99E-03,1.45E-02
71789,7.87E-03,1.47E-02
71790,7.83E-03,1.49E-02
71791,7.79E-03,1.51E-02
71792,7.82E-03,1.53E-02
71793,7.72E-03,1.55E-02
71794,7.76E-03,1.57E-02
71795,7.63E-03,1.59E-02
71796,1.00E-02,3.77E-02
71797,8.93E-03,4.00E-02
71798,8.59E-03,4.23E-02
71799,8.32E-03,4.46E-02
71800,8.32E-03,4.65E-02
71801,8.53E-03,4.79E-02
71802,9.71E-03,4.88E-02
71803,1.00E-02,4.97E-02
71804,9.03E-03,5.20E-02
71805,8.59E-03,5.38E-02
71806,8.42E-03,5.53E-02
71807,8.35E-03,5.66E-02
71808,9.15E-03,5.74E-02
71809,8.57E-03,5.80E-02
71810,8.52E-03,6.02E-02
71811,6.12E-03,6.04E-02
71812,8.03E-03,6.07E-02
71813,8.35E-03,6.13E-02
71814,8.19E-03,6.20E-02
71815,8.10E-03,6.27E-02
71816,8.10E-03,6.32E-02
71817,8.08E-03,6.36E-02
71818,8.07E-03,6.38E-02
71819,8.05E-03,6.39E-02
71820,8.03E-03,6.39E-02
71821,8.01E-03,6.37E-02
71822,7.99E-03,6.34E-02
71823,7.97E-03,6.31E-02
71824,7.92E-03,6.27E-02
71825,7.85E-03,6.22E-02
71826,7.79E-03,6.17E-02
71827,7.73E-03,6.12E-02
71828,7.69E-03,6.07E-02
71829,7.63E-03,6.02E-02
71830,7.55E-03,5.97E-02
71831,7.49E-03,5.91E-02
71832,7.49E-03,5.85E-02
71833,7.52E-03,5.78E-02
71834,7.56E-03,5.71E-02
71835,7.62E-03,5.64E-02
71836,7.69E-03,5.56E-02
71837,7.73E-03,5.48E-02
71838,7.74E-03,5.39E-02
71839,7.74E-03,5.30E-02
71840,7.75E-03,5.21E-02
71841,7.76E-03,5.11E-02
71842,7.76E-03,5.02E-02
71843,7.75E-03,4.92E-02
71844,7.74E-03,4.82E-02
71845,7.73E-03,4.72E-02
71846,7.73E-03,4.61E-02
71847,7.70E-03,4.51E-02
71848,7.66E-03,4.40E-02
71849,7.61E-03,4.29E-02
71850,7.57E-03,4.18E-02
71851,7.51E-03,4.07E-02
71852,7.44E-03,3.95E-02
71853,7.36E-03,3.84E-02
71854,7.31E-03,3.72E-02
71855,7.29E-03,3.61E-02
71856,7.29E-03,3.49E-02
71857,7.30E-03,3.37E-02
71858,7.31E-03,3.25E-02
71859,7.33E-03,3.13E-02
71860,7.35E-03,3.02E-02
71861,7.39E-03,2.90E-02
71862,7.46E-03,2.78E-02
71863,7.54E-03,2.66E-02
71864,7.61E-03,2.55E-02
71865,7.66E-03,2.44E-02
71866,7.70E-03,2.33E-02
71867,7.73E-03,2.23E-02
71868,7.75E-03,2.13E-02
71869,7.76E-03,2.04E-02
71870,7.76E-03,1.96E-02
71871,7.77E-03,1.88E-02
71872,7.77E-03,1.82E-02
71873,7.77E-03,1.76E-02
71874,7.78E-03,1.71E-02
71875,7.77E-03,1.67E-02
71876,7.75E-03,1.63E-02
71877,7.73E-03,1.61E-02
71878,7.71E-03,1.60E-02
71879,7.68E-03,1.59E-02
71880,7.64E-03,1.59E-02
71881,7.59E-03,1.60E-02
71882,7.56E-03,1.61E-02
71883,7.60E-03,1.63E-02
71884,7.67E-03,1.65E-02
71885,7.73E-03,1.68E-02
71886,7.77E-03,1.70E-02
71887,7.99E-03,1.73E-02
71888,8.24E-03,1.76E-02
71889,8.33E-03,1.79E-02
71890,8.44E-03,1.81E-02
71891,8.63E-03,1.84E-02
71892,8.82E-03,1.87E-02
71893,9.37E-03,1.90E-02
71894,9.47E-03,1.93E-02
71895,9.37E-03,1.96E-02
71896,9.22E-03,1.99E-02
71897,8.78E-03,2.02E-02
71898,8.02E-03,2.04E-02
71899,6.76E-03,2.06E-02
71900,6.63E-03,2.08E-02
71901,6.83E-03,2.09E-02
71902,7.04E-03,2.10E-02
71903,7.23E-03,2.10E-02
71904,7.39E-03,2.10E-02
71905,7.50E-03,2.10E-02
71906,7.59E-03,2.09E-02
71907,7.65E-03,2.08E-02
71908,7.68E-03,2.07E-02
71909,7.71E-03,2.05E-02
71910,7.71E-03,2.03E-02
71911,7.71E-03,2.01E-02
71912,7.72E-03,1.99E-02
71913,7.72E-03,1.97E-02
71914,7.69E-03,1.94E-02
71915,7.72E-03,1.92E-02
71916,7.82E-03,1.89E-02
71917,7.91E-03,1.86E-02
71918,7.96E-03,1.84E-02
71919,8.01E-03,1.81E-02
71920,8.09E-03,1.78E-02
71921,8.17E-03,1.75E-02
71922,8.24E-03,1.72E-02
71923,8.32E-03,1.69E-02
71924,8.41E-03,1.66E-02
71925,8.47E-03,1.63E-02
71926,8.47E-03,1.60E-02
71927,8.45E-03,1.57E-02
71928,8.42E-03,1.54E-02
71929,8.39E-03,1.51E-02
71930,8.37E-03,1.48E-02
71931,8.35E-03,1.45E-02
71932,8.34E-03,1.43E-02
71933,8.34E-03,1.40E-02
71934,8.33E-03,1.38E-02
71935,8.32E-03,1.35E-02
71936,8.30E-03,1.33E-02
71937,8.06E-03,1.30E-02
71938,7.97E-03,1.28E-02
71939,7.81E-03,1.26E-02
71940,7.81E-03,1.24E-02
71941,7.83E-03,1.22E-02
71942,7.64E-03,1.20E-02
71943,7.41E-03,1.18E-02
71944,7.33E-03,1.16E-02
71945,9.14E-03,1.71E-02
71946,5.99E-03,1.15E-02
71947,8.10E-03,1.24E-02
71948,8.10E-03,1.25E-02
71949,7.97E-03,1.69E-02
71950,7.86E-03,1.67E-02
71951,7.86E-03,1.65E-02
71952,7.86E-03,1.63E-02
71953,7.81E-03,1.61E-02
71954,7.90E-03,1.59E-02
71955,7.98E-03,1.57E-02
71956,8.02E-03,1.55E-02
71957,8.09E-03,1.52E-02
71958,8.09E-03,1.50E-02
71959,8.09E-03,1.48E-02
71960,8.09E-03,1.46E-02
71961,8.09E-03,1.44E-02
71962,8.09E-03,1.42E-02
71963,8.09E-03,1.40E-02
71964,8.09E-03,1.38E-02
71965,8.09E-03,1.36E-02
71966,8.09E-03,1.34E-02
71967,8.09E-03,1.32E-02
71968,8.09E-03,1.30E-02
71969,8.09E-03,1.28E-02
71970,8.09E-03,1.26E-02
71971,8.09E-03,1.24E-02
71972,8.09E-03,1.22E-02
71973,8.09E-03,1.20E-02
71974,8.09E-03,1.18E-02
71975,8.09E-03,1.16E-02
71976,8.09E-03,1.14E-02
71977,8.09E-03,1.12E-02
71978,8.09E-03,1.10E-02
71979,8.09E-03,1.08E-02
71980,8.09E-03,1.06E-02
71981,8.09E-03,1.04E-02
71982,8.09E-03,1.02E-02
71983,8.09E-03,1.00E-02
71984,8.09E-03,9.84E-03
71985,8.09E-03,9.64E-03
71986,8.09E-03,9.44E-03
71987,8.09E-03,9.24E-03
71988,8.09E-03,9.04E-03
71989,8.09E-03,8.84E-03
71990,8.09E-03,8.64E-03
71991,8.09E-03,8.44E-03
71992,8.09E-03,8.24E-03
71993,8.09E-03,8.04E-03
71994,8.09E-03,7.84E-03
71995,8.09E-03,7.65E-03
71996,8.09E-03,7.45E-03
71997,8.09E-03,7.25E-03
71998,8.09E-03,7.06E-03
71999,8.09E-03,6.87E-03
72000,8.09E-03,6.68E-03
72001,8.09E-03,6.49E-03
72002,8.09E-03,6.31E-03
72003,8.09E-03,6.12E-03
72004,8.09E-03,5.94E-03
72005,8.09E-03,5.77E-03
72006,8.09E-03,5.60E-03
72007,8.09E-03,5.43E-03
72008,8.09E-03,5.28E-03
72009,8.09E-03,5.12E-03
72010,8.09E-03,4.98E-03
72011,8.09E-03,4.84E-03
72012,8.09E-03,4.71E-03
72013,8.09E-03,4.59E-03
72014,8.09E-03,4.48E-03
72015,8.09E-03,4.38E-03
72016,8.09E-03,4.29E-03
72017,8.09E-03,4.21E-03
72018,8.09E-03,4.15E-03
72019,8.09E-03,4.11E-03
72020,8.09E-03,4.07E-03
72021,8.09E-03,4.05E-03
72022,8.09E-03,4.05E-03
72023,8.09E-03,4.06E-03
72024,8.09E-03,4.09E-03
72025,8.09E-03,4.13E-03
72026,8.09E-03,4.19E-03
72027,8.09E-03,4.26E-03
72028,8.09E-03,4.34E-03
72029,8.09E-03,4.44E-03
72030,8.09E-03,4.54E-03
72031,8.09E-03,4.66E-03
72032,8.09E-03,4.79E-03
72033,8.09E-03,4.92E-03
72034,8.09E-03,5.06E-03
72035,8.09E-03,5.21E-03
72036,8.09E-03,5.37E-03
72037,8.09E-03,5.53E-03
72038,8.09E-03,5.69E-03
72039,8.09E-03,5.86E-03
72040,8.09E-03,6.04E-03
72041,8.09E-03,6.21E-03
72042,8.09E-03,6.39E-03
72043,8.09E-03,6.58E-03
72044,8.09E-03,6.76E-03
72045,8.09E-03,6.95E-03
72046,8.09E-03,7.13E-03
72047,8.09E-03,7.32E-03
72048,8.09E-03,7.51E-03
72049,8.09E-03,7.70E-03
72050,8.09E-03,7.89E-03
72051,8.09E-03,8.08E-03
72052,8.09E-03,8.27E-03
72053,8.09E-03,8.46E-03
72054,8.09E-03,8.65E-03
72055,8.09E-03,8.83E-03
72056,8.09E-03,9.02E-03
72057,8.09E-03,9.21E-03
72058,8.09E-03,9.39E-03
72059,8.09E-03,9.57E-03
72060,8.09E-03,9.75E-03
72061,8.09E-03,9.93E-03
72062,8.09E-03,1.01E-02
72063,8.09E-03,1.03E-02
72064,8.09E-03,1.05E-02
72065,8.09E-03,1.06E-02
72066,8.09E-03,1.08E-02
72067,8.09E-03,1.10E-02
72068,8.09E-03,1.11E-02
72069,8.09E-03,1.13E-02
72070,8.09E-03,1.15E-02
72071,8.09E-03,1.16E-02
72072,8.09E-03,1.18E-02
72073,8.09E-03,1.19E-02
72074,8.09E-03,1.21E-02
72075,7.08E-03,3.51E-02
72076,6.99E-03,3.27E-02
72077,6.58E-03,3.07E-02
72078,6.90E-03,2.96E-02
72079,7.38E-03,2.89E-02
72080,7.68E-03,2.85E-02
72081,8.14E-03,2.79E-02
72082,8.31E-03,2.74E-02
72083,8.31E-03,2.68E-02
72084,8.22E-03,2.61E-02
72085,8.25E-03,2.55E-02
72086,8.34E-03,2.48E-02
72087,8.67E-03,2.39E-02
72088,8.93E-03,2.29E-02
72089,9.06E-03,2.20E-02
72090,9.00E-03,2.09E-02
72091,8.53E-03,1.98E-02
72092,8.50E-03,1.86E-02
72093,8.30E-03,1.74E-02
72094,8.13E-03,1.62E-02
72095,8.03E-03,1.51E-02
72096,7.99E-03,1.42E-02
72097,7.99E-03,1.33E-02
72098,7.99E-03,1.25E-02
72099,7.99E-03,1.17E-02
72100,7.99E-03,1.10E-02
72101,8.08E-03,1.04E-02
72102,8.10E-03,9.80E-03
72103,8.29E-03,9.21E-03
72104,8.53E-03,8.58E-03
72105,9.67E-03,7.79E-03
72106,9.75E-03,7.30E-03
72107,8.56E-03,6.64E-03
72108,8.22E-03,5.97E-03
72109,7.93E-03,5.32E-03
72110,7.85E-03,4.71E-03
72111,7.61E-03,4.16E-03
72112,7.52E-03,3.67E-03
72113,7.42E-03,3.25E-03
72114,7.30E-03,2.91E-03
72115,7.31E-03,2.64E-03
72116,7.74E-03,2.45E-03
72117,8.02E-03,2.24E-03
72118,8.61E-03,2.08E-03
72119,8.59E-03,1.90E-03
72120,8.55E-03,1.67E-03
72121,8.37E-03,1.43E-03
72122,7.90E-03,1.22E-03
72123,7.70E-03,1.02E-03
72124,7.40E-03,8.48E-04
72125,7.16E-03,7.00E-04
72126,7.12E-03,5.83E-04
72127,7.65E-03,4.94E-04
72128,8.09E-03,1.23E-02
72129,8.09E-03,1.21E-02
72130,8.09E-03,1.20E-02
72131,8.09E-03,1.18E-02
72132,8.09E-03,1.16E-02
72133,8.09E-03,1.15E-02
72134,8.09E-03,1.13E-02
72135,8.09E-03,1.11E-02
72136,8.09E-03,1.10E-02
72137,8.09E-03,1.08E-02
72138,8.09E-03,1.06E-02
72139,8.09E-03,1.04E-02
72140,8.09E-03,1.03E-02
72141,8.09E-03,1.01E-02
72142,8.09E-03,9.89E-03
72143,8.09E-03,9.70E-03
72144,8.09E-03,9.51E-03
72145,8.09E-03,9.32E-03
72146,8.09E-03,9.13E-03
72147,8.09E-03,8.94E-03
72148,8.09E-03,8.75E-03
72149,8.09E-03,8.55E-03
72150,8.09E-03,8.36E-03
72151,8.09E-03,8.16E-03
72152,8.09E-03,7.97E-03
72153,8.09E-03,7.77E-03
72154,8.09E-03,7.58E-03
72155,8.09E-03,7.39E-03
72156,8.09E-03,7.19E-03
72157,8.09E-03,7.00E-03
72158,8.09E-03,6.81E-03
72159,8.09E-03,6.62E-03
72160,8.09E-03,6.43E-03
72161,8.09E-03,6.24E-03
72162,8.09E-03,6.06E-03
72163,8.09E-03,5.88E-03
72164,8.09E-03,5.70E-03
72165,8.09E-03,5.53E-03
72166,8.09E-03,5.36E-03
72167,8.09E-03,5.20E-03
72168,8.09E-03,5.05E-03
72169,8.09E-03,4.90E-03
72170,8.09E-03,4.76E-03
72171,8.09E-03,4.62E-03
72172,8.09E-03,4.50E-03
72173,8.09E-03,4.38E-03
72174,8.09E-03,4.28E-03
72175,8.09E-03,4.19E-03
72176,8.09E-03,4.11E-03
72177,8.09E-03,4.05E-03
72178,8.09E-03,4.00E-03
72179,8.09E-03,3.96E-03
72180,8.09E-03,3.94E-03
72181,8.09E-03,3.94E-03
72182,8.09E-03,3.95E-03
72183,8.09E-03,3.98E-03
72184,8.09E-03,4.02E-03
72185,8.09E-03,4.07E-03
72186,8.09E-03,4.14E-03
72187,8.09E-03,4.22E-03
72188,8.09E-03,4.32E-03
72189,8.09E-03,4.42E-03
72190,8.09E-03,4.54E-03
72191,8.09E-03,4.67E-03
72192,8.09E-03,4.80E-03
72193,8.09E-03,4.94E-03
72194,8.09E-03,5.09E-03
72195,8.09E-03,5.24E-03
72196,8.09E-03,5.40E-03
72197,8.09E-03,5.57E-03
72198,8.09E-03,5.74E-03
72199,8.09E-03,5.91E-03
72200,8.09E-03,6.09E-03
72201,8.09E-03,6.27E-03
72202,8.09E-03,6.45E-03
72203,8.09E-03,6.63E-03
72204,8.09E-03,6.82E-03
72205,8.09E-03,7.01E-03
72206,8.09E-03,7.19E-03
72207,8.09E-03,7.38E-03
72208,8.09E-03,7.57E-03
72209,8.09E-03,7.77E-03
72210,8.09E-03,7.96E-03
72211,8.09E-03,8.15E-03
72212,8.09E-03,8.34E-03
72213,8.09E-03,8.53E-03
72214,8.09E-03,8.72E-03
72215,8.09E-03,8.91E-03
72216,8.09E-03,9.11E-03
72217,8.09E-03,9.30E-03
72218,8.09E-03,9.49E-03
72219,8.09E-03,9.68E-03
72220,8.09E-03,9.87E-03
72221,8.09E-03,1.01E-02
72222,8.09E-03,1.02E-02
72223,8.09E-03,1.04E-02
72224,8.09E-03,1.06E-02
72225,8.09E-03,1.08E-02
72226,8.09E-03,1.10E-02
72227,8.09E-03,1.12E-02
72228,8.09E-03,1.14E-02
72229,8.09E-03,1.16E-02
72230,8.09E-03,1.17E-02
72231,8.09E-03,1.19E-02
72232,8.09E-03,1.21E-02
72233,8.09E-03,1.23E-02
72234,8.09E-03,1.25E-02
72235,8.09E-03,1.27E-02
72236,8.09E-03,1.29E-02
72237,8.09E-03,1.30E-02
72238,8.09E-03,1.32E-02
72239,8.09E-03,1.34E-02
72240,8.09E-03,1.36E-02
72241,8.09E-03,1.38E-02
72242,8.09E-03,1.40E-02
72243,8.09E-03,1.42E-02
72244,8.09E-03,1.43E-02
72245,8.03E-03,1.45E-02
72246,7.93E-03,1.47E-02
72247,7.84E-03,1.49E-02
72248,7.83E-03,1.51E-02
72249,7.78E-03,1.53E-02
72250,7.69E-03,1.54E-02
72251,7.67E-03,1.56E-02
72252,7.66E-03,1.58E-02
72253,7.64E-03,1.59E-02
72254,7.68E-03,1.61E-02
72255,8.10E-03,1.23E-02
72256,8.10E-03,1.24E-02
72257,8.62E-03,6.20E-02
72258,8.04E-03,6.29E-02
72259,8.19E-03,6.34E-02
72260,8.25E-03,6.41E-02
72261,8.10E-03,6.50E-02
72262,8.08E-03,6.57E-02
72263,8.07E-03,6.63E-02
72264,8.06E-03,6.66E-02
72265,8.05E-03,6.68E-02
72266,8.03E-03,6.69E-02
72267,8.02E-03,6.67E-02
72268,8.01E-03,6.63E-02
72269,7.99E-03,6.59E-02
72270,7.96E-03,6.54E-02
72271,7.91E-03,6.48E-02
72272,7.86E-03,6.43E-02
72273,7.82E-03,6.38E-02
72274,7.79E-03,6.32E-02
72275,7.75E-03,6.27E-02
72276,7.69E-03,6.21E-02
72277,7.65E-03,6.15E-02
72278,7.65E-03,6.08E-02
72279,7.67E-03,6.01E-02
72280,7.69E-03,5.94E-02
72281,7.74E-03,5.86E-02
72282,7.79E-03,5.77E-02
72283,7.82E-03,5.68E-02
72284,7.82E-03,5.59E-02
72285,7.83E-03,5.49E-02
72286,7.83E-03,5.39E-02
72287,7.84E-03,5.29E-02
72288,7.84E-03,5.19E-02
72289,7.83E-03,5.08E-02
72290,7.83E-03,4.98E-02
72291,7.82E-03,4.87E-02
72292,7.82E-03,4.76E-02
72293,7.80E-03,4.65E-02
72294,7.77E-03,4.54E-02
72295,7.74E-03,4.42E-02
72296,7.70E-03,4.31E-02
72297,7.66E-03,4.19E-02
72298,7.61E-03,4.07E-02
72299,7.56E-03,3.95E-02
72300,7.52E-03,3.83E-02
72301,7.50E-03,3.70E-02
72302,7.51E-03,3.58E-02
72303,7.51E-03,3.45E-02
72304,7.52E-03,3.33E-02
72305,7.53E-03,3.20E-02
72306,7.55E-03,3.07E-02
72307,7.58E-03,2.95E-02
72308,7.63E-03,2.82E-02
72309,7.69E-03,2.70E-02
72310,7.73E-03,2.58E-02
72311,7.77E-03,2.46E-02
72312,7.80E-03,2.35E-02
72313,7.82E-03,2.24E-02
72314,7.83E-03,2.14E-02
72315,7.84E-03,2.05E-02
72316,7.84E-03,1.96E-02
72317,7.85E-03,1.88E-02
72318,7.85E-03,1.81E-02
72319,7.85E-03,1.75E-02
72320,7.85E-03,1.70E-02
72321,7.85E-03,1.66E-02
72322,7.83E-03,1.63E-02
72323,7.82E-03,1.61E-02
72324,7.80E-03,1.60E-02
72325,7.79E-03,1.59E-02
72326,7.76E-03,1.60E-02
72327,7.72E-03,1.61E-02
72328,7.70E-03,1.63E-02
72329,7.72E-03,1.65E-02
72330,7.78E-03,1.67E-02
72331,7.82E-03,1.70E-02
72332,7.85E-03,1.73E-02
72333,8.02E-03,1.76E-02
72334,8.16E-03,1.79E-02
72335,8.25E-03,1.83E-02
72336,8.33E-03,1.86E-02
72337,8.50E-03,1.89E-02
72338,8.68E-03,1.92E-02
72339,8.95E-03,1.95E-02
72340,9.04E-03,1.98E-02
72341,9.04E-03,2.01E-02
72342,8.79E-03,2.04E-02
72343,8.30E-03,2.07E-02
72344,8.23E-03,2.09E-02
72345,7.20E-03,2.11E-02
72346,7.03E-03,2.13E-02
72347,7.18E-03,2.14E-02
72348,7.33E-03,2.15E-02
72349,7.47E-03,2.15E-02
72350,7.57E-03,2.15E-02
72351,7.66E-03,2.14E-02
72352,7.72E-03,2.13E-02
72353,7.76E-03,2.12E-02
72354,7.79E-03,2.11E-02
72355,7.80E-03,2.09E-02
72356,7.81E-03,2.07E-02
72357,7.81E-03,2.05E-02
72358,7.81E-03,2.03E-02
72359,7.81E-03,2.00E-02
72360,7.79E-03,1.97E-02
72361,7.81E-03,1.95E-02
72362,7.89E-03,1.92E-02
72363,7.95E-03,1.89E-02
72364,7.98E-03,1.86E-02
72365,8.02E-03,1.82E-02
72366,8.08E-03,1.79E-02
72367,8.13E-03,1.76E-02
72368,8.18E-03,1.73E-02
72369,8.24E-03,1.70E-02
72370,8.30E-03,1.67E-02
72371,8.35E-03,1.63E-02
72372,8.35E-03,1.60E-02
72373,8.33E-03,1.57E-02
72374,8.31E-03,1.54E-02
72375,8.29E-03,1.51E-02
72376,8.28E-03,1.49E-02
72377,8.27E-03,1.46E-02
72378,8.26E-03,1.43E-02
72379,8.25E-03,1.40E-02
72380,8.25E-03,1.38E-02
72381,8.24E-03,1.35E-02
72382,8.23E-03,1.33E-02
72383,8.11E-03,1.30E-02
72384,8.05E-03,1.28E-02
72385,7.94E-03,1.26E-02
72386,7.88E-03,1.24E-02
72387,7.86E-03,1.21E-02
72388,7.71E-03,1.19E-02
72389,7.46E-03,1.17E-02
72390,7.25E-03,1.16E-02
72391,6.30E-03,1.14E-02
72392,7.66E-03,1.13E-02
72393,8.08E-03,1.14E-02
72394,8.32E-03,1.14E-02
72395,8.50E-03,1.14E-02
72396,8.60E-03,1.14E-02
72397,8.69E-03,1.14E-02
72398,8.70E-03,1.14E-02
72399,8.71E-03,1.14E-02
72400,8.71E-03,1.14E-02
72401,8.71E-03,1.14E-02
72402,8.69E-03,1.13E-02
72403,8.67E-03,1.13E-02
72404,8.65E-03,1.12E-02
72405,8.63E-03,1.12E-02
72406,8.61E-03,1.11E-02
72407,8.58E-03,1.11E-02
72408,8.56E-03,1.10E-02
72409,8.53E-03,1.10E-02
72410,8.51E-03,1.09E-02
72411,8.48E-03,1.09E-02
72412,8.46E-03,1.08E-02
72413,8.44E-03,1.08E-02
72414,8.42E-03,1.07E-02
72415,8.40E-03,1.07E-02
72416,8.39E-03,1.06E-02
72417,8.37E-03,1.06E-02
72418,8.36E-03,1.05E-02
72419,8.34E-03,1.05E-02
72420,8.33E-03,1.05E-02
72421,8.32E-03,1.04E-02
72422,8.31E-03,1.04E-02
72423,8.30E-03,1.04E-02
72424,8.29E-03,1.04E-02
72425,8.27E-03,1.03E-02
72426,8.25E-03,1.03E-02
72427,8.23E-03,1.03E-02
72428,8.21E-03,1.03E-02
72429,8.20E-03,1.03E-02
72430,8.19E-03,1.02E-02
72431,8.18E-03,1.02E-02
72432,8.17E-03,1.02E-02
72433,8.17E-03,1.02E-02
72434,8.16E-03,1.02E-02
72435,8.15E-03,1.02E-02
72436,8.15E-03,1.02E-02
72437,8.14E-03,1.02E-02
72438,8.13E-03,1.02E-02
72439,8.12E-03,1.02E-02
72440,8.11E-03,1.02E-02
72441,8.10E-03,1.02E-02
72442,8.10E-03,1.03E-02
72443,8.10E-03,1.03E-02
72444,8.10E-03,1.03E-02
72445,8.09E-03,1.03E-02
72446,8.07E-03,1.03E-02
72447,8.06E-03,1.03E-02
72448,8.04E-03,1.04E-02
72449,8.02E-03,1.04E-02
72450,8.01E-03,1.04E-02
72451,8.00E-03,1.05E-02
72452,7.99E-03,1.05E-02
72453,7.97E-03,1.05E-02
72454,7.95E-03,1.06E-02
72455,7.92E-03,1.06E-02
72456,7.89E-03,1.06E-02
72457,7.87E-03,1.07E-02
72458,7.85E-03,1.07E-02
72459,7.82E-03,1.08E-02
72460,7.80E-03,1.08E-02
72461,7.76E-03,1.09E-02
72462,7.73E-03,1.09E-02
72463,7.69E-03,1.10E-02
72464,7.67E-03,1.10E-02
72465,7.67E-03,1.11E-02
72466,7.67E-03,1.12E-02
72467,7.67E-03,1.12E-02
72468,7.67E-03,1.13E-02
72469,7.68E-03,1.14E-02
72470,7.69E-03,1.14E-02
72471,7.70E-03,1.15E-02
72472,7.72E-03,1.16E-02
72473,7.74E-03,1.17E-02
72474,7.76E-03,1.17E-02
72475,7.78E-03,1.18E-02
72476,7.79E-03,1.19E-02
72477,7.80E-03,1.20E-02
72478,7.81E-03,1.21E-02
72479,7.82E-03,1.22E-02
72480,7.84E-03,1.23E-02
72481,7.85E-03,1.24E-02
72482,7.86E-03,1.25E-02
72483,7.85E-03,1.26E-02
72484,7.85E-03,1.27E-02
72485,7.84E-03,1.28E-02
72486,7.87E-03,1.29E-02
72487,7.92E-03,1.30E-02
72488,7.98E-03,1.31E-02
72489,8.02E-03,1.33E-02
72490,8.04E-03,1.34E-02
72491,8.06E-03,1.35E-02
72492,8.08E-03,1.37E-02
72493,8.10E-03,1.38E-02
72494,8.14E-03,1.39E-02
72495,8.18E-03,1.41E-02
72496,8.20E-03,1.43E-02
72497,8.11E-03,1.44E-02
72498,8.03E-03,1.46E-02
72499,7.95E-03,1.48E-02
72500,7.91E-03,1.50E-02
72501,7.84E-03,1.52E-02
72502,7.79E-03,1.54E-02
72503,7.73E-03,1.56E-02
72504,7.75E-03,1.58E-02
72505,7.69E-03,1.60E-02
72506,7.74E-03,1.62E-02
72507,9.58E-03,1.73E-02
72508,1.01E-02,1.76E-02
72509,8.51E-03,1.78E-02
72510,7.09E-03,1.81E-02
72511,8.50E-03,1.82E-02
72512,8.19E-03,1.83E-02
72513,8.16E-03,1.84E-02
72514,8.03E-03,1.85E-02
72515,7.88E-03,1.86E-02
72516,7.85E-03,1.87E-02
72517,7.83E-03,1.87E-02
72518,7.82E-03,1.88E-02
72519,7.79E-03,1.88E-02
72520,7.76E-03,1.88E-02
72521,7.73E-03,1.88E-02
72522,7.72E-03,1.88E-02
72523,7.75E-03,1.88E-02
72524,7.79E-03,1.88E-02
72525,7.83E-03,1.88E-02
72526,7.86E-03,1.89E-02
72527,7.89E-03,1.89E-02
72528,7.92E-03,1.89E-02
72529,7.97E-03,1.89E-02
72530,8.02E-03,1.89E-02
72531,8.06E-03,1.88E-02
72532,8.09E-03,1.88E-02
72533,8.11E-03,1.88E-02
72534,8.15E-03,1.88E-02
72535,8.22E-03,1.88E-02
72536,8.29E-03,1.87E-02
72537,8.33E-03,1.87E-02
72538,8.39E-03,1.87E-02
72539,8.48E-03,1.87E-02
72540,8.62E-03,1.87E-02
72541,8.78E-03,1.87E-02
72542,8.85E-03,1.87E-02
72543,8.84E-03,1.87E-02
72544,8.83E-03,1.87E-02
72545,8.84E-03,1.87E-02
72546,8.77E-03,1.87E-02
72547,8.56E-03,1.88E-02
72548,8.36E-03,1.88E-02
72549,8.26E-03,1.88E-02
72550,8.18E-03,1.89E-02
72551,8.11E-03,1.89E-02
72552,8.08E-03,1.89E-02
72553,8.05E-03,1.90E-02
72554,8.03E-03,1.90E-02
72555,8.01E-03,1.90E-02
72556,7.98E-03,1.91E-02
72557,7.97E-03,1.91E-02
72558,7.97E-03,1.91E-02
72559,7.97E-03,1.92E-02
72560,7.97E-03,1.92E-02
72561,7.96E-03,1.92E-02
72562,7.96E-03,1.93E-02
72563,7.96E-03,1.93E-02
72564,7.96E-03,1.93E-02
72565,7.96E-03,1.92E-02
72566,7.96E-03,1.92E-02
72567,7.96E-03,1.92E-02
72568,8.01E-03,1.92E-02
72569,8.07E-03,1.91E-02
72570,8.10E-03,1.91E-02
72571,8.10E-03,1.91E-02
72572,8.11E-03,1.91E-02
72573,8.14E-03,1.91E-02
72574,8.16E-03,1.91E-02
72575,8.18E-03,1.91E-02
72576,8.21E-03,1.91E-02
72577,8.23E-03,1.90E-02
72578,8.32E-03,1.90E-02
72579,8.45E-03,1.89E-02
72580,8.44E-03,1.89E-02
72581,8.59E-03,1.88E-02
72582,8.62E-03,1.88E-02
72583,8.73E-03,1.87E-02
72584,8.83E-03,1.87E-02
72585,8.73E-03,1.86E-02
72586,8.69E-03,1.86E-02
72587,8.37E-03,1.86E-02
72588,8.08E-03,1.87E-02
72589,8.08E-03,1.87E-02
72590,7.45E-03,1.88E-02
72591,7.36E-03,1.88E-02
72592,7.37E-03,1.88E-02
72593,7.45E-03,1.88E-02
72594,7.54E-03,1.88E-02
72595,7.62E-03,1.88E-02
72596,7.68E-03,1.88E-02
72597,7.73E-03,1.88E-02
72598,7.78E-03,1.87E-02
72599,7.84E-03,1.87E-02
72600,7.88E-03,1.86E-02
72601,7.91E-03,1.85E-02
72602,7.94E-03,1.84E-02
72603,7.96E-03,1.83E-02
72604,7.98E-03,1.82E-02
72605,7.99E-03,1.81E-02
72606,8.00E-03,1.80E-02
72607,8.01E-03,1.79E-02
72608,8.02E-03,1.78E-02
72609,8.03E-03,1.77E-02
72610,8.03E-03,1.76E-02
72611,8.04E-03,1.75E-02
72612,8.05E-03,1.75E-02
72613,8.05E-03,1.74E-02
72614,8.05E-03,1.73E-02
72615,8.05E-03,1.72E-02
72616,8.06E-03,1.71E-02
72617,8.06E-03,1.70E-02
72618,8.06E-03,1.69E-02
72619,8.06E-03,1.68E-02
72620,8.06E-03,1.66E-02
72621,8.07E-03,1.65E-02
72622,8.07E-03,1.63E-02
72623,8.07E-03,1.60E-02
72624,8.07E-03,1.58E-02
72625,8.07E-03,1.56E-02
72626,8.07E-03,1.53E-02
72627,8.08E-03,1.50E-02
72628,8.08E-03,1.47E-02
72629,8.08E-03,1.44E-02
72630,8.08E-03,1.41E-02
72631,8.08E-03,1.38E-02
72632,8.08E-03,1.35E-02
72633,8.08E-03,1.32E-02
72634,8.08E-03,1.30E-02
72635,8.08E-03,1.27E-02
72636,8.08E-03,1.25E-02
72637,8.08E-03,1.23E-02
72638,8.08E-03,1.21E-02
72639,8.08E-03,1.19E-02
72640,8.08E-03,1.17E-02
72641,8.08E-03,1.16E-02
72642,8.08E-03,1.15E-02
72643,8.08E-03,1.14E-02
72644,8.08E-03,1.13E-02
72645,8.08E-03,1.12E-02
72646,8.08E-03,1.11E-02
72647,8.08E-03,1.11E-02
72648,8.07E-03,1.10E-02
72649,8.07E-03,1.10E-02
72650,8.07E-03,1.10E-02
72651,8.07E-03,1.10E-02
72652,8.07E-03,1.10E-02
72653,8.07E-03,1.11E-02
72654,8.06E-03,1.11E-02
72655,8.06E-03,1.12E-02
72656,8.06E-03,1.13E-02
72657,8.05E-03,1.14E-02
72658,8.05E-03,1.15E-02
72659,8.04E-03,1.16E-02
72660,8.04E-03,1.17E-02
72661,8.04E-03,1.18E-02
72662,8.03E-03,1.19E-02
72663,8.03E-03,1.21E-02
72664,8.03E-03,1.22E-02
72665,8.03E-03,1.23E-02
72666,8.02E-03,1.24E-02
72667,8.02E-03,1.26E-02
72668,8.02E-03,1.27E-02
72669,8.01E-03,1.28E-02
72670,8.01E-03,1.30E-02
72671,8.01E-03,1.31E-02
72672,8.00E-03,1.32E-02
72673,8.00E-03,1.34E-02
72674,7.99E-03,1.35E-02
72675,7.98E-03,1.36E-02
72676,7.98E-03,1.37E-02
72677,7.97E-03,1.38E-02
72678,7.96E-03,1.40E-02
72679,7.96E-03,1.41E-02
72680,7.96E-03,1.42E-02
72681,7.96E-03,1.43E-02
72682,7.96E-03,1.44E-02
72683,7.96E-03,1.45E-02
72684,7.96E-03,1.46E-02
72685,7.96E-03,1.48E-02
72686,7.97E-03,1.49E-02
72687,7.97E-03,1.50E-02
72688,7.97E-03,1.51E-02
72689,7.97E-03,1.52E-02
72690,7.97E-03,1.53E-02
72691,7.98E-03,1.54E-02
72692,7.98E-03,1.55E-02
72693,7.98E-03,1.56E-02
72694,7.98E-03,1.57E-02
72695,7.98E-03,1.59E-02
72696,7.99E-03,1.60E-02
72697,7.99E-03,1.61E-02
72698,7.99E-03,1.62E-02
72699,7.99E-03,1.63E-02
72700,7.99E-03,1.64E-02
72701,7.99E-03,1.65E-02
72702,7.99E-03,1.66E-02
72703,7.99E-03,1.67E-02
72704,8.00E-03,1.68E-02
72705,8.01E-03,1.69E-02
72706,8.01E-03,1.71E-02
72707,8.02E-03,1.72E-02
72708,8.02E-03,1.73E-02
72709,8.02E-03,1.74E-02
72710,8.00E-03,1.75E-02
72711,7.98E-03,1.76E-02
72712,7.96E-03,1.78E-02
72713,7.87E-03,1.79E-02
72714,7.82E-03,1.80E-02
72715,7.73E-03,1.81E-02
72716,7.64E-03,1.82E-02
72717,7.55E-03,1.84E-02
72718,7.37E-03,1.85E-02
72719,7.19E-03,1.86E-02
72720,6.96E-03,1.87E-02
72721,6.78E-03,1.89E-02
72722,6.79E-03,1.90E-02
72723,6.93E-03,1.91E-02
72724,7.05E-03,1.92E-02
72725,7.16E-03,1.93E-02
72726,7.25E-03,1.95E-02
72727,7.32E-03,1.96E-02
72728,7.35E-03,1.97E-02
72729,7.36E-03,1.99E-02
72730,7.37E-03,2.00E-02
72731,7.38E-03,2.01E-02
72732,7.40E-03,2.03E-02
72733,7.41E-03,2.04E-02
72734,7.42E-03,2.06E-02
72735,7.41E-03,2.07E-02
72736,7.41E-03,2.08E-02
72737,7.40E-03,2.09E-02
72738,7.40E-03,2.11E-02
72739,7.40E-03,2.12E-02
72740,7.41E-03,2.13E-02
72741,7.41E-03,2.14E-02
72742,7.45E-03,2.15E-02
72743,7.54E-03,2.16E-02
72744,7.63E-03,2.17E-02
72745,7.71E-03,2.19E-02
72746,7.76E-03,2.19E-02
72747,7.80E-03,2.20E-02
72748,7.85E-03,2.21E-02
72749,7.87E-03,2.22E-02
72750,7.87E-03,2.23E-02
72751,7.94E-03,2.24E-02
72752,8.04E-03,2.25E-02
72753,8.08E-03,2.26E-02
72754,8.10E-03,2.27E-02
72755,8.14E-03,2.28E-02
72756,8.20E-03,2.29E-02
72757,8.27E-03,2.30E-02
72758,8.39E-03,2.31E-02
72759,8.52E-03,2.32E-02
72760,8.59E-03,2.33E-02
72761,8.62E-03,2.34E-02
72762,8.64E-03,2.35E-02
72763,8.52E-03,2.36E-02
72764,8.15E-03,2.38E-02
72765,7.93E-03,2.39E-02
72766,7.73E-03,2.41E-02
72767,7.42E-03,2.42E-02
72768,7.08E-03,2.43E-02
72769,6.71E-03,2.45E-02
72770,6.44E-03,2.46E-02
72771,6.17E-03,2.47E-02
72772,5.78E-03,2.48E-02
72773,6.35E-03,2.49E-02
72774,6.28E-03,2.50E-02
72775,6.43E-03,2.51E-02
72776,6.61E-03,2.51E-02
72777,6.75E-03,2.51E-02
72778,7.09E-03,2.51E-02
72779,7.22E-03,2.51E-02
72780,7.47E-03,2.51E-02
72781,7.72E-03,2.50E-02
72782,7.94E-03,2.50E-02
72783,8.16E-03,2.49E-02
72784,8.85E-03,2.49E-02
72785,8.91E-03,2.48E-02
72786,8.86E-03,2.47E-02
72787,8.77E-03,2.46E-02
72788,8.67E-03,2.45E-02
72789,8.59E-03,2.44E-02
72790,8.53E-03,2.43E-02
72791,8.48E-03,2.42E-02
72792,8.43E-03,2.41E-02
72793,8.39E-03,2.40E-02
72794,8.35E-03,2.39E-02
72795,8.31E-03,2.38E-02
72796,8.26E-03,2.37E-02
72797,8.23E-03,2.36E-02
72798,8.21E-03,2.36E-02
72799,8.20E-03,2.35E-02
72800,8.19E-03,2.35E-02
72801,8.17E-03,2.34E-02
72802,8.16E-03,2.34E-02
72803,8.16E-03,2.34E-02
72804,8.15E-03,2.34E-02
72805,8.15E-03,2.34E-02
72806,8.15E-03,2.35E-02
72807,8.15E-03,2.35E-02
72808,8.14E-03,2.35E-02
72809,8.13E-03,2.35E-02
72810,8.12E-03,2.36E-02
72811,8.11E-03,2.36E-02
72812,8.11E-03,2.36E-02
72813,8.10E-03,2.36E-02
72814,8.10E-03,2.36E-02
72815,8.10E-03,2.36E-02
72816,8.10E-03,2.37E-02
72817,8.10E-03,2.37E-02
72818,8.10E-03,2.37E-02
72819,8.10E-03,2.37E-02
72820,8.10E-03,2.37E-02
72821,8.09E-03,2.37E-02
72822,8.09E-03,2.37E-02
72823,8.09E-03,2.37E-02
72824,8.09E-03,2.37E-02
72825,8.09E-03,2.37E-02
72826,8.09E-03,2.37E-02
72827,8.09E-03,2.37E-02
72828,8.09E-03,2.37E-02
72829,8.10E-03,2.36E-02
72830,8.10E-03,2.36E-02
72831,8.10E-03,2.35E-02
72832,8.11E-03,2.34E-02
72833,8.11E-03,2.33E-02
72834,8.11E-03,2.32E-02
72835,8.12E-03,2.31E-02
72836,8.13E-03,2.30E-02
72837,8.13E-03,2.29E-02
72838,8.14E-03,2.28E-02
72839,8.14E-03,2.28E-02
72840,8.14E-03,2.27E-02
72841,8.15E-03,2.27E-02
72842,8.15E-03,2.26E-02
72843,8.15E-03,2.27E-02
72844,8.16E-03,2.27E-02
72845,8.16E-03,2.27E-02
72846,8.17E-03,2.28E-02
72847,8.18E-03,2.28E-02
72848,8.19E-03,2.29E-02
72849,8.20E-03,2.29E-02
72850,8.20E-03,2.30E-02
72851,8.20E-03,2.30E-02
72852,8.20E-03,2.30E-02
72853,8.20E-03,2.31E-02
72854,8.19E-03,2.31E-02
72855,8.19E-03,2.31E-02
72856,8.19E-03,2.32E-02
72857,8.18E-03,2.32E-02
72858,8.18E-03,2.32E-02
72859,8.18E-03,2.32E-02
72860,8.18E-03,2.32E-02
72861,8.17E-03,2.32E-02
72862,8.15E-03,2.31E-02
72863,8.12E-03,2.30E-02
72864,8.10E-03,2.30E-02
72865,8.08E-03,2.29E-02
72866,8.08E-03,2.28E-02
72867,8.09E-03,2.28E-02
72868,8.08E-03,2.29E-02
72869,8.07E-03,2.29E-02
72870,8.06E-03,2.30E-02
72871,8.05E-03,2.30E-02
72872,8.04E-03,2.30E-02
72873,8.03E-03,2.29E-02
72874,8.02E-03,2.27E-02
72875,8.00E-03,2.25E-02
72876,7.99E-03,2.22E-02
72877,7.98E-03,2.18E-02
72878,7.97E-03,2.15E-02
72879,7.97E-03,2.11E-02
72880,7.96E-03,2.08E-02
72881,7.96E-03,2.04E-02
72882,7.96E-03,2.01E-02
72883,7.95E-03,1.98E-02
72884,7.94E-03,1.95E-02
72885,7.94E-03,1.91E-02
72886,7.93E-03,1.88E-02
72887,7.93E-03,1.86E-02
72888,7.93E-03,1.83E-02
72889,7.94E-03,1.80E-02
72890,7.94E-03,1.76E-02
72891,7.95E-03,1.73E-02
72892,7.95E-03,1.70E-02
72893,7.96E-03,1.68E-02
72894,7.96E-03,1.65E-02
72895,7.96E-03,1.63E-02
72896,7.97E-03,1.61E-02
72897,7.97E-03,1.60E-02
72898,7.97E-03,1.58E-02
72899,7.97E-03,1.56E-02
72900,7.97E-03,1.54E-02
72901,7.98E-03,1.52E-02
72902,7.98E-03,1.49E-02
72903,7.97E-03,1.47E-02
72904,7.97E-03,1.45E-02
72905,7.97E-03,1.42E-02
72906,7.96E-03,1.40E-02
72907,7.96E-03,1.38E-02
72908,7.95E-03,1.35E-02
72909,7.95E-03,1.33E-02
72910,7.94E-03,1.31E-02
72911,7.93E-03,1.29E-02
72912,7.92E-03,1.27E-02
72913,7.91E-03,1.26E-02
72914,7.90E-03,1.24E-02
72915,7.89E-03,1.22E-02
72916,7.90E-03,1.21E-02
72917,7.90E-03,1.19E-02
72918,7.90E-03,1.17E-02
72919,7.90E-03,1.15E-02
72920,7.97E-03,1.14E-02
72921,8.07E-03,1.12E-02
72922,8.13E-03,1.10E-02
72923,8.23E-03,1.08E-02
72924,8.37E-03,1.07E-02
72925,8.48E-03,1.05E-02
72926,8.51E-03,1.04E-02
72927,8.50E-03,1.02E-02
72928,8.49E-03,1.01E-02
72929,8.48E-03,9.97E-03
72930,8.47E-03,9.84E-03
72931,8.46E-03,9.70E-03
72932,8.44E-03,9.54E-03
72933,8.42E-03,9.38E-03
72934,8.41E-03,9.21E-03
72935,8.40E-03,9.03E-03
72936,8.37E-03,8.86E-03
72937,8.36E-03,8.69E-03
72938,8.33E-03,8.53E-03
72939,8.24E-03,8.38E-03
72940,8.14E-03,8.25E-03
72941,8.08E-03,8.11E-03
72942,8.01E-03,7.98E-03
72943,7.91E-03,7.85E-03
72944,7.88E-03,7.71E-03
72945,7.82E-03,7.57E-03
72946,7.75E-03,7.43E-03
72947,7.65E-03,7.28E-03
72948,7.45E-03,7.14E-03
72949,7.32E-03,7.02E-03
72950,7.13E-03,6.90E-03
72951,6.92E-03,6.80E-03
72952,6.83E-03,6.71E-03
72953,6.84E-03,6.62E-03
72954,6.98E-03,6.53E-03
72955,7.17E-03,6.45E-03
72956,7.39E-03,6.37E-03
72957,7.67E-03,6.28E-03
72958,8.00E-03,6.20E-03
72959,8.12E-03,6.12E-03
72960,8.35E-03,6.04E-03
72961,8.48E-03,5.96E-03
72962,8.70E-03,5.88E-03
72963,8.75E-03,5.79E-03
72964,8.73E-03,5.70E-03
72965,8.58E-03,5.60E-03
72966,8.45E-03,5.51E-03
72967,8.37E-03,5.41E-03
72968,8.32E-03,5.31E-03
72969,8.28E-03,5.21E-03
72970,8.24E-03,5.11E-03
72971,8.18E-03,5.01E-03
72972,8.13E-03,4.92E-03
72973,8.10E-03,4.82E-03
72974,8.09E-03,4.73E-03
72975,8.07E-03,4.63E-03
72976,8.06E-03,4.54E-03
72977,8.04E-03,4.46E-03
72978,8.02E-03,4.37E-03
72979,8.00E-03,4.29E-03
72980,7.99E-03,4.21E-03
72981,7.98E-03,4.13E-03
72982,7.97E-03,4.06E-03
72983,7.96E-03,3.99E-03
72984,7.95E-03,3.92E-03
72985,7.93E-03,3.85E-03
72986,7.91E-03,3.78E-03
72987,7.90E-03,3.72E-03
72988,7.88E-03,3.66E-03
72989,7.87E-03,3.60E-03
72990,7.86E-03,3.55E-03
72991,7.86E-03,3.49E-03
72992,7.86E-03,3.44E-03
72993,7.86E-03,3.39E-03
72994,7.86E-03,3.34E-03
72995,7.86E-03,3.29E-03
72996,7.86E-03,3.25E-03
72997,7.86E-03,3.20E-03
72998,7.85E-03,3.16E-03
72999,7.85E-03,3.11E-03
73000,7.85E-03,3.07E-03
73001,7.84E-03,3.03E-03
73002,7.84E-03,2.99E-03
73003,7.85E-03,2.95E-03
73004,7.85E-03,2.91E-03
73005,7.85E-03,2.87E-03
73006,7.86E-03,2.84E-03
73007,7.87E-03,2.80E-03
73008,7.87E-03,2.77E-03
73009,7.88E-03,2.73E-03
73010,7.89E-03,2.70E-03
73011,7.91E-03,2.67E-03
73012,7.92E-03,2.64E-03
73013,7.94E-03,2.61E-03
73014,7.94E-03,2.58E-03
73015,7.95E-03,2.55E-03
73016,7.96E-03,2.52E-03
73017,7.97E-03,2.49E-03
73018,7.97E-03,2.46E-03
73019,7.98E-03,2.44E-03
73020,7.98E-03,2.41E-03
73021,7.99E-03,2.39E-03
73022,8.00E-03,2.36E-03
73023,8.00E-03,2.34E-03
73024,8.01E-03,2.31E-03
73025,8.01E-03,2.29E-03
73026,8.02E-03,2.26E-03
73027,8.02E-03,2.24E-03
73028,8.02E-03,2.21E-03
73029,8.03E-03,2.19E-03
73030,8.03E-03,2.16E-03
73031,8.03E-03,2.13E-03
73032,8.03E-03,2.11E-03
73033,8.04E-03,2.08E-03
73034,8.04E-03,2.05E-03
73035,8.05E-03,2.03E-03
73036,8.05E-03,2.00E-03
73037,8.06E-03,1.97E-03
73038,8.06E-03,1.94E-03
73039,8.06E-03,1.91E-03
73040,8.07E-03,1.88E-03
73041,8.07E-03,1.85E-03
73042,8.07E-03,1.82E-03
73043,8.07E-03,1.79E-03
73044,8.07E-03,1.76E-03
73045,8.06E-03,1.73E-03
73046,8.06E-03,1.70E-03
73047,8.04E-03,1.67E-03
73048,8.02E-03,1.64E-03
73049,8.00E-03,1.61E-03
73050,7.97E-03,1.58E-03
73051,7.95E-03,1.54E-03
73052,7.93E-03,1.51E-03
73053,7.91E-03,1.48E-03
73054,7.88E-03,1.45E-03
73055,7.84E-03,1.42E-03
73056,7.79E-03,1.39E-03
73057,7.72E-03,1.36E-03
73058,7.66E-03,1.33E-03
73059,7.62E-03,1.31E-03
73060,7.59E-03,1.28E-03
73061,7.56E-03,1.25E-03
73062,7.51E-03,1.23E-03
73063,7.47E-03,1.21E-03
73064,7.44E-03,1.19E-03
73065,7.44E-03,1.17E-03
73066,7.46E-03,1.15E-03
73067,7.50E-03,1.14E-03
73068,7.55E-03,1.12E-03
73069,7.58E-03,1.11E-03
73070,7.61E-03,1.10E-03
73071,7.62E-03,1.09E-03
73072,7.64E-03,1.09E-03
73073,7.66E-03,1.08E-03
73074,7.69E-03,1.08E-03
73075,7.72E-03,1.07E-03
73076,7.75E-03,1.07E-03
73077,7.78E-03,1.07E-03
73078,7.80E-03,1.07E-03
73079,7.82E-03,1.07E-03
73080,7.84E-03,1.07E-03
73081,7.86E-03,1.07E-03
73082,7.87E-03,1.07E-03
73083,7.88E-03,1.07E-03
73084,7.90E-03,1.06E-03
73085,7.94E-03,1.06E-03
73086,8.03E-03,1.06E-03
73087,8.09E-03,1.06E-03
73088,8.15E-03,1.05E-03
73089,8.22E-03,1.05E-03
73090,8.28E-03,1.04E-03
73091,8.36E-03,1.02E-03
73092,8.36E-03,1.01E-03
73093,8.19E-03,9.91E-04
73094,8.06E-03,9.70E-04
73095,7.98E-03,9.48E-04
73096,7.87E-03,9.25E-04
73097,7.79E-03,9.01E-04
73098,7.70E-03,8.79E-04
73099,7.58E-03,8.57E-04
73100,7.42E-03,8.36E-04
73101,7.32E-03,8.18E-04
73102,7.31E-03,8.03E-04
73103,7.31E-03,7.91E-04
73104,7.32E-03,7.82E-04
73105,7.33E-03,7.76E-04
73106,7.41E-03,7.73E-04
73107,7.59E-03,7.73E-04
73108,7.76E-03,7.74E-04
73109,7.85E-03,7.72E-04
73110,7.91E-03,7.68E-04
73111,8.04E-03,7.56E-04
73112,8.08E-03,7.34E-04
73113,8.13E-03,7.03E-04
73114,8.15E-03,6.66E-04
73115,8.06E-03,6.16E-04
73116,7.93E-03,5.51E-04
73117,7.94E-03,4.53E-04
73118,1.00E-02,3.81E-02
73119,8.96E-03,4.14E-02
73120,8.41E-03,4.42E-02
73121,8.35E-03,4.67E-02
73122,8.35E-03,4.90E-02
73123,8.49E-03,5.07E-02
73124,8.90E-03,5.22E-02
73125,9.03E-03,5.36E-02
73126,8.91E-03,5.54E-02
73127,8.43E-03,5.69E-02
73128,8.33E-03,5.80E-02
73129,8.44E-03,5.88E-02
73130,8.08E-03,5.97E-02
73131,7.73E-03,6.02E-02
73132,6.05E-03,6.16E-02
73133,5.88E-03,3.88E-04
73134,8.10E-03,1.23E-02
73135,8.10E-03,1.23E-02
73136,5.07E-03,6.28E-02
73137,7.69E-03,6.24E-02
73138,7.91E-03,6.18E-02
73139,8.14E-03,6.13E-02
73140,8.24E-03,6.10E-02
73141,8.31E-03,6.07E-02
73142,8.53E-03,6.02E-02
73143,8.60E-03,5.91E-02
73144,8.46E-03,5.68E-02
73145,8.18E-03,5.40E-02
73146,8.24E-03,5.12E-02
73147,8.25E-03,4.90E-02
73148,8.29E-03,4.70E-02
73149,8.70E-03,4.45E-02
73150,8.74E-03,4.13E-02
73151,8.17E-03,3.75E-02
73152,7.57E-03,3.31E-02
73153,7.32E-03,2.99E-02
73154,7.35E-03,2.80E-02
73155,7.31E-03,2.75E-02
73156,7.48E-03,2.77E-02
73157,7.73E-03,2.79E-02
73158,7.94E-03,2.79E-02
73159,8.21E-03,2.75E-02
73160,8.14E-03,2.69E-02
73161,8.12E-03,2.64E-02
73162,8.19E-03,2.59E-02
73163,8.26E-03,2.54E-02
73164,8.38E-03,2.50E-02
73165,8.44E-03,2.45E-02
73166,8.47E-03,2.37E-02
73167,8.55E-03,2.23E-02
73168,8.37E-03,2.06E-02
73169,8.32E-03,1.89E-02
73170,8.20E-03,1.73E-02
73171,8.12E-03,1.60E-02
73172,7.99E-03,1.48E-02
73173,7.99E-03,1.38E-02
73174,7.99E-03,1.28E-02
73175,7.99E-03,1.20E-02
73176,7.99E-03,1.13E-02
73177,7.99E-03,1.06E-02
73178,8.04E-03,1.00E-02
73179,8.11E-03,9.49E-03
73180,8.30E-03,8.97E-03
73181,8.48E-03,8.45E-03
73182,8.61E-03,7.85E-03
73183,8.76E-03,7.28E-03
73184,8.49E-03,6.47E-03
73185,8.12E-03,5.63E-03
73186,7.99E-03,4.86E-03
73187,7.93E-03,4.18E-03
73188,7.72E-03,3.59E-03
73189,7.71E-03,3.09E-03
73190,7.67E-03,2.66E-03
73191,7.62E-03,2.32E-03
73192,7.69E-03,2.11E-03
73193,7.79E-03,1.96E-03
73194,7.80E-03,1.84E-03
73195,8.24E-03,1.71E-03
73196,8.23E-03,1.53E-03
73197,8.34E-03,1.32E-03
73198,8.19E-03,1.09E-03
73199,7.90E-03,8.77E-04
73200,7.78E-03,6.92E-04
73201,7.54E-03,5.36E-04
73202,7.45E-03,4.15E-04
73203,7.43E-03,3.39E-04
73204,6.72E-03,3.14E-04
73205,4.91E-03,3.01E-04
73206,5.45E-03,3.37E-04
73207,7.34E-03,3.34E-04
73208,7.95E-03,3.54E-04
73209,8.04E-03,3.97E-04
73210,8.07E-03,4.50E-04
73211,8.14E-03,4.97E-04
73212,8.08E-03,5.34E-04
73213,8.03E-03,5.58E-04
73214,7.98E-03,5.74E-04
73215,7.95E-03,5.87E-04
73216,7.89E-03,5.95E-04
73217,7.79E-03,6.00E-04
73218,7.68E-03,6.05E-04
73219,7.63E-03,6.13E-04
73220,7.63E-03,6.24E-04
73221,7.63E-03,6.36E-04
73222,7.62E-03,6.52E-04
73223,7.63E-03,6.71E-04
73224,7.69E-03,6.92E-04
73225,7.79E-03,7.16E-04
73226,7.86E-03,7.40E-04
73227,7.91E-03,7.65E-04
73228,7.96E-03,7.90E-04
73229,8.02E-03,8.15E-04
73230,8.07E-03,8.38E-04
73231,8.15E-03,8.61E-04
73232,8.26E-03,8.81E-04
73233,8.26E-03,8.98E-04
73234,8.21E-03,9.13E-04
73235,8.17E-03,9.24E-04
73236,8.13E-03,9.33E-04
73237,8.09E-03,9.40E-04
73238,8.05E-03,9.45E-04
73239,8.00E-03,9.49E-04
73240,7.98E-03,9.52E-04
73241,7.97E-03,9.55E-04
73242,7.96E-03,9.57E-04
73243,7.95E-03,9.59E-04
73244,7.94E-03,9.61E-04
73245,7.93E-03,9.63E-04
73246,7.92E-03,9.64E-04
73247,7.90E-03,9.67E-04
73248,7.89E-03,9.69E-04
73249,7.87E-03,9.72E-04
73250,7.85E-03,9.76E-04
73251,7.84E-03,9.80E-04
73252,7.82E-03,9.86E-04
73253,7.81E-03,9.93E-04
73254,7.80E-03,1.00E-03
73255,7.79E-03,1.01E-03
73256,7.77E-03,1.02E-03
73257,7.74E-03,1.04E-03
73258,7.71E-03,1.05E-03
73259,7.70E-03,1.07E-03
73260,7.70E-03,1.09E-03
73261,7.72E-03,1.11E-03
73262,7.75E-03,1.13E-03
73263,7.77E-03,1.16E-03
73264,7.79E-03,1.18E-03
73265,7.81E-03,1.21E-03
73266,7.83E-03,1.24E-03
73267,7.87E-03,1.27E-03
73268,7.91E-03,1.30E-03
73269,7.94E-03,1.33E-03
73270,7.97E-03,1.36E-03
73271,7.98E-03,1.39E-03
73272,8.00E-03,1.42E-03
73273,8.01E-03,1.45E-03
73274,8.02E-03,1.48E-03
73275,8.04E-03,1.51E-03
73276,8.05E-03,1.54E-03
73277,8.06E-03,1.57E-03
73278,8.07E-03,1.60E-03
73279,8.08E-03,1.63E-03
73280,8.08E-03,1.66E-03
73281,8.08E-03,1.69E-03
73282,8.08E-03,1.72E-03
73283,8.08E-03,1.75E-03
73284,8.08E-03,1.78E-03
73285,8.08E-03,1.81E-03
73286,8.07E-03,1.84E-03
73287,8.07E-03,1.87E-03
73288,8.07E-03,1.90E-03
73289,8.07E-03,1.93E-03
73290,8.06E-03,1.95E-03
73291,8.06E-03,1.98E-03
73292,8.06E-03,2.01E-03
73293,8.06E-03,2.03E-03
73294,8.06E-03,2.06E-03
73295,8.05E-03,2.08E-03
73296,8.05E-03,2.11E-03
73297,8.05E-03,2.13E-03
73298,8.05E-03,2.16E-03
73299,8.05E-03,2.18E-03
73300,8.04E-03,2.21E-03
73301,8.04E-03,2.23E-03
73302,8.04E-03,2.25E-03
73303,8.03E-03,2.28E-03
73304,8.03E-03,2.30E-03
73305,8.03E-03,2.33E-03
73306,8.02E-03,2.36E-03
73307,8.02E-03,2.38E-03
73308,8.01E-03,2.41E-03
73309,8.01E-03,2.44E-03
73310,8.01E-03,2.47E-03
73311,8.00E-03,2.50E-03
73312,7.99E-03,2.53E-03
73313,7.98E-03,2.56E-03
73314,7.97E-03,2.59E-03
73315,7.97E-03,2.62E-03
73316,7.96E-03,2.66E-03
73317,7.96E-03,2.69E-03
73318,7.95E-03,2.73E-03
73319,7.95E-03,2.76E-03
73320,7.95E-03,2.80E-03
73321,7.95E-03,2.84E-03
73322,7.94E-03,2.88E-03
73323,7.95E-03,2.92E-03
73324,7.95E-03,2.96E-03
73325,7.95E-03,3.00E-03
73326,7.95E-03,3.04E-03
73327,7.95E-03,3.08E-03
73328,7.95E-03,3.13E-03
73329,7.95E-03,3.17E-03
73330,7.96E-03,3.22E-03
73331,7.96E-03,3.27E-03
73332,7.96E-03,3.32E-03
73333,7.96E-03,3.37E-03
73334,7.96E-03,3.42E-03
73335,7.96E-03,3.48E-03
73336,7.97E-03,3.54E-03
73337,7.98E-03,3.60E-03
73338,7.99E-03,3.66E-03
73339,8.00E-03,3.72E-03
73340,8.01E-03,3.79E-03
73341,8.01E-03,3.86E-03
73342,8.02E-03,3.93E-03
73343,8.03E-03,4.00E-03
73344,8.03E-03,4.08E-03
73345,8.04E-03,4.16E-03
73346,8.05E-03,4.24E-03
73347,8.06E-03,4.32E-03
73348,8.07E-03,4.41E-03
73349,8.08E-03,4.50E-03
73350,8.09E-03,4.59E-03
73351,8.10E-03,4.68E-03
73352,8.11E-03,4.78E-03
73353,8.14E-03,4.87E-03
73354,8.18E-03,4.97E-03
73355,8.21E-03,5.07E-03
73356,8.23E-03,5.17E-03
73357,8.26E-03,5.27E-03
73358,8.31E-03,5.36E-03
73359,8.39E-03,5.46E-03
73360,8.47E-03,5.55E-03
73361,8.49E-03,5.65E-03
73362,8.46E-03,5.73E-03
73363,8.38E-03,5.82E-03
73364,8.24E-03,5.90E-03
73365,8.11E-03,5.98E-03
73366,8.00E-03,6.07E-03
73367,7.84E-03,6.16E-03
73368,7.67E-03,6.25E-03
73369,7.54E-03,6.35E-03
73370,7.43E-03,6.46E-03
73371,7.34E-03,6.56E-03
73372,7.33E-03,6.67E-03
73373,7.39E-03,6.78E-03
73374,7.52E-03,6.90E-03
73375,7.63E-03,7.02E-03
73376,7.71E-03,7.15E-03
73377,7.80E-03,7.30E-03
73378,7.89E-03,7.46E-03
73379,7.94E-03,7.62E-03
73380,7.98E-03,7.76E-03
73381,8.01E-03,7.89E-03
73382,8.04E-03,8.01E-03
73383,8.08E-03,8.12E-03
73384,8.12E-03,8.23E-03
73385,8.18E-03,8.35E-03
73386,8.24E-03,8.49E-03
73387,8.25E-03,8.65E-03
73388,8.26E-03,8.81E-03
73389,8.28E-03,8.99E-03
73390,8.28E-03,9.17E-03
73391,8.29E-03,9.34E-03
73392,8.30E-03,9.49E-03
73393,8.31E-03,9.64E-03
73394,8.32E-03,9.77E-03
73395,8.33E-03,9.89E-03
73396,8.33E-03,1.00E-02
73397,8.34E-03,1.01E-02
73398,8.34E-03,1.03E-02
73399,8.32E-03,1.04E-02
73400,8.26E-03,1.05E-02
73401,8.17E-03,1.07E-02
73402,8.12E-03,1.09E-02
73403,8.08E-03,1.11E-02
73404,8.02E-03,1.13E-02
73405,7.98E-03,1.14E-02
73406,7.98E-03,1.16E-02
73407,7.98E-03,1.18E-02
73408,7.98E-03,1.20E-02
73409,7.97E-03,1.22E-02
73410,7.98E-03,1.24E-02
73411,7.98E-03,1.25E-02
73412,7.99E-03,1.27E-02
73413,8.00E-03,1.29E-02
73414,8.00E-03,1.31E-02
73415,8.01E-03,1.34E-02
73416,8.01E-03,1.36E-02
73417,8.01E-03,1.38E-02
73418,8.02E-03,1.40E-02
73419,8.02E-03,1.43E-02
73420,8.02E-03,1.45E-02
73421,8.02E-03,1.47E-02
73422,8.02E-03,1.50E-02
73423,8.02E-03,1.52E-02
73424,8.02E-03,1.54E-02
73425,8.02E-03,1.57E-02
73426,8.02E-03,1.59E-02
73427,8.02E-03,1.60E-02
73428,8.02E-03,1.62E-02
73429,8.02E-03,1.64E-02
73430,8.01E-03,1.66E-02
73431,8.01E-03,1.68E-02
73432,8.01E-03,1.71E-02
73433,8.01E-03,1.74E-02
73434,8.00E-03,1.77E-02
73435,8.00E-03,1.80E-02
73436,8.00E-03,1.82E-02
73437,8.00E-03,1.85E-02
73438,8.00E-03,1.88E-02
73439,8.00E-03,1.91E-02
73440,8.00E-03,1.95E-02
73441,8.01E-03,1.98E-02
73442,8.01E-03,2.02E-02
73443,8.01E-03,2.06E-02
73444,8.02E-03,2.10E-02
73445,8.02E-03,2.14E-02
73446,8.02E-03,2.18E-02
73447,8.03E-03,2.22E-02
73448,8.03E-03,2.26E-02
73449,8.04E-03,2.31E-02
73450,8.05E-03,2.34E-02
73451,8.06E-03,2.37E-02
73452,8.06E-03,2.39E-02
73453,8.07E-03,2.39E-02
73454,8.07E-03,2.39E-02
73455,8.08E-03,2.38E-02
73456,8.09E-03,2.37E-02
73457,8.09E-03,2.36E-02
73458,8.09E-03,2.36E-02
73459,8.09E-03,2.36E-02
73460,8.10E-03,2.37E-02
73461,8.11E-03,2.37E-02
73462,8.13E-03,2.37E-02
73463,8.14E-03,2.37E-02
73464,8.15E-03,2.37E-02
73465,8.15E-03,2.37E-02
73466,8.15E-03,2.37E-02
73467,8.15E-03,2.36E-02
73468,8.15E-03,2.35E-02
73469,8.15E-03,2.35E-02
73470,8.15E-03,2.34E-02
73471,8.16E-03,2.34E-02
73472,8.16E-03,2.34E-02
73473,8.16E-03,2.33E-02
73474,8.16E-03,2.33E-02
73475,8.16E-03,2.32E-02
73476,8.15E-03,2.31E-02
73477,8.15E-03,2.31E-02
73478,8.14E-03,2.30E-02
73479,8.14E-03,2.29E-02
73480,8.13E-03,2.29E-02
73481,8.13E-03,2.28E-02
73482,8.13E-03,2.28E-02
73483,8.13E-03,2.28E-02
73484,8.12E-03,2.29E-02
73485,8.12E-03,2.29E-02
73486,8.12E-03,2.30E-02
73487,8.12E-03,2.31E-02
73488,8.12E-03,2.32E-02
73489,8.11E-03,2.33E-02
73490,8.11E-03,2.34E-02
73491,8.10E-03,2.35E-02
73492,8.10E-03,2.36E-02
73493,8.10E-03,2.37E-02
73494,8.10E-03,2.38E-02
73495,8.10E-03,2.38E-02
73496,8.09E-03,2.39E-02
73497,8.09E-03,2.39E-02
73498,8.09E-03,2.39E-02
73499,8.09E-03,2.39E-02
73500,8.09E-03,2.39E-02
73501,8.09E-03,2.39E-02
73502,8.09E-03,2.39E-02
73503,8.09E-03,2.39E-02
73504,8.10E-03,2.39E-02
73505,8.10E-03,2.39E-02
73506,8.10E-03,2.39E-02
73507,8.10E-03,2.39E-02
73508,8.10E-03,2.39E-02
73509,8.10E-03,2.39E-02
73510,8.10E-03,2.39E-02
73511,8.10E-03,2.39E-02
73512,8.10E-03,2.38E-02
73513,8.11E-03,2.38E-02
73514,8.11E-03,2.38E-02
73515,8.11E-03,2.38E-02
73516,8.12E-03,2.38E-02
73517,8.13E-03,2.37E-02
73518,8.13E-03,2.37E-02
73519,8.13E-03,2.37E-02
73520,8.13E-03,2.37E-02
73521,8.13E-03,2.37E-02
73522,8.14E-03,2.37E-02
73523,8.14E-03,2.37E-02
73524,8.15E-03,2.37E-02
73525,8.16E-03,2.37E-02
73526,8.17E-03,2.38E-02
73527,8.18E-03,2.39E-02
73528,8.20E-03,2.40E-02
73529,8.22E-03,2.40E-02
73530,8.25E-03,2.42E-02
73531,8.27E-03,2.43E-02
73532,8.30E-03,2.44E-02
73533,8.32E-03,2.45E-02
73534,8.36E-03,2.46E-02
73535,8.39E-03,2.47E-02
73536,8.44E-03,2.48E-02
73537,8.50E-03,2.49E-02
73538,8.55E-03,2.50E-02
73539,8.58E-03,2.51E-02
73540,8.50E-03,2.51E-02
73541,8.17E-03,2.52E-02
73542,7.97E-03,2.53E-02
73543,7.86E-03,2.53E-02
73544,7.70E-03,2.54E-02
73545,7.53E-03,2.54E-02
73546,7.38E-03,2.54E-02
73547,7.25E-03,2.54E-02
73548,7.10E-03,2.53E-02
73549,7.05E-03,2.53E-02
73550,7.04E-03,2.52E-02
73551,6.85E-03,2.51E-02
73552,6.60E-03,2.50E-02
73553,7.04E-03,2.49E-02
73554,7.05E-03,2.48E-02
73555,7.22E-03,2.47E-02
73556,7.40E-03,2.45E-02
73557,7.66E-03,2.44E-02
73558,7.81E-03,2.42E-02
73559,7.97E-03,2.41E-02
73560,8.14E-03,2.39E-02
73561,8.38E-03,2.38E-02
73562,8.42E-03,2.37E-02
73563,8.41E-03,2.36E-02
73564,8.39E-03,2.34E-02
73565,8.35E-03,2.33E-02
73566,8.27E-03,2.32E-02
73567,8.20E-03,2.32E-02
73568,8.16E-03,2.31E-02
73569,8.12E-03,2.30E-02
73570,8.10E-03,2.29E-02
73571,8.08E-03,2.28E-02
73572,8.06E-03,2.27E-02
73573,8.00E-03,2.26E-02
73574,7.96E-03,2.25E-02
73575,7.96E-03,2.24E-02
73576,7.95E-03,2.23E-02
73577,7.92E-03,2.22E-02
73578,7.90E-03,2.21E-02
73579,7.86E-03,2.20E-02
73580,7.82E-03,2.19E-02
73581,7.76E-03,2.18E-02
73582,7.71E-03,2.17E-02
73583,7.68E-03,2.16E-02
73584,7.68E-03,2.14E-02
73585,7.68E-03,2.13E-02
73586,7.68E-03,2.12E-02
73587,7.68E-03,2.11E-02
73588,7.68E-03,2.09E-02
73589,7.69E-03,2.08E-02
73590,7.69E-03,2.06E-02
73591,7.68E-03,2.05E-02
73592,7.68E-03,2.04E-02
73593,7.67E-03,2.02E-02
73594,7.66E-03,2.01E-02
73595,7.65E-03,1.99E-02
73596,7.65E-03,1.98E-02
73597,7.63E-03,1.97E-02
73598,7.59E-03,1.95E-02
73599,7.53E-03,1.94E-02
73600,7.47E-03,1.92E-02
73601,7.39E-03,1.91E-02
73602,7.31E-03,1.90E-02
73603,7.30E-03,1.89E-02
73604,7.41E-03,1.87E-02
73605,7.55E-03,1.86E-02
73606,7.66E-03,1.85E-02
73607,7.74E-03,1.83E-02
73608,7.81E-03,1.82E-02
73609,7.89E-03,1.81E-02
73610,7.96E-03,1.80E-02
73611,8.00E-03,1.79E-02
73612,8.01E-03,1.77E-02
73613,8.03E-03,1.76E-02
73614,8.04E-03,1.75E-02
73615,8.05E-03,1.74E-02
73616,8.05E-03,1.73E-02
73617,8.05E-03,1.72E-02
73618,8.05E-03,1.71E-02
73619,8.04E-03,1.69E-02
73620,8.04E-03,1.68E-02
73621,8.04E-03,1.67E-02
73622,8.03E-03,1.66E-02
73623,8.03E-03,1.65E-02
73624,8.03E-03,1.64E-02
73625,8.03E-03,1.63E-02
73626,8.03E-03,1.62E-02
73627,8.03E-03,1.61E-02
73628,8.03E-03,1.60E-02
73629,8.03E-03,1.59E-02
73630,8.03E-03,1.58E-02
73631,8.03E-03,1.56E-02
73632,8.03E-03,1.55E-02
73633,8.02E-03,1.54E-02
73634,8.02E-03,1.53E-02
73635,8.02E-03,1.52E-02
73636,8.02E-03,1.51E-02
73637,8.02E-03,1.50E-02
73638,8.02E-03,1.49E-02
73639,8.02E-03,1.48E-02
73640,8.02E-03,1.47E-02
73641,8.01E-03,1.46E-02
73642,8.01E-03,1.44E-02
73643,8.01E-03,1.43E-02
73644,8.01E-03,1.42E-02
73645,8.01E-03,1.41E-02
73646,8.02E-03,1.40E-02
73647,8.02E-03,1.39E-02
73648,8.02E-03,1.38E-02
73649,8.03E-03,1.36E-02
73650,8.03E-03,1.35E-02
73651,8.04E-03,1.34E-02
73652,8.04E-03,1.33E-02
73653,8.04E-03,1.32E-02
73654,8.04E-03,1.30E-02
73655,8.05E-03,1.29E-02
73656,8.05E-03,1.28E-02
73657,8.05E-03,1.26E-02
73658,8.05E-03,1.25E-02
73659,8.05E-03,1.24E-02
73660,8.06E-03,1.23E-02
73661,8.06E-03,1.21E-02
73662,8.06E-03,1.20E-02
73663,8.06E-03,1.19E-02
73664,8.06E-03,1.18E-02
73665,8.06E-03,1.17E-02
73666,8.07E-03,1.16E-02
73667,8.07E-03,1.15E-02
73668,8.07E-03,1.14E-02
73669,8.07E-03,1.13E-02
73670,8.08E-03,1.12E-02
73671,8.08E-03,1.12E-02
73672,8.08E-03,1.12E-02
73673,8.08E-03,1.12E-02
73674,8.08E-03,1.12E-02
73675,8.08E-03,1.12E-02
73676,8.08E-03,1.12E-02
73677,8.08E-03,1.13E-02
73678,8.08E-03,1.14E-02
73679,8.09E-03,1.14E-02
73680,8.09E-03,1.16E-02
73681,8.09E-03,1.17E-02
73682,8.09E-03,1.18E-02
73683,8.09E-03,1.19E-02
73684,8.09E-03,1.21E-02
73685,8.09E-03,1.23E-02
73686,8.09E-03,1.24E-02
73687,8.09E-03,1.26E-02
73688,8.09E-03,1.29E-02
73689,8.09E-03,1.31E-02
73690,8.09E-03,1.34E-02
73691,8.09E-03,1.36E-02
73692,8.09E-03,1.39E-02
73693,8.09E-03,1.43E-02
73694,8.09E-03,1.46E-02
73695,8.09E-03,1.49E-02
73696,8.08E-03,1.52E-02
73697,8.08E-03,1.55E-02
73698,8.08E-03,1.58E-02
73699,8.08E-03,1.61E-02
73700,8.08E-03,1.63E-02
73701,8.08E-03,1.66E-02
73702,8.08E-03,1.68E-02
73703,8.08E-03,1.70E-02
73704,8.08E-03,1.71E-02
73705,8.08E-03,1.73E-02
73706,8.07E-03,1.74E-02
73707,8.07E-03,1.75E-02
73708,8.07E-03,1.76E-02
73709,8.07E-03,1.76E-02
73710,8.07E-03,1.77E-02
73711,8.07E-03,1.78E-02
73712,8.07E-03,1.78E-02
73713,8.06E-03,1.79E-02
73714,8.06E-03,1.80E-02
73715,8.05E-03,1.80E-02
73716,8.05E-03,1.81E-02
73717,8.04E-03,1.82E-02
73718,8.04E-03,1.83E-02
73719,8.03E-03,1.84E-02
73720,8.03E-03,1.85E-02
73721,8.02E-03,1.86E-02
73722,8.00E-03,1.87E-02
73723,7.99E-03,1.88E-02
73724,7.97E-03,1.89E-02
73725,7.94E-03,1.90E-02
73726,7.91E-03,1.91E-02
73727,7.88E-03,1.92E-02
73728,7.84E-03,1.92E-02
73729,7.81E-03,1.92E-02
73730,7.76E-03,1.92E-02
73731,7.70E-03,1.92E-02
73732,7.66E-03,1.92E-02
73733,7.65E-03,1.92E-02
73734,7.71E-03,1.92E-02
73735,8.02E-03,1.91E-02
73736,8.05E-03,1.91E-02
73737,8.27E-03,1.91E-02
73738,8.45E-03,1.91E-02
73739,8.52E-03,1.91E-02
73740,8.57E-03,1.91E-02
73741,8.48E-03,1.92E-02
73742,8.40E-03,1.92E-02
73743,8.39E-03,1.93E-02
73744,8.30E-03,1.94E-02
73745,8.29E-03,1.95E-02
73746,8.20E-03,1.95E-02
73747,8.18E-03,1.96E-02
73748,8.16E-03,1.96E-02
73749,8.15E-03,1.96E-02
73750,8.14E-03,1.96E-02
73751,8.12E-03,1.96E-02
73752,8.11E-03,1.96E-02
73753,8.10E-03,1.96E-02
73754,8.10E-03,1.96E-02
73755,8.08E-03,1.96E-02
73756,8.04E-03,1.97E-02
73757,8.02E-03,1.97E-02
73758,8.01E-03,1.97E-02
73759,8.02E-03,1.97E-02
73760,8.01E-03,1.98E-02
73761,8.01E-03,1.97E-02
73762,8.01E-03,1.97E-02
73763,8.02E-03,1.97E-02
73764,8.02E-03,1.97E-02
73765,8.02E-03,1.96E-02
73766,8.02E-03,1.96E-02
73767,8.02E-03,1.95E-02
73768,8.03E-03,1.95E-02
73769,8.04E-03,1.94E-02
73770,8.06E-03,1.94E-02
73771,8.07E-03,1.93E-02
73772,8.08E-03,1.93E-02
73773,8.11E-03,1.92E-02
73774,8.15E-03,1.92E-02
73775,8.20E-03,1.92E-02
73776,8.25E-03,1.91E-02
73777,8.37E-03,1.91E-02
73778,8.50E-03,1.91E-02
73779,8.54E-03,1.90E-02
73780,8.53E-03,1.90E-02
73781,8.54E-03,1.90E-02
73782,8.55E-03,1.90E-02
73783,8.51E-03,1.90E-02
73784,8.41E-03,1.90E-02
73785,8.33E-03,1.90E-02
73786,8.27E-03,1.90E-02
73787,8.24E-03,1.91E-02
73788,8.21E-03,1.91E-02
73789,8.17E-03,1.91E-02
73790,8.13E-03,1.91E-02
73791,8.11E-03,1.92E-02
73792,8.09E-03,1.92E-02
73793,8.07E-03,1.92E-02
73794,8.05E-03,1.93E-02
73795,8.02E-03,1.93E-02
73796,7.99E-03,1.93E-02
73797,7.97E-03,1.93E-02
73798,7.95E-03,1.93E-02
73799,7.93E-03,1.93E-02
73800,7.91E-03,1.93E-02
73801,7.89E-03,1.93E-02
73802,7.87E-03,1.93E-02
73803,7.88E-03,1.93E-02
73804,7.89E-03,1.93E-02
73805,7.91E-03,1.93E-02
73806,7.93E-03,1.92E-02
73807,7.94E-03,1.91E-02
73808,7.95E-03,1.90E-02
73809,7.97E-03,1.89E-02
73810,8.05E-03,1.88E-02
73811,8.09E-03,1.87E-02
73812,8.13E-03,1.86E-02
73813,7.72E-03,1.84E-02
73814,6.78E-03,1.84E-02
73815,8.09E-03,1.22E-02
73816,8.09E-03,1.21E-02
73817,8.09E-03,1.19E-02
73818,8.09E-03,1.18E-02
73819,8.09E-03,1.16E-02
73820,8.09E-03,1.14E-02
73821,8.09E-03,1.13E-02
73822,8.09E-03,1.11E-02
73823,8.09E-03,1.09E-02
73824,8.09E-03,1.08E-02
73825,8.09E-03,1.06E-02
73826,8.09E-03,1.04E-02
73827,8.09E-03,1.02E-02
73828,8.09E-03,1.00E-02
73829,8.09E-03,9.86E-03
73830,8.09E-03,9.67E-03
73831,8.09E-03,9.49E-03
73832,8.09E-03,9.30E-03
73833,8.09E-03,9.11E-03
73834,8.09E-03,8.92E-03
73835,8.09E-03,8.73E-03
73836,8.09E-03,8.53E-03
73837,8.09E-03,8.34E-03
73838,8.09E-03,8.15E-03
73839,8.09E-03,7.95E-03
73840,8.09E-03,7.76E-03
73841,8.09E-03,7.57E-03
73842,8.09E-03,7.37E-03
73843,8.09E-03,7.18E-03
73844,8.09E-03,6.99E-03
73845,8.09E-03,6.80E-03
73846,8.09E-03,6.61E-03
73847,8.09E-03,6.42E-03
73848,8.09E-03,6.24E-03
73849,8.09E-03,6.06E-03
73850,8.09E-03,5.88E-03
73851,8.09E-03,5.70E-03
73852,8.09E-03,5.53E-03
73853,8.09E-03,5.36E-03
73854,8.09E-03,5.20E-03
73855,8.09E-03,5.05E-03
73856,8.09E-03,4.90E-03
73857,8.09E-03,4.76E-03
73858,8.09E-03,4.63E-03
73859,8.09E-03,4.51E-03
73860,8.09E-03,4.39E-03
73861,8.09E-03,4.29E-03
73862,8.09E-03,4.20E-03
73863,8.09E-03,4.13E-03
73864,8.09E-03,4.06E-03
73865,8.09E-03,4.02E-03
73866,8.09E-03,3.98E-03
73867,8.09E-03,3.96E-03
73868,8.09E-03,3.96E-03
73869,8.09E-03,3.97E-03
73870,8.09E-03,4.00E-03
73871,8.09E-03,4.04E-03
73872,8.09E-03,4.10E-03
73873,8.09E-03,4.17E-03
73874,8.09E-03,4.25E-03
73875,8.09E-03,4.35E-03
73876,8.09E-03,4.45E-03
73877,8.09E-03,4.57E-03
73878,8.09E-03,4.70E-03
73879,8.09E-03,4.83E-03
73880,8.09E-03,4.97E-03
73881,8.09E-03,5.12E-03
73882,8.09E-03,5.28E-03
73883,8.09E-03,5.44E-03
73884,8.09E-03,5.61E-03
73885,8.09E-03,5.78E-03
73886,8.09E-03,5.95E-03
73887,8.09E-03,6.13E-03
73888,8.09E-03,6.31E-03
73889,8.09E-03,6.49E-03
73890,8.09E-03,6.68E-03
73891,8.09E-03,6.86E-03
73892,8.09E-03,7.05E-03
73893,8.09E-03,7.24E-03
73894,8.09E-03,7.43E-03
73895,8.09E-03,7.62E-03
73896,8.09E-03,7.82E-03
73897,8.09E-03,8.01E-03
73898,8.09E-03,8.20E-03
73899,8.09E-03,8.40E-03
73900,8.09E-03,8.59E-03
73901,8.09E-03,8.78E-03
73902,8.09E-03,8.98E-03
73903,8.09E-03,9.17E-03
73904,8.09E-03,9.36E-03
73905,8.09E-03,9.55E-03
73906,8.09E-03,9.75E-03
73907,8.09E-03,9.94E-03
73908,8.09E-03,1.01E-02
73909,8.09E-03,1.03E-02
73910,8.09E-03,1.05E-02
73911,8.09E-03,1.07E-02
73912,8.09E-03,1.09E-02
73913,8.09E-03,1.11E-02
73914,8.09E-03,1.13E-02
73915,8.09E-03,1.15E-02
73916,8.09E-03,1.16E-02
73917,8.09E-03,1.18E-02
73918,8.09E-03,1.20E-02
73919,8.09E-03,1.22E-02
73920,8.09E-03,1.24E-02
73921,8.09E-03,1.26E-02
73922,8.09E-03,1.28E-02
73923,8.09E-03,1.30E-02
73924,8.09E-03,1.32E-02
73925,8.09E-03,1.33E-02
73926,8.09E-03,1.35E-02
73927,8.09E-03,1.37E-02
73928,8.09E-03,1.39E-02
73929,8.09E-03,1.41E-02
73930,8.09E-03,1.43E-02
73931,8.09E-03,1.45E-02
73932,8.09E-03,1.47E-02
73933,8.03E-03,1.49E-02
73934,7.95E-03,1.51E-02
73935,7.95E-03,1.52E-02
73936,7.88E-03,1.54E-02
73937,7.78E-03,1.56E-02
73938,7.70E-03,1.58E-02
73939,7.69E-03,1.60E-02
73940,7.61E-03,1.61E-02
73941,7.62E-03,1.63E-02
73942,7.58E-03,1.65E-02
73943,1.01E-02,1.11E-02
73944,8.51E-03,1.12E-02
73945,8.35E-03,1.12E-02
73946,8.35E-03,1.13E-02
73947,8.38E-03,1.13E-02
73948,8.45E-03,1.13E-02
73949,8.46E-03,1.13E-02
73950,8.46E-03,1.13E-02
73951,8.46E-03,1.13E-02
73952,8.46E-03,1.12E-02
73953,8.45E-03,1.12E-02
73954,8.44E-03,1.12E-02
73955,8.42E-03,1.11E-02
73956,8.41E-03,1.11E-02
73957,8.40E-03,1.10E-02
73958,8.39E-03,1.10E-02
73959,8.37E-03,1.10E-02
73960,8.36E-03,1.09E-02
73961,8.34E-03,1.09E-02
73962,8.33E-03,1.08E-02
73963,8.31E-03,1.08E-02
73964,8.30E-03,1.07E-02
73965,8.29E-03,1.07E-02
73966,8.28E-03,1.06E-02
73967,8.27E-03,1.06E-02
73968,8.26E-03,1.06E-02
73969,8.25E-03,1.05E-02
73970,8.24E-03,1.05E-02
73971,8.24E-03,1.05E-02
73972,8.23E-03,1.04E-02
73973,8.22E-03,1.04E-02
73974,8.21E-03,1.04E-02
73975,8.21E-03,1.03E-02
73976,8.20E-03,1.03E-02
73977,8.19E-03,1.03E-02
73978,8.17E-03,1.03E-02
73979,8.16E-03,1.03E-02
73980,8.16E-03,1.03E-02
73981,8.15E-03,1.02E-02
73982,8.14E-03,1.02E-02
73983,8.14E-03,1.02E-02
73984,8.14E-03,1.02E-02
73985,8.13E-03,1.02E-02
73986,8.13E-03,1.02E-02
73987,8.12E-03,1.02E-02
73988,8.12E-03,1.02E-02
73989,8.11E-03,1.02E-02
73990,8.11E-03,1.02E-02
73991,8.10E-03,1.02E-02
73992,8.10E-03,1.03E-02
73993,8.10E-03,1.03E-02
73994,8.10E-03,1.03E-02
73995,8.09E-03,1.03E-02
73996,8.09E-03,1.03E-02
73997,8.08E-03,1.03E-02
73998,8.07E-03,1.04E-02
73999,8.06E-03,1.04E-02
74000,8.05E-03,1.04E-02
74001,8.04E-03,1.04E-02
74002,8.04E-03,1.05E-02
74003,8.03E-03,1.05E-02
74004,8.02E-03,1.05E-02
74005,8.01E-03,1.06E-02
74006,7.99E-03,1.06E-02
74007,7.97E-03,1.07E-02
74008,7.96E-03,1.07E-02
74009,7.94E-03,1.07E-02
74010,7.93E-03,1.08E-02
74011,7.92E-03,1.08E-02
74012,7.90E-03,1.09E-02
74013,7.87E-03,1.09E-02
74014,7.85E-03,1.10E-02
74015,7.84E-03,1.11E-02
74016,7.84E-03,1.11E-02
74017,7.84E-03,1.12E-02
74018,7.84E-03,1.13E-02
74019,7.84E-03,1.13E-02
74020,7.84E-03,1.14E-02
74021,7.85E-03,1.15E-02
74022,7.86E-03,1.15E-02
74023,7.87E-03,1.16E-02
74024,7.88E-03,1.17E-02
74025,7.89E-03,1.18E-02
74026,7.90E-03,1.19E-02
74027,7.91E-03,1.20E-02
74028,7.92E-03,1.21E-02
74029,7.92E-03,1.21E-02
74030,7.93E-03,1.22E-02
74031,7.94E-03,1.23E-02
74032,7.95E-03,1.24E-02
74033,7.95E-03,1.25E-02
74034,7.95E-03,1.27E-02
74035,7.94E-03,1.28E-02
74036,7.94E-03,1.29E-02
74037,7.96E-03,1.30E-02
74038,7.99E-03,1.31E-02
74039,8.02E-03,1.32E-02
74040,8.05E-03,1.34E-02
74041,8.06E-03,1.35E-02
74042,8.07E-03,1.36E-02
74043,8.08E-03,1.38E-02
74044,8.10E-03,1.39E-02
74045,8.12E-03,1.40E-02
74046,8.15E-03,1.42E-02
74047,8.15E-03,1.44E-02
74048,8.16E-03,1.45E-02
74049,8.11E-03,1.47E-02
74050,8.00E-03,1.49E-02
74051,7.90E-03,1.51E-02
74052,7.87E-03,1.53E-02
74053,7.81E-03,1.55E-02
74054,7.76E-03,1.57E-02
74055,7.70E-03,1.59E-02
74056,7.70E-03,1.61E-02
74057,7.72E-03,1.64E-02
74058,7.66E-03,1.66E-02
74059,5.56E-03,6.30E-02
74060,9.10E-03,6.35E-02
74061,8.35E-03,6.43E-02
74062,8.18E-03,6.52E-02
74063,8.19E-03,6.61E-02
74064,8.08E-03,6.72E-02
74065,8.07E-03,6.83E-02
74066,8.06E-03,6.90E-02
74067,8.05E-03,6.95E-02
74068,8.05E-03,7.00E-02
74069,8.04E-03,7.02E-02
74070,8.03E-03,7.00E-02
74071,8.02E-03,6.95E-02
74072,8.01E-03,6.89E-02
74073,7.99E-03,6.83E-02
74074,7.96E-03,6.77E-02
74075,7.93E-03,6.71E-02
74076,7.91E-03,6.65E-02
74077,7.89E-03,6.59E-02
74078,7.87E-03,6.54E-02
74079,7.83E-03,6.47E-02
74080,7.81E-03,6.41E-02
74081,7.81E-03,6.33E-02
74082,7.82E-03,6.26E-02
74083,7.83E-03,6.17E-02
74084,7.86E-03,6.08E-02
74085,7.89E-03,5.99E-02
74086,7.91E-03,5.89E-02
74087,7.91E-03,5.79E-02
74088,7.92E-03,5.69E-02
74089,7.92E-03,5.58E-02
74090,7.92E-03,5.47E-02
74091,7.92E-03,5.37E-02
74092,7.92E-03,5.26E-02
74093,7.92E-03,5.15E-02
74094,7.91E-03,5.03E-02
74095,7.91E-03,4.92E-02
74096,7.90E-03,4.80E-02
74097,7.88E-03,4.68E-02
74098,7.86E-03,4.56E-02
74099,7.84E-03,4.44E-02
74100,7.81E-03,4.32E-02
74101,7.78E-03,4.19E-02
74102,7.75E-03,4.07E-02
74103,7.73E-03,3.94E-02
74104,7.72E-03,3.80E-02
74105,7.72E-03,3.67E-02
74106,7.72E-03,3.54E-02
74107,7.73E-03,3.40E-02
74108,7.74E-03,3.26E-02
74109,7.75E-03,3.13E-02
74110,7.76E-03,3.00E-02
74111,7.79E-03,2.86E-02
74112,7.83E-03,2.73E-02
74113,7.86E-03,2.61E-02
74114,7.88E-03,2.48E-02
74115,7.90E-03,2.37E-02
74116,7.91E-03,2.25E-02
74117,7.92E-03,2.15E-02
74118,7.92E-03,2.05E-02
74119,7.92E-03,1.96E-02
74120,7.93E-03,1.88E-02
74121,7.93E-03,1.80E-02
74122,7.93E-03,1.74E-02
74123,7.93E-03,1.69E-02
74124,7.93E-03,1.65E-02
74125,7.92E-03,1.62E-02
74126,7.91E-03,1.60E-02
74127,7.90E-03,1.59E-02
74128,7.89E-03,1.59E-02
74129,7.87E-03,1.60E-02
74130,7.85E-03,1.62E-02
74131,7.84E-03,1.64E-02
74132,7.85E-03,1.67E-02
74133,7.88E-03,1.70E-02
74134,7.91E-03,1.73E-02
74135,7.93E-03,1.76E-02
74136,8.02E-03,1.80E-02
74137,8.10E-03,1.83E-02
74138,8.19E-03,1.87E-02
74139,8.26E-03,1.90E-02
74140,8.31E-03,1.93E-02
74141,8.39E-03,1.97E-02
74142,8.48E-03,2.00E-02
74143,8.65E-03,2.03E-02
74144,8.64E-03,2.06E-02
74145,8.50E-03,2.09E-02
74146,8.14E-03,2.12E-02
74147,8.08E-03,2.14E-02
74148,7.67E-03,2.16E-02
74149,7.44E-03,2.18E-02
74150,7.52E-03,2.19E-02
74151,7.61E-03,2.20E-02
74152,7.70E-03,2.20E-02
74153,7.76E-03,2.20E-02
74154,7.81E-03,2.19E-02
74155,7.85E-03,2.18E-02
74156,7.87E-03,2.17E-02
74157,7.89E-03,2.15E-02
74158,7.90E-03,2.13E-02
74159,7.90E-03,2.11E-02
74160,7.90E-03,2.09E-02
74161,7.91E-03,2.06E-02
74162,7.90E-03,2.03E-02
74163,7.89E-03,2.00E-02
74164,7.90E-03,1.97E-02
74165,7.95E-03,1.94E-02
74166,7.99E-03,1.91E-02
74167,8.01E-03,1.87E-02
74168,8.03E-03,1.84E-02
74169,8.06E-03,1.81E-02
74170,8.10E-03,1.77E-02
74171,8.13E-03,1.74E-02
74172,8.16E-03,1.71E-02
74173,8.20E-03,1.67E-02
74174,8.23E-03,1.64E-02
74175,8.23E-03,1.61E-02
74176,8.22E-03,1.58E-02
74177,8.20E-03,1.55E-02
74178,8.19E-03,1.52E-02
74179,8.18E-03,1.49E-02
74180,8.18E-03,1.46E-02
74181,8.17E-03,1.43E-02
74182,8.17E-03,1.40E-02
74183,8.17E-03,1.38E-02
74184,8.16E-03,1.35E-02
74185,8.15E-03,1.32E-02
74186,8.08E-03,1.30E-02
74187,8.06E-03,1.28E-02
74188,8.03E-03,1.25E-02
74189,7.99E-03,1.23E-02
74190,7.92E-03,1.21E-02
74191,7.75E-03,1.19E-02
74192,7.72E-03,1.17E-02
74193,7.73E-03,1.15E-02
74194,8.50E-03,1.13E-02
74195,9.49E-03,1.11E-02
74196,8.09E-03,1.21E-02
74197,8.09E-03,1.20E-02
74198,8.09E-03,1.18E-02
74199,8.09E-03,1.17E-02
74200,8.09E-03,1.15E-02
74201,8.09E-03,1.13E-02
74202,8.09E-03,1.12E-02
74203,8.09E-03,1.10E-02
74204,8.09E-03,1.08E-02
74205,8.09E-03,1.07E-02
74206,8.09E-03,1.05E-02
74207,8.09E-03,1.03E-02
74208,8.09E-03,1.01E-02
74209,8.09E-03,9.96E-03
74210,8.09E-03,9.78E-03
74211,8.09E-03,9.60E-03
74212,8.09E-03,9.41E-03
74213,8.09E-03,9.23E-03
74214,8.09E-03,9.04E-03
74215,8.09E-03,8.85E-03
74216,8.09E-03,8.67E-03
74217,8.09E-03,8.48E-03
74218,8.09E-03,8.29E-03
74219,8.09E-03,8.10E-03
74220,8.09E-03,7.91E-03
74221,8.09E-03,7.71E-03
74222,8.09E-03,7.52E-03
74223,8.09E-03,7.33E-03
74224,8.09E-03,7.14E-03
74225,8.09E-03,6.96E-03
74226,8.09E-03,6.77E-03
74227,8.09E-03,6.58E-03
74228,8.09E-03,6.40E-03
74229,8.09E-03,6.22E-03
74230,8.09E-03,6.04E-03
74231,8.09E-03,5.87E-03
74232,8.09E-03,5.70E-03
74233,8.09E-03,5.53E-03
74234,8.09E-03,5.37E-03
74235,8.09E-03,5.21E-03
74236,8.09E-03,5.06E-03
74237,8.09E-03,4.92E-03
74238,8.09E-03,4.78E-03
74239,8.09E-03,4.65E-03
74240,8.09E-03,4.53E-03
74241,8.09E-03,4.43E-03
74242,8.09E-03,4.33E-03
74243,8.09E-03,4.25E-03
74244,8.09E-03,4.17E-03
74245,8.09E-03,4.12E-03
74246,8.09E-03,4.07E-03
74247,8.09E-03,4.04E-03
74248,8.09E-03,4.03E-03
74249,8.09E-03,4.03E-03
74250,8.09E-03,4.05E-03
74251,8.09E-03,4.08E-03
74252,8.09E-03,4.12E-03
74253,8.09E-03,4.18E-03
74254,8.09E-03,4.26E-03
74255,8.09E-03,4.34E-03
74256,8.09E-03,4.44E-03
74257,8.09E-03,4.55E-03
74258,8.09E-03,4.67E-03
74259,8.09E-03,4.80E-03
74260,8.09E-03,4.94E-03
74261,8.09E-03,5.08E-03
74262,8.09E-03,5.24E-03
74263,8.09E-03,5.39E-03
74264,8.09E-03,5.56E-03
74265,8.09E-03,5.73E-03
74266,8.09E-03,5.90E-03
74267,8.09E-03,6.08E-03
74268,8.09E-03,6.26E-03
74269,8.09E-03,6.44E-03
74270,8.09E-03,6.63E-03
74271,8.09E-03,6.82E-03
74272,8.09E-03,7.01E-03
74273,8.09E-03,7.20E-03
74274,8.09E-03,7.40E-03
74275,8.09E-03,7.59E-03
74276,8.09E-03,7.79E-03
74277,8.09E-03,7.98E-03
74278,8.09E-03,8.18E-03
74279,8.09E-03,8.38E-03
74280,8.09E-03,8.58E-03
74281,8.09E-03,8.78E-03
74282,8.09E-03,8.98E-03
74283,8.09E-03,9.17E-03
74284,8.09E-03,9.37E-03
74285,8.09E-03,9.57E-03
74286,8.09E-03,9.77E-03
74287,8.09E-03,9.97E-03
74288,8.09E-03,1.02E-02
74289,8.09E-03,1.04E-02
74290,8.09E-03,1.06E-02
74291,8.09E-03,1.08E-02
74292,8.09E-03,1.09E-02
74293,8.09E-03,1.11E-02
74294,8.09E-03,1.13E-02
74295,8.09E-03,1.15E-02
74296,8.09E-03,1.17E-02
74297,8.09E-03,1.19E-02
74298,8.09E-03,1.21E-02
74299,8.09E-03,1.23E-02
74300,8.09E-03,1.25E-02
74301,8.09E-03,1.27E-02
74302,8.09E-03,1.29E-02
74303,8.09E-03,1.31E-02
74304,8.09E-03,1.33E-02
74305,8.09E-03,1.35E-02
74306,8.09E-03,1.37E-02
74307,8.09E-03,1.39E-02
74308,8.09E-03,1.41E-02
74309,8.09E-03,1.43E-02
74310,8.09E-03,1.45E-02
74311,8.09E-03,1.47E-02
74312,8.09E-03,1.49E-02
74313,8.09E-03,1.51E-02
74314,8.09E-03,1.53E-02
74315,8.03E-03,1.55E-02
74316,8.01E-03,1.57E-02
74317,7.94E-03,1.59E-02
74318,7.90E-03,1.61E-02
74319,7.92E-03,1.63E-02
74320,8.05E-03,1.65E-02
74321,8.25E-03,1.67E-02
74322,8.57E-03,1.69E-02
74323,8.82E-03,1.71E-02
74324,8.75E-03,1.72E-02
74325,8.88E-03,1.75E-02
74326,8.79E-03,1.76E-02
74327,8.36E-03,1.78E-02
74328,8.09E-03,1.22E-02
74329,8.09E-03,1.20E-02
74330,8.09E-03,1.19E-02
74331,8.09E-03,1.17E-02
74332,8.09E-03,1.16E-02
74333,8.09E-03,1.14E-02
74334,8.09E-03,1.12E-02
74335,8.09E-03,1.11E-02
74336,8.09E-03,1.09E-02
74337,8.09E-03,1.07E-02
74338,8.09E-03,1.06E-02
74339,8.09E-03,1.04E-02
74340,8.09E-03,1.02E-02
74341,8.09E-03,1.00E-02
74342,8.09E-03,9.83E-03
74343,8.09E-03,9.65E-03
74344,8.09E-03,9.46E-03
74345,8.09E-03,9.28E-03
74346,8.09E-03,9.09E-03
74347,8.09E-03,8.90E-03
74348,8.09E-03,8.71E-03
74349,8.09E-03,8.51E-03
74350,8.09E-03,8.32E-03
74351,8.09E-03,8.13E-03
74352,8.09E-03,7.94E-03
74353,8.09E-03,7.74E-03
74354,8.09E-03,7.55E-03
74355,8.09E-03,7.36E-03
74356,8.09E-03,7.17E-03
74357,8.09E-03,6.98E-03
74358,8.09E-03,6.79E-03
74359,8.09E-03,6.60E-03
74360,8.09E-03,6.41E-03
74361,8.09E-03,6.23E-03
74362,8.09E-03,6.05E-03
74363,8.09E-03,5.87E-03
74364,8.09E-03,5.70E-03
74365,8.09E-03,5.53E-03
74366,8.09E-03,5.36E-03
74367,8.09E-03,5.21E-03
74368,8.09E-03,5.05E-03
74369,8.09E-03,4.91E-03
74370,8.09E-03,4.77E-03
74371,8.09E-03,4.64E-03
74372,8.09E-03,4.52E-03
74373,8.09E-03,4.40E-03
74374,8.09E-03,4.31E-03
74375,8.09E-03,4.22E-03
74376,8.09E-03,4.14E-03
74377,8.09E-03,4.08E-03
74378,8.09E-03,4.03E-03
74379,8.09E-03,4.00E-03
74380,8.09E-03,3.98E-03
74381,8.09E-03,3.98E-03
74382,8.09E-03,4.00E-03
74383,8.09E-03,4.03E-03
74384,8.09E-03,4.07E-03
74385,8.09E-03,4.13E-03
74386,8.09E-03,4.20E-03
74387,8.09E-03,4.28E-03
74388,8.09E-03,4.38E-03
74389,8.09E-03,4.49E-03
74390,8.09E-03,4.60E-03
74391,8.09E-03,4.73E-03
74392,8.09E-03,4.87E-03
74393,8.09E-03,5.01E-03
74394,8.09E-03,5.16E-03
74395,8.09E-03,5.32E-03
74396,8.09E-03,5.48E-03
74397,8.09E-03,5.65E-03
74398,8.09E-03,5.82E-03
74399,8.09E-03,5.99E-03
74400,8.09E-03,6.17E-03
74401,8.09E-03,6.35E-03
74402,8.09E-03,6.54E-03
74403,8.09E-03,6.72E-03
74404,8.09E-03,6.91E-03
74405,8.09E-03,7.10E-03
74406,8.09E-03,7.29E-03
74407,8.09E-03,7.48E-03
74408,8.09E-03,7.68E-03
74409,8.09E-03,7.87E-03
74410,8.09E-03,8.07E-03
74411,8.09E-03,8.26E-03
74412,8.09E-03,8.45E-03
74413,8.09E-03,8.65E-03
74414,8.09E-03,8.85E-03
74415,8.09E-03,9.04E-03
74416,8.09E-03,9.23E-03
74417,8.09E-03,9.43E-03
74418,8.09E-03,9.62E-03
74419,8.09E-03,9.82E-03
74420,8.09E-03,1.00E-02
74421,8.09E-03,1.02E-02
74422,8.09E-03,1.04E-02
74423,8.09E-03,1.06E-02
74424,8.09E-03,1.08E-02
74425,8.09E-03,1.10E-02
74426,8.09E-03,1.12E-02
74427,8.09E-03,1.14E-02
74428,8.09E-03,1.15E-02
74429,8.09E-03,1.17E-02
74430,8.09E-03,1.19E-02
74431,8.09E-03,1.21E-02
74432,8.09E-03,1.23E-02
74433,8.09E-03,1.25E-02
74434,8.09E-03,1.27E-02
74435,8.09E-03,1.29E-02
74436,8.09E-03,1.31E-02
74437,8.09E-03,1.33E-02
74438,8.09E-03,1.35E-02
74439,8.09E-03,1.36E-02
74440,8.09E-03,1.38E-02
74441,8.09E-03,1.40E-02
74442,8.09E-03,1.42E-02
74443,8.09E-03,1.44E-02
74444,8.09E-03,1.46E-02
74445,8.09E-03,1.48E-02
74446,8.09E-03,1.50E-02
74447,8.02E-03,1.52E-02
74448,8.02E-03,1.54E-02
74449,7.97E-03,1.56E-02
74450,7.90E-03,1.58E-02
74451,7.82E-03,1.60E-02
74452,7.73E-03,1.62E-02
74453,7.62E-03,1.63E-02
74454,7.62E-03,1.65E-02
74455,7.61E-03,1.67E-02
74456,7.64E-03,1.68E-02
74457,8.91E-03,1.09E-02
74458,8.83E-03,1.10E-02
74459,8.64E-03,1.10E-02
74460,8.22E-03,1.11E-02
74461,8.20E-03,1.11E-02
74462,8.21E-03,1.11E-02
74463,8.21E-03,1.12E-02
74464,8.21E-03,1.12E-02
74465,8.21E-03,1.12E-02
74466,8.21E-03,1.11E-02
74467,8.21E-03,1.11E-02
74468,8.21E-03,1.11E-02
74469,8.21E-03,1.11E-02
74470,8.20E-03,1.10E-02
74471,8.20E-03,1.10E-02
74472,8.19E-03,1.10E-02
74473,8.19E-03,1.09E-02
74474,8.18E-03,1.09E-02
74475,8.18E-03,1.08E-02
74476,8.17E-03,1.08E-02
74477,8.17E-03,1.08E-02
74478,8.16E-03,1.07E-02
74479,8.16E-03,1.07E-02
74480,8.16E-03,1.06E-02
74481,8.15E-03,1.06E-02
74482,8.15E-03,1.06E-02
74483,8.15E-03,1.05E-02
74484,8.14E-03,1.05E-02
74485,8.14E-03,1.05E-02
74486,8.14E-03,1.04E-02
74487,8.14E-03,1.04E-02
74488,8.13E-03,1.04E-02
74489,8.13E-03,1.04E-02
74490,8.13E-03,1.03E-02
74491,8.13E-03,1.03E-02
74492,8.12E-03,1.03E-02
74493,8.12E-03,1.03E-02
74494,8.11E-03,1.03E-02
74495,8.11E-03,1.03E-02
74496,8.11E-03,1.03E-02
74497,8.11E-03,1.02E-02
74498,8.11E-03,1.02E-02
74499,8.11E-03,1.02E-02
74500,8.11E-03,1.02E-02
74501,8.10E-03,1.02E-02
74502,8.10E-03,1.02E-02
74503,8.10E-03,1.02E-02
74504,8.10E-03,1.02E-02
74505,8.10E-03,1.02E-02
74506,8.10E-03,1.03E-02
74507,8.09E-03,1.03E-02
74508,8.09E-03,1.03E-02
74509,8.09E-03,1.03E-02
74510,8.09E-03,1.03E-02
74511,8.09E-03,1.03E-02
74512,8.09E-03,1.04E-02
74513,8.08E-03,1.04E-02
74514,8.08E-03,1.04E-02
74515,8.08E-03,1.04E-02
74516,8.07E-03,1.05E-02
74517,8.07E-03,1.05E-02
74518,8.07E-03,1.05E-02
74519,8.07E-03,1.05E-02
74520,8.06E-03,1.06E-02
74521,8.06E-03,1.06E-02
74522,8.05E-03,1.07E-02
74523,8.05E-03,1.07E-02
74524,8.04E-03,1.08E-02
74525,8.04E-03,1.08E-02
74526,8.03E-03,1.09E-02
74527,8.03E-03,1.09E-02
74528,8.02E-03,1.10E-02
74529,8.01E-03,1.10E-02
74530,8.01E-03,1.11E-02
74531,8.01E-03,1.11E-02
74532,8.01E-03,1.12E-02
74533,8.01E-03,1.13E-02
74534,8.01E-03,1.13E-02
74535,8.01E-03,1.14E-02
74536,8.01E-03,1.15E-02
74537,8.01E-03,1.16E-02
74538,8.02E-03,1.17E-02
74539,8.02E-03,1.17E-02
74540,8.03E-03,1.18E-02
74541,8.03E-03,1.19E-02
74542,8.03E-03,1.20E-02
74543,8.03E-03,1.21E-02
74544,8.04E-03,1.22E-02
74545,8.04E-03,1.23E-02
74546,8.04E-03,1.24E-02
74547,8.04E-03,1.25E-02
74548,8.04E-03,1.26E-02
74549,8.04E-03,1.27E-02
74550,8.04E-03,1.28E-02
74551,8.04E-03,1.30E-02
74552,8.05E-03,1.31E-02
74553,8.06E-03,1.32E-02
74554,8.07E-03,1.33E-02
74555,8.08E-03,1.34E-02
74556,8.08E-03,1.36E-02
74557,8.08E-03,1.37E-02
74558,8.09E-03,1.39E-02
74559,8.09E-03,1.40E-02
74560,8.10E-03,1.41E-02
74561,8.11E-03,1.43E-02
74562,8.11E-03,1.45E-02
74563,8.11E-03,1.46E-02
74564,8.12E-03,1.48E-02
74565,8.07E-03,1.50E-02
74566,7.96E-03,1.52E-02
74567,7.90E-03,1.54E-02
74568,7.86E-03,1.56E-02
74569,7.81E-03,1.58E-02
74570,7.75E-03,1.60E-02
74571,7.68E-03,1.63E-02
74572,7.68E-03,1.65E-02
74573,7.67E-03,1.67E-02
74574,7.65E-03,1.69E-02
74575,7.37E-03,1.83E-02
74576,7.12E-03,1.86E-02
74577,7.61E-03,1.86E-02
74578,7.99E-03,1.88E-02
74579,8.07E-03,1.90E-02
74580,8.06E-03,1.91E-02
74581,8.05E-03,1.93E-02
74582,8.05E-03,1.94E-02
74583,8.04E-03,1.96E-02
74584,8.04E-03,1.97E-02
74585,8.03E-03,1.97E-02
74586,8.03E-03,1.98E-02
74587,8.02E-03,1.98E-02
74588,8.02E-03,1.98E-02
74589,8.03E-03,1.98E-02
74590,8.03E-03,1.98E-02
74591,8.04E-03,1.98E-02
74592,8.05E-03,1.98E-02
74593,8.05E-03,1.98E-02
74594,8.06E-03,1.98E-02
74595,8.07E-03,1.98E-02
74596,8.08E-03,1.97E-02
74597,8.09E-03,1.97E-02
74598,8.09E-03,1.96E-02
74599,8.10E-03,1.95E-02
74600,8.11E-03,1.95E-02
74601,8.12E-03,1.95E-02
74602,8.13E-03,1.94E-02
74603,8.14E-03,1.94E-02
74604,8.15E-03,1.94E-02
74605,8.17E-03,1.93E-02
74606,8.20E-03,1.93E-02
74607,8.23E-03,1.93E-02
74608,8.25E-03,1.93E-02
74609,8.24E-03,1.93E-02
74610,8.24E-03,1.93E-02
74611,8.24E-03,1.94E-02
74612,8.23E-03,1.94E-02
74613,8.19E-03,1.94E-02
74614,8.15E-03,1.95E-02
74615,8.13E-03,1.95E-02
74616,8.11E-03,1.95E-02
74617,8.10E-03,1.96E-02
74618,8.09E-03,1.96E-02
74619,8.09E-03,1.97E-02
74620,8.08E-03,1.97E-02
74621,8.08E-03,1.98E-02
74622,8.07E-03,1.98E-02
74623,8.07E-03,1.99E-02
74624,8.07E-03,2.00E-02
74625,8.07E-03,2.01E-02
74626,8.07E-03,2.01E-02
74627,8.07E-03,2.02E-02
74628,8.07E-03,2.02E-02
74629,8.07E-03,2.03E-02
74630,8.07E-03,2.03E-02
74631,8.07E-03,2.03E-02
74632,8.07E-03,2.03E-02
74633,8.07E-03,2.02E-02
74634,8.08E-03,2.02E-02
74635,8.09E-03,2.02E-02
74636,8.10E-03,2.01E-02
74637,8.10E-03,2.01E-02
74638,8.10E-03,2.01E-02
74639,8.10E-03,2.01E-02
74640,8.11E-03,2.01E-02
74641,8.11E-03,2.01E-02
74642,8.12E-03,2.01E-02
74643,8.12E-03,2.01E-02
74644,8.13E-03,2.01E-02
74645,8.14E-03,2.00E-02
74646,8.16E-03,1.99E-02
74647,8.18E-03,1.98E-02
74648,8.21E-03,1.97E-02
74649,8.24E-03,1.96E-02
74650,8.28E-03,1.96E-02
74651,8.30E-03,1.95E-02
74652,8.23E-03,1.95E-02
74653,8.15E-03,1.95E-02
74654,8.07E-03,1.95E-02
74655,8.06E-03,1.96E-02
74656,7.97E-03,1.96E-02
74657,7.95E-03,1.96E-02
74658,7.95E-03,1.96E-02
74659,7.96E-03,1.97E-02
74660,7.98E-03,1.96E-02
74661,8.00E-03,1.96E-02
74662,8.01E-03,1.96E-02
74663,8.02E-03,1.96E-02
74664,8.03E-03,1.95E-02
74665,8.04E-03,1.94E-02
74666,8.05E-03,1.93E-02
74667,8.06E-03,1.92E-02
74668,8.06E-03,1.91E-02
74669,8.07E-03,1.90E-02
74670,8.07E-03,1.88E-02
74671,8.07E-03,1.87E-02
74672,8.08E-03,1.86E-02
74673,8.08E-03,1.85E-02
74674,8.08E-03,1.84E-02
74675,8.08E-03,1.84E-02
74676,8.08E-03,1.83E-02
74677,8.09E-03,1.82E-02
74678,8.09E-03,1.82E-02
74679,8.09E-03,1.82E-02
74680,8.09E-03,1.81E-02
74681,8.09E-03,1.81E-02
74682,8.09E-03,1.80E-02
74683,8.09E-03,1.79E-02
74684,8.09E-03,1.78E-02
74685,8.09E-03,1.77E-02
74686,8.09E-03,1.76E-02
74687,8.09E-03,1.75E-02
74688,8.09E-03,1.73E-02
74689,8.09E-03,1.71E-02
74690,8.09E-03,1.69E-02
74691,8.09E-03,1.66E-02
74692,8.09E-03,1.64E-02
74693,8.09E-03,1.61E-02
74694,8.09E-03,1.57E-02
74695,8.09E-03,1.54E-02
74696,8.09E-03,1.51E-02
74697,8.09E-03,1.47E-02
74698,8.09E-03,1.44E-02
74699,8.09E-03,1.41E-02
74700,8.09E-03,1.38E-02
74701,8.09E-03,1.35E-02
74702,8.09E-03,1.33E-02
74703,8.09E-03,1.31E-02
74704,8.09E-03,1.29E-02
74705,8.09E-03,1.27E-02
74706,8.09E-03,1.25E-02
74707,8.09E-03,1.23E-02
74708,8.09E-03,1.21E-02
74709,8.09E-03,1.20E-02
74710,8.09E-03,1.19E-02
74711,8.09E-03,1.17E-02
74712,8.09E-03,1.16E-02
74713,8.09E-03,1.15E-02
74714,8.09E-03,1.14E-02
74715,8.09E-03,1.14E-02
74716,8.09E-03,1.13E-02
74717,8.09E-03,1.13E-02
74718,8.09E-03,1.13E-02
74719,8.09E-03,1.13E-02
74720,8.09E-03,1.14E-02
74721,8.09E-03,1.14E-02
74722,8.09E-03,1.15E-02
74723,8.09E-03,1.16E-02
74724,8.09E-03,1.16E-02
74725,8.09E-03,1.17E-02
74726,8.08E-03,1.19E-02
74727,8.08E-03,1.20E-02
74728,8.08E-03,1.21E-02
74729,8.08E-03,1.22E-02
74730,8.08E-03,1.23E-02
74731,8.08E-03,1.24E-02
74732,8.08E-03,1.26E-02
74733,8.08E-03,1.27E-02
74734,8.08E-03,1.28E-02
74735,8.08E-03,1.30E-02
74736,8.08E-03,1.31E-02
74737,8.08E-03,1.32E-02
74738,8.08E-03,1.33E-02
74739,8.08E-03,1.34E-02
74740,8.07E-03,1.36E-02
74741,8.07E-03,1.37E-02
74742,8.07E-03,1.38E-02
74743,8.07E-03,1.39E-02
74744,8.07E-03,1.40E-02
74745,8.07E-03,1.41E-02
74746,8.07E-03,1.43E-02
74747,8.07E-03,1.44E-02
74748,8.07E-03,1.45E-02
74749,8.07E-03,1.46E-02
74750,8.07E-03,1.47E-02
74751,8.07E-03,1.48E-02
74752,8.07E-03,1.49E-02
74753,8.07E-03,1.50E-02
74754,8.07E-03,1.51E-02
74755,8.07E-03,1.52E-02
74756,8.07E-03,1.53E-02
74757,8.07E-03,1.54E-02
74758,8.07E-03,1.56E-02
74759,8.07E-03,1.57E-02
74760,8.07E-03,1.58E-02
74761,8.07E-03,1.59E-02
74762,8.07E-03,1.60E-02
74763,8.07E-03,1.61E-02
74764,8.07E-03,1.62E-02
74765,8.07E-03,1.63E-02
74766,8.07E-03,1.64E-02
74767,8.07E-03,1.65E-02
74768,8.08E-03,1.66E-02
74769,8.08E-03,1.67E-02
74770,8.08E-03,1.68E-02
74771,8.08E-03,1.69E-02
74772,8.08E-03,1.70E-02
74773,8.08E-03,1.72E-02
74774,8.08E-03,1.73E-02
74775,8.08E-03,1.74E-02
74776,8.08E-03,1.75E-02
74777,8.07E-03,1.76E-02
74778,8.07E-03,1.77E-02
74779,8.06E-03,1.78E-02
74780,8.05E-03,1.80E-02
74781,8.03E-03,1.81E-02
74782,8.00E-03,1.82E-02
74783,7.98E-03,1.83E-02
74784,7.95E-03,1.84E-02
74785,7.91E-03,1.86E-02
74786,7.86E-03,1.87E-02
74787,7.83E-03,1.88E-02
74788,7.83E-03,1.90E-02
74789,7.86E-03,1.91E-02
74790,7.88E-03,1.93E-02
74791,7.91E-03,1.94E-02
74792,7.93E-03,1.95E-02
74793,7.94E-03,1.97E-02
74794,7.94E-03,1.98E-02
74795,7.95E-03,2.00E-02
74796,7.95E-03,2.01E-02
74797,7.95E-03,2.03E-02
74798,7.96E-03,2.04E-02
74799,7.96E-03,2.06E-02
74800,7.96E-03,2.07E-02
74801,7.96E-03,2.09E-02
74802,7.96E-03,2.10E-02
74803,7.96E-03,2.12E-02
74804,7.95E-03,2.13E-02
74805,7.96E-03,2.14E-02
74806,7.96E-03,2.16E-02
74807,7.96E-03,2.17E-02
74808,7.97E-03,2.18E-02
74809,7.98E-03,2.19E-02
74810,8.00E-03,2.21E-02
74811,8.02E-03,2.22E-02
74812,8.03E-03,2.23E-02
74813,8.04E-03,2.24E-02
74814,8.05E-03,2.25E-02
74815,8.05E-03,2.26E-02
74816,8.05E-03,2.27E-02
74817,8.06E-03,2.28E-02
74818,8.08E-03,2.29E-02
74819,8.09E-03,2.30E-02
74820,8.10E-03,2.31E-02
74821,8.11E-03,2.32E-02
74822,8.12E-03,2.33E-02
74823,8.13E-03,2.33E-02
74824,8.15E-03,2.34E-02
74825,8.18E-03,2.35E-02
74826,8.19E-03,2.36E-02
74827,8.20E-03,2.37E-02
74828,8.20E-03,2.39E-02
74829,8.21E-03,2.40E-02
74830,8.12E-03,2.41E-02
74831,8.04E-03,2.43E-02
74832,7.94E-03,2.44E-02
74833,7.89E-03,2.46E-02
74834,7.76E-03,2.47E-02
74835,7.74E-03,2.49E-02
74836,7.73E-03,2.50E-02
74837,7.71E-03,2.51E-02
74838,7.57E-03,2.52E-02
74839,7.67E-03,2.54E-02
74840,7.65E-03,2.54E-02
74841,7.63E-03,2.55E-02
74842,7.63E-03,2.56E-02
74843,7.74E-03,2.56E-02
74844,7.77E-03,2.56E-02
74845,7.86E-03,2.56E-02
74846,7.93E-03,2.56E-02
74847,7.97E-03,2.56E-02
74848,8.00E-03,2.55E-02
74849,8.13E-03,2.55E-02
74850,8.26E-03,2.54E-02
74851,8.26E-03,2.53E-02
74852,8.25E-03,2.53E-02
74853,8.23E-03,2.52E-02
74854,8.21E-03,2.51E-02
74855,8.19E-03,2.50E-02
74856,8.18E-03,2.49E-02
74857,8.17E-03,2.48E-02
74858,8.16E-03,2.47E-02
74859,8.15E-03,2.45E-02
74860,8.15E-03,2.44E-02
74861,8.14E-03,2.43E-02
74862,8.13E-03,2.42E-02
74863,8.12E-03,2.41E-02
74864,8.12E-03,2.40E-02
74865,8.12E-03,2.40E-02
74866,8.11E-03,2.39E-02
74867,8.11E-03,2.39E-02
74868,8.11E-03,2.39E-02
74869,8.11E-03,2.39E-02
74870,8.11E-03,2.39E-02
74871,8.11E-03,2.40E-02
74872,8.11E-03,2.40E-02
74873,8.11E-03,2.40E-02
74874,8.10E-03,2.41E-02
74875,8.10E-03,2.41E-02
74876,8.10E-03,2.41E-02
74877,8.10E-03,2.41E-02
74878,8.10E-03,2.41E-02
74879,8.10E-03,2.41E-02
74880,8.10E-03,2.41E-02
74881,8.10E-03,2.41E-02
74882,8.10E-03,2.41E-02
74883,8.10E-03,2.41E-02
74884,8.10E-03,2.41E-02
74885,8.10E-03,2.41E-02
74886,8.10E-03,2.41E-02
74887,8.10E-03,2.41E-02
74888,8.09E-03,2.41E-02
74889,8.09E-03,2.41E-02
74890,8.09E-03,2.41E-02
74891,8.09E-03,2.41E-02
74892,8.09E-03,2.41E-02
74893,8.09E-03,2.41E-02
74894,8.10E-03,2.41E-02
74895,8.10E-03,2.40E-02
74896,8.10E-03,2.40E-02
74897,8.10E-03,2.39E-02
74898,8.10E-03,2.38E-02
74899,8.10E-03,2.37E-02
74900,8.10E-03,2.36E-02
74901,8.10E-03,2.35E-02
74902,8.10E-03,2.34E-02
74903,8.10E-03,2.33E-02
74904,8.10E-03,2.32E-02
74905,8.10E-03,2.31E-02
74906,8.11E-03,2.30E-02
74907,8.11E-03,2.30E-02
74908,8.11E-03,2.30E-02
74909,8.11E-03,2.30E-02
74910,8.11E-03,2.30E-02
74911,8.11E-03,2.31E-02
74912,8.11E-03,2.32E-02
74913,8.11E-03,2.33E-02
74914,8.11E-03,2.34E-02
74915,8.12E-03,2.35E-02
74916,8.12E-03,2.36E-02
74917,8.12E-03,2.36E-02
74918,8.12E-03,2.37E-02
74919,8.12E-03,2.37E-02
74920,8.12E-03,2.38E-02
74921,8.11E-03,2.38E-02
74922,8.11E-03,2.39E-02
74923,8.11E-03,2.40E-02
74924,8.11E-03,2.41E-02
74925,8.11E-03,2.42E-02
74926,8.11E-03,2.43E-02
74927,8.11E-03,2.43E-02
74928,8.11E-03,2.44E-02
74929,8.10E-03,2.44E-02
74930,8.10E-03,2.45E-02
74931,8.09E-03,2.45E-02
74932,8.09E-03,2.45E-02
74933,8.09E-03,2.46E-02
74934,8.09E-03,2.47E-02
74935,8.09E-03,2.49E-02
74936,8.09E-03,2.50E-02
74937,8.09E-03,2.50E-02
74938,8.09E-03,2.49E-02
74939,8.08E-03,2.46E-02
74940,8.08E-03,2.42E-02
74941,8.08E-03,2.37E-02
74942,8.07E-03,2.31E-02
74943,8.07E-03,2.26E-02
74944,8.07E-03,2.22E-02
74945,8.07E-03,2.17E-02
74946,8.07E-03,2.12E-02
74947,8.07E-03,2.07E-02
74948,8.07E-03,2.03E-02
74949,8.07E-03,1.98E-02
74950,8.07E-03,1.94E-02
74951,8.06E-03,1.90E-02
74952,8.06E-03,1.87E-02
74953,8.06E-03,1.84E-02
74954,8.06E-03,1.81E-02
74955,8.06E-03,1.79E-02
74956,8.07E-03,1.76E-02
74957,8.07E-03,1.74E-02
74958,8.07E-03,1.71E-02
74959,8.07E-03,1.69E-02
74960,8.07E-03,1.67E-02
74961,8.07E-03,1.65E-02
74962,8.07E-03,1.63E-02
74963,8.07E-03,1.61E-02
74964,8.07E-03,1.59E-02
74965,8.07E-03,1.57E-02
74966,8.07E-03,1.55E-02
74967,8.07E-03,1.52E-02
74968,8.07E-03,1.50E-02
74969,8.07E-03,1.48E-02
74970,8.07E-03,1.46E-02
74971,8.07E-03,1.43E-02
74972,8.07E-03,1.41E-02
74973,8.07E-03,1.39E-02
74974,8.07E-03,1.37E-02
74975,8.07E-03,1.34E-02
74976,8.06E-03,1.32E-02
74977,8.06E-03,1.29E-02
74978,8.06E-03,1.27E-02
74979,8.06E-03,1.25E-02
74980,8.06E-03,1.23E-02
74981,8.06E-03,1.21E-02
74982,8.06E-03,1.19E-02
74983,8.06E-03,1.17E-02
74984,8.06E-03,1.15E-02
74985,8.06E-03,1.13E-02
74986,8.07E-03,1.11E-02
74987,8.09E-03,1.10E-02
74988,8.10E-03,1.08E-02
74989,8.12E-03,1.06E-02
74990,8.15E-03,1.04E-02
74991,8.17E-03,1.02E-02
74992,8.18E-03,1.01E-02
74993,8.18E-03,1.00E-02
74994,8.17E-03,9.90E-03
74995,8.17E-03,9.79E-03
74996,8.17E-03,9.69E-03
74997,8.17E-03,9.57E-03
74998,8.16E-03,9.44E-03
74999,8.16E-03,9.29E-03
75000,8.16E-03,9.12E-03
75001,8.16E-03,8.95E-03
75002,8.15E-03,8.77E-03
75003,8.15E-03,8.60E-03
75004,8.14E-03,8.44E-03
75005,8.12E-03,8.32E-03
75006,8.10E-03,8.21E-03
75007,8.09E-03,8.13E-03
75008,8.08E-03,8.06E-03
75009,8.07E-03,7.97E-03
75010,8.06E-03,7.84E-03
75011,8.04E-03,7.69E-03
75012,8.03E-03,7.52E-03
75013,8.00E-03,7.35E-03
75014,7.96E-03,7.19E-03
75015,7.94E-03,7.06E-03
75016,7.90E-03,6.93E-03
75017,7.86E-03,6.79E-03
75018,7.84E-03,6.65E-03
75019,7.84E-03,6.51E-03
75020,7.87E-03,6.38E-03
75021,7.91E-03,6.24E-03
75022,7.95E-03,6.13E-03
75023,8.01E-03,6.02E-03
75024,8.06E-03,5.93E-03
75025,8.10E-03,5.83E-03
75026,8.14E-03,5.75E-03
75027,8.19E-03,5.66E-03
75028,8.22E-03,5.58E-03
75029,8.23E-03,5.49E-03
75030,8.22E-03,5.41E-03
75031,8.19E-03,5.31E-03
75032,8.17E-03,5.22E-03
75033,8.15E-03,5.12E-03
75034,8.14E-03,5.03E-03
75035,8.13E-03,4.93E-03
75036,8.12E-03,4.83E-03
75037,8.11E-03,4.73E-03
75038,8.10E-03,4.64E-03
75039,8.10E-03,4.54E-03
75040,8.09E-03,4.45E-03
75041,8.09E-03,4.36E-03
75042,8.09E-03,4.27E-03
75043,8.08E-03,4.19E-03
75044,8.08E-03,4.10E-03
75045,8.08E-03,4.02E-03
75046,8.07E-03,3.95E-03
75047,8.07E-03,3.87E-03
75048,8.07E-03,3.80E-03
75049,8.07E-03,3.73E-03
75050,8.07E-03,3.66E-03
75051,8.06E-03,3.60E-03
75052,8.06E-03,3.53E-03
75053,8.06E-03,3.47E-03
75054,8.05E-03,3.41E-03
75055,8.05E-03,3.36E-03
75056,8.05E-03,3.30E-03
75057,8.05E-03,3.25E-03
75058,8.05E-03,3.20E-03
75059,8.05E-03,3.15E-03
75060,8.05E-03,3.10E-03
75061,8.05E-03,3.06E-03
75062,8.05E-03,3.01E-03
75063,8.05E-03,2.97E-03
75064,8.05E-03,2.92E-03
75065,8.05E-03,2.88E-03
75066,8.05E-03,2.84E-03
75067,8.05E-03,2.80E-03
75068,8.05E-03,2.76E-03
75069,8.05E-03,2.73E-03
75070,8.05E-03,2.69E-03
75071,8.05E-03,2.65E-03
75072,8.05E-03,2.62E-03
75073,8.05E-03,2.58E-03
75074,8.05E-03,2.55E-03
75075,8.05E-03,2.51E-03
75076,8.06E-03,2.48E-03
75077,8.06E-03,2.45E-03
75078,8.06E-03,2.42E-03
75079,8.06E-03,2.39E-03
75080,8.07E-03,2.36E-03
75081,8.07E-03,2.33E-03
75082,8.07E-03,2.30E-03
75083,8.07E-03,2.28E-03
75084,8.07E-03,2.25E-03
75085,8.07E-03,2.23E-03
75086,8.07E-03,2.20E-03
75087,8.07E-03,2.18E-03
75088,8.08E-03,2.15E-03
75089,8.08E-03,2.13E-03
75090,8.08E-03,2.10E-03
75091,8.08E-03,2.08E-03
75092,8.08E-03,2.06E-03
75093,8.08E-03,2.03E-03
75094,8.08E-03,2.01E-03
75095,8.08E-03,1.98E-03
75096,8.08E-03,1.96E-03
75097,8.08E-03,1.93E-03
75098,8.08E-03,1.91E-03
75099,8.08E-03,1.88E-03
75100,8.08E-03,1.86E-03
75101,8.09E-03,1.83E-03
75102,8.09E-03,1.80E-03
75103,8.09E-03,1.77E-03
75104,8.09E-03,1.74E-03
75105,8.09E-03,1.71E-03
75106,8.09E-03,1.68E-03
75107,8.09E-03,1.65E-03
75108,8.09E-03,1.62E-03
75109,8.09E-03,1.59E-03
75110,8.09E-03,1.56E-03
75111,8.09E-03,1.53E-03
75112,8.09E-03,1.50E-03
75113,8.09E-03,1.47E-03
75114,8.08E-03,1.44E-03
75115,8.08E-03,1.41E-03
75116,8.07E-03,1.38E-03
75117,8.07E-03,1.35E-03
75118,8.06E-03,1.32E-03
75119,8.06E-03,1.29E-03
75120,8.05E-03,1.26E-03
75121,8.04E-03,1.23E-03
75122,8.03E-03,1.21E-03
75123,8.02E-03,1.18E-03
75124,8.01E-03,1.15E-03
75125,8.00E-03,1.12E-03
75126,7.99E-03,1.09E-03
75127,7.99E-03,1.07E-03
75128,7.98E-03,1.04E-03
75129,7.97E-03,1.02E-03
75130,7.96E-03,9.96E-04
75131,7.96E-03,9.77E-04
75132,7.97E-03,9.59E-04
75133,7.98E-03,9.43E-04
75134,7.98E-03,9.29E-04
75135,7.99E-03,9.17E-04
75136,8.00E-03,9.06E-04
75137,8.00E-03,8.98E-04
75138,8.00E-03,8.90E-04
75139,8.01E-03,8.84E-04
75140,8.01E-03,8.79E-04
75141,8.02E-03,8.75E-04
75142,8.03E-03,8.71E-04
75143,8.03E-03,8.68E-04
75144,8.04E-03,8.65E-04
75145,8.04E-03,8.62E-04
75146,8.04E-03,8.60E-04
75147,8.05E-03,8.57E-04
75148,8.05E-03,8.54E-04
75149,8.05E-03,8.50E-04
75150,8.06E-03,8.46E-04
75151,8.07E-03,8.42E-04
75152,8.08E-03,8.36E-04
75153,8.10E-03,8.29E-04
75154,8.11E-03,8.20E-04
75155,8.12E-03,8.09E-04
75156,8.13E-03,7.96E-04
75157,8.15E-03,7.81E-04
75158,8.15E-03,7.62E-04
75159,8.11E-03,7.40E-04
75160,8.09E-03,7.17E-04
75161,8.07E-03,6.91E-04
75162,8.05E-03,6.65E-04
75163,8.03E-03,6.39E-04
75164,8.02E-03,6.12E-04
75165,7.99E-03,5.86E-04
75166,7.96E-03,5.60E-04
75167,7.94E-03,5.36E-04
75168,7.94E-03,5.14E-04
75169,7.94E-03,4.94E-04
75170,7.94E-03,4.77E-04
75171,7.94E-03,4.63E-04
75172,7.96E-03,4.51E-04
75173,7.99E-03,4.40E-04
75174,8.03E-03,4.31E-04
75175,8.05E-03,4.21E-04
75176,8.06E-03,4.04E-04
75177,8.07E-03,3.89E-04
75178,8.09E-03,3.81E-04
75179,8.11E-03,3.60E-04
75180,8.05E-03,3.29E-04
75181,8.00E-03,3.21E-04
75182,7.77E-03,3.32E-04
75183,7.28E-03,3.37E-04
75184,7.51E-03,3.70E-04
75185,7.43E-03,3.71E-04
75186,7.20E-03,3.51E-04
75187,7.61E-03,3.37E-04
75188,7.67E-03,2.86E-04
75189,7.68E-03,2.97E-04
75190,7.83E-03,3.97E-04
75191,7.93E-03,5.55E-04
75192,8.00E-03,7.50E-04
75193,7.98E-03,9.77E-04
75194,7.82E-03,1.23E-03
75195,7.77E-03,1.42E-03
75196,7.74E-03,1.47E-03
75197,7.96E-03,1.44E-03
75198,8.16E-03,1.50E-03
75199,8.05E-03,1.71E-03
75200,7.83E-03,2.06E-03
75201,7.84E-03,2.52E-03
75202,7.84E-03,3.05E-03
75203,7.92E-03,3.67E-03
75204,8.02E-03,4.42E-03
75205,8.08E-03,5.35E-03
75206,8.09E-03,6.49E-03
75207,8.03E-03,7.63E-03
75208,8.08E-03,8.26E-03
75209,8.22E-03,8.44E-03
75210,8.19E-03,8.74E-03
75211,8.06E-03,9.16E-03
75212,7.99E-03,9.66E-03
75213,7.99E-03,1.02E-02
75214,7.99E-03,1.09E-02
75215,7.99E-03,1.16E-02
75216,7.99E-03,1.24E-02
75217,7.99E-03,1.33E-02
75218,7.99E-03,1.44E-02
75219,8.05E-03,1.57E-02
75220,8.09E-03,1.73E-02
75221,8.16E-03,1.92E-02
75222,8.18E-03,2.17E-02
75223,8.01E-03,2.47E-02
75224,7.90E-03,2.66E-02
75225,8.01E-03,2.67E-02
75226,8.17E-03,2.62E-02
75227,8.16E-03,2.60E-02
75228,8.11E-03,2.62E-02
75229,8.05E-03,2.66E-02
75230,8.00E-03,2.71E-02
75231,8.00E-03,2.78E-02
75232,7.83E-03,2.83E-02
75233,7.71E-03,2.78E-02
75234,7.65E-03,2.65E-02
75235,7.70E-03,2.49E-02
75236,7.85E-03,2.40E-02
75237,7.81E-03,2.51E-02
75238,8.00E-03,3.00E-02
75239,7.51E-03,3.87E-02
75240,7.75E-03,4.70E-02
75241,8.05E-03,5.06E-02
75242,8.14E-03,5.09E-02
75243,8.13E-03,5.09E-02
75244,8.18E-03,5.27E-02
75245,8.09E-03,5.72E-02
75246,7.92E-03,6.39E-02
75247,7.99E-03,6.72E-02
75248,8.15E-03,6.62E-02
75249,8.12E-03,6.50E-02
75250,8.10E-03,6.42E-02
75251,7.98E-03,6.38E-02
75252,7.90E-03,6.37E-02
75253,7.37E-03,6.38E-02
75254,8.16E-03,6.39E-02
75255,8.21E-03,6.44E-02
75256,8.37E-03,6.50E-02
75257,8.32E-03,6.58E-02
75258,8.16E-03,6.67E-02
75259,8.11E-03,6.80E-02
75260,8.06E-03,6.93E-02
75261,8.05E-03,7.06E-02
75262,8.05E-03,7.18E-02
75263,8.05E-03,7.25E-02
75264,8.05E-03,7.36E-02
75265,8.04E-03,7.40E-02
75266,8.04E-03,7.38E-02
75267,8.04E-03,7.33E-02
75268,8.03E-03,7.25E-02
75269,8.03E-03,7.16E-02
75270,8.02E-03,7.09E-02
75271,8.01E-03,7.02E-02
75272,8.00E-03,6.96E-02
75273,7.99E-03,6.89E-02
75274,7.98E-03,6.83E-02
75275,7.97E-03,6.76E-02
75276,7.97E-03,6.68E-02
75277,7.97E-03,6.60E-02
75278,7.97E-03,6.51E-02
75279,7.97E-03,6.42E-02
75280,7.98E-03,6.32E-02
75281,7.99E-03,6.21E-02
75282,8.00E-03,6.11E-02
75283,8.00E-03,6.00E-02
75284,8.00E-03,5.89E-02
75285,8.00E-03,5.78E-02
75286,8.00E-03,5.66E-02
75287,8.00E-03,5.55E-02
75288,8.00E-03,5.43E-02
75289,8.00E-03,5.32E-02
75290,8.00E-03,5.20E-02
75291,8.00E-03,5.08E-02
75292,8.00E-03,4.96E-02
75293,7.99E-03,4.84E-02
75294,7.98E-03,4.71E-02
75295,7.98E-03,4.58E-02
75296,7.97E-03,4.45E-02
75297,7.96E-03,4.32E-02
75298,7.95E-03,4.19E-02
75299,7.94E-03,4.05E-02
75300,7.94E-03,3.91E-02
75301,7.94E-03,3.77E-02
75302,7.94E-03,3.62E-02
75303,7.94E-03,3.48E-02
75304,7.94E-03,3.33E-02
75305,7.94E-03,3.19E-02
75306,7.95E-03,3.05E-02
75307,7.96E-03,2.91E-02
75308,7.97E-03,2.77E-02
75309,7.98E-03,2.64E-02
75310,7.99E-03,2.51E-02
75311,8.00E-03,2.38E-02
75312,8.00E-03,2.27E-02
75313,8.00E-03,2.15E-02
75314,8.00E-03,2.05E-02
75315,8.00E-03,1.96E-02
75316,8.01E-03,1.87E-02
75317,8.01E-03,1.80E-02
75318,8.01E-03,1.73E-02
75319,8.01E-03,1.68E-02
75320,8.01E-03,1.64E-02
75321,8.00E-03,1.61E-02
75322,8.00E-03,1.60E-02
75323,8.00E-03,1.59E-02
75324,7.99E-03,1.59E-02
75325,7.99E-03,1.61E-02
75326,7.98E-03,1.63E-02
75327,7.98E-03,1.66E-02
75328,7.98E-03,1.69E-02
75329,7.99E-03,1.72E-02
75330,8.00E-03,1.76E-02
75331,8.01E-03,1.80E-02
75332,8.02E-03,1.84E-02
75333,8.03E-03,1.87E-02
75334,8.10E-03,1.91E-02
75335,8.14E-03,1.95E-02
75336,8.13E-03,1.98E-02
75337,8.14E-03,2.02E-02
75338,8.13E-03,2.05E-02
75339,8.17E-03,2.08E-02
75340,8.17E-03,2.11E-02
75341,8.16E-03,2.14E-02
75342,8.06E-03,2.17E-02
75343,8.05E-03,2.20E-02
75344,7.99E-03,2.22E-02
75345,7.84E-03,2.23E-02
75346,7.87E-03,2.24E-02
75347,7.90E-03,2.25E-02
75348,7.93E-03,2.25E-02
75349,7.95E-03,2.25E-02
75350,7.97E-03,2.24E-02
75351,7.98E-03,2.23E-02
75352,7.99E-03,2.21E-02
75353,7.99E-03,2.19E-02
75354,8.00E-03,2.17E-02
75355,8.00E-03,2.15E-02
75356,8.00E-03,2.12E-02
75357,8.00E-03,2.09E-02
75358,8.00E-03,2.06E-02
75359,7.99E-03,2.03E-02
75360,8.00E-03,2.00E-02
75361,8.01E-03,1.96E-02
75362,8.03E-03,1.93E-02
75363,8.03E-03,1.89E-02
75364,8.04E-03,1.86E-02
75365,8.05E-03,1.82E-02
75366,8.06E-03,1.79E-02
75367,8.07E-03,1.75E-02
75368,8.08E-03,1.72E-02
75369,8.10E-03,1.68E-02
75370,8.11E-03,1.65E-02
75371,8.11E-03,1.61E-02
75372,8.10E-03,1.58E-02
75373,8.10E-03,1.55E-02
75374,8.09E-03,1.52E-02
75375,8.09E-03,1.49E-02
75376,8.09E-03,1.46E-02
75377,8.09E-03,1.43E-02
75378,8.09E-03,1.40E-02
75379,8.09E-03,1.38E-02
75380,8.08E-03,1.35E-02
75381,8.08E-03,1.32E-02
75382,8.07E-03,1.29E-02
75383,8.06E-03,1.27E-02
75384,8.05E-03,1.25E-02
75385,8.03E-03,1.22E-02
75386,8.00E-03,1.20E-02
75387,7.93E-03,1.18E-02
75388,7.87E-03,1.16E-02
75389,8.13E-03,1.14E-02
75390,8.64E-03,1.12E-02
75391,8.72E-03,1.10E-02
75392,8.52E-03,1.08E-02
75393,8.09E-03,1.21E-02
75394,8.09E-03,1.20E-02
75395,8.09E-03,1.18E-02
75396,8.09E-03,1.17E-02
75397,8.09E-03,1.15E-02
75398,8.09E-03,1.14E-02
75399,8.09E-03,1.12E-02
75400,8.09E-03,1.10E-02
75401,8.09E-03,1.09E-02
75402,8.09E-03,1.07E-02
75403,8.09E-03,1.05E-02
75404,8.09E-03,1.03E-02
75405,8.09E-03,1.02E-02
75406,8.09E-03,9.99E-03
75407,8.09E-03,9.81E-03
75408,8.09E-03,9.62E-03
75409,8.09E-03,9.44E-03
75410,8.09E-03,9.25E-03
75411,8.09E-03,9.06E-03
75412,8.09E-03,8.88E-03
75413,8.09E-03,8.69E-03
75414,8.09E-03,8.50E-03
75415,8.09E-03,8.30E-03
75416,8.09E-03,8.11E-03
75417,8.09E-03,7.92E-03
75418,8.09E-03,7.73E-03
75419,8.09E-03,7.54E-03
75420,8.09E-03,7.35E-03
75421,8.09E-03,7.16E-03
75422,8.09E-03,6.97E-03
75423,8.09E-03,6.78E-03
75424,8.09E-03,6.59E-03
75425,8.09E-03,6.41E-03
75426,8.09E-03,6.23E-03
75427,8.09E-03,6.05E-03
75428,8.09E-03,5.87E-03
75429,8.09E-03,5.70E-03
75430,8.09E-03,5.53E-03
75431,8.09E-03,5.37E-03
75432,8.09E-03,5.21E-03
75433,8.09E-03,5.06E-03
75434,8.09E-03,4.91E-03
75435,8.09E-03,4.77E-03
75436,8.09E-03,4.64E-03
75437,8.09E-03,4.52E-03
75438,8.09E-03,4.42E-03
75439,8.09E-03,4.32E-03
75440,8.09E-03,4.23E-03
75441,8.09E-03,4.16E-03
75442,8.09E-03,4.10E-03
75443,8.09E-03,4.05E-03
75444,8.09E-03,4.02E-03
75445,8.09E-03,4.01E-03
75446,8.09E-03,4.01E-03
75447,8.09E-03,4.02E-03
75448,8.09E-03,4.05E-03
75449,8.09E-03,4.10E-03
75450,8.09E-03,4.15E-03
75451,8.09E-03,4.23E-03
75452,8.09E-03,4.31E-03
75453,8.09E-03,4.41E-03
75454,8.09E-03,4.52E-03
75455,8.09E-03,4.64E-03
75456,8.09E-03,4.77E-03
75457,8.09E-03,4.90E-03
75458,8.09E-03,5.05E-03
75459,8.09E-03,5.20E-03
75460,8.09E-03,5.35E-03
75461,8.09E-03,5.52E-03
75462,8.09E-03,5.69E-03
75463,8.09E-03,5.86E-03
75464,8.09E-03,6.03E-03
75465,8.09E-03,6.21E-03
75466,8.09E-03,6.40E-03
75467,8.09E-03,6.58E-03
75468,8.09E-03,6.77E-03
75469,8.09E-03,6.96E-03
75470,8.09E-03,7.15E-03
75471,8.09E-03,7.34E-03
75472,8.09E-03,7.54E-03
75473,8.09E-03,7.73E-03
75474,8.09E-03,7.93E-03
75475,8.09E-03,8.12E-03
75476,8.09E-03,8.32E-03
75477,8.09E-03,8.52E-03
75478,8.09E-03,8.71E-03
75479,8.09E-03,8.91E-03
75480,8.09E-03,9.11E-03
75481,8.09E-03,9.30E-03
75482,8.09E-03,9.50E-03
75483,8.09E-03,9.69E-03
75484,8.09E-03,9.89E-03
75485,8.09E-03,1.01E-02
75486,8.09E-03,1.03E-02
75487,8.09E-03,1.05E-02
75488,8.09E-03,1.07E-02
75489,8.09E-03,1.09E-02
75490,8.09E-03,1.11E-02
75491,8.09E-03,1.13E-02
75492,8.09E-03,1.14E-02
75493,8.09E-03,1.16E-02
75494,8.09E-03,1.18E-02
75495,8.09E-03,1.20E-02
75496,8.09E-03,1.22E-02
75497,8.09E-03,1.24E-02
75498,8.09E-03,1.26E-02
75499,8.09E-03,1.28E-02
75500,8.09E-03,1.30E-02
75501,8.09E-03,1.32E-02
75502,8.09E-03,1.34E-02
75503,8.09E-03,1.36E-02
75504,8.09E-03,1.38E-02
75505,8.09E-03,1.40E-02
75506,8.09E-03,1.42E-02
75507,8.09E-03,1.44E-02
75508,8.09E-03,1.46E-02
75509,8.09E-03,1.48E-02
75510,8.09E-03,1.50E-02
75511,8.09E-03,1.52E-02
75512,8.09E-03,1.54E-02
75513,8.09E-03,1.56E-02
75514,8.09E-03,1.58E-02
75515,8.09E-03,1.60E-02
75516,8.09E-03,1.62E-02
75517,8.22E-03,1.63E-02
75518,8.31E-03,1.65E-02
75519,8.48E-03,1.67E-02
75520,8.53E-03,1.69E-02
75521,8.51E-03,1.70E-02
75522,6.99E-03,1.81E-02
75523,6.67E-03,1.80E-02
75524,7.92E-03,1.79E-02
75525,8.38E-03,1.77E-02
75526,8.51E-03,1.75E-02
75527,8.47E-03,1.74E-02
75528,8.23E-03,1.72E-02
75538,5.81E-03,6.93E-03
75539,7.26E-03,6.85E-03
75540,6.25E-03,6.90E-03
75541,6.65E-03,6.82E-03
75542,4.58E-03,1.75E-03
75543,7.12E-03,1.76E-03
75544,6.23E-03,1.81E-03
75545,3.98E-03,1.79E-03
75546,5.21E-03,1.82E-03
75547,5.53E-03,7.05E-03
75548,8.10E-03,7.02E-03
75549,5.09E-03,7.02E-03
75550,6.28E-03,1.84E-03
75551,5.93E-03,1.86E-03
75552,6.29E-03,1.91E-03
75553,6.84E-03,1.90E-03
75554,6.88E-03,1.94E-03
75555,7.04E-03,1.99E-03
75556,6.75E-03,6.71E-03
75557,8.00E-03,6.71E-03
75558,7.48E-03,6.81E-03
75559,3.89E-03,6.69E-03
75560,6.34E-03,6.58E-03
75561,4.79E-03,6.59E-03
75562,4.30E-03,6.62E-03
75563,1.41E-02,4.13E-03
75564,1.31E-02,3.90E-03
75565,1.36E-02,4.13E-03
75566,1.03E-02,7.23E-03
75567,1.09E-02,6.97E-03
75568,1.02E-02,6.82E-03
75569,4.80E-03,7.86E-03
75570,6.58E-03,7.80E-03
75571,6.53E-03,8.12E-03
75572,4.91E-03,8.09E-03
75573,4.56E-03,7.99E-03
75574,9.41E-03,6.15E-03
75575,9.95E-03,6.23E-03
75576,1.02E-02,3.53E-03
75577,9.14E-03,3.63E-03
75578,9.90E-03,5.00E-03
75579,8.92E-03,5.17E-03
75580,7.94E-03,6.89E-03
75581,9.84E-03,6.90E-03
75582,6.76E-03,7.01E-03
75583,1.08E-02,2.77E-03
75584,1.13E-02,2.67E-03
75585,9.19E-03,2.54E-03
75586,8.33E-03,5.35E-03
75587,9.37E-03,5.19E-03
75588,8.40E-03,5.25E-03
75589,7.31E-03,5.38E-03
75590,4.80E-03,5.95E-03
75591,5.11E-03,5.88E-03
75592,4.99E-03,5.80E-03
75593,5.37E-03,2.90E-03
75594,5.33E-03,2.82E-03
75595,5.09E-03,2.88E-03
75596,7.64E-03,2.03E-03
75597,7.84E-03,2.08E-03
75598,5.74E-03,6.50E-03
75599,5.38E-03,6.41E-03
75600,5.26E-03,6.63E-03
75601,8.98E-03,7.65E-04
75602,8.37E-03,7.71E-04
75603,7.46E-03,8.56E-04
75604,6.83E-03,8.53E-04
75605,6.16E-03,9.41E-04
75606,6.43E-03,8.69E-04
75607,5.44E-03,5.92E-03
75608,5.72E-03,6.00E-03
75609,5.50E-03,5.90E-03
75610,7.62E-03,6.37E-03
75611,8.42E-03,6.28E-03
75612,6.76E-03,6.46E-03
75613,8.35E-03,6.32E-03
75614,2.78E-03,7.03E-03
75615,1.66E-03,7.05E-03
75616,4.43E-03,6.97E-03
75617,2.92E-03,6.96E-03
75618,7.37E-03,6.94E-03
75619,4.90E-03,6.98E-03
75620,6.92E-03,6.91E-03
75621,7.00E-03,6.88E-03
75622,7.05E-03,6.86E-03
75623,7.02E-03,6.83E-03
75624,7.07E-03,6.80E-03
75625,7.12E-03,6.78E-03
75626,7.15E-03,6.75E-03
75627,7.12E-03,6.72E-03
75628,7.10E-03,6.69E-03
75629,6.95E-03,6.66E-03
75630,7.04E-03,6.62E-03
75631,7.05E-03,6.59E-03
75632,7.08E-03,6.55E-03
75633,7.02E-03,6.51E-03
75634,7.02E-03,6.47E-03
75635,6.93E-03,6.43E-03
75636,7.02E-03,6.40E-03
75637,6.61E-03,6.36E-03
75638,6.38E-03,6.96E-03
75639,5.07E-03,6.99E-03
75640,4.88E-03,7.01E-03
75641,3.04E-03,7.04E-03
75642,7.88E-03,5.57E-03
75643,7.82E-03,5.51E-03
75644,7.51E-03,5.44E-03
75645,5.34E-03,5.36E-03
75646,7.51E-03,5.19E-03
75647,6.39E-03,5.71E-03
75648,7.99E-03,5.71E-03
75649,7.66E-03,5.74E-03
75650,7.81E-03,5.79E-03
75651,7.84E-03,5.84E-03
75652,7.92E-03,5.89E-03
75653,7.81E-03,5.94E-03
75654,7.90E-03,5.99E-03
75655,7.94E-03,6.03E-03
75656,7.98E-03,6.08E-03
75657,8.02E-03,6.12E-03
75658,8.12E-03,6.17E-03
75659,8.19E-03,6.21E-03
75660,8.28E-03,6.25E-03
75661,8.45E-03,6.30E-03
75662,8.65E-03,6.35E-03
75663,7.68E-03,6.40E-03
75664,6.35E-03,6.47E-03
75665,6.90E-03,6.50E-03
75666,6.89E-03,6.54E-03
75667,6.95E-03,6.58E-03
75668,7.06E-03,6.61E-03
75669,7.04E-03,6.65E-03
75670,7.11E-03,6.69E-03
75671,7.11E-03,6.72E-03
75672,7.14E-03,6.76E-03
75673,7.26E-03,6.79E-03
75674,7.18E-03,6.82E-03
75675,7.11E-03,6.85E-03
75676,7.06E-03,6.88E-03
75677,6.97E-03,6.90E-03
75678,6.96E-03,6.93E-03
75679,7.04E-03,6.96E-03
75680,7.08E-03,6.99E-03
75681,7.03E-03,7.02E-03
75682,6.45E-03,7.04E-03
75683,4.61E-03,7.05E-03
75684,4.50E-03,7.07E-03
75685,6.97E-03,7.08E-03
75686,4.73E-03,7.10E-03
75687,4.19E-03,7.11E-03
75688,3.13E-03,7.11E-03
75689,2.10E-03,7.12E-03
75690,3.42E-03,7.08E-03
75691,3.33E-03,7.13E-03
75692,3.63E-03,7.10E-03
75693,2.96E-03,7.11E-03
75694,9.89E-03,5.08E-03
75695,8.20E-03,5.31E-03
75696,8.21E-03,5.38E-03
75697,8.90E-03,5.46E-03
75698,9.04E-03,5.56E-03
75699,8.29E-03,5.61E-03
75700,8.08E-03,5.66E-03
75701,8.10E-03,5.71E-03
75702,8.00E-03,5.76E-03
75703,7.96E-03,5.81E-03
75704,7.95E-03,5.86E-03
75705,7.99E-03,5.90E-03
75706,7.99E-03,5.95E-03
75707,8.04E-03,6.00E-03
75708,8.13E-03,6.04E-03
75709,8.20E-03,6.09E-03
75710,8.27E-03,6.13E-03
75711,8.40E-03,6.17E-03
75712,8.71E-03,6.21E-03
75713,8.01E-03,6.23E-03
75714,6.88E-03,6.26E-03
75715,7.04E-03,6.30E-03
75716,7.08E-03,6.33E-03
75717,7.06E-03,6.37E-03
75718,6.99E-03,6.41E-03
75719,6.96E-03,6.45E-03
75720,7.00E-03,6.49E-03
75721,7.28E-03,6.52E-03
75722,7.41E-03,6.56E-03
75723,7.28E-03,6.59E-03
75724,7.08E-03,6.62E-03
75725,7.12E-03,6.65E-03
75726,7.12E-03,6.68E-03
75727,7.19E-03,6.70E-03
75728,7.16E-03,6.73E-03
75729,7.12E-03,6.76E-03
75730,7.16E-03,6.79E-03
75731,7.40E-03,6.82E-03
75732,7.89E-03,6.83E-03
75733,7.04E-03,6.85E-03
75734,6.38E-03,6.88E-03
75735,6.19E-03,6.91E-03
75736,6.43E-03,6.95E-03
75737,5.19E-03,7.04E-03
75738,6.86E-03,7.00E-03
75739,5.97E-03,6.97E-03
75740,5.08E-03,6.96E-03
75741,3.71E-03,6.97E-03
75742,9.34E-03,4.80E-03
75743,8.71E-03,4.85E-03
75744,9.43E-03,4.94E-03
75745,9.36E-03,5.04E-03
75746,8.90E-03,5.12E-03
75747,8.53E-03,5.19E-03
75748,8.85E-03,5.26E-03
75749,9.15E-03,5.33E-03
75750,8.89E-03,5.41E-03
75751,8.45E-03,5.47E-03
75752,8.21E-03,5.53E-03
75753,8.16E-03,5.58E-03
75754,8.05E-03,5.63E-03
75755,8.02E-03,5.68E-03
75756,8.00E-03,5.73E-03
75757,8.09E-03,5.78E-03
75758,8.03E-03,5.83E-03
75759,8.09E-03,5.87E-03
75760,8.13E-03,5.92E-03
75761,8.21E-03,5.96E-03
75762,8.22E-03,6.01E-03
75763,8.21E-03,6.05E-03
75764,8.16E-03,6.09E-03
75765,7.87E-03,6.12E-03
75766,7.62E-03,6.16E-03
75767,7.35E-03,6.19E-03
75768,7.26E-03,6.23E-03
75769,7.36E-03,6.27E-03
75770,7.54E-03,6.31E-03
75771,7.63E-03,6.35E-03
75772,7.72E-03,6.39E-03
75773,7.57E-03,6.42E-03
75774,7.38E-03,6.45E-03
75775,7.55E-03,6.49E-03
75776,7.66E-03,6.52E-03
75777,7.53E-03,6.55E-03
75778,7.50E-03,6.58E-03
75779,7.42E-03,6.61E-03
75780,7.32E-03,6.64E-03
75781,7.15E-03,6.67E-03
75782,7.23E-03,6.69E-03
75783,7.40E-03,6.72E-03
75784,7.77E-03,6.74E-03
75785,7.60E-03,6.76E-03
75786,7.41E-03,6.79E-03
75787,7.65E-03,6.82E-03
75788,8.75E-03,6.86E-03
75789,9.66E-03,6.89E-03
75790,6.63E-03,6.87E-03
75791,5.90E-03,6.88E-03
75792,4.20E-03,6.99E-03
75793,3.67E-03,7.02E-03
75794,3.74E-03,7.06E-03
75795,4.63E-03,7.09E-03
75796,5.37E-03,7.10E-03
75797,5.18E-03,7.12E-03
75798,4.21E-03,7.13E-03
75799,3.19E-03,7.16E-03
75800,3.08E-03,7.20E-03
75801,3.40E-03,7.23E-03
75802,2.82E-03,7.22E-03
75803,2.81E-03,7.19E-03
75804,3.59E-03,7.18E-03
75805,3.83E-03,7.19E-03
75806,3.96E-03,7.20E-03
75807,3.51E-03,7.21E-03
75808,3.31E-03,7.22E-03
75809,4.38E-03,7.22E-03
75810,4.44E-03,7.21E-03
75811,5.09E-03,7.20E-03
75812,5.47E-03,7.19E-03
75813,5.78E-03,7.17E-03
75814,6.50E-03,7.15E-03
75815,6.55E-03,7.13E-03
75816,7.00E-03,7.11E-03
75817,7.18E-03,7.09E-03
75818,7.46E-03,7.06E-03
75819,7.58E-03,7.04E-03
75820,7.59E-03,7.01E-03
75821,7.54E-03,6.98E-03
75822,7.46E-03,6.95E-03
75823,7.42E-03,6.92E-03
75824,7.42E-03,6.89E-03
75825,7.28E-03,6.86E-03
75826,7.25E-03,6.83E-03
75827,7.24E-03,6.79E-03
75828,7.22E-03,6.76E-03
75829,7.14E-03,6.72E-03
75830,7.34E-03,6.68E-03
75831,7.46E-03,6.65E-03
75832,7.27E-03,6.61E-03
75833,7.51E-03,6.57E-03
75834,7.71E-03,6.52E-03
75835,7.96E-03,6.47E-03
75836,8.24E-03,6.43E-03
75837,8.25E-03,6.38E-03
75838,8.14E-03,6.34E-03
75839,8.07E-03,6.30E-03
75840,7.98E-03,6.25E-03
75841,7.94E-03,6.21E-03
75842,7.94E-03,6.16E-03
75843,7.77E-03,6.12E-03
75844,7.81E-03,6.07E-03
75845,7.86E-03,6.03E-03
75846,7.70E-03,5.98E-03
75847,7.72E-03,5.93E-03
75848,7.55E-03,5.89E-03
75849,7.26E-03,5.86E-03
75850,5.64E-03,5.84E-03
75851,5.63E-03,5.80E-03
75852,7.05E-03,5.73E-03
75853,7.40E-03,5.65E-03
75854,6.90E-03,5.59E-03
75855,6.70E-03,5.54E-03
75856,6.64E-03,5.50E-03
75857,4.85E-03,5.47E-03
75858,5.04E-03,5.44E-03
75859,7.30E-03,5.35E-03
75860,7.48E-03,5.33E-03
75861,3.85E-03,6.95E-03
75862,4.46E-03,6.96E-03
75863,7.08E-03,5.32E-03
75864,9.27E-03,5.14E-03
75865,1.05E-02,4.95E-03
75866,9.20E-03,4.73E-03
75867,8.79E-03,4.54E-03
75868,8.39E-03,4.58E-03
75869,8.89E-03,4.63E-03
75870,9.62E-03,4.72E-03
75871,9.37E-03,4.80E-03
75872,9.22E-03,4.90E-03
75873,9.19E-03,4.99E-03
75874,9.07E-03,5.06E-03
75875,8.96E-03,5.14E-03
75876,8.94E-03,5.20E-03
75877,8.80E-03,5.27E-03
75878,8.61E-03,5.34E-03
75879,8.28E-03,5.40E-03
75880,8.18E-03,5.45E-03
75881,8.16E-03,5.50E-03
75882,8.17E-03,5.56E-03
75883,8.15E-03,5.61E-03
75884,8.13E-03,5.66E-03
75885,8.10E-03,5.71E-03
75886,8.11E-03,5.75E-03
75887,8.10E-03,5.80E-03
75888,8.09E-03,5.84E-03
75889,8.15E-03,5.89E-03
75890,8.16E-03,5.93E-03
75891,8.07E-03,5.97E-03
75892,7.91E-03,6.01E-03
75893,7.73E-03,6.05E-03
75894,7.70E-03,6.09E-03
75895,7.73E-03,6.13E-03
75896,7.72E-03,6.17E-03
75897,7.76E-03,6.21E-03
75898,7.76E-03,6.25E-03
75899,7.72E-03,6.28E-03
75900,7.81E-03,6.32E-03
75901,7.87E-03,6.35E-03
75902,7.79E-03,6.38E-03
75903,7.70E-03,6.42E-03
75904,7.63E-03,6.45E-03
75905,7.62E-03,6.48E-03
75906,7.58E-03,6.51E-03
75907,7.83E-03,6.54E-03
75908,7.98E-03,6.57E-03
75909,7.98E-03,6.59E-03
75910,7.92E-03,6.62E-03
75911,7.81E-03,6.64E-03
75912,7.79E-03,6.66E-03
75913,7.82E-03,6.69E-03
75914,8.00E-03,6.72E-03
75915,8.46E-03,6.75E-03
75916,8.76E-03,6.76E-03
75917,8.53E-03,6.77E-03
75918,7.88E-03,6.78E-03
75919,7.00E-03,6.79E-03
75920,6.64E-03,6.80E-03
75921,7.72E-03,6.88E-03
75922,6.36E-03,6.89E-03
75923,6.38E-03,6.86E-03
75924,4.75E-03,6.91E-03
75925,3.41E-03,7.01E-03
75926,2.95E-03,7.04E-03
75927,3.55E-03,7.07E-03
75928,3.88E-03,7.11E-03
75929,3.90E-03,7.14E-03
75930,4.55E-03,7.16E-03
75931,4.52E-03,7.19E-03
75932,4.90E-03,7.21E-03
75933,4.82E-03,7.23E-03
75934,4.31E-03,7.25E-03
75935,4.16E-03,7.27E-03
75936,3.80E-03,7.28E-03
75937,3.55E-03,7.29E-03
75938,3.92E-03,7.29E-03
75939,3.71E-03,7.29E-03
75940,3.29E-03,7.30E-03
75941,3.55E-03,7.31E-03
75942,3.62E-03,7.32E-03
75943,3.55E-03,7.32E-03
75944,3.91E-03,7.32E-03
75945,4.69E-03,7.32E-03
75946,5.02E-03,7.32E-03
75947,5.25E-03,7.31E-03
75948,5.60E-03,7.29E-03
75949,5.80E-03,7.28E-03
75950,6.58E-03,7.26E-03
75951,7.03E-03,7.24E-03
75952,7.12E-03,7.22E-03
75953,7.26E-03,7.20E-03
75954,7.45E-03,7.17E-03
75955,7.60E-03,7.15E-03
75956,7.63E-03,7.12E-03
75957,7.66E-03,7.09E-03
75958,7.66E-03,7.06E-03
75959,7.53E-03,7.03E-03
75960,7.50E-03,7.00E-03
75961,7.49E-03,6.97E-03
75962,7.51E-03,6.93E-03
75963,7.60E-03,6.90E-03
75964,7.67E-03,6.86E-03
75965,7.77E-03,6.83E-03
75966,7.79E-03,6.79E-03
75967,7.63E-03,6.76E-03
75968,7.53E-03,6.72E-03
75969,7.60E-03,6.68E-03
75970,7.74E-03,6.64E-03
75971,7.94E-03,6.60E-03
75972,8.06E-03,6.56E-03
75973,8.09E-03,6.51E-03
75974,8.08E-03,6.47E-03
75975,8.06E-03,6.43E-03
75976,7.96E-03,6.39E-03
75977,7.90E-03,6.34E-03
75978,7.86E-03,6.30E-03
75979,7.77E-03,6.26E-03
75980,7.84E-03,6.21E-03
75981,7.81E-03,6.17E-03
75982,7.74E-03,6.12E-03
75983,7.68E-03,6.08E-03
75984,7.43E-03,6.04E-03
75985,6.98E-03,5.99E-03
75986,6.74E-03,5.94E-03
75987,6.60E-03,5.91E-03
75988,6.81E-03,5.87E-03
75989,7.22E-03,5.82E-03
75990,6.91E-03,5.76E-03
75991,6.83E-03,5.72E-03
75992,6.38E-03,5.66E-03
75993,6.05E-03,5.61E-03
75994,5.85E-03,5.57E-03
75995,6.03E-03,5.55E-03
75996,6.39E-03,5.49E-03
75997,4.79E-03,5.47E-03
75998,6.43E-03,6.81E-03
75999,7.37E-03,6.77E-03
76000,7.30E-03,6.75E-03
76001,7.35E-03,6.73E-03
76002,7.51E-03,6.71E-03
76003,7.63E-03,6.70E-03
76004,7.86E-03,6.68E-03
76005,8.19E-03,6.67E-03
76006,8.30E-03,6.65E-03
76007,8.32E-03,6.64E-03
76008,8.11E-03,6.62E-03
76009,7.93E-03,6.59E-03
76010,7.87E-03,6.56E-03
76011,7.94E-03,6.54E-03
76012,7.98E-03,6.51E-03
76013,7.98E-03,6.49E-03
76014,7.98E-03,6.46E-03
76015,7.98E-03,6.44E-03
76016,7.90E-03,6.41E-03
76017,7.82E-03,6.38E-03
76018,7.79E-03,6.35E-03
76019,7.85E-03,6.31E-03
76020,7.93E-03,6.28E-03
76021,8.00E-03,6.25E-03
76022,8.00E-03,6.21E-03
76023,7.97E-03,6.18E-03
76024,7.92E-03,6.14E-03
76025,7.88E-03,6.11E-03
76026,7.88E-03,6.07E-03
76027,7.87E-03,6.03E-03
76028,7.83E-03,5.99E-03
76029,7.88E-03,5.95E-03
76030,7.98E-03,5.90E-03
76031,8.00E-03,5.86E-03
76032,8.07E-03,5.82E-03
76033,8.08E-03,5.77E-03
76034,8.09E-03,5.73E-03
76035,8.10E-03,5.68E-03
76036,8.11E-03,5.64E-03
76037,8.15E-03,5.59E-03
76038,8.23E-03,5.54E-03
76039,8.28E-03,5.49E-03
76040,8.27E-03,5.43E-03
76041,8.38E-03,5.38E-03
76042,8.47E-03,5.32E-03
76043,8.52E-03,5.27E-03
76044,8.65E-03,5.21E-03
76045,8.73E-03,5.14E-03
76046,8.84E-03,5.08E-03
76047,8.88E-03,5.01E-03
76048,9.09E-03,4.94E-03
76049,9.26E-03,4.86E-03
76050,9.37E-03,4.77E-03
76051,9.52E-03,4.68E-03
76052,9.53E-03,4.59E-03
76053,9.61E-03,4.50E-03
76054,9.89E-03,4.43E-03
76055,1.07E-02,4.36E-03
76056,5.27E-03,6.87E-03
76057,4.96E-03,6.91E-03
76058,4.51E-03,6.95E-03
76059,3.15E-03,6.99E-03
76060,2.12E-03,7.04E-03
76061,2.93E-03,7.06E-03
76062,2.85E-03,7.08E-03
76063,1.97E-03,7.10E-03
76064,1.79E-03,7.13E-03
76065,2.63E-03,7.16E-03
76066,3.24E-03,7.17E-03
76067,3.70E-03,7.19E-03
76068,4.11E-03,7.21E-03
76069,4.24E-03,7.24E-03
76070,4.57E-03,7.27E-03
76071,4.68E-03,7.29E-03
76072,4.82E-03,7.32E-03
76073,4.81E-03,7.34E-03
76074,4.82E-03,7.35E-03
76075,4.99E-03,7.37E-03
76076,4.85E-03,7.38E-03
76077,4.57E-03,7.39E-03
76078,4.34E-03,7.40E-03
76079,4.12E-03,7.41E-03
76080,3.45E-03,7.42E-03
76081,3.57E-03,7.43E-03
76082,3.60E-03,7.43E-03
76083,3.72E-03,7.43E-03
76084,4.17E-03,7.43E-03
76085,4.80E-03,7.43E-03
76086,5.35E-03,7.42E-03
76087,5.50E-03,7.41E-03
76088,5.73E-03,7.40E-03
76089,5.93E-03,7.38E-03
76090,6.65E-03,7.37E-03
76091,7.15E-03,7.35E-03
76092,7.22E-03,7.33E-03
76093,7.31E-03,7.30E-03
76094,7.42E-03,7.28E-03
76095,7.63E-03,7.26E-03
76096,7.71E-03,7.23E-03
76097,7.73E-03,7.20E-03
76098,7.71E-03,7.17E-03
76099,7.78E-03,7.14E-03
76100,7.86E-03,7.11E-03
76101,7.87E-03,7.08E-03
76102,7.88E-03,7.05E-03
76103,7.89E-03,7.01E-03
76104,7.91E-03,6.98E-03
76105,7.91E-03,6.95E-03
76106,7.84E-03,6.91E-03
76107,7.82E-03,6.87E-03
76108,7.81E-03,6.84E-03
76109,7.81E-03,6.80E-03
76110,7.85E-03,6.76E-03
76111,7.93E-03,6.72E-03
76112,7.93E-03,6.68E-03
76113,7.92E-03,6.64E-03
76114,7.91E-03,6.60E-03
76115,7.90E-03,6.56E-03
76116,7.89E-03,6.52E-03
76117,7.87E-03,6.48E-03
76118,7.86E-03,6.44E-03
76119,7.84E-03,6.40E-03
76120,7.82E-03,6.35E-03
76121,7.84E-03,6.31E-03
76122,7.72E-03,6.27E-03
76123,7.60E-03,6.23E-03
76124,7.40E-03,6.18E-03
76125,7.29E-03,6.13E-03
76126,7.12E-03,6.09E-03
76127,6.89E-03,6.05E-03
76128,7.02E-03,6.01E-03
76129,7.13E-03,5.97E-03
76130,6.99E-03,5.93E-03
76131,6.83E-03,5.88E-03
76132,6.63E-03,5.83E-03
76133,6.50E-03,5.78E-03
76134,6.29E-03,5.74E-03
76135,6.02E-03,5.72E-03
76136,5.92E-03,5.69E-03
76137,5.29E-03,5.63E-03
76138,6.29E-03,5.51E-03
76139,7.60E-03,5.35E-03
76140,8.69E-03,5.17E-03
76141,9.23E-03,4.98E-03
76142,9.77E-03,4.77E-03
76143,1.01E-02,4.55E-03
76144,1.13E-02,4.34E-03
76145,5.12E-03,6.74E-03
76146,5.69E-03,6.80E-03
76147,1.17E-02,4.20E-03
76148,1.08E-02,4.29E-03
76149,1.02E-02,4.38E-03
76150,9.92E-03,4.47E-03
76151,9.78E-03,4.56E-03
76152,9.63E-03,4.65E-03
76153,9.36E-03,4.73E-03
76154,9.45E-03,4.81E-03
76155,9.16E-03,4.89E-03
76156,8.87E-03,4.95E-03
76157,8.79E-03,5.02E-03
76158,8.62E-03,5.08E-03
76159,8.49E-03,5.14E-03
76160,8.45E-03,5.20E-03
76161,8.42E-03,5.26E-03
76162,8.38E-03,5.31E-03
76163,8.31E-03,5.37E-03
76164,8.21E-03,5.42E-03
76165,8.14E-03,5.47E-03
76166,8.11E-03,5.52E-03
76167,8.10E-03,5.57E-03
76168,8.09E-03,5.62E-03
76169,8.08E-03,5.66E-03
76170,8.07E-03,5.71E-03
76171,8.06E-03,5.75E-03
76172,8.06E-03,5.80E-03
76173,8.05E-03,5.84E-03
76174,8.04E-03,5.88E-03
76175,8.03E-03,5.92E-03
76176,8.03E-03,5.96E-03
76177,8.02E-03,6.00E-03
76178,8.02E-03,6.04E-03
76179,8.01E-03,6.08E-03
76180,8.00E-03,6.11E-03
76181,8.00E-03,6.15E-03
76182,8.00E-03,6.18E-03
76183,7.99E-03,6.21E-03
76184,7.99E-03,6.24E-03
76185,7.99E-03,6.28E-03
76186,7.99E-03,6.31E-03
76187,7.99E-03,6.33E-03
76188,7.99E-03,6.36E-03
76189,7.99E-03,6.39E-03
76190,7.99E-03,6.41E-03
76191,7.99E-03,6.44E-03
76192,7.99E-03,6.46E-03
76193,7.99E-03,6.49E-03
76194,8.07E-03,6.51E-03
76195,8.19E-03,6.53E-03
76196,8.18E-03,6.55E-03
76197,8.12E-03,6.57E-03
76198,7.91E-03,6.59E-03
76199,7.74E-03,6.60E-03
76200,7.61E-03,6.62E-03
76201,7.50E-03,6.64E-03
76202,7.42E-03,6.66E-03
76203,7.37E-03,6.68E-03
76204,5.72E-03,6.65E-03
76205,6.42E-03,6.71E-03
76206,6.65E-03,6.76E-03
76207,6.06E-03,6.84E-03
76208,4.83E-03,6.90E-03
76209,4.83E-03,6.95E-03
76210,4.58E-03,6.99E-03
76211,4.69E-03,7.05E-03
76212,3.53E-03,7.09E-03
76213,3.04E-03,7.12E-03
76214,2.81E-03,7.15E-03
76215,2.63E-03,7.18E-03
76216,2.38E-03,7.20E-03
76217,3.04E-03,7.23E-03
76218,3.54E-03,7.26E-03
76219,3.84E-03,7.29E-03
76220,4.27E-03,7.32E-03
76221,4.36E-03,7.34E-03
76222,4.63E-03,7.37E-03
76223,4.89E-03,7.39E-03
76224,5.02E-03,7.42E-03
76225,5.06E-03,7.44E-03
76226,5.22E-03,7.46E-03
76227,5.12E-03,7.47E-03
76228,5.13E-03,7.49E-03
76229,4.82E-03,7.50E-03
76230,4.58E-03,7.51E-03
76231,4.33E-03,7.53E-03
76232,3.91E-03,7.53E-03
76233,3.62E-03,7.54E-03
76234,3.64E-03,7.54E-03
76235,3.97E-03,7.54E-03
76236,4.42E-03,7.54E-03
76237,4.92E-03,7.54E-03
76238,5.52E-03,7.53E-03
76239,5.75E-03,7.52E-03
76240,5.96E-03,7.51E-03
76241,6.27E-03,7.50E-03
76242,6.70E-03,7.48E-03
76243,7.14E-03,7.46E-03
76244,7.20E-03,7.44E-03
76245,7.38E-03,7.42E-03
76246,7.52E-03,7.39E-03
76247,7.66E-03,7.37E-03
76248,7.74E-03,7.34E-03
76249,7.80E-03,7.31E-03
76250,7.85E-03,7.29E-03
76251,7.86E-03,7.26E-03
76252,7.87E-03,7.23E-03
76253,7.88E-03,7.19E-03
76254,7.90E-03,7.16E-03
76255,7.91E-03,7.13E-03
76256,7.92E-03,7.10E-03
76257,7.92E-03,7.06E-03
76258,7.93E-03,7.03E-03
76259,7.93E-03,6.99E-03
76260,7.93E-03,6.96E-03
76261,7.94E-03,6.92E-03
76262,7.94E-03,6.89E-03
76263,7.94E-03,6.85E-03
76264,7.94E-03,6.81E-03
76265,7.93E-03,6.77E-03
76266,7.92E-03,6.74E-03
76267,7.91E-03,6.70E-03
76268,7.90E-03,6.66E-03
76269,7.89E-03,6.62E-03
76270,7.87E-03,6.58E-03
76271,7.85E-03,6.54E-03
76272,7.84E-03,6.50E-03
76273,7.82E-03,6.46E-03
76274,7.79E-03,6.42E-03
76275,7.75E-03,6.38E-03
76276,7.60E-03,6.33E-03
76277,7.45E-03,6.29E-03
76278,7.48E-03,6.24E-03
76279,7.38E-03,6.20E-03
76280,7.31E-03,6.17E-03
76281,7.14E-03,6.14E-03
76282,7.05E-03,6.10E-03
76283,6.90E-03,6.05E-03
76284,6.76E-03,6.01E-03
76285,6.57E-03,5.97E-03
76286,6.43E-03,5.93E-03
76287,6.14E-03,5.90E-03
76288,6.03E-03,5.86E-03
76289,6.94E-03,5.79E-03
76290,7.11E-03,5.75E-03
76291,7.86E-03,5.56E-03
76292,7.58E-03,5.39E-03
76293,8.16E-03,5.23E-03
76294,9.46E-03,5.02E-03
76295,9.95E-03,4.81E-03
76296,1.05E-02,4.58E-03
76297,1.14E-02,4.35E-03
76298,5.80E-03,5.96E-03
76299,6.44E-03,5.99E-03
76300,6.34E-03,6.03E-03
76301,6.29E-03,6.08E-03
76302,6.62E-03,6.12E-03
76303,6.70E-03,6.15E-03
76304,6.78E-03,6.19E-03
76305,7.03E-03,6.23E-03
76306,7.17E-03,6.27E-03
76307,7.27E-03,6.30E-03
76308,7.37E-03,6.34E-03
76309,7.46E-03,6.37E-03
76310,7.60E-03,6.41E-03
76311,7.66E-03,6.45E-03
76312,7.71E-03,6.49E-03
76313,7.77E-03,6.53E-03
76314,7.81E-03,6.57E-03
76315,7.84E-03,6.61E-03
76316,7.85E-03,6.64E-03
76317,7.87E-03,6.68E-03
76318,7.88E-03,6.72E-03
76319,7.90E-03,6.76E-03
76320,7.91E-03,6.80E-03
76321,7.92E-03,6.83E-03
76322,7.93E-03,6.87E-03
76323,7.94E-03,6.91E-03
76324,7.95E-03,6.94E-03
76325,7.95E-03,6.98E-03
76326,7.95E-03,7.01E-03
76327,7.95E-03,7.05E-03
76328,7.94E-03,7.08E-03
76329,7.94E-03,7.12E-03
76330,7.94E-03,7.15E-03
76331,7.93E-03,7.18E-03
76332,7.93E-03,7.22E-03
76333,7.92E-03,7.25E-03
76334,7.91E-03,7.28E-03
76335,7.90E-03,7.31E-03
76336,7.89E-03,7.34E-03
76337,7.88E-03,7.37E-03
76338,7.86E-03,7.40E-03
76339,7.82E-03,7.43E-03
76340,7.76E-03,7.46E-03
76341,7.69E-03,7.48E-03
76342,7.62E-03,7.51E-03
76343,7.49E-03,7.53E-03
76344,7.27E-03,7.55E-03
76345,7.13E-03,7.57E-03
76346,6.85E-03,7.59E-03
76347,6.49E-03,7.61E-03
76348,6.14E-03,7.62E-03
76349,5.88E-03,7.64E-03
76350,5.54E-03,7.65E-03
76351,5.08E-03,7.65E-03
76352,4.67E-03,7.66E-03
76353,4.26E-03,7.66E-03
76354,3.86E-03,7.66E-03
76355,3.80E-03,7.65E-03
76356,4.28E-03,7.64E-03
76357,4.55E-03,7.64E-03
76358,4.82E-03,7.63E-03
76359,5.04E-03,7.61E-03
76360,5.33E-03,7.60E-03
76361,5.33E-03,7.58E-03
76362,5.37E-03,7.56E-03
76363,5.22E-03,7.54E-03
76364,5.19E-03,7.52E-03
76365,5.13E-03,7.49E-03
76366,4.87E-03,7.47E-03
76367,4.62E-03,7.44E-03
76368,4.39E-03,7.41E-03
76369,4.11E-03,7.38E-03
76370,3.96E-03,7.34E-03
76371,3.51E-03,7.31E-03
76372,2.79E-03,7.29E-03
76373,2.76E-03,7.26E-03
76374,3.15E-03,7.23E-03
76375,3.65E-03,7.19E-03
76376,4.19E-03,7.15E-03
76377,4.53E-03,7.10E-03
76378,4.93E-03,7.05E-03
76379,4.98E-03,7.00E-03
76380,5.53E-03,6.95E-03
76381,6.40E-03,6.88E-03
76382,6.32E-03,6.81E-03
76383,6.07E-03,6.57E-03
76384,6.65E-03,6.61E-03
76385,7.09E-03,6.67E-03
76386,6.77E-03,6.73E-03
76387,7.26E-03,5.64E-03
76388,7.71E-03,5.47E-03
76389,8.14E-03,5.29E-03
76390,1.00E-02,5.09E-03
76391,1.01E-02,4.86E-03
76392,1.06E-02,4.63E-03
76393,1.11E-02,4.40E-03
76394,1.16E-02,4.17E-03
76395,1.12E-02,3.96E-03
76396,6.85E-03,3.73E-03
76397,6.58E-03,3.76E-03
76398,7.32E-03,3.25E-03
76399,6.24E-03,3.65E-03
76400,8.13E-03,3.34E-03
76401,7.98E-03,3.43E-03
76402,8.33E-03,3.52E-03
76403,1.04E-02,3.67E-03
76404,1.25E-02,3.82E-03
76405,1.47E-02,3.96E-03
76406,1.24E-02,4.06E-03
76407,1.11E-02,4.16E-03
76408,1.05E-02,4.26E-03
76409,1.02E-02,4.35E-03
76410,9.99E-03,4.44E-03
76411,9.87E-03,4.53E-03
76412,9.55E-03,4.61E-03
76413,9.37E-03,4.69E-03
76414,9.08E-03,4.76E-03
76415,8.80E-03,4.83E-03
76416,8.73E-03,4.90E-03
76417,8.62E-03,4.96E-03
76418,8.46E-03,5.02E-03
76419,8.42E-03,5.08E-03
76420,8.39E-03,5.14E-03
76421,8.35E-03,5.20E-03
76422,8.29E-03,5.25E-03
76423,8.20E-03,5.31E-03
76424,8.13E-03,5.36E-03
76425,8.10E-03,5.41E-03
76426,8.09E-03,5.46E-03
76427,8.08E-03,5.51E-03
76428,8.08E-03,5.55E-03
76429,8.07E-03,5.60E-03
76430,8.06E-03,5.65E-03
76431,8.06E-03,5.69E-03
76432,8.05E-03,5.74E-03
76433,8.04E-03,5.78E-03
76434,8.03E-03,5.82E-03
76435,8.03E-03,5.86E-03
76436,8.02E-03,5.90E-03
76437,8.02E-03,5.94E-03
76438,8.01E-03,5.97E-03
76439,8.01E-03,6.01E-03
76440,8.00E-03,6.04E-03
76441,8.00E-03,6.08E-03
76442,8.00E-03,6.11E-03
76443,7.99E-03,6.14E-03
76444,7.99E-03,6.17E-03
76445,7.99E-03,6.20E-03
76446,7.99E-03,6.23E-03
76447,7.99E-03,6.26E-03
76448,7.99E-03,6.29E-03
76449,7.99E-03,6.31E-03
76450,7.99E-03,6.34E-03
76451,7.99E-03,6.36E-03
76452,7.99E-03,6.39E-03
76453,8.00E-03,6.41E-03
76454,8.00E-03,6.43E-03
76455,8.00E-03,6.45E-03
76456,8.00E-03,6.47E-03
76457,7.93E-03,6.49E-03
76458,7.85E-03,6.50E-03
76459,7.83E-03,6.52E-03
76460,7.86E-03,6.54E-03
76461,7.89E-03,6.56E-03
76462,7.73E-03,6.58E-03
76463,7.26E-03,6.58E-03
76464,5.74E-03,6.55E-03
76465,6.77E-03,6.49E-03
76466,6.22E-03,6.52E-03
76467,6.66E-03,6.49E-03
76468,7.33E-03,6.47E-03
76469,7.63E-03,6.46E-03
76470,7.90E-03,6.45E-03
76471,8.01E-03,6.44E-03
76472,8.01E-03,6.42E-03
76473,8.01E-03,6.41E-03
76474,8.00E-03,6.39E-03
76475,8.00E-03,6.37E-03
76476,8.00E-03,6.35E-03
76477,8.00E-03,6.33E-03
76478,8.00E-03,6.31E-03
76479,8.00E-03,6.29E-03
76480,8.00E-03,6.26E-03
76481,8.00E-03,6.24E-03
76482,8.00E-03,6.21E-03
76483,7.99E-03,6.19E-03
76484,7.99E-03,6.16E-03
76485,8.00E-03,6.13E-03
76486,8.00E-03,6.10E-03
76487,8.00E-03,6.08E-03
76488,8.00E-03,6.04E-03
76489,8.00E-03,6.01E-03
76490,8.00E-03,5.98E-03
76491,8.01E-03,5.94E-03
76492,8.01E-03,5.91E-03
76493,8.01E-03,5.87E-03
76494,8.02E-03,5.84E-03
76495,8.02E-03,5.80E-03
76496,8.03E-03,5.76E-03
76497,8.03E-03,5.72E-03
76498,8.04E-03,5.67E-03
76499,8.05E-03,5.63E-03
76500,8.05E-03,5.59E-03
76501,8.06E-03,5.54E-03
76502,8.07E-03,5.50E-03
76503,8.07E-03,5.45E-03
76504,8.08E-03,5.40E-03
76505,8.09E-03,5.35E-03
76506,8.10E-03,5.30E-03
76507,8.13E-03,5.25E-03
76508,8.19E-03,5.20E-03
76509,8.27E-03,5.14E-03
76510,8.33E-03,5.09E-03
76511,8.36E-03,5.03E-03
76512,8.39E-03,4.97E-03
76513,8.43E-03,4.91E-03
76514,8.54E-03,4.85E-03
76515,8.63E-03,4.78E-03
76516,8.78E-03,4.72E-03
76517,8.98E-03,4.65E-03
76518,9.22E-03,4.57E-03
76519,9.48E-03,4.50E-03
76520,9.77E-03,4.42E-03
76521,1.01E-02,4.33E-03
76522,1.03E-02,4.24E-03
76523,1.05E-02,4.14E-03
76524,1.09E-02,4.04E-03
76525,1.15E-02,3.92E-03
76526,1.15E-02,3.79E-03
76527,1.13E-02,3.69E-03
76528,1.07E-02,3.56E-03
76529,9.21E-03,3.40E-03
76530,7.31E-03,3.29E-03
76531,7.35E-03,3.21E-03
76532,6.67E-03,3.13E-03
76533,6.19E-03,6.77E-03
76534,6.17E-03,6.85E-03
76535,5.92E-03,6.93E-03
76536,5.70E-03,6.99E-03
76537,5.27E-03,7.05E-03
76538,5.19E-03,7.11E-03
76539,4.80E-03,7.17E-03
76540,4.38E-03,7.22E-03
76541,4.13E-03,7.27E-03
76542,3.36E-03,7.30E-03
76543,3.11E-03,7.34E-03
76544,3.16E-03,7.36E-03
76545,3.70E-03,7.40E-03
76546,4.18E-03,7.43E-03
76547,4.31E-03,7.47E-03
76548,4.66E-03,7.50E-03
76549,4.91E-03,7.54E-03
76550,5.15E-03,7.57E-03
76551,5.36E-03,7.60E-03
76552,5.44E-03,7.62E-03
76553,5.45E-03,7.65E-03
76554,5.62E-03,7.67E-03
76555,5.55E-03,7.69E-03
76556,5.48E-03,7.71E-03
76557,5.27E-03,7.73E-03
76558,5.06E-03,7.74E-03
76559,4.88E-03,7.75E-03
76560,4.52E-03,7.76E-03
76561,4.14E-03,7.76E-03
76562,4.19E-03,7.77E-03
76563,4.54E-03,7.77E-03
76564,4.92E-03,7.77E-03
76565,5.30E-03,7.76E-03
76566,5.59E-03,7.76E-03
76567,6.00E-03,7.75E-03
76568,6.24E-03,7.74E-03
76569,6.66E-03,7.72E-03
76570,7.05E-03,7.71E-03
76571,7.28E-03,7.69E-03
76572,7.42E-03,7.67E-03
76573,7.57E-03,7.64E-03
76574,7.65E-03,7.62E-03
76575,7.72E-03,7.60E-03
76576,7.78E-03,7.57E-03
76577,7.84E-03,7.54E-03
76578,7.88E-03,7.52E-03
76579,7.89E-03,7.49E-03
76580,7.90E-03,7.46E-03
76581,7.91E-03,7.43E-03
76582,7.92E-03,7.40E-03
76583,7.93E-03,7.37E-03
76584,7.94E-03,7.34E-03
76585,7.95E-03,7.31E-03
76586,7.95E-03,7.27E-03
76587,7.95E-03,7.24E-03
76588,7.95E-03,7.21E-03
76589,7.96E-03,7.18E-03
76590,7.96E-03,7.14E-03
76591,7.96E-03,7.11E-03
76592,7.96E-03,7.07E-03
76593,7.95E-03,7.04E-03
76594,7.94E-03,7.01E-03
76595,7.93E-03,6.97E-03
76596,7.92E-03,6.93E-03
76597,7.91E-03,6.90E-03
76598,7.90E-03,6.86E-03
76599,7.88E-03,6.83E-03
76600,7.87E-03,6.79E-03
76601,7.85E-03,6.76E-03
76602,7.83E-03,6.72E-03
76603,7.79E-03,6.68E-03
76604,7.74E-03,6.65E-03
76605,7.69E-03,6.61E-03
76606,7.63E-03,6.58E-03
76607,7.56E-03,6.54E-03
76608,7.42E-03,6.51E-03
76609,7.36E-03,6.47E-03
76610,7.23E-03,6.44E-03
76611,7.14E-03,6.41E-03
76612,6.95E-03,6.38E-03
76613,6.77E-03,6.34E-03
76614,6.70E-03,6.30E-03
76615,6.42E-03,6.27E-03
76616,6.27E-03,6.23E-03
76617,6.25E-03,6.20E-03
76618,5.99E-03,6.17E-03
76619,5.97E-03,6.12E-03
76620,8.01E-03,6.02E-03
76621,7.04E-03,6.53E-03
76622,7.37E-03,6.58E-03
76623,7.93E-03,6.63E-03
76624,5.94E-03,6.69E-03
76625,7.55E-03,6.41E-03
76626,7.55E-03,5.73E-03
76627,8.09E-03,5.56E-03
76628,8.32E-03,5.37E-03
76629,1.01E-02,5.16E-03
76630,1.01E-02,4.93E-03
76631,1.04E-02,4.70E-03
76632,1.07E-02,4.46E-03
76633,1.07E-02,4.24E-03
76634,1.01E-02,4.03E-03
76635,1.07E-02,3.83E-03
76636,8.02E-03,3.36E-03
76637,7.70E-03,3.09E-03
76638,9.05E-03,3.20E-03
76639,7.46E-03,2.98E-03
76640,7.97E-03,3.04E-03
76641,7.63E-03,2.92E-03
76642,7.49E-03,2.80E-03
76643,8.93E-03,5.86E-03
76644,8.73E-03,5.67E-03
76645,8.81E-03,5.46E-03
76646,9.83E-03,5.25E-03
76647,9.96E-03,5.01E-03
76648,1.00E-02,4.78E-03
76649,1.02E-02,4.55E-03
76650,1.02E-02,4.32E-03
76651,1.05E-02,4.10E-03
76652,1.18E-02,3.88E-03
76653,1.12E-02,3.66E-03
76654,9.65E-03,3.44E-03
76655,9.07E-03,3.25E-03
76656,8.65E-03,3.08E-03
76657,8.23E-03,6.19E-03
76658,6.66E-03,6.27E-03
76659,6.24E-03,6.35E-03
76660,6.34E-03,6.39E-03
76661,6.39E-03,6.43E-03
76662,6.48E-03,6.46E-03
76663,6.73E-03,6.50E-03
76664,6.90E-03,6.53E-03
76665,7.08E-03,6.56E-03
76666,7.21E-03,6.59E-03
76667,7.30E-03,6.62E-03
76668,7.44E-03,6.65E-03
76669,7.52E-03,6.68E-03
76670,7.60E-03,6.71E-03
76671,7.67E-03,6.74E-03
76672,7.72E-03,6.78E-03
76673,7.77E-03,6.81E-03
76674,7.81E-03,6.84E-03
76675,7.85E-03,6.88E-03
76676,7.87E-03,6.91E-03
76677,7.89E-03,6.94E-03
76678,7.90E-03,6.98E-03
76679,7.91E-03,7.01E-03
76680,7.92E-03,7.04E-03
76681,7.93E-03,7.08E-03
76682,7.94E-03,7.11E-03
76683,7.95E-03,7.14E-03
76684,7.96E-03,7.18E-03
76685,7.97E-03,7.21E-03
76686,7.97E-03,7.24E-03
76687,7.97E-03,7.27E-03
76688,7.96E-03,7.30E-03
76689,7.96E-03,7.34E-03
76690,7.96E-03,7.37E-03
76691,7.96E-03,7.40E-03
76692,7.96E-03,7.43E-03
76693,7.95E-03,7.46E-03
76694,7.94E-03,7.49E-03
76695,7.93E-03,7.52E-03
76696,7.92E-03,7.55E-03
76697,7.92E-03,7.58E-03
76698,7.91E-03,7.61E-03
76699,7.89E-03,7.63E-03
76700,7.86E-03,7.66E-03
76701,7.81E-03,7.69E-03
76702,7.75E-03,7.71E-03
76703,7.68E-03,7.73E-03
76704,7.61E-03,7.76E-03
76705,7.53E-03,7.78E-03
76706,7.39E-03,7.80E-03
76707,7.19E-03,7.82E-03
76708,6.85E-03,7.84E-03
76709,6.38E-03,7.85E-03
76710,6.02E-03,7.86E-03
76711,5.79E-03,7.87E-03
76712,5.52E-03,7.88E-03
76713,5.17E-03,7.88E-03
76714,4.82E-03,7.88E-03
76715,4.51E-03,7.88E-03
76716,4.46E-03,7.88E-03
76717,4.81E-03,7.87E-03
76718,5.14E-03,7.86E-03
76719,5.30E-03,7.85E-03
76720,5.49E-03,7.84E-03
76721,5.68E-03,7.82E-03
76722,5.80E-03,7.80E-03
76723,5.82E-03,7.78E-03
76724,5.70E-03,7.75E-03
76725,5.61E-03,7.73E-03
76726,5.47E-03,7.70E-03
76727,5.43E-03,7.67E-03
76728,5.30E-03,7.63E-03
76729,4.98E-03,7.60E-03
76730,4.81E-03,7.56E-03
76731,4.37E-03,7.52E-03
76732,4.16E-03,7.48E-03
76733,3.44E-03,7.45E-03
76734,3.47E-03,7.42E-03
76735,3.78E-03,7.38E-03
76736,4.50E-03,7.34E-03
76737,4.65E-03,7.29E-03
76738,5.12E-03,7.23E-03
76739,5.44E-03,7.17E-03
76740,5.58E-03,7.11E-03
76741,5.82E-03,7.04E-03
76742,6.15E-03,6.98E-03
76743,6.51E-03,6.90E-03
76744,6.65E-03,6.83E-03
76745,5.35E-03,6.76E-03
76746,6.02E-03,6.67E-03
76747,6.89E-03,6.43E-03
76748,7.30E-03,6.40E-03
76749,7.59E-03,6.38E-03
76750,7.72E-03,6.36E-03
76751,7.87E-03,6.35E-03
76752,8.01E-03,6.34E-03
76753,8.01E-03,6.32E-03
76754,8.01E-03,6.30E-03
76755,8.01E-03,6.29E-03
76756,8.01E-03,6.27E-03
76757,8.00E-03,6.25E-03
76758,8.00E-03,6.23E-03
76759,8.00E-03,6.21E-03
76760,8.00E-03,6.19E-03
76761,8.00E-03,6.16E-03
76762,8.00E-03,6.14E-03
76763,8.00E-03,6.12E-03
76764,8.00E-03,6.09E-03
76765,8.00E-03,6.06E-03
76766,8.00E-03,6.04E-03
76767,8.00E-03,6.01E-03
76768,8.00E-03,5.98E-03
76769,8.00E-03,5.95E-03
76770,8.00E-03,5.91E-03
76771,8.00E-03,5.88E-03
76772,8.01E-03,5.85E-03
76773,8.01E-03,5.81E-03
76774,8.02E-03,5.77E-03
76775,8.02E-03,5.74E-03
76776,8.02E-03,5.70E-03
76777,8.03E-03,5.66E-03
76778,8.03E-03,5.62E-03
76779,8.04E-03,5.57E-03
76780,8.05E-03,5.53E-03
76781,8.05E-03,5.49E-03
76782,8.06E-03,5.44E-03
76783,8.07E-03,5.39E-03
76784,8.07E-03,5.35E-03
76785,8.08E-03,5.30E-03
76786,8.08E-03,5.25E-03
76787,8.09E-03,5.20E-03
76788,8.12E-03,5.14E-03
76789,8.18E-03,5.09E-03
76790,8.25E-03,5.04E-03
76791,8.31E-03,4.98E-03
76792,8.34E-03,4.92E-03
76793,8.36E-03,4.86E-03
76794,8.40E-03,4.80E-03
76795,8.46E-03,4.74E-03
76796,8.56E-03,4.67E-03
76797,8.68E-03,4.60E-03
76798,8.88E-03,4.53E-03
76799,9.14E-03,4.46E-03
76800,9.39E-03,4.38E-03
76801,9.77E-03,4.30E-03
76802,1.01E-02,4.22E-03
76803,1.02E-02,4.12E-03
76804,1.04E-02,4.03E-03
76805,1.07E-02,3.92E-03
76806,1.10E-02,3.80E-03
76807,1.10E-02,3.68E-03
76808,1.09E-02,3.57E-03
76809,1.00E-02,3.45E-03
76810,9.61E-03,3.31E-03
76811,7.09E-03,3.19E-03
76812,7.09E-03,3.12E-03
76813,7.19E-03,3.05E-03
76814,7.01E-03,2.98E-03
76815,6.62E-03,2.90E-03
76816,6.46E-03,2.83E-03
76817,6.64E-03,2.74E-03
76818,7.40E-03,2.67E-03
76819,7.99E-03,2.59E-03
76820,8.28E-03,2.52E-03
76821,7.64E-03,6.45E-03
76822,7.91E-03,6.50E-03
76823,8.57E-03,6.55E-03
76824,8.21E-03,6.59E-03
76825,7.69E-03,6.34E-03
76826,7.87E-03,6.30E-03
76827,7.87E-03,6.28E-03
76828,7.91E-03,6.26E-03
76829,7.95E-03,6.25E-03
76830,8.01E-03,6.23E-03
76831,8.01E-03,6.22E-03
76832,8.01E-03,6.20E-03
76833,8.01E-03,6.19E-03
76834,8.01E-03,6.17E-03
76835,8.01E-03,6.15E-03
76836,8.01E-03,6.13E-03
76837,8.01E-03,6.11E-03
76838,8.00E-03,6.09E-03
76839,8.00E-03,6.07E-03
76840,8.00E-03,6.04E-03
76841,8.00E-03,6.02E-03
76842,8.00E-03,5.99E-03
76843,8.00E-03,5.97E-03
76844,8.00E-03,5.94E-03
76845,8.00E-03,5.91E-03
76846,8.00E-03,5.88E-03
76847,8.00E-03,5.85E-03
76848,8.01E-03,5.82E-03
76849,8.01E-03,5.78E-03
76850,8.01E-03,5.75E-03
76851,8.01E-03,5.71E-03
76852,8.02E-03,5.68E-03
76853,8.02E-03,5.64E-03
76854,8.03E-03,5.60E-03
76855,8.03E-03,5.56E-03
76856,8.04E-03,5.52E-03
76857,8.04E-03,5.48E-03
76858,8.05E-03,5.43E-03
76859,8.05E-03,5.39E-03
76860,8.06E-03,5.34E-03
76861,8.06E-03,5.30E-03
76862,8.07E-03,5.25E-03
76863,8.07E-03,5.20E-03
76864,8.08E-03,5.15E-03
76865,8.09E-03,5.10E-03
76866,8.11E-03,5.04E-03
76867,8.17E-03,4.99E-03
76868,8.23E-03,4.93E-03
76869,8.28E-03,4.88E-03
76870,8.31E-03,4.82E-03
76871,8.33E-03,4.76E-03
76872,8.36E-03,4.69E-03
76873,8.43E-03,4.63E-03
76874,8.51E-03,4.57E-03
76875,8.62E-03,4.50E-03
76876,8.81E-03,4.43E-03
76877,9.05E-03,4.35E-03
76878,9.27E-03,4.28E-03
76879,9.64E-03,4.20E-03
76880,9.83E-03,4.11E-03
76881,9.98E-03,4.02E-03
76882,1.03E-02,3.92E-03
76883,1.05E-02,3.81E-03
76884,1.06E-02,3.69E-03
76885,1.05E-02,3.58E-03
76886,1.06E-02,3.46E-03
76887,9.43E-03,3.34E-03
76888,9.51E-03,3.23E-03
76889,7.18E-03,3.12E-03
76890,7.07E-03,3.04E-03
76891,7.08E-03,2.96E-03
76892,6.96E-03,2.89E-03
76893,6.99E-03,2.82E-03
76894,7.06E-03,2.75E-03
76895,7.10E-03,2.66E-03
76896,7.41E-03,2.57E-03
76897,7.67E-03,2.49E-03
76898,7.75E-03,2.42E-03
76899,8.24E-03,2.45E-03
76900,7.36E-03,2.35E-03
76901,6.25E-03,2.33E-03
76902,6.22E-03,2.28E-03
76903,6.76E-03,2.24E-03
76904,9.88E-03,2.21E-03
76905,8.36E-03,2.11E-03
76906,7.27E-03,6.63E-03
76907,6.82E-03,6.70E-03
76908,6.80E-03,6.79E-03
76909,6.53E-03,6.88E-03
76910,6.48E-03,6.95E-03
76911,6.35E-03,7.03E-03
76912,6.11E-03,7.10E-03
76913,5.85E-03,7.17E-03
76914,5.68E-03,7.24E-03
76915,5.28E-03,7.30E-03
76916,5.13E-03,7.36E-03
76917,4.60E-03,7.41E-03
76918,4.15E-03,7.46E-03
76919,3.87E-03,7.49E-03
76920,3.85E-03,7.53E-03
76921,4.31E-03,7.57E-03
76922,4.53E-03,7.61E-03
76923,5.00E-03,7.65E-03
76924,5.24E-03,7.69E-03
76925,5.51E-03,7.73E-03
76926,5.62E-03,7.77E-03
76927,5.75E-03,7.80E-03
76928,5.87E-03,7.83E-03
76929,5.97E-03,7.86E-03
76930,6.01E-03,7.89E-03
76931,6.00E-03,7.91E-03
76932,5.89E-03,7.93E-03
76933,5.72E-03,7.95E-03
76934,5.55E-03,7.96E-03
76935,5.39E-03,7.98E-03
76936,5.09E-03,7.99E-03
76937,4.77E-03,7.99E-03
76938,4.82E-03,8.00E-03
76939,5.10E-03,8.00E-03
76940,5.43E-03,8.00E-03
76941,5.74E-03,7.99E-03
76942,5.99E-03,7.99E-03
76943,6.20E-03,7.98E-03
76944,6.53E-03,7.97E-03
76945,6.95E-03,7.95E-03
76946,7.27E-03,7.93E-03
76947,7.45E-03,7.92E-03
76948,7.57E-03,7.89E-03
76949,7.65E-03,7.87E-03
76950,7.72E-03,7.85E-03
76951,7.78E-03,7.83E-03
76952,7.83E-03,7.80E-03
76953,7.88E-03,7.78E-03
76954,7.91E-03,7.75E-03
76955,7.92E-03,7.72E-03
76956,7.93E-03,7.70E-03
76957,7.94E-03,7.67E-03
76958,7.95E-03,7.64E-03
76959,7.95E-03,7.61E-03
76960,7.96E-03,7.58E-03
76961,7.97E-03,7.55E-03
76962,7.97E-03,7.53E-03
76963,7.97E-03,7.50E-03
76964,7.97E-03,7.47E-03
76965,7.97E-03,7.43E-03
76966,7.98E-03,7.40E-03
76967,7.98E-03,7.37E-03
76968,7.98E-03,7.34E-03
76969,7.97E-03,7.31E-03
76970,7.96E-03,7.28E-03
76971,7.96E-03,7.25E-03
76972,7.95E-03,7.22E-03
76973,7.94E-03,7.19E-03
76974,7.93E-03,7.16E-03
76975,7.91E-03,7.13E-03
76976,7.90E-03,7.10E-03
76977,7.89E-03,7.06E-03
76978,7.87E-03,7.03E-03
76979,7.84E-03,7.00E-03
76980,7.79E-03,6.97E-03
76981,7.75E-03,6.94E-03
76982,7.70E-03,6.92E-03
76983,7.64E-03,6.89E-03
76984,7.57E-03,6.86E-03
76985,7.50E-03,6.83E-03
76986,7.41E-03,6.80E-03
76987,7.32E-03,6.78E-03
76988,7.22E-03,6.75E-03
76989,7.04E-03,6.72E-03
76990,6.79E-03,6.69E-03
76991,6.57E-03,6.66E-03
76992,6.50E-03,6.63E-03
76993,6.52E-03,6.59E-03
76994,6.70E-03,6.54E-03
76995,6.89E-03,6.48E-03
76996,6.81E-03,6.43E-03
76997,8.24E-03,6.36E-03
76998,8.07E-03,6.42E-03
76999,7.96E-03,6.46E-03
77000,7.93E-03,6.50E-03
77001,7.79E-03,6.54E-03
77002,8.41E-03,6.21E-03
77003,9.63E-03,6.00E-03
77004,9.07E-03,5.77E-03
77005,9.09E-03,5.55E-03
77006,9.41E-03,5.33E-03
77007,9.76E-03,5.10E-03
77008,9.82E-03,4.86E-03
77009,9.98E-03,4.63E-03
77010,1.01E-02,4.41E-03
77011,1.05E-02,4.18E-03
77012,1.07E-02,3.96E-03
77013,1.04E-02,3.74E-03
77014,9.97E-03,3.52E-03
77015,9.68E-03,3.31E-03
77016,9.73E-03,3.13E-03
77017,1.09E-02,2.94E-03
77018,9.32E-03,2.41E-03
77019,1.03E-02,2.31E-03
77020,8.78E-03,2.17E-03
77021,8.52E-03,6.24E-03
77022,8.29E-03,6.20E-03
77023,8.21E-03,6.18E-03
77024,8.12E-03,6.16E-03
77025,8.08E-03,6.15E-03
77026,8.02E-03,6.13E-03
77027,8.02E-03,6.12E-03
77028,8.01E-03,6.11E-03
77029,8.01E-03,6.09E-03
77030,8.01E-03,6.07E-03
77031,8.01E-03,6.05E-03
77032,8.01E-03,6.04E-03
77033,8.01E-03,6.01E-03
77034,8.01E-03,5.99E-03
77035,8.01E-03,5.97E-03
77036,8.01E-03,5.95E-03
77037,8.01E-03,5.92E-03
77038,8.01E-03,5.90E-03
77039,8.01E-03,5.87E-03
77040,8.01E-03,5.84E-03
77041,8.01E-03,5.82E-03
77042,8.01E-03,5.79E-03
77043,8.01E-03,5.75E-03
77044,8.01E-03,5.72E-03
77045,8.01E-03,5.69E-03
77046,8.01E-03,5.66E-03
77047,8.02E-03,5.62E-03
77048,8.02E-03,5.58E-03
77049,8.02E-03,5.54E-03
77050,8.03E-03,5.51E-03
77051,8.03E-03,5.47E-03
77052,8.04E-03,5.42E-03
77053,8.04E-03,5.38E-03
77054,8.05E-03,5.34E-03
77055,8.05E-03,5.29E-03
77056,8.06E-03,5.25E-03
77057,8.06E-03,5.20E-03
77058,8.07E-03,5.15E-03
77059,8.07E-03,5.10E-03
77060,8.08E-03,5.05E-03
77061,8.08E-03,5.00E-03
77062,8.11E-03,4.94E-03
77063,8.15E-03,4.89E-03
77064,8.21E-03,4.83E-03
77065,8.26E-03,4.78E-03
77066,8.29E-03,4.72E-03
77067,8.31E-03,4.66E-03
77068,8.33E-03,4.59E-03
77069,8.39E-03,4.53E-03
77070,8.47E-03,4.46E-03
77071,8.57E-03,4.40E-03
77072,8.73E-03,4.33E-03
77073,8.95E-03,4.25E-03
77074,9.16E-03,4.17E-03
77075,9.48E-03,4.09E-03
77076,9.59E-03,4.01E-03
77077,9.80E-03,3.92E-03
77078,1.01E-02,3.82E-03
77079,1.01E-02,3.71E-03
77080,1.05E-02,3.60E-03
77081,1.03E-02,3.49E-03
77082,1.02E-02,3.37E-03
77083,9.48E-03,3.25E-03
77084,8.87E-03,3.15E-03
77085,7.41E-03,3.05E-03
77086,7.07E-03,2.97E-03
77087,7.02E-03,2.89E-03
77088,7.02E-03,2.81E-03
77089,7.10E-03,2.74E-03
77090,7.21E-03,2.66E-03
77091,7.39E-03,2.58E-03
77092,7.52E-03,2.49E-03
77093,7.70E-03,2.42E-03
77094,7.61E-03,2.34E-03
77095,7.35E-03,2.28E-03
77096,7.46E-03,2.24E-03
77097,7.26E-03,2.17E-03
77098,7.78E-03,2.10E-03
77099,7.96E-03,2.04E-03
77100,7.40E-03,1.97E-03
77101,6.58E-03,6.70E-03
77102,6.89E-03,6.73E-03
77103,6.89E-03,6.76E-03
77104,6.76E-03,6.80E-03
77105,6.67E-03,6.84E-03
77106,6.72E-03,6.87E-03
77107,6.91E-03,6.89E-03
77108,7.14E-03,6.92E-03
77109,7.30E-03,6.94E-03
77110,7.39E-03,6.97E-03
77111,7.48E-03,6.99E-03
77112,7.55E-03,7.01E-03
77113,7.62E-03,7.04E-03
77114,7.68E-03,7.06E-03
77115,7.74E-03,7.09E-03
77116,7.78E-03,7.11E-03
77117,7.82E-03,7.14E-03
77118,7.86E-03,7.17E-03
77119,7.89E-03,7.19E-03
77120,7.91E-03,7.22E-03
77121,7.92E-03,7.25E-03
77122,7.93E-03,7.28E-03
77123,7.94E-03,7.31E-03
77124,7.95E-03,7.33E-03
77125,7.96E-03,7.36E-03
77126,7.97E-03,7.39E-03
77127,7.98E-03,7.42E-03
77128,7.98E-03,7.45E-03
77129,7.99E-03,7.48E-03
77130,7.99E-03,7.51E-03
77131,7.99E-03,7.54E-03
77132,7.98E-03,7.57E-03
77133,7.98E-03,7.59E-03
77134,7.98E-03,7.62E-03
77135,7.98E-03,7.65E-03
77136,7.98E-03,7.68E-03
77137,7.97E-03,7.71E-03
77138,7.97E-03,7.74E-03
77139,7.96E-03,7.76E-03
77140,7.95E-03,7.79E-03
77141,7.94E-03,7.82E-03
77142,7.94E-03,7.84E-03
77143,7.93E-03,7.87E-03
77144,7.90E-03,7.89E-03
77145,7.85E-03,7.92E-03
77146,7.81E-03,7.94E-03
77147,7.75E-03,7.97E-03
77148,7.69E-03,7.99E-03
77149,7.62E-03,8.01E-03
77150,7.51E-03,8.03E-03
77151,7.34E-03,8.05E-03
77152,7.06E-03,8.07E-03
77153,6.68E-03,8.08E-03
77154,6.38E-03,8.09E-03
77155,6.19E-03,8.10E-03
77156,5.97E-03,8.11E-03
77157,5.68E-03,8.11E-03
77158,5.39E-03,8.11E-03
77159,5.13E-03,8.11E-03
77160,5.09E-03,8.11E-03
77161,5.38E-03,8.10E-03
77162,5.65E-03,8.09E-03
77163,5.79E-03,8.08E-03
77164,5.94E-03,8.06E-03
77165,6.09E-03,8.04E-03
77166,6.20E-03,8.02E-03
77167,6.21E-03,8.00E-03
77168,6.17E-03,7.97E-03
77169,6.08E-03,7.94E-03
77170,6.00E-03,7.90E-03
77171,5.90E-03,7.86E-03
77172,5.80E-03,7.82E-03
77173,5.66E-03,7.78E-03
77174,5.30E-03,7.74E-03
77175,4.96E-03,7.70E-03
77176,4.56E-03,7.66E-03
77177,4.25E-03,7.62E-03
77178,4.28E-03,7.57E-03
77179,4.52E-03,7.53E-03
77180,4.81E-03,7.48E-03
77181,5.32E-03,7.43E-03
77182,5.53E-03,7.36E-03
77183,5.89E-03,7.30E-03
77184,6.04E-03,7.23E-03
77185,6.35E-03,7.15E-03
77186,6.55E-03,7.08E-03
77187,6.65E-03,7.00E-03
77188,6.91E-03,6.92E-03
77189,7.02E-03,6.83E-03
77190,7.11E-03,6.75E-03
77191,7.37E-03,6.66E-03
77192,7.51E-03,6.58E-03
77193,7.68E-03,6.63E-03
77194,8.41E-03,6.28E-03
77195,8.01E-03,6.33E-03
77196,7.91E-03,6.37E-03
77197,7.83E-03,6.42E-03
77198,7.71E-03,6.46E-03
77199,7.73E-03,6.49E-03
77200,7.75E-03,6.32E-03
77201,8.74E-03,6.12E-03
77202,9.08E-03,5.89E-03
77203,9.07E-03,5.66E-03
77204,9.28E-03,5.43E-03
77205,9.58E-03,5.20E-03
77206,9.71E-03,4.96E-03
77207,9.80E-03,4.73E-03
77208,9.89E-03,4.50E-03
77209,9.98E-03,4.27E-03
77210,1.01E-02,4.05E-03
77211,1.01E-02,3.83E-03
77212,1.00E-02,3.61E-03
77213,1.01E-02,3.39E-03
77214,1.05E-02,3.19E-03
77215,1.22E-02,2.99E-03
77216,1.19E-02,2.80E-03
77217,1.01E-02,2.62E-03
77218,9.65E-03,2.48E-03
77219,9.25E-03,2.37E-03
77220,8.75E-03,2.24E-03
77221,8.08E-03,2.13E-03
77222,7.40E-03,2.03E-03
77223,7.09E-03,1.95E-03
77224,6.96E-03,1.86E-03
77225,8.09E-03,1.75E-03
77226,8.29E-03,1.71E-03
77227,9.08E-03,1.65E-03
77228,9.29E-03,1.61E-03
77229,7.60E-03,1.65E-03
77230,7.46E-03,1.68E-03
77231,7.42E-03,1.74E-03
77232,7.07E-03,1.79E-03
77233,6.99E-03,1.83E-03
77234,7.15E-03,1.87E-03
77235,7.43E-03,1.93E-03
77236,7.60E-03,1.99E-03
77237,7.61E-03,2.04E-03
77238,7.48E-03,2.11E-03
77239,7.56E-03,2.18E-03
77240,7.50E-03,2.24E-03
77241,7.50E-03,2.30E-03
77242,7.61E-03,2.36E-03
77243,7.56E-03,2.44E-03
77244,7.46E-03,2.52E-03
77245,7.35E-03,2.59E-03
77246,7.24E-03,2.67E-03
77247,7.12E-03,2.75E-03
77248,7.05E-03,2.82E-03
77249,7.13E-03,2.90E-03
77250,7.67E-03,2.98E-03
77251,8.36E-03,3.07E-03
77252,9.42E-03,3.18E-03
77253,9.92E-03,3.29E-03
77254,1.01E-02,3.40E-03
77255,1.03E-02,3.52E-03
77256,9.98E-03,3.62E-03
77257,9.80E-03,3.72E-03
77258,9.57E-03,3.82E-03
77259,9.39E-03,3.91E-03
77260,9.26E-03,4.00E-03
77261,9.04E-03,4.08E-03
77262,8.85E-03,4.15E-03
77263,8.66E-03,4.23E-03
77264,8.51E-03,4.30E-03
77265,8.42E-03,4.37E-03
77266,8.35E-03,4.43E-03
77267,8.30E-03,4.50E-03
77268,8.28E-03,4.56E-03
77269,8.26E-03,4.62E-03
77270,8.24E-03,4.68E-03
77271,8.20E-03,4.74E-03
77272,8.14E-03,4.79E-03
77273,8.10E-03,4.85E-03
77274,8.08E-03,4.90E-03
77275,8.07E-03,4.96E-03
77276,8.07E-03,5.01E-03
77277,8.06E-03,5.06E-03
77278,8.06E-03,5.11E-03
77279,8.05E-03,5.15E-03
77280,8.05E-03,5.20E-03
77281,8.05E-03,5.24E-03
77282,8.04E-03,5.29E-03
77283,8.04E-03,5.33E-03
77284,8.03E-03,5.37E-03
77285,8.03E-03,5.41E-03
77286,8.03E-03,5.45E-03
77287,8.02E-03,5.49E-03
77288,8.02E-03,5.53E-03
77289,8.02E-03,5.56E-03
77290,8.01E-03,5.60E-03
77291,8.01E-03,5.63E-03
77292,8.01E-03,5.66E-03
77293,8.01E-03,5.69E-03
77294,8.01E-03,5.72E-03
77295,8.01E-03,5.75E-03
77296,8.01E-03,5.78E-03
77297,8.01E-03,5.80E-03
77298,8.01E-03,5.83E-03
77299,8.01E-03,5.85E-03
77300,8.01E-03,5.88E-03
77301,8.01E-03,5.90E-03
77302,8.01E-03,5.92E-03
77303,8.01E-03,5.94E-03
77304,8.01E-03,5.96E-03
77305,8.02E-03,5.98E-03
77306,8.02E-03,5.99E-03
77307,8.02E-03,6.01E-03
77308,8.02E-03,6.02E-03
77309,8.02E-03,6.04E-03
77310,8.14E-03,6.05E-03
77311,8.20E-03,6.06E-03
77312,8.29E-03,6.08E-03
77313,8.48E-03,6.10E-03
77314,8.91E-03,6.13E-03
77315,1.01E-02,6.17E-03
77316,7.73E-03,6.84E-03
77317,6.97E-03,6.95E-03
77318,6.99E-03,6.97E-03
77319,7.07E-03,6.99E-03
77320,6.90E-03,7.02E-03
77321,6.82E-03,7.05E-03
77322,6.86E-03,7.07E-03
77323,7.03E-03,7.10E-03
77324,7.24E-03,7.12E-03
77325,7.38E-03,7.14E-03
77326,7.47E-03,7.16E-03
77327,7.54E-03,7.18E-03
77328,7.61E-03,7.20E-03
77329,7.67E-03,7.22E-03
77330,7.72E-03,7.24E-03
77331,7.78E-03,7.26E-03
77332,7.81E-03,7.29E-03
77333,7.85E-03,7.31E-03
77334,7.88E-03,7.33E-03
77335,7.91E-03,7.36E-03
77336,7.92E-03,7.38E-03
77337,7.94E-03,7.41E-03
77338,7.95E-03,7.43E-03
77339,7.96E-03,7.46E-03
77340,7.96E-03,7.48E-03
77341,7.97E-03,7.51E-03
77342,7.98E-03,7.54E-03
77343,7.99E-03,7.56E-03
77344,7.99E-03,7.59E-03
77345,8.00E-03,7.62E-03
77346,8.00E-03,7.64E-03
77347,8.00E-03,7.67E-03
77348,7.99E-03,7.70E-03
77349,7.99E-03,7.73E-03
77350,7.99E-03,7.75E-03
77351,7.99E-03,7.78E-03
77352,7.99E-03,7.81E-03
77353,7.98E-03,7.83E-03
77354,7.98E-03,7.86E-03
77355,7.97E-03,7.89E-03
77356,7.96E-03,7.91E-03
77357,7.96E-03,7.94E-03
77358,7.95E-03,7.96E-03
77359,7.94E-03,7.99E-03
77360,7.92E-03,8.01E-03
77361,7.88E-03,8.04E-03
77362,7.83E-03,8.06E-03
77363,7.79E-03,8.08E-03
77364,7.73E-03,8.10E-03
77365,7.67E-03,8.13E-03
77366,7.57E-03,8.15E-03
77367,7.42E-03,8.16E-03
77368,7.17E-03,8.18E-03
77369,6.82E-03,8.20E-03
77370,6.56E-03,8.21E-03
77371,6.39E-03,8.22E-03
77372,6.19E-03,8.22E-03
77373,5.93E-03,8.23E-03
77374,5.67E-03,8.23E-03
77375,5.44E-03,8.23E-03
77376,5.41E-03,8.22E-03
77377,5.66E-03,8.21E-03
77378,5.90E-03,8.20E-03
77379,6.03E-03,8.19E-03
77380,6.17E-03,8.17E-03
77381,6.30E-03,8.15E-03
77382,6.39E-03,8.13E-03
77383,6.41E-03,8.10E-03
77384,6.37E-03,8.07E-03
77385,6.35E-03,8.04E-03
77386,6.28E-03,8.01E-03
77387,6.21E-03,7.97E-03
77388,6.10E-03,7.92E-03
77389,5.88E-03,7.88E-03
77390,5.59E-03,7.84E-03
77391,5.29E-03,7.79E-03
77392,4.93E-03,7.75E-03
77393,4.66E-03,7.70E-03
77394,4.68E-03,7.66E-03
77395,4.90E-03,7.61E-03
77396,5.15E-03,7.55E-03
77397,5.43E-03,7.50E-03
77398,5.95E-03,7.43E-03
77399,6.15E-03,7.36E-03
77400,6.28E-03,7.29E-03
77401,6.60E-03,7.21E-03
77402,6.77E-03,7.13E-03
77403,6.91E-03,7.05E-03
77404,7.08E-03,6.96E-03
77405,7.13E-03,6.87E-03
77406,7.21E-03,6.78E-03
77407,7.29E-03,6.70E-03
77408,7.46E-03,6.61E-03
77409,7.56E-03,6.53E-03
77410,8.38E-03,6.44E-03
77411,8.69E-03,6.24E-03
77412,8.91E-03,6.02E-03
77413,9.07E-03,5.78E-03
77414,9.26E-03,5.54E-03
77415,9.47E-03,5.30E-03
77416,9.54E-03,5.07E-03
77417,9.61E-03,4.83E-03
77418,9.69E-03,4.60E-03
77419,9.78E-03,4.37E-03
77420,9.86E-03,4.15E-03
77421,9.89E-03,3.92E-03
77422,9.95E-03,3.70E-03
77423,1.02E-02,3.49E-03
77424,1.06E-02,3.28E-03
77425,1.07E-02,3.08E-03
77426,1.07E-02,2.91E-03
77427,1.02E-02,2.72E-03
77428,9.67E-03,2.57E-03
77429,9.23E-03,2.43E-03
77430,8.74E-03,2.31E-03
77431,8.47E-03,2.19E-03
77432,8.18E-03,2.08E-03
77433,8.06E-03,1.98E-03
77434,8.13E-03,1.88E-03
77435,9.34E-03,1.78E-03
77436,9.75E-03,1.71E-03
77437,9.50E-03,1.62E-03
77438,9.45E-03,1.55E-03
77439,9.58E-03,1.54E-03
77440,8.54E-03,1.50E-03
77441,8.65E-03,1.49E-03
77442,7.81E-03,1.43E-03
77443,7.97E-03,1.44E-03
77444,6.01E-03,1.41E-03
77445,6.97E-03,1.37E-03
77446,6.95E-03,1.37E-03
77447,9.25E-03,1.32E-03
77448,8.37E-03,1.26E-03
77449,8.03E-03,1.19E-03
77450,7.70E-03,1.12E-03
77451,7.16E-03,1.05E-03
77452,8.01E-03,6.20E-03
77453,7.97E-03,6.24E-03
77454,7.92E-03,6.29E-03
77455,7.86E-03,6.33E-03
77456,7.81E-03,6.37E-03
77457,7.69E-03,6.41E-03
77458,7.52E-03,6.44E-03
77459,6.86E-03,9.91E-04
77460,6.30E-03,9.32E-04
77461,7.24E-03,1.02E-03
77462,7.61E-03,1.10E-03
77463,7.98E-03,1.17E-03
77464,8.52E-03,1.24E-03
77465,9.31E-03,1.32E-03
77466,9.24E-03,1.38E-03
77467,8.37E-03,1.45E-03
77468,8.65E-03,1.51E-03
77469,8.92E-03,1.58E-03
77470,9.11E-03,1.65E-03
77471,9.10E-03,1.74E-03
77472,9.01E-03,1.81E-03
77473,8.79E-03,1.92E-03
77474,8.27E-03,2.03E-03
77475,8.32E-03,2.14E-03
77476,8.55E-03,2.26E-03
77477,8.86E-03,2.38E-03
77478,9.18E-03,2.52E-03
77479,9.51E-03,2.66E-03
77480,9.92E-03,2.83E-03
77481,1.02E-02,3.01E-03
77482,1.03E-02,3.19E-03
77483,1.01E-02,3.39E-03
77484,1.00E-02,3.60E-03
77485,9.83E-03,3.81E-03
77486,9.71E-03,4.03E-03
77487,9.65E-03,4.26E-03
77488,9.57E-03,4.48E-03
77489,9.50E-03,4.72E-03
77490,9.43E-03,4.95E-03
77491,9.36E-03,5.19E-03
77492,9.30E-03,5.42E-03
77493,9.15E-03,5.66E-03
77494,9.03E-03,5.90E-03
77495,8.91E-03,6.14E-03
77496,8.87E-03,6.36E-03
77497,9.08E-03,6.59E-03
77498,7.58E-03,6.47E-03
77499,7.53E-03,6.56E-03
77500,7.50E-03,6.64E-03
77501,7.44E-03,6.73E-03
77502,7.34E-03,6.82E-03
77503,7.24E-03,6.91E-03
77504,7.20E-03,7.00E-03
77505,7.11E-03,7.09E-03
77506,6.98E-03,7.18E-03
77507,6.84E-03,7.26E-03
77508,6.58E-03,7.34E-03
77509,6.29E-03,7.42E-03
77510,6.09E-03,7.49E-03
77511,5.74E-03,7.56E-03
77512,5.49E-03,7.63E-03
77513,5.27E-03,7.68E-03
77514,5.08E-03,7.74E-03
77515,5.06E-03,7.79E-03
77516,5.30E-03,7.84E-03
77517,5.61E-03,7.89E-03
77518,5.89E-03,7.93E-03
77519,6.13E-03,7.98E-03
77520,6.33E-03,8.03E-03
77521,6.43E-03,8.07E-03
77522,6.49E-03,8.11E-03
77523,6.55E-03,8.15E-03
77524,6.57E-03,8.18E-03
77525,6.60E-03,8.21E-03
77526,6.59E-03,8.24E-03
77527,6.51E-03,8.27E-03
77528,6.39E-03,8.29E-03
77529,6.27E-03,8.30E-03
77530,6.16E-03,8.32E-03
77531,5.94E-03,8.33E-03
77532,5.72E-03,8.34E-03
77533,5.75E-03,8.34E-03
77534,5.95E-03,8.34E-03
77535,6.18E-03,8.34E-03
77536,6.41E-03,8.34E-03
77537,6.59E-03,8.33E-03
77538,6.74E-03,8.32E-03
77539,6.97E-03,8.31E-03
77540,7.27E-03,8.30E-03
77541,7.50E-03,8.28E-03
77542,7.63E-03,8.26E-03
77543,7.72E-03,8.24E-03
77544,7.77E-03,8.22E-03
77545,7.82E-03,8.20E-03
77546,7.86E-03,8.18E-03
77547,7.90E-03,8.15E-03
77548,7.94E-03,8.13E-03
77549,7.96E-03,8.11E-03
77550,7.97E-03,8.08E-03
77551,7.97E-03,8.06E-03
77552,7.98E-03,8.03E-03
77553,7.98E-03,8.01E-03
77554,7.99E-03,7.98E-03
77555,7.99E-03,7.96E-03
77556,8.00E-03,7.93E-03
77557,8.00E-03,7.91E-03
77558,8.00E-03,7.88E-03
77559,8.00E-03,7.86E-03
77560,8.00E-03,7.83E-03
77561,8.01E-03,7.81E-03
77562,8.01E-03,7.78E-03
77563,8.01E-03,7.76E-03
77564,8.00E-03,7.73E-03
77565,8.00E-03,7.71E-03
77566,7.99E-03,7.68E-03
77567,7.98E-03,7.66E-03
77568,7.98E-03,7.63E-03
77569,7.97E-03,7.61E-03
77570,7.96E-03,7.59E-03
77571,7.95E-03,7.56E-03
77572,7.94E-03,7.54E-03
77573,7.93E-03,7.52E-03
77574,7.91E-03,7.50E-03
77575,7.88E-03,7.48E-03
77576,7.85E-03,7.46E-03
77577,7.81E-03,7.44E-03
77578,7.77E-03,7.42E-03
77579,7.71E-03,7.40E-03
77580,7.66E-03,7.39E-03
77581,7.60E-03,7.37E-03
77582,7.54E-03,7.35E-03
77583,7.46E-03,7.34E-03
77584,7.34E-03,7.32E-03
77585,7.16E-03,7.30E-03
77586,7.00E-03,7.28E-03
77587,6.97E-03,7.26E-03
77588,7.04E-03,7.24E-03
77589,7.27E-03,7.22E-03
77590,7.28E-03,7.20E-03
77591,7.24E-03,7.17E-03
77592,1.05E-02,7.05E-03
77593,7.75E-03,6.05E-03
77594,8.08E-03,6.10E-03
77595,8.03E-03,6.15E-03
77596,8.02E-03,6.19E-03
77597,8.00E-03,6.24E-03
77598,7.97E-03,6.28E-03
77599,7.92E-03,6.32E-03
77600,7.86E-03,6.35E-03
77601,7.79E-03,6.38E-03
77602,7.04E-03,9.47E-04
77603,7.09E-03,1.02E-03
77604,7.28E-03,1.08E-03
77605,7.56E-03,1.14E-03
77606,7.87E-03,1.21E-03
77607,8.15E-03,1.27E-03
77608,7.92E-03,1.32E-03
77609,7.70E-03,1.36E-03
77610,7.75E-03,1.43E-03
77611,7.79E-03,1.46E-03
77612,8.40E-03,1.50E-03
77613,8.64E-03,1.54E-03
77614,8.43E-03,1.59E-03
77615,8.10E-03,1.63E-03
77616,7.71E-03,1.67E-03
77617,7.52E-03,1.72E-03
77618,7.28E-03,1.77E-03
77619,7.20E-03,1.81E-03
77620,7.27E-03,1.86E-03
77621,7.42E-03,1.90E-03
77622,7.55E-03,1.95E-03
77623,7.60E-03,2.01E-03
77624,7.58E-03,2.07E-03
77625,7.62E-03,2.13E-03
77626,7.58E-03,2.20E-03
77627,7.63E-03,2.26E-03
77628,7.66E-03,2.32E-03
77629,7.61E-03,2.39E-03
77630,7.53E-03,2.46E-03
77631,7.43E-03,2.54E-03
77632,7.33E-03,2.61E-03
77633,7.23E-03,2.69E-03
77634,7.11E-03,2.77E-03
77635,7.19E-03,2.84E-03
77636,7.69E-03,2.93E-03
77637,8.29E-03,3.01E-03
77638,9.20E-03,3.11E-03
77639,9.79E-03,3.22E-03
77640,9.99E-03,3.33E-03
77641,1.00E-02,3.44E-03
77642,9.90E-03,3.54E-03
77643,9.64E-03,3.64E-03
77644,9.38E-03,3.73E-03
77645,9.20E-03,3.82E-03
77646,9.06E-03,3.91E-03
77647,8.92E-03,3.99E-03
77648,8.76E-03,4.06E-03
77649,8.59E-03,4.14E-03
77650,8.46E-03,4.21E-03
77651,8.38E-03,4.27E-03
77652,8.32E-03,4.34E-03
77653,8.27E-03,4.40E-03
77654,8.25E-03,4.47E-03
77655,8.23E-03,4.53E-03
77656,8.21E-03,4.59E-03
77657,8.18E-03,4.65E-03
77658,8.13E-03,4.70E-03
77659,8.09E-03,4.76E-03
77660,8.07E-03,4.81E-03
77661,8.07E-03,4.86E-03
77662,8.07E-03,4.92E-03
77663,8.06E-03,4.97E-03
77664,8.06E-03,5.01E-03
77665,8.05E-03,5.06E-03
77666,8.05E-03,5.11E-03
77667,8.04E-03,5.15E-03
77668,8.04E-03,5.20E-03
77669,8.04E-03,5.24E-03
77670,8.03E-03,5.28E-03
77671,8.03E-03,5.32E-03
77672,8.03E-03,5.36E-03
77673,8.02E-03,5.40E-03
77674,8.02E-03,5.44E-03
77675,8.02E-03,5.47E-03
77676,8.02E-03,5.51E-03
77677,8.02E-03,5.54E-03
77678,8.02E-03,5.57E-03
77679,8.01E-03,5.60E-03
77680,8.01E-03,5.63E-03
77681,8.01E-03,5.66E-03
77682,8.01E-03,5.69E-03
77683,8.01E-03,5.71E-03
77684,8.01E-03,5.74E-03
77685,8.01E-03,5.76E-03
77686,8.01E-03,5.78E-03
77687,8.01E-03,5.81E-03
77688,8.02E-03,5.83E-03
77689,8.02E-03,5.84E-03
77690,8.02E-03,5.86E-03
77691,8.02E-03,5.88E-03
77692,8.02E-03,5.90E-03
77693,8.02E-03,5.91E-03
77694,8.02E-03,5.92E-03
77695,8.02E-03,5.94E-03
77696,8.13E-03,5.95E-03
77697,8.28E-03,5.97E-03
77698,8.36E-03,5.98E-03
77699,8.59E-03,6.00E-03
77700,9.04E-03,6.03E-03
77701,1.01E-02,6.05E-03
77702,8.79E-03,6.04E-03
77703,8.64E-03,7.33E-04
77704,8.38E-03,8.10E-04
77705,7.41E-03,9.10E-04
77706,7.38E-03,9.97E-04
77707,7.74E-03,1.08E-03
77708,8.00E-03,1.16E-03
77709,8.36E-03,1.24E-03
77710,8.55E-03,1.32E-03
77711,8.64E-03,1.38E-03
77712,8.58E-03,1.46E-03
77713,8.60E-03,1.54E-03
77714,8.69E-03,1.62E-03
77715,8.90E-03,1.70E-03
77716,8.86E-03,1.78E-03
77717,8.82E-03,1.88E-03
77718,8.54E-03,1.98E-03
77719,8.57E-03,2.09E-03
77720,8.61E-03,2.21E-03
77721,8.72E-03,2.34E-03
77722,8.83E-03,2.47E-03
77723,9.15E-03,2.61E-03
77724,9.40E-03,2.77E-03
77725,9.53E-03,2.94E-03
77726,9.65E-03,3.12E-03
77727,9.62E-03,3.31E-03
77728,9.59E-03,3.51E-03
77729,9.64E-03,3.72E-03
77730,9.53E-03,3.93E-03
77731,9.49E-03,4.15E-03
77732,9.43E-03,4.38E-03
77733,9.37E-03,4.61E-03
77734,9.30E-03,4.84E-03
77735,9.24E-03,5.08E-03
77736,9.18E-03,5.31E-03
77737,9.13E-03,5.55E-03
77738,9.08E-03,5.79E-03
77739,9.02E-03,6.03E-03
77740,8.95E-03,6.26E-03
77741,9.04E-03,6.50E-03
77742,9.36E-03,6.72E-03
77743,1.04E-02,7.27E-03
77744,7.63E-03,7.37E-03
77745,7.51E-03,7.42E-03
77746,7.44E-03,7.45E-03
77747,7.18E-03,7.46E-03
77748,7.12E-03,7.48E-03
77749,7.15E-03,7.50E-03
77750,7.28E-03,7.51E-03
77751,7.44E-03,7.52E-03
77752,7.55E-03,7.53E-03
77753,7.61E-03,7.55E-03
77754,7.67E-03,7.56E-03
77755,7.72E-03,7.57E-03
77756,7.76E-03,7.59E-03
77757,7.81E-03,7.60E-03
77758,7.85E-03,7.62E-03
77759,7.88E-03,7.63E-03
77760,7.90E-03,7.65E-03
77761,7.93E-03,7.67E-03
77762,7.95E-03,7.68E-03
77763,7.96E-03,7.70E-03
77764,7.97E-03,7.72E-03
77765,7.98E-03,7.74E-03
77766,7.98E-03,7.76E-03
77767,7.99E-03,7.78E-03
77768,8.00E-03,7.80E-03
77769,8.00E-03,7.83E-03
77770,8.01E-03,7.85E-03
77771,8.01E-03,7.87E-03
77772,8.02E-03,7.89E-03
77773,8.02E-03,7.92E-03
77774,8.02E-03,7.94E-03
77775,8.01E-03,7.97E-03
77776,8.01E-03,7.99E-03
77777,8.01E-03,8.01E-03
77778,8.01E-03,8.04E-03
77779,8.01E-03,8.06E-03
77780,8.01E-03,8.09E-03
77781,8.00E-03,8.11E-03
77782,8.00E-03,8.13E-03
77783,7.99E-03,8.16E-03
77784,7.99E-03,8.18E-03
77785,7.98E-03,8.20E-03
77786,7.97E-03,8.23E-03
77787,7.95E-03,8.25E-03
77788,7.92E-03,8.27E-03
77789,7.89E-03,8.30E-03
77790,7.85E-03,8.32E-03
77791,7.82E-03,8.34E-03
77792,7.77E-03,8.36E-03
77793,7.69E-03,8.38E-03
77794,7.58E-03,8.40E-03
77795,7.38E-03,8.41E-03
77796,7.12E-03,8.43E-03
77797,6.92E-03,8.44E-03
77798,6.78E-03,8.45E-03
77799,6.63E-03,8.45E-03
77800,6.44E-03,8.46E-03
77801,6.24E-03,8.46E-03
77802,6.06E-03,8.46E-03
77803,6.04E-03,8.45E-03
77804,6.23E-03,8.44E-03
77805,6.41E-03,8.43E-03
77806,6.51E-03,8.42E-03
77807,6.61E-03,8.40E-03
77808,6.72E-03,8.38E-03
77809,6.79E-03,8.35E-03
77810,6.80E-03,8.32E-03
77811,6.77E-03,8.29E-03
77812,6.75E-03,8.26E-03
77813,6.70E-03,8.22E-03
77814,6.65E-03,8.18E-03
77815,6.56E-03,8.13E-03
77816,6.39E-03,8.08E-03
77817,6.18E-03,8.03E-03
77818,5.94E-03,7.98E-03
77819,5.67E-03,7.93E-03
77820,5.47E-03,7.88E-03
77821,5.48E-03,7.82E-03
77822,5.65E-03,7.76E-03
77823,5.84E-03,7.70E-03
77824,6.05E-03,7.63E-03
77825,6.29E-03,7.56E-03
77826,6.58E-03,7.48E-03
77827,6.84E-03,7.40E-03
77828,7.01E-03,7.31E-03
77829,7.13E-03,7.22E-03
77830,7.24E-03,7.13E-03
77831,7.32E-03,7.04E-03
77832,7.35E-03,6.95E-03
77833,7.37E-03,6.86E-03
77834,7.43E-03,6.77E-03
77835,7.52E-03,6.67E-03
77836,7.51E-03,6.58E-03
77837,7.48E-03,6.50E-03
77838,7.55E-03,6.41E-03
77839,7.62E-03,8.04E-04
77840,7.52E-03,8.69E-04
77841,7.29E-03,9.59E-04
77842,7.34E-03,1.04E-03
77843,7.38E-03,1.11E-03
77844,7.54E-03,1.17E-03
77845,7.77E-03,1.23E-03
77846,7.86E-03,1.28E-03
77847,7.85E-03,1.33E-03
77848,7.90E-03,1.38E-03
77849,7.94E-03,1.43E-03
77850,8.06E-03,1.48E-03
77851,8.24E-03,1.51E-03
77852,8.36E-03,1.55E-03
77853,8.31E-03,1.59E-03
77854,8.08E-03,1.63E-03
77855,7.82E-03,1.67E-03
77856,7.60E-03,1.71E-03
77857,7.46E-03,1.75E-03
77858,7.45E-03,1.80E-03
77859,7.47E-03,1.84E-03
77860,7.54E-03,1.89E-03
77861,7.62E-03,1.94E-03
77862,7.66E-03,1.99E-03
77863,7.69E-03,2.04E-03
77864,7.72E-03,2.10E-03
77865,7.77E-03,2.16E-03
77866,7.74E-03,2.23E-03
77867,7.71E-03,2.29E-03
77868,7.67E-03,2.36E-03
77869,7.60E-03,2.42E-03
77870,7.51E-03,2.50E-03
77871,7.43E-03,2.57E-03
77872,7.34E-03,2.64E-03
77873,7.23E-03,2.72E-03
77874,7.31E-03,2.79E-03
77875,7.62E-03,2.87E-03
77876,8.22E-03,2.96E-03
77877,9.12E-03,3.05E-03
77878,9.65E-03,3.16E-03
77879,9.73E-03,3.26E-03
77880,9.76E-03,3.37E-03
77881,9.65E-03,3.47E-03
77882,9.43E-03,3.56E-03
77883,9.20E-03,3.65E-03
77884,9.05E-03,3.74E-03
77885,8.93E-03,3.82E-03
77886,8.80E-03,3.90E-03
77887,8.66E-03,3.98E-03
77888,8.51E-03,4.05E-03
77889,8.40E-03,4.12E-03
77890,8.33E-03,4.19E-03
77891,8.28E-03,4.25E-03
77892,8.24E-03,4.32E-03
77893,8.22E-03,4.38E-03
77894,8.21E-03,4.44E-03
77895,8.19E-03,4.50E-03
77896,8.16E-03,4.56E-03
77897,8.12E-03,4.61E-03
77898,8.08E-03,4.67E-03
77899,8.07E-03,4.72E-03
77900,8.07E-03,4.78E-03
77901,8.06E-03,4.83E-03
77902,8.06E-03,4.88E-03
77903,8.05E-03,4.93E-03
77904,8.05E-03,4.97E-03
77905,8.05E-03,5.02E-03
77906,8.04E-03,5.07E-03
77907,8.04E-03,5.11E-03
77908,8.04E-03,5.15E-03
77909,8.03E-03,5.19E-03
77910,8.03E-03,5.23E-03
77911,8.03E-03,5.27E-03
77912,8.03E-03,5.31E-03
77913,8.02E-03,5.35E-03
77914,8.02E-03,5.38E-03
77915,8.02E-03,5.42E-03
77916,8.02E-03,5.45E-03
77917,8.02E-03,5.48E-03
77918,8.02E-03,5.51E-03
77919,8.02E-03,5.54E-03
77920,8.02E-03,5.57E-03
77921,8.02E-03,5.60E-03
77922,8.02E-03,5.62E-03
77923,8.02E-03,5.65E-03
77924,8.02E-03,5.67E-03
77925,8.02E-03,5.69E-03
77926,8.02E-03,5.71E-03
77927,8.02E-03,5.73E-03
77928,8.02E-03,5.75E-03
77929,8.02E-03,5.77E-03
77930,8.02E-03,5.78E-03
77931,8.02E-03,5.80E-03
77932,8.02E-03,5.81E-03
77933,8.02E-03,5.83E-03
77934,8.02E-03,5.84E-03
77935,8.08E-03,5.85E-03
77936,8.24E-03,5.87E-03
77937,8.36E-03,5.88E-03
77938,8.44E-03,5.90E-03
77939,8.70E-03,5.91E-03
77940,8.35E-03,5.90E-03
77941,7.17E-03,5.90E-03
77942,7.55E-03,6.59E-04
77943,8.06E-03,6.82E-04
77944,8.45E-03,6.92E-04
77945,7.01E-03,5.95E-03
77946,7.74E-03,6.00E-03
77947,8.00E-03,6.05E-03
77948,8.06E-03,6.10E-03
77949,7.99E-03,6.14E-03
77950,7.90E-03,6.18E-03
77951,7.81E-03,6.22E-03
77952,7.70E-03,6.26E-03
77953,7.60E-03,6.29E-03
77954,7.50E-03,6.32E-03
77955,7.47E-03,7.17E-04
77956,7.48E-03,7.55E-03
77957,6.99E-03,7.67E-03
77958,8.31E-03,7.52E-03
77959,8.60E-03,7.55E-03
77960,7.99E-03,7.59E-03
77961,7.71E-03,7.64E-03
77962,7.60E-03,7.67E-03
77963,7.32E-03,7.69E-03
77964,7.26E-03,7.70E-03
77965,7.29E-03,7.71E-03
77966,7.40E-03,7.72E-03
77967,7.54E-03,7.73E-03
77968,7.63E-03,7.74E-03
77969,7.68E-03,7.74E-03
77970,7.73E-03,7.75E-03
77971,7.77E-03,7.76E-03
77972,7.81E-03,7.77E-03
77973,7.85E-03,7.78E-03
77974,7.88E-03,7.79E-03
77975,7.91E-03,7.81E-03
77976,7.93E-03,7.82E-03
77977,7.95E-03,7.83E-03
77978,7.97E-03,7.85E-03
77979,7.98E-03,7.86E-03
77980,7.99E-03,7.88E-03
77981,7.99E-03,7.90E-03
77982,8.00E-03,7.92E-03
77983,8.00E-03,7.93E-03
77984,8.01E-03,7.95E-03
77985,8.01E-03,7.97E-03
77986,8.02E-03,7.99E-03
77987,8.02E-03,8.01E-03
77988,8.03E-03,8.03E-03
77989,8.03E-03,8.06E-03
77990,8.02E-03,8.08E-03
77991,8.02E-03,8.10E-03
77992,8.02E-03,8.12E-03
77993,8.02E-03,8.14E-03
77994,8.02E-03,8.17E-03
77995,8.02E-03,8.19E-03
77996,8.02E-03,8.21E-03
77997,8.01E-03,8.23E-03
77998,8.01E-03,8.26E-03
77999,8.00E-03,8.28E-03
78000,8.00E-03,8.30E-03
78001,8.00E-03,8.33E-03
78002,7.99E-03,8.35E-03
78003,7.97E-03,8.37E-03
78004,7.95E-03,8.39E-03
78005,7.92E-03,8.41E-03
78006,7.89E-03,8.43E-03
78007,7.86E-03,8.45E-03
78008,7.81E-03,8.47E-03
78009,7.75E-03,8.49E-03
78010,7.65E-03,8.51E-03
78011,7.49E-03,8.53E-03
78012,7.27E-03,8.54E-03
78013,7.10E-03,8.55E-03
78014,6.98E-03,8.56E-03
78015,6.85E-03,8.57E-03
78016,6.69E-03,8.57E-03
78017,6.52E-03,8.57E-03
78018,6.37E-03,8.57E-03
78019,6.35E-03,8.57E-03
78020,6.51E-03,8.56E-03
78021,6.67E-03,8.55E-03
78022,6.75E-03,8.53E-03
78023,6.84E-03,8.51E-03
78024,6.93E-03,8.49E-03
78025,6.99E-03,8.47E-03
78026,7.00E-03,8.44E-03
78027,6.97E-03,8.40E-03
78028,6.96E-03,8.37E-03
78029,6.91E-03,8.33E-03
78030,6.87E-03,8.28E-03
78031,6.79E-03,8.24E-03
78032,6.65E-03,8.19E-03
78033,6.47E-03,8.13E-03
78034,6.27E-03,8.08E-03
78035,6.04E-03,8.02E-03
78036,5.87E-03,7.96E-03
78037,5.88E-03,7.90E-03
78038,6.02E-03,7.84E-03
78039,6.18E-03,7.77E-03
78040,6.36E-03,7.70E-03
78041,6.57E-03,7.62E-03
78042,6.81E-03,7.54E-03
78043,7.03E-03,7.45E-03
78044,7.17E-03,7.36E-03
78045,7.28E-03,7.27E-03
78046,7.37E-03,7.17E-03
78047,7.43E-03,7.08E-03
78048,7.46E-03,6.98E-03
78049,7.48E-03,6.89E-03
78050,7.50E-03,6.80E-03
78051,7.51E-03,6.70E-03
78052,7.48E-03,6.61E-03
78053,7.50E-03,6.52E-03
78054,7.46E-03,6.43E-03
78055,7.36E-03,6.34E-03
78056,6.62E-03,6.94E-04
78057,6.68E-03,7.77E-04
78058,6.83E-03,8.46E-04
78059,7.44E-03,9.07E-04
78060,7.37E-03,9.82E-04
78061,7.40E-03,1.06E-03
78062,7.50E-03,1.13E-03
78063,7.63E-03,1.19E-03
78064,7.75E-03,1.25E-03
78065,7.85E-03,1.30E-03
78066,7.93E-03,1.35E-03
78067,7.99E-03,1.40E-03
78068,8.04E-03,1.44E-03
78069,8.11E-03,1.49E-03
78070,8.16E-03,1.53E-03
78071,8.21E-03,1.56E-03
78072,8.19E-03,1.60E-03
78073,8.15E-03,1.63E-03
78074,7.97E-03,1.67E-03
78075,7.87E-03,1.71E-03
78076,7.75E-03,1.75E-03
78077,7.65E-03,1.79E-03
78078,7.65E-03,1.84E-03
78079,7.69E-03,1.88E-03
78080,7.74E-03,1.93E-03
78081,7.80E-03,1.98E-03
78082,7.85E-03,2.03E-03
78083,7.83E-03,2.08E-03
78084,7.81E-03,2.14E-03
78085,7.79E-03,2.20E-03
78086,7.76E-03,2.27E-03
78087,7.73E-03,2.33E-03
78088,7.67E-03,2.39E-03
78089,7.59E-03,2.46E-03
78090,7.52E-03,2.53E-03
78091,7.44E-03,2.60E-03
78092,7.36E-03,2.68E-03
78093,7.42E-03,2.75E-03
78094,7.68E-03,2.83E-03
78095,8.19E-03,2.91E-03
78096,8.96E-03,3.01E-03
78097,9.40E-03,3.11E-03
78098,9.47E-03,3.21E-03
78099,9.50E-03,3.30E-03
78100,9.41E-03,3.40E-03
78101,9.21E-03,3.49E-03
78102,9.03E-03,3.58E-03
78103,8.89E-03,3.66E-03
78104,8.79E-03,3.74E-03
78105,8.69E-03,3.82E-03
78106,8.57E-03,3.90E-03
78107,8.44E-03,3.97E-03
78108,8.35E-03,4.04E-03
78109,8.29E-03,4.10E-03
78110,8.24E-03,4.17E-03
78111,8.21E-03,4.23E-03
78112,8.19E-03,4.30E-03
78113,8.18E-03,4.36E-03
78114,8.17E-03,4.42E-03
78115,8.14E-03,4.47E-03
78116,8.11E-03,4.53E-03
78117,8.08E-03,4.59E-03
78118,8.07E-03,4.64E-03
78119,8.06E-03,4.69E-03
78120,8.06E-03,4.74E-03
78121,8.06E-03,4.79E-03
78122,8.05E-03,4.84E-03
78123,8.05E-03,4.89E-03
78124,8.05E-03,4.94E-03
78125,8.04E-03,4.98E-03
78126,8.04E-03,5.02E-03
78127,8.04E-03,5.07E-03
78128,8.04E-03,5.11E-03
78129,8.03E-03,5.15E-03
78130,8.03E-03,5.19E-03
78131,8.03E-03,5.23E-03
78132,8.03E-03,5.26E-03
78133,8.03E-03,5.30E-03
78134,8.02E-03,5.33E-03
78135,8.02E-03,5.36E-03
78136,8.02E-03,5.39E-03
78137,8.02E-03,5.42E-03
78138,8.02E-03,5.45E-03
78139,8.02E-03,5.48E-03
78140,8.02E-03,5.51E-03
78141,8.02E-03,5.53E-03
78142,8.02E-03,5.56E-03
78143,8.02E-03,5.58E-03
78144,8.02E-03,5.60E-03
78145,8.02E-03,5.62E-03
78146,8.02E-03,5.64E-03
78147,8.02E-03,5.66E-03
78148,8.02E-03,5.68E-03
78149,8.02E-03,5.69E-03
78150,8.02E-03,5.71E-03
78151,8.03E-03,5.72E-03
78152,8.03E-03,5.73E-03
78153,8.03E-03,5.74E-03
78154,8.03E-03,5.76E-03
78155,8.12E-03,5.77E-03
78156,8.25E-03,5.78E-03
78157,8.29E-03,5.79E-03
78158,8.17E-03,5.79E-03
78159,7.69E-03,5.79E-03
78160,7.14E-03,5.80E-03
78161,6.89E-03,5.81E-03
78162,7.10E-03,5.84E-03
78163,7.51E-03,5.86E-03
78164,7.82E-03,5.90E-03
78165,7.93E-03,5.95E-03
78166,8.01E-03,6.00E-03
78167,8.03E-03,6.05E-03
78168,7.93E-03,6.09E-03
78169,7.86E-03,6.13E-03
78170,7.76E-03,6.17E-03
78171,7.66E-03,6.20E-03
78172,7.53E-03,6.23E-03
78173,7.32E-03,6.25E-03
78174,8.57E-03,7.33E-03
78175,9.10E-03,7.12E-03
78176,9.12E-03,6.87E-03
78177,8.95E-03,6.63E-03
78178,8.88E-03,6.40E-03
78179,8.87E-03,6.17E-03
78180,8.92E-03,5.93E-03
78181,8.96E-03,5.69E-03
78182,9.01E-03,5.45E-03
78183,9.06E-03,5.21E-03
78184,9.11E-03,4.98E-03
78185,9.16E-03,4.74E-03
78186,9.22E-03,4.51E-03
78187,9.26E-03,4.29E-03
78188,9.30E-03,4.07E-03
78189,9.33E-03,3.85E-03
78190,9.35E-03,3.64E-03
78191,9.38E-03,3.44E-03
78192,9.40E-03,3.25E-03
78193,9.34E-03,3.07E-03
78194,9.26E-03,2.89E-03
78195,9.20E-03,2.73E-03
78196,8.91E-03,2.58E-03
78197,8.84E-03,2.44E-03
78198,8.77E-03,2.31E-03
78199,8.83E-03,2.18E-03
78200,8.84E-03,2.06E-03
78201,8.79E-03,1.95E-03
78202,8.71E-03,1.85E-03
78203,8.68E-03,1.76E-03
78204,8.56E-03,1.67E-03
78205,8.51E-03,1.58E-03
78206,8.45E-03,1.49E-03
78207,8.48E-03,1.41E-03
78208,8.42E-03,1.32E-03
78209,8.31E-03,1.24E-03
78210,8.10E-03,1.15E-03
78211,7.88E-03,1.06E-03
78212,7.72E-03,9.72E-04
78213,7.93E-03,8.71E-04
78214,8.14E-03,7.59E-04
78215,8.04E-03,6.82E-04
78216,7.56E-03,6.08E-04
78217,5.67E-03,5.77E-04
78218,7.22E-03,5.94E-04
78219,7.74E-03,6.01E-04
78220,7.66E-03,6.15E-04
78221,7.12E-03,6.28E-04
78222,7.21E-03,6.25E-04
78223,7.12E-03,5.34E-04
78224,7.60E-03,5.48E-04
78225,7.89E-03,6.26E-04
78226,7.95E-03,7.24E-04
78227,8.10E-03,8.34E-04
78228,8.15E-03,9.48E-04
78229,8.10E-03,1.06E-03
78230,8.17E-03,1.16E-03
78231,8.25E-03,1.26E-03
78232,8.35E-03,1.35E-03
78233,8.39E-03,1.45E-03
78234,8.44E-03,1.54E-03
78235,8.49E-03,1.64E-03
78236,8.53E-03,1.74E-03
78237,8.57E-03,1.84E-03
78238,8.61E-03,1.94E-03
78239,8.65E-03,2.05E-03
78240,8.69E-03,2.17E-03
78241,8.75E-03,2.29E-03
78242,8.83E-03,2.42E-03
78243,8.83E-03,2.56E-03
78244,8.91E-03,2.70E-03
78245,9.08E-03,2.86E-03
78246,9.14E-03,3.03E-03
78247,9.16E-03,3.21E-03
78248,9.16E-03,3.39E-03
78249,9.13E-03,3.59E-03
78250,9.11E-03,3.79E-03
78251,9.09E-03,4.00E-03
78252,9.07E-03,4.21E-03
78253,9.04E-03,4.44E-03
78254,9.00E-03,4.66E-03
78255,8.96E-03,4.89E-03
78256,8.91E-03,5.13E-03
78257,8.87E-03,5.36E-03
78258,8.83E-03,5.60E-03
78259,8.80E-03,5.84E-03
78260,8.76E-03,6.08E-03
78261,8.72E-03,6.31E-03
78262,8.74E-03,6.55E-03
78263,8.75E-03,6.79E-03
78264,8.70E-03,7.03E-03
78265,8.38E-03,7.26E-03
78266,7.76E-03,7.47E-03
78267,7.58E-03,7.82E-03
78268,7.93E-03,7.84E-03
78269,7.87E-03,7.86E-03
78270,7.79E-03,7.88E-03
78271,7.68E-03,7.90E-03
78272,7.45E-03,7.91E-03
78273,7.41E-03,7.92E-03
78274,7.43E-03,7.93E-03
78275,7.52E-03,7.93E-03
78276,7.63E-03,7.93E-03
78277,7.71E-03,7.94E-03
78278,7.75E-03,7.94E-03
78279,7.79E-03,7.95E-03
78280,7.83E-03,7.95E-03
78281,7.86E-03,7.96E-03
78282,7.89E-03,7.97E-03
78283,7.92E-03,7.97E-03
78284,7.94E-03,7.98E-03
78285,7.96E-03,7.99E-03
78286,7.97E-03,8.00E-03
78287,7.99E-03,8.01E-03
78288,8.00E-03,8.03E-03
78289,8.00E-03,8.04E-03
78290,8.01E-03,8.06E-03
78291,8.01E-03,8.07E-03
78292,8.02E-03,8.09E-03
78293,8.02E-03,8.10E-03
78294,8.03E-03,8.12E-03
78295,8.03E-03,8.14E-03
78296,8.03E-03,8.16E-03
78297,8.04E-03,8.17E-03
78298,8.04E-03,8.19E-03
78299,8.03E-03,8.21E-03
78300,8.03E-03,8.23E-03
78301,8.03E-03,8.25E-03
78302,8.03E-03,8.27E-03
78303,8.03E-03,8.30E-03
78304,8.03E-03,8.32E-03
78305,8.03E-03,8.34E-03
78306,8.02E-03,8.36E-03
78307,8.02E-03,8.38E-03
78308,8.02E-03,8.40E-03
78309,8.01E-03,8.42E-03
78310,8.01E-03,8.45E-03
78311,8.01E-03,8.47E-03
78312,7.99E-03,8.49E-03
78313,7.97E-03,8.51E-03
78314,7.95E-03,8.53E-03
78315,7.92E-03,8.55E-03
78316,7.90E-03,8.57E-03
78317,7.86E-03,8.59E-03
78318,7.81E-03,8.61E-03
78319,7.73E-03,8.63E-03
78320,7.59E-03,8.64E-03
78321,7.41E-03,8.66E-03
78322,7.27E-03,8.67E-03
78323,7.18E-03,8.68E-03
78324,7.08E-03,8.68E-03
78325,6.94E-03,8.69E-03
78326,6.80E-03,8.69E-03
78327,6.68E-03,8.69E-03
78328,6.67E-03,8.68E-03
78329,6.80E-03,8.67E-03
78330,6.92E-03,8.66E-03
78331,6.99E-03,8.65E-03
78332,7.06E-03,8.63E-03
78333,7.14E-03,8.60E-03
78334,7.18E-03,8.58E-03
78335,7.19E-03,8.55E-03
78336,7.17E-03,8.51E-03
78337,7.16E-03,8.48E-03
78338,7.12E-03,8.44E-03
78339,7.09E-03,8.39E-03
78340,7.03E-03,8.34E-03
78341,6.91E-03,8.29E-03
78342,6.76E-03,8.24E-03
78343,6.60E-03,8.18E-03
78344,6.41E-03,8.12E-03
78345,6.27E-03,8.05E-03
78346,6.28E-03,7.99E-03
78347,6.39E-03,7.92E-03
78348,6.53E-03,7.84E-03
78349,6.68E-03,7.77E-03
78350,6.84E-03,7.68E-03
78351,7.04E-03,7.59E-03
78352,7.22E-03,7.50E-03
78353,7.34E-03,7.41E-03
78354,7.42E-03,7.31E-03
78355,7.50E-03,7.21E-03
78356,7.55E-03,7.12E-03
78357,7.58E-03,7.02E-03
78358,7.59E-03,6.92E-03
78359,7.60E-03,6.82E-03
78360,7.61E-03,6.73E-03
78361,7.57E-03,6.63E-03
78362,7.51E-03,6.54E-03
78363,7.38E-03,6.44E-03
78364,7.30E-03,6.35E-03
78365,6.97E-03,6.27E-03
78366,6.86E-03,5.22E-04
78367,7.31E-03,5.30E-04
78368,7.56E-03,5.44E-04
78369,7.46E-03,5.62E-04
78370,7.35E-03,5.71E-04
78371,7.19E-03,5.77E-04
78372,7.38E-03,5.69E-04
78373,7.84E-03,6.39E-04
78374,7.25E-03,7.14E-04
78375,7.26E-03,7.89E-04
78376,7.23E-03,8.70E-04
78377,7.37E-03,9.44E-04
78378,7.48E-03,1.01E-03
78379,7.57E-03,1.09E-03
78380,7.62E-03,1.15E-03
78381,7.76E-03,1.22E-03
78382,7.83E-03,1.27E-03
78383,7.90E-03,1.33E-03
78384,7.97E-03,1.37E-03
78385,8.04E-03,1.42E-03
78386,8.04E-03,1.46E-03
78387,8.05E-03,1.51E-03
78388,8.12E-03,1.54E-03
78389,8.13E-03,1.58E-03
78390,8.11E-03,1.61E-03
78391,8.09E-03,1.65E-03
78392,7.99E-03,1.68E-03
78393,7.96E-03,1.72E-03
78394,7.94E-03,1.76E-03
78395,7.94E-03,1.80E-03
78396,7.94E-03,1.84E-03
78397,7.93E-03,1.88E-03
78398,7.92E-03,1.93E-03
78399,7.91E-03,1.97E-03
78400,7.89E-03,2.02E-03
78401,7.87E-03,2.08E-03
78402,7.85E-03,2.13E-03
78403,7.83E-03,2.19E-03
78404,7.81E-03,2.25E-03
78405,7.78E-03,2.31E-03
78406,7.73E-03,2.37E-03
78407,7.67E-03,2.44E-03
78408,7.61E-03,2.51E-03
78409,7.55E-03,2.57E-03
78410,7.48E-03,2.65E-03
78411,7.53E-03,2.72E-03
78412,7.75E-03,2.80E-03
78413,8.16E-03,2.88E-03
78414,8.79E-03,2.97E-03
78415,9.16E-03,3.06E-03
78416,9.21E-03,3.15E-03
78417,9.23E-03,3.25E-03
78418,9.16E-03,3.34E-03
78419,9.00E-03,3.43E-03
78420,8.85E-03,3.51E-03
78421,8.74E-03,3.59E-03
78422,8.65E-03,3.67E-03
78423,8.57E-03,3.75E-03
78424,8.47E-03,3.82E-03
78425,8.37E-03,3.89E-03
78426,8.29E-03,3.96E-03
78427,8.24E-03,4.03E-03
78428,8.21E-03,4.09E-03
78429,8.18E-03,4.15E-03
78430,8.17E-03,4.22E-03
78431,8.16E-03,4.28E-03
78432,8.14E-03,4.34E-03
78433,8.12E-03,4.39E-03
78434,8.09E-03,4.45E-03
78435,8.07E-03,4.50E-03
78436,8.06E-03,4.56E-03
78437,8.06E-03,4.61E-03
78438,8.06E-03,4.66E-03
78439,8.05E-03,4.71E-03
78440,8.05E-03,4.76E-03
78441,8.05E-03,4.81E-03
78442,8.05E-03,4.85E-03
78443,8.04E-03,4.90E-03
78444,8.04E-03,4.94E-03
78445,8.04E-03,4.98E-03
78446,8.04E-03,5.03E-03
78447,8.03E-03,5.06E-03
78448,8.03E-03,5.10E-03
78449,8.03E-03,5.14E-03
78450,8.03E-03,5.18E-03
78451,8.03E-03,5.21E-03
78452,8.03E-03,5.25E-03
78453,8.03E-03,5.28E-03
78454,8.03E-03,5.31E-03
78455,8.02E-03,5.34E-03
78456,8.02E-03,5.37E-03
78457,8.02E-03,5.39E-03
78458,8.02E-03,5.42E-03
78459,8.02E-03,5.45E-03
78460,8.02E-03,5.47E-03
78461,8.02E-03,5.49E-03
78462,8.02E-03,5.51E-03
78463,8.03E-03,5.53E-03
78464,8.03E-03,5.55E-03
78465,8.03E-03,5.57E-03
78466,8.03E-03,5.58E-03
78467,8.03E-03,5.60E-03
78468,8.03E-03,5.61E-03
78469,8.03E-03,5.63E-03
78470,8.03E-03,5.64E-03
78471,8.03E-03,5.65E-03
78472,8.03E-03,5.66E-03
78473,8.03E-03,5.67E-03
78474,8.09E-03,5.68E-03
78475,8.01E-03,5.68E-03
78476,7.90E-03,5.69E-03
78477,7.48E-03,5.69E-03
78478,7.24E-03,5.70E-03
78479,7.96E-03,5.72E-03
78480,8.92E-03,5.74E-03
78481,8.05E-03,5.77E-03
78482,7.91E-03,5.82E-03
78483,7.97E-03,5.86E-03
78484,8.08E-03,5.91E-03
78485,8.08E-03,5.95E-03
78486,8.00E-03,6.00E-03
78487,7.88E-03,6.04E-03
78488,7.82E-03,6.07E-03
78489,7.70E-03,6.10E-03
78490,7.59E-03,6.13E-03
78491,7.32E-03,6.15E-03
78492,9.06E-03,4.46E-04
78493,7.00E-03,6.18E-03
78494,6.62E-03,6.09E-03
78495,7.17E-03,6.07E-03
78496,7.47E-03,6.05E-03
78497,7.62E-03,6.03E-03
78498,7.74E-03,6.01E-03
78499,7.87E-03,5.98E-03
78500,7.94E-03,5.94E-03
78501,8.09E-03,5.90E-03
78502,8.08E-03,5.86E-03
78503,8.08E-03,5.82E-03
78504,8.03E-03,5.77E-03
78505,8.05E-03,5.73E-03
78506,8.08E-03,5.69E-03
78507,9.05E-03,5.64E-03
78508,6.41E-03,5.61E-03
78509,6.31E-03,5.57E-03
78510,7.99E-03,4.94E-04
78511,8.03E-03,5.74E-04
78512,8.10E-03,6.86E-04
78513,8.23E-03,8.10E-04
78514,8.19E-03,9.36E-04
78515,8.14E-03,1.06E-03
78516,8.17E-03,1.18E-03
78517,8.26E-03,1.29E-03
78518,8.28E-03,1.40E-03
78519,8.31E-03,1.51E-03
78520,8.35E-03,1.61E-03
78521,8.39E-03,1.72E-03
78522,8.42E-03,1.83E-03
78523,8.45E-03,1.94E-03
78524,8.49E-03,2.05E-03
78525,8.52E-03,2.17E-03
78526,8.55E-03,2.29E-03
78527,8.59E-03,2.42E-03
78528,8.65E-03,2.56E-03
78529,8.72E-03,2.70E-03
78530,8.79E-03,2.85E-03
78531,8.85E-03,3.01E-03
78532,8.89E-03,3.18E-03
78533,8.91E-03,3.36E-03
78534,8.91E-03,3.55E-03
78535,8.89E-03,3.75E-03
78536,8.87E-03,3.95E-03
78537,8.86E-03,4.16E-03
78538,8.84E-03,4.38E-03
78539,8.82E-03,4.60E-03
78540,8.79E-03,4.83E-03
78541,8.75E-03,5.06E-03
78542,8.72E-03,5.29E-03
78543,8.68E-03,5.53E-03
78544,8.65E-03,5.76E-03
78545,8.63E-03,6.00E-03
78546,8.60E-03,6.24E-03
78547,8.57E-03,6.48E-03
78548,8.52E-03,6.72E-03
78549,8.51E-03,6.96E-03
78550,8.31E-03,7.20E-03
78551,8.01E-03,7.43E-03
78552,7.54E-03,7.64E-03
78553,6.59E-03,7.85E-03
78554,7.32E-03,5.61E-03
78555,7.51E-03,5.60E-03
78556,7.90E-03,5.59E-03
78557,7.91E-03,5.58E-03
78558,8.03E-03,5.58E-03
78559,8.03E-03,5.57E-03
78560,8.03E-03,5.56E-03
78561,8.03E-03,5.56E-03
78562,8.03E-03,5.55E-03
78563,8.03E-03,5.53E-03
78564,8.03E-03,5.52E-03
78565,8.03E-03,5.51E-03
78566,8.03E-03,5.49E-03
78567,8.03E-03,5.48E-03
78568,8.03E-03,5.46E-03
78569,8.03E-03,5.44E-03
78570,8.03E-03,5.42E-03
78571,8.03E-03,5.40E-03
78572,8.03E-03,5.38E-03
78573,8.03E-03,5.36E-03
78574,8.03E-03,5.33E-03
78575,8.03E-03,5.31E-03
78576,8.03E-03,5.28E-03
78577,8.03E-03,5.25E-03
78578,8.03E-03,5.22E-03
78579,8.03E-03,5.19E-03
78580,8.03E-03,5.16E-03
78581,8.03E-03,5.13E-03
78582,8.03E-03,5.09E-03
78583,8.03E-03,5.06E-03
78584,8.03E-03,5.02E-03
78585,8.04E-03,4.98E-03
78586,8.04E-03,4.94E-03
78587,8.04E-03,4.90E-03
78588,8.04E-03,4.86E-03
78589,8.04E-03,4.82E-03
78590,8.04E-03,4.77E-03
78591,8.05E-03,4.73E-03
78592,8.05E-03,4.68E-03
78593,8.05E-03,4.63E-03
78594,8.05E-03,4.58E-03
78595,8.05E-03,4.53E-03
78596,8.06E-03,4.48E-03
78597,8.06E-03,4.43E-03
78598,8.08E-03,4.37E-03
78599,8.10E-03,4.32E-03
78600,8.12E-03,4.26E-03
78601,8.13E-03,4.20E-03
78602,8.14E-03,4.14E-03
78603,8.15E-03,4.08E-03
78604,8.17E-03,4.02E-03
78605,8.20E-03,3.95E-03
78606,8.23E-03,3.89E-03
78607,8.30E-03,3.82E-03
78608,8.38E-03,3.75E-03
78609,8.45E-03,3.68E-03
78610,8.52E-03,3.60E-03
78611,8.58E-03,3.53E-03
78612,8.67E-03,3.45E-03
78613,8.79E-03,3.37E-03
78614,8.91E-03,3.28E-03
78615,8.97E-03,3.20E-03
78616,8.95E-03,3.11E-03
78617,8.91E-03,3.02E-03
78618,8.62E-03,2.93E-03
78619,8.13E-03,2.85E-03
78620,7.81E-03,2.77E-03
78621,7.65E-03,2.69E-03
78622,7.61E-03,2.62E-03
78623,7.66E-03,2.55E-03
78624,7.71E-03,2.49E-03
78625,7.76E-03,2.42E-03
78626,7.80E-03,2.36E-03
78627,7.84E-03,2.30E-03
78628,7.86E-03,2.24E-03
78629,7.88E-03,2.18E-03
78630,7.89E-03,2.13E-03
78631,7.91E-03,2.07E-03
78632,7.92E-03,2.02E-03
78633,7.94E-03,1.98E-03
78634,7.95E-03,1.93E-03
78635,7.96E-03,1.89E-03
78636,7.96E-03,1.85E-03
78637,7.96E-03,1.81E-03
78638,7.96E-03,1.77E-03
78639,7.98E-03,1.74E-03
78640,8.00E-03,1.70E-03
78641,8.02E-03,1.67E-03
78642,8.03E-03,1.64E-03
78643,8.05E-03,1.60E-03
78644,8.05E-03,1.57E-03
78645,8.05E-03,1.53E-03
78646,8.04E-03,1.49E-03
78647,8.04E-03,1.45E-03
78648,8.05E-03,1.40E-03
78649,8.06E-03,1.35E-03
78650,7.97E-03,1.30E-03
78651,7.96E-03,1.24E-03
78652,7.83E-03,1.18E-03
78653,7.75E-03,1.11E-03
78654,7.65E-03,1.04E-03
78655,7.53E-03,9.72E-04
78656,7.46E-03,8.94E-04
78657,7.43E-03,8.13E-04
78658,7.51E-03,7.31E-04
78659,7.95E-03,6.52E-04
78660,7.55E-03,5.82E-04
78661,9.10E-03,5.04E-04
78662,7.79E-03,5.24E-04
78663,7.60E-03,5.43E-04
78664,7.48E-03,5.50E-04
78665,7.36E-03,5.56E-04
78666,7.30E-03,5.51E-04
78667,6.75E-03,5.55E-04
78668,6.36E-03,5.29E-04
78669,6.18E-03,5.39E-04
78670,8.97E-03,4.68E-04
78671,5.65E-03,6.19E-03
78672,6.98E-03,6.27E-03
78673,7.36E-03,6.36E-03
78674,7.50E-03,6.46E-03
78675,7.61E-03,6.56E-03
78676,7.73E-03,6.65E-03
78677,7.72E-03,6.75E-03
78678,7.71E-03,6.85E-03
78679,7.70E-03,6.95E-03
78680,7.69E-03,7.05E-03
78681,7.67E-03,7.15E-03
78682,7.62E-03,7.25E-03
78683,7.57E-03,7.36E-03
78684,7.50E-03,7.46E-03
78685,7.41E-03,7.56E-03
78686,7.27E-03,7.65E-03
78687,7.12E-03,7.75E-03
78688,6.99E-03,7.83E-03
78689,6.87E-03,7.92E-03
78690,6.77E-03,8.00E-03
78691,6.68E-03,8.07E-03
78692,6.67E-03,8.15E-03
78693,6.78E-03,8.21E-03
78694,6.93E-03,8.28E-03
78695,7.05E-03,8.34E-03
78696,7.17E-03,8.40E-03
78697,7.26E-03,8.45E-03
78698,7.31E-03,8.50E-03
78699,7.34E-03,8.55E-03
78700,7.36E-03,8.59E-03
78701,7.38E-03,8.63E-03
78702,7.39E-03,8.66E-03
78703,7.38E-03,8.69E-03
78704,7.35E-03,8.72E-03
78705,7.29E-03,8.74E-03
78706,7.23E-03,8.76E-03
78707,7.18E-03,8.78E-03
78708,7.08E-03,8.79E-03
78709,6.98E-03,8.80E-03
78710,6.99E-03,8.80E-03
78711,7.09E-03,8.80E-03
78712,7.19E-03,8.80E-03
78713,7.30E-03,8.80E-03
78714,7.38E-03,8.79E-03
78715,7.45E-03,8.78E-03
78716,7.56E-03,8.77E-03
78717,7.70E-03,8.76E-03
78718,7.81E-03,8.74E-03
78719,7.87E-03,8.72E-03
78720,7.91E-03,8.70E-03
78721,7.94E-03,8.69E-03
78722,7.96E-03,8.67E-03
78723,7.98E-03,8.65E-03
78724,7.99E-03,8.63E-03
78725,8.01E-03,8.61E-03
78726,8.02E-03,8.59E-03
78727,8.03E-03,8.57E-03
78728,8.03E-03,8.55E-03
78729,8.03E-03,8.53E-03
78730,8.03E-03,8.51E-03
78731,8.04E-03,8.49E-03
78732,8.04E-03,8.47E-03
78733,8.04E-03,8.45E-03
78734,8.04E-03,8.43E-03
78735,8.04E-03,8.41E-03
78736,8.04E-03,8.39E-03
78737,8.04E-03,8.37E-03
78738,8.04E-03,8.35E-03
78739,8.04E-03,8.33E-03
78740,8.04E-03,8.31E-03
78741,8.04E-03,8.30E-03
78742,8.04E-03,8.28E-03
78743,8.04E-03,8.27E-03
78744,8.03E-03,8.25E-03
78745,8.03E-03,8.24E-03
78746,8.03E-03,8.23E-03
78747,8.02E-03,8.21E-03
78748,8.02E-03,8.20E-03
78749,8.01E-03,8.19E-03
78750,8.01E-03,8.18E-03
78751,8.00E-03,8.17E-03
78752,7.98E-03,8.16E-03
78753,7.97E-03,8.16E-03
78754,7.95E-03,8.15E-03
78755,7.93E-03,8.15E-03
78756,7.91E-03,8.14E-03
78757,7.88E-03,8.14E-03
78758,7.86E-03,8.14E-03
78759,7.83E-03,8.14E-03
78760,7.79E-03,8.14E-03
78761,7.73E-03,8.14E-03
78762,7.65E-03,8.14E-03
78763,7.58E-03,8.14E-03
78764,7.56E-03,8.14E-03
78765,7.59E-03,8.14E-03
78766,7.71E-03,8.13E-03
78767,7.79E-03,8.12E-03
78768,7.84E-03,8.12E-03
78769,7.67E-03,8.12E-03
78770,7.32E-03,8.12E-03
78771,9.00E-03,5.99E-03
78772,6.75E-03,8.17E-03
78773,5.77E-03,5.51E-03
78774,6.85E-03,8.35E-03
78775,6.84E-03,6.18E-03
78776,7.39E-03,6.27E-03
78777,7.59E-03,6.37E-03
78778,7.72E-03,6.47E-03
78779,7.72E-03,6.57E-03
78780,7.83E-03,6.67E-03
78781,7.82E-03,6.77E-03
78782,7.81E-03,6.88E-03
78783,7.81E-03,6.98E-03
78784,7.80E-03,7.08E-03
78785,7.78E-03,7.19E-03
78786,7.75E-03,7.29E-03
78787,7.71E-03,7.40E-03
78788,7.67E-03,7.51E-03
78789,7.60E-03,7.61E-03
78790,7.50E-03,7.71E-03
78791,7.39E-03,7.81E-03
78792,7.30E-03,7.90E-03
78793,7.21E-03,7.99E-03
78794,7.14E-03,8.08E-03
78795,7.08E-03,8.16E-03
78796,7.07E-03,8.24E-03
78797,7.15E-03,8.31E-03
78798,7.25E-03,8.38E-03
78799,7.35E-03,8.44E-03
78800,7.43E-03,8.50E-03
78801,7.49E-03,8.56E-03
78802,7.53E-03,8.61E-03
78803,7.55E-03,8.66E-03
78804,7.57E-03,8.70E-03
78805,7.58E-03,8.74E-03
78806,7.59E-03,8.77E-03
78807,7.58E-03,8.80E-03
78808,7.55E-03,8.83E-03
78809,7.51E-03,8.85E-03
78810,7.47E-03,8.87E-03
78811,7.44E-03,8.89E-03
78812,7.36E-03,8.90E-03
78813,7.29E-03,8.91E-03
78814,7.30E-03,8.91E-03
78815,7.37E-03,8.92E-03
78816,7.44E-03,8.92E-03
78817,7.52E-03,8.91E-03
78818,7.58E-03,8.90E-03
78819,7.63E-03,8.89E-03
78820,7.71E-03,8.88E-03
78821,7.81E-03,8.87E-03
78822,7.88E-03,8.85E-03
78823,7.93E-03,8.84E-03
78824,7.96E-03,8.82E-03
78825,7.98E-03,8.80E-03
78826,7.99E-03,8.78E-03
78827,8.01E-03,8.76E-03
78828,8.02E-03,8.74E-03
78829,8.03E-03,8.72E-03
78830,8.04E-03,8.70E-03
78831,8.04E-03,8.69E-03
78832,8.04E-03,8.67E-03
78833,8.04E-03,8.65E-03
78834,8.05E-03,8.63E-03
78835,8.05E-03,8.61E-03
78836,8.05E-03,8.59E-03
78837,8.05E-03,8.57E-03
78838,8.05E-03,8.55E-03
78839,8.05E-03,8.54E-03
78840,8.05E-03,8.52E-03
78841,8.05E-03,8.50E-03
78842,8.05E-03,8.48E-03
78843,8.05E-03,8.47E-03
78844,8.05E-03,8.45E-03
78845,8.05E-03,8.44E-03
78846,8.05E-03,8.43E-03
78847,8.05E-03,8.41E-03
78848,8.05E-03,8.40E-03
78849,8.04E-03,8.39E-03
78850,8.04E-03,8.38E-03
78851,8.04E-03,8.37E-03
78852,8.04E-03,8.36E-03
78853,8.03E-03,8.35E-03
78854,8.03E-03,8.34E-03
78855,8.02E-03,8.34E-03
78856,8.01E-03,8.34E-03
78857,8.00E-03,8.33E-03
78858,7.99E-03,8.33E-03
78859,7.97E-03,8.33E-03
78860,7.96E-03,8.33E-03
78861,7.94E-03,8.33E-03
78862,7.92E-03,8.33E-03
78863,7.90E-03,8.33E-03
78864,7.87E-03,8.34E-03
78865,7.83E-03,8.34E-03
78866,7.77E-03,8.35E-03
78867,7.72E-03,8.36E-03
78868,7.71E-03,8.36E-03
78869,7.73E-03,8.37E-03
78870,7.77E-03,8.37E-03
78871,7.79E-03,8.37E-03
78872,7.74E-03,8.38E-03
78873,7.69E-03,8.39E-03
78874,7.45E-03,8.41E-03
78875,7.21E-03,8.42E-03
78876,7.26E-03,5.50E-03
78877,7.79E-03,5.50E-03
78878,7.90E-03,5.49E-03
78879,7.95E-03,5.48E-03
78880,8.04E-03,5.48E-03
78881,8.04E-03,5.47E-03
78882,8.03E-03,5.47E-03
78883,8.03E-03,5.46E-03
78884,8.03E-03,5.45E-03
78885,8.03E-03,5.44E-03
78886,8.03E-03,5.43E-03
78887,8.03E-03,5.42E-03
78888,8.03E-03,5.41E-03
78889,8.03E-03,5.39E-03
78890,8.03E-03,5.37E-03
78891,8.03E-03,5.36E-03
78892,8.03E-03,5.34E-03
78893,8.03E-03,5.32E-03
78894,8.03E-03,5.30E-03
78895,8.03E-03,5.27E-03
78896,8.03E-03,5.25E-03
78897,8.03E-03,5.23E-03
78898,8.03E-03,5.20E-03
78899,8.03E-03,5.17E-03
78900,8.03E-03,5.14E-03
78901,8.03E-03,5.11E-03
78902,8.03E-03,5.08E-03
78903,8.03E-03,5.05E-03
78904,8.03E-03,5.01E-03
78905,8.04E-03,4.98E-03
78906,8.04E-03,4.94E-03
78907,8.04E-03,4.90E-03
78908,8.04E-03,4.87E-03
78909,8.04E-03,4.82E-03
78910,8.04E-03,4.78E-03
78911,8.04E-03,4.74E-03
78912,8.04E-03,4.70E-03
78913,8.04E-03,4.65E-03
78914,8.05E-03,4.60E-03
78915,8.05E-03,4.56E-03
78916,8.05E-03,4.51E-03
78917,8.05E-03,4.46E-03
78918,8.05E-03,4.40E-03
78919,8.06E-03,4.35E-03
78920,8.07E-03,4.30E-03
78921,8.09E-03,4.24E-03
78922,8.10E-03,4.19E-03
78923,8.11E-03,4.13E-03
78924,8.11E-03,4.07E-03
78925,8.12E-03,4.01E-03
78926,8.13E-03,3.95E-03
78927,8.15E-03,3.88E-03
78928,8.18E-03,3.82E-03
78929,8.22E-03,3.75E-03
78930,8.28E-03,3.68E-03
78931,8.33E-03,3.61E-03
78932,8.38E-03,3.54E-03
78933,8.43E-03,3.47E-03
78934,8.49E-03,3.39E-03
78935,8.57E-03,3.31E-03
78936,8.66E-03,3.23E-03
78937,8.70E-03,3.15E-03
78938,8.69E-03,3.07E-03
78939,8.66E-03,2.99E-03
78940,8.46E-03,2.90E-03
78941,8.11E-03,2.82E-03
78942,7.88E-03,2.75E-03
78943,7.76E-03,2.67E-03
78944,7.73E-03,2.60E-03
78945,7.77E-03,2.54E-03
78946,7.80E-03,2.47E-03
78947,7.84E-03,2.41E-03
78948,7.87E-03,2.35E-03
78949,7.90E-03,2.29E-03
78950,7.91E-03,2.23E-03
78951,7.92E-03,2.18E-03
78952,7.94E-03,2.13E-03
78953,7.95E-03,2.08E-03
78954,7.96E-03,2.03E-03
78955,7.97E-03,1.99E-03
78956,7.97E-03,1.94E-03
78957,7.98E-03,1.90E-03
78958,7.98E-03,1.86E-03
78959,7.98E-03,1.83E-03
78960,7.99E-03,1.79E-03
78961,8.00E-03,1.76E-03
78962,8.01E-03,1.73E-03
78963,8.02E-03,1.69E-03
78964,8.03E-03,1.66E-03
78965,8.04E-03,1.63E-03
78966,8.05E-03,1.59E-03
78967,8.05E-03,1.56E-03
78968,8.04E-03,1.52E-03
78969,8.04E-03,1.48E-03
78970,8.05E-03,1.43E-03
78971,8.05E-03,1.38E-03
78972,8.06E-03,1.33E-03
78973,8.06E-03,1.27E-03
78974,7.99E-03,1.21E-03
78975,7.92E-03,1.14E-03
78976,7.81E-03,1.07E-03
78977,7.71E-03,9.99E-04
78978,7.66E-03,9.20E-04
78979,7.67E-03,8.36E-04
78980,7.60E-03,7.49E-04
78981,7.48E-03,6.67E-04
78982,7.01E-03,5.98E-04
78983,7.02E-03,5.46E-04
78984,7.77E-03,5.97E-03
78985,7.76E-03,5.95E-03
78986,7.82E-03,5.93E-03
78987,7.85E-03,5.91E-03
78988,7.92E-03,5.88E-03
78989,8.03E-03,5.85E-03
78990,8.09E-03,5.81E-03
78991,8.09E-03,5.77E-03
78992,8.08E-03,5.72E-03
78993,8.08E-03,5.68E-03
78994,8.24E-03,5.63E-03
78995,8.16E-03,5.58E-03
78996,7.79E-03,5.53E-03
78997,6.90E-03,5.49E-03
78998,8.52E-03,5.45E-03
78999,8.33E-03,5.87E-04
79000,8.30E-03,5.90E-04
79001,8.15E-03,5.91E-04
79002,7.74E-03,6.00E-04
79003,7.61E-03,5.99E-04
79004,7.49E-03,5.92E-04
79005,7.36E-03,5.85E-04
79006,7.18E-03,5.70E-04
79007,7.22E-03,5.32E-04
79008,7.03E-03,5.17E-04
79009,7.10E-03,5.14E-04
79010,7.29E-03,8.02E-03
79011,7.68E-03,7.83E-03
79012,7.91E-03,7.61E-03
79013,8.06E-03,7.37E-03
79014,8.35E-03,7.13E-03
79015,8.38E-03,6.89E-03
79016,8.42E-03,6.65E-03
79017,8.44E-03,6.41E-03
79018,8.46E-03,6.18E-03
79019,8.48E-03,5.94E-03
79020,8.50E-03,5.70E-03
79021,8.52E-03,5.47E-03
79022,8.55E-03,5.23E-03
79023,8.57E-03,5.00E-03
79024,8.59E-03,4.78E-03
79025,8.61E-03,4.56E-03
79026,8.62E-03,4.34E-03
79027,8.63E-03,4.13E-03
79028,8.64E-03,3.92E-03
79029,8.66E-03,3.73E-03
79030,8.66E-03,3.54E-03
79031,8.65E-03,3.36E-03
79032,8.62E-03,3.18E-03
79033,8.57E-03,3.02E-03
79034,8.52E-03,2.86E-03
79035,8.47E-03,2.72E-03
79036,8.43E-03,2.57E-03
79037,8.40E-03,2.44E-03
79038,8.38E-03,2.31E-03
79039,8.36E-03,2.18E-03
79040,8.33E-03,2.06E-03
79041,8.31E-03,1.94E-03
79042,8.29E-03,1.82E-03
79043,8.26E-03,1.70E-03
79044,8.23E-03,1.58E-03
79045,8.21E-03,1.46E-03
79046,8.20E-03,1.34E-03
79047,8.18E-03,1.21E-03
79048,8.16E-03,1.08E-03
79049,8.18E-03,9.36E-04
79050,8.18E-03,7.96E-04
79051,8.11E-03,6.58E-04
79052,8.20E-03,5.29E-04
79053,8.32E-03,4.28E-04
79054,8.32E-03,3.90E-04
79055,7.92E-03,4.59E-04
79056,6.48E-03,5.82E-04
79057,8.89E-03,5.41E-03
79058,8.03E-03,5.39E-03
79059,8.01E-03,5.39E-03
79060,8.04E-03,5.39E-03
79061,8.04E-03,5.38E-03
79062,8.04E-03,5.38E-03
79063,8.04E-03,5.38E-03
79064,8.04E-03,5.37E-03
79065,8.04E-03,5.36E-03
79066,8.04E-03,5.35E-03
79067,8.04E-03,5.34E-03
79068,8.04E-03,5.33E-03
79069,8.04E-03,5.32E-03
79070,8.04E-03,5.30E-03
79071,8.04E-03,5.29E-03
79072,8.04E-03,5.27E-03
79073,8.04E-03,5.25E-03
79074,8.04E-03,5.23E-03
79075,8.04E-03,5.21E-03
79076,8.03E-03,5.19E-03
79077,8.03E-03,5.17E-03
79078,8.04E-03,5.14E-03
79079,8.04E-03,5.12E-03
79080,8.04E-03,5.09E-03
79081,8.04E-03,5.06E-03
79082,8.04E-03,5.03E-03
79083,8.04E-03,5.00E-03
79084,8.04E-03,4.97E-03
79085,8.04E-03,4.94E-03
79086,8.04E-03,4.90E-03
79087,8.04E-03,4.86E-03
79088,8.04E-03,4.83E-03
79089,8.04E-03,4.79E-03
79090,8.04E-03,4.75E-03
79091,8.04E-03,4.71E-03
79092,8.04E-03,4.66E-03
79093,8.04E-03,4.62E-03
79094,8.04E-03,4.58E-03
79095,8.04E-03,4.53E-03
79096,8.04E-03,4.48E-03
79097,8.05E-03,4.43E-03
79098,8.05E-03,4.38E-03
79099,8.05E-03,4.33E-03
79100,8.05E-03,4.28E-03
79101,8.06E-03,4.23E-03
79102,8.07E-03,4.17E-03
79103,8.08E-03,4.12E-03
79104,8.08E-03,4.06E-03
79105,8.08E-03,4.00E-03
79106,8.09E-03,3.94E-03
79107,8.10E-03,3.88E-03
79108,8.11E-03,3.82E-03
79109,8.12E-03,3.75E-03
79110,8.15E-03,3.69E-03
79111,8.18E-03,3.62E-03
79112,8.22E-03,3.55E-03
79113,8.24E-03,3.48E-03
79114,8.27E-03,3.41E-03
79115,8.31E-03,3.34E-03
79116,8.36E-03,3.27E-03
79117,8.41E-03,3.19E-03
79118,8.44E-03,3.11E-03
79119,8.43E-03,3.04E-03
79120,8.41E-03,2.96E-03
79121,8.29E-03,2.88E-03
79122,8.08E-03,2.80E-03
79123,7.94E-03,2.73E-03
79124,7.87E-03,2.66E-03
79125,7.85E-03,2.59E-03
79126,7.88E-03,2.53E-03
79127,7.90E-03,2.46E-03
79128,7.92E-03,2.40E-03
79129,7.94E-03,2.35E-03
79130,7.95E-03,2.29E-03
79131,7.96E-03,2.23E-03
79132,7.97E-03,2.18E-03
79133,7.98E-03,2.13E-03
79134,7.98E-03,2.09E-03
79135,7.99E-03,2.04E-03
79136,8.00E-03,2.00E-03
79137,8.00E-03,1.96E-03
79138,8.01E-03,1.92E-03
79139,8.01E-03,1.88E-03
79140,8.01E-03,1.85E-03
79141,8.01E-03,1.81E-03
79142,8.01E-03,1.78E-03
79143,8.02E-03,1.75E-03
79144,8.03E-03,1.72E-03
79145,8.04E-03,1.69E-03
79146,8.04E-03,1.65E-03
79147,8.04E-03,1.62E-03
79148,8.04E-03,1.58E-03
79149,8.04E-03,1.55E-03
79150,8.04E-03,1.50E-03
79151,8.04E-03,1.46E-03
79152,8.05E-03,1.41E-03
79153,8.05E-03,1.36E-03
79154,8.05E-03,1.30E-03
79155,8.05E-03,1.24E-03
79156,8.05E-03,1.17E-03
79157,8.00E-03,1.10E-03
79158,7.87E-03,1.03E-03
79159,7.83E-03,9.46E-04
79160,7.77E-03,8.61E-04
79161,7.65E-03,7.74E-04
79162,7.46E-03,6.88E-04
79163,7.32E-03,6.11E-04
79164,7.15E-03,5.45E-04
79165,7.26E-03,5.01E-04
79166,9.54E-03,6.02E-03
79167,9.32E-03,6.15E-03
79168,8.02E-03,6.28E-03
79169,7.84E-03,6.39E-03
79170,7.82E-03,6.49E-03
79171,7.87E-03,6.59E-03
79172,7.93E-03,6.69E-03
79173,7.92E-03,6.79E-03
79174,7.92E-03,6.90E-03
79175,7.91E-03,7.00E-03
79176,7.91E-03,7.11E-03
79177,7.90E-03,7.22E-03
79178,7.88E-03,7.33E-03
79179,7.86E-03,7.44E-03
79180,7.83E-03,7.55E-03
79181,7.79E-03,7.66E-03
79182,7.73E-03,7.77E-03
79183,7.66E-03,7.87E-03
79184,7.61E-03,7.97E-03
79185,7.56E-03,8.07E-03
79186,7.51E-03,8.16E-03
79187,7.48E-03,8.25E-03
79188,7.47E-03,8.33E-03
79189,7.52E-03,8.41E-03
79190,7.58E-03,8.48E-03
79191,7.64E-03,8.55E-03
79192,7.69E-03,8.61E-03
79193,7.73E-03,8.67E-03
79194,7.75E-03,8.72E-03
79195,7.76E-03,8.77E-03
79196,7.77E-03,8.81E-03
79197,7.78E-03,8.85E-03
79198,7.78E-03,8.88E-03
79199,7.78E-03,8.91E-03
79200,7.76E-03,8.94E-03
79201,7.74E-03,8.97E-03
79202,7.71E-03,8.98E-03
79203,7.69E-03,9.00E-03
79204,7.65E-03,9.01E-03
79205,7.61E-03,9.02E-03
79206,7.61E-03,9.03E-03
79207,7.65E-03,9.03E-03
79208,7.70E-03,9.03E-03
79209,7.74E-03,9.02E-03
79210,7.78E-03,9.01E-03
79211,7.81E-03,9.00E-03
79212,7.86E-03,8.99E-03
79213,7.92E-03,8.98E-03
79214,7.96E-03,8.96E-03
79215,7.99E-03,8.95E-03
79216,8.01E-03,8.93E-03
79217,8.02E-03,8.91E-03
79218,8.03E-03,8.90E-03
79219,8.03E-03,8.88E-03
79220,8.04E-03,8.86E-03
79221,8.05E-03,8.84E-03
79222,8.05E-03,8.82E-03
79223,8.06E-03,8.80E-03
79224,8.06E-03,8.78E-03
79225,8.06E-03,8.77E-03
79226,8.06E-03,8.75E-03
79227,8.06E-03,8.73E-03
79228,8.06E-03,8.71E-03
79229,8.06E-03,8.70E-03
79230,8.06E-03,8.68E-03
79231,8.06E-03,8.66E-03
79232,8.06E-03,8.65E-03
79233,8.06E-03,8.63E-03
79234,8.06E-03,8.62E-03
79235,8.06E-03,8.60E-03
79236,8.06E-03,8.59E-03
79237,8.06E-03,8.58E-03
79238,8.06E-03,8.57E-03
79239,8.06E-03,8.56E-03
79240,8.06E-03,8.55E-03
79241,8.06E-03,8.54E-03
79242,8.06E-03,8.53E-03
79243,8.05E-03,8.52E-03
79244,8.05E-03,8.52E-03
79245,8.05E-03,8.51E-03
79246,8.05E-03,8.51E-03
79247,8.04E-03,8.50E-03
79248,8.04E-03,8.50E-03
79249,8.03E-03,8.51E-03
79250,8.02E-03,8.51E-03
79251,8.02E-03,8.51E-03
79252,8.00E-03,8.52E-03
79253,7.99E-03,8.52E-03
79254,7.98E-03,8.52E-03
79255,7.97E-03,8.53E-03
79256,7.95E-03,8.54E-03
79257,7.93E-03,8.55E-03
79258,7.89E-03,8.56E-03
79259,7.86E-03,8.57E-03
79260,7.86E-03,8.58E-03
79261,7.87E-03,8.59E-03
79262,7.89E-03,8.60E-03
79263,7.90E-03,8.61E-03
79264,7.84E-03,8.62E-03
79265,7.83E-03,8.64E-03
79266,7.85E-03,8.66E-03
79267,8.08E-03,8.67E-03
79268,9.42E-03,8.62E-03
79269,9.23E-03,8.43E-03
79270,8.14E-03,8.22E-03
79271,7.86E-03,8.00E-03
79272,7.92E-03,7.78E-03
79273,8.02E-03,7.55E-03
79274,8.22E-03,7.31E-03
79275,8.25E-03,7.07E-03
79276,8.26E-03,6.84E-03
79277,8.28E-03,6.60E-03
79278,8.29E-03,6.36E-03
79279,8.30E-03,6.13E-03
79280,8.31E-03,5.89E-03
79281,8.33E-03,5.66E-03
79282,8.34E-03,5.43E-03
79283,8.36E-03,5.20E-03
79284,8.37E-03,4.97E-03
79285,8.38E-03,4.75E-03
79286,8.39E-03,4.53E-03
79287,8.39E-03,4.32E-03
79288,8.40E-03,4.12E-03
79289,8.41E-03,3.92E-03
79290,8.41E-03,3.73E-03
79291,8.40E-03,3.55E-03
79292,8.39E-03,3.37E-03
79293,8.36E-03,3.21E-03
79294,8.33E-03,3.05E-03
79295,8.30E-03,2.89E-03
79296,8.27E-03,2.75E-03
79297,8.26E-03,2.61E-03
79298,8.24E-03,2.47E-03
79299,8.23E-03,2.34E-03
79300,8.22E-03,2.21E-03
79301,8.20E-03,2.08E-03
79302,8.19E-03,1.95E-03
79303,8.17E-03,1.82E-03
79304,8.15E-03,1.68E-03
79305,8.14E-03,1.55E-03
79306,8.13E-03,1.41E-03
79307,8.12E-03,1.26E-03
79308,8.11E-03,1.11E-03
79309,8.12E-03,9.54E-04
79310,8.12E-03,7.95E-04
79311,8.08E-03,6.34E-04
79312,8.12E-03,4.79E-04
79313,8.13E-03,3.65E-04
79314,7.95E-03,3.62E-04
79315,7.62E-03,4.91E-04
79316,6.65E-03,6.60E-04
79317,7.08E-03,5.41E-03
79318,7.77E-03,5.43E-03
79319,8.10E-03,5.48E-03
79320,8.14E-03,5.53E-03
79321,8.08E-03,5.58E-03
79322,8.09E-03,5.63E-03
79323,8.09E-03,5.67E-03
79324,8.09E-03,5.71E-03
79325,8.09E-03,5.75E-03
79326,8.03E-03,5.78E-03
79327,7.99E-03,5.81E-03
79328,7.92E-03,5.83E-03
79329,7.92E-03,5.85E-03
79330,8.19E-03,5.87E-03
79331,8.48E-03,5.88E-03
79332,8.77E-03,5.89E-03
79333,8.16E-03,7.20E-04
79334,8.19E-03,7.64E-04
79335,8.04E-03,7.50E-04
79336,8.07E-03,7.35E-04
79337,7.94E-03,7.19E-04
79338,7.76E-03,7.03E-04
79339,7.60E-03,6.83E-04
79340,7.47E-03,6.57E-04
79341,7.37E-03,6.22E-04
79342,7.32E-03,5.88E-04
79343,7.30E-03,5.50E-04
79344,7.31E-03,5.21E-04
79345,7.39E-03,4.97E-04
79346,6.29E-03,5.38E-03
79347,7.79E-03,5.30E-03
79348,8.04E-03,4.63E-03
79349,8.04E-03,4.67E-03
79350,8.04E-03,4.59E-03
79351,8.04E-03,4.71E-03
79352,8.04E-03,4.55E-03
79353,8.04E-03,4.75E-03
79354,8.04E-03,4.50E-03
79355,8.65E-03,5.31E-03
79356,8.14E-03,5.30E-03
79357,8.04E-03,4.79E-03
79358,8.04E-03,5.30E-03
79359,8.04E-03,5.30E-03
79360,8.04E-03,5.30E-03
79361,8.04E-03,4.82E-03
79362,8.04E-03,4.46E-03
79363,8.04E-03,5.29E-03
79364,8.04E-03,5.29E-03
79365,8.04E-03,5.28E-03
79366,8.04E-03,4.86E-03
79367,8.04E-03,5.27E-03
79368,8.04E-03,4.41E-03
79369,8.04E-03,5.27E-03
79370,8.04E-03,4.89E-03
79371,8.04E-03,5.26E-03
79372,8.04E-03,5.24E-03
79373,8.04E-03,5.23E-03
79374,8.04E-03,4.92E-03
79375,8.04E-03,5.22E-03
79376,8.04E-03,4.36E-03
79377,8.04E-03,4.95E-03
79378,8.04E-03,5.21E-03
79379,8.04E-03,4.98E-03
79380,8.04E-03,5.19E-03
79381,8.04E-03,5.01E-03
79382,8.04E-03,5.17E-03
79383,8.04E-03,5.04E-03
79384,8.04E-03,5.15E-03
79385,8.04E-03,5.13E-03
79386,8.04E-03,5.06E-03
79387,8.04E-03,5.11E-03
79388,8.04E-03,5.09E-03
79389,1.09E-02,9.22E-04
79390,8.45E-03,9.67E-04
79391,8.14E-03,9.33E-04
79392,8.02E-03,9.09E-04
79393,8.02E-03,8.83E-04
79394,7.95E-03,8.52E-04
79395,7.87E-03,8.14E-04
79396,7.76E-03,7.69E-04
79397,7.67E-03,7.15E-04
79398,7.54E-03,6.86E-04
79399,7.48E-03,6.25E-04
79400,7.45E-03,5.76E-04
79401,7.44E-03,5.35E-04
79402,8.04E-03,1.49E-03
79403,8.04E-03,1.53E-03
79404,8.04E-03,1.57E-03
79405,8.04E-03,1.61E-03
79406,8.04E-03,1.65E-03
79407,8.04E-03,1.68E-03
79408,8.04E-03,1.71E-03
79409,8.04E-03,4.31E-03
79410,8.04E-03,4.26E-03
79411,8.04E-03,1.44E-03
79412,8.04E-03,4.21E-03
79413,8.04E-03,1.75E-03
79414,8.04E-03,1.39E-03
79415,8.04E-03,1.33E-03
79416,8.04E-03,1.27E-03
79417,8.04E-03,1.20E-03
79418,8.04E-03,1.13E-03
79419,7.98E-03,1.05E-03
79420,7.97E-03,9.72E-04
79421,7.89E-03,8.86E-04
79422,7.73E-03,7.97E-04
79423,7.62E-03,7.09E-04
79424,7.42E-03,6.23E-04
79425,7.27E-03,5.48E-04
79426,7.28E-03,4.93E-04
79427,7.39E-03,4.72E-04
79428,7.54E-03,4.94E-04
79429,8.03E-03,1.78E-03
79430,8.05E-03,4.16E-03
79431,8.03E-03,1.81E-03
79432,8.05E-03,4.10E-03
79433,8.03E-03,1.84E-03
79434,8.03E-03,1.87E-03
79435,8.03E-03,1.91E-03
79436,8.03E-03,1.94E-03
79437,8.05E-03,4.05E-03
79438,8.05E-03,3.99E-03
79439,8.03E-03,1.98E-03
79440,8.05E-03,3.94E-03
79441,8.03E-03,2.02E-03
79442,8.06E-03,3.88E-03
79443,8.02E-03,2.06E-03
79444,8.06E-03,3.82E-03
79445,8.02E-03,2.10E-03
79446,8.02E-03,2.14E-03
79447,8.06E-03,3.76E-03
79448,8.02E-03,2.19E-03
79449,8.02E-03,2.24E-03
79450,8.07E-03,3.69E-03
79451,8.01E-03,2.29E-03
79452,8.01E-03,2.35E-03
79453,8.08E-03,3.63E-03
79454,8.00E-03,2.40E-03
79455,7.99E-03,2.46E-03
79456,8.09E-03,3.57E-03
79457,7.99E-03,2.52E-03
79458,8.10E-03,3.50E-03
79459,7.98E-03,2.58E-03
79460,7.98E-03,2.65E-03
79461,8.01E-03,2.72E-03
79462,8.05E-03,2.79E-03
79463,8.11E-03,3.43E-03
79464,8.12E-03,3.36E-03
79465,8.13E-03,3.29E-03
79466,8.12E-03,2.86E-03
79467,8.15E-03,3.22E-03
79468,8.16E-03,3.15E-03
79469,8.16E-03,2.93E-03
79470,8.17E-03,3.01E-03
79471,8.17E-03,3.08E-03
79472,7.88E-03,3.28E-04
79473,8.04E-03,3.01E-04
79474,9.41E-03,9.34E-04
79475,8.08E-03,6.41E-04
79476,7.65E-03,4.64E-04
79477,8.04E-03,4.40E-04
79478,8.05E-03,6.25E-04
79479,8.06E-03,1.17E-03
79480,8.07E-03,9.88E-04
79481,8.07E-03,1.34E-03
79482,8.07E-03,1.50E-03
79483,8.07E-03,1.66E-03
79484,8.07E-03,8.08E-04
79485,8.08E-03,1.81E-03
79486,8.08E-03,1.95E-03
79487,8.09E-03,2.09E-03
79488,9.99E-03,8.65E-03
79489,8.34E-03,8.38E-03
79490,7.89E-03,8.17E-03
79491,7.90E-03,7.96E-03
79492,8.01E-03,7.73E-03
79493,8.09E-03,2.23E-03
79494,8.10E-03,2.37E-03
79495,8.10E-03,7.50E-03
79496,8.10E-03,2.51E-03
79497,8.11E-03,2.65E-03
79498,8.11E-03,7.27E-03
79499,8.11E-03,2.79E-03
79500,8.11E-03,7.03E-03
79501,8.12E-03,2.94E-03
79502,8.12E-03,6.80E-03
79503,8.12E-03,6.57E-03
79504,8.12E-03,3.09E-03
79505,8.12E-03,6.33E-03
79506,8.13E-03,6.10E-03
79507,8.13E-03,3.25E-03
79508,8.13E-03,5.87E-03
79509,8.14E-03,5.63E-03
79510,8.14E-03,3.41E-03
79511,8.14E-03,5.40E-03
79512,8.15E-03,5.18E-03
79513,8.15E-03,4.96E-03
79514,8.15E-03,3.58E-03
79515,8.15E-03,4.74E-03
79516,8.16E-03,4.53E-03
79517,8.16E-03,4.33E-03
79518,8.16E-03,3.76E-03
79519,8.16E-03,4.13E-03
79520,8.16E-03,3.94E-03
79521,8.47E-03,5.34E-03
79522,5.86E-03,5.28E-03
79523,7.13E-03,5.30E-03
79524,8.11E-03,5.39E-03
79525,8.09E-03,5.44E-03
79526,8.09E-03,5.49E-03
79527,8.09E-03,5.53E-03
79528,8.09E-03,5.58E-03
79529,8.09E-03,5.61E-03
79530,8.09E-03,5.65E-03
79531,8.09E-03,5.69E-03
79532,8.03E-03,5.71E-03
79533,8.04E-03,5.73E-03
79534,8.10E-03,5.75E-03
79535,8.21E-03,5.76E-03
79536,8.35E-03,5.76E-03
79537,8.46E-03,5.76E-03
79538,8.38E-03,5.76E-03
79539,8.86E-03,5.90E-03
79540,9.09E-03,6.04E-03
79541,8.90E-03,6.16E-03
79542,8.52E-03,6.28E-03
79543,8.02E-03,6.40E-03
79544,8.03E-03,6.50E-03
79545,8.03E-03,6.60E-03
79546,8.03E-03,6.71E-03
79547,8.03E-03,6.81E-03
79548,8.02E-03,6.91E-03
79549,8.02E-03,7.02E-03
79550,8.02E-03,7.14E-03
79551,8.02E-03,7.25E-03
79552,8.01E-03,7.37E-03
79553,8.00E-03,7.48E-03
79554,7.99E-03,7.60E-03
79555,7.98E-03,7.71E-03
79556,7.96E-03,7.83E-03
79557,7.94E-03,7.94E-03
79558,7.92E-03,8.04E-03
79559,7.90E-03,8.15E-03
79560,7.89E-03,8.25E-03
79561,7.88E-03,8.34E-03
79562,7.87E-03,8.43E-03
79563,7.89E-03,8.51E-03
79564,7.91E-03,8.59E-03
79565,7.93E-03,8.66E-03
79566,7.95E-03,8.72E-03
79567,7.96E-03,8.78E-03
79568,7.97E-03,8.83E-03
79569,7.97E-03,8.88E-03
79570,7.97E-03,8.92E-03
79571,7.98E-03,8.96E-03
79572,7.98E-03,9.00E-03
79573,7.98E-03,9.03E-03
79574,7.97E-03,9.05E-03
79575,7.96E-03,9.08E-03
79576,7.96E-03,9.10E-03
79577,7.95E-03,9.11E-03
79578,7.93E-03,9.12E-03
79579,7.92E-03,9.13E-03
79580,7.92E-03,9.14E-03
79581,7.93E-03,9.14E-03
79582,7.95E-03,9.14E-03
79583,7.97E-03,9.13E-03
79584,7.98E-03,9.12E-03
79585,7.99E-03,9.11E-03
79586,8.00E-03,9.10E-03
79587,8.02E-03,9.09E-03
79588,8.04E-03,9.07E-03
79589,8.05E-03,9.06E-03
79590,8.05E-03,9.04E-03
79591,8.06E-03,9.02E-03
79592,8.06E-03,9.00E-03
79593,8.06E-03,8.99E-03
79594,8.07E-03,8.97E-03
79595,8.07E-03,8.95E-03
79596,8.07E-03,8.93E-03
79597,8.07E-03,8.92E-03
79598,8.07E-03,8.90E-03
79599,8.07E-03,8.88E-03
79600,8.07E-03,8.87E-03
79601,8.07E-03,8.85E-03
79602,8.07E-03,8.83E-03
79603,8.07E-03,8.82E-03
79604,8.07E-03,8.80E-03
79605,8.07E-03,8.79E-03
79606,8.07E-03,8.77E-03
79607,8.07E-03,8.76E-03
79608,8.07E-03,8.75E-03
79609,8.07E-03,8.73E-03
79610,8.07E-03,8.72E-03
79611,8.07E-03,8.71E-03
79612,8.07E-03,8.70E-03
79613,8.07E-03,8.69E-03
79614,8.07E-03,8.69E-03
79615,8.07E-03,8.69E-03
79616,8.07E-03,8.68E-03
79617,8.07E-03,8.67E-03
79618,8.07E-03,8.67E-03
79619,8.07E-03,8.67E-03
79620,8.07E-03,8.67E-03
79621,8.07E-03,8.67E-03
79622,8.06E-03,8.67E-03
79623,8.06E-03,8.67E-03
79624,8.06E-03,8.68E-03
79625,8.06E-03,8.69E-03
79626,8.05E-03,8.70E-03
79627,8.05E-03,8.71E-03
79628,8.05E-03,8.71E-03
79629,8.04E-03,8.72E-03
79630,8.04E-03,8.73E-03
79631,8.03E-03,8.75E-03
79632,8.02E-03,8.76E-03
79633,8.01E-03,8.78E-03
79634,8.00E-03,8.80E-03
79635,8.01E-03,8.82E-03
79636,8.01E-03,8.84E-03
79637,8.02E-03,8.85E-03
79638,8.03E-03,8.85E-03
79639,7.98E-03,8.87E-03
79640,8.03E-03,8.91E-03
79641,8.41E-03,8.90E-03
79642,1.01E-02,8.88E-03
79643,9.71E-03,8.93E-03
79801,4.06E-03,2.39E-02
79802,7.23E-03,2.48E-02
79803,4.98E-03,2.53E-02
79804,6.56E-03,3.88E-03
79805,7.55E-03,3.89E-03
79806,8.15E-03,9.18E-03
79807,5.16E-03,9.01E-03
79808,5.57E-03,7.80E-03
79809,8.54E-03,7.78E-03
79810,5.79E-03,9.41E-03
79811,6.04E-03,8.95E-03
79812,7.78E-03,8.79E-03
79813,6.21E-03,1.15E-02
79814,7.71E-03,1.14E-02
79815,8.48E-03,1.42E-02
79816,6.86E-03,1.42E-02
79817,6.61E-03,1.43E-02
79818,6.63E-03,1.26E-02
79819,9.63E-03,1.27E-02
79820,8.58E-03,2.92E-04
79821,7.37E-03,3.06E-04
79822,5.63E-03,3.16E-04
79823,4.56E-03,1.46E-02
79824,6.57E-03,1.45E-02
79825,5.75E-03,1.47E-02
79826,4.29E-03,1.47E-02
79827,4.23E-03,1.48E-02
79828,1.25E-02,1.06E-02
79829,9.28E-03,1.04E-02
79830,9.75E-03,1.05E-02
79831,7.69E-03,7.50E-03
79832,8.50E-03,7.37E-03
79833,7.56E-03,7.37E-03
79834,7.63E-03,7.49E-03
79835,6.48E-03,7.60E-03
79836,6.57E-03,7.62E-03
79837,9.87E-03,1.61E-02
79838,9.47E-03,1.64E-02
79839,1.26E-02,1.55E-02
79840,1.11E-02,1.55E-02
79841,9.78E-03,1.54E-02
79842,9.95E-03,1.19E-02
79843,9.63E-03,1.20E-02
79844,8.16E-03,1.18E-02
79845,7.94E-03,1.18E-02
79846,7.07E-03,1.47E-02
79847,7.06E-03,1.47E-02
79848,6.97E-03,1.50E-02
79849,6.99E-03,1.50E-02
79850,1.02E-02,1.12E-02
79851,6.98E-03,1.13E-02
79852,7.86E-03,1.14E-02
79853,8.48E-03,1.14E-02
79854,8.45E-03,1.01E-02
79855,6.19E-03,1.01E-02
79856,6.60E-03,1.03E-02
79857,7.14E-03,1.04E-02
79858,7.41E-03,1.17E-02
79859,8.01E-03,1.18E-02
79860,7.18E-03,1.18E-02
79861,7.14E-03,1.18E-02
79862,6.10E-03,1.16E-02
79863,6.52E-03,1.17E-02
79864,8.62E-03,5.24E-03
79865,8.21E-03,5.21E-03
79866,6.98E-03,5.26E-03
79867,9.24E-03,4.13E-02
79868,8.28E-03,4.15E-02
79869,7.35E-03,4.06E-02
79870,7.71E-03,4.05E-02
79871,9.07E-03,1.20E-02
79872,9.35E-03,1.21E-02
79873,7.69E-03,1.21E-02
79874,8.06E-03,1.21E-02
79875,7.73E-03,1.18E-02
79876,7.67E-03,1.19E-02
79877,1.14E-02,1.52E-02
79878,1.21E-02,1.55E-02
79879,9.05E-03,1.57E-02
79880,9.78E-03,1.97E-02
79881,9.92E-03,2.01E-02
79882,8.31E-03,2.04E-02
79883,5.29E-03,1.81E-02
79884,7.19E-03,1.81E-02
79885,8.17E-03,1.80E-02
79886,5.99E-03,1.94E-02
79887,5.48E-03,1.94E-02
79888,5.73E-03,1.94E-02
79889,7.32E-03,2.76E-04
79890,9.30E-03,2.47E-04
79891,6.63E-03,2.62E-04
79892,5.51E-03,2.80E-04
79893,6.38E-03,1.15E-02
79894,7.02E-03,1.15E-02
79895,7.19E-03,1.14E-02
79896,7.22E-03,1.15E-02
79897,8.39E-03,1.20E-02
79898,8.86E-03,1.20E-02
79899,7.53E-03,1.20E-02
79900,9.62E-03,1.18E-02
79901,9.90E-03,1.17E-02
79902,1.00E-02,1.17E-02
79903,9.20E-03,1.18E-02
79904,9.57E-03,1.19E-02
79905,7.48E-03,1.19E-02
79906,7.05E-03,1.18E-02
79907,8.48E-03,1.18E-02
79908,8.53E-03,1.19E-02
79909,1.05E-02,1.19E-02
79910,9.21E-03,1.18E-02
79911,9.60E-03,1.25E-02
79912,1.04E-02,1.24E-02
79913,1.03E-02,1.25E-02
79914,8.51E-03,1.42E-02
79915,7.70E-03,1.43E-02
79916,6.03E-03,1.43E-02
79917,8.53E-03,1.40E-02
79918,5.09E-03,1.08E-02
79919,6.71E-03,1.07E-02
79920,6.73E-03,1.07E-02
79921,4.90E-03,1.07E-02
79922,4.77E-03,1.08E-02
79923,8.68E-03,1.28E-02
79924,7.91E-03,1.29E-02
79925,7.40E-03,1.28E-02
79926,5.36E-03,1.16E-02
79927,7.52E-03,1.16E-02
79928,6.73E-03,1.15E-02
79929,4.89E-03,1.15E-02
79930,5.09E-03,1.15E-02
79931,6.33E-03,1.47E-02
79932,7.01E-03,1.45E-02
79933,9.16E-03,1.50E-02
79934,1.04E-02,1.50E-02
79935,8.99E-03,1.50E-02
79936,9.39E-03,1.58E-02
79937,9.26E-03,1.61E-02
79938,1.20E-02,1.67E-02
79939,1.17E-02,1.63E-02
79940,1.08E-02,1.61E-02
79941,1.10E-02,1.03E-02
79942,1.10E-02,1.03E-02
79943,8.97E-03,1.04E-02
79944,8.25E-03,1.59E-02
79945,8.11E-03,1.55E-02
79946,8.52E-03,1.58E-02
79947,5.03E-03,9.89E-03
79948,7.00E-03,9.84E-03
79949,6.47E-03,9.94E-03
79950,4.66E-03,9.96E-03
79951,5.07E-03,9.96E-03
79952,5.26E-03,1.10E-02
79953,7.61E-03,1.11E-02
79954,7.02E-03,1.08E-02
79955,4.84E-03,1.08E-02
79956,4.56E-03,1.09E-02
79957,1.01E-02,1.69E-02
79958,1.07E-02,1.68E-02
79959,1.03E-02,1.67E-02
79960,1.11E-02,1.72E-02
79961,9.82E-03,1.02E-02
79962,9.29E-03,1.01E-02
79963,9.95E-03,1.02E-02
79964,9.21E-03,1.00E-02
79965,1.02E-02,1.02E-02
79966,1.06E-02,1.04E-02
79967,1.02E-02,1.06E-02
79968,9.58E-03,1.66E-02
79969,9.14E-03,1.64E-02
79970,8.80E-03,1.63E-02
79971,8.56E-03,1.07E-02
79972,9.36E-03,1.10E-02
79973,1.13E-02,1.09E-02
79974,9.39E-03,1.50E-02
79975,8.89E-03,1.50E-02
79976,7.55E-03,1.50E-02
79977,3.62E-03,9.28E-03
79978,5.73E-03,9.33E-03
79979,4.56E-03,9.23E-03
79980,3.09E-03,9.22E-03
79981,3.57E-03,9.21E-03
79982,8.13E-03,2.09E-02
79983,8.91E-03,2.09E-02
79984,9.29E-03,2.07E-02
79985,8.07E-03,2.13E-02
79986,1.01E-02,2.28E-02
79987,1.04E-02,2.34E-02
79988,1.04E-02,2.34E-02
79989,9.90E-03,8.26E-03
79990,9.41E-03,8.27E-03
79991,4.22E-03,1.52E-02
79992,6.76E-03,1.49E-02
79993,6.33E-03,1.53E-02
79994,4.06E-03,1.54E-02
79995,4.15E-03,1.55E-02
79996,1.09E-02,1.15E-02
79997,1.09E-02,1.18E-02
79998,1.02E-02,1.21E-02
79999,8.72E-03,6.73E-03
80000,8.14E-03,6.82E-03
80001,8.81E-03,7.14E-03
80002,7.72E-03,8.16E-03
80003,8.37E-03,8.20E-03
80004,8.87E-03,8.31E-03
80005,9.31E-03,8.12E-03
80006,1.02E-02,8.00E-03
80007,9.12E-03,8.36E-03
80008,7.74E-03,7.99E-03
80009,9.28E-03,8.09E-03
80010,9.14E-03,8.13E-03
80011,8.81E-03,7.96E-03
80012,1.07E-02,5.56E-03
80013,1.02E-02,5.80E-03
80014,1.06E-02,6.09E-03
80015,9.91E-03,3.25E-02
80016,1.02E-02,3.36E-02
80017,1.01E-02,3.34E-02
80018,9.23E-03,2.33E-02
80019,1.04E-02,2.42E-02
80020,9.16E-03,2.41E-02
80021,1.05E-02,2.33E-02
80022,1.03E-02,4.06E-02
80023,9.70E-03,4.31E-02
80024,1.02E-02,4.24E-02
80025,1.04E-02,7.25E-03
80026,1.09E-02,6.63E-03
80027,8.28E-03,6.88E-03
80028,9.67E-03,1.91E-02
80029,8.36E-03,1.93E-02
80030,8.91E-03,1.91E-02
80031,4.54E-03,3.76E-02
80032,7.69E-03,3.72E-02
80033,6.11E-03,3.76E-02
80034,4.20E-03,3.79E-02
80035,4.47E-03,3.81E-02
80036,1.06E-02,5.63E-02
80037,9.66E-03,6.12E-02
80038,1.04E-02,5.94E-02
80039,9.60E-03,5.80E-02
80040,1.05E-02,1.86E-02
80041,1.08E-02,1.92E-02
80042,9.79E-03,1.99E-02
80043,1.07E-02,3.49E-02
80044,1.13E-02,3.36E-02
80045,1.07E-02,3.44E-02
80046,4.60E-03,6.46E-02
80047,6.17E-03,6.40E-02
80048,6.01E-03,5.93E-02
80049,4.50E-03,6.08E-02
80050,4.39E-03,6.34E-02
80051,9.79E-03,2.68E-02
80052,9.36E-03,2.63E-02
80053,1.01E-02,2.64E-02
80054,4.85E-03,8.93E-02
80055,6.47E-03,8.64E-02
80056,6.52E-03,7.56E-02
80057,5.20E-03,8.04E-02
80058,4.78E-03,8.73E-02
80059,1.01E-02,1.38E-02
80060,1.15E-02,1.52E-02
80061,1.13E-02,1.43E-02
80062,1.15E-02,1.46E-02
80063,4.66E-03,2.67E-02
80064,6.73E-03,2.68E-02
80065,6.41E-03,2.55E-02
80066,4.61E-03,2.53E-02
80067,4.04E-03,2.61E-02
80068,1.14E-02,2.54E-02
80069,1.14E-02,2.25E-02
80070,1.06E-02,2.20E-02
80071,1.23E-02,2.44E-04
80072,6.75E-03,2.58E-04
80073,9.29E-03,2.71E-04
80074,9.46E-03,1.49E-03
80075,7.86E-03,1.45E-03
80076,6.13E-03,1.50E-03
80077,8.77E-03,1.59E-03
80078,8.94E-03,2.72E-03
80079,8.83E-03,2.61E-03
80080,7.81E-03,2.53E-03
80081,8.95E-03,1.21E-03
80082,8.38E-03,1.14E-03
80083,9.34E-03,1.24E-03
80084,4.89E-03,2.89E-04
80085,7.07E-03,2.47E-04
80086,7.33E-03,2.02E-04
80087,5.18E-03,2.58E-04
80088,4.71E-03,3.13E-04
80089,7.34E-03,8.94E-04
80090,9.55E-03,7.82E-04
80091,8.85E-03,8.64E-04
80092,1.01E-02,1.42E-02
80093,8.38E-03,1.43E-02
80094,1.03E-02,1.46E-02
80095,1.26E-02,1.10E-02
80096,1.32E-02,1.08E-02
80097,1.25E-02,1.10E-02
80098,9.20E-03,5.61E-03
80099,7.74E-03,6.08E-03
80100,7.79E-03,6.36E-03
80101,9.30E-03,1.67E-02
80102,1.01E-02,1.58E-02
80103,6.86E-03,8.60E-03
80104,7.30E-03,8.66E-03
80105,5.20E-03,8.38E-03
80106,8.04E-03,8.11E-03
80107,7.64E-03,8.12E-03
80108,7.61E-03,7.97E-03
80109,7.75E-03,7.62E-03
80110,6.48E-03,7.72E-03
80111,7.38E-03,1.59E-02
80112,9.86E-03,8.82E-03
80113,9.64E-03,8.66E-03
80114,9.21E-03,1.53E-02
80115,9.36E-03,1.50E-02
80116,1.11E-02,1.55E-02
80117,1.19E-02,1.57E-02
80118,6.26E-03,1.95E-02
80119,4.49E-03,1.93E-02
80120,8.71E-03,1.21E-02
80121,6.82E-03,1.20E-02
80122,5.34E-03,1.46E-02
80123,7.60E-03,1.47E-02
80124,8.00E-03,1.26E-02
80125,8.04E-03,1.27E-02
80126,9.30E-03,1.45E-02
80127,9.31E-03,1.45E-02
80128,4.90E-03,1.44E-02
80129,6.48E-03,1.44E-02
80130,7.15E-03,1.44E-02
80131,7.64E-03,1.41E-02
80132,7.64E-03,1.49E-02
80133,4.86E-03,1.53E-02
80134,9.60E-03,1.07E-02
80135,6.16E-03,1.07E-02
80136,8.88E-03,1.08E-02
80137,8.28E-03,1.07E-02
80138,3.89E-03,1.10E-02
80139,3.15E-03,1.12E-02
80140,6.69E-03,1.38E-02
80141,6.75E-03,1.38E-02
80142,6.00E-03,1.65E-02
80143,6.07E-03,1.64E-02
80144,8.26E-03,1.85E-02
80145,8.63E-03,1.89E-02
80146,8.60E-03,1.98E-02
80147,9.56E-03,2.00E-02
80148,4.99E-03,1.68E-02
80149,6.82E-03,1.68E-02
80150,1.19E-02,1.46E-02
80151,1.12E-02,1.44E-02
80152,7.88E-03,9.44E-03
80153,8.23E-03,9.46E-03
80154,5.73E-03,1.19E-02
80155,8.12E-03,1.19E-02
80156,3.76E-03,9.10E-03
80157,5.68E-03,9.09E-03
80158,4.88E-03,8.98E-03
80159,6.21E-03,8.97E-03
80160,7.31E-03,1.57E-02
80161,4.34E-03,1.62E-02
80162,7.47E-03,6.71E-03
80163,5.99E-03,6.81E-03
80164,5.92E-03,1.87E-02
80165,7.77E-03,1.86E-02
80166,8.30E-03,9.53E-03
80167,5.96E-03,9.57E-03
80168,8.46E-03,1.96E-02
80169,7.44E-03,1.95E-02
80170,1.22E-02,1.40E-02
80171,1.17E-02,1.44E-02
80172,8.44E-03,1.18E-02
80173,9.27E-03,1.21E-02
80174,8.08E-03,1.05E-02
80175,8.07E-03,1.04E-02
80176,5.54E-03,2.36E-02
80177,7.79E-03,2.38E-02
80178,4.19E-03,1.92E-02
80179,5.54E-03,1.91E-02
80180,5.91E-03,5.52E-03
80181,4.28E-03,5.56E-03
80182,4.80E-03,5.36E-03
80183,6.33E-03,5.45E-03
80184,6.21E-03,2.41E-02
80185,5.17E-03,0.11817
80186,6.73E-03,0.12897
80187,6.69E-03,9.73E-04
80188,7.37E-03,9.51E-04
80189,4.83E-03,2.11E-02
80190,6.53E-03,2.09E-02
80191,6.81E-03,1.06E-03
80192,7.87E-03,1.15E-03
80193,8.94E-03,1.76E-02
80194,7.80E-03,1.76E-02
80195,6.39E-03,1.75E-02
80196,1.17E-02,1.54E-02
80197,8.93E-03,1.51E-02
80198,1.12E-02,1.05E-02
80199,1.05E-02,1.06E-02
80200,1.06E-02,2.57E-02
80201,1.12E-02,2.54E-02
80202,9.64E-03,2.47E-02
80203,9.14E-03,2.51E-02
80204,8.65E-03,2.65E-02
80205,8.37E-03,2.59E-02
80206,6.51E-03,4.38E-03
80207,5.36E-03,4.64E-03
80208,4.69E-03,4.50E-03
80209,8.83E-03,4.45E-03
80210,8.66E-03,4.19E-03
80211,8.11E-03,4.80E-02
80212,8.13E-03,4.99E-02
80213,7.39E-03,4.97E-02
80214,6.95E-03,4.80E-02
80215,8.89E-03,1.18E-02
80216,4.57E-03,1.44E-02
80217,8.01E-03,1.42E-02
80218,9.14E-03,3.88E-02
80219,8.48E-03,3.92E-02
80220,7.17E-03,3.93E-02
80221,6.15E-03,5.33E-02
80222,8.10E-03,5.34E-02
80223,5.81E-03,2.04E-02
80224,8.22E-03,2.01E-02
80225,6.83E-03,2.05E-02
80226,1.82E-03,1.42E-02
80227,7.77E-03,1.42E-02
80228,6.75E-03,1.40E-02
80229,8.35E-03,1.39E-02
80230,6.93E-03,1.38E-02
80231,6.89E-03,1.64E-02
80232,9.70E-03,1.64E-02
80233,9.52E-03,1.63E-02
80234,7.52E-03,1.64E-02
80235,4.84E-03,1.50E-02
80236,8.51E-03,1.51E-02
80237,7.06E-03,1.89E-02
80238,7.20E-03,1.85E-02
80239,7.20E-03,1.89E-02
80240,7.54E-03,9.21E-03
80241,7.54E-03,8.71E-03
80242,7.11E-03,9.17E-03
80243,9.91E-03,3.31E-03
80244,8.55E-03,3.28E-03
80245,6.98E-03,3.17E-03
80246,7.30E-03,3.03E-04
80247,5.86E-03,2.93E-04
80248,5.82E-03,2.96E-04
80249,1.16E-02,1.54E-02
80250,1.27E-02,1.53E-02
80251,9.49E-03,1.38E-02
80252,9.20E-03,1.38E-02
80253,7.81E-03,1.23E-02
80254,9.24E-03,1.23E-02
80255,8.23E-03,1.23E-02
80256,8.36E-03,1.22E-02
80257,7.82E-03,1.22E-02
80258,7.81E-03,1.22E-02
80259,8.18E-03,1.22E-02
80260,6.20E-03,1.23E-02
80261,7.47E-03,1.22E-02
80262,1.01E-02,1.46E-02
80263,1.03E-02,1.47E-02
80264,9.38E-03,1.46E-02
80265,9.71E-03,1.42E-02
80266,6.95E-03,1.19E-02
80267,6.81E-03,1.25E-02
80268,7.21E-03,1.25E-02
80269,7.20E-03,1.23E-02
80270,6.84E-03,1.23E-02
80271,5.72E-03,1.25E-02
80272,5.85E-03,1.24E-02
80273,1.07E-02,1.11E-02
80274,1.10E-02,1.12E-02
80275,9.98E-03,1.13E-02
80276,8.37E-03,1.38E-02
80277,8.18E-03,1.38E-02
80278,7.72E-03,1.37E-02
80279,4.67E-03,1.25E-02
80280,6.62E-03,1.25E-02
80281,9.02E-03,1.35E-02
80282,8.65E-03,1.35E-02
80283,8.32E-03,1.33E-02
80284,8.43E-03,1.37E-02
80285,8.87E-03,1.37E-02
80286,6.31E-03,1.35E-02
80287,9.20E-03,1.20E-02
80288,8.32E-03,1.37E-02
80289,8.36E-03,1.37E-02
80290,7.79E-03,1.35E-02
80291,7.92E-03,1.34E-02
80292,6.61E-03,1.38E-02
80293,7.38E-03,1.36E-02
80294,8.89E-03,1.54E-02
80295,1.02E-02,1.54E-02
80296,9.09E-03,1.54E-02
80297,8.56E-03,1.17E-02
80298,8.65E-03,1.17E-02
80299,7.51E-03,1.19E-02
80300,7.25E-03,1.19E-02
80301,6.95E-03,1.43E-02
80302,6.75E-03,1.46E-02
80303,7.32E-03,1.40E-02
80304,8.99E-03,1.21E-02
80305,9.26E-03,1.24E-02
80306,8.95E-03,1.24E-02
80307,9.72E-03,1.46E-02
80308,9.38E-03,1.46E-02
80309,7.59E-03,1.47E-02
80310,8.91E-03,1.08E-02
80311,9.20E-03,1.07E-02
80312,5.59E-03,1.14E-02
80313,6.96E-03,1.14E-02
80314,6.89E-03,1.47E-02
80315,6.78E-03,1.46E-02
80316,6.04E-03,1.47E-02
80317,6.78E-03,1.46E-02
80318,6.33E-03,1.45E-02
80319,9.66E-03,1.49E-02
80320,9.83E-03,1.48E-02
80321,9.35E-03,1.47E-02
80322,7.43E-03,1.14E-02
80323,7.05E-03,1.12E-02
80324,7.42E-03,1.13E-02
80325,8.16E-03,1.14E-02
80326,9.85E-03,1.11E-02
80327,9.83E-03,1.13E-02
80328,8.05E-03,1.09E-02
80329,6.91E-03,1.08E-02
80330,9.31E-03,1.32E-02
80331,8.81E-03,1.35E-02
80332,1.02E-02,1.03E-02
80333,9.40E-03,1.03E-02
80334,7.72E-03,1.63E-02
80335,9.43E-03,1.64E-02
80336,3.51E-03,1.64E-02
80337,6.52E-03,1.04E-02
80338,6.69E-03,1.05E-02
80339,1.01E-02,1.12E-02
80340,7.04E-03,1.13E-02
80341,8.30E-03,1.54E-02
80342,1.02E-02,1.55E-02
80343,8.42E-03,1.55E-02
80344,6.87E-03,1.55E-02
80345,1.00E-02,1.54E-02
80346,4.50E-03,1.08E-02
80347,4.97E-03,1.09E-02
80348,7.39E-03,9.90E-03
80349,7.42E-03,1.01E-02
80350,1.05E-02,1.37E-02
80351,9.18E-03,1.38E-02
80352,1.01E-02,1.35E-02
80353,8.76E-03,1.60E-02
80354,8.81E-03,1.60E-02
80355,8.81E-03,1.59E-02
80356,1.12E-02,1.01E-02
80357,1.09E-02,1.02E-02
80358,1.16E-02,1.77E-02
80359,1.19E-02,1.77E-02
80360,1.27E-02,1.72E-02
80361,8.05E-03,1.92E-02
80362,6.31E-03,1.93E-02
80363,6.19E-03,1.88E-02
80364,7.52E-03,1.88E-02
80365,8.46E-03,1.50E-02
80366,8.14E-03,1.50E-02
80367,5.98E-03,1.49E-02
80368,5.78E-03,9.80E-03
80369,5.36E-03,9.73E-03
80370,5.92E-03,9.81E-03
80371,8.41E-03,2.01E-02
80372,9.17E-03,1.98E-02
80373,8.11E-03,1.95E-02
80374,9.10E-03,2.00E-02
80375,8.76E-03,2.00E-02
80376,9.37E-03,1.85E-02
80377,6.57E-03,1.83E-02
80378,8.02E-03,1.83E-02
80379,8.54E-03,1.85E-02
80380,7.78E-03,9.49E-03
80381,6.83E-03,9.39E-03
80382,6.18E-03,9.45E-03
80383,6.79E-03,9.53E-03
80384,7.95E-03,7.92E-03
80385,8.50E-03,8.02E-03
80386,9.39E-03,8.29E-03
80387,6.51E-03,9.14E-03
80388,8.06E-03,9.22E-03
80389,8.18E-03,1.51E-02
80390,1.17E-02,8.11E-03
80391,1.14E-02,7.74E-03
80392,6.01E-03,1.76E-02
80393,7.00E-03,1.80E-02
80394,9.24E-03,7.23E-03
80395,7.93E-03,7.25E-03
80396,5.96E-03,7.43E-03
80397,1.07E-02,9.13E-03
80398,1.18E-02,9.00E-03
80399,8.23E-03,8.71E-03
80400,9.33E-03,8.52E-03
80401,8.92E-03,2.19E-02
80402,9.61E-03,2.15E-02
80403,8.91E-03,2.19E-02
80404,6.98E-03,1.59E-02
80405,8.83E-03,1.61E-02
80406,8.65E-03,7.38E-03
80407,1.01E-02,7.69E-03
80408,9.33E-03,7.94E-03
80409,7.27E-03,1.14E-02
80410,7.21E-03,1.15E-02
80411,7.35E-03,1.14E-02
80412,7.44E-03,1.13E-02
80413,7.41E-03,1.13E-02
80414,6.97E-03,1.73E-02
80415,9.14E-03,1.72E-02
80416,7.46E-03,1.02E-02
80417,5.70E-03,1.04E-02
80418,7.10E-03,5.99E-03
80419,7.71E-03,6.15E-03
80420,8.81E-03,6.40E-03
80421,7.63E-03,8.02E-03
80422,9.25E-03,8.15E-03
80423,8.99E-03,8.30E-03
80424,8.77E-03,1.81E-02
80425,5.92E-03,1.84E-02
80426,5.76E-03,1.86E-02
80427,9.93E-03,1.85E-02
80428,7.21E-03,1.83E-02
80429,6.35E-03,1.82E-02
80430,7.68E-03,1.12E-02
80431,7.82E-03,1.13E-02
80432,7.84E-03,1.14E-02
80433,5.71E-03,1.77E-02
80434,5.08E-03,1.78E-02
80435,4.97E-03,1.78E-02
80436,8.06E-03,1.76E-02
80437,6.72E-03,1.77E-02
80438,8.86E-03,6.99E-03
80439,9.33E-03,7.30E-03
80440,5.55E-03,7.59E-03
80441,7.07E-03,5.57E-03
80442,8.14E-03,1.78E-02
80443,7.90E-03,1.77E-02
80444,7.66E-03,1.76E-02
80445,8.19E-03,1.77E-02
80446,8.14E-03,1.79E-02
80447,6.86E-03,1.75E-02
80448,1.03E-02,8.35E-03
80449,8.69E-03,8.31E-03
80450,1.04E-02,8.48E-03
80451,9.63E-03,7.91E-03
80452,7.33E-03,7.87E-03
80453,7.41E-03,1.20E-02
80454,5.92E-03,1.20E-02
80455,9.02E-03,1.09E-02
80456,8.64E-03,1.09E-02
80457,5.57E-03,1.08E-02
80458,7.91E-03,7.81E-03
80459,8.60E-03,7.75E-03
80460,7.42E-03,7.88E-03
80461,6.64E-03,7.92E-03
80462,9.17E-03,7.92E-03
80463,6.78E-03,7.82E-03
80464,9.26E-03,2.05E-02
80465,1.08E-02,2.04E-02
80466,9.96E-03,2.02E-02
80467,5.27E-03,1.85E-02
80468,7.28E-03,1.84E-02
80469,5.44E-03,1.47E-02
80470,6.12E-03,1.47E-02
80471,9.66E-03,1.84E-02
80472,8.95E-03,1.85E-02
80473,7.48E-03,1.86E-02
80474,8.39E-03,7.46E-03
80475,8.20E-03,7.49E-03
80476,1.14E-02,1.07E-02
80477,1.05E-02,1.08E-02
80478,1.20E-02,2.19E-02
80479,1.01E-02,2.21E-02
80480,8.38E-03,8.45E-03
80481,6.08E-03,8.51E-03
80482,6.49E-03,8.32E-03
80483,9.62E-03,3.53E-03
80484,1.08E-02,3.77E-03
80485,1.01E-02,4.00E-03
80486,9.16E-03,3.63E-02
80487,8.33E-03,3.53E-02
80488,6.92E-03,3.54E-02
80489,8.03E-03,3.61E-02
80490,4.11E-03,2.82E-02
80491,5.84E-03,2.80E-02
80492,7.39E-03,1.82E-02
80493,7.90E-03,1.81E-02
80494,1.10E-02,2.28E-02
80495,8.68E-03,2.24E-02
80496,8.22E-03,2.29E-02
80497,9.21E-03,3.63E-02
80498,8.07E-03,3.69E-02
80499,7.27E-03,3.68E-02
80500,7.81E-03,3.63E-02
80501,4.59E-03,3.73E-02
80502,6.14E-03,3.80E-02
80503,7.83E-03,3.90E-02
80504,9.01E-03,1.01E-02
80505,8.27E-03,1.07E-02
80506,7.34E-03,9.60E-03
80507,7.03E-03,5.94E-03
80508,7.70E-03,6.05E-03
80509,7.54E-03,7.75E-03
80510,5.13E-03,7.83E-03
80511,5.44E-03,7.64E-03
80512,7.94E-03,9.77E-03
80513,9.11E-03,9.76E-03
80514,1.00E-02,9.90E-03
80515,9.45E-03,1.26E-02
80516,1.05E-02,1.26E-02
80517,9.31E-03,1.27E-02
80518,7.97E-03,7.30E-03
80519,7.87E-03,7.02E-03
80520,7.12E-03,7.53E-03
80521,6.78E-03,7.74E-03
80522,7.26E-03,7.22E-03
80523,7.39E-03,7.67E-03
80524,1.13E-02,1.27E-02
80525,1.01E-02,1.28E-02
80526,9.30E-03,1.29E-02
80527,8.43E-03,4.15E-02
80528,8.30E-03,4.09E-02
80529,7.80E-03,1.83E-02
80530,9.43E-03,1.92E-02
80531,8.78E-03,1.99E-02
80532,7.80E-03,1.56E-02
80533,6.53E-03,1.60E-02
80534,9.18E-03,1.99E-02
80535,6.78E-03,1.98E-02
80536,7.48E-03,1.99E-02
80537,1.18E-02,6.31E-03
80538,1.13E-02,6.38E-03
80539,1.06E-02,6.40E-04
80540,9.81E-03,9.21E-04
80541,9.11E-03,1.62E-02
80542,9.30E-03,1.65E-02
80543,4.88E-03,1.97E-02
80544,6.41E-03,1.96E-02
80545,1.08E-02,3.99E-03
80546,1.01E-02,4.40E-03
80547,7.71E-03,2.72E-02
80548,8.99E-03,2.71E-02
80549,8.40E-03,2.69E-02
80550,8.16E-03,4.43E-03
80551,5.06E-03,4.46E-03
80552,5.69E-03,5.00E-03
80553,6.74E-03,5.11E-03
80554,9.09E-03,2.69E-02
80555,1.08E-02,2.69E-02
80556,9.57E-03,2.70E-02
80557,9.08E-03,4.34E-02
80558,9.07E-03,4.38E-02
80559,7.28E-03,4.32E-02
80560,7.21E-03,4.29E-02
80561,7.55E-03,4.34E-02
80562,7.96E-03,4.28E-02
80563,5.37E-03,3.20E-02
80564,7.34E-03,3.14E-02
80565,7.73E-03,2.09E-02
80566,6.97E-03,2.07E-02
80567,8.37E-03,2.01E-02
80568,9.97E-03,2.31E-02
80569,8.75E-03,2.39E-02
80570,9.56E-03,1.50E-02
80571,9.82E-03,1.63E-02
80572,9.92E-03,1.38E-02
80573,9.35E-03,2.04E-02
80574,7.18E-03,1.96E-02
80575,6.60E-03,1.89E-02
80576,9.71E-03,1.70E-02
80577,9.34E-03,1.78E-02
80578,9.10E-03,2.28E-02
80579,8.94E-03,2.32E-02
80580,8.23E-03,2.36E-04
80581,9.23E-03,2.65E-04
80582,8.22E-03,2.86E-04
80583,6.27E-03,3.25E-04
80584,6.23E-03,3.18E-04
80585,5.42E-03,2.99E-04
80586,8.20E-03,2.99E-04
80587,8.92E-03,2.53E-04
80588,7.21E-03,3.22E-04
80589,7.98E-03,1.75E-03
80590,9.20E-03,1.81E-03
80591,8.20E-03,1.87E-03
80592,8.39E-03,8.98E-04
80593,9.44E-03,8.72E-04
80594,8.68E-03,8.51E-04
80595,5.32E-03,2.05E-04
80596,6.19E-03,1.91E-04
80597,9.17E-03,4.37E-04
80598,1.02E-02,5.04E-04
80599,8.61E-03,5.51E-04
80600,7.33E-03,4.74E-04
80601,7.86E-03,5.64E-04
80602,6.21E-03,9.67E-04
80603,6.75E-03,1.03E-03
80604,6.06E-03,1.10E-03
80605,7.08E-03,1.21E-03
80606,7.27E-03,3.42E-04
80607,7.76E-03,2.36E-04
80608,9.09E-03,3.80E-04
80609,5.32E-03,1.32E-02
80610,4.58E-03,1.32E-02
80611,5.30E-03,1.32E-02
80612,4.87E-03,1.31E-02
80613,5.61E-03,1.31E-02
80614,5.08E-03,1.31E-02
80615,6.08E-03,1.19E-02
80616,6.16E-03,1.20E-02
80617,3.35E-03,1.19E-02
80618,4.66E-03,1.19E-02
80619,4.49E-03,1.15E-02
80620,4.73E-03,1.15E-02
80621,4.74E-03,1.14E-02
80622,7.03E-03,1.23E-02
80623,5.91E-03,1.24E-02
80624,4.18E-03,1.24E-02
80625,4.37E-03,1.24E-02
80626,5.49E-03,1.48E-02
80627,5.76E-03,1.49E-02
80628,6.54E-03,1.49E-02
80629,4.91E-03,1.25E-02
80630,5.22E-03,1.26E-02
80631,5.12E-03,1.26E-02
80632,6.39E-03,1.24E-02
80633,6.26E-03,1.23E-02
80634,5.55E-03,1.24E-02
80635,5.24E-03,1.35E-02
80636,4.91E-03,1.34E-02
80637,6.04E-03,1.36E-02
80638,5.56E-03,1.33E-02
80639,6.74E-03,1.33E-02
80640,5.46E-03,1.35E-02
80641,5.50E-03,1.46E-02
80642,5.55E-03,1.46E-02
80643,5.63E-03,1.46E-02
80644,5.76E-03,1.15E-02
80645,5.62E-03,1.16E-02
80646,5.46E-03,1.16E-02
80647,5.53E-03,1.37E-02
80648,5.54E-03,1.35E-02
80649,5.46E-03,1.36E-02
80650,7.94E-03,1.40E-02
80651,6.01E-03,1.40E-02
80652,7.17E-03,1.37E-02
80653,7.22E-03,1.36E-02
80654,6.06E-03,1.40E-02
80655,6.80E-03,1.42E-02
80656,7.69E-03,1.42E-02
80657,6.38E-03,1.45E-02
80658,5.27E-03,1.42E-02
80659,5.30E-03,1.43E-02
80660,6.77E-03,1.44E-02
80661,6.90E-03,1.41E-02
80662,5.01E-03,1.49E-02
80663,5.46E-03,1.48E-02
80664,4.85E-03,1.49E-02
80665,3.66E-03,1.56E-02
80666,4.20E-03,1.55E-02
80667,4.27E-03,1.56E-02
80668,5.74E-03,1.05E-02
80669,6.04E-03,1.05E-02
80670,6.15E-03,1.04E-02
80671,5.97E-03,1.24E-02
80672,5.93E-03,1.22E-02
80673,5.40E-03,1.24E-02
80674,5.37E-03,1.48E-02
80675,6.12E-03,1.49E-02
80676,5.27E-03,1.48E-02
80677,4.50E-03,1.60E-02
80678,4.55E-03,1.60E-02
80679,4.48E-03,1.60E-02
80680,5.69E-03,1.09E-02
80681,5.35E-03,1.08E-02
80682,5.13E-03,1.08E-02
80683,5.69E-03,1.18E-02
80684,7.36E-03,1.20E-02
80685,6.47E-03,1.19E-02
80686,4.26E-03,1.06E-02
80687,3.53E-03,1.05E-02
80688,6.82E-03,1.05E-02
80689,7.21E-03,1.06E-02
80690,5.91E-03,1.39E-02
80691,7.28E-03,1.40E-02
80692,6.37E-03,1.40E-02
80693,4.77E-03,1.47E-02
80694,4.80E-03,1.46E-02
80695,4.47E-03,1.46E-02
80696,5.71E-03,1.53E-02
80697,5.85E-03,1.51E-02
80698,5.49E-03,1.52E-02
80699,5.27E-03,1.04E-02
80700,6.69E-03,1.04E-02
80701,5.74E-03,1.04E-02
80702,5.14E-03,1.63E-02
80703,5.33E-03,1.62E-02
80704,4.97E-03,1.61E-02
80705,7.04E-03,1.60E-02
80706,7.76E-03,1.63E-02
80707,5.77E-03,1.63E-02
80708,6.59E-03,1.61E-02
80709,5.56E-03,1.63E-02
80710,4.74E-03,1.65E-02
80711,4.44E-03,1.65E-02
80712,5.32E-03,9.88E-03
80713,5.66E-03,9.68E-03
80714,4.57E-03,9.83E-03
80715,6.64E-03,1.70E-02
80716,7.95E-03,1.69E-02
80717,6.50E-03,1.67E-02
80718,4.53E-03,1.92E-02
80719,6.56E-03,1.93E-02
80720,5.39E-03,1.19E-02
80721,6.30E-03,1.17E-02
80722,5.29E-03,1.19E-02
80723,5.51E-03,9.96E-03
80724,6.17E-03,1.00E-02
80725,9.88E-03,1.01E-02
80726,6.14E-03,1.60E-02
80727,6.16E-03,1.62E-02
80728,5.96E-03,1.61E-02
80729,5.05E-03,9.60E-03
80730,4.88E-03,9.34E-03
80731,6.56E-03,9.44E-03
80732,7.85E-03,1.79E-02
80733,6.56E-03,1.79E-02
80734,6.48E-03,1.99E-02
80735,6.71E-03,1.97E-02
80736,4.67E-03,1.95E-02
80737,4.92E-03,1.96E-02
80738,1.12E-02,9.55E-03
80739,9.87E-03,9.49E-03
80740,9.40E-03,9.40E-03
80741,1.11E-02,9.45E-03
80742,5.92E-03,9.44E-03
80743,5.97E-03,9.55E-03
80744,5.79E-03,9.60E-03
80745,5.41E-03,9.61E-03
80746,6.70E-03,9.71E-03
80747,5.69E-03,9.63E-03
80748,4.96E-03,2.03E-02
80749,5.12E-03,2.07E-02
80750,5.30E-03,2.07E-02
80751,4.50E-03,1.47E-02
80752,4.45E-03,1.47E-02
80753,4.51E-03,1.47E-02
80754,6.04E-03,9.14E-03
80755,6.85E-03,9.03E-03
80756,5.65E-03,9.11E-03
80757,5.03E-03,1.87E-02
80758,5.25E-03,1.84E-02
80759,5.71E-03,1.83E-02
80760,4.34E-03,9.89E-03
80761,4.52E-03,9.74E-03
80762,4.37E-03,1.00E-02
80763,5.40E-03,7.69E-03
80764,5.20E-03,7.60E-03
80765,5.58E-03,7.79E-03
80766,6.90E-03,7.93E-03
80767,4.87E-03,9.19E-03
80768,5.14E-03,9.23E-03
80769,4.98E-03,9.28E-03
80770,5.34E-03,2.18E-02
80771,6.01E-03,2.16E-02
80772,6.50E-03,2.19E-02
80773,6.11E-03,1.36E-02
80774,6.02E-03,1.38E-02
80775,7.08E-03,1.34E-02
80776,5.85E-03,1.26E-02
80777,7.33E-03,1.28E-02
80778,6.15E-03,1.27E-02
80779,3.88E-03,7.40E-03
80780,4.81E-03,7.58E-03
80781,4.31E-03,7.42E-03
80782,6.66E-03,1.53E-02
80783,5.45E-03,1.52E-02
80784,7.97E-03,1.52E-02
80785,5.58E-03,8.85E-03
80786,5.79E-03,8.82E-03
80787,5.50E-03,8.90E-03
80788,5.26E-03,1.84E-02
80789,5.16E-03,1.85E-02
80790,6.14E-03,1.83E-02
80791,2.81E-03,8.65E-03
80792,3.30E-03,8.58E-03
80793,3.11E-03,8.63E-03
80794,6.32E-03,1.46E-02
80795,6.43E-03,1.49E-02
80796,5.28E-03,1.46E-02
80797,5.18E-03,1.08E-02
80798,6.37E-03,1.10E-02
80799,5.90E-03,1.08E-02
80800,8.69E-03,1.24E-02
80801,6.72E-03,1.23E-02
80802,7.51E-03,1.22E-02
80803,8.20E-03,1.24E-02
80804,5.97E-03,1.14E-02
80805,7.78E-03,1.18E-02
80806,6.71E-03,1.16E-02
80807,4.84E-03,6.42E-03
80808,5.25E-03,6.29E-03
80809,5.01E-03,6.53E-03
80810,4.62E-03,1.29E-02
80811,3.79E-03,1.29E-02
80812,4.06E-03,1.32E-02
80813,5.55E-03,8.41E-03
80814,6.49E-03,8.33E-03
80815,5.74E-03,8.42E-03
80816,5.22E-03,5.68E-03
80817,4.32E-03,5.87E-03
80818,3.85E-03,5.70E-03
80819,5.49E-03,2.90E-02
80820,6.01E-03,2.90E-02
80821,5.69E-03,2.84E-02
80822,3.63E-03,6.14E-03
80823,4.77E-03,6.14E-03
80824,3.94E-03,5.96E-03
80825,5.21E-03,1.98E-02
80826,5.31E-03,1.99E-02
80827,4.53E-03,1.97E-02
80828,5.04E-03,3.14E-02
80829,5.08E-03,3.12E-02
80830,5.13E-03,3.07E-02
80831,5.45E-03,1.07E-02
80832,5.50E-03,1.08E-02
80833,5.75E-03,6.28E-03
80834,5.54E-03,6.14E-03
80835,4.86E-03,6.28E-03
80836,4.82E-03,2.05E-02
80837,5.20E-03,2.05E-02
80838,5.57E-03,2.06E-02
80839,5.08E-03,2.11E-02
80840,5.20E-03,2.11E-02
80841,5.34E-03,2.13E-02
80842,4.05E-03,2.17E-02
80843,4.59E-03,2.17E-02
80844,3.63E-03,2.18E-02
80845,5.54E-03,1.13E-02
80846,6.73E-03,1.13E-02
80847,6.06E-03,1.09E-02
80848,4.93E-03,3.74E-02
80849,5.07E-03,3.82E-02
80850,4.88E-03,3.84E-02
80851,5.26E-03,7.44E-03
80852,4.95E-03,7.44E-03
80853,5.80E-03,7.35E-03
80854,4.86E-03,2.14E-02
80855,5.30E-03,2.13E-02
80856,5.91E-03,2.15E-02
80857,4.96E-03,3.14E-02
80858,4.08E-03,3.05E-02
80859,4.69E-03,3.16E-02
80860,3.99E-03,9.28E-03
80861,4.61E-03,9.21E-03
80862,4.13E-03,8.88E-03
80863,6.15E-03,2.34E-02
80864,6.50E-03,2.35E-02
80865,6.82E-03,2.33E-02
80866,5.52E-03,3.47E-03
80867,5.61E-03,3.35E-03
80868,6.42E-03,3.65E-03
80869,6.00E-03,3.95E-02
80870,4.60E-03,3.86E-02
80871,5.11E-03,6.85E-03
80872,4.78E-03,6.84E-03
80873,5.69E-03,6.77E-03
80874,4.80E-03,1.99E-02
80875,6.26E-03,1.99E-02
80876,5.21E-03,1.98E-02
80877,5.21E-03,2.40E-02
80878,5.42E-03,2.41E-02
80879,4.66E-03,2.41E-02
80880,4.43E-03,6.65E-03
80881,4.45E-03,6.62E-03
80882,4.70E-03,6.40E-03
80883,5.47E-03,5.58E-03
80884,6.52E-03,5.48E-03
80885,5.23E-03,5.56E-03
80886,8.65E-03,1.36E-02
80887,7.78E-03,1.29E-02
80888,8.25E-03,1.24E-02
80889,9.00E-03,1.31E-02
80890,4.92E-03,2.11E-03
80891,5.33E-03,2.22E-03
80892,6.45E-03,1.91E-03
80893,4.62E-03,2.57E-02
80894,5.24E-03,2.57E-02
80895,5.10E-03,2.55E-02
80896,4.54E-03,9.60E-03
80897,3.90E-03,9.62E-03
80898,3.63E-03,9.46E-03
80899,4.77E-03,1.29E-02
80900,5.76E-03,1.33E-02
80901,5.81E-03,1.34E-02
80902,6.61E-03,3.12E-02
80903,6.23E-03,2.98E-02
80904,7.10E-03,3.14E-02
80905,4.77E-03,2.60E-02
80906,5.05E-03,2.62E-02
80907,5.48E-03,2.62E-02
80908,7.77E-03,2.68E-02
80909,8.32E-03,2.65E-02
80910,5.76E-03,1.69E-02
80911,6.86E-03,1.75E-02
80912,5.78E-03,1.77E-02
80913,8.77E-03,1.89E-02
80914,6.75E-03,1.96E-02
80915,5.21E-03,1.89E-02
80916,7.64E-03,1.82E-02
80917,5.38E-03,2.39E-03
80918,5.49E-03,2.53E-03
80919,6.24E-03,2.20E-03
80920,6.12E-03,4.43E-02
80921,5.79E-03,4.43E-02
80922,6.63E-03,4.39E-02
80923,5.26E-03,2.36E-02
80924,5.29E-03,2.38E-02
80925,6.14E-03,2.38E-02
80926,4.35E-03,2.25E-02
80927,3.95E-03,2.28E-02
80928,4.74E-03,2.24E-02
80929,5.11E-03,1.42E-03
80930,5.79E-03,1.51E-03
80931,5.54E-03,3.72E-03
80932,5.67E-03,3.89E-03
80933,6.08E-03,3.85E-03
80934,5.76E-03,5.08E-03
80935,6.82E-03,5.16E-03
80936,5.91E-03,4.89E-03
80937,4.89E-03,8.32E-03
80938,4.98E-03,8.10E-03
80939,6.34E-03,8.35E-03
80940,5.13E-03,6.35E-04
80941,4.90E-03,7.56E-04
80942,5.02E-03,7.15E-04
80943,4.25E-03,6.39E-04
80944,4.18E-03,4.78E-04
80945,4.66E-03,4.35E-04
80946,6.44E-03,2.16E-02
80947,5.85E-03,2.18E-02
80948,3.69E-03,2.20E-02
80949,5.20E-03,2.19E-02
80950,9.33E-03,1.69E-02
80951,1.10E-02,1.70E-02
80952,9.67E-03,1.71E-02
80953,9.19E-03,1.70E-02
80954,5.16E-03,9.81E-04
80955,6.37E-03,9.64E-04
80956,6.13E-03,1.05E-03
80957,5.51E-03,2.99E-02
80958,5.49E-03,3.06E-02
80959,6.39E-03,3.05E-02
80960,5.49E-03,4.18E-02
80961,6.80E-03,4.19E-02
80962,5.24E-03,4.24E-02
80963,6.94E-03,1.84E-02
80964,5.93E-03,1.80E-02
80965,5.32E-03,1.81E-02
80966,6.85E-03,1.84E-02
80967,2.77E-03,3.19E-04
80968,3.31E-03,3.11E-04
80969,3.87E-03,3.19E-04
80970,4.71E-03,5.39E-03
80971,5.54E-03,5.17E-03
80972,5.75E-03,5.17E-03
80973,5.41E-03,1.22E-02
80974,5.19E-03,1.23E-02
80975,6.07E-03,1.21E-02
80976,5.64E-03,1.75E-02
80977,4.44E-03,1.75E-02
80978,5.67E-03,1.74E-02
80979,8.01E-03,1.72E-02
80980,7.74E-03,1.05E-03
80981,6.40E-03,9.79E-04
80982,4.34E-03,9.71E-04
80983,5.02E-03,1.01E-03
80984,7.14E-03,1.52E-02
80985,7.17E-03,1.53E-02
80986,7.08E-03,1.53E-02
80987,7.76E-03,1.52E-02
80988,5.15E-03,1.11E-02
80989,4.92E-03,1.11E-02
80990,4.87E-03,1.10E-02
80991,6.66E-03,1.73E-02
80992,7.48E-03,1.71E-02
80993,7.90E-03,1.80E-02
80994,1.32E-02,1.67E-02
80995,1.17E-02,1.67E-02
80996,1.04E-02,1.66E-02
80997,9.37E-03,1.67E-02
80998,8.99E-03,1.67E-02
80999,8.48E-03,1.68E-02
81000,1.12E-02,1.52E-02
81001,9.25E-03,1.51E-02
81002,1.33E-02,1.52E-02
81003,9.46E-03,9.62E-03
81004,9.38E-03,1.01E-02
81005,9.26E-03,1.00E-02
81006,9.44E-03,1.05E-02
81007,8.09E-03,1.99E-02
81008,6.14E-03,2.07E-02
81009,1.01E-02,1.53E-02
81010,1.11E-02,1.53E-02
81011,1.21E-02,1.07E-02
81012,7.41E-03,1.13E-02
81013,8.92E-03,1.21E-02
81014,7.51E-03,1.16E-02
81015,8.93E-03,1.20E-02
81016,9.78E-03,1.25E-02
81017,8.20E-03,1.22E-02
81018,9.07E-03,1.26E-02
81019,8.72E-03,1.44E-02
81020,9.65E-03,1.47E-02
81021,9.55E-03,1.50E-02
81022,6.67E-03,1.32E-02
81023,8.00E-03,1.32E-02
81024,6.91E-03,1.32E-02
81025,6.77E-03,1.32E-02
81026,6.30E-03,1.32E-02
81027,6.15E-03,1.32E-02
81028,7.30E-03,2.01E-02
81029,9.63E-03,1.03E-02
81030,9.83E-03,1.04E-02
81031,1.14E-02,1.04E-02
81032,8.88E-03,1.05E-02
81033,1.07E-02,2.66E-02
81034,1.07E-02,2.65E-02
81035,7.51E-03,2.65E-02
81036,8.15E-03,2.69E-02
81037,6.15E-03,1.60E-02
81038,9.65E-03,1.60E-02
81039,6.66E-03,1.60E-02
81040,7.80E-03,1.34E-02
81041,7.70E-03,1.35E-02
81042,9.57E-03,1.36E-02
81043,8.28E-03,1.06E-02
81044,7.27E-03,1.11E-02
81045,8.16E-03,1.07E-02
81046,6.88E-03,1.08E-02
81047,7.25E-03,1.11E-02
81048,7.03E-03,1.14E-02
81049,7.12E-03,1.14E-02
81050,7.72E-03,1.68E-02
81051,7.31E-03,7.07E-03
81052,1.25E-02,6.83E-03
81053,1.23E-02,7.06E-03
81054,6.03E-03,9.00E-03
81055,8.65E-03,9.30E-03
81056,5.88E-03,8.75E-03
81057,5.81E-03,8.57E-03
81058,1.16E-02,1.58E-02
81059,9.40E-03,1.60E-02
81060,9.41E-03,1.62E-02
81061,8.50E-03,9.31E-03
81062,9.59E-03,1.44E-02
81063,8.55E-03,1.46E-02
81064,1.24E-02,1.41E-02
81065,8.42E-03,9.13E-03
81066,8.91E-03,8.97E-03
81067,8.20E-03,9.28E-03
81068,1.00E-02,1.07E-02
81069,1.29E-02,1.07E-02
81070,1.26E-02,1.06E-02
81071,7.66E-03,1.26E-02
81072,1.11E-02,1.28E-02
81073,7.16E-03,1.29E-02
81074,1.08E-02,1.26E-02
81075,8.95E-03,1.05E-02
81076,1.08E-02,1.05E-02
81077,8.94E-03,1.06E-02
81078,1.10E-02,1.02E-02
81079,1.01E-02,1.04E-02
81080,7.72E-03,1.01E-02
81081,1.06E-02,1.02E-02
81082,4.71E-03,1.01E-02
81083,6.34E-03,1.03E-02
81084,1.38E-02,1.40E-02
81085,8.69E-03,2.72E-02
81086,8.98E-03,2.74E-02
81087,9.19E-03,2.69E-02
81088,7.07E-03,2.74E-02
81089,8.40E-03,2.74E-02
81090,8.73E-03,7.95E-03
81091,7.71E-03,8.00E-03
81092,5.31E-03,7.79E-03
81093,6.86E-03,7.83E-03
81094,5.52E-03,4.00E-03
81095,8.99E-03,4.18E-03
81096,9.82E-03,5.26E-02
81097,8.43E-03,1.41E-02
81098,5.28E-03,1.41E-02
81099,6.70E-03,1.42E-02
81100,8.16E-03,1.40E-02
81101,8.59E-03,1.41E-02
81102,8.83E-03,1.41E-02
81103,9.26E-03,1.42E-02
81104,5.73E-03,1.13E-02
81105,7.05E-03,1.14E-02
81106,9.71E-03,1.60E-02
81107,7.26E-03,1.60E-02
81108,5.38E-03,1.60E-02
81109,8.24E-03,1.04E-02
81110,8.45E-03,1.05E-02
81111,8.04E-03,1.07E-02
81112,7.54E-03,1.06E-02
81113,6.53E-03,1.69E-02
81114,1.05E-02,1.68E-02
81115,1.11E-02,1.72E-02
81116,1.08E-02,1.55E-02
81117,1.12E-02,1.55E-02
81118,1.22E-02,1.54E-02
81119,1.10E-02,1.03E-02
81120,1.10E-02,1.05E-02
81121,1.10E-02,1.05E-02
81122,1.11E-02,1.08E-02
81123,1.09E-02,9.63E-03
81124,8.43E-03,9.71E-03
81125,9.30E-03,9.67E-03
81126,8.62E-03,9.71E-03
81127,7.31E-03,1.29E-02
81128,7.48E-03,1.32E-02
81129,7.14E-03,1.34E-02
81130,7.21E-03,1.37E-02
81131,7.15E-03,1.18E-02
81132,7.45E-03,1.18E-02
81133,8.73E-03,8.99E-03
81134,8.06E-03,1.53E-02
81135,7.98E-03,1.55E-02
81136,6.98E-03,1.59E-02
81137,7.03E-03,8.32E-03
81138,1.06E-02,8.37E-03
81139,1.03E-02,8.54E-03
81140,6.42E-03,8.59E-03
81141,8.38E-03,5.49E-03
81142,7.15E-03,5.70E-03
81143,7.39E-03,5.91E-03
81144,5.21E-03,6.05E-03
81145,6.14E-03,8.34E-03
81146,6.81E-03,8.38E-03
81147,8.59E-03,8.51E-03
81148,6.85E-03,8.52E-03
81149,8.46E-03,1.81E-02
81150,8.38E-03,1.80E-02
81151,8.84E-03,1.81E-02
81152,8.66E-03,1.80E-02
81153,7.16E-03,7.28E-03
81154,9.24E-03,7.27E-03
81155,1.02E-02,1.10E-02
81156,1.02E-02,1.10E-02
81157,9.21E-03,1.15E-02
81158,8.77E-03,2.84E-02
81159,5.23E-03,2.78E-02
81160,9.88E-03,2.96E-02
81161,6.52E-03,3.02E-02
81162,7.24E-03,2.59E-03
81163,7.61E-03,2.92E-03
81164,7.67E-03,2.95E-03
81165,7.50E-03,5.97E-03
81166,1.30E-02,6.42E-03
81167,1.03E-02,6.25E-03
81168,6.05E-03,6.72E-03
81169,7.03E-03,4.13E-02
81170,7.35E-03,4.07E-02
81171,1.06E-02,1.88E-02
81172,8.32E-03,1.84E-02
81173,6.28E-03,1.77E-02
81174,6.93E-03,2.35E-02
81175,1.04E-02,2.34E-02
81176,1.02E-02,2.27E-02
81177,7.13E-03,2.26E-02
81178,8.83E-03,1.74E-04
81179,9.61E-03,1.67E-04
81180,1.03E-02,1.65E-04
81181,9.25E-03,1.62E-04
81182,7.93E-03,2.69E-03
81183,6.31E-03,2.65E-03
81184,7.48E-03,1.25E-02
81185,5.58E-03,1.25E-02
81186,8.97E-03,1.17E-02
81187,9.04E-03,7.13E-03
81188,5.93E-03,6.84E-03
81189,8.26E-03,1.09E-02
81190,7.88E-03,1.09E-02
81191,8.03E-03,7.88E-03
81192,8.09E-03,8.22E-03
81193,8.30E-03,1.97E-02
81194,7.64E-03,1.97E-02
81195,7.68E-03,2.33E-02
81196,7.65E-03,2.29E-02
81197,7.91E-03,1.29E-02
81198,8.04E-03,1.26E-02
81199,7.22E-03,1.17E-02
81200,7.27E-03,1.14E-02
81201,1.06E-02,1.48E-02
81202,6.35E-03,1.51E-02
81203,7.63E-03,1.11E-02
81204,7.90E-03,1.11E-02
81205,7.99E-03,1.33E-02
81206,5.57E-03,1.33E-02
81207,8.08E-03,1.45E-02
81208,8.93E-03,1.31E-02
81209,7.07E-03,1.31E-02
81210,8.83E-03,1.32E-02
81211,1.00E-02,1.32E-02
81212,7.65E-03,1.23E-02
81213,9.07E-03,1.23E-02
81214,7.71E-03,1.64E-02
81215,5.58E-03,1.64E-02
81216,7.06E-03,1.37E-02
81217,7.62E-03,1.40E-02
81218,1.03E-02,1.42E-02
81219,1.03E-02,1.45E-02
81220,6.14E-03,1.90E-02
81221,5.25E-03,1.88E-02
81222,5.80E-03,1.87E-02
81223,7.46E-03,1.10E-02
81224,7.40E-03,1.10E-02
81225,7.64E-03,1.11E-02
81226,7.49E-03,1.11E-02
81227,7.21E-03,1.09E-02
81228,7.69E-03,1.10E-02
81229,7.49E-03,1.21E-02
81230,7.43E-03,1.20E-02
81231,7.31E-03,1.21E-02
81232,7.40E-03,1.21E-02
81233,6.12E-03,1.45E-02
81234,4.11E-03,1.45E-02
81235,6.28E-03,1.24E-02
81236,6.04E-03,1.25E-02
81237,4.64E-03,1.25E-02
81238,7.70E-03,1.24E-02
81239,6.05E-03,1.23E-02
81240,6.82E-03,1.15E-02
81241,7.29E-03,1.14E-02
81242,6.26E-03,1.15E-02
81243,6.33E-03,1.16E-02
81244,7.16E-03,1.15E-02
81245,6.93E-03,1.16E-02
81246,6.86E-03,1.29E-02
81247,6.97E-03,1.30E-02
81248,7.96E-03,1.17E-02
81249,7.42E-03,1.17E-02
81250,6.56E-03,1.17E-02
81251,9.62E-03,1.45E-02
81252,8.32E-03,1.45E-02
81253,8.05E-03,1.45E-02
81254,9.35E-03,1.45E-02
81255,1.20E-02,1.45E-02
81256,8.06E-03,1.19E-02
81257,1.23E-02,1.18E-02
81258,1.13E-02,1.19E-02
81259,6.14E-03,1.13E-02
81260,6.59E-03,1.14E-02
81261,7.73E-03,1.14E-02
81262,7.05E-03,1.14E-02
81263,4.03E-03,1.12E-02
81264,6.02E-03,1.13E-02
81265,6.31E-03,1.10E-02
81266,6.21E-03,1.11E-02
81267,6.20E-03,1.12E-02
81268,6.73E-03,1.15E-02
81269,6.82E-03,1.15E-02
81270,6.96E-03,1.16E-02
81271,6.89E-03,1.16E-02
81272,6.05E-03,1.15E-02
81273,6.66E-03,1.16E-02
81274,6.47E-03,1.24E-02
81275,7.22E-03,1.24E-02
81276,7.09E-03,1.22E-02
81277,6.88E-03,1.22E-02
81278,8.37E-03,1.46E-02
81279,8.29E-03,1.46E-02
81280,9.24E-03,1.45E-02
81281,8.62E-03,1.45E-02
81282,7.45E-03,1.59E-02
81283,8.37E-03,1.58E-02
81284,5.90E-03,1.58E-02
81285,7.21E-03,1.58E-02
81286,6.84E-03,1.60E-02
81287,8.13E-03,1.59E-02
81288,7.75E-03,1.23E-02
81289,8.42E-03,1.24E-02
81290,7.91E-03,1.26E-02
81291,7.56E-03,1.46E-02
81292,7.49E-03,1.43E-02
81293,7.09E-03,1.40E-02
81294,7.11E-03,1.10E-02
81295,8.91E-03,1.11E-02
81296,4.57E-03,1.12E-02
81297,6.69E-03,1.10E-02
81298,7.30E-03,1.09E-02
81299,7.44E-03,1.09E-02
81300,8.18E-03,1.08E-02
81301,8.73E-03,1.09E-02
81302,9.68E-03,1.10E-02
81303,3.22E-03,1.14E-02
81304,6.07E-03,1.15E-02
81305,5.77E-03,1.17E-02
81306,5.41E-03,1.15E-02
81307,7.83E-03,1.31E-02
81308,7.56E-03,1.60E-02
81309,7.08E-03,1.35E-02
81310,7.13E-03,1.38E-02
81311,4.49E-03,1.54E-02
81312,4.53E-03,1.54E-02
81313,7.94E-03,1.08E-02
81314,7.62E-03,1.08E-02
81315,7.44E-03,1.10E-02
81316,7.49E-03,1.10E-02
81317,9.06E-03,1.07E-02
81318,8.92E-03,1.09E-02
81319,1.06E-02,1.57E-02
81320,7.52E-03,1.65E-02
81321,8.36E-03,1.65E-02
81322,8.40E-03,1.66E-02
81323,8.38E-03,1.65E-02
81324,7.11E-03,1.64E-02
81325,5.33E-03,1.64E-02
81326,1.11E-02,1.08E-02
81327,1.07E-02,1.10E-02
81328,6.33E-03,9.98E-03
81329,6.78E-03,9.72E-03
81330,6.57E-03,9.70E-03
81331,6.46E-03,9.97E-03
81332,4.95E-03,1.03E-02
81333,6.22E-03,1.03E-02
81334,7.47E-03,1.45E-02
81335,7.61E-03,1.48E-02
81336,8.91E-03,1.36E-02
81337,8.30E-03,1.35E-02
81338,7.19E-03,1.35E-02
81339,7.52E-03,1.48E-02
81340,7.36E-03,1.51E-02
81341,6.80E-03,1.52E-02
81342,7.88E-03,1.48E-02
81343,6.38E-03,1.74E-02
81344,6.61E-03,1.74E-02
81345,6.68E-03,1.76E-02
81346,6.52E-03,1.76E-02
81347,6.29E-03,1.75E-02
81348,7.56E-03,1.36E-02
81349,7.93E-03,1.32E-02
81350,8.08E-03,1.31E-02
81351,7.95E-03,1.35E-02
81352,7.31E-03,1.39E-02
81353,6.12E-03,1.38E-02
81354,8.26E-03,9.39E-03
81355,7.77E-03,9.32E-03
81356,8.79E-03,1.73E-02
81357,9.13E-03,1.73E-02
81358,7.15E-03,1.70E-02
81359,7.60E-03,1.68E-02
81360,7.63E-03,1.66E-02
81361,8.63E-03,9.97E-03
81362,9.08E-03,1.03E-02
81363,7.85E-03,1.03E-02
81364,8.37E-03,9.98E-03
81365,6.80E-03,1.81E-02
81366,6.72E-03,1.81E-02
81367,6.71E-03,1.79E-02
81368,6.78E-03,1.78E-02
81369,7.02E-03,1.83E-02
81370,6.86E-03,1.83E-02
81371,6.81E-03,8.16E-03
81372,7.45E-03,8.12E-03
81373,6.92E-03,8.38E-03
81374,6.84E-03,8.43E-03
81375,7.36E-03,8.03E-03
81376,8.20E-03,8.26E-03
81377,7.16E-03,1.59E-02
81378,6.76E-03,1.61E-02
81379,6.90E-03,1.57E-02
81380,7.35E-03,1.55E-02
81381,8.47E-03,1.58E-02
81382,7.99E-03,1.71E-02
81383,6.14E-03,1.72E-02
81384,7.27E-03,1.48E-02
81385,7.42E-03,1.48E-02
81386,6.98E-03,1.48E-02
81387,6.89E-03,1.48E-02
81388,7.40E-03,1.47E-02
81389,7.19E-03,1.47E-02
81390,6.56E-03,8.90E-03
81391,6.16E-03,8.88E-03
81392,7.02E-03,8.75E-03
81393,6.48E-03,8.78E-03
81394,1.07E-02,1.40E-02
81395,1.04E-02,1.43E-02
81396,7.98E-03,1.77E-02
81397,8.62E-03,1.76E-02
81398,6.58E-03,1.76E-02
81399,8.95E-03,1.85E-02
81400,8.64E-03,1.84E-02
81401,7.83E-03,1.03E-02
81402,7.93E-03,1.07E-02
81403,8.02E-03,1.10E-02
81404,7.74E-03,2.03E-02
81405,7.74E-03,2.08E-02
81406,7.70E-03,2.03E-02
81407,7.57E-03,1.99E-02
81408,7.67E-03,1.99E-02
81409,7.28E-03,8.07E-03
81410,7.73E-03,8.07E-03
81411,8.13E-03,7.95E-03
81412,8.72E-03,7.92E-03
81413,7.23E-03,8.06E-03
81414,6.65E-03,1.13E-02
81415,6.27E-03,1.12E-02
81416,6.21E-03,1.17E-02
81417,6.52E-03,1.18E-02
81418,7.08E-03,1.09E-02
81419,6.78E-03,1.08E-02
81420,4.67E-03,4.30E-03
81421,8.06E-03,9.41E-03
81422,8.31E-03,9.84E-03
81423,7.37E-03,9.02E-03
81424,6.73E-03,7.26E-03
81425,6.80E-03,7.57E-03
81426,5.89E-03,6.92E-03
81427,7.33E-03,3.87E-03
81428,7.92E-03,1.79E-02
81429,7.78E-03,1.84E-02
81430,7.72E-03,1.89E-02
81431,1.20E-02,2.16E-02
81432,1.03E-02,2.16E-02
81433,8.61E-03,9.54E-03
81434,6.51E-03,9.84E-03
81435,6.35E-03,9.91E-03
81436,6.24E-03,2.80E-03
81437,7.33E-03,2.82E-03
81438,6.67E-03,2.55E-03
81439,6.02E-03,2.52E-03
81440,6.72E-03,3.07E-03
81441,6.72E-03,2.77E-03
81442,6.42E-03,2.67E-03
81443,6.58E-03,2.97E-03
81444,6.88E-03,3.50E-03
81445,7.61E-03,3.38E-03
81446,5.87E-03,2.76E-02
81447,5.16E-03,2.75E-02
81448,7.34E-03,2.39E-02
81449,7.08E-03,2.37E-02
81450,7.22E-03,2.38E-02
81451,7.42E-03,2.40E-02
81452,7.09E-03,2.05E-02
81453,7.18E-03,2.05E-02
81454,6.89E-03,2.06E-02
81455,6.53E-03,2.07E-02
81456,7.59E-03,2.67E-04
81457,7.64E-03,2.53E-04
81458,8.10E-03,1.68E-03
81459,8.83E-03,1.65E-03
81460,6.05E-03,8.30E-04
81461,6.30E-03,7.48E-04
81462,6.44E-03,7.50E-04
81463,5.77E-03,8.30E-04
81464,6.35E-03,9.31E-04
81465,6.20E-03,9.22E-04
81466,7.28E-03,1.14E-03
81467,8.74E-03,1.23E-03
81468,5.70E-03,1.48E-02
81469,6.19E-03,1.51E-02
81470,5.85E-03,1.50E-02
81471,5.35E-03,1.48E-02
81472,5.92E-03,1.05E-02
81473,5.87E-03,1.03E-02
81474,5.65E-03,1.03E-02
81475,5.96E-03,1.05E-02
81476,7.51E-03,9.19E-03
81477,7.57E-03,9.18E-03
81478,7.71E-03,9.33E-03
81479,7.68E-03,9.35E-03
81480,7.44E-03,9.39E-03
81481,7.66E-03,9.36E-03
81482,7.38E-03,9.48E-03
81483,7.22E-03,9.50E-03
81484,7.94E-03,1.69E-02
81485,9.73E-03,1.70E-02
81486,9.20E-03,1.69E-02
81487,8.88E-03,1.68E-02
81488,7.26E-03,2.13E-03
81489,7.24E-03,1.83E-03
81490,7.28E-03,1.85E-03
81491,7.59E-03,2.15E-03
81492,6.88E-03,2.07E-02
81493,6.59E-03,2.07E-02
81494,6.24E-03,2.09E-02
81495,6.70E-03,2.08E-02
81496,6.16E-03,2.32E-02
81497,6.70E-03,2.29E-02
81498,6.45E-03,2.35E-02
81499,6.42E-03,2.40E-02
81500,6.45E-03,2.49E-02
81501,6.53E-03,2.42E-02
81502,5.91E-03,2.47E-02
81503,6.68E-03,2.56E-02
81504,3.10E-03,1.16E-02
81505,4.90E-03,1.16E-02
81506,5.69E-03,1.17E-02
81507,3.13E-03,1.22E-02
81508,4.81E-03,1.23E-02
81509,4.78E-03,1.23E-02
81510,5.17E-03,1.41E-02
81511,6.37E-03,1.41E-02
81512,4.68E-03,1.46E-02
81513,5.93E-03,1.45E-02
81514,5.98E-03,1.49E-02
81515,6.15E-03,1.49E-02
81516,5.30E-03,1.36E-02
81517,6.79E-03,1.35E-02
81518,2.56E-03,1.89E-02
81519,4.76E-03,1.88E-02
81520,4.30E-03,1.86E-02
81521,4.27E-03,1.90E-02
81522,6.45E-03,1.81E-02
81523,9.10E-03,1.82E-02
81524,2.60E-03,1.72E-02
81525,3.26E-03,1.72E-02
81526,3.99E-03,1.71E-02
81527,3.24E-03,9.00E-03
81528,6.12E-03,8.88E-03
81529,4.74E-03,9.00E-03
81530,4.90E-03,9.00E-03
81531,6.22E-03,9.01E-03
81532,6.88E-03,1.15E-02
81533,5.11E-03,1.78E-02
81534,6.46E-03,1.77E-02
81535,3.53E-03,9.09E-03
81536,4.80E-03,8.86E-03
81537,5.25E-03,9.00E-03
81538,3.45E-03,5.66E-03
81539,5.94E-03,5.72E-03
81540,5.82E-03,5.87E-03
81541,5.28E-03,8.18E-03
81542,5.14E-03,8.18E-03
81543,5.35E-03,8.26E-03
81544,6.44E-03,7.93E-03
81545,4.86E-03,1.88E-02
81546,5.46E-03,1.87E-02
81547,5.65E-03,1.87E-02
81548,3.70E-03,2.19E-02
81549,5.72E-03,2.17E-02
81550,3.73E-03,1.30E-02
81551,4.98E-03,1.29E-02
81552,5.59E-03,1.32E-02
81553,3.92E-03,1.89E-02
81554,6.16E-03,1.88E-02
81555,7.28E-03,2.87E-03
81556,3.01E-03,2.27E-02
81557,3.87E-03,2.27E-02
81558,4.25E-03,2.26E-02
81559,3.29E-03,4.63E-03
81560,4.91E-03,4.76E-03
81561,4.75E-03,4.98E-03
81562,6.67E-03,2.37E-02
81563,6.62E-03,2.36E-02
81564,3.71E-03,2.31E-02
81565,6.04E-03,2.28E-02
81566,3.66E-03,2.87E-04
81567,5.40E-03,2.82E-04
81568,5.17E-03,1.37E-03
81569,5.47E-03,1.29E-03
81570,5.92E-03,1.31E-03
81571,2.90E-03,1.19E-02
81572,7.62E-03,3.54E-03
81573,5.40E-03,1.95E-02
81574,5.06E-03,9.63E-03
81575,4.74E-03,1.36E-03
81576,6.72E-03,7.73E-03
81577,5.55E-03,1.90E-02
81578,6.65E-03,1.53E-02
81579,7.30E-03,1.04E-02
81580,1.65E-02,1.37E-02
81581,5.30E-03,2.12E-02
81582,7.56E-03,7.19E-03
81583,6.66E-03,2.48E-02
81584,6.57E-03,1.21E-02
81585,7.21E-03,1.20E-02
81586,7.42E-03,1.20E-02
81587,7.40E-03,1.20E-02
81588,9.37E-03,1.20E-02
81589,8.67E-03,1.20E-02
81590,7.70E-03,1.21E-02
81591,7.29E-03,1.21E-02
81592,6.01E-03,1.21E-02
81593,6.72E-03,1.21E-02
81594,9.13E-03,1.21E-02
81595,7.99E-03,1.20E-02
81596,9.67E-03,1.20E-02
81597,1.03E-02,1.21E-02
81598,7.85E-03,1.21E-02
81599,7.24E-03,1.21E-02
81600,6.46E-03,1.22E-02
81601,7.04E-03,1.21E-02
81602,7.42E-03,1.22E-02
81603,7.26E-03,1.21E-02
81604,7.53E-03,1.22E-02
81605,6.19E-03,1.23E-02
81606,5.39E-03,1.23E-02
81607,6.27E-03,1.23E-02
81608,6.83E-03,1.23E-02
81609,8.99E-03,1.20E-02
81610,7.53E-03,1.20E-02
81611,6.84E-03,1.19E-02
81612,7.21E-03,1.19E-02
81613,6.91E-03,1.20E-02
81614,6.60E-03,1.19E-02
81615,6.90E-03,1.19E-02
81616,7.87E-03,1.22E-02
81617,4.69E-03,1.22E-02
81618,5.95E-03,1.27E-02
81619,6.03E-03,1.23E-02
81620,7.63E-03,1.20E-02
81621,7.27E-03,1.22E-02
81622,6.31E-03,1.22E-02
81623,4.46E-03,1.22E-02
81624,5.67E-03,1.22E-02
81625,8.25E-03,1.24E-02
81626,7.91E-03,1.24E-02
81627,7.81E-03,1.24E-02
81628,7.74E-03,1.24E-02
81629,7.66E-03,1.25E-02
81630,7.35E-03,1.25E-02
81631,7.24E-03,1.25E-02
81632,7.14E-03,1.25E-02
81633,7.04E-03,1.25E-02
81634,6.99E-03,1.26E-02
81635,7.04E-03,1.26E-02
81636,7.00E-03,1.26E-02
81637,6.75E-03,1.26E-02
81638,5.48E-03,1.26E-02
81639,6.77E-03,1.20E-02
81640,6.00E-03,1.20E-02
81641,7.08E-03,1.20E-02
81642,7.57E-03,1.20E-02
81643,6.97E-03,1.19E-02
81644,6.18E-03,1.27E-02
81645,8.26E-03,1.19E-02
81646,7.00E-03,1.19E-02
81647,7.17E-03,1.18E-02
81648,7.88E-03,1.18E-02
81649,7.50E-03,1.19E-02
81650,5.69E-03,1.18E-02
81651,7.14E-03,1.21E-02
81652,8.21E-03,1.19E-02
81653,4.74E-03,1.19E-02
81654,4.33E-03,1.19E-02
81655,8.22E-03,1.21E-02
81656,9.51E-03,1.21E-02
81657,8.02E-03,1.19E-02
81658,8.08E-03,1.20E-02
81659,8.11E-03,1.20E-02
81660,8.52E-03,1.19E-02
81661,7.47E-03,1.22E-02
81662,7.43E-03,1.22E-02
81663,7.44E-03,1.22E-02
81664,8.31E-03,1.22E-02
81665,8.46E-03,1.22E-02
81666,8.13E-03,1.22E-02
81667,7.79E-03,1.22E-02
81668,7.58E-03,1.23E-02
81669,7.95E-03,1.23E-02
81670,8.25E-03,1.23E-02
81671,7.05E-03,1.23E-02
81672,6.76E-03,1.24E-02
81673,6.59E-03,1.24E-02
81674,8.24E-03,1.24E-02
81675,9.18E-03,1.24E-02
81676,8.32E-03,1.24E-02
81677,7.99E-03,1.24E-02
81678,7.87E-03,1.25E-02
81679,7.70E-03,1.25E-02
81680,7.48E-03,1.25E-02
81681,7.40E-03,1.25E-02
81682,7.34E-03,1.25E-02
81683,7.16E-03,1.26E-02
81684,7.10E-03,1.26E-02
81685,7.05E-03,1.26E-02
81686,7.04E-03,1.26E-02
81687,7.03E-03,1.26E-02
81688,6.92E-03,1.27E-02
81689,8.97E-03,1.27E-02
81690,8.29E-03,1.27E-02
81691,8.22E-03,1.27E-02
81692,8.17E-03,1.28E-02
81693,8.17E-03,1.28E-02
81694,8.12E-03,1.28E-02
81695,8.08E-03,1.28E-02
81696,8.74E-03,1.29E-02
81697,8.22E-03,1.19E-02
81698,6.14E-03,1.18E-02
81699,8.38E-03,1.18E-02
81700,6.34E-03,1.19E-02
81701,6.88E-03,1.19E-02
81702,6.75E-03,1.20E-02
81703,6.53E-03,1.20E-02
81704,7.57E-03,1.29E-02
81705,7.40E-03,1.29E-02
81706,7.03E-03,1.29E-02
81707,7.25E-03,1.30E-02
81708,7.18E-03,1.30E-02
81709,7.16E-03,1.30E-02
81710,7.22E-03,1.30E-02
81711,7.32E-03,1.31E-02
81712,7.51E-03,1.31E-02
81713,6.82E-03,1.21E-02
81714,6.45E-03,1.21E-02
81715,5.86E-03,1.21E-02
81716,7.76E-03,1.21E-02
81717,8.30E-03,1.31E-02
81718,7.84E-03,1.31E-02
81719,6.31E-03,1.31E-02
81720,8.06E-03,1.19E-02
81721,4.56E-03,1.19E-02
81722,7.09E-03,1.18E-02
81723,7.82E-03,1.23E-02
81724,8.27E-03,1.23E-02
81725,8.34E-03,1.23E-02
81726,7.94E-03,1.24E-02
81727,7.85E-03,1.24E-02
81728,7.69E-03,1.24E-02
81729,7.79E-03,1.24E-02
81730,7.41E-03,1.24E-02
81731,7.60E-03,1.25E-02
81732,7.71E-03,1.25E-02
81733,7.55E-03,1.25E-02
81734,7.48E-03,1.25E-02
81735,7.32E-03,1.25E-02
81736,7.17E-03,1.26E-02
81737,6.81E-03,1.26E-02
81738,6.94E-03,1.26E-02
81739,6.86E-03,1.26E-02
81740,7.58E-03,1.27E-02
81741,8.00E-03,1.27E-02
81742,8.05E-03,1.27E-02
81743,7.97E-03,1.27E-02
81744,7.93E-03,1.28E-02
81745,7.86E-03,1.28E-02
81746,7.78E-03,1.28E-02
81747,7.19E-03,1.28E-02
81748,6.35E-03,1.29E-02
81749,6.37E-03,1.29E-02
81750,7.36E-03,1.29E-02
81751,7.12E-03,1.29E-02
81752,7.09E-03,1.29E-02
81753,6.99E-03,1.30E-02
81754,6.95E-03,1.30E-02
81755,6.93E-03,1.30E-02
81756,7.21E-03,1.30E-02
81757,7.11E-03,1.31E-02
81758,7.54E-03,1.31E-02
81759,8.96E-03,1.18E-02
81760,8.30E-03,1.22E-02
81761,8.58E-03,1.22E-02
81762,7.89E-03,1.19E-02
81763,9.62E-03,1.21E-02
81764,8.36E-03,1.21E-02
81765,7.99E-03,1.21E-02
81766,7.86E-03,1.21E-02
81767,8.08E-03,1.20E-02
81768,8.25E-03,1.19E-02
81769,8.60E-03,1.18E-02
81770,9.81E-03,1.18E-02
81771,6.91E-03,1.31E-02
81772,7.14E-03,1.30E-02
81773,7.08E-03,1.30E-02
81774,6.88E-03,1.30E-02
81775,6.75E-03,1.30E-02
81776,6.85E-03,1.29E-02
81777,6.93E-03,1.29E-02
81778,6.98E-03,1.29E-02
81779,6.91E-03,1.29E-02
81780,7.01E-03,1.29E-02
81781,7.30E-03,1.28E-02
81782,7.26E-03,1.28E-02
81783,7.61E-03,1.28E-02
81784,7.70E-03,1.28E-02
81785,7.79E-03,1.27E-02
81786,7.85E-03,1.27E-02
81787,7.87E-03,1.27E-02
81788,7.78E-03,1.27E-02
81789,7.52E-03,1.26E-02
81790,7.38E-03,1.26E-02
81791,7.40E-03,1.26E-02
81792,7.25E-03,1.26E-02
81793,7.23E-03,1.25E-02
81794,7.37E-03,1.25E-02
81795,7.49E-03,1.25E-02
81796,7.63E-03,1.25E-02
81797,7.70E-03,1.24E-02
81798,7.72E-03,1.24E-02
81799,7.67E-03,1.24E-02
81800,7.78E-03,1.24E-02
81801,7.73E-03,1.23E-02
81802,7.83E-03,1.23E-02
81803,7.90E-03,1.23E-02
81804,8.11E-03,1.23E-02
81805,8.04E-03,1.22E-02
81806,8.03E-03,1.22E-02
81807,8.38E-03,1.22E-02
81808,7.85E-03,1.22E-02
81809,7.77E-03,1.22E-02
81810,7.92E-03,1.22E-02
81811,8.12E-03,1.23E-02
81812,8.19E-03,1.23E-02
81813,8.19E-03,1.23E-02
81814,8.09E-03,1.23E-02
81815,7.93E-03,1.23E-02
81816,8.16E-03,1.23E-02
81817,8.63E-03,1.23E-02
81818,9.86E-03,1.23E-02
81819,9.39E-03,1.24E-02
81820,7.94E-03,1.24E-02
81821,7.50E-03,1.24E-02
81822,7.68E-03,1.24E-02
81823,7.98E-03,1.24E-02
81824,8.18E-03,1.25E-02
81825,8.18E-03,1.25E-02
81826,7.94E-03,1.25E-02
81827,7.81E-03,1.25E-02
81828,7.70E-03,1.25E-02
81829,7.61E-03,1.26E-02
81830,7.53E-03,1.26E-02
81831,7.40E-03,1.26E-02
81832,7.26E-03,1.26E-02
81833,7.18E-03,1.26E-02
81834,7.15E-03,1.26E-02
81835,7.09E-03,1.27E-02
81836,7.11E-03,1.27E-02
81837,7.36E-03,1.27E-02
81838,8.93E-03,1.27E-02
81839,9.66E-03,1.27E-02
81840,8.67E-03,1.28E-02
81841,8.31E-03,1.28E-02
81842,8.26E-03,1.28E-02
81843,8.33E-03,1.28E-02
81844,8.27E-03,1.28E-02
81845,8.45E-03,1.29E-02
81846,9.47E-03,1.29E-02
81847,8.75E-03,1.29E-02
81848,7.95E-03,1.29E-02
81849,7.56E-03,1.30E-02
81850,7.47E-03,1.30E-02
81851,7.40E-03,1.30E-02
81852,7.32E-03,1.30E-02
81853,7.39E-03,1.31E-02
81854,7.51E-03,1.31E-02
81855,7.72E-03,1.31E-02
81856,7.95E-03,1.31E-02
81857,7.69E-03,1.32E-02
81858,7.58E-03,1.32E-02
81859,5.64E-03,1.31E-02
81860,5.95E-03,1.32E-02
81861,6.60E-03,1.32E-02
81862,8.33E-03,1.18E-02
81863,4.83E-03,1.43E-02
81864,6.19E-03,1.18E-02
81865,6.78E-03,1.18E-02
81866,6.95E-03,1.20E-02
81867,6.91E-03,1.21E-02
81868,7.11E-03,1.21E-02
81869,5.00E-03,1.43E-02
81870,7.62E-03,1.43E-02
81871,8.40E-03,1.21E-02
81872,1.17E-02,1.33E-02
81873,9.17E-03,1.33E-02
81874,8.73E-03,1.33E-02
81875,8.60E-03,1.34E-02
81876,7.92E-03,1.34E-02
81877,8.39E-03,1.34E-02
81878,8.77E-03,1.38E-02
81879,7.39E-03,1.20E-02
81880,7.78E-03,1.20E-02
81881,7.65E-03,1.21E-02
81882,7.13E-03,1.20E-02
81883,7.62E-03,1.20E-02
81884,7.16E-03,1.31E-02
81885,6.65E-03,1.31E-02
81886,5.81E-03,1.31E-02
81887,5.81E-03,1.31E-02
81888,9.79E-03,1.43E-02
81889,8.75E-03,1.42E-02
81890,7.92E-03,1.42E-02
81891,7.10E-03,1.43E-02
81892,1.08E-02,1.17E-02
81893,9.42E-03,1.17E-02
81894,7.67E-03,1.37E-02
81895,8.55E-03,1.36E-02
81896,8.74E-03,1.36E-02
81897,8.64E-03,1.36E-02
81898,8.27E-03,1.23E-02
81899,8.40E-03,1.23E-02
81900,7.40E-03,1.18E-02
81901,8.69E-03,1.22E-02
81902,8.39E-03,1.22E-02
81903,8.06E-03,1.22E-02
81904,7.78E-03,1.22E-02
81905,7.64E-03,1.22E-02
81906,7.42E-03,1.21E-02
81907,7.52E-03,1.22E-02
81908,7.30E-03,1.21E-02
81909,7.43E-03,1.21E-02
81910,7.85E-03,1.18E-02
81911,7.36E-03,1.20E-02
81912,8.02E-03,1.19E-02
81913,8.44E-03,1.18E-02
81914,8.84E-03,1.17E-02
81915,5.95E-03,1.32E-02
81916,9.91E-03,1.46E-02
81917,8.81E-03,1.46E-02
81918,6.16E-03,1.45E-02
81919,7.18E-03,1.45E-02
81920,6.97E-03,1.33E-02
81921,8.12E-03,1.33E-02
81922,6.90E-03,1.30E-02
81923,6.91E-03,1.30E-02
81924,6.79E-03,1.30E-02
81925,6.55E-03,1.29E-02
81926,6.69E-03,1.29E-02
81927,6.81E-03,1.29E-02
81928,6.91E-03,1.29E-02
81929,7.00E-03,1.29E-02
81930,7.26E-03,1.28E-02
81931,7.36E-03,1.28E-02
81932,7.47E-03,1.28E-02
81933,7.58E-03,1.27E-02
81934,7.65E-03,1.27E-02
81935,7.73E-03,1.27E-02
81936,7.82E-03,1.27E-02
81937,7.82E-03,1.26E-02
81938,7.73E-03,1.26E-02
81939,7.63E-03,1.26E-02
81940,7.63E-03,1.26E-02
81941,7.57E-03,1.25E-02
81942,7.58E-03,1.25E-02
81943,7.59E-03,1.25E-02
81944,7.62E-03,1.25E-02
81945,7.67E-03,1.24E-02
81946,7.72E-03,1.24E-02
81947,7.71E-03,1.24E-02
81948,7.69E-03,1.24E-02
81949,7.71E-03,1.23E-02
81950,7.74E-03,1.23E-02
81951,7.75E-03,1.23E-02
81952,7.83E-03,1.23E-02
81953,7.88E-03,1.22E-02
81954,7.93E-03,1.22E-02
81955,7.97E-03,1.22E-02
81956,8.13E-03,1.22E-02
81957,8.26E-03,1.21E-02
81958,8.59E-03,1.21E-02
81959,8.48E-03,1.21E-02
81960,8.10E-03,1.23E-02
81961,8.04E-03,1.23E-02
81962,8.03E-03,1.23E-02
81963,8.14E-03,1.23E-02
81964,8.18E-03,1.23E-02
81965,8.22E-03,1.24E-02
81966,8.18E-03,1.24E-02
81967,8.18E-03,1.24E-02
81968,8.37E-03,1.24E-02
81969,8.69E-03,1.24E-02
81970,8.83E-03,1.24E-02
81971,8.64E-03,1.24E-02
81972,8.50E-03,1.24E-02
81973,8.08E-03,1.25E-02
81974,7.92E-03,1.25E-02
81975,8.02E-03,1.25E-02
81976,8.03E-03,1.25E-02
81977,8.10E-03,1.25E-02
81978,8.04E-03,1.25E-02
81979,7.93E-03,1.26E-02
81980,7.83E-03,1.26E-02
81981,7.71E-03,1.26E-02
81982,7.57E-03,1.26E-02
81983,7.50E-03,1.26E-02
81984,7.50E-03,1.26E-02
81985,7.53E-03,1.27E-02
81986,7.57E-03,1.27E-02
81987,7.70E-03,1.27E-02
81988,7.92E-03,1.27E-02
81989,8.24E-03,1.27E-02
81990,8.57E-03,1.27E-02
81991,8.67E-03,1.28E-02
81992,8.60E-03,1.28E-02
81993,8.42E-03,1.28E-02
81994,8.33E-03,1.28E-02
81995,8.36E-03,1.28E-02
81996,8.39E-03,1.29E-02
81997,8.48E-03,1.29E-02
81998,8.55E-03,1.29E-02
81999,8.35E-03,1.29E-02
82000,8.10E-03,1.30E-02
82001,7.80E-03,1.30E-02
82002,7.66E-03,1.30E-02
82003,7.60E-03,1.30E-02
82004,7.59E-03,1.30E-02
82005,7.68E-03,1.31E-02
82006,7.70E-03,1.31E-02
82007,7.83E-03,1.31E-02
82008,7.95E-03,1.31E-02
82009,8.12E-03,1.32E-02
82010,8.61E-03,1.32E-02
82011,1.06E-02,1.32E-02
82012,1.08E-02,1.33E-02
82013,9.79E-03,1.33E-02
82014,9.06E-03,1.33E-02
82015,8.73E-03,1.34E-02
82016,8.51E-03,1.34E-02
82017,7.76E-03,1.34E-02
82018,9.09E-03,1.36E-02
82019,9.76E-03,1.36E-02
82020,8.89E-03,1.34E-02
82021,1.15E-02,1.35E-02
82022,1.02E-02,1.35E-02
82023,8.37E-03,1.33E-02
82024,8.46E-03,1.34E-02
82025,9.10E-03,1.34E-02
82026,1.07E-02,1.34E-02
82027,1.12E-02,1.35E-02
82028,1.04E-02,1.35E-02
82029,9.65E-03,1.36E-02
82030,9.14E-03,1.36E-02
82031,8.80E-03,1.36E-02
82032,8.20E-03,1.37E-02
82033,8.96E-03,1.37E-02
82034,8.10E-03,1.38E-02
82035,7.97E-03,1.38E-02
82036,6.20E-03,1.19E-02
82037,7.17E-03,1.19E-02
82038,9.24E-03,1.37E-02
82039,8.84E-03,1.39E-02
82040,8.87E-03,1.39E-02
82041,8.81E-03,1.39E-02
82042,8.79E-03,1.40E-02
82043,8.88E-03,1.40E-02
82044,9.20E-03,1.41E-02
82045,6.38E-03,1.41E-02
82046,9.10E-03,1.41E-02
82047,7.89E-03,1.42E-02
82048,8.67E-03,1.42E-02
82049,6.35E-03,1.32E-02
82050,1.03E-02,1.44E-02
82051,7.89E-03,1.45E-02
82052,1.12E-02,1.44E-02
82053,7.09E-03,1.44E-02
82054,4.69E-03,1.45E-02
82055,4.22E-03,1.45E-02
82056,5.84E-03,1.45E-02
82057,7.28E-03,1.46E-02
82058,8.25E-03,1.46E-02
82059,8.95E-03,1.47E-02
82060,8.59E-03,1.46E-02
82061,8.33E-03,1.44E-02
82062,8.36E-03,1.44E-02
82063,7.03E-03,1.43E-02
82064,8.09E-03,1.16E-02
82065,6.66E-03,1.18E-02
82066,6.88E-03,1.17E-02
82067,8.71E-03,1.20E-02
82068,9.21E-03,1.36E-02
82069,8.01E-03,1.42E-02
82070,6.08E-03,1.19E-02
82071,9.62E-03,1.37E-02
82072,8.18E-03,1.24E-02
82073,8.27E-03,1.24E-02
82074,8.79E-03,1.18E-02
82075,7.10E-03,1.17E-02
82076,8.23E-03,1.44E-02
82077,7.59E-03,1.21E-02
82078,7.70E-03,1.20E-02
82079,7.69E-03,1.16E-02
82080,9.87E-03,1.16E-02
82081,7.76E-03,1.16E-02
82082,7.92E-03,1.18E-02
82083,7.14E-03,1.20E-02
82084,6.23E-03,1.31E-02
82085,6.32E-03,1.31E-02
82086,6.22E-03,1.31E-02
82087,6.32E-03,1.32E-02
82088,5.71E-03,1.33E-02
82089,7.57E-03,1.33E-02
82090,6.09E-03,1.43E-02
82091,7.34E-03,1.43E-02
82092,7.55E-03,1.43E-02
82093,8.99E-03,1.36E-02
82094,9.15E-03,1.36E-02
82095,7.56E-03,1.19E-02
82096,7.50E-03,1.17E-02
82097,7.99E-03,1.45E-02
82098,8.47E-03,1.47E-02
82099,9.42E-03,1.47E-02
82100,8.16E-03,1.18E-02
82101,8.46E-03,1.18E-02
82102,8.74E-03,1.17E-02
82103,8.76E-03,1.47E-02
82104,9.03E-03,1.47E-02
82105,8.44E-03,1.23E-02
82106,8.31E-03,1.23E-02
82107,8.13E-03,1.22E-02
82108,7.91E-03,1.22E-02
82109,7.64E-03,1.22E-02
82110,7.49E-03,1.22E-02
82111,7.54E-03,1.22E-02
82112,7.53E-03,1.22E-02
82113,7.51E-03,1.22E-02
82114,7.48E-03,1.22E-02
82115,7.36E-03,1.21E-02
82116,7.44E-03,1.22E-02
82117,7.23E-03,1.21E-02
82118,7.27E-03,1.22E-02
82119,7.14E-03,1.22E-02
82120,5.44E-03,1.22E-02
82121,5.97E-03,1.23E-02
82122,5.98E-03,1.22E-02
82123,5.63E-03,1.21E-02
82124,7.42E-03,1.21E-02
82125,6.61E-03,1.30E-02
82126,6.76E-03,1.30E-02
82127,6.82E-03,1.30E-02
82128,6.60E-03,1.30E-02
82129,6.47E-03,1.29E-02
82130,6.56E-03,1.29E-02
82131,6.69E-03,1.29E-02
82132,6.93E-03,1.28E-02
82133,7.10E-03,1.28E-02
82134,7.30E-03,1.28E-02
82135,7.39E-03,1.28E-02
82136,7.48E-03,1.27E-02
82137,7.55E-03,1.27E-02
82138,7.61E-03,1.27E-02
82139,7.68E-03,1.27E-02
82140,7.75E-03,1.26E-02
82141,7.77E-03,1.26E-02
82142,7.77E-03,1.26E-02
82143,7.76E-03,1.26E-02
82144,7.71E-03,1.25E-02
82145,7.63E-03,1.25E-02
82146,7.60E-03,1.25E-02
82147,7.62E-03,1.24E-02
82148,7.68E-03,1.24E-02
82149,7.74E-03,1.24E-02
82150,7.73E-03,1.24E-02
82151,7.71E-03,1.23E-02
82152,7.70E-03,1.23E-02
82153,7.68E-03,1.23E-02
82154,7.72E-03,1.23E-02
82155,7.76E-03,1.22E-02
82156,7.79E-03,1.22E-02
82157,7.88E-03,1.22E-02
82158,7.94E-03,1.22E-02
82159,7.98E-03,1.21E-02
82160,8.10E-03,1.21E-02
82161,8.30E-03,1.21E-02
82162,8.70E-03,1.21E-02
82163,1.00E-02,1.20E-02
82164,8.14E-03,1.24E-02
82165,8.17E-03,1.24E-02
82166,8.17E-03,1.24E-02
82167,8.17E-03,1.24E-02
82168,8.17E-03,1.24E-02
82169,8.17E-03,1.24E-02
82170,8.18E-03,1.24E-02
82171,8.26E-03,1.24E-02
82172,8.37E-03,1.25E-02
82173,8.52E-03,1.25E-02
82174,8.59E-03,1.25E-02
82175,8.57E-03,1.25E-02
82176,8.36E-03,1.25E-02
82177,8.21E-03,1.25E-02
82178,8.10E-03,1.25E-02
82179,8.12E-03,1.26E-02
82180,8.05E-03,1.26E-02
82181,8.08E-03,1.26E-02
82182,7.98E-03,1.26E-02
82183,7.93E-03,1.26E-02
82184,7.88E-03,1.26E-02
82185,7.78E-03,1.26E-02
82186,7.70E-03,1.27E-02
82187,7.66E-03,1.27E-02
82188,7.66E-03,1.27E-02
82189,7.77E-03,1.27E-02
82190,7.88E-03,1.27E-02
82191,8.00E-03,1.27E-02
82192,8.16E-03,1.27E-02
82193,8.29E-03,1.28E-02
82194,8.40E-03,1.28E-02
82195,8.43E-03,1.28E-02
82196,8.44E-03,1.28E-02
82197,8.44E-03,1.28E-02
82198,8.39E-03,1.29E-02
82199,8.32E-03,1.29E-02
82200,8.38E-03,1.29E-02
82201,8.35E-03,1.29E-02
82202,8.39E-03,1.29E-02
82203,8.23E-03,1.29E-02
82204,8.11E-03,1.30E-02
82205,7.94E-03,1.30E-02
82206,7.88E-03,1.30E-02
82207,7.82E-03,1.30E-02
82208,7.79E-03,1.31E-02
82209,7.84E-03,1.31E-02
82210,7.84E-03,1.31E-02
82211,7.94E-03,1.31E-02
82212,8.06E-03,1.32E-02
82213,8.36E-03,1.32E-02
82214,9.04E-03,1.32E-02
82215,9.45E-03,1.32E-02
82216,9.47E-03,1.33E-02
82217,9.55E-03,1.33E-02
82218,9.18E-03,1.33E-02
82219,8.96E-03,1.33E-02
82220,8.61E-03,1.34E-02
82221,8.70E-03,1.34E-02
82222,8.99E-03,1.34E-02
82223,9.65E-03,1.35E-02
82224,9.94E-03,1.35E-02
82225,9.58E-03,1.35E-02
82226,8.19E-03,1.33E-02
82227,8.63E-03,1.34E-02
82228,9.10E-03,1.34E-02
82229,1.02E-02,1.34E-02
82230,1.04E-02,1.35E-02
82231,1.02E-02,1.35E-02
82232,9.56E-03,1.36E-02
82233,9.12E-03,1.36E-02
82234,8.89E-03,1.36E-02
82235,8.96E-03,1.37E-02
82236,8.83E-03,1.37E-02
82237,8.81E-03,1.38E-02
82238,8.74E-03,1.38E-02
82239,8.53E-03,1.38E-02
82240,8.48E-03,1.39E-02
82241,8.61E-03,1.39E-02
82242,8.55E-03,1.39E-02
82243,8.46E-03,1.40E-02
82244,8.38E-03,1.40E-02
82245,8.24E-03,1.41E-02
82246,7.44E-03,1.41E-02
82247,5.55E-03,1.41E-02
82248,5.56E-03,1.41E-02
82249,7.75E-03,1.18E-02
82250,1.14E-02,1.37E-02
82251,9.15E-03,1.38E-02
82252,9.05E-03,1.39E-02
82253,9.08E-03,1.39E-02
82254,9.19E-03,1.40E-02
82255,9.44E-03,1.40E-02
82256,1.07E-02,1.40E-02
82257,1.06E-02,1.41E-02
82258,9.43E-03,1.41E-02
82259,9.16E-03,1.42E-02
82260,8.31E-03,1.23E-02
82261,8.24E-03,1.23E-02
82262,8.02E-03,1.23E-02
82263,7.93E-03,1.23E-02
82264,7.84E-03,1.23E-02
82265,7.79E-03,1.23E-02
82266,7.83E-03,1.23E-02
82267,7.63E-03,1.23E-02
82268,7.52E-03,1.23E-02
82269,7.55E-03,1.23E-02
82270,7.46E-03,1.23E-02
82271,7.38E-03,1.23E-02
82272,6.95E-03,1.23E-02
82273,7.05E-03,1.17E-02
82274,7.05E-03,1.16E-02
82275,6.81E-03,1.17E-02
82276,7.06E-03,1.16E-02
82277,7.64E-03,1.16E-02
82278,8.60E-03,1.21E-02
82279,7.57E-03,1.20E-02
82280,7.71E-03,1.21E-02
82281,7.73E-03,1.20E-02
82282,8.48E-03,1.44E-02
82283,8.46E-03,1.44E-02
82284,7.78E-03,1.44E-02
82285,7.49E-03,1.44E-02
82286,7.46E-03,1.43E-02
82287,7.14E-03,1.20E-02
82288,1.16E-02,1.43E-02
82289,7.01E-03,1.44E-02
82290,6.40E-03,1.44E-02
82291,5.68E-03,1.44E-02
82292,5.90E-03,1.45E-02
82293,6.55E-03,1.45E-02
82294,7.12E-03,1.45E-02
82295,7.79E-03,1.46E-02
82296,7.96E-03,1.46E-02
82297,8.49E-03,1.46E-02
82298,5.33E-03,1.47E-02
82299,7.32E-03,1.16E-02
82300,6.34E-03,1.15E-02
82301,9.59E-03,1.17E-02
82302,7.07E-03,1.20E-02
82303,7.17E-03,1.20E-02
82304,6.91E-03,1.21E-02
82305,6.93E-03,1.21E-02
82306,9.22E-03,1.36E-02
82307,6.52E-03,1.32E-02
82308,7.39E-03,1.33E-02
82309,7.53E-03,1.33E-02
82310,7.23E-03,1.42E-02
82311,6.66E-03,1.21E-02
82312,9.39E-03,1.37E-02
82313,9.44E-03,1.42E-02
82314,6.86E-03,1.19E-02
82315,8.11E-03,1.24E-02
82316,8.28E-03,1.24E-02
82317,8.58E-03,1.17E-02
82318,7.84E-03,1.17E-02
82319,7.49E-03,1.17E-02
82320,7.30E-03,1.17E-02
82321,7.15E-03,1.16E-02
82322,5.12E-03,1.42E-02
82323,7.87E-03,1.19E-02
82324,4.84E-03,1.15E-02
82325,7.25E-03,1.15E-02
82326,8.29E-03,1.45E-02
82327,8.53E-03,1.42E-02
82328,8.21E-03,1.47E-02
82329,5.46E-03,1.47E-02
82330,5.14E-03,1.47E-02
82331,7.47E-03,1.20E-02
82332,6.35E-03,1.31E-02
82333,6.50E-03,1.31E-02
82334,7.37E-03,1.43E-02
82335,7.26E-03,1.21E-02
82336,6.79E-03,1.21E-02
82337,7.53E-03,1.21E-02
82338,7.70E-03,1.20E-02
82339,9.01E-03,1.36E-02
82340,9.14E-03,1.36E-02
82341,7.95E-03,1.18E-02
82342,6.52E-03,1.20E-02
82343,8.54E-03,1.46E-02
82344,8.32E-03,1.18E-02
82345,8.36E-03,1.17E-02
82346,8.63E-03,1.48E-02
82347,8.69E-03,1.48E-02
82348,8.25E-03,1.16E-02
82349,8.50E-03,1.47E-02
82350,8.41E-03,1.48E-02
82351,8.53E-03,1.22E-02
82352,7.48E-03,1.21E-02
82353,7.80E-03,1.21E-02
82354,7.83E-03,1.21E-02
82355,8.03E-03,1.22E-02
82356,7.87E-03,1.22E-02
82357,7.62E-03,1.22E-02
82358,7.77E-03,1.22E-02
82359,7.98E-03,1.22E-02
82360,7.95E-03,1.22E-02
82361,8.02E-03,1.22E-02
82362,7.72E-03,1.22E-02
82363,7.24E-03,1.22E-02
82364,5.74E-03,1.31E-02
82365,5.71E-03,1.30E-02
82366,6.04E-03,1.30E-02
82367,6.39E-03,1.31E-02
82368,6.27E-03,1.30E-02
82369,7.96E-03,1.21E-02
82370,6.42E-03,1.22E-02
82371,6.36E-03,1.30E-02
82372,4.37E-03,1.23E-02
82373,6.84E-03,1.30E-02
82374,6.70E-03,1.30E-02
82375,6.47E-03,1.29E-02
82376,6.38E-03,1.29E-02
82377,6.41E-03,1.29E-02
82378,6.69E-03,1.28E-02
82379,6.98E-03,1.28E-02
82380,7.16E-03,1.28E-02
82381,7.27E-03,1.28E-02
82382,7.40E-03,1.27E-02
82383,7.44E-03,1.27E-02
82384,7.52E-03,1.27E-02
82385,7.59E-03,1.27E-02
82386,7.64E-03,1.26E-02
82387,7.70E-03,1.26E-02
82388,7.74E-03,1.26E-02
82389,7.82E-03,1.25E-02
82390,7.82E-03,1.25E-02
82391,7.81E-03,1.25E-02
82392,7.80E-03,1.25E-02
82393,7.79E-03,1.24E-02
82394,7.78E-03,1.24E-02
82395,7.76E-03,1.24E-02
82396,7.75E-03,1.23E-02
82397,7.74E-03,1.23E-02
82398,7.72E-03,1.23E-02
82399,7.70E-03,1.23E-02
82400,7.69E-03,1.22E-02
82401,7.67E-03,1.22E-02
82402,7.70E-03,1.22E-02
82403,7.75E-03,1.22E-02
82404,7.89E-03,1.21E-02
82405,7.97E-03,1.21E-02
82406,7.98E-03,1.21E-02
82407,8.10E-03,1.21E-02
82408,8.16E-03,1.20E-02
82409,8.36E-03,1.20E-02
82410,9.73E-03,1.19E-02
82411,8.14E-03,1.24E-02
82412,8.17E-03,1.25E-02
82413,8.17E-03,1.25E-02
82414,8.17E-03,1.25E-02
82415,8.17E-03,1.25E-02
82416,8.17E-03,1.25E-02
82417,8.17E-03,1.25E-02
82418,8.18E-03,1.25E-02
82419,8.29E-03,1.25E-02
82420,8.34E-03,1.25E-02
82421,8.34E-03,1.25E-02
82422,8.34E-03,1.26E-02
82423,8.31E-03,1.26E-02
82424,8.26E-03,1.26E-02
82425,8.15E-03,1.26E-02
82426,8.11E-03,1.26E-02
82427,8.14E-03,1.26E-02
82428,8.19E-03,1.26E-02
82429,8.19E-03,1.26E-02
82430,8.16E-03,1.27E-02
82431,8.03E-03,1.27E-02
82432,7.91E-03,1.27E-02
82433,7.88E-03,1.27E-02
82434,7.86E-03,1.27E-02
82435,7.85E-03,1.27E-02
82436,7.89E-03,1.27E-02
82437,7.99E-03,1.28E-02
82438,8.07E-03,1.28E-02
82439,8.12E-03,1.28E-02
82440,8.22E-03,1.28E-02
82441,8.35E-03,1.28E-02
82442,8.36E-03,1.28E-02
82443,8.37E-03,1.28E-02
82444,8.35E-03,1.29E-02
82445,8.39E-03,1.29E-02
82446,8.34E-03,1.29E-02
82447,8.33E-03,1.29E-02
82448,8.34E-03,1.29E-02
82449,8.32E-03,1.29E-02
82450,8.26E-03,1.30E-02
82451,8.20E-03,1.30E-02
82452,8.14E-03,1.30E-02
82453,8.08E-03,1.30E-02
82454,8.11E-03,1.30E-02
82455,8.17E-03,1.31E-02
82456,8.29E-03,1.31E-02
82457,8.37E-03,1.31E-02
82458,8.41E-03,1.31E-02
82459,8.52E-03,1.32E-02
82460,8.73E-03,1.32E-02
82461,8.88E-03,1.32E-02
82462,9.15E-03,1.32E-02
82463,9.27E-03,1.33E-02
82464,9.10E-03,1.33E-02
82465,9.00E-03,1.33E-02
82466,8.98E-03,1.33E-02
82467,8.96E-03,1.34E-02
82468,9.14E-03,1.34E-02
82469,9.38E-03,1.34E-02
82470,9.49E-03,1.35E-02
82471,9.50E-03,1.35E-02
82472,9.45E-03,1.35E-02
82473,8.10E-03,1.33E-02
82474,8.68E-03,1.34E-02
82475,9.31E-03,1.34E-02
82476,1.02E-02,1.34E-02
82477,1.03E-02,1.35E-02
82478,1.00E-02,1.35E-02
82479,9.85E-03,1.36E-02
82480,9.41E-03,1.36E-02
82481,9.18E-03,1.37E-02
82482,9.05E-03,1.37E-02
82483,8.94E-03,1.37E-02
82484,9.00E-03,1.38E-02
82485,9.07E-03,1.38E-02
82486,8.75E-03,1.39E-02
82487,8.50E-03,1.39E-02
82488,8.42E-03,1.39E-02
82489,8.30E-03,1.40E-02
82490,8.23E-03,1.40E-02
82491,8.10E-03,1.40E-02
82492,7.77E-03,1.41E-02
82493,7.16E-03,1.41E-02
82494,7.06E-03,1.41E-02
82495,6.97E-03,1.42E-02
82496,7.36E-03,1.21E-02
82497,5.43E-03,1.22E-02
82498,6.47E-03,1.22E-02
82499,7.98E-03,1.18E-02
82500,1.06E-02,1.37E-02
82501,1.03E-02,1.37E-02
82502,9.59E-03,1.38E-02
82503,9.34E-03,1.38E-02
82504,9.30E-03,1.38E-02
82505,9.27E-03,1.39E-02
82506,9.49E-03,1.39E-02
82507,9.72E-03,1.40E-02
82508,1.02E-02,1.40E-02
82509,1.01E-02,1.40E-02
82510,9.96E-03,1.41E-02
82511,9.65E-03,1.41E-02
82512,6.73E-03,1.19E-02
82513,6.68E-03,1.19E-02
82514,8.20E-03,1.24E-02
82515,8.16E-03,1.24E-02
82516,8.07E-03,1.24E-02
82517,7.97E-03,1.24E-02
82518,7.94E-03,1.24E-02
82519,7.94E-03,1.24E-02
82520,7.82E-03,1.24E-02
82521,7.75E-03,1.24E-02
82522,7.72E-03,1.24E-02
82523,7.62E-03,1.24E-02
82524,7.59E-03,1.24E-02
82525,7.52E-03,1.24E-02
82526,7.37E-03,1.24E-02
82527,8.45E-03,1.23E-02
82528,8.79E-03,1.23E-02
82529,8.31E-03,1.23E-02
82530,7.93E-03,1.23E-02
82531,7.84E-03,1.23E-02
82532,8.01E-03,1.23E-02
82533,7.99E-03,1.23E-02
82534,8.04E-03,1.23E-02
82535,7.84E-03,1.23E-02
82536,7.57E-03,1.23E-02
82537,7.22E-03,1.23E-02
82538,6.56E-03,1.23E-02
82539,6.41E-03,1.23E-02
82540,6.24E-03,1.23E-02
82541,8.37E-03,1.22E-02
82542,6.92E-03,1.23E-02
82543,6.49E-03,1.22E-02
82544,6.27E-03,1.23E-02
82545,5.55E-03,1.22E-02
82546,8.14E-03,1.23E-02
82547,7.76E-03,1.23E-02
82548,5.31E-03,1.22E-02
82549,7.22E-03,1.23E-02
82550,8.28E-03,1.17E-02
82551,6.46E-03,1.17E-02
82552,6.55E-03,1.16E-02
82553,6.29E-03,1.41E-02
82554,7.16E-03,1.41E-02
82555,6.65E-03,1.19E-02
82556,8.85E-03,1.19E-02
82557,6.80E-03,1.15E-02
82558,6.82E-03,1.15E-02
82559,6.40E-03,1.15E-02
82560,8.42E-03,1.45E-02
82561,8.60E-03,1.45E-02
82562,1.05E-02,1.44E-02
82563,9.05E-03,1.44E-02
82564,7.47E-03,1.43E-02
82565,9.71E-03,1.43E-02
82566,7.21E-03,1.43E-02
82567,6.89E-03,1.44E-02
82568,6.55E-03,1.44E-02
82569,6.12E-03,1.44E-02
82570,6.43E-03,1.45E-02
82571,6.75E-03,1.45E-02
82572,7.17E-03,1.45E-02
82573,7.41E-03,1.45E-02
82574,6.96E-03,1.46E-02
82575,6.37E-03,1.46E-02
82576,6.86E-03,1.46E-02
82577,7.33E-03,1.20E-02
82578,7.23E-03,1.20E-02
82579,6.54E-03,1.30E-02
82580,9.23E-03,1.35E-02
82581,6.40E-03,1.31E-02
82582,6.97E-03,1.33E-02
82583,7.90E-03,1.33E-02
82584,7.38E-03,1.43E-02
82585,7.59E-03,1.21E-02
82586,7.82E-03,1.20E-02
82587,7.60E-03,1.20E-02
82588,7.33E-03,1.20E-02
82589,8.02E-03,1.20E-02
82590,6.79E-03,1.16E-02
82591,7.31E-03,1.17E-02
82592,1.05E-02,1.18E-02
82593,9.33E-03,1.37E-02
82594,8.68E-03,1.41E-02
82595,7.64E-03,1.18E-02
82596,8.11E-03,1.25E-02
82597,8.27E-03,1.25E-02
82598,1.02E-02,1.24E-02
82599,6.95E-03,1.19E-02
82600,6.86E-03,1.42E-02
82601,7.37E-03,1.16E-02
82602,7.72E-03,1.20E-02
82603,6.30E-03,1.48E-02
82604,6.69E-03,1.47E-02
82605,6.56E-03,1.46E-02
82606,7.16E-03,1.48E-02
82607,6.90E-03,1.49E-02
82608,6.48E-03,1.48E-02
82609,5.26E-03,1.15E-02
82610,8.36E-03,1.45E-02
82611,6.81E-03,1.23E-02
82612,6.61E-03,1.31E-02
82613,7.35E-03,1.43E-02
82614,8.65E-03,1.46E-02
82615,8.49E-03,1.47E-02
82616,8.77E-03,1.19E-02
82617,8.49E-03,1.19E-02
82618,8.96E-03,1.36E-02
82619,8.98E-03,1.36E-02
82620,7.96E-03,1.18E-02
82621,6.31E-03,1.14E-02
82622,5.54E-03,1.16E-02
82623,7.11E-03,1.19E-02
82624,5.63E-03,1.18E-02
82625,6.55E-03,1.18E-02
82626,6.61E-03,1.30E-02
82627,6.53E-03,1.30E-02
82628,6.55E-03,1.31E-02
82629,8.19E-03,1.17E-02
82630,8.31E-03,1.48E-02
82631,8.50E-03,1.48E-02
82632,8.22E-03,1.16E-02
82633,8.50E-03,1.48E-02
82634,7.39E-03,1.48E-02
82635,8.08E-03,1.48E-02
82636,7.76E-03,1.15E-02
82637,6.88E-03,1.16E-02
82638,7.31E-03,1.15E-02
82639,8.35E-03,1.19E-02
82640,8.58E-03,1.23E-02
82641,8.47E-03,1.23E-02
82642,8.24E-03,1.23E-02
82643,8.42E-03,1.23E-02
82644,6.68E-03,1.30E-02
82645,6.75E-03,1.29E-02
82646,6.30E-03,1.29E-02
82647,6.35E-03,1.29E-02
82648,6.40E-03,1.28E-02
82649,6.78E-03,1.28E-02
82650,6.99E-03,1.28E-02
82651,7.17E-03,1.28E-02
82652,7.29E-03,1.27E-02
82653,7.38E-03,1.27E-02
82654,7.45E-03,1.27E-02
82655,7.52E-03,1.26E-02
82656,7.57E-03,1.26E-02
82657,7.62E-03,1.26E-02
82658,7.67E-03,1.26E-02
82659,7.77E-03,1.25E-02
82660,7.83E-03,1.25E-02
82661,7.82E-03,1.25E-02
82662,7.81E-03,1.24E-02
82663,7.80E-03,1.24E-02
82664,7.79E-03,1.24E-02
82665,7.78E-03,1.24E-02
82666,7.77E-03,1.23E-02
82667,7.76E-03,1.23E-02
82668,7.74E-03,1.23E-02
82669,7.73E-03,1.22E-02
82670,7.71E-03,1.22E-02
82671,7.69E-03,1.22E-02
82672,7.68E-03,1.22E-02
82673,7.66E-03,1.21E-02
82674,7.69E-03,1.21E-02
82675,7.80E-03,1.21E-02
82676,7.85E-03,1.21E-02
82677,7.86E-03,1.20E-02
82678,7.91E-03,1.20E-02
82679,7.86E-03,1.20E-02
82680,7.84E-03,1.19E-02
82681,8.00E-03,1.19E-02
82682,8.14E-03,1.25E-02
82683,8.17E-03,1.25E-02
82684,8.17E-03,1.25E-02
82685,8.17E-03,1.25E-02
82686,8.17E-03,1.25E-02
82687,8.17E-03,1.26E-02
82688,8.17E-03,1.26E-02
82689,8.17E-03,1.26E-02
82690,8.18E-03,1.26E-02
82691,8.23E-03,1.26E-02
82692,8.27E-03,1.26E-02
82693,8.27E-03,1.26E-02
82694,8.24E-03,1.26E-02
82695,8.18E-03,1.26E-02
82696,8.19E-03,1.26E-02
82697,8.19E-03,1.27E-02
82698,8.19E-03,1.27E-02
82699,8.19E-03,1.27E-02
82700,8.19E-03,1.27E-02
82701,8.19E-03,1.27E-02
82702,8.20E-03,1.27E-02
82703,8.20E-03,1.27E-02
82704,8.20E-03,1.27E-02
82705,8.21E-03,1.27E-02
82706,8.21E-03,1.28E-02
82707,8.18E-03,1.28E-02
82708,8.14E-03,1.28E-02
82709,8.18E-03,1.28E-02
82710,8.24E-03,1.28E-02
82711,8.25E-03,1.28E-02
82712,8.26E-03,1.28E-02
82713,8.27E-03,1.29E-02
82714,8.28E-03,1.29E-02
82715,8.28E-03,1.29E-02
82716,8.29E-03,1.29E-02
82717,8.30E-03,1.29E-02
82718,8.31E-03,1.29E-02
82719,8.32E-03,1.30E-02
82720,8.34E-03,1.30E-02
82721,8.35E-03,1.30E-02
82722,8.33E-03,1.30E-02
82723,8.28E-03,1.30E-02
82724,8.29E-03,1.30E-02
82725,8.31E-03,1.31E-02
82726,8.38E-03,1.31E-02
82727,8.47E-03,1.31E-02
82728,8.50E-03,1.31E-02
82729,8.53E-03,1.31E-02
82730,8.57E-03,1.32E-02
82731,8.69E-03,1.32E-02
82732,8.77E-03,1.32E-02
82733,8.83E-03,1.32E-02
82734,8.82E-03,1.33E-02
82735,8.86E-03,1.33E-02
82736,9.05E-03,1.33E-02
82737,9.05E-03,1.33E-02
82738,9.05E-03,1.34E-02
82739,9.25E-03,1.34E-02
82740,9.40E-03,1.34E-02
82741,9.47E-03,1.35E-02
82742,9.35E-03,1.35E-02
82743,9.35E-03,1.35E-02
82744,6.34E-03,1.32E-02
82745,7.98E-03,1.33E-02
82746,8.87E-03,1.34E-02
82747,9.60E-03,1.34E-02
82748,1.01E-02,1.34E-02
82749,1.02E-02,1.35E-02
82750,1.01E-02,1.35E-02
82751,9.82E-03,1.36E-02
82752,9.39E-03,1.36E-02
82753,9.26E-03,1.37E-02
82754,9.10E-03,1.37E-02
82755,9.07E-03,1.37E-02
82756,9.12E-03,1.38E-02
82757,9.15E-03,1.38E-02
82758,8.82E-03,1.39E-02
82759,8.47E-03,1.39E-02
82760,8.18E-03,1.40E-02
82761,8.15E-03,1.40E-02
82762,8.09E-03,1.40E-02
82763,7.90E-03,1.41E-02
82764,7.64E-03,1.41E-02
82765,7.46E-03,1.41E-02
82766,7.62E-03,1.42E-02
82767,7.41E-03,1.42E-02
82768,7.38E-03,1.20E-02
82769,7.75E-03,1.22E-02
82770,5.70E-03,1.22E-02
82771,4.44E-03,1.22E-02
82772,4.43E-03,1.22E-02
82773,6.03E-03,1.21E-02
82774,6.33E-03,1.21E-02
82775,5.87E-03,1.21E-02
82776,8.12E-03,1.21E-02
82777,9.54E-03,1.21E-02
82778,9.19E-03,1.21E-02
82779,8.09E-03,1.17E-02
82780,9.60E-03,1.37E-02
82781,9.68E-03,1.37E-02
82782,9.64E-03,1.37E-02
82783,9.41E-03,1.38E-02
82784,9.36E-03,1.38E-02
82785,9.44E-03,1.39E-02
82786,9.79E-03,1.39E-02
82787,9.86E-03,1.39E-02
82788,1.01E-02,1.40E-02
82789,1.01E-02,1.40E-02
82790,1.01E-02,1.40E-02
82791,9.96E-03,1.41E-02
82792,6.95E-03,1.18E-02
82793,8.13E-03,1.25E-02
82794,8.16E-03,1.25E-02
82795,8.16E-03,1.25E-02
82796,8.08E-03,1.25E-02
82797,8.04E-03,1.25E-02
82798,8.01E-03,1.25E-02
82799,8.01E-03,1.25E-02
82800,7.93E-03,1.25E-02
82801,7.88E-03,1.24E-02
82802,7.90E-03,1.24E-02
82803,7.82E-03,1.24E-02
82804,7.75E-03,1.24E-02
82805,7.91E-03,1.24E-02
82806,8.08E-03,1.24E-02
82807,8.08E-03,1.24E-02
82808,8.22E-03,1.24E-02
82809,8.05E-03,1.24E-02
82810,8.01E-03,1.24E-02
82811,7.95E-03,1.24E-02
82812,7.98E-03,1.24E-02
82813,7.98E-03,1.24E-02
82814,7.82E-03,1.24E-02
82815,7.65E-03,1.24E-02
82816,7.31E-03,1.24E-02
82817,7.33E-03,1.24E-02
82818,7.67E-03,1.24E-02
82819,7.23E-03,1.24E-02
82820,7.45E-03,1.24E-02
82821,9.19E-03,1.24E-02
82822,9.78E-03,1.24E-02
82823,9.32E-03,1.24E-02
82824,8.45E-03,1.24E-02
82825,8.84E-03,1.24E-02
82826,9.15E-03,1.24E-02
82827,8.92E-03,1.24E-02
82828,8.78E-03,1.24E-02
82829,9.50E-03,1.24E-02
82830,8.93E-03,1.24E-02
82831,8.38E-03,1.24E-02
82832,9.41E-03,1.24E-02
82833,5.41E-03,1.18E-02
82834,4.33E-03,1.18E-02
82835,7.75E-03,1.18E-02
82836,6.30E-03,1.18E-02
82837,6.96E-03,1.16E-02
82838,7.99E-03,1.23E-02
82839,8.98E-03,1.23E-02
82840,7.79E-03,1.22E-02
82841,7.42E-03,1.17E-02
82842,6.58E-03,1.18E-02
82843,7.45E-03,1.19E-02
82844,7.60E-03,1.18E-02
82845,8.10E-03,1.42E-02
82846,7.52E-03,1.43E-02
82847,7.20E-03,1.43E-02
82848,6.38E-03,1.43E-02
82849,6.31E-03,1.44E-02
82850,6.49E-03,1.44E-02
82851,6.69E-03,1.44E-02
82852,6.89E-03,1.45E-02
82853,6.96E-03,1.45E-02
82854,6.86E-03,1.45E-02
82855,6.80E-03,1.45E-02
82856,6.93E-03,1.46E-02
82857,6.82E-03,1.46E-02
82858,6.10E-03,1.32E-02
82859,7.52E-03,1.33E-02
82860,6.82E-03,1.14E-02
82861,6.36E-03,1.25E-02
82862,8.39E-03,1.45E-02
82863,8.63E-03,1.45E-02
82864,9.87E-03,1.45E-02
82865,7.50E-03,1.14E-02
82866,9.80E-03,1.24E-02
82867,6.31E-03,1.24E-02
82868,9.54E-03,1.24E-02
82869,8.52E-03,1.24E-02
82870,7.11E-03,1.19E-02
82871,7.08E-03,1.19E-02
82872,5.05E-03,1.22E-02
82873,4.58E-03,1.22E-02
82874,6.66E-03,1.30E-02
82875,9.16E-03,1.35E-02
82876,6.34E-03,1.31E-02
82877,7.56E-03,1.43E-02
82878,8.38E-03,1.47E-02
82879,7.06E-03,1.47E-02
82880,7.74E-03,1.20E-02
82881,7.89E-03,1.19E-02
82882,7.73E-03,1.19E-02
82883,7.44E-03,1.19E-02
82884,7.98E-03,1.22E-02
82885,7.89E-03,1.21E-02
82886,7.57E-03,1.21E-02
82887,8.37E-03,1.19E-02
82888,5.23E-03,1.16E-02
82889,7.23E-03,1.16E-02
82890,8.41E-03,1.16E-02
82891,8.96E-03,1.36E-02
82892,8.77E-03,1.41E-02
82893,7.56E-03,1.18E-02
82894,9.70E-03,1.23E-02
82895,8.11E-03,1.26E-02
82896,8.27E-03,1.26E-02
82897,8.32E-03,1.23E-02
82898,8.63E-03,1.23E-02
82899,7.89E-03,1.24E-02
82900,7.30E-03,1.24E-02
82901,4.70E-03,1.25E-02
82902,7.29E-03,1.24E-02
82903,7.58E-03,1.24E-02
82904,6.28E-03,1.26E-02
82905,6.86E-03,1.14E-02
82906,8.04E-03,1.13E-02
82907,7.24E-03,1.44E-02
82908,6.65E-03,1.44E-02
82909,7.04E-03,1.45E-02
82910,8.18E-03,1.18E-02
82911,7.54E-03,1.15E-02
82912,8.34E-03,1.46E-02
82913,6.60E-03,1.31E-02
82914,7.52E-03,1.43E-02
82915,8.14E-03,1.18E-02
82916,8.22E-03,1.18E-02
82917,8.82E-03,1.35E-02
82918,8.72E-03,1.36E-02
82919,7.26E-03,1.16E-02
82920,5.00E-03,1.18E-02
82921,5.16E-03,1.18E-02
82922,8.08E-03,1.17E-02
82923,4.77E-03,1.15E-02
82924,5.18E-03,1.15E-02
82925,8.25E-03,1.49E-02
82926,7.71E-03,1.49E-02
82927,7.89E-03,1.49E-02
82928,6.79E-03,1.30E-02
82929,6.71E-03,1.30E-02
82930,6.72E-03,1.30E-02
82931,8.68E-03,1.49E-02
82932,8.24E-03,1.16E-02
82933,8.67E-03,1.49E-02
82934,8.62E-03,1.49E-02
82935,7.29E-03,1.22E-02
82936,8.18E-03,1.15E-02
82937,5.54E-03,1.48E-02
82938,7.16E-03,1.49E-02
82939,7.81E-03,1.14E-02
82940,5.87E-03,1.33E-02
82941,5.02E-03,1.32E-02
82942,7.01E-03,1.47E-02
82943,6.97E-03,1.47E-02
82944,5.98E-03,1.32E-02
82945,6.81E-03,1.46E-02
82946,7.37E-03,1.22E-02
82947,6.03E-03,1.22E-02
82948,6.77E-03,1.29E-02
82949,6.81E-03,1.29E-02
82950,6.23E-03,1.29E-02
82951,6.31E-03,1.28E-02
82952,6.43E-03,1.28E-02
82953,6.82E-03,1.28E-02
82954,7.05E-03,1.28E-02
82955,7.19E-03,1.27E-02
82956,7.30E-03,1.27E-02
82957,7.39E-03,1.27E-02
82958,7.46E-03,1.26E-02
82959,7.53E-03,1.26E-02
82960,7.58E-03,1.26E-02
82961,7.62E-03,1.25E-02
82962,7.68E-03,1.25E-02
82963,7.77E-03,1.25E-02
82964,7.83E-03,1.25E-02
82965,7.83E-03,1.24E-02
82966,7.82E-03,1.24E-02
82967,7.81E-03,1.24E-02
82968,7.80E-03,1.23E-02
82969,7.79E-03,1.23E-02
82970,7.77E-03,1.23E-02
82971,7.76E-03,1.22E-02
82972,7.75E-03,1.22E-02
82973,7.73E-03,1.22E-02
82974,7.72E-03,1.22E-02
82975,7.70E-03,1.21E-02
82976,7.68E-03,1.21E-02
82977,7.66E-03,1.21E-02
82978,7.64E-03,1.20E-02
82979,7.69E-03,1.20E-02
82980,7.77E-03,1.20E-02
82981,7.83E-03,1.20E-02
82982,7.82E-03,1.19E-02
82983,7.90E-03,1.19E-02
82984,7.68E-03,1.19E-02
82985,7.12E-03,1.18E-02
82986,8.14E-03,1.26E-02
82987,8.16E-03,1.26E-02
82988,8.17E-03,1.26E-02
82989,8.17E-03,1.26E-02
82990,8.17E-03,1.26E-02
82991,8.17E-03,1.26E-02
82992,8.17E-03,1.26E-02
82993,8.17E-03,1.26E-02
82994,8.17E-03,1.26E-02
82995,8.18E-03,1.27E-02
82996,8.18E-03,1.27E-02
82997,8.18E-03,1.27E-02
82998,8.18E-03,1.27E-02
82999,8.18E-03,1.27E-02
83000,8.18E-03,1.27E-02
83001,8.19E-03,1.27E-02
83002,8.19E-03,1.27E-02
83003,8.19E-03,1.27E-02
83004,8.19E-03,1.27E-02
83005,8.19E-03,1.27E-02
83006,8.19E-03,1.28E-02
83007,8.20E-03,1.28E-02
83008,8.20E-03,1.28E-02
83009,8.20E-03,1.28E-02
83010,8.21E-03,1.28E-02
83011,8.21E-03,1.28E-02
83012,8.22E-03,1.28E-02
83013,8.23E-03,1.28E-02
83014,8.23E-03,1.28E-02
83015,8.24E-03,1.29E-02
83016,8.25E-03,1.29E-02
83017,8.27E-03,1.29E-02
83018,8.27E-03,1.29E-02
83019,8.28E-03,1.29E-02
83020,8.29E-03,1.29E-02
83021,8.30E-03,1.29E-02
83022,8.31E-03,1.30E-02
83023,8.32E-03,1.30E-02
83024,8.33E-03,1.30E-02
83025,8.35E-03,1.30E-02
83026,8.36E-03,1.30E-02
83027,8.38E-03,1.30E-02
83028,8.40E-03,1.31E-02
83029,8.42E-03,1.31E-02
83030,8.44E-03,1.31E-02
83031,8.46E-03,1.31E-02
83032,8.49E-03,1.31E-02
83033,8.52E-03,1.31E-02
83034,8.56E-03,1.32E-02
83035,8.60E-03,1.32E-02
83036,8.65E-03,1.32E-02
83037,8.70E-03,1.32E-02
83038,8.77E-03,1.33E-02
83039,8.84E-03,1.33E-02
83040,9.04E-03,1.33E-02
83041,9.09E-03,1.33E-02
83042,9.23E-03,1.34E-02
83043,9.53E-03,1.34E-02
83044,9.55E-03,1.34E-02
83045,9.60E-03,1.34E-02
83046,9.32E-03,1.35E-02
83047,9.27E-03,1.35E-02
83048,6.20E-03,1.32E-02
83049,6.19E-03,1.32E-02
83050,7.97E-03,1.33E-02
83051,9.15E-03,1.34E-02
83052,1.02E-02,1.34E-02
83053,1.02E-02,1.34E-02
83054,1.01E-02,1.35E-02
83055,1.01E-02,1.35E-02
83056,9.81E-03,1.36E-02
83057,9.40E-03,1.36E-02
83058,9.39E-03,1.37E-02
83059,9.13E-03,1.37E-02
83060,9.11E-03,1.38E-02
83061,9.14E-03,1.38E-02
83062,9.18E-03,1.38E-02
83063,9.07E-03,1.39E-02
83064,8.18E-03,1.39E-02
83065,8.19E-03,1.40E-02
83066,8.04E-03,1.40E-02
83067,7.94E-03,1.40E-02
83068,7.80E-03,1.41E-02
83069,7.66E-03,1.41E-02
83070,7.53E-03,1.42E-02
83071,7.59E-03,1.42E-02
83072,7.58E-03,1.42E-02
83073,5.67E-03,1.48E-02
83074,7.12E-03,1.47E-02
83075,7.57E-03,1.19E-02
83076,6.94E-03,1.21E-02
83077,5.93E-03,1.21E-02
83078,5.29E-03,1.21E-02
83079,5.17E-03,1.21E-02
83080,5.64E-03,1.20E-02
83081,6.00E-03,1.20E-02
83082,6.39E-03,1.20E-02
83083,8.74E-03,1.20E-02
83084,8.46E-03,1.20E-02
83085,8.48E-03,1.20E-02
83086,8.21E-03,1.16E-02
83087,9.22E-03,1.37E-02
83088,9.38E-03,1.37E-02
83089,9.56E-03,1.37E-02
83090,9.43E-03,1.37E-02
83091,9.46E-03,1.38E-02
83092,9.61E-03,1.38E-02
83093,9.79E-03,1.39E-02
83094,9.87E-03,1.39E-02
83095,1.00E-02,1.39E-02
83096,1.01E-02,1.40E-02
83097,1.02E-02,1.40E-02
83098,1.01E-02,1.40E-02
83099,6.79E-03,1.48E-02
83100,7.17E-03,1.18E-02
83101,7.95E-03,1.23E-02
83102,7.70E-03,1.23E-02
83103,5.82E-03,1.23E-02
83104,6.90E-03,1.23E-02
83105,1.04E-02,1.23E-02
83106,1.26E-02,1.23E-02
83107,8.13E-03,1.26E-02
83108,8.16E-03,1.26E-02
83109,8.16E-03,1.26E-02
83110,8.16E-03,1.26E-02
83111,8.11E-03,1.25E-02
83112,8.07E-03,1.25E-02
83113,8.05E-03,1.25E-02
83114,8.05E-03,1.25E-02
83115,8.05E-03,1.25E-02
83116,7.97E-03,1.25E-02
83117,7.88E-03,1.25E-02
83118,7.90E-03,1.25E-02
83119,7.97E-03,1.25E-02
83120,8.09E-03,1.25E-02
83121,8.12E-03,1.25E-02
83122,8.13E-03,1.25E-02
83123,8.11E-03,1.25E-02
83124,8.14E-03,1.25E-02
83125,8.09E-03,1.25E-02
83126,8.03E-03,1.25E-02
83127,7.98E-03,1.25E-02
83128,7.87E-03,1.25E-02
83129,7.74E-03,1.25E-02
83130,7.75E-03,1.25E-02
83131,7.89E-03,1.25E-02
83132,7.81E-03,1.25E-02
83133,7.92E-03,1.25E-02
83134,8.23E-03,1.25E-02
83135,8.59E-03,1.25E-02
83136,8.89E-03,1.25E-02
83137,8.93E-03,1.25E-02
83138,8.86E-03,1.25E-02
83139,8.82E-03,1.25E-02
83140,8.90E-03,1.25E-02
83141,8.93E-03,1.25E-02
83142,9.03E-03,1.25E-02
83143,9.01E-03,1.25E-02
83144,8.97E-03,1.25E-02
83145,9.28E-03,1.25E-02
83146,9.45E-03,1.25E-02
83147,9.87E-03,1.25E-02
83148,1.11E-02,1.25E-02
83149,1.07E-02,1.25E-02
83150,9.08E-03,1.26E-02
83151,8.14E-03,1.26E-02
83152,6.70E-03,1.26E-02
83153,5.85E-03,1.26E-02
83154,5.50E-03,1.26E-02
83155,5.92E-03,1.26E-02
83156,6.45E-03,1.26E-02
83157,7.01E-03,1.26E-02
83158,6.95E-03,1.26E-02
83159,5.40E-03,1.26E-02
83160,6.08E-03,1.26E-02
83161,8.91E-03,1.26E-02
83162,7.87E-03,1.26E-02
83163,7.64E-03,1.26E-02
83164,7.38E-03,1.26E-02
83165,7.29E-03,1.26E-02
83166,7.07E-03,1.26E-02
83167,6.87E-03,1.26E-02
83168,6.59E-03,1.25E-02
83169,6.64E-03,1.26E-02
83170,6.31E-03,1.26E-02
83171,7.60E-03,1.26E-02
83172,7.55E-03,1.26E-02
83173,5.78E-03,1.26E-02
83174,8.23E-03,1.26E-02
83175,7.63E-03,1.26E-02
83176,8.45E-03,1.26E-02
83177,8.63E-03,1.25E-02
83178,8.24E-03,1.25E-02
83179,6.59E-03,1.24E-02
83180,5.78E-03,1.25E-02
83181,6.58E-03,1.26E-02
83182,7.95E-03,1.25E-02
83183,7.47E-03,1.18E-02
83184,6.40E-03,1.17E-02
83185,5.75E-03,1.32E-02
83186,8.79E-03,1.42E-02
83187,8.58E-03,1.42E-02
83188,6.88E-03,1.43E-02
83189,6.29E-03,1.43E-02
83190,6.29E-03,1.43E-02
83191,6.41E-03,1.43E-02
83192,6.56E-03,1.44E-02
83193,6.76E-03,1.44E-02
83194,6.80E-03,1.44E-02
83195,6.81E-03,1.44E-02
83196,7.04E-03,1.45E-02
83197,7.10E-03,1.45E-02
83198,6.94E-03,1.45E-02
83199,6.56E-03,1.46E-02
83200,7.97E-03,1.47E-02
83201,7.81E-03,1.48E-02
83202,7.25E-03,1.15E-02
83203,6.10E-03,1.48E-02
83204,6.72E-03,1.46E-02
83205,7.18E-03,1.13E-02
83206,8.55E-03,1.13E-02
83207,5.77E-03,1.45E-02
83208,7.44E-03,1.44E-02
83209,5.79E-03,1.18E-02
83210,5.81E-03,1.18E-02
83211,7.37E-03,1.14E-02
83212,8.00E-03,1.13E-02
83213,8.34E-03,1.46E-02
83214,8.44E-03,1.46E-02
83215,8.19E-03,1.45E-02
83216,7.81E-03,1.45E-02
83217,9.43E-03,1.25E-02
83218,7.96E-03,1.25E-02
83219,6.44E-03,1.19E-02
83220,7.17E-03,1.18E-02
83221,8.17E-03,1.22E-02
83222,6.97E-03,1.21E-02
83223,6.79E-03,1.29E-02
83224,9.08E-03,1.35E-02
83225,6.40E-03,1.31E-02
83226,6.74E-03,1.32E-02
83227,7.79E-03,1.43E-02
83228,8.05E-03,1.46E-02
83229,6.21E-03,1.47E-02
83230,7.74E-03,1.18E-02
83231,8.25E-03,1.18E-02
83232,7.99E-03,1.18E-02
83233,7.60E-03,1.18E-02
83234,6.79E-03,1.25E-02
83235,7.62E-03,1.25E-02
83236,8.02E-03,1.20E-02
83237,7.30E-03,1.20E-02
83238,7.08E-03,1.20E-02
83239,8.15E-03,1.18E-02
83240,9.58E-03,1.47E-02
83241,8.67E-03,1.36E-02
83242,1.04E-02,1.40E-02
83243,7.26E-03,1.15E-02
83244,8.40E-03,1.16E-02
83245,7.45E-03,1.16E-02
83246,5.62E-03,1.18E-02
83247,6.89E-03,1.17E-02
83248,8.69E-03,1.45E-02
83249,7.71E-03,1.17E-02
83250,7.68E-03,1.18E-02
83251,9.16E-03,1.49E-02
83252,5.49E-03,1.18E-02
83253,6.67E-03,1.31E-02
83254,8.11E-03,1.44E-02
83255,8.55E-03,1.49E-02
83256,8.67E-03,1.49E-02
83257,8.87E-03,1.50E-02
83258,7.37E-03,1.23E-02
83259,6.43E-03,1.24E-02
83260,8.11E-03,1.27E-02
83261,8.27E-03,1.26E-02
83262,8.19E-03,1.16E-02
83263,9.19E-03,1.49E-02
83264,9.85E-03,1.49E-02
83265,8.54E-03,1.35E-02
83266,8.41E-03,1.35E-02
83267,1.15E-02,1.40E-02
83268,7.09E-03,1.29E-02
83269,7.04E-03,1.30E-02
83270,6.75E-03,1.30E-02
83271,7.66E-03,1.17E-02
83272,7.13E-03,1.17E-02
83273,7.44E-03,1.22E-02
83274,8.32E-03,1.24E-02
83275,6.73E-03,1.23E-02
83276,7.30E-03,1.15E-02
83277,7.97E-03,1.24E-02
83278,8.39E-03,1.15E-02
83279,6.93E-03,1.24E-02
83280,6.49E-03,1.24E-02
83281,6.78E-03,1.49E-02
83282,1.02E-02,1.49E-02
83283,4.62E-03,1.21E-02
83284,4.99E-03,1.21E-02
83285,8.25E-03,1.14E-02
83286,8.08E-03,1.13E-02
83287,8.95E-03,1.12E-02
83288,7.81E-03,1.20E-02
83289,7.14E-03,1.21E-02
83290,6.88E-03,1.29E-02
83291,6.95E-03,1.29E-02
83292,6.24E-03,1.28E-02
83293,6.32E-03,1.28E-02
83294,6.43E-03,1.28E-02
83295,6.90E-03,1.28E-02
83296,7.07E-03,1.27E-02
83297,7.20E-03,1.27E-02
83298,7.31E-03,1.27E-02
83299,7.40E-03,1.26E-02
83300,7.47E-03,1.26E-02
83301,7.54E-03,1.26E-02
83302,7.59E-03,1.25E-02
83303,7.63E-03,1.25E-02
83304,7.68E-03,1.25E-02
83305,7.78E-03,1.24E-02
83306,7.84E-03,1.24E-02
83307,7.83E-03,1.24E-02
83308,7.82E-03,1.23E-02
83309,7.81E-03,1.23E-02
83310,7.80E-03,1.23E-02
83311,7.79E-03,1.23E-02
83312,7.78E-03,1.22E-02
83313,7.77E-03,1.22E-02
83314,7.75E-03,1.22E-02
83315,7.74E-03,1.21E-02
83316,7.72E-03,1.21E-02
83317,7.71E-03,1.21E-02
83318,7.69E-03,1.20E-02
83319,7.67E-03,1.20E-02
83320,7.65E-03,1.20E-02
83321,7.63E-03,1.20E-02
83322,7.73E-03,1.19E-02
83323,7.78E-03,1.19E-02
83324,7.80E-03,1.19E-02
83325,7.89E-03,1.18E-02
83326,7.75E-03,1.18E-02
83327,7.49E-03,1.18E-02
83328,8.14E-03,1.27E-02
83329,8.16E-03,1.27E-02
83330,8.16E-03,1.27E-02
83331,8.17E-03,1.27E-02
83332,8.17E-03,1.27E-02
83333,8.17E-03,1.27E-02
83334,8.17E-03,1.27E-02
83335,8.17E-03,1.27E-02
83336,8.17E-03,1.27E-02
83337,8.17E-03,1.27E-02
83338,8.18E-03,1.27E-02
83339,8.18E-03,1.27E-02
83340,8.18E-03,1.27E-02
83341,8.18E-03,1.27E-02
83342,8.18E-03,1.27E-02
83343,8.18E-03,1.28E-02
83344,8.19E-03,1.28E-02
83345,8.19E-03,1.28E-02
83346,8.19E-03,1.28E-02
83347,8.19E-03,1.28E-02
83348,8.19E-03,1.28E-02
83349,8.20E-03,1.28E-02
83350,8.20E-03,1.28E-02
83351,8.20E-03,1.28E-02
83352,8.21E-03,1.28E-02
83353,8.21E-03,1.28E-02
83354,8.22E-03,1.29E-02
83355,8.22E-03,1.29E-02
83356,8.23E-03,1.29E-02
83357,8.24E-03,1.29E-02
83358,8.25E-03,1.29E-02
83359,8.26E-03,1.29E-02
83360,8.27E-03,1.29E-02
83361,8.28E-03,1.29E-02
83362,8.28E-03,1.30E-02
83363,8.29E-03,1.30E-02
83364,8.30E-03,1.30E-02
83365,8.32E-03,1.30E-02
83366,8.33E-03,1.30E-02
83367,8.34E-03,1.30E-02
83368,8.36E-03,1.30E-02
83369,8.37E-03,1.30E-02
83370,8.39E-03,1.31E-02
83371,8.41E-03,1.31E-02
83372,8.43E-03,1.31E-02
83373,8.46E-03,1.31E-02
83374,8.48E-03,1.31E-02
83375,8.52E-03,1.32E-02
83376,8.55E-03,1.32E-02
83377,8.59E-03,1.32E-02
83378,8.64E-03,1.32E-02
83379,8.69E-03,1.32E-02
83380,8.76E-03,1.33E-02
83381,8.83E-03,1.33E-02
83382,9.03E-03,1.33E-02
83383,9.07E-03,1.33E-02
83384,9.21E-03,1.33E-02
83385,9.46E-03,1.34E-02
83386,9.62E-03,1.34E-02
83387,9.70E-03,1.34E-02
83388,9.43E-03,1.35E-02
83389,9.29E-03,1.35E-02
83390,6.37E-03,1.32E-02
83391,5.91E-03,1.32E-02
83392,9.25E-03,1.33E-02
83393,9.51E-03,1.33E-02
83394,1.04E-02,1.34E-02
83395,1.04E-02,1.34E-02
83396,1.02E-02,1.35E-02
83397,1.02E-02,1.35E-02
83398,9.75E-03,1.36E-02
83399,9.45E-03,1.36E-02
83400,9.28E-03,1.37E-02
83401,9.11E-03,1.37E-02
83402,9.10E-03,1.38E-02
83403,9.10E-03,1.38E-02
83404,9.22E-03,1.39E-02
83405,9.37E-03,1.39E-02
83406,8.09E-03,1.39E-02
83407,8.07E-03,1.40E-02
83408,7.84E-03,1.40E-02
83409,7.77E-03,1.41E-02
83410,7.72E-03,1.41E-02
83411,7.59E-03,1.41E-02
83412,7.55E-03,1.42E-02
83413,7.67E-03,1.42E-02
83414,7.76E-03,1.43E-02
83415,7.01E-03,1.47E-02
83416,7.75E-03,1.18E-02
83417,6.83E-03,1.25E-02
83418,7.61E-03,1.25E-02
83419,7.30E-03,1.25E-02
83420,7.05E-03,1.25E-02
83421,8.32E-03,1.24E-02
83422,6.74E-03,1.20E-02
83423,5.77E-03,1.20E-02
83424,5.64E-03,1.20E-02
83425,5.29E-03,1.20E-02
83426,5.50E-03,1.19E-02
83427,5.92E-03,1.19E-02
83428,7.17E-03,1.19E-02
83429,8.01E-03,1.19E-02
83430,8.25E-03,1.19E-02
83431,8.22E-03,1.19E-02
83432,9.17E-03,1.48E-02
83433,9.36E-03,1.49E-02
83434,8.50E-03,1.15E-02
83435,9.10E-03,1.36E-02
83436,9.29E-03,1.37E-02
83437,9.41E-03,1.37E-02
83438,9.40E-03,1.37E-02
83439,9.53E-03,1.37E-02
83440,9.64E-03,1.38E-02
83441,9.74E-03,1.38E-02
83442,9.88E-03,1.38E-02
83443,1.01E-02,1.39E-02
83444,1.02E-02,1.39E-02
83445,1.04E-02,1.39E-02
83446,1.02E-02,1.40E-02
83447,7.89E-03,1.15E-02
83448,9.88E-03,1.41E-02
83449,7.04E-03,1.48E-02
83450,7.85E-03,1.16E-02
83451,7.95E-03,1.15E-02
83452,4.77E-03,1.16E-02
83453,8.01E-03,1.46E-02
83454,8.09E-03,1.46E-02
83455,7.95E-03,1.46E-02
83456,7.55E-03,1.45E-02
83457,8.90E-03,1.45E-02
83458,8.38E-03,1.45E-02
83459,7.49E-03,1.17E-02
83460,8.16E-03,1.17E-02
83461,7.19E-03,1.13E-02
83462,6.57E-03,1.17E-02
83463,6.53E-03,1.18E-02
83464,7.37E-03,1.18E-02
83465,6.74E-03,1.22E-02
83466,7.50E-03,1.22E-02
83467,7.38E-03,1.22E-02
83468,7.41E-03,1.22E-02
83469,7.95E-03,1.22E-02
83470,8.82E-03,1.22E-02
83471,1.10E-02,1.21E-02
83472,9.22E-03,1.21E-02
83473,8.58E-03,1.20E-02
83474,8.57E-03,1.22E-02
83475,6.55E-03,1.21E-02
83476,6.27E-03,1.21E-02
83477,6.99E-03,1.29E-02
83478,7.17E-03,1.17E-02
83479,9.14E-03,1.35E-02
83480,6.54E-03,1.31E-02
83481,8.67E-03,1.32E-02
83482,8.03E-03,1.43E-02
83483,7.59E-03,1.18E-02
83484,7.88E-03,1.17E-02
83485,8.83E-03,1.17E-02
83486,7.85E-03,1.50E-02
83487,7.41E-03,1.15E-02
83488,8.45E-03,1.23E-02
83489,7.98E-03,1.23E-02
83490,6.64E-03,1.24E-02
83491,7.77E-03,1.23E-02
83492,8.10E-03,1.27E-02
83493,8.27E-03,1.27E-02
83494,8.53E-03,1.19E-02
83495,6.77E-03,1.19E-02
83496,6.78E-03,1.19E-02
83497,7.70E-03,1.17E-02
83498,5.81E-03,1.46E-02
83499,6.80E-03,1.45E-02
83500,7.08E-03,1.45E-02
83501,7.15E-03,1.44E-02
83502,7.18E-03,1.44E-02
83503,6.92E-03,1.44E-02
83504,6.79E-03,1.43E-02
83505,6.81E-03,1.43E-02
83506,6.46E-03,1.43E-02
83507,6.38E-03,1.43E-02
83508,6.26E-03,1.42E-02
83509,6.24E-03,1.42E-02
83510,5.77E-03,1.42E-02
83511,5.89E-03,1.41E-02
83512,7.96E-03,1.16E-02
83513,5.61E-03,1.32E-02
83514,7.61E-03,1.34E-02
83515,9.76E-03,1.31E-02
83516,7.17E-03,1.31E-02
83517,5.77E-03,1.32E-02
83518,9.18E-03,1.50E-02
83519,9.31E-03,1.50E-02
83520,9.29E-03,1.50E-02
83521,7.63E-03,1.51E-02
83522,9.83E-03,1.50E-02
83523,9.47E-03,1.15E-02
83524,8.39E-03,1.14E-02
83525,8.42E-03,1.36E-02
83526,1.06E-02,1.40E-02
83527,8.45E-03,1.12E-02
83528,9.19E-03,1.11E-02
83529,8.29E-03,1.44E-02
83530,6.31E-03,1.30E-02
83531,7.03E-03,1.17E-02
83532,7.91E-03,1.22E-02
83533,8.13E-03,1.26E-02
83534,8.16E-03,1.26E-02
83535,8.16E-03,1.26E-02
83536,8.16E-03,1.26E-02
83537,8.15E-03,1.26E-02
83538,8.16E-03,1.26E-02
83539,8.17E-03,1.26E-02
83540,8.19E-03,1.26E-02
83541,8.13E-03,1.26E-02
83542,8.09E-03,1.26E-02
83543,8.06E-03,1.26E-02
83544,8.04E-03,1.26E-02
83545,8.05E-03,1.26E-02
83546,8.10E-03,1.26E-02
83547,8.16E-03,1.26E-02
83548,8.23E-03,1.26E-02
83549,8.21E-03,1.26E-02
83550,8.15E-03,1.26E-02
83551,8.14E-03,1.26E-02
83552,8.11E-03,1.26E-02
83553,8.07E-03,1.26E-02
83554,8.00E-03,1.26E-02
83555,7.99E-03,1.26E-02
83556,7.98E-03,1.26E-02
83557,7.90E-03,1.26E-02
83558,8.02E-03,1.26E-02
83559,8.16E-03,1.26E-02
83560,8.36E-03,1.26E-02
83561,8.47E-03,1.26E-02
83562,8.67E-03,1.26E-02
83563,8.69E-03,1.26E-02
83564,8.69E-03,1.26E-02
83565,8.77E-03,1.26E-02
83566,8.88E-03,1.26E-02
83567,8.92E-03,1.26E-02
83568,9.05E-03,1.26E-02
83569,9.16E-03,1.26E-02
83570,9.16E-03,1.26E-02
83571,9.54E-03,1.26E-02
83572,9.69E-03,1.26E-02
83573,9.98E-03,1.26E-02
83574,1.01E-02,1.27E-02
83575,9.97E-03,1.27E-02
83576,9.19E-03,1.27E-02
83577,8.84E-03,1.27E-02
83578,6.27E-03,1.27E-02
83579,5.75E-03,1.27E-02
83580,5.86E-03,1.27E-02
83581,6.20E-03,1.27E-02
83582,6.49E-03,1.27E-02
83583,6.65E-03,1.27E-02
83584,6.49E-03,1.27E-02
83585,6.65E-03,1.27E-02
83586,7.04E-03,1.27E-02
83587,7.45E-03,1.27E-02
83588,7.72E-03,1.27E-02
83589,7.58E-03,1.27E-02
83590,7.39E-03,1.27E-02
83591,7.33E-03,1.27E-02
83592,7.09E-03,1.28E-02
83593,7.01E-03,1.28E-02
83594,6.99E-03,1.28E-02
83595,7.13E-03,1.28E-02
83596,7.20E-03,1.27E-02
83597,7.20E-03,1.28E-02
83598,7.21E-03,1.27E-02
83599,6.83E-03,1.27E-02
83600,7.58E-03,1.27E-02
83601,8.42E-03,1.27E-02
83602,9.52E-03,1.27E-02
83603,8.64E-03,1.27E-02
83604,7.02E-03,1.27E-02
83605,6.59E-03,1.27E-02
83606,6.97E-03,1.27E-02
83607,8.18E-03,1.27E-02
83608,1.01E-02,1.26E-02
83609,1.03E-02,1.26E-02
83610,8.11E-03,1.25E-02
83611,8.63E-03,1.27E-02
83612,7.61E-03,1.26E-02
83613,7.90E-03,1.27E-02
83614,7.46E-03,1.26E-02
83615,7.56E-03,1.27E-02
83616,7.30E-03,1.26E-02
83617,7.38E-03,1.27E-02
83618,5.53E-03,1.24E-02
83619,7.23E-03,1.24E-02
83620,7.37E-03,1.24E-02
83621,7.24E-03,1.24E-02
83622,6.76E-03,1.24E-02
83623,6.40E-03,1.23E-02
83624,6.91E-03,1.29E-02
83625,6.59E-03,1.31E-02
83626,6.54E-03,1.17E-02
83627,6.65E-03,1.23E-02
83628,7.23E-03,1.15E-02
83629,7.64E-03,1.14E-02
83630,9.03E-03,1.23E-02
83631,7.86E-03,1.22E-02
83632,7.64E-03,1.22E-02
83633,7.17E-03,1.22E-02
83634,6.97E-03,1.22E-02
83635,8.37E-03,1.15E-02
83636,7.74E-03,1.23E-02
83637,6.95E-03,1.23E-02
83638,9.90E-03,1.50E-02
83639,7.61E-03,1.17E-02
83640,8.22E-03,1.35E-02
83641,8.19E-03,1.35E-02
83642,4.45E-03,1.21E-02
83643,7.42E-03,1.23E-02
83644,7.18E-03,1.16E-02
83645,7.03E-03,1.16E-02
83646,7.93E-03,1.21E-02
83647,9.43E-03,1.29E-02
83648,8.64E-03,1.29E-02
83649,7.90E-03,1.14E-02
83650,8.56E-03,1.14E-02
83651,8.59E-03,1.13E-02
83652,9.69E-03,1.49E-02
83653,1.08E-02,1.49E-02
83654,8.65E-03,1.32E-02
83655,8.01E-03,1.34E-02
83656,8.85E-03,1.12E-02
83657,9.96E-03,1.11E-02
83658,9.09E-03,1.46E-02
83659,6.99E-03,1.24E-02
83660,6.67E-03,1.23E-02
83661,7.71E-03,1.21E-02
83662,6.54E-03,1.15E-02
83663,2.76E-03,1.15E-02
83664,8.51E-03,1.19E-02
83665,8.53E-03,1.20E-02
83666,7.79E-03,1.20E-02
83667,8.74E-03,1.20E-02
83668,8.13E-03,1.21E-02
83669,7.76E-03,1.21E-02
83670,7.66E-03,1.21E-02
83671,7.51E-03,1.21E-02
83672,7.05E-03,1.29E-02
83673,7.06E-03,1.28E-02
83674,6.34E-03,1.28E-02
83675,6.40E-03,1.28E-02
83676,6.45E-03,1.27E-02
83677,6.92E-03,1.27E-02
83678,7.09E-03,1.27E-02
83679,7.22E-03,1.27E-02
83680,7.33E-03,1.26E-02
83681,7.41E-03,1.26E-02
83682,7.48E-03,1.26E-02
83683,7.54E-03,1.25E-02
83684,7.60E-03,1.25E-02
83685,7.64E-03,1.25E-02
83686,7.69E-03,1.24E-02
83687,7.78E-03,1.24E-02
83688,7.84E-03,1.24E-02
83689,7.84E-03,1.23E-02
83690,7.83E-03,1.23E-02
83691,7.82E-03,1.23E-02
83692,7.81E-03,1.22E-02
83693,7.80E-03,1.22E-02
83694,7.78E-03,1.22E-02
83695,7.77E-03,1.21E-02
83696,7.76E-03,1.21E-02
83697,7.74E-03,1.21E-02
83698,7.73E-03,1.20E-02
83699,7.71E-03,1.20E-02
83700,7.70E-03,1.20E-02
83701,7.68E-03,1.20E-02
83702,7.66E-03,1.19E-02
83703,7.64E-03,1.19E-02
83704,7.67E-03,1.19E-02
83705,7.75E-03,1.18E-02
83706,7.75E-03,1.18E-02
83707,7.69E-03,1.18E-02
83708,7.56E-03,1.18E-02
83709,7.27E-03,1.17E-02
83710,8.13E-03,1.27E-02
83711,8.16E-03,1.27E-02
83712,8.16E-03,1.27E-02
83713,8.16E-03,1.27E-02
83714,8.17E-03,1.27E-02
83715,8.17E-03,1.28E-02
83716,8.17E-03,1.28E-02
83717,8.17E-03,1.28E-02
83718,8.17E-03,1.28E-02
83719,8.17E-03,1.28E-02
83720,8.17E-03,1.28E-02
83721,8.18E-03,1.28E-02
83722,8.18E-03,1.28E-02
83723,8.18E-03,1.28E-02
83724,8.18E-03,1.28E-02
83725,8.18E-03,1.28E-02
83726,8.18E-03,1.28E-02
83727,8.19E-03,1.28E-02
83728,8.19E-03,1.28E-02
83729,8.19E-03,1.28E-02
83730,8.19E-03,1.28E-02
83731,8.19E-03,1.28E-02
83732,8.20E-03,1.29E-02
83733,8.20E-03,1.29E-02
83734,8.20E-03,1.29E-02
83735,8.21E-03,1.29E-02
83736,8.22E-03,1.29E-02
83737,8.22E-03,1.29E-02
83738,8.23E-03,1.29E-02
83739,8.24E-03,1.29E-02
83740,8.25E-03,1.29E-02
83741,8.26E-03,1.29E-02
83742,8.27E-03,1.30E-02
83743,8.27E-03,1.30E-02
83744,8.28E-03,1.30E-02
83745,8.29E-03,1.30E-02
83746,8.30E-03,1.30E-02
83747,8.31E-03,1.30E-02
83748,8.32E-03,1.30E-02
83749,8.34E-03,1.30E-02
83750,8.35E-03,1.30E-02
83751,8.37E-03,1.31E-02
83752,8.38E-03,1.31E-02
83753,8.40E-03,1.31E-02
83754,8.43E-03,1.31E-02
83755,8.45E-03,1.31E-02
83756,8.48E-03,1.31E-02
83757,8.51E-03,1.32E-02
83758,8.54E-03,1.32E-02
83759,8.58E-03,1.32E-02
83760,8.63E-03,1.32E-02
83761,8.68E-03,1.32E-02
83762,8.74E-03,1.32E-02
83763,8.82E-03,1.33E-02
83764,9.02E-03,1.33E-02
83765,9.11E-03,1.33E-02
83766,9.19E-03,1.33E-02
83767,9.34E-03,1.34E-02
83768,9.64E-03,1.34E-02
83769,9.81E-03,1.34E-02
83770,9.58E-03,1.34E-02
83771,9.34E-03,1.35E-02
83772,6.58E-03,1.31E-02
83773,6.80E-03,1.32E-02
83774,1.07E-02,1.33E-02
83775,1.03E-02,1.33E-02
83776,1.05E-02,1.34E-02
83777,1.03E-02,1.34E-02
83778,1.03E-02,1.35E-02
83779,1.02E-02,1.35E-02
83780,9.62E-03,1.36E-02
83781,9.53E-03,1.36E-02
83782,9.20E-03,1.37E-02
83783,9.13E-03,1.37E-02
83784,9.03E-03,1.38E-02
83785,9.05E-03,1.38E-02
83786,9.26E-03,1.39E-02
83787,9.43E-03,1.39E-02
83788,8.24E-03,1.40E-02
83789,7.86E-03,1.40E-02
83790,7.73E-03,1.40E-02
83791,7.72E-03,1.41E-02
83792,7.67E-03,1.41E-02
83793,7.54E-03,1.42E-02
83794,7.58E-03,1.42E-02
83795,7.75E-03,1.42E-02
83796,7.81E-03,1.43E-02
83797,7.86E-03,1.47E-02
83798,7.06E-03,1.46E-02
83799,7.91E-03,1.46E-02
83800,8.06E-03,1.47E-02
83801,7.92E-03,1.17E-02
83802,8.37E-03,1.17E-02
83803,6.81E-03,1.24E-02
83804,9.36E-03,1.24E-02
83805,6.89E-03,1.23E-02
83806,8.13E-03,1.27E-02
83807,8.16E-03,1.27E-02
83808,8.16E-03,1.27E-02
83809,8.15E-03,1.27E-02
83810,8.15E-03,1.27E-02
83811,8.15E-03,1.27E-02
83812,8.17E-03,1.27E-02
83813,8.18E-03,1.27E-02
83814,8.19E-03,1.27E-02
83815,8.20E-03,1.27E-02
83816,8.20E-03,1.27E-02
83817,8.21E-03,1.27E-02
83818,8.21E-03,1.27E-02
83819,8.22E-03,1.27E-02
83820,8.22E-03,1.27E-02
83821,8.23E-03,1.27E-02
83822,8.24E-03,1.27E-02
83823,8.25E-03,1.27E-02
83824,8.26E-03,1.27E-02
83825,8.27E-03,1.27E-02
83826,8.28E-03,1.27E-02
83827,8.24E-03,1.27E-02
83828,8.19E-03,1.27E-02
83829,8.26E-03,1.27E-02
83830,8.33E-03,1.27E-02
83831,8.32E-03,1.27E-02
83832,8.28E-03,1.27E-02
83833,8.39E-03,1.27E-02
83834,8.46E-03,1.27E-02
83835,8.57E-03,1.27E-02
83836,8.61E-03,1.27E-02
83837,8.65E-03,1.27E-02
83838,8.74E-03,1.27E-02
83839,8.81E-03,1.27E-02
83840,8.83E-03,1.27E-02
83841,9.08E-03,1.27E-02
83842,9.18E-03,1.27E-02
83843,9.22E-03,1.27E-02
83844,9.62E-03,1.27E-02
83845,9.77E-03,1.27E-02
83846,9.85E-03,1.28E-02
83847,1.00E-02,1.28E-02
83848,1.01E-02,1.28E-02
83849,9.43E-03,1.28E-02
83850,9.17E-03,1.28E-02
83851,6.23E-03,1.28E-02
83852,5.61E-03,1.28E-02
83853,6.36E-03,1.28E-02
83854,6.45E-03,1.28E-02
83855,6.61E-03,1.28E-02
83856,6.66E-03,1.28E-02
83857,6.76E-03,1.28E-02
83858,6.99E-03,1.28E-02
83859,7.13E-03,1.28E-02
83860,7.30E-03,1.28E-02
83861,7.50E-03,1.29E-02
83862,7.44E-03,1.29E-02
83863,7.37E-03,1.29E-02
83864,7.29E-03,1.29E-02
83865,7.21E-03,1.29E-02
83866,7.31E-03,1.29E-02
83867,7.28E-03,1.29E-02
83868,7.30E-03,1.29E-02
83869,7.33E-03,1.29E-02
83870,7.35E-03,1.29E-02
83871,7.46E-03,1.29E-02
83872,7.66E-03,1.29E-02
83873,7.81E-03,1.29E-02
83874,8.24E-03,1.29E-02
83875,8.43E-03,1.29E-02
83876,8.17E-03,1.28E-02
83877,7.70E-03,1.28E-02
83878,7.57E-03,1.29E-02
83879,7.71E-03,1.29E-02
83880,8.19E-03,1.28E-02
83881,8.61E-03,1.28E-02
83882,8.83E-03,1.28E-02
83883,8.60E-03,1.28E-02
83884,8.07E-03,1.29E-02
83885,7.90E-03,1.29E-02
83886,7.87E-03,1.29E-02
83887,7.42E-03,1.29E-02
83888,7.09E-03,1.28E-02
83889,8.27E-03,1.28E-02
83890,6.08E-03,1.27E-02
83891,8.31E-03,1.29E-02
83892,6.73E-03,1.29E-02
83893,6.07E-03,1.29E-02
83894,6.95E-03,1.29E-02
83895,7.89E-03,1.29E-02
83896,7.44E-03,1.29E-02
83897,8.17E-03,1.29E-02
83898,7.89E-03,1.23E-02
83899,8.06E-03,1.23E-02
83900,6.55E-03,1.19E-02
83901,5.74E-03,1.19E-02
83902,5.68E-03,1.19E-02
83903,5.34E-03,1.18E-02
83904,5.52E-03,1.18E-02
83905,5.67E-03,1.18E-02
83906,7.68E-03,1.18E-02
83907,7.66E-03,1.18E-02
83908,7.91E-03,1.18E-02
83909,7.81E-03,1.18E-02
83910,5.61E-03,1.41E-02
83911,4.87E-03,1.41E-02
83912,5.66E-03,1.41E-02
83913,6.10E-03,1.42E-02
83914,6.16E-03,1.42E-02
83915,6.29E-03,1.42E-02
83916,6.36E-03,1.42E-02
83917,6.82E-03,1.43E-02
83918,6.87E-03,1.43E-02
83919,6.93E-03,1.43E-02
83920,7.16E-03,1.43E-02
83921,7.25E-03,1.44E-02
83922,7.31E-03,1.44E-02
83923,7.29E-03,1.44E-02
83924,7.81E-03,1.45E-02
83925,7.24E-03,1.16E-02
83926,7.79E-03,1.16E-02
83927,7.02E-03,1.30E-02
83928,6.86E-03,1.32E-02
83929,6.77E-03,1.31E-02
83930,1.13E-02,1.46E-02
83931,1.11E-02,1.47E-02
83932,1.01E-02,1.48E-02
83933,1.07E-02,1.49E-02
83934,1.01E-02,1.50E-02
83935,8.70E-03,1.50E-02
83936,8.01E-03,1.51E-02
83937,9.56E-03,1.50E-02
83938,9.59E-03,1.51E-02
83939,9.75E-03,1.51E-02
83940,6.40E-03,1.52E-02
83941,8.67E-03,1.51E-02
83942,9.05E-03,1.14E-02
83943,8.91E-03,1.14E-02
83944,8.01E-03,1.25E-02
83945,8.92E-03,1.36E-02
83946,9.27E-03,1.36E-02
83947,9.33E-03,1.36E-02
83948,9.41E-03,1.37E-02
83949,9.54E-03,1.37E-02
83950,9.60E-03,1.37E-02
83951,9.70E-03,1.38E-02
83952,9.96E-03,1.38E-02
83953,1.00E-02,1.38E-02
83954,1.04E-02,1.39E-02
83955,1.05E-02,1.39E-02
83956,1.06E-02,1.39E-02
83957,7.96E-03,1.10E-02
83958,8.21E-03,1.44E-02
83959,6.18E-03,1.30E-02
83960,7.68E-03,1.21E-02
83961,7.29E-03,1.21E-02
83962,8.46E-03,1.20E-02
83963,7.31E-03,1.30E-02
83964,4.92E-03,1.22E-02
83965,6.32E-03,1.22E-02
83966,7.63E-03,1.23E-02
83967,7.36E-03,1.30E-02
83968,7.32E-03,1.29E-02
83969,7.87E-03,1.16E-02
83970,8.27E-03,1.28E-02
83971,8.10E-03,1.28E-02
83972,9.17E-03,1.35E-02
83973,6.56E-03,1.31E-02
83974,8.10E-03,1.44E-02
83975,6.96E-03,1.17E-02
83976,7.46E-03,1.17E-02
83977,7.80E-03,1.17E-02
83978,8.41E-03,1.16E-02
83979,6.83E-03,1.23E-02
83980,9.24E-03,1.21E-02
83981,8.31E-03,1.22E-02
83982,6.51E-03,1.27E-02
83983,7.08E-03,1.30E-02
83984,7.06E-03,1.14E-02
83985,6.93E-03,1.14E-02
83986,9.10E-03,1.22E-02
83987,7.07E-03,1.20E-02
83988,7.48E-03,1.21E-02
83989,7.72E-03,1.21E-02
83990,7.82E-03,1.21E-02
83991,9.00E-03,1.18E-02
83992,6.55E-03,1.18E-02
83993,6.50E-03,1.18E-02
83994,7.36E-03,1.16E-02
83995,7.09E-03,1.40E-02
83996,6.92E-03,1.40E-02
83997,7.27E-03,1.22E-02
83998,8.27E-03,1.15E-02
83999,6.40E-03,1.34E-02
84000,7.23E-03,1.22E-02
84001,9.72E-03,1.50E-02
84002,7.63E-03,1.23E-02
84003,7.35E-03,1.23E-02
84004,7.11E-03,1.21E-02
84005,7.24E-03,1.20E-02
84006,8.07E-03,1.44E-02
84007,8.61E-03,1.33E-02
84008,6.66E-03,1.21E-02
84009,7.94E-03,1.21E-02
84010,8.24E-03,1.35E-02
84011,6.00E-03,1.27E-02
84012,7.07E-03,1.27E-02
84013,6.75E-03,1.16E-02
84014,6.95E-03,1.16E-02
84015,9.25E-03,1.22E-02
84016,7.15E-03,1.22E-02
84017,6.77E-03,1.21E-02
84018,9.49E-03,1.14E-02
84019,7.61E-03,1.36E-02
84020,7.15E-03,1.27E-02
84021,6.65E-03,1.15E-02
84022,7.80E-03,1.21E-02
84023,8.72E-03,1.30E-02
84024,8.87E-03,1.31E-02
84025,7.96E-03,1.29E-02
84026,4.21E-03,1.15E-02
84027,6.52E-03,1.30E-02
84028,8.15E-03,1.49E-02
84029,7.52E-03,1.16E-02
84030,6.06E-03,1.26E-02
84031,7.23E-03,1.28E-02
84032,8.59E-03,1.13E-02
84033,6.71E-03,1.15E-02
84034,7.58E-03,1.35E-02
84035,8.00E-03,1.35E-02
84036,7.89E-03,1.22E-02
84037,8.63E-03,1.14E-02
84038,9.69E-03,1.14E-02
84039,8.93E-03,1.14E-02
84040,7.75E-03,1.20E-02
84041,4.50E-03,1.14E-02
84042,7.54E-03,1.26E-02
84043,8.63E-03,1.27E-02
84044,8.48E-03,1.27E-02
84045,7.48E-03,1.31E-02
84046,6.54E-03,1.33E-02
84047,6.69E-03,1.35E-02
84048,8.18E-03,1.32E-02
84049,7.52E-03,1.34E-02
84050,7.94E-03,1.36E-02
84051,7.90E-03,1.36E-02
84052,7.69E-03,1.35E-02
84053,7.58E-03,1.34E-02
84054,6.79E-03,1.36E-02
84055,8.06E-03,1.34E-02
84056,6.22E-03,1.34E-02
84057,5.50E-03,1.33E-02
84058,6.96E-03,1.34E-02
84059,8.78E-03,1.13E-02
84060,9.27E-03,1.50E-02
84061,9.50E-03,1.50E-02
84062,9.89E-03,1.50E-02
84063,6.93E-03,1.36E-02
84064,7.05E-03,1.36E-02
84065,9.12E-03,1.12E-02
84066,8.09E-03,1.13E-02
84067,9.74E-03,1.11E-02
84068,1.07E-02,1.10E-02
84069,7.25E-03,1.15E-02
84070,6.74E-03,1.52E-02
84071,5.60E-03,1.20E-02
84072,7.09E-03,1.52E-02
84073,6.25E-03,1.29E-02
84074,9.03E-03,1.18E-02
84075,9.69E-03,1.18E-02
84076,8.43E-03,1.19E-02
84077,8.97E-03,1.19E-02
84078,8.05E-03,1.19E-02
84079,7.82E-03,1.20E-02
84080,7.78E-03,1.20E-02
84081,8.48E-03,1.20E-02
84082,7.46E-03,1.31E-02
84083,8.13E-03,1.28E-02
84084,8.15E-03,1.28E-02
84085,8.15E-03,1.28E-02
84086,8.15E-03,1.28E-02
84087,8.15E-03,1.28E-02
84088,8.15E-03,1.28E-02
84089,8.17E-03,1.28E-02
84090,8.18E-03,1.28E-02
84091,8.19E-03,1.28E-02
84092,8.19E-03,1.28E-02
84093,8.20E-03,1.28E-02
84094,8.20E-03,1.28E-02
84095,8.21E-03,1.28E-02
84096,8.21E-03,1.28E-02
84097,8.22E-03,1.28E-02
84098,8.23E-03,1.28E-02
84099,8.24E-03,1.28E-02
84100,8.24E-03,1.28E-02
84101,8.25E-03,1.28E-02
84102,8.26E-03,1.28E-02
84103,8.27E-03,1.28E-02
84104,8.29E-03,1.28E-02
84105,8.30E-03,1.28E-02
84106,8.31E-03,1.28E-02
84107,8.33E-03,1.28E-02
84108,8.35E-03,1.28E-02
84109,8.37E-03,1.28E-02
84110,8.39E-03,1.28E-02
84111,8.42E-03,1.28E-02
84112,8.45E-03,1.28E-02
84113,8.49E-03,1.28E-02
84114,8.56E-03,1.28E-02
84115,8.63E-03,1.28E-02
84116,8.69E-03,1.28E-02
84117,8.77E-03,1.28E-02
84118,9.12E-03,1.28E-02
84119,9.16E-03,1.28E-02
84120,9.32E-03,1.28E-02
84121,9.67E-03,1.29E-02
84122,9.74E-03,1.29E-02
84123,9.88E-03,1.29E-02
84124,1.01E-02,1.29E-02
84125,1.02E-02,1.29E-02
84126,9.40E-03,1.29E-02
84127,9.38E-03,1.29E-02
84128,6.61E-03,1.29E-02
84129,5.54E-03,1.29E-02
84130,6.48E-03,1.29E-02
84131,6.64E-03,1.29E-02
84132,6.75E-03,1.29E-02
84133,6.80E-03,1.30E-02
84134,6.92E-03,1.30E-02
84135,7.04E-03,1.30E-02
84136,7.21E-03,1.30E-02
84137,7.33E-03,1.30E-02
84138,7.47E-03,1.30E-02
84139,7.56E-03,1.30E-02
84140,7.54E-03,1.30E-02
84141,7.46E-03,1.30E-02
84142,7.51E-03,1.30E-02
84143,7.45E-03,1.30E-02
84144,7.42E-03,1.30E-02
84145,7.43E-03,1.30E-02
84146,7.46E-03,1.30E-02
84147,7.49E-03,1.30E-02
84148,7.55E-03,1.30E-02
84149,7.67E-03,1.30E-02
84150,7.82E-03,1.30E-02
84151,7.98E-03,1.30E-02
84152,8.05E-03,1.30E-02
84153,7.98E-03,1.30E-02
84154,7.85E-03,1.30E-02
84155,7.79E-03,1.30E-02
84156,7.91E-03,1.30E-02
84157,8.11E-03,1.30E-02
84158,8.31E-03,1.30E-02
84159,8.46E-03,1.30E-02
84160,8.43E-03,1.30E-02
84161,8.20E-03,1.30E-02
84162,7.99E-03,1.30E-02
84163,7.85E-03,1.30E-02
84164,7.64E-03,1.30E-02
84165,7.74E-03,1.30E-02
84166,7.84E-03,1.30E-02
84167,7.85E-03,1.30E-02
84168,8.08E-03,1.30E-02
84169,7.89E-03,1.30E-02
84170,7.87E-03,1.30E-02
84171,7.76E-03,1.30E-02
84172,7.46E-03,1.30E-02
84173,6.53E-03,1.30E-02
84174,1.09E-02,1.30E-02
84175,9.81E-03,1.29E-02
84176,9.41E-03,1.30E-02
84177,9.19E-03,1.30E-02
84178,8.92E-03,1.30E-02
84179,8.56E-03,1.30E-02
84180,8.08E-03,1.30E-02
84181,7.94E-03,1.30E-02
84182,5.61E-03,1.30E-02
84183,7.97E-03,1.30E-02
84184,7.73E-03,1.30E-02
84185,7.23E-03,1.30E-02
84186,7.06E-03,1.30E-02
84187,7.12E-03,1.30E-02
84188,7.28E-03,1.28E-02
84189,7.09E-03,1.28E-02
84190,6.72E-03,1.28E-02
84191,6.50E-03,1.27E-02
84192,6.49E-03,1.27E-02
84193,6.94E-03,1.27E-02
84194,7.10E-03,1.27E-02
84195,7.24E-03,1.26E-02
84196,7.34E-03,1.26E-02
84197,7.42E-03,1.26E-02
84198,7.50E-03,1.25E-02
84199,7.55E-03,1.25E-02
84200,7.60E-03,1.24E-02
84201,7.65E-03,1.24E-02
84202,7.70E-03,1.24E-02
84203,7.79E-03,1.23E-02
84204,7.85E-03,1.23E-02
84205,7.84E-03,1.23E-02
84206,7.83E-03,1.22E-02
84207,7.82E-03,1.22E-02
84208,7.81E-03,1.22E-02
84209,7.80E-03,1.21E-02
84210,7.79E-03,1.21E-02
84211,7.78E-03,1.21E-02
84212,7.76E-03,1.20E-02
84213,7.75E-03,1.20E-02
84214,7.74E-03,1.20E-02
84215,7.72E-03,1.20E-02
84216,7.70E-03,1.19E-02
84217,7.68E-03,1.19E-02
84218,7.67E-03,1.19E-02
84219,7.64E-03,1.18E-02
84220,7.62E-03,1.18E-02
84221,7.77E-03,1.18E-02
84222,7.69E-03,1.17E-02
84223,7.60E-03,1.17E-02
84224,7.47E-03,1.17E-02
84225,7.46E-03,1.17E-02
84226,8.13E-03,1.28E-02
84227,8.16E-03,1.28E-02
84228,8.16E-03,1.28E-02
84229,8.16E-03,1.28E-02
84230,8.16E-03,1.28E-02
84231,8.17E-03,1.28E-02
84232,8.17E-03,1.28E-02
84233,8.17E-03,1.28E-02
84234,8.17E-03,1.28E-02
84235,8.17E-03,1.28E-02
84236,8.17E-03,1.28E-02
84237,8.17E-03,1.28E-02
84238,8.18E-03,1.28E-02
84239,8.18E-03,1.28E-02
84240,8.18E-03,1.29E-02
84241,8.18E-03,1.29E-02
84242,8.18E-03,1.29E-02
84243,8.18E-03,1.29E-02
84244,8.19E-03,1.29E-02
84245,8.19E-03,1.29E-02
84246,8.19E-03,1.29E-02
84247,8.19E-03,1.29E-02
84248,8.19E-03,1.29E-02
84249,8.20E-03,1.29E-02
84250,8.20E-03,1.29E-02
84251,8.21E-03,1.29E-02
84252,8.21E-03,1.29E-02
84253,8.22E-03,1.29E-02
84254,8.23E-03,1.29E-02
84255,8.24E-03,1.29E-02
84256,8.25E-03,1.30E-02
84257,8.26E-03,1.30E-02
84258,8.27E-03,1.30E-02
84259,8.27E-03,1.30E-02
84260,8.28E-03,1.30E-02
84261,8.29E-03,1.30E-02
84262,8.30E-03,1.30E-02
84263,8.31E-03,1.30E-02
84264,8.32E-03,1.30E-02
84265,8.33E-03,1.30E-02
84266,8.35E-03,1.31E-02
84267,8.36E-03,1.31E-02
84268,8.38E-03,1.31E-02
84269,8.40E-03,1.31E-02
84270,8.42E-03,1.31E-02
84271,8.44E-03,1.31E-02
84272,8.47E-03,1.31E-02
84273,8.50E-03,1.32E-02
84274,8.53E-03,1.32E-02
84275,8.57E-03,1.32E-02
84276,8.62E-03,1.32E-02
84277,8.67E-03,1.32E-02
84278,8.73E-03,1.32E-02
84279,8.81E-03,1.33E-02
84280,9.00E-03,1.33E-02
84281,9.13E-03,1.33E-02
84282,9.15E-03,1.33E-02
84283,9.29E-03,1.33E-02
84284,9.59E-03,1.34E-02
84285,9.87E-03,1.34E-02
84286,9.64E-03,1.34E-02
84287,9.56E-03,1.34E-02
84288,6.73E-03,1.31E-02
84289,7.28E-03,1.32E-02
84290,1.02E-02,1.32E-02
84291,1.14E-02,1.33E-02
84292,1.07E-02,1.33E-02
84293,1.07E-02,1.34E-02
84294,1.05E-02,1.34E-02
84295,1.04E-02,1.35E-02
84296,1.03E-02,1.35E-02
84297,9.51E-03,1.36E-02
84298,9.48E-03,1.36E-02
84299,9.19E-03,1.37E-02
84300,9.11E-03,1.37E-02
84301,8.91E-03,1.38E-02
84302,8.98E-03,1.38E-02
84303,9.22E-03,1.39E-02
84304,9.52E-03,1.39E-02
84305,8.52E-03,1.40E-02
84306,7.72E-03,1.40E-02
84307,7.69E-03,1.41E-02
84308,7.67E-03,1.41E-02
84309,7.59E-03,1.41E-02
84310,7.55E-03,1.42E-02
84311,7.60E-03,1.42E-02
84312,7.76E-03,1.43E-02
84313,7.80E-03,1.43E-02
84314,9.15E-03,1.47E-02
84315,7.42E-03,1.46E-02
84316,8.12E-03,1.47E-02
84317,8.23E-03,1.47E-02
84318,7.99E-03,1.17E-02
84319,8.66E-03,1.16E-02
84320,9.79E-03,1.16E-02
84321,6.94E-03,1.23E-02
84322,1.03E-02,1.22E-02
84323,6.86E-03,1.22E-02
84324,7.99E-03,1.22E-02
84325,7.27E-03,1.27E-02
84326,5.33E-03,1.26E-02
84327,7.67E-03,1.29E-02
84328,8.33E-03,1.29E-02
84329,6.42E-03,1.13E-02
84330,5.14E-03,1.13E-02
84331,5.88E-03,1.13E-02
84332,8.20E-03,1.21E-02
84333,7.98E-03,1.21E-02
84334,6.32E-03,1.18E-02
84335,5.83E-03,1.18E-02
84336,5.53E-03,1.17E-02
84337,5.37E-03,1.17E-02
84338,5.55E-03,1.17E-02
84339,5.63E-03,1.17E-02
84340,7.61E-03,1.17E-02
84341,7.61E-03,1.17E-02
84342,7.73E-03,1.17E-02
84343,7.56E-03,1.17E-02
84344,5.71E-03,1.40E-02
84345,5.59E-03,1.41E-02
84346,5.38E-03,1.41E-02
84347,6.04E-03,1.41E-02
84348,6.05E-03,1.41E-02
84349,6.16E-03,1.41E-02
84350,6.41E-03,1.42E-02
84351,6.84E-03,1.42E-02
84352,6.93E-03,1.42E-02
84353,7.01E-03,1.42E-02
84354,7.21E-03,1.43E-02
84355,7.45E-03,1.43E-02
84356,7.56E-03,1.43E-02
84357,7.81E-03,1.44E-02
84358,8.53E-03,1.44E-02
84359,5.45E-03,1.21E-02
84360,5.15E-03,1.21E-02
84361,7.73E-03,1.15E-02
84362,8.42E-03,1.52E-02
84363,9.03E-03,1.51E-02
84364,9.62E-03,1.50E-02
84365,9.99E-03,1.49E-02
84366,1.04E-02,1.48E-02
84367,1.06E-02,1.47E-02
84368,1.08E-02,1.46E-02
84369,6.63E-03,1.21E-02
84370,9.68E-03,1.51E-02
84371,9.70E-03,1.51E-02
84372,9.67E-03,1.52E-02
84373,9.67E-03,1.52E-02
84374,7.95E-03,1.19E-02
84375,8.44E-03,1.10E-02
84376,9.08E-03,1.14E-02
84377,9.94E-03,1.14E-02
84378,9.86E-03,1.13E-02
84379,8.01E-03,1.21E-02
84380,5.76E-03,1.14E-02
84381,7.21E-03,1.25E-02
84382,8.38E-03,1.33E-02
84383,8.87E-03,1.36E-02
84384,9.18E-03,1.36E-02
84385,9.31E-03,1.36E-02
84386,9.40E-03,1.36E-02
84387,9.51E-03,1.37E-02
84388,9.60E-03,1.37E-02
84389,9.75E-03,1.37E-02
84390,9.95E-03,1.38E-02
84391,9.97E-03,1.38E-02
84392,1.05E-02,1.38E-02
84393,1.04E-02,1.38E-02
84394,1.07E-02,1.39E-02
84395,1.07E-02,1.39E-02
84396,9.21E-03,1.39E-02
84397,6.50E-03,1.40E-02
84398,7.89E-03,1.19E-02
84399,7.77E-03,1.20E-02
84400,8.40E-03,1.28E-02
84401,1.12E-02,1.28E-02
84402,1.00E-02,1.28E-02
84403,9.58E-03,1.28E-02
84404,9.35E-03,1.28E-02
84405,9.01E-03,1.28E-02
84406,8.71E-03,1.28E-02
84407,7.88E-03,1.28E-02
84408,7.47E-03,1.28E-02
84409,7.34E-03,1.28E-02
84410,6.61E-03,1.28E-02
84411,4.86E-03,1.28E-02
84412,4.70E-03,1.29E-02
84413,6.59E-03,1.28E-02
84414,6.77E-03,1.29E-02
84415,6.07E-03,1.29E-02
84416,5.31E-03,1.28E-02
84417,7.60E-03,1.16E-02
84418,8.06E-03,1.16E-02
84419,8.48E-03,1.33E-02
84420,7.68E-03,1.32E-02
84421,7.86E-03,1.33E-02
84422,7.97E-03,1.33E-02
84423,7.48E-03,1.34E-02
84424,7.43E-03,1.34E-02
84425,7.96E-03,1.34E-02
84426,5.66E-03,1.34E-02
84427,2.95E-03,1.33E-02
84428,7.78E-03,1.20E-02
84429,7.77E-03,1.20E-02
84430,8.19E-03,1.19E-02
84431,8.28E-03,1.30E-02
84432,3.98E-03,1.34E-02
84433,4.52E-03,1.34E-02
84434,3.66E-03,1.34E-02
84435,8.26E-03,1.32E-02
84436,8.36E-03,1.29E-02
84437,7.48E-03,1.16E-02
84438,8.26E-03,1.29E-02
84439,8.10E-03,1.29E-02
84440,9.40E-03,1.34E-02
84441,6.57E-03,1.31E-02
84442,8.05E-03,1.44E-02
84443,9.22E-03,1.48E-02
84444,7.36E-03,1.46E-02
84445,8.50E-03,1.47E-02
84446,8.29E-03,1.47E-02
84447,8.03E-03,1.16E-02
84448,9.13E-03,1.15E-02
84449,1.06E-02,1.15E-02
84450,7.14E-03,1.21E-02
84451,8.49E-03,1.20E-02
84452,6.77E-03,1.26E-02
84453,7.20E-03,1.38E-02
84454,8.50E-03,1.35E-02
84455,8.74E-03,1.35E-02
84456,7.34E-03,1.37E-02
84457,6.11E-03,1.36E-02
84458,7.04E-03,1.28E-02
84459,3.64E-03,1.28E-02
84460,7.12E-03,1.13E-02
84461,7.88E-03,1.20E-02
84462,9.75E-03,1.20E-02
84463,9.71E-03,1.20E-02
84464,7.81E-03,1.20E-02
84465,9.39E-03,1.17E-02
84466,6.36E-03,1.17E-02
84467,6.29E-03,1.17E-02
84468,7.03E-03,1.16E-02
84469,8.19E-03,1.35E-02
84470,5.35E-03,1.40E-02
84471,7.62E-03,1.44E-02
84472,7.31E-03,1.22E-02
84473,8.75E-03,1.14E-02
84474,8.52E-03,1.15E-02
84475,7.20E-03,1.38E-02
84476,7.28E-03,1.38E-02
84477,8.47E-03,1.39E-02
84478,8.88E-03,1.40E-02
84479,8.03E-03,1.13E-02
84480,8.47E-03,1.13E-02
84481,8.00E-03,1.20E-02
84482,8.74E-03,1.28E-02
84483,8.41E-03,1.32E-02
84484,7.75E-03,1.35E-02
84485,7.32E-03,1.33E-02
84486,8.26E-03,1.33E-02
84487,5.45E-03,1.15E-02
84488,9.11E-03,1.49E-02
84489,7.86E-03,1.35E-02
84490,9.19E-03,1.33E-02
84491,8.25E-03,1.33E-02
84492,7.34E-03,1.25E-02
84493,8.33E-03,1.26E-02
84494,7.24E-03,1.27E-02
84495,6.08E-03,1.14E-02
84496,8.23E-03,1.36E-02
84497,7.88E-03,1.35E-02
84498,7.86E-03,1.21E-02
84499,6.63E-03,1.34E-02
84500,8.05E-03,1.34E-02
84501,7.39E-03,1.21E-02
84502,6.38E-03,1.14E-02
84503,8.85E-03,1.13E-02
84504,6.30E-03,1.39E-02
84505,6.32E-03,1.40E-02
84506,7.85E-03,1.19E-02
84507,4.70E-03,1.29E-02
84508,6.19E-03,1.30E-02
84509,6.52E-03,1.30E-02
84510,7.41E-03,1.15E-02
84511,9.00E-03,1.50E-02
84512,9.02E-03,1.50E-02
84513,9.68E-03,1.50E-02
84514,9.78E-03,1.51E-02
84515,8.53E-03,1.25E-02
84516,8.24E-03,1.25E-02
84517,4.10E-03,1.12E-02
84518,5.52E-03,1.11E-02
84519,7.20E-03,1.37E-02
84520,6.38E-03,1.14E-02
84521,9.52E-03,1.53E-02
84522,7.96E-03,1.36E-02
84523,7.94E-03,1.37E-02
84524,7.70E-03,1.37E-02
84525,9.24E-03,1.12E-02
84526,6.25E-03,1.29E-02
84527,5.73E-03,1.29E-02
84528,7.86E-03,1.13E-02
84529,1.01E-02,1.11E-02
84530,9.15E-03,1.10E-02
84531,8.04E-03,1.13E-02
84532,9.32E-03,1.19E-02
84533,3.98E-03,1.12E-02
84534,9.42E-03,1.17E-02
84535,1.07E-02,1.17E-02
84536,1.18E-02,1.18E-02
84537,1.05E-02,1.18E-02
84538,7.78E-03,1.18E-02
84539,7.68E-03,1.18E-02
84540,7.78E-03,1.18E-02
84541,5.99E-03,1.18E-02
84542,7.83E-03,1.19E-02
84543,8.59E-03,1.30E-02
84544,1.03E-02,1.30E-02
84545,1.05E-02,1.31E-02
84546,9.03E-03,1.31E-02
84547,8.08E-03,1.31E-02
84548,7.88E-03,1.31E-02
84549,6.88E-03,1.32E-02
84550,6.97E-03,1.32E-02
84551,6.20E-03,1.32E-02
84552,4.82E-03,1.32E-02
84553,3.34E-03,1.32E-02
84554,2.33E-03,1.32E-02
84555,3.48E-03,1.32E-02
84556,3.64E-03,1.32E-02
84557,3.06E-03,1.32E-02
84558,4.64E-03,1.33E-02
84559,7.51E-03,1.35E-02
84560,8.16E-03,1.35E-02
84561,8.43E-03,1.34E-02
84562,8.31E-03,1.34E-02
84563,8.13E-03,1.29E-02
84564,8.15E-03,1.29E-02
84565,8.15E-03,1.29E-02
84566,8.15E-03,1.29E-02
84567,8.15E-03,1.29E-02
84568,8.15E-03,1.29E-02
84569,8.17E-03,1.29E-02
84570,8.18E-03,1.29E-02
84571,8.19E-03,1.29E-02
84572,8.19E-03,1.29E-02
84573,8.20E-03,1.29E-02
84574,8.20E-03,1.29E-02
84575,8.21E-03,1.29E-02
84576,8.21E-03,1.29E-02
84577,8.22E-03,1.29E-02
84578,8.23E-03,1.29E-02
84579,8.23E-03,1.29E-02
84580,8.24E-03,1.29E-02
84581,8.25E-03,1.29E-02
84582,8.26E-03,1.29E-02
84583,8.27E-03,1.29E-02
84584,8.28E-03,1.29E-02
84585,8.30E-03,1.29E-02
84586,8.31E-03,1.29E-02
84587,8.33E-03,1.29E-02
84588,8.34E-03,1.29E-02
84589,8.37E-03,1.29E-02
84590,8.39E-03,1.29E-02
84591,8.42E-03,1.29E-02
84592,8.45E-03,1.29E-02
84593,8.49E-03,1.29E-02
84594,8.55E-03,1.29E-02
84595,8.62E-03,1.29E-02
84596,8.68E-03,1.29E-02
84597,8.76E-03,1.29E-02
84598,9.04E-03,1.29E-02
84599,9.24E-03,1.30E-02
84600,9.32E-03,1.30E-02
84601,9.61E-03,1.30E-02
84602,9.65E-03,1.30E-02
84603,9.91E-03,1.30E-02
84604,1.01E-02,1.30E-02
84605,1.04E-02,1.30E-02
84606,9.35E-03,1.30E-02
84607,9.30E-03,1.30E-02
84608,6.23E-03,1.30E-02
84609,5.82E-03,1.30E-02
84610,6.24E-03,1.31E-02
84611,6.66E-03,1.31E-02
84612,6.82E-03,1.31E-02
84613,6.91E-03,1.31E-02
84614,7.01E-03,1.31E-02
84615,7.13E-03,1.31E-02
84616,7.24E-03,1.31E-02
84617,7.39E-03,1.31E-02
84618,7.51E-03,1.31E-02
84619,7.57E-03,1.31E-02
84620,7.61E-03,1.31E-02
84621,7.65E-03,1.31E-02
84622,7.65E-03,1.31E-02
84623,7.62E-03,1.31E-02
84624,7.59E-03,1.31E-02
84625,7.58E-03,1.31E-02
84626,7.64E-03,1.31E-02
84627,7.64E-03,1.32E-02
84628,7.76E-03,1.32E-02
84629,7.83E-03,1.32E-02
84630,7.85E-03,1.32E-02
84631,7.87E-03,1.32E-02
84632,7.91E-03,1.32E-02
84633,7.93E-03,1.32E-02
84634,7.80E-03,1.32E-02
84635,7.82E-03,1.32E-02
84636,7.98E-03,1.32E-02
84637,8.03E-03,1.32E-02
84638,8.17E-03,1.32E-02
84639,8.22E-03,1.32E-02
84640,8.18E-03,1.32E-02
84641,8.07E-03,1.32E-02
84642,7.95E-03,1.32E-02
84643,7.88E-03,1.32E-02
84644,7.92E-03,1.31E-02
84645,7.99E-03,1.31E-02
84646,7.95E-03,1.32E-02
84647,8.02E-03,1.32E-02
84648,8.16E-03,1.32E-02
84649,8.04E-03,1.32E-02
84650,7.94E-03,1.32E-02
84651,7.79E-03,1.32E-02
84652,7.60E-03,1.32E-02
84653,7.58E-03,1.32E-02
84654,7.69E-03,1.31E-02
84655,8.81E-03,1.31E-02
84656,9.30E-03,1.31E-02
84657,9.16E-03,1.31E-02
84658,9.02E-03,1.31E-02
84659,8.74E-03,1.31E-02
84660,8.47E-03,1.31E-02
84661,8.33E-03,1.32E-02
84662,8.30E-03,1.32E-02
84663,8.38E-03,1.32E-02
84664,9.10E-03,1.32E-02
84665,8.97E-03,1.32E-02
84666,8.02E-03,1.32E-02
84667,7.46E-03,1.28E-02
84668,6.97E-03,1.28E-02
84669,6.76E-03,1.27E-02
84670,6.55E-03,1.27E-02
84671,6.54E-03,1.27E-02
84672,6.91E-03,1.26E-02
84673,7.12E-03,1.26E-02
84674,7.25E-03,1.26E-02
84675,7.35E-03,1.25E-02
84676,7.44E-03,1.25E-02
84677,7.51E-03,1.25E-02
84678,7.56E-03,1.24E-02
84679,7.61E-03,1.24E-02
84680,7.65E-03,1.24E-02
84681,7.71E-03,1.23E-02
84682,7.79E-03,1.23E-02
84683,7.85E-03,1.23E-02
84684,7.84E-03,1.22E-02
84685,7.84E-03,1.22E-02
84686,7.83E-03,1.22E-02
84687,7.82E-03,1.21E-02
84688,7.81E-03,1.21E-02
84689,7.80E-03,1.21E-02
84690,7.78E-03,1.20E-02
84691,7.77E-03,1.20E-02
84692,7.76E-03,1.20E-02
84693,7.74E-03,1.19E-02
84694,7.73E-03,1.19E-02
84695,7.71E-03,1.19E-02
84696,7.69E-03,1.18E-02
84697,7.67E-03,1.18E-02
84698,7.65E-03,1.18E-02
84699,7.63E-03,1.17E-02
84700,7.72E-03,1.17E-02
84701,7.66E-03,1.17E-02
84702,7.51E-03,1.17E-02
84703,7.43E-03,1.16E-02
84704,7.34E-03,1.16E-02
84705,8.13E-03,1.29E-02
84706,8.16E-03,1.29E-02
84707,8.16E-03,1.29E-02
84708,8.16E-03,1.29E-02
84709,8.16E-03,1.29E-02
84710,8.16E-03,1.29E-02
84711,8.17E-03,1.29E-02
84712,8.17E-03,1.29E-02
84713,8.17E-03,1.29E-02
84714,8.17E-03,1.29E-02
84715,8.17E-03,1.29E-02
84716,8.17E-03,1.29E-02
84717,8.17E-03,1.29E-02
84718,8.18E-03,1.29E-02
84719,8.18E-03,1.29E-02
84720,8.18E-03,1.29E-02
84721,8.18E-03,1.29E-02
84722,8.18E-03,1.29E-02
84723,8.18E-03,1.29E-02
84724,8.19E-03,1.29E-02
84725,8.19E-03,1.29E-02
84726,8.19E-03,1.29E-02
84727,8.19E-03,1.29E-02
84728,8.20E-03,1.29E-02
84729,8.20E-03,1.29E-02
84730,8.21E-03,1.29E-02
84731,8.21E-03,1.30E-02
84732,8.22E-03,1.30E-02
84733,8.22E-03,1.30E-02
84734,8.23E-03,1.30E-02
84735,8.24E-03,1.30E-02
84736,8.25E-03,1.30E-02
84737,8.26E-03,1.30E-02
84738,8.27E-03,1.30E-02
84739,8.27E-03,1.30E-02
84740,8.28E-03,1.30E-02
84741,8.29E-03,1.30E-02
84742,8.30E-03,1.30E-02
84743,8.32E-03,1.30E-02
84744,8.33E-03,1.31E-02
84745,8.34E-03,1.31E-02
84746,8.36E-03,1.31E-02
84747,8.37E-03,1.31E-02
84748,8.39E-03,1.31E-02
84749,8.41E-03,1.31E-02
84750,8.44E-03,1.31E-02
84751,8.46E-03,1.31E-02
84752,8.49E-03,1.32E-02
84753,8.53E-03,1.32E-02
84754,8.57E-03,1.32E-02
84755,8.61E-03,1.32E-02
84756,8.66E-03,1.32E-02
84757,8.72E-03,1.32E-02
84758,8.79E-03,1.32E-02
84759,8.99E-03,1.33E-02
84760,9.07E-03,1.33E-02
84761,9.14E-03,1.33E-02
84762,9.27E-03,1.33E-02
84763,9.61E-03,1.33E-02
84764,9.85E-03,1.34E-02
84765,9.84E-03,1.34E-02
84766,9.59E-03,1.34E-02
84767,6.61E-03,1.31E-02
84768,6.78E-03,1.31E-02
84769,1.08E-02,1.32E-02
84770,1.07E-02,1.32E-02
84771,1.08E-02,1.33E-02
84772,1.07E-02,1.34E-02
84773,1.05E-02,1.34E-02
84774,1.04E-02,1.35E-02
84775,1.03E-02,1.35E-02
84776,9.47E-03,1.36E-02
84777,9.45E-03,1.36E-02
84778,9.21E-03,1.37E-02
84779,9.00E-03,1.37E-02
84780,8.84E-03,1.38E-02
84781,8.93E-03,1.38E-02
84782,9.25E-03,1.39E-02
84783,9.54E-03,1.39E-02
84784,8.63E-03,1.40E-02
84785,7.66E-03,1.40E-02
84786,7.60E-03,1.41E-02
84787,7.60E-03,1.41E-02
84788,7.60E-03,1.42E-02
84789,7.56E-03,1.42E-02
84790,7.59E-03,1.42E-02
84791,7.66E-03,1.43E-02
84792,7.74E-03,1.43E-02
84793,9.72E-03,1.48E-02
84794,7.64E-03,1.47E-02
84795,8.27E-03,1.47E-02
84796,8.16E-03,1.16E-02
84797,9.09E-03,1.16E-02
84798,9.48E-03,1.16E-02
84799,7.14E-03,1.21E-02
84800,9.40E-03,1.21E-02
84801,7.11E-03,1.21E-02
84802,7.64E-03,1.20E-02
84803,6.37E-03,1.25E-02
84804,4.91E-03,1.25E-02
84805,7.40E-03,1.37E-02
84806,7.46E-03,1.37E-02
84807,8.66E-03,1.37E-02
84808,9.03E-03,1.36E-02
84809,1.00E-02,1.36E-02
84810,1.11E-02,1.35E-02
84811,7.62E-03,1.36E-02
84812,7.96E-03,1.26E-02
84813,9.98E-03,1.26E-02
84814,1.01E-02,1.26E-02
84815,9.74E-03,1.26E-02
84816,9.61E-03,1.26E-02
84817,9.16E-03,1.26E-02
84818,8.85E-03,1.26E-02
84819,7.89E-03,1.26E-02
84820,7.00E-03,1.26E-02
84821,6.87E-03,1.26E-02
84822,6.40E-03,1.27E-02
84823,6.25E-03,1.27E-02
84824,5.90E-03,1.27E-02
84825,5.82E-03,1.27E-02
84826,5.99E-03,1.27E-02
84827,7.17E-03,1.28E-02
84828,5.95E-03,1.27E-02
84829,4.39E-03,1.27E-02
84830,3.00E-03,1.27E-02
84831,3.38E-03,1.27E-02
84832,4.80E-03,1.27E-02
84833,5.45E-03,1.27E-02
84834,6.32E-03,1.13E-02
84835,5.05E-03,1.12E-02
84836,5.76E-03,1.12E-02
84837,8.33E-03,1.20E-02
84838,7.97E-03,1.20E-02
84839,6.11E-03,1.17E-02
84840,5.83E-03,1.16E-02
84841,5.37E-03,1.16E-02
84842,5.39E-03,1.16E-02
84843,5.52E-03,1.16E-02
84844,5.73E-03,1.16E-02
84845,7.66E-03,1.16E-02
84846,7.58E-03,1.16E-02
84847,7.63E-03,1.16E-02
84848,7.38E-03,1.16E-02
84849,8.74E-03,1.35E-02
84850,9.17E-03,1.35E-02
84851,9.30E-03,1.36E-02
84852,9.47E-03,1.36E-02
84853,9.43E-03,1.36E-02
84854,9.50E-03,1.36E-02
84855,9.77E-03,1.37E-02
84856,9.87E-03,1.37E-02
84857,9.97E-03,1.37E-02
84858,1.05E-02,1.38E-02
84859,1.06E-02,1.38E-02
84860,1.07E-02,1.38E-02
84861,1.07E-02,1.39E-02
84862,8.52E-03,1.39E-02
84863,7.42E-03,1.39E-02
84864,5.36E-03,1.39E-02
84865,4.47E-03,1.40E-02
84866,5.51E-03,1.40E-02
84867,5.41E-03,1.40E-02
84868,5.57E-03,1.40E-02
84869,5.85E-03,1.40E-02
84870,6.01E-03,1.40E-02
84871,6.09E-03,1.41E-02
84872,6.47E-03,1.41E-02
84873,6.88E-03,1.41E-02
84874,6.95E-03,1.41E-02
84875,7.05E-03,1.42E-02
84876,7.22E-03,1.42E-02
84877,7.72E-03,1.42E-02
84878,7.79E-03,1.43E-02
84879,8.06E-03,1.43E-02
84880,8.31E-03,1.43E-02
84881,8.57E-03,1.44E-02
84882,6.88E-03,1.21E-02
84883,7.15E-03,1.20E-02
84884,8.66E-03,1.14E-02
84885,8.41E-03,1.14E-02
84886,9.05E-03,1.14E-02
84887,5.70E-03,1.38E-02
84888,7.70E-03,1.37E-02
84889,7.29E-03,1.38E-02
84890,6.45E-03,1.38E-02
84891,8.91E-03,1.30E-02
84892,7.92E-03,1.12E-02
84893,8.41E-03,1.19E-02
84894,6.40E-03,1.18E-02
84895,8.70E-03,1.13E-02
84896,8.31E-03,1.13E-02
84897,7.97E-03,1.12E-02
84898,8.19E-03,1.19E-02
84899,4.10E-03,1.13E-02
84900,8.47E-03,1.35E-02
84901,5.27E-03,1.44E-02
84902,8.39E-03,1.24E-02
84903,9.74E-03,1.15E-02
84904,8.48E-03,1.15E-02
84905,7.99E-03,1.19E-02
84906,8.08E-03,1.18E-02
84907,7.64E-03,1.18E-02
84908,5.81E-03,1.18E-02
84909,5.01E-03,1.17E-02
84910,8.76E-03,1.28E-02
84911,7.16E-03,1.33E-02
84912,7.61E-03,1.33E-02
84913,8.70E-03,1.33E-02
84914,6.41E-03,1.15E-02
84915,8.26E-03,1.29E-02
84916,8.10E-03,1.29E-02
84917,9.01E-03,1.34E-02
84918,7.59E-03,1.44E-02
84919,8.67E-03,1.49E-02
84920,8.00E-03,1.34E-02
84921,8.29E-03,1.15E-02
84922,7.39E-03,1.20E-02
84923,8.18E-03,1.19E-02
84924,6.40E-03,1.24E-02
84925,6.38E-03,1.40E-02
84926,7.89E-03,1.38E-02
84927,7.80E-03,1.24E-02
84928,7.00E-03,1.26E-02
84929,7.93E-03,1.19E-02
84930,9.59E-03,1.16E-02
84931,6.22E-03,1.16E-02
84932,6.18E-03,1.16E-02
84933,6.71E-03,1.15E-02
84934,8.26E-03,1.36E-02
84935,7.08E-03,1.37E-02
84936,6.81E-03,1.39E-02
84937,7.20E-03,1.23E-02
84938,8.64E-03,1.22E-02
84939,8.18E-03,1.35E-02
84940,7.49E-03,1.20E-02
84941,8.16E-03,1.12E-02
84942,9.10E-03,1.53E-02
84943,9.00E-03,1.52E-02
84944,9.44E-03,1.51E-02
84945,9.72E-03,1.50E-02
84946,9.93E-03,1.50E-02
84947,1.01E-02,1.49E-02
84948,1.04E-02,1.48E-02
84949,1.05E-02,1.47E-02
84950,1.13E-02,1.46E-02
84951,7.10E-03,1.45E-02
84952,6.11E-03,1.44E-02
84953,7.61E-03,1.13E-02
84954,9.16E-03,1.13E-02
84955,6.88E-03,1.40E-02
84956,8.13E-03,1.19E-02
84957,8.66E-03,1.26E-02
84958,8.37E-03,1.35E-02
84959,6.44E-03,1.14E-02
84960,6.65E-03,1.31E-02
84961,6.83E-03,1.30E-02
84962,8.86E-03,1.50E-02
84963,7.97E-03,1.46E-02
84964,8.24E-03,1.47E-02
84965,6.16E-03,1.47E-02
84966,6.05E-03,1.47E-02
84967,7.98E-03,1.31E-02
84968,8.67E-03,1.14E-02
84969,8.44E-03,1.14E-02
84970,7.21E-03,1.14E-02
84971,7.85E-03,1.18E-02
84972,7.67E-03,1.18E-02
84973,7.55E-03,1.18E-02
84974,6.76E-03,1.42E-02
84975,6.69E-03,1.41E-02
84976,8.42E-03,1.39E-02
84977,9.29E-03,1.51E-02
84978,9.61E-03,1.51E-02
84979,5.87E-03,1.24E-02
84980,7.24E-03,1.25E-02
84981,5.99E-03,1.11E-02
84982,4.98E-03,1.13E-02
84983,7.68E-03,1.38E-02
84984,8.23E-03,1.20E-02
84985,7.18E-03,1.20E-02
84986,5.68E-03,1.14E-02
84987,6.16E-03,1.14E-02
84988,6.55E-03,1.14E-02
84989,6.85E-03,1.14E-02
84990,6.17E-03,1.34E-02
84991,8.11E-03,1.34E-02
84992,9.71E-03,1.51E-02
84993,9.78E-03,1.52E-02
84994,9.92E-03,1.52E-02
84995,1.08E-02,1.53E-02
84996,1.05E-02,1.53E-02
84997,8.39E-03,1.37E-02
84998,7.79E-03,1.38E-02
84999,7.42E-03,1.38E-02
85000,9.00E-03,1.12E-02
85001,8.43E-03,1.28E-02
85002,7.99E-03,1.28E-02
85003,7.31E-03,1.29E-02
85004,7.31E-03,1.29E-02
85005,6.73E-03,1.12E-02
85006,8.56E-03,1.18E-02
85007,8.86E-03,1.41E-02
85008,8.64E-03,1.50E-02
85009,8.65E-03,1.51E-02
85010,8.43E-03,1.24E-02
85011,8.05E-03,1.23E-02
85012,7.15E-03,1.09E-02
85013,7.50E-03,1.09E-02
85014,7.47E-03,1.38E-02
85015,9.92E-03,1.11E-02
85016,6.49E-03,1.08E-02
85017,5.58E-03,1.31E-02
85018,6.32E-03,1.31E-02
85019,1.25E-02,1.09E-02
85020,6.66E-03,1.09E-02
85021,1.09E-02,1.18E-02
85022,9.33E-03,1.17E-02
85023,7.40E-03,1.32E-02
85024,6.96E-03,1.33E-02
85025,6.79E-03,1.30E-02
85026,7.79E-03,1.40E-02
85027,8.85E-03,1.43E-02
85028,7.27E-03,1.30E-02
85029,6.58E-03,1.30E-02
85030,7.10E-03,1.33E-02
85031,6.27E-03,1.32E-02
85032,5.20E-03,1.11E-02
85033,6.51E-03,1.12E-02
85034,6.98E-03,1.12E-02
85035,9.62E-03,1.16E-02
85036,1.10E-02,1.16E-02
85037,1.09E-02,1.16E-02
85038,1.20E-02,1.17E-02
85039,1.17E-02,1.17E-02
85040,7.47E-03,1.17E-02
85041,7.47E-03,1.17E-02
85042,7.66E-03,1.17E-02
85043,6.67E-03,1.17E-02
85044,9.05E-03,1.28E-02
85045,9.78E-03,1.28E-02
85046,9.90E-03,1.29E-02
85047,9.71E-03,1.29E-02
85048,7.85E-03,1.29E-02
85049,7.61E-03,1.29E-02
85050,6.72E-03,1.30E-02
85051,6.47E-03,1.30E-02
85052,5.73E-03,1.30E-02
85053,4.88E-03,1.30E-02
85054,4.75E-03,1.30E-02
85055,3.72E-03,1.31E-02
85056,3.39E-03,1.30E-02
85057,3.54E-03,1.30E-02
85058,3.82E-03,1.31E-02
85059,5.00E-03,1.31E-02
85060,4.78E-03,1.31E-02
85061,4.31E-03,1.31E-02
85062,4.75E-03,1.32E-02
85063,6.72E-03,1.32E-02
85064,7.85E-03,1.32E-02
85065,8.13E-03,1.29E-02
85066,8.15E-03,1.29E-02
85067,8.15E-03,1.29E-02
85068,8.15E-03,1.29E-02
85069,8.15E-03,1.29E-02
85070,8.15E-03,1.29E-02
85071,8.16E-03,1.29E-02
85072,8.18E-03,1.29E-02
85073,8.19E-03,1.29E-02
85074,8.19E-03,1.29E-02
85075,8.19E-03,1.29E-02
85076,8.20E-03,1.29E-02
85077,8.20E-03,1.29E-02
85078,8.21E-03,1.29E-02
85079,8.22E-03,1.30E-02
85080,8.22E-03,1.30E-02
85081,8.23E-03,1.30E-02
85082,8.24E-03,1.30E-02
85083,8.25E-03,1.30E-02
85084,8.26E-03,1.30E-02
85085,8.27E-03,1.30E-02
85086,8.28E-03,1.30E-02
85087,8.29E-03,1.30E-02
85088,8.31E-03,1.30E-02
85089,8.32E-03,1.30E-02
85090,8.34E-03,1.30E-02
85091,8.36E-03,1.30E-02
85092,8.38E-03,1.30E-02
85093,8.41E-03,1.30E-02
85094,8.44E-03,1.30E-02
85095,8.48E-03,1.30E-02
85096,8.54E-03,1.30E-02
85097,8.61E-03,1.30E-02
85098,8.67E-03,1.30E-02
85099,8.75E-03,1.30E-02
85100,8.95E-03,1.31E-02
85101,9.26E-03,1.31E-02
85102,9.34E-03,1.31E-02
85103,9.49E-03,1.31E-02
85104,9.57E-03,1.31E-02
85105,9.96E-03,1.31E-02
85106,1.01E-02,1.31E-02
85107,1.09E-02,1.31E-02
85108,9.33E-03,1.31E-02
85109,9.39E-03,1.32E-02
85110,5.79E-03,1.32E-02
85111,5.98E-03,1.32E-02
85112,6.07E-03,1.32E-02
85113,6.71E-03,1.32E-02
85114,6.88E-03,1.32E-02
85115,7.01E-03,1.32E-02
85116,7.06E-03,1.32E-02
85117,7.26E-03,1.32E-02
85118,7.29E-03,1.32E-02
85119,7.46E-03,1.32E-02
85120,7.52E-03,1.32E-02
85121,7.58E-03,1.33E-02
85122,7.62E-03,1.33E-02
85123,7.66E-03,1.33E-02
85124,7.69E-03,1.33E-02
85125,7.72E-03,1.33E-02
85126,7.74E-03,1.33E-02
85127,7.74E-03,1.33E-02
85128,7.70E-03,1.33E-02
85129,7.75E-03,1.33E-02
85130,7.82E-03,1.33E-02
85131,7.84E-03,1.33E-02
85132,7.85E-03,1.33E-02
85133,7.86E-03,1.33E-02
85134,7.87E-03,1.33E-02
85135,7.86E-03,1.33E-02
85136,7.85E-03,1.33E-02
85137,7.87E-03,1.33E-02
85138,7.97E-03,1.33E-02
85139,7.98E-03,1.33E-02
85140,8.04E-03,1.33E-02
85141,8.07E-03,1.33E-02
85142,8.04E-03,1.33E-02
85143,8.00E-03,1.33E-02
85144,8.01E-03,1.33E-02
85145,8.02E-03,1.33E-02
85146,8.10E-03,1.33E-02
85147,8.22E-03,1.33E-02
85148,8.22E-03,1.33E-02
85149,8.19E-03,1.33E-02
85150,8.17E-03,1.33E-02
85151,8.09E-03,1.33E-02
85152,8.07E-03,1.33E-02
85153,7.93E-03,1.33E-02
85154,7.86E-03,1.33E-02
85155,7.92E-03,1.33E-02
85156,8.15E-03,1.33E-02
85157,8.52E-03,1.33E-02
85158,8.84E-03,1.33E-02
85159,8.93E-03,1.33E-02
85160,8.81E-03,1.33E-02
85161,8.64E-03,1.33E-02
85162,8.50E-03,1.33E-02
85163,8.48E-03,1.33E-02
85164,8.52E-03,1.33E-02
85165,8.66E-03,1.33E-02
85166,8.83E-03,1.33E-02
85167,8.90E-03,1.33E-02
85168,8.69E-03,1.33E-02
85169,7.33E-03,1.28E-02
85170,6.87E-03,1.27E-02
85171,6.67E-03,1.27E-02
85172,6.58E-03,1.27E-02
85173,6.65E-03,1.26E-02
85174,6.83E-03,1.26E-02
85175,7.14E-03,1.26E-02
85176,7.27E-03,1.25E-02
85177,7.37E-03,1.25E-02
85178,7.45E-03,1.25E-02
85179,7.52E-03,1.24E-02
85180,7.57E-03,1.24E-02
85181,7.62E-03,1.24E-02
85182,7.66E-03,1.23E-02
85183,7.71E-03,1.23E-02
85184,7.80E-03,1.22E-02
85185,7.85E-03,1.22E-02
85186,7.85E-03,1.22E-02
85187,7.84E-03,1.21E-02
85188,7.83E-03,1.21E-02
85189,7.82E-03,1.21E-02
85190,7.81E-03,1.20E-02
85191,7.80E-03,1.20E-02
85192,7.79E-03,1.20E-02
85193,7.78E-03,1.19E-02
85194,7.76E-03,1.19E-02
85195,7.75E-03,1.19E-02
85196,7.73E-03,1.18E-02
85197,7.72E-03,1.18E-02
85198,7.70E-03,1.18E-02
85199,7.68E-03,1.17E-02
85200,7.66E-03,1.17E-02
85201,7.64E-03,1.17E-02
85202,7.74E-03,1.16E-02
85203,7.65E-03,1.16E-02
85204,7.48E-03,1.16E-02
85205,7.39E-03,1.16E-02
85206,7.23E-03,1.15E-02
85207,8.13E-03,1.29E-02
85208,8.16E-03,1.29E-02
85209,8.16E-03,1.29E-02
85210,8.16E-03,1.29E-02
85211,8.16E-03,1.29E-02
85212,8.16E-03,1.29E-02
85213,8.16E-03,1.29E-02
85214,8.16E-03,1.29E-02
85215,8.17E-03,1.29E-02
85216,8.17E-03,1.29E-02
85217,8.17E-03,1.29E-02
85218,8.17E-03,1.29E-02
85219,8.17E-03,1.29E-02
85220,8.17E-03,1.29E-02
85221,8.18E-03,1.29E-02
85222,8.18E-03,1.30E-02
85223,8.18E-03,1.30E-02
85224,8.18E-03,1.30E-02
85225,8.18E-03,1.30E-02
85226,8.18E-03,1.30E-02
85227,8.19E-03,1.30E-02
85228,8.19E-03,1.30E-02
85229,8.19E-03,1.30E-02
85230,8.19E-03,1.30E-02
85231,8.20E-03,1.30E-02
85232,8.20E-03,1.30E-02
85233,8.21E-03,1.30E-02
85234,8.22E-03,1.30E-02
85235,8.22E-03,1.30E-02
85236,8.23E-03,1.30E-02
85237,8.24E-03,1.30E-02
85238,8.25E-03,1.30E-02
85239,8.26E-03,1.30E-02
85240,8.26E-03,1.30E-02
85241,8.27E-03,1.30E-02
85242,8.28E-03,1.30E-02
85243,8.29E-03,1.30E-02
85244,8.30E-03,1.31E-02
85245,8.31E-03,1.31E-02
85246,8.32E-03,1.31E-02
85247,8.34E-03,1.31E-02
85248,8.35E-03,1.31E-02
85249,8.37E-03,1.31E-02
85250,8.39E-03,1.31E-02
85251,8.41E-03,1.31E-02
85252,8.43E-03,1.31E-02
85253,8.46E-03,1.31E-02
85254,8.49E-03,1.31E-02
85255,8.52E-03,1.32E-02
85256,8.56E-03,1.32E-02
85257,8.60E-03,1.32E-02
85258,8.65E-03,1.32E-02
85259,8.71E-03,1.32E-02
85260,8.78E-03,1.32E-02
85261,8.92E-03,1.32E-02
85262,8.99E-03,1.33E-02
85263,9.11E-03,1.33E-02
85264,9.25E-03,1.33E-02
85265,9.63E-03,1.33E-02
85266,9.71E-03,1.33E-02
85267,9.99E-03,1.34E-02
85268,9.99E-03,1.34E-02
85269,6.49E-03,1.31E-02
85270,6.61E-03,1.31E-02
85271,1.08E-02,1.32E-02
85272,1.07E-02,1.32E-02
85273,1.07E-02,1.33E-02
85274,1.07E-02,1.33E-02
85275,1.05E-02,1.34E-02
85276,1.04E-02,1.35E-02
85277,1.03E-02,1.35E-02
85278,9.54E-03,1.36E-02
85279,9.37E-03,1.36E-02
85280,9.25E-03,1.37E-02
85281,8.89E-03,1.37E-02
85282,8.76E-03,1.38E-02
85283,8.92E-03,1.38E-02
85284,9.28E-03,1.39E-02
85285,9.52E-03,1.39E-02
85286,8.62E-03,1.40E-02
85287,7.67E-03,1.40E-02
85288,7.61E-03,1.41E-02
85289,7.61E-03,1.41E-02
85290,7.61E-03,1.42E-02
85291,7.57E-03,1.42E-02
85292,7.59E-03,1.43E-02
85293,7.61E-03,1.43E-02
85294,7.58E-03,1.43E-02
85295,8.91E-03,1.48E-02
85296,7.34E-03,1.47E-02
85297,7.96E-03,1.48E-02
85298,6.74E-03,1.37E-02
85299,6.23E-03,1.38E-02
85300,7.43E-03,1.37E-02
85301,7.76E-03,1.37E-02
85302,8.47E-03,1.37E-02
85303,7.62E-03,1.37E-02
85304,6.92E-03,1.36E-02
85305,7.73E-03,1.35E-02
85306,7.32E-03,1.36E-02
85307,8.42E-03,1.15E-02
85308,9.06E-03,1.15E-02
85309,8.85E-03,1.15E-02
85310,7.55E-03,1.20E-02
85311,8.22E-03,1.20E-02
85312,7.48E-03,1.19E-02
85313,7.41E-03,1.19E-02
85314,6.18E-03,1.24E-02
85315,6.13E-03,1.24E-02
85316,7.29E-03,1.39E-02
85317,7.23E-03,1.39E-02
85318,9.05E-03,1.39E-02
85319,9.59E-03,1.38E-02
85320,9.67E-03,1.38E-02
85321,9.30E-03,1.38E-02
85322,8.60E-03,1.38E-02
85323,7.80E-03,1.24E-02
85324,1.02E-02,1.24E-02
85325,1.01E-02,1.24E-02
85326,9.87E-03,1.25E-02
85327,9.74E-03,1.25E-02
85328,9.24E-03,1.25E-02
85329,8.95E-03,1.25E-02
85330,7.77E-03,1.25E-02
85331,6.75E-03,1.25E-02
85332,6.68E-03,1.25E-02
85333,6.56E-03,1.25E-02
85334,6.44E-03,1.25E-02
85335,6.35E-03,1.25E-02
85336,5.74E-03,1.25E-02
85337,5.63E-03,1.25E-02
85338,6.20E-03,1.26E-02
85339,5.31E-03,1.26E-02
85340,4.20E-03,1.25E-02
85341,4.18E-03,1.26E-02
85342,3.83E-03,1.26E-02
85343,4.78E-03,1.25E-02
85344,4.89E-03,1.25E-02
85345,5.32E-03,1.25E-02
85346,5.96E-03,1.12E-02
85347,5.19E-03,1.11E-02
85348,5.57E-03,1.12E-02
85349,8.04E-03,1.19E-02
85350,8.04E-03,1.19E-02
85351,6.01E-03,1.15E-02
85352,5.70E-03,1.15E-02
85353,5.34E-03,1.15E-02
85354,5.50E-03,1.15E-02
85355,5.55E-03,1.15E-02
85356,5.59E-03,1.15E-02
85357,7.67E-03,1.15E-02
85358,7.73E-03,1.15E-02
85359,7.77E-03,1.15E-02
85360,7.35E-03,1.15E-02
85361,7.03E-03,1.40E-02
85362,6.17E-03,1.22E-02
85363,8.55E-03,1.22E-02
85364,8.62E-03,1.35E-02
85365,9.21E-03,1.35E-02
85366,9.36E-03,1.35E-02
85367,9.47E-03,1.36E-02
85368,9.35E-03,1.36E-02
85369,9.43E-03,1.36E-02
85370,9.72E-03,1.36E-02
85371,9.87E-03,1.37E-02
85372,9.94E-03,1.37E-02
85373,1.05E-02,1.37E-02
85374,1.07E-02,1.37E-02
85375,1.05E-02,1.38E-02
85376,9.94E-03,1.38E-02
85377,8.24E-03,1.38E-02
85378,7.35E-03,1.38E-02
85379,7.08E-03,1.39E-02
85380,4.92E-03,1.39E-02
85381,4.97E-03,1.39E-02
85382,5.41E-03,1.39E-02
85383,5.56E-03,1.39E-02
85384,5.70E-03,1.40E-02
85385,6.04E-03,1.40E-02
85386,6.16E-03,1.40E-02
85387,6.45E-03,1.40E-02
85388,6.90E-03,1.40E-02
85389,6.98E-03,1.41E-02
85390,7.01E-03,1.41E-02
85391,7.28E-03,1.41E-02
85392,7.84E-03,1.41E-02
85393,7.84E-03,1.42E-02
85394,8.03E-03,1.42E-02
85395,8.29E-03,1.43E-02
85396,8.33E-03,1.43E-02
85397,7.67E-03,1.33E-02
85398,6.07E-03,1.17E-02
85399,6.69E-03,1.17E-02
85400,8.11E-03,1.18E-02
85401,7.52E-03,1.20E-02
85402,8.18E-03,1.19E-02
85403,8.17E-03,1.12E-02
85404,7.67E-03,1.12E-02
85405,6.17E-03,1.12E-02
85406,8.15E-03,1.37E-02
85407,8.35E-03,1.37E-02
85408,8.40E-03,1.37E-02
85409,8.03E-03,1.28E-02
85410,7.24E-03,1.29E-02
85411,8.24E-03,1.44E-02
85412,8.17E-03,1.44E-02
85413,7.81E-03,1.12E-02
85414,7.42E-03,1.28E-02
85415,7.34E-03,1.28E-02
85416,7.10E-03,1.29E-02
85417,6.04E-03,1.12E-02
85418,1.02E-02,1.13E-02
85419,9.85E-03,1.13E-02
85420,9.81E-03,1.14E-02
85421,9.61E-03,1.14E-02
85422,8.62E-03,1.14E-02
85423,7.82E-03,1.31E-02
85424,7.02E-03,1.31E-02
85425,6.25E-03,1.30E-02
85426,7.52E-03,1.30E-02
85427,7.65E-03,1.30E-02
85428,7.27E-03,1.33E-02
85429,6.84E-03,1.33E-02
85430,7.05E-03,1.40E-02
85431,5.68E-03,1.40E-02
85432,5.96E-03,1.40E-02
85433,8.13E-03,1.40E-02
85434,7.50E-03,1.40E-02
85435,7.19E-03,1.40E-02
85436,6.87E-03,1.40E-02
85437,7.56E-03,1.39E-02
85438,8.38E-03,1.39E-02
85439,7.76E-03,1.39E-02
85440,7.32E-03,1.39E-02
85441,7.10E-03,1.40E-02
85442,6.09E-03,1.39E-02
85443,6.71E-03,1.39E-02
85444,9.57E-03,1.39E-02
85445,8.90E-03,1.38E-02
85446,8.68E-03,1.38E-02
85447,8.28E-03,1.39E-02
85448,7.82E-03,1.39E-02
85449,7.89E-03,1.38E-02
85450,7.98E-03,1.38E-02
85451,7.94E-03,1.38E-02
85452,7.91E-03,1.38E-02
85453,7.87E-03,1.38E-02
85454,7.19E-03,1.38E-02
85455,8.10E-03,1.18E-02
85456,7.91E-03,1.17E-02
85457,7.63E-03,1.17E-02
85458,8.14E-03,1.16E-02
85459,7.13E-03,1.16E-02
85460,8.94E-03,1.26E-02
85461,6.81E-03,1.31E-02
85462,7.25E-03,1.31E-02
85463,6.94E-03,1.31E-02
85464,7.24E-03,1.34E-02
85465,7.57E-03,1.33E-02
85466,7.83E-03,1.32E-02
85467,8.32E-03,1.35E-02
85468,6.79E-03,1.14E-02
85469,8.25E-03,1.30E-02
85470,8.10E-03,1.30E-02
85471,8.36E-03,1.34E-02
85472,6.69E-03,1.30E-02
85473,6.86E-03,1.44E-02
85474,6.83E-03,1.42E-02
85475,8.63E-03,1.49E-02
85476,5.41E-03,1.48E-02
85477,8.18E-03,1.36E-02
85478,8.19E-03,1.36E-02
85479,8.03E-03,1.36E-02
85480,8.94E-03,1.36E-02
85481,7.61E-03,1.35E-02
85482,7.61E-03,1.35E-02
85483,7.65E-03,1.33E-02
85484,7.85E-03,1.32E-02
85485,8.36E-03,1.14E-02
85486,7.54E-03,1.14E-02
85487,7.71E-03,1.19E-02
85488,6.79E-03,1.41E-02
85489,8.23E-03,1.39E-02
85490,9.04E-03,1.39E-02
85491,9.35E-03,1.51E-02
85492,7.50E-03,1.22E-02
85493,6.89E-03,1.25E-02
85494,5.74E-03,1.11E-02
85495,5.89E-03,1.11E-02
85496,6.91E-03,1.28E-02
85497,8.38E-03,1.27E-02
85498,6.28E-03,1.28E-02
85499,7.95E-03,1.11E-02
85500,9.31E-03,1.15E-02
85501,6.22E-03,1.15E-02
85502,6.29E-03,1.14E-02
85503,6.67E-03,1.14E-02
85504,8.03E-03,1.38E-02
85505,7.91E-03,1.39E-02
85506,7.48E-03,1.40E-02
85507,8.09E-03,1.20E-02
85508,7.71E-03,1.12E-02
85509,8.11E-03,1.19E-02
85510,1.01E-02,1.18E-02
85511,6.36E-03,1.13E-02
85512,6.56E-03,1.13E-02
85513,6.96E-03,1.13E-02
85514,8.57E-03,1.13E-02
85515,8.14E-03,1.34E-02
85516,9.67E-03,1.52E-02
85517,9.78E-03,1.52E-02
85518,9.98E-03,1.53E-02
85519,1.00E-02,1.53E-02
85520,8.96E-03,1.54E-02
85521,1.07E-02,1.53E-02
85522,9.75E-03,1.52E-02
85523,9.63E-03,1.52E-02
85524,9.83E-03,1.51E-02
85525,9.97E-03,1.50E-02
85526,9.97E-03,1.49E-02
85527,1.00E-02,1.48E-02
85528,1.01E-02,1.47E-02
85529,9.37E-03,1.47E-02
85530,8.47E-03,1.46E-02
85531,8.10E-03,1.45E-02
85532,7.75E-03,1.44E-02
85533,7.59E-03,1.19E-02
85534,7.98E-03,1.46E-02
85535,7.07E-03,1.39E-02
85536,5.39E-03,1.40E-02
85537,7.10E-03,1.40E-02
85538,8.99E-03,1.12E-02
85539,7.17E-03,1.28E-02
85540,7.23E-03,1.28E-02
85541,6.71E-03,1.28E-02
85542,7.15E-03,1.29E-02
85543,7.23E-03,1.13E-02
85544,7.75E-03,1.26E-02
85545,7.93E-03,1.25E-02
85546,6.82E-03,1.11E-02
85547,7.93E-03,1.17E-02
85548,7.87E-03,1.17E-02
85549,7.20E-03,1.17E-02
85550,8.01E-03,1.17E-02
85551,8.70E-03,1.24E-02
85552,8.30E-03,1.37E-02
85553,8.59E-03,1.30E-02
85554,8.58E-03,1.50E-02
85555,7.29E-03,1.47E-02
85556,6.74E-03,1.47E-02
85557,8.12E-03,1.17E-02
85558,7.86E-03,1.17E-02
85559,7.09E-03,1.17E-02
85560,6.10E-03,1.23E-02
85561,6.00E-03,1.21E-02
85562,6.67E-03,1.22E-02
85563,7.10E-03,1.44E-02
85564,7.14E-03,1.44E-02
85565,8.38E-03,1.41E-02
85566,8.99E-03,1.51E-02
85567,7.27E-03,1.23E-02
85568,6.45E-03,1.10E-02
85569,6.13E-03,1.10E-02
85570,8.22E-03,1.17E-02
85571,5.94E-03,1.11E-02
85572,5.56E-03,1.13E-02
85573,6.20E-03,1.13E-02
85574,4.54E-03,1.13E-02
85575,7.71E-03,1.39E-02
85576,7.25E-03,1.42E-02
85577,6.10E-03,1.34E-02
85578,8.00E-03,1.34E-02
85579,9.31E-03,1.18E-02
85580,9.45E-03,1.11E-02
85581,8.37E-03,1.51E-02
85582,8.39E-03,1.51E-02
85583,8.10E-03,1.18E-02
85584,8.32E-03,1.22E-02
85585,7.93E-03,1.22E-02
85586,7.28E-03,1.09E-02
85587,7.55E-03,1.29E-02
85588,7.65E-03,1.28E-02
85589,5.54E-03,1.29E-02
85590,8.49E-03,1.29E-02
85591,7.03E-03,1.36E-02
85592,7.40E-03,1.33E-02
85593,7.40E-03,1.36E-02
85594,7.63E-03,1.34E-02
85595,7.51E-03,1.39E-02
85596,6.54E-03,1.07E-02
85597,7.66E-03,1.30E-02
85598,8.09E-03,1.27E-02
85599,1.04E-02,1.10E-02
85600,7.85E-03,1.36E-02
85601,1.25E-02,1.08E-02
85602,8.20E-03,1.08E-02
85603,7.83E-03,1.47E-02
85604,6.95E-03,1.21E-02
85605,7.19E-03,1.24E-02
85606,9.52E-03,1.15E-02
85607,1.06E-02,1.15E-02
85608,9.86E-03,1.15E-02
85609,1.21E-02,1.15E-02
85610,1.12E-02,1.16E-02
85611,7.31E-03,1.16E-02
85612,7.23E-03,1.16E-02
85613,7.05E-03,1.16E-02
85614,6.61E-03,1.16E-02
85615,9.20E-03,1.26E-02
85616,1.01E-02,1.27E-02
85617,1.02E-02,1.27E-02
85618,1.03E-02,1.27E-02
85619,7.69E-03,1.27E-02
85620,7.38E-03,1.28E-02
85621,6.50E-03,1.28E-02
85622,6.22E-03,1.28E-02
85623,5.60E-03,1.28E-02
85624,5.08E-03,1.28E-02
85625,4.59E-03,1.28E-02
85626,4.23E-03,1.28E-02
85627,3.74E-03,1.28E-02
85628,3.71E-03,1.29E-02
85629,4.19E-03,1.29E-02
85630,4.47E-03,1.29E-02
85631,4.59E-03,1.29E-02
85632,4.82E-03,1.29E-02
85633,6.01E-03,1.30E-02
85634,6.40E-03,1.30E-02
85635,7.22E-03,1.30E-02
85636,8.12E-03,1.36E-02
85637,8.26E-03,1.36E-02
85638,7.40E-03,1.38E-02
85639,8.76E-03,1.36E-02
85640,1.11E-02,1.37E-02
85641,9.67E-03,1.36E-02
85642,9.21E-03,1.36E-02
85643,9.12E-03,1.36E-02
85644,8.83E-03,1.35E-02
85645,8.69E-03,1.35E-02
85646,8.42E-03,1.35E-02
85647,8.27E-03,1.35E-02
85648,8.24E-03,1.35E-02
85649,8.14E-03,1.34E-02
85650,8.02E-03,1.34E-02
85651,8.02E-03,1.34E-02
85652,7.86E-03,1.34E-02
85653,7.64E-03,1.34E-02
85654,6.99E-03,1.34E-02
85655,7.42E-03,1.34E-02
85656,7.97E-03,1.33E-02
85657,7.59E-03,1.33E-02
85658,5.17E-03,1.32E-02
85659,8.03E-03,1.32E-02
85660,7.62E-03,1.33E-02
85661,7.54E-03,1.32E-02
85662,7.22E-03,1.32E-02
85663,7.21E-03,1.32E-02
85664,8.27E-03,1.31E-02
85665,6.25E-03,1.32E-02
85666,6.80E-03,1.32E-02
85667,6.92E-03,1.32E-02
85668,4.54E-03,1.31E-02
85669,7.76E-03,1.33E-02
85670,8.13E-03,1.30E-02
85671,8.15E-03,1.30E-02
85672,8.15E-03,1.30E-02
85673,8.15E-03,1.30E-02
85674,8.15E-03,1.30E-02
85675,8.15E-03,1.30E-02
85676,8.16E-03,1.30E-02
85677,8.18E-03,1.30E-02
85678,8.18E-03,1.30E-02
85679,8.19E-03,1.30E-02
85680,8.19E-03,1.30E-02
85681,8.20E-03,1.30E-02
85682,8.20E-03,1.30E-02
85683,8.21E-03,1.30E-02
85684,8.21E-03,1.30E-02
85685,8.22E-03,1.30E-02
85686,8.23E-03,1.30E-02
85687,8.24E-03,1.31E-02
85688,8.24E-03,1.31E-02
85689,8.25E-03,1.31E-02
85690,8.26E-03,1.31E-02
85691,8.27E-03,1.31E-02
85692,8.29E-03,1.31E-02
85693,8.30E-03,1.31E-02
85694,8.32E-03,1.31E-02
85695,8.34E-03,1.31E-02
85696,8.36E-03,1.31E-02
85697,8.38E-03,1.31E-02
85698,8.41E-03,1.31E-02
85699,8.43E-03,1.31E-02
85700,8.47E-03,1.31E-02
85701,8.53E-03,1.31E-02
85702,8.60E-03,1.31E-02
85703,8.66E-03,1.32E-02
85704,8.73E-03,1.32E-02
85705,8.94E-03,1.32E-02
85706,9.16E-03,1.32E-02
85707,9.37E-03,1.32E-02
85708,9.39E-03,1.32E-02
85709,9.53E-03,1.32E-02
85710,9.96E-03,1.32E-02
85711,1.01E-02,1.32E-02
85712,1.12E-02,1.33E-02
85713,9.34E-03,1.33E-02
85714,9.47E-03,1.33E-02
85715,5.70E-03,1.33E-02
85716,5.84E-03,1.33E-02
85717,6.25E-03,1.33E-02
85718,6.73E-03,1.33E-02
85719,6.84E-03,1.33E-02
85720,7.08E-03,1.33E-02
85721,7.10E-03,1.33E-02
85722,7.26E-03,1.34E-02
85723,7.34E-03,1.34E-02
85724,7.48E-03,1.34E-02
85725,7.53E-03,1.34E-02
85726,7.59E-03,1.34E-02
85727,7.63E-03,1.34E-02
85728,7.67E-03,1.34E-02
85729,7.70E-03,1.34E-02
85730,7.73E-03,1.34E-02
85731,7.75E-03,1.34E-02
85732,7.77E-03,1.34E-02
85733,7.79E-03,1.34E-02
85734,7.81E-03,1.34E-02
85735,7.83E-03,1.34E-02
85736,7.84E-03,1.34E-02
85737,7.85E-03,1.34E-02
85738,7.87E-03,1.35E-02
85739,7.88E-03,1.35E-02
85740,7.87E-03,1.35E-02
85741,7.85E-03,1.35E-02
85742,7.87E-03,1.35E-02
85743,7.91E-03,1.35E-02
85744,7.94E-03,1.35E-02
85745,7.96E-03,1.35E-02
85746,7.98E-03,1.35E-02
85747,7.99E-03,1.35E-02
85748,8.00E-03,1.35E-02
85749,8.01E-03,1.35E-02
85750,8.02E-03,1.35E-02
85751,8.10E-03,1.35E-02
85752,8.22E-03,1.35E-02
85753,8.27E-03,1.35E-02
85754,8.24E-03,1.35E-02
85755,8.20E-03,1.35E-02
85756,8.19E-03,1.35E-02
85757,8.13E-03,1.35E-02
85758,8.05E-03,1.35E-02
85759,8.02E-03,1.35E-02
85760,8.06E-03,1.35E-02
85761,8.26E-03,1.35E-02
85762,8.38E-03,1.35E-02
85763,8.53E-03,1.35E-02
85764,8.59E-03,1.35E-02
85765,8.60E-03,1.35E-02
85766,8.57E-03,1.35E-02
85767,8.60E-03,1.35E-02
85768,8.61E-03,1.35E-02
85769,8.73E-03,1.35E-02
85770,8.90E-03,1.35E-02
85771,9.05E-03,1.35E-02
85772,9.21E-03,1.35E-02
85773,9.18E-03,1.35E-02
85774,6.91E-03,1.27E-02
85775,6.68E-03,1.27E-02
85776,6.62E-03,1.27E-02
85777,6.60E-03,1.26E-02
85778,6.70E-03,1.26E-02
85779,6.84E-03,1.26E-02
85780,7.16E-03,1.25E-02
85781,7.28E-03,1.25E-02
85782,7.38E-03,1.25E-02
85783,7.46E-03,1.24E-02
85784,7.53E-03,1.24E-02
85785,7.58E-03,1.23E-02
85786,7.63E-03,1.23E-02
85787,7.67E-03,1.23E-02
85788,7.72E-03,1.22E-02
85789,7.80E-03,1.22E-02
85790,7.86E-03,1.22E-02
85791,7.85E-03,1.21E-02
85792,7.85E-03,1.21E-02
85793,7.84E-03,1.20E-02
85794,7.83E-03,1.20E-02
85795,7.82E-03,1.20E-02
85796,7.81E-03,1.19E-02
85797,7.79E-03,1.19E-02
85798,7.78E-03,1.19E-02
85799,7.77E-03,1.18E-02
85800,7.76E-03,1.18E-02
85801,7.74E-03,1.18E-02
85802,7.72E-03,1.17E-02
85803,7.71E-03,1.17E-02
85804,7.69E-03,1.17E-02
85805,7.67E-03,1.16E-02
85806,7.65E-03,1.16E-02
85807,7.75E-03,1.16E-02
85808,7.63E-03,1.15E-02
85809,7.54E-03,1.15E-02
85810,7.42E-03,1.15E-02
85811,7.20E-03,1.14E-02
85812,8.13E-03,1.30E-02
85813,8.16E-03,1.30E-02
85814,8.16E-03,1.30E-02
85815,8.16E-03,1.30E-02
85816,8.16E-03,1.30E-02
85817,8.16E-03,1.30E-02
85818,8.16E-03,1.30E-02
85819,8.16E-03,1.30E-02
85820,8.16E-03,1.30E-02
85821,8.17E-03,1.30E-02
85822,8.17E-03,1.30E-02
85823,8.17E-03,1.30E-02
85824,8.17E-03,1.30E-02
85825,8.17E-03,1.30E-02
85826,8.17E-03,1.30E-02
85827,8.18E-03,1.30E-02
85828,8.18E-03,1.30E-02
85829,8.18E-03,1.30E-02
85830,8.18E-03,1.30E-02
85831,8.18E-03,1.30E-02
85832,8.18E-03,1.30E-02
85833,8.19E-03,1.30E-02
85834,8.19E-03,1.30E-02
85835,8.19E-03,1.30E-02
85836,8.20E-03,1.30E-02
85837,8.20E-03,1.30E-02
85838,8.21E-03,1.30E-02
85839,8.21E-03,1.30E-02
85840,8.22E-03,1.30E-02
85841,8.23E-03,1.30E-02
85842,8.24E-03,1.30E-02
85843,8.25E-03,1.30E-02
85844,8.26E-03,1.30E-02
85845,8.26E-03,1.30E-02
85846,8.27E-03,1.30E-02
85847,8.28E-03,1.31E-02
85848,8.29E-03,1.31E-02
85849,8.30E-03,1.31E-02
85850,8.31E-03,1.31E-02
85851,8.32E-03,1.31E-02
85852,8.33E-03,1.31E-02
85853,8.35E-03,1.31E-02
85854,8.36E-03,1.31E-02
85855,8.38E-03,1.31E-02
85856,8.40E-03,1.31E-02
85857,8.42E-03,1.31E-02
85858,8.45E-03,1.31E-02
85859,8.48E-03,1.31E-02
85860,8.51E-03,1.32E-02
85861,8.55E-03,1.32E-02
85862,8.59E-03,1.32E-02
85863,8.64E-03,1.32E-02
85864,8.70E-03,1.32E-02
85865,8.77E-03,1.32E-02
85866,8.85E-03,1.32E-02
85867,8.95E-03,1.32E-02
85868,9.13E-03,1.33E-02
85869,9.20E-03,1.33E-02
85870,9.52E-03,1.33E-02
85871,9.66E-03,1.33E-02
85872,1.01E-02,1.33E-02
85873,1.08E-02,1.34E-02
85874,6.79E-03,1.31E-02
85875,6.20E-03,1.31E-02
85876,1.03E-02,1.32E-02
85877,1.04E-02,1.32E-02
85878,1.09E-02,1.33E-02
85879,1.05E-02,1.33E-02
85880,1.04E-02,1.34E-02
85881,1.03E-02,1.35E-02
85882,1.02E-02,1.35E-02
85883,9.64E-03,1.36E-02
85884,9.28E-03,1.36E-02
85885,9.25E-03,1.37E-02
85886,8.87E-03,1.37E-02
85887,8.75E-03,1.38E-02
85888,8.90E-03,1.38E-02
85889,9.26E-03,1.39E-02
85890,9.49E-03,1.39E-02
85891,8.61E-03,1.40E-02
85892,7.68E-03,1.40E-02
85893,7.62E-03,1.41E-02
85894,7.62E-03,1.41E-02
85895,7.62E-03,1.42E-02
85896,7.58E-03,1.42E-02
85897,7.62E-03,1.43E-02
85898,7.64E-03,1.43E-02
85899,7.54E-03,1.44E-02
85900,7.98E-03,1.29E-02
85901,9.72E-03,1.32E-02
85902,9.10E-03,1.33E-02
85903,8.96E-03,1.33E-02
85904,8.49E-03,1.33E-02
85905,5.98E-03,1.32E-02
85906,9.19E-03,1.33E-02
85907,9.34E-03,1.33E-02
85908,7.97E-03,1.34E-02
85909,7.61E-03,1.34E-02
85910,7.55E-03,1.34E-02
85911,8.38E-03,1.34E-02
85912,9.75E-03,1.34E-02
85913,8.46E-03,1.34E-02
85914,7.83E-03,1.35E-02
85915,7.82E-03,1.35E-02
85916,8.14E-03,1.35E-02
85917,8.93E-03,1.35E-02
85918,8.59E-03,1.35E-02
85919,7.97E-03,1.35E-02
85920,7.71E-03,1.36E-02
85921,7.68E-03,1.36E-02
85922,7.73E-03,1.36E-02
85923,7.83E-03,1.36E-02
85924,7.94E-03,1.37E-02
85925,8.09E-03,1.37E-02
85926,8.26E-03,1.37E-02
85927,8.35E-03,1.37E-02
85928,8.33E-03,1.37E-02
85929,8.40E-03,1.37E-02
85930,8.58E-03,1.38E-02
85931,8.70E-03,1.38E-02
85932,8.92E-03,1.38E-02
85933,8.95E-03,1.38E-02
85934,9.14E-03,1.39E-02
85935,8.33E-03,1.39E-02
85936,5.70E-03,1.39E-02
85937,6.02E-03,1.40E-02
85938,6.62E-03,1.41E-02
85939,7.60E-03,1.41E-02
85940,7.96E-03,1.40E-02
85941,7.95E-03,1.41E-02
85942,7.84E-03,1.41E-02
85943,7.98E-03,1.41E-02
85944,8.00E-03,1.41E-02
85945,8.14E-03,1.41E-02
85946,8.37E-03,1.41E-02
85947,8.53E-03,1.41E-02
85948,8.05E-03,1.41E-02
85949,7.41E-03,1.41E-02
85950,7.23E-03,1.41E-02
85951,7.11E-03,1.42E-02
85952,7.41E-03,1.42E-02
85953,7.65E-03,1.42E-02
85954,7.65E-03,1.42E-02
85955,7.35E-03,1.41E-02
85956,7.46E-03,1.42E-02
85957,7.32E-03,1.42E-02
85958,7.33E-03,1.42E-02
85959,7.07E-03,1.42E-02
85960,6.56E-03,1.42E-02
85961,6.69E-03,1.42E-02
85962,6.71E-03,1.42E-02
85963,8.53E-03,1.49E-02
85964,7.20E-03,1.48E-02
85965,7.49E-03,1.48E-02
85966,7.40E-03,1.36E-02
85967,8.86E-03,1.36E-02
85968,8.94E-03,1.36E-02
85969,9.15E-03,1.36E-02
85970,9.95E-03,1.36E-02
85971,7.75E-03,1.35E-02
85972,7.83E-03,1.34E-02
85973,7.59E-03,1.35E-02
85974,7.68E-03,1.34E-02
85975,7.53E-03,1.33E-02
85976,7.73E-03,1.33E-02
85977,7.65E-03,1.32E-02
85978,8.47E-03,1.14E-02
85979,8.94E-03,1.14E-02
85980,9.24E-03,1.14E-02
85981,7.77E-03,1.18E-02
85982,7.62E-03,1.18E-02
85983,7.44E-03,1.18E-02
85984,7.45E-03,1.18E-02
85985,6.64E-03,1.23E-02
85986,6.75E-03,1.22E-02
85987,7.01E-03,1.41E-02
85988,7.11E-03,1.41E-02
85989,9.34E-03,1.41E-02
85990,9.42E-03,1.40E-02
85991,9.54E-03,1.40E-02
85992,9.27E-03,1.40E-02
85993,9.00E-03,1.40E-02
85994,9.46E-03,1.52E-02
85995,9.66E-03,1.53E-02
85996,9.64E-03,1.53E-02
85997,9.95E-03,1.54E-02
85998,8.95E-03,1.54E-02
85999,5.35E-03,1.55E-02
86000,7.41E-03,1.55E-02
86001,7.45E-03,1.23E-02
86002,1.04E-02,1.23E-02
86003,1.01E-02,1.23E-02
86004,9.94E-03,1.23E-02
86005,9.81E-03,1.23E-02
86006,9.28E-03,1.23E-02
86007,8.93E-03,1.23E-02
86008,7.61E-03,1.23E-02
86009,6.80E-03,1.23E-02
86010,6.70E-03,1.23E-02
86011,6.55E-03,1.23E-02
86012,6.48E-03,1.23E-02
86013,6.30E-03,1.23E-02
86014,5.88E-03,1.23E-02
86015,5.66E-03,1.23E-02
86016,6.46E-03,1.24E-02
86017,5.79E-03,1.24E-02
86018,4.37E-03,1.24E-02
86019,4.24E-03,1.24E-02
86020,4.40E-03,1.24E-02
86021,5.07E-03,1.24E-02
86022,5.12E-03,1.23E-02
86023,5.39E-03,1.23E-02
86024,5.79E-03,1.11E-02
86025,5.74E-03,1.11E-02
86026,5.70E-03,1.11E-02
86027,6.69E-03,1.28E-02
86028,5.26E-03,1.28E-02
86029,7.14E-03,1.11E-02
86030,7.70E-03,1.11E-02
86031,7.94E-03,1.11E-02
86032,8.08E-03,1.17E-02
86033,8.27E-03,1.17E-02
86034,6.09E-03,1.14E-02
86035,5.46E-03,1.14E-02
86036,5.44E-03,1.14E-02
86037,5.53E-03,1.14E-02
86038,5.57E-03,1.14E-02
86039,5.65E-03,1.14E-02
86040,7.82E-03,1.14E-02
86041,7.89E-03,1.14E-02
86042,7.95E-03,1.14E-02
86043,7.60E-03,1.14E-02
86044,7.28E-03,1.41E-02
86045,7.06E-03,1.43E-02
86046,6.90E-03,1.42E-02
86047,7.84E-03,1.20E-02
86048,7.04E-03,1.44E-02
86049,9.24E-03,1.23E-02
86050,6.33E-03,1.13E-02
86051,5.45E-03,1.12E-02
86052,1.15E-02,1.12E-02
86053,8.52E-03,1.34E-02
86054,9.28E-03,1.35E-02
86055,9.50E-03,1.35E-02
86056,9.42E-03,1.35E-02
86057,9.27E-03,1.35E-02
86058,9.46E-03,1.36E-02
86059,9.69E-03,1.36E-02
86060,9.81E-03,1.36E-02
86061,9.98E-03,1.36E-02
86062,1.05E-02,1.37E-02
86063,1.08E-02,1.37E-02
86064,1.05E-02,1.37E-02
86065,9.70E-03,1.37E-02
86066,8.24E-03,1.38E-02
86067,7.74E-03,1.38E-02
86068,7.01E-03,1.38E-02
86069,5.49E-03,1.38E-02
86070,5.00E-03,1.38E-02
86071,5.30E-03,1.38E-02
86072,5.47E-03,1.39E-02
86073,5.56E-03,1.39E-02
86074,6.04E-03,1.39E-02
86075,6.32E-03,1.39E-02
86076,6.49E-03,1.39E-02
86077,6.91E-03,1.40E-02
86078,6.95E-03,1.40E-02
86079,7.03E-03,1.40E-02
86080,7.39E-03,1.40E-02
86081,7.81E-03,1.41E-02
86082,7.88E-03,1.41E-02
86083,7.99E-03,1.41E-02
86084,8.25E-03,1.42E-02
86085,8.46E-03,1.42E-02
86086,9.12E-03,1.42E-02
86087,8.69E-03,1.43E-02
86088,8.12E-03,1.43E-02
86089,7.09E-03,1.43E-02
86090,7.98E-03,1.17E-02
86091,7.97E-03,1.52E-02
86092,7.70E-03,1.18E-02
86093,7.81E-03,1.17E-02
86094,8.97E-03,1.45E-02
86095,8.06E-03,1.39E-02
86096,8.13E-03,1.39E-02
86097,8.24E-03,1.39E-02
86098,5.25E-03,1.41E-02
86099,5.20E-03,1.41E-02
86100,1.03E-02,1.12E-02
86101,7.47E-03,1.12E-02
86102,7.29E-03,1.12E-02
86103,7.85E-03,1.12E-02
86104,7.83E-03,1.25E-02
86105,7.39E-03,1.25E-02
86106,7.03E-03,1.25E-02
86107,6.90E-03,1.11E-02
86108,5.78E-03,1.16E-02
86109,5.52E-03,1.15E-02
86110,6.79E-03,1.15E-02
86111,8.25E-03,1.13E-02
86112,8.14E-03,1.13E-02
86113,8.14E-03,1.13E-02
86114,7.21E-03,1.36E-02
86115,8.90E-03,1.24E-02
86116,6.83E-03,1.29E-02
86117,7.35E-03,1.28E-02
86118,8.39E-03,1.30E-02
86119,5.46E-03,1.36E-02
86120,6.88E-03,1.36E-02
86121,7.28E-03,1.36E-02
86122,8.18E-03,1.37E-02
86123,7.26E-03,1.13E-02
86124,8.25E-03,1.31E-02
86125,8.10E-03,1.31E-02
86126,8.26E-03,1.33E-02
86127,7.70E-03,1.30E-02
86128,7.43E-03,1.44E-02
86129,6.99E-03,1.44E-02
86130,8.40E-03,1.50E-02
86131,6.86E-03,1.48E-02
86132,8.49E-03,1.34E-02
86133,8.48E-03,1.34E-02
86134,8.47E-03,1.34E-02
86135,8.58E-03,1.33E-02
86136,8.16E-03,1.33E-02
86137,7.68E-03,1.33E-02
86138,7.40E-03,1.30E-02
86139,8.03E-03,1.13E-02
86140,8.31E-03,1.17E-02
86141,7.41E-03,1.16E-02
86142,7.31E-03,1.21E-02
86143,7.21E-03,1.21E-02
86144,7.13E-03,1.21E-02
86145,7.10E-03,1.44E-02
86146,8.61E-03,1.41E-02
86147,9.03E-03,1.41E-02
86148,9.02E-03,1.52E-02
86149,7.42E-03,1.21E-02
86150,6.91E-03,1.23E-02
86151,6.59E-03,1.10E-02
86152,6.09E-03,1.10E-02
86153,6.72E-03,1.25E-02
86154,8.48E-03,1.16E-02
86155,9.33E-03,1.10E-02
86156,7.76E-03,1.10E-02
86157,6.42E-03,1.12E-02
86158,6.41E-03,1.12E-02
86159,8.83E-03,1.14E-02
86160,6.58E-03,1.13E-02
86161,6.41E-03,1.13E-02
86162,7.46E-03,1.12E-02
86163,7.85E-03,1.12E-02
86164,8.14E-03,1.40E-02
86165,9.19E-03,1.41E-02
86166,5.48E-03,1.44E-02
86167,8.60E-03,1.43E-02
86168,8.03E-03,1.34E-02
86169,8.25E-03,1.29E-02
86170,6.50E-03,1.27E-02
86171,6.28E-03,1.28E-02
86172,6.82E-03,1.28E-02
86173,6.48E-03,1.12E-02
86174,8.62E-03,1.17E-02
86175,8.09E-03,1.18E-02
86176,6.54E-03,1.42E-02
86177,9.18E-03,1.11E-02
86178,7.60E-03,1.11E-02
86179,7.20E-03,1.39E-02
86180,6.98E-03,1.39E-02
86181,8.69E-03,1.22E-02
86182,7.72E-03,1.26E-02
86183,8.26E-03,1.39E-02
86184,8.33E-03,1.45E-02
86185,8.35E-03,1.50E-02
86186,7.20E-03,1.47E-02
86187,6.94E-03,1.48E-02
86188,8.22E-03,1.16E-02
86189,7.99E-03,1.15E-02
86190,7.72E-03,1.15E-02
86191,8.41E-03,1.16E-02
86192,8.20E-03,1.19E-02
86193,7.43E-03,1.46E-02
86194,7.32E-03,1.46E-02
86195,8.57E-03,1.52E-02
86196,7.28E-03,1.21E-02
86197,7.11E-03,1.09E-02
86198,7.00E-03,1.09E-02
86199,8.10E-03,1.16E-02
86200,6.21E-03,1.33E-02
86201,7.99E-03,1.33E-02
86202,6.77E-03,1.27E-02
86203,7.21E-03,1.26E-02
86204,7.04E-03,1.27E-02
86205,7.44E-03,1.28E-02
86206,7.72E-03,1.34E-02
86207,7.81E-03,1.44E-02
86208,8.03E-03,1.51E-02
86209,5.99E-03,1.12E-02
86210,6.59E-03,1.12E-02
86211,8.08E-03,1.17E-02
86212,7.78E-03,1.40E-02
86213,7.42E-03,1.41E-02
86214,8.39E-03,1.20E-02
86215,7.76E-03,1.20E-02
86216,7.15E-03,1.07E-02
86217,8.42E-03,1.46E-02
86218,8.16E-03,1.27E-02
86219,9.26E-03,1.10E-02
86220,9.22E-03,1.36E-02
86221,6.69E-03,1.37E-02
86222,5.34E-03,1.38E-02
86223,5.88E-03,1.56E-02
86224,7.71E-03,1.56E-02
86225,9.28E-03,1.55E-02
86226,9.00E-03,1.54E-02
86227,1.03E-02,1.54E-02
86228,1.01E-02,1.53E-02
86229,9.99E-03,1.52E-02
86230,9.98E-03,1.51E-02
86231,9.90E-03,1.51E-02
86232,9.93E-03,1.50E-02
86233,9.84E-03,1.49E-02
86234,9.62E-03,1.48E-02
86235,9.33E-03,1.47E-02
86236,9.01E-03,1.46E-02
86237,8.66E-03,1.45E-02
86238,8.36E-03,1.44E-02
86239,8.40E-03,1.43E-02
86240,1.06E-02,1.09E-02
86241,6.22E-03,1.42E-02
86242,7.38E-03,1.43E-02
86243,7.70E-03,1.38E-02
86244,8.11E-03,1.44E-02
86245,7.98E-03,1.31E-02
86246,6.91E-03,1.41E-02
86247,7.05E-03,1.07E-02
86248,8.22E-03,1.17E-02
86249,8.01E-03,1.16E-02
86250,7.85E-03,1.16E-02
86251,7.83E-03,1.15E-02
86252,7.12E-03,1.56E-02
86253,4.71E-03,1.12E-02
86254,8.63E-03,1.42E-02
86255,9.36E-03,1.22E-02
86256,7.73E-03,1.14E-02
86257,6.35E-03,1.26E-02
86258,5.66E-03,1.15E-02
86259,7.06E-03,1.15E-02
86260,9.07E-03,1.14E-02
86261,1.11E-02,1.14E-02
86262,9.75E-03,1.14E-02
86263,1.20E-02,1.14E-02
86264,1.11E-02,1.14E-02
86265,7.11E-03,1.15E-02
86266,6.85E-03,1.15E-02
86267,6.70E-03,1.15E-02
86268,6.60E-03,1.15E-02
86269,9.38E-03,1.41E-02
86270,9.39E-03,1.44E-02
86271,9.28E-03,1.42E-02
86272,9.19E-03,1.24E-02
86273,1.01E-02,1.25E-02
86274,1.05E-02,1.25E-02
86275,1.09E-02,1.25E-02
86276,7.55E-03,1.25E-02
86277,7.12E-03,1.26E-02
86278,6.38E-03,1.26E-02
86279,6.18E-03,1.26E-02
86280,5.55E-03,1.26E-02
86281,5.08E-03,1.26E-02
86282,4.70E-03,1.26E-02
86283,4.21E-03,1.26E-02
86284,3.95E-03,1.27E-02
86285,4.02E-03,1.27E-02
86286,4.28E-03,1.27E-02
86287,4.38E-03,1.27E-02
86288,4.66E-03,1.27E-02
86289,5.49E-03,1.27E-02
86290,6.12E-03,1.28E-02
86291,6.46E-03,1.28E-02
86292,7.02E-03,1.28E-02
86293,8.56E-03,1.34E-02
86294,9.05E-03,1.34E-02
86295,1.06E-02,1.34E-02
86296,1.15E-02,1.34E-02
86297,1.03E-02,1.34E-02
86298,9.53E-03,1.34E-02
86299,9.21E-03,1.33E-02
86300,8.96E-03,1.33E-02
86301,8.78E-03,1.33E-02
86302,8.52E-03,1.33E-02
86303,8.37E-03,1.32E-02
86304,8.16E-03,1.32E-02
86305,8.14E-03,1.32E-02
86306,8.12E-03,1.32E-02
86307,8.13E-03,1.32E-02
86308,7.78E-03,1.32E-02
86309,8.04E-03,1.32E-02
86310,7.46E-03,1.31E-02
86311,7.55E-03,1.31E-02
86312,7.33E-03,1.31E-02
86313,7.15E-03,1.30E-02
86314,5.14E-03,1.30E-02
86315,4.86E-03,1.30E-02
86316,7.00E-03,1.30E-02
86317,7.44E-03,1.30E-02
86318,7.04E-03,1.30E-02
86319,6.74E-03,1.30E-02
86320,6.30E-03,1.29E-02
86321,5.30E-03,1.30E-02
86322,5.27E-03,1.29E-02
86323,4.85E-03,1.30E-02
86324,5.39E-03,1.29E-02
86325,6.17E-03,1.29E-02
86326,6.35E-03,1.29E-02
86327,5.85E-03,1.29E-02
86328,4.27E-03,1.29E-02
86329,3.74E-03,1.29E-02
86330,6.09E-03,1.30E-02
86331,6.58E-03,1.30E-02
86332,4.93E-03,1.30E-02
86333,5.06E-03,1.30E-02
86334,6.96E-03,1.30E-02
86335,8.05E-03,1.30E-02
86336,7.25E-03,1.36E-02
86337,8.13E-03,1.31E-02
86338,8.15E-03,1.31E-02
86339,8.15E-03,1.31E-02
86340,8.15E-03,1.31E-02
86341,8.15E-03,1.31E-02
86342,8.15E-03,1.31E-02
86343,8.16E-03,1.31E-02
86344,8.18E-03,1.31E-02
86345,8.18E-03,1.31E-02
86346,8.19E-03,1.31E-02
86347,8.19E-03,1.31E-02
86348,8.19E-03,1.31E-02
86349,8.20E-03,1.31E-02
86350,8.21E-03,1.31E-02
86351,8.21E-03,1.31E-02
86352,8.22E-03,1.31E-02
86353,8.22E-03,1.31E-02
86354,8.23E-03,1.31E-02
86355,8.24E-03,1.31E-02
86356,8.25E-03,1.32E-02
86357,8.26E-03,1.32E-02
86358,8.27E-03,1.32E-02
86359,8.28E-03,1.32E-02
86360,8.30E-03,1.32E-02
86361,8.31E-03,1.32E-02
86362,8.33E-03,1.32E-02
86363,8.35E-03,1.32E-02
86364,8.37E-03,1.32E-02
86365,8.40E-03,1.32E-02
86366,8.43E-03,1.32E-02
86367,8.46E-03,1.32E-02
86368,8.52E-03,1.32E-02
86369,8.59E-03,1.33E-02
86370,8.65E-03,1.33E-02
86371,8.72E-03,1.33E-02
86372,8.93E-03,1.33E-02
86373,9.10E-03,1.33E-02
86374,9.30E-03,1.33E-02
86375,9.33E-03,1.33E-02
86376,9.50E-03,1.33E-02
86377,9.99E-03,1.33E-02
86378,1.02E-02,1.34E-02
86379,1.11E-02,1.34E-02
86380,9.39E-03,1.34E-02
86381,9.39E-03,1.34E-02
86382,5.75E-03,1.34E-02
86383,5.78E-03,1.34E-02
86384,6.35E-03,1.34E-02
86385,6.77E-03,1.34E-02
86386,6.80E-03,1.35E-02
86387,7.08E-03,1.35E-02
86388,7.13E-03,1.35E-02
86389,7.29E-03,1.35E-02
86390,7.41E-03,1.35E-02
86391,7.49E-03,1.35E-02
86392,7.54E-03,1.35E-02
86393,7.59E-03,1.35E-02
86394,7.64E-03,1.35E-02
86395,7.67E-03,1.35E-02
86396,7.70E-03,1.35E-02
86397,7.73E-03,1.36E-02
86398,7.76E-03,1.36E-02
86399,7.78E-03,1.36E-02
86400,7.80E-03,1.36E-02
86401,7.82E-03,1.36E-02
86402,7.83E-03,1.36E-02
86403,7.85E-03,1.36E-02
86404,7.86E-03,1.36E-02
86405,7.87E-03,1.36E-02
86406,7.88E-03,1.36E-02
86407,7.87E-03,1.36E-02
86408,7.85E-03,1.36E-02
86409,7.87E-03,1.36E-02
86410,7.91E-03,1.36E-02
86411,7.94E-03,1.36E-02
86412,7.96E-03,1.36E-02
86413,7.98E-03,1.36E-02
86414,7.99E-03,1.36E-02
86415,8.00E-03,1.36E-02
86416,8.01E-03,1.36E-02
86417,8.02E-03,1.36E-02
86418,8.10E-03,1.36E-02
86419,8.22E-03,1.36E-02
86420,8.27E-03,1.36E-02
86421,8.28E-03,1.36E-02
86422,8.29E-03,1.36E-02
86423,8.24E-03,1.36E-02
86424,8.20E-03,1.36E-02
86425,8.20E-03,1.36E-02
86426,8.23E-03,1.36E-02
86427,8.30E-03,1.36E-02
86428,8.32E-03,1.36E-02
86429,8.36E-03,1.36E-02
86430,8.45E-03,1.36E-02
86431,8.49E-03,1.36E-02
86432,8.53E-03,1.36E-02
86433,8.58E-03,1.36E-02
86434,8.71E-03,1.36E-02
86435,8.72E-03,1.37E-02
86436,8.85E-03,1.37E-02
86437,9.04E-03,1.37E-02
86438,9.16E-03,1.37E-02
86439,9.27E-03,1.37E-02
86440,9.86E-03,1.37E-02
86441,6.49E-03,1.27E-02
86442,6.55E-03,1.27E-02
86443,6.51E-03,1.26E-02
86444,6.59E-03,1.26E-02
86445,6.69E-03,1.26E-02
86446,6.93E-03,1.25E-02
86447,7.17E-03,1.25E-02
86448,7.30E-03,1.24E-02
86449,7.39E-03,1.24E-02
86450,7.47E-03,1.24E-02
86451,7.54E-03,1.23E-02
86452,7.59E-03,1.23E-02
86453,7.64E-03,1.23E-02
86454,7.68E-03,1.22E-02
86455,7.73E-03,1.22E-02
86456,7.81E-03,1.21E-02
86457,7.86E-03,1.21E-02
86458,7.86E-03,1.21E-02
86459,7.85E-03,1.20E-02
86460,7.84E-03,1.20E-02
86461,7.83E-03,1.20E-02
86462,7.82E-03,1.19E-02
86463,7.81E-03,1.19E-02
86464,7.80E-03,1.18E-02
86465,7.79E-03,1.18E-02
86466,7.78E-03,1.18E-02
86467,7.76E-03,1.17E-02
86468,7.75E-03,1.17E-02
86469,7.73E-03,1.17E-02
86470,7.71E-03,1.16E-02
86471,7.70E-03,1.16E-02
86472,7.68E-03,1.16E-02
86473,7.65E-03,1.15E-02
86474,7.70E-03,1.15E-02
86475,7.65E-03,1.15E-02
86476,7.59E-03,1.14E-02
86477,7.53E-03,1.14E-02
86478,7.39E-03,1.14E-02
86479,8.13E-03,1.31E-02
86480,8.15E-03,1.31E-02
86481,8.16E-03,1.31E-02
86482,8.16E-03,1.31E-02
86483,8.16E-03,1.31E-02
86484,8.16E-03,1.31E-02
86485,8.16E-03,1.31E-02
86486,8.16E-03,1.31E-02
86487,8.16E-03,1.31E-02
86488,8.16E-03,1.30E-02
86489,8.17E-03,1.30E-02
86490,8.17E-03,1.30E-02
86491,8.17E-03,1.30E-02
86492,8.17E-03,1.30E-02
86493,8.17E-03,1.30E-02
86494,8.17E-03,1.30E-02
86495,8.17E-03,1.30E-02
86496,8.18E-03,1.30E-02
86497,8.18E-03,1.30E-02
86498,8.18E-03,1.30E-02
86499,8.18E-03,1.30E-02
86500,8.18E-03,1.30E-02
86501,8.19E-03,1.30E-02
86502,8.19E-03,1.30E-02
86503,8.19E-03,1.30E-02
86504,8.20E-03,1.30E-02
86505,8.20E-03,1.30E-02
86506,8.21E-03,1.30E-02
86507,8.22E-03,1.30E-02
86508,8.22E-03,1.30E-02
86509,8.23E-03,1.31E-02
86510,8.24E-03,1.31E-02
86511,8.25E-03,1.31E-02
86512,8.26E-03,1.31E-02
86513,8.26E-03,1.31E-02
86514,8.27E-03,1.31E-02
86515,8.28E-03,1.31E-02
86516,8.29E-03,1.31E-02
86517,8.30E-03,1.31E-02
86518,8.32E-03,1.31E-02
86519,8.33E-03,1.31E-02
86520,8.34E-03,1.31E-02
86521,8.36E-03,1.31E-02
86522,8.38E-03,1.31E-02
86523,8.40E-03,1.31E-02
86524,8.42E-03,1.31E-02
86525,8.44E-03,1.31E-02
86526,8.47E-03,1.31E-02
86527,8.50E-03,1.31E-02
86528,8.54E-03,1.32E-02
86529,8.58E-03,1.32E-02
86530,8.63E-03,1.32E-02
86531,8.69E-03,1.32E-02
86532,8.76E-03,1.32E-02
86533,8.84E-03,1.32E-02
86534,8.94E-03,1.32E-02
86535,9.10E-03,1.32E-02
86536,9.22E-03,1.33E-02
86537,9.38E-03,1.33E-02
86538,9.70E-03,1.33E-02
86539,1.01E-02,1.33E-02
86540,1.08E-02,1.33E-02
86541,6.48E-03,1.31E-02
86542,6.40E-03,1.31E-02
86543,9.57E-03,1.31E-02
86544,1.03E-02,1.32E-02
86545,1.13E-02,1.33E-02
86546,1.04E-02,1.33E-02
86547,1.04E-02,1.34E-02
86548,1.02E-02,1.34E-02
86549,1.00E-02,1.35E-02
86550,9.64E-03,1.36E-02
86551,9.37E-03,1.36E-02
86552,9.17E-03,1.37E-02
86553,8.86E-03,1.37E-02
86554,8.73E-03,1.38E-02
86555,8.89E-03,1.38E-02
86556,9.24E-03,1.39E-02
86557,9.47E-03,1.39E-02
86558,8.60E-03,1.40E-02
86559,7.69E-03,1.40E-02
86560,7.63E-03,1.41E-02
86561,7.63E-03,1.41E-02
86562,7.62E-03,1.42E-02
86563,7.59E-03,1.42E-02
86564,7.68E-03,1.43E-02
86565,7.69E-03,1.43E-02
86566,7.61E-03,1.44E-02
86567,1.00E-02,1.36E-02
86568,1.06E-02,1.35E-02
86569,9.74E-03,1.35E-02
86570,9.44E-03,1.35E-02
86571,1.03E-02,1.35E-02
86572,1.03E-02,1.36E-02
86573,9.18E-03,1.36E-02
86574,8.64E-03,1.36E-02
86575,8.29E-03,1.36E-02
86576,8.17E-03,1.37E-02
86577,8.41E-03,1.37E-02
86578,8.43E-03,1.37E-02
86579,8.50E-03,1.37E-02
86580,8.35E-03,1.37E-02
86581,8.22E-03,1.37E-02
86582,8.39E-03,1.37E-02
86583,8.81E-03,1.37E-02
86584,8.53E-03,1.38E-02
86585,8.33E-03,1.38E-02
86586,7.98E-03,1.38E-02
86587,7.85E-03,1.38E-02
86588,7.87E-03,1.39E-02
86589,7.92E-03,1.39E-02
86590,8.03E-03,1.39E-02
86591,8.11E-03,1.39E-02
86592,8.19E-03,1.39E-02
86593,8.23E-03,1.40E-02
86594,8.39E-03,1.40E-02
86595,8.47E-03,1.40E-02
86596,8.51E-03,1.40E-02
86597,8.60E-03,1.40E-02
86598,8.71E-03,1.41E-02
86599,8.69E-03,1.41E-02
86600,8.46E-03,1.41E-02
86601,8.02E-03,1.42E-02
86602,7.42E-03,1.42E-02
86603,7.68E-03,1.42E-02
86604,7.36E-03,1.42E-02
86605,7.61E-03,1.43E-02
86606,7.74E-03,1.43E-02
86607,7.92E-03,1.43E-02
86608,7.89E-03,1.43E-02
86609,7.98E-03,1.43E-02
86610,7.91E-03,1.43E-02
86611,8.03E-03,1.43E-02
86612,8.12E-03,1.43E-02
86613,8.03E-03,1.43E-02
86614,7.86E-03,1.43E-02
86615,7.65E-03,1.43E-02
86616,7.41E-03,1.44E-02
86617,7.36E-03,1.44E-02
86618,7.46E-03,1.44E-02
86619,7.52E-03,1.44E-02
86620,7.54E-03,1.44E-02
86621,7.42E-03,1.44E-02
86622,7.33E-03,1.44E-02
86623,7.26E-03,1.44E-02
86624,7.11E-03,1.44E-02
86625,7.03E-03,1.44E-02
86626,6.92E-03,1.44E-02
86627,7.18E-03,1.44E-02
86628,7.10E-03,1.44E-02
86629,8.35E-03,1.49E-02
86630,7.30E-03,1.48E-02
86631,7.63E-03,1.49E-02
86632,6.57E-03,1.34E-02
86633,8.98E-03,1.34E-02
86634,9.24E-03,1.34E-02
86635,9.27E-03,1.34E-02
86636,9.00E-03,1.33E-02
86637,7.67E-03,1.33E-02
86638,7.77E-03,1.32E-02
86639,7.84E-03,1.32E-02
86640,8.13E-03,1.32E-02
86641,7.93E-03,1.31E-02
86642,7.74E-03,1.31E-02
86643,7.66E-03,1.31E-02
86644,7.50E-03,1.30E-02
86645,8.19E-03,1.13E-02
86646,9.09E-03,1.13E-02
86647,1.05E-02,1.12E-02
86648,7.95E-03,1.17E-02
86649,7.26E-03,1.17E-02
86650,7.28E-03,1.17E-02
86651,7.29E-03,1.16E-02
86652,7.50E-03,1.16E-02
86653,7.98E-03,1.21E-02
86654,7.18E-03,1.21E-02
86655,7.03E-03,1.43E-02
86656,7.06E-03,1.43E-02
86657,9.46E-03,1.43E-02
86658,9.46E-03,1.43E-02
86659,9.47E-03,1.42E-02
86660,9.35E-03,1.42E-02
86661,9.38E-03,1.42E-02
86662,9.23E-03,1.53E-02
86663,9.47E-03,1.53E-02
86664,9.48E-03,1.54E-02
86665,9.62E-03,1.54E-02
86666,8.81E-03,1.55E-02
86667,8.01E-03,1.55E-02
86668,7.45E-03,1.21E-02
86669,1.05E-02,1.21E-02
86670,1.01E-02,1.21E-02
86671,9.92E-03,1.21E-02
86672,9.85E-03,1.21E-02
86673,9.40E-03,1.21E-02
86674,8.58E-03,1.21E-02
86675,7.62E-03,1.21E-02
86676,6.96E-03,1.21E-02
86677,6.78E-03,1.21E-02
86678,6.60E-03,1.21E-02
86679,6.46E-03,1.21E-02
86680,6.28E-03,1.21E-02
86681,5.97E-03,1.22E-02
86682,5.71E-03,1.22E-02
86683,6.48E-03,1.23E-02
86684,5.73E-03,1.22E-02
86685,4.75E-03,1.22E-02
86686,4.53E-03,1.22E-02
86687,4.62E-03,1.22E-02
86688,4.95E-03,1.22E-02
86689,5.42E-03,1.22E-02
86690,5.55E-03,1.22E-02
86691,6.37E-03,1.10E-02
86692,5.99E-03,1.10E-02
86693,6.03E-03,1.10E-02
86694,6.33E-03,1.25E-02
86695,6.13E-03,1.26E-02
86696,4.32E-03,1.14E-02
86697,5.16E-03,1.14E-02
86698,9.07E-03,1.15E-02
86699,7.99E-03,1.15E-02
86700,8.04E-03,1.15E-02
86701,6.91E-03,1.14E-02
86702,7.84E-03,1.10E-02
86703,7.84E-03,1.10E-02
86704,9.11E-03,1.16E-02
86705,8.54E-03,1.16E-02
86706,6.25E-03,1.12E-02
86707,6.00E-03,1.13E-02
86708,5.37E-03,1.13E-02
86709,5.47E-03,1.13E-02
86710,5.50E-03,1.13E-02
86711,5.64E-03,1.13E-02
86712,5.81E-03,1.13E-02
86713,7.83E-03,1.13E-02
86714,8.01E-03,1.13E-02
86715,8.17E-03,1.12E-02
86716,9.17E-03,1.12E-02
86717,7.07E-03,1.43E-02
86718,6.07E-03,1.44E-02
86719,7.76E-03,1.45E-02
86720,8.31E-03,1.34E-02
86721,9.57E-03,1.34E-02
86722,9.55E-03,1.34E-02
86723,9.27E-03,1.35E-02
86724,9.25E-03,1.35E-02
86725,9.48E-03,1.35E-02
86726,9.59E-03,1.35E-02
86727,9.73E-03,1.35E-02
86728,1.00E-02,1.36E-02
86729,1.05E-02,1.36E-02
86730,1.07E-02,1.36E-02
86731,1.06E-02,1.36E-02
86732,1.01E-02,1.37E-02
86733,8.25E-03,1.37E-02
86734,8.07E-03,1.37E-02
86735,6.52E-03,1.37E-02
86736,5.58E-03,1.37E-02
86737,5.21E-03,1.38E-02
86738,5.30E-03,1.38E-02
86739,5.37E-03,1.38E-02
86740,5.73E-03,1.38E-02
86741,6.00E-03,1.38E-02
86742,6.37E-03,1.38E-02
86743,6.62E-03,1.39E-02
86744,6.86E-03,1.39E-02
86745,6.96E-03,1.39E-02
86746,7.09E-03,1.39E-02
86747,7.45E-03,1.40E-02
86748,7.78E-03,1.40E-02
86749,7.86E-03,1.40E-02
86750,7.96E-03,1.40E-02
86751,8.12E-03,1.41E-02
86752,8.42E-03,1.41E-02
86753,8.61E-03,1.41E-02
86754,8.37E-03,1.42E-02
86755,6.66E-03,1.42E-02
86756,6.82E-03,1.42E-02
86757,8.05E-03,1.12E-02
86758,7.53E-03,1.12E-02
86759,4.27E-03,1.27E-02
86760,5.27E-03,1.27E-02
86761,7.72E-03,1.17E-02
86762,7.44E-03,1.16E-02
86763,7.57E-03,1.41E-02
86764,8.05E-03,1.41E-02
86765,8.10E-03,1.41E-02
86766,8.89E-03,1.11E-02
86767,8.33E-03,1.11E-02
86768,8.01E-03,1.22E-02
86769,7.37E-03,1.22E-02
86770,6.94E-03,1.22E-02
86771,7.38E-03,1.10E-02
86772,7.21E-03,1.14E-02
86773,7.04E-03,1.39E-02
86774,5.59E-03,1.13E-02
86775,8.12E-03,1.40E-02
86776,7.99E-03,1.38E-02
86777,8.89E-03,1.22E-02
86778,7.39E-03,1.27E-02
86779,7.82E-03,1.26E-02
86780,7.60E-03,1.27E-02
86781,7.22E-03,1.39E-02
86782,8.21E-03,1.39E-02
86783,5.86E-03,1.27E-02
86784,7.73E-03,1.13E-02
86785,8.24E-03,1.31E-02
86786,8.10E-03,1.31E-02
86787,8.09E-03,1.33E-02
86788,8.16E-03,1.44E-02
86789,7.27E-03,1.46E-02
86790,8.27E-03,1.50E-02
86791,7.31E-03,1.48E-02
86792,8.63E-03,1.31E-02
86793,8.72E-03,1.31E-02
86794,8.87E-03,1.32E-02
86795,8.49E-03,1.31E-02
86796,8.13E-03,1.31E-02
86797,7.58E-03,1.31E-02
86798,7.02E-03,1.28E-02
86799,7.18E-03,1.12E-02
86800,7.40E-03,1.12E-02
86801,8.77E-03,1.16E-02
86802,8.38E-03,1.16E-02
86803,7.14E-03,1.14E-02
86804,8.24E-03,1.19E-02
86805,7.50E-03,1.19E-02
86806,7.43E-03,1.19E-02
86807,7.36E-03,1.19E-02
86808,7.27E-03,1.46E-02
86809,8.94E-03,1.43E-02
86810,9.35E-03,1.44E-02
86811,8.69E-03,1.52E-02
86812,7.62E-03,1.19E-02
86813,7.04E-03,1.21E-02
86814,7.24E-03,1.10E-02
86815,6.41E-03,1.09E-02
86816,6.71E-03,1.22E-02
86817,5.27E-03,1.22E-02
86818,5.91E-03,1.23E-02
86819,7.24E-03,1.16E-02
86820,7.52E-03,1.44E-02
86821,8.18E-03,1.11E-02
86822,7.89E-03,1.33E-02
86823,7.37E-03,1.25E-02
86824,7.84E-03,1.10E-02
86825,6.62E-03,1.41E-02
86826,7.40E-03,1.09E-02
86827,7.82E-03,1.35E-02
86828,7.84E-03,1.37E-02
86829,8.54E-03,1.20E-02
86830,8.24E-03,1.25E-02
86831,7.33E-03,1.24E-02
86832,8.27E-03,1.41E-02
86833,2.85E-03,1.27E-02
86834,4.20E-03,1.27E-02
86835,5.87E-03,1.30E-02
86836,6.13E-03,1.29E-02
86837,8.09E-03,1.51E-02
86838,6.94E-03,1.24E-02
86839,6.20E-03,1.25E-02
86840,6.56E-03,1.11E-02
86841,6.47E-03,1.11E-02
86842,8.39E-03,1.12E-02
86843,6.85E-03,1.12E-02
86844,6.71E-03,1.12E-02
86845,8.28E-03,1.14E-02
86846,8.24E-03,1.14E-02
86847,8.64E-03,1.14E-02
86848,8.34E-03,1.14E-02
86849,8.16E-03,1.17E-02
86850,7.74E-03,1.49E-02
86851,7.70E-03,1.48E-02
86852,8.14E-03,1.41E-02
86853,7.96E-03,1.42E-02
86854,8.20E-03,1.52E-02
86855,7.37E-03,1.19E-02
86856,8.76E-03,1.10E-02
86857,7.37E-03,1.08E-02
86858,7.32E-03,1.08E-02
86859,6.28E-03,1.21E-02
86860,4.76E-03,1.20E-02
86861,7.17E-03,1.15E-02
86862,8.64E-03,1.46E-02
86863,7.87E-03,1.15E-02
86864,9.13E-03,1.45E-02
86865,8.13E-03,1.42E-02
86866,8.30E-03,1.43E-02
86867,8.80E-03,1.17E-02
86868,1.01E-02,1.16E-02
86869,8.34E-03,1.46E-02
86870,8.77E-03,1.10E-02
86871,9.86E-03,1.39E-02
86872,8.46E-03,1.39E-02
86873,6.68E-03,1.39E-02
86874,7.11E-03,1.47E-02
86875,7.36E-03,1.43E-02
86876,9.60E-03,1.42E-02
86877,8.53E-03,1.56E-02
86878,8.97E-03,1.56E-02
86879,8.93E-03,1.55E-02
86880,1.05E-02,1.54E-02
86881,1.03E-02,1.53E-02
86882,1.03E-02,1.53E-02
86883,1.02E-02,1.52E-02
86884,9.92E-03,1.51E-02
86885,9.84E-03,1.50E-02
86886,9.75E-03,1.49E-02
86887,9.57E-03,1.48E-02
86888,9.39E-03,1.47E-02
86889,9.20E-03,1.46E-02
86890,9.04E-03,1.45E-02
86891,9.00E-03,1.44E-02
86892,9.52E-03,1.43E-02
86893,7.73E-03,1.12E-02
86894,6.89E-03,1.11E-02
86895,9.22E-03,1.09E-02
86896,4.79E-03,1.45E-02
86897,6.52E-03,1.46E-02
86898,8.06E-03,1.46E-02
86899,9.65E-03,1.46E-02
86900,6.46E-03,1.33E-02
86901,7.84E-03,1.33E-02
86902,9.00E-03,1.56E-02
86903,7.73E-03,1.57E-02
86904,1.06E-02,1.57E-02
86905,7.92E-03,1.31E-02
86906,7.04E-03,1.43E-02
86907,8.72E-03,1.40E-02
86908,7.82E-03,1.18E-02
86909,8.26E-03,1.18E-02
86910,7.41E-03,1.52E-02
86911,7.50E-03,1.52E-02
86912,7.81E-03,1.11E-02
86913,5.97E-03,1.11E-02
86914,8.05E-03,1.15E-02
86915,7.60E-03,1.07E-02
86916,7.70E-03,1.06E-02
86917,7.65E-03,1.06E-02
86918,7.85E-03,1.06E-02
86919,6.53E-03,1.48E-02
86920,6.68E-03,1.47E-02
86921,7.62E-03,1.45E-02
86922,8.40E-03,1.28E-02
86923,8.49E-03,1.25E-02
86924,6.20E-03,1.11E-02
86925,5.71E-03,1.10E-02
86926,5.54E-03,1.12E-02
86927,8.47E-03,1.45E-02
86928,8.45E-03,1.13E-02
86929,1.14E-02,1.13E-02
86930,9.64E-03,1.13E-02
86931,1.20E-02,1.13E-02
86932,1.08E-02,1.13E-02
86933,6.96E-03,1.13E-02
86934,6.58E-03,1.13E-02
86935,6.46E-03,1.13E-02
86936,6.34E-03,1.14E-02
86937,8.33E-03,1.39E-02
86938,9.05E-03,1.22E-02
86939,1.05E-02,1.23E-02
86940,1.07E-02,1.23E-02
86941,1.12E-02,1.23E-02
86942,7.40E-03,1.23E-02
86943,7.24E-03,1.23E-02
86944,6.44E-03,1.24E-02
86945,6.10E-03,1.24E-02
86946,5.54E-03,1.24E-02
86947,5.13E-03,1.24E-02
86948,4.81E-03,1.24E-02
86949,4.37E-03,1.24E-02
86950,4.07E-03,1.25E-02
86951,4.02E-03,1.25E-02
86952,4.21E-03,1.25E-02
86953,4.57E-03,1.25E-02
86954,4.84E-03,1.25E-02
86955,5.70E-03,1.25E-02
86956,5.98E-03,1.26E-02
86957,6.35E-03,1.26E-02
86958,6.94E-03,1.26E-02
86959,8.90E-03,1.31E-02
86960,9.52E-03,1.32E-02
86961,9.98E-03,1.32E-02
86962,1.02E-02,1.31E-02
86963,1.01E-02,1.31E-02
86964,9.70E-03,1.31E-02
86965,9.38E-03,1.31E-02
86966,9.05E-03,1.31E-02
86967,8.94E-03,1.30E-02
86968,8.63E-03,1.30E-02
86969,8.55E-03,1.30E-02
86970,8.26E-03,1.30E-02
86971,8.22E-03,1.30E-02
86972,8.21E-03,1.29E-02
86973,8.25E-03,1.29E-02
86974,7.92E-03,1.29E-02
86975,7.77E-03,1.29E-02
86976,7.43E-03,1.29E-02
86977,7.28E-03,1.28E-02
86978,7.16E-03,1.28E-02
86979,6.66E-03,1.28E-02
86980,6.27E-03,1.28E-02
86981,6.23E-03,1.28E-02
86982,6.46E-03,1.27E-02
86983,7.11E-03,1.27E-02
86984,7.06E-03,1.27E-02
86985,6.36E-03,1.27E-02
86986,6.21E-03,1.27E-02
86987,6.23E-03,1.27E-02
86988,6.05E-03,1.27E-02
86989,5.61E-03,1.27E-02
86990,5.58E-03,1.27E-02
86991,5.82E-03,1.26E-02
86992,5.98E-03,1.26E-02
86993,5.65E-03,1.26E-02
86994,5.58E-03,1.27E-02
86995,4.97E-03,1.27E-02
86996,5.28E-03,1.27E-02
86997,5.51E-03,1.27E-02
86998,5.61E-03,1.27E-02
86999,5.87E-03,1.27E-02
87000,6.28E-03,1.27E-02
87001,7.29E-03,1.27E-02
87002,7.13E-03,1.39E-02
87003,8.13E-03,1.31E-02
87004,8.15E-03,1.31E-02
87005,8.15E-03,1.32E-02
87006,8.15E-03,1.32E-02
87007,8.15E-03,1.32E-02
87008,8.15E-03,1.32E-02
87009,8.16E-03,1.32E-02
87010,8.17E-03,1.32E-02
87011,8.18E-03,1.32E-02
87012,8.18E-03,1.32E-02
87013,8.19E-03,1.32E-02
87014,8.19E-03,1.32E-02
87015,8.20E-03,1.32E-02
87016,8.20E-03,1.32E-02
87017,8.21E-03,1.32E-02
87018,8.22E-03,1.32E-02
87019,8.22E-03,1.32E-02
87020,8.23E-03,1.32E-02
87021,8.24E-03,1.32E-02
87022,8.25E-03,1.32E-02
87023,8.26E-03,1.33E-02
87024,8.27E-03,1.33E-02
87025,8.28E-03,1.33E-02
87026,8.29E-03,1.33E-02
87027,8.31E-03,1.33E-02
87028,8.33E-03,1.33E-02
87029,8.35E-03,1.33E-02
87030,8.37E-03,1.33E-02
87031,8.40E-03,1.33E-02
87032,8.42E-03,1.33E-02
87033,8.46E-03,1.33E-02
87034,8.51E-03,1.33E-02
87035,8.58E-03,1.34E-02
87036,8.64E-03,1.34E-02
87037,8.71E-03,1.34E-02
87038,8.91E-03,1.34E-02
87039,9.08E-03,1.34E-02
87040,9.19E-03,1.34E-02
87041,9.28E-03,1.34E-02
87042,9.44E-03,1.34E-02
87043,9.93E-03,1.35E-02
87044,1.02E-02,1.35E-02
87045,1.12E-02,1.35E-02
87046,9.79E-03,1.35E-02
87047,8.95E-03,1.35E-02
87048,5.84E-03,1.35E-02
87049,5.99E-03,1.36E-02
87050,6.22E-03,1.36E-02
87051,6.79E-03,1.36E-02
87052,6.78E-03,1.36E-02
87053,7.12E-03,1.36E-02
87054,7.13E-03,1.36E-02
87055,7.35E-03,1.36E-02
87056,7.43E-03,1.36E-02
87057,7.50E-03,1.36E-02
87058,7.55E-03,1.36E-02
87059,7.60E-03,1.37E-02
87060,7.64E-03,1.37E-02
87061,7.68E-03,1.37E-02
87062,7.71E-03,1.37E-02
87063,7.74E-03,1.37E-02
87064,7.76E-03,1.37E-02
87065,7.78E-03,1.37E-02
87066,7.80E-03,1.37E-02
87067,7.82E-03,1.37E-02
87068,7.84E-03,1.37E-02
87069,7.85E-03,1.37E-02
87070,7.86E-03,1.37E-02
87071,7.87E-03,1.37E-02
87072,7.89E-03,1.38E-02
87073,7.88E-03,1.38E-02
87074,7.86E-03,1.38E-02
87075,7.88E-03,1.38E-02
87076,7.92E-03,1.38E-02
87077,7.94E-03,1.38E-02
87078,7.96E-03,1.38E-02
87079,7.98E-03,1.38E-02
87080,7.99E-03,1.38E-02
87081,8.00E-03,1.38E-02
87082,8.01E-03,1.38E-02
87083,8.02E-03,1.38E-02
87084,8.10E-03,1.38E-02
87085,8.22E-03,1.38E-02
87086,8.27E-03,1.38E-02
87087,8.28E-03,1.38E-02
87088,8.29E-03,1.38E-02
87089,8.30E-03,1.38E-02
87090,8.32E-03,1.38E-02
87091,8.33E-03,1.38E-02
87092,8.35E-03,1.38E-02
87093,8.37E-03,1.38E-02
87094,8.39E-03,1.38E-02
87095,8.42E-03,1.38E-02
87096,8.45E-03,1.38E-02
87097,8.48E-03,1.38E-02
87098,8.52E-03,1.38E-02
87099,8.57E-03,1.38E-02
87100,8.73E-03,1.38E-02
87101,8.81E-03,1.38E-02
87102,8.93E-03,1.38E-02
87103,9.19E-03,1.38E-02
87104,9.21E-03,1.38E-02
87105,9.36E-03,1.39E-02
87106,1.03E-02,1.39E-02
87107,6.25E-03,1.26E-02
87108,6.35E-03,1.26E-02
87109,6.51E-03,1.26E-02
87110,6.59E-03,1.26E-02
87111,6.69E-03,1.25E-02
87112,6.95E-03,1.25E-02
87113,7.19E-03,1.24E-02
87114,7.31E-03,1.24E-02
87115,7.41E-03,1.24E-02
87116,7.48E-03,1.23E-02
87117,7.55E-03,1.23E-02
87118,7.60E-03,1.22E-02
87119,7.65E-03,1.22E-02
87120,7.69E-03,1.22E-02
87121,7.73E-03,1.21E-02
87122,7.81E-03,1.21E-02
87123,7.87E-03,1.20E-02
87124,7.86E-03,1.20E-02
87125,7.85E-03,1.20E-02
87126,7.85E-03,1.19E-02
87127,7.84E-03,1.19E-02
87128,7.83E-03,1.19E-02
87129,7.82E-03,1.18E-02
87130,7.81E-03,1.18E-02
87131,7.79E-03,1.17E-02
87132,7.78E-03,1.17E-02
87133,7.77E-03,1.17E-02
87134,7.75E-03,1.16E-02
87135,7.74E-03,1.16E-02
87136,7.72E-03,1.16E-02
87137,7.70E-03,1.15E-02
87138,7.68E-03,1.15E-02
87139,7.66E-03,1.15E-02
87140,7.64E-03,1.14E-02
87141,7.69E-03,1.14E-02
87142,7.58E-03,1.14E-02
87143,7.66E-03,1.13E-02
87144,7.72E-03,1.13E-02
87145,8.13E-03,1.31E-02
87146,8.15E-03,1.31E-02
87147,8.15E-03,1.31E-02
87148,8.16E-03,1.31E-02
87149,8.16E-03,1.31E-02
87150,8.16E-03,1.31E-02
87151,8.16E-03,1.31E-02
87152,8.16E-03,1.31E-02
87153,8.16E-03,1.31E-02
87154,8.16E-03,1.31E-02
87155,8.16E-03,1.31E-02
87156,8.17E-03,1.31E-02
87157,8.17E-03,1.31E-02
87158,8.17E-03,1.31E-02
87159,8.17E-03,1.31E-02
87160,8.17E-03,1.31E-02
87161,8.17E-03,1.31E-02
87162,8.17E-03,1.31E-02
87163,8.18E-03,1.31E-02
87164,8.18E-03,1.31E-02
87165,8.18E-03,1.31E-02
87166,8.18E-03,1.31E-02
87167,8.18E-03,1.31E-02
87168,8.19E-03,1.31E-02
87169,8.19E-03,1.31E-02
87170,8.20E-03,1.31E-02
87171,8.20E-03,1.31E-02
87172,8.21E-03,1.31E-02
87173,8.21E-03,1.31E-02
87174,8.22E-03,1.31E-02
87175,8.23E-03,1.31E-02
87176,8.24E-03,1.31E-02
87177,8.25E-03,1.31E-02
87178,8.25E-03,1.31E-02
87179,8.26E-03,1.31E-02
87180,8.27E-03,1.31E-02
87181,8.28E-03,1.31E-02
87182,8.29E-03,1.31E-02
87183,8.30E-03,1.31E-02
87184,8.31E-03,1.31E-02
87185,8.32E-03,1.31E-02
87186,8.34E-03,1.31E-02
87187,8.35E-03,1.31E-02
87188,8.37E-03,1.31E-02
87189,8.39E-03,1.31E-02
87190,8.41E-03,1.31E-02
87191,8.44E-03,1.31E-02
87192,8.46E-03,1.31E-02
87193,8.50E-03,1.31E-02
87194,8.53E-03,1.31E-02
87195,8.57E-03,1.32E-02
87196,8.62E-03,1.32E-02
87197,8.68E-03,1.32E-02
87198,8.74E-03,1.32E-02
87199,8.82E-03,1.32E-02
87200,8.92E-03,1.32E-02
87201,9.04E-03,1.32E-02
87202,9.31E-03,1.32E-02
87203,9.36E-03,1.32E-02
87204,9.66E-03,1.33E-02
87205,1.00E-02,1.33E-02
87206,1.07E-02,1.33E-02
87207,6.12E-03,1.30E-02
87208,6.72E-03,1.31E-02
87209,8.49E-03,1.31E-02
87210,1.02E-02,1.32E-02
87211,1.15E-02,1.32E-02
87212,1.04E-02,1.33E-02
87213,1.04E-02,1.34E-02
87214,1.01E-02,1.34E-02
87215,9.85E-03,1.35E-02
87216,9.59E-03,1.35E-02
87217,9.39E-03,1.36E-02
87218,9.07E-03,1.37E-02
87219,8.85E-03,1.37E-02
87220,8.72E-03,1.38E-02
87221,8.87E-03,1.38E-02
87222,9.22E-03,1.39E-02
87223,9.44E-03,1.39E-02
87224,8.59E-03,1.40E-02
87225,7.69E-03,1.40E-02
87226,7.64E-03,1.41E-02
87227,7.64E-03,1.41E-02
87228,7.63E-03,1.42E-02
87229,7.59E-03,1.42E-02
87230,7.70E-03,1.43E-02
87231,7.76E-03,1.43E-02
87232,7.76E-03,1.44E-02
87233,9.42E-03,1.38E-02
87234,9.92E-03,1.38E-02
87235,9.91E-03,1.38E-02
87236,9.93E-03,1.38E-02
87237,9.92E-03,1.38E-02
87238,9.75E-03,1.38E-02
87239,9.43E-03,1.38E-02
87240,8.94E-03,1.39E-02
87241,8.69E-03,1.39E-02
87242,8.45E-03,1.39E-02
87243,8.37E-03,1.39E-02
87244,8.45E-03,1.39E-02
87245,8.46E-03,1.39E-02
87246,8.45E-03,1.39E-02
87247,8.45E-03,1.39E-02
87248,8.50E-03,1.40E-02
87249,8.64E-03,1.40E-02
87250,8.53E-03,1.40E-02
87251,8.44E-03,1.40E-02
87252,8.31E-03,1.41E-02
87253,8.24E-03,1.41E-02
87254,8.27E-03,1.41E-02
87255,8.30E-03,1.41E-02
87256,8.28E-03,1.41E-02
87257,8.32E-03,1.42E-02
87258,8.40E-03,1.42E-02
87259,8.45E-03,1.42E-02
87260,8.43E-03,1.42E-02
87261,8.41E-03,1.43E-02
87262,8.45E-03,1.43E-02
87263,8.51E-03,1.43E-02
87264,8.56E-03,1.43E-02
87265,8.47E-03,1.43E-02
87266,8.30E-03,1.44E-02
87267,8.09E-03,1.44E-02
87268,7.85E-03,1.44E-02
87269,7.65E-03,1.44E-02
87270,7.69E-03,1.45E-02
87271,7.71E-03,1.45E-02
87272,7.81E-03,1.45E-02
87273,7.90E-03,1.45E-02
87274,7.92E-03,1.45E-02
87275,7.93E-03,1.45E-02
87276,7.83E-03,1.46E-02
87277,7.90E-03,1.46E-02
87278,8.03E-03,1.46E-02
87279,8.02E-03,1.46E-02
87280,7.89E-03,1.46E-02
87281,7.76E-03,1.46E-02
87282,7.62E-03,1.46E-02
87283,7.58E-03,1.46E-02
87284,7.63E-03,1.46E-02
87285,7.60E-03,1.46E-02
87286,7.55E-03,1.46E-02
87287,7.49E-03,1.46E-02
87288,7.43E-03,1.46E-02
87289,7.35E-03,1.46E-02
87290,7.26E-03,1.46E-02
87291,7.14E-03,1.46E-02
87292,7.10E-03,1.46E-02
87293,7.10E-03,1.46E-02
87294,7.19E-03,1.46E-02
87295,8.22E-03,1.50E-02
87296,7.73E-03,1.49E-02
87297,7.86E-03,1.49E-02
87298,6.06E-03,1.32E-02
87299,9.24E-03,1.32E-02
87300,9.41E-03,1.31E-02
87301,9.25E-03,1.31E-02
87302,8.83E-03,1.31E-02
87303,7.63E-03,1.30E-02
87304,7.67E-03,1.30E-02
87305,7.92E-03,1.30E-02
87306,8.08E-03,1.30E-02
87307,8.00E-03,1.29E-02
87308,7.93E-03,1.29E-02
87309,7.55E-03,1.29E-02
87310,7.26E-03,1.28E-02
87311,7.76E-03,1.12E-02
87312,9.18E-03,1.12E-02
87313,9.89E-03,1.11E-02
87314,8.11E-03,1.16E-02
87315,6.89E-03,1.15E-02
87316,6.99E-03,1.15E-02
87317,7.08E-03,1.15E-02
87318,7.30E-03,1.15E-02
87319,8.96E-03,1.19E-02
87320,8.73E-03,1.20E-02
87321,7.68E-03,1.19E-02
87322,7.18E-03,1.46E-02
87323,7.12E-03,1.45E-02
87324,9.42E-03,1.45E-02
87325,9.45E-03,1.45E-02
87326,9.51E-03,1.44E-02
87327,9.60E-03,1.44E-02
87328,9.65E-03,1.44E-02
87329,9.12E-03,1.53E-02
87330,9.29E-03,1.54E-02
87331,9.54E-03,1.54E-02
87332,9.36E-03,1.55E-02
87333,9.03E-03,1.55E-02
87334,8.78E-03,1.56E-02
87335,9.54E-03,1.56E-02
87336,9.07E-03,1.57E-02
87337,6.97E-03,1.57E-02
87338,7.66E-03,1.19E-02
87339,1.03E-02,1.19E-02
87340,1.01E-02,1.20E-02
87341,9.83E-03,1.20E-02
87342,9.84E-03,1.20E-02
87343,9.61E-03,1.20E-02
87344,8.27E-03,1.20E-02
87345,7.47E-03,1.20E-02
87346,7.06E-03,1.20E-02
87347,6.86E-03,1.20E-02
87348,6.69E-03,1.20E-02
87349,6.45E-03,1.20E-02
87350,6.39E-03,1.20E-02
87351,6.01E-03,1.20E-02
87352,5.83E-03,1.20E-02
87353,6.61E-03,1.21E-02
87354,5.83E-03,1.21E-02
87355,4.64E-03,1.20E-02
87356,4.66E-03,1.20E-02
87357,4.67E-03,1.20E-02
87358,5.13E-03,1.20E-02
87359,5.53E-03,1.20E-02
87360,5.65E-03,1.20E-02
87361,7.69E-03,1.09E-02
87362,5.98E-03,1.09E-02
87363,6.03E-03,1.09E-02
87364,6.53E-03,1.22E-02
87365,6.25E-03,1.23E-02
87366,6.56E-03,1.45E-02
87367,6.51E-03,1.46E-02
87368,7.55E-03,1.43E-02
87369,6.61E-03,1.46E-02
87370,8.48E-03,1.11E-02
87371,7.81E-03,1.34E-02
87372,1.05E-02,1.34E-02
87373,9.32E-03,1.34E-02
87374,9.17E-03,1.34E-02
87375,9.24E-03,1.34E-02
87376,9.41E-03,1.34E-02
87377,9.52E-03,1.35E-02
87378,9.78E-03,1.35E-02
87379,9.95E-03,1.35E-02
87380,1.06E-02,1.35E-02
87381,1.07E-02,1.36E-02
87382,1.06E-02,1.36E-02
87383,1.04E-02,1.36E-02
87384,8.39E-03,1.36E-02
87385,8.34E-03,1.36E-02
87386,6.10E-03,1.37E-02
87387,5.45E-03,1.37E-02
87388,5.20E-03,1.37E-02
87389,5.26E-03,1.37E-02
87390,5.31E-03,1.37E-02
87391,5.82E-03,1.37E-02
87392,6.04E-03,1.37E-02
87393,6.37E-03,1.38E-02
87394,6.66E-03,1.38E-02
87395,6.84E-03,1.38E-02
87396,7.09E-03,1.38E-02
87397,7.11E-03,1.38E-02
87398,7.46E-03,1.39E-02
87399,7.73E-03,1.39E-02
87400,7.84E-03,1.39E-02
87401,7.96E-03,1.39E-02
87402,8.11E-03,1.40E-02
87403,8.38E-03,1.40E-02
87404,8.49E-03,1.40E-02
87405,8.36E-03,1.41E-02
87406,7.80E-03,1.41E-02
87407,6.54E-03,1.13E-02
87408,7.02E-03,1.14E-02
87409,8.59E-03,1.14E-02
87410,8.11E-03,1.13E-02
87411,7.32E-03,1.13E-02
87412,4.88E-03,1.27E-02
87413,1.07E-02,1.28E-02
87414,7.19E-03,1.23E-02
87415,8.66E-03,1.09E-02
87416,7.71E-03,1.09E-02
87417,7.76E-03,1.10E-02
87418,5.43E-03,1.47E-02
87419,7.03E-03,1.47E-02
87420,5.51E-03,1.12E-02
87421,8.08E-03,1.35E-02
87422,8.08E-03,1.36E-02
87423,7.34E-03,1.43E-02
87424,8.83E-03,1.20E-02
87425,8.52E-03,1.24E-02
87426,6.96E-03,1.24E-02
87427,7.08E-03,1.41E-02
87428,7.26E-03,1.42E-02
87429,8.30E-03,1.41E-02
87430,6.10E-03,1.26E-02
87431,8.56E-03,1.12E-02
87432,8.66E-03,1.14E-02
87433,8.24E-03,1.32E-02
87434,8.10E-03,1.32E-02
87435,7.71E-03,1.33E-02
87436,5.35E-03,1.30E-02
87437,8.04E-03,1.45E-02
87438,8.13E-03,1.42E-02
87439,8.69E-03,1.42E-02
87440,7.50E-03,1.49E-02
87441,8.12E-03,1.50E-02
87442,8.83E-03,1.29E-02
87443,8.77E-03,1.29E-02
87444,8.83E-03,1.29E-02
87445,8.30E-03,1.29E-02
87446,8.10E-03,1.28E-02
87447,7.36E-03,1.28E-02
87448,6.59E-03,1.26E-02
87449,6.28E-03,1.11E-02
87450,6.66E-03,1.11E-02
87451,8.18E-03,1.11E-02
87452,6.88E-03,1.11E-02
87453,6.87E-03,1.11E-02
87454,8.36E-03,1.14E-02
87455,8.24E-03,1.14E-02
87456,8.47E-03,1.17E-02
87457,7.53E-03,1.48E-02
87458,8.99E-03,1.43E-02
87459,7.98E-03,1.43E-02
87460,7.31E-03,1.44E-02
87461,8.84E-03,1.43E-02
87462,8.29E-03,1.53E-02
87463,7.97E-03,1.59E-02
87464,7.42E-03,1.17E-02
87465,7.52E-03,1.17E-02
87466,7.71E-03,1.17E-02
87467,7.99E-03,1.17E-02
87468,7.01E-03,1.19E-02
87469,7.51E-03,1.09E-02
87470,7.44E-03,1.09E-02
87471,6.45E-03,1.08E-02
87472,5.79E-03,1.20E-02
87473,7.00E-03,1.14E-02
87474,7.39E-03,1.14E-02
87475,6.79E-03,1.20E-02
87476,6.50E-03,1.19E-02
87477,6.80E-03,1.19E-02
87478,7.03E-03,1.19E-02
87479,7.22E-03,1.20E-02
87480,7.76E-03,1.20E-02
87481,7.26E-03,1.16E-02
87482,6.73E-03,1.15E-02
87483,1.05E-02,1.16E-02
87484,7.40E-03,1.47E-02
87485,6.19E-03,1.48E-02
87486,6.59E-03,1.45E-02
87487,6.81E-03,1.44E-02
87488,6.62E-03,1.48E-02
87489,8.69E-03,1.10E-02
87490,8.56E-03,1.10E-02
87491,8.57E-03,1.10E-02
87492,5.14E-03,1.18E-02
87493,7.98E-03,1.13E-02
87494,7.88E-03,1.49E-02
87495,8.14E-03,1.49E-02
87496,4.81E-03,1.48E-02
87497,6.23E-03,1.49E-02
87498,7.46E-03,1.43E-02
87499,7.89E-03,1.43E-02
87500,8.06E-03,1.43E-02
87501,9.17E-03,1.42E-02
87502,5.91E-03,1.12E-02
87503,5.29E-03,1.12E-02
87504,5.39E-03,1.12E-02
87505,5.48E-03,1.12E-02
87506,5.72E-03,1.12E-02
87507,6.00E-03,1.12E-02
87508,7.80E-03,1.12E-02
87509,7.86E-03,1.11E-02
87510,8.25E-03,1.11E-02
87511,9.30E-03,1.11E-02
87512,8.83E-03,1.11E-02
87513,6.63E-03,1.10E-02
87514,8.20E-03,1.13E-02
87515,8.48E-03,1.13E-02
87516,9.88E-03,1.12E-02
87517,6.70E-03,1.59E-02
87518,7.86E-03,1.58E-02
87519,7.61E-03,1.18E-02
87520,7.45E-03,1.53E-02
87521,6.15E-03,1.21E-02
87522,7.63E-03,1.34E-02
87523,5.18E-03,1.47E-02
87524,6.08E-03,1.48E-02
87525,6.45E-03,1.47E-02
87526,8.71E-03,1.09E-02
87527,8.24E-03,1.20E-02
87528,7.85E-03,1.48E-02
87529,8.44E-03,1.48E-02
87530,7.68E-03,1.33E-02
87531,9.18E-03,1.56E-02
87532,8.91E-03,1.55E-02
87533,1.06E-02,1.55E-02
87534,1.04E-02,1.54E-02
87535,1.04E-02,1.53E-02
87536,1.02E-02,1.52E-02
87537,9.88E-03,1.51E-02
87538,9.79E-03,1.50E-02
87539,9.72E-03,1.50E-02
87540,9.62E-03,1.49E-02
87541,9.52E-03,1.48E-02
87542,9.43E-03,1.47E-02
87543,9.39E-03,1.46E-02
87544,9.45E-03,1.44E-02
87545,9.56E-03,1.43E-02
87546,8.97E-03,1.42E-02
87547,7.75E-03,1.09E-02
87548,7.93E-03,1.44E-02
87549,5.19E-03,1.44E-02
87550,4.76E-03,1.45E-02
87551,7.98E-03,1.32E-02
87552,5.22E-03,1.45E-02
87553,5.77E-03,1.43E-02
87554,8.10E-03,1.40E-02
87555,8.43E-03,1.18E-02
87556,9.35E-03,1.23E-02
87557,8.25E-03,1.42E-02
87558,8.25E-03,1.13E-02
87559,7.13E-03,1.29E-02
87560,7.92E-03,1.51E-02
87561,5.14E-03,1.48E-02
87562,6.01E-03,1.11E-02
87563,6.64E-03,1.10E-02
87564,7.38E-03,1.13E-02
87565,7.21E-03,1.13E-02
87566,8.21E-03,1.16E-02
87567,8.96E-03,1.51E-02
87568,9.05E-03,1.51E-02
87569,7.55E-03,1.45E-02
87570,8.99E-03,1.45E-02
87571,7.72E-03,1.07E-02
87572,7.85E-03,1.07E-02
87573,9.95E-03,1.57E-02
87574,8.26E-03,1.49E-02
87575,8.03E-03,1.49E-02
87576,8.06E-03,1.14E-02
87577,6.95E-03,1.32E-02
87578,7.58E-03,1.32E-02
87579,1.04E-02,1.36E-02
87580,6.66E-03,1.32E-02
87581,8.42E-03,1.50E-02
87582,8.22E-03,1.08E-02
87583,8.96E-03,1.06E-02
87584,6.21E-03,1.48E-02
87585,6.96E-03,1.41E-02
87586,8.61E-03,1.46E-02
87587,1.17E-02,1.15E-02
87588,9.40E-03,1.15E-02
87589,6.79E-03,1.11E-02
87590,6.75E-03,1.10E-02
87591,9.49E-03,1.45E-02
87592,5.25E-03,1.26E-02
87593,8.20E-03,1.28E-02
87594,8.22E-03,1.25E-02
87595,5.09E-03,1.16E-02
87596,4.20E-03,1.15E-02
87597,7.87E-03,1.16E-02
87598,8.11E-03,1.16E-02
87599,8.04E-03,1.14E-02
87600,7.79E-03,1.14E-02
87601,7.25E-03,1.06E-02
87602,7.46E-03,1.05E-02
87603,8.22E-03,1.05E-02
87604,5.71E-03,1.53E-02
87605,6.53E-03,1.52E-02
87606,8.36E-03,1.22E-02
87607,6.34E-03,1.10E-02
87608,8.48E-03,1.10E-02
87609,5.52E-03,1.18E-02
87610,8.07E-03,1.45E-02
87611,8.14E-03,1.11E-02
87612,1.14E-02,1.12E-02
87613,9.52E-03,1.12E-02
87614,1.19E-02,1.12E-02
87615,1.03E-02,1.12E-02
87616,6.87E-03,1.12E-02
87617,6.53E-03,1.12E-02
87618,6.33E-03,1.12E-02
87619,6.01E-03,1.12E-02
87620,8.15E-03,1.36E-02
87621,7.12E-03,1.44E-02
87622,8.98E-03,1.21E-02
87623,1.06E-02,1.21E-02
87624,1.09E-02,1.21E-02
87625,1.12E-02,1.21E-02
87626,7.64E-03,1.21E-02
87627,7.37E-03,1.21E-02
87628,6.40E-03,1.22E-02
87629,6.02E-03,1.22E-02
87630,5.54E-03,1.22E-02
87631,5.12E-03,1.22E-02
87632,4.73E-03,1.22E-02
87633,4.41E-03,1.22E-02
87634,4.13E-03,1.22E-02
87635,3.90E-03,1.23E-02
87636,4.36E-03,1.23E-02
87637,4.67E-03,1.23E-02
87638,5.07E-03,1.23E-02
87639,5.40E-03,1.23E-02
87640,6.23E-03,1.23E-02
87641,6.31E-03,1.24E-02
87642,7.11E-03,1.24E-02
87643,9.18E-03,1.29E-02
87644,9.42E-03,1.29E-02
87645,9.77E-03,1.29E-02
87646,9.88E-03,1.29E-02
87647,9.99E-03,1.29E-02
87648,9.82E-03,1.29E-02
87649,9.54E-03,1.29E-02
87650,9.21E-03,1.28E-02
87651,9.11E-03,1.28E-02
87652,8.85E-03,1.28E-02
87653,8.76E-03,1.28E-02
87654,8.35E-03,1.27E-02
87655,8.28E-03,1.27E-02
87656,8.24E-03,1.27E-02
87657,8.39E-03,1.27E-02
87658,8.22E-03,1.27E-02
87659,7.65E-03,1.26E-02
87660,7.44E-03,1.26E-02
87661,7.25E-03,1.26E-02
87662,7.08E-03,1.26E-02
87663,6.91E-03,1.25E-02
87664,6.74E-03,1.25E-02
87665,6.63E-03,1.25E-02
87666,6.51E-03,1.25E-02
87667,6.73E-03,1.25E-02
87668,6.89E-03,1.25E-02
87669,6.53E-03,1.24E-02
87670,6.34E-03,1.24E-02
87671,6.22E-03,1.24E-02
87672,6.04E-03,1.24E-02
87673,5.90E-03,1.24E-02
87674,5.78E-03,1.24E-02
87675,5.77E-03,1.24E-02
87676,5.86E-03,1.24E-02
87677,5.86E-03,1.24E-02
87678,5.98E-03,1.24E-02
87679,5.93E-03,1.24E-02
87680,5.32E-03,1.24E-02
87681,5.38E-03,1.24E-02
87682,5.65E-03,1.24E-02
87683,5.93E-03,1.25E-02
87684,6.15E-03,1.24E-02
87685,6.76E-03,1.24E-02
87686,7.26E-03,1.42E-02
87687,8.13E-03,1.32E-02
87688,8.15E-03,1.32E-02
87689,8.15E-03,1.32E-02
87690,8.15E-03,1.32E-02
87691,8.14E-03,1.32E-02
87692,8.15E-03,1.32E-02
87693,8.16E-03,1.33E-02
87694,8.17E-03,1.33E-02
87695,8.18E-03,1.33E-02
87696,8.18E-03,1.33E-02
87697,8.19E-03,1.33E-02
87698,8.19E-03,1.33E-02
87699,8.20E-03,1.33E-02
87700,8.20E-03,1.33E-02
87701,8.21E-03,1.33E-02
87702,8.21E-03,1.33E-02
87703,8.22E-03,1.33E-02
87704,8.23E-03,1.33E-02
87705,8.23E-03,1.33E-02
87706,8.24E-03,1.33E-02
87707,8.25E-03,1.34E-02
87708,8.26E-03,1.34E-02
87709,8.28E-03,1.34E-02
87710,8.29E-03,1.34E-02
87711,8.30E-03,1.34E-02
87712,8.32E-03,1.34E-02
87713,8.34E-03,1.34E-02
87714,8.36E-03,1.34E-02
87715,8.39E-03,1.34E-02
87716,8.41E-03,1.34E-02
87717,8.45E-03,1.34E-02
87718,8.51E-03,1.35E-02
87719,8.57E-03,1.35E-02
87720,8.63E-03,1.35E-02
87721,8.70E-03,1.35E-02
87722,8.90E-03,1.35E-02
87723,9.00E-03,1.35E-02
87724,9.09E-03,1.35E-02
87725,9.24E-03,1.35E-02
87726,9.40E-03,1.36E-02
87727,9.84E-03,1.36E-02
87728,1.02E-02,1.36E-02
87729,1.13E-02,1.36E-02
87730,1.06E-02,1.36E-02
87731,7.83E-03,1.37E-02
87732,6.07E-03,1.37E-02
87733,6.17E-03,1.37E-02
87734,6.25E-03,1.37E-02
87735,6.74E-03,1.37E-02
87736,6.77E-03,1.37E-02
87737,7.13E-03,1.37E-02
87738,7.20E-03,1.37E-02
87739,7.36E-03,1.37E-02
87740,7.44E-03,1.38E-02
87741,7.51E-03,1.38E-02
87742,7.56E-03,1.38E-02
87743,7.61E-03,1.38E-02
87744,7.65E-03,1.38E-02
87745,7.69E-03,1.38E-02
87746,7.72E-03,1.38E-02
87747,7.75E-03,1.38E-02
87748,7.77E-03,1.38E-02
87749,7.79E-03,1.38E-02
87750,7.81E-03,1.39E-02
87751,7.83E-03,1.39E-02
87752,7.84E-03,1.39E-02
87753,7.85E-03,1.39E-02
87754,7.87E-03,1.39E-02
87755,7.88E-03,1.39E-02
87756,7.89E-03,1.39E-02
87757,7.88E-03,1.39E-02
87758,7.86E-03,1.39E-02
87759,7.88E-03,1.39E-02
87760,7.92E-03,1.39E-02
87761,7.95E-03,1.39E-02
87762,7.97E-03,1.39E-02
87763,7.98E-03,1.39E-02
87764,8.00E-03,1.39E-02
87765,8.01E-03,1.39E-02
87766,8.01E-03,1.39E-02
87767,8.02E-03,1.39E-02
87768,8.10E-03,1.40E-02
87769,8.21E-03,1.40E-02
87770,8.26E-03,1.40E-02
87771,8.27E-03,1.40E-02
87772,8.28E-03,1.40E-02
87773,8.30E-03,1.40E-02
87774,8.31E-03,1.40E-02
87775,8.33E-03,1.40E-02
87776,8.34E-03,1.40E-02
87777,8.36E-03,1.40E-02
87778,8.39E-03,1.40E-02
87779,8.41E-03,1.40E-02
87780,8.44E-03,1.40E-02
87781,8.47E-03,1.40E-02
87782,8.51E-03,1.40E-02
87783,8.56E-03,1.40E-02
87784,8.73E-03,1.40E-02
87785,8.86E-03,1.40E-02
87786,8.91E-03,1.40E-02
87787,9.22E-03,1.40E-02
87788,9.26E-03,1.40E-02
87789,9.39E-03,1.40E-02
87790,1.03E-02,1.40E-02
87791,6.06E-03,1.26E-02
87792,6.46E-03,1.26E-02
87793,6.58E-03,1.25E-02
87794,6.65E-03,1.25E-02
87795,6.71E-03,1.25E-02
87796,6.96E-03,1.24E-02
87797,7.21E-03,1.24E-02
87798,7.33E-03,1.23E-02
87799,7.42E-03,1.23E-02
87800,7.50E-03,1.23E-02
87801,7.56E-03,1.22E-02
87802,7.61E-03,1.22E-02
87803,7.66E-03,1.21E-02
87804,7.69E-03,1.21E-02
87805,7.74E-03,1.21E-02
87806,7.82E-03,1.20E-02
87807,7.87E-03,1.20E-02
87808,7.87E-03,1.19E-02
87809,7.86E-03,1.19E-02
87810,7.85E-03,1.19E-02
87811,7.84E-03,1.18E-02
87812,7.83E-03,1.18E-02
87813,7.82E-03,1.18E-02
87814,7.81E-03,1.17E-02
87815,7.80E-03,1.17E-02
87816,7.79E-03,1.16E-02
87817,7.77E-03,1.16E-02
87818,7.76E-03,1.16E-02
87819,7.74E-03,1.15E-02
87820,7.73E-03,1.15E-02
87821,7.71E-03,1.15E-02
87822,7.69E-03,1.14E-02
87823,7.67E-03,1.14E-02
87824,7.65E-03,1.14E-02
87825,7.64E-03,1.13E-02
87826,7.58E-03,1.13E-02
87827,7.60E-03,1.13E-02
87828,8.20E-03,1.12E-02
87829,9.87E-03,1.14E-02
87830,8.13E-03,1.32E-02
87831,8.15E-03,1.32E-02
87832,8.15E-03,1.32E-02
87833,8.15E-03,1.32E-02
87834,8.16E-03,1.32E-02
87835,8.16E-03,1.32E-02
87836,8.16E-03,1.32E-02
87837,8.16E-03,1.32E-02
87838,8.16E-03,1.32E-02
87839,8.16E-03,1.32E-02
87840,8.16E-03,1.32E-02
87841,8.16E-03,1.31E-02
87842,8.17E-03,1.31E-02
87843,8.17E-03,1.31E-02
87844,8.17E-03,1.31E-02
87845,8.17E-03,1.31E-02
87846,8.17E-03,1.31E-02
87847,8.17E-03,1.31E-02
87848,8.17E-03,1.31E-02
87849,8.18E-03,1.31E-02
87850,8.18E-03,1.31E-02
87851,8.18E-03,1.31E-02
87852,8.18E-03,1.31E-02
87853,8.19E-03,1.31E-02
87854,8.19E-03,1.31E-02
87855,8.19E-03,1.31E-02
87856,8.20E-03,1.31E-02
87857,8.21E-03,1.31E-02
87858,8.21E-03,1.31E-02
87859,8.22E-03,1.31E-02
87860,8.23E-03,1.31E-02
87861,8.24E-03,1.31E-02
87862,8.25E-03,1.31E-02
87863,8.25E-03,1.31E-02
87864,8.26E-03,1.31E-02
87865,8.27E-03,1.31E-02
87866,8.27E-03,1.31E-02
87867,8.28E-03,1.31E-02
87868,8.29E-03,1.31E-02
87869,8.31E-03,1.31E-02
87870,8.32E-03,1.31E-02
87871,8.33E-03,1.31E-02
87872,8.35E-03,1.31E-02
87873,8.37E-03,1.31E-02
87874,8.38E-03,1.31E-02
87875,8.41E-03,1.31E-02
87876,8.43E-03,1.31E-02
87877,8.46E-03,1.31E-02
87878,8.49E-03,1.31E-02
87879,8.52E-03,1.31E-02
87880,8.56E-03,1.31E-02
87881,8.61E-03,1.31E-02
87882,8.67E-03,1.32E-02
87883,8.73E-03,1.32E-02
87884,8.81E-03,1.32E-02
87885,8.97E-03,1.32E-02
87886,9.04E-03,1.32E-02
87887,9.31E-03,1.32E-02
87888,9.45E-03,1.32E-02
87889,9.58E-03,1.32E-02
87890,9.87E-03,1.32E-02
87891,1.07E-02,1.33E-02
87892,6.14E-03,1.30E-02
87893,6.90E-03,1.31E-02
87894,8.68E-03,1.31E-02
87895,9.60E-03,1.31E-02
87896,1.14E-02,1.32E-02
87897,1.06E-02,1.33E-02
87898,1.04E-02,1.33E-02
87899,1.01E-02,1.34E-02
87900,9.73E-03,1.35E-02
87901,9.46E-03,1.35E-02
87902,9.27E-03,1.36E-02
87903,9.05E-03,1.36E-02
87904,8.83E-03,1.37E-02
87905,8.71E-03,1.38E-02
87906,8.86E-03,1.38E-02
87907,9.20E-03,1.39E-02
87908,9.42E-03,1.39E-02
87909,8.58E-03,1.40E-02
87910,7.70E-03,1.40E-02
87911,7.65E-03,1.41E-02
87912,7.65E-03,1.41E-02
87913,7.64E-03,1.42E-02
87914,7.65E-03,1.42E-02
87915,7.72E-03,1.43E-02
87916,7.79E-03,1.43E-02
87917,7.77E-03,1.44E-02
87918,8.92E-03,1.41E-02
87919,9.99E-03,1.41E-02
87920,1.01E-02,1.41E-02
87921,1.01E-02,1.41E-02
87922,1.00E-02,1.41E-02
87923,9.65E-03,1.41E-02
87924,9.44E-03,1.41E-02
87925,9.15E-03,1.41E-02
87926,9.00E-03,1.41E-02
87927,8.75E-03,1.41E-02
87928,8.71E-03,1.41E-02
87929,8.73E-03,1.42E-02
87930,8.67E-03,1.42E-02
87931,8.53E-03,1.42E-02
87932,8.57E-03,1.42E-02
87933,8.66E-03,1.42E-02
87934,8.72E-03,1.42E-02
87935,8.55E-03,1.43E-02
87936,8.46E-03,1.43E-02
87937,8.42E-03,1.43E-02
87938,8.46E-03,1.43E-02
87939,8.36E-03,1.43E-02
87940,8.35E-03,1.44E-02
87941,8.41E-03,1.44E-02
87942,8.39E-03,1.44E-02
87943,8.41E-03,1.44E-02
87944,8.44E-03,1.45E-02
87945,8.42E-03,1.45E-02
87946,8.40E-03,1.45E-02
87947,8.38E-03,1.45E-02
87948,8.37E-03,1.46E-02
87949,8.36E-03,1.46E-02
87950,8.34E-03,1.46E-02
87951,8.27E-03,1.46E-02
87952,8.12E-03,1.46E-02
87953,8.02E-03,1.46E-02
87954,7.93E-03,1.47E-02
87955,7.85E-03,1.47E-02
87956,7.95E-03,1.47E-02
87957,8.01E-03,1.47E-02
87958,8.08E-03,1.48E-02
87959,8.10E-03,1.48E-02
87960,8.06E-03,1.48E-02
87961,8.00E-03,1.48E-02
87962,7.98E-03,1.48E-02
87963,7.95E-03,1.48E-02
87964,7.92E-03,1.48E-02
87965,7.85E-03,1.48E-02
87966,7.74E-03,1.48E-02
87967,7.58E-03,1.48E-02
87968,7.59E-03,1.48E-02
87969,7.64E-03,1.49E-02
87970,7.61E-03,1.49E-02
87971,7.56E-03,1.49E-02
87972,7.51E-03,1.49E-02
87973,7.44E-03,1.49E-02
87974,7.37E-03,1.49E-02
87975,7.27E-03,1.49E-02
87976,7.16E-03,1.49E-02
87977,7.05E-03,1.49E-02
87978,7.11E-03,1.49E-02
87979,7.16E-03,1.49E-02
87980,8.13E-03,1.50E-02
87981,8.76E-03,1.49E-02
87982,8.14E-03,1.50E-02
87983,5.81E-03,1.29E-02
87984,9.62E-03,1.29E-02
87985,9.62E-03,1.29E-02
87986,9.37E-03,1.29E-02
87987,8.95E-03,1.29E-02
87988,7.50E-03,1.28E-02
87989,7.78E-03,1.28E-02
87990,8.13E-03,1.28E-02
87991,8.27E-03,1.27E-02
87992,8.14E-03,1.27E-02
87993,7.99E-03,1.27E-02
87994,7.67E-03,1.27E-02
87995,7.27E-03,1.26E-02
87996,8.30E-03,1.11E-02
87997,9.63E-03,1.11E-02
87998,9.04E-03,1.10E-02
87999,6.09E-03,1.11E-02
88000,5.35E-03,1.11E-02
88001,5.19E-03,1.11E-02
88002,5.49E-03,1.11E-02
88003,5.95E-03,1.11E-02
88004,6.16E-03,1.11E-02
88005,7.65E-03,1.10E-02
88006,7.82E-03,1.10E-02
88007,8.26E-03,1.10E-02
88008,6.61E-03,1.10E-02
88009,8.14E-03,1.10E-02
88010,7.62E-03,1.14E-02
88011,6.79E-03,1.14E-02
88012,6.73E-03,1.14E-02
88013,6.98E-03,1.14E-02
88014,6.94E-03,1.14E-02
88015,7.76E-03,1.17E-02
88016,7.86E-03,1.18E-02
88017,7.71E-03,1.18E-02
88018,7.35E-03,1.48E-02
88019,7.36E-03,1.47E-02
88020,8.75E-03,1.47E-02
88021,9.66E-03,1.47E-02
88022,9.64E-03,1.46E-02
88023,9.77E-03,1.46E-02
88024,9.81E-03,1.46E-02
88025,1.00E-02,1.46E-02
88026,8.58E-03,1.45E-02
88027,7.75E-03,1.45E-02
88028,8.88E-03,1.53E-02
88029,9.11E-03,1.54E-02
88030,9.56E-03,1.55E-02
88031,9.41E-03,1.55E-02
88032,9.28E-03,1.56E-02
88033,9.40E-03,1.56E-02
88034,8.88E-03,1.57E-02
88035,8.82E-03,1.57E-02
88036,8.67E-03,1.58E-02
88037,8.70E-03,1.18E-02
88038,1.02E-02,1.18E-02
88039,1.01E-02,1.18E-02
88040,9.88E-03,1.18E-02
88041,9.74E-03,1.18E-02
88042,9.66E-03,1.18E-02
88043,8.43E-03,1.18E-02
88044,7.21E-03,1.18E-02
88045,7.12E-03,1.18E-02
88046,6.90E-03,1.18E-02
88047,6.68E-03,1.18E-02
88048,6.43E-03,1.18E-02
88049,6.36E-03,1.18E-02
88050,6.17E-03,1.18E-02
88051,6.01E-03,1.18E-02
88052,6.46E-03,1.19E-02
88053,6.13E-03,1.19E-02
88054,4.60E-03,1.19E-02
88055,4.74E-03,1.18E-02
88056,4.73E-03,1.18E-02
88057,5.31E-03,1.18E-02
88058,5.57E-03,1.18E-02
88059,5.87E-03,1.18E-02
88060,7.91E-03,1.09E-02
88061,6.28E-03,1.08E-02
88062,5.96E-03,1.08E-02
88063,6.73E-03,1.19E-02
88064,6.44E-03,1.20E-02
88065,7.40E-03,1.14E-02
88066,8.36E-03,1.19E-02
88067,5.14E-03,1.15E-02
88068,7.41E-03,1.15E-02
88069,7.03E-03,1.48E-02
88070,7.05E-03,1.49E-02
88071,6.96E-03,1.49E-02
88072,8.86E-03,1.10E-02
88073,6.88E-03,1.17E-02
88074,6.37E-03,1.09E-02
88075,5.46E-03,1.55E-02
88076,7.20E-03,1.54E-02
88077,8.22E-03,1.11E-02
88078,8.81E-03,1.11E-02
88079,5.08E-03,1.60E-02
88080,5.79E-03,1.59E-02
88081,6.73E-03,1.59E-02
88082,7.76E-03,1.16E-02
88083,7.15E-03,1.53E-02
88084,7.23E-03,1.09E-02
88085,5.52E-03,1.18E-02
88086,8.18E-03,1.31E-02
88087,6.57E-03,1.47E-02
88088,6.80E-03,1.44E-02
88089,7.57E-03,1.45E-02
88090,7.88E-03,1.45E-02
88091,8.15E-03,1.44E-02
88092,7.91E-03,1.11E-02
88093,8.46E-03,1.09E-02
88094,8.57E-03,1.09E-02
88095,7.34E-03,1.51E-02
88096,8.21E-03,1.50E-02
88097,7.38E-03,1.33E-02
88098,1.11E-02,1.33E-02
88099,9.08E-03,1.33E-02
88100,9.19E-03,1.34E-02
88101,9.22E-03,1.34E-02
88102,9.36E-03,1.34E-02
88103,9.50E-03,1.34E-02
88104,9.81E-03,1.34E-02
88105,9.91E-03,1.34E-02
88106,1.05E-02,1.35E-02
88107,1.05E-02,1.35E-02
88108,1.06E-02,1.35E-02
88109,1.06E-02,1.35E-02
88110,8.59E-03,1.35E-02
88111,8.68E-03,1.36E-02
88112,5.73E-03,1.36E-02
88113,5.31E-03,1.36E-02
88114,5.12E-03,1.36E-02
88115,5.16E-03,1.36E-02
88116,5.58E-03,1.36E-02
88117,5.82E-03,1.36E-02
88118,6.02E-03,1.37E-02
88119,6.53E-03,1.37E-02
88120,6.62E-03,1.37E-02
88121,6.86E-03,1.37E-02
88122,7.11E-03,1.37E-02
88123,7.17E-03,1.37E-02
88124,7.43E-03,1.38E-02
88125,7.67E-03,1.38E-02
88126,7.80E-03,1.38E-02
88127,7.91E-03,1.39E-02
88128,8.11E-03,1.39E-02
88129,8.49E-03,1.39E-02
88130,8.68E-03,1.39E-02
88131,8.80E-03,1.40E-02
88132,9.94E-03,1.40E-02
88133,1.01E-02,1.41E-02
88134,9.34E-03,1.41E-02
88135,9.00E-03,1.41E-02
88136,7.50E-03,1.09E-02
88137,6.72E-03,1.47E-02
88138,7.48E-03,1.48E-02
88139,5.09E-03,1.46E-02
88140,7.81E-03,1.13E-02
88141,8.84E-03,1.13E-02
88142,8.56E-03,1.12E-02
88143,8.19E-03,1.12E-02
88144,8.01E-03,1.33E-02
88145,8.04E-03,1.32E-02
88146,6.34E-03,1.43E-02
88147,6.75E-03,1.42E-02
88148,7.07E-03,1.41E-02
88149,7.66E-03,1.40E-02
88150,8.70E-03,1.18E-02
88151,9.52E-03,1.23E-02
88152,6.34E-03,1.21E-02
88153,7.32E-03,1.44E-02
88154,8.30E-03,1.42E-02
88155,8.41E-03,1.13E-02
88156,8.24E-03,1.33E-02
88157,8.10E-03,1.33E-02
88158,7.40E-03,1.32E-02
88159,6.63E-03,1.30E-02
88160,8.26E-03,1.45E-02
88161,8.30E-03,1.44E-02
88162,7.14E-03,1.51E-02
88163,8.17E-03,1.51E-02
88164,5.99E-03,1.49E-02
88165,7.49E-03,1.49E-02
88166,8.99E-03,1.27E-02
88167,8.76E-03,1.27E-02
88168,8.75E-03,1.27E-02
88169,7.97E-03,1.27E-02
88170,7.57E-03,1.26E-02
88171,6.69E-03,1.26E-02
88172,6.73E-03,1.24E-02
88173,7.79E-03,1.10E-02
88174,7.01E-03,1.10E-02
88175,6.81E-03,1.10E-02
88176,8.62E-03,1.13E-02
88177,7.39E-03,1.13E-02
88178,9.18E-03,1.13E-02
88179,8.16E-03,1.16E-02
88180,7.77E-03,1.16E-02
88181,7.52E-03,1.16E-02
88182,7.42E-03,1.16E-02
88183,7.41E-03,1.50E-02
88184,6.51E-03,1.47E-02
88185,8.87E-03,1.45E-02
88186,6.74E-03,1.50E-02
88187,6.50E-03,1.51E-02
88188,6.17E-03,1.51E-02
88189,5.88E-03,1.50E-02
88190,5.93E-03,1.51E-02
88191,6.11E-03,1.50E-02
88192,6.32E-03,1.50E-02
88193,6.56E-03,1.50E-02
88194,7.11E-03,1.50E-02
88195,7.02E-03,1.44E-02
88196,7.97E-03,1.53E-02
88197,8.31E-03,1.16E-02
88198,6.97E-03,1.17E-02
88199,7.36E-03,1.08E-02
88200,6.37E-03,1.07E-02
88201,8.20E-03,1.57E-02
88202,9.23E-03,1.56E-02
88203,8.98E-03,1.56E-02
88204,1.05E-02,1.55E-02
88205,1.04E-02,1.54E-02
88206,1.03E-02,1.53E-02
88207,1.02E-02,1.53E-02
88208,9.90E-03,1.52E-02
88209,9.78E-03,1.51E-02
88210,9.69E-03,1.50E-02
88211,9.71E-03,1.49E-02
88212,9.66E-03,1.48E-02
88213,9.64E-03,1.47E-02
88214,9.63E-03,1.46E-02
88215,9.62E-03,1.45E-02
88216,9.85E-03,1.44E-02
88217,9.09E-03,1.43E-02
88218,8.95E-03,1.42E-02
88219,7.04E-03,1.16E-02
88220,7.71E-03,1.41E-02
88221,8.34E-03,1.51E-02
88222,8.84E-03,1.51E-02
88223,8.72E-03,1.52E-02
88224,8.10E-03,1.12E-02
88225,8.15E-03,1.12E-02
88226,8.52E-03,1.12E-02
88227,1.02E-02,1.12E-02
88228,7.60E-03,1.13E-02
88229,7.46E-03,1.17E-02
88230,7.70E-03,1.16E-02
88231,6.07E-03,1.16E-02
88232,7.62E-03,1.33E-02
88233,7.62E-03,1.18E-02
88234,6.90E-03,1.18E-02
88235,5.63E-03,1.07E-02
88236,9.33E-03,1.32E-02
88237,1.06E-02,1.31E-02
88238,5.32E-03,1.53E-02
88239,7.75E-03,1.52E-02
88240,6.96E-03,1.50E-02
88241,8.36E-03,1.06E-02
88242,7.08E-03,1.06E-02
88243,8.23E-03,1.08E-02
88244,8.73E-03,1.09E-02
88245,7.15E-03,1.47E-02
88246,7.42E-03,1.29E-02
88247,7.98E-03,1.11E-02
88248,6.87E-03,1.47E-02
88249,6.67E-03,1.47E-02
88250,8.30E-03,1.44E-02
88251,7.55E-03,1.44E-02
88252,7.55E-03,1.48E-02
88253,7.07E-03,1.10E-02
88254,7.04E-03,1.09E-02
88255,1.10E-02,1.47E-02
88256,6.94E-03,1.41E-02
88257,7.57E-03,1.26E-02
88258,6.87E-03,1.27E-02
88259,7.72E-03,1.27E-02
88260,5.76E-03,1.60E-02
88261,5.43E-03,1.60E-02
88262,8.07E-03,1.28E-02
88263,8.10E-03,1.29E-02
88264,8.17E-03,1.26E-02
88265,8.63E-03,1.36E-02
88266,8.53E-03,1.33E-02
88267,8.32E-03,1.16E-02
88268,8.32E-03,1.15E-02
88269,4.96E-03,1.16E-02
88270,7.25E-03,1.09E-02
88271,6.77E-03,1.10E-02
88272,6.83E-03,1.10E-02
88273,7.14E-03,1.09E-02
88274,5.93E-03,1.12E-02
88275,6.21E-03,1.12E-02
88276,8.09E-03,1.14E-02
88277,7.99E-03,1.12E-02
88278,7.34E-03,1.53E-02
88279,6.65E-03,1.53E-02
88280,7.15E-03,1.53E-02
88281,7.70E-03,1.14E-02
88282,7.22E-03,1.32E-02
88283,7.38E-03,1.32E-02
88284,7.15E-03,1.31E-02
88285,7.37E-03,1.32E-02
88286,7.16E-03,1.59E-02
88287,9.49E-03,1.05E-02
88288,8.91E-03,1.52E-02
88289,8.82E-03,1.52E-02
88290,8.53E-03,1.53E-02
88291,5.97E-03,1.08E-02
88292,6.71E-03,1.08E-02
88293,6.99E-03,1.08E-02
88294,7.61E-03,1.10E-02
88295,7.35E-03,1.09E-02
88296,8.23E-03,1.23E-02
88297,8.84E-03,1.21E-02
88298,4.33E-03,1.55E-02
88299,3.53E-03,1.56E-02
88300,7.89E-03,1.12E-02
88301,7.71E-03,1.12E-02
88302,7.90E-03,1.19E-02
88303,3.69E-03,1.13E-02
88304,5.29E-03,1.14E-02
88305,7.33E-03,1.22E-02
88306,6.50E-03,1.48E-02
88307,7.13E-03,1.48E-02
88308,8.37E-03,1.04E-02
88309,7.34E-03,1.04E-02
88310,7.88E-03,1.11E-02
88311,8.02E-03,1.13E-02
88312,7.01E-03,1.09E-02
88313,9.62E-03,1.59E-02
88314,8.45E-03,1.50E-02
88315,6.87E-03,1.08E-02
88316,6.07E-03,1.08E-02
88317,8.30E-03,1.08E-02
88318,7.95E-03,1.10E-02
88319,1.13E-02,1.10E-02
88320,9.41E-03,1.10E-02
88321,1.18E-02,1.11E-02
88322,1.03E-02,1.11E-02
88323,6.63E-03,1.11E-02
88324,6.47E-03,1.11E-02
88325,6.27E-03,1.11E-02
88326,5.88E-03,1.11E-02
88327,5.67E-03,1.11E-02
88328,5.73E-03,1.11E-02
88329,7.77E-03,1.12E-02
88330,8.15E-03,1.33E-02
88331,7.36E-03,1.41E-02
88332,9.07E-03,1.19E-02
88333,1.01E-02,1.19E-02
88334,1.10E-02,1.19E-02
88335,1.13E-02,1.19E-02
88336,8.24E-03,1.19E-02
88337,7.27E-03,1.20E-02
88338,6.37E-03,1.20E-02
88339,6.00E-03,1.20E-02
88340,5.62E-03,1.20E-02
88341,5.02E-03,1.20E-02
88342,4.74E-03,1.20E-02
88343,4.47E-03,1.20E-02
88344,4.16E-03,1.20E-02
88345,3.90E-03,1.21E-02
88346,4.35E-03,1.21E-02
88347,4.71E-03,1.21E-02
88348,5.21E-03,1.21E-02
88349,5.38E-03,1.21E-02
88350,6.22E-03,1.21E-02
88351,6.47E-03,1.22E-02
88352,7.44E-03,1.22E-02
88353,9.25E-03,1.27E-02
88354,9.48E-03,1.27E-02
88355,9.66E-03,1.27E-02
88356,9.86E-03,1.27E-02
88357,9.97E-03,1.26E-02
88358,9.89E-03,1.26E-02
88359,9.54E-03,1.26E-02
88360,9.36E-03,1.26E-02
88361,9.26E-03,1.26E-02
88362,8.91E-03,1.25E-02
88363,8.80E-03,1.25E-02
88364,8.54E-03,1.25E-02
88365,8.59E-03,1.25E-02
88366,8.48E-03,1.25E-02
88367,8.42E-03,1.24E-02
88368,8.22E-03,1.24E-02
88369,7.70E-03,1.24E-02
88370,7.43E-03,1.24E-02
88371,7.25E-03,1.23E-02
88372,7.09E-03,1.23E-02
88373,7.02E-03,1.23E-02
88374,6.89E-03,1.23E-02
88375,6.99E-03,1.23E-02
88376,6.92E-03,1.23E-02
88377,6.77E-03,1.22E-02
88378,6.74E-03,1.22E-02
88379,6.60E-03,1.22E-02
88380,6.51E-03,1.22E-02
88381,6.39E-03,1.22E-02
88382,6.18E-03,1.22E-02
88383,5.97E-03,1.22E-02
88384,5.82E-03,1.21E-02
88385,6.00E-03,1.21E-02
88386,6.24E-03,1.21E-02
88387,6.30E-03,1.21E-02
88388,6.17E-03,1.21E-02
88389,6.08E-03,1.22E-02
88390,5.38E-03,1.22E-02
88391,5.42E-03,1.22E-02
88392,5.69E-03,1.22E-02
88393,5.73E-03,1.22E-02
88394,6.12E-03,1.22E-02
88395,6.34E-03,1.22E-02
88396,7.75E-03,1.44E-02
88397,7.72E-03,1.45E-02
88398,8.13E-03,1.33E-02
88399,8.15E-03,1.33E-02
88400,8.15E-03,1.33E-02
88401,8.14E-03,1.33E-02
88402,8.14E-03,1.33E-02
88403,8.14E-03,1.33E-02
88404,8.16E-03,1.33E-02
88405,8.17E-03,1.33E-02
88406,8.18E-03,1.33E-02
88407,8.18E-03,1.34E-02
88408,8.18E-03,1.34E-02
88409,8.19E-03,1.34E-02
88410,8.19E-03,1.34E-02
88411,8.20E-03,1.34E-02
88412,8.20E-03,1.34E-02
88413,8.21E-03,1.34E-02
88414,8.22E-03,1.34E-02
88415,8.22E-03,1.34E-02
88416,8.23E-03,1.34E-02
88417,8.24E-03,1.34E-02
88418,8.25E-03,1.34E-02
88419,8.26E-03,1.35E-02
88420,8.27E-03,1.35E-02
88421,8.29E-03,1.35E-02
88422,8.30E-03,1.35E-02
88423,8.32E-03,1.35E-02
88424,8.33E-03,1.35E-02
88425,8.35E-03,1.35E-02
88426,8.38E-03,1.35E-02
88427,8.41E-03,1.35E-02
88428,8.44E-03,1.36E-02
88429,8.50E-03,1.36E-02
88430,8.56E-03,1.36E-02
88431,8.62E-03,1.36E-02
88432,8.69E-03,1.36E-02
88433,8.83E-03,1.36E-02
88434,8.91E-03,1.36E-02
88435,9.04E-03,1.36E-02
88436,9.20E-03,1.37E-02
88437,9.41E-03,1.37E-02
88438,9.81E-03,1.37E-02
88439,1.03E-02,1.37E-02
88440,1.12E-02,1.37E-02
88441,1.10E-02,1.38E-02
88442,7.14E-03,1.38E-02
88443,6.19E-03,1.38E-02
88444,6.16E-03,1.38E-02
88445,6.43E-03,1.38E-02
88446,6.67E-03,1.38E-02
88447,6.78E-03,1.38E-02
88448,7.15E-03,1.39E-02
88449,7.28E-03,1.39E-02
88450,7.38E-03,1.39E-02
88451,7.45E-03,1.39E-02
88452,7.52E-03,1.39E-02
88453,7.57E-03,1.39E-02
88454,7.62E-03,1.39E-02
88455,7.66E-03,1.39E-02
88456,7.70E-03,1.39E-02
88457,7.73E-03,1.40E-02
88458,7.75E-03,1.40E-02
88459,7.78E-03,1.40E-02
88460,7.80E-03,1.40E-02
88461,7.81E-03,1.40E-02
88462,7.83E-03,1.40E-02
88463,7.85E-03,1.40E-02
88464,7.86E-03,1.40E-02
88465,7.87E-03,1.40E-02
88466,7.88E-03,1.40E-02
88467,7.89E-03,1.41E-02
88468,7.88E-03,1.41E-02
88469,7.87E-03,1.41E-02
88470,7.88E-03,1.41E-02
88471,7.92E-03,1.41E-02
88472,7.95E-03,1.41E-02
88473,7.97E-03,1.41E-02
88474,7.98E-03,1.41E-02
88475,8.00E-03,1.41E-02
88476,8.01E-03,1.41E-02
88477,8.01E-03,1.41E-02
88478,8.02E-03,1.41E-02
88479,8.10E-03,1.41E-02
88480,8.21E-03,1.41E-02
88481,8.26E-03,1.41E-02
88482,8.27E-03,1.41E-02
88483,8.28E-03,1.41E-02
88484,8.29E-03,1.41E-02
88485,8.31E-03,1.41E-02
88486,8.32E-03,1.41E-02
88487,8.34E-03,1.41E-02
88488,8.36E-03,1.41E-02
88489,8.38E-03,1.41E-02
88490,8.41E-03,1.41E-02
88491,8.43E-03,1.41E-02
88492,8.47E-03,1.41E-02
88493,8.50E-03,1.42E-02
88494,8.55E-03,1.42E-02
88495,8.72E-03,1.42E-02
88496,8.81E-03,1.42E-02
88497,8.98E-03,1.42E-02
88498,9.14E-03,1.42E-02
88499,9.24E-03,1.42E-02
88500,9.43E-03,1.42E-02
88501,1.03E-02,1.42E-02
88502,6.48E-03,1.26E-02
88503,6.64E-03,1.25E-02
88504,6.66E-03,1.25E-02
88505,6.71E-03,1.25E-02
88506,6.80E-03,1.24E-02
88507,6.97E-03,1.24E-02
88508,7.18E-03,1.23E-02
88509,7.34E-03,1.23E-02
88510,7.43E-03,1.23E-02
88511,7.51E-03,1.22E-02
88512,7.57E-03,1.22E-02
88513,7.62E-03,1.21E-02
88514,7.66E-03,1.21E-02
88515,7.70E-03,1.21E-02
88516,7.75E-03,1.20E-02
88517,7.83E-03,1.20E-02
88518,7.88E-03,1.19E-02
88519,7.87E-03,1.19E-02
88520,7.86E-03,1.18E-02
88521,7.86E-03,1.18E-02
88522,7.85E-03,1.18E-02
88523,7.84E-03,1.17E-02
88524,7.83E-03,1.17E-02
88525,7.82E-03,1.17E-02
88526,7.81E-03,1.16E-02
88527,7.79E-03,1.16E-02
88528,7.78E-03,1.15E-02
88529,7.77E-03,1.15E-02
88530,7.75E-03,1.15E-02
88531,7.74E-03,1.14E-02
88532,7.72E-03,1.14E-02
88533,7.70E-03,1.14E-02
88534,7.68E-03,1.13E-02
88535,7.61E-03,1.13E-02
88536,7.56E-03,1.12E-02
88537,7.46E-03,1.12E-02
88538,7.39E-03,1.12E-02
88539,7.18E-03,1.11E-02
88540,1.04E-02,1.13E-02
88541,9.25E-03,1.13E-02
88542,8.13E-03,1.33E-02
88543,8.15E-03,1.33E-02
88544,8.15E-03,1.33E-02
88545,8.15E-03,1.32E-02
88546,8.15E-03,1.32E-02
88547,8.16E-03,1.32E-02
88548,8.16E-03,1.32E-02
88549,8.16E-03,1.32E-02
88550,8.16E-03,1.32E-02
88551,8.16E-03,1.32E-02
88552,8.16E-03,1.32E-02
88553,8.16E-03,1.32E-02
88554,8.16E-03,1.32E-02
88555,8.17E-03,1.32E-02
88556,8.17E-03,1.32E-02
88557,8.17E-03,1.32E-02
88558,8.17E-03,1.32E-02
88559,8.17E-03,1.32E-02
88560,8.17E-03,1.32E-02
88561,8.17E-03,1.32E-02
88562,8.18E-03,1.32E-02
88563,8.18E-03,1.31E-02
88564,8.18E-03,1.31E-02
88565,8.18E-03,1.31E-02
88566,8.19E-03,1.31E-02
88567,8.19E-03,1.31E-02
88568,8.20E-03,1.31E-02
88569,8.20E-03,1.31E-02
88570,8.21E-03,1.31E-02
88571,8.22E-03,1.31E-02
88572,8.23E-03,1.31E-02
88573,8.23E-03,1.31E-02
88574,8.24E-03,1.31E-02
88575,8.25E-03,1.31E-02
88576,8.25E-03,1.31E-02
88577,8.26E-03,1.31E-02
88578,8.27E-03,1.31E-02
88579,8.28E-03,1.31E-02
88580,8.29E-03,1.31E-02
88581,8.30E-03,1.31E-02
88582,8.31E-03,1.31E-02
88583,8.33E-03,1.31E-02
88584,8.34E-03,1.31E-02
88585,8.36E-03,1.31E-02
88586,8.38E-03,1.31E-02
88587,8.40E-03,1.31E-02
88588,8.42E-03,1.31E-02
88589,8.45E-03,1.31E-02
88590,8.48E-03,1.31E-02
88591,8.51E-03,1.31E-02
88592,8.55E-03,1.31E-02
88593,8.60E-03,1.31E-02
88594,8.65E-03,1.31E-02
88595,8.72E-03,1.31E-02
88596,8.80E-03,1.31E-02
88597,9.00E-03,1.32E-02
88598,9.02E-03,1.32E-02
88599,9.27E-03,1.32E-02
88600,9.50E-03,1.32E-02
88601,9.56E-03,1.32E-02
88602,9.77E-03,1.32E-02
88603,1.06E-02,1.32E-02
88604,6.79E-03,1.30E-02
88605,7.22E-03,1.30E-02
88606,9.18E-03,1.31E-02
88607,9.19E-03,1.31E-02
88608,1.13E-02,1.32E-02
88609,1.08E-02,1.33E-02
88610,1.03E-02,1.33E-02
88611,1.00E-02,1.34E-02
88612,9.60E-03,1.35E-02
88613,9.36E-03,1.35E-02
88614,9.18E-03,1.36E-02
88615,9.03E-03,1.36E-02
88616,8.82E-03,1.37E-02
88617,8.70E-03,1.37E-02
88618,8.84E-03,1.38E-02
88619,9.18E-03,1.39E-02
88620,9.39E-03,1.39E-02
88621,8.57E-03,1.40E-02
88622,7.71E-03,1.40E-02
88623,7.66E-03,1.41E-02
88624,7.66E-03,1.41E-02
88625,7.65E-03,1.42E-02
88626,7.69E-03,1.42E-02
88627,7.69E-03,1.43E-02
88628,7.71E-03,1.44E-02
88629,7.78E-03,1.44E-02
88630,7.91E-03,1.45E-02
88631,8.49E-03,1.44E-02
88632,1.02E-02,1.44E-02
88633,1.03E-02,1.44E-02
88634,1.02E-02,1.44E-02
88635,1.03E-02,1.44E-02
88636,9.67E-03,1.44E-02
88637,9.56E-03,1.44E-02
88638,9.34E-03,1.44E-02
88639,9.20E-03,1.44E-02
88640,9.05E-03,1.44E-02
88641,8.97E-03,1.44E-02
88642,8.83E-03,1.44E-02
88643,8.93E-03,1.44E-02
88644,9.03E-03,1.44E-02
88645,8.97E-03,1.45E-02
88646,8.88E-03,1.45E-02
88647,8.81E-03,1.45E-02
88648,8.68E-03,1.45E-02
88649,8.58E-03,1.45E-02
88650,8.49E-03,1.46E-02
88651,8.44E-03,1.46E-02
88652,8.50E-03,1.46E-02
88653,8.48E-03,1.46E-02
88654,8.45E-03,1.46E-02
88655,8.48E-03,1.47E-02
88656,8.45E-03,1.47E-02
88657,8.43E-03,1.47E-02
88658,8.41E-03,1.47E-02
88659,8.39E-03,1.48E-02
88660,8.38E-03,1.48E-02
88661,8.36E-03,1.48E-02
88662,8.35E-03,1.48E-02
88663,8.34E-03,1.48E-02
88664,8.33E-03,1.49E-02
88665,8.24E-03,1.49E-02
88666,8.15E-03,1.49E-02
88667,8.13E-03,1.49E-02
88668,8.08E-03,1.49E-02
88669,8.07E-03,1.49E-02
88670,8.12E-03,1.50E-02
88671,8.14E-03,1.50E-02
88672,8.17E-03,1.50E-02
88673,8.10E-03,1.50E-02
88674,8.00E-03,1.50E-02
88675,7.98E-03,1.50E-02
88676,7.96E-03,1.51E-02
88677,7.92E-03,1.51E-02
88678,7.86E-03,1.51E-02
88679,7.74E-03,1.51E-02
88680,7.59E-03,1.51E-02
88681,7.59E-03,1.51E-02
88682,7.65E-03,1.51E-02
88683,7.61E-03,1.51E-02
88684,7.57E-03,1.51E-02
88685,7.52E-03,1.51E-02
88686,7.45E-03,1.51E-02
88687,7.38E-03,1.51E-02
88688,7.29E-03,1.51E-02
88689,7.18E-03,1.51E-02
88690,7.04E-03,1.51E-02
88691,7.06E-03,1.51E-02
88692,6.99E-03,1.51E-02
88693,8.05E-03,1.50E-02
88694,8.52E-03,1.49E-02
88695,8.03E-03,1.50E-02
88696,5.95E-03,1.27E-02
88697,9.91E-03,1.27E-02
88698,9.77E-03,1.27E-02
88699,9.63E-03,1.27E-02
88700,9.23E-03,1.27E-02
88701,7.28E-03,1.26E-02
88702,8.05E-03,1.26E-02
88703,8.25E-03,1.25E-02
88704,8.31E-03,1.25E-02
88705,8.35E-03,1.25E-02
88706,8.18E-03,1.25E-02
88707,7.65E-03,1.24E-02
88708,7.52E-03,1.24E-02
88709,1.03E-02,1.10E-02
88710,9.67E-03,1.09E-02
88711,8.08E-03,1.09E-02
88712,7.50E-03,1.09E-02
88713,6.42E-03,1.10E-02
88714,5.34E-03,1.10E-02
88715,5.19E-03,1.10E-02
88716,5.53E-03,1.10E-02
88717,6.08E-03,1.09E-02
88718,6.31E-03,1.09E-02
88719,7.44E-03,1.09E-02
88720,7.97E-03,1.09E-02
88721,8.08E-03,1.09E-02
88722,7.85E-03,1.09E-02
88723,7.03E-03,1.13E-02
88724,6.60E-03,1.13E-02
88725,6.50E-03,1.13E-02
88726,6.69E-03,1.13E-02
88727,6.96E-03,1.12E-02
88728,8.79E-03,1.11E-02
88729,1.10E-02,1.12E-02
88730,8.79E-03,1.12E-02
88731,7.54E-03,1.16E-02
88732,7.52E-03,1.16E-02
88733,7.47E-03,1.16E-02
88734,7.29E-03,1.50E-02
88735,7.43E-03,1.49E-02
88736,8.17E-03,1.49E-02
88737,9.71E-03,1.49E-02
88738,9.81E-03,1.49E-02
88739,9.97E-03,1.48E-02
88740,9.94E-03,1.48E-02
88741,1.02E-02,1.48E-02
88742,7.26E-03,1.47E-02
88743,7.08E-03,1.46E-02
88744,7.09E-03,1.45E-02
88745,7.54E-03,1.45E-02
88746,8.64E-03,1.54E-02
88747,9.20E-03,1.54E-02
88748,9.59E-03,1.55E-02
88749,9.47E-03,1.56E-02
88750,9.47E-03,1.56E-02
88751,9.43E-03,1.57E-02
88752,8.99E-03,1.57E-02
88753,9.08E-03,1.58E-02
88754,9.29E-03,1.58E-02
88755,9.11E-03,1.16E-02
88756,9.82E-03,1.16E-02
88757,1.00E-02,1.16E-02
88758,9.97E-03,1.16E-02
88759,9.66E-03,1.16E-02
88760,9.48E-03,1.16E-02
88761,8.68E-03,1.16E-02
88762,7.11E-03,1.16E-02
88763,7.10E-03,1.16E-02
88764,6.89E-03,1.16E-02
88765,6.69E-03,1.16E-02
88766,6.46E-03,1.16E-02
88767,6.39E-03,1.16E-02
88768,6.34E-03,1.16E-02
88769,6.22E-03,1.16E-02
88770,6.53E-03,1.17E-02
88771,5.90E-03,1.17E-02
88772,4.71E-03,1.17E-02
88773,4.68E-03,1.17E-02
88774,4.83E-03,1.17E-02
88775,5.38E-03,1.16E-02
88776,5.87E-03,1.16E-02
88777,6.13E-03,1.16E-02
88778,6.79E-03,1.09E-02
88779,7.12E-03,1.08E-02
88780,5.66E-03,1.08E-02
88781,6.33E-03,1.07E-02
88782,5.88E-03,1.07E-02
88783,8.72E-03,1.57E-02
88784,9.36E-03,1.56E-02
88785,1.04E-02,1.55E-02
88786,1.03E-02,1.55E-02
88787,1.02E-02,1.54E-02
88788,1.01E-02,1.53E-02
88789,9.89E-03,1.52E-02
88790,9.76E-03,1.51E-02
88791,9.66E-03,1.50E-02
88792,9.75E-03,1.50E-02
88793,9.88E-03,1.49E-02
88794,9.93E-03,1.47E-02
88795,9.90E-03,1.46E-02
88796,9.87E-03,1.45E-02
88797,9.93E-03,1.44E-02
88798,9.08E-03,1.43E-02
88799,6.93E-03,1.16E-02
88800,7.43E-03,1.16E-02
88801,8.15E-03,1.53E-02
88802,8.16E-03,1.54E-02
88803,9.76E-03,1.13E-02
88804,7.31E-03,1.16E-02
88805,7.32E-03,1.33E-02
88806,1.10E-02,1.33E-02
88807,9.06E-03,1.33E-02
88808,9.18E-03,1.33E-02
88809,9.21E-03,1.33E-02
88810,9.40E-03,1.33E-02
88811,9.51E-03,1.34E-02
88812,9.76E-03,1.34E-02
88813,9.92E-03,1.34E-02
88814,1.03E-02,1.34E-02
88815,1.06E-02,1.34E-02
88816,1.08E-02,1.34E-02
88817,1.09E-02,1.35E-02
88818,8.67E-03,1.35E-02
88819,8.97E-03,1.35E-02
88820,5.16E-03,1.35E-02
88821,5.16E-03,1.35E-02
88822,5.04E-03,1.35E-02
88823,4.98E-03,1.35E-02
88824,5.85E-03,1.35E-02
88825,5.88E-03,1.35E-02
88826,6.02E-03,1.36E-02
88827,6.49E-03,1.36E-02
88828,6.65E-03,1.36E-02
88829,6.88E-03,1.36E-02
88830,7.09E-03,1.36E-02
88831,7.23E-03,1.37E-02
88832,7.40E-03,1.37E-02
88833,7.62E-03,1.37E-02
88834,7.67E-03,1.37E-02
88835,7.82E-03,1.38E-02
88836,8.02E-03,1.38E-02
88837,8.77E-03,1.38E-02
88838,8.93E-03,1.38E-02
88839,9.16E-03,1.39E-02
88840,9.36E-03,1.39E-02
88841,9.35E-03,1.40E-02
88842,9.21E-03,1.40E-02
88843,9.05E-03,1.40E-02
88844,8.87E-03,1.41E-02
88845,5.31E-03,1.07E-02
88846,5.65E-03,1.07E-02
88847,6.41E-03,1.06E-02
88848,8.66E-03,1.20E-02
88849,8.82E-03,1.30E-02
88850,7.09E-03,1.53E-02
88851,7.59E-03,1.55E-02
88852,6.79E-03,1.53E-02
88853,5.55E-03,1.13E-02
88854,6.40E-03,1.05E-02
88855,5.15E-03,1.05E-02
88856,5.08E-03,1.04E-02
88857,7.62E-03,1.58E-02
88858,6.91E-03,1.16E-02
88859,7.84E-03,1.54E-02
88860,7.18E-03,1.47E-02
88861,8.06E-03,1.08E-02
88862,8.34E-03,1.08E-02
88863,9.06E-03,1.08E-02
88864,6.57E-03,1.53E-02
88865,8.55E-03,1.47E-02
88866,8.41E-03,1.46E-02
88867,7.64E-03,1.47E-02
88868,6.52E-03,1.46E-02
88869,7.22E-03,1.29E-02
88870,7.17E-03,1.32E-02
88871,7.60E-03,1.10E-02
88872,7.75E-03,1.10E-02
88873,6.97E-03,1.10E-02
88874,7.56E-03,1.46E-02
88875,8.20E-03,1.46E-02
88876,8.52E-03,1.46E-02
88877,8.34E-03,1.46E-02
88878,7.98E-03,1.47E-02
88879,5.77E-03,1.19E-02
88880,8.22E-03,1.30E-02
88881,6.14E-03,1.49E-02
88882,6.90E-03,1.08E-02
88883,7.18E-03,1.48E-02
88884,7.67E-03,1.49E-02
88885,7.94E-03,1.47E-02
88886,5.81E-03,1.13E-02
88887,6.86E-03,1.40E-02
88888,6.93E-03,1.39E-02
88889,7.16E-03,1.39E-02
88890,7.75E-03,1.48E-02
88891,8.45E-03,1.13E-02
88892,7.79E-03,1.12E-02
88893,7.86E-03,1.47E-02
88894,9.08E-03,1.25E-02
88895,8.63E-03,1.25E-02
88896,8.60E-03,1.24E-02
88897,8.49E-03,1.09E-02
88898,7.03E-03,1.08E-02
88899,7.51E-03,1.09E-02
88900,7.11E-03,1.09E-02
88901,6.83E-03,1.09E-02
88902,5.89E-03,1.11E-02
88903,5.65E-03,1.11E-02
88904,6.36E-03,1.12E-02
88905,1.10E-02,1.49E-02
88906,6.80E-03,1.49E-02
88907,7.22E-03,1.41E-02
88908,8.25E-03,1.26E-02
88909,8.63E-03,1.26E-02
88910,7.46E-03,1.27E-02
88911,6.43E-03,1.06E-02
88912,7.26E-03,1.07E-02
88913,3.46E-03,1.12E-02
88914,5.57E-03,1.49E-02
88915,8.14E-03,1.49E-02
88916,6.97E-03,1.38E-02
88917,7.33E-03,1.14E-02
88918,7.36E-03,1.13E-02
88919,7.31E-03,1.51E-02
88920,7.28E-03,1.52E-02
88921,7.60E-03,1.53E-02
88922,7.40E-03,1.53E-02
88923,7.02E-03,1.54E-02
88924,6.69E-03,1.54E-02
88925,6.35E-03,1.53E-02
88926,6.19E-03,1.53E-02
88927,6.13E-03,1.53E-02
88928,6.08E-03,1.53E-02
88929,6.11E-03,1.54E-02
88930,6.11E-03,1.54E-02
88931,6.44E-03,1.54E-02
88932,6.50E-03,1.54E-02
88933,7.49E-03,1.53E-02
88934,7.60E-03,1.53E-02
88935,5.79E-03,1.54E-02
88936,7.19E-03,1.53E-02
88937,9.24E-03,1.53E-02
88938,7.09E-03,1.52E-02
88939,5.25E-03,1.61E-02
88940,8.37E-03,1.28E-02
88941,8.13E-03,1.30E-02
88942,8.23E-03,1.27E-02
88943,7.92E-03,1.37E-02
88944,8.08E-03,1.34E-02
88945,8.59E-03,1.17E-02
88946,8.52E-03,1.15E-02
88947,5.61E-03,1.16E-02
88948,8.55E-03,1.49E-02
88949,8.35E-03,1.44E-02
88950,8.25E-03,1.46E-02
88951,7.06E-03,1.09E-02
88952,8.02E-03,1.11E-02
88953,7.77E-03,1.10E-02
88954,8.23E-03,1.33E-02
88955,8.10E-03,1.33E-02
88956,8.23E-03,1.34E-02
88957,8.10E-03,1.34E-02
88958,7.15E-03,1.31E-02
88959,7.35E-03,1.28E-02
88960,7.51E-03,1.28E-02
88961,7.41E-03,1.29E-02
88962,7.73E-03,1.45E-02
88963,7.07E-03,1.45E-02
88964,6.16E-03,1.55E-02
88965,8.24E-03,1.51E-02
88966,8.28E-03,1.52E-02
88967,6.40E-03,1.49E-02
88968,6.13E-03,1.50E-02
88969,8.98E-03,1.09E-02
88970,9.30E-03,1.08E-02
88971,6.84E-03,1.09E-02
88972,6.96E-03,1.09E-02
88973,7.59E-03,1.08E-02
88974,7.87E-03,1.08E-02
88975,8.05E-03,1.07E-02
88976,8.09E-03,1.11E-02
88977,8.38E-03,1.11E-02
88978,9.10E-03,1.11E-02
88979,1.09E-02,1.11E-02
88980,9.68E-03,1.11E-02
88981,6.85E-03,1.11E-02
88982,9.56E-03,1.10E-02
88983,1.01E-02,1.10E-02
88984,8.09E-03,1.14E-02
88985,7.99E-03,1.13E-02
88986,6.78E-03,1.52E-02
88987,6.25E-03,1.54E-02
88988,6.80E-03,1.49E-02
88989,7.51E-03,1.54E-02
88990,6.66E-03,1.14E-02
88991,7.55E-03,1.32E-02
88992,7.52E-03,1.32E-02
88993,5.20E-03,1.07E-02
88994,4.47E-03,1.08E-02
88995,4.66E-03,1.07E-02
88996,7.36E-03,1.07E-02
88997,6.29E-03,1.07E-02
88998,8.26E-03,1.04E-02
88999,7.61E-03,1.59E-02
89000,8.59E-03,1.04E-02
89001,6.86E-03,1.04E-02
89002,4.81E-03,1.11E-02
89003,7.50E-03,1.54E-02
89004,6.55E-03,1.07E-02
89005,6.85E-03,1.07E-02
89006,5.48E-03,1.55E-02
89007,8.59E-03,1.56E-02
89008,7.01E-03,1.08E-02
89009,6.81E-03,1.08E-02
89010,4.99E-03,1.07E-02
89011,6.23E-03,1.07E-02
89012,5.82E-03,1.07E-02
89013,7.92E-03,1.53E-02
89014,7.81E-03,1.56E-02
89015,1.20E-02,1.48E-02
89016,6.89E-03,1.43E-02
89017,9.13E-03,1.44E-02
89018,4.93E-03,1.61E-02
89019,8.83E-03,1.25E-02
89020,8.22E-03,1.23E-02
89021,8.36E-03,1.31E-02
89022,8.28E-03,1.13E-02
89023,8.66E-03,1.21E-02
89024,8.47E-03,1.20E-02
89025,6.78E-03,1.18E-02
89026,4.89E-03,1.13E-02
89027,7.44E-03,1.51E-02
89028,7.16E-03,1.08E-02
89029,4.67E-03,1.57E-02
89030,7.48E-03,1.53E-02
89031,7.74E-03,1.53E-02
89032,6.48E-03,1.09E-02
89033,7.99E-03,1.11E-02
89034,4.86E-03,1.56E-02
89035,7.62E-03,1.12E-02
89036,8.27E-03,1.20E-02
89037,7.63E-03,1.10E-02
89038,7.78E-03,1.11E-02
89039,7.36E-03,1.13E-02
89040,5.08E-03,1.12E-02
89041,8.09E-03,1.20E-02
89042,7.52E-03,1.21E-02
89043,7.62E-03,1.19E-02
89044,8.46E-03,1.18E-02
89045,7.23E-03,1.31E-02
89046,7.25E-03,1.31E-02
89047,6.43E-03,1.06E-02
89048,6.41E-03,1.15E-02
89049,6.93E-03,1.16E-02
89050,5.82E-03,1.06E-02
89051,7.62E-03,1.16E-02
89052,7.51E-03,1.48E-02
89053,8.33E-03,1.48E-02
89054,7.12E-03,1.60E-02
89055,9.19E-03,1.04E-02
89056,8.40E-03,1.24E-02
89057,7.91E-03,1.48E-02
89058,8.61E-03,1.50E-02
89059,9.36E-03,1.52E-02
89060,9.87E-03,1.22E-02
89061,7.89E-03,1.39E-02
89062,9.75E-03,1.04E-02
89063,6.32E-03,1.42E-02
89064,7.93E-03,1.41E-02
89065,8.30E-03,1.39E-02
89066,1.02E-02,1.51E-02
89067,7.07E-03,1.14E-02
89068,7.90E-03,1.09E-02
89069,1.12E-02,1.09E-02
89070,9.30E-03,1.09E-02
89071,1.18E-02,1.09E-02
89072,1.03E-02,1.10E-02
89073,6.57E-03,1.10E-02
89074,6.45E-03,1.10E-02
89075,6.14E-03,1.10E-02
89076,5.91E-03,1.10E-02
89077,5.68E-03,1.10E-02
89078,5.60E-03,1.10E-02
89079,1.01E-02,1.10E-02
89080,8.22E-03,1.30E-02
89081,7.45E-03,1.38E-02
89082,9.05E-03,1.17E-02
89083,9.87E-03,1.17E-02
89084,1.11E-02,1.17E-02
89085,1.14E-02,1.17E-02
89086,8.90E-03,1.18E-02
89087,7.19E-03,1.18E-02
89088,6.33E-03,1.18E-02
89089,5.96E-03,1.18E-02
89090,5.70E-03,1.18E-02
89091,5.01E-03,1.18E-02
89092,4.72E-03,1.18E-02
89093,4.44E-03,1.18E-02
89094,4.14E-03,1.18E-02
89095,3.93E-03,1.18E-02
89096,4.17E-03,1.19E-02
89097,4.92E-03,1.19E-02
89098,5.15E-03,1.19E-02
89099,5.40E-03,1.19E-02
89100,6.11E-03,1.19E-02
89101,6.60E-03,1.20E-02
89102,7.65E-03,1.20E-02
89103,9.24E-03,1.24E-02
89104,9.43E-03,1.24E-02
89105,9.65E-03,1.24E-02
89106,1.01E-02,1.24E-02
89107,1.01E-02,1.24E-02
89108,9.95E-03,1.24E-02
89109,9.57E-03,1.24E-02
89110,9.42E-03,1.23E-02
89111,9.37E-03,1.23E-02
89112,9.18E-03,1.23E-02
89113,8.94E-03,1.23E-02
89114,8.60E-03,1.22E-02
89115,8.55E-03,1.22E-02
89116,8.47E-03,1.22E-02
89117,8.42E-03,1.22E-02
89118,8.21E-03,1.21E-02
89119,7.76E-03,1.21E-02
89120,7.46E-03,1.21E-02
89121,7.36E-03,1.21E-02
89122,7.22E-03,1.21E-02
89123,7.14E-03,1.20E-02
89124,7.15E-03,1.20E-02
89125,7.18E-03,1.20E-02
89126,7.01E-03,1.20E-02
89127,6.88E-03,1.20E-02
89128,6.75E-03,1.20E-02
89129,6.63E-03,1.19E-02
89130,6.59E-03,1.19E-02
89131,6.48E-03,1.19E-02
89132,6.26E-03,1.19E-02
89133,6.05E-03,1.19E-02
89134,5.86E-03,1.19E-02
89135,6.08E-03,1.19E-02
89136,6.35E-03,1.19E-02
89137,6.28E-03,1.19E-02
89138,6.30E-03,1.19E-02
89139,6.09E-03,1.19E-02
89140,5.43E-03,1.19E-02
89141,5.44E-03,1.19E-02
89142,5.67E-03,1.19E-02
89143,5.66E-03,1.19E-02
89144,5.98E-03,1.19E-02
89145,6.01E-03,1.19E-02
89146,8.27E-03,1.47E-02
89147,8.34E-03,1.48E-02
89148,8.13E-03,1.34E-02
89149,8.14E-03,1.34E-02
89150,8.14E-03,1.34E-02
89151,8.14E-03,1.34E-02
89152,8.14E-03,1.34E-02
89153,8.14E-03,1.34E-02
89154,8.16E-03,1.34E-02
89155,8.17E-03,1.34E-02
89156,8.17E-03,1.34E-02
89157,8.18E-03,1.34E-02
89158,8.18E-03,1.34E-02
89159,8.19E-03,1.34E-02
89160,8.19E-03,1.35E-02
89161,8.20E-03,1.35E-02
89162,8.20E-03,1.35E-02
89163,8.21E-03,1.35E-02
89164,8.21E-03,1.35E-02
89165,8.22E-03,1.35E-02
89166,8.23E-03,1.35E-02
89167,8.24E-03,1.35E-02
89168,8.25E-03,1.35E-02
89169,8.26E-03,1.35E-02
89170,8.27E-03,1.36E-02
89171,8.28E-03,1.36E-02
89172,8.30E-03,1.36E-02
89173,8.31E-03,1.36E-02
89174,8.33E-03,1.36E-02
89175,8.35E-03,1.36E-02
89176,8.38E-03,1.36E-02
89177,8.40E-03,1.36E-02
89178,8.44E-03,1.37E-02
89179,8.49E-03,1.37E-02
89180,8.55E-03,1.37E-02
89181,8.61E-03,1.37E-02
89182,8.67E-03,1.37E-02
89183,8.76E-03,1.37E-02
89184,8.86E-03,1.37E-02
89185,9.00E-03,1.38E-02
89186,9.17E-03,1.38E-02
89187,9.42E-03,1.38E-02
89188,9.78E-03,1.38E-02
89189,1.03E-02,1.38E-02
89190,1.12E-02,1.39E-02
89191,1.09E-02,1.39E-02
89192,7.31E-03,1.39E-02
89193,5.92E-03,1.39E-02
89194,6.11E-03,1.39E-02
89195,6.55E-03,1.39E-02
89196,6.66E-03,1.40E-02
89197,6.92E-03,1.40E-02
89198,7.17E-03,1.40E-02
89199,7.29E-03,1.40E-02
89200,7.39E-03,1.40E-02
89201,7.47E-03,1.40E-02
89202,7.53E-03,1.40E-02
89203,7.59E-03,1.40E-02
89204,7.63E-03,1.41E-02
89205,7.67E-03,1.41E-02
89206,7.70E-03,1.41E-02
89207,7.73E-03,1.41E-02
89208,7.76E-03,1.41E-02
89209,7.78E-03,1.41E-02
89210,7.80E-03,1.41E-02
89211,7.82E-03,1.41E-02
89212,7.84E-03,1.42E-02
89213,7.85E-03,1.42E-02
89214,7.86E-03,1.42E-02
89215,7.88E-03,1.42E-02
89216,7.89E-03,1.42E-02
89217,7.90E-03,1.42E-02
89218,7.89E-03,1.42E-02
89219,7.87E-03,1.42E-02
89220,7.89E-03,1.42E-02
89221,7.93E-03,1.42E-02
89222,7.95E-03,1.42E-02
89223,7.97E-03,1.42E-02
89224,7.99E-03,1.42E-02
89225,8.00E-03,1.43E-02
89226,8.01E-03,1.43E-02
89227,8.02E-03,1.43E-02
89228,8.02E-03,1.43E-02
89229,8.10E-03,1.43E-02
89230,8.21E-03,1.43E-02
89231,8.26E-03,1.43E-02
89232,8.27E-03,1.43E-02
89233,8.28E-03,1.43E-02
89234,8.29E-03,1.43E-02
89235,8.30E-03,1.43E-02
89236,8.32E-03,1.43E-02
89237,8.33E-03,1.43E-02
89238,8.35E-03,1.43E-02
89239,8.37E-03,1.43E-02
89240,8.40E-03,1.43E-02
89241,8.43E-03,1.43E-02
89242,8.46E-03,1.43E-02
89243,8.50E-03,1.43E-02
89244,8.54E-03,1.43E-02
89245,8.66E-03,1.43E-02
89246,8.75E-03,1.43E-02
89247,8.99E-03,1.43E-02
89248,9.04E-03,1.44E-02
89249,9.23E-03,1.44E-02
89250,9.49E-03,1.44E-02
89251,1.04E-02,1.44E-02
89252,7.46E-03,1.25E-02
89253,6.92E-03,1.25E-02
89254,6.86E-03,1.24E-02
89255,6.74E-03,1.24E-02
89256,6.93E-03,1.24E-02
89257,7.00E-03,1.23E-02
89258,7.14E-03,1.23E-02
89259,7.36E-03,1.22E-02
89260,7.45E-03,1.22E-02
89261,7.52E-03,1.22E-02
89262,7.58E-03,1.21E-02
89263,7.63E-03,1.21E-02
89264,7.67E-03,1.20E-02
89265,7.71E-03,1.20E-02
89266,7.75E-03,1.20E-02
89267,7.83E-03,1.19E-02
89268,7.88E-03,1.19E-02
89269,7.88E-03,1.18E-02
89270,7.87E-03,1.18E-02
89271,7.86E-03,1.17E-02
89272,7.85E-03,1.17E-02
89273,7.84E-03,1.17E-02
89274,7.83E-03,1.16E-02
89275,7.82E-03,1.16E-02
89276,7.81E-03,1.15E-02
89277,7.80E-03,1.15E-02
89278,7.79E-03,1.15E-02
89279,7.77E-03,1.14E-02
89280,7.76E-03,1.14E-02
89281,7.74E-03,1.14E-02
89282,7.73E-03,1.13E-02
89283,7.71E-03,1.13E-02
89284,7.69E-03,1.12E-02
89285,7.63E-03,1.12E-02
89286,7.48E-03,1.12E-02
89287,7.39E-03,1.11E-02
89288,7.20E-03,1.11E-02
89289,6.42E-03,1.11E-02
89290,6.27E-03,1.11E-02
89291,1.09E-02,1.12E-02
89292,8.29E-03,1.12E-02
89293,6.51E-03,1.12E-02
89294,7.65E-03,1.12E-02
89295,6.49E-03,1.11E-02
89296,8.13E-03,1.33E-02
89297,8.15E-03,1.33E-02
89298,8.15E-03,1.33E-02
89299,8.15E-03,1.33E-02
89300,8.15E-03,1.33E-02
89301,8.15E-03,1.33E-02
89302,8.15E-03,1.33E-02
89303,8.16E-03,1.33E-02
89304,8.16E-03,1.33E-02
89305,8.16E-03,1.33E-02
89306,8.16E-03,1.33E-02
89307,8.16E-03,1.32E-02
89308,8.16E-03,1.32E-02
89309,8.16E-03,1.32E-02
89310,8.17E-03,1.32E-02
89311,8.17E-03,1.32E-02
89312,8.17E-03,1.32E-02
89313,8.17E-03,1.32E-02
89314,8.17E-03,1.32E-02
89315,8.17E-03,1.32E-02
89316,8.17E-03,1.32E-02
89317,8.18E-03,1.32E-02
89318,8.18E-03,1.32E-02
89319,8.18E-03,1.32E-02
89320,8.19E-03,1.32E-02
89321,8.19E-03,1.32E-02
89322,8.20E-03,1.32E-02
89323,8.20E-03,1.31E-02
89324,8.21E-03,1.31E-02
89325,8.21E-03,1.31E-02
89326,8.22E-03,1.31E-02
89327,8.23E-03,1.31E-02
89328,8.24E-03,1.31E-02
89329,8.24E-03,1.31E-02
89330,8.25E-03,1.31E-02
89331,8.26E-03,1.31E-02
89332,8.27E-03,1.31E-02
89333,8.28E-03,1.31E-02
89334,8.29E-03,1.31E-02
89335,8.30E-03,1.31E-02
89336,8.31E-03,1.31E-02
89337,8.32E-03,1.31E-02
89338,8.34E-03,1.31E-02
89339,8.35E-03,1.31E-02
89340,8.37E-03,1.31E-02
89341,8.39E-03,1.31E-02
89342,8.42E-03,1.31E-02
89343,8.44E-03,1.31E-02
89344,8.47E-03,1.31E-02
89345,8.51E-03,1.31E-02
89346,8.54E-03,1.31E-02
89347,8.59E-03,1.31E-02
89348,8.64E-03,1.31E-02
89349,8.71E-03,1.31E-02
89350,8.78E-03,1.31E-02
89351,8.97E-03,1.31E-02
89352,9.03E-03,1.31E-02
89353,9.21E-03,1.31E-02
89354,9.48E-03,1.31E-02
89355,9.65E-03,1.32E-02
89356,9.78E-03,1.32E-02
89357,1.03E-02,1.32E-02
89358,7.27E-03,1.30E-02
89359,7.75E-03,1.30E-02
89360,9.57E-03,1.30E-02
89361,9.69E-03,1.31E-02
89362,1.11E-02,1.32E-02
89363,1.09E-02,1.32E-02
89364,1.03E-02,1.33E-02
89365,9.80E-03,1.34E-02
89366,9.65E-03,1.34E-02
89367,9.34E-03,1.35E-02
89368,9.16E-03,1.36E-02
89369,9.02E-03,1.36E-02
89370,8.80E-03,1.37E-02
89371,8.69E-03,1.37E-02
89372,8.83E-03,1.38E-02
89373,9.16E-03,1.39E-02
89374,9.37E-03,1.39E-02
89375,8.57E-03,1.40E-02
89376,7.72E-03,1.40E-02
89377,7.66E-03,1.41E-02
89378,7.67E-03,1.41E-02
89379,7.66E-03,1.42E-02
89380,7.66E-03,1.42E-02
89381,7.74E-03,1.43E-02
89382,7.65E-03,1.44E-02
89383,7.64E-03,1.44E-02
89384,7.59E-03,1.45E-02
89385,8.33E-03,1.47E-02
89386,1.04E-02,1.47E-02
89387,1.03E-02,1.46E-02
89388,1.03E-02,1.46E-02
89389,1.03E-02,1.46E-02
89390,9.81E-03,1.46E-02
89391,9.64E-03,1.46E-02
89392,9.54E-03,1.46E-02
89393,9.40E-03,1.46E-02
89394,9.19E-03,1.47E-02
89395,9.02E-03,1.47E-02
89396,9.04E-03,1.47E-02
89397,9.05E-03,1.47E-02
89398,9.01E-03,1.47E-02
89399,8.95E-03,1.47E-02
89400,8.87E-03,1.47E-02
89401,8.79E-03,1.48E-02
89402,8.73E-03,1.48E-02
89403,8.68E-03,1.48E-02
89404,8.63E-03,1.48E-02
89405,8.59E-03,1.48E-02
89406,8.55E-03,1.49E-02
89407,8.52E-03,1.49E-02
89408,8.49E-03,1.49E-02
89409,8.47E-03,1.49E-02
89410,8.45E-03,1.50E-02
89411,8.42E-03,1.50E-02
89412,8.41E-03,1.50E-02
89413,8.39E-03,1.50E-02
89414,8.37E-03,1.50E-02
89415,8.36E-03,1.51E-02
89416,8.34E-03,1.51E-02
89417,8.33E-03,1.51E-02
89418,8.32E-03,1.51E-02
89419,8.31E-03,1.51E-02
89420,8.29E-03,1.51E-02
89421,8.28E-03,1.52E-02
89422,8.27E-03,1.52E-02
89423,8.27E-03,1.52E-02
89424,8.26E-03,1.52E-02
89425,8.25E-03,1.52E-02
89426,8.22E-03,1.52E-02
89427,8.10E-03,1.53E-02
89428,8.01E-03,1.53E-02
89429,7.98E-03,1.53E-02
89430,7.96E-03,1.53E-02
89431,7.92E-03,1.53E-02
89432,7.86E-03,1.53E-02
89433,7.75E-03,1.53E-02
89434,7.60E-03,1.53E-02
89435,7.60E-03,1.53E-02
89436,7.66E-03,1.53E-02
89437,7.62E-03,1.53E-02
89438,7.58E-03,1.53E-02
89439,7.53E-03,1.53E-02
89440,7.47E-03,1.53E-02
89441,7.39E-03,1.53E-02
89442,7.30E-03,1.53E-02
89443,7.19E-03,1.53E-02
89444,7.06E-03,1.53E-02
89445,7.00E-03,1.53E-02
89446,6.84E-03,1.53E-02
89447,7.75E-03,1.51E-02
89448,7.27E-03,1.50E-02
89449,7.71E-03,1.50E-02
89450,6.26E-03,1.24E-02
89451,1.00E-02,1.24E-02
89452,9.98E-03,1.24E-02
89453,9.90E-03,1.24E-02
89454,9.47E-03,1.24E-02
89455,8.07E-03,1.24E-02
89456,8.47E-03,1.23E-02
89457,8.52E-03,1.23E-02
89458,8.45E-03,1.23E-02
89459,8.34E-03,1.23E-02
89460,8.21E-03,1.22E-02
89461,7.66E-03,1.22E-02
89462,7.54E-03,1.22E-02
89463,1.08E-02,1.09E-02
89464,1.15E-02,1.09E-02
89465,1.07E-02,1.08E-02
89466,8.04E-03,1.08E-02
89467,7.91E-03,1.08E-02
89468,6.67E-03,1.07E-02
89469,9.09E-03,1.08E-02
89470,6.59E-03,1.09E-02
89471,5.33E-03,1.09E-02
89472,5.34E-03,1.08E-02
89473,5.56E-03,1.08E-02
89474,6.00E-03,1.08E-02
89475,6.46E-03,1.08E-02
89476,7.35E-03,1.08E-02
89477,7.99E-03,1.08E-02
89478,8.04E-03,1.08E-02
89479,7.94E-03,1.08E-02
89480,8.79E-03,1.08E-02
89481,6.66E-03,1.12E-02
89482,6.19E-03,1.12E-02
89483,6.35E-03,1.11E-02
89484,6.25E-03,1.11E-02
89485,7.47E-03,1.11E-02
89486,8.20E-03,1.10E-02
89487,9.30E-03,1.11E-02
89488,8.82E-03,1.10E-02
89489,7.42E-03,1.14E-02
89490,7.41E-03,1.14E-02
89491,7.35E-03,1.14E-02
89492,7.06E-03,1.52E-02
89493,7.30E-03,1.51E-02
89494,8.11E-03,1.51E-02
89495,9.56E-03,1.51E-02
89496,1.00E-02,1.51E-02
89497,1.01E-02,1.50E-02
89498,9.99E-03,1.50E-02
89499,1.02E-02,1.50E-02
89500,7.11E-03,1.49E-02
89501,6.58E-03,1.49E-02
89502,6.85E-03,1.48E-02
89503,6.26E-03,1.48E-02
89504,7.43E-03,1.42E-02
89505,6.96E-03,1.28E-02
89506,7.04E-03,1.27E-02
89507,6.27E-03,1.61E-02
89508,6.98E-03,1.61E-02
89509,8.73E-03,1.60E-02
89510,8.35E-03,1.54E-02
89511,9.34E-03,1.55E-02
89512,9.69E-03,1.55E-02
89513,9.61E-03,1.56E-02
89514,9.51E-03,1.57E-02
89515,9.33E-03,1.57E-02
89516,9.22E-03,1.58E-02
89517,9.08E-03,1.58E-02
89518,9.23E-03,1.59E-02
89519,9.65E-03,1.60E-02
89520,9.55E-03,1.14E-02
89521,9.75E-03,1.14E-02
89522,9.83E-03,1.14E-02
89523,9.87E-03,1.15E-02
89524,9.71E-03,1.15E-02
89525,9.28E-03,1.15E-02
89526,8.69E-03,1.15E-02
89527,7.09E-03,1.15E-02
89528,7.10E-03,1.14E-02
89529,6.85E-03,1.14E-02
89530,6.72E-03,1.14E-02
89531,6.49E-03,1.14E-02
89532,6.47E-03,1.14E-02
89533,6.43E-03,1.14E-02
89534,6.41E-03,1.14E-02
89535,6.52E-03,1.15E-02
89536,5.71E-03,1.15E-02
89537,5.01E-03,1.15E-02
89538,4.67E-03,1.15E-02
89539,5.04E-03,1.15E-02
89540,5.73E-03,1.15E-02
89541,6.19E-03,1.15E-02
89542,6.36E-03,1.15E-02
89543,7.26E-03,1.32E-02
89544,1.09E-02,1.32E-02
89545,9.04E-03,1.32E-02
89546,9.16E-03,1.33E-02
89547,9.25E-03,1.33E-02
89548,9.38E-03,1.33E-02
89549,9.50E-03,1.33E-02
89550,9.68E-03,1.33E-02
89551,9.91E-03,1.33E-02
89552,1.02E-02,1.33E-02
89553,1.04E-02,1.33E-02
89554,1.07E-02,1.34E-02
89555,1.09E-02,1.34E-02
89556,8.87E-03,1.34E-02
89557,8.82E-03,1.34E-02
89558,4.61E-03,1.34E-02
89559,5.08E-03,1.34E-02
89560,5.04E-03,1.34E-02
89561,4.98E-03,1.34E-02
89562,5.94E-03,1.34E-02
89563,5.95E-03,1.35E-02
89564,6.13E-03,1.35E-02
89565,6.40E-03,1.35E-02
89566,6.76E-03,1.35E-02
89567,6.91E-03,1.35E-02
89568,7.11E-03,1.35E-02
89569,7.25E-03,1.36E-02
89570,7.42E-03,1.36E-02
89571,7.57E-03,1.36E-02
89572,7.62E-03,1.36E-02
89573,7.80E-03,1.37E-02
89574,8.02E-03,1.37E-02
89575,8.99E-03,1.37E-02
89576,9.19E-03,1.37E-02
89577,9.08E-03,1.38E-02
89578,8.99E-03,1.38E-02
89579,9.04E-03,1.38E-02
89580,8.95E-03,1.39E-02
89581,8.92E-03,1.39E-02
89582,8.82E-03,1.39E-02
89583,8.55E-03,1.40E-02
89584,6.22E-03,1.08E-02
89585,7.24E-03,1.05E-02
89586,7.00E-03,1.07E-02
89587,6.76E-03,1.07E-02
89588,6.81E-03,1.06E-02
89589,6.90E-03,1.06E-02
89590,7.85E-03,1.57E-02
89591,9.98E-03,1.57E-02
89592,1.02E-02,1.56E-02
89593,1.03E-02,1.55E-02
89594,1.01E-02,1.54E-02
89595,1.01E-02,1.53E-02
89596,9.89E-03,1.53E-02
89597,9.75E-03,1.52E-02
89598,9.63E-03,1.51E-02
89599,9.72E-03,1.50E-02
89600,9.84E-03,1.49E-02
89601,9.98E-03,1.48E-02
89602,1.00E-02,1.47E-02
89603,1.00E-02,1.46E-02
89604,9.95E-03,1.44E-02
89605,9.50E-03,1.43E-02
89606,9.72E-03,1.42E-02
89607,7.14E-03,1.13E-02
89608,4.32E-03,1.11E-02
89609,5.58E-03,1.13E-02
89610,6.83E-03,1.13E-02
89611,6.42E-03,1.13E-02
89612,6.42E-03,1.06E-02
89613,6.11E-03,1.05E-02
89614,6.38E-03,1.05E-02
89615,6.49E-03,1.06E-02
89616,7.85E-03,1.09E-02
89617,9.27E-03,1.09E-02
89618,7.92E-03,1.09E-02
89619,7.87E-03,1.58E-02
89620,7.31E-03,1.56E-02
89621,7.71E-03,1.09E-02
89622,7.20E-03,1.09E-02
89623,7.71E-03,1.07E-02
89624,9.15E-03,1.07E-02
89625,8.60E-03,1.07E-02
89626,6.24E-03,1.51E-02
89627,6.89E-03,1.50E-02
89628,7.97E-03,1.51E-02
89629,7.77E-03,1.50E-02
89630,7.19E-03,1.07E-02
89631,7.26E-03,1.07E-02
89632,9.64E-03,1.48E-02
89633,8.34E-03,1.48E-02
89634,8.58E-03,1.48E-02
89635,7.44E-03,1.39E-02
89636,6.22E-03,1.35E-02
89637,7.36E-03,1.50E-02
89638,7.76E-03,1.50E-02
89639,7.14E-03,1.37E-02
89640,7.36E-03,1.36E-02
89641,7.18E-03,1.37E-02
89642,7.90E-03,1.50E-02
89643,6.50E-03,1.50E-02
89644,8.83E-03,1.22E-02
89645,8.30E-03,1.22E-02
89646,8.44E-03,1.22E-02
89647,6.84E-03,1.08E-02
89648,6.91E-03,1.08E-02
89649,7.11E-03,1.07E-02
89650,6.07E-03,1.07E-02
89651,7.45E-03,1.08E-02
89652,6.70E-03,1.08E-02
89653,7.16E-03,1.08E-02
89654,6.15E-03,1.10E-02
89655,5.37E-03,1.10E-02
89656,8.24E-03,1.27E-02
89657,8.00E-03,1.25E-02
89658,7.93E-03,1.26E-02
89659,8.29E-03,1.26E-02
89660,7.67E-03,1.55E-02
89661,7.51E-03,1.57E-02
89662,8.39E-03,1.18E-02
89663,8.22E-03,1.19E-02
89664,1.06E-02,1.12E-02
89665,7.51E-03,1.11E-02
89666,7.19E-03,1.11E-02
89667,7.14E-03,1.11E-02
89668,7.32E-03,1.13E-02
89669,6.38E-03,1.47E-02
89670,7.51E-03,1.47E-02
89671,6.66E-03,1.49E-02
89672,7.24E-03,1.51E-02
89673,9.32E-03,1.56E-02
89674,8.09E-03,1.56E-02
89675,7.70E-03,1.56E-02
89676,7.36E-03,1.56E-02
89677,6.91E-03,1.57E-02
89678,7.16E-03,1.57E-02
89679,6.73E-03,1.57E-02
89680,6.48E-03,1.57E-02
89681,6.33E-03,1.57E-02
89682,6.22E-03,1.57E-02
89683,6.13E-03,1.57E-02
89684,6.10E-03,1.57E-02
89685,6.10E-03,1.56E-02
89686,6.13E-03,1.56E-02
89687,6.28E-03,1.56E-02
89688,7.61E-03,1.57E-02
89689,7.60E-03,1.54E-02
89690,7.74E-03,1.55E-02
89691,7.93E-03,1.56E-02
89692,9.24E-03,1.57E-02
89693,7.05E-03,1.49E-02
89694,5.54E-03,1.50E-02
89695,7.71E-03,1.08E-02
89696,1.11E-02,1.08E-02
89697,9.18E-03,1.08E-02
89698,1.17E-02,1.08E-02
89699,9.89E-03,1.08E-02
89700,6.76E-03,1.08E-02
89701,6.37E-03,1.08E-02
89702,6.11E-03,1.08E-02
89703,5.97E-03,1.09E-02
89704,5.58E-03,1.09E-02
89705,5.32E-03,1.09E-02
89706,9.73E-03,1.09E-02
89707,6.38E-03,1.61E-02
89708,5.76E-03,1.61E-02
89709,8.39E-03,1.27E-02
89710,7.62E-03,1.35E-02
89711,8.79E-03,1.15E-02
89712,9.82E-03,1.15E-02
89713,1.13E-02,1.15E-02
89714,1.12E-02,1.15E-02
89715,9.56E-03,1.16E-02
89716,7.00E-03,1.16E-02
89717,6.27E-03,1.16E-02
89718,5.98E-03,1.16E-02
89719,5.61E-03,1.16E-02
89720,5.15E-03,1.16E-02
89721,4.81E-03,1.16E-02
89722,4.25E-03,1.16E-02
89723,4.04E-03,1.16E-02
89724,4.08E-03,1.16E-02
89725,4.33E-03,1.16E-02
89726,5.00E-03,1.17E-02
89727,5.00E-03,1.17E-02
89728,5.40E-03,1.17E-02
89729,6.29E-03,1.17E-02
89730,6.54E-03,1.17E-02
89731,7.44E-03,1.18E-02
89732,9.12E-03,1.22E-02
89733,9.60E-03,1.22E-02
89734,9.79E-03,1.22E-02
89735,1.01E-02,1.22E-02
89736,1.01E-02,1.22E-02
89737,1.00E-02,1.21E-02
89738,9.56E-03,1.21E-02
89739,9.44E-03,1.21E-02
89740,9.36E-03,1.21E-02
89741,9.12E-03,1.20E-02
89742,8.95E-03,1.20E-02
89743,8.61E-03,1.20E-02
89744,8.53E-03,1.20E-02
89745,8.46E-03,1.19E-02
89746,8.41E-03,1.19E-02
89747,8.21E-03,1.19E-02
89748,7.76E-03,1.19E-02
89749,7.47E-03,1.18E-02
89750,7.43E-03,1.18E-02
89751,7.38E-03,1.18E-02
89752,7.33E-03,1.18E-02
89753,7.27E-03,1.18E-02
89754,7.20E-03,1.17E-02
89755,7.03E-03,1.17E-02
89756,6.90E-03,1.17E-02
89757,6.81E-03,1.17E-02
89758,6.72E-03,1.17E-02
89759,6.60E-03,1.17E-02
89760,6.50E-03,1.16E-02
89761,6.34E-03,1.16E-02
89762,6.06E-03,1.16E-02
89763,5.91E-03,1.16E-02
89764,6.13E-03,1.16E-02
89765,6.38E-03,1.16E-02
89766,6.41E-03,1.16E-02
89767,6.33E-03,1.16E-02
89768,6.08E-03,1.16E-02
89769,5.47E-03,1.16E-02
89770,5.45E-03,1.16E-02
89771,5.59E-03,1.16E-02
89772,5.68E-03,1.16E-02
89773,5.78E-03,1.16E-02
89774,5.88E-03,1.16E-02
89775,9.17E-03,1.50E-02
89776,9.31E-03,1.51E-02
89777,8.13E-03,1.34E-02
89778,8.14E-03,1.34E-02
89779,8.14E-03,1.34E-02
89780,8.14E-03,1.35E-02
89781,8.14E-03,1.35E-02
89782,8.14E-03,1.35E-02
89783,8.15E-03,1.35E-02
89784,8.17E-03,1.35E-02
89785,8.17E-03,1.35E-02
89786,8.18E-03,1.35E-02
89787,8.18E-03,1.35E-02
89788,8.18E-03,1.35E-02
89789,8.19E-03,1.35E-02
89790,8.19E-03,1.36E-02
89791,8.20E-03,1.36E-02
89792,8.21E-03,1.36E-02
89793,8.21E-03,1.36E-02
89794,8.22E-03,1.36E-02
89795,8.23E-03,1.36E-02
89796,8.23E-03,1.36E-02
89797,8.24E-03,1.36E-02
89798,8.25E-03,1.36E-02
89799,8.26E-03,1.37E-02
89800,8.28E-03,1.37E-02
89801,8.29E-03,1.37E-02
89802,8.31E-03,1.37E-02
89803,8.32E-03,1.37E-02
89804,8.34E-03,1.37E-02
89805,8.37E-03,1.37E-02
89806,8.39E-03,1.37E-02
89807,8.43E-03,1.38E-02
89808,8.48E-03,1.38E-02
89809,8.54E-03,1.38E-02
89810,8.60E-03,1.38E-02
89811,8.66E-03,1.38E-02
89812,8.74E-03,1.38E-02
89813,8.85E-03,1.39E-02
89814,8.98E-03,1.39E-02
89815,9.15E-03,1.39E-02
89816,9.39E-03,1.39E-02
89817,9.74E-03,1.39E-02
89818,1.03E-02,1.39E-02
89819,1.11E-02,1.40E-02
89820,1.09E-02,1.40E-02
89821,7.66E-03,1.40E-02
89822,5.83E-03,1.40E-02
89823,6.06E-03,1.41E-02
89824,6.45E-03,1.41E-02
89825,6.78E-03,1.41E-02
89826,7.04E-03,1.41E-02
89827,7.19E-03,1.41E-02
89828,7.31E-03,1.41E-02
89829,7.40E-03,1.41E-02
89830,7.48E-03,1.42E-02
89831,7.54E-03,1.42E-02
89832,7.60E-03,1.42E-02
89833,7.64E-03,1.42E-02
89834,7.68E-03,1.42E-02
89835,7.71E-03,1.42E-02
89836,7.74E-03,1.42E-02
89837,7.77E-03,1.43E-02
89838,7.79E-03,1.43E-02
89839,7.81E-03,1.43E-02
89840,7.82E-03,1.43E-02
89841,7.84E-03,1.43E-02
89842,7.85E-03,1.43E-02
89843,7.87E-03,1.43E-02
89844,7.88E-03,1.43E-02
89845,7.89E-03,1.43E-02
89846,7.90E-03,1.44E-02
89847,7.89E-03,1.44E-02
89848,7.87E-03,1.44E-02
89849,7.89E-03,1.44E-02
89850,7.93E-03,1.44E-02
89851,7.95E-03,1.44E-02
89852,7.97E-03,1.44E-02
89853,7.99E-03,1.44E-02
89854,8.00E-03,1.44E-02
89855,8.01E-03,1.44E-02
89856,8.02E-03,1.44E-02
89857,8.02E-03,1.44E-02
89858,8.10E-03,1.44E-02
89859,8.21E-03,1.44E-02
89860,8.25E-03,1.44E-02
89861,8.26E-03,1.44E-02
89862,8.27E-03,1.44E-02
89863,8.28E-03,1.44E-02
89864,8.30E-03,1.45E-02
89865,8.31E-03,1.45E-02
89866,8.33E-03,1.45E-02
89867,8.35E-03,1.45E-02
89868,8.37E-03,1.45E-02
89869,8.39E-03,1.45E-02
89870,8.42E-03,1.45E-02
89871,8.45E-03,1.45E-02
89872,8.49E-03,1.45E-02
89873,8.53E-03,1.45E-02
89874,8.58E-03,1.45E-02
89875,8.70E-03,1.45E-02
89876,8.94E-03,1.45E-02
89877,8.97E-03,1.45E-02
89878,9.15E-03,1.45E-02
89879,9.44E-03,1.46E-02
89880,1.06E-02,1.46E-02
89881,7.84E-03,1.25E-02
89882,7.15E-03,1.24E-02
89883,6.95E-03,1.24E-02
89884,6.79E-03,1.24E-02
89885,6.93E-03,1.23E-02
89886,6.99E-03,1.23E-02
89887,7.15E-03,1.22E-02
89888,7.37E-03,1.22E-02
89889,7.46E-03,1.21E-02
89890,7.53E-03,1.21E-02
89891,7.59E-03,1.21E-02
89892,7.64E-03,1.20E-02
89893,7.68E-03,1.20E-02
89894,7.72E-03,1.19E-02
89895,7.76E-03,1.19E-02
89896,7.84E-03,1.18E-02
89897,7.88E-03,1.18E-02
89898,7.88E-03,1.18E-02
89899,7.87E-03,1.17E-02
89900,7.87E-03,1.17E-02
89901,7.86E-03,1.16E-02
89902,7.85E-03,1.16E-02
89903,7.84E-03,1.16E-02
89904,7.83E-03,1.15E-02
89905,7.82E-03,1.15E-02
89906,7.81E-03,1.14E-02
89907,7.79E-03,1.14E-02
89908,7.78E-03,1.14E-02
89909,7.77E-03,1.13E-02
89910,7.75E-03,1.13E-02
89911,7.73E-03,1.12E-02
89912,7.71E-03,1.12E-02
89913,7.70E-03,1.12E-02
89914,7.67E-03,1.11E-02
89915,7.44E-03,1.11E-02
89916,7.34E-03,1.11E-02
89917,7.16E-03,1.10E-02
89918,6.83E-03,1.10E-02
89919,7.00E-03,1.10E-02
89920,1.16E-02,1.10E-02
89921,8.06E-03,1.10E-02
89922,7.70E-03,1.10E-02
89923,6.66E-03,1.10E-02
89924,8.13E-03,1.34E-02
89925,8.15E-03,1.34E-02
89926,8.15E-03,1.34E-02
89927,8.15E-03,1.34E-02
89928,8.15E-03,1.34E-02
89929,8.15E-03,1.34E-02
89930,8.15E-03,1.33E-02
89931,8.15E-03,1.33E-02
89932,8.16E-03,1.33E-02
89933,8.16E-03,1.33E-02
89934,8.16E-03,1.33E-02
89935,8.16E-03,1.33E-02
89936,8.16E-03,1.33E-02
89937,8.16E-03,1.33E-02
89938,8.16E-03,1.33E-02
89939,8.16E-03,1.33E-02
89940,8.17E-03,1.33E-02
89941,8.17E-03,1.32E-02
89942,8.17E-03,1.32E-02
89943,8.17E-03,1.32E-02
89944,8.17E-03,1.32E-02
89945,8.17E-03,1.32E-02
89946,8.18E-03,1.32E-02
89947,8.18E-03,1.32E-02
89948,8.18E-03,1.32E-02
89949,8.19E-03,1.32E-02
89950,8.19E-03,1.32E-02
89951,8.20E-03,1.32E-02
89952,8.20E-03,1.32E-02
89953,8.21E-03,1.32E-02
89954,8.22E-03,1.31E-02
89955,8.23E-03,1.31E-02
89956,8.24E-03,1.31E-02
89957,8.24E-03,1.31E-02
89958,8.25E-03,1.31E-02
89959,8.25E-03,1.31E-02
89960,8.26E-03,1.31E-02
89961,8.27E-03,1.31E-02
89962,8.28E-03,1.31E-02
89963,8.29E-03,1.31E-02
89964,8.31E-03,1.31E-02
89965,8.32E-03,1.31E-02
89966,8.33E-03,1.31E-02
89967,8.35E-03,1.31E-02
89968,8.37E-03,1.31E-02
89969,8.39E-03,1.31E-02
89970,8.41E-03,1.31E-02
89971,8.44E-03,1.31E-02
89972,8.46E-03,1.31E-02
89973,8.50E-03,1.31E-02
89974,8.53E-03,1.31E-02
89975,8.58E-03,1.31E-02
89976,8.63E-03,1.31E-02
89977,8.69E-03,1.31E-02
89978,8.77E-03,1.31E-02
89979,8.98E-03,1.31E-02
89980,9.02E-03,1.31E-02
89981,9.13E-03,1.31E-02
89982,9.47E-03,1.31E-02
89983,9.73E-03,1.31E-02
89984,9.82E-03,1.31E-02
89985,1.01E-02,1.31E-02
89986,7.63E-03,1.29E-02
89987,8.54E-03,1.30E-02
89988,1.00E-02,1.30E-02
89989,1.02E-02,1.31E-02
89990,1.08E-02,1.31E-02
89991,1.08E-02,1.32E-02
89992,1.03E-02,1.33E-02
89993,9.68E-03,1.33E-02
89994,9.64E-03,1.34E-02
89995,9.33E-03,1.35E-02
89996,9.21E-03,1.35E-02
89997,9.00E-03,1.36E-02
89998,8.79E-03,1.37E-02
89999,8.68E-03,1.37E-02
90000,8.81E-03,1.38E-02
90001,9.14E-03,1.38E-02
90002,9.34E-03,1.39E-02
90003,8.56E-03,1.40E-02
90004,7.72E-03,1.40E-02
90005,7.67E-03,1.41E-02
90006,7.67E-03,1.41E-02
90007,7.67E-03,1.42E-02
90008,7.63E-03,1.42E-02
90009,7.69E-03,1.43E-02
90010,7.60E-03,1.44E-02
90011,7.57E-03,1.44E-02
90012,7.19E-03,1.45E-02
90013,8.42E-03,1.49E-02
90014,1.06E-02,1.49E-02
90015,1.03E-02,1.49E-02
90016,1.04E-02,1.49E-02
90017,1.02E-02,1.49E-02
90018,9.92E-03,1.49E-02
90019,9.77E-03,1.49E-02
90020,9.50E-03,1.49E-02
90021,9.30E-03,1.49E-02
90022,9.26E-03,1.49E-02
90023,9.12E-03,1.49E-02
90024,9.08E-03,1.49E-02
90025,9.03E-03,1.50E-02
90026,9.00E-03,1.50E-02
90027,8.93E-03,1.50E-02
90028,8.85E-03,1.50E-02
90029,8.78E-03,1.50E-02
90030,8.72E-03,1.50E-02
90031,8.67E-03,1.51E-02
90032,8.62E-03,1.51E-02
90033,8.58E-03,1.51E-02
90034,8.55E-03,1.51E-02
90035,8.51E-03,1.51E-02
90036,8.49E-03,1.52E-02
90037,8.46E-03,1.52E-02
90038,8.44E-03,1.52E-02
90039,8.42E-03,1.52E-02
90040,8.40E-03,1.53E-02
90041,8.38E-03,1.53E-02
90042,8.37E-03,1.53E-02
90043,8.35E-03,1.53E-02
90044,8.34E-03,1.53E-02
90045,8.33E-03,1.53E-02
90046,8.32E-03,1.54E-02
90047,8.30E-03,1.54E-02
90048,8.29E-03,1.54E-02
90049,8.28E-03,1.54E-02
90050,8.27E-03,1.54E-02
90051,8.26E-03,1.54E-02
90052,8.26E-03,1.55E-02
90053,8.25E-03,1.55E-02
90054,8.21E-03,1.55E-02
90055,8.10E-03,1.55E-02
90056,8.01E-03,1.55E-02
90057,7.99E-03,1.55E-02
90058,7.96E-03,1.55E-02
90059,7.93E-03,1.55E-02
90060,7.87E-03,1.55E-02
90061,7.76E-03,1.55E-02
90062,7.61E-03,1.56E-02
90063,7.61E-03,1.56E-02
90064,7.67E-03,1.56E-02
90065,7.63E-03,1.56E-02
90066,7.59E-03,1.56E-02
90067,7.54E-03,1.56E-02
90068,7.48E-03,1.56E-02
90069,7.41E-03,1.55E-02
90070,7.32E-03,1.55E-02
90071,7.21E-03,1.55E-02
90072,7.14E-03,1.55E-02
90073,7.02E-03,1.55E-02
90074,6.83E-03,1.55E-02
90075,7.57E-03,1.51E-02
90076,7.03E-03,1.50E-02
90077,7.38E-03,1.51E-02
90078,6.61E-03,1.22E-02
90079,1.00E-02,1.22E-02
90080,9.99E-03,1.22E-02
90081,1.01E-02,1.22E-02
90082,9.88E-03,1.22E-02
90083,9.47E-03,1.21E-02
90084,9.05E-03,1.21E-02
90085,8.81E-03,1.21E-02
90086,8.65E-03,1.21E-02
90087,8.44E-03,1.20E-02
90088,8.27E-03,1.20E-02
90089,7.73E-03,1.20E-02
90090,7.47E-03,1.20E-02
90091,1.05E-02,1.08E-02
90092,1.10E-02,1.08E-02
90093,1.13E-02,1.07E-02
90094,8.43E-03,1.07E-02
90095,8.32E-03,1.07E-02
90096,6.52E-03,1.07E-02
90097,5.60E-03,1.07E-02
90098,5.27E-03,1.07E-02
90099,5.67E-03,1.07E-02
90100,6.05E-03,1.07E-02
90101,6.49E-03,1.07E-02
90102,7.37E-03,1.07E-02
90103,7.99E-03,1.07E-02
90104,8.01E-03,1.07E-02
90105,8.10E-03,1.07E-02
90106,6.02E-03,1.07E-02
90107,7.97E-03,1.07E-02
90108,1.05E-02,1.10E-02
90109,6.29E-03,1.10E-02
90110,6.02E-03,1.10E-02
90111,6.09E-03,1.10E-02
90112,6.09E-03,1.10E-02
90113,8.66E-03,1.10E-02
90114,9.40E-03,1.09E-02
90115,7.59E-03,1.09E-02
90116,7.88E-03,1.09E-02
90117,7.34E-03,1.13E-02
90118,7.23E-03,1.13E-02
90119,7.30E-03,1.13E-02
90120,7.12E-03,1.13E-02
90121,6.89E-03,1.54E-02
90122,7.16E-03,1.54E-02
90123,7.81E-03,1.53E-02
90124,9.76E-03,1.53E-02
90125,1.02E-02,1.53E-02
90126,9.95E-03,1.52E-02
90127,9.87E-03,1.52E-02
90128,1.01E-02,1.52E-02
90129,9.48E-03,1.52E-02
90130,7.75E-03,1.51E-02
90131,7.36E-03,1.51E-02
90132,7.36E-03,1.51E-02
90133,7.22E-03,1.51E-02
90134,7.34E-03,1.50E-02
90135,7.56E-03,1.50E-02
90136,7.54E-03,1.51E-02
90137,7.92E-03,1.38E-02
90138,5.54E-03,1.27E-02
90139,7.00E-03,1.27E-02
90140,8.03E-03,1.54E-02
90141,9.45E-03,1.55E-02
90142,9.74E-03,1.56E-02
90143,9.70E-03,1.56E-02
90144,9.57E-03,1.57E-02
90145,9.27E-03,1.58E-02
90146,9.33E-03,1.58E-02
90147,8.97E-03,1.59E-02
90148,9.11E-03,1.60E-02
90149,6.86E-03,1.61E-02
90150,9.01E-03,1.60E-02
90151,9.86E-03,1.13E-02
90152,9.86E-03,1.13E-02
90153,9.86E-03,1.13E-02
90154,9.78E-03,1.13E-02
90155,9.41E-03,1.13E-02
90156,8.42E-03,1.13E-02
90157,7.09E-03,1.13E-02
90158,7.02E-03,1.13E-02
90159,6.87E-03,1.13E-02
90160,6.73E-03,1.13E-02
90161,6.57E-03,1.13E-02
90162,6.50E-03,1.13E-02
90163,6.51E-03,1.13E-02
90164,6.59E-03,1.13E-02
90165,6.36E-03,1.14E-02
90166,5.88E-03,1.13E-02
90167,4.97E-03,1.13E-02
90168,4.68E-03,1.13E-02
90169,5.33E-03,1.13E-02
90170,5.79E-03,1.13E-02
90171,6.74E-03,1.13E-02
90172,6.88E-03,1.13E-02
90173,7.22E-03,1.32E-02
90174,1.08E-02,1.32E-02
90175,9.02E-03,1.32E-02
90176,9.14E-03,1.32E-02
90177,9.27E-03,1.32E-02
90178,9.30E-03,1.32E-02
90179,9.41E-03,1.32E-02
90180,9.75E-03,1.32E-02
90181,9.87E-03,1.32E-02
90182,1.02E-02,1.33E-02
90183,1.03E-02,1.33E-02
90184,1.05E-02,1.33E-02
90185,1.10E-02,1.33E-02
90186,9.41E-03,1.33E-02
90187,8.30E-03,1.33E-02
90188,5.39E-03,1.33E-02
90189,5.22E-03,1.33E-02
90190,5.14E-03,1.33E-02
90191,5.09E-03,1.33E-02
90192,5.88E-03,1.34E-02
90193,5.94E-03,1.34E-02
90194,6.20E-03,1.34E-02
90195,6.45E-03,1.34E-02
90196,6.81E-03,1.34E-02
90197,6.97E-03,1.34E-02
90198,7.13E-03,1.34E-02
90199,7.27E-03,1.35E-02
90200,7.43E-03,1.35E-02
90201,7.55E-03,1.35E-02
90202,7.60E-03,1.35E-02
90203,7.68E-03,1.35E-02
90204,8.14E-03,1.36E-02
90205,9.11E-03,1.36E-02
90206,9.26E-03,1.36E-02
90207,8.95E-03,1.37E-02
90208,8.89E-03,1.37E-02
90209,8.97E-03,1.37E-02
90210,9.00E-03,1.38E-02
90211,8.96E-03,1.38E-02
90212,8.80E-03,1.38E-02
90213,8.86E-03,1.39E-02
90214,6.86E-03,1.07E-02
90215,7.25E-03,1.06E-02
90216,7.39E-03,1.06E-02
90217,8.32E-03,1.05E-02
90218,7.72E-03,1.05E-02
90219,9.17E-03,1.04E-02
90220,7.12E-03,1.58E-02
90221,1.02E-02,1.57E-02
90222,1.01E-02,1.56E-02
90223,1.04E-02,1.56E-02
90224,1.01E-02,1.55E-02
90225,1.00E-02,1.54E-02
90226,9.85E-03,1.53E-02
90227,9.63E-03,1.52E-02
90228,9.60E-03,1.51E-02
90229,9.68E-03,1.50E-02
90230,9.81E-03,1.49E-02
90231,9.94E-03,1.48E-02
90232,1.01E-02,1.47E-02
90233,1.00E-02,1.46E-02
90234,9.77E-03,1.45E-02
90235,9.87E-03,1.44E-02
90236,9.81E-03,1.42E-02
90237,1.03E-02,1.41E-02
90238,6.02E-03,1.46E-02
90239,5.99E-03,1.06E-02
90240,7.39E-03,1.54E-02
90241,7.52E-03,1.28E-02
90242,6.76E-03,1.28E-02
90243,6.46E-03,1.62E-02
90244,6.29E-03,1.10E-02
90245,7.15E-03,1.11E-02
90246,7.38E-03,1.54E-02
90247,6.46E-03,1.54E-02
90248,6.81E-03,1.54E-02
90249,5.52E-03,1.10E-02
90250,6.99E-03,1.10E-02
90251,6.76E-03,1.07E-02
90252,6.83E-03,1.06E-02
90253,6.46E-03,1.08E-02
90254,7.49E-03,1.08E-02
90255,8.76E-03,1.59E-02
90256,4.81E-03,1.07E-02
90257,7.45E-03,1.07E-02
90258,5.32E-03,1.06E-02
90259,7.37E-03,1.06E-02
90260,8.41E-03,1.06E-02
90261,6.51E-03,1.52E-02
90262,7.21E-03,1.06E-02
90263,7.92E-03,1.58E-02
90264,7.45E-03,1.59E-02
90265,9.29E-03,1.50E-02
90266,8.15E-03,1.50E-02
90267,7.82E-03,1.47E-02
90268,7.22E-03,1.52E-02
90269,6.02E-03,1.61E-02
90270,8.59E-03,1.25E-02
90271,8.39E-03,1.24E-02
90272,7.21E-03,1.34E-02
90273,7.40E-03,1.34E-02
90274,7.51E-03,1.33E-02
90275,8.09E-03,1.32E-02
90276,8.39E-03,1.13E-02
90277,7.96E-03,1.17E-02
90278,7.25E-03,1.16E-02
90279,7.15E-03,1.15E-02
90280,5.69E-03,1.13E-02
90281,7.14E-03,1.53E-02
90282,1.07E-02,1.52E-02
90283,8.17E-03,1.48E-02
90284,7.30E-03,1.09E-02
90285,7.88E-03,1.09E-02
90286,6.56E-03,1.10E-02
90287,8.23E-03,1.35E-02
90288,8.10E-03,1.35E-02
90289,7.29E-03,1.31E-02
90290,6.71E-03,1.45E-02
90291,7.88E-03,1.52E-02
90292,8.41E-03,1.53E-02
90293,6.42E-03,1.57E-02
90294,7.14E-03,1.53E-02
90295,7.96E-03,1.52E-02
90296,8.43E-03,1.20E-02
90297,8.09E-03,1.20E-02
90298,7.81E-03,1.19E-02
90299,9.39E-03,1.07E-02
90300,8.58E-03,1.06E-02
90301,6.78E-03,1.07E-02
90302,6.74E-03,1.07E-02
90303,5.94E-03,1.06E-02
90304,4.38E-03,1.06E-02
90305,7.45E-03,1.07E-02
90306,7.18E-03,1.07E-02
90307,6.62E-03,1.06E-02
90308,6.45E-03,1.06E-02
90309,1.03E-02,1.09E-02
90310,6.33E-03,1.09E-02
90311,6.64E-03,1.09E-02
90312,9.09E-03,1.08E-02
90313,9.02E-03,1.08E-02
90314,7.24E-03,1.08E-02
90315,7.75E-03,1.11E-02
90316,6.33E-03,1.12E-02
90317,6.45E-03,1.56E-02
90318,8.17E-03,1.58E-02
90319,7.46E-03,1.10E-02
90320,9.56E-03,1.55E-02
90321,9.50E-03,1.52E-02
90322,7.78E-03,1.49E-02
90323,6.68E-03,1.23E-02
90324,7.86E-03,1.23E-02
90325,1.00E-02,1.23E-02
90326,9.13E-03,1.23E-02
90327,8.28E-03,1.20E-02
90328,6.10E-03,1.33E-02
90329,8.00E-03,1.28E-02
90330,8.14E-03,1.11E-02
90331,5.16E-03,1.11E-02
90332,8.15E-03,1.50E-02
90333,7.27E-03,1.08E-02
90334,8.04E-03,1.07E-02
90335,8.04E-03,1.25E-02
90336,8.12E-03,1.25E-02
90337,8.06E-03,1.26E-02
90338,8.00E-03,1.59E-02
90339,5.67E-03,1.60E-02
90340,7.47E-03,1.54E-02
90341,6.23E-03,1.27E-02
90342,7.21E-03,1.61E-02
90343,6.98E-03,1.62E-02
90344,6.97E-03,1.62E-02
90345,7.28E-03,1.62E-02
90346,5.60E-03,1.60E-02
90347,5.79E-03,1.59E-02
90348,5.81E-03,1.59E-02
90349,6.00E-03,1.60E-02
90350,6.09E-03,1.60E-02
90351,6.21E-03,1.60E-02
90352,6.29E-03,1.60E-02
90353,6.41E-03,1.60E-02
90354,6.47E-03,1.60E-02
90355,6.92E-03,1.60E-02
90356,6.98E-03,1.60E-02
90357,7.22E-03,1.60E-02
90358,7.81E-03,1.59E-02
90359,7.87E-03,1.60E-02
90360,8.25E-03,1.59E-02
90361,8.43E-03,1.59E-02
90362,8.49E-03,1.59E-02
90363,7.83E-03,1.56E-02
90364,7.69E-03,1.59E-02
90365,6.10E-03,1.57E-02
90366,6.18E-03,1.60E-02
90367,7.12E-03,1.59E-02
90368,6.81E-03,1.12E-02
90369,4.99E-03,1.08E-02
90370,8.05E-03,1.17E-02
90371,8.50E-03,1.16E-02
90372,5.69E-03,1.08E-02
90373,7.02E-03,1.08E-02
90374,7.44E-03,1.31E-02
90375,7.08E-03,1.06E-02
90376,6.20E-03,1.06E-02
90377,6.70E-03,1.07E-02
90378,6.10E-03,1.07E-02
90379,7.12E-03,1.52E-02
90380,7.29E-03,1.31E-02
90381,7.21E-03,1.31E-02
90382,6.07E-03,1.17E-02
90383,6.68E-03,1.17E-02
90384,6.88E-03,1.08E-02
90385,7.11E-03,1.08E-02
90386,9.05E-03,1.06E-02
90387,7.83E-03,1.10E-02
90388,5.97E-03,1.05E-02
90389,7.11E-03,1.58E-02
90390,7.57E-03,1.42E-02
90391,7.33E-03,1.11E-02
90392,8.49E-03,1.10E-02
90393,7.75E-03,1.10E-02
90394,8.29E-03,1.17E-02
90395,8.64E-03,1.24E-02
90396,7.75E-03,1.08E-02
90397,7.74E-03,1.09E-02
90398,6.72E-03,1.06E-02
90399,7.42E-03,1.48E-02
90400,8.49E-03,1.48E-02
90401,8.18E-03,1.60E-02
90402,6.04E-03,1.61E-02
90403,9.36E-03,1.57E-02
90404,8.04E-03,1.58E-02
90405,7.91E-03,1.59E-02
90406,8.56E-03,1.60E-02
90407,6.07E-03,1.61E-02
90408,5.06E-03,1.63E-02
90409,7.78E-03,1.08E-02
90410,7.85E-03,1.49E-02
90411,6.40E-03,1.07E-02
90412,5.70E-03,1.06E-02
90413,7.71E-03,1.14E-02
90414,6.07E-03,1.04E-02
90415,5.69E-03,1.04E-02
90416,6.98E-03,1.05E-02
90417,8.85E-03,1.03E-02
90418,8.37E-03,1.03E-02
90419,7.51E-03,1.59E-02
90420,6.93E-03,1.10E-02
90421,9.18E-03,1.03E-02
90422,7.87E-03,1.07E-02
90423,8.30E-03,1.54E-02
90424,6.32E-03,1.50E-02
90425,7.57E-03,1.07E-02
90426,1.11E-02,1.07E-02
90427,9.07E-03,1.07E-02
90428,1.17E-02,1.07E-02
90429,9.53E-03,1.07E-02
90430,7.05E-03,1.07E-02
90431,6.34E-03,1.07E-02
90432,6.21E-03,1.07E-02
90433,5.96E-03,1.07E-02
90434,5.43E-03,1.07E-02
90435,5.28E-03,1.07E-02
90436,7.20E-03,1.07E-02
90437,6.75E-03,1.61E-02
90438,8.55E-03,1.24E-02
90439,7.78E-03,1.32E-02
90440,8.58E-03,1.13E-02
90441,9.97E-03,1.13E-02
90442,1.15E-02,1.13E-02
90443,1.11E-02,1.13E-02
90444,9.93E-03,1.14E-02
90445,6.71E-03,1.14E-02
90446,6.35E-03,1.14E-02
90447,6.02E-03,1.14E-02
90448,5.63E-03,1.14E-02
90449,5.20E-03,1.14E-02
90450,4.90E-03,1.14E-02
90451,4.33E-03,1.14E-02
90452,4.02E-03,1.14E-02
90453,4.35E-03,1.14E-02
90454,4.49E-03,1.14E-02
90455,4.84E-03,1.15E-02
90456,4.94E-03,1.15E-02
90457,5.36E-03,1.15E-02
90458,6.51E-03,1.15E-02
90459,6.61E-03,1.15E-02
90460,7.12E-03,1.15E-02
90461,9.29E-03,1.20E-02
90462,9.76E-03,1.20E-02
90463,1.00E-02,1.19E-02
90464,1.02E-02,1.19E-02
90465,1.02E-02,1.19E-02
90466,1.01E-02,1.19E-02
90467,9.66E-03,1.19E-02
90468,9.52E-03,1.18E-02
90469,9.37E-03,1.18E-02
90470,9.14E-03,1.18E-02
90471,8.88E-03,1.18E-02
90472,8.60E-03,1.17E-02
90473,8.52E-03,1.17E-02
90474,8.45E-03,1.17E-02
90475,8.41E-03,1.17E-02
90476,8.21E-03,1.16E-02
90477,7.77E-03,1.16E-02
90478,7.49E-03,1.16E-02
90479,7.44E-03,1.16E-02
90480,7.40E-03,1.16E-02
90481,7.34E-03,1.15E-02
90482,7.28E-03,1.15E-02
90483,7.22E-03,1.15E-02
90484,7.05E-03,1.15E-02
90485,6.92E-03,1.14E-02
90486,6.89E-03,1.14E-02
90487,6.78E-03,1.14E-02
90488,6.65E-03,1.14E-02
90489,6.51E-03,1.14E-02
90490,6.38E-03,1.14E-02
90491,6.11E-03,1.14E-02
90492,5.96E-03,1.14E-02
90493,6.21E-03,1.13E-02
90494,6.38E-03,1.13E-02
90495,6.51E-03,1.13E-02
90496,6.33E-03,1.13E-02
90497,6.12E-03,1.13E-02
90498,5.51E-03,1.13E-02
90499,5.51E-03,1.13E-02
90500,5.56E-03,1.13E-02
90501,5.71E-03,1.13E-02
90502,5.73E-03,1.13E-02
90503,5.86E-03,1.13E-02
90504,1.01E-02,1.53E-02
90505,1.01E-02,1.54E-02
90506,8.12E-03,1.35E-02
90507,8.14E-03,1.35E-02
90508,8.14E-03,1.35E-02
90509,8.14E-03,1.35E-02
90510,8.14E-03,1.35E-02
90511,8.14E-03,1.35E-02
90512,8.15E-03,1.36E-02
90513,8.17E-03,1.36E-02
90514,8.17E-03,1.36E-02
90515,8.17E-03,1.36E-02
90516,8.18E-03,1.36E-02
90517,8.18E-03,1.36E-02
90518,8.19E-03,1.36E-02
90519,8.19E-03,1.36E-02
90520,8.20E-03,1.37E-02
90521,8.20E-03,1.37E-02
90522,8.21E-03,1.37E-02
90523,8.22E-03,1.37E-02
90524,8.22E-03,1.37E-02
90525,8.23E-03,1.37E-02
90526,8.24E-03,1.37E-02
90527,8.25E-03,1.37E-02
90528,8.26E-03,1.38E-02
90529,8.27E-03,1.38E-02
90530,8.29E-03,1.38E-02
90531,8.30E-03,1.38E-02
90532,8.32E-03,1.38E-02
90533,8.34E-03,1.38E-02
90534,8.37E-03,1.38E-02
90535,8.39E-03,1.39E-02
90536,8.42E-03,1.39E-02
90537,8.47E-03,1.39E-02
90538,8.53E-03,1.39E-02
90539,8.59E-03,1.39E-02
90540,8.65E-03,1.39E-02
90541,8.73E-03,1.39E-02
90542,8.83E-03,1.40E-02
90543,8.96E-03,1.40E-02
90544,9.13E-03,1.40E-02
90545,9.37E-03,1.40E-02
90546,9.71E-03,1.40E-02
90547,1.02E-02,1.41E-02
90548,1.11E-02,1.41E-02
90549,1.08E-02,1.41E-02
90550,7.66E-03,1.41E-02
90551,5.90E-03,1.42E-02
90552,5.99E-03,1.42E-02
90553,6.51E-03,1.42E-02
90554,6.86E-03,1.42E-02
90555,7.06E-03,1.42E-02
90556,7.21E-03,1.42E-02
90557,7.32E-03,1.43E-02
90558,7.42E-03,1.43E-02
90559,7.49E-03,1.43E-02
90560,7.55E-03,1.43E-02
90561,7.61E-03,1.43E-02
90562,7.65E-03,1.43E-02
90563,7.69E-03,1.43E-02
90564,7.72E-03,1.44E-02
90565,7.75E-03,1.44E-02
90566,7.77E-03,1.44E-02
90567,7.79E-03,1.44E-02
90568,7.81E-03,1.44E-02
90569,7.83E-03,1.44E-02
90570,7.85E-03,1.44E-02
90571,7.86E-03,1.45E-02
90572,7.87E-03,1.45E-02
90573,7.88E-03,1.45E-02
90574,7.89E-03,1.45E-02
90575,7.90E-03,1.45E-02
90576,7.90E-03,1.45E-02
90577,7.88E-03,1.45E-02
90578,7.90E-03,1.45E-02
90579,7.93E-03,1.45E-02
90580,7.96E-03,1.45E-02
90581,7.98E-03,1.46E-02
90582,7.99E-03,1.46E-02
90583,8.00E-03,1.46E-02
90584,8.01E-03,1.46E-02
90585,8.02E-03,1.46E-02
90586,8.03E-03,1.46E-02
90587,8.10E-03,1.46E-02
90588,8.20E-03,1.46E-02
90589,8.25E-03,1.46E-02
90590,8.26E-03,1.46E-02
90591,8.27E-03,1.46E-02
90592,8.28E-03,1.46E-02
90593,8.29E-03,1.46E-02
90594,8.31E-03,1.46E-02
90595,8.32E-03,1.46E-02
90596,8.34E-03,1.46E-02
90597,8.36E-03,1.46E-02
90598,8.39E-03,1.46E-02
90599,8.41E-03,1.47E-02
90600,8.44E-03,1.47E-02
90601,8.48E-03,1.47E-02
90602,8.52E-03,1.47E-02
90603,8.57E-03,1.47E-02
90604,8.63E-03,1.47E-02
90605,8.85E-03,1.47E-02
90606,8.89E-03,1.47E-02
90607,9.03E-03,1.47E-02
90608,9.29E-03,1.47E-02
90609,1.10E-02,1.48E-02
90610,7.87E-03,1.24E-02
90611,7.51E-03,1.24E-02
90612,6.94E-03,1.23E-02
90613,6.89E-03,1.23E-02
90614,6.92E-03,1.23E-02
90615,7.01E-03,1.22E-02
90616,7.24E-03,1.22E-02
90617,7.35E-03,1.21E-02
90618,7.47E-03,1.21E-02
90619,7.54E-03,1.20E-02
90620,7.60E-03,1.20E-02
90621,7.65E-03,1.20E-02
90622,7.69E-03,1.19E-02
90623,7.73E-03,1.19E-02
90624,7.77E-03,1.18E-02
90625,7.84E-03,1.18E-02
90626,7.89E-03,1.17E-02
90627,7.89E-03,1.17E-02
90628,7.88E-03,1.17E-02
90629,7.87E-03,1.16E-02
90630,7.86E-03,1.16E-02
90631,7.85E-03,1.15E-02
90632,7.84E-03,1.15E-02
90633,7.83E-03,1.14E-02
90634,7.82E-03,1.14E-02
90635,7.81E-03,1.14E-02
90636,7.80E-03,1.13E-02
90637,7.79E-03,1.13E-02
90638,7.77E-03,1.12E-02
90639,7.76E-03,1.12E-02
90640,7.74E-03,1.12E-02
90641,7.72E-03,1.11E-02
90642,7.70E-03,1.11E-02
90643,7.68E-03,1.10E-02
90644,7.53E-03,1.10E-02
90645,7.42E-03,1.10E-02
90646,7.32E-03,1.09E-02
90647,7.18E-03,1.09E-02
90648,7.42E-03,1.09E-02
90649,1.16E-02,1.09E-02
90650,8.01E-03,1.09E-02
90651,7.70E-03,1.09E-02
90652,7.17E-03,1.09E-02
90653,5.82E-03,1.09E-02
90654,6.51E-03,1.09E-02
90655,8.13E-03,1.35E-02
90656,8.15E-03,1.35E-02
90657,8.15E-03,1.34E-02
90658,8.15E-03,1.34E-02
90659,8.15E-03,1.34E-02
90660,8.15E-03,1.34E-02
90661,8.15E-03,1.34E-02
90662,8.15E-03,1.34E-02
90663,8.15E-03,1.34E-02
90664,8.16E-03,1.34E-02
90665,8.16E-03,1.34E-02
90666,8.16E-03,1.33E-02
90667,8.16E-03,1.33E-02
90668,8.16E-03,1.33E-02
90669,8.16E-03,1.33E-02
90670,8.16E-03,1.33E-02
90671,8.16E-03,1.33E-02
90672,8.17E-03,1.33E-02
90673,8.17E-03,1.33E-02
90674,8.17E-03,1.33E-02
90675,8.17E-03,1.33E-02
90676,8.17E-03,1.32E-02
90677,8.17E-03,1.32E-02
90678,8.18E-03,1.32E-02
90679,8.18E-03,1.32E-02
90680,8.19E-03,1.32E-02
90681,8.19E-03,1.32E-02
90682,8.20E-03,1.32E-02
90683,8.20E-03,1.32E-02
90684,8.21E-03,1.32E-02
90685,8.22E-03,1.32E-02
90686,8.23E-03,1.32E-02
90687,8.23E-03,1.32E-02
90688,8.24E-03,1.31E-02
90689,8.24E-03,1.31E-02
90690,8.25E-03,1.31E-02
90691,8.26E-03,1.31E-02
90692,8.27E-03,1.31E-02
90693,8.28E-03,1.31E-02
90694,8.29E-03,1.31E-02
90695,8.30E-03,1.31E-02
90696,8.31E-03,1.31E-02
90697,8.33E-03,1.31E-02
90698,8.34E-03,1.31E-02
90699,8.36E-03,1.31E-02
90700,8.38E-03,1.31E-02
90701,8.40E-03,1.31E-02
90702,8.43E-03,1.31E-02
90703,8.46E-03,1.31E-02
90704,8.49E-03,1.31E-02
90705,8.53E-03,1.31E-02
90706,8.57E-03,1.31E-02
90707,8.62E-03,1.31E-02
90708,8.68E-03,1.31E-02
90709,8.75E-03,1.31E-02
90710,8.96E-03,1.31E-02
90711,8.99E-03,1.31E-02
90712,9.17E-03,1.31E-02
90713,9.43E-03,1.31E-02
90714,9.64E-03,1.31E-02
90715,9.72E-03,1.31E-02
90716,9.82E-03,1.31E-02
90717,8.14E-03,1.29E-02
90718,9.37E-03,1.29E-02
90719,1.04E-02,1.30E-02
90720,1.04E-02,1.30E-02
90721,1.07E-02,1.31E-02
90722,1.09E-02,1.32E-02
90723,1.02E-02,1.33E-02
90724,9.61E-03,1.33E-02
90725,9.57E-03,1.34E-02
90726,9.34E-03,1.35E-02
90727,9.23E-03,1.35E-02
90728,8.98E-03,1.36E-02
90729,8.78E-03,1.36E-02
90730,8.66E-03,1.37E-02
90731,8.80E-03,1.38E-02
90732,9.11E-03,1.38E-02
90733,9.31E-03,1.39E-02
90734,8.55E-03,1.40E-02
90735,7.73E-03,1.40E-02
90736,7.68E-03,1.41E-02
90737,7.68E-03,1.41E-02
90738,7.68E-03,1.42E-02
90739,7.64E-03,1.42E-02
90740,7.64E-03,1.43E-02
90741,7.56E-03,1.44E-02
90742,7.40E-03,1.44E-02
90743,7.16E-03,1.45E-02
90744,7.98E-03,1.53E-02
90745,8.51E-03,1.53E-02
90746,8.04E-03,1.53E-02
90747,8.72E-03,1.52E-02
90748,1.04E-02,1.52E-02
90749,1.04E-02,1.52E-02
90750,1.03E-02,1.52E-02
90751,1.02E-02,1.52E-02
90752,1.00E-02,1.52E-02
90753,9.74E-03,1.52E-02
90754,9.44E-03,1.52E-02
90755,9.25E-03,1.52E-02
90756,9.18E-03,1.52E-02
90757,9.09E-03,1.52E-02
90758,9.06E-03,1.52E-02
90759,9.01E-03,1.52E-02
90760,8.98E-03,1.52E-02
90761,8.92E-03,1.53E-02
90762,8.84E-03,1.53E-02
90763,8.77E-03,1.53E-02
90764,8.71E-03,1.53E-02
90765,8.65E-03,1.53E-02
90766,8.61E-03,1.53E-02
90767,8.57E-03,1.54E-02
90768,8.54E-03,1.54E-02
90769,8.50E-03,1.54E-02
90770,8.48E-03,1.54E-02
90771,8.45E-03,1.54E-02
90772,8.43E-03,1.55E-02
90773,8.41E-03,1.55E-02
90774,8.39E-03,1.55E-02
90775,8.38E-03,1.55E-02
90776,8.36E-03,1.55E-02
90777,8.35E-03,1.56E-02
90778,8.33E-03,1.56E-02
90779,8.32E-03,1.56E-02
90780,8.31E-03,1.56E-02
90781,8.30E-03,1.56E-02
90782,8.28E-03,1.56E-02
90783,8.27E-03,1.57E-02
90784,8.27E-03,1.57E-02
90785,8.26E-03,1.57E-02
90786,8.25E-03,1.57E-02
90787,8.25E-03,1.57E-02
90788,8.21E-03,1.57E-02
90789,8.10E-03,1.57E-02
90790,8.01E-03,1.58E-02
90791,7.99E-03,1.58E-02
90792,7.96E-03,1.58E-02
90793,7.93E-03,1.58E-02
90794,7.87E-03,1.58E-02
90795,7.76E-03,1.58E-02
90796,7.62E-03,1.58E-02
90797,7.62E-03,1.58E-02
90798,7.68E-03,1.58E-02
90799,7.64E-03,1.58E-02
90800,7.60E-03,1.58E-02
90801,7.55E-03,1.58E-02
90802,7.49E-03,1.58E-02
90803,7.42E-03,1.58E-02
90804,7.34E-03,1.58E-02
90805,7.23E-03,1.58E-02
90806,7.19E-03,1.58E-02
90807,7.16E-03,1.58E-02
90808,7.13E-03,1.58E-02
90809,5.34E-03,1.53E-02
90810,7.63E-03,1.52E-02
90811,7.42E-03,1.51E-02
90812,7.63E-03,1.51E-02
90813,7.14E-03,1.20E-02
90814,9.99E-03,1.20E-02
90815,1.02E-02,1.20E-02
90816,1.02E-02,1.19E-02
90817,1.03E-02,1.19E-02
90818,1.10E-02,1.19E-02
90819,1.08E-02,1.19E-02
90820,9.43E-03,1.19E-02
90821,9.15E-03,1.19E-02
90822,8.86E-03,1.18E-02
90823,8.52E-03,1.18E-02
90824,8.31E-03,1.18E-02
90825,7.94E-03,1.18E-02
90826,7.73E-03,1.18E-02
90827,9.95E-03,1.07E-02
90828,1.12E-02,1.07E-02
90829,1.12E-02,1.06E-02
90830,8.76E-03,1.06E-02
90831,8.86E-03,1.06E-02
90832,4.23E-03,1.05E-02
90833,6.50E-03,1.06E-02
90834,5.81E-03,1.06E-02
90835,5.21E-03,1.06E-02
90836,5.72E-03,1.06E-02
90837,6.09E-03,1.06E-02
90838,6.52E-03,1.06E-02
90839,7.38E-03,1.06E-02
90840,7.99E-03,1.06E-02
90841,8.01E-03,1.06E-02
90842,7.93E-03,1.06E-02
90843,7.61E-03,1.06E-02
90844,7.52E-03,1.06E-02
90845,6.62E-03,1.06E-02
90846,5.72E-03,1.06E-02
90847,4.74E-03,1.05E-02
90848,9.08E-03,1.08E-02
90849,6.03E-03,1.09E-02
90850,6.15E-03,1.09E-02
90851,5.80E-03,1.09E-02
90852,5.90E-03,1.09E-02
90853,9.16E-03,1.09E-02
90854,9.21E-03,1.08E-02
90855,8.02E-03,1.08E-02
90856,7.37E-03,1.11E-02
90857,7.15E-03,1.11E-02
90858,7.03E-03,1.11E-02
90859,6.84E-03,1.11E-02
90860,7.08E-03,1.56E-02
90861,7.28E-03,1.56E-02
90862,7.61E-03,1.56E-02
90863,9.81E-03,1.55E-02
90864,1.01E-02,1.55E-02
90865,9.85E-03,1.54E-02
90866,9.52E-03,1.54E-02
90867,9.31E-03,1.54E-02
90868,8.56E-03,1.54E-02
90869,8.42E-03,1.51E-02
90870,8.95E-03,1.52E-02
90871,8.78E-03,1.53E-02
90872,1.05E-02,1.60E-02
90873,9.72E-03,1.05E-02
90874,7.37E-03,1.08E-02
90875,8.17E-03,1.49E-02
90876,7.80E-03,1.63E-02
90877,7.06E-03,1.61E-02
90878,8.83E-03,1.22E-02
90879,8.53E-03,1.21E-02
90880,6.71E-03,1.32E-02
90881,7.19E-03,1.32E-02
90882,7.38E-03,1.31E-02
90883,7.58E-03,1.31E-02
90884,7.67E-03,1.30E-02
90885,8.04E-03,1.29E-02
90886,8.17E-03,1.11E-02
90887,7.46E-03,1.17E-02
90888,7.81E-03,1.17E-02
90889,5.75E-03,1.10E-02
90890,1.09E-02,1.55E-02
90891,1.21E-02,1.55E-02
90892,1.39E-02,1.57E-02
90893,8.09E-03,1.49E-02
90894,7.63E-03,1.08E-02
90895,8.32E-03,1.35E-02
90896,8.01E-03,1.07E-02
90897,8.22E-03,1.36E-02
90898,8.10E-03,1.35E-02
90899,7.36E-03,1.31E-02
90900,7.64E-03,1.26E-02
90901,8.03E-03,1.61E-02
90902,5.94E-03,1.63E-02
90903,7.63E-03,1.62E-02
90904,7.37E-03,1.55E-02
90905,7.45E-03,1.55E-02
90906,7.66E-03,1.55E-02
90907,9.76E-03,1.55E-02
90908,9.82E-03,1.56E-02
90909,9.77E-03,1.57E-02
90910,9.52E-03,1.57E-02
90911,9.37E-03,1.58E-02
90912,9.30E-03,1.59E-02
90913,8.95E-03,1.59E-02
90914,8.75E-03,1.60E-02
90915,8.19E-03,1.61E-02
90916,8.28E-03,1.62E-02
90917,7.25E-03,1.63E-02
90918,7.55E-03,1.63E-02
90919,8.20E-03,1.53E-02
90920,8.32E-03,1.55E-02
90921,9.56E-03,1.57E-02
90922,1.02E-02,1.58E-02
90923,8.53E-03,1.59E-02
90924,6.60E-03,1.59E-02
90925,7.56E-03,1.59E-02
90926,6.94E-03,1.57E-02
90927,1.01E-02,1.59E-02
90928,8.27E-03,1.59E-02
90929,1.07E-02,1.11E-02
90930,9.84E-03,1.11E-02
90931,9.86E-03,1.11E-02
90932,9.86E-03,1.11E-02
90933,9.73E-03,1.11E-02
90934,9.65E-03,1.11E-02
90935,8.26E-03,1.11E-02
90936,7.06E-03,1.11E-02
90937,6.91E-03,1.11E-02
90938,6.87E-03,1.11E-02
90939,6.74E-03,1.11E-02
90940,6.67E-03,1.11E-02
90941,6.51E-03,1.11E-02
90942,6.48E-03,1.11E-02
90943,6.58E-03,1.11E-02
90944,6.51E-03,1.12E-02
90945,5.78E-03,1.12E-02
90946,4.80E-03,1.11E-02
90947,4.36E-03,1.11E-02
90948,4.99E-03,1.11E-02
90949,6.49E-03,1.11E-02
90950,8.54E-03,1.10E-02
90951,7.28E-03,1.11E-02
90952,6.37E-03,1.08E-02
90953,7.37E-03,1.14E-02
90954,8.80E-03,1.14E-02
90955,9.66E-03,1.15E-02
90956,7.87E-03,1.08E-02
90957,7.22E-03,1.07E-02
90958,7.61E-03,1.06E-02
90959,7.23E-03,1.07E-02
90960,6.56E-03,1.06E-02
90961,7.17E-03,1.31E-02
90962,1.08E-02,1.31E-02
90963,9.00E-03,1.31E-02
90964,9.12E-03,1.31E-02
90965,9.20E-03,1.31E-02
90966,9.27E-03,1.32E-02
90967,9.34E-03,1.32E-02
90968,9.74E-03,1.32E-02
90969,9.79E-03,1.32E-02
90970,1.00E-02,1.32E-02
90971,1.03E-02,1.32E-02
90972,1.04E-02,1.32E-02
90973,1.14E-02,1.32E-02
90974,1.03E-02,1.32E-02
90975,6.70E-03,1.32E-02
90976,5.67E-03,1.32E-02
90977,5.44E-03,1.32E-02
90978,5.27E-03,1.32E-02
90979,5.30E-03,1.33E-02
90980,5.66E-03,1.33E-02
90981,5.87E-03,1.33E-02
90982,6.31E-03,1.33E-02
90983,6.62E-03,1.33E-02
90984,6.76E-03,1.33E-02
90985,7.03E-03,1.33E-02
90986,7.15E-03,1.33E-02
90987,7.29E-03,1.34E-02
90988,7.44E-03,1.34E-02
90989,7.51E-03,1.34E-02
90990,7.51E-03,1.34E-02
90991,7.52E-03,1.34E-02
90992,8.25E-03,1.35E-02
90993,9.24E-03,1.35E-02
90994,9.28E-03,1.35E-02
90995,8.90E-03,1.36E-02
90996,8.87E-03,1.36E-02
90997,8.96E-03,1.36E-02
90998,8.93E-03,1.36E-02
90999,8.87E-03,1.37E-02
91000,8.84E-03,1.37E-02
91001,8.67E-03,1.37E-02
91002,7.90E-03,1.38E-02
91003,7.62E-03,1.38E-02
91004,5.84E-03,1.39E-02
91005,8.41E-03,1.05E-02
91006,8.55E-03,1.05E-02
91007,7.63E-03,1.05E-02
91008,8.28E-03,1.05E-02
91009,7.09E-03,1.06E-02
91010,5.81E-03,1.06E-02
91011,7.17E-03,1.07E-02
91012,6.04E-03,1.08E-02
91013,5.85E-03,1.07E-02
91014,9.01E-03,1.10E-02
91015,7.95E-03,1.53E-02
91016,8.45E-03,1.54E-02
91017,7.25E-03,1.31E-02
91018,9.17E-03,1.56E-02
91019,8.31E-03,1.59E-02
91020,9.59E-03,1.09E-02
91021,7.08E-03,1.07E-02
91022,8.01E-03,1.07E-02
91023,8.59E-03,1.07E-02
91024,7.44E-03,1.52E-02
91025,7.42E-03,1.17E-02
91026,7.24E-03,1.15E-02
91027,5.80E-03,1.62E-02
91028,6.71E-03,1.05E-02
91029,7.05E-03,1.05E-02
91030,9.64E-03,1.06E-02
91031,7.50E-03,1.05E-02
91032,7.09E-03,1.05E-02
91033,6.61E-03,1.05E-02
91034,5.77E-03,1.04E-02
91035,9.11E-03,1.07E-02
91036,7.52E-03,1.08E-02
91037,7.65E-03,1.07E-02
91038,7.63E-03,1.06E-02
91039,7.62E-03,1.10E-02
91040,6.27E-03,1.05E-02
91041,5.75E-03,1.05E-02
91042,7.87E-03,1.59E-02
91043,8.65E-03,1.54E-02
91044,6.25E-03,1.52E-02
91045,7.61E-03,1.52E-02
91046,7.55E-03,1.44E-02
91047,7.30E-03,1.08E-02
91048,7.33E-03,1.07E-02
91049,6.86E-03,1.06E-02
91050,9.55E-03,1.55E-02
91051,7.95E-03,1.45E-02
91052,7.14E-03,1.10E-02
91053,8.29E-03,1.18E-02
91054,9.03E-03,1.20E-02
91055,8.78E-03,1.20E-02
91056,8.02E-03,1.20E-02
91057,8.63E-03,1.20E-02
91058,8.13E-03,1.25E-02
91059,7.93E-03,1.09E-02
91060,6.57E-03,1.08E-02
91061,7.86E-03,1.51E-02
91062,8.50E-03,1.31E-02
91063,7.72E-03,1.06E-02
91064,8.11E-03,1.24E-02
91065,8.23E-03,1.25E-02
91066,8.34E-03,1.25E-02
91067,7.71E-03,1.48E-02
91068,7.33E-03,1.30E-02
91069,7.24E-03,1.30E-02
91070,8.59E-03,1.04E-02
91071,8.98E-03,1.05E-02
91072,9.69E-03,1.66E-02
91073,6.25E-03,1.06E-02
91074,6.03E-03,1.06E-02
91075,8.22E-03,1.62E-02
91076,6.88E-03,1.64E-02
91077,9.26E-03,1.61E-02
91078,5.63E-03,1.63E-02
91079,5.77E-03,1.63E-02
91080,6.07E-03,1.63E-02
91081,6.15E-03,1.63E-02
91082,6.29E-03,1.63E-02
91083,6.37E-03,1.63E-02
91084,6.48E-03,1.63E-02
91085,6.59E-03,1.63E-02
91086,6.77E-03,1.63E-02
91087,6.94E-03,1.63E-02
91088,7.51E-03,1.63E-02
91089,7.93E-03,1.63E-02
91090,8.19E-03,1.63E-02
91091,8.22E-03,1.63E-02
91092,8.24E-03,1.63E-02
91093,8.17E-03,1.63E-02
91094,7.83E-03,1.63E-02
91095,7.89E-03,1.62E-02
91096,9.48E-03,1.61E-02
91097,1.00E-02,1.62E-02
91098,8.45E-03,1.62E-02
91099,7.84E-03,1.62E-02
91100,7.96E-03,1.62E-02
91101,8.41E-03,1.62E-02
91102,8.15E-03,1.62E-02
91103,8.46E-03,1.61E-02
91104,8.68E-03,1.60E-02
91105,7.65E-03,1.61E-02
91106,7.53E-03,1.62E-02
91107,7.25E-03,1.63E-02
91108,6.92E-03,1.64E-02
91109,6.57E-03,1.65E-02
91110,7.64E-03,1.08E-02
91111,8.01E-03,1.07E-02
91112,6.44E-03,1.38E-02
91113,6.90E-03,1.40E-02
91114,7.12E-03,1.06E-02
91115,7.72E-03,1.06E-02
91116,8.07E-03,1.14E-02
91117,8.13E-03,1.21E-02
91118,5.85E-03,1.04E-02
91119,8.04E-03,1.16E-02
91120,8.53E-03,1.15E-02
91121,6.46E-03,1.36E-02
91122,6.07E-03,1.36E-02
91123,7.55E-03,1.63E-02
91124,7.99E-03,1.49E-02
91125,4.37E-03,1.03E-02
91126,5.96E-03,1.03E-02
91127,6.88E-03,1.04E-02
91128,6.84E-03,1.06E-02
91129,8.93E-03,1.02E-02
91130,8.07E-03,1.03E-02
91131,9.00E-03,1.03E-02
91132,5.99E-03,1.59E-02
91133,7.10E-03,1.58E-02
91134,9.41E-03,1.58E-02
91135,1.02E-02,1.57E-02
91136,1.04E-02,1.56E-02
91137,1.01E-02,1.55E-02
91138,1.00E-02,1.54E-02
91139,9.83E-03,1.53E-02
91140,9.52E-03,1.53E-02
91141,9.57E-03,1.52E-02
91142,9.65E-03,1.51E-02
91143,9.77E-03,1.50E-02
91144,9.90E-03,1.49E-02
91145,1.00E-02,1.48E-02
91146,1.01E-02,1.47E-02
91147,9.89E-03,1.45E-02
91148,9.89E-03,1.44E-02
91149,9.95E-03,1.43E-02
91150,1.04E-02,1.41E-02
91151,8.66E-03,1.40E-02
91152,6.36E-03,1.39E-02
91153,7.60E-03,1.11E-02
91154,6.40E-03,1.05E-02
91155,8.04E-03,1.05E-02
91156,8.33E-03,1.02E-02
91157,9.65E-03,1.02E-02
91158,9.40E-03,1.02E-02
91159,7.19E-03,1.08E-02
91160,6.39E-03,1.05E-02
91161,6.19E-03,1.15E-02
91162,6.70E-03,1.47E-02
91163,6.34E-03,1.06E-02
91164,7.58E-03,1.05E-02
91165,1.11E-02,1.06E-02
91166,8.96E-03,1.06E-02
91167,1.16E-02,1.06E-02
91168,9.77E-03,1.06E-02
91169,6.96E-03,1.06E-02
91170,6.33E-03,1.06E-02
91171,6.19E-03,1.06E-02
91172,5.84E-03,1.06E-02
91173,5.40E-03,1.06E-02
91174,5.13E-03,1.06E-02
91175,6.29E-03,1.06E-02
91176,8.45E-03,1.51E-02
91177,8.66E-03,1.52E-02
91178,8.57E-03,1.53E-02
91179,8.76E-03,1.54E-02
91180,8.01E-03,1.55E-02
91181,7.42E-03,1.62E-02
91182,8.60E-03,1.22E-02
91183,7.87E-03,1.29E-02
91184,8.59E-03,1.11E-02
91185,1.01E-02,1.11E-02
91186,1.15E-02,1.11E-02
91187,1.11E-02,1.11E-02
91188,9.89E-03,1.12E-02
91189,6.90E-03,1.12E-02
91190,6.50E-03,1.12E-02
91191,6.09E-03,1.12E-02
91192,5.53E-03,1.12E-02
91193,5.19E-03,1.12E-02
91194,4.85E-03,1.12E-02
91195,4.39E-03,1.12E-02
91196,4.11E-03,1.12E-02
91197,4.46E-03,1.12E-02
91198,4.53E-03,1.12E-02
91199,4.84E-03,1.12E-02
91200,5.05E-03,1.13E-02
91201,5.41E-03,1.13E-02
91202,6.43E-03,1.13E-02
91203,6.72E-03,1.13E-02
91204,7.06E-03,1.13E-02
91205,7.98E-03,1.15E-02
91206,9.69E-03,1.17E-02
91207,9.90E-03,1.17E-02
91208,1.01E-02,1.17E-02
91209,1.01E-02,1.17E-02
91210,1.01E-02,1.17E-02
91211,1.00E-02,1.16E-02
91212,9.77E-03,1.16E-02
91213,9.51E-03,1.16E-02
91214,9.26E-03,1.16E-02
91215,9.17E-03,1.15E-02
91216,8.76E-03,1.15E-02
91217,8.59E-03,1.15E-02
91218,8.51E-03,1.15E-02
91219,8.45E-03,1.14E-02
91220,8.40E-03,1.14E-02
91221,8.21E-03,1.14E-02
91222,7.78E-03,1.14E-02
91223,7.50E-03,1.13E-02
91224,7.46E-03,1.13E-02
91225,7.41E-03,1.13E-02
91226,7.36E-03,1.13E-02
91227,7.30E-03,1.12E-02
91228,7.23E-03,1.12E-02
91229,7.07E-03,1.12E-02
91230,6.99E-03,1.12E-02
91231,6.92E-03,1.12E-02
91232,6.81E-03,1.12E-02
91233,6.68E-03,1.11E-02
91234,6.53E-03,1.11E-02
91235,6.39E-03,1.11E-02
91236,6.11E-03,1.11E-02
91237,6.01E-03,1.11E-02
91238,6.28E-03,1.11E-02
91239,6.37E-03,1.11E-02
91240,6.54E-03,1.11E-02
91241,6.37E-03,1.11E-02
91242,6.17E-03,1.11E-02
91243,5.56E-03,1.10E-02
91244,5.56E-03,1.10E-02
91245,5.60E-03,1.10E-02
91246,5.68E-03,1.10E-02
91247,5.85E-03,1.10E-02
91248,5.92E-03,1.10E-02
91249,1.08E-02,1.56E-02
91250,1.11E-02,1.57E-02
91251,8.12E-03,1.36E-02
91252,8.14E-03,1.36E-02
91253,8.14E-03,1.36E-02
91254,8.14E-03,1.36E-02
91255,8.14E-03,1.36E-02
91256,8.14E-03,1.36E-02
91257,8.15E-03,1.36E-02
91258,8.16E-03,1.36E-02
91259,8.17E-03,1.37E-02
91260,8.17E-03,1.37E-02
91261,8.18E-03,1.37E-02
91262,8.18E-03,1.37E-02
91263,8.18E-03,1.37E-02
91264,8.19E-03,1.37E-02
91265,8.19E-03,1.37E-02
91266,8.20E-03,1.38E-02
91267,8.21E-03,1.38E-02
91268,8.21E-03,1.38E-02
91269,8.22E-03,1.38E-02
91270,8.23E-03,1.38E-02
91271,8.24E-03,1.38E-02
91272,8.25E-03,1.38E-02
91273,8.26E-03,1.38E-02
91274,8.27E-03,1.39E-02
91275,8.28E-03,1.39E-02
91276,8.30E-03,1.39E-02
91277,8.31E-03,1.39E-02
91278,8.33E-03,1.39E-02
91279,8.36E-03,1.39E-02
91280,8.38E-03,1.40E-02
91281,8.41E-03,1.40E-02
91282,8.46E-03,1.40E-02
91283,8.52E-03,1.40E-02
91284,8.57E-03,1.40E-02
91285,8.64E-03,1.40E-02
91286,8.72E-03,1.41E-02
91287,8.81E-03,1.41E-02
91288,8.94E-03,1.41E-02
91289,9.11E-03,1.41E-02
91290,9.34E-03,1.41E-02
91291,9.67E-03,1.42E-02
91292,1.02E-02,1.42E-02
91293,1.10E-02,1.42E-02
91294,1.08E-02,1.42E-02
91295,7.67E-03,1.43E-02
91296,5.80E-03,1.43E-02
91297,6.09E-03,1.43E-02
91298,6.62E-03,1.43E-02
91299,6.89E-03,1.43E-02
91300,7.08E-03,1.44E-02
91301,7.23E-03,1.44E-02
91302,7.34E-03,1.44E-02
91303,7.43E-03,1.44E-02
91304,7.50E-03,1.44E-02
91305,7.56E-03,1.44E-02
91306,7.62E-03,1.45E-02
91307,7.66E-03,1.45E-02
91308,7.69E-03,1.45E-02
91309,7.73E-03,1.45E-02
91310,7.75E-03,1.45E-02
91311,7.78E-03,1.45E-02
91312,7.80E-03,1.45E-02
91313,7.82E-03,1.46E-02
91314,7.84E-03,1.46E-02
91315,7.85E-03,1.46E-02
91316,7.86E-03,1.46E-02
91317,7.88E-03,1.46E-02
91318,7.89E-03,1.46E-02
91319,7.90E-03,1.46E-02
91320,7.91E-03,1.47E-02
91321,7.90E-03,1.47E-02
91322,7.88E-03,1.47E-02
91323,7.90E-03,1.47E-02
91324,7.93E-03,1.47E-02
91325,7.96E-03,1.47E-02
91326,7.98E-03,1.47E-02
91327,7.99E-03,1.47E-02
91328,8.00E-03,1.47E-02
91329,8.01E-03,1.47E-02
91330,8.02E-03,1.47E-02
91331,8.03E-03,1.47E-02
91332,8.10E-03,1.47E-02
91333,8.20E-03,1.48E-02
91334,8.25E-03,1.48E-02
91335,8.25E-03,1.48E-02
91336,8.26E-03,1.48E-02
91337,8.28E-03,1.48E-02
91338,8.29E-03,1.48E-02
91339,8.30E-03,1.48E-02
91340,8.32E-03,1.48E-02
91341,8.34E-03,1.48E-02
91342,8.36E-03,1.48E-02
91343,8.38E-03,1.48E-02
91344,8.41E-03,1.48E-02
91345,8.44E-03,1.48E-02
91346,8.47E-03,1.48E-02
91347,8.51E-03,1.48E-02
91348,8.56E-03,1.49E-02
91349,8.62E-03,1.49E-02
91350,8.80E-03,1.49E-02
91351,8.82E-03,1.49E-02
91352,8.91E-03,1.49E-02
91353,9.09E-03,1.49E-02
91354,1.13E-02,1.49E-02
91355,7.96E-03,1.24E-02
91356,7.49E-03,1.23E-02
91357,6.93E-03,1.23E-02
91358,6.91E-03,1.22E-02
91359,6.98E-03,1.22E-02
91360,7.00E-03,1.22E-02
91361,7.29E-03,1.21E-02
91362,7.35E-03,1.21E-02
91363,7.49E-03,1.20E-02
91364,7.55E-03,1.20E-02
91365,7.61E-03,1.19E-02
91366,7.66E-03,1.19E-02
91367,7.70E-03,1.18E-02
91368,7.73E-03,1.18E-02
91369,7.77E-03,1.18E-02
91370,7.85E-03,1.17E-02
91371,7.89E-03,1.17E-02
91372,7.89E-03,1.16E-02
91373,7.88E-03,1.16E-02
91374,7.88E-03,1.15E-02
91375,7.87E-03,1.15E-02
91376,7.86E-03,1.15E-02
91377,7.85E-03,1.14E-02
91378,7.84E-03,1.14E-02
91379,7.83E-03,1.13E-02
91380,7.82E-03,1.13E-02
91381,7.81E-03,1.12E-02
91382,7.79E-03,1.12E-02
91383,7.78E-03,1.12E-02
91384,7.76E-03,1.11E-02
91385,7.75E-03,1.11E-02
91386,7.73E-03,1.10E-02
91387,7.71E-03,1.10E-02
91388,7.69E-03,1.10E-02
91389,7.58E-03,1.09E-02
91390,7.54E-03,1.09E-02
91391,7.52E-03,1.09E-02
91392,7.60E-03,1.08E-02
91393,7.91E-03,1.08E-02
91394,8.94E-03,1.36E-02
91395,1.15E-02,1.07E-02
91396,8.30E-03,1.07E-02
91397,8.18E-03,1.07E-02
91398,7.57E-03,1.07E-02
91399,6.83E-03,1.08E-02
91400,7.74E-03,1.08E-02
91401,8.13E-03,1.35E-02
91402,8.15E-03,1.35E-02
91403,8.15E-03,1.35E-02
91404,8.15E-03,1.35E-02
91405,8.15E-03,1.35E-02
91406,8.15E-03,1.35E-02
91407,8.15E-03,1.35E-02
91408,8.15E-03,1.34E-02
91409,8.15E-03,1.34E-02
91410,8.15E-03,1.34E-02
91411,8.15E-03,1.34E-02
91412,8.16E-03,1.34E-02
91413,8.16E-03,1.34E-02
91414,8.16E-03,1.34E-02
91415,8.16E-03,1.34E-02
91416,8.16E-03,1.33E-02
91417,8.16E-03,1.33E-02
91418,8.16E-03,1.33E-02
91419,8.17E-03,1.33E-02
91420,8.17E-03,1.33E-02
91421,8.17E-03,1.33E-02
91422,8.17E-03,1.33E-02
91423,8.17E-03,1.33E-02
91424,8.18E-03,1.33E-02
91425,8.18E-03,1.32E-02
91426,8.18E-03,1.32E-02
91427,8.19E-03,1.32E-02
91428,8.19E-03,1.32E-02
91429,8.20E-03,1.32E-02
91430,8.21E-03,1.32E-02
91431,8.21E-03,1.32E-02
91432,8.22E-03,1.32E-02
91433,8.23E-03,1.32E-02
91434,8.23E-03,1.32E-02
91435,8.24E-03,1.31E-02
91436,8.25E-03,1.31E-02
91437,8.26E-03,1.31E-02
91438,8.26E-03,1.31E-02
91439,8.27E-03,1.31E-02
91440,8.28E-03,1.31E-02
91441,8.30E-03,1.31E-02
91442,8.31E-03,1.31E-02
91443,8.32E-03,1.31E-02
91444,8.34E-03,1.31E-02
91445,8.36E-03,1.31E-02
91446,8.37E-03,1.31E-02
91447,8.40E-03,1.31E-02
91448,8.42E-03,1.31E-02
91449,8.45E-03,1.31E-02
91450,8.48E-03,1.30E-02
91451,8.52E-03,1.30E-02
91452,8.56E-03,1.30E-02
91453,8.61E-03,1.30E-02
91454,8.67E-03,1.30E-02
91455,8.74E-03,1.30E-02
91456,8.92E-03,1.30E-02
91457,8.94E-03,1.30E-02
91458,9.23E-03,1.30E-02
91459,9.43E-03,1.30E-02
91460,9.57E-03,1.30E-02
91461,9.59E-03,1.30E-02
91462,9.64E-03,1.30E-02
91463,1.07E-02,1.28E-02
91464,1.03E-02,1.29E-02
91465,1.07E-02,1.29E-02
91466,1.06E-02,1.30E-02
91467,1.07E-02,1.31E-02
91468,1.09E-02,1.32E-02
91469,1.01E-02,1.32E-02
91470,9.57E-03,1.33E-02
91471,9.55E-03,1.34E-02
91472,9.39E-03,1.34E-02
91473,9.20E-03,1.35E-02
91474,8.96E-03,1.36E-02
91475,8.76E-03,1.36E-02
91476,8.65E-03,1.37E-02
91477,8.78E-03,1.37E-02
91478,9.09E-03,1.38E-02
91479,9.29E-03,1.39E-02
91480,8.54E-03,1.39E-02
91481,7.74E-03,1.40E-02
91482,7.69E-03,1.41E-02
91483,7.69E-03,1.41E-02
91484,7.69E-03,1.42E-02
91485,7.65E-03,1.42E-02
91486,7.64E-03,1.43E-02
91487,7.50E-03,1.44E-02
91488,7.28E-03,1.44E-02
91489,7.12E-03,1.45E-02
91490,6.75E-03,1.45E-02
91491,6.26E-03,1.46E-02
91492,5.87E-03,1.46E-02
91493,5.98E-03,1.47E-02
91494,8.48E-03,1.54E-02
91495,8.65E-03,1.55E-02
91496,7.09E-03,1.31E-02
91497,1.07E-02,1.31E-02
91498,8.98E-03,1.31E-02
91499,9.06E-03,1.31E-02
91500,9.12E-03,1.31E-02
91501,9.22E-03,1.31E-02
91502,9.35E-03,1.31E-02
91503,9.58E-03,1.31E-02
91504,9.72E-03,1.31E-02
91505,9.98E-03,1.31E-02
91506,1.03E-02,1.31E-02
91507,1.06E-02,1.31E-02
91508,1.13E-02,1.31E-02
91509,1.08E-02,1.31E-02
91510,6.16E-03,1.31E-02
91511,5.61E-03,1.32E-02
91512,5.59E-03,1.32E-02
91513,5.36E-03,1.32E-02
91514,5.34E-03,1.32E-02
91515,5.63E-03,1.32E-02
91516,5.79E-03,1.32E-02
91517,6.44E-03,1.32E-02
91518,6.74E-03,1.32E-02
91519,6.75E-03,1.32E-02
91520,7.06E-03,1.32E-02
91521,7.17E-03,1.32E-02
91522,7.30E-03,1.33E-02
91523,7.46E-03,1.33E-02
91524,7.52E-03,1.33E-02
91525,7.52E-03,1.33E-02
91526,7.53E-03,1.33E-02
91527,8.25E-03,1.33E-02
91528,9.21E-03,1.34E-02
91529,9.26E-03,1.34E-02
91530,8.92E-03,1.34E-02
91531,8.84E-03,1.35E-02
91532,8.92E-03,1.35E-02
91533,8.94E-03,1.35E-02
91534,8.98E-03,1.36E-02
91535,8.97E-03,1.36E-02
91536,8.85E-03,1.36E-02
91537,8.69E-03,1.37E-02
91538,6.90E-03,1.38E-02
91539,8.72E-03,1.37E-02
91540,9.30E-03,1.55E-02
91541,1.01E-02,1.55E-02
91542,1.05E-02,1.55E-02
91543,1.02E-02,1.55E-02
91544,1.01E-02,1.55E-02
91545,1.01E-02,1.55E-02
91546,9.69E-03,1.55E-02
91547,9.46E-03,1.55E-02
91548,9.17E-03,1.55E-02
91549,9.09E-03,1.55E-02
91550,9.07E-03,1.55E-02
91551,9.04E-03,1.55E-02
91552,8.99E-03,1.55E-02
91553,8.96E-03,1.55E-02
91554,8.90E-03,1.55E-02
91555,8.82E-03,1.55E-02
91556,8.75E-03,1.56E-02
91557,8.69E-03,1.56E-02
91558,8.64E-03,1.56E-02
91559,8.60E-03,1.56E-02
91560,8.56E-03,1.56E-02
91561,8.53E-03,1.56E-02
91562,8.50E-03,1.57E-02
91563,8.47E-03,1.57E-02
91564,8.44E-03,1.57E-02
91565,8.42E-03,1.57E-02
91566,8.40E-03,1.57E-02
91567,8.39E-03,1.58E-02
91568,8.37E-03,1.58E-02
91569,8.35E-03,1.58E-02
91570,8.34E-03,1.58E-02
91571,8.33E-03,1.58E-02
91572,8.32E-03,1.58E-02
91573,8.31E-03,1.59E-02
91574,8.29E-03,1.59E-02
91575,8.28E-03,1.59E-02
91576,8.27E-03,1.59E-02
91577,8.26E-03,1.59E-02
91578,8.26E-03,1.59E-02
91579,8.25E-03,1.60E-02
91580,8.24E-03,1.60E-02
91581,8.21E-03,1.60E-02
91582,8.10E-03,1.60E-02
91583,8.01E-03,1.60E-02
91584,7.99E-03,1.60E-02
91585,7.97E-03,1.60E-02
91586,7.93E-03,1.60E-02
91587,7.88E-03,1.60E-02
91588,7.77E-03,1.60E-02
91589,7.63E-03,1.60E-02
91590,7.63E-03,1.60E-02
91591,7.69E-03,1.60E-02
91592,7.65E-03,1.60E-02
91593,7.61E-03,1.60E-02
91594,7.56E-03,1.60E-02
91595,7.50E-03,1.60E-02
91596,7.44E-03,1.60E-02
91597,7.35E-03,1.60E-02
91598,7.25E-03,1.60E-02
91599,7.25E-03,1.60E-02
91600,7.36E-03,1.60E-02
91601,7.63E-03,1.60E-02
91602,9.45E-03,1.08E-02
91603,9.55E-03,1.05E-02
91604,1.00E-02,1.06E-02
91605,7.63E-03,1.53E-02
91606,7.99E-03,1.52E-02
91607,8.02E-03,1.51E-02
91608,8.11E-03,1.52E-02
91609,6.32E-03,1.15E-02
91610,7.90E-03,1.17E-02
91611,9.88E-03,1.17E-02
91612,1.04E-02,1.17E-02
91613,1.04E-02,1.17E-02
91614,1.06E-02,1.17E-02
91615,1.06E-02,1.17E-02
91616,1.03E-02,1.17E-02
91617,9.67E-03,1.17E-02
91618,9.30E-03,1.16E-02
91619,9.02E-03,1.16E-02
91620,8.52E-03,1.16E-02
91621,8.22E-03,1.16E-02
91622,8.12E-03,1.15E-02
91623,8.86E-03,1.15E-02
91624,7.95E-03,1.61E-02
91625,7.28E-03,1.04E-02
91626,9.82E-03,1.06E-02
91627,1.12E-02,1.06E-02
91628,1.10E-02,1.05E-02
91629,9.30E-03,1.05E-02
91630,9.26E-03,1.05E-02
91631,5.92E-03,1.04E-02
91632,6.48E-03,1.05E-02
91633,5.73E-03,1.05E-02
91634,5.27E-03,1.05E-02
91635,5.76E-03,1.05E-02
91636,6.13E-03,1.05E-02
91637,6.56E-03,1.05E-02
91638,7.40E-03,1.05E-02
91639,8.00E-03,1.05E-02
91640,7.95E-03,1.05E-02
91641,7.87E-03,1.05E-02
91642,7.88E-03,1.05E-02
91643,8.76E-03,1.05E-02
91644,7.52E-03,1.05E-02
91645,6.39E-03,1.05E-02
91646,5.92E-03,1.04E-02
91647,5.58E-03,1.04E-02
91648,8.26E-03,1.07E-02
91649,6.24E-03,1.07E-02
91650,6.27E-03,1.07E-02
91651,5.83E-03,1.07E-02
91652,5.86E-03,1.07E-02
91653,9.18E-03,1.07E-02
91654,8.15E-03,1.07E-02
91655,8.47E-03,1.07E-02
91656,7.42E-03,1.10E-02
91657,7.39E-03,1.10E-02
91658,6.83E-03,1.05E-02
91659,5.47E-03,1.05E-02
91660,7.32E-03,1.59E-02
91661,7.40E-03,1.58E-02
91662,7.52E-03,1.58E-02
91663,9.77E-03,1.57E-02
91664,9.93E-03,1.57E-02
91665,9.91E-03,1.57E-02
91666,9.22E-03,1.56E-02
91667,9.06E-03,1.56E-02
91668,8.64E-03,1.56E-02
91669,8.15E-03,1.56E-02
91670,8.32E-03,1.55E-02
91671,9.95E-03,1.53E-02
91672,1.06E-02,1.54E-02
91673,8.13E-03,1.46E-02
91674,8.04E-03,1.62E-02
91675,7.19E-03,1.08E-02
91676,8.49E-03,1.18E-02
91677,9.04E-03,1.19E-02
91678,8.23E-03,1.26E-02
91679,7.26E-03,1.30E-02
91680,7.37E-03,1.29E-02
91681,7.56E-03,1.28E-02
91682,7.69E-03,1.28E-02
91683,7.86E-03,1.27E-02
91684,8.11E-03,1.09E-02
91685,8.03E-03,1.12E-02
91686,7.11E-03,1.12E-02
91687,6.22E-03,1.08E-02
91688,1.03E-02,1.59E-02
91689,8.02E-03,1.51E-02
91690,8.38E-03,1.32E-02
91691,8.29E-03,1.06E-02
91692,8.22E-03,1.36E-02
91693,8.10E-03,1.36E-02
91694,7.45E-03,1.30E-02
91695,8.36E-03,1.26E-02
91696,7.16E-03,1.47E-02
91697,1.06E-02,1.55E-02
91698,8.97E-03,1.56E-02
91699,9.94E-03,1.57E-02
91700,6.98E-03,1.30E-02
91701,9.18E-03,1.05E-02
91702,1.03E-02,1.04E-02
91703,9.17E-03,1.04E-02
91704,9.66E-03,1.05E-02
91705,7.62E-03,1.04E-02
91706,6.87E-03,1.04E-02
91707,6.62E-03,1.04E-02
91708,7.69E-03,1.05E-02
91709,9.26E-03,1.65E-02
91710,7.94E-03,1.05E-02
91711,9.16E-03,1.05E-02
91712,8.54E-03,1.64E-02
91713,8.66E-03,1.65E-02
91714,1.08E-02,1.61E-02
91715,9.66E-03,1.63E-02
91716,8.38E-03,1.06E-02
91717,9.13E-03,1.06E-02
91718,7.42E-03,1.55E-02
91719,9.93E-03,1.56E-02
91720,9.92E-03,1.56E-02
91721,9.75E-03,1.57E-02
91722,9.50E-03,1.58E-02
91723,9.49E-03,1.59E-02
91724,9.14E-03,1.59E-02
91725,9.02E-03,1.60E-02
91726,8.92E-03,1.61E-02
91727,8.84E-03,1.61E-02
91728,1.02E-02,1.62E-02
91729,9.88E-03,1.62E-02
91730,7.58E-03,1.63E-02
91731,9.55E-03,1.62E-02
91732,9.96E-03,1.58E-02
91733,9.10E-03,1.62E-02
91734,8.74E-03,1.59E-02
91735,7.81E-03,1.62E-02
91736,6.02E-03,1.66E-02
91737,5.95E-03,1.67E-02
91738,6.12E-03,1.67E-02
91739,6.14E-03,1.67E-02
91740,6.34E-03,1.67E-02
91741,6.38E-03,1.67E-02
91742,6.50E-03,1.67E-02
91743,6.67E-03,1.67E-02
91744,6.70E-03,1.67E-02
91745,6.96E-03,1.66E-02
91746,7.61E-03,1.66E-02
91747,8.11E-03,1.66E-02
91748,8.18E-03,1.66E-02
91749,8.18E-03,1.66E-02
91750,8.21E-03,1.66E-02
91751,8.23E-03,1.66E-02
91752,8.19E-03,1.66E-02
91753,8.47E-03,1.65E-02
91754,8.83E-03,1.65E-02
91755,8.93E-03,1.65E-02
91756,8.71E-03,1.65E-02
91757,8.30E-03,1.65E-02
91758,8.24E-03,1.65E-02
91759,8.29E-03,1.65E-02
91760,8.56E-03,1.65E-02
91761,8.78E-03,1.65E-02
91762,8.74E-03,1.65E-02
91763,8.30E-03,1.66E-02
91764,7.48E-03,1.66E-02
91765,7.20E-03,1.65E-02
91766,7.44E-03,1.65E-02
91767,8.31E-03,1.65E-02
91768,8.23E-03,1.61E-02
91769,7.57E-03,1.08E-02
91770,9.75E-03,1.54E-02
91771,1.06E-02,1.55E-02
91772,9.27E-03,1.56E-02
91773,9.87E-03,1.09E-02
91774,9.77E-03,1.10E-02
91775,9.77E-03,1.10E-02
91776,9.85E-03,1.10E-02
91777,9.68E-03,1.10E-02
91778,9.62E-03,1.10E-02
91779,8.25E-03,1.09E-02
91780,6.38E-03,1.10E-02
91781,5.43E-03,1.10E-02
91782,5.11E-03,1.09E-02
91783,4.10E-03,1.09E-02
91784,4.10E-03,1.09E-02
91785,4.06E-03,1.09E-02
91786,7.03E-03,1.09E-02
91787,6.94E-03,1.09E-02
91788,6.85E-03,1.09E-02
91789,6.74E-03,1.09E-02
91790,6.62E-03,1.09E-02
91791,6.46E-03,1.09E-02
91792,6.37E-03,1.09E-02
91793,6.23E-03,1.09E-02
91794,6.45E-03,1.09E-02
91795,8.32E-03,1.07E-02
91796,7.64E-03,1.06E-02
91797,9.35E-03,1.04E-02
91798,9.15E-03,1.04E-02
91799,9.08E-03,1.04E-02
91800,8.34E-03,1.69E-02
91801,7.07E-03,1.67E-02
91802,6.95E-03,1.66E-02
91803,6.97E-03,1.65E-02
91804,7.11E-03,1.64E-02
91805,6.98E-03,1.64E-02
91806,5.46E-03,1.63E-02
91807,6.09E-03,1.54E-02
91808,7.57E-03,1.54E-02
91809,7.17E-03,1.41E-02
91810,8.09E-03,1.42E-02
91811,9.76E-03,1.61E-02
91812,8.74E-03,1.61E-02
91813,7.79E-03,1.06E-02
91814,7.00E-03,1.17E-02
91815,8.18E-03,1.17E-02
91816,8.19E-03,1.15E-02
91817,8.18E-03,1.22E-02
91818,8.18E-03,1.07E-02
91819,7.30E-03,1.06E-02
91820,9.68E-03,1.58E-02
91821,7.93E-03,1.53E-02
91822,7.88E-03,1.28E-02
91823,8.04E-03,1.28E-02
91824,8.61E-03,1.04E-02
91825,6.42E-03,1.04E-02
91826,9.00E-03,1.14E-02
91827,8.19E-03,1.13E-02
91828,6.97E-03,1.37E-02
91829,8.14E-03,1.65E-02
91830,6.49E-03,1.05E-02
91831,8.16E-03,1.61E-02
91832,8.32E-03,1.24E-02
91833,8.56E-03,1.24E-02
91834,8.79E-03,1.25E-02
91835,7.95E-03,1.48E-02
91836,4.49E-03,1.03E-02
91837,4.64E-03,1.03E-02
91838,6.58E-03,1.02E-02
91839,6.77E-03,1.03E-02
91840,6.96E-03,1.05E-02
91841,5.50E-03,1.64E-02
91842,7.38E-03,1.30E-02
91843,6.91E-03,1.29E-02
91844,7.65E-03,1.03E-02
91845,8.39E-03,1.01E-02
91846,6.56E-03,1.02E-02
91847,6.52E-03,1.03E-02
91848,9.80E-03,1.13E-02
91849,8.71E-03,1.11E-02
91850,4.96E-03,1.09E-02
91851,5.42E-03,1.09E-02
91852,7.66E-03,1.33E-02
91853,8.00E-03,1.33E-02
91854,9.19E-03,1.02E-02
91855,7.44E-03,1.05E-02
91856,8.25E-03,1.04E-02
91857,8.37E-03,1.04E-02
91858,7.71E-03,1.59E-02
91859,8.28E-03,1.58E-02
91860,1.04E-02,1.57E-02
91861,1.05E-02,1.56E-02
91862,9.98E-03,1.56E-02
91863,9.97E-03,1.55E-02
91864,9.66E-03,1.54E-02
91865,9.49E-03,1.53E-02
91866,9.54E-03,1.52E-02
91867,9.62E-03,1.51E-02
91868,9.74E-03,1.50E-02
91869,9.86E-03,1.49E-02
91870,9.97E-03,1.48E-02
91871,1.00E-02,1.47E-02
91872,9.98E-03,1.46E-02
91873,9.94E-03,1.45E-02
91874,9.93E-03,1.43E-02
91875,9.56E-03,1.42E-02
91876,9.12E-03,1.41E-02
91877,9.29E-03,1.39E-02
91878,9.06E-03,1.04E-02
91879,7.81E-03,1.05E-02
91880,7.89E-03,1.11E-02
91881,8.84E-03,1.17E-02
91882,8.22E-03,1.18E-02
91883,8.86E-03,1.54E-02
91884,6.28E-03,1.17E-02
91885,6.38E-03,1.16E-02
91886,8.63E-03,1.55E-02
91887,6.66E-03,1.05E-02
91888,5.35E-03,1.04E-02
91889,6.65E-03,1.04E-02
91890,8.03E-03,1.49E-02
91891,6.72E-03,1.04E-02
91892,6.83E-03,1.01E-02
91893,6.91E-03,1.01E-02
91894,8.53E-03,1.02E-02
91895,7.53E-03,1.08E-02
91896,7.10E-03,1.14E-02
91897,7.57E-03,1.14E-02
91898,9.60E-03,1.01E-02
91899,7.40E-03,1.05E-02
91900,5.52E-03,1.14E-02
91901,6.85E-03,1.14E-02
91902,5.05E-03,1.65E-02
91903,7.64E-03,1.04E-02
91904,1.10E-02,1.04E-02
91905,8.84E-03,1.05E-02
91906,1.15E-02,1.05E-02
91907,1.05E-02,1.05E-02
91908,6.65E-03,1.05E-02
91909,6.39E-03,1.05E-02
91910,6.20E-03,1.05E-02
91911,5.79E-03,1.05E-02
91912,5.32E-03,1.05E-02
91913,4.95E-03,1.05E-02
91914,5.85E-03,1.05E-02
91915,8.52E-03,1.48E-02
91916,8.95E-03,1.49E-02
91917,8.72E-03,1.50E-02
91918,8.57E-03,1.51E-02
91919,8.48E-03,1.52E-02
91920,8.23E-03,1.63E-02
91921,9.64E-03,1.08E-02
91922,9.86E-03,1.08E-02
91923,9.84E-03,1.08E-02
91924,9.76E-03,1.08E-02
91925,9.67E-03,1.08E-02
91926,9.56E-03,1.08E-02
91927,8.25E-03,1.08E-02
91928,7.06E-03,1.08E-02
91929,6.97E-03,1.08E-02
91930,6.87E-03,1.08E-02
91931,6.68E-03,1.08E-02
91932,6.54E-03,1.08E-02
91933,6.40E-03,1.08E-02
91934,6.25E-03,1.07E-02
91935,6.09E-03,1.07E-02
91936,5.43E-03,1.07E-02
91937,4.09E-03,1.07E-02
91938,3.20E-03,1.07E-02
91939,4.01E-03,1.07E-02
91940,3.62E-03,1.08E-02
91941,3.48E-03,1.07E-02
91942,3.98E-03,1.07E-02
91943,4.08E-03,1.08E-02
91944,4.94E-03,1.08E-02
91945,5.58E-03,1.08E-02
91946,6.30E-03,1.08E-02
91947,8.73E-03,1.19E-02
91948,8.10E-03,1.26E-02
91949,8.59E-03,1.09E-02
91950,9.88E-03,1.09E-02
91951,1.14E-02,1.09E-02
91952,1.10E-02,1.10E-02
91953,9.85E-03,1.10E-02
91954,7.29E-03,1.10E-02
91955,6.43E-03,1.10E-02
91956,6.11E-03,1.10E-02
91957,5.51E-03,1.10E-02
91958,5.29E-03,1.10E-02
91959,4.88E-03,1.10E-02
91960,4.34E-03,1.10E-02
91961,4.22E-03,1.10E-02
91962,4.26E-03,1.10E-02
91963,4.67E-03,1.10E-02
91964,4.98E-03,1.10E-02
91965,5.21E-03,1.11E-02
91966,5.52E-03,1.11E-02
91967,5.95E-03,1.11E-02
91968,6.88E-03,1.11E-02
91969,7.11E-03,1.11E-02
91970,1.03E-02,1.15E-02
91971,1.03E-02,1.15E-02
91972,1.02E-02,1.14E-02
91973,1.02E-02,1.14E-02
91974,1.01E-02,1.14E-02
91975,9.98E-03,1.14E-02
91976,9.91E-03,1.14E-02
91977,9.54E-03,1.13E-02
91978,9.26E-03,1.13E-02
91979,9.09E-03,1.13E-02
91980,8.69E-03,1.13E-02
91981,8.58E-03,1.12E-02
91982,8.50E-03,1.12E-02
91983,8.44E-03,1.12E-02
91984,8.39E-03,1.12E-02
91985,8.20E-03,1.11E-02
91986,7.78E-03,1.11E-02
91987,7.51E-03,1.11E-02
91988,7.47E-03,1.11E-02
91989,7.43E-03,1.10E-02
91990,7.37E-03,1.10E-02
91991,7.32E-03,1.10E-02
91992,7.25E-03,1.10E-02
91993,7.13E-03,1.09E-02
91994,7.07E-03,1.09E-02
91995,6.97E-03,1.09E-02
91996,6.85E-03,1.09E-02
91997,6.71E-03,1.09E-02
91998,6.56E-03,1.09E-02
91999,6.38E-03,1.08E-02
92000,6.07E-03,1.08E-02
92001,6.01E-03,1.08E-02
92002,6.29E-03,1.08E-02
92003,6.48E-03,1.08E-02
92004,6.57E-03,1.08E-02
92005,6.41E-03,1.08E-02
92006,6.21E-03,1.08E-02
92007,5.68E-03,1.08E-02
92008,5.54E-03,1.08E-02
92009,5.53E-03,1.08E-02
92010,5.71E-03,1.08E-02
92011,6.01E-03,1.08E-02
92012,6.23E-03,1.08E-02
92013,1.05E-02,1.59E-02
92014,1.05E-02,1.59E-02
92015,8.12E-03,1.36E-02
92016,8.14E-03,1.36E-02
92017,8.14E-03,1.37E-02
92018,8.14E-03,1.37E-02
92019,8.14E-03,1.37E-02
92020,8.14E-03,1.37E-02
92021,8.15E-03,1.37E-02
92022,8.16E-03,1.37E-02
92023,8.17E-03,1.37E-02
92024,8.17E-03,1.38E-02
92025,8.17E-03,1.38E-02
92026,8.18E-03,1.38E-02
92027,8.18E-03,1.38E-02
92028,8.19E-03,1.38E-02
92029,8.19E-03,1.38E-02
92030,8.20E-03,1.38E-02
92031,8.20E-03,1.39E-02
92032,8.21E-03,1.39E-02
92033,8.22E-03,1.39E-02
92034,8.22E-03,1.39E-02
92035,8.23E-03,1.39E-02
92036,8.24E-03,1.39E-02
92037,8.25E-03,1.39E-02
92038,8.27E-03,1.40E-02
92039,8.28E-03,1.40E-02
92040,8.29E-03,1.40E-02
92041,8.31E-03,1.40E-02
92042,8.33E-03,1.40E-02
92043,8.35E-03,1.40E-02
92044,8.37E-03,1.41E-02
92045,8.41E-03,1.41E-02
92046,8.46E-03,1.41E-02
92047,8.51E-03,1.41E-02
92048,8.56E-03,1.41E-02
92049,8.63E-03,1.42E-02
92050,8.70E-03,1.42E-02
92051,8.80E-03,1.42E-02
92052,8.92E-03,1.42E-02
92053,9.09E-03,1.42E-02
92054,9.31E-03,1.43E-02
92055,9.64E-03,1.43E-02
92056,1.01E-02,1.43E-02
92057,1.09E-02,1.43E-02
92058,1.07E-02,1.44E-02
92059,7.68E-03,1.44E-02
92060,5.70E-03,1.44E-02
92061,6.28E-03,1.44E-02
92062,6.65E-03,1.44E-02
92063,6.91E-03,1.45E-02
92064,7.10E-03,1.45E-02
92065,7.24E-03,1.45E-02
92066,7.36E-03,1.45E-02
92067,7.44E-03,1.45E-02
92068,7.52E-03,1.46E-02
92069,7.58E-03,1.46E-02
92070,7.63E-03,1.46E-02
92071,7.67E-03,1.46E-02
92072,7.70E-03,1.46E-02
92073,7.73E-03,1.46E-02
92074,7.76E-03,1.47E-02
92075,7.78E-03,1.47E-02
92076,7.81E-03,1.47E-02
92077,7.82E-03,1.47E-02
92078,7.84E-03,1.47E-02
92079,7.86E-03,1.47E-02
92080,7.87E-03,1.47E-02
92081,7.88E-03,1.48E-02
92082,7.89E-03,1.48E-02
92083,7.90E-03,1.48E-02
92084,7.91E-03,1.48E-02
92085,7.90E-03,1.48E-02
92086,7.89E-03,1.48E-02
92087,7.90E-03,1.48E-02
92088,7.94E-03,1.48E-02
92089,7.96E-03,1.49E-02
92090,7.98E-03,1.49E-02
92091,7.99E-03,1.49E-02
92092,8.01E-03,1.49E-02
92093,8.01E-03,1.49E-02
92094,8.02E-03,1.49E-02
92095,8.03E-03,1.49E-02
92096,8.10E-03,1.49E-02
92097,8.20E-03,1.49E-02
92098,8.24E-03,1.49E-02
92099,8.25E-03,1.49E-02
92100,8.26E-03,1.49E-02
92101,8.27E-03,1.49E-02
92102,8.28E-03,1.49E-02
92103,8.30E-03,1.50E-02
92104,8.31E-03,1.50E-02
92105,8.33E-03,1.50E-02
92106,8.35E-03,1.50E-02
92107,8.37E-03,1.50E-02
92108,8.40E-03,1.50E-02
92109,8.43E-03,1.50E-02
92110,8.46E-03,1.50E-02
92111,8.50E-03,1.50E-02
92112,8.55E-03,1.50E-02
92113,8.61E-03,1.50E-02
92114,8.79E-03,1.50E-02
92115,8.83E-03,1.51E-02
92116,8.94E-03,1.51E-02
92117,8.98E-03,1.51E-02
92118,1.12E-02,1.51E-02
92119,7.89E-03,1.23E-02
92120,7.37E-03,1.23E-02
92121,6.88E-03,1.22E-02
92122,6.90E-03,1.22E-02
92123,6.99E-03,1.21E-02
92124,7.05E-03,1.21E-02
92125,7.31E-03,1.21E-02
92126,7.42E-03,1.20E-02
92127,7.50E-03,1.20E-02
92128,7.57E-03,1.19E-02
92129,7.62E-03,1.19E-02
92130,7.67E-03,1.18E-02
92131,7.71E-03,1.18E-02
92132,7.74E-03,1.17E-02
92133,7.78E-03,1.17E-02
92134,7.85E-03,1.16E-02
92135,7.90E-03,1.16E-02
92136,7.89E-03,1.16E-02
92137,7.89E-03,1.15E-02
92138,7.88E-03,1.15E-02
92139,7.87E-03,1.14E-02
92140,7.86E-03,1.14E-02
92141,7.85E-03,1.13E-02
92142,7.84E-03,1.13E-02
92143,7.83E-03,1.13E-02
92144,7.82E-03,1.12E-02
92145,7.81E-03,1.12E-02
92146,7.80E-03,1.11E-02
92147,7.79E-03,1.11E-02
92148,7.77E-03,1.10E-02
92149,7.76E-03,1.10E-02
92150,7.74E-03,1.10E-02
92151,7.72E-03,1.09E-02
92152,7.70E-03,1.09E-02
92153,7.68E-03,1.09E-02
92154,7.71E-03,1.08E-02
92155,7.70E-03,1.08E-02
92156,7.70E-03,1.07E-02
92157,8.66E-03,1.07E-02
92158,7.96E-03,1.32E-02
92159,1.08E-02,1.06E-02
92160,9.24E-03,1.06E-02
92161,8.62E-03,1.06E-02
92162,8.31E-03,1.06E-02
92163,8.58E-03,1.07E-02
92164,8.91E-03,1.06E-02
92165,8.13E-03,1.36E-02
92166,8.14E-03,1.36E-02
92167,8.14E-03,1.36E-02
92168,8.15E-03,1.36E-02
92169,8.15E-03,1.35E-02
92170,8.15E-03,1.35E-02
92171,8.15E-03,1.35E-02
92172,8.15E-03,1.35E-02
92173,8.15E-03,1.35E-02
92174,8.15E-03,1.35E-02
92175,8.15E-03,1.35E-02
92176,8.15E-03,1.34E-02
92177,8.16E-03,1.34E-02
92178,8.16E-03,1.34E-02
92179,8.16E-03,1.34E-02
92180,8.16E-03,1.34E-02
92181,8.16E-03,1.34E-02
92182,8.16E-03,1.34E-02
92183,8.16E-03,1.34E-02
92184,8.17E-03,1.33E-02
92185,8.17E-03,1.33E-02
92186,8.17E-03,1.33E-02
92187,8.17E-03,1.33E-02
92188,8.17E-03,1.33E-02
92189,8.18E-03,1.33E-02
92190,8.18E-03,1.33E-02
92191,8.19E-03,1.32E-02
92192,8.19E-03,1.32E-02
92193,8.20E-03,1.32E-02
92194,8.20E-03,1.32E-02
92195,8.21E-03,1.32E-02
92196,8.22E-03,1.32E-02
92197,8.23E-03,1.32E-02
92198,8.23E-03,1.32E-02
92199,8.24E-03,1.32E-02
92200,8.24E-03,1.31E-02
92201,8.25E-03,1.31E-02
92202,8.26E-03,1.31E-02
92203,8.27E-03,1.31E-02
92204,8.28E-03,1.31E-02
92205,8.29E-03,1.31E-02
92206,8.30E-03,1.31E-02
92207,8.32E-03,1.31E-02
92208,8.33E-03,1.31E-02
92209,8.35E-03,1.31E-02
92210,8.37E-03,1.31E-02
92211,8.39E-03,1.30E-02
92212,8.41E-03,1.30E-02
92213,8.44E-03,1.30E-02
92214,8.47E-03,1.30E-02
92215,8.51E-03,1.30E-02
92216,8.55E-03,1.30E-02
92217,8.60E-03,1.30E-02
92218,8.65E-03,1.30E-02
92219,8.72E-03,1.30E-02
92220,8.90E-03,1.30E-02
92221,8.93E-03,1.30E-02
92222,9.20E-03,1.30E-02
92223,9.40E-03,1.30E-02
92224,9.53E-03,1.30E-02
92225,9.54E-03,1.30E-02
92226,9.60E-03,1.30E-02
92227,1.00E-02,1.27E-02
92228,1.24E-02,1.27E-02
92229,1.11E-02,1.28E-02
92230,1.07E-02,1.29E-02
92231,1.08E-02,1.30E-02
92232,1.08E-02,1.31E-02
92233,1.08E-02,1.31E-02
92234,9.93E-03,1.32E-02
92235,9.68E-03,1.33E-02
92236,9.45E-03,1.33E-02
92237,9.40E-03,1.34E-02
92238,9.18E-03,1.35E-02
92239,8.94E-03,1.35E-02
92240,8.75E-03,1.36E-02
92241,8.64E-03,1.37E-02
92242,8.77E-03,1.37E-02
92243,9.07E-03,1.38E-02
92244,9.26E-03,1.39E-02
92245,8.53E-03,1.39E-02
92246,7.75E-03,1.40E-02
92247,7.70E-03,1.41E-02
92248,7.70E-03,1.41E-02
92249,7.70E-03,1.42E-02
92250,7.66E-03,1.42E-02
92251,7.59E-03,1.43E-02
92252,7.40E-03,1.44E-02
92253,7.29E-03,1.44E-02
92254,7.15E-03,1.45E-02
92255,6.96E-03,1.45E-02
92256,6.73E-03,1.46E-02
92257,6.63E-03,1.46E-02
92258,6.73E-03,1.47E-02
92259,8.85E-03,1.56E-02
92260,9.18E-03,1.57E-02
92261,7.02E-03,1.30E-02
92262,1.06E-02,1.30E-02
92263,8.96E-03,1.30E-02
92264,8.98E-03,1.30E-02
92265,9.08E-03,1.30E-02
92266,9.19E-03,1.30E-02
92267,9.32E-03,1.30E-02
92268,9.48E-03,1.30E-02
92269,9.68E-03,1.30E-02
92270,9.99E-03,1.30E-02
92271,1.03E-02,1.30E-02
92272,1.06E-02,1.30E-02
92273,1.13E-02,1.30E-02
92274,1.07E-02,1.31E-02
92275,6.04E-03,1.31E-02
92276,5.76E-03,1.31E-02
92277,5.64E-03,1.31E-02
92278,5.42E-03,1.31E-02
92279,5.39E-03,1.31E-02
92280,5.76E-03,1.31E-02
92281,5.92E-03,1.31E-02
92282,6.38E-03,1.31E-02
92283,6.73E-03,1.31E-02
92284,6.81E-03,1.31E-02
92285,7.08E-03,1.31E-02
92286,7.19E-03,1.31E-02
92287,7.32E-03,1.31E-02
92288,7.47E-03,1.32E-02
92289,7.54E-03,1.32E-02
92290,7.53E-03,1.32E-02
92291,7.54E-03,1.32E-02
92292,8.25E-03,1.32E-02
92293,9.19E-03,1.33E-02
92294,9.23E-03,1.33E-02
92295,8.91E-03,1.33E-02
92296,8.84E-03,1.33E-02
92297,8.98E-03,1.34E-02
92298,9.01E-03,1.34E-02
92299,9.09E-03,1.34E-02
92300,9.08E-03,1.35E-02
92301,9.09E-03,1.35E-02
92302,9.23E-03,1.35E-02
92303,1.02E-02,1.36E-02
92304,9.66E-03,1.58E-02
92305,9.85E-03,1.58E-02
92306,1.03E-02,1.58E-02
92307,1.02E-02,1.58E-02
92308,1.01E-02,1.57E-02
92309,1.00E-02,1.57E-02
92310,9.74E-03,1.57E-02
92311,9.42E-03,1.57E-02
92312,9.10E-03,1.57E-02
92313,9.07E-03,1.57E-02
92314,9.05E-03,1.57E-02
92315,9.01E-03,1.58E-02
92316,8.97E-03,1.58E-02
92317,8.94E-03,1.58E-02
92318,8.88E-03,1.58E-02
92319,8.80E-03,1.58E-02
92320,8.74E-03,1.58E-02
92321,8.68E-03,1.58E-02
92322,8.63E-03,1.59E-02
92323,8.59E-03,1.59E-02
92324,8.55E-03,1.59E-02
92325,8.52E-03,1.59E-02
92326,8.49E-03,1.59E-02
92327,8.46E-03,1.59E-02
92328,8.44E-03,1.60E-02
92329,8.42E-03,1.60E-02
92330,8.40E-03,1.60E-02
92331,8.38E-03,1.60E-02
92332,8.36E-03,1.60E-02
92333,8.35E-03,1.61E-02
92334,8.34E-03,1.61E-02
92335,8.32E-03,1.61E-02
92336,8.31E-03,1.61E-02
92337,8.30E-03,1.61E-02
92338,8.29E-03,1.61E-02
92339,8.28E-03,1.61E-02
92340,8.27E-03,1.62E-02
92341,8.26E-03,1.62E-02
92342,8.25E-03,1.62E-02
92343,8.25E-03,1.62E-02
92344,8.24E-03,1.62E-02
92345,8.20E-03,1.62E-02
92346,8.10E-03,1.62E-02
92347,8.01E-03,1.62E-02
92348,7.99E-03,1.62E-02
92349,7.97E-03,1.63E-02
92350,7.94E-03,1.63E-02
92351,7.88E-03,1.63E-02
92352,7.78E-03,1.63E-02
92353,7.64E-03,1.63E-02
92354,7.64E-03,1.63E-02
92355,7.69E-03,1.63E-02
92356,7.66E-03,1.63E-02
92357,7.62E-03,1.63E-02
92358,7.57E-03,1.63E-02
92359,7.52E-03,1.62E-02
92360,7.45E-03,1.62E-02
92361,7.37E-03,1.62E-02
92362,7.27E-03,1.62E-02
92363,7.26E-03,1.62E-02
92364,7.42E-03,1.62E-02
92365,7.64E-03,1.62E-02
92366,9.77E-03,1.62E-02
92367,9.44E-03,1.62E-02
92368,7.93E-03,1.03E-02
92369,8.53E-03,1.03E-02
92370,8.36E-03,1.53E-02
92371,8.92E-03,1.51E-02
92372,8.78E-03,1.52E-02
92373,9.09E-03,1.15E-02
92374,1.02E-02,1.15E-02
92375,1.02E-02,1.15E-02
92376,1.04E-02,1.15E-02
92377,1.06E-02,1.15E-02
92378,1.09E-02,1.14E-02
92379,1.01E-02,1.14E-02
92380,9.57E-03,1.14E-02
92381,9.25E-03,1.14E-02
92382,9.04E-03,1.14E-02
92383,8.61E-03,1.14E-02
92384,8.26E-03,1.13E-02
92385,8.34E-03,1.13E-02
92386,8.74E-03,1.13E-02
92387,9.29E-03,1.13E-02
92388,9.22E-03,1.64E-02
92389,9.92E-03,1.05E-02
92390,1.11E-02,1.04E-02
92391,1.08E-02,1.04E-02
92392,9.61E-03,1.04E-02
92393,9.28E-03,1.04E-02
92394,1.00E-02,1.04E-02
92395,8.92E-03,1.03E-02
92396,6.43E-03,1.04E-02
92397,5.77E-03,1.04E-02
92398,5.32E-03,1.04E-02
92399,5.81E-03,1.04E-02
92400,6.17E-03,1.04E-02
92401,6.59E-03,1.04E-02
92402,7.48E-03,1.04E-02
92403,7.95E-03,1.04E-02
92404,7.88E-03,1.04E-02
92405,7.89E-03,1.04E-02
92406,7.86E-03,1.04E-02
92407,7.67E-03,1.04E-02
92408,6.51E-03,1.04E-02
92409,6.13E-03,1.04E-02
92410,5.80E-03,1.03E-02
92411,6.55E-03,1.03E-02
92412,8.59E-03,1.03E-02
92413,8.41E-03,1.05E-02
92414,6.44E-03,1.06E-02
92415,6.30E-03,1.06E-02
92416,5.90E-03,1.06E-02
92417,5.85E-03,1.06E-02
92418,9.36E-03,1.06E-02
92419,9.34E-03,1.06E-02
92420,9.73E-03,1.05E-02
92421,7.08E-03,1.70E-02
92422,6.03E-03,1.70E-02
92423,6.11E-03,1.70E-02
92424,6.11E-03,1.70E-02
92425,6.28E-03,1.70E-02
92426,6.37E-03,1.70E-02
92427,6.49E-03,1.70E-02
92428,6.68E-03,1.70E-02
92429,6.74E-03,1.70E-02
92430,7.12E-03,1.70E-02
92431,7.55E-03,1.70E-02
92432,8.17E-03,1.70E-02
92433,8.18E-03,1.70E-02
92434,8.18E-03,1.69E-02
92435,8.21E-03,1.69E-02
92436,8.32E-03,1.69E-02
92437,8.39E-03,1.69E-02
92438,8.53E-03,1.69E-02
92439,8.65E-03,1.69E-02
92440,8.72E-03,1.69E-02
92441,8.60E-03,1.68E-02
92442,8.43E-03,1.68E-02
92443,8.36E-03,1.68E-02
92444,8.42E-03,1.68E-02
92445,8.53E-03,1.68E-02
92446,8.61E-03,1.69E-02
92447,8.50E-03,1.69E-02
92448,8.34E-03,1.69E-02
92449,8.10E-03,1.69E-02
92450,8.02E-03,1.68E-02
92451,8.28E-03,1.68E-02
92452,9.18E-03,1.67E-02
92453,1.02E-02,1.63E-02
92454,1.13E-02,1.67E-02
92455,8.80E-03,1.61E-02
92456,9.98E-03,1.54E-02
92457,7.50E-03,1.08E-02
92458,7.51E-03,1.08E-02
92459,6.68E-03,1.03E-02
92460,6.59E-03,1.03E-02
92461,7.62E-03,1.03E-02
92462,8.12E-03,1.43E-02
92463,9.30E-03,1.53E-02
92464,9.48E-03,1.52E-02
92465,9.66E-03,1.51E-02
92466,8.62E-03,1.62E-02
92467,7.53E-03,1.06E-02
92468,7.65E-03,1.07E-02
92469,7.11E-03,1.06E-02
92470,8.98E-03,1.16E-02
92471,8.48E-03,1.15E-02
92472,7.73E-03,1.27E-02
92473,7.65E-03,1.26E-02
92474,7.82E-03,1.25E-02
92475,7.90E-03,1.25E-02
92476,8.06E-03,1.24E-02
92477,8.12E-03,1.22E-02
92478,9.00E-03,1.56E-02
92479,8.28E-03,1.07E-02
92480,6.70E-03,1.10E-02
92481,6.59E-03,1.05E-02
92482,9.97E-03,1.62E-02
92483,8.05E-03,1.53E-02
92484,7.90E-03,1.29E-02
92485,8.91E-03,1.04E-02
92486,7.34E-03,1.04E-02
92487,7.45E-03,1.12E-02
92488,1.06E-02,1.03E-02
92489,9.33E-03,1.03E-02
92490,8.07E-03,1.29E-02
92491,7.57E-03,1.04E-02
92492,6.60E-03,1.38E-02
92493,5.88E-03,1.05E-02
92494,7.46E-03,1.61E-02
92495,7.36E-03,1.60E-02
92496,7.49E-03,1.60E-02
92497,9.68E-03,1.60E-02
92498,9.66E-03,1.59E-02
92499,9.89E-03,1.59E-02
92500,9.05E-03,1.58E-02
92501,8.98E-03,1.58E-02
92502,8.80E-03,1.58E-02
92503,8.75E-03,1.57E-02
92504,9.77E-03,1.57E-02
92505,1.07E-02,1.57E-02
92506,8.21E-03,1.37E-02
92507,8.10E-03,1.37E-02
92508,8.06E-03,1.30E-02
92509,1.06E-02,1.54E-02
92510,9.34E-03,1.54E-02
92511,9.28E-03,1.56E-02
92512,9.27E-03,1.26E-02
92513,7.53E-03,1.48E-02
92514,8.98E-03,1.57E-02
92515,7.17E-03,1.03E-02
92516,8.83E-03,1.02E-02
92517,8.84E-03,1.02E-02
92518,7.41E-03,1.02E-02
92519,7.44E-03,1.04E-02
92520,5.95E-03,1.04E-02
92521,7.61E-03,1.66E-02
92522,6.67E-03,1.29E-02
92523,9.73E-03,1.61E-02
92524,6.87E-03,1.63E-02
92525,8.59E-03,1.02E-02
92526,9.27E-03,1.03E-02
92527,5.20E-03,1.66E-02
92528,6.35E-03,1.67E-02
92529,6.61E-03,1.67E-02
92530,6.55E-03,1.68E-02
92531,6.43E-03,1.69E-02
92532,7.36E-03,1.70E-02
92533,7.99E-03,1.11E-02
92534,7.45E-03,1.10E-02
92535,7.02E-03,1.08E-02
92536,5.09E-03,1.08E-02
92537,7.41E-03,1.34E-02
92538,8.52E-03,1.02E-02
92539,7.03E-03,1.02E-02
92540,6.57E-03,1.01E-02
92541,6.66E-03,1.01E-02
92542,7.37E-03,1.59E-02
92543,8.22E-03,1.59E-02
92544,1.03E-02,1.58E-02
92545,1.06E-02,1.57E-02
92546,1.01E-02,1.56E-02
92547,9.88E-03,1.55E-02
92548,9.51E-03,1.54E-02
92549,9.46E-03,1.53E-02
92550,9.50E-03,1.53E-02
92551,9.59E-03,1.52E-02
92552,9.70E-03,1.51E-02
92553,9.83E-03,1.50E-02
92554,9.93E-03,1.49E-02
92555,9.98E-03,1.47E-02
92556,9.99E-03,1.46E-02
92557,9.97E-03,1.45E-02
92558,9.82E-03,1.44E-02
92559,9.71E-03,1.43E-02
92560,9.67E-03,1.41E-02
92561,1.04E-02,1.39E-02
92562,8.53E-03,1.38E-02
92563,9.34E-03,1.37E-02
92564,7.65E-03,1.63E-02
92565,8.24E-03,1.65E-02
92566,9.53E-03,1.04E-02
92567,8.21E-03,1.39E-02
92568,8.64E-03,1.62E-02
92569,8.32E-03,1.05E-02
92570,7.87E-03,1.04E-02
92571,8.55E-03,1.14E-02
92572,8.15E-03,1.12E-02
92573,8.11E-03,1.19E-02
92574,1.05E-02,1.68E-02
92575,8.97E-03,1.69E-02
92576,8.26E-03,1.70E-02
92577,8.00E-03,1.66E-02
92578,8.54E-03,1.65E-02
92579,8.62E-03,1.05E-02
92580,8.30E-03,1.55E-02
92581,8.37E-03,1.55E-02
92582,5.57E-03,1.06E-02
92583,4.97E-03,1.05E-02
92584,7.45E-03,1.24E-02
92585,7.34E-03,1.25E-02
92586,7.44E-03,1.04E-02
92587,8.30E-03,1.23E-02
92588,8.66E-03,1.24E-02
92589,9.09E-03,1.25E-02
92590,7.89E-03,1.48E-02
92591,1.06E-02,1.04E-02
92592,8.25E-03,1.05E-02
92593,8.44E-03,1.04E-02
92594,6.64E-03,1.03E-02
92595,7.18E-03,1.03E-02
92596,9.43E-03,1.03E-02
92597,7.31E-03,1.00E-02
92598,7.13E-03,1.02E-02
92599,7.78E-03,1.30E-02
92600,8.36E-03,1.01E-02
92601,6.83E-03,1.29E-02
92602,5.64E-03,1.29E-02
92603,7.30E-03,1.72E-02
92604,9.30E-03,1.03E-02
92605,9.50E-03,1.03E-02
92606,6.84E-03,1.12E-02
92607,6.95E-03,1.11E-02
92608,7.80E-03,1.08E-02
92609,8.00E-03,1.15E-02
92610,9.85E-03,1.67E-02
92611,9.66E-03,1.57E-02
92612,9.68E-03,1.57E-02
92613,6.83E-03,1.04E-02
92614,6.09E-03,1.03E-02
92615,7.05E-03,1.02E-02
92616,7.33E-03,1.00E-02
92617,9.60E-03,1.51E-02
92618,7.68E-03,1.49E-02
92619,8.31E-03,1.01E-02
92620,7.55E-03,1.05E-02
92621,7.24E-03,1.10E-02
92622,7.52E-03,1.11E-02
92623,7.95E-03,1.55E-02
92624,1.01E-02,1.56E-02
92625,1.00E-02,1.57E-02
92626,9.68E-03,1.58E-02
92627,9.58E-03,1.58E-02
92628,9.51E-03,1.59E-02
92629,9.16E-03,1.60E-02
92630,9.05E-03,1.60E-02
92631,9.01E-03,1.61E-02
92632,9.42E-03,1.62E-02
92633,9.04E-03,1.62E-02
92634,8.92E-03,1.63E-02
92635,7.75E-03,1.63E-02
92636,7.52E-03,1.02E-02
92637,1.08E-02,1.51E-02
92638,1.15E-02,1.66E-02
92639,9.50E-03,1.59E-02
92640,6.32E-03,9.95E-03
92641,9.73E-03,1.02E-02
92642,7.59E-03,1.04E-02
92643,4.90E-03,1.02E-02
92644,5.13E-03,1.03E-02
92645,5.83E-03,1.03E-02
92646,6.34E-03,1.02E-02
92647,7.32E-03,1.02E-02
92648,7.49E-03,1.03E-02
92649,7.76E-03,1.03E-02
92650,7.84E-03,1.03E-02
92651,7.88E-03,1.03E-02
92652,7.66E-03,1.03E-02
92653,6.62E-03,1.03E-02
92654,6.21E-03,1.03E-02
92655,5.86E-03,1.03E-02
92656,5.41E-03,1.03E-02
92657,5.76E-03,1.03E-02
92658,6.47E-03,1.03E-02
92659,7.66E-03,1.03E-02
92660,1.10E-02,1.03E-02
92661,8.73E-03,1.03E-02
92662,1.13E-02,1.03E-02
92663,1.09E-02,1.03E-02
92664,6.59E-03,1.04E-02
92665,6.45E-03,1.04E-02
92666,6.20E-03,1.04E-02
92667,5.71E-03,1.04E-02
92668,5.18E-03,1.04E-02
92669,4.96E-03,1.04E-02
92670,5.44E-03,1.04E-02
92671,8.65E-03,1.44E-02
92672,8.91E-03,1.46E-02
92673,8.76E-03,1.47E-02
92674,8.70E-03,1.48E-02
92675,8.85E-03,1.50E-02
92676,8.49E-03,1.63E-02
92677,7.60E-03,1.06E-02
92678,7.58E-03,1.07E-02
92679,7.74E-03,1.07E-02
92680,6.13E-03,1.05E-02
92681,9.18E-03,1.06E-02
92682,9.25E-03,1.06E-02
92683,9.54E-03,1.06E-02
92684,9.75E-03,1.06E-02
92685,9.83E-03,1.06E-02
92686,9.76E-03,1.06E-02
92687,9.66E-03,1.06E-02
92688,9.46E-03,1.06E-02
92689,8.25E-03,1.06E-02
92690,7.17E-03,1.06E-02
92691,6.99E-03,1.06E-02
92692,6.83E-03,1.06E-02
92693,6.59E-03,1.06E-02
92694,6.52E-03,1.06E-02
92695,6.36E-03,1.06E-02
92696,6.13E-03,1.06E-02
92697,5.80E-03,1.06E-02
92698,5.40E-03,1.06E-02
92699,5.06E-03,1.06E-02
92700,3.75E-03,1.06E-02
92701,3.66E-03,1.06E-02
92702,3.85E-03,1.06E-02
92703,3.86E-03,1.06E-02
92704,4.03E-03,1.06E-02
92705,4.21E-03,1.06E-02
92706,4.64E-03,1.06E-02
92707,5.80E-03,1.06E-02
92708,6.52E-03,1.06E-02
92709,8.75E-03,1.16E-02
92710,8.17E-03,1.23E-02
92711,8.85E-03,1.57E-02
92712,8.34E-03,1.07E-02
92713,9.71E-03,1.07E-02
92714,1.13E-02,1.07E-02
92715,1.09E-02,1.08E-02
92716,9.81E-03,1.08E-02
92717,7.66E-03,1.08E-02
92718,6.45E-03,1.08E-02
92719,5.97E-03,1.08E-02
92720,5.71E-03,1.08E-02
92721,5.34E-03,1.08E-02
92722,4.86E-03,1.08E-02
92723,4.39E-03,1.08E-02
92724,3.92E-03,1.08E-02
92725,4.30E-03,1.08E-02
92726,4.93E-03,1.08E-02
92727,5.07E-03,1.08E-02
92728,5.38E-03,1.08E-02
92729,5.54E-03,1.09E-02
92730,5.74E-03,1.09E-02
92731,7.19E-03,1.09E-02
92732,7.26E-03,1.09E-02
92733,1.02E-02,1.12E-02
92734,1.04E-02,1.12E-02
92735,1.04E-02,1.12E-02
92736,1.03E-02,1.12E-02
92737,1.01E-02,1.12E-02
92738,9.94E-03,1.11E-02
92739,9.95E-03,1.11E-02
92740,9.50E-03,1.11E-02
92741,9.35E-03,1.11E-02
92742,8.91E-03,1.10E-02
92743,8.68E-03,1.10E-02
92744,8.57E-03,1.10E-02
92745,8.49E-03,1.10E-02
92746,8.43E-03,1.09E-02
92747,8.39E-03,1.09E-02
92748,8.20E-03,1.09E-02
92749,7.79E-03,1.09E-02
92750,7.52E-03,1.08E-02
92751,7.48E-03,1.08E-02
92752,7.44E-03,1.08E-02
92753,7.39E-03,1.08E-02
92754,7.33E-03,1.07E-02
92755,7.27E-03,1.07E-02
92756,7.20E-03,1.07E-02
92757,7.11E-03,1.07E-02
92758,7.02E-03,1.06E-02
92759,6.90E-03,1.06E-02
92760,6.76E-03,1.06E-02
92761,6.60E-03,1.06E-02
92762,6.37E-03,1.06E-02
92763,6.07E-03,1.06E-02
92764,6.00E-03,1.06E-02
92765,6.31E-03,1.05E-02
92766,6.60E-03,1.05E-02
92767,6.61E-03,1.05E-02
92768,6.44E-03,1.05E-02
92769,6.25E-03,1.05E-02
92770,5.87E-03,1.05E-02
92771,5.47E-03,1.05E-02
92772,5.37E-03,1.05E-02
92773,5.87E-03,1.05E-02
92774,6.17E-03,1.05E-02
92775,6.70E-03,1.05E-02
92776,1.00E-02,1.62E-02
92777,9.76E-03,1.63E-02
92778,8.12E-03,1.37E-02
92779,8.14E-03,1.37E-02
92780,8.14E-03,1.37E-02
92781,8.14E-03,1.37E-02
92782,8.14E-03,1.38E-02
92783,8.14E-03,1.38E-02
92784,8.15E-03,1.38E-02
92785,8.16E-03,1.38E-02
92786,8.16E-03,1.38E-02
92787,8.17E-03,1.38E-02
92788,8.17E-03,1.39E-02
92789,8.18E-03,1.39E-02
92790,8.18E-03,1.39E-02
92791,8.18E-03,1.39E-02
92792,8.19E-03,1.39E-02
92793,8.19E-03,1.39E-02
92794,8.20E-03,1.39E-02
92795,8.21E-03,1.40E-02
92796,8.21E-03,1.40E-02
92797,8.22E-03,1.40E-02
92798,8.23E-03,1.40E-02
92799,8.24E-03,1.40E-02
92800,8.25E-03,1.40E-02
92801,8.26E-03,1.41E-02
92802,8.27E-03,1.41E-02
92803,8.29E-03,1.41E-02
92804,8.30E-03,1.41E-02
92805,8.32E-03,1.41E-02
92806,8.35E-03,1.41E-02
92807,8.37E-03,1.42E-02
92808,8.40E-03,1.42E-02
92809,8.45E-03,1.42E-02
92810,8.50E-03,1.42E-02
92811,8.55E-03,1.42E-02
92812,8.61E-03,1.43E-02
92813,8.69E-03,1.43E-02
92814,8.78E-03,1.43E-02
92815,8.90E-03,1.43E-02
92816,9.06E-03,1.43E-02
92817,9.28E-03,1.44E-02
92818,9.61E-03,1.44E-02
92819,1.01E-02,1.44E-02
92820,1.09E-02,1.45E-02
92821,1.06E-02,1.45E-02
92822,7.69E-03,1.45E-02
92823,5.76E-03,1.45E-02
92824,6.32E-03,1.46E-02
92825,6.69E-03,1.46E-02
92826,6.94E-03,1.46E-02
92827,7.12E-03,1.46E-02
92828,7.26E-03,1.46E-02
92829,7.37E-03,1.47E-02
92830,7.46E-03,1.47E-02
92831,7.53E-03,1.47E-02
92832,7.59E-03,1.47E-02
92833,7.64E-03,1.47E-02
92834,7.68E-03,1.47E-02
92835,7.71E-03,1.48E-02
92836,7.74E-03,1.48E-02
92837,7.77E-03,1.48E-02
92838,7.79E-03,1.48E-02
92839,7.81E-03,1.48E-02
92840,7.83E-03,1.48E-02
92841,7.85E-03,1.49E-02
92842,7.86E-03,1.49E-02
92843,7.87E-03,1.49E-02
92844,7.89E-03,1.49E-02
92845,7.90E-03,1.49E-02
92846,7.91E-03,1.49E-02
92847,7.92E-03,1.50E-02
92848,7.91E-03,1.50E-02
92849,7.89E-03,1.50E-02
92850,7.91E-03,1.50E-02
92851,7.94E-03,1.50E-02
92852,7.96E-03,1.50E-02
92853,7.98E-03,1.50E-02
92854,8.00E-03,1.50E-02
92855,8.01E-03,1.50E-02
92856,8.02E-03,1.50E-02
92857,8.02E-03,1.51E-02
92858,8.03E-03,1.51E-02
92859,8.09E-03,1.51E-02
92860,8.19E-03,1.51E-02
92861,8.24E-03,1.51E-02
92862,8.25E-03,1.51E-02
92863,8.26E-03,1.51E-02
92864,8.27E-03,1.51E-02
92865,8.28E-03,1.51E-02
92866,8.29E-03,1.51E-02
92867,8.31E-03,1.51E-02
92868,8.33E-03,1.51E-02
92869,8.34E-03,1.51E-02
92870,8.37E-03,1.52E-02
92871,8.39E-03,1.52E-02
92872,8.42E-03,1.52E-02
92873,8.45E-03,1.52E-02
92874,8.49E-03,1.52E-02
92875,8.54E-03,1.52E-02
92876,8.60E-03,1.52E-02
92877,8.78E-03,1.52E-02
92878,8.87E-03,1.52E-02
92879,8.94E-03,1.53E-02
92880,9.07E-03,1.53E-02
92881,1.03E-02,1.53E-02
92882,7.84E-03,1.23E-02
92883,7.72E-03,1.22E-02
92884,6.73E-03,1.22E-02
92885,6.86E-03,1.21E-02
92886,6.98E-03,1.21E-02
92887,7.10E-03,1.20E-02
92888,7.33E-03,1.20E-02
92889,7.43E-03,1.19E-02
92890,7.51E-03,1.19E-02
92891,7.58E-03,1.19E-02
92892,7.63E-03,1.18E-02
92893,7.68E-03,1.18E-02
92894,7.72E-03,1.17E-02
92895,7.75E-03,1.17E-02
92896,7.79E-03,1.16E-02
92897,7.86E-03,1.16E-02
92898,7.90E-03,1.15E-02
92899,7.90E-03,1.15E-02
92900,7.89E-03,1.14E-02
92901,7.88E-03,1.14E-02
92902,7.88E-03,1.13E-02
92903,7.87E-03,1.13E-02
92904,7.86E-03,1.13E-02
92905,7.85E-03,1.12E-02
92906,7.84E-03,1.12E-02
92907,7.83E-03,1.11E-02
92908,7.82E-03,1.11E-02
92909,7.81E-03,1.10E-02
92910,7.79E-03,1.10E-02
92911,7.78E-03,1.10E-02
92912,7.76E-03,1.09E-02
92913,7.75E-03,1.09E-02
92914,7.73E-03,1.08E-02
92915,7.71E-03,1.08E-02
92916,7.69E-03,1.08E-02
92917,7.87E-03,1.07E-02
92918,7.88E-03,1.07E-02
92919,8.02E-03,1.06E-02
92920,8.18E-03,1.06E-02
92921,7.72E-03,1.29E-02
92922,9.86E-03,1.04E-02
92923,1.02E-02,1.04E-02
92924,7.49E-03,1.04E-02
92925,9.56E-03,1.05E-02
92926,8.59E-03,1.05E-02
92927,8.12E-03,1.37E-02
92928,8.14E-03,1.36E-02
92929,8.14E-03,1.36E-02
92930,8.14E-03,1.36E-02
92931,8.15E-03,1.36E-02
92932,8.15E-03,1.36E-02
92933,8.15E-03,1.36E-02
92934,8.15E-03,1.36E-02
92935,8.15E-03,1.35E-02
92936,8.15E-03,1.35E-02
92937,8.15E-03,1.35E-02
92938,8.15E-03,1.35E-02
92939,8.15E-03,1.35E-02
92940,8.16E-03,1.35E-02
92941,8.16E-03,1.34E-02
92942,8.16E-03,1.34E-02
92943,8.16E-03,1.34E-02
92944,8.16E-03,1.34E-02
92945,8.16E-03,1.34E-02
92946,8.16E-03,1.34E-02
92947,8.16E-03,1.34E-02
92948,8.17E-03,1.33E-02
92949,8.17E-03,1.33E-02
92950,8.17E-03,1.33E-02
92951,8.18E-03,1.33E-02
92952,8.18E-03,1.33E-02
92953,8.18E-03,1.33E-02
92954,8.19E-03,1.33E-02
92955,8.19E-03,1.32E-02
92956,8.20E-03,1.32E-02
92957,8.21E-03,1.32E-02
92958,8.22E-03,1.32E-02
92959,8.22E-03,1.32E-02
92960,8.23E-03,1.32E-02
92961,8.23E-03,1.32E-02
92962,8.24E-03,1.31E-02
92963,8.25E-03,1.31E-02
92964,8.26E-03,1.31E-02
92965,8.27E-03,1.31E-02
92966,8.28E-03,1.31E-02
92967,8.29E-03,1.31E-02
92968,8.30E-03,1.31E-02
92969,8.31E-03,1.31E-02
92970,8.33E-03,1.31E-02
92971,8.34E-03,1.30E-02
92972,8.36E-03,1.30E-02
92973,8.38E-03,1.30E-02
92974,8.41E-03,1.30E-02
92975,8.43E-03,1.30E-02
92976,8.46E-03,1.30E-02
92977,8.50E-03,1.30E-02
92978,8.54E-03,1.30E-02
92979,8.59E-03,1.30E-02
92980,8.64E-03,1.30E-02
92981,8.71E-03,1.30E-02
92982,8.89E-03,1.30E-02
92983,8.98E-03,1.30E-02
92984,9.10E-03,1.30E-02
92985,9.38E-03,1.30E-02
92986,9.52E-03,1.30E-02
92987,9.55E-03,1.30E-02
92988,9.68E-03,1.30E-02
92989,7.38E-03,1.63E-02
92990,7.30E-03,1.62E-02
92991,7.43E-03,1.62E-02
92992,9.26E-03,1.62E-02
92993,9.74E-03,1.61E-02
92994,9.78E-03,1.61E-02
92995,9.18E-03,1.60E-02
92996,9.04E-03,1.60E-02
92997,8.84E-03,1.60E-02
92998,8.85E-03,1.59E-02
92999,8.45E-03,1.59E-02
93000,8.56E-03,1.59E-02
93001,1.01E-02,1.26E-02
93002,1.02E-02,1.27E-02
93003,1.11E-02,1.28E-02
93004,1.09E-02,1.29E-02
93005,1.09E-02,1.29E-02
93006,1.09E-02,1.30E-02
93007,1.08E-02,1.31E-02
93008,9.83E-03,1.32E-02
93009,9.81E-03,1.32E-02
93010,9.39E-03,1.33E-02
93011,9.37E-03,1.34E-02
93012,9.18E-03,1.34E-02
93013,8.92E-03,1.35E-02
93014,8.73E-03,1.36E-02
93015,8.63E-03,1.36E-02
93016,8.76E-03,1.37E-02
93017,9.05E-03,1.38E-02
93018,9.24E-03,1.38E-02
93019,8.52E-03,1.39E-02
93020,7.75E-03,1.40E-02
93021,7.71E-03,1.40E-02
93022,7.71E-03,1.41E-02
93023,7.70E-03,1.42E-02
93024,7.67E-03,1.42E-02
93025,7.60E-03,1.43E-02
93026,7.44E-03,1.43E-02
93027,7.35E-03,1.44E-02
93028,7.25E-03,1.45E-02
93029,7.18E-03,1.45E-02
93030,7.15E-03,1.46E-02
93031,7.22E-03,1.46E-02
93032,7.37E-03,1.47E-02
93033,8.99E-03,1.58E-02
93034,1.01E-02,1.59E-02
93035,9.44E-03,1.58E-02
93036,7.95E-03,1.01E-02
93037,4.44E-03,1.72E-02
93038,5.68E-03,1.71E-02
93039,6.31E-03,1.71E-02
93040,6.49E-03,1.70E-02
93041,6.48E-03,1.70E-02
93042,7.26E-03,1.68E-02
93043,6.88E-03,1.29E-02
93044,1.03E-02,1.29E-02
93045,9.06E-03,1.29E-02
93046,9.07E-03,1.29E-02
93047,9.05E-03,1.29E-02
93048,9.16E-03,1.29E-02
93049,9.29E-03,1.29E-02
93050,9.45E-03,1.30E-02
93051,9.64E-03,1.30E-02
93052,1.00E-02,1.30E-02
93053,1.03E-02,1.30E-02
93054,1.05E-02,1.30E-02
93055,1.12E-02,1.30E-02
93056,1.07E-02,1.30E-02
93057,6.02E-03,1.30E-02
93058,5.90E-03,1.30E-02
93059,5.70E-03,1.30E-02
93060,5.43E-03,1.30E-02
93061,5.47E-03,1.30E-02
93062,5.71E-03,1.30E-02
93063,6.04E-03,1.30E-02
93064,6.36E-03,1.30E-02
93065,6.74E-03,1.30E-02
93066,6.93E-03,1.30E-02
93067,7.10E-03,1.30E-02
93068,7.20E-03,1.30E-02
93069,7.34E-03,1.30E-02
93070,7.48E-03,1.30E-02
93071,7.55E-03,1.31E-02
93072,7.55E-03,1.31E-02
93073,7.55E-03,1.31E-02
93074,8.24E-03,1.31E-02
93075,9.17E-03,1.31E-02
93076,9.21E-03,1.32E-02
93077,8.89E-03,1.32E-02
93078,8.83E-03,1.32E-02
93079,8.98E-03,1.32E-02
93080,9.01E-03,1.33E-02
93081,9.07E-03,1.33E-02
93082,9.17E-03,1.33E-02
93083,9.15E-03,1.34E-02
93084,9.46E-03,1.34E-02
93085,9.85E-03,1.35E-02
93086,9.71E-03,1.61E-02
93087,9.87E-03,1.61E-02
93088,1.01E-02,1.61E-02
93089,1.01E-02,1.60E-02
93090,1.00E-02,1.60E-02
93091,9.96E-03,1.60E-02
93092,9.77E-03,1.60E-02
93093,9.35E-03,1.60E-02
93094,9.08E-03,1.60E-02
93095,9.05E-03,1.60E-02
93096,9.03E-03,1.60E-02
93097,8.99E-03,1.60E-02
93098,8.95E-03,1.60E-02
93099,8.92E-03,1.60E-02
93100,8.86E-03,1.61E-02
93101,8.79E-03,1.61E-02
93102,8.72E-03,1.61E-02
93103,8.67E-03,1.61E-02
93104,8.62E-03,1.61E-02
93105,8.58E-03,1.61E-02
93106,8.54E-03,1.62E-02
93107,8.51E-03,1.62E-02
93108,8.48E-03,1.62E-02
93109,8.45E-03,1.62E-02
93110,8.43E-03,1.62E-02
93111,8.41E-03,1.62E-02
93112,8.39E-03,1.63E-02
93113,8.37E-03,1.63E-02
93114,8.36E-03,1.63E-02
93115,8.34E-03,1.63E-02
93116,8.33E-03,1.63E-02
93117,8.32E-03,1.63E-02
93118,8.31E-03,1.64E-02
93119,8.30E-03,1.64E-02
93120,8.28E-03,1.64E-02
93121,8.27E-03,1.64E-02
93122,8.26E-03,1.64E-02
93123,8.25E-03,1.64E-02
93124,8.25E-03,1.64E-02
93125,8.24E-03,1.64E-02
93126,8.23E-03,1.65E-02
93127,8.20E-03,1.65E-02
93128,8.10E-03,1.65E-02
93129,8.01E-03,1.65E-02
93130,7.99E-03,1.65E-02
93131,7.97E-03,1.65E-02
93132,7.94E-03,1.65E-02
93133,7.89E-03,1.65E-02
93134,7.78E-03,1.65E-02
93135,7.65E-03,1.65E-02
93136,7.65E-03,1.65E-02
93137,7.70E-03,1.65E-02
93138,7.67E-03,1.65E-02
93139,7.63E-03,1.65E-02
93140,7.58E-03,1.65E-02
93141,7.53E-03,1.65E-02
93142,7.46E-03,1.65E-02
93143,7.33E-03,1.65E-02
93144,7.28E-03,1.65E-02
93145,7.20E-03,1.64E-02
93146,7.28E-03,1.64E-02
93147,7.30E-03,1.64E-02
93148,7.10E-03,1.64E-02
93149,7.46E-03,1.65E-02
93150,7.89E-03,1.65E-02
93151,8.76E-03,1.02E-02
93152,8.54E-03,1.03E-02
93153,9.93E-03,1.53E-02
93154,9.55E-03,1.52E-02
93155,9.24E-03,1.52E-02
93156,9.87E-03,1.13E-02
93157,1.02E-02,1.12E-02
93158,1.04E-02,1.12E-02
93159,1.05E-02,1.12E-02
93160,1.07E-02,1.12E-02
93161,1.10E-02,1.12E-02
93162,1.02E-02,1.12E-02
93163,9.47E-03,1.12E-02
93164,9.09E-03,1.12E-02
93165,9.01E-03,1.12E-02
93166,8.70E-03,1.11E-02
93167,8.24E-03,1.11E-02
93168,8.34E-03,1.11E-02
93169,8.25E-03,1.11E-02
93170,9.40E-03,1.69E-02
93171,7.65E-03,1.70E-02
93172,1.04E-02,1.69E-02
93173,9.99E-03,1.67E-02
93174,1.02E-02,1.59E-02
93175,3.77E-03,1.74E-02
93176,7.10E-03,9.89E-03
93177,6.96E-03,1.07E-02
93178,6.99E-03,1.02E-02
93179,6.94E-03,1.02E-02
93180,9.47E-03,1.02E-02
93181,9.09E-03,1.02E-02
93182,6.12E-03,1.35E-02
93183,6.03E-03,1.02E-02
93184,9.29E-03,1.36E-02
93185,9.90E-03,1.04E-02
93186,1.10E-02,1.03E-02
93187,1.09E-02,1.03E-02
93188,9.85E-03,1.03E-02
93189,9.00E-03,1.03E-02
93190,8.89E-03,1.03E-02
93191,8.68E-03,1.03E-02
93192,9.04E-03,1.02E-02
93193,6.60E-03,1.02E-02
93194,6.55E-03,1.02E-02
93195,7.66E-03,1.02E-02
93196,5.54E-03,1.02E-02
93197,5.36E-03,1.02E-02
93198,8.17E-03,1.40E-02
93199,7.41E-03,1.51E-02
93200,8.38E-03,1.50E-02
93201,9.71E-03,1.49E-02
93202,9.82E-03,1.48E-02
93203,5.95E-03,1.65E-02
93204,6.84E-03,1.64E-02
93205,7.76E-03,1.64E-02
93206,8.38E-03,1.63E-02
93207,7.35E-03,1.05E-02
93208,8.23E-03,1.05E-02
93209,7.27E-03,1.04E-02
93210,8.58E-03,1.13E-02
93211,8.43E-03,1.12E-02
93212,7.66E-03,1.24E-02
93213,7.84E-03,1.23E-02
93214,8.15E-03,1.22E-02
93215,8.08E-03,1.22E-02
93216,8.16E-03,1.21E-02
93217,8.12E-03,1.19E-02
93218,9.84E-03,1.64E-02
93219,8.30E-03,1.05E-02
93220,6.76E-03,1.07E-02
93221,9.46E-03,1.65E-02
93222,8.17E-03,1.66E-02
93223,8.27E-03,1.55E-02
93224,5.93E-03,1.05E-02
93225,6.71E-03,1.27E-02
93226,6.82E-03,1.26E-02
93227,7.38E-03,1.26E-02
93228,9.53E-03,1.03E-02
93229,7.91E-03,1.04E-02
93230,8.21E-03,1.38E-02
93231,8.10E-03,1.37E-02
93232,1.00E-02,1.29E-02
93233,8.58E-03,1.57E-02
93234,7.82E-03,1.56E-02
93235,7.21E-03,1.56E-02
93236,5.53E-03,1.57E-02
93237,8.70E-03,1.61E-02
93238,8.37E-03,1.60E-02
93239,8.29E-03,1.59E-02
93240,1.06E-02,1.58E-02
93241,1.05E-02,1.57E-02
93242,1.01E-02,1.56E-02
93243,9.67E-03,1.56E-02
93244,9.56E-03,1.55E-02
93245,9.43E-03,1.54E-02
93246,9.47E-03,1.53E-02
93247,9.55E-03,1.52E-02
93248,9.67E-03,1.51E-02
93249,9.79E-03,1.50E-02
93250,9.89E-03,1.49E-02
93251,9.94E-03,1.48E-02
93252,9.95E-03,1.47E-02
93253,9.95E-03,1.45E-02
93254,9.87E-03,1.44E-02
93255,9.78E-03,1.43E-02
93256,1.00E-02,1.42E-02
93257,1.01E-02,1.40E-02
93258,9.62E-03,1.39E-02
93259,9.33E-03,1.37E-02
93260,9.03E-03,1.36E-02
93261,6.71E-03,1.65E-02
93262,6.67E-03,1.65E-02
93263,9.56E-03,1.25E-02
93264,7.92E-03,1.48E-02
93265,6.68E-03,1.05E-02
93266,6.29E-03,1.05E-02
93267,5.81E-03,1.05E-02
93268,5.86E-03,1.05E-02
93269,9.79E-03,1.05E-02
93270,1.05E-02,1.04E-02
93271,1.03E-02,1.04E-02
93272,9.35E-03,1.04E-02
93273,7.14E-03,1.03E-02
93274,6.37E-03,1.03E-02
93275,9.37E-03,1.03E-02
93276,8.29E-03,1.03E-02
93277,7.85E-03,1.02E-02
93278,1.03E-02,1.00E-02
93279,6.65E-03,9.89E-03
93280,6.73E-03,9.98E-03
93281,6.05E-03,1.01E-02
93282,7.62E-03,1.31E-02
93283,7.77E-03,1.01E-02
93284,8.16E-03,1.59E-02
93285,6.75E-03,1.29E-02
93286,6.53E-03,1.73E-02
93287,6.05E-03,1.73E-02
93288,6.01E-03,1.73E-02
93289,6.09E-03,1.73E-02
93290,6.28E-03,1.73E-02
93291,6.45E-03,1.73E-02
93292,6.50E-03,1.73E-02
93293,6.65E-03,1.73E-02
93294,6.72E-03,1.73E-02
93295,7.10E-03,1.73E-02
93296,7.74E-03,1.73E-02
93297,8.17E-03,1.73E-02
93298,8.18E-03,1.73E-02
93299,8.18E-03,1.73E-02
93300,8.21E-03,1.73E-02
93301,8.31E-03,1.72E-02
93302,8.44E-03,1.72E-02
93303,8.53E-03,1.72E-02
93304,8.57E-03,1.72E-02
93305,8.58E-03,1.72E-02
93306,8.56E-03,1.72E-02
93307,8.54E-03,1.72E-02
93308,8.57E-03,1.72E-02
93309,8.64E-03,1.72E-02
93310,8.60E-03,1.72E-02
93311,8.56E-03,1.72E-02
93312,8.58E-03,1.72E-02
93313,8.48E-03,1.72E-02
93314,8.43E-03,1.71E-02
93315,8.61E-03,1.71E-02
93316,9.03E-03,1.71E-02
93317,9.63E-03,1.71E-02
93318,1.01E-02,1.71E-02
93319,1.03E-02,1.71E-02
93320,1.00E-02,1.72E-02
93321,9.37E-03,1.72E-02
93322,8.84E-03,1.73E-02
93323,8.82E-03,1.73E-02
93324,9.70E-03,1.74E-02
93325,9.54E-03,1.64E-02
93326,6.04E-03,1.70E-02
93327,9.33E-03,1.03E-02
93328,8.24E-03,1.36E-02
93329,8.64E-03,1.03E-02
93330,7.46E-03,1.04E-02
93331,9.44E-03,1.02E-02
93332,8.12E-03,1.02E-02
93333,8.44E-03,1.01E-02
93334,8.18E-03,1.11E-02
93335,8.07E-03,1.09E-02
93336,8.05E-03,1.16E-02
93337,9.58E-03,1.51E-02
93338,1.02E-02,1.51E-02
93339,8.39E-03,1.65E-02
93340,8.04E-03,1.63E-02
93341,8.82E-03,1.62E-02
93342,8.07E-03,1.03E-02
93343,8.42E-03,1.57E-02
93344,7.50E-03,1.04E-02
93345,6.75E-03,1.21E-02
93346,6.67E-03,1.22E-02
93347,9.99E-03,1.02E-02
93348,7.56E-03,1.02E-02
93349,7.65E-03,1.00E-02
93350,6.41E-03,1.29E-02
93351,6.85E-03,1.02E-02
93352,6.62E-03,1.01E-02
93353,8.42E-03,1.62E-02
93354,8.63E-03,1.62E-02
93355,8.19E-03,1.23E-02
93356,8.61E-03,1.23E-02
93357,9.37E-03,1.24E-02
93358,6.07E-03,1.01E-02
93359,8.15E-03,1.59E-02
93360,6.63E-03,1.61E-02
93361,7.55E-03,1.61E-02
93362,7.37E-03,1.03E-02
93363,6.69E-03,9.93E-03
93364,6.77E-03,9.84E-03
93365,6.83E-03,1.27E-02
93366,7.66E-03,1.49E-02
93367,6.47E-03,1.49E-02
93368,8.01E-03,1.01E-02
93369,9.16E-03,1.02E-02
93370,7.28E-03,1.09E-02
93371,7.36E-03,1.08E-02
93372,7.80E-03,1.05E-02
93373,7.76E-03,1.12E-02
93374,8.67E-03,1.65E-02
93375,8.66E-03,1.64E-02
93376,8.26E-03,1.63E-02
93377,9.41E-03,1.51E-02
93378,6.87E-03,1.50E-02
93379,7.91E-03,1.00E-02
93380,5.03E-03,9.85E-03
93381,6.43E-03,9.99E-03
93382,1.00E-02,1.02E-02
93383,8.77E-03,1.02E-02
93384,7.61E-03,1.01E-02
93385,7.17E-03,1.67E-02
93386,6.91E-03,1.67E-02
93387,8.71E-03,1.66E-02
93388,6.92E-03,1.66E-02
93389,5.80E-03,1.66E-02
93390,6.51E-03,1.65E-02
93391,6.48E-03,1.66E-02
93392,7.64E-03,1.00E-02
93393,9.17E-03,1.56E-02
93394,1.01E-02,1.56E-02
93395,9.98E-03,1.57E-02
93396,9.74E-03,1.58E-02
93397,9.62E-03,1.59E-02
93398,9.49E-03,1.59E-02
93399,9.17E-03,1.60E-02
93400,8.91E-03,1.61E-02
93401,9.00E-03,1.61E-02
93402,9.03E-03,1.62E-02
93403,8.83E-03,1.63E-02
93404,8.46E-03,1.63E-02
93405,7.86E-03,1.64E-02
93406,7.46E-03,1.64E-02
93407,7.90E-03,1.02E-02
93408,7.31E-03,1.07E-02
93409,7.45E-03,1.08E-02
93410,6.67E-03,1.10E-02
93411,6.80E-03,1.09E-02
93412,7.79E-03,1.07E-02
93413,8.38E-03,1.05E-02
93414,8.29E-03,9.78E-03
93415,7.92E-03,9.88E-03
93416,9.72E-03,1.61E-02
93417,1.04E-02,1.01E-02
93418,4.06E-03,1.74E-02
93419,6.25E-03,1.02E-02
93420,4.47E-03,1.01E-02
93421,5.43E-03,1.01E-02
93422,5.89E-03,1.01E-02
93423,6.33E-03,1.01E-02
93424,6.95E-03,1.01E-02
93425,7.39E-03,1.01E-02
93426,7.67E-03,1.01E-02
93427,7.80E-03,1.01E-02
93428,7.75E-03,1.01E-02
93429,7.73E-03,1.01E-02
93430,6.76E-03,1.01E-02
93431,6.20E-03,1.01E-02
93432,5.90E-03,1.02E-02
93433,5.57E-03,1.02E-02
93434,5.59E-03,1.02E-02
93435,6.43E-03,1.02E-02
93436,7.70E-03,1.02E-02
93437,1.09E-02,1.02E-02
93438,8.61E-03,1.02E-02
93439,1.13E-02,1.02E-02
93440,1.09E-02,1.02E-02
93441,6.69E-03,1.02E-02
93442,6.58E-03,1.02E-02
93443,6.22E-03,1.02E-02
93444,5.63E-03,1.02E-02
93445,5.05E-03,1.02E-02
93446,4.73E-03,1.02E-02
93447,5.15E-03,1.02E-02
93448,8.86E-03,1.41E-02
93449,9.02E-03,1.43E-02
93450,8.77E-03,1.44E-02
93451,8.65E-03,1.45E-02
93452,8.65E-03,1.46E-02
93453,8.34E-03,1.63E-02
93454,7.54E-03,1.05E-02
93455,8.29E-03,1.05E-02
93456,8.12E-03,1.05E-02
93457,9.24E-03,1.05E-02
93458,9.69E-03,1.05E-02
93459,9.82E-03,1.05E-02
93460,9.85E-03,1.05E-02
93461,9.80E-03,1.05E-02
93462,9.75E-03,1.04E-02
93463,9.35E-03,1.04E-02
93464,8.24E-03,1.04E-02
93465,7.25E-03,1.04E-02
93466,7.01E-03,1.04E-02
93467,6.78E-03,1.04E-02
93468,6.60E-03,1.04E-02
93469,6.53E-03,1.04E-02
93470,6.33E-03,1.04E-02
93471,6.09E-03,1.04E-02
93472,5.80E-03,1.04E-02
93473,5.47E-03,1.04E-02
93474,5.21E-03,1.04E-02
93475,4.11E-03,1.04E-02
93476,3.89E-03,1.04E-02
93477,3.87E-03,1.04E-02
93478,3.90E-03,1.04E-02
93479,4.15E-03,1.04E-02
93480,4.28E-03,1.04E-02
93481,4.71E-03,1.04E-02
93482,5.44E-03,1.04E-02
93483,6.31E-03,1.04E-02
93484,8.90E-03,1.13E-02
93485,8.22E-03,1.20E-02
93486,7.96E-03,1.65E-02
93487,9.68E-03,1.56E-02
93488,9.82E-03,1.57E-02
93489,9.92E-03,1.57E-02
93490,9.79E-03,1.58E-02
93491,9.61E-03,1.59E-02
93492,9.45E-03,1.60E-02
93493,9.12E-03,1.61E-02
93494,8.84E-03,1.61E-02
93495,8.81E-03,1.62E-02
93496,8.79E-03,1.63E-02
93497,8.64E-03,1.63E-02
93498,8.15E-03,1.64E-02
93499,8.02E-03,1.64E-02
93500,9.85E-03,1.54E-02
93501,8.75E-03,1.53E-02
93502,8.15E-03,1.05E-02
93503,9.53E-03,1.05E-02
93504,1.13E-02,1.06E-02
93505,1.09E-02,1.06E-02
93506,9.78E-03,1.06E-02
93507,7.89E-03,1.06E-02
93508,6.50E-03,1.06E-02
93509,5.96E-03,1.06E-02
93510,5.83E-03,1.06E-02
93511,5.42E-03,1.06E-02
93512,4.98E-03,1.06E-02
93513,4.41E-03,1.06E-02
93514,3.60E-03,1.06E-02
93515,4.13E-03,1.06E-02
93516,5.00E-03,1.06E-02
93517,5.32E-03,1.06E-02
93518,5.48E-03,1.06E-02
93519,5.53E-03,1.07E-02
93520,5.73E-03,1.07E-02
93521,7.85E-03,1.07E-02
93522,7.56E-03,1.07E-02
93523,1.17E-02,1.10E-02
93524,1.07E-02,1.10E-02
93525,1.06E-02,1.10E-02
93526,1.05E-02,1.09E-02
93527,1.02E-02,1.09E-02
93528,1.01E-02,1.09E-02
93529,9.81E-03,1.09E-02
93530,9.49E-03,1.09E-02
93531,9.41E-03,1.08E-02
93532,8.82E-03,1.08E-02
93533,8.66E-03,1.08E-02
93534,8.56E-03,1.07E-02
93535,8.48E-03,1.07E-02
93536,8.42E-03,1.07E-02
93537,8.38E-03,1.07E-02
93538,8.20E-03,1.06E-02
93539,7.80E-03,1.06E-02
93540,7.54E-03,1.06E-02
93541,7.50E-03,1.05E-02
93542,7.45E-03,1.05E-02
93543,7.41E-03,1.05E-02
93544,7.35E-03,1.05E-02
93545,7.29E-03,1.04E-02
93546,7.22E-03,1.04E-02
93547,7.14E-03,1.04E-02
93548,7.04E-03,1.04E-02
93549,6.93E-03,1.04E-02
93550,6.79E-03,1.03E-02
93551,6.63E-03,1.03E-02
93552,6.41E-03,1.03E-02
93553,6.11E-03,1.03E-02
93554,6.05E-03,1.03E-02
93555,6.35E-03,1.03E-02
93556,6.63E-03,1.03E-02
93557,6.64E-03,1.03E-02
93558,6.48E-03,1.02E-02
93559,6.29E-03,1.02E-02
93560,5.99E-03,1.02E-02
93561,5.46E-03,1.02E-02
93562,5.35E-03,1.02E-02
93563,6.06E-03,1.02E-02
93564,6.21E-03,1.02E-02
93565,7.36E-03,1.02E-02
93566,9.20E-03,1.65E-02
93567,9.01E-03,1.66E-02
93568,8.12E-03,1.38E-02
93569,8.14E-03,1.38E-02
93570,8.14E-03,1.38E-02
93571,8.14E-03,1.38E-02
93572,8.13E-03,1.38E-02
93573,8.14E-03,1.39E-02
93574,8.15E-03,1.39E-02
93575,8.16E-03,1.39E-02
93576,8.16E-03,1.39E-02
93577,8.17E-03,1.39E-02
93578,8.17E-03,1.39E-02
93579,8.17E-03,1.39E-02
93580,8.18E-03,1.40E-02
93581,8.18E-03,1.40E-02
93582,8.19E-03,1.40E-02
93583,8.19E-03,1.40E-02
93584,8.20E-03,1.40E-02
93585,8.20E-03,1.41E-02
93586,8.21E-03,1.41E-02
93587,8.22E-03,1.41E-02
93588,8.23E-03,1.41E-02
93589,8.24E-03,1.41E-02
93590,8.25E-03,1.41E-02
93591,8.26E-03,1.42E-02
93592,8.27E-03,1.42E-02
93593,8.28E-03,1.42E-02
93594,8.30E-03,1.42E-02
93595,8.32E-03,1.42E-02
93596,8.34E-03,1.42E-02
93597,8.36E-03,1.43E-02
93598,8.39E-03,1.43E-02
93599,8.44E-03,1.43E-02
93600,8.49E-03,1.43E-02
93601,8.54E-03,1.44E-02
93602,8.60E-03,1.44E-02
93603,8.67E-03,1.44E-02
93604,8.77E-03,1.44E-02
93605,8.88E-03,1.44E-02
93606,9.04E-03,1.45E-02
93607,9.26E-03,1.45E-02
93608,9.57E-03,1.45E-02
93609,1.01E-02,1.45E-02
93610,1.08E-02,1.46E-02
93611,1.06E-02,1.46E-02
93612,7.70E-03,1.46E-02
93613,5.81E-03,1.47E-02
93614,6.36E-03,1.47E-02
93615,6.72E-03,1.47E-02
93616,6.96E-03,1.47E-02
93617,7.14E-03,1.47E-02
93618,7.28E-03,1.48E-02
93619,7.39E-03,1.48E-02
93620,7.47E-03,1.48E-02
93621,7.54E-03,1.48E-02
93622,7.60E-03,1.48E-02
93623,7.65E-03,1.49E-02
93624,7.69E-03,1.49E-02
93625,7.72E-03,1.49E-02
93626,7.75E-03,1.49E-02
93627,7.78E-03,1.49E-02
93628,7.80E-03,1.50E-02
93629,7.82E-03,1.50E-02
93630,7.84E-03,1.50E-02
93631,7.85E-03,1.50E-02
93632,7.87E-03,1.50E-02
93633,7.88E-03,1.50E-02
93634,7.89E-03,1.51E-02
93635,7.90E-03,1.51E-02
93636,7.91E-03,1.51E-02
93637,7.92E-03,1.51E-02
93638,7.91E-03,1.51E-02
93639,7.90E-03,1.51E-02
93640,7.91E-03,1.51E-02
93641,7.94E-03,1.52E-02
93642,7.97E-03,1.52E-02
93643,7.98E-03,1.52E-02
93644,8.00E-03,1.52E-02
93645,8.01E-03,1.52E-02
93646,8.02E-03,1.52E-02
93647,8.02E-03,1.52E-02
93648,8.03E-03,1.52E-02
93649,8.09E-03,1.52E-02
93650,8.19E-03,1.52E-02
93651,8.23E-03,1.53E-02
93652,8.24E-03,1.53E-02
93653,8.25E-03,1.53E-02
93654,8.26E-03,1.53E-02
93655,8.28E-03,1.53E-02
93656,8.29E-03,1.53E-02
93657,8.30E-03,1.53E-02
93658,8.32E-03,1.53E-02
93659,8.34E-03,1.53E-02
93660,8.36E-03,1.53E-02
93661,8.38E-03,1.53E-02
93662,8.41E-03,1.53E-02
93663,8.45E-03,1.54E-02
93664,8.48E-03,1.54E-02
93665,8.53E-03,1.54E-02
93666,8.59E-03,1.54E-02
93667,8.79E-03,1.54E-02
93668,8.89E-03,1.54E-02
93669,8.93E-03,1.54E-02
93670,9.12E-03,1.54E-02
93671,9.15E-03,1.55E-02
93672,7.80E-03,1.22E-02
93673,7.73E-03,1.22E-02
93674,6.70E-03,1.21E-02
93675,6.76E-03,1.21E-02
93676,7.10E-03,1.20E-02
93677,7.13E-03,1.20E-02
93678,7.35E-03,1.19E-02
93679,7.45E-03,1.19E-02
93680,7.52E-03,1.18E-02
93681,7.59E-03,1.18E-02
93682,7.64E-03,1.17E-02
93683,7.69E-03,1.17E-02
93684,7.72E-03,1.16E-02
93685,7.76E-03,1.16E-02
93686,7.80E-03,1.16E-02
93687,7.86E-03,1.15E-02
93688,7.91E-03,1.15E-02
93689,7.90E-03,1.14E-02
93690,7.90E-03,1.14E-02
93691,7.89E-03,1.13E-02
93692,7.88E-03,1.13E-02
93693,7.87E-03,1.12E-02
93694,7.87E-03,1.12E-02
93695,7.86E-03,1.11E-02
93696,7.85E-03,1.11E-02
93697,7.84E-03,1.11E-02
93698,7.82E-03,1.10E-02
93699,7.81E-03,1.10E-02
93700,7.80E-03,1.09E-02
93701,7.79E-03,1.09E-02
93702,7.77E-03,1.08E-02
93703,7.75E-03,1.08E-02
93704,7.74E-03,1.08E-02
93705,7.72E-03,1.07E-02
93706,7.74E-03,1.07E-02
93707,7.85E-03,1.06E-02
93708,8.00E-03,1.06E-02
93709,7.98E-03,1.06E-02
93710,7.95E-03,1.05E-02
93711,7.50E-03,1.26E-02
93712,9.85E-03,1.03E-02
93713,1.03E-02,1.03E-02
93714,6.98E-03,1.03E-02
93715,6.72E-03,1.03E-02
93716,8.55E-03,1.04E-02
93717,8.69E-03,1.03E-02
93718,7.70E-03,1.03E-02
93719,6.39E-03,1.03E-02
93720,8.12E-03,1.37E-02
93721,8.14E-03,1.37E-02
93722,8.14E-03,1.37E-02
93723,8.14E-03,1.37E-02
93724,8.14E-03,1.37E-02
93725,8.14E-03,1.36E-02
93726,8.15E-03,1.36E-02
93727,8.15E-03,1.36E-02
93728,8.15E-03,1.36E-02
93729,8.15E-03,1.36E-02
93730,8.15E-03,1.36E-02
93731,8.15E-03,1.35E-02
93732,8.15E-03,1.35E-02
93733,8.15E-03,1.35E-02
93734,8.15E-03,1.35E-02
93735,8.16E-03,1.35E-02
93736,8.16E-03,1.35E-02
93737,8.16E-03,1.34E-02
93738,8.16E-03,1.34E-02
93739,8.16E-03,1.34E-02
93740,8.16E-03,1.34E-02
93741,8.16E-03,1.34E-02
93742,8.17E-03,1.34E-02
93743,8.17E-03,1.33E-02
93744,8.17E-03,1.33E-02
93745,8.18E-03,1.33E-02
93746,8.18E-03,1.33E-02
93747,8.19E-03,1.33E-02
93748,8.19E-03,1.33E-02
93749,8.20E-03,1.32E-02
93750,8.21E-03,1.32E-02
93751,8.21E-03,1.32E-02
93752,8.22E-03,1.32E-02
93753,8.22E-03,1.32E-02
93754,8.23E-03,1.32E-02
93755,8.24E-03,1.32E-02
93756,8.24E-03,1.31E-02
93757,8.25E-03,1.31E-02
93758,8.26E-03,1.31E-02
93759,8.27E-03,1.31E-02
93760,8.28E-03,1.31E-02
93761,8.29E-03,1.31E-02
93762,8.31E-03,1.31E-02
93763,8.32E-03,1.30E-02
93764,8.34E-03,1.30E-02
93765,8.36E-03,1.30E-02
93766,8.38E-03,1.30E-02
93767,8.40E-03,1.30E-02
93768,8.42E-03,1.30E-02
93769,8.45E-03,1.30E-02
93770,8.49E-03,1.30E-02
93771,8.53E-03,1.30E-02
93772,8.57E-03,1.30E-02
93773,8.63E-03,1.29E-02
93774,8.70E-03,1.29E-02
93775,8.83E-03,1.29E-02
93776,9.04E-03,1.29E-02
93777,9.03E-03,1.29E-02
93778,9.38E-03,1.29E-02
93779,9.48E-03,1.29E-02
93780,9.52E-03,1.29E-02
93781,9.45E-03,1.29E-02
93782,6.35E-03,1.58E-02
93783,5.15E-03,1.58E-02
93784,7.19E-03,1.59E-02
93785,6.74E-03,1.58E-02
93786,6.36E-03,1.58E-02
93787,8.69E-03,1.60E-02
93788,8.44E-03,1.60E-02
93789,1.08E-02,1.59E-02
93790,1.05E-02,1.58E-02
93791,1.00E-02,1.57E-02
93792,9.61E-03,1.56E-02
93793,9.60E-03,1.55E-02
93794,9.40E-03,1.54E-02
93795,9.44E-03,1.53E-02
93796,9.52E-03,1.53E-02
93797,9.63E-03,1.52E-02
93798,9.75E-03,1.51E-02
93799,9.85E-03,1.49E-02
93800,9.90E-03,1.48E-02
93801,9.91E-03,1.47E-02
93802,9.91E-03,1.46E-02
93803,9.92E-03,1.45E-02
93804,9.85E-03,1.43E-02
93805,9.87E-03,1.42E-02
93806,9.89E-03,1.41E-02
93807,9.88E-03,1.39E-02
93808,8.19E-03,1.36E-02
93809,1.06E-02,1.38E-02
93810,7.00E-03,1.65E-02
93811,7.22E-03,1.64E-02
93812,7.43E-03,1.64E-02
93813,9.13E-03,1.64E-02
93814,9.73E-03,1.63E-02
93815,9.59E-03,1.63E-02
93816,9.30E-03,1.62E-02
93817,9.14E-03,1.62E-02
93818,8.76E-03,1.61E-02
93819,8.65E-03,1.61E-02
93820,8.12E-03,1.61E-02
93821,1.00E-02,1.26E-02
93822,1.04E-02,1.27E-02
93823,1.09E-02,1.27E-02
93824,1.09E-02,1.28E-02
93825,1.09E-02,1.29E-02
93826,1.09E-02,1.30E-02
93827,1.06E-02,1.31E-02
93828,9.94E-03,1.31E-02
93829,9.71E-03,1.32E-02
93830,9.47E-03,1.33E-02
93831,9.34E-03,1.33E-02
93832,9.09E-03,1.34E-02
93833,8.90E-03,1.35E-02
93834,8.72E-03,1.36E-02
93835,8.62E-03,1.36E-02
93836,8.74E-03,1.37E-02
93837,9.03E-03,1.38E-02
93838,9.21E-03,1.38E-02
93839,8.51E-03,1.39E-02
93840,7.76E-03,1.40E-02
93841,7.72E-03,1.40E-02
93842,7.72E-03,1.41E-02
93843,7.71E-03,1.42E-02
93844,7.68E-03,1.42E-02
93845,7.61E-03,1.43E-02
93846,7.46E-03,1.43E-02
93847,7.38E-03,1.44E-02
93848,7.34E-03,1.45E-02
93849,7.33E-03,1.45E-02
93850,7.55E-03,1.46E-02
93851,7.86E-03,1.47E-02
93852,7.97E-03,1.47E-02
93853,5.36E-03,1.03E-02
93854,6.66E-03,1.03E-02
93855,6.17E-03,1.03E-02
93856,5.65E-03,1.03E-02
93857,5.82E-03,1.03E-02
93858,9.70E-03,1.03E-02
93859,9.58E-03,1.03E-02
93860,9.68E-03,1.03E-02
93861,8.77E-03,1.03E-02
93862,6.47E-03,1.03E-02
93863,8.92E-03,1.60E-02
93864,9.47E-03,1.60E-02
93865,6.85E-03,1.00E-02
93866,8.29E-03,1.01E-02
93867,8.31E-03,1.01E-02
93868,1.30E-02,1.04E-02
93869,7.37E-03,9.77E-03
93870,7.39E-03,1.62E-02
93871,8.24E-03,9.56E-03
93872,7.29E-03,9.75E-03
93873,8.20E-03,1.05E-02
93874,7.50E-03,1.01E-02
93875,8.68E-03,1.01E-02
93876,5.94E-03,1.32E-02
93877,7.15E-03,1.01E-02
93878,5.54E-03,1.57E-02
93879,5.85E-03,1.74E-02
93880,6.12E-03,1.74E-02
93881,6.43E-03,1.73E-02
93882,6.75E-03,1.73E-02
93883,8.78E-03,1.71E-02
93884,6.91E-03,1.29E-02
93885,9.83E-03,1.29E-02
93886,9.20E-03,1.29E-02
93887,9.18E-03,1.29E-02
93888,9.10E-03,1.29E-02
93889,9.14E-03,1.29E-02
93890,9.26E-03,1.29E-02
93891,9.42E-03,1.29E-02
93892,9.61E-03,1.29E-02
93893,1.00E-02,1.29E-02
93894,1.02E-02,1.29E-02
93895,1.05E-02,1.29E-02
93896,1.09E-02,1.29E-02
93897,1.07E-02,1.29E-02
93898,6.13E-03,1.29E-02
93899,5.92E-03,1.29E-02
93900,5.70E-03,1.29E-02
93901,5.36E-03,1.29E-02
93902,5.41E-03,1.29E-02
93903,5.85E-03,1.29E-02
93904,6.06E-03,1.29E-02
93905,6.58E-03,1.29E-02
93906,6.72E-03,1.29E-02
93907,7.00E-03,1.29E-02
93908,7.12E-03,1.29E-02
93909,7.22E-03,1.29E-02
93910,7.35E-03,1.29E-02
93911,7.50E-03,1.29E-02
93912,7.56E-03,1.29E-02
93913,7.56E-03,1.30E-02
93914,7.56E-03,1.30E-02
93915,8.24E-03,1.30E-02
93916,9.14E-03,1.30E-02
93917,9.18E-03,1.30E-02
93918,8.87E-03,1.31E-02
93919,8.83E-03,1.31E-02
93920,8.92E-03,1.31E-02
93921,8.96E-03,1.31E-02
93922,9.14E-03,1.32E-02
93923,9.40E-03,1.32E-02
93924,9.52E-03,1.32E-02
93925,9.83E-03,1.33E-02
93926,9.91E-03,1.33E-02
93927,1.00E-02,1.34E-02
93928,9.54E-03,1.34E-02
93929,8.89E-03,1.35E-02
93930,7.60E-03,1.35E-02
93931,4.46E-03,1.76E-02
93932,5.34E-03,1.76E-02
93933,5.81E-03,1.76E-02
93934,5.89E-03,1.76E-02
93935,6.03E-03,1.76E-02
93936,6.22E-03,1.76E-02
93937,6.51E-03,1.76E-02
93938,6.54E-03,1.76E-02
93939,6.68E-03,1.76E-02
93940,6.67E-03,1.76E-02
93941,7.10E-03,1.76E-02
93942,7.85E-03,1.76E-02
93943,8.17E-03,1.76E-02
93944,8.18E-03,1.76E-02
93945,8.18E-03,1.76E-02
93946,8.20E-03,1.76E-02
93947,8.30E-03,1.76E-02
93948,8.43E-03,1.76E-02
93949,8.52E-03,1.76E-02
93950,8.56E-03,1.76E-02
93951,8.57E-03,1.75E-02
93952,8.60E-03,1.75E-02
93953,8.63E-03,1.75E-02
93954,8.66E-03,1.75E-02
93955,8.67E-03,1.75E-02
93956,8.62E-03,1.75E-02
93957,8.59E-03,1.75E-02
93958,8.60E-03,1.75E-02
93959,8.61E-03,1.75E-02
93960,8.68E-03,1.75E-02
93961,8.83E-03,1.75E-02
93962,9.15E-03,1.75E-02
93963,9.48E-03,1.75E-02
93964,9.71E-03,1.75E-02
93965,9.80E-03,1.75E-02
93966,9.73E-03,1.75E-02
93967,9.59E-03,1.76E-02
93968,9.48E-03,1.76E-02
93969,9.98E-03,1.76E-02
93970,1.07E-02,1.76E-02
93971,9.21E-03,1.75E-02
93972,9.87E-03,1.79E-02
93973,8.77E-03,1.76E-02
93974,9.23E-03,1.80E-02
93975,7.43E-03,1.77E-02
93976,8.34E-03,1.80E-02
93977,7.30E-03,1.79E-02
93978,9.99E-03,1.80E-02
93979,8.99E-03,1.81E-02
93980,8.38E-03,1.82E-02
93981,8.24E-03,1.87E-02
93982,8.03E-03,1.83E-02
93983,7.32E-03,1.84E-02
93984,6.70E-03,1.85E-02
93985,6.54E-03,1.87E-02
93986,7.63E-03,1.89E-02
93987,9.63E-03,1.64E-02
93988,9.88E-03,1.63E-02
93989,1.00E-02,1.63E-02
93990,1.01E-02,1.63E-02
93991,9.99E-03,1.63E-02
93992,9.92E-03,1.63E-02
93993,9.74E-03,1.63E-02
93994,9.32E-03,1.63E-02
93995,9.05E-03,1.63E-02
93996,9.03E-03,1.63E-02
93997,9.01E-03,1.63E-02
93998,8.97E-03,1.63E-02
93999,8.94E-03,1.63E-02
94000,8.90E-03,1.63E-02
94001,8.85E-03,1.63E-02
94002,8.77E-03,1.63E-02
94003,8.71E-03,1.64E-02
94004,8.65E-03,1.64E-02
94005,8.61E-03,1.64E-02
94006,8.56E-03,1.64E-02
94007,8.53E-03,1.64E-02
94008,8.50E-03,1.64E-02
94009,8.47E-03,1.65E-02
94010,8.44E-03,1.65E-02
94011,8.42E-03,1.65E-02
94012,8.40E-03,1.65E-02
94013,8.38E-03,1.65E-02
94014,8.37E-03,1.65E-02
94015,8.35E-03,1.66E-02
94016,8.34E-03,1.66E-02
94017,8.32E-03,1.66E-02
94018,8.31E-03,1.66E-02
94019,8.30E-03,1.66E-02
94020,8.29E-03,1.66E-02
94021,8.28E-03,1.66E-02
94022,8.27E-03,1.67E-02
94023,8.26E-03,1.67E-02
94024,8.25E-03,1.67E-02
94025,8.24E-03,1.67E-02
94026,8.24E-03,1.67E-02
94027,8.23E-03,1.67E-02
94028,8.20E-03,1.67E-02
94029,8.10E-03,1.67E-02
94030,8.01E-03,1.67E-02
94031,8.00E-03,1.67E-02
94032,7.97E-03,1.67E-02
94033,7.94E-03,1.67E-02
94034,7.89E-03,1.67E-02
94035,7.79E-03,1.67E-02
94036,7.66E-03,1.67E-02
94037,7.66E-03,1.67E-02
94038,7.71E-03,1.67E-02
94039,7.68E-03,1.67E-02
94040,7.64E-03,1.67E-02
94041,7.60E-03,1.67E-02
94042,7.54E-03,1.67E-02
94043,7.48E-03,1.67E-02
94044,7.31E-03,1.67E-02
94045,7.23E-03,1.67E-02
94046,7.17E-03,1.67E-02
94047,7.06E-03,1.67E-02
94048,6.90E-03,1.67E-02
94049,6.47E-03,1.66E-02
94050,5.96E-03,1.67E-02
94051,8.35E-03,1.72E-02
94052,5.77E-03,1.72E-02
94053,6.59E-03,1.72E-02
94054,8.48E-03,1.72E-02
94055,8.27E-03,1.71E-02
94056,9.86E-03,1.03E-02
94057,1.09E-02,1.02E-02
94058,1.09E-02,1.02E-02
94059,1.01E-02,1.02E-02
94060,8.55E-03,1.02E-02
94061,8.50E-03,1.02E-02
94062,8.39E-03,1.01E-02
94063,7.73E-03,1.01E-02
94064,7.22E-03,1.01E-02
94065,6.49E-03,1.01E-02
94066,6.48E-03,1.01E-02
94067,7.72E-03,1.01E-02
94068,4.68E-03,1.01E-02
94069,5.34E-03,1.01E-02
94070,8.21E-03,1.37E-02
94071,6.86E-03,1.48E-02
94072,8.50E-03,1.47E-02
94073,9.55E-03,1.46E-02
94074,1.04E-02,1.44E-02
94075,6.81E-03,1.65E-02
94076,7.24E-03,1.64E-02
94077,8.13E-03,1.63E-02
94078,7.23E-03,1.03E-02
94079,7.39E-03,1.02E-02
94080,8.54E-03,1.02E-02
94081,9.12E-03,1.02E-02
94082,1.02E-02,1.02E-02
94083,8.39E-03,1.10E-02
94084,8.24E-03,1.09E-02
94085,7.49E-03,1.20E-02
94086,8.58E-03,1.20E-02
94087,8.18E-03,1.19E-02
94088,8.17E-03,1.19E-02
94089,8.23E-03,1.18E-02
94090,8.10E-03,1.16E-02
94091,9.03E-03,1.52E-02
94092,8.90E-03,1.52E-02
94093,9.28E-03,1.61E-02
94094,9.01E-03,1.72E-02
94095,8.03E-03,1.03E-02
94096,1.18E-02,1.10E-02
94097,1.06E-02,1.10E-02
94098,1.05E-02,1.10E-02
94099,1.06E-02,1.10E-02
94100,1.07E-02,1.10E-02
94101,1.08E-02,1.10E-02
94102,1.05E-02,1.10E-02
94103,9.53E-03,1.10E-02
94104,8.97E-03,1.09E-02
94105,8.92E-03,1.09E-02
94106,8.64E-03,1.09E-02
94107,8.25E-03,1.09E-02
94108,8.24E-03,1.09E-02
94109,7.90E-03,1.08E-02
94110,7.06E-03,1.08E-02
94111,1.04E-02,1.70E-02
94112,9.32E-03,1.68E-02
94113,8.37E-03,1.57E-02
94114,8.29E-03,1.04E-02
94115,7.62E-03,1.23E-02
94116,7.30E-03,1.23E-02
94117,6.94E-03,1.23E-02
94118,9.92E-03,1.02E-02
94119,7.92E-03,1.02E-02
94120,7.27E-03,9.90E-03
94121,8.21E-03,1.38E-02
94122,8.10E-03,1.38E-02
94123,8.74E-03,1.28E-02
94124,9.40E-03,1.67E-02
94125,5.55E-03,1.68E-02
94126,7.22E-03,9.94E-03
94127,7.24E-03,9.84E-03
94128,5.56E-03,1.89E-02
94129,7.38E-03,1.86E-02
94130,7.19E-03,1.91E-02
94131,8.59E-03,1.61E-02
94132,7.65E-03,1.36E-02
94133,8.60E-03,1.86E-02
94134,9.36E-03,1.58E-02
94135,8.11E-03,1.57E-02
94136,5.22E-03,1.56E-02
94137,6.74E-03,1.28E-02
94138,9.93E-03,1.25E-02
94139,7.86E-03,1.48E-02
94140,6.31E-03,1.01E-02
94141,8.36E-03,1.02E-02
94142,8.28E-03,1.02E-02
94143,1.04E-02,1.69E-02
94144,7.54E-03,1.02E-02
94145,1.06E-02,1.61E-02
94146,7.01E-03,1.27E-02
94147,9.61E-03,1.63E-02
94148,7.55E-03,9.95E-03
94149,7.26E-03,1.00E-02
94150,7.60E-03,1.28E-02
94151,8.10E-03,1.22E-02
94152,8.25E-03,1.23E-02
94153,9.91E-03,1.23E-02
94154,7.94E-03,1.67E-02
94155,7.67E-03,1.00E-02
94156,9.36E-03,1.02E-02
94157,8.17E-03,1.33E-02
94158,8.90E-03,1.02E-02
94159,6.64E-03,1.00E-02
94160,5.59E-03,9.95E-03
94161,8.07E-03,9.96E-03
94162,7.46E-03,1.00E-02
94163,7.83E-03,1.08E-02
94164,8.04E-03,1.06E-02
94165,7.89E-03,1.13E-02
94166,6.92E-03,1.51E-02
94167,7.10E-03,1.52E-02
94168,8.49E-03,1.62E-02
94169,8.26E-03,1.60E-02
94170,8.64E-03,1.59E-02
94171,7.88E-03,1.49E-02
94172,8.31E-03,1.45E-02
94173,7.85E-03,9.97E-03
94174,7.38E-03,1.84E-02
94175,7.71E-03,1.84E-02
94176,7.78E-03,1.01E-02
94177,5.56E-03,9.70E-03
94178,5.06E-03,9.89E-03
94179,4.43E-03,9.71E-03
94180,9.80E-03,1.01E-02
94181,7.76E-03,1.01E-02
94182,7.55E-03,9.96E-03
94183,4.98E-03,1.60E-02
94184,6.06E-03,1.61E-02
94185,4.47E-03,1.91E-02
94186,7.83E-03,1.63E-02
94187,8.47E-03,1.62E-02
94188,7.41E-03,1.06E-02
94189,7.51E-03,1.05E-02
94190,8.15E-03,1.51E-02
94191,8.64E-03,1.60E-02
94192,8.66E-03,1.59E-02
94193,7.64E-03,1.24E-02
94194,6.38E-03,1.70E-02
94195,6.66E-03,1.67E-02
94196,6.85E-03,1.69E-02
94197,8.64E-03,1.61E-02
94198,8.29E-03,1.66E-02
94199,6.43E-03,1.66E-02
94200,6.49E-03,1.67E-02
94201,6.49E-03,1.66E-02
94202,6.37E-03,1.67E-02
94203,5.25E-03,1.00E-02
94204,8.84E-03,1.01E-02
94205,6.50E-03,1.00E-02
94206,8.73E-03,1.67E-02
94207,7.58E-03,1.00E-02
94208,7.89E-03,1.02E-02
94209,7.58E-03,1.09E-02
94210,7.51E-03,9.90E-03
94211,5.81E-03,9.87E-03
94212,8.31E-03,1.04E-02
94213,6.52E-03,9.66E-03
94214,8.01E-03,1.03E-02
94215,8.59E-03,1.00E-02
94216,8.39E-03,9.99E-03
94217,8.17E-03,9.97E-03
94218,8.26E-03,1.66E-02
94219,8.65E-03,1.67E-02
94220,8.25E-03,9.88E-03
94221,6.65E-03,9.65E-03
94222,6.41E-03,9.51E-03
94223,7.95E-03,1.59E-02
94224,5.76E-03,9.94E-03
94225,7.78E-03,9.53E-03
94226,7.37E-03,1.05E-02
94227,9.55E-03,9.52E-03
94228,6.44E-03,1.00E-02
94229,5.72E-03,1.01E-02
94230,5.48E-03,1.00E-02
94231,6.01E-03,1.00E-02
94232,6.29E-03,1.00E-02
94233,6.74E-03,1.00E-02
94234,7.30E-03,1.00E-02
94235,7.54E-03,1.00E-02
94236,7.67E-03,1.00E-02
94237,7.71E-03,1.00E-02
94238,7.69E-03,1.00E-02
94239,6.94E-03,1.00E-02
94240,6.16E-03,1.00E-02
94241,6.04E-03,1.00E-02
94242,5.66E-03,1.00E-02
94243,5.65E-03,1.00E-02
94244,6.40E-03,1.00E-02
94245,7.69E-03,1.01E-02
94246,1.09E-02,1.01E-02
94247,8.50E-03,1.01E-02
94248,1.13E-02,1.01E-02
94249,1.07E-02,1.01E-02
94250,6.81E-03,1.01E-02
94251,6.69E-03,1.01E-02
94252,6.21E-03,1.01E-02
94253,5.69E-03,1.01E-02
94254,4.75E-03,1.01E-02
94255,4.35E-03,1.01E-02
94256,4.84E-03,1.01E-02
94257,8.98E-03,1.38E-02
94258,9.12E-03,1.39E-02
94259,8.72E-03,1.41E-02
94260,8.51E-03,1.42E-02
94261,8.28E-03,1.43E-02
94262,7.75E-03,1.64E-02
94263,7.30E-03,1.03E-02
94264,9.76E-03,1.03E-02
94265,8.72E-03,1.03E-02
94266,9.71E-03,1.03E-02
94267,9.86E-03,1.03E-02
94268,9.93E-03,1.03E-02
94269,9.88E-03,1.03E-02
94270,9.77E-03,1.03E-02
94271,9.72E-03,1.03E-02
94272,9.33E-03,1.03E-02
94273,8.24E-03,1.03E-02
94274,7.23E-03,1.03E-02
94275,7.08E-03,1.02E-02
94276,6.81E-03,1.02E-02
94277,6.61E-03,1.02E-02
94278,6.55E-03,1.02E-02
94279,6.35E-03,1.02E-02
94280,6.10E-03,1.02E-02
94281,5.85E-03,1.02E-02
94282,5.47E-03,1.02E-02
94283,5.34E-03,1.02E-02
94284,4.39E-03,1.02E-02
94285,3.97E-03,1.02E-02
94286,3.92E-03,1.02E-02
94287,4.01E-03,1.02E-02
94288,4.16E-03,1.02E-02
94289,4.32E-03,1.02E-02
94290,4.71E-03,1.02E-02
94291,5.32E-03,1.02E-02
94292,5.80E-03,1.02E-02
94293,1.00E-02,1.02E-02
94294,9.31E-03,1.10E-02
94295,8.17E-03,1.17E-02
94296,1.07E-02,1.53E-02
94297,1.03E-02,1.56E-02
94298,1.00E-02,1.57E-02
94299,9.94E-03,1.58E-02
94300,9.80E-03,1.59E-02
94301,9.59E-03,1.59E-02
94302,9.41E-03,1.60E-02
94303,9.05E-03,1.61E-02
94304,8.75E-03,1.62E-02
94305,8.60E-03,1.62E-02
94306,8.57E-03,1.63E-02
94307,8.43E-03,1.64E-02
94308,8.12E-03,1.64E-02
94309,8.10E-03,1.65E-02
94310,8.05E-03,1.65E-02
94311,9.71E-03,1.59E-02
94312,8.17E-03,1.50E-02
94313,7.97E-03,1.85E-02
94314,7.28E-03,1.83E-02
94315,7.27E-03,1.82E-02
94316,7.46E-03,1.80E-02
94317,7.88E-03,1.79E-02
94318,8.16E-03,1.79E-02
94319,8.53E-03,1.78E-02
94320,8.37E-03,1.76E-02
94321,7.49E-03,1.76E-02
94322,8.09E-03,1.74E-02
94323,8.40E-03,1.72E-02
94324,7.92E-03,1.03E-02
94325,9.36E-03,1.03E-02
94326,1.12E-02,1.04E-02
94327,1.08E-02,1.04E-02
94328,9.74E-03,1.04E-02
94329,7.89E-03,1.04E-02
94330,6.53E-03,1.04E-02
94331,6.08E-03,1.04E-02
94332,5.82E-03,1.04E-02
94333,5.48E-03,1.04E-02
94334,5.05E-03,1.04E-02
94335,4.49E-03,1.04E-02
94336,3.70E-03,1.04E-02
94337,3.84E-03,1.04E-02
94338,5.26E-03,1.04E-02
94339,5.70E-03,1.04E-02
94340,5.56E-03,1.04E-02
94341,5.64E-03,1.04E-02
94342,5.74E-03,1.05E-02
94343,8.17E-03,1.05E-02
94344,8.80E-03,1.05E-02
94345,7.32E-03,1.07E-02
94346,7.67E-03,1.06E-02
94347,8.05E-03,1.06E-02
94348,8.23E-03,1.06E-02
94349,8.28E-03,1.07E-02
94350,8.57E-03,1.07E-02
94351,8.72E-03,1.07E-02
94352,8.80E-03,1.07E-02
94353,9.95E-03,1.07E-02
94354,1.04E-02,1.07E-02
94355,1.08E-02,1.08E-02
94356,1.06E-02,1.08E-02
94357,1.06E-02,1.08E-02
94358,1.06E-02,1.08E-02
94359,1.09E-02,1.08E-02
94360,1.11E-02,1.08E-02
94361,1.08E-02,1.07E-02
94362,1.06E-02,1.07E-02
94363,1.05E-02,1.07E-02
94364,1.03E-02,1.07E-02
94365,1.01E-02,1.07E-02
94366,9.73E-03,1.06E-02
94367,9.57E-03,1.06E-02
94368,9.27E-03,1.06E-02
94369,8.80E-03,1.06E-02
94370,8.65E-03,1.05E-02
94371,8.55E-03,1.05E-02
94372,8.47E-03,1.05E-02
94373,8.42E-03,1.04E-02
94374,8.37E-03,1.04E-02
94375,8.20E-03,1.04E-02
94376,7.80E-03,1.03E-02
94377,7.55E-03,1.03E-02
94378,7.51E-03,1.03E-02
94379,7.47E-03,1.03E-02
94380,7.42E-03,1.02E-02
94381,7.37E-03,1.02E-02
94382,7.31E-03,1.02E-02
94383,7.24E-03,1.02E-02
94384,7.16E-03,1.01E-02
94385,7.06E-03,1.01E-02
94386,6.95E-03,1.01E-02
94387,6.82E-03,1.01E-02
94388,6.66E-03,1.01E-02
94389,6.45E-03,1.00E-02
94390,6.16E-03,1.00E-02
94391,6.09E-03,1.00E-02
94392,6.39E-03,1.00E-02
94393,6.67E-03,9.99E-03
94394,6.67E-03,9.98E-03
94395,6.52E-03,9.97E-03
94396,6.33E-03,9.97E-03
94397,6.04E-03,9.96E-03
94398,5.52E-03,9.96E-03
94399,5.41E-03,9.96E-03
94400,5.99E-03,9.97E-03
94401,6.21E-03,9.98E-03
94402,6.61E-03,9.97E-03
94403,1.11E-02,1.69E-02
94404,9.18E-03,1.68E-02
94405,9.30E-03,1.69E-02
94406,8.12E-03,1.38E-02
94407,8.14E-03,1.39E-02
94408,8.13E-03,1.39E-02
94409,8.13E-03,1.39E-02
94410,8.13E-03,1.39E-02
94411,8.13E-03,1.39E-02
94412,8.14E-03,1.39E-02
94413,8.16E-03,1.40E-02
94414,8.16E-03,1.40E-02
94415,8.16E-03,1.40E-02
94416,8.17E-03,1.40E-02
94417,8.17E-03,1.40E-02
94418,8.18E-03,1.41E-02
94419,8.18E-03,1.41E-02
94420,8.18E-03,1.41E-02
94421,8.19E-03,1.41E-02
94422,8.20E-03,1.41E-02
94423,8.20E-03,1.41E-02
94424,8.21E-03,1.42E-02
94425,8.22E-03,1.42E-02
94426,8.22E-03,1.42E-02
94427,8.23E-03,1.42E-02
94428,8.24E-03,1.42E-02
94429,8.25E-03,1.43E-02
94430,8.27E-03,1.43E-02
94431,8.28E-03,1.43E-02
94432,8.29E-03,1.43E-02
94433,8.31E-03,1.43E-02
94434,8.33E-03,1.44E-02
94435,8.36E-03,1.44E-02
94436,8.39E-03,1.44E-02
94437,8.43E-03,1.44E-02
94438,8.48E-03,1.44E-02
94439,8.53E-03,1.45E-02
94440,8.59E-03,1.45E-02
94441,8.66E-03,1.45E-02
94442,8.75E-03,1.45E-02
94443,8.87E-03,1.46E-02
94444,9.02E-03,1.46E-02
94445,9.23E-03,1.46E-02
94446,9.54E-03,1.46E-02
94447,1.00E-02,1.47E-02
94448,1.07E-02,1.47E-02
94449,1.05E-02,1.47E-02
94450,7.71E-03,1.48E-02
94451,5.86E-03,1.48E-02
94452,6.40E-03,1.48E-02
94453,6.75E-03,1.48E-02
94454,6.99E-03,1.48E-02
94455,7.17E-03,1.49E-02
94456,7.30E-03,1.49E-02
94457,7.40E-03,1.49E-02
94458,7.49E-03,1.49E-02
94459,7.55E-03,1.50E-02
94460,7.61E-03,1.50E-02
94461,7.66E-03,1.50E-02
94462,7.69E-03,1.50E-02
94463,7.73E-03,1.50E-02
94464,7.76E-03,1.51E-02
94465,7.78E-03,1.51E-02
94466,7.80E-03,1.51E-02
94467,7.82E-03,1.51E-02
94468,7.84E-03,1.51E-02
94469,7.86E-03,1.52E-02
94470,7.87E-03,1.52E-02
94471,7.88E-03,1.52E-02
94472,7.89E-03,1.52E-02
94473,7.90E-03,1.52E-02
94474,7.91E-03,1.52E-02
94475,7.92E-03,1.53E-02
94476,7.92E-03,1.53E-02
94477,7.90E-03,1.53E-02
94478,7.92E-03,1.53E-02
94479,7.95E-03,1.53E-02
94480,7.97E-03,1.53E-02
94481,7.99E-03,1.53E-02
94482,8.00E-03,1.53E-02
94483,8.01E-03,1.54E-02
94484,8.02E-03,1.54E-02
94485,8.03E-03,1.54E-02
94486,8.03E-03,1.54E-02
94487,8.09E-03,1.54E-02
94488,8.19E-03,1.54E-02
94489,8.23E-03,1.54E-02
94490,8.24E-03,1.54E-02
94491,8.25E-03,1.54E-02
94492,8.26E-03,1.54E-02
94493,8.27E-03,1.54E-02
94494,8.28E-03,1.55E-02
94495,8.30E-03,1.55E-02
94496,8.31E-03,1.55E-02
94497,8.33E-03,1.55E-02
94498,8.35E-03,1.55E-02
94499,8.38E-03,1.55E-02
94500,8.41E-03,1.55E-02
94501,8.44E-03,1.55E-02
94502,8.48E-03,1.55E-02
94503,8.52E-03,1.55E-02
94504,8.58E-03,1.56E-02
94505,8.76E-03,1.56E-02
94506,8.89E-03,1.56E-02
94507,8.89E-03,1.56E-02
94508,8.81E-03,1.56E-02
94509,8.65E-03,1.56E-02
94510,7.95E-03,1.22E-02
94511,7.46E-03,1.21E-02
94512,6.82E-03,1.21E-02
94513,6.71E-03,1.20E-02
94514,7.12E-03,1.20E-02
94515,7.19E-03,1.19E-02
94516,7.36E-03,1.19E-02
94517,7.46E-03,1.18E-02
94518,7.54E-03,1.18E-02
94519,7.60E-03,1.17E-02
94520,7.65E-03,1.17E-02
94521,7.70E-03,1.16E-02
94522,7.73E-03,1.16E-02
94523,7.77E-03,1.15E-02
94524,7.80E-03,1.15E-02
94525,7.87E-03,1.14E-02
94526,7.91E-03,1.14E-02
94527,7.91E-03,1.13E-02
94528,7.90E-03,1.13E-02
94529,7.89E-03,1.12E-02
94530,7.89E-03,1.12E-02
94531,7.88E-03,1.11E-02
94532,7.87E-03,1.11E-02
94533,7.86E-03,1.11E-02
94534,7.85E-03,1.10E-02
94535,7.84E-03,1.10E-02
94536,7.83E-03,1.09E-02
94537,7.82E-03,1.09E-02
94538,7.81E-03,1.08E-02
94539,7.79E-03,1.08E-02
94540,7.78E-03,1.08E-02
94541,7.76E-03,1.07E-02
94542,7.75E-03,1.07E-02
94543,7.73E-03,1.06E-02
94544,7.79E-03,1.06E-02
94545,7.80E-03,1.06E-02
94546,8.01E-03,1.05E-02
94547,7.96E-03,1.05E-02
94548,7.43E-03,1.04E-02
94549,7.39E-03,1.23E-02
94550,1.00E-02,1.02E-02
94551,1.03E-02,1.01E-02
94552,6.80E-03,1.01E-02
94553,6.91E-03,1.01E-02
94554,8.15E-03,1.02E-02
94555,8.10E-03,1.02E-02
94556,7.56E-03,1.02E-02
94557,7.30E-03,1.02E-02
94558,7.61E-03,9.80E-03
94559,8.12E-03,1.38E-02
94560,8.14E-03,1.38E-02
94561,8.14E-03,1.38E-02
94562,8.14E-03,1.37E-02
94563,8.14E-03,1.37E-02
94564,8.14E-03,1.37E-02
94565,8.14E-03,1.37E-02
94566,8.15E-03,1.37E-02
94567,8.15E-03,1.36E-02
94568,8.15E-03,1.36E-02
94569,8.15E-03,1.36E-02
94570,8.15E-03,1.36E-02
94571,8.15E-03,1.36E-02
94572,8.15E-03,1.36E-02
94573,8.15E-03,1.35E-02
94574,8.15E-03,1.35E-02
94575,8.16E-03,1.35E-02
94576,8.16E-03,1.35E-02
94577,8.16E-03,1.35E-02
94578,8.16E-03,1.34E-02
94579,8.16E-03,1.34E-02
94580,8.16E-03,1.34E-02
94581,8.16E-03,1.34E-02
94582,8.17E-03,1.34E-02
94583,8.17E-03,1.34E-02
94584,8.17E-03,1.33E-02
94585,8.18E-03,1.33E-02
94586,8.18E-03,1.33E-02
94587,8.19E-03,1.33E-02
94588,8.20E-03,1.33E-02
94589,8.20E-03,1.32E-02
94590,8.21E-03,1.32E-02
94591,8.22E-03,1.32E-02
94592,8.22E-03,1.32E-02
94593,8.23E-03,1.32E-02
94594,8.23E-03,1.32E-02
94595,8.24E-03,1.31E-02
94596,8.25E-03,1.31E-02
94597,8.26E-03,1.31E-02
94598,8.27E-03,1.31E-02
94599,8.28E-03,1.31E-02
94600,8.29E-03,1.31E-02
94601,8.30E-03,1.31E-02
94602,8.32E-03,1.30E-02
94603,8.33E-03,1.30E-02
94604,8.35E-03,1.30E-02
94605,8.37E-03,1.30E-02
94606,8.39E-03,1.30E-02
94607,8.42E-03,1.30E-02
94608,8.45E-03,1.30E-02
94609,8.48E-03,1.29E-02
94610,8.52E-03,1.29E-02
94611,8.56E-03,1.29E-02
94612,8.62E-03,1.29E-02
94613,8.68E-03,1.29E-02
94614,8.76E-03,1.29E-02
94615,9.05E-03,1.29E-02
94616,9.04E-03,1.29E-02
94617,9.33E-03,1.29E-02
94618,9.46E-03,1.29E-02
94619,9.51E-03,1.29E-02
94620,9.63E-03,1.29E-02
94621,1.01E-02,1.28E-02
94622,9.54E-03,1.67E-02
94623,9.96E-03,1.66E-02
94624,1.00E-02,1.66E-02
94625,1.01E-02,1.66E-02
94626,9.93E-03,1.66E-02
94627,9.84E-03,1.66E-02
94628,9.74E-03,1.66E-02
94629,9.29E-03,1.66E-02
94630,9.03E-03,1.66E-02
94631,9.01E-03,1.66E-02
94632,8.99E-03,1.66E-02
94633,8.95E-03,1.66E-02
94634,8.92E-03,1.66E-02
94635,8.88E-03,1.66E-02
94636,8.83E-03,1.66E-02
94637,8.76E-03,1.66E-02
94638,8.69E-03,1.66E-02
94639,8.64E-03,1.66E-02
94640,8.59E-03,1.67E-02
94641,8.55E-03,1.67E-02
94642,8.52E-03,1.67E-02
94643,8.49E-03,1.67E-02
94644,8.46E-03,1.67E-02
94645,8.44E-03,1.67E-02
94646,8.41E-03,1.67E-02
94647,8.39E-03,1.68E-02
94648,8.38E-03,1.68E-02
94649,8.36E-03,1.68E-02
94650,8.34E-03,1.68E-02
94651,8.33E-03,1.68E-02
94652,8.32E-03,1.68E-02
94653,8.31E-03,1.69E-02
94654,8.30E-03,1.69E-02
94655,8.29E-03,1.69E-02
94656,8.28E-03,1.69E-02
94657,8.26E-03,1.69E-02
94658,8.25E-03,1.69E-02
94659,8.25E-03,1.69E-02
94660,8.24E-03,1.69E-02
94661,8.23E-03,1.69E-02
94662,8.23E-03,1.70E-02
94663,8.20E-03,1.70E-02
94664,8.10E-03,1.70E-02
94665,8.02E-03,1.70E-02
94666,8.00E-03,1.70E-02
94667,7.98E-03,1.70E-02
94668,7.95E-03,1.70E-02
94669,7.89E-03,1.70E-02
94670,7.80E-03,1.70E-02
94671,7.67E-03,1.70E-02
94672,7.67E-03,1.70E-02
94673,7.72E-03,1.70E-02
94674,7.69E-03,1.70E-02
94675,7.65E-03,1.70E-02
94676,7.61E-03,1.70E-02
94677,7.55E-03,1.69E-02
94678,7.49E-03,1.69E-02
94679,7.32E-03,1.69E-02
94680,7.20E-03,1.69E-02
94681,7.14E-03,1.69E-02
94682,6.96E-03,1.69E-02
94683,6.75E-03,1.69E-02
94684,6.37E-03,1.69E-02
94685,5.56E-03,1.69E-02
94686,6.31E-03,9.70E-03
94687,7.05E-03,9.78E-03
94688,8.39E-03,1.59E-02
94689,6.77E-03,1.60E-02
94690,6.33E-03,1.60E-02
94691,6.62E-03,1.60E-02
94692,8.56E-03,1.61E-02
94693,8.53E-03,1.60E-02
94694,1.07E-02,1.59E-02
94695,1.04E-02,1.58E-02
94696,9.84E-03,1.57E-02
94697,9.70E-03,1.57E-02
94698,9.57E-03,1.56E-02
94699,9.37E-03,1.55E-02
94700,9.41E-03,1.54E-02
94701,9.49E-03,1.53E-02
94702,9.60E-03,1.52E-02
94703,9.71E-03,1.51E-02
94704,9.81E-03,1.50E-02
94705,9.86E-03,1.49E-02
94706,9.86E-03,1.48E-02
94707,9.87E-03,1.46E-02
94708,9.88E-03,1.45E-02
94709,9.90E-03,1.44E-02
94710,9.85E-03,1.43E-02
94711,9.84E-03,1.41E-02
94712,9.99E-03,1.40E-02
94713,1.01E-02,1.37E-02
94714,1.07E-02,1.38E-02
94715,9.29E-03,1.85E-02
94716,1.09E-02,1.84E-02
94717,1.11E-02,1.83E-02
94718,1.01E-02,1.83E-02
94719,1.06E-02,1.82E-02
94720,1.08E-02,1.81E-02
94721,1.09E-02,1.81E-02
94722,1.07E-02,1.80E-02
94723,1.03E-02,1.80E-02
94724,9.84E-03,1.79E-02
94725,9.63E-03,1.79E-02
94726,9.62E-03,1.79E-02
94727,9.66E-03,1.79E-02
94728,9.50E-03,1.78E-02
94729,9.44E-03,1.78E-02
94730,9.19E-03,1.78E-02
94731,9.00E-03,1.78E-02
94732,8.80E-03,1.78E-02
94733,8.74E-03,1.78E-02
94734,8.76E-03,1.78E-02
94735,8.78E-03,1.78E-02
94736,8.73E-03,1.78E-02
94737,8.69E-03,1.78E-02
94738,8.65E-03,1.78E-02
94739,8.62E-03,1.78E-02
94740,8.59E-03,1.79E-02
94741,8.56E-03,1.79E-02
94742,8.55E-03,1.79E-02
94743,8.51E-03,1.79E-02
94744,8.42E-03,1.79E-02
94745,8.30E-03,1.79E-02
94746,8.20E-03,1.79E-02
94747,8.17E-03,1.79E-02
94748,8.17E-03,1.79E-02
94749,8.17E-03,1.80E-02
94750,7.85E-03,1.80E-02
94751,7.12E-03,1.80E-02
94752,6.70E-03,1.80E-02
94753,6.71E-03,1.80E-02
94754,6.61E-03,1.80E-02
94755,6.59E-03,1.80E-02
94756,6.10E-03,1.80E-02
94757,5.94E-03,1.80E-02
94758,5.78E-03,1.80E-02
94759,5.58E-03,1.80E-02
94760,5.17E-03,1.80E-02
94761,4.43E-03,1.80E-02
94762,3.65E-03,1.78E-02
94763,4.14E-03,1.78E-02
94764,4.54E-03,1.78E-02
94765,4.90E-03,1.77E-02
94766,5.79E-03,1.77E-02
94767,5.64E-03,1.77E-02
94768,6.03E-03,1.77E-02
94769,6.43E-03,1.76E-02
94770,7.08E-03,1.75E-02
94771,9.01E-03,1.74E-02
94772,1.07E-02,1.72E-02
94773,7.97E-03,1.75E-02
94774,5.42E-03,1.55E-02
94775,6.83E-03,1.67E-02
94776,7.10E-03,1.66E-02
94777,7.21E-03,1.66E-02
94778,9.39E-03,1.66E-02
94779,9.56E-03,1.65E-02
94780,9.66E-03,1.65E-02
94781,9.39E-03,1.64E-02
94782,9.28E-03,1.64E-02
94783,8.68E-03,1.64E-02
94784,8.48E-03,1.63E-02
94785,8.18E-03,1.63E-02
94786,7.15E-03,1.28E-02
94787,7.16E-03,1.28E-02
94788,9.28E-03,1.28E-02
94789,9.29E-03,1.28E-02
94790,9.20E-03,1.28E-02
94791,9.12E-03,1.28E-02
94792,9.11E-03,1.28E-02
94793,9.24E-03,1.28E-02
94794,9.39E-03,1.28E-02
94795,9.57E-03,1.28E-02
94796,9.98E-03,1.28E-02
94797,1.01E-02,1.28E-02
94798,1.06E-02,1.28E-02
94799,1.06E-02,1.28E-02
94800,1.08E-02,1.28E-02
94801,6.20E-03,1.28E-02
94802,5.88E-03,1.28E-02
94803,5.94E-03,1.28E-02
94804,5.28E-03,1.28E-02
94805,5.33E-03,1.28E-02
94806,6.01E-03,1.28E-02
94807,6.13E-03,1.28E-02
94808,6.78E-03,1.28E-02
94809,6.76E-03,1.28E-02
94810,6.98E-03,1.28E-02
94811,7.14E-03,1.28E-02
94812,7.24E-03,1.28E-02
94813,7.37E-03,1.28E-02
94814,7.51E-03,1.28E-02
94815,7.57E-03,1.28E-02
94816,7.57E-03,1.28E-02
94817,7.58E-03,1.28E-02
94818,8.24E-03,1.29E-02
94819,9.12E-03,1.29E-02
94820,9.16E-03,1.29E-02
94821,8.85E-03,1.29E-02
94822,8.76E-03,1.30E-02
94823,8.82E-03,1.30E-02
94824,9.01E-03,1.30E-02
94825,9.34E-03,1.30E-02
94826,9.47E-03,1.31E-02
94827,9.55E-03,1.31E-02
94828,9.73E-03,1.31E-02
94829,9.88E-03,1.32E-02
94830,1.00E-02,1.32E-02
94831,9.90E-03,1.33E-02
94832,9.26E-03,1.33E-02
94833,9.38E-03,1.34E-02
94834,1.03E-02,1.25E-02
94835,1.06E-02,1.26E-02
94836,1.07E-02,1.27E-02
94837,1.10E-02,1.28E-02
94838,1.09E-02,1.29E-02
94839,1.08E-02,1.29E-02
94840,1.05E-02,1.30E-02
94841,1.01E-02,1.31E-02
94842,9.64E-03,1.32E-02
94843,9.58E-03,1.32E-02
94844,9.25E-03,1.33E-02
94845,9.01E-03,1.34E-02
94846,8.89E-03,1.35E-02
94847,8.70E-03,1.35E-02
94848,8.60E-03,1.36E-02
94849,8.73E-03,1.37E-02
94850,9.01E-03,1.37E-02
94851,9.19E-03,1.38E-02
94852,8.50E-03,1.39E-02
94853,7.77E-03,1.39E-02
94854,7.73E-03,1.40E-02
94855,7.73E-03,1.41E-02
94856,7.72E-03,1.41E-02
94857,7.69E-03,1.42E-02
94858,7.63E-03,1.43E-02
94859,7.53E-03,1.43E-02
94860,7.47E-03,1.44E-02
94861,7.47E-03,1.45E-02
94862,7.49E-03,1.45E-02
94863,7.51E-03,1.46E-02
94864,9.04E-03,1.47E-02
94865,9.44E-03,1.47E-02
94866,6.63E-03,1.01E-02
94867,6.27E-03,1.02E-02
94868,5.90E-03,1.02E-02
94869,5.60E-03,1.02E-02
94870,5.88E-03,1.02E-02
94871,9.27E-03,1.02E-02
94872,9.11E-03,1.02E-02
94873,8.41E-03,1.02E-02
94874,9.09E-03,1.01E-02
94875,8.20E-03,1.01E-02
94876,9.90E-03,1.62E-02
94877,9.21E-03,1.62E-02
94878,9.17E-03,1.63E-02
94879,7.42E-03,1.88E-02
94880,7.18E-03,1.88E-02
94881,7.16E-03,1.88E-02
94882,6.35E-03,1.85E-02
94883,8.20E-03,1.88E-02
94884,7.09E-03,1.88E-02
94885,8.06E-03,9.97E-03
94886,7.75E-03,1.00E-02
94887,7.22E-03,1.48E-02
94888,7.80E-03,9.99E-03
94889,8.37E-03,9.97E-03
94890,5.95E-03,1.29E-02
94891,8.77E-03,9.96E-03
94892,8.59E-03,1.91E-02
94893,6.76E-03,1.23E-02
94894,7.85E-03,1.22E-02
94895,8.04E-03,1.74E-02
94896,8.03E-03,1.67E-02
94897,7.38E-03,9.98E-03
94898,9.86E-03,1.01E-02
94899,1.09E-02,1.01E-02
94900,1.09E-02,1.01E-02
94901,1.00E-02,1.01E-02
94902,8.27E-03,1.01E-02
94903,8.21E-03,1.01E-02
94904,7.99E-03,1.00E-02
94905,7.58E-03,1.00E-02
94906,7.32E-03,9.98E-03
94907,6.44E-03,9.95E-03
94908,6.42E-03,9.94E-03
94909,7.70E-03,9.95E-03
94910,4.99E-03,1.00E-02
94911,5.06E-03,9.98E-03
94912,8.20E-03,1.34E-02
94913,8.71E-03,1.44E-02
94914,9.23E-03,1.43E-02
94915,1.07E-02,1.41E-02
94916,6.77E-03,1.65E-02
94917,7.06E-03,1.65E-02
94918,7.67E-03,1.64E-02
94919,7.12E-03,1.02E-02
94920,6.87E-03,1.01E-02
94921,8.54E-03,1.01E-02
94922,8.86E-03,1.01E-02
94923,1.00E-02,1.01E-02
94924,8.47E-03,1.07E-02
94925,8.07E-03,1.06E-02
94926,8.06E-03,1.14E-02
94927,7.01E-03,1.18E-02
94928,8.42E-03,1.17E-02
94929,8.08E-03,1.16E-02
94930,8.14E-03,1.15E-02
94931,7.60E-03,1.52E-02
94932,8.25E-03,1.53E-02
94933,1.04E-02,1.54E-02
94934,7.30E-03,1.85E-02
94935,8.79E-03,1.57E-02
94936,7.37E-03,1.46E-02
94937,1.16E-02,1.24E-02
94938,8.50E-03,9.93E-03
94939,7.65E-03,9.93E-03
94940,7.02E-03,1.82E-02
94941,8.40E-03,1.68E-02
94942,7.76E-03,1.01E-02
94943,4.19E-03,9.69E-03
94944,9.57E-03,1.73E-02
94945,9.19E-03,1.70E-02
94946,9.14E-03,1.71E-02
94947,8.00E-03,1.22E-02
94948,7.99E-03,1.20E-02
94949,7.73E-03,1.19E-02
94950,7.03E-03,1.19E-02
94951,1.03E-02,1.00E-02
94952,7.99E-03,1.01E-02
94953,7.03E-03,9.87E-03
94954,8.20E-03,1.39E-02
94955,8.10E-03,1.39E-02
94956,7.45E-03,1.28E-02
94957,9.27E-03,1.70E-02
94958,5.72E-03,1.70E-02
94959,8.45E-03,9.66E-03
94960,7.84E-03,9.52E-03
94961,1.00E-02,1.61E-02
94962,4.83E-03,1.62E-02
94963,7.18E-03,1.93E-02
94964,8.47E-03,1.62E-02
94965,7.51E-03,1.03E-02
94966,7.70E-03,1.02E-02
94967,8.36E-03,1.97E-02
94968,8.90E-03,1.90E-02
94969,8.47E-03,1.55E-02
94970,7.86E-03,1.54E-02
94971,7.37E-03,1.53E-02
94972,8.96E-03,1.56E-02
94973,8.69E-03,1.55E-02
94974,7.70E-03,1.25E-02
94975,6.72E-03,1.69E-02
94976,8.53E-03,1.62E-02
94977,7.96E-03,1.48E-02
94978,9.41E-03,9.97E-03
94979,7.63E-03,1.67E-02
94980,6.95E-03,1.67E-02
94981,6.46E-03,1.67E-02
94982,7.64E-03,1.00E-02
94983,8.96E-03,1.01E-02
94984,8.69E-03,1.00E-02
94985,8.33E-03,1.00E-02
94986,8.10E-03,1.30E-02
94987,8.79E-03,1.43E-02
94988,8.89E-03,1.67E-02
94989,6.35E-03,1.66E-02
94990,6.19E-03,1.67E-02
94991,8.57E-03,1.00E-02
94992,7.20E-03,9.74E-03
94993,6.76E-03,9.76E-03
94994,6.67E-03,9.83E-03
94995,6.80E-03,9.91E-03
94996,8.33E-03,9.92E-03
94997,7.72E-03,1.05E-02
94998,8.03E-03,1.03E-02
94999,7.72E-03,1.10E-02
95000,5.57E-03,1.83E-02
95001,6.14E-03,1.81E-02
95002,9.03E-03,1.58E-02
95003,8.56E-03,1.57E-02
95004,8.41E-03,1.55E-02
95005,6.12E-03,1.22E-02
95006,7.13E-03,1.23E-02
95007,7.82E-03,9.86E-03
95008,6.97E-03,1.80E-02
95009,7.52E-03,1.80E-02
95010,7.04E-03,9.90E-03
95011,8.03E-03,1.02E-02
95012,6.55E-03,1.03E-02
95013,5.90E-03,1.02E-02
95014,5.80E-03,9.53E-03
95015,6.49E-03,9.47E-03
95016,6.35E-03,1.03E-02
95017,6.48E-03,1.03E-02
95018,7.91E-03,9.94E-03
95019,9.19E-03,1.67E-02
95020,7.80E-03,1.62E-02
95021,7.69E-03,9.79E-03
95022,5.89E-03,1.92E-02
95023,8.20E-03,1.21E-02
95024,8.93E-03,1.57E-02
95025,8.33E-03,9.96E-03
95026,5.24E-03,9.92E-03
95027,4.27E-03,9.88E-03
95028,4.99E-03,9.81E-03
95029,7.44E-03,9.79E-03
95030,8.10E-03,9.93E-03
95031,7.49E-03,1.06E-02
95032,8.22E-03,1.67E-02
95033,8.45E-03,1.67E-02
95034,5.25E-03,1.52E-02
95035,4.89E-03,1.51E-02
95036,6.11E-03,9.45E-03
95037,8.02E-03,1.77E-02
95038,5.40E-03,1.89E-02
95039,5.06E-03,1.86E-02
95040,8.00E-03,1.58E-02
95041,7.47E-03,1.02E-02
95042,8.14E-03,9.84E-03
95043,8.15E-03,9.83E-03
95044,8.06E-03,9.81E-03
95045,4.75E-03,9.41E-03
95046,4.68E-03,9.32E-03
95047,7.58E-03,1.64E-02
95048,8.35E-03,1.63E-02
95049,6.37E-03,1.72E-02
95050,6.66E-03,1.72E-02
95051,6.55E-03,1.42E-02
95052,8.54E-03,9.58E-03
95053,1.10E-02,9.89E-03
95054,6.52E-03,9.83E-03
95055,9.12E-03,9.90E-03
95056,7.86E-03,9.34E-03
95057,6.25E-03,9.34E-03
95058,5.52E-03,9.20E-03
95059,7.16E-03,1.03E-02
95060,7.11E-03,1.02E-02
95061,9.41E-03,1.37E-02
95062,7.75E-03,9.70E-03
95063,7.40E-03,1.00E-02
95064,6.76E-03,9.79E-03
95065,8.38E-03,9.61E-03
95066,6.51E-03,9.95E-03
95067,5.76E-03,9.92E-03
95068,6.05E-03,9.91E-03
95069,6.50E-03,9.90E-03
95070,6.73E-03,9.90E-03
95071,7.27E-03,9.91E-03
95072,7.48E-03,9.91E-03
95073,7.62E-03,9.91E-03
95074,7.71E-03,9.91E-03
95075,7.60E-03,9.91E-03
95076,7.04E-03,9.92E-03
95077,6.17E-03,9.92E-03
95078,6.18E-03,9.92E-03
95079,5.69E-03,9.92E-03
95080,5.85E-03,9.93E-03
95081,6.33E-03,9.93E-03
95082,7.69E-03,9.96E-03
95083,1.08E-02,9.96E-03
95084,8.39E-03,9.97E-03
95085,1.14E-02,9.97E-03
95086,1.05E-02,9.98E-03
95087,6.96E-03,9.98E-03
95088,6.75E-03,9.98E-03
95089,6.28E-03,9.98E-03
95090,5.76E-03,9.98E-03
95091,4.72E-03,9.98E-03
95092,4.46E-03,9.98E-03
95093,4.82E-03,9.98E-03
95094,9.23E-03,1.35E-02
95095,9.11E-03,1.36E-02
95096,8.57E-03,1.37E-02
95097,8.39E-03,1.39E-02
95098,8.17E-03,1.40E-02
95099,7.45E-03,1.64E-02
95100,7.01E-03,1.02E-02
95101,1.07E-02,1.02E-02
95102,1.19E-02,1.02E-02
95103,1.15E-02,1.02E-02
95104,1.03E-02,1.01E-02
95105,1.03E-02,1.01E-02
95106,1.01E-02,1.01E-02
95107,9.91E-03,1.01E-02
95108,9.78E-03,1.01E-02
95109,9.60E-03,1.01E-02
95110,9.21E-03,1.01E-02
95111,8.34E-03,1.01E-02
95112,7.23E-03,1.01E-02
95113,7.10E-03,1.01E-02
95114,6.93E-03,1.01E-02
95115,6.64E-03,1.01E-02
95116,6.58E-03,1.00E-02
95117,6.38E-03,1.00E-02
95118,6.13E-03,1.00E-02
95119,5.86E-03,1.00E-02
95120,5.59E-03,1.00E-02
95121,5.22E-03,1.00E-02
95122,4.67E-03,1.00E-02
95123,4.19E-03,1.00E-02
95124,3.99E-03,1.00E-02
95125,4.10E-03,1.00E-02
95126,4.13E-03,1.00E-02
95127,4.34E-03,1.00E-02
95128,4.76E-03,1.01E-02
95129,5.32E-03,1.01E-02
95130,5.47E-03,1.01E-02
95131,9.44E-03,1.01E-02
95132,1.01E-02,1.07E-02
95133,8.16E-03,1.14E-02
95134,8.19E-03,1.15E-02
95135,1.03E-02,1.54E-02
95136,8.04E-03,1.66E-02
95137,1.04E-02,1.56E-02
95138,1.03E-02,1.57E-02
95139,1.00E-02,1.58E-02
95140,9.81E-03,1.59E-02
95141,9.57E-03,1.60E-02
95142,9.38E-03,1.61E-02
95143,8.96E-03,1.61E-02
95144,8.73E-03,1.62E-02
95145,8.54E-03,1.63E-02
95146,8.55E-03,1.63E-02
95147,8.33E-03,1.64E-02
95148,8.11E-03,1.65E-02
95149,8.03E-03,1.65E-02
95150,8.80E-03,1.56E-02
95151,7.26E-03,1.47E-02
95152,1.04E-02,1.25E-02
95153,1.05E-02,1.26E-02
95154,1.07E-02,1.27E-02
95155,1.10E-02,1.27E-02
95156,1.08E-02,1.28E-02
95157,1.06E-02,1.29E-02
95158,1.04E-02,1.30E-02
95159,1.01E-02,1.31E-02
95160,9.68E-03,1.31E-02
95161,9.60E-03,1.32E-02
95162,9.14E-03,1.33E-02
95163,8.99E-03,1.34E-02
95164,8.87E-03,1.34E-02
95165,8.69E-03,1.35E-02
95166,8.59E-03,1.36E-02
95167,8.71E-03,1.36E-02
95168,8.99E-03,1.37E-02
95169,9.16E-03,1.38E-02
95170,8.49E-03,1.39E-02
95171,7.78E-03,1.39E-02
95172,7.74E-03,1.40E-02
95173,7.74E-03,1.41E-02
95174,7.73E-03,1.41E-02
95175,7.70E-03,1.42E-02
95176,7.64E-03,1.43E-02
95177,7.55E-03,1.43E-02
95178,7.49E-03,1.44E-02
95179,7.48E-03,1.45E-02
95180,7.47E-03,1.45E-02
95181,6.66E-03,1.47E-02
95182,7.39E-03,1.46E-02
95183,6.62E-03,9.84E-03
95184,7.12E-03,9.89E-03
95185,7.49E-03,1.81E-02
95186,7.51E-03,1.80E-02
95187,7.46E-03,1.78E-02
95188,7.60E-03,1.77E-02
95189,7.80E-03,1.76E-02
95190,8.02E-03,1.75E-02
95191,8.05E-03,1.74E-02
95192,7.95E-03,1.73E-02
95193,8.07E-03,1.72E-02
95194,8.23E-03,1.70E-02
95195,8.35E-03,1.69E-02
95196,7.67E-03,1.01E-02
95197,9.03E-03,1.02E-02
95198,1.12E-02,1.02E-02
95199,1.07E-02,1.02E-02
95200,9.70E-03,1.02E-02
95201,7.90E-03,1.02E-02
95202,6.57E-03,1.02E-02
95203,6.13E-03,1.02E-02
95204,5.87E-03,1.02E-02
95205,5.54E-03,1.02E-02
95206,5.12E-03,1.02E-02
95207,4.58E-03,1.02E-02
95208,3.81E-03,1.02E-02
95209,3.95E-03,1.02E-02
95210,5.48E-03,1.02E-02
95211,5.57E-03,1.02E-02
95212,5.62E-03,1.02E-02
95213,5.70E-03,1.02E-02
95214,5.83E-03,1.02E-02
95215,8.13E-03,1.03E-02
95216,8.47E-03,1.03E-02
95217,9.89E-03,1.05E-02
95218,8.62E-03,1.04E-02
95219,8.48E-03,1.04E-02
95220,8.42E-03,1.04E-02
95221,8.33E-03,1.04E-02
95222,8.50E-03,1.05E-02
95223,8.58E-03,1.05E-02
95224,8.72E-03,1.05E-02
95225,1.02E-02,1.05E-02
95226,1.04E-02,1.05E-02
95227,1.09E-02,1.05E-02
95228,1.06E-02,1.05E-02
95229,1.05E-02,1.05E-02
95230,1.06E-02,1.05E-02
95231,1.07E-02,1.05E-02
95232,1.08E-02,1.05E-02
95233,1.08E-02,1.05E-02
95234,1.07E-02,1.05E-02
95235,1.05E-02,1.05E-02
95236,1.04E-02,1.04E-02
95237,9.93E-03,1.04E-02
95238,9.75E-03,1.04E-02
95239,9.62E-03,1.04E-02
95240,9.09E-03,1.03E-02
95241,8.79E-03,1.03E-02
95242,8.64E-03,1.03E-02
95243,8.54E-03,1.02E-02
95244,8.46E-03,1.02E-02
95245,8.41E-03,1.02E-02
95246,8.37E-03,1.02E-02
95247,8.19E-03,1.01E-02
95248,7.81E-03,1.01E-02
95249,7.56E-03,1.01E-02
95250,7.53E-03,1.00E-02
95251,7.48E-03,1.00E-02
95252,7.44E-03,9.98E-03
95253,7.39E-03,9.95E-03
95254,7.33E-03,9.93E-03
95255,7.26E-03,9.90E-03
95256,7.18E-03,9.88E-03
95257,7.09E-03,9.86E-03
95258,6.98E-03,9.84E-03
95259,6.85E-03,9.82E-03
95260,6.70E-03,9.80E-03
95261,6.49E-03,9.78E-03
95262,6.20E-03,9.76E-03
95263,6.14E-03,9.75E-03
95264,6.43E-03,9.73E-03
95265,6.70E-03,9.72E-03
95266,6.71E-03,9.71E-03
95267,6.55E-03,9.70E-03
95268,6.37E-03,9.70E-03
95269,6.09E-03,9.69E-03
95270,5.58E-03,9.69E-03
95271,5.48E-03,9.68E-03
95272,5.86E-03,9.68E-03
95273,6.04E-03,9.69E-03
95274,5.62E-03,9.66E-03
95275,1.02E-02,1.73E-02
95276,9.14E-03,1.71E-02
95277,9.45E-03,1.72E-02
95278,9.98E-03,1.72E-02
95279,8.12E-03,1.39E-02
95280,8.13E-03,1.39E-02
95281,8.13E-03,1.39E-02
95282,8.13E-03,1.40E-02
95283,8.13E-03,1.40E-02
95284,8.13E-03,1.40E-02
95285,8.14E-03,1.40E-02
95286,8.15E-03,1.40E-02
95287,8.16E-03,1.41E-02
95288,8.16E-03,1.41E-02
95289,8.17E-03,1.41E-02
95290,8.17E-03,1.41E-02
95291,8.17E-03,1.41E-02
95292,8.18E-03,1.42E-02
95293,8.18E-03,1.42E-02
95294,8.19E-03,1.42E-02
95295,8.19E-03,1.42E-02
95296,8.20E-03,1.42E-02
95297,8.21E-03,1.43E-02
95298,8.21E-03,1.43E-02
95299,8.22E-03,1.43E-02
95300,8.23E-03,1.43E-02
95301,8.24E-03,1.43E-02
95302,8.25E-03,1.44E-02
95303,8.26E-03,1.44E-02
95304,8.27E-03,1.44E-02
95305,8.29E-03,1.44E-02
95306,8.31E-03,1.44E-02
95307,8.33E-03,1.45E-02
95308,8.35E-03,1.45E-02
95309,8.38E-03,1.45E-02
95310,8.42E-03,1.45E-02
95311,8.47E-03,1.45E-02
95312,8.52E-03,1.46E-02
95313,8.58E-03,1.46E-02
95314,8.65E-03,1.46E-02
95315,8.74E-03,1.46E-02
95316,8.85E-03,1.47E-02
95317,9.00E-03,1.47E-02
95318,9.20E-03,1.47E-02
95319,9.50E-03,1.48E-02
95320,9.97E-03,1.48E-02
95321,1.07E-02,1.48E-02
95322,1.05E-02,1.49E-02
95323,7.72E-03,1.49E-02
95324,5.91E-03,1.49E-02
95325,6.43E-03,1.49E-02
95326,6.78E-03,1.50E-02
95327,7.02E-03,1.50E-02
95328,7.19E-03,1.50E-02
95329,7.32E-03,1.50E-02
95330,7.42E-03,1.50E-02
95331,7.50E-03,1.51E-02
95332,7.57E-03,1.51E-02
95333,7.62E-03,1.51E-02
95334,7.67E-03,1.51E-02
95335,7.70E-03,1.52E-02
95336,7.74E-03,1.52E-02
95337,7.76E-03,1.52E-02
95338,7.79E-03,1.52E-02
95339,7.81E-03,1.52E-02
95340,7.83E-03,1.53E-02
95341,7.85E-03,1.53E-02
95342,7.86E-03,1.53E-02
95343,7.88E-03,1.53E-02
95344,7.89E-03,1.53E-02
95345,7.90E-03,1.54E-02
95346,7.91E-03,1.54E-02
95347,7.92E-03,1.54E-02
95348,7.93E-03,1.54E-02
95349,7.92E-03,1.54E-02
95350,7.90E-03,1.54E-02
95351,7.92E-03,1.55E-02
95352,7.95E-03,1.55E-02
95353,7.97E-03,1.55E-02
95354,7.99E-03,1.55E-02
95355,8.00E-03,1.55E-02
95356,8.01E-03,1.55E-02
95357,8.02E-03,1.55E-02
95358,8.03E-03,1.55E-02
95359,8.03E-03,1.56E-02
95360,8.09E-03,1.56E-02
95361,8.19E-03,1.56E-02
95362,8.23E-03,1.56E-02
95363,8.24E-03,1.56E-02
95364,8.25E-03,1.56E-02
95365,8.26E-03,1.56E-02
95366,8.27E-03,1.56E-02
95367,8.28E-03,1.56E-02
95368,8.29E-03,1.56E-02
95369,8.31E-03,1.56E-02
95370,8.33E-03,1.57E-02
95371,8.35E-03,1.57E-02
95372,8.37E-03,1.57E-02
95373,8.40E-03,1.57E-02
95374,8.43E-03,1.57E-02
95375,8.47E-03,1.57E-02
95376,8.51E-03,1.57E-02
95377,8.56E-03,1.57E-02
95378,8.67E-03,1.57E-02
95379,8.91E-03,1.58E-02
95380,8.85E-03,1.58E-02
95381,8.69E-03,1.58E-02
95382,8.46E-03,1.58E-02
95383,7.92E-03,1.21E-02
95384,7.10E-03,1.20E-02
95385,6.86E-03,1.20E-02
95386,6.73E-03,1.19E-02
95387,7.10E-03,1.19E-02
95388,7.26E-03,1.18E-02
95389,7.38E-03,1.18E-02
95390,7.48E-03,1.17E-02
95391,7.55E-03,1.17E-02
95392,7.61E-03,1.16E-02
95393,7.66E-03,1.16E-02
95394,7.71E-03,1.15E-02
95395,7.74E-03,1.15E-02
95396,7.77E-03,1.15E-02
95397,7.81E-03,1.14E-02
95398,7.87E-03,1.14E-02
95399,7.92E-03,1.13E-02
95400,7.91E-03,1.13E-02
95401,7.91E-03,1.12E-02
95402,7.90E-03,1.12E-02
95403,7.89E-03,1.11E-02
95404,7.88E-03,1.11E-02
95405,7.88E-03,1.10E-02
95406,7.87E-03,1.10E-02
95407,7.86E-03,1.09E-02
95408,7.85E-03,1.09E-02
95409,7.84E-03,1.08E-02
95410,7.83E-03,1.08E-02
95411,7.81E-03,1.08E-02
95412,7.80E-03,1.07E-02
95413,7.79E-03,1.07E-02
95414,7.77E-03,1.06E-02
95415,7.75E-03,1.06E-02
95416,7.74E-03,1.05E-02
95417,7.77E-03,1.05E-02
95418,7.82E-03,1.05E-02
95419,8.44E-03,1.04E-02
95420,7.92E-03,1.04E-02
95421,7.83E-03,1.04E-02
95422,6.71E-03,1.84E-02
95423,7.81E-03,1.19E-02
95424,1.02E-02,1.00E-02
95425,1.02E-02,1.00E-02
95426,6.89E-03,1.00E-02
95427,7.03E-03,1.00E-02
95428,8.04E-03,1.00E-02
95429,7.99E-03,1.00E-02
95430,7.94E-03,1.00E-02
95431,7.54E-03,1.00E-02
95432,8.03E-03,9.77E-03
95433,6.80E-03,9.84E-03
95434,5.46E-03,9.80E-03
95435,8.12E-03,1.39E-02
95436,8.14E-03,1.38E-02
95437,8.14E-03,1.38E-02
95438,8.14E-03,1.38E-02
95439,8.14E-03,1.38E-02
95440,8.14E-03,1.38E-02
95441,8.14E-03,1.37E-02
95442,8.14E-03,1.37E-02
95443,8.14E-03,1.37E-02
95444,8.15E-03,1.37E-02
95445,8.15E-03,1.37E-02
95446,8.15E-03,1.36E-02
95447,8.15E-03,1.36E-02
95448,8.15E-03,1.36E-02
95449,8.15E-03,1.36E-02
95450,8.15E-03,1.36E-02
95451,8.15E-03,1.35E-02
95452,8.16E-03,1.35E-02
95453,8.16E-03,1.35E-02
95454,8.16E-03,1.35E-02
95455,8.16E-03,1.35E-02
95456,8.16E-03,1.34E-02
95457,8.16E-03,1.34E-02
95458,8.17E-03,1.34E-02
95459,8.17E-03,1.34E-02
95460,8.17E-03,1.34E-02
95461,8.18E-03,1.33E-02
95462,8.18E-03,1.33E-02
95463,8.19E-03,1.33E-02
95464,8.19E-03,1.33E-02
95465,8.20E-03,1.33E-02
95466,8.21E-03,1.32E-02
95467,8.21E-03,1.32E-02
95468,8.22E-03,1.32E-02
95469,8.22E-03,1.32E-02
95470,8.23E-03,1.32E-02
95471,8.24E-03,1.31E-02
95472,8.24E-03,1.31E-02
95473,8.25E-03,1.31E-02
95474,8.26E-03,1.31E-02
95475,8.27E-03,1.31E-02
95476,8.28E-03,1.31E-02
95477,8.30E-03,1.30E-02
95478,8.31E-03,1.30E-02
95479,8.33E-03,1.30E-02
95480,8.34E-03,1.30E-02
95481,8.36E-03,1.30E-02
95482,8.38E-03,1.30E-02
95483,8.41E-03,1.29E-02
95484,8.44E-03,1.29E-02
95485,8.47E-03,1.29E-02
95486,8.51E-03,1.29E-02
95487,8.55E-03,1.29E-02
95488,8.60E-03,1.29E-02
95489,8.67E-03,1.29E-02
95490,8.75E-03,1.29E-02
95491,8.98E-03,1.28E-02
95492,9.09E-03,1.28E-02
95493,9.28E-03,1.28E-02
95494,9.49E-03,1.28E-02
95495,9.49E-03,1.28E-02
95496,9.51E-03,1.28E-02
95497,9.35E-03,1.28E-02
95498,9.47E-03,1.69E-02
95499,9.95E-03,1.69E-02
95500,1.00E-02,1.69E-02
95501,9.94E-03,1.69E-02
95502,9.91E-03,1.69E-02
95503,9.77E-03,1.69E-02
95504,9.74E-03,1.68E-02
95505,9.26E-03,1.68E-02
95506,9.01E-03,1.68E-02
95507,8.98E-03,1.68E-02
95508,8.97E-03,1.68E-02
95509,8.93E-03,1.68E-02
95510,8.90E-03,1.69E-02
95511,8.86E-03,1.69E-02
95512,8.81E-03,1.69E-02
95513,8.74E-03,1.69E-02
95514,8.68E-03,1.69E-02
95515,8.63E-03,1.69E-02
95516,8.58E-03,1.69E-02
95517,8.54E-03,1.69E-02
95518,8.51E-03,1.70E-02
95519,8.48E-03,1.70E-02
95520,8.45E-03,1.70E-02
95521,8.43E-03,1.70E-02
95522,8.41E-03,1.70E-02
95523,8.39E-03,1.70E-02
95524,8.37E-03,1.70E-02
95525,8.35E-03,1.71E-02
95526,8.34E-03,1.71E-02
95527,8.33E-03,1.71E-02
95528,8.31E-03,1.71E-02
95529,8.30E-03,1.71E-02
95530,8.29E-03,1.71E-02
95531,8.28E-03,1.71E-02
95532,8.27E-03,1.71E-02
95533,8.26E-03,1.72E-02
95534,8.25E-03,1.72E-02
95535,8.24E-03,1.72E-02
95536,8.24E-03,1.72E-02
95537,8.23E-03,1.72E-02
95538,8.22E-03,1.72E-02
95539,8.19E-03,1.72E-02
95540,8.10E-03,1.72E-02
95541,8.02E-03,1.72E-02
95542,8.00E-03,1.72E-02
95543,7.98E-03,1.72E-02
95544,7.95E-03,1.72E-02
95545,7.90E-03,1.72E-02
95546,7.80E-03,1.72E-02
95547,7.68E-03,1.72E-02
95548,7.68E-03,1.72E-02
95549,7.73E-03,1.72E-02
95550,7.70E-03,1.72E-02
95551,7.66E-03,1.72E-02
95552,7.62E-03,1.72E-02
95553,7.57E-03,1.72E-02
95554,7.50E-03,1.72E-02
95555,7.34E-03,1.72E-02
95556,7.20E-03,1.71E-02
95557,7.07E-03,1.71E-02
95558,6.94E-03,1.71E-02
95559,6.76E-03,1.71E-02
95560,6.59E-03,1.71E-02
95561,6.77E-03,1.71E-02
95562,6.29E-03,9.44E-03
95563,7.08E-03,9.41E-03
95564,7.74E-03,9.46E-03
95565,7.44E-03,9.42E-03
95566,8.71E-03,1.61E-02
95567,7.64E-03,1.62E-02
95568,7.21E-03,1.62E-02
95569,7.37E-03,1.62E-02
95570,8.29E-03,1.95E-02
95571,8.52E-03,1.61E-02
95572,8.49E-03,1.60E-02
95573,1.07E-02,1.60E-02
95574,1.03E-02,1.59E-02
95575,9.79E-03,1.58E-02
95576,9.73E-03,1.57E-02
95577,9.54E-03,1.56E-02
95578,9.34E-03,1.55E-02
95579,9.38E-03,1.54E-02
95580,9.45E-03,1.53E-02
95581,9.56E-03,1.52E-02
95582,9.67E-03,1.51E-02
95583,9.77E-03,1.50E-02
95584,9.82E-03,1.49E-02
95585,9.82E-03,1.48E-02
95586,9.82E-03,1.47E-02
95587,9.83E-03,1.46E-02
95588,9.86E-03,1.44E-02
95589,9.89E-03,1.43E-02
95590,9.84E-03,1.42E-02
95591,9.87E-03,1.40E-02
95592,9.72E-03,1.39E-02
95593,7.88E-03,9.92E-03
95594,7.78E-03,9.35E-03
95595,1.10E-02,1.03E-02
95596,7.72E-03,1.03E-02
95597,9.35E-03,1.89E-02
95598,1.02E-02,1.88E-02
95599,1.06E-02,1.87E-02
95600,1.07E-02,1.86E-02
95601,1.07E-02,1.86E-02
95602,1.07E-02,1.85E-02
95603,1.06E-02,1.84E-02
95604,1.05E-02,1.84E-02
95605,1.02E-02,1.83E-02
95606,1.01E-02,1.83E-02
95607,9.72E-03,1.82E-02
95608,9.63E-03,1.82E-02
95609,9.66E-03,1.82E-02
95610,9.46E-03,1.82E-02
95611,9.37E-03,1.82E-02
95612,9.20E-03,1.81E-02
95613,9.10E-03,1.81E-02
95614,8.98E-03,1.81E-02
95615,8.89E-03,1.81E-02
95616,8.81E-03,1.81E-02
95617,8.76E-03,1.81E-02
95618,8.71E-03,1.81E-02
95619,8.67E-03,1.82E-02
95620,8.64E-03,1.82E-02
95621,8.60E-03,1.82E-02
95622,8.57E-03,1.82E-02
95623,8.55E-03,1.82E-02
95624,8.53E-03,1.82E-02
95625,8.50E-03,1.82E-02
95626,8.42E-03,1.82E-02
95627,8.29E-03,1.82E-02
95628,8.20E-03,1.83E-02
95629,8.17E-03,1.83E-02
95630,8.17E-03,1.83E-02
95631,8.17E-03,1.83E-02
95632,7.86E-03,1.83E-02
95633,7.14E-03,1.83E-02
95634,6.74E-03,1.83E-02
95635,6.74E-03,1.83E-02
95636,6.64E-03,1.83E-02
95637,6.61E-03,1.83E-02
95638,6.06E-03,1.83E-02
95639,5.91E-03,1.83E-02
95640,5.75E-03,1.83E-02
95641,5.58E-03,1.83E-02
95642,5.33E-03,1.83E-02
95643,5.17E-03,1.83E-02
95644,4.80E-03,1.82E-02
95645,4.31E-03,1.82E-02
95646,4.57E-03,1.81E-02
95647,4.85E-03,1.81E-02
95648,5.47E-03,1.80E-02
95649,5.67E-03,1.80E-02
95650,6.13E-03,1.80E-02
95651,6.45E-03,1.79E-02
95652,7.64E-03,1.78E-02
95653,8.82E-03,1.77E-02
95654,9.32E-03,1.77E-02
95655,9.46E-03,1.52E-02
95656,8.99E-03,1.51E-02
95657,6.60E-03,9.91E-03
95658,5.96E-03,1.26E-02
95659,8.99E-03,9.89E-03
95660,8.44E-03,9.86E-03
95661,6.79E-03,1.69E-02
95662,7.00E-03,1.69E-02
95663,7.06E-03,1.68E-02
95664,9.61E-03,1.68E-02
95665,9.54E-03,1.67E-02
95666,9.76E-03,1.67E-02
95667,9.45E-03,1.66E-02
95668,9.36E-03,1.66E-02
95669,8.67E-03,1.66E-02
95670,8.52E-03,1.65E-02
95671,8.38E-03,1.65E-02
95672,9.47E-03,1.64E-02
95673,9.89E-03,1.64E-02
95674,8.72E-03,1.64E-02
95675,8.00E-03,1.28E-02
95676,9.09E-03,1.28E-02
95677,9.36E-03,1.28E-02
95678,9.27E-03,1.27E-02
95679,9.23E-03,1.27E-02
95680,9.09E-03,1.27E-02
95681,9.21E-03,1.27E-02
95682,9.36E-03,1.27E-02
95683,9.54E-03,1.27E-02
95684,9.82E-03,1.27E-02
95685,1.01E-02,1.27E-02
95686,1.05E-02,1.27E-02
95687,1.06E-02,1.27E-02
95688,1.02E-02,1.27E-02
95689,6.59E-03,1.27E-02
95690,6.18E-03,1.27E-02
95691,5.78E-03,1.27E-02
95692,5.35E-03,1.27E-02
95693,5.38E-03,1.26E-02
95694,6.04E-03,1.27E-02
95695,6.18E-03,1.27E-02
95696,6.85E-03,1.27E-02
95697,6.87E-03,1.27E-02
95698,6.93E-03,1.27E-02
95699,7.17E-03,1.27E-02
95700,7.26E-03,1.27E-02
95701,7.39E-03,1.27E-02
95702,7.52E-03,1.27E-02
95703,7.58E-03,1.27E-02
95704,7.58E-03,1.27E-02
95705,7.59E-03,1.27E-02
95706,8.23E-03,1.27E-02
95707,9.09E-03,1.27E-02
95708,9.13E-03,1.28E-02
95709,8.83E-03,1.28E-02
95710,8.68E-03,1.28E-02
95711,8.76E-03,1.28E-02
95712,9.08E-03,1.29E-02
95713,9.33E-03,1.29E-02
95714,9.43E-03,1.29E-02
95715,9.58E-03,1.30E-02
95716,9.67E-03,1.30E-02
95717,9.75E-03,1.30E-02
95718,9.94E-03,1.31E-02
95719,9.97E-03,1.31E-02
95720,9.95E-03,1.32E-02
95721,1.01E-02,1.32E-02
95722,8.02E-03,1.33E-02
95723,8.13E-03,1.34E-02
95724,7.61E-03,1.21E-02
95725,8.38E-03,1.64E-02
95726,9.08E-03,1.48E-02
95727,6.82E-03,1.47E-02
95728,8.79E-03,1.49E-02
95729,8.25E-03,1.51E-02
95730,9.60E-03,9.97E-03
95731,6.29E-03,1.68E-02
95732,7.54E-03,9.99E-03
95733,1.05E-02,1.00E-02
95734,1.11E-02,1.00E-02
95735,1.08E-02,1.00E-02
95736,9.87E-03,9.99E-03
95737,8.12E-03,9.98E-03
95738,7.94E-03,9.95E-03
95739,7.78E-03,9.93E-03
95740,7.53E-03,9.90E-03
95741,7.33E-03,9.87E-03
95742,6.76E-03,9.84E-03
95743,6.49E-03,9.83E-03
95744,6.40E-03,9.82E-03
95745,7.62E-03,9.83E-03
95746,7.14E-03,9.89E-03
95747,5.63E-03,9.86E-03
95748,5.75E-03,1.00E-02
95749,5.77E-03,1.01E-02
95750,5.59E-03,1.01E-02
95751,6.18E-03,1.01E-02
95752,8.85E-03,1.00E-02
95753,8.64E-03,1.00E-02
95754,7.98E-03,1.00E-02
95755,6.73E-03,1.00E-02
95756,8.03E-03,9.96E-03
95757,9.27E-03,9.88E-03
95758,8.61E-03,9.90E-03
95759,8.10E-03,1.31E-02
95760,6.73E-03,1.41E-02
95761,9.73E-03,1.41E-02
95762,9.42E-03,1.39E-02
95763,1.02E-02,1.38E-02
95764,6.65E-03,1.66E-02
95765,6.98E-03,1.65E-02
95766,7.59E-03,1.64E-02
95767,8.75E-03,1.68E-02
95768,8.00E-03,1.68E-02
95769,5.79E-03,1.68E-02
95770,6.17E-03,1.68E-02
95771,7.25E-03,1.00E-02
95772,6.21E-03,9.88E-03
95773,8.89E-03,9.94E-03
95774,8.59E-03,9.95E-03
95775,9.23E-03,9.97E-03
95776,8.35E-03,1.04E-02
95777,8.04E-03,1.03E-02
95778,8.12E-03,1.11E-02
95779,7.48E-03,1.15E-02
95780,6.82E-03,1.15E-02
95781,7.22E-03,1.13E-02
95782,7.91E-03,1.13E-02
95783,8.08E-03,1.12E-02
95784,6.66E-03,1.52E-02
95785,8.20E-03,1.53E-02
95786,7.51E-03,1.80E-02
95787,8.47E-03,1.54E-02
95788,8.37E-03,1.52E-02
95789,1.06E-02,1.23E-02
95790,6.10E-03,1.47E-02
95791,6.52E-03,9.78E-03
95792,5.77E-03,9.76E-03
95793,7.71E-03,9.82E-03
95794,7.63E-03,1.78E-02
95795,8.25E-03,1.64E-02
95796,7.26E-03,9.94E-03
95797,5.88E-03,1.01E-02
95798,5.80E-03,9.43E-03
95799,9.14E-03,1.73E-02
95800,8.96E-03,1.73E-02
95801,7.93E-03,1.21E-02
95802,5.33E-03,1.02E-02
95803,8.57E-03,1.17E-02
95804,8.35E-03,1.16E-02
95805,8.48E-03,1.16E-02
95806,1.02E-02,9.87E-03
95807,7.98E-03,9.92E-03
95808,8.20E-03,1.40E-02
95809,8.10E-03,1.39E-02
95810,9.12E-03,1.73E-02
95811,5.99E-03,1.72E-02
95812,8.06E-03,9.22E-03
95813,9.38E-03,1.68E-02
95814,6.68E-03,1.63E-02
95815,8.15E-03,1.21E-02
95816,8.65E-03,1.34E-02
95817,8.74E-03,1.58E-02
95818,8.46E-03,1.65E-02
95819,8.74E-03,1.63E-02
95820,6.52E-03,1.64E-02
95821,8.13E-03,9.89E-03
95822,8.28E-03,9.95E-03
95823,8.32E-03,9.85E-03
95824,8.10E-03,1.26E-02
95825,5.88E-03,1.68E-02
95826,6.12E-03,1.67E-02
95827,7.84E-03,9.85E-03
95828,7.74E-03,9.80E-03
95829,7.92E-03,1.02E-02
95830,8.10E-03,9.97E-03
95831,7.68E-03,1.07E-02
95832,7.62E-03,1.67E-02
95833,8.91E-03,1.68E-02
95834,5.39E-03,1.52E-02
95835,6.16E-03,1.79E-02
95836,7.77E-03,1.77E-02
95837,8.02E-03,1.54E-02
95838,8.02E-03,1.53E-02
95839,8.31E-03,1.52E-02
95840,8.19E-03,9.75E-03
95841,6.24E-03,1.78E-02
95842,7.20E-03,1.76E-02
95843,7.66E-03,1.75E-02
95844,6.70E-03,9.74E-03
95845,8.24E-03,1.01E-02
95846,7.56E-03,9.98E-03
95847,6.38E-03,9.36E-03
95848,6.78E-03,9.25E-03
95849,8.18E-03,1.77E-02
95850,6.87E-03,1.80E-02
95851,7.01E-03,1.92E-02
95852,7.51E-03,1.92E-02
95853,7.37E-03,1.92E-02
95854,7.27E-03,1.92E-02
95855,7.69E-03,1.92E-02
95856,7.45E-03,1.93E-02
95857,6.99E-03,1.93E-02
95858,6.44E-03,1.93E-02
95859,7.03E-03,1.93E-02
95860,6.28E-03,1.82E-02
95861,7.46E-03,1.93E-02
95862,9.32E-03,1.88E-02
95863,7.87E-03,1.93E-02
95864,7.77E-03,1.93E-02
95865,8.23E-03,1.89E-02
95866,7.71E-03,1.60E-02
95867,7.50E-03,1.22E-02
95868,8.17E-03,1.22E-02
95869,7.08E-03,1.02E-02
95870,7.95E-03,9.79E-03
95871,7.33E-03,1.49E-02
95872,7.89E-03,1.50E-02
95873,7.33E-03,1.51E-02
95874,8.86E-03,9.86E-03
95875,8.67E-03,9.85E-03
95876,9.13E-03,9.84E-03
95877,5.03E-03,9.20E-03
95878,6.08E-03,9.23E-03
95879,7.55E-03,1.62E-02
95880,7.89E-03,1.63E-02
95881,8.70E-03,1.17E-02
95882,8.33E-03,1.62E-02
95883,9.10E-03,1.94E-02
95884,8.91E-03,1.95E-02
95885,9.46E-03,1.52E-02
95886,6.86E-03,1.43E-02
95887,4.80E-03,9.67E-03
95888,5.60E-03,9.63E-03
95889,8.31E-03,9.64E-03
95890,7.38E-03,1.03E-02
95891,8.42E-03,1.01E-02
95892,7.98E-03,9.69E-03
95893,8.03E-03,9.67E-03
95894,8.00E-03,9.66E-03
95895,7.65E-03,1.64E-02
95896,8.19E-03,1.63E-02
95897,1.15E-02,9.73E-03
95898,1.02E-02,9.69E-03
95899,8.71E-03,9.77E-03
95900,6.29E-03,9.70E-03
95901,6.94E-03,9.68E-03
95902,6.87E-03,9.98E-03
95903,5.52E-03,9.08E-03
95904,6.94E-03,8.99E-03
95905,8.62E-03,9.32E-03
95906,9.72E-03,9.23E-03
95907,8.47E-03,9.12E-03
95908,6.67E-03,9.02E-03
95909,9.43E-03,1.68E-02
95910,8.04E-03,1.27E-02
95911,8.96E-03,1.46E-02
95912,6.79E-03,1.71E-02
95913,5.89E-03,9.82E-03
95914,6.04E-03,9.80E-03
95915,6.53E-03,9.80E-03
95916,6.88E-03,9.79E-03
95917,7.16E-03,9.79E-03
95918,7.42E-03,9.79E-03
95919,7.59E-03,9.80E-03
95920,7.66E-03,9.80E-03
95921,7.53E-03,9.80E-03
95922,7.12E-03,9.80E-03
95923,6.24E-03,9.80E-03
95924,6.26E-03,9.80E-03
95925,5.73E-03,9.81E-03
95926,5.94E-03,9.81E-03
95927,6.26E-03,9.81E-03
95928,7.65E-03,9.84E-03
95929,1.07E-02,9.84E-03
95930,8.27E-03,9.85E-03
95931,1.13E-02,9.85E-03
95932,1.02E-02,9.86E-03
95933,7.16E-03,9.86E-03
95934,6.83E-03,9.85E-03
95935,6.34E-03,9.85E-03
95936,5.62E-03,9.86E-03
95937,4.98E-03,9.86E-03
95938,4.50E-03,9.86E-03
95939,4.71E-03,9.86E-03
95940,6.02E-03,9.94E-03
95941,6.34E-03,9.89E-03
95942,7.78E-03,9.90E-03
95943,8.31E-03,9.91E-03
95944,8.46E-03,9.91E-03
95945,6.49E-03,9.91E-03
95946,5.65E-03,9.91E-03
95947,5.68E-03,9.91E-03
95948,5.60E-03,9.90E-03
95949,9.60E-03,1.32E-02
95950,9.08E-03,1.33E-02
95951,8.47E-03,1.34E-02
95952,8.27E-03,1.35E-02
95953,8.16E-03,1.37E-02
95954,7.45E-03,1.65E-02
95955,5.22E-03,1.69E-02
95956,5.97E-03,1.68E-02
95957,6.94E-03,1.00E-02
95958,1.10E-02,1.00E-02
95959,1.10E-02,1.00E-02
95960,1.09E-02,9.99E-03
95961,1.07E-02,9.99E-03
95962,1.04E-02,9.98E-03
95963,1.02E-02,9.97E-03
95964,9.96E-03,9.96E-03
95965,9.86E-03,9.95E-03
95966,9.51E-03,9.94E-03
95967,8.94E-03,9.93E-03
95968,8.54E-03,9.92E-03
95969,7.27E-03,9.91E-03
95970,7.07E-03,9.90E-03
95971,7.06E-03,9.89E-03
95972,6.69E-03,9.88E-03
95973,6.63E-03,9.88E-03
95974,6.43E-03,9.87E-03
95975,6.18E-03,9.86E-03
95976,5.90E-03,9.86E-03
95977,5.60E-03,9.86E-03
95978,5.20E-03,9.85E-03
95979,4.72E-03,9.85E-03
95980,4.39E-03,9.85E-03
95981,4.08E-03,9.85E-03
95982,4.21E-03,9.85E-03
95983,4.22E-03,9.86E-03
95984,4.47E-03,9.87E-03
95985,4.77E-03,9.88E-03
95986,5.01E-03,9.89E-03
95987,5.26E-03,9.89E-03
95988,8.93E-03,9.96E-03
95989,1.09E-02,1.04E-02
95990,8.26E-03,1.11E-02
95991,8.22E-03,1.12E-02
95992,7.71E-03,1.67E-02
95993,9.15E-03,1.54E-02
95994,9.45E-03,1.55E-02
95995,1.08E-02,1.55E-02
95996,1.06E-02,1.56E-02
95997,1.04E-02,1.57E-02
95998,1.01E-02,1.58E-02
95999,9.82E-03,1.59E-02
96000,9.53E-03,1.60E-02
96001,9.34E-03,1.61E-02
96002,8.91E-03,1.62E-02
96003,8.72E-03,1.63E-02
96004,8.51E-03,1.63E-02
96005,8.51E-03,1.64E-02
96006,8.27E-03,1.65E-02
96007,8.02E-03,1.65E-02
96008,7.81E-03,1.66E-02
96009,9.01E-03,1.80E-02
96010,8.45E-03,1.53E-02
96011,5.43E-03,1.46E-02
96012,6.64E-03,1.45E-02
96013,6.92E-03,1.44E-02
96014,8.72E-03,1.64E-02
96015,8.22E-03,1.63E-02
96016,1.00E-02,1.24E-02
96017,1.02E-02,1.25E-02
96018,1.08E-02,1.26E-02
96019,1.10E-02,1.27E-02
96020,1.10E-02,1.28E-02
96021,1.05E-02,1.29E-02
96022,1.03E-02,1.29E-02
96023,1.01E-02,1.30E-02
96024,9.73E-03,1.31E-02
96025,9.43E-03,1.32E-02
96026,9.11E-03,1.32E-02
96027,8.97E-03,1.33E-02
96028,8.85E-03,1.34E-02
96029,8.68E-03,1.35E-02
96030,8.58E-03,1.35E-02
96031,8.70E-03,1.36E-02
96032,8.96E-03,1.37E-02
96033,9.14E-03,1.38E-02
96034,8.48E-03,1.38E-02
96035,7.78E-03,1.39E-02
96036,7.74E-03,1.40E-02
96037,7.74E-03,1.40E-02
96038,7.74E-03,1.41E-02
96039,7.71E-03,1.42E-02
96040,7.65E-03,1.42E-02
96041,7.56E-03,1.43E-02
96042,7.54E-03,1.44E-02
96043,7.57E-03,1.45E-02
96044,7.70E-03,1.45E-02
96045,7.60E-03,1.46E-02
96046,7.17E-03,9.78E-03
96047,7.51E-03,1.77E-02
96048,7.55E-03,1.76E-02
96049,7.58E-03,1.75E-02
96050,7.70E-03,1.73E-02
96051,7.78E-03,1.72E-02
96052,7.91E-03,1.71E-02
96053,8.03E-03,1.70E-02
96054,8.07E-03,1.69E-02
96055,8.18E-03,1.68E-02
96056,8.23E-03,1.67E-02
96057,8.23E-03,1.66E-02
96058,7.54E-03,9.96E-03
96059,8.51E-03,9.97E-03
96060,1.11E-02,9.97E-03
96061,1.07E-02,9.97E-03
96062,9.66E-03,9.98E-03
96063,7.90E-03,9.97E-03
96064,6.61E-03,9.97E-03
96065,6.18E-03,9.97E-03
96066,5.92E-03,9.97E-03
96067,5.60E-03,9.97E-03
96068,5.19E-03,9.97E-03
96069,4.66E-03,9.97E-03
96070,3.91E-03,9.97E-03
96071,4.27E-03,9.98E-03
96072,5.50E-03,9.99E-03
96073,5.49E-03,1.00E-02
96074,5.68E-03,1.00E-02
96075,5.67E-03,1.00E-02
96076,5.86E-03,1.00E-02
96077,8.09E-03,1.00E-02
96078,7.58E-03,1.00E-02
96079,1.05E-02,1.02E-02
96080,9.09E-03,1.02E-02
96081,8.63E-03,1.02E-02
96082,8.47E-03,1.02E-02
96083,8.37E-03,1.02E-02
96084,8.43E-03,1.02E-02
96085,8.51E-03,1.02E-02
96086,8.63E-03,1.03E-02
96087,9.88E-03,1.03E-02
96088,1.07E-02,1.03E-02
96089,1.09E-02,1.03E-02
96090,1.05E-02,1.03E-02
96091,1.04E-02,1.03E-02
96092,1.05E-02,1.03E-02
96093,1.06E-02,1.03E-02
96094,1.06E-02,1.03E-02
96095,1.09E-02,1.03E-02
96096,1.07E-02,1.02E-02
96097,1.04E-02,1.02E-02
96098,1.04E-02,1.02E-02
96099,9.93E-03,1.02E-02
96100,9.73E-03,1.01E-02
96101,9.57E-03,1.01E-02
96102,9.05E-03,1.01E-02
96103,8.77E-03,1.01E-02
96104,8.63E-03,1.00E-02
96105,8.53E-03,9.99E-03
96106,8.45E-03,9.96E-03
96107,8.40E-03,9.93E-03
96108,8.36E-03,9.90E-03
96109,8.19E-03,9.87E-03
96110,7.82E-03,9.84E-03
96111,7.58E-03,9.81E-03
96112,7.54E-03,9.78E-03
96113,7.50E-03,9.75E-03
96114,7.45E-03,9.72E-03
96115,7.40E-03,9.70E-03
96116,7.35E-03,9.67E-03
96117,7.28E-03,9.64E-03
96118,7.20E-03,9.62E-03
96119,7.11E-03,9.60E-03
96120,7.01E-03,9.57E-03
96121,6.88E-03,9.55E-03
96122,6.73E-03,9.53E-03
96123,6.53E-03,9.51E-03
96124,6.25E-03,9.50E-03
96125,6.19E-03,9.48E-03
96126,6.47E-03,9.47E-03
96127,6.74E-03,9.45E-03
96128,6.74E-03,9.44E-03
96129,6.59E-03,9.43E-03
96130,6.41E-03,9.42E-03
96131,6.13E-03,9.42E-03
96132,5.65E-03,9.41E-03
96133,5.54E-03,9.40E-03
96134,5.98E-03,9.40E-03
96135,5.92E-03,9.38E-03
96136,5.66E-03,9.38E-03
96137,9.07E-03,1.74E-02
96138,9.25E-03,1.74E-02
96139,9.82E-03,1.76E-02
96140,9.91E-03,1.75E-02
96141,9.13E-03,1.76E-02
96142,8.12E-03,1.40E-02
96143,8.13E-03,1.40E-02
96144,8.13E-03,1.40E-02
96145,8.13E-03,1.40E-02
96146,8.13E-03,1.41E-02
96147,8.13E-03,1.41E-02
96148,8.14E-03,1.41E-02
96149,8.15E-03,1.41E-02
96150,8.16E-03,1.41E-02
96151,8.16E-03,1.42E-02
96152,8.16E-03,1.42E-02
96153,8.17E-03,1.42E-02
96154,8.17E-03,1.42E-02
96155,8.18E-03,1.42E-02
96156,8.18E-03,1.43E-02
96157,8.18E-03,1.43E-02
96158,8.19E-03,1.43E-02
96159,8.20E-03,1.43E-02
96160,8.20E-03,1.43E-02
96161,8.21E-03,1.44E-02
96162,8.22E-03,1.44E-02
96163,8.23E-03,1.44E-02
96164,8.23E-03,1.44E-02
96165,8.25E-03,1.44E-02
96166,8.26E-03,1.45E-02
96167,8.27E-03,1.45E-02
96168,8.28E-03,1.45E-02
96169,8.30E-03,1.45E-02
96170,8.32E-03,1.46E-02
96171,8.34E-03,1.46E-02
96172,8.37E-03,1.46E-02
96173,8.42E-03,1.46E-02
96174,8.46E-03,1.47E-02
96175,8.51E-03,1.47E-02
96176,8.57E-03,1.47E-02
96177,8.63E-03,1.47E-02
96178,8.72E-03,1.48E-02
96179,8.83E-03,1.48E-02
96180,8.98E-03,1.48E-02
96181,9.18E-03,1.48E-02
96182,9.47E-03,1.49E-02
96183,9.92E-03,1.49E-02
96184,1.06E-02,1.49E-02
96185,1.04E-02,1.50E-02
96186,7.73E-03,1.50E-02
96187,5.97E-03,1.50E-02
96188,6.47E-03,1.51E-02
96189,6.81E-03,1.51E-02
96190,7.04E-03,1.51E-02
96191,7.21E-03,1.51E-02
96192,7.34E-03,1.52E-02
96193,7.44E-03,1.52E-02
96194,7.51E-03,1.52E-02
96195,7.58E-03,1.52E-02
96196,7.63E-03,1.53E-02
96197,7.68E-03,1.53E-02
96198,7.71E-03,1.53E-02
96199,7.74E-03,1.53E-02
96200,7.77E-03,1.53E-02
96201,7.80E-03,1.54E-02
96202,7.82E-03,1.54E-02
96203,7.84E-03,1.54E-02
96204,7.85E-03,1.54E-02
96205,7.87E-03,1.54E-02
96206,7.88E-03,1.55E-02
96207,7.89E-03,1.55E-02
96208,7.90E-03,1.55E-02
96209,7.91E-03,1.55E-02
96210,7.92E-03,1.55E-02
96211,7.93E-03,1.56E-02
96212,7.92E-03,1.56E-02
96213,7.91E-03,1.56E-02
96214,7.92E-03,1.56E-02
96215,7.95E-03,1.56E-02
96216,7.98E-03,1.56E-02
96217,7.99E-03,1.57E-02
96218,8.00E-03,1.57E-02
96219,8.01E-03,1.57E-02
96220,8.02E-03,1.57E-02
96221,8.03E-03,1.57E-02
96222,8.03E-03,1.57E-02
96223,8.09E-03,1.57E-02
96224,8.18E-03,1.57E-02
96225,8.22E-03,1.57E-02
96226,8.23E-03,1.58E-02
96227,8.24E-03,1.58E-02
96228,8.25E-03,1.58E-02
96229,8.26E-03,1.58E-02
96230,8.27E-03,1.58E-02
96231,8.29E-03,1.58E-02
96232,8.30E-03,1.58E-02
96233,8.32E-03,1.58E-02
96234,8.34E-03,1.58E-02
96235,8.36E-03,1.58E-02
96236,8.39E-03,1.59E-02
96237,8.42E-03,1.59E-02
96238,8.46E-03,1.59E-02
96239,8.50E-03,1.59E-02
96240,8.55E-03,1.59E-02
96241,8.62E-03,1.59E-02
96242,8.88E-03,1.59E-02
96243,8.90E-03,1.60E-02
96244,8.75E-03,1.60E-02
96245,8.36E-03,1.60E-02
96246,7.93E-03,1.20E-02
96247,6.81E-03,1.20E-02
96248,6.76E-03,1.19E-02
96249,6.76E-03,1.19E-02
96250,7.12E-03,1.18E-02
96251,7.28E-03,1.18E-02
96252,7.40E-03,1.17E-02
96253,7.49E-03,1.17E-02
96254,7.56E-03,1.16E-02
96255,7.62E-03,1.16E-02
96256,7.67E-03,1.15E-02
96257,7.72E-03,1.15E-02
96258,7.75E-03,1.14E-02
96259,7.78E-03,1.14E-02
96260,7.82E-03,1.13E-02
96261,7.88E-03,1.13E-02
96262,7.92E-03,1.12E-02
96263,7.92E-03,1.12E-02
96264,7.91E-03,1.11E-02
96265,7.90E-03,1.11E-02
96266,7.90E-03,1.10E-02
96267,7.89E-03,1.10E-02
96268,7.88E-03,1.09E-02
96269,7.87E-03,1.09E-02
96270,7.86E-03,1.08E-02
96271,7.85E-03,1.08E-02
96272,7.84E-03,1.08E-02
96273,7.83E-03,1.07E-02
96274,7.82E-03,1.07E-02
96275,7.81E-03,1.06E-02
96276,7.79E-03,1.06E-02
96277,7.78E-03,1.05E-02
96278,7.76E-03,1.05E-02
96279,7.74E-03,1.05E-02
96280,7.68E-03,1.04E-02
96281,7.71E-03,1.04E-02
96282,7.66E-03,1.03E-02
96283,5.25E-03,1.02E-02
96284,6.91E-03,1.02E-02
96285,6.23E-03,1.80E-02
96286,8.33E-03,1.16E-02
96287,9.98E-03,9.87E-03
96288,9.94E-03,9.86E-03
96289,7.28E-03,9.86E-03
96290,7.29E-03,9.85E-03
96291,8.02E-03,9.90E-03
96292,8.15E-03,9.88E-03
96293,7.87E-03,9.87E-03
96294,7.54E-03,9.85E-03
96295,9.29E-03,1.93E-02
96296,9.57E-03,1.92E-02
96297,1.09E-02,1.91E-02
96298,1.08E-02,1.90E-02
96299,1.07E-02,1.89E-02
96300,1.07E-02,1.88E-02
96301,1.05E-02,1.88E-02
96302,1.03E-02,1.87E-02
96303,1.02E-02,1.87E-02
96304,9.99E-03,1.86E-02
96305,9.76E-03,1.86E-02
96306,9.67E-03,1.86E-02
96307,9.60E-03,1.85E-02
96308,9.36E-03,1.85E-02
96309,9.23E-03,1.85E-02
96310,9.12E-03,1.85E-02
96311,9.03E-03,1.85E-02
96312,8.97E-03,1.85E-02
96313,8.85E-03,1.85E-02
96314,8.79E-03,1.85E-02
96315,8.74E-03,1.85E-02
96316,8.70E-03,1.85E-02
96317,8.66E-03,1.85E-02
96318,8.62E-03,1.85E-02
96319,8.59E-03,1.85E-02
96320,8.56E-03,1.85E-02
96321,8.54E-03,1.85E-02
96322,8.52E-03,1.85E-02
96323,8.49E-03,1.86E-02
96324,8.41E-03,1.86E-02
96325,8.29E-03,1.86E-02
96326,8.20E-03,1.86E-02
96327,8.17E-03,1.86E-02
96328,8.17E-03,1.86E-02
96329,8.16E-03,1.86E-02
96330,7.86E-03,1.86E-02
96331,7.16E-03,1.86E-02
96332,6.77E-03,1.86E-02
96333,6.77E-03,1.86E-02
96334,6.64E-03,1.86E-02
96335,6.59E-03,1.86E-02
96336,6.05E-03,1.86E-02
96337,5.97E-03,1.86E-02
96338,5.80E-03,1.86E-02
96339,5.69E-03,1.86E-02
96340,5.58E-03,1.86E-02
96341,5.55E-03,1.86E-02
96342,5.34E-03,1.85E-02
96343,4.51E-03,1.85E-02
96344,4.75E-03,1.84E-02
96345,4.87E-03,1.84E-02
96346,5.24E-03,1.84E-02
96347,5.77E-03,1.83E-02
96348,6.39E-03,1.83E-02
96349,6.38E-03,1.82E-02
96350,7.79E-03,1.82E-02
96351,8.17E-03,1.81E-02
96352,8.93E-03,1.81E-02
96353,8.94E-03,1.80E-02
96354,7.68E-03,9.74E-03
96355,7.56E-03,9.72E-03
96356,8.12E-03,1.39E-02
96357,8.14E-03,1.39E-02
96358,8.14E-03,1.39E-02
96359,8.14E-03,1.39E-02
96360,8.14E-03,1.38E-02
96361,8.14E-03,1.38E-02
96362,8.14E-03,1.38E-02
96363,8.14E-03,1.38E-02
96364,8.14E-03,1.37E-02
96365,8.14E-03,1.37E-02
96366,8.15E-03,1.37E-02
96367,8.15E-03,1.37E-02
96368,8.15E-03,1.37E-02
96369,8.15E-03,1.36E-02
96370,8.15E-03,1.36E-02
96371,8.15E-03,1.36E-02
96372,8.15E-03,1.36E-02
96373,8.15E-03,1.36E-02
96374,8.15E-03,1.35E-02
96375,8.16E-03,1.35E-02
96376,8.16E-03,1.35E-02
96377,8.16E-03,1.35E-02
96378,8.16E-03,1.34E-02
96379,8.16E-03,1.34E-02
96380,8.17E-03,1.34E-02
96381,8.17E-03,1.34E-02
96382,8.17E-03,1.34E-02
96383,8.18E-03,1.33E-02
96384,8.18E-03,1.33E-02
96385,8.19E-03,1.33E-02
96386,8.20E-03,1.33E-02
96387,8.20E-03,1.33E-02
96388,8.21E-03,1.32E-02
96389,8.21E-03,1.32E-02
96390,8.22E-03,1.32E-02
96391,8.23E-03,1.32E-02
96392,8.23E-03,1.32E-02
96393,8.24E-03,1.31E-02
96394,8.25E-03,1.31E-02
96395,8.26E-03,1.31E-02
96396,8.27E-03,1.31E-02
96397,8.28E-03,1.31E-02
96398,8.29E-03,1.30E-02
96399,8.31E-03,1.30E-02
96400,8.32E-03,1.30E-02
96401,8.34E-03,1.30E-02
96402,8.36E-03,1.30E-02
96403,8.38E-03,1.29E-02
96404,8.40E-03,1.29E-02
96405,8.43E-03,1.29E-02
96406,8.46E-03,1.29E-02
96407,8.50E-03,1.29E-02
96408,8.54E-03,1.29E-02
96409,8.59E-03,1.28E-02
96410,8.65E-03,1.28E-02
96411,8.78E-03,1.28E-02
96412,8.89E-03,1.28E-02
96413,9.18E-03,1.28E-02
96414,9.27E-03,1.28E-02
96415,9.46E-03,1.28E-02
96416,9.51E-03,1.28E-02
96417,9.61E-03,1.27E-02
96418,9.24E-03,1.27E-02
96419,9.45E-03,1.72E-02
96420,9.84E-03,1.72E-02
96421,9.96E-03,1.72E-02
96422,9.94E-03,1.72E-02
96423,9.89E-03,1.71E-02
96424,9.72E-03,1.71E-02
96425,9.72E-03,1.71E-02
96426,9.23E-03,1.71E-02
96427,8.99E-03,1.71E-02
96428,8.96E-03,1.71E-02
96429,8.94E-03,1.71E-02
96430,8.91E-03,1.71E-02
96431,8.88E-03,1.71E-02
96432,8.85E-03,1.71E-02
96433,8.79E-03,1.71E-02
96434,8.72E-03,1.72E-02
96435,8.66E-03,1.72E-02
96436,8.61E-03,1.72E-02
96437,8.57E-03,1.72E-02
96438,8.53E-03,1.72E-02
96439,8.50E-03,1.72E-02
96440,8.47E-03,1.72E-02
96441,8.44E-03,1.72E-02
96442,8.42E-03,1.73E-02
96443,8.40E-03,1.73E-02
96444,8.38E-03,1.73E-02
96445,8.36E-03,1.73E-02
96446,8.35E-03,1.73E-02
96447,8.33E-03,1.73E-02
96448,8.32E-03,1.73E-02
96449,8.31E-03,1.74E-02
96450,8.30E-03,1.74E-02
96451,8.29E-03,1.74E-02
96452,8.28E-03,1.74E-02
96453,8.27E-03,1.74E-02
96454,8.25E-03,1.74E-02
96455,8.25E-03,1.74E-02
96456,8.24E-03,1.74E-02
96457,8.23E-03,1.74E-02
96458,8.23E-03,1.74E-02
96459,8.22E-03,1.74E-02
96460,8.19E-03,1.75E-02
96461,8.10E-03,1.75E-02
96462,8.02E-03,1.75E-02
96463,8.00E-03,1.75E-02
96464,7.98E-03,1.75E-02
96465,7.95E-03,1.75E-02
96466,7.90E-03,1.75E-02
96467,7.81E-03,1.75E-02
96468,7.69E-03,1.75E-02
96469,7.69E-03,1.75E-02
96470,7.74E-03,1.74E-02
96471,7.71E-03,1.74E-02
96472,7.67E-03,1.74E-02
96473,7.63E-03,1.74E-02
96474,7.58E-03,1.74E-02
96475,7.52E-03,1.74E-02
96476,7.36E-03,1.74E-02
96477,7.22E-03,1.74E-02
96478,7.06E-03,1.74E-02
96479,6.93E-03,1.73E-02
96480,6.83E-03,1.73E-02
96481,6.83E-03,1.73E-02
96482,6.84E-03,1.73E-02
96483,6.70E-03,9.17E-03
96484,7.31E-03,9.14E-03
96485,9.24E-03,9.09E-03
96486,8.74E-03,9.09E-03
96487,9.50E-03,1.68E-02
96488,9.69E-03,1.69E-02
96489,6.51E-03,1.69E-02
96490,7.75E-03,1.64E-02
96491,8.97E-03,1.64E-02
96492,6.19E-03,9.65E-03
96493,7.40E-03,8.82E-03
96494,7.77E-03,8.98E-03
96495,5.97E-03,1.22E-02
96496,8.95E-03,9.77E-03
96497,8.42E-03,9.76E-03
96498,6.89E-03,1.71E-02
96499,6.96E-03,1.71E-02
96500,7.08E-03,1.70E-02
96501,9.67E-03,1.70E-02
96502,9.57E-03,1.70E-02
96503,9.74E-03,1.69E-02
96504,9.42E-03,1.69E-02
96505,9.44E-03,1.68E-02
96506,8.59E-03,1.68E-02
96507,8.41E-03,1.67E-02
96508,8.44E-03,1.67E-02
96509,8.37E-03,1.66E-02
96510,8.03E-03,1.66E-02
96511,7.73E-03,1.66E-02
96512,1.01E-02,1.27E-02
96513,9.57E-03,1.27E-02
96514,9.51E-03,1.27E-02
96515,9.37E-03,1.27E-02
96516,9.23E-03,1.27E-02
96517,9.13E-03,1.27E-02
96518,9.18E-03,1.26E-02
96519,9.33E-03,1.26E-02
96520,9.50E-03,1.26E-02
96521,9.73E-03,1.26E-02
96522,1.01E-02,1.26E-02
96523,1.05E-02,1.26E-02
96524,1.05E-02,1.26E-02
96525,9.64E-03,1.26E-02
96526,6.81E-03,1.26E-02
96527,6.72E-03,1.26E-02
96528,5.56E-03,1.25E-02
96529,5.53E-03,1.25E-02
96530,5.58E-03,1.25E-02
96531,6.05E-03,1.25E-02
96532,6.17E-03,1.25E-02
96533,6.83E-03,1.25E-02
96534,6.94E-03,1.25E-02
96535,6.95E-03,1.25E-02
96536,7.14E-03,1.25E-02
96537,7.28E-03,1.25E-02
96538,7.40E-03,1.25E-02
96539,7.54E-03,1.26E-02
96540,7.60E-03,1.26E-02
96541,7.59E-03,1.26E-02
96542,7.60E-03,1.26E-02
96543,8.23E-03,1.26E-02
96544,9.07E-03,1.26E-02
96545,9.11E-03,1.26E-02
96546,8.82E-03,1.26E-02
96547,8.66E-03,1.27E-02
96548,8.74E-03,1.27E-02
96549,9.10E-03,1.27E-02
96550,9.22E-03,1.27E-02
96551,9.37E-03,1.28E-02
96552,9.58E-03,1.28E-02
96553,9.63E-03,1.28E-02
96554,9.63E-03,1.29E-02
96555,1.00E-02,1.29E-02
96556,1.01E-02,1.30E-02
96557,1.02E-02,1.30E-02
96558,1.00E-02,1.31E-02
96559,7.99E-03,1.31E-02
96560,8.27E-03,1.32E-02
96561,8.42E-03,1.32E-02
96562,7.35E-03,1.93E-02
96563,7.12E-03,1.94E-02
96564,6.78E-03,1.95E-02
96565,8.59E-03,1.60E-02
96566,7.93E-03,1.48E-02
96567,7.80E-03,1.47E-02
96568,7.93E-03,1.65E-02
96569,5.68E-03,1.65E-02
96570,5.66E-03,1.65E-02
96571,8.38E-03,1.48E-02
96572,8.88E-03,9.86E-03
96573,7.52E-03,9.86E-03
96574,1.12E-02,9.94E-03
96575,1.14E-02,9.92E-03
96576,1.06E-02,9.90E-03
96577,9.83E-03,9.88E-03
96578,8.08E-03,9.87E-03
96579,7.87E-03,9.85E-03
96580,7.63E-03,9.83E-03
96581,7.44E-03,9.80E-03
96582,7.31E-03,9.77E-03
96583,8.30E-03,9.84E-03
96584,6.89E-03,9.73E-03
96585,6.43E-03,9.71E-03
96586,6.44E-03,9.70E-03
96587,7.70E-03,9.71E-03
96588,6.02E-03,9.75E-03
96589,6.10E-03,9.75E-03
96590,7.17E-03,9.82E-03
96591,8.80E-03,9.75E-03
96592,7.98E-03,9.76E-03
96593,8.10E-03,1.28E-02
96594,7.39E-03,1.38E-02
96595,9.85E-03,1.37E-02
96596,9.38E-03,1.36E-02
96597,9.68E-03,1.35E-02
96598,6.44E-03,1.66E-02
96599,7.11E-03,1.66E-02
96600,7.60E-03,1.65E-02
96601,7.57E-03,9.85E-03
96602,5.77E-03,9.70E-03
96603,8.97E-03,9.80E-03
96604,9.74E-03,9.82E-03
96605,8.56E-03,9.87E-03
96606,8.20E-03,1.01E-02
96607,8.10E-03,1.00E-02
96608,8.23E-03,1.07E-02
96609,7.37E-03,1.12E-02
96610,7.22E-03,1.11E-02
96611,7.56E-03,1.09E-02
96612,8.11E-03,1.09E-02
96613,5.92E-03,1.68E-02
96614,7.15E-03,1.68E-02
96615,6.64E-03,1.53E-02
96616,7.77E-03,1.53E-02
96617,8.68E-03,1.76E-02
96618,8.10E-03,1.51E-02
96619,8.20E-03,1.49E-02
96620,6.04E-03,1.45E-02
96621,5.37E-03,1.43E-02
96622,7.09E-03,1.66E-02
96623,8.37E-03,1.23E-02
96624,8.59E-03,1.47E-02
96625,8.21E-03,9.71E-03
96626,7.77E-03,1.74E-02
96627,8.42E-03,1.61E-02
96628,7.18E-03,9.77E-03
96629,7.48E-03,9.90E-03
96630,6.16E-03,9.13E-03
96631,8.94E-03,1.76E-02
96632,8.81E-03,1.76E-02
96633,8.47E-03,1.80E-02
96634,7.73E-03,1.89E-02
96635,8.60E-03,1.96E-02
96636,7.65E-03,1.97E-02
96637,7.36E-03,1.96E-02
96638,7.34E-03,1.96E-02
96639,7.42E-03,1.97E-02
96640,7.26E-03,1.97E-02
96641,7.05E-03,1.97E-02
96642,7.09E-03,1.97E-02
96643,7.13E-03,1.97E-02
96644,7.36E-03,1.97E-02
96645,7.47E-03,1.97E-02
96646,7.37E-03,1.97E-02
96647,7.13E-03,1.98E-02
96648,6.68E-03,1.98E-02
96649,6.72E-03,1.99E-02
96650,8.07E-03,1.62E-02
96651,8.17E-03,1.21E-02
96652,7.98E-03,1.20E-02
96653,6.64E-03,1.01E-02
96654,9.49E-03,1.83E-02
96655,8.93E-03,1.82E-02
96656,7.14E-03,1.79E-02
96657,9.16E-03,1.13E-02
96658,8.89E-03,1.13E-02
96659,8.75E-03,1.13E-02
96660,1.00E-02,9.72E-03
96661,7.99E-03,9.77E-03
96662,9.03E-03,1.49E-02
96663,9.45E-03,1.49E-02
96664,8.10E-03,1.50E-02
96665,8.01E-03,1.51E-02
96666,8.56E-03,9.75E-03
96667,8.67E-03,9.74E-03
96668,7.73E-03,9.73E-03
96669,7.94E-03,9.02E-03
96670,8.39E-03,9.95E-03
96671,7.79E-03,9.90E-03
96672,8.69E-03,9.75E-03
96673,8.68E-03,1.18E-02
96674,7.39E-03,9.67E-03
96675,7.30E-03,9.67E-03
96676,8.19E-03,1.40E-02
96677,8.10E-03,1.40E-02
96678,8.38E-03,1.61E-02
96679,8.39E-03,1.61E-02
96680,1.06E-02,1.60E-02
96681,1.01E-02,1.59E-02
96682,9.84E-03,1.58E-02
96683,9.77E-03,1.57E-02
96684,9.49E-03,1.57E-02
96685,9.31E-03,1.56E-02
96686,9.35E-03,1.55E-02
96687,9.42E-03,1.54E-02
96688,9.52E-03,1.53E-02
96689,9.64E-03,1.52E-02
96690,9.73E-03,1.51E-02
96691,9.78E-03,1.50E-02
96692,9.78E-03,1.49E-02
96693,9.78E-03,1.47E-02
96694,9.79E-03,1.46E-02
96695,9.82E-03,1.45E-02
96696,9.85E-03,1.44E-02
96697,9.88E-03,1.42E-02
96698,9.76E-03,1.41E-02
96699,9.57E-03,1.39E-02
96700,9.38E-03,1.38E-02
96701,9.11E-03,1.36E-02
96702,8.90E-03,1.35E-02
96703,8.66E-03,1.33E-02
96704,6.77E-03,1.74E-02
96705,8.98E-03,1.98E-02
96706,9.04E-03,1.99E-02
96707,9.03E-03,1.75E-02
96708,8.91E-03,1.54E-02
96709,7.79E-03,1.67E-02
96710,6.91E-03,9.73E-03
96711,8.38E-03,9.74E-03
96712,8.10E-03,1.23E-02
96713,7.28E-03,1.40E-02
96714,6.27E-03,1.68E-02
96715,5.34E-03,1.67E-02
96716,7.51E-03,9.69E-03
96717,4.72E-03,9.53E-03
96718,8.27E-03,9.87E-03
96719,8.33E-03,9.68E-03
96720,7.56E-03,1.04E-02
96721,7.84E-03,1.50E-02
96722,6.78E-03,1.50E-02
96723,7.98E-03,1.49E-02
96724,5.93E-03,1.21E-02
96725,6.91E-03,1.22E-02
96726,9.08E-03,9.65E-03
96727,9.10E-03,1.75E-02
96728,7.98E-03,1.73E-02
96729,8.02E-03,1.71E-02
96730,6.79E-03,9.16E-03
96731,6.29E-03,9.02E-03
96732,8.45E-03,1.84E-02
96733,7.51E-03,1.00E-02
96734,7.90E-03,9.64E-03
96735,8.34E-03,9.54E-03
96736,9.28E-03,2.01E-02
96737,9.28E-03,9.85E-03
96738,9.79E-03,1.14E-02
96739,8.28E-03,1.63E-02
96740,8.86E-03,9.55E-03
96741,8.28E-03,9.53E-03
96742,7.60E-03,9.63E-03
96743,7.38E-03,9.68E-03
96744,8.37E-03,9.35E-03
96745,7.27E-03,1.00E-02
96746,6.46E-03,1.75E-02
96747,7.75E-03,1.73E-02
96748,6.77E-03,1.64E-02
96749,6.45E-03,1.64E-02
96750,8.24E-03,1.20E-02
96751,5.83E-03,1.20E-02
96752,6.22E-03,1.21E-02
96753,7.78E-03,8.94E-03
96754,6.57E-03,8.86E-03
96755,6.90E-03,8.72E-03
96756,9.29E-03,9.93E-03
96757,7.80E-03,9.53E-03
96758,7.80E-03,9.52E-03
96759,7.89E-03,9.50E-03
96760,1.11E-02,1.68E-02
96761,1.01E-02,1.68E-02
96762,6.82E-03,8.76E-03
96763,7.72E-03,1.64E-02
96764,8.11E-03,1.64E-02
96765,7.14E-03,9.59E-03
96766,7.19E-03,9.57E-03
96767,8.55E-03,9.02E-03
96768,6.72E-03,9.69E-03
96769,6.18E-03,9.34E-03
96770,5.47E-03,1.69E-02
96771,6.66E-03,1.69E-02
96772,6.11E-03,1.66E-02
96773,9.58E-03,1.79E-02
96774,9.74E-03,1.48E-02
96775,1.12E-02,9.83E-03
96776,1.13E-02,9.81E-03
96777,1.06E-02,9.79E-03
96778,9.79E-03,9.78E-03
96779,8.11E-03,9.76E-03
96780,7.90E-03,9.74E-03
96781,7.57E-03,9.72E-03
96782,7.13E-03,9.67E-03
96783,7.23E-03,9.70E-03
96784,6.24E-03,9.71E-03
96785,6.40E-03,9.69E-03
96786,6.56E-03,9.68E-03
96787,6.95E-03,9.68E-03
96788,7.11E-03,9.68E-03
96789,7.40E-03,9.68E-03
96790,7.54E-03,9.68E-03
96791,7.57E-03,9.68E-03
96792,7.51E-03,9.68E-03
96793,7.16E-03,9.68E-03
96794,6.44E-03,9.69E-03
96795,6.22E-03,9.69E-03
96796,5.88E-03,9.69E-03
96797,5.80E-03,9.69E-03
96798,6.32E-03,9.70E-03
96799,7.69E-03,9.72E-03
96800,1.00E-02,9.72E-03
96801,8.82E-03,9.73E-03
96802,1.07E-02,9.73E-03
96803,9.99E-03,9.73E-03
96804,7.48E-03,9.73E-03
96805,7.18E-03,9.73E-03
96806,6.55E-03,9.73E-03
96807,5.56E-03,9.73E-03
96808,4.81E-03,9.74E-03
96809,4.45E-03,9.75E-03
96810,4.48E-03,9.74E-03
96811,6.55E-03,9.82E-03
96812,7.99E-03,9.78E-03
96813,7.85E-03,9.77E-03
96814,8.24E-03,9.77E-03
96815,8.41E-03,9.77E-03
96816,6.60E-03,9.78E-03
96817,5.75E-03,9.77E-03
96818,5.74E-03,9.77E-03
96819,5.58E-03,9.77E-03
96820,9.81E-03,1.29E-02
96821,9.02E-03,1.30E-02
96822,8.39E-03,1.31E-02
96823,8.29E-03,1.32E-02
96824,8.24E-03,1.34E-02
96825,7.49E-03,1.65E-02
96826,7.26E-03,1.69E-02
96827,6.56E-03,1.69E-02
96828,6.86E-03,9.84E-03
96829,1.06E-02,9.84E-03
96830,1.07E-02,9.84E-03
96831,1.08E-02,9.83E-03
96832,1.08E-02,9.83E-03
96833,1.04E-02,9.82E-03
96834,1.02E-02,9.81E-03
96835,9.98E-03,9.80E-03
96836,9.89E-03,9.79E-03
96837,9.50E-03,9.78E-03
96838,8.81E-03,9.76E-03
96839,8.54E-03,9.75E-03
96840,7.33E-03,9.74E-03
96841,7.13E-03,9.73E-03
96842,7.13E-03,9.72E-03
96843,6.75E-03,9.71E-03
96844,6.70E-03,9.70E-03
96845,6.51E-03,9.69E-03
96846,6.26E-03,9.69E-03
96847,5.94E-03,9.68E-03
96848,5.59E-03,9.67E-03
96849,5.18E-03,9.67E-03
96850,4.79E-03,9.67E-03
96851,4.45E-03,9.67E-03
96852,4.12E-03,9.67E-03
96853,4.19E-03,9.67E-03
96854,4.32E-03,9.67E-03
96855,4.49E-03,9.68E-03
96856,4.68E-03,9.69E-03
96857,5.03E-03,9.69E-03
96858,5.00E-03,9.71E-03
96859,8.59E-03,9.86E-03
96860,1.11E-02,1.01E-02
96861,8.30E-03,1.08E-02
96862,8.42E-03,1.09E-02
96863,7.19E-03,1.67E-02
96864,8.76E-03,1.54E-02
96865,8.84E-03,1.55E-02
96866,1.10E-02,1.56E-02
96867,1.07E-02,1.57E-02
96868,1.04E-02,1.58E-02
96869,1.01E-02,1.59E-02
96870,9.79E-03,1.60E-02
96871,9.52E-03,1.61E-02
96872,9.20E-03,1.61E-02
96873,8.87E-03,1.62E-02
96874,8.70E-03,1.63E-02
96875,8.51E-03,1.64E-02
96876,8.44E-03,1.64E-02
96877,8.33E-03,1.65E-02
96878,8.26E-03,1.66E-02
96879,7.46E-03,1.67E-02
96880,9.83E-03,1.76E-02
96881,8.10E-03,1.50E-02
96882,6.55E-03,1.42E-02
96883,7.03E-03,1.41E-02
96884,7.14E-03,1.65E-02
96885,9.71E-03,1.24E-02
96886,9.95E-03,1.25E-02
96887,1.09E-02,1.26E-02
96888,1.11E-02,1.26E-02
96889,1.09E-02,1.27E-02
96890,1.05E-02,1.28E-02
96891,1.03E-02,1.29E-02
96892,9.87E-03,1.30E-02
96893,9.71E-03,1.31E-02
96894,9.27E-03,1.31E-02
96895,9.09E-03,1.32E-02
96896,8.95E-03,1.33E-02
96897,8.83E-03,1.34E-02
96898,8.66E-03,1.34E-02
96899,8.57E-03,1.35E-02
96900,8.68E-03,1.36E-02
96901,8.94E-03,1.37E-02
96902,9.11E-03,1.37E-02
96903,8.47E-03,1.38E-02
96904,7.79E-03,1.39E-02
96905,7.75E-03,1.39E-02
96906,7.75E-03,1.40E-02
96907,7.75E-03,1.41E-02
96908,7.72E-03,1.42E-02
96909,7.66E-03,1.42E-02
96910,7.57E-03,1.43E-02
96911,7.53E-03,1.44E-02
96912,7.60E-03,1.44E-02
96913,7.87E-03,1.45E-02
96914,8.64E-03,1.46E-02
96915,7.68E-03,9.68E-03
96916,7.77E-03,1.73E-02
96917,7.71E-03,1.72E-02
96918,7.70E-03,1.71E-02
96919,7.73E-03,1.70E-02
96920,7.81E-03,1.69E-02
96921,7.92E-03,1.67E-02
96922,8.04E-03,1.66E-02
96923,8.09E-03,1.65E-02
96924,8.13E-03,1.64E-02
96925,8.22E-03,1.63E-02
96926,8.19E-03,1.62E-02
96927,7.68E-03,9.78E-03
96928,8.26E-03,9.77E-03
96929,1.10E-02,9.77E-03
96930,1.06E-02,9.77E-03
96931,9.62E-03,9.78E-03
96932,7.91E-03,9.77E-03
96933,6.64E-03,9.77E-03
96934,6.23E-03,9.77E-03
96935,5.98E-03,9.76E-03
96936,5.66E-03,9.76E-03
96937,5.27E-03,9.76E-03
96938,4.75E-03,9.77E-03
96939,4.02E-03,9.77E-03
96940,4.60E-03,9.77E-03
96941,5.42E-03,9.78E-03
96942,5.48E-03,9.79E-03
96943,5.74E-03,9.80E-03
96944,5.72E-03,9.81E-03
96945,5.96E-03,9.82E-03
96946,7.96E-03,9.82E-03
96947,7.69E-03,9.83E-03
96948,8.85E-03,9.97E-03
96949,8.90E-03,1.00E-02
96950,8.72E-03,1.00E-02
96951,8.47E-03,1.00E-02
96952,8.39E-03,1.00E-02
96953,8.31E-03,1.00E-02
96954,8.35E-03,1.00E-02
96955,8.43E-03,1.00E-02
96956,9.92E-03,1.00E-02
96957,1.11E-02,1.01E-02
96958,1.08E-02,1.01E-02
96959,1.04E-02,1.01E-02
96960,1.02E-02,1.01E-02
96961,1.03E-02,1.01E-02
96962,1.04E-02,1.01E-02
96963,1.05E-02,1.01E-02
96964,1.11E-02,1.00E-02
96965,1.09E-02,1.00E-02
96966,1.09E-02,1.00E-02
96967,1.07E-02,1.00E-02
96968,1.04E-02,9.98E-03
96969,1.03E-02,9.95E-03
96970,9.92E-03,9.93E-03
96971,9.75E-03,9.90E-03
96972,9.39E-03,9.87E-03
96973,9.07E-03,9.84E-03
96974,8.75E-03,9.80E-03
96975,8.61E-03,9.77E-03
96976,8.52E-03,9.74E-03
96977,8.45E-03,9.71E-03
96978,8.39E-03,9.68E-03
96979,8.35E-03,9.65E-03
96980,8.19E-03,9.62E-03
96981,7.83E-03,9.58E-03
96982,7.59E-03,9.55E-03
96983,7.55E-03,9.52E-03
96984,7.51E-03,9.49E-03
96985,7.47E-03,9.47E-03
96986,7.42E-03,9.44E-03
96987,7.36E-03,9.41E-03
96988,7.30E-03,9.39E-03
96989,7.22E-03,9.36E-03
96990,7.14E-03,9.34E-03
96991,7.03E-03,9.31E-03
96992,6.91E-03,9.29E-03
96993,6.76E-03,9.27E-03
96994,6.57E-03,9.25E-03
96995,6.30E-03,9.23E-03
96996,6.24E-03,9.21E-03
96997,6.51E-03,9.20E-03
96998,6.77E-03,9.19E-03
96999,6.78E-03,9.17E-03
97000,6.63E-03,9.16E-03
97001,6.46E-03,9.15E-03
97002,6.18E-03,9.14E-03
97003,5.71E-03,9.13E-03
97004,5.61E-03,9.12E-03
97005,6.09E-03,9.11E-03
97006,6.01E-03,9.11E-03
97007,6.02E-03,9.12E-03
97008,8.86E-03,1.77E-02
97009,9.00E-03,1.77E-02
97010,1.01E-02,1.78E-02
97011,9.22E-03,1.79E-02
97012,7.37E-03,1.90E-02
97013,7.09E-03,1.91E-02
97014,5.36E-03,1.92E-02
97015,8.12E-03,1.40E-02
97016,8.13E-03,1.41E-02
97017,8.13E-03,1.41E-02
97018,8.13E-03,1.41E-02
97019,8.13E-03,1.41E-02
97020,8.13E-03,1.42E-02
97021,8.14E-03,1.42E-02
97022,8.15E-03,1.42E-02
97023,8.16E-03,1.42E-02
97024,8.16E-03,1.42E-02
97025,8.16E-03,1.43E-02
97026,8.17E-03,1.43E-02
97027,8.17E-03,1.43E-02
97028,8.17E-03,1.43E-02
97029,8.18E-03,1.43E-02
97030,8.18E-03,1.44E-02
97031,8.19E-03,1.44E-02
97032,8.19E-03,1.44E-02
97033,8.20E-03,1.44E-02
97034,8.21E-03,1.45E-02
97035,8.21E-03,1.45E-02
97036,8.22E-03,1.45E-02
97037,8.23E-03,1.45E-02
97038,8.24E-03,1.45E-02
97039,8.25E-03,1.46E-02
97040,8.27E-03,1.46E-02
97041,8.28E-03,1.46E-02
97042,8.30E-03,1.46E-02
97043,8.32E-03,1.47E-02
97044,8.34E-03,1.47E-02
97045,8.36E-03,1.47E-02
97046,8.41E-03,1.47E-02
97047,8.46E-03,1.48E-02
97048,8.50E-03,1.48E-02
97049,8.55E-03,1.48E-02
97050,8.62E-03,1.48E-02
97051,8.70E-03,1.49E-02
97052,8.81E-03,1.49E-02
97053,8.95E-03,1.49E-02
97054,9.15E-03,1.50E-02
97055,9.43E-03,1.50E-02
97056,9.87E-03,1.50E-02
97057,1.06E-02,1.51E-02
97058,1.04E-02,1.51E-02
97059,7.73E-03,1.51E-02
97060,6.02E-03,1.52E-02
97061,6.51E-03,1.52E-02
97062,6.84E-03,1.52E-02
97063,7.07E-03,1.52E-02
97064,7.23E-03,1.53E-02
97065,7.35E-03,1.53E-02
97066,7.45E-03,1.53E-02
97067,7.53E-03,1.53E-02
97068,7.59E-03,1.54E-02
97069,7.64E-03,1.54E-02
97070,7.69E-03,1.54E-02
97071,7.72E-03,1.54E-02
97072,7.75E-03,1.55E-02
97073,7.78E-03,1.55E-02
97074,7.80E-03,1.55E-02
97075,7.82E-03,1.55E-02
97076,7.84E-03,1.56E-02
97077,7.86E-03,1.56E-02
97078,7.87E-03,1.56E-02
97079,7.89E-03,1.56E-02
97080,7.90E-03,1.56E-02
97081,7.91E-03,1.57E-02
97082,7.92E-03,1.57E-02
97083,7.93E-03,1.57E-02
97084,7.93E-03,1.57E-02
97085,7.93E-03,1.57E-02
97086,7.91E-03,1.57E-02
97087,7.93E-03,1.58E-02
97088,7.96E-03,1.58E-02
97089,7.98E-03,1.58E-02
97090,7.99E-03,1.58E-02
97091,8.01E-03,1.58E-02
97092,8.02E-03,1.58E-02
97093,8.02E-03,1.59E-02
97094,8.03E-03,1.59E-02
97095,8.04E-03,1.59E-02
97096,8.09E-03,1.59E-02
97097,8.18E-03,1.59E-02
97098,8.22E-03,1.59E-02
97099,8.23E-03,1.59E-02
97100,8.24E-03,1.59E-02
97101,8.25E-03,1.59E-02
97102,8.26E-03,1.60E-02
97103,8.27E-03,1.60E-02
97104,8.28E-03,1.60E-02
97105,8.30E-03,1.60E-02
97106,8.32E-03,1.60E-02
97107,8.33E-03,1.60E-02
97108,8.36E-03,1.60E-02
97109,8.38E-03,1.60E-02
97110,8.41E-03,1.60E-02
97111,8.45E-03,1.61E-02
97112,8.49E-03,1.61E-02
97113,8.54E-03,1.61E-02
97114,8.60E-03,1.61E-02
97115,8.88E-03,1.61E-02
97116,8.91E-03,1.61E-02
97117,8.86E-03,1.62E-02
97118,8.76E-03,1.62E-02
97119,7.93E-03,1.20E-02
97120,6.58E-03,1.19E-02
97121,6.72E-03,1.19E-02
97122,6.86E-03,1.18E-02
97123,7.15E-03,1.18E-02
97124,7.30E-03,1.17E-02
97125,7.42E-03,1.17E-02
97126,7.51E-03,1.16E-02
97127,7.58E-03,1.16E-02
97128,7.64E-03,1.15E-02
97129,7.68E-03,1.14E-02
97130,7.72E-03,1.14E-02
97131,7.76E-03,1.13E-02
97132,7.79E-03,1.13E-02
97133,7.82E-03,1.12E-02
97134,7.88E-03,1.12E-02
97135,7.92E-03,1.11E-02
97136,7.92E-03,1.11E-02
97137,7.92E-03,1.10E-02
97138,7.91E-03,1.10E-02
97139,7.90E-03,1.09E-02
97140,7.89E-03,1.09E-02
97141,7.89E-03,1.09E-02
97142,7.88E-03,1.08E-02
97143,7.87E-03,1.08E-02
97144,7.86E-03,1.07E-02
97145,7.85E-03,1.07E-02
97146,7.84E-03,1.06E-02
97147,7.83E-03,1.06E-02
97148,7.81E-03,1.05E-02
97149,7.80E-03,1.05E-02
97150,7.79E-03,1.05E-02
97151,7.77E-03,1.04E-02
97152,7.75E-03,1.04E-02
97153,7.63E-03,1.03E-02
97154,7.55E-03,1.03E-02
97155,7.44E-03,1.02E-02
97156,6.96E-03,1.02E-02
97157,5.54E-03,1.02E-02
97158,3.98E-03,1.01E-02
97159,5.97E-03,1.01E-02
97160,6.65E-03,1.77E-02
97161,8.83E-03,1.13E-02
97162,9.29E-03,1.13E-02
97163,9.72E-03,9.72E-03
97164,9.50E-03,9.72E-03
97165,7.69E-03,9.71E-03
97166,7.54E-03,9.71E-03
97167,8.05E-03,9.75E-03
97168,8.13E-03,9.73E-03
97169,7.81E-03,9.72E-03
97170,7.82E-03,9.71E-03
97171,9.17E-03,1.96E-02
97172,9.42E-03,1.95E-02
97173,1.12E-02,1.94E-02
97174,1.10E-02,1.94E-02
97175,1.07E-02,1.93E-02
97176,1.07E-02,1.92E-02
97177,1.05E-02,1.91E-02
97178,1.02E-02,1.91E-02
97179,1.01E-02,1.90E-02
97180,9.95E-03,1.90E-02
97181,9.79E-03,1.89E-02
97182,9.56E-03,1.89E-02
97183,9.52E-03,1.89E-02
97184,9.26E-03,1.89E-02
97185,9.15E-03,1.88E-02
97186,9.06E-03,1.88E-02
97187,8.97E-03,1.88E-02
97188,8.90E-03,1.88E-02
97189,8.83E-03,1.88E-02
97190,8.78E-03,1.88E-02
97191,8.73E-03,1.88E-02
97192,8.68E-03,1.88E-02
97193,8.64E-03,1.88E-02
97194,8.61E-03,1.88E-02
97195,8.58E-03,1.88E-02
97196,8.55E-03,1.89E-02
97197,8.52E-03,1.89E-02
97198,8.51E-03,1.89E-02
97199,8.48E-03,1.89E-02
97200,8.40E-03,1.89E-02
97201,8.28E-03,1.89E-02
97202,8.19E-03,1.89E-02
97203,8.17E-03,1.89E-02
97204,8.17E-03,1.89E-02
97205,8.16E-03,1.90E-02
97206,7.87E-03,1.90E-02
97207,7.19E-03,1.90E-02
97208,6.80E-03,1.90E-02
97209,6.76E-03,1.90E-02
97210,6.63E-03,1.90E-02
97211,6.58E-03,1.90E-02
97212,6.13E-03,1.90E-02
97213,6.06E-03,1.90E-02
97214,5.81E-03,1.89E-02
97215,5.78E-03,1.89E-02
97216,5.77E-03,1.89E-02
97217,5.79E-03,1.89E-02
97218,5.75E-03,1.89E-02
97219,4.72E-03,1.88E-02
97220,4.84E-03,1.88E-02
97221,4.95E-03,1.87E-02
97222,5.06E-03,1.87E-02
97223,6.10E-03,1.86E-02
97224,6.26E-03,1.86E-02
97225,6.51E-03,1.85E-02
97226,7.71E-03,1.85E-02
97227,7.68E-03,1.84E-02
97228,8.37E-03,1.84E-02
97229,8.60E-03,1.83E-02
97230,8.97E-03,1.48E-02
97231,7.74E-03,1.47E-02
97232,7.45E-03,1.47E-02
97233,9.04E-03,9.64E-03
97234,8.12E-03,9.61E-03
97235,5.80E-03,1.51E-02
97236,8.26E-03,9.64E-03
97237,7.13E-03,9.63E-03
97238,8.66E-03,8.90E-03
97239,7.83E-03,8.87E-03
97240,5.92E-03,9.72E-03
97241,6.84E-03,9.60E-03
97242,5.98E-03,1.19E-02
97243,7.87E-03,9.65E-03
97244,8.20E-03,9.65E-03
97245,8.12E-03,1.40E-02
97246,8.14E-03,1.40E-02
97247,8.14E-03,1.39E-02
97248,8.14E-03,1.39E-02
97249,8.14E-03,1.39E-02
97250,8.14E-03,1.39E-02
97251,8.14E-03,1.38E-02
97252,8.14E-03,1.38E-02
97253,8.14E-03,1.38E-02
97254,8.14E-03,1.38E-02
97255,8.14E-03,1.38E-02
97256,8.14E-03,1.37E-02
97257,8.15E-03,1.37E-02
97258,8.15E-03,1.37E-02
97259,8.15E-03,1.37E-02
97260,8.15E-03,1.36E-02
97261,8.15E-03,1.36E-02
97262,8.15E-03,1.36E-02
97263,8.15E-03,1.36E-02
97264,8.15E-03,1.35E-02
97265,8.16E-03,1.35E-02
97266,8.16E-03,1.35E-02
97267,8.16E-03,1.35E-02
97268,8.16E-03,1.35E-02
97269,8.16E-03,1.34E-02
97270,8.17E-03,1.34E-02
97271,8.17E-03,1.34E-02
97272,8.18E-03,1.34E-02
97273,8.18E-03,1.33E-02
97274,8.19E-03,1.33E-02
97275,8.19E-03,1.33E-02
97276,8.20E-03,1.33E-02
97277,8.21E-03,1.32E-02
97278,8.21E-03,1.32E-02
97279,8.22E-03,1.32E-02
97280,8.22E-03,1.32E-02
97281,8.23E-03,1.32E-02
97282,8.24E-03,1.31E-02
97283,8.24E-03,1.31E-02
97284,8.25E-03,1.31E-02
97285,8.26E-03,1.31E-02
97286,8.27E-03,1.30E-02
97287,8.29E-03,1.30E-02
97288,8.30E-03,1.30E-02
97289,8.31E-03,1.30E-02
97290,8.33E-03,1.30E-02
97291,8.35E-03,1.29E-02
97292,8.37E-03,1.29E-02
97293,8.39E-03,1.29E-02
97294,8.42E-03,1.29E-02
97295,8.45E-03,1.29E-02
97296,8.49E-03,1.28E-02
97297,8.53E-03,1.28E-02
97298,8.58E-03,1.28E-02
97299,8.64E-03,1.28E-02
97300,8.75E-03,1.28E-02
97301,8.87E-03,1.28E-02
97302,9.10E-03,1.27E-02
97303,9.22E-03,1.27E-02
97304,9.47E-03,1.27E-02
97305,9.57E-03,1.27E-02
97306,9.73E-03,1.27E-02
97307,9.75E-03,1.27E-02
97308,1.12E-02,1.27E-02
97309,1.14E-02,1.27E-02
97310,1.01E-02,1.26E-02
97311,9.69E-03,1.26E-02
97312,9.36E-03,1.26E-02
97313,9.22E-03,1.26E-02
97314,9.14E-03,1.26E-02
97315,9.16E-03,1.26E-02
97316,9.30E-03,1.26E-02
97317,9.47E-03,1.25E-02
97318,9.69E-03,1.25E-02
97319,1.01E-02,1.25E-02
97320,1.05E-02,1.25E-02
97321,1.05E-02,1.25E-02
97322,9.30E-03,1.25E-02
97323,7.26E-03,1.25E-02
97324,6.74E-03,1.25E-02
97325,5.64E-03,1.24E-02
97326,5.65E-03,1.24E-02
97327,5.66E-03,1.24E-02
97328,6.16E-03,1.24E-02
97329,6.26E-03,1.24E-02
97330,6.78E-03,1.24E-02
97331,6.87E-03,1.24E-02
97332,7.05E-03,1.24E-02
97333,7.13E-03,1.24E-02
97334,7.30E-03,1.24E-02
97335,7.42E-03,1.24E-02
97336,7.55E-03,1.24E-02
97337,7.61E-03,1.24E-02
97338,7.61E-03,1.24E-02
97339,7.61E-03,1.24E-02
97340,8.22E-03,1.25E-02
97341,9.04E-03,1.25E-02
97342,9.08E-03,1.25E-02
97343,8.80E-03,1.25E-02
97344,8.65E-03,1.25E-02
97345,8.73E-03,1.25E-02
97346,9.10E-03,1.26E-02
97347,9.14E-03,1.26E-02
97348,9.34E-03,1.26E-02
97349,9.52E-03,1.27E-02
97350,9.57E-03,1.27E-02
97351,9.62E-03,1.27E-02
97352,1.00E-02,1.28E-02
97353,1.01E-02,1.28E-02
97354,1.03E-02,1.29E-02
97355,1.01E-02,1.29E-02
97356,7.91E-03,1.30E-02
97357,8.11E-03,1.30E-02
97358,8.28E-03,1.31E-02
97359,8.50E-03,1.31E-02
97360,6.94E-03,1.73E-02
97361,7.12E-03,1.73E-02
97362,7.34E-03,1.73E-02
97363,9.34E-03,1.72E-02
97364,9.53E-03,1.72E-02
97365,9.68E-03,1.71E-02
97366,9.47E-03,1.71E-02
97367,9.41E-03,1.70E-02
97368,8.42E-03,1.70E-02
97369,8.29E-03,1.69E-02
97370,8.17E-03,1.69E-02
97371,7.92E-03,1.68E-02
97372,7.14E-03,1.68E-02
97373,6.03E-03,1.68E-02
97374,8.72E-03,2.02E-02
97375,9.45E-03,1.75E-02
97376,9.69E-03,1.75E-02
97377,9.83E-03,1.75E-02
97378,9.96E-03,1.74E-02
97379,9.88E-03,1.74E-02
97380,9.75E-03,1.74E-02
97381,9.62E-03,1.74E-02
97382,9.20E-03,1.74E-02
97383,8.96E-03,1.74E-02
97384,8.94E-03,1.74E-02
97385,8.92E-03,1.74E-02
97386,8.89E-03,1.74E-02
97387,8.86E-03,1.74E-02
97388,8.83E-03,1.74E-02
97389,8.78E-03,1.74E-02
97390,8.71E-03,1.74E-02
97391,8.65E-03,1.74E-02
97392,8.60E-03,1.74E-02
97393,8.56E-03,1.75E-02
97394,8.52E-03,1.75E-02
97395,8.49E-03,1.75E-02
97396,8.46E-03,1.75E-02
97397,8.43E-03,1.75E-02
97398,8.41E-03,1.75E-02
97399,8.39E-03,1.75E-02
97400,8.37E-03,1.76E-02
97401,8.36E-03,1.76E-02
97402,8.34E-03,1.76E-02
97403,8.33E-03,1.76E-02
97404,8.31E-03,1.76E-02
97405,8.30E-03,1.76E-02
97406,8.29E-03,1.76E-02
97407,8.28E-03,1.76E-02
97408,8.27E-03,1.76E-02
97409,8.26E-03,1.77E-02
97410,8.25E-03,1.77E-02
97411,8.24E-03,1.77E-02
97412,8.23E-03,1.77E-02
97413,8.23E-03,1.77E-02
97414,8.22E-03,1.77E-02
97415,8.22E-03,1.77E-02
97416,8.19E-03,1.77E-02
97417,8.10E-03,1.77E-02
97418,8.02E-03,1.77E-02
97419,8.00E-03,1.77E-02
97420,7.98E-03,1.77E-02
97421,7.95E-03,1.77E-02
97422,7.91E-03,1.77E-02
97423,7.82E-03,1.77E-02
97424,7.70E-03,1.77E-02
97425,7.70E-03,1.77E-02
97426,7.75E-03,1.77E-02
97427,7.72E-03,1.77E-02
97428,7.68E-03,1.77E-02
97429,7.64E-03,1.77E-02
97430,7.59E-03,1.76E-02
97431,7.53E-03,1.76E-02
97432,7.37E-03,1.76E-02
97433,7.24E-03,1.76E-02
97434,7.09E-03,1.76E-02
97435,6.95E-03,1.76E-02
97436,6.89E-03,1.75E-02
97437,6.87E-03,1.75E-02
97438,6.76E-03,1.75E-02
97439,8.56E-03,1.56E-02
97440,7.60E-03,1.67E-02
97441,7.54E-03,1.67E-02
97442,6.86E-03,1.67E-02
97443,8.39E-03,9.76E-03
97444,7.23E-03,9.72E-03
97445,8.30E-03,9.73E-03
97446,6.44E-03,9.59E-03
97447,6.43E-03,9.58E-03
97448,7.97E-03,9.59E-03
97449,5.03E-03,9.61E-03
97450,5.91E-03,9.63E-03
97451,7.25E-03,9.69E-03
97452,7.17E-03,9.60E-03
97453,7.28E-03,9.62E-03
97454,8.10E-03,1.24E-02
97455,8.44E-03,1.33E-02
97456,8.87E-03,1.33E-02
97457,9.14E-03,1.32E-02
97458,6.82E-03,1.67E-02
97459,7.55E-03,1.66E-02
97460,7.65E-03,1.65E-02
97461,9.11E-03,1.69E-02
97462,7.43E-03,9.69E-03
97463,6.03E-03,9.51E-03
97464,8.25E-03,9.76E-03
97465,8.50E-03,9.82E-03
97466,8.31E-03,9.73E-03
97467,8.31E-03,1.04E-02
97468,6.77E-03,1.68E-02
97469,7.34E-03,1.53E-02
97470,7.84E-03,1.48E-02
97471,8.36E-03,1.44E-02
97472,7.31E-03,1.41E-02
97473,7.10E-03,1.36E-02
97474,7.23E-03,1.37E-02
97475,6.73E-03,1.68E-02
97476,8.39E-03,1.23E-02
97477,8.96E-03,9.60E-03
97478,8.02E-03,1.70E-02
97479,8.40E-03,1.57E-02
97480,7.19E-03,9.59E-03
97481,9.14E-03,9.70E-03
97482,7.43E-03,9.73E-03
97483,6.04E-03,8.96E-03
97484,5.83E-03,8.83E-03
97485,8.72E-03,1.79E-02
97486,8.66E-03,1.79E-02
97487,7.91E-03,1.85E-02
97488,8.24E-03,1.96E-02
97489,9.63E-03,1.64E-02
97490,7.89E-03,1.19E-02
97491,7.01E-03,1.00E-02
97492,8.14E-03,1.78E-02
97493,7.86E-03,1.77E-02
97494,7.09E-03,1.75E-02
97495,8.95E-03,1.78E-02
97496,9.65E-03,9.57E-03
97497,8.00E-03,9.62E-03
97498,8.73E-03,2.01E-02
97499,7.45E-03,1.46E-02
97500,6.78E-03,1.76E-02
97501,6.75E-03,1.68E-02
97502,1.09E-02,9.57E-03
97503,9.45E-03,1.85E-02
97504,8.34E-03,9.46E-03
97505,7.89E-03,9.41E-03
97506,9.67E-03,2.03E-02
97507,9.09E-03,2.03E-02
97508,7.49E-03,9.73E-03
97509,9.91E-03,1.15E-02
97510,7.85E-03,9.56E-03
97511,7.73E-03,9.55E-03
97512,8.19E-03,1.41E-02
97513,8.10E-03,1.41E-02
97514,8.27E-03,1.62E-02
97515,8.28E-03,1.61E-02
97516,1.05E-02,1.60E-02
97517,9.96E-03,1.60E-02
97518,9.87E-03,1.59E-02
97519,9.80E-03,1.58E-02
97520,9.42E-03,1.57E-02
97521,9.34E-03,1.56E-02
97522,9.32E-03,1.55E-02
97523,9.39E-03,1.54E-02
97524,9.49E-03,1.53E-02
97525,9.60E-03,1.52E-02
97526,9.69E-03,1.51E-02
97527,9.73E-03,1.50E-02
97528,9.74E-03,1.49E-02
97529,9.74E-03,1.48E-02
97530,9.75E-03,1.47E-02
97531,9.78E-03,1.46E-02
97532,9.81E-03,1.44E-02
97533,9.84E-03,1.43E-02
97534,9.73E-03,1.41E-02
97535,9.61E-03,1.40E-02
97536,9.39E-03,1.39E-02
97537,9.26E-03,1.37E-02
97538,9.08E-03,1.35E-02
97539,9.04E-03,1.34E-02
97540,8.67E-03,1.32E-02
97541,8.47E-03,2.00E-02
97542,7.63E-03,2.00E-02
97543,7.37E-03,2.00E-02
97544,7.29E-03,2.01E-02
97545,7.30E-03,2.01E-02
97546,7.21E-03,2.01E-02
97547,7.23E-03,2.01E-02
97548,7.28E-03,2.01E-02
97549,7.29E-03,2.01E-02
97550,7.35E-03,2.02E-02
97551,7.39E-03,2.02E-02
97552,7.38E-03,2.02E-02
97553,7.46E-03,2.02E-02
97554,7.41E-03,2.02E-02
97555,6.62E-03,2.03E-02
97556,6.02E-03,2.02E-02
97557,6.16E-03,2.02E-02
97558,7.98E-03,2.01E-02
97559,4.89E-03,1.97E-02
97560,4.96E-03,1.96E-02
97561,4.65E-03,1.93E-02
97562,6.47E-03,1.96E-02
97563,7.24E-03,2.01E-02
97564,6.71E-03,2.01E-02
97565,7.36E-03,2.00E-02
97566,8.00E-03,1.09E-02
97567,6.05E-03,1.08E-02
97568,6.93E-03,1.07E-02
97569,8.91E-03,1.50E-02
97570,8.21E-03,9.64E-03
97571,8.21E-03,9.64E-03
97572,7.12E-03,9.63E-03
97573,6.75E-03,9.57E-03
97574,7.75E-03,9.50E-03
97575,8.10E-03,1.20E-02
97576,6.41E-03,1.68E-02
97577,7.49E-03,9.53E-03
97578,8.04E-03,9.66E-03
97579,6.76E-03,9.72E-03
97580,6.29E-03,9.66E-03
97581,9.51E-03,9.56E-03
97582,8.38E-03,9.40E-03
97583,7.75E-03,1.01E-02
97584,7.42E-03,1.73E-02
97585,5.58E-03,1.72E-02
97586,7.57E-03,1.45E-02
97587,4.86E-03,1.46E-02
97588,6.48E-03,1.46E-02
97589,8.01E-03,1.46E-02
97590,8.10E-03,1.44E-02
97591,7.51E-03,1.65E-02
97592,8.01E-03,1.66E-02
97593,7.53E-03,1.21E-02
97594,8.42E-03,1.71E-02
97595,8.52E-03,1.69E-02
97596,8.43E-03,1.68E-02
97597,5.79E-03,9.52E-03
97598,8.83E-03,8.89E-03
97599,7.26E-03,8.77E-03
97600,8.27E-03,1.80E-02
97601,9.13E-03,1.94E-02
97602,9.10E-03,8.79E-03
97603,6.27E-03,8.83E-03
97604,7.31E-03,8.64E-03
97605,7.40E-03,9.95E-03
97606,7.91E-03,9.49E-03
97607,7.96E-03,2.03E-02
97608,6.39E-03,1.71E-02
97609,6.73E-03,1.70E-02
97610,1.02E-02,1.69E-02
97611,1.01E-02,1.69E-02
97612,1.09E-02,1.70E-02
97613,8.89E-03,1.71E-02
97614,9.26E-03,1.71E-02
97615,8.76E-03,8.66E-03
97616,8.32E-03,8.50E-03
97617,8.18E-03,1.63E-02
97618,6.98E-03,9.53E-03
97619,7.41E-03,9.53E-03
97620,5.61E-03,9.61E-03
97621,6.15E-03,9.52E-03
97622,7.98E-03,9.40E-03
97623,7.60E-03,9.39E-03
97624,7.23E-03,9.56E-03
97625,6.86E-03,9.12E-03
97626,8.63E-03,9.24E-03
97627,8.34E-03,9.07E-03
97628,7.59E-03,9.37E-03
97629,7.70E-03,9.36E-03
97630,7.11E-03,9.73E-03
97631,8.50E-03,1.49E-02
97632,7.27E-03,1.50E-02
97633,6.95E-03,1.51E-02
97634,5.83E-03,1.51E-02
97635,7.43E-03,1.19E-02
97636,7.10E-03,1.20E-02
97637,7.73E-03,1.65E-02
97638,8.14E-03,1.64E-02
97639,7.43E-03,8.61E-03
97640,7.19E-03,8.49E-03
97641,6.67E-03,9.38E-03
97642,6.91E-03,1.69E-02
97643,7.47E-03,1.69E-02
97644,1.03E-02,1.69E-02
97645,8.28E-03,8.71E-03
97646,6.34E-03,9.06E-03
97647,6.25E-03,1.94E-02
97648,5.81E-03,1.91E-02
97649,1.22E-02,1.10E-02
97650,7.50E-03,1.65E-02
97651,8.74E-03,1.66E-02
97652,6.02E-03,1.66E-02
97653,9.28E-03,1.06E-02
97654,8.19E-03,1.09E-02
97655,7.38E-03,1.33E-02
97656,6.56E-03,1.91E-02
97657,5.34E-03,1.67E-02
97658,1.12E-02,9.72E-03
97659,1.12E-02,9.70E-03
97660,1.05E-02,9.68E-03
97661,9.74E-03,9.67E-03
97662,8.15E-03,9.65E-03
97663,8.02E-03,9.63E-03
97664,7.66E-03,9.62E-03
97665,6.95E-03,9.60E-03
97666,6.57E-03,9.60E-03
97667,6.81E-03,9.58E-03
97668,6.85E-03,9.57E-03
97669,6.83E-03,9.57E-03
97670,7.14E-03,9.57E-03
97671,7.36E-03,9.57E-03
97672,7.50E-03,9.57E-03
97673,7.50E-03,9.57E-03
97674,7.46E-03,9.57E-03
97675,7.20E-03,9.57E-03
97676,6.61E-03,9.57E-03
97677,6.20E-03,9.57E-03
97678,6.04E-03,9.57E-03
97679,5.85E-03,9.57E-03
97680,6.30E-03,9.58E-03
97681,7.89E-03,9.60E-03
97682,9.08E-03,9.60E-03
97683,9.34E-03,9.61E-03
97684,9.91E-03,9.61E-03
97685,9.93E-03,9.61E-03
97686,7.64E-03,9.61E-03
97687,7.34E-03,9.61E-03
97688,6.66E-03,9.61E-03
97689,5.80E-03,9.61E-03
97690,4.50E-03,9.61E-03
97691,4.57E-03,9.61E-03
97692,4.33E-03,9.62E-03
97693,7.51E-03,9.66E-03
97694,8.13E-03,9.65E-03
97695,8.25E-03,9.64E-03
97696,8.28E-03,9.64E-03
97697,8.43E-03,9.64E-03
97698,7.00E-03,9.64E-03
97699,5.91E-03,9.63E-03
97700,5.75E-03,9.63E-03
97701,5.57E-03,9.63E-03
97702,9.94E-03,1.26E-02
97703,8.96E-03,1.27E-02
97704,8.35E-03,1.28E-02
97705,8.36E-03,1.29E-02
97706,8.52E-03,1.30E-02
97707,7.66E-03,1.66E-02
97708,7.69E-03,1.69E-02
97709,6.80E-03,9.68E-03
97710,1.04E-02,9.67E-03
97711,1.04E-02,9.68E-03
97712,1.07E-02,9.67E-03
97713,1.08E-02,9.66E-03
97714,1.04E-02,9.66E-03
97715,1.02E-02,9.64E-03
97716,1.00E-02,9.63E-03
97717,9.82E-03,9.62E-03
97718,9.57E-03,9.61E-03
97719,8.88E-03,9.60E-03
97720,8.32E-03,9.58E-03
97721,7.38E-03,9.57E-03
97722,7.24E-03,9.56E-03
97723,7.14E-03,9.55E-03
97724,6.82E-03,9.54E-03
97725,6.77E-03,9.53E-03
97726,6.59E-03,9.52E-03
97727,6.35E-03,9.51E-03
97728,6.08E-03,9.50E-03
97729,5.57E-03,9.50E-03
97730,5.30E-03,9.49E-03
97731,4.96E-03,9.49E-03
97732,4.31E-03,9.49E-03
97733,4.11E-03,9.49E-03
97734,4.23E-03,9.48E-03
97735,4.57E-03,9.48E-03
97736,4.71E-03,9.48E-03
97737,4.95E-03,9.48E-03
97738,5.26E-03,9.49E-03
97739,5.81E-03,9.48E-03
97740,7.54E-03,9.76E-03
97741,1.08E-02,9.77E-03
97742,8.38E-03,1.05E-02
97743,8.67E-03,1.06E-02
97744,7.08E-03,1.68E-02
97745,8.63E-03,1.54E-02
97746,8.73E-03,1.55E-02
97747,1.12E-02,1.56E-02
97748,1.08E-02,1.57E-02
97749,1.06E-02,1.58E-02
97750,1.01E-02,1.59E-02
97751,9.76E-03,1.60E-02
97752,9.47E-03,1.61E-02
97753,9.13E-03,1.62E-02
97754,8.83E-03,1.63E-02
97755,8.69E-03,1.63E-02
97756,8.55E-03,1.64E-02
97757,8.46E-03,1.65E-02
97758,8.37E-03,1.66E-02
97759,8.34E-03,1.66E-02
97760,7.17E-03,1.67E-02
97761,8.23E-03,1.72E-02
97762,7.99E-03,1.47E-02
97763,6.85E-03,1.39E-02
97764,7.13E-03,1.38E-02
97765,6.83E-03,1.68E-02
97766,9.05E-03,1.23E-02
97767,9.30E-03,1.24E-02
97768,1.12E-02,1.25E-02
97769,1.13E-02,1.26E-02
97770,1.08E-02,1.27E-02
97771,1.06E-02,1.28E-02
97772,1.03E-02,1.29E-02
97773,9.74E-03,1.29E-02
97774,9.57E-03,1.30E-02
97775,9.24E-03,1.31E-02
97776,9.06E-03,1.32E-02
97777,8.93E-03,1.32E-02
97778,8.81E-03,1.33E-02
97779,8.65E-03,1.34E-02
97780,8.56E-03,1.35E-02
97781,8.67E-03,1.35E-02
97782,8.92E-03,1.36E-02
97783,9.09E-03,1.37E-02
97784,8.46E-03,1.38E-02
97785,7.80E-03,1.39E-02
97786,7.76E-03,1.39E-02
97787,7.76E-03,1.40E-02
97788,7.76E-03,1.41E-02
97789,7.73E-03,1.41E-02
97790,7.67E-03,1.42E-02
97791,7.59E-03,1.43E-02
97792,7.48E-03,1.44E-02
97793,7.53E-03,1.44E-02
97794,7.77E-03,1.45E-02
97795,8.81E-03,1.46E-02
97796,8.45E-03,9.57E-03
97797,7.99E-03,1.69E-02
97798,7.87E-03,1.68E-02
97799,7.72E-03,1.67E-02
97800,7.71E-03,1.66E-02
97801,7.84E-03,1.65E-02
97802,7.98E-03,1.64E-02
97803,8.02E-03,1.63E-02
97804,8.13E-03,1.62E-02
97805,8.13E-03,1.60E-02
97806,8.21E-03,1.59E-02
97807,8.25E-03,1.58E-02
97808,8.02E-03,9.58E-03
97809,8.50E-03,9.57E-03
97810,1.10E-02,9.57E-03
97811,1.04E-02,9.58E-03
97812,9.71E-03,9.57E-03
97813,7.91E-03,9.57E-03
97814,6.68E-03,9.57E-03
97815,6.27E-03,9.56E-03
97816,6.03E-03,9.56E-03
97817,5.73E-03,9.56E-03
97818,5.34E-03,9.56E-03
97819,4.83E-03,9.56E-03
97820,4.12E-03,9.56E-03
97821,4.70E-03,9.57E-03
97822,5.50E-03,9.57E-03
97823,5.50E-03,9.58E-03
97824,5.80E-03,9.59E-03
97825,5.85E-03,9.60E-03
97826,5.98E-03,9.61E-03
97827,8.12E-03,9.62E-03
97828,8.24E-03,9.65E-03
97829,8.28E-03,9.74E-03
97830,8.58E-03,9.76E-03
97831,8.62E-03,9.77E-03
97832,8.42E-03,9.78E-03
97833,8.37E-03,9.78E-03
97834,8.27E-03,9.79E-03
97835,8.16E-03,9.79E-03
97836,8.28E-03,9.80E-03
97837,1.00E-02,9.81E-03
97838,1.13E-02,9.82E-03
97839,1.08E-02,9.83E-03
97840,1.02E-02,9.83E-03
97841,1.01E-02,9.83E-03
97842,1.02E-02,9.83E-03
97843,1.03E-02,9.82E-03
97844,1.04E-02,9.82E-03
97845,1.13E-02,9.81E-03
97846,1.09E-02,9.79E-03
97847,1.08E-02,9.78E-03
97848,1.06E-02,9.76E-03
97849,1.04E-02,9.74E-03
97850,1.03E-02,9.71E-03
97851,9.84E-03,9.68E-03
97852,9.75E-03,9.65E-03
97853,9.37E-03,9.62E-03
97854,9.00E-03,9.59E-03
97855,8.74E-03,9.56E-03
97856,8.60E-03,9.53E-03
97857,8.51E-03,9.49E-03
97858,8.44E-03,9.46E-03
97859,8.39E-03,9.43E-03
97860,8.35E-03,9.40E-03
97861,8.19E-03,9.36E-03
97862,7.83E-03,9.33E-03
97863,7.60E-03,9.30E-03
97864,7.57E-03,9.27E-03
97865,7.53E-03,9.24E-03
97866,7.49E-03,9.21E-03
97867,7.44E-03,9.18E-03
97868,7.38E-03,9.15E-03
97869,7.32E-03,9.13E-03
97870,7.25E-03,9.10E-03
97871,7.16E-03,9.07E-03
97872,7.06E-03,9.05E-03
97873,6.94E-03,9.03E-03
97874,6.80E-03,9.01E-03
97875,6.61E-03,8.99E-03
97876,6.34E-03,8.97E-03
97877,6.28E-03,8.95E-03
97878,6.55E-03,8.93E-03
97879,6.80E-03,8.92E-03
97880,6.81E-03,8.90E-03
97881,6.67E-03,8.89E-03
97882,6.50E-03,8.88E-03
97883,6.23E-03,8.87E-03
97884,5.77E-03,8.86E-03
97885,5.67E-03,8.85E-03
97886,6.24E-03,8.84E-03
97887,6.23E-03,8.84E-03
97888,6.28E-03,8.85E-03
97889,8.73E-03,1.80E-02
97890,8.67E-03,1.80E-02
97891,1.08E-02,1.81E-02
97892,9.04E-03,1.82E-02
97893,9.43E-03,1.82E-02
97894,7.62E-03,1.86E-02
97895,7.28E-03,1.88E-02
97896,6.95E-03,1.89E-02
97897,6.77E-03,1.93E-02
97898,8.12E-03,1.41E-02
97899,8.13E-03,1.41E-02
97900,8.13E-03,1.42E-02
97901,8.13E-03,1.42E-02
97902,8.13E-03,1.42E-02
97903,8.13E-03,1.42E-02
97904,8.14E-03,1.43E-02
97905,8.15E-03,1.43E-02
97906,8.15E-03,1.43E-02
97907,8.16E-03,1.43E-02
97908,8.16E-03,1.43E-02
97909,8.16E-03,1.44E-02
97910,8.17E-03,1.44E-02
97911,8.17E-03,1.44E-02
97912,8.17E-03,1.44E-02
97913,8.18E-03,1.45E-02
97914,8.18E-03,1.45E-02
97915,8.19E-03,1.45E-02
97916,8.20E-03,1.45E-02
97917,8.20E-03,1.46E-02
97918,8.21E-03,1.46E-02
97919,8.22E-03,1.46E-02
97920,8.23E-03,1.46E-02
97921,8.24E-03,1.46E-02
97922,8.25E-03,1.47E-02
97923,8.26E-03,1.47E-02
97924,8.27E-03,1.47E-02
97925,8.29E-03,1.47E-02
97926,8.31E-03,1.48E-02
97927,8.33E-03,1.48E-02
97928,8.36E-03,1.48E-02
97929,8.40E-03,1.48E-02
97930,8.45E-03,1.49E-02
97931,8.49E-03,1.49E-02
97932,8.54E-03,1.49E-02
97933,8.61E-03,1.50E-02
97934,8.69E-03,1.50E-02
97935,8.79E-03,1.50E-02
97936,8.93E-03,1.50E-02
97937,9.12E-03,1.51E-02
97938,9.40E-03,1.51E-02
97939,9.83E-03,1.51E-02
97940,1.05E-02,1.52E-02
97941,1.03E-02,1.52E-02
97942,7.74E-03,1.53E-02
97943,6.07E-03,1.53E-02
97944,6.55E-03,1.53E-02
97945,6.87E-03,1.53E-02
97946,7.09E-03,1.54E-02
97947,7.25E-03,1.54E-02
97948,7.37E-03,1.54E-02
97949,7.47E-03,1.54E-02
97950,7.54E-03,1.55E-02
97951,7.60E-03,1.55E-02
97952,7.65E-03,1.55E-02
97953,7.70E-03,1.55E-02
97954,7.73E-03,1.56E-02
97955,7.76E-03,1.56E-02
97956,7.79E-03,1.56E-02
97957,7.81E-03,1.56E-02
97958,7.83E-03,1.57E-02
97959,7.85E-03,1.57E-02
97960,7.86E-03,1.57E-02
97961,7.88E-03,1.57E-02
97962,7.89E-03,1.58E-02
97963,7.90E-03,1.58E-02
97964,7.91E-03,1.58E-02
97965,7.92E-03,1.58E-02
97966,7.93E-03,1.58E-02
97967,7.94E-03,1.59E-02
97968,7.93E-03,1.59E-02
97969,7.92E-03,1.59E-02
97970,7.93E-03,1.59E-02
97971,7.96E-03,1.59E-02
97972,7.98E-03,1.60E-02
97973,8.00E-03,1.60E-02
97974,8.01E-03,1.60E-02
97975,8.02E-03,1.60E-02
97976,8.02E-03,1.60E-02
97977,8.03E-03,1.60E-02
97978,8.04E-03,1.60E-02
97979,8.09E-03,1.61E-02
97980,8.18E-03,1.61E-02
97981,8.22E-03,1.61E-02
97982,8.22E-03,1.61E-02
97983,8.23E-03,1.61E-02
97984,8.24E-03,1.61E-02
97985,8.25E-03,1.61E-02
97986,8.26E-03,1.61E-02
97987,8.28E-03,1.61E-02
97988,8.29E-03,1.62E-02
97989,8.31E-03,1.62E-02
97990,8.33E-03,1.62E-02
97991,8.35E-03,1.62E-02
97992,8.37E-03,1.62E-02
97993,8.40E-03,1.62E-02
97994,8.44E-03,1.62E-02
97995,8.48E-03,1.62E-02
97996,8.53E-03,1.63E-02
97997,8.59E-03,1.63E-02
97998,8.84E-03,1.63E-02
97999,8.96E-03,1.63E-02
98000,9.04E-03,1.63E-02
98001,9.02E-03,1.64E-02
98002,7.88E-03,1.19E-02
98003,6.57E-03,1.18E-02
98004,6.68E-03,1.18E-02
98005,6.97E-03,1.17E-02
98006,7.17E-03,1.17E-02
98007,7.32E-03,1.16E-02
98008,7.43E-03,1.16E-02
98009,7.52E-03,1.15E-02
98010,7.59E-03,1.15E-02
98011,7.65E-03,1.14E-02
98012,7.69E-03,1.14E-02
98013,7.73E-03,1.13E-02
98014,7.77E-03,1.13E-02
98015,7.80E-03,1.12E-02
98016,7.83E-03,1.12E-02
98017,7.89E-03,1.11E-02
98018,7.93E-03,1.11E-02
98019,7.93E-03,1.10E-02
98020,7.92E-03,1.10E-02
98021,7.91E-03,1.09E-02
98022,7.91E-03,1.09E-02
98023,7.90E-03,1.08E-02
98024,7.89E-03,1.08E-02
98025,7.88E-03,1.07E-02
98026,7.88E-03,1.07E-02
98027,7.87E-03,1.06E-02
98028,7.86E-03,1.06E-02
98029,7.85E-03,1.05E-02
98030,7.83E-03,1.05E-02
98031,7.82E-03,1.04E-02
98032,7.81E-03,1.04E-02
98033,7.79E-03,1.04E-02
98034,7.78E-03,1.03E-02
98035,7.72E-03,1.03E-02
98036,7.63E-03,1.02E-02
98037,7.48E-03,1.02E-02
98038,7.34E-03,1.01E-02
98039,6.98E-03,1.01E-02
98040,6.96E-03,1.01E-02
98041,5.95E-03,1.01E-02
98042,6.26E-03,1.00E-02
98043,6.77E-03,1.73E-02
98044,9.42E-03,1.78E-02
98045,9.51E-03,1.78E-02
98046,9.79E-03,1.77E-02
98047,9.90E-03,1.77E-02
98048,9.89E-03,1.77E-02
98049,9.79E-03,1.77E-02
98050,9.46E-03,1.77E-02
98051,9.18E-03,1.77E-02
98052,8.94E-03,1.77E-02
98053,8.92E-03,1.77E-02
98054,8.90E-03,1.77E-02
98055,8.87E-03,1.77E-02
98056,8.84E-03,1.77E-02
98057,8.81E-03,1.77E-02
98058,8.76E-03,1.77E-02
98059,8.69E-03,1.77E-02
98060,8.64E-03,1.77E-02
98061,8.59E-03,1.77E-02
98062,8.55E-03,1.77E-02
98063,8.51E-03,1.77E-02
98064,8.48E-03,1.78E-02
98065,8.45E-03,1.78E-02
98066,8.42E-03,1.78E-02
98067,8.40E-03,1.78E-02
98068,8.38E-03,1.78E-02
98069,8.36E-03,1.78E-02
98070,8.35E-03,1.78E-02
98071,8.33E-03,1.78E-02
98072,8.32E-03,1.79E-02
98073,8.31E-03,1.79E-02
98074,8.30E-03,1.79E-02
98075,8.29E-03,1.79E-02
98076,8.28E-03,1.79E-02
98077,8.27E-03,1.79E-02
98078,8.26E-03,1.79E-02
98079,8.25E-03,1.79E-02
98080,8.24E-03,1.79E-02
98081,8.23E-03,1.79E-02
98082,8.23E-03,1.79E-02
98083,8.22E-03,1.79E-02
98084,8.21E-03,1.79E-02
98085,8.19E-03,1.79E-02
98086,8.10E-03,1.79E-02
98087,8.02E-03,1.79E-02
98088,8.01E-03,1.79E-02
98089,7.99E-03,1.79E-02
98090,7.96E-03,1.79E-02
98091,7.91E-03,1.79E-02
98092,7.82E-03,1.79E-02
98093,7.71E-03,1.79E-02
98094,7.71E-03,1.79E-02
98095,7.75E-03,1.79E-02
98096,7.73E-03,1.79E-02
98097,7.69E-03,1.79E-02
98098,7.65E-03,1.79E-02
98099,7.60E-03,1.79E-02
98100,7.55E-03,1.79E-02
98101,7.39E-03,1.78E-02
98102,7.26E-03,1.78E-02
98103,7.10E-03,1.78E-02
98104,6.96E-03,1.78E-02
98105,6.95E-03,1.78E-02
98106,6.84E-03,1.77E-02
98107,6.75E-03,1.77E-02
98108,6.50E-03,1.77E-02
98109,8.69E-03,1.10E-02
98110,8.62E-03,1.09E-02
98111,9.63E-03,9.57E-03
98112,9.45E-03,9.57E-03
98113,7.67E-03,9.57E-03
98114,7.59E-03,9.56E-03
98115,8.03E-03,9.60E-03
98116,8.12E-03,9.59E-03
98117,8.03E-03,9.57E-03
98118,7.87E-03,9.56E-03
98119,8.85E-03,2.00E-02
98120,9.66E-03,1.99E-02
98121,1.14E-02,1.98E-02
98122,1.10E-02,1.97E-02
98123,1.06E-02,1.96E-02
98124,1.06E-02,1.95E-02
98125,1.04E-02,1.95E-02
98126,1.03E-02,1.94E-02
98127,1.01E-02,1.94E-02
98128,9.85E-03,1.93E-02
98129,9.81E-03,1.93E-02
98130,9.46E-03,1.92E-02
98131,9.40E-03,1.92E-02
98132,9.23E-03,1.92E-02
98133,9.13E-03,1.92E-02
98134,9.03E-03,1.92E-02
98135,8.95E-03,1.92E-02
98136,8.88E-03,1.91E-02
98137,8.81E-03,1.91E-02
98138,8.76E-03,1.91E-02
98139,8.71E-03,1.91E-02
98140,8.67E-03,1.91E-02
98141,8.63E-03,1.92E-02
98142,8.60E-03,1.92E-02
98143,8.57E-03,1.92E-02
98144,8.54E-03,1.92E-02
98145,8.51E-03,1.92E-02
98146,8.50E-03,1.92E-02
98147,8.47E-03,1.92E-02
98148,8.39E-03,1.92E-02
98149,8.28E-03,1.92E-02
98150,8.19E-03,1.93E-02
98151,8.17E-03,1.93E-02
98152,8.17E-03,1.93E-02
98153,8.16E-03,1.93E-02
98154,7.87E-03,1.93E-02
98155,7.21E-03,1.93E-02
98156,6.83E-03,1.93E-02
98157,6.75E-03,1.93E-02
98158,6.64E-03,1.93E-02
98159,6.57E-03,1.93E-02
98160,6.29E-03,1.93E-02
98161,6.16E-03,1.93E-02
98162,5.85E-03,1.93E-02
98163,5.80E-03,1.92E-02
98164,5.75E-03,1.92E-02
98165,6.27E-03,1.92E-02
98166,6.14E-03,1.92E-02
98167,5.09E-03,1.92E-02
98168,4.92E-03,1.91E-02
98169,4.96E-03,1.91E-02
98170,5.08E-03,1.90E-02
98171,5.86E-03,1.90E-02
98172,6.37E-03,1.89E-02
98173,6.64E-03,1.89E-02
98174,7.67E-03,1.88E-02
98175,7.83E-03,1.87E-02
98176,8.33E-03,1.87E-02
98177,8.55E-03,1.86E-02
98178,8.43E-03,1.48E-02
98179,6.69E-03,1.48E-02
98180,6.92E-03,1.76E-02
98181,7.27E-03,1.75E-02
98182,8.08E-03,1.75E-02
98183,9.04E-03,1.74E-02
98184,9.29E-03,1.74E-02
98185,9.66E-03,1.73E-02
98186,9.50E-03,1.73E-02
98187,9.33E-03,1.72E-02
98188,8.35E-03,1.72E-02
98189,8.22E-03,1.71E-02
98190,8.03E-03,1.71E-02
98191,7.64E-03,1.71E-02
98192,7.09E-03,1.70E-02
98193,6.79E-03,1.70E-02
98194,8.81E-03,9.54E-03
98195,7.57E-03,9.51E-03
98196,6.30E-03,9.48E-03
98197,9.00E-03,9.30E-03
98198,8.53E-03,2.06E-02
98199,7.28E-03,9.61E-03
98200,6.96E-03,9.43E-03
98201,6.00E-03,1.16E-02
98202,7.87E-03,9.54E-03
98203,7.90E-03,9.54E-03
98204,8.12E-03,1.40E-02
98205,8.13E-03,1.40E-02
98206,8.14E-03,1.40E-02
98207,8.14E-03,1.40E-02
98208,8.14E-03,1.40E-02
98209,8.14E-03,1.39E-02
98210,8.14E-03,1.39E-02
98211,8.14E-03,1.39E-02
98212,8.14E-03,1.39E-02
98213,8.14E-03,1.38E-02
98214,8.14E-03,1.38E-02
98215,8.14E-03,1.38E-02
98216,8.14E-03,1.38E-02
98217,8.15E-03,1.37E-02
98218,8.15E-03,1.37E-02
98219,8.15E-03,1.37E-02
98220,8.15E-03,1.37E-02
98221,8.15E-03,1.36E-02
98222,8.15E-03,1.36E-02
98223,8.15E-03,1.36E-02
98224,8.15E-03,1.36E-02
98225,8.16E-03,1.35E-02
98226,8.16E-03,1.35E-02
98227,8.16E-03,1.35E-02
98228,8.16E-03,1.35E-02
98229,8.17E-03,1.34E-02
98230,8.17E-03,1.34E-02
98231,8.17E-03,1.34E-02
98232,8.18E-03,1.34E-02
98233,8.18E-03,1.33E-02
98234,8.19E-03,1.33E-02
98235,8.20E-03,1.33E-02
98236,8.20E-03,1.33E-02
98237,8.21E-03,1.32E-02
98238,8.21E-03,1.32E-02
98239,8.22E-03,1.32E-02
98240,8.23E-03,1.32E-02
98241,8.23E-03,1.31E-02
98242,8.24E-03,1.31E-02
98243,8.25E-03,1.31E-02
98244,8.26E-03,1.31E-02
98245,8.27E-03,1.30E-02
98246,8.28E-03,1.30E-02
98247,8.29E-03,1.30E-02
98248,8.31E-03,1.30E-02
98249,8.32E-03,1.29E-02
98250,8.34E-03,1.29E-02
98251,8.36E-03,1.29E-02
98252,8.39E-03,1.29E-02
98253,8.41E-03,1.29E-02
98254,8.44E-03,1.28E-02
98255,8.48E-03,1.28E-02
98256,8.52E-03,1.28E-02
98257,8.57E-03,1.28E-02
98258,8.63E-03,1.28E-02
98259,8.70E-03,1.27E-02
98260,8.90E-03,1.27E-02
98261,9.01E-03,1.27E-02
98262,9.23E-03,1.27E-02
98263,9.58E-03,1.27E-02
98264,9.70E-03,1.26E-02
98265,9.92E-03,1.26E-02
98266,1.03E-02,1.26E-02
98267,1.05E-02,1.26E-02
98268,1.06E-02,1.26E-02
98269,1.03E-02,1.26E-02
98270,9.68E-03,1.25E-02
98271,9.36E-03,1.25E-02
98272,9.24E-03,1.25E-02
98273,9.13E-03,1.25E-02
98274,9.13E-03,1.25E-02
98275,9.26E-03,1.25E-02
98276,9.43E-03,1.25E-02
98277,9.65E-03,1.24E-02
98278,1.01E-02,1.24E-02
98279,1.03E-02,1.24E-02
98280,1.05E-02,1.24E-02
98281,8.85E-03,1.24E-02
98282,7.57E-03,1.24E-02
98283,6.64E-03,1.23E-02
98284,5.70E-03,1.23E-02
98285,5.51E-03,1.23E-02
98286,5.91E-03,1.23E-02
98287,6.22E-03,1.23E-02
98288,6.38E-03,1.23E-02
98289,6.71E-03,1.23E-02
98290,6.82E-03,1.23E-02
98291,7.13E-03,1.23E-02
98292,7.19E-03,1.23E-02
98293,7.32E-03,1.23E-02
98294,7.44E-03,1.23E-02
98295,7.56E-03,1.23E-02
98296,7.62E-03,1.23E-02
98297,7.62E-03,1.23E-02
98298,7.62E-03,1.23E-02
98299,8.22E-03,1.23E-02
98300,9.02E-03,1.23E-02
98301,9.06E-03,1.23E-02
98302,8.78E-03,1.24E-02
98303,8.63E-03,1.24E-02
98304,8.71E-03,1.24E-02
98305,9.02E-03,1.24E-02
98306,9.06E-03,1.24E-02
98307,9.31E-03,1.25E-02
98308,9.45E-03,1.25E-02
98309,9.51E-03,1.25E-02
98310,9.74E-03,1.26E-02
98311,9.89E-03,1.26E-02
98312,1.02E-02,1.27E-02
98313,1.02E-02,1.27E-02
98314,1.01E-02,1.28E-02
98315,7.90E-03,1.28E-02
98316,7.96E-03,1.29E-02
98317,8.22E-03,1.29E-02
98318,8.43E-03,1.30E-02
98319,8.68E-03,1.30E-02
98320,7.51E-03,1.98E-02
98321,7.32E-03,2.00E-02
98322,8.49E-03,1.52E-02
98323,9.31E-03,1.69E-02
98324,8.21E-03,1.69E-02
98325,7.40E-03,1.69E-02
98326,8.11E-03,9.65E-03
98327,7.21E-03,9.59E-03
98328,8.38E-03,9.62E-03
98329,6.43E-03,9.46E-03
98330,6.39E-03,9.46E-03
98331,8.01E-03,9.47E-03
98332,7.58E-03,9.55E-03
98333,7.28E-03,9.50E-03
98334,6.92E-03,9.48E-03
98335,6.91E-03,9.47E-03
98336,6.75E-03,9.48E-03
98337,8.10E-03,1.21E-02
98338,8.32E-03,1.30E-02
98339,8.57E-03,1.29E-02
98340,8.75E-03,1.28E-02
98341,8.63E-03,1.68E-02
98342,8.01E-03,1.67E-02
98343,7.73E-03,1.65E-02
98344,8.54E-03,1.70E-02
98345,8.58E-03,1.68E-02
98346,7.28E-03,9.52E-03
98347,7.58E-03,9.32E-03
98348,6.00E-03,9.63E-03
98349,8.03E-03,9.65E-03
98350,8.96E-03,9.52E-03
98351,8.34E-03,9.45E-03
98352,8.26E-03,1.01E-02
98353,6.84E-03,1.69E-02
98354,6.71E-03,1.69E-02
98355,8.02E-03,1.45E-02
98356,7.73E-03,1.43E-02
98357,7.65E-03,1.41E-02
98358,7.92E-03,1.42E-02
98359,7.52E-03,1.41E-02
98360,7.81E-03,1.38E-02
98361,7.43E-03,1.34E-02
98362,8.45E-03,1.67E-02
98363,7.55E-03,1.68E-02
98364,7.57E-03,1.68E-02
98365,7.31E-03,1.69E-02
98366,6.84E-03,1.69E-02
98367,8.66E-03,1.22E-02
98368,6.77E-03,1.46E-02
98369,8.44E-03,1.66E-02
98370,8.27E-03,1.53E-02
98371,7.45E-03,9.50E-03
98372,6.70E-03,8.70E-03
98373,6.50E-03,8.62E-03
98374,8.58E-03,1.82E-02
98375,8.52E-03,1.82E-02
98376,8.04E-03,1.81E-02
98377,1.00E-02,1.92E-02
98378,1.03E-02,1.65E-02
98379,6.40E-03,8.70E-03
98380,6.11E-03,8.57E-03
98381,7.62E-03,8.55E-03
98382,7.74E-03,1.19E-02
98383,7.29E-03,9.94E-03
98384,7.56E-03,1.74E-02
98385,6.98E-03,1.72E-02
98386,6.91E-03,1.71E-02
98387,8.81E-03,1.81E-02
98388,6.72E-03,1.06E-02
98389,8.59E-03,9.42E-03
98390,7.95E-03,9.47E-03
98391,5.18E-03,2.04E-02
98392,6.78E-03,2.04E-02
98393,7.25E-03,2.04E-02
98394,7.25E-03,2.05E-02
98395,7.31E-03,2.05E-02
98396,7.33E-03,2.05E-02
98397,7.36E-03,2.05E-02
98398,7.38E-03,2.05E-02
98399,7.33E-03,2.06E-02
98400,7.39E-03,2.06E-02
98401,7.41E-03,2.06E-02
98402,7.43E-03,2.06E-02
98403,7.44E-03,2.06E-02
98404,7.40E-03,2.06E-02
98405,7.22E-03,2.06E-02
98406,7.15E-03,2.06E-02
98407,7.10E-03,2.06E-02
98408,7.19E-03,2.06E-02
98409,7.68E-03,2.05E-02
98410,8.09E-03,2.05E-02
98411,8.10E-03,2.05E-02
98412,7.85E-03,2.05E-02
98413,7.48E-03,2.05E-02
98414,8.21E-03,2.05E-02
98415,7.54E-03,2.05E-02
98416,5.81E-03,2.06E-02
98417,6.72E-03,1.67E-02
98418,6.56E-03,1.65E-02
98419,5.72E-03,1.69E-02
98420,1.04E-02,1.70E-02
98421,1.05E-02,1.70E-02
98422,1.07E-02,1.71E-02
98423,1.00E-02,1.71E-02
98424,9.64E-03,1.72E-02
98425,8.33E-03,8.32E-03
98426,8.71E-03,8.25E-03
98427,1.04E-02,1.11E-02
98428,8.25E-03,9.45E-03
98429,7.99E-03,9.44E-03
98430,8.19E-03,1.42E-02
98431,8.10E-03,1.41E-02
98432,8.25E-03,1.62E-02
98433,8.14E-03,1.62E-02
98434,1.03E-02,1.61E-02
98435,9.98E-03,1.60E-02
98436,9.86E-03,1.59E-02
98437,9.69E-03,1.58E-02
98438,9.39E-03,1.57E-02
98439,9.36E-03,1.57E-02
98440,9.29E-03,1.56E-02
98441,9.36E-03,1.55E-02
98442,9.45E-03,1.54E-02
98443,9.56E-03,1.53E-02
98444,9.65E-03,1.52E-02
98445,9.69E-03,1.51E-02
98446,9.70E-03,1.50E-02
98447,9.70E-03,1.48E-02
98448,9.71E-03,1.47E-02
98449,9.73E-03,1.46E-02
98450,9.76E-03,1.45E-02
98451,9.80E-03,1.43E-02
98452,9.71E-03,1.42E-02
98453,9.59E-03,1.41E-02
98454,9.47E-03,1.39E-02
98455,9.33E-03,1.38E-02
98456,9.26E-03,1.36E-02
98457,9.29E-03,1.34E-02
98458,8.92E-03,1.33E-02
98459,8.94E-03,1.31E-02
98460,6.84E-03,1.78E-02
98461,7.69E-03,9.54E-03
98462,8.07E-03,9.53E-03
98463,7.80E-03,9.36E-03
98464,8.10E-03,1.17E-02
98465,8.11E-03,1.28E-02
98466,8.81E-03,1.72E-02
98467,8.40E-03,1.71E-02
98468,7.51E-03,9.37E-03
98469,6.89E-03,9.55E-03
98470,6.50E-03,9.56E-03
98471,6.24E-03,1.67E-02
98472,9.63E-03,9.25E-03
98473,8.34E-03,9.11E-03
98474,7.50E-03,9.20E-03
98475,8.02E-03,9.78E-03
98476,4.81E-03,1.52E-02
98477,7.31E-03,1.54E-02
98478,8.27E-03,1.67E-02
98479,8.59E-03,1.65E-02
98480,8.69E-03,1.64E-02
98481,8.28E-03,9.46E-03
98482,6.59E-03,9.36E-03
98483,9.17E-03,8.61E-03
98484,7.91E-03,8.51E-03
98485,5.32E-03,1.49E-02
98486,5.11E-03,1.50E-02
98487,1.02E-02,9.46E-03
98488,6.72E-03,9.46E-03
98489,7.74E-03,1.76E-02
98490,7.88E-03,1.89E-02
98491,8.29E-03,1.68E-02
98492,5.65E-03,9.45E-03
98493,8.08E-03,1.63E-02
98494,7.68E-03,1.65E-02
98495,7.83E-03,1.65E-02
98496,7.45E-03,8.38E-03
98497,7.08E-03,9.85E-03
98498,8.39E-03,2.05E-02
98499,8.18E-03,2.06E-02
98500,7.76E-03,2.08E-02
98501,7.51E-03,2.06E-02
98502,7.53E-03,2.08E-02
98503,7.07E-03,9.41E-03
98504,7.49E-03,9.27E-03
98505,6.95E-03,9.24E-03
98506,9.24E-03,8.29E-03
98507,8.49E-03,8.19E-03
98508,7.45E-03,1.70E-02
98509,7.66E-03,1.70E-02
98510,8.15E-03,1.70E-02
98511,6.91E-03,9.72E-03
98512,7.59E-03,1.18E-02
98513,8.22E-03,8.78E-03
98514,7.97E-03,8.44E-03
98515,7.49E-03,9.21E-03
98516,6.70E-03,9.07E-03
98517,6.44E-03,8.79E-03
98518,7.48E-03,8.87E-03
98519,7.83E-03,8.93E-03
98520,6.83E-03,1.92E-02
98521,6.90E-03,1.88E-02
98522,8.20E-03,9.19E-03
98523,7.09E-03,9.44E-03
98524,6.74E-03,1.87E-02
98525,9.52E-03,1.70E-02
98526,7.04E-03,9.49E-03
98527,8.89E-03,1.85E-02
98528,8.60E-03,8.59E-03
98529,1.11E-02,9.61E-03
98530,1.11E-02,9.59E-03
98531,1.05E-02,9.57E-03
98532,9.70E-03,9.56E-03
98533,8.32E-03,9.54E-03
98534,8.22E-03,9.52E-03
98535,8.02E-03,9.51E-03
98536,6.55E-03,9.50E-03
98537,7.61E-03,9.46E-03
98538,6.80E-03,9.46E-03
98539,6.77E-03,9.46E-03
98540,7.14E-03,9.46E-03
98541,7.32E-03,9.46E-03
98542,7.48E-03,9.46E-03
98543,7.48E-03,9.45E-03
98544,7.37E-03,9.45E-03
98545,7.16E-03,9.46E-03
98546,6.71E-03,9.45E-03
98547,6.29E-03,9.46E-03
98548,6.16E-03,9.46E-03
98549,6.10E-03,9.46E-03
98550,6.35E-03,9.46E-03
98551,8.14E-03,9.48E-03
98552,8.66E-03,9.49E-03
98553,9.25E-03,9.49E-03
98554,9.78E-03,9.48E-03
98555,9.89E-03,9.49E-03
98556,7.53E-03,9.49E-03
98557,7.30E-03,9.49E-03
98558,6.86E-03,9.48E-03
98559,5.70E-03,9.48E-03
98560,4.62E-03,9.48E-03
98561,4.89E-03,9.48E-03
98562,5.36E-03,9.47E-03
98563,8.07E-03,9.52E-03
98564,8.40E-03,9.51E-03
98565,8.50E-03,9.51E-03
98566,8.56E-03,9.51E-03
98567,8.48E-03,9.50E-03
98568,7.23E-03,9.50E-03
98569,5.92E-03,9.50E-03
98570,5.80E-03,9.49E-03
98571,5.77E-03,9.49E-03
98572,9.92E-03,1.22E-02
98573,8.94E-03,1.24E-02
98574,8.43E-03,1.25E-02
98575,8.45E-03,1.26E-02
98576,8.64E-03,1.27E-02
98577,7.89E-03,1.66E-02
98578,8.09E-03,1.69E-02
98579,7.02E-03,9.52E-03
98580,9.47E-03,9.52E-03
98581,1.05E-02,9.52E-03
98582,1.06E-02,9.51E-03
98583,1.07E-02,9.50E-03
98584,1.04E-02,9.49E-03
98585,1.02E-02,9.48E-03
98586,9.94E-03,9.47E-03
98587,9.76E-03,9.45E-03
98588,9.42E-03,9.44E-03
98589,8.96E-03,9.43E-03
98590,8.22E-03,9.41E-03
98591,7.42E-03,9.40E-03
98592,7.38E-03,9.39E-03
98593,7.11E-03,9.37E-03
98594,6.88E-03,9.36E-03
98595,6.84E-03,9.35E-03
98596,6.67E-03,9.34E-03
98597,6.44E-03,9.33E-03
98598,6.21E-03,9.32E-03
98599,5.64E-03,9.31E-03
98600,5.34E-03,9.31E-03
98601,5.13E-03,9.31E-03
98602,4.09E-03,9.30E-03
98603,4.09E-03,9.30E-03
98604,4.40E-03,9.30E-03
98605,4.68E-03,9.30E-03
98606,4.80E-03,9.30E-03
98607,5.02E-03,9.29E-03
98608,5.57E-03,9.29E-03
98609,6.38E-03,9.29E-03
98610,7.60E-03,9.64E-03
98611,9.63E-03,9.48E-03
98612,8.39E-03,1.02E-02
98613,9.50E-03,1.03E-02
98614,8.67E-03,1.03E-02
98615,7.13E-03,1.68E-02
98616,8.58E-03,1.54E-02
98617,8.87E-03,1.55E-02
98618,1.14E-02,1.56E-02
98619,1.08E-02,1.57E-02
98620,1.08E-02,1.58E-02
98621,9.99E-03,1.59E-02
98622,9.71E-03,1.60E-02
98623,9.32E-03,1.61E-02
98624,9.12E-03,1.62E-02
98625,8.75E-03,1.63E-02
98626,8.67E-03,1.64E-02
98627,8.57E-03,1.65E-02
98628,8.50E-03,1.65E-02
98629,8.40E-03,1.66E-02
98630,8.43E-03,1.67E-02
98631,7.22E-03,1.68E-02
98632,7.87E-03,1.68E-02
98633,7.96E-03,1.44E-02
98634,7.52E-03,1.39E-02
98635,7.23E-03,1.37E-02
98636,7.34E-03,1.35E-02
98637,6.69E-03,1.69E-02
98638,8.80E-03,1.23E-02
98639,8.92E-03,1.24E-02
98640,1.15E-02,1.25E-02
98641,1.11E-02,1.25E-02
98642,1.07E-02,1.26E-02
98643,1.06E-02,1.27E-02
98644,1.02E-02,1.28E-02
98645,9.78E-03,1.29E-02
98646,9.45E-03,1.30E-02
98647,9.21E-03,1.31E-02
98648,9.04E-03,1.31E-02
98649,8.91E-03,1.32E-02
98650,8.79E-03,1.33E-02
98651,8.63E-03,1.34E-02
98652,8.54E-03,1.34E-02
98653,8.65E-03,1.35E-02
98654,8.90E-03,1.36E-02
98655,9.06E-03,1.37E-02
98656,8.45E-03,1.37E-02
98657,7.81E-03,1.38E-02
98658,7.77E-03,1.39E-02
98659,7.77E-03,1.40E-02
98660,7.77E-03,1.40E-02
98661,7.74E-03,1.41E-02
98662,7.68E-03,1.42E-02
98663,7.60E-03,1.43E-02
98664,7.49E-03,1.43E-02
98665,7.47E-03,1.44E-02
98666,7.54E-03,1.45E-02
98667,7.36E-03,1.45E-02
98668,9.00E-03,9.46E-03
98669,8.43E-03,1.65E-02
98670,7.86E-03,1.64E-02
98671,7.69E-03,1.63E-02
98672,7.76E-03,1.62E-02
98673,7.83E-03,1.61E-02
98674,8.01E-03,1.60E-02
98675,8.06E-03,1.59E-02
98676,8.18E-03,1.58E-02
98677,8.13E-03,1.57E-02
98678,8.12E-03,1.56E-02
98679,8.14E-03,1.55E-02
98680,8.97E-03,9.38E-03
98681,8.39E-03,9.38E-03
98682,1.09E-02,9.38E-03
98683,1.02E-02,9.38E-03
98684,9.87E-03,9.37E-03
98685,7.91E-03,9.37E-03
98686,6.72E-03,9.36E-03
98687,6.32E-03,9.36E-03
98688,6.09E-03,9.36E-03
98689,5.79E-03,9.35E-03
98690,5.41E-03,9.35E-03
98691,4.91E-03,9.35E-03
98692,4.23E-03,9.36E-03
98693,4.81E-03,9.36E-03
98694,5.32E-03,9.36E-03
98695,5.79E-03,9.37E-03
98696,5.86E-03,9.38E-03
98697,5.90E-03,9.39E-03
98698,5.98E-03,9.40E-03
98699,8.22E-03,9.42E-03
98700,8.38E-03,9.46E-03
98701,9.27E-03,9.48E-03
98702,8.34E-03,9.51E-03
98703,8.67E-03,9.51E-03
98704,8.51E-03,9.53E-03
98705,8.44E-03,9.55E-03
98706,8.33E-03,9.55E-03
98707,8.23E-03,9.56E-03
98708,8.09E-03,9.57E-03
98709,8.33E-03,9.57E-03
98710,9.96E-03,9.58E-03
98711,1.12E-02,9.59E-03
98712,1.08E-02,9.60E-03
98713,1.02E-02,9.60E-03
98714,9.99E-03,9.60E-03
98715,1.02E-02,9.59E-03
98716,1.03E-02,9.59E-03
98717,1.04E-02,9.58E-03
98718,1.12E-02,9.57E-03
98719,1.08E-02,9.56E-03
98720,1.07E-02,9.54E-03
98721,1.05E-02,9.52E-03
98722,1.03E-02,9.49E-03
98723,1.02E-02,9.47E-03
98724,9.83E-03,9.44E-03
98725,9.66E-03,9.41E-03
98726,9.41E-03,9.37E-03
98727,8.93E-03,9.34E-03
98728,8.72E-03,9.31E-03
98729,8.59E-03,9.28E-03
98730,8.49E-03,9.24E-03
98731,8.43E-03,9.21E-03
98732,8.38E-03,9.18E-03
98733,8.34E-03,9.14E-03
98734,8.19E-03,9.11E-03
98735,7.84E-03,9.08E-03
98736,7.62E-03,9.05E-03
98737,7.58E-03,9.01E-03
98738,7.54E-03,8.98E-03
98739,7.50E-03,8.95E-03
98740,7.46E-03,8.92E-03
98741,7.40E-03,8.89E-03
98742,7.34E-03,8.87E-03
98743,7.27E-03,8.84E-03
98744,7.19E-03,8.81E-03
98745,7.09E-03,8.79E-03
98746,6.97E-03,8.76E-03
98747,6.83E-03,8.74E-03
98748,6.64E-03,8.72E-03
98749,6.39E-03,8.70E-03
98750,6.33E-03,8.68E-03
98751,6.59E-03,8.66E-03
98752,6.84E-03,8.65E-03
98753,6.84E-03,8.63E-03
98754,6.70E-03,8.62E-03
98755,6.54E-03,8.61E-03
98756,6.28E-03,8.60E-03
98757,5.83E-03,8.59E-03
98758,5.73E-03,8.58E-03
98759,6.29E-03,8.57E-03
98760,6.42E-03,8.58E-03
98761,6.45E-03,8.58E-03
98762,8.60E-03,1.83E-02
98763,8.48E-03,1.83E-02
98764,1.16E-02,1.84E-02
98765,9.25E-03,1.84E-02
98766,7.93E-03,1.82E-02
98767,8.08E-03,1.84E-02
98768,8.16E-03,1.86E-02
98769,8.55E-03,1.89E-02
98770,8.12E-03,1.42E-02
98771,8.13E-03,1.42E-02
98772,8.13E-03,1.42E-02
98773,8.13E-03,1.43E-02
98774,8.13E-03,1.43E-02
98775,8.13E-03,1.43E-02
98776,8.14E-03,1.43E-02
98777,8.15E-03,1.44E-02
98778,8.15E-03,1.44E-02
98779,8.15E-03,1.44E-02
98780,8.16E-03,1.44E-02
98781,8.16E-03,1.45E-02
98782,8.16E-03,1.45E-02
98783,8.17E-03,1.45E-02
98784,8.17E-03,1.45E-02
98785,8.18E-03,1.45E-02
98786,8.18E-03,1.46E-02
98787,8.19E-03,1.46E-02
98788,8.19E-03,1.46E-02
98789,8.20E-03,1.46E-02
98790,8.21E-03,1.47E-02
98791,8.21E-03,1.47E-02
98792,8.22E-03,1.47E-02
98793,8.23E-03,1.47E-02
98794,8.24E-03,1.48E-02
98795,8.26E-03,1.48E-02
98796,8.27E-03,1.48E-02
98797,8.29E-03,1.48E-02
98798,8.30E-03,1.49E-02
98799,8.32E-03,1.49E-02
98800,8.35E-03,1.49E-02
98801,8.39E-03,1.50E-02
98802,8.44E-03,1.50E-02
98803,8.48E-03,1.50E-02
98804,8.53E-03,1.50E-02
98805,8.59E-03,1.51E-02
98806,8.67E-03,1.51E-02
98807,8.77E-03,1.51E-02
98808,8.91E-03,1.52E-02
98809,9.10E-03,1.52E-02
98810,9.37E-03,1.52E-02
98811,9.78E-03,1.53E-02
98812,1.04E-02,1.53E-02
98813,1.02E-02,1.53E-02
98814,7.75E-03,1.54E-02
98815,6.12E-03,1.54E-02
98816,6.59E-03,1.54E-02
98817,6.90E-03,1.55E-02
98818,7.12E-03,1.55E-02
98819,7.27E-03,1.55E-02
98820,7.39E-03,1.55E-02
98821,7.48E-03,1.56E-02
98822,7.56E-03,1.56E-02
98823,7.62E-03,1.56E-02
98824,7.66E-03,1.57E-02
98825,7.71E-03,1.57E-02
98826,7.74E-03,1.57E-02
98827,7.77E-03,1.57E-02
98828,7.80E-03,1.58E-02
98829,7.82E-03,1.58E-02
98830,7.84E-03,1.58E-02
98831,7.85E-03,1.58E-02
98832,7.87E-03,1.59E-02
98833,7.88E-03,1.59E-02
98834,7.90E-03,1.59E-02
98835,7.91E-03,1.59E-02
98836,7.92E-03,1.60E-02
98837,7.93E-03,1.60E-02
98838,7.93E-03,1.60E-02
98839,7.94E-03,1.60E-02
98840,7.93E-03,1.60E-02
98841,7.92E-03,1.61E-02
98842,7.94E-03,1.61E-02
98843,7.96E-03,1.61E-02
98844,7.98E-03,1.61E-02
98845,8.00E-03,1.61E-02
98846,8.01E-03,1.61E-02
98847,8.02E-03,1.62E-02
98848,8.03E-03,1.62E-02
98849,8.03E-03,1.62E-02
98850,8.04E-03,1.62E-02
98851,8.09E-03,1.62E-02
98852,8.18E-03,1.62E-02
98853,8.21E-03,1.62E-02
98854,8.22E-03,1.63E-02
98855,8.23E-03,1.63E-02
98856,8.24E-03,1.63E-02
98857,8.25E-03,1.63E-02
98858,8.26E-03,1.63E-02
98859,8.27E-03,1.63E-02
98860,8.29E-03,1.63E-02
98861,8.30E-03,1.63E-02
98862,8.32E-03,1.64E-02
98863,8.34E-03,1.64E-02
98864,8.37E-03,1.64E-02
98865,8.40E-03,1.64E-02
98866,8.43E-03,1.64E-02
98867,8.47E-03,1.64E-02
98868,8.52E-03,1.64E-02
98869,8.58E-03,1.65E-02
98870,8.77E-03,1.65E-02
98871,9.09E-03,1.65E-02
98872,9.12E-03,1.65E-02
98873,9.38E-03,1.65E-02
98874,9.43E-03,8.33E-03
98875,7.39E-03,8.50E-03
98876,9.78E-03,8.61E-03
98877,7.79E-03,1.18E-02
98878,6.61E-03,1.18E-02
98879,6.67E-03,1.17E-02
98880,7.00E-03,1.17E-02
98881,7.20E-03,1.16E-02
98882,7.34E-03,1.16E-02
98883,7.45E-03,1.15E-02
98884,7.54E-03,1.15E-02
98885,7.60E-03,1.14E-02
98886,7.66E-03,1.13E-02
98887,7.71E-03,1.13E-02
98888,7.74E-03,1.12E-02
98889,7.78E-03,1.12E-02
98890,7.80E-03,1.11E-02
98891,7.84E-03,1.11E-02
98892,7.90E-03,1.10E-02
98893,7.93E-03,1.10E-02
98894,7.93E-03,1.09E-02
98895,7.92E-03,1.09E-02
98896,7.92E-03,1.08E-02
98897,7.91E-03,1.08E-02
98898,7.91E-03,1.07E-02
98899,7.90E-03,1.07E-02
98900,7.89E-03,1.06E-02
98901,7.88E-03,1.06E-02
98902,7.87E-03,1.05E-02
98903,7.86E-03,1.05E-02
98904,7.85E-03,1.04E-02
98905,7.84E-03,1.04E-02
98906,7.83E-03,1.04E-02
98907,7.82E-03,1.03E-02
98908,7.80E-03,1.03E-02
98909,7.79E-03,1.02E-02
98910,7.72E-03,1.02E-02
98911,7.64E-03,1.01E-02
98912,7.48E-03,1.01E-02
98913,7.38E-03,1.01E-02
98914,7.28E-03,1.00E-02
98915,7.12E-03,9.99E-03
98916,7.16E-03,9.96E-03
98917,7.17E-03,9.95E-03
98918,6.93E-03,1.69E-02
98919,9.36E-03,1.81E-02
98920,9.40E-03,1.81E-02
98921,9.81E-03,1.80E-02
98922,9.91E-03,1.80E-02
98923,9.85E-03,1.80E-02
98924,9.77E-03,1.80E-02
98925,9.38E-03,1.80E-02
98926,9.09E-03,1.80E-02
98927,8.98E-03,1.79E-02
98928,8.90E-03,1.79E-02
98929,8.88E-03,1.79E-02
98930,8.85E-03,1.79E-02
98931,8.82E-03,1.80E-02
98932,8.79E-03,1.80E-02
98933,8.74E-03,1.80E-02
98934,8.68E-03,1.80E-02
98935,8.62E-03,1.80E-02
98936,8.57E-03,1.80E-02
98937,8.53E-03,1.80E-02
98938,8.50E-03,1.80E-02
98939,8.47E-03,1.80E-02
98940,8.44E-03,1.80E-02
98941,8.42E-03,1.80E-02
98942,8.39E-03,1.81E-02
98943,8.37E-03,1.81E-02
98944,8.36E-03,1.81E-02
98945,8.34E-03,1.81E-02
98946,8.33E-03,1.81E-02
98947,8.31E-03,1.81E-02
98948,8.30E-03,1.81E-02
98949,8.29E-03,1.81E-02
98950,8.28E-03,1.81E-02
98951,8.27E-03,1.81E-02
98952,8.26E-03,1.82E-02
98953,8.25E-03,1.82E-02
98954,8.24E-03,1.82E-02
98955,8.23E-03,1.82E-02
98956,8.23E-03,1.82E-02
98957,8.22E-03,1.82E-02
98958,8.22E-03,1.82E-02
98959,8.21E-03,1.82E-02
98960,8.18E-03,1.82E-02
98961,8.10E-03,1.82E-02
98962,8.02E-03,1.82E-02
98963,8.01E-03,1.82E-02
98964,7.99E-03,1.82E-02
98965,7.96E-03,1.82E-02
98966,7.92E-03,1.82E-02
98967,7.83E-03,1.82E-02
98968,7.72E-03,1.82E-02
98969,7.72E-03,1.82E-02
98970,7.76E-03,1.82E-02
98971,7.73E-03,1.81E-02
98972,7.70E-03,1.81E-02
98973,7.66E-03,1.81E-02
98974,7.62E-03,1.81E-02
98975,7.56E-03,1.81E-02
98976,7.41E-03,1.81E-02
98977,7.27E-03,1.81E-02
98978,7.08E-03,1.80E-02
98979,6.97E-03,1.80E-02
98980,6.94E-03,1.80E-02
98981,6.82E-03,1.80E-02
98982,6.81E-03,1.79E-02
98983,6.58E-03,1.79E-02
98984,7.94E-03,1.07E-02
98985,8.02E-03,1.06E-02
98986,7.27E-03,1.06E-02
98987,6.95E-03,1.05E-02
98988,9.07E-03,9.42E-03
98989,9.85E-03,9.42E-03
98990,7.56E-03,9.42E-03
98991,7.77E-03,9.41E-03
98992,8.01E-03,9.46E-03
98993,8.16E-03,9.44E-03
98994,8.08E-03,9.43E-03
98995,8.00E-03,9.42E-03
98996,6.65E-03,1.95E-02
98997,6.45E-03,1.97E-02
98998,6.18E-03,2.01E-02
98999,8.32E-03,2.05E-02
99000,5.15E-03,2.08E-02
99001,6.38E-03,2.09E-02
99002,6.87E-03,2.09E-02
99003,7.15E-03,2.09E-02
99004,7.21E-03,2.09E-02
99005,7.27E-03,2.09E-02
99006,7.41E-03,2.09E-02
99007,7.41E-03,2.10E-02
99008,7.44E-03,2.10E-02
99009,7.51E-03,2.10E-02
99010,7.51E-03,2.10E-02
99011,7.55E-03,2.10E-02
99012,7.56E-03,2.10E-02
99013,7.52E-03,2.10E-02
99014,7.41E-03,2.10E-02
99015,7.33E-03,2.10E-02
99016,7.34E-03,2.10E-02
99017,7.46E-03,2.10E-02
99018,7.70E-03,2.10E-02
99019,7.92E-03,2.10E-02
99020,8.01E-03,2.10E-02
99021,7.90E-03,2.10E-02
99022,7.98E-03,2.10E-02
99023,7.71E-03,2.10E-02
99024,7.15E-03,2.10E-02
99025,6.72E-03,2.10E-02
99026,6.93E-03,2.10E-02
99027,8.15E-03,2.10E-02
99028,8.13E-03,2.10E-02
99029,5.10E-03,9.30E-03
99030,6.44E-03,1.64E-02
99031,7.65E-03,1.30E-02
99032,6.07E-03,1.71E-02
99033,5.98E-03,1.68E-02
99034,6.97E-03,8.08E-03
99035,6.01E-03,1.13E-02
99036,7.77E-03,9.44E-03
99037,7.76E-03,9.43E-03
99038,8.53E-03,2.04E-02
99039,1.02E-02,2.03E-02
99040,1.15E-02,2.02E-02
99041,1.10E-02,2.01E-02
99042,1.06E-02,2.00E-02
99043,1.06E-02,1.99E-02
99044,1.03E-02,1.98E-02
99045,1.02E-02,1.98E-02
99046,1.01E-02,1.97E-02
99047,9.85E-03,1.97E-02
99048,9.65E-03,1.96E-02
99049,9.41E-03,1.96E-02
99050,9.32E-03,1.95E-02
99051,9.20E-03,1.95E-02
99052,9.10E-03,1.95E-02
99053,9.01E-03,1.95E-02
99054,8.93E-03,1.95E-02
99055,8.86E-03,1.95E-02
99056,8.79E-03,1.95E-02
99057,8.74E-03,1.95E-02
99058,8.69E-03,1.95E-02
99059,8.65E-03,1.95E-02
99060,8.62E-03,1.95E-02
99061,8.58E-03,1.95E-02
99062,8.55E-03,1.95E-02
99063,8.53E-03,1.95E-02
99064,8.50E-03,1.95E-02
99065,8.49E-03,1.95E-02
99066,8.46E-03,1.95E-02
99067,8.38E-03,1.96E-02
99068,8.27E-03,1.96E-02
99069,8.19E-03,1.96E-02
99070,8.16E-03,1.96E-02
99071,8.16E-03,1.96E-02
99072,8.16E-03,1.96E-02
99073,7.88E-03,1.96E-02
99074,7.23E-03,1.96E-02
99075,6.87E-03,1.96E-02
99076,6.79E-03,1.96E-02
99077,6.71E-03,1.96E-02
99078,6.58E-03,1.96E-02
99079,6.37E-03,1.96E-02
99080,6.13E-03,1.96E-02
99081,5.90E-03,1.96E-02
99082,5.72E-03,1.96E-02
99083,5.62E-03,1.95E-02
99084,5.61E-03,1.96E-02
99085,6.06E-03,1.96E-02
99086,4.91E-03,1.95E-02
99087,4.80E-03,1.94E-02
99088,4.97E-03,1.94E-02
99089,5.15E-03,1.93E-02
99090,5.55E-03,1.93E-02
99091,6.54E-03,1.92E-02
99092,6.79E-03,1.92E-02
99093,7.58E-03,1.91E-02
99094,7.91E-03,1.90E-02
99095,8.17E-03,1.90E-02
99096,8.63E-03,1.89E-02
99097,8.94E-03,1.89E-02
99098,8.67E-03,1.88E-02
99099,8.12E-03,1.41E-02
99100,8.13E-03,1.41E-02
99101,8.13E-03,1.41E-02
99102,8.13E-03,1.40E-02
99103,8.14E-03,1.40E-02
99104,8.14E-03,1.40E-02
99105,8.14E-03,1.40E-02
99106,8.14E-03,1.39E-02
99107,8.14E-03,1.39E-02
99108,8.14E-03,1.39E-02
99109,8.14E-03,1.39E-02
99110,8.14E-03,1.38E-02
99111,8.14E-03,1.38E-02
99112,8.14E-03,1.38E-02
99113,8.14E-03,1.38E-02
99114,8.15E-03,1.37E-02
99115,8.15E-03,1.37E-02
99116,8.15E-03,1.37E-02
99117,8.15E-03,1.36E-02
99118,8.15E-03,1.36E-02
99119,8.15E-03,1.36E-02
99120,8.15E-03,1.36E-02
99121,8.16E-03,1.35E-02
99122,8.16E-03,1.35E-02
99123,8.16E-03,1.35E-02
99124,8.16E-03,1.35E-02
99125,8.17E-03,1.34E-02
99126,8.17E-03,1.34E-02
99127,8.18E-03,1.34E-02
99128,8.18E-03,1.33E-02
99129,8.19E-03,1.33E-02
99130,8.20E-03,1.33E-02
99131,8.20E-03,1.33E-02
99132,8.20E-03,1.32E-02
99133,8.21E-03,1.32E-02
99134,8.22E-03,1.32E-02
99135,8.22E-03,1.32E-02
99136,8.23E-03,1.31E-02
99137,8.24E-03,1.31E-02
99138,8.25E-03,1.31E-02
99139,8.25E-03,1.31E-02
99140,8.26E-03,1.30E-02
99141,8.28E-03,1.30E-02
99142,8.29E-03,1.30E-02
99143,8.30E-03,1.29E-02
99144,8.32E-03,1.29E-02
99145,8.34E-03,1.29E-02
99146,8.35E-03,1.29E-02
99147,8.38E-03,1.29E-02
99148,8.40E-03,1.28E-02
99149,8.43E-03,1.28E-02
99150,8.47E-03,1.28E-02
99151,8.51E-03,1.28E-02
99152,8.55E-03,1.27E-02
99153,8.61E-03,1.27E-02
99154,8.68E-03,1.27E-02
99155,8.90E-03,1.27E-02
99156,8.98E-03,1.27E-02
99157,9.22E-03,1.26E-02
99158,9.50E-03,1.26E-02
99159,9.76E-03,1.26E-02
99160,9.93E-03,1.26E-02
99161,1.03E-02,1.26E-02
99162,1.04E-02,1.25E-02
99163,1.03E-02,1.25E-02
99164,1.00E-02,1.25E-02
99165,9.68E-03,1.25E-02
99166,9.41E-03,1.25E-02
99167,9.23E-03,1.24E-02
99168,9.05E-03,1.24E-02
99169,9.10E-03,1.24E-02
99170,9.23E-03,1.24E-02
99171,9.40E-03,1.24E-02
99172,9.66E-03,1.23E-02
99173,1.00E-02,1.23E-02
99174,1.01E-02,1.23E-02
99175,1.06E-02,1.23E-02
99176,8.64E-03,1.23E-02
99177,7.87E-03,1.22E-02
99178,6.77E-03,1.22E-02
99179,5.65E-03,1.22E-02
99180,5.29E-03,1.22E-02
99181,6.15E-03,1.22E-02
99182,6.27E-03,1.22E-02
99183,6.51E-03,1.22E-02
99184,6.71E-03,1.22E-02
99185,6.82E-03,1.22E-02
99186,7.15E-03,1.22E-02
99187,7.26E-03,1.22E-02
99188,7.34E-03,1.22E-02
99189,7.45E-03,1.21E-02
99190,7.58E-03,1.21E-02
99191,7.63E-03,1.21E-02
99192,7.63E-03,1.22E-02
99193,7.64E-03,1.22E-02
99194,8.22E-03,1.22E-02
99195,9.00E-03,1.22E-02
99196,9.03E-03,1.22E-02
99197,8.76E-03,1.22E-02
99198,8.62E-03,1.22E-02
99199,8.69E-03,1.22E-02
99200,8.96E-03,1.23E-02
99201,8.99E-03,1.23E-02
99202,9.28E-03,1.23E-02
99203,9.40E-03,1.23E-02
99204,9.49E-03,1.24E-02
99205,9.80E-03,1.24E-02
99206,9.75E-03,1.24E-02
99207,1.02E-02,1.25E-02
99208,1.01E-02,1.25E-02
99209,1.00E-02,1.26E-02
99210,8.01E-03,1.26E-02
99211,8.08E-03,1.27E-02
99212,8.17E-03,1.27E-02
99213,8.26E-03,1.28E-02
99214,8.36E-03,1.28E-02
99215,8.57E-03,1.29E-02
99216,7.67E-03,2.10E-02
99217,6.59E-03,1.48E-02
99218,6.40E-03,1.48E-02
99219,8.24E-03,1.48E-02
99220,6.96E-03,1.78E-02
99221,7.35E-03,1.77E-02
99222,8.65E-03,1.77E-02
99223,8.98E-03,1.76E-02
99224,9.13E-03,1.76E-02
99225,9.61E-03,1.75E-02
99226,9.46E-03,1.75E-02
99227,9.30E-03,1.74E-02
99228,8.30E-03,1.74E-02
99229,8.24E-03,1.73E-02
99230,7.92E-03,1.73E-02
99231,7.61E-03,1.73E-02
99232,7.66E-03,1.72E-02
99233,8.75E-03,1.72E-02
99234,1.01E-02,1.71E-02
99235,8.75E-03,1.71E-02
99236,7.98E-03,1.71E-02
99237,8.10E-03,9.55E-03
99238,8.01E-03,9.46E-03
99239,8.29E-03,9.52E-03
99240,6.22E-03,9.33E-03
99241,6.71E-03,9.34E-03
99242,7.79E-03,9.36E-03
99243,7.83E-03,9.41E-03
99244,8.75E-03,9.33E-03
99245,7.93E-03,9.33E-03
99246,6.60E-03,9.36E-03
99247,6.31E-03,9.36E-03
99248,8.10E-03,1.18E-02
99249,8.27E-03,1.27E-02
99250,9.66E-03,1.68E-02
99251,8.51E-03,1.67E-02
99252,7.74E-03,1.66E-02
99253,8.48E-03,1.70E-02
99254,9.81E-03,1.69E-02
99255,7.39E-03,9.37E-03
99256,8.40E-03,9.11E-03
99257,8.07E-03,9.12E-03
99258,7.47E-03,9.54E-03
99259,7.88E-03,9.54E-03
99260,6.38E-03,1.89E-02
99261,5.68E-03,1.69E-02
99262,6.37E-03,1.68E-02
99263,6.79E-03,1.70E-02
99264,7.14E-03,1.69E-02
99265,9.10E-03,9.24E-03
99266,8.54E-03,9.17E-03
99267,7.92E-03,9.32E-03
99268,8.19E-03,9.83E-03
99269,8.79E-03,9.96E-03
99270,6.72E-03,1.02E-02
99271,6.72E-03,1.03E-02
99272,7.40E-03,1.69E-02
99273,6.78E-03,1.52E-02
99274,7.54E-03,1.53E-02
99275,7.18E-03,1.54E-02
99276,8.13E-03,1.66E-02
99277,6.96E-03,1.42E-02
99278,7.69E-03,1.39E-02
99279,7.46E-03,1.38E-02
99280,7.59E-03,1.36E-02
99281,7.65E-03,1.31E-02
99282,6.74E-03,1.71E-02
99283,7.17E-03,1.71E-02
99284,8.75E-03,1.22E-02
99285,6.87E-03,1.46E-02
99286,8.72E-03,1.62E-02
99287,8.18E-03,1.50E-02
99288,6.29E-03,9.20E-03
99289,7.31E-03,9.24E-03
99290,4.69E-03,1.49E-02
99291,6.07E-03,1.47E-02
99292,8.21E-03,9.33E-03
99293,7.12E-03,9.35E-03
99294,8.43E-03,1.85E-02
99295,8.42E-03,1.85E-02
99296,8.01E-03,2.08E-02
99297,8.21E-03,1.77E-02
99298,8.67E-03,1.87E-02
99299,8.90E-03,1.67E-02
99300,6.69E-03,9.44E-03
99301,6.44E-03,9.37E-03
99302,8.18E-03,1.42E-02
99303,8.10E-03,1.42E-02
99304,8.24E-03,1.63E-02
99305,8.16E-03,1.62E-02
99306,9.99E-03,1.61E-02
99307,1.01E-02,1.60E-02
99308,9.76E-03,1.60E-02
99309,9.62E-03,1.59E-02
99310,9.43E-03,1.58E-02
99311,9.33E-03,1.57E-02
99312,9.26E-03,1.56E-02
99313,9.32E-03,1.55E-02
99314,9.42E-03,1.54E-02
99315,9.52E-03,1.53E-02
99316,9.61E-03,1.52E-02
99317,9.65E-03,1.51E-02
99318,9.66E-03,1.50E-02
99319,9.66E-03,1.49E-02
99320,9.67E-03,1.48E-02
99321,9.69E-03,1.47E-02
99322,9.72E-03,1.45E-02
99323,9.75E-03,1.44E-02
99324,9.78E-03,1.43E-02
99325,9.71E-03,1.41E-02
99326,9.61E-03,1.40E-02
99327,9.55E-03,1.38E-02
99328,9.45E-03,1.37E-02
99329,9.44E-03,1.35E-02
99330,9.16E-03,1.33E-02
99331,9.22E-03,1.32E-02
99332,8.91E-03,1.30E-02
99333,7.96E-03,1.64E-02
99334,7.37E-03,8.31E-03
99335,7.64E-03,1.18E-02
99336,7.40E-03,9.84E-03
99337,7.43E-03,2.11E-02
99338,6.46E-03,2.09E-02
99339,4.92E-03,2.10E-02
99340,6.58E-03,2.12E-02
99341,7.09E-03,9.10E-03
99342,6.82E-03,8.79E-03
99343,8.18E-03,9.46E-03
99344,7.69E-03,1.67E-02
99345,8.74E-03,1.88E-02
99346,8.71E-03,1.91E-02
99347,7.37E-03,9.42E-03
99348,7.27E-03,9.41E-03
99349,7.98E-03,9.35E-03
99350,7.27E-03,8.16E-03
99351,7.93E-03,1.71E-02
99352,7.03E-03,9.66E-03
99353,6.86E-03,9.73E-03
99354,7.21E-03,9.05E-03
99355,7.15E-03,9.04E-03
99356,7.99E-03,8.50E-03
99357,7.27E-03,8.18E-03
99358,7.34E-03,9.06E-03
99359,8.38E-03,8.94E-03
99360,7.68E-03,1.85E-02
99361,9.05E-03,9.33E-03
99362,7.93E-03,9.33E-03
99363,1.02E-02,1.08E-02
99364,8.70E-03,1.84E-02
99365,6.91E-03,1.80E-02
99366,8.01E-03,9.29E-03
99367,7.91E-03,9.42E-03
99368,8.10E-03,1.14E-02
99369,8.15E-03,1.25E-02
99370,8.55E-03,1.72E-02
99371,8.27E-03,1.72E-02
99372,7.49E-03,9.21E-03
99373,6.06E-03,9.07E-03
99374,6.43E-03,9.46E-03
99375,6.42E-03,9.45E-03
99376,7.95E-03,1.71E-02
99377,4.56E-03,1.72E-02
99378,8.30E-03,8.83E-03
99379,6.66E-03,1.01E-02
99380,7.78E-03,1.71E-02
99381,7.66E-03,1.71E-02
99382,7.12E-03,1.52E-02
99383,7.96E-03,1.27E-02
99384,8.14E-03,1.63E-02
99385,8.84E-03,1.61E-02
99386,8.84E-03,1.60E-02
99387,8.07E-03,9.30E-03
99388,4.80E-03,9.14E-03
99389,7.57E-03,1.85E-02
99390,7.63E-03,1.70E-02
99391,6.29E-03,8.50E-03
99392,7.61E-03,1.66E-02
99393,7.40E-03,1.65E-02
99394,6.38E-03,1.67E-02
99395,5.35E-03,7.89E-03
99396,8.70E-03,1.70E-02
99397,7.58E-03,9.23E-03
99398,7.62E-03,1.18E-02
99399,1.05E-02,1.70E-02
99400,1.06E-02,1.71E-02
99401,1.06E-02,1.72E-02
99402,1.02E-02,1.72E-02
99403,9.97E-03,1.73E-02
99404,9.53E-03,1.73E-02
99405,9.16E-03,1.74E-02
99406,5.10E-03,9.35E-03
99407,5.78E-03,9.32E-03
99408,5.21E-03,2.08E-02
99409,5.26E-03,2.11E-02
99410,8.24E-03,8.32E-03
99411,7.32E-03,1.85E-02
99412,8.40E-03,1.03E-02
99413,7.23E-03,1.01E-02
99414,7.45E-03,7.99E-03
99415,4.52E-03,7.88E-03
99416,5.41E-03,7.93E-03
99417,7.27E-03,9.59E-03
99418,8.54E-03,1.25E-02
99419,6.91E-03,1.47E-02
99420,8.95E-03,8.09E-03
99421,6.70E-03,1.63E-02
99422,5.75E-03,9.22E-03
99423,7.99E-03,9.04E-03
99424,1.09E-02,9.50E-03
99425,1.11E-02,9.48E-03
99426,1.04E-02,9.46E-03
99427,9.66E-03,9.44E-03
99428,8.49E-03,9.43E-03
99429,8.44E-03,9.41E-03
99430,8.49E-03,9.40E-03
99431,6.07E-03,9.38E-03
99432,6.08E-03,9.37E-03
99433,5.82E-03,9.34E-03
99434,7.03E-03,9.34E-03
99435,6.63E-03,9.35E-03
99436,6.73E-03,9.35E-03
99437,6.95E-03,9.35E-03
99438,7.24E-03,9.34E-03
99439,7.46E-03,9.34E-03
99440,7.50E-03,9.34E-03
99441,7.36E-03,9.34E-03
99442,7.11E-03,9.34E-03
99443,6.79E-03,9.34E-03
99444,6.46E-03,9.34E-03
99445,6.32E-03,9.34E-03
99446,6.27E-03,9.34E-03
99447,6.30E-03,9.34E-03
99448,7.91E-03,9.37E-03
99449,8.35E-03,9.37E-03
99450,9.10E-03,9.36E-03
99451,9.86E-03,9.36E-03
99452,1.02E-02,9.36E-03
99453,7.48E-03,9.36E-03
99454,7.49E-03,9.36E-03
99455,6.84E-03,9.36E-03
99456,5.22E-03,9.35E-03
99457,5.06E-03,9.35E-03
99458,4.96E-03,9.36E-03
99459,5.64E-03,9.36E-03
99460,8.45E-03,9.33E-03
99461,7.77E-03,9.36E-03
99462,8.29E-03,9.39E-03
99463,8.89E-03,9.38E-03
99464,8.83E-03,9.37E-03
99465,8.69E-03,9.37E-03
99466,8.43E-03,9.37E-03
99467,7.49E-03,9.37E-03
99468,5.91E-03,9.37E-03
99469,5.93E-03,9.36E-03
99470,5.93E-03,9.36E-03
99471,9.90E-03,1.19E-02
99472,8.92E-03,1.20E-02
99473,8.45E-03,1.22E-02
99474,8.49E-03,1.23E-02
99475,8.64E-03,1.24E-02
99476,8.48E-03,1.26E-02
99477,7.89E-03,1.66E-02
99478,8.77E-03,1.70E-02
99479,6.99E-03,9.37E-03
99480,9.44E-03,9.36E-03
99481,1.04E-02,9.36E-03
99482,1.06E-02,9.35E-03
99483,1.07E-02,9.34E-03
99484,1.05E-02,9.33E-03
99485,1.01E-02,9.31E-03
99486,9.99E-03,9.30E-03
99487,9.57E-03,9.29E-03
99488,9.33E-03,9.27E-03
99489,8.93E-03,9.26E-03
99490,8.22E-03,9.24E-03
99491,7.50E-03,9.23E-03
99492,7.40E-03,9.21E-03
99493,7.10E-03,9.20E-03
99494,6.98E-03,9.19E-03
99495,6.89E-03,9.18E-03
99496,6.73E-03,9.16E-03
99497,6.49E-03,9.15E-03
99498,6.24E-03,9.14E-03
99499,5.89E-03,9.13E-03
99500,5.50E-03,9.13E-03
99501,4.96E-03,9.13E-03
99502,3.95E-03,9.12E-03
99503,4.30E-03,9.11E-03
99504,4.46E-03,9.11E-03
99505,4.76E-03,9.11E-03
99506,4.91E-03,9.11E-03
99507,5.15E-03,9.11E-03
99508,6.08E-03,9.12E-03
99509,6.39E-03,9.12E-03
99510,7.47E-03,9.53E-03
99511,6.27E-03,1.92E-02
99512,6.37E-03,1.95E-02
99513,8.96E-03,2.05E-02
99514,9.55E-03,2.02E-02
99515,6.95E-03,1.98E-02
99516,8.69E-03,1.69E-02
99517,8.92E-03,9.20E-03
99518,8.22E-03,9.29E-03
99519,8.03E-03,9.31E-03
99520,8.40E-03,9.89E-03
99521,8.68E-03,9.95E-03
99522,7.59E-03,1.03E-02
99523,7.59E-03,1.03E-02
99524,7.50E-03,1.03E-02
99525,7.43E-03,1.69E-02
99526,8.95E-03,1.55E-02
99527,8.96E-03,1.55E-02
99528,1.12E-02,1.56E-02
99529,1.09E-02,1.57E-02
99530,1.08E-02,1.59E-02
99531,1.00E-02,1.60E-02
99532,9.58E-03,1.61E-02
99533,9.26E-03,1.62E-02
99534,8.99E-03,1.62E-02
99535,8.77E-03,1.63E-02
99536,8.66E-03,1.64E-02
99537,8.62E-03,1.65E-02
99538,8.53E-03,1.66E-02
99539,8.42E-03,1.67E-02
99540,8.40E-03,1.68E-02
99541,7.52E-03,1.68E-02
99542,7.95E-03,1.64E-02
99543,7.86E-03,1.41E-02
99544,7.29E-03,1.36E-02
99545,7.61E-03,1.34E-02
99546,7.64E-03,1.32E-02
99547,6.63E-03,1.71E-02
99548,8.64E-03,1.22E-02
99549,8.67E-03,1.23E-02
99550,1.15E-02,1.24E-02
99551,1.09E-02,1.25E-02
99552,1.07E-02,1.26E-02
99553,1.05E-02,1.27E-02
99554,1.01E-02,1.28E-02
99555,9.80E-03,1.28E-02
99556,9.41E-03,1.29E-02
99557,9.18E-03,1.30E-02
99558,9.01E-03,1.31E-02
99559,8.88E-03,1.32E-02
99560,8.78E-03,1.32E-02
99561,8.62E-03,1.33E-02
99562,8.53E-03,1.34E-02
99563,8.64E-03,1.35E-02
99564,8.88E-03,1.36E-02
99565,9.03E-03,1.36E-02
99566,8.44E-03,1.37E-02
99567,7.82E-03,1.38E-02
99568,7.78E-03,1.39E-02
99569,7.78E-03,1.39E-02
99570,7.78E-03,1.40E-02
99571,7.75E-03,1.41E-02
99572,7.69E-03,1.42E-02
99573,7.61E-03,1.42E-02
99574,7.44E-03,1.43E-02
99575,7.43E-03,1.44E-02
99576,7.30E-03,1.45E-02
99577,7.12E-03,1.45E-02
99578,9.51E-03,9.35E-03
99579,8.83E-03,1.61E-02
99580,7.71E-03,1.60E-02
99581,7.62E-03,1.59E-02
99582,7.69E-03,1.58E-02
99583,7.96E-03,1.57E-02
99584,8.03E-03,1.56E-02
99585,8.12E-03,1.55E-02
99586,8.17E-03,1.54E-02
99587,8.13E-03,1.53E-02
99588,8.14E-03,1.52E-02
99589,8.12E-03,1.51E-02
99590,8.32E-03,9.18E-03
99591,8.33E-03,9.19E-03
99592,1.06E-02,9.18E-03
99593,1.02E-02,9.18E-03
99594,9.91E-03,9.17E-03
99595,7.92E-03,9.17E-03
99596,6.75E-03,9.16E-03
99597,6.37E-03,9.15E-03
99598,6.14E-03,9.15E-03
99599,5.85E-03,9.15E-03
99600,5.48E-03,9.15E-03
99601,5.00E-03,9.15E-03
99602,4.33E-03,9.15E-03
99603,5.01E-03,9.15E-03
99604,5.16E-03,9.15E-03
99605,6.00E-03,9.17E-03
99606,5.92E-03,9.17E-03
99607,5.87E-03,9.19E-03
99608,5.85E-03,9.20E-03
99609,8.34E-03,9.21E-03
99610,8.49E-03,9.23E-03
99611,8.32E-03,9.24E-03
99612,9.54E-03,9.27E-03
99613,8.71E-03,9.29E-03
99614,8.52E-03,9.30E-03
99615,8.49E-03,9.31E-03
99616,8.26E-03,9.32E-03
99617,8.22E-03,9.33E-03
99618,8.09E-03,9.34E-03
99619,8.33E-03,9.35E-03
99620,9.91E-03,9.35E-03
99621,1.12E-02,9.36E-03
99622,1.07E-02,9.37E-03
99623,1.01E-02,9.37E-03
99624,9.93E-03,9.36E-03
99625,1.01E-02,9.36E-03
99626,1.02E-02,9.35E-03
99627,1.05E-02,9.34E-03
99628,1.10E-02,9.33E-03
99629,1.09E-02,9.32E-03
99630,1.07E-02,9.30E-03
99631,1.04E-02,9.27E-03
99632,1.02E-02,9.25E-03
99633,1.00E-02,9.22E-03
99634,9.83E-03,9.19E-03
99635,9.53E-03,9.16E-03
99636,9.40E-03,9.13E-03
99637,8.91E-03,9.10E-03
99638,8.70E-03,9.06E-03
99639,8.57E-03,9.03E-03
99640,8.48E-03,8.99E-03
99641,8.42E-03,8.96E-03
99642,8.37E-03,8.93E-03
99643,8.33E-03,8.89E-03
99644,8.18E-03,8.86E-03
99645,7.85E-03,8.82E-03
99646,7.63E-03,8.79E-03
99647,7.59E-03,8.76E-03
99648,7.56E-03,8.73E-03
99649,7.52E-03,8.70E-03
99650,7.47E-03,8.67E-03
99651,7.42E-03,8.64E-03
99652,7.36E-03,8.61E-03
99653,7.29E-03,8.58E-03
99654,7.21E-03,8.55E-03
99655,7.12E-03,8.53E-03
99656,7.00E-03,8.50E-03
99657,6.87E-03,8.48E-03
99658,6.68E-03,8.46E-03
99659,6.43E-03,8.44E-03
99660,6.38E-03,8.42E-03
99661,6.63E-03,8.40E-03
99662,6.87E-03,8.38E-03
99663,6.88E-03,8.37E-03
99664,6.74E-03,8.35E-03
99665,6.58E-03,8.34E-03
99666,6.33E-03,8.33E-03
99667,5.89E-03,8.32E-03
99668,5.80E-03,8.31E-03
99669,6.29E-03,8.30E-03
99670,6.62E-03,8.31E-03
99671,6.89E-03,8.33E-03
99672,5.73E-03,1.49E-02
99673,5.72E-03,1.48E-02
99674,6.06E-03,1.48E-02
99675,6.58E-03,1.47E-02
99676,6.69E-03,9.30E-03
99677,6.89E-03,9.32E-03
99678,8.92E-03,1.88E-02
99679,8.45E-03,1.86E-02
99680,8.45E-03,1.86E-02
99681,1.17E-02,1.87E-02
99682,9.11E-03,1.87E-02
99683,8.69E-03,1.91E-02
99684,8.75E-03,1.92E-02
99685,8.64E-03,1.92E-02
99686,8.18E-03,1.93E-02
99687,8.05E-03,1.94E-02
99688,7.50E-03,1.94E-02
99689,6.97E-03,1.95E-02
99690,6.18E-03,1.96E-02
99691,5.68E-03,1.96E-02
99692,5.28E-03,1.97E-02
99693,4.83E-03,1.97E-02
99694,4.61E-03,1.97E-02
99695,4.48E-03,1.98E-02
99696,4.41E-03,1.99E-02
99697,4.22E-03,1.98E-02
99698,4.73E-03,1.99E-02
99699,5.32E-03,1.99E-02
99700,5.63E-03,1.99E-02
99701,5.81E-03,1.99E-02
99702,6.21E-03,1.99E-02
99703,6.48E-03,1.99E-02
99704,6.60E-03,2.00E-02
99705,6.79E-03,2.00E-02
99706,6.85E-03,2.00E-02
99707,6.90E-03,2.00E-02
99708,7.26E-03,2.00E-02
99709,7.88E-03,2.00E-02
99710,8.15E-03,1.99E-02
99711,8.16E-03,1.99E-02
99712,8.16E-03,1.99E-02
99713,8.18E-03,1.99E-02
99714,8.27E-03,1.99E-02
99715,8.38E-03,1.99E-02
99716,8.45E-03,1.99E-02
99717,8.48E-03,1.99E-02
99718,8.49E-03,1.99E-02
99719,8.51E-03,1.98E-02
99720,8.54E-03,1.98E-02
99721,8.57E-03,1.98E-02
99722,8.60E-03,1.98E-02
99723,8.64E-03,1.98E-02
99724,8.68E-03,1.98E-02
99725,8.72E-03,1.98E-02
99726,8.78E-03,1.98E-02
99727,8.83E-03,1.98E-02
99728,8.90E-03,1.98E-02
99729,8.98E-03,1.98E-02
99730,9.07E-03,1.98E-02
99731,9.17E-03,1.99E-02
99732,9.28E-03,1.99E-02
99733,9.38E-03,1.99E-02
99734,9.48E-03,1.99E-02
99735,9.86E-03,2.00E-02
99736,9.93E-03,2.00E-02
99737,1.01E-02,2.01E-02
99738,1.03E-02,2.02E-02
99739,1.06E-02,2.02E-02
99740,1.06E-02,2.03E-02
99741,1.11E-02,2.04E-02
99742,1.13E-02,2.05E-02
99743,1.10E-02,2.06E-02
99744,8.15E-03,2.07E-02
99745,8.34E-03,1.78E-02
99746,8.55E-03,1.80E-02
99747,9.74E-03,1.82E-02
99748,1.00E-02,1.84E-02
99749,8.12E-03,1.43E-02
99750,8.13E-03,1.43E-02
99751,8.13E-03,1.43E-02
99752,8.13E-03,1.43E-02
99753,8.13E-03,1.44E-02
99754,8.13E-03,1.44E-02
99755,8.14E-03,1.44E-02
99756,8.15E-03,1.44E-02
99757,8.15E-03,1.45E-02
99758,8.15E-03,1.45E-02
99759,8.16E-03,1.45E-02
99760,8.16E-03,1.45E-02
99761,8.16E-03,1.46E-02
99762,8.17E-03,1.46E-02
99763,8.17E-03,1.46E-02
99764,8.17E-03,1.46E-02
99765,8.18E-03,1.47E-02
99766,8.18E-03,1.47E-02
99767,8.19E-03,1.47E-02
99768,8.20E-03,1.47E-02
99769,8.20E-03,1.48E-02
99770,8.21E-03,1.48E-02
99771,8.22E-03,1.48E-02
99772,8.23E-03,1.48E-02
99773,8.24E-03,1.49E-02
99774,8.25E-03,1.49E-02
99775,8.26E-03,1.49E-02
99776,8.28E-03,1.49E-02
99777,8.30E-03,1.50E-02
99778,8.32E-03,1.50E-02
99779,8.34E-03,1.50E-02
99780,8.38E-03,1.51E-02
99781,8.43E-03,1.51E-02
99782,8.47E-03,1.51E-02
99783,8.52E-03,1.51E-02
99784,8.58E-03,1.52E-02
99785,8.66E-03,1.52E-02
99786,8.76E-03,1.52E-02
99787,8.89E-03,1.53E-02
99788,9.07E-03,1.53E-02
99789,9.33E-03,1.53E-02
99790,9.74E-03,1.54E-02
99791,1.04E-02,1.54E-02
99792,1.02E-02,1.55E-02
99793,7.76E-03,1.55E-02
99794,6.18E-03,1.55E-02
99795,6.63E-03,1.56E-02
99796,6.94E-03,1.56E-02
99797,7.14E-03,1.56E-02
99798,7.30E-03,1.56E-02
99799,7.41E-03,1.57E-02
99800,7.50E-03,1.57E-02
99801,7.57E-03,1.57E-02
99802,7.63E-03,1.58E-02
99803,7.68E-03,1.58E-02
99804,7.72E-03,1.58E-02
99805,7.75E-03,1.59E-02
99806,7.78E-03,1.59E-02
99807,7.80E-03,1.59E-02
99808,7.82E-03,1.59E-02
99809,7.84E-03,1.60E-02
99810,7.86E-03,1.60E-02
99811,7.88E-03,1.60E-02
99812,7.89E-03,1.60E-02
99813,7.90E-03,1.61E-02
99814,7.91E-03,1.61E-02
99815,7.92E-03,1.61E-02
99816,7.93E-03,1.61E-02
99817,7.94E-03,1.62E-02
99818,7.94E-03,1.62E-02
99819,7.94E-03,1.62E-02
99820,7.93E-03,1.62E-02
99821,7.94E-03,1.62E-02
99822,7.97E-03,1.63E-02
99823,7.99E-03,1.63E-02
99824,8.00E-03,1.63E-02
99825,8.01E-03,1.63E-02
99826,8.02E-03,1.63E-02
99827,8.03E-03,1.63E-02
99828,8.03E-03,1.64E-02
99829,8.04E-03,1.64E-02
99830,8.09E-03,1.64E-02
99831,8.17E-03,1.64E-02
99832,8.21E-03,1.64E-02
99833,8.22E-03,1.64E-02
99834,8.23E-03,1.64E-02
99835,8.23E-03,1.65E-02
99836,8.24E-03,1.65E-02
99837,8.26E-03,1.65E-02
99838,8.27E-03,1.65E-02
99839,8.28E-03,1.65E-02
99840,8.30E-03,1.65E-02
99841,8.32E-03,1.65E-02
99842,8.34E-03,1.65E-02
99843,8.36E-03,1.66E-02
99844,8.39E-03,1.66E-02
99845,8.42E-03,1.66E-02
99846,8.46E-03,1.66E-02
99847,8.51E-03,1.66E-02
99848,8.56E-03,1.66E-02
99849,8.74E-03,1.67E-02
99850,9.13E-03,1.67E-02
99851,9.21E-03,1.67E-02
99852,9.46E-03,1.67E-02
99853,7.47E-03,1.70E-02
99854,7.12E-03,9.30E-03
99855,7.36E-03,9.32E-03
99856,8.12E-03,1.42E-02
99857,8.13E-03,1.41E-02
99858,8.13E-03,1.41E-02
99859,8.13E-03,1.41E-02
99860,8.13E-03,1.41E-02
99861,8.13E-03,1.40E-02
99862,8.14E-03,1.40E-02
99863,8.14E-03,1.40E-02
99864,8.14E-03,1.40E-02
99865,8.14E-03,1.39E-02
99866,8.14E-03,1.39E-02
99867,8.14E-03,1.39E-02
99868,8.14E-03,1.39E-02
99869,8.14E-03,1.38E-02
99870,8.14E-03,1.38E-02
99871,8.14E-03,1.38E-02
99872,8.15E-03,1.37E-02
99873,8.15E-03,1.37E-02
99874,8.15E-03,1.37E-02
99875,8.15E-03,1.37E-02
99876,8.15E-03,1.36E-02
99877,8.15E-03,1.36E-02
99878,8.15E-03,1.36E-02
99879,8.16E-03,1.35E-02
99880,8.16E-03,1.35E-02
99881,8.16E-03,1.35E-02
99882,8.17E-03,1.35E-02
99883,8.17E-03,1.34E-02
99884,8.17E-03,1.34E-02
99885,8.18E-03,1.34E-02
99886,8.19E-03,1.33E-02
99887,8.19E-03,1.33E-02
99888,8.20E-03,1.33E-02
99889,8.20E-03,1.32E-02
99890,8.21E-03,1.32E-02
99891,8.21E-03,1.32E-02
99892,8.22E-03,1.32E-02
99893,8.22E-03,1.31E-02
99894,8.23E-03,1.31E-02
99895,8.24E-03,1.31E-02
99896,8.25E-03,1.30E-02
99897,8.26E-03,1.30E-02
99898,8.27E-03,1.30E-02
99899,8.28E-03,1.30E-02
99900,8.30E-03,1.29E-02
99901,8.31E-03,1.29E-02
99902,8.33E-03,1.29E-02
99903,8.35E-03,1.29E-02
99904,8.37E-03,1.28E-02
99905,8.39E-03,1.28E-02
99906,8.42E-03,1.28E-02
99907,8.46E-03,1.28E-02
99908,8.50E-03,1.27E-02
99909,8.54E-03,1.27E-02
99910,8.60E-03,1.27E-02
99911,8.67E-03,1.27E-02
99912,8.87E-03,1.26E-02
99913,9.01E-03,1.26E-02
99914,9.19E-03,1.26E-02
99915,9.44E-03,1.26E-02
99916,9.79E-03,1.25E-02
99917,9.91E-03,1.25E-02
99918,1.02E-02,1.25E-02
99919,1.05E-02,1.25E-02
99920,1.00E-02,1.24E-02
99921,9.95E-03,1.24E-02
99922,9.71E-03,1.24E-02
99923,9.42E-03,1.24E-02
99924,9.15E-03,1.24E-02
99925,9.02E-03,1.23E-02
99926,9.07E-03,1.23E-02
99927,9.20E-03,1.23E-02
99928,9.36E-03,1.23E-02
99929,9.62E-03,1.22E-02
99930,9.87E-03,1.22E-02
99931,1.01E-02,1.22E-02
99932,1.06E-02,1.22E-02
99933,8.45E-03,1.22E-02
99934,8.43E-03,1.21E-02
99935,6.84E-03,1.21E-02
99936,5.56E-03,1.21E-02
99937,5.41E-03,1.21E-02
99938,6.02E-03,1.21E-02
99939,6.18E-03,1.21E-02
99940,6.62E-03,1.21E-02
99941,6.77E-03,1.20E-02
99942,6.86E-03,1.20E-02
99943,7.17E-03,1.20E-02
99944,7.28E-03,1.20E-02
99945,7.36E-03,1.20E-02
99946,7.47E-03,1.20E-02
99947,7.59E-03,1.20E-02
99948,7.64E-03,1.20E-02
99949,7.64E-03,1.20E-02
99950,7.65E-03,1.20E-02
99951,8.21E-03,1.20E-02
99952,8.97E-03,1.20E-02
99953,9.01E-03,1.20E-02
99954,8.74E-03,1.20E-02
99955,8.61E-03,1.21E-02
99956,8.68E-03,1.21E-02
99957,8.95E-03,1.21E-02
99958,9.04E-03,1.21E-02
99959,9.19E-03,1.21E-02
99960,9.30E-03,1.22E-02
99961,9.45E-03,1.22E-02
99962,9.73E-03,1.22E-02
99963,9.80E-03,1.23E-02
99964,1.01E-02,1.23E-02
99965,1.02E-02,1.24E-02
99966,9.67E-03,1.24E-02
99967,8.19E-03,1.25E-02
99968,7.98E-03,1.25E-02
99969,8.12E-03,1.26E-02
99970,8.24E-03,1.26E-02
99971,8.35E-03,1.27E-02
99972,8.47E-03,1.27E-02
99973,8.68E-03,1.28E-02
99974,8.20E-03,1.63E-02
99975,8.45E-03,1.63E-02
99976,9.64E-03,1.62E-02
99977,1.00E-02,1.61E-02
99978,9.65E-03,1.60E-02
99979,9.68E-03,1.59E-02
99980,9.41E-03,1.58E-02
99981,9.30E-03,1.57E-02
99982,9.23E-03,1.57E-02
99983,9.29E-03,1.56E-02
99984,9.38E-03,1.55E-02
99985,9.48E-03,1.54E-02
99986,9.57E-03,1.53E-02
99987,9.61E-03,1.52E-02
99988,9.62E-03,1.51E-02
99989,9.62E-03,1.49E-02
99990,9.63E-03,1.48E-02
99991,9.65E-03,1.47E-02
99992,9.68E-03,1.46E-02
99993,9.71E-03,1.45E-02
99994,9.74E-03,1.43E-02
99995,9.76E-03,1.42E-02
99996,9.71E-03,1.40E-02
99997,9.61E-03,1.39E-02
99998,9.62E-03,1.37E-02
99999,9.69E-03,1.36E-02
100000,9.48E-03,1.34E-02
100001,9.46E-03,1.32E-02
100002,9.22E-03,1.31E-02
100003,8.97E-03,1.29E-02
100004,7.34E-03,8.23E-03
100005,8.53E-03,8.32E-03
100006,7.72E-03,1.17E-02
100007,6.66E-03,1.17E-02
100008,6.66E-03,1.16E-02
100009,7.03E-03,1.16E-02
100010,7.22E-03,1.15E-02
100011,7.36E-03,1.15E-02
100012,7.47E-03,1.14E-02
100013,7.55E-03,1.14E-02
100014,7.62E-03,1.13E-02
100015,7.67E-03,1.13E-02
100016,7.72E-03,1.12E-02
100017,7.75E-03,1.12E-02
100018,7.79E-03,1.11E-02
100019,7.81E-03,1.10E-02
100020,7.84E-03,1.10E-02
100021,7.90E-03,1.09E-02
100022,7.94E-03,1.09E-02
100023,7.94E-03,1.08E-02
100024,7.93E-03,1.08E-02
100025,7.92E-03,1.07E-02
100026,7.92E-03,1.07E-02
100027,7.91E-03,1.06E-02
100028,7.90E-03,1.06E-02
100029,7.90E-03,1.05E-02
100030,7.89E-03,1.05E-02
100031,7.88E-03,1.04E-02
100032,7.87E-03,1.04E-02
100033,7.86E-03,1.03E-02
100034,7.85E-03,1.03E-02
100035,7.84E-03,1.03E-02
100036,7.82E-03,1.02E-02
100037,7.81E-03,1.02E-02
100038,7.80E-03,1.01E-02
100039,7.78E-03,1.01E-02
100040,7.67E-03,1.00E-02
100041,7.59E-03,1.00E-02
100042,7.48E-03,9.97E-03
100043,7.38E-03,9.93E-03
100044,7.47E-03,9.89E-03
100045,8.36E-03,9.85E-03
100046,8.33E-03,9.84E-03
100047,7.00E-03,2.12E-02
100048,6.07E-03,2.13E-02
100049,5.47E-03,2.13E-02
100050,7.70E-03,8.81E-03
100051,8.13E-03,9.15E-03
100052,8.47E-03,8.83E-03
100053,6.94E-03,1.65E-02
100054,8.04E-03,9.22E-03
100055,7.34E-03,2.06E-02
100056,8.45E-03,9.65E-03
100057,8.94E-03,9.27E-03
100058,8.66E-03,1.27E-02
100059,9.37E-03,8.49E-03
100060,7.10E-03,8.07E-03
100061,7.97E-03,1.72E-02
100062,6.81E-03,9.63E-03
100063,6.26E-03,1.20E-02
100064,6.82E-03,8.90E-03
100065,6.44E-03,8.90E-03
100066,7.28E-03,9.03E-03
100067,7.80E-03,8.21E-03
100068,7.20E-03,8.91E-03
100069,7.98E-03,8.65E-03
100070,7.21E-03,2.13E-02
100071,6.57E-03,2.14E-02
100072,7.65E-03,9.33E-03
100073,7.65E-03,9.32E-03
100074,6.29E-03,1.10E-02
100075,9.19E-03,1.84E-02
100076,9.35E-03,1.83E-02
100077,9.79E-03,1.83E-02
100078,9.89E-03,1.83E-02
100079,9.87E-03,1.83E-02
100080,9.67E-03,1.83E-02
100081,9.39E-03,1.82E-02
100082,9.00E-03,1.82E-02
100083,9.02E-03,1.82E-02
100084,8.87E-03,1.82E-02
100085,8.86E-03,1.82E-02
100086,8.83E-03,1.82E-02
100087,8.80E-03,1.82E-02
100088,8.77E-03,1.82E-02
100089,8.72E-03,1.82E-02
100090,8.66E-03,1.83E-02
100091,8.61E-03,1.83E-02
100092,8.56E-03,1.83E-02
100093,8.52E-03,1.83E-02
100094,8.49E-03,1.83E-02
100095,8.46E-03,1.83E-02
100096,8.43E-03,1.83E-02
100097,8.41E-03,1.83E-02
100098,8.39E-03,1.83E-02
100099,8.37E-03,1.83E-02
100100,8.35E-03,1.83E-02
100101,8.33E-03,1.84E-02
100102,8.32E-03,1.84E-02
100103,8.31E-03,1.84E-02
100104,8.30E-03,1.84E-02
100105,8.29E-03,1.84E-02
100106,8.28E-03,1.84E-02
100107,8.27E-03,1.84E-02
100108,8.26E-03,1.84E-02
100109,8.25E-03,1.84E-02
100110,8.24E-03,1.84E-02
100111,8.23E-03,1.84E-02
100112,8.22E-03,1.84E-02
100113,8.22E-03,1.84E-02
100114,8.21E-03,1.84E-02
100115,8.21E-03,1.84E-02
100116,8.18E-03,1.84E-02
100117,8.09E-03,1.84E-02
100118,8.03E-03,1.84E-02
100119,8.01E-03,1.84E-02
100120,7.99E-03,1.84E-02
100121,7.96E-03,1.84E-02
100122,7.92E-03,1.84E-02
100123,7.84E-03,1.84E-02
100124,7.73E-03,1.84E-02
100125,7.73E-03,1.84E-02
100126,7.77E-03,1.84E-02
100127,7.74E-03,1.84E-02
100128,7.71E-03,1.84E-02
100129,7.67E-03,1.84E-02
100130,7.63E-03,1.83E-02
100131,7.57E-03,1.83E-02
100132,7.41E-03,1.83E-02
100133,7.32E-03,1.83E-02
100134,7.05E-03,1.83E-02
100135,6.98E-03,1.82E-02
100136,6.86E-03,1.82E-02
100137,6.83E-03,1.82E-02
100138,6.73E-03,1.82E-02
100139,6.63E-03,1.81E-02
100140,7.09E-03,1.80E-02
100141,7.31E-03,1.80E-02
100142,8.93E-03,1.79E-02
100143,9.14E-03,1.79E-02
100144,9.28E-03,1.78E-02
100145,9.50E-03,1.77E-02
100146,9.49E-03,1.77E-02
100147,9.27E-03,1.76E-02
100148,8.27E-03,1.76E-02
100149,8.24E-03,1.75E-02
100150,7.89E-03,1.75E-02
100151,7.65E-03,1.75E-02
100152,7.73E-03,1.74E-02
100153,7.64E-03,1.74E-02
100154,8.39E-03,1.74E-02
100155,1.04E-02,1.74E-02
100156,8.82E-03,1.74E-02
100157,8.49E-03,9.28E-03
100158,1.06E-02,9.27E-03
100159,7.56E-03,9.26E-03
100160,7.62E-03,9.26E-03
100161,8.00E-03,9.27E-03
100162,9.43E-03,9.43E-03
100163,8.08E-03,9.41E-03
100164,6.24E-03,9.26E-03
100165,6.35E-03,9.21E-03
100166,5.86E-03,9.24E-03
100167,5.99E-03,9.24E-03
100168,8.10E-03,1.15E-02
100169,8.23E-03,1.24E-02
100170,8.95E-03,1.68E-02
100171,8.80E-03,1.68E-02
100172,7.84E-03,1.66E-02
100173,8.33E-03,1.71E-02
100174,9.06E-03,1.69E-02
100175,7.67E-03,9.21E-03
100176,5.84E-03,8.91E-03
100177,7.49E-03,8.88E-03
100178,7.34E-03,8.91E-03
100179,7.71E-03,9.44E-03
100180,8.05E-03,9.43E-03
100181,8.45E-03,1.73E-02
100182,7.48E-03,1.70E-02
100183,7.39E-03,1.71E-02
100184,8.80E-03,8.94E-03
100185,8.47E-03,8.88E-03
100186,7.85E-03,9.17E-03
100187,8.07E-03,9.15E-03
100188,8.27E-03,9.52E-03
100189,7.44E-03,9.97E-03
100190,6.10E-03,1.00E-02
100191,7.67E-03,1.70E-02
100192,6.89E-03,1.53E-02
100193,7.21E-03,1.53E-02
100194,7.13E-03,1.54E-02
100195,8.23E-03,1.62E-02
100196,8.43E-03,1.40E-02
100197,7.79E-03,1.36E-02
100198,7.39E-03,1.35E-02
100199,6.71E-03,1.32E-02
100200,7.98E-03,1.28E-02
100201,6.10E-03,1.73E-02
100202,6.96E-03,1.73E-02
100203,8.25E-03,1.21E-02
100204,7.10E-03,1.46E-02
100205,8.55E-03,9.29E-03
100206,8.38E-03,1.88E-02
100207,8.48E-03,1.87E-02
100208,9.03E-03,1.59E-02
100209,7.88E-03,1.45E-02
100210,7.99E-03,1.46E-02
100211,6.15E-03,9.01E-03
100212,7.18E-03,9.02E-03
100213,7.30E-03,1.49E-02
100214,7.14E-03,9.21E-03
100215,6.84E-03,9.21E-03
100216,8.32E-03,1.88E-02
100217,7.67E-03,2.12E-02
100218,8.14E-03,1.83E-02
100219,8.59E-03,1.69E-02
100220,7.59E-03,9.19E-03
100221,8.18E-03,1.43E-02
100222,8.10E-03,1.43E-02
100223,6.94E-03,8.48E-03
100224,5.10E-03,8.28E-03
100225,6.59E-03,9.18E-03
100226,8.54E-03,1.72E-02
100227,6.86E-03,1.71E-02
100228,7.69E-03,1.64E-02
100229,8.06E-03,9.28E-03
100230,6.68E-03,9.22E-03
100231,7.59E-03,9.17E-03
100232,7.83E-03,1.63E-02
100233,7.53E-03,1.63E-02
100234,7.97E-03,1.52E-02
100235,6.87E-03,7.90E-03
100236,8.14E-03,1.71E-02
100237,7.66E-03,9.10E-03
100238,8.85E-03,9.18E-03
100239,7.99E-03,1.43E-02
100240,7.44E-03,1.41E-02
100241,8.31E-03,1.59E-02
100242,8.95E-03,1.57E-02
100243,8.95E-03,1.56E-02
100244,7.21E-03,9.74E-03
100245,7.52E-03,1.17E-02
100246,6.14E-03,9.35E-03
100247,6.35E-03,9.34E-03
100248,8.75E-03,1.74E-02
100249,8.49E-03,1.73E-02
100250,8.22E-03,1.73E-02
100251,8.12E-03,1.72E-02
100252,8.14E-03,1.22E-02
100253,8.18E-03,1.21E-02
100254,8.38E-03,1.05E-02
100255,7.99E-03,1.11E-02
100256,8.14E-03,9.22E-03
100257,7.39E-03,9.23E-03
100258,7.73E-03,9.31E-03
100259,7.86E-03,9.27E-03
100260,5.00E-03,9.26E-03
100261,6.75E-03,2.11E-02
100262,6.51E-03,2.13E-02
100263,6.82E-03,2.13E-02
100264,7.07E-03,2.13E-02
100265,7.14E-03,2.13E-02
100266,7.24E-03,2.13E-02
100267,7.38E-03,2.14E-02
100268,7.54E-03,2.14E-02
100269,7.56E-03,2.14E-02
100270,7.61E-03,2.14E-02
100271,7.66E-03,2.14E-02
100272,7.75E-03,2.14E-02
100273,7.73E-03,2.14E-02
100274,7.64E-03,2.14E-02
100275,7.59E-03,2.14E-02
100276,7.57E-03,2.14E-02
100277,7.61E-03,2.14E-02
100278,7.67E-03,2.14E-02
100279,7.75E-03,2.15E-02
100280,7.86E-03,2.15E-02
100281,7.93E-03,2.15E-02
100282,7.90E-03,2.15E-02
100283,7.77E-03,2.15E-02
100284,7.58E-03,2.15E-02
100285,7.36E-03,2.15E-02
100286,7.25E-03,2.15E-02
100287,7.43E-03,2.15E-02
100288,7.53E-03,2.15E-02
100289,7.29E-03,2.16E-02
100290,7.09E-03,2.15E-02
100291,8.25E-03,2.15E-02
100292,7.28E-03,2.09E-02
100293,7.57E-03,1.17E-02
100294,6.10E-03,1.65E-02
100295,8.39E-03,1.66E-02
100296,6.08E-03,1.89E-02
100297,7.47E-03,1.67E-02
100298,4.90E-03,1.73E-02
100299,7.30E-03,9.19E-03
100300,6.38E-03,9.18E-03
100301,6.31E-03,2.14E-02
100302,7.29E-03,8.08E-03
100303,7.95E-03,7.87E-03
100304,7.70E-03,1.81E-02
100305,6.80E-03,9.94E-03
100306,6.13E-03,9.73E-03
100307,8.53E-03,1.81E-02
100308,5.87E-03,1.01E-02
100309,5.55E-03,9.89E-03
100310,5.41E-03,7.59E-03
100311,5.65E-03,7.72E-03
100312,4.90E-03,7.69E-03
100313,7.19E-03,8.39E-03
100314,7.94E-03,8.36E-03
100315,5.52E-03,8.77E-03
100316,4.93E-03,8.76E-03
100317,8.14E-03,1.24E-02
100318,1.08E-02,1.71E-02
100319,1.07E-02,1.72E-02
100320,1.04E-02,1.72E-02
100321,1.04E-02,1.73E-02
100322,1.00E-02,1.73E-02
100323,9.81E-03,1.74E-02
100324,9.77E-03,1.75E-02
100325,9.06E-03,1.75E-02
100326,7.53E-03,9.06E-03
100327,7.73E-03,8.91E-03
100328,8.24E-03,8.54E-03
100329,8.09E-03,8.23E-03
100330,6.80E-03,8.90E-03
100331,5.41E-03,1.20E-02
100332,7.23E-03,9.56E-03
100333,7.12E-03,9.53E-03
100334,7.95E-03,1.72E-02
100335,8.00E-03,1.72E-02
100336,6.44E-03,7.90E-03
100337,6.88E-03,7.80E-03
100338,7.96E-03,1.71E-02
100339,8.14E-03,1.72E-02
100340,8.02E-03,1.73E-02
100341,8.20E-03,1.91E-02
100342,8.23E-03,9.25E-03
100343,1.10E-02,9.39E-03
100344,1.10E-02,9.37E-03
100345,1.03E-02,9.35E-03
100346,9.62E-03,9.33E-03
100347,8.64E-03,9.32E-03
100348,8.55E-03,9.30E-03
100349,8.63E-03,9.28E-03
100350,5.79E-03,9.27E-03
100351,5.79E-03,9.25E-03
100352,5.41E-03,9.23E-03
100353,4.78E-03,9.21E-03
100354,5.65E-03,9.23E-03
100355,6.19E-03,9.23E-03
100356,6.49E-03,9.23E-03
100357,6.86E-03,9.23E-03
100358,7.19E-03,9.23E-03
100359,7.41E-03,9.23E-03
100360,7.51E-03,9.22E-03
100361,7.45E-03,9.22E-03
100362,7.03E-03,9.22E-03
100363,6.69E-03,9.22E-03
100364,6.58E-03,9.22E-03
100365,6.52E-03,9.22E-03
100366,6.52E-03,9.22E-03
100367,6.61E-03,9.22E-03
100368,7.65E-03,9.26E-03
100369,8.59E-03,9.24E-03
100370,8.89E-03,9.24E-03
100371,1.00E-02,9.24E-03
100372,1.04E-02,9.24E-03
100373,7.47E-03,9.23E-03
100374,7.48E-03,9.23E-03
100375,6.65E-03,9.23E-03
100376,5.34E-03,9.22E-03
100377,5.15E-03,9.23E-03
100378,5.04E-03,9.22E-03
100379,5.36E-03,9.23E-03
100380,7.36E-03,9.23E-03
100381,8.49E-03,9.26E-03
100382,9.50E-03,9.24E-03
100383,9.19E-03,9.24E-03
100384,8.95E-03,9.24E-03
100385,8.10E-03,9.24E-03
100386,7.65E-03,9.24E-03
100387,6.09E-03,9.23E-03
100388,6.00E-03,9.23E-03
100389,5.98E-03,9.23E-03
100390,9.88E-03,1.16E-02
100391,8.84E-03,1.17E-02
100392,8.52E-03,1.18E-02
100393,8.51E-03,1.20E-02
100394,8.52E-03,1.21E-02
100395,8.35E-03,1.23E-02
100396,8.43E-03,1.22E-02
100397,7.93E-03,1.67E-02
100398,8.98E-03,1.70E-02
100399,6.13E-03,9.20E-03
100400,9.81E-03,9.20E-03
100401,1.00E-02,9.19E-03
100402,1.08E-02,9.19E-03
100403,1.08E-02,9.17E-03
100404,1.05E-02,9.16E-03
100405,1.00E-02,9.15E-03
100406,9.96E-03,9.14E-03
100407,9.39E-03,9.12E-03
100408,9.35E-03,9.10E-03
100409,8.91E-03,9.09E-03
100410,8.22E-03,9.07E-03
100411,7.56E-03,9.06E-03
100412,7.37E-03,9.04E-03
100413,7.16E-03,9.03E-03
100414,7.06E-03,9.01E-03
100415,6.90E-03,9.00E-03
100416,6.79E-03,8.99E-03
100417,6.59E-03,8.98E-03
100418,6.34E-03,8.97E-03
100419,6.10E-03,8.96E-03
100420,5.60E-03,8.95E-03
100421,4.59E-03,8.94E-03
100422,4.05E-03,8.94E-03
100423,4.35E-03,8.93E-03
100424,4.55E-03,8.93E-03
100425,4.86E-03,8.93E-03
100426,4.96E-03,8.93E-03
100427,5.31E-03,8.94E-03
100428,5.93E-03,8.94E-03
100429,6.40E-03,8.94E-03
100430,7.75E-03,9.43E-03
100431,6.55E-03,1.92E-02
100432,7.88E-03,2.01E-02
100433,8.05E-03,1.98E-02
100434,7.88E-03,1.95E-02
100435,8.74E-03,1.74E-02
100436,8.96E-03,1.77E-02
100437,8.64E-03,1.76E-02
100438,7.74E-03,1.71E-02
100439,8.66E-03,8.91E-03
100440,8.40E-03,9.14E-03
100441,8.06E-03,9.16E-03
100442,7.97E-03,9.12E-03
100443,7.73E-03,9.12E-03
100444,7.71E-03,9.12E-03
100445,1.08E-02,9.13E-03
100446,8.55E-03,9.13E-03
100447,8.43E-03,9.58E-03
100448,8.53E-03,9.62E-03
100449,7.31E-03,1.00E-02
100450,7.21E-03,1.00E-02
100451,7.70E-03,1.69E-02
100452,9.05E-03,1.55E-02
100453,8.91E-03,1.56E-02
100454,1.11E-02,1.57E-02
100455,1.09E-02,1.58E-02
100456,1.07E-02,1.59E-02
100457,1.02E-02,1.60E-02
100458,9.44E-03,1.61E-02
100459,9.14E-03,1.62E-02
100460,8.88E-03,1.63E-02
100461,8.82E-03,1.64E-02
100462,8.64E-03,1.65E-02
100463,8.61E-03,1.65E-02
100464,8.58E-03,1.66E-02
100465,8.54E-03,1.67E-02
100466,8.42E-03,1.68E-02
100467,7.93E-03,1.69E-02
100468,8.32E-03,1.60E-02
100469,8.43E-03,1.38E-02
100470,6.76E-03,1.33E-02
100471,7.71E-03,1.31E-02
100472,7.91E-03,1.29E-02
100473,6.76E-03,1.73E-02
100474,8.38E-03,1.22E-02
100475,8.54E-03,1.23E-02
100476,1.14E-02,1.24E-02
100477,1.08E-02,1.24E-02
100478,1.08E-02,1.25E-02
100479,1.03E-02,1.26E-02
100480,1.01E-02,1.27E-02
100481,9.81E-03,1.28E-02
100482,9.38E-03,1.29E-02
100483,9.15E-03,1.30E-02
100484,8.99E-03,1.30E-02
100485,8.86E-03,1.31E-02
100486,8.76E-03,1.32E-02
100487,8.60E-03,1.33E-02
100488,8.52E-03,1.34E-02
100489,8.62E-03,1.34E-02
100490,8.86E-03,1.35E-02
100491,9.01E-03,1.36E-02
100492,8.43E-03,1.37E-02
100493,7.82E-03,1.38E-02
100494,7.79E-03,1.38E-02
100495,7.79E-03,1.39E-02
100496,7.78E-03,1.40E-02
100497,7.76E-03,1.41E-02
100498,7.70E-03,1.41E-02
100499,7.63E-03,1.42E-02
100500,7.48E-03,1.43E-02
100501,7.43E-03,1.44E-02
100502,7.33E-03,1.44E-02
100503,7.21E-03,1.45E-02
100504,8.71E-03,9.24E-03
100505,9.11E-03,1.87E-02
100506,9.28E-03,1.86E-02
100507,9.77E-03,1.86E-02
100508,9.91E-03,1.86E-02
100509,9.81E-03,1.86E-02
100510,9.54E-03,1.85E-02
100511,9.36E-03,1.85E-02
100512,9.08E-03,1.85E-02
100513,8.93E-03,1.85E-02
100514,8.85E-03,1.85E-02
100515,8.84E-03,1.85E-02
100516,8.81E-03,1.85E-02
100517,8.78E-03,1.85E-02
100518,8.75E-03,1.85E-02
100519,8.71E-03,1.85E-02
100520,8.65E-03,1.85E-02
100521,8.59E-03,1.85E-02
100522,8.55E-03,1.85E-02
100523,8.51E-03,1.86E-02
100524,8.48E-03,1.86E-02
100525,8.45E-03,1.86E-02
100526,8.42E-03,1.86E-02
100527,8.40E-03,1.86E-02
100528,8.38E-03,1.86E-02
100529,8.36E-03,1.86E-02
100530,8.34E-03,1.86E-02
100531,8.33E-03,1.86E-02
100532,8.31E-03,1.86E-02
100533,8.30E-03,1.86E-02
100534,8.29E-03,1.86E-02
100535,8.28E-03,1.87E-02
100536,8.27E-03,1.87E-02
100537,8.26E-03,1.87E-02
100538,8.25E-03,1.87E-02
100539,8.24E-03,1.87E-02
100540,8.23E-03,1.87E-02
100541,8.23E-03,1.87E-02
100542,8.22E-03,1.87E-02
100543,8.21E-03,1.87E-02
100544,8.21E-03,1.87E-02
100545,8.20E-03,1.87E-02
100546,8.18E-03,1.87E-02
100547,8.09E-03,1.87E-02
100548,8.03E-03,1.87E-02
100549,8.01E-03,1.87E-02
100550,7.99E-03,1.87E-02
100551,7.97E-03,1.87E-02
100552,7.92E-03,1.87E-02
100553,7.84E-03,1.87E-02
100554,7.74E-03,1.86E-02
100555,7.74E-03,1.86E-02
100556,7.78E-03,1.86E-02
100557,7.75E-03,1.86E-02
100558,7.72E-03,1.86E-02
100559,7.68E-03,1.86E-02
100560,7.64E-03,1.86E-02
100561,7.59E-03,1.86E-02
100562,7.42E-03,1.85E-02
100563,7.36E-03,1.85E-02
100564,7.06E-03,1.85E-02
100565,6.98E-03,1.85E-02
100566,6.87E-03,1.84E-02
100567,6.76E-03,1.84E-02
100568,6.68E-03,1.84E-02
100569,6.67E-03,1.84E-02
100570,6.66E-03,1.83E-02
100571,7.12E-03,1.82E-02
100572,7.19E-03,1.82E-02
100573,9.20E-03,1.81E-02
100574,9.28E-03,1.81E-02
100575,9.36E-03,1.80E-02
100576,9.38E-03,1.80E-02
100577,9.49E-03,1.79E-02
100578,9.24E-03,1.78E-02
100579,8.32E-03,1.78E-02
100580,8.25E-03,1.77E-02
100581,7.96E-03,1.77E-02
100582,7.33E-03,1.76E-02
100583,7.47E-03,1.76E-02
100584,9.57E-03,1.57E-02
100585,7.40E-03,1.56E-02
100586,7.56E-03,1.55E-02
100587,7.79E-03,1.54E-02
100588,8.02E-03,1.53E-02
100589,8.04E-03,1.52E-02
100590,8.12E-03,1.51E-02
100591,8.17E-03,1.50E-02
100592,8.13E-03,1.49E-02
100593,8.17E-03,1.48E-02
100594,8.05E-03,1.48E-02
100595,5.52E-03,9.00E-03
100596,7.48E-03,8.96E-03
100597,8.17E-03,8.99E-03
100598,1.00E-02,8.98E-03
100599,1.03E-02,8.98E-03
100600,9.86E-03,8.97E-03
100601,7.92E-03,8.97E-03
100602,6.79E-03,8.96E-03
100603,6.42E-03,8.95E-03
100604,6.19E-03,8.95E-03
100605,5.91E-03,8.94E-03
100606,5.55E-03,8.94E-03
100607,5.08E-03,8.94E-03
100608,4.44E-03,8.94E-03
100609,5.23E-03,8.94E-03
100610,5.31E-03,8.94E-03
100611,5.90E-03,8.96E-03
100612,5.93E-03,8.97E-03
100613,5.85E-03,8.97E-03
100614,5.78E-03,8.98E-03
100615,8.64E-03,9.00E-03
100616,8.58E-03,9.00E-03
100617,8.51E-03,9.00E-03
100618,5.13E-03,9.08E-03
100619,8.96E-03,9.05E-03
100620,8.70E-03,9.07E-03
100621,8.51E-03,9.08E-03
100622,8.49E-03,9.09E-03
100623,8.23E-03,9.10E-03
100624,8.16E-03,9.11E-03
100625,8.09E-03,9.11E-03
100626,8.32E-03,9.12E-03
100627,9.86E-03,9.12E-03
100628,1.11E-02,9.13E-03
100629,1.06E-02,9.13E-03
100630,1.00E-02,9.13E-03
100631,9.83E-03,9.13E-03
100632,1.00E-02,9.12E-03
100633,1.01E-02,9.11E-03
100634,1.06E-02,9.10E-03
100635,1.10E-02,9.09E-03
100636,1.10E-02,9.07E-03
100637,1.06E-02,9.05E-03
100638,1.04E-02,9.03E-03
100639,1.01E-02,9.00E-03
100640,9.91E-03,8.98E-03
100641,9.69E-03,8.95E-03
100642,9.52E-03,8.92E-03
100643,9.30E-03,8.88E-03
100644,8.89E-03,8.85E-03
100645,8.69E-03,8.81E-03
100646,8.56E-03,8.78E-03
100647,8.47E-03,8.75E-03
100648,8.41E-03,8.71E-03
100649,8.36E-03,8.68E-03
100650,8.33E-03,8.64E-03
100651,8.18E-03,8.61E-03
100652,7.85E-03,8.57E-03
100653,7.64E-03,8.54E-03
100654,7.61E-03,8.50E-03
100655,7.57E-03,8.47E-03
100656,7.53E-03,8.44E-03
100657,7.49E-03,8.41E-03
100658,7.44E-03,8.38E-03
100659,7.38E-03,8.35E-03
100660,7.31E-03,8.32E-03
100661,7.23E-03,8.29E-03
100662,7.14E-03,8.27E-03
100663,7.03E-03,8.24E-03
100664,6.90E-03,8.22E-03
100665,6.72E-03,8.19E-03
100666,6.48E-03,8.17E-03
100667,6.42E-03,8.15E-03
100668,6.67E-03,8.13E-03
100669,6.90E-03,8.11E-03
100670,6.91E-03,8.10E-03
100671,6.78E-03,8.08E-03
100672,6.62E-03,8.07E-03
100673,6.38E-03,8.06E-03
100674,5.95E-03,8.05E-03
100675,5.93E-03,8.04E-03
100676,6.43E-03,8.03E-03
100677,6.84E-03,8.04E-03
100678,7.20E-03,8.06E-03
100679,6.58E-03,1.49E-02
100680,6.48E-03,1.48E-02
100681,6.46E-03,1.48E-02
100682,6.85E-03,9.19E-03
100683,8.37E-03,1.89E-02
100684,8.50E-03,1.89E-02
100685,1.17E-02,1.90E-02
100686,9.19E-03,1.91E-02
100687,9.33E-03,1.90E-02
100688,8.61E-03,1.94E-02
100689,8.79E-03,1.94E-02
100690,8.40E-03,1.94E-02
100691,8.56E-03,1.95E-02
100692,8.36E-03,1.96E-02
100693,8.23E-03,1.97E-02
100694,7.40E-03,1.97E-02
100695,6.99E-03,1.98E-02
100696,6.17E-03,1.99E-02
100697,5.92E-03,2.00E-02
100698,5.08E-03,2.00E-02
100699,4.62E-03,2.00E-02
100700,4.47E-03,2.01E-02
100701,4.42E-03,2.01E-02
100702,4.07E-03,2.02E-02
100703,4.03E-03,2.01E-02
100704,4.34E-03,2.02E-02
100705,4.68E-03,2.02E-02
100706,5.01E-03,2.02E-02
100707,5.60E-03,2.02E-02
100708,5.65E-03,2.02E-02
100709,6.34E-03,2.03E-02
100710,6.60E-03,2.03E-02
100711,6.62E-03,2.03E-02
100712,6.87E-03,2.03E-02
100713,6.94E-03,2.03E-02
100714,6.93E-03,2.03E-02
100715,7.28E-03,2.03E-02
100716,7.89E-03,2.03E-02
100717,8.15E-03,2.03E-02
100718,8.16E-03,2.03E-02
100719,8.16E-03,2.03E-02
100720,8.18E-03,2.02E-02
100721,8.26E-03,2.02E-02
100722,8.37E-03,2.02E-02
100723,8.44E-03,2.02E-02
100724,8.47E-03,2.02E-02
100725,8.48E-03,2.02E-02
100726,8.50E-03,2.02E-02
100727,8.53E-03,2.02E-02
100728,8.56E-03,2.01E-02
100729,8.59E-03,2.01E-02
100730,8.62E-03,2.01E-02
100731,8.66E-03,2.01E-02
100732,8.71E-03,2.01E-02
100733,8.76E-03,2.01E-02
100734,8.81E-03,2.01E-02
100735,8.88E-03,2.01E-02
100736,8.96E-03,2.02E-02
100737,9.05E-03,2.02E-02
100738,9.14E-03,2.02E-02
100739,9.25E-03,2.02E-02
100740,9.34E-03,2.02E-02
100741,9.49E-03,2.03E-02
100742,9.68E-03,2.03E-02
100743,9.82E-03,2.04E-02
100744,1.02E-02,2.04E-02
100745,1.03E-02,2.05E-02
100746,1.05E-02,2.06E-02
100747,1.06E-02,2.07E-02
100748,1.10E-02,2.08E-02
100749,1.11E-02,2.09E-02
100750,1.12E-02,2.10E-02
100751,8.22E-03,2.11E-02
100752,7.29E-03,1.77E-02
100753,9.13E-03,1.80E-02
100754,8.12E-03,1.43E-02
100755,8.13E-03,1.44E-02
100756,8.13E-03,1.44E-02
100757,8.13E-03,1.44E-02
100758,8.13E-03,1.44E-02
100759,8.13E-03,1.45E-02
100760,8.13E-03,1.45E-02
100761,8.14E-03,1.45E-02
100762,8.15E-03,1.45E-02
100763,8.15E-03,1.46E-02
100764,8.15E-03,1.46E-02
100765,8.16E-03,1.46E-02
100766,8.16E-03,1.46E-02
100767,8.16E-03,1.47E-02
100768,8.17E-03,1.47E-02
100769,8.17E-03,1.47E-02
100770,8.18E-03,1.48E-02
100771,8.18E-03,1.48E-02
100772,8.19E-03,1.48E-02
100773,8.19E-03,1.48E-02
100774,8.20E-03,1.49E-02
100775,8.21E-03,1.49E-02
100776,8.22E-03,1.49E-02
100777,8.22E-03,1.49E-02
100778,8.24E-03,1.50E-02
100779,8.25E-03,1.50E-02
100780,8.26E-03,1.50E-02
100781,8.27E-03,1.51E-02
100782,8.29E-03,1.51E-02
100783,8.31E-03,1.51E-02
100784,8.34E-03,1.51E-02
100785,8.37E-03,1.52E-02
100786,8.42E-03,1.52E-02
100787,8.46E-03,1.52E-02
100788,8.51E-03,1.53E-02
100789,8.57E-03,1.53E-02
100790,8.64E-03,1.53E-02
100791,8.74E-03,1.54E-02
100792,8.86E-03,1.54E-02
100793,9.04E-03,1.54E-02
100794,9.30E-03,1.55E-02
100795,9.69E-03,1.55E-02
100796,1.03E-02,1.55E-02
100797,1.01E-02,1.56E-02
100798,7.77E-03,1.56E-02
100799,6.23E-03,1.57E-02
100800,6.67E-03,1.57E-02
100801,6.97E-03,1.57E-02
100802,7.17E-03,1.57E-02
100803,7.32E-03,1.58E-02
100804,7.43E-03,1.58E-02
100805,7.52E-03,1.58E-02
100806,7.58E-03,1.59E-02
100807,7.64E-03,1.59E-02
100808,7.69E-03,1.59E-02
100809,7.73E-03,1.60E-02
100810,7.76E-03,1.60E-02
100811,7.79E-03,1.60E-02
100812,7.81E-03,1.60E-02
100813,7.83E-03,1.61E-02
100814,7.85E-03,1.61E-02
100815,7.87E-03,1.61E-02
100816,7.88E-03,1.62E-02
100817,7.89E-03,1.62E-02
100818,7.91E-03,1.62E-02
100819,7.92E-03,1.62E-02
100820,7.93E-03,1.63E-02
100821,7.93E-03,1.63E-02
100822,7.94E-03,1.63E-02
100823,7.95E-03,1.63E-02
100824,7.94E-03,1.64E-02
100825,7.93E-03,1.64E-02
100826,7.94E-03,1.64E-02
100827,7.97E-03,1.64E-02
100828,7.99E-03,1.64E-02
100829,8.00E-03,1.65E-02
100830,8.01E-03,1.65E-02
100831,8.02E-03,1.65E-02
100832,8.03E-03,1.65E-02
100833,8.03E-03,1.65E-02
100834,8.04E-03,1.65E-02
100835,8.09E-03,1.66E-02
100836,8.17E-03,1.66E-02
100837,8.21E-03,1.66E-02
100838,8.21E-03,1.66E-02
100839,8.22E-03,1.66E-02
100840,8.23E-03,1.66E-02
100841,8.24E-03,1.66E-02
100842,8.25E-03,1.67E-02
100843,8.26E-03,1.67E-02
100844,8.28E-03,1.67E-02
100845,8.29E-03,1.67E-02
100846,8.31E-03,1.67E-02
100847,8.33E-03,1.67E-02
100848,8.35E-03,1.67E-02
100849,8.38E-03,1.67E-02
100850,8.41E-03,1.68E-02
100851,8.45E-03,1.68E-02
100852,8.49E-03,1.68E-02
100853,8.55E-03,1.68E-02
100854,8.72E-03,1.68E-02
100855,9.08E-03,1.68E-02
100856,9.15E-03,1.69E-02
100857,9.42E-03,1.69E-02
100858,5.92E-03,1.71E-02
100859,7.57E-03,9.22E-03
100860,8.12E-03,1.42E-02
100861,8.13E-03,1.42E-02
100862,8.13E-03,1.42E-02
100863,8.13E-03,1.42E-02
100864,8.13E-03,1.41E-02
100865,8.13E-03,1.41E-02
100866,8.13E-03,1.41E-02
100867,8.13E-03,1.40E-02
100868,8.14E-03,1.40E-02
100869,8.14E-03,1.40E-02
100870,8.14E-03,1.40E-02
100871,8.14E-03,1.39E-02
100872,8.14E-03,1.39E-02
100873,8.14E-03,1.39E-02
100874,8.14E-03,1.38E-02
100875,8.14E-03,1.38E-02
100876,8.14E-03,1.38E-02
100877,8.14E-03,1.37E-02
100878,8.15E-03,1.37E-02
100879,8.15E-03,1.37E-02
100880,8.15E-03,1.37E-02
100881,8.15E-03,1.36E-02
100882,8.15E-03,1.36E-02
100883,8.15E-03,1.36E-02
100884,8.16E-03,1.35E-02
100885,8.16E-03,1.35E-02
100886,8.16E-03,1.35E-02
100887,8.17E-03,1.34E-02
100888,8.17E-03,1.34E-02
100889,8.18E-03,1.34E-02
100890,8.18E-03,1.34E-02
100891,8.19E-03,1.33E-02
100892,8.19E-03,1.33E-02
100893,8.20E-03,1.33E-02
100894,8.20E-03,1.32E-02
100895,8.21E-03,1.32E-02
100896,8.21E-03,1.32E-02
100897,8.22E-03,1.31E-02
100898,8.23E-03,1.31E-02
100899,8.24E-03,1.31E-02
100900,8.25E-03,1.30E-02
100901,8.25E-03,1.30E-02
100902,8.27E-03,1.30E-02
100903,8.28E-03,1.29E-02
100904,8.29E-03,1.29E-02
100905,8.31E-03,1.29E-02
100906,8.32E-03,1.29E-02
100907,8.34E-03,1.28E-02
100908,8.36E-03,1.28E-02
100909,8.39E-03,1.28E-02
100910,8.41E-03,1.27E-02
100911,8.45E-03,1.27E-02
100912,8.48E-03,1.27E-02
100913,8.53E-03,1.27E-02
100914,8.58E-03,1.26E-02
100915,8.70E-03,1.26E-02
100916,8.78E-03,1.26E-02
100917,9.05E-03,1.26E-02
100918,9.15E-03,1.25E-02
100919,9.42E-03,1.25E-02
100920,9.69E-03,1.25E-02
100921,9.84E-03,1.25E-02
100922,1.02E-02,1.24E-02
100923,1.05E-02,1.24E-02
100924,1.01E-02,1.24E-02
100925,9.82E-03,1.23E-02
100926,9.56E-03,1.23E-02
100927,9.38E-03,1.23E-02
100928,9.11E-03,1.23E-02
100929,9.01E-03,1.22E-02
100930,9.05E-03,1.22E-02
100931,9.17E-03,1.22E-02
100932,9.33E-03,1.22E-02
100933,9.53E-03,1.22E-02
100934,9.78E-03,1.21E-02
100935,1.01E-02,1.21E-02
100936,1.06E-02,1.21E-02
100937,8.69E-03,1.20E-02
100938,8.68E-03,1.20E-02
100939,6.60E-03,1.20E-02
100940,5.29E-03,1.20E-02
100941,5.28E-03,1.20E-02
100942,6.13E-03,1.20E-02
100943,6.22E-03,1.19E-02
100944,6.62E-03,1.19E-02
100945,6.80E-03,1.19E-02
100946,6.91E-03,1.19E-02
100947,7.20E-03,1.19E-02
100948,7.30E-03,1.19E-02
100949,7.38E-03,1.19E-02
100950,7.49E-03,1.19E-02
100951,7.60E-03,1.19E-02
100952,7.66E-03,1.19E-02
100953,7.65E-03,1.19E-02
100954,7.66E-03,1.19E-02
100955,8.21E-03,1.19E-02
100956,8.95E-03,1.19E-02
100957,8.98E-03,1.19E-02
100958,8.73E-03,1.19E-02
100959,8.59E-03,1.19E-02
100960,8.66E-03,1.19E-02
100961,8.93E-03,1.19E-02
100962,9.02E-03,1.19E-02
100963,9.11E-03,1.20E-02
100964,9.25E-03,1.20E-02
100965,9.41E-03,1.20E-02
100966,9.62E-03,1.20E-02
100967,9.83E-03,1.21E-02
100968,1.01E-02,1.21E-02
100969,1.01E-02,1.22E-02
100970,9.47E-03,1.22E-02
100971,8.35E-03,1.23E-02
100972,8.03E-03,1.23E-02
100973,7.98E-03,1.24E-02
100974,8.03E-03,1.24E-02
100975,8.18E-03,1.25E-02
100976,8.34E-03,1.25E-02
100977,8.45E-03,1.26E-02
100978,8.70E-03,8.51E-03
100979,8.67E-03,8.17E-03
100980,8.78E-03,1.72E-02
100981,6.90E-03,1.78E-02
100982,8.37E-03,8.80E-03
100983,8.45E-03,7.82E-03
100984,6.31E-03,1.65E-02
100985,8.14E-03,1.66E-02
100986,6.56E-03,1.27E-02
100987,7.08E-03,9.11E-03
100988,8.11E-03,1.64E-02
100989,8.79E-03,1.63E-02
100990,9.89E-03,1.62E-02
100991,9.87E-03,1.61E-02
100992,9.72E-03,1.60E-02
100993,9.61E-03,1.60E-02
100994,9.43E-03,1.59E-02
100995,9.26E-03,1.58E-02
100996,9.20E-03,1.57E-02
100997,9.26E-03,1.56E-02
100998,9.35E-03,1.55E-02
100999,9.45E-03,1.54E-02
101000,9.53E-03,1.53E-02
101001,9.57E-03,1.52E-02
101002,9.57E-03,1.51E-02
101003,9.57E-03,1.50E-02
101004,9.58E-03,1.49E-02
101005,9.61E-03,1.48E-02
101006,9.63E-03,1.46E-02
101007,9.66E-03,1.45E-02
101008,9.69E-03,1.44E-02
101009,9.71E-03,1.42E-02
101010,9.74E-03,1.41E-02
101011,9.76E-03,1.40E-02
101012,9.71E-03,1.38E-02
101013,9.69E-03,1.37E-02
101014,9.65E-03,1.35E-02
101015,9.69E-03,1.33E-02
101016,9.71E-03,1.31E-02
101017,9.41E-03,1.29E-02
101018,8.91E-03,1.28E-02
101019,8.02E-03,1.91E-02
101020,6.01E-03,1.59E-02
101021,6.06E-03,1.58E-02
101022,7.89E-03,1.51E-02
101023,7.30E-03,7.96E-03
101024,7.82E-03,7.91E-03
101025,7.68E-03,8.77E-03
101026,8.04E-03,1.72E-02
101027,8.13E-03,9.04E-03
101028,7.49E-03,1.39E-02
101029,9.07E-03,1.55E-02
101030,7.11E-03,9.62E-03
101031,7.12E-03,1.17E-02
101032,7.39E-03,1.16E-02
101033,7.30E-03,1.21E-02
101034,1.11E-02,1.37E-02
101035,6.28E-03,9.68E-03
101036,7.66E-03,9.03E-03
101037,8.41E-03,8.64E-03
101038,7.60E-03,9.34E-03
101039,8.10E-03,1.71E-02
101040,8.89E-03,1.69E-02
101041,8.54E-03,1.68E-02
101042,8.19E-03,1.21E-02
101043,7.27E-03,1.07E-02
101044,7.82E-03,1.08E-02
101045,7.26E-03,9.22E-03
101046,7.45E-03,9.22E-03
101047,7.53E-03,9.20E-03
101048,7.30E-03,1.17E-02
101049,7.75E-03,9.19E-03
101050,7.89E-03,8.06E-03
101051,5.11E-03,7.82E-03
101052,8.09E-03,2.13E-02
101053,6.72E-03,2.17E-02
101054,7.74E-03,1.17E-02
101055,6.67E-03,1.16E-02
101056,6.70E-03,1.16E-02
101057,7.06E-03,1.15E-02
101058,7.24E-03,1.15E-02
101059,7.38E-03,1.14E-02
101060,7.48E-03,1.13E-02
101061,7.57E-03,1.13E-02
101062,7.63E-03,1.12E-02
101063,7.68E-03,1.12E-02
101064,7.73E-03,1.11E-02
101065,7.76E-03,1.11E-02
101066,7.79E-03,1.10E-02
101067,7.82E-03,1.10E-02
101068,7.85E-03,1.09E-02
101069,7.91E-03,1.09E-02
101070,7.94E-03,1.08E-02
101071,7.94E-03,1.07E-02
101072,7.93E-03,1.07E-02
101073,7.93E-03,1.06E-02
101074,7.92E-03,1.06E-02
101075,7.92E-03,1.05E-02
101076,7.91E-03,1.05E-02
101077,7.90E-03,1.04E-02
101078,7.89E-03,1.04E-02
101079,7.88E-03,1.03E-02
101080,7.88E-03,1.03E-02
101081,7.87E-03,1.03E-02
101082,7.85E-03,1.02E-02
101083,7.84E-03,1.02E-02
101084,7.83E-03,1.01E-02
101085,7.82E-03,1.01E-02
101086,7.80E-03,1.00E-02
101087,7.79E-03,9.99E-03
101088,7.71E-03,9.95E-03
101089,7.61E-03,9.91E-03
101090,7.53E-03,9.87E-03
101091,7.46E-03,9.83E-03
101092,7.56E-03,9.79E-03
101093,8.00E-03,9.75E-03
101094,7.26E-03,1.76E-02
101095,7.47E-03,1.76E-02
101096,8.30E-03,1.76E-02
101097,5.99E-03,1.76E-02
101098,8.46E-03,9.66E-03
101099,8.46E-03,9.65E-03
101100,6.49E-03,9.16E-03
101101,7.38E-03,9.12E-03
101102,7.14E-03,9.13E-03
101103,4.51E-03,9.09E-03
101104,5.79E-03,9.08E-03
101105,6.24E-03,9.09E-03
101106,8.07E-03,1.66E-02
101107,7.53E-03,8.70E-03
101108,7.06E-03,8.74E-03
101109,9.52E-03,9.31E-03
101110,6.43E-03,1.86E-02
101111,9.39E-03,1.67E-02
101112,7.08E-03,9.65E-03
101113,7.42E-03,1.53E-02
101114,7.37E-03,1.53E-02
101115,7.43E-03,1.54E-02
101116,8.04E-03,1.73E-02
101117,6.60E-03,1.73E-02
101118,6.23E-03,1.75E-02
101119,6.68E-03,1.75E-02
101120,7.44E-03,9.17E-03
101121,5.67E-03,9.11E-03
101122,5.27E-03,1.77E-02
101123,8.08E-03,9.73E-03
101124,6.12E-03,9.69E-03
101125,8.51E-03,2.13E-02
101126,7.14E-03,2.15E-02
101127,6.79E-03,2.16E-02
101128,6.90E-03,2.17E-02
101129,7.01E-03,2.17E-02
101130,7.10E-03,2.17E-02
101131,7.35E-03,2.18E-02
101132,7.38E-03,2.18E-02
101133,7.58E-03,2.18E-02
101134,7.64E-03,2.18E-02
101135,7.69E-03,2.18E-02
101136,7.73E-03,2.18E-02
101137,7.76E-03,2.18E-02
101138,7.79E-03,2.18E-02
101139,7.82E-03,2.19E-02
101140,7.78E-03,2.19E-02
101141,7.74E-03,2.19E-02
101142,7.75E-03,2.19E-02
101143,7.78E-03,2.19E-02
101144,7.84E-03,2.19E-02
101145,7.92E-03,2.19E-02
101146,7.94E-03,2.19E-02
101147,7.95E-03,2.19E-02
101148,7.83E-03,2.19E-02
101149,7.74E-03,2.19E-02
101150,7.63E-03,2.19E-02
101151,7.50E-03,2.19E-02
101152,7.53E-03,2.20E-02
101153,7.53E-03,2.20E-02
101154,7.55E-03,2.20E-02
101155,7.53E-03,2.20E-02
101156,8.78E-03,2.20E-02
101157,6.55E-03,2.20E-02
101158,6.07E-03,2.21E-02
101159,6.74E-03,2.15E-02
101160,7.45E-03,2.17E-02
101161,5.72E-03,2.18E-02
101162,6.60E-03,7.82E-03
101163,8.61E-03,1.40E-02
101164,9.52E-03,1.37E-02
101165,6.09E-03,9.09E-03
101166,6.64E-03,9.08E-03
101167,1.02E-02,9.13E-03
101168,9.47E-03,1.94E-02
101169,8.14E-03,2.15E-02
101170,7.82E-03,1.79E-02
101171,9.85E-03,1.71E-02
101172,6.49E-03,9.08E-03
101173,8.17E-03,1.44E-02
101174,8.10E-03,1.43E-02
101175,7.95E-03,9.71E-03
101176,8.17E-03,9.44E-03
101177,7.89E-03,1.02E-02
101178,6.94E-03,9.11E-03
101179,5.44E-03,8.16E-03
101180,7.86E-03,1.97E-02
101181,7.07E-03,1.16E-02
101182,7.98E-03,1.78E-02
101183,7.57E-03,1.79E-02
101184,5.76E-03,1.75E-02
101185,6.43E-03,9.82E-03
101186,7.59E-03,7.61E-03
101187,6.42E-03,7.52E-03
101188,8.43E-03,1.77E-02
101189,8.27E-03,8.06E-03
101190,6.39E-03,7.47E-03
101191,7.69E-03,8.68E-03
101192,7.86E-03,9.30E-03
101193,7.65E-03,9.19E-03
101194,7.99E-03,1.12E-02
101195,7.86E-03,1.09E-02
101196,8.31E-03,1.20E-02
101197,8.13E-03,1.19E-02
101198,8.14E-03,1.18E-02
101199,8.14E-03,1.17E-02
101200,8.79E-03,1.69E-02
101201,8.11E-03,1.68E-02
101202,8.59E-03,1.75E-02
101203,7.97E-03,1.74E-02
101204,7.81E-03,1.74E-02
101205,7.93E-03,1.73E-02
101206,7.89E-03,1.72E-02
101207,7.94E-03,1.71E-02
101208,9.02E-03,1.69E-02
101209,9.09E-03,1.70E-02
101210,7.74E-03,9.06E-03
101211,7.95E-03,8.89E-03
101212,6.42E-03,9.25E-03
101213,6.98E-03,9.23E-03
101214,7.32E-03,9.23E-03
101215,8.36E-03,2.07E-02
101216,6.77E-03,1.74E-02
101217,8.43E-03,8.33E-03
101218,8.40E-03,8.57E-03
101219,8.50E-03,8.26E-03
101220,7.43E-03,8.88E-03
101221,8.45E-03,9.20E-03
101222,8.75E-03,8.87E-03
101223,6.81E-03,9.48E-03
101224,7.06E-03,9.36E-03
101225,7.99E-03,1.71E-02
101226,8.17E-03,1.71E-02
101227,6.79E-03,1.61E-02
101228,6.79E-03,1.59E-02
101229,9.88E-03,1.33E-02
101230,1.15E-02,1.32E-02
101231,7.55E-03,1.31E-02
101232,7.81E-03,1.33E-02
101233,7.74E-03,1.29E-02
101234,7.49E-03,1.28E-02
101235,8.25E-03,1.25E-02
101236,8.55E-03,1.22E-02
101237,9.19E-03,1.50E-02
101238,8.16E-03,1.50E-02
101239,7.14E-03,1.20E-02
101240,7.51E-03,1.17E-02
101241,7.37E-03,1.16E-02
101242,7.21E-03,9.51E-03
101243,8.71E-03,1.55E-02
101244,8.91E-03,1.53E-02
101245,9.03E-03,1.52E-02
101246,9.04E-03,1.51E-02
101247,7.54E-03,1.43E-02
101248,7.61E-03,1.39E-02
101249,9.10E-03,8.96E-03
101250,8.50E-03,8.91E-03
101251,1.06E-02,1.72E-02
101252,1.05E-02,1.72E-02
101253,1.04E-02,1.73E-02
101254,1.06E-02,1.74E-02
101255,9.97E-03,1.74E-02
101256,9.96E-03,1.75E-02
101257,1.00E-02,1.75E-02
101258,9.42E-03,1.76E-02
101259,8.67E-03,1.76E-02
101260,8.11E-03,1.73E-02
101261,8.27E-03,8.74E-03
101262,8.14E-03,7.92E-03
101263,6.42E-03,8.76E-03
101264,9.60E-03,8.99E-03
101265,9.96E-03,8.85E-03
101266,9.61E-03,8.84E-03
101267,6.55E-03,8.86E-03
101268,7.23E-03,8.67E-03
101269,7.05E-03,7.69E-03
101270,6.37E-03,7.59E-03
101271,6.83E-03,7.52E-03
101272,6.66E-03,1.51E-02
101273,7.62E-03,1.51E-02
101274,7.36E-03,1.63E-02
101275,6.60E-03,1.59E-02
101276,6.91E-03,1.18E-02
101277,6.90E-03,1.19E-02
101278,7.40E-03,9.45E-03
101279,7.46E-03,9.43E-03
101280,8.14E-03,1.73E-02
101281,8.17E-03,1.73E-02
101282,7.94E-03,1.73E-02
101283,8.36E-03,1.90E-02
101284,8.24E-03,1.93E-02
101285,7.97E-03,1.94E-02
101286,7.86E-03,1.94E-02
101287,7.23E-03,1.46E-02
101288,5.43E-03,1.29E-02
101289,9.56E-03,1.28E-02
101290,9.67E-03,8.98E-03
101291,6.71E-03,1.26E-02
101292,7.45E-03,1.46E-02
101293,1.10E-02,9.28E-03
101294,1.09E-02,9.26E-03
101295,1.03E-02,9.24E-03
101296,9.58E-03,9.22E-03
101297,8.74E-03,9.20E-03
101298,8.63E-03,9.19E-03
101299,8.49E-03,9.17E-03
101300,5.73E-03,9.16E-03
101301,5.60E-03,9.14E-03
101302,5.35E-03,9.12E-03
101303,4.91E-03,9.11E-03
101304,4.75E-03,9.12E-03
101305,3.93E-03,9.13E-03
101306,4.50E-03,9.12E-03
101307,5.17E-03,9.11E-03
101308,5.68E-03,9.11E-03
101309,6.40E-03,9.11E-03
101310,6.76E-03,9.11E-03
101311,7.15E-03,9.11E-03
101312,7.44E-03,9.11E-03
101313,7.48E-03,9.11E-03
101314,7.47E-03,9.11E-03
101315,7.06E-03,9.10E-03
101316,6.77E-03,9.10E-03
101317,6.61E-03,9.10E-03
101318,6.60E-03,9.10E-03
101319,6.66E-03,9.10E-03
101320,7.13E-03,9.11E-03
101321,8.32E-03,9.07E-03
101322,7.91E-03,9.11E-03
101323,6.19E-03,8.97E-03
101324,7.30E-03,8.92E-03
101325,8.02E-03,9.01E-03
101326,8.58E-03,9.12E-03
101327,9.02E-03,9.12E-03
101328,1.02E-02,9.11E-03
101329,1.05E-02,9.11E-03
101330,7.64E-03,9.11E-03
101331,7.64E-03,9.10E-03
101332,6.65E-03,9.10E-03
101333,5.24E-03,9.10E-03
101334,5.12E-03,9.09E-03
101335,5.32E-03,9.09E-03
101336,5.92E-03,9.08E-03
101337,6.86E-03,9.08E-03
101338,9.92E-03,9.11E-03
101339,9.58E-03,9.10E-03
101340,9.39E-03,9.11E-03
101341,7.58E-03,9.11E-03
101342,7.35E-03,9.11E-03
101343,6.35E-03,9.10E-03
101344,6.05E-03,9.09E-03
101345,6.10E-03,9.09E-03
101346,9.86E-03,1.13E-02
101347,8.70E-03,1.14E-02
101348,8.61E-03,1.15E-02
101349,8.49E-03,1.16E-02
101350,8.49E-03,1.17E-02
101351,8.33E-03,1.20E-02
101352,8.40E-03,1.19E-02
101353,8.14E-03,1.67E-02
101354,8.96E-03,1.70E-02
101355,5.74E-03,9.04E-03
101356,9.78E-03,9.04E-03
101357,9.76E-03,9.03E-03
101358,1.10E-02,9.02E-03
101359,1.07E-02,9.01E-03
101360,1.05E-02,9.00E-03
101361,1.01E-02,8.98E-03
101362,9.68E-03,8.97E-03
101363,9.44E-03,8.95E-03
101364,9.31E-03,8.93E-03
101365,8.89E-03,8.92E-03
101366,8.21E-03,8.90E-03
101367,7.58E-03,8.88E-03
101368,7.39E-03,8.87E-03
101369,7.25E-03,8.85E-03
101370,7.08E-03,8.84E-03
101371,6.90E-03,8.83E-03
101372,6.85E-03,8.81E-03
101373,6.67E-03,8.80E-03
101374,6.44E-03,8.79E-03
101375,6.18E-03,8.78E-03
101376,5.63E-03,8.77E-03
101377,4.81E-03,8.75E-03
101378,4.23E-03,8.75E-03
101379,4.24E-03,8.75E-03
101380,4.78E-03,8.75E-03
101381,5.05E-03,8.75E-03
101382,5.01E-03,8.75E-03
101383,5.38E-03,8.76E-03
101384,5.66E-03,8.75E-03
101385,6.38E-03,8.75E-03
101386,7.01E-03,9.13E-03
101387,7.79E-03,9.16E-03
101388,7.73E-03,9.34E-03
101389,8.21E-03,9.33E-03
101390,6.97E-03,1.88E-02
101391,8.36E-03,2.03E-02
101392,7.80E-03,1.98E-02
101393,7.83E-03,1.95E-02
101394,7.76E-03,1.92E-02
101395,9.65E-03,1.69E-02
101396,8.58E-03,1.71E-02
101397,7.74E-03,1.73E-02
101398,8.54E-03,8.61E-03
101399,8.19E-03,9.00E-03
101400,7.91E-03,8.96E-03
101401,7.76E-03,8.97E-03
101402,7.70E-03,8.98E-03
101403,1.05E-02,8.98E-03
101404,9.30E-03,8.98E-03
101405,8.58E-03,9.25E-03
101406,8.56E-03,9.30E-03
101407,8.46E-03,9.35E-03
101408,8.06E-03,9.36E-03
101409,8.06E-03,9.38E-03
101410,6.63E-03,9.11E-03
101411,6.46E-03,9.02E-03
101412,6.72E-03,9.30E-03
101413,7.28E-03,9.67E-03
101414,7.00E-03,9.68E-03
101415,8.04E-03,1.70E-02
101416,8.81E-03,1.55E-02
101417,8.76E-03,1.56E-02
101418,1.12E-02,1.57E-02
101419,1.09E-02,1.58E-02
101420,1.05E-02,1.59E-02
101421,1.02E-02,1.60E-02
101422,9.27E-03,1.61E-02
101423,9.00E-03,1.62E-02
101424,8.94E-03,1.63E-02
101425,8.87E-03,1.64E-02
101426,8.63E-03,1.65E-02
101427,8.59E-03,1.66E-02
101428,8.57E-03,1.67E-02
101429,8.59E-03,1.68E-02
101430,8.56E-03,1.69E-02
101431,8.43E-03,1.69E-02
101432,8.32E-03,1.56E-02
101433,8.99E-03,1.34E-02
101434,6.45E-03,1.30E-02
101435,7.98E-03,1.28E-02
101436,8.45E-03,1.26E-02
101437,6.46E-03,1.75E-02
101438,8.06E-03,1.21E-02
101439,8.83E-03,1.22E-02
101440,1.13E-02,1.23E-02
101441,1.08E-02,1.24E-02
101442,1.07E-02,1.25E-02
101443,1.03E-02,1.26E-02
101444,9.94E-03,1.27E-02
101445,9.81E-03,1.27E-02
101446,9.34E-03,1.28E-02
101447,9.12E-03,1.29E-02
101448,8.96E-03,1.30E-02
101449,8.84E-03,1.31E-02
101450,8.74E-03,1.32E-02
101451,8.59E-03,1.32E-02
101452,8.51E-03,1.33E-02
101453,8.61E-03,1.34E-02
101454,8.84E-03,1.35E-02
101455,8.98E-03,1.36E-02
101456,8.42E-03,1.36E-02
101457,7.83E-03,1.37E-02
101458,7.80E-03,1.38E-02
101459,7.80E-03,1.39E-02
101460,7.79E-03,1.40E-02
101461,7.77E-03,1.40E-02
101462,7.71E-03,1.41E-02
101463,7.60E-03,1.42E-02
101464,7.54E-03,1.43E-02
101465,7.48E-03,1.44E-02
101466,7.42E-03,1.44E-02
101467,7.32E-03,1.45E-02
101468,6.93E-03,9.13E-03
101469,5.58E-03,8.97E-03
101470,8.79E-03,1.90E-02
101471,9.42E-03,1.89E-02
101472,9.80E-03,1.89E-02
101473,9.89E-03,1.89E-02
101474,9.78E-03,1.88E-02
101475,9.44E-03,1.88E-02
101476,9.33E-03,1.88E-02
101477,9.16E-03,1.88E-02
101478,8.85E-03,1.88E-02
101479,8.83E-03,1.88E-02
101480,8.82E-03,1.88E-02
101481,8.79E-03,1.88E-02
101482,8.76E-03,1.88E-02
101483,8.73E-03,1.88E-02
101484,8.69E-03,1.88E-02
101485,8.63E-03,1.88E-02
101486,8.58E-03,1.88E-02
101487,8.53E-03,1.88E-02
101488,8.50E-03,1.88E-02
101489,8.46E-03,1.88E-02
101490,8.44E-03,1.88E-02
101491,8.41E-03,1.89E-02
101492,8.39E-03,1.89E-02
101493,8.37E-03,1.89E-02
101494,8.35E-03,1.89E-02
101495,8.34E-03,1.89E-02
101496,8.32E-03,1.89E-02
101497,8.31E-03,1.89E-02
101498,8.30E-03,1.89E-02
101499,8.28E-03,1.89E-02
101500,8.27E-03,1.89E-02
101501,8.26E-03,1.89E-02
101502,8.26E-03,1.89E-02
101503,8.25E-03,1.89E-02
101504,8.24E-03,1.89E-02
101505,8.23E-03,1.89E-02
101506,8.22E-03,1.89E-02
101507,8.22E-03,1.89E-02
101508,8.21E-03,1.89E-02
101509,8.21E-03,1.89E-02
101510,8.20E-03,1.89E-02
101511,8.17E-03,1.89E-02
101512,8.09E-03,1.89E-02
101513,8.03E-03,1.89E-02
101514,8.01E-03,1.89E-02
101515,8.00E-03,1.89E-02
101516,7.97E-03,1.89E-02
101517,7.93E-03,1.89E-02
101518,7.85E-03,1.89E-02
101519,7.75E-03,1.89E-02
101520,7.75E-03,1.89E-02
101521,7.79E-03,1.89E-02
101522,7.76E-03,1.88E-02
101523,7.73E-03,1.88E-02
101524,7.70E-03,1.88E-02
101525,7.65E-03,1.88E-02
101526,7.60E-03,1.88E-02
101527,7.49E-03,1.88E-02
101528,7.36E-03,1.87E-02
101529,7.10E-03,1.87E-02
101530,6.97E-03,1.87E-02
101531,6.84E-03,1.87E-02
101532,6.70E-03,1.86E-02
101533,6.65E-03,1.86E-02
101534,6.62E-03,1.86E-02
101535,6.63E-03,1.86E-02
101536,6.87E-03,1.85E-02
101537,7.12E-03,1.85E-02
101538,7.12E-03,1.84E-02
101539,7.18E-03,1.84E-02
101540,9.32E-03,1.83E-02
101541,9.38E-03,1.83E-02
101542,9.41E-03,1.82E-02
101543,9.45E-03,1.82E-02
101544,9.45E-03,1.81E-02
101545,9.20E-03,1.80E-02
101546,8.44E-03,1.80E-02
101547,8.25E-03,1.79E-02
101548,8.19E-03,1.79E-02
101549,7.08E-03,1.78E-02
101550,6.65E-03,1.78E-02
101551,6.09E-03,1.78E-02
101552,6.29E-03,1.78E-02
101553,6.47E-03,1.77E-02
101554,7.62E-03,1.16E-02
101555,6.76E-03,1.15E-02
101556,6.80E-03,1.15E-02
101557,7.04E-03,1.14E-02
101558,7.27E-03,1.14E-02
101559,7.40E-03,1.13E-02
101560,7.50E-03,1.13E-02
101561,7.58E-03,1.12E-02
101562,7.64E-03,1.12E-02
101563,7.69E-03,1.11E-02
101564,7.74E-03,1.10E-02
101565,7.77E-03,1.10E-02
101566,7.80E-03,1.09E-02
101567,7.83E-03,1.09E-02
101568,7.86E-03,1.08E-02
101569,7.91E-03,1.08E-02
101570,7.95E-03,1.07E-02
101571,7.94E-03,1.07E-02
101572,7.94E-03,1.06E-02
101573,7.93E-03,1.05E-02
101574,7.93E-03,1.05E-02
101575,7.92E-03,1.04E-02
101576,7.91E-03,1.04E-02
101577,7.91E-03,1.03E-02
101578,7.90E-03,1.03E-02
101579,7.89E-03,1.02E-02
101580,7.88E-03,1.02E-02
101581,7.87E-03,1.02E-02
101582,7.86E-03,1.01E-02
101583,7.85E-03,1.01E-02
101584,7.84E-03,1.00E-02
101585,7.83E-03,9.97E-03
101586,7.81E-03,9.93E-03
101587,7.80E-03,9.89E-03
101588,7.78E-03,9.85E-03
101589,7.63E-03,9.81E-03
101590,7.59E-03,9.77E-03
101591,7.47E-03,9.73E-03
101592,7.45E-03,9.69E-03
101593,6.90E-03,9.65E-03
101594,6.97E-03,9.61E-03
101595,5.52E-03,9.61E-03
101596,5.11E-03,9.63E-03
101597,1.04E-02,1.53E-02
101598,7.25E-03,1.52E-02
101599,7.38E-03,1.51E-02
101600,7.89E-03,1.50E-02
101601,8.02E-03,1.49E-02
101602,8.04E-03,1.48E-02
101603,8.12E-03,1.47E-02
101604,8.17E-03,1.46E-02
101605,8.13E-03,1.46E-02
101606,8.11E-03,1.45E-02
101607,7.96E-03,1.44E-02
101608,7.98E-03,9.02E-03
101609,6.09E-03,8.98E-03
101610,6.60E-03,8.94E-03
101611,6.28E-03,8.94E-03
101612,1.03E-02,1.72E-02
101613,1.01E-02,1.73E-02
101614,1.06E-02,1.74E-02
101615,1.12E-02,1.74E-02
101616,9.99E-03,1.75E-02
101617,1.00E-02,1.76E-02
101618,9.91E-03,1.77E-02
101619,9.98E-03,1.76E-02
101620,6.63E-03,8.58E-03
101621,6.96E-03,8.57E-03
101622,7.19E-03,2.11E-02
101623,7.76E-03,2.14E-02
101624,6.31E-03,2.18E-02
101625,6.71E-03,2.19E-02
101626,6.99E-03,2.19E-02
101627,6.86E-03,2.20E-02
101628,6.91E-03,2.21E-02
101629,7.01E-03,2.21E-02
101630,7.07E-03,2.22E-02
101631,7.36E-03,2.22E-02
101632,7.43E-03,2.22E-02
101633,7.59E-03,2.22E-02
101634,7.65E-03,2.22E-02
101635,7.70E-03,2.23E-02
101636,7.74E-03,2.23E-02
101637,7.77E-03,2.23E-02
101638,7.80E-03,2.23E-02
101639,7.82E-03,2.23E-02
101640,7.84E-03,2.23E-02
101641,7.86E-03,2.23E-02
101642,7.88E-03,2.23E-02
101643,7.89E-03,2.23E-02
101644,7.91E-03,2.23E-02
101645,7.92E-03,2.24E-02
101646,7.94E-03,2.24E-02
101647,7.95E-03,2.24E-02
101648,7.89E-03,2.24E-02
101649,7.78E-03,2.24E-02
101650,7.76E-03,2.24E-02
101651,7.68E-03,2.24E-02
101652,7.64E-03,2.24E-02
101653,7.67E-03,2.25E-02
101654,7.69E-03,2.25E-02
101655,7.87E-03,2.25E-02
101656,7.55E-03,2.25E-02
101657,7.44E-03,2.24E-02
101658,7.67E-03,2.24E-02
101659,8.93E-03,2.24E-02
101660,8.61E-03,2.24E-02
101661,7.62E-03,1.53E-02
101662,7.88E-03,1.54E-02
101663,7.53E-03,1.54E-02
101664,7.32E-03,8.82E-03
101665,7.68E-03,8.77E-03
101666,8.29E-03,8.77E-03
101667,9.42E-03,8.78E-03
101668,1.02E-02,8.78E-03
101669,9.89E-03,8.77E-03
101670,7.93E-03,8.76E-03
101671,6.83E-03,8.76E-03
101672,6.46E-03,8.75E-03
101673,6.25E-03,8.74E-03
101674,5.97E-03,8.74E-03
101675,5.62E-03,8.73E-03
101676,5.17E-03,8.73E-03
101677,4.54E-03,8.73E-03
101678,5.37E-03,8.73E-03
101679,5.46E-03,8.74E-03
101680,5.86E-03,8.74E-03
101681,5.96E-03,8.75E-03
101682,5.92E-03,8.76E-03
101683,5.85E-03,8.77E-03
101684,8.65E-03,8.77E-03
101685,8.69E-03,8.78E-03
101686,8.60E-03,8.78E-03
101687,7.88E-03,8.86E-03
101688,8.22E-03,8.82E-03
101689,8.65E-03,8.84E-03
101690,8.56E-03,8.85E-03
101691,8.46E-03,8.86E-03
101692,8.21E-03,8.87E-03
101693,8.09E-03,8.88E-03
101694,8.09E-03,8.88E-03
101695,8.31E-03,8.89E-03
101696,9.81E-03,8.89E-03
101697,1.10E-02,8.90E-03
101698,1.06E-02,8.90E-03
101699,9.99E-03,8.90E-03
101700,9.68E-03,8.90E-03
101701,9.93E-03,8.89E-03
101702,9.96E-03,8.88E-03
101703,1.06E-02,8.87E-03
101704,1.10E-02,8.85E-03
101705,1.11E-02,8.83E-03
101706,1.06E-02,8.81E-03
101707,1.03E-02,8.79E-03
101708,1.00E-02,8.76E-03
101709,9.84E-03,8.73E-03
101710,9.62E-03,8.70E-03
101711,9.45E-03,8.67E-03
101712,9.18E-03,8.64E-03
101713,8.87E-03,8.60E-03
101714,8.67E-03,8.57E-03
101715,8.55E-03,8.53E-03
101716,8.46E-03,8.50E-03
101717,8.40E-03,8.46E-03
101718,8.36E-03,8.43E-03
101719,8.32E-03,8.39E-03
101720,8.18E-03,8.35E-03
101721,7.86E-03,8.32E-03
101722,7.65E-03,8.28E-03
101723,7.62E-03,8.25E-03
101724,7.59E-03,8.22E-03
101725,7.55E-03,8.18E-03
101726,7.51E-03,8.15E-03
101727,7.46E-03,8.12E-03
101728,7.40E-03,8.09E-03
101729,7.34E-03,8.06E-03
101730,7.26E-03,8.03E-03
101731,7.17E-03,8.00E-03
101732,7.06E-03,7.98E-03
101733,6.93E-03,7.95E-03
101734,6.76E-03,7.93E-03
101735,6.52E-03,7.91E-03
101736,6.47E-03,7.88E-03
101737,6.71E-03,7.86E-03
101738,6.94E-03,7.85E-03
101739,6.94E-03,7.83E-03
101740,6.81E-03,7.81E-03
101741,6.66E-03,7.80E-03
101742,6.42E-03,7.79E-03
101743,6.01E-03,7.78E-03
101744,6.07E-03,7.77E-03
101745,6.55E-03,7.76E-03
101746,7.08E-03,7.77E-03
101747,7.52E-03,7.78E-03
101748,6.13E-03,7.69E-03
101749,6.62E-03,7.52E-03
101750,5.44E-03,7.56E-03
101751,7.29E-03,7.80E-03
101752,6.79E-03,7.73E-03
101753,6.05E-03,7.69E-03
101754,7.23E-03,7.83E-03
101755,6.36E-03,7.73E-03
101756,7.51E-03,1.49E-02
101757,6.72E-03,1.77E-02
101758,5.24E-03,1.77E-02
101759,8.53E-03,1.75E-02
101760,7.38E-03,1.76E-02
101761,8.33E-03,1.75E-02
101762,8.86E-03,1.34E-02
101763,8.10E-03,1.36E-02
101764,1.06E-02,1.34E-02
101765,6.33E-03,1.29E-02
101766,8.00E-03,1.31E-02
101767,6.83E-03,9.07E-03
101768,8.57E-03,9.06E-03
101769,7.22E-03,9.06E-03
101770,8.30E-03,1.92E-02
101771,8.27E-03,1.92E-02
101772,1.12E-02,1.93E-02
101773,1.02E-02,1.93E-02
101774,6.99E-03,1.96E-02
101775,8.43E-03,1.97E-02
101776,8.63E-03,1.98E-02
101777,8.51E-03,1.99E-02
101778,8.32E-03,2.00E-02
101779,7.29E-03,2.01E-02
101780,6.95E-03,2.01E-02
101781,6.50E-03,2.02E-02
101782,5.98E-03,2.03E-02
101783,5.04E-03,2.03E-02
101784,4.56E-03,2.04E-02
101785,4.47E-03,2.04E-02
101786,4.50E-03,2.04E-02
101787,4.30E-03,2.05E-02
101788,4.38E-03,2.05E-02
101789,4.52E-03,2.05E-02
101790,4.70E-03,2.05E-02
101791,4.94E-03,2.06E-02
101792,5.61E-03,2.06E-02
101793,5.58E-03,2.06E-02
101794,6.40E-03,2.06E-02
101795,6.63E-03,2.06E-02
101796,6.71E-03,2.06E-02
101797,6.96E-03,2.06E-02
101798,6.97E-03,2.06E-02
101799,6.96E-03,2.06E-02
101800,7.30E-03,2.06E-02
101801,7.89E-03,2.06E-02
101802,8.15E-03,2.06E-02
101803,8.16E-03,2.06E-02
101804,8.16E-03,2.06E-02
101805,8.18E-03,2.06E-02
101806,8.26E-03,2.06E-02
101807,8.36E-03,2.05E-02
101808,8.43E-03,2.05E-02
101809,8.46E-03,2.05E-02
101810,8.47E-03,2.05E-02
101811,8.49E-03,2.05E-02
101812,8.52E-03,2.05E-02
101813,8.54E-03,2.05E-02
101814,8.57E-03,2.05E-02
101815,8.61E-03,2.05E-02
101816,8.65E-03,2.05E-02
101817,8.69E-03,2.05E-02
101818,8.74E-03,2.05E-02
101819,8.79E-03,2.05E-02
101820,8.86E-03,2.05E-02
101821,8.93E-03,2.05E-02
101822,9.02E-03,2.05E-02
101823,9.11E-03,2.05E-02
101824,9.22E-03,2.05E-02
101825,9.30E-03,2.06E-02
101826,9.51E-03,2.06E-02
101827,9.57E-03,2.07E-02
101828,9.74E-03,2.07E-02
101829,1.00E-02,2.08E-02
101830,1.02E-02,2.08E-02
101831,1.04E-02,2.09E-02
101832,1.06E-02,2.10E-02
101833,1.09E-02,2.11E-02
101834,1.11E-02,2.12E-02
101835,1.11E-02,2.14E-02
101836,9.17E-03,2.15E-02
101837,7.01E-03,2.18E-02
101838,7.41E-03,2.19E-02
101839,6.33E-03,2.20E-02
101840,4.61E-03,2.22E-02
101841,3.60E-03,2.22E-02
101842,5.21E-03,2.23E-02
101843,4.78E-03,2.22E-02
101844,8.19E-03,1.76E-02
101845,8.12E-03,1.44E-02
101846,8.13E-03,1.44E-02
101847,8.12E-03,1.45E-02
101848,8.12E-03,1.45E-02
101849,8.12E-03,1.45E-02
101850,8.12E-03,1.45E-02
101851,8.13E-03,1.46E-02
101852,8.14E-03,1.46E-02
101853,8.15E-03,1.46E-02
101854,8.15E-03,1.46E-02
101855,8.15E-03,1.47E-02
101856,8.15E-03,1.47E-02
101857,8.16E-03,1.47E-02
101858,8.16E-03,1.48E-02
101859,8.17E-03,1.48E-02
101860,8.17E-03,1.48E-02
101861,8.17E-03,1.48E-02
101862,8.18E-03,1.49E-02
101863,8.18E-03,1.49E-02
101864,8.19E-03,1.49E-02
101865,8.20E-03,1.50E-02
101866,8.20E-03,1.50E-02
101867,8.21E-03,1.50E-02
101868,8.22E-03,1.50E-02
101869,8.23E-03,1.51E-02
101870,8.24E-03,1.51E-02
101871,8.25E-03,1.51E-02
101872,8.27E-03,1.52E-02
101873,8.29E-03,1.52E-02
101874,8.30E-03,1.52E-02
101875,8.33E-03,1.52E-02
101876,8.37E-03,1.53E-02
101877,8.41E-03,1.53E-02
101878,8.45E-03,1.53E-02
101879,8.49E-03,1.54E-02
101880,8.55E-03,1.54E-02
101881,8.62E-03,1.54E-02
101882,8.72E-03,1.55E-02
101883,8.84E-03,1.55E-02
101884,9.01E-03,1.55E-02
101885,9.26E-03,1.56E-02
101886,9.65E-03,1.56E-02
101887,1.02E-02,1.57E-02
101888,1.01E-02,1.57E-02
101889,7.78E-03,1.58E-02
101890,6.28E-03,1.58E-02
101891,6.71E-03,1.58E-02
101892,7.00E-03,1.58E-02
101893,7.19E-03,1.59E-02
101894,7.34E-03,1.59E-02
101895,7.45E-03,1.59E-02
101896,7.53E-03,1.60E-02
101897,7.60E-03,1.60E-02
101898,7.65E-03,1.60E-02
101899,7.70E-03,1.61E-02
101900,7.74E-03,1.61E-02
101901,7.77E-03,1.61E-02
101902,7.79E-03,1.62E-02
101903,7.82E-03,1.62E-02
101904,7.84E-03,1.62E-02
101905,7.86E-03,1.63E-02
101906,7.87E-03,1.63E-02
101907,7.89E-03,1.63E-02
101908,7.90E-03,1.63E-02
101909,7.91E-03,1.64E-02
101910,7.92E-03,1.64E-02
101911,7.93E-03,1.64E-02
101912,7.94E-03,1.64E-02
101913,7.95E-03,1.65E-02
101914,7.95E-03,1.65E-02
101915,7.95E-03,1.65E-02
101916,7.93E-03,1.65E-02
101917,7.95E-03,1.66E-02
101918,7.97E-03,1.66E-02
101919,7.99E-03,1.66E-02
101920,8.00E-03,1.66E-02
101921,8.02E-03,1.66E-02
101922,8.02E-03,1.67E-02
101923,8.03E-03,1.67E-02
101924,8.04E-03,1.67E-02
101925,8.04E-03,1.67E-02
101926,8.09E-03,1.67E-02
101927,8.17E-03,1.67E-02
101928,8.20E-03,1.68E-02
101929,8.21E-03,1.68E-02
101930,8.22E-03,1.68E-02
101931,8.23E-03,1.68E-02
101932,8.24E-03,1.68E-02
101933,8.25E-03,1.68E-02
101934,8.26E-03,1.68E-02
101935,8.27E-03,1.69E-02
101936,8.29E-03,1.69E-02
101937,8.30E-03,1.69E-02
101938,8.32E-03,1.69E-02
101939,8.34E-03,1.69E-02
101940,8.37E-03,1.69E-02
101941,8.40E-03,1.69E-02
101942,8.44E-03,1.70E-02
101943,8.48E-03,1.70E-02
101944,8.54E-03,1.70E-02
101945,8.72E-03,1.70E-02
101946,8.97E-03,1.70E-02
101947,9.08E-03,1.71E-02
101948,9.16E-03,1.71E-02
101949,8.43E-03,1.74E-02
101950,7.04E-03,1.73E-02
101951,6.95E-03,1.55E-02
101952,6.29E-03,1.57E-02
101953,8.09E-03,9.21E-03
101954,8.00E-03,9.17E-03
101955,8.04E-03,9.06E-03
101956,7.93E-03,9.13E-03
101957,6.81E-03,9.06E-03
101958,5.44E-03,8.98E-03
101959,8.12E-03,1.43E-02
101960,8.13E-03,1.43E-02
101961,8.13E-03,1.42E-02
101962,8.13E-03,1.42E-02
101963,8.13E-03,1.42E-02
101964,8.13E-03,1.42E-02
101965,8.13E-03,1.41E-02
101966,8.13E-03,1.41E-02
101967,8.13E-03,1.41E-02
101968,8.14E-03,1.40E-02
101969,8.14E-03,1.40E-02
101970,8.14E-03,1.40E-02
101971,8.14E-03,1.39E-02
101972,8.14E-03,1.39E-02
101973,8.14E-03,1.39E-02
101974,8.14E-03,1.39E-02
101975,8.14E-03,1.38E-02
101976,8.14E-03,1.38E-02
101977,8.14E-03,1.38E-02
101978,8.15E-03,1.37E-02
101979,8.15E-03,1.37E-02
101980,8.15E-03,1.37E-02
101981,8.15E-03,1.36E-02
101982,8.15E-03,1.36E-02
101983,8.15E-03,1.36E-02
101984,8.16E-03,1.35E-02
101985,8.16E-03,1.35E-02
101986,8.16E-03,1.35E-02
101987,8.17E-03,1.34E-02
101988,8.17E-03,1.34E-02
101989,8.18E-03,1.34E-02
101990,8.19E-03,1.33E-02
101991,8.19E-03,1.33E-02
101992,8.20E-03,1.33E-02
101993,8.20E-03,1.32E-02
101994,8.20E-03,1.32E-02
101995,8.21E-03,1.32E-02
101996,8.22E-03,1.31E-02
101997,8.22E-03,1.31E-02
101998,8.23E-03,1.31E-02
101999,8.24E-03,1.30E-02
102000,8.25E-03,1.30E-02
102001,8.26E-03,1.30E-02
102002,8.27E-03,1.29E-02
102003,8.28E-03,1.29E-02
102004,8.30E-03,1.29E-02
102005,8.31E-03,1.28E-02
102006,8.33E-03,1.28E-02
102007,8.35E-03,1.28E-02
102008,8.38E-03,1.27E-02
102009,8.40E-03,1.27E-02
102010,8.44E-03,1.27E-02
102011,8.47E-03,1.27E-02
102012,8.52E-03,1.26E-02
102013,8.57E-03,1.26E-02
102014,8.74E-03,1.26E-02
102015,8.75E-03,1.25E-02
102016,8.98E-03,1.25E-02
102017,9.14E-03,1.25E-02
102018,9.39E-03,1.25E-02
102019,9.61E-03,1.24E-02
102020,9.80E-03,1.24E-02
102021,1.01E-02,1.24E-02
102022,1.04E-02,1.23E-02
102023,1.03E-02,1.23E-02
102024,9.69E-03,1.23E-02
102025,9.47E-03,1.22E-02
102026,9.25E-03,1.22E-02
102027,9.10E-03,1.22E-02
102028,8.92E-03,1.22E-02
102029,9.02E-03,1.21E-02
102030,9.14E-03,1.21E-02
102031,9.29E-03,1.21E-02
102032,9.49E-03,1.21E-02
102033,9.73E-03,1.20E-02
102034,1.01E-02,1.20E-02
102035,1.05E-02,1.20E-02
102036,8.82E-03,1.19E-02
102037,8.77E-03,1.19E-02
102038,6.82E-03,1.19E-02
102039,5.10E-03,1.19E-02
102040,5.14E-03,1.18E-02
102041,6.29E-03,1.18E-02
102042,6.40E-03,1.18E-02
102043,6.53E-03,1.18E-02
102044,6.87E-03,1.18E-02
102045,6.97E-03,1.18E-02
102046,7.22E-03,1.18E-02
102047,7.32E-03,1.17E-02
102048,7.40E-03,1.17E-02
102049,7.50E-03,1.17E-02
102050,7.62E-03,1.17E-02
102051,7.67E-03,1.17E-02
102052,7.67E-03,1.17E-02
102053,7.67E-03,1.17E-02
102054,8.21E-03,1.17E-02
102055,8.92E-03,1.17E-02
102056,8.96E-03,1.17E-02
102057,8.71E-03,1.17E-02
102058,8.58E-03,1.17E-02
102059,8.64E-03,1.17E-02
102060,8.86E-03,1.17E-02
102061,8.93E-03,1.18E-02
102062,9.04E-03,1.18E-02
102063,9.18E-03,1.18E-02
102064,9.36E-03,1.18E-02
102065,9.57E-03,1.19E-02
102066,9.85E-03,1.19E-02
102067,1.03E-02,1.19E-02
102068,9.93E-03,1.20E-02
102069,9.44E-03,1.20E-02
102070,8.31E-03,1.21E-02
102071,8.06E-03,1.21E-02
102072,7.88E-03,1.22E-02
102073,7.96E-03,1.22E-02
102074,8.05E-03,1.23E-02
102075,8.17E-03,1.24E-02
102076,8.23E-03,1.24E-02
102077,8.28E-03,1.25E-02
102078,7.67E-03,1.26E-02
102079,8.37E-03,1.26E-02
102080,8.53E-03,1.64E-02
102081,9.23E-03,1.64E-02
102082,9.83E-03,1.63E-02
102083,9.84E-03,1.62E-02
102084,9.76E-03,1.61E-02
102085,9.57E-03,1.60E-02
102086,9.38E-03,1.59E-02
102087,9.23E-03,1.58E-02
102088,9.16E-03,1.57E-02
102089,9.23E-03,1.57E-02
102090,9.31E-03,1.56E-02
102091,9.41E-03,1.55E-02
102092,9.49E-03,1.54E-02
102093,9.53E-03,1.53E-02
102094,9.53E-03,1.52E-02
102095,9.53E-03,1.50E-02
102096,9.54E-03,1.49E-02
102097,9.56E-03,1.48E-02
102098,9.59E-03,1.47E-02
102099,9.62E-03,1.46E-02
102100,9.65E-03,1.44E-02
102101,9.67E-03,1.43E-02
102102,9.69E-03,1.42E-02
102103,9.72E-03,1.40E-02
102104,9.74E-03,1.39E-02
102105,9.77E-03,1.37E-02
102106,9.76E-03,1.36E-02
102107,9.92E-03,1.34E-02
102108,9.99E-03,1.32E-02
102109,1.07E-02,1.30E-02
102110,6.02E-03,1.65E-02
102111,6.59E-03,1.62E-02
102112,8.66E-03,1.62E-02
102113,8.24E-03,9.17E-03
102114,8.35E-03,1.17E-02
102115,7.98E-03,1.15E-02
102116,7.99E-03,1.16E-02
102117,7.71E-03,1.04E-02
102118,7.74E-03,1.03E-02
102119,6.83E-03,9.11E-03
102120,7.34E-03,9.09E-03
102121,7.27E-03,9.10E-03
102122,8.15E-03,1.76E-02
102123,7.82E-03,1.75E-02
102124,7.19E-03,1.74E-02
102125,7.63E-03,1.72E-02
102126,7.40E-03,1.73E-02
102127,8.98E-03,1.51E-02
102128,9.12E-03,1.48E-02
102129,8.98E-03,1.49E-02
102130,7.62E-03,8.10E-03
102131,7.51E-03,1.96E-02
102132,1.19E-02,1.97E-02
102133,9.70E-03,2.20E-02
102134,7.26E-03,1.16E-02
102135,8.00E-03,1.75E-02
102136,7.66E-03,1.82E-02
102137,5.57E-03,1.72E-02
102138,7.45E-03,9.86E-03
102139,6.23E-03,8.97E-03
102140,8.95E-03,9.42E-03
102141,8.58E-03,9.18E-03
102142,7.64E-03,8.81E-03
102143,8.17E-03,1.44E-02
102144,8.10E-03,1.44E-02
102145,7.77E-03,9.34E-03
102146,7.97E-03,7.59E-03
102147,6.53E-03,7.36E-03
102148,7.73E-03,1.73E-02
102149,8.21E-03,1.67E-02
102150,8.16E-03,1.74E-02
102151,7.23E-03,7.30E-03
102152,7.79E-03,7.24E-03
102153,7.60E-03,9.10E-03
102154,6.16E-03,8.98E-03
102155,9.25E-03,8.62E-03
102156,7.95E-03,1.69E-02
102157,1.09E-02,9.17E-03
102158,1.08E-02,9.15E-03
102159,1.02E-02,9.13E-03
102160,9.54E-03,9.11E-03
102161,8.80E-03,9.09E-03
102162,8.77E-03,9.07E-03
102163,8.27E-03,9.06E-03
102164,5.78E-03,9.04E-03
102165,5.68E-03,9.03E-03
102166,5.47E-03,9.02E-03
102167,5.34E-03,9.01E-03
102168,5.28E-03,9.01E-03
102169,4.62E-03,9.01E-03
102170,4.77E-03,9.01E-03
102171,4.97E-03,9.00E-03
102172,5.56E-03,9.00E-03
102173,6.21E-03,9.00E-03
102174,6.81E-03,8.99E-03
102175,7.17E-03,8.99E-03
102176,7.42E-03,8.99E-03
102177,7.50E-03,8.99E-03
102178,7.41E-03,8.99E-03
102179,7.21E-03,8.99E-03
102180,6.82E-03,8.99E-03
102181,6.59E-03,8.99E-03
102182,6.68E-03,8.99E-03
102183,6.84E-03,8.98E-03
102184,7.25E-03,8.99E-03
102185,7.40E-03,8.98E-03
102186,8.73E-03,9.01E-03
102187,9.74E-03,8.99E-03
102188,1.03E-02,8.99E-03
102189,1.04E-02,8.99E-03
102190,7.80E-03,8.98E-03
102191,7.80E-03,8.98E-03
102192,6.62E-03,8.97E-03
102193,5.08E-03,8.97E-03
102194,5.13E-03,8.97E-03
102195,5.45E-03,8.96E-03
102196,6.07E-03,8.95E-03
102197,7.81E-03,8.95E-03
102198,1.05E-02,8.98E-03
102199,9.76E-03,8.97E-03
102200,9.62E-03,8.97E-03
102201,7.27E-03,8.97E-03
102202,6.97E-03,8.97E-03
102203,6.52E-03,8.97E-03
102204,6.26E-03,8.96E-03
102205,6.24E-03,8.95E-03
102206,9.84E-03,1.10E-02
102207,8.62E-03,1.11E-02
102208,8.62E-03,1.12E-02
102209,8.52E-03,1.13E-02
102210,8.48E-03,1.14E-02
102211,8.25E-03,1.16E-02
102212,8.40E-03,1.15E-02
102213,8.17E-03,1.68E-02
102214,8.48E-03,1.71E-02
102215,5.74E-03,8.88E-03
102216,9.66E-03,8.87E-03
102217,9.63E-03,8.87E-03
102218,1.14E-02,8.86E-03
102219,1.07E-02,8.85E-03
102220,1.03E-02,8.83E-03
102221,9.85E-03,8.82E-03
102222,9.55E-03,8.80E-03
102223,9.41E-03,8.78E-03
102224,9.27E-03,8.77E-03
102225,8.86E-03,8.75E-03
102226,8.21E-03,8.73E-03
102227,7.59E-03,8.71E-03
102228,7.41E-03,8.70E-03
102229,7.27E-03,8.68E-03
102230,7.11E-03,8.66E-03
102231,6.92E-03,8.65E-03
102232,6.87E-03,8.64E-03
102233,6.70E-03,8.62E-03
102234,6.48E-03,8.61E-03
102235,6.13E-03,8.60E-03
102236,5.74E-03,8.59E-03
102237,4.78E-03,8.58E-03
102238,4.35E-03,8.57E-03
102239,4.41E-03,8.56E-03
102240,4.83E-03,8.56E-03
102241,5.07E-03,8.56E-03
102242,5.22E-03,8.56E-03
102243,5.40E-03,8.57E-03
102244,5.61E-03,8.57E-03
102245,6.42E-03,8.58E-03
102246,7.21E-03,9.08E-03
102247,6.22E-03,9.05E-03
102248,7.56E-03,9.23E-03
102249,8.03E-03,9.23E-03
102250,7.39E-03,1.85E-02
102251,8.18E-03,2.07E-02
102252,7.17E-03,2.02E-02
102253,7.48E-03,1.99E-02
102254,7.74E-03,1.95E-02
102255,7.68E-03,1.91E-02
102256,7.62E-03,1.88E-02
102257,8.67E-03,1.65E-02
102258,8.75E-03,1.65E-02
102259,6.24E-03,1.74E-02
102260,7.26E-03,1.74E-02
102261,8.56E-03,8.30E-03
102262,7.94E-03,8.85E-03
102263,9.53E-03,8.81E-03
102264,7.77E-03,8.82E-03
102265,7.56E-03,8.83E-03
102266,7.57E-03,8.83E-03
102267,1.03E-02,8.83E-03
102268,9.89E-03,8.84E-03
102269,8.80E-03,8.92E-03
102270,8.70E-03,8.98E-03
102271,8.59E-03,9.03E-03
102272,8.13E-03,9.09E-03
102273,7.52E-03,9.34E-03
102274,7.50E-03,9.35E-03
102275,8.49E-03,1.71E-02
102276,8.44E-03,1.55E-02
102277,8.57E-03,1.56E-02
102278,1.14E-02,1.57E-02
102279,1.09E-02,1.58E-02
102280,1.03E-02,1.59E-02
102281,9.91E-03,1.60E-02
102282,9.26E-03,1.62E-02
102283,9.07E-03,1.63E-02
102284,8.92E-03,1.63E-02
102285,8.88E-03,1.64E-02
102286,8.61E-03,1.65E-02
102287,8.58E-03,1.66E-02
102288,8.55E-03,1.67E-02
102289,8.64E-03,1.68E-02
102290,8.66E-03,1.69E-02
102291,8.70E-03,1.70E-02
102292,8.09E-03,1.53E-02
102293,8.22E-03,1.52E-02
102294,6.62E-03,7.49E-03
102295,6.23E-03,7.45E-03
102296,5.17E-03,7.40E-03
102297,8.42E-03,1.31E-02
102298,6.81E-03,1.26E-02
102299,9.65E-03,1.25E-02
102300,9.02E-03,1.23E-02
102301,7.94E-03,1.49E-02
102302,7.11E-03,1.77E-02
102303,7.65E-03,1.21E-02
102304,9.47E-03,1.22E-02
102305,1.08E-02,1.22E-02
102306,1.07E-02,1.23E-02
102307,1.06E-02,1.24E-02
102308,1.04E-02,1.25E-02
102309,9.88E-03,1.26E-02
102310,9.71E-03,1.27E-02
102311,9.30E-03,1.28E-02
102312,9.09E-03,1.29E-02
102313,8.94E-03,1.29E-02
102314,8.82E-03,1.30E-02
102315,8.72E-03,1.31E-02
102316,8.58E-03,1.32E-02
102317,8.50E-03,1.33E-02
102318,8.59E-03,1.34E-02
102319,8.82E-03,1.34E-02
102320,8.96E-03,1.35E-02
102321,8.41E-03,1.36E-02
102322,7.84E-03,1.37E-02
102323,7.81E-03,1.38E-02
102324,7.81E-03,1.39E-02
102325,7.80E-03,1.39E-02
102326,7.78E-03,1.40E-02
102327,7.73E-03,1.41E-02
102328,7.56E-03,1.42E-02
102329,7.52E-03,1.43E-02
102330,7.46E-03,1.43E-02
102331,7.42E-03,1.44E-02
102332,7.45E-03,1.45E-02
102333,6.61E-03,9.03E-03
102334,8.44E-03,1.92E-02
102335,9.84E-03,1.92E-02
102336,9.86E-03,1.92E-02
102337,9.86E-03,1.92E-02
102338,9.75E-03,1.91E-02
102339,9.39E-03,1.91E-02
102340,9.24E-03,1.91E-02
102341,9.14E-03,1.91E-02
102342,8.87E-03,1.91E-02
102343,8.81E-03,1.91E-02
102344,8.80E-03,1.91E-02
102345,8.77E-03,1.91E-02
102346,8.74E-03,1.91E-02
102347,8.71E-03,1.91E-02
102348,8.67E-03,1.91E-02
102349,8.61E-03,1.91E-02
102350,8.56E-03,1.91E-02
102351,8.52E-03,1.91E-02
102352,8.49E-03,1.91E-02
102353,8.45E-03,1.91E-02
102354,8.43E-03,1.91E-02
102355,8.40E-03,1.91E-02
102356,8.38E-03,1.91E-02
102357,8.36E-03,1.91E-02
102358,8.34E-03,1.92E-02
102359,8.33E-03,1.92E-02
102360,8.31E-03,1.92E-02
102361,8.30E-03,1.92E-02
102362,8.29E-03,1.92E-02
102363,8.28E-03,1.92E-02
102364,8.27E-03,1.92E-02
102365,8.26E-03,1.92E-02
102366,8.25E-03,1.92E-02
102367,8.24E-03,1.92E-02
102368,8.23E-03,1.92E-02
102369,8.22E-03,1.92E-02
102370,8.22E-03,1.92E-02
102371,8.21E-03,1.92E-02
102372,8.21E-03,1.92E-02
102373,8.20E-03,1.92E-02
102374,8.20E-03,1.92E-02
102375,8.17E-03,1.92E-02
102376,8.09E-03,1.92E-02
102377,8.03E-03,1.92E-02
102378,8.02E-03,1.92E-02
102379,8.00E-03,1.92E-02
102380,7.97E-03,1.92E-02
102381,7.93E-03,1.91E-02
102382,7.86E-03,1.91E-02
102383,7.76E-03,1.91E-02
102384,7.76E-03,1.91E-02
102385,7.80E-03,1.91E-02
102386,7.77E-03,1.91E-02
102387,7.74E-03,1.91E-02
102388,7.71E-03,1.90E-02
102389,7.67E-03,1.90E-02
102390,7.62E-03,1.90E-02
102391,7.56E-03,1.90E-02
102392,7.35E-03,1.90E-02
102393,7.12E-03,1.89E-02
102394,6.94E-03,1.89E-02
102395,6.76E-03,1.89E-02
102396,6.68E-03,1.89E-02
102397,6.62E-03,1.88E-02
102398,6.58E-03,1.88E-02
102399,6.57E-03,1.88E-02
102400,6.92E-03,1.87E-02
102401,7.16E-03,1.87E-02
102402,7.19E-03,1.87E-02
102403,7.26E-03,1.86E-02
102404,9.45E-03,1.86E-02
102405,9.53E-03,1.85E-02
102406,9.59E-03,1.84E-02
102407,9.53E-03,1.84E-02
102408,9.42E-03,1.83E-02
102409,9.17E-03,1.83E-02
102410,8.59E-03,1.82E-02
102411,8.28E-03,1.81E-02
102412,8.31E-03,1.81E-02
102413,6.74E-03,1.80E-02
102414,6.60E-03,1.80E-02
102415,6.25E-03,1.80E-02
102416,4.86E-03,1.79E-02
102417,5.70E-03,1.79E-02
102418,7.29E-03,1.15E-02
102419,6.95E-03,1.15E-02
102420,6.90E-03,1.14E-02
102421,7.03E-03,1.14E-02
102422,7.33E-03,1.13E-02
102423,7.41E-03,1.12E-02
102424,7.47E-03,1.12E-02
102425,7.60E-03,1.11E-02
102426,7.66E-03,1.11E-02
102427,7.71E-03,1.10E-02
102428,7.75E-03,1.10E-02
102429,7.78E-03,1.09E-02
102430,7.81E-03,1.08E-02
102431,7.84E-03,1.08E-02
102432,7.87E-03,1.07E-02
102433,7.92E-03,1.07E-02
102434,7.95E-03,1.06E-02
102435,7.95E-03,1.06E-02
102436,7.94E-03,1.05E-02
102437,7.94E-03,1.04E-02
102438,7.93E-03,1.04E-02
102439,7.93E-03,1.03E-02
102440,7.92E-03,1.03E-02
102441,7.91E-03,1.02E-02
102442,7.90E-03,1.02E-02
102443,7.90E-03,1.01E-02
102444,7.89E-03,1.01E-02
102445,7.88E-03,1.01E-02
102446,7.87E-03,1.00E-02
102447,7.86E-03,9.96E-03
102448,7.85E-03,9.92E-03
102449,7.83E-03,9.87E-03
102450,7.82E-03,9.83E-03
102451,7.81E-03,9.79E-03
102452,7.79E-03,9.75E-03
102453,7.72E-03,9.71E-03
102454,7.64E-03,9.66E-03
102455,7.47E-03,9.62E-03
102456,7.40E-03,9.58E-03
102457,7.15E-03,9.54E-03
102458,7.05E-03,9.50E-03
102459,7.37E-03,9.51E-03
102460,7.09E-03,9.52E-03
102461,1.08E-02,1.49E-02
102462,7.06E-03,1.48E-02
102463,7.62E-03,1.47E-02
102464,7.92E-03,1.46E-02
102465,8.02E-03,1.45E-02
102466,8.04E-03,1.44E-02
102467,8.12E-03,1.43E-02
102468,8.17E-03,1.43E-02
102469,8.18E-03,1.42E-02
102470,8.22E-03,1.41E-02
102471,8.30E-03,1.40E-02
102472,5.62E-03,1.80E-02
102473,5.89E-03,9.03E-03
102474,7.39E-03,9.07E-03
102475,6.88E-03,8.87E-03
102476,8.41E-03,8.88E-03
102477,7.68E-03,8.85E-03
102478,7.10E-03,8.81E-03
102479,7.32E-03,8.80E-03
102480,7.79E-03,1.05E-02
102481,8.13E-03,1.14E-02
102482,8.45E-03,1.77E-02
102483,8.91E-03,1.77E-02
102484,9.89E-03,1.73E-02
102485,9.51E-03,1.74E-02
102486,1.07E-02,1.74E-02
102487,1.16E-02,1.75E-02
102488,1.01E-02,1.76E-02
102489,1.00E-02,1.76E-02
102490,9.99E-03,1.77E-02
102491,9.97E-03,1.78E-02
102492,9.59E-03,1.78E-02
102493,7.23E-03,1.69E-02
102494,8.05E-03,1.70E-02
102495,7.80E-03,1.72E-02
102496,8.28E-03,8.73E-03
102497,6.73E-03,8.41E-03
102498,6.15E-03,8.40E-03
102499,7.15E-03,9.12E-03
102500,5.77E-03,1.61E-02
102501,6.23E-03,1.75E-02
102502,5.46E-03,1.76E-02
102503,8.55E-03,7.95E-03
102504,8.62E-03,8.01E-03
102505,7.82E-03,8.72E-03
102506,6.66E-03,8.94E-03
102507,7.21E-03,8.71E-03
102508,9.17E-03,8.70E-03
102509,8.19E-03,2.11E-02
102510,5.89E-03,2.23E-02
102511,6.40E-03,2.23E-02
102512,6.60E-03,2.24E-02
102513,6.83E-03,2.24E-02
102514,6.89E-03,2.25E-02
102515,6.97E-03,2.25E-02
102516,7.09E-03,2.25E-02
102517,7.34E-03,2.26E-02
102518,7.49E-03,2.26E-02
102519,7.61E-03,2.26E-02
102520,7.66E-03,2.27E-02
102521,7.71E-03,2.27E-02
102522,7.75E-03,2.27E-02
102523,7.78E-03,2.27E-02
102524,7.81E-03,2.27E-02
102525,7.83E-03,2.27E-02
102526,7.85E-03,2.27E-02
102527,7.87E-03,2.28E-02
102528,7.88E-03,2.28E-02
102529,7.90E-03,2.28E-02
102530,7.91E-03,2.28E-02
102531,7.93E-03,2.28E-02
102532,7.94E-03,2.28E-02
102533,7.96E-03,2.28E-02
102534,7.96E-03,2.28E-02
102535,7.90E-03,2.29E-02
102536,7.83E-03,2.29E-02
102537,7.82E-03,2.29E-02
102538,7.82E-03,2.29E-02
102539,7.80E-03,2.29E-02
102540,7.76E-03,2.29E-02
102541,7.77E-03,2.30E-02
102542,7.74E-03,2.30E-02
102543,7.78E-03,2.30E-02
102544,8.02E-03,2.30E-02
102545,8.09E-03,2.31E-02
102546,7.42E-03,2.31E-02
102547,8.01E-03,2.24E-02
102548,7.20E-03,2.29E-02
102549,9.23E-03,8.54E-03
102550,7.49E-03,8.86E-03
102551,9.27E-03,1.72E-02
102552,7.63E-03,1.53E-02
102553,7.64E-03,1.54E-02
102554,8.19E-03,1.54E-02
102555,7.20E-03,1.53E-02
102556,8.10E-03,8.62E-03
102557,8.31E-03,8.59E-03
102558,8.65E-03,8.58E-03
102559,9.31E-03,8.57E-03
102560,9.92E-03,8.58E-03
102561,9.88E-03,8.57E-03
102562,7.93E-03,8.56E-03
102563,6.86E-03,8.55E-03
102564,6.51E-03,8.54E-03
102565,6.30E-03,8.54E-03
102566,6.03E-03,8.53E-03
102567,5.69E-03,8.53E-03
102568,5.25E-03,8.53E-03
102569,4.65E-03,8.53E-03
102570,5.27E-03,8.53E-03
102571,5.62E-03,8.53E-03
102572,5.91E-03,8.53E-03
102573,6.05E-03,8.54E-03
102574,5.98E-03,8.55E-03
102575,5.91E-03,8.56E-03
102576,8.35E-03,8.56E-03
102577,9.15E-03,8.57E-03
102578,9.28E-03,8.57E-03
102579,1.02E-02,8.61E-03
102580,9.87E-03,8.63E-03
102581,8.82E-03,8.62E-03
102582,8.70E-03,8.62E-03
102583,8.59E-03,8.63E-03
102584,8.43E-03,8.64E-03
102585,8.17E-03,8.65E-03
102586,8.09E-03,8.65E-03
102587,8.09E-03,8.66E-03
102588,8.31E-03,8.66E-03
102589,9.76E-03,8.66E-03
102590,1.09E-02,8.67E-03
102591,1.05E-02,8.67E-03
102592,9.93E-03,8.67E-03
102593,9.57E-03,8.66E-03
102594,9.72E-03,8.65E-03
102595,9.90E-03,8.64E-03
102596,1.06E-02,8.63E-03
102597,1.10E-02,8.61E-03
102598,1.10E-02,8.59E-03
102599,1.08E-02,8.57E-03
102600,1.01E-02,8.54E-03
102601,9.98E-03,8.52E-03
102602,9.75E-03,8.49E-03
102603,9.47E-03,8.46E-03
102604,9.34E-03,8.42E-03
102605,9.15E-03,8.39E-03
102606,8.84E-03,8.35E-03
102607,8.65E-03,8.32E-03
102608,8.53E-03,8.28E-03
102609,8.45E-03,8.25E-03
102610,8.39E-03,8.21E-03
102611,8.35E-03,8.17E-03
102612,8.32E-03,8.14E-03
102613,8.18E-03,8.10E-03
102614,7.87E-03,8.07E-03
102615,7.67E-03,8.03E-03
102616,7.64E-03,8.00E-03
102617,7.60E-03,7.96E-03
102618,7.57E-03,7.93E-03
102619,7.52E-03,7.90E-03
102620,7.48E-03,7.86E-03
102621,7.42E-03,7.83E-03
102622,7.36E-03,7.80E-03
102623,7.28E-03,7.77E-03
102624,7.20E-03,7.74E-03
102625,7.09E-03,7.72E-03
102626,6.97E-03,7.69E-03
102627,6.80E-03,7.66E-03
102628,6.57E-03,7.64E-03
102629,6.52E-03,7.62E-03
102630,6.75E-03,7.60E-03
102631,6.97E-03,7.58E-03
102632,6.98E-03,7.56E-03
102633,6.85E-03,7.55E-03
102634,6.71E-03,7.53E-03
102635,6.47E-03,7.52E-03
102636,6.07E-03,7.51E-03
102637,6.15E-03,7.50E-03
102638,6.63E-03,7.49E-03
102639,7.22E-03,7.50E-03
102640,7.62E-03,7.51E-03
102641,8.53E-03,7.51E-03
102642,7.89E-03,7.49E-03
102643,7.20E-03,7.33E-03
102644,6.52E-03,7.24E-03
102645,6.63E-03,7.58E-03
102646,5.87E-03,7.49E-03
102647,6.98E-03,7.42E-03
102648,8.39E-03,1.27E-02
102649,7.36E-03,1.25E-02
102650,7.14E-03,1.24E-02
102651,8.77E-03,1.18E-02
102652,8.45E-03,1.50E-02
102653,7.39E-03,1.48E-02
102654,7.62E-03,1.48E-02
102655,6.84E-03,1.79E-02
102656,7.46E-03,1.79E-02
102657,8.30E-03,1.77E-02
102658,8.32E-03,1.78E-02
102659,8.22E-03,1.78E-02
102660,5.83E-03,1.55E-02
102661,6.78E-03,1.20E-02
102662,6.27E-03,8.96E-03
102663,8.00E-03,1.96E-02
102664,7.38E-03,9.41E-03
102665,8.53E-03,1.74E-02
102666,8.34E-03,1.34E-02
102667,9.32E-03,1.31E-02
102668,9.29E-03,1.31E-02
102669,9.02E-03,1.29E-02
102670,8.27E-03,1.26E-02
102671,9.15E-03,1.47E-02
102672,4.90E-03,2.36E-02
102673,7.44E-03,1.73E-02
102674,6.00E-03,1.74E-02
102675,6.09E-03,1.75E-02
102676,7.48E-03,1.74E-02
102677,9.47E-03,9.01E-03
102678,7.37E-03,8.97E-03
102679,7.98E-03,8.95E-03
102680,8.78E-03,8.90E-03
102681,9.45E-03,8.93E-03
102682,8.20E-03,1.95E-02
102683,8.33E-03,1.95E-02
102684,1.09E-02,1.96E-02
102685,1.10E-02,1.96E-02
102686,7.86E-03,1.99E-02
102687,8.80E-03,2.00E-02
102688,8.89E-03,2.01E-02
102689,8.70E-03,2.02E-02
102690,8.44E-03,2.03E-02
102691,7.39E-03,2.04E-02
102692,6.96E-03,2.05E-02
102693,6.46E-03,2.05E-02
102694,5.82E-03,2.06E-02
102695,5.14E-03,2.06E-02
102696,4.62E-03,2.07E-02
102697,4.55E-03,2.07E-02
102698,4.63E-03,2.08E-02
102699,4.49E-03,2.08E-02
102700,4.50E-03,2.08E-02
102701,4.61E-03,2.08E-02
102702,4.76E-03,2.09E-02
102703,4.93E-03,2.09E-02
102704,5.74E-03,2.09E-02
102705,5.78E-03,2.09E-02
102706,6.35E-03,2.09E-02
102707,6.66E-03,2.09E-02
102708,6.79E-03,2.10E-02
102709,7.00E-03,2.10E-02
102710,7.00E-03,2.10E-02
102711,7.00E-03,2.10E-02
102712,7.32E-03,2.10E-02
102713,7.90E-03,2.09E-02
102714,8.15E-03,2.09E-02
102715,8.15E-03,2.09E-02
102716,8.15E-03,2.09E-02
102717,8.18E-03,2.09E-02
102718,8.25E-03,2.09E-02
102719,8.35E-03,2.09E-02
102720,8.42E-03,2.09E-02
102721,8.45E-03,2.08E-02
102722,8.46E-03,2.08E-02
102723,8.48E-03,2.08E-02
102724,8.50E-03,2.08E-02
102725,8.53E-03,2.08E-02
102726,8.56E-03,2.08E-02
102727,8.59E-03,2.08E-02
102728,8.63E-03,2.08E-02
102729,8.67E-03,2.08E-02
102730,8.72E-03,2.08E-02
102731,8.77E-03,2.08E-02
102732,8.84E-03,2.08E-02
102733,8.91E-03,2.08E-02
102734,8.99E-03,2.08E-02
102735,9.08E-03,2.08E-02
102736,9.18E-03,2.09E-02
102737,9.27E-03,2.09E-02
102738,9.43E-03,2.09E-02
102739,9.52E-03,2.10E-02
102740,9.67E-03,2.10E-02
102741,9.86E-03,2.11E-02
102742,1.01E-02,2.12E-02
102743,1.03E-02,2.13E-02
102744,1.06E-02,2.14E-02
102745,1.09E-02,2.15E-02
102746,1.11E-02,2.16E-02
102747,1.09E-02,2.17E-02
102748,1.00E-02,2.18E-02
102749,8.88E-03,2.21E-02
102750,7.68E-03,2.23E-02
102751,6.70E-03,2.24E-02
102752,5.90E-03,2.25E-02
102753,4.96E-03,2.26E-02
102754,5.37E-03,2.27E-02
102755,4.80E-03,2.27E-02
102756,7.39E-03,1.15E-02
102757,7.93E-03,1.73E-02
102758,8.01E-03,1.71E-02
102759,7.26E-03,1.68E-02
102760,8.47E-03,8.77E-03
102761,7.53E-03,8.65E-03
102762,8.12E-03,1.45E-02
102763,8.12E-03,1.45E-02
102764,8.12E-03,1.45E-02
102765,8.12E-03,1.46E-02
102766,8.12E-03,1.46E-02
102767,8.12E-03,1.46E-02
102768,8.13E-03,1.46E-02
102769,8.14E-03,1.47E-02
102770,8.14E-03,1.47E-02
102771,8.15E-03,1.47E-02
102772,8.15E-03,1.48E-02
102773,8.15E-03,1.48E-02
102774,8.16E-03,1.48E-02
102775,8.16E-03,1.48E-02
102776,8.16E-03,1.49E-02
102777,8.17E-03,1.49E-02
102778,8.17E-03,1.49E-02
102779,8.18E-03,1.50E-02
102780,8.18E-03,1.50E-02
102781,8.19E-03,1.50E-02
102782,8.19E-03,1.51E-02
102783,8.20E-03,1.51E-02
102784,8.21E-03,1.51E-02
102785,8.22E-03,1.51E-02
102786,8.23E-03,1.52E-02
102787,8.24E-03,1.52E-02
102788,8.25E-03,1.52E-02
102789,8.26E-03,1.53E-02
102790,8.28E-03,1.53E-02
102791,8.30E-03,1.53E-02
102792,8.32E-03,1.54E-02
102793,8.36E-03,1.54E-02
102794,8.40E-03,1.54E-02
102795,8.44E-03,1.54E-02
102796,8.48E-03,1.55E-02
102797,8.54E-03,1.55E-02
102798,8.61E-03,1.55E-02
102799,8.70E-03,1.56E-02
102800,8.82E-03,1.56E-02
102801,8.99E-03,1.57E-02
102802,9.23E-03,1.57E-02
102803,9.60E-03,1.57E-02
102804,1.02E-02,1.58E-02
102805,1.00E-02,1.58E-02
102806,7.79E-03,1.59E-02
102807,6.33E-03,1.59E-02
102808,6.75E-03,1.59E-02
102809,7.03E-03,1.60E-02
102810,7.22E-03,1.60E-02
102811,7.36E-03,1.60E-02
102812,7.47E-03,1.61E-02
102813,7.55E-03,1.61E-02
102814,7.61E-03,1.61E-02
102815,7.67E-03,1.62E-02
102816,7.71E-03,1.62E-02
102817,7.75E-03,1.62E-02
102818,7.78E-03,1.63E-02
102819,7.80E-03,1.63E-02
102820,7.83E-03,1.63E-02
102821,7.85E-03,1.64E-02
102822,7.86E-03,1.64E-02
102823,7.88E-03,1.64E-02
102824,7.89E-03,1.65E-02
102825,7.90E-03,1.65E-02
102826,7.92E-03,1.65E-02
102827,7.92E-03,1.65E-02
102828,7.93E-03,1.66E-02
102829,7.94E-03,1.66E-02
102830,7.95E-03,1.66E-02
102831,7.96E-03,1.66E-02
102832,7.95E-03,1.67E-02
102833,7.94E-03,1.67E-02
102834,7.95E-03,1.67E-02
102835,7.98E-03,1.67E-02
102836,7.99E-03,1.68E-02
102837,8.01E-03,1.68E-02
102838,8.02E-03,1.68E-02
102839,8.03E-03,1.68E-02
102840,8.03E-03,1.68E-02
102841,8.04E-03,1.69E-02
102842,8.04E-03,1.69E-02
102843,8.09E-03,1.69E-02
102844,8.17E-03,1.69E-02
102845,8.20E-03,1.69E-02
102846,8.21E-03,1.69E-02
102847,8.21E-03,1.70E-02
102848,8.22E-03,1.70E-02
102849,8.23E-03,1.70E-02
102850,8.24E-03,1.70E-02
102851,8.25E-03,1.70E-02
102852,8.27E-03,1.70E-02
102853,8.28E-03,1.70E-02
102854,8.30E-03,1.71E-02
102855,8.31E-03,1.71E-02
102856,8.34E-03,1.71E-02
102857,8.36E-03,1.71E-02
102858,8.39E-03,1.71E-02
102859,8.43E-03,1.71E-02
102860,8.47E-03,1.72E-02
102861,8.52E-03,1.72E-02
102862,8.70E-03,1.72E-02
102863,8.83E-03,1.72E-02
102864,8.88E-03,1.72E-02
102865,9.03E-03,1.73E-02
102866,1.01E-02,1.73E-02
102867,9.37E-03,1.74E-02
102868,7.13E-03,1.76E-02
102869,7.22E-03,1.51E-02
102870,7.28E-03,9.11E-03
102871,7.34E-03,9.08E-03
102872,7.19E-03,9.02E-03
102873,7.10E-03,8.98E-03
102874,7.71E-03,1.12E-02
102875,8.67E-03,1.79E-02
102876,8.07E-03,1.74E-02
102877,8.34E-03,1.69E-02
102878,9.21E-03,9.53E-03
102879,7.85E-03,9.58E-03
102880,6.01E-03,8.86E-03
102881,6.18E-03,8.85E-03
102882,5.93E-03,8.68E-03
102883,6.02E-03,8.92E-03
102884,7.86E-03,9.07E-03
102885,6.54E-03,8.94E-03
102886,5.73E-03,8.91E-03
102887,8.17E-03,1.45E-02
102888,8.10E-03,1.45E-02
102889,8.12E-03,1.44E-02
102890,8.13E-03,1.43E-02
102891,8.13E-03,1.43E-02
102892,8.13E-03,1.43E-02
102893,8.13E-03,1.42E-02
102894,8.13E-03,1.42E-02
102895,8.13E-03,1.42E-02
102896,8.13E-03,1.42E-02
102897,8.13E-03,1.41E-02
102898,8.13E-03,1.41E-02
102899,8.13E-03,1.41E-02
102900,8.14E-03,1.40E-02
102901,8.14E-03,1.40E-02
102902,8.14E-03,1.40E-02
102903,8.14E-03,1.39E-02
102904,8.14E-03,1.39E-02
102905,8.14E-03,1.39E-02
102906,8.14E-03,1.38E-02
102907,8.14E-03,1.38E-02
102908,8.14E-03,1.38E-02
102909,8.14E-03,1.37E-02
102910,8.15E-03,1.37E-02
102911,8.15E-03,1.37E-02
102912,8.15E-03,1.36E-02
102913,8.15E-03,1.36E-02
102914,8.16E-03,1.36E-02
102915,8.16E-03,1.35E-02
102916,8.16E-03,1.35E-02
102917,8.17E-03,1.35E-02
102918,8.17E-03,1.34E-02
102919,8.18E-03,1.34E-02
102920,8.18E-03,1.33E-02
102921,8.19E-03,1.33E-02
102922,8.19E-03,1.33E-02
102923,8.20E-03,1.32E-02
102924,8.20E-03,1.32E-02
102925,8.21E-03,1.32E-02
102926,8.21E-03,1.31E-02
102927,8.22E-03,1.31E-02
102928,8.23E-03,1.31E-02
102929,8.24E-03,1.30E-02
102930,8.25E-03,1.30E-02
102931,8.26E-03,1.30E-02
102932,8.27E-03,1.29E-02
102933,8.28E-03,1.29E-02
102934,8.29E-03,1.29E-02
102935,8.31E-03,1.28E-02
102936,8.33E-03,1.28E-02
102937,8.35E-03,1.28E-02
102938,8.37E-03,1.27E-02
102939,8.39E-03,1.27E-02
102940,8.43E-03,1.27E-02
102941,8.46E-03,1.26E-02
102942,8.50E-03,1.26E-02
102943,8.55E-03,1.26E-02
102944,8.72E-03,1.25E-02
102945,8.73E-03,1.25E-02
102946,9.01E-03,1.25E-02
102947,9.11E-03,1.24E-02
102948,9.31E-03,1.24E-02
102949,9.60E-03,1.24E-02
102950,9.70E-03,1.23E-02
102951,1.01E-02,1.23E-02
102952,1.04E-02,1.23E-02
102953,1.04E-02,1.22E-02
102954,9.66E-03,1.22E-02
102955,9.36E-03,1.22E-02
102956,9.14E-03,1.21E-02
102957,8.98E-03,1.21E-02
102958,8.89E-03,1.21E-02
102959,8.99E-03,1.21E-02
102960,9.11E-03,1.20E-02
102961,9.26E-03,1.20E-02
102962,9.44E-03,1.20E-02
102963,9.69E-03,1.19E-02
102964,1.00E-02,1.19E-02
102965,1.04E-02,1.19E-02
102966,9.18E-03,1.18E-02
102967,8.54E-03,1.18E-02
102968,6.94E-03,1.18E-02
102969,4.97E-03,1.17E-02
102970,5.01E-03,1.17E-02
102971,6.43E-03,1.17E-02
102972,6.53E-03,1.17E-02
102973,6.58E-03,1.17E-02
102974,6.92E-03,1.16E-02
102975,7.04E-03,1.16E-02
102976,7.25E-03,1.16E-02
102977,7.34E-03,1.16E-02
102978,7.42E-03,1.16E-02
102979,7.52E-03,1.16E-02
102980,7.63E-03,1.16E-02
102981,7.68E-03,1.15E-02
102982,7.68E-03,1.15E-02
102983,7.68E-03,1.15E-02
102984,8.20E-03,1.15E-02
102985,8.90E-03,1.15E-02
102986,8.93E-03,1.15E-02
102987,8.69E-03,1.15E-02
102988,8.56E-03,1.15E-02
102989,8.63E-03,1.15E-02
102990,8.79E-03,1.16E-02
102991,8.89E-03,1.16E-02
102992,9.00E-03,1.16E-02
102993,9.13E-03,1.16E-02
102994,9.29E-03,1.16E-02
102995,9.51E-03,1.17E-02
102996,9.91E-03,1.17E-02
102997,1.03E-02,1.17E-02
102998,1.01E-02,1.18E-02
102999,9.34E-03,1.18E-02
103000,8.29E-03,1.19E-02
103001,7.89E-03,1.19E-02
103002,7.82E-03,1.20E-02
103003,7.83E-03,1.20E-02
103004,7.94E-03,1.21E-02
103005,8.06E-03,1.22E-02
103006,8.08E-03,1.22E-02
103007,8.03E-03,1.23E-02
103008,7.63E-03,1.23E-02
103009,7.24E-03,1.24E-02
103010,6.85E-03,1.25E-02
103011,7.14E-03,1.25E-02
103012,1.06E-02,1.65E-02
103013,1.01E-02,1.64E-02
103014,9.93E-03,1.63E-02
103015,9.84E-03,1.62E-02
103016,9.80E-03,1.61E-02
103017,9.62E-03,1.60E-02
103018,9.30E-03,1.60E-02
103019,9.19E-03,1.59E-02
103020,9.13E-03,1.58E-02
103021,9.19E-03,1.57E-02
103022,9.28E-03,1.56E-02
103023,9.37E-03,1.55E-02
103024,9.45E-03,1.54E-02
103025,9.49E-03,1.53E-02
103026,9.49E-03,1.52E-02
103027,9.49E-03,1.51E-02
103028,9.50E-03,1.50E-02
103029,9.52E-03,1.49E-02
103030,9.55E-03,1.48E-02
103031,9.58E-03,1.46E-02
103032,9.60E-03,1.45E-02
103033,9.62E-03,1.44E-02
103034,9.65E-03,1.42E-02
103035,9.67E-03,1.41E-02
103036,9.69E-03,1.40E-02
103037,9.72E-03,1.38E-02
103038,9.75E-03,1.36E-02
103039,9.98E-03,1.35E-02
103040,1.04E-02,1.33E-02
103041,1.12E-02,1.31E-02
103042,9.93E-03,1.29E-02
103043,7.97E-03,1.28E-02
103044,7.73E-03,1.26E-02
103045,5.17E-03,1.81E-02
103046,9.00E-03,1.35E-02
103047,7.34E-03,1.58E-02
103048,7.81E-03,9.07E-03
103049,7.70E-03,8.82E-03
103050,7.52E-03,1.13E-02
103051,7.77E-03,9.99E-03
103052,6.57E-03,8.98E-03
103053,6.96E-03,8.98E-03
103054,8.01E-03,1.51E-02
103055,7.09E-03,8.98E-03
103056,7.84E-03,1.01E-02
103057,7.70E-03,9.32E-03
103058,7.71E-03,1.76E-02
103059,7.19E-03,1.75E-02
103060,6.89E-03,1.74E-02
103061,7.35E-03,1.74E-02
103062,7.54E-03,1.73E-02
103063,5.96E-03,1.70E-02
103064,5.55E-03,1.70E-02
103065,8.82E-03,8.58E-03
103066,8.14E-03,2.04E-02
103067,5.86E-03,2.01E-02
103068,5.98E-03,1.97E-02
103069,8.37E-03,7.62E-03
103070,9.18E-03,8.60E-03
103071,1.03E-02,8.48E-03
103072,9.87E-03,8.18E-03
103073,6.96E-03,7.25E-03
103074,7.91E-03,1.14E-02
103075,7.47E-03,1.70E-02
103076,9.20E-03,1.45E-02
103077,9.15E-03,1.44E-02
103078,8.52E-03,9.23E-03
103079,9.33E-03,1.68E-02
103080,8.03E-03,1.71E-02
103081,8.13E-03,1.72E-02
103082,8.15E-03,7.29E-03
103083,6.74E-03,8.59E-03
103084,8.07E-03,1.74E-02
103085,7.18E-03,7.14E-03
103086,9.23E-03,7.00E-03
103087,7.91E-03,7.05E-03
103088,8.76E-03,7.80E-03
103089,8.07E-03,1.57E-02
103090,7.60E-03,8.57E-03
103091,8.06E-03,1.52E-02
103092,7.51E-03,1.97E-02
103093,1.09E-02,9.06E-03
103094,1.07E-02,9.04E-03
103095,1.02E-02,9.02E-03
103096,9.49E-03,9.00E-03
103097,8.86E-03,8.98E-03
103098,8.91E-03,8.96E-03
103099,8.01E-03,8.95E-03
103100,5.86E-03,8.93E-03
103101,5.77E-03,8.92E-03
103102,5.62E-03,8.91E-03
103103,5.53E-03,8.90E-03
103104,5.49E-03,8.90E-03
103105,4.87E-03,8.90E-03
103106,4.84E-03,8.89E-03
103107,4.93E-03,8.89E-03
103108,5.65E-03,8.89E-03
103109,6.17E-03,8.88E-03
103110,6.94E-03,8.88E-03
103111,7.19E-03,8.88E-03
103112,7.43E-03,8.87E-03
103113,7.55E-03,8.87E-03
103114,7.48E-03,8.87E-03
103115,7.35E-03,8.87E-03
103116,6.80E-03,8.87E-03
103117,6.55E-03,8.87E-03
103118,6.63E-03,8.87E-03
103119,6.87E-03,8.86E-03
103120,7.54E-03,8.86E-03
103121,7.66E-03,8.85E-03
103122,1.13E-02,8.89E-03
103123,1.05E-02,8.87E-03
103124,1.05E-02,8.86E-03
103125,1.05E-02,8.86E-03
103126,7.87E-03,8.86E-03
103127,7.85E-03,8.85E-03
103128,6.53E-03,8.85E-03
103129,5.22E-03,8.84E-03
103130,5.05E-03,8.84E-03
103131,5.36E-03,8.84E-03
103132,5.84E-03,8.84E-03
103133,9.32E-03,8.84E-03
103134,9.61E-03,8.84E-03
103135,1.03E-02,8.84E-03
103136,1.10E-02,8.84E-03
103137,9.76E-03,8.84E-03
103138,9.74E-03,8.84E-03
103139,7.02E-03,8.84E-03
103140,6.70E-03,8.83E-03
103141,6.54E-03,8.83E-03
103142,6.21E-03,8.82E-03
103143,6.31E-03,8.81E-03
103144,9.82E-03,1.07E-02
103145,8.57E-03,1.08E-02
103146,8.51E-03,1.09E-02
103147,8.48E-03,1.10E-02
103148,8.46E-03,1.11E-02
103149,8.17E-03,1.13E-02
103150,8.40E-03,1.12E-02
103151,8.87E-03,1.78E-02
103152,1.09E-02,1.80E-02
103153,9.62E-03,1.78E-02
103154,7.54E-03,1.68E-02
103155,7.94E-03,1.71E-02
103156,6.10E-03,8.72E-03
103157,9.68E-03,8.71E-03
103158,9.42E-03,8.71E-03
103159,1.14E-02,8.70E-03
103160,1.08E-02,8.68E-03
103161,1.01E-02,8.67E-03
103162,9.65E-03,8.65E-03
103163,9.58E-03,8.63E-03
103164,9.36E-03,8.61E-03
103165,9.23E-03,8.60E-03
103166,8.84E-03,8.58E-03
103167,8.21E-03,8.56E-03
103168,7.61E-03,8.54E-03
103169,7.43E-03,8.52E-03
103170,7.29E-03,8.51E-03
103171,7.14E-03,8.49E-03
103172,6.95E-03,8.47E-03
103173,6.90E-03,8.46E-03
103174,6.73E-03,8.45E-03
103175,6.52E-03,8.43E-03
103176,6.26E-03,8.42E-03
103177,6.01E-03,8.41E-03
103178,4.65E-03,8.40E-03
103179,4.51E-03,8.39E-03
103180,4.23E-03,8.39E-03
103181,5.09E-03,8.38E-03
103182,5.23E-03,8.38E-03
103183,5.32E-03,8.38E-03
103184,5.40E-03,8.38E-03
103185,5.76E-03,8.38E-03
103186,6.05E-03,8.40E-03
103187,6.41E-03,9.02E-03
103188,7.41E-03,9.13E-03
103189,7.76E-03,9.12E-03
103190,7.63E-03,1.82E-02
103191,7.24E-03,1.94E-02
103192,7.79E-03,1.91E-02
103193,7.61E-03,1.88E-02
103194,7.59E-03,1.85E-02
103195,7.59E-03,1.60E-02
103196,8.11E-03,1.45E-02
103197,8.12E-03,1.46E-02
103198,8.12E-03,1.46E-02
103199,8.12E-03,1.46E-02
103200,8.12E-03,1.47E-02
103201,8.12E-03,1.47E-02
103202,8.13E-03,1.47E-02
103203,8.14E-03,1.48E-02
103204,8.14E-03,1.48E-02
103205,8.14E-03,1.48E-02
103206,8.15E-03,1.48E-02
103207,8.15E-03,1.49E-02
103208,8.15E-03,1.49E-02
103209,8.16E-03,1.49E-02
103210,8.16E-03,1.50E-02
103211,8.16E-03,1.50E-02
103212,8.17E-03,1.50E-02
103213,8.17E-03,1.51E-02
103214,8.18E-03,1.51E-02
103215,8.18E-03,1.51E-02
103216,8.19E-03,1.51E-02
103217,8.20E-03,1.52E-02
103218,8.20E-03,1.52E-02
103219,8.21E-03,1.52E-02
103220,8.22E-03,1.53E-02
103221,8.23E-03,1.53E-02
103222,8.24E-03,1.53E-02
103223,8.26E-03,1.54E-02
103224,8.27E-03,1.54E-02
103225,8.29E-03,1.54E-02
103226,8.31E-03,1.55E-02
103227,8.35E-03,1.55E-02
103228,8.39E-03,1.55E-02
103229,8.43E-03,1.56E-02
103230,8.47E-03,1.56E-02
103231,8.52E-03,1.56E-02
103232,8.59E-03,1.57E-02
103233,8.68E-03,1.57E-02
103234,8.80E-03,1.57E-02
103235,8.96E-03,1.58E-02
103236,9.19E-03,1.58E-02
103237,9.56E-03,1.59E-02
103238,1.01E-02,1.59E-02
103239,9.96E-03,1.60E-02
103240,7.79E-03,1.60E-02
103241,6.39E-03,1.60E-02
103242,6.79E-03,1.61E-02
103243,7.06E-03,1.61E-02
103244,7.25E-03,1.61E-02
103245,7.38E-03,1.62E-02
103246,7.48E-03,1.62E-02
103247,7.56E-03,1.62E-02
103248,7.63E-03,1.63E-02
103249,7.68E-03,1.63E-02
103250,7.72E-03,1.63E-02
103251,7.76E-03,1.64E-02
103252,7.79E-03,1.64E-02
103253,7.81E-03,1.64E-02
103254,7.83E-03,1.65E-02
103255,7.85E-03,1.65E-02
103256,7.87E-03,1.65E-02
103257,7.88E-03,1.66E-02
103258,7.90E-03,1.66E-02
103259,7.91E-03,1.66E-02
103260,7.92E-03,1.67E-02
103261,7.93E-03,1.67E-02
103262,7.94E-03,1.67E-02
103263,7.95E-03,1.67E-02
103264,7.95E-03,1.68E-02
103265,7.96E-03,1.68E-02
103266,7.95E-03,1.68E-02
103267,7.94E-03,1.69E-02
103268,7.95E-03,1.69E-02
103269,7.98E-03,1.69E-02
103270,8.00E-03,1.69E-02
103271,8.01E-03,1.69E-02
103272,8.02E-03,1.70E-02
103273,8.03E-03,1.70E-02
103274,8.03E-03,1.70E-02
103275,8.04E-03,1.70E-02
103276,8.04E-03,1.70E-02
103277,8.09E-03,1.71E-02
103278,8.16E-03,1.71E-02
103279,8.20E-03,1.71E-02
103280,8.20E-03,1.71E-02
103281,8.21E-03,1.71E-02
103282,8.22E-03,1.71E-02
103283,8.23E-03,1.72E-02
103284,8.24E-03,1.72E-02
103285,8.25E-03,1.72E-02
103286,8.26E-03,1.72E-02
103287,8.27E-03,1.72E-02
103288,8.29E-03,1.72E-02
103289,8.31E-03,1.73E-02
103290,8.33E-03,1.73E-02
103291,8.35E-03,1.73E-02
103292,8.38E-03,1.73E-02
103293,8.42E-03,1.73E-02
103294,8.46E-03,1.73E-02
103295,8.51E-03,1.74E-02
103296,8.67E-03,1.74E-02
103297,8.76E-03,1.74E-02
103298,8.83E-03,1.74E-02
103299,8.83E-03,1.74E-02
103300,6.61E-03,1.75E-02
103301,8.61E-03,1.75E-02
103302,7.10E-03,1.76E-02
103303,8.64E-03,7.98E-03
103304,7.86E-03,8.69E-03
103305,6.26E-03,8.61E-03
103306,8.21E-03,8.66E-03
103307,7.41E-03,8.68E-03
103308,7.30E-03,8.68E-03
103309,7.32E-03,8.68E-03
103310,1.04E-02,8.69E-03
103311,1.01E-02,8.69E-03
103312,8.08E-03,2.32E-02
103313,1.04E-02,2.29E-02
103314,1.08E-02,2.25E-02
103315,1.01E-02,2.20E-02
103316,8.51E-03,2.15E-02
103317,8.43E-03,2.12E-02
103318,8.34E-03,2.08E-02
103319,9.10E-03,8.60E-03
103320,8.95E-03,8.66E-03
103321,8.79E-03,8.72E-03
103322,8.42E-03,8.77E-03
103323,9.02E-03,9.00E-03
103324,8.83E-03,9.02E-03
103325,9.64E-03,1.72E-02
103326,8.45E-03,1.55E-02
103327,8.49E-03,1.56E-02
103328,1.15E-02,1.57E-02
103329,1.08E-02,1.58E-02
103330,1.01E-02,1.60E-02
103331,9.49E-03,1.61E-02
103332,9.34E-03,1.62E-02
103333,9.14E-03,1.63E-02
103334,8.97E-03,1.64E-02
103335,8.75E-03,1.65E-02
103336,8.64E-03,1.66E-02
103337,8.57E-03,1.67E-02
103338,8.54E-03,1.68E-02
103339,8.64E-03,1.69E-02
103340,8.67E-03,1.70E-02
103341,8.78E-03,1.71E-02
103342,7.79E-03,1.51E-02
103343,8.21E-03,1.49E-02
103344,8.33E-03,1.48E-02
103345,9.08E-03,1.46E-02
103346,6.52E-03,7.19E-03
103347,6.10E-03,7.16E-03
103348,5.66E-03,7.13E-03
103349,5.54E-03,7.15E-03
103350,5.86E-03,7.19E-03
103351,6.71E-03,7.33E-03
103352,6.19E-03,7.24E-03
103353,8.23E-03,1.26E-02
103354,8.17E-03,1.23E-02
103355,9.74E-03,1.22E-02
103356,1.11E-02,1.21E-02
103357,9.57E-03,1.20E-02
103358,8.02E-03,1.49E-02
103359,7.90E-03,1.79E-02
103360,7.15E-03,1.53E-02
103361,7.33E-03,1.20E-02
103362,1.04E-02,1.21E-02
103363,1.06E-02,1.22E-02
103364,1.06E-02,1.23E-02
103365,1.06E-02,1.24E-02
103366,1.04E-02,1.25E-02
103367,9.89E-03,1.26E-02
103368,9.61E-03,1.26E-02
103369,9.27E-03,1.27E-02
103370,9.06E-03,1.28E-02
103371,8.91E-03,1.29E-02
103372,8.80E-03,1.30E-02
103373,8.70E-03,1.31E-02
103374,8.56E-03,1.31E-02
103375,8.48E-03,1.32E-02
103376,8.58E-03,1.33E-02
103377,8.79E-03,1.34E-02
103378,8.93E-03,1.35E-02
103379,8.41E-03,1.36E-02
103380,7.85E-03,1.37E-02
103381,7.81E-03,1.37E-02
103382,7.81E-03,1.38E-02
103383,7.81E-03,1.39E-02
103384,7.79E-03,1.40E-02
103385,7.68E-03,1.41E-02
103386,7.62E-03,1.42E-02
103387,7.56E-03,1.42E-02
103388,7.50E-03,1.43E-02
103389,7.49E-03,1.44E-02
103390,7.52E-03,1.45E-02
103391,7.57E-03,1.46E-02
103392,7.57E-03,1.46E-02
103393,6.47E-03,8.92E-03
103394,8.74E-03,1.95E-02
103395,1.02E-02,1.95E-02
103396,9.86E-03,1.95E-02
103397,9.84E-03,1.94E-02
103398,9.68E-03,1.94E-02
103399,9.43E-03,1.94E-02
103400,9.16E-03,1.94E-02
103401,9.10E-03,1.94E-02
103402,8.86E-03,1.94E-02
103403,8.79E-03,1.94E-02
103404,8.77E-03,1.94E-02
103405,8.75E-03,1.94E-02
103406,8.72E-03,1.94E-02
103407,8.69E-03,1.94E-02
103408,8.65E-03,1.94E-02
103409,8.60E-03,1.94E-02
103410,8.55E-03,1.94E-02
103411,8.51E-03,1.94E-02
103412,8.47E-03,1.94E-02
103413,8.44E-03,1.94E-02
103414,8.42E-03,1.94E-02
103415,8.39E-03,1.94E-02
103416,8.37E-03,1.94E-02
103417,8.35E-03,1.94E-02
103418,8.34E-03,1.94E-02
103419,8.32E-03,1.94E-02
103420,8.31E-03,1.94E-02
103421,8.29E-03,1.94E-02
103422,8.28E-03,1.94E-02
103423,8.27E-03,1.94E-02
103424,8.26E-03,1.94E-02
103425,8.25E-03,1.94E-02
103426,8.25E-03,1.94E-02
103427,8.24E-03,1.94E-02
103428,8.23E-03,1.94E-02
103429,8.22E-03,1.94E-02
103430,8.21E-03,1.94E-02
103431,8.21E-03,1.94E-02
103432,8.20E-03,1.94E-02
103433,8.20E-03,1.94E-02
103434,8.19E-03,1.94E-02
103435,8.17E-03,1.94E-02
103436,8.09E-03,1.94E-02
103437,8.03E-03,1.94E-02
103438,8.02E-03,1.94E-02
103439,8.00E-03,1.94E-02
103440,7.98E-03,1.94E-02
103441,7.94E-03,1.94E-02
103442,7.86E-03,1.94E-02
103443,7.77E-03,1.94E-02
103444,7.77E-03,1.93E-02
103445,7.80E-03,1.93E-02
103446,7.78E-03,1.93E-02
103447,7.75E-03,1.93E-02
103448,7.72E-03,1.93E-02
103449,7.68E-03,1.93E-02
103450,7.63E-03,1.92E-02
103451,7.57E-03,1.92E-02
103452,7.30E-03,1.92E-02
103453,7.14E-03,1.92E-02
103454,6.95E-03,1.92E-02
103455,6.77E-03,1.91E-02
103456,6.70E-03,1.91E-02
103457,6.56E-03,1.91E-02
103458,6.50E-03,1.90E-02
103459,6.53E-03,1.90E-02
103460,6.85E-03,1.90E-02
103461,7.31E-03,1.89E-02
103462,7.33E-03,1.89E-02
103463,7.38E-03,1.88E-02
103464,9.56E-03,1.88E-02
103465,9.60E-03,1.87E-02
103466,9.64E-03,1.86E-02
103467,9.56E-03,1.86E-02
103468,9.38E-03,1.85E-02
103469,9.14E-03,1.85E-02
103470,8.64E-03,1.84E-02
103471,8.34E-03,1.83E-02
103472,8.30E-03,1.83E-02
103473,6.68E-03,1.82E-02
103474,6.26E-03,1.82E-02
103475,5.95E-03,1.82E-02
103476,5.67E-03,1.82E-02
103477,7.38E-03,1.14E-02
103478,7.20E-03,1.14E-02
103479,6.98E-03,1.13E-02
103480,7.04E-03,1.13E-02
103481,7.36E-03,1.12E-02
103482,7.43E-03,1.12E-02
103483,7.45E-03,1.11E-02
103484,7.61E-03,1.10E-02
103485,7.67E-03,1.10E-02
103486,7.72E-03,1.09E-02
103487,7.76E-03,1.09E-02
103488,7.79E-03,1.08E-02
103489,7.82E-03,1.07E-02
103490,7.84E-03,1.07E-02
103491,7.87E-03,1.06E-02
103492,7.92E-03,1.06E-02
103493,7.96E-03,1.05E-02
103494,7.95E-03,1.05E-02
103495,7.95E-03,1.04E-02
103496,7.94E-03,1.04E-02
103497,7.94E-03,1.03E-02
103498,7.93E-03,1.02E-02
103499,7.92E-03,1.02E-02
103500,7.92E-03,1.01E-02
103501,7.91E-03,1.01E-02
103502,7.90E-03,1.00E-02
103503,7.89E-03,1.00E-02
103504,7.89E-03,9.95E-03
103505,7.88E-03,9.91E-03
103506,7.87E-03,9.86E-03
103507,7.85E-03,9.82E-03
103508,7.84E-03,9.77E-03
103509,7.83E-03,9.73E-03
103510,7.81E-03,9.69E-03
103511,7.80E-03,9.64E-03
103512,7.78E-03,9.60E-03
103513,7.66E-03,9.56E-03
103514,7.54E-03,9.52E-03
103515,7.51E-03,9.48E-03
103516,7.44E-03,9.44E-03
103517,7.55E-03,9.40E-03
103518,8.50E-03,9.39E-03
103519,8.30E-03,9.40E-03
103520,9.24E-03,1.74E-02
103521,9.26E-03,1.75E-02
103522,1.08E-02,1.75E-02
103523,1.15E-02,1.76E-02
103524,1.02E-02,1.77E-02
103525,1.00E-02,1.77E-02
103526,1.00E-02,1.78E-02
103527,1.00E-02,1.78E-02
103528,1.00E-02,1.79E-02
103529,9.13E-03,1.29E-02
103530,9.30E-03,1.26E-02
103531,1.03E-02,1.23E-02
103532,1.09E-02,1.45E-02
103533,6.92E-03,1.44E-02
103534,7.97E-03,1.43E-02
103535,8.00E-03,1.42E-02
103536,8.02E-03,1.41E-02
103537,8.04E-03,1.40E-02
103538,8.12E-03,1.40E-02
103539,8.17E-03,1.39E-02
103540,8.23E-03,1.38E-02
103541,8.32E-03,1.37E-02
103542,8.37E-03,1.36E-02
103543,5.82E-03,2.27E-02
103544,6.16E-03,2.28E-02
103545,6.43E-03,2.28E-02
103546,6.59E-03,2.28E-02
103547,6.94E-03,2.29E-02
103548,6.92E-03,2.29E-02
103549,7.21E-03,2.30E-02
103550,7.32E-03,2.30E-02
103551,7.55E-03,2.30E-02
103552,7.62E-03,2.30E-02
103553,7.67E-03,2.31E-02
103554,7.72E-03,2.31E-02
103555,7.76E-03,2.31E-02
103556,7.79E-03,2.31E-02
103557,7.82E-03,2.31E-02
103558,7.84E-03,2.32E-02
103559,7.86E-03,2.32E-02
103560,7.88E-03,2.32E-02
103561,7.89E-03,2.32E-02
103562,7.90E-03,2.32E-02
103563,7.92E-03,2.32E-02
103564,7.93E-03,2.33E-02
103565,7.95E-03,2.33E-02
103566,7.96E-03,2.33E-02
103567,7.96E-03,2.33E-02
103568,7.97E-03,2.33E-02
103569,7.97E-03,2.33E-02
103570,7.91E-03,2.34E-02
103571,7.89E-03,2.34E-02
103572,7.88E-03,2.34E-02
103573,7.89E-03,2.34E-02
103574,7.87E-03,2.34E-02
103575,7.89E-03,2.35E-02
103576,7.95E-03,2.35E-02
103577,7.99E-03,2.35E-02
103578,8.02E-03,2.36E-02
103579,8.00E-03,2.35E-02
103580,8.52E-03,2.34E-02
103581,8.75E-03,2.37E-02
103582,5.42E-03,2.38E-02
103583,4.96E-03,2.40E-02
103584,5.98E-03,2.40E-02
103585,7.15E-03,2.40E-02
103586,6.61E-03,1.76E-02
103587,5.95E-03,1.99E-02
103588,6.08E-03,2.00E-02
103589,6.47E-03,2.02E-02
103590,1.05E-02,1.80E-02
103591,4.63E-03,8.51E-03
103592,7.66E-03,1.47E-02
103593,6.62E-03,1.77E-02
103594,7.98E-03,1.47E-02
103595,7.14E-03,1.75E-02
103596,5.76E-03,1.76E-02
103597,8.21E-03,8.94E-03
103598,7.35E-03,1.09E-02
103599,6.71E-03,1.11E-02
103600,6.79E-03,1.72E-02
103601,8.00E-03,1.66E-02
103602,5.57E-03,1.64E-02
103603,7.82E-03,9.69E-03
103604,6.30E-03,8.86E-03
103605,6.56E-03,8.87E-03
103606,6.23E-03,8.64E-03
103607,7.98E-03,9.18E-03
103608,7.51E-03,8.86E-03
103609,8.64E-03,1.80E-02
103610,8.12E-03,1.44E-02
103611,8.13E-03,1.44E-02
103612,8.13E-03,1.44E-02
103613,8.13E-03,1.43E-02
103614,8.13E-03,1.43E-02
103615,8.13E-03,1.43E-02
103616,8.13E-03,1.42E-02
103617,8.13E-03,1.42E-02
103618,8.13E-03,1.42E-02
103619,8.13E-03,1.41E-02
103620,8.13E-03,1.41E-02
103621,8.13E-03,1.41E-02
103622,8.13E-03,1.40E-02
103623,8.14E-03,1.40E-02
103624,8.14E-03,1.40E-02
103625,8.14E-03,1.39E-02
103626,8.14E-03,1.39E-02
103627,8.14E-03,1.39E-02
103628,8.14E-03,1.38E-02
103629,8.14E-03,1.38E-02
103630,8.14E-03,1.38E-02
103631,8.14E-03,1.37E-02
103632,8.15E-03,1.37E-02
103633,8.15E-03,1.37E-02
103634,8.15E-03,1.36E-02
103635,8.15E-03,1.36E-02
103636,8.16E-03,1.35E-02
103637,8.16E-03,1.35E-02
103638,8.16E-03,1.35E-02
103639,8.17E-03,1.34E-02
103640,8.17E-03,1.34E-02
103641,8.18E-03,1.34E-02
103642,8.19E-03,1.33E-02
103643,8.19E-03,1.33E-02
103644,8.19E-03,1.32E-02
103645,8.20E-03,1.32E-02
103646,8.20E-03,1.32E-02
103647,8.21E-03,1.31E-02
103648,8.22E-03,1.31E-02
103649,8.22E-03,1.31E-02
103650,8.23E-03,1.30E-02
103651,8.24E-03,1.30E-02
103652,8.25E-03,1.29E-02
103653,8.26E-03,1.29E-02
103654,8.27E-03,1.29E-02
103655,8.29E-03,1.28E-02
103656,8.30E-03,1.28E-02
103657,8.32E-03,1.28E-02
103658,8.34E-03,1.27E-02
103659,8.36E-03,1.27E-02
103660,8.39E-03,1.27E-02
103661,8.41E-03,1.26E-02
103662,8.45E-03,1.26E-02
103663,8.49E-03,1.26E-02
103664,8.54E-03,1.25E-02
103665,8.66E-03,1.25E-02
103666,8.73E-03,1.24E-02
103667,9.00E-03,1.24E-02
103668,9.13E-03,1.24E-02
103669,9.24E-03,1.23E-02
103670,9.50E-03,1.23E-02
103671,9.60E-03,1.23E-02
103672,1.00E-02,1.22E-02
103673,1.05E-02,1.22E-02
103674,1.07E-02,1.22E-02
103675,9.58E-03,1.21E-02
103676,9.22E-03,1.21E-02
103677,9.06E-03,1.21E-02
103678,8.86E-03,1.20E-02
103679,8.87E-03,1.20E-02
103680,8.97E-03,1.20E-02
103681,9.08E-03,1.19E-02
103682,9.22E-03,1.19E-02
103683,9.40E-03,1.19E-02
103684,9.64E-03,1.18E-02
103685,9.95E-03,1.18E-02
103686,1.04E-02,1.17E-02
103687,9.73E-03,1.17E-02
103688,8.57E-03,1.17E-02
103689,6.38E-03,1.16E-02
103690,5.04E-03,1.16E-02
103691,5.00E-03,1.16E-02
103692,6.58E-03,1.16E-02
103693,6.52E-03,1.16E-02
103694,6.60E-03,1.15E-02
103695,7.00E-03,1.15E-02
103696,7.11E-03,1.15E-02
103697,7.27E-03,1.15E-02
103698,7.37E-03,1.15E-02
103699,7.44E-03,1.14E-02
103700,7.54E-03,1.14E-02
103701,7.64E-03,1.14E-02
103702,7.69E-03,1.14E-02
103703,7.69E-03,1.14E-02
103704,7.70E-03,1.14E-02
103705,8.20E-03,1.14E-02
103706,8.88E-03,1.14E-02
103707,8.90E-03,1.14E-02
103708,8.67E-03,1.14E-02
103709,8.55E-03,1.14E-02
103710,8.61E-03,1.14E-02
103711,8.76E-03,1.14E-02
103712,8.87E-03,1.14E-02
103713,8.97E-03,1.14E-02
103714,9.10E-03,1.14E-02
103715,9.26E-03,1.14E-02
103716,9.47E-03,1.15E-02
103717,9.86E-03,1.15E-02
103718,1.02E-02,1.15E-02
103719,1.02E-02,1.16E-02
103720,9.35E-03,1.16E-02
103721,8.22E-03,1.17E-02
103722,7.73E-03,1.17E-02
103723,7.77E-03,1.18E-02
103724,7.79E-03,1.18E-02
103725,7.86E-03,1.19E-02
103726,7.87E-03,1.19E-02
103727,7.86E-03,1.20E-02
103728,7.75E-03,1.21E-02
103729,7.61E-03,1.21E-02
103730,7.37E-03,1.22E-02
103731,7.29E-03,1.23E-02
103732,7.52E-03,1.24E-02
103733,7.86E-03,1.24E-02
103734,8.83E-03,8.42E-03
103735,8.81E-03,8.40E-03
103736,9.00E-03,8.39E-03
103737,9.44E-03,8.38E-03
103738,9.68E-03,8.37E-03
103739,9.78E-03,8.37E-03
103740,7.94E-03,8.36E-03
103741,6.90E-03,8.35E-03
103742,6.56E-03,8.34E-03
103743,6.35E-03,8.33E-03
103744,6.09E-03,8.33E-03
103745,5.77E-03,8.32E-03
103746,5.34E-03,8.32E-03
103747,4.75E-03,8.32E-03
103748,5.01E-03,8.32E-03
103749,5.83E-03,8.32E-03
103750,6.16E-03,8.32E-03
103751,6.16E-03,8.33E-03
103752,6.04E-03,8.33E-03
103753,5.98E-03,8.34E-03
103754,7.82E-03,8.35E-03
103755,9.74E-03,8.36E-03
103756,9.73E-03,8.37E-03
103757,9.93E-03,8.38E-03
103758,9.51E-03,8.39E-03
103759,9.27E-03,8.41E-03
103760,8.95E-03,8.41E-03
103761,8.40E-03,8.41E-03
103762,8.32E-03,8.42E-03
103763,8.21E-03,8.42E-03
103764,8.09E-03,8.42E-03
103765,8.09E-03,8.43E-03
103766,8.30E-03,8.43E-03
103767,9.71E-03,8.43E-03
103768,1.08E-02,8.44E-03
103769,1.04E-02,8.43E-03
103770,9.88E-03,8.43E-03
103771,9.53E-03,8.42E-03
103772,9.54E-03,8.41E-03
103773,9.87E-03,8.41E-03
103774,1.06E-02,8.39E-03
103775,1.10E-02,8.38E-03
103776,1.09E-02,8.36E-03
103777,1.08E-02,8.33E-03
103778,1.03E-02,8.30E-03
103779,9.88E-03,8.27E-03
103780,9.58E-03,8.24E-03
103781,9.32E-03,8.21E-03
103782,9.31E-03,8.18E-03
103783,9.12E-03,8.14E-03
103784,8.82E-03,8.11E-03
103785,8.64E-03,8.07E-03
103786,8.52E-03,8.03E-03
103787,8.44E-03,8.00E-03
103788,8.38E-03,7.96E-03
103789,8.34E-03,7.92E-03
103790,8.31E-03,7.89E-03
103791,8.17E-03,7.85E-03
103792,7.87E-03,7.81E-03
103793,7.68E-03,7.78E-03
103794,7.65E-03,7.74E-03
103795,7.62E-03,7.71E-03
103796,7.58E-03,7.67E-03
103797,7.54E-03,7.64E-03
103798,7.49E-03,7.61E-03
103799,7.44E-03,7.57E-03
103800,7.38E-03,7.54E-03
103801,7.31E-03,7.51E-03
103802,7.22E-03,7.48E-03
103803,7.12E-03,7.45E-03
103804,7.00E-03,7.43E-03
103805,6.84E-03,7.40E-03
103806,6.62E-03,7.38E-03
103807,6.57E-03,7.35E-03
103808,6.79E-03,7.33E-03
103809,7.00E-03,7.31E-03
103810,7.01E-03,7.29E-03
103811,6.89E-03,7.28E-03
103812,6.75E-03,7.26E-03
103813,6.52E-03,7.25E-03
103814,6.13E-03,7.24E-03
103815,6.22E-03,7.23E-03
103816,6.62E-03,7.22E-03
103817,7.21E-03,7.22E-03
103818,7.46E-03,7.22E-03
103819,7.45E-03,7.20E-03
103820,7.33E-03,7.17E-03
103821,7.33E-03,7.08E-03
103822,7.10E-03,8.96E-03
103823,8.68E-03,8.75E-03
103824,8.91E-03,8.71E-03
103825,7.91E-03,8.69E-03
103826,7.92E-03,8.67E-03
103827,7.78E-03,1.02E-02
103828,8.12E-03,1.11E-02
103829,8.32E-03,1.77E-02
103830,7.61E-03,9.30E-03
103831,6.57E-03,1.69E-02
103832,7.75E-03,1.72E-02
103833,6.62E-03,1.71E-02
103834,8.64E-03,8.57E-03
103835,6.91E-03,8.22E-03
103836,6.59E-03,8.20E-03
103837,7.69E-03,1.74E-02
103838,6.80E-03,1.98E-02
103839,6.66E-03,1.93E-02
103840,7.05E-03,1.90E-02
103841,7.51E-03,1.56E-02
103842,7.56E-03,1.77E-02
103843,6.98E-03,1.76E-02
103844,7.09E-03,1.77E-02
103845,9.10E-03,7.75E-03
103846,9.08E-03,7.69E-03
103847,8.52E-03,7.65E-03
103848,8.21E-03,8.55E-03
103849,6.14E-03,8.50E-03
103850,9.10E-03,8.54E-03
103851,6.52E-03,2.35E-02
103852,7.28E-03,2.01E-02
103853,9.62E-03,8.23E-03
103854,8.65E-03,1.54E-02
103855,7.48E-03,1.49E-02
103856,6.60E-03,6.98E-03
103857,7.11E-03,7.15E-03
103858,8.16E-03,1.46E-02
103859,8.10E-03,1.45E-02
103860,1.22E-02,1.65E-02
103861,1.05E-02,1.64E-02
103862,1.01E-02,1.64E-02
103863,9.82E-03,1.63E-02
103864,9.76E-03,1.62E-02
103865,9.58E-03,1.61E-02
103866,9.29E-03,1.60E-02
103867,9.11E-03,1.59E-02
103868,9.10E-03,1.58E-02
103869,9.16E-03,1.57E-02
103870,9.24E-03,1.57E-02
103871,9.33E-03,1.56E-02
103872,9.41E-03,1.55E-02
103873,9.44E-03,1.54E-02
103874,9.45E-03,1.53E-02
103875,9.45E-03,1.51E-02
103876,9.46E-03,1.50E-02
103877,9.48E-03,1.49E-02
103878,9.50E-03,1.48E-02
103879,9.53E-03,1.47E-02
103880,9.56E-03,1.46E-02
103881,9.58E-03,1.44E-02
103882,9.60E-03,1.43E-02
103883,9.62E-03,1.42E-02
103884,9.65E-03,1.40E-02
103885,9.67E-03,1.39E-02
103886,9.70E-03,1.37E-02
103887,9.84E-03,1.36E-02
103888,9.92E-03,1.34E-02
103889,9.71E-03,1.32E-02
103890,9.40E-03,1.31E-02
103891,9.11E-03,1.29E-02
103892,8.94E-03,1.27E-02
103893,9.83E-03,1.25E-02
103894,8.76E-03,1.24E-02
103895,6.48E-03,1.22E-02
103896,6.43E-03,1.21E-02
103897,9.52E-03,1.15E-02
103898,7.44E-03,1.47E-02
103899,7.33E-03,1.49E-02
103900,9.05E-03,1.50E-02
103901,7.91E-03,1.66E-02
103902,8.18E-03,1.80E-02
103903,9.29E-03,1.80E-02
103904,8.38E-03,1.81E-02
103905,6.52E-03,1.50E-02
103906,7.17E-03,1.19E-02
103907,6.54E-03,8.83E-03
103908,8.98E-03,1.31E-02
103909,8.72E-03,1.29E-02
103910,5.11E-03,1.71E-02
103911,5.10E-03,1.70E-02
103912,9.35E-03,1.40E-02
103913,9.38E-03,1.40E-02
103914,8.12E-03,9.31E-03
103915,6.34E-03,8.72E-03
103916,5.81E-03,8.75E-03
103917,7.09E-03,8.73E-03
103918,6.81E-03,8.86E-03
103919,7.88E-03,9.80E-03
103920,7.83E-03,9.21E-03
103921,6.65E-03,1.68E-02
103922,7.15E-03,1.74E-02
103923,7.52E-03,1.73E-02
103924,8.67E-03,1.99E-02
103925,5.07E-03,1.06E-02
103926,8.52E-03,1.73E-02
103927,7.46E-03,9.00E-03
103928,5.70E-03,8.99E-03
103929,6.11E-03,8.94E-03
103930,6.75E-03,1.68E-02
103931,8.16E-03,1.68E-02
103932,8.34E-03,7.34E-03
103933,9.21E-03,8.43E-03
103934,1.02E-02,8.45E-03
103935,9.96E-03,8.45E-03
103936,9.16E-03,1.43E-02
103937,1.06E-02,7.87E-03
103938,6.22E-03,8.67E-03
103939,5.80E-03,8.48E-03
103940,8.56E-03,1.74E-02
103941,7.94E-03,1.46E-02
103942,9.85E-03,1.20E-02
103943,7.90E-03,1.75E-02
103944,7.15E-03,7.00E-03
103945,6.72E-03,1.11E-02
103946,8.11E-03,1.67E-02
103947,8.30E-03,8.87E-03
103948,8.22E-03,8.83E-03
103949,8.08E-03,8.80E-03
103950,7.84E-03,8.78E-03
103951,8.38E-03,8.43E-03
103952,8.90E-03,6.94E-03
103953,9.03E-03,6.77E-03
103954,7.86E-03,8.91E-03
103955,6.90E-03,8.84E-03
103956,8.21E-03,9.11E-03
103957,6.98E-03,1.76E-02
103958,8.10E-03,7.03E-03
103959,8.02E-03,1.97E-02
103960,9.13E-03,1.98E-02
103961,1.09E-02,1.99E-02
103962,1.15E-02,1.99E-02
103963,1.29E-02,2.00E-02
103964,1.13E-02,2.02E-02
103965,9.45E-03,2.03E-02
103966,9.24E-03,2.04E-02
103967,8.99E-03,2.05E-02
103968,8.42E-03,2.06E-02
103969,7.47E-03,2.07E-02
103970,7.12E-03,2.08E-02
103971,6.49E-03,2.09E-02
103972,5.61E-03,2.09E-02
103973,5.05E-03,2.10E-02
103974,4.75E-03,2.10E-02
103975,4.61E-03,2.11E-02
103976,4.73E-03,2.11E-02
103977,4.54E-03,2.11E-02
103978,4.56E-03,2.11E-02
103979,4.69E-03,2.12E-02
103980,4.80E-03,2.12E-02
103981,4.97E-03,2.12E-02
103982,5.90E-03,2.12E-02
103983,6.01E-03,2.13E-02
103984,6.30E-03,2.13E-02
103985,6.67E-03,2.13E-02
103986,6.86E-03,2.13E-02
103987,7.03E-03,2.13E-02
103988,7.03E-03,2.13E-02
103989,7.03E-03,2.13E-02
103990,7.35E-03,2.13E-02
103991,7.91E-03,2.13E-02
103992,8.15E-03,2.13E-02
103993,8.15E-03,2.13E-02
103994,8.15E-03,2.12E-02
103995,8.17E-03,2.12E-02
103996,8.25E-03,2.12E-02
103997,8.34E-03,2.12E-02
103998,8.41E-03,2.12E-02
103999,8.44E-03,2.12E-02
104000,8.45E-03,2.12E-02
104001,8.47E-03,2.11E-02
104002,8.49E-03,2.11E-02
104003,8.52E-03,2.11E-02
104004,8.54E-03,2.11E-02
104005,8.58E-03,2.11E-02
104006,8.61E-03,2.11E-02
104007,8.65E-03,2.11E-02
104008,8.70E-03,2.11E-02
104009,8.75E-03,2.11E-02
104010,8.81E-03,2.11E-02
104011,8.88E-03,2.11E-02
104012,8.96E-03,2.11E-02
104013,9.05E-03,2.12E-02
104014,9.15E-03,2.12E-02
104015,9.23E-03,2.12E-02
104016,9.32E-03,2.13E-02
104017,9.46E-03,2.13E-02
104018,9.61E-03,2.14E-02
104019,9.79E-03,2.14E-02
104020,1.00E-02,2.15E-02
104021,1.03E-02,2.16E-02
104022,1.06E-02,2.17E-02
104023,1.10E-02,2.18E-02
104024,1.10E-02,2.19E-02
104025,1.07E-02,2.21E-02
104026,1.05E-02,2.22E-02
104027,1.12E-02,2.23E-02
104028,1.01E-02,2.24E-02
104029,8.38E-03,2.26E-02
104030,7.31E-03,2.27E-02
104031,5.77E-03,2.28E-02
104032,5.72E-03,2.29E-02
104033,5.15E-03,2.30E-02
104034,5.53E-03,2.31E-02
104035,5.84E-03,2.35E-02
104036,5.76E-03,2.39E-02
104037,7.88E-03,6.90E-03
104038,6.88E-03,1.76E-02
104039,9.55E-03,6.77E-03
104040,1.08E-02,7.50E-03
104041,8.17E-03,1.69E-02
104042,8.35E-03,1.66E-02
104043,7.71E-03,1.63E-02
104044,7.35E-03,8.86E-03
104045,9.17E-03,1.58E-02
104046,1.09E-02,8.94E-03
104047,1.07E-02,8.92E-03
104048,1.01E-02,8.90E-03
104049,9.39E-03,8.88E-03
104050,8.94E-03,8.87E-03
104051,8.97E-03,8.85E-03
104052,7.89E-03,8.83E-03
104053,5.99E-03,8.82E-03
104054,5.88E-03,8.81E-03
104055,5.79E-03,8.80E-03
104056,5.69E-03,8.79E-03
104057,5.53E-03,8.79E-03
104058,5.09E-03,8.78E-03
104059,5.00E-03,8.77E-03
104060,5.05E-03,8.77E-03
104061,5.36E-03,8.77E-03
104062,6.50E-03,8.77E-03
104063,6.85E-03,8.77E-03
104064,7.21E-03,8.76E-03
104065,7.58E-03,8.76E-03
104066,7.58E-03,8.76E-03
104067,7.53E-03,8.75E-03
104068,7.44E-03,8.75E-03
104069,6.75E-03,8.75E-03
104070,6.45E-03,8.75E-03
104071,6.48E-03,8.75E-03
104072,6.56E-03,8.74E-03
104073,8.41E-03,8.74E-03
104074,8.47E-03,8.73E-03
104075,1.01E-02,8.75E-03
104076,1.25E-02,8.77E-03
104077,1.09E-02,8.75E-03
104078,1.06E-02,8.74E-03
104079,1.05E-02,8.74E-03
104080,7.92E-03,8.73E-03
104081,7.94E-03,8.72E-03
104082,6.49E-03,8.71E-03
104083,5.35E-03,8.71E-03
104084,5.15E-03,8.71E-03
104085,5.26E-03,8.71E-03
104086,5.77E-03,8.71E-03
104087,9.37E-03,8.72E-03
104088,9.54E-03,8.71E-03
104089,1.02E-02,8.70E-03
104090,1.12E-02,8.70E-03
104091,9.75E-03,8.71E-03
104092,9.84E-03,8.70E-03
104093,6.71E-03,8.70E-03
104094,6.61E-03,8.69E-03
104095,6.52E-03,8.69E-03
104096,6.24E-03,8.68E-03
104097,6.65E-03,8.67E-03
104098,9.80E-03,1.03E-02
104099,8.51E-03,1.05E-02
104100,8.48E-03,1.06E-02
104101,8.42E-03,1.07E-02
104102,8.45E-03,1.08E-02
104103,8.20E-03,1.10E-02
104104,8.52E-03,1.09E-02
104105,8.85E-03,1.78E-02
104106,9.28E-03,1.79E-02
104107,8.13E-03,9.28E-03
104108,7.64E-03,9.29E-03
104109,6.83E-03,1.68E-02
104110,7.67E-03,1.71E-02
104111,6.19E-03,8.56E-03
104112,9.94E-03,8.55E-03
104113,9.06E-03,8.54E-03
104114,1.14E-02,8.54E-03
104115,1.07E-02,8.52E-03
104116,9.93E-03,8.50E-03
104117,9.75E-03,8.48E-03
104118,9.55E-03,8.47E-03
104119,9.28E-03,8.45E-03
104120,9.21E-03,8.43E-03
104121,8.82E-03,8.41E-03
104122,8.20E-03,8.39E-03
104123,7.62E-03,8.37E-03
104124,7.45E-03,8.35E-03
104125,7.32E-03,8.33E-03
104126,7.17E-03,8.32E-03
104127,6.98E-03,8.30E-03
104128,6.92E-03,8.28E-03
104129,6.75E-03,8.27E-03
104130,6.54E-03,8.25E-03
104131,6.32E-03,8.24E-03
104132,5.91E-03,8.22E-03
104133,5.04E-03,8.22E-03
104134,4.46E-03,8.21E-03
104135,3.93E-03,8.20E-03
104136,5.47E-03,8.20E-03
104137,5.54E-03,8.20E-03
104138,5.38E-03,8.19E-03
104139,5.36E-03,8.19E-03
104140,5.79E-03,8.20E-03
104141,6.03E-03,8.20E-03
104142,7.93E-03,9.01E-03
104143,7.89E-03,9.00E-03
104144,7.77E-03,1.78E-02
104145,7.49E-03,1.87E-02
104146,7.64E-03,1.84E-02
104147,7.50E-03,1.81E-02
104148,5.81E-03,1.55E-02
104149,8.11E-03,1.46E-02
104150,8.12E-03,1.46E-02
104151,8.12E-03,1.47E-02
104152,8.12E-03,1.47E-02
104153,8.12E-03,1.47E-02
104154,8.12E-03,1.48E-02
104155,8.13E-03,1.48E-02
104156,8.14E-03,1.48E-02
104157,8.14E-03,1.49E-02
104158,8.14E-03,1.49E-02
104159,8.15E-03,1.49E-02
104160,8.15E-03,1.50E-02
104161,8.15E-03,1.50E-02
104162,8.15E-03,1.50E-02
104163,8.16E-03,1.51E-02
104164,8.16E-03,1.51E-02
104165,8.17E-03,1.51E-02
104166,8.17E-03,1.52E-02
104167,8.18E-03,1.52E-02
104168,8.18E-03,1.52E-02
104169,8.19E-03,1.52E-02
104170,8.19E-03,1.53E-02
104171,8.20E-03,1.53E-02
104172,8.21E-03,1.53E-02
104173,8.22E-03,1.54E-02
104174,8.23E-03,1.54E-02
104175,8.24E-03,1.54E-02
104176,8.25E-03,1.55E-02
104177,8.27E-03,1.55E-02
104178,8.29E-03,1.55E-02
104179,8.31E-03,1.56E-02
104180,8.34E-03,1.56E-02
104181,8.38E-03,1.56E-02
104182,8.42E-03,1.57E-02
104183,8.46E-03,1.57E-02
104184,8.51E-03,1.57E-02
104185,8.58E-03,1.58E-02
104186,8.66E-03,1.58E-02
104187,8.78E-03,1.59E-02
104188,8.93E-03,1.59E-02
104189,9.16E-03,1.59E-02
104190,9.51E-03,1.60E-02
104191,1.01E-02,1.60E-02
104192,9.90E-03,1.61E-02
104193,7.80E-03,1.61E-02
104194,6.44E-03,1.62E-02
104195,6.83E-03,1.62E-02
104196,7.09E-03,1.62E-02
104197,7.27E-03,1.63E-02
104198,7.40E-03,1.63E-02
104199,7.50E-03,1.63E-02
104200,7.58E-03,1.64E-02
104201,7.64E-03,1.64E-02
104202,7.69E-03,1.64E-02
104203,7.73E-03,1.65E-02
104204,7.77E-03,1.65E-02
104205,7.79E-03,1.66E-02
104206,7.82E-03,1.66E-02
104207,7.84E-03,1.66E-02
104208,7.86E-03,1.67E-02
104209,7.88E-03,1.67E-02
104210,7.89E-03,1.67E-02
104211,7.90E-03,1.68E-02
104212,7.91E-03,1.68E-02
104213,7.93E-03,1.68E-02
104214,7.93E-03,1.68E-02
104215,7.94E-03,1.69E-02
104216,7.95E-03,1.69E-02
104217,7.96E-03,1.69E-02
104218,7.96E-03,1.70E-02
104219,7.96E-03,1.70E-02
104220,7.95E-03,1.70E-02
104221,7.96E-03,1.70E-02
104222,7.98E-03,1.71E-02
104223,8.00E-03,1.71E-02
104224,8.01E-03,1.71E-02
104225,8.02E-03,1.71E-02
104226,8.03E-03,1.72E-02
104227,8.03E-03,1.72E-02
104228,8.04E-03,1.72E-02
104229,8.04E-03,1.72E-02
104230,8.09E-03,1.72E-02
104231,8.16E-03,1.73E-02
104232,8.19E-03,1.73E-02
104233,8.20E-03,1.73E-02
104234,8.21E-03,1.73E-02
104235,8.21E-03,1.73E-02
104236,8.22E-03,1.73E-02
104237,8.23E-03,1.74E-02
104238,8.24E-03,1.74E-02
104239,8.25E-03,1.74E-02
104240,8.27E-03,1.74E-02
104241,8.28E-03,1.74E-02
104242,8.30E-03,1.74E-02
104243,8.32E-03,1.74E-02
104244,8.35E-03,1.75E-02
104245,8.37E-03,1.75E-02
104246,8.41E-03,1.75E-02
104247,8.45E-03,1.75E-02
104248,8.50E-03,1.75E-02
104249,8.66E-03,1.76E-02
104250,8.66E-03,1.76E-02
104251,8.74E-03,1.76E-02
104252,8.64E-03,1.76E-02
104253,8.32E-03,1.77E-02
104254,7.13E-03,1.78E-02
104255,7.87E-03,1.79E-02
104256,8.81E-03,7.68E-03
104257,7.94E-03,8.53E-03
104258,8.38E-03,8.50E-03
104259,6.33E-03,8.50E-03
104260,6.83E-03,8.52E-03
104261,7.02E-03,8.53E-03
104262,7.06E-03,8.53E-03
104263,1.05E-02,8.54E-03
104264,9.75E-03,8.54E-03
104265,9.27E-03,8.24E-03
104266,9.17E-03,8.21E-03
104267,9.38E-03,8.20E-03
104268,9.60E-03,8.19E-03
104269,9.74E-03,8.18E-03
104270,9.75E-03,8.17E-03
104271,7.94E-03,8.16E-03
104272,6.94E-03,8.15E-03
104273,6.61E-03,8.14E-03
104274,6.41E-03,8.13E-03
104275,6.16E-03,8.12E-03
104276,5.84E-03,8.11E-03
104277,5.42E-03,8.11E-03
104278,4.86E-03,8.11E-03
104279,4.96E-03,8.10E-03
104280,5.99E-03,8.11E-03
104281,6.31E-03,8.11E-03
104282,6.22E-03,8.11E-03
104283,6.11E-03,8.12E-03
104284,6.05E-03,8.13E-03
104285,7.56E-03,8.13E-03
104286,1.00E-02,8.15E-03
104287,9.88E-03,8.16E-03
104288,9.86E-03,8.16E-03
104289,9.50E-03,8.17E-03
104290,9.42E-03,8.18E-03
104291,9.29E-03,8.19E-03
104292,8.28E-03,8.19E-03
104293,8.24E-03,8.20E-03
104294,8.21E-03,8.20E-03
104295,8.09E-03,8.20E-03
104296,8.10E-03,8.20E-03
104297,8.29E-03,8.20E-03
104298,9.66E-03,8.20E-03
104299,1.07E-02,8.20E-03
104300,1.03E-02,8.20E-03
104301,9.82E-03,8.20E-03
104302,9.48E-03,8.19E-03
104303,9.50E-03,8.18E-03
104304,9.81E-03,8.17E-03
104305,1.04E-02,8.15E-03
104306,1.10E-02,8.14E-03
104307,1.10E-02,8.11E-03
104308,1.07E-02,8.09E-03
104309,1.03E-02,8.06E-03
104310,9.69E-03,8.03E-03
104311,9.42E-03,8.00E-03
104312,9.29E-03,7.97E-03
104313,9.27E-03,7.93E-03
104314,9.09E-03,7.90E-03
104315,8.80E-03,7.86E-03
104316,8.62E-03,7.82E-03
104317,8.51E-03,7.79E-03
104318,8.43E-03,7.75E-03
104319,8.38E-03,7.71E-03
104320,8.33E-03,7.67E-03
104321,8.30E-03,7.64E-03
104322,8.17E-03,7.60E-03
104323,7.88E-03,7.56E-03
104324,7.69E-03,7.52E-03
104325,7.66E-03,7.49E-03
104326,7.63E-03,7.45E-03
104327,7.60E-03,7.42E-03
104328,7.56E-03,7.38E-03
104329,7.51E-03,7.35E-03
104330,7.46E-03,7.31E-03
104331,7.40E-03,7.28E-03
104332,7.33E-03,7.25E-03
104333,7.25E-03,7.22E-03
104334,7.15E-03,7.19E-03
104335,7.03E-03,7.16E-03
104336,6.88E-03,7.14E-03
104337,6.66E-03,7.11E-03
104338,6.61E-03,7.09E-03
104339,6.83E-03,7.07E-03
104340,7.04E-03,7.05E-03
104341,7.04E-03,7.03E-03
104342,6.93E-03,7.01E-03
104343,6.79E-03,6.99E-03
104344,6.57E-03,6.98E-03
104345,6.19E-03,6.97E-03
104346,6.27E-03,6.95E-03
104347,6.61E-03,6.95E-03
104348,7.06E-03,6.94E-03
104349,7.18E-03,6.92E-03
104350,7.19E-03,6.91E-03
104351,6.93E-03,6.81E-03
104352,6.95E-03,6.89E-03
104353,6.35E-03,2.31E-02
104354,7.25E-03,2.27E-02
104355,8.54E-03,2.24E-02
104356,9.31E-03,2.21E-02
104357,9.75E-03,2.16E-02
104358,8.13E-03,2.12E-02
104359,8.21E-03,2.08E-02
104360,8.14E-03,2.04E-02
104361,9.33E-03,8.29E-03
104362,9.19E-03,8.36E-03
104363,9.07E-03,8.42E-03
104364,9.03E-03,8.49E-03
104365,9.79E-03,8.59E-03
104366,9.76E-03,8.67E-03
104367,8.98E-03,8.69E-03
104368,8.56E-03,1.55E-02
104369,8.45E-03,1.56E-02
104370,1.13E-02,1.57E-02
104371,1.06E-02,1.59E-02
104372,1.02E-02,1.60E-02
104373,9.40E-03,1.61E-02
104374,9.35E-03,1.62E-02
104375,9.16E-03,1.63E-02
104376,9.03E-03,1.64E-02
104377,8.70E-03,1.65E-02
104378,8.63E-03,1.66E-02
104379,8.55E-03,1.67E-02
104380,8.53E-03,1.68E-02
104381,8.55E-03,1.69E-02
104382,8.56E-03,1.70E-02
104383,8.62E-03,1.71E-02
104384,8.69E-03,1.45E-02
104385,8.16E-03,1.47E-02
104386,8.36E-03,1.45E-02
104387,8.57E-03,1.43E-02
104388,9.10E-03,1.42E-02
104389,6.67E-03,6.92E-03
104390,6.44E-03,6.89E-03
104391,6.13E-03,6.87E-03
104392,6.56E-03,6.88E-03
104393,6.66E-03,6.92E-03
104394,7.00E-03,7.05E-03
104395,6.82E-03,6.98E-03
104396,8.12E-03,1.45E-02
104397,8.12E-03,1.45E-02
104398,8.13E-03,1.44E-02
104399,8.13E-03,1.44E-02
104400,8.13E-03,1.44E-02
104401,8.13E-03,1.43E-02
104402,8.13E-03,1.43E-02
104403,8.13E-03,1.43E-02
104404,8.13E-03,1.42E-02
104405,8.13E-03,1.42E-02
104406,8.13E-03,1.42E-02
104407,8.13E-03,1.41E-02
104408,8.13E-03,1.41E-02
104409,8.13E-03,1.41E-02
104410,8.13E-03,1.40E-02
104411,8.14E-03,1.40E-02
104412,8.14E-03,1.39E-02
104413,8.14E-03,1.39E-02
104414,8.14E-03,1.39E-02
104415,8.14E-03,1.38E-02
104416,8.14E-03,1.38E-02
104417,8.14E-03,1.38E-02
104418,8.14E-03,1.37E-02
104419,8.15E-03,1.37E-02
104420,8.15E-03,1.36E-02
104421,8.15E-03,1.36E-02
104422,8.15E-03,1.36E-02
104423,8.16E-03,1.35E-02
104424,8.16E-03,1.35E-02
104425,8.17E-03,1.35E-02
104426,8.17E-03,1.34E-02
104427,8.18E-03,1.34E-02
104428,8.18E-03,1.33E-02
104429,8.19E-03,1.33E-02
104430,8.19E-03,1.33E-02
104431,8.19E-03,1.32E-02
104432,8.20E-03,1.32E-02
104433,8.21E-03,1.31E-02
104434,8.21E-03,1.31E-02
104435,8.22E-03,1.31E-02
104436,8.23E-03,1.30E-02
104437,8.24E-03,1.30E-02
104438,8.24E-03,1.29E-02
104439,8.26E-03,1.29E-02
104440,8.27E-03,1.29E-02
104441,8.28E-03,1.28E-02
104442,8.29E-03,1.28E-02
104443,8.31E-03,1.27E-02
104444,8.33E-03,1.27E-02
104445,8.35E-03,1.27E-02
104446,8.38E-03,1.26E-02
104447,8.40E-03,1.26E-02
104448,8.44E-03,1.26E-02
104449,8.48E-03,1.25E-02
104450,8.53E-03,1.25E-02
104451,8.59E-03,1.24E-02
104452,8.76E-03,1.24E-02
104453,8.87E-03,1.24E-02
104454,9.14E-03,1.23E-02
104455,9.18E-03,1.23E-02
104456,9.35E-03,1.23E-02
104457,9.52E-03,1.22E-02
104458,9.98E-03,1.22E-02
104459,1.06E-02,1.21E-02
104460,1.08E-02,1.21E-02
104461,9.55E-03,1.21E-02
104462,9.19E-03,1.20E-02
104463,8.87E-03,1.20E-02
104464,8.77E-03,1.19E-02
104465,8.85E-03,1.19E-02
104466,8.94E-03,1.19E-02
104467,9.05E-03,1.18E-02
104468,9.19E-03,1.18E-02
104469,9.36E-03,1.18E-02
104470,9.59E-03,1.17E-02
104471,9.89E-03,1.17E-02
104472,1.03E-02,1.16E-02
104473,9.92E-03,1.16E-02
104474,8.69E-03,1.16E-02
104475,5.84E-03,1.15E-02
104476,5.28E-03,1.15E-02
104477,5.32E-03,1.15E-02
104478,6.44E-03,1.14E-02
104479,6.52E-03,1.14E-02
104480,6.68E-03,1.14E-02
104481,7.05E-03,1.14E-02
104482,7.19E-03,1.13E-02
104483,7.30E-03,1.13E-02
104484,7.39E-03,1.13E-02
104485,7.46E-03,1.13E-02
104486,7.55E-03,1.13E-02
104487,7.66E-03,1.12E-02
104488,7.70E-03,1.12E-02
104489,7.70E-03,1.12E-02
104490,7.71E-03,1.12E-02
104491,8.20E-03,1.12E-02
104492,8.85E-03,1.12E-02
104493,8.88E-03,1.12E-02
104494,8.65E-03,1.12E-02
104495,8.53E-03,1.12E-02
104496,8.60E-03,1.12E-02
104497,8.74E-03,1.12E-02
104498,8.84E-03,1.12E-02
104499,8.94E-03,1.12E-02
104500,9.06E-03,1.12E-02
104501,9.22E-03,1.12E-02
104502,9.43E-03,1.13E-02
104503,9.80E-03,1.13E-02
104504,1.02E-02,1.13E-02
104505,1.01E-02,1.14E-02
104506,9.31E-03,1.14E-02
104507,8.22E-03,1.15E-02
104508,7.74E-03,1.15E-02
104509,7.73E-03,1.16E-02
104510,7.74E-03,1.16E-02
104511,7.75E-03,1.17E-02
104512,7.82E-03,1.17E-02
104513,7.79E-03,1.18E-02
104514,7.64E-03,1.19E-02
104515,7.63E-03,1.19E-02
104516,7.52E-03,1.20E-02
104517,7.54E-03,1.21E-02
104518,7.58E-03,1.22E-02
104519,7.73E-03,1.23E-02
104520,8.92E-03,1.23E-02
104521,9.23E-03,1.22E-02
104522,9.21E-03,1.20E-02
104523,9.40E-03,1.18E-02
104524,9.61E-03,1.17E-02
104525,1.05E-02,1.16E-02
104526,7.67E-03,1.50E-02
104527,1.10E-02,1.66E-02
104528,1.05E-02,1.65E-02
104529,1.01E-02,1.64E-02
104530,9.89E-03,1.63E-02
104531,9.66E-03,1.62E-02
104532,9.53E-03,1.61E-02
104533,9.29E-03,1.60E-02
104534,9.04E-03,1.60E-02
104535,9.07E-03,1.59E-02
104536,9.13E-03,1.58E-02
104537,9.21E-03,1.57E-02
104538,9.29E-03,1.56E-02
104539,9.37E-03,1.55E-02
104540,9.40E-03,1.54E-02
104541,9.41E-03,1.53E-02
104542,9.41E-03,1.52E-02
104543,9.42E-03,1.51E-02
104544,9.44E-03,1.50E-02
104545,9.46E-03,1.49E-02
104546,9.49E-03,1.47E-02
104547,9.51E-03,1.46E-02
104548,9.53E-03,1.45E-02
104549,9.55E-03,1.44E-02
104550,9.57E-03,1.42E-02
104551,9.60E-03,1.41E-02
104552,9.62E-03,1.40E-02
104553,9.65E-03,1.38E-02
104554,9.67E-03,1.37E-02
104555,9.67E-03,1.35E-02
104556,9.47E-03,1.33E-02
104557,9.34E-03,1.32E-02
104558,9.18E-03,1.30E-02
104559,9.06E-03,1.28E-02
104560,9.39E-03,1.26E-02
104561,8.90E-03,1.62E-02
104562,9.35E-03,1.81E-02
104563,7.21E-03,1.49E-02
104564,7.20E-03,1.47E-02
104565,7.37E-03,1.20E-02
104566,1.07E-02,1.20E-02
104567,1.05E-02,1.21E-02
104568,1.06E-02,1.22E-02
104569,1.04E-02,1.23E-02
104570,1.02E-02,1.24E-02
104571,9.89E-03,1.25E-02
104572,9.56E-03,1.26E-02
104573,9.23E-03,1.27E-02
104574,9.03E-03,1.28E-02
104575,8.89E-03,1.28E-02
104576,8.78E-03,1.29E-02
104577,8.68E-03,1.30E-02
104578,8.55E-03,1.31E-02
104579,8.47E-03,1.32E-02
104580,8.56E-03,1.33E-02
104581,8.77E-03,1.34E-02
104582,8.91E-03,1.34E-02
104583,8.40E-03,1.35E-02
104584,7.85E-03,1.36E-02
104585,7.82E-03,1.37E-02
104586,7.82E-03,1.38E-02
104587,7.82E-03,1.39E-02
104588,7.80E-03,1.40E-02
104589,7.65E-03,1.40E-02
104590,7.62E-03,1.41E-02
104591,7.54E-03,1.42E-02
104592,7.48E-03,1.43E-02
104593,7.47E-03,1.44E-02
104594,7.47E-03,1.45E-02
104595,8.21E-03,1.46E-02
104596,6.48E-03,8.81E-03
104597,9.21E-03,1.26E-02
104598,9.62E-03,1.23E-02
104599,5.97E-03,1.71E-02
104600,1.05E-02,1.35E-02
104601,4.82E-03,8.62E-03
104602,1.19E-02,1.54E-02
104603,7.81E-03,9.40E-03
104604,5.91E-03,8.76E-03
104605,6.27E-03,8.76E-03
104606,7.50E-03,8.87E-03
104607,6.86E-03,8.85E-03
104608,1.03E-02,8.61E-03
104609,9.17E-03,8.57E-03
104610,8.42E-03,8.56E-03
104611,8.42E-03,8.54E-03
104612,7.76E-03,9.91E-03
104613,8.29E-03,1.07E-02
104614,7.67E-03,9.19E-03
104615,6.62E-03,1.70E-02
104616,6.23E-03,1.68E-02
104617,7.51E-03,1.73E-02
104618,7.02E-03,1.71E-02
104619,9.05E-03,8.42E-03
104620,9.36E-03,1.99E-02
104621,9.93E-03,1.98E-02
104622,9.90E-03,1.98E-02
104623,9.82E-03,1.97E-02
104624,9.65E-03,1.97E-02
104625,9.40E-03,1.97E-02
104626,9.22E-03,1.97E-02
104627,9.03E-03,1.97E-02
104628,8.79E-03,1.97E-02
104629,8.77E-03,1.97E-02
104630,8.75E-03,1.97E-02
104631,8.73E-03,1.97E-02
104632,8.70E-03,1.97E-02
104633,8.68E-03,1.97E-02
104634,8.64E-03,1.97E-02
104635,8.58E-03,1.97E-02
104636,8.54E-03,1.97E-02
104637,8.50E-03,1.97E-02
104638,8.46E-03,1.97E-02
104639,8.43E-03,1.97E-02
104640,8.41E-03,1.97E-02
104641,8.38E-03,1.97E-02
104642,8.36E-03,1.97E-02
104643,8.34E-03,1.97E-02
104644,8.33E-03,1.97E-02
104645,8.31E-03,1.97E-02
104646,8.30E-03,1.97E-02
104647,8.29E-03,1.97E-02
104648,8.28E-03,1.97E-02
104649,8.27E-03,1.97E-02
104650,8.26E-03,1.97E-02
104651,8.25E-03,1.97E-02
104652,8.24E-03,1.97E-02
104653,8.23E-03,1.97E-02
104654,8.22E-03,1.97E-02
104655,8.22E-03,1.97E-02
104656,8.21E-03,1.97E-02
104657,8.20E-03,1.97E-02
104658,8.20E-03,1.97E-02
104659,8.19E-03,1.97E-02
104660,8.19E-03,1.97E-02
104661,8.17E-03,1.97E-02
104662,8.09E-03,1.97E-02
104663,8.03E-03,1.97E-02
104664,8.02E-03,1.96E-02
104665,8.00E-03,1.96E-02
104666,7.98E-03,1.96E-02
104667,7.94E-03,1.96E-02
104668,7.87E-03,1.96E-02
104669,7.78E-03,1.96E-02
104670,7.78E-03,1.96E-02
104671,7.81E-03,1.96E-02
104672,7.79E-03,1.95E-02
104673,7.76E-03,1.95E-02
104674,7.73E-03,1.95E-02
104675,7.69E-03,1.95E-02
104676,7.64E-03,1.95E-02
104677,7.55E-03,1.94E-02
104678,7.33E-03,1.94E-02
104679,7.15E-03,1.94E-02
104680,6.97E-03,1.94E-02
104681,6.80E-03,1.94E-02
104682,6.77E-03,1.93E-02
104683,6.59E-03,1.93E-02
104684,6.46E-03,1.93E-02
104685,6.53E-03,1.92E-02
104686,6.74E-03,1.92E-02
104687,7.53E-03,1.91E-02
104688,7.57E-03,1.91E-02
104689,7.58E-03,1.91E-02
104690,9.57E-03,1.90E-02
104691,9.54E-03,1.89E-02
104692,9.62E-03,1.89E-02
104693,9.53E-03,1.88E-02
104694,9.37E-03,1.87E-02
104695,9.11E-03,1.87E-02
104696,8.69E-03,1.86E-02
104697,8.25E-03,1.86E-02
104698,8.24E-03,1.85E-02
104699,6.95E-03,1.85E-02
104700,6.09E-03,1.84E-02
104701,6.03E-03,1.84E-02
104702,6.04E-03,1.83E-02
104703,7.22E-03,1.83E-02
104704,8.83E-03,1.82E-02
104705,6.59E-03,1.07E-02
104706,7.36E-03,1.14E-02
104707,7.26E-03,1.13E-02
104708,7.00E-03,1.12E-02
104709,7.10E-03,1.12E-02
104710,7.34E-03,1.11E-02
104711,7.40E-03,1.11E-02
104712,7.47E-03,1.10E-02
104713,7.63E-03,1.10E-02
104714,7.68E-03,1.09E-02
104715,7.73E-03,1.08E-02
104716,7.77E-03,1.08E-02
104717,7.80E-03,1.07E-02
104718,7.83E-03,1.07E-02
104719,7.85E-03,1.06E-02
104720,7.88E-03,1.05E-02
104721,7.93E-03,1.05E-02
104722,7.96E-03,1.04E-02
104723,7.96E-03,1.04E-02
104724,7.95E-03,1.03E-02
104725,7.95E-03,1.03E-02
104726,7.94E-03,1.02E-02
104727,7.94E-03,1.01E-02
104728,7.93E-03,1.01E-02
104729,7.92E-03,1.00E-02
104730,7.92E-03,9.99E-03
104731,7.91E-03,9.94E-03
104732,7.90E-03,9.90E-03
104733,7.89E-03,9.85E-03
104734,7.88E-03,9.80E-03
104735,7.87E-03,9.76E-03
104736,7.86E-03,9.71E-03
104737,7.85E-03,9.67E-03
104738,7.84E-03,9.63E-03
104739,7.82E-03,9.58E-03
104740,7.81E-03,9.54E-03
104741,7.79E-03,9.50E-03
104742,7.70E-03,9.46E-03
104743,7.61E-03,9.42E-03
104744,7.57E-03,9.38E-03
104745,7.69E-03,9.34E-03
104746,8.20E-03,9.29E-03
104747,6.21E-03,9.24E-03
104748,6.78E-03,8.02E-03
104749,7.54E-03,8.04E-03
104750,6.39E-03,8.89E-03
104751,7.59E-03,8.87E-03
104752,7.13E-03,1.71E-02
104753,6.62E-03,1.94E-02
104754,6.86E-03,1.89E-02
104755,6.90E-03,1.87E-02
104756,7.31E-03,1.51E-02
104757,8.36E-03,1.65E-02
104758,8.50E-03,1.62E-02
104759,8.09E-03,1.59E-02
104760,7.74E-03,1.56E-02
104761,6.29E-03,1.55E-02
104762,8.95E-03,1.77E-02
104763,7.70E-03,1.79E-02
104764,8.48E-03,1.82E-02
104765,7.85E-03,1.81E-02
104766,1.07E-02,7.41E-03
104767,9.11E-03,7.40E-03
104768,8.44E-03,7.37E-03
104769,8.71E-03,8.41E-03
104770,9.25E-03,1.38E-02
104771,8.20E-03,8.06E-03
104772,7.76E-03,2.31E-02
104773,7.31E-03,1.98E-02
104774,9.71E-03,7.93E-03
104775,6.08E-03,8.37E-03
104776,9.07E-03,1.54E-02
104777,7.42E-03,1.74E-02
104778,8.10E-03,9.16E-03
104779,6.23E-03,9.15E-03
104780,1.01E-02,1.36E-02
104781,8.98E-03,1.75E-02
104782,9.40E-03,1.75E-02
104783,1.05E-02,1.76E-02
104784,1.14E-02,1.77E-02
104785,1.03E-02,1.77E-02
104786,1.00E-02,1.78E-02
104787,9.95E-03,1.79E-02
104788,1.00E-02,1.79E-02
104789,1.01E-02,1.80E-02
104790,1.07E-02,1.81E-02
104791,9.27E-03,1.81E-02
104792,8.73E-03,1.75E-02
104793,7.24E-03,6.88E-03
104794,8.16E-03,1.46E-02
104795,8.10E-03,1.46E-02
104796,1.03E-02,1.21E-02
104797,5.80E-03,1.18E-02
104798,6.06E-03,1.17E-02
104799,8.53E-03,1.11E-02
104800,6.91E-03,1.07E-02
104801,7.21E-03,1.47E-02
104802,7.26E-03,1.49E-02
104803,1.05E-02,1.51E-02
104804,7.97E-03,1.26E-02
104805,8.37E-03,1.63E-02
104806,9.12E-03,1.83E-02
104807,1.10E-02,1.41E-02
104808,7.23E-03,1.40E-02
104809,7.92E-03,1.39E-02
104810,7.96E-03,1.38E-02
104811,8.03E-03,1.37E-02
104812,8.04E-03,1.36E-02
104813,8.12E-03,1.36E-02
104814,8.16E-03,1.35E-02
104815,8.25E-03,1.34E-02
104816,8.30E-03,1.33E-02
104817,8.38E-03,1.32E-02
104818,9.09E-03,1.31E-02
104819,9.04E-03,1.29E-02
104820,8.40E-03,1.26E-02
104821,7.61E-03,8.73E-03
104822,7.39E-03,8.67E-03
104823,8.12E-03,8.66E-03
104824,8.01E-03,8.35E-03
104825,8.48E-03,8.21E-03
104826,6.13E-03,6.68E-03
104827,6.61E-03,6.53E-03
104828,7.25E-03,8.77E-03
104829,7.85E-03,9.00E-03
104830,4.44E-03,8.66E-03
104831,5.13E-03,1.03E-02
104832,4.93E-03,8.76E-03
104833,8.24E-03,8.87E-03
104834,7.17E-03,8.46E-03
104835,5.88E-03,8.75E-03
104836,6.62E-03,8.75E-03
104837,9.61E-03,8.41E-03
104838,1.06E-02,8.44E-03
104839,7.80E-03,9.50E-03
104840,7.84E-03,9.09E-03
104841,6.94E-03,1.75E-02
104842,7.46E-03,1.74E-02
104843,6.46E-03,1.64E-02
104844,8.27E-03,1.64E-02
104845,6.73E-03,1.84E-02
104846,7.55E-03,1.16E-02
104847,8.13E-03,1.17E-02
104848,7.64E-03,1.18E-02
104849,8.21E-03,7.06E-03
104850,9.27E-03,8.28E-03
104851,9.21E-03,8.27E-03
104852,9.11E-03,8.27E-03
104853,5.91E-03,2.31E-02
104854,6.10E-03,2.32E-02
104855,6.37E-03,2.32E-02
104856,6.60E-03,2.33E-02
104857,6.75E-03,2.33E-02
104858,6.96E-03,2.33E-02
104859,7.23E-03,2.34E-02
104860,7.29E-03,2.34E-02
104861,7.57E-03,2.34E-02
104862,7.63E-03,2.34E-02
104863,7.69E-03,2.35E-02
104864,7.73E-03,2.35E-02
104865,7.77E-03,2.35E-02
104866,7.80E-03,2.35E-02
104867,7.82E-03,2.36E-02
104868,7.85E-03,2.36E-02
104869,7.86E-03,2.36E-02
104870,7.88E-03,2.36E-02
104871,7.90E-03,2.36E-02
104872,7.91E-03,2.37E-02
104873,7.92E-03,2.37E-02
104874,7.94E-03,2.37E-02
104875,7.95E-03,2.37E-02
104876,7.96E-03,2.37E-02
104877,7.97E-03,2.38E-02
104878,7.97E-03,2.38E-02
104879,7.98E-03,2.38E-02
104880,7.98E-03,2.38E-02
104881,7.98E-03,2.38E-02
104882,7.99E-03,2.39E-02
104883,7.99E-03,2.39E-02
104884,7.99E-03,2.39E-02
104885,7.99E-03,2.40E-02
104886,8.00E-03,2.40E-02
104887,8.00E-03,2.40E-02
104888,8.13E-03,2.40E-02
104889,8.28E-03,2.40E-02
104890,8.69E-03,2.40E-02
104891,8.89E-03,2.41E-02
104892,8.76E-03,2.41E-02
104893,7.83E-03,2.42E-02
104894,6.90E-03,2.42E-02
104895,6.78E-03,2.44E-02
104896,6.63E-03,2.46E-02
104897,7.10E-03,2.45E-02
104898,8.14E-03,2.43E-02
104899,8.61E-03,2.41E-02
104900,7.45E-03,2.36E-02
104901,6.55E-03,2.31E-02
104902,8.17E-03,8.21E-03
104903,8.35E-03,1.75E-02
104904,1.05E-02,2.02E-02
104905,6.74E-03,6.70E-03
104906,5.49E-03,6.59E-03
104907,5.87E-03,6.48E-03
104908,7.51E-03,6.75E-03
104909,7.78E-03,8.96E-03
104910,8.08E-03,8.75E-03
104911,6.93E-03,8.72E-03
104912,8.75E-03,2.00E-02
104913,1.04E-02,2.01E-02
104914,1.07E-02,2.02E-02
104915,1.13E-02,2.03E-02
104916,1.13E-02,2.04E-02
104917,1.10E-02,2.05E-02
104918,1.00E-02,2.06E-02
104919,9.62E-03,2.07E-02
104920,9.17E-03,2.08E-02
104921,8.40E-03,2.09E-02
104922,7.60E-03,2.10E-02
104923,7.40E-03,2.11E-02
104924,6.14E-03,2.12E-02
104925,5.45E-03,2.12E-02
104926,5.20E-03,2.13E-02
104927,4.88E-03,2.13E-02
104928,4.71E-03,2.14E-02
104929,4.76E-03,2.14E-02
104930,4.66E-03,2.15E-02
104931,4.64E-03,2.15E-02
104932,4.67E-03,2.15E-02
104933,4.81E-03,2.15E-02
104934,5.01E-03,2.15E-02
104935,6.08E-03,2.16E-02
104936,6.11E-03,2.16E-02
104937,6.45E-03,2.16E-02
104938,6.72E-03,2.16E-02
104939,6.90E-03,2.16E-02
104940,7.06E-03,2.16E-02
104941,7.07E-03,2.16E-02
104942,7.06E-03,2.16E-02
104943,7.37E-03,2.16E-02
104944,7.91E-03,2.16E-02
104945,8.14E-03,2.16E-02
104946,8.15E-03,2.16E-02
104947,8.15E-03,2.16E-02
104948,8.17E-03,2.16E-02
104949,8.24E-03,2.15E-02
104950,8.34E-03,2.15E-02
104951,8.40E-03,2.15E-02
104952,8.43E-03,2.15E-02
104953,8.43E-03,2.15E-02
104954,8.45E-03,2.15E-02
104955,8.48E-03,2.15E-02
104956,8.50E-03,2.14E-02
104957,8.53E-03,2.14E-02
104958,8.56E-03,2.14E-02
104959,8.60E-03,2.14E-02
104960,8.64E-03,2.14E-02
104961,8.68E-03,2.14E-02
104962,8.73E-03,2.14E-02
104963,8.79E-03,2.14E-02
104964,8.86E-03,2.14E-02
104965,8.94E-03,2.15E-02
104966,9.02E-03,2.15E-02
104967,9.12E-03,2.15E-02
104968,9.20E-03,2.16E-02
104969,9.29E-03,2.16E-02
104970,9.42E-03,2.16E-02
104971,9.56E-03,2.17E-02
104972,9.74E-03,2.18E-02
104973,9.95E-03,2.18E-02
104974,1.02E-02,2.19E-02
104975,1.05E-02,2.20E-02
104976,1.09E-02,2.21E-02
104977,1.08E-02,2.23E-02
104978,1.08E-02,2.24E-02
104979,1.09E-02,2.25E-02
104980,1.06E-02,2.27E-02
104981,9.60E-03,2.28E-02
104982,9.27E-03,2.29E-02
104983,7.65E-03,2.31E-02
104984,5.62E-03,2.32E-02
104985,5.77E-03,2.33E-02
104986,5.54E-03,2.34E-02
104987,5.81E-03,2.35E-02
104988,9.39E-03,1.77E-02
104989,7.34E-03,1.76E-02
104990,8.12E-03,6.72E-03
104991,8.52E-03,6.61E-03
104992,8.79E-03,6.55E-03
104993,1.04E-02,7.21E-03
104994,1.01E-02,7.54E-03
104995,8.90E-03,7.34E-03
104996,7.77E-03,7.14E-03
104997,1.08E-02,8.83E-03
104998,1.07E-02,8.81E-03
104999,9.96E-03,8.79E-03
105000,9.35E-03,8.77E-03
105001,9.03E-03,8.75E-03
105002,8.90E-03,8.74E-03
105003,7.89E-03,8.72E-03
105004,6.05E-03,8.71E-03
105005,6.02E-03,8.70E-03
105006,5.96E-03,8.69E-03
105007,5.85E-03,8.68E-03
105008,5.62E-03,8.67E-03
105009,5.36E-03,8.66E-03
105010,5.01E-03,8.66E-03
105011,5.15E-03,8.66E-03
105012,5.34E-03,8.65E-03
105013,6.36E-03,8.65E-03
105014,6.82E-03,8.65E-03
105015,7.30E-03,8.65E-03
105016,7.71E-03,8.64E-03
105017,7.65E-03,8.64E-03
105018,7.58E-03,8.64E-03
105019,7.53E-03,8.64E-03
105020,6.62E-03,8.63E-03
105021,6.43E-03,8.63E-03
105022,6.41E-03,8.63E-03
105023,6.18E-03,8.63E-03
105024,9.16E-03,8.62E-03
105025,9.27E-03,8.63E-03
105026,1.01E-02,8.63E-03
105027,1.07E-02,8.63E-03
105028,1.09E-02,8.63E-03
105029,1.07E-02,8.62E-03
105030,1.03E-02,8.61E-03
105031,7.87E-03,8.61E-03
105032,7.94E-03,8.60E-03
105033,6.62E-03,8.59E-03
105034,5.49E-03,8.58E-03
105035,5.32E-03,8.58E-03
105036,5.23E-03,8.58E-03
105037,5.92E-03,8.58E-03
105038,8.78E-03,8.58E-03
105039,9.41E-03,8.58E-03
105040,1.06E-02,8.57E-03
105041,1.14E-02,8.57E-03
105042,9.95E-03,8.57E-03
105043,9.61E-03,8.57E-03
105044,6.60E-03,8.56E-03
105045,6.57E-03,8.55E-03
105046,6.53E-03,8.54E-03
105047,6.39E-03,8.54E-03
105048,6.70E-03,8.54E-03
105049,9.78E-03,1.00E-02
105050,8.45E-03,1.01E-02
105051,8.36E-03,1.03E-02
105052,8.29E-03,1.04E-02
105053,8.31E-03,1.05E-02
105054,8.92E-03,1.06E-02
105055,8.42E-03,1.06E-02
105056,8.66E-03,1.78E-02
105057,8.60E-03,1.79E-02
105058,8.23E-03,1.80E-02
105059,7.91E-03,9.18E-03
105060,7.10E-03,1.69E-02
105061,8.00E-03,1.72E-02
105062,8.14E-03,8.76E-03
105063,6.22E-03,8.40E-03
105064,1.01E-02,8.40E-03
105065,8.80E-03,8.38E-03
105066,1.13E-02,8.37E-03
105067,1.05E-02,8.36E-03
105068,9.90E-03,8.34E-03
105069,9.79E-03,8.32E-03
105070,9.49E-03,8.30E-03
105071,9.21E-03,8.28E-03
105072,9.21E-03,8.26E-03
105073,8.80E-03,8.24E-03
105074,8.20E-03,8.22E-03
105075,7.64E-03,8.20E-03
105076,7.47E-03,8.18E-03
105077,7.35E-03,8.16E-03
105078,7.20E-03,8.14E-03
105079,7.01E-03,8.12E-03
105080,6.96E-03,8.11E-03
105081,6.79E-03,8.09E-03
105082,6.57E-03,8.07E-03
105083,6.39E-03,8.06E-03
105084,5.99E-03,8.04E-03
105085,5.46E-03,8.04E-03
105086,4.12E-03,8.03E-03
105087,4.12E-03,8.02E-03
105088,5.55E-03,8.02E-03
105089,5.55E-03,8.01E-03
105090,5.46E-03,8.01E-03
105091,5.49E-03,8.01E-03
105092,5.61E-03,8.01E-03
105093,6.12E-03,8.01E-03
105094,9.73E-03,8.90E-03
105095,8.26E-03,8.87E-03
105096,7.17E-03,1.74E-02
105097,7.31E-03,1.84E-02
105098,7.51E-03,1.80E-02
105099,7.40E-03,1.77E-02
105100,5.09E-03,1.52E-02
105101,5.26E-03,1.54E-02
105102,8.11E-03,1.47E-02
105103,8.12E-03,1.47E-02
105104,8.12E-03,1.47E-02
105105,8.12E-03,1.48E-02
105106,8.12E-03,1.48E-02
105107,8.12E-03,1.49E-02
105108,8.13E-03,1.49E-02
105109,8.14E-03,1.49E-02
105110,8.14E-03,1.50E-02
105111,8.14E-03,1.50E-02
105112,8.14E-03,1.50E-02
105113,8.15E-03,1.51E-02
105114,8.15E-03,1.51E-02
105115,8.15E-03,1.51E-02
105116,8.16E-03,1.51E-02
105117,8.16E-03,1.52E-02
105118,8.16E-03,1.52E-02
105119,8.17E-03,1.52E-02
105120,8.17E-03,1.53E-02
105121,8.18E-03,1.53E-02
105122,8.18E-03,1.53E-02
105123,8.19E-03,1.54E-02
105124,8.20E-03,1.54E-02
105125,8.20E-03,1.54E-02
105126,8.21E-03,1.55E-02
105127,8.22E-03,1.55E-02
105128,8.23E-03,1.55E-02
105129,8.25E-03,1.56E-02
105130,8.26E-03,1.56E-02
105131,8.28E-03,1.56E-02
105132,8.30E-03,1.57E-02
105133,8.33E-03,1.57E-02
105134,8.37E-03,1.57E-02
105135,8.40E-03,1.58E-02
105136,8.45E-03,1.58E-02
105137,8.50E-03,1.59E-02
105138,8.56E-03,1.59E-02
105139,8.64E-03,1.59E-02
105140,8.75E-03,1.60E-02
105141,8.91E-03,1.60E-02
105142,9.12E-03,1.61E-02
105143,9.46E-03,1.61E-02
105144,1.00E-02,1.62E-02
105145,9.84E-03,1.62E-02
105146,7.81E-03,1.63E-02
105147,6.49E-03,1.63E-02
105148,6.87E-03,1.63E-02
105149,7.12E-03,1.64E-02
105150,7.30E-03,1.64E-02
105151,7.42E-03,1.64E-02
105152,7.52E-03,1.65E-02
105153,7.59E-03,1.65E-02
105154,7.65E-03,1.65E-02
105155,7.70E-03,1.66E-02
105156,7.74E-03,1.66E-02
105157,7.78E-03,1.67E-02
105158,7.80E-03,1.67E-02
105159,7.83E-03,1.67E-02
105160,7.85E-03,1.68E-02
105161,7.87E-03,1.68E-02
105162,7.88E-03,1.68E-02
105163,7.90E-03,1.69E-02
105164,7.91E-03,1.69E-02
105165,7.92E-03,1.69E-02
105166,7.93E-03,1.70E-02
105167,7.94E-03,1.70E-02
105168,7.95E-03,1.70E-02
105169,7.95E-03,1.71E-02
105170,7.96E-03,1.71E-02
105171,7.97E-03,1.71E-02
105172,7.96E-03,1.71E-02
105173,7.95E-03,1.72E-02
105174,7.96E-03,1.72E-02
105175,7.99E-03,1.72E-02
105176,8.00E-03,1.72E-02
105177,8.01E-03,1.73E-02
105178,8.02E-03,1.73E-02
105179,8.03E-03,1.73E-02
105180,8.04E-03,1.73E-02
105181,8.04E-03,1.74E-02
105182,8.05E-03,1.74E-02
105183,8.09E-03,1.74E-02
105184,8.16E-03,1.74E-02
105185,8.19E-03,1.74E-02
105186,8.19E-03,1.75E-02
105187,8.20E-03,1.75E-02
105188,8.21E-03,1.75E-02
105189,8.22E-03,1.75E-02
105190,8.23E-03,1.75E-02
105191,8.24E-03,1.76E-02
105192,8.25E-03,1.76E-02
105193,8.26E-03,1.76E-02
105194,8.28E-03,1.76E-02
105195,8.29E-03,1.76E-02
105196,8.31E-03,1.76E-02
105197,8.34E-03,1.76E-02
105198,8.36E-03,1.77E-02
105199,8.40E-03,1.77E-02
105200,8.44E-03,1.77E-02
105201,8.48E-03,1.77E-02
105202,8.64E-03,1.77E-02
105203,8.63E-03,1.78E-02
105204,8.75E-03,1.78E-02
105205,8.64E-03,1.78E-02
105206,8.61E-03,1.79E-02
105207,1.07E-02,1.79E-02
105208,9.62E-03,1.79E-02
105209,7.71E-03,1.80E-02
105210,7.80E-03,1.81E-02
105211,8.71E-03,7.40E-03
105212,8.09E-03,8.38E-03
105213,7.72E-03,8.36E-03
105214,7.56E-03,8.36E-03
105215,5.98E-03,8.37E-03
105216,6.10E-03,8.35E-03
105217,6.60E-03,8.36E-03
105218,6.74E-03,8.37E-03
105219,6.86E-03,8.38E-03
105220,1.04E-02,8.39E-03
105221,9.77E-03,8.40E-03
105222,6.15E-03,1.27E-02
105223,7.93E-03,1.27E-02
105224,8.43E-03,1.28E-02
105225,8.31E-03,1.29E-02
105226,8.31E-03,1.30E-02
105227,8.22E-03,1.31E-02
105228,8.12E-03,1.32E-02
105229,8.05E-03,1.32E-02
105230,8.03E-03,1.33E-02
105231,7.97E-03,1.34E-02
105232,7.85E-03,1.35E-02
105233,1.11E-02,1.37E-02
105234,7.54E-03,1.36E-02
105235,8.82E-03,8.04E-03
105236,9.00E-03,8.04E-03
105237,9.55E-03,8.02E-03
105238,9.75E-03,8.00E-03
105239,9.92E-03,7.99E-03
105240,9.88E-03,7.98E-03
105241,9.60E-03,7.97E-03
105242,7.95E-03,7.96E-03
105243,6.98E-03,7.94E-03
105244,6.65E-03,7.93E-03
105245,6.46E-03,7.92E-03
105246,6.22E-03,7.91E-03
105247,5.91E-03,7.91E-03
105248,5.51E-03,7.90E-03
105249,4.96E-03,7.90E-03
105250,5.06E-03,7.89E-03
105251,6.17E-03,7.89E-03
105252,6.24E-03,7.90E-03
105253,6.28E-03,7.90E-03
105254,6.17E-03,7.91E-03
105255,6.11E-03,7.91E-03
105256,7.58E-03,7.92E-03
105257,1.00E-02,7.93E-03
105258,1.00E-02,7.94E-03
105259,9.94E-03,7.94E-03
105260,9.57E-03,7.95E-03
105261,9.40E-03,7.96E-03
105262,9.30E-03,7.97E-03
105263,8.27E-03,7.97E-03
105264,8.28E-03,7.97E-03
105265,8.10E-03,7.97E-03
105266,8.09E-03,7.97E-03
105267,8.10E-03,7.97E-03
105268,8.28E-03,7.97E-03
105269,9.61E-03,7.97E-03
105270,1.07E-02,7.97E-03
105271,1.03E-02,7.97E-03
105272,9.77E-03,7.96E-03
105273,9.44E-03,7.95E-03
105274,9.45E-03,7.94E-03
105275,9.76E-03,7.93E-03
105276,1.03E-02,7.91E-03
105277,1.10E-02,7.90E-03
105278,1.12E-02,7.88E-03
105279,1.06E-02,7.85E-03
105280,1.00E-02,7.82E-03
105281,9.64E-03,7.79E-03
105282,9.38E-03,7.76E-03
105283,9.25E-03,7.72E-03
105284,9.23E-03,7.69E-03
105285,9.06E-03,7.65E-03
105286,8.78E-03,7.61E-03
105287,8.60E-03,7.58E-03
105288,8.50E-03,7.54E-03
105289,8.42E-03,7.50E-03
105290,8.37E-03,7.46E-03
105291,8.33E-03,7.42E-03
105292,8.30E-03,7.38E-03
105293,8.17E-03,7.35E-03
105294,7.89E-03,7.31E-03
105295,7.71E-03,7.27E-03
105296,7.68E-03,7.23E-03
105297,7.65E-03,7.20E-03
105298,7.61E-03,7.16E-03
105299,7.58E-03,7.12E-03
105300,7.53E-03,7.09E-03
105301,7.48E-03,7.06E-03
105302,7.42E-03,7.02E-03
105303,7.36E-03,6.99E-03
105304,7.28E-03,6.96E-03
105305,7.18E-03,6.93E-03
105306,7.07E-03,6.90E-03
105307,6.92E-03,6.87E-03
105308,6.71E-03,6.85E-03
105309,6.66E-03,6.82E-03
105310,6.87E-03,6.80E-03
105311,7.07E-03,6.78E-03
105312,7.08E-03,6.76E-03
105313,6.96E-03,6.74E-03
105314,6.83E-03,6.72E-03
105315,6.62E-03,6.70E-03
105316,6.25E-03,6.69E-03
105317,6.25E-03,6.67E-03
105318,6.60E-03,6.66E-03
105319,6.90E-03,6.65E-03
105320,6.99E-03,6.63E-03
105321,7.28E-03,6.62E-03
105322,6.94E-03,6.62E-03
105323,7.24E-03,2.28E-02
105324,7.60E-03,2.23E-02
105325,8.01E-03,2.20E-02
105326,8.76E-03,2.16E-02
105327,9.07E-03,2.12E-02
105328,8.33E-03,2.08E-02
105329,8.27E-03,2.04E-02
105330,8.21E-03,2.00E-02
105331,9.39E-03,8.01E-03
105332,9.39E-03,8.07E-03
105333,9.35E-03,8.13E-03
105334,9.63E-03,8.21E-03
105335,9.08E-03,8.30E-03
105336,8.92E-03,8.26E-03
105337,8.00E-03,8.30E-03
105338,8.71E-03,1.56E-02
105339,8.62E-03,1.56E-02
105340,1.08E-02,1.58E-02
105341,1.05E-02,1.59E-02
105342,1.01E-02,1.60E-02
105343,9.47E-03,1.61E-02
105344,9.33E-03,1.62E-02
105345,9.18E-03,1.63E-02
105346,9.11E-03,1.64E-02
105347,8.72E-03,1.66E-02
105348,8.56E-03,1.67E-02
105349,8.54E-03,1.68E-02
105350,8.44E-03,1.69E-02
105351,8.41E-03,1.70E-02
105352,8.42E-03,1.71E-02
105353,8.35E-03,1.72E-02
105354,7.86E-03,1.73E-02
105355,6.35E-03,1.73E-02
105356,6.43E-03,1.74E-02
105357,7.41E-03,1.13E-02
105358,7.40E-03,1.12E-02
105359,7.06E-03,1.12E-02
105360,7.13E-03,1.11E-02
105361,7.35E-03,1.10E-02
105362,7.38E-03,1.10E-02
105363,7.49E-03,1.09E-02
105364,7.64E-03,1.09E-02
105365,7.70E-03,1.08E-02
105366,7.74E-03,1.07E-02
105367,7.78E-03,1.07E-02
105368,7.81E-03,1.06E-02
105369,7.84E-03,1.06E-02
105370,7.86E-03,1.05E-02
105371,7.89E-03,1.04E-02
105372,7.93E-03,1.04E-02
105373,7.96E-03,1.03E-02
105374,7.96E-03,1.03E-02
105375,7.96E-03,1.02E-02
105376,7.95E-03,1.01E-02
105377,7.95E-03,1.01E-02
105378,7.94E-03,1.00E-02
105379,7.94E-03,9.99E-03
105380,7.93E-03,9.94E-03
105381,7.92E-03,9.89E-03
105382,7.91E-03,9.84E-03
105383,7.91E-03,9.79E-03
105384,7.90E-03,9.74E-03
105385,7.89E-03,9.70E-03
105386,7.88E-03,9.65E-03
105387,7.87E-03,9.61E-03
105388,7.86E-03,9.56E-03
105389,7.85E-03,9.52E-03
105390,7.83E-03,9.48E-03
105391,7.82E-03,9.43E-03
105392,7.80E-03,9.39E-03
105393,7.76E-03,9.35E-03
105394,7.69E-03,9.31E-03
105395,7.56E-03,9.27E-03
105396,7.58E-03,9.23E-03
105397,7.24E-03,9.18E-03
105398,5.97E-03,9.16E-03
105399,9.07E-03,1.42E-02
105400,8.81E-03,1.40E-02
105401,8.67E-03,1.39E-02
105402,8.62E-03,1.38E-02
105403,7.23E-03,1.81E-02
105404,7.61E-03,1.82E-02
105405,9.15E-03,1.76E-02
105406,9.27E-03,1.76E-02
105407,1.01E-02,1.77E-02
105408,1.10E-02,1.78E-02
105409,1.06E-02,1.78E-02
105410,9.87E-03,1.79E-02
105411,9.92E-03,1.80E-02
105412,9.91E-03,1.80E-02
105413,9.91E-03,1.81E-02
105414,9.54E-03,1.82E-02
105415,9.09E-03,1.82E-02
105416,8.69E-03,1.83E-02
105417,8.34E-03,1.84E-02
105418,6.95E-03,6.68E-03
105419,7.01E-03,6.62E-03
105420,6.84E-03,6.60E-03
105421,7.47E-03,6.60E-03
105422,7.57E-03,6.64E-03
105423,7.44E-03,6.77E-03
105424,7.61E-03,6.69E-03
105425,8.12E-03,1.46E-02
105426,8.12E-03,1.45E-02
105427,8.12E-03,1.45E-02
105428,8.12E-03,1.45E-02
105429,8.13E-03,1.44E-02
105430,8.13E-03,1.44E-02
105431,8.13E-03,1.44E-02
105432,8.13E-03,1.43E-02
105433,8.13E-03,1.43E-02
105434,8.13E-03,1.43E-02
105435,8.13E-03,1.42E-02
105436,8.13E-03,1.42E-02
105437,8.13E-03,1.41E-02
105438,8.13E-03,1.41E-02
105439,8.13E-03,1.41E-02
105440,8.13E-03,1.40E-02
105441,8.13E-03,1.40E-02
105442,8.14E-03,1.40E-02
105443,8.14E-03,1.39E-02
105444,8.14E-03,1.39E-02
105445,8.14E-03,1.38E-02
105446,8.14E-03,1.38E-02
105447,8.14E-03,1.38E-02
105448,8.14E-03,1.37E-02
105449,8.15E-03,1.37E-02
105450,8.15E-03,1.36E-02
105451,8.15E-03,1.36E-02
105452,8.15E-03,1.36E-02
105453,8.16E-03,1.35E-02
105454,8.16E-03,1.35E-02
105455,8.17E-03,1.34E-02
105456,8.17E-03,1.34E-02
105457,8.18E-03,1.34E-02
105458,8.18E-03,1.33E-02
105459,8.19E-03,1.33E-02
105460,8.19E-03,1.32E-02
105461,8.20E-03,1.32E-02
105462,8.20E-03,1.31E-02
105463,8.21E-03,1.31E-02
105464,8.21E-03,1.31E-02
105465,8.22E-03,1.30E-02
105466,8.23E-03,1.30E-02
105467,8.24E-03,1.29E-02
105468,8.25E-03,1.29E-02
105469,8.26E-03,1.28E-02
105470,8.27E-03,1.28E-02
105471,8.29E-03,1.28E-02
105472,8.30E-03,1.27E-02
105473,8.32E-03,1.27E-02
105474,8.34E-03,1.26E-02
105475,8.37E-03,1.26E-02
105476,8.39E-03,1.26E-02
105477,8.43E-03,1.25E-02
105478,8.47E-03,1.25E-02
105479,8.51E-03,1.24E-02
105480,8.57E-03,1.24E-02
105481,8.70E-03,1.24E-02
105482,8.76E-03,1.23E-02
105483,9.09E-03,1.23E-02
105484,9.11E-03,1.22E-02
105485,9.30E-03,1.22E-02
105486,9.48E-03,1.22E-02
105487,9.81E-03,1.21E-02
105488,1.08E-02,1.21E-02
105489,1.09E-02,1.20E-02
105490,9.65E-03,1.20E-02
105491,8.97E-03,1.19E-02
105492,8.69E-03,1.19E-02
105493,8.75E-03,1.19E-02
105494,8.82E-03,1.18E-02
105495,8.91E-03,1.18E-02
105496,9.02E-03,1.17E-02
105497,9.15E-03,1.17E-02
105498,9.32E-03,1.17E-02
105499,9.54E-03,1.16E-02
105500,9.84E-03,1.16E-02
105501,1.02E-02,1.15E-02
105502,9.86E-03,1.15E-02
105503,8.67E-03,1.14E-02
105504,5.64E-03,1.14E-02
105505,5.64E-03,1.14E-02
105506,5.68E-03,1.13E-02
105507,6.24E-03,1.13E-02
105508,6.40E-03,1.13E-02
105509,6.85E-03,1.13E-02
105510,7.08E-03,1.12E-02
105511,7.22E-03,1.12E-02
105512,7.32E-03,1.12E-02
105513,7.41E-03,1.12E-02
105514,7.48E-03,1.11E-02
105515,7.57E-03,1.11E-02
105516,7.67E-03,1.11E-02
105517,7.72E-03,1.11E-02
105518,7.72E-03,1.10E-02
105519,7.72E-03,1.10E-02
105520,8.19E-03,1.10E-02
105521,8.83E-03,1.10E-02
105522,8.85E-03,1.10E-02
105523,8.63E-03,1.10E-02
105524,8.52E-03,1.10E-02
105525,8.58E-03,1.10E-02
105526,8.72E-03,1.10E-02
105527,8.82E-03,1.10E-02
105528,8.91E-03,1.10E-02
105529,9.03E-03,1.10E-02
105530,9.18E-03,1.10E-02
105531,9.39E-03,1.11E-02
105532,9.75E-03,1.11E-02
105533,1.01E-02,1.11E-02
105534,1.01E-02,1.12E-02
105535,9.27E-03,1.12E-02
105536,8.21E-03,1.13E-02
105537,7.75E-03,1.13E-02
105538,7.74E-03,1.13E-02
105539,7.75E-03,1.14E-02
105540,7.76E-03,1.14E-02
105541,7.77E-03,1.15E-02
105542,7.78E-03,1.16E-02
105543,7.71E-03,1.16E-02
105544,7.67E-03,1.17E-02
105545,7.61E-03,1.18E-02
105546,7.64E-03,1.19E-02
105547,7.63E-03,1.20E-02
105548,7.66E-03,1.21E-02
105549,7.74E-03,1.21E-02
105550,9.61E-03,1.19E-02
105551,9.10E-03,1.16E-02
105552,9.14E-03,1.15E-02
105553,9.29E-03,1.14E-02
105554,9.53E-03,1.12E-02
105555,6.85E-03,1.07E-02
105556,7.89E-03,1.50E-02
105557,1.01E-02,1.66E-02
105558,1.00E-02,1.65E-02
105559,9.94E-03,1.64E-02
105560,9.90E-03,1.63E-02
105561,9.61E-03,1.63E-02
105562,9.43E-03,1.62E-02
105563,9.25E-03,1.61E-02
105564,9.01E-03,1.60E-02
105565,9.04E-03,1.59E-02
105566,9.09E-03,1.58E-02
105567,9.17E-03,1.57E-02
105568,9.26E-03,1.56E-02
105569,9.33E-03,1.56E-02
105570,9.36E-03,1.55E-02
105571,9.37E-03,1.54E-02
105572,9.37E-03,1.52E-02
105573,9.37E-03,1.51E-02
105574,9.39E-03,1.50E-02
105575,9.42E-03,1.49E-02
105576,9.44E-03,1.48E-02
105577,9.47E-03,1.47E-02
105578,9.49E-03,1.46E-02
105579,9.51E-03,1.44E-02
105580,9.53E-03,1.43E-02
105581,9.55E-03,1.42E-02
105582,9.57E-03,1.40E-02
105583,9.60E-03,1.39E-02
105584,9.62E-03,1.37E-02
105585,9.58E-03,1.36E-02
105586,9.40E-03,1.34E-02
105587,9.24E-03,1.33E-02
105588,9.12E-03,1.31E-02
105589,9.05E-03,1.29E-02
105590,8.56E-03,1.28E-02
105591,5.94E-03,6.37E-03
105592,8.33E-03,9.02E-03
105593,9.27E-03,1.59E-02
105594,9.78E-03,1.83E-02
105595,5.44E-03,1.47E-02
105596,5.65E-03,1.49E-02
105597,6.46E-03,1.24E-02
105598,6.24E-03,8.10E-03
105599,6.62E-03,7.91E-03
105600,1.02E-02,2.02E-02
105601,1.01E-02,2.01E-02
105602,9.89E-03,2.01E-02
105603,9.81E-03,2.00E-02
105604,9.54E-03,2.00E-02
105605,9.36E-03,2.00E-02
105606,9.16E-03,2.00E-02
105607,8.95E-03,2.00E-02
105608,8.81E-03,1.99E-02
105609,8.74E-03,1.99E-02
105610,8.73E-03,1.99E-02
105611,8.71E-03,1.99E-02
105612,8.68E-03,1.99E-02
105613,8.66E-03,1.99E-02
105614,8.62E-03,1.99E-02
105615,8.57E-03,1.99E-02
105616,8.52E-03,2.00E-02
105617,8.48E-03,2.00E-02
105618,8.45E-03,2.00E-02
105619,8.42E-03,2.00E-02
105620,8.40E-03,2.00E-02
105621,8.37E-03,2.00E-02
105622,8.35E-03,2.00E-02
105623,8.34E-03,2.00E-02
105624,8.32E-03,2.00E-02
105625,8.31E-03,2.00E-02
105626,8.29E-03,2.00E-02
105627,8.28E-03,2.00E-02
105628,8.27E-03,2.00E-02
105629,8.26E-03,2.00E-02
105630,8.25E-03,2.00E-02
105631,8.24E-03,2.00E-02
105632,8.24E-03,2.00E-02
105633,8.23E-03,2.00E-02
105634,8.22E-03,2.00E-02
105635,8.21E-03,2.00E-02
105636,8.20E-03,2.00E-02
105637,8.20E-03,1.99E-02
105638,8.20E-03,1.99E-02
105639,8.19E-03,1.99E-02
105640,8.19E-03,1.99E-02
105641,8.16E-03,1.99E-02
105642,8.09E-03,1.99E-02
105643,8.03E-03,1.99E-02
105644,8.02E-03,1.99E-02
105645,8.01E-03,1.99E-02
105646,7.98E-03,1.99E-02
105647,7.95E-03,1.99E-02
105648,7.88E-03,1.98E-02
105649,7.79E-03,1.98E-02
105650,7.79E-03,1.98E-02
105651,7.82E-03,1.98E-02
105652,7.80E-03,1.98E-02
105653,7.77E-03,1.98E-02
105654,7.74E-03,1.97E-02
105655,7.70E-03,1.97E-02
105656,7.66E-03,1.97E-02
105657,7.51E-03,1.97E-02
105658,7.37E-03,1.97E-02
105659,7.18E-03,1.96E-02
105660,7.04E-03,1.96E-02
105661,6.86E-03,1.96E-02
105662,6.82E-03,1.95E-02
105663,6.59E-03,1.95E-02
105664,6.37E-03,1.95E-02
105665,6.54E-03,1.94E-02
105666,6.59E-03,1.94E-02
105667,7.76E-03,1.94E-02
105668,7.92E-03,1.93E-02
105669,7.82E-03,1.93E-02
105670,9.45E-03,1.92E-02
105671,9.48E-03,1.91E-02
105672,9.60E-03,1.91E-02
105673,9.46E-03,1.90E-02
105674,9.33E-03,1.89E-02
105675,9.07E-03,1.89E-02
105676,8.79E-03,1.88E-02
105677,8.16E-03,1.88E-02
105678,8.09E-03,1.87E-02
105679,7.44E-03,1.87E-02
105680,5.93E-03,1.86E-02
105681,6.19E-03,1.86E-02
105682,6.28E-03,1.85E-02
105683,6.45E-03,1.85E-02
105684,6.42E-03,1.84E-02
105685,6.47E-03,6.41E-03
105686,7.87E-03,1.81E-02
105687,8.68E-03,8.72E-03
105688,7.90E-03,9.10E-03
105689,5.57E-03,8.65E-03
105690,6.18E-03,8.64E-03
105691,6.33E-03,1.03E-02
105692,7.80E-03,1.44E-02
105693,8.27E-03,2.45E-02
105694,5.79E-03,2.49E-02
105695,5.78E-03,8.75E-03
105696,7.28E-03,8.58E-03
105697,6.91E-03,1.47E-02
105698,9.30E-03,8.79E-03
105699,8.99E-03,8.78E-03
105700,6.72E-03,8.73E-03
105701,1.09E-02,8.47E-03
105702,9.55E-03,8.44E-03
105703,9.00E-03,8.43E-03
105704,8.63E-03,8.41E-03
105705,7.77E-03,9.60E-03
105706,7.64E-03,9.08E-03
105707,8.88E-03,9.03E-03
105708,7.76E-03,1.69E-02
105709,7.62E-03,1.73E-02
105710,7.82E-03,1.71E-02
105711,8.37E-03,1.71E-02
105712,5.77E-03,8.65E-03
105713,8.94E-03,8.26E-03
105714,7.69E-03,7.85E-03
105715,6.93E-03,7.84E-03
105716,8.26E-03,8.75E-03
105717,7.43E-03,1.66E-02
105718,8.31E-03,1.61E-02
105719,8.45E-03,1.58E-02
105720,8.02E-03,1.55E-02
105721,7.98E-03,1.52E-02
105722,8.51E-03,1.50E-02
105723,7.59E-03,1.83E-02
105724,7.86E-03,1.18E-02
105725,7.56E-03,1.19E-02
105726,1.05E-02,1.20E-02
105727,1.05E-02,1.21E-02
105728,1.07E-02,1.22E-02
105729,1.03E-02,1.23E-02
105730,1.01E-02,1.23E-02
105731,1.00E-02,1.24E-02
105732,9.46E-03,1.25E-02
105733,9.20E-03,1.26E-02
105734,9.00E-03,1.27E-02
105735,8.86E-03,1.28E-02
105736,8.75E-03,1.29E-02
105737,8.66E-03,1.30E-02
105738,8.53E-03,1.30E-02
105739,8.46E-03,1.31E-02
105740,8.55E-03,1.32E-02
105741,8.75E-03,1.33E-02
105742,8.88E-03,1.34E-02
105743,8.39E-03,1.35E-02
105744,7.86E-03,1.36E-02
105745,7.83E-03,1.37E-02
105746,7.83E-03,1.38E-02
105747,7.83E-03,1.38E-02
105748,7.81E-03,1.39E-02
105749,7.64E-03,1.40E-02
105750,7.54E-03,1.41E-02
105751,7.48E-03,1.42E-02
105752,7.46E-03,1.43E-02
105753,7.36E-03,1.44E-02
105754,7.33E-03,1.45E-02
105755,7.20E-03,1.46E-02
105756,5.04E-03,1.46E-02
105757,5.91E-03,1.48E-02
105758,1.03E-02,7.08E-03
105759,8.71E-03,7.13E-03
105760,8.21E-03,7.10E-03
105761,8.64E-03,8.26E-03
105762,9.57E-03,8.29E-03
105763,9.86E-03,8.28E-03
105764,6.35E-03,1.23E-02
105765,9.40E-03,1.34E-02
105766,7.80E-03,7.85E-03
105767,7.11E-03,2.28E-02
105768,9.55E-03,7.65E-03
105769,8.29E-03,8.07E-03
105770,8.89E-03,7.96E-03
105771,8.80E-03,1.55E-02
105772,8.89E-03,1.76E-02
105773,7.36E-03,6.64E-03
105774,8.79E-03,1.92E-02
105775,5.86E-03,1.89E-02
105776,8.44E-03,7.96E-03
105777,8.14E-03,8.83E-03
105778,7.64E-03,8.68E-03
105779,4.32E-03,8.57E-03
105780,6.91E-03,9.98E-03
105781,8.15E-03,1.47E-02
105782,8.10E-03,1.47E-02
105783,6.39E-03,8.70E-03
105784,6.78E-03,8.21E-03
105785,5.99E-03,1.14E-02
105786,5.97E-03,1.15E-02
105787,7.72E-03,2.38E-02
105788,6.21E-03,2.35E-02
105789,6.26E-03,2.36E-02
105790,6.23E-03,2.36E-02
105791,6.52E-03,2.37E-02
105792,6.75E-03,2.37E-02
105793,7.10E-03,2.37E-02
105794,7.16E-03,2.38E-02
105795,7.28E-03,2.38E-02
105796,7.58E-03,2.38E-02
105797,7.65E-03,2.38E-02
105798,7.70E-03,2.39E-02
105799,7.74E-03,2.39E-02
105800,7.78E-03,2.39E-02
105801,7.81E-03,2.40E-02
105802,7.83E-03,2.40E-02
105803,7.85E-03,2.40E-02
105804,7.87E-03,2.40E-02
105805,7.89E-03,2.40E-02
105806,7.90E-03,2.41E-02
105807,7.91E-03,2.41E-02
105808,7.93E-03,2.41E-02
105809,7.94E-03,2.41E-02
105810,7.96E-03,2.42E-02
105811,7.97E-03,2.42E-02
105812,7.97E-03,2.42E-02
105813,7.97E-03,2.42E-02
105814,7.98E-03,2.43E-02
105815,7.98E-03,2.43E-02
105816,7.99E-03,2.43E-02
105817,7.99E-03,2.43E-02
105818,7.99E-03,2.44E-02
105819,7.99E-03,2.44E-02
105820,8.00E-03,2.44E-02
105821,8.00E-03,2.45E-02
105822,8.00E-03,2.45E-02
105823,8.20E-03,2.45E-02
105824,8.29E-03,2.46E-02
105825,8.34E-03,2.46E-02
105826,8.39E-03,2.47E-02
105827,8.20E-03,2.47E-02
105828,7.83E-03,2.47E-02
105829,7.44E-03,2.48E-02
105830,7.33E-03,2.49E-02
105831,7.42E-03,2.50E-02
105832,7.66E-03,2.50E-02
105833,8.91E-03,2.49E-02
105834,8.30E-03,2.50E-02
105835,5.78E-03,2.52E-02
105836,6.22E-03,2.53E-02
105837,6.62E-03,1.46E-02
105838,7.97E-03,1.42E-02
105839,4.44E-03,8.67E-03
105840,5.69E-03,8.65E-03
105841,6.64E-03,1.03E-02
105842,6.66E-03,8.63E-03
105843,7.80E-03,9.18E-03
105844,9.30E-03,1.77E-02
105845,7.82E-03,8.97E-03
105846,7.49E-03,1.75E-02
105847,7.72E-03,1.74E-02
105848,8.53E-03,8.65E-03
105849,1.00E-02,8.63E-03
105850,1.02E-02,2.03E-02
105851,1.06E-02,2.04E-02
105852,1.10E-02,2.05E-02
105853,1.11E-02,2.06E-02
105854,1.11E-02,2.07E-02
105855,1.06E-02,2.08E-02
105856,1.00E-02,2.09E-02
105857,9.81E-03,2.10E-02
105858,9.21E-03,2.11E-02
105859,8.36E-03,2.12E-02
105860,7.68E-03,2.13E-02
105861,7.60E-03,2.14E-02
105862,5.85E-03,2.15E-02
105863,5.77E-03,2.15E-02
105864,5.21E-03,2.16E-02
105865,5.01E-03,2.17E-02
105866,4.91E-03,2.17E-02
105867,4.87E-03,2.18E-02
105868,4.76E-03,2.18E-02
105869,4.64E-03,2.18E-02
105870,4.73E-03,2.18E-02
105871,4.83E-03,2.19E-02
105872,5.08E-03,2.19E-02
105873,6.13E-03,2.19E-02
105874,6.24E-03,2.19E-02
105875,6.56E-03,2.19E-02
105876,6.80E-03,2.19E-02
105877,7.02E-03,2.20E-02
105878,7.09E-03,2.20E-02
105879,7.10E-03,2.20E-02
105880,7.09E-03,2.20E-02
105881,7.39E-03,2.19E-02
105882,7.92E-03,2.19E-02
105883,8.14E-03,2.19E-02
105884,8.15E-03,2.19E-02
105885,8.15E-03,2.19E-02
105886,8.17E-03,2.19E-02
105887,8.24E-03,2.19E-02
105888,8.33E-03,2.19E-02
105889,8.39E-03,2.18E-02
105890,8.41E-03,2.18E-02
105891,8.42E-03,2.18E-02
105892,8.44E-03,2.18E-02
105893,8.47E-03,2.18E-02
105894,8.49E-03,2.18E-02
105895,8.52E-03,2.18E-02
105896,8.55E-03,2.17E-02
105897,8.58E-03,2.17E-02
105898,8.62E-03,2.17E-02
105899,8.66E-03,2.17E-02
105900,8.71E-03,2.17E-02
105901,8.77E-03,2.18E-02
105902,8.83E-03,2.18E-02
105903,8.91E-03,2.18E-02
105904,8.99E-03,2.18E-02
105905,9.09E-03,2.18E-02
105906,9.16E-03,2.19E-02
105907,9.25E-03,2.19E-02
105908,9.37E-03,2.20E-02
105909,9.51E-03,2.20E-02
105910,9.68E-03,2.21E-02
105911,9.89E-03,2.22E-02
105912,1.01E-02,2.23E-02
105913,1.05E-02,2.24E-02
105914,1.08E-02,2.25E-02
105915,1.07E-02,2.26E-02
105916,1.07E-02,2.27E-02
105917,1.08E-02,2.29E-02
105918,1.04E-02,2.30E-02
105919,1.00E-02,2.32E-02
105920,9.83E-03,2.33E-02
105921,7.29E-03,2.34E-02
105922,5.42E-03,2.35E-02
105923,5.57E-03,2.36E-02
105924,5.65E-03,2.37E-02
105925,6.30E-03,2.39E-02
105926,7.46E-03,1.15E-02
105927,7.75E-03,1.16E-02
105928,7.90E-03,6.77E-03
105929,8.92E-03,8.11E-03
105930,8.79E-03,8.11E-03
105931,8.72E-03,8.11E-03
105932,7.22E-03,6.51E-03
105933,7.35E-03,2.28E-02
105934,7.13E-03,1.81E-02
105935,8.93E-03,1.23E-02
105936,9.67E-03,1.21E-02
105937,6.15E-03,6.31E-03
105938,7.13E-03,1.83E-02
105939,6.10E-03,8.69E-03
105940,6.48E-03,8.63E-03
105941,5.82E-03,6.33E-03
105942,6.25E-03,8.57E-03
105943,9.72E-03,6.96E-03
105944,8.42E-03,7.23E-03
105945,6.91E-03,7.08E-03
105946,7.54E-03,6.93E-03
105947,8.26E-03,6.95E-03
105948,8.48E-03,1.60E-02
105949,7.52E-03,1.76E-02
105950,7.46E-03,1.13E-02
105951,7.27E-03,8.61E-03
105952,6.50E-03,8.60E-03
105953,7.35E-03,6.44E-03
105954,6.31E-03,1.84E-02
105955,7.30E-03,6.35E-03
105956,9.13E-03,1.76E-02
105957,9.55E-03,1.76E-02
105958,4.84E-03,7.86E-03
105959,4.73E-03,7.69E-03
105960,6.65E-03,1.85E-02
105961,5.38E-03,1.86E-02
105962,1.06E-02,8.72E-03
105963,1.06E-02,8.70E-03
105964,9.74E-03,8.68E-03
105965,9.44E-03,8.66E-03
105966,9.09E-03,8.64E-03
105967,8.83E-03,8.63E-03
105968,7.90E-03,8.61E-03
105969,6.15E-03,8.60E-03
105970,6.10E-03,8.59E-03
105971,6.02E-03,8.58E-03
105972,5.90E-03,8.57E-03
105973,5.73E-03,8.56E-03
105974,5.60E-03,8.55E-03
105975,5.07E-03,8.55E-03
105976,5.26E-03,8.54E-03
105977,5.52E-03,8.54E-03
105978,5.86E-03,8.53E-03
105979,7.20E-03,8.53E-03
105980,7.44E-03,8.53E-03
105981,7.71E-03,8.53E-03
105982,7.67E-03,8.53E-03
105983,7.61E-03,8.52E-03
105984,7.51E-03,8.52E-03
105985,6.58E-03,8.52E-03
105986,6.54E-03,8.51E-03
105987,6.39E-03,8.51E-03
105988,6.08E-03,8.51E-03
105989,9.32E-03,8.51E-03
105990,9.53E-03,8.51E-03
105991,1.00E-02,8.51E-03
105992,1.05E-02,8.50E-03
105993,1.06E-02,8.50E-03
105994,1.03E-02,8.50E-03
105995,1.00E-02,8.49E-03
105996,8.20E-03,8.48E-03
105997,7.71E-03,8.47E-03
105998,6.77E-03,8.47E-03
105999,5.86E-03,8.46E-03
106000,5.51E-03,8.45E-03
106001,5.28E-03,8.46E-03
106002,5.84E-03,8.45E-03
106003,8.21E-03,8.45E-03
106004,9.51E-03,8.45E-03
106005,1.10E-02,8.44E-03
106006,1.13E-02,8.44E-03
106007,1.04E-02,8.44E-03
106008,8.99E-03,8.43E-03
106009,6.69E-03,8.43E-03
106010,6.64E-03,8.41E-03
106011,6.55E-03,8.41E-03
106012,6.56E-03,8.40E-03
106013,6.87E-03,8.40E-03
106014,9.76E-03,9.71E-03
106015,8.39E-03,9.82E-03
106016,8.25E-03,9.93E-03
106017,8.21E-03,1.00E-02
106018,8.07E-03,1.01E-02
106019,8.09E-03,1.03E-02
106020,7.84E-03,1.02E-02
106021,8.26E-03,1.09E-02
106022,8.85E-03,1.13E-02
106023,8.91E-03,1.12E-02
106024,8.88E-03,1.10E-02
106025,8.21E-03,1.78E-02
106026,7.82E-03,1.79E-02
106027,7.92E-03,1.83E-02
106028,6.74E-03,1.82E-02
106029,6.14E-03,1.81E-02
106030,6.81E-03,1.80E-02
106031,7.54E-03,9.06E-03
106032,7.43E-03,1.70E-02
106033,8.27E-03,1.72E-02
106034,7.09E-03,8.63E-03
106035,6.38E-03,8.25E-03
106036,1.01E-02,8.23E-03
106037,8.64E-03,8.22E-03
106038,1.12E-02,8.21E-03
106039,1.03E-02,8.19E-03
106040,9.96E-03,8.17E-03
106041,9.82E-03,8.15E-03
106042,9.38E-03,8.13E-03
106043,9.22E-03,8.11E-03
106044,9.16E-03,8.09E-03
106045,8.77E-03,8.07E-03
106046,8.20E-03,8.05E-03
106047,7.65E-03,8.02E-03
106048,7.49E-03,8.00E-03
106049,7.42E-03,7.98E-03
106050,7.22E-03,7.97E-03
106051,7.05E-03,7.95E-03
106052,6.99E-03,7.93E-03
106053,6.82E-03,7.91E-03
106054,6.62E-03,7.90E-03
106055,6.35E-03,7.88E-03
106056,6.16E-03,7.87E-03
106057,5.56E-03,7.85E-03
106058,4.28E-03,7.84E-03
106059,4.38E-03,7.83E-03
106060,5.69E-03,7.83E-03
106061,5.57E-03,7.83E-03
106062,5.52E-03,7.83E-03
106063,5.54E-03,7.82E-03
106064,5.50E-03,7.83E-03
106065,6.09E-03,7.83E-03
106066,1.05E-02,8.75E-03
106067,1.07E-02,8.77E-03
106068,8.70E-03,8.76E-03
106069,7.06E-03,1.70E-02
106070,7.33E-03,1.80E-02
106071,7.44E-03,1.76E-02
106072,7.62E-03,1.73E-02
106073,6.08E-03,1.47E-02
106074,7.19E-03,1.49E-02
106075,8.11E-03,1.48E-02
106076,8.12E-03,1.48E-02
106077,8.12E-03,1.48E-02
106078,8.12E-03,1.49E-02
106079,8.12E-03,1.49E-02
106080,8.12E-03,1.49E-02
106081,8.13E-03,1.50E-02
106082,8.13E-03,1.50E-02
106083,8.14E-03,1.50E-02
106084,8.14E-03,1.51E-02
106085,8.14E-03,1.51E-02
106086,8.14E-03,1.51E-02
106087,8.15E-03,1.52E-02
106088,8.15E-03,1.52E-02
106089,8.15E-03,1.52E-02
106090,8.16E-03,1.53E-02
106091,8.16E-03,1.53E-02
106092,8.16E-03,1.53E-02
106093,8.17E-03,1.54E-02
106094,8.17E-03,1.54E-02
106095,8.18E-03,1.54E-02
106096,8.19E-03,1.55E-02
106097,8.19E-03,1.55E-02
106098,8.20E-03,1.55E-02
106099,8.21E-03,1.56E-02
106100,8.22E-03,1.56E-02
106101,8.23E-03,1.56E-02
106102,8.24E-03,1.57E-02
106103,8.26E-03,1.57E-02
106104,8.27E-03,1.57E-02
106105,8.29E-03,1.58E-02
106106,8.32E-03,1.58E-02
106107,8.36E-03,1.59E-02
106108,8.39E-03,1.59E-02
106109,8.43E-03,1.59E-02
106110,8.48E-03,1.60E-02
106111,8.55E-03,1.60E-02
106112,8.63E-03,1.60E-02
106113,8.73E-03,1.61E-02
106114,8.88E-03,1.61E-02
106115,9.09E-03,1.62E-02
106116,9.42E-03,1.62E-02
106117,9.94E-03,1.63E-02
106118,9.78E-03,1.63E-02
106119,7.82E-03,1.64E-02
106120,6.54E-03,1.64E-02
106121,6.91E-03,1.65E-02
106122,7.16E-03,1.65E-02
106123,7.32E-03,1.65E-02
106124,7.45E-03,1.66E-02
106125,7.54E-03,1.66E-02
106126,7.61E-03,1.66E-02
106127,7.67E-03,1.67E-02
106128,7.71E-03,1.67E-02
106129,7.75E-03,1.68E-02
106130,7.79E-03,1.68E-02
106131,7.81E-03,1.68E-02
106132,7.84E-03,1.69E-02
106133,7.86E-03,1.69E-02
106134,7.87E-03,1.69E-02
106135,7.89E-03,1.70E-02
106136,7.90E-03,1.70E-02
106137,7.91E-03,1.70E-02
106138,7.93E-03,1.71E-02
106139,7.93E-03,1.71E-02
106140,7.94E-03,1.71E-02
106141,7.95E-03,1.72E-02
106142,7.96E-03,1.72E-02
106143,7.97E-03,1.72E-02
106144,7.97E-03,1.73E-02
106145,7.97E-03,1.73E-02
106146,7.96E-03,1.73E-02
106147,7.97E-03,1.74E-02
106148,7.99E-03,1.74E-02
106149,8.00E-03,1.74E-02
106150,8.02E-03,1.74E-02
106151,8.02E-03,1.75E-02
106152,8.03E-03,1.75E-02
106153,8.04E-03,1.75E-02
106154,8.04E-03,1.75E-02
106155,8.05E-03,1.76E-02
106156,8.09E-03,1.76E-02
106157,8.16E-03,1.76E-02
106158,8.19E-03,1.76E-02
106159,8.19E-03,1.76E-02
106160,8.20E-03,1.77E-02
106161,8.21E-03,1.77E-02
106162,8.21E-03,1.77E-02
106163,8.22E-03,1.77E-02
106164,8.23E-03,1.77E-02
106165,8.24E-03,1.77E-02
106166,8.26E-03,1.78E-02
106167,8.27E-03,1.78E-02
106168,8.29E-03,1.78E-02
106169,8.31E-03,1.78E-02
106170,8.33E-03,1.78E-02
106171,8.36E-03,1.78E-02
106172,8.39E-03,1.79E-02
106173,8.42E-03,1.79E-02
106174,8.47E-03,1.79E-02
106175,8.57E-03,1.79E-02
106176,8.66E-03,1.80E-02
106177,8.82E-03,1.80E-02
106178,8.84E-03,1.80E-02
106179,8.92E-03,1.80E-02
106180,8.82E-03,1.81E-02
106181,8.16E-03,1.81E-02
106182,8.05E-03,1.82E-02
106183,7.76E-03,1.18E-02
106184,1.04E-02,1.19E-02
106185,1.05E-02,1.20E-02
106186,1.05E-02,1.21E-02
106187,1.02E-02,1.22E-02
106188,1.01E-02,1.23E-02
106189,9.98E-03,1.24E-02
106190,9.42E-03,1.25E-02
106191,9.16E-03,1.26E-02
106192,8.97E-03,1.26E-02
106193,8.84E-03,1.27E-02
106194,8.73E-03,1.28E-02
106195,8.65E-03,1.29E-02
106196,8.52E-03,1.30E-02
106197,8.45E-03,1.31E-02
106198,8.53E-03,1.32E-02
106199,8.73E-03,1.33E-02
106200,8.86E-03,1.34E-02
106201,8.38E-03,1.35E-02
106202,7.87E-03,1.35E-02
106203,7.84E-03,1.36E-02
106204,7.84E-03,1.37E-02
106205,7.84E-03,1.38E-02
106206,7.82E-03,1.39E-02
106207,7.62E-03,1.40E-02
106208,7.51E-03,1.41E-02
106209,7.46E-03,1.42E-02
106210,7.38E-03,1.43E-02
106211,7.19E-03,1.43E-02
106212,7.07E-03,1.44E-02
106213,6.08E-03,1.45E-02
106214,4.35E-03,1.45E-02
106215,4.49E-03,1.47E-02
106216,6.40E-03,1.47E-02
106217,9.43E-03,8.30E-03
106218,9.51E-03,8.30E-03
106219,8.38E-03,7.13E-03
106220,8.11E-03,8.24E-03
106221,7.92E-03,8.22E-03
106222,7.60E-03,8.21E-03
106223,7.92E-03,8.20E-03
106224,6.68E-03,8.20E-03
106225,6.42E-03,8.21E-03
106226,6.51E-03,8.22E-03
106227,6.81E-03,8.23E-03
106228,1.04E-02,8.24E-03
106229,9.81E-03,8.26E-03
106230,8.00E-03,1.23E-02
106231,8.31E-03,1.24E-02
106232,8.37E-03,1.25E-02
106233,8.32E-03,1.26E-02
106234,8.25E-03,1.27E-02
106235,8.12E-03,1.28E-02
106236,8.05E-03,1.28E-02
106237,8.03E-03,1.29E-02
106238,8.01E-03,1.30E-02
106239,7.93E-03,1.31E-02
106240,1.04E-02,1.33E-02
106241,7.86E-03,1.32E-02
106242,8.18E-03,7.84E-03
106243,8.41E-03,7.83E-03
106244,1.00E-02,7.82E-03
106245,1.01E-02,7.81E-03
106246,1.01E-02,7.80E-03
106247,1.01E-02,7.79E-03
106248,9.35E-03,7.77E-03
106249,7.95E-03,7.76E-03
106250,7.01E-03,7.74E-03
106251,6.70E-03,7.73E-03
106252,6.51E-03,7.72E-03
106253,6.28E-03,7.71E-03
106254,5.98E-03,7.70E-03
106255,5.59E-03,7.69E-03
106256,5.07E-03,7.68E-03
106257,5.32E-03,7.68E-03
106258,6.22E-03,7.68E-03
106259,6.21E-03,7.69E-03
106260,6.34E-03,7.69E-03
106261,6.23E-03,7.69E-03
106262,6.18E-03,7.70E-03
106263,7.60E-03,7.70E-03
106264,9.94E-03,7.71E-03
106265,9.94E-03,7.72E-03
106266,9.94E-03,7.73E-03
106267,9.65E-03,7.73E-03
106268,9.30E-03,7.74E-03
106269,9.24E-03,7.74E-03
106270,8.30E-03,7.74E-03
106271,8.31E-03,7.74E-03
106272,8.03E-03,7.74E-03
106273,8.09E-03,7.74E-03
106274,8.10E-03,7.74E-03
106275,8.28E-03,7.74E-03
106276,9.56E-03,7.74E-03
106277,1.06E-02,7.74E-03
106278,1.02E-02,7.73E-03
106279,9.71E-03,7.73E-03
106280,9.40E-03,7.72E-03
106281,9.41E-03,7.71E-03
106282,9.70E-03,7.69E-03
106283,1.02E-02,7.68E-03
106284,1.09E-02,7.66E-03
106285,1.11E-02,7.64E-03
106286,1.05E-02,7.61E-03
106287,9.95E-03,7.58E-03
106288,9.59E-03,7.55E-03
106289,9.33E-03,7.51E-03
106290,9.21E-03,7.48E-03
106291,9.20E-03,7.44E-03
106292,9.03E-03,7.40E-03
106293,8.75E-03,7.37E-03
106294,8.59E-03,7.33E-03
106295,8.48E-03,7.29E-03
106296,8.41E-03,7.25E-03
106297,8.36E-03,7.21E-03
106298,8.32E-03,7.17E-03
106299,8.29E-03,7.13E-03
106300,8.17E-03,7.09E-03
106301,7.89E-03,7.06E-03
106302,7.72E-03,7.02E-03
106303,7.69E-03,6.98E-03
106304,7.66E-03,6.94E-03
106305,7.63E-03,6.90E-03
106306,7.59E-03,6.87E-03
106307,7.55E-03,6.83E-03
106308,7.50E-03,6.80E-03
106309,7.45E-03,6.76E-03
106310,7.38E-03,6.73E-03
106311,7.30E-03,6.70E-03
106312,7.21E-03,6.67E-03
106313,7.10E-03,6.64E-03
106314,6.95E-03,6.61E-03
106315,6.75E-03,6.58E-03
106316,6.71E-03,6.56E-03
106317,6.91E-03,6.53E-03
106318,7.10E-03,6.51E-03
106319,7.11E-03,6.49E-03
106320,7.00E-03,6.47E-03
106321,6.87E-03,6.45E-03
106322,6.67E-03,6.43E-03
106323,6.31E-03,6.41E-03
106324,6.24E-03,6.39E-03
106325,6.79E-03,6.37E-03
106326,6.98E-03,6.36E-03
106327,7.11E-03,6.35E-03
106328,7.41E-03,6.34E-03
106329,6.80E-03,6.31E-03
106330,7.68E-03,2.24E-02
106331,7.74E-03,2.20E-02
106332,8.06E-03,2.16E-02
106333,8.40E-03,2.12E-02
106334,8.66E-03,2.08E-02
106335,8.49E-03,2.04E-02
106336,8.39E-03,2.00E-02
106337,8.35E-03,1.96E-02
106338,9.39E-03,7.73E-03
106339,9.51E-03,7.78E-03
106340,9.40E-03,7.84E-03
106341,9.50E-03,7.88E-03
106342,9.17E-03,7.93E-03
106343,7.97E-03,7.98E-03
106344,8.38E-03,1.56E-02
106345,8.78E-03,1.57E-02
106346,1.02E-02,1.58E-02
106347,1.04E-02,1.59E-02
106348,9.93E-03,1.60E-02
106349,9.55E-03,1.61E-02
106350,9.33E-03,1.62E-02
106351,9.24E-03,1.64E-02
106352,9.10E-03,1.65E-02
106353,8.69E-03,1.66E-02
106354,8.55E-03,1.67E-02
106355,8.46E-03,1.68E-02
106356,8.33E-03,1.69E-02
106357,8.30E-03,1.70E-02
106358,8.18E-03,1.71E-02
106359,7.86E-03,1.72E-02
106360,7.46E-03,1.73E-02
106361,8.54E-03,1.74E-02
106362,9.51E-03,1.75E-02
106363,7.46E-03,1.12E-02
106364,7.50E-03,1.11E-02
106365,7.08E-03,1.11E-02
106366,7.17E-03,1.10E-02
106367,7.31E-03,1.10E-02
106368,7.42E-03,1.09E-02
106369,7.54E-03,1.08E-02
106370,7.66E-03,1.08E-02
106371,7.71E-03,1.07E-02
106372,7.75E-03,1.06E-02
106373,7.79E-03,1.06E-02
106374,7.82E-03,1.05E-02
106375,7.85E-03,1.05E-02
106376,7.87E-03,1.04E-02
106377,7.89E-03,1.03E-02
106378,7.94E-03,1.03E-02
106379,7.97E-03,1.02E-02
106380,7.97E-03,1.02E-02
106381,7.96E-03,1.01E-02
106382,7.96E-03,1.00E-02
106383,7.95E-03,9.99E-03
106384,7.95E-03,9.93E-03
106385,7.94E-03,9.88E-03
106386,7.93E-03,9.83E-03
106387,7.93E-03,9.78E-03
106388,7.92E-03,9.73E-03
106389,7.91E-03,9.68E-03
106390,7.91E-03,9.63E-03
106391,7.90E-03,9.59E-03
106392,7.89E-03,9.54E-03
106393,7.88E-03,9.50E-03
106394,7.87E-03,9.46E-03
106395,7.85E-03,9.41E-03
106396,7.84E-03,9.37E-03
106397,7.83E-03,9.33E-03
106398,7.81E-03,9.29E-03
106399,7.77E-03,9.24E-03
106400,7.71E-03,9.20E-03
106401,7.57E-03,9.16E-03
106402,7.49E-03,9.12E-03
106403,7.23E-03,9.09E-03
106404,7.30E-03,9.06E-03
106405,9.42E-03,1.38E-02
106406,8.98E-03,1.36E-02
106407,8.73E-03,1.35E-02
106408,7.07E-03,1.32E-02
106409,8.30E-03,1.34E-02
106410,9.21E-03,1.77E-02
106411,9.29E-03,1.77E-02
106412,1.01E-02,1.78E-02
106413,1.05E-02,1.78E-02
106414,1.08E-02,1.79E-02
106415,9.85E-03,1.80E-02
106416,9.78E-03,1.81E-02
106417,9.67E-03,1.81E-02
106418,9.48E-03,1.82E-02
106419,9.27E-03,1.82E-02
106420,9.06E-03,1.83E-02
106421,8.90E-03,1.84E-02
106422,8.73E-03,1.84E-02
106423,8.70E-03,6.43E-03
106424,7.57E-03,6.35E-03
106425,7.61E-03,6.33E-03
106426,7.96E-03,6.32E-03
106427,9.14E-03,6.33E-03
106428,7.55E-03,6.52E-03
106429,6.88E-03,7.72E-03
106430,5.98E-03,8.73E-03
106431,7.93E-03,8.75E-03
106432,5.62E-03,8.54E-03
106433,6.32E-03,8.53E-03
106434,7.05E-03,9.89E-03
106435,6.07E-03,8.55E-03
106436,8.11E-03,1.46E-02
106437,8.12E-03,1.46E-02
106438,8.12E-03,1.46E-02
106439,8.12E-03,1.45E-02
106440,8.12E-03,1.45E-02
106441,8.12E-03,1.45E-02
106442,8.13E-03,1.44E-02
106443,8.13E-03,1.44E-02
106444,8.13E-03,1.43E-02
106445,8.13E-03,1.43E-02
106446,8.13E-03,1.43E-02
106447,8.13E-03,1.42E-02
106448,8.13E-03,1.42E-02
106449,8.13E-03,1.42E-02
106450,8.13E-03,1.41E-02
106451,8.13E-03,1.41E-02
106452,8.13E-03,1.40E-02
106453,8.13E-03,1.40E-02
106454,8.13E-03,1.40E-02
106455,8.14E-03,1.39E-02
106456,8.14E-03,1.39E-02
106457,8.14E-03,1.38E-02
106458,8.14E-03,1.38E-02
106459,8.14E-03,1.37E-02
106460,8.14E-03,1.37E-02
106461,8.15E-03,1.37E-02
106462,8.15E-03,1.36E-02
106463,8.15E-03,1.36E-02
106464,8.16E-03,1.35E-02
106465,8.16E-03,1.35E-02
106466,8.17E-03,1.35E-02
106467,8.17E-03,1.34E-02
106468,8.18E-03,1.34E-02
106469,8.18E-03,1.33E-02
106470,8.18E-03,1.33E-02
106471,8.19E-03,1.32E-02
106472,8.19E-03,1.32E-02
106473,8.20E-03,1.31E-02
106474,8.20E-03,1.31E-02
106475,8.21E-03,1.31E-02
106476,8.22E-03,1.30E-02
106477,8.23E-03,1.30E-02
106478,8.23E-03,1.29E-02
106479,8.24E-03,1.29E-02
106480,8.26E-03,1.28E-02
106481,8.27E-03,1.28E-02
106482,8.28E-03,1.27E-02
106483,8.30E-03,1.27E-02
106484,8.31E-03,1.27E-02
106485,8.33E-03,1.26E-02
106486,8.36E-03,1.26E-02
106487,8.38E-03,1.25E-02
106488,8.42E-03,1.25E-02
106489,8.45E-03,1.24E-02
106490,8.50E-03,1.24E-02
106491,8.55E-03,1.24E-02
106492,8.62E-03,1.23E-02
106493,8.71E-03,1.23E-02
106494,9.00E-03,1.22E-02
106495,9.05E-03,1.22E-02
106496,9.25E-03,1.21E-02
106497,9.48E-03,1.21E-02
106498,9.69E-03,1.21E-02
106499,1.09E-02,1.20E-02
106500,1.10E-02,1.19E-02
106501,9.65E-03,1.19E-02
106502,8.64E-03,1.19E-02
106503,8.67E-03,1.18E-02
106504,8.73E-03,1.18E-02
106505,8.80E-03,1.17E-02
106506,8.88E-03,1.17E-02
106507,8.99E-03,1.17E-02
106508,9.12E-03,1.16E-02
106509,9.28E-03,1.16E-02
106510,9.49E-03,1.15E-02
106511,9.78E-03,1.15E-02
106512,1.01E-02,1.14E-02
106513,9.80E-03,1.14E-02
106514,8.65E-03,1.13E-02
106515,5.65E-03,1.13E-02
106516,5.75E-03,1.12E-02
106517,5.92E-03,1.12E-02
106518,6.19E-03,1.12E-02
106519,6.37E-03,1.11E-02
106520,6.95E-03,1.11E-02
106521,7.12E-03,1.11E-02
106522,7.25E-03,1.11E-02
106523,7.35E-03,1.10E-02
106524,7.43E-03,1.10E-02
106525,7.50E-03,1.10E-02
106526,7.59E-03,1.09E-02
106527,7.69E-03,1.09E-02
106528,7.73E-03,1.09E-02
106529,7.73E-03,1.09E-02
106530,7.73E-03,1.08E-02
106531,8.19E-03,1.08E-02
106532,8.80E-03,1.08E-02
106533,8.83E-03,1.08E-02
106534,8.62E-03,1.08E-02
106535,8.51E-03,1.08E-02
106536,8.56E-03,1.08E-02
106537,8.70E-03,1.08E-02
106538,8.79E-03,1.08E-02
106539,8.89E-03,1.08E-02
106540,9.00E-03,1.08E-02
106541,9.15E-03,1.08E-02
106542,9.34E-03,1.08E-02
106543,9.69E-03,1.09E-02
106544,1.00E-02,1.09E-02
106545,9.99E-03,1.09E-02
106546,9.23E-03,1.10E-02
106547,8.21E-03,1.10E-02
106548,7.76E-03,1.11E-02
106549,7.75E-03,1.11E-02
106550,7.76E-03,1.12E-02
106551,7.77E-03,1.12E-02
106552,7.78E-03,1.13E-02
106553,7.79E-03,1.14E-02
106554,7.80E-03,1.14E-02
106555,7.73E-03,1.15E-02
106556,7.66E-03,1.16E-02
106557,7.70E-03,1.17E-02
106558,7.67E-03,1.18E-02
106559,7.58E-03,1.18E-02
106560,7.44E-03,1.19E-02
106561,7.13E-03,1.20E-02
106562,5.80E-03,1.21E-02
106563,6.29E-03,1.22E-02
106564,9.86E-03,1.40E-02
106565,6.25E-03,8.24E-03
106566,9.13E-03,1.16E-02
106567,9.68E-03,1.17E-02
106568,7.53E-03,2.41E-02
106569,7.25E-03,2.46E-02
106570,7.78E-03,2.50E-02
106571,7.29E-03,2.54E-02
106572,4.54E-03,2.56E-02
106573,8.65E-03,1.41E-02
106574,7.24E-03,1.41E-02
106575,7.34E-03,8.64E-03
106576,7.89E-03,8.64E-03
106577,8.48E-03,1.68E-02
106578,6.47E-03,1.03E-02
106579,6.49E-03,1.04E-02
106580,6.63E-03,8.62E-03
106581,8.61E-03,8.28E-03
106582,7.81E-03,9.28E-03
106583,7.38E-03,1.05E-02
106584,7.88E-03,1.78E-02
106585,7.54E-03,8.96E-03
106586,8.20E-03,1.69E-02
106587,7.95E-03,1.73E-02
106588,6.51E-03,8.53E-03
106589,8.79E-03,8.10E-03
106590,7.45E-03,7.65E-03
106591,6.73E-03,7.64E-03
106592,8.73E-03,8.65E-03
106593,7.39E-03,1.62E-02
106594,7.06E-03,1.80E-02
106595,6.56E-03,1.41E-02
106596,6.81E-03,2.39E-02
106597,6.20E-03,2.40E-02
106598,6.31E-03,2.40E-02
106599,6.42E-03,2.40E-02
106600,6.77E-03,2.41E-02
106601,7.02E-03,2.41E-02
106602,7.19E-03,2.41E-02
106603,7.34E-03,2.42E-02
106604,7.60E-03,2.42E-02
106605,7.66E-03,2.42E-02
106606,7.71E-03,2.43E-02
106607,7.75E-03,2.43E-02
106608,7.79E-03,2.43E-02
106609,7.82E-03,2.44E-02
106610,7.84E-03,2.44E-02
106611,7.86E-03,2.44E-02
106612,7.88E-03,2.44E-02
106613,7.89E-03,2.45E-02
106614,7.91E-03,2.45E-02
106615,7.92E-03,2.45E-02
106616,7.93E-03,2.45E-02
106617,7.95E-03,2.46E-02
106618,7.96E-03,2.46E-02
106619,7.97E-03,2.46E-02
106620,7.98E-03,2.46E-02
106621,7.98E-03,2.47E-02
106622,7.98E-03,2.47E-02
106623,7.99E-03,2.47E-02
106624,7.99E-03,2.48E-02
106625,7.99E-03,2.48E-02
106626,7.99E-03,2.48E-02
106627,8.00E-03,2.49E-02
106628,8.00E-03,2.49E-02
106629,8.00E-03,2.50E-02
106630,8.00E-03,2.50E-02
106631,8.09E-03,2.50E-02
106632,8.21E-03,2.51E-02
106633,8.27E-03,2.52E-02
106634,8.28E-03,2.52E-02
106635,8.13E-03,2.52E-02
106636,7.87E-03,2.53E-02
106637,7.67E-03,2.53E-02
106638,7.58E-03,2.54E-02
106639,7.72E-03,2.55E-02
106640,7.95E-03,2.55E-02
106641,7.98E-03,2.56E-02
106642,7.60E-03,2.57E-02
106643,7.32E-03,2.57E-02
106644,8.10E-03,2.58E-02
106645,7.66E-03,2.59E-02
106646,6.35E-03,2.60E-02
106647,7.41E-03,1.85E-02
106648,7.98E-03,1.17E-02
106649,8.54E-03,8.16E-03
106650,7.41E-03,6.77E-03
106651,7.67E-03,6.86E-03
106652,7.96E-03,6.82E-03
106653,8.31E-03,8.10E-03
106654,9.09E-03,8.15E-03
106655,9.61E-03,8.13E-03
106656,9.78E-03,1.49E-02
106657,8.89E-03,1.51E-02
106658,7.21E-03,1.53E-02
106659,6.52E-03,1.55E-02
106660,6.12E-03,1.10E-02
106661,6.50E-03,1.11E-02
106662,7.55E-03,7.65E-03
106663,7.35E-03,6.40E-03
106664,7.33E-03,2.24E-02
106665,8.83E-03,7.38E-03
106666,6.91E-03,7.79E-03
106667,7.17E-03,6.24E-03
106668,8.98E-03,8.32E-03
106669,5.99E-03,8.50E-03
106670,8.19E-03,1.39E-02
106671,4.99E-03,7.95E-03
106672,8.15E-03,1.48E-02
106673,8.10E-03,1.48E-02
106674,9.38E-03,1.67E-02
106675,9.70E-03,1.66E-02
106676,9.83E-03,1.65E-02
106677,9.79E-03,1.64E-02
106678,9.64E-03,1.63E-02
106679,9.33E-03,1.62E-02
106680,9.20E-03,1.61E-02
106681,8.98E-03,1.60E-02
106682,9.01E-03,1.60E-02
106683,9.06E-03,1.59E-02
106684,9.14E-03,1.58E-02
106685,9.22E-03,1.57E-02
106686,9.29E-03,1.56E-02
106687,9.32E-03,1.55E-02
106688,9.32E-03,1.54E-02
106689,9.32E-03,1.53E-02
106690,9.33E-03,1.52E-02
106691,9.35E-03,1.51E-02
106692,9.37E-03,1.50E-02
106693,9.40E-03,1.49E-02
106694,9.42E-03,1.47E-02
106695,9.44E-03,1.46E-02
106696,9.46E-03,1.45E-02
106697,9.48E-03,1.44E-02
106698,9.50E-03,1.42E-02
106699,9.53E-03,1.41E-02
106700,9.55E-03,1.40E-02
106701,9.57E-03,1.38E-02
106702,9.59E-03,1.37E-02
106703,9.44E-03,1.35E-02
106704,9.28E-03,1.34E-02
106705,9.21E-03,1.32E-02
106706,8.98E-03,1.31E-02
106707,8.79E-03,1.29E-02
106708,8.80E-03,1.27E-02
106709,9.71E-03,1.25E-02
106710,8.98E-03,1.23E-02
106711,7.08E-03,6.65E-03
106712,8.73E-03,1.18E-02
106713,7.43E-03,6.78E-03
106714,8.00E-03,6.77E-03
106715,7.19E-03,8.52E-03
106716,6.44E-03,9.97E-03
106717,6.85E-03,8.51E-03
106718,7.80E-03,8.86E-03
106719,5.14E-03,9.95E-03
106720,5.34E-03,9.79E-03
106721,8.15E-03,8.84E-03
106722,9.31E-03,1.56E-02
106723,7.93E-03,1.75E-02
106724,8.22E-03,1.75E-02
106725,1.03E-02,8.50E-03
106726,7.93E-03,8.52E-03
106727,7.60E-03,1.15E-02
106728,7.70E-03,1.15E-02
106729,6.45E-03,8.48E-03
106730,5.70E-03,8.47E-03
106731,7.65E-03,6.48E-03
106732,8.57E-03,7.95E-03
106733,8.47E-03,7.95E-03
106734,8.37E-03,7.95E-03
106735,7.22E-03,6.97E-03
106736,7.62E-03,1.85E-02
106737,5.63E-03,1.85E-02
106738,4.88E-03,1.86E-02
106739,5.85E-03,1.86E-02
106740,6.77E-03,1.87E-02
106741,6.60E-03,1.87E-02
106742,6.05E-03,1.88E-02
106743,5.81E-03,1.88E-02
106744,7.57E-03,1.89E-02
106745,8.05E-03,1.89E-02
106746,8.11E-03,1.90E-02
106747,8.81E-03,1.90E-02
106748,9.04E-03,1.91E-02
106749,9.28E-03,1.91E-02
106750,9.39E-03,1.92E-02
106751,9.65E-03,1.93E-02
106752,9.39E-03,1.93E-02
106753,9.35E-03,1.94E-02
106754,7.87E-03,1.95E-02
106755,7.97E-03,1.95E-02
106756,8.56E-03,1.96E-02
106757,6.88E-03,1.96E-02
106758,6.28E-03,1.97E-02
106759,6.08E-03,1.97E-02
106760,6.74E-03,1.97E-02
106761,6.84E-03,1.98E-02
106762,6.92E-03,1.98E-02
106763,7.11E-03,1.98E-02
106764,7.23E-03,1.99E-02
106765,7.36E-03,1.99E-02
106766,7.51E-03,1.99E-02
106767,7.67E-03,1.99E-02
106768,7.72E-03,1.99E-02
106769,7.75E-03,2.00E-02
106770,7.78E-03,2.00E-02
106771,7.81E-03,2.00E-02
106772,7.83E-03,2.00E-02
106773,7.80E-03,2.00E-02
106774,7.80E-03,2.01E-02
106775,7.88E-03,2.01E-02
106776,7.95E-03,2.01E-02
106777,7.99E-03,2.01E-02
106778,8.01E-03,2.01E-02
106779,8.02E-03,2.01E-02
106780,8.04E-03,2.01E-02
106781,8.09E-03,2.02E-02
106782,8.16E-03,2.02E-02
106783,8.18E-03,2.02E-02
106784,8.19E-03,2.02E-02
106785,8.19E-03,2.02E-02
106786,8.20E-03,2.02E-02
106787,8.20E-03,2.02E-02
106788,8.21E-03,2.02E-02
106789,8.22E-03,2.02E-02
106790,8.22E-03,2.02E-02
106791,8.23E-03,2.02E-02
106792,8.24E-03,2.02E-02
106793,8.25E-03,2.02E-02
106794,8.25E-03,2.03E-02
106795,8.26E-03,2.03E-02
106796,8.27E-03,2.03E-02
106797,8.29E-03,2.03E-02
106798,8.30E-03,2.03E-02
106799,8.31E-03,2.03E-02
106800,8.33E-03,2.03E-02
106801,8.34E-03,2.03E-02
106802,8.36E-03,2.03E-02
106803,8.38E-03,2.03E-02
106804,8.41E-03,2.03E-02
106805,8.44E-03,2.03E-02
106806,8.47E-03,2.02E-02
106807,8.51E-03,2.02E-02
106808,8.55E-03,2.02E-02
106809,8.60E-03,2.02E-02
106810,8.64E-03,2.02E-02
106811,8.66E-03,2.02E-02
106812,8.69E-03,2.02E-02
106813,8.71E-03,2.02E-02
106814,8.72E-03,2.02E-02
106815,8.85E-03,2.02E-02
106816,8.89E-03,2.03E-02
106817,9.05E-03,2.03E-02
106818,9.26E-03,2.03E-02
106819,9.45E-03,2.03E-02
106820,9.89E-03,2.03E-02
106821,1.01E-02,2.04E-02
106822,1.03E-02,2.04E-02
106823,1.04E-02,2.04E-02
106824,1.18E-02,2.05E-02
106825,1.21E-02,2.06E-02
106826,1.10E-02,2.07E-02
106827,1.09E-02,2.08E-02
106828,1.10E-02,2.09E-02
106829,1.11E-02,2.10E-02
106830,1.05E-02,2.11E-02
106831,9.85E-03,2.12E-02
106832,9.68E-03,2.13E-02
106833,9.36E-03,2.14E-02
106834,8.24E-03,2.15E-02
106835,7.87E-03,2.16E-02
106836,7.69E-03,2.17E-02
106837,5.94E-03,2.18E-02
106838,5.66E-03,2.19E-02
106839,5.20E-03,2.19E-02
106840,5.12E-03,2.20E-02
106841,5.02E-03,2.20E-02
106842,4.99E-03,2.21E-02
106843,4.96E-03,2.21E-02
106844,4.59E-03,2.21E-02
106845,4.70E-03,2.22E-02
106846,5.01E-03,2.22E-02
106847,5.17E-03,2.22E-02
106848,6.16E-03,2.22E-02
106849,6.39E-03,2.22E-02
106850,6.63E-03,2.23E-02
106851,6.89E-03,2.23E-02
106852,7.12E-03,2.23E-02
106853,7.12E-03,2.23E-02
106854,7.13E-03,2.23E-02
106855,7.13E-03,2.23E-02
106856,7.41E-03,2.23E-02
106857,7.92E-03,2.23E-02
106858,8.14E-03,2.23E-02
106859,8.15E-03,2.22E-02
106860,8.15E-03,2.22E-02
106861,8.16E-03,2.22E-02
106862,8.23E-03,2.22E-02
106863,8.32E-03,2.22E-02
106864,8.38E-03,2.22E-02
106865,8.40E-03,2.21E-02
106866,8.41E-03,2.21E-02
106867,8.43E-03,2.21E-02
106868,8.45E-03,2.21E-02
106869,8.48E-03,2.21E-02
106870,8.50E-03,2.21E-02
106871,8.53E-03,2.21E-02
106872,8.56E-03,2.21E-02
106873,8.60E-03,2.21E-02
106874,8.64E-03,2.21E-02
106875,8.69E-03,2.21E-02
106876,8.75E-03,2.21E-02
106877,8.81E-03,2.21E-02
106878,8.88E-03,2.21E-02
106879,8.96E-03,2.21E-02
106880,9.05E-03,2.22E-02
106881,9.13E-03,2.22E-02
106882,9.21E-03,2.22E-02
106883,9.33E-03,2.23E-02
106884,9.47E-03,2.24E-02
106885,9.63E-03,2.24E-02
106886,9.83E-03,2.25E-02
106887,1.01E-02,2.26E-02
106888,1.04E-02,2.27E-02
106889,1.07E-02,2.28E-02
106890,1.07E-02,2.29E-02
106891,1.06E-02,2.31E-02
106892,1.07E-02,2.32E-02
106893,1.03E-02,2.34E-02
106894,1.03E-02,2.35E-02
106895,1.02E-02,2.36E-02
106896,6.56E-03,2.38E-02
106897,5.45E-03,2.39E-02
106898,5.43E-03,2.40E-02
106899,5.19E-03,2.41E-02
106900,5.93E-03,2.42E-02
106901,4.36E-03,2.44E-02
106902,7.94E-03,6.20E-03
106903,6.97E-03,6.13E-03
106904,6.61E-03,6.14E-03
106905,7.03E-03,1.78E-02
106906,7.84E-03,1.77E-02
106907,7.58E-03,2.34E-02
106908,7.61E-03,2.25E-02
106909,7.62E-03,1.12E-02
106910,7.24E-03,6.19E-03
106911,4.36E-03,8.62E-03
106912,9.31E-03,1.77E-02
106913,9.51E-03,1.86E-02
106914,6.76E-03,1.86E-02
106915,1.01E-02,1.76E-02
106916,1.03E-02,1.77E-02
106917,5.09E-03,7.59E-03
106918,6.00E-03,7.53E-03
106919,4.44E-03,1.88E-02
106920,6.57E-03,1.87E-02
106921,8.18E-03,1.57E-02
106922,7.98E-03,1.54E-02
106923,8.91E-03,1.51E-02
106924,9.02E-03,1.48E-02
106925,8.99E-03,1.45E-02
106926,9.32E-03,1.71E-02
106927,7.04E-03,1.30E-02
106928,9.38E-03,1.87E-02
106929,4.94E-03,8.51E-03
106930,4.36E-03,8.54E-03
106931,6.14E-03,8.59E-03
106932,6.63E-03,1.29E-02
106933,1.05E-02,8.60E-03
106934,1.04E-02,8.58E-03
106935,9.60E-03,8.56E-03
106936,9.51E-03,8.54E-03
106937,9.08E-03,8.53E-03
106938,8.81E-03,8.51E-03
106939,7.90E-03,8.50E-03
106940,6.28E-03,8.49E-03
106941,6.17E-03,8.47E-03
106942,6.05E-03,8.46E-03
106943,5.96E-03,8.45E-03
106944,5.82E-03,8.45E-03
106945,5.64E-03,8.44E-03
106946,5.22E-03,8.43E-03
106947,5.26E-03,8.43E-03
106948,5.47E-03,8.43E-03
106949,5.50E-03,8.42E-03
106950,7.52E-03,8.42E-03
106951,7.67E-03,8.41E-03
106952,7.76E-03,8.41E-03
106953,7.80E-03,8.41E-03
106954,7.64E-03,8.41E-03
106955,7.31E-03,8.40E-03
106956,6.73E-03,8.40E-03
106957,6.61E-03,8.39E-03
106958,6.44E-03,8.39E-03
106959,6.08E-03,8.39E-03
106960,9.08E-03,8.39E-03
106961,9.60E-03,8.39E-03
106962,9.97E-03,8.39E-03
106963,1.04E-02,8.38E-03
106964,1.05E-02,8.38E-03
106965,1.02E-02,8.37E-03
106966,9.69E-03,8.36E-03
106967,8.85E-03,8.35E-03
106968,7.48E-03,8.34E-03
106969,6.84E-03,8.34E-03
106970,5.99E-03,8.34E-03
106971,5.30E-03,8.33E-03
106972,5.49E-03,8.32E-03
106973,5.80E-03,8.32E-03
106974,7.58E-03,8.32E-03
106975,1.00E-02,8.32E-03
106976,1.11E-02,8.31E-03
106977,1.11E-02,8.31E-03
106978,1.06E-02,8.31E-03
106979,8.41E-03,8.29E-03
106980,6.83E-03,8.29E-03
106981,6.79E-03,8.28E-03
106982,6.60E-03,8.27E-03
106983,6.67E-03,8.26E-03
106984,7.56E-03,8.27E-03
106985,9.74E-03,9.39E-03
106986,8.44E-03,9.50E-03
106987,8.10E-03,9.60E-03
106988,8.03E-03,9.71E-03
106989,7.83E-03,9.81E-03
106990,6.62E-03,9.93E-03
106991,7.25E-03,9.89E-03
106992,7.73E-03,1.06E-02
106993,8.89E-03,1.09E-02
106994,8.70E-03,1.08E-02
106995,8.30E-03,1.07E-02
106996,7.44E-03,1.79E-02
106997,7.32E-03,1.79E-02
106998,8.03E-03,1.83E-02
106999,7.29E-03,1.82E-02
107000,7.09E-03,1.81E-02
107001,7.13E-03,1.80E-02
107002,6.62E-03,8.93E-03
107003,7.38E-03,8.96E-03
107004,8.23E-03,1.70E-02
107005,8.49E-03,1.73E-02
107006,9.41E-03,1.72E-02
107007,6.61E-03,8.49E-03
107008,6.53E-03,8.09E-03
107009,9.99E-03,8.07E-03
107010,8.72E-03,8.06E-03
107011,1.10E-02,8.04E-03
107012,1.03E-02,8.03E-03
107013,9.89E-03,8.01E-03
107014,9.77E-03,7.99E-03
107015,9.32E-03,7.97E-03
107016,9.26E-03,7.94E-03
107017,9.05E-03,7.92E-03
107018,8.75E-03,7.90E-03
107019,8.19E-03,7.88E-03
107020,7.67E-03,7.85E-03
107021,7.51E-03,7.83E-03
107022,7.48E-03,7.81E-03
107023,7.26E-03,7.79E-03
107024,7.12E-03,7.77E-03
107025,6.97E-03,7.75E-03
107026,6.85E-03,7.74E-03
107027,6.67E-03,7.72E-03
107028,6.35E-03,7.70E-03
107029,6.17E-03,7.69E-03
107030,5.52E-03,7.67E-03
107031,4.87E-03,7.66E-03
107032,4.70E-03,7.65E-03
107033,5.63E-03,7.65E-03
107034,5.57E-03,7.64E-03
107035,5.62E-03,7.64E-03
107036,5.47E-03,7.64E-03
107037,5.48E-03,7.64E-03
107038,6.05E-03,7.64E-03
107039,9.28E-03,8.63E-03
107040,9.30E-03,8.64E-03
107041,8.59E-03,8.65E-03
107042,7.00E-03,1.65E-02
107043,7.48E-03,1.76E-02
107044,7.54E-03,1.72E-02
107045,7.57E-03,1.69E-02
107046,6.24E-03,1.42E-02
107047,6.37E-03,1.43E-02
107048,6.25E-03,2.61E-02
107049,4.60E-03,2.57E-02
107050,5.23E-03,2.53E-02
107051,6.82E-03,2.50E-02
107052,7.45E-03,2.47E-02
107053,7.68E-03,2.42E-02
107054,7.52E-03,2.38E-02
107055,8.11E-03,1.48E-02
107056,8.12E-03,1.49E-02
107057,8.12E-03,1.49E-02
107058,8.12E-03,1.49E-02
107059,8.12E-03,1.50E-02
107060,8.12E-03,1.50E-02
107061,8.12E-03,1.50E-02
107062,8.13E-03,1.51E-02
107063,8.13E-03,1.51E-02
107064,8.14E-03,1.52E-02
107065,8.14E-03,1.52E-02
107066,8.14E-03,1.52E-02
107067,8.14E-03,1.53E-02
107068,8.15E-03,1.53E-02
107069,8.15E-03,1.53E-02
107070,8.15E-03,1.54E-02
107071,8.16E-03,1.54E-02
107072,8.16E-03,1.54E-02
107073,8.17E-03,1.55E-02
107074,8.17E-03,1.55E-02
107075,8.18E-03,1.55E-02
107076,8.18E-03,1.56E-02
107077,8.19E-03,1.56E-02
107078,8.20E-03,1.56E-02
107079,8.20E-03,1.57E-02
107080,8.21E-03,1.57E-02
107081,8.22E-03,1.57E-02
107082,8.24E-03,1.58E-02
107083,8.25E-03,1.58E-02
107084,8.27E-03,1.59E-02
107085,8.29E-03,1.59E-02
107086,8.32E-03,1.59E-02
107087,8.35E-03,1.60E-02
107088,8.38E-03,1.60E-02
107089,8.42E-03,1.60E-02
107090,8.47E-03,1.61E-02
107091,8.53E-03,1.61E-02
107092,8.61E-03,1.62E-02
107093,8.71E-03,1.62E-02
107094,8.85E-03,1.62E-02
107095,9.06E-03,1.63E-02
107096,9.37E-03,1.63E-02
107097,9.87E-03,1.64E-02
107098,9.73E-03,1.65E-02
107099,7.83E-03,1.65E-02
107100,6.60E-03,1.65E-02
107101,6.95E-03,1.66E-02
107102,7.19E-03,1.66E-02
107103,7.35E-03,1.67E-02
107104,7.47E-03,1.67E-02
107105,7.56E-03,1.67E-02
107106,7.63E-03,1.68E-02
107107,7.68E-03,1.68E-02
107108,7.73E-03,1.69E-02
107109,7.76E-03,1.69E-02
107110,7.80E-03,1.69E-02
107111,7.82E-03,1.70E-02
107112,7.84E-03,1.70E-02
107113,7.86E-03,1.70E-02
107114,7.88E-03,1.71E-02
107115,7.90E-03,1.71E-02
107116,7.91E-03,1.72E-02
107117,7.92E-03,1.72E-02
107118,7.93E-03,1.72E-02
107119,7.94E-03,1.73E-02
107120,7.95E-03,1.73E-02
107121,7.96E-03,1.73E-02
107122,7.96E-03,1.74E-02
107123,7.97E-03,1.74E-02
107124,7.97E-03,1.74E-02
107125,7.97E-03,1.75E-02
107126,7.96E-03,1.75E-02
107127,7.97E-03,1.75E-02
107128,7.99E-03,1.75E-02
107129,8.01E-03,1.76E-02
107130,8.02E-03,1.76E-02
107131,8.03E-03,1.76E-02
107132,8.03E-03,1.77E-02
107133,8.04E-03,1.77E-02
107134,8.04E-03,1.77E-02
107135,8.05E-03,1.77E-02
107136,8.09E-03,1.78E-02
107137,8.15E-03,1.78E-02
107138,8.18E-03,1.78E-02
107139,8.19E-03,1.78E-02
107140,8.19E-03,1.78E-02
107141,8.20E-03,1.79E-02
107142,8.21E-03,1.79E-02
107143,8.22E-03,1.79E-02
107144,8.23E-03,1.79E-02
107145,8.24E-03,1.79E-02
107146,8.25E-03,1.79E-02
107147,8.26E-03,1.80E-02
107148,8.28E-03,1.80E-02
107149,8.30E-03,1.80E-02
107150,8.32E-03,1.80E-02
107151,8.35E-03,1.80E-02
107152,8.38E-03,1.81E-02
107153,8.41E-03,1.81E-02
107154,8.46E-03,1.81E-02
107155,8.51E-03,1.81E-02
107156,8.68E-03,1.81E-02
107157,8.90E-03,1.82E-02
107158,8.91E-03,1.82E-02
107159,8.88E-03,1.82E-02
107160,8.61E-03,1.83E-02
107161,9.94E-03,1.83E-02
107162,8.30E-03,1.84E-02
107163,7.88E-03,1.18E-02
107164,1.03E-02,1.18E-02
107165,1.05E-02,1.19E-02
107166,1.04E-02,1.20E-02
107167,1.02E-02,1.21E-02
107168,1.01E-02,1.22E-02
107169,9.80E-03,1.23E-02
107170,9.38E-03,1.24E-02
107171,9.12E-03,1.25E-02
107172,8.94E-03,1.26E-02
107173,8.81E-03,1.27E-02
107174,8.71E-03,1.28E-02
107175,8.63E-03,1.29E-02
107176,8.50E-03,1.29E-02
107177,8.44E-03,1.30E-02
107178,8.52E-03,1.31E-02
107179,8.71E-03,1.32E-02
107180,8.83E-03,1.33E-02
107181,8.37E-03,1.34E-02
107182,7.88E-03,1.35E-02
107183,7.85E-03,1.36E-02
107184,7.85E-03,1.37E-02
107185,7.85E-03,1.38E-02
107186,7.83E-03,1.39E-02
107187,7.59E-03,1.40E-02
107188,7.45E-03,1.41E-02
107189,7.40E-03,1.41E-02
107190,7.24E-03,1.42E-02
107191,7.09E-03,1.43E-02
107192,6.80E-03,1.44E-02
107193,6.24E-03,1.45E-02
107194,6.23E-03,1.45E-02
107195,6.51E-03,1.47E-02
107196,7.26E-03,1.47E-02
107197,9.62E-03,1.48E-02
107198,1.12E-02,1.49E-02
107199,8.09E-03,1.50E-02
107200,8.74E-03,8.16E-03
107201,5.86E-03,8.57E-03
107202,7.82E-03,6.85E-03
107203,8.06E-03,8.09E-03
107204,7.89E-03,8.08E-03
107205,7.60E-03,8.06E-03
107206,7.15E-03,8.04E-03
107207,6.01E-03,8.04E-03
107208,6.25E-03,8.07E-03
107209,6.18E-03,8.07E-03
107210,6.93E-03,8.08E-03
107211,1.04E-02,8.09E-03
107212,9.81E-03,8.11E-03
107213,9.79E-03,1.19E-02
107214,8.65E-03,1.19E-02
107215,8.55E-03,1.20E-02
107216,8.47E-03,1.21E-02
107217,8.38E-03,1.22E-02
107218,8.27E-03,1.23E-02
107219,8.17E-03,1.24E-02
107220,8.05E-03,1.24E-02
107221,8.03E-03,1.25E-02
107222,8.04E-03,1.26E-02
107223,8.06E-03,1.27E-02
107224,9.03E-03,1.29E-02
107225,8.16E-03,1.28E-02
107226,8.18E-03,1.56E-02
107227,9.16E-03,1.57E-02
107228,1.00E-02,1.58E-02
107229,1.02E-02,1.59E-02
107230,9.97E-03,1.60E-02
107231,9.53E-03,1.61E-02
107232,9.43E-03,1.63E-02
107233,9.26E-03,1.64E-02
107234,9.01E-03,1.65E-02
107235,8.72E-03,1.66E-02
107236,8.53E-03,1.67E-02
107237,8.40E-03,1.69E-02
107238,8.29E-03,1.70E-02
107239,8.22E-03,1.71E-02
107240,8.02E-03,1.72E-02
107241,7.59E-03,1.73E-02
107242,6.78E-03,1.75E-02
107243,7.46E-03,1.73E-02
107244,8.19E-03,1.12E-02
107245,7.65E-03,1.13E-02
107246,7.94E-03,7.64E-03
107247,7.99E-03,7.63E-03
107248,1.03E-02,7.62E-03
107249,1.02E-02,7.61E-03
107250,1.02E-02,7.60E-03
107251,1.03E-02,7.59E-03
107252,9.19E-03,7.57E-03
107253,7.95E-03,7.55E-03
107254,7.05E-03,7.54E-03
107255,6.75E-03,7.52E-03
107256,6.57E-03,7.51E-03
107257,6.34E-03,7.50E-03
107258,6.05E-03,7.49E-03
107259,5.67E-03,7.48E-03
107260,5.17E-03,7.48E-03
107261,5.52E-03,7.47E-03
107262,6.18E-03,7.47E-03
107263,6.27E-03,7.47E-03
107264,6.37E-03,7.47E-03
107265,6.30E-03,7.48E-03
107266,6.24E-03,7.48E-03
107267,7.61E-03,7.49E-03
107268,9.88E-03,7.49E-03
107269,9.88E-03,7.50E-03
107270,9.88E-03,7.51E-03
107271,9.66E-03,7.51E-03
107272,9.24E-03,7.51E-03
107273,9.09E-03,7.51E-03
107274,8.38E-03,7.52E-03
107275,8.27E-03,7.51E-03
107276,8.03E-03,7.51E-03
107277,8.09E-03,7.51E-03
107278,8.10E-03,7.51E-03
107279,8.27E-03,7.51E-03
107280,9.51E-03,7.51E-03
107281,1.05E-02,7.51E-03
107282,1.01E-02,7.50E-03
107283,9.66E-03,7.49E-03
107284,9.35E-03,7.48E-03
107285,9.36E-03,7.47E-03
107286,9.65E-03,7.45E-03
107287,1.01E-02,7.44E-03
107288,1.08E-02,7.42E-03
107289,1.10E-02,7.40E-03
107290,1.04E-02,7.37E-03
107291,9.89E-03,7.34E-03
107292,9.54E-03,7.30E-03
107293,9.29E-03,7.27E-03
107294,9.17E-03,7.23E-03
107295,9.16E-03,7.20E-03
107296,9.00E-03,7.16E-03
107297,8.73E-03,7.12E-03
107298,8.57E-03,7.08E-03
107299,8.47E-03,7.04E-03
107300,8.40E-03,7.00E-03
107301,8.35E-03,6.96E-03
107302,8.31E-03,6.92E-03
107303,8.28E-03,6.88E-03
107304,8.16E-03,6.84E-03
107305,7.90E-03,6.80E-03
107306,7.73E-03,6.76E-03
107307,7.71E-03,6.72E-03
107308,7.68E-03,6.69E-03
107309,7.65E-03,6.65E-03
107310,7.61E-03,6.61E-03
107311,7.57E-03,6.58E-03
107312,7.52E-03,6.54E-03
107313,7.47E-03,6.50E-03
107314,7.41E-03,6.47E-03
107315,7.33E-03,6.44E-03
107316,7.24E-03,6.41E-03
107317,7.14E-03,6.37E-03
107318,6.99E-03,6.35E-03
107319,6.80E-03,6.32E-03
107320,6.76E-03,6.29E-03
107321,6.95E-03,6.27E-03
107322,7.14E-03,6.24E-03
107323,7.14E-03,6.22E-03
107324,7.04E-03,6.20E-03
107325,6.91E-03,6.18E-03
107326,6.71E-03,6.16E-03
107327,6.38E-03,6.14E-03
107328,6.30E-03,6.12E-03
107329,6.98E-03,6.10E-03
107330,7.05E-03,6.08E-03
107331,7.26E-03,6.07E-03
107332,7.40E-03,6.05E-03
107333,7.55E-03,6.05E-03
107334,9.02E-03,6.11E-03
107335,9.78E-03,6.15E-03
107336,8.21E-03,6.09E-03
107337,7.89E-03,6.06E-03
107338,7.66E-03,6.06E-03
107339,9.30E-03,6.03E-03
107340,7.41E-03,6.29E-03
107341,9.13E-03,1.30E-02
107342,9.69E-03,1.30E-02
107343,7.65E-03,2.20E-02
107344,7.83E-03,2.16E-02
107345,8.07E-03,2.12E-02
107346,8.27E-03,2.08E-02
107347,8.52E-03,2.04E-02
107348,8.55E-03,2.00E-02
107349,8.49E-03,1.96E-02
107350,8.55E-03,1.92E-02
107351,9.61E-03,7.42E-03
107352,9.45E-03,7.48E-03
107353,9.15E-03,7.53E-03
107354,9.06E-03,7.57E-03
107355,9.89E-03,7.60E-03
107356,8.18E-03,7.73E-03
107357,9.50E-03,7.63E-03
107358,8.28E-03,1.25E-02
107359,7.11E-03,7.52E-03
107360,5.22E-03,8.68E-03
107361,7.85E-03,8.43E-03
107362,6.42E-03,8.46E-03
107363,7.05E-03,8.42E-03
107364,7.76E-03,1.37E-02
107365,9.59E-03,1.33E-02
107366,1.13E-02,1.35E-02
107367,9.63E-03,1.36E-02
107368,8.11E-03,1.47E-02
107369,8.12E-03,1.47E-02
107370,8.12E-03,1.46E-02
107371,8.12E-03,1.46E-02
107372,8.12E-03,1.46E-02
107373,8.12E-03,1.45E-02
107374,8.12E-03,1.45E-02
107375,8.12E-03,1.44E-02
107376,8.13E-03,1.44E-02
107377,8.13E-03,1.44E-02
107378,8.13E-03,1.43E-02
107379,8.13E-03,1.43E-02
107380,8.13E-03,1.42E-02
107381,8.13E-03,1.42E-02
107382,8.13E-03,1.42E-02
107383,8.13E-03,1.41E-02
107384,8.13E-03,1.41E-02
107385,8.13E-03,1.40E-02
107386,8.13E-03,1.40E-02
107387,8.13E-03,1.40E-02
107388,8.13E-03,1.39E-02
107389,8.14E-03,1.39E-02
107390,8.14E-03,1.38E-02
107391,8.14E-03,1.38E-02
107392,8.14E-03,1.37E-02
107393,8.14E-03,1.37E-02
107394,8.15E-03,1.37E-02
107395,8.15E-03,1.36E-02
107396,8.15E-03,1.36E-02
107397,8.16E-03,1.35E-02
107398,8.16E-03,1.35E-02
107399,8.17E-03,1.34E-02
107400,8.17E-03,1.34E-02
107401,8.18E-03,1.33E-02
107402,8.18E-03,1.33E-02
107403,8.18E-03,1.32E-02
107404,8.19E-03,1.32E-02
107405,8.19E-03,1.32E-02
107406,8.20E-03,1.31E-02
107407,8.21E-03,1.31E-02
107408,8.21E-03,1.30E-02
107409,8.22E-03,1.30E-02
107410,8.23E-03,1.29E-02
107411,8.24E-03,1.29E-02
107412,8.25E-03,1.28E-02
107413,8.26E-03,1.28E-02
107414,8.27E-03,1.27E-02
107415,8.29E-03,1.27E-02
107416,8.31E-03,1.26E-02
107417,8.33E-03,1.26E-02
107418,8.35E-03,1.25E-02
107419,8.37E-03,1.25E-02
107420,8.40E-03,1.24E-02
107421,8.44E-03,1.24E-02
107422,8.48E-03,1.24E-02
107423,8.54E-03,1.23E-02
107424,8.60E-03,1.23E-02
107425,8.69E-03,1.22E-02
107426,8.86E-03,1.22E-02
107427,8.98E-03,1.21E-02
107428,9.19E-03,1.21E-02
107429,9.46E-03,1.20E-02
107430,9.80E-03,1.20E-02
107431,1.08E-02,1.19E-02
107432,1.09E-02,1.19E-02
107433,9.60E-03,1.18E-02
107434,8.62E-03,1.18E-02
107435,8.65E-03,1.17E-02
107436,8.70E-03,1.17E-02
107437,8.77E-03,1.16E-02
107438,8.86E-03,1.16E-02
107439,8.96E-03,1.16E-02
107440,9.08E-03,1.15E-02
107441,9.24E-03,1.15E-02
107442,9.45E-03,1.14E-02
107443,9.72E-03,1.14E-02
107444,1.01E-02,1.13E-02
107445,9.75E-03,1.12E-02
107446,8.63E-03,1.12E-02
107447,5.75E-03,1.12E-02
107448,5.81E-03,1.11E-02
107449,5.89E-03,1.11E-02
107450,6.17E-03,1.10E-02
107451,6.61E-03,1.10E-02
107452,6.99E-03,1.10E-02
107453,7.15E-03,1.09E-02
107454,7.27E-03,1.09E-02
107455,7.37E-03,1.09E-02
107456,7.45E-03,1.08E-02
107457,7.52E-03,1.08E-02
107458,7.60E-03,1.08E-02
107459,7.70E-03,1.07E-02
107460,7.74E-03,1.07E-02
107461,7.74E-03,1.07E-02
107462,7.74E-03,1.07E-02
107463,8.18E-03,1.06E-02
107464,8.78E-03,1.06E-02
107465,8.80E-03,1.06E-02
107466,8.60E-03,1.06E-02
107467,8.49E-03,1.06E-02
107468,8.55E-03,1.06E-02
107469,8.68E-03,1.06E-02
107470,8.77E-03,1.06E-02
107471,8.86E-03,1.06E-02
107472,8.97E-03,1.06E-02
107473,9.11E-03,1.06E-02
107474,9.30E-03,1.06E-02
107475,9.64E-03,1.06E-02
107476,9.97E-03,1.07E-02
107477,9.92E-03,1.07E-02
107478,9.19E-03,1.08E-02
107479,8.20E-03,1.08E-02
107480,7.77E-03,1.08E-02
107481,7.76E-03,1.09E-02
107482,7.77E-03,1.09E-02
107483,7.78E-03,1.10E-02
107484,7.79E-03,1.11E-02
107485,7.80E-03,1.11E-02
107486,7.81E-03,1.12E-02
107487,7.82E-03,1.13E-02
107488,7.77E-03,1.14E-02
107489,7.70E-03,1.15E-02
107490,7.64E-03,1.15E-02
107491,7.61E-03,1.16E-02
107492,7.48E-03,1.17E-02
107493,7.16E-03,1.18E-02
107494,7.14E-03,1.19E-02
107495,7.09E-03,1.21E-02
107496,7.99E-03,1.22E-02
107497,9.63E-03,1.76E-02
107498,6.42E-03,1.75E-02
107499,7.35E-03,6.59E-03
107500,6.00E-03,6.44E-03
107501,7.78E-03,6.56E-03
107502,6.99E-03,8.51E-03
107503,7.56E-03,1.11E-02
107504,7.55E-03,1.11E-02
107505,7.12E-03,1.10E-02
107506,7.24E-03,1.09E-02
107507,7.27E-03,1.09E-02
107508,7.48E-03,1.08E-02
107509,7.61E-03,1.07E-02
107510,7.67E-03,1.07E-02
107511,7.72E-03,1.06E-02
107512,7.77E-03,1.05E-02
107513,7.80E-03,1.05E-02
107514,7.83E-03,1.04E-02
107515,7.85E-03,1.04E-02
107516,7.88E-03,1.03E-02
107517,7.90E-03,1.02E-02
107518,7.94E-03,1.02E-02
107519,7.97E-03,1.01E-02
107520,7.97E-03,1.00E-02
107521,7.97E-03,9.99E-03
107522,7.96E-03,9.93E-03
107523,7.96E-03,9.88E-03
107524,7.95E-03,9.82E-03
107525,7.95E-03,9.77E-03
107526,7.94E-03,9.72E-03
107527,7.93E-03,9.67E-03
107528,7.93E-03,9.62E-03
107529,7.92E-03,9.57E-03
107530,7.91E-03,9.52E-03
107531,7.90E-03,9.48E-03
107532,7.89E-03,9.43E-03
107533,7.88E-03,9.39E-03
107534,7.87E-03,9.35E-03
107535,7.86E-03,9.30E-03
107536,7.85E-03,9.26E-03
107537,7.84E-03,9.22E-03
107538,7.82E-03,9.18E-03
107539,7.78E-03,9.14E-03
107540,7.72E-03,9.09E-03
107541,7.60E-03,9.05E-03
107542,7.51E-03,9.02E-03
107543,7.49E-03,8.98E-03
107544,7.62E-03,8.95E-03
107545,8.55E-03,8.91E-03
107546,6.48E-03,8.87E-03
107547,6.70E-03,1.00E-02
107548,7.16E-03,1.01E-02
107549,6.84E-03,8.50E-03
107550,8.83E-03,8.14E-03
107551,7.77E-03,8.96E-03
107552,5.03E-03,9.65E-03
107553,7.86E-03,1.02E-02
107554,7.00E-03,1.78E-02
107555,9.59E-03,1.85E-02
107556,7.29E-03,8.84E-03
107557,5.72E-03,8.83E-03
107558,1.06E-02,1.52E-02
107559,8.19E-03,1.74E-02
107560,8.50E-03,7.94E-03
107561,7.38E-03,7.45E-03
107562,6.56E-03,7.45E-03
107563,6.98E-03,8.53E-03
107564,7.76E-03,1.58E-02
107565,7.63E-03,1.76E-02
107566,8.99E-03,1.32E-02
107567,8.67E-03,1.30E-02
107568,7.92E-03,1.16E-02
107569,6.99E-03,8.04E-03
107570,4.59E-03,8.46E-03
107571,5.79E-03,8.46E-03
107572,6.76E-03,6.56E-03
107573,7.75E-03,6.51E-03
107574,8.26E-03,7.94E-03
107575,8.78E-03,8.01E-03
107576,9.64E-03,7.98E-03
107577,7.65E-03,6.67E-03
107578,6.50E-03,1.87E-02
107579,5.54E-03,1.87E-02
107580,5.40E-03,1.88E-02
107581,5.50E-03,1.88E-02
107582,5.63E-03,1.89E-02
107583,5.65E-03,1.89E-02
107584,5.73E-03,1.90E-02
107585,5.77E-03,1.90E-02
107586,7.40E-03,1.91E-02
107587,8.20E-03,1.91E-02
107588,8.20E-03,1.92E-02
107589,8.73E-03,1.92E-02
107590,9.06E-03,1.93E-02
107591,9.19E-03,1.94E-02
107592,9.29E-03,1.94E-02
107593,9.66E-03,1.95E-02
107594,9.37E-03,1.96E-02
107595,9.35E-03,1.96E-02
107596,7.70E-03,1.97E-02
107597,7.70E-03,1.97E-02
107598,7.79E-03,1.98E-02
107599,8.70E-03,1.53E-02
107600,6.71E-03,1.51E-02
107601,5.85E-03,1.48E-02
107602,5.51E-03,1.44E-02
107603,7.70E-03,1.43E-02
107604,6.67E-03,1.40E-02
107605,6.15E-03,1.99E-02
107606,5.79E-03,1.99E-02
107607,5.69E-03,1.99E-02
107608,6.81E-03,1.99E-02
107609,6.90E-03,2.00E-02
107610,7.03E-03,2.00E-02
107611,7.18E-03,2.00E-02
107612,7.30E-03,2.01E-02
107613,7.41E-03,2.01E-02
107614,7.53E-03,2.01E-02
107615,7.69E-03,2.01E-02
107616,7.73E-03,2.02E-02
107617,7.76E-03,2.02E-02
107618,7.79E-03,2.02E-02
107619,7.82E-03,2.02E-02
107620,7.84E-03,2.03E-02
107621,7.81E-03,2.03E-02
107622,7.81E-03,2.03E-02
107623,7.89E-03,2.03E-02
107624,7.96E-03,2.03E-02
107625,7.99E-03,2.03E-02
107626,8.01E-03,2.04E-02
107627,8.03E-03,2.04E-02
107628,8.04E-03,2.04E-02
107629,8.09E-03,2.04E-02
107630,8.16E-03,2.04E-02
107631,8.18E-03,2.04E-02
107632,8.18E-03,2.04E-02
107633,8.19E-03,2.04E-02
107634,8.19E-03,2.05E-02
107635,8.20E-03,2.05E-02
107636,8.20E-03,2.05E-02
107637,8.21E-03,2.05E-02
107638,8.22E-03,2.05E-02
107639,8.23E-03,2.05E-02
107640,8.23E-03,2.05E-02
107641,8.24E-03,2.05E-02
107642,8.25E-03,2.05E-02
107643,8.26E-03,2.05E-02
107644,8.27E-03,2.05E-02
107645,8.28E-03,2.05E-02
107646,8.29E-03,2.05E-02
107647,8.30E-03,2.05E-02
107648,8.32E-03,2.05E-02
107649,8.34E-03,2.05E-02
107650,8.35E-03,2.05E-02
107651,8.37E-03,2.05E-02
107652,8.40E-03,2.05E-02
107653,8.43E-03,2.05E-02
107654,8.46E-03,2.05E-02
107655,8.49E-03,2.05E-02
107656,8.53E-03,2.05E-02
107657,8.58E-03,2.05E-02
107658,8.62E-03,2.05E-02
107659,8.64E-03,2.05E-02
107660,8.67E-03,2.05E-02
107661,8.69E-03,2.05E-02
107662,8.70E-03,2.05E-02
107663,8.86E-03,2.05E-02
107664,8.88E-03,2.05E-02
107665,8.99E-03,2.06E-02
107666,9.14E-03,2.06E-02
107667,9.39E-03,2.06E-02
107668,9.99E-03,2.06E-02
107669,1.01E-02,2.07E-02
107670,1.04E-02,2.07E-02
107671,1.06E-02,2.07E-02
107672,1.13E-02,2.08E-02
107673,1.14E-02,2.09E-02
107674,1.13E-02,2.10E-02
107675,1.10E-02,2.11E-02
107676,1.10E-02,2.12E-02
107677,1.11E-02,2.13E-02
107678,1.07E-02,2.14E-02
107679,9.57E-03,2.15E-02
107680,9.50E-03,2.16E-02
107681,9.29E-03,2.17E-02
107682,8.38E-03,2.19E-02
107683,7.98E-03,2.20E-02
107684,7.80E-03,2.21E-02
107685,5.82E-03,2.21E-02
107686,5.45E-03,2.22E-02
107687,5.36E-03,2.23E-02
107688,5.21E-03,2.23E-02
107689,5.22E-03,2.24E-02
107690,5.09E-03,2.24E-02
107691,5.06E-03,2.24E-02
107692,4.69E-03,2.25E-02
107693,4.68E-03,2.25E-02
107694,5.07E-03,2.25E-02
107695,5.28E-03,2.26E-02
107696,6.29E-03,2.26E-02
107697,6.46E-03,2.26E-02
107698,6.75E-03,2.26E-02
107699,6.99E-03,2.26E-02
107700,7.15E-03,2.26E-02
107701,7.16E-03,2.26E-02
107702,7.16E-03,2.26E-02
107703,7.16E-03,2.26E-02
107704,7.44E-03,2.26E-02
107705,7.93E-03,2.26E-02
107706,8.14E-03,2.26E-02
107707,8.14E-03,2.26E-02
107708,8.14E-03,2.26E-02
107709,8.16E-03,2.25E-02
107710,8.23E-03,2.25E-02
107711,8.31E-03,2.25E-02
107712,8.37E-03,2.25E-02
107713,8.39E-03,2.25E-02
107714,8.40E-03,2.24E-02
107715,8.42E-03,2.24E-02
107716,8.44E-03,2.24E-02
107717,8.46E-03,2.24E-02
107718,8.49E-03,2.24E-02
107719,8.52E-03,2.24E-02
107720,8.55E-03,2.24E-02
107721,8.58E-03,2.24E-02
107722,8.62E-03,2.24E-02
107723,8.67E-03,2.24E-02
107724,8.72E-03,2.24E-02
107725,8.78E-03,2.24E-02
107726,8.86E-03,2.24E-02
107727,8.93E-03,2.24E-02
107728,9.02E-03,2.25E-02
107729,9.09E-03,2.25E-02
107730,9.17E-03,2.26E-02
107731,9.29E-03,2.26E-02
107732,9.42E-03,2.27E-02
107733,9.58E-03,2.27E-02
107734,9.77E-03,2.28E-02
107735,1.00E-02,2.29E-02
107736,1.03E-02,2.30E-02
107737,1.06E-02,2.31E-02
107738,1.07E-02,2.33E-02
107739,1.05E-02,2.34E-02
107740,1.06E-02,2.35E-02
107741,1.05E-02,2.37E-02
107742,1.04E-02,2.39E-02
107743,1.03E-02,2.40E-02
107744,6.15E-03,2.42E-02
107745,5.54E-03,2.42E-02
107746,5.36E-03,2.43E-02
107747,4.72E-03,2.44E-02
107748,5.18E-03,2.45E-02
107749,4.20E-03,2.45E-02
107750,3.87E-03,2.46E-02
107751,6.15E-03,1.55E-02
107752,5.34E-03,1.75E-02
107753,6.57E-03,1.07E-02
107754,7.10E-03,1.07E-02
107755,8.88E-03,1.15E-02
107756,8.00E-03,1.13E-02
107757,7.27E-03,6.52E-03
107758,7.42E-03,7.45E-03
107759,7.28E-03,6.11E-03
107760,7.45E-03,6.19E-03
107761,8.80E-03,1.76E-02
107762,9.03E-03,1.75E-02
107763,5.90E-03,2.43E-02
107764,6.11E-03,2.43E-02
107765,6.32E-03,2.44E-02
107766,6.51E-03,2.44E-02
107767,6.70E-03,2.45E-02
107768,6.92E-03,2.45E-02
107769,7.27E-03,2.45E-02
107770,7.40E-03,2.46E-02
107771,7.61E-03,2.46E-02
107772,7.67E-03,2.46E-02
107773,7.72E-03,2.47E-02
107774,7.76E-03,2.47E-02
107775,7.80E-03,2.47E-02
107776,7.82E-03,2.48E-02
107777,7.85E-03,2.48E-02
107778,7.87E-03,2.48E-02
107779,7.88E-03,2.49E-02
107780,7.90E-03,2.49E-02
107781,7.91E-03,2.49E-02
107782,7.92E-03,2.49E-02
107783,7.94E-03,2.50E-02
107784,7.95E-03,2.50E-02
107785,7.96E-03,2.50E-02
107786,7.97E-03,2.51E-02
107787,7.98E-03,2.51E-02
107788,7.98E-03,2.51E-02
107789,7.98E-03,2.52E-02
107790,7.99E-03,2.52E-02
107791,7.99E-03,2.52E-02
107792,7.99E-03,2.53E-02
107793,8.00E-03,2.53E-02
107794,8.00E-03,2.54E-02
107795,8.00E-03,2.54E-02
107796,8.00E-03,2.54E-02
107797,8.01E-03,2.55E-02
107798,8.01E-03,2.56E-02
107799,8.08E-03,2.56E-02
107800,8.10E-03,2.57E-02
107801,8.08E-03,2.57E-02
107802,8.03E-03,2.57E-02
107803,7.87E-03,2.58E-02
107804,7.84E-03,2.59E-02
107805,7.75E-03,2.59E-02
107806,7.78E-03,2.60E-02
107807,7.82E-03,2.61E-02
107808,7.87E-03,2.62E-02
107809,7.80E-03,2.62E-02
107810,7.78E-03,2.62E-02
107811,7.68E-03,2.64E-02
107812,7.35E-03,2.64E-02
107813,7.19E-03,2.65E-02
107814,7.27E-03,2.66E-02
107815,7.07E-03,2.61E-02
107816,7.69E-03,2.66E-02
107817,8.82E-03,8.40E-03
107818,8.86E-03,6.04E-03
107819,6.57E-03,6.20E-03
107820,8.99E-03,1.51E-02
107821,8.87E-03,1.48E-02
107822,6.29E-03,5.90E-03
107823,4.66E-03,5.90E-03
107824,6.10E-03,5.94E-03
107825,6.35E-03,7.50E-03
107826,8.64E-03,7.05E-03
107827,8.15E-03,1.49E-02
107828,8.10E-03,1.48E-02
107829,8.26E-03,1.70E-02
107830,8.47E-03,1.69E-02
107831,8.76E-03,1.68E-02
107832,9.13E-03,1.67E-02
107833,9.38E-03,1.66E-02
107834,9.66E-03,1.65E-02
107835,9.61E-03,1.64E-02
107836,9.58E-03,1.63E-02
107837,9.28E-03,1.63E-02
107838,9.18E-03,1.62E-02
107839,8.95E-03,1.61E-02
107840,8.98E-03,1.60E-02
107841,9.03E-03,1.59E-02
107842,9.10E-03,1.58E-02
107843,9.18E-03,1.57E-02
107844,9.25E-03,1.56E-02
107845,9.28E-03,1.55E-02
107846,9.28E-03,1.54E-02
107847,9.28E-03,1.53E-02
107848,9.29E-03,1.52E-02
107849,9.31E-03,1.51E-02
107850,9.33E-03,1.50E-02
107851,9.35E-03,1.49E-02
107852,9.38E-03,1.48E-02
107853,9.40E-03,1.47E-02
107854,9.41E-03,1.46E-02
107855,9.43E-03,1.44E-02
107856,9.46E-03,1.43E-02
107857,9.48E-03,1.42E-02
107858,9.50E-03,1.40E-02
107859,9.52E-03,1.39E-02
107860,9.54E-03,1.38E-02
107861,9.48E-03,1.36E-02
107862,9.42E-03,1.35E-02
107863,9.27E-03,1.33E-02
107864,9.15E-03,1.32E-02
107865,9.07E-03,1.30E-02
107866,9.11E-03,1.28E-02
107867,9.00E-03,1.27E-02
107868,8.97E-03,1.25E-02
107869,8.71E-03,1.23E-02
107870,7.84E-03,8.03E-03
107871,7.08E-03,8.43E-03
107872,8.12E-03,1.35E-02
107873,6.56E-03,1.37E-02
107874,7.87E-03,1.36E-02
107875,7.04E-03,1.34E-02
107876,5.54E-03,9.69E-03
107877,7.20E-03,8.39E-03
107878,7.81E-03,8.54E-03
107879,7.24E-03,8.72E-03
107880,7.27E-03,8.39E-03
107881,7.79E-03,8.41E-03
107882,7.55E-03,2.20E-02
107883,7.84E-03,1.11E-02
107884,8.12E-03,1.12E-02
107885,7.99E-03,1.12E-02
107886,8.08E-03,1.13E-02
107887,8.20E-03,1.14E-02
107888,8.11E-03,1.15E-02
107889,5.07E-03,8.38E-03
107890,4.84E-03,8.36E-03
107891,7.55E-03,6.19E-03
107892,8.18E-03,7.78E-03
107893,8.19E-03,7.79E-03
107894,8.01E-03,7.79E-03
107895,3.80E-03,8.62E-03
107896,9.36E-03,8.40E-03
107897,7.68E-03,2.30E-02
107898,7.67E-03,2.25E-02
107899,7.61E-03,2.21E-02
107900,8.87E-03,1.29E-02
107901,7.22E-03,5.91E-03
107902,9.38E-03,1.77E-02
107903,9.41E-03,1.78E-02
107904,9.92E-03,1.79E-02
107905,1.04E-02,1.79E-02
107906,1.06E-02,1.80E-02
107907,9.84E-03,1.81E-02
107908,9.67E-03,1.81E-02
107909,9.62E-03,1.82E-02
107910,9.40E-03,1.83E-02
107911,9.23E-03,1.83E-02
107912,9.09E-03,1.84E-02
107913,9.06E-03,1.85E-02
107914,8.93E-03,1.85E-02
107915,8.97E-03,1.86E-02
107916,8.72E-03,1.87E-02
107917,7.94E-03,1.87E-02
107918,6.44E-03,1.86E-02
107919,5.49E-03,1.87E-02
107920,9.37E-03,1.77E-02
107921,9.36E-03,1.78E-02
107922,9.49E-03,1.78E-02
107923,6.48E-03,5.90E-03
107924,8.40E-03,7.32E-03
107925,4.74E-03,8.55E-03
107926,6.15E-03,1.89E-02
107927,6.49E-03,1.89E-02
107928,7.85E-03,7.32E-03
107929,1.02E-02,8.49E-03
107930,1.00E-02,8.47E-03
107931,9.64E-03,8.45E-03
107932,9.55E-03,8.43E-03
107933,9.02E-03,8.41E-03
107934,8.86E-03,8.40E-03
107935,7.91E-03,8.38E-03
107936,6.39E-03,8.37E-03
107937,6.27E-03,8.36E-03
107938,6.13E-03,8.35E-03
107939,6.08E-03,8.34E-03
107940,5.91E-03,8.33E-03
107941,5.67E-03,8.32E-03
107942,5.42E-03,8.32E-03
107943,5.27E-03,8.31E-03
107944,5.34E-03,8.31E-03
107945,5.28E-03,8.31E-03
107946,7.86E-03,8.30E-03
107947,7.83E-03,8.30E-03
107948,7.90E-03,8.30E-03
107949,7.98E-03,8.29E-03
107950,7.66E-03,8.29E-03
107951,7.15E-03,8.28E-03
107952,6.90E-03,8.28E-03
107953,6.67E-03,8.28E-03
107954,6.44E-03,8.28E-03
107955,6.04E-03,8.27E-03
107956,8.83E-03,8.27E-03
107957,9.56E-03,8.27E-03
107958,9.91E-03,8.26E-03
107959,1.04E-02,8.26E-03
107960,1.03E-02,8.25E-03
107961,1.04E-02,8.24E-03
107962,9.35E-03,8.24E-03
107963,9.24E-03,8.23E-03
107964,7.75E-03,8.22E-03
107965,6.88E-03,8.21E-03
107966,5.75E-03,8.21E-03
107967,5.00E-03,8.20E-03
107968,5.64E-03,8.20E-03
107969,5.71E-03,8.19E-03
107970,7.04E-03,8.19E-03
107971,1.06E-02,8.19E-03
107972,1.09E-02,8.18E-03
107973,1.09E-02,8.18E-03
107974,1.07E-02,8.17E-03
107975,8.03E-03,8.16E-03
107976,7.15E-03,8.15E-03
107977,6.86E-03,8.15E-03
107978,6.73E-03,8.14E-03
107979,6.53E-03,8.14E-03
107980,7.27E-03,8.14E-03
107981,9.72E-03,9.06E-03
107982,8.62E-03,9.17E-03
107983,7.87E-03,9.28E-03
107984,7.83E-03,9.37E-03
107985,7.69E-03,9.46E-03
107986,6.57E-03,9.56E-03
107987,6.98E-03,9.53E-03
107988,7.97E-03,1.03E-02
107989,8.59E-03,1.06E-02
107990,8.43E-03,1.05E-02
107991,8.07E-03,1.04E-02
107992,7.10E-03,1.79E-02
107993,7.21E-03,1.80E-02
107994,8.06E-03,1.84E-02
107995,7.52E-03,1.82E-02
107996,7.22E-03,1.81E-02
107997,7.13E-03,1.80E-02
107998,7.00E-03,8.84E-03
107999,5.45E-03,1.45E-02
108000,9.03E-03,1.49E-02
108001,7.11E-03,1.47E-02
108002,8.18E-03,1.70E-02
108003,8.79E-03,1.73E-02
108004,8.74E-03,1.72E-02
108005,8.52E-03,1.71E-02
108006,6.86E-03,8.37E-03
108007,6.91E-03,7.93E-03
108008,9.71E-03,7.90E-03
108009,9.12E-03,7.90E-03
108010,1.06E-02,7.88E-03
108011,1.03E-02,7.86E-03
108012,9.78E-03,7.84E-03
108013,9.73E-03,7.82E-03
108014,9.33E-03,7.80E-03
108015,9.26E-03,7.77E-03
108016,8.98E-03,7.75E-03
108017,8.73E-03,7.73E-03
108018,8.19E-03,7.70E-03
108019,7.68E-03,7.68E-03
108020,7.53E-03,7.66E-03
108021,7.50E-03,7.64E-03
108022,7.38E-03,7.61E-03
108023,7.16E-03,7.59E-03
108024,6.94E-03,7.58E-03
108025,6.87E-03,7.56E-03
108026,6.66E-03,7.54E-03
108027,6.39E-03,7.52E-03
108028,6.09E-03,7.50E-03
108029,5.52E-03,7.49E-03
108030,5.28E-03,7.48E-03
108031,5.12E-03,7.47E-03
108032,5.47E-03,7.46E-03
108033,5.61E-03,7.46E-03
108034,5.64E-03,7.46E-03
108035,5.42E-03,7.45E-03
108036,5.48E-03,7.45E-03
108037,5.98E-03,7.45E-03
108038,7.81E-03,8.52E-03
108039,8.66E-03,8.53E-03
108040,1.01E-02,8.51E-03
108041,7.78E-03,1.61E-02
108042,7.76E-03,1.72E-02
108043,7.78E-03,1.68E-02
108044,7.72E-03,1.65E-02
108045,5.93E-03,1.37E-02
108046,5.43E-03,1.37E-02
108047,5.36E-03,1.39E-02
108048,6.57E-03,2.56E-02
108049,6.72E-03,2.51E-02
108050,7.03E-03,2.47E-02
108051,7.50E-03,2.43E-02
108052,7.67E-03,2.38E-02
108053,7.69E-03,2.34E-02
108054,8.11E-03,1.49E-02
108055,8.12E-03,1.49E-02
108056,8.12E-03,1.50E-02
108057,8.12E-03,1.50E-02
108058,8.12E-03,1.51E-02
108059,8.12E-03,1.51E-02
108060,8.12E-03,1.51E-02
108061,8.13E-03,1.52E-02
108062,8.13E-03,1.52E-02
108063,8.13E-03,1.52E-02
108064,8.14E-03,1.53E-02
108065,8.14E-03,1.53E-02
108066,8.14E-03,1.54E-02
108067,8.15E-03,1.54E-02
108068,8.15E-03,1.54E-02
108069,8.15E-03,1.55E-02
108070,8.16E-03,1.55E-02
108071,8.16E-03,1.55E-02
108072,8.16E-03,1.56E-02
108073,8.17E-03,1.56E-02
108074,8.17E-03,1.56E-02
108075,8.18E-03,1.57E-02
108076,8.19E-03,1.57E-02
108077,8.19E-03,1.57E-02
108078,8.20E-03,1.58E-02
108079,8.21E-03,1.58E-02
108080,8.22E-03,1.59E-02
108081,8.23E-03,1.59E-02
108082,8.24E-03,1.59E-02
108083,8.26E-03,1.60E-02
108084,8.28E-03,1.60E-02
108085,8.31E-03,1.60E-02
108086,8.34E-03,1.61E-02
108087,8.37E-03,1.61E-02
108088,8.41E-03,1.62E-02
108089,8.46E-03,1.62E-02
108090,8.51E-03,1.62E-02
108091,8.59E-03,1.63E-02
108092,8.69E-03,1.63E-02
108093,8.82E-03,1.64E-02
108094,9.02E-03,1.64E-02
108095,9.33E-03,1.65E-02
108096,9.81E-03,1.65E-02
108097,9.67E-03,1.66E-02
108098,7.84E-03,1.66E-02
108099,6.65E-03,1.67E-02
108100,6.99E-03,1.67E-02
108101,7.22E-03,1.67E-02
108102,7.37E-03,1.68E-02
108103,7.49E-03,1.68E-02
108104,7.58E-03,1.69E-02
108105,7.64E-03,1.69E-02
108106,7.70E-03,1.70E-02
108107,7.74E-03,1.70E-02
108108,7.78E-03,1.70E-02
108109,7.81E-03,1.71E-02
108110,7.83E-03,1.71E-02
108111,7.85E-03,1.72E-02
108112,7.87E-03,1.72E-02
108113,7.89E-03,1.72E-02
108114,7.90E-03,1.73E-02
108115,7.91E-03,1.73E-02
108116,7.93E-03,1.73E-02
108117,7.94E-03,1.74E-02
108118,7.94E-03,1.74E-02
108119,7.95E-03,1.75E-02
108120,7.96E-03,1.75E-02
108121,7.97E-03,1.75E-02
108122,7.97E-03,1.76E-02
108123,7.98E-03,1.76E-02
108124,7.97E-03,1.76E-02
108125,7.96E-03,1.77E-02
108126,7.97E-03,1.77E-02
108127,7.99E-03,1.77E-02
108128,8.01E-03,1.77E-02
108129,8.02E-03,1.78E-02
108130,8.03E-03,1.78E-02
108131,8.04E-03,1.78E-02
108132,8.04E-03,1.79E-02
108133,8.05E-03,1.79E-02
108134,8.05E-03,1.79E-02
108135,8.09E-03,1.79E-02
108136,8.15E-03,1.80E-02
108137,8.18E-03,1.80E-02
108138,8.18E-03,1.80E-02
108139,8.19E-03,1.80E-02
108140,8.20E-03,1.80E-02
108141,8.20E-03,1.81E-02
108142,8.21E-03,1.81E-02
108143,8.22E-03,1.81E-02
108144,8.23E-03,1.81E-02
108145,8.24E-03,1.81E-02
108146,8.26E-03,1.82E-02
108147,8.27E-03,1.82E-02
108148,8.29E-03,1.82E-02
108149,8.31E-03,1.82E-02
108150,8.34E-03,1.82E-02
108151,8.37E-03,1.82E-02
108152,8.40E-03,1.83E-02
108153,8.44E-03,1.83E-02
108154,8.50E-03,1.83E-02
108155,8.66E-03,1.83E-02
108156,8.87E-03,1.84E-02
108157,8.92E-03,1.84E-02
108158,9.00E-03,1.84E-02
108159,8.92E-03,1.85E-02
108160,1.04E-02,1.85E-02
108161,9.14E-03,1.86E-02
108162,8.81E-03,1.30E-02
108163,1.08E-02,1.53E-02
108164,8.03E-03,1.17E-02
108165,1.02E-02,1.18E-02
108166,1.05E-02,1.19E-02
108167,1.04E-02,1.20E-02
108168,1.02E-02,1.21E-02
108169,1.00E-02,1.22E-02
108170,9.65E-03,1.23E-02
108171,9.33E-03,1.23E-02
108172,9.09E-03,1.24E-02
108173,8.91E-03,1.25E-02
108174,8.79E-03,1.26E-02
108175,8.69E-03,1.27E-02
108176,8.61E-03,1.28E-02
108177,8.49E-03,1.29E-02
108178,8.43E-03,1.30E-02
108179,8.50E-03,1.31E-02
108180,8.69E-03,1.32E-02
108181,8.81E-03,1.33E-02
108182,8.36E-03,1.34E-02
108183,7.89E-03,1.35E-02
108184,7.86E-03,1.36E-02
108185,7.86E-03,1.36E-02
108186,7.86E-03,1.37E-02
108187,7.84E-03,1.38E-02
108188,7.60E-03,1.39E-02
108189,7.52E-03,1.40E-02
108190,7.33E-03,1.41E-02
108191,7.21E-03,1.42E-02
108192,7.01E-03,1.43E-02
108193,6.77E-03,1.44E-02
108194,6.64E-03,1.44E-02
108195,6.55E-03,1.45E-02
108196,6.57E-03,1.46E-02
108197,8.69E-03,1.47E-02
108198,9.41E-03,1.48E-02
108199,9.74E-03,1.49E-02
108200,1.02E-02,1.50E-02
108201,1.10E-02,1.52E-02
108202,8.23E-03,8.03E-03
108203,5.71E-03,8.44E-03
108204,7.54E-03,6.54E-03
108205,7.90E-03,7.93E-03
108206,7.69E-03,7.92E-03
108207,7.62E-03,7.91E-03
108208,6.57E-03,7.89E-03
108209,5.76E-03,7.92E-03
108210,5.22E-03,7.89E-03
108211,5.95E-03,7.91E-03
108212,5.99E-03,7.92E-03
108213,6.94E-03,7.94E-03
108214,1.04E-02,7.94E-03
108215,9.92E-03,7.97E-03
108216,8.08E-03,6.29E-03
108217,9.11E-03,6.46E-03
108218,1.10E-02,1.15E-02
108219,9.38E-03,1.16E-02
108220,8.70E-03,1.17E-02
108221,8.51E-03,1.17E-02
108222,8.38E-03,1.18E-02
108223,8.24E-03,1.19E-02
108224,8.18E-03,1.20E-02
108225,8.09E-03,1.20E-02
108226,8.04E-03,1.21E-02
108227,8.06E-03,1.22E-02
108228,8.04E-03,1.23E-02
108229,8.12E-03,1.24E-02
108230,5.29E-03,2.47E-02
108231,5.96E-03,2.47E-02
108232,6.06E-03,2.47E-02
108233,6.65E-03,2.48E-02
108234,6.73E-03,2.49E-02
108235,7.03E-03,2.49E-02
108236,7.31E-03,2.49E-02
108237,7.41E-03,2.50E-02
108238,7.63E-03,2.50E-02
108239,7.69E-03,2.50E-02
108240,7.74E-03,2.51E-02
108241,7.77E-03,2.51E-02
108242,7.81E-03,2.51E-02
108243,7.83E-03,2.52E-02
108244,7.86E-03,2.52E-02
108245,7.87E-03,2.52E-02
108246,7.89E-03,2.53E-02
108247,7.91E-03,2.53E-02
108248,7.92E-03,2.53E-02
108249,7.93E-03,2.53E-02
108250,7.94E-03,2.54E-02
108251,7.95E-03,2.54E-02
108252,7.97E-03,2.54E-02
108253,7.98E-03,2.55E-02
108254,7.98E-03,2.55E-02
108255,7.99E-03,2.56E-02
108256,7.99E-03,2.56E-02
108257,7.99E-03,2.56E-02
108258,7.99E-03,2.57E-02
108259,8.00E-03,2.57E-02
108260,8.00E-03,2.58E-02
108261,8.00E-03,2.58E-02
108262,8.01E-03,2.59E-02
108263,8.01E-03,2.59E-02
108264,8.01E-03,2.60E-02
108265,8.01E-03,2.60E-02
108266,8.01E-03,2.61E-02
108267,8.02E-03,2.62E-02
108268,8.02E-03,2.62E-02
108269,8.02E-03,2.63E-02
108270,7.96E-03,2.63E-02
108271,7.94E-03,2.64E-02
108272,7.97E-03,2.65E-02
108273,8.03E-03,2.65E-02
108274,7.97E-03,2.66E-02
108275,7.92E-03,2.67E-02
108276,7.90E-03,2.68E-02
108277,7.79E-03,2.68E-02
108278,7.66E-03,2.69E-02
108279,7.71E-03,2.70E-02
108280,7.73E-03,2.71E-02
108281,7.78E-03,2.71E-02
108282,8.14E-03,2.72E-02
108283,9.18E-03,1.55E-02
108284,9.83E-03,1.57E-02
108285,1.00E-02,1.58E-02
108286,1.01E-02,1.59E-02
108287,9.97E-03,1.60E-02
108288,9.64E-03,1.62E-02
108289,9.34E-03,1.63E-02
108290,9.17E-03,1.64E-02
108291,8.99E-03,1.65E-02
108292,8.74E-03,1.67E-02
108293,8.52E-03,1.68E-02
108294,8.44E-03,1.69E-02
108295,8.20E-03,1.70E-02
108296,8.18E-03,1.71E-02
108297,7.90E-03,1.72E-02
108298,7.64E-03,1.73E-02
108299,6.91E-03,1.74E-02
108300,7.49E-03,1.08E-02
108301,7.24E-03,1.09E-02
108302,6.84E-03,1.11E-02
108303,7.25E-03,6.29E-03
108304,7.12E-03,6.33E-03
108305,7.80E-03,7.44E-03
108306,7.83E-03,7.43E-03
108307,1.03E-02,7.42E-03
108308,1.02E-02,7.41E-03
108309,1.04E-02,7.40E-03
108310,1.03E-02,7.39E-03
108311,9.16E-03,7.37E-03
108312,7.96E-03,7.35E-03
108313,7.09E-03,7.33E-03
108314,6.80E-03,7.32E-03
108315,6.62E-03,7.30E-03
108316,6.40E-03,7.29E-03
108317,6.12E-03,7.28E-03
108318,5.76E-03,7.27E-03
108319,5.27E-03,7.27E-03
108320,5.62E-03,7.26E-03
108321,6.23E-03,7.26E-03
108322,6.35E-03,7.26E-03
108323,6.41E-03,7.26E-03
108324,6.36E-03,7.26E-03
108325,6.31E-03,7.26E-03
108326,7.63E-03,7.27E-03
108327,9.82E-03,7.27E-03
108328,9.82E-03,7.28E-03
108329,9.82E-03,7.29E-03
108330,9.60E-03,7.29E-03
108331,9.31E-03,7.29E-03
108332,8.85E-03,7.29E-03
108333,8.54E-03,7.29E-03
108334,8.21E-03,7.29E-03
108335,8.03E-03,7.28E-03
108336,8.09E-03,7.28E-03
108337,8.10E-03,7.28E-03
108338,8.26E-03,7.28E-03
108339,9.46E-03,7.28E-03
108340,1.04E-02,7.27E-03
108341,1.01E-02,7.27E-03
108342,9.60E-03,7.26E-03
108343,9.31E-03,7.25E-03
108344,9.32E-03,7.23E-03
108345,9.59E-03,7.22E-03
108346,1.01E-02,7.20E-03
108347,1.07E-02,7.18E-03
108348,1.09E-02,7.15E-03
108349,1.03E-02,7.13E-03
108350,9.83E-03,7.09E-03
108351,9.49E-03,7.06E-03
108352,9.25E-03,7.02E-03
108353,9.13E-03,6.99E-03
108354,9.12E-03,6.95E-03
108355,8.96E-03,6.91E-03
108356,8.71E-03,6.87E-03
108357,8.55E-03,6.83E-03
108358,8.46E-03,6.79E-03
108359,8.39E-03,6.75E-03
108360,8.34E-03,6.71E-03
108361,8.30E-03,6.67E-03
108362,8.28E-03,6.63E-03
108363,8.16E-03,6.59E-03
108364,7.91E-03,6.55E-03
108365,7.74E-03,6.51E-03
108366,7.72E-03,6.47E-03
108367,7.69E-03,6.43E-03
108368,7.66E-03,6.39E-03
108369,7.63E-03,6.35E-03
108370,7.59E-03,6.32E-03
108371,7.54E-03,6.28E-03
108372,7.49E-03,6.25E-03
108373,7.43E-03,6.21E-03
108374,7.36E-03,6.18E-03
108375,7.27E-03,6.14E-03
108376,7.17E-03,6.11E-03
108377,7.03E-03,6.08E-03
108378,6.85E-03,6.05E-03
108379,6.80E-03,6.03E-03
108380,6.99E-03,6.00E-03
108381,7.17E-03,5.98E-03
108382,7.18E-03,5.95E-03
108383,7.08E-03,5.93E-03
108384,6.95E-03,5.91E-03
108385,6.76E-03,5.88E-03
108386,6.44E-03,5.86E-03
108387,6.37E-03,5.85E-03
108388,7.01E-03,5.83E-03
108389,7.13E-03,5.81E-03
108390,7.42E-03,5.80E-03
108391,7.65E-03,5.79E-03
108392,8.07E-03,5.80E-03
108393,8.41E-03,5.81E-03
108394,8.68E-03,5.80E-03
108395,8.65E-03,5.82E-03
108396,7.95E-03,5.78E-03
108397,7.53E-03,5.76E-03
108398,7.90E-03,5.73E-03
108399,6.89E-03,5.71E-03
108400,7.14E-03,6.03E-03
108401,6.01E-03,5.93E-03
108402,8.49E-03,1.76E-02
108403,4.66E-03,5.78E-03
108404,4.39E-03,5.65E-03
108405,6.06E-03,5.59E-03
108406,8.90E-03,7.27E-03
108407,9.72E-03,7.10E-03
108408,9.36E-03,7.17E-03
108409,8.72E-03,7.22E-03
108410,8.51E-03,7.27E-03
108411,8.62E-03,7.28E-03
108412,8.40E-03,1.77E-02
108413,7.12E-03,1.76E-02
108414,8.11E-03,1.48E-02
108415,8.12E-03,1.47E-02
108416,8.12E-03,1.47E-02
108417,8.12E-03,1.47E-02
108418,8.12E-03,1.46E-02
108419,8.12E-03,1.46E-02
108420,8.12E-03,1.45E-02
108421,8.12E-03,1.45E-02
108422,8.12E-03,1.45E-02
108423,8.12E-03,1.44E-02
108424,8.12E-03,1.44E-02
108425,8.13E-03,1.43E-02
108426,8.13E-03,1.43E-02
108427,8.13E-03,1.43E-02
108428,8.13E-03,1.42E-02
108429,8.13E-03,1.42E-02
108430,8.13E-03,1.41E-02
108431,8.13E-03,1.41E-02
108432,8.13E-03,1.40E-02
108433,8.13E-03,1.40E-02
108434,8.13E-03,1.39E-02
108435,8.13E-03,1.39E-02
108436,8.14E-03,1.39E-02
108437,8.14E-03,1.38E-02
108438,8.14E-03,1.38E-02
108439,8.14E-03,1.37E-02
108440,8.14E-03,1.37E-02
108441,8.15E-03,1.36E-02
108442,8.15E-03,1.36E-02
108443,8.16E-03,1.35E-02
108444,8.16E-03,1.35E-02
108445,8.16E-03,1.34E-02
108446,8.17E-03,1.34E-02
108447,8.17E-03,1.34E-02
108448,8.18E-03,1.33E-02
108449,8.18E-03,1.33E-02
108450,8.18E-03,1.32E-02
108451,8.19E-03,1.32E-02
108452,8.20E-03,1.31E-02
108453,8.20E-03,1.31E-02
108454,8.21E-03,1.30E-02
108455,8.22E-03,1.30E-02
108456,8.22E-03,1.29E-02
108457,8.23E-03,1.29E-02
108458,8.24E-03,1.28E-02
108459,8.25E-03,1.28E-02
108460,8.27E-03,1.27E-02
108461,8.28E-03,1.27E-02
108462,8.30E-03,1.26E-02
108463,8.32E-03,1.26E-02
108464,8.34E-03,1.25E-02
108465,8.36E-03,1.25E-02
108466,8.39E-03,1.24E-02
108467,8.43E-03,1.24E-02
108468,8.47E-03,1.23E-02
108469,8.52E-03,1.23E-02
108470,8.59E-03,1.22E-02
108471,8.67E-03,1.22E-02
108472,8.77E-03,1.21E-02
108473,8.91E-03,1.21E-02
108474,9.11E-03,1.20E-02
108475,9.41E-03,1.20E-02
108476,9.88E-03,1.19E-02
108477,1.07E-02,1.19E-02
108478,1.08E-02,1.18E-02
108479,9.54E-03,1.18E-02
108480,8.60E-03,1.17E-02
108481,8.63E-03,1.17E-02
108482,8.68E-03,1.16E-02
108483,8.75E-03,1.16E-02
108484,8.83E-03,1.15E-02
108485,8.93E-03,1.15E-02
108486,9.05E-03,1.14E-02
108487,9.20E-03,1.14E-02
108488,9.40E-03,1.13E-02
108489,9.66E-03,1.12E-02
108490,1.00E-02,1.12E-02
108491,9.69E-03,1.11E-02
108492,8.60E-03,1.11E-02
108493,5.97E-03,1.10E-02
108494,5.77E-03,1.10E-02
108495,5.63E-03,1.10E-02
108496,6.42E-03,1.09E-02
108497,6.82E-03,1.09E-02
108498,7.03E-03,1.08E-02
108499,7.18E-03,1.08E-02
108500,7.30E-03,1.08E-02
108501,7.40E-03,1.07E-02
108502,7.48E-03,1.07E-02
108503,7.54E-03,1.06E-02
108504,7.62E-03,1.06E-02
108505,7.71E-03,1.06E-02
108506,7.75E-03,1.05E-02
108507,7.75E-03,1.05E-02
108508,7.75E-03,1.05E-02
108509,8.18E-03,1.05E-02
108510,8.75E-03,1.04E-02
108511,8.78E-03,1.04E-02
108512,8.58E-03,1.04E-02
108513,8.48E-03,1.04E-02
108514,8.53E-03,1.04E-02
108515,8.66E-03,1.04E-02
108516,8.74E-03,1.04E-02
108517,8.83E-03,1.04E-02
108518,8.94E-03,1.04E-02
108519,9.08E-03,1.04E-02
108520,9.26E-03,1.04E-02
108521,9.58E-03,1.04E-02
108522,9.91E-03,1.04E-02
108523,9.86E-03,1.05E-02
108524,9.15E-03,1.05E-02
108525,8.20E-03,1.05E-02
108526,7.78E-03,1.06E-02
108527,7.77E-03,1.06E-02
108528,7.78E-03,1.07E-02
108529,7.79E-03,1.07E-02
108530,7.80E-03,1.08E-02
108531,7.81E-03,1.09E-02
108532,7.82E-03,1.10E-02
108533,7.82E-03,1.10E-02
108534,7.84E-03,1.11E-02
108535,7.78E-03,1.12E-02
108536,7.72E-03,1.13E-02
108537,7.67E-03,1.14E-02
108538,7.57E-03,1.15E-02
108539,7.47E-03,1.16E-02
108540,7.48E-03,1.17E-02
108541,7.55E-03,1.19E-02
108542,7.88E-03,1.20E-02
108543,8.28E-03,1.21E-02
108544,7.75E-03,5.78E-03
108545,7.69E-03,8.13E-03
108546,8.45E-03,8.37E-03
108547,7.77E-03,8.31E-03
108548,8.39E-03,1.25E-02
108549,8.18E-03,1.25E-02
108550,7.73E-03,1.25E-02
108551,8.82E-03,1.25E-02
108552,6.00E-03,1.33E-02
108553,6.02E-03,1.30E-02
108554,6.76E-03,1.31E-02
108555,9.21E-03,1.29E-02
108556,7.83E-03,1.30E-02
108557,7.64E-03,1.10E-02
108558,7.53E-03,1.10E-02
108559,7.19E-03,1.09E-02
108560,7.28E-03,1.08E-02
108561,7.30E-03,1.08E-02
108562,7.54E-03,1.07E-02
108563,7.62E-03,1.06E-02
108564,7.69E-03,1.06E-02
108565,7.74E-03,1.05E-02
108566,7.78E-03,1.04E-02
108567,7.81E-03,1.04E-02
108568,7.84E-03,1.03E-02
108569,7.86E-03,1.03E-02
108570,7.88E-03,1.02E-02
108571,7.91E-03,1.01E-02
108572,7.95E-03,1.01E-02
108573,7.98E-03,1.00E-02
108574,7.98E-03,9.94E-03
108575,7.97E-03,9.88E-03
108576,7.97E-03,9.82E-03
108577,7.96E-03,9.77E-03
108578,7.96E-03,9.71E-03
108579,7.95E-03,9.66E-03
108580,7.95E-03,9.61E-03
108581,7.94E-03,9.56E-03
108582,7.93E-03,9.51E-03
108583,7.93E-03,9.46E-03
108584,7.92E-03,9.41E-03
108585,7.91E-03,9.37E-03
108586,7.90E-03,9.32E-03
108587,7.89E-03,9.28E-03
108588,7.88E-03,9.23E-03
108589,7.87E-03,9.19E-03
108590,7.86E-03,9.15E-03
108591,7.85E-03,9.11E-03
108592,7.83E-03,9.07E-03
108593,7.79E-03,9.03E-03
108594,7.73E-03,8.99E-03
108595,7.67E-03,8.95E-03
108596,7.61E-03,8.91E-03
108597,7.63E-03,8.87E-03
108598,7.71E-03,8.83E-03
108599,7.93E-03,8.79E-03
108600,7.27E-03,8.77E-03
108601,7.15E-03,9.73E-03
108602,8.21E-03,9.72E-03
108603,7.29E-03,8.38E-03
108604,5.86E-03,7.96E-03
108605,7.53E-03,8.01E-03
108606,7.69E-03,8.64E-03
108607,7.72E-03,9.38E-03
108608,8.51E-03,9.80E-03
108609,6.31E-03,1.78E-02
108610,8.76E-03,1.85E-02
108611,7.05E-03,8.72E-03
108612,7.67E-03,8.73E-03
108613,6.88E-03,1.47E-02
108614,9.32E-03,1.47E-02
108615,9.02E-03,1.74E-02
108616,7.59E-03,1.30E-02
108617,8.29E-03,7.77E-03
108618,7.32E-03,7.25E-03
108619,6.26E-03,7.25E-03
108620,8.02E-03,8.42E-03
108621,7.64E-03,2.16E-02
108622,7.95E-03,2.12E-02
108623,8.07E-03,2.08E-02
108624,8.25E-03,2.04E-02
108625,8.46E-03,2.00E-02
108626,8.45E-03,1.96E-02
108627,8.44E-03,1.92E-02
108628,8.45E-03,1.87E-02
108629,8.42E-03,1.82E-02
108630,8.32E-03,1.78E-02
108631,8.16E-03,1.73E-02
108632,6.19E-03,1.32E-02
108633,8.57E-03,1.25E-02
108634,7.91E-03,1.15E-02
108635,7.28E-03,8.37E-03
108636,6.10E-03,8.30E-03
108637,6.87E-03,8.34E-03
108638,7.18E-03,6.22E-03
108639,7.71E-03,6.19E-03
108640,8.71E-03,1.11E-02
108641,7.96E-03,1.12E-02
108642,8.18E-03,7.78E-03
108643,7.89E-03,7.88E-03
108644,9.29E-03,7.84E-03
108645,7.69E-03,8.28E-03
108646,7.48E-03,7.90E-03
108647,6.47E-03,7.88E-03
108648,4.58E-03,7.88E-03
108649,7.70E-03,8.22E-03
108650,8.02E-03,7.62E-03
108651,7.84E-03,7.62E-03
108652,7.77E-03,1.10E-02
108653,4.42E-03,8.59E-03
108654,5.96E-03,8.58E-03
108655,7.31E-03,1.03E-02
108656,7.44E-03,1.04E-02
108657,8.24E-03,7.61E-03
108658,6.57E-03,8.27E-03
108659,8.14E-03,8.28E-03
108660,8.53E-03,1.54E-02
108661,7.66E-03,2.17E-02
108662,8.83E-03,1.27E-02
108663,8.11E-03,1.24E-02
108664,1.01E-02,6.69E-03
108665,8.18E-03,1.13E-02
108666,7.91E-03,1.14E-02
108667,7.39E-03,5.90E-03
108668,7.37E-03,1.88E-02
108669,6.87E-03,1.86E-02
108670,6.72E-03,1.88E-02
108671,9.37E-03,1.79E-02
108672,9.31E-03,1.78E-02
108673,9.41E-03,1.79E-02
108674,9.61E-03,1.80E-02
108675,1.04E-02,1.80E-02
108676,1.06E-02,1.81E-02
108677,9.74E-03,1.82E-02
108678,9.68E-03,1.82E-02
108679,9.57E-03,1.83E-02
108680,9.35E-03,1.84E-02
108681,9.30E-03,1.84E-02
108682,9.14E-03,1.85E-02
108683,9.02E-03,1.86E-02
108684,8.99E-03,1.86E-02
108685,8.92E-03,1.87E-02
108686,9.01E-03,1.88E-02
108687,9.81E-03,1.89E-02
108688,6.28E-03,5.76E-03
108689,8.43E-03,1.46E-02
108690,6.29E-03,1.44E-02
108691,8.95E-03,1.79E-02
108692,8.75E-03,1.78E-02
108693,4.59E-03,1.89E-02
108694,4.79E-03,1.89E-02
108695,5.27E-03,1.89E-02
108696,5.43E-03,1.90E-02
108697,4.87E-03,1.91E-02
108698,4.99E-03,1.91E-02
108699,5.08E-03,1.92E-02
108700,5.53E-03,1.92E-02
108701,5.68E-03,1.92E-02
108702,7.22E-03,1.93E-02
108703,8.30E-03,1.93E-02
108704,8.30E-03,1.94E-02
108705,8.66E-03,1.94E-02
108706,9.09E-03,1.95E-02
108707,9.12E-03,1.96E-02
108708,9.24E-03,1.96E-02
108709,9.57E-03,1.97E-02
108710,9.40E-03,1.98E-02
108711,9.26E-03,1.98E-02
108712,7.76E-03,1.99E-02
108713,7.26E-03,2.00E-02
108714,6.20E-03,1.39E-02
108715,6.25E-03,1.37E-02
108716,6.01E-03,1.37E-02
108717,6.61E-03,2.00E-02
108718,5.62E-03,2.00E-02
108719,4.97E-03,2.01E-02
108720,5.48E-03,2.01E-02
108721,5.54E-03,2.01E-02
108722,6.72E-03,2.02E-02
108723,6.93E-03,2.02E-02
108724,7.11E-03,2.02E-02
108725,7.23E-03,2.03E-02
108726,7.37E-03,2.03E-02
108727,7.53E-03,2.03E-02
108728,7.55E-03,2.03E-02
108729,7.70E-03,2.04E-02
108730,7.74E-03,2.04E-02
108731,7.77E-03,2.04E-02
108732,7.80E-03,2.04E-02
108733,7.83E-03,2.05E-02
108734,7.85E-03,2.05E-02
108735,7.82E-03,2.05E-02
108736,7.82E-03,2.05E-02
108737,7.90E-03,2.05E-02
108738,7.96E-03,2.06E-02
108739,7.99E-03,2.06E-02
108740,8.01E-03,2.06E-02
108741,8.03E-03,2.06E-02
108742,8.04E-03,2.06E-02
108743,8.09E-03,2.06E-02
108744,8.16E-03,2.07E-02
108745,8.18E-03,2.07E-02
108746,8.18E-03,2.07E-02
108747,8.18E-03,2.07E-02
108748,8.19E-03,2.07E-02
108749,8.19E-03,2.07E-02
108750,8.20E-03,2.07E-02
108751,8.21E-03,2.07E-02
108752,8.21E-03,2.08E-02
108753,8.22E-03,2.08E-02
108754,8.23E-03,2.08E-02
108755,8.24E-03,2.08E-02
108756,8.24E-03,2.08E-02
108757,8.25E-03,2.08E-02
108758,8.26E-03,2.08E-02
108759,8.27E-03,2.08E-02
108760,8.28E-03,2.08E-02
108761,8.30E-03,2.08E-02
108762,8.31E-03,2.08E-02
108763,8.33E-03,2.08E-02
108764,8.34E-03,2.08E-02
108765,8.36E-03,2.08E-02
108766,8.39E-03,2.08E-02
108767,8.41E-03,2.08E-02
108768,8.44E-03,2.08E-02
108769,8.48E-03,2.08E-02
108770,8.52E-03,2.08E-02
108771,8.56E-03,2.08E-02
108772,8.60E-03,2.08E-02
108773,8.62E-03,2.08E-02
108774,8.65E-03,2.08E-02
108775,8.67E-03,2.08E-02
108776,8.68E-03,2.08E-02
108777,8.81E-03,2.08E-02
108778,8.88E-03,2.08E-02
108779,8.95E-03,2.09E-02
108780,9.14E-03,2.09E-02
108781,9.40E-03,2.09E-02
108782,9.86E-03,2.09E-02
108783,1.01E-02,2.09E-02
108784,1.04E-02,2.10E-02
108785,1.05E-02,2.10E-02
108786,1.10E-02,2.11E-02
108787,1.12E-02,2.12E-02
108788,1.12E-02,2.13E-02
108789,1.10E-02,2.14E-02
108790,1.10E-02,2.15E-02
108791,1.10E-02,2.16E-02
108792,1.10E-02,2.17E-02
108793,9.45E-03,2.18E-02
108794,9.40E-03,2.19E-02
108795,8.99E-03,2.21E-02
108796,8.58E-03,2.22E-02
108797,7.96E-03,2.23E-02
108798,7.90E-03,2.24E-02
108799,5.66E-03,2.25E-02
108800,5.49E-03,2.25E-02
108801,5.51E-03,2.26E-02
108802,5.25E-03,2.26E-02
108803,5.28E-03,2.27E-02
108804,5.21E-03,2.27E-02
108805,5.06E-03,2.28E-02
108806,4.90E-03,2.28E-02
108807,4.66E-03,2.28E-02
108808,5.10E-03,2.29E-02
108809,5.40E-03,2.29E-02
108810,6.15E-03,2.29E-02
108811,6.60E-03,2.29E-02
108812,6.81E-03,2.29E-02
108813,7.12E-03,2.29E-02
108814,7.19E-03,2.29E-02
108815,7.19E-03,2.29E-02
108816,7.19E-03,2.29E-02
108817,7.19E-03,2.29E-02
108818,7.46E-03,2.29E-02
108819,7.93E-03,2.29E-02
108820,8.14E-03,2.29E-02
108821,8.14E-03,2.29E-02
108822,8.14E-03,2.29E-02
108823,8.16E-03,2.29E-02
108824,8.22E-03,2.28E-02
108825,8.30E-03,2.28E-02
108826,8.36E-03,2.28E-02
108827,8.38E-03,2.28E-02
108828,8.39E-03,2.28E-02
108829,8.41E-03,2.28E-02
108830,8.43E-03,2.27E-02
108831,8.45E-03,2.27E-02
108832,8.47E-03,2.27E-02
108833,8.50E-03,2.27E-02
108834,8.53E-03,2.27E-02
108835,8.57E-03,2.27E-02
108836,8.60E-03,2.27E-02
108837,8.65E-03,2.27E-02
108838,8.70E-03,2.27E-02
108839,8.76E-03,2.27E-02
108840,8.83E-03,2.27E-02
108841,8.90E-03,2.28E-02
108842,8.99E-03,2.28E-02
108843,9.06E-03,2.28E-02
108844,9.13E-03,2.29E-02
108845,9.25E-03,2.29E-02
108846,9.37E-03,2.30E-02
108847,9.52E-03,2.31E-02
108848,9.71E-03,2.31E-02
108849,9.94E-03,2.32E-02
108850,1.02E-02,2.33E-02
108851,1.05E-02,2.35E-02
108852,1.06E-02,2.36E-02
108853,1.04E-02,2.37E-02
108854,1.05E-02,2.39E-02
108855,1.06E-02,2.40E-02
108856,1.05E-02,2.42E-02
108857,1.04E-02,2.44E-02
108858,5.86E-03,2.45E-02
108859,5.42E-03,2.46E-02
108860,5.37E-03,2.47E-02
108861,4.89E-03,2.48E-02
108862,4.95E-03,2.48E-02
108863,5.15E-03,2.49E-02
108864,4.83E-03,2.50E-02
108865,8.83E-03,2.75E-02
108866,8.12E-03,2.77E-02
108867,6.07E-03,2.78E-02
108868,6.62E-03,2.79E-02
108869,8.14E-03,1.49E-02
108870,8.10E-03,1.49E-02
108871,8.14E-03,1.70E-02
108872,8.30E-03,1.69E-02
108873,8.82E-03,1.68E-02
108874,8.99E-03,1.67E-02
108875,9.14E-03,1.67E-02
108876,9.38E-03,1.66E-02
108877,9.49E-03,1.65E-02
108878,9.53E-03,1.64E-02
108879,9.33E-03,1.63E-02
108880,9.11E-03,1.62E-02
108881,8.92E-03,1.61E-02
108882,8.95E-03,1.61E-02
108883,9.00E-03,1.60E-02
108884,9.07E-03,1.59E-02
108885,9.14E-03,1.58E-02
108886,9.21E-03,1.57E-02
108887,9.24E-03,1.56E-02
108888,9.24E-03,1.55E-02
108889,9.24E-03,1.54E-02
108890,9.25E-03,1.53E-02
108891,9.27E-03,1.52E-02
108892,9.29E-03,1.51E-02
108893,9.31E-03,1.50E-02
108894,9.33E-03,1.49E-02
108895,9.35E-03,1.47E-02
108896,9.37E-03,1.46E-02
108897,9.39E-03,1.45E-02
108898,9.41E-03,1.44E-02
108899,9.43E-03,1.42E-02
108900,9.45E-03,1.41E-02
108901,9.47E-03,1.40E-02
108902,9.49E-03,1.38E-02
108903,9.44E-03,1.37E-02
108904,9.39E-03,1.36E-02
108905,9.32E-03,1.34E-02
108906,9.30E-03,1.33E-02
108907,9.20E-03,1.31E-02
108908,9.22E-03,1.29E-02
108909,9.07E-03,1.28E-02
108910,9.02E-03,1.26E-02
108911,8.88E-03,1.24E-02
108912,8.83E-03,1.23E-02
108913,7.67E-03,2.26E-02
108914,7.67E-03,2.21E-02
108915,7.63E-03,2.17E-02
108916,6.31E-03,7.75E-03
108917,7.52E-03,7.25E-03
108918,9.07E-03,1.12E-02
108919,8.08E-03,7.46E-03
108920,8.83E-03,7.33E-03
108921,5.92E-03,7.22E-03
108922,5.19E-03,8.53E-03
108923,8.45E-03,8.24E-03
108924,8.76E-03,8.22E-03
108925,8.47E-03,8.22E-03
108926,8.88E-03,1.88E-02
108927,7.38E-03,1.90E-02
108928,5.73E-03,1.89E-02
108929,4.28E-03,1.90E-02
108930,8.05E-03,8.47E-03
108931,9.69E-03,7.04E-03
108932,9.96E-03,7.07E-03
108933,9.81E-03,8.37E-03
108934,9.69E-03,8.35E-03
108935,9.68E-03,8.34E-03
108936,9.54E-03,8.32E-03
108937,8.95E-03,8.30E-03
108938,8.87E-03,8.29E-03
108939,7.92E-03,8.27E-03
108940,6.45E-03,8.26E-03
108941,6.33E-03,8.25E-03
108942,6.19E-03,8.24E-03
108943,6.13E-03,8.23E-03
108944,5.96E-03,8.22E-03
108945,5.74E-03,8.21E-03
108946,5.53E-03,8.20E-03
108947,5.26E-03,8.20E-03
108948,5.28E-03,8.20E-03
108949,5.35E-03,8.19E-03
108950,8.01E-03,8.19E-03
108951,7.89E-03,8.19E-03
108952,7.99E-03,8.18E-03
108953,8.04E-03,8.18E-03
108954,7.69E-03,8.17E-03
108955,7.21E-03,8.17E-03
108956,6.96E-03,8.16E-03
108957,6.75E-03,8.16E-03
108958,6.45E-03,8.16E-03
108959,6.05E-03,8.15E-03
108960,8.48E-03,8.15E-03
108961,9.49E-03,8.15E-03
108962,1.00E-02,8.14E-03
108963,1.05E-02,8.14E-03
108964,1.05E-02,8.13E-03
108965,1.03E-02,8.12E-03
108966,9.45E-03,8.11E-03
108967,9.02E-03,8.10E-03
108968,7.78E-03,8.09E-03
108969,6.92E-03,8.08E-03
108970,5.66E-03,8.07E-03
108971,5.11E-03,8.07E-03
108972,5.55E-03,8.07E-03
108973,5.60E-03,8.06E-03
108974,7.26E-03,8.06E-03
108975,1.08E-02,8.05E-03
108976,1.07E-02,8.05E-03
108977,1.09E-02,8.05E-03
108978,1.06E-02,8.04E-03
108979,7.92E-03,8.03E-03
108980,7.34E-03,8.02E-03
108981,6.83E-03,8.01E-03
108982,6.84E-03,8.01E-03
108983,6.78E-03,8.01E-03
108984,6.86E-03,8.02E-03
108985,9.70E-03,8.74E-03
108986,8.70E-03,8.84E-03
108987,7.73E-03,8.94E-03
108988,7.64E-03,9.03E-03
108989,7.49E-03,9.11E-03
108990,6.61E-03,9.26E-03
108991,7.05E-03,9.19E-03
108992,8.01E-03,9.93E-03
108993,8.04E-03,1.02E-02
108994,8.18E-03,1.01E-02
108995,7.96E-03,1.00E-02
108996,6.86E-03,1.79E-02
108997,6.96E-03,1.80E-02
108998,7.88E-03,1.84E-02
108999,7.47E-03,1.83E-02
109000,7.18E-03,1.82E-02
109001,7.08E-03,1.81E-02
109002,6.85E-03,8.72E-03
109003,6.70E-03,1.41E-02
109004,7.99E-03,1.45E-02
109005,7.03E-03,1.43E-02
109006,8.29E-03,1.71E-02
109007,8.26E-03,1.73E-02
109008,8.35E-03,1.72E-02
109009,8.32E-03,1.72E-02
109010,7.46E-03,8.26E-03
109011,5.85E-03,1.29E-02
109012,7.72E-03,7.76E-03
109013,9.30E-03,7.74E-03
109014,9.41E-03,7.74E-03
109015,1.02E-02,7.72E-03
109016,1.02E-02,7.70E-03
109017,9.72E-03,7.68E-03
109018,9.72E-03,7.65E-03
109019,9.34E-03,7.63E-03
109020,9.23E-03,7.61E-03
109021,8.94E-03,7.58E-03
109022,8.70E-03,7.56E-03
109023,8.19E-03,7.53E-03
109024,7.70E-03,7.51E-03
109025,7.55E-03,7.48E-03
109026,7.52E-03,7.46E-03
109027,7.45E-03,7.44E-03
109028,7.19E-03,7.42E-03
109029,7.02E-03,7.40E-03
109030,6.89E-03,7.38E-03
109031,6.73E-03,7.36E-03
109032,6.48E-03,7.34E-03
109033,5.97E-03,7.32E-03
109034,5.69E-03,7.31E-03
109035,5.33E-03,7.30E-03
109036,5.20E-03,7.29E-03
109037,5.54E-03,7.28E-03
109038,5.63E-03,7.27E-03
109039,5.58E-03,7.27E-03
109040,5.50E-03,7.26E-03
109041,5.47E-03,7.26E-03
109042,5.99E-03,7.26E-03
109043,7.84E-03,8.41E-03
109044,7.70E-03,8.42E-03
109045,6.79E-03,8.40E-03
109046,8.26E-03,1.57E-02
109047,7.99E-03,1.68E-02
109048,8.09E-03,1.64E-02
109049,8.06E-03,1.61E-02
109050,5.78E-03,1.32E-02
109051,5.52E-03,1.33E-02
109052,5.06E-03,1.34E-02
109053,5.28E-03,1.36E-02
109054,7.97E-03,2.54E-02
109055,7.52E-03,2.48E-02
109056,7.58E-03,2.44E-02
109057,7.69E-03,2.39E-02
109058,7.78E-03,2.35E-02
109059,7.73E-03,2.30E-02
109060,8.11E-03,1.50E-02
109061,8.12E-03,1.50E-02
109062,8.11E-03,1.51E-02
109063,8.11E-03,1.51E-02
109064,8.11E-03,1.51E-02
109065,8.11E-03,1.52E-02
109066,8.12E-03,1.52E-02
109067,8.13E-03,1.53E-02
109068,8.13E-03,1.53E-02
109069,8.13E-03,1.53E-02
109070,8.14E-03,1.54E-02
109071,8.14E-03,1.54E-02
109072,8.14E-03,1.54E-02
109073,8.14E-03,1.55E-02
109074,8.15E-03,1.55E-02
109075,8.15E-03,1.56E-02
109076,8.15E-03,1.56E-02
109077,8.16E-03,1.56E-02
109078,8.16E-03,1.57E-02
109079,8.17E-03,1.57E-02
109080,8.17E-03,1.57E-02
109081,8.18E-03,1.58E-02
109082,8.18E-03,1.58E-02
109083,8.19E-03,1.58E-02
109084,8.20E-03,1.59E-02
109085,8.20E-03,1.59E-02
109086,8.21E-03,1.60E-02
109087,8.23E-03,1.60E-02
109088,8.24E-03,1.60E-02
109089,8.25E-03,1.61E-02
109090,8.27E-03,1.61E-02
109091,8.30E-03,1.61E-02
109092,8.33E-03,1.62E-02
109093,8.36E-03,1.62E-02
109094,8.40E-03,1.63E-02
109095,8.44E-03,1.63E-02
109096,8.50E-03,1.64E-02
109097,8.57E-03,1.64E-02
109098,8.67E-03,1.64E-02
109099,8.80E-03,1.65E-02
109100,8.99E-03,1.65E-02
109101,9.28E-03,1.66E-02
109102,9.75E-03,1.66E-02
109103,9.61E-03,1.67E-02
109104,7.85E-03,1.67E-02
109105,6.70E-03,1.68E-02
109106,7.03E-03,1.68E-02
109107,7.25E-03,1.69E-02
109108,7.40E-03,1.69E-02
109109,7.51E-03,1.70E-02
109110,7.59E-03,1.70E-02
109111,7.66E-03,1.70E-02
109112,7.71E-03,1.71E-02
109113,7.75E-03,1.71E-02
109114,7.79E-03,1.72E-02
109115,7.82E-03,1.72E-02
109116,7.84E-03,1.73E-02
109117,7.86E-03,1.73E-02
109118,7.88E-03,1.73E-02
109119,7.89E-03,1.74E-02
109120,7.91E-03,1.74E-02
109121,7.92E-03,1.75E-02
109122,7.93E-03,1.75E-02
109123,7.94E-03,1.75E-02
109124,7.95E-03,1.76E-02
109125,7.96E-03,1.76E-02
109126,7.96E-03,1.76E-02
109127,7.97E-03,1.77E-02
109128,7.98E-03,1.77E-02
109129,7.98E-03,1.77E-02
109130,7.98E-03,1.78E-02
109131,7.97E-03,1.78E-02
109132,7.98E-03,1.78E-02
109133,8.00E-03,1.79E-02
109134,8.01E-03,1.79E-02
109135,8.02E-03,1.79E-02
109136,8.03E-03,1.80E-02
109137,8.04E-03,1.80E-02
109138,8.04E-03,1.80E-02
109139,8.05E-03,1.81E-02
109140,8.05E-03,1.81E-02
109141,8.09E-03,1.81E-02
109142,8.15E-03,1.81E-02
109143,8.17E-03,1.82E-02
109144,8.18E-03,1.82E-02
109145,8.19E-03,1.82E-02
109146,8.19E-03,1.82E-02
109147,8.20E-03,1.82E-02
109148,8.21E-03,1.83E-02
109149,8.22E-03,1.83E-02
109150,8.23E-03,1.83E-02
109151,8.24E-03,1.83E-02
109152,8.25E-03,1.83E-02
109153,8.27E-03,1.84E-02
109154,8.28E-03,1.84E-02
109155,8.30E-03,1.84E-02
109156,8.33E-03,1.84E-02
109157,8.36E-03,1.84E-02
109158,8.39E-03,1.84E-02
109159,8.43E-03,1.85E-02
109160,8.48E-03,1.85E-02
109161,8.65E-03,1.85E-02
109162,8.87E-03,1.85E-02
109163,8.95E-03,1.86E-02
109164,9.13E-03,1.86E-02
109165,9.42E-03,1.86E-02
109166,9.45E-03,1.87E-02
109167,9.46E-03,1.87E-02
109168,9.30E-03,1.88E-02
109169,8.79E-03,1.26E-02
109170,1.08E-02,1.53E-02
109171,7.95E-03,1.16E-02
109172,1.03E-02,1.17E-02
109173,1.06E-02,1.18E-02
109174,1.03E-02,1.19E-02
109175,1.01E-02,1.20E-02
109176,9.88E-03,1.21E-02
109177,9.60E-03,1.22E-02
109178,9.29E-03,1.23E-02
109179,9.05E-03,1.24E-02
109180,8.89E-03,1.25E-02
109181,8.76E-03,1.26E-02
109182,8.67E-03,1.26E-02
109183,8.59E-03,1.27E-02
109184,8.48E-03,1.28E-02
109185,8.41E-03,1.29E-02
109186,8.49E-03,1.30E-02
109187,8.67E-03,1.31E-02
109188,8.78E-03,1.32E-02
109189,8.35E-03,1.33E-02
109190,7.89E-03,1.34E-02
109191,7.87E-03,1.35E-02
109192,7.87E-03,1.36E-02
109193,7.86E-03,1.37E-02
109194,7.84E-03,1.38E-02
109195,7.65E-03,1.39E-02
109196,7.64E-03,1.40E-02
109197,7.21E-03,1.41E-02
109198,7.18E-03,1.42E-02
109199,7.03E-03,1.43E-02
109200,6.88E-03,1.44E-02
109201,6.71E-03,1.44E-02
109202,6.66E-03,1.45E-02
109203,6.72E-03,1.46E-02
109204,9.07E-03,1.47E-02
109205,9.37E-03,1.48E-02
109206,9.90E-03,1.49E-02
109207,1.05E-02,1.51E-02
109208,1.07E-02,1.52E-02
109209,8.15E-03,7.90E-03
109210,6.70E-03,8.33E-03
109211,7.39E-03,9.35E-03
109212,7.41E-03,9.42E-03
109213,7.71E-03,6.19E-03
109214,9.18E-03,1.12E-02
109215,7.81E-03,7.77E-03
109216,7.71E-03,7.77E-03
109217,7.40E-03,7.76E-03
109218,6.85E-03,7.76E-03
109219,6.64E-03,7.76E-03
109220,5.75E-03,7.76E-03
109221,5.89E-03,7.75E-03
109222,6.06E-03,7.77E-03
109223,6.82E-03,7.79E-03
109224,1.02E-02,7.81E-03
109225,1.07E-02,7.81E-03
109226,8.31E-03,1.69E-02
109227,7.66E-03,8.27E-03
109228,4.87E-03,7.88E-03
109229,6.90E-03,7.87E-03
109230,7.64E-03,8.31E-03
109231,6.74E-03,9.08E-03
109232,7.86E-03,7.45E-03
109233,7.30E-03,7.44E-03
109234,6.17E-03,1.79E-02
109235,7.18E-03,1.85E-02
109236,7.59E-03,1.10E-02
109237,7.51E-03,1.09E-02
109238,7.26E-03,1.08E-02
109239,7.37E-03,1.08E-02
109240,7.41E-03,1.07E-02
109241,7.52E-03,1.06E-02
109242,7.64E-03,1.05E-02
109243,7.70E-03,1.05E-02
109244,7.75E-03,1.04E-02
109245,7.79E-03,1.03E-02
109246,7.82E-03,1.03E-02
109247,7.85E-03,1.02E-02
109248,7.87E-03,1.01E-02
109249,7.89E-03,1.01E-02
109250,7.91E-03,1.00E-02
109251,7.96E-03,9.95E-03
109252,7.98E-03,9.89E-03
109253,7.98E-03,9.83E-03
109254,7.98E-03,9.77E-03
109255,7.97E-03,9.71E-03
109256,7.97E-03,9.66E-03
109257,7.96E-03,9.60E-03
109258,7.96E-03,9.55E-03
109259,7.95E-03,9.49E-03
109260,7.95E-03,9.44E-03
109261,7.94E-03,9.39E-03
109262,7.93E-03,9.35E-03
109263,7.92E-03,9.30E-03
109264,7.92E-03,9.25E-03
109265,7.91E-03,9.21E-03
109266,7.90E-03,9.16E-03
109267,7.89E-03,9.12E-03
109268,7.88E-03,9.08E-03
109269,7.87E-03,9.03E-03
109270,7.86E-03,8.99E-03
109271,7.84E-03,8.95E-03
109272,7.80E-03,8.91E-03
109273,7.75E-03,8.87E-03
109274,7.68E-03,8.84E-03
109275,7.70E-03,8.80E-03
109276,7.74E-03,8.76E-03
109277,7.89E-03,8.71E-03
109278,8.17E-03,8.67E-03
109279,8.06E-03,8.64E-03
109280,9.12E-03,8.62E-03
109281,6.83E-03,8.59E-03
109282,7.89E-03,9.96E-03
109283,7.65E-03,1.01E-02
109284,7.49E-03,1.70E-02
109285,7.96E-03,1.70E-02
109286,7.88E-03,1.24E-02
109287,7.31E-03,1.25E-02
109288,7.00E-03,1.25E-02
109289,8.36E-03,7.60E-03
109290,8.34E-03,8.29E-03
109291,7.71E-03,2.12E-02
109292,8.01E-03,2.08E-02
109293,8.10E-03,2.04E-02
109294,8.27E-03,2.00E-02
109295,8.46E-03,1.96E-02
109296,8.39E-03,1.92E-02
109297,8.27E-03,1.88E-02
109298,8.17E-03,1.83E-02
109299,8.02E-03,1.79E-02
109300,8.10E-03,1.74E-02
109301,8.04E-03,1.69E-02
109302,6.51E-03,1.35E-02
109303,6.32E-03,1.33E-02
109304,5.98E-03,1.32E-02
109305,8.38E-03,2.69E-02
109306,8.51E-03,1.23E-02
109307,9.18E-03,6.08E-03
109308,9.33E-03,6.24E-03
109309,1.01E-02,6.36E-03
109310,7.72E-03,1.15E-02
109311,6.41E-03,7.72E-03
109312,7.21E-03,7.75E-03
109313,8.59E-03,8.19E-03
109314,8.30E-03,8.22E-03
109315,7.85E-03,9.48E-03
109316,5.43E-03,9.31E-03
109317,7.73E-03,5.89E-03
109318,7.12E-03,1.89E-02
109319,9.09E-03,1.80E-02
109320,8.72E-03,1.89E-02
109321,9.19E-03,1.79E-02
109322,9.38E-03,1.80E-02
109323,9.35E-03,1.81E-02
109324,1.07E-02,1.81E-02
109325,1.02E-02,1.82E-02
109326,9.80E-03,1.83E-02
109327,9.68E-03,1.83E-02
109328,9.52E-03,1.84E-02
109329,9.34E-03,1.85E-02
109330,9.27E-03,1.85E-02
109331,9.19E-03,1.86E-02
109332,9.09E-03,1.87E-02
109333,9.00E-03,1.87E-02
109334,9.03E-03,1.88E-02
109335,9.23E-03,1.89E-02
109336,9.92E-03,1.90E-02
109337,6.50E-03,1.90E-02
109338,6.72E-03,1.90E-02
109339,5.40E-03,1.91E-02
109340,7.58E-03,5.57E-03
109341,5.90E-03,5.61E-03
109342,6.22E-03,5.33E-03
109343,5.83E-03,5.45E-03
109344,6.05E-03,1.27E-02
109345,6.42E-03,1.27E-02
109346,5.91E-03,1.26E-02
109347,5.27E-03,1.25E-02
109348,5.99E-03,1.25E-02
109349,8.98E-03,1.09E-02
109350,9.44E-03,1.10E-02
109351,9.63E-03,1.11E-02
109352,9.55E-03,1.12E-02
109353,8.83E-03,1.13E-02
109354,8.58E-03,1.14E-02
109355,8.34E-03,1.14E-02
109356,8.25E-03,1.15E-02
109357,8.12E-03,1.16E-02
109358,8.14E-03,1.16E-02
109359,7.97E-03,1.17E-02
109360,7.96E-03,1.18E-02
109361,7.91E-03,1.19E-02
109362,7.89E-03,1.20E-02
109363,7.83E-03,1.20E-02
109364,7.70E-03,1.21E-02
109365,7.50E-03,1.21E-02
109366,9.19E-03,1.21E-02
109367,9.89E-03,1.20E-02
109368,8.43E-03,1.20E-02
109369,1.10E-02,5.92E-03
109370,6.11E-03,1.41E-02
109371,7.74E-03,1.40E-02
109372,8.51E-03,1.79E-02
109373,8.29E-03,1.78E-02
109374,7.66E-03,7.76E-03
109375,4.81E-03,7.76E-03
109376,4.59E-03,7.76E-03
109377,5.23E-03,2.51E-02
109378,5.65E-03,2.51E-02
109379,5.82E-03,2.51E-02
109380,6.89E-03,2.52E-02
109381,6.85E-03,2.52E-02
109382,7.16E-03,2.53E-02
109383,7.30E-03,2.53E-02
109384,7.45E-03,2.54E-02
109385,7.64E-03,2.54E-02
109386,7.70E-03,2.54E-02
109387,7.75E-03,2.55E-02
109388,7.78E-03,2.55E-02
109389,7.82E-03,2.55E-02
109390,7.84E-03,2.56E-02
109391,7.86E-03,2.56E-02
109392,7.88E-03,2.56E-02
109393,7.90E-03,2.57E-02
109394,7.91E-03,2.57E-02
109395,7.92E-03,2.57E-02
109396,7.94E-03,2.58E-02
109397,7.95E-03,2.58E-02
109398,7.96E-03,2.58E-02
109399,7.97E-03,2.59E-02
109400,7.98E-03,2.59E-02
109401,7.99E-03,2.59E-02
109402,7.99E-03,2.60E-02
109403,7.99E-03,2.60E-02
109404,7.99E-03,2.61E-02
109405,8.00E-03,2.61E-02
109406,8.00E-03,2.62E-02
109407,8.00E-03,2.62E-02
109408,8.01E-03,2.63E-02
109409,8.01E-03,2.63E-02
109410,8.01E-03,2.64E-02
109411,8.01E-03,2.65E-02
109412,8.01E-03,2.65E-02
109413,8.02E-03,2.66E-02
109414,8.02E-03,2.66E-02
109415,8.02E-03,2.67E-02
109416,8.02E-03,2.68E-02
109417,8.02E-03,2.69E-02
109418,8.02E-03,2.69E-02
109419,8.03E-03,2.70E-02
109420,8.03E-03,2.71E-02
109421,8.03E-03,2.72E-02
109422,7.95E-03,2.72E-02
109423,7.91E-03,2.73E-02
109424,7.90E-03,2.74E-02
109425,7.83E-03,2.75E-02
109426,7.75E-03,2.76E-02
109427,7.84E-03,2.76E-02
109428,8.05E-03,2.77E-02
109429,8.25E-03,2.78E-02
109430,8.40E-03,2.80E-02
109431,8.50E-03,2.81E-02
109432,8.09E-03,2.82E-02
109433,7.70E-03,2.84E-02
109434,7.49E-03,2.84E-02
109435,7.20E-03,2.86E-02
109436,8.00E-03,2.81E-02
109437,6.67E-03,2.89E-02
109438,6.94E-03,5.54E-03
109439,8.14E-03,1.50E-02
109440,8.10E-03,1.50E-02
109441,8.11E-03,1.49E-02
109442,8.12E-03,1.48E-02
109443,8.12E-03,1.48E-02
109444,8.12E-03,1.47E-02
109445,8.12E-03,1.47E-02
109446,8.12E-03,1.46E-02
109447,8.12E-03,1.46E-02
109448,8.12E-03,1.46E-02
109449,8.12E-03,1.45E-02
109450,8.12E-03,1.45E-02
109451,8.12E-03,1.44E-02
109452,8.12E-03,1.44E-02
109453,8.12E-03,1.43E-02
109454,8.13E-03,1.43E-02
109455,8.13E-03,1.43E-02
109456,8.13E-03,1.42E-02
109457,8.13E-03,1.42E-02
109458,8.13E-03,1.41E-02
109459,8.13E-03,1.41E-02
109460,8.13E-03,1.40E-02
109461,8.13E-03,1.40E-02
109462,8.13E-03,1.39E-02
109463,8.13E-03,1.39E-02
109464,8.14E-03,1.38E-02
109465,8.14E-03,1.38E-02
109466,8.14E-03,1.38E-02
109467,8.14E-03,1.37E-02
109468,8.15E-03,1.37E-02
109469,8.15E-03,1.36E-02
109470,8.15E-03,1.36E-02
109471,8.16E-03,1.35E-02
109472,8.16E-03,1.35E-02
109473,8.17E-03,1.34E-02
109474,8.17E-03,1.34E-02
109475,8.17E-03,1.33E-02
109476,8.18E-03,1.33E-02
109477,8.18E-03,1.32E-02
109478,8.19E-03,1.32E-02
109479,8.19E-03,1.31E-02
109480,8.20E-03,1.31E-02
109481,8.20E-03,1.30E-02
109482,8.21E-03,1.30E-02
109483,8.22E-03,1.29E-02
109484,8.23E-03,1.29E-02
109485,8.24E-03,1.28E-02
109486,8.25E-03,1.28E-02
109487,8.26E-03,1.27E-02
109488,8.27E-03,1.26E-02
109489,8.29E-03,1.26E-02
109490,8.31E-03,1.25E-02
109491,8.33E-03,1.25E-02
109492,8.35E-03,1.24E-02
109493,8.38E-03,1.24E-02
109494,8.42E-03,1.23E-02
109495,8.46E-03,1.23E-02
109496,8.51E-03,1.22E-02
109497,8.57E-03,1.22E-02
109498,8.64E-03,1.21E-02
109499,8.75E-03,1.21E-02
109500,8.88E-03,1.20E-02
109501,9.07E-03,1.20E-02
109502,9.36E-03,1.19E-02
109503,9.81E-03,1.19E-02
109504,1.06E-02,1.18E-02
109505,1.07E-02,1.17E-02
109506,9.49E-03,1.17E-02
109507,8.58E-03,1.16E-02
109508,8.61E-03,1.16E-02
109509,8.66E-03,1.15E-02
109510,8.73E-03,1.15E-02
109511,8.80E-03,1.14E-02
109512,8.90E-03,1.14E-02
109513,9.01E-03,1.13E-02
109514,9.16E-03,1.13E-02
109515,9.35E-03,1.12E-02
109516,9.61E-03,1.11E-02
109517,9.94E-03,1.11E-02
109518,9.63E-03,1.10E-02
109519,8.58E-03,1.10E-02
109520,6.29E-03,1.09E-02
109521,5.46E-03,1.09E-02
109522,5.78E-03,1.08E-02
109523,6.61E-03,1.08E-02
109524,6.87E-03,1.07E-02
109525,7.07E-03,1.07E-02
109526,7.21E-03,1.06E-02
109527,7.33E-03,1.06E-02
109528,7.42E-03,1.06E-02
109529,7.50E-03,1.05E-02
109530,7.56E-03,1.05E-02
109531,7.64E-03,1.04E-02
109532,7.73E-03,1.04E-02
109533,7.76E-03,1.04E-02
109534,7.76E-03,1.03E-02
109535,7.77E-03,1.03E-02
109536,8.18E-03,1.03E-02
109537,8.73E-03,1.02E-02
109538,8.75E-03,1.02E-02
109539,8.56E-03,1.02E-02
109540,8.46E-03,1.02E-02
109541,8.51E-03,1.02E-02
109542,8.64E-03,1.01E-02
109543,8.72E-03,1.01E-02
109544,8.80E-03,1.01E-02
109545,8.91E-03,1.01E-02
109546,9.04E-03,1.01E-02
109547,9.21E-03,1.02E-02
109548,9.53E-03,1.02E-02
109549,9.84E-03,1.02E-02
109550,9.79E-03,1.02E-02
109551,9.12E-03,1.03E-02
109552,8.19E-03,1.03E-02
109553,7.79E-03,1.03E-02
109554,7.78E-03,1.04E-02
109555,7.79E-03,1.04E-02
109556,7.80E-03,1.05E-02
109557,7.81E-03,1.06E-02
109558,7.82E-03,1.06E-02
109559,7.83E-03,1.07E-02
109560,7.83E-03,1.08E-02
109561,7.85E-03,1.09E-02
109562,7.80E-03,1.10E-02
109563,7.73E-03,1.11E-02
109564,7.70E-03,1.12E-02
109565,7.65E-03,1.13E-02
109566,7.60E-03,1.14E-02
109567,7.70E-03,1.15E-02
109568,7.79E-03,1.17E-02
109569,8.03E-03,1.18E-02
109570,8.31E-03,1.19E-02
109571,8.61E-03,1.21E-02
109572,8.83E-03,1.68E-02
109573,9.13E-03,1.67E-02
109574,9.30E-03,1.66E-02
109575,9.40E-03,1.65E-02
109576,9.49E-03,1.64E-02
109577,9.36E-03,1.64E-02
109578,9.01E-03,1.63E-02
109579,8.89E-03,1.62E-02
109580,8.92E-03,1.61E-02
109581,8.96E-03,1.60E-02
109582,9.03E-03,1.59E-02
109583,9.10E-03,1.58E-02
109584,9.17E-03,1.57E-02
109585,9.19E-03,1.56E-02
109586,9.20E-03,1.55E-02
109587,9.20E-03,1.54E-02
109588,9.21E-03,1.53E-02
109589,9.22E-03,1.52E-02
109590,9.24E-03,1.51E-02
109591,9.27E-03,1.50E-02
109592,9.29E-03,1.49E-02
109593,9.30E-03,1.48E-02
109594,9.32E-03,1.47E-02
109595,9.34E-03,1.46E-02
109596,9.36E-03,1.44E-02
109597,9.38E-03,1.43E-02
109598,9.40E-03,1.42E-02
109599,9.42E-03,1.41E-02
109600,9.44E-03,1.39E-02
109601,9.46E-03,1.38E-02
109602,9.40E-03,1.36E-02
109603,9.31E-03,1.35E-02
109604,9.28E-03,1.34E-02
109605,9.27E-03,1.32E-02
109606,9.18E-03,1.30E-02
109607,9.12E-03,1.29E-02
109608,9.02E-03,1.27E-02
109609,9.01E-03,1.26E-02
109610,9.09E-03,1.24E-02
109611,9.14E-03,1.22E-02
109612,7.69E-03,2.21E-02
109613,7.73E-03,2.17E-02
109614,7.66E-03,2.13E-02
109615,8.76E-03,8.26E-03
109616,9.55E-03,8.25E-03
109617,7.56E-03,1.10E-02
109618,7.42E-03,1.09E-02
109619,8.63E-03,7.41E-03
109620,7.64E-03,7.46E-03
109621,1.04E-02,1.56E-02
109622,1.03E-02,1.58E-02
109623,1.01E-02,1.59E-02
109624,9.98E-03,1.61E-02
109625,9.60E-03,1.62E-02
109626,9.23E-03,1.63E-02
109627,9.12E-03,1.64E-02
109628,8.96E-03,1.66E-02
109629,8.74E-03,1.67E-02
109630,8.50E-03,1.68E-02
109631,8.48E-03,1.69E-02
109632,8.14E-03,1.71E-02
109633,8.15E-03,1.72E-02
109634,7.83E-03,1.73E-02
109635,7.43E-03,1.74E-02
109636,7.03E-03,1.75E-02
109637,7.65E-03,7.24E-03
109638,7.77E-03,7.24E-03
109639,1.02E-02,7.23E-03
109640,1.03E-02,7.22E-03
109641,1.03E-02,7.20E-03
109642,1.02E-02,7.19E-03
109643,9.12E-03,7.17E-03
109644,7.96E-03,7.15E-03
109645,7.12E-03,7.13E-03
109646,6.84E-03,7.11E-03
109647,6.68E-03,7.10E-03
109648,6.46E-03,7.08E-03
109649,6.20E-03,7.07E-03
109650,5.84E-03,7.06E-03
109651,5.38E-03,7.06E-03
109652,5.72E-03,7.05E-03
109653,6.21E-03,7.04E-03
109654,6.43E-03,7.04E-03
109655,6.52E-03,7.04E-03
109656,6.42E-03,7.04E-03
109657,6.37E-03,7.05E-03
109658,7.65E-03,7.05E-03
109659,9.69E-03,7.06E-03
109660,9.81E-03,7.06E-03
109661,9.75E-03,7.06E-03
109662,9.55E-03,7.07E-03
109663,9.32E-03,7.07E-03
109664,8.76E-03,7.06E-03
109665,8.54E-03,7.06E-03
109666,8.20E-03,7.06E-03
109667,8.03E-03,7.06E-03
109668,8.09E-03,7.05E-03
109669,8.10E-03,7.05E-03
109670,8.26E-03,7.05E-03
109671,9.41E-03,7.04E-03
109672,1.03E-02,7.04E-03
109673,9.99E-03,7.03E-03
109674,9.55E-03,7.02E-03
109675,9.26E-03,7.01E-03
109676,9.27E-03,6.99E-03
109677,9.54E-03,6.98E-03
109678,9.99E-03,6.96E-03
109679,1.06E-02,6.94E-03
109680,1.08E-02,6.91E-03
109681,1.03E-02,6.88E-03
109682,9.77E-03,6.85E-03
109683,9.44E-03,6.82E-03
109684,9.21E-03,6.78E-03
109685,9.10E-03,6.74E-03
109686,9.08E-03,6.71E-03
109687,8.93E-03,6.67E-03
109688,8.69E-03,6.63E-03
109689,8.54E-03,6.59E-03
109690,8.44E-03,6.55E-03
109691,8.38E-03,6.50E-03
109692,8.33E-03,6.46E-03
109693,8.30E-03,6.42E-03
109694,8.27E-03,6.38E-03
109695,8.16E-03,6.34E-03
109696,7.92E-03,6.30E-03
109697,7.76E-03,6.26E-03
109698,7.73E-03,6.22E-03
109699,7.71E-03,6.18E-03
109700,7.68E-03,6.14E-03
109701,7.64E-03,6.10E-03
109702,7.61E-03,6.06E-03
109703,7.56E-03,6.02E-03
109704,7.51E-03,5.99E-03
109705,7.45E-03,5.95E-03
109706,7.38E-03,5.92E-03
109707,7.30E-03,5.88E-03
109708,7.20E-03,5.85E-03
109709,7.07E-03,5.82E-03
109710,6.89E-03,5.79E-03
109711,6.85E-03,5.76E-03
109712,7.03E-03,5.73E-03
109713,7.21E-03,5.71E-03
109714,7.21E-03,5.68E-03
109715,7.11E-03,5.66E-03
109716,7.00E-03,5.64E-03
109717,6.81E-03,5.61E-03
109718,6.50E-03,5.59E-03
109719,6.43E-03,5.58E-03
109720,6.97E-03,5.56E-03
109721,7.21E-03,5.55E-03
109722,7.56E-03,5.54E-03
109723,7.80E-03,5.53E-03
109724,8.04E-03,5.53E-03
109725,8.36E-03,5.52E-03
109726,8.53E-03,5.50E-03
109727,8.38E-03,5.50E-03
109728,7.78E-03,5.49E-03
109729,7.63E-03,5.47E-03
109730,7.05E-03,5.44E-03
109731,6.74E-03,5.43E-03
109732,6.11E-03,7.05E-03
109733,7.17E-03,7.05E-03
109734,7.59E-03,7.05E-03
109735,7.80E-03,1.12E-02
109736,7.36E-03,1.13E-02
109737,9.60E-03,6.76E-03
109738,9.54E-03,6.84E-03
109739,8.12E-03,6.90E-03
109740,7.79E-03,6.95E-03
109741,6.98E-03,6.93E-03
109742,5.18E-03,6.99E-03
109743,5.07E-03,7.05E-03
109744,7.60E-03,7.07E-03
109745,6.26E-03,1.11E-02
109746,7.48E-03,1.05E-02
109747,7.46E-03,1.06E-02
109748,7.24E-03,1.08E-02
109749,7.50E-03,7.81E-03
109750,8.29E-03,8.20E-03
109751,8.06E-03,8.17E-03
109752,7.61E-03,7.89E-03
109753,5.10E-03,8.96E-03
109754,3.49E-03,8.94E-03
109755,8.40E-03,7.62E-03
109756,6.63E-03,1.87E-02
109757,6.78E-03,1.88E-02
109758,5.81E-03,8.49E-03
109759,6.08E-03,8.47E-03
109760,8.05E-03,1.42E-02
109761,7.59E-03,1.40E-02
109762,7.24E-03,1.37E-02
109763,7.15E-03,1.70E-02
109764,6.83E-03,1.75E-02
109765,6.34E-03,1.75E-02
109766,7.96E-03,7.43E-03
109767,8.56E-03,8.17E-03
109768,8.14E-03,8.15E-03
109769,7.68E-03,2.12E-02
109770,6.46E-03,1.91E-02
109771,5.64E-03,1.92E-02
109772,5.09E-03,1.91E-02
109773,5.45E-03,1.92E-02
109774,5.40E-03,1.92E-02
109775,5.49E-03,1.92E-02
109776,5.44E-03,1.93E-02
109777,5.53E-03,1.93E-02
109778,5.60E-03,1.94E-02
109779,5.69E-03,1.94E-02
109780,7.00E-03,1.95E-02
109781,8.33E-03,1.95E-02
109782,8.33E-03,1.96E-02
109783,8.68E-03,1.96E-02
109784,9.06E-03,1.97E-02
109785,9.07E-03,1.98E-02
109786,9.27E-03,1.98E-02
109787,9.49E-03,1.99E-02
109788,9.43E-03,2.00E-02
109789,9.30E-03,2.00E-02
109790,7.99E-03,2.01E-02
109791,6.80E-03,2.02E-02
109792,6.54E-03,2.02E-02
109793,6.31E-03,2.02E-02
109794,5.12E-03,2.03E-02
109795,5.46E-03,2.04E-02
109796,5.64E-03,2.04E-02
109797,6.50E-03,2.04E-02
109798,6.89E-03,2.04E-02
109799,7.08E-03,2.04E-02
109800,7.31E-03,2.05E-02
109801,7.47E-03,2.05E-02
109802,7.54E-03,2.05E-02
109803,7.61E-03,2.06E-02
109804,7.71E-03,2.06E-02
109805,7.75E-03,2.06E-02
109806,7.79E-03,2.06E-02
109807,7.81E-03,2.07E-02
109808,7.84E-03,2.07E-02
109809,7.86E-03,2.07E-02
109810,7.83E-03,2.07E-02
109811,7.83E-03,2.08E-02
109812,7.90E-03,2.08E-02
109813,7.96E-03,2.08E-02
109814,8.00E-03,2.08E-02
109815,8.02E-03,2.08E-02
109816,8.03E-03,2.08E-02
109817,8.04E-03,2.09E-02
109818,8.09E-03,2.09E-02
109819,8.15E-03,2.09E-02
109820,8.17E-03,2.09E-02
109821,8.18E-03,2.09E-02
109822,8.18E-03,2.09E-02
109823,8.18E-03,2.10E-02
109824,8.19E-03,2.10E-02
109825,8.19E-03,2.10E-02
109826,8.20E-03,2.10E-02
109827,8.21E-03,2.10E-02
109828,8.22E-03,2.10E-02
109829,8.22E-03,2.10E-02
109830,8.23E-03,2.11E-02
109831,8.24E-03,2.11E-02
109832,8.25E-03,2.11E-02
109833,8.25E-03,2.11E-02
109834,8.27E-03,2.11E-02
109835,8.28E-03,2.11E-02
109836,8.29E-03,2.11E-02
109837,8.30E-03,2.11E-02
109838,8.32E-03,2.11E-02
109839,8.33E-03,2.11E-02
109840,8.35E-03,2.11E-02
109841,8.38E-03,2.11E-02
109842,8.40E-03,2.11E-02
109843,8.43E-03,2.11E-02
109844,8.46E-03,2.11E-02
109845,8.50E-03,2.11E-02
109846,8.55E-03,2.11E-02
109847,8.58E-03,2.11E-02
109848,8.60E-03,2.11E-02
109849,8.62E-03,2.11E-02
109850,8.65E-03,2.11E-02
109851,8.66E-03,2.11E-02
109852,8.76E-03,2.11E-02
109853,8.90E-03,2.12E-02
109854,9.01E-03,2.12E-02
109855,9.14E-03,2.12E-02
109856,9.38E-03,2.12E-02
109857,9.65E-03,2.12E-02
109858,9.98E-03,2.12E-02
109859,1.04E-02,2.13E-02
109860,1.05E-02,2.14E-02
109861,1.07E-02,2.14E-02
109862,1.11E-02,2.15E-02
109863,1.11E-02,2.16E-02
109864,1.09E-02,2.17E-02
109865,1.08E-02,2.18E-02
109866,1.09E-02,2.19E-02
109867,1.11E-02,2.20E-02
109868,9.71E-03,2.21E-02
109869,9.26E-03,2.23E-02
109870,8.79E-03,2.24E-02
109871,8.41E-03,2.25E-02
109872,7.89E-03,2.26E-02
109873,7.82E-03,2.27E-02
109874,5.87E-03,2.28E-02
109875,5.82E-03,2.29E-02
109876,5.52E-03,2.29E-02
109877,5.45E-03,2.30E-02
109878,5.41E-03,2.30E-02
109879,5.32E-03,2.31E-02
109880,5.19E-03,2.31E-02
109881,5.04E-03,2.31E-02
109882,4.84E-03,2.32E-02
109883,5.33E-03,2.32E-02
109884,5.57E-03,2.32E-02
109885,6.04E-03,2.32E-02
109886,6.65E-03,2.32E-02
109887,6.90E-03,2.33E-02
109888,7.21E-03,2.33E-02
109889,7.22E-03,2.33E-02
109890,7.22E-03,2.33E-02
109891,7.23E-03,2.33E-02
109892,7.22E-03,2.33E-02
109893,7.48E-03,2.33E-02
109894,7.94E-03,2.32E-02
109895,8.13E-03,2.32E-02
109896,8.14E-03,2.32E-02
109897,8.14E-03,2.32E-02
109898,8.16E-03,2.32E-02
109899,8.22E-03,2.32E-02
109900,8.30E-03,2.31E-02
109901,8.35E-03,2.31E-02
109902,8.37E-03,2.31E-02
109903,8.38E-03,2.31E-02
109904,8.40E-03,2.31E-02
109905,8.41E-03,2.31E-02
109906,8.44E-03,2.30E-02
109907,8.46E-03,2.30E-02
109908,8.49E-03,2.30E-02
109909,8.51E-03,2.30E-02
109910,8.55E-03,2.30E-02
109911,8.59E-03,2.30E-02
109912,8.63E-03,2.30E-02
109913,8.68E-03,2.30E-02
109914,8.73E-03,2.30E-02
109915,8.80E-03,2.31E-02
109916,8.87E-03,2.31E-02
109917,8.95E-03,2.31E-02
109918,9.02E-03,2.32E-02
109919,9.09E-03,2.32E-02
109920,9.20E-03,2.33E-02
109921,9.33E-03,2.33E-02
109922,9.47E-03,2.34E-02
109923,9.65E-03,2.35E-02
109924,9.87E-03,2.36E-02
109925,1.01E-02,2.37E-02
109926,1.04E-02,2.38E-02
109927,1.05E-02,2.39E-02
109928,1.03E-02,2.41E-02
109929,1.04E-02,2.42E-02
109930,1.06E-02,2.44E-02
109931,1.06E-02,2.45E-02
109932,1.07E-02,2.47E-02
109933,5.61E-03,2.49E-02
109934,5.35E-03,2.50E-02
109935,5.30E-03,2.50E-02
109936,5.00E-03,2.51E-02
109937,5.18E-03,2.52E-02
109938,5.62E-03,2.53E-02
109939,5.28E-03,2.53E-02
109940,5.68E-03,1.09E-02
109941,5.86E-03,1.78E-02
109942,5.08E-03,1.79E-02
109943,5.25E-03,1.79E-02
109944,6.53E-03,8.42E-03
109945,8.09E-03,8.11E-03
109946,9.57E-03,8.07E-03
109947,9.99E-03,8.07E-03
109948,9.61E-03,1.91E-02
109949,7.93E-03,1.91E-02
109950,1.41E-02,8.35E-03
109951,5.92E-03,1.12E-02
109952,8.23E-03,6.88E-03
109953,8.71E-03,6.81E-03
109954,8.06E-03,6.12E-03
109955,7.59E-03,5.72E-03
109956,5.62E-03,5.72E-03
109957,8.86E-03,5.90E-03
109958,6.86E-03,1.19E-02
109959,8.72E-03,1.05E-02
109960,9.44E-03,8.25E-03
109961,9.41E-03,8.24E-03
109962,9.51E-03,8.22E-03
109963,9.46E-03,8.20E-03
109964,8.95E-03,8.19E-03
109965,8.85E-03,8.17E-03
109966,7.92E-03,8.16E-03
109967,6.51E-03,8.15E-03
109968,6.40E-03,8.14E-03
109969,6.32E-03,8.12E-03
109970,6.26E-03,8.11E-03
109971,6.08E-03,8.11E-03
109972,5.81E-03,8.10E-03
109973,5.60E-03,8.09E-03
109974,5.25E-03,8.08E-03
109975,5.29E-03,8.08E-03
109976,5.70E-03,8.08E-03
109977,7.88E-03,8.08E-03
109978,7.91E-03,8.08E-03
109979,7.98E-03,8.07E-03
109980,8.04E-03,8.06E-03
109981,7.71E-03,8.06E-03
109982,7.24E-03,8.05E-03
109983,7.00E-03,8.05E-03
109984,6.79E-03,8.04E-03
109985,6.51E-03,8.04E-03
109986,6.13E-03,8.03E-03
109987,8.19E-03,8.03E-03
109988,9.38E-03,8.03E-03
109989,1.01E-02,8.02E-03
109990,1.04E-02,8.01E-03
109991,1.06E-02,8.01E-03
109992,1.01E-02,8.00E-03
109993,9.87E-03,7.99E-03
109994,8.69E-03,7.97E-03
109995,7.60E-03,7.96E-03
109996,6.97E-03,7.95E-03
109997,5.75E-03,7.94E-03
109998,5.21E-03,7.94E-03
109999,5.44E-03,7.93E-03
110000,5.32E-03,7.93E-03
110001,7.97E-03,7.93E-03
110002,1.04E-02,7.92E-03
110003,1.07E-02,7.92E-03
110004,1.10E-02,7.91E-03
110005,1.04E-02,7.90E-03
110006,8.28E-03,7.90E-03
110007,7.26E-03,7.89E-03
110008,6.79E-03,7.88E-03
110009,6.86E-03,7.87E-03
110010,6.93E-03,7.87E-03
110011,7.15E-03,7.87E-03
110012,9.68E-03,8.41E-03
110013,8.67E-03,8.51E-03
110014,7.75E-03,8.61E-03
110015,7.58E-03,8.69E-03
110016,7.48E-03,8.78E-03
110017,6.92E-03,8.96E-03
110018,7.25E-03,8.86E-03
110019,7.79E-03,9.60E-03
110020,7.98E-03,9.86E-03
110021,8.06E-03,9.78E-03
110022,7.95E-03,9.70E-03
110023,6.84E-03,1.80E-02
110024,6.90E-03,1.80E-02
110025,7.51E-03,1.84E-02
110026,7.36E-03,1.83E-02
110027,7.13E-03,1.82E-02
110028,7.08E-03,1.81E-02
110029,7.06E-03,8.59E-03
110030,7.67E-03,1.02E-02
110031,7.76E-03,1.05E-02
110032,7.64E-03,1.03E-02
110033,7.01E-03,1.36E-02
110034,7.40E-03,1.39E-02
110035,7.19E-03,1.38E-02
110036,8.15E-03,1.71E-02
110037,7.70E-03,1.74E-02
110038,8.17E-03,1.73E-02
110039,8.31E-03,1.72E-02
110040,7.34E-03,8.15E-03
110041,6.19E-03,1.25E-02
110042,8.44E-03,7.59E-03
110043,8.93E-03,7.58E-03
110044,9.51E-03,7.57E-03
110045,9.97E-03,7.56E-03
110046,1.00E-02,7.54E-03
110047,9.74E-03,7.51E-03
110048,9.66E-03,7.49E-03
110049,9.39E-03,7.46E-03
110050,9.20E-03,7.44E-03
110051,8.91E-03,7.41E-03
110052,8.68E-03,7.39E-03
110053,8.18E-03,7.36E-03
110054,7.71E-03,7.34E-03
110055,7.57E-03,7.31E-03
110056,7.54E-03,7.29E-03
110057,7.41E-03,7.26E-03
110058,7.29E-03,7.24E-03
110059,7.13E-03,7.22E-03
110060,6.95E-03,7.20E-03
110061,6.82E-03,7.18E-03
110062,6.59E-03,7.16E-03
110063,6.03E-03,7.14E-03
110064,5.86E-03,7.13E-03
110065,5.38E-03,7.11E-03
110066,5.26E-03,7.10E-03
110067,5.67E-03,7.09E-03
110068,5.71E-03,7.09E-03
110069,5.74E-03,7.08E-03
110070,5.56E-03,7.07E-03
110071,5.27E-03,7.07E-03
110072,6.09E-03,7.06E-03
110073,7.88E-03,8.29E-03
110074,7.85E-03,8.30E-03
110075,5.97E-03,8.30E-03
110076,9.23E-03,1.53E-02
110077,8.20E-03,1.64E-02
110078,8.54E-03,1.60E-02
110079,8.82E-03,1.56E-02
110080,5.92E-03,1.28E-02
110081,5.56E-03,1.28E-02
110082,5.52E-03,1.29E-02
110083,5.89E-03,1.31E-02
110084,8.30E-03,2.45E-02
110085,7.96E-03,2.40E-02
110086,7.89E-03,2.35E-02
110087,7.84E-03,2.31E-02
110088,7.77E-03,2.26E-02
110089,8.11E-03,1.50E-02
110090,8.11E-03,1.51E-02
110091,8.11E-03,1.51E-02
110092,8.11E-03,1.52E-02
110093,8.11E-03,1.52E-02
110094,8.11E-03,1.53E-02
110095,8.12E-03,1.53E-02
110096,8.13E-03,1.53E-02
110097,8.13E-03,1.54E-02
110098,8.13E-03,1.54E-02
110099,8.13E-03,1.55E-02
110100,8.14E-03,1.55E-02
110101,8.14E-03,1.55E-02
110102,8.14E-03,1.56E-02
110103,8.14E-03,1.56E-02
110104,8.15E-03,1.56E-02
110105,8.15E-03,1.57E-02
110106,8.15E-03,1.57E-02
110107,8.16E-03,1.58E-02
110108,8.16E-03,1.58E-02
110109,8.17E-03,1.58E-02
110110,8.17E-03,1.59E-02
110111,8.18E-03,1.59E-02
110112,8.18E-03,1.60E-02
110113,8.19E-03,1.60E-02
110114,8.20E-03,1.60E-02
110115,8.21E-03,1.61E-02
110116,8.22E-03,1.61E-02
110117,8.23E-03,1.61E-02
110118,8.25E-03,1.62E-02
110119,8.26E-03,1.62E-02
110120,8.29E-03,1.63E-02
110121,8.32E-03,1.63E-02
110122,8.35E-03,1.63E-02
110123,8.39E-03,1.64E-02
110124,8.43E-03,1.64E-02
110125,8.48E-03,1.65E-02
110126,8.55E-03,1.65E-02
110127,8.64E-03,1.66E-02
110128,8.77E-03,1.66E-02
110129,8.95E-03,1.67E-02
110130,9.24E-03,1.67E-02
110131,9.69E-03,1.68E-02
110132,9.55E-03,1.68E-02
110133,7.86E-03,1.69E-02
110134,6.75E-03,1.69E-02
110135,7.07E-03,1.70E-02
110136,7.28E-03,1.70E-02
110137,7.43E-03,1.70E-02
110138,7.53E-03,1.71E-02
110139,7.61E-03,1.71E-02
110140,7.67E-03,1.72E-02
110141,7.72E-03,1.72E-02
110142,7.76E-03,1.73E-02
110143,7.80E-03,1.73E-02
110144,7.83E-03,1.74E-02
110145,7.85E-03,1.74E-02
110146,7.87E-03,1.74E-02
110147,7.89E-03,1.75E-02
110148,7.90E-03,1.75E-02
110149,7.92E-03,1.76E-02
110150,7.93E-03,1.76E-02
110151,7.94E-03,1.76E-02
110152,7.95E-03,1.77E-02
110153,7.95E-03,1.77E-02
110154,7.96E-03,1.78E-02
110155,7.97E-03,1.78E-02
110156,7.98E-03,1.78E-02
110157,7.98E-03,1.79E-02
110158,7.99E-03,1.79E-02
110159,7.98E-03,1.79E-02
110160,7.97E-03,1.80E-02
110161,7.98E-03,1.80E-02
110162,8.00E-03,1.80E-02
110163,8.01E-03,1.81E-02
110164,8.02E-03,1.81E-02
110165,8.03E-03,1.81E-02
110166,8.04E-03,1.82E-02
110167,8.04E-03,1.82E-02
110168,8.05E-03,1.82E-02
110169,8.05E-03,1.83E-02
110170,8.09E-03,1.83E-02
110171,8.15E-03,1.83E-02
110172,8.17E-03,1.83E-02
110173,8.18E-03,1.84E-02
110174,8.18E-03,1.84E-02
110175,8.19E-03,1.84E-02
110176,8.20E-03,1.84E-02
110177,8.20E-03,1.85E-02
110178,8.21E-03,1.85E-02
110179,8.22E-03,1.85E-02
110180,8.23E-03,1.85E-02
110181,8.24E-03,1.85E-02
110182,8.26E-03,1.85E-02
110183,8.28E-03,1.86E-02
110184,8.30E-03,1.86E-02
110185,8.32E-03,1.86E-02
110186,8.35E-03,1.86E-02
110187,8.38E-03,1.86E-02
110188,8.42E-03,1.87E-02
110189,8.47E-03,1.87E-02
110190,8.58E-03,1.87E-02
110191,8.87E-03,1.87E-02
110192,9.01E-03,1.88E-02
110193,9.17E-03,1.88E-02
110194,9.27E-03,1.88E-02
110195,9.37E-03,1.89E-02
110196,9.16E-03,1.89E-02
110197,9.03E-03,1.90E-02
110198,8.83E-03,1.22E-02
110199,9.67E-03,6.47E-03
110200,9.68E-03,6.52E-03
110201,7.34E-03,6.57E-03
110202,7.17E-03,6.61E-03
110203,6.67E-03,6.64E-03
110204,6.28E-03,6.72E-03
110205,6.19E-03,6.80E-03
110206,6.73E-03,6.82E-03
110207,7.69E-03,1.16E-02
110208,1.06E-02,1.16E-02
110209,1.06E-02,1.17E-02
110210,1.03E-02,1.18E-02
110211,1.01E-02,1.19E-02
110212,9.74E-03,1.20E-02
110213,9.54E-03,1.21E-02
110214,9.24E-03,1.22E-02
110215,9.02E-03,1.23E-02
110216,8.86E-03,1.24E-02
110217,8.74E-03,1.25E-02
110218,8.65E-03,1.26E-02
110219,8.57E-03,1.27E-02
110220,8.46E-03,1.28E-02
110221,8.40E-03,1.29E-02
110222,8.47E-03,1.30E-02
110223,8.64E-03,1.31E-02
110224,8.75E-03,1.32E-02
110225,8.34E-03,1.33E-02
110226,7.90E-03,1.34E-02
110227,7.88E-03,1.35E-02
110228,7.88E-03,1.36E-02
110229,7.87E-03,1.37E-02
110230,7.85E-03,1.38E-02
110231,7.71E-03,1.39E-02
110232,7.73E-03,1.40E-02
110233,7.16E-03,1.41E-02
110234,7.18E-03,1.42E-02
110235,7.04E-03,1.42E-02
110236,6.92E-03,1.43E-02
110237,6.83E-03,1.44E-02
110238,6.78E-03,1.45E-02
110239,6.75E-03,1.46E-02
110240,9.33E-03,1.47E-02
110241,9.32E-03,1.48E-02
110242,9.94E-03,1.49E-02
110243,1.09E-02,1.51E-02
110244,1.10E-02,1.52E-02
110245,1.10E-02,1.56E-02
110246,1.05E-02,1.58E-02
110247,1.03E-02,1.59E-02
110248,9.93E-03,1.61E-02
110249,9.42E-03,1.62E-02
110250,9.22E-03,1.63E-02
110251,9.08E-03,1.65E-02
110252,8.88E-03,1.66E-02
110253,8.69E-03,1.67E-02
110254,8.49E-03,1.69E-02
110255,8.42E-03,1.70E-02
110256,8.23E-03,1.71E-02
110257,8.13E-03,1.72E-02
110258,8.03E-03,1.73E-02
110259,7.73E-03,1.75E-02
110260,7.95E-03,1.74E-02
110261,7.90E-03,7.74E-03
110262,7.45E-03,8.23E-03
110263,8.52E-03,9.02E-03
110264,8.00E-03,5.87E-03
110265,7.28E-03,1.90E-02
110266,6.99E-03,1.91E-02
110267,9.07E-03,1.80E-02
110268,9.11E-03,1.81E-02
110269,9.15E-03,1.81E-02
110270,1.09E-02,1.82E-02
110271,9.86E-03,1.83E-02
110272,9.84E-03,1.84E-02
110273,9.66E-03,1.84E-02
110274,9.47E-03,1.85E-02
110275,9.37E-03,1.86E-02
110276,9.27E-03,1.86E-02
110277,9.20E-03,1.87E-02
110278,9.12E-03,1.88E-02
110279,9.08E-03,1.88E-02
110280,9.11E-03,1.89E-02
110281,9.16E-03,1.90E-02
110282,8.74E-03,1.91E-02
110283,8.25E-03,1.92E-02
110284,6.69E-03,1.92E-02
110285,6.22E-03,1.93E-02
110286,7.71E-03,1.93E-02
110287,8.25E-03,1.79E-02
110288,8.96E-03,1.18E-02
110289,7.68E-03,1.14E-02
110290,7.08E-03,1.13E-02
110291,5.60E-03,7.67E-03
110292,8.99E-03,1.07E-02
110293,9.14E-03,1.08E-02
110294,9.18E-03,1.08E-02
110295,8.86E-03,1.09E-02
110296,8.69E-03,1.10E-02
110297,8.34E-03,1.10E-02
110298,8.25E-03,1.11E-02
110299,8.17E-03,1.12E-02
110300,8.04E-03,1.12E-02
110301,7.92E-03,1.13E-02
110302,7.86E-03,1.14E-02
110303,7.81E-03,1.15E-02
110304,7.71E-03,1.15E-02
110305,7.51E-03,1.16E-02
110306,7.16E-03,1.17E-02
110307,7.90E-03,2.80E-02
110308,6.59E-03,5.40E-03
110309,7.40E-03,1.96E-02
110310,8.48E-03,7.06E-03
110311,8.11E-03,1.49E-02
110312,8.12E-03,1.49E-02
110313,8.12E-03,1.48E-02
110314,8.12E-03,1.48E-02
110315,8.12E-03,1.48E-02
110316,8.12E-03,1.47E-02
110317,8.12E-03,1.47E-02
110318,8.12E-03,1.46E-02
110319,8.12E-03,1.46E-02
110320,8.12E-03,1.45E-02
110321,8.12E-03,1.45E-02
110322,8.12E-03,1.44E-02
110323,8.12E-03,1.44E-02
110324,8.12E-03,1.44E-02
110325,8.12E-03,1.43E-02
110326,8.13E-03,1.43E-02
110327,8.13E-03,1.42E-02
110328,8.13E-03,1.42E-02
110329,8.13E-03,1.41E-02
110330,8.13E-03,1.41E-02
110331,8.13E-03,1.40E-02
110332,8.13E-03,1.40E-02
110333,8.13E-03,1.39E-02
110334,8.13E-03,1.39E-02
110335,8.14E-03,1.38E-02
110336,8.14E-03,1.38E-02
110337,8.14E-03,1.37E-02
110338,8.14E-03,1.37E-02
110339,8.15E-03,1.36E-02
110340,8.15E-03,1.36E-02
110341,8.15E-03,1.35E-02
110342,8.16E-03,1.35E-02
110343,8.16E-03,1.34E-02
110344,8.17E-03,1.34E-02
110345,8.17E-03,1.33E-02
110346,8.17E-03,1.33E-02
110347,8.18E-03,1.32E-02
110348,8.18E-03,1.32E-02
110349,8.19E-03,1.31E-02
110350,8.19E-03,1.31E-02
110351,8.20E-03,1.30E-02
110352,8.21E-03,1.30E-02
110353,8.21E-03,1.29E-02
110354,8.22E-03,1.29E-02
110355,8.23E-03,1.28E-02
110356,8.24E-03,1.27E-02
110357,8.25E-03,1.27E-02
110358,8.27E-03,1.26E-02
110359,8.28E-03,1.26E-02
110360,8.30E-03,1.25E-02
110361,8.32E-03,1.25E-02
110362,8.34E-03,1.24E-02
110363,8.37E-03,1.24E-02
110364,8.40E-03,1.23E-02
110365,8.44E-03,1.22E-02
110366,8.49E-03,1.22E-02
110367,8.55E-03,1.21E-02
110368,8.62E-03,1.21E-02
110369,8.72E-03,1.20E-02
110370,8.85E-03,1.20E-02
110371,9.04E-03,1.19E-02
110372,9.31E-03,1.19E-02
110373,9.75E-03,1.18E-02
110374,1.05E-02,1.17E-02
110375,1.06E-02,1.17E-02
110376,9.44E-03,1.16E-02
110377,8.56E-03,1.16E-02
110378,8.59E-03,1.15E-02
110379,8.64E-03,1.14E-02
110380,8.70E-03,1.14E-02
110381,8.78E-03,1.13E-02
110382,8.87E-03,1.13E-02
110383,8.98E-03,1.12E-02
110384,9.12E-03,1.12E-02
110385,9.30E-03,1.11E-02
110386,9.55E-03,1.10E-02
110387,9.87E-03,1.10E-02
110388,9.57E-03,1.09E-02
110389,8.56E-03,1.08E-02
110390,6.47E-03,1.08E-02
110391,5.24E-03,1.07E-02
110392,6.05E-03,1.07E-02
110393,6.66E-03,1.06E-02
110394,6.91E-03,1.06E-02
110395,7.10E-03,1.05E-02
110396,7.25E-03,1.05E-02
110397,7.36E-03,1.05E-02
110398,7.45E-03,1.04E-02
110399,7.52E-03,1.04E-02
110400,7.58E-03,1.03E-02
110401,7.65E-03,1.03E-02
110402,7.74E-03,1.02E-02
110403,7.78E-03,1.02E-02
110404,7.78E-03,1.01E-02
110405,7.78E-03,1.01E-02
110406,8.17E-03,1.01E-02
110407,8.70E-03,1.00E-02
110408,8.73E-03,1.00E-02
110409,8.54E-03,9.98E-03
110410,8.45E-03,9.96E-03
110411,8.50E-03,9.94E-03
110412,8.62E-03,9.92E-03
110413,8.70E-03,9.91E-03
110414,8.78E-03,9.90E-03
110415,8.88E-03,9.90E-03
110416,9.00E-03,9.90E-03
110417,9.17E-03,9.91E-03
110418,9.47E-03,9.92E-03
110419,9.77E-03,9.95E-03
110420,9.73E-03,9.97E-03
110421,9.08E-03,1.00E-02
110422,8.19E-03,1.00E-02
110423,7.80E-03,1.01E-02
110424,7.79E-03,1.01E-02
110425,7.80E-03,1.02E-02
110426,7.81E-03,1.02E-02
110427,7.82E-03,1.03E-02
110428,7.83E-03,1.04E-02
110429,7.84E-03,1.04E-02
110430,7.84E-03,1.05E-02
110431,7.86E-03,1.06E-02
110432,7.87E-03,1.07E-02
110433,7.82E-03,1.08E-02
110434,7.77E-03,1.09E-02
110435,7.75E-03,1.11E-02
110436,7.72E-03,1.12E-02
110437,7.76E-03,1.13E-02
110438,7.93E-03,1.14E-02
110439,8.10E-03,1.16E-02
110440,8.28E-03,1.17E-02
110441,8.63E-03,1.19E-02
110442,9.12E-03,1.20E-02
110443,7.42E-03,5.98E-03
110444,7.76E-03,2.13E-02
110445,7.65E-03,2.08E-02
110446,8.89E-03,1.11E-02
110447,8.48E-03,1.10E-02
110448,7.51E-03,1.09E-02
110449,7.54E-03,1.08E-02
110450,7.28E-03,1.07E-02
110451,7.38E-03,1.07E-02
110452,7.48E-03,1.06E-02
110453,7.53E-03,1.05E-02
110454,7.66E-03,1.05E-02
110455,7.72E-03,1.04E-02
110456,7.76E-03,1.03E-02
110457,7.80E-03,1.02E-02
110458,7.83E-03,1.02E-02
110459,7.86E-03,1.01E-02
110460,7.88E-03,1.00E-02
110461,7.90E-03,9.97E-03
110462,7.92E-03,9.90E-03
110463,7.96E-03,9.84E-03
110464,7.99E-03,9.78E-03
110465,7.98E-03,9.72E-03
110466,7.98E-03,9.66E-03
110467,7.98E-03,9.60E-03
110468,7.97E-03,9.54E-03
110469,7.97E-03,9.49E-03
110470,7.96E-03,9.43E-03
110471,7.96E-03,9.38E-03
110472,7.95E-03,9.33E-03
110473,7.95E-03,9.28E-03
110474,7.94E-03,9.23E-03
110475,7.93E-03,9.18E-03
110476,7.92E-03,9.13E-03
110477,7.92E-03,9.09E-03
110478,7.91E-03,9.05E-03
110479,7.90E-03,9.00E-03
110480,7.89E-03,8.96E-03
110481,7.88E-03,8.92E-03
110482,7.87E-03,8.88E-03
110483,7.85E-03,8.84E-03
110484,7.82E-03,8.80E-03
110485,7.76E-03,8.76E-03
110486,7.70E-03,8.72E-03
110487,7.74E-03,8.68E-03
110488,7.84E-03,8.65E-03
110489,7.99E-03,8.60E-03
110490,8.29E-03,8.56E-03
110491,9.87E-03,8.51E-03
110492,7.60E-03,7.48E-03
110493,6.41E-03,5.44E-03
110494,5.58E-03,5.45E-03
110495,5.43E-03,5.46E-03
110496,5.97E-03,5.44E-03
110497,7.59E-03,7.05E-03
110498,7.78E-03,7.04E-03
110499,9.99E-03,7.03E-03
110500,1.03E-02,7.02E-03
110501,1.03E-02,7.00E-03
110502,1.02E-02,6.98E-03
110503,9.08E-03,6.96E-03
110504,7.97E-03,6.94E-03
110505,7.16E-03,6.92E-03
110506,6.89E-03,6.90E-03
110507,6.73E-03,6.89E-03
110508,6.53E-03,6.87E-03
110509,6.27E-03,6.86E-03
110510,5.93E-03,6.85E-03
110511,5.48E-03,6.84E-03
110512,5.69E-03,6.84E-03
110513,6.39E-03,6.83E-03
110514,6.51E-03,6.83E-03
110515,6.58E-03,6.83E-03
110516,6.49E-03,6.83E-03
110517,6.44E-03,6.83E-03
110518,7.66E-03,6.83E-03
110519,9.52E-03,6.84E-03
110520,9.86E-03,6.84E-03
110521,9.69E-03,6.84E-03
110522,9.49E-03,6.84E-03
110523,9.28E-03,6.84E-03
110524,8.77E-03,6.84E-03
110525,8.48E-03,6.83E-03
110526,8.20E-03,6.83E-03
110527,8.04E-03,6.83E-03
110528,8.09E-03,6.82E-03
110529,8.10E-03,6.82E-03
110530,8.25E-03,6.81E-03
110531,9.36E-03,6.81E-03
110532,1.02E-02,6.81E-03
110533,9.92E-03,6.80E-03
110534,9.49E-03,6.79E-03
110535,9.22E-03,6.77E-03
110536,9.23E-03,6.76E-03
110537,9.48E-03,6.74E-03
110538,9.92E-03,6.72E-03
110539,1.05E-02,6.70E-03
110540,1.07E-02,6.67E-03
110541,1.02E-02,6.64E-03
110542,9.70E-03,6.61E-03
110543,9.39E-03,6.57E-03
110544,9.17E-03,6.54E-03
110545,9.06E-03,6.50E-03
110546,9.05E-03,6.46E-03
110547,8.90E-03,6.42E-03
110548,8.67E-03,6.38E-03
110549,8.52E-03,6.34E-03
110550,8.43E-03,6.30E-03
110551,8.37E-03,6.26E-03
110552,8.32E-03,6.21E-03
110553,8.29E-03,6.17E-03
110554,8.26E-03,6.13E-03
110555,8.16E-03,6.09E-03
110556,7.92E-03,6.04E-03
110557,7.77E-03,6.00E-03
110558,7.75E-03,5.96E-03
110559,7.72E-03,5.92E-03
110560,7.69E-03,5.88E-03
110561,7.66E-03,5.84E-03
110562,7.62E-03,5.80E-03
110563,7.58E-03,5.76E-03
110564,7.53E-03,5.73E-03
110565,7.48E-03,5.69E-03
110566,7.41E-03,5.65E-03
110567,7.33E-03,5.62E-03
110568,7.24E-03,5.59E-03
110569,7.11E-03,5.55E-03
110570,6.94E-03,5.52E-03
110571,6.90E-03,5.49E-03
110572,7.07E-03,5.47E-03
110573,7.24E-03,5.44E-03
110574,7.24E-03,5.41E-03
110575,7.15E-03,5.39E-03
110576,7.04E-03,5.37E-03
110577,6.86E-03,5.34E-03
110578,6.56E-03,5.32E-03
110579,6.49E-03,5.31E-03
110580,6.90E-03,5.29E-03
110581,7.35E-03,5.28E-03
110582,7.62E-03,5.27E-03
110583,7.77E-03,5.26E-03
110584,7.95E-03,5.25E-03
110585,8.23E-03,5.24E-03
110586,8.49E-03,5.22E-03
110587,9.64E-03,5.17E-03
110588,7.98E-03,5.18E-03
110589,7.22E-03,5.18E-03
110590,7.01E-03,5.16E-03
110591,7.77E-03,8.26E-03
110592,7.97E-03,8.15E-03
110593,5.88E-03,7.76E-03
110594,7.01E-03,7.71E-03
110595,7.62E-03,7.98E-03
110596,4.39E-03,8.85E-03
110597,6.33E-03,8.68E-03
110598,8.32E-03,7.46E-03
110599,6.22E-03,1.79E-02
110600,6.81E-03,1.85E-02
110601,7.19E-03,1.89E-02
110602,6.38E-03,1.94E-02
110603,6.75E-03,8.47E-03
110604,8.03E-03,9.60E-03
110605,7.88E-03,9.72E-03
110606,7.94E-03,1.02E-02
110607,7.33E-03,1.35E-02
110608,7.65E-03,1.71E-02
110609,5.91E-03,1.75E-02
110610,8.61E-03,7.43E-03
110611,7.13E-03,6.85E-03
110612,5.95E-03,6.86E-03
110613,8.41E-03,8.16E-03
110614,7.17E-03,8.23E-03
110615,7.70E-03,2.08E-02
110616,7.81E-03,2.08E-02
110617,7.98E-03,2.04E-02
110618,8.14E-03,2.00E-02
110619,8.29E-03,1.96E-02
110620,8.46E-03,1.92E-02
110621,8.37E-03,1.87E-02
110622,8.15E-03,1.83E-02
110623,7.95E-03,1.79E-02
110624,7.53E-03,1.75E-02
110625,7.55E-03,1.71E-02
110626,7.76E-03,1.65E-02
110627,6.88E-03,5.15E-03
110628,7.42E-03,5.32E-03
110629,5.52E-03,1.93E-02
110630,5.69E-03,1.94E-02
110631,5.75E-03,1.94E-02
110632,5.67E-03,1.94E-02
110633,5.67E-03,1.95E-02
110634,5.75E-03,1.95E-02
110635,5.80E-03,1.96E-02
110636,5.86E-03,1.96E-02
110637,6.76E-03,1.97E-02
110638,8.29E-03,1.97E-02
110639,8.27E-03,1.98E-02
110640,8.76E-03,1.98E-02
110641,8.97E-03,1.99E-02
110642,9.04E-03,2.00E-02
110643,9.32E-03,2.00E-02
110644,9.37E-03,2.01E-02
110645,9.37E-03,2.02E-02
110646,9.29E-03,2.03E-02
110647,8.16E-03,2.03E-02
110648,6.71E-03,2.04E-02
110649,6.42E-03,2.04E-02
110650,6.36E-03,2.05E-02
110651,5.59E-03,2.05E-02
110652,5.67E-03,2.06E-02
110653,5.89E-03,2.06E-02
110654,6.33E-03,2.06E-02
110655,6.88E-03,2.06E-02
110656,6.98E-03,2.07E-02
110657,7.43E-03,2.07E-02
110658,7.50E-03,2.07E-02
110659,7.56E-03,2.08E-02
110660,7.68E-03,2.08E-02
110661,7.73E-03,2.08E-02
110662,7.76E-03,2.08E-02
110663,7.80E-03,2.09E-02
110664,7.82E-03,2.09E-02
110665,7.85E-03,2.09E-02
110666,7.86E-03,2.09E-02
110667,7.84E-03,2.10E-02
110668,7.84E-03,2.10E-02
110669,7.91E-03,2.10E-02
110670,7.97E-03,2.10E-02
110671,8.00E-03,2.10E-02
110672,8.02E-03,2.11E-02
110673,8.03E-03,2.11E-02
110674,8.04E-03,2.11E-02
110675,8.09E-03,2.11E-02
110676,8.15E-03,2.11E-02
110677,8.17E-03,2.12E-02
110678,8.17E-03,2.12E-02
110679,8.18E-03,2.12E-02
110680,8.18E-03,2.12E-02
110681,8.18E-03,2.12E-02
110682,8.19E-03,2.12E-02
110683,8.20E-03,2.13E-02
110684,8.20E-03,2.13E-02
110685,8.21E-03,2.13E-02
110686,8.22E-03,2.13E-02
110687,8.22E-03,2.13E-02
110688,8.23E-03,2.13E-02
110689,8.24E-03,2.14E-02
110690,8.25E-03,2.14E-02
110691,8.26E-03,2.14E-02
110692,8.27E-03,2.14E-02
110693,8.28E-03,2.14E-02
110694,8.29E-03,2.14E-02
110695,8.31E-03,2.14E-02
110696,8.33E-03,2.14E-02
110697,8.34E-03,2.14E-02
110698,8.36E-03,2.14E-02
110699,8.39E-03,2.14E-02
110700,8.42E-03,2.14E-02
110701,8.45E-03,2.14E-02
110702,8.49E-03,2.14E-02
110703,8.53E-03,2.14E-02
110704,8.56E-03,2.14E-02
110705,8.58E-03,2.14E-02
110706,8.60E-03,2.14E-02
110707,8.62E-03,2.14E-02
110708,8.64E-03,2.14E-02
110709,8.74E-03,2.15E-02
110710,8.88E-03,2.15E-02
110711,9.04E-03,2.15E-02
110712,9.13E-03,2.15E-02
110713,9.31E-03,2.15E-02
110714,9.56E-03,2.15E-02
110715,9.91E-03,2.16E-02
110716,1.03E-02,2.16E-02
110717,1.04E-02,2.17E-02
110718,1.06E-02,2.17E-02
110719,1.10E-02,2.18E-02
110720,1.10E-02,2.19E-02
110721,1.08E-02,2.20E-02
110722,1.06E-02,2.21E-02
110723,1.07E-02,2.22E-02
110724,1.11E-02,2.23E-02
110725,1.01E-02,2.25E-02
110726,9.07E-03,2.26E-02
110727,8.61E-03,2.27E-02
110728,8.13E-03,2.28E-02
110729,7.79E-03,2.29E-02
110730,7.58E-03,2.30E-02
110731,6.40E-03,2.31E-02
110732,6.12E-03,2.32E-02
110733,5.45E-03,2.32E-02
110734,5.53E-03,2.33E-02
110735,5.50E-03,2.33E-02
110736,5.39E-03,2.34E-02
110737,5.31E-03,2.34E-02
110738,5.03E-03,2.35E-02
110739,4.99E-03,2.35E-02
110740,5.24E-03,2.35E-02
110741,5.62E-03,2.35E-02
110742,6.25E-03,2.36E-02
110743,6.55E-03,2.36E-02
110744,7.06E-03,2.36E-02
110745,7.20E-03,2.36E-02
110746,7.25E-03,2.36E-02
110747,7.25E-03,2.36E-02
110748,7.26E-03,2.36E-02
110749,7.26E-03,2.36E-02
110750,7.50E-03,2.36E-02
110751,7.94E-03,2.36E-02
110752,8.13E-03,2.35E-02
110753,8.14E-03,2.35E-02
110754,8.14E-03,2.35E-02
110755,8.15E-03,2.35E-02
110756,8.21E-03,2.35E-02
110757,8.29E-03,2.35E-02
110758,8.34E-03,2.34E-02
110759,8.36E-03,2.34E-02
110760,8.37E-03,2.34E-02
110761,8.38E-03,2.34E-02
110762,8.40E-03,2.34E-02
110763,8.42E-03,2.34E-02
110764,8.45E-03,2.33E-02
110765,8.47E-03,2.33E-02
110766,8.50E-03,2.33E-02
110767,8.53E-03,2.33E-02
110768,8.57E-03,2.33E-02
110769,8.61E-03,2.33E-02
110770,8.66E-03,2.33E-02
110771,8.71E-03,2.34E-02
110772,8.77E-03,2.34E-02
110773,8.84E-03,2.34E-02
110774,8.92E-03,2.34E-02
110775,8.99E-03,2.35E-02
110776,9.06E-03,2.35E-02
110777,9.16E-03,2.36E-02
110778,9.28E-03,2.36E-02
110779,9.42E-03,2.37E-02
110780,9.59E-03,2.38E-02
110781,9.80E-03,2.39E-02
110782,1.01E-02,2.40E-02
110783,1.04E-02,2.41E-02
110784,1.04E-02,2.42E-02
110785,1.02E-02,2.44E-02
110786,1.03E-02,2.45E-02
110787,1.04E-02,2.47E-02
110788,1.07E-02,2.49E-02
110789,1.07E-02,2.50E-02
110790,5.57E-03,2.52E-02
110791,5.42E-03,2.53E-02
110792,5.35E-03,2.54E-02
110793,5.22E-03,2.55E-02
110794,5.36E-03,2.55E-02
110795,5.74E-03,2.56E-02
110796,5.60E-03,2.57E-02
110797,7.11E-03,1.09E-02
110798,6.64E-03,1.30E-02
110799,6.36E-03,1.29E-02
110800,6.11E-03,1.27E-02
110801,8.87E-03,2.64E-02
110802,7.80E-03,2.17E-02
110803,8.53E-03,6.08E-03
110804,6.87E-03,1.76E-02
110805,6.39E-03,1.76E-02
110806,6.56E-03,1.78E-02
110807,8.08E-03,1.79E-02
110808,7.37E-03,1.19E-02
110809,8.37E-03,1.76E-02
110810,7.85E-03,7.62E-03
110811,7.70E-03,7.61E-03
110812,7.59E-03,7.61E-03
110813,7.14E-03,7.61E-03
110814,6.54E-03,7.61E-03
110815,6.13E-03,7.61E-03
110816,6.23E-03,7.61E-03
110817,6.41E-03,7.63E-03
110818,6.90E-03,7.65E-03
110819,9.25E-03,7.67E-03
110820,9.72E-03,7.67E-03
110821,6.87E-03,7.65E-03
110822,5.76E-03,7.59E-03
110823,7.60E-03,7.58E-03
110824,8.20E-03,2.86E-02
110825,7.47E-03,6.85E-03
110826,7.55E-03,7.23E-03
110827,7.64E-03,7.56E-03
110828,5.13E-03,8.81E-03
110829,6.62E-03,9.14E-03
110830,4.56E-03,9.14E-03
110831,6.37E-03,8.39E-03
110832,6.45E-03,8.37E-03
110833,8.74E-03,1.39E-02
110834,8.22E-03,1.37E-02
110835,7.66E-03,1.35E-02
110836,7.34E-03,1.32E-02
110837,8.22E-03,8.06E-03
110838,8.16E-03,8.09E-03
110839,9.09E-03,8.05E-03
110840,8.65E-03,8.04E-03
110841,7.88E-03,5.30E-03
110842,6.43E-03,1.92E-02
110843,6.15E-03,1.93E-02
110844,7.90E-03,5.58E-03
110845,8.50E-03,2.64E-02
110846,8.45E-03,1.92E-02
110847,6.82E-03,1.94E-02
110848,7.46E-03,8.28E-03
110849,9.08E-03,8.23E-03
110850,5.45E-03,5.72E-03
110851,5.77E-03,6.41E-03
110852,7.35E-03,1.12E-02
110853,6.78E-03,6.66E-03
110854,5.44E-03,2.54E-02
110855,5.58E-03,2.55E-02
110856,5.64E-03,2.55E-02
110857,7.04E-03,2.56E-02
110858,7.01E-03,2.56E-02
110859,7.13E-03,2.56E-02
110860,7.38E-03,2.57E-02
110861,7.49E-03,2.57E-02
110862,7.66E-03,2.58E-02
110863,7.72E-03,2.58E-02
110864,7.76E-03,2.58E-02
110865,7.80E-03,2.59E-02
110866,7.83E-03,2.59E-02
110867,7.85E-03,2.59E-02
110868,7.87E-03,2.60E-02
110869,7.89E-03,2.60E-02
110870,7.90E-03,2.60E-02
110871,7.92E-03,2.61E-02
110872,7.93E-03,2.61E-02
110873,7.94E-03,2.62E-02
110874,7.95E-03,2.62E-02
110875,7.96E-03,2.62E-02
110876,7.98E-03,2.63E-02
110877,7.98E-03,2.63E-02
110878,7.99E-03,2.64E-02
110879,7.99E-03,2.64E-02
110880,7.99E-03,2.65E-02
110881,8.00E-03,2.65E-02
110882,8.00E-03,2.66E-02
110883,8.00E-03,2.66E-02
110884,8.01E-03,2.67E-02
110885,8.01E-03,2.67E-02
110886,8.01E-03,2.68E-02
110887,8.01E-03,2.69E-02
110888,8.01E-03,2.69E-02
110889,8.02E-03,2.70E-02
110890,8.02E-03,2.71E-02
110891,8.02E-03,2.71E-02
110892,8.02E-03,2.72E-02
110893,8.02E-03,2.73E-02
110894,8.03E-03,2.74E-02
110895,8.03E-03,2.75E-02
110896,8.03E-03,2.75E-02
110897,8.03E-03,2.76E-02
110898,8.03E-03,2.77E-02
110899,8.03E-03,2.78E-02
110900,7.97E-03,2.79E-02
110901,7.95E-03,2.80E-02
110902,7.93E-03,2.81E-02
110903,7.98E-03,2.82E-02
110904,8.14E-03,2.83E-02
110905,8.18E-03,2.84E-02
110906,8.26E-03,2.85E-02
110907,8.29E-03,2.86E-02
110908,8.28E-03,2.88E-02
110909,8.12E-03,2.89E-02
110910,7.80E-03,2.90E-02
110911,7.62E-03,2.91E-02
110912,7.38E-03,2.94E-02
110913,7.02E-03,2.96E-02
110914,7.02E-03,2.96E-02
110915,7.62E-03,2.95E-02
110916,7.56E-03,2.96E-02
110917,6.55E-03,3.05E-02
110918,8.13E-03,1.51E-02
110919,8.10E-03,1.50E-02
110920,9.14E-03,1.67E-02
110921,9.32E-03,1.67E-02
110922,9.36E-03,1.66E-02
110923,9.40E-03,1.65E-02
110924,9.31E-03,1.64E-02
110925,8.99E-03,1.63E-02
110926,8.86E-03,1.62E-02
110927,8.89E-03,1.61E-02
110928,8.93E-03,1.61E-02
110929,9.00E-03,1.60E-02
110930,9.07E-03,1.59E-02
110931,9.12E-03,1.58E-02
110932,9.15E-03,1.57E-02
110933,9.16E-03,1.56E-02
110934,9.16E-03,1.55E-02
110935,9.16E-03,1.54E-02
110936,9.18E-03,1.53E-02
110937,9.20E-03,1.52E-02
110938,9.22E-03,1.51E-02
110939,9.24E-03,1.50E-02
110940,9.26E-03,1.49E-02
110941,9.28E-03,1.48E-02
110942,9.29E-03,1.46E-02
110943,9.31E-03,1.45E-02
110944,9.33E-03,1.44E-02
110945,9.35E-03,1.43E-02
110946,9.37E-03,1.41E-02
110947,9.39E-03,1.40E-02
110948,9.41E-03,1.39E-02
110949,9.43E-03,1.37E-02
110950,9.46E-03,1.36E-02
110951,9.41E-03,1.35E-02
110952,9.36E-03,1.33E-02
110953,9.36E-03,1.32E-02
110954,9.23E-03,1.30E-02
110955,9.14E-03,1.29E-02
110956,9.13E-03,1.27E-02
110957,9.19E-03,1.26E-02
110958,9.46E-03,1.24E-02
110959,1.07E-02,1.22E-02
110960,5.56E-03,6.67E-03
110961,7.41E-03,6.67E-03
110962,8.04E-03,7.11E-03
110963,5.63E-03,1.87E-02
110964,6.17E-03,1.88E-02
110965,7.12E-03,1.97E-02
110966,6.61E-03,5.25E-03
110967,8.33E-03,2.75E-02
110968,9.00E-03,5.93E-03
110969,9.65E-03,5.83E-03
110970,7.63E-03,6.59E-03
110971,6.88E-03,6.34E-03
110972,6.49E-03,8.07E-03
110973,7.14E-03,8.10E-03
110974,5.24E-03,8.01E-03
110975,4.78E-03,7.97E-03
110976,6.16E-03,1.22E-02
110977,6.20E-03,1.22E-02
110978,6.71E-03,1.22E-02
110979,6.99E-03,1.21E-02
110980,9.06E-03,1.17E-02
110981,9.49E-03,1.15E-02
110982,6.47E-03,1.17E-02
110983,6.94E-03,1.16E-02
110984,7.23E-03,1.14E-02
110985,8.52E-03,7.62E-03
110986,7.41E-03,1.12E-02
110987,5.52E-03,1.13E-02
110988,6.45E-03,1.20E-02
110989,9.05E-03,8.14E-03
110990,9.16E-03,8.12E-03
110991,9.26E-03,8.11E-03
110992,9.24E-03,8.09E-03
110993,8.95E-03,8.08E-03
110994,8.89E-03,8.06E-03
110995,7.93E-03,8.05E-03
110996,6.57E-03,8.03E-03
110997,6.46E-03,8.02E-03
110998,6.49E-03,8.01E-03
110999,6.34E-03,8.00E-03
111000,6.18E-03,7.99E-03
111001,5.91E-03,7.99E-03
111002,5.66E-03,7.98E-03
111003,5.34E-03,7.97E-03
111004,5.48E-03,7.97E-03
111005,5.93E-03,7.97E-03
111006,7.65E-03,7.97E-03
111007,7.74E-03,7.96E-03
111008,8.02E-03,7.96E-03
111009,8.04E-03,7.95E-03
111010,7.72E-03,7.94E-03
111011,7.27E-03,7.94E-03
111012,7.04E-03,7.93E-03
111013,6.84E-03,7.92E-03
111014,6.57E-03,7.92E-03
111015,6.20E-03,7.91E-03
111016,8.08E-03,7.91E-03
111017,9.11E-03,7.91E-03
111018,1.02E-02,7.90E-03
111019,1.06E-02,7.89E-03
111020,1.06E-02,7.88E-03
111021,1.02E-02,7.87E-03
111022,9.77E-03,7.86E-03
111023,8.48E-03,7.85E-03
111024,7.61E-03,7.84E-03
111025,7.01E-03,7.83E-03
111026,5.84E-03,7.82E-03
111027,5.32E-03,7.81E-03
111028,5.40E-03,7.80E-03
111029,5.34E-03,7.80E-03
111030,8.54E-03,7.80E-03
111031,9.71E-03,7.79E-03
111032,1.09E-02,7.79E-03
111033,1.09E-02,7.78E-03
111034,1.02E-02,7.77E-03
111035,8.68E-03,7.76E-03
111036,7.11E-03,7.75E-03
111037,6.77E-03,7.74E-03
111038,6.80E-03,7.73E-03
111039,6.92E-03,7.72E-03
111040,7.38E-03,7.70E-03
111041,9.66E-03,8.08E-03
111042,8.65E-03,8.18E-03
111043,7.80E-03,8.28E-03
111044,7.66E-03,8.36E-03
111045,7.58E-03,8.45E-03
111046,7.23E-03,8.63E-03
111047,7.43E-03,8.54E-03
111048,7.70E-03,9.24E-03
111049,8.02E-03,9.50E-03
111050,8.08E-03,9.41E-03
111051,8.10E-03,9.33E-03
111052,6.50E-03,7.33E-03
111053,6.53E-03,7.50E-03
111054,6.70E-03,7.55E-03
111055,7.73E-03,7.52E-03
111056,8.27E-03,7.52E-03
111057,6.94E-03,7.51E-03
111058,6.58E-03,7.49E-03
111059,6.48E-03,7.47E-03
111060,6.50E-03,7.45E-03
111061,6.52E-03,7.45E-03
111062,7.72E-03,7.45E-03
111063,7.83E-03,7.45E-03
111064,7.81E-03,7.48E-03
111065,7.71E-03,7.46E-03
111066,6.61E-03,1.79E-02
111067,6.87E-03,1.80E-02
111068,7.20E-03,1.81E-02
111069,7.02E-03,1.84E-02
111070,7.30E-03,1.84E-02
111071,7.25E-03,1.83E-02
111072,7.20E-03,1.82E-02
111073,7.48E-03,1.90E-02
111074,6.90E-03,1.93E-02
111075,7.45E-03,1.91E-02
111076,7.43E-03,8.47E-03
111077,7.84E-03,9.85E-03
111078,7.85E-03,1.00E-02
111079,7.47E-03,9.94E-03
111080,8.39E-03,1.02E-02
111081,8.61E-03,1.03E-02
111082,8.91E-03,1.04E-02
111083,9.02E-03,1.04E-02
111084,8.77E-03,1.05E-02
111085,8.74E-03,1.06E-02
111086,8.35E-03,1.07E-02
111087,8.23E-03,1.07E-02
111088,8.22E-03,1.08E-02
111089,7.97E-03,1.08E-02
111090,7.93E-03,1.09E-02
111091,7.80E-03,1.10E-02
111092,7.75E-03,1.11E-02
111093,7.57E-03,1.11E-02
111094,7.39E-03,1.12E-02
111095,6.73E-03,1.12E-02
111096,6.31E-03,1.12E-02
111097,6.92E-03,1.31E-02
111098,7.28E-03,1.34E-02
111099,7.15E-03,1.33E-02
111100,8.44E-03,1.72E-02
111101,7.27E-03,1.74E-02
111102,8.24E-03,1.73E-02
111103,8.47E-03,1.72E-02
111104,7.03E-03,8.03E-03
111105,6.85E-03,1.19E-02
111106,8.68E-03,7.43E-03
111107,8.69E-03,7.42E-03
111108,9.27E-03,7.41E-03
111109,9.79E-03,7.39E-03
111110,9.92E-03,7.37E-03
111111,9.67E-03,7.35E-03
111112,9.60E-03,7.32E-03
111113,9.43E-03,7.30E-03
111114,9.19E-03,7.27E-03
111115,8.88E-03,7.24E-03
111116,8.66E-03,7.22E-03
111117,8.18E-03,7.19E-03
111118,7.73E-03,7.16E-03
111119,7.60E-03,7.14E-03
111120,7.57E-03,7.11E-03
111121,7.39E-03,7.09E-03
111122,7.35E-03,7.06E-03
111123,7.21E-03,7.04E-03
111124,7.06E-03,7.02E-03
111125,6.85E-03,7.00E-03
111126,6.57E-03,6.98E-03
111127,6.25E-03,6.96E-03
111128,5.94E-03,6.94E-03
111129,5.38E-03,6.93E-03
111130,5.32E-03,6.92E-03
111131,5.64E-03,6.91E-03
111132,5.84E-03,6.90E-03
111133,5.96E-03,6.89E-03
111134,5.67E-03,6.88E-03
111135,5.29E-03,6.88E-03
111136,6.00E-03,6.87E-03
111137,8.11E-03,8.17E-03
111138,7.85E-03,8.17E-03
111139,7.43E-03,8.19E-03
111140,7.84E-03,2.04E-02
111141,7.98E-03,2.00E-02
111142,8.17E-03,1.96E-02
111143,8.29E-03,1.92E-02
111144,8.40E-03,1.87E-02
111145,8.33E-03,1.83E-02
111146,8.23E-03,1.79E-02
111147,7.92E-03,1.75E-02
111148,5.95E-03,1.68E-02
111149,7.44E-03,1.71E-02
111150,9.94E-03,1.48E-02
111151,8.59E-03,1.61E-02
111152,9.39E-03,1.56E-02
111153,9.57E-03,1.52E-02
111154,6.73E-03,5.14E-03
111155,6.45E-03,5.15E-03
111156,6.21E-03,5.13E-03
111157,5.66E-03,5.18E-03
111158,5.65E-03,2.58E-02
111159,5.70E-03,2.58E-02
111160,5.72E-03,2.59E-02
111161,7.09E-03,2.59E-02
111162,7.12E-03,2.60E-02
111163,7.13E-03,2.60E-02
111164,7.40E-03,2.61E-02
111165,7.49E-03,2.61E-02
111166,7.68E-03,2.61E-02
111167,7.73E-03,2.62E-02
111168,7.77E-03,2.62E-02
111169,7.81E-03,2.63E-02
111170,7.83E-03,2.63E-02
111171,7.86E-03,2.63E-02
111172,7.88E-03,2.64E-02
111173,7.90E-03,2.64E-02
111174,7.91E-03,2.64E-02
111175,7.92E-03,2.65E-02
111176,7.94E-03,2.65E-02
111177,7.95E-03,2.66E-02
111178,7.96E-03,2.66E-02
111179,7.97E-03,2.66E-02
111180,7.98E-03,2.67E-02
111181,7.99E-03,2.67E-02
111182,7.99E-03,2.68E-02
111183,8.00E-03,2.68E-02
111184,8.00E-03,2.69E-02
111185,8.00E-03,2.69E-02
111186,8.00E-03,2.70E-02
111187,8.01E-03,2.71E-02
111188,8.01E-03,2.71E-02
111189,8.01E-03,2.72E-02
111190,8.01E-03,2.73E-02
111191,8.02E-03,2.73E-02
111192,8.02E-03,2.74E-02
111193,8.02E-03,2.75E-02
111194,8.02E-03,2.76E-02
111195,8.02E-03,2.76E-02
111196,8.02E-03,2.77E-02
111197,8.03E-03,2.78E-02
111198,8.03E-03,2.79E-02
111199,8.03E-03,2.80E-02
111200,8.03E-03,2.81E-02
111201,8.03E-03,2.82E-02
111202,8.03E-03,2.82E-02
111203,8.03E-03,2.83E-02
111204,8.03E-03,2.84E-02
111205,8.04E-03,2.85E-02
111206,8.04E-03,2.87E-02
111207,8.04E-03,2.88E-02
111208,8.11E-03,2.89E-02
111209,8.15E-03,2.90E-02
111210,8.20E-03,2.91E-02
111211,8.28E-03,2.93E-02
111212,8.19E-03,2.94E-02
111213,8.04E-03,2.95E-02
111214,7.86E-03,2.97E-02
111215,7.75E-03,2.98E-02
111216,7.58E-03,3.00E-02
111217,7.50E-03,3.01E-02
111218,7.79E-03,3.02E-02
111219,6.78E-03,3.04E-02
111220,7.68E-03,1.08E-02
111221,7.59E-03,1.07E-02
111222,7.32E-03,1.06E-02
111223,7.38E-03,1.06E-02
111224,7.51E-03,1.05E-02
111225,7.60E-03,1.04E-02
111226,7.68E-03,1.03E-02
111227,7.73E-03,1.03E-02
111228,7.78E-03,1.02E-02
111229,7.81E-03,1.01E-02
111230,7.84E-03,1.01E-02
111231,7.87E-03,9.99E-03
111232,7.89E-03,9.93E-03
111233,7.91E-03,9.86E-03
111234,7.93E-03,9.79E-03
111235,7.97E-03,9.73E-03
111236,7.99E-03,9.66E-03
111237,7.99E-03,9.60E-03
111238,7.99E-03,9.54E-03
111239,7.98E-03,9.48E-03
111240,7.98E-03,9.42E-03
111241,7.97E-03,9.37E-03
111242,7.97E-03,9.31E-03
111243,7.96E-03,9.26E-03
111244,7.96E-03,9.21E-03
111245,7.95E-03,9.16E-03
111246,7.94E-03,9.11E-03
111247,7.94E-03,9.06E-03
111248,7.93E-03,9.02E-03
111249,7.92E-03,8.97E-03
111250,7.91E-03,8.93E-03
111251,7.91E-03,8.88E-03
111252,7.90E-03,8.84E-03
111253,7.88E-03,8.80E-03
111254,7.87E-03,8.76E-03
111255,7.86E-03,8.72E-03
111256,7.83E-03,8.68E-03
111257,7.77E-03,8.64E-03
111258,7.71E-03,8.61E-03
111259,7.73E-03,8.57E-03
111260,7.80E-03,8.53E-03
111261,7.90E-03,8.50E-03
111262,8.99E-03,8.39E-03
111263,8.02E-03,8.46E-03
111264,6.01E-03,1.23E-02
111265,5.77E-03,1.24E-02
111266,5.78E-03,1.25E-02
111267,5.95E-03,1.26E-02
111268,1.08E-02,2.59E-02
111269,8.83E-03,2.42E-02
111270,8.44E-03,2.36E-02
111271,8.08E-03,2.31E-02
111272,7.99E-03,2.27E-02
111273,7.89E-03,2.22E-02
111274,8.11E-03,1.51E-02
111275,8.11E-03,1.52E-02
111276,8.11E-03,1.52E-02
111277,8.11E-03,1.53E-02
111278,8.11E-03,1.53E-02
111279,8.11E-03,1.53E-02
111280,8.12E-03,1.54E-02
111281,8.12E-03,1.54E-02
111282,8.13E-03,1.55E-02
111283,8.13E-03,1.55E-02
111284,8.13E-03,1.55E-02
111285,8.13E-03,1.56E-02
111286,8.14E-03,1.56E-02
111287,8.14E-03,1.57E-02
111288,8.14E-03,1.57E-02
111289,8.14E-03,1.57E-02
111290,8.15E-03,1.58E-02
111291,8.15E-03,1.58E-02
111292,8.15E-03,1.59E-02
111293,8.16E-03,1.59E-02
111294,8.16E-03,1.59E-02
111295,8.17E-03,1.60E-02
111296,8.17E-03,1.60E-02
111297,8.18E-03,1.61E-02
111298,8.19E-03,1.61E-02
111299,8.20E-03,1.61E-02
111300,8.20E-03,1.62E-02
111301,8.21E-03,1.62E-02
111302,8.23E-03,1.63E-02
111303,8.24E-03,1.63E-02
111304,8.26E-03,1.63E-02
111305,8.28E-03,1.64E-02
111306,8.31E-03,1.64E-02
111307,8.34E-03,1.65E-02
111308,8.37E-03,1.65E-02
111309,8.42E-03,1.65E-02
111310,8.47E-03,1.66E-02
111311,8.53E-03,1.66E-02
111312,8.62E-03,1.67E-02
111313,8.74E-03,1.67E-02
111314,8.92E-03,1.68E-02
111315,9.19E-03,1.68E-02
111316,9.62E-03,1.69E-02
111317,9.49E-03,1.69E-02
111318,7.86E-03,1.70E-02
111319,6.81E-03,1.70E-02
111320,7.11E-03,1.71E-02
111321,7.31E-03,1.71E-02
111322,7.45E-03,1.72E-02
111323,7.55E-03,1.72E-02
111324,7.63E-03,1.73E-02
111325,7.69E-03,1.73E-02
111326,7.74E-03,1.74E-02
111327,7.78E-03,1.74E-02
111328,7.81E-03,1.74E-02
111329,7.84E-03,1.75E-02
111330,7.86E-03,1.75E-02
111331,7.88E-03,1.76E-02
111332,7.89E-03,1.76E-02
111333,7.91E-03,1.77E-02
111334,7.92E-03,1.77E-02
111335,7.93E-03,1.77E-02
111336,7.94E-03,1.78E-02
111337,7.95E-03,1.78E-02
111338,7.96E-03,1.79E-02
111339,7.97E-03,1.79E-02
111340,7.97E-03,1.79E-02
111341,7.98E-03,1.80E-02
111342,7.98E-03,1.80E-02
111343,7.99E-03,1.81E-02
111344,7.99E-03,1.81E-02
111345,7.98E-03,1.81E-02
111346,7.99E-03,1.82E-02
111347,8.00E-03,1.82E-02
111348,8.02E-03,1.82E-02
111349,8.03E-03,1.83E-02
111350,8.03E-03,1.83E-02
111351,8.04E-03,1.83E-02
111352,8.05E-03,1.84E-02
111353,8.05E-03,1.84E-02
111354,8.05E-03,1.84E-02
111355,8.09E-03,1.85E-02
111356,8.14E-03,1.85E-02
111357,8.17E-03,1.85E-02
111358,8.17E-03,1.85E-02
111359,8.18E-03,1.86E-02
111360,8.18E-03,1.86E-02
111361,8.19E-03,1.86E-02
111362,8.20E-03,1.86E-02
111363,8.21E-03,1.87E-02
111364,8.22E-03,1.87E-02
111365,8.23E-03,1.87E-02
111366,8.24E-03,1.87E-02
111367,8.25E-03,1.87E-02
111368,8.27E-03,1.88E-02
111369,8.29E-03,1.88E-02
111370,8.31E-03,1.88E-02
111371,8.33E-03,1.88E-02
111372,8.37E-03,1.88E-02
111373,8.40E-03,1.89E-02
111374,8.45E-03,1.89E-02
111375,8.51E-03,1.89E-02
111376,8.90E-03,1.89E-02
111377,9.02E-03,1.90E-02
111378,9.16E-03,1.90E-02
111379,9.23E-03,1.90E-02
111380,9.36E-03,1.91E-02
111381,9.18E-03,1.91E-02
111382,8.74E-03,1.92E-02
111383,9.69E-03,1.17E-02
111384,9.88E-03,6.16E-03
111385,9.94E-03,6.20E-03
111386,6.97E-03,6.24E-03
111387,6.99E-03,6.29E-03
111388,6.74E-03,6.35E-03
111389,6.41E-03,6.42E-03
111390,6.28E-03,6.48E-03
111391,6.21E-03,6.47E-03
111392,6.51E-03,6.52E-03
111393,5.66E-03,1.76E-02
111394,7.03E-03,1.77E-02
111395,8.23E-03,1.15E-02
111396,1.08E-02,1.16E-02
111397,1.04E-02,1.17E-02
111398,1.02E-02,1.18E-02
111399,1.00E-02,1.19E-02
111400,9.67E-03,1.20E-02
111401,9.48E-03,1.21E-02
111402,9.20E-03,1.22E-02
111403,8.98E-03,1.22E-02
111404,8.83E-03,1.23E-02
111405,8.71E-03,1.24E-02
111406,8.63E-03,1.25E-02
111407,8.55E-03,1.26E-02
111408,8.45E-03,1.27E-02
111409,8.39E-03,1.28E-02
111410,8.46E-03,1.29E-02
111411,8.62E-03,1.30E-02
111412,8.73E-03,1.31E-02
111413,8.33E-03,1.32E-02
111414,7.91E-03,1.33E-02
111415,7.88E-03,1.34E-02
111416,7.88E-03,1.35E-02
111417,7.88E-03,1.36E-02
111418,7.86E-03,1.37E-02
111419,7.78E-03,1.38E-02
111420,7.73E-03,1.39E-02
111421,7.17E-03,1.40E-02
111422,7.14E-03,1.41E-02
111423,7.06E-03,1.42E-02
111424,6.94E-03,1.43E-02
111425,6.83E-03,1.44E-02
111426,6.79E-03,1.45E-02
111427,7.06E-03,1.46E-02
111428,9.16E-03,1.47E-02
111429,9.64E-03,1.48E-02
111430,1.07E-02,1.49E-02
111431,1.10E-02,1.51E-02
111432,1.12E-02,1.52E-02
111433,1.16E-02,1.55E-02
111434,1.12E-02,1.56E-02
111435,1.08E-02,1.58E-02
111436,1.04E-02,1.59E-02
111437,9.91E-03,1.61E-02
111438,9.28E-03,1.62E-02
111439,9.16E-03,1.64E-02
111440,9.02E-03,1.65E-02
111441,8.83E-03,1.66E-02
111442,8.62E-03,1.68E-02
111443,8.47E-03,1.69E-02
111444,8.40E-03,1.70E-02
111445,8.32E-03,1.72E-02
111446,8.27E-03,1.73E-02
111447,8.32E-03,1.74E-02
111448,8.66E-03,1.75E-02
111449,8.03E-03,7.60E-03
111450,8.16E-03,2.89E-02
111451,5.30E-03,7.90E-03
111452,6.89E-03,1.62E-02
111453,8.83E-03,1.79E-02
111454,7.55E-03,6.85E-03
111455,7.79E-03,6.84E-03
111456,9.82E-03,6.84E-03
111457,1.02E-02,6.82E-03
111458,1.02E-02,6.80E-03
111459,1.00E-02,6.78E-03
111460,9.15E-03,6.76E-03
111461,7.97E-03,6.74E-03
111462,7.20E-03,6.72E-03
111463,6.94E-03,6.70E-03
111464,6.78E-03,6.68E-03
111465,6.59E-03,6.66E-03
111466,6.34E-03,6.65E-03
111467,6.01E-03,6.64E-03
111468,5.58E-03,6.63E-03
111469,5.67E-03,6.62E-03
111470,6.49E-03,6.62E-03
111471,6.65E-03,6.61E-03
111472,6.64E-03,6.61E-03
111473,6.55E-03,6.61E-03
111474,6.50E-03,6.61E-03
111475,7.68E-03,6.61E-03
111476,9.41E-03,6.62E-03
111477,9.85E-03,6.62E-03
111478,9.63E-03,6.62E-03
111479,9.44E-03,6.62E-03
111480,9.23E-03,6.62E-03
111481,8.80E-03,6.61E-03
111482,8.45E-03,6.61E-03
111483,8.15E-03,6.60E-03
111484,8.04E-03,6.60E-03
111485,8.09E-03,6.59E-03
111486,8.10E-03,6.59E-03
111487,8.24E-03,6.58E-03
111488,9.31E-03,6.58E-03
111489,1.02E-02,6.57E-03
111490,9.85E-03,6.56E-03
111491,9.44E-03,6.55E-03
111492,9.17E-03,6.53E-03
111493,9.18E-03,6.52E-03
111494,9.43E-03,6.50E-03
111495,9.85E-03,6.48E-03
111496,1.04E-02,6.46E-03
111497,1.06E-02,6.43E-03
111498,1.01E-02,6.40E-03
111499,9.64E-03,6.37E-03
111500,9.34E-03,6.33E-03
111501,9.12E-03,6.29E-03
111502,9.02E-03,6.25E-03
111503,9.01E-03,6.21E-03
111504,8.87E-03,6.17E-03
111505,8.64E-03,6.13E-03
111506,8.51E-03,6.09E-03
111507,8.42E-03,6.05E-03
111508,8.36E-03,6.01E-03
111509,8.31E-03,5.96E-03
111510,8.28E-03,5.92E-03
111511,8.26E-03,5.88E-03
111512,8.16E-03,5.83E-03
111513,7.93E-03,5.79E-03
111514,7.78E-03,5.75E-03
111515,7.76E-03,5.71E-03
111516,7.74E-03,5.67E-03
111517,7.71E-03,5.62E-03
111518,7.68E-03,5.58E-03
111519,7.64E-03,5.54E-03
111520,7.60E-03,5.51E-03
111521,7.56E-03,5.47E-03
111522,7.50E-03,5.43E-03
111523,7.44E-03,5.39E-03
111524,7.36E-03,5.36E-03
111525,7.27E-03,5.32E-03
111526,7.15E-03,5.29E-03
111527,6.98E-03,5.26E-03
111528,6.95E-03,5.23E-03
111529,7.11E-03,5.20E-03
111530,7.27E-03,5.17E-03
111531,7.28E-03,5.15E-03
111532,7.19E-03,5.12E-03
111533,7.08E-03,5.10E-03
111534,6.91E-03,5.08E-03
111535,6.62E-03,5.06E-03
111536,6.56E-03,5.04E-03
111537,6.89E-03,5.02E-03
111538,7.41E-03,5.01E-03
111539,7.66E-03,5.00E-03
111540,7.76E-03,4.99E-03
111541,7.89E-03,4.98E-03
111542,8.03E-03,4.97E-03
111543,8.17E-03,4.96E-03
111544,8.31E-03,4.90E-03
111545,6.61E-03,4.87E-03
111546,6.85E-03,4.89E-03
111547,7.12E-03,4.87E-03
111548,5.63E-03,8.18E-03
111549,7.40E-03,8.14E-03
111550,8.20E-03,8.04E-03
111551,7.64E-03,7.65E-03
111552,6.50E-03,8.67E-03
111553,6.90E-03,8.43E-03
111554,6.27E-03,8.77E-03
111555,7.09E-03,8.78E-03
111556,6.80E-03,1.86E-02
111557,6.76E-03,1.94E-02
111558,6.73E-03,8.36E-03
111559,8.10E-03,9.25E-03
111560,8.08E-03,9.37E-03
111561,8.24E-03,9.84E-03
111562,7.45E-03,1.30E-02
111563,6.44E-03,1.17E-02
111564,6.77E-03,1.17E-02
111565,6.71E-03,1.16E-02
111566,8.73E-03,7.27E-03
111567,8.62E-03,8.03E-03
111568,6.84E-03,1.63E-02
111569,7.07E-03,4.86E-03
111570,8.95E-03,5.10E-03
111571,6.01E-03,1.94E-02
111572,6.11E-03,1.95E-02
111573,6.17E-03,1.96E-02
111574,5.88E-03,1.96E-02
111575,5.79E-03,1.97E-02
111576,5.90E-03,1.97E-02
111577,5.95E-03,1.98E-02
111578,6.05E-03,1.98E-02
111579,6.66E-03,1.99E-02
111580,8.21E-03,1.99E-02
111581,8.14E-03,2.00E-02
111582,8.79E-03,2.01E-02
111583,8.88E-03,2.01E-02
111584,8.98E-03,2.02E-02
111585,9.31E-03,2.02E-02
111586,9.30E-03,2.03E-02
111587,9.32E-03,2.04E-02
111588,9.25E-03,2.05E-02
111589,8.27E-03,2.05E-02
111590,6.64E-03,2.06E-02
111591,6.35E-03,2.06E-02
111592,6.29E-03,2.07E-02
111593,5.85E-03,2.07E-02
111594,5.92E-03,2.08E-02
111595,6.04E-03,2.08E-02
111596,6.32E-03,2.08E-02
111597,6.84E-03,2.09E-02
111598,6.95E-03,2.09E-02
111599,7.48E-03,2.09E-02
111600,7.52E-03,2.09E-02
111601,7.64E-03,2.10E-02
111602,7.70E-03,2.10E-02
111603,7.74E-03,2.10E-02
111604,7.78E-03,2.11E-02
111605,7.81E-03,2.11E-02
111606,7.83E-03,2.11E-02
111607,7.85E-03,2.11E-02
111608,7.87E-03,2.12E-02
111609,7.85E-03,2.12E-02
111610,7.85E-03,2.12E-02
111611,7.92E-03,2.12E-02
111612,7.97E-03,2.12E-02
111613,8.00E-03,2.13E-02
111614,8.02E-03,2.13E-02
111615,8.03E-03,2.13E-02
111616,8.04E-03,2.13E-02
111617,8.09E-03,2.14E-02
111618,8.15E-03,2.14E-02
111619,8.17E-03,2.14E-02
111620,8.17E-03,2.14E-02
111621,8.17E-03,2.14E-02
111622,8.18E-03,2.15E-02
111623,8.18E-03,2.15E-02
111624,8.19E-03,2.15E-02
111625,8.19E-03,2.15E-02
111626,8.20E-03,2.15E-02
111627,8.21E-03,2.16E-02
111628,8.21E-03,2.16E-02
111629,8.22E-03,2.16E-02
111630,8.23E-03,2.16E-02
111631,8.23E-03,2.16E-02
111632,8.24E-03,2.17E-02
111633,8.25E-03,2.17E-02
111634,8.26E-03,2.17E-02
111635,8.27E-03,2.17E-02
111636,8.29E-03,2.17E-02
111637,8.30E-03,2.17E-02
111638,8.32E-03,2.17E-02
111639,8.33E-03,2.17E-02
111640,8.35E-03,2.17E-02
111641,8.38E-03,2.17E-02
111642,8.40E-03,2.17E-02
111643,8.43E-03,2.17E-02
111644,8.47E-03,2.18E-02
111645,8.51E-03,2.18E-02
111646,8.54E-03,2.18E-02
111647,8.56E-03,2.18E-02
111648,8.58E-03,2.18E-02
111649,8.60E-03,2.18E-02
111650,8.61E-03,2.18E-02
111651,8.68E-03,2.18E-02
111652,8.89E-03,2.18E-02
111653,9.02E-03,2.18E-02
111654,9.10E-03,2.18E-02
111655,9.27E-03,2.18E-02
111656,9.49E-03,2.18E-02
111657,9.83E-03,2.19E-02
111658,1.01E-02,2.19E-02
111659,1.04E-02,2.20E-02
111660,1.06E-02,2.20E-02
111661,1.09E-02,2.21E-02
111662,1.09E-02,2.22E-02
111663,1.07E-02,2.23E-02
111664,1.05E-02,2.24E-02
111665,1.06E-02,2.25E-02
111666,1.11E-02,2.26E-02
111667,1.02E-02,2.28E-02
111668,9.03E-03,2.29E-02
111669,8.55E-03,2.30E-02
111670,7.91E-03,2.31E-02
111671,7.81E-03,2.32E-02
111672,7.37E-03,2.33E-02
111673,6.92E-03,2.34E-02
111674,6.05E-03,2.35E-02
111675,5.47E-03,2.36E-02
111676,5.60E-03,2.36E-02
111677,5.61E-03,2.37E-02
111678,5.56E-03,2.37E-02
111679,5.38E-03,2.38E-02
111680,5.07E-03,2.38E-02
111681,5.06E-03,2.38E-02
111682,5.12E-03,2.38E-02
111683,5.92E-03,2.39E-02
111684,6.38E-03,2.39E-02
111685,6.75E-03,2.39E-02
111686,7.13E-03,2.39E-02
111687,7.16E-03,2.39E-02
111688,7.28E-03,2.39E-02
111689,7.29E-03,2.39E-02
111690,7.29E-03,2.39E-02
111691,7.29E-03,2.39E-02
111692,7.53E-03,2.39E-02
111693,7.95E-03,2.39E-02
111694,8.13E-03,2.39E-02
111695,8.14E-03,2.38E-02
111696,8.14E-03,2.38E-02
111697,8.15E-03,2.38E-02
111698,8.21E-03,2.38E-02
111699,8.28E-03,2.38E-02
111700,8.33E-03,2.38E-02
111701,8.35E-03,2.37E-02
111702,8.36E-03,2.37E-02
111703,8.37E-03,2.37E-02
111704,8.39E-03,2.37E-02
111705,8.41E-03,2.37E-02
111706,8.43E-03,2.37E-02
111707,8.46E-03,2.37E-02
111708,8.48E-03,2.36E-02
111709,8.51E-03,2.36E-02
111710,8.55E-03,2.36E-02
111711,8.59E-03,2.36E-02
111712,8.63E-03,2.37E-02
111713,8.69E-03,2.37E-02
111714,8.75E-03,2.37E-02
111715,8.81E-03,2.37E-02
111716,8.89E-03,2.37E-02
111717,8.95E-03,2.38E-02
111718,9.02E-03,2.38E-02
111719,9.12E-03,2.39E-02
111720,9.23E-03,2.39E-02
111721,9.37E-03,2.40E-02
111722,9.53E-03,2.41E-02
111723,9.73E-03,2.42E-02
111724,9.98E-03,2.43E-02
111725,1.03E-02,2.44E-02
111726,1.03E-02,2.46E-02
111727,1.01E-02,2.47E-02
111728,1.02E-02,2.49E-02
111729,1.03E-02,2.50E-02
111730,1.09E-02,2.52E-02
111731,1.06E-02,2.54E-02
111732,5.70E-03,2.55E-02
111733,5.49E-03,2.56E-02
111734,5.46E-03,2.57E-02
111735,5.31E-03,2.58E-02
111736,5.52E-03,2.59E-02
111737,5.79E-03,2.60E-02
111738,5.89E-03,2.61E-02
111739,8.58E-03,1.08E-02
111740,7.25E-03,8.30E-03
111741,6.23E-03,1.18E-02
111742,6.82E-03,1.25E-02
111743,6.57E-03,1.24E-02
111744,6.37E-03,1.23E-02
111745,8.83E-03,2.59E-02
111746,7.92E-03,2.13E-02
111747,6.68E-03,1.94E-02
111748,6.88E-03,1.16E-02
111749,8.72E-03,5.79E-03
111750,5.72E-03,6.10E-03
111751,7.68E-03,1.11E-02
111752,4.79E-03,6.53E-03
111753,6.97E-03,6.41E-03
111754,7.73E-03,1.11E-02
111755,7.61E-03,1.10E-02
111756,6.89E-03,1.75E-02
111757,6.29E-03,1.76E-02
111758,9.00E-03,1.71E-02
111759,6.99E-03,3.13E-02
111760,6.82E-03,1.77E-02
111761,7.08E-03,3.12E-02
111762,9.81E-03,8.60E-03
111763,1.04E-02,8.51E-03
111764,8.11E-03,1.50E-02
111765,8.12E-03,1.50E-02
111766,8.12E-03,1.49E-02
111767,8.12E-03,1.49E-02
111768,8.12E-03,1.48E-02
111769,8.12E-03,1.48E-02
111770,8.12E-03,1.47E-02
111771,8.12E-03,1.47E-02
111772,8.12E-03,1.46E-02
111773,8.12E-03,1.46E-02
111774,8.12E-03,1.45E-02
111775,8.12E-03,1.45E-02
111776,8.12E-03,1.45E-02
111777,8.12E-03,1.44E-02
111778,8.12E-03,1.44E-02
111779,8.12E-03,1.43E-02
111780,8.12E-03,1.43E-02
111781,8.13E-03,1.42E-02
111782,8.13E-03,1.42E-02
111783,8.13E-03,1.41E-02
111784,8.13E-03,1.41E-02
111785,8.13E-03,1.40E-02
111786,8.13E-03,1.40E-02
111787,8.13E-03,1.39E-02
111788,8.13E-03,1.39E-02
111789,8.14E-03,1.38E-02
111790,8.14E-03,1.38E-02
111791,8.14E-03,1.37E-02
111792,8.14E-03,1.37E-02
111793,8.15E-03,1.36E-02
111794,8.15E-03,1.36E-02
111795,8.16E-03,1.35E-02
111796,8.16E-03,1.35E-02
111797,8.16E-03,1.34E-02
111798,8.16E-03,1.34E-02
111799,8.17E-03,1.33E-02
111800,8.17E-03,1.32E-02
111801,8.18E-03,1.32E-02
111802,8.18E-03,1.31E-02
111803,8.19E-03,1.31E-02
111804,8.19E-03,1.30E-02
111805,8.20E-03,1.30E-02
111806,8.21E-03,1.29E-02
111807,8.22E-03,1.29E-02
111808,8.23E-03,1.28E-02
111809,8.24E-03,1.27E-02
111810,8.25E-03,1.27E-02
111811,8.26E-03,1.26E-02
111812,8.27E-03,1.26E-02
111813,8.29E-03,1.25E-02
111814,8.31E-03,1.24E-02
111815,8.33E-03,1.24E-02
111816,8.36E-03,1.23E-02
111817,8.39E-03,1.23E-02
111818,8.43E-03,1.22E-02
111819,8.47E-03,1.22E-02
111820,8.53E-03,1.21E-02
111821,8.60E-03,1.20E-02
111822,8.70E-03,1.20E-02
111823,8.82E-03,1.19E-02
111824,9.00E-03,1.19E-02
111825,9.26E-03,1.18E-02
111826,9.68E-03,1.17E-02
111827,1.04E-02,1.17E-02
111828,1.05E-02,1.16E-02
111829,9.38E-03,1.15E-02
111830,8.54E-03,1.15E-02
111831,8.57E-03,1.14E-02
111832,8.62E-03,1.14E-02
111833,8.68E-03,1.13E-02
111834,8.75E-03,1.12E-02
111835,8.83E-03,1.12E-02
111836,8.94E-03,1.11E-02
111837,9.08E-03,1.11E-02
111838,9.25E-03,1.10E-02
111839,9.49E-03,1.09E-02
111840,9.80E-03,1.09E-02
111841,9.51E-03,1.08E-02
111842,8.54E-03,1.07E-02
111843,6.53E-03,1.06E-02
111844,5.36E-03,1.06E-02
111845,6.13E-03,1.06E-02
111846,6.72E-03,1.05E-02
111847,6.96E-03,1.05E-02
111848,7.18E-03,1.04E-02
111849,7.24E-03,1.04E-02
111850,7.39E-03,1.03E-02
111851,7.47E-03,1.02E-02
111852,7.54E-03,1.02E-02
111853,7.60E-03,1.01E-02
111854,7.67E-03,1.01E-02
111855,7.75E-03,1.00E-02
111856,7.79E-03,1.00E-02
111857,7.79E-03,9.96E-03
111858,7.79E-03,9.92E-03
111859,8.17E-03,9.88E-03
111860,8.68E-03,9.84E-03
111861,8.70E-03,9.80E-03
111862,8.53E-03,9.77E-03
111863,8.43E-03,9.74E-03
111864,8.48E-03,9.72E-03
111865,8.60E-03,9.70E-03
111866,8.67E-03,9.68E-03
111867,8.75E-03,9.67E-03
111868,8.85E-03,9.66E-03
111869,8.97E-03,9.66E-03
111870,9.13E-03,9.66E-03
111871,9.42E-03,9.67E-03
111872,9.71E-03,9.69E-03
111873,9.67E-03,9.71E-03
111874,9.04E-03,9.74E-03
111875,8.19E-03,9.77E-03
111876,7.81E-03,9.81E-03
111877,7.81E-03,9.85E-03
111878,7.81E-03,9.90E-03
111879,7.82E-03,9.96E-03
111880,7.83E-03,1.00E-02
111881,7.84E-03,1.01E-02
111882,7.84E-03,1.02E-02
111883,7.85E-03,1.03E-02
111884,7.87E-03,1.04E-02
111885,7.88E-03,1.05E-02
111886,7.89E-03,1.06E-02
111887,7.89E-03,1.07E-02
111888,7.90E-03,1.08E-02
111889,7.91E-03,1.09E-02
111890,7.91E-03,1.11E-02
111891,8.04E-03,1.12E-02
111892,8.19E-03,1.14E-02
111893,8.35E-03,1.15E-02
111894,8.66E-03,1.17E-02
111895,9.02E-03,1.18E-02
111896,9.91E-03,1.20E-02
111897,7.54E-03,5.20E-03
111898,8.03E-03,5.60E-03
111899,9.34E-03,5.60E-03
111900,8.40E-03,7.93E-03
111901,8.18E-03,7.93E-03
111902,7.55E-03,7.82E-03
111903,5.37E-03,8.14E-03
111904,5.65E-03,6.67E-03
111905,6.69E-03,6.66E-03
111906,8.18E-03,6.70E-03
111907,7.24E-03,7.41E-03
111908,7.89E-03,7.16E-03
111909,7.77E-03,7.96E-03
111910,7.65E-03,2.04E-02
111911,8.17E-03,1.78E-02
111912,9.34E-03,1.77E-02
111913,8.20E-03,7.95E-03
111914,7.72E-03,7.23E-03
111915,5.02E-03,7.41E-03
111916,5.31E-03,7.33E-03
111917,8.29E-03,1.89E-02
111918,6.24E-03,1.88E-02
111919,6.73E-03,8.30E-03
111920,6.36E-03,8.28E-03
111921,6.99E-03,9.65E-03
111922,8.72E-03,1.34E-02
111923,8.34E-03,1.32E-02
111924,7.94E-03,1.30E-02
111925,7.62E-03,1.28E-02
111926,7.77E-03,2.58E-02
111927,8.87E-03,1.81E-02
111928,8.90E-03,1.82E-02
111929,9.02E-03,1.83E-02
111930,1.05E-02,1.83E-02
111931,9.92E-03,1.84E-02
111932,9.71E-03,1.85E-02
111933,9.68E-03,1.85E-02
111934,9.41E-03,1.86E-02
111935,9.32E-03,1.87E-02
111936,9.23E-03,1.87E-02
111937,9.16E-03,1.88E-02
111938,9.09E-03,1.89E-02
111939,9.05E-03,1.90E-02
111940,9.10E-03,1.90E-02
111941,9.11E-03,1.91E-02
111942,9.10E-03,1.92E-02
111943,9.11E-03,1.93E-02
111944,1.03E-02,1.95E-02
111945,6.98E-03,1.97E-02
111946,8.02E-03,6.75E-03
111947,6.72E-03,5.10E-03
111948,8.13E-03,1.52E-02
111949,8.10E-03,1.51E-02
111950,8.07E-03,6.38E-03
111951,7.97E-03,2.80E-02
111952,7.32E-03,6.65E-03
111953,5.13E-03,8.06E-03
111954,7.98E-03,7.80E-03
111955,6.65E-03,1.94E-02
111956,6.30E-03,1.95E-02
111957,8.22E-03,1.07E-02
111958,8.85E-03,5.74E-03
111959,8.55E-03,5.63E-03
111960,9.36E-03,5.50E-03
111961,7.35E-03,2.93E-02
111962,6.84E-03,5.03E-03
111963,7.62E-03,2.70E-02
111964,9.29E-03,1.68E-02
111965,9.33E-03,1.67E-02
111966,9.42E-03,1.66E-02
111967,9.31E-03,1.65E-02
111968,9.26E-03,1.64E-02
111969,9.02E-03,1.64E-02
111970,8.83E-03,1.63E-02
111971,8.85E-03,1.62E-02
111972,8.90E-03,1.61E-02
111973,8.96E-03,1.60E-02
111974,9.03E-03,1.59E-02
111975,9.08E-03,1.58E-02
111976,9.11E-03,1.57E-02
111977,9.12E-03,1.56E-02
111978,9.12E-03,1.55E-02
111979,9.12E-03,1.54E-02
111980,9.14E-03,1.53E-02
111981,9.16E-03,1.52E-02
111982,9.18E-03,1.51E-02
111983,9.20E-03,1.50E-02
111984,9.21E-03,1.49E-02
111985,9.23E-03,1.48E-02
111986,9.25E-03,1.47E-02
111987,9.26E-03,1.46E-02
111988,9.28E-03,1.45E-02
111989,9.30E-03,1.43E-02
111990,9.32E-03,1.42E-02
111991,9.34E-03,1.41E-02
111992,9.36E-03,1.40E-02
111993,9.38E-03,1.38E-02
111994,9.41E-03,1.37E-02
111995,9.43E-03,1.36E-02
111996,9.37E-03,1.34E-02
111997,9.36E-03,1.33E-02
111998,9.24E-03,1.31E-02
111999,9.22E-03,1.30E-02
112000,9.17E-03,1.28E-02
112001,9.21E-03,1.27E-02
112002,9.32E-03,1.25E-02
112003,9.83E-03,1.24E-02
112004,6.54E-03,1.21E-02
112005,6.78E-03,1.22E-02
112006,6.16E-03,1.22E-02
112007,5.64E-03,5.51E-03
112008,6.23E-03,6.44E-03
112009,6.17E-03,6.22E-03
112010,7.61E-03,8.20E-03
112011,8.21E-03,1.80E-02
112012,8.69E-03,1.82E-02
112013,7.22E-03,8.46E-03
112014,7.91E-03,7.61E-03
112015,8.65E-03,1.12E-02
112016,8.25E-03,1.11E-02
112017,7.44E-03,1.11E-02
112018,6.59E-03,1.09E-02
112019,7.30E-03,7.56E-03
112020,8.70E-03,8.02E-03
112021,8.90E-03,8.01E-03
112022,9.05E-03,7.99E-03
112023,9.11E-03,7.98E-03
112024,8.96E-03,7.96E-03
112025,8.86E-03,7.95E-03
112026,7.93E-03,7.94E-03
112027,6.63E-03,7.92E-03
112028,6.53E-03,7.91E-03
112029,6.65E-03,7.90E-03
112030,6.42E-03,7.89E-03
112031,6.33E-03,7.88E-03
112032,6.00E-03,7.87E-03
112033,5.58E-03,7.87E-03
112034,5.47E-03,7.86E-03
112035,5.66E-03,7.86E-03
112036,6.07E-03,7.86E-03
112037,7.52E-03,7.85E-03
112038,7.69E-03,7.85E-03
112039,8.05E-03,7.84E-03
112040,8.04E-03,7.83E-03
112041,7.74E-03,7.83E-03
112042,7.30E-03,7.82E-03
112043,7.08E-03,7.81E-03
112044,6.89E-03,7.81E-03
112045,6.63E-03,7.80E-03
112046,6.28E-03,7.80E-03
112047,7.88E-03,7.79E-03
112048,8.78E-03,7.79E-03
112049,1.04E-02,7.78E-03
112050,1.07E-02,7.77E-03
112051,1.05E-02,7.76E-03
112052,1.02E-02,7.75E-03
112053,9.50E-03,7.73E-03
112054,8.46E-03,7.72E-03
112055,7.63E-03,7.71E-03
112056,7.05E-03,7.70E-03
112057,5.93E-03,7.69E-03
112058,5.43E-03,7.68E-03
112059,5.34E-03,7.67E-03
112060,5.60E-03,7.67E-03
112061,8.51E-03,7.66E-03
112062,9.49E-03,7.66E-03
112063,1.10E-02,7.65E-03
112064,1.08E-02,7.65E-03
112065,1.01E-02,7.63E-03
112066,8.95E-03,7.62E-03
112067,6.92E-03,7.61E-03
112068,6.71E-03,7.60E-03
112069,6.64E-03,7.59E-03
112070,6.63E-03,7.58E-03
112071,6.93E-03,7.56E-03
112072,9.64E-03,7.74E-03
112073,8.56E-03,7.85E-03
112074,7.91E-03,7.94E-03
112075,7.81E-03,8.03E-03
112076,7.75E-03,8.12E-03
112077,7.47E-03,8.30E-03
112078,7.61E-03,8.21E-03
112079,7.89E-03,8.85E-03
112080,8.07E-03,9.15E-03
112081,8.14E-03,9.04E-03
112082,8.20E-03,8.92E-03
112083,6.61E-03,7.41E-03
112084,7.42E-03,7.38E-03
112085,7.75E-03,7.37E-03
112086,7.16E-03,7.36E-03
112087,6.59E-03,7.34E-03
112088,6.52E-03,7.33E-03
112089,6.57E-03,7.31E-03
112090,6.99E-03,7.28E-03
112091,8.67E-03,7.28E-03
112092,7.94E-03,7.29E-03
112093,7.98E-03,7.32E-03
112094,8.04E-03,7.30E-03
112095,7.57E-03,1.80E-02
112096,7.69E-03,1.81E-02
112097,7.10E-03,1.85E-02
112098,7.16E-03,1.84E-02
112099,7.29E-03,1.83E-02
112100,7.32E-03,1.82E-02
112101,7.73E-03,1.90E-02
112102,7.39E-03,1.93E-02
112103,7.60E-03,1.92E-02
112104,7.64E-03,8.36E-03
112105,8.22E-03,9.50E-03
112106,8.40E-03,9.66E-03
112107,6.89E-03,9.87E-03
112108,8.89E-03,9.92E-03
112109,8.85E-03,9.98E-03
112110,8.92E-03,1.01E-02
112111,8.80E-03,1.01E-02
112112,8.77E-03,1.02E-02
112113,8.34E-03,1.03E-02
112114,8.24E-03,1.03E-02
112115,8.17E-03,1.04E-02
112116,7.98E-03,1.04E-02
112117,7.84E-03,1.05E-02
112118,7.75E-03,1.06E-02
112119,7.64E-03,1.06E-02
112120,7.48E-03,1.07E-02
112121,7.30E-03,1.07E-02
112122,6.71E-03,1.08E-02
112123,6.37E-03,1.08E-02
112124,6.96E-03,1.26E-02
112125,7.40E-03,1.29E-02
112126,7.11E-03,1.27E-02
112127,7.31E-03,1.75E-02
112128,8.47E-03,1.74E-02
112129,8.68E-03,1.72E-02
112130,8.71E-03,1.73E-02
112131,6.79E-03,8.01E-03
112132,7.38E-03,7.99E-03
112133,8.15E-03,1.14E-02
112134,7.54E-03,1.15E-02
112135,7.38E-03,1.15E-02
112136,8.25E-03,7.28E-03
112137,8.73E-03,7.27E-03
112138,8.90E-03,7.24E-03
112139,9.84E-03,7.23E-03
112140,9.88E-03,7.20E-03
112141,9.61E-03,7.18E-03
112142,9.57E-03,7.16E-03
112143,9.29E-03,7.13E-03
112144,9.20E-03,7.10E-03
112145,8.85E-03,7.07E-03
112146,8.64E-03,7.05E-03
112147,8.18E-03,7.02E-03
112148,7.74E-03,6.99E-03
112149,7.62E-03,6.96E-03
112150,7.59E-03,6.94E-03
112151,7.47E-03,6.91E-03
112152,7.41E-03,6.89E-03
112153,7.29E-03,6.86E-03
112154,7.15E-03,6.84E-03
112155,6.95E-03,6.81E-03
112156,6.69E-03,6.79E-03
112157,6.35E-03,6.78E-03
112158,5.89E-03,6.76E-03
112159,5.28E-03,6.75E-03
112160,5.30E-03,6.73E-03
112161,5.71E-03,6.72E-03
112162,6.02E-03,6.71E-03
112163,6.04E-03,6.70E-03
112164,5.89E-03,6.69E-03
112165,5.70E-03,6.69E-03
112166,5.86E-03,6.68E-03
112167,8.53E-03,8.04E-03
112168,8.26E-03,8.05E-03
112169,8.55E-03,8.07E-03
112170,7.80E-03,2.00E-02
112171,7.99E-03,1.96E-02
112172,8.15E-03,1.91E-02
112173,8.25E-03,1.87E-02
112174,8.36E-03,1.83E-02
112175,8.34E-03,1.79E-02
112176,8.29E-03,1.74E-02
112177,8.01E-03,1.70E-02
112178,7.76E-03,1.66E-02
112179,1.02E-02,1.58E-02
112180,9.50E-03,1.52E-02
112181,9.86E-03,1.48E-02
112182,7.15E-03,4.85E-03
112183,7.02E-03,4.85E-03
112184,7.24E-03,4.85E-03
112185,8.88E-03,4.94E-03
112186,5.88E-03,2.61E-02
112187,5.91E-03,2.62E-02
112188,5.89E-03,2.62E-02
112189,7.08E-03,2.63E-02
112190,7.14E-03,2.63E-02
112191,7.15E-03,2.64E-02
112192,7.41E-03,2.64E-02
112193,7.59E-03,2.65E-02
112194,7.69E-03,2.65E-02
112195,7.74E-03,2.65E-02
112196,7.78E-03,2.66E-02
112197,7.82E-03,2.66E-02
112198,7.84E-03,2.67E-02
112199,7.87E-03,2.67E-02
112200,7.89E-03,2.67E-02
112201,7.90E-03,2.68E-02
112202,7.92E-03,2.68E-02
112203,7.93E-03,2.69E-02
112204,7.94E-03,2.69E-02
112205,7.95E-03,2.69E-02
112206,7.96E-03,2.70E-02
112207,7.97E-03,2.70E-02
112208,7.98E-03,2.71E-02
112209,7.99E-03,2.71E-02
112210,8.00E-03,2.72E-02
112211,8.00E-03,2.72E-02
112212,8.00E-03,2.73E-02
112213,8.00E-03,2.74E-02
112214,8.01E-03,2.74E-02
112215,8.01E-03,2.75E-02
112216,8.01E-03,2.76E-02
112217,8.01E-03,2.76E-02
112218,8.02E-03,2.77E-02
112219,8.02E-03,2.78E-02
112220,8.02E-03,2.79E-02
112221,8.02E-03,2.80E-02
112222,8.02E-03,2.80E-02
112223,8.02E-03,2.81E-02
112224,8.03E-03,2.82E-02
112225,8.03E-03,2.83E-02
112226,8.03E-03,2.84E-02
112227,8.03E-03,2.85E-02
112228,8.03E-03,2.86E-02
112229,8.03E-03,2.87E-02
112230,8.03E-03,2.88E-02
112231,8.04E-03,2.89E-02
112232,8.04E-03,2.90E-02
112233,8.04E-03,2.91E-02
112234,8.04E-03,2.92E-02
112235,8.04E-03,2.94E-02
112236,8.04E-03,2.95E-02
112237,8.12E-03,2.96E-02
112238,8.12E-03,2.97E-02
112239,8.12E-03,2.99E-02
112240,8.11E-03,3.00E-02
112241,7.98E-03,3.01E-02
112242,7.89E-03,3.03E-02
112243,7.82E-03,3.05E-02
112244,7.72E-03,3.06E-02
112245,7.71E-03,3.08E-02
112246,7.69E-03,3.10E-02
112247,7.09E-03,3.12E-02
112248,6.61E-03,5.31E-03
112249,7.56E-03,5.32E-03
112250,7.80E-03,1.07E-02
112251,7.52E-03,1.06E-02
112252,7.36E-03,1.05E-02
112253,7.41E-03,1.05E-02
112254,7.53E-03,1.04E-02
112255,7.62E-03,1.03E-02
112256,7.69E-03,1.02E-02
112257,7.75E-03,1.02E-02
112258,7.79E-03,1.01E-02
112259,7.82E-03,1.00E-02
112260,7.85E-03,9.95E-03
112261,7.88E-03,9.88E-03
112262,7.90E-03,9.81E-03
112263,7.91E-03,9.74E-03
112264,7.94E-03,9.68E-03
112265,7.97E-03,9.61E-03
112266,8.00E-03,9.55E-03
112267,7.99E-03,9.48E-03
112268,7.99E-03,9.42E-03
112269,7.99E-03,9.36E-03
112270,7.98E-03,9.30E-03
112271,7.98E-03,9.25E-03
112272,7.97E-03,9.19E-03
112273,7.97E-03,9.14E-03
112274,7.96E-03,9.09E-03
112275,7.96E-03,9.04E-03
112276,7.95E-03,8.99E-03
112277,7.94E-03,8.94E-03
112278,7.94E-03,8.89E-03
112279,7.93E-03,8.85E-03
112280,7.92E-03,8.81E-03
112281,7.91E-03,8.76E-03
112282,7.90E-03,8.72E-03
112283,7.89E-03,8.68E-03
112284,7.88E-03,8.64E-03
112285,7.87E-03,8.60E-03
112286,7.84E-03,8.56E-03
112287,7.79E-03,8.52E-03
112288,7.73E-03,8.49E-03
112289,7.73E-03,8.45E-03
112290,7.74E-03,8.41E-03
112291,7.75E-03,8.38E-03
112292,7.68E-03,8.34E-03
112293,6.03E-03,1.19E-02
112294,5.89E-03,1.20E-02
112295,5.96E-03,1.20E-02
112296,6.03E-03,1.21E-02
112297,9.36E-03,2.54E-02
112298,9.49E-03,2.49E-02
112299,9.52E-03,2.43E-02
112300,9.10E-03,2.38E-02
112301,8.66E-03,2.32E-02
112302,8.24E-03,2.27E-02
112303,8.14E-03,2.22E-02
112304,8.00E-03,2.17E-02
112305,8.11E-03,1.52E-02
112306,8.11E-03,1.52E-02
112307,8.11E-03,1.53E-02
112308,8.11E-03,1.53E-02
112309,8.11E-03,1.54E-02
112310,8.11E-03,1.54E-02
112311,8.12E-03,1.55E-02
112312,8.12E-03,1.55E-02
112313,8.13E-03,1.56E-02
112314,8.13E-03,1.56E-02
112315,8.13E-03,1.56E-02
112316,8.13E-03,1.57E-02
112317,8.13E-03,1.57E-02
112318,8.14E-03,1.58E-02
112319,8.14E-03,1.58E-02
112320,8.14E-03,1.58E-02
112321,8.14E-03,1.59E-02
112322,8.15E-03,1.59E-02
112323,8.15E-03,1.60E-02
112324,8.16E-03,1.60E-02
112325,8.16E-03,1.60E-02
112326,8.16E-03,1.61E-02
112327,8.17E-03,1.61E-02
112328,8.18E-03,1.62E-02
112329,8.18E-03,1.62E-02
112330,8.19E-03,1.62E-02
112331,8.20E-03,1.63E-02
112332,8.21E-03,1.63E-02
112333,8.22E-03,1.64E-02
112334,8.23E-03,1.64E-02
112335,8.25E-03,1.64E-02
112336,8.28E-03,1.65E-02
112337,8.30E-03,1.65E-02
112338,8.33E-03,1.66E-02
112339,8.36E-03,1.66E-02
112340,8.40E-03,1.67E-02
112341,8.45E-03,1.67E-02
112342,8.52E-03,1.67E-02
112343,8.60E-03,1.68E-02
112344,8.72E-03,1.68E-02
112345,8.88E-03,1.69E-02
112346,9.15E-03,1.70E-02
112347,9.56E-03,1.70E-02
112348,9.44E-03,1.71E-02
112349,7.87E-03,1.71E-02
112350,6.86E-03,1.72E-02
112351,7.15E-03,1.72E-02
112352,7.34E-03,1.73E-02
112353,7.48E-03,1.73E-02
112354,7.58E-03,1.74E-02
112355,7.65E-03,1.74E-02
112356,7.71E-03,1.74E-02
112357,7.75E-03,1.75E-02
112358,7.79E-03,1.75E-02
112359,7.82E-03,1.76E-02
112360,7.85E-03,1.76E-02
112361,7.87E-03,1.77E-02
112362,7.89E-03,1.77E-02
112363,7.90E-03,1.78E-02
112364,7.92E-03,1.78E-02
112365,7.93E-03,1.79E-02
112366,7.94E-03,1.79E-02
112367,7.95E-03,1.79E-02
112368,7.96E-03,1.80E-02
112369,7.96E-03,1.80E-02
112370,7.97E-03,1.81E-02
112371,7.98E-03,1.81E-02
112372,7.98E-03,1.81E-02
112373,7.99E-03,1.82E-02
112374,7.99E-03,1.82E-02
112375,7.99E-03,1.83E-02
112376,7.98E-03,1.83E-02
112377,7.99E-03,1.83E-02
112378,8.01E-03,1.84E-02
112379,8.02E-03,1.84E-02
112380,8.03E-03,1.84E-02
112381,8.04E-03,1.85E-02
112382,8.04E-03,1.85E-02
112383,8.05E-03,1.85E-02
112384,8.05E-03,1.86E-02
112385,8.05E-03,1.86E-02
112386,8.09E-03,1.86E-02
112387,8.14E-03,1.87E-02
112388,8.16E-03,1.87E-02
112389,8.17E-03,1.87E-02
112390,8.17E-03,1.88E-02
112391,8.18E-03,1.88E-02
112392,8.19E-03,1.88E-02
112393,8.19E-03,1.88E-02
112394,8.20E-03,1.89E-02
112395,8.21E-03,1.89E-02
112396,8.22E-03,1.89E-02
112397,8.23E-03,1.89E-02
112398,8.25E-03,1.89E-02
112399,8.26E-03,1.90E-02
112400,8.28E-03,1.90E-02
112401,8.30E-03,1.90E-02
112402,8.32E-03,1.90E-02
112403,8.35E-03,1.90E-02
112404,8.39E-03,1.91E-02
112405,8.44E-03,1.91E-02
112406,8.50E-03,1.91E-02
112407,8.87E-03,1.91E-02
112408,8.90E-03,1.92E-02
112409,9.15E-03,1.92E-02
112410,9.17E-03,1.92E-02
112411,9.33E-03,1.93E-02
112412,9.33E-03,1.93E-02
112413,9.04E-03,1.94E-02
112414,6.71E-03,8.20E-03
112415,8.91E-03,1.13E-02
112416,9.06E-03,1.14E-02
112417,9.72E-03,5.82E-03
112418,9.74E-03,5.88E-03
112419,7.07E-03,5.92E-03
112420,7.04E-03,5.98E-03
112421,6.63E-03,6.04E-03
112422,6.37E-03,6.09E-03
112423,6.35E-03,6.13E-03
112424,6.85E-03,6.15E-03
112425,7.97E-03,1.78E-02
112426,7.18E-03,1.09E-02
112427,7.70E-03,1.10E-02
112428,1.03E-02,1.14E-02
112429,1.03E-02,1.15E-02
112430,1.03E-02,1.16E-02
112431,1.02E-02,1.17E-02
112432,9.95E-03,1.18E-02
112433,9.57E-03,1.19E-02
112434,9.49E-03,1.20E-02
112435,9.15E-03,1.21E-02
112436,8.94E-03,1.22E-02
112437,8.80E-03,1.23E-02
112438,8.69E-03,1.24E-02
112439,8.60E-03,1.25E-02
112440,8.53E-03,1.26E-02
112441,8.43E-03,1.27E-02
112442,8.38E-03,1.28E-02
112443,8.45E-03,1.29E-02
112444,8.60E-03,1.30E-02
112445,8.70E-03,1.31E-02
112446,8.32E-03,1.32E-02
112447,7.92E-03,1.33E-02
112448,7.89E-03,1.34E-02
112449,7.89E-03,1.35E-02
112450,7.89E-03,1.36E-02
112451,7.87E-03,1.37E-02
112452,7.79E-03,1.38E-02
112453,7.73E-03,1.39E-02
112454,7.24E-03,1.40E-02
112455,7.13E-03,1.41E-02
112456,7.04E-03,1.42E-02
112457,6.95E-03,1.43E-02
112458,6.83E-03,1.44E-02
112459,6.84E-03,1.45E-02
112460,6.96E-03,1.46E-02
112461,8.76E-03,1.47E-02
112462,1.16E-02,1.48E-02
112463,1.07E-02,1.49E-02
112464,1.08E-02,1.51E-02
112465,1.10E-02,1.52E-02
112466,1.13E-02,1.54E-02
112467,1.12E-02,1.55E-02
112468,1.10E-02,1.56E-02
112469,1.09E-02,1.58E-02
112470,1.03E-02,1.59E-02
112471,1.01E-02,1.61E-02
112472,9.20E-03,1.62E-02
112473,9.06E-03,1.64E-02
112474,8.94E-03,1.65E-02
112475,8.77E-03,1.67E-02
112476,8.56E-03,1.68E-02
112477,8.46E-03,1.69E-02
112478,8.44E-03,1.71E-02
112479,8.36E-03,1.72E-02
112480,8.39E-03,1.73E-02
112481,8.55E-03,1.75E-02
112482,9.88E-03,1.77E-02
112483,6.71E-03,1.19E-02
112484,6.87E-03,1.14E-02
112485,9.46E-03,9.51E-03
112486,8.23E-03,7.93E-03
112487,8.58E-03,7.46E-03
112488,9.55E-03,7.45E-03
112489,8.83E-03,7.45E-03
112490,6.98E-03,7.42E-03
112491,7.92E-03,7.33E-03
112492,4.78E-03,7.30E-03
112493,6.41E-03,1.87E-02
112494,6.60E-03,8.23E-03
112495,9.16E-03,8.22E-03
112496,8.10E-03,8.91E-03
112497,8.19E-03,9.02E-03
112498,6.87E-03,1.20E-02
112499,7.48E-03,1.26E-02
112500,8.05E-03,8.15E-03
112501,5.73E-03,2.60E-02
112502,6.69E-03,2.54E-02
112503,9.42E-03,1.95E-02
112504,7.33E-03,1.97E-02
112505,9.95E-03,4.91E-03
112506,6.10E-03,8.09E-03
112507,8.00E-03,6.84E-03
112508,7.18E-03,1.05E-02
112509,7.30E-03,1.06E-02
112510,8.27E-03,1.07E-02
112511,7.10E-03,4.98E-03
112512,8.11E-03,1.51E-02
112513,8.11E-03,1.50E-02
112514,8.11E-03,1.50E-02
112515,8.11E-03,1.49E-02
112516,8.12E-03,1.49E-02
112517,8.12E-03,1.48E-02
112518,8.12E-03,1.48E-02
112519,8.12E-03,1.47E-02
112520,8.12E-03,1.47E-02
112521,8.12E-03,1.47E-02
112522,8.12E-03,1.46E-02
112523,8.12E-03,1.46E-02
112524,8.12E-03,1.45E-02
112525,8.12E-03,1.45E-02
112526,8.12E-03,1.44E-02
112527,8.12E-03,1.44E-02
112528,8.12E-03,1.43E-02
112529,8.12E-03,1.43E-02
112530,8.12E-03,1.42E-02
112531,8.12E-03,1.42E-02
112532,8.13E-03,1.41E-02
112533,8.13E-03,1.41E-02
112534,8.13E-03,1.40E-02
112535,8.13E-03,1.40E-02
112536,8.13E-03,1.39E-02
112537,8.13E-03,1.39E-02
112538,8.14E-03,1.38E-02
112539,8.14E-03,1.38E-02
112540,8.14E-03,1.37E-02
112541,8.14E-03,1.36E-02
112542,8.15E-03,1.36E-02
112543,8.15E-03,1.35E-02
112544,8.16E-03,1.35E-02
112545,8.16E-03,1.34E-02
112546,8.16E-03,1.34E-02
112547,8.17E-03,1.33E-02
112548,8.17E-03,1.33E-02
112549,8.17E-03,1.32E-02
112550,8.18E-03,1.31E-02
112551,8.18E-03,1.31E-02
112552,8.19E-03,1.30E-02
112553,8.20E-03,1.30E-02
112554,8.20E-03,1.29E-02
112555,8.21E-03,1.28E-02
112556,8.22E-03,1.28E-02
112557,8.23E-03,1.27E-02
112558,8.24E-03,1.27E-02
112559,8.25E-03,1.26E-02
112560,8.27E-03,1.25E-02
112561,8.28E-03,1.25E-02
112562,8.30E-03,1.24E-02
112563,8.32E-03,1.24E-02
112564,8.35E-03,1.23E-02
112565,8.38E-03,1.22E-02
112566,8.41E-03,1.22E-02
112567,8.46E-03,1.21E-02
112568,8.51E-03,1.21E-02
112569,8.58E-03,1.20E-02
112570,8.67E-03,1.19E-02
112571,8.79E-03,1.19E-02
112572,8.96E-03,1.18E-02
112573,9.21E-03,1.17E-02
112574,9.61E-03,1.17E-02
112575,1.03E-02,1.16E-02
112576,1.04E-02,1.15E-02
112577,9.33E-03,1.15E-02
112578,8.52E-03,1.14E-02
112579,8.55E-03,1.13E-02
112580,8.60E-03,1.13E-02
112581,8.65E-03,1.12E-02
112582,8.72E-03,1.12E-02
112583,8.80E-03,1.11E-02
112584,8.91E-03,1.10E-02
112585,9.04E-03,1.10E-02
112586,9.21E-03,1.09E-02
112587,9.43E-03,1.08E-02
112588,9.73E-03,1.07E-02
112589,9.46E-03,1.07E-02
112590,8.52E-03,1.06E-02
112591,6.60E-03,1.05E-02
112592,5.47E-03,1.05E-02
112593,6.21E-03,1.04E-02
112594,6.81E-03,1.04E-02
112595,7.01E-03,1.03E-02
112596,7.17E-03,1.03E-02
112597,7.28E-03,1.02E-02
112598,7.42E-03,1.01E-02
112599,7.50E-03,1.01E-02
112600,7.56E-03,1.00E-02
112601,7.62E-03,9.97E-03
112602,7.69E-03,9.92E-03
112603,7.77E-03,9.87E-03
112604,7.80E-03,9.82E-03
112605,7.80E-03,9.77E-03
112606,7.80E-03,9.72E-03
112607,8.17E-03,9.68E-03
112608,8.66E-03,9.63E-03
112609,8.68E-03,9.59E-03
112610,8.51E-03,9.55E-03
112611,8.42E-03,9.52E-03
112612,8.47E-03,9.49E-03
112613,8.58E-03,9.47E-03
112614,8.65E-03,9.44E-03
112615,8.72E-03,9.43E-03
112616,8.81E-03,9.42E-03
112617,8.93E-03,9.41E-03
112618,9.09E-03,9.41E-03
112619,9.37E-03,9.41E-03
112620,9.64E-03,9.43E-03
112621,9.60E-03,9.45E-03
112622,9.00E-03,9.47E-03
112623,8.18E-03,9.50E-03
112624,7.83E-03,9.53E-03
112625,7.82E-03,9.57E-03
112626,7.83E-03,9.62E-03
112627,7.83E-03,9.68E-03
112628,7.84E-03,9.74E-03
112629,7.85E-03,9.82E-03
112630,7.85E-03,9.90E-03
112631,7.86E-03,9.99E-03
112632,7.88E-03,1.01E-02
112633,7.89E-03,1.02E-02
112634,7.89E-03,1.03E-02
112635,7.90E-03,1.04E-02
112636,7.91E-03,1.06E-02
112637,7.91E-03,1.07E-02
112638,7.92E-03,1.08E-02
112639,8.04E-03,1.10E-02
112640,8.14E-03,1.11E-02
112641,8.31E-03,1.13E-02
112642,8.46E-03,1.15E-02
112643,8.64E-03,1.17E-02
112644,8.27E-03,1.18E-02
112645,7.55E-03,1.19E-02
112646,8.45E-03,6.34E-03
112647,4.96E-03,8.18E-03
112648,7.91E-03,2.83E-02
112649,7.98E-03,2.88E-02
112650,7.54E-03,6.65E-03
112651,7.95E-03,6.65E-03
112652,9.58E-03,6.64E-03
112653,1.02E-02,6.62E-03
112654,1.00E-02,6.60E-03
112655,9.88E-03,6.58E-03
112656,9.21E-03,6.55E-03
112657,7.98E-03,6.53E-03
112658,7.23E-03,6.51E-03
112659,6.99E-03,6.49E-03
112660,6.84E-03,6.47E-03
112661,6.65E-03,6.45E-03
112662,6.41E-03,6.44E-03
112663,6.10E-03,6.43E-03
112664,5.69E-03,6.42E-03
112665,5.77E-03,6.41E-03
112666,6.48E-03,6.40E-03
112667,6.80E-03,6.40E-03
112668,6.70E-03,6.39E-03
112669,6.61E-03,6.39E-03
112670,6.57E-03,6.39E-03
112671,7.70E-03,6.39E-03
112672,9.36E-03,6.40E-03
112673,9.78E-03,6.40E-03
112674,9.57E-03,6.40E-03
112675,9.38E-03,6.39E-03
112676,9.18E-03,6.39E-03
112677,8.84E-03,6.39E-03
112678,8.41E-03,6.38E-03
112679,8.11E-03,6.37E-03
112680,8.04E-03,6.37E-03
112681,8.09E-03,6.36E-03
112682,8.10E-03,6.36E-03
112683,8.24E-03,6.35E-03
112684,9.26E-03,6.34E-03
112685,1.01E-02,6.34E-03
112686,9.78E-03,6.33E-03
112687,9.38E-03,6.31E-03
112688,9.13E-03,6.30E-03
112689,9.14E-03,6.28E-03
112690,9.38E-03,6.26E-03
112691,9.78E-03,6.24E-03
112692,1.03E-02,6.22E-03
112693,1.05E-02,6.19E-03
112694,1.00E-02,6.16E-03
112695,9.58E-03,6.12E-03
112696,9.29E-03,6.09E-03
112697,9.08E-03,6.05E-03
112698,8.98E-03,6.01E-03
112699,8.97E-03,5.97E-03
112700,8.84E-03,5.93E-03
112701,8.62E-03,5.89E-03
112702,8.49E-03,5.84E-03
112703,8.40E-03,5.80E-03
112704,8.35E-03,5.76E-03
112705,8.31E-03,5.71E-03
112706,8.27E-03,5.67E-03
112707,8.25E-03,5.63E-03
112708,8.15E-03,5.58E-03
112709,7.94E-03,5.54E-03
112710,7.80E-03,5.49E-03
112711,7.77E-03,5.45E-03
112712,7.75E-03,5.41E-03
112713,7.73E-03,5.37E-03
112714,7.70E-03,5.33E-03
112715,7.66E-03,5.29E-03
112716,7.62E-03,5.25E-03
112717,7.58E-03,5.21E-03
112718,7.53E-03,5.17E-03
112719,7.47E-03,5.13E-03
112720,7.39E-03,5.10E-03
112721,7.30E-03,5.06E-03
112722,7.19E-03,5.03E-03
112723,7.03E-03,5.00E-03
112724,6.99E-03,4.96E-03
112725,7.15E-03,4.93E-03
112726,7.31E-03,4.91E-03
112727,7.31E-03,4.88E-03
112728,7.22E-03,4.85E-03
112729,7.12E-03,4.83E-03
112730,6.96E-03,4.81E-03
112731,6.68E-03,4.79E-03
112732,6.62E-03,4.77E-03
112733,6.94E-03,4.75E-03
112734,7.31E-03,4.74E-03
112735,7.64E-03,4.72E-03
112736,7.72E-03,4.71E-03
112737,7.78E-03,4.70E-03
112738,7.89E-03,4.69E-03
112739,8.22E-03,4.68E-03
112740,7.51E-03,4.64E-03
112741,5.75E-03,4.68E-03
112742,5.83E-03,4.58E-03
112743,6.84E-03,4.59E-03
112744,7.18E-03,4.59E-03
112745,7.69E-03,7.77E-03
112746,9.66E-03,1.71E-02
112747,9.00E-03,1.72E-02
112748,7.49E-03,7.83E-03
112749,7.50E-03,7.84E-03
112750,5.76E-03,7.74E-03
112751,6.55E-03,1.13E-02
112752,6.78E-03,1.12E-02
112753,6.90E-03,1.11E-02
112754,6.76E-03,7.14E-03
112755,6.05E-03,6.46E-03
112756,5.69E-03,6.49E-03
112757,7.40E-03,4.58E-03
112758,6.47E-03,1.96E-02
112759,6.57E-03,1.97E-02
112760,6.71E-03,1.98E-02
112761,6.08E-03,1.98E-02
112762,6.02E-03,1.99E-02
112763,6.04E-03,1.99E-02
112764,6.10E-03,2.00E-02
112765,6.28E-03,2.00E-02
112766,6.82E-03,2.01E-02
112767,8.04E-03,2.01E-02
112768,8.07E-03,2.02E-02
112769,8.71E-03,2.03E-02
112770,8.85E-03,2.03E-02
112771,9.00E-03,2.04E-02
112772,9.22E-03,2.05E-02
112773,9.24E-03,2.05E-02
112774,9.31E-03,2.06E-02
112775,9.01E-03,2.07E-02
112776,8.55E-03,2.07E-02
112777,6.67E-03,2.08E-02
112778,6.29E-03,2.08E-02
112779,6.27E-03,2.09E-02
112780,5.94E-03,2.09E-02
112781,6.07E-03,2.10E-02
112782,6.18E-03,2.10E-02
112783,6.48E-03,2.10E-02
112784,6.80E-03,2.11E-02
112785,6.99E-03,2.11E-02
112786,7.51E-03,2.11E-02
112787,7.59E-03,2.12E-02
112788,7.66E-03,2.12E-02
112789,7.71E-03,2.12E-02
112790,7.75E-03,2.12E-02
112791,7.79E-03,2.13E-02
112792,7.82E-03,2.13E-02
112793,7.84E-03,2.13E-02
112794,7.86E-03,2.14E-02
112795,7.88E-03,2.14E-02
112796,7.86E-03,2.14E-02
112797,7.86E-03,2.14E-02
112798,7.92E-03,2.14E-02
112799,7.98E-03,2.15E-02
112800,8.01E-03,2.15E-02
112801,8.02E-03,2.15E-02
112802,8.04E-03,2.15E-02
112803,8.05E-03,2.16E-02
112804,8.09E-03,2.16E-02
112805,8.15E-03,2.16E-02
112806,8.16E-03,2.16E-02
112807,8.17E-03,2.17E-02
112808,8.17E-03,2.17E-02
112809,8.17E-03,2.17E-02
112810,8.18E-03,2.17E-02
112811,8.18E-03,2.18E-02
112812,8.19E-03,2.18E-02
112813,8.19E-03,2.18E-02
112814,8.20E-03,2.18E-02
112815,8.21E-03,2.19E-02
112816,8.21E-03,2.19E-02
112817,8.22E-03,2.19E-02
112818,8.23E-03,2.19E-02
112819,8.24E-03,2.19E-02
112820,8.24E-03,2.20E-02
112821,8.25E-03,2.20E-02
112822,8.27E-03,2.20E-02
112823,8.28E-03,2.20E-02
112824,8.29E-03,2.20E-02
112825,8.31E-03,2.20E-02
112826,8.32E-03,2.20E-02
112827,8.34E-03,2.20E-02
112828,8.36E-03,2.21E-02
112829,8.39E-03,2.21E-02
112830,8.42E-03,2.21E-02
112831,8.45E-03,2.21E-02
112832,8.49E-03,2.21E-02
112833,8.52E-03,2.21E-02
112834,8.54E-03,2.21E-02
112835,8.56E-03,2.21E-02
112836,8.58E-03,2.21E-02
112837,8.59E-03,2.21E-02
112838,8.61E-03,2.21E-02
112839,8.85E-03,2.21E-02
112840,8.99E-03,2.21E-02
112841,9.04E-03,2.21E-02
112842,9.20E-03,2.21E-02
112843,9.41E-03,2.21E-02
112844,9.67E-03,2.22E-02
112845,9.98E-03,2.22E-02
112846,1.03E-02,2.23E-02
112847,1.06E-02,2.23E-02
112848,1.08E-02,2.24E-02
112849,1.08E-02,2.25E-02
112850,1.05E-02,2.26E-02
112851,1.04E-02,2.27E-02
112852,1.05E-02,2.28E-02
112853,1.10E-02,2.29E-02
112854,1.02E-02,2.31E-02
112855,8.99E-03,2.32E-02
112856,8.59E-03,2.33E-02
112857,7.98E-03,2.34E-02
112858,7.84E-03,2.35E-02
112859,7.58E-03,2.36E-02
112860,7.08E-03,2.37E-02
112861,5.74E-03,2.38E-02
112862,5.56E-03,2.39E-02
112863,5.66E-03,2.39E-02
112864,5.72E-03,2.40E-02
112865,5.70E-03,2.40E-02
112866,5.47E-03,2.41E-02
112867,5.22E-03,2.41E-02
112868,5.01E-03,2.42E-02
112869,5.22E-03,2.42E-02
112870,6.25E-03,2.42E-02
112871,6.30E-03,2.42E-02
112872,7.02E-03,2.42E-02
112873,7.13E-03,2.42E-02
112874,7.19E-03,2.42E-02
112875,7.32E-03,2.42E-02
112876,7.32E-03,2.42E-02
112877,7.32E-03,2.42E-02
112878,7.32E-03,2.42E-02
112879,7.55E-03,2.42E-02
112880,7.95E-03,2.42E-02
112881,8.13E-03,2.42E-02
112882,8.13E-03,2.42E-02
112883,8.13E-03,2.41E-02
112884,8.15E-03,2.41E-02
112885,8.20E-03,2.41E-02
112886,8.27E-03,2.41E-02
112887,8.32E-03,2.41E-02
112888,8.34E-03,2.40E-02
112889,8.34E-03,2.40E-02
112890,8.36E-03,2.40E-02
112891,8.38E-03,2.40E-02
112892,8.40E-03,2.40E-02
112893,8.42E-03,2.40E-02
112894,8.44E-03,2.40E-02
112895,8.47E-03,2.40E-02
112896,8.50E-03,2.40E-02
112897,8.53E-03,2.40E-02
112898,8.57E-03,2.40E-02
112899,8.61E-03,2.40E-02
112900,8.66E-03,2.40E-02
112901,8.72E-03,2.40E-02
112902,8.78E-03,2.40E-02
112903,8.86E-03,2.41E-02
112904,8.91E-03,2.41E-02
112905,8.98E-03,2.41E-02
112906,9.08E-03,2.42E-02
112907,9.19E-03,2.43E-02
112908,9.31E-03,2.43E-02
112909,9.47E-03,2.44E-02
112910,9.67E-03,2.45E-02
112911,9.91E-03,2.46E-02
112912,1.02E-02,2.47E-02
112913,1.02E-02,2.49E-02
112914,1.00E-02,2.50E-02
112915,9.98E-03,2.52E-02
112916,1.02E-02,2.53E-02
112917,1.09E-02,2.55E-02
112918,1.06E-02,2.57E-02
112919,5.62E-03,2.58E-02
112920,5.64E-03,2.59E-02
112921,5.19E-03,2.60E-02
112922,5.50E-03,2.61E-02
112923,5.71E-03,2.62E-02
112924,6.04E-03,2.63E-02
112925,6.11E-03,2.64E-02
112926,7.68E-03,3.19E-02
112927,7.60E-03,3.19E-02
112928,9.15E-03,1.07E-02
112929,6.78E-03,8.19E-03
112930,6.43E-03,1.13E-02
112931,8.42E-03,2.54E-02
112932,6.71E-03,1.96E-02
112933,7.38E-03,5.54E-03
112934,8.25E-03,5.39E-03
112935,9.56E-03,5.59E-03
112936,7.30E-03,5.50E-03
112937,7.85E-03,1.78E-02
112938,7.56E-03,1.79E-02
112939,8.18E-03,3.00E-02
112940,7.74E-03,2.93E-02
112941,7.84E-03,3.11E-02
112942,7.67E-03,3.03E-02
112943,7.41E-03,3.12E-02
112944,4.54E-03,8.07E-03
112945,5.64E-03,8.09E-03
112946,8.41E-03,1.89E-02
112947,7.82E-03,1.88E-02
112948,7.67E-03,6.39E-03
112949,6.88E-03,4.86E-03
112950,7.98E-03,2.74E-02
112951,8.13E-03,1.52E-02
112952,8.10E-03,1.52E-02
112953,9.97E-03,1.70E-02
112954,9.39E-03,1.69E-02
112955,9.33E-03,1.68E-02
112956,9.32E-03,1.68E-02
112957,9.36E-03,1.67E-02
112958,9.26E-03,1.66E-02
112959,9.21E-03,1.65E-02
112960,9.03E-03,1.64E-02
112961,8.80E-03,1.63E-02
112962,8.82E-03,1.62E-02
112963,8.86E-03,1.61E-02
112964,8.92E-03,1.61E-02
112965,8.99E-03,1.60E-02
112966,9.04E-03,1.59E-02
112967,9.07E-03,1.58E-02
112968,9.07E-03,1.57E-02
112969,9.07E-03,1.56E-02
112970,9.08E-03,1.55E-02
112971,9.10E-03,1.54E-02
112972,9.11E-03,1.53E-02
112973,9.13E-03,1.52E-02
112974,9.15E-03,1.51E-02
112975,9.17E-03,1.50E-02
112976,9.18E-03,1.49E-02
112977,9.20E-03,1.48E-02
112978,9.22E-03,1.46E-02
112979,9.24E-03,1.45E-02
112980,9.25E-03,1.44E-02
112981,9.27E-03,1.43E-02
112982,9.29E-03,1.42E-02
112983,9.31E-03,1.40E-02
112984,9.33E-03,1.39E-02
112985,9.35E-03,1.38E-02
112986,9.38E-03,1.37E-02
112987,9.40E-03,1.35E-02
112988,9.41E-03,1.34E-02
112989,9.30E-03,1.32E-02
112990,9.23E-03,1.31E-02
112991,9.16E-03,1.30E-02
112992,9.13E-03,1.28E-02
112993,8.99E-03,1.27E-02
112994,8.51E-03,1.26E-02
112995,7.87E-03,1.24E-02
112996,7.84E-03,1.21E-02
112997,7.69E-03,1.23E-02
112998,7.82E-03,1.22E-02
112999,7.85E-03,4.89E-03
113000,7.36E-03,5.20E-03
113001,8.58E-03,1.08E-02
113002,7.87E-03,7.69E-03
113003,7.79E-03,7.66E-03
113004,8.61E-03,5.39E-03
113005,1.04E-02,5.46E-03
113006,5.38E-03,5.80E-03
113007,7.90E-03,7.83E-03
113008,8.07E-03,6.91E-03
113009,6.15E-03,6.00E-03
113010,5.53E-03,5.78E-03
113011,8.00E-03,1.25E-02
113012,7.66E-03,1.22E-02
113013,8.88E-03,1.72E-02
113014,8.38E-03,1.27E-02
113015,6.50E-03,7.99E-03
113016,7.03E-03,1.96E-02
113017,6.62E-03,1.97E-02
113018,6.06E-03,6.31E-03
113019,6.58E-03,6.04E-03
113020,7.48E-03,4.79E-03
113021,6.84E-03,1.99E-02
113022,7.70E-03,2.64E-02
113023,7.87E-03,1.80E-02
113024,8.25E-03,1.81E-02
113025,8.40E-03,1.81E-02
113026,8.43E-03,1.82E-02
113027,8.25E-03,1.83E-02
113028,8.62E-03,1.82E-02
113029,8.66E-03,1.83E-02
113030,8.92E-03,1.84E-02
113031,9.77E-03,1.84E-02
113032,9.84E-03,1.85E-02
113033,9.66E-03,1.86E-02
113034,9.67E-03,1.86E-02
113035,9.36E-03,1.87E-02
113036,9.27E-03,1.88E-02
113037,9.18E-03,1.88E-02
113038,9.11E-03,1.89E-02
113039,9.05E-03,1.90E-02
113040,9.05E-03,1.91E-02
113041,9.13E-03,1.92E-02
113042,9.21E-03,1.92E-02
113043,9.26E-03,1.93E-02
113044,9.75E-03,1.95E-02
113045,1.12E-02,1.96E-02
113046,9.89E-03,1.97E-02
113047,7.95E-03,1.98E-02
113048,7.36E-03,1.99E-02
113049,7.31E-03,2.00E-02
113050,8.12E-03,1.10E-02
113051,6.54E-03,2.54E-02
113052,7.01E-03,6.45E-03
113053,8.26E-03,8.44E-03
113054,7.47E-03,8.15E-03
113055,6.04E-03,8.13E-03
113056,6.64E-03,5.03E-03
113057,7.88E-03,2.08E-02
113058,8.50E-03,7.91E-03
113059,8.73E-03,7.90E-03
113060,8.84E-03,7.88E-03
113061,8.99E-03,7.87E-03
113062,8.95E-03,7.85E-03
113063,8.79E-03,7.84E-03
113064,7.94E-03,7.82E-03
113065,6.69E-03,7.81E-03
113066,6.59E-03,7.80E-03
113067,6.74E-03,7.79E-03
113068,6.64E-03,7.78E-03
113069,6.40E-03,7.77E-03
113070,6.08E-03,7.76E-03
113071,5.68E-03,7.75E-03
113072,5.59E-03,7.75E-03
113073,5.75E-03,7.75E-03
113074,6.26E-03,7.74E-03
113075,7.39E-03,7.74E-03
113076,7.80E-03,7.73E-03
113077,8.00E-03,7.73E-03
113078,8.05E-03,7.72E-03
113079,7.75E-03,7.71E-03
113080,7.34E-03,7.70E-03
113081,7.12E-03,7.69E-03
113082,6.94E-03,7.69E-03
113083,6.69E-03,7.68E-03
113084,6.35E-03,7.68E-03
113085,7.48E-03,7.67E-03
113086,8.88E-03,7.66E-03
113087,1.06E-02,7.66E-03
113088,1.09E-02,7.65E-03
113089,1.05E-02,7.63E-03
113090,9.95E-03,7.62E-03
113091,9.45E-03,7.61E-03
113092,8.45E-03,7.59E-03
113093,7.65E-03,7.58E-03
113094,7.09E-03,7.57E-03
113095,6.02E-03,7.56E-03
113096,5.54E-03,7.55E-03
113097,5.33E-03,7.54E-03
113098,5.84E-03,7.54E-03
113099,8.26E-03,7.53E-03
113100,9.66E-03,7.53E-03
113101,1.09E-02,7.52E-03
113102,1.07E-02,7.51E-03
113103,1.00E-02,7.50E-03
113104,9.04E-03,7.49E-03
113105,6.84E-03,7.47E-03
113106,6.61E-03,7.46E-03
113107,6.44E-03,7.45E-03
113108,6.32E-03,7.44E-03
113109,5.54E-03,7.42E-03
113110,6.56E-03,7.44E-03
113111,9.30E-03,7.42E-03
113112,8.47E-03,7.52E-03
113113,8.12E-03,7.61E-03
113114,8.02E-03,7.70E-03
113115,8.00E-03,7.79E-03
113116,7.85E-03,8.00E-03
113117,7.96E-03,7.89E-03
113118,9.31E-03,8.42E-03
113119,8.10E-03,8.80E-03
113120,8.18E-03,8.69E-03
113121,8.33E-03,8.56E-03
113122,7.08E-03,7.26E-03
113123,7.78E-03,7.24E-03
113124,7.91E-03,7.22E-03
113125,7.18E-03,7.21E-03
113126,6.51E-03,7.20E-03
113127,6.43E-03,7.18E-03
113128,6.33E-03,7.16E-03
113129,6.20E-03,7.13E-03
113130,7.67E-03,7.12E-03
113131,8.10E-03,7.14E-03
113132,8.20E-03,7.15E-03
113133,8.14E-03,7.15E-03
113134,9.40E-03,1.80E-02
113135,8.21E-03,1.81E-02
113136,7.22E-03,1.85E-02
113137,7.19E-03,1.84E-02
113138,7.36E-03,1.83E-02
113139,7.53E-03,1.82E-02
113140,7.84E-03,1.91E-02
113141,7.94E-03,1.94E-02
113142,7.73E-03,1.92E-02
113143,7.86E-03,8.24E-03
113144,8.18E-03,7.20E-03
113145,7.93E-03,3.26E-02
113146,6.08E-03,8.15E-03
113147,8.57E-03,9.16E-03
113148,8.74E-03,9.30E-03
113149,7.48E-03,9.50E-03
113150,8.66E-03,9.51E-03
113151,8.98E-03,9.59E-03
113152,8.92E-03,9.65E-03
113153,8.84E-03,9.73E-03
113154,8.74E-03,9.80E-03
113155,8.35E-03,9.86E-03
113156,8.20E-03,9.92E-03
113157,8.11E-03,9.98E-03
113158,7.95E-03,1.00E-02
113159,7.77E-03,1.01E-02
113160,7.71E-03,1.02E-02
113161,7.56E-03,1.02E-02
113162,7.38E-03,1.03E-02
113163,7.25E-03,1.03E-02
113164,6.86E-03,1.04E-02
113165,6.70E-03,1.04E-02
113166,7.00E-03,1.21E-02
113167,7.37E-03,1.24E-02
113168,7.10E-03,1.23E-02
113169,9.43E-03,1.75E-02
113170,8.83E-03,1.74E-02
113171,8.97E-03,1.73E-02
113172,6.98E-03,7.87E-03
113173,7.59E-03,7.85E-03
113174,1.04E-02,1.37E-02
113175,9.88E-03,1.39E-02
113176,8.93E-03,1.10E-02
113177,8.21E-03,1.10E-02
113178,7.87E-03,1.11E-02
113179,8.00E-03,7.13E-03
113180,8.64E-03,7.10E-03
113181,8.71E-03,7.08E-03
113182,1.01E-02,7.06E-03
113183,9.71E-03,7.04E-03
113184,9.52E-03,7.02E-03
113185,9.52E-03,6.99E-03
113186,9.23E-03,6.96E-03
113187,9.12E-03,6.93E-03
113188,8.82E-03,6.91E-03
113189,8.61E-03,6.88E-03
113190,8.17E-03,6.85E-03
113191,7.76E-03,6.82E-03
113192,7.64E-03,6.79E-03
113193,7.61E-03,6.76E-03
113194,7.54E-03,6.74E-03
113195,7.46E-03,6.71E-03
113196,7.36E-03,6.68E-03
113197,7.23E-03,6.66E-03
113198,7.06E-03,6.64E-03
113199,6.81E-03,6.61E-03
113200,6.46E-03,6.59E-03
113201,5.85E-03,6.57E-03
113202,5.11E-03,6.56E-03
113203,5.24E-03,6.54E-03
113204,6.05E-03,6.53E-03
113205,6.21E-03,6.52E-03
113206,6.11E-03,6.50E-03
113207,6.09E-03,6.50E-03
113208,6.00E-03,6.49E-03
113209,5.98E-03,6.49E-03
113210,9.21E-03,7.92E-03
113211,8.47E-03,7.94E-03
113212,8.02E-03,7.95E-03
113213,7.83E-03,1.95E-02
113214,7.95E-03,1.91E-02
113215,8.07E-03,1.87E-02
113216,8.18E-03,1.83E-02
113217,8.31E-03,1.78E-02
113218,8.44E-03,1.74E-02
113219,8.40E-03,1.70E-02
113220,8.28E-03,1.66E-02
113221,8.30E-03,1.62E-02
113222,9.76E-03,1.58E-02
113223,1.09E-02,1.54E-02
113224,9.78E-03,1.49E-02
113225,9.58E-03,1.44E-02
113226,7.56E-03,4.57E-03
113227,7.54E-03,4.57E-03
113228,7.83E-03,4.60E-03
113229,9.81E-03,4.60E-03
113230,9.77E-03,4.65E-03
113231,6.19E-03,2.65E-02
113232,6.11E-03,2.65E-02
113233,6.11E-03,2.66E-02
113234,7.05E-03,2.66E-02
113235,7.05E-03,2.67E-02
113236,7.23E-03,2.67E-02
113237,7.37E-03,2.68E-02
113238,7.65E-03,2.68E-02
113239,7.71E-03,2.69E-02
113240,7.76E-03,2.69E-02
113241,7.80E-03,2.69E-02
113242,7.83E-03,2.70E-02
113243,7.85E-03,2.70E-02
113244,7.88E-03,2.71E-02
113245,7.89E-03,2.71E-02
113246,7.91E-03,2.71E-02
113247,7.92E-03,2.72E-02
113248,7.94E-03,2.72E-02
113249,7.95E-03,2.73E-02
113250,7.96E-03,2.73E-02
113251,7.97E-03,2.74E-02
113252,7.98E-03,2.74E-02
113253,7.99E-03,2.75E-02
113254,8.00E-03,2.75E-02
113255,8.00E-03,2.76E-02
113256,8.00E-03,2.77E-02
113257,8.00E-03,2.77E-02
113258,8.01E-03,2.78E-02
113259,8.01E-03,2.79E-02
113260,8.01E-03,2.79E-02
113261,8.01E-03,2.80E-02
113262,8.02E-03,2.81E-02
113263,8.02E-03,2.82E-02
113264,8.02E-03,2.83E-02
113265,8.02E-03,2.83E-02
113266,8.02E-03,2.84E-02
113267,8.03E-03,2.85E-02
113268,8.03E-03,2.86E-02
113269,8.03E-03,2.87E-02
113270,8.03E-03,2.88E-02
113271,8.03E-03,2.89E-02
113272,8.03E-03,2.90E-02
113273,8.03E-03,2.91E-02
113274,8.04E-03,2.92E-02
113275,8.04E-03,2.93E-02
113276,8.04E-03,2.94E-02
113277,8.04E-03,2.96E-02
113278,8.04E-03,2.97E-02
113279,8.04E-03,2.98E-02
113280,8.04E-03,2.99E-02
113281,8.04E-03,3.01E-02
113282,8.04E-03,3.02E-02
113283,8.04E-03,3.03E-02
113284,8.04E-03,3.05E-02
113285,8.05E-03,3.06E-02
113286,7.99E-03,3.08E-02
113287,7.95E-03,3.09E-02
113288,7.94E-03,3.11E-02
113289,7.86E-03,3.13E-02
113290,7.83E-03,3.14E-02
113291,7.67E-03,3.16E-02
113292,7.57E-03,3.18E-02
113293,6.79E-03,4.95E-03
113294,6.64E-03,5.00E-03
113295,7.71E-03,1.06E-02
113296,7.49E-03,1.05E-02
113297,7.43E-03,1.04E-02
113298,7.43E-03,1.04E-02
113299,7.51E-03,1.03E-02
113300,7.64E-03,1.02E-02
113301,7.71E-03,1.01E-02
113302,7.76E-03,1.01E-02
113303,7.80E-03,9.99E-03
113304,7.84E-03,9.91E-03
113305,7.86E-03,9.84E-03
113306,7.89E-03,9.77E-03
113307,7.91E-03,9.70E-03
113308,7.92E-03,9.63E-03
113309,7.94E-03,9.56E-03
113310,7.98E-03,9.49E-03
113311,8.00E-03,9.43E-03
113312,8.00E-03,9.36E-03
113313,7.99E-03,9.30E-03
113314,7.99E-03,9.24E-03
113315,7.99E-03,9.18E-03
113316,7.98E-03,9.13E-03
113317,7.98E-03,9.07E-03
113318,7.97E-03,9.02E-03
113319,7.97E-03,8.96E-03
113320,7.96E-03,8.91E-03
113321,7.96E-03,8.87E-03
113322,7.95E-03,8.82E-03
113323,7.94E-03,8.77E-03
113324,7.94E-03,8.73E-03
113325,7.93E-03,8.68E-03
113326,7.92E-03,8.64E-03
113327,7.91E-03,8.60E-03
113328,7.90E-03,8.56E-03
113329,7.89E-03,8.52E-03
113330,7.88E-03,8.48E-03
113331,7.85E-03,8.44E-03
113332,7.80E-03,8.40E-03
113333,7.74E-03,8.36E-03
113334,7.69E-03,8.33E-03
113335,7.67E-03,8.29E-03
113336,7.60E-03,8.25E-03
113337,7.52E-03,8.21E-03
113338,5.91E-03,1.14E-02
113339,5.95E-03,1.15E-02
113340,6.13E-03,1.16E-02
113341,8.97E-03,2.49E-02
113342,9.17E-03,2.44E-02
113343,9.08E-03,2.39E-02
113344,9.11E-03,2.33E-02
113345,8.72E-03,2.28E-02
113346,8.33E-03,2.23E-02
113347,8.24E-03,2.18E-02
113348,8.09E-03,2.13E-02
113349,8.11E-03,1.53E-02
113350,8.11E-03,1.53E-02
113351,8.11E-03,1.54E-02
113352,8.11E-03,1.54E-02
113353,8.11E-03,1.55E-02
113354,8.11E-03,1.55E-02
113355,8.12E-03,1.56E-02
113356,8.12E-03,1.56E-02
113357,8.12E-03,1.56E-02
113358,8.13E-03,1.57E-02
113359,8.13E-03,1.57E-02
113360,8.13E-03,1.58E-02
113361,8.13E-03,1.58E-02
113362,8.13E-03,1.59E-02
113363,8.14E-03,1.59E-02
113364,8.14E-03,1.59E-02
113365,8.14E-03,1.60E-02
113366,8.14E-03,1.60E-02
113367,8.15E-03,1.61E-02
113368,8.15E-03,1.61E-02
113369,8.16E-03,1.61E-02
113370,8.16E-03,1.62E-02
113371,8.17E-03,1.62E-02
113372,8.17E-03,1.63E-02
113373,8.18E-03,1.63E-02
113374,8.19E-03,1.64E-02
113375,8.19E-03,1.64E-02
113376,8.20E-03,1.64E-02
113377,8.21E-03,1.65E-02
113378,8.23E-03,1.65E-02
113379,8.24E-03,1.66E-02
113380,8.27E-03,1.66E-02
113381,8.29E-03,1.66E-02
113382,8.32E-03,1.67E-02
113383,8.35E-03,1.67E-02
113384,8.39E-03,1.68E-02
113385,8.44E-03,1.68E-02
113386,8.50E-03,1.69E-02
113387,8.58E-03,1.69E-02
113388,8.69E-03,1.70E-02
113389,8.85E-03,1.70E-02
113390,9.10E-03,1.71E-02
113391,9.50E-03,1.71E-02
113392,9.38E-03,1.72E-02
113393,7.88E-03,1.72E-02
113394,6.91E-03,1.73E-02
113395,7.19E-03,1.73E-02
113396,7.37E-03,1.74E-02
113397,7.50E-03,1.74E-02
113398,7.60E-03,1.75E-02
113399,7.67E-03,1.75E-02
113400,7.72E-03,1.76E-02
113401,7.77E-03,1.76E-02
113402,7.80E-03,1.77E-02
113403,7.83E-03,1.77E-02
113404,7.86E-03,1.78E-02
113405,7.88E-03,1.78E-02
113406,7.89E-03,1.79E-02
113407,7.91E-03,1.79E-02
113408,7.92E-03,1.80E-02
113409,7.93E-03,1.80E-02
113410,7.95E-03,1.80E-02
113411,7.95E-03,1.81E-02
113412,7.96E-03,1.81E-02
113413,7.97E-03,1.82E-02
113414,7.98E-03,1.82E-02
113415,7.98E-03,1.83E-02
113416,7.99E-03,1.83E-02
113417,7.99E-03,1.83E-02
113418,8.00E-03,1.84E-02
113419,7.99E-03,1.84E-02
113420,7.99E-03,1.85E-02
113421,7.99E-03,1.85E-02
113422,8.01E-03,1.85E-02
113423,8.02E-03,1.86E-02
113424,8.03E-03,1.86E-02
113425,8.04E-03,1.86E-02
113426,8.04E-03,1.87E-02
113427,8.05E-03,1.87E-02
113428,8.05E-03,1.88E-02
113429,8.06E-03,1.88E-02
113430,8.09E-03,1.88E-02
113431,8.14E-03,1.89E-02
113432,8.16E-03,1.89E-02
113433,8.17E-03,1.89E-02
113434,8.17E-03,1.89E-02
113435,8.18E-03,1.90E-02
113436,8.18E-03,1.90E-02
113437,8.19E-03,1.90E-02
113438,8.20E-03,1.90E-02
113439,8.20E-03,1.91E-02
113440,8.21E-03,1.91E-02
113441,8.23E-03,1.91E-02
113442,8.24E-03,1.91E-02
113443,8.25E-03,1.92E-02
113444,8.27E-03,1.92E-02
113445,8.29E-03,1.92E-02
113446,8.31E-03,1.92E-02
113447,8.34E-03,1.92E-02
113448,8.38E-03,1.93E-02
113449,8.42E-03,1.93E-02
113450,8.48E-03,1.93E-02
113451,8.79E-03,1.93E-02
113452,8.84E-03,1.94E-02
113453,9.10E-03,1.94E-02
113454,9.20E-03,1.94E-02
113455,9.26E-03,1.95E-02
113456,9.45E-03,1.95E-02
113457,9.75E-03,1.96E-02
113458,1.01E-02,1.12E-02
113459,1.14E-02,1.13E-02
113460,1.03E-02,1.14E-02
113461,1.01E-02,1.15E-02
113462,1.01E-02,1.16E-02
113463,9.82E-03,1.17E-02
113464,9.49E-03,1.18E-02
113465,9.47E-03,1.19E-02
113466,9.11E-03,1.20E-02
113467,8.91E-03,1.21E-02
113468,8.77E-03,1.22E-02
113469,8.66E-03,1.23E-02
113470,8.58E-03,1.24E-02
113471,8.52E-03,1.25E-02
113472,8.42E-03,1.26E-02
113473,8.37E-03,1.27E-02
113474,8.43E-03,1.28E-02
113475,8.58E-03,1.29E-02
113476,8.68E-03,1.30E-02
113477,8.31E-03,1.31E-02
113478,7.92E-03,1.32E-02
113479,7.90E-03,1.33E-02
113480,7.90E-03,1.35E-02
113481,7.90E-03,1.36E-02
113482,7.88E-03,1.37E-02
113483,7.76E-03,1.38E-02
113484,7.75E-03,1.39E-02
113485,7.34E-03,1.40E-02
113486,7.17E-03,1.41E-02
113487,7.08E-03,1.42E-02
113488,6.96E-03,1.43E-02
113489,6.83E-03,1.44E-02
113490,6.70E-03,1.45E-02
113491,6.70E-03,1.46E-02
113492,7.88E-03,5.24E-03
113493,8.36E-03,5.24E-03
113494,8.14E-03,5.23E-03
113495,7.74E-03,7.57E-03
113496,8.38E-03,1.03E-02
113497,8.57E-03,1.83E-02
113498,8.30E-03,1.82E-02
113499,8.50E-03,1.82E-02
113500,7.93E-03,1.81E-02
113501,7.21E-03,2.96E-02
113502,6.63E-03,3.02E-02
113503,6.37E-03,3.09E-02
113504,7.33E-03,8.05E-03
113505,6.26E-03,8.03E-03
113506,5.69E-03,7.99E-03
113507,7.68E-03,1.87E-02
113508,6.57E-03,1.88E-02
113509,8.26E-03,6.51E-03
113510,6.75E-03,4.69E-03
113511,8.07E-03,2.78E-02
113512,8.04E-03,2.82E-02
113513,8.11E-03,1.51E-02
113514,8.11E-03,1.51E-02
113515,8.11E-03,1.50E-02
113516,8.11E-03,1.50E-02
113517,8.11E-03,1.50E-02
113518,8.11E-03,1.49E-02
113519,8.11E-03,1.49E-02
113520,8.12E-03,1.48E-02
113521,8.12E-03,1.48E-02
113522,8.12E-03,1.47E-02
113523,8.12E-03,1.47E-02
113524,8.12E-03,1.46E-02
113525,8.12E-03,1.46E-02
113526,8.12E-03,1.45E-02
113527,8.12E-03,1.45E-02
113528,8.12E-03,1.44E-02
113529,8.12E-03,1.44E-02
113530,8.12E-03,1.43E-02
113531,8.12E-03,1.43E-02
113532,8.12E-03,1.42E-02
113533,8.12E-03,1.42E-02
113534,8.12E-03,1.41E-02
113535,8.13E-03,1.41E-02
113536,8.13E-03,1.40E-02
113537,8.13E-03,1.39E-02
113538,8.13E-03,1.39E-02
113539,8.13E-03,1.38E-02
113540,8.14E-03,1.38E-02
113541,8.14E-03,1.37E-02
113542,8.14E-03,1.37E-02
113543,8.15E-03,1.36E-02
113544,8.15E-03,1.36E-02
113545,8.15E-03,1.35E-02
113546,8.16E-03,1.34E-02
113547,8.16E-03,1.34E-02
113548,8.16E-03,1.33E-02
113549,8.17E-03,1.33E-02
113550,8.17E-03,1.32E-02
113551,8.17E-03,1.32E-02
113552,8.18E-03,1.31E-02
113553,8.19E-03,1.30E-02
113554,8.19E-03,1.30E-02
113555,8.20E-03,1.29E-02
113556,8.21E-03,1.29E-02
113557,8.21E-03,1.28E-02
113558,8.22E-03,1.27E-02
113559,8.23E-03,1.27E-02
113560,8.25E-03,1.26E-02
113561,8.26E-03,1.25E-02
113562,8.27E-03,1.25E-02
113563,8.29E-03,1.24E-02
113564,8.31E-03,1.23E-02
113565,8.34E-03,1.23E-02
113566,8.37E-03,1.22E-02
113567,8.40E-03,1.21E-02
113568,8.44E-03,1.21E-02
113569,8.49E-03,1.20E-02
113570,8.56E-03,1.20E-02
113571,8.65E-03,1.19E-02
113572,8.76E-03,1.18E-02
113573,8.92E-03,1.18E-02
113574,9.16E-03,1.17E-02
113575,9.55E-03,1.16E-02
113576,1.02E-02,1.15E-02
113577,1.03E-02,1.15E-02
113578,9.28E-03,1.14E-02
113579,8.50E-03,1.13E-02
113580,8.53E-03,1.13E-02
113581,8.57E-03,1.12E-02
113582,8.63E-03,1.11E-02
113583,8.69E-03,1.11E-02
113584,8.77E-03,1.10E-02
113585,8.87E-03,1.09E-02
113586,9.00E-03,1.09E-02
113587,9.16E-03,1.08E-02
113588,9.38E-03,1.07E-02
113589,9.66E-03,1.06E-02
113590,9.40E-03,1.06E-02
113591,8.50E-03,1.05E-02
113592,6.56E-03,1.04E-02
113593,5.85E-03,1.03E-02
113594,6.27E-03,1.03E-02
113595,6.90E-03,1.02E-02
113596,6.99E-03,1.02E-02
113597,7.11E-03,1.01E-02
113598,7.35E-03,1.01E-02
113599,7.44E-03,9.99E-03
113600,7.52E-03,9.93E-03
113601,7.59E-03,9.86E-03
113602,7.64E-03,9.80E-03
113603,7.71E-03,9.74E-03
113604,7.78E-03,9.69E-03
113605,7.81E-03,9.63E-03
113606,7.81E-03,9.58E-03
113607,7.81E-03,9.52E-03
113608,8.16E-03,9.47E-03
113609,8.63E-03,9.43E-03
113610,8.65E-03,9.38E-03
113611,8.49E-03,9.34E-03
113612,8.40E-03,9.30E-03
113613,8.45E-03,9.26E-03
113614,8.56E-03,9.23E-03
113615,8.62E-03,9.20E-03
113616,8.70E-03,9.18E-03
113617,8.78E-03,9.17E-03
113618,8.90E-03,9.15E-03
113619,9.04E-03,9.15E-03
113620,9.31E-03,9.15E-03
113621,9.58E-03,9.16E-03
113622,9.54E-03,9.17E-03
113623,8.96E-03,9.19E-03
113624,8.18E-03,9.22E-03
113625,7.84E-03,9.25E-03
113626,7.83E-03,9.29E-03
113627,7.84E-03,9.33E-03
113628,7.84E-03,9.39E-03
113629,7.85E-03,9.45E-03
113630,7.86E-03,9.52E-03
113631,7.86E-03,9.61E-03
113632,7.87E-03,9.70E-03
113633,7.88E-03,9.80E-03
113634,7.89E-03,9.91E-03
113635,7.90E-03,1.00E-02
113636,7.91E-03,1.02E-02
113637,7.92E-03,1.03E-02
113638,7.92E-03,1.04E-02
113639,7.93E-03,1.06E-02
113640,8.00E-03,1.07E-02
113641,8.07E-03,1.09E-02
113642,8.18E-03,1.11E-02
113643,8.32E-03,1.13E-02
113644,8.19E-03,1.14E-02
113645,8.12E-03,1.16E-02
113646,8.21E-03,1.17E-02
113647,8.18E-03,1.19E-02
113648,8.36E-03,1.21E-02
113649,5.69E-03,4.83E-03
113650,7.52E-03,6.46E-03
113651,8.36E-03,6.45E-03
113652,9.91E-03,6.43E-03
113653,1.01E-02,6.42E-03
113654,9.93E-03,6.40E-03
113655,9.69E-03,6.37E-03
113656,9.24E-03,6.35E-03
113657,7.98E-03,6.32E-03
113658,7.27E-03,6.30E-03
113659,7.03E-03,6.28E-03
113660,6.89E-03,6.26E-03
113661,6.71E-03,6.24E-03
113662,6.48E-03,6.23E-03
113663,6.18E-03,6.21E-03
113664,5.79E-03,6.20E-03
113665,5.87E-03,6.19E-03
113666,6.54E-03,6.19E-03
113667,6.86E-03,6.18E-03
113668,6.76E-03,6.18E-03
113669,6.68E-03,6.18E-03
113670,6.64E-03,6.17E-03
113671,7.71E-03,6.17E-03
113672,9.30E-03,6.18E-03
113673,9.71E-03,6.18E-03
113674,9.50E-03,6.17E-03
113675,9.33E-03,6.17E-03
113676,9.14E-03,6.16E-03
113677,8.81E-03,6.16E-03
113678,8.40E-03,6.15E-03
113679,8.11E-03,6.14E-03
113680,8.04E-03,6.14E-03
113681,8.09E-03,6.13E-03
113682,8.10E-03,6.12E-03
113683,8.23E-03,6.12E-03
113684,9.21E-03,6.11E-03
113685,9.99E-03,6.10E-03
113686,9.71E-03,6.09E-03
113687,9.33E-03,6.08E-03
113688,9.09E-03,6.06E-03
113689,9.10E-03,6.04E-03
113690,9.32E-03,6.02E-03
113691,9.71E-03,6.00E-03
113692,1.02E-02,5.97E-03
113693,1.04E-02,5.95E-03
113694,9.94E-03,5.91E-03
113695,9.51E-03,5.88E-03
113696,9.24E-03,5.84E-03
113697,9.04E-03,5.80E-03
113698,8.95E-03,5.76E-03
113699,8.94E-03,5.72E-03
113700,8.81E-03,5.68E-03
113701,8.60E-03,5.64E-03
113702,8.47E-03,5.59E-03
113703,8.39E-03,5.55E-03
113704,8.34E-03,5.51E-03
113705,8.30E-03,5.46E-03
113706,8.27E-03,5.42E-03
113707,8.24E-03,5.37E-03
113708,8.15E-03,5.33E-03
113709,7.94E-03,5.28E-03
113710,7.81E-03,5.24E-03
113711,7.79E-03,5.20E-03
113712,7.77E-03,5.15E-03
113713,7.74E-03,5.11E-03
113714,7.71E-03,5.07E-03
113715,7.68E-03,5.03E-03
113716,7.64E-03,4.99E-03
113717,7.60E-03,4.95E-03
113718,7.55E-03,4.91E-03
113719,7.49E-03,4.87E-03
113720,7.42E-03,4.83E-03
113721,7.34E-03,4.80E-03
113722,7.23E-03,4.76E-03
113723,7.07E-03,4.73E-03
113724,7.04E-03,4.70E-03
113725,7.19E-03,4.67E-03
113726,7.34E-03,4.64E-03
113727,7.34E-03,4.61E-03
113728,7.26E-03,4.59E-03
113729,7.16E-03,4.56E-03
113730,7.01E-03,4.54E-03
113731,6.74E-03,4.52E-03
113732,6.68E-03,4.50E-03
113733,6.98E-03,4.48E-03
113734,7.27E-03,4.46E-03
113735,7.57E-03,4.45E-03
113736,7.69E-03,4.44E-03
113737,7.74E-03,4.43E-03
113738,7.83E-03,4.42E-03
113739,7.62E-03,4.40E-03
113740,7.36E-03,4.38E-03
113741,6.87E-03,4.39E-03
113742,6.79E-03,4.34E-03
113743,6.93E-03,4.30E-03
113744,7.18E-03,4.30E-03
113745,9.00E-03,1.08E-02
113746,7.67E-03,7.64E-03
113747,1.00E-02,5.50E-03
113748,9.78E-03,5.56E-03
113749,7.14E-03,5.62E-03
113750,7.11E-03,5.66E-03
113751,6.38E-03,5.70E-03
113752,6.34E-03,5.73E-03
113753,6.25E-03,5.77E-03
113754,6.03E-03,5.78E-03
113755,4.37E-03,5.68E-03
113756,8.06E-03,7.81E-03
113757,1.05E-02,7.28E-03
113758,9.15E-03,7.29E-03
113759,8.26E-03,7.30E-03
113760,7.79E-03,7.30E-03
113761,8.37E-03,7.00E-03
113762,8.58E-03,7.84E-03
113763,5.01E-03,5.60E-03
113764,4.15E-03,5.53E-03
113765,7.38E-03,1.90E-02
113766,8.64E-03,1.95E-02
113767,8.38E-03,8.08E-03
113768,7.06E-03,1.02E-02
113769,7.10E-03,1.01E-02
113770,7.40E-03,1.21E-02
113771,9.97E-03,1.79E-02
113772,9.27E-03,1.78E-02
113773,9.15E-03,1.73E-02
113774,7.15E-03,7.72E-03
113775,7.47E-03,7.73E-03
113776,8.59E-03,1.03E-02
113777,6.97E-03,1.15E-02
113778,8.52E-03,7.74E-03
113779,7.83E-03,7.64E-03
113780,8.98E-03,1.29E-02
113781,6.48E-03,1.07E-02
113782,6.95E-03,1.07E-02
113783,7.46E-03,1.07E-02
113784,7.78E-03,6.99E-03
113785,1.10E-02,5.14E-03
113786,1.06E-02,5.07E-03
113787,6.09E-03,7.77E-03
113788,6.31E-03,7.90E-03
113789,7.44E-03,1.94E-02
113790,7.87E-03,4.29E-03
113791,7.04E-03,1.98E-02
113792,7.17E-03,1.99E-02
113793,7.27E-03,2.00E-02
113794,6.29E-03,2.00E-02
113795,6.24E-03,2.01E-02
113796,6.18E-03,2.01E-02
113797,6.21E-03,2.02E-02
113798,6.42E-03,2.02E-02
113799,6.93E-03,2.03E-02
113800,7.90E-03,2.03E-02
113801,8.09E-03,2.04E-02
113802,8.62E-03,2.05E-02
113803,8.81E-03,2.05E-02
113804,9.01E-03,2.06E-02
113805,9.10E-03,2.07E-02
113806,9.19E-03,2.07E-02
113807,9.32E-03,2.08E-02
113808,8.80E-03,2.09E-02
113809,8.88E-03,2.09E-02
113810,6.78E-03,2.10E-02
113811,6.30E-03,2.10E-02
113812,6.26E-03,2.11E-02
113813,5.96E-03,2.11E-02
113814,6.08E-03,2.12E-02
113815,6.27E-03,2.12E-02
113816,6.56E-03,2.12E-02
113817,6.95E-03,2.13E-02
113818,7.08E-03,2.13E-02
113819,7.53E-03,2.13E-02
113820,7.62E-03,2.14E-02
113821,7.68E-03,2.14E-02
113822,7.73E-03,2.14E-02
113823,7.77E-03,2.15E-02
113824,7.80E-03,2.15E-02
113825,7.83E-03,2.15E-02
113826,7.85E-03,2.15E-02
113827,7.87E-03,2.16E-02
113828,7.89E-03,2.16E-02
113829,7.86E-03,2.16E-02
113830,7.86E-03,2.16E-02
113831,7.93E-03,2.17E-02
113832,7.98E-03,2.17E-02
113833,8.01E-03,2.17E-02
113834,8.03E-03,2.17E-02
113835,8.04E-03,2.18E-02
113836,8.05E-03,2.18E-02
113837,8.09E-03,2.18E-02
113838,8.14E-03,2.19E-02
113839,8.16E-03,2.19E-02
113840,8.16E-03,2.19E-02
113841,8.17E-03,2.19E-02
113842,8.17E-03,2.20E-02
113843,8.17E-03,2.20E-02
113844,8.18E-03,2.20E-02
113845,8.18E-03,2.20E-02
113846,8.19E-03,2.21E-02
113847,8.20E-03,2.21E-02
113848,8.20E-03,2.21E-02
113849,8.21E-03,2.22E-02
113850,8.21E-03,2.22E-02
113851,8.22E-03,2.22E-02
113852,8.23E-03,2.22E-02
113853,8.24E-03,2.22E-02
113854,8.25E-03,2.23E-02
113855,8.26E-03,2.23E-02
113856,8.27E-03,2.23E-02
113857,8.28E-03,2.23E-02
113858,8.30E-03,2.23E-02
113859,8.31E-03,2.23E-02
113860,8.33E-03,2.24E-02
113861,8.35E-03,2.24E-02
113862,8.38E-03,2.24E-02
113863,8.41E-03,2.24E-02
113864,8.44E-03,2.24E-02
113865,8.48E-03,2.24E-02
113866,8.51E-03,2.24E-02
113867,8.52E-03,2.24E-02
113868,8.54E-03,2.24E-02
113869,8.56E-03,2.24E-02
113870,8.57E-03,2.24E-02
113871,8.58E-03,2.24E-02
113872,8.76E-03,2.24E-02
113873,8.87E-03,2.24E-02
113874,8.95E-03,2.24E-02
113875,9.11E-03,2.24E-02
113876,9.31E-03,2.25E-02
113877,9.56E-03,2.25E-02
113878,9.85E-03,2.25E-02
113879,1.03E-02,2.26E-02
113880,1.07E-02,2.26E-02
113881,1.08E-02,2.27E-02
113882,1.07E-02,2.28E-02
113883,1.03E-02,2.29E-02
113884,1.03E-02,2.30E-02
113885,1.04E-02,2.31E-02
113886,1.08E-02,2.32E-02
113887,1.01E-02,2.34E-02
113888,8.95E-03,2.35E-02
113889,8.57E-03,2.36E-02
113890,8.06E-03,2.37E-02
113891,7.79E-03,2.38E-02
113892,7.73E-03,2.39E-02
113893,7.18E-03,2.41E-02
113894,5.54E-03,2.41E-02
113895,5.70E-03,2.42E-02
113896,5.75E-03,2.43E-02
113897,5.80E-03,2.43E-02
113898,5.72E-03,2.44E-02
113899,5.62E-03,2.44E-02
113900,5.49E-03,2.44E-02
113901,5.26E-03,2.45E-02
113902,5.58E-03,2.45E-02
113903,6.12E-03,2.45E-02
113904,6.23E-03,2.45E-02
113905,7.07E-03,2.45E-02
113906,7.13E-03,2.45E-02
113907,7.28E-03,2.46E-02
113908,7.35E-03,2.46E-02
113909,7.35E-03,2.46E-02
113910,7.36E-03,2.45E-02
113911,7.35E-03,2.45E-02
113912,7.57E-03,2.45E-02
113913,7.96E-03,2.45E-02
113914,8.13E-03,2.45E-02
113915,8.13E-03,2.45E-02
113916,8.13E-03,2.45E-02
113917,8.14E-03,2.44E-02
113918,8.20E-03,2.44E-02
113919,8.26E-03,2.44E-02
113920,8.31E-03,2.44E-02
113921,8.33E-03,2.44E-02
113922,8.33E-03,2.43E-02
113923,8.35E-03,2.43E-02
113924,8.36E-03,2.43E-02
113925,8.38E-03,2.43E-02
113926,8.40E-03,2.43E-02
113927,8.42E-03,2.43E-02
113928,8.45E-03,2.43E-02
113929,8.48E-03,2.43E-02
113930,8.51E-03,2.43E-02
113931,8.55E-03,2.43E-02
113932,8.59E-03,2.43E-02
113933,8.64E-03,2.43E-02
113934,8.69E-03,2.43E-02
113935,8.75E-03,2.43E-02
113936,8.82E-03,2.44E-02
113937,8.88E-03,2.44E-02
113938,8.94E-03,2.45E-02
113939,9.03E-03,2.45E-02
113940,9.14E-03,2.46E-02
113941,9.26E-03,2.46E-02
113942,9.41E-03,2.47E-02
113943,9.60E-03,2.48E-02
113944,9.83E-03,2.49E-02
113945,1.01E-02,2.51E-02
113946,1.01E-02,2.52E-02
113947,9.96E-03,2.53E-02
113948,9.90E-03,2.55E-02
113949,1.01E-02,2.57E-02
113950,1.07E-02,2.58E-02
113951,1.07E-02,2.60E-02
113952,5.68E-03,2.62E-02
113953,5.73E-03,2.63E-02
113954,4.90E-03,2.64E-02
113955,5.70E-03,2.65E-02
113956,5.98E-03,2.66E-02
113957,6.28E-03,2.67E-02
113958,6.34E-03,2.67E-02
113959,8.02E-03,3.25E-02
113960,8.79E-03,5.12E-03
113961,6.26E-03,4.71E-03
113962,9.25E-03,1.71E-02
113963,9.27E-03,1.70E-02
113964,9.26E-03,1.69E-02
113965,9.36E-03,1.68E-02
113966,9.30E-03,1.67E-02
113967,9.24E-03,1.66E-02
113968,9.15E-03,1.65E-02
113969,8.93E-03,1.64E-02
113970,8.77E-03,1.64E-02
113971,8.79E-03,1.63E-02
113972,8.83E-03,1.62E-02
113973,8.89E-03,1.61E-02
113974,8.95E-03,1.60E-02
113975,9.00E-03,1.59E-02
113976,9.03E-03,1.58E-02
113977,9.03E-03,1.57E-02
113978,9.03E-03,1.56E-02
113979,9.04E-03,1.55E-02
113980,9.05E-03,1.54E-02
113981,9.07E-03,1.53E-02
113982,9.09E-03,1.52E-02
113983,9.11E-03,1.51E-02
113984,9.12E-03,1.50E-02
113985,9.14E-03,1.49E-02
113986,9.15E-03,1.48E-02
113987,9.17E-03,1.47E-02
113988,9.19E-03,1.46E-02
113989,9.20E-03,1.45E-02
113990,9.22E-03,1.44E-02
113991,9.24E-03,1.42E-02
113992,9.25E-03,1.41E-02
113993,9.27E-03,1.40E-02
113994,9.30E-03,1.39E-02
113995,9.33E-03,1.37E-02
113996,9.35E-03,1.36E-02
113997,9.35E-03,1.35E-02
113998,9.35E-03,1.34E-02
113999,9.21E-03,1.32E-02
114000,9.20E-03,1.31E-02
114001,8.95E-03,1.30E-02
114002,8.77E-03,1.28E-02
114003,8.56E-03,1.27E-02
114004,8.26E-03,1.26E-02
114005,8.23E-03,1.25E-02
114006,8.22E-03,1.24E-02
114007,8.48E-03,1.22E-02
114008,7.87E-03,2.86E-02
114009,6.32E-03,1.09E-02
114010,7.50E-03,1.05E-02
114011,6.82E-03,1.05E-02
114012,6.89E-03,4.62E-03
114013,7.47E-03,1.99E-02
114014,8.14E-03,2.68E-02
114015,8.49E-03,6.57E-03
114016,8.94E-03,2.50E-02
114017,6.87E-03,5.79E-03
114018,6.68E-03,5.58E-03
114019,6.21E-03,1.89E-02
114020,8.20E-03,1.84E-02
114021,8.48E-03,1.84E-02
114022,8.76E-03,1.85E-02
114023,9.55E-03,1.85E-02
114024,9.73E-03,1.86E-02
114025,9.69E-03,1.87E-02
114026,9.60E-03,1.87E-02
114027,9.31E-03,1.88E-02
114028,9.22E-03,1.89E-02
114029,9.14E-03,1.90E-02
114030,9.07E-03,1.90E-02
114031,9.01E-03,1.91E-02
114032,8.97E-03,1.92E-02
114033,9.12E-03,1.93E-02
114034,9.24E-03,1.94E-02
114035,9.38E-03,1.95E-02
114036,9.86E-03,1.96E-02
114037,9.78E-03,1.97E-02
114038,9.52E-03,1.98E-02
114039,8.96E-03,1.99E-02
114040,8.78E-03,2.01E-02
114041,7.51E-03,2.01E-02
114042,8.84E-03,2.03E-02
114043,8.18E-03,2.04E-02
114044,7.76E-03,1.09E-02
114045,7.97E-03,1.10E-02
114046,8.12E-03,8.56E-03
114047,8.19E-03,8.68E-03
114048,7.57E-03,7.71E-03
114049,7.68E-03,2.57E-02
114050,7.52E-03,2.48E-02
114051,5.40E-03,7.92E-03
114052,7.48E-03,3.20E-02
114053,7.22E-03,3.20E-02
114054,7.01E-03,3.20E-02
114055,8.03E-03,3.18E-02
114056,7.56E-03,3.15E-02
114057,7.94E-03,3.18E-02
114058,5.19E-03,3.22E-02
114059,6.38E-03,1.80E-02
114060,1.03E-02,1.48E-02
114061,9.95E-03,1.49E-02
114062,1.08E-02,1.51E-02
114063,1.08E-02,1.52E-02
114064,1.12E-02,1.54E-02
114065,1.10E-02,1.55E-02
114066,1.09E-02,1.57E-02
114067,1.06E-02,1.58E-02
114068,1.02E-02,1.60E-02
114069,1.02E-02,1.61E-02
114070,9.29E-03,1.63E-02
114071,8.91E-03,1.64E-02
114072,8.91E-03,1.65E-02
114073,8.71E-03,1.67E-02
114074,8.51E-03,1.68E-02
114075,8.44E-03,1.70E-02
114076,8.42E-03,1.71E-02
114077,8.33E-03,1.73E-02
114078,8.33E-03,1.74E-02
114079,8.56E-03,1.75E-02
114080,9.51E-03,1.77E-02
114081,7.38E-03,1.78E-02
114082,8.26E-03,1.84E-02
114083,6.86E-03,6.09E-03
114084,6.82E-03,6.05E-03
114085,8.10E-03,1.53E-02
114086,8.12E-03,1.53E-02
114087,8.59E-03,1.97E-02
114088,7.12E-03,1.99E-02
114089,7.10E-03,1.18E-02
114090,6.17E-03,6.30E-03
114091,6.17E-03,8.01E-03
114092,5.33E-03,7.84E-03
114093,7.45E-03,1.06E-02
114094,8.22E-03,4.31E-03
114095,6.23E-03,7.96E-03
114096,8.00E-03,7.54E-03
114097,5.90E-03,1.03E-02
114098,8.16E-03,1.72E-02
114099,8.37E-03,7.80E-03
114100,8.64E-03,7.78E-03
114101,8.79E-03,7.77E-03
114102,8.95E-03,7.75E-03
114103,8.90E-03,7.74E-03
114104,8.76E-03,7.73E-03
114105,7.95E-03,7.71E-03
114106,6.75E-03,7.70E-03
114107,6.66E-03,7.69E-03
114108,6.80E-03,7.68E-03
114109,6.79E-03,7.67E-03
114110,6.31E-03,7.66E-03
114111,6.14E-03,7.65E-03
114112,5.85E-03,7.65E-03
114113,5.56E-03,7.64E-03
114114,5.99E-03,7.63E-03
114115,6.28E-03,7.63E-03
114116,7.38E-03,7.62E-03
114117,7.86E-03,7.62E-03
114118,7.95E-03,7.61E-03
114119,8.05E-03,7.60E-03
114120,7.77E-03,7.59E-03
114121,7.37E-03,7.59E-03
114122,7.17E-03,7.58E-03
114123,6.99E-03,7.57E-03
114124,6.75E-03,7.56E-03
114125,6.43E-03,7.55E-03
114126,7.28E-03,7.55E-03
114127,9.07E-03,7.54E-03
114128,1.04E-02,7.53E-03
114129,1.08E-02,7.52E-03
114130,1.04E-02,7.51E-03
114131,9.87E-03,7.50E-03
114132,9.39E-03,7.48E-03
114133,8.43E-03,7.47E-03
114134,7.67E-03,7.45E-03
114135,7.13E-03,7.44E-03
114136,6.11E-03,7.43E-03
114137,5.65E-03,7.42E-03
114138,5.45E-03,7.41E-03
114139,5.93E-03,7.41E-03
114140,8.02E-03,7.40E-03
114141,9.83E-03,7.40E-03
114142,1.08E-02,7.39E-03
114143,1.06E-02,7.38E-03
114144,9.93E-03,7.36E-03
114145,9.07E-03,7.35E-03
114146,6.87E-03,7.33E-03
114147,6.57E-03,7.32E-03
114148,6.42E-03,7.31E-03
114149,6.18E-03,7.30E-03
114150,6.00E-03,7.29E-03
114151,7.49E-03,7.30E-03
114152,8.82E-03,7.09E-03
114153,8.54E-03,7.19E-03
114154,8.27E-03,7.28E-03
114155,8.18E-03,7.37E-03
114156,8.22E-03,7.46E-03
114157,8.31E-03,7.69E-03
114158,8.33E-03,7.57E-03
114159,9.06E-03,8.10E-03
114160,8.17E-03,8.46E-03
114161,8.18E-03,8.35E-03
114162,8.29E-03,8.25E-03
114163,7.66E-03,7.12E-03
114164,8.26E-03,7.10E-03
114165,8.50E-03,7.08E-03
114166,6.96E-03,7.06E-03
114167,6.40E-03,7.05E-03
114168,6.30E-03,7.03E-03
114169,6.05E-03,7.01E-03
114170,5.40E-03,6.98E-03
114171,5.82E-03,7.00E-03
114172,8.04E-03,6.96E-03
114173,7.86E-03,6.99E-03
114174,1.15E-02,7.02E-03
114175,8.60E-03,7.00E-03
114176,8.18E-03,6.99E-03
114177,1.01E-02,5.21E-03
114178,9.92E-03,5.26E-03
114179,7.01E-03,5.30E-03
114180,6.96E-03,5.34E-03
114181,6.37E-03,5.37E-03
114182,6.31E-03,5.38E-03
114183,6.30E-03,5.40E-03
114184,3.46E-03,5.43E-03
114185,5.30E-03,5.36E-03
114186,9.98E-03,1.80E-02
114187,8.69E-03,1.82E-02
114188,7.96E-03,1.86E-02
114189,7.29E-03,1.85E-02
114190,7.33E-03,1.84E-02
114191,7.65E-03,1.83E-02
114192,8.97E-03,1.04E-02
114193,7.77E-03,1.91E-02
114194,8.23E-03,1.94E-02
114195,7.78E-03,1.92E-02
114196,7.53E-03,2.01E-02
114197,6.55E-03,2.04E-02
114198,7.42E-03,2.02E-02
114199,6.77E-03,1.09E-02
114200,8.97E-03,8.12E-03
114201,8.64E-03,8.80E-03
114202,8.96E-03,8.95E-03
114203,1.04E-02,9.11E-03
114204,1.04E-02,9.16E-03
114205,9.37E-03,9.14E-03
114206,9.19E-03,9.20E-03
114207,8.98E-03,9.27E-03
114208,8.85E-03,9.34E-03
114209,8.67E-03,9.40E-03
114210,8.29E-03,9.47E-03
114211,8.14E-03,9.52E-03
114212,8.11E-03,9.58E-03
114213,7.95E-03,9.63E-03
114214,7.73E-03,9.69E-03
114215,7.68E-03,9.75E-03
114216,7.58E-03,9.80E-03
114217,7.38E-03,9.85E-03
114218,7.20E-03,9.90E-03
114219,6.98E-03,9.96E-03
114220,7.06E-03,1.00E-02
114221,7.09E-03,1.16E-02
114222,7.25E-03,1.19E-02
114223,7.25E-03,1.18E-02
114224,1.01E-02,1.77E-02
114225,1.06E-02,1.76E-02
114226,9.58E-03,1.75E-02
114227,9.33E-03,1.74E-02
114228,7.80E-03,7.72E-03
114229,7.36E-03,7.71E-03
114230,6.22E-03,7.68E-03
114231,9.95E-03,1.31E-02
114232,1.18E-02,1.34E-02
114233,7.43E-03,1.35E-02
114234,9.09E-03,1.34E-02
114235,9.55E-03,1.05E-02
114236,9.25E-03,1.06E-02
114237,8.81E-03,1.06E-02
114238,7.79E-03,1.06E-02
114239,8.22E-03,6.95E-03
114240,8.54E-03,6.94E-03
114241,8.57E-03,6.92E-03
114242,1.05E-02,6.90E-03
114243,9.56E-03,6.87E-03
114244,9.42E-03,6.85E-03
114245,9.42E-03,6.82E-03
114246,9.25E-03,6.80E-03
114247,8.95E-03,6.77E-03
114248,8.78E-03,6.74E-03
114249,8.59E-03,6.71E-03
114250,8.17E-03,6.68E-03
114251,7.77E-03,6.65E-03
114252,7.66E-03,6.62E-03
114253,7.63E-03,6.59E-03
114254,7.57E-03,6.56E-03
114255,7.49E-03,6.53E-03
114256,7.40E-03,6.51E-03
114257,7.27E-03,6.48E-03
114258,7.10E-03,6.46E-03
114259,6.87E-03,6.43E-03
114260,6.54E-03,6.41E-03
114261,5.95E-03,6.39E-03
114262,5.14E-03,6.37E-03
114263,5.35E-03,6.35E-03
114264,6.28E-03,6.34E-03
114265,6.33E-03,6.32E-03
114266,6.32E-03,6.31E-03
114267,6.34E-03,6.30E-03
114268,6.34E-03,6.29E-03
114269,6.18E-03,6.29E-03
114270,7.97E-03,4.90E-03
114271,1.02E-02,4.92E-03
114272,8.65E-03,7.80E-03
114273,8.03E-03,7.82E-03
114274,7.48E-03,7.82E-03
114275,6.87E-03,7.81E-03
114276,5.41E-03,7.83E-03
114277,5.27E-03,7.88E-03
114278,7.63E-03,1.90E-02
114279,7.84E-03,1.86E-02
114280,7.95E-03,1.82E-02
114281,8.07E-03,1.78E-02
114282,8.25E-03,1.74E-02
114283,8.59E-03,1.69E-02
114284,8.51E-03,1.65E-02
114285,8.56E-03,1.61E-02
114286,9.24E-03,1.53E-02
114287,8.79E-03,1.57E-02
114288,9.51E-03,1.49E-02
114289,9.68E-03,1.44E-02
114290,8.83E-03,1.40E-02
114291,1.01E-02,6.04E-03
114292,7.91E-03,4.28E-03
114293,7.90E-03,4.29E-03
114294,7.99E-03,4.32E-03
114295,8.53E-03,4.33E-03
114296,6.58E-03,2.68E-02
114297,6.37E-03,2.69E-02
114298,6.50E-03,2.69E-02
114299,6.88E-03,2.70E-02
114300,7.03E-03,2.70E-02
114301,7.34E-03,2.71E-02
114302,7.33E-03,2.71E-02
114303,7.66E-03,2.72E-02
114304,7.72E-03,2.72E-02
114305,7.77E-03,2.72E-02
114306,7.81E-03,2.73E-02
114307,7.84E-03,2.73E-02
114308,7.86E-03,2.74E-02
114309,7.88E-03,2.74E-02
114310,7.90E-03,2.75E-02
114311,7.92E-03,2.75E-02
114312,7.93E-03,2.75E-02
114313,7.94E-03,2.76E-02
114314,7.95E-03,2.76E-02
114315,7.96E-03,2.77E-02
114316,7.97E-03,2.77E-02
114317,7.98E-03,2.78E-02
114318,7.99E-03,2.79E-02
114319,8.00E-03,2.79E-02
114320,8.00E-03,2.80E-02
114321,8.01E-03,2.81E-02
114322,8.01E-03,2.81E-02
114323,8.01E-03,2.82E-02
114324,8.01E-03,2.83E-02
114325,8.02E-03,2.84E-02
114326,8.02E-03,2.84E-02
114327,8.02E-03,2.85E-02
114328,8.02E-03,2.86E-02
114329,8.02E-03,2.87E-02
114330,8.02E-03,2.88E-02
114331,8.03E-03,2.89E-02
114332,8.03E-03,2.90E-02
114333,8.03E-03,2.91E-02
114334,8.03E-03,2.92E-02
114335,8.03E-03,2.93E-02
114336,8.03E-03,2.94E-02
114337,8.03E-03,2.95E-02
114338,8.04E-03,2.96E-02
114339,8.04E-03,2.97E-02
114340,8.04E-03,2.99E-02
114341,8.04E-03,3.00E-02
114342,8.04E-03,3.01E-02
114343,8.04E-03,3.02E-02
114344,8.04E-03,3.04E-02
114345,8.04E-03,3.05E-02
114346,8.04E-03,3.07E-02
114347,8.04E-03,3.08E-02
114348,8.05E-03,3.09E-02
114349,8.05E-03,3.11E-02
114350,8.05E-03,3.12E-02
114351,8.05E-03,3.14E-02
114352,7.98E-03,3.15E-02
114353,7.98E-03,3.17E-02
114354,8.00E-03,3.19E-02
114355,8.02E-03,3.21E-02
114356,7.91E-03,3.23E-02
114357,7.97E-03,3.24E-02
114358,6.98E-03,1.16E-02
114359,8.30E-03,1.03E-02
114360,8.15E-03,6.10E-03
114361,7.20E-03,4.97E-03
114362,7.25E-03,4.70E-03
114363,8.50E-03,4.76E-03
114364,8.37E-03,4.79E-03
114365,6.33E-03,7.91E-03
114366,5.64E-03,7.90E-03
114367,4.92E-03,7.89E-03
114368,8.11E-03,1.52E-02
114369,8.11E-03,1.52E-02
114370,8.11E-03,1.51E-02
114371,8.11E-03,1.51E-02
114372,8.11E-03,1.50E-02
114373,8.11E-03,1.50E-02
114374,8.11E-03,1.49E-02
114375,8.11E-03,1.49E-02
114376,8.11E-03,1.48E-02
114377,8.11E-03,1.48E-02
114378,8.12E-03,1.47E-02
114379,8.12E-03,1.47E-02
114380,8.12E-03,1.46E-02
114381,8.12E-03,1.46E-02
114382,8.12E-03,1.45E-02
114383,8.12E-03,1.45E-02
114384,8.12E-03,1.44E-02
114385,8.12E-03,1.44E-02
114386,8.12E-03,1.43E-02
114387,8.12E-03,1.43E-02
114388,8.12E-03,1.42E-02
114389,8.12E-03,1.41E-02
114390,8.12E-03,1.41E-02
114391,8.13E-03,1.40E-02
114392,8.13E-03,1.40E-02
114393,8.13E-03,1.39E-02
114394,8.13E-03,1.39E-02
114395,8.13E-03,1.38E-02
114396,8.14E-03,1.38E-02
114397,8.14E-03,1.37E-02
114398,8.14E-03,1.36E-02
114399,8.15E-03,1.36E-02
114400,8.15E-03,1.35E-02
114401,8.15E-03,1.35E-02
114402,8.15E-03,1.34E-02
114403,8.16E-03,1.34E-02
114404,8.16E-03,1.33E-02
114405,8.17E-03,1.32E-02
114406,8.17E-03,1.32E-02
114407,8.18E-03,1.31E-02
114408,8.18E-03,1.30E-02
114409,8.19E-03,1.30E-02
114410,8.19E-03,1.29E-02
114411,8.20E-03,1.29E-02
114412,8.21E-03,1.28E-02
114413,8.22E-03,1.27E-02
114414,8.23E-03,1.27E-02
114415,8.24E-03,1.26E-02
114416,8.25E-03,1.25E-02
114417,8.27E-03,1.25E-02
114418,8.28E-03,1.24E-02
114419,8.30E-03,1.23E-02
114420,8.33E-03,1.23E-02
114421,8.35E-03,1.22E-02
114422,8.39E-03,1.21E-02
114423,8.43E-03,1.21E-02
114424,8.48E-03,1.20E-02
114425,8.54E-03,1.19E-02
114426,8.62E-03,1.18E-02
114427,8.73E-03,1.18E-02
114428,8.89E-03,1.17E-02
114429,9.12E-03,1.16E-02
114430,9.48E-03,1.16E-02
114431,1.01E-02,1.15E-02
114432,1.02E-02,1.14E-02
114433,9.22E-03,1.13E-02
114434,8.48E-03,1.13E-02
114435,8.51E-03,1.12E-02
114436,8.55E-03,1.11E-02
114437,8.60E-03,1.11E-02
114438,8.67E-03,1.10E-02
114439,8.74E-03,1.09E-02
114440,8.84E-03,1.08E-02
114441,8.96E-03,1.08E-02
114442,9.11E-03,1.07E-02
114443,9.32E-03,1.06E-02
114444,9.59E-03,1.05E-02
114445,9.34E-03,1.04E-02
114446,8.48E-03,1.04E-02
114447,6.46E-03,1.03E-02
114448,6.31E-03,1.02E-02
114449,6.32E-03,1.02E-02
114450,6.84E-03,1.01E-02
114451,6.98E-03,1.00E-02
114452,7.15E-03,9.97E-03
114453,7.38E-03,9.90E-03
114454,7.47E-03,9.83E-03
114455,7.55E-03,9.76E-03
114456,7.61E-03,9.70E-03
114457,7.66E-03,9.63E-03
114458,7.72E-03,9.57E-03
114459,7.79E-03,9.50E-03
114460,7.82E-03,9.44E-03
114461,7.82E-03,9.38E-03
114462,7.83E-03,9.33E-03
114463,8.16E-03,9.27E-03
114464,8.61E-03,9.22E-03
114465,8.63E-03,9.16E-03
114466,8.47E-03,9.11E-03
114467,8.39E-03,9.07E-03
114468,8.43E-03,9.03E-03
114469,8.53E-03,8.99E-03
114470,8.60E-03,8.96E-03
114471,8.67E-03,8.93E-03
114472,8.75E-03,8.91E-03
114473,8.86E-03,8.89E-03
114474,9.00E-03,8.88E-03
114475,9.26E-03,8.88E-03
114476,9.51E-03,8.88E-03
114477,9.47E-03,8.89E-03
114478,8.92E-03,8.90E-03
114479,8.17E-03,8.93E-03
114480,7.85E-03,8.95E-03
114481,7.84E-03,8.99E-03
114482,7.85E-03,9.03E-03
114483,7.85E-03,9.08E-03
114484,7.86E-03,9.15E-03
114485,7.87E-03,9.22E-03
114486,7.87E-03,9.30E-03
114487,7.88E-03,9.39E-03
114488,7.89E-03,9.50E-03
114489,7.90E-03,9.61E-03
114490,7.91E-03,9.73E-03
114491,7.92E-03,9.86E-03
114492,7.92E-03,1.00E-02
114493,7.93E-03,1.02E-02
114494,7.93E-03,1.03E-02
114495,7.95E-03,1.05E-02
114496,8.02E-03,1.07E-02
114497,8.04E-03,1.08E-02
114498,8.11E-03,1.10E-02
114499,8.20E-03,1.12E-02
114500,8.21E-03,1.14E-02
114501,8.24E-03,1.15E-02
114502,8.23E-03,1.17E-02
114503,8.56E-03,1.19E-02
114504,8.74E-03,1.21E-02
114505,8.24E-03,6.27E-03
114506,8.80E-03,6.24E-03
114507,9.64E-03,6.23E-03
114508,9.85E-03,6.21E-03
114509,9.83E-03,6.19E-03
114510,9.55E-03,6.17E-03
114511,9.26E-03,6.14E-03
114512,7.99E-03,6.12E-03
114513,7.31E-03,6.09E-03
114514,7.08E-03,6.07E-03
114515,6.94E-03,6.05E-03
114516,6.77E-03,6.03E-03
114517,6.55E-03,6.01E-03
114518,6.27E-03,6.00E-03
114519,5.89E-03,5.99E-03
114520,5.97E-03,5.98E-03
114521,6.61E-03,5.97E-03
114522,6.91E-03,5.96E-03
114523,6.82E-03,5.96E-03
114524,6.74E-03,5.96E-03
114525,6.70E-03,5.95E-03
114526,7.73E-03,5.95E-03
114527,9.25E-03,5.95E-03
114528,9.64E-03,5.95E-03
114529,9.44E-03,5.95E-03
114530,9.27E-03,5.95E-03
114531,9.09E-03,5.94E-03
114532,8.77E-03,5.93E-03
114533,8.39E-03,5.92E-03
114534,8.10E-03,5.91E-03
114535,8.05E-03,5.91E-03
114536,8.09E-03,5.90E-03
114537,8.10E-03,5.89E-03
114538,8.23E-03,5.88E-03
114539,9.17E-03,5.87E-03
114540,9.91E-03,5.86E-03
114541,9.63E-03,5.85E-03
114542,9.27E-03,5.84E-03
114543,9.04E-03,5.82E-03
114544,9.05E-03,5.80E-03
114545,9.27E-03,5.78E-03
114546,9.63E-03,5.76E-03
114547,1.01E-02,5.73E-03
114548,1.03E-02,5.70E-03
114549,9.86E-03,5.67E-03
114550,9.45E-03,5.63E-03
114551,9.19E-03,5.60E-03
114552,9.00E-03,5.56E-03
114553,8.91E-03,5.52E-03
114554,8.90E-03,5.48E-03
114555,8.78E-03,5.43E-03
114556,8.58E-03,5.39E-03
114557,8.46E-03,5.35E-03
114558,8.38E-03,5.30E-03
114559,8.33E-03,5.26E-03
114560,8.29E-03,5.21E-03
114561,8.26E-03,5.17E-03
114562,8.24E-03,5.12E-03
114563,8.15E-03,5.08E-03
114564,7.95E-03,5.03E-03
114565,7.82E-03,4.99E-03
114566,7.80E-03,4.94E-03
114567,7.78E-03,4.90E-03
114568,7.76E-03,4.85E-03
114569,7.73E-03,4.81E-03
114570,7.70E-03,4.77E-03
114571,7.66E-03,4.73E-03
114572,7.62E-03,4.69E-03
114573,7.58E-03,4.65E-03
114574,7.52E-03,4.61E-03
114575,7.45E-03,4.57E-03
114576,7.37E-03,4.54E-03
114577,7.26E-03,4.50E-03
114578,7.12E-03,4.47E-03
114579,7.09E-03,4.43E-03
114580,7.23E-03,4.40E-03
114581,7.37E-03,4.37E-03
114582,7.38E-03,4.34E-03
114583,7.30E-03,4.32E-03
114584,7.20E-03,4.29E-03
114585,7.05E-03,4.27E-03
114586,6.80E-03,4.25E-03
114587,6.75E-03,4.23E-03
114588,6.98E-03,4.21E-03
114589,7.28E-03,4.19E-03
114590,7.49E-03,4.18E-03
114591,7.61E-03,4.16E-03
114592,7.67E-03,4.15E-03
114593,7.66E-03,4.14E-03
114594,7.34E-03,4.13E-03
114595,7.33E-03,4.12E-03
114596,7.07E-03,4.08E-03
114597,6.97E-03,4.06E-03
114598,7.40E-03,4.03E-03
114599,7.70E-03,4.01E-03
114600,7.56E-03,2.91E-02
114601,7.39E-03,2.97E-02
114602,6.84E-03,3.03E-02
114603,6.72E-03,3.08E-02
114604,5.88E-03,3.11E-02
114605,8.09E-03,7.53E-03
114606,5.81E-03,1.10E-02
114607,6.06E-03,1.10E-02
114608,6.23E-03,1.11E-02
114609,7.35E-03,1.05E-02
114610,7.40E-03,1.04E-02
114611,7.41E-03,1.03E-02
114612,7.48E-03,1.03E-02
114613,7.50E-03,1.02E-02
114614,7.66E-03,1.01E-02
114615,7.73E-03,1.00E-02
114616,7.78E-03,9.95E-03
114617,7.82E-03,9.88E-03
114618,7.85E-03,9.80E-03
114619,7.87E-03,9.73E-03
114620,7.90E-03,9.65E-03
114621,7.91E-03,9.58E-03
114622,7.93E-03,9.51E-03
114623,7.95E-03,9.44E-03
114624,7.98E-03,9.37E-03
114625,8.00E-03,9.30E-03
114626,8.00E-03,9.24E-03
114627,8.00E-03,9.18E-03
114628,8.00E-03,9.12E-03
114629,7.99E-03,9.06E-03
114630,7.99E-03,9.00E-03
114631,7.98E-03,8.95E-03
114632,7.98E-03,8.89E-03
114633,7.97E-03,8.84E-03
114634,7.97E-03,8.79E-03
114635,7.96E-03,8.74E-03
114636,7.96E-03,8.69E-03
114637,7.95E-03,8.65E-03
114638,7.94E-03,8.60E-03
114639,7.94E-03,8.56E-03
114640,7.93E-03,8.51E-03
114641,7.92E-03,8.47E-03
114642,7.91E-03,8.43E-03
114643,7.90E-03,8.39E-03
114644,7.89E-03,8.35E-03
114645,7.86E-03,8.32E-03
114646,7.81E-03,8.28E-03
114647,7.76E-03,8.24E-03
114648,7.71E-03,8.20E-03
114649,7.64E-03,8.16E-03
114650,7.48E-03,8.13E-03
114651,7.42E-03,8.09E-03
114652,7.03E-03,8.06E-03
114653,7.19E-03,4.61E-03
114654,8.51E-03,2.72E-02
114655,8.39E-03,2.76E-02
114656,9.03E-03,7.06E-03
114657,9.46E-03,7.11E-03
114658,8.50E-03,7.15E-03
114659,8.27E-03,7.15E-03
114660,7.97E-03,7.16E-03
114661,8.60E-03,6.66E-03
114662,7.09E-03,7.79E-03
114663,7.80E-03,7.72E-03
114664,8.47E-03,7.61E-03
114665,8.88E-03,7.48E-03
114666,8.73E-03,2.45E-02
114667,8.76E-03,7.01E-03
114668,5.91E-03,5.41E-03
114669,5.74E-03,5.31E-03
114670,8.09E-03,2.80E-02
114671,6.99E-03,1.90E-02
114672,8.03E-03,1.96E-02
114673,7.52E-03,1.99E-02
114674,8.69E-03,2.07E-02
114675,6.55E-03,2.05E-02
114676,8.39E-03,4.49E-03
114677,7.92E-03,1.09E-02
114678,8.16E-03,8.33E-03
114679,7.06E-03,9.75E-03
114680,7.08E-03,9.67E-03
114681,4.96E-03,1.05E-02
114682,9.14E-03,1.80E-02
114683,1.04E-02,1.79E-02
114684,9.24E-03,1.73E-02
114685,7.77E-03,7.71E-03
114686,7.58E-03,7.60E-03
114687,8.53E-03,7.53E-03
114688,7.68E-03,2.51E-02
114689,8.89E-03,1.24E-02
114690,1.00E-02,6.84E-03
114691,9.81E-03,4.83E-03
114692,9.70E-03,4.76E-03
114693,5.81E-03,4.61E-03
114694,6.78E-03,7.66E-03
114695,6.71E-03,7.84E-03
114696,8.59E-03,2.44E-02
114697,8.84E-03,2.40E-02
114698,8.99E-03,2.34E-02
114699,9.12E-03,2.29E-02
114700,8.69E-03,2.24E-02
114701,8.37E-03,2.18E-02
114702,8.25E-03,2.13E-02
114703,8.18E-03,2.08E-02
114704,7.87E-03,2.03E-02
114705,7.86E-03,1.98E-02
114706,7.65E-03,1.94E-02
114707,7.63E-03,1.89E-02
114708,5.63E-03,2.42E-02
114709,6.08E-03,2.36E-02
114710,4.33E-03,3.16E-02
114711,4.80E-03,3.22E-02
114712,5.57E-03,1.79E-02
114713,4.39E-03,1.79E-02
114714,7.42E-03,1.84E-02
114715,8.96E-03,1.48E-02
114716,1.01E-02,6.11E-03
114717,7.84E-03,5.86E-03
114718,8.11E-03,1.54E-02
114719,8.11E-03,1.54E-02
114720,8.11E-03,1.55E-02
114721,8.11E-03,1.55E-02
114722,8.11E-03,1.55E-02
114723,8.11E-03,1.56E-02
114724,8.11E-03,1.56E-02
114725,8.12E-03,1.57E-02
114726,8.12E-03,1.57E-02
114727,8.12E-03,1.58E-02
114728,8.13E-03,1.58E-02
114729,8.13E-03,1.59E-02
114730,8.13E-03,1.59E-02
114731,8.13E-03,1.60E-02
114732,8.13E-03,1.60E-02
114733,8.14E-03,1.60E-02
114734,8.14E-03,1.61E-02
114735,8.14E-03,1.61E-02
114736,8.15E-03,1.62E-02
114737,8.15E-03,1.62E-02
114738,8.15E-03,1.63E-02
114739,8.16E-03,1.63E-02
114740,8.16E-03,1.63E-02
114741,8.17E-03,1.64E-02
114742,8.17E-03,1.64E-02
114743,8.18E-03,1.65E-02
114744,8.19E-03,1.65E-02
114745,8.20E-03,1.65E-02
114746,8.21E-03,1.66E-02
114747,8.22E-03,1.66E-02
114748,8.24E-03,1.67E-02
114749,8.26E-03,1.67E-02
114750,8.28E-03,1.68E-02
114751,8.31E-03,1.68E-02
114752,8.34E-03,1.68E-02
114753,8.37E-03,1.69E-02
114754,8.42E-03,1.69E-02
114755,8.48E-03,1.70E-02
114756,8.56E-03,1.70E-02
114757,8.66E-03,1.71E-02
114758,8.82E-03,1.71E-02
114759,9.05E-03,1.72E-02
114760,9.44E-03,1.73E-02
114761,9.32E-03,1.73E-02
114762,7.89E-03,1.74E-02
114763,6.96E-03,1.74E-02
114764,7.23E-03,1.75E-02
114765,7.41E-03,1.75E-02
114766,7.53E-03,1.76E-02
114767,7.62E-03,1.76E-02
114768,7.69E-03,1.77E-02
114769,7.74E-03,1.77E-02
114770,7.78E-03,1.78E-02
114771,7.81E-03,1.78E-02
114772,7.84E-03,1.79E-02
114773,7.87E-03,1.79E-02
114774,7.89E-03,1.80E-02
114775,7.90E-03,1.80E-02
114776,7.92E-03,1.80E-02
114777,7.93E-03,1.81E-02
114778,7.94E-03,1.81E-02
114779,7.95E-03,1.82E-02
114780,7.96E-03,1.82E-02
114781,7.97E-03,1.83E-02
114782,7.97E-03,1.83E-02
114783,7.98E-03,1.84E-02
114784,7.99E-03,1.84E-02
114785,7.99E-03,1.84E-02
114786,8.00E-03,1.85E-02
114787,8.00E-03,1.85E-02
114788,8.00E-03,1.86E-02
114789,7.99E-03,1.86E-02
114790,8.00E-03,1.87E-02
114791,8.01E-03,1.87E-02
114792,8.03E-03,1.87E-02
114793,8.03E-03,1.88E-02
114794,8.04E-03,1.88E-02
114795,8.05E-03,1.89E-02
114796,8.05E-03,1.89E-02
114797,8.05E-03,1.89E-02
114798,8.06E-03,1.90E-02
114799,8.09E-03,1.90E-02
114800,8.14E-03,1.90E-02
114801,8.16E-03,1.91E-02
114802,8.16E-03,1.91E-02
114803,8.17E-03,1.91E-02
114804,8.17E-03,1.92E-02
114805,8.18E-03,1.92E-02
114806,8.18E-03,1.92E-02
114807,8.19E-03,1.92E-02
114808,8.20E-03,1.93E-02
114809,8.21E-03,1.93E-02
114810,8.22E-03,1.93E-02
114811,8.23E-03,1.93E-02
114812,8.25E-03,1.94E-02
114813,8.26E-03,1.94E-02
114814,8.28E-03,1.94E-02
114815,8.30E-03,1.94E-02
114816,8.33E-03,1.94E-02
114817,8.37E-03,1.95E-02
114818,8.41E-03,1.95E-02
114819,8.46E-03,1.95E-02
114820,8.71E-03,1.95E-02
114821,8.82E-03,1.96E-02
114822,9.01E-03,1.96E-02
114823,9.20E-03,1.96E-02
114824,9.20E-03,1.97E-02
114825,9.30E-03,1.97E-02
114826,9.86E-03,1.98E-02
114827,9.54E-03,1.99E-02
114828,7.32E-03,2.01E-02
114829,9.42E-03,1.11E-02
114830,1.01E-02,1.12E-02
114831,1.02E-02,1.13E-02
114832,1.01E-02,1.15E-02
114833,9.94E-03,1.16E-02
114834,9.69E-03,1.17E-02
114835,9.48E-03,1.17E-02
114836,9.42E-03,1.18E-02
114837,9.06E-03,1.19E-02
114838,8.87E-03,1.20E-02
114839,8.74E-03,1.21E-02
114840,8.64E-03,1.22E-02
114841,8.56E-03,1.23E-02
114842,8.50E-03,1.24E-02
114843,8.41E-03,1.25E-02
114844,8.35E-03,1.26E-02
114845,8.42E-03,1.27E-02
114846,8.56E-03,1.29E-02
114847,8.65E-03,1.30E-02
114848,8.30E-03,1.31E-02
114849,7.93E-03,1.32E-02
114850,7.91E-03,1.33E-02
114851,7.91E-03,1.34E-02
114852,7.91E-03,1.35E-02
114853,7.89E-03,1.36E-02
114854,7.77E-03,1.38E-02
114855,7.68E-03,1.39E-02
114856,7.47E-03,1.40E-02
114857,7.27E-03,1.41E-02
114858,7.14E-03,1.42E-02
114859,7.07E-03,1.43E-02
114860,6.64E-03,1.44E-02
114861,6.48E-03,1.45E-02
114862,6.23E-03,1.45E-02
114863,5.47E-03,1.46E-02
114864,3.90E-03,1.46E-02
114865,5.82E-03,1.48E-02
114866,8.13E-03,1.48E-02
114867,9.20E-03,1.49E-02
114868,1.07E-02,1.51E-02
114869,1.08E-02,1.52E-02
114870,1.12E-02,1.54E-02
114871,1.09E-02,1.55E-02
114872,1.08E-02,1.57E-02
114873,1.03E-02,1.58E-02
114874,1.02E-02,1.60E-02
114875,1.01E-02,1.61E-02
114876,9.30E-03,1.63E-02
114877,8.91E-03,1.64E-02
114878,8.83E-03,1.66E-02
114879,8.65E-03,1.67E-02
114880,8.49E-03,1.69E-02
114881,8.43E-03,1.70E-02
114882,8.34E-03,1.72E-02
114883,8.24E-03,1.73E-02
114884,8.22E-03,1.74E-02
114885,8.25E-03,1.76E-02
114886,7.82E-03,1.77E-02
114887,6.98E-03,1.78E-02
114888,4.99E-03,1.79E-02
114889,4.40E-03,1.80E-02
114890,5.67E-03,1.81E-02
114891,6.50E-03,1.81E-02
114892,8.58E-03,1.82E-02
114893,8.45E-03,1.83E-02
114894,8.17E-03,4.00E-03
114895,8.12E-03,1.54E-02
114896,8.10E-03,1.53E-02
114897,9.03E-03,1.71E-02
114898,8.96E-03,1.70E-02
114899,9.22E-03,1.69E-02
114900,9.33E-03,1.68E-02
114901,9.34E-03,1.68E-02
114902,9.28E-03,1.67E-02
114903,9.08E-03,1.66E-02
114904,8.86E-03,1.65E-02
114905,8.74E-03,1.64E-02
114906,8.76E-03,1.63E-02
114907,8.80E-03,1.62E-02
114908,8.85E-03,1.61E-02
114909,8.91E-03,1.61E-02
114910,8.96E-03,1.60E-02
114911,8.99E-03,1.59E-02
114912,8.99E-03,1.58E-02
114913,8.99E-03,1.57E-02
114914,9.00E-03,1.56E-02
114915,9.01E-03,1.55E-02
114916,9.03E-03,1.54E-02
114917,9.05E-03,1.53E-02
114918,9.06E-03,1.52E-02
114919,9.08E-03,1.51E-02
114920,9.09E-03,1.50E-02
114921,9.11E-03,1.49E-02
114922,9.12E-03,1.48E-02
114923,9.14E-03,1.47E-02
114924,9.16E-03,1.45E-02
114925,9.17E-03,1.44E-02
114926,9.19E-03,1.43E-02
114927,9.20E-03,1.42E-02
114928,9.22E-03,1.41E-02
114929,9.24E-03,1.40E-02
114930,9.27E-03,1.38E-02
114931,9.29E-03,1.37E-02
114932,9.30E-03,1.36E-02
114933,9.29E-03,1.35E-02
114934,9.21E-03,1.33E-02
114935,9.12E-03,1.32E-02
114936,8.87E-03,1.31E-02
114937,8.76E-03,1.30E-02
114938,8.64E-03,1.28E-02
114939,8.54E-03,1.27E-02
114940,8.47E-03,1.26E-02
114941,8.50E-03,1.25E-02
114942,8.75E-03,1.24E-02
114943,8.93E-03,1.23E-02
114944,7.96E-03,4.42E-03
114945,8.52E-03,2.61E-02
114946,8.80E-03,6.22E-03
114947,7.11E-03,7.76E-03
114948,8.10E-03,5.54E-03
114949,7.27E-03,5.34E-03
114950,8.03E-03,2.10E-02
114951,8.92E-03,2.08E-02
114952,3.73E-03,7.86E-03
114953,7.55E-03,1.86E-02
114954,7.42E-03,1.86E-02
114955,7.90E-03,3.27E-02
114956,7.79E-03,3.27E-02
114957,7.73E-03,3.25E-02
114958,8.69E-03,3.25E-02
114959,8.39E-03,3.26E-02
114960,6.88E-03,3.28E-02
114961,6.64E-03,3.28E-02
114962,6.37E-03,3.20E-02
114963,7.48E-03,3.28E-02
114964,6.13E-03,1.32E-02
114965,6.35E-03,1.28E-02
114966,6.34E-03,1.04E-02
114967,7.70E-03,1.07E-02
114968,7.28E-03,2.00E-02
114969,8.20E-03,2.01E-02
114970,7.99E-03,2.01E-02
114971,6.55E-03,2.02E-02
114972,6.26E-03,2.03E-02
114973,6.17E-03,2.03E-02
114974,6.28E-03,2.04E-02
114975,6.56E-03,2.04E-02
114976,6.95E-03,2.05E-02
114977,8.01E-03,2.06E-02
114978,8.16E-03,2.06E-02
114979,8.59E-03,2.07E-02
114980,8.78E-03,2.07E-02
114981,8.97E-03,2.08E-02
114982,9.00E-03,2.09E-02
114983,9.12E-03,2.09E-02
114984,9.19E-03,2.10E-02
114985,8.97E-03,2.11E-02
114986,8.92E-03,2.11E-02
114987,6.66E-03,2.12E-02
114988,6.39E-03,2.12E-02
114989,6.27E-03,2.13E-02
114990,5.91E-03,2.13E-02
114991,6.18E-03,2.14E-02
114992,6.34E-03,2.14E-02
114993,6.65E-03,2.14E-02
114994,7.02E-03,2.15E-02
114995,7.21E-03,2.15E-02
114996,7.56E-03,2.15E-02
114997,7.64E-03,2.16E-02
114998,7.70E-03,2.16E-02
114999,7.74E-03,2.16E-02
115000,7.78E-03,2.17E-02
115001,7.81E-03,2.17E-02
115002,7.84E-03,2.17E-02
115003,7.86E-03,2.17E-02
115004,7.88E-03,2.18E-02
115005,7.90E-03,2.18E-02
115006,7.87E-03,2.18E-02
115007,7.87E-03,2.19E-02
115008,7.94E-03,2.19E-02
115009,7.99E-03,2.19E-02
115010,8.01E-03,2.19E-02
115011,8.03E-03,2.20E-02
115012,8.04E-03,2.20E-02
115013,8.05E-03,2.20E-02
115014,8.09E-03,2.21E-02
115015,8.14E-03,2.21E-02
115016,8.16E-03,2.21E-02
115017,8.16E-03,2.22E-02
115018,8.16E-03,2.22E-02
115019,8.16E-03,2.22E-02
115020,8.17E-03,2.22E-02
115021,8.17E-03,2.23E-02
115022,8.18E-03,2.23E-02
115023,8.19E-03,2.23E-02
115024,8.19E-03,2.24E-02
115025,8.20E-03,2.24E-02
115026,8.20E-03,2.24E-02
115027,8.21E-03,2.25E-02
115028,8.21E-03,2.25E-02
115029,8.22E-03,2.25E-02
115030,8.23E-03,2.25E-02
115031,8.24E-03,2.26E-02
115032,8.25E-03,2.26E-02
115033,8.26E-03,2.26E-02
115034,8.27E-03,2.26E-02
115035,8.29E-03,2.26E-02
115036,8.30E-03,2.27E-02
115037,8.32E-03,2.27E-02
115038,8.34E-03,2.27E-02
115039,8.36E-03,2.27E-02
115040,8.39E-03,2.27E-02
115041,8.42E-03,2.27E-02
115042,8.46E-03,2.27E-02
115043,8.49E-03,2.27E-02
115044,8.50E-03,2.27E-02
115045,8.52E-03,2.27E-02
115046,8.54E-03,2.27E-02
115047,8.55E-03,2.27E-02
115048,8.56E-03,2.27E-02
115049,8.69E-03,2.27E-02
115050,8.76E-03,2.27E-02
115051,8.87E-03,2.28E-02
115052,9.01E-03,2.28E-02
115053,9.20E-03,2.28E-02
115054,9.44E-03,2.28E-02
115055,9.75E-03,2.28E-02
115056,1.04E-02,2.29E-02
115057,1.08E-02,2.30E-02
115058,1.07E-02,2.30E-02
115059,1.06E-02,2.31E-02
115060,1.03E-02,2.32E-02
115061,1.01E-02,2.33E-02
115062,1.03E-02,2.34E-02
115063,1.07E-02,2.36E-02
115064,9.98E-03,2.37E-02
115065,8.91E-03,2.38E-02
115066,8.49E-03,2.39E-02
115067,8.10E-03,2.41E-02
115068,7.78E-03,2.42E-02
115069,7.67E-03,2.43E-02
115070,7.38E-03,2.44E-02
115071,5.70E-03,2.44E-02
115072,5.84E-03,2.45E-02
115073,5.76E-03,2.46E-02
115074,5.95E-03,2.46E-02
115075,5.92E-03,2.47E-02
115076,5.77E-03,2.47E-02
115077,5.54E-03,2.48E-02
115078,5.38E-03,2.48E-02
115079,5.56E-03,2.48E-02
115080,6.21E-03,2.48E-02
115081,6.29E-03,2.48E-02
115082,6.97E-03,2.49E-02
115083,7.25E-03,2.49E-02
115084,7.38E-03,2.49E-02
115085,7.38E-03,2.49E-02
115086,7.38E-03,2.49E-02
115087,7.39E-03,2.49E-02
115088,7.39E-03,2.48E-02
115089,7.59E-03,2.48E-02
115090,7.96E-03,2.48E-02
115091,8.12E-03,2.48E-02
115092,8.13E-03,2.48E-02
115093,8.13E-03,2.48E-02
115094,8.14E-03,2.47E-02
115095,8.19E-03,2.47E-02
115096,8.25E-03,2.47E-02
115097,8.30E-03,2.47E-02
115098,8.32E-03,2.47E-02
115099,8.32E-03,2.47E-02
115100,8.34E-03,2.46E-02
115101,8.35E-03,2.46E-02
115102,8.37E-03,2.46E-02
115103,8.39E-03,2.46E-02
115104,8.41E-03,2.46E-02
115105,8.43E-03,2.46E-02
115106,8.46E-03,2.46E-02
115107,8.49E-03,2.46E-02
115108,8.53E-03,2.46E-02
115109,8.57E-03,2.46E-02
115110,8.61E-03,2.46E-02
115111,8.67E-03,2.46E-02
115112,8.72E-03,2.47E-02
115113,8.79E-03,2.47E-02
115114,8.84E-03,2.47E-02
115115,8.90E-03,2.48E-02
115116,8.99E-03,2.48E-02
115117,9.09E-03,2.49E-02
115118,9.21E-03,2.50E-02
115119,9.35E-03,2.50E-02
115120,9.53E-03,2.51E-02
115121,9.75E-03,2.52E-02
115122,1.00E-02,2.54E-02
115123,1.01E-02,2.55E-02
115124,9.87E-03,2.56E-02
115125,9.82E-03,2.58E-02
115126,1.00E-02,2.60E-02
115127,1.07E-02,2.61E-02
115128,1.06E-02,2.63E-02
115129,5.81E-03,2.65E-02
115130,5.81E-03,2.66E-02
115131,5.04E-03,2.67E-02
115132,5.68E-03,2.68E-02
115133,6.32E-03,2.69E-02
115134,6.58E-03,2.70E-02
115135,6.68E-03,2.71E-02
115136,8.62E-03,1.85E-02
115137,8.93E-03,1.86E-02
115138,9.36E-03,1.86E-02
115139,9.70E-03,1.87E-02
115140,9.61E-03,1.88E-02
115141,9.53E-03,1.89E-02
115142,9.26E-03,1.89E-02
115143,9.18E-03,1.90E-02
115144,9.09E-03,1.91E-02
115145,9.03E-03,1.91E-02
115146,8.97E-03,1.92E-02
115147,8.89E-03,1.93E-02
115148,9.11E-03,1.94E-02
115149,9.28E-03,1.95E-02
115150,9.45E-03,1.96E-02
115151,9.55E-03,1.97E-02
115152,9.63E-03,1.98E-02
115153,9.48E-03,1.99E-02
115154,9.43E-03,2.01E-02
115155,9.56E-03,2.02E-02
115156,7.45E-03,2.06E-02
115157,7.53E-03,2.08E-02
115158,8.78E-03,2.09E-02
115159,8.55E-03,2.10E-02
115160,5.75E-03,4.93E-03
115161,6.41E-03,4.88E-03
115162,6.00E-03,4.79E-03
115163,5.66E-03,4.72E-03
115164,3.52E-03,4.64E-03
115165,8.28E-03,7.69E-03
115166,8.53E-03,7.67E-03
115167,8.82E-03,7.65E-03
115168,8.86E-03,7.64E-03
115169,8.86E-03,7.63E-03
115170,8.74E-03,7.62E-03
115171,7.95E-03,7.60E-03
115172,6.81E-03,7.59E-03
115173,6.72E-03,7.58E-03
115174,6.95E-03,7.57E-03
115175,6.83E-03,7.56E-03
115176,6.54E-03,7.55E-03
115177,6.18E-03,7.55E-03
115178,5.67E-03,7.54E-03
115179,5.54E-03,7.53E-03
115180,6.28E-03,7.53E-03
115181,6.34E-03,7.52E-03
115182,7.56E-03,7.51E-03
115183,7.77E-03,7.51E-03
115184,8.01E-03,7.50E-03
115185,8.05E-03,7.49E-03
115186,7.78E-03,7.48E-03
115187,7.40E-03,7.47E-03
115188,7.21E-03,7.46E-03
115189,7.04E-03,7.45E-03
115190,6.81E-03,7.44E-03
115191,6.50E-03,7.43E-03
115192,7.31E-03,7.43E-03
115193,9.03E-03,7.42E-03
115194,1.03E-02,7.41E-03
115195,1.07E-02,7.40E-03
115196,1.03E-02,7.38E-03
115197,9.79E-03,7.37E-03
115198,9.33E-03,7.35E-03
115199,8.42E-03,7.34E-03
115200,7.69E-03,7.32E-03
115201,7.17E-03,7.31E-03
115202,6.20E-03,7.30E-03
115203,5.76E-03,7.29E-03
115204,5.57E-03,7.28E-03
115205,6.03E-03,7.28E-03
115206,8.03E-03,7.27E-03
115207,9.75E-03,7.27E-03
115208,1.07E-02,7.26E-03
115209,1.05E-02,7.24E-03
115210,9.75E-03,7.23E-03
115211,9.40E-03,7.21E-03
115212,6.79E-03,7.20E-03
115213,6.55E-03,7.18E-03
115214,6.48E-03,7.17E-03
115215,6.31E-03,7.16E-03
115216,6.31E-03,7.16E-03
115217,7.74E-03,7.15E-03
115218,8.59E-03,6.76E-03
115219,8.56E-03,6.86E-03
115220,8.29E-03,6.96E-03
115221,8.28E-03,7.05E-03
115222,8.36E-03,7.15E-03
115223,8.86E-03,7.37E-03
115224,8.72E-03,7.24E-03
115225,6.02E-03,2.40E-02
115226,7.74E-03,7.80E-03
115227,8.09E-03,8.12E-03
115228,8.08E-03,8.02E-03
115229,8.15E-03,7.92E-03
115230,9.12E-03,6.95E-03
115231,9.16E-03,6.93E-03
115232,6.80E-03,6.91E-03
115233,6.29E-03,6.90E-03
115234,6.23E-03,6.88E-03
115235,5.87E-03,6.86E-03
115236,5.57E-03,6.86E-03
115237,5.23E-03,6.83E-03
115238,6.73E-03,6.82E-03
115239,7.53E-03,6.84E-03
115240,9.96E-03,6.83E-03
115241,8.78E-03,6.86E-03
115242,7.97E-03,6.85E-03
115243,1.01E-02,4.91E-03
115244,1.00E-02,4.95E-03
115245,6.90E-03,4.99E-03
115246,6.70E-03,5.02E-03
115247,6.29E-03,5.04E-03
115248,6.23E-03,5.05E-03
115249,5.86E-03,5.02E-03
115250,4.50E-03,5.18E-03
115251,5.04E-03,5.07E-03
115252,8.99E-03,1.81E-02
115253,8.74E-03,1.82E-02
115254,7.65E-03,1.86E-02
115255,7.19E-03,1.85E-02
115256,7.31E-03,1.84E-02
115257,7.61E-03,1.83E-02
115258,7.73E-03,2.86E-02
115259,7.63E-03,2.91E-02
115260,6.92E-03,2.97E-02
115261,6.02E-03,3.12E-02
115262,6.00E-03,3.06E-02
115263,6.43E-03,3.01E-02
115264,8.53E-03,9.92E-03
115265,8.69E-03,9.99E-03
115266,7.51E-03,1.91E-02
115267,8.15E-03,1.94E-02
115268,7.92E-03,1.93E-02
115269,7.37E-03,2.01E-02
115270,6.68E-03,2.03E-02
115271,7.09E-03,2.02E-02
115272,8.22E-03,4.44E-03
115273,7.62E-03,4.42E-03
115274,5.14E-03,4.61E-03
115275,5.34E-03,4.54E-03
115276,4.94E-03,4.50E-03
115277,3.65E-03,4.47E-03
115278,3.57E-03,4.42E-03
115279,5.79E-03,4.42E-03
115280,7.25E-03,4.42E-03
115281,8.35E-03,1.84E-02
115282,7.79E-03,1.83E-02
115283,6.65E-03,1.83E-02
115284,6.06E-03,1.82E-02
115285,5.73E-03,1.81E-02
115286,6.43E-03,1.80E-02
115287,6.82E-03,1.79E-02
115288,7.44E-03,1.77E-02
115289,7.78E-03,1.76E-02
115290,8.08E-03,1.75E-02
115291,8.22E-03,1.73E-02
115292,8.35E-03,1.72E-02
115293,8.41E-03,1.70E-02
115294,8.43E-03,1.69E-02
115295,8.64E-03,1.67E-02
115296,8.73E-03,1.66E-02
115297,8.88E-03,1.64E-02
115298,9.31E-03,1.63E-02
115299,9.98E-03,1.61E-02
115300,1.01E-02,1.60E-02
115301,1.03E-02,1.58E-02
115302,1.05E-02,1.57E-02
115303,1.08E-02,1.55E-02
115304,1.10E-02,1.54E-02
115305,1.09E-02,1.52E-02
115306,1.06E-02,1.51E-02
115307,8.29E-03,1.50E-02
115308,7.72E-03,1.49E-02
115309,7.44E-03,1.48E-02
115310,4.75E-03,1.46E-02
115311,5.46E-03,1.46E-02
115312,6.01E-03,1.45E-02
115313,6.30E-03,1.44E-02
115314,6.44E-03,1.44E-02
115315,7.12E-03,1.43E-02
115316,7.18E-03,1.42E-02
115317,7.34E-03,1.41E-02
115318,7.58E-03,1.39E-02
115319,7.66E-03,1.38E-02
115320,7.79E-03,1.37E-02
115321,7.90E-03,1.36E-02
115322,7.92E-03,1.35E-02
115323,7.92E-03,1.34E-02
115324,7.92E-03,1.33E-02
115325,7.94E-03,1.31E-02
115326,8.29E-03,1.30E-02
115327,8.63E-03,1.29E-02
115328,8.54E-03,1.28E-02
115329,8.40E-03,1.27E-02
115330,8.34E-03,1.26E-02
115331,8.39E-03,1.25E-02
115332,8.48E-03,1.24E-02
115333,8.54E-03,1.23E-02
115334,8.61E-03,1.22E-02
115335,8.71E-03,1.21E-02
115336,8.84E-03,1.20E-02
115337,9.07E-03,1.19E-02
115338,9.33E-03,1.18E-02
115339,9.45E-03,1.17E-02
115340,9.63E-03,1.16E-02
115341,9.86E-03,1.15E-02
115342,9.88E-03,1.14E-02
115343,9.80E-03,1.13E-02
115344,9.35E-03,1.11E-02
115345,9.40E-03,1.12E-02
115346,7.62E-03,1.08E-02
115347,9.86E-03,8.00E-03
115348,8.45E-03,7.97E-03
115349,8.45E-03,8.45E-03
115350,8.88E-03,8.58E-03
115351,9.24E-03,8.66E-03
115352,9.24E-03,8.72E-03
115353,9.96E-03,8.79E-03
115354,9.39E-03,8.83E-03
115355,8.99E-03,8.89E-03
115356,8.91E-03,8.96E-03
115357,8.58E-03,9.02E-03
115358,8.23E-03,9.07E-03
115359,8.14E-03,9.13E-03
115360,8.11E-03,9.18E-03
115361,8.02E-03,9.23E-03
115362,7.69E-03,9.29E-03
115363,7.66E-03,9.34E-03
115364,7.55E-03,9.39E-03
115365,7.37E-03,9.44E-03
115366,7.23E-03,9.49E-03
115367,7.02E-03,9.55E-03
115368,7.20E-03,9.61E-03
115369,6.08E-03,1.05E-02
115370,6.23E-03,1.05E-02
115371,6.37E-03,1.06E-02
115372,6.42E-03,1.07E-02
115373,7.14E-03,1.10E-02
115374,7.28E-03,1.11E-02
115375,7.26E-03,1.15E-02
115376,7.37E-03,1.13E-02
115377,7.43E-03,2.00E-02
115378,9.02E-03,2.00E-02
115379,9.34E-03,1.99E-02
115380,9.14E-03,1.99E-02
115381,9.15E-03,1.98E-02
115382,8.93E-03,1.98E-02
115383,8.76E-03,1.98E-02
115384,8.68E-03,1.97E-02
115385,8.44E-03,1.97E-02
115386,8.39E-03,1.97E-02
115387,8.35E-03,1.97E-02
115388,8.32E-03,1.96E-02
115389,8.29E-03,1.96E-02
115390,8.27E-03,1.96E-02
115391,8.25E-03,1.96E-02
115392,8.24E-03,1.96E-02
115393,8.22E-03,1.95E-02
115394,8.21E-03,1.95E-02
115395,8.20E-03,1.95E-02
115396,8.19E-03,1.95E-02
115397,8.19E-03,1.94E-02
115398,8.18E-03,1.94E-02
115399,8.17E-03,1.94E-02
115400,8.17E-03,1.94E-02
115401,8.16E-03,1.93E-02
115402,8.16E-03,1.93E-02
115403,8.15E-03,1.93E-02
115404,8.13E-03,1.92E-02
115405,8.09E-03,1.92E-02
115406,8.06E-03,1.91E-02
115407,8.05E-03,1.91E-02
115408,8.05E-03,1.91E-02
115409,8.05E-03,1.90E-02
115410,8.04E-03,1.90E-02
115411,8.04E-03,1.89E-02
115412,8.03E-03,1.89E-02
115413,8.02E-03,1.89E-02
115414,8.00E-03,1.88E-02
115415,7.99E-03,1.88E-02
115416,8.00E-03,1.87E-02
115417,8.00E-03,1.87E-02
115418,8.00E-03,1.86E-02
115419,8.00E-03,1.86E-02
115420,7.99E-03,1.86E-02
115421,7.99E-03,1.85E-02
115422,7.98E-03,1.85E-02
115423,7.97E-03,1.84E-02
115424,7.97E-03,1.84E-02
115425,7.96E-03,1.83E-02
115426,7.95E-03,1.83E-02
115427,7.94E-03,1.82E-02
115428,7.92E-03,1.82E-02
115429,7.91E-03,1.81E-02
115430,7.89E-03,1.81E-02
115431,7.88E-03,1.80E-02
115432,7.85E-03,1.80E-02
115433,7.83E-03,1.80E-02
115434,7.79E-03,1.79E-02
115435,7.75E-03,1.79E-02
115436,7.70E-03,1.78E-02
115437,7.64E-03,1.78E-02
115438,7.55E-03,1.77E-02
115439,7.44E-03,1.77E-02
115440,7.27E-03,1.76E-02
115441,7.02E-03,1.76E-02
115442,7.90E-03,1.75E-02
115443,9.26E-03,1.74E-02
115444,9.37E-03,1.74E-02
115445,9.01E-03,1.73E-02
115446,8.78E-03,1.73E-02
115447,8.64E-03,1.72E-02
115448,8.53E-03,1.72E-02
115449,8.46E-03,1.71E-02
115450,8.40E-03,1.71E-02
115451,8.36E-03,1.70E-02
115452,8.33E-03,1.70E-02
115453,8.30E-03,1.69E-02
115454,8.28E-03,1.69E-02
115455,8.25E-03,1.68E-02
115456,8.23E-03,1.68E-02
115457,8.21E-03,1.67E-02
115458,8.20E-03,1.67E-02
115459,8.19E-03,1.67E-02
115460,8.18E-03,1.66E-02
115461,8.18E-03,1.66E-02
115462,8.17E-03,1.65E-02
115463,8.16E-03,1.65E-02
115464,8.16E-03,1.64E-02
115465,8.15E-03,1.64E-02
115466,8.15E-03,1.64E-02
115467,8.15E-03,1.63E-02
115468,8.14E-03,1.63E-02
115469,8.14E-03,1.62E-02
115470,8.14E-03,1.62E-02
115471,8.13E-03,1.61E-02
115472,8.13E-03,1.61E-02
115473,8.13E-03,1.60E-02
115474,8.13E-03,1.60E-02
115475,8.12E-03,1.60E-02
115476,8.12E-03,1.59E-02
115477,8.12E-03,1.59E-02
115478,8.12E-03,1.58E-02
115479,8.12E-03,1.58E-02
115480,8.11E-03,1.57E-02
115481,8.11E-03,1.57E-02
115482,8.11E-03,1.56E-02
115483,8.11E-03,1.56E-02
115484,8.11E-03,1.55E-02
115485,8.11E-03,1.55E-02
115486,8.11E-03,1.54E-02
115487,1.00E-02,1.77E-02
115488,9.85E-03,1.76E-02
115489,9.95E-03,1.75E-02
115490,9.91E-03,1.74E-02
115491,8.05E-03,7.60E-03
115492,9.58E-03,7.62E-03
115493,9.63E-03,7.61E-03
115494,8.17E-03,7.57E-03
115495,7.66E-03,7.55E-03
115496,9.11E-03,1.26E-02
115497,8.96E-03,1.26E-02
115498,6.99E-03,1.27E-02
115499,9.14E-03,1.01E-02
115500,9.07E-03,1.01E-02
115501,7.83E-03,1.01E-02
115502,7.92E-03,1.02E-02
115503,8.59E-03,6.80E-03
115504,8.47E-03,6.77E-03
115505,8.45E-03,6.76E-03
115506,1.04E-02,6.74E-03
115507,9.46E-03,6.71E-03
115508,9.40E-03,6.68E-03
115509,9.37E-03,6.66E-03
115510,9.24E-03,6.63E-03
115511,8.86E-03,6.60E-03
115512,8.75E-03,6.57E-03
115513,8.57E-03,6.54E-03
115514,8.17E-03,6.51E-03
115515,7.79E-03,6.47E-03
115516,7.68E-03,6.44E-03
115517,7.65E-03,6.42E-03
115518,7.59E-03,6.39E-03
115519,7.52E-03,6.36E-03
115520,7.43E-03,6.33E-03
115521,7.31E-03,6.30E-03
115522,7.15E-03,6.27E-03
115523,6.93E-03,6.25E-03
115524,6.61E-03,6.22E-03
115525,6.05E-03,6.20E-03
115526,5.28E-03,6.18E-03
115527,5.48E-03,6.16E-03
115528,6.36E-03,6.15E-03
115529,6.42E-03,6.13E-03
115530,6.43E-03,6.12E-03
115531,6.56E-03,6.10E-03
115532,6.76E-03,6.08E-03
115533,6.98E-03,6.07E-03
115534,1.05E-02,4.64E-03
115535,8.51E-03,7.92E-03
115536,7.54E-03,7.95E-03
115537,7.47E-03,7.97E-03
115538,7.52E-03,8.00E-03
115539,7.66E-03,8.04E-03
115540,7.73E-03,8.08E-03
115541,7.78E-03,8.11E-03
115542,7.83E-03,8.15E-03
115543,7.87E-03,8.19E-03
115544,7.90E-03,8.23E-03
115545,7.91E-03,8.26E-03
115546,7.92E-03,8.30E-03
115547,7.93E-03,8.35E-03
115548,7.94E-03,8.39E-03
115549,7.94E-03,8.43E-03
115550,7.95E-03,8.47E-03
115551,7.96E-03,8.52E-03
115552,7.96E-03,8.56E-03
115553,7.97E-03,8.61E-03
115554,7.98E-03,8.66E-03
115555,7.98E-03,8.71E-03
115556,7.98E-03,8.76E-03
115557,7.99E-03,8.82E-03
115558,7.99E-03,8.87E-03
115559,8.00E-03,8.93E-03
115560,8.00E-03,8.99E-03
115561,8.00E-03,9.05E-03
115562,8.01E-03,9.12E-03
115563,8.01E-03,9.18E-03
115564,7.99E-03,9.25E-03
115565,7.96E-03,9.32E-03
115566,7.94E-03,9.39E-03
115567,7.92E-03,9.46E-03
115568,7.91E-03,9.53E-03
115569,7.88E-03,9.61E-03
115570,7.86E-03,9.68E-03
115571,7.83E-03,9.76E-03
115572,7.79E-03,9.84E-03
115573,7.74E-03,9.92E-03
115574,7.68E-03,1.00E-02
115575,7.56E-03,1.01E-02
115576,7.48E-03,1.02E-02
115577,7.30E-03,1.02E-02
115578,7.24E-03,1.03E-02
115579,7.03E-03,1.04E-02
115580,7.46E-03,7.67E-03
115581,7.78E-03,7.70E-03
115582,7.22E-03,7.70E-03
115583,7.11E-03,7.69E-03
115584,7.87E-03,7.72E-03
115585,7.65E-03,7.78E-03
115586,7.61E-03,1.85E-02
115587,7.56E-03,1.81E-02
115588,7.79E-03,1.77E-02
115589,7.90E-03,1.73E-02
115590,8.30E-03,1.69E-02
115591,8.58E-03,1.65E-02
115592,8.46E-03,1.61E-02
115593,8.60E-03,1.56E-02
115594,8.73E-03,1.52E-02
115595,9.21E-03,1.44E-02
115596,9.39E-03,1.40E-02
115597,9.57E-03,1.36E-02
115598,1.10E-02,5.72E-03
115599,9.25E-03,9.60E-03
115600,8.97E-03,1.06E-02
115601,7.68E-03,1.25E-02
115602,7.71E-03,2.15E-02
115603,7.28E-03,2.15E-02
115604,7.75E-03,6.93E-03
115605,6.63E-03,2.02E-02
115606,7.52E-03,1.73E-02
115607,8.17E-03,4.00E-03
115608,8.13E-03,4.01E-03
115609,8.04E-03,4.02E-03
115610,7.97E-03,4.03E-03
115611,7.24E-03,4.04E-03
115612,8.11E-03,1.53E-02
115613,8.11E-03,1.52E-02
115614,8.11E-03,1.52E-02
115615,8.11E-03,1.51E-02
115616,8.11E-03,1.51E-02
115617,8.11E-03,1.50E-02
115618,8.11E-03,1.50E-02
115619,8.11E-03,1.49E-02
115620,8.11E-03,1.49E-02
115621,8.11E-03,1.48E-02
115622,8.11E-03,1.48E-02
115623,8.11E-03,1.47E-02
115624,8.11E-03,1.47E-02
115625,8.12E-03,1.46E-02
115626,8.12E-03,1.46E-02
115627,8.12E-03,1.45E-02
115628,8.12E-03,1.45E-02
115629,8.12E-03,1.44E-02
115630,8.12E-03,1.44E-02
115631,8.12E-03,1.43E-02
115632,8.12E-03,1.42E-02
115633,8.12E-03,1.42E-02
115634,8.12E-03,1.41E-02
115635,8.12E-03,1.41E-02
115636,8.12E-03,1.40E-02
115637,8.13E-03,1.40E-02
115638,8.13E-03,1.39E-02
115639,8.13E-03,1.39E-02
115640,8.13E-03,1.38E-02
115641,8.14E-03,1.37E-02
115642,8.14E-03,1.37E-02
115643,8.14E-03,1.36E-02
115644,8.15E-03,1.36E-02
115645,8.15E-03,1.35E-02
115646,8.15E-03,1.34E-02
115647,8.15E-03,1.34E-02
115648,8.16E-03,1.33E-02
115649,8.16E-03,1.32E-02
115650,8.17E-03,1.32E-02
115651,8.17E-03,1.31E-02
115652,8.18E-03,1.31E-02
115653,8.18E-03,1.30E-02
115654,8.19E-03,1.29E-02
115655,8.19E-03,1.29E-02
115656,8.20E-03,1.28E-02
115657,8.21E-03,1.27E-02
115658,8.22E-03,1.27E-02
115659,8.23E-03,1.26E-02
115660,8.24E-03,1.25E-02
115661,8.26E-03,1.25E-02
115662,8.27E-03,1.24E-02
115663,8.29E-03,1.23E-02
115664,8.31E-03,1.22E-02
115665,8.34E-03,1.22E-02
115666,8.37E-03,1.21E-02
115667,8.41E-03,1.20E-02
115668,8.46E-03,1.20E-02
115669,8.52E-03,1.19E-02
115670,8.60E-03,1.18E-02
115671,8.70E-03,1.17E-02
115672,8.85E-03,1.17E-02
115673,9.07E-03,1.16E-02
115674,9.42E-03,1.15E-02
115675,1.00E-02,1.14E-02
115676,1.01E-02,1.13E-02
115677,9.17E-03,1.13E-02
115678,8.46E-03,1.12E-02
115679,8.49E-03,1.11E-02
115680,8.53E-03,1.11E-02
115681,8.58E-03,1.10E-02
115682,8.64E-03,1.09E-02
115683,8.71E-03,1.08E-02
115684,8.80E-03,1.08E-02
115685,8.92E-03,1.07E-02
115686,9.06E-03,1.06E-02
115687,9.26E-03,1.05E-02
115688,9.52E-03,1.04E-02
115689,9.28E-03,1.03E-02
115690,8.46E-03,1.02E-02
115691,6.54E-03,1.02E-02
115692,6.41E-03,1.01E-02
115693,6.50E-03,1.00E-02
115694,6.74E-03,9.96E-03
115695,7.02E-03,9.89E-03
115696,7.20E-03,9.82E-03
115697,7.41E-03,9.75E-03
115698,7.50E-03,9.68E-03
115699,7.57E-03,9.60E-03
115700,7.63E-03,9.53E-03
115701,7.68E-03,9.46E-03
115702,7.74E-03,9.39E-03
115703,7.81E-03,9.32E-03
115704,7.84E-03,9.25E-03
115705,7.84E-03,9.19E-03
115706,7.84E-03,9.12E-03
115707,8.16E-03,9.06E-03
115708,8.58E-03,9.00E-03
115709,8.60E-03,8.94E-03
115710,8.45E-03,8.89E-03
115711,8.38E-03,8.84E-03
115712,8.42E-03,8.79E-03
115713,8.51E-03,8.75E-03
115714,8.58E-03,8.71E-03
115715,8.64E-03,8.68E-03
115716,8.72E-03,8.65E-03
115717,8.82E-03,8.63E-03
115718,8.96E-03,8.61E-03
115719,9.20E-03,8.60E-03
115720,9.44E-03,8.60E-03
115721,9.41E-03,8.60E-03
115722,8.88E-03,8.61E-03
115723,8.17E-03,8.63E-03
115724,7.86E-03,8.65E-03
115725,7.85E-03,8.68E-03
115726,7.86E-03,8.72E-03
115727,7.86E-03,8.77E-03
115728,7.87E-03,8.83E-03
115729,7.88E-03,8.90E-03
115730,7.88E-03,8.99E-03
115731,7.89E-03,9.08E-03
115732,7.90E-03,9.18E-03
115733,7.91E-03,9.30E-03
115734,7.92E-03,9.42E-03
115735,7.92E-03,9.56E-03
115736,7.93E-03,9.71E-03
115737,7.93E-03,9.86E-03
115738,7.94E-03,1.00E-02
115739,7.95E-03,1.02E-02
115740,7.96E-03,1.04E-02
115741,7.97E-03,1.06E-02
115742,8.07E-03,1.08E-02
115743,8.16E-03,1.10E-02
115744,8.20E-03,1.12E-02
115745,8.31E-03,1.13E-02
115746,8.40E-03,1.15E-02
115747,8.69E-03,1.17E-02
115748,8.98E-03,1.19E-02
115749,9.16E-03,1.21E-02
115750,9.04E-03,6.09E-03
115751,9.68E-03,6.05E-03
115752,9.74E-03,6.03E-03
115753,9.84E-03,6.01E-03
115754,9.71E-03,5.99E-03
115755,9.47E-03,5.96E-03
115756,9.27E-03,5.93E-03
115757,7.99E-03,5.91E-03
115758,7.34E-03,5.88E-03
115759,7.13E-03,5.86E-03
115760,7.00E-03,5.84E-03
115761,6.83E-03,5.82E-03
115762,6.63E-03,5.80E-03
115763,6.35E-03,5.79E-03
115764,6.05E-03,5.77E-03
115765,6.13E-03,5.76E-03
115766,6.67E-03,5.76E-03
115767,6.92E-03,5.75E-03
115768,6.88E-03,5.74E-03
115769,6.80E-03,5.74E-03
115770,6.77E-03,5.73E-03
115771,7.75E-03,5.73E-03
115772,9.20E-03,5.73E-03
115773,9.57E-03,5.73E-03
115774,9.38E-03,5.73E-03
115775,9.22E-03,5.72E-03
115776,9.05E-03,5.71E-03
115777,8.74E-03,5.70E-03
115778,8.37E-03,5.69E-03
115779,8.10E-03,5.68E-03
115780,8.05E-03,5.67E-03
115781,8.10E-03,5.67E-03
115782,8.10E-03,5.66E-03
115783,8.22E-03,5.65E-03
115784,9.12E-03,5.64E-03
115785,9.82E-03,5.63E-03
115786,9.56E-03,5.62E-03
115787,9.22E-03,5.60E-03
115788,9.00E-03,5.58E-03
115789,9.01E-03,5.56E-03
115790,9.21E-03,5.54E-03
115791,9.56E-03,5.52E-03
115792,1.01E-02,5.49E-03
115793,1.02E-02,5.46E-03
115794,9.78E-03,5.43E-03
115795,9.39E-03,5.39E-03
115796,9.13E-03,5.35E-03
115797,8.96E-03,5.31E-03
115798,8.87E-03,5.27E-03
115799,8.86E-03,5.23E-03
115800,8.74E-03,5.19E-03
115801,8.55E-03,5.14E-03
115802,8.44E-03,5.10E-03
115803,8.37E-03,5.05E-03
115804,8.32E-03,5.01E-03
115805,8.28E-03,4.96E-03
115806,8.25E-03,4.91E-03
115807,8.23E-03,4.87E-03
115808,8.15E-03,4.82E-03
115809,7.96E-03,4.78E-03
115810,7.83E-03,4.73E-03
115811,7.82E-03,4.69E-03
115812,7.80E-03,4.64E-03
115813,7.77E-03,4.60E-03
115814,7.75E-03,4.55E-03
115815,7.72E-03,4.51E-03
115816,7.68E-03,4.47E-03
115817,7.65E-03,4.43E-03
115818,7.60E-03,4.39E-03
115819,7.55E-03,4.35E-03
115820,7.48E-03,4.31E-03
115821,7.41E-03,4.27E-03
115822,7.30E-03,4.24E-03
115823,7.17E-03,4.20E-03
115824,7.13E-03,4.17E-03
115825,7.27E-03,4.14E-03
115826,7.41E-03,4.11E-03
115827,7.41E-03,4.08E-03
115828,7.34E-03,4.05E-03
115829,7.25E-03,4.02E-03
115830,7.10E-03,4.00E-03
115831,6.86E-03,3.97E-03
115832,6.81E-03,3.95E-03
115833,6.99E-03,3.93E-03
115834,7.25E-03,3.92E-03
115835,7.49E-03,3.90E-03
115836,7.53E-03,3.89E-03
115837,7.52E-03,3.88E-03
115838,7.50E-03,3.88E-03
115839,7.28E-03,3.87E-03
115840,7.09E-03,3.85E-03
115841,7.00E-03,3.81E-03
115842,7.32E-03,3.76E-03
115843,7.68E-03,3.74E-03
115844,8.18E-03,3.73E-03
115845,5.93E-03,1.01E-02
115846,8.78E-03,4.29E-03
115847,9.92E-03,2.65E-02
115848,9.45E-03,2.69E-02
115849,6.73E-03,6.99E-03
115850,8.30E-03,7.01E-03
115851,8.32E-03,7.01E-03
115852,8.02E-03,7.01E-03
115853,8.80E-03,6.33E-03
115854,6.58E-03,7.44E-03
115855,6.99E-03,7.38E-03
115856,7.44E-03,7.29E-03
115857,6.34E-03,7.15E-03
115858,1.08E-02,6.88E-03
115859,6.95E-03,5.17E-03
115860,6.72E-03,5.03E-03
115861,8.01E-03,2.75E-02
115862,8.18E-03,9.52E-03
115863,6.72E-03,1.91E-02
115864,7.19E-03,1.98E-02
115865,7.51E-03,1.96E-02
115866,7.09E-03,1.99E-02
115867,7.17E-03,2.05E-02
115868,8.78E-03,4.21E-03
115869,7.92E-03,1.85E-02
115870,8.53E-03,1.08E-02
115871,6.08E-03,7.79E-03
115872,4.40E-03,7.76E-03
115873,5.34E-03,7.77E-03
115874,5.85E-03,7.78E-03
115875,6.13E-03,7.80E-03
115876,8.18E-03,7.83E-03
115877,8.34E-03,7.79E-03
115878,8.11E-03,7.98E-03
115879,7.02E-03,9.32E-03
115880,7.07E-03,9.24E-03
115881,6.83E-03,8.87E-03
115882,6.19E-03,1.00E-02
115883,8.39E-03,3.70E-03
115884,8.02E-03,2.02E-02
115885,8.78E-03,1.80E-02
115886,9.63E-03,1.79E-02
115887,1.10E-02,1.73E-02
115888,7.65E-03,7.60E-03
115889,8.45E-03,7.42E-03
115890,8.58E-03,7.41E-03
115891,8.97E-03,2.53E-02
115892,8.12E-03,1.87E-02
115893,8.11E-03,2.40E-02
115894,8.50E-03,2.35E-02
115895,8.86E-03,2.30E-02
115896,9.51E-03,2.24E-02
115897,8.53E-03,2.19E-02
115898,8.33E-03,2.13E-02
115899,8.21E-03,2.08E-02
115900,8.23E-03,2.03E-02
115901,7.93E-03,1.98E-02
115902,7.96E-03,1.93E-02
115903,8.12E-03,1.55E-02
115904,8.10E-03,1.54E-02
115905,7.24E-03,1.72E-02
115906,9.06E-03,1.71E-02
115907,9.29E-03,1.70E-02
115908,9.38E-03,1.69E-02
115909,9.43E-03,1.68E-02
115910,9.34E-03,1.67E-02
115911,8.99E-03,1.66E-02
115912,8.83E-03,1.65E-02
115913,8.71E-03,1.64E-02
115914,8.73E-03,1.64E-02
115915,8.77E-03,1.63E-02
115916,8.82E-03,1.62E-02
115917,8.87E-03,1.61E-02
115918,8.92E-03,1.60E-02
115919,8.95E-03,1.59E-02
115920,8.95E-03,1.58E-02
115921,8.95E-03,1.57E-02
115922,8.95E-03,1.56E-02
115923,8.97E-03,1.55E-02
115924,8.98E-03,1.54E-02
115925,9.00E-03,1.53E-02
115926,9.02E-03,1.52E-02
115927,9.03E-03,1.51E-02
115928,9.04E-03,1.50E-02
115929,9.06E-03,1.49E-02
115930,9.07E-03,1.48E-02
115931,9.09E-03,1.47E-02
115932,9.11E-03,1.46E-02
115933,9.12E-03,1.45E-02
115934,9.14E-03,1.44E-02
115935,9.15E-03,1.43E-02
115936,9.17E-03,1.42E-02
115937,9.19E-03,1.40E-02
115938,9.22E-03,1.39E-02
115939,9.24E-03,1.38E-02
115940,9.24E-03,1.37E-02
115941,9.24E-03,1.36E-02
115942,9.23E-03,1.34E-02
115943,9.06E-03,1.33E-02
115944,8.93E-03,1.32E-02
115945,8.74E-03,1.31E-02
115946,8.72E-03,1.30E-02
115947,8.64E-03,1.29E-02
115948,8.59E-03,1.27E-02
115949,8.70E-03,1.26E-02
115950,8.88E-03,1.25E-02
115951,9.13E-03,1.24E-02
115952,9.38E-03,1.23E-02
115953,7.33E-03,3.15E-02
115954,7.89E-03,1.18E-02
115955,8.21E-03,1.15E-02
115956,7.38E-03,6.62E-03
115957,7.76E-03,6.64E-03
115958,9.12E-03,5.90E-03
115959,1.04E-02,5.76E-03
115960,1.04E-02,5.61E-03
115961,7.27E-03,2.01E-02
115962,7.82E-03,2.03E-02
115963,5.66E-03,2.04E-02
115964,7.17E-03,2.04E-02
115965,6.34E-03,2.04E-02
115966,6.17E-03,2.05E-02
115967,6.17E-03,2.05E-02
115968,6.27E-03,2.06E-02
115969,6.56E-03,2.06E-02
115970,6.89E-03,2.07E-02
115971,8.20E-03,2.08E-02
115972,8.20E-03,2.08E-02
115973,8.62E-03,2.09E-02
115974,8.75E-03,2.09E-02
115975,8.89E-03,2.10E-02
115976,8.95E-03,2.11E-02
115977,9.08E-03,2.11E-02
115978,9.10E-03,2.12E-02
115979,9.16E-03,2.13E-02
115980,9.10E-03,2.13E-02
115981,6.61E-03,2.14E-02
115982,6.52E-03,2.14E-02
115983,6.33E-03,2.15E-02
115984,5.97E-03,2.15E-02
115985,6.17E-03,2.16E-02
115986,6.35E-03,2.16E-02
115987,6.74E-03,2.16E-02
115988,6.98E-03,2.17E-02
115989,7.35E-03,2.17E-02
115990,7.58E-03,2.17E-02
115991,7.66E-03,2.18E-02
115992,7.71E-03,2.18E-02
115993,7.76E-03,2.18E-02
115994,7.80E-03,2.19E-02
115995,7.83E-03,2.19E-02
115996,7.85E-03,2.19E-02
115997,7.87E-03,2.20E-02
115998,7.89E-03,2.20E-02
115999,7.91E-03,2.20E-02
116000,7.88E-03,2.20E-02
116001,7.88E-03,2.21E-02
116002,7.94E-03,2.21E-02
116003,7.99E-03,2.21E-02
116004,8.02E-03,2.22E-02
116005,8.03E-03,2.22E-02
116006,8.04E-03,2.22E-02
116007,8.05E-03,2.23E-02
116008,8.09E-03,2.23E-02
116009,8.14E-03,2.23E-02
116010,8.15E-03,2.24E-02
116011,8.16E-03,2.24E-02
116012,8.16E-03,2.24E-02
116013,8.16E-03,2.25E-02
116014,8.16E-03,2.25E-02
116015,8.17E-03,2.25E-02
116016,8.17E-03,2.26E-02
116017,8.18E-03,2.26E-02
116018,8.19E-03,2.26E-02
116019,8.19E-03,2.27E-02
116020,8.20E-03,2.27E-02
116021,8.20E-03,2.27E-02
116022,8.21E-03,2.28E-02
116023,8.22E-03,2.28E-02
116024,8.22E-03,2.28E-02
116025,8.23E-03,2.29E-02
116026,8.24E-03,2.29E-02
116027,8.25E-03,2.29E-02
116028,8.26E-03,2.29E-02
116029,8.28E-03,2.30E-02
116030,8.29E-03,2.30E-02
116031,8.31E-03,2.30E-02
116032,8.33E-03,2.30E-02
116033,8.35E-03,2.30E-02
116034,8.38E-03,2.30E-02
116035,8.41E-03,2.30E-02
116036,8.44E-03,2.31E-02
116037,8.47E-03,2.31E-02
116038,8.48E-03,2.31E-02
116039,8.50E-03,2.31E-02
116040,8.52E-03,2.31E-02
116041,8.53E-03,2.31E-02
116042,8.54E-03,2.31E-02
116043,8.60E-03,2.31E-02
116044,8.70E-03,2.31E-02
116045,8.80E-03,2.31E-02
116046,8.94E-03,2.31E-02
116047,9.12E-03,2.31E-02
116048,9.37E-03,2.31E-02
116049,9.74E-03,2.32E-02
116050,1.04E-02,2.32E-02
116051,1.07E-02,2.33E-02
116052,1.06E-02,2.33E-02
116053,1.04E-02,2.34E-02
116054,1.02E-02,2.35E-02
116055,9.89E-03,2.36E-02
116056,1.02E-02,2.37E-02
116057,1.06E-02,2.39E-02
116058,9.89E-03,2.40E-02
116059,8.87E-03,2.41E-02
116060,8.35E-03,2.42E-02
116061,8.18E-03,2.44E-02
116062,7.87E-03,2.45E-02
116063,7.66E-03,2.46E-02
116064,7.36E-03,2.47E-02
116065,6.02E-03,2.48E-02
116066,5.58E-03,2.48E-02
116067,5.91E-03,2.49E-02
116068,6.16E-03,2.49E-02
116069,6.12E-03,2.50E-02
116070,5.87E-03,2.50E-02
116071,5.57E-03,2.51E-02
116072,5.31E-03,2.51E-02
116073,5.69E-03,2.51E-02
116074,6.20E-03,2.51E-02
116075,6.52E-03,2.52E-02
116076,6.86E-03,2.52E-02
116077,7.37E-03,2.52E-02
116078,7.41E-03,2.52E-02
116079,7.41E-03,2.52E-02
116080,7.42E-03,2.52E-02
116081,7.42E-03,2.52E-02
116082,7.42E-03,2.51E-02
116083,7.62E-03,2.51E-02
116084,7.97E-03,2.51E-02
116085,8.12E-03,2.51E-02
116086,8.13E-03,2.51E-02
116087,8.13E-03,2.51E-02
116088,8.14E-03,2.50E-02
116089,8.19E-03,2.50E-02
116090,8.25E-03,2.50E-02
116091,8.29E-03,2.50E-02
116092,8.31E-03,2.50E-02
116093,8.31E-03,2.50E-02
116094,8.32E-03,2.50E-02
116095,8.34E-03,2.49E-02
116096,8.36E-03,2.49E-02
116097,8.37E-03,2.49E-02
116098,8.39E-03,2.49E-02
116099,8.42E-03,2.49E-02
116100,8.44E-03,2.49E-02
116101,8.47E-03,2.49E-02
116102,8.50E-03,2.49E-02
116103,8.54E-03,2.49E-02
116104,8.59E-03,2.49E-02
116105,8.64E-03,2.50E-02
116106,8.69E-03,2.50E-02
116107,8.76E-03,2.50E-02
116108,8.81E-03,2.50E-02
116109,8.86E-03,2.51E-02
116110,8.95E-03,2.51E-02
116111,9.04E-03,2.52E-02
116112,9.16E-03,2.53E-02
116113,9.29E-03,2.53E-02
116114,9.46E-03,2.54E-02
116115,9.67E-03,2.55E-02
116116,9.91E-03,2.57E-02
116117,9.96E-03,2.58E-02
116118,9.79E-03,2.60E-02
116119,9.74E-03,2.61E-02
116120,9.94E-03,2.63E-02
116121,1.06E-02,2.65E-02
116122,1.05E-02,2.66E-02
116123,5.91E-03,2.68E-02
116124,5.91E-03,2.69E-02
116125,5.18E-03,2.70E-02
116126,5.79E-03,2.71E-02
116127,6.32E-03,2.72E-02
116128,6.78E-03,2.73E-02
116129,6.93E-03,2.74E-02
116130,9.12E-03,4.55E-03
116131,9.04E-03,4.48E-03
116132,7.77E-03,1.84E-02
116133,7.37E-03,7.40E-03
116134,8.97E-03,5.32E-03
116135,8.02E-03,5.09E-03
116136,7.64E-03,7.53E-03
116137,4.84E-03,1.90E-02
116138,7.90E-03,2.13E-02
116139,6.74E-03,2.11E-02
116140,7.27E-03,2.09E-02
116141,7.67E-03,2.08E-02
116142,8.85E-03,1.86E-02
116143,6.83E-03,2.72E-02
116144,6.68E-03,2.72E-02
116145,6.71E-03,2.73E-02
116146,6.86E-03,2.73E-02
116147,7.07E-03,2.74E-02
116148,7.26E-03,2.74E-02
116149,7.39E-03,2.75E-02
116150,7.64E-03,2.75E-02
116151,7.74E-03,2.75E-02
116152,7.78E-03,2.76E-02
116153,7.82E-03,2.76E-02
116154,7.85E-03,2.77E-02
116155,7.87E-03,2.77E-02
116156,7.89E-03,2.78E-02
116157,7.91E-03,2.78E-02
116158,7.93E-03,2.78E-02
116159,7.94E-03,2.79E-02
116160,7.95E-03,2.79E-02
116161,7.96E-03,2.80E-02
116162,7.97E-03,2.80E-02
116163,7.98E-03,2.81E-02
116164,7.99E-03,2.82E-02
116165,8.00E-03,2.82E-02
116166,8.00E-03,2.83E-02
116167,8.01E-03,2.84E-02
116168,8.01E-03,2.84E-02
116169,8.01E-03,2.85E-02
116170,8.01E-03,2.86E-02
116171,8.02E-03,2.87E-02
116172,8.02E-03,2.88E-02
116173,8.02E-03,2.89E-02
116174,8.02E-03,2.90E-02
116175,8.02E-03,2.91E-02
116176,8.03E-03,2.91E-02
116177,8.03E-03,2.93E-02
116178,8.03E-03,2.94E-02
116179,8.03E-03,2.95E-02
116180,8.03E-03,2.96E-02
116181,8.03E-03,2.97E-02
116182,8.03E-03,2.98E-02
116183,8.04E-03,2.99E-02
116184,8.04E-03,3.00E-02
116185,8.04E-03,3.01E-02
116186,8.04E-03,3.03E-02
116187,8.04E-03,3.04E-02
116188,8.04E-03,3.05E-02
116189,8.04E-03,3.07E-02
116190,8.04E-03,3.08E-02
116191,8.04E-03,3.09E-02
116192,8.04E-03,3.11E-02
116193,8.05E-03,3.12E-02
116194,8.05E-03,3.14E-02
116195,8.05E-03,3.15E-02
116196,8.05E-03,3.17E-02
116197,8.05E-03,3.18E-02
116198,8.05E-03,3.20E-02
116199,8.05E-03,3.22E-02
116200,8.05E-03,3.23E-02
116201,8.09E-03,3.25E-02
116202,8.11E-03,3.27E-02
116203,8.08E-03,3.29E-02
116204,8.32E-03,3.31E-02
116205,8.38E-03,3.33E-02
116206,8.57E-03,3.33E-02
116207,8.60E-03,3.35E-02
116208,8.36E-03,3.34E-02
116209,8.57E-03,3.33E-02
116210,8.16E-03,3.34E-02
116211,8.00E-03,3.34E-02
116212,7.74E-03,3.34E-02
116213,7.63E-03,3.35E-02
116214,8.26E-03,3.35E-02
116215,1.01E-02,2.14E-02
116216,8.73E-03,1.86E-02
116217,9.06E-03,1.87E-02
116218,9.55E-03,1.88E-02
116219,9.58E-03,1.88E-02
116220,9.56E-03,1.89E-02
116221,9.48E-03,1.90E-02
116222,9.21E-03,1.90E-02
116223,9.13E-03,1.91E-02
116224,9.05E-03,1.92E-02
116225,8.99E-03,1.93E-02
116226,8.93E-03,1.94E-02
116227,8.85E-03,1.94E-02
116228,9.06E-03,1.95E-02
116229,9.24E-03,1.96E-02
116230,9.39E-03,1.97E-02
116231,9.43E-03,1.99E-02
116232,9.51E-03,2.00E-02
116233,9.55E-03,2.01E-02
116234,9.69E-03,2.02E-02
116235,9.78E-03,2.04E-02
116236,9.37E-03,2.05E-02
116237,8.91E-03,2.06E-02
116238,8.39E-03,2.08E-02
116239,8.10E-03,2.09E-02
116240,7.98E-03,2.11E-02
116241,7.54E-03,2.12E-02
116242,7.08E-03,2.13E-02
116243,7.07E-03,2.14E-02
116244,7.99E-03,2.15E-02
116245,7.80E-03,2.16E-02
116246,8.43E-03,7.57E-03
116247,8.50E-03,7.55E-03
116248,8.81E-03,7.54E-03
116249,8.86E-03,7.53E-03
116250,8.84E-03,7.52E-03
116251,8.72E-03,7.51E-03
116252,7.96E-03,7.49E-03
116253,6.87E-03,7.48E-03
116254,6.79E-03,7.47E-03
116255,7.06E-03,7.46E-03
116256,6.94E-03,7.45E-03
116257,6.75E-03,7.45E-03
116258,6.28E-03,7.44E-03
116259,5.62E-03,7.43E-03
116260,5.75E-03,7.42E-03
116261,6.19E-03,7.41E-03
116262,6.51E-03,7.41E-03
116263,7.53E-03,7.40E-03
116264,7.80E-03,7.39E-03
116265,8.01E-03,7.38E-03
116266,8.05E-03,7.37E-03
116267,7.79E-03,7.36E-03
116268,7.43E-03,7.35E-03
116269,7.25E-03,7.34E-03
116270,7.09E-03,7.33E-03
116271,6.87E-03,7.32E-03
116272,6.58E-03,7.31E-03
116273,7.35E-03,7.31E-03
116274,8.98E-03,7.30E-03
116275,1.02E-02,7.29E-03
116276,1.06E-02,7.27E-03
116277,1.02E-02,7.26E-03
116278,9.71E-03,7.24E-03
116279,9.27E-03,7.23E-03
116280,8.40E-03,7.21E-03
116281,7.71E-03,7.20E-03
116282,7.22E-03,7.18E-03
116283,6.29E-03,7.17E-03
116284,5.87E-03,7.16E-03
116285,5.69E-03,7.15E-03
116286,6.13E-03,7.15E-03
116287,8.03E-03,7.14E-03
116288,9.67E-03,7.13E-03
116289,1.05E-02,7.12E-03
116290,1.04E-02,7.11E-03
116291,9.56E-03,7.09E-03
116292,9.62E-03,7.08E-03
116293,6.73E-03,7.06E-03
116294,6.59E-03,7.05E-03
116295,6.56E-03,7.03E-03
116296,6.49E-03,7.02E-03
116297,6.57E-03,7.01E-03
116298,7.92E-03,7.00E-03
116299,8.67E-03,6.43E-03
116300,8.55E-03,6.54E-03
116301,8.34E-03,6.63E-03
116302,8.31E-03,6.73E-03
116303,8.38E-03,6.83E-03
116304,1.05E-02,6.98E-03
116305,8.83E-03,6.91E-03
116306,7.44E-03,2.36E-02
116307,8.52E-03,2.31E-02
116308,8.59E-03,2.25E-02
116309,1.07E-02,2.20E-02
116310,8.23E-03,2.13E-02
116311,8.28E-03,2.08E-02
116312,8.23E-03,2.03E-02
116313,8.18E-03,1.98E-02
116314,7.93E-03,1.88E-02
116315,8.04E-03,1.93E-02
116316,7.72E-03,7.50E-03
116317,8.07E-03,7.77E-03
116318,8.12E-03,7.68E-03
116319,8.00E-03,7.59E-03
116320,6.55E-03,7.06E-03
116321,6.49E-03,6.99E-03
116322,9.86E-03,6.82E-03
116323,9.79E-03,6.79E-03
116324,6.58E-03,6.76E-03
116325,6.25E-03,6.75E-03
116326,6.23E-03,6.73E-03
116327,5.79E-03,6.72E-03
116328,5.58E-03,6.71E-03
116329,4.67E-03,6.68E-03
116330,5.27E-03,6.71E-03
116331,6.20E-03,6.67E-03
116332,7.38E-03,6.69E-03
116333,6.82E-03,6.68E-03
116334,7.47E-03,6.65E-03
116335,8.46E-03,6.68E-03
116336,7.53E-03,6.69E-03
116337,1.01E-02,4.60E-03
116338,9.99E-03,4.63E-03
116339,6.74E-03,4.67E-03
116340,6.69E-03,4.69E-03
116341,6.29E-03,4.71E-03
116342,6.07E-03,4.71E-03
116343,5.35E-03,4.70E-03
116344,4.75E-03,4.80E-03
116345,5.21E-03,4.92E-03
116346,4.58E-03,4.80E-03
116347,8.57E-03,1.81E-02
116348,8.41E-03,1.82E-02
116349,6.66E-03,1.86E-02
116350,7.24E-03,1.85E-02
116351,7.23E-03,1.84E-02
116352,7.50E-03,1.83E-02
116353,7.80E-03,2.80E-02
116354,7.47E-03,2.85E-02
116355,7.24E-03,2.90E-02
116356,7.11E-03,3.07E-02
116357,6.27E-03,3.01E-02
116358,6.72E-03,2.95E-02
116359,8.44E-03,9.57E-03
116360,7.34E-03,1.92E-02
116361,8.20E-03,1.94E-02
116362,8.41E-03,1.93E-02
116363,7.09E-03,2.01E-02
116364,6.91E-03,2.04E-02
116365,7.00E-03,2.02E-02
116366,9.00E-03,4.15E-03
116367,7.52E-03,4.10E-03
116368,5.27E-03,4.26E-03
116369,5.17E-03,4.22E-03
116370,5.04E-03,4.19E-03
116371,5.16E-03,4.20E-03
116372,5.44E-03,4.15E-03
116373,6.19E-03,4.09E-03
116374,7.10E-03,4.08E-03
116375,7.43E-03,1.85E-02
116376,6.95E-03,1.84E-02
116377,6.56E-03,1.83E-02
116378,6.39E-03,1.82E-02
116379,6.83E-03,1.81E-02
116380,7.01E-03,1.79E-02
116381,7.27E-03,1.78E-02
116382,7.58E-03,1.77E-02
116383,7.90E-03,1.76E-02
116384,8.18E-03,1.74E-02
116385,8.33E-03,1.72E-02
116386,8.40E-03,1.71E-02
116387,8.42E-03,1.69E-02
116388,8.58E-03,1.68E-02
116389,8.60E-03,1.66E-02
116390,8.82E-03,1.64E-02
116391,9.33E-03,1.63E-02
116392,9.83E-03,1.61E-02
116393,1.00E-02,1.60E-02
116394,1.02E-02,1.58E-02
116395,1.04E-02,1.57E-02
116396,1.07E-02,1.55E-02
116397,1.08E-02,1.54E-02
116398,1.08E-02,1.52E-02
116399,1.06E-02,1.51E-02
116400,7.93E-03,1.50E-02
116401,7.84E-03,1.49E-02
116402,7.57E-03,1.48E-02
116403,6.14E-03,1.47E-02
116404,5.80E-03,1.46E-02
116405,6.05E-03,1.45E-02
116406,6.17E-03,1.44E-02
116407,6.51E-03,1.43E-02
116408,7.05E-03,1.42E-02
116409,7.29E-03,1.41E-02
116410,7.37E-03,1.40E-02
116411,7.71E-03,1.39E-02
116412,7.72E-03,1.38E-02
116413,7.83E-03,1.37E-02
116414,7.91E-03,1.36E-02
116415,7.93E-03,1.35E-02
116416,7.93E-03,1.33E-02
116417,7.93E-03,1.32E-02
116418,7.95E-03,1.31E-02
116419,8.28E-03,1.30E-02
116420,8.60E-03,1.29E-02
116421,8.52E-03,1.27E-02
116422,8.39E-03,1.26E-02
116423,8.33E-03,1.25E-02
116424,8.38E-03,1.24E-02
116425,8.46E-03,1.23E-02
116426,8.52E-03,1.22E-02
116427,8.59E-03,1.21E-02
116428,8.73E-03,1.20E-02
116429,8.81E-03,1.19E-02
116430,9.03E-03,1.18E-02
116431,9.23E-03,1.17E-02
116432,9.42E-03,1.16E-02
116433,9.54E-03,1.15E-02
116434,9.79E-03,1.14E-02
116435,9.85E-03,1.13E-02
116436,9.73E-03,1.12E-02
116437,7.69E-03,1.10E-02
116438,9.66E-03,1.11E-02
116439,8.80E-03,1.07E-02
116440,9.08E-03,7.85E-03
116441,8.15E-03,7.85E-03
116442,8.00E-03,7.82E-03
116443,8.24E-03,8.09E-03
116444,8.45E-03,8.18E-03
116445,8.62E-03,8.25E-03
116446,9.35E-03,8.33E-03
116447,9.58E-03,8.40E-03
116448,9.43E-03,8.46E-03
116449,9.05E-03,8.52E-03
116450,8.89E-03,8.57E-03
116451,8.49E-03,8.63E-03
116452,8.16E-03,8.68E-03
116453,8.14E-03,8.73E-03
116454,8.11E-03,8.78E-03
116455,8.06E-03,8.83E-03
116456,7.71E-03,8.88E-03
116457,7.66E-03,8.93E-03
116458,7.59E-03,8.98E-03
116459,7.40E-03,9.02E-03
116460,7.24E-03,9.07E-03
116461,7.14E-03,9.12E-03
116462,7.30E-03,9.19E-03
116463,6.17E-03,1.00E-02
116464,6.48E-03,1.01E-02
116465,6.67E-03,1.02E-02
116466,6.85E-03,1.03E-02
116467,7.35E-03,1.04E-02
116468,7.31E-03,1.05E-02
116469,7.36E-03,1.07E-02
116470,6.76E-03,1.11E-02
116471,7.52E-03,1.10E-02
116472,7.76E-03,1.08E-02
116473,8.34E-03,3.71E-03
116474,8.22E-03,3.72E-03
116475,8.16E-03,3.73E-03
116476,7.96E-03,3.75E-03
116477,7.67E-03,3.76E-03
116478,6.07E-03,3.78E-03
116479,8.88E-03,2.02E-02
116480,9.06E-03,2.01E-02
116481,9.15E-03,2.01E-02
116482,9.02E-03,2.00E-02
116483,8.91E-03,2.00E-02
116484,8.70E-03,2.00E-02
116485,8.65E-03,1.99E-02
116486,8.43E-03,1.99E-02
116487,8.38E-03,1.99E-02
116488,8.34E-03,1.99E-02
116489,8.31E-03,1.99E-02
116490,8.28E-03,1.98E-02
116491,8.26E-03,1.98E-02
116492,8.24E-03,1.98E-02
116493,8.23E-03,1.98E-02
116494,8.22E-03,1.98E-02
116495,8.21E-03,1.97E-02
116496,8.20E-03,1.97E-02
116497,8.19E-03,1.97E-02
116498,8.18E-03,1.96E-02
116499,8.17E-03,1.96E-02
116500,8.17E-03,1.96E-02
116501,8.16E-03,1.96E-02
116502,8.16E-03,1.95E-02
116503,8.15E-03,1.95E-02
116504,8.15E-03,1.94E-02
116505,8.13E-03,1.94E-02
116506,8.09E-03,1.94E-02
116507,8.06E-03,1.93E-02
116508,8.06E-03,1.93E-02
116509,8.05E-03,1.92E-02
116510,8.05E-03,1.92E-02
116511,8.04E-03,1.92E-02
116512,8.04E-03,1.91E-02
116513,8.03E-03,1.91E-02
116514,8.02E-03,1.90E-02
116515,8.01E-03,1.90E-02
116516,8.00E-03,1.89E-02
116517,8.01E-03,1.89E-02
116518,8.01E-03,1.88E-02
116519,8.00E-03,1.88E-02
116520,8.00E-03,1.88E-02
116521,8.00E-03,1.87E-02
116522,7.99E-03,1.87E-02
116523,7.98E-03,1.86E-02
116524,7.98E-03,1.86E-02
116525,7.97E-03,1.85E-02
116526,7.96E-03,1.85E-02
116527,7.95E-03,1.84E-02
116528,7.94E-03,1.84E-02
116529,7.93E-03,1.83E-02
116530,7.92E-03,1.83E-02
116531,7.90E-03,1.82E-02
116532,7.89E-03,1.82E-02
116533,7.86E-03,1.81E-02
116534,7.84E-03,1.81E-02
116535,7.81E-03,1.80E-02
116536,7.77E-03,1.80E-02
116537,7.72E-03,1.79E-02
116538,7.66E-03,1.79E-02
116539,7.58E-03,1.78E-02
116540,7.47E-03,1.78E-02
116541,7.31E-03,1.77E-02
116542,7.07E-03,1.77E-02
116543,7.91E-03,1.76E-02
116544,9.21E-03,1.76E-02
116545,9.31E-03,1.75E-02
116546,8.96E-03,1.74E-02
116547,8.75E-03,1.74E-02
116548,8.61E-03,1.73E-02
116549,8.51E-03,1.73E-02
116550,8.44E-03,1.72E-02
116551,8.39E-03,1.72E-02
116552,8.35E-03,1.71E-02
116553,8.31E-03,1.71E-02
116554,8.29E-03,1.70E-02
116555,8.27E-03,1.70E-02
116556,8.24E-03,1.69E-02
116557,8.22E-03,1.69E-02
116558,8.21E-03,1.69E-02
116559,8.20E-03,1.68E-02
116560,8.19E-03,1.68E-02
116561,8.18E-03,1.67E-02
116562,8.17E-03,1.67E-02
116563,8.17E-03,1.66E-02
116564,8.16E-03,1.66E-02
116565,8.16E-03,1.66E-02
116566,8.15E-03,1.65E-02
116567,8.15E-03,1.65E-02
116568,8.14E-03,1.64E-02
116569,8.14E-03,1.64E-02
116570,8.14E-03,1.63E-02
116571,8.13E-03,1.63E-02
116572,8.13E-03,1.62E-02
116573,8.13E-03,1.62E-02
116574,8.13E-03,1.61E-02
116575,8.12E-03,1.61E-02
116576,8.12E-03,1.61E-02
116577,8.12E-03,1.60E-02
116578,8.12E-03,1.60E-02
116579,8.12E-03,1.59E-02
116580,8.12E-03,1.59E-02
116581,8.11E-03,1.58E-02
116582,8.11E-03,1.58E-02
116583,8.11E-03,1.57E-02
116584,8.11E-03,1.57E-02
116585,8.11E-03,1.56E-02
116586,8.11E-03,1.56E-02
116587,8.11E-03,1.55E-02
116588,9.67E-03,1.78E-02
116589,9.67E-03,1.77E-02
116590,9.68E-03,1.76E-02
116591,1.00E-02,1.74E-02
116592,8.20E-03,7.42E-03
116593,7.95E-03,7.49E-03
116594,8.25E-03,7.48E-03
116595,8.27E-03,7.48E-03
116596,9.31E-03,7.44E-03
116597,9.30E-03,7.41E-03
116598,8.18E-03,1.19E-02
116599,8.24E-03,1.20E-02
116600,8.61E-03,1.22E-02
116601,8.96E-03,1.87E-02
116602,9.37E-03,1.88E-02
116603,9.56E-03,1.89E-02
116604,9.49E-03,1.90E-02
116605,9.54E-03,1.90E-02
116606,9.43E-03,1.91E-02
116607,9.21E-03,1.92E-02
116608,9.08E-03,1.92E-02
116609,9.01E-03,1.93E-02
116610,8.95E-03,1.94E-02
116611,8.89E-03,1.95E-02
116612,8.82E-03,1.96E-02
116613,9.01E-03,1.97E-02
116614,9.18E-03,1.98E-02
116615,9.29E-03,1.99E-02
116616,9.34E-03,2.00E-02
116617,9.54E-03,2.01E-02
116618,9.62E-03,2.02E-02
116619,9.66E-03,2.04E-02
116620,9.24E-03,2.05E-02
116621,9.01E-03,2.07E-02
116622,8.81E-03,2.08E-02
116623,8.61E-03,2.09E-02
116624,8.38E-03,2.11E-02
116625,8.01E-03,2.12E-02
116626,7.80E-03,2.13E-02
116627,7.57E-03,2.14E-02
116628,7.65E-03,2.16E-02
116629,7.39E-03,2.17E-02
116630,6.81E-03,2.18E-02
116631,5.95E-03,2.19E-02
116632,5.23E-03,2.20E-02
116633,4.32E-03,2.21E-02
116634,7.99E-03,2.19E-02
116635,4.24E-03,2.21E-02
116636,9.40E-03,6.64E-03
116637,8.11E-03,1.55E-02
116638,8.56E-03,7.36E-03
116639,8.11E-03,1.54E-02
116640,8.11E-03,1.53E-02
116641,8.11E-03,1.53E-02
116642,8.11E-03,1.52E-02
116643,8.11E-03,1.52E-02
116644,8.11E-03,1.51E-02
116645,8.11E-03,1.51E-02
116646,8.11E-03,1.50E-02
116647,8.11E-03,1.50E-02
116648,8.11E-03,1.49E-02
116649,8.11E-03,1.48E-02
116650,8.11E-03,1.48E-02
116651,8.11E-03,1.47E-02
116652,8.11E-03,1.47E-02
116653,8.11E-03,1.46E-02
116654,8.11E-03,1.46E-02
116655,8.12E-03,1.45E-02
116656,8.12E-03,1.45E-02
116657,8.12E-03,1.44E-02
116658,8.12E-03,1.44E-02
116659,8.12E-03,1.43E-02
116660,8.12E-03,1.42E-02
116661,8.12E-03,1.42E-02
116662,8.12E-03,1.41E-02
116663,8.12E-03,1.41E-02
116664,8.12E-03,1.40E-02
116665,8.13E-03,1.39E-02
116666,8.13E-03,1.39E-02
116667,8.13E-03,1.38E-02
116668,8.13E-03,1.38E-02
116669,8.14E-03,1.37E-02
116670,8.14E-03,1.36E-02
116671,8.14E-03,1.36E-02
116672,8.15E-03,1.35E-02
116673,8.15E-03,1.35E-02
116674,8.15E-03,1.34E-02
116675,8.15E-03,1.33E-02
116676,8.16E-03,1.33E-02
116677,8.16E-03,1.32E-02
116678,8.17E-03,1.31E-02
116679,8.17E-03,1.31E-02
116680,8.18E-03,1.30E-02
116681,8.18E-03,1.29E-02
116682,8.19E-03,1.29E-02
116683,8.20E-03,1.28E-02
116684,8.20E-03,1.27E-02
116685,8.21E-03,1.27E-02
116686,8.22E-03,1.26E-02
116687,8.24E-03,1.25E-02
116688,8.25E-03,1.24E-02
116689,8.26E-03,1.24E-02
116690,8.28E-03,1.23E-02
116691,8.30E-03,1.22E-02
116692,8.33E-03,1.22E-02
116693,8.36E-03,1.21E-02
116694,8.39E-03,1.20E-02
116695,8.44E-03,1.19E-02
116696,8.50E-03,1.19E-02
116697,8.57E-03,1.18E-02
116698,8.67E-03,1.17E-02
116699,8.81E-03,1.16E-02
116700,9.02E-03,1.15E-02
116701,9.35E-03,1.15E-02
116702,9.92E-03,1.14E-02
116703,1.00E-02,1.13E-02
116704,9.12E-03,1.12E-02
116705,8.44E-03,1.11E-02
116706,8.47E-03,1.11E-02
116707,8.51E-03,1.10E-02
116708,8.56E-03,1.09E-02
116709,8.61E-03,1.08E-02
116710,8.68E-03,1.07E-02
116711,8.77E-03,1.07E-02
116712,8.88E-03,1.06E-02
116713,9.02E-03,1.05E-02
116714,9.20E-03,1.04E-02
116715,9.45E-03,1.03E-02
116716,9.22E-03,1.02E-02
116717,8.44E-03,1.01E-02
116718,6.77E-03,1.00E-02
116719,6.26E-03,9.97E-03
116720,6.56E-03,9.90E-03
116721,6.87E-03,9.83E-03
116722,7.04E-03,9.75E-03
116723,7.29E-03,9.68E-03
116724,7.44E-03,9.60E-03
116725,7.53E-03,9.52E-03
116726,7.60E-03,9.44E-03
116727,7.65E-03,9.37E-03
116728,7.70E-03,9.29E-03
116729,7.76E-03,9.21E-03
116730,7.82E-03,9.14E-03
116731,7.85E-03,9.06E-03
116732,7.85E-03,8.99E-03
116733,7.85E-03,8.92E-03
116734,8.15E-03,8.86E-03
116735,8.56E-03,8.79E-03
116736,8.58E-03,8.72E-03
116737,8.44E-03,8.66E-03
116738,8.36E-03,8.61E-03
116739,8.40E-03,8.55E-03
116740,8.49E-03,8.51E-03
116741,8.55E-03,8.46E-03
116742,8.61E-03,8.42E-03
116743,8.69E-03,8.39E-03
116744,8.79E-03,8.36E-03
116745,8.92E-03,8.34E-03
116746,9.15E-03,8.32E-03
116747,9.38E-03,8.31E-03
116748,9.34E-03,8.31E-03
116749,8.84E-03,8.31E-03
116750,8.16E-03,8.32E-03
116751,7.87E-03,8.34E-03
116752,7.86E-03,8.37E-03
116753,7.87E-03,8.40E-03
116754,7.88E-03,8.45E-03
116755,7.88E-03,8.51E-03
116756,7.89E-03,8.58E-03
116757,7.89E-03,8.66E-03
116758,7.90E-03,8.75E-03
116759,7.91E-03,8.85E-03
116760,7.92E-03,8.97E-03
116761,7.93E-03,9.10E-03
116762,7.93E-03,9.24E-03
116763,7.94E-03,9.40E-03
116764,7.94E-03,9.56E-03
116765,7.95E-03,9.73E-03
116766,7.96E-03,9.92E-03
116767,7.97E-03,1.01E-02
116768,7.98E-03,1.03E-02
116769,8.04E-03,1.05E-02
116770,8.09E-03,1.07E-02
116771,8.24E-03,1.09E-02
116772,8.33E-03,1.11E-02
116773,8.46E-03,1.13E-02
116774,8.88E-03,1.16E-02
116775,9.21E-03,1.18E-02
116776,9.52E-03,1.20E-02
116777,9.78E-03,1.22E-02
116778,8.69E-03,4.02E-03
116779,9.38E-03,3.90E-03
116780,1.01E-02,2.56E-02
116781,7.72E-03,1.11E-02
116782,6.98E-03,2.64E-02
116783,9.28E-03,9.64E-03
116784,8.96E-03,9.67E-03
116785,8.17E-03,9.69E-03
116786,8.13E-03,9.72E-03
116787,8.78E-03,9.78E-03
116788,8.12E-03,9.72E-03
116789,8.61E-03,6.64E-03
116790,8.41E-03,6.62E-03
116791,8.44E-03,6.60E-03
116792,9.75E-03,6.58E-03
116793,9.53E-03,6.55E-03
116794,9.39E-03,6.52E-03
116795,9.37E-03,6.49E-03
116796,9.16E-03,6.46E-03
116797,8.82E-03,6.43E-03
116798,8.72E-03,6.40E-03
116799,8.54E-03,6.37E-03
116800,8.16E-03,6.33E-03
116801,7.80E-03,6.30E-03
116802,7.70E-03,6.27E-03
116803,7.67E-03,6.24E-03
116804,7.62E-03,6.21E-03
116805,7.55E-03,6.18E-03
116806,7.46E-03,6.15E-03
116807,7.35E-03,6.12E-03
116808,7.20E-03,6.09E-03
116809,6.99E-03,6.06E-03
116810,6.68E-03,6.04E-03
116811,6.15E-03,6.01E-03
116812,5.42E-03,5.99E-03
116813,5.61E-03,5.98E-03
116814,6.45E-03,5.96E-03
116815,6.49E-03,5.94E-03
116816,6.53E-03,5.93E-03
116817,6.74E-03,5.91E-03
116818,7.10E-03,5.89E-03
116819,7.83E-03,5.89E-03
116820,9.32E-03,5.89E-03
116821,1.03E-02,5.88E-03
116822,9.87E-03,5.85E-03
116823,9.83E-03,5.83E-03
116824,9.82E-03,5.80E-03
116825,9.73E-03,5.78E-03
116826,9.31E-03,5.75E-03
116827,9.26E-03,5.73E-03
116828,8.00E-03,5.70E-03
116829,7.38E-03,5.67E-03
116830,7.18E-03,5.65E-03
116831,7.05E-03,5.63E-03
116832,6.90E-03,5.61E-03
116833,6.70E-03,5.59E-03
116834,6.44E-03,5.57E-03
116835,6.14E-03,5.56E-03
116836,6.25E-03,5.55E-03
116837,6.75E-03,5.54E-03
116838,6.87E-03,5.53E-03
116839,6.94E-03,5.52E-03
116840,6.87E-03,5.52E-03
116841,6.83E-03,5.51E-03
116842,7.76E-03,5.51E-03
116843,9.14E-03,5.51E-03
116844,9.50E-03,5.51E-03
116845,9.32E-03,5.50E-03
116846,9.16E-03,5.49E-03
116847,9.00E-03,5.48E-03
116848,8.71E-03,5.47E-03
116849,8.36E-03,5.46E-03
116850,8.10E-03,5.45E-03
116851,8.05E-03,5.44E-03
116852,8.10E-03,5.43E-03
116853,8.10E-03,5.42E-03
116854,8.21E-03,5.41E-03
116855,9.07E-03,5.40E-03
116856,9.74E-03,5.39E-03
116857,9.49E-03,5.38E-03
116858,9.17E-03,5.36E-03
116859,8.95E-03,5.34E-03
116860,8.96E-03,5.32E-03
116861,9.16E-03,5.30E-03
116862,9.49E-03,5.28E-03
116863,9.95E-03,5.25E-03
116864,1.01E-02,5.22E-03
116865,9.69E-03,5.18E-03
116866,9.32E-03,5.15E-03
116867,9.08E-03,5.11E-03
116868,8.91E-03,5.07E-03
116869,8.83E-03,5.02E-03
116870,8.82E-03,4.98E-03
116871,8.71E-03,4.94E-03
116872,8.53E-03,4.89E-03
116873,8.42E-03,4.85E-03
116874,8.35E-03,4.80E-03
116875,8.30E-03,4.76E-03
116876,8.27E-03,4.71E-03
116877,8.25E-03,4.66E-03
116878,8.23E-03,4.62E-03
116879,8.14E-03,4.57E-03
116880,7.96E-03,4.52E-03
116881,7.85E-03,4.48E-03
116882,7.83E-03,4.43E-03
116883,7.81E-03,4.38E-03
116884,7.79E-03,4.34E-03
116885,7.76E-03,4.30E-03
116886,7.74E-03,4.25E-03
116887,7.70E-03,4.21E-03
116888,7.67E-03,4.17E-03
116889,7.62E-03,4.13E-03
116890,7.57E-03,4.09E-03
116891,7.51E-03,4.05E-03
116892,7.44E-03,4.01E-03
116893,7.34E-03,3.97E-03
116894,7.21E-03,3.94E-03
116895,7.18E-03,3.90E-03
116896,7.32E-03,3.87E-03
116897,7.44E-03,3.84E-03
116898,7.44E-03,3.81E-03
116899,7.37E-03,3.78E-03
116900,7.29E-03,3.75E-03
116901,7.15E-03,3.73E-03
116902,6.92E-03,3.70E-03
116903,6.87E-03,3.68E-03
116904,7.05E-03,3.66E-03
116905,7.19E-03,3.64E-03
116906,7.44E-03,3.63E-03
116907,7.46E-03,3.62E-03
116908,7.41E-03,3.61E-03
116909,7.37E-03,3.60E-03
116910,7.08E-03,3.60E-03
116911,6.94E-03,3.58E-03
116912,6.77E-03,3.55E-03
116913,7.12E-03,3.51E-03
116914,8.39E-03,3.44E-03
116915,9.35E-03,3.40E-03
116916,7.24E-03,6.86E-03
116917,7.85E-03,6.85E-03
116918,7.96E-03,6.87E-03
116919,8.67E-03,6.85E-03
116920,8.84E-03,6.01E-03
116921,9.24E-03,5.44E-03
116922,9.26E-03,5.32E-03
116923,8.75E-03,2.03E-02
116924,7.40E-03,2.04E-02
116925,5.12E-03,2.05E-02
116926,4.87E-03,2.06E-02
116927,6.02E-03,2.06E-02
116928,6.05E-03,2.07E-02
116929,6.12E-03,2.07E-02
116930,6.23E-03,2.08E-02
116931,6.31E-03,2.08E-02
116932,6.60E-03,2.09E-02
116933,6.94E-03,2.09E-02
116934,8.16E-03,2.10E-02
116935,8.26E-03,2.10E-02
116936,8.65E-03,2.11E-02
116937,8.72E-03,2.11E-02
116938,8.80E-03,2.12E-02
116939,8.90E-03,2.13E-02
116940,9.03E-03,2.13E-02
116941,9.20E-03,2.14E-02
116942,9.16E-03,2.15E-02
116943,9.23E-03,2.15E-02
116944,6.68E-03,2.16E-02
116945,6.49E-03,2.16E-02
116946,6.34E-03,2.17E-02
116947,5.94E-03,2.17E-02
116948,6.18E-03,2.18E-02
116949,6.39E-03,2.18E-02
116950,6.84E-03,2.18E-02
116951,7.06E-03,2.19E-02
116952,7.43E-03,2.19E-02
116953,7.61E-03,2.19E-02
116954,7.68E-03,2.20E-02
116955,7.73E-03,2.20E-02
116956,7.78E-03,2.20E-02
116957,7.81E-03,2.21E-02
116958,7.84E-03,2.21E-02
116959,7.86E-03,2.21E-02
116960,7.88E-03,2.22E-02
116961,7.90E-03,2.22E-02
116962,7.92E-03,2.22E-02
116963,7.89E-03,2.22E-02
116964,7.89E-03,2.23E-02
116965,7.95E-03,2.23E-02
116966,8.00E-03,2.23E-02
116967,8.02E-03,2.24E-02
116968,8.03E-03,2.24E-02
116969,8.04E-03,2.25E-02
116970,8.05E-03,2.25E-02
116971,8.09E-03,2.25E-02
116972,8.13E-03,2.26E-02
116973,8.15E-03,2.26E-02
116974,8.15E-03,2.26E-02
116975,8.15E-03,2.27E-02
116976,8.16E-03,2.27E-02
116977,8.16E-03,2.28E-02
116978,8.16E-03,2.28E-02
116979,8.17E-03,2.28E-02
116980,8.18E-03,2.29E-02
116981,8.18E-03,2.29E-02
116982,8.19E-03,2.29E-02
116983,8.19E-03,2.30E-02
116984,8.20E-03,2.30E-02
116985,8.20E-03,2.31E-02
116986,8.21E-03,2.31E-02
116987,8.22E-03,2.31E-02
116988,8.22E-03,2.32E-02
116989,8.23E-03,2.32E-02
116990,8.24E-03,2.32E-02
116991,8.26E-03,2.33E-02
116992,8.27E-03,2.33E-02
116993,8.28E-03,2.33E-02
116994,8.30E-03,2.33E-02
116995,8.32E-03,2.33E-02
116996,8.34E-03,2.34E-02
116997,8.36E-03,2.34E-02
116998,8.39E-03,2.34E-02
116999,8.42E-03,2.34E-02
117000,8.45E-03,2.34E-02
117001,8.46E-03,2.34E-02
117002,8.48E-03,2.34E-02
117003,8.50E-03,2.34E-02
117004,8.51E-03,2.34E-02
117005,8.52E-03,2.34E-02
117006,8.58E-03,2.34E-02
117007,8.67E-03,2.34E-02
117008,8.77E-03,2.34E-02
117009,8.90E-03,2.34E-02
117010,9.06E-03,2.35E-02
117011,9.30E-03,2.35E-02
117012,9.66E-03,2.35E-02
117013,1.02E-02,2.35E-02
117014,1.07E-02,2.36E-02
117015,1.06E-02,2.37E-02
117016,1.03E-02,2.37E-02
117017,1.00E-02,2.38E-02
117018,9.80E-03,2.39E-02
117019,1.01E-02,2.41E-02
117020,1.05E-02,2.42E-02
117021,9.80E-03,2.43E-02
117022,8.83E-03,2.44E-02
117023,8.38E-03,2.46E-02
117024,8.19E-03,2.47E-02
117025,7.92E-03,2.48E-02
117026,7.70E-03,2.49E-02
117027,7.40E-03,2.50E-02
117028,6.07E-03,2.51E-02
117029,5.29E-03,2.51E-02
117030,6.23E-03,2.52E-02
117031,6.52E-03,2.53E-02
117032,6.35E-03,2.53E-02
117033,5.96E-03,2.53E-02
117034,5.54E-03,2.54E-02
117035,5.33E-03,2.54E-02
117036,5.94E-03,2.54E-02
117037,6.19E-03,2.54E-02
117038,6.75E-03,2.55E-02
117039,6.88E-03,2.55E-02
117040,7.41E-03,2.55E-02
117041,7.44E-03,2.55E-02
117042,7.45E-03,2.55E-02
117043,7.45E-03,2.55E-02
117044,7.45E-03,2.54E-02
117045,7.45E-03,2.54E-02
117046,7.64E-03,2.54E-02
117047,7.97E-03,2.54E-02
117048,8.12E-03,2.54E-02
117049,8.12E-03,2.54E-02
117050,8.12E-03,2.54E-02
117051,8.14E-03,2.53E-02
117052,8.18E-03,2.53E-02
117053,8.24E-03,2.53E-02
117054,8.28E-03,2.53E-02
117055,8.29E-03,2.53E-02
117056,8.30E-03,2.53E-02
117057,8.31E-03,2.53E-02
117058,8.33E-03,2.53E-02
117059,8.34E-03,2.52E-02
117060,8.36E-03,2.52E-02
117061,8.38E-03,2.52E-02
117062,8.40E-03,2.52E-02
117063,8.42E-03,2.52E-02
117064,8.45E-03,2.52E-02
117065,8.48E-03,2.52E-02
117066,8.52E-03,2.53E-02
117067,8.56E-03,2.53E-02
117068,8.61E-03,2.53E-02
117069,8.66E-03,2.53E-02
117070,8.72E-03,2.53E-02
117071,8.77E-03,2.54E-02
117072,8.83E-03,2.54E-02
117073,8.91E-03,2.55E-02
117074,9.00E-03,2.55E-02
117075,9.10E-03,2.56E-02
117076,9.24E-03,2.57E-02
117077,9.40E-03,2.58E-02
117078,9.60E-03,2.59E-02
117079,9.82E-03,2.60E-02
117080,9.87E-03,2.61E-02
117081,9.71E-03,2.63E-02
117082,9.66E-03,2.64E-02
117083,9.85E-03,2.66E-02
117084,1.05E-02,2.68E-02
117085,1.03E-02,2.69E-02
117086,6.02E-03,2.71E-02
117087,6.02E-03,2.72E-02
117088,5.32E-03,2.73E-02
117089,5.94E-03,2.74E-02
117090,6.17E-03,2.75E-02
117091,6.52E-03,2.76E-02
117092,7.64E-03,2.78E-02
117093,8.82E-03,4.34E-03
117094,6.22E-03,4.28E-03
117095,7.76E-03,1.79E-02
117096,8.55E-03,3.42E-03
117097,6.61E-03,1.98E-02
117098,5.40E-03,1.99E-02
117099,6.88E-03,1.96E-02
117100,7.29E-03,7.05E-03
117101,6.11E-03,6.85E-03
117102,7.37E-03,6.47E-03
117103,7.23E-03,6.49E-03
117104,7.58E-03,4.91E-03
117105,7.44E-03,4.76E-03
117106,6.76E-03,9.60E-03
117107,9.30E-03,1.79E-02
117108,8.53E-03,1.81E-02
117109,7.71E-03,2.69E-02
117110,1.05E-02,3.18E-02
117111,7.98E-03,3.09E-02
117112,7.68E-03,9.12E-03
117113,6.90E-03,7.42E-03
117114,7.65E-03,1.91E-02
117115,6.70E-03,1.99E-02
117116,7.58E-03,2.06E-02
117117,6.41E-03,1.87E-02
117118,9.65E-03,1.88E-02
117119,8.07E-03,7.79E-03
117120,7.61E-03,7.82E-03
117121,7.54E-03,7.85E-03
117122,7.59E-03,7.88E-03
117123,7.64E-03,7.91E-03
117124,7.74E-03,7.95E-03
117125,7.79E-03,7.98E-03
117126,7.84E-03,8.02E-03
117127,7.88E-03,8.06E-03
117128,7.91E-03,8.10E-03
117129,7.92E-03,8.13E-03
117130,7.93E-03,8.17E-03
117131,7.94E-03,8.21E-03
117132,7.94E-03,8.26E-03
117133,7.95E-03,8.30E-03
117134,7.96E-03,8.34E-03
117135,7.97E-03,8.39E-03
117136,7.97E-03,8.44E-03
117137,7.98E-03,8.48E-03
117138,7.98E-03,8.53E-03
117139,7.99E-03,8.58E-03
117140,7.99E-03,8.64E-03
117141,7.99E-03,8.69E-03
117142,8.00E-03,8.75E-03
117143,8.00E-03,8.80E-03
117144,8.01E-03,8.86E-03
117145,8.01E-03,8.93E-03
117146,8.01E-03,8.99E-03
117147,8.01E-03,9.06E-03
117148,7.99E-03,9.12E-03
117149,7.96E-03,9.19E-03
117150,7.95E-03,9.26E-03
117151,7.93E-03,9.34E-03
117152,7.91E-03,9.41E-03
117153,7.89E-03,9.49E-03
117154,7.87E-03,9.56E-03
117155,7.84E-03,9.64E-03
117156,7.81E-03,9.72E-03
117157,7.76E-03,9.80E-03
117158,7.70E-03,9.89E-03
117159,7.63E-03,9.97E-03
117160,7.53E-03,1.00E-02
117161,7.26E-03,1.01E-02
117162,7.16E-03,1.02E-02
117163,7.06E-03,1.03E-02
117164,6.59E-03,1.03E-02
117165,7.19E-03,7.56E-03
117166,7.14E-03,7.57E-03
117167,7.09E-03,7.58E-03
117168,7.19E-03,7.59E-03
117169,8.11E-03,7.61E-03
117170,7.68E-03,7.65E-03
117171,7.11E-03,7.68E-03
117172,5.90E-03,7.66E-03
117173,5.48E-03,7.65E-03
117174,5.67E-03,7.66E-03
117175,6.18E-03,7.68E-03
117176,7.08E-03,7.70E-03
117177,6.24E-03,7.73E-03
117178,8.07E-03,7.52E-03
117179,8.07E-03,7.62E-03
117180,7.29E-03,8.84E-03
117181,7.72E-03,1.80E-02
117182,7.51E-03,1.76E-02
117183,7.67E-03,1.72E-02
117184,7.68E-03,1.68E-02
117185,8.43E-03,1.64E-02
117186,8.57E-03,1.60E-02
117187,8.44E-03,1.56E-02
117188,8.51E-03,1.52E-02
117189,8.57E-03,1.48E-02
117190,8.71E-03,1.43E-02
117191,8.95E-03,1.39E-02
117192,9.08E-03,1.35E-02
117193,9.79E-03,1.30E-02
117194,8.10E-03,1.55E-02
117195,8.25E-03,7.30E-03
117196,8.32E-03,7.30E-03
117197,5.36E-03,1.11E-02
117198,5.01E-03,1.09E-02
117199,6.84E-03,1.13E-02
117200,7.33E-03,2.58E-02
117201,8.95E-03,7.49E-03
117202,8.88E-03,5.59E-03
117203,9.68E-03,5.42E-03
117204,9.66E-03,5.25E-03
117205,9.20E-03,5.05E-03
117206,8.45E-03,4.84E-03
117207,9.55E-03,3.84E-03
117208,1.12E-02,3.50E-03
117209,7.02E-03,2.75E-02
117210,7.03E-03,2.76E-02
117211,6.88E-03,2.76E-02
117212,6.93E-03,2.77E-02
117213,7.12E-03,2.77E-02
117214,7.19E-03,2.77E-02
117215,7.46E-03,2.78E-02
117216,7.61E-03,2.78E-02
117217,7.76E-03,2.79E-02
117218,7.80E-03,2.79E-02
117219,7.83E-03,2.80E-02
117220,7.86E-03,2.80E-02
117221,7.88E-03,2.80E-02
117222,7.90E-03,2.81E-02
117223,7.92E-03,2.81E-02
117224,7.93E-03,2.82E-02
117225,7.94E-03,2.82E-02
117226,7.96E-03,2.83E-02
117227,7.96E-03,2.83E-02
117228,7.97E-03,2.84E-02
117229,7.98E-03,2.85E-02
117230,7.99E-03,2.85E-02
117231,8.00E-03,2.86E-02
117232,8.01E-03,2.87E-02
117233,8.01E-03,2.88E-02
117234,8.01E-03,2.88E-02
117235,8.01E-03,2.89E-02
117236,8.02E-03,2.90E-02
117237,8.02E-03,2.91E-02
117238,8.02E-03,2.92E-02
117239,8.02E-03,2.93E-02
117240,8.02E-03,2.94E-02
117241,8.03E-03,2.95E-02
117242,8.03E-03,2.96E-02
117243,8.03E-03,2.97E-02
117244,8.03E-03,2.98E-02
117245,8.03E-03,2.99E-02
117246,8.03E-03,3.00E-02
117247,8.04E-03,3.02E-02
117248,8.04E-03,3.03E-02
117249,8.04E-03,3.04E-02
117250,8.04E-03,3.05E-02
117251,8.04E-03,3.07E-02
117252,8.04E-03,3.08E-02
117253,8.04E-03,3.09E-02
117254,8.04E-03,3.11E-02
117255,8.04E-03,3.12E-02
117256,8.04E-03,3.13E-02
117257,8.05E-03,3.15E-02
117258,8.05E-03,3.16E-02
117259,8.05E-03,3.18E-02
117260,8.05E-03,3.19E-02
117261,8.05E-03,3.21E-02
117262,8.05E-03,3.23E-02
117263,8.05E-03,3.24E-02
117264,8.05E-03,3.26E-02
117265,8.05E-03,3.28E-02
117266,8.05E-03,3.30E-02
117267,8.15E-03,3.31E-02
117268,8.08E-03,3.33E-02
117269,8.15E-03,3.35E-02
117270,8.16E-03,3.37E-02
117271,9.82E-03,3.40E-02
117272,1.13E-02,3.42E-02
117273,8.68E-03,3.42E-02
117274,8.42E-03,3.41E-02
117275,8.34E-03,3.41E-02
117276,8.17E-03,3.42E-02
117277,7.98E-03,3.42E-02
117278,7.84E-03,3.43E-02
117279,8.03E-03,3.43E-02
117280,8.47E-03,3.44E-02
117281,8.63E-03,3.46E-02
117282,8.33E-03,3.49E-02
117283,7.36E-03,3.43E-02
117284,7.52E-03,3.52E-02
117285,5.20E-03,3.47E-02
117286,9.64E-03,1.06E-02
117287,7.79E-03,2.11E-02
117288,7.32E-03,2.09E-02
117289,7.36E-03,2.07E-02
117290,8.83E-03,2.13E-02
117291,8.37E-03,4.24E-03
117292,7.98E-03,4.20E-03
117293,4.60E-03,1.90E-02
117294,7.99E-03,1.72E-02
117295,9.20E-03,1.72E-02
117296,9.42E-03,1.70E-02
117297,9.48E-03,1.69E-02
117298,9.35E-03,1.68E-02
117299,9.28E-03,1.68E-02
117300,8.96E-03,1.67E-02
117301,8.86E-03,1.66E-02
117302,8.68E-03,1.65E-02
117303,8.70E-03,1.64E-02
117304,8.73E-03,1.63E-02
117305,8.78E-03,1.62E-02
117306,8.84E-03,1.61E-02
117307,8.88E-03,1.61E-02
117308,8.90E-03,1.60E-02
117309,8.91E-03,1.59E-02
117310,8.91E-03,1.58E-02
117311,8.91E-03,1.57E-02
117312,8.93E-03,1.56E-02
117313,8.94E-03,1.55E-02
117314,8.96E-03,1.54E-02
117315,8.97E-03,1.53E-02
117316,8.98E-03,1.52E-02
117317,9.00E-03,1.51E-02
117318,9.01E-03,1.50E-02
117319,9.03E-03,1.49E-02
117320,9.04E-03,1.48E-02
117321,9.06E-03,1.47E-02
117322,9.07E-03,1.46E-02
117323,9.09E-03,1.45E-02
117324,9.10E-03,1.43E-02
117325,9.12E-03,1.42E-02
117326,9.14E-03,1.41E-02
117327,9.16E-03,1.40E-02
117328,9.18E-03,1.39E-02
117329,9.19E-03,1.38E-02
117330,9.18E-03,1.36E-02
117331,9.17E-03,1.35E-02
117332,9.07E-03,1.34E-02
117333,8.97E-03,1.33E-02
117334,8.84E-03,1.32E-02
117335,8.76E-03,1.31E-02
117336,8.72E-03,1.30E-02
117337,8.66E-03,1.29E-02
117338,8.78E-03,1.28E-02
117339,8.91E-03,1.27E-02
117340,9.14E-03,1.26E-02
117341,9.37E-03,1.25E-02
117342,1.00E-02,1.24E-02
117343,7.88E-03,1.84E-02
117344,1.03E-02,1.23E-02
117345,9.62E-03,7.32E-03
117346,1.14E-02,1.25E-02
117347,8.65E-03,7.46E-03
117348,8.63E-03,7.44E-03
117349,8.78E-03,7.43E-03
117350,8.91E-03,7.42E-03
117351,8.79E-03,7.41E-03
117352,8.68E-03,7.40E-03
117353,7.97E-03,7.39E-03
117354,6.93E-03,7.38E-03
117355,6.85E-03,7.37E-03
117356,7.10E-03,7.36E-03
117357,7.04E-03,7.35E-03
117358,6.70E-03,7.34E-03
117359,6.40E-03,7.33E-03
117360,5.72E-03,7.32E-03
117361,5.80E-03,7.31E-03
117362,6.12E-03,7.30E-03
117363,6.83E-03,7.30E-03
117364,7.45E-03,7.29E-03
117365,7.92E-03,7.28E-03
117366,7.98E-03,7.27E-03
117367,8.06E-03,7.26E-03
117368,7.81E-03,7.25E-03
117369,7.47E-03,7.23E-03
117370,7.29E-03,7.22E-03
117371,7.14E-03,7.21E-03
117372,6.93E-03,7.20E-03
117373,6.65E-03,7.19E-03
117374,7.39E-03,7.18E-03
117375,8.94E-03,7.17E-03
117376,1.01E-02,7.16E-03
117377,1.05E-02,7.15E-03
117378,1.01E-02,7.13E-03
117379,9.63E-03,7.12E-03
117380,9.22E-03,7.10E-03
117381,8.39E-03,7.08E-03
117382,7.73E-03,7.07E-03
117383,7.26E-03,7.05E-03
117384,6.37E-03,7.04E-03
117385,5.98E-03,7.03E-03
117386,5.80E-03,7.02E-03
117387,6.22E-03,7.01E-03
117388,8.03E-03,7.01E-03
117389,9.59E-03,7.00E-03
117390,1.04E-02,6.99E-03
117391,1.03E-02,6.98E-03
117392,9.52E-03,6.96E-03
117393,9.52E-03,6.94E-03
117394,6.80E-03,6.93E-03
117395,6.66E-03,6.91E-03
117396,6.66E-03,6.89E-03
117397,6.61E-03,6.88E-03
117398,6.78E-03,6.86E-03
117399,8.15E-03,6.84E-03
117400,8.68E-03,6.12E-03
117401,8.63E-03,6.21E-03
117402,8.28E-03,6.31E-03
117403,8.28E-03,6.41E-03
117404,8.29E-03,6.50E-03
117405,8.27E-03,6.60E-03
117406,9.20E-03,4.96E-03
117407,9.33E-03,5.15E-03
117408,8.24E-03,6.46E-03
117409,7.87E-03,6.47E-03
117410,6.95E-03,3.47E-02
117411,8.15E-03,3.44E-02
117412,8.02E-03,3.42E-02
117413,8.06E-03,3.40E-02
117414,8.16E-03,3.38E-02
117415,8.05E-03,3.36E-02
117416,8.05E-03,3.34E-02
117417,8.05E-03,3.32E-02
117418,8.05E-03,3.30E-02
117419,8.05E-03,3.29E-02
117420,8.05E-03,3.27E-02
117421,8.05E-03,3.25E-02
117422,8.05E-03,3.24E-02
117423,8.05E-03,3.22E-02
117424,8.05E-03,3.20E-02
117425,8.05E-03,3.19E-02
117426,8.05E-03,3.17E-02
117427,8.04E-03,3.16E-02
117428,8.04E-03,3.14E-02
117429,8.04E-03,3.13E-02
117430,8.04E-03,3.12E-02
117431,8.04E-03,3.10E-02
117432,8.04E-03,3.09E-02
117433,8.04E-03,3.08E-02
117434,8.04E-03,3.06E-02
117435,8.04E-03,3.05E-02
117436,8.04E-03,3.04E-02
117437,8.03E-03,3.03E-02
117438,8.03E-03,3.01E-02
117439,8.03E-03,3.00E-02
117440,8.03E-03,2.99E-02
117441,8.03E-03,2.98E-02
117442,8.03E-03,2.97E-02
117443,8.02E-03,2.96E-02
117444,8.02E-03,2.95E-02
117445,8.02E-03,2.94E-02
117446,8.02E-03,2.93E-02
117447,8.02E-03,2.92E-02
117448,8.01E-03,2.91E-02
117449,8.01E-03,2.90E-02
117450,8.00E-03,2.90E-02
117451,7.99E-03,2.89E-02
117452,7.99E-03,2.88E-02
117453,7.98E-03,2.87E-02
117454,7.97E-03,2.87E-02
117455,7.96E-03,2.86E-02
117456,7.95E-03,2.86E-02
117457,7.94E-03,2.85E-02
117458,7.93E-03,2.85E-02
117459,7.91E-03,2.84E-02
117460,7.89E-03,2.84E-02
117461,7.87E-03,2.83E-02
117462,7.84E-03,2.83E-02
117463,7.81E-03,2.82E-02
117464,7.77E-03,2.82E-02
117465,7.63E-03,2.81E-02
117466,7.47E-03,2.81E-02
117467,7.30E-03,2.81E-02
117468,7.09E-03,2.80E-02
117469,6.94E-03,2.80E-02
117470,6.98E-03,2.79E-02
117471,7.00E-03,2.79E-02
117472,8.02E-03,2.78E-02
117473,8.20E-03,3.33E-02
117474,1.04E-02,3.25E-02
117475,5.24E-03,4.08E-03
117476,5.39E-03,3.94E-03
117477,5.33E-03,3.98E-03
117478,7.59E-03,1.75E-02
117479,7.53E-03,1.67E-02
117480,7.53E-03,1.71E-02
117481,8.27E-03,3.44E-03
117482,8.36E-03,3.43E-03
117483,1.16E-02,3.58E-03
117484,9.30E-03,1.78E-02
117485,9.67E-03,1.76E-02
117486,9.43E-03,1.77E-02
117487,6.04E-03,1.98E-02
117488,5.90E-03,1.97E-02
117489,7.42E-03,2.32E-02
117490,8.41E-03,2.26E-02
117491,1.13E-02,2.14E-02
117492,8.41E-03,2.21E-02
117493,8.18E-03,2.03E-02
117494,8.04E-03,2.08E-02
117495,8.16E-03,1.93E-02
117496,8.22E-03,1.98E-02
117497,8.13E-03,1.88E-02
117498,8.15E-03,7.33E-03
117499,8.10E-03,7.42E-03
117500,7.90E-03,7.18E-03
117501,8.21E-03,7.24E-03
117502,6.59E-03,6.60E-03
117503,5.00E-03,6.61E-03
117504,6.28E-03,6.74E-03
117505,6.26E-03,6.64E-03
117506,1.01E-02,6.72E-03
117507,7.82E-03,6.73E-03
117508,8.12E-03,6.71E-03
117509,1.04E-02,6.68E-03
117510,1.14E-02,6.72E-03
117511,6.42E-03,6.62E-03
117512,1.03E-02,6.65E-03
117513,6.23E-03,6.58E-03
117514,6.33E-03,6.60E-03
117515,5.62E-03,6.55E-03
117516,5.86E-03,6.57E-03
117517,5.82E-03,6.56E-03
117518,5.15E-03,6.55E-03
117519,7.14E-03,6.52E-03
117520,6.29E-03,6.54E-03
117521,7.43E-03,6.52E-03
117522,7.70E-03,6.51E-03
117523,8.01E-03,6.51E-03
117524,7.39E-03,6.52E-03
117525,9.69E-03,4.32E-03
117526,1.07E-02,4.29E-03
117527,6.67E-03,4.37E-03
117528,6.67E-03,4.35E-03
117529,6.07E-03,4.39E-03
117530,6.39E-03,4.38E-03
117531,5.49E-03,4.49E-03
117532,5.62E-03,4.43E-03
117533,5.96E-03,4.63E-03
117534,5.74E-03,4.54E-03
117535,6.66E-03,9.56E-03
117536,7.03E-03,9.74E-03
117537,7.08E-03,9.67E-03
117538,6.87E-03,9.58E-03
117539,8.49E-03,1.82E-02
117540,8.18E-03,1.83E-02
117541,7.41E-03,1.87E-02
117542,6.77E-03,1.86E-02
117543,7.09E-03,1.85E-02
117544,7.35E-03,1.84E-02
117545,7.74E-03,2.74E-02
117546,7.28E-03,2.84E-02
117547,7.56E-03,2.79E-02
117548,7.85E-03,3.02E-02
117549,6.64E-03,2.95E-02
117550,7.02E-03,2.89E-02
117551,5.72E-03,8.68E-03
117552,9.42E-03,9.15E-03
117553,8.20E-03,9.14E-03
117554,8.00E-03,9.23E-03
117555,8.13E-03,9.26E-03
117556,8.35E-03,9.24E-03
117557,8.82E-03,9.21E-03
117558,9.49E-03,9.19E-03
117559,9.55E-03,9.17E-03
117560,9.34E-03,6.41E-03
117561,8.44E-03,6.44E-03
117562,9.44E-03,6.35E-03
117563,9.59E-03,6.39E-03
117564,9.04E-03,6.29E-03
117565,9.33E-03,6.32E-03
117566,8.69E-03,6.23E-03
117567,8.78E-03,6.26E-03
117568,8.16E-03,6.16E-03
117569,8.52E-03,6.20E-03
117570,7.72E-03,6.10E-03
117571,7.82E-03,6.13E-03
117572,7.64E-03,6.03E-03
117573,7.70E-03,6.07E-03
117574,7.49E-03,5.97E-03
117575,7.58E-03,6.00E-03
117576,7.24E-03,5.91E-03
117577,7.39E-03,5.94E-03
117578,6.75E-03,5.85E-03
117579,7.04E-03,5.88E-03
117580,5.56E-03,5.81E-03
117581,6.25E-03,5.83E-03
117582,6.53E-03,5.77E-03
117583,5.74E-03,5.79E-03
117584,6.62E-03,5.74E-03
117585,6.56E-03,5.75E-03
117586,7.26E-03,5.71E-03
117587,6.96E-03,5.72E-03
117588,9.13E-03,5.68E-03
117589,8.11E-03,5.70E-03
117590,9.94E-03,5.65E-03
117591,9.49E-03,5.66E-03
117592,9.90E-03,5.60E-03
117593,9.88E-03,5.63E-03
117594,9.18E-03,5.55E-03
117595,9.71E-03,5.58E-03
117596,8.00E-03,5.49E-03
117597,9.20E-03,5.52E-03
117598,7.22E-03,5.44E-03
117599,7.42E-03,5.46E-03
117600,6.96E-03,5.39E-03
117601,7.11E-03,5.42E-03
117602,6.52E-03,5.36E-03
117603,6.77E-03,5.38E-03
117604,6.41E-03,5.33E-03
117605,6.20E-03,5.34E-03
117606,6.90E-03,5.31E-03
117607,6.84E-03,5.32E-03
117608,6.93E-03,5.30E-03
117609,6.99E-03,5.30E-03
117610,7.78E-03,5.29E-03
117611,6.90E-03,5.29E-03
117612,9.43E-03,5.28E-03
117613,9.09E-03,5.29E-03
117614,9.11E-03,5.27E-03
117615,9.25E-03,5.28E-03
117616,8.68E-03,5.25E-03
117617,8.95E-03,5.26E-03
117618,8.10E-03,5.22E-03
117619,8.35E-03,5.23E-03
117620,8.10E-03,5.20E-03
117621,8.05E-03,5.21E-03
117622,8.21E-03,5.18E-03
117623,8.10E-03,5.19E-03
117624,9.66E-03,5.16E-03
117625,9.02E-03,5.17E-03
117626,9.11E-03,5.12E-03
117627,9.42E-03,5.14E-03
117628,8.92E-03,5.08E-03
117629,8.91E-03,5.10E-03
117630,9.42E-03,5.03E-03
117631,9.10E-03,5.06E-03
117632,9.96E-03,4.97E-03
117633,9.86E-03,5.01E-03
117634,9.26E-03,4.90E-03
117635,9.61E-03,4.94E-03
117636,8.87E-03,4.82E-03
117637,9.03E-03,4.86E-03
117638,8.79E-03,4.73E-03
117639,8.80E-03,4.78E-03
117640,8.51E-03,4.64E-03
117641,8.68E-03,4.69E-03
117642,8.34E-03,4.55E-03
117643,8.41E-03,4.60E-03
117644,8.26E-03,4.46E-03
117645,8.29E-03,4.50E-03
117646,8.22E-03,4.36E-03
117647,8.24E-03,4.41E-03
117648,7.97E-03,4.27E-03
117649,8.14E-03,4.31E-03
117650,7.84E-03,4.17E-03
117651,7.86E-03,4.22E-03
117652,7.80E-03,4.08E-03
117653,7.83E-03,4.13E-03
117654,7.76E-03,3.99E-03
117655,7.78E-03,4.04E-03
117656,7.69E-03,3.91E-03
117657,7.72E-03,3.95E-03
117658,7.60E-03,3.83E-03
117659,7.65E-03,3.87E-03
117660,7.47E-03,3.75E-03
117661,7.54E-03,3.79E-03
117662,7.26E-03,3.67E-03
117663,7.38E-03,3.71E-03
117664,7.36E-03,3.61E-03
117665,7.23E-03,3.64E-03
117666,7.48E-03,3.54E-03
117667,7.47E-03,3.57E-03
117668,7.33E-03,3.49E-03
117669,7.41E-03,3.51E-03
117670,6.98E-03,3.43E-03
117671,7.20E-03,3.46E-03
117672,7.10E-03,3.39E-03
117673,6.94E-03,3.41E-03
117674,7.44E-03,3.35E-03
117675,7.24E-03,3.37E-03
117676,7.38E-03,3.33E-03
117677,7.41E-03,3.34E-03
117678,7.05E-03,3.32E-03
117679,7.28E-03,3.32E-03
117680,6.54E-03,3.30E-03
117681,6.85E-03,3.31E-03
117682,6.96E-03,7.48E-03
117683,7.21E-03,7.48E-03
117684,6.88E-03,7.47E-03
117685,6.81E-03,7.46E-03
117686,6.83E-03,7.45E-03
117687,7.63E-03,1.92E-02
117688,6.81E-03,1.95E-02
117689,7.01E-03,1.93E-02
117690,7.01E-03,2.01E-02
117691,7.14E-03,2.04E-02
117692,7.10E-03,2.02E-02
117693,6.06E-03,7.50E-03
117694,6.08E-03,7.52E-03
117695,6.41E-03,7.54E-03
117696,6.60E-03,7.52E-03
117697,5.53E-03,7.55E-03
117698,5.86E-03,7.55E-03
117699,6.99E-03,7.32E-03
117700,7.54E-03,7.36E-03
117701,7.39E-03,7.37E-03
117702,7.41E-03,7.37E-03
117703,5.45E-03,3.87E-03
117704,5.46E-03,3.90E-03
117705,7.10E-03,3.81E-03
117706,5.48E-03,3.84E-03
117707,8.17E-03,3.78E-03
117708,7.50E-03,3.78E-03
117709,7.81E-03,1.88E-02
117710,6.73E-03,1.88E-02
117711,6.92E-03,1.84E-02
117712,7.10E-03,1.85E-02
117713,7.62E-03,1.86E-02
117714,8.02E-03,1.87E-02
117715,8.14E-03,1.87E-02
117716,6.98E-03,1.82E-02
117717,6.74E-03,1.83E-02
117718,7.32E-03,1.79E-02
117719,7.13E-03,1.80E-02
117720,7.83E-03,1.76E-02
117721,7.53E-03,1.77E-02
117722,8.25E-03,1.73E-02
117723,8.18E-03,1.74E-02
117724,8.53E-03,1.68E-02
117725,8.40E-03,1.69E-02
117726,8.38E-03,1.71E-02
117727,8.91E-03,1.64E-02
117728,8.57E-03,1.66E-02
117729,9.67E-03,1.61E-02
117730,9.25E-03,1.63E-02
117731,1.01E-02,1.58E-02
117732,9.89E-03,1.60E-02
117733,1.05E-02,1.55E-02
117734,1.04E-02,1.57E-02
117735,1.06E-02,1.52E-02
117736,1.07E-02,1.54E-02
117737,8.03E-03,1.50E-02
117738,1.04E-02,1.51E-02
117739,7.45E-03,1.48E-02
117740,7.79E-03,1.49E-02
117741,6.14E-03,1.46E-02
117742,6.57E-03,1.47E-02
117743,6.15E-03,1.44E-02
117744,6.02E-03,1.45E-02
117745,6.93E-03,1.42E-02
117746,6.60E-03,1.43E-02
117747,7.45E-03,1.40E-02
117748,7.41E-03,1.41E-02
117749,7.80E-03,1.38E-02
117750,7.76E-03,1.39E-02
117751,7.92E-03,1.35E-02
117752,7.89E-03,1.37E-02
117753,7.94E-03,1.33E-02
117754,7.94E-03,1.34E-02
117755,7.95E-03,1.31E-02
117756,7.94E-03,1.32E-02
117757,8.57E-03,1.28E-02
117758,8.27E-03,1.29E-02
117759,8.37E-03,1.26E-02
117760,8.50E-03,1.27E-02
117761,8.36E-03,1.23E-02
117762,8.32E-03,1.25E-02
117763,8.50E-03,1.21E-02
117764,8.44E-03,1.22E-02
117765,8.75E-03,1.19E-02
117766,8.56E-03,1.20E-02
117767,8.95E-03,1.17E-02
117768,8.78E-03,1.18E-02
117769,9.35E-03,1.15E-02
117770,9.15E-03,1.16E-02
117771,9.73E-03,1.13E-02
117772,9.47E-03,1.14E-02
117773,9.78E-03,1.11E-02
117774,9.82E-03,1.12E-02
117775,8.29E-03,1.09E-02
117776,9.46E-03,1.10E-02
117777,8.94E-03,1.05E-02
117778,9.87E-03,1.07E-02
117779,7.82E-03,1.04E-02
117780,7.95E-03,1.04E-02
117781,7.31E-03,1.02E-02
117782,7.59E-03,1.02E-02
117783,7.29E-03,1.00E-02
117784,7.31E-03,1.01E-02
117785,7.65E-03,9.85E-03
117786,7.56E-03,9.94E-03
117787,7.78E-03,9.69E-03
117788,7.72E-03,9.77E-03
117789,7.86E-03,9.52E-03
117790,7.82E-03,9.61E-03
117791,7.91E-03,9.36E-03
117792,7.88E-03,9.44E-03
117793,7.94E-03,9.21E-03
117794,7.92E-03,9.29E-03
117795,7.97E-03,9.07E-03
117796,7.95E-03,9.14E-03
117797,8.02E-03,8.93E-03
117798,8.00E-03,9.00E-03
117799,8.01E-03,8.80E-03
117800,8.02E-03,8.86E-03
117801,8.01E-03,8.68E-03
117802,8.01E-03,8.74E-03
117803,8.00E-03,8.56E-03
117804,8.00E-03,8.62E-03
117805,7.99E-03,8.45E-03
117806,8.00E-03,8.51E-03
117807,7.98E-03,8.35E-03
117808,7.99E-03,8.40E-03
117809,7.97E-03,8.26E-03
117810,7.98E-03,8.30E-03
117811,7.96E-03,8.17E-03
117812,7.97E-03,8.21E-03
117813,7.95E-03,8.08E-03
117814,7.95E-03,8.12E-03
117815,7.93E-03,8.00E-03
117816,7.94E-03,8.04E-03
117817,7.89E-03,7.93E-03
117818,7.92E-03,7.96E-03
117819,7.81E-03,7.85E-03
117820,7.85E-03,7.89E-03
117821,7.67E-03,7.78E-03
117822,7.76E-03,7.82E-03
117823,7.44E-03,7.72E-03
117824,7.54E-03,7.75E-03
117825,7.03E-03,7.65E-03
117826,7.42E-03,7.69E-03
117827,7.07E-03,7.71E-03
117828,7.56E-03,7.72E-03
117829,7.65E-03,7.69E-03
117830,6.34E-03,7.64E-03
117831,4.68E-03,7.64E-03
117832,5.12E-03,7.64E-03
117833,8.04E-03,7.71E-03
117834,8.00E-03,7.80E-03
117835,7.87E-03,7.87E-03
117836,9.41E-03,8.01E-03
117837,9.52E-03,7.94E-03
117838,8.96E-03,8.14E-03
117839,9.31E-03,8.08E-03
117840,8.49E-03,8.24E-03
117841,8.83E-03,8.19E-03
117842,8.14E-03,8.34E-03
117843,8.11E-03,8.29E-03
117844,8.01E-03,8.43E-03
117845,8.11E-03,8.38E-03
117846,7.68E-03,8.52E-03
117847,7.77E-03,8.48E-03
117848,7.45E-03,8.61E-03
117849,7.60E-03,8.57E-03
117850,7.24E-03,8.69E-03
117851,7.33E-03,8.65E-03
117852,7.42E-03,8.75E-03
117853,7.70E-03,9.88E-03
117854,7.29E-03,1.02E-02
117855,7.32E-03,1.01E-02
117856,9.75E-03,1.04E-02
117857,7.70E-03,1.03E-02
117858,5.64E-03,2.08E-02
117859,6.09E-03,2.09E-02
117860,5.96E-03,2.09E-02
117861,6.45E-03,2.10E-02
117862,6.10E-03,2.10E-02
117863,7.16E-03,2.11E-02
117864,6.63E-03,2.11E-02
117865,8.36E-03,2.12E-02
117866,8.10E-03,2.12E-02
117867,8.68E-03,2.13E-02
117868,8.56E-03,2.13E-02
117869,8.86E-03,2.15E-02
117870,8.76E-03,2.14E-02
117871,9.25E-03,2.16E-02
117872,8.98E-03,2.15E-02
117873,9.15E-03,2.17E-02
117874,9.19E-03,2.16E-02
117875,6.47E-03,2.18E-02
117876,6.68E-03,2.18E-02
117877,5.89E-03,2.19E-02
117878,6.21E-03,2.19E-02
117879,6.52E-03,2.20E-02
117880,6.24E-03,2.19E-02
117881,7.17E-03,2.20E-02
117882,6.80E-03,2.20E-02
117883,7.63E-03,2.21E-02
117884,7.49E-03,2.21E-02
117885,7.75E-03,2.22E-02
117886,7.70E-03,2.22E-02
117887,7.82E-03,2.23E-02
117888,7.79E-03,2.22E-02
117889,7.87E-03,2.23E-02
117890,7.85E-03,2.23E-02
117891,7.91E-03,2.24E-02
117892,7.89E-03,2.24E-02
117893,7.90E-03,2.25E-02
117894,7.92E-03,2.24E-02
117895,7.96E-03,2.25E-02
117896,7.90E-03,2.25E-02
117897,8.02E-03,2.26E-02
117898,8.00E-03,2.26E-02
117899,8.04E-03,2.27E-02
117900,8.04E-03,2.26E-02
117901,8.09E-03,2.27E-02
117902,8.05E-03,2.27E-02
117903,8.15E-03,2.28E-02
117904,8.13E-03,2.28E-02
117905,8.15E-03,2.29E-02
117906,8.15E-03,2.29E-02
117907,8.16E-03,2.30E-02
117908,8.15E-03,2.30E-02
117909,8.17E-03,2.31E-02
117910,8.16E-03,2.31E-02
117911,8.18E-03,2.32E-02
117912,8.17E-03,2.31E-02
117913,8.18E-03,2.33E-02
117914,8.18E-03,2.32E-02
117915,8.20E-03,2.34E-02
117916,8.19E-03,2.33E-02
117917,8.21E-03,2.34E-02
117918,8.20E-03,2.34E-02
117919,8.23E-03,2.35E-02
117920,8.22E-03,2.35E-02
117921,8.25E-03,2.36E-02
117922,8.24E-03,2.35E-02
117923,8.27E-03,2.36E-02
117924,8.26E-03,2.36E-02
117925,8.30E-03,2.37E-02
117926,8.29E-03,2.37E-02
117927,8.35E-03,2.37E-02
117928,8.32E-03,2.37E-02
117929,8.41E-03,2.37E-02
117930,8.38E-03,2.37E-02
117931,8.44E-03,2.38E-02
117932,8.43E-03,2.38E-02
117933,8.48E-03,2.38E-02
117934,8.46E-03,2.38E-02
117935,8.49E-03,2.38E-02
117936,8.48E-03,2.38E-02
117937,8.64E-03,2.38E-02
117938,8.55E-03,2.38E-02
117939,8.85E-03,2.38E-02
117940,8.73E-03,2.38E-02
117941,9.24E-03,2.38E-02
117942,9.01E-03,2.38E-02
117943,1.01E-02,2.39E-02
117944,9.58E-03,2.38E-02
117945,1.05E-02,2.40E-02
117946,1.06E-02,2.39E-02
117947,9.92E-03,2.42E-02
117948,1.02E-02,2.41E-02
117949,9.96E-03,2.44E-02
117950,9.72E-03,2.43E-02
117951,9.71E-03,2.46E-02
117952,1.04E-02,2.45E-02
117953,8.48E-03,2.49E-02
117954,8.79E-03,2.47E-02
117955,7.96E-03,2.51E-02
117956,8.22E-03,2.50E-02
117957,7.44E-03,2.53E-02
117958,7.79E-03,2.52E-02
117959,5.43E-03,2.54E-02
117960,5.97E-03,2.54E-02
117961,6.74E-03,2.56E-02
117962,6.32E-03,2.55E-02
117963,6.05E-03,2.57E-02
117964,6.62E-03,2.56E-02
117965,5.59E-03,2.57E-02
117966,5.32E-03,2.57E-02
117967,6.32E-03,2.57E-02
117968,5.88E-03,2.57E-02
117969,7.08E-03,2.58E-02
117970,6.69E-03,2.58E-02
117971,7.48E-03,2.58E-02
117972,7.44E-03,2.58E-02
117973,7.48E-03,2.57E-02
117974,7.48E-03,2.58E-02
117975,7.48E-03,2.57E-02
117976,7.48E-03,2.57E-02
117977,7.98E-03,2.57E-02
117978,7.66E-03,2.57E-02
117979,8.12E-03,2.57E-02
117980,8.12E-03,2.57E-02
117981,8.13E-03,2.56E-02
117982,8.12E-03,2.56E-02
117983,8.23E-03,2.56E-02
117984,8.18E-03,2.56E-02
117985,8.28E-03,2.56E-02
117986,8.27E-03,2.56E-02
117987,8.30E-03,2.56E-02
117988,8.29E-03,2.56E-02
117989,8.33E-03,2.56E-02
117990,8.31E-03,2.56E-02
117991,8.36E-03,2.56E-02
117992,8.35E-03,2.56E-02
117993,8.41E-03,2.56E-02
117994,8.38E-03,2.56E-02
117995,8.46E-03,2.56E-02
117996,8.43E-03,2.56E-02
117997,8.54E-03,2.56E-02
117998,8.50E-03,2.56E-02
117999,8.63E-03,2.56E-02
118000,8.58E-03,2.56E-02
118001,8.74E-03,2.57E-02
118002,8.69E-03,2.57E-02
118003,8.86E-03,2.58E-02
118004,8.79E-03,2.57E-02
118005,9.05E-03,2.59E-02
118006,8.95E-03,2.58E-02
118007,9.33E-03,2.61E-02
118008,9.18E-03,2.60E-02
118009,9.73E-03,2.63E-02
118010,9.52E-03,2.62E-02
118011,9.62E-03,2.66E-02
118012,9.78E-03,2.64E-02
118013,9.76E-03,2.69E-02
118014,9.58E-03,2.67E-02
118015,1.02E-02,2.72E-02
118016,1.03E-02,2.71E-02
118017,6.14E-03,2.75E-02
118018,6.14E-03,2.74E-02
118019,6.01E-03,2.77E-02
118020,5.47E-03,2.76E-02
118021,6.04E-03,2.79E-02
118022,6.05E-03,2.78E-02
118023,8.55E-03,1.59E-02
118024,7.60E-03,1.63E-02
118025,8.34E-03,1.51E-02
118026,8.58E-03,1.55E-02
118027,8.50E-03,1.43E-02
118028,8.39E-03,1.47E-02
118029,8.73E-03,1.35E-02
118030,8.66E-03,1.39E-02
118031,8.71E-03,1.30E-02
118032,7.90E-03,3.47E-03
118033,8.21E-03,3.45E-03
118034,7.48E-03,3.55E-03
118035,7.70E-03,3.49E-03
118036,8.31E-03,3.65E-03
118037,5.61E-03,2.08E-02
118038,6.45E-03,2.06E-02
118039,7.19E-03,2.06E-02
118040,8.51E-03,2.05E-02
118041,9.95E-03,2.04E-02
118042,9.13E-03,2.03E-02
118043,9.17E-03,2.04E-02
118044,8.92E-03,2.03E-02
118045,9.16E-03,2.03E-02
118046,8.67E-03,2.02E-02
118047,8.90E-03,2.02E-02
118048,8.41E-03,2.01E-02
118049,8.58E-03,2.02E-02
118050,8.33E-03,2.01E-02
118051,8.36E-03,2.01E-02
118052,8.27E-03,2.01E-02
118053,8.30E-03,2.01E-02
118054,8.24E-03,2.00E-02
118055,8.25E-03,2.00E-02
118056,8.21E-03,2.00E-02
118057,8.22E-03,2.00E-02
118058,8.19E-03,1.99E-02
118059,8.20E-03,1.99E-02
118060,8.18E-03,1.99E-02
118061,8.18E-03,1.99E-02
118062,8.16E-03,1.98E-02
118063,8.17E-03,1.98E-02
118064,8.15E-03,1.97E-02
118065,8.16E-03,1.97E-02
118066,8.15E-03,1.96E-02
118067,8.15E-03,1.97E-02
118068,8.09E-03,1.95E-02
118069,8.13E-03,1.96E-02
118070,8.06E-03,1.95E-02
118071,8.06E-03,1.95E-02
118072,8.05E-03,1.94E-02
118073,8.05E-03,1.94E-02
118074,8.04E-03,1.93E-02
118075,8.05E-03,1.93E-02
118076,8.02E-03,1.92E-02
118077,8.03E-03,1.92E-02
118078,8.00E-03,1.91E-02
118079,8.01E-03,1.91E-02
118080,8.01E-03,1.90E-02
118081,8.01E-03,1.90E-02
118082,8.00E-03,1.89E-02
118083,8.01E-03,1.90E-02
118084,8.00E-03,1.88E-02
118085,8.00E-03,1.89E-02
118086,7.98E-03,1.87E-02
118087,7.99E-03,1.88E-02
118088,7.97E-03,1.86E-02
118089,7.98E-03,1.87E-02
118090,7.95E-03,1.85E-02
118091,7.96E-03,1.86E-02
118092,7.93E-03,1.84E-02
118093,7.94E-03,1.85E-02
118094,7.90E-03,1.83E-02
118095,7.91E-03,1.84E-02
118096,7.85E-03,1.82E-02
118097,7.88E-03,1.83E-02
118098,7.79E-03,1.81E-02
118099,7.82E-03,1.82E-02
118100,7.68E-03,1.80E-02
118101,7.74E-03,1.81E-02
118102,7.50E-03,1.79E-02
118103,7.61E-03,1.80E-02
118104,7.12E-03,1.78E-02
118105,7.35E-03,1.79E-02
118106,9.15E-03,1.77E-02
118107,7.92E-03,1.78E-02
118108,8.92E-03,1.76E-02
118109,9.25E-03,1.76E-02
118110,8.58E-03,1.75E-02
118111,8.71E-03,1.75E-02
118112,8.42E-03,1.73E-02
118113,8.49E-03,1.74E-02
118114,8.33E-03,1.72E-02
118115,8.37E-03,1.73E-02
118116,8.28E-03,1.72E-02
118117,8.30E-03,1.72E-02
118118,8.23E-03,1.71E-02
118119,8.26E-03,1.71E-02
118120,8.20E-03,1.70E-02
118121,8.21E-03,1.70E-02
118122,8.18E-03,1.69E-02
118123,8.19E-03,1.69E-02
118124,8.17E-03,1.68E-02
118125,8.17E-03,1.68E-02
118126,8.16E-03,1.67E-02
118127,8.16E-03,1.68E-02
118128,8.15E-03,1.66E-02
118129,8.15E-03,1.67E-02
118130,8.14E-03,1.65E-02
118131,8.14E-03,1.66E-02
118132,8.13E-03,1.64E-02
118133,8.14E-03,1.65E-02
118134,8.13E-03,1.63E-02
118135,8.13E-03,1.64E-02
118136,8.12E-03,1.62E-02
118137,8.13E-03,1.63E-02
118138,8.12E-03,1.61E-02
118139,8.12E-03,1.62E-02
118140,8.12E-03,1.61E-02
118141,8.12E-03,1.61E-02
118142,8.11E-03,1.60E-02
118143,8.12E-03,1.60E-02
118144,8.10E-03,1.59E-02
118145,8.11E-03,1.59E-02
118146,8.10E-03,1.58E-02
118147,8.10E-03,1.58E-02
118148,8.11E-03,1.56E-02
118149,8.10E-03,1.57E-02
118150,8.11E-03,1.56E-02
118151,8.11E-03,1.54E-02
118152,8.11E-03,1.54E-02
118153,8.11E-03,1.53E-02
118154,8.11E-03,1.53E-02
118155,8.11E-03,1.52E-02
118156,8.11E-03,1.52E-02
118157,8.11E-03,1.51E-02
118158,8.11E-03,1.51E-02
118159,8.11E-03,1.50E-02
118160,8.11E-03,1.50E-02
118161,8.11E-03,1.49E-02
118162,8.11E-03,1.49E-02
118163,8.11E-03,1.47E-02
118164,8.11E-03,1.48E-02
118165,8.11E-03,1.46E-02
118166,8.11E-03,1.47E-02
118167,8.11E-03,1.45E-02
118168,8.11E-03,1.46E-02
118169,8.12E-03,1.44E-02
118170,8.11E-03,1.45E-02
118171,8.12E-03,1.43E-02
118172,8.12E-03,1.43E-02
118173,8.12E-03,1.42E-02
118174,8.12E-03,1.42E-02
118175,8.12E-03,1.41E-02
118176,8.12E-03,1.41E-02
118177,8.13E-03,1.39E-02
118178,8.12E-03,1.40E-02
118179,8.13E-03,1.38E-02
118180,8.13E-03,1.39E-02
118181,8.14E-03,1.37E-02
118182,8.13E-03,1.37E-02
118183,8.14E-03,1.36E-02
118184,8.14E-03,1.36E-02
118185,8.15E-03,1.34E-02
118186,8.14E-03,1.35E-02
118187,8.15E-03,1.33E-02
118188,8.15E-03,1.34E-02
118189,8.16E-03,1.32E-02
118190,8.16E-03,1.32E-02
118191,8.17E-03,1.30E-02
118192,8.17E-03,1.31E-02
118193,8.18E-03,1.29E-02
118194,8.18E-03,1.30E-02
118195,8.20E-03,1.27E-02
118196,8.19E-03,1.28E-02
118197,8.22E-03,1.26E-02
118198,8.21E-03,1.27E-02
118199,8.24E-03,1.24E-02
118200,8.23E-03,1.25E-02
118201,8.27E-03,1.23E-02
118202,8.25E-03,1.24E-02
118203,8.31E-03,1.21E-02
118204,8.29E-03,1.22E-02
118205,8.38E-03,1.20E-02
118206,8.34E-03,1.21E-02
118207,8.47E-03,1.18E-02
118208,8.42E-03,1.19E-02
118209,8.64E-03,1.17E-02
118210,8.55E-03,1.17E-02
118211,8.97E-03,1.15E-02
118212,8.77E-03,1.16E-02
118213,9.83E-03,1.13E-02
118214,9.29E-03,1.14E-02
118215,9.06E-03,1.11E-02
118216,9.94E-03,1.12E-02
118217,8.45E-03,1.10E-02
118218,8.43E-03,1.11E-02
118219,8.53E-03,1.08E-02
118220,8.49E-03,1.09E-02
118221,8.65E-03,1.07E-02
118222,8.59E-03,1.07E-02
118223,8.83E-03,1.05E-02
118224,8.73E-03,1.06E-02
118225,9.15E-03,1.03E-02
118226,8.97E-03,1.04E-02
118227,9.17E-03,1.01E-02
118228,9.38E-03,1.02E-02
118229,6.91E-03,9.92E-03
118230,8.42E-03,1.00E-02
118231,6.58E-03,9.78E-03
118232,6.13E-03,9.85E-03
118233,7.14E-03,9.62E-03
118234,7.04E-03,9.70E-03
118235,7.48E-03,9.45E-03
118236,7.37E-03,9.54E-03
118237,7.62E-03,9.28E-03
118238,7.56E-03,9.37E-03
118239,7.72E-03,9.12E-03
118240,7.67E-03,9.20E-03
118241,7.83E-03,8.95E-03
118242,7.77E-03,9.03E-03
118243,7.86E-03,8.80E-03
118244,7.86E-03,8.87E-03
118245,8.15E-03,8.65E-03
118246,7.86E-03,8.72E-03
118247,8.55E-03,8.50E-03
118248,8.53E-03,8.58E-03
118249,8.35E-03,8.37E-03
118250,8.42E-03,8.44E-03
118251,8.47E-03,8.26E-03
118252,8.38E-03,8.31E-03
118253,8.59E-03,8.16E-03
118254,8.53E-03,8.21E-03
118255,8.75E-03,8.09E-03
118256,8.66E-03,8.12E-03
118257,9.09E-03,8.03E-03
118258,8.87E-03,8.06E-03
118259,9.28E-03,8.00E-03
118260,9.31E-03,8.01E-03
118261,8.16E-03,8.01E-03
118262,8.80E-03,8.00E-03
118263,7.87E-03,8.04E-03
118264,7.88E-03,8.02E-03
118265,7.89E-03,8.12E-03
118266,7.88E-03,8.07E-03
118267,7.90E-03,8.24E-03
118268,7.89E-03,8.17E-03
118269,7.91E-03,8.41E-03
118270,7.90E-03,8.32E-03
118271,7.93E-03,8.63E-03
118272,7.92E-03,8.51E-03
118273,7.94E-03,8.91E-03
118274,7.93E-03,8.76E-03
118275,7.95E-03,9.24E-03
118276,7.95E-03,9.07E-03
118277,7.97E-03,9.62E-03
118278,7.95E-03,9.42E-03
118279,7.98E-03,1.00E-02
118280,7.98E-03,9.82E-03
118281,8.04E-03,1.05E-02
118282,7.99E-03,1.03E-02
118283,8.30E-03,1.09E-02
118284,8.30E-03,1.07E-02
118285,9.27E-03,1.14E-02
118286,8.48E-03,1.12E-02
118287,9.79E-03,1.19E-02
118288,9.47E-03,1.16E-02
118289,1.01E-02,1.21E-02
118290,1.16E-02,1.73E-02
118291,1.02E-02,1.75E-02
118292,9.59E-03,1.72E-02
118293,1.10E-02,1.73E-02
118294,9.52E-03,1.70E-02
118295,9.58E-03,1.71E-02
118296,9.26E-03,1.68E-02
118297,9.38E-03,1.69E-02
118298,8.83E-03,1.66E-02
118299,8.91E-03,1.67E-02
118300,8.67E-03,1.64E-02
118301,8.65E-03,1.65E-02
118302,8.75E-03,1.63E-02
118303,8.70E-03,1.64E-02
118304,8.84E-03,1.61E-02
118305,8.80E-03,1.62E-02
118306,8.87E-03,1.59E-02
118307,8.86E-03,1.60E-02
118308,8.87E-03,1.57E-02
118309,8.87E-03,1.58E-02
118310,8.90E-03,1.55E-02
118311,8.88E-03,1.56E-02
118312,8.93E-03,1.53E-02
118313,8.91E-03,1.54E-02
118314,8.95E-03,1.51E-02
118315,8.94E-03,1.52E-02
118316,8.98E-03,1.49E-02
118317,8.96E-03,1.50E-02
118318,9.01E-03,1.47E-02
118319,8.99E-03,1.48E-02
118320,9.04E-03,1.45E-02
118321,9.02E-03,1.46E-02
118322,9.06E-03,1.43E-02
118323,9.05E-03,1.44E-02
118324,9.11E-03,1.41E-02
118325,9.08E-03,1.42E-02
118326,9.13E-03,1.38E-02
118327,9.12E-03,1.40E-02
118328,9.12E-03,1.36E-02
118329,9.13E-03,1.37E-02
118330,8.95E-03,1.34E-02
118331,9.09E-03,1.35E-02
118332,8.85E-03,1.32E-02
118333,8.93E-03,1.33E-02
118334,8.73E-03,1.30E-02
118335,8.79E-03,1.31E-02
118336,8.91E-03,1.28E-02
118337,8.79E-03,1.29E-02
118338,9.17E-03,1.26E-02
118339,9.02E-03,1.27E-02
118340,9.68E-03,1.26E-02
118341,8.21E-03,7.31E-03
118342,8.92E-03,7.28E-03
118343,7.04E-03,7.24E-03
118344,9.41E-03,3.11E-03
118345,7.56E-03,1.06E-02
118346,5.10E-03,1.07E-02
118347,8.27E-03,1.04E-02
118348,8.96E-03,2.45E-02
118349,5.40E-03,3.37E-02
118350,6.49E-03,3.28E-03
118351,6.92E-03,3.18E-03
118352,7.83E-03,1.13E-02
118353,7.86E-03,1.14E-02
118354,8.64E-03,1.16E-02
118355,5.95E-03,2.60E-02
118356,1.03E-02,1.89E-02
118357,9.73E-03,1.90E-02
118358,9.43E-03,1.90E-02
118359,9.51E-03,1.91E-02
118360,9.51E-03,1.91E-02
118361,9.40E-03,1.92E-02
118362,9.21E-03,1.93E-02
118363,9.03E-03,1.94E-02
118364,8.96E-03,1.95E-02
118365,8.91E-03,1.95E-02
118366,8.85E-03,1.96E-02
118367,8.78E-03,1.97E-02
118368,8.93E-03,1.98E-02
118369,9.16E-03,1.99E-02
118370,9.16E-03,2.00E-02
118371,9.23E-03,2.02E-02
118372,9.62E-03,2.03E-02
118373,9.57E-03,2.04E-02
118374,9.58E-03,2.06E-02
118375,9.14E-03,2.07E-02
118376,8.90E-03,2.08E-02
118377,8.73E-03,2.10E-02
118378,8.54E-03,2.11E-02
118379,8.35E-03,2.12E-02
118380,8.08E-03,2.14E-02
118381,7.91E-03,2.15E-02
118382,7.99E-03,2.16E-02
118383,7.53E-03,2.18E-02
118384,7.40E-03,2.19E-02
118385,7.11E-03,2.20E-02
118386,7.06E-03,2.21E-02
118387,7.92E-03,2.23E-02
118388,8.32E-03,2.23E-02
118389,6.96E-03,2.22E-02
118390,9.32E-03,7.37E-03
118391,6.03E-03,6.73E-03
118392,8.75E-03,5.70E-03
118393,5.43E-03,6.64E-03
118394,5.63E-03,6.54E-03
118395,8.28E-03,4.63E-03
118396,7.93E-03,4.46E-03
118397,7.85E-03,2.63E-02
118398,8.52E-03,5.14E-03
118399,8.59E-03,5.01E-03
118400,6.38E-03,1.06E-02
118401,7.30E-03,1.16E-02
118402,7.55E-03,3.01E-03
118403,6.52E-03,3.51E-02
118404,9.88E-03,3.50E-02
118405,8.54E-03,3.48E-02
118406,8.37E-03,3.49E-02
118407,8.24E-03,3.49E-02
118408,8.13E-03,3.49E-02
118409,8.12E-03,3.50E-02
118410,8.02E-03,3.51E-02
118411,8.14E-03,3.52E-02
118412,8.30E-03,3.54E-02
118413,8.25E-03,3.56E-02
118414,7.99E-03,3.58E-02
118415,7.72E-03,3.60E-02
118416,5.48E-03,3.45E-02
118417,8.18E-03,2.49E-02
118418,7.36E-03,2.06E-02
118419,6.65E-03,1.99E-02
118420,9.74E-03,2.13E-02
118421,8.26E-03,2.12E-02
118422,7.32E-03,2.09E-02
118423,6.72E-03,2.07E-02
118424,5.86E-03,7.56E-03
118425,6.32E-03,7.57E-03
118426,8.54E-03,3.02E-02
118427,9.03E-03,3.08E-02
118428,7.30E-03,4.08E-03
118429,5.70E-03,3.98E-03
118430,9.09E-03,4.77E-03
118431,8.74E-03,4.56E-03
118432,7.04E-03,6.35E-03
118433,6.73E-03,6.32E-03
118434,5.41E-03,6.18E-03
118435,7.61E-03,1.74E-02
118436,8.28E-03,1.01E-02
118437,8.44E-03,3.15E-03
118438,8.48E-03,5.27E-03
118439,7.03E-03,6.70E-03
118440,8.25E-03,1.81E-02
118441,8.83E-03,1.80E-02
118442,6.92E-03,1.89E-02
118443,7.34E-03,1.90E-02
118444,6.30E-03,7.22E-03
118445,7.83E-03,9.22E-03
118446,5.26E-03,3.52E-02
118447,7.37E-03,3.56E-02
118448,7.88E-03,9.11E-03
118449,8.14E-03,1.82E-02
118450,8.72E-03,7.35E-03
118451,8.74E-03,7.33E-03
118452,8.93E-03,7.32E-03
118453,8.97E-03,7.31E-03
118454,8.75E-03,7.30E-03
118455,8.63E-03,7.29E-03
118456,7.97E-03,7.28E-03
118457,6.99E-03,7.27E-03
118458,6.92E-03,7.26E-03
118459,7.12E-03,7.25E-03
118460,6.99E-03,7.24E-03
118461,6.79E-03,7.23E-03
118462,6.52E-03,7.22E-03
118463,5.84E-03,7.21E-03
118464,5.86E-03,7.20E-03
118465,6.16E-03,7.20E-03
118466,7.13E-03,7.19E-03
118467,7.50E-03,7.18E-03
118468,7.97E-03,7.17E-03
118469,8.01E-03,7.16E-03
118470,8.06E-03,7.14E-03
118471,7.82E-03,7.13E-03
118472,7.50E-03,7.12E-03
118473,7.33E-03,7.10E-03
118474,7.19E-03,7.09E-03
118475,6.99E-03,7.08E-03
118476,6.73E-03,7.07E-03
118477,7.42E-03,7.06E-03
118478,8.90E-03,7.05E-03
118479,9.99E-03,7.04E-03
118480,1.04E-02,7.02E-03
118481,9.97E-03,7.01E-03
118482,9.55E-03,6.99E-03
118483,9.16E-03,6.97E-03
118484,8.37E-03,6.95E-03
118485,7.75E-03,6.94E-03
118486,7.30E-03,6.92E-03
118487,6.46E-03,6.91E-03
118488,6.09E-03,6.90E-03
118489,5.92E-03,6.89E-03
118490,6.32E-03,6.88E-03
118491,8.03E-03,6.88E-03
118492,9.52E-03,6.87E-03
118493,1.03E-02,6.86E-03
118494,1.02E-02,6.84E-03
118495,9.43E-03,6.83E-03
118496,9.46E-03,6.81E-03
118497,6.85E-03,6.80E-03
118498,6.81E-03,6.78E-03
118499,6.66E-03,6.76E-03
118500,6.58E-03,6.74E-03
118501,6.69E-03,6.73E-03
118502,7.21E-03,6.69E-03
118503,5.28E-03,6.67E-03
118504,8.58E-03,5.80E-03
118505,8.59E-03,5.89E-03
118506,8.24E-03,5.98E-03
118507,8.21E-03,6.07E-03
118508,8.06E-03,6.16E-03
118509,7.94E-03,6.23E-03
118510,7.75E-03,6.27E-03
118511,7.01E-03,6.33E-03
118512,8.24E-03,2.26E-02
118513,8.44E-03,2.21E-02
118514,6.23E-03,6.41E-03
118515,7.39E-03,6.30E-03
118516,5.39E-03,6.60E-03
118517,7.71E-03,6.35E-03
118518,7.90E-03,6.35E-03
118519,7.92E-03,6.35E-03
118520,7.45E-03,4.34E-03
118521,7.86E-03,1.83E-02
118522,7.95E-03,2.67E-02
118523,8.18E-03,2.96E-02
118524,7.22E-03,2.89E-02
118525,8.82E-03,4.86E-03
118526,7.90E-03,8.79E-03
118527,8.49E-03,8.78E-03
118528,8.96E-03,8.75E-03
118529,9.70E-03,8.73E-03
118530,7.30E-03,6.30E-03
118531,4.43E-03,2.88E-03
118532,4.47E-03,2.96E-03
118533,5.65E-03,3.01E-03
118534,1.13E-02,1.08E-02
118535,1.02E-02,3.20E-03
118536,7.31E-03,1.08E-02
118537,7.50E-03,1.09E-02
118538,7.47E-03,1.09E-02
118539,5.99E-03,1.10E-02
118540,7.64E-03,3.66E-02
118541,9.29E-03,1.01E-02
118542,8.94E-03,9.78E-03
118543,8.13E-03,2.55E-02
118544,7.18E-03,1.85E-02
118545,6.76E-03,1.86E-02
118546,5.82E-03,1.87E-02
118547,8.86E-03,2.37E-02
118548,7.33E-03,3.51E-02
118549,7.99E-03,3.48E-02
118550,8.10E-03,3.46E-02
118551,8.12E-03,3.44E-02
118552,8.05E-03,3.42E-02
118553,8.05E-03,3.40E-02
118554,8.05E-03,3.38E-02
118555,8.05E-03,3.36E-02
118556,8.05E-03,3.34E-02
118557,8.05E-03,3.33E-02
118558,8.05E-03,3.31E-02
118559,8.05E-03,3.29E-02
118560,8.05E-03,3.28E-02
118561,8.05E-03,3.26E-02
118562,8.05E-03,3.24E-02
118563,8.05E-03,3.23E-02
118564,8.05E-03,3.21E-02
118565,8.05E-03,3.20E-02
118566,8.05E-03,3.18E-02
118567,8.04E-03,3.17E-02
118568,8.04E-03,3.15E-02
118569,8.04E-03,3.14E-02
118570,8.04E-03,3.12E-02
118571,8.04E-03,3.11E-02
118572,8.04E-03,3.10E-02
118573,8.04E-03,3.08E-02
118574,8.04E-03,3.07E-02
118575,8.03E-03,3.06E-02
118576,8.03E-03,3.05E-02
118577,8.03E-03,3.03E-02
118578,8.03E-03,3.02E-02
118579,8.03E-03,3.01E-02
118580,8.03E-03,3.00E-02
118581,8.03E-03,2.99E-02
118582,8.02E-03,2.98E-02
118583,8.02E-03,2.97E-02
118584,8.02E-03,2.96E-02
118585,8.02E-03,2.95E-02
118586,8.01E-03,2.94E-02
118587,8.01E-03,2.93E-02
118588,8.00E-03,2.92E-02
118589,7.99E-03,2.92E-02
118590,7.98E-03,2.91E-02
118591,7.98E-03,2.90E-02
118592,7.97E-03,2.89E-02
118593,7.96E-03,2.89E-02
118594,7.95E-03,2.88E-02
118595,7.93E-03,2.88E-02
118596,7.92E-03,2.87E-02
118597,7.90E-03,2.87E-02
118598,7.88E-03,2.86E-02
118599,7.86E-03,2.86E-02
118600,7.83E-03,2.85E-02
118601,7.79E-03,2.85E-02
118602,7.63E-03,2.84E-02
118603,7.42E-03,2.84E-02
118604,7.38E-03,2.84E-02
118605,7.01E-03,2.83E-02
118606,6.94E-03,2.83E-02
118607,6.89E-03,2.82E-02
118608,6.90E-03,2.82E-02
118609,6.38E-03,2.81E-02
118610,7.93E-03,7.34E-03
118611,7.77E-03,7.42E-03
118612,5.67E-03,1.92E-02
118613,7.29E-03,2.04E-02
118614,7.09E-03,2.01E-02
118615,9.37E-03,2.11E-02
118616,6.39E-03,2.09E-02
118617,5.59E-03,2.07E-02
118618,1.09E-02,2.13E-02
118619,6.69E-03,7.35E-03
118620,6.88E-03,7.36E-03
118621,7.10E-03,7.36E-03
118622,7.51E-03,3.41E-02
118623,8.66E-03,3.30E-02
118624,8.36E-03,3.17E-02
118625,7.02E-03,7.24E-03
118626,6.82E-03,7.25E-03
118627,7.50E-03,7.23E-03
118628,6.01E-03,3.88E-03
118629,5.72E-03,3.74E-03
118630,8.52E-03,3.51E-03
118631,8.70E-03,4.36E-03
118632,9.32E-03,4.15E-03
118633,8.97E-03,4.52E-03
118634,9.98E-03,4.29E-03
118635,8.02E-03,1.88E-02
118636,8.42E-03,1.88E-02
118637,7.41E-03,1.87E-02
118638,6.16E-03,6.06E-03
118639,6.64E-03,7.59E-03
118640,6.94E-03,7.58E-03
118641,6.67E-03,7.56E-03
118642,5.97E-03,7.53E-03
118643,6.53E-03,7.48E-03
118644,7.51E-03,7.49E-03
118645,7.16E-03,9.43E-03
118646,7.72E-03,2.07E-02
118647,7.28E-03,2.08E-02
118648,6.98E-03,2.09E-02
118649,5.48E-03,2.10E-02
118650,7.55E-03,3.57E-02
118651,7.61E-03,1.70E-02
118652,7.54E-03,1.66E-02
118653,7.00E-03,6.19E-03
118654,6.97E-03,1.01E-02
118655,8.37E-03,2.42E-02
118656,9.23E-03,2.24E-02
118657,8.51E-03,2.23E-02
118658,8.61E-03,1.89E-02
118659,9.34E-03,1.89E-02
118660,1.06E-02,1.90E-02
118661,9.45E-03,1.91E-02
118662,9.51E-03,1.91E-02
118663,9.53E-03,1.92E-02
118664,9.48E-03,1.93E-02
118665,9.39E-03,1.93E-02
118666,9.19E-03,1.94E-02
118667,8.98E-03,1.95E-02
118668,8.92E-03,1.96E-02
118669,8.87E-03,1.97E-02
118670,8.82E-03,1.98E-02
118671,8.75E-03,1.99E-02
118672,8.84E-03,2.00E-02
118673,9.06E-03,2.01E-02
118674,9.10E-03,2.02E-02
118675,9.19E-03,2.03E-02
118676,9.61E-03,2.04E-02
118677,9.50E-03,2.06E-02
118678,9.50E-03,2.07E-02
118679,9.08E-03,2.09E-02
118680,8.94E-03,2.10E-02
118681,8.70E-03,2.11E-02
118682,8.62E-03,2.13E-02
118683,8.51E-03,2.14E-02
118684,8.20E-03,2.16E-02
118685,8.02E-03,2.17E-02
118686,7.88E-03,2.18E-02
118687,7.57E-03,2.20E-02
118688,7.45E-03,2.21E-02
118689,7.36E-03,2.22E-02
118690,7.48E-03,2.23E-02
118691,8.49E-03,2.24E-02
118692,7.97E-03,2.25E-02
118693,5.36E-03,2.27E-02
118694,8.06E-03,2.26E-02
118695,7.11E-03,2.05E-02
118696,8.36E-03,3.16E-03
118697,7.76E-03,7.24E-03
118698,8.88E-03,2.07E-02
118699,5.82E-03,1.13E-02
118700,8.45E-03,5.38E-03
118701,9.00E-03,6.79E-03
118702,6.95E-03,6.42E-03
118703,5.56E-03,6.23E-03
118704,8.89E-03,1.79E-02
118705,9.05E-03,1.77E-02
118706,6.00E-03,3.87E-03
118707,5.80E-03,3.71E-03
118708,6.82E-03,9.11E-03
118709,6.19E-03,1.88E-02
118710,8.01E-03,2.56E-02
118711,8.02E-03,4.96E-03
118712,7.91E-03,4.84E-03
118713,8.05E-03,4.71E-03
118714,7.18E-03,7.14E-03
118715,7.44E-03,7.15E-03
118716,5.96E-03,1.91E-02
118717,6.21E-03,1.99E-02
118718,6.72E-03,1.90E-02
118719,7.91E-03,1.79E-02
118720,7.92E-03,1.74E-02
118721,7.63E-03,1.69E-02
118722,7.97E-03,3.56E-02
118723,8.31E-03,3.55E-02
118724,8.19E-03,3.56E-02
118725,8.14E-03,3.56E-02
118726,8.10E-03,3.57E-02
118727,8.05E-03,3.58E-02
118728,8.00E-03,3.60E-02
118729,8.04E-03,3.61E-02
118730,8.08E-03,3.63E-02
118731,8.05E-03,3.65E-02
118732,7.92E-03,3.67E-02
118733,7.69E-03,3.69E-02
118734,7.99E-03,3.71E-02
118735,7.83E-03,3.75E-02
118736,6.95E-03,3.78E-02
118737,6.91E-03,3.82E-02
118738,6.17E-03,1.96E-02
118739,8.08E-03,2.87E-03
118740,8.58E-03,2.15E-02
118741,1.04E-02,2.09E-02
118742,8.22E-03,2.04E-02
118743,8.15E-03,1.98E-02
118744,8.23E-03,1.93E-02
118745,8.23E-03,1.88E-02
118746,8.11E-03,1.84E-02
118747,7.89E-03,7.25E-03
118748,8.10E-03,7.16E-03
118749,8.07E-03,7.07E-03
118750,8.18E-03,6.98E-03
118751,8.34E-03,6.89E-03
118752,6.68E-03,6.29E-03
118753,7.99E-03,6.59E-03
118754,8.27E-03,6.58E-03
118755,9.29E-03,6.57E-03
118756,9.88E-03,6.55E-03
118757,1.00E-02,6.54E-03
118758,1.00E-02,6.51E-03
118759,6.51E-03,6.48E-03
118760,6.53E-03,6.46E-03
118761,6.33E-03,6.43E-03
118762,6.00E-03,6.42E-03
118763,5.81E-03,6.40E-03
118764,5.49E-03,6.41E-03
118765,5.67E-03,6.40E-03
118766,6.14E-03,6.40E-03
118767,7.45E-03,6.38E-03
118768,7.64E-03,6.36E-03
118769,8.11E-03,3.88E-03
118770,7.98E-03,3.93E-03
118771,1.09E-02,3.98E-03
118772,9.29E-03,4.01E-03
118773,6.84E-03,4.04E-03
118774,6.80E-03,4.05E-03
118775,6.57E-03,4.07E-03
118776,6.23E-03,4.10E-03
118777,5.84E-03,4.14E-03
118778,5.66E-03,4.19E-03
118779,6.04E-03,4.25E-03
118780,7.72E-03,8.76E-03
118781,7.06E-03,9.10E-03
118782,7.45E-03,1.84E-02
118783,7.80E-03,2.72E-02
118784,7.49E-03,2.78E-02
118785,6.94E-03,2.84E-02
118786,8.80E-03,4.69E-03
118787,7.72E-03,8.68E-03
118788,8.79E-03,8.67E-03
118789,9.42E-03,8.70E-03
118790,9.75E-03,8.71E-03
118791,5.71E-03,6.16E-03
118792,7.87E-03,6.30E-03
118793,8.72E-03,6.27E-03
118794,9.29E-03,6.25E-03
118795,9.50E-03,6.22E-03
118796,9.45E-03,6.19E-03
118797,9.20E-03,6.16E-03
118798,8.91E-03,6.12E-03
118799,8.80E-03,6.09E-03
118800,8.66E-03,6.06E-03
118801,8.50E-03,6.02E-03
118802,8.16E-03,5.99E-03
118803,7.83E-03,5.96E-03
118804,7.74E-03,5.92E-03
118805,7.72E-03,5.89E-03
118806,7.67E-03,5.86E-03
118807,7.61E-03,5.83E-03
118808,7.53E-03,5.79E-03
118809,7.42E-03,5.76E-03
118810,7.29E-03,5.73E-03
118811,7.10E-03,5.70E-03
118812,6.82E-03,5.67E-03
118813,6.35E-03,5.64E-03
118814,5.70E-03,5.62E-03
118815,5.87E-03,5.60E-03
118816,6.61E-03,5.58E-03
118817,6.65E-03,5.56E-03
118818,6.73E-03,5.54E-03
118819,7.03E-03,5.53E-03
118820,7.17E-03,5.52E-03
118821,7.88E-03,5.50E-03
118822,9.15E-03,5.48E-03
118823,9.60E-03,5.46E-03
118824,9.86E-03,5.44E-03
118825,9.90E-03,5.42E-03
118826,9.89E-03,5.40E-03
118827,9.66E-03,5.37E-03
118828,9.15E-03,5.34E-03
118829,9.16E-03,5.31E-03
118830,8.01E-03,5.28E-03
118831,7.45E-03,5.25E-03
118832,7.27E-03,5.23E-03
118833,7.16E-03,5.20E-03
118834,7.02E-03,5.18E-03
118835,6.84E-03,5.16E-03
118836,6.61E-03,5.14E-03
118837,6.31E-03,5.13E-03
118838,6.52E-03,5.12E-03
118839,6.87E-03,5.10E-03
118840,6.99E-03,5.09E-03
118841,7.05E-03,5.08E-03
118842,6.99E-03,5.08E-03
118843,6.96E-03,5.07E-03
118844,7.80E-03,5.07E-03
118845,9.04E-03,5.06E-03
118846,9.36E-03,5.06E-03
118847,9.19E-03,5.05E-03
118848,9.06E-03,5.04E-03
118849,8.91E-03,5.03E-03
118850,8.65E-03,5.02E-03
118851,8.33E-03,5.00E-03
118852,8.10E-03,4.99E-03
118853,8.06E-03,4.98E-03
118854,8.10E-03,4.97E-03
118855,8.10E-03,4.95E-03
118856,8.20E-03,4.94E-03
118857,8.97E-03,4.93E-03
118858,9.57E-03,4.92E-03
118859,9.35E-03,4.90E-03
118860,9.06E-03,4.88E-03
118861,8.87E-03,4.86E-03
118862,8.87E-03,4.84E-03
118863,9.05E-03,4.82E-03
118864,9.35E-03,4.79E-03
118865,9.77E-03,4.76E-03
118866,9.86E-03,4.73E-03
118867,9.53E-03,4.69E-03
118868,9.20E-03,4.65E-03
118869,8.98E-03,4.61E-03
118870,8.83E-03,4.57E-03
118871,8.76E-03,4.53E-03
118872,8.75E-03,4.48E-03
118873,8.65E-03,4.44E-03
118874,8.49E-03,4.39E-03
118875,8.39E-03,4.35E-03
118876,8.33E-03,4.30E-03
118877,8.28E-03,4.25E-03
118878,8.25E-03,4.20E-03
118879,8.23E-03,4.16E-03
118880,8.21E-03,4.11E-03
118881,8.14E-03,4.06E-03
118882,7.98E-03,4.01E-03
118883,7.87E-03,3.96E-03
118884,7.86E-03,3.92E-03
118885,7.84E-03,3.87E-03
118886,7.82E-03,3.82E-03
118887,7.80E-03,3.78E-03
118888,7.77E-03,3.73E-03
118889,7.75E-03,3.69E-03
118890,7.71E-03,3.65E-03
118891,7.67E-03,3.60E-03
118892,7.63E-03,3.56E-03
118893,7.57E-03,3.52E-03
118894,7.51E-03,3.48E-03
118895,7.42E-03,3.45E-03
118896,7.30E-03,3.41E-03
118897,7.28E-03,3.37E-03
118898,7.40E-03,3.34E-03
118899,7.51E-03,3.31E-03
118900,7.51E-03,3.28E-03
118901,7.45E-03,3.25E-03
118902,7.37E-03,3.22E-03
118903,7.25E-03,3.19E-03
118904,7.04E-03,3.16E-03
118905,7.00E-03,3.14E-03
118906,7.16E-03,3.12E-03
118907,7.29E-03,3.10E-03
118908,7.42E-03,3.08E-03
118909,7.44E-03,3.06E-03
118910,7.30E-03,3.05E-03
118911,7.14E-03,3.03E-03
118912,7.02E-03,3.02E-03
118913,6.70E-03,3.01E-03
118914,6.34E-03,3.01E-03
118915,5.73E-03,7.26E-03
118916,5.93E-03,7.32E-03
118917,6.43E-03,7.34E-03
118918,5.29E-03,1.93E-02
118919,5.88E-03,1.94E-02
118920,7.18E-03,2.02E-02
118921,6.49E-03,2.09E-02
118922,1.11E-02,2.10E-02
118923,8.62E-03,3.50E-02
118924,8.29E-03,3.58E-02
118925,7.05E-03,3.70E-02
118926,7.09E-03,7.36E-03
118927,6.78E-03,7.38E-03
118928,6.57E-03,7.38E-03
118929,6.66E-03,7.38E-03
118930,6.59E-03,7.40E-03
118931,6.08E-03,7.43E-03
118932,6.04E-03,7.41E-03
118933,8.34E-03,3.24E-02
118934,6.66E-03,7.26E-03
118935,7.02E-03,7.25E-03
118936,5.78E-03,3.65E-03
118937,5.68E-03,3.60E-03
118938,5.72E-03,3.57E-03
118939,5.60E-03,3.54E-03
118940,7.70E-03,3.51E-03
118941,7.94E-03,3.51E-03
118942,8.63E-03,3.84E-03
118943,9.43E-03,4.06E-03
118944,8.82E-03,1.89E-02
118945,7.17E-03,1.86E-02
118946,6.99E-03,1.84E-02
118947,7.07E-03,1.83E-02
118948,7.23E-03,1.81E-02
118949,7.37E-03,1.80E-02
118950,7.52E-03,1.78E-02
118951,7.79E-03,1.77E-02
118952,8.16E-03,1.75E-02
118953,8.24E-03,1.73E-02
118954,8.37E-03,1.71E-02
118955,8.38E-03,1.70E-02
118956,8.52E-03,1.68E-02
118957,8.66E-03,1.66E-02
118958,8.86E-03,1.64E-02
118959,9.14E-03,1.63E-02
118960,9.53E-03,1.61E-02
118961,9.70E-03,1.60E-02
118962,9.97E-03,1.58E-02
118963,1.02E-02,1.57E-02
118964,1.04E-02,1.55E-02
118965,1.06E-02,1.54E-02
118966,1.04E-02,1.52E-02
118967,1.02E-02,1.51E-02
118968,8.27E-03,1.50E-02
118969,8.12E-03,1.49E-02
118970,7.85E-03,1.48E-02
118971,6.56E-03,1.47E-02
118972,6.26E-03,1.46E-02
118973,6.10E-03,1.45E-02
118974,6.23E-03,1.44E-02
118975,6.76E-03,1.43E-02
118976,6.88E-03,1.42E-02
118977,7.38E-03,1.41E-02
118978,7.59E-03,1.40E-02
118979,7.81E-03,1.39E-02
118980,7.87E-03,1.38E-02
118981,7.90E-03,1.36E-02
118982,7.93E-03,1.35E-02
118983,7.94E-03,1.34E-02
118984,7.95E-03,1.33E-02
118985,7.95E-03,1.31E-02
118986,7.96E-03,1.30E-02
118987,8.26E-03,1.29E-02
118988,8.55E-03,1.28E-02
118989,8.47E-03,1.26E-02
118990,8.36E-03,1.25E-02
118991,8.31E-03,1.24E-02
118992,8.35E-03,1.23E-02
118993,8.42E-03,1.22E-02
118994,8.48E-03,1.21E-02
118995,8.54E-03,1.20E-02
118996,8.72E-03,1.19E-02
118997,8.76E-03,1.18E-02
118998,8.90E-03,1.16E-02
118999,9.00E-03,1.15E-02
119000,9.30E-03,1.14E-02
119001,9.36E-03,1.13E-02
119002,9.71E-03,1.12E-02
119003,9.77E-03,1.11E-02
119004,9.80E-03,1.10E-02
119005,9.87E-03,1.09E-02
119006,1.06E-02,1.06E-02
119007,8.68E-03,1.05E-02
119008,8.30E-03,1.04E-02
119009,8.05E-03,1.03E-02
119010,7.85E-03,1.02E-02
119011,7.66E-03,1.01E-02
119012,7.43E-03,9.98E-03
119013,7.39E-03,9.90E-03
119014,7.54E-03,9.82E-03
119015,7.68E-03,9.74E-03
119016,7.74E-03,9.65E-03
119017,7.80E-03,9.57E-03
119018,7.84E-03,9.48E-03
119019,7.87E-03,9.40E-03
119020,7.89E-03,9.32E-03
119021,7.92E-03,9.24E-03
119022,7.93E-03,9.16E-03
119023,7.95E-03,9.08E-03
119024,7.96E-03,9.01E-03
119025,7.98E-03,8.94E-03
119026,8.00E-03,8.87E-03
119027,8.02E-03,8.80E-03
119028,8.02E-03,8.73E-03
119029,8.02E-03,8.67E-03
119030,8.02E-03,8.61E-03
119031,8.01E-03,8.55E-03
119032,8.01E-03,8.49E-03
119033,8.01E-03,8.43E-03
119034,8.00E-03,8.38E-03
119035,8.00E-03,8.32E-03
119036,7.99E-03,8.27E-03
119037,7.99E-03,8.22E-03
119038,7.98E-03,8.17E-03
119039,7.98E-03,8.12E-03
119040,7.97E-03,8.08E-03
119041,7.97E-03,8.03E-03
119042,7.96E-03,7.99E-03
119043,7.95E-03,7.95E-03
119044,7.95E-03,7.91E-03
119045,7.94E-03,7.87E-03
119046,7.93E-03,7.83E-03
119047,7.90E-03,7.79E-03
119048,7.87E-03,7.75E-03
119049,7.82E-03,7.72E-03
119050,7.78E-03,7.68E-03
119051,7.73E-03,7.65E-03
119052,7.47E-03,7.62E-03
119053,7.39E-03,7.58E-03
119054,7.25E-03,7.55E-03
119055,6.98E-03,7.51E-03
119056,7.69E-03,7.50E-03
119057,9.51E-03,7.56E-03
119058,9.38E-03,7.63E-03
119059,9.16E-03,7.70E-03
119060,8.94E-03,7.75E-03
119061,8.74E-03,7.80E-03
119062,8.41E-03,7.85E-03
119063,8.11E-03,7.90E-03
119064,8.14E-03,7.94E-03
119065,8.11E-03,7.99E-03
119066,7.98E-03,8.03E-03
119067,7.88E-03,8.08E-03
119068,7.73E-03,8.12E-03
119069,7.62E-03,8.17E-03
119070,7.50E-03,8.21E-03
119071,7.44E-03,8.24E-03
119072,7.36E-03,8.28E-03
119073,7.60E-03,8.31E-03
119074,7.17E-03,9.63E-03
119075,7.18E-03,9.71E-03
119076,7.16E-03,9.83E-03
119077,8.06E-03,9.87E-03
119078,7.68E-03,9.29E-03
119079,9.16E-03,9.64E-03
119080,5.73E-03,2.10E-02
119081,5.92E-03,2.11E-02
119082,6.02E-03,2.11E-02
119083,6.20E-03,2.12E-02
119084,6.61E-03,2.12E-02
119085,6.65E-03,2.13E-02
119086,7.29E-03,2.13E-02
119087,8.10E-03,2.14E-02
119088,8.39E-03,2.14E-02
119089,8.49E-03,2.15E-02
119090,8.65E-03,2.15E-02
119091,8.73E-03,2.16E-02
119092,8.82E-03,2.17E-02
119093,8.99E-03,2.17E-02
119094,9.25E-03,2.18E-02
119095,9.26E-03,2.18E-02
119096,9.52E-03,2.19E-02
119097,6.62E-03,2.20E-02
119098,6.66E-03,2.20E-02
119099,6.01E-03,2.21E-02
119100,5.90E-03,2.21E-02
119101,6.30E-03,2.21E-02
119102,6.58E-03,2.22E-02
119103,6.86E-03,2.22E-02
119104,7.28E-03,2.22E-02
119105,7.57E-03,2.23E-02
119106,7.66E-03,2.23E-02
119107,7.72E-03,2.23E-02
119108,7.77E-03,2.24E-02
119109,7.81E-03,2.24E-02
119110,7.84E-03,2.24E-02
119111,7.86E-03,2.25E-02
119112,7.89E-03,2.25E-02
119113,7.90E-03,2.25E-02
119114,7.92E-03,2.26E-02
119115,7.93E-03,2.26E-02
119116,7.91E-03,2.26E-02
119117,7.91E-03,2.27E-02
119118,7.96E-03,2.27E-02
119119,8.00E-03,2.28E-02
119120,8.03E-03,2.28E-02
119121,8.04E-03,2.28E-02
119122,8.05E-03,2.29E-02
119123,8.05E-03,2.29E-02
119124,8.09E-03,2.30E-02
119125,8.13E-03,2.30E-02
119126,8.14E-03,2.31E-02
119127,8.14E-03,2.31E-02
119128,8.15E-03,2.32E-02
119129,8.15E-03,2.32E-02
119130,8.15E-03,2.33E-02
119131,8.16E-03,2.33E-02
119132,8.16E-03,2.34E-02
119133,8.17E-03,2.34E-02
119134,8.17E-03,2.35E-02
119135,8.17E-03,2.35E-02
119136,8.18E-03,2.36E-02
119137,8.18E-03,2.36E-02
119138,8.19E-03,2.36E-02
119139,8.20E-03,2.37E-02
119140,8.20E-03,2.37E-02
119141,8.21E-03,2.38E-02
119142,8.22E-03,2.38E-02
119143,8.23E-03,2.39E-02
119144,8.24E-03,2.39E-02
119145,8.25E-03,2.39E-02
119146,8.26E-03,2.40E-02
119147,8.28E-03,2.40E-02
119148,8.29E-03,2.40E-02
119149,8.31E-03,2.40E-02
119150,8.33E-03,2.41E-02
119151,8.36E-03,2.41E-02
119152,8.39E-03,2.41E-02
119153,8.41E-03,2.41E-02
119154,8.42E-03,2.41E-02
119155,8.44E-03,2.41E-02
119156,8.45E-03,2.41E-02
119157,8.46E-03,2.41E-02
119158,8.47E-03,2.41E-02
119159,8.53E-03,2.41E-02
119160,8.61E-03,2.41E-02
119161,8.70E-03,2.41E-02
119162,8.81E-03,2.41E-02
119163,8.96E-03,2.41E-02
119164,9.18E-03,2.42E-02
119165,9.50E-03,2.42E-02
119166,9.99E-03,2.42E-02
119167,1.04E-02,2.43E-02
119168,1.04E-02,2.43E-02
119169,1.01E-02,2.44E-02
119170,9.82E-03,2.45E-02
119171,9.63E-03,2.46E-02
119172,9.86E-03,2.47E-02
119173,1.02E-02,2.48E-02
119174,9.63E-03,2.49E-02
119175,8.75E-03,2.51E-02
119176,8.46E-03,2.52E-02
119177,8.22E-03,2.53E-02
119178,7.97E-03,2.54E-02
119179,7.81E-03,2.55E-02
119180,7.47E-03,2.56E-02
119181,6.09E-03,2.57E-02
119182,5.58E-03,2.57E-02
119183,6.41E-03,2.58E-02
119184,6.81E-03,2.59E-02
119185,6.72E-03,2.59E-02
119186,6.25E-03,2.60E-02
119187,5.21E-03,2.60E-02
119188,5.54E-03,2.60E-02
119189,6.00E-03,2.60E-02
119190,6.49E-03,2.60E-02
119191,6.85E-03,2.60E-02
119192,7.29E-03,2.60E-02
119193,7.48E-03,2.60E-02
119194,7.51E-03,2.60E-02
119195,7.51E-03,2.60E-02
119196,7.51E-03,2.60E-02
119197,7.52E-03,2.60E-02
119198,7.52E-03,2.60E-02
119199,7.69E-03,2.60E-02
119200,7.99E-03,2.60E-02
119201,8.12E-03,2.60E-02
119202,8.12E-03,2.59E-02
119203,8.12E-03,2.59E-02
119204,8.13E-03,2.59E-02
119205,8.17E-03,2.59E-02
119206,8.22E-03,2.59E-02
119207,8.26E-03,2.59E-02
119208,8.27E-03,2.59E-02
119209,8.28E-03,2.59E-02
119210,8.29E-03,2.59E-02
119211,8.30E-03,2.59E-02
119212,8.32E-03,2.59E-02
119213,8.33E-03,2.59E-02
119214,8.35E-03,2.59E-02
119215,8.37E-03,2.59E-02
119216,8.39E-03,2.59E-02
119217,8.41E-03,2.59E-02
119218,8.44E-03,2.59E-02
119219,8.48E-03,2.59E-02
119220,8.51E-03,2.59E-02
119221,8.56E-03,2.59E-02
119222,8.60E-03,2.60E-02
119223,8.66E-03,2.60E-02
119224,8.70E-03,2.60E-02
119225,8.75E-03,2.61E-02
119226,8.82E-03,2.61E-02
119227,8.90E-03,2.61E-02
119228,9.00E-03,2.62E-02
119229,9.12E-03,2.63E-02
119230,9.26E-03,2.64E-02
119231,9.44E-03,2.65E-02
119232,9.64E-03,2.66E-02
119233,9.69E-03,2.67E-02
119234,9.54E-03,2.69E-02
119235,9.50E-03,2.70E-02
119236,9.67E-03,2.72E-02
119237,1.02E-02,2.73E-02
119238,1.01E-02,2.75E-02
119239,6.25E-03,2.77E-02
119240,6.25E-03,2.78E-02
119241,5.61E-03,2.79E-02
119242,5.99E-03,2.80E-02
119243,5.95E-03,2.81E-02
119244,5.79E-03,2.82E-02
119245,5.14E-03,2.83E-02
119246,4.09E-03,2.83E-02
119247,4.41E-03,2.84E-02
119248,6.17E-03,2.84E-02
119249,6.80E-03,2.85E-02
119250,6.79E-03,2.85E-02
119251,6.92E-03,2.86E-02
119252,7.08E-03,2.86E-02
119253,7.40E-03,2.87E-02
119254,7.38E-03,2.87E-02
119255,7.61E-03,2.87E-02
119256,7.80E-03,2.88E-02
119257,7.84E-03,2.88E-02
119258,7.87E-03,2.89E-02
119259,7.89E-03,2.89E-02
119260,7.91E-03,2.90E-02
119261,7.93E-03,2.90E-02
119262,7.94E-03,2.91E-02
119263,7.95E-03,2.91E-02
119264,7.96E-03,2.92E-02
119265,7.97E-03,2.92E-02
119266,7.98E-03,2.93E-02
119267,7.99E-03,2.94E-02
119268,8.00E-03,2.95E-02
119269,8.00E-03,2.96E-02
119270,8.01E-03,2.97E-02
119271,8.02E-03,2.98E-02
119272,8.02E-03,2.99E-02
119273,8.02E-03,3.00E-02
119274,8.02E-03,3.01E-02
119275,8.03E-03,3.02E-02
119276,8.03E-03,3.03E-02
119277,8.03E-03,3.04E-02
119278,8.03E-03,3.05E-02
119279,8.03E-03,3.06E-02
119280,8.03E-03,3.08E-02
119281,8.04E-03,3.09E-02
119282,8.04E-03,3.10E-02
119283,8.04E-03,3.12E-02
119284,8.04E-03,3.13E-02
119285,8.04E-03,3.14E-02
119286,8.04E-03,3.16E-02
119287,8.04E-03,3.17E-02
119288,8.04E-03,3.19E-02
119289,8.05E-03,3.20E-02
119290,8.05E-03,3.22E-02
119291,8.05E-03,3.23E-02
119292,8.05E-03,3.25E-02
119293,8.05E-03,3.26E-02
119294,8.05E-03,3.28E-02
119295,8.05E-03,3.30E-02
119296,8.05E-03,3.31E-02
119297,8.05E-03,3.33E-02
119298,8.05E-03,3.35E-02
119299,8.05E-03,3.37E-02
119300,8.05E-03,3.38E-02
119301,8.05E-03,3.40E-02
119302,8.05E-03,3.42E-02
119303,8.06E-03,3.44E-02
119304,8.06E-03,3.46E-02
119305,8.06E-03,3.48E-02
119306,8.06E-03,3.50E-02
119307,8.16E-03,3.53E-02
119308,8.06E-03,3.55E-02
119309,7.77E-03,3.57E-02
119310,7.49E-03,1.62E-02
119311,7.76E-03,1.58E-02
119312,8.47E-03,1.54E-02
119313,8.51E-03,1.50E-02
119314,8.26E-03,1.46E-02
119315,8.32E-03,1.42E-02
119316,8.40E-03,1.38E-02
119317,8.43E-03,1.34E-02
119318,8.41E-03,1.30E-02
119319,8.16E-03,1.26E-02
119320,8.75E-03,6.01E-03
119321,7.42E-03,3.24E-02
119322,6.75E-03,3.92E-02
119323,6.64E-03,3.90E-02
119324,7.04E-03,3.89E-02
119325,7.59E-03,3.86E-02
119326,7.81E-03,3.82E-02
119327,7.77E-03,3.78E-02
119328,7.80E-03,3.76E-02
119329,7.85E-03,3.74E-02
119330,7.88E-03,3.72E-02
119331,7.94E-03,3.70E-02
119332,7.94E-03,3.68E-02
119333,7.98E-03,3.66E-02
119334,8.06E-03,3.65E-02
119335,8.08E-03,3.63E-02
119336,8.04E-03,3.63E-02
119337,7.94E-03,3.62E-02
119338,7.81E-03,3.62E-02
119339,8.44E-03,7.10E-03
119340,8.04E-03,1.91E-02
119341,7.94E-03,1.98E-02
119342,6.89E-03,1.02E-02
119343,6.92E-03,1.03E-02
119344,6.97E-03,1.03E-02
119345,9.18E-03,2.47E-02
119346,6.88E-03,2.11E-02
119347,5.44E-03,2.12E-02
119348,5.70E-03,8.86E-03
119349,6.35E-03,9.02E-03
119350,9.68E-03,2.23E-02
119351,9.35E-03,2.25E-02
119352,9.33E-03,2.25E-02
119353,7.74E-03,2.27E-02
119354,5.75E-03,2.26E-02
119355,7.34E-03,2.06E-02
119356,8.27E-03,3.16E-03
119357,8.31E-03,3.18E-03
119358,8.09E-03,3.19E-03
119359,7.89E-03,3.23E-03
119360,7.33E-03,3.28E-03
119361,6.85E-03,3.31E-03
119362,4.90E-03,3.26E-03
119363,7.89E-03,1.82E-02
119364,8.63E-03,7.24E-03
119365,8.76E-03,7.22E-03
119366,9.00E-03,7.21E-03
119367,8.93E-03,7.20E-03
119368,8.77E-03,7.19E-03
119369,8.56E-03,7.18E-03
119370,7.98E-03,7.17E-03
119371,7.05E-03,7.17E-03
119372,6.98E-03,7.16E-03
119373,7.11E-03,7.15E-03
119374,7.03E-03,7.14E-03
119375,6.83E-03,7.13E-03
119376,6.66E-03,7.12E-03
119377,6.01E-03,7.11E-03
119378,6.04E-03,7.10E-03
119379,6.11E-03,7.09E-03
119380,7.36E-03,7.08E-03
119381,7.37E-03,7.07E-03
119382,7.94E-03,7.06E-03
119383,8.07E-03,7.05E-03
119384,8.06E-03,7.03E-03
119385,7.84E-03,7.02E-03
119386,7.53E-03,7.00E-03
119387,7.37E-03,6.99E-03
119388,7.24E-03,6.97E-03
119389,7.05E-03,6.96E-03
119390,6.80E-03,6.95E-03
119391,7.46E-03,6.94E-03
119392,8.85E-03,6.93E-03
119393,9.89E-03,6.91E-03
119394,1.02E-02,6.90E-03
119395,9.87E-03,6.88E-03
119396,9.47E-03,6.86E-03
119397,9.10E-03,6.84E-03
119398,8.36E-03,6.83E-03
119399,7.76E-03,6.81E-03
119400,7.34E-03,6.79E-03
119401,6.55E-03,6.78E-03
119402,6.19E-03,6.77E-03
119403,6.04E-03,6.76E-03
119404,6.42E-03,6.75E-03
119405,8.03E-03,6.74E-03
119406,9.44E-03,6.74E-03
119407,1.02E-02,6.72E-03
119408,1.01E-02,6.71E-03
119409,9.44E-03,6.70E-03
119410,9.19E-03,6.68E-03
119411,6.96E-03,6.66E-03
119412,7.00E-03,6.64E-03
119413,6.66E-03,6.63E-03
119414,6.57E-03,6.61E-03
119415,6.46E-03,6.59E-03
119416,6.13E-03,6.56E-03
119417,5.65E-03,6.55E-03
119418,7.18E-03,2.10E-02
119419,7.93E-03,2.09E-02
119420,9.33E-03,2.06E-02
119421,9.14E-03,2.05E-02
119422,9.09E-03,2.05E-02
119423,8.89E-03,2.05E-02
119424,8.89E-03,2.04E-02
119425,8.59E-03,2.04E-02
119426,8.54E-03,2.04E-02
119427,8.39E-03,2.04E-02
119428,8.35E-03,2.03E-02
119429,8.31E-03,2.03E-02
119430,8.28E-03,2.03E-02
119431,8.26E-03,2.03E-02
119432,8.24E-03,2.03E-02
119433,8.23E-03,2.02E-02
119434,8.21E-03,2.02E-02
119435,8.20E-03,2.02E-02
119436,8.19E-03,2.02E-02
119437,8.19E-03,2.01E-02
119438,8.18E-03,2.01E-02
119439,8.17E-03,2.01E-02
119440,8.16E-03,2.00E-02
119441,8.16E-03,2.00E-02
119442,8.15E-03,1.99E-02
119443,8.15E-03,1.99E-02
119444,8.15E-03,1.99E-02
119445,8.14E-03,1.98E-02
119446,8.13E-03,1.98E-02
119447,8.09E-03,1.97E-02
119448,8.06E-03,1.97E-02
119449,8.06E-03,1.96E-02
119450,8.06E-03,1.96E-02
119451,8.05E-03,1.95E-02
119452,8.05E-03,1.95E-02
119453,8.04E-03,1.94E-02
119454,8.04E-03,1.94E-02
119455,8.03E-03,1.94E-02
119456,8.01E-03,1.93E-02
119457,8.01E-03,1.93E-02
119458,8.01E-03,1.92E-02
119459,8.02E-03,1.92E-02
119460,8.01E-03,1.91E-02
119461,8.01E-03,1.91E-02
119462,8.00E-03,1.90E-02
119463,8.00E-03,1.90E-02
119464,7.99E-03,1.89E-02
119465,7.99E-03,1.89E-02
119466,7.98E-03,1.88E-02
119467,7.98E-03,1.88E-02
119468,7.97E-03,1.87E-02
119469,7.96E-03,1.87E-02
119470,7.95E-03,1.86E-02
119471,7.94E-03,1.86E-02
119472,7.92E-03,1.85E-02
119473,7.91E-03,1.85E-02
119474,7.89E-03,1.84E-02
119475,7.86E-03,1.84E-02
119476,7.84E-03,1.83E-02
119477,7.80E-03,1.83E-02
119478,7.76E-03,1.82E-02
119479,7.70E-03,1.81E-02
119480,7.63E-03,1.81E-02
119481,7.53E-03,1.80E-02
119482,7.38E-03,1.80E-02
119483,7.17E-03,1.79E-02
119484,7.93E-03,1.79E-02
119485,9.09E-03,1.78E-02
119486,9.19E-03,1.78E-02
119487,8.87E-03,1.77E-02
119488,8.68E-03,1.76E-02
119489,8.55E-03,1.76E-02
119490,8.47E-03,1.75E-02
119491,8.40E-03,1.75E-02
119492,8.36E-03,1.74E-02
119493,8.32E-03,1.74E-02
119494,8.29E-03,1.73E-02
119495,8.27E-03,1.73E-02
119496,8.25E-03,1.72E-02
119497,8.23E-03,1.72E-02
119498,8.21E-03,1.71E-02
119499,8.19E-03,1.71E-02
119500,8.19E-03,1.70E-02
119501,8.18E-03,1.70E-02
119502,8.17E-03,1.70E-02
119503,8.16E-03,1.69E-02
119504,8.16E-03,1.69E-02
119505,8.15E-03,1.68E-02
119506,8.15E-03,1.68E-02
119507,8.14E-03,1.67E-02
119508,8.14E-03,1.67E-02
119509,8.14E-03,1.66E-02
119510,8.13E-03,1.66E-02
119511,8.13E-03,1.65E-02
119512,8.13E-03,1.65E-02
119513,8.13E-03,1.64E-02
119514,8.12E-03,1.64E-02
119515,8.12E-03,1.63E-02
119516,8.12E-03,1.63E-02
119517,8.12E-03,1.62E-02
119518,8.12E-03,1.62E-02
119519,8.12E-03,1.61E-02
119520,8.11E-03,1.61E-02
119521,8.11E-03,1.60E-02
119522,8.11E-03,1.60E-02
119523,8.10E-03,1.59E-02
119524,8.10E-03,1.59E-02
119525,8.10E-03,1.58E-02
119526,8.10E-03,1.58E-02
119527,8.10E-03,1.57E-02
119528,8.10E-03,1.57E-02
119529,8.10E-03,1.56E-02
119530,8.10E-03,1.56E-02
119531,8.11E-03,1.55E-02
119532,8.11E-03,1.55E-02
119533,8.11E-03,1.54E-02
119534,8.11E-03,1.54E-02
119535,8.11E-03,1.53E-02
119536,8.11E-03,1.52E-02
119537,8.11E-03,1.52E-02
119538,8.11E-03,1.51E-02
119539,8.11E-03,1.51E-02
119540,8.11E-03,1.50E-02
119541,8.11E-03,1.50E-02
119542,8.11E-03,1.49E-02
119543,8.11E-03,1.49E-02
119544,8.11E-03,1.48E-02
119545,8.11E-03,1.47E-02
119546,8.11E-03,1.47E-02
119547,8.11E-03,1.46E-02
119548,8.11E-03,1.46E-02
119549,8.11E-03,1.45E-02
119550,8.11E-03,1.45E-02
119551,8.11E-03,1.44E-02
119552,8.11E-03,1.43E-02
119553,8.12E-03,1.43E-02
119554,8.12E-03,1.42E-02
119555,8.12E-03,1.42E-02
119556,8.12E-03,1.41E-02
119557,8.12E-03,1.40E-02
119558,8.12E-03,1.40E-02
119559,8.13E-03,1.39E-02
119560,8.13E-03,1.38E-02
119561,8.13E-03,1.38E-02
119562,8.13E-03,1.37E-02
119563,8.14E-03,1.37E-02
119564,8.14E-03,1.36E-02
119565,8.14E-03,1.35E-02
119566,8.14E-03,1.35E-02
119567,8.15E-03,1.34E-02
119568,8.15E-03,1.33E-02
119569,8.15E-03,1.33E-02
119570,8.16E-03,1.32E-02
119571,8.16E-03,1.31E-02
119572,8.17E-03,1.30E-02
119573,8.17E-03,1.30E-02
119574,8.18E-03,1.29E-02
119575,8.18E-03,1.28E-02
119576,8.19E-03,1.27E-02
119577,8.20E-03,1.27E-02
119578,8.21E-03,1.26E-02
119579,8.22E-03,1.25E-02
119580,8.23E-03,1.24E-02
119581,8.25E-03,1.24E-02
119582,8.26E-03,1.23E-02
119583,8.28E-03,1.22E-02
119584,8.30E-03,1.21E-02
119585,8.33E-03,1.20E-02
119586,8.36E-03,1.20E-02
119587,8.40E-03,1.19E-02
119588,8.45E-03,1.18E-02
119589,8.52E-03,1.17E-02
119590,8.61E-03,1.16E-02
119591,8.74E-03,1.15E-02
119592,8.92E-03,1.15E-02
119593,9.22E-03,1.14E-02
119594,9.73E-03,1.13E-02
119595,9.84E-03,1.12E-02
119596,9.01E-03,1.11E-02
119597,8.41E-03,1.10E-02
119598,8.43E-03,1.09E-02
119599,8.46E-03,1.08E-02
119600,8.51E-03,1.08E-02
119601,8.56E-03,1.07E-02
119602,8.62E-03,1.06E-02
119603,8.70E-03,1.05E-02
119604,8.79E-03,1.04E-02
119605,8.92E-03,1.03E-02
119606,9.09E-03,1.02E-02
119607,9.31E-03,1.01E-02
119608,9.11E-03,1.00E-02
119609,8.40E-03,9.90E-03
119610,6.98E-03,9.81E-03
119611,6.15E-03,9.73E-03
119612,6.69E-03,9.65E-03
119613,7.11E-03,9.57E-03
119614,7.28E-03,9.48E-03
119615,7.41E-03,9.39E-03
119616,7.51E-03,9.31E-03
119617,7.59E-03,9.22E-03
119618,7.65E-03,9.13E-03
119619,7.70E-03,9.04E-03
119620,7.74E-03,8.95E-03
119621,7.79E-03,8.86E-03
119622,7.85E-03,8.77E-03
119623,7.87E-03,8.69E-03
119624,7.87E-03,8.60E-03
119625,7.87E-03,8.52E-03
119626,8.14E-03,8.44E-03
119627,8.51E-03,8.36E-03
119628,8.53E-03,8.28E-03
119629,8.40E-03,8.21E-03
119630,8.33E-03,8.14E-03
119631,8.37E-03,8.07E-03
119632,8.45E-03,8.01E-03
119633,8.50E-03,7.95E-03
119634,8.56E-03,7.90E-03
119635,8.63E-03,7.85E-03
119636,8.71E-03,7.81E-03
119637,8.83E-03,7.77E-03
119638,9.04E-03,7.74E-03
119639,9.25E-03,7.72E-03
119640,9.22E-03,7.70E-03
119641,8.76E-03,7.69E-03
119642,8.15E-03,7.68E-03
119643,7.89E-03,7.69E-03
119644,7.88E-03,7.71E-03
119645,7.89E-03,7.73E-03
119646,7.90E-03,7.77E-03
119647,7.90E-03,7.82E-03
119648,7.91E-03,7.88E-03
119649,7.91E-03,7.96E-03
119650,7.92E-03,8.05E-03
119651,7.93E-03,8.16E-03
119652,7.94E-03,8.27E-03
119653,7.94E-03,8.41E-03
119654,7.95E-03,8.56E-03
119655,7.95E-03,8.72E-03
119656,7.96E-03,8.90E-03
119657,7.96E-03,9.09E-03
119658,7.97E-03,9.30E-03
119659,7.98E-03,9.52E-03
119660,7.99E-03,9.74E-03
119661,8.00E-03,9.98E-03
119662,8.00E-03,1.02E-02
119663,8.28E-03,1.05E-02
119664,8.28E-03,1.07E-02
119665,8.37E-03,1.09E-02
119666,9.54E-03,1.12E-02
119667,9.63E-03,1.15E-02
119668,1.01E-02,1.17E-02
119669,1.04E-02,1.20E-02
119670,1.04E-02,1.22E-02
119671,1.15E-02,1.24E-02
119672,7.88E-03,1.25E-02
119673,8.44E-03,5.48E-03
119674,8.49E-03,5.56E-03
119675,8.32E-03,5.65E-03
119676,8.10E-03,5.73E-03
119677,7.93E-03,5.81E-03
119678,7.62E-03,5.87E-03
119679,7.38E-03,5.94E-03
119680,6.35E-03,6.03E-03
119681,9.09E-03,2.21E-02
119682,8.68E-03,2.15E-02
119683,7.59E-03,7.04E-03
119684,7.73E-03,6.96E-03
119685,5.95E-03,6.11E-03
119686,6.00E-03,6.02E-03
119687,8.15E-03,5.06E-03
119688,9.42E-03,1.76E-02
119689,1.00E-02,1.75E-02
119690,1.05E-02,1.74E-02
119691,1.04E-02,1.73E-02
119692,1.01E-02,1.72E-02
119693,9.70E-03,1.71E-02
119694,9.50E-03,1.70E-02
119695,9.35E-03,1.69E-02
119696,9.21E-03,1.68E-02
119697,8.94E-03,1.68E-02
119698,8.80E-03,1.67E-02
119699,8.62E-03,1.66E-02
119700,8.64E-03,1.65E-02
119701,8.67E-03,1.64E-02
119702,8.71E-03,1.63E-02
119703,8.76E-03,1.62E-02
119704,8.80E-03,1.61E-02
119705,8.82E-03,1.60E-02
119706,8.82E-03,1.60E-02
119707,8.82E-03,1.59E-02
119708,8.83E-03,1.58E-02
119709,8.84E-03,1.57E-02
119710,8.85E-03,1.56E-02
119711,8.87E-03,1.55E-02
119712,8.88E-03,1.54E-02
119713,8.89E-03,1.53E-02
119714,8.91E-03,1.52E-02
119715,8.92E-03,1.51E-02
119716,8.93E-03,1.50E-02
119717,8.94E-03,1.49E-02
119718,8.96E-03,1.48E-02
119719,8.97E-03,1.47E-02
119720,8.98E-03,1.46E-02
119721,9.00E-03,1.45E-02
119722,9.01E-03,1.44E-02
119723,9.03E-03,1.43E-02
119724,9.05E-03,1.41E-02
119725,9.07E-03,1.40E-02
119726,9.07E-03,1.39E-02
119727,9.07E-03,1.38E-02
119728,9.06E-03,1.37E-02
119729,9.03E-03,1.36E-02
119730,8.99E-03,1.35E-02
119731,8.93E-03,1.34E-02
119732,8.88E-03,1.33E-02
119733,8.83E-03,1.32E-02
119734,8.78E-03,1.31E-02
119735,8.75E-03,1.30E-02
119736,8.84E-03,1.29E-02
119737,8.93E-03,1.28E-02
119738,9.05E-03,1.28E-02
119739,9.40E-03,1.27E-02
119740,9.90E-03,1.26E-02
119741,6.79E-03,1.25E-02
119742,6.54E-03,1.26E-02
119743,8.53E-03,2.09E-02
119744,7.54E-03,6.50E-03
119745,8.15E-03,6.17E-03
119746,8.28E-03,6.18E-03
119747,7.93E-03,6.20E-03
119748,6.51E-03,3.58E-03
119749,8.59E-03,4.04E-03
119750,6.90E-03,8.68E-03
119751,6.82E-03,8.66E-03
119752,5.36E-03,1.88E-02
119753,7.06E-03,1.87E-02
119754,7.24E-03,1.86E-02
119755,7.83E-03,1.83E-02
119756,8.30E-03,2.61E-02
119757,9.02E-03,2.88E-02
119758,7.01E-03,2.83E-02
119759,7.99E-03,4.58E-03
119760,6.90E-03,4.05E-03
119761,8.39E-03,4.22E-03
119762,7.77E-03,8.31E-03
119763,8.79E-03,8.30E-03
119764,9.16E-03,8.28E-03
119765,4.80E-03,2.76E-03
119766,5.82E-03,2.70E-03
119767,8.16E-03,2.88E-03
119768,1.13E-02,3.32E-03
119769,6.49E-03,3.14E-03
119770,7.87E-03,7.18E-03
119771,7.91E-03,7.19E-03
119772,8.14E-03,7.20E-03
119773,5.26E-03,1.92E-02
119774,7.29E-03,1.96E-02
119775,7.56E-03,2.04E-02
119776,7.02E-03,2.01E-02
119777,7.51E-03,3.35E-02
119778,8.26E-03,3.78E-02
119779,6.52E-03,7.23E-03
119780,6.76E-03,7.23E-03
119781,7.07E-03,7.24E-03
119782,7.53E-03,7.30E-03
119783,6.85E-03,7.45E-03
119784,7.14E-03,7.44E-03
119785,6.47E-03,7.44E-03
119786,5.13E-03,7.44E-03
119787,5.58E-03,7.38E-03
119788,6.47E-03,3.09E-02
119789,5.09E-03,7.15E-03
119790,4.99E-03,7.15E-03
119791,7.59E-03,7.10E-03
119792,7.07E-03,3.62E-03
119793,6.36E-03,3.46E-03
119794,8.26E-03,3.24E-03
119795,7.28E-03,4.54E-03
119796,7.25E-03,4.38E-03
119797,7.57E-03,3.56E-03
119798,8.39E-03,1.89E-02
119799,9.28E-03,1.89E-02
119800,1.11E-02,1.91E-02
119801,5.86E-03,4.24E-03
119802,6.50E-03,3.92E-03
119803,9.69E-03,2.07E-02
119804,7.65E-03,1.91E-02
119805,9.41E-03,1.92E-02
119806,9.53E-03,1.92E-02
119807,9.43E-03,1.93E-02
119808,9.41E-03,1.94E-02
119809,9.28E-03,1.95E-02
119810,9.15E-03,1.96E-02
119811,8.94E-03,1.97E-02
119812,8.87E-03,1.97E-02
119813,8.82E-03,1.98E-02
119814,8.78E-03,1.99E-02
119815,8.71E-03,2.00E-02
119816,8.81E-03,2.01E-02
119817,8.90E-03,2.03E-02
119818,9.00E-03,2.04E-02
119819,9.30E-03,2.05E-02
119820,9.54E-03,2.06E-02
119821,9.47E-03,2.08E-02
119822,9.37E-03,2.09E-02
119823,9.03E-03,2.10E-02
119824,8.89E-03,2.12E-02
119825,8.68E-03,2.13E-02
119826,8.67E-03,2.15E-02
119827,8.54E-03,2.16E-02
119828,8.22E-03,2.17E-02
119829,8.10E-03,2.19E-02
119830,7.92E-03,2.20E-02
119831,7.60E-03,2.21E-02
119832,7.52E-03,2.23E-02
119833,7.48E-03,2.24E-02
119834,7.51E-03,2.25E-02
119835,7.32E-03,2.26E-02
119836,6.49E-03,2.27E-02
119837,4.88E-03,2.27E-02
119838,4.90E-03,2.28E-02
119839,7.43E-03,2.28E-02
119840,7.66E-03,2.29E-02
119841,5.10E-03,2.29E-02
119842,5.49E-03,2.30E-02
119843,6.43E-03,2.31E-02
119844,5.48E-03,2.28E-02
119845,9.05E-03,6.41E-03
119846,8.18E-03,6.24E-03
119847,6.05E-03,5.96E-03
119848,7.75E-03,1.88E-02
119849,7.39E-03,7.12E-03
119850,7.42E-03,9.12E-03
119851,5.66E-03,8.57E-03
119852,5.47E-03,8.48E-03
119853,8.02E-03,7.13E-03
119854,7.63E-03,4.66E-03
119855,6.93E-03,8.29E-03
119856,6.07E-03,8.19E-03
119857,9.31E-03,2.50E-02
119858,8.04E-03,1.04E-02
119859,7.04E-03,9.66E-03
119860,7.17E-03,1.91E-02
119861,7.12E-03,1.99E-02
119862,7.05E-03,3.19E-02
119863,7.49E-03,2.35E-02
119864,6.99E-03,7.04E-03
119865,6.89E-03,7.03E-03
119866,8.35E-03,1.79E-02
119867,8.64E-03,1.78E-02
119868,6.58E-03,3.84E-03
119869,4.33E-03,3.88E-03
119870,8.19E-03,1.74E-02
119871,8.01E-03,1.69E-02
119872,7.72E-03,1.64E-02
119873,7.58E-03,1.65E-02
119874,7.53E-03,1.61E-02
119875,7.49E-03,1.79E-02
119876,8.04E-03,1.90E-02
119877,7.41E-03,2.57E-03
119878,8.81E-03,2.10E-02
119879,9.26E-03,2.04E-02
119880,8.45E-03,1.99E-02
119881,8.20E-03,1.94E-02
119882,8.16E-03,1.88E-02
119883,8.21E-03,1.83E-02
119884,8.24E-03,1.79E-02
119885,7.81E-03,6.89E-03
119886,7.97E-03,6.80E-03
119887,8.11E-03,6.72E-03
119888,8.19E-03,6.63E-03
119889,8.51E-03,6.54E-03
119890,6.71E-03,5.96E-03
119891,5.62E-03,5.86E-03
119892,5.34E-03,5.70E-03
119893,6.60E-03,5.65E-03
119894,7.36E-03,5.61E-03
119895,7.49E-03,5.53E-03
119896,7.83E-03,5.46E-03
119897,8.03E-03,5.39E-03
119898,8.30E-03,5.31E-03
119899,8.40E-03,5.22E-03
119900,8.37E-03,5.15E-03
119901,8.65E-03,1.25E-02
119902,9.14E-03,1.24E-02
119903,9.54E-03,1.23E-02
119904,1.06E-02,1.21E-02
119905,1.05E-02,1.18E-02
119906,1.04E-02,1.16E-02
119907,9.63E-03,1.13E-02
119908,9.70E-03,1.10E-02
119909,8.22E-03,1.07E-02
119910,8.23E-03,1.05E-02
119911,8.20E-03,1.02E-02
119912,8.00E-03,9.94E-03
119913,8.00E-03,9.69E-03
119914,8.00E-03,9.44E-03
119915,7.99E-03,9.20E-03
119916,7.98E-03,8.97E-03
119917,7.97E-03,8.75E-03
119918,7.96E-03,8.55E-03
119919,7.96E-03,8.36E-03
119920,7.96E-03,8.19E-03
119921,7.95E-03,8.04E-03
119922,7.94E-03,7.90E-03
119923,7.94E-03,7.78E-03
119924,7.93E-03,7.68E-03
119925,7.92E-03,7.59E-03
119926,7.92E-03,7.52E-03
119927,7.91E-03,7.46E-03
119928,7.91E-03,7.42E-03
119929,7.90E-03,7.39E-03
119930,7.90E-03,7.37E-03
119931,7.90E-03,7.36E-03
119932,8.15E-03,7.36E-03
119933,8.73E-03,7.37E-03
119934,9.15E-03,7.39E-03
119935,9.18E-03,7.41E-03
119936,8.98E-03,7.45E-03
119937,8.79E-03,7.49E-03
119938,8.68E-03,7.53E-03
119939,8.60E-03,7.58E-03
119940,8.53E-03,7.64E-03
119941,8.48E-03,7.70E-03
119942,8.43E-03,7.76E-03
119943,8.35E-03,7.83E-03
119944,8.32E-03,7.90E-03
119945,8.38E-03,7.98E-03
119946,8.50E-03,8.06E-03
119947,8.49E-03,8.15E-03
119948,8.14E-03,8.23E-03
119949,7.89E-03,8.32E-03
119950,7.88E-03,8.41E-03
119951,7.88E-03,8.50E-03
119952,7.86E-03,8.59E-03
119953,7.81E-03,8.68E-03
119954,7.76E-03,8.78E-03
119955,7.72E-03,8.87E-03
119956,7.67E-03,8.97E-03
119957,7.61E-03,9.07E-03
119958,7.54E-03,9.16E-03
119959,7.45E-03,9.26E-03
119960,7.33E-03,9.35E-03
119961,7.16E-03,9.44E-03
119962,6.77E-03,9.53E-03
119963,6.26E-03,9.61E-03
119964,7.04E-03,9.70E-03
119965,8.38E-03,9.79E-03
119966,9.05E-03,9.90E-03
119967,9.24E-03,1.00E-02
119968,9.03E-03,1.01E-02
119969,8.87E-03,1.02E-02
119970,8.75E-03,1.03E-02
119971,8.66E-03,1.04E-02
119972,8.59E-03,1.05E-02
119973,8.53E-03,1.06E-02
119974,8.48E-03,1.07E-02
119975,8.44E-03,1.08E-02
119976,8.41E-03,1.09E-02
119977,8.39E-03,1.10E-02
119978,8.96E-03,1.10E-02
119979,9.74E-03,1.11E-02
119980,9.64E-03,1.12E-02
119981,9.16E-03,1.13E-02
119982,8.87E-03,1.14E-02
119983,8.70E-03,1.15E-02
119984,8.58E-03,1.16E-02
119985,8.50E-03,1.17E-02
119986,8.43E-03,1.18E-02
119987,8.38E-03,1.19E-02
119988,8.35E-03,1.19E-02
119989,8.31E-03,1.20E-02
119990,8.29E-03,1.21E-02
119991,8.27E-03,1.22E-02
119992,8.25E-03,1.23E-02
119993,8.24E-03,1.24E-02
119994,8.22E-03,1.24E-02
119995,8.21E-03,1.25E-02
119996,8.20E-03,1.26E-02
119997,8.19E-03,1.27E-02
119998,8.19E-03,1.28E-02
119999,8.18E-03,1.28E-02
120000,8.17E-03,1.29E-02
120001,8.17E-03,1.30E-02
120002,8.16E-03,1.31E-02
120003,8.16E-03,1.31E-02
120004,8.15E-03,1.32E-02
120005,8.15E-03,1.33E-02
120006,8.15E-03,1.33E-02
120007,8.14E-03,1.34E-02
120008,8.14E-03,1.35E-02
120009,8.14E-03,1.36E-02
120010,8.14E-03,1.36E-02
120011,8.13E-03,1.37E-02
120012,8.13E-03,1.38E-02
120013,8.13E-03,1.38E-02
120014,8.13E-03,1.39E-02
120015,8.12E-03,1.39E-02
120016,8.12E-03,1.40E-02
120017,8.12E-03,1.41E-02
120018,8.12E-03,1.41E-02
120019,8.12E-03,1.42E-02
120020,8.11E-03,1.43E-02
120021,8.11E-03,1.43E-02
120022,8.11E-03,1.44E-02
120023,8.11E-03,1.44E-02
120024,8.11E-03,1.45E-02
120025,8.11E-03,1.46E-02
120026,8.11E-03,1.46E-02
120027,8.11E-03,1.47E-02
120028,8.11E-03,1.47E-02
120029,8.11E-03,1.48E-02
120030,8.11E-03,1.49E-02
120031,8.11E-03,1.49E-02
120032,8.11E-03,1.50E-02
120033,8.11E-03,1.50E-02
120034,8.11E-03,1.51E-02
120035,8.11E-03,1.51E-02
120036,8.11E-03,1.52E-02
120037,8.11E-03,1.53E-02
120038,8.11E-03,1.53E-02
120039,8.11E-03,1.54E-02
120040,8.10E-03,1.54E-02
120041,8.10E-03,1.55E-02
120042,8.10E-03,1.55E-02
120043,8.10E-03,1.56E-02
120044,8.10E-03,1.57E-02
120045,8.10E-03,1.57E-02
120046,8.10E-03,1.58E-02
120047,8.10E-03,1.58E-02
120048,8.10E-03,1.59E-02
120049,8.10E-03,1.59E-02
120050,8.10E-03,1.60E-02
120051,8.10E-03,1.60E-02
120052,8.11E-03,1.61E-02
120053,8.11E-03,1.61E-02
120054,8.11E-03,1.62E-02
120055,8.11E-03,1.62E-02
120056,8.11E-03,1.63E-02
120057,8.12E-03,1.63E-02
120058,8.12E-03,1.64E-02
120059,8.12E-03,1.64E-02
120060,8.12E-03,1.65E-02
120061,8.12E-03,1.65E-02
120062,8.13E-03,1.66E-02
120063,8.13E-03,1.66E-02
120064,8.13E-03,1.67E-02
120065,8.13E-03,1.67E-02
120066,8.14E-03,1.68E-02
120067,8.14E-03,1.68E-02
120068,8.14E-03,1.69E-02
120069,8.15E-03,1.69E-02
120070,8.15E-03,1.70E-02
120071,8.16E-03,1.70E-02
120072,8.16E-03,1.71E-02
120073,8.17E-03,1.71E-02
120074,8.18E-03,1.72E-02
120075,8.19E-03,1.72E-02
120076,8.20E-03,1.73E-02
120077,8.22E-03,1.73E-02
120078,8.24E-03,1.73E-02
120079,8.26E-03,1.74E-02
120080,8.28E-03,1.74E-02
120081,8.31E-03,1.75E-02
120082,8.34E-03,1.75E-02
120083,8.39E-03,1.76E-02
120084,8.45E-03,1.76E-02
120085,8.53E-03,1.77E-02
120086,8.65E-03,1.78E-02
120087,8.83E-03,1.78E-02
120088,9.12E-03,1.79E-02
120089,9.03E-03,1.79E-02
120090,7.93E-03,1.80E-02
120091,7.22E-03,1.81E-02
120092,7.42E-03,1.81E-02
120093,7.56E-03,1.82E-02
120094,7.66E-03,1.82E-02
120095,7.73E-03,1.83E-02
120096,7.78E-03,1.83E-02
120097,7.82E-03,1.84E-02
120098,7.85E-03,1.84E-02
120099,7.88E-03,1.85E-02
120100,7.90E-03,1.85E-02
120101,7.92E-03,1.86E-02
120102,7.93E-03,1.86E-02
120103,7.94E-03,1.87E-02
120104,7.96E-03,1.87E-02
120105,7.97E-03,1.88E-02
120106,7.97E-03,1.88E-02
120107,7.98E-03,1.89E-02
120108,7.99E-03,1.89E-02
120109,7.99E-03,1.90E-02
120110,8.00E-03,1.90E-02
120111,8.00E-03,1.91E-02
120112,8.01E-03,1.92E-02
120113,8.01E-03,1.92E-02
120114,8.02E-03,1.93E-02
120115,8.02E-03,1.93E-02
120116,8.02E-03,1.94E-02
120117,8.01E-03,1.94E-02
120118,8.02E-03,1.95E-02
120119,8.03E-03,1.95E-02
120120,8.04E-03,1.96E-02
120121,8.04E-03,1.96E-02
120122,8.05E-03,1.97E-02
120123,8.05E-03,1.97E-02
120124,8.06E-03,1.98E-02
120125,8.06E-03,1.98E-02
120126,8.06E-03,1.99E-02
120127,8.09E-03,1.99E-02
120128,8.12E-03,2.00E-02
120129,8.14E-03,2.00E-02
120130,8.14E-03,2.01E-02
120131,8.15E-03,2.01E-02
120132,8.15E-03,2.01E-02
120133,8.16E-03,2.02E-02
120134,8.16E-03,2.02E-02
120135,8.17E-03,2.03E-02
120136,8.17E-03,2.03E-02
120137,8.18E-03,2.03E-02
120138,8.19E-03,2.04E-02
120139,8.20E-03,2.04E-02
120140,8.21E-03,2.04E-02
120141,8.22E-03,2.05E-02
120142,8.23E-03,2.05E-02
120143,8.25E-03,2.05E-02
120144,8.27E-03,2.05E-02
120145,8.30E-03,2.05E-02
120146,8.33E-03,2.06E-02
120147,8.37E-03,2.06E-02
120148,8.47E-03,2.06E-02
120149,8.56E-03,2.06E-02
120150,8.84E-03,2.07E-02
120151,8.91E-03,2.07E-02
120152,9.00E-03,2.07E-02
120153,9.15E-03,2.08E-02
120154,9.15E-03,2.08E-02
120155,7.81E-03,6.46E-03
120156,8.49E-03,6.44E-03
120157,9.06E-03,6.42E-03
120158,9.62E-03,6.40E-03
120159,9.96E-03,6.38E-03
120160,9.35E-03,6.36E-03
120161,6.78E-03,6.34E-03
120162,6.69E-03,6.31E-03
120163,6.49E-03,6.29E-03
120164,6.21E-03,6.27E-03
120165,5.99E-03,6.26E-03
120166,5.72E-03,6.25E-03
120167,5.68E-03,6.25E-03
120168,5.89E-03,6.24E-03
120169,7.69E-03,6.23E-03
120170,7.85E-03,6.21E-03
120171,7.90E-03,3.56E-03
120172,8.33E-03,3.62E-03
120173,1.03E-02,3.67E-03
120174,9.02E-03,3.70E-03
120175,7.17E-03,3.72E-03
120176,7.00E-03,3.74E-03
120177,6.77E-03,3.77E-03
120178,6.52E-03,3.81E-03
120179,5.90E-03,3.85E-03
120180,5.89E-03,3.89E-03
120181,5.98E-03,3.94E-03
120182,7.15E-03,8.35E-03
120183,7.58E-03,8.54E-03
120184,7.12E-03,8.62E-03
120185,7.47E-03,1.85E-02
120186,8.10E-03,2.66E-02
120187,7.35E-03,2.72E-02
120188,6.71E-03,2.77E-02
120189,9.04E-03,4.44E-03
120190,7.98E-03,8.21E-03
120191,9.07E-03,8.23E-03
120192,9.45E-03,8.23E-03
120193,1.02E-02,8.24E-03
120194,1.00E-02,8.26E-03
120195,8.37E-03,6.15E-03
120196,9.26E-03,6.11E-03
120197,9.29E-03,6.08E-03
120198,9.57E-03,6.05E-03
120199,9.33E-03,6.02E-03
120200,9.14E-03,5.99E-03
120201,8.89E-03,5.96E-03
120202,8.76E-03,5.92E-03
120203,8.63E-03,5.89E-03
120204,8.48E-03,5.85E-03
120205,8.15E-03,5.82E-03
120206,7.85E-03,5.78E-03
120207,7.76E-03,5.75E-03
120208,7.74E-03,5.72E-03
120209,7.69E-03,5.68E-03
120210,7.63E-03,5.65E-03
120211,7.56E-03,5.61E-03
120212,7.46E-03,5.58E-03
120213,7.33E-03,5.55E-03
120214,7.16E-03,5.51E-03
120215,6.90E-03,5.48E-03
120216,6.45E-03,5.45E-03
120217,5.84E-03,5.43E-03
120218,5.99E-03,5.41E-03
120219,6.70E-03,5.39E-03
120220,6.74E-03,5.37E-03
120221,6.81E-03,5.35E-03
120222,6.93E-03,5.33E-03
120223,7.10E-03,5.32E-03
120224,7.60E-03,5.30E-03
120225,9.37E-03,5.28E-03
120226,9.63E-03,5.26E-03
120227,9.83E-03,5.24E-03
120228,9.83E-03,5.22E-03
120229,9.81E-03,5.19E-03
120230,9.58E-03,5.16E-03
120231,9.18E-03,5.13E-03
120232,9.08E-03,5.10E-03
120233,8.01E-03,5.07E-03
120234,7.49E-03,5.04E-03
120235,7.32E-03,5.02E-03
120236,7.21E-03,4.99E-03
120237,7.08E-03,4.97E-03
120238,6.91E-03,4.95E-03
120239,6.69E-03,4.93E-03
120240,6.41E-03,4.91E-03
120241,6.54E-03,4.90E-03
120242,6.94E-03,4.89E-03
120243,7.11E-03,4.87E-03
120244,7.11E-03,4.86E-03
120245,7.06E-03,4.86E-03
120246,7.03E-03,4.85E-03
120247,7.81E-03,4.84E-03
120248,8.98E-03,4.84E-03
120249,9.28E-03,4.83E-03
120250,9.13E-03,4.82E-03
120251,9.00E-03,4.81E-03
120252,8.86E-03,4.80E-03
120253,8.62E-03,4.79E-03
120254,8.32E-03,4.77E-03
120255,8.10E-03,4.76E-03
120256,8.06E-03,4.75E-03
120257,8.10E-03,4.73E-03
120258,8.10E-03,4.72E-03
120259,8.19E-03,4.71E-03
120260,8.92E-03,4.69E-03
120261,9.49E-03,4.68E-03
120262,9.28E-03,4.66E-03
120263,9.00E-03,4.64E-03
120264,8.82E-03,4.62E-03
120265,8.83E-03,4.60E-03
120266,8.99E-03,4.57E-03
120267,9.28E-03,4.55E-03
120268,9.67E-03,4.52E-03
120269,9.76E-03,4.49E-03
120270,9.45E-03,4.45E-03
120271,9.14E-03,4.41E-03
120272,8.93E-03,4.37E-03
120273,8.79E-03,4.32E-03
120274,8.72E-03,4.28E-03
120275,8.71E-03,4.24E-03
120276,8.62E-03,4.19E-03
120277,8.47E-03,4.14E-03
120278,8.37E-03,4.10E-03
120279,8.31E-03,4.05E-03
120280,8.27E-03,4.00E-03
120281,8.24E-03,3.95E-03
120282,8.22E-03,3.90E-03
120283,8.21E-03,3.85E-03
120284,8.14E-03,3.80E-03
120285,7.98E-03,3.76E-03
120286,7.89E-03,3.71E-03
120287,7.87E-03,3.66E-03
120288,7.86E-03,3.61E-03
120289,7.84E-03,3.57E-03
120290,7.82E-03,3.52E-03
120291,7.79E-03,3.47E-03
120292,7.77E-03,3.43E-03
120293,7.73E-03,3.39E-03
120294,7.70E-03,3.34E-03
120295,7.65E-03,3.30E-03
120296,7.60E-03,3.26E-03
120297,7.54E-03,3.22E-03
120298,7.46E-03,3.18E-03
120299,7.35E-03,3.14E-03
120300,7.32E-03,3.11E-03
120301,7.44E-03,3.07E-03
120302,7.54E-03,3.04E-03
120303,7.55E-03,3.01E-03
120304,7.48E-03,2.98E-03
120305,7.41E-03,2.95E-03
120306,7.30E-03,2.92E-03
120307,7.10E-03,2.89E-03
120308,7.06E-03,2.87E-03
120309,7.21E-03,2.84E-03
120310,7.33E-03,2.82E-03
120311,7.46E-03,2.80E-03
120312,7.48E-03,2.78E-03
120313,7.21E-03,2.76E-03
120314,7.16E-03,2.74E-03
120315,7.07E-03,2.72E-03
120316,6.85E-03,2.70E-03
120317,6.49E-03,2.70E-03
120318,8.23E-03,2.88E-03
120319,8.34E-03,2.90E-03
120320,8.31E-03,2.91E-03
120321,8.23E-03,2.95E-03
120322,7.04E-03,2.96E-03
120323,4.91E-03,3.02E-03
120324,6.48E-03,2.95E-03
120325,8.69E-03,7.20E-03
120326,6.17E-03,7.20E-03
120327,4.74E-03,7.18E-03
120328,5.73E-03,7.20E-03
120329,6.26E-03,7.22E-03
120330,6.19E-03,1.93E-02
120331,6.52E-03,1.95E-02
120332,7.40E-03,2.02E-02
120333,1.07E-02,2.22E-02
120334,7.28E-03,2.26E-02
120335,1.08E-02,2.24E-02
120336,8.09E-03,3.45E-02
120337,8.42E-03,3.54E-02
120338,8.59E-03,3.66E-02
120339,7.08E-03,7.24E-03
120340,7.15E-03,7.24E-03
120341,7.11E-03,7.24E-03
120342,6.81E-03,7.26E-03
120343,6.75E-03,7.26E-03
120344,6.51E-03,7.27E-03
120345,7.91E-03,7.32E-03
120346,7.66E-03,7.30E-03
120347,5.38E-03,7.31E-03
120348,6.96E-03,7.31E-03
120349,6.36E-03,3.15E-02
120350,6.47E-03,7.16E-03
120351,6.65E-03,7.14E-03
120352,6.18E-03,3.37E-03
120353,6.02E-03,3.30E-03
120354,5.93E-03,3.26E-03
120355,5.83E-03,3.25E-03
120356,7.85E-03,3.24E-03
120357,8.17E-03,3.24E-03
120358,5.80E-03,4.11E-03
120359,8.69E-03,3.71E-03
120360,1.00E-02,1.90E-02
120361,8.49E-03,2.30E-02
120362,1.01E-02,2.28E-02
120363,7.34E-03,5.98E-03
120364,5.40E-03,5.74E-03
120365,5.49E-03,7.08E-03
120366,7.41E-03,1.86E-02
120367,7.21E-03,1.85E-02
120368,7.21E-03,1.84E-02
120369,7.31E-03,1.82E-02
120370,7.39E-03,1.80E-02
120371,7.61E-03,1.79E-02
120372,7.82E-03,1.77E-02
120373,8.06E-03,1.75E-02
120374,8.29E-03,1.73E-02
120375,8.35E-03,1.72E-02
120376,8.37E-03,1.70E-02
120377,8.51E-03,1.68E-02
120378,8.65E-03,1.66E-02
120379,8.79E-03,1.65E-02
120380,9.04E-03,1.63E-02
120381,9.32E-03,1.61E-02
120382,9.59E-03,1.60E-02
120383,9.87E-03,1.58E-02
120384,1.01E-02,1.57E-02
120385,1.04E-02,1.55E-02
120386,1.04E-02,1.54E-02
120387,1.01E-02,1.53E-02
120388,9.88E-03,1.51E-02
120389,8.42E-03,1.50E-02
120390,8.49E-03,1.49E-02
120391,8.07E-03,1.48E-02
120392,6.55E-03,1.47E-02
120393,6.46E-03,1.46E-02
120394,6.28E-03,1.45E-02
120395,6.34E-03,1.44E-02
120396,6.92E-03,1.43E-02
120397,6.93E-03,1.42E-02
120398,7.34E-03,1.41E-02
120399,7.61E-03,1.40E-02
120400,7.83E-03,1.39E-02
120401,7.88E-03,1.37E-02
120402,7.92E-03,1.36E-02
120403,7.94E-03,1.35E-02
120404,7.95E-03,1.33E-02
120405,7.95E-03,1.32E-02
120406,7.95E-03,1.31E-02
120407,7.97E-03,1.30E-02
120408,8.25E-03,1.28E-02
120409,8.52E-03,1.27E-02
120410,8.45E-03,1.26E-02
120411,8.34E-03,1.25E-02
120412,8.29E-03,1.23E-02
120413,8.33E-03,1.22E-02
120414,8.41E-03,1.21E-02
120415,8.45E-03,1.20E-02
120416,8.51E-03,1.19E-02
120417,8.65E-03,1.18E-02
120418,8.72E-03,1.17E-02
120419,8.83E-03,1.16E-02
120420,8.96E-03,1.15E-02
120421,9.27E-03,1.14E-02
120422,9.27E-03,1.13E-02
120423,9.78E-03,1.12E-02
120424,9.87E-03,1.11E-02
120425,9.90E-03,1.10E-02
120426,1.03E-02,1.09E-02
120427,1.07E-02,1.07E-02
120428,1.07E-02,1.06E-02
120429,1.05E-02,1.05E-02
120430,8.98E-03,1.04E-02
120431,8.40E-03,1.03E-02
120432,8.32E-03,1.02E-02
120433,8.26E-03,1.01E-02
120434,7.98E-03,9.97E-03
120435,7.59E-03,9.88E-03
120436,7.50E-03,9.79E-03
120437,7.52E-03,9.71E-03
120438,7.70E-03,9.62E-03
120439,7.77E-03,9.53E-03
120440,7.81E-03,9.45E-03
120441,7.85E-03,9.36E-03
120442,7.88E-03,9.27E-03
120443,7.91E-03,9.19E-03
120444,7.93E-03,9.11E-03
120445,7.94E-03,9.03E-03
120446,7.96E-03,8.95E-03
120447,7.97E-03,8.88E-03
120448,7.98E-03,8.81E-03
120449,8.01E-03,8.74E-03
120450,8.03E-03,8.67E-03
120451,8.03E-03,8.60E-03
120452,8.02E-03,8.54E-03
120453,8.02E-03,8.47E-03
120454,8.02E-03,8.41E-03
120455,8.01E-03,8.36E-03
120456,8.01E-03,8.30E-03
120457,8.01E-03,8.24E-03
120458,8.00E-03,8.19E-03
120459,8.00E-03,8.14E-03
120460,8.00E-03,8.09E-03
120461,7.99E-03,8.04E-03
120462,7.99E-03,7.99E-03
120463,7.98E-03,7.94E-03
120464,7.97E-03,7.90E-03
120465,7.97E-03,7.85E-03
120466,7.96E-03,7.81E-03
120467,7.96E-03,7.77E-03
120468,7.95E-03,7.73E-03
120469,7.94E-03,7.69E-03
120470,7.92E-03,7.65E-03
120471,7.88E-03,7.62E-03
120472,7.84E-03,7.58E-03
120473,7.80E-03,7.55E-03
120474,7.75E-03,7.51E-03
120475,7.47E-03,7.48E-03
120476,7.35E-03,7.45E-03
120477,7.29E-03,7.41E-03
120478,7.32E-03,7.39E-03
120479,7.83E-03,7.35E-03
120480,7.27E-03,7.30E-03
120481,9.20E-03,7.19E-03
120482,9.18E-03,7.26E-03
120483,8.99E-03,7.31E-03
120484,8.95E-03,7.37E-03
120485,8.67E-03,7.41E-03
120486,8.29E-03,7.46E-03
120487,8.17E-03,7.50E-03
120488,8.13E-03,7.55E-03
120489,8.11E-03,7.59E-03
120490,8.03E-03,7.63E-03
120491,7.94E-03,7.68E-03
120492,7.73E-03,7.72E-03
120493,7.70E-03,7.76E-03
120494,7.56E-03,7.80E-03
120495,7.48E-03,7.84E-03
120496,7.51E-03,7.89E-03
120497,7.88E-03,7.92E-03
120498,9.29E-03,7.98E-03
120499,7.12E-03,9.19E-03
120500,6.39E-03,9.33E-03
120501,5.45E-03,9.38E-03
120502,6.72E-03,8.56E-03
120503,8.16E-03,1.83E-02
120504,8.80E-03,7.11E-03
120505,8.85E-03,7.11E-03
120506,9.03E-03,7.10E-03
120507,8.92E-03,7.09E-03
120508,8.76E-03,7.09E-03
120509,8.50E-03,7.08E-03
120510,7.98E-03,7.07E-03
120511,7.11E-03,7.06E-03
120512,7.04E-03,7.05E-03
120513,7.19E-03,7.04E-03
120514,7.06E-03,7.03E-03
120515,6.96E-03,7.02E-03
120516,6.65E-03,7.01E-03
120517,6.12E-03,7.00E-03
120518,5.99E-03,6.99E-03
120519,6.24E-03,6.98E-03
120520,7.45E-03,6.97E-03
120521,7.58E-03,6.96E-03
120522,7.93E-03,6.95E-03
120523,8.07E-03,6.93E-03
120524,8.06E-03,6.92E-03
120525,7.85E-03,6.90E-03
120526,7.56E-03,6.88E-03
120527,7.41E-03,6.87E-03
120528,7.29E-03,6.85E-03
120529,7.11E-03,6.84E-03
120530,6.88E-03,6.82E-03
120531,7.49E-03,6.81E-03
120532,8.81E-03,6.80E-03
120533,9.79E-03,6.79E-03
120534,1.01E-02,6.77E-03
120535,9.77E-03,6.75E-03
120536,9.40E-03,6.74E-03
120537,9.05E-03,6.72E-03
120538,8.34E-03,6.70E-03
120539,7.78E-03,6.68E-03
120540,7.39E-03,6.66E-03
120541,6.64E-03,6.65E-03
120542,6.30E-03,6.64E-03
120543,6.16E-03,6.63E-03
120544,6.51E-03,6.62E-03
120545,8.03E-03,6.61E-03
120546,9.36E-03,6.60E-03
120547,1.01E-02,6.59E-03
120548,9.95E-03,6.58E-03
120549,9.44E-03,6.56E-03
120550,8.78E-03,6.54E-03
120551,7.34E-03,6.53E-03
120552,6.95E-03,6.51E-03
120553,6.59E-03,6.49E-03
120554,6.49E-03,6.47E-03
120555,6.30E-03,6.45E-03
120556,6.01E-03,6.43E-03
120557,5.58E-03,6.40E-03
120558,7.57E-03,6.37E-03
120559,7.65E-03,2.12E-02
120560,8.32E-03,2.12E-02
120561,9.21E-03,2.21E-02
120562,9.04E-03,2.15E-02
120563,8.55E-03,2.10E-02
120564,7.53E-03,6.66E-03
120565,7.42E-03,6.59E-03
120566,8.32E-03,6.05E-03
120567,6.18E-03,5.85E-03
120568,8.10E-03,4.73E-03
120569,8.54E-03,2.11E-02
120570,7.95E-03,6.33E-03
120571,8.36E-03,6.00E-03
120572,8.37E-03,6.02E-03
120573,7.75E-03,3.69E-03
120574,9.42E-03,7.79E-03
120575,7.76E-03,7.83E-03
120576,6.65E-03,8.22E-03
120577,8.67E-03,1.89E-02
120578,7.39E-03,1.87E-02
120579,7.45E-03,1.86E-02
120580,7.78E-03,1.84E-02
120581,8.56E-03,2.55E-02
120582,6.03E-03,2.80E-02
120583,6.36E-03,2.76E-02
120584,6.84E-03,8.58E-03
120585,5.50E-03,9.20E-03
120586,7.46E-03,4.30E-03
120587,7.33E-03,9.81E-03
120588,6.59E-03,9.75E-03
120589,9.68E-03,7.91E-03
120590,9.70E-03,7.80E-03
120591,7.63E-03,6.74E-03
120592,5.40E-03,2.73E-03
120593,5.66E-03,2.59E-03
120594,6.67E-03,2.45E-03
120595,1.03E-02,3.13E-03
120596,8.54E-03,2.92E-03
120597,7.15E-03,7.06E-03
120598,7.58E-03,7.08E-03
120599,7.78E-03,7.08E-03
120600,7.09E-03,1.92E-02
120601,6.73E-03,1.98E-02
120602,6.97E-03,1.96E-02
120603,8.17E-03,2.04E-02
120604,7.23E-03,2.01E-02
120605,5.78E-03,2.12E-02
120606,6.25E-03,2.13E-02
120607,6.33E-03,2.14E-02
120608,6.48E-03,2.14E-02
120609,6.59E-03,2.15E-02
120610,6.74E-03,2.15E-02
120611,7.29E-03,2.15E-02
120612,8.03E-03,2.16E-02
120613,8.32E-03,2.16E-02
120614,8.52E-03,2.17E-02
120615,8.62E-03,2.17E-02
120616,8.69E-03,2.18E-02
120617,8.78E-03,2.18E-02
120618,8.97E-03,2.19E-02
120619,9.18E-03,2.20E-02
120620,9.30E-03,2.20E-02
120621,9.61E-03,2.21E-02
120622,6.54E-03,2.21E-02
120623,6.69E-03,2.22E-02
120624,5.82E-03,2.22E-02
120625,6.10E-03,2.23E-02
120626,6.57E-03,2.23E-02
120627,6.64E-03,2.23E-02
120628,6.98E-03,2.24E-02
120629,7.39E-03,2.24E-02
120630,7.54E-03,2.24E-02
120631,7.68E-03,2.25E-02
120632,7.74E-03,2.25E-02
120633,7.79E-03,2.26E-02
120634,7.82E-03,2.26E-02
120635,7.85E-03,2.26E-02
120636,7.88E-03,2.27E-02
120637,7.90E-03,2.27E-02
120638,7.91E-03,2.27E-02
120639,7.93E-03,2.28E-02
120640,7.94E-03,2.28E-02
120641,7.92E-03,2.28E-02
120642,7.92E-03,2.29E-02
120643,7.97E-03,2.29E-02
120644,8.01E-03,2.30E-02
120645,8.03E-03,2.30E-02
120646,8.04E-03,2.31E-02
120647,8.05E-03,2.31E-02
120648,8.06E-03,2.31E-02
120649,8.09E-03,2.32E-02
120650,8.13E-03,2.32E-02
120651,8.14E-03,2.33E-02
120652,8.14E-03,2.34E-02
120653,8.14E-03,2.34E-02
120654,8.15E-03,2.35E-02
120655,8.15E-03,2.35E-02
120656,8.15E-03,2.36E-02
120657,8.16E-03,2.36E-02
120658,8.16E-03,2.37E-02
120659,8.17E-03,2.37E-02
120660,8.17E-03,2.38E-02
120661,8.17E-03,2.38E-02
120662,8.18E-03,2.39E-02
120663,8.18E-03,2.39E-02
120664,8.19E-03,2.40E-02
120665,8.20E-03,2.40E-02
120666,8.20E-03,2.41E-02
120667,8.21E-03,2.41E-02
120668,8.22E-03,2.42E-02
120669,8.23E-03,2.42E-02
120670,8.24E-03,2.43E-02
120671,8.25E-03,2.43E-02
120672,8.26E-03,2.43E-02
120673,8.28E-03,2.44E-02
120674,8.30E-03,2.44E-02
120675,8.32E-03,2.44E-02
120676,8.34E-03,2.44E-02
120677,8.37E-03,2.45E-02
120678,8.39E-03,2.45E-02
120679,8.41E-03,2.45E-02
120680,8.42E-03,2.45E-02
120681,8.43E-03,2.45E-02
120682,8.44E-03,2.45E-02
120683,8.45E-03,2.45E-02
120684,8.50E-03,2.45E-02
120685,8.58E-03,2.45E-02
120686,8.66E-03,2.45E-02
120687,8.77E-03,2.45E-02
120688,8.91E-03,2.45E-02
120689,9.11E-03,2.45E-02
120690,9.42E-03,2.45E-02
120691,9.88E-03,2.46E-02
120692,1.03E-02,2.46E-02
120693,1.03E-02,2.47E-02
120694,9.97E-03,2.47E-02
120695,9.73E-03,2.48E-02
120696,9.54E-03,2.49E-02
120697,9.76E-03,2.50E-02
120698,1.01E-02,2.51E-02
120699,9.54E-03,2.52E-02
120700,8.71E-03,2.54E-02
120701,8.44E-03,2.55E-02
120702,8.21E-03,2.56E-02
120703,7.97E-03,2.57E-02
120704,7.82E-03,2.58E-02
120705,7.51E-03,2.59E-02
120706,6.20E-03,2.60E-02
120707,5.72E-03,2.60E-02
120708,6.51E-03,2.61E-02
120709,6.85E-03,2.61E-02
120710,6.75E-03,2.62E-02
120711,6.41E-03,2.62E-02
120712,5.38E-03,2.63E-02
120713,5.39E-03,2.63E-02
120714,6.21E-03,2.63E-02
120715,6.74E-03,2.63E-02
120716,7.06E-03,2.63E-02
120717,7.34E-03,2.63E-02
120718,7.51E-03,2.63E-02
120719,7.54E-03,2.63E-02
120720,7.54E-03,2.63E-02
120721,7.55E-03,2.63E-02
120722,7.55E-03,2.63E-02
120723,7.55E-03,2.63E-02
120724,7.71E-03,2.63E-02
120725,7.99E-03,2.62E-02
120726,8.11E-03,2.62E-02
120727,8.12E-03,2.62E-02
120728,8.12E-03,2.62E-02
120729,8.13E-03,2.62E-02
120730,8.17E-03,2.62E-02
120731,8.21E-03,2.62E-02
120732,8.25E-03,2.62E-02
120733,8.26E-03,2.62E-02
120734,8.27E-03,2.62E-02
120735,8.28E-03,2.62E-02
120736,8.29E-03,2.62E-02
120737,8.30E-03,2.62E-02
120738,8.32E-03,2.62E-02
120739,8.33E-03,2.62E-02
120740,8.35E-03,2.62E-02
120741,8.37E-03,2.62E-02
120742,8.40E-03,2.62E-02
120743,8.42E-03,2.62E-02
120744,8.45E-03,2.63E-02
120745,8.49E-03,2.63E-02
120746,8.53E-03,2.63E-02
120747,8.57E-03,2.63E-02
120748,8.62E-03,2.63E-02
120749,8.67E-03,2.64E-02
120750,8.71E-03,2.64E-02
120751,8.78E-03,2.64E-02
120752,8.86E-03,2.65E-02
120753,8.95E-03,2.65E-02
120754,9.06E-03,2.66E-02
120755,9.19E-03,2.67E-02
120756,9.36E-03,2.68E-02
120757,9.55E-03,2.69E-02
120758,9.59E-03,2.70E-02
120759,9.46E-03,2.72E-02
120760,9.42E-03,2.73E-02
120761,9.69E-03,2.75E-02
120762,9.92E-03,2.76E-02
120763,1.00E-02,2.78E-02
120764,6.32E-03,2.80E-02
120765,6.40E-03,2.81E-02
120766,5.75E-03,2.82E-02
120767,5.99E-03,2.83E-02
120768,5.89E-03,2.84E-02
120769,5.69E-03,2.85E-02
120770,5.34E-03,2.85E-02
120771,5.20E-03,2.86E-02
120772,5.63E-03,2.87E-02
120773,5.94E-03,2.87E-02
120774,6.47E-03,2.88E-02
120775,6.70E-03,2.88E-02
120776,6.91E-03,2.89E-02
120777,7.14E-03,2.89E-02
120778,7.37E-03,2.89E-02
120779,7.45E-03,2.90E-02
120780,7.57E-03,2.90E-02
120781,7.82E-03,2.90E-02
120782,7.85E-03,2.91E-02
120783,7.88E-03,2.91E-02
120784,7.90E-03,2.92E-02
120785,7.92E-03,2.92E-02
120786,7.94E-03,2.93E-02
120787,7.95E-03,2.93E-02
120788,7.96E-03,2.94E-02
120789,7.97E-03,2.95E-02
120790,7.98E-03,2.95E-02
120791,7.99E-03,2.96E-02
120792,7.99E-03,2.97E-02
120793,8.00E-03,2.98E-02
120794,8.01E-03,2.99E-02
120795,8.02E-03,3.00E-02
120796,8.02E-03,3.01E-02
120797,8.02E-03,3.02E-02
120798,8.03E-03,3.03E-02
120799,8.03E-03,3.04E-02
120800,8.03E-03,3.06E-02
120801,8.03E-03,3.07E-02
120802,8.03E-03,3.08E-02
120803,8.03E-03,3.09E-02
120804,8.04E-03,3.11E-02
120805,8.04E-03,3.12E-02
120806,8.04E-03,3.13E-02
120807,8.04E-03,3.15E-02
120808,8.04E-03,3.16E-02
120809,8.04E-03,3.18E-02
120810,8.04E-03,3.19E-02
120811,8.04E-03,3.20E-02
120812,8.05E-03,3.22E-02
120813,8.05E-03,3.24E-02
120814,8.05E-03,3.25E-02
120815,8.05E-03,3.27E-02
120816,8.05E-03,3.28E-02
120817,8.05E-03,3.30E-02
120818,8.05E-03,3.32E-02
120819,8.05E-03,3.33E-02
120820,8.05E-03,3.35E-02
120821,8.05E-03,3.37E-02
120822,8.05E-03,3.39E-02
120823,8.05E-03,3.40E-02
120824,8.05E-03,3.42E-02
120825,8.06E-03,3.44E-02
120826,8.06E-03,3.46E-02
120827,8.06E-03,3.48E-02
120828,8.06E-03,3.50E-02
120829,8.06E-03,3.52E-02
120830,8.06E-03,3.54E-02
120831,8.01E-03,3.56E-02
120832,8.08E-03,3.59E-02
120833,8.21E-03,3.61E-02
120834,9.10E-03,3.63E-02
120835,7.65E-03,3.28E-02
120836,9.84E-03,3.73E-02
120837,6.13E-03,7.11E-03
120838,6.69E-03,7.11E-03
120839,7.15E-03,7.11E-03
120840,7.74E-03,7.21E-03
120841,8.28E-03,2.39E-02
120842,7.55E-03,3.68E-02
120843,7.73E-03,3.69E-02
120844,7.89E-03,3.70E-02
120845,8.06E-03,3.71E-02
120846,8.03E-03,3.72E-02
120847,7.94E-03,3.74E-02
120848,7.94E-03,3.76E-02
120849,7.94E-03,3.78E-02
120850,7.94E-03,3.80E-02
120851,7.88E-03,3.82E-02
120852,7.86E-03,3.85E-02
120853,7.81E-03,3.88E-02
120854,7.69E-03,3.91E-02
120855,7.56E-03,3.95E-02
120856,7.33E-03,3.97E-02
120857,7.24E-03,4.00E-02
120858,7.60E-03,4.02E-02
120859,7.74E-03,4.05E-02
120860,8.65E-03,4.07E-02
120861,6.42E-03,8.05E-03
120862,6.52E-03,8.06E-03
120863,6.99E-03,3.00E-02
120864,7.68E-03,4.33E-03
120865,7.79E-03,7.00E-03
120866,5.11E-03,7.98E-03
120867,9.16E-03,1.77E-02
120868,9.48E-03,1.76E-02
120869,1.03E-02,1.75E-02
120870,1.02E-02,1.74E-02
120871,9.92E-03,1.73E-02
120872,9.77E-03,1.72E-02
120873,9.41E-03,1.71E-02
120874,9.29E-03,1.70E-02
120875,9.10E-03,1.69E-02
120876,8.84E-03,1.68E-02
120877,8.80E-03,1.67E-02
120878,8.59E-03,1.66E-02
120879,8.61E-03,1.65E-02
120880,8.64E-03,1.64E-02
120881,8.68E-03,1.64E-02
120882,8.72E-03,1.63E-02
120883,8.76E-03,1.62E-02
120884,8.78E-03,1.61E-02
120885,8.78E-03,1.60E-02
120886,8.78E-03,1.59E-02
120887,8.79E-03,1.58E-02
120888,8.80E-03,1.57E-02
120889,8.81E-03,1.56E-02
120890,8.82E-03,1.55E-02
120891,8.84E-03,1.54E-02
120892,8.85E-03,1.53E-02
120893,8.86E-03,1.52E-02
120894,8.87E-03,1.51E-02
120895,8.88E-03,1.50E-02
120896,8.90E-03,1.49E-02
120897,8.91E-03,1.48E-02
120898,8.92E-03,1.47E-02
120899,8.93E-03,1.46E-02
120900,8.95E-03,1.45E-02
120901,8.96E-03,1.44E-02
120902,8.98E-03,1.43E-02
120903,9.00E-03,1.42E-02
120904,9.01E-03,1.41E-02
120905,9.02E-03,1.40E-02
120906,9.01E-03,1.39E-02
120907,9.01E-03,1.38E-02
120908,8.98E-03,1.37E-02
120909,8.94E-03,1.36E-02
120910,8.89E-03,1.35E-02
120911,8.84E-03,1.34E-02
120912,8.79E-03,1.33E-02
120913,8.75E-03,1.32E-02
120914,8.72E-03,1.31E-02
120915,8.76E-03,1.30E-02
120916,8.85E-03,1.29E-02
120917,8.94E-03,1.29E-02
120918,8.90E-03,1.28E-02
120919,8.37E-03,1.27E-02
120920,7.66E-03,1.26E-02
120921,7.95E-03,1.27E-02
120922,8.19E-03,1.26E-02
120923,1.03E-02,1.24E-02
120924,9.80E-03,1.25E-02
120925,7.15E-03,1.24E-02
120926,6.38E-03,1.24E-02
120927,6.03E-03,1.26E-02
120928,6.01E-03,8.84E-03
120929,6.54E-03,9.12E-03
120930,8.81E-03,1.12E-02
120931,7.75E-03,9.56E-03
120932,4.82E-03,3.68E-03
120933,6.17E-03,3.54E-03
120934,9.95E-03,4.00E-02
120935,9.29E-03,4.14E-02
120936,7.49E-03,4.03E-02
120937,6.01E-03,6.92E-03
120938,6.20E-03,6.94E-03
120939,8.84E-03,3.83E-02
120940,7.60E-03,1.60E-02
120941,7.70E-03,1.56E-02
120942,6.91E-03,1.82E-02
120943,6.99E-03,1.80E-02
120944,8.15E-03,1.78E-02
120945,1.17E-02,1.91E-02
120946,8.96E-03,1.91E-02
120947,8.46E-03,2.44E-02
120948,8.08E-03,1.69E-02
120949,8.04E-03,1.64E-02
120950,7.77E-03,1.59E-02
120951,8.56E-03,1.92E-02
120952,9.50E-03,1.93E-02
120953,9.58E-03,1.94E-02
120954,9.53E-03,1.95E-02
120955,9.46E-03,1.95E-02
120956,9.17E-03,1.96E-02
120957,9.08E-03,1.97E-02
120958,8.89E-03,1.98E-02
120959,8.83E-03,1.99E-02
120960,8.78E-03,2.00E-02
120961,8.74E-03,2.01E-02
120962,8.68E-03,2.02E-02
120963,8.70E-03,2.03E-02
120964,8.79E-03,2.04E-02
120965,8.85E-03,2.06E-02
120966,9.46E-03,2.07E-02
120967,9.48E-03,2.08E-02
120968,9.48E-03,2.10E-02
120969,9.15E-03,2.11E-02
120970,9.02E-03,2.12E-02
120971,8.85E-03,2.14E-02
120972,8.69E-03,2.15E-02
120973,8.65E-03,2.17E-02
120974,8.51E-03,2.18E-02
120975,8.28E-03,2.19E-02
120976,8.19E-03,2.21E-02
120977,7.97E-03,2.22E-02
120978,7.62E-03,2.23E-02
120979,7.51E-03,2.25E-02
120980,7.46E-03,2.26E-02
120981,7.34E-03,2.27E-02
120982,7.03E-03,2.28E-02
120983,6.55E-03,2.29E-02
120984,6.31E-03,2.29E-02
120985,5.83E-03,2.30E-02
120986,6.35E-03,2.31E-02
120987,6.77E-03,2.32E-02
120988,7.15E-03,2.32E-02
120989,8.64E-03,2.33E-02
120990,8.43E-03,2.34E-02
120991,6.78E-03,2.27E-02
120992,6.81E-03,2.21E-02
120993,8.34E-03,2.16E-02
120994,7.61E-03,1.57E-02
120995,7.86E-03,1.53E-02
120996,8.33E-03,1.49E-02
120997,8.46E-03,1.45E-02
120998,8.26E-03,1.40E-02
120999,8.22E-03,1.36E-02
121000,8.29E-03,1.33E-02
121001,8.27E-03,1.29E-02
121002,8.26E-03,1.25E-02
121003,8.01E-03,1.21E-02
121004,6.98E-03,1.17E-02
121005,7.03E-03,1.99E-02
121006,8.16E-03,2.00E-02
121007,7.70E-03,2.59E-03
121008,8.57E-03,7.02E-03
121009,7.65E-03,5.66E-03
121010,6.79E-03,1.14E-02
121011,8.60E-03,2.04E-02
121012,9.23E-03,1.99E-02
121013,8.36E-03,1.94E-02
121014,8.18E-03,1.88E-02
121015,8.05E-03,1.83E-02
121016,8.05E-03,1.78E-02
121017,8.07E-03,1.73E-02
121018,7.72E-03,6.52E-03
121019,7.78E-03,6.44E-03
121020,8.18E-03,6.36E-03
121021,8.28E-03,6.27E-03
121022,8.50E-03,6.17E-03
121023,6.54E-03,5.68E-03
121024,6.35E-03,5.59E-03
121025,6.54E-03,5.42E-03
121026,6.81E-03,5.30E-03
121027,7.21E-03,5.25E-03
121028,7.56E-03,5.19E-03
121029,7.71E-03,5.12E-03
121030,8.11E-03,5.04E-03
121031,8.20E-03,4.96E-03
121032,8.35E-03,4.88E-03
121033,8.40E-03,4.80E-03
121034,9.15E-03,1.23E-02
121035,8.88E-03,1.22E-02
121036,1.03E-02,1.20E-02
121037,1.06E-02,1.17E-02
121038,1.04E-02,1.14E-02
121039,9.68E-03,1.11E-02
121040,9.75E-03,1.08E-02
121041,8.17E-03,1.05E-02
121042,8.15E-03,1.02E-02
121043,8.13E-03,9.94E-03
121044,8.01E-03,9.66E-03
121045,8.01E-03,9.38E-03
121046,8.00E-03,9.11E-03
121047,7.99E-03,8.86E-03
121048,7.98E-03,8.61E-03
121049,7.98E-03,8.39E-03
121050,7.97E-03,8.17E-03
121051,7.97E-03,7.98E-03
121052,7.96E-03,7.81E-03
121053,7.96E-03,7.65E-03
121054,7.95E-03,7.52E-03
121055,7.95E-03,7.40E-03
121056,7.94E-03,7.30E-03
121057,7.93E-03,7.21E-03
121058,7.93E-03,7.15E-03
121059,7.92E-03,7.09E-03
121060,7.92E-03,7.06E-03
121061,7.91E-03,7.03E-03
121062,7.91E-03,7.02E-03
121063,7.91E-03,7.02E-03
121064,8.15E-03,7.03E-03
121065,8.69E-03,7.04E-03
121066,9.09E-03,7.07E-03
121067,9.11E-03,7.11E-03
121068,8.93E-03,7.15E-03
121069,8.74E-03,7.20E-03
121070,8.64E-03,7.25E-03
121071,8.57E-03,7.31E-03
121072,8.50E-03,7.38E-03
121073,8.46E-03,7.44E-03
121074,8.41E-03,7.52E-03
121075,8.34E-03,7.59E-03
121076,8.30E-03,7.67E-03
121077,8.36E-03,7.75E-03
121078,8.48E-03,7.84E-03
121079,8.46E-03,7.93E-03
121080,8.14E-03,8.03E-03
121081,7.90E-03,8.12E-03
121082,7.90E-03,8.21E-03
121083,7.90E-03,8.31E-03
121084,7.87E-03,8.41E-03
121085,7.82E-03,8.51E-03
121086,7.78E-03,8.61E-03
121087,7.74E-03,8.71E-03
121088,7.70E-03,8.81E-03
121089,7.64E-03,8.92E-03
121090,7.58E-03,9.02E-03
121091,7.49E-03,9.12E-03
121092,7.37E-03,9.22E-03
121093,7.22E-03,9.32E-03
121094,6.85E-03,9.41E-03
121095,6.37E-03,9.50E-03
121096,7.11E-03,9.59E-03
121097,8.36E-03,9.69E-03
121098,8.99E-03,9.80E-03
121099,9.17E-03,9.92E-03
121100,8.97E-03,1.00E-02
121101,8.82E-03,1.01E-02
121102,8.71E-03,1.02E-02
121103,8.63E-03,1.03E-02
121104,8.56E-03,1.04E-02
121105,8.50E-03,1.05E-02
121106,8.46E-03,1.06E-02
121107,8.42E-03,1.07E-02
121108,8.39E-03,1.08E-02
121109,8.37E-03,1.09E-02
121110,8.90E-03,1.10E-02
121111,9.64E-03,1.11E-02
121112,9.55E-03,1.12E-02
121113,9.09E-03,1.13E-02
121114,8.83E-03,1.14E-02
121115,8.66E-03,1.15E-02
121116,8.55E-03,1.16E-02
121117,8.47E-03,1.17E-02
121118,8.41E-03,1.18E-02
121119,8.37E-03,1.19E-02
121120,8.33E-03,1.19E-02
121121,8.30E-03,1.20E-02
121122,8.28E-03,1.21E-02
121123,8.26E-03,1.22E-02
121124,8.24E-03,1.23E-02
121125,8.23E-03,1.24E-02
121126,8.21E-03,1.25E-02
121127,8.20E-03,1.25E-02
121128,8.19E-03,1.26E-02
121129,8.19E-03,1.27E-02
121130,8.18E-03,1.28E-02
121131,8.17E-03,1.29E-02
121132,8.17E-03,1.29E-02
121133,8.16E-03,1.30E-02
121134,8.16E-03,1.31E-02
121135,8.15E-03,1.32E-02
121136,8.15E-03,1.32E-02
121137,8.15E-03,1.33E-02
121138,8.14E-03,1.34E-02
121139,8.14E-03,1.34E-02
121140,8.14E-03,1.35E-02
121141,8.13E-03,1.36E-02
121142,8.13E-03,1.37E-02
121143,8.13E-03,1.37E-02
121144,8.13E-03,1.38E-02
121145,8.13E-03,1.39E-02
121146,8.12E-03,1.39E-02
121147,8.12E-03,1.40E-02
121148,8.12E-03,1.41E-02
121149,8.12E-03,1.41E-02
121150,8.12E-03,1.42E-02
121151,8.11E-03,1.42E-02
121152,8.11E-03,1.43E-02
121153,8.11E-03,1.44E-02
121154,8.11E-03,1.44E-02
121155,8.11E-03,1.45E-02
121156,8.11E-03,1.46E-02
121157,8.11E-03,1.46E-02
121158,8.11E-03,1.47E-02
121159,8.11E-03,1.47E-02
121160,8.11E-03,1.48E-02
121161,8.11E-03,1.49E-02
121162,8.11E-03,1.49E-02
121163,8.11E-03,1.50E-02
121164,8.11E-03,1.50E-02
121165,8.11E-03,1.51E-02
121166,8.11E-03,1.52E-02
121167,8.11E-03,1.52E-02
121168,8.10E-03,1.53E-02
121169,8.10E-03,1.53E-02
121170,8.10E-03,1.54E-02
121171,8.10E-03,1.54E-02
121172,8.10E-03,1.55E-02
121173,8.10E-03,1.56E-02
121174,8.10E-03,1.56E-02
121175,8.10E-03,1.57E-02
121176,8.10E-03,1.57E-02
121177,8.10E-03,1.58E-02
121178,8.10E-03,1.58E-02
121179,8.10E-03,1.59E-02
121180,8.10E-03,1.60E-02
121181,8.10E-03,1.60E-02
121182,8.10E-03,1.61E-02
121183,8.10E-03,1.61E-02
121184,8.10E-03,1.62E-02
121185,8.11E-03,1.62E-02
121186,8.11E-03,1.63E-02
121187,8.11E-03,1.63E-02
121188,8.11E-03,1.64E-02
121189,8.11E-03,1.64E-02
121190,8.12E-03,1.65E-02
121191,8.12E-03,1.65E-02
121192,8.12E-03,1.66E-02
121193,8.12E-03,1.67E-02
121194,8.12E-03,1.67E-02
121195,8.13E-03,1.68E-02
121196,8.13E-03,1.68E-02
121197,8.13E-03,1.69E-02
121198,8.13E-03,1.69E-02
121199,8.14E-03,1.70E-02
121200,8.14E-03,1.70E-02
121201,8.14E-03,1.71E-02
121202,8.15E-03,1.71E-02
121203,8.15E-03,1.71E-02
121204,8.16E-03,1.72E-02
121205,8.17E-03,1.72E-02
121206,8.17E-03,1.73E-02
121207,8.18E-03,1.73E-02
121208,8.19E-03,1.74E-02
121209,8.21E-03,1.74E-02
121210,8.23E-03,1.75E-02
121211,8.25E-03,1.75E-02
121212,8.27E-03,1.76E-02
121213,8.29E-03,1.76E-02
121214,8.33E-03,1.77E-02
121215,8.37E-03,1.77E-02
121216,8.42E-03,1.78E-02
121217,8.50E-03,1.78E-02
121218,8.61E-03,1.79E-02
121219,8.78E-03,1.79E-02
121220,9.06E-03,1.80E-02
121221,8.98E-03,1.81E-02
121222,7.94E-03,1.81E-02
121223,7.28E-03,1.82E-02
121224,7.46E-03,1.82E-02
121225,7.59E-03,1.83E-02
121226,7.68E-03,1.84E-02
121227,7.75E-03,1.84E-02
121228,7.80E-03,1.85E-02
121229,7.83E-03,1.85E-02
121230,7.86E-03,1.86E-02
121231,7.89E-03,1.86E-02
121232,7.91E-03,1.87E-02
121233,7.93E-03,1.87E-02
121234,7.94E-03,1.88E-02
121235,7.95E-03,1.88E-02
121236,7.96E-03,1.89E-02
121237,7.97E-03,1.89E-02
121238,7.98E-03,1.90E-02
121239,7.99E-03,1.90E-02
121240,7.99E-03,1.91E-02
121241,8.00E-03,1.91E-02
121242,8.00E-03,1.92E-02
121243,8.01E-03,1.92E-02
121244,8.01E-03,1.93E-02
121245,8.02E-03,1.93E-02
121246,8.02E-03,1.94E-02
121247,8.02E-03,1.95E-02
121248,8.02E-03,1.95E-02
121249,8.02E-03,1.96E-02
121250,8.02E-03,1.96E-02
121251,8.03E-03,1.97E-02
121252,8.04E-03,1.97E-02
121253,8.05E-03,1.98E-02
121254,8.05E-03,1.98E-02
121255,8.06E-03,1.99E-02
121256,8.06E-03,1.99E-02
121257,8.06E-03,2.00E-02
121258,8.06E-03,2.00E-02
121259,8.09E-03,2.01E-02
121260,8.12E-03,2.02E-02
121261,8.14E-03,2.02E-02
121262,8.14E-03,2.03E-02
121263,8.14E-03,2.03E-02
121264,8.15E-03,2.04E-02
121265,8.15E-03,2.04E-02
121266,8.16E-03,2.04E-02
121267,8.16E-03,2.05E-02
121268,8.17E-03,2.05E-02
121269,8.17E-03,2.06E-02
121270,8.18E-03,2.06E-02
121271,8.19E-03,2.06E-02
121272,8.20E-03,2.07E-02
121273,8.21E-03,2.07E-02
121274,8.23E-03,2.07E-02
121275,8.24E-03,2.07E-02
121276,8.26E-03,2.08E-02
121277,8.29E-03,2.08E-02
121278,8.32E-03,2.08E-02
121279,8.36E-03,2.08E-02
121280,8.41E-03,2.08E-02
121281,8.57E-03,2.09E-02
121282,8.74E-03,2.09E-02
121283,8.87E-03,2.09E-02
121284,8.91E-03,2.09E-02
121285,9.07E-03,2.10E-02
121286,8.86E-03,2.10E-02
121287,8.39E-03,6.30E-03
121288,8.82E-03,6.28E-03
121289,9.56E-03,6.26E-03
121290,9.84E-03,6.24E-03
121291,8.56E-03,6.21E-03
121292,7.13E-03,6.19E-03
121293,6.98E-03,6.17E-03
121294,6.67E-03,6.15E-03
121295,6.34E-03,6.13E-03
121296,6.07E-03,6.12E-03
121297,5.74E-03,6.11E-03
121298,5.71E-03,6.10E-03
121299,5.77E-03,6.09E-03
121300,7.81E-03,6.08E-03
121301,7.84E-03,6.07E-03
121302,8.12E-03,6.05E-03
121303,8.54E-03,3.27E-03
121304,8.60E-03,3.32E-03
121305,9.33E-03,3.36E-03
121306,9.08E-03,3.40E-03
121307,7.33E-03,3.42E-03
121308,7.19E-03,3.44E-03
121309,6.99E-03,3.47E-03
121310,6.68E-03,3.51E-03
121311,5.93E-03,3.54E-03
121312,5.98E-03,3.59E-03
121313,6.22E-03,3.65E-03
121314,7.02E-03,7.94E-03
121315,6.88E-03,7.99E-03
121316,6.94E-03,8.10E-03
121317,7.61E-03,1.85E-02
121318,8.48E-03,2.61E-02
121319,6.77E-03,2.66E-02
121320,6.50E-03,2.70E-02
121321,6.50E-03,8.67E-03
121322,5.51E-03,8.77E-03
121323,4.51E-03,8.89E-03
121324,6.62E-03,4.19E-03
121325,8.89E-03,7.79E-03
121326,9.21E-03,7.78E-03
121327,9.87E-03,7.78E-03
121328,1.05E-02,7.79E-03
121329,1.07E-02,7.78E-03
121330,8.91E-03,6.82E-03
121331,8.85E-03,6.89E-03
121332,8.84E-03,6.94E-03
121333,8.87E-03,6.99E-03
121334,8.65E-03,7.03E-03
121335,8.24E-03,7.07E-03
121336,8.22E-03,7.11E-03
121337,8.13E-03,7.15E-03
121338,8.11E-03,7.19E-03
121339,8.07E-03,7.23E-03
121340,7.96E-03,7.27E-03
121341,7.76E-03,7.31E-03
121342,7.74E-03,7.35E-03
121343,7.68E-03,7.40E-03
121344,7.54E-03,7.44E-03
121345,7.48E-03,7.50E-03
121346,8.67E-03,7.35E-03
121347,8.10E-03,7.45E-03
121348,7.46E-03,7.56E-03
121349,9.76E-03,5.99E-03
121350,9.66E-03,5.95E-03
121351,9.57E-03,5.92E-03
121352,9.54E-03,5.89E-03
121353,9.24E-03,5.86E-03
121354,9.04E-03,5.82E-03
121355,8.91E-03,5.79E-03
121356,8.67E-03,5.75E-03
121357,8.59E-03,5.72E-03
121358,8.45E-03,5.68E-03
121359,8.15E-03,5.65E-03
121360,7.87E-03,5.61E-03
121361,7.78E-03,5.58E-03
121362,7.76E-03,5.54E-03
121363,7.72E-03,5.50E-03
121364,7.66E-03,5.47E-03
121365,7.59E-03,5.43E-03
121366,7.50E-03,5.40E-03
121367,7.38E-03,5.36E-03
121368,7.21E-03,5.33E-03
121369,6.97E-03,5.30E-03
121370,6.55E-03,5.27E-03
121371,5.97E-03,5.24E-03
121372,6.12E-03,5.21E-03
121373,6.78E-03,5.19E-03
121374,6.83E-03,5.17E-03
121375,6.83E-03,5.15E-03
121376,6.84E-03,5.13E-03
121377,7.03E-03,5.12E-03
121378,7.40E-03,5.10E-03
121379,9.72E-03,5.08E-03
121380,9.55E-03,5.06E-03
121381,9.75E-03,5.04E-03
121382,9.76E-03,5.01E-03
121383,9.71E-03,4.99E-03
121384,9.48E-03,4.96E-03
121385,9.22E-03,4.93E-03
121386,9.03E-03,4.89E-03
121387,8.02E-03,4.86E-03
121388,7.53E-03,4.83E-03
121389,7.36E-03,4.81E-03
121390,7.27E-03,4.78E-03
121391,7.14E-03,4.76E-03
121392,6.98E-03,4.73E-03
121393,6.78E-03,4.71E-03
121394,6.51E-03,4.70E-03
121395,6.57E-03,4.68E-03
121396,7.03E-03,4.67E-03
121397,7.24E-03,4.66E-03
121398,7.17E-03,4.64E-03
121399,7.12E-03,4.64E-03
121400,7.09E-03,4.63E-03
121401,7.83E-03,4.62E-03
121402,8.93E-03,4.61E-03
121403,9.21E-03,4.61E-03
121404,9.07E-03,4.60E-03
121405,8.95E-03,4.58E-03
121406,8.82E-03,4.57E-03
121407,8.59E-03,4.56E-03
121408,8.31E-03,4.54E-03
121409,8.10E-03,4.53E-03
121410,8.06E-03,4.51E-03
121411,8.10E-03,4.50E-03
121412,8.10E-03,4.48E-03
121413,8.19E-03,4.47E-03
121414,8.87E-03,4.46E-03
121415,9.41E-03,4.44E-03
121416,9.21E-03,4.42E-03
121417,8.95E-03,4.40E-03
121418,8.78E-03,4.38E-03
121419,8.78E-03,4.36E-03
121420,8.94E-03,4.33E-03
121421,9.20E-03,4.30E-03
121422,9.58E-03,4.27E-03
121423,9.66E-03,4.24E-03
121424,9.37E-03,4.20E-03
121425,9.07E-03,4.16E-03
121426,8.88E-03,4.12E-03
121427,8.75E-03,4.08E-03
121428,8.68E-03,4.03E-03
121429,8.68E-03,3.99E-03
121430,8.59E-03,3.94E-03
121431,8.44E-03,3.89E-03
121432,8.36E-03,3.84E-03
121433,8.30E-03,3.80E-03
121434,8.26E-03,3.75E-03
121435,8.24E-03,3.70E-03
121436,8.22E-03,3.65E-03
121437,8.20E-03,3.60E-03
121438,8.13E-03,3.55E-03
121439,7.99E-03,3.50E-03
121440,7.90E-03,3.45E-03
121441,7.89E-03,3.40E-03
121442,7.87E-03,3.35E-03
121443,7.85E-03,3.31E-03
121444,7.83E-03,3.26E-03
121445,7.81E-03,3.21E-03
121446,7.79E-03,3.17E-03
121447,7.76E-03,3.12E-03
121448,7.72E-03,3.08E-03
121449,7.68E-03,3.04E-03
121450,7.63E-03,3.00E-03
121451,7.58E-03,2.96E-03
121452,7.50E-03,2.92E-03
121453,7.39E-03,2.88E-03
121454,7.37E-03,2.84E-03
121455,7.48E-03,2.81E-03
121456,7.58E-03,2.78E-03
121457,7.58E-03,2.74E-03
121458,7.52E-03,2.71E-03
121459,7.45E-03,2.68E-03
121460,7.35E-03,2.65E-03
121461,7.16E-03,2.62E-03
121462,7.13E-03,2.60E-03
121463,7.26E-03,2.57E-03
121464,7.38E-03,2.55E-03
121465,7.50E-03,2.53E-03
121466,7.47E-03,2.51E-03
121467,7.27E-03,2.49E-03
121468,7.23E-03,2.46E-03
121469,7.11E-03,2.44E-03
121470,6.99E-03,2.41E-03
121471,7.33E-03,2.40E-03
121472,8.17E-03,2.60E-03
121473,8.67E-03,2.61E-03
121474,8.69E-03,2.63E-03
121475,8.36E-03,2.66E-03
121476,6.87E-03,2.66E-03
121477,7.61E-03,2.79E-03
121478,6.75E-03,2.68E-03
121479,7.57E-03,7.08E-03
121480,7.23E-03,7.10E-03
121481,6.01E-03,7.08E-03
121482,5.71E-03,7.09E-03
121483,6.07E-03,7.10E-03
121484,6.92E-03,1.94E-02
121485,7.13E-03,1.95E-02
121486,7.71E-03,2.02E-02
121487,7.51E-03,2.01E-02
121488,8.80E-03,3.69E-02
121489,8.02E-03,3.67E-02
121490,7.94E-03,3.64E-02
121491,7.97E-03,3.62E-02
121492,8.00E-03,3.60E-02
121493,8.06E-03,3.58E-02
121494,8.06E-03,3.56E-02
121495,8.06E-03,3.54E-02
121496,8.06E-03,3.52E-02
121497,8.06E-03,3.50E-02
121498,8.06E-03,3.48E-02
121499,8.06E-03,3.46E-02
121500,8.06E-03,3.44E-02
121501,8.05E-03,3.42E-02
121502,8.05E-03,3.40E-02
121503,8.05E-03,3.39E-02
121504,8.05E-03,3.37E-02
121505,8.05E-03,3.35E-02
121506,8.05E-03,3.33E-02
121507,8.05E-03,3.32E-02
121508,8.05E-03,3.30E-02
121509,8.05E-03,3.28E-02
121510,8.05E-03,3.27E-02
121511,8.05E-03,3.25E-02
121512,8.05E-03,3.24E-02
121513,8.04E-03,3.22E-02
121514,8.04E-03,3.21E-02
121515,8.04E-03,3.19E-02
121516,8.04E-03,3.18E-02
121517,8.04E-03,3.16E-02
121518,8.04E-03,3.15E-02
121519,8.04E-03,3.13E-02
121520,8.04E-03,3.12E-02
121521,8.03E-03,3.11E-02
121522,8.03E-03,3.09E-02
121523,8.03E-03,3.08E-02
121524,8.03E-03,3.07E-02
121525,8.03E-03,3.06E-02
121526,8.02E-03,3.04E-02
121527,8.02E-03,3.03E-02
121528,8.01E-03,3.02E-02
121529,8.01E-03,3.01E-02
121530,8.00E-03,3.00E-02
121531,7.99E-03,2.99E-02
121532,7.99E-03,2.98E-02
121533,7.98E-03,2.98E-02
121534,7.97E-03,2.97E-02
121535,7.96E-03,2.96E-02
121536,7.95E-03,2.95E-02
121537,7.93E-03,2.95E-02
121538,7.91E-03,2.94E-02
121539,7.89E-03,2.94E-02
121540,7.87E-03,2.93E-02
121541,7.79E-03,2.93E-02
121542,7.61E-03,2.93E-02
121543,7.53E-03,2.92E-02
121544,7.37E-03,2.92E-02
121545,7.17E-03,2.92E-02
121546,6.95E-03,2.91E-02
121547,6.67E-03,2.91E-02
121548,6.41E-03,2.90E-02
121549,6.10E-03,2.90E-02
121550,5.77E-03,2.89E-02
121551,5.53E-03,2.89E-02
121552,5.67E-03,2.88E-02
121553,5.75E-03,2.87E-02
121554,5.95E-03,2.87E-02
121555,6.05E-03,2.86E-02
121556,5.96E-03,2.85E-02
121557,6.29E-03,2.84E-02
121558,6.91E-03,2.82E-02
121559,9.64E-03,2.81E-02
121560,9.70E-03,2.79E-02
121561,9.71E-03,2.77E-02
121562,9.33E-03,2.76E-02
121563,9.37E-03,2.74E-02
121564,9.50E-03,2.73E-02
121565,9.46E-03,2.72E-02
121566,9.29E-03,2.71E-02
121567,9.13E-03,2.70E-02
121568,9.00E-03,2.69E-02
121569,8.89E-03,2.69E-02
121570,8.81E-03,2.68E-02
121571,8.74E-03,2.68E-02
121572,8.67E-03,2.67E-02
121573,8.63E-03,2.67E-02
121574,8.59E-03,2.67E-02
121575,8.54E-03,2.67E-02
121576,8.50E-03,2.66E-02
121577,8.46E-03,2.66E-02
121578,8.43E-03,2.66E-02
121579,8.40E-03,2.66E-02
121580,8.38E-03,2.66E-02
121581,8.35E-03,2.66E-02
121582,8.33E-03,2.66E-02
121583,8.32E-03,2.65E-02
121584,8.30E-03,2.65E-02
121585,8.29E-03,2.65E-02
121586,8.28E-03,2.65E-02
121587,8.27E-03,2.65E-02
121588,8.26E-03,2.65E-02
121589,8.25E-03,2.65E-02
121590,8.24E-03,2.65E-02
121591,8.21E-03,2.65E-02
121592,8.16E-03,2.65E-02
121593,8.12E-03,2.65E-02
121594,8.12E-03,2.65E-02
121595,8.12E-03,2.65E-02
121596,8.11E-03,2.65E-02
121597,8.00E-03,2.65E-02
121598,7.73E-03,2.65E-02
121599,7.58E-03,2.65E-02
121600,7.58E-03,2.65E-02
121601,7.58E-03,2.65E-02
121602,7.58E-03,2.65E-02
121603,7.57E-03,2.66E-02
121604,7.55E-03,2.66E-02
121605,7.38E-03,2.66E-02
121606,7.12E-03,2.66E-02
121607,6.82E-03,2.66E-02
121608,6.33E-03,2.66E-02
121609,5.56E-03,2.66E-02
121610,5.54E-03,2.65E-02
121611,6.51E-03,2.65E-02
121612,6.83E-03,2.65E-02
121613,6.90E-03,2.64E-02
121614,6.60E-03,2.64E-02
121615,5.87E-03,2.63E-02
121616,6.32E-03,2.63E-02
121617,7.54E-03,2.62E-02
121618,7.84E-03,2.61E-02
121619,7.98E-03,2.60E-02
121620,8.20E-03,2.59E-02
121621,8.42E-03,2.58E-02
121622,8.67E-03,2.57E-02
121623,9.45E-03,2.56E-02
121624,9.99E-03,2.54E-02
121625,9.66E-03,2.53E-02
121626,9.45E-03,2.52E-02
121627,9.63E-03,2.51E-02
121628,9.85E-03,2.51E-02
121629,1.01E-02,2.50E-02
121630,1.02E-02,2.50E-02
121631,9.77E-03,2.49E-02
121632,9.33E-03,2.49E-02
121633,9.05E-03,2.49E-02
121634,8.86E-03,2.49E-02
121635,8.73E-03,2.49E-02
121636,8.63E-03,2.49E-02
121637,8.55E-03,2.49E-02
121638,8.48E-03,2.49E-02
121639,8.43E-03,2.49E-02
121640,8.42E-03,2.49E-02
121641,8.41E-03,2.49E-02
121642,8.40E-03,2.49E-02
121643,8.39E-03,2.49E-02
121644,8.37E-03,2.49E-02
121645,8.35E-03,2.48E-02
121646,8.33E-03,2.48E-02
121647,8.30E-03,2.48E-02
121648,8.29E-03,2.48E-02
121649,8.27E-03,2.47E-02
121650,8.25E-03,2.47E-02
121651,8.24E-03,2.46E-02
121652,8.23E-03,2.46E-02
121653,8.22E-03,2.46E-02
121654,8.21E-03,2.45E-02
121655,8.20E-03,2.45E-02
121656,8.20E-03,2.44E-02
121657,8.19E-03,2.43E-02
121658,8.18E-03,2.43E-02
121659,8.18E-03,2.42E-02
121660,8.17E-03,2.42E-02
121661,8.17E-03,2.41E-02
121662,8.16E-03,2.41E-02
121663,8.16E-03,2.40E-02
121664,8.16E-03,2.39E-02
121665,8.15E-03,2.39E-02
121666,8.15E-03,2.38E-02
121667,8.14E-03,2.38E-02
121668,8.14E-03,2.37E-02
121669,8.14E-03,2.36E-02
121670,8.14E-03,2.36E-02
121671,8.13E-03,2.35E-02
121672,8.12E-03,2.35E-02
121673,8.09E-03,2.34E-02
121674,8.06E-03,2.34E-02
121675,8.05E-03,2.33E-02
121676,8.04E-03,2.33E-02
121677,8.03E-03,2.32E-02
121678,8.01E-03,2.32E-02
121679,7.98E-03,2.31E-02
121680,7.93E-03,2.31E-02
121681,7.93E-03,2.30E-02
121682,7.95E-03,2.30E-02
121683,7.94E-03,2.29E-02
121684,7.92E-03,2.29E-02
121685,7.91E-03,2.29E-02
121686,7.89E-03,2.28E-02
121687,7.87E-03,2.28E-02
121688,7.84E-03,2.28E-02
121689,7.80E-03,2.27E-02
121690,7.76E-03,2.27E-02
121691,7.70E-03,2.27E-02
121692,7.53E-03,2.26E-02
121693,7.41E-03,2.26E-02
121694,7.16E-03,2.25E-02
121695,6.77E-03,2.25E-02
121696,6.51E-03,2.25E-02
121697,6.32E-03,2.24E-02
121698,6.12E-03,2.24E-02
121699,6.58E-03,2.24E-02
121700,6.66E-03,2.23E-02
121701,9.46E-03,2.22E-02
121702,9.34E-03,2.22E-02
121703,9.14E-03,2.21E-02
121704,8.87E-03,2.21E-02
121705,8.73E-03,2.20E-02
121706,8.65E-03,2.20E-02
121707,8.59E-03,2.19E-02
121708,8.53E-03,2.19E-02
121709,8.25E-03,2.18E-02
121710,7.96E-03,2.18E-02
121711,7.27E-03,2.18E-02
121712,6.93E-03,2.17E-02
121713,6.75E-03,2.17E-02
121714,6.59E-03,2.16E-02
121715,6.67E-03,2.16E-02
121716,6.80E-03,2.15E-02
121717,6.35E-03,2.14E-02
121718,8.01E-03,3.37E-02
121719,8.61E-03,3.48E-02
121720,9.67E-03,3.61E-02
121721,7.11E-03,7.11E-03
121722,7.38E-03,7.11E-03
121723,8.01E-03,7.10E-03
121724,7.05E-03,7.12E-03
121725,6.93E-03,7.13E-03
121726,7.38E-03,7.14E-03
121727,8.61E-03,7.17E-03
121728,8.78E-03,7.17E-03
121729,8.17E-03,7.16E-03
121730,8.45E-03,7.16E-03
121731,7.97E-03,1.89E-02
121732,7.44E-03,1.87E-02
121733,7.26E-03,1.86E-02
121734,7.30E-03,1.84E-02
121735,7.30E-03,1.83E-02
121736,7.40E-03,1.81E-02
121737,7.75E-03,1.79E-02
121738,7.89E-03,1.78E-02
121739,7.96E-03,1.76E-02
121740,8.32E-03,1.74E-02
121741,8.34E-03,1.72E-02
121742,8.35E-03,1.70E-02
121743,8.44E-03,1.68E-02
121744,8.50E-03,1.66E-02
121745,8.69E-03,1.65E-02
121746,8.96E-03,1.63E-02
121747,9.23E-03,1.61E-02
121748,9.47E-03,1.60E-02
121749,9.74E-03,1.58E-02
121750,1.01E-02,1.57E-02
121751,1.06E-02,1.55E-02
121752,1.05E-02,1.54E-02
121753,9.89E-03,1.53E-02
121754,9.47E-03,1.51E-02
121755,8.48E-03,1.50E-02
121756,8.33E-03,1.49E-02
121757,8.78E-03,1.48E-02
121758,6.85E-03,1.47E-02
121759,6.44E-03,1.46E-02
121760,6.31E-03,1.45E-02
121761,6.46E-03,1.44E-02
121762,6.91E-03,1.43E-02
121763,7.05E-03,1.42E-02
121764,7.38E-03,1.41E-02
121765,7.56E-03,1.40E-02
121766,7.85E-03,1.38E-02
121767,7.89E-03,1.37E-02
121768,7.93E-03,1.36E-02
121769,7.95E-03,1.34E-02
121770,7.96E-03,1.33E-02
121771,7.96E-03,1.32E-02
121772,7.96E-03,1.30E-02
121773,7.98E-03,1.29E-02
121774,8.25E-03,1.28E-02
121775,8.50E-03,1.27E-02
121776,8.43E-03,1.25E-02
121777,8.33E-03,1.24E-02
121778,8.28E-03,1.23E-02
121779,8.32E-03,1.22E-02
121780,8.39E-03,1.21E-02
121781,8.43E-03,1.19E-02
121782,8.49E-03,1.18E-02
121783,8.56E-03,1.17E-02
121784,8.66E-03,1.16E-02
121785,8.79E-03,1.15E-02
121786,8.97E-03,1.14E-02
121787,9.20E-03,1.13E-02
121788,9.31E-03,1.12E-02
121789,9.65E-03,1.11E-02
121790,9.77E-03,1.10E-02
121791,9.92E-03,1.09E-02
121792,1.03E-02,1.08E-02
121793,1.04E-02,1.07E-02
121794,1.04E-02,1.05E-02
121795,1.04E-02,1.04E-02
121796,9.43E-03,1.03E-02
121797,8.75E-03,1.02E-02
121798,8.58E-03,1.01E-02
121799,8.45E-03,9.97E-03
121800,7.98E-03,9.87E-03
121801,7.70E-03,9.77E-03
121802,7.57E-03,9.68E-03
121803,7.59E-03,9.59E-03
121804,7.73E-03,9.50E-03
121805,7.79E-03,9.41E-03
121806,7.83E-03,9.32E-03
121807,7.87E-03,9.23E-03
121808,7.89E-03,9.14E-03
121809,7.92E-03,9.06E-03
121810,7.94E-03,8.98E-03
121811,7.95E-03,8.90E-03
121812,7.97E-03,8.82E-03
121813,7.98E-03,8.75E-03
121814,7.99E-03,8.67E-03
121815,8.02E-03,8.60E-03
121816,8.03E-03,8.54E-03
121817,8.03E-03,8.47E-03
121818,8.03E-03,8.41E-03
121819,8.02E-03,8.34E-03
121820,8.02E-03,8.28E-03
121821,8.02E-03,8.22E-03
121822,8.02E-03,8.17E-03
121823,8.01E-03,8.11E-03
121824,8.01E-03,8.06E-03
121825,8.01E-03,8.00E-03
121826,8.00E-03,7.95E-03
121827,8.00E-03,7.90E-03
121828,7.99E-03,7.85E-03
121829,7.99E-03,7.81E-03
121830,7.98E-03,7.76E-03
121831,7.98E-03,7.72E-03
121832,7.97E-03,7.67E-03
121833,7.96E-03,7.63E-03
121834,7.96E-03,7.59E-03
121835,7.95E-03,7.55E-03
121836,7.93E-03,7.51E-03
121837,7.89E-03,7.47E-03
121838,7.85E-03,7.44E-03
121839,7.82E-03,7.40E-03
121840,7.77E-03,7.37E-03
121841,7.46E-03,7.34E-03
121842,7.37E-03,7.31E-03
121843,7.29E-03,7.28E-03
121844,7.27E-03,7.25E-03
121845,7.13E-03,7.20E-03
121846,6.77E-03,7.18E-03
121847,6.31E-03,2.39E-02
121848,9.81E-03,2.32E-02
121849,7.04E-03,4.29E-02
121850,6.67E-03,4.17E-02
121851,5.38E-03,2.30E-03
121852,5.18E-03,2.39E-03
121853,5.48E-03,2.47E-03
121854,6.14E-03,8.05E-03
121855,8.99E-03,7.00E-03
121856,8.95E-03,7.00E-03
121857,9.04E-03,6.99E-03
121858,8.93E-03,6.99E-03
121859,8.67E-03,6.98E-03
121860,8.52E-03,6.98E-03
121861,7.99E-03,6.97E-03
121862,7.17E-03,6.96E-03
121863,7.11E-03,6.95E-03
121864,7.30E-03,6.94E-03
121865,7.15E-03,6.93E-03
121866,7.05E-03,6.92E-03
121867,6.63E-03,6.91E-03
121868,6.25E-03,6.90E-03
121869,5.88E-03,6.89E-03
121870,6.35E-03,6.88E-03
121871,7.58E-03,6.86E-03
121872,7.77E-03,6.85E-03
121873,7.94E-03,6.83E-03
121874,8.07E-03,6.82E-03
121875,8.06E-03,6.80E-03
121876,7.87E-03,6.78E-03
121877,7.60E-03,6.76E-03
121878,7.46E-03,6.75E-03
121879,7.34E-03,6.73E-03
121880,7.17E-03,6.71E-03
121881,6.95E-03,6.70E-03
121882,7.53E-03,6.69E-03
121883,8.76E-03,6.68E-03
121884,9.69E-03,6.66E-03
121885,1.00E-02,6.64E-03
121886,9.67E-03,6.63E-03
121887,9.32E-03,6.61E-03
121888,8.99E-03,6.59E-03
121889,8.33E-03,6.57E-03
121890,7.80E-03,6.55E-03
121891,7.43E-03,6.53E-03
121892,6.73E-03,6.52E-03
121893,6.41E-03,6.51E-03
121894,6.28E-03,6.50E-03
121895,6.61E-03,6.49E-03
121896,8.04E-03,6.48E-03
121897,9.29E-03,6.47E-03
121898,9.95E-03,6.46E-03
121899,9.84E-03,6.44E-03
121900,9.36E-03,6.43E-03
121901,8.73E-03,6.41E-03
121902,7.43E-03,6.39E-03
121903,6.93E-03,6.37E-03
121904,6.64E-03,6.35E-03
121905,6.51E-03,6.33E-03
121906,6.27E-03,6.32E-03
121907,5.99E-03,6.30E-03
121908,5.52E-03,6.28E-03
121909,7.36E-03,6.24E-03
121910,9.03E-03,2.15E-02
121911,8.58E-03,2.14E-02
121912,5.17E-03,3.00E-02
121913,9.15E-03,2.13E-02
121914,8.14E-03,2.09E-02
121915,8.10E-03,2.04E-02
121916,7.71E-03,6.29E-03
121917,7.31E-03,6.21E-03
121918,7.96E-03,5.69E-03
121919,7.14E-03,5.59E-03
121920,8.31E-03,4.36E-03
121921,6.61E-03,3.15E-02
121922,6.13E-03,3.08E-02
121923,9.33E-03,1.23E-02
121924,8.60E-03,2.13E-02
121925,7.58E-03,7.04E-03
121926,6.30E-03,7.03E-03
121927,5.45E-03,7.01E-03
121928,5.63E-03,6.96E-03
121929,7.85E-03,6.19E-03
121930,6.74E-03,3.28E-03
121931,9.70E-03,7.38E-03
121932,7.55E-03,6.95E-03
121933,7.10E-03,7.43E-03
121934,9.23E-03,3.90E-03
121935,8.27E-03,2.91E-02
121936,8.83E-03,1.24E-02
121937,7.80E-03,1.23E-02
121938,6.25E-03,6.90E-03
121939,6.46E-03,3.08E-03
121940,6.45E-03,3.01E-03
121941,6.37E-03,2.95E-03
121942,6.62E-03,2.95E-03
121943,7.79E-03,2.95E-03
121944,8.25E-03,2.94E-03
121945,8.28E-03,2.95E-03
121946,8.20E-03,2.92E-03
121947,6.70E-03,2.89E-03
121948,6.19E-03,2.75E-03
121949,5.21E-03,8.76E-03
121950,8.07E-03,8.79E-03
121951,7.69E-03,4.02E-03
121952,6.11E-03,9.27E-03
121953,5.65E-03,9.38E-03
121954,1.13E-02,7.27E-03
121955,7.53E-03,1.96E-02
121956,6.36E-03,3.26E-03
121957,6.97E-03,3.38E-03
121958,6.65E-03,2.30E-02
121959,8.18E-03,1.24E-02
121960,6.76E-03,3.07E-03
121961,6.69E-03,3.20E-03
121962,7.82E-03,3.75E-02
121963,7.75E-03,1.52E-02
121964,7.95E-03,1.47E-02
121965,8.36E-03,1.43E-02
121966,8.46E-03,1.39E-02
121967,8.27E-03,1.35E-02
121968,8.16E-03,1.31E-02
121969,8.18E-03,1.27E-02
121970,8.13E-03,1.24E-02
121971,8.06E-03,1.20E-02
121972,7.91E-03,1.16E-02
121973,7.29E-03,1.13E-02
121974,6.03E-03,1.10E-02
121975,6.78E-03,1.08E-02
121976,8.89E-03,1.06E-02
121977,5.82E-03,9.23E-03
121978,9.61E-03,1.83E-02
121979,7.62E-03,1.82E-02
121980,8.12E-03,1.81E-02
121981,8.19E-03,1.79E-02
121982,7.76E-03,7.44E-03
121983,7.34E-03,7.53E-03
121984,4.76E-03,8.54E-03
121985,4.39E-03,8.33E-03
121986,9.70E-03,1.93E-02
121987,8.78E-03,1.77E-02
121988,9.52E-03,1.76E-02
121989,1.02E-02,1.75E-02
121990,1.01E-02,1.74E-02
121991,9.78E-03,1.73E-02
121992,9.63E-03,1.72E-02
121993,9.45E-03,1.71E-02
121994,9.28E-03,1.70E-02
121995,9.09E-03,1.69E-02
121996,8.77E-03,1.68E-02
121997,8.76E-03,1.68E-02
121998,8.56E-03,1.67E-02
121999,8.58E-03,1.66E-02
122000,8.60E-03,1.65E-02
122001,8.64E-03,1.64E-02
122002,8.68E-03,1.63E-02
122003,8.72E-03,1.62E-02
122004,8.74E-03,1.61E-02
122005,8.74E-03,1.60E-02
122006,8.74E-03,1.59E-02
122007,8.75E-03,1.59E-02
122008,8.75E-03,1.58E-02
122009,8.77E-03,1.57E-02
122010,8.78E-03,1.56E-02
122011,8.79E-03,1.55E-02
122012,8.80E-03,1.54E-02
122013,8.81E-03,1.53E-02
122014,8.82E-03,1.52E-02
122015,8.84E-03,1.51E-02
122016,8.85E-03,1.50E-02
122017,8.86E-03,1.49E-02
122018,8.87E-03,1.48E-02
122019,8.88E-03,1.47E-02
122020,8.89E-03,1.46E-02
122021,8.91E-03,1.45E-02
122022,8.92E-03,1.44E-02
122023,8.94E-03,1.43E-02
122024,8.96E-03,1.42E-02
122025,8.96E-03,1.41E-02
122026,8.96E-03,1.40E-02
122027,8.95E-03,1.39E-02
122028,8.93E-03,1.38E-02
122029,8.88E-03,1.37E-02
122030,8.84E-03,1.36E-02
122031,8.79E-03,1.35E-02
122032,8.74E-03,1.34E-02
122033,8.71E-03,1.33E-02
122034,8.68E-03,1.32E-02
122035,8.65E-03,1.31E-02
122036,8.63E-03,1.30E-02
122037,8.63E-03,1.29E-02
122038,8.59E-03,1.29E-02
122039,8.35E-03,1.28E-02
122040,8.17E-03,1.27E-02
122041,8.21E-03,1.27E-02
122042,8.49E-03,1.26E-02
122043,8.32E-03,1.26E-02
122044,7.91E-03,1.25E-02
122045,7.96E-03,1.26E-02
122046,8.73E-03,1.26E-02
122047,9.89E-03,1.25E-02
122048,5.94E-03,1.25E-02
122049,5.09E-03,1.27E-02
122050,6.95E-03,1.26E-02
122051,9.42E-03,1.91E-02
122052,9.00E-03,1.89E-02
122053,7.76E-03,1.88E-02
122054,7.55E-03,1.86E-02
122055,7.97E-03,1.84E-02
122056,8.46E-03,2.49E-02
122057,5.01E-03,2.71E-02
122058,6.38E-03,2.67E-02
122059,6.00E-03,8.04E-03
122060,7.72E-03,6.37E-03
122061,8.26E-03,5.88E-03
122062,9.04E-03,5.83E-03
122063,7.77E-03,1.55E-02
122064,7.78E-03,1.51E-02
122065,6.71E-03,6.96E-03
122066,7.30E-03,6.96E-03
122067,7.52E-03,6.96E-03
122068,7.87E-03,1.92E-02
122069,6.01E-03,7.00E-03
122070,5.97E-03,6.99E-03
122071,6.48E-03,6.98E-03
122072,5.12E-03,4.42E-02
122073,6.39E-03,4.32E-02
122074,9.18E-03,2.04E-02
122075,1.07E-02,1.92E-02
122076,1.16E-02,1.92E-02
122077,1.11E-02,1.93E-02
122078,9.83E-03,1.94E-02
122079,9.63E-03,1.95E-02
122080,9.55E-03,1.96E-02
122081,9.48E-03,1.97E-02
122082,9.13E-03,1.98E-02
122083,9.02E-03,1.99E-02
122084,8.84E-03,2.00E-02
122085,8.79E-03,2.01E-02
122086,8.74E-03,2.02E-02
122087,8.70E-03,2.03E-02
122088,8.64E-03,2.04E-02
122089,8.61E-03,2.05E-02
122090,8.67E-03,2.06E-02
122091,8.84E-03,2.08E-02
122092,9.48E-03,2.09E-02
122093,9.47E-03,2.10E-02
122094,9.36E-03,2.12E-02
122095,9.03E-03,2.13E-02
122096,8.97E-03,2.14E-02
122097,8.80E-03,2.16E-02
122098,8.71E-03,2.17E-02
122099,8.64E-03,2.19E-02
122100,8.53E-03,2.20E-02
122101,8.27E-03,2.21E-02
122102,8.19E-03,2.23E-02
122103,7.93E-03,2.24E-02
122104,7.62E-03,2.25E-02
122105,7.56E-03,2.27E-02
122106,7.44E-03,2.28E-02
122107,7.22E-03,2.29E-02
122108,7.05E-03,2.30E-02
122109,6.81E-03,2.30E-02
122110,6.89E-03,2.31E-02
122111,6.17E-03,2.32E-02
122112,6.35E-03,2.33E-02
122113,6.56E-03,2.34E-02
122114,7.88E-03,2.34E-02
122115,8.06E-03,2.35E-02
122116,7.92E-03,2.36E-02
122117,7.68E-03,2.36E-02
122118,7.90E-03,1.64E-02
122119,8.00E-03,1.59E-02
122120,7.82E-03,1.54E-02
122121,7.17E-03,3.22E-02
122122,9.38E-03,3.68E-02
122123,5.85E-03,7.11E-03
122124,4.71E-03,2.20E-02
122125,4.51E-03,2.16E-02
122126,6.12E-03,3.75E-02
122127,7.12E-03,3.74E-02
122128,7.26E-03,3.75E-02
122129,7.56E-03,3.75E-02
122130,7.91E-03,3.77E-02
122131,8.13E-03,3.78E-02
122132,7.98E-03,3.80E-02
122133,7.94E-03,3.82E-02
122134,7.94E-03,3.84E-02
122135,7.94E-03,3.86E-02
122136,7.94E-03,3.88E-02
122137,7.94E-03,3.91E-02
122138,7.88E-03,3.94E-02
122139,7.82E-03,3.97E-02
122140,7.74E-03,4.00E-02
122141,7.64E-03,4.03E-02
122142,7.64E-03,4.07E-02
122143,7.72E-03,4.10E-02
122144,7.88E-03,4.14E-02
122145,8.14E-03,4.18E-02
122146,8.80E-03,4.21E-02
122147,7.44E-03,4.45E-02
122148,5.48E-03,4.56E-02
122149,6.55E-03,4.61E-02
122150,7.79E-03,2.79E-03
122151,8.01E-03,1.99E-02
122152,1.01E-02,1.94E-02
122153,8.11E-03,1.88E-02
122154,8.07E-03,1.83E-02
122155,8.00E-03,1.78E-02
122156,7.99E-03,1.73E-02
122157,7.92E-03,1.68E-02
122158,7.54E-03,6.15E-03
122159,7.66E-03,6.08E-03
122160,8.26E-03,6.00E-03
122161,8.39E-03,5.91E-03
122162,8.38E-03,5.80E-03
122163,6.91E-03,5.37E-03
122164,6.95E-03,5.23E-03
122165,7.07E-03,5.11E-03
122166,7.11E-03,5.00E-03
122167,7.34E-03,4.91E-03
122168,7.59E-03,4.84E-03
122169,7.73E-03,4.77E-03
122170,8.08E-03,4.70E-03
122171,8.24E-03,4.61E-03
122172,8.40E-03,4.53E-03
122173,8.46E-03,4.44E-03
122174,6.15E-03,2.93E-02
122175,5.66E-03,2.98E-02
122176,8.97E-03,1.22E-02
122177,8.66E-03,1.21E-02
122178,1.03E-02,1.19E-02
122179,1.05E-02,1.16E-02
122180,1.02E-02,1.13E-02
122181,9.68E-03,1.09E-02
122182,9.70E-03,1.06E-02
122183,8.19E-03,1.03E-02
122184,8.12E-03,9.97E-03
122185,8.13E-03,9.66E-03
122186,8.01E-03,9.36E-03
122187,8.01E-03,9.06E-03
122188,8.01E-03,8.77E-03
122189,8.00E-03,8.50E-03
122190,7.99E-03,8.24E-03
122191,7.98E-03,8.00E-03
122192,7.98E-03,7.78E-03
122193,7.98E-03,7.58E-03
122194,7.97E-03,7.41E-03
122195,7.97E-03,7.25E-03
122196,7.96E-03,7.11E-03
122197,7.95E-03,7.00E-03
122198,7.95E-03,6.90E-03
122199,7.94E-03,6.82E-03
122200,7.94E-03,6.76E-03
122201,7.93E-03,6.71E-03
122202,7.93E-03,6.68E-03
122203,7.92E-03,6.67E-03
122204,7.92E-03,6.66E-03
122205,7.92E-03,6.67E-03
122206,8.14E-03,6.69E-03
122207,8.65E-03,6.72E-03
122208,9.02E-03,6.76E-03
122209,9.05E-03,6.80E-03
122210,8.87E-03,6.85E-03
122211,8.70E-03,6.91E-03
122212,8.61E-03,6.97E-03
122213,8.53E-03,7.04E-03
122214,8.48E-03,7.11E-03
122215,8.43E-03,7.19E-03
122216,8.39E-03,7.27E-03
122217,8.32E-03,7.35E-03
122218,8.29E-03,7.44E-03
122219,8.34E-03,7.53E-03
122220,8.45E-03,7.63E-03
122221,8.44E-03,7.72E-03
122222,8.13E-03,7.82E-03
122223,7.91E-03,7.92E-03
122224,7.91E-03,8.02E-03
122225,7.91E-03,8.13E-03
122226,7.89E-03,8.23E-03
122227,7.84E-03,8.34E-03
122228,7.80E-03,8.45E-03
122229,7.76E-03,8.55E-03
122230,7.72E-03,8.66E-03
122231,7.67E-03,8.77E-03
122232,7.61E-03,8.88E-03
122233,7.53E-03,8.99E-03
122234,7.42E-03,9.09E-03
122235,7.27E-03,9.19E-03
122236,6.93E-03,9.29E-03
122237,6.48E-03,9.39E-03
122238,7.17E-03,9.48E-03
122239,8.34E-03,9.59E-03
122240,8.93E-03,9.71E-03
122241,9.10E-03,9.83E-03
122242,8.92E-03,9.94E-03
122243,8.78E-03,1.01E-02
122244,8.67E-03,1.02E-02
122245,8.59E-03,1.03E-02
122246,8.53E-03,1.04E-02
122247,8.48E-03,1.05E-02
122248,8.43E-03,1.06E-02
122249,8.40E-03,1.07E-02
122250,8.37E-03,1.08E-02
122251,8.35E-03,1.09E-02
122252,8.85E-03,1.10E-02
122253,9.54E-03,1.11E-02
122254,9.45E-03,1.12E-02
122255,9.02E-03,1.13E-02
122256,8.78E-03,1.14E-02
122257,8.62E-03,1.15E-02
122258,8.52E-03,1.16E-02
122259,8.45E-03,1.17E-02
122260,8.39E-03,1.18E-02
122261,8.35E-03,1.18E-02
122262,8.31E-03,1.19E-02
122263,8.29E-03,1.20E-02
122264,8.26E-03,1.21E-02
122265,8.25E-03,1.22E-02
122266,8.23E-03,1.23E-02
122267,8.22E-03,1.24E-02
122268,8.21E-03,1.25E-02
122269,8.20E-03,1.26E-02
122270,8.19E-03,1.26E-02
122271,8.18E-03,1.27E-02
122272,8.17E-03,1.28E-02
122273,8.17E-03,1.29E-02
122274,8.16E-03,1.30E-02
122275,8.16E-03,1.30E-02
122276,8.15E-03,1.31E-02
122277,8.15E-03,1.32E-02
122278,8.14E-03,1.33E-02
122279,8.14E-03,1.33E-02
122280,8.14E-03,1.34E-02
122281,8.14E-03,1.35E-02
122282,8.13E-03,1.36E-02
122283,8.13E-03,1.36E-02
122284,8.13E-03,1.37E-02
122285,8.13E-03,1.38E-02
122286,8.13E-03,1.38E-02
122287,8.12E-03,1.39E-02
122288,8.12E-03,1.40E-02
122289,8.12E-03,1.40E-02
122290,8.12E-03,1.41E-02
122291,8.11E-03,1.42E-02
122292,8.11E-03,1.42E-02
122293,8.11E-03,1.43E-02
122294,8.11E-03,1.44E-02
122295,8.11E-03,1.44E-02
122296,8.11E-03,1.45E-02
122297,8.11E-03,1.46E-02
122298,8.11E-03,1.46E-02
122299,8.11E-03,1.47E-02
122300,8.11E-03,1.47E-02
122301,8.11E-03,1.48E-02
122302,8.11E-03,1.49E-02
122303,8.11E-03,1.49E-02
122304,8.11E-03,1.50E-02
122305,8.11E-03,1.50E-02
122306,8.10E-03,1.51E-02
122307,8.10E-03,1.52E-02
122308,8.10E-03,1.52E-02
122309,8.10E-03,1.53E-02
122310,8.10E-03,1.53E-02
122311,8.10E-03,1.54E-02
122312,8.10E-03,1.55E-02
122313,8.10E-03,1.55E-02
122314,8.10E-03,1.56E-02
122315,8.10E-03,1.56E-02
122316,8.10E-03,1.57E-02
122317,8.10E-03,1.58E-02
122318,8.10E-03,1.58E-02
122319,8.10E-03,1.59E-02
122320,8.10E-03,1.59E-02
122321,8.10E-03,1.60E-02
122322,8.10E-03,1.60E-02
122323,8.10E-03,1.61E-02
122324,8.10E-03,1.62E-02
122325,8.10E-03,1.62E-02
122326,8.10E-03,1.63E-02
122327,8.11E-03,1.63E-02
122328,8.11E-03,1.64E-02
122329,8.11E-03,1.64E-02
122330,8.11E-03,1.65E-02
122331,8.11E-03,1.65E-02
122332,8.11E-03,1.66E-02
122333,8.12E-03,1.67E-02
122334,8.12E-03,1.67E-02
122335,8.12E-03,1.68E-02
122336,8.12E-03,1.68E-02
122337,8.12E-03,1.69E-02
122338,8.12E-03,1.69E-02
122339,8.13E-03,1.70E-02
122340,8.13E-03,1.70E-02
122341,8.13E-03,1.71E-02
122342,8.14E-03,1.71E-02
122343,8.14E-03,1.72E-02
122344,8.14E-03,1.72E-02
122345,8.15E-03,1.73E-02
122346,8.15E-03,1.73E-02
122347,8.16E-03,1.74E-02
122348,8.17E-03,1.74E-02
122349,8.18E-03,1.75E-02
122350,8.19E-03,1.75E-02
122351,8.20E-03,1.75E-02
122352,8.22E-03,1.76E-02
122353,8.24E-03,1.76E-02
122354,8.25E-03,1.77E-02
122355,8.28E-03,1.77E-02
122356,8.31E-03,1.78E-02
122357,8.35E-03,1.78E-02
122358,8.40E-03,1.79E-02
122359,8.47E-03,1.79E-02
122360,8.58E-03,1.80E-02
122361,8.74E-03,1.81E-02
122362,9.00E-03,1.81E-02
122363,8.92E-03,1.82E-02
122364,7.95E-03,1.83E-02
122365,7.33E-03,1.83E-02
122366,7.50E-03,1.84E-02
122367,7.63E-03,1.84E-02
122368,7.71E-03,1.85E-02
122369,7.77E-03,1.85E-02
122370,7.81E-03,1.86E-02
122371,7.85E-03,1.86E-02
122372,7.88E-03,1.87E-02
122373,7.90E-03,1.88E-02
122374,7.92E-03,1.88E-02
122375,7.94E-03,1.89E-02
122376,7.95E-03,1.89E-02
122377,7.96E-03,1.90E-02
122378,7.97E-03,1.90E-02
122379,7.98E-03,1.91E-02
122380,7.99E-03,1.91E-02
122381,7.99E-03,1.92E-02
122382,8.00E-03,1.92E-02
122383,8.00E-03,1.93E-02
122384,8.01E-03,1.93E-02
122385,8.01E-03,1.94E-02
122386,8.02E-03,1.94E-02
122387,8.02E-03,1.95E-02
122388,8.02E-03,1.95E-02
122389,8.03E-03,1.96E-02
122390,8.02E-03,1.97E-02
122391,8.02E-03,1.97E-02
122392,8.02E-03,1.98E-02
122393,8.04E-03,1.98E-02
122394,8.04E-03,1.99E-02
122395,8.05E-03,1.99E-02
122396,8.05E-03,2.00E-02
122397,8.06E-03,2.01E-02
122398,8.06E-03,2.01E-02
122399,8.06E-03,2.02E-02
122400,8.06E-03,2.02E-02
122401,8.09E-03,2.03E-02
122402,8.12E-03,2.03E-02
122403,8.13E-03,2.04E-02
122404,8.14E-03,2.05E-02
122405,8.14E-03,2.05E-02
122406,8.14E-03,2.06E-02
122407,8.15E-03,2.06E-02
122408,8.15E-03,2.07E-02
122409,8.16E-03,2.07E-02
122410,8.16E-03,2.07E-02
122411,8.17E-03,2.08E-02
122412,8.17E-03,2.08E-02
122413,8.18E-03,2.09E-02
122414,8.19E-03,2.09E-02
122415,8.20E-03,2.09E-02
122416,8.22E-03,2.10E-02
122417,8.23E-03,2.10E-02
122418,8.25E-03,2.10E-02
122419,8.27E-03,2.10E-02
122420,8.30E-03,2.10E-02
122421,8.34E-03,2.11E-02
122422,8.39E-03,2.11E-02
122423,8.54E-03,2.11E-02
122424,8.64E-03,2.11E-02
122425,8.80E-03,2.11E-02
122426,8.83E-03,2.12E-02
122427,8.84E-03,2.12E-02
122428,8.63E-03,2.13E-02
122429,5.45E-03,6.92E-03
122430,6.74E-03,6.91E-03
122431,8.28E-03,6.92E-03
122432,9.56E-03,6.91E-03
122433,9.12E-03,6.90E-03
122434,9.06E-03,6.89E-03
122435,9.05E-03,6.89E-03
122436,8.84E-03,6.89E-03
122437,8.67E-03,6.88E-03
122438,8.54E-03,6.88E-03
122439,8.00E-03,6.87E-03
122440,7.23E-03,6.86E-03
122441,7.17E-03,6.85E-03
122442,7.32E-03,6.84E-03
122443,7.24E-03,6.83E-03
122444,7.03E-03,6.82E-03
122445,6.72E-03,6.81E-03
122446,6.44E-03,6.79E-03
122447,5.95E-03,6.78E-03
122448,6.36E-03,6.77E-03
122449,7.69E-03,6.76E-03
122450,7.86E-03,6.74E-03
122451,8.00E-03,6.72E-03
122452,8.07E-03,6.70E-03
122453,8.07E-03,6.68E-03
122454,7.88E-03,6.66E-03
122455,7.63E-03,6.64E-03
122456,7.50E-03,6.63E-03
122457,7.38E-03,6.61E-03
122458,7.23E-03,6.59E-03
122459,7.03E-03,6.58E-03
122460,7.57E-03,6.56E-03
122461,8.72E-03,6.55E-03
122462,9.59E-03,6.53E-03
122463,9.88E-03,6.52E-03
122464,9.56E-03,6.50E-03
122465,9.24E-03,6.48E-03
122466,8.93E-03,6.46E-03
122467,8.31E-03,6.44E-03
122468,7.82E-03,6.42E-03
122469,7.47E-03,6.41E-03
122470,6.82E-03,6.39E-03
122471,6.52E-03,6.38E-03
122472,6.40E-03,6.37E-03
122473,6.71E-03,6.36E-03
122474,8.04E-03,6.35E-03
122475,9.21E-03,6.34E-03
122476,9.83E-03,6.33E-03
122477,9.72E-03,6.31E-03
122478,9.21E-03,6.29E-03
122479,8.99E-03,6.27E-03
122480,7.15E-03,6.25E-03
122481,6.95E-03,6.23E-03
122482,6.75E-03,6.21E-03
122483,6.59E-03,6.20E-03
122484,6.35E-03,6.18E-03
122485,5.95E-03,6.17E-03
122486,6.49E-03,6.11E-03
122487,5.71E-03,6.17E-03
122488,8.47E-03,6.16E-03
122489,8.72E-03,6.14E-03
122490,9.64E-03,6.12E-03
122491,9.77E-03,6.09E-03
122492,8.12E-03,6.07E-03
122493,7.57E-03,6.05E-03
122494,7.28E-03,6.02E-03
122495,6.82E-03,6.00E-03
122496,6.47E-03,5.99E-03
122497,6.15E-03,5.97E-03
122498,5.71E-03,5.96E-03
122499,5.70E-03,5.95E-03
122500,5.78E-03,5.94E-03
122501,8.01E-03,5.93E-03
122502,7.95E-03,5.92E-03
122503,8.34E-03,5.91E-03
122504,8.54E-03,2.99E-03
122505,8.66E-03,3.04E-03
122506,9.04E-03,3.07E-03
122507,9.15E-03,3.09E-03
122508,7.41E-03,3.12E-03
122509,7.34E-03,3.14E-03
122510,7.18E-03,3.16E-03
122511,6.76E-03,3.19E-03
122512,5.95E-03,3.22E-03
122513,5.92E-03,3.25E-03
122514,6.01E-03,3.27E-03
122515,6.49E-03,7.53E-03
122516,1.20E-02,6.85E-03
122517,8.70E-03,3.99E-03
122518,6.72E-03,2.76E-02
122519,6.91E-03,2.80E-02
122520,7.98E-03,1.23E-02
122521,6.02E-03,6.89E-03
122522,4.76E-03,6.01E-03
122523,7.94E-03,2.49E-03
122524,6.96E-03,2.96E-03
122525,6.79E-03,6.99E-03
122526,3.99E-03,8.36E-03
122527,5.47E-03,8.30E-03
122528,9.22E-03,3.75E-03
122529,6.28E-03,8.66E-03
122530,5.49E-03,8.70E-03
122531,1.11E-02,6.81E-03
122532,9.08E-03,1.97E-02
122533,6.68E-03,3.13E-03
122534,5.87E-03,2.22E-02
122535,7.96E-03,1.23E-02
122536,6.41E-03,6.81E-03
122537,6.93E-03,2.88E-03
122538,6.52E-03,3.69E-02
122539,5.52E-03,1.92E-02
122540,5.85E-03,9.28E-03
122541,5.87E-03,8.89E-03
122542,8.24E-03,1.80E-02
122543,5.29E-03,7.02E-03
122544,4.95E-03,6.82E-03
122545,6.71E-03,1.24E-02
122546,5.19E-03,8.05E-03
122547,6.29E-03,1.94E-02
122548,5.47E-03,1.26E-02
122549,5.09E-03,1.25E-02
122550,5.86E-03,1.26E-02
122551,6.41E-03,6.61E-03
122552,5.63E-03,7.06E-03
122553,6.96E-03,7.56E-03
122554,7.14E-03,7.64E-03
122555,7.59E-03,1.85E-02
122556,8.64E-03,2.54E-02
122557,6.42E-03,2.59E-02
122558,6.38E-03,2.63E-02
122559,5.65E-03,8.22E-03
122560,5.49E-03,8.18E-03
122561,5.74E-03,8.24E-03
122562,7.00E-03,8.46E-03
122563,7.27E-03,3.93E-03
122564,6.25E-03,9.31E-03
122565,1.02E-02,7.32E-03
122566,1.02E-02,7.35E-03
122567,1.04E-02,7.36E-03
122568,1.06E-02,7.33E-03
122569,8.42E-03,6.45E-03
122570,8.59E-03,6.52E-03
122571,8.66E-03,6.57E-03
122572,8.81E-03,6.60E-03
122573,8.50E-03,6.64E-03
122574,8.33E-03,6.68E-03
122575,8.28E-03,6.72E-03
122576,8.13E-03,6.76E-03
122577,8.11E-03,6.80E-03
122578,8.07E-03,6.84E-03
122579,7.96E-03,6.87E-03
122580,7.85E-03,6.91E-03
122581,7.72E-03,6.95E-03
122582,7.75E-03,6.98E-03
122583,7.58E-03,7.02E-03
122584,7.51E-03,7.06E-03
122585,5.84E-03,7.08E-03
122586,7.17E-03,7.11E-03
122587,7.86E-03,5.75E-03
122588,7.66E-03,5.69E-03
122589,1.06E-02,5.84E-03
122590,1.03E-02,5.84E-03
122591,9.84E-03,5.80E-03
122592,9.62E-03,5.76E-03
122593,9.57E-03,5.73E-03
122594,9.19E-03,5.69E-03
122595,9.00E-03,5.66E-03
122596,8.83E-03,5.62E-03
122597,8.68E-03,5.59E-03
122598,8.56E-03,5.55E-03
122599,8.43E-03,5.51E-03
122600,8.15E-03,5.48E-03
122601,7.88E-03,5.44E-03
122602,7.80E-03,5.40E-03
122603,7.78E-03,5.36E-03
122604,7.74E-03,5.33E-03
122605,7.69E-03,5.29E-03
122606,7.63E-03,5.25E-03
122607,7.54E-03,5.21E-03
122608,7.43E-03,5.18E-03
122609,7.27E-03,5.14E-03
122610,7.04E-03,5.11E-03
122611,6.65E-03,5.08E-03
122612,6.11E-03,5.05E-03
122613,6.25E-03,5.02E-03
122614,6.86E-03,5.00E-03
122615,6.95E-03,4.97E-03
122616,6.87E-03,4.95E-03
122617,6.89E-03,4.93E-03
122618,6.99E-03,4.91E-03
122619,7.28E-03,4.89E-03
122620,9.50E-03,4.88E-03
122621,9.50E-03,4.86E-03
122622,9.67E-03,4.83E-03
122623,9.72E-03,4.81E-03
122624,9.58E-03,4.78E-03
122625,9.36E-03,4.75E-03
122626,9.14E-03,4.72E-03
122627,8.93E-03,4.68E-03
122628,8.02E-03,4.65E-03
122629,7.57E-03,4.62E-03
122630,7.41E-03,4.59E-03
122631,7.32E-03,4.57E-03
122632,7.20E-03,4.54E-03
122633,7.06E-03,4.52E-03
122634,6.86E-03,4.50E-03
122635,6.62E-03,4.48E-03
122636,6.67E-03,4.46E-03
122637,7.09E-03,4.45E-03
122638,7.30E-03,4.44E-03
122639,7.23E-03,4.42E-03
122640,7.18E-03,4.41E-03
122641,7.16E-03,4.40E-03
122642,7.85E-03,4.40E-03
122643,8.88E-03,4.39E-03
122644,9.14E-03,4.38E-03
122645,9.00E-03,4.37E-03
122646,8.89E-03,4.36E-03
122647,8.77E-03,4.34E-03
122648,8.55E-03,4.33E-03
122649,8.29E-03,4.31E-03
122650,8.10E-03,4.29E-03
122651,8.06E-03,4.28E-03
122652,8.10E-03,4.26E-03
122653,8.10E-03,4.25E-03
122654,8.18E-03,4.23E-03
122655,8.82E-03,4.22E-03
122656,9.32E-03,4.20E-03
122657,9.14E-03,4.18E-03
122658,8.89E-03,4.16E-03
122659,8.73E-03,4.14E-03
122660,8.74E-03,4.11E-03
122661,8.89E-03,4.09E-03
122662,9.13E-03,4.06E-03
122663,9.48E-03,4.03E-03
122664,9.56E-03,3.99E-03
122665,9.28E-03,3.96E-03
122666,9.01E-03,3.91E-03
122667,8.83E-03,3.87E-03
122668,8.71E-03,3.83E-03
122669,8.64E-03,3.78E-03
122670,8.64E-03,3.74E-03
122671,8.56E-03,3.69E-03
122672,8.42E-03,3.64E-03
122673,8.34E-03,3.59E-03
122674,8.29E-03,3.54E-03
122675,8.25E-03,3.49E-03
122676,8.23E-03,3.44E-03
122677,8.21E-03,3.39E-03
122678,8.19E-03,3.34E-03
122679,8.13E-03,3.29E-03
122680,8.00E-03,3.24E-03
122681,7.91E-03,3.19E-03
122682,7.90E-03,3.14E-03
122683,7.88E-03,3.09E-03
122684,7.87E-03,3.05E-03
122685,7.85E-03,3.00E-03
122686,7.83E-03,2.95E-03
122687,7.81E-03,2.91E-03
122688,7.78E-03,2.86E-03
122689,7.75E-03,2.82E-03
122690,7.71E-03,2.78E-03
122691,7.66E-03,2.73E-03
122692,7.61E-03,2.69E-03
122693,7.54E-03,2.65E-03
122694,7.44E-03,2.62E-03
122695,7.42E-03,2.58E-03
122696,7.52E-03,2.54E-03
122697,7.61E-03,2.51E-03
122698,7.61E-03,2.48E-03
122699,7.56E-03,2.45E-03
122700,7.50E-03,2.41E-03
122701,7.39E-03,2.39E-03
122702,7.22E-03,2.36E-03
122703,7.19E-03,2.33E-03
122704,7.32E-03,2.31E-03
122705,7.43E-03,2.28E-03
122706,7.54E-03,2.26E-03
122707,7.45E-03,2.24E-03
122708,7.37E-03,2.21E-03
122709,7.31E-03,2.19E-03
122710,7.15E-03,2.17E-03
122711,7.06E-03,2.15E-03
122712,7.49E-03,2.13E-03
122713,5.94E-03,2.13E-03
122714,4.83E-03,2.11E-03
122715,5.63E-03,2.12E-03
122716,5.38E-03,2.16E-03
122717,5.87E-03,2.21E-03
122718,6.38E-03,2.25E-03
122719,6.93E-03,2.28E-03
122720,6.93E-03,2.29E-03
122721,8.15E-03,2.30E-03
122722,9.02E-03,2.32E-03
122723,8.89E-03,2.35E-03
122724,8.78E-03,2.38E-03
122725,6.80E-03,2.40E-03
122726,8.55E-03,2.50E-03
122727,6.87E-03,2.44E-03
122728,7.41E-03,9.97E-03
122729,7.96E-03,1.46E-02
122730,8.04E-03,1.42E-02
122731,8.45E-03,1.38E-02
122732,8.48E-03,1.34E-02
122733,8.24E-03,1.30E-02
122734,8.10E-03,1.26E-02
122735,8.17E-03,1.22E-02
122736,8.09E-03,1.18E-02
122737,7.94E-03,1.15E-02
122738,7.70E-03,1.12E-02
122739,7.38E-03,1.08E-02
122740,7.15E-03,1.06E-02
122741,7.31E-03,1.03E-02
122742,7.53E-03,6.97E-03
122743,7.34E-03,6.97E-03
122744,6.80E-03,6.98E-03
122745,6.05E-03,6.98E-03
122746,6.15E-03,6.99E-03
122747,7.50E-03,1.92E-02
122748,8.27E-03,1.92E-02
122749,7.81E-03,1.94E-02
122750,7.81E-03,1.95E-02
122751,6.93E-03,3.29E-03
122752,6.35E-03,6.89E-03
122753,5.28E-03,6.88E-03
122754,5.13E-03,6.89E-03
122755,7.47E-03,4.55E-02
122756,8.41E-03,2.02E-02
122757,9.47E-03,2.30E-02
122758,9.22E-03,2.32E-02
122759,8.29E-03,2.36E-02
122760,1.03E-02,2.37E-02
122761,1.03E-02,2.34E-02
122762,6.66E-03,4.22E-02
122763,6.16E-03,4.08E-02
122764,6.04E-03,7.63E-03
122765,6.20E-03,7.61E-03
122766,8.69E-03,2.43E-02
122767,5.39E-03,2.32E-02
122768,8.07E-03,1.81E-02
122769,9.10E-03,1.82E-02
122770,8.23E-03,1.84E-02
122771,9.51E-03,1.83E-02
122772,7.64E-03,1.58E-02
122773,8.03E-03,1.48E-02
122774,7.82E-03,1.54E-02
122775,6.63E-03,2.05E-02
122776,7.54E-03,1.98E-02
122777,7.18E-03,2.02E-02
122778,7.54E-03,6.01E-03
122779,7.17E-03,5.84E-03
122780,7.60E-03,5.92E-03
122781,8.62E-03,5.38E-03
122782,9.32E-03,5.23E-03
122783,1.03E-02,5.34E-03
122784,8.46E-03,2.16E-02
122785,9.52E-03,2.17E-02
122786,8.61E-03,2.16E-02
122787,7.09E-03,3.75E-02
122788,7.79E-03,3.73E-02
122789,7.86E-03,3.70E-02
122790,7.88E-03,3.68E-02
122791,8.03E-03,3.66E-02
122792,8.06E-03,3.64E-02
122793,8.06E-03,3.62E-02
122794,8.06E-03,3.60E-02
122795,8.06E-03,3.58E-02
122796,8.06E-03,3.55E-02
122797,8.06E-03,3.53E-02
122798,8.06E-03,3.51E-02
122799,8.06E-03,3.50E-02
122800,8.06E-03,3.48E-02
122801,8.06E-03,3.46E-02
122802,8.05E-03,3.44E-02
122803,8.05E-03,3.42E-02
122804,8.05E-03,3.40E-02
122805,8.05E-03,3.38E-02
122806,8.05E-03,3.37E-02
122807,8.05E-03,3.35E-02
122808,8.05E-03,3.33E-02
122809,8.05E-03,3.31E-02
122810,8.05E-03,3.30E-02
122811,8.05E-03,3.28E-02
122812,8.05E-03,3.27E-02
122813,8.05E-03,3.25E-02
122814,8.04E-03,3.23E-02
122815,8.04E-03,3.22E-02
122816,8.04E-03,3.20E-02
122817,8.04E-03,3.19E-02
122818,8.04E-03,3.17E-02
122819,8.04E-03,3.16E-02
122820,8.04E-03,3.14E-02
122821,8.04E-03,3.13E-02
122822,8.03E-03,3.12E-02
122823,8.03E-03,3.10E-02
122824,8.03E-03,3.09E-02
122825,8.03E-03,3.08E-02
122826,8.02E-03,3.07E-02
122827,8.02E-03,3.05E-02
122828,8.01E-03,3.04E-02
122829,8.00E-03,3.03E-02
122830,8.00E-03,3.02E-02
122831,7.99E-03,3.01E-02
122832,7.98E-03,3.00E-02
122833,7.98E-03,2.99E-02
122834,7.97E-03,2.99E-02
122835,7.95E-03,2.98E-02
122836,7.94E-03,2.97E-02
122837,7.93E-03,2.97E-02
122838,7.91E-03,2.96E-02
122839,7.88E-03,2.96E-02
122840,7.80E-03,2.95E-02
122841,7.70E-03,2.95E-02
122842,7.57E-03,2.95E-02
122843,7.43E-03,2.94E-02
122844,7.23E-03,2.94E-02
122845,6.92E-03,2.94E-02
122846,6.72E-03,2.93E-02
122847,6.44E-03,2.93E-02
122848,6.26E-03,2.92E-02
122849,5.85E-03,2.92E-02
122850,5.77E-03,2.91E-02
122851,5.82E-03,2.91E-02
122852,5.98E-03,2.90E-02
122853,6.06E-03,2.89E-02
122854,6.08E-03,2.88E-02
122855,6.13E-03,2.87E-02
122856,6.20E-03,2.86E-02
122857,7.50E-03,2.85E-02
122858,9.14E-03,2.84E-02
122859,9.73E-03,2.82E-02
122860,9.49E-03,2.80E-02
122861,9.25E-03,2.79E-02
122862,9.29E-03,2.77E-02
122863,9.41E-03,2.76E-02
122864,9.37E-03,2.75E-02
122865,9.21E-03,2.74E-02
122866,9.06E-03,2.73E-02
122867,8.94E-03,2.72E-02
122868,8.84E-03,2.72E-02
122869,8.76E-03,2.71E-02
122870,8.70E-03,2.71E-02
122871,8.64E-03,2.71E-02
122872,8.60E-03,2.71E-02
122873,8.56E-03,2.70E-02
122874,8.51E-03,2.70E-02
122875,8.48E-03,2.70E-02
122876,8.44E-03,2.70E-02
122877,8.41E-03,2.70E-02
122878,8.38E-03,2.70E-02
122879,8.36E-03,2.69E-02
122880,8.34E-03,2.69E-02
122881,8.32E-03,2.69E-02
122882,8.30E-03,2.69E-02
122883,8.29E-03,2.69E-02
122884,8.28E-03,2.69E-02
122885,8.26E-03,2.68E-02
122886,8.25E-03,2.68E-02
122887,8.24E-03,2.68E-02
122888,8.24E-03,2.68E-02
122889,8.23E-03,2.68E-02
122890,8.20E-03,2.68E-02
122891,8.16E-03,2.68E-02
122892,8.12E-03,2.67E-02
122893,8.11E-03,2.67E-02
122894,8.11E-03,2.67E-02
122895,8.11E-03,2.67E-02
122896,8.00E-03,2.67E-02
122897,7.75E-03,2.67E-02
122898,7.61E-03,2.68E-02
122899,7.61E-03,2.68E-02
122900,7.61E-03,2.68E-02
122901,7.61E-03,2.68E-02
122902,7.61E-03,2.68E-02
122903,7.58E-03,2.68E-02
122904,7.43E-03,2.68E-02
122905,7.18E-03,2.68E-02
122906,6.90E-03,2.68E-02
122907,6.44E-03,2.68E-02
122908,5.72E-03,2.68E-02
122909,5.71E-03,2.68E-02
122910,6.61E-03,2.68E-02
122911,6.88E-03,2.67E-02
122912,7.02E-03,2.67E-02
122913,6.70E-03,2.67E-02
122914,6.01E-03,2.66E-02
122915,6.43E-03,2.66E-02
122916,7.57E-03,2.65E-02
122917,7.85E-03,2.64E-02
122918,7.99E-03,2.63E-02
122919,8.19E-03,2.62E-02
122920,8.40E-03,2.61E-02
122921,8.64E-03,2.60E-02
122922,9.36E-03,2.59E-02
122923,9.87E-03,2.58E-02
122924,9.55E-03,2.57E-02
122925,9.36E-03,2.56E-02
122926,9.53E-03,2.55E-02
122927,9.74E-03,2.54E-02
122928,9.99E-03,2.54E-02
122929,1.00E-02,2.53E-02
122930,9.67E-03,2.53E-02
122931,9.25E-03,2.53E-02
122932,8.99E-03,2.53E-02
122933,8.81E-03,2.53E-02
122934,8.69E-03,2.53E-02
122935,8.59E-03,2.53E-02
122936,8.52E-03,2.53E-02
122937,8.45E-03,2.53E-02
122938,8.41E-03,2.53E-02
122939,8.40E-03,2.53E-02
122940,8.39E-03,2.53E-02
122941,8.38E-03,2.53E-02
122942,8.37E-03,2.53E-02
122943,8.35E-03,2.52E-02
122944,8.34E-03,2.52E-02
122945,8.31E-03,2.52E-02
122946,8.29E-03,2.52E-02
122947,8.27E-03,2.51E-02
122948,8.26E-03,2.51E-02
122949,8.24E-03,2.50E-02
122950,8.23E-03,2.50E-02
122951,8.22E-03,2.49E-02
122952,8.21E-03,2.49E-02
122953,8.20E-03,2.48E-02
122954,8.19E-03,2.48E-02
122955,8.19E-03,2.47E-02
122956,8.18E-03,2.47E-02
122957,8.18E-03,2.46E-02
122958,8.17E-03,2.45E-02
122959,8.17E-03,2.45E-02
122960,8.16E-03,2.44E-02
122961,8.16E-03,2.43E-02
122962,8.15E-03,2.43E-02
122963,8.15E-03,2.42E-02
122964,8.15E-03,2.41E-02
122965,8.14E-03,2.41E-02
122966,8.14E-03,2.40E-02
122967,8.14E-03,2.39E-02
122968,8.14E-03,2.39E-02
122969,8.13E-03,2.38E-02
122970,8.13E-03,2.38E-02
122971,8.12E-03,2.37E-02
122972,8.09E-03,2.36E-02
122973,8.06E-03,2.36E-02
122974,8.05E-03,2.35E-02
122975,8.05E-03,2.35E-02
122976,8.03E-03,2.34E-02
122977,8.02E-03,2.34E-02
122978,7.98E-03,2.33E-02
122979,7.94E-03,2.33E-02
122980,7.94E-03,2.32E-02
122981,7.96E-03,2.32E-02
122982,7.95E-03,2.31E-02
122983,7.93E-03,2.31E-02
122984,7.92E-03,2.30E-02
122985,7.90E-03,2.30E-02
122986,7.88E-03,2.30E-02
122987,7.85E-03,2.29E-02
122988,7.82E-03,2.29E-02
122989,7.78E-03,2.29E-02
122990,7.73E-03,2.28E-02
122991,7.61E-03,2.28E-02
122992,7.33E-03,2.27E-02
122993,7.25E-03,2.27E-02
122994,6.95E-03,2.27E-02
122995,6.59E-03,2.26E-02
122996,6.41E-03,2.26E-02
122997,6.34E-03,2.26E-02
122998,6.47E-03,2.25E-02
122999,6.96E-03,2.25E-02
123000,9.33E-03,2.24E-02
123001,9.21E-03,2.23E-02
123002,9.06E-03,2.23E-02
123003,8.79E-03,2.22E-02
123004,8.69E-03,2.22E-02
123005,8.61E-03,2.22E-02
123006,8.55E-03,2.21E-02
123007,8.50E-03,2.21E-02
123008,8.18E-03,2.21E-02
123009,7.97E-03,2.20E-02
123010,7.29E-03,2.20E-02
123011,7.03E-03,2.19E-02
123012,6.90E-03,2.19E-02
123013,6.76E-03,2.19E-02
123014,6.92E-03,2.18E-02
123015,7.88E-03,2.17E-02
123016,8.97E-03,2.16E-02
123017,6.18E-03,2.61E-03
123018,7.55E-03,2.62E-03
123019,7.97E-03,2.66E-03
123020,7.93E-03,2.67E-03
123021,8.39E-03,2.63E-03
123022,6.53E-03,2.80E-03
123023,6.54E-03,2.74E-03
123024,6.63E-03,2.68E-03
123025,7.58E-03,2.62E-03
123026,6.66E-03,1.90E-02
123027,7.71E-03,1.89E-02
123028,7.30E-03,1.87E-02
123029,7.66E-03,1.88E-02
123030,7.45E-03,3.30E-02
123031,8.48E-03,3.40E-02
123032,9.26E-03,3.51E-02
123033,6.89E-03,3.57E-02
123034,5.45E-03,3.56E-02
123035,7.05E-03,3.63E-02
123036,6.49E-03,2.72E-02
123037,6.31E-03,2.59E-02
123038,6.68E-03,2.64E-02
123039,6.33E-03,1.91E-02
123040,7.59E-03,1.89E-02
123041,7.34E-03,1.88E-02
123042,7.18E-03,1.87E-02
123043,7.29E-03,1.85E-02
123044,7.33E-03,1.84E-02
123045,7.46E-03,1.82E-02
123046,7.77E-03,1.80E-02
123047,7.91E-03,1.78E-02
123048,8.02E-03,1.76E-02
123049,8.31E-03,1.74E-02
123050,8.32E-03,1.72E-02
123051,8.33E-03,1.70E-02
123052,8.35E-03,1.68E-02
123053,8.40E-03,1.66E-02
123054,8.61E-03,1.65E-02
123055,8.93E-03,1.63E-02
123056,9.16E-03,1.61E-02
123057,9.36E-03,1.60E-02
123058,9.65E-03,1.58E-02
123059,1.01E-02,1.57E-02
123060,1.05E-02,1.55E-02
123061,1.04E-02,1.54E-02
123062,9.94E-03,1.53E-02
123063,9.06E-03,1.51E-02
123064,8.42E-03,1.50E-02
123065,8.31E-03,1.49E-02
123066,7.61E-03,1.48E-02
123067,6.35E-03,1.47E-02
123068,6.27E-03,1.46E-02
123069,6.31E-03,1.45E-02
123070,6.57E-03,1.44E-02
123071,6.98E-03,1.43E-02
123072,7.16E-03,1.42E-02
123073,7.41E-03,1.41E-02
123074,7.57E-03,1.39E-02
123075,7.86E-03,1.38E-02
123076,7.91E-03,1.37E-02
123077,7.94E-03,1.35E-02
123078,7.96E-03,1.34E-02
123079,7.97E-03,1.33E-02
123080,7.97E-03,1.31E-02
123081,7.97E-03,1.30E-02
123082,7.99E-03,1.29E-02
123083,8.24E-03,1.27E-02
123084,8.47E-03,1.26E-02
123085,8.41E-03,1.25E-02
123086,8.31E-03,1.24E-02
123087,8.27E-03,1.22E-02
123088,8.31E-03,1.21E-02
123089,8.37E-03,1.20E-02
123090,8.41E-03,1.19E-02
123091,8.46E-03,1.18E-02
123092,8.53E-03,1.17E-02
123093,8.62E-03,1.15E-02
123094,8.75E-03,1.14E-02
123095,8.96E-03,1.13E-02
123096,9.14E-03,1.12E-02
123097,9.25E-03,1.11E-02
123098,9.44E-03,1.10E-02
123099,9.77E-03,1.09E-02
123100,9.88E-03,1.08E-02
123101,1.02E-02,1.07E-02
123102,1.02E-02,1.06E-02
123103,1.02E-02,1.05E-02
123104,1.02E-02,1.03E-02
123105,9.90E-03,1.02E-02
123106,9.08E-03,1.01E-02
123107,7.04E-03,6.99E-03
123108,7.47E-03,6.99E-03
123109,7.78E-03,6.98E-03
123110,7.02E-03,3.14E-02
123111,6.59E-03,3.07E-02
123112,6.04E-03,2.67E-02
123113,6.33E-03,2.99E-02
123114,6.31E-03,2.62E-02
123115,6.92E-03,6.97E-03
123116,6.69E-03,6.99E-03
123117,7.81E-03,7.01E-03
123118,8.09E-03,7.01E-03
123119,8.18E-03,7.02E-03
123120,8.37E-03,7.03E-03
123121,8.65E-03,7.02E-03
123122,6.09E-03,7.02E-03
123123,5.18E-03,7.00E-03
123124,6.62E-03,7.03E-03
123125,6.90E-03,7.06E-03
123126,7.15E-03,7.09E-03
123127,7.32E-03,7.13E-03
123128,7.39E-03,7.16E-03
123129,7.51E-03,7.19E-03
123130,7.75E-03,7.23E-03
123131,7.83E-03,7.26E-03
123132,7.87E-03,7.29E-03
123133,7.91E-03,7.33E-03
123134,7.94E-03,7.37E-03
123135,7.96E-03,7.41E-03
123136,7.97E-03,7.45E-03
123137,7.97E-03,7.49E-03
123138,7.98E-03,7.53E-03
123139,7.98E-03,7.58E-03
123140,7.99E-03,7.62E-03
123141,8.00E-03,7.67E-03
123142,8.00E-03,7.72E-03
123143,8.00E-03,7.77E-03
123144,8.01E-03,7.82E-03
123145,8.01E-03,7.87E-03
123146,8.02E-03,7.92E-03
123147,8.02E-03,7.98E-03
123148,8.02E-03,8.03E-03
123149,8.02E-03,8.09E-03
123150,8.03E-03,8.15E-03
123151,8.03E-03,8.21E-03
123152,8.03E-03,8.27E-03
123153,8.03E-03,8.34E-03
123154,8.04E-03,8.40E-03
123155,8.02E-03,8.47E-03
123156,8.00E-03,8.54E-03
123157,7.99E-03,8.61E-03
123158,7.97E-03,8.69E-03
123159,7.96E-03,8.76E-03
123160,7.95E-03,8.84E-03
123161,7.93E-03,8.93E-03
123162,7.91E-03,9.01E-03
123163,7.88E-03,9.10E-03
123164,7.85E-03,9.19E-03
123165,7.81E-03,9.28E-03
123166,7.75E-03,9.37E-03
123167,7.67E-03,9.47E-03
123168,7.63E-03,9.56E-03
123169,7.77E-03,9.66E-03
123170,8.04E-03,9.76E-03
123171,8.80E-03,9.87E-03
123172,9.02E-03,9.99E-03
123173,7.95E-03,1.45E-02
123174,7.93E-03,1.49E-02
123175,6.44E-03,6.85E-03
123176,7.55E-03,6.85E-03
123177,7.73E-03,6.84E-03
123178,6.28E-03,3.83E-02
123179,5.97E-03,3.86E-02
123180,5.72E-03,3.84E-02
123181,5.97E-03,8.53E-03
123182,6.00E-03,8.98E-03
123183,8.46E-03,1.78E-02
123184,1.00E-02,1.77E-02
123185,1.01E-02,1.76E-02
123186,1.00E-02,1.75E-02
123187,9.73E-03,1.74E-02
123188,9.49E-03,1.73E-02
123189,9.38E-03,1.72E-02
123190,9.19E-03,1.71E-02
123191,9.07E-03,1.70E-02
123192,8.70E-03,1.69E-02
123193,8.70E-03,1.68E-02
123194,8.53E-03,1.67E-02
123195,8.54E-03,1.66E-02
123196,8.57E-03,1.65E-02
123197,8.61E-03,1.64E-02
123198,8.65E-03,1.64E-02
123199,8.68E-03,1.63E-02
123200,8.70E-03,1.62E-02
123201,8.70E-03,1.61E-02
123202,8.70E-03,1.60E-02
123203,8.70E-03,1.59E-02
123204,8.71E-03,1.58E-02
123205,8.72E-03,1.57E-02
123206,8.74E-03,1.56E-02
123207,8.75E-03,1.55E-02
123208,8.76E-03,1.54E-02
123209,8.77E-03,1.53E-02
123210,8.78E-03,1.52E-02
123211,8.79E-03,1.51E-02
123212,8.80E-03,1.50E-02
123213,8.81E-03,1.49E-02
123214,8.82E-03,1.48E-02
123215,8.83E-03,1.47E-02
123216,8.84E-03,1.46E-02
123217,8.86E-03,1.45E-02
123218,8.87E-03,1.44E-02
123219,8.89E-03,1.43E-02
123220,8.90E-03,1.42E-02
123221,8.91E-03,1.41E-02
123222,8.90E-03,1.40E-02
123223,8.90E-03,1.39E-02
123224,8.87E-03,1.38E-02
123225,8.83E-03,1.37E-02
123226,8.79E-03,1.36E-02
123227,8.75E-03,1.35E-02
123228,8.70E-03,1.34E-02
123229,8.67E-03,1.34E-02
123230,8.64E-03,1.33E-02
123231,8.62E-03,1.32E-02
123232,8.60E-03,1.31E-02
123233,8.51E-03,1.30E-02
123234,8.44E-03,1.29E-02
123235,8.39E-03,1.29E-02
123236,8.24E-03,1.28E-02
123237,8.28E-03,1.27E-02
123238,8.34E-03,1.27E-02
123239,8.30E-03,1.27E-02
123240,8.19E-03,1.26E-02
123241,8.10E-03,1.26E-02
123242,8.21E-03,1.26E-02
123243,8.19E-03,1.26E-02
123244,8.22E-03,1.25E-02
123245,4.54E-03,1.24E-02
123246,4.70E-03,1.25E-02
123247,6.54E-03,1.26E-02
123248,9.53E-03,1.93E-02
123249,1.03E-02,1.94E-02
123250,1.03E-02,1.95E-02
123251,1.01E-02,1.96E-02
123252,9.70E-03,1.97E-02
123253,9.46E-03,1.97E-02
123254,9.37E-03,1.98E-02
123255,9.10E-03,1.99E-02
123256,8.98E-03,2.01E-02
123257,8.79E-03,2.02E-02
123258,8.74E-03,2.03E-02
123259,8.70E-03,2.04E-02
123260,8.66E-03,2.05E-02
123261,8.61E-03,2.06E-02
123262,8.57E-03,2.07E-02
123263,8.55E-03,2.08E-02
123264,8.87E-03,2.10E-02
123265,9.39E-03,2.11E-02
123266,9.46E-03,2.12E-02
123267,9.22E-03,2.14E-02
123268,9.02E-03,2.15E-02
123269,8.87E-03,2.17E-02
123270,8.76E-03,2.18E-02
123271,8.67E-03,2.19E-02
123272,8.60E-03,2.21E-02
123273,8.55E-03,2.22E-02
123274,8.28E-03,2.24E-02
123275,8.17E-03,2.25E-02
123276,7.92E-03,2.26E-02
123277,7.65E-03,2.27E-02
123278,7.63E-03,2.29E-02
123279,7.43E-03,2.30E-02
123280,7.20E-03,2.31E-02
123281,7.17E-03,2.31E-02
123282,6.96E-03,2.32E-02
123283,6.95E-03,2.33E-02
123284,6.43E-03,2.34E-02
123285,6.53E-03,2.35E-02
123286,6.49E-03,2.35E-02
123287,8.07E-03,2.36E-02
123288,8.06E-03,2.37E-02
123289,8.00E-03,2.37E-02
123290,8.03E-03,2.38E-02
123291,8.45E-03,2.38E-02
123292,8.60E-03,2.39E-02
123293,1.07E-02,2.38E-02
123294,8.67E-03,2.40E-02
123295,8.03E-03,2.39E-02
123296,7.83E-03,2.40E-02
123297,4.74E-03,2.13E-02
123298,7.11E-03,2.11E-02
123299,5.35E-03,1.99E-02
123300,6.51E-03,2.06E-02
123301,7.38E-03,2.64E-03
123302,7.19E-03,2.55E-03
123303,6.11E-03,8.04E-03
123304,5.64E-03,8.27E-03
123305,7.34E-03,4.63E-02
123306,6.03E-03,3.81E-02
123307,6.98E-03,3.81E-02
123308,7.19E-03,3.81E-02
123309,7.46E-03,3.82E-02
123310,8.01E-03,3.84E-02
123311,8.16E-03,3.85E-02
123312,7.94E-03,3.87E-02
123313,7.94E-03,3.89E-02
123314,7.94E-03,3.91E-02
123315,7.94E-03,3.94E-02
123316,7.94E-03,3.96E-02
123317,7.94E-03,3.99E-02
123318,7.94E-03,4.02E-02
123319,7.88E-03,4.05E-02
123320,7.86E-03,4.09E-02
123321,7.81E-03,4.13E-02
123322,7.81E-03,4.17E-02
123323,7.87E-03,4.21E-02
123324,8.02E-03,4.26E-02
123325,8.29E-03,4.31E-02
123326,8.69E-03,4.36E-02
123327,8.76E-03,4.43E-02
123328,8.24E-03,4.51E-02
123329,7.64E-03,4.59E-02
123330,7.13E-03,4.67E-02
123331,9.57E-03,4.79E-02
123332,8.44E-03,4.72E-02
123333,7.56E-03,1.94E-02
123334,1.06E-02,1.88E-02
123335,7.98E-03,1.82E-02
123336,8.00E-03,1.77E-02
123337,7.91E-03,1.72E-02
123338,7.90E-03,1.67E-02
123339,7.77E-03,1.63E-02
123340,7.52E-03,5.78E-03
123341,7.74E-03,5.71E-03
123342,8.20E-03,5.64E-03
123343,8.40E-03,5.55E-03
123344,8.36E-03,5.45E-03
123345,7.75E-03,5.05E-03
123346,7.46E-03,4.89E-03
123347,7.45E-03,4.77E-03
123348,7.43E-03,4.68E-03
123349,7.53E-03,4.59E-03
123350,7.67E-03,4.51E-03
123351,7.87E-03,4.43E-03
123352,7.97E-03,4.35E-03
123353,8.29E-03,4.27E-03
123354,8.45E-03,4.18E-03
123355,8.55E-03,4.09E-03
123356,6.68E-03,2.88E-02
123357,6.39E-03,2.92E-02
123358,8.44E-03,1.22E-02
123359,8.35E-03,1.20E-02
123360,1.04E-02,1.18E-02
123361,1.03E-02,1.15E-02
123362,1.00E-02,1.11E-02
123363,9.74E-03,1.08E-02
123364,9.40E-03,1.04E-02
123365,8.25E-03,1.00E-02
123366,8.19E-03,9.70E-03
123367,8.12E-03,9.37E-03
123368,8.02E-03,9.04E-03
123369,8.02E-03,8.72E-03
123370,8.01E-03,8.41E-03
123371,8.00E-03,8.12E-03
123372,8.00E-03,7.85E-03
123373,7.99E-03,7.60E-03
123374,7.99E-03,7.37E-03
123375,7.98E-03,7.17E-03
123376,7.98E-03,6.99E-03
123377,7.97E-03,6.83E-03
123378,7.97E-03,6.69E-03
123379,7.96E-03,6.58E-03
123380,7.96E-03,6.49E-03
123381,7.95E-03,6.42E-03
123382,7.95E-03,6.36E-03
123383,7.94E-03,6.32E-03
123384,7.94E-03,6.30E-03
123385,7.93E-03,6.30E-03
123386,7.93E-03,6.30E-03
123387,7.93E-03,6.32E-03
123388,8.14E-03,6.35E-03
123389,8.61E-03,6.39E-03
123390,8.96E-03,6.44E-03
123391,8.98E-03,6.49E-03
123392,8.82E-03,6.56E-03
123393,8.66E-03,6.62E-03
123394,8.57E-03,6.70E-03
123395,8.50E-03,6.77E-03
123396,8.45E-03,6.85E-03
123397,8.41E-03,6.94E-03
123398,8.37E-03,7.03E-03
123399,8.30E-03,7.12E-03
123400,8.28E-03,7.21E-03
123401,8.33E-03,7.31E-03
123402,8.43E-03,7.41E-03
123403,8.41E-03,7.52E-03
123404,8.13E-03,7.62E-03
123405,7.92E-03,7.73E-03
123406,7.92E-03,7.84E-03
123407,7.92E-03,7.95E-03
123408,7.90E-03,8.06E-03
123409,7.86E-03,8.17E-03
123410,7.82E-03,8.28E-03
123411,7.78E-03,8.40E-03
123412,7.75E-03,8.51E-03
123413,7.70E-03,8.63E-03
123414,7.64E-03,8.74E-03
123415,7.56E-03,8.85E-03
123416,7.46E-03,8.97E-03
123417,7.33E-03,9.08E-03
123418,7.01E-03,9.18E-03
123419,6.59E-03,9.28E-03
123420,7.23E-03,9.38E-03
123421,8.32E-03,9.49E-03
123422,8.87E-03,9.61E-03
123423,9.03E-03,9.74E-03
123424,8.86E-03,9.86E-03
123425,8.73E-03,9.97E-03
123426,8.63E-03,1.01E-02
123427,8.56E-03,1.02E-02
123428,8.50E-03,1.03E-02
123429,8.45E-03,1.04E-02
123430,8.41E-03,1.05E-02
123431,8.38E-03,1.06E-02
123432,8.35E-03,1.07E-02
123433,8.33E-03,1.08E-02
123434,8.80E-03,1.09E-02
123435,9.44E-03,1.10E-02
123436,9.36E-03,1.11E-02
123437,8.96E-03,1.12E-02
123438,8.73E-03,1.13E-02
123439,8.59E-03,1.15E-02
123440,8.49E-03,1.16E-02
123441,8.42E-03,1.16E-02
123442,8.37E-03,1.17E-02
123443,8.33E-03,1.18E-02
123444,8.30E-03,1.19E-02
123445,8.27E-03,1.20E-02
123446,8.25E-03,1.21E-02
123447,8.23E-03,1.22E-02
123448,8.22E-03,1.23E-02
123449,8.21E-03,1.24E-02
123450,8.20E-03,1.25E-02
123451,8.19E-03,1.26E-02
123452,8.18E-03,1.27E-02
123453,8.17E-03,1.27E-02
123454,8.17E-03,1.28E-02
123455,8.16E-03,1.29E-02
123456,8.16E-03,1.30E-02
123457,8.15E-03,1.31E-02
123458,8.15E-03,1.31E-02
123459,8.14E-03,1.32E-02
123460,8.14E-03,1.33E-02
123461,8.14E-03,1.34E-02
123462,8.13E-03,1.34E-02
123463,8.13E-03,1.35E-02
123464,8.13E-03,1.36E-02
123465,8.13E-03,1.37E-02
123466,8.13E-03,1.37E-02
123467,8.12E-03,1.38E-02
123468,8.12E-03,1.39E-02
123469,8.12E-03,1.39E-02
123470,8.12E-03,1.40E-02
123471,8.12E-03,1.41E-02
123472,8.11E-03,1.42E-02
123473,8.11E-03,1.42E-02
123474,8.11E-03,1.43E-02
123475,8.11E-03,1.44E-02
123476,8.11E-03,1.44E-02
123477,8.11E-03,1.45E-02
123478,8.11E-03,1.45E-02
123479,8.11E-03,1.46E-02
123480,8.11E-03,1.47E-02
123481,8.11E-03,1.47E-02
123482,8.11E-03,1.48E-02
123483,8.11E-03,1.49E-02
123484,8.10E-03,1.49E-02
123485,8.10E-03,1.50E-02
123486,8.10E-03,1.51E-02
123487,8.10E-03,1.51E-02
123488,8.10E-03,1.52E-02
123489,8.10E-03,1.52E-02
123490,8.10E-03,1.53E-02
123491,8.10E-03,1.54E-02
123492,8.10E-03,1.54E-02
123493,8.10E-03,1.55E-02
123494,8.10E-03,1.55E-02
123495,8.10E-03,1.56E-02
123496,8.10E-03,1.57E-02
123497,8.10E-03,1.57E-02
123498,8.10E-03,1.58E-02
123499,8.10E-03,1.58E-02
123500,8.10E-03,1.59E-02
123501,8.10E-03,1.60E-02
123502,8.10E-03,1.60E-02
123503,8.10E-03,1.61E-02
123504,8.10E-03,1.61E-02
123505,8.10E-03,1.62E-02
123506,8.10E-03,1.62E-02
123507,8.10E-03,1.63E-02
123508,8.10E-03,1.64E-02
123509,8.11E-03,1.64E-02
123510,8.11E-03,1.65E-02
123511,8.11E-03,1.65E-02
123512,8.11E-03,1.66E-02
123513,8.11E-03,1.66E-02
123514,8.11E-03,1.67E-02
123515,8.11E-03,1.68E-02
123516,8.11E-03,1.68E-02
123517,8.12E-03,1.69E-02
123518,8.12E-03,1.69E-02
123519,8.12E-03,1.70E-02
123520,8.12E-03,1.70E-02
123521,8.12E-03,1.71E-02
123522,8.13E-03,1.71E-02
123523,8.13E-03,1.72E-02
123524,8.13E-03,1.72E-02
123525,8.14E-03,1.73E-02
123526,8.14E-03,1.73E-02
123527,8.14E-03,1.74E-02
123528,8.15E-03,1.74E-02
123529,8.15E-03,1.75E-02
123530,8.16E-03,1.75E-02
123531,8.17E-03,1.76E-02
123532,8.18E-03,1.76E-02
123533,8.19E-03,1.77E-02
123534,8.21E-03,1.77E-02
123535,8.22E-03,1.78E-02
123536,8.24E-03,1.78E-02
123537,8.27E-03,1.79E-02
123538,8.29E-03,1.79E-02
123539,8.33E-03,1.80E-02
123540,8.38E-03,1.80E-02
123541,8.45E-03,1.81E-02
123542,8.54E-03,1.81E-02
123543,8.69E-03,1.82E-02
123544,8.93E-03,1.83E-02
123545,8.86E-03,1.83E-02
123546,7.96E-03,1.84E-02
123547,7.38E-03,1.84E-02
123548,7.54E-03,1.85E-02
123549,7.66E-03,1.86E-02
123550,7.73E-03,1.86E-02
123551,7.79E-03,1.87E-02
123552,7.83E-03,1.87E-02
123553,7.87E-03,1.88E-02
123554,7.89E-03,1.88E-02
123555,7.91E-03,1.89E-02
123556,7.93E-03,1.89E-02
123557,7.95E-03,1.90E-02
123558,7.96E-03,1.90E-02
123559,7.97E-03,1.91E-02
123560,7.98E-03,1.91E-02
123561,7.99E-03,1.92E-02
123562,7.99E-03,1.92E-02
123563,8.00E-03,1.93E-02
123564,8.01E-03,1.94E-02
123565,8.01E-03,1.94E-02
123566,8.01E-03,1.95E-02
123567,8.02E-03,1.95E-02
123568,8.02E-03,1.96E-02
123569,8.03E-03,1.96E-02
123570,8.03E-03,1.97E-02
123571,8.03E-03,1.98E-02
123572,8.03E-03,1.98E-02
123573,8.02E-03,1.99E-02
123574,8.03E-03,1.99E-02
123575,8.04E-03,2.00E-02
123576,8.05E-03,2.00E-02
123577,8.05E-03,2.01E-02
123578,8.06E-03,2.02E-02
123579,8.06E-03,2.02E-02
123580,8.06E-03,2.03E-02
123581,8.06E-03,2.04E-02
123582,8.07E-03,2.04E-02
123583,8.09E-03,2.05E-02
123584,8.12E-03,2.05E-02
123585,8.13E-03,2.06E-02
123586,8.13E-03,2.06E-02
123587,8.13E-03,2.07E-02
123588,8.14E-03,2.08E-02
123589,8.14E-03,2.08E-02
123590,8.15E-03,2.09E-02
123591,8.15E-03,2.09E-02
123592,8.16E-03,2.10E-02
123593,8.16E-03,2.10E-02
123594,8.17E-03,2.11E-02
123595,8.18E-03,2.11E-02
123596,8.18E-03,2.11E-02
123597,8.19E-03,2.12E-02
123598,8.21E-03,2.12E-02
123599,8.22E-03,2.12E-02
123600,8.24E-03,2.13E-02
123601,8.26E-03,2.13E-02
123602,8.29E-03,2.13E-02
123603,8.32E-03,2.13E-02
123604,8.36E-03,2.13E-02
123605,8.47E-03,2.13E-02
123606,8.58E-03,2.14E-02
123607,8.65E-03,2.14E-02
123608,8.66E-03,2.14E-02
123609,8.62E-03,2.14E-02
123610,8.56E-03,2.15E-02
123611,6.58E-03,6.84E-03
123612,7.27E-03,6.81E-03
123613,8.08E-03,6.80E-03
123614,8.82E-03,6.80E-03
123615,9.12E-03,6.80E-03
123616,9.15E-03,6.79E-03
123617,9.03E-03,6.79E-03
123618,8.72E-03,6.79E-03
123619,8.69E-03,6.79E-03
123620,8.51E-03,6.78E-03
123621,8.00E-03,6.78E-03
123622,7.29E-03,6.77E-03
123623,7.24E-03,6.76E-03
123624,7.42E-03,6.75E-03
123625,7.31E-03,6.73E-03
123626,7.09E-03,6.72E-03
123627,6.83E-03,6.70E-03
123628,6.51E-03,6.69E-03
123629,5.84E-03,6.68E-03
123630,6.49E-03,6.66E-03
123631,7.74E-03,6.64E-03
123632,7.96E-03,6.63E-03
123633,8.06E-03,6.61E-03
123634,8.07E-03,6.59E-03
123635,8.07E-03,6.57E-03
123636,7.90E-03,6.54E-03
123637,7.66E-03,6.52E-03
123638,7.54E-03,6.50E-03
123639,7.43E-03,6.48E-03
123640,7.29E-03,6.47E-03
123641,7.10E-03,6.45E-03
123642,7.60E-03,6.44E-03
123643,8.68E-03,6.42E-03
123644,9.48E-03,6.41E-03
123645,9.75E-03,6.39E-03
123646,9.46E-03,6.37E-03
123647,9.16E-03,6.35E-03
123648,8.87E-03,6.33E-03
123649,8.30E-03,6.31E-03
123650,7.84E-03,6.29E-03
123651,7.51E-03,6.28E-03
123652,6.91E-03,6.26E-03
123653,6.63E-03,6.25E-03
123654,6.51E-03,6.24E-03
123655,6.80E-03,6.23E-03
123656,8.04E-03,6.22E-03
123657,9.13E-03,6.21E-03
123658,9.71E-03,6.19E-03
123659,9.61E-03,6.18E-03
123660,9.06E-03,6.16E-03
123661,9.09E-03,6.14E-03
123662,7.10E-03,6.11E-03
123663,6.98E-03,6.10E-03
123664,6.88E-03,6.08E-03
123665,6.72E-03,6.06E-03
123666,6.53E-03,6.04E-03
123667,6.16E-03,6.03E-03
123668,5.68E-03,6.03E-03
123669,8.78E-03,6.03E-03
123670,9.38E-03,6.00E-03
123671,9.62E-03,5.97E-03
123672,9.70E-03,5.95E-03
123673,8.10E-03,5.93E-03
123674,7.90E-03,5.91E-03
123675,7.52E-03,5.88E-03
123676,6.96E-03,5.86E-03
123677,6.46E-03,5.84E-03
123678,6.11E-03,5.83E-03
123679,5.75E-03,5.81E-03
123680,5.64E-03,5.80E-03
123681,5.97E-03,5.79E-03
123682,8.34E-03,5.78E-03
123683,8.47E-03,5.77E-03
123684,8.39E-03,5.76E-03
123685,7.69E-03,2.37E-03
123686,7.71E-03,2.35E-03
123687,7.77E-03,2.36E-03
123688,6.76E-03,2.36E-03
123689,7.65E-03,2.39E-03
123690,8.09E-03,2.71E-03
123691,8.42E-03,2.76E-03
123692,9.12E-03,2.77E-03
123693,9.20E-03,2.79E-03
123694,7.53E-03,2.81E-03
123695,7.46E-03,2.83E-03
123696,7.33E-03,2.85E-03
123697,6.77E-03,2.87E-03
123698,5.91E-03,2.89E-03
123699,5.89E-03,2.91E-03
123700,6.41E-03,2.92E-03
123701,6.56E-03,7.12E-03
123702,8.12E-03,7.21E-03
123703,6.66E-03,7.18E-03
123704,8.39E-03,7.26E-03
123705,7.14E-03,7.21E-03
123706,7.51E-03,1.86E-02
123707,7.29E-03,3.21E-02
123708,8.37E-03,3.30E-02
123709,7.86E-03,3.37E-02
123710,5.68E-03,3.44E-02
123711,8.48E-03,2.47E-02
123712,6.50E-03,2.52E-02
123713,6.39E-03,2.55E-02
123714,6.01E-03,7.72E-03
123715,5.86E-03,7.72E-03
123716,6.04E-03,7.78E-03
123717,4.44E-03,8.04E-03
123718,4.99E-03,7.98E-03
123719,6.46E-03,7.93E-03
123720,9.15E-03,3.61E-03
123721,6.03E-03,8.67E-03
123722,1.05E-02,6.88E-03
123723,1.02E-02,6.93E-03
123724,1.03E-02,6.94E-03
123725,1.02E-02,6.91E-03
123726,8.01E-03,6.09E-03
123727,8.26E-03,6.15E-03
123728,8.64E-03,6.18E-03
123729,8.73E-03,6.22E-03
123730,8.47E-03,6.25E-03
123731,8.40E-03,6.29E-03
123732,8.30E-03,6.33E-03
123733,8.13E-03,6.36E-03
123734,8.11E-03,6.40E-03
123735,8.08E-03,6.44E-03
123736,8.01E-03,6.47E-03
123737,7.87E-03,6.51E-03
123738,7.75E-03,6.54E-03
123739,7.76E-03,6.57E-03
123740,7.60E-03,6.60E-03
123741,7.47E-03,6.61E-03
123742,7.35E-03,6.58E-03
123743,8.86E-03,5.68E-03
123744,9.13E-03,5.67E-03
123745,9.98E-03,5.64E-03
123746,9.61E-03,5.60E-03
123747,9.56E-03,5.56E-03
123748,9.14E-03,5.53E-03
123749,9.01E-03,5.49E-03
123750,8.76E-03,5.46E-03
123751,8.65E-03,5.42E-03
123752,8.53E-03,5.38E-03
123753,8.41E-03,5.34E-03
123754,8.14E-03,5.31E-03
123755,7.90E-03,5.27E-03
123756,7.82E-03,5.23E-03
123757,7.81E-03,5.19E-03
123758,7.77E-03,5.15E-03
123759,7.72E-03,5.11E-03
123760,7.66E-03,5.07E-03
123761,7.58E-03,5.03E-03
123762,7.47E-03,4.99E-03
123763,7.33E-03,4.95E-03
123764,7.11E-03,4.92E-03
123765,6.74E-03,4.88E-03
123766,6.25E-03,4.85E-03
123767,6.38E-03,4.83E-03
123768,6.95E-03,4.80E-03
123769,7.07E-03,4.77E-03
123770,6.92E-03,4.75E-03
123771,6.93E-03,4.73E-03
123772,6.93E-03,4.71E-03
123773,7.50E-03,4.69E-03
123774,9.21E-03,4.67E-03
123775,9.43E-03,4.65E-03
123776,9.71E-03,4.63E-03
123777,9.70E-03,4.60E-03
123778,9.51E-03,4.57E-03
123779,9.30E-03,4.54E-03
123780,9.01E-03,4.51E-03
123781,8.73E-03,4.47E-03
123782,8.03E-03,4.44E-03
123783,7.60E-03,4.41E-03
123784,7.46E-03,4.38E-03
123785,7.37E-03,4.35E-03
123786,7.27E-03,4.33E-03
123787,7.13E-03,4.30E-03
123788,6.95E-03,4.28E-03
123789,6.72E-03,4.26E-03
123790,6.77E-03,4.25E-03
123791,7.16E-03,4.23E-03
123792,7.35E-03,4.22E-03
123793,7.29E-03,4.20E-03
123794,7.25E-03,4.19E-03
123795,7.22E-03,4.18E-03
123796,7.87E-03,4.17E-03
123797,8.82E-03,4.16E-03
123798,9.07E-03,4.15E-03
123799,8.94E-03,4.14E-03
123800,8.84E-03,4.13E-03
123801,8.72E-03,4.11E-03
123802,8.52E-03,4.10E-03
123803,8.28E-03,4.08E-03
123804,8.10E-03,4.06E-03
123805,8.07E-03,4.04E-03
123806,8.10E-03,4.03E-03
123807,8.10E-03,4.01E-03
123808,8.18E-03,4.00E-03
123809,8.77E-03,3.98E-03
123810,9.24E-03,3.96E-03
123811,9.06E-03,3.94E-03
123812,8.84E-03,3.92E-03
123813,8.69E-03,3.90E-03
123814,8.70E-03,3.87E-03
123815,8.83E-03,3.84E-03
123816,9.06E-03,3.81E-03
123817,9.39E-03,3.78E-03
123818,9.46E-03,3.75E-03
123819,9.20E-03,3.71E-03
123820,8.95E-03,3.67E-03
123821,8.78E-03,3.62E-03
123822,8.66E-03,3.58E-03
123823,8.61E-03,3.53E-03
123824,8.60E-03,3.48E-03
123825,8.52E-03,3.44E-03
123826,8.40E-03,3.39E-03
123827,8.32E-03,3.34E-03
123828,8.27E-03,3.29E-03
123829,8.24E-03,3.24E-03
123830,8.22E-03,3.19E-03
123831,8.20E-03,3.14E-03
123832,8.19E-03,3.08E-03
123833,8.13E-03,3.03E-03
123834,8.01E-03,2.98E-03
123835,7.93E-03,2.93E-03
123836,7.91E-03,2.88E-03
123837,7.90E-03,2.83E-03
123838,7.88E-03,2.79E-03
123839,7.87E-03,2.74E-03
123840,7.85E-03,2.69E-03
123841,7.83E-03,2.65E-03
123842,7.80E-03,2.60E-03
123843,7.77E-03,2.56E-03
123844,7.74E-03,2.51E-03
123845,7.69E-03,2.47E-03
123846,7.64E-03,2.43E-03
123847,7.57E-03,2.39E-03
123848,7.48E-03,2.35E-03
123849,7.46E-03,2.32E-03
123850,7.56E-03,2.28E-03
123851,7.64E-03,2.25E-03
123852,7.65E-03,2.21E-03
123853,7.60E-03,2.18E-03
123854,7.54E-03,2.15E-03
123855,7.44E-03,2.12E-03
123856,7.28E-03,2.09E-03
123857,7.25E-03,2.06E-03
123858,7.37E-03,2.04E-03
123859,7.47E-03,2.01E-03
123860,7.58E-03,1.99E-03
123861,7.52E-03,1.97E-03
123862,7.41E-03,1.95E-03
123863,7.34E-03,1.93E-03
123864,7.21E-03,1.91E-03
123865,7.10E-03,1.89E-03
123866,6.77E-03,1.86E-03
123867,6.41E-03,1.88E-03
123868,5.93E-03,1.88E-03
123869,5.56E-03,1.85E-03
123870,5.58E-03,1.87E-03
123871,5.92E-03,1.90E-03
123872,6.22E-03,1.94E-03
123873,6.51E-03,1.97E-03
123874,6.48E-03,1.99E-03
123875,8.09E-03,2.01E-03
123876,9.27E-03,2.05E-03
123877,9.23E-03,2.08E-03
123878,9.22E-03,2.11E-03
123879,6.34E-03,2.15E-03
123880,6.82E-03,2.17E-03
123881,7.23E-03,9.45E-03
123882,8.17E-03,1.41E-02
123883,8.13E-03,1.37E-02
123884,8.52E-03,1.32E-02
123885,8.46E-03,1.28E-02
123886,8.28E-03,1.24E-02
123887,8.10E-03,1.20E-02
123888,8.10E-03,1.17E-02
123889,8.05E-03,1.13E-02
123890,7.84E-03,1.10E-02
123891,7.71E-03,1.07E-02
123892,7.71E-03,1.03E-02
123893,7.68E-03,1.00E-02
123894,7.74E-03,9.74E-03
123895,7.69E-03,6.85E-03
123896,7.59E-03,6.85E-03
123897,7.20E-03,6.87E-03
123898,6.63E-03,6.86E-03
123899,6.37E-03,6.87E-03
123900,8.51E-03,1.93E-02
123901,9.01E-03,1.95E-02
123902,6.90E-03,3.01E-03
123903,5.46E-03,5.89E-03
123904,5.90E-03,6.81E-03
123905,6.73E-03,1.83E-02
123906,7.42E-03,1.82E-02
123907,6.53E-03,4.35E-02
123908,5.22E-03,4.41E-02
123909,5.84E-03,4.64E-02
123910,1.04E-02,2.02E-02
123911,1.03E-02,2.04E-02
123912,1.17E-02,2.07E-02
123913,1.22E-02,2.10E-02
123914,1.14E-02,2.12E-02
123915,1.13E-02,2.15E-02
123916,1.13E-02,2.18E-02
123917,1.14E-02,2.21E-02
123918,1.22E-02,2.24E-02
123919,1.17E-02,2.26E-02
123920,1.05E-02,2.29E-02
123921,1.06E-02,2.31E-02
123922,1.20E-02,2.34E-02
123923,1.18E-02,2.36E-02
123924,9.16E-03,2.38E-02
123925,8.97E-03,2.39E-02
123926,7.54E-03,2.41E-02
123927,8.16E-03,2.41E-02
123928,6.05E-03,2.42E-02
123929,6.90E-03,1.90E-02
123930,6.98E-03,1.89E-02
123931,7.05E-03,1.88E-02
123932,7.21E-03,1.86E-02
123933,7.28E-03,1.84E-02
123934,7.59E-03,1.83E-02
123935,7.78E-03,1.81E-02
123936,7.94E-03,1.79E-02
123937,8.10E-03,1.76E-02
123938,8.29E-03,1.74E-02
123939,8.31E-03,1.72E-02
123940,8.32E-03,1.70E-02
123941,8.33E-03,1.68E-02
123942,8.38E-03,1.66E-02
123943,8.57E-03,1.65E-02
123944,8.88E-03,1.63E-02
123945,9.09E-03,1.61E-02
123946,9.28E-03,1.60E-02
123947,9.55E-03,1.58E-02
123948,9.93E-03,1.57E-02
123949,1.04E-02,1.55E-02
123950,1.03E-02,1.54E-02
123951,9.91E-03,1.53E-02
123952,8.74E-03,1.51E-02
123953,8.33E-03,1.50E-02
123954,8.35E-03,1.49E-02
123955,6.87E-03,1.49E-02
123956,5.77E-03,1.47E-02
123957,5.37E-03,1.46E-02
123958,5.98E-03,1.46E-02
123959,6.22E-03,1.45E-02
123960,6.59E-03,1.44E-02
123961,7.02E-03,1.43E-02
123962,7.34E-03,1.42E-02
123963,7.49E-03,1.40E-02
123964,7.66E-03,1.39E-02
123965,7.88E-03,1.38E-02
123966,7.92E-03,1.36E-02
123967,7.95E-03,1.35E-02
123968,7.97E-03,1.34E-02
123969,7.98E-03,1.32E-02
123970,7.98E-03,1.31E-02
123971,7.98E-03,1.30E-02
123972,7.99E-03,1.28E-02
123973,8.23E-03,1.27E-02
123974,8.45E-03,1.26E-02
123975,8.39E-03,1.24E-02
123976,8.30E-03,1.23E-02
123977,8.26E-03,1.22E-02
123978,8.29E-03,1.21E-02
123979,8.35E-03,1.20E-02
123980,8.39E-03,1.18E-02
123981,8.44E-03,1.17E-02
123982,8.50E-03,1.16E-02
123983,8.58E-03,1.15E-02
123984,8.70E-03,1.14E-02
123985,8.96E-03,1.13E-02
123986,9.09E-03,1.11E-02
123987,9.16E-03,1.10E-02
123988,9.39E-03,1.09E-02
123989,9.65E-03,1.08E-02
123990,9.76E-03,1.07E-02
123991,1.00E-02,1.06E-02
123992,1.00E-02,1.05E-02
123993,1.00E-02,1.04E-02
123994,9.82E-03,1.02E-02
123995,9.83E-03,1.01E-02
123996,1.05E-02,9.97E-03
123997,6.06E-03,3.97E-02
123998,6.35E-03,7.16E-03
123999,6.36E-03,2.24E-02
124000,6.95E-03,2.28E-02
124001,7.44E-03,2.32E-02
124002,8.25E-03,1.84E-02
124003,7.06E-03,3.81E-02
124004,7.47E-03,3.79E-02
124005,7.72E-03,3.77E-02
124006,7.76E-03,3.74E-02
124007,8.01E-03,3.72E-02
124008,8.06E-03,3.70E-02
124009,8.06E-03,3.68E-02
124010,8.06E-03,3.65E-02
124011,8.06E-03,3.63E-02
124012,8.06E-03,3.61E-02
124013,8.06E-03,3.59E-02
124014,8.06E-03,3.57E-02
124015,8.06E-03,3.55E-02
124016,8.06E-03,3.53E-02
124017,8.06E-03,3.51E-02
124018,8.06E-03,3.49E-02
124019,8.06E-03,3.47E-02
124020,8.06E-03,3.45E-02
124021,8.05E-03,3.43E-02
124022,8.05E-03,3.42E-02
124023,8.05E-03,3.40E-02
124024,8.05E-03,3.38E-02
124025,8.05E-03,3.36E-02
124026,8.05E-03,3.34E-02
124027,8.05E-03,3.33E-02
124028,8.05E-03,3.31E-02
124029,8.05E-03,3.29E-02
124030,8.05E-03,3.28E-02
124031,8.05E-03,3.26E-02
124032,8.05E-03,3.24E-02
124033,8.04E-03,3.23E-02
124034,8.04E-03,3.21E-02
124035,8.04E-03,3.20E-02
124036,8.04E-03,3.18E-02
124037,8.04E-03,3.17E-02
124038,8.04E-03,3.15E-02
124039,8.04E-03,3.14E-02
124040,8.03E-03,3.12E-02
124041,8.03E-03,3.11E-02
124042,8.03E-03,3.10E-02
124043,8.02E-03,3.08E-02
124044,8.02E-03,3.07E-02
124045,8.01E-03,3.06E-02
124046,8.00E-03,3.05E-02
124047,8.00E-03,3.04E-02
124048,7.99E-03,3.03E-02
124049,7.98E-03,3.02E-02
124050,7.97E-03,3.01E-02
124051,7.96E-03,3.00E-02
124052,7.95E-03,2.99E-02
124053,7.94E-03,2.99E-02
124054,7.92E-03,2.98E-02
124055,7.90E-03,2.98E-02
124056,7.87E-03,2.97E-02
124057,7.77E-03,2.97E-02
124058,7.59E-03,2.97E-02
124059,7.49E-03,2.96E-02
124060,7.27E-03,2.96E-02
124061,6.93E-03,2.96E-02
124062,6.84E-03,2.95E-02
124063,6.42E-03,2.95E-02
124064,6.38E-03,2.95E-02
124065,5.82E-03,2.94E-02
124066,5.89E-03,2.94E-02
124067,6.00E-03,2.93E-02
124068,6.21E-03,2.92E-02
124069,6.22E-03,2.92E-02
124070,6.24E-03,2.91E-02
124071,6.30E-03,2.90E-02
124072,6.33E-03,2.89E-02
124073,7.59E-03,2.87E-02
124074,9.12E-03,2.86E-02
124075,9.67E-03,2.84E-02
124076,9.30E-03,2.83E-02
124077,9.17E-03,2.82E-02
124078,9.21E-03,2.80E-02
124079,9.32E-03,2.79E-02
124080,9.29E-03,2.78E-02
124081,9.13E-03,2.77E-02
124082,8.99E-03,2.76E-02
124083,8.88E-03,2.76E-02
124084,8.79E-03,2.75E-02
124085,8.72E-03,2.75E-02
124086,8.65E-03,2.75E-02
124087,8.60E-03,2.74E-02
124088,8.56E-03,2.74E-02
124089,8.53E-03,2.74E-02
124090,8.48E-03,2.74E-02
124091,8.45E-03,2.74E-02
124092,8.41E-03,2.74E-02
124093,8.39E-03,2.73E-02
124094,8.36E-03,2.73E-02
124095,8.34E-03,2.73E-02
124096,8.32E-03,2.73E-02
124097,8.30E-03,2.73E-02
124098,8.29E-03,2.72E-02
124099,8.27E-03,2.72E-02
124100,8.26E-03,2.72E-02
124101,8.25E-03,2.72E-02
124102,8.24E-03,2.71E-02
124103,8.23E-03,2.71E-02
124104,8.23E-03,2.71E-02
124105,8.22E-03,2.71E-02
124106,8.19E-03,2.70E-02
124107,8.15E-03,2.70E-02
124108,8.12E-03,2.70E-02
124109,8.11E-03,2.70E-02
124110,8.11E-03,2.70E-02
124111,8.11E-03,2.70E-02
124112,8.01E-03,2.70E-02
124113,7.78E-03,2.70E-02
124114,7.65E-03,2.70E-02
124115,7.65E-03,2.70E-02
124116,7.64E-03,2.70E-02
124117,7.64E-03,2.70E-02
124118,7.64E-03,2.70E-02
124119,7.62E-03,2.70E-02
124120,7.47E-03,2.70E-02
124121,7.25E-03,2.70E-02
124122,6.98E-03,2.70E-02
124123,6.55E-03,2.70E-02
124124,5.89E-03,2.70E-02
124125,5.88E-03,2.70E-02
124126,6.65E-03,2.70E-02
124127,7.01E-03,2.70E-02
124128,7.10E-03,2.70E-02
124129,6.79E-03,2.69E-02
124130,6.16E-03,2.69E-02
124131,6.55E-03,2.68E-02
124132,7.61E-03,2.68E-02
124133,7.87E-03,2.67E-02
124134,7.99E-03,2.66E-02
124135,8.18E-03,2.65E-02
124136,8.37E-03,2.64E-02
124137,8.60E-03,2.63E-02
124138,9.27E-03,2.62E-02
124139,9.75E-03,2.61E-02
124140,9.45E-03,2.60E-02
124141,9.27E-03,2.59E-02
124142,9.43E-03,2.58E-02
124143,9.62E-03,2.58E-02
124144,9.86E-03,2.57E-02
124145,9.89E-03,2.57E-02
124146,9.56E-03,2.57E-02
124147,9.17E-03,2.57E-02
124148,8.93E-03,2.57E-02
124149,8.76E-03,2.57E-02
124150,8.64E-03,2.57E-02
124151,8.56E-03,2.57E-02
124152,8.49E-03,2.57E-02
124153,8.42E-03,2.57E-02
124154,8.38E-03,2.57E-02
124155,8.37E-03,2.57E-02
124156,8.37E-03,2.57E-02
124157,8.36E-03,2.57E-02
124158,8.35E-03,2.57E-02
124159,8.34E-03,2.56E-02
124160,8.32E-03,2.56E-02
124161,8.30E-03,2.56E-02
124162,8.28E-03,2.55E-02
124163,8.26E-03,2.55E-02
124164,8.24E-03,2.54E-02
124165,8.23E-03,2.54E-02
124166,8.22E-03,2.53E-02
124167,8.21E-03,2.53E-02
124168,8.20E-03,2.52E-02
124169,8.19E-03,2.52E-02
124170,8.19E-03,2.51E-02
124171,8.18E-03,2.50E-02
124172,8.17E-03,2.50E-02
124173,8.17E-03,2.49E-02
124174,8.17E-03,2.48E-02
124175,8.16E-03,2.48E-02
124176,8.16E-03,2.47E-02
124177,8.15E-03,2.46E-02
124178,8.15E-03,2.45E-02
124179,8.15E-03,2.45E-02
124180,8.14E-03,2.44E-02
124181,8.14E-03,2.43E-02
124182,8.14E-03,2.43E-02
124183,8.13E-03,2.42E-02
124184,8.13E-03,2.41E-02
124185,8.13E-03,2.41E-02
124186,8.13E-03,2.40E-02
124187,8.12E-03,2.39E-02
124188,8.09E-03,2.38E-02
124189,8.06E-03,2.38E-02
124190,8.05E-03,2.37E-02
124191,8.05E-03,2.37E-02
124192,8.04E-03,2.36E-02
124193,8.02E-03,2.35E-02
124194,7.99E-03,2.35E-02
124195,7.95E-03,2.34E-02
124196,7.95E-03,2.34E-02
124197,7.97E-03,2.33E-02
124198,7.96E-03,2.33E-02
124199,7.94E-03,2.32E-02
124200,7.93E-03,2.32E-02
124201,7.91E-03,2.32E-02
124202,7.89E-03,2.31E-02
124203,7.87E-03,2.31E-02
124204,7.84E-03,2.30E-02
124205,7.80E-03,2.30E-02
124206,7.75E-03,2.30E-02
124207,7.69E-03,2.29E-02
124208,7.41E-03,2.29E-02
124209,7.27E-03,2.29E-02
124210,7.05E-03,2.28E-02
124211,6.76E-03,2.28E-02
124212,6.36E-03,2.28E-02
124213,6.32E-03,2.27E-02
124214,6.67E-03,2.27E-02
124215,7.56E-03,2.26E-02
124216,8.92E-03,2.26E-02
124217,9.00E-03,2.25E-02
124218,8.95E-03,2.25E-02
124219,8.74E-03,2.24E-02
124220,8.65E-03,2.24E-02
124221,8.58E-03,2.23E-02
124222,8.52E-03,2.23E-02
124223,8.47E-03,2.23E-02
124224,8.06E-03,2.23E-02
124225,8.00E-03,2.22E-02
124226,7.34E-03,2.22E-02
124227,7.14E-03,2.22E-02
124228,6.93E-03,2.21E-02
124229,6.80E-03,2.21E-02
124230,6.66E-03,2.20E-02
124231,7.54E-03,2.20E-02
124232,8.39E-03,1.44E-02
124233,7.00E-03,1.49E-02
124234,6.78E-03,1.96E-02
124235,7.41E-03,1.92E-02
124236,7.43E-03,1.53E-02
124237,7.00E-03,5.54E-03
124238,7.01E-03,5.50E-03
124239,8.90E-03,5.05E-03
124240,8.82E-03,4.95E-03
124241,8.62E-03,4.86E-03
124242,6.56E-03,2.74E-02
124243,6.53E-03,2.97E-02
124244,6.33E-03,2.91E-02
124245,8.14E-03,1.22E-02
124246,8.22E-03,2.18E-02
124247,8.36E-03,2.19E-02
124248,8.42E-03,2.20E-02
124249,9.25E-03,2.18E-02
124250,5.43E-03,2.20E-02
124251,6.99E-03,6.78E-03
124252,8.14E-03,5.60E-03
124253,6.63E-03,2.51E-03
124254,6.51E-03,2.46E-03
124255,6.59E-03,2.41E-03
124256,7.26E-03,2.32E-03
124257,5.86E-03,2.23E-03
124258,6.06E-03,2.08E-03
124259,7.88E-03,2.67E-03
124260,6.07E-03,6.75E-03
124261,6.74E-03,1.91E-02
124262,7.28E-03,1.90E-02
124263,7.28E-03,1.89E-02
124264,6.90E-03,1.87E-02
124265,8.25E-03,1.85E-02
124266,7.23E-03,3.05E-02
124267,6.75E-03,3.60E-02
124268,7.07E-03,3.51E-02
124269,8.10E-03,2.35E-02
124270,6.54E-03,2.57E-02
124271,6.81E-03,2.53E-02
124272,6.05E-03,7.19E-03
124273,5.80E-03,7.78E-03
124274,8.88E-03,3.66E-03
124275,1.02E-02,3.55E-03
124276,1.04E-02,3.46E-03
124277,6.04E-03,8.19E-03
124278,6.81E-03,4.06E-02
124279,7.73E-03,6.88E-03
124280,7.87E-03,6.87E-03
124281,7.35E-03,6.85E-03
124282,6.47E-03,6.85E-03
124283,5.93E-03,6.82E-03
124284,6.69E-03,6.85E-03
124285,7.72E-03,6.86E-03
124286,7.82E-03,6.87E-03
124287,8.06E-03,6.87E-03
124288,8.24E-03,6.87E-03
124289,7.69E-03,6.86E-03
124290,7.11E-03,6.88E-03
124291,6.72E-03,6.88E-03
124292,6.54E-03,6.88E-03
124293,7.00E-03,6.91E-03
124294,7.17E-03,6.94E-03
124295,7.37E-03,6.97E-03
124296,7.39E-03,7.01E-03
124297,7.58E-03,7.04E-03
124298,7.71E-03,7.07E-03
124299,7.85E-03,7.11E-03
124300,7.89E-03,7.14E-03
124301,7.92E-03,7.18E-03
124302,7.95E-03,7.22E-03
124303,7.97E-03,7.26E-03
124304,7.98E-03,7.30E-03
124305,7.98E-03,7.34E-03
124306,7.99E-03,7.39E-03
124307,7.99E-03,7.43E-03
124308,8.00E-03,7.48E-03
124309,8.00E-03,7.53E-03
124310,8.01E-03,7.58E-03
124311,8.01E-03,7.63E-03
124312,8.01E-03,7.68E-03
124313,8.02E-03,7.73E-03
124314,8.02E-03,7.79E-03
124315,8.02E-03,7.84E-03
124316,8.03E-03,7.90E-03
124317,8.03E-03,7.96E-03
124318,8.03E-03,8.02E-03
124319,8.03E-03,8.08E-03
124320,8.04E-03,8.14E-03
124321,8.04E-03,8.20E-03
124322,8.04E-03,8.27E-03
124323,8.03E-03,8.34E-03
124324,8.01E-03,8.41E-03
124325,7.99E-03,8.48E-03
124326,7.98E-03,8.55E-03
124327,7.97E-03,8.63E-03
124328,7.96E-03,8.71E-03
124329,7.94E-03,8.79E-03
124330,7.92E-03,8.88E-03
124331,7.90E-03,8.96E-03
124332,7.87E-03,9.05E-03
124333,7.83E-03,9.15E-03
124334,7.77E-03,9.24E-03
124335,7.70E-03,9.34E-03
124336,7.65E-03,9.44E-03
124337,7.74E-03,9.54E-03
124338,7.98E-03,9.65E-03
124339,8.67E-03,9.77E-03
124340,7.11E-03,5.65E-03
124341,7.07E-03,8.82E-03
124342,8.12E-03,1.44E-02
124343,8.23E-03,1.39E-02
124344,7.35E-03,6.74E-03
124345,7.57E-03,6.74E-03
124346,7.51E-03,6.74E-03
124347,6.79E-03,3.89E-02
124348,6.60E-03,3.91E-02
124349,6.56E-03,3.92E-02
124350,7.61E-03,8.59E-03
124351,7.12E-03,8.09E-03
124352,8.63E-03,1.79E-02
124353,1.00E-02,1.78E-02
124354,1.01E-02,1.76E-02
124355,9.97E-03,1.75E-02
124356,9.61E-03,1.74E-02
124357,9.46E-03,1.73E-02
124358,9.30E-03,1.72E-02
124359,9.12E-03,1.71E-02
124360,8.97E-03,1.70E-02
124361,8.68E-03,1.69E-02
124362,8.58E-03,1.68E-02
124363,8.50E-03,1.68E-02
124364,8.51E-03,1.67E-02
124365,8.54E-03,1.66E-02
124366,8.57E-03,1.65E-02
124367,8.61E-03,1.64E-02
124368,8.64E-03,1.63E-02
124369,8.66E-03,1.62E-02
124370,8.66E-03,1.61E-02
124371,8.66E-03,1.60E-02
124372,8.66E-03,1.59E-02
124373,8.67E-03,1.58E-02
124374,8.68E-03,1.57E-02
124375,8.69E-03,1.57E-02
124376,8.70E-03,1.56E-02
124377,8.71E-03,1.55E-02
124378,8.72E-03,1.54E-02
124379,8.73E-03,1.53E-02
124380,8.74E-03,1.52E-02
124381,8.75E-03,1.51E-02
124382,8.76E-03,1.50E-02
124383,8.77E-03,1.49E-02
124384,8.78E-03,1.48E-02
124385,8.79E-03,1.47E-02
124386,8.80E-03,1.46E-02
124387,8.82E-03,1.45E-02
124388,8.83E-03,1.44E-02
124389,8.85E-03,1.43E-02
124390,8.85E-03,1.42E-02
124391,8.85E-03,1.41E-02
124392,8.84E-03,1.40E-02
124393,8.82E-03,1.39E-02
124394,8.78E-03,1.38E-02
124395,8.74E-03,1.37E-02
124396,8.70E-03,1.36E-02
124397,8.66E-03,1.35E-02
124398,8.63E-03,1.34E-02
124399,8.60E-03,1.33E-02
124400,8.58E-03,1.32E-02
124401,8.56E-03,1.32E-02
124402,8.54E-03,1.31E-02
124403,8.44E-03,1.30E-02
124404,8.44E-03,1.29E-02
124405,8.46E-03,1.29E-02
124406,8.48E-03,1.28E-02
124407,8.39E-03,1.27E-02
124408,8.34E-03,1.27E-02
124409,8.24E-03,1.27E-02
124410,8.31E-03,1.26E-02
124411,8.20E-03,1.26E-02
124412,8.12E-03,1.26E-02
124413,7.66E-03,1.25E-02
124414,7.01E-03,1.25E-02
124415,6.86E-03,1.25E-02
124416,5.29E-03,1.26E-02
124417,8.86E-03,1.94E-02
124418,9.62E-03,1.95E-02
124419,9.92E-03,1.96E-02
124420,9.85E-03,1.97E-02
124421,9.73E-03,1.98E-02
124422,9.47E-03,1.99E-02
124423,9.21E-03,2.00E-02
124424,9.07E-03,2.01E-02
124425,8.94E-03,2.02E-02
124426,8.75E-03,2.04E-02
124427,8.70E-03,2.05E-02
124428,8.66E-03,2.06E-02
124429,8.62E-03,2.07E-02
124430,8.57E-03,2.08E-02
124431,8.54E-03,2.10E-02
124432,8.52E-03,2.11E-02
124433,8.82E-03,2.12E-02
124434,9.30E-03,2.13E-02
124435,9.36E-03,2.15E-02
124436,9.14E-03,2.16E-02
124437,8.95E-03,2.17E-02
124438,8.82E-03,2.19E-02
124439,8.71E-03,2.20E-02
124440,8.63E-03,2.22E-02
124441,8.57E-03,2.23E-02
124442,8.52E-03,2.24E-02
124443,8.35E-03,2.26E-02
124444,8.14E-03,2.27E-02
124445,7.88E-03,2.28E-02
124446,7.70E-03,2.30E-02
124447,7.71E-03,2.31E-02
124448,7.45E-03,2.32E-02
124449,7.24E-03,2.33E-02
124450,7.23E-03,2.34E-02
124451,7.05E-03,2.34E-02
124452,6.96E-03,2.35E-02
124453,6.68E-03,2.36E-02
124454,6.70E-03,2.37E-02
124455,6.67E-03,2.37E-02
124456,8.05E-03,2.38E-02
124457,8.11E-03,2.38E-02
124458,8.20E-03,2.39E-02
124459,8.18E-03,2.40E-02
124460,8.38E-03,2.40E-02
124461,8.07E-03,2.41E-02
124462,7.99E-03,2.41E-02
124463,7.32E-03,2.42E-02
124464,6.85E-03,2.42E-02
124465,6.08E-03,2.43E-02
124466,6.22E-03,2.43E-02
124467,6.44E-03,2.44E-02
124468,5.18E-03,2.44E-02
124469,7.83E-03,2.44E-02
124470,4.94E-03,3.73E-02
124471,5.17E-03,6.64E-03
124472,6.17E-03,2.14E-02
124473,6.17E-03,2.07E-02
124474,6.98E-03,2.02E-02
124475,7.58E-03,1.96E-02
124476,7.86E-03,1.23E-02
124477,7.77E-03,6.71E-03
124478,7.06E-03,2.36E-03
124479,6.59E-03,2.28E-03
124480,6.90E-03,2.25E-03
124481,6.41E-03,2.87E-03
124482,6.42E-03,3.66E-02
124483,7.21E-03,7.96E-03
124484,7.07E-03,7.77E-03
124485,6.43E-03,7.49E-03
124486,6.14E-03,1.96E-02
124487,6.46E-03,2.56E-02
124488,4.40E-03,2.59E-02
124489,7.30E-03,1.25E-02
124490,6.53E-03,1.24E-02
124491,8.75E-03,1.80E-02
124492,6.40E-03,3.19E-03
124493,8.40E-03,1.26E-02
124494,6.23E-03,3.88E-02
124495,6.75E-03,3.88E-02
124496,7.11E-03,3.89E-02
124497,7.35E-03,3.89E-02
124498,8.03E-03,3.91E-02
124499,8.11E-03,3.92E-02
124500,7.98E-03,3.94E-02
124501,7.94E-03,3.96E-02
124502,7.94E-03,3.99E-02
124503,7.94E-03,4.01E-02
124504,7.94E-03,4.04E-02
124505,7.94E-03,4.07E-02
124506,7.94E-03,4.10E-02
124507,7.94E-03,4.14E-02
124508,7.94E-03,4.17E-02
124509,7.89E-03,4.22E-02
124510,7.91E-03,4.26E-02
124511,8.00E-03,4.32E-02
124512,8.05E-03,4.37E-02
124513,8.22E-03,4.43E-02
124514,8.39E-03,4.50E-02
124515,8.38E-03,4.58E-02
124516,8.20E-03,4.66E-02
124517,7.91E-03,4.73E-02
124518,7.99E-03,4.80E-02
124519,8.22E-03,4.89E-02
124520,8.54E-03,4.97E-02
124521,6.74E-03,5.06E-02
124522,7.98E-03,6.76E-03
124523,7.21E-03,1.83E-02
124524,7.43E-03,1.88E-02
124525,1.04E-02,1.82E-02
124526,8.00E-03,1.76E-02
124527,7.96E-03,1.71E-02
124528,7.83E-03,1.66E-02
124529,7.82E-03,1.62E-02
124530,7.65E-03,1.57E-02
124531,7.75E-03,5.42E-03
124532,7.92E-03,5.35E-03
124533,8.11E-03,5.27E-03
124534,8.36E-03,5.19E-03
124535,8.45E-03,5.12E-03
124536,8.17E-03,4.72E-03
124537,7.91E-03,4.57E-03
124538,7.63E-03,4.44E-03
124539,7.64E-03,4.34E-03
124540,7.68E-03,4.26E-03
124541,7.83E-03,4.17E-03
124542,7.95E-03,4.09E-03
124543,8.01E-03,4.02E-03
124544,8.29E-03,3.93E-03
124545,8.47E-03,3.85E-03
124546,8.59E-03,3.76E-03
124547,6.72E-03,2.81E-02
124548,6.95E-03,2.84E-02
124549,8.21E-03,1.21E-02
124550,8.63E-03,1.19E-02
124551,1.02E-02,1.17E-02
124552,9.97E-03,1.13E-02
124553,9.87E-03,1.10E-02
124554,9.73E-03,1.06E-02
124555,9.06E-03,1.02E-02
124556,8.40E-03,9.80E-03
124557,8.20E-03,9.42E-03
124558,8.07E-03,9.06E-03
124559,8.02E-03,8.70E-03
124560,8.02E-03,8.36E-03
124561,8.02E-03,8.03E-03
124562,8.01E-03,7.72E-03
124563,8.00E-03,7.44E-03
124564,8.00E-03,7.17E-03
124565,7.99E-03,6.94E-03
124566,7.99E-03,6.73E-03
124567,7.99E-03,6.55E-03
124568,7.98E-03,6.39E-03
124569,7.98E-03,6.26E-03
124570,7.97E-03,6.15E-03
124571,7.97E-03,6.06E-03
124572,7.96E-03,6.00E-03
124573,7.96E-03,5.95E-03
124574,7.95E-03,5.93E-03
124575,7.95E-03,5.92E-03
124576,7.95E-03,5.92E-03
124577,7.94E-03,5.94E-03
124578,7.95E-03,5.97E-03
124579,8.13E-03,6.01E-03
124580,8.57E-03,6.06E-03
124581,8.89E-03,6.12E-03
124582,8.91E-03,6.19E-03
124583,8.76E-03,6.26E-03
124584,8.62E-03,6.34E-03
124585,8.53E-03,6.42E-03
124586,8.47E-03,6.51E-03
124587,8.42E-03,6.60E-03
124588,8.38E-03,6.69E-03
124589,8.35E-03,6.79E-03
124590,8.29E-03,6.89E-03
124591,8.26E-03,6.99E-03
124592,8.31E-03,7.09E-03
124593,8.40E-03,7.20E-03
124594,8.39E-03,7.32E-03
124595,8.13E-03,7.43E-03
124596,7.93E-03,7.54E-03
124597,7.93E-03,7.65E-03
124598,7.93E-03,7.77E-03
124599,7.91E-03,7.89E-03
124600,7.87E-03,8.01E-03
124601,7.84E-03,8.13E-03
124602,7.81E-03,8.25E-03
124603,7.77E-03,8.37E-03
124604,7.73E-03,8.49E-03
124605,7.67E-03,8.61E-03
124606,7.60E-03,8.73E-03
124607,7.51E-03,8.84E-03
124608,7.38E-03,8.96E-03
124609,7.08E-03,9.07E-03
124610,6.70E-03,9.18E-03
124611,7.29E-03,9.28E-03
124612,8.30E-03,9.40E-03
124613,8.82E-03,9.53E-03
124614,8.96E-03,9.65E-03
124615,8.80E-03,9.78E-03
124616,8.68E-03,9.90E-03
124617,8.59E-03,1.00E-02
124618,8.52E-03,1.01E-02
124619,8.47E-03,1.02E-02
124620,8.42E-03,1.04E-02
124621,8.39E-03,1.05E-02
124622,8.36E-03,1.06E-02
124623,8.33E-03,1.07E-02
124624,8.31E-03,1.08E-02
124625,8.74E-03,1.09E-02
124626,9.34E-03,1.10E-02
124627,9.26E-03,1.11E-02
124628,8.89E-03,1.12E-02
124629,8.68E-03,1.13E-02
124630,8.55E-03,1.14E-02
124631,8.46E-03,1.15E-02
124632,8.39E-03,1.16E-02
124633,8.35E-03,1.18E-02
124634,8.31E-03,1.19E-02
124635,8.28E-03,1.19E-02
124636,8.26E-03,1.20E-02
124637,8.24E-03,1.21E-02
124638,8.22E-03,1.22E-02
124639,8.21E-03,1.23E-02
124640,8.20E-03,1.24E-02
124641,8.19E-03,1.25E-02
124642,8.18E-03,1.26E-02
124643,8.17E-03,1.27E-02
124644,8.17E-03,1.28E-02
124645,8.16E-03,1.29E-02
124646,8.16E-03,1.29E-02
124647,8.15E-03,1.30E-02
124648,8.15E-03,1.31E-02
124649,8.14E-03,1.32E-02
124650,8.14E-03,1.33E-02
124651,8.14E-03,1.33E-02
124652,8.13E-03,1.34E-02
124653,8.13E-03,1.35E-02
124654,8.13E-03,1.36E-02
124655,8.13E-03,1.36E-02
124656,8.12E-03,1.37E-02
124657,8.12E-03,1.38E-02
124658,8.12E-03,1.39E-02
124659,8.12E-03,1.39E-02
124660,8.12E-03,1.40E-02
124661,8.11E-03,1.41E-02
124662,8.11E-03,1.41E-02
124663,8.11E-03,1.42E-02
124664,8.11E-03,1.43E-02
124665,8.11E-03,1.43E-02
124666,8.11E-03,1.44E-02
124667,8.11E-03,1.45E-02
124668,8.11E-03,1.45E-02
124669,8.11E-03,1.46E-02
124670,8.10E-03,1.47E-02
124671,8.10E-03,1.47E-02
124672,8.10E-03,1.48E-02
124673,8.10E-03,1.49E-02
124674,8.10E-03,1.49E-02
124675,8.10E-03,1.50E-02
124676,8.10E-03,1.51E-02
124677,8.10E-03,1.51E-02
124678,8.10E-03,1.52E-02
124679,8.10E-03,1.52E-02
124680,8.10E-03,1.53E-02
124681,8.10E-03,1.54E-02
124682,8.10E-03,1.54E-02
124683,8.10E-03,1.55E-02
124684,8.10E-03,1.56E-02
124685,8.10E-03,1.56E-02
124686,8.10E-03,1.57E-02
124687,8.10E-03,1.57E-02
124688,8.10E-03,1.58E-02
124689,8.10E-03,1.59E-02
124690,8.10E-03,1.59E-02
124691,8.10E-03,1.60E-02
124692,8.10E-03,1.60E-02
124693,8.10E-03,1.61E-02
124694,8.10E-03,1.62E-02
124695,8.10E-03,1.62E-02
124696,8.10E-03,1.63E-02
124697,8.10E-03,1.63E-02
124698,8.10E-03,1.64E-02
124699,8.10E-03,1.65E-02
124700,8.10E-03,1.65E-02
124701,8.10E-03,1.66E-02
124702,8.11E-03,1.66E-02
124703,8.11E-03,1.67E-02
124704,8.11E-03,1.67E-02
124705,8.11E-03,1.68E-02
124706,8.11E-03,1.69E-02
124707,8.11E-03,1.69E-02
124708,8.11E-03,1.70E-02
124709,8.11E-03,1.70E-02
124710,8.12E-03,1.71E-02
124711,8.12E-03,1.71E-02
124712,8.12E-03,1.72E-02
124713,8.12E-03,1.73E-02
124714,8.13E-03,1.73E-02
124715,8.13E-03,1.74E-02
124716,8.13E-03,1.74E-02
124717,8.14E-03,1.75E-02
124718,8.14E-03,1.75E-02
124719,8.14E-03,1.76E-02
124720,8.15E-03,1.76E-02
124721,8.16E-03,1.77E-02
124722,8.16E-03,1.77E-02
124723,8.17E-03,1.78E-02
124724,8.18E-03,1.78E-02
124725,8.20E-03,1.79E-02
124726,8.21E-03,1.79E-02
124727,8.23E-03,1.79E-02
124728,8.25E-03,1.80E-02
124729,8.28E-03,1.80E-02
124730,8.31E-03,1.81E-02
124731,8.36E-03,1.81E-02
124732,8.42E-03,1.82E-02
124733,8.51E-03,1.83E-02
124734,8.65E-03,1.83E-02
124735,8.87E-03,1.84E-02
124736,8.80E-03,1.84E-02
124737,7.97E-03,1.85E-02
124738,7.43E-03,1.86E-02
124739,7.58E-03,1.86E-02
124740,7.69E-03,1.87E-02
124741,7.76E-03,1.87E-02
124742,7.81E-03,1.88E-02
124743,7.85E-03,1.89E-02
124744,7.88E-03,1.89E-02
124745,7.91E-03,1.90E-02
124746,7.93E-03,1.90E-02
124747,7.94E-03,1.91E-02
124748,7.96E-03,1.91E-02
124749,7.97E-03,1.92E-02
124750,7.98E-03,1.92E-02
124751,7.99E-03,1.93E-02
124752,7.99E-03,1.93E-02
124753,8.00E-03,1.94E-02
124754,8.01E-03,1.94E-02
124755,8.01E-03,1.95E-02
124756,8.02E-03,1.95E-02
124757,8.02E-03,1.96E-02
124758,8.02E-03,1.97E-02
124759,8.03E-03,1.97E-02
124760,8.03E-03,1.98E-02
124761,8.03E-03,1.98E-02
124762,8.03E-03,1.99E-02
124763,8.03E-03,2.00E-02
124764,8.03E-03,2.00E-02
124765,8.03E-03,2.01E-02
124766,8.04E-03,2.01E-02
124767,8.05E-03,2.02E-02
124768,8.05E-03,2.03E-02
124769,8.06E-03,2.03E-02
124770,8.06E-03,2.04E-02
124771,8.06E-03,2.05E-02
124772,8.06E-03,2.05E-02
124773,8.07E-03,2.06E-02
124774,8.09E-03,2.07E-02
124775,8.11E-03,2.07E-02
124776,8.13E-03,2.08E-02
124777,8.13E-03,2.08E-02
124778,8.13E-03,2.09E-02
124779,8.13E-03,2.10E-02
124780,8.14E-03,2.10E-02
124781,8.14E-03,2.11E-02
124782,8.15E-03,2.11E-02
124783,8.15E-03,2.12E-02
124784,8.16E-03,2.13E-02
124785,8.16E-03,2.13E-02
124786,8.17E-03,2.14E-02
124787,8.18E-03,2.14E-02
124788,8.19E-03,2.14E-02
124789,8.20E-03,2.15E-02
124790,8.21E-03,2.15E-02
124791,8.23E-03,2.15E-02
124792,8.25E-03,2.15E-02
124793,8.27E-03,2.16E-02
124794,8.30E-03,2.16E-02
124795,8.34E-03,2.16E-02
124796,8.40E-03,2.16E-02
124797,8.58E-03,2.16E-02
124798,8.59E-03,2.16E-02
124799,8.55E-03,2.16E-02
124800,8.44E-03,2.17E-02
124801,8.38E-03,2.17E-02
124802,7.63E-03,2.21E-02
124803,5.28E-03,2.21E-02
124804,4.56E-03,2.22E-02
124805,6.04E-03,2.23E-02
124806,6.32E-03,2.23E-02
124807,6.52E-03,2.23E-02
124808,7.19E-03,2.24E-02
124809,7.31E-03,2.24E-02
124810,7.43E-03,2.24E-02
124811,8.00E-03,2.24E-02
124812,7.98E-03,2.25E-02
124813,8.44E-03,2.25E-02
124814,8.49E-03,2.25E-02
124815,8.54E-03,2.25E-02
124816,8.61E-03,2.25E-02
124817,8.73E-03,2.26E-02
124818,8.86E-03,2.26E-02
124819,8.86E-03,2.27E-02
124820,8.56E-03,2.27E-02
124821,8.08E-03,2.28E-02
124822,6.84E-03,2.28E-02
124823,6.21E-03,2.29E-02
124824,6.23E-03,2.29E-02
124825,6.91E-03,2.29E-02
124826,7.18E-03,2.30E-02
124827,7.35E-03,2.30E-02
124828,7.58E-03,2.30E-02
124829,7.72E-03,2.31E-02
124830,7.78E-03,2.31E-02
124831,7.82E-03,2.32E-02
124832,7.86E-03,2.32E-02
124833,7.89E-03,2.32E-02
124834,7.91E-03,2.33E-02
124835,7.93E-03,2.33E-02
124836,7.94E-03,2.33E-02
124837,7.95E-03,2.34E-02
124838,7.97E-03,2.34E-02
124839,7.97E-03,2.35E-02
124840,7.96E-03,2.36E-02
124841,7.96E-03,2.36E-02
124842,8.00E-03,2.37E-02
124843,8.03E-03,2.37E-02
124844,8.04E-03,2.38E-02
124845,8.05E-03,2.39E-02
124846,8.06E-03,2.39E-02
124847,8.06E-03,2.40E-02
124848,8.09E-03,2.41E-02
124849,8.12E-03,2.41E-02
124850,8.12E-03,2.42E-02
124851,8.13E-03,2.43E-02
124852,8.13E-03,2.44E-02
124853,8.13E-03,2.44E-02
124854,8.13E-03,2.45E-02
124855,8.13E-03,2.46E-02
124856,8.14E-03,2.47E-02
124857,8.14E-03,2.47E-02
124858,8.14E-03,2.48E-02
124859,8.15E-03,2.49E-02
124860,8.15E-03,2.50E-02
124861,8.15E-03,2.51E-02
124862,8.16E-03,2.51E-02
124863,8.16E-03,2.52E-02
124864,8.17E-03,2.53E-02
124865,8.17E-03,2.54E-02
124866,8.18E-03,2.54E-02
124867,8.19E-03,2.55E-02
124868,8.19E-03,2.56E-02
124869,8.20E-03,2.56E-02
124870,8.21E-03,2.57E-02
124871,8.22E-03,2.58E-02
124872,8.23E-03,2.58E-02
124873,8.25E-03,2.59E-02
124874,8.26E-03,2.59E-02
124875,8.28E-03,2.60E-02
124876,8.30E-03,2.60E-02
124877,8.32E-03,2.61E-02
124878,8.33E-03,2.61E-02
124879,8.34E-03,2.61E-02
124880,8.35E-03,2.61E-02
124881,8.35E-03,2.61E-02
124882,8.36E-03,2.62E-02
124883,8.40E-03,2.62E-02
124884,8.46E-03,2.61E-02
124885,8.52E-03,2.61E-02
124886,8.60E-03,2.61E-02
124887,8.71E-03,2.61E-02
124888,8.86E-03,2.61E-02
124889,9.09E-03,2.61E-02
124890,9.45E-03,2.61E-02
124891,9.75E-03,2.61E-02
124892,9.73E-03,2.61E-02
124893,9.51E-03,2.62E-02
124894,9.33E-03,2.62E-02
124895,9.18E-03,2.63E-02
124896,9.35E-03,2.64E-02
124897,9.62E-03,2.64E-02
124898,9.19E-03,2.65E-02
124899,8.56E-03,2.66E-02
124900,8.35E-03,2.67E-02
124901,8.18E-03,2.68E-02
124902,8.00E-03,2.69E-02
124903,7.89E-03,2.70E-02
124904,7.64E-03,2.70E-02
124905,6.66E-03,2.71E-02
124906,6.30E-03,2.71E-02
124907,6.88E-03,2.72E-02
124908,7.17E-03,2.72E-02
124909,7.15E-03,2.72E-02
124910,6.70E-03,2.72E-02
124911,6.04E-03,2.73E-02
124912,6.05E-03,2.73E-02
124913,6.66E-03,2.73E-02
124914,7.06E-03,2.72E-02
124915,7.31E-03,2.72E-02
124916,7.52E-03,2.72E-02
124917,7.65E-03,2.72E-02
124918,7.67E-03,2.72E-02
124919,7.67E-03,2.72E-02
124920,7.68E-03,2.72E-02
124921,7.68E-03,2.72E-02
124922,7.68E-03,2.72E-02
124923,7.80E-03,2.72E-02
124924,8.01E-03,2.72E-02
124925,8.11E-03,2.72E-02
124926,8.11E-03,2.72E-02
124927,8.11E-03,2.72E-02
124928,8.12E-03,2.73E-02
124929,8.15E-03,2.73E-02
124930,8.18E-03,2.73E-02
124931,8.21E-03,2.74E-02
124932,8.22E-03,2.74E-02
124933,8.22E-03,2.74E-02
124934,8.23E-03,2.75E-02
124935,8.24E-03,2.75E-02
124936,8.25E-03,2.75E-02
124937,8.26E-03,2.76E-02
124938,8.27E-03,2.76E-02
124939,8.29E-03,2.76E-02
124940,8.30E-03,2.77E-02
124941,8.32E-03,2.77E-02
124942,8.34E-03,2.77E-02
124943,8.36E-03,2.77E-02
124944,8.39E-03,2.77E-02
124945,8.42E-03,2.78E-02
124946,8.45E-03,2.78E-02
124947,8.49E-03,2.78E-02
124948,8.52E-03,2.78E-02
124949,8.56E-03,2.78E-02
124950,8.61E-03,2.78E-02
124951,8.67E-03,2.79E-02
124952,8.74E-03,2.79E-02
124953,8.82E-03,2.79E-02
124954,8.92E-03,2.80E-02
124955,9.05E-03,2.80E-02
124956,9.20E-03,2.81E-02
124957,9.23E-03,2.82E-02
124958,9.12E-03,2.83E-02
124959,9.09E-03,2.84E-02
124960,9.21E-03,2.86E-02
124961,9.52E-03,2.87E-02
124962,9.26E-03,2.89E-02
124963,7.61E-03,2.90E-02
124964,6.24E-03,2.91E-02
124965,6.43E-03,2.92E-02
124966,6.41E-03,2.93E-02
124967,6.43E-03,2.94E-02
124968,6.32E-03,2.95E-02
124969,6.29E-03,2.95E-02
124970,6.04E-03,2.96E-02
124971,6.00E-03,2.96E-02
124972,6.42E-03,2.97E-02
124973,6.45E-03,2.97E-02
124974,6.87E-03,2.97E-02
124975,7.08E-03,2.97E-02
124976,7.34E-03,2.98E-02
124977,7.50E-03,2.98E-02
124978,7.68E-03,2.98E-02
124979,7.85E-03,2.99E-02
124980,7.88E-03,2.99E-02
124981,7.91E-03,3.00E-02
124982,7.93E-03,3.00E-02
124983,7.95E-03,3.01E-02
124984,7.96E-03,3.02E-02
124985,7.97E-03,3.02E-02
124986,7.98E-03,3.03E-02
124987,7.99E-03,3.04E-02
124988,8.00E-03,3.05E-02
124989,8.00E-03,3.06E-02
124990,8.01E-03,3.08E-02
124991,8.02E-03,3.09E-02
124992,8.02E-03,3.10E-02
124993,8.03E-03,3.11E-02
124994,8.03E-03,3.13E-02
124995,8.04E-03,3.14E-02
124996,8.04E-03,3.16E-02
124997,8.04E-03,3.17E-02
124998,8.04E-03,3.19E-02
124999,8.04E-03,3.20E-02
125000,8.04E-03,3.22E-02
125001,8.04E-03,3.23E-02
125002,8.05E-03,3.25E-02
125003,8.05E-03,3.27E-02
125004,8.05E-03,3.28E-02
125005,8.05E-03,3.30E-02
125006,8.05E-03,3.32E-02
125007,8.05E-03,3.34E-02
125008,8.05E-03,3.35E-02
125009,8.05E-03,3.37E-02
125010,8.05E-03,3.39E-02
125011,8.05E-03,3.41E-02
125012,8.05E-03,3.43E-02
125013,8.06E-03,3.45E-02
125014,8.06E-03,3.47E-02
125015,8.06E-03,3.48E-02
125016,8.06E-03,3.50E-02
125017,8.06E-03,3.52E-02
125018,8.06E-03,3.54E-02
125019,8.06E-03,3.56E-02
125020,8.06E-03,3.58E-02
125021,8.06E-03,3.60E-02
125022,8.06E-03,3.62E-02
125023,8.06E-03,3.65E-02
125024,8.06E-03,3.67E-02
125025,8.06E-03,3.69E-02
125026,8.06E-03,3.71E-02
125027,8.06E-03,3.73E-02
125028,8.06E-03,3.76E-02
125029,7.96E-03,3.78E-02
125030,7.84E-03,3.80E-02
125031,7.68E-03,3.83E-02
125032,7.50E-03,3.85E-02
125033,7.18E-03,3.87E-02
125034,7.75E-03,6.74E-03
125035,7.82E-03,6.71E-03
125036,8.36E-03,6.70E-03
125037,8.68E-03,6.69E-03
125038,8.91E-03,6.69E-03
125039,9.28E-03,6.70E-03
125040,8.97E-03,6.69E-03
125041,8.69E-03,6.69E-03
125042,8.60E-03,6.69E-03
125043,8.49E-03,6.69E-03
125044,8.01E-03,6.68E-03
125045,7.35E-03,6.67E-03
125046,7.30E-03,6.66E-03
125047,7.55E-03,6.65E-03
125048,7.43E-03,6.63E-03
125049,7.19E-03,6.62E-03
125050,6.95E-03,6.60E-03
125051,6.57E-03,6.58E-03
125052,5.78E-03,6.57E-03
125053,6.55E-03,6.55E-03
125054,7.94E-03,6.53E-03
125055,8.04E-03,6.51E-03
125056,8.07E-03,6.49E-03
125057,8.08E-03,6.47E-03
125058,8.07E-03,6.45E-03
125059,7.91E-03,6.42E-03
125060,7.69E-03,6.40E-03
125061,7.58E-03,6.38E-03
125062,7.48E-03,6.36E-03
125063,7.35E-03,6.34E-03
125064,7.17E-03,6.33E-03
125065,7.64E-03,6.31E-03
125066,8.63E-03,6.30E-03
125067,9.38E-03,6.28E-03
125068,9.63E-03,6.26E-03
125069,9.36E-03,6.24E-03
125070,9.08E-03,6.22E-03
125071,8.82E-03,6.20E-03
125072,8.28E-03,6.18E-03
125073,7.86E-03,6.17E-03
125074,7.56E-03,6.15E-03
125075,7.00E-03,6.13E-03
125076,6.74E-03,6.12E-03
125077,6.63E-03,6.11E-03
125078,6.90E-03,6.10E-03
125079,8.05E-03,6.08E-03
125080,9.06E-03,6.07E-03
125081,9.59E-03,6.06E-03
125082,9.50E-03,6.04E-03
125083,9.00E-03,6.02E-03
125084,9.02E-03,6.00E-03
125085,7.20E-03,5.98E-03
125086,7.06E-03,5.96E-03
125087,7.01E-03,5.94E-03
125088,6.86E-03,5.92E-03
125089,6.70E-03,5.90E-03
125090,6.40E-03,5.88E-03
125091,6.04E-03,5.86E-03
125092,1.07E-02,5.90E-03
125093,9.75E-03,5.85E-03
125094,9.65E-03,5.83E-03
125095,9.56E-03,5.81E-03
125096,8.41E-03,5.79E-03
125097,8.08E-03,5.76E-03
125098,7.63E-03,5.74E-03
125099,7.16E-03,5.72E-03
125100,6.34E-03,5.70E-03
125101,6.14E-03,5.68E-03
125102,5.66E-03,5.67E-03
125103,5.56E-03,5.66E-03
125104,5.91E-03,5.64E-03
125105,8.91E-03,5.62E-03
125106,8.77E-03,5.61E-03
125107,8.67E-03,5.60E-03
125108,7.97E-03,2.11E-03
125109,7.92E-03,2.08E-03
125110,8.01E-03,2.06E-03
125111,7.76E-03,2.08E-03
125112,7.56E-03,2.43E-03
125113,8.57E-03,2.45E-03
125114,9.29E-03,2.46E-03
125115,9.38E-03,2.48E-03
125116,7.63E-03,2.51E-03
125117,7.53E-03,2.53E-03
125118,7.33E-03,2.54E-03
125119,6.62E-03,2.55E-03
125120,6.05E-03,2.56E-03
125121,6.06E-03,2.57E-03
125122,6.77E-03,2.61E-03
125123,8.41E-03,6.62E-03
125124,7.90E-03,6.65E-03
125125,7.53E-03,6.67E-03
125126,6.98E-03,6.73E-03
125127,7.28E-03,1.86E-02
125128,7.21E-03,3.12E-02
125129,8.05E-03,3.19E-02
125130,7.73E-03,3.27E-02
125131,7.38E-03,3.38E-02
125132,8.48E-03,2.40E-02
125133,6.88E-03,2.44E-02
125134,6.51E-03,2.48E-02
125135,6.05E-03,7.19E-03
125136,6.23E-03,7.22E-03
125137,6.04E-03,7.28E-03
125138,5.80E-03,7.60E-03
125139,5.45E-03,7.42E-03
125140,5.91E-03,7.30E-03
125141,9.83E-03,3.33E-03
125142,6.28E-03,8.03E-03
125143,7.05E-03,4.14E-02
125144,6.66E-03,4.25E-02
125145,5.74E-03,4.46E-02
125146,5.93E-03,4.62E-02
125147,6.30E-03,1.91E-02
125148,6.65E-03,1.90E-02
125149,6.87E-03,1.88E-02
125150,7.06E-03,1.87E-02
125151,7.25E-03,1.85E-02
125152,7.62E-03,1.83E-02
125153,7.80E-03,1.81E-02
125154,8.05E-03,1.79E-02
125155,8.15E-03,1.77E-02
125156,8.28E-03,1.75E-02
125157,8.29E-03,1.72E-02
125158,8.30E-03,1.70E-02
125159,8.32E-03,1.68E-02
125160,8.36E-03,1.66E-02
125161,8.54E-03,1.65E-02
125162,8.82E-03,1.63E-02
125163,9.02E-03,1.61E-02
125164,9.19E-03,1.60E-02
125165,9.44E-03,1.58E-02
125166,9.80E-03,1.57E-02
125167,1.02E-02,1.55E-02
125168,1.01E-02,1.54E-02
125169,9.67E-03,1.53E-02
125170,8.60E-03,1.52E-02
125171,8.32E-03,1.51E-02
125172,8.02E-03,1.50E-02
125173,7.43E-03,1.49E-02
125174,6.06E-03,1.48E-02
125175,5.67E-03,1.47E-02
125176,5.90E-03,1.46E-02
125177,6.28E-03,1.45E-02
125178,6.58E-03,1.44E-02
125179,7.08E-03,1.43E-02
125180,7.47E-03,1.42E-02
125181,7.54E-03,1.40E-02
125182,7.78E-03,1.39E-02
125183,7.90E-03,1.37E-02
125184,7.93E-03,1.36E-02
125185,7.96E-03,1.35E-02
125186,7.98E-03,1.33E-02
125187,7.99E-03,1.32E-02
125188,7.99E-03,1.31E-02
125189,7.99E-03,1.29E-02
125190,8.00E-03,1.28E-02
125191,8.22E-03,1.27E-02
125192,8.42E-03,1.25E-02
125193,8.37E-03,1.24E-02
125194,8.28E-03,1.23E-02
125195,8.25E-03,1.22E-02
125196,8.28E-03,1.20E-02
125197,8.33E-03,1.19E-02
125198,8.37E-03,1.18E-02
125199,8.41E-03,1.17E-02
125200,8.47E-03,1.15E-02
125201,8.55E-03,1.14E-02
125202,8.66E-03,1.13E-02
125203,8.90E-03,1.12E-02
125204,8.96E-03,1.11E-02
125205,9.11E-03,1.10E-02
125206,9.37E-03,1.09E-02
125207,9.48E-03,1.07E-02
125208,9.60E-03,1.06E-02
125209,9.80E-03,1.05E-02
125210,9.97E-03,1.04E-02
125211,9.72E-03,1.03E-02
125212,9.50E-03,1.02E-02
125213,9.30E-03,1.00E-02
125214,9.41E-03,9.88E-03
125215,9.99E-03,6.50E-03
125216,9.88E-03,6.51E-03
125217,9.69E-03,6.51E-03
125218,9.67E-03,6.47E-03
125219,8.72E-03,6.39E-03
125220,8.27E-03,6.23E-03
125221,7.70E-03,5.74E-03
125222,8.21E-03,5.77E-03
125223,8.75E-03,5.80E-03
125224,8.67E-03,5.83E-03
125225,8.55E-03,5.86E-03
125226,8.48E-03,5.90E-03
125227,8.27E-03,5.94E-03
125228,8.13E-03,5.97E-03
125229,8.11E-03,6.01E-03
125230,8.08E-03,6.04E-03
125231,8.07E-03,6.08E-03
125232,7.86E-03,6.11E-03
125233,7.83E-03,6.14E-03
125234,7.73E-03,6.16E-03
125235,7.59E-03,6.18E-03
125236,7.56E-03,6.19E-03
125237,7.87E-03,6.18E-03
125238,7.60E-03,5.52E-03
125239,9.67E-03,5.49E-03
125240,9.93E-03,5.47E-03
125241,9.60E-03,5.44E-03
125242,9.50E-03,5.40E-03
125243,9.12E-03,5.37E-03
125244,9.00E-03,5.33E-03
125245,8.70E-03,5.29E-03
125246,8.56E-03,5.25E-03
125247,8.50E-03,5.22E-03
125248,8.38E-03,5.18E-03
125249,8.14E-03,5.14E-03
125250,7.91E-03,5.09E-03
125251,7.84E-03,5.05E-03
125252,7.83E-03,5.01E-03
125253,7.79E-03,4.97E-03
125254,7.75E-03,4.93E-03
125255,7.69E-03,4.89E-03
125256,7.62E-03,4.85E-03
125257,7.52E-03,4.80E-03
125258,7.38E-03,4.77E-03
125259,7.19E-03,4.73E-03
125260,6.84E-03,4.69E-03
125261,6.39E-03,4.66E-03
125262,6.51E-03,4.63E-03
125263,7.03E-03,4.60E-03
125264,7.15E-03,4.57E-03
125265,7.01E-03,4.55E-03
125266,6.94E-03,4.53E-03
125267,7.00E-03,4.51E-03
125268,7.48E-03,4.49E-03
125269,8.92E-03,4.47E-03
125270,9.62E-03,4.44E-03
125271,9.74E-03,4.42E-03
125272,9.67E-03,4.39E-03
125273,9.44E-03,4.36E-03
125274,9.17E-03,4.33E-03
125275,8.90E-03,4.30E-03
125276,8.58E-03,4.26E-03
125277,8.03E-03,4.23E-03
125278,7.64E-03,4.20E-03
125279,7.51E-03,4.17E-03
125280,7.43E-03,4.14E-03
125281,7.33E-03,4.11E-03
125282,7.20E-03,4.09E-03
125283,7.03E-03,4.07E-03
125284,6.82E-03,4.05E-03
125285,6.86E-03,4.03E-03
125286,7.23E-03,4.01E-03
125287,7.41E-03,4.00E-03
125288,7.35E-03,3.98E-03
125289,7.31E-03,3.97E-03
125290,7.29E-03,3.96E-03
125291,7.88E-03,3.95E-03
125292,8.77E-03,3.94E-03
125293,9.00E-03,3.93E-03
125294,8.88E-03,3.91E-03
125295,8.78E-03,3.90E-03
125296,8.68E-03,3.88E-03
125297,8.49E-03,3.86E-03
125298,8.27E-03,3.85E-03
125299,8.10E-03,3.83E-03
125300,8.07E-03,3.81E-03
125301,8.10E-03,3.79E-03
125302,8.10E-03,3.78E-03
125303,8.17E-03,3.76E-03
125304,8.72E-03,3.74E-03
125305,9.15E-03,3.72E-03
125306,8.99E-03,3.70E-03
125307,8.78E-03,3.68E-03
125308,8.65E-03,3.65E-03
125309,8.65E-03,3.63E-03
125310,8.78E-03,3.60E-03
125311,8.99E-03,3.57E-03
125312,9.29E-03,3.54E-03
125313,9.36E-03,3.50E-03
125314,9.12E-03,3.46E-03
125315,8.88E-03,3.42E-03
125316,8.73E-03,3.37E-03
125317,8.62E-03,3.33E-03
125318,8.57E-03,3.28E-03
125319,8.56E-03,3.23E-03
125320,8.49E-03,3.18E-03
125321,8.38E-03,3.13E-03
125322,8.31E-03,3.08E-03
125323,8.26E-03,3.03E-03
125324,8.23E-03,2.98E-03
125325,8.21E-03,2.93E-03
125326,8.19E-03,2.88E-03
125327,8.18E-03,2.83E-03
125328,8.13E-03,2.78E-03
125329,8.01E-03,2.72E-03
125330,7.94E-03,2.67E-03
125331,7.93E-03,2.62E-03
125332,7.91E-03,2.57E-03
125333,7.90E-03,2.53E-03
125334,7.88E-03,2.48E-03
125335,7.87E-03,2.43E-03
125336,7.85E-03,2.38E-03
125337,7.82E-03,2.34E-03
125338,7.80E-03,2.29E-03
125339,7.76E-03,2.25E-03
125340,7.72E-03,2.21E-03
125341,7.68E-03,2.17E-03
125342,7.61E-03,2.13E-03
125343,7.53E-03,2.09E-03
125344,7.51E-03,2.05E-03
125345,7.60E-03,2.02E-03
125346,7.68E-03,1.98E-03
125347,7.68E-03,1.95E-03
125348,7.63E-03,1.92E-03
125349,7.58E-03,1.88E-03
125350,7.49E-03,1.85E-03
125351,7.35E-03,1.83E-03
125352,7.31E-03,1.80E-03
125353,7.42E-03,1.77E-03
125354,7.52E-03,1.75E-03
125355,7.61E-03,1.72E-03
125356,7.65E-03,1.70E-03
125357,7.40E-03,1.68E-03
125358,7.31E-03,1.66E-03
125359,7.24E-03,1.64E-03
125360,7.09E-03,1.62E-03
125361,6.90E-03,1.61E-03
125362,6.64E-03,1.61E-03
125363,6.68E-03,1.61E-03
125364,5.88E-03,1.60E-03
125365,5.74E-03,1.59E-03
125366,6.06E-03,1.61E-03
125367,6.28E-03,1.64E-03
125368,6.40E-03,1.66E-03
125369,6.51E-03,1.70E-03
125370,7.44E-03,1.74E-03
125371,9.31E-03,1.77E-03
125372,9.42E-03,1.80E-03
125373,9.49E-03,1.85E-03
125374,6.09E-03,1.88E-03
125375,6.71E-03,1.88E-03
125376,7.98E-03,8.91E-03
125377,8.19E-03,1.35E-02
125378,8.22E-03,1.31E-02
125379,8.46E-03,1.26E-02
125380,8.46E-03,1.22E-02
125381,8.31E-03,1.19E-02
125382,8.10E-03,1.15E-02
125383,8.10E-03,1.11E-02
125384,8.02E-03,1.08E-02
125385,7.76E-03,1.05E-02
125386,7.62E-03,1.02E-02
125387,7.50E-03,9.83E-03
125388,8.66E-03,9.43E-03
125389,9.27E-03,9.09E-03
125390,7.62E-03,6.74E-03
125391,8.28E-03,6.72E-03
125392,7.75E-03,6.74E-03
125393,6.99E-03,6.74E-03
125394,7.12E-03,6.74E-03
125395,6.65E-03,3.94E-02
125396,6.80E-03,3.95E-02
125397,7.02E-03,3.96E-02
125398,7.16E-03,3.96E-02
125399,7.95E-03,3.98E-02
125400,8.08E-03,3.99E-02
125401,7.98E-03,4.01E-02
125402,7.94E-03,4.03E-02
125403,7.94E-03,4.06E-02
125404,7.94E-03,4.08E-02
125405,7.94E-03,4.11E-02
125406,7.94E-03,4.14E-02
125407,7.94E-03,4.18E-02
125408,7.94E-03,4.22E-02
125409,7.94E-03,4.26E-02
125410,7.94E-03,4.31E-02
125411,7.94E-03,4.36E-02
125412,8.01E-03,4.42E-02
125413,8.09E-03,4.48E-02
125414,8.13E-03,4.55E-02
125415,8.19E-03,4.63E-02
125416,8.19E-03,4.70E-02
125417,8.09E-03,4.78E-02
125418,8.04E-03,4.87E-02
125419,8.01E-03,4.96E-02
125420,8.04E-03,5.07E-02
125421,7.76E-03,5.18E-02
125422,6.02E-03,5.25E-02
125423,9.64E-03,5.43E-03
125424,8.98E-03,8.07E-03
125425,1.07E-02,1.93E-02
125426,1.01E-02,1.95E-02
125427,1.05E-02,1.97E-02
125428,1.20E-02,2.00E-02
125429,1.14E-02,2.02E-02
125430,1.11E-02,2.04E-02
125431,1.12E-02,2.07E-02
125432,1.14E-02,2.09E-02
125433,1.13E-02,2.12E-02
125434,1.12E-02,2.15E-02
125435,1.11E-02,2.17E-02
125436,1.12E-02,2.20E-02
125437,1.13E-02,2.23E-02
125438,1.11E-02,2.25E-02
125439,1.08E-02,2.28E-02
125440,1.10E-02,2.30E-02
125441,1.11E-02,2.32E-02
125442,1.07E-02,2.34E-02
125443,1.03E-02,2.36E-02
125444,1.07E-02,2.38E-02
125445,9.63E-03,2.40E-02
125446,8.49E-03,2.41E-02
125447,9.45E-03,2.43E-02
125448,9.89E-03,2.44E-02
125449,6.86E-03,1.89E-02
125450,5.60E-03,1.89E-02
125451,6.85E-03,3.78E-02
125452,7.11E-03,6.66E-03
125453,6.94E-03,2.16E-02
125454,7.62E-03,2.19E-02
125455,7.91E-03,2.23E-02
125456,7.96E-03,1.84E-02
125457,6.65E-03,1.44E-02
125458,7.49E-03,1.90E-02
125459,7.59E-03,1.86E-02
125460,7.35E-03,1.47E-02
125461,9.04E-03,1.38E-02
125462,8.44E-03,1.33E-02
125463,5.83E-03,5.21E-03
125464,7.17E-03,5.17E-03
125465,8.60E-03,4.69E-03
125466,8.47E-03,4.59E-03
125467,8.39E-03,4.48E-03
125468,6.50E-03,2.88E-02
125469,6.27E-03,2.82E-02
125470,8.21E-03,1.22E-02
125471,7.85E-03,2.20E-02
125472,7.69E-03,2.21E-02
125473,8.13E-03,2.22E-02
125474,7.33E-03,6.67E-03
125475,7.80E-03,1.81E-03
125476,6.91E-03,2.21E-03
125477,6.32E-03,2.17E-03
125478,6.25E-03,2.13E-03
125479,5.99E-03,2.06E-03
125480,5.64E-03,2.03E-03
125481,7.73E-03,1.86E-03
125482,5.60E-03,2.01E-03
125483,7.01E-03,1.98E-03
125484,6.43E-03,2.76E-03
125485,7.73E-03,2.61E-03
125486,6.18E-03,6.23E-03
125487,6.93E-03,1.88E-02
125488,8.02E-03,1.85E-02
125489,7.28E-03,2.95E-02
125490,7.71E-03,3.55E-02
125491,8.28E-03,3.43E-02
125492,8.09E-03,2.27E-02
125493,7.03E-03,2.51E-02
125494,7.10E-03,2.46E-02
125495,6.55E-03,6.64E-03
125496,6.23E-03,7.27E-03
125497,8.84E-03,3.35E-03
125498,9.19E-03,3.23E-03
125499,9.58E-03,3.13E-03
125500,7.10E-03,2.92E-03
125501,7.37E-03,1.90E-02
125502,7.30E-03,3.96E-02
125503,7.04E-03,3.98E-02
125504,6.91E-03,3.99E-02
125505,7.80E-03,3.86E-02
125506,6.28E-03,1.90E-02
125507,7.08E-03,3.61E-02
125508,8.76E-03,1.96E-02
125509,8.95E-03,1.97E-02
125510,9.66E-03,1.98E-02
125511,9.61E-03,1.98E-02
125512,9.57E-03,1.99E-02
125513,9.44E-03,2.01E-02
125514,9.13E-03,2.02E-02
125515,9.02E-03,2.03E-02
125516,8.82E-03,2.04E-02
125517,8.70E-03,2.06E-02
125518,8.65E-03,2.07E-02
125519,8.62E-03,2.08E-02
125520,8.58E-03,2.10E-02
125521,8.54E-03,2.11E-02
125522,8.51E-03,2.12E-02
125523,8.49E-03,2.13E-02
125524,8.76E-03,2.15E-02
125525,9.21E-03,2.16E-02
125526,9.27E-03,2.17E-02
125527,9.06E-03,2.19E-02
125528,8.89E-03,2.20E-02
125529,8.76E-03,2.21E-02
125530,8.67E-03,2.23E-02
125531,8.59E-03,2.24E-02
125532,8.53E-03,2.25E-02
125533,8.49E-03,2.27E-02
125534,8.38E-03,2.28E-02
125535,8.13E-03,2.29E-02
125536,7.87E-03,2.30E-02
125537,7.79E-03,2.32E-02
125538,7.76E-03,2.33E-02
125539,7.47E-03,2.34E-02
125540,7.31E-03,2.35E-02
125541,7.30E-03,2.36E-02
125542,7.12E-03,2.36E-02
125543,6.94E-03,2.37E-02
125544,6.80E-03,2.38E-02
125545,6.87E-03,2.38E-02
125546,7.05E-03,2.39E-02
125547,7.85E-03,2.39E-02
125548,7.98E-03,2.40E-02
125549,8.27E-03,2.41E-02
125550,8.26E-03,2.41E-02
125551,8.31E-03,2.42E-02
125552,7.87E-03,2.43E-02
125553,7.70E-03,2.43E-02
125554,7.52E-03,2.43E-02
125555,7.30E-03,2.44E-02
125556,6.55E-03,2.44E-02
125557,6.11E-03,2.45E-02
125558,6.24E-03,2.45E-02
125559,6.46E-03,2.45E-02
125560,1.01E-02,2.46E-02
125561,9.69E-03,2.46E-02
125562,1.02E-02,2.47E-02
125563,9.83E-03,2.48E-02
125564,7.63E-03,2.49E-02
125565,8.85E-03,6.77E-03
125566,8.08E-03,6.74E-03
125567,7.69E-03,6.73E-03
125568,7.27E-03,6.72E-03
125569,6.46E-03,6.70E-03
125570,6.91E-03,6.70E-03
125571,7.40E-03,6.71E-03
125572,7.69E-03,6.72E-03
125573,8.04E-03,6.72E-03
125574,8.02E-03,6.72E-03
125575,8.06E-03,6.71E-03
125576,7.39E-03,6.71E-03
125577,7.62E-03,6.72E-03
125578,7.26E-03,6.72E-03
125579,7.10E-03,6.75E-03
125580,7.24E-03,6.78E-03
125581,7.40E-03,6.82E-03
125582,7.46E-03,6.85E-03
125583,7.59E-03,6.88E-03
125584,7.76E-03,6.92E-03
125585,7.87E-03,6.95E-03
125586,7.90E-03,6.99E-03
125587,7.93E-03,7.03E-03
125588,7.96E-03,7.07E-03
125589,7.98E-03,7.11E-03
125590,7.99E-03,7.15E-03
125591,7.99E-03,7.20E-03
125592,8.00E-03,7.24E-03
125593,8.00E-03,7.29E-03
125594,8.01E-03,7.34E-03
125595,8.01E-03,7.39E-03
125596,8.01E-03,7.44E-03
125597,8.02E-03,7.49E-03
125598,8.02E-03,7.55E-03
125599,8.02E-03,7.60E-03
125600,8.03E-03,7.66E-03
125601,8.03E-03,7.71E-03
125602,8.03E-03,7.77E-03
125603,8.03E-03,7.83E-03
125604,8.04E-03,7.89E-03
125605,8.04E-03,7.95E-03
125606,8.04E-03,8.01E-03
125607,8.04E-03,8.07E-03
125608,8.04E-03,8.14E-03
125609,8.03E-03,8.20E-03
125610,8.01E-03,8.27E-03
125611,8.00E-03,8.34E-03
125612,7.99E-03,8.42E-03
125613,7.98E-03,8.49E-03
125614,7.97E-03,8.57E-03
125615,7.95E-03,8.65E-03
125616,7.93E-03,8.74E-03
125617,7.91E-03,8.82E-03
125618,7.88E-03,8.92E-03
125619,7.85E-03,9.01E-03
125620,7.80E-03,9.11E-03
125621,7.66E-03,9.21E-03
125622,7.68E-03,9.31E-03
125623,7.65E-03,9.42E-03
125624,7.86E-03,9.53E-03
125625,8.17E-03,9.65E-03
125626,9.18E-03,8.26E-03
125627,7.11E-03,2.06E-02
125628,4.86E-03,2.67E-02
125629,5.30E-03,2.57E-02
125630,8.12E-03,1.23E-02
125631,7.29E-03,1.26E-02
125632,1.05E-02,1.81E-02
125633,9.70E-03,1.79E-02
125634,1.01E-02,1.78E-02
125635,1.01E-02,1.77E-02
125636,1.00E-02,1.76E-02
125637,9.49E-03,1.75E-02
125638,9.40E-03,1.74E-02
125639,9.22E-03,1.73E-02
125640,9.03E-03,1.72E-02
125641,8.86E-03,1.71E-02
125642,8.64E-03,1.70E-02
125643,8.48E-03,1.69E-02
125644,8.47E-03,1.68E-02
125645,8.48E-03,1.67E-02
125646,8.50E-03,1.66E-02
125647,8.54E-03,1.65E-02
125648,8.57E-03,1.64E-02
125649,8.60E-03,1.63E-02
125650,8.61E-03,1.62E-02
125651,8.62E-03,1.62E-02
125652,8.62E-03,1.61E-02
125653,8.62E-03,1.60E-02
125654,8.63E-03,1.59E-02
125655,8.64E-03,1.58E-02
125656,8.65E-03,1.57E-02
125657,8.66E-03,1.56E-02
125658,8.67E-03,1.55E-02
125659,8.67E-03,1.54E-02
125660,8.68E-03,1.53E-02
125661,8.69E-03,1.52E-02
125662,8.70E-03,1.51E-02
125663,8.71E-03,1.50E-02
125664,8.72E-03,1.49E-02
125665,8.73E-03,1.48E-02
125666,8.74E-03,1.47E-02
125667,8.75E-03,1.46E-02
125668,8.76E-03,1.45E-02
125669,8.78E-03,1.44E-02
125670,8.79E-03,1.43E-02
125671,8.79E-03,1.42E-02
125672,8.79E-03,1.41E-02
125673,8.79E-03,1.40E-02
125674,8.77E-03,1.39E-02
125675,8.73E-03,1.38E-02
125676,8.69E-03,1.37E-02
125677,8.66E-03,1.37E-02
125678,8.62E-03,1.36E-02
125679,8.59E-03,1.35E-02
125680,8.57E-03,1.34E-02
125681,8.55E-03,1.33E-02
125682,8.53E-03,1.32E-02
125683,8.51E-03,1.31E-02
125684,8.49E-03,1.31E-02
125685,8.47E-03,1.30E-02
125686,8.46E-03,1.29E-02
125687,8.45E-03,1.28E-02
125688,8.44E-03,1.28E-02
125689,8.42E-03,1.27E-02
125690,8.41E-03,1.27E-02
125691,8.30E-03,1.26E-02
125692,8.17E-03,1.26E-02
125693,8.01E-03,1.25E-02
125694,7.82E-03,1.25E-02
125695,7.83E-03,1.25E-02
125696,8.32E-03,1.25E-02
125697,7.71E-03,6.64E-03
125698,7.23E-03,6.64E-03
125699,7.49E-03,6.64E-03
125700,7.76E-03,6.62E-03
125701,5.71E-03,2.07E-03
125702,6.50E-03,1.82E-03
125703,5.98E-03,2.59E-03
125704,7.89E-03,7.35E-03
125705,7.78E-03,7.26E-03
125706,6.57E-03,6.99E-03
125707,5.49E-03,1.95E-02
125708,6.85E-03,1.97E-02
125709,5.84E-03,5.31E-03
125710,6.65E-03,5.00E-03
125711,1.03E-02,1.24E-02
125712,8.71E-03,1.25E-02
125713,6.48E-03,2.49E-03
125714,5.94E-03,2.37E-03
125715,6.79E-03,2.51E-02
125716,7.79E-03,7.45E-03
125717,7.60E-03,1.82E-02
125718,9.70E-03,1.76E-02
125719,8.01E-03,1.71E-02
125720,7.89E-03,1.65E-02
125721,7.76E-03,1.60E-02
125722,7.77E-03,1.56E-02
125723,7.60E-03,1.51E-02
125724,8.23E-03,1.29E-02
125725,8.28E-03,1.25E-02
125726,8.39E-03,1.21E-02
125727,8.45E-03,1.17E-02
125728,8.32E-03,1.13E-02
125729,8.10E-03,1.09E-02
125730,8.10E-03,1.05E-02
125731,7.97E-03,1.02E-02
125732,7.83E-03,9.89E-03
125733,7.60E-03,9.58E-03
125734,6.34E-03,8.93E-03
125735,7.23E-03,9.32E-03
125736,7.95E-03,5.08E-03
125737,8.12E-03,4.99E-03
125738,8.19E-03,4.91E-03
125739,8.28E-03,4.84E-03
125740,8.37E-03,4.77E-03
125741,8.18E-03,4.36E-03
125742,8.05E-03,4.23E-03
125743,7.79E-03,4.10E-03
125744,7.81E-03,4.00E-03
125745,7.81E-03,3.92E-03
125746,7.93E-03,3.84E-03
125747,7.95E-03,3.76E-03
125748,8.08E-03,3.68E-03
125749,8.29E-03,3.60E-03
125750,8.43E-03,3.52E-03
125751,8.58E-03,3.44E-03
125752,6.66E-03,2.70E-02
125753,6.48E-03,2.76E-02
125754,8.14E-03,1.20E-02
125755,9.23E-03,1.18E-02
125756,9.82E-03,1.16E-02
125757,9.75E-03,1.12E-02
125758,9.72E-03,1.08E-02
125759,9.53E-03,1.04E-02
125760,9.00E-03,9.97E-03
125761,8.50E-03,9.54E-03
125762,8.18E-03,9.13E-03
125763,8.03E-03,8.73E-03
125764,8.03E-03,8.35E-03
125765,8.03E-03,7.98E-03
125766,8.02E-03,7.63E-03
125767,8.02E-03,7.30E-03
125768,8.01E-03,7.00E-03
125769,8.00E-03,6.73E-03
125770,8.00E-03,6.48E-03
125771,8.00E-03,6.27E-03
125772,7.99E-03,6.09E-03
125773,7.99E-03,5.93E-03
125774,7.99E-03,5.81E-03
125775,7.98E-03,5.70E-03
125776,7.97E-03,5.63E-03
125777,7.97E-03,5.57E-03
125778,7.97E-03,5.54E-03
125779,7.96E-03,5.52E-03
125780,7.96E-03,5.52E-03
125781,7.96E-03,5.54E-03
125782,7.95E-03,5.57E-03
125783,7.96E-03,5.61E-03
125784,8.13E-03,5.67E-03
125785,8.53E-03,5.73E-03
125786,8.83E-03,5.80E-03
125787,8.85E-03,5.88E-03
125788,8.71E-03,5.97E-03
125789,8.57E-03,6.06E-03
125790,8.50E-03,6.15E-03
125791,8.44E-03,6.25E-03
125792,8.40E-03,6.35E-03
125793,8.36E-03,6.45E-03
125794,8.32E-03,6.55E-03
125795,8.27E-03,6.66E-03
125796,8.25E-03,6.77E-03
125797,8.29E-03,6.88E-03
125798,8.37E-03,7.00E-03
125799,8.36E-03,7.12E-03
125800,8.12E-03,7.24E-03
125801,7.95E-03,7.36E-03
125802,7.94E-03,7.48E-03
125803,7.94E-03,7.60E-03
125804,7.93E-03,7.72E-03
125805,7.89E-03,7.85E-03
125806,7.86E-03,7.97E-03
125807,7.83E-03,8.10E-03
125808,7.80E-03,8.22E-03
125809,7.76E-03,8.35E-03
125810,7.71E-03,8.48E-03
125811,7.64E-03,8.60E-03
125812,7.56E-03,8.73E-03
125813,7.44E-03,8.85E-03
125814,7.16E-03,8.96E-03
125815,6.81E-03,9.08E-03
125816,7.36E-03,9.19E-03
125817,8.29E-03,9.31E-03
125818,8.76E-03,9.44E-03
125819,8.89E-03,9.57E-03
125820,8.74E-03,9.70E-03
125821,8.63E-03,9.83E-03
125822,8.55E-03,9.95E-03
125823,8.49E-03,1.01E-02
125824,8.44E-03,1.02E-02
125825,8.40E-03,1.03E-02
125826,8.36E-03,1.04E-02
125827,8.33E-03,1.05E-02
125828,8.31E-03,1.06E-02
125829,8.29E-03,1.08E-02
125830,8.69E-03,1.09E-02
125831,9.24E-03,1.10E-02
125832,9.17E-03,1.11E-02
125833,8.83E-03,1.12E-02
125834,8.63E-03,1.13E-02
125835,8.51E-03,1.14E-02
125836,8.43E-03,1.15E-02
125837,8.37E-03,1.17E-02
125838,8.33E-03,1.18E-02
125839,8.29E-03,1.19E-02
125840,8.27E-03,1.20E-02
125841,8.24E-03,1.21E-02
125842,8.23E-03,1.22E-02
125843,8.21E-03,1.23E-02
125844,8.20E-03,1.24E-02
125845,8.19E-03,1.25E-02
125846,8.18E-03,1.25E-02
125847,8.17E-03,1.26E-02
125848,8.17E-03,1.27E-02
125849,8.16E-03,1.28E-02
125850,8.15E-03,1.29E-02
125851,8.15E-03,1.30E-02
125852,8.14E-03,1.31E-02
125853,8.14E-03,1.31E-02
125854,8.14E-03,1.32E-02
125855,8.13E-03,1.33E-02
125856,8.13E-03,1.34E-02
125857,8.13E-03,1.35E-02
125858,8.13E-03,1.35E-02
125859,8.12E-03,1.36E-02
125860,8.12E-03,1.37E-02
125861,8.12E-03,1.38E-02
125862,8.12E-03,1.38E-02
125863,8.12E-03,1.39E-02
125864,8.12E-03,1.40E-02
125865,8.11E-03,1.40E-02
125866,8.11E-03,1.41E-02
125867,8.11E-03,1.42E-02
125868,8.11E-03,1.43E-02
125869,8.11E-03,1.43E-02
125870,8.11E-03,1.44E-02
125871,8.11E-03,1.45E-02
125872,8.10E-03,1.45E-02
125873,8.10E-03,1.46E-02
125874,8.10E-03,1.47E-02
125875,8.10E-03,1.47E-02
125876,8.10E-03,1.48E-02
125877,8.10E-03,1.49E-02
125878,8.10E-03,1.49E-02
125879,8.10E-03,1.50E-02
125880,8.10E-03,1.51E-02
125881,8.10E-03,1.51E-02
125882,8.10E-03,1.52E-02
125883,8.10E-03,1.52E-02
125884,8.10E-03,1.53E-02
125885,8.10E-03,1.54E-02
125886,8.10E-03,1.54E-02
125887,8.10E-03,1.55E-02
125888,8.10E-03,1.56E-02
125889,8.10E-03,1.56E-02
125890,8.10E-03,1.57E-02
125891,8.10E-03,1.58E-02
125892,8.10E-03,1.58E-02
125893,8.10E-03,1.59E-02
125894,8.10E-03,1.59E-02
125895,8.10E-03,1.60E-02
125896,8.10E-03,1.61E-02
125897,8.10E-03,1.61E-02
125898,8.10E-03,1.62E-02
125899,8.10E-03,1.62E-02
125900,8.10E-03,1.63E-02
125901,8.10E-03,1.64E-02
125902,8.10E-03,1.64E-02
125903,8.10E-03,1.65E-02
125904,8.10E-03,1.66E-02
125905,8.10E-03,1.66E-02
125906,8.10E-03,1.67E-02
125907,8.10E-03,1.67E-02
125908,8.10E-03,1.68E-02
125909,8.11E-03,1.68E-02
125910,8.11E-03,1.69E-02
125911,8.11E-03,1.70E-02
125912,8.11E-03,1.70E-02
125913,8.11E-03,1.71E-02
125914,8.11E-03,1.71E-02
125915,8.11E-03,1.72E-02
125916,8.12E-03,1.73E-02
125917,8.12E-03,1.73E-02
125918,8.12E-03,1.74E-02
125919,8.12E-03,1.74E-02
125920,8.12E-03,1.75E-02
125921,8.13E-03,1.75E-02
125922,8.13E-03,1.76E-02
125923,8.13E-03,1.76E-02
125924,8.14E-03,1.77E-02
125925,8.14E-03,1.77E-02
125926,8.15E-03,1.78E-02
125927,8.16E-03,1.78E-02
125928,8.16E-03,1.79E-02
125929,8.18E-03,1.79E-02
125930,8.19E-03,1.80E-02
125931,8.20E-03,1.80E-02
125932,8.22E-03,1.81E-02
125933,8.24E-03,1.81E-02
125934,8.26E-03,1.82E-02
125935,8.29E-03,1.82E-02
125936,8.33E-03,1.83E-02
125937,8.39E-03,1.83E-02
125938,8.47E-03,1.84E-02
125939,8.60E-03,1.84E-02
125940,8.81E-03,1.85E-02
125941,8.75E-03,1.86E-02
125942,7.98E-03,1.86E-02
125943,7.48E-03,1.87E-02
125944,7.62E-03,1.88E-02
125945,7.72E-03,1.88E-02
125946,7.79E-03,1.89E-02
125947,7.83E-03,1.89E-02
125948,7.87E-03,1.90E-02
125949,7.90E-03,1.90E-02
125950,7.92E-03,1.91E-02
125951,7.94E-03,1.91E-02
125952,7.95E-03,1.92E-02
125953,7.97E-03,1.92E-02
125954,7.98E-03,1.93E-02
125955,7.99E-03,1.93E-02
125956,7.99E-03,1.94E-02
125957,8.00E-03,1.94E-02
125958,8.01E-03,1.95E-02
125959,8.01E-03,1.96E-02
125960,8.02E-03,1.96E-02
125961,8.02E-03,1.97E-02
125962,8.02E-03,1.97E-02
125963,8.03E-03,1.98E-02
125964,8.03E-03,1.98E-02
125965,8.03E-03,1.99E-02
125966,8.04E-03,2.00E-02
125967,8.04E-03,2.00E-02
125968,8.04E-03,2.01E-02
125969,8.03E-03,2.02E-02
125970,8.04E-03,2.02E-02
125971,8.05E-03,2.03E-02
125972,8.05E-03,2.04E-02
125973,8.06E-03,2.04E-02
125974,8.06E-03,2.05E-02
125975,8.06E-03,2.06E-02
125976,8.06E-03,2.06E-02
125977,8.07E-03,2.07E-02
125978,8.07E-03,2.08E-02
125979,8.08E-03,2.08E-02
125980,8.11E-03,2.09E-02
125981,8.12E-03,2.10E-02
125982,8.12E-03,2.10E-02
125983,8.13E-03,2.11E-02
125984,8.13E-03,2.12E-02
125985,8.13E-03,2.12E-02
125986,8.14E-03,2.13E-02
125987,8.14E-03,2.14E-02
125988,8.14E-03,2.14E-02
125989,8.15E-03,2.15E-02
125990,8.16E-03,2.16E-02
125991,8.16E-03,2.16E-02
125992,8.17E-03,2.17E-02
125993,8.18E-03,2.17E-02
125994,8.19E-03,2.17E-02
125995,8.20E-03,2.18E-02
125996,8.22E-03,2.18E-02
125997,8.23E-03,2.18E-02
125998,8.26E-03,2.18E-02
125999,8.28E-03,2.18E-02
126000,8.32E-03,2.19E-02
126001,8.37E-03,2.19E-02
126002,8.56E-03,2.19E-02
126003,8.45E-03,2.19E-02
126004,8.39E-03,2.19E-02
126005,8.26E-03,2.19E-02
126006,8.07E-03,2.20E-02
126007,7.34E-03,2.23E-02
126008,6.01E-03,2.23E-02
126009,5.53E-03,2.24E-02
126010,5.70E-03,2.25E-02
126011,6.04E-03,2.25E-02
126012,6.14E-03,2.26E-02
126013,7.52E-03,2.26E-02
126014,7.44E-03,2.26E-02
126015,7.60E-03,2.26E-02
126016,7.88E-03,2.27E-02
126017,7.94E-03,2.27E-02
126018,8.42E-03,2.27E-02
126019,8.46E-03,2.27E-02
126020,8.50E-03,2.27E-02
126021,8.56E-03,2.27E-02
126022,8.69E-03,2.27E-02
126023,8.81E-03,2.28E-02
126024,8.74E-03,2.28E-02
126025,8.64E-03,2.28E-02
126026,8.30E-03,2.29E-02
126027,6.88E-03,2.30E-02
126028,6.16E-03,2.30E-02
126029,6.15E-03,2.30E-02
126030,7.04E-03,2.31E-02
126031,7.31E-03,2.31E-02
126032,7.48E-03,2.31E-02
126033,7.67E-03,2.32E-02
126034,7.75E-03,2.32E-02
126035,7.80E-03,2.33E-02
126036,7.84E-03,2.33E-02
126037,7.88E-03,2.33E-02
126038,7.90E-03,2.34E-02
126039,7.92E-03,2.34E-02
126040,7.94E-03,2.34E-02
126041,7.95E-03,2.35E-02
126042,7.96E-03,2.35E-02
126043,7.98E-03,2.36E-02
126044,7.98E-03,2.37E-02
126045,7.97E-03,2.37E-02
126046,7.97E-03,2.38E-02
126047,8.00E-03,2.38E-02
126048,8.03E-03,2.39E-02
126049,8.04E-03,2.40E-02
126050,8.05E-03,2.40E-02
126051,8.06E-03,2.41E-02
126052,8.06E-03,2.42E-02
126053,8.09E-03,2.43E-02
126054,8.11E-03,2.44E-02
126055,8.12E-03,2.44E-02
126056,8.12E-03,2.45E-02
126057,8.12E-03,2.46E-02
126058,8.13E-03,2.47E-02
126059,8.13E-03,2.48E-02
126060,8.13E-03,2.48E-02
126061,8.13E-03,2.49E-02
126062,8.14E-03,2.50E-02
126063,8.14E-03,2.51E-02
126064,8.14E-03,2.52E-02
126065,8.15E-03,2.53E-02
126066,8.15E-03,2.54E-02
126067,8.15E-03,2.54E-02
126068,8.16E-03,2.55E-02
126069,8.16E-03,2.56E-02
126070,8.17E-03,2.57E-02
126071,8.17E-03,2.58E-02
126072,8.18E-03,2.58E-02
126073,8.18E-03,2.59E-02
126074,8.19E-03,2.60E-02
126075,8.20E-03,2.61E-02
126076,8.21E-03,2.61E-02
126077,8.22E-03,2.62E-02
126078,8.23E-03,2.63E-02
126079,8.25E-03,2.63E-02
126080,8.26E-03,2.64E-02
126081,8.28E-03,2.64E-02
126082,8.30E-03,2.65E-02
126083,8.31E-03,2.65E-02
126084,8.32E-03,2.66E-02
126085,8.33E-03,2.66E-02
126086,8.33E-03,2.66E-02
126087,8.34E-03,2.66E-02
126088,8.37E-03,2.66E-02
126089,8.43E-03,2.66E-02
126090,8.49E-03,2.66E-02
126091,8.56E-03,2.66E-02
126092,8.66E-03,2.66E-02
126093,8.80E-03,2.65E-02
126094,9.01E-03,2.65E-02
126095,9.34E-03,2.65E-02
126096,9.62E-03,2.65E-02
126097,9.60E-03,2.65E-02
126098,9.40E-03,2.66E-02
126099,9.23E-03,2.66E-02
126100,9.09E-03,2.66E-02
126101,9.25E-03,2.67E-02
126102,9.50E-03,2.68E-02
126103,9.10E-03,2.69E-02
126104,8.52E-03,2.69E-02
126105,8.33E-03,2.70E-02
126106,8.17E-03,2.71E-02
126107,8.01E-03,2.72E-02
126108,7.90E-03,2.72E-02
126109,7.67E-03,2.73E-02
126110,6.78E-03,2.73E-02
126111,6.45E-03,2.74E-02
126112,6.98E-03,2.74E-02
126113,7.24E-03,2.74E-02
126114,7.23E-03,2.74E-02
126115,6.81E-03,2.74E-02
126116,6.21E-03,2.74E-02
126117,6.21E-03,2.74E-02
126118,6.78E-03,2.74E-02
126119,7.14E-03,2.74E-02
126120,7.37E-03,2.74E-02
126121,7.56E-03,2.74E-02
126122,7.68E-03,2.74E-02
126123,7.71E-03,2.74E-02
126124,7.71E-03,2.74E-02
126125,7.71E-03,2.74E-02
126126,7.71E-03,2.74E-02
126127,7.71E-03,2.74E-02
126128,7.82E-03,2.74E-02
126129,8.02E-03,2.74E-02
126130,8.10E-03,2.74E-02
126131,8.11E-03,2.75E-02
126132,8.11E-03,2.75E-02
126133,8.11E-03,2.75E-02
126134,8.14E-03,2.76E-02
126135,8.17E-03,2.76E-02
126136,8.20E-03,2.76E-02
126137,8.21E-03,2.77E-02
126138,8.21E-03,2.77E-02
126139,8.22E-03,2.78E-02
126140,8.23E-03,2.78E-02
126141,8.24E-03,2.79E-02
126142,8.25E-03,2.79E-02
126143,8.26E-03,2.80E-02
126144,8.27E-03,2.80E-02
126145,8.28E-03,2.80E-02
126146,8.30E-03,2.81E-02
126147,8.32E-03,2.81E-02
126148,8.34E-03,2.81E-02
126149,8.36E-03,2.82E-02
126150,8.39E-03,2.82E-02
126151,8.42E-03,2.82E-02
126152,8.46E-03,2.82E-02
126153,8.49E-03,2.82E-02
126154,8.52E-03,2.82E-02
126155,8.57E-03,2.82E-02
126156,8.62E-03,2.83E-02
126157,8.68E-03,2.83E-02
126158,8.76E-03,2.83E-02
126159,8.86E-03,2.83E-02
126160,8.97E-03,2.84E-02
126161,9.11E-03,2.84E-02
126162,9.14E-03,2.85E-02
126163,9.04E-03,2.86E-02
126164,9.01E-03,2.87E-02
126165,9.12E-03,2.88E-02
126166,9.48E-03,2.89E-02
126167,9.41E-03,2.91E-02
126168,7.57E-03,2.92E-02
126169,6.18E-03,2.93E-02
126170,6.48E-03,2.94E-02
126171,6.58E-03,2.95E-02
126172,6.59E-03,2.96E-02
126173,6.55E-03,2.97E-02
126174,6.44E-03,2.97E-02
126175,6.19E-03,2.98E-02
126176,6.13E-03,2.98E-02
126177,6.34E-03,2.98E-02
126178,6.59E-03,2.99E-02
126179,6.80E-03,2.99E-02
126180,7.20E-03,2.99E-02
126181,7.46E-03,2.99E-02
126182,7.60E-03,2.99E-02
126183,7.83E-03,3.00E-02
126184,7.87E-03,3.00E-02
126185,7.90E-03,3.01E-02
126186,7.92E-03,3.01E-02
126187,7.94E-03,3.02E-02
126188,7.96E-03,3.03E-02
126189,7.97E-03,3.03E-02
126190,7.98E-03,3.04E-02
126191,7.99E-03,3.05E-02
126192,8.00E-03,3.06E-02
126193,8.00E-03,3.08E-02
126194,8.01E-03,3.09E-02
126195,8.02E-03,3.10E-02
126196,8.02E-03,3.12E-02
126197,8.02E-03,3.13E-02
126198,8.03E-03,3.14E-02
126199,8.04E-03,3.16E-02
126200,8.04E-03,3.17E-02
126201,8.04E-03,3.19E-02
126202,8.04E-03,3.21E-02
126203,8.04E-03,3.22E-02
126204,8.05E-03,3.24E-02
126205,8.05E-03,3.26E-02
126206,8.05E-03,3.27E-02
126207,8.05E-03,3.29E-02
126208,8.05E-03,3.31E-02
126209,8.05E-03,3.33E-02
126210,8.05E-03,3.34E-02
126211,8.05E-03,3.36E-02
126212,8.05E-03,3.38E-02
126213,8.05E-03,3.40E-02
126214,8.05E-03,3.42E-02
126215,8.06E-03,3.44E-02
126216,8.06E-03,3.46E-02
126217,8.06E-03,3.48E-02
126218,8.06E-03,3.49E-02
126219,8.06E-03,3.51E-02
126220,8.06E-03,3.53E-02
126221,8.06E-03,3.55E-02
126222,8.06E-03,3.57E-02
126223,8.06E-03,3.60E-02
126224,8.06E-03,3.62E-02
126225,8.06E-03,3.64E-02
126226,8.06E-03,3.66E-02
126227,8.06E-03,3.68E-02
126228,8.06E-03,3.70E-02
126229,8.06E-03,3.72E-02
126230,8.06E-03,3.75E-02
126231,8.06E-03,3.77E-02
126232,8.06E-03,3.79E-02
126233,8.06E-03,3.81E-02
126234,7.93E-03,3.84E-02
126235,7.83E-03,3.86E-02
126236,7.79E-03,3.89E-02
126237,7.69E-03,3.91E-02
126238,7.49E-03,3.94E-02
126239,7.59E-03,6.64E-03
126240,8.23E-03,6.62E-03
126241,8.66E-03,6.60E-03
126242,8.86E-03,6.60E-03
126243,9.07E-03,6.60E-03
126244,9.23E-03,6.60E-03
126245,8.92E-03,6.60E-03
126246,8.70E-03,6.61E-03
126247,8.52E-03,6.60E-03
126248,8.43E-03,6.60E-03
126249,8.02E-03,6.59E-03
126250,7.41E-03,6.58E-03
126251,7.37E-03,6.57E-03
126252,7.59E-03,6.55E-03
126253,7.49E-03,6.54E-03
126254,7.26E-03,6.52E-03
126255,7.04E-03,6.50E-03
126256,6.69E-03,6.48E-03
126257,5.97E-03,6.46E-03
126258,6.67E-03,6.44E-03
126259,7.95E-03,6.42E-03
126260,8.04E-03,6.40E-03
126261,8.07E-03,6.37E-03
126262,8.08E-03,6.35E-03
126263,8.07E-03,6.33E-03
126264,7.93E-03,6.30E-03
126265,7.73E-03,6.28E-03
126266,7.62E-03,6.26E-03
126267,7.53E-03,6.24E-03
126268,7.41E-03,6.22E-03
126269,7.25E-03,6.20E-03
126270,7.68E-03,6.18E-03
126271,8.59E-03,6.17E-03
126272,9.28E-03,6.15E-03
126273,9.51E-03,6.13E-03
126274,9.26E-03,6.11E-03
126275,9.00E-03,6.09E-03
126276,8.76E-03,6.08E-03
126277,8.27E-03,6.06E-03
126278,7.88E-03,6.04E-03
126279,7.60E-03,6.02E-03
126280,7.08E-03,6.00E-03
126281,6.85E-03,5.99E-03
126282,6.75E-03,5.98E-03
126283,7.00E-03,5.96E-03
126284,8.05E-03,5.95E-03
126285,8.98E-03,5.94E-03
126286,9.47E-03,5.93E-03
126287,9.39E-03,5.91E-03
126288,8.98E-03,5.89E-03
126289,8.82E-03,5.87E-03
126290,7.35E-03,5.84E-03
126291,7.25E-03,5.82E-03
126292,7.08E-03,5.80E-03
126293,6.98E-03,5.78E-03
126294,6.90E-03,5.76E-03
126295,6.78E-03,5.74E-03
126296,6.87E-03,5.73E-03
126297,8.39E-03,5.75E-03
126298,1.15E-02,5.77E-03
126299,1.00E-02,5.72E-03
126300,9.69E-03,5.69E-03
126301,9.47E-03,5.67E-03
126302,8.62E-03,5.65E-03
126303,8.20E-03,5.62E-03
126304,7.62E-03,5.60E-03
126305,7.13E-03,5.58E-03
126306,6.46E-03,5.55E-03
126307,6.17E-03,5.53E-03
126308,5.62E-03,5.52E-03
126309,5.59E-03,5.50E-03
126310,5.54E-03,5.49E-03
126311,8.98E-03,5.48E-03
126312,8.95E-03,5.46E-03
126313,9.14E-03,5.44E-03
126314,8.03E-03,1.80E-03
126315,8.23E-03,1.78E-03
126316,8.93E-03,1.76E-03
126317,5.60E-03,1.65E-03
126318,5.35E-03,1.77E-03
126319,5.36E-03,1.80E-03
126320,5.96E-03,1.82E-03
126321,6.39E-03,1.86E-03
126322,7.42E-03,1.91E-03
126323,7.80E-03,2.12E-03
126324,9.10E-03,2.12E-03
126325,9.31E-03,2.15E-03
126326,9.48E-03,2.18E-03
126327,7.66E-03,2.20E-03
126328,7.57E-03,2.21E-03
126329,7.23E-03,2.22E-03
126330,6.64E-03,2.23E-03
126331,6.26E-03,2.25E-03
126332,6.39E-03,2.27E-03
126333,7.04E-03,2.32E-03
126334,8.45E-03,2.37E-03
126335,1.03E-02,2.46E-03
126336,7.00E-03,6.01E-03
126337,9.51E-03,6.14E-03
126338,8.29E-03,6.10E-03
126339,7.91E-03,6.12E-03
126340,7.02E-03,6.13E-03
126341,6.83E-03,6.17E-03
126342,7.24E-03,1.86E-02
126343,7.17E-03,3.02E-02
126344,7.85E-03,3.10E-02
126345,8.09E-03,3.19E-02
126346,8.38E-03,3.32E-02
126347,8.16E-03,2.32E-02
126348,7.58E-03,2.36E-02
126349,7.23E-03,2.41E-02
126350,6.53E-03,6.65E-03
126351,6.23E-03,6.70E-03
126352,6.18E-03,6.73E-03
126353,6.21E-03,7.06E-03
126354,6.17E-03,6.91E-03
126355,6.21E-03,6.80E-03
126356,9.66E-03,3.03E-03
126357,6.19E-03,1.90E-02
126358,8.81E-03,4.85E-03
126359,8.54E-03,1.70E-03
126360,7.81E-03,3.96E-02
126361,7.56E-03,4.12E-02
126362,7.25E-03,4.33E-02
126363,6.60E-03,4.54E-02
126364,7.02E-03,4.73E-02
126365,7.42E-03,4.93E-02
126366,9.25E-03,5.16E-02
126367,1.07E-02,5.51E-02
126368,9.04E-03,3.59E-02
126369,9.28E-03,1.91E-02
126370,1.18E-02,1.93E-02
126371,1.09E-02,1.95E-02
126372,1.11E-02,1.97E-02
126373,1.11E-02,1.99E-02
126374,1.12E-02,2.02E-02
126375,1.11E-02,2.04E-02
126376,1.10E-02,2.07E-02
126377,1.11E-02,2.09E-02
126378,1.11E-02,2.12E-02
126379,1.11E-02,2.14E-02
126380,1.12E-02,2.17E-02
126381,1.12E-02,2.19E-02
126382,1.11E-02,2.22E-02
126383,1.10E-02,2.24E-02
126384,1.10E-02,2.27E-02
126385,1.09E-02,2.29E-02
126386,1.07E-02,2.31E-02
126387,1.05E-02,2.33E-02
126388,1.05E-02,2.35E-02
126389,1.02E-02,2.37E-02
126390,9.70E-03,2.38E-02
126391,9.68E-03,2.40E-02
126392,9.30E-03,2.42E-02
126393,8.72E-03,2.43E-02
126394,9.75E-03,2.45E-02
126395,9.65E-03,2.46E-02
126396,8.06E-03,2.48E-02
126397,5.90E-03,2.50E-02
126398,6.07E-03,2.49E-02
126399,8.64E-03,6.18E-03
126400,4.79E-03,1.93E-02
126401,5.81E-03,1.92E-02
126402,6.20E-03,1.92E-02
126403,6.53E-03,1.91E-02
126404,6.84E-03,1.89E-02
126405,6.92E-03,1.88E-02
126406,7.40E-03,1.86E-02
126407,7.64E-03,1.84E-02
126408,7.83E-03,1.81E-02
126409,8.11E-03,1.79E-02
126410,8.20E-03,1.77E-02
126411,8.26E-03,1.75E-02
126412,8.27E-03,1.72E-02
126413,8.29E-03,1.70E-02
126414,8.30E-03,1.68E-02
126415,8.33E-03,1.67E-02
126416,8.50E-03,1.65E-02
126417,8.76E-03,1.63E-02
126418,8.94E-03,1.61E-02
126419,9.10E-03,1.60E-02
126420,9.33E-03,1.58E-02
126421,9.66E-03,1.57E-02
126422,1.00E-02,1.55E-02
126423,9.95E-03,1.54E-02
126424,9.36E-03,1.53E-02
126425,8.64E-03,1.52E-02
126426,8.27E-03,1.51E-02
126427,8.22E-03,1.50E-02
126428,7.91E-03,1.49E-02
126429,5.78E-03,1.48E-02
126430,5.81E-03,1.47E-02
126431,6.10E-03,1.46E-02
126432,6.33E-03,1.45E-02
126433,6.60E-03,1.44E-02
126434,7.27E-03,1.43E-02
126435,7.51E-03,1.41E-02
126436,7.61E-03,1.40E-02
126437,7.86E-03,1.39E-02
126438,7.91E-03,1.37E-02
126439,7.95E-03,1.36E-02
126440,7.97E-03,1.34E-02
126441,7.99E-03,1.33E-02
126442,8.00E-03,1.31E-02
126443,8.00E-03,1.30E-02
126444,8.00E-03,1.29E-02
126445,8.01E-03,1.28E-02
126446,8.21E-03,1.26E-02
126447,8.40E-03,1.25E-02
126448,8.35E-03,1.24E-02
126449,8.27E-03,1.22E-02
126450,8.24E-03,1.21E-02
126451,8.26E-03,1.20E-02
126452,8.31E-03,1.19E-02
126453,8.35E-03,1.17E-02
126454,8.39E-03,1.16E-02
126455,8.44E-03,1.15E-02
126456,8.51E-03,1.14E-02
126457,8.61E-03,1.13E-02
126458,8.80E-03,1.11E-02
126459,8.89E-03,1.10E-02
126460,9.00E-03,1.09E-02
126461,9.26E-03,1.08E-02
126462,9.36E-03,1.07E-02
126463,9.52E-03,1.05E-02
126464,9.65E-03,1.04E-02
126465,9.97E-03,1.03E-02
126466,9.57E-03,1.02E-02
126467,8.96E-03,1.01E-02
126468,8.69E-03,9.94E-03
126469,7.57E-03,9.82E-03
126470,5.94E-03,9.73E-03
126471,8.07E-03,2.07E-02
126472,8.33E-03,2.10E-02
126473,8.31E-03,2.14E-02
126474,9.27E-03,6.09E-03
126475,9.39E-03,6.08E-03
126476,9.28E-03,6.07E-03
126477,8.97E-03,6.03E-03
126478,8.16E-03,5.94E-03
126479,5.95E-03,5.85E-03
126480,8.06E-03,5.37E-03
126481,8.58E-03,5.36E-03
126482,8.77E-03,5.40E-03
126483,8.67E-03,5.44E-03
126484,8.59E-03,5.48E-03
126485,8.47E-03,5.51E-03
126486,8.26E-03,5.55E-03
126487,8.12E-03,5.58E-03
126488,8.11E-03,5.61E-03
126489,8.08E-03,5.65E-03
126490,8.07E-03,5.68E-03
126491,7.91E-03,5.71E-03
126492,7.85E-03,5.74E-03
126493,7.69E-03,5.76E-03
126494,7.58E-03,5.79E-03
126495,7.50E-03,5.81E-03
126496,7.83E-03,5.84E-03
126497,9.62E-03,5.82E-03
126498,6.77E-03,5.75E-03
126499,9.37E-03,5.40E-03
126500,9.35E-03,5.33E-03
126501,9.61E-03,5.30E-03
126502,9.52E-03,5.27E-03
126503,9.41E-03,5.24E-03
126504,9.06E-03,5.20E-03
126505,8.92E-03,5.17E-03
126506,8.64E-03,5.13E-03
126507,8.53E-03,5.09E-03
126508,8.47E-03,5.05E-03
126509,8.36E-03,5.01E-03
126510,8.14E-03,4.96E-03
126511,7.93E-03,4.92E-03
126512,7.86E-03,4.88E-03
126513,7.85E-03,4.83E-03
126514,7.82E-03,4.79E-03
126515,7.77E-03,4.75E-03
126516,7.72E-03,4.70E-03
126517,7.66E-03,4.66E-03
126518,7.57E-03,4.62E-03
126519,7.44E-03,4.57E-03
126520,7.26E-03,4.53E-03
126521,6.94E-03,4.50E-03
126522,6.53E-03,4.46E-03
126523,6.64E-03,4.43E-03
126524,7.12E-03,4.40E-03
126525,7.22E-03,4.37E-03
126526,7.10E-03,4.35E-03
126527,6.99E-03,4.32E-03
126528,6.95E-03,4.30E-03
126529,7.23E-03,4.28E-03
126530,8.97E-03,4.26E-03
126531,1.01E-02,4.24E-03
126532,9.80E-03,4.21E-03
126533,9.53E-03,4.18E-03
126534,9.26E-03,4.15E-03
126535,8.97E-03,4.12E-03
126536,8.83E-03,4.08E-03
126537,8.54E-03,4.05E-03
126538,8.04E-03,4.02E-03
126539,7.68E-03,3.98E-03
126540,7.55E-03,3.95E-03
126541,7.48E-03,3.93E-03
126542,7.39E-03,3.90E-03
126543,7.27E-03,3.87E-03
126544,7.12E-03,3.85E-03
126545,6.92E-03,3.83E-03
126546,6.96E-03,3.81E-03
126547,7.30E-03,3.79E-03
126548,7.46E-03,3.77E-03
126549,7.41E-03,3.76E-03
126550,7.37E-03,3.75E-03
126551,7.35E-03,3.73E-03
126552,7.90E-03,3.72E-03
126553,8.71E-03,3.71E-03
126554,8.93E-03,3.70E-03
126555,8.82E-03,3.69E-03
126556,8.73E-03,3.67E-03
126557,8.63E-03,3.65E-03
126558,8.46E-03,3.63E-03
126559,8.25E-03,3.61E-03
126560,8.10E-03,3.60E-03
126561,8.07E-03,3.58E-03
126562,8.10E-03,3.56E-03
126563,8.10E-03,3.54E-03
126564,8.16E-03,3.52E-03
126565,8.67E-03,3.51E-03
126566,9.07E-03,3.49E-03
126567,8.92E-03,3.46E-03
126568,8.73E-03,3.44E-03
126569,8.60E-03,3.41E-03
126570,8.61E-03,3.38E-03
126571,8.72E-03,3.35E-03
126572,8.92E-03,3.32E-03
126573,9.20E-03,3.29E-03
126574,9.26E-03,3.25E-03
126575,9.04E-03,3.21E-03
126576,8.82E-03,3.17E-03
126577,8.68E-03,3.12E-03
126578,8.58E-03,3.07E-03
126579,8.53E-03,3.03E-03
126580,8.53E-03,2.98E-03
126581,8.46E-03,2.93E-03
126582,8.35E-03,2.88E-03
126583,8.29E-03,2.83E-03
126584,8.25E-03,2.78E-03
126585,8.22E-03,2.72E-03
126586,8.20E-03,2.67E-03
126587,8.19E-03,2.62E-03
126588,8.17E-03,2.57E-03
126589,8.13E-03,2.52E-03
126590,8.02E-03,2.46E-03
126591,7.95E-03,2.41E-03
126592,7.94E-03,2.36E-03
126593,7.93E-03,2.31E-03
126594,7.92E-03,2.26E-03
126595,7.90E-03,2.22E-03
126596,7.89E-03,2.17E-03
126597,7.87E-03,2.12E-03
126598,7.84E-03,2.08E-03
126599,7.82E-03,2.03E-03
126600,7.79E-03,1.99E-03
126601,7.75E-03,1.95E-03
126602,7.71E-03,1.90E-03
126603,7.65E-03,1.86E-03
126604,7.58E-03,1.83E-03
126605,7.56E-03,1.79E-03
126606,7.64E-03,1.75E-03
126607,7.71E-03,1.72E-03
126608,7.71E-03,1.68E-03
126609,7.67E-03,1.65E-03
126610,7.62E-03,1.62E-03
126611,7.54E-03,1.59E-03
126612,7.41E-03,1.56E-03
126613,7.38E-03,1.53E-03
126614,7.48E-03,1.51E-03
126615,7.56E-03,1.48E-03
126616,7.65E-03,1.46E-03
126617,7.69E-03,1.44E-03
126618,7.47E-03,1.42E-03
126619,7.34E-03,1.40E-03
126620,7.28E-03,1.38E-03
126621,7.14E-03,1.36E-03
126622,7.00E-03,1.35E-03
126623,6.86E-03,1.34E-03
126624,6.79E-03,1.33E-03
126625,6.19E-03,1.33E-03
126626,6.04E-03,1.32E-03
126627,6.20E-03,1.33E-03
126628,6.37E-03,1.35E-03
126629,6.52E-03,1.38E-03
126630,6.70E-03,1.42E-03
126631,6.86E-03,1.45E-03
126632,9.44E-03,1.49E-03
126633,9.42E-03,1.53E-03
126634,9.45E-03,1.57E-03
126635,6.17E-03,1.59E-03
126636,6.69E-03,1.60E-03
126637,7.13E-03,1.58E-03
126638,7.20E-03,1.54E-03
126639,6.46E-03,2.25E-02
126640,6.98E-03,2.23E-02
126641,8.42E-03,2.93E-03
126642,8.16E-03,8.37E-03
126643,8.71E-03,8.50E-03
126644,6.56E-03,8.49E-03
126645,7.03E-03,1.38E-02
126646,8.05E-03,1.85E-02
126647,7.93E-03,1.80E-02
126648,7.62E-03,1.41E-02
126649,8.30E-03,1.27E-02
126650,5.44E-03,8.51E-03
126651,8.26E-03,4.33E-03
126652,8.13E-03,4.24E-03
126653,8.12E-03,4.12E-03
126654,8.50E-03,3.03E-03
126655,6.52E-03,2.78E-02
126656,6.29E-03,2.72E-02
126657,8.20E-03,1.22E-02
126658,7.48E-03,2.23E-02
126659,9.31E-03,1.27E-02
126660,9.96E-03,1.80E-02
126661,1.03E-02,1.79E-02
126662,1.02E-02,1.78E-02
126663,9.92E-03,1.76E-02
126664,9.50E-03,1.75E-02
126665,9.34E-03,1.74E-02
126666,9.11E-03,1.73E-02
126667,8.94E-03,1.72E-02
126668,8.78E-03,1.71E-02
126669,8.52E-03,1.70E-02
126670,8.45E-03,1.69E-02
126671,8.44E-03,1.68E-02
126672,8.45E-03,1.67E-02
126673,8.47E-03,1.67E-02
126674,8.50E-03,1.66E-02
126675,8.53E-03,1.65E-02
126676,8.56E-03,1.64E-02
126677,8.57E-03,1.63E-02
126678,8.57E-03,1.62E-02
126679,8.57E-03,1.61E-02
126680,8.58E-03,1.60E-02
126681,8.58E-03,1.59E-02
126682,8.59E-03,1.58E-02
126683,8.60E-03,1.57E-02
126684,8.61E-03,1.56E-02
126685,8.62E-03,1.55E-02
126686,8.63E-03,1.54E-02
126687,8.64E-03,1.53E-02
126688,8.64E-03,1.52E-02
126689,8.65E-03,1.51E-02
126690,8.66E-03,1.51E-02
126691,8.67E-03,1.50E-02
126692,8.68E-03,1.49E-02
126693,8.69E-03,1.48E-02
126694,8.70E-03,1.47E-02
126695,8.71E-03,1.46E-02
126696,8.72E-03,1.45E-02
126697,8.74E-03,1.44E-02
126698,8.74E-03,1.43E-02
126699,8.74E-03,1.42E-02
126700,8.73E-03,1.41E-02
126701,8.71E-03,1.40E-02
126702,8.68E-03,1.39E-02
126703,8.65E-03,1.38E-02
126704,8.61E-03,1.37E-02
126705,8.58E-03,1.36E-02
126706,8.55E-03,1.35E-02
126707,8.53E-03,1.34E-02
126708,8.51E-03,1.33E-02
126709,8.49E-03,1.32E-02
126710,8.48E-03,1.32E-02
126711,8.46E-03,1.31E-02
126712,8.44E-03,1.30E-02
126713,8.43E-03,1.29E-02
126714,8.42E-03,1.29E-02
126715,8.41E-03,1.28E-02
126716,8.40E-03,1.27E-02
126717,8.38E-03,1.26E-02
126718,8.31E-03,1.26E-02
126719,8.20E-03,1.25E-02
126720,8.17E-03,1.25E-02
126721,8.12E-03,1.25E-02
126722,8.27E-03,1.25E-02
126723,8.63E-03,1.25E-02
126724,8.78E-03,1.26E-02
126725,7.89E-03,1.26E-02
126726,8.18E-03,1.85E-02
126727,9.88E-03,1.83E-02
126728,1.15E-02,1.82E-02
126729,7.97E-03,4.03E-02
126730,5.57E-03,6.55E-03
126731,7.21E-03,6.54E-03
126732,7.62E-03,6.54E-03
126733,7.51E-03,6.58E-03
126734,7.62E-03,1.51E-03
126735,5.80E-03,2.53E-03
126736,5.32E-03,2.38E-03
126737,6.46E-03,5.60E-03
126738,3.99E-03,5.79E-03
126739,7.16E-03,5.80E-03
126740,7.19E-03,1.88E-02
126741,7.65E-03,1.86E-02
126742,7.15E-03,2.86E-02
126743,8.71E-03,3.49E-02
126744,1.01E-02,3.35E-02
126745,8.22E-03,2.19E-02
126746,6.89E-03,2.45E-02
126747,7.40E-03,2.38E-02
126748,7.47E-03,6.64E-03
126749,7.25E-03,6.62E-03
126750,6.95E-03,6.62E-03
126751,7.12E-03,6.63E-03
126752,7.67E-03,6.63E-03
126753,9.20E-03,6.64E-03
126754,9.45E-03,6.64E-03
126755,8.66E-03,6.61E-03
126756,8.01E-03,6.59E-03
126757,7.47E-03,6.59E-03
126758,6.99E-03,6.56E-03
126759,7.01E-03,6.55E-03
126760,7.48E-03,6.55E-03
126761,7.70E-03,6.56E-03
126762,8.02E-03,6.57E-03
126763,7.80E-03,6.57E-03
126764,7.87E-03,6.57E-03
126765,8.68E-03,6.52E-03
126766,8.59E-03,6.51E-03
126767,7.48E-03,6.56E-03
126768,7.25E-03,6.59E-03
126769,7.32E-03,6.62E-03
126770,7.40E-03,6.66E-03
126771,7.53E-03,6.69E-03
126772,7.61E-03,6.72E-03
126773,7.85E-03,6.76E-03
126774,7.89E-03,6.80E-03
126775,7.92E-03,6.83E-03
126776,7.95E-03,6.87E-03
126777,7.97E-03,6.91E-03
126778,7.99E-03,6.96E-03
126779,7.99E-03,7.00E-03
126780,8.00E-03,7.05E-03
126781,8.00E-03,7.10E-03
126782,8.01E-03,7.15E-03
126783,8.01E-03,7.20E-03
126784,8.02E-03,7.25E-03
126785,8.02E-03,7.30E-03
126786,8.02E-03,7.36E-03
126787,8.03E-03,7.41E-03
126788,8.03E-03,7.47E-03
126789,8.03E-03,7.52E-03
126790,8.04E-03,7.58E-03
126791,8.04E-03,7.64E-03
126792,8.04E-03,7.70E-03
126793,8.04E-03,7.76E-03
126794,8.04E-03,7.82E-03
126795,8.05E-03,7.88E-03
126796,8.05E-03,7.94E-03
126797,8.05E-03,8.01E-03
126798,8.04E-03,8.07E-03
126799,8.02E-03,8.14E-03
126800,8.01E-03,8.21E-03
126801,8.00E-03,8.28E-03
126802,7.99E-03,8.35E-03
126803,7.98E-03,8.43E-03
126804,7.96E-03,8.51E-03
126805,7.95E-03,8.59E-03
126806,7.93E-03,8.68E-03
126807,7.90E-03,8.77E-03
126808,7.87E-03,8.86E-03
126809,7.77E-03,8.96E-03
126810,7.64E-03,9.06E-03
126811,7.65E-03,9.17E-03
126812,7.54E-03,9.28E-03
126813,7.58E-03,9.39E-03
126814,7.46E-03,9.49E-03
126815,6.91E-03,9.56E-03
126816,5.78E-03,9.60E-03
126817,7.36E-03,6.11E-03
126818,6.37E-03,6.78E-03
126819,8.78E-03,2.81E-03
126820,7.87E-03,2.61E-03
126821,8.35E-03,1.95E-02
126822,7.85E-03,1.98E-02
126823,8.02E-03,1.98E-02
126824,9.17E-03,1.98E-02
126825,9.61E-03,1.99E-02
126826,9.60E-03,2.00E-02
126827,9.49E-03,2.01E-02
126828,9.31E-03,2.02E-02
126829,9.05E-03,2.04E-02
126830,8.93E-03,2.05E-02
126831,8.69E-03,2.07E-02
126832,8.65E-03,2.08E-02
126833,8.61E-03,2.09E-02
126834,8.58E-03,2.11E-02
126835,8.54E-03,2.12E-02
126836,8.50E-03,2.14E-02
126837,8.48E-03,2.15E-02
126838,8.46E-03,2.16E-02
126839,8.71E-03,2.17E-02
126840,9.13E-03,2.19E-02
126841,9.18E-03,2.20E-02
126842,8.99E-03,2.21E-02
126843,8.83E-03,2.23E-02
126844,8.71E-03,2.24E-02
126845,8.62E-03,2.25E-02
126846,8.55E-03,2.26E-02
126847,8.50E-03,2.28E-02
126848,8.45E-03,2.29E-02
126849,8.35E-03,2.30E-02
126850,8.13E-03,2.31E-02
126851,7.92E-03,2.33E-02
126852,7.83E-03,2.34E-02
126853,7.79E-03,2.35E-02
126854,7.52E-03,2.36E-02
126855,7.38E-03,2.37E-02
126856,7.39E-03,2.37E-02
126857,7.16E-03,2.38E-02
126858,6.92E-03,2.39E-02
126859,6.88E-03,2.39E-02
126860,6.97E-03,2.40E-02
126861,7.41E-03,2.41E-02
126862,7.73E-03,2.41E-02
126863,7.96E-03,2.42E-02
126864,8.35E-03,2.42E-02
126865,8.35E-03,2.43E-02
126866,8.16E-03,2.44E-02
126867,7.73E-03,2.44E-02
126868,7.72E-03,2.45E-02
126869,7.56E-03,2.45E-02
126870,7.44E-03,2.46E-02
126871,6.70E-03,2.46E-02
126872,6.37E-03,2.47E-02
126873,6.42E-03,2.47E-02
126874,7.53E-03,2.47E-02
126875,8.87E-03,2.48E-02
126876,9.16E-03,2.48E-02
126877,9.59E-03,2.49E-02
126878,9.12E-03,2.50E-02
126879,8.04E-03,2.51E-02
126880,8.11E-03,2.52E-02
126881,6.42E-03,2.50E-02
126882,1.00E-02,3.64E-02
126883,6.94E-03,4.00E-02
126884,7.01E-03,4.02E-02
126885,7.06E-03,4.02E-02
126886,7.16E-03,4.03E-02
126887,7.91E-03,4.04E-02
126888,7.97E-03,4.06E-02
126889,7.94E-03,4.08E-02
126890,7.94E-03,4.10E-02
126891,7.94E-03,4.13E-02
126892,7.94E-03,4.15E-02
126893,7.94E-03,4.18E-02
126894,7.94E-03,4.22E-02
126895,7.94E-03,4.25E-02
126896,7.94E-03,4.29E-02
126897,7.94E-03,4.34E-02
126898,7.94E-03,4.39E-02
126899,7.94E-03,4.45E-02
126900,7.94E-03,4.51E-02
126901,8.01E-03,4.58E-02
126902,8.04E-03,4.65E-02
126903,8.06E-03,4.73E-02
126904,8.06E-03,4.82E-02
126905,8.02E-03,4.91E-02
126906,8.00E-03,5.00E-02
126907,7.94E-03,5.11E-02
126908,7.88E-03,5.23E-02
126909,7.54E-03,5.35E-02
126910,7.37E-03,5.42E-02
126911,7.60E-03,5.50E-02
126912,8.46E-03,5.59E-02
126913,4.43E-03,2.27E-02
126914,7.89E-03,7.64E-03
126915,7.41E-03,6.79E-03
126916,7.03E-03,6.65E-03
126917,6.39E-03,6.48E-03
126918,8.73E-03,1.28E-02
126919,8.34E-03,1.24E-02
126920,5.78E-03,6.54E-03
126921,5.69E-03,6.48E-03
126922,1.04E-02,1.26E-02
126923,9.38E-03,1.25E-02
126924,5.87E-03,2.30E-03
126925,8.03E-03,1.75E-02
126926,8.63E-03,1.70E-02
126927,8.10E-03,1.65E-02
126928,7.89E-03,1.60E-02
126929,7.75E-03,1.55E-02
126930,7.76E-03,1.50E-02
126931,7.73E-03,1.45E-02
126932,8.22E-03,1.23E-02
126933,8.27E-03,1.19E-02
126934,8.34E-03,1.15E-02
126935,8.38E-03,1.11E-02
126936,8.32E-03,1.07E-02
126937,8.10E-03,1.03E-02
126938,8.10E-03,9.97E-03
126939,7.92E-03,9.62E-03
126940,7.88E-03,9.28E-03
126941,7.78E-03,8.95E-03
126942,7.55E-03,8.70E-03
126943,8.46E-03,4.72E-03
126944,8.39E-03,4.64E-03
126945,8.35E-03,4.56E-03
126946,8.26E-03,4.49E-03
126947,8.21E-03,4.41E-03
126948,8.13E-03,4.00E-03
126949,8.13E-03,3.88E-03
126950,8.07E-03,3.77E-03
126951,8.00E-03,3.66E-03
126952,7.98E-03,3.58E-03
126953,8.01E-03,3.50E-03
126954,8.01E-03,3.42E-03
126955,8.14E-03,3.35E-03
126956,8.26E-03,3.27E-03
126957,8.37E-03,3.19E-03
126958,8.47E-03,3.11E-03
126959,6.92E-03,2.55E-02
126960,5.64E-03,2.63E-02
126961,5.48E-03,2.67E-02
126962,8.24E-03,1.20E-02
126963,9.47E-03,1.18E-02
126964,9.51E-03,1.15E-02
126965,9.64E-03,1.11E-02
126966,9.62E-03,1.07E-02
126967,9.20E-03,1.02E-02
126968,8.92E-03,9.74E-03
126969,8.55E-03,9.27E-03
126970,8.11E-03,8.82E-03
126971,8.03E-03,8.38E-03
126972,8.03E-03,7.97E-03
126973,8.03E-03,7.57E-03
126974,8.03E-03,7.20E-03
126975,8.02E-03,6.85E-03
126976,8.02E-03,6.54E-03
126977,8.01E-03,6.26E-03
126978,8.01E-03,6.01E-03
126979,8.01E-03,5.80E-03
126980,8.00E-03,5.61E-03
126981,8.00E-03,5.46E-03
126982,8.00E-03,5.34E-03
126983,7.99E-03,5.25E-03
126984,7.98E-03,5.18E-03
126985,7.98E-03,5.14E-03
126986,7.98E-03,5.11E-03
126987,7.98E-03,5.11E-03
126988,7.97E-03,5.13E-03
126989,7.97E-03,5.16E-03
126990,7.96E-03,5.20E-03
126991,7.97E-03,5.26E-03
126992,8.13E-03,5.33E-03
126993,8.49E-03,5.40E-03
126994,8.76E-03,5.49E-03
126995,8.78E-03,5.58E-03
126996,8.66E-03,5.68E-03
126997,8.53E-03,5.78E-03
126998,8.46E-03,5.89E-03
126999,8.41E-03,5.99E-03
127000,8.37E-03,6.10E-03
127001,8.34E-03,6.21E-03
127002,8.30E-03,6.33E-03
127003,8.25E-03,6.44E-03
127004,8.23E-03,6.56E-03
127005,8.27E-03,6.68E-03
127006,8.35E-03,6.80E-03
127007,8.34E-03,6.93E-03
127008,8.12E-03,7.06E-03
127009,7.96E-03,7.18E-03
127010,7.96E-03,7.30E-03
127011,7.96E-03,7.43E-03
127012,7.94E-03,7.56E-03
127013,7.91E-03,7.69E-03
127014,7.88E-03,7.82E-03
127015,7.85E-03,7.95E-03
127016,7.82E-03,8.09E-03
127017,7.78E-03,8.22E-03
127018,7.74E-03,8.35E-03
127019,7.68E-03,8.48E-03
127020,7.60E-03,8.61E-03
127021,7.49E-03,8.74E-03
127022,7.24E-03,8.86E-03
127023,6.92E-03,8.98E-03
127024,7.42E-03,9.10E-03
127025,8.27E-03,9.22E-03
127026,8.70E-03,9.36E-03
127027,8.82E-03,9.50E-03
127028,8.69E-03,9.63E-03
127029,8.58E-03,9.77E-03
127030,8.51E-03,9.89E-03
127031,8.45E-03,1.00E-02
127032,8.41E-03,1.01E-02
127033,8.37E-03,1.03E-02
127034,8.34E-03,1.04E-02
127035,8.31E-03,1.05E-02
127036,8.29E-03,1.06E-02
127037,8.28E-03,1.07E-02
127038,8.64E-03,1.09E-02
127039,9.14E-03,1.10E-02
127040,9.07E-03,1.11E-02
127041,8.76E-03,1.12E-02
127042,8.59E-03,1.13E-02
127043,8.47E-03,1.14E-02
127044,8.40E-03,1.16E-02
127045,8.34E-03,1.17E-02
127046,8.30E-03,1.18E-02
127047,8.27E-03,1.19E-02
127048,8.25E-03,1.20E-02
127049,8.23E-03,1.21E-02
127050,8.21E-03,1.22E-02
127051,8.20E-03,1.23E-02
127052,8.19E-03,1.24E-02
127053,8.18E-03,1.25E-02
127054,8.17E-03,1.26E-02
127055,8.16E-03,1.27E-02
127056,8.16E-03,1.28E-02
127057,8.15E-03,1.28E-02
127058,8.15E-03,1.29E-02
127059,8.14E-03,1.30E-02
127060,8.14E-03,1.31E-02
127061,8.14E-03,1.32E-02
127062,8.13E-03,1.33E-02
127063,8.13E-03,1.33E-02
127064,8.13E-03,1.34E-02
127065,8.12E-03,1.35E-02
127066,8.12E-03,1.36E-02
127067,8.12E-03,1.37E-02
127068,8.12E-03,1.37E-02
127069,8.12E-03,1.38E-02
127070,8.12E-03,1.39E-02
127071,8.12E-03,1.39E-02
127072,8.11E-03,1.40E-02
127073,8.11E-03,1.41E-02
127074,8.11E-03,1.42E-02
127075,8.11E-03,1.42E-02
127076,8.11E-03,1.43E-02
127077,8.11E-03,1.44E-02
127078,8.10E-03,1.44E-02
127079,8.10E-03,1.45E-02
127080,8.10E-03,1.46E-02
127081,8.10E-03,1.47E-02
127082,8.10E-03,1.47E-02
127083,8.10E-03,1.48E-02
127084,8.10E-03,1.49E-02
127085,8.10E-03,1.49E-02
127086,8.10E-03,1.50E-02
127087,8.10E-03,1.51E-02
127088,8.10E-03,1.51E-02
127089,8.10E-03,1.52E-02
127090,8.10E-03,1.53E-02
127091,8.10E-03,1.53E-02
127092,8.10E-03,1.54E-02
127093,8.10E-03,1.54E-02
127094,8.10E-03,1.55E-02
127095,8.10E-03,1.56E-02
127096,8.10E-03,1.56E-02
127097,8.10E-03,1.57E-02
127098,8.10E-03,1.58E-02
127099,8.10E-03,1.58E-02
127100,8.10E-03,1.59E-02
127101,8.10E-03,1.60E-02
127102,8.10E-03,1.60E-02
127103,8.10E-03,1.61E-02
127104,8.10E-03,1.61E-02
127105,8.10E-03,1.62E-02
127106,8.10E-03,1.63E-02
127107,8.09E-03,1.63E-02
127108,8.09E-03,1.64E-02
127109,8.09E-03,1.65E-02
127110,8.09E-03,1.65E-02
127111,8.09E-03,1.66E-02
127112,8.10E-03,1.66E-02
127113,8.10E-03,1.67E-02
127114,8.10E-03,1.68E-02
127115,8.10E-03,1.68E-02
127116,8.10E-03,1.69E-02
127117,8.10E-03,1.70E-02
127118,8.10E-03,1.70E-02
127119,8.11E-03,1.71E-02
127120,8.11E-03,1.71E-02
127121,8.11E-03,1.72E-02
127122,8.11E-03,1.73E-02
127123,8.11E-03,1.73E-02
127124,8.11E-03,1.74E-02
127125,8.11E-03,1.74E-02
127126,8.12E-03,1.75E-02
127127,8.12E-03,1.75E-02
127128,8.12E-03,1.76E-02
127129,8.12E-03,1.77E-02
127130,8.13E-03,1.77E-02
127131,8.13E-03,1.78E-02
127132,8.13E-03,1.78E-02
127133,8.14E-03,1.79E-02
127134,8.14E-03,1.79E-02
127135,8.15E-03,1.80E-02
127136,8.16E-03,1.80E-02
127137,8.17E-03,1.81E-02
127138,8.18E-03,1.81E-02
127139,8.19E-03,1.82E-02
127140,8.21E-03,1.82E-02
127141,8.22E-03,1.83E-02
127142,8.25E-03,1.83E-02
127143,8.28E-03,1.84E-02
127144,8.31E-03,1.84E-02
127145,8.36E-03,1.85E-02
127146,8.44E-03,1.85E-02
127147,8.56E-03,1.86E-02
127148,8.75E-03,1.86E-02
127149,8.69E-03,1.87E-02
127150,7.99E-03,1.88E-02
127151,7.54E-03,1.88E-02
127152,7.66E-03,1.89E-02
127153,7.75E-03,1.89E-02
127154,7.81E-03,1.90E-02
127155,7.86E-03,1.91E-02
127156,7.89E-03,1.91E-02
127157,7.91E-03,1.92E-02
127158,7.93E-03,1.92E-02
127159,7.95E-03,1.93E-02
127160,7.96E-03,1.93E-02
127161,7.98E-03,1.94E-02
127162,7.99E-03,1.94E-02
127163,7.99E-03,1.95E-02
127164,8.00E-03,1.95E-02
127165,8.01E-03,1.96E-02
127166,8.01E-03,1.96E-02
127167,8.02E-03,1.97E-02
127168,8.02E-03,1.97E-02
127169,8.03E-03,1.98E-02
127170,8.03E-03,1.99E-02
127171,8.03E-03,1.99E-02
127172,8.04E-03,2.00E-02
127173,8.04E-03,2.00E-02
127174,8.04E-03,2.01E-02
127175,8.04E-03,2.02E-02
127176,8.04E-03,2.02E-02
127177,8.04E-03,2.03E-02
127178,8.04E-03,2.04E-02
127179,8.05E-03,2.04E-02
127180,8.05E-03,2.05E-02
127181,8.06E-03,2.06E-02
127182,8.06E-03,2.07E-02
127183,8.06E-03,2.07E-02
127184,8.07E-03,2.08E-02
127185,8.07E-03,2.09E-02
127186,8.07E-03,2.09E-02
127187,8.08E-03,2.10E-02
127188,8.11E-03,2.11E-02
127189,8.12E-03,2.12E-02
127190,8.12E-03,2.12E-02
127191,8.12E-03,2.13E-02
127192,8.13E-03,2.14E-02
127193,8.13E-03,2.15E-02
127194,8.13E-03,2.15E-02
127195,8.14E-03,2.16E-02
127196,8.14E-03,2.17E-02
127197,8.14E-03,2.17E-02
127198,8.15E-03,2.18E-02
127199,8.15E-03,2.19E-02
127200,8.16E-03,2.19E-02
127201,8.17E-03,2.20E-02
127202,8.18E-03,2.20E-02
127203,8.19E-03,2.21E-02
127204,8.20E-03,2.21E-02
127205,8.22E-03,2.21E-02
127206,8.24E-03,2.21E-02
127207,8.27E-03,2.21E-02
127208,8.30E-03,2.21E-02
127209,8.35E-03,2.21E-02
127210,8.47E-03,2.21E-02
127211,8.41E-03,2.22E-02
127212,8.34E-03,2.22E-02
127213,8.13E-03,2.22E-02
127214,7.85E-03,2.22E-02
127215,9.77E-03,1.28E-02
127216,8.57E-03,1.30E-02
127217,9.23E-03,1.31E-02
127218,9.95E-03,1.32E-02
127219,8.01E-03,1.36E-02
127220,6.14E-03,1.38E-02
127221,9.10E-03,1.42E-02
127222,5.78E-03,1.48E-02
127223,6.52E-03,1.40E-02
127224,5.78E-03,1.34E-02
127225,8.14E-03,1.31E-02
127226,9.02E-03,1.25E-02
127227,8.64E-03,1.25E-02
127228,8.57E-03,1.24E-02
127229,8.47E-03,1.24E-02
127230,8.24E-03,1.24E-02
127231,8.24E-03,1.24E-02
127232,8.27E-03,1.25E-02
127233,8.35E-03,1.26E-02
127234,8.36E-03,1.26E-02
127235,8.37E-03,1.27E-02
127236,8.38E-03,1.28E-02
127237,8.39E-03,1.29E-02
127238,8.40E-03,1.29E-02
127239,8.41E-03,1.30E-02
127240,8.43E-03,1.31E-02
127241,8.44E-03,1.32E-02
127242,8.46E-03,1.33E-02
127243,8.47E-03,1.34E-02
127244,8.49E-03,1.35E-02
127245,8.51E-03,1.35E-02
127246,8.54E-03,1.36E-02
127247,8.57E-03,1.37E-02
127248,8.60E-03,1.38E-02
127249,8.63E-03,1.39E-02
127250,8.66E-03,1.40E-02
127251,8.67E-03,1.41E-02
127252,8.68E-03,1.42E-02
127253,8.68E-03,1.43E-02
127254,8.68E-03,1.44E-02
127255,8.67E-03,1.45E-02
127256,8.66E-03,1.46E-02
127257,8.65E-03,1.47E-02
127258,8.64E-03,1.48E-02
127259,8.63E-03,1.49E-02
127260,8.62E-03,1.50E-02
127261,8.61E-03,1.51E-02
127262,8.60E-03,1.52E-02
127263,8.60E-03,1.53E-02
127264,8.59E-03,1.54E-02
127265,8.58E-03,1.55E-02
127266,8.57E-03,1.56E-02
127267,8.57E-03,1.57E-02
127268,8.56E-03,1.58E-02
127269,8.55E-03,1.59E-02
127270,8.54E-03,1.59E-02
127271,8.54E-03,1.60E-02
127272,8.53E-03,1.61E-02
127273,8.53E-03,1.62E-02
127274,8.53E-03,1.63E-02
127275,8.52E-03,1.64E-02
127276,8.49E-03,1.65E-02
127277,8.47E-03,1.66E-02
127278,8.44E-03,1.67E-02
127279,8.42E-03,1.68E-02
127280,8.41E-03,1.69E-02
127281,8.42E-03,1.70E-02
127282,8.48E-03,1.71E-02
127283,8.62E-03,1.72E-02
127284,8.87E-03,1.73E-02
127285,8.96E-03,1.74E-02
127286,9.33E-03,1.75E-02
127287,9.44E-03,1.76E-02
127288,9.84E-03,1.77E-02
127289,1.01E-02,1.78E-02
127290,1.02E-02,1.79E-02
127291,1.04E-02,1.80E-02
127292,6.72E-03,2.25E-02
127293,5.50E-03,2.26E-02
127294,5.68E-03,2.27E-02
127295,5.83E-03,2.27E-02
127296,5.95E-03,2.28E-02
127297,6.13E-03,2.28E-02
127298,7.58E-03,2.29E-02
127299,7.51E-03,2.29E-02
127300,7.68E-03,2.29E-02
127301,7.82E-03,2.29E-02
127302,7.95E-03,2.29E-02
127303,8.35E-03,2.28E-02
127304,8.42E-03,2.28E-02
127305,8.47E-03,2.28E-02
127306,8.52E-03,2.28E-02
127307,8.59E-03,2.29E-02
127308,8.70E-03,2.29E-02
127309,8.81E-03,2.29E-02
127310,8.84E-03,2.30E-02
127311,8.56E-03,2.30E-02
127312,6.58E-03,2.31E-02
127313,5.97E-03,2.31E-02
127314,6.36E-03,2.32E-02
127315,7.17E-03,2.32E-02
127316,7.44E-03,2.32E-02
127317,7.60E-03,2.33E-02
127318,7.70E-03,2.33E-02
127319,7.77E-03,2.33E-02
127320,7.83E-03,2.34E-02
127321,7.86E-03,2.34E-02
127322,7.89E-03,2.34E-02
127323,7.92E-03,2.35E-02
127324,7.94E-03,2.35E-02
127325,7.95E-03,2.36E-02
127326,7.96E-03,2.36E-02
127327,7.97E-03,2.37E-02
127328,7.98E-03,2.37E-02
127329,7.99E-03,2.38E-02
127330,7.98E-03,2.39E-02
127331,7.98E-03,2.39E-02
127332,8.01E-03,2.40E-02
127333,8.04E-03,2.41E-02
127334,8.05E-03,2.42E-02
127335,8.06E-03,2.42E-02
127336,8.06E-03,2.43E-02
127337,8.07E-03,2.44E-02
127338,8.09E-03,2.45E-02
127339,8.11E-03,2.46E-02
127340,8.12E-03,2.47E-02
127341,8.12E-03,2.47E-02
127342,8.12E-03,2.48E-02
127343,8.12E-03,2.49E-02
127344,8.12E-03,2.50E-02
127345,8.13E-03,2.51E-02
127346,8.13E-03,2.52E-02
127347,8.13E-03,2.53E-02
127348,8.13E-03,2.54E-02
127349,8.14E-03,2.55E-02
127350,8.14E-03,2.56E-02
127351,8.14E-03,2.57E-02
127352,8.15E-03,2.57E-02
127353,8.15E-03,2.58E-02
127354,8.15E-03,2.59E-02
127355,8.16E-03,2.60E-02
127356,8.16E-03,2.61E-02
127357,8.17E-03,2.62E-02
127358,8.18E-03,2.63E-02
127359,8.18E-03,2.64E-02
127360,8.19E-03,2.64E-02
127361,8.20E-03,2.65E-02
127362,8.21E-03,2.66E-02
127363,8.22E-03,2.67E-02
127364,8.23E-03,2.67E-02
127365,8.25E-03,2.68E-02
127366,8.27E-03,2.69E-02
127367,8.28E-03,2.69E-02
127368,8.29E-03,2.70E-02
127369,8.30E-03,2.70E-02
127370,8.31E-03,2.70E-02
127371,8.31E-03,2.71E-02
127372,8.32E-03,2.71E-02
127373,8.35E-03,2.71E-02
127374,8.40E-03,2.71E-02
127375,8.45E-03,2.71E-02
127376,8.52E-03,2.71E-02
127377,8.61E-03,2.70E-02
127378,8.74E-03,2.70E-02
127379,8.93E-03,2.70E-02
127380,9.23E-03,2.70E-02
127381,9.49E-03,2.70E-02
127382,9.46E-03,2.70E-02
127383,9.28E-03,2.70E-02
127384,9.13E-03,2.70E-02
127385,9.01E-03,2.70E-02
127386,9.15E-03,2.71E-02
127387,9.38E-03,2.71E-02
127388,9.01E-03,2.72E-02
127389,8.48E-03,2.73E-02
127390,8.31E-03,2.73E-02
127391,8.16E-03,2.74E-02
127392,8.01E-03,2.74E-02
127393,7.92E-03,2.75E-02
127394,7.71E-03,2.75E-02
127395,6.89E-03,2.76E-02
127396,6.59E-03,2.76E-02
127397,7.07E-03,2.76E-02
127398,7.31E-03,2.76E-02
127399,7.30E-03,2.76E-02
127400,6.92E-03,2.76E-02
127401,6.37E-03,2.76E-02
127402,6.38E-03,2.76E-02
127403,6.89E-03,2.76E-02
127404,7.22E-03,2.76E-02
127405,7.43E-03,2.75E-02
127406,7.61E-03,2.75E-02
127407,7.72E-03,2.75E-02
127408,7.74E-03,2.75E-02
127409,7.74E-03,2.75E-02
127410,7.74E-03,2.75E-02
127411,7.74E-03,2.75E-02
127412,7.74E-03,2.75E-02
127413,7.84E-03,2.76E-02
127414,8.02E-03,2.76E-02
127415,8.10E-03,2.76E-02
127416,8.10E-03,2.77E-02
127417,8.10E-03,2.77E-02
127418,8.11E-03,2.78E-02
127419,8.14E-03,2.78E-02
127420,8.17E-03,2.79E-02
127421,8.19E-03,2.79E-02
127422,8.20E-03,2.80E-02
127423,8.20E-03,2.80E-02
127424,8.21E-03,2.81E-02
127425,8.21E-03,2.82E-02
127426,8.22E-03,2.82E-02
127427,8.23E-03,2.83E-02
127428,8.24E-03,2.83E-02
127429,8.25E-03,2.84E-02
127430,8.27E-03,2.84E-02
127431,8.28E-03,2.85E-02
127432,8.30E-03,2.85E-02
127433,8.32E-03,2.85E-02
127434,8.34E-03,2.86E-02
127435,8.37E-03,2.86E-02
127436,8.39E-03,2.86E-02
127437,8.43E-03,2.86E-02
127438,8.45E-03,2.86E-02
127439,8.48E-03,2.86E-02
127440,8.53E-03,2.87E-02
127441,8.57E-03,2.87E-02
127442,8.63E-03,2.87E-02
127443,8.70E-03,2.87E-02
127444,8.79E-03,2.87E-02
127445,8.90E-03,2.87E-02
127446,9.02E-03,2.88E-02
127447,9.05E-03,2.88E-02
127448,8.96E-03,2.89E-02
127449,8.93E-03,2.90E-02
127450,9.03E-03,2.91E-02
127451,9.36E-03,2.92E-02
127452,9.29E-03,2.93E-02
127453,7.61E-03,2.94E-02
127454,6.34E-03,2.95E-02
127455,6.60E-03,2.96E-02
127456,6.85E-03,2.97E-02
127457,6.78E-03,2.98E-02
127458,6.66E-03,2.98E-02
127459,6.58E-03,2.99E-02
127460,6.35E-03,2.99E-02
127461,6.26E-03,2.99E-02
127462,6.32E-03,3.00E-02
127463,6.66E-03,3.00E-02
127464,6.88E-03,3.00E-02
127465,7.31E-03,3.00E-02
127466,7.53E-03,3.00E-02
127467,7.73E-03,3.01E-02
127468,7.85E-03,3.01E-02
127469,7.89E-03,3.01E-02
127470,7.91E-03,3.02E-02
127471,7.94E-03,3.03E-02
127472,7.95E-03,3.03E-02
127473,7.97E-03,3.04E-02
127474,7.98E-03,3.05E-02
127475,7.99E-03,3.06E-02
127476,8.00E-03,3.07E-02
127477,8.01E-03,3.09E-02
127478,8.01E-03,3.10E-02
127479,8.02E-03,3.11E-02
127480,8.02E-03,3.13E-02
127481,8.03E-03,3.14E-02
127482,8.03E-03,3.16E-02
127483,8.03E-03,3.17E-02
127484,8.04E-03,3.19E-02
127485,8.04E-03,3.21E-02
127486,8.04E-03,3.22E-02
127487,8.05E-03,3.24E-02
127488,8.05E-03,3.26E-02
127489,8.05E-03,3.28E-02
127490,8.05E-03,3.29E-02
127491,8.05E-03,3.31E-02
127492,8.05E-03,3.33E-02
127493,8.05E-03,3.35E-02
127494,8.05E-03,3.37E-02
127495,8.05E-03,3.39E-02
127496,8.05E-03,3.41E-02
127497,8.06E-03,3.42E-02
127498,8.06E-03,3.44E-02
127499,8.06E-03,3.46E-02
127500,8.06E-03,3.48E-02
127501,8.06E-03,3.50E-02
127502,8.06E-03,3.52E-02
127503,8.06E-03,3.54E-02
127504,8.06E-03,3.56E-02
127505,8.06E-03,3.58E-02
127506,8.06E-03,3.61E-02
127507,8.06E-03,3.63E-02
127508,8.06E-03,3.65E-02
127509,8.06E-03,3.67E-02
127510,8.06E-03,3.69E-02
127511,8.06E-03,3.71E-02
127512,8.06E-03,3.73E-02
127513,8.06E-03,3.76E-02
127514,8.06E-03,3.78E-02
127515,8.07E-03,3.80E-02
127516,8.07E-03,3.82E-02
127517,8.07E-03,3.85E-02
127518,8.07E-03,3.87E-02
127519,8.00E-03,3.90E-02
127520,7.94E-03,3.92E-02
127521,7.84E-03,3.95E-02
127522,7.86E-03,3.97E-02
127523,7.79E-03,4.00E-02
127524,6.00E-03,6.37E-03
127525,7.08E-03,6.41E-03
127526,7.88E-03,6.40E-03
127527,7.99E-03,6.40E-03
127528,7.85E-03,6.40E-03
127529,7.81E-03,6.39E-03
127530,6.95E-03,6.40E-03
127531,7.11E-03,6.41E-03
127532,7.69E-03,6.43E-03
127533,9.33E-03,6.43E-03
127534,8.88E-03,6.48E-03
127535,8.74E-03,6.50E-03
127536,8.77E-03,6.51E-03
127537,7.93E-03,6.52E-03
127538,7.24E-03,6.52E-03
127539,6.46E-03,6.50E-03
127540,6.07E-03,6.53E-03
127541,6.85E-03,6.53E-03
127542,7.66E-03,6.54E-03
127543,7.87E-03,6.55E-03
127544,8.86E-03,6.53E-03
127545,9.02E-03,6.51E-03
127546,9.06E-03,6.51E-03
127547,9.11E-03,6.51E-03
127548,9.13E-03,6.52E-03
127549,8.86E-03,6.52E-03
127550,8.71E-03,6.52E-03
127551,8.43E-03,6.52E-03
127552,8.35E-03,6.52E-03
127553,8.03E-03,6.51E-03
127554,7.47E-03,6.49E-03
127555,7.43E-03,6.48E-03
127556,7.64E-03,6.46E-03
127557,7.54E-03,6.44E-03
127558,7.33E-03,6.42E-03
127559,7.13E-03,6.39E-03
127560,6.81E-03,6.37E-03
127561,6.16E-03,6.35E-03
127562,6.80E-03,6.33E-03
127563,7.96E-03,6.30E-03
127564,8.05E-03,6.28E-03
127565,8.07E-03,6.25E-03
127566,8.08E-03,6.23E-03
127567,8.08E-03,6.20E-03
127568,7.94E-03,6.18E-03
127569,7.76E-03,6.15E-03
127570,7.66E-03,6.13E-03
127571,7.58E-03,6.11E-03
127572,7.47E-03,6.09E-03
127573,7.32E-03,6.07E-03
127574,7.71E-03,6.06E-03
127575,8.55E-03,6.04E-03
127576,9.18E-03,6.02E-03
127577,9.39E-03,6.00E-03
127578,9.16E-03,5.99E-03
127579,8.92E-03,5.97E-03
127580,8.70E-03,5.95E-03
127581,8.25E-03,5.93E-03
127582,7.90E-03,5.91E-03
127583,7.64E-03,5.89E-03
127584,7.17E-03,5.87E-03
127585,6.96E-03,5.86E-03
127586,6.87E-03,5.85E-03
127587,7.09E-03,5.83E-03
127588,8.05E-03,5.82E-03
127589,8.90E-03,5.81E-03
127590,9.35E-03,5.79E-03
127591,9.28E-03,5.77E-03
127592,8.89E-03,5.75E-03
127593,8.59E-03,5.73E-03
127594,7.56E-03,5.71E-03
127595,7.48E-03,5.69E-03
127596,7.16E-03,5.67E-03
127597,7.12E-03,5.65E-03
127598,7.01E-03,5.63E-03
127599,7.10E-03,5.61E-03
127600,7.65E-03,5.61E-03
127601,8.17E-03,5.60E-03
127602,9.43E-03,5.59E-03
127603,1.01E-02,5.58E-03
127604,9.72E-03,5.55E-03
127605,9.32E-03,5.53E-03
127606,8.86E-03,5.51E-03
127607,8.28E-03,5.48E-03
127608,7.53E-03,5.46E-03
127609,7.08E-03,5.44E-03
127610,6.71E-03,5.41E-03
127611,6.09E-03,5.39E-03
127612,5.88E-03,5.37E-03
127613,5.79E-03,5.36E-03
127614,6.10E-03,5.35E-03
127615,8.83E-03,5.34E-03
127616,9.16E-03,5.32E-03
127617,9.43E-03,5.29E-03
127618,1.08E-02,5.27E-03
127619,1.08E-02,5.25E-03
127620,9.75E-03,5.19E-03
127621,9.66E-03,5.15E-03
127622,9.47E-03,5.12E-03
127623,9.26E-03,5.08E-03
127624,8.99E-03,5.04E-03
127625,8.84E-03,5.01E-03
127626,8.61E-03,4.97E-03
127627,8.49E-03,4.93E-03
127628,8.43E-03,4.88E-03
127629,8.34E-03,4.84E-03
127630,8.13E-03,4.79E-03
127631,7.94E-03,4.75E-03
127632,7.88E-03,4.70E-03
127633,7.87E-03,4.65E-03
127634,7.84E-03,4.61E-03
127635,7.80E-03,4.56E-03
127636,7.76E-03,4.51E-03
127637,7.69E-03,4.47E-03
127638,7.61E-03,4.42E-03
127639,7.50E-03,4.38E-03
127640,7.33E-03,4.34E-03
127641,7.04E-03,4.30E-03
127642,6.67E-03,4.26E-03
127643,6.76E-03,4.23E-03
127644,7.20E-03,4.20E-03
127645,7.30E-03,4.17E-03
127646,7.18E-03,4.14E-03
127647,7.04E-03,4.12E-03
127648,6.84E-03,4.09E-03
127649,7.19E-03,4.07E-03
127650,9.05E-03,4.06E-03
127651,1.02E-02,4.03E-03
127652,9.77E-03,4.00E-03
127653,9.33E-03,3.97E-03
127654,9.06E-03,3.94E-03
127655,8.89E-03,3.91E-03
127656,8.77E-03,3.87E-03
127657,8.50E-03,3.84E-03
127658,8.04E-03,3.80E-03
127659,7.71E-03,3.77E-03
127660,7.60E-03,3.74E-03
127661,7.53E-03,3.71E-03
127662,7.45E-03,3.68E-03
127663,7.34E-03,3.66E-03
127664,7.20E-03,3.63E-03
127665,7.03E-03,3.61E-03
127666,7.06E-03,3.59E-03
127667,7.37E-03,3.57E-03
127668,7.52E-03,3.55E-03
127669,7.47E-03,3.54E-03
127670,7.44E-03,3.52E-03
127671,7.42E-03,3.51E-03
127672,7.92E-03,3.50E-03
127673,8.66E-03,3.49E-03
127674,8.85E-03,3.47E-03
127675,8.75E-03,3.46E-03
127676,8.67E-03,3.44E-03
127677,8.58E-03,3.42E-03
127678,8.43E-03,3.40E-03
127679,8.24E-03,3.38E-03
127680,8.10E-03,3.36E-03
127681,8.07E-03,3.34E-03
127682,8.10E-03,3.32E-03
127683,8.10E-03,3.30E-03
127684,8.16E-03,3.29E-03
127685,8.62E-03,3.27E-03
127686,8.99E-03,3.25E-03
127687,8.85E-03,3.22E-03
127688,8.67E-03,3.20E-03
127689,8.56E-03,3.17E-03
127690,8.56E-03,3.14E-03
127691,8.67E-03,3.11E-03
127692,8.85E-03,3.08E-03
127693,9.10E-03,3.04E-03
127694,9.16E-03,3.00E-03
127695,8.96E-03,2.96E-03
127696,8.76E-03,2.92E-03
127697,8.63E-03,2.87E-03
127698,8.54E-03,2.82E-03
127699,8.49E-03,2.77E-03
127700,8.49E-03,2.72E-03
127701,8.43E-03,2.67E-03
127702,8.33E-03,2.62E-03
127703,8.27E-03,2.57E-03
127704,8.24E-03,2.52E-03
127705,8.21E-03,2.46E-03
127706,8.19E-03,2.41E-03
127707,8.18E-03,2.36E-03
127708,8.17E-03,2.31E-03
127709,8.12E-03,2.25E-03
127710,8.03E-03,2.20E-03
127711,7.96E-03,2.15E-03
127712,7.95E-03,2.10E-03
127713,7.94E-03,2.05E-03
127714,7.93E-03,2.00E-03
127715,7.92E-03,1.95E-03
127716,7.90E-03,1.91E-03
127717,7.89E-03,1.86E-03
127718,7.87E-03,1.81E-03
127719,7.84E-03,1.77E-03
127720,7.82E-03,1.72E-03
127721,7.78E-03,1.68E-03
127722,7.74E-03,1.64E-03
127723,7.69E-03,1.60E-03
127724,7.62E-03,1.56E-03
127725,7.61E-03,1.53E-03
127726,7.68E-03,1.49E-03
127727,7.74E-03,1.45E-03
127728,7.75E-03,1.42E-03
127729,7.71E-03,1.39E-03
127730,7.66E-03,1.36E-03
127731,7.59E-03,1.33E-03
127732,7.47E-03,1.30E-03
127733,7.44E-03,1.27E-03
127734,7.53E-03,1.25E-03
127735,7.61E-03,1.22E-03
127736,7.69E-03,1.20E-03
127737,7.67E-03,1.18E-03
127738,7.56E-03,1.16E-03
127739,7.48E-03,1.14E-03
127740,7.39E-03,1.12E-03
127741,7.19E-03,1.10E-03
127742,7.12E-03,1.09E-03
127743,7.06E-03,1.07E-03
127744,6.80E-03,1.06E-03
127745,6.46E-03,1.05E-03
127746,6.26E-03,1.05E-03
127747,6.32E-03,1.06E-03
127748,6.47E-03,1.07E-03
127749,6.63E-03,1.10E-03
127750,6.78E-03,1.14E-03
127751,6.76E-03,1.17E-03
127752,9.39E-03,1.21E-03
127753,9.28E-03,1.25E-03
127754,9.39E-03,1.28E-03
127755,6.33E-03,1.31E-03
127756,6.54E-03,1.33E-03
127757,6.96E-03,1.28E-03
127758,6.64E-03,1.34E-03
127759,8.02E-03,1.51E-03
127760,8.27E-03,1.51E-03
127761,8.93E-03,1.48E-03
127762,6.28E-03,1.48E-03
127763,5.03E-03,1.44E-03
127764,5.42E-03,1.45E-03
127765,5.44E-03,1.48E-03
127766,6.16E-03,1.51E-03
127767,6.82E-03,1.56E-03
127768,7.82E-03,1.61E-03
127769,9.21E-03,1.78E-03
127770,9.40E-03,1.80E-03
127771,9.48E-03,1.84E-03
127772,9.54E-03,1.87E-03
127773,7.71E-03,1.89E-03
127774,7.58E-03,1.90E-03
127775,7.25E-03,1.91E-03
127776,6.76E-03,1.92E-03
127777,6.32E-03,1.95E-03
127778,6.05E-03,1.97E-03
127779,7.88E-03,2.01E-03
127780,8.89E-03,2.07E-03
127781,9.77E-03,2.14E-03
127782,6.86E-03,2.13E-03
127783,4.55E-03,2.16E-03
127784,5.69E-03,2.22E-03
127785,8.46E-03,5.60E-03
127786,8.95E-03,5.63E-03
127787,9.06E-03,5.61E-03
127788,8.28E-03,5.57E-03
127789,8.03E-03,5.53E-03
127790,6.35E-03,5.45E-03
127791,4.71E-03,5.46E-03
127792,4.20E-03,5.55E-03
127793,6.30E-03,5.62E-03
127794,7.15E-03,5.61E-03
127795,7.79E-03,5.62E-03
127796,7.58E-03,5.63E-03
127797,7.16E-03,5.64E-03
127798,7.22E-03,5.69E-03
127799,7.51E-03,1.87E-02
127800,7.16E-03,2.93E-02
127801,7.65E-03,3.00E-02
127802,8.44E-03,3.10E-02
127803,9.93E-03,3.23E-02
127804,8.09E-03,2.24E-02
127805,8.01E-03,2.28E-02
127806,7.70E-03,2.34E-02
127807,1.05E-02,3.27E-02
127808,9.33E-03,1.95E-02
127809,7.24E-03,1.94E-02
127810,6.47E-03,1.94E-02
127811,6.58E-03,1.93E-02
127812,6.41E-03,1.92E-02
127813,6.78E-03,1.90E-02
127814,6.77E-03,1.88E-02
127815,7.64E-03,1.86E-02
127816,7.72E-03,1.84E-02
127817,7.85E-03,1.82E-02
127818,8.01E-03,1.79E-02
127819,8.24E-03,1.77E-02
127820,8.25E-03,1.75E-02
127821,8.26E-03,1.73E-02
127822,8.27E-03,1.70E-02
127823,8.28E-03,1.68E-02
127824,8.31E-03,1.67E-02
127825,8.47E-03,1.65E-02
127826,8.70E-03,1.63E-02
127827,8.87E-03,1.61E-02
127828,9.01E-03,1.60E-02
127829,9.22E-03,1.58E-02
127830,9.53E-03,1.57E-02
127831,9.87E-03,1.55E-02
127832,9.79E-03,1.54E-02
127833,9.09E-03,1.53E-02
127834,8.71E-03,1.52E-02
127835,8.27E-03,1.51E-02
127836,8.22E-03,1.50E-02
127837,7.99E-03,1.49E-02
127838,5.76E-03,1.48E-02
127839,5.97E-03,1.47E-02
127840,6.44E-03,1.46E-02
127841,6.55E-03,1.45E-02
127842,6.71E-03,1.44E-02
127843,7.26E-03,1.42E-02
127844,7.59E-03,1.41E-02
127845,7.70E-03,1.40E-02
127846,7.88E-03,1.38E-02
127847,7.93E-03,1.37E-02
127848,7.96E-03,1.35E-02
127849,7.98E-03,1.34E-02
127850,8.00E-03,1.32E-02
127851,8.01E-03,1.31E-02
127852,8.01E-03,1.30E-02
127853,8.01E-03,1.28E-02
127854,8.02E-03,1.27E-02
127855,8.20E-03,1.26E-02
127856,8.37E-03,1.25E-02
127857,8.32E-03,1.23E-02
127858,8.25E-03,1.22E-02
127859,8.22E-03,1.21E-02
127860,8.25E-03,1.20E-02
127861,8.29E-03,1.18E-02
127862,8.33E-03,1.17E-02
127863,8.36E-03,1.16E-02
127864,8.41E-03,1.15E-02
127865,8.48E-03,1.13E-02
127866,8.57E-03,1.12E-02
127867,8.69E-03,1.11E-02
127868,8.87E-03,1.10E-02
127869,8.89E-03,1.08E-02
127870,9.10E-03,1.07E-02
127871,9.25E-03,1.06E-02
127872,9.46E-03,1.05E-02
127873,9.55E-03,1.03E-02
127874,9.88E-03,1.02E-02
127875,9.80E-03,1.01E-02
127876,8.13E-03,9.97E-03
127877,7.62E-03,9.87E-03
127878,7.16E-03,9.78E-03
127879,6.09E-03,9.69E-03
127880,7.08E-03,6.14E-03
127881,6.18E-03,6.18E-03
127882,6.30E-03,6.23E-03
127883,6.42E-03,6.57E-03
127884,7.02E-03,6.37E-03
127885,6.93E-03,6.29E-03
127886,9.42E-03,2.69E-03
127887,9.29E-03,1.89E-02
127888,8.17E-03,1.99E-02
127889,9.98E-03,1.92E-02
127890,1.04E-02,1.93E-02
127891,1.12E-02,1.95E-02
127892,1.10E-02,1.97E-02
127893,1.09E-02,1.99E-02
127894,1.09E-02,2.02E-02
127895,1.10E-02,2.04E-02
127896,1.09E-02,2.06E-02
127897,1.10E-02,2.09E-02
127898,1.10E-02,2.11E-02
127899,1.09E-02,2.14E-02
127900,1.08E-02,2.16E-02
127901,1.08E-02,2.19E-02
127902,1.08E-02,2.21E-02
127903,1.09E-02,2.23E-02
127904,1.08E-02,2.26E-02
127905,1.06E-02,2.28E-02
127906,1.06E-02,2.30E-02
127907,1.04E-02,2.32E-02
127908,1.02E-02,2.34E-02
127909,1.00E-02,2.35E-02
127910,9.82E-03,2.37E-02
127911,9.39E-03,2.39E-02
127912,9.19E-03,2.40E-02
127913,9.21E-03,2.42E-02
127914,9.01E-03,2.43E-02
127915,8.82E-03,2.44E-02
127916,8.21E-03,2.46E-02
127917,7.77E-03,2.47E-02
127918,8.36E-03,2.52E-02
127919,8.54E-03,2.49E-02
127920,8.69E-03,2.53E-02
127921,8.83E-03,2.51E-02
127922,7.36E-03,2.55E-02
127923,7.41E-03,2.52E-02
127924,6.18E-03,2.56E-02
127925,6.66E-03,2.54E-02
127926,9.26E-03,5.67E-03
127927,8.73E-03,3.81E-02
127928,8.27E-03,3.99E-02
127929,7.90E-03,4.19E-02
127930,7.08E-03,4.39E-02
127931,7.32E-03,4.59E-02
127932,7.72E-03,4.81E-02
127933,8.50E-03,5.05E-02
127934,8.79E-03,5.32E-02
127935,7.84E-03,5.54E-02
127936,6.73E-03,6.12E-02
127937,6.34E-03,5.79E-02
127938,1.02E-02,1.98E-02
127939,9.11E-03,2.02E-02
127940,8.70E-03,2.06E-02
127941,8.10E-03,1.85E-02
127942,6.23E-03,1.86E-02
127943,9.44E-03,4.94E-03
127944,9.09E-03,4.96E-03
127945,9.01E-03,5.01E-03
127946,8.75E-03,5.05E-03
127947,8.68E-03,5.09E-03
127948,8.40E-03,5.13E-03
127949,8.23E-03,5.16E-03
127950,8.12E-03,5.19E-03
127951,8.11E-03,5.22E-03
127952,8.08E-03,5.25E-03
127953,8.08E-03,5.28E-03
127954,7.97E-03,5.31E-03
127955,7.80E-03,5.33E-03
127956,7.63E-03,5.36E-03
127957,7.55E-03,5.39E-03
127958,7.52E-03,5.42E-03
127959,7.52E-03,5.44E-03
127960,7.76E-03,5.39E-03
127961,7.04E-03,5.39E-03
127962,5.21E-03,9.41E-03
127963,6.20E-03,9.36E-03
127964,6.97E-03,9.31E-03
127965,7.34E-03,9.22E-03
127966,7.46E-03,9.12E-03
127967,7.61E-03,9.01E-03
127968,7.62E-03,8.91E-03
127969,7.77E-03,8.81E-03
127970,7.89E-03,8.71E-03
127971,7.92E-03,8.62E-03
127972,7.94E-03,8.53E-03
127973,7.96E-03,8.44E-03
127974,7.98E-03,8.36E-03
127975,7.99E-03,8.29E-03
127976,8.00E-03,8.21E-03
127977,8.01E-03,8.14E-03
127978,8.02E-03,8.07E-03
127979,8.03E-03,8.00E-03
127980,8.04E-03,7.94E-03
127981,8.05E-03,7.88E-03
127982,8.05E-03,7.81E-03
127983,8.05E-03,7.75E-03
127984,8.05E-03,7.69E-03
127985,8.05E-03,7.63E-03
127986,8.05E-03,7.57E-03
127987,8.04E-03,7.51E-03
127988,8.04E-03,7.45E-03
127989,8.04E-03,7.39E-03
127990,8.04E-03,7.34E-03
127991,8.03E-03,7.28E-03
127992,8.03E-03,7.22E-03
127993,8.03E-03,7.17E-03
127994,8.02E-03,7.11E-03
127995,8.02E-03,7.06E-03
127996,8.02E-03,7.00E-03
127997,8.01E-03,6.95E-03
127998,8.01E-03,6.90E-03
127999,8.00E-03,6.85E-03
128000,8.00E-03,6.80E-03
128001,7.98E-03,6.76E-03
128002,7.96E-03,6.71E-03
128003,7.93E-03,6.67E-03
128004,7.91E-03,6.63E-03
128005,7.88E-03,6.59E-03
128006,7.68E-03,6.56E-03
128007,7.67E-03,6.52E-03
128008,7.45E-03,6.49E-03
128009,7.30E-03,6.46E-03
128010,7.29E-03,6.43E-03
128011,7.36E-03,6.39E-03
128012,7.71E-03,6.33E-03
128013,5.26E-03,6.30E-03
128014,6.59E-03,2.26E-02
128015,8.05E-03,7.81E-03
128016,7.27E-03,7.85E-03
128017,6.82E-03,7.99E-03
128018,8.39E-03,1.80E-02
128019,8.08E-03,1.74E-02
128020,8.44E-03,1.33E-02
128021,8.07E-03,1.20E-02
128022,7.68E-03,7.95E-03
128023,7.25E-03,6.85E-03
128024,7.46E-03,7.03E-03
128025,6.39E-03,6.30E-03
128026,7.89E-03,3.89E-03
128027,7.93E-03,3.98E-03
128028,7.96E-03,3.77E-03
128029,6.07E-03,1.54E-02
128030,5.92E-03,1.52E-02
128031,8.83E-03,1.30E-02
128032,6.44E-03,2.70E-02
128033,6.55E-03,2.60E-02
128034,8.23E-03,1.22E-02
128035,7.35E-03,2.26E-02
128036,8.78E-03,1.84E-02
128037,1.06E-02,1.83E-02
128038,5.52E-03,6.22E-03
128039,7.38E-03,6.45E-03
128040,8.03E-03,5.26E-03
128041,8.03E-03,5.41E-03
128042,6.92E-03,6.67E-03
128043,6.24E-03,6.93E-03
128044,7.41E-03,1.87E-02
128045,6.55E-03,1.87E-02
128046,6.64E-03,2.76E-02
128047,8.33E-03,2.11E-02
128048,6.85E-03,2.38E-02
128049,7.83E-03,2.32E-02
128050,7.09E-03,4.08E-02
128051,7.07E-03,4.08E-02
128052,7.23E-03,4.09E-02
128053,7.82E-03,4.11E-02
128054,7.85E-03,4.13E-02
128055,7.94E-03,4.15E-02
128056,7.94E-03,4.17E-02
128057,7.94E-03,4.19E-02
128058,7.94E-03,4.22E-02
128059,7.94E-03,4.25E-02
128060,7.94E-03,4.28E-02
128061,7.94E-03,4.32E-02
128062,7.94E-03,4.37E-02
128063,7.94E-03,4.41E-02
128064,7.94E-03,4.47E-02
128065,7.94E-03,4.53E-02
128066,7.94E-03,4.59E-02
128067,7.94E-03,4.66E-02
128068,7.94E-03,4.74E-02
128069,7.94E-03,4.83E-02
128070,7.94E-03,4.92E-02
128071,7.94E-03,5.02E-02
128072,7.94E-03,5.13E-02
128073,7.94E-03,5.25E-02
128074,7.86E-03,5.37E-02
128075,7.77E-03,5.49E-02
128076,7.94E-03,5.60E-02
128077,8.11E-03,5.72E-02
128078,8.79E-03,5.83E-02
128079,7.30E-03,6.43E-02
128080,7.72E-03,1.57E-02
128081,4.72E-03,2.29E-02
128082,8.03E-03,5.65E-03
128083,6.90E-03,6.28E-03
128084,7.05E-03,6.25E-03
128085,6.14E-03,6.05E-03
128086,6.07E-03,5.96E-03
128087,8.89E-03,1.30E-02
128088,8.18E-03,1.23E-02
128089,7.69E-03,6.50E-03
128090,9.16E-03,6.43E-03
128091,8.13E-03,2.70E-03
128092,7.97E-03,2.62E-03
128093,7.81E-03,2.51E-03
128094,7.39E-03,2.27E-03
128095,6.17E-03,2.05E-03
128096,8.13E-03,1.99E-02
128097,9.37E-03,2.00E-02
128098,9.54E-03,2.01E-02
128099,9.52E-03,2.02E-02
128100,9.48E-03,2.03E-02
128101,9.14E-03,2.04E-02
128102,8.95E-03,2.06E-02
128103,8.75E-03,2.07E-02
128104,8.64E-03,2.09E-02
128105,8.60E-03,2.11E-02
128106,8.56E-03,2.12E-02
128107,8.53E-03,2.14E-02
128108,8.51E-03,2.15E-02
128109,8.47E-03,2.17E-02
128110,8.44E-03,2.18E-02
128111,8.43E-03,2.19E-02
128112,8.66E-03,2.20E-02
128113,9.04E-03,2.22E-02
128114,9.08E-03,2.23E-02
128115,8.91E-03,2.24E-02
128116,8.76E-03,2.25E-02
128117,8.66E-03,2.27E-02
128118,8.58E-03,2.28E-02
128119,8.51E-03,2.29E-02
128120,8.46E-03,2.30E-02
128121,8.42E-03,2.31E-02
128122,8.33E-03,2.33E-02
128123,8.13E-03,2.34E-02
128124,7.98E-03,2.35E-02
128125,7.87E-03,2.36E-02
128126,7.81E-03,2.37E-02
128127,7.60E-03,2.38E-02
128128,7.45E-03,2.39E-02
128129,7.38E-03,2.39E-02
128130,7.23E-03,2.40E-02
128131,6.98E-03,2.41E-02
128132,6.93E-03,2.41E-02
128133,6.97E-03,2.42E-02
128134,7.58E-03,2.42E-02
128135,7.84E-03,2.43E-02
128136,8.04E-03,2.43E-02
128137,8.37E-03,2.44E-02
128138,8.33E-03,2.44E-02
128139,8.05E-03,2.45E-02
128140,7.83E-03,2.46E-02
128141,7.71E-03,2.46E-02
128142,7.61E-03,2.47E-02
128143,7.51E-03,2.47E-02
128144,6.77E-03,2.48E-02
128145,6.61E-03,2.48E-02
128146,6.76E-03,2.49E-02
128147,7.72E-03,2.49E-02
128148,8.50E-03,2.49E-02
128149,8.78E-03,2.50E-02
128150,9.16E-03,2.51E-02
128151,8.96E-03,2.51E-02
128152,8.69E-03,2.52E-02
128153,8.71E-03,2.53E-02
128154,7.39E-03,2.55E-02
128155,7.64E-03,2.56E-02
128156,7.25E-03,2.57E-02
128157,6.63E-03,2.58E-02
128158,6.29E-03,2.59E-02
128159,6.69E-03,2.59E-02
128160,7.01E-03,2.59E-02
128161,7.94E-03,1.30E-02
128162,6.74E-03,1.28E-02
128163,6.02E-03,1.96E-02
128164,7.42E-03,1.20E-03
128165,5.31E-03,1.06E-03
128166,6.35E-03,9.54E-04
128167,9.63E-03,3.20E-02
128168,8.11E-03,1.69E-02
128169,8.08E-03,1.63E-02
128170,8.10E-03,1.59E-02
128171,7.90E-03,1.54E-02
128172,7.74E-03,1.49E-02
128173,7.71E-03,1.44E-02
128174,7.79E-03,1.40E-02
128175,8.36E-03,1.35E-02
128176,8.17E-03,1.16E-02
128177,8.16E-03,1.12E-02
128178,8.25E-03,1.08E-02
128179,8.36E-03,1.05E-02
128180,8.30E-03,1.01E-02
128181,8.10E-03,9.72E-03
128182,8.10E-03,9.37E-03
128183,8.01E-03,9.02E-03
128184,8.02E-03,8.67E-03
128185,8.02E-03,8.31E-03
128186,9.05E-03,7.93E-03
128187,5.34E-03,7.37E-03
128188,6.36E-03,7.42E-03
128189,7.13E-03,7.25E-03
128190,7.51E-03,7.16E-03
128191,6.66E-03,5.89E-03
128192,6.33E-03,6.12E-03
128193,7.11E-03,4.97E-03
128194,7.06E-03,5.03E-03
128195,7.29E-03,5.02E-03
128196,7.41E-03,5.01E-03
128197,7.61E-03,4.98E-03
128198,7.61E-03,4.96E-03
128199,7.79E-03,4.94E-03
128200,7.98E-03,4.91E-03
128201,8.08E-03,4.89E-03
128202,8.08E-03,4.86E-03
128203,8.11E-03,4.83E-03
128204,8.12E-03,4.81E-03
128205,8.20E-03,4.78E-03
128206,8.41E-03,4.75E-03
128207,8.64E-03,4.71E-03
128208,8.82E-03,4.67E-03
128209,9.08E-03,4.63E-03
128210,9.29E-03,4.59E-03
128211,1.05E-02,4.54E-03
128212,1.03E-02,4.50E-03
128213,8.86E-03,4.39E-03
128214,8.52E-03,4.30E-03
128215,8.39E-03,4.22E-03
128216,8.17E-03,4.14E-03
128217,8.04E-03,4.06E-03
128218,8.18E-03,3.63E-03
128219,8.32E-03,3.52E-03
128220,8.38E-03,3.43E-03
128221,8.29E-03,3.32E-03
128222,8.07E-03,3.23E-03
128223,8.01E-03,3.15E-03
128224,8.04E-03,3.08E-03
128225,8.16E-03,3.01E-03
128226,8.25E-03,2.93E-03
128227,8.29E-03,2.86E-03
128228,8.25E-03,2.78E-03
128229,9.30E-03,1.45E-02
128230,8.62E-03,1.43E-02
128231,8.25E-03,1.40E-02
128232,8.49E-03,1.37E-02
128233,8.10E-03,1.36E-02
128234,9.85E-03,1.32E-02
128235,9.19E-03,1.31E-02
128236,7.64E-03,2.46E-02
128237,7.28E-03,2.48E-02
128238,6.44E-03,2.53E-02
128239,6.83E-03,2.57E-02
128240,8.32E-03,1.20E-02
128241,9.46E-03,1.17E-02
128242,9.50E-03,1.14E-02
128243,9.62E-03,1.10E-02
128244,9.60E-03,1.05E-02
128245,9.04E-03,1.00E-02
128246,8.82E-03,9.50E-03
128247,8.45E-03,8.98E-03
128248,8.04E-03,8.49E-03
128249,8.04E-03,8.01E-03
128250,8.04E-03,7.56E-03
128251,8.04E-03,7.14E-03
128252,8.03E-03,6.74E-03
128253,8.03E-03,6.38E-03
128254,8.02E-03,6.06E-03
128255,8.02E-03,5.77E-03
128256,8.01E-03,5.52E-03
128257,8.01E-03,5.30E-03
128258,8.01E-03,5.12E-03
128259,8.01E-03,4.97E-03
128260,8.00E-03,4.86E-03
128261,8.00E-03,4.78E-03
128262,7.99E-03,4.72E-03
128263,7.99E-03,4.69E-03
128264,7.99E-03,4.68E-03
128265,7.99E-03,4.70E-03
128266,7.98E-03,4.73E-03
128267,7.98E-03,4.78E-03
128268,7.98E-03,4.84E-03
128269,7.98E-03,4.91E-03
128270,8.12E-03,4.99E-03
128271,8.45E-03,5.08E-03
128272,8.70E-03,5.18E-03
128273,8.71E-03,5.29E-03
128274,8.60E-03,5.40E-03
128275,8.49E-03,5.52E-03
128276,8.43E-03,5.63E-03
128277,8.38E-03,5.75E-03
128278,8.34E-03,5.87E-03
128279,8.31E-03,5.99E-03
128280,8.28E-03,6.11E-03
128281,8.24E-03,6.23E-03
128282,8.22E-03,6.36E-03
128283,8.25E-03,6.49E-03
128284,8.32E-03,6.62E-03
128285,8.32E-03,6.75E-03
128286,8.12E-03,6.88E-03
128287,7.97E-03,7.01E-03
128288,7.97E-03,7.14E-03
128289,7.97E-03,7.27E-03
128290,7.95E-03,7.41E-03
128291,7.92E-03,7.54E-03
128292,7.90E-03,7.68E-03
128293,7.87E-03,7.81E-03
128294,7.85E-03,7.95E-03
128295,7.81E-03,8.09E-03
128296,7.77E-03,8.23E-03
128297,7.72E-03,8.36E-03
128298,7.65E-03,8.50E-03
128299,7.55E-03,8.63E-03
128300,7.32E-03,8.76E-03
128301,7.04E-03,8.88E-03
128302,7.48E-03,9.01E-03
128303,8.25E-03,9.14E-03
128304,8.64E-03,9.28E-03
128305,8.75E-03,9.43E-03
128306,8.63E-03,9.57E-03
128307,8.54E-03,9.71E-03
128308,8.47E-03,9.84E-03
128309,8.42E-03,9.97E-03
128310,8.37E-03,1.01E-02
128311,8.34E-03,1.02E-02
128312,8.31E-03,1.04E-02
128313,8.29E-03,1.05E-02
128314,8.27E-03,1.06E-02
128315,8.26E-03,1.07E-02
128316,8.58E-03,1.09E-02
128317,9.04E-03,1.10E-02
128318,8.98E-03,1.11E-02
128319,8.70E-03,1.12E-02
128320,8.54E-03,1.13E-02
128321,8.44E-03,1.15E-02
128322,8.37E-03,1.16E-02
128323,8.32E-03,1.17E-02
128324,8.28E-03,1.18E-02
128325,8.26E-03,1.19E-02
128326,8.23E-03,1.20E-02
128327,8.22E-03,1.21E-02
128328,8.20E-03,1.22E-02
128329,8.19E-03,1.23E-02
128330,8.18E-03,1.24E-02
128331,8.17E-03,1.25E-02
128332,8.16E-03,1.26E-02
128333,8.16E-03,1.27E-02
128334,8.15E-03,1.28E-02
128335,8.15E-03,1.29E-02
128336,8.14E-03,1.30E-02
128337,8.14E-03,1.31E-02
128338,8.13E-03,1.31E-02
128339,8.13E-03,1.32E-02
128340,8.13E-03,1.33E-02
128341,8.13E-03,1.34E-02
128342,8.12E-03,1.35E-02
128343,8.12E-03,1.35E-02
128344,8.12E-03,1.36E-02
128345,8.12E-03,1.37E-02
128346,8.12E-03,1.38E-02
128347,8.11E-03,1.39E-02
128348,8.11E-03,1.39E-02
128349,8.11E-03,1.40E-02
128350,8.11E-03,1.41E-02
128351,8.11E-03,1.41E-02
128352,8.11E-03,1.42E-02
128353,8.11E-03,1.43E-02
128354,8.10E-03,1.44E-02
128355,8.10E-03,1.44E-02
128356,8.10E-03,1.45E-02
128357,8.10E-03,1.46E-02
128358,8.10E-03,1.46E-02
128359,8.10E-03,1.47E-02
128360,8.10E-03,1.48E-02
128361,8.10E-03,1.49E-02
128362,8.10E-03,1.49E-02
128363,8.10E-03,1.50E-02
128364,8.10E-03,1.51E-02
128365,8.10E-03,1.51E-02
128366,8.10E-03,1.52E-02
128367,8.10E-03,1.53E-02
128368,8.10E-03,1.53E-02
128369,8.10E-03,1.54E-02
128370,8.10E-03,1.55E-02
128371,8.10E-03,1.55E-02
128372,8.10E-03,1.56E-02
128373,8.10E-03,1.57E-02
128374,8.10E-03,1.57E-02
128375,8.10E-03,1.58E-02
128376,8.10E-03,1.58E-02
128377,8.10E-03,1.59E-02
128378,8.09E-03,1.60E-02
128379,8.09E-03,1.60E-02
128380,8.09E-03,1.61E-02
128381,8.09E-03,1.62E-02
128382,8.09E-03,1.62E-02
128383,8.09E-03,1.63E-02
128384,8.09E-03,1.64E-02
128385,8.09E-03,1.64E-02
128386,8.09E-03,1.65E-02
128387,8.09E-03,1.66E-02
128388,8.09E-03,1.66E-02
128389,8.09E-03,1.67E-02
128390,8.10E-03,1.67E-02
128391,8.10E-03,1.68E-02
128392,8.10E-03,1.69E-02
128393,8.10E-03,1.69E-02
128394,8.10E-03,1.70E-02
128395,8.10E-03,1.71E-02
128396,8.10E-03,1.71E-02
128397,8.10E-03,1.72E-02
128398,8.10E-03,1.72E-02
128399,8.11E-03,1.73E-02
128400,8.11E-03,1.74E-02
128401,8.11E-03,1.74E-02
128402,8.11E-03,1.75E-02
128403,8.11E-03,1.75E-02
128404,8.11E-03,1.76E-02
128405,8.12E-03,1.77E-02
128406,8.12E-03,1.77E-02
128407,8.12E-03,1.78E-02
128408,8.12E-03,1.78E-02
128409,8.13E-03,1.79E-02
128410,8.13E-03,1.80E-02
128411,8.13E-03,1.80E-02
128412,8.14E-03,1.81E-02
128413,8.14E-03,1.81E-02
128414,8.15E-03,1.82E-02
128415,8.16E-03,1.82E-02
128416,8.17E-03,1.83E-02
128417,8.18E-03,1.83E-02
128418,8.20E-03,1.84E-02
128419,8.21E-03,1.84E-02
128420,8.23E-03,1.85E-02
128421,8.26E-03,1.85E-02
128422,8.29E-03,1.86E-02
128423,8.34E-03,1.86E-02
128424,8.41E-03,1.87E-02
128425,8.51E-03,1.87E-02
128426,8.68E-03,1.88E-02
128427,8.63E-03,1.88E-02
128428,8.00E-03,1.89E-02
128429,7.59E-03,1.90E-02
128430,7.70E-03,1.90E-02
128431,7.78E-03,1.91E-02
128432,7.84E-03,1.91E-02
128433,7.88E-03,1.92E-02
128434,7.91E-03,1.92E-02
128435,7.93E-03,1.93E-02
128436,7.95E-03,1.93E-02
128437,7.96E-03,1.94E-02
128438,7.98E-03,1.94E-02
128439,7.99E-03,1.95E-02
128440,7.99E-03,1.95E-02
128441,8.00E-03,1.96E-02
128442,8.01E-03,1.96E-02
128443,8.01E-03,1.97E-02
128444,8.02E-03,1.97E-02
128445,8.02E-03,1.98E-02
128446,8.03E-03,1.99E-02
128447,8.03E-03,1.99E-02
128448,8.03E-03,2.00E-02
128449,8.04E-03,2.00E-02
128450,8.04E-03,2.01E-02
128451,8.04E-03,2.02E-02
128452,8.04E-03,2.02E-02
128453,8.05E-03,2.03E-02
128454,8.04E-03,2.04E-02
128455,8.04E-03,2.05E-02
128456,8.04E-03,2.05E-02
128457,8.05E-03,2.06E-02
128458,8.06E-03,2.07E-02
128459,8.06E-03,2.07E-02
128460,8.06E-03,2.08E-02
128461,8.07E-03,2.09E-02
128462,8.07E-03,2.10E-02
128463,8.07E-03,2.11E-02
128464,8.07E-03,2.11E-02
128465,8.08E-03,2.12E-02
128466,8.11E-03,2.13E-02
128467,8.11E-03,2.14E-02
128468,8.12E-03,2.14E-02
128469,8.12E-03,2.15E-02
128470,8.12E-03,2.16E-02
128471,8.12E-03,2.17E-02
128472,8.13E-03,2.18E-02
128473,8.13E-03,2.18E-02
128474,8.13E-03,2.19E-02
128475,8.14E-03,2.20E-02
128476,8.14E-03,2.21E-02
128477,8.15E-03,2.21E-02
128478,8.15E-03,2.22E-02
128479,8.16E-03,2.22E-02
128480,8.17E-03,2.23E-02
128481,8.18E-03,2.23E-02
128482,8.19E-03,2.24E-02
128483,8.21E-03,2.24E-02
128484,8.23E-03,2.24E-02
128485,8.25E-03,2.25E-02
128486,8.28E-03,2.25E-02
128487,8.32E-03,2.25E-02
128488,8.38E-03,2.25E-02
128489,8.44E-03,2.25E-02
128490,8.28E-03,2.25E-02
128491,7.97E-03,2.25E-02
128492,7.81E-03,2.25E-02
128493,7.54E-03,1.52E-02
128494,7.36E-03,1.44E-02
128495,7.30E-03,1.39E-02
128496,7.33E-03,1.38E-02
128497,7.35E-03,1.31E-02
128498,7.86E-03,1.28E-02
128499,8.56E-03,1.26E-02
128500,9.10E-03,1.26E-02
128501,9.15E-03,1.25E-02
128502,8.74E-03,1.24E-02
128503,8.54E-03,1.24E-02
128504,8.48E-03,1.24E-02
128505,8.28E-03,1.24E-02
128506,8.29E-03,1.24E-02
128507,8.31E-03,1.25E-02
128508,8.32E-03,1.25E-02
128509,8.33E-03,1.26E-02
128510,8.34E-03,1.27E-02
128511,8.35E-03,1.28E-02
128512,8.36E-03,1.29E-02
128513,8.37E-03,1.29E-02
128514,8.38E-03,1.30E-02
128515,8.40E-03,1.31E-02
128516,8.41E-03,1.32E-02
128517,8.42E-03,1.33E-02
128518,8.44E-03,1.34E-02
128519,8.45E-03,1.35E-02
128520,8.47E-03,1.36E-02
128521,8.49E-03,1.37E-02
128522,8.52E-03,1.38E-02
128523,8.55E-03,1.39E-02
128524,8.58E-03,1.39E-02
128525,8.61E-03,1.40E-02
128526,8.62E-03,1.41E-02
128527,8.62E-03,1.42E-02
128528,8.63E-03,1.43E-02
128529,8.62E-03,1.44E-02
128530,8.61E-03,1.45E-02
128531,8.60E-03,1.46E-02
128532,8.59E-03,1.47E-02
128533,8.59E-03,1.48E-02
128534,8.58E-03,1.49E-02
128535,8.57E-03,1.50E-02
128536,8.56E-03,1.51E-02
128537,8.56E-03,1.52E-02
128538,8.55E-03,1.53E-02
128539,8.54E-03,1.54E-02
128540,8.54E-03,1.55E-02
128541,8.53E-03,1.56E-02
128542,8.52E-03,1.57E-02
128543,8.52E-03,1.58E-02
128544,8.51E-03,1.59E-02
128545,8.50E-03,1.60E-02
128546,8.49E-03,1.61E-02
128547,8.49E-03,1.62E-02
128548,8.49E-03,1.63E-02
128549,8.49E-03,1.64E-02
128550,8.48E-03,1.64E-02
128551,8.46E-03,1.65E-02
128552,8.43E-03,1.66E-02
128553,8.41E-03,1.67E-02
128554,8.39E-03,1.68E-02
128555,8.38E-03,1.69E-02
128556,8.39E-03,1.70E-02
128557,8.44E-03,1.71E-02
128558,8.53E-03,1.72E-02
128559,8.79E-03,1.73E-02
128560,8.78E-03,1.74E-02
128561,9.21E-03,1.75E-02
128562,9.40E-03,1.76E-02
128563,9.73E-03,1.77E-02
128564,1.00E-02,1.79E-02
128565,1.04E-02,1.80E-02
128566,1.05E-02,1.81E-02
128567,6.27E-03,2.28E-02
128568,5.11E-03,2.29E-02
128569,5.74E-03,2.30E-02
128570,6.05E-03,2.30E-02
128571,6.11E-03,2.31E-02
128572,6.44E-03,2.31E-02
128573,7.44E-03,2.31E-02
128574,7.52E-03,2.31E-02
128575,7.71E-03,2.31E-02
128576,7.87E-03,2.31E-02
128577,7.98E-03,2.30E-02
128578,8.31E-03,2.30E-02
128579,8.39E-03,2.30E-02
128580,8.43E-03,2.30E-02
128581,8.48E-03,2.30E-02
128582,8.54E-03,2.30E-02
128583,8.58E-03,2.30E-02
128584,8.76E-03,2.30E-02
128585,8.94E-03,2.31E-02
128586,8.60E-03,2.31E-02
128587,6.42E-03,2.32E-02
128588,5.98E-03,2.32E-02
128589,6.73E-03,2.33E-02
128590,7.26E-03,2.33E-02
128591,7.50E-03,2.33E-02
128592,7.65E-03,2.34E-02
128593,7.74E-03,2.34E-02
128594,7.80E-03,2.34E-02
128595,7.85E-03,2.35E-02
128596,7.88E-03,2.35E-02
128597,7.91E-03,2.35E-02
128598,7.93E-03,2.36E-02
128599,7.95E-03,2.36E-02
128600,7.96E-03,2.37E-02
128601,7.98E-03,2.37E-02
128602,7.99E-03,2.38E-02
128603,7.99E-03,2.39E-02
128604,8.00E-03,2.39E-02
128605,7.99E-03,2.40E-02
128606,7.99E-03,2.41E-02
128607,8.02E-03,2.42E-02
128608,8.04E-03,2.43E-02
128609,8.05E-03,2.43E-02
128610,8.06E-03,2.44E-02
128611,8.06E-03,2.45E-02
128612,8.07E-03,2.46E-02
128613,8.08E-03,2.47E-02
128614,8.11E-03,2.48E-02
128615,8.11E-03,2.49E-02
128616,8.12E-03,2.50E-02
128617,8.12E-03,2.51E-02
128618,8.12E-03,2.52E-02
128619,8.12E-03,2.53E-02
128620,8.12E-03,2.54E-02
128621,8.12E-03,2.55E-02
128622,8.13E-03,2.56E-02
128623,8.13E-03,2.57E-02
128624,8.13E-03,2.58E-02
128625,8.13E-03,2.59E-02
128626,8.14E-03,2.60E-02
128627,8.14E-03,2.61E-02
128628,8.14E-03,2.62E-02
128629,8.15E-03,2.62E-02
128630,8.15E-03,2.63E-02
128631,8.16E-03,2.64E-02
128632,8.16E-03,2.65E-02
128633,8.17E-03,2.66E-02
128634,8.17E-03,2.67E-02
128635,8.18E-03,2.68E-02
128636,8.19E-03,2.69E-02
128637,8.20E-03,2.70E-02
128638,8.21E-03,2.71E-02
128639,8.22E-03,2.71E-02
128640,8.23E-03,2.72E-02
128641,8.25E-03,2.73E-02
128642,8.26E-03,2.74E-02
128643,8.27E-03,2.74E-02
128644,8.28E-03,2.75E-02
128645,8.28E-03,2.75E-02
128646,8.29E-03,2.75E-02
128647,8.29E-03,2.76E-02
128648,8.32E-03,2.76E-02
128649,8.37E-03,2.76E-02
128650,8.42E-03,2.76E-02
128651,8.48E-03,2.76E-02
128652,8.56E-03,2.76E-02
128653,8.68E-03,2.75E-02
128654,8.85E-03,2.75E-02
128655,9.12E-03,2.75E-02
128656,9.35E-03,2.74E-02
128657,9.33E-03,2.74E-02
128658,9.17E-03,2.74E-02
128659,9.03E-03,2.74E-02
128660,8.92E-03,2.75E-02
128661,9.05E-03,2.75E-02
128662,9.26E-03,2.75E-02
128663,8.92E-03,2.76E-02
128664,8.44E-03,2.76E-02
128665,8.29E-03,2.76E-02
128666,8.15E-03,2.77E-02
128667,8.02E-03,2.77E-02
128668,7.93E-03,2.77E-02
128669,7.74E-03,2.78E-02
128670,7.01E-03,2.78E-02
128671,6.73E-03,2.78E-02
128672,7.17E-03,2.78E-02
128673,7.39E-03,2.78E-02
128674,7.37E-03,2.77E-02
128675,7.03E-03,2.77E-02
128676,6.53E-03,2.77E-02
128677,6.54E-03,2.77E-02
128678,7.00E-03,2.77E-02
128679,7.31E-03,2.77E-02
128680,7.49E-03,2.76E-02
128681,7.65E-03,2.76E-02
128682,7.75E-03,2.76E-02
128683,7.77E-03,2.76E-02
128684,7.77E-03,2.76E-02
128685,7.77E-03,2.76E-02
128686,7.77E-03,2.77E-02
128687,7.77E-03,2.77E-02
128688,7.87E-03,2.77E-02
128689,8.03E-03,2.78E-02
128690,8.10E-03,2.78E-02
128691,8.10E-03,2.79E-02
128692,8.10E-03,2.79E-02
128693,8.11E-03,2.80E-02
128694,8.13E-03,2.81E-02
128695,8.16E-03,2.81E-02
128696,8.18E-03,2.82E-02
128697,8.19E-03,2.83E-02
128698,8.19E-03,2.84E-02
128699,8.19E-03,2.84E-02
128700,8.20E-03,2.85E-02
128701,8.21E-03,2.86E-02
128702,8.22E-03,2.87E-02
128703,8.23E-03,2.87E-02
128704,8.24E-03,2.88E-02
128705,8.25E-03,2.88E-02
128706,8.26E-03,2.89E-02
128707,8.28E-03,2.89E-02
128708,8.30E-03,2.90E-02
128709,8.32E-03,2.90E-02
128710,8.34E-03,2.90E-02
128711,8.36E-03,2.91E-02
128712,8.39E-03,2.91E-02
128713,8.42E-03,2.91E-02
128714,8.44E-03,2.91E-02
128715,8.48E-03,2.91E-02
128716,8.53E-03,2.91E-02
128717,8.58E-03,2.91E-02
128718,8.64E-03,2.91E-02
128719,8.72E-03,2.91E-02
128720,8.82E-03,2.91E-02
128721,8.93E-03,2.91E-02
128722,8.95E-03,2.91E-02
128723,8.87E-03,2.92E-02
128724,8.85E-03,2.93E-02
128725,8.94E-03,2.93E-02
128726,9.24E-03,2.94E-02
128727,9.18E-03,2.95E-02
128728,7.66E-03,2.96E-02
128729,6.51E-03,2.97E-02
128730,6.74E-03,2.98E-02
128731,6.96E-03,2.98E-02
128732,6.94E-03,2.99E-02
128733,6.78E-03,2.99E-02
128734,6.74E-03,3.00E-02
128735,6.46E-03,3.00E-02
128736,6.44E-03,3.00E-02
128737,6.38E-03,3.00E-02
128738,6.75E-03,3.00E-02
128739,7.06E-03,3.01E-02
128740,7.33E-03,3.01E-02
128741,7.63E-03,3.01E-02
128742,7.83E-03,3.01E-02
128743,7.87E-03,3.02E-02
128744,7.91E-03,3.02E-02
128745,7.93E-03,3.03E-02
128746,7.95E-03,3.04E-02
128747,7.97E-03,3.04E-02
128748,7.98E-03,3.06E-02
128749,7.99E-03,3.07E-02
128750,8.00E-03,3.08E-02
128751,8.01E-03,3.09E-02
128752,8.01E-03,3.11E-02
128753,8.02E-03,3.12E-02
128754,8.02E-03,3.14E-02
128755,8.03E-03,3.15E-02
128756,8.03E-03,3.17E-02
128757,8.03E-03,3.19E-02
128758,8.04E-03,3.20E-02
128759,8.04E-03,3.22E-02
128760,8.05E-03,3.24E-02
128761,8.05E-03,3.26E-02
128762,8.05E-03,3.27E-02
128763,8.05E-03,3.29E-02
128764,8.05E-03,3.31E-02
128765,8.05E-03,3.33E-02
128766,8.05E-03,3.35E-02
128767,8.05E-03,3.37E-02
128768,8.06E-03,3.39E-02
128769,8.06E-03,3.41E-02
128770,8.06E-03,3.43E-02
128771,8.06E-03,3.45E-02
128772,8.06E-03,3.47E-02
128773,8.06E-03,3.49E-02
128774,8.06E-03,3.51E-02
128775,8.06E-03,3.53E-02
128776,8.06E-03,3.55E-02
128777,8.06E-03,3.57E-02
128778,8.06E-03,3.59E-02
128779,8.06E-03,3.61E-02
128780,8.06E-03,3.63E-02
128781,8.06E-03,3.66E-02
128782,8.06E-03,3.68E-02
128783,8.06E-03,3.70E-02
128784,8.06E-03,3.72E-02
128785,8.06E-03,3.74E-02
128786,8.07E-03,3.77E-02
128787,8.07E-03,3.79E-02
128788,8.07E-03,3.81E-02
128789,8.07E-03,3.83E-02
128790,8.07E-03,3.86E-02
128791,8.07E-03,3.88E-02
128792,8.07E-03,3.91E-02
128793,8.07E-03,3.93E-02
128794,8.00E-03,3.95E-02
128795,7.96E-03,3.98E-02
128796,7.93E-03,4.00E-02
128797,7.98E-03,4.03E-02
128798,8.04E-03,4.06E-02
128799,7.11E-03,6.21E-03
128800,7.97E-03,6.22E-03
128801,7.93E-03,6.22E-03
128802,7.93E-03,6.22E-03
128803,7.87E-03,6.22E-03
128804,6.96E-03,6.23E-03
128805,6.85E-03,6.24E-03
128806,6.68E-03,6.24E-03
128807,7.86E-03,6.29E-03
128808,8.53E-03,6.34E-03
128809,8.48E-03,6.37E-03
128810,8.33E-03,6.39E-03
128811,7.80E-03,6.40E-03
128812,7.33E-03,6.41E-03
128813,7.02E-03,6.42E-03
128814,6.89E-03,6.44E-03
128815,7.14E-03,6.44E-03
128816,7.57E-03,6.44E-03
128817,7.47E-03,6.45E-03
128818,8.86E-03,6.47E-03
128819,9.77E-03,6.44E-03
128820,9.40E-03,6.43E-03
128821,9.26E-03,6.43E-03
128822,9.13E-03,6.44E-03
128823,9.10E-03,6.44E-03
128824,8.77E-03,6.45E-03
128825,8.66E-03,6.45E-03
128826,8.35E-03,6.44E-03
128827,8.33E-03,6.43E-03
128828,8.03E-03,6.42E-03
128829,7.53E-03,6.41E-03
128830,7.49E-03,6.39E-03
128831,7.68E-03,6.36E-03
128832,7.59E-03,6.34E-03
128833,7.41E-03,6.31E-03
128834,7.22E-03,6.29E-03
128835,6.93E-03,6.26E-03
128836,6.34E-03,6.23E-03
128837,6.92E-03,6.21E-03
128838,7.97E-03,6.18E-03
128839,8.05E-03,6.16E-03
128840,8.07E-03,6.13E-03
128841,8.08E-03,6.10E-03
128842,8.08E-03,6.08E-03
128843,7.96E-03,6.05E-03
128844,7.79E-03,6.03E-03
128845,7.71E-03,6.01E-03
128846,7.63E-03,5.98E-03
128847,7.53E-03,5.96E-03
128848,7.40E-03,5.95E-03
128849,7.75E-03,5.93E-03
128850,8.50E-03,5.91E-03
128851,9.07E-03,5.89E-03
128852,9.27E-03,5.88E-03
128853,9.06E-03,5.86E-03
128854,8.85E-03,5.84E-03
128855,8.64E-03,5.82E-03
128856,8.24E-03,5.80E-03
128857,7.92E-03,5.78E-03
128858,7.69E-03,5.77E-03
128859,7.26E-03,5.75E-03
128860,7.07E-03,5.73E-03
128861,6.99E-03,5.72E-03
128862,7.19E-03,5.70E-03
128863,8.06E-03,5.69E-03
128864,8.83E-03,5.67E-03
128865,9.24E-03,5.66E-03
128866,9.17E-03,5.64E-03
128867,8.67E-03,5.62E-03
128868,8.49E-03,5.60E-03
128869,7.79E-03,5.58E-03
128870,7.65E-03,5.55E-03
128871,7.30E-03,5.53E-03
128872,7.25E-03,5.51E-03
128873,7.10E-03,5.50E-03
128874,7.31E-03,5.48E-03
128875,7.98E-03,5.47E-03
128876,8.24E-03,5.46E-03
128877,8.91E-03,5.44E-03
128878,9.59E-03,5.43E-03
128879,9.62E-03,5.41E-03
128880,9.12E-03,5.39E-03
128881,8.87E-03,5.37E-03
128882,8.40E-03,5.34E-03
128883,7.54E-03,5.32E-03
128884,7.25E-03,5.30E-03
128885,6.68E-03,5.28E-03
128886,6.14E-03,5.26E-03
128887,6.21E-03,5.24E-03
128888,6.21E-03,5.22E-03
128889,6.68E-03,5.21E-03
128890,8.25E-03,5.20E-03
128891,9.17E-03,5.18E-03
128892,9.64E-03,5.15E-03
128893,1.02E-02,5.11E-03
128894,1.01E-02,5.08E-03
128895,9.93E-03,5.05E-03
128896,9.54E-03,5.00E-03
128897,9.42E-03,4.96E-03
128898,9.18E-03,4.93E-03
128899,8.91E-03,4.89E-03
128900,8.83E-03,4.85E-03
128901,8.51E-03,4.81E-03
128902,8.45E-03,4.76E-03
128903,8.40E-03,4.72E-03
128904,8.32E-03,4.67E-03
128905,8.13E-03,4.62E-03
128906,7.96E-03,4.57E-03
128907,7.90E-03,4.52E-03
128908,7.89E-03,4.47E-03
128909,7.87E-03,4.42E-03
128910,7.83E-03,4.37E-03
128911,7.79E-03,4.33E-03
128912,7.73E-03,4.28E-03
128913,7.66E-03,4.23E-03
128914,7.56E-03,4.18E-03
128915,7.41E-03,4.14E-03
128916,7.14E-03,4.10E-03
128917,6.80E-03,4.06E-03
128918,6.89E-03,4.03E-03
128919,7.29E-03,4.00E-03
128920,7.37E-03,3.96E-03
128921,7.27E-03,3.94E-03
128922,7.14E-03,3.91E-03
128923,6.96E-03,3.88E-03
128924,7.27E-03,3.86E-03
128925,8.96E-03,3.85E-03
128926,1.00E-02,3.82E-03
128927,9.61E-03,3.79E-03
128928,9.21E-03,3.76E-03
128929,8.97E-03,3.73E-03
128930,8.82E-03,3.69E-03
128931,8.71E-03,3.66E-03
128932,8.46E-03,3.63E-03
128933,8.05E-03,3.59E-03
128934,7.75E-03,3.56E-03
128935,7.65E-03,3.53E-03
128936,7.59E-03,3.50E-03
128937,7.51E-03,3.47E-03
128938,7.42E-03,3.44E-03
128939,7.29E-03,3.41E-03
128940,7.13E-03,3.39E-03
128941,7.16E-03,3.37E-03
128942,7.44E-03,3.35E-03
128943,7.57E-03,3.33E-03
128944,7.53E-03,3.31E-03
128945,7.50E-03,3.30E-03
128946,7.48E-03,3.28E-03
128947,7.93E-03,3.27E-03
128948,8.61E-03,3.26E-03
128949,8.78E-03,3.24E-03
128950,8.69E-03,3.23E-03
128951,8.62E-03,3.21E-03
128952,8.54E-03,3.19E-03
128953,8.40E-03,3.17E-03
128954,8.23E-03,3.15E-03
128955,8.10E-03,3.13E-03
128956,8.08E-03,3.11E-03
128957,8.10E-03,3.09E-03
128958,8.10E-03,3.07E-03
128959,8.15E-03,3.05E-03
128960,8.57E-03,3.03E-03
128961,8.90E-03,3.01E-03
128962,8.78E-03,2.98E-03
128963,8.62E-03,2.95E-03
128964,8.52E-03,2.92E-03
128965,8.52E-03,2.89E-03
128966,8.61E-03,2.86E-03
128967,8.78E-03,2.83E-03
128968,9.01E-03,2.79E-03
128969,9.06E-03,2.75E-03
128970,8.88E-03,2.71E-03
128971,8.70E-03,2.66E-03
128972,8.58E-03,2.62E-03
128973,8.50E-03,2.57E-03
128974,8.46E-03,2.52E-03
128975,8.45E-03,2.47E-03
128976,8.40E-03,2.42E-03
128977,8.31E-03,2.36E-03
128978,8.26E-03,2.31E-03
128979,8.22E-03,2.26E-03
128980,8.20E-03,2.20E-03
128981,8.18E-03,2.15E-03
128982,8.17E-03,2.10E-03
128983,8.16E-03,2.04E-03
128984,8.12E-03,1.99E-03
128985,8.03E-03,1.94E-03
128986,7.98E-03,1.89E-03
128987,7.97E-03,1.84E-03
128988,7.96E-03,1.79E-03
128989,7.95E-03,1.74E-03
128990,7.94E-03,1.69E-03
128991,7.92E-03,1.64E-03
128992,7.91E-03,1.60E-03
128993,7.89E-03,1.55E-03
128994,7.87E-03,1.51E-03
128995,7.84E-03,1.46E-03
128996,7.81E-03,1.42E-03
128997,7.78E-03,1.38E-03
128998,7.73E-03,1.34E-03
128999,7.67E-03,1.30E-03
129000,7.65E-03,1.26E-03
129001,7.72E-03,1.23E-03
129002,7.78E-03,1.19E-03
129003,7.78E-03,1.16E-03
129004,7.75E-03,1.13E-03
129005,7.70E-03,1.10E-03
129006,7.64E-03,1.07E-03
129007,7.53E-03,1.04E-03
129008,7.50E-03,1.01E-03
129009,7.59E-03,9.86E-04
129010,7.66E-03,9.62E-04
129011,7.73E-03,9.39E-04
129012,7.74E-03,9.17E-04
129013,7.61E-03,8.97E-04
129014,7.52E-03,8.77E-04
129015,7.49E-03,8.58E-04
129016,7.22E-03,8.40E-04
129017,7.20E-03,8.22E-04
129018,7.11E-03,8.04E-04
129019,6.91E-03,7.89E-04
129020,6.70E-03,7.84E-04
129021,6.36E-03,7.82E-04
129022,6.35E-03,7.88E-04
129023,6.56E-03,8.05E-04
129024,6.67E-03,8.27E-04
129025,6.97E-03,8.53E-04
129026,7.13E-03,8.95E-04
129027,8.81E-03,9.35E-04
129028,9.14E-03,9.74E-04
129029,9.34E-03,9.98E-04
129030,6.53E-03,1.03E-03
129031,6.67E-03,1.04E-03
129032,6.56E-03,1.06E-03
129033,8.05E-03,1.23E-03
129034,8.59E-03,1.20E-03
129035,7.63E-03,1.17E-03
129036,7.04E-03,1.21E-03
129037,6.16E-03,1.18E-03
129038,5.59E-03,1.15E-03
129039,5.74E-03,1.19E-03
129040,6.22E-03,1.22E-03
129041,7.26E-03,1.27E-03
129042,8.37E-03,1.33E-03
129043,9.99E-03,1.42E-03
129044,1.04E-02,1.45E-03
129045,9.56E-03,1.49E-03
129046,9.51E-03,1.53E-03
129047,9.48E-03,1.56E-03
129048,7.79E-03,1.58E-03
129049,7.71E-03,1.59E-03
129050,7.33E-03,1.60E-03
129051,6.76E-03,1.61E-03
129052,6.09E-03,1.62E-03
129053,5.56E-03,1.65E-03
129054,8.92E-03,1.71E-03
129055,9.20E-03,1.75E-03
129056,8.27E-03,1.76E-03
129057,7.75E-03,1.82E-03
129058,6.52E-03,1.87E-03
129059,6.33E-03,1.92E-03
129060,8.19E-03,5.17E-03
129061,8.71E-03,5.17E-03
129062,8.84E-03,5.15E-03
129063,8.27E-03,5.13E-03
129064,7.44E-03,5.09E-03
129065,6.68E-03,5.06E-03
129066,6.20E-03,5.09E-03
129067,5.58E-03,5.14E-03
129068,6.10E-03,5.13E-03
129069,6.76E-03,5.13E-03
129070,7.28E-03,5.14E-03
129071,7.43E-03,5.16E-03
129072,7.56E-03,5.19E-03
129073,7.73E-03,5.26E-03
129074,9.27E-03,1.95E-02
129075,1.08E-02,1.90E-02
129076,5.43E-03,6.51E-03
129077,5.98E-03,6.55E-03
129078,7.64E-03,6.43E-03
129079,7.94E-03,1.88E-02
129080,6.13E-03,1.87E-02
129081,7.08E-03,2.83E-02
129082,7.42E-03,2.90E-02
129083,8.51E-03,2.99E-02
129084,9.45E-03,3.10E-02
129085,8.30E-03,2.16E-02
129086,8.14E-03,2.21E-02
129087,8.70E-03,2.27E-02
129088,9.20E-03,3.68E-02
129089,8.83E-03,3.85E-02
129090,8.17E-03,4.03E-02
129091,7.61E-03,4.21E-02
129092,7.70E-03,4.41E-02
129093,7.90E-03,4.63E-02
129094,8.01E-03,4.87E-02
129095,7.86E-03,5.09E-02
129096,7.19E-03,5.31E-02
129097,6.53E-03,5.56E-02
129098,6.42E-03,6.63E-02
129099,6.40E-03,6.77E-02
129100,6.78E-03,6.84E-02
129101,1.10E-02,1.91E-02
129102,1.07E-02,1.93E-02
129103,1.10E-02,1.95E-02
129104,1.09E-02,1.97E-02
129105,1.07E-02,1.99E-02
129106,1.07E-02,2.01E-02
129107,1.07E-02,2.04E-02
129108,1.07E-02,2.06E-02
129109,1.07E-02,2.08E-02
129110,1.07E-02,2.11E-02
129111,1.07E-02,2.13E-02
129112,1.07E-02,2.15E-02
129113,1.07E-02,2.18E-02
129114,1.07E-02,2.20E-02
129115,1.06E-02,2.22E-02
129116,1.05E-02,2.25E-02
129117,1.04E-02,2.27E-02
129118,1.03E-02,2.29E-02
129119,1.01E-02,2.31E-02
129120,9.98E-03,2.32E-02
129121,9.92E-03,2.34E-02
129122,9.76E-03,2.36E-02
129123,9.35E-03,2.37E-02
129124,9.10E-03,2.39E-02
129125,9.08E-03,2.40E-02
129126,8.78E-03,2.42E-02
129127,8.64E-03,2.43E-02
129128,8.41E-03,2.44E-02
129129,8.37E-03,2.46E-02
129130,7.98E-03,2.48E-02
129131,7.97E-03,2.49E-02
129132,7.53E-03,2.50E-02
129133,7.00E-03,2.52E-02
129134,6.63E-03,2.53E-02
129135,6.98E-03,2.55E-02
129136,7.06E-03,2.56E-02
129137,8.49E-03,1.96E-02
129138,7.74E-03,1.96E-02
129139,6.60E-03,1.94E-02
129140,6.40E-03,1.92E-02
129141,6.68E-03,1.90E-02
129142,6.62E-03,1.88E-02
129143,7.81E-03,1.86E-02
129144,7.78E-03,1.84E-02
129145,7.88E-03,1.81E-02
129146,7.98E-03,1.79E-02
129147,8.23E-03,1.77E-02
129148,8.24E-03,1.75E-02
129149,8.24E-03,1.73E-02
129150,8.25E-03,1.71E-02
129151,8.26E-03,1.69E-02
129152,8.29E-03,1.67E-02
129153,8.43E-03,1.65E-02
129154,8.65E-03,1.63E-02
129155,8.80E-03,1.62E-02
129156,8.93E-03,1.60E-02
129157,9.12E-03,1.58E-02
129158,9.39E-03,1.57E-02
129159,9.70E-03,1.56E-02
129160,9.63E-03,1.54E-02
129161,8.94E-03,1.53E-02
129162,8.74E-03,1.52E-02
129163,8.28E-03,1.51E-02
129164,8.10E-03,1.50E-02
129165,7.81E-03,1.49E-02
129166,6.01E-03,1.48E-02
129167,6.12E-03,1.47E-02
129168,6.68E-03,1.46E-02
129169,6.71E-03,1.45E-02
129170,6.90E-03,1.43E-02
129171,7.21E-03,1.42E-02
129172,7.63E-03,1.41E-02
129173,7.79E-03,1.39E-02
129174,7.90E-03,1.38E-02
129175,7.94E-03,1.36E-02
129176,7.97E-03,1.35E-02
129177,7.99E-03,1.33E-02
129178,8.01E-03,1.32E-02
129179,8.02E-03,1.31E-02
129180,8.02E-03,1.29E-02
129181,8.02E-03,1.28E-02
129182,8.03E-03,1.27E-02
129183,8.19E-03,1.26E-02
129184,8.34E-03,1.24E-02
129185,8.30E-03,1.23E-02
129186,8.24E-03,1.22E-02
129187,8.21E-03,1.21E-02
129188,8.23E-03,1.19E-02
129189,8.28E-03,1.18E-02
129190,8.30E-03,1.17E-02
129191,8.34E-03,1.16E-02
129192,8.38E-03,1.14E-02
129193,8.44E-03,1.13E-02
129194,8.52E-03,1.12E-02
129195,8.64E-03,1.10E-02
129196,8.76E-03,1.09E-02
129197,8.86E-03,1.08E-02
129198,8.93E-03,1.06E-02
129199,9.15E-03,1.05E-02
129200,9.22E-03,1.04E-02
129201,9.49E-03,1.03E-02
129202,9.70E-03,1.01E-02
129203,9.86E-03,1.00E-02
129204,7.43E-03,9.89E-03
129205,7.33E-03,9.80E-03
129206,6.88E-03,9.71E-03
129207,6.25E-03,9.62E-03
129208,5.79E-03,9.51E-03
129209,4.70E-03,9.35E-03
129210,5.33E-03,9.26E-03
129211,6.12E-03,9.18E-03
129212,6.70E-03,9.12E-03
129213,7.16E-03,9.04E-03
129214,7.41E-03,8.95E-03
129215,7.50E-03,8.85E-03
129216,7.69E-03,8.75E-03
129217,7.78E-03,8.65E-03
129218,7.91E-03,8.55E-03
129219,7.93E-03,8.46E-03
129220,7.96E-03,8.37E-03
129221,7.97E-03,8.29E-03
129222,7.99E-03,8.22E-03
129223,8.00E-03,8.14E-03
129224,8.01E-03,8.07E-03
129225,8.02E-03,8.00E-03
129226,8.02E-03,7.94E-03
129227,8.03E-03,7.87E-03
129228,8.05E-03,7.81E-03
129229,8.06E-03,7.75E-03
129230,8.06E-03,7.69E-03
129231,8.06E-03,7.62E-03
129232,8.05E-03,7.56E-03
129233,8.05E-03,7.50E-03
129234,8.05E-03,7.44E-03
129235,8.05E-03,7.38E-03
129236,8.05E-03,7.33E-03
129237,8.04E-03,7.27E-03
129238,8.04E-03,7.21E-03
129239,8.04E-03,7.15E-03
129240,8.04E-03,7.09E-03
129241,8.03E-03,7.03E-03
129242,8.03E-03,6.97E-03
129243,8.03E-03,6.92E-03
129244,8.02E-03,6.86E-03
129245,8.02E-03,6.81E-03
129246,8.02E-03,6.75E-03
129247,8.01E-03,6.70E-03
129248,8.01E-03,6.65E-03
129249,7.99E-03,6.60E-03
129250,7.97E-03,6.55E-03
129251,7.95E-03,6.50E-03
129252,7.93E-03,6.46E-03
129253,7.90E-03,6.42E-03
129254,7.75E-03,6.38E-03
129255,7.76E-03,6.35E-03
129256,7.54E-03,6.31E-03
129257,7.28E-03,6.28E-03
129258,7.20E-03,6.25E-03
129259,7.16E-03,6.21E-03
129260,6.66E-03,6.16E-03
129261,6.28E-03,6.15E-03
129262,7.35E-03,6.07E-03
129263,6.61E-03,1.64E-02
129264,7.27E-03,2.29E-02
129265,7.26E-03,5.67E-03
129266,6.08E-03,5.71E-03
129267,6.15E-03,5.75E-03
129268,6.39E-03,5.78E-03
129269,4.62E-03,5.66E-03
129270,8.24E-03,1.74E-02
129271,8.01E-03,1.68E-02
129272,7.00E-03,1.22E-02
129273,7.82E-03,1.18E-02
129274,7.85E-03,1.14E-02
129275,7.12E-03,6.42E-03
129276,6.39E-03,5.81E-03
129277,7.69E-03,3.63E-03
129278,7.56E-03,3.43E-03
129279,7.94E-03,1.60E-02
129280,7.80E-03,1.55E-02
129281,8.83E-03,1.32E-02
129282,4.78E-03,2.61E-02
129283,8.14E-03,1.22E-02
129284,7.37E-03,2.29E-02
129285,5.22E-03,1.68E-02
129286,9.04E-03,1.85E-02
129287,6.05E-03,2.29E-02
129288,7.27E-03,6.02E-03
129289,9.66E-03,6.38E-03
129290,8.26E-03,5.12E-03
129291,8.54E-03,5.03E-03
129292,8.49E-03,4.95E-03
129293,8.73E-03,1.79E-02
129294,6.59E-03,6.11E-03
129295,5.54E-03,5.72E-03
129296,7.86E-03,2.37E-03
129297,7.81E-03,2.28E-03
129298,7.41E-03,2.18E-03
129299,7.99E-03,1.73E-03
129300,7.67E-03,1.78E-03
129301,8.62E-03,2.00E-02
129302,9.88E-03,2.01E-02
129303,9.67E-03,2.02E-02
129304,9.61E-03,2.03E-02
129305,9.47E-03,2.05E-02
129306,9.04E-03,2.06E-02
129307,8.78E-03,2.08E-02
129308,8.60E-03,2.10E-02
129309,8.59E-03,2.12E-02
129310,8.55E-03,2.13E-02
129311,8.52E-03,2.15E-02
129312,8.49E-03,2.17E-02
129313,8.47E-03,2.18E-02
129314,8.43E-03,2.20E-02
129315,8.41E-03,2.21E-02
129316,8.39E-03,2.23E-02
129317,8.60E-03,2.24E-02
129318,8.95E-03,2.25E-02
129319,8.99E-03,2.26E-02
129320,8.83E-03,2.27E-02
129321,8.70E-03,2.28E-02
129322,8.60E-03,2.30E-02
129323,8.53E-03,2.31E-02
129324,8.47E-03,2.32E-02
129325,8.43E-03,2.33E-02
129326,8.39E-03,2.34E-02
129327,8.31E-03,2.35E-02
129328,8.13E-03,2.36E-02
129329,7.99E-03,2.37E-02
129330,7.95E-03,2.38E-02
129331,7.84E-03,2.39E-02
129332,7.71E-03,2.40E-02
129333,7.49E-03,2.41E-02
129334,7.40E-03,2.41E-02
129335,7.31E-03,2.42E-02
129336,7.12E-03,2.42E-02
129337,6.94E-03,2.43E-02
129338,6.85E-03,2.43E-02
129339,7.67E-03,2.43E-02
129340,7.92E-03,2.44E-02
129341,8.18E-03,2.44E-02
129342,8.39E-03,2.45E-02
129343,8.32E-03,2.46E-02
129344,8.06E-03,2.46E-02
129345,7.88E-03,2.47E-02
129346,7.79E-03,2.48E-02
129347,7.65E-03,2.48E-02
129348,7.53E-03,2.49E-02
129349,6.86E-03,2.50E-02
129350,6.87E-03,2.50E-02
129351,7.22E-03,2.50E-02
129352,7.59E-03,2.51E-02
129353,8.43E-03,2.51E-02
129354,8.66E-03,2.52E-02
129355,8.95E-03,2.52E-02
129356,8.96E-03,2.53E-02
129357,8.84E-03,2.54E-02
129358,8.91E-03,2.55E-02
129359,7.63E-03,2.57E-02
129360,7.53E-03,2.58E-02
129361,7.36E-03,2.59E-02
129362,7.06E-03,2.60E-02
129363,6.81E-03,2.61E-02
129364,6.70E-03,2.62E-02
129365,6.32E-03,2.63E-02
129366,7.20E-03,2.58E-02
129367,7.32E-03,2.62E-02
129368,6.57E-03,2.59E-02
129369,6.85E-03,2.63E-02
129370,4.13E-03,2.60E-02
129371,5.20E-03,2.63E-02
129372,6.41E-03,2.66E-02
129373,8.19E-03,1.67E-02
129374,8.19E-03,5.19E-03
129375,8.80E-03,2.03E-02
129376,6.67E-03,5.71E-03
129377,7.75E-03,4.83E-03
129378,5.56E-03,4.64E-03
129379,6.45E-03,4.48E-03
129380,8.20E-03,1.32E-02
129381,7.57E-03,1.25E-02
129382,5.81E-03,8.23E-04
129383,6.81E-03,4.13E-02
129384,7.06E-03,4.14E-02
129385,7.22E-03,4.15E-02
129386,7.68E-03,4.17E-02
129387,7.75E-03,4.19E-02
129388,7.94E-03,4.21E-02
129389,7.94E-03,4.23E-02
129390,7.94E-03,4.26E-02
129391,7.94E-03,4.28E-02
129392,7.94E-03,4.32E-02
129393,7.94E-03,4.35E-02
129394,7.94E-03,4.39E-02
129395,7.94E-03,4.43E-02
129396,7.94E-03,4.48E-02
129397,7.94E-03,4.54E-02
129398,7.94E-03,4.60E-02
129399,7.94E-03,4.67E-02
129400,7.94E-03,4.74E-02
129401,7.94E-03,4.82E-02
129402,7.94E-03,4.91E-02
129403,7.94E-03,5.01E-02
129404,7.94E-03,5.12E-02
129405,7.94E-03,5.24E-02
129406,7.94E-03,5.37E-02
129407,7.94E-03,5.50E-02
129408,7.95E-03,5.63E-02
129409,8.08E-03,5.78E-02
129410,8.25E-03,5.93E-02
129411,8.66E-03,6.09E-02
129412,8.80E-03,6.30E-02
129413,8.52E-03,6.49E-02
129414,7.91E-03,6.70E-02
129415,7.31E-03,6.93E-02
129416,7.21E-03,7.13E-02
129417,7.63E-03,7.32E-02
129418,8.25E-03,2.36E-03
129419,8.81E-03,1.87E-02
129420,6.23E-03,2.33E-02
129421,6.11E-03,2.15E-03
129422,5.18E-03,2.26E-02
129423,8.07E-03,1.62E-02
129424,8.06E-03,1.57E-02
129425,7.95E-03,1.52E-02
129426,7.85E-03,1.48E-02
129427,7.72E-03,1.43E-02
129428,7.61E-03,1.38E-02
129429,7.54E-03,1.34E-02
129430,7.76E-03,1.29E-02
129431,8.00E-03,1.10E-02
129432,8.07E-03,1.06E-02
129433,8.28E-03,1.02E-02
129434,8.36E-03,9.83E-03
129435,8.24E-03,9.47E-03
129436,8.10E-03,9.11E-03
129437,8.10E-03,8.76E-03
129438,8.04E-03,8.42E-03
129439,8.04E-03,8.07E-03
129440,8.22E-03,7.74E-03
129441,8.96E-03,7.31E-03
129442,5.76E-03,7.08E-03
129443,4.40E-03,6.77E-03
129444,6.63E-03,6.67E-03
129445,7.09E-03,6.60E-03
129446,7.23E-03,6.51E-03
129447,6.36E-03,5.63E-03
129448,6.93E-03,4.64E-03
129449,7.27E-03,4.60E-03
129450,7.30E-03,4.59E-03
129451,7.62E-03,4.57E-03
129452,7.64E-03,4.56E-03
129453,7.76E-03,4.54E-03
129454,8.03E-03,4.52E-03
129455,8.08E-03,4.50E-03
129456,8.08E-03,4.47E-03
129457,8.11E-03,4.45E-03
129458,8.12E-03,4.42E-03
129459,8.24E-03,4.39E-03
129460,8.37E-03,4.37E-03
129461,8.56E-03,4.34E-03
129462,8.77E-03,4.30E-03
129463,9.10E-03,4.26E-03
129464,9.42E-03,4.22E-03
129465,9.76E-03,4.15E-03
129466,9.66E-03,4.10E-03
129467,9.06E-03,4.03E-03
129468,8.57E-03,3.95E-03
129469,8.32E-03,3.87E-03
129470,8.16E-03,3.80E-03
129471,7.89E-03,3.72E-03
129472,7.82E-03,3.29E-03
129473,9.06E-03,3.07E-03
129474,8.94E-03,3.14E-03
129475,8.18E-03,2.98E-03
129476,8.03E-03,2.89E-03
129477,7.98E-03,2.81E-03
129478,8.07E-03,2.73E-03
129479,8.14E-03,2.66E-03
129480,8.19E-03,2.59E-03
129481,8.16E-03,2.52E-03
129482,8.09E-03,2.45E-03
129483,7.90E-03,1.52E-02
129484,8.40E-03,1.49E-02
129485,8.41E-03,1.45E-02
129486,8.38E-03,1.42E-02
129487,8.10E-03,1.39E-02
129488,9.53E-03,1.36E-02
129489,9.07E-03,1.33E-02
129490,7.29E-03,2.38E-02
129491,6.71E-03,2.42E-02
129492,5.99E-03,2.45E-02
129493,6.23E-03,2.47E-02
129494,8.42E-03,1.20E-02
129495,9.39E-03,1.18E-02
129496,9.54E-03,1.14E-02
129497,9.71E-03,1.09E-02
129498,9.58E-03,1.04E-02
129499,9.00E-03,9.82E-03
129500,8.70E-03,9.24E-03
129501,8.26E-03,8.67E-03
129502,8.04E-03,8.13E-03
129503,8.04E-03,7.62E-03
129504,8.04E-03,7.14E-03
129505,8.04E-03,6.68E-03
129506,8.04E-03,6.27E-03
129507,8.03E-03,5.89E-03
129508,8.03E-03,5.55E-03
129509,8.02E-03,5.26E-03
129510,8.02E-03,5.00E-03
129511,8.02E-03,4.79E-03
129512,8.02E-03,4.61E-03
129513,8.01E-03,4.47E-03
129514,8.01E-03,4.37E-03
129515,8.01E-03,4.30E-03
129516,8.00E-03,4.26E-03
129517,8.00E-03,4.24E-03
129518,8.00E-03,4.25E-03
129519,8.00E-03,4.28E-03
129520,7.99E-03,4.33E-03
129521,7.99E-03,4.40E-03
129522,7.99E-03,4.48E-03
129523,7.99E-03,4.56E-03
129524,8.12E-03,4.66E-03
129525,8.41E-03,4.77E-03
129526,8.63E-03,4.89E-03
129527,8.65E-03,5.01E-03
129528,8.55E-03,5.13E-03
129529,8.45E-03,5.26E-03
129530,8.39E-03,5.39E-03
129531,8.35E-03,5.52E-03
129532,8.31E-03,5.64E-03
129533,8.29E-03,5.78E-03
129534,8.26E-03,5.91E-03
129535,8.22E-03,6.04E-03
129536,8.20E-03,6.17E-03
129537,8.24E-03,6.31E-03
129538,8.30E-03,6.44E-03
129539,8.29E-03,6.58E-03
129540,8.11E-03,6.71E-03
129541,7.98E-03,6.85E-03
129542,7.98E-03,6.98E-03
129543,7.98E-03,7.12E-03
129544,7.97E-03,7.26E-03
129545,7.94E-03,7.40E-03
129546,7.92E-03,7.54E-03
129547,7.90E-03,7.68E-03
129548,7.87E-03,7.82E-03
129549,7.84E-03,7.96E-03
129550,7.80E-03,8.10E-03
129551,7.76E-03,8.25E-03
129552,7.69E-03,8.39E-03
129553,7.61E-03,8.53E-03
129554,7.40E-03,8.66E-03
129555,7.15E-03,8.79E-03
129556,7.55E-03,8.92E-03
129557,8.23E-03,9.06E-03
129558,8.58E-03,9.21E-03
129559,8.68E-03,9.36E-03
129560,8.57E-03,9.51E-03
129561,8.49E-03,9.65E-03
129562,8.43E-03,9.79E-03
129563,8.38E-03,9.93E-03
129564,8.34E-03,1.01E-02
129565,8.31E-03,1.02E-02
129566,8.29E-03,1.03E-02
129567,8.27E-03,1.05E-02
129568,8.25E-03,1.06E-02
129569,8.24E-03,1.07E-02
129570,8.53E-03,1.09E-02
129571,8.94E-03,1.10E-02
129572,8.89E-03,1.11E-02
129573,8.63E-03,1.12E-02
129574,8.49E-03,1.14E-02
129575,8.40E-03,1.15E-02
129576,8.34E-03,1.16E-02
129577,8.29E-03,1.17E-02
129578,8.26E-03,1.18E-02
129579,8.24E-03,1.20E-02
129580,8.22E-03,1.21E-02
129581,8.20E-03,1.22E-02
129582,8.19E-03,1.23E-02
129583,8.18E-03,1.24E-02
129584,8.17E-03,1.25E-02
129585,8.16E-03,1.26E-02
129586,8.15E-03,1.27E-02
129587,8.15E-03,1.28E-02
129588,8.14E-03,1.28E-02
129589,8.14E-03,1.29E-02
129590,8.14E-03,1.30E-02
129591,8.13E-03,1.31E-02
129592,8.13E-03,1.32E-02
129593,8.13E-03,1.33E-02
129594,8.12E-03,1.34E-02
129595,8.12E-03,1.34E-02
129596,8.12E-03,1.35E-02
129597,8.12E-03,1.36E-02
129598,8.11E-03,1.37E-02
129599,8.11E-03,1.38E-02
129600,8.11E-03,1.38E-02
129601,8.11E-03,1.39E-02
129602,8.11E-03,1.40E-02
129603,8.11E-03,1.41E-02
129604,8.11E-03,1.41E-02
129605,8.11E-03,1.42E-02
129606,8.10E-03,1.43E-02
129607,8.10E-03,1.43E-02
129608,8.10E-03,1.44E-02
129609,8.10E-03,1.45E-02
129610,8.10E-03,1.46E-02
129611,8.10E-03,1.46E-02
129612,8.10E-03,1.47E-02
129613,8.10E-03,1.48E-02
129614,8.10E-03,1.48E-02
129615,8.10E-03,1.49E-02
129616,8.10E-03,1.50E-02
129617,8.10E-03,1.51E-02
129618,8.10E-03,1.51E-02
129619,8.10E-03,1.52E-02
129620,8.10E-03,1.53E-02
129621,8.10E-03,1.53E-02
129622,8.10E-03,1.54E-02
129623,8.10E-03,1.55E-02
129624,8.10E-03,1.55E-02
129625,8.09E-03,1.56E-02
129626,8.09E-03,1.57E-02
129627,8.09E-03,1.57E-02
129628,8.09E-03,1.58E-02
129629,8.09E-03,1.59E-02
129630,8.09E-03,1.59E-02
129631,8.09E-03,1.60E-02
129632,8.09E-03,1.61E-02
129633,8.09E-03,1.61E-02
129634,8.09E-03,1.62E-02
129635,8.09E-03,1.63E-02
129636,8.09E-03,1.63E-02
129637,8.09E-03,1.64E-02
129638,8.09E-03,1.65E-02
129639,8.09E-03,1.65E-02
129640,8.09E-03,1.66E-02
129641,8.09E-03,1.66E-02
129642,8.09E-03,1.67E-02
129643,8.09E-03,1.68E-02
129644,8.09E-03,1.68E-02
129645,8.10E-03,1.69E-02
129646,8.10E-03,1.70E-02
129647,8.10E-03,1.70E-02
129648,8.10E-03,1.71E-02
129649,8.10E-03,1.72E-02
129650,8.10E-03,1.72E-02
129651,8.10E-03,1.73E-02
129652,8.10E-03,1.74E-02
129653,8.10E-03,1.74E-02
129654,8.10E-03,1.75E-02
129655,8.11E-03,1.75E-02
129656,8.11E-03,1.76E-02
129657,8.11E-03,1.77E-02
129658,8.11E-03,1.77E-02
129659,8.11E-03,1.78E-02
129660,8.11E-03,1.79E-02
129661,8.12E-03,1.79E-02
129662,8.12E-03,1.80E-02
129663,8.12E-03,1.80E-02
129664,8.12E-03,1.81E-02
129665,8.13E-03,1.81E-02
129666,8.13E-03,1.82E-02
129667,8.14E-03,1.83E-02
129668,8.14E-03,1.83E-02
129669,8.15E-03,1.84E-02
129670,8.16E-03,1.84E-02
129671,8.17E-03,1.85E-02
129672,8.18E-03,1.85E-02
129673,8.20E-03,1.86E-02
129674,8.22E-03,1.86E-02
129675,8.24E-03,1.86E-02
129676,8.27E-03,1.87E-02
129677,8.31E-03,1.87E-02
129678,8.37E-03,1.88E-02
129679,8.47E-03,1.88E-02
129680,8.62E-03,1.89E-02
129681,8.57E-03,1.90E-02
129682,8.01E-03,1.90E-02
129683,7.64E-03,1.91E-02
129684,7.74E-03,1.91E-02
129685,7.81E-03,1.92E-02
129686,7.86E-03,1.92E-02
129687,7.90E-03,1.93E-02
129688,7.92E-03,1.93E-02
129689,7.95E-03,1.94E-02
129690,7.96E-03,1.94E-02
129691,7.98E-03,1.95E-02
129692,7.99E-03,1.95E-02
129693,8.00E-03,1.96E-02
129694,8.00E-03,1.96E-02
129695,8.01E-03,1.97E-02
129696,8.02E-03,1.97E-02
129697,8.02E-03,1.98E-02
129698,8.03E-03,1.99E-02
129699,8.03E-03,1.99E-02
129700,8.03E-03,2.00E-02
129701,8.04E-03,2.00E-02
129702,8.04E-03,2.01E-02
129703,8.04E-03,2.02E-02
129704,8.04E-03,2.02E-02
129705,8.05E-03,2.03E-02
129706,8.05E-03,2.04E-02
129707,8.05E-03,2.04E-02
129708,8.05E-03,2.05E-02
129709,8.05E-03,2.06E-02
129710,8.05E-03,2.07E-02
129711,8.05E-03,2.07E-02
129712,8.06E-03,2.08E-02
129713,8.06E-03,2.09E-02
129714,8.07E-03,2.10E-02
129715,8.07E-03,2.11E-02
129716,8.07E-03,2.11E-02
129717,8.07E-03,2.12E-02
129718,8.07E-03,2.13E-02
129719,8.08E-03,2.14E-02
129720,8.10E-03,2.15E-02
129721,8.11E-03,2.16E-02
129722,8.11E-03,2.16E-02
129723,8.11E-03,2.17E-02
129724,8.12E-03,2.18E-02
129725,8.12E-03,2.19E-02
129726,8.12E-03,2.20E-02
129727,8.12E-03,2.21E-02
129728,8.13E-03,2.21E-02
129729,8.13E-03,2.22E-02
129730,8.14E-03,2.23E-02
129731,8.14E-03,2.24E-02
129732,8.15E-03,2.25E-02
129733,8.15E-03,2.25E-02
129734,8.16E-03,2.26E-02
129735,8.17E-03,2.27E-02
129736,8.18E-03,2.27E-02
129737,8.19E-03,2.27E-02
129738,8.21E-03,2.28E-02
129739,8.23E-03,2.28E-02
129740,8.26E-03,2.28E-02
129741,8.30E-03,2.28E-02
129742,8.35E-03,2.28E-02
129743,8.45E-03,2.28E-02
129744,8.32E-03,2.28E-02
129745,8.00E-03,2.28E-02
129746,7.82E-03,2.28E-02
129747,7.41E-03,1.68E-02
129748,7.66E-03,1.50E-02
129749,7.61E-03,1.47E-02
129750,7.75E-03,1.41E-02
129751,7.48E-03,1.37E-02
129752,7.35E-03,1.34E-02
129753,7.62E-03,1.30E-02
129754,7.95E-03,1.27E-02
129755,8.37E-03,1.25E-02
129756,8.55E-03,1.24E-02
129757,8.64E-03,1.24E-02
129758,8.61E-03,1.23E-02
129759,8.48E-03,1.23E-02
129760,8.40E-03,1.23E-02
129761,8.26E-03,1.23E-02
129762,8.27E-03,1.24E-02
129763,8.29E-03,1.24E-02
129764,8.30E-03,1.25E-02
129765,8.31E-03,1.26E-02
129766,8.32E-03,1.27E-02
129767,8.33E-03,1.27E-02
129768,8.34E-03,1.28E-02
129769,8.34E-03,1.29E-02
129770,8.35E-03,1.30E-02
129771,8.36E-03,1.31E-02
129772,8.38E-03,1.32E-02
129773,8.39E-03,1.33E-02
129774,8.40E-03,1.34E-02
129775,8.41E-03,1.35E-02
129776,8.43E-03,1.36E-02
129777,8.45E-03,1.37E-02
129778,8.48E-03,1.38E-02
129779,8.50E-03,1.39E-02
129780,8.53E-03,1.40E-02
129781,8.55E-03,1.41E-02
129782,8.56E-03,1.42E-02
129783,8.57E-03,1.43E-02
129784,8.57E-03,1.44E-02
129785,8.57E-03,1.45E-02
129786,8.56E-03,1.46E-02
129787,8.55E-03,1.47E-02
129788,8.54E-03,1.48E-02
129789,8.53E-03,1.49E-02
129790,8.53E-03,1.49E-02
129791,8.52E-03,1.50E-02
129792,8.51E-03,1.51E-02
129793,8.51E-03,1.52E-02
129794,8.50E-03,1.53E-02
129795,8.49E-03,1.54E-02
129796,8.49E-03,1.55E-02
129797,8.48E-03,1.56E-02
129798,8.48E-03,1.57E-02
129799,8.47E-03,1.58E-02
129800,8.46E-03,1.59E-02
129801,8.46E-03,1.60E-02
129802,8.45E-03,1.61E-02
129803,8.45E-03,1.62E-02
129804,8.45E-03,1.63E-02
129805,8.45E-03,1.64E-02
129806,8.44E-03,1.65E-02
129807,8.42E-03,1.66E-02
129808,8.40E-03,1.67E-02
129809,8.37E-03,1.68E-02
129810,8.36E-03,1.69E-02
129811,8.35E-03,1.70E-02
129812,8.36E-03,1.71E-02
129813,8.41E-03,1.71E-02
129814,8.48E-03,1.72E-02
129815,8.67E-03,1.73E-02
129816,8.70E-03,1.74E-02
129817,9.04E-03,1.76E-02
129818,9.31E-03,1.77E-02
129819,9.58E-03,1.78E-02
129820,9.89E-03,1.79E-02
129821,1.03E-02,1.80E-02
129822,1.04E-02,1.82E-02
129823,1.04E-02,1.83E-02
129824,6.01E-03,2.31E-02
129825,5.82E-03,2.32E-02
129826,6.03E-03,2.32E-02
129827,6.30E-03,2.33E-02
129828,6.42E-03,2.33E-02
129829,6.73E-03,2.34E-02
129830,7.23E-03,2.34E-02
129831,7.53E-03,2.34E-02
129832,7.78E-03,2.33E-02
129833,7.90E-03,2.33E-02
129834,7.99E-03,2.32E-02
129835,8.33E-03,2.32E-02
129836,8.36E-03,2.31E-02
129837,8.39E-03,2.31E-02
129838,8.44E-03,2.31E-02
129839,8.50E-03,2.31E-02
129840,8.53E-03,2.31E-02
129841,8.68E-03,2.31E-02
129842,9.13E-03,2.32E-02
129843,8.37E-03,2.32E-02
129844,6.59E-03,2.33E-02
129845,6.20E-03,2.33E-02
129846,6.88E-03,2.34E-02
129847,7.34E-03,2.34E-02
129848,7.56E-03,2.34E-02
129849,7.69E-03,2.35E-02
129850,7.78E-03,2.35E-02
129851,7.83E-03,2.35E-02
129852,7.87E-03,2.36E-02
129853,7.91E-03,2.36E-02
129854,7.93E-03,2.36E-02
129855,7.95E-03,2.37E-02
129856,7.96E-03,2.37E-02
129857,7.98E-03,2.38E-02
129858,7.99E-03,2.39E-02
129859,8.00E-03,2.39E-02
129860,8.00E-03,2.40E-02
129861,8.01E-03,2.41E-02
129862,8.00E-03,2.42E-02
129863,8.00E-03,2.42E-02
129864,8.02E-03,2.43E-02
129865,8.04E-03,2.44E-02
129866,8.05E-03,2.45E-02
129867,8.06E-03,2.46E-02
129868,8.06E-03,2.47E-02
129869,8.07E-03,2.48E-02
129870,8.08E-03,2.49E-02
129871,8.10E-03,2.50E-02
129872,8.11E-03,2.51E-02
129873,8.11E-03,2.52E-02
129874,8.11E-03,2.53E-02
129875,8.11E-03,2.54E-02
129876,8.12E-03,2.55E-02
129877,8.12E-03,2.56E-02
129878,8.12E-03,2.57E-02
129879,8.12E-03,2.58E-02
129880,8.12E-03,2.59E-02
129881,8.13E-03,2.60E-02
129882,8.13E-03,2.61E-02
129883,8.13E-03,2.63E-02
129884,8.13E-03,2.64E-02
129885,8.14E-03,2.65E-02
129886,8.14E-03,2.66E-02
129887,8.14E-03,2.67E-02
129888,8.15E-03,2.68E-02
129889,8.15E-03,2.69E-02
129890,8.16E-03,2.70E-02
129891,8.16E-03,2.71E-02
129892,8.17E-03,2.72E-02
129893,8.18E-03,2.73E-02
129894,8.18E-03,2.74E-02
129895,8.19E-03,2.75E-02
129896,8.20E-03,2.76E-02
129897,8.22E-03,2.77E-02
129898,8.23E-03,2.77E-02
129899,8.24E-03,2.78E-02
129900,8.25E-03,2.79E-02
129901,8.26E-03,2.79E-02
129902,8.26E-03,2.80E-02
129903,8.27E-03,2.81E-02
129904,8.27E-03,2.81E-02
129905,8.30E-03,2.81E-02
129906,8.34E-03,2.81E-02
129907,8.38E-03,2.81E-02
129908,8.44E-03,2.81E-02
129909,8.51E-03,2.81E-02
129910,8.61E-03,2.81E-02
129911,8.77E-03,2.80E-02
129912,9.01E-03,2.80E-02
129913,9.22E-03,2.80E-02
129914,9.20E-03,2.79E-02
129915,9.05E-03,2.79E-02
129916,8.93E-03,2.79E-02
129917,8.83E-03,2.79E-02
129918,8.94E-03,2.79E-02
129919,9.13E-03,2.79E-02
129920,8.83E-03,2.79E-02
129921,8.40E-03,2.79E-02
129922,8.27E-03,2.80E-02
129923,8.15E-03,2.80E-02
129924,8.03E-03,2.80E-02
129925,7.95E-03,2.80E-02
129926,7.78E-03,2.80E-02
129927,7.12E-03,2.79E-02
129928,6.88E-03,2.79E-02
129929,7.26E-03,2.79E-02
129930,7.46E-03,2.79E-02
129931,7.45E-03,2.78E-02
129932,7.14E-03,2.78E-02
129933,6.70E-03,2.78E-02
129934,6.70E-03,2.78E-02
129935,7.11E-03,2.77E-02
129936,7.39E-03,2.77E-02
129937,7.56E-03,2.77E-02
129938,7.70E-03,2.77E-02
129939,7.79E-03,2.77E-02
129940,7.80E-03,2.77E-02
129941,7.80E-03,2.77E-02
129942,7.81E-03,2.77E-02
129943,7.81E-03,2.78E-02
129944,7.81E-03,2.78E-02
129945,7.89E-03,2.79E-02
129946,8.03E-03,2.79E-02
129947,8.10E-03,2.80E-02
129948,8.10E-03,2.81E-02
129949,8.10E-03,2.82E-02
129950,8.11E-03,2.82E-02
129951,8.12E-03,2.83E-02
129952,8.15E-03,2.84E-02
129953,8.17E-03,2.85E-02
129954,8.17E-03,2.86E-02
129955,8.18E-03,2.87E-02
129956,8.18E-03,2.88E-02
129957,8.19E-03,2.89E-02
129958,8.20E-03,2.90E-02
129959,8.20E-03,2.90E-02
129960,8.21E-03,2.91E-02
129961,8.22E-03,2.92E-02
129962,8.23E-03,2.93E-02
129963,8.24E-03,2.93E-02
129964,8.26E-03,2.94E-02
129965,8.27E-03,2.94E-02
129966,8.29E-03,2.95E-02
129967,8.31E-03,2.95E-02
129968,8.34E-03,2.96E-02
129969,8.36E-03,2.96E-02
129970,8.38E-03,2.96E-02
129971,8.41E-03,2.96E-02
129972,8.44E-03,2.96E-02
129973,8.48E-03,2.96E-02
129974,8.53E-03,2.95E-02
129975,8.58E-03,2.95E-02
129976,8.65E-03,2.95E-02
129977,8.74E-03,2.95E-02
129978,8.84E-03,2.95E-02
129979,8.86E-03,2.95E-02
129980,8.79E-03,2.95E-02
129981,8.77E-03,2.95E-02
129982,8.85E-03,2.96E-02
129983,9.12E-03,2.96E-02
129984,9.06E-03,2.97E-02
129985,7.70E-03,2.98E-02
129986,6.68E-03,2.98E-02
129987,6.88E-03,2.99E-02
129988,7.13E-03,2.99E-02
129989,7.10E-03,3.00E-02
129990,7.03E-03,3.00E-02
129991,6.84E-03,3.00E-02
129992,6.61E-03,3.00E-02
129993,6.33E-03,3.00E-02
129994,6.50E-03,3.01E-02
129995,6.85E-03,3.01E-02
129996,7.18E-03,3.01E-02
129997,7.47E-03,3.01E-02
129998,7.80E-03,3.01E-02
129999,7.85E-03,3.01E-02
130000,7.89E-03,3.02E-02
130001,7.92E-03,3.03E-02
130002,7.95E-03,3.03E-02
130003,7.96E-03,3.04E-02
130004,7.98E-03,3.05E-02
130005,7.99E-03,3.07E-02
130006,8.00E-03,3.08E-02
130007,8.01E-03,3.09E-02
130008,8.01E-03,3.11E-02
130009,8.02E-03,3.13E-02
130010,8.02E-03,3.14E-02
130011,8.03E-03,3.16E-02
130012,8.03E-03,3.18E-02
130013,8.04E-03,3.20E-02
130014,8.04E-03,3.21E-02
130015,8.04E-03,3.23E-02
130016,8.05E-03,3.25E-02
130017,8.05E-03,3.27E-02
130018,8.05E-03,3.29E-02
130019,8.05E-03,3.31E-02
130020,8.05E-03,3.33E-02
130021,8.05E-03,3.35E-02
130022,8.06E-03,3.37E-02
130023,8.06E-03,3.39E-02
130024,8.06E-03,3.41E-02
130025,8.06E-03,3.43E-02
130026,8.06E-03,3.45E-02
130027,8.06E-03,3.47E-02
130028,8.06E-03,3.49E-02
130029,8.06E-03,3.51E-02
130030,8.06E-03,3.53E-02
130031,8.06E-03,3.55E-02
130032,8.06E-03,3.58E-02
130033,8.06E-03,3.60E-02
130034,8.06E-03,3.62E-02
130035,8.06E-03,3.64E-02
130036,8.06E-03,3.66E-02
130037,8.06E-03,3.68E-02
130038,8.07E-03,3.71E-02
130039,8.07E-03,3.73E-02
130040,8.07E-03,3.75E-02
130041,8.07E-03,3.77E-02
130042,8.07E-03,3.80E-02
130043,8.07E-03,3.82E-02
130044,8.07E-03,3.84E-02
130045,8.07E-03,3.87E-02
130046,8.07E-03,3.89E-02
130047,8.07E-03,3.91E-02
130048,8.07E-03,3.94E-02
130049,8.07E-03,3.96E-02
130050,8.07E-03,3.99E-02
130051,8.07E-03,4.01E-02
130052,8.02E-03,4.04E-02
130053,8.04E-03,4.06E-02
130054,8.08E-03,4.09E-02
130055,8.15E-03,4.12E-02
130056,7.90E-03,6.03E-03
130057,8.05E-03,6.03E-03
130058,7.96E-03,6.03E-03
130059,7.71E-03,6.04E-03
130060,7.15E-03,6.05E-03
130061,6.69E-03,6.06E-03
130062,5.66E-03,6.06E-03
130063,6.03E-03,6.13E-03
130064,7.03E-03,6.15E-03
130065,8.57E-03,6.20E-03
130066,8.39E-03,6.24E-03
130067,8.12E-03,6.27E-03
130068,7.76E-03,6.29E-03
130069,7.53E-03,6.31E-03
130070,7.26E-03,6.33E-03
130071,7.21E-03,6.35E-03
130072,7.39E-03,6.36E-03
130073,7.78E-03,6.37E-03
130074,8.21E-03,6.37E-03
130075,9.96E-03,6.36E-03
130076,9.66E-03,6.36E-03
130077,9.33E-03,6.36E-03
130078,9.21E-03,6.37E-03
130079,8.95E-03,6.38E-03
130080,8.76E-03,6.38E-03
130081,8.59E-03,6.38E-03
130082,8.33E-03,6.37E-03
130083,8.30E-03,6.36E-03
130084,8.04E-03,6.34E-03
130085,7.59E-03,6.32E-03
130086,7.56E-03,6.29E-03
130087,7.72E-03,6.27E-03
130088,7.65E-03,6.24E-03
130089,7.48E-03,6.21E-03
130090,7.32E-03,6.17E-03
130091,7.05E-03,6.14E-03
130092,6.53E-03,6.11E-03
130093,7.05E-03,6.09E-03
130094,7.98E-03,6.06E-03
130095,8.06E-03,6.03E-03
130096,8.08E-03,6.00E-03
130097,8.08E-03,5.97E-03
130098,8.08E-03,5.95E-03
130099,7.97E-03,5.92E-03
130100,7.82E-03,5.90E-03
130101,7.75E-03,5.88E-03
130102,7.68E-03,5.86E-03
130103,7.59E-03,5.84E-03
130104,7.47E-03,5.82E-03
130105,7.79E-03,5.80E-03
130106,8.46E-03,5.78E-03
130107,8.97E-03,5.77E-03
130108,9.14E-03,5.75E-03
130109,8.96E-03,5.73E-03
130110,8.77E-03,5.71E-03
130111,8.59E-03,5.69E-03
130112,8.22E-03,5.68E-03
130113,7.94E-03,5.66E-03
130114,7.73E-03,5.64E-03
130115,7.35E-03,5.62E-03
130116,7.18E-03,5.61E-03
130117,7.10E-03,5.59E-03
130118,7.29E-03,5.57E-03
130119,8.06E-03,5.56E-03
130120,8.75E-03,5.54E-03
130121,9.12E-03,5.52E-03
130122,9.05E-03,5.50E-03
130123,8.46E-03,5.48E-03
130124,8.41E-03,5.46E-03
130125,8.03E-03,5.44E-03
130126,7.76E-03,5.42E-03
130127,7.45E-03,5.40E-03
130128,7.26E-03,5.38E-03
130129,7.17E-03,5.37E-03
130130,7.35E-03,5.35E-03
130131,8.12E-03,5.33E-03
130132,8.25E-03,5.31E-03
130133,8.89E-03,5.29E-03
130134,9.33E-03,5.28E-03
130135,9.52E-03,5.26E-03
130136,9.13E-03,5.24E-03
130137,8.64E-03,5.22E-03
130138,8.45E-03,5.20E-03
130139,7.69E-03,5.18E-03
130140,7.43E-03,5.16E-03
130141,6.66E-03,5.14E-03
130142,6.29E-03,5.12E-03
130143,6.43E-03,5.10E-03
130144,6.48E-03,5.09E-03
130145,7.01E-03,5.07E-03
130146,8.00E-03,5.05E-03
130147,8.96E-03,5.03E-03
130148,9.66E-03,5.00E-03
130149,9.74E-03,4.96E-03
130150,1.00E-02,4.93E-03
130151,9.75E-03,4.89E-03
130152,9.39E-03,4.86E-03
130153,9.30E-03,4.82E-03
130154,9.08E-03,4.78E-03
130155,8.80E-03,4.74E-03
130156,8.70E-03,4.69E-03
130157,8.47E-03,4.65E-03
130158,8.41E-03,4.60E-03
130159,8.37E-03,4.55E-03
130160,8.29E-03,4.50E-03
130161,8.13E-03,4.45E-03
130162,7.97E-03,4.40E-03
130163,7.92E-03,4.34E-03
130164,7.91E-03,4.29E-03
130165,7.89E-03,4.24E-03
130166,7.86E-03,4.18E-03
130167,7.82E-03,4.13E-03
130168,7.77E-03,4.08E-03
130169,7.71E-03,4.03E-03
130170,7.61E-03,3.99E-03
130171,7.48E-03,3.94E-03
130172,7.25E-03,3.90E-03
130173,6.94E-03,3.86E-03
130174,7.02E-03,3.82E-03
130175,7.37E-03,3.79E-03
130176,7.45E-03,3.76E-03
130177,7.36E-03,3.73E-03
130178,7.24E-03,3.70E-03
130179,7.08E-03,3.68E-03
130180,7.36E-03,3.66E-03
130181,8.87E-03,3.64E-03
130182,9.84E-03,3.61E-03
130183,9.45E-03,3.58E-03
130184,9.10E-03,3.55E-03
130185,8.88E-03,3.52E-03
130186,8.74E-03,3.48E-03
130187,8.64E-03,3.45E-03
130188,8.42E-03,3.41E-03
130189,8.05E-03,3.38E-03
130190,7.79E-03,3.35E-03
130191,7.70E-03,3.31E-03
130192,7.64E-03,3.28E-03
130193,7.57E-03,3.25E-03
130194,7.49E-03,3.22E-03
130195,7.37E-03,3.20E-03
130196,7.23E-03,3.17E-03
130197,7.26E-03,3.15E-03
130198,7.51E-03,3.13E-03
130199,7.63E-03,3.11E-03
130200,7.59E-03,3.09E-03
130201,7.56E-03,3.07E-03
130202,7.55E-03,3.06E-03
130203,7.95E-03,3.04E-03
130204,8.55E-03,3.03E-03
130205,8.71E-03,3.02E-03
130206,8.63E-03,3.00E-03
130207,8.56E-03,2.98E-03
130208,8.49E-03,2.96E-03
130209,8.37E-03,2.94E-03
130210,8.21E-03,2.92E-03
130211,8.10E-03,2.90E-03
130212,8.08E-03,2.88E-03
130213,8.10E-03,2.85E-03
130214,8.10E-03,2.83E-03
130215,8.15E-03,2.81E-03
130216,8.52E-03,2.79E-03
130217,8.82E-03,2.77E-03
130218,8.71E-03,2.74E-03
130219,8.56E-03,2.71E-03
130220,8.47E-03,2.68E-03
130221,8.47E-03,2.65E-03
130222,8.56E-03,2.61E-03
130223,8.70E-03,2.58E-03
130224,8.91E-03,2.54E-03
130225,8.96E-03,2.50E-03
130226,8.79E-03,2.46E-03
130227,8.63E-03,2.41E-03
130228,8.53E-03,2.36E-03
130229,8.45E-03,2.31E-03
130230,8.42E-03,2.26E-03
130231,8.42E-03,2.21E-03
130232,8.37E-03,2.16E-03
130233,8.29E-03,2.10E-03
130234,8.24E-03,2.05E-03
130235,8.21E-03,2.00E-03
130236,8.19E-03,1.94E-03
130237,8.17E-03,1.89E-03
130238,8.16E-03,1.83E-03
130239,8.15E-03,1.78E-03
130240,8.12E-03,1.73E-03
130241,8.04E-03,1.68E-03
130242,7.99E-03,1.62E-03
130243,7.98E-03,1.57E-03
130244,7.97E-03,1.52E-03
130245,7.96E-03,1.47E-03
130246,7.95E-03,1.43E-03
130247,7.94E-03,1.38E-03
130248,7.93E-03,1.33E-03
130249,7.91E-03,1.29E-03
130250,7.89E-03,1.24E-03
130251,7.87E-03,1.20E-03
130252,7.84E-03,1.16E-03
130253,7.81E-03,1.12E-03
130254,7.77E-03,1.08E-03
130255,7.71E-03,1.04E-03
130256,7.70E-03,1.00E-03
130257,7.76E-03,9.69E-04
130258,7.81E-03,9.35E-04
130259,7.81E-03,9.02E-04
130260,7.78E-03,8.70E-04
130261,7.75E-03,8.40E-04
130262,7.69E-03,8.10E-04
130263,7.59E-03,7.81E-04
130264,7.57E-03,7.55E-04
130265,7.64E-03,7.29E-04
130266,7.70E-03,7.06E-04
130267,7.77E-03,6.83E-04
130268,7.83E-03,6.62E-04
130269,7.72E-03,6.41E-04
130270,7.59E-03,6.20E-04
130271,7.59E-03,5.99E-04
130272,7.32E-03,5.80E-04
130273,7.29E-03,5.59E-04
130274,7.16E-03,5.41E-04
130275,7.04E-03,5.29E-04
130276,6.86E-03,5.21E-04
130277,6.57E-03,5.19E-04
130278,6.45E-03,5.24E-04
130279,6.59E-03,5.39E-04
130280,6.70E-03,5.57E-04
130281,7.34E-03,5.84E-04
130282,7.57E-03,6.25E-04
130283,8.18E-03,6.55E-04
130284,9.00E-03,6.94E-04
130285,9.10E-03,7.17E-04
130286,6.96E-03,7.38E-04
130287,6.98E-03,7.46E-04
130288,6.85E-03,7.51E-04
130289,8.96E-03,8.88E-04
130290,7.51E-03,8.95E-04
130291,7.15E-03,8.98E-04
130292,6.79E-03,8.94E-04
130293,6.09E-03,8.84E-04
130294,5.76E-03,9.00E-04
130295,5.82E-03,9.31E-04
130296,8.29E-03,9.80E-04
130297,8.85E-03,1.05E-03
130298,9.25E-03,1.10E-03
130299,9.65E-03,1.14E-03
130300,9.64E-03,1.20E-03
130301,9.49E-03,1.23E-03
130302,9.27E-03,1.25E-03
130303,7.88E-03,1.27E-03
130304,7.79E-03,1.27E-03
130305,7.44E-03,1.28E-03
130306,6.90E-03,1.30E-03
130307,6.30E-03,1.32E-03
130308,5.61E-03,1.36E-03
130309,8.76E-03,1.40E-03
130310,8.62E-03,1.42E-03
130311,8.18E-03,1.45E-03
130312,7.80E-03,1.49E-03
130313,7.70E-03,1.55E-03
130314,7.45E-03,1.62E-03
130315,8.50E-03,4.81E-03
130316,8.95E-03,4.73E-03
130317,8.82E-03,4.71E-03
130318,7.98E-03,4.69E-03
130319,7.47E-03,4.67E-03
130320,7.06E-03,4.67E-03
130321,6.82E-03,4.68E-03
130322,6.27E-03,4.69E-03
130323,6.39E-03,4.68E-03
130324,6.76E-03,4.68E-03
130325,7.12E-03,4.70E-03
130326,7.37E-03,4.72E-03
130327,7.73E-03,4.75E-03
130328,8.18E-03,4.83E-03
130329,8.95E-03,1.83E-02
130330,6.68E-03,6.02E-03
130331,6.98E-03,5.90E-03
130332,7.14E-03,5.78E-03
130333,6.93E-03,2.05E-03
130334,5.08E-03,1.96E-03
130335,5.49E-03,1.85E-03
130336,8.81E-03,1.88E-02
130337,1.12E-02,1.89E-02
130338,1.15E-02,1.91E-02
130339,1.07E-02,1.93E-02
130340,1.06E-02,1.95E-02
130341,1.06E-02,1.97E-02
130342,1.06E-02,1.99E-02
130343,1.05E-02,2.01E-02
130344,1.05E-02,2.04E-02
130345,1.05E-02,2.06E-02
130346,1.05E-02,2.08E-02
130347,1.04E-02,2.10E-02
130348,1.04E-02,2.13E-02
130349,1.04E-02,2.15E-02
130350,1.04E-02,2.17E-02
130351,1.05E-02,2.19E-02
130352,1.05E-02,2.22E-02
130353,1.04E-02,2.24E-02
130354,1.03E-02,2.26E-02
130355,1.02E-02,2.28E-02
130356,1.00E-02,2.29E-02
130357,9.88E-03,2.31E-02
130358,9.69E-03,2.33E-02
130359,9.57E-03,2.34E-02
130360,9.34E-03,2.36E-02
130361,9.01E-03,2.37E-02
130362,8.99E-03,2.39E-02
130363,8.70E-03,2.40E-02
130364,8.57E-03,2.42E-02
130365,8.51E-03,2.43E-02
130366,8.49E-03,2.44E-02
130367,7.99E-03,2.46E-02
130368,7.89E-03,2.47E-02
130369,7.63E-03,2.48E-02
130370,7.42E-03,2.50E-02
130371,7.47E-03,2.51E-02
130372,6.95E-03,2.53E-02
130373,7.04E-03,2.54E-02
130374,6.74E-03,2.55E-02
130375,6.12E-03,2.56E-02
130376,5.75E-03,2.58E-02
130377,5.62E-03,2.61E-02
130378,6.22E-03,2.59E-02
130379,7.38E-03,2.62E-02
130380,5.73E-03,2.59E-02
130381,1.08E-02,1.86E-02
130382,1.09E-02,6.32E-03
130383,8.89E-03,5.69E-04
130384,7.03E-03,2.72E-02
130385,7.70E-03,2.79E-02
130386,8.38E-03,2.86E-02
130387,7.92E-03,2.91E-02
130388,6.54E-03,1.94E-02
130389,6.51E-03,1.92E-02
130390,6.66E-03,1.90E-02
130391,6.63E-03,1.88E-02
130392,7.85E-03,1.86E-02
130393,7.78E-03,1.83E-02
130394,7.97E-03,1.81E-02
130395,8.00E-03,1.79E-02
130396,8.21E-03,1.77E-02
130397,8.22E-03,1.74E-02
130398,8.23E-03,1.73E-02
130399,8.24E-03,1.71E-02
130400,8.25E-03,1.69E-02
130401,8.27E-03,1.67E-02
130402,8.40E-03,1.65E-02
130403,8.59E-03,1.64E-02
130404,8.72E-03,1.62E-02
130405,8.84E-03,1.60E-02
130406,9.01E-03,1.59E-02
130407,9.25E-03,1.57E-02
130408,9.54E-03,1.56E-02
130409,9.47E-03,1.55E-02
130410,8.94E-03,1.53E-02
130411,8.75E-03,1.52E-02
130412,8.24E-03,1.51E-02
130413,8.12E-03,1.50E-02
130414,7.63E-03,1.49E-02
130415,6.44E-03,1.48E-02
130416,6.42E-03,1.47E-02
130417,6.71E-03,1.46E-02
130418,6.91E-03,1.44E-02
130419,7.11E-03,1.43E-02
130420,7.26E-03,1.42E-02
130421,7.60E-03,1.40E-02
130422,7.87E-03,1.39E-02
130423,7.92E-03,1.37E-02
130424,7.96E-03,1.36E-02
130425,7.99E-03,1.34E-02
130426,8.00E-03,1.33E-02
130427,8.02E-03,1.31E-02
130428,8.02E-03,1.30E-02
130429,8.03E-03,1.29E-02
130430,8.03E-03,1.28E-02
130431,8.03E-03,1.27E-02
130432,8.18E-03,1.25E-02
130433,8.32E-03,1.24E-02
130434,8.28E-03,1.23E-02
130435,8.22E-03,1.22E-02
130436,8.20E-03,1.20E-02
130437,8.22E-03,1.19E-02
130438,8.26E-03,1.18E-02
130439,8.28E-03,1.17E-02
130440,8.31E-03,1.15E-02
130441,8.35E-03,1.14E-02
130442,8.40E-03,1.13E-02
130443,8.48E-03,1.11E-02
130444,8.58E-03,1.10E-02
130445,8.65E-03,1.09E-02
130446,8.74E-03,1.07E-02
130447,8.84E-03,1.06E-02
130448,9.00E-03,1.04E-02
130449,9.05E-03,1.03E-02
130450,9.43E-03,1.02E-02
130451,9.55E-03,1.00E-02
130452,9.79E-03,9.91E-03
130453,7.28E-03,9.80E-03
130454,7.18E-03,9.71E-03
130455,6.90E-03,9.61E-03
130456,6.62E-03,9.50E-03
130457,6.35E-03,9.38E-03
130458,5.72E-03,9.25E-03
130459,6.08E-03,9.13E-03
130460,6.33E-03,9.03E-03
130461,6.70E-03,8.94E-03
130462,7.14E-03,8.86E-03
130463,7.29E-03,8.77E-03
130464,7.47E-03,8.67E-03
130465,7.76E-03,8.57E-03
130466,7.79E-03,8.47E-03
130467,7.93E-03,8.38E-03
130468,7.95E-03,8.30E-03
130469,7.97E-03,8.22E-03
130470,7.99E-03,8.14E-03
130471,8.00E-03,8.07E-03
130472,8.01E-03,8.00E-03
130473,8.02E-03,7.93E-03
130474,8.03E-03,7.87E-03
130475,8.03E-03,7.80E-03
130476,8.04E-03,7.74E-03
130477,8.05E-03,7.68E-03
130478,8.06E-03,7.62E-03
130479,8.06E-03,7.56E-03
130480,8.06E-03,7.50E-03
130481,8.06E-03,7.44E-03
130482,8.06E-03,7.38E-03
130483,8.06E-03,7.32E-03
130484,8.05E-03,7.26E-03
130485,8.05E-03,7.20E-03
130486,8.05E-03,7.14E-03
130487,8.05E-03,7.08E-03
130488,8.05E-03,7.02E-03
130489,8.04E-03,6.96E-03
130490,8.04E-03,6.90E-03
130491,8.04E-03,6.84E-03
130492,8.04E-03,6.78E-03
130493,8.03E-03,6.72E-03
130494,8.03E-03,6.66E-03
130495,8.03E-03,6.60E-03
130496,8.02E-03,6.55E-03
130497,8.02E-03,6.49E-03
130498,8.00E-03,6.44E-03
130499,7.99E-03,6.38E-03
130500,7.97E-03,6.33E-03
130501,7.94E-03,6.29E-03
130502,7.92E-03,6.24E-03
130503,7.83E-03,6.20E-03
130504,7.76E-03,6.17E-03
130505,7.61E-03,6.13E-03
130506,7.32E-03,6.10E-03
130507,7.07E-03,6.06E-03
130508,6.97E-03,6.03E-03
130509,6.73E-03,5.99E-03
130510,6.42E-03,5.95E-03
130511,7.42E-03,5.89E-03
130512,7.50E-03,1.97E-02
130513,7.59E-03,1.72E-02
130514,7.72E-03,1.75E-02
130515,7.25E-03,5.19E-03
130516,5.95E-03,5.20E-03
130517,5.89E-03,5.21E-03
130518,5.32E-03,5.17E-03
130519,3.88E-03,5.25E-03
130520,8.45E-03,2.08E-02
130521,8.05E-03,2.14E-02
130522,8.33E-03,2.19E-02
130523,7.68E-03,1.67E-02
130524,7.86E-03,1.61E-02
130525,5.29E-03,2.22E-02
130526,2.89E-03,2.24E-02
130527,6.41E-03,1.15E-02
130528,7.31E-03,1.11E-02
130529,7.68E-03,1.07E-02
130530,6.95E-03,5.80E-03
130531,6.74E-03,5.30E-03
130532,6.15E-03,4.29E-03
130533,7.43E-03,3.30E-03
130534,7.21E-03,3.19E-03
130535,7.09E-03,3.08E-03
130536,7.29E-03,1.93E-03
130537,7.86E-03,2.04E-03
130538,8.67E-03,1.34E-02
130539,9.22E-03,1.95E-02
130540,5.14E-03,2.26E-02
130541,4.70E-03,2.50E-02
130542,6.41E-03,2.55E-02
130543,7.09E-03,1.28E-02
130544,8.09E-03,1.23E-02
130545,8.88E-03,1.74E-02
130546,7.27E-03,2.31E-02
130547,7.36E-03,2.32E-02
130548,6.94E-03,2.32E-02
130549,7.86E-03,5.84E-03
130550,8.67E-03,3.02E-02
130551,7.71E-03,4.68E-03
130552,8.06E-03,4.62E-03
130553,8.43E-03,4.54E-03
130554,9.21E-03,4.40E-03
130555,7.91E-03,1.72E-02
130556,6.13E-03,5.30E-03
130557,6.76E-03,1.86E-03
130558,1.00E-02,1.38E-03
130559,9.24E-03,4.20E-02
130560,8.48E-03,4.23E-02
130561,6.99E-03,1.60E-03
130562,9.05E-03,3.14E-02
130563,8.88E-03,3.25E-02
130564,9.10E-03,3.38E-02
130565,9.10E-03,3.54E-02
130566,8.96E-03,3.70E-02
130567,8.52E-03,3.87E-02
130568,8.10E-03,4.01E-02
130569,8.05E-03,4.20E-02
130570,7.94E-03,4.43E-02
130571,7.79E-03,4.65E-02
130572,7.59E-03,4.86E-02
130573,7.29E-03,5.09E-02
130574,6.96E-03,5.38E-02
130575,6.82E-03,5.75E-02
130576,7.02E-03,6.22E-02
130577,7.52E-03,6.74E-02
130578,9.07E-03,7.40E-02
130579,1.08E-02,2.00E-02
130580,1.02E-02,2.02E-02
130581,9.88E-03,2.03E-02
130582,9.61E-03,2.05E-02
130583,9.22E-03,2.07E-02
130584,8.95E-03,2.09E-02
130585,8.60E-03,2.11E-02
130586,8.55E-03,2.13E-02
130587,8.54E-03,2.15E-02
130588,8.51E-03,2.17E-02
130589,8.48E-03,2.19E-02
130590,8.45E-03,2.20E-02
130591,8.43E-03,2.22E-02
130592,8.40E-03,2.24E-02
130593,8.38E-03,2.25E-02
130594,8.36E-03,2.26E-02
130595,8.55E-03,2.27E-02
130596,8.86E-03,2.29E-02
130597,8.90E-03,2.30E-02
130598,8.75E-03,2.31E-02
130599,8.64E-03,2.32E-02
130600,8.55E-03,2.33E-02
130601,8.49E-03,2.34E-02
130602,8.43E-03,2.35E-02
130603,8.39E-03,2.36E-02
130604,8.36E-03,2.37E-02
130605,8.29E-03,2.38E-02
130606,8.12E-03,2.38E-02
130607,8.00E-03,2.39E-02
130608,7.96E-03,2.40E-02
130609,7.91E-03,2.41E-02
130610,7.79E-03,2.42E-02
130611,7.56E-03,2.42E-02
130612,7.53E-03,2.43E-02
130613,7.41E-03,2.43E-02
130614,7.19E-03,2.44E-02
130615,6.88E-03,2.44E-02
130616,6.75E-03,2.44E-02
130617,7.76E-03,2.45E-02
130618,8.11E-03,2.45E-02
130619,8.29E-03,2.45E-02
130620,8.36E-03,2.46E-02
130621,8.29E-03,2.47E-02
130622,8.13E-03,2.47E-02
130623,7.91E-03,2.48E-02
130624,7.91E-03,2.49E-02
130625,7.64E-03,2.50E-02
130626,7.47E-03,2.51E-02
130627,6.99E-03,2.51E-02
130628,6.92E-03,2.52E-02
130629,7.46E-03,2.52E-02
130630,7.58E-03,2.52E-02
130631,8.23E-03,2.53E-02
130632,8.71E-03,2.53E-02
130633,8.89E-03,2.54E-02
130634,8.93E-03,2.55E-02
130635,8.81E-03,2.56E-02
130636,8.66E-03,2.57E-02
130637,7.85E-03,2.59E-02
130638,7.66E-03,2.60E-02
130639,7.55E-03,2.62E-02
130640,7.45E-03,2.63E-02
130641,7.03E-03,2.64E-02
130642,6.95E-03,2.65E-02
130643,6.97E-03,2.66E-02
130644,7.08E-03,2.66E-02
130645,7.17E-03,2.66E-02
130646,8.12E-03,2.66E-02
130647,8.59E-03,2.65E-02
130648,7.39E-03,2.65E-02
130649,7.26E-03,1.63E-02
130650,6.17E-03,1.68E-02
130651,6.66E-03,1.75E-02
130652,9.06E-03,7.99E-02
130653,7.93E-03,7.75E-02
130654,7.58E-03,7.51E-02
130655,7.64E-03,7.25E-02
130656,8.03E-03,7.00E-02
130657,8.34E-03,6.78E-02
130658,8.47E-03,6.55E-02
130659,8.41E-03,6.33E-02
130660,8.24E-03,6.12E-02
130661,8.08E-03,5.94E-02
130662,8.00E-03,5.77E-02
130663,7.94E-03,5.61E-02
130664,7.94E-03,5.47E-02
130665,7.94E-03,5.33E-02
130666,7.94E-03,5.21E-02
130667,7.94E-03,5.09E-02
130668,7.94E-03,4.99E-02
130669,7.94E-03,4.90E-02
130670,7.94E-03,4.81E-02
130671,7.94E-03,4.73E-02
130672,7.94E-03,4.66E-02
130673,7.94E-03,4.60E-02
130674,7.94E-03,4.55E-02
130675,7.94E-03,4.50E-02
130676,7.94E-03,4.45E-02
130677,7.94E-03,4.41E-02
130678,7.94E-03,4.38E-02
130679,7.94E-03,4.35E-02
130680,7.94E-03,4.32E-02
130681,7.94E-03,4.30E-02
130682,7.94E-03,4.27E-02
130683,7.76E-03,4.25E-02
130684,7.64E-03,4.23E-02
130685,7.28E-03,4.22E-02
130686,7.04E-03,4.20E-02
130687,6.57E-03,4.19E-02
130688,6.34E-03,2.75E-02
130689,6.09E-03,2.74E-02
130690,6.46E-03,2.76E-02
130691,6.23E-03,2.73E-02
130692,6.37E-03,5.59E-03
130693,6.46E-03,2.74E-02
130694,5.24E-03,2.77E-02
130695,7.53E-03,1.35E-02
130696,5.24E-03,2.22E-02
130697,7.89E-03,1.55E-02
130698,7.96E-03,1.51E-02
130699,7.87E-03,1.46E-02
130700,7.76E-03,1.41E-02
130701,7.70E-03,1.37E-02
130702,7.50E-03,1.32E-02
130703,7.26E-03,1.28E-02
130704,6.39E-03,1.24E-02
130705,4.75E-03,1.22E-02
130706,4.86E-03,1.17E-02
130707,6.07E-03,1.15E-02
130708,7.85E-03,1.03E-02
130709,8.01E-03,9.93E-03
130710,8.29E-03,9.57E-03
130711,8.31E-03,9.20E-03
130712,8.20E-03,8.84E-03
130713,8.10E-03,8.49E-03
130714,8.10E-03,8.14E-03
130715,8.10E-03,7.80E-03
130716,8.04E-03,7.47E-03
130717,8.17E-03,7.15E-03
130718,7.71E-03,6.81E-03
130719,7.88E-03,6.66E-03
130720,7.75E-03,6.18E-03
130721,7.37E-03,5.98E-03
130722,7.00E-03,5.93E-03
130723,7.05E-03,5.87E-03
130724,6.51E-03,5.11E-03
130725,6.17E-03,4.98E-03
130726,5.96E-03,4.90E-03
130727,5.33E-03,4.76E-03
130728,5.35E-03,4.66E-03
130729,5.79E-03,4.66E-03
130730,5.90E-03,4.68E-03
130731,6.99E-03,4.69E-03
130732,7.18E-03,4.19E-03
130733,7.40E-03,4.19E-03
130734,7.41E-03,4.17E-03
130735,7.62E-03,4.16E-03
130736,7.69E-03,4.16E-03
130737,7.78E-03,4.14E-03
130738,8.08E-03,4.13E-03
130739,8.08E-03,4.11E-03
130740,8.09E-03,4.09E-03
130741,8.10E-03,4.06E-03
130742,8.12E-03,4.04E-03
130743,8.21E-03,4.02E-03
130744,8.34E-03,3.99E-03
130745,8.51E-03,3.96E-03
130746,8.64E-03,3.93E-03
130747,9.14E-03,3.89E-03
130748,9.28E-03,3.84E-03
130749,9.45E-03,3.78E-03
130750,9.38E-03,3.72E-03
130751,8.98E-03,3.66E-03
130752,8.62E-03,3.59E-03
130753,8.36E-03,3.51E-03
130754,8.11E-03,3.45E-03
130755,7.68E-03,3.38E-03
130756,7.08E-03,2.97E-03
130757,8.15E-03,2.82E-03
130758,7.90E-03,2.62E-03
130759,7.85E-03,2.53E-03
130760,7.93E-03,2.45E-03
130761,8.00E-03,2.38E-03
130762,8.10E-03,2.31E-03
130763,8.22E-03,2.24E-03
130764,8.16E-03,2.17E-03
130765,8.18E-03,2.10E-03
130766,8.16E-03,1.60E-02
130767,8.24E-03,1.56E-02
130768,8.47E-03,1.52E-02
130769,8.51E-03,1.48E-02
130770,8.61E-03,1.44E-02
130771,9.21E-03,1.40E-02
130772,9.04E-03,1.36E-02
130773,8.01E-03,2.01E-02
130774,7.90E-03,2.06E-02
130775,7.28E-03,2.10E-02
130776,6.31E-03,2.15E-02
130777,8.41E-03,2.28E-02
130778,6.46E-03,2.33E-02
130779,5.87E-03,2.36E-02
130780,4.37E-03,2.38E-02
130781,6.94E-03,2.62E-02
130782,7.74E-03,2.67E-02
130783,8.03E-03,2.72E-02
130784,7.78E-03,2.77E-02
130785,7.74E-03,2.86E-02
130786,7.66E-03,1.33E-02
130787,8.74E-03,1.21E-02
130788,9.42E-03,1.18E-02
130789,9.63E-03,1.14E-02
130790,9.67E-03,1.09E-02
130791,9.52E-03,1.03E-02
130792,8.89E-03,9.60E-03
130793,8.62E-03,8.96E-03
130794,8.24E-03,8.34E-03
130795,8.05E-03,7.75E-03
130796,8.05E-03,7.20E-03
130797,8.05E-03,6.68E-03
130798,8.05E-03,6.20E-03
130799,8.04E-03,5.77E-03
130800,8.04E-03,5.38E-03
130801,8.04E-03,5.03E-03
130802,8.03E-03,4.73E-03
130803,8.03E-03,4.48E-03
130804,8.03E-03,4.26E-03
130805,8.02E-03,4.09E-03
130806,8.02E-03,3.96E-03
130807,8.02E-03,3.87E-03
130808,8.02E-03,3.81E-03
130809,8.01E-03,3.79E-03
130810,8.01E-03,3.79E-03
130811,8.01E-03,3.82E-03
130812,8.01E-03,3.87E-03
130813,8.00E-03,3.94E-03
130814,8.00E-03,4.03E-03
130815,8.00E-03,4.12E-03
130816,8.00E-03,4.23E-03
130817,8.11E-03,4.35E-03
130818,8.37E-03,4.47E-03
130819,8.57E-03,4.61E-03
130820,8.58E-03,4.74E-03
130821,8.49E-03,4.88E-03
130822,8.40E-03,5.02E-03
130823,8.35E-03,5.16E-03
130824,8.32E-03,5.30E-03
130825,8.29E-03,5.44E-03
130826,8.26E-03,5.58E-03
130827,8.24E-03,5.72E-03
130828,8.20E-03,5.86E-03
130829,8.19E-03,6.00E-03
130830,8.22E-03,6.14E-03
130831,8.27E-03,6.28E-03
130832,8.27E-03,6.42E-03
130833,8.11E-03,6.56E-03
130834,7.99E-03,6.70E-03
130835,7.99E-03,6.84E-03
130836,7.99E-03,6.98E-03
130837,7.98E-03,7.12E-03
130838,7.96E-03,7.26E-03
130839,7.94E-03,7.40E-03
130840,7.92E-03,7.55E-03
130841,7.90E-03,7.69E-03
130842,7.87E-03,7.84E-03
130843,7.84E-03,7.98E-03
130844,7.79E-03,8.13E-03
130845,7.74E-03,8.28E-03
130846,7.66E-03,8.42E-03
130847,7.48E-03,8.57E-03
130848,7.26E-03,8.70E-03
130849,7.61E-03,8.84E-03
130850,8.21E-03,8.99E-03
130851,8.52E-03,9.14E-03
130852,8.61E-03,9.29E-03
130853,8.51E-03,9.45E-03
130854,8.44E-03,9.60E-03
130855,8.39E-03,9.75E-03
130856,8.35E-03,9.90E-03
130857,8.31E-03,1.01E-02
130858,8.29E-03,1.02E-02
130859,8.26E-03,1.03E-02
130860,8.25E-03,1.05E-02
130861,8.23E-03,1.06E-02
130862,8.22E-03,1.07E-02
130863,8.48E-03,1.09E-02
130864,8.84E-03,1.10E-02
130865,8.79E-03,1.12E-02
130866,8.57E-03,1.13E-02
130867,8.44E-03,1.14E-02
130868,8.36E-03,1.15E-02
130869,8.31E-03,1.17E-02
130870,8.27E-03,1.18E-02
130871,8.24E-03,1.19E-02
130872,8.22E-03,1.20E-02
130873,8.20E-03,1.21E-02
130874,8.19E-03,1.22E-02
130875,8.18E-03,1.23E-02
130876,8.17E-03,1.24E-02
130877,8.16E-03,1.25E-02
130878,8.15E-03,1.26E-02
130879,8.15E-03,1.27E-02
130880,8.14E-03,1.28E-02
130881,8.14E-03,1.29E-02
130882,8.13E-03,1.30E-02
130883,8.13E-03,1.31E-02
130884,8.13E-03,1.32E-02
130885,8.12E-03,1.32E-02
130886,8.12E-03,1.33E-02
130887,8.12E-03,1.34E-02
130888,8.12E-03,1.35E-02
130889,8.11E-03,1.36E-02
130890,8.11E-03,1.36E-02
130891,8.11E-03,1.37E-02
130892,8.11E-03,1.38E-02
130893,8.11E-03,1.39E-02
130894,8.11E-03,1.40E-02
130895,8.11E-03,1.40E-02
130896,8.11E-03,1.41E-02
130897,8.10E-03,1.42E-02
130898,8.10E-03,1.43E-02
130899,8.10E-03,1.43E-02
130900,8.10E-03,1.44E-02
130901,8.10E-03,1.45E-02
130902,8.10E-03,1.46E-02
130903,8.10E-03,1.46E-02
130904,8.10E-03,1.47E-02
130905,8.10E-03,1.48E-02
130906,8.10E-03,1.48E-02
130907,8.10E-03,1.49E-02
130908,8.10E-03,1.50E-02
130909,8.10E-03,1.51E-02
130910,8.10E-03,1.51E-02
130911,8.09E-03,1.52E-02
130912,8.09E-03,1.53E-02
130913,8.09E-03,1.53E-02
130914,8.09E-03,1.54E-02
130915,8.09E-03,1.55E-02
130916,8.09E-03,1.55E-02
130917,8.09E-03,1.56E-02
130918,8.09E-03,1.57E-02
130919,8.09E-03,1.57E-02
130920,8.09E-03,1.58E-02
130921,8.09E-03,1.59E-02
130922,8.09E-03,1.59E-02
130923,8.09E-03,1.60E-02
130924,8.09E-03,1.61E-02
130925,8.09E-03,1.61E-02
130926,8.09E-03,1.62E-02
130927,8.09E-03,1.63E-02
130928,8.09E-03,1.63E-02
130929,8.09E-03,1.64E-02
130930,8.09E-03,1.65E-02
130931,8.09E-03,1.65E-02
130932,8.09E-03,1.66E-02
130933,8.09E-03,1.67E-02
130934,8.09E-03,1.67E-02
130935,8.09E-03,1.68E-02
130936,8.09E-03,1.69E-02
130937,8.09E-03,1.69E-02
130938,8.09E-03,1.70E-02
130939,8.10E-03,1.71E-02
130940,8.10E-03,1.71E-02
130941,8.10E-03,1.72E-02
130942,8.10E-03,1.73E-02
130943,8.10E-03,1.73E-02
130944,8.10E-03,1.74E-02
130945,8.10E-03,1.75E-02
130946,8.10E-03,1.75E-02
130947,8.10E-03,1.76E-02
130948,8.10E-03,1.77E-02
130949,8.10E-03,1.77E-02
130950,8.11E-03,1.78E-02
130951,8.11E-03,1.79E-02
130952,8.11E-03,1.79E-02
130953,8.11E-03,1.80E-02
130954,8.11E-03,1.80E-02
130955,8.11E-03,1.81E-02
130956,8.12E-03,1.82E-02
130957,8.12E-03,1.82E-02
130958,8.12E-03,1.83E-02
130959,8.13E-03,1.83E-02
130960,8.13E-03,1.84E-02
130961,8.14E-03,1.85E-02
130962,8.14E-03,1.85E-02
130963,8.15E-03,1.86E-02
130964,8.16E-03,1.86E-02
130965,8.17E-03,1.87E-02
130966,8.18E-03,1.87E-02
130967,8.20E-03,1.88E-02
130968,8.22E-03,1.88E-02
130969,8.25E-03,1.88E-02
130970,8.28E-03,1.89E-02
130971,8.34E-03,1.89E-02
130972,8.42E-03,1.90E-02
130973,8.56E-03,1.90E-02
130974,8.51E-03,1.91E-02
130975,8.01E-03,1.92E-02
130976,7.69E-03,1.92E-02
130977,7.78E-03,1.93E-02
130978,7.85E-03,1.93E-02
130979,7.89E-03,1.94E-02
130980,7.92E-03,1.94E-02
130981,7.94E-03,1.95E-02
130982,7.96E-03,1.95E-02
130983,7.98E-03,1.96E-02
130984,7.99E-03,1.96E-02
130985,8.00E-03,1.96E-02
130986,8.01E-03,1.97E-02
130987,8.01E-03,1.97E-02
130988,8.02E-03,1.98E-02
130989,8.02E-03,1.98E-02
130990,8.03E-03,1.99E-02
130991,8.03E-03,2.00E-02
130992,8.04E-03,2.00E-02
130993,8.04E-03,2.01E-02
130994,8.04E-03,2.02E-02
130995,8.04E-03,2.02E-02
130996,8.05E-03,2.03E-02
130997,8.05E-03,2.04E-02
130998,8.05E-03,2.04E-02
130999,8.05E-03,2.05E-02
131000,8.05E-03,2.06E-02
131001,8.05E-03,2.07E-02
131002,8.05E-03,2.07E-02
131003,8.05E-03,2.08E-02
131004,8.06E-03,2.09E-02
131005,8.06E-03,2.10E-02
131006,8.06E-03,2.11E-02
131007,8.07E-03,2.11E-02
131008,8.07E-03,2.12E-02
131009,8.07E-03,2.13E-02
131010,8.07E-03,2.14E-02
131011,8.07E-03,2.15E-02
131012,8.08E-03,2.16E-02
131013,8.10E-03,2.17E-02
131014,8.11E-03,2.17E-02
131015,8.11E-03,2.18E-02
131016,8.11E-03,2.19E-02
131017,8.11E-03,2.20E-02
131018,8.11E-03,2.21E-02
131019,8.12E-03,2.22E-02
131020,8.12E-03,2.23E-02
131021,8.12E-03,2.24E-02
131022,8.13E-03,2.25E-02
131023,8.13E-03,2.26E-02
131024,8.13E-03,2.27E-02
131025,8.14E-03,2.27E-02
131026,8.14E-03,2.28E-02
131027,8.15E-03,2.29E-02
131028,8.16E-03,2.30E-02
131029,8.17E-03,2.30E-02
131030,8.18E-03,2.31E-02
131031,8.20E-03,2.31E-02
131032,8.21E-03,2.32E-02
131033,8.24E-03,2.32E-02
131034,8.27E-03,2.32E-02
131035,8.32E-03,2.32E-02
131036,8.45E-03,2.31E-02
131037,8.37E-03,2.31E-02
131038,8.18E-03,2.31E-02
131039,8.05E-03,2.31E-02
131040,9.14E-03,1.75E-02
131041,7.56E-03,1.77E-02
131042,7.50E-03,1.68E-02
131043,7.89E-03,1.55E-02
131044,7.74E-03,1.50E-02
131045,7.83E-03,1.46E-02
131046,7.83E-03,1.42E-02
131047,7.71E-03,1.38E-02
131048,7.94E-03,1.35E-02
131049,7.94E-03,1.31E-02
131050,7.94E-03,1.28E-02
131051,8.05E-03,1.26E-02
131052,8.27E-03,1.24E-02
131053,8.41E-03,1.23E-02
131054,8.51E-03,1.22E-02
131055,8.43E-03,1.22E-02
131056,8.37E-03,1.22E-02
131057,8.30E-03,1.22E-02
131058,8.24E-03,1.23E-02
131059,8.25E-03,1.23E-02
131060,8.26E-03,1.24E-02
131061,8.27E-03,1.24E-02
131062,8.28E-03,1.25E-02
131063,8.29E-03,1.26E-02
131064,8.30E-03,1.27E-02
131065,8.31E-03,1.28E-02
131066,8.31E-03,1.29E-02
131067,8.32E-03,1.30E-02
131068,8.33E-03,1.31E-02
131069,8.34E-03,1.32E-02
131070,8.35E-03,1.33E-02
131071,8.37E-03,1.34E-02
131072,8.38E-03,1.35E-02
131073,8.39E-03,1.36E-02
131074,8.41E-03,1.37E-02
131075,8.43E-03,1.38E-02
131076,8.45E-03,1.39E-02
131077,8.48E-03,1.40E-02
131078,8.50E-03,1.41E-02
131079,8.51E-03,1.42E-02
131080,8.51E-03,1.43E-02
131081,8.52E-03,1.44E-02
131082,8.51E-03,1.45E-02
131083,8.51E-03,1.46E-02
131084,8.50E-03,1.47E-02
131085,8.49E-03,1.48E-02
131086,8.48E-03,1.49E-02
131087,8.48E-03,1.50E-02
131088,8.47E-03,1.51E-02
131089,8.47E-03,1.52E-02
131090,8.46E-03,1.53E-02
131091,8.45E-03,1.54E-02
131092,8.45E-03,1.55E-02
131093,8.44E-03,1.56E-02
131094,8.44E-03,1.57E-02
131095,8.43E-03,1.57E-02
131096,8.43E-03,1.58E-02
131097,8.42E-03,1.59E-02
131098,8.41E-03,1.60E-02
131099,8.41E-03,1.61E-02
131100,8.41E-03,1.62E-02
131101,8.41E-03,1.63E-02
131102,8.41E-03,1.64E-02
131103,8.40E-03,1.65E-02
131104,8.38E-03,1.66E-02
131105,8.36E-03,1.67E-02
131106,8.34E-03,1.68E-02
131107,8.33E-03,1.69E-02
131108,8.32E-03,1.70E-02
131109,8.33E-03,1.71E-02
131110,8.37E-03,1.72E-02
131111,8.44E-03,1.73E-02
131112,8.61E-03,1.74E-02
131113,8.65E-03,1.75E-02
131114,8.89E-03,1.76E-02
131115,9.20E-03,1.77E-02
131116,9.56E-03,1.78E-02
131117,9.53E-03,1.80E-02
131118,1.03E-02,1.81E-02
131119,1.04E-02,1.82E-02
131120,1.04E-02,1.84E-02
131121,7.15E-03,5.72E-03
131122,6.56E-03,5.77E-03
131123,6.74E-03,5.81E-03
131124,6.94E-03,5.84E-03
131125,7.00E-03,5.87E-03
131126,7.39E-03,5.90E-03
131127,7.64E-03,5.93E-03
131128,7.82E-03,5.97E-03
131129,7.91E-03,6.01E-03
131130,7.94E-03,6.06E-03
131131,7.96E-03,6.11E-03
131132,7.98E-03,6.16E-03
131133,8.00E-03,6.22E-03
131134,8.02E-03,6.27E-03
131135,8.03E-03,6.33E-03
131136,8.03E-03,6.39E-03
131137,8.03E-03,6.45E-03
131138,8.04E-03,6.52E-03
131139,8.04E-03,6.58E-03
131140,8.04E-03,6.64E-03
131141,8.05E-03,6.71E-03
131142,8.05E-03,6.77E-03
131143,8.05E-03,6.83E-03
131144,8.05E-03,6.90E-03
131145,8.05E-03,6.96E-03
131146,8.06E-03,7.02E-03
131147,8.06E-03,7.08E-03
131148,8.06E-03,7.14E-03
131149,8.06E-03,7.20E-03
131150,8.06E-03,7.26E-03
131151,8.06E-03,7.32E-03
131152,8.06E-03,7.38E-03
131153,8.07E-03,7.44E-03
131154,8.07E-03,7.50E-03
131155,8.06E-03,7.56E-03
131156,8.05E-03,7.62E-03
131157,8.04E-03,7.68E-03
131158,8.04E-03,7.73E-03
131159,8.03E-03,7.79E-03
131160,8.02E-03,7.86E-03
131161,8.01E-03,7.92E-03
131162,8.00E-03,7.99E-03
131163,7.99E-03,8.05E-03
131164,7.97E-03,8.13E-03
131165,7.95E-03,8.21E-03
131166,7.81E-03,8.29E-03
131167,7.73E-03,8.38E-03
131168,7.53E-03,8.47E-03
131169,7.27E-03,8.57E-03
131170,7.16E-03,8.66E-03
131171,6.90E-03,8.76E-03
131172,6.51E-03,8.87E-03
131173,6.33E-03,8.98E-03
131174,6.20E-03,9.10E-03
131175,6.74E-03,9.23E-03
131176,6.85E-03,9.36E-03
131177,7.00E-03,9.48E-03
131178,7.20E-03,9.59E-03
131179,7.39E-03,9.69E-03
131180,9.61E-03,9.81E-03
131181,9.32E-03,9.95E-03
131182,9.29E-03,1.01E-02
131183,8.94E-03,1.02E-02
131184,8.83E-03,1.04E-02
131185,8.74E-03,1.05E-02
131186,8.62E-03,1.07E-02
131187,8.58E-03,1.08E-02
131188,8.52E-03,1.10E-02
131189,8.43E-03,1.11E-02
131190,8.37E-03,1.13E-02
131191,8.32E-03,1.14E-02
131192,8.29E-03,1.15E-02
131193,8.26E-03,1.17E-02
131194,8.24E-03,1.18E-02
131195,8.21E-03,1.19E-02
131196,8.19E-03,1.20E-02
131197,8.21E-03,1.22E-02
131198,8.26E-03,1.23E-02
131199,8.29E-03,1.24E-02
131200,8.17E-03,1.25E-02
131201,8.04E-03,1.26E-02
131202,8.03E-03,1.27E-02
131203,8.03E-03,1.29E-02
131204,8.03E-03,1.30E-02
131205,8.03E-03,1.31E-02
131206,8.02E-03,1.32E-02
131207,8.00E-03,1.34E-02
131208,7.98E-03,1.35E-02
131209,7.94E-03,1.36E-02
131210,7.85E-03,1.38E-02
131211,7.62E-03,1.39E-02
131212,7.45E-03,1.41E-02
131213,7.29E-03,1.42E-02
131214,7.11E-03,1.44E-02
131215,6.76E-03,1.45E-02
131216,6.72E-03,1.47E-02
131217,6.67E-03,1.48E-02
131218,7.41E-03,1.49E-02
131219,8.07E-03,1.50E-02
131220,8.13E-03,1.51E-02
131221,8.77E-03,1.52E-02
131222,8.90E-03,1.54E-02
131223,9.31E-03,1.55E-02
131224,9.37E-03,1.56E-02
131225,9.12E-03,1.58E-02
131226,8.90E-03,1.59E-02
131227,8.75E-03,1.61E-02
131228,8.65E-03,1.63E-02
131229,8.53E-03,1.64E-02
131230,8.36E-03,1.66E-02
131231,8.25E-03,1.68E-02
131232,8.23E-03,1.69E-02
131233,8.22E-03,1.71E-02
131234,8.21E-03,1.73E-02
131235,8.21E-03,1.74E-02
131236,8.20E-03,1.76E-02
131237,7.99E-03,1.78E-02
131238,8.00E-03,1.80E-02
131239,7.79E-03,1.82E-02
131240,7.79E-03,1.85E-02
131241,6.77E-03,1.87E-02
131242,6.65E-03,1.89E-02
131243,6.60E-03,1.92E-02
131244,6.39E-03,1.94E-02
131245,5.61E-03,1.94E-02
131246,4.45E-03,1.95E-02
131247,5.49E-03,1.98E-02
131248,7.29E-03,1.99E-02
131249,6.20E-03,2.33E-02
131250,6.29E-03,2.34E-02
131251,6.40E-03,2.35E-02
131252,6.55E-03,2.36E-02
131253,6.76E-03,2.36E-02
131254,6.94E-03,2.36E-02
131255,7.16E-03,2.36E-02
131256,7.53E-03,2.36E-02
131257,7.83E-03,2.35E-02
131258,7.88E-03,2.35E-02
131259,8.05E-03,2.34E-02
131260,8.30E-03,2.33E-02
131261,8.33E-03,2.33E-02
131262,8.36E-03,2.32E-02
131263,8.40E-03,2.32E-02
131264,8.45E-03,2.32E-02
131265,8.47E-03,2.32E-02
131266,8.61E-03,2.32E-02
131267,9.00E-03,2.33E-02
131268,8.34E-03,2.33E-02
131269,6.77E-03,2.34E-02
131270,6.43E-03,2.34E-02
131271,7.02E-03,2.35E-02
131272,7.43E-03,2.35E-02
131273,7.62E-03,2.35E-02
131274,7.74E-03,2.35E-02
131275,7.81E-03,2.36E-02
131276,7.86E-03,2.36E-02
131277,7.90E-03,2.36E-02
131278,7.93E-03,2.37E-02
131279,7.95E-03,2.37E-02
131280,7.96E-03,2.38E-02
131281,7.98E-03,2.38E-02
131282,7.99E-03,2.39E-02
131283,8.00E-03,2.40E-02
131284,8.01E-03,2.40E-02
131285,8.01E-03,2.41E-02
131286,8.02E-03,2.42E-02
131287,8.01E-03,2.43E-02
131288,8.01E-03,2.44E-02
131289,8.03E-03,2.45E-02
131290,8.05E-03,2.46E-02
131291,8.06E-03,2.47E-02
131292,8.06E-03,2.48E-02
131293,8.07E-03,2.49E-02
131294,8.07E-03,2.50E-02
131295,8.08E-03,2.51E-02
131296,8.10E-03,2.52E-02
131297,8.11E-03,2.53E-02
131298,8.11E-03,2.54E-02
131299,8.11E-03,2.55E-02
131300,8.11E-03,2.56E-02
131301,8.11E-03,2.58E-02
131302,8.11E-03,2.59E-02
131303,8.12E-03,2.60E-02
131304,8.12E-03,2.61E-02
131305,8.12E-03,2.62E-02
131306,8.12E-03,2.63E-02
131307,8.12E-03,2.64E-02
131308,8.13E-03,2.66E-02
131309,8.13E-03,2.67E-02
131310,8.13E-03,2.68E-02
131311,8.13E-03,2.69E-02
131312,8.14E-03,2.70E-02
131313,8.14E-03,2.71E-02
131314,8.14E-03,2.72E-02
131315,8.15E-03,2.74E-02
131316,8.15E-03,2.75E-02
131317,8.16E-03,2.76E-02
131318,8.16E-03,2.77E-02
131319,8.17E-03,2.78E-02
131320,8.18E-03,2.79E-02
131321,8.19E-03,2.80E-02
131322,8.20E-03,2.81E-02
131323,8.21E-03,2.82E-02
131324,8.22E-03,2.83E-02
131325,8.23E-03,2.84E-02
131326,8.24E-03,2.84E-02
131327,8.24E-03,2.85E-02
131328,8.24E-03,2.86E-02
131329,8.25E-03,2.86E-02
131330,8.27E-03,2.87E-02
131331,8.31E-03,2.87E-02
131332,8.35E-03,2.87E-02
131333,8.39E-03,2.87E-02
131334,8.46E-03,2.87E-02
131335,8.55E-03,2.87E-02
131336,8.69E-03,2.86E-02
131337,8.90E-03,2.86E-02
131338,9.09E-03,2.85E-02
131339,9.07E-03,2.85E-02
131340,8.94E-03,2.84E-02
131341,8.83E-03,2.84E-02
131342,8.74E-03,2.84E-02
131343,8.84E-03,2.84E-02
131344,9.01E-03,2.83E-02
131345,8.74E-03,2.83E-02
131346,8.37E-03,2.83E-02
131347,8.24E-03,2.83E-02
131348,8.14E-03,2.82E-02
131349,8.03E-03,2.82E-02
131350,7.96E-03,2.82E-02
131351,7.81E-03,2.81E-02
131352,7.23E-03,2.81E-02
131353,7.02E-03,2.80E-02
131354,7.36E-03,2.80E-02
131355,7.53E-03,2.79E-02
131356,7.52E-03,2.79E-02
131357,7.25E-03,2.78E-02
131358,6.86E-03,2.78E-02
131359,6.87E-03,2.78E-02
131360,7.23E-03,2.77E-02
131361,7.47E-03,2.77E-02
131362,7.62E-03,2.77E-02
131363,7.74E-03,2.77E-02
131364,7.82E-03,2.77E-02
131365,7.84E-03,2.77E-02
131366,7.84E-03,2.78E-02
131367,7.84E-03,2.78E-02
131368,7.84E-03,2.79E-02
131369,7.84E-03,2.79E-02
131370,7.91E-03,2.80E-02
131371,8.04E-03,2.81E-02
131372,8.10E-03,2.82E-02
131373,8.10E-03,2.83E-02
131374,8.10E-03,2.84E-02
131375,8.10E-03,2.85E-02
131376,8.12E-03,2.86E-02
131377,8.14E-03,2.87E-02
131378,8.16E-03,2.88E-02
131379,8.16E-03,2.89E-02
131380,8.17E-03,2.90E-02
131381,8.17E-03,2.91E-02
131382,8.18E-03,2.92E-02
131383,8.18E-03,2.93E-02
131384,8.19E-03,2.94E-02
131385,8.20E-03,2.95E-02
131386,8.20E-03,2.96E-02
131387,8.21E-03,2.97E-02
131388,8.22E-03,2.98E-02
131389,8.24E-03,2.99E-02
131390,8.25E-03,2.99E-02
131391,8.27E-03,3.00E-02
131392,8.29E-03,3.00E-02
131393,8.31E-03,3.01E-02
131394,8.33E-03,3.01E-02
131395,8.35E-03,3.01E-02
131396,8.37E-03,3.01E-02
131397,8.40E-03,3.01E-02
131398,8.43E-03,3.01E-02
131399,8.47E-03,3.00E-02
131400,8.52E-03,3.00E-02
131401,8.59E-03,3.00E-02
131402,8.66E-03,2.99E-02
131403,8.75E-03,2.99E-02
131404,8.77E-03,2.99E-02
131405,8.71E-03,2.99E-02
131406,8.69E-03,2.98E-02
131407,8.76E-03,2.99E-02
131408,9.00E-03,2.99E-02
131409,8.95E-03,2.99E-02
131410,7.75E-03,2.99E-02
131411,6.84E-03,3.00E-02
131412,7.02E-03,3.00E-02
131413,7.24E-03,3.00E-02
131414,7.30E-03,3.00E-02
131415,7.22E-03,3.00E-02
131416,7.09E-03,3.00E-02
131417,6.57E-03,3.00E-02
131418,6.19E-03,3.00E-02
131419,6.72E-03,3.00E-02
131420,7.08E-03,3.00E-02
131421,7.36E-03,3.00E-02
131422,7.58E-03,3.00E-02
131423,7.83E-03,3.01E-02
131424,7.88E-03,3.01E-02
131425,7.92E-03,3.02E-02
131426,7.94E-03,3.03E-02
131427,7.96E-03,3.04E-02
131428,7.98E-03,3.05E-02
131429,7.99E-03,3.06E-02
131430,8.00E-03,3.08E-02
131431,8.01E-03,3.09E-02
131432,8.02E-03,3.11E-02
131433,8.02E-03,3.13E-02
131434,8.03E-03,3.15E-02
131435,8.03E-03,3.16E-02
131436,8.04E-03,3.18E-02
131437,8.04E-03,3.20E-02
131438,8.04E-03,3.22E-02
131439,8.04E-03,3.24E-02
131440,8.05E-03,3.26E-02
131441,8.05E-03,3.28E-02
131442,8.05E-03,3.30E-02
131443,8.06E-03,3.32E-02
131444,8.06E-03,3.34E-02
131445,8.06E-03,3.36E-02
131446,8.06E-03,3.38E-02
131447,8.06E-03,3.41E-02
131448,8.06E-03,3.43E-02
131449,8.06E-03,3.45E-02
131450,8.06E-03,3.47E-02
131451,8.06E-03,3.49E-02
131452,8.06E-03,3.51E-02
131453,8.06E-03,3.53E-02
131454,8.06E-03,3.56E-02
131455,8.06E-03,3.58E-02
131456,8.06E-03,3.60E-02
131457,8.06E-03,3.62E-02
131458,8.07E-03,3.64E-02
131459,8.07E-03,3.67E-02
131460,8.07E-03,3.69E-02
131461,8.07E-03,3.71E-02
131462,8.07E-03,3.73E-02
131463,8.07E-03,3.76E-02
131464,8.07E-03,3.78E-02
131465,8.07E-03,3.80E-02
131466,8.07E-03,3.83E-02
131467,8.07E-03,3.85E-02
131468,8.07E-03,3.87E-02
131469,8.07E-03,3.90E-02
131470,8.07E-03,3.92E-02
131471,8.07E-03,3.95E-02
131472,8.07E-03,3.97E-02
131473,8.07E-03,4.00E-02
131474,8.07E-03,4.02E-02
131475,8.07E-03,4.04E-02
131476,8.07E-03,4.07E-02
131477,8.07E-03,4.09E-02
131478,8.03E-03,4.12E-02
131479,8.07E-03,4.15E-02
131480,8.19E-03,4.18E-02
131481,8.25E-03,4.25E-02
131482,8.31E-03,4.21E-02
131483,8.27E-03,5.82E-03
131484,8.17E-03,5.81E-03
131485,8.04E-03,5.82E-03
131486,7.63E-03,5.84E-03
131487,7.22E-03,5.86E-03
131488,6.67E-03,5.87E-03
131489,6.40E-03,5.91E-03
131490,6.98E-03,5.97E-03
131491,7.29E-03,6.01E-03
131492,8.11E-03,6.05E-03
131493,8.31E-03,6.10E-03
131494,7.99E-03,6.14E-03
131495,7.89E-03,6.18E-03
131496,7.65E-03,6.22E-03
131497,7.31E-03,6.25E-03
131498,7.26E-03,6.27E-03
131499,7.44E-03,6.29E-03
131500,8.17E-03,6.30E-03
131501,9.24E-03,6.31E-03
131502,1.04E-02,6.30E-03
131503,9.58E-03,6.31E-03
131504,9.26E-03,6.31E-03
131505,9.17E-03,6.32E-03
131506,8.73E-03,6.33E-03
131507,8.73E-03,6.33E-03
131508,8.55E-03,6.32E-03
131509,8.30E-03,6.31E-03
131510,8.28E-03,6.29E-03
131511,8.05E-03,6.26E-03
131512,7.65E-03,6.23E-03
131513,7.62E-03,6.20E-03
131514,7.77E-03,6.17E-03
131515,7.70E-03,6.13E-03
131516,7.55E-03,6.09E-03
131517,7.41E-03,6.06E-03
131518,7.17E-03,6.02E-03
131519,6.72E-03,5.99E-03
131520,7.17E-03,5.96E-03
131521,8.00E-03,5.93E-03
131522,8.06E-03,5.90E-03
131523,8.08E-03,5.87E-03
131524,8.09E-03,5.84E-03
131525,8.08E-03,5.82E-03
131526,7.99E-03,5.79E-03
131527,7.86E-03,5.77E-03
131528,7.79E-03,5.75E-03
131529,7.73E-03,5.73E-03
131530,7.65E-03,5.71E-03
131531,7.55E-03,5.69E-03
131532,7.82E-03,5.68E-03
131533,8.42E-03,5.66E-03
131534,8.87E-03,5.64E-03
131535,9.02E-03,5.62E-03
131536,8.86E-03,5.60E-03
131537,8.69E-03,5.58E-03
131538,8.53E-03,5.57E-03
131539,8.21E-03,5.55E-03
131540,7.95E-03,5.53E-03
131541,7.77E-03,5.52E-03
131542,7.44E-03,5.50E-03
131543,7.28E-03,5.48E-03
131544,7.22E-03,5.46E-03
131545,7.38E-03,5.44E-03
131546,8.06E-03,5.43E-03
131547,8.67E-03,5.41E-03
131548,9.00E-03,5.39E-03
131549,8.89E-03,5.36E-03
131550,8.43E-03,5.34E-03
131551,8.37E-03,5.32E-03
131552,8.13E-03,5.31E-03
131553,7.87E-03,5.29E-03
131554,7.51E-03,5.27E-03
131555,7.22E-03,5.25E-03
131556,7.26E-03,5.23E-03
131557,7.37E-03,5.21E-03
131558,8.17E-03,5.19E-03
131559,8.25E-03,5.17E-03
131560,9.01E-03,5.15E-03
131561,9.10E-03,5.13E-03
131562,9.30E-03,5.11E-03
131563,9.06E-03,5.09E-03
131564,8.54E-03,5.07E-03
131565,8.25E-03,5.06E-03
131566,7.80E-03,5.04E-03
131567,7.47E-03,5.02E-03
131568,6.90E-03,5.01E-03
131569,6.65E-03,4.99E-03
131570,6.39E-03,4.97E-03
131571,6.59E-03,4.96E-03
131572,7.23E-03,4.94E-03
131573,8.11E-03,4.91E-03
131574,8.97E-03,4.88E-03
131575,9.47E-03,4.85E-03
131576,9.41E-03,4.82E-03
131577,9.95E-03,4.78E-03
131578,9.54E-03,4.75E-03
131579,9.37E-03,4.71E-03
131580,9.14E-03,4.67E-03
131581,9.05E-03,4.63E-03
131582,8.77E-03,4.59E-03
131583,8.54E-03,4.54E-03
131584,8.43E-03,4.50E-03
131585,8.38E-03,4.45E-03
131586,8.34E-03,4.39E-03
131587,8.27E-03,4.34E-03
131588,8.12E-03,4.28E-03
131589,7.99E-03,4.22E-03
131590,7.95E-03,4.16E-03
131591,7.94E-03,4.10E-03
131592,7.91E-03,4.05E-03
131593,7.89E-03,3.99E-03
131594,7.85E-03,3.94E-03
131595,7.81E-03,3.88E-03
131596,7.75E-03,3.83E-03
131597,7.67E-03,3.78E-03
131598,7.55E-03,3.74E-03
131599,7.35E-03,3.69E-03
131600,7.08E-03,3.65E-03
131601,7.15E-03,3.62E-03
131602,7.46E-03,3.58E-03
131603,7.53E-03,3.55E-03
131604,7.44E-03,3.52E-03
131605,7.34E-03,3.49E-03
131606,7.20E-03,3.47E-03
131607,7.45E-03,3.45E-03
131608,8.78E-03,3.42E-03
131609,9.64E-03,3.40E-03
131610,9.29E-03,3.37E-03
131611,8.98E-03,3.34E-03
131612,8.79E-03,3.31E-03
131613,8.67E-03,3.27E-03
131614,8.58E-03,3.24E-03
131615,8.39E-03,3.20E-03
131616,8.06E-03,3.17E-03
131617,7.82E-03,3.13E-03
131618,7.74E-03,3.10E-03
131619,7.70E-03,3.07E-03
131620,7.64E-03,3.04E-03
131621,7.56E-03,3.00E-03
131622,7.46E-03,2.98E-03
131623,7.33E-03,2.95E-03
131624,7.36E-03,2.93E-03
131625,7.58E-03,2.90E-03
131626,7.68E-03,2.88E-03
131627,7.65E-03,2.86E-03
131628,7.63E-03,2.85E-03
131629,7.61E-03,2.83E-03
131630,7.97E-03,2.82E-03
131631,8.50E-03,2.80E-03
131632,8.64E-03,2.79E-03
131633,8.57E-03,2.77E-03
131634,8.51E-03,2.75E-03
131635,8.45E-03,2.73E-03
131636,8.33E-03,2.71E-03
131637,8.20E-03,2.69E-03
131638,8.10E-03,2.67E-03
131639,8.08E-03,2.64E-03
131640,8.10E-03,2.62E-03
131641,8.10E-03,2.60E-03
131642,8.14E-03,2.58E-03
131643,8.47E-03,2.55E-03
131644,8.73E-03,2.53E-03
131645,8.64E-03,2.50E-03
131646,8.51E-03,2.47E-03
131647,8.43E-03,2.43E-03
131648,8.43E-03,2.40E-03
131649,8.51E-03,2.37E-03
131650,8.63E-03,2.33E-03
131651,8.82E-03,2.29E-03
131652,8.86E-03,2.25E-03
131653,8.71E-03,2.20E-03
131654,8.57E-03,2.15E-03
131655,8.48E-03,2.10E-03
131656,8.41E-03,2.05E-03
131657,8.38E-03,2.00E-03
131658,8.38E-03,1.95E-03
131659,8.34E-03,1.90E-03
131660,8.27E-03,1.84E-03
131661,8.22E-03,1.79E-03
131662,8.20E-03,1.73E-03
131663,8.18E-03,1.68E-03
131664,8.17E-03,1.62E-03
131665,8.16E-03,1.57E-03
131666,8.15E-03,1.52E-03
131667,8.12E-03,1.46E-03
131668,8.05E-03,1.41E-03
131669,8.00E-03,1.36E-03
131670,8.00E-03,1.31E-03
131671,7.99E-03,1.26E-03
131672,7.98E-03,1.21E-03
131673,7.97E-03,1.16E-03
131674,7.96E-03,1.12E-03
131675,7.95E-03,1.07E-03
131676,7.93E-03,1.03E-03
131677,7.92E-03,9.84E-04
131678,7.90E-03,9.42E-04
131679,7.87E-03,9.01E-04
131680,7.85E-03,8.61E-04
131681,7.81E-03,8.22E-04
131682,7.76E-03,7.85E-04
131683,7.75E-03,7.49E-04
131684,7.80E-03,7.15E-04
131685,7.85E-03,6.82E-04
131686,7.85E-03,6.50E-04
131687,7.82E-03,6.18E-04
131688,7.79E-03,5.88E-04
131689,7.73E-03,5.59E-04
131690,7.65E-03,5.31E-04
131691,7.63E-03,5.05E-04
131692,7.69E-03,4.79E-04
131693,7.75E-03,4.56E-04
131694,7.81E-03,4.33E-04
131695,7.86E-03,4.12E-04
131696,7.80E-03,3.90E-04
131697,7.68E-03,3.69E-04
131698,7.63E-03,3.48E-04
131699,7.47E-03,3.27E-04
131700,7.39E-03,3.06E-04
131701,7.26E-03,2.89E-04
131702,7.12E-03,2.76E-04
131703,7.01E-03,2.67E-04
131704,6.73E-03,2.64E-04
131705,6.56E-03,2.67E-04
131706,6.61E-03,2.77E-04
131707,6.74E-03,2.91E-04
131708,7.66E-03,3.20E-04
131709,7.77E-03,3.51E-04
131710,8.10E-03,3.79E-04
131711,8.75E-03,4.17E-04
131712,8.56E-03,4.40E-04
131713,7.50E-03,4.58E-04
131714,7.40E-03,4.67E-04
131715,7.47E-03,4.91E-04
131716,9.23E-03,6.16E-04
131717,7.73E-03,6.08E-04
131718,7.34E-03,6.04E-04
131719,6.79E-03,6.04E-04
131720,6.57E-03,6.06E-04
131721,5.97E-03,6.06E-04
131722,5.87E-03,6.39E-04
131723,8.60E-03,7.02E-04
131724,8.67E-03,7.52E-04
131725,9.00E-03,7.98E-04
131726,9.43E-03,8.46E-04
131727,9.41E-03,8.95E-04
131728,9.33E-03,9.32E-04
131729,9.01E-03,9.49E-04
131730,8.19E-03,9.63E-04
131731,8.02E-03,9.68E-04
131732,7.74E-03,9.80E-04
131733,7.05E-03,9.97E-04
131734,6.28E-03,1.02E-03
131735,5.64E-03,1.05E-03
131736,8.57E-03,1.08E-03
131737,8.46E-03,1.11E-03
131738,8.22E-03,1.15E-03
131739,7.98E-03,1.19E-03
131740,7.89E-03,1.24E-03
131741,8.88E-03,1.31E-03
131742,9.04E-03,4.32E-03
131743,8.88E-03,4.29E-03
131744,7.97E-03,4.27E-03
131745,7.58E-03,4.26E-03
131746,7.18E-03,4.25E-03
131747,7.03E-03,4.24E-03
131748,6.62E-03,4.23E-03
131749,6.70E-03,4.23E-03
131750,6.89E-03,4.24E-03
131751,7.03E-03,4.26E-03
131752,7.46E-03,4.29E-03
131753,7.79E-03,4.33E-03
131754,8.91E-03,4.36E-03
131755,8.10E-03,1.76E-02
131756,6.72E-03,5.44E-03
131757,7.89E-03,5.29E-03
131758,7.72E-03,5.18E-03
131759,6.19E-03,1.78E-03
131760,6.02E-03,1.71E-03
131761,6.80E-03,1.57E-03
131762,8.33E-03,1.45E-03
131763,6.81E-03,2.48E-02
131764,6.50E-03,2.47E-02
131765,5.76E-03,2.47E-02
131766,5.47E-03,2.46E-02
131767,5.55E-03,2.36E-02
131768,5.42E-03,2.36E-02
131769,6.27E-03,2.38E-02
131770,9.18E-03,3.90E-03
131771,1.09E-02,1.37E-02
131772,6.41E-03,1.04E-02
131773,6.71E-03,3.05E-02
131774,7.42E-03,3.15E-02
131775,8.42E-03,3.26E-02
131776,8.79E-03,3.39E-02
131777,8.80E-03,3.52E-02
131778,9.53E-03,3.68E-02
131779,9.11E-03,3.79E-02
131780,8.09E-03,4.00E-02
131781,7.89E-03,4.21E-02
131782,7.77E-03,4.42E-02
131783,7.63E-03,4.64E-02
131784,7.52E-03,4.88E-02
131785,7.39E-03,5.17E-02
131786,7.36E-03,5.53E-02
131787,7.50E-03,5.98E-02
131788,7.78E-03,6.50E-02
131789,8.91E-03,7.13E-02
131790,7.76E-03,8.30E-02
131791,7.68E-03,7.49E-02
131792,6.64E-03,2.85E-03
131793,6.55E-03,2.71E-03
131794,1.05E-02,1.88E-02
131795,1.09E-02,1.89E-02
131796,1.08E-02,1.91E-02
131797,1.07E-02,1.93E-02
131798,1.05E-02,1.95E-02
131799,1.04E-02,1.97E-02
131800,1.03E-02,1.99E-02
131801,1.03E-02,2.01E-02
131802,1.02E-02,2.03E-02
131803,1.02E-02,2.06E-02
131804,1.02E-02,2.08E-02
131805,1.01E-02,2.10E-02
131806,1.01E-02,2.12E-02
131807,1.01E-02,2.14E-02
131808,1.02E-02,2.16E-02
131809,1.02E-02,2.19E-02
131810,1.02E-02,2.21E-02
131811,1.02E-02,2.23E-02
131812,1.01E-02,2.25E-02
131813,9.87E-03,2.26E-02
131814,9.74E-03,2.28E-02
131815,9.68E-03,2.30E-02
131816,9.53E-03,2.32E-02
131817,9.32E-03,2.33E-02
131818,9.21E-03,2.35E-02
131819,8.96E-03,2.36E-02
131820,8.87E-03,2.37E-02
131821,8.64E-03,2.39E-02
131822,8.56E-03,2.40E-02
131823,8.41E-03,2.41E-02
131824,8.34E-03,2.43E-02
131825,8.07E-03,2.44E-02
131826,7.90E-03,2.45E-02
131827,7.82E-03,2.47E-02
131828,7.83E-03,2.48E-02
131829,7.59E-03,2.49E-02
131830,7.06E-03,2.51E-02
131831,6.99E-03,2.52E-02
131832,6.70E-03,2.53E-02
131833,6.48E-03,2.54E-02
131834,6.39E-03,2.55E-02
131835,6.21E-03,2.56E-02
131836,5.86E-03,2.57E-02
131837,6.19E-03,2.58E-02
131838,9.34E-03,2.64E-02
131839,7.31E-03,2.60E-02
131840,1.16E-02,2.00E-02
131841,1.03E-02,2.03E-02
131842,1.01E-02,2.04E-02
131843,9.82E-03,2.07E-02
131844,8.95E-03,2.09E-02
131845,8.86E-03,2.11E-02
131846,8.54E-03,2.14E-02
131847,8.50E-03,2.16E-02
131848,8.49E-03,2.18E-02
131849,8.46E-03,2.21E-02
131850,8.43E-03,2.23E-02
131851,8.41E-03,2.25E-02
131852,8.39E-03,2.26E-02
131853,8.36E-03,2.28E-02
131854,8.34E-03,2.29E-02
131855,8.33E-03,2.30E-02
131856,8.50E-03,2.31E-02
131857,8.77E-03,2.32E-02
131858,8.80E-03,2.33E-02
131859,8.68E-03,2.34E-02
131860,8.57E-03,2.35E-02
131861,8.50E-03,2.36E-02
131862,8.44E-03,2.37E-02
131863,8.40E-03,2.38E-02
131864,8.36E-03,2.39E-02
131865,8.33E-03,2.39E-02
131866,8.27E-03,2.40E-02
131867,8.12E-03,2.41E-02
131868,8.01E-03,2.42E-02
131869,7.98E-03,2.42E-02
131870,7.93E-03,2.43E-02
131871,7.83E-03,2.43E-02
131872,7.67E-03,2.44E-02
131873,7.64E-03,2.44E-02
131874,7.47E-03,2.45E-02
131875,7.32E-03,2.45E-02
131876,6.81E-03,2.45E-02
131877,6.80E-03,2.46E-02
131878,7.85E-03,2.46E-02
131879,8.26E-03,2.46E-02
131880,8.27E-03,2.46E-02
131881,8.33E-03,2.47E-02
131882,8.29E-03,2.47E-02
131883,8.13E-03,2.48E-02
131884,7.96E-03,2.49E-02
131885,7.99E-03,2.50E-02
131886,7.66E-03,2.51E-02
131887,7.52E-03,2.52E-02
131888,7.14E-03,2.53E-02
131889,7.01E-03,2.53E-02
131890,7.43E-03,2.54E-02
131891,7.70E-03,2.54E-02
131892,8.12E-03,2.54E-02
131893,8.75E-03,2.55E-02
131894,8.82E-03,2.55E-02
131895,8.89E-03,2.56E-02
131896,8.63E-03,2.58E-02
131897,8.42E-03,2.59E-02
131898,7.97E-03,2.61E-02
131899,7.83E-03,2.62E-02
131900,7.65E-03,2.64E-02
131901,7.53E-03,2.65E-02
131902,7.21E-03,2.67E-02
131903,7.17E-03,2.68E-02
131904,7.13E-03,2.69E-02
131905,7.35E-03,2.69E-02
131906,7.62E-03,2.69E-02
131907,7.93E-03,2.70E-02
131908,7.92E-03,2.69E-02
131909,8.65E-03,2.68E-02
131910,1.02E-02,2.68E-02
131911,1.01E-02,1.80E-02
131912,9.85E-03,1.83E-02
131913,8.17E-03,1.86E-02
131914,8.16E-03,1.86E-02
131915,7.43E-03,1.86E-02
131916,7.43E-03,1.84E-02
131917,6.86E-03,2.76E-02
131918,5.97E-03,2.75E-02
131919,6.58E-03,2.76E-02
131920,4.85E-03,2.74E-02
131921,5.32E-03,2.75E-02
131922,4.99E-03,2.73E-02
131923,7.57E-03,4.06E-03
131924,7.46E-03,4.13E-03
131925,7.05E-03,1.60E-02
131926,7.30E-03,1.53E-02
131927,6.10E-03,1.06E-02
131928,7.33E-03,9.92E-03
131929,7.20E-03,5.13E-03
131930,7.71E-03,5.03E-03
131931,6.99E-03,4.79E-03
131932,7.04E-03,4.17E-03
131933,7.10E-03,2.97E-03
131934,8.65E-03,1.67E-03
131935,5.55E-03,1.55E-03
131936,6.73E-03,2.71E-02
131937,6.63E-03,2.69E-02
131938,6.67E-03,2.67E-02
131939,5.77E-03,2.65E-02
131940,6.58E-03,2.68E-02
131941,6.56E-03,2.70E-02
131942,6.64E-03,2.71E-02
131943,6.42E-03,2.72E-02
131944,6.32E-03,2.72E-02
131945,6.08E-03,2.73E-02
131946,5.99E-03,2.73E-02
131947,6.05E-03,2.72E-02
131948,6.91E-03,2.71E-02
131949,7.52E-03,2.71E-02
131950,7.82E-03,2.70E-02
131951,8.10E-03,2.69E-02
131952,7.69E-03,2.68E-02
131953,6.69E-03,2.68E-02
131954,5.06E-03,2.67E-02
131955,6.02E-03,2.77E-02
131956,8.70E-03,1.81E-02
131957,8.74E-03,1.80E-02
131958,6.74E-03,1.75E-02
131959,8.56E-03,1.37E-02
131960,8.40E-03,1.26E-02
131961,7.66E-03,2.35E-02
131962,5.26E-03,2.69E-02
131963,7.71E-03,2.67E-02
131964,9.50E-03,2.65E-02
131965,8.84E-03,2.64E-02
131966,8.63E-03,2.63E-02
131967,8.55E-03,2.64E-02
131968,8.53E-03,2.65E-02
131969,8.45E-03,2.66E-02
131970,8.29E-03,2.68E-02
131971,8.23E-03,2.70E-02
131972,8.07E-03,2.71E-02
131973,8.01E-03,2.71E-02
131974,7.99E-03,2.71E-02
131975,7.67E-03,2.71E-02
131976,7.42E-03,2.70E-02
131977,7.52E-03,2.69E-02
131978,7.34E-03,2.67E-02
131979,7.12E-03,2.66E-02
131980,7.10E-03,2.64E-02
131981,7.04E-03,2.62E-02
131982,6.44E-03,2.60E-02
131983,8.01E-03,2.47E-02
131984,7.92E-03,4.30E-02
131985,6.21E-03,5.54E-03
131986,8.43E-03,5.63E-03
131987,7.36E-03,1.65E-02
131988,7.92E-03,3.92E-03
131989,8.22E-03,1.38E-02
131990,5.30E-03,2.47E-02
131991,7.80E-03,2.40E-02
131992,6.45E-03,4.26E-02
131993,7.15E-03,4.27E-02
131994,7.41E-03,4.28E-02
131995,7.65E-03,4.30E-02
131996,7.79E-03,4.32E-02
131997,7.94E-03,4.34E-02
131998,7.94E-03,4.36E-02
131999,7.94E-03,4.38E-02
132000,7.94E-03,4.41E-02
132001,7.94E-03,4.44E-02
132002,7.94E-03,4.47E-02
132003,7.94E-03,4.51E-02
132004,7.94E-03,4.55E-02
132005,7.94E-03,4.60E-02
132006,7.94E-03,4.66E-02
132007,7.94E-03,4.72E-02
132008,7.94E-03,4.79E-02
132009,7.94E-03,4.87E-02
132010,7.94E-03,4.96E-02
132011,7.94E-03,5.05E-02
132012,7.94E-03,5.16E-02
132013,7.94E-03,5.28E-02
132014,7.94E-03,5.41E-02
132015,7.94E-03,5.55E-02
132016,7.94E-03,5.71E-02
132017,8.00E-03,5.88E-02
132018,8.12E-03,6.07E-02
132019,8.15E-03,6.29E-02
132020,8.21E-03,6.52E-02
132021,8.21E-03,6.76E-02
132022,8.14E-03,7.02E-02
132023,8.03E-03,7.29E-02
132024,7.85E-03,7.58E-02
132025,7.92E-03,7.90E-02
132026,8.03E-03,8.26E-02
132027,7.93E-03,8.74E-02
132028,7.28E-03,9.09E-02
132029,6.57E-03,9.29E-02
132030,6.86E-03,9.43E-02
132031,5.63E-03,1.53E-02
132032,5.84E-03,1.44E-02
132033,5.85E-03,8.88E-03
132034,5.28E-03,1.30E-03
132035,8.61E-03,2.74E-02
132036,7.53E-03,1.88E-02
132037,5.77E-03,1.83E-02
132038,5.85E-03,1.46E-02
132039,7.64E-03,1.49E-02
132040,7.96E-03,1.44E-02
132041,7.97E-03,1.40E-02
132042,7.79E-03,1.35E-02
132043,7.63E-03,1.30E-02
132044,7.45E-03,1.26E-02
132045,7.10E-03,1.22E-02
132046,6.49E-03,1.18E-02
132047,5.98E-03,1.15E-02
132048,5.69E-03,1.10E-02
132049,6.00E-03,1.07E-02
132050,5.89E-03,9.26E-03
132051,7.58E-03,9.61E-03
132052,8.10E-03,9.29E-03
132053,8.32E-03,8.92E-03
132054,8.33E-03,8.56E-03
132055,8.22E-03,8.20E-03
132056,8.15E-03,7.85E-03
132057,8.10E-03,7.50E-03
132058,8.10E-03,7.17E-03
132059,8.02E-03,6.85E-03
132060,7.89E-03,6.54E-03
132061,7.83E-03,6.27E-03
132062,7.65E-03,5.96E-03
132063,7.39E-03,5.61E-03
132064,4.94E-03,5.28E-03
132065,7.05E-03,5.35E-03
132066,6.90E-03,5.27E-03
132067,7.00E-03,5.19E-03
132068,6.79E-03,4.61E-03
132069,6.50E-03,4.49E-03
132070,6.22E-03,4.37E-03
132071,6.17E-03,4.28E-03
132072,5.85E-03,4.19E-03
132073,6.04E-03,4.14E-03
132074,6.20E-03,4.16E-03
132075,6.76E-03,4.18E-03
132076,7.78E-03,3.81E-03
132077,7.64E-03,3.79E-03
132078,7.57E-03,3.78E-03
132079,7.69E-03,3.77E-03
132080,7.73E-03,3.76E-03
132081,7.90E-03,3.75E-03
132082,8.04E-03,3.74E-03
132083,8.08E-03,3.72E-03
132084,8.09E-03,3.70E-03
132085,8.10E-03,3.68E-03
132086,8.11E-03,3.66E-03
132087,8.11E-03,3.64E-03
132088,8.33E-03,3.62E-03
132089,8.43E-03,3.59E-03
132090,8.59E-03,3.56E-03
132091,8.99E-03,3.53E-03
132092,9.21E-03,3.48E-03
132093,9.29E-03,3.42E-03
132094,9.16E-03,3.36E-03
132095,8.89E-03,3.29E-03
132096,8.63E-03,3.21E-03
132097,8.40E-03,3.14E-03
132098,8.05E-03,3.07E-03
132099,7.64E-03,3.02E-03
132100,6.53E-03,2.63E-03
132101,6.79E-03,2.53E-03
132102,5.34E-03,2.46E-03
132103,5.44E-03,2.33E-03
132104,6.87E-03,2.24E-03
132105,7.70E-03,2.22E-03
132106,7.70E-03,2.15E-03
132107,7.87E-03,2.08E-03
132108,7.95E-03,2.01E-03
132109,8.10E-03,1.95E-03
132110,8.24E-03,1.88E-03
132111,8.18E-03,1.82E-03
132112,8.11E-03,1.75E-03
132113,3.79E-03,1.26E-03
132114,5.47E-03,2.68E-02
132115,5.69E-03,2.67E-02
132116,7.53E-03,2.67E-02
132117,7.82E-03,2.67E-02
132118,8.03E-03,2.68E-02
132119,8.71E-03,2.74E-02
132120,8.92E-03,2.76E-02
132121,7.99E-03,2.77E-02
132122,7.30E-03,1.90E-02
132123,8.11E-03,1.92E-02
132124,8.46E-03,1.94E-02
132125,7.96E-03,1.96E-02
132126,8.05E-03,1.98E-02
132127,8.10E-03,1.97E-02
132128,9.98E-03,1.94E-02
132129,8.03E-03,1.68E-02
132130,8.37E-03,1.64E-02
132131,8.58E-03,1.60E-02
132132,8.73E-03,1.55E-02
132133,9.04E-03,1.50E-02
132134,9.19E-03,1.45E-02
132135,9.20E-03,1.40E-02
132136,7.88E-03,1.94E-02
132137,7.65E-03,1.99E-02
132138,7.59E-03,2.02E-02
132139,7.40E-03,2.08E-02
132140,8.24E-03,2.15E-02
132141,8.94E-03,2.20E-02
132142,7.12E-03,2.25E-02
132143,6.43E-03,2.28E-02
132144,4.99E-03,2.32E-02
132145,7.39E-03,2.51E-02
132146,7.90E-03,2.55E-02
132147,8.05E-03,2.60E-02
132148,8.11E-03,2.67E-02
132149,8.22E-03,2.76E-02
132150,8.25E-03,2.86E-02
132151,6.53E-03,2.92E-02
132152,5.72E-03,2.96E-02
132153,7.32E-03,3.03E-02
132154,8.15E-03,3.13E-02
132155,8.27E-03,3.22E-02
132156,8.64E-03,3.44E-02
132157,8.40E-03,3.33E-02
132158,8.93E-03,1.30E-02
132159,9.02E-03,1.24E-02
132160,9.92E-03,1.20E-02
132161,9.72E-03,1.15E-02
132162,9.61E-03,1.08E-02
132163,9.44E-03,1.01E-02
132164,8.78E-03,9.37E-03
132165,8.55E-03,8.66E-03
132166,8.22E-03,7.99E-03
132167,8.05E-03,7.35E-03
132168,8.05E-03,6.76E-03
132169,8.05E-03,6.21E-03
132170,8.05E-03,5.71E-03
132171,8.05E-03,5.25E-03
132172,8.05E-03,4.85E-03
132173,8.04E-03,4.50E-03
132174,8.04E-03,4.19E-03
132175,8.04E-03,3.94E-03
132176,8.03E-03,3.73E-03
132177,8.03E-03,3.56E-03
132178,8.03E-03,3.44E-03
132179,8.03E-03,3.36E-03
132180,8.03E-03,3.32E-03
132181,8.02E-03,3.31E-03
132182,8.02E-03,3.34E-03
132183,8.02E-03,3.39E-03
132184,8.02E-03,3.46E-03
132185,8.01E-03,3.56E-03
132186,8.01E-03,3.66E-03
132187,8.01E-03,3.78E-03
132188,8.01E-03,3.91E-03
132189,8.11E-03,4.05E-03
132190,8.34E-03,4.19E-03
132191,8.50E-03,4.34E-03
132192,8.52E-03,4.49E-03
132193,8.44E-03,4.64E-03
132194,8.36E-03,4.80E-03
132195,8.32E-03,4.95E-03
132196,8.29E-03,5.10E-03
132197,8.26E-03,5.25E-03
132198,8.24E-03,5.40E-03
132199,8.22E-03,5.55E-03
132200,8.19E-03,5.69E-03
132201,8.18E-03,5.84E-03
132202,8.20E-03,5.98E-03
132203,8.25E-03,6.13E-03
132204,8.24E-03,6.28E-03
132205,8.11E-03,6.42E-03
132206,8.01E-03,6.56E-03
132207,8.00E-03,6.70E-03
132208,8.00E-03,6.84E-03
132209,8.00E-03,6.99E-03
132210,7.97E-03,7.13E-03
132211,7.95E-03,7.27E-03
132212,7.94E-03,7.42E-03
132213,7.92E-03,7.57E-03
132214,7.90E-03,7.71E-03
132215,7.87E-03,7.87E-03
132216,7.83E-03,8.02E-03
132217,7.78E-03,8.17E-03
132218,7.72E-03,8.32E-03
132219,7.56E-03,8.47E-03
132220,7.37E-03,8.62E-03
132221,7.67E-03,8.76E-03
132222,8.20E-03,8.92E-03
132223,8.46E-03,9.07E-03
132224,8.54E-03,9.24E-03
132225,8.46E-03,9.40E-03
132226,8.39E-03,9.56E-03
132227,8.35E-03,9.72E-03
132228,8.31E-03,9.88E-03
132229,8.28E-03,1.00E-02
132230,8.26E-03,1.02E-02
132231,8.24E-03,1.04E-02
132232,8.22E-03,1.05E-02
132233,8.21E-03,1.06E-02
132234,8.20E-03,1.08E-02
132235,8.43E-03,1.09E-02
132236,8.74E-03,1.11E-02
132237,8.70E-03,1.12E-02
132238,8.50E-03,1.13E-02
132239,8.39E-03,1.15E-02
132240,8.32E-03,1.16E-02
132241,8.28E-03,1.17E-02
132242,8.24E-03,1.18E-02
132243,8.22E-03,1.20E-02
132244,8.20E-03,1.21E-02
132245,8.19E-03,1.22E-02
132246,8.17E-03,1.23E-02
132247,8.16E-03,1.24E-02
132248,8.16E-03,1.25E-02
132249,8.15E-03,1.26E-02
132250,8.14E-03,1.27E-02
132251,8.14E-03,1.28E-02
132252,8.13E-03,1.29E-02
132253,8.13E-03,1.30E-02
132254,8.13E-03,1.30E-02
132255,8.12E-03,1.31E-02
132256,8.12E-03,1.32E-02
132257,8.12E-03,1.33E-02
132258,8.12E-03,1.34E-02
132259,8.11E-03,1.35E-02
132260,8.11E-03,1.35E-02
132261,8.11E-03,1.36E-02
132262,8.11E-03,1.37E-02
132263,8.11E-03,1.38E-02
132264,8.11E-03,1.39E-02
132265,8.10E-03,1.39E-02
132266,8.10E-03,1.40E-02
132267,8.10E-03,1.41E-02
132268,8.10E-03,1.42E-02
132269,8.10E-03,1.42E-02
132270,8.10E-03,1.43E-02
132271,8.10E-03,1.44E-02
132272,8.10E-03,1.45E-02
132273,8.10E-03,1.45E-02
132274,8.10E-03,1.46E-02
132275,8.10E-03,1.47E-02
132276,8.10E-03,1.48E-02
132277,8.09E-03,1.48E-02
132278,8.09E-03,1.49E-02
132279,8.09E-03,1.50E-02
132280,8.09E-03,1.51E-02
132281,8.09E-03,1.51E-02
132282,8.09E-03,1.52E-02
132283,8.09E-03,1.53E-02
132284,8.09E-03,1.53E-02
132285,8.09E-03,1.54E-02
132286,8.09E-03,1.55E-02
132287,8.09E-03,1.55E-02
132288,8.09E-03,1.56E-02
132289,8.09E-03,1.57E-02
132290,8.09E-03,1.57E-02
132291,8.09E-03,1.58E-02
132292,8.09E-03,1.59E-02
132293,8.09E-03,1.60E-02
132294,8.09E-03,1.60E-02
132295,8.09E-03,1.61E-02
132296,8.09E-03,1.62E-02
132297,8.09E-03,1.62E-02
132298,8.09E-03,1.63E-02
132299,8.09E-03,1.64E-02
132300,8.09E-03,1.64E-02
132301,8.09E-03,1.65E-02
132302,8.09E-03,1.66E-02
132303,8.09E-03,1.66E-02
132304,8.09E-03,1.67E-02
132305,8.09E-03,1.68E-02
132306,8.09E-03,1.68E-02
132307,8.09E-03,1.69E-02
132308,8.09E-03,1.70E-02
132309,8.09E-03,1.70E-02
132310,8.09E-03,1.71E-02
132311,8.09E-03,1.72E-02
132312,8.09E-03,1.72E-02
132313,8.09E-03,1.73E-02
132314,8.10E-03,1.74E-02
132315,8.10E-03,1.74E-02
132316,8.10E-03,1.75E-02
132317,8.10E-03,1.76E-02
132318,8.10E-03,1.76E-02
132319,8.10E-03,1.77E-02
132320,8.10E-03,1.78E-02
132321,8.10E-03,1.78E-02
132322,8.10E-03,1.79E-02
132323,8.10E-03,1.80E-02
132324,8.10E-03,1.80E-02
132325,8.11E-03,1.81E-02
132326,8.11E-03,1.82E-02
132327,8.11E-03,1.82E-02
132328,8.11E-03,1.83E-02
132329,8.11E-03,1.84E-02
132330,8.12E-03,1.84E-02
132331,8.12E-03,1.85E-02
132332,8.12E-03,1.86E-02
132333,8.13E-03,1.86E-02
132334,8.14E-03,1.87E-02
132335,8.14E-03,1.87E-02
132336,8.15E-03,1.88E-02
132337,8.16E-03,1.88E-02
132338,8.17E-03,1.89E-02
132339,8.18E-03,1.89E-02
132340,8.20E-03,1.90E-02
132341,8.22E-03,1.90E-02
132342,8.26E-03,1.90E-02
132343,8.30E-03,1.91E-02
132344,8.37E-03,1.91E-02
132345,8.49E-03,1.92E-02
132346,8.46E-03,1.92E-02
132347,8.02E-03,1.93E-02
132348,7.74E-03,1.93E-02
132349,7.82E-03,1.94E-02
132350,7.88E-03,1.94E-02
132351,7.91E-03,1.95E-02
132352,7.94E-03,1.95E-02
132353,7.96E-03,1.96E-02
132354,7.98E-03,1.96E-02
132355,7.99E-03,1.97E-02
132356,8.00E-03,1.97E-02
132357,8.01E-03,1.97E-02
132358,8.02E-03,1.98E-02
132359,8.02E-03,1.98E-02
132360,8.03E-03,1.99E-02
132361,8.03E-03,1.99E-02
132362,8.04E-03,2.00E-02
132363,8.04E-03,2.01E-02
132364,8.04E-03,2.01E-02
132365,8.04E-03,2.02E-02
132366,8.05E-03,2.03E-02
132367,8.05E-03,2.03E-02
132368,8.05E-03,2.04E-02
132369,8.05E-03,2.05E-02
132370,8.05E-03,2.06E-02
132371,8.06E-03,2.06E-02
132372,8.06E-03,2.07E-02
132373,8.06E-03,2.08E-02
132374,8.05E-03,2.09E-02
132375,8.06E-03,2.09E-02
132376,8.06E-03,2.10E-02
132377,8.06E-03,2.11E-02
132378,8.07E-03,2.12E-02
132379,8.07E-03,2.13E-02
132380,8.07E-03,2.14E-02
132381,8.07E-03,2.15E-02
132382,8.07E-03,2.16E-02
132383,8.07E-03,2.16E-02
132384,8.08E-03,2.17E-02
132385,8.10E-03,2.18E-02
132386,8.10E-03,2.19E-02
132387,8.11E-03,2.20E-02
132388,8.11E-03,2.21E-02
132389,8.11E-03,2.22E-02
132390,8.11E-03,2.23E-02
132391,8.11E-03,2.24E-02
132392,8.11E-03,2.25E-02
132393,8.12E-03,2.26E-02
132394,8.12E-03,2.27E-02
132395,8.12E-03,2.28E-02
132396,8.13E-03,2.29E-02
132397,8.13E-03,2.30E-02
132398,8.14E-03,2.31E-02
132399,8.14E-03,2.32E-02
132400,8.15E-03,2.33E-02
132401,8.16E-03,2.34E-02
132402,8.17E-03,2.34E-02
132403,8.18E-03,2.35E-02
132404,8.20E-03,2.35E-02
132405,8.22E-03,2.36E-02
132406,8.25E-03,2.36E-02
132407,8.29E-03,2.36E-02
132408,8.53E-03,2.35E-02
132409,8.45E-03,2.35E-02
132410,8.37E-03,2.35E-02
132411,8.31E-03,2.35E-02
132412,6.29E-03,1.92E-02
132413,5.40E-03,1.94E-02
132414,5.85E-03,1.85E-02
132415,7.27E-03,1.79E-02
132416,8.11E-03,1.78E-02
132417,8.43E-03,1.75E-02
132418,9.36E-03,1.72E-02
132419,8.77E-03,1.70E-02
132420,7.44E-03,1.64E-02
132421,7.67E-03,1.60E-02
132422,8.20E-03,1.57E-02
132423,8.27E-03,1.55E-02
132424,8.29E-03,1.50E-02
132425,8.05E-03,1.45E-02
132426,7.92E-03,1.42E-02
132427,8.04E-03,1.38E-02
132428,8.12E-03,1.35E-02
132429,8.11E-03,1.31E-02
132430,8.06E-03,1.29E-02
132431,8.05E-03,1.26E-02
132432,8.09E-03,1.24E-02
132433,8.21E-03,1.23E-02
132434,8.27E-03,1.22E-02
132435,8.31E-03,1.21E-02
132436,8.31E-03,1.21E-02
132437,8.27E-03,1.21E-02
132438,8.21E-03,1.22E-02
132439,8.22E-03,1.22E-02
132440,8.23E-03,1.23E-02
132441,8.24E-03,1.23E-02
132442,8.25E-03,1.24E-02
132443,8.26E-03,1.25E-02
132444,8.27E-03,1.26E-02
132445,8.27E-03,1.27E-02
132446,8.28E-03,1.28E-02
132447,8.29E-03,1.29E-02
132448,8.29E-03,1.30E-02
132449,8.30E-03,1.31E-02
132450,8.31E-03,1.32E-02
132451,8.32E-03,1.33E-02
132452,8.33E-03,1.34E-02
132453,8.34E-03,1.35E-02
132454,8.35E-03,1.36E-02
132455,8.37E-03,1.37E-02
132456,8.39E-03,1.38E-02
132457,8.41E-03,1.39E-02
132458,8.43E-03,1.40E-02
132459,8.44E-03,1.41E-02
132460,8.45E-03,1.42E-02
132461,8.46E-03,1.43E-02
132462,8.46E-03,1.44E-02
132463,8.46E-03,1.45E-02
132464,8.45E-03,1.46E-02
132465,8.44E-03,1.47E-02
132466,8.44E-03,1.48E-02
132467,8.43E-03,1.49E-02
132468,8.43E-03,1.50E-02
132469,8.42E-03,1.51E-02
132470,8.42E-03,1.52E-02
132471,8.41E-03,1.53E-02
132472,8.41E-03,1.54E-02
132473,8.40E-03,1.55E-02
132474,8.40E-03,1.56E-02
132475,8.39E-03,1.57E-02
132476,8.39E-03,1.58E-02
132477,8.38E-03,1.59E-02
132478,8.38E-03,1.60E-02
132479,8.37E-03,1.61E-02
132480,8.37E-03,1.62E-02
132481,8.37E-03,1.63E-02
132482,8.37E-03,1.64E-02
132483,8.37E-03,1.65E-02
132484,8.36E-03,1.65E-02
132485,8.34E-03,1.66E-02
132486,8.33E-03,1.67E-02
132487,8.31E-03,1.68E-02
132488,8.30E-03,1.69E-02
132489,8.29E-03,1.70E-02
132490,8.30E-03,1.71E-02
132491,8.33E-03,1.72E-02
132492,8.39E-03,1.73E-02
132493,8.55E-03,1.74E-02
132494,8.57E-03,1.75E-02
132495,8.82E-03,1.76E-02
132496,9.05E-03,1.78E-02
132497,9.31E-03,1.79E-02
132498,9.33E-03,1.80E-02
132499,1.03E-02,1.81E-02
132500,1.03E-02,1.83E-02
132501,1.05E-02,1.84E-02
132502,1.15E-02,1.86E-02
132503,1.16E-02,1.88E-02
132504,1.06E-02,1.90E-02
132505,1.05E-02,1.92E-02
132506,1.04E-02,1.93E-02
132507,1.02E-02,1.95E-02
132508,1.01E-02,1.97E-02
132509,1.00E-02,1.99E-02
132510,9.98E-03,2.01E-02
132511,9.97E-03,2.03E-02
132512,9.94E-03,2.05E-02
132513,9.90E-03,2.07E-02
132514,9.87E-03,2.09E-02
132515,9.86E-03,2.12E-02
132516,9.86E-03,2.14E-02
132517,9.88E-03,2.16E-02
132518,9.90E-03,2.18E-02
132519,9.91E-03,2.20E-02
132520,9.89E-03,2.22E-02
132521,9.89E-03,2.23E-02
132522,9.76E-03,2.25E-02
132523,9.44E-03,2.27E-02
132524,9.42E-03,2.29E-02
132525,9.34E-03,2.30E-02
132526,9.13E-03,2.32E-02
132527,9.03E-03,2.33E-02
132528,8.93E-03,2.35E-02
132529,8.75E-03,2.36E-02
132530,8.59E-03,2.37E-02
132531,8.60E-03,2.39E-02
132532,8.31E-03,2.40E-02
132533,8.24E-03,2.41E-02
132534,8.15E-03,2.42E-02
132535,7.96E-03,2.44E-02
132536,7.89E-03,2.45E-02
132537,7.88E-03,2.46E-02
132538,7.67E-03,2.47E-02
132539,7.14E-03,2.48E-02
132540,7.07E-03,2.50E-02
132541,6.84E-03,2.51E-02
132542,6.79E-03,2.52E-02
132543,6.65E-03,2.53E-02
132544,6.49E-03,2.54E-02
132545,6.70E-03,2.55E-02
132546,7.55E-03,2.57E-02
132547,7.93E-03,2.58E-02
132548,8.60E-03,2.60E-02
132549,8.97E-03,2.61E-02
132550,8.85E-03,2.63E-02
132551,6.55E-03,5.57E-03
132552,6.73E-03,5.60E-03
132553,6.98E-03,5.63E-03
132554,7.03E-03,5.66E-03
132555,7.51E-03,5.69E-03
132556,7.59E-03,5.73E-03
132557,7.90E-03,5.77E-03
132558,7.93E-03,5.82E-03
132559,7.96E-03,5.87E-03
132560,7.98E-03,5.93E-03
132561,8.00E-03,5.98E-03
132562,8.01E-03,6.05E-03
132563,8.03E-03,6.11E-03
132564,8.04E-03,6.18E-03
132565,8.04E-03,6.24E-03
132566,8.04E-03,6.31E-03
132567,8.05E-03,6.38E-03
132568,8.05E-03,6.44E-03
132569,8.05E-03,6.51E-03
132570,8.05E-03,6.58E-03
132571,8.05E-03,6.64E-03
132572,8.06E-03,6.71E-03
132573,8.06E-03,6.78E-03
132574,8.06E-03,6.84E-03
132575,8.06E-03,6.90E-03
132576,8.06E-03,6.97E-03
132577,8.06E-03,7.03E-03
132578,8.07E-03,7.09E-03
132579,8.07E-03,7.15E-03
132580,8.07E-03,7.21E-03
132581,8.07E-03,7.27E-03
132582,8.07E-03,7.33E-03
132583,8.07E-03,7.38E-03
132584,8.06E-03,7.44E-03
132585,8.05E-03,7.50E-03
132586,8.05E-03,7.55E-03
132587,8.04E-03,7.61E-03
132588,8.04E-03,7.66E-03
132589,8.03E-03,7.72E-03
132590,8.02E-03,7.77E-03
132591,8.01E-03,7.83E-03
132592,8.00E-03,7.89E-03
132593,7.99E-03,7.96E-03
132594,7.97E-03,8.03E-03
132595,7.82E-03,8.10E-03
132596,7.69E-03,8.18E-03
132597,7.57E-03,8.26E-03
132598,7.42E-03,8.36E-03
132599,7.25E-03,8.46E-03
132600,7.09E-03,8.57E-03
132601,6.68E-03,8.68E-03
132602,6.62E-03,8.80E-03
132603,6.53E-03,8.93E-03
132604,6.91E-03,9.06E-03
132605,6.98E-03,9.19E-03
132606,7.15E-03,9.32E-03
132607,7.38E-03,9.45E-03
132608,7.61E-03,9.58E-03
132609,9.17E-03,9.71E-03
132610,9.20E-03,9.86E-03
132611,9.10E-03,1.00E-02
132612,8.84E-03,1.02E-02
132613,8.71E-03,1.03E-02
132614,8.62E-03,1.05E-02
132615,8.55E-03,1.07E-02
132616,8.52E-03,1.08E-02
132617,8.47E-03,1.10E-02
132618,8.39E-03,1.11E-02
132619,8.33E-03,1.13E-02
132620,8.29E-03,1.14E-02
132621,8.26E-03,1.16E-02
132622,8.24E-03,1.17E-02
132623,8.22E-03,1.18E-02
132624,8.19E-03,1.19E-02
132625,8.18E-03,1.21E-02
132626,8.20E-03,1.22E-02
132627,8.24E-03,1.23E-02
132628,8.27E-03,1.24E-02
132629,8.16E-03,1.25E-02
132630,8.05E-03,1.26E-02
132631,8.04E-03,1.27E-02
132632,8.04E-03,1.28E-02
132633,8.04E-03,1.29E-02
132634,8.04E-03,1.30E-02
132635,8.03E-03,1.32E-02
132636,8.01E-03,1.33E-02
132637,7.99E-03,1.34E-02
132638,7.97E-03,1.35E-02
132639,7.83E-03,1.37E-02
132640,7.72E-03,1.38E-02
132641,7.61E-03,1.40E-02
132642,7.44E-03,1.42E-02
132643,7.26E-03,1.43E-02
132644,6.98E-03,1.45E-02
132645,6.90E-03,1.46E-02
132646,6.87E-03,1.48E-02
132647,7.30E-03,1.49E-02
132648,7.95E-03,1.50E-02
132649,8.19E-03,1.51E-02
132650,8.72E-03,1.53E-02
132651,8.82E-03,1.54E-02
132652,9.15E-03,1.56E-02
132653,9.20E-03,1.57E-02
132654,8.98E-03,1.59E-02
132655,8.79E-03,1.60E-02
132656,8.67E-03,1.62E-02
132657,8.58E-03,1.64E-02
132658,8.47E-03,1.65E-02
132659,8.33E-03,1.67E-02
132660,8.23E-03,1.68E-02
132661,8.21E-03,1.70E-02
132662,8.21E-03,1.71E-02
132663,8.20E-03,1.73E-02
132664,8.19E-03,1.74E-02
132665,8.19E-03,1.76E-02
132666,8.02E-03,1.77E-02
132667,7.95E-03,1.79E-02
132668,7.77E-03,1.81E-02
132669,7.65E-03,1.83E-02
132670,7.00E-03,1.85E-02
132671,6.81E-03,1.88E-02
132672,6.69E-03,1.90E-02
132673,6.37E-03,1.92E-02
132674,5.85E-03,1.93E-02
132675,5.44E-03,1.95E-02
132676,6.89E-03,1.98E-02
132677,7.38E-03,1.99E-02
132678,8.41E-03,2.01E-02
132679,9.56E-03,2.01E-02
132680,1.02E-02,2.03E-02
132681,9.86E-03,2.06E-02
132682,9.52E-03,2.09E-02
132683,8.91E-03,2.11E-02
132684,8.78E-03,2.14E-02
132685,8.48E-03,2.17E-02
132686,8.44E-03,2.20E-02
132687,8.43E-03,2.22E-02
132688,8.41E-03,2.25E-02
132689,8.39E-03,2.27E-02
132690,8.37E-03,2.29E-02
132691,8.35E-03,2.31E-02
132692,8.33E-03,2.32E-02
132693,8.31E-03,2.34E-02
132694,8.30E-03,2.35E-02
132695,8.44E-03,2.36E-02
132696,8.68E-03,2.37E-02
132697,8.71E-03,2.38E-02
132698,8.60E-03,2.39E-02
132699,8.51E-03,2.39E-02
132700,8.44E-03,2.40E-02
132701,8.39E-03,2.41E-02
132702,8.36E-03,2.41E-02
132703,8.32E-03,2.42E-02
132704,8.30E-03,2.42E-02
132705,8.24E-03,2.43E-02
132706,8.12E-03,2.43E-02
132707,8.02E-03,2.44E-02
132708,8.00E-03,2.44E-02
132709,7.95E-03,2.44E-02
132710,7.86E-03,2.45E-02
132711,7.73E-03,2.45E-02
132712,7.70E-03,2.46E-02
132713,7.50E-03,2.46E-02
132714,7.46E-03,2.46E-02
132715,7.00E-03,2.46E-02
132716,6.98E-03,2.46E-02
132717,7.88E-03,2.47E-02
132718,8.24E-03,2.47E-02
132719,8.25E-03,2.47E-02
132720,8.30E-03,2.47E-02
132721,8.32E-03,2.48E-02
132722,8.16E-03,2.49E-02
132723,8.05E-03,2.50E-02
132724,7.99E-03,2.51E-02
132725,7.71E-03,2.53E-02
132726,7.61E-03,2.54E-02
132727,7.16E-03,2.55E-02
132728,7.14E-03,2.55E-02
132729,7.33E-03,2.56E-02
132730,7.74E-03,2.56E-02
132731,8.20E-03,2.56E-02
132732,8.80E-03,2.56E-02
132733,8.81E-03,2.57E-02
132734,8.93E-03,2.58E-02
132735,8.64E-03,2.59E-02
132736,8.27E-03,2.61E-02
132737,8.03E-03,2.63E-02
132738,7.94E-03,2.64E-02
132739,7.73E-03,2.66E-02
132740,7.46E-03,2.68E-02
132741,7.35E-03,2.69E-02
132742,7.27E-03,2.70E-02
132743,7.32E-03,2.71E-02
132744,7.53E-03,2.72E-02
132745,7.67E-03,2.73E-02
132746,7.92E-03,2.73E-02
132747,8.09E-03,2.73E-02
132748,8.69E-03,2.72E-02
132749,8.73E-03,2.73E-02
132750,8.41E-03,2.72E-02
132751,7.63E-03,2.72E-02
132752,5.34E-03,2.73E-02
132753,5.77E-03,2.72E-02
132754,8.89E-03,2.65E-02
132755,1.00E-02,2.70E-02
132756,1.10E-02,2.68E-02
132757,1.15E-02,2.70E-02
132758,8.84E-03,2.72E-02
132759,8.08E-03,2.73E-02
132760,1.04E-02,2.70E-02
132761,8.39E-03,2.74E-02
132762,6.60E-03,2.71E-02
132763,5.89E-03,2.74E-02
132764,5.60E-03,2.72E-02
132765,7.98E-03,2.73E-02
132766,8.97E-03,2.72E-02
132767,9.15E-03,2.71E-02
132768,8.78E-03,2.68E-02
132769,7.88E-03,2.68E-02
132770,7.99E-03,2.68E-02
132771,8.24E-03,2.69E-02
132772,7.28E-03,2.70E-02
132773,7.20E-03,2.70E-02
132774,6.91E-03,2.70E-02
132775,6.66E-03,2.71E-02
132776,6.47E-03,2.71E-02
132777,6.50E-03,2.70E-02
132778,6.61E-03,2.70E-02
132779,6.70E-03,2.69E-02
132780,6.86E-03,2.68E-02
132781,6.88E-03,2.67E-02
132782,6.65E-03,2.65E-02
132783,6.88E-03,2.63E-02
132784,7.11E-03,2.63E-02
132785,8.00E-03,2.61E-02
132786,8.55E-03,2.60E-02
132787,8.48E-03,2.60E-02
132788,8.40E-03,2.59E-02
132789,8.37E-03,2.60E-02
132790,8.28E-03,2.61E-02
132791,8.24E-03,2.63E-02
132792,8.20E-03,2.64E-02
132793,8.04E-03,2.65E-02
132794,7.99E-03,2.66E-02
132795,7.90E-03,2.66E-02
132796,7.69E-03,2.66E-02
132797,7.55E-03,2.65E-02
132798,7.52E-03,2.65E-02
132799,7.37E-03,2.64E-02
132800,7.22E-03,2.62E-02
132801,7.40E-03,2.61E-02
132802,7.48E-03,2.60E-02
132803,6.16E-03,2.58E-02
132804,6.73E-03,2.57E-02
132805,1.01E-02,2.56E-02
132806,9.25E-03,2.54E-02
132807,8.97E-03,2.53E-02
132808,8.83E-03,2.52E-02
132809,8.81E-03,2.51E-02
132810,9.35E-03,2.50E-02
132811,7.91E-03,2.49E-02
132812,6.65E-03,2.48E-02
132813,6.92E-03,2.48E-02
132814,6.68E-03,2.48E-02
132815,6.73E-03,2.47E-02
132816,7.33E-03,2.68E-02
132817,7.48E-03,2.69E-02
132818,6.72E-03,2.36E-02
132819,6.72E-03,2.37E-02
132820,6.83E-03,2.38E-02
132821,6.88E-03,2.39E-02
132822,6.98E-03,2.39E-02
132823,7.08E-03,2.39E-02
132824,7.24E-03,2.39E-02
132825,7.53E-03,2.38E-02
132826,7.83E-03,2.37E-02
132827,7.90E-03,2.36E-02
132828,8.11E-03,2.35E-02
132829,8.27E-03,2.35E-02
132830,8.29E-03,2.34E-02
132831,8.32E-03,2.33E-02
132832,8.35E-03,2.33E-02
132833,8.40E-03,2.33E-02
132834,8.42E-03,2.33E-02
132835,8.54E-03,2.33E-02
132836,8.88E-03,2.34E-02
132837,8.30E-03,2.34E-02
132838,6.94E-03,2.34E-02
132839,6.65E-03,2.35E-02
132840,7.16E-03,2.35E-02
132841,7.52E-03,2.35E-02
132842,7.69E-03,2.36E-02
132843,7.78E-03,2.36E-02
132844,7.85E-03,2.36E-02
132845,7.89E-03,2.36E-02
132846,7.92E-03,2.36E-02
132847,7.95E-03,2.37E-02
132848,7.96E-03,2.37E-02
132849,7.98E-03,2.38E-02
132850,7.99E-03,2.39E-02
132851,8.00E-03,2.40E-02
132852,8.01E-03,2.40E-02
132853,8.02E-03,2.41E-02
132854,8.02E-03,2.42E-02
132855,8.03E-03,2.43E-02
132856,8.02E-03,2.44E-02
132857,8.02E-03,2.45E-02
132858,8.04E-03,2.46E-02
132859,8.05E-03,2.47E-02
132860,8.06E-03,2.49E-02
132861,8.07E-03,2.50E-02
132862,8.07E-03,2.51E-02
132863,8.07E-03,2.52E-02
132864,8.08E-03,2.53E-02
132865,8.10E-03,2.54E-02
132866,8.10E-03,2.55E-02
132867,8.10E-03,2.57E-02
132868,8.11E-03,2.58E-02
132869,8.11E-03,2.59E-02
132870,8.11E-03,2.60E-02
132871,8.11E-03,2.61E-02
132872,8.11E-03,2.63E-02
132873,8.11E-03,2.64E-02
132874,8.11E-03,2.65E-02
132875,8.12E-03,2.66E-02
132876,8.12E-03,2.67E-02
132877,8.12E-03,2.69E-02
132878,8.12E-03,2.70E-02
132879,8.12E-03,2.71E-02
132880,8.13E-03,2.72E-02
132881,8.13E-03,2.74E-02
132882,8.13E-03,2.75E-02
132883,8.14E-03,2.76E-02
132884,8.14E-03,2.77E-02
132885,8.14E-03,2.78E-02
132886,8.15E-03,2.80E-02
132887,8.15E-03,2.81E-02
132888,8.16E-03,2.82E-02
132889,8.17E-03,2.83E-02
132890,8.18E-03,2.84E-02
132891,8.18E-03,2.85E-02
132892,8.20E-03,2.86E-02
132893,8.20E-03,2.88E-02
132894,8.21E-03,2.89E-02
132895,8.21E-03,2.90E-02
132896,8.22E-03,2.90E-02
132897,8.22E-03,2.91E-02
132898,8.23E-03,2.92E-02
132899,8.25E-03,2.93E-02
132900,8.28E-03,2.93E-02
132901,8.31E-03,2.93E-02
132902,8.35E-03,2.93E-02
132903,8.41E-03,2.93E-02
132904,8.49E-03,2.93E-02
132905,8.61E-03,2.93E-02
132906,8.79E-03,2.92E-02
132907,8.95E-03,2.92E-02
132908,8.94E-03,2.91E-02
132909,8.82E-03,2.90E-02
132910,8.73E-03,2.90E-02
132911,8.65E-03,2.89E-02
132912,8.74E-03,2.89E-02
132913,8.89E-03,2.88E-02
132914,8.66E-03,2.87E-02
132915,8.33E-03,2.87E-02
132916,8.22E-03,2.86E-02
132917,8.13E-03,2.85E-02
132918,8.04E-03,2.84E-02
132919,7.98E-03,2.84E-02
132920,7.85E-03,2.83E-02
132921,7.35E-03,2.82E-02
132922,7.16E-03,2.81E-02
132923,7.46E-03,2.80E-02
132924,7.61E-03,2.79E-02
132925,7.60E-03,2.78E-02
132926,7.36E-03,2.78E-02
132927,7.03E-03,2.77E-02
132928,7.03E-03,2.77E-02
132929,7.34E-03,2.77E-02
132930,7.55E-03,2.76E-02
132931,7.68E-03,2.76E-02
132932,7.79E-03,2.76E-02
132933,7.86E-03,2.77E-02
132934,7.87E-03,2.77E-02
132935,7.87E-03,2.78E-02
132936,7.87E-03,2.78E-02
132937,7.87E-03,2.79E-02
132938,7.87E-03,2.80E-02
132939,7.93E-03,2.81E-02
132940,8.05E-03,2.82E-02
132941,8.09E-03,2.83E-02
132942,8.10E-03,2.85E-02
132943,8.10E-03,2.86E-02
132944,8.10E-03,2.87E-02
132945,8.11E-03,2.88E-02
132946,8.13E-03,2.90E-02
132947,8.15E-03,2.91E-02
132948,8.15E-03,2.92E-02
132949,8.15E-03,2.94E-02
132950,8.16E-03,2.95E-02
132951,8.16E-03,2.96E-02
132952,8.17E-03,2.97E-02
132953,8.17E-03,2.98E-02
132954,8.18E-03,3.00E-02
132955,8.19E-03,3.01E-02
132956,8.20E-03,3.02E-02
132957,8.21E-03,3.03E-02
132958,8.22E-03,3.04E-02
132959,8.23E-03,3.04E-02
132960,8.24E-03,3.05E-02
132961,8.26E-03,3.06E-02
132962,8.28E-03,3.06E-02
132963,8.30E-03,3.06E-02
132964,8.31E-03,3.07E-02
132965,8.33E-03,3.07E-02
132966,8.36E-03,3.07E-02
132967,8.39E-03,3.06E-02
132968,8.42E-03,3.06E-02
132969,8.47E-03,3.06E-02
132970,8.52E-03,3.05E-02
132971,8.59E-03,3.04E-02
132972,8.66E-03,3.04E-02
132973,8.68E-03,3.03E-02
132974,8.62E-03,3.02E-02
132975,8.61E-03,3.02E-02
132976,8.67E-03,3.01E-02
132977,8.88E-03,3.01E-02
132978,8.83E-03,3.01E-02
132979,7.79E-03,3.00E-02
132980,7.01E-03,3.00E-02
132981,7.16E-03,3.00E-02
132982,7.35E-03,3.00E-02
132983,7.49E-03,3.00E-02
132984,7.49E-03,2.99E-02
132985,7.44E-03,2.99E-02
132986,6.43E-03,2.99E-02
132987,6.43E-03,2.99E-02
132988,6.82E-03,2.99E-02
132989,7.25E-03,2.99E-02
132990,7.38E-03,2.99E-02
132991,7.69E-03,2.99E-02
132992,7.86E-03,3.00E-02
132993,7.91E-03,3.00E-02
132994,7.94E-03,3.01E-02
132995,7.96E-03,3.02E-02
132996,7.98E-03,3.04E-02
132997,7.99E-03,3.05E-02
132998,8.00E-03,3.07E-02
132999,8.01E-03,3.09E-02
133000,8.02E-03,3.11E-02
133001,8.02E-03,3.12E-02
133002,8.03E-03,3.14E-02
133003,8.03E-03,3.16E-02
133004,8.04E-03,3.19E-02
133005,8.04E-03,3.21E-02
133006,8.04E-03,3.23E-02
133007,8.05E-03,3.25E-02
133008,8.05E-03,3.27E-02
133009,8.05E-03,3.29E-02
133010,8.06E-03,3.31E-02
133011,8.06E-03,3.33E-02
133012,8.06E-03,3.36E-02
133013,8.06E-03,3.38E-02
133014,8.06E-03,3.40E-02
133015,8.06E-03,3.42E-02
133016,8.06E-03,3.44E-02
133017,8.06E-03,3.47E-02
133018,8.06E-03,3.49E-02
133019,8.06E-03,3.51E-02
133020,8.06E-03,3.53E-02
133021,8.06E-03,3.56E-02
133022,8.07E-03,3.58E-02
133023,8.07E-03,3.60E-02
133024,8.07E-03,3.62E-02
133025,8.07E-03,3.65E-02
133026,8.07E-03,3.67E-02
133027,8.07E-03,3.69E-02
133028,8.07E-03,3.71E-02
133029,8.07E-03,3.74E-02
133030,8.07E-03,3.76E-02
133031,8.07E-03,3.79E-02
133032,8.07E-03,3.81E-02
133033,8.07E-03,3.83E-02
133034,8.07E-03,3.86E-02
133035,8.07E-03,3.88E-02
133036,8.07E-03,3.90E-02
133037,8.07E-03,3.93E-02
133038,8.07E-03,3.95E-02
133039,8.07E-03,3.98E-02
133040,8.07E-03,4.00E-02
133041,8.07E-03,4.03E-02
133042,8.07E-03,4.05E-02
133043,8.07E-03,4.08E-02
133044,8.07E-03,4.10E-02
133045,8.07E-03,4.13E-02
133046,8.07E-03,4.15E-02
133047,8.07E-03,4.18E-02
133048,8.13E-03,4.21E-02
133049,8.11E-03,4.24E-02
133050,8.05E-03,4.27E-02
133051,9.49E-03,5.58E-03
133052,8.30E-03,5.59E-03
133053,8.01E-03,5.61E-03
133054,7.64E-03,5.64E-03
133055,7.49E-03,5.67E-03
133056,6.74E-03,5.70E-03
133057,6.68E-03,5.75E-03
133058,6.94E-03,5.79E-03
133059,7.61E-03,5.84E-03
133060,8.05E-03,5.89E-03
133061,8.21E-03,5.94E-03
133062,8.04E-03,6.00E-03
133063,7.92E-03,6.06E-03
133064,7.75E-03,6.12E-03
133065,7.21E-03,6.16E-03
133066,7.22E-03,6.20E-03
133067,7.50E-03,6.23E-03
133068,8.61E-03,6.25E-03
133069,9.61E-03,6.26E-03
133070,1.00E-02,6.26E-03
133071,1.04E-02,6.26E-03
133072,1.04E-02,6.27E-03
133073,9.50E-03,6.27E-03
133074,9.31E-03,6.29E-03
133075,9.14E-03,6.30E-03
133076,8.65E-03,6.30E-03
133077,8.61E-03,6.29E-03
133078,8.45E-03,6.28E-03
133079,8.32E-03,6.25E-03
133080,8.26E-03,6.22E-03
133081,8.05E-03,6.18E-03
133082,7.71E-03,6.14E-03
133083,7.69E-03,6.10E-03
133084,7.81E-03,6.06E-03
133085,7.75E-03,6.02E-03
133086,7.63E-03,5.97E-03
133087,7.50E-03,5.93E-03
133088,7.30E-03,5.89E-03
133089,6.90E-03,5.85E-03
133090,7.30E-03,5.82E-03
133091,8.01E-03,5.79E-03
133092,8.07E-03,5.76E-03
133093,8.08E-03,5.73E-03
133094,8.09E-03,5.70E-03
133095,8.08E-03,5.68E-03
133096,8.00E-03,5.66E-03
133097,7.89E-03,5.64E-03
133098,7.83E-03,5.62E-03
133099,7.78E-03,5.60E-03
133100,7.71E-03,5.59E-03
133101,7.62E-03,5.57E-03
133102,7.86E-03,5.55E-03
133103,8.37E-03,5.53E-03
133104,8.77E-03,5.51E-03
133105,8.90E-03,5.50E-03
133106,8.76E-03,5.48E-03
133107,8.61E-03,5.46E-03
133108,8.47E-03,5.44E-03
133109,8.19E-03,5.43E-03
133110,7.97E-03,5.41E-03
133111,7.82E-03,5.39E-03
133112,7.53E-03,5.38E-03
133113,7.39E-03,5.36E-03
133114,7.34E-03,5.34E-03
133115,7.48E-03,5.31E-03
133116,8.07E-03,5.29E-03
133117,8.60E-03,5.27E-03
133118,8.88E-03,5.25E-03
133119,8.72E-03,5.22E-03
133120,8.46E-03,5.20E-03
133121,8.31E-03,5.19E-03
133122,8.11E-03,5.17E-03
133123,7.91E-03,5.15E-03
133124,7.59E-03,5.14E-03
133125,7.31E-03,5.12E-03
133126,7.32E-03,5.10E-03
133127,7.40E-03,5.08E-03
133128,8.06E-03,5.06E-03
133129,8.33E-03,5.03E-03
133130,9.03E-03,5.01E-03
133131,9.02E-03,4.98E-03
133132,9.03E-03,4.96E-03
133133,8.90E-03,4.95E-03
133134,8.51E-03,4.93E-03
133135,8.22E-03,4.91E-03
133136,7.83E-03,4.90E-03
133137,7.51E-03,4.88E-03
133138,7.10E-03,4.87E-03
133139,6.98E-03,4.85E-03
133140,6.35E-03,4.84E-03
133141,6.44E-03,4.82E-03
133142,7.32E-03,4.80E-03
133143,8.49E-03,4.78E-03
133144,8.93E-03,4.75E-03
133145,9.31E-03,4.71E-03
133146,9.30E-03,4.68E-03
133147,9.69E-03,4.65E-03
133148,9.41E-03,4.61E-03
133149,9.20E-03,4.57E-03
133150,8.96E-03,4.54E-03
133151,8.97E-03,4.49E-03
133152,8.66E-03,4.45E-03
133153,8.44E-03,4.40E-03
133154,8.38E-03,4.35E-03
133155,8.34E-03,4.29E-03
133156,8.31E-03,4.23E-03
133157,8.25E-03,4.17E-03
133158,8.12E-03,4.11E-03
133159,8.00E-03,4.04E-03
133160,7.97E-03,3.98E-03
133161,7.96E-03,3.92E-03
133162,7.94E-03,3.85E-03
133163,7.92E-03,3.79E-03
133164,7.89E-03,3.74E-03
133165,7.85E-03,3.68E-03
133166,7.80E-03,3.63E-03
133167,7.73E-03,3.57E-03
133168,7.62E-03,3.53E-03
133169,7.45E-03,3.48E-03
133170,7.21E-03,3.44E-03
133171,7.27E-03,3.40E-03
133172,7.54E-03,3.37E-03
133173,7.60E-03,3.34E-03
133174,7.53E-03,3.31E-03
133175,7.44E-03,3.28E-03
133176,7.32E-03,3.26E-03
133177,7.53E-03,3.24E-03
133178,8.69E-03,3.21E-03
133179,9.43E-03,3.19E-03
133180,9.13E-03,3.16E-03
133181,8.86E-03,3.13E-03
133182,8.70E-03,3.10E-03
133183,8.59E-03,3.06E-03
133184,8.52E-03,3.03E-03
133185,8.35E-03,2.99E-03
133186,8.06E-03,2.96E-03
133187,7.86E-03,2.92E-03
133188,7.79E-03,2.88E-03
133189,7.75E-03,2.85E-03
133190,7.70E-03,2.82E-03
133191,7.63E-03,2.79E-03
133192,7.54E-03,2.76E-03
133193,7.44E-03,2.73E-03
133194,7.46E-03,2.70E-03
133195,7.65E-03,2.68E-03
133196,7.74E-03,2.66E-03
133197,7.71E-03,2.64E-03
133198,7.69E-03,2.62E-03
133199,7.68E-03,2.61E-03
133200,7.99E-03,2.59E-03
133201,8.45E-03,2.58E-03
133202,8.57E-03,2.56E-03
133203,8.51E-03,2.54E-03
133204,8.45E-03,2.52E-03
133205,8.40E-03,2.50E-03
133206,8.30E-03,2.48E-03
133207,8.19E-03,2.46E-03
133208,8.10E-03,2.43E-03
133209,8.08E-03,2.41E-03
133210,8.10E-03,2.39E-03
133211,8.10E-03,2.36E-03
133212,8.13E-03,2.34E-03
133213,8.42E-03,2.31E-03
133214,8.65E-03,2.29E-03
133215,8.56E-03,2.26E-03
133216,8.45E-03,2.22E-03
133217,8.38E-03,2.19E-03
133218,8.39E-03,2.15E-03
133219,8.45E-03,2.12E-03
133220,8.56E-03,2.08E-03
133221,8.72E-03,2.04E-03
133222,8.76E-03,1.99E-03
133223,8.63E-03,1.95E-03
133224,8.51E-03,1.90E-03
133225,8.43E-03,1.85E-03
133226,8.37E-03,1.79E-03
133227,8.34E-03,1.74E-03
133228,8.34E-03,1.69E-03
133229,8.30E-03,1.63E-03
133230,8.24E-03,1.58E-03
133231,8.21E-03,1.52E-03
133232,8.18E-03,1.47E-03
133233,8.17E-03,1.41E-03
133234,8.16E-03,1.36E-03
133235,8.15E-03,1.30E-03
133236,8.14E-03,1.25E-03
133237,8.11E-03,1.20E-03
133238,8.05E-03,1.15E-03
133239,8.02E-03,1.09E-03
133240,8.01E-03,1.04E-03
133241,8.00E-03,9.96E-04
133242,8.00E-03,9.49E-04
133243,7.99E-03,9.03E-04
133244,7.98E-03,8.57E-04
133245,7.97E-03,8.14E-04
133246,7.96E-03,7.71E-04
133247,7.94E-03,7.29E-04
133248,7.92E-03,6.89E-04
133249,7.90E-03,6.49E-04
133250,7.88E-03,6.12E-04
133251,7.85E-03,5.75E-04
133252,7.80E-03,5.40E-04
133253,7.79E-03,5.06E-04
133254,7.84E-03,4.74E-04
133255,7.88E-03,4.43E-04
133256,7.88E-03,4.13E-04
133257,7.86E-03,3.84E-04
133258,7.83E-03,3.56E-04
133259,7.78E-03,3.29E-04
133260,7.71E-03,3.03E-04
133261,7.69E-03,2.78E-04
133262,7.75E-03,2.54E-04
133263,7.80E-03,2.32E-04
133264,7.85E-03,2.10E-04
133265,7.89E-03,1.90E-04
133266,7.89E-03,1.70E-04
133267,7.80E-03,1.51E-04
133268,7.66E-03,1.32E-04
133269,7.60E-03,1.18E-04
133270,7.50E-03,1.05E-04
133271,7.36E-03,9.75E-05
133272,7.23E-03,9.32E-05
133273,7.12E-03,9.15E-05
133274,6.89E-03,8.96E-05
133275,6.59E-03,8.23E-05
133276,6.65E-03,7.44E-05
133277,6.82E-03,7.04E-05
133278,7.79E-03,7.77E-05
133279,7.98E-03,9.41E-05
133280,8.32E-03,1.21E-04
133281,8.57E-03,1.46E-04
133282,8.17E-03,1.65E-04
133283,7.85E-03,1.91E-04
133284,7.78E-03,2.10E-04
133285,8.12E-03,2.55E-04
133286,8.64E-03,2.98E-04
133287,9.01E-03,3.18E-04
133288,9.04E-03,3.41E-04
133289,8.27E-03,3.34E-04
133290,7.58E-03,3.27E-04
133291,6.88E-03,3.25E-04
133292,6.69E-03,3.28E-04
133293,6.41E-03,3.37E-04
133294,6.39E-03,3.77E-04
133295,8.16E-03,4.16E-04
133296,8.40E-03,4.65E-04
133297,8.89E-03,5.10E-04
133298,9.23E-03,5.59E-04
133299,9.22E-03,5.99E-04
133300,9.12E-03,6.32E-04
133301,8.77E-03,6.51E-04
133302,8.48E-03,6.67E-04
133303,8.25E-03,6.74E-04
133304,8.00E-03,6.86E-04
133305,7.11E-03,6.94E-04
133306,6.22E-03,7.10E-04
133307,5.97E-03,7.46E-04
133308,8.54E-03,7.73E-04
133309,8.51E-03,8.07E-04
133310,8.45E-03,8.49E-04
133311,7.78E-03,8.88E-04
133312,7.71E-03,9.35E-04
133313,8.30E-03,9.74E-04
133314,9.46E-03,3.93E-03
133315,8.73E-03,3.89E-03
133316,8.10E-03,3.87E-03
133317,7.66E-03,3.85E-03
133318,7.31E-03,3.83E-03
133319,7.11E-03,3.80E-03
133320,6.88E-03,3.78E-03
133321,6.90E-03,3.78E-03
133322,6.99E-03,3.80E-03
133323,7.07E-03,3.82E-03
133324,7.48E-03,3.85E-03
133325,7.51E-03,3.90E-03
133326,7.82E-03,3.89E-03
133327,7.62E-03,1.68E-02
133328,7.91E-03,1.56E-02
133329,6.65E-03,9.78E-03
133330,8.10E-03,4.78E-03
133331,8.25E-03,4.67E-03
133332,8.22E-03,4.54E-03
133333,7.34E-03,4.29E-03
133334,6.79E-03,3.68E-03
133335,6.75E-03,3.63E-03
133336,6.67E-03,3.56E-03
133337,6.34E-03,3.75E-03
133338,7.26E-03,2.60E-03
133339,8.19E-03,1.31E-03
133340,5.80E-03,1.47E-03
133341,6.32E-03,1.39E-03
133342,7.41E-03,1.30E-03
133343,7.52E-03,1.17E-03
133344,8.47E-03,1.05E-03
133345,5.87E-03,9.05E-04
133346,6.56E-03,5.45E-03
133347,7.94E-03,2.75E-02
133348,8.55E-03,1.92E-02
133349,9.23E-03,1.39E-02
133350,8.15E-03,2.35E-02
133351,9.56E-03,1.95E-02
133352,8.09E-03,1.98E-02
133353,8.06E-03,2.02E-02
133354,8.00E-03,2.05E-02
133355,7.90E-03,2.07E-02
133356,7.78E-03,2.09E-02
133357,7.67E-03,2.09E-02
133358,7.52E-03,2.09E-02
133359,7.42E-03,2.08E-02
133360,7.21E-03,2.07E-02
133361,6.84E-03,2.06E-02
133362,6.05E-03,2.06E-02
133363,6.89E-03,9.61E-02
133364,7.14E-03,6.89E-02
133365,7.70E-03,6.57E-02
133366,7.72E-03,6.13E-02
133367,7.76E-03,5.66E-02
133368,7.64E-03,5.26E-02
133369,7.64E-03,4.92E-02
133370,7.66E-03,4.64E-02
133371,7.78E-03,4.40E-02
133372,7.85E-03,4.19E-02
133373,7.81E-03,3.99E-02
133374,7.82E-03,3.80E-02
133375,8.31E-03,3.60E-02
133376,6.15E-03,3.45E-02
133377,7.43E-03,4.34E-02
133378,7.63E-03,4.35E-02
133379,7.74E-03,4.36E-02
133380,7.80E-03,4.38E-02
133381,7.94E-03,4.40E-02
133382,7.94E-03,4.42E-02
133383,7.94E-03,4.44E-02
133384,7.94E-03,4.46E-02
133385,7.94E-03,4.49E-02
133386,7.94E-03,4.52E-02
133387,7.94E-03,4.56E-02
133388,7.94E-03,4.60E-02
133389,7.94E-03,4.65E-02
133390,7.94E-03,4.71E-02
133391,7.94E-03,4.77E-02
133392,7.94E-03,4.84E-02
133393,7.94E-03,4.92E-02
133394,7.94E-03,5.00E-02
133395,7.94E-03,5.10E-02
133396,7.94E-03,5.21E-02
133397,7.94E-03,5.34E-02
133398,7.94E-03,5.47E-02
133399,7.94E-03,5.62E-02
133400,7.94E-03,5.79E-02
133401,7.94E-03,5.97E-02
133402,8.02E-03,6.18E-02
133403,8.07E-03,6.41E-02
133404,8.08E-03,6.65E-02
133405,8.12E-03,6.92E-02
133406,8.08E-03,7.21E-02
133407,8.00E-03,7.53E-02
133408,7.94E-03,7.88E-02
133409,7.95E-03,8.27E-02
133410,7.87E-03,8.73E-02
133411,7.73E-03,9.23E-02
133412,7.49E-03,9.63E-02
133413,7.50E-03,9.98E-02
133414,8.51E-03,0.10307
133415,8.14E-03,0.10076
133416,6.13E-03,0.10654
133417,8.40E-03,2.46E-02
133418,7.87E-03,2.46E-02
133419,7.65E-03,2.45E-02
133420,7.41E-03,2.45E-02
133421,7.21E-03,2.45E-02
133422,6.59E-03,2.45E-02
133423,5.73E-03,2.44E-02
133424,9.20E-03,2.72E-02
133425,9.96E-03,2.69E-02
133426,9.12E-03,2.68E-02
133427,8.80E-03,2.68E-02
133428,8.64E-03,2.69E-02
133429,8.56E-03,2.71E-02
133430,8.42E-03,2.73E-02
133431,8.36E-03,2.74E-02
133432,8.26E-03,2.76E-02
133433,8.13E-03,2.76E-02
133434,8.02E-03,2.77E-02
133435,7.90E-03,2.76E-02
133436,7.78E-03,2.76E-02
133437,7.43E-03,2.74E-02
133438,7.56E-03,2.73E-02
133439,7.45E-03,2.71E-02
133440,7.38E-03,2.69E-02
133441,7.40E-03,2.67E-02
133442,7.50E-03,2.65E-02
133443,8.95E-03,2.62E-02
133444,1.02E-02,2.59E-02
133445,9.32E-03,2.57E-02
133446,8.96E-03,2.55E-02
133447,8.80E-03,2.53E-02
133448,8.81E-03,2.52E-02
133449,9.00E-03,2.50E-02
133450,7.73E-03,2.49E-02
133451,6.59E-03,2.49E-02
133452,7.12E-03,2.47E-02
133453,7.09E-03,2.47E-02
133454,7.16E-03,2.46E-02
133455,5.67E-03,2.45E-02
133456,6.08E-03,2.44E-02
133457,8.05E-03,2.44E-02
133458,7.70E-03,2.43E-02
133459,7.58E-03,2.43E-02
133460,7.43E-03,2.43E-02
133461,7.49E-03,2.43E-02
133462,6.96E-03,2.43E-02
133463,5.34E-03,2.43E-02
133464,5.34E-03,2.44E-02
133465,7.76E-03,2.43E-02
133466,6.97E-03,2.42E-02
133467,6.49E-03,2.41E-02
133468,8.45E-03,2.66E-02
133469,7.13E-03,1.82E-02
133470,4.73E-03,1.76E-02
133471,4.66E-03,1.80E-02
133472,6.87E-03,1.83E-02
133473,4.37E-03,1.75E-02
133474,6.18E-03,1.76E-02
133475,6.47E-03,1.91E-02
133476,6.63E-03,2.76E-02
133477,7.03E-03,2.77E-02
133478,9.20E-03,2.77E-02
133479,6.21E-03,2.63E-02
133480,6.05E-03,2.64E-02
133481,7.44E-03,4.44E-03
133482,7.68E-03,9.19E-02
133483,8.69E-03,2.38E-02
133484,5.68E-03,1.70E-02
133485,6.45E-03,1.65E-02
133486,7.01E-03,1.62E-02
133487,7.40E-03,1.59E-02
133488,7.96E-03,1.43E-02
133489,8.22E-03,1.38E-02
133490,8.15E-03,1.33E-02
133491,7.84E-03,1.28E-02
133492,7.66E-03,1.24E-02
133493,7.47E-03,1.19E-02
133494,7.17E-03,1.15E-02
133495,6.87E-03,1.11E-02
133496,6.62E-03,1.07E-02
133497,6.10E-03,1.03E-02
133498,6.40E-03,9.95E-03
133499,8.02E-03,9.04E-03
133500,8.40E-03,8.65E-03
133501,8.46E-03,8.27E-03
133502,8.36E-03,7.90E-03
133503,8.25E-03,7.55E-03
133504,8.14E-03,7.20E-03
133505,8.10E-03,6.86E-03
133506,8.10E-03,6.52E-03
133507,8.00E-03,6.20E-03
133508,7.83E-03,5.90E-03
133509,7.64E-03,5.62E-03
133510,7.68E-03,5.32E-03
133511,6.88E-03,5.03E-03
133512,5.22E-03,4.89E-03
133513,4.15E-03,4.69E-03
133514,6.14E-03,4.57E-03
133515,6.87E-03,4.57E-03
133516,7.04E-03,4.50E-03
133517,7.06E-03,4.12E-03
133518,6.72E-03,3.99E-03
133519,6.53E-03,3.86E-03
133520,6.51E-03,3.77E-03
133521,6.27E-03,3.70E-03
133522,6.37E-03,3.66E-03
133523,6.53E-03,3.65E-03
133524,6.64E-03,3.67E-03
133525,6.46E-03,3.49E-03
133526,5.42E-03,3.48E-03
133527,4.58E-03,3.41E-03
133528,6.32E-03,3.35E-03
133529,7.31E-03,3.40E-03
133530,7.44E-03,3.39E-03
133531,7.20E-03,3.36E-03
133532,7.14E-03,3.33E-03
133533,7.13E-03,3.33E-03
133534,7.09E-03,3.33E-03
133535,7.03E-03,3.35E-03
133536,7.44E-03,3.39E-03
133537,7.73E-03,3.43E-03
133538,8.18E-03,3.47E-03
133539,8.70E-03,3.49E-03
133540,9.74E-03,3.52E-03
133541,9.29E-03,3.50E-03
133542,8.78E-03,3.49E-03
133543,8.22E-03,3.46E-03
133544,7.93E-03,3.42E-03
133545,7.72E-03,3.40E-03
133546,7.75E-03,3.39E-03
133547,7.81E-03,3.38E-03
133548,7.96E-03,3.37E-03
133549,8.02E-03,3.35E-03
133550,8.09E-03,3.34E-03
133551,8.09E-03,3.32E-03
133552,8.10E-03,3.31E-03
133553,8.11E-03,3.29E-03
133554,8.10E-03,3.27E-03
133555,8.33E-03,3.25E-03
133556,8.37E-03,3.22E-03
133557,8.57E-03,3.19E-03
133558,8.77E-03,3.16E-03
133559,9.09E-03,3.12E-03
133560,9.19E-03,3.06E-03
133561,8.89E-03,3.00E-03
133562,8.83E-03,2.92E-03
133563,8.65E-03,2.84E-03
133564,8.36E-03,2.76E-03
133565,8.14E-03,2.68E-03
133566,7.98E-03,2.61E-03
133567,6.88E-03,2.32E-03
133568,6.54E-03,2.22E-03
133569,6.48E-03,2.13E-03
133570,6.45E-03,1.98E-03
133571,6.81E-03,1.87E-03
133572,7.41E-03,1.81E-03
133573,7.61E-03,1.77E-03
133574,7.78E-03,1.71E-03
133575,7.96E-03,1.64E-03
133576,8.05E-03,1.58E-03
133577,8.27E-03,1.52E-03
133578,8.28E-03,1.46E-03
133579,8.26E-03,1.39E-03
133580,5.41E-03,1.17E-03
133581,7.12E-03,1.09E-03
133582,7.59E-03,9.66E-04
133583,7.71E-03,8.79E-04
133584,7.86E-03,7.58E-04
133585,5.75E-03,6.91E-04
133586,4.93E-03,6.35E-04
133587,6.72E-03,5.71E-04
133588,7.45E-03,5.95E-04
133589,7.45E-03,5.79E-04
133590,8.64E-03,5.56E-04
133591,8.48E-03,5.25E-04
133592,8.48E-03,4.90E-04
133593,6.30E-03,4.59E-04
133594,6.51E-03,4.21E-04
133595,7.27E-03,4.03E-04
133596,7.98E-03,3.96E-04
133597,8.25E-03,3.91E-04
133598,8.53E-03,3.83E-04
133599,8.56E-03,3.69E-04
133600,8.96E-03,3.49E-04
133601,9.06E-03,3.23E-04
133602,9.05E-03,2.91E-04
133603,8.78E-03,2.53E-04
133604,8.23E-03,2.18E-04
133605,7.83E-03,1.94E-04
133606,6.89E-03,1.87E-04
133607,6.73E-03,1.78E-04
133608,6.85E-03,1.69E-04
133609,7.05E-03,1.58E-04
133610,7.72E-03,1.45E-04
133611,8.46E-03,1.39E-04
133612,8.70E-03,1.35E-04
133613,8.85E-03,1.23E-04
133614,8.34E-03,1.10E-04
133615,8.18E-03,1.03E-04
133616,8.03E-03,1.07E-04
133617,7.95E-03,1.14E-04
133618,8.06E-03,1.25E-04
133619,8.57E-03,1.41E-04
133620,8.42E-03,1.65E-04
133621,8.14E-03,1.97E-04
133622,7.92E-03,2.30E-04
133623,6.74E-03,2.51E-04
133624,6.67E-03,2.73E-04
133625,6.65E-03,2.84E-04
133626,7.04E-03,2.82E-04
133627,7.24E-03,2.75E-04
133628,7.34E-03,2.64E-04
133629,7.47E-03,2.51E-04
133630,7.58E-03,2.37E-04
133631,7.72E-03,2.24E-04
133632,7.80E-03,2.11E-04
133633,7.90E-03,2.00E-04
133634,7.92E-03,1.92E-04
133635,7.92E-03,1.87E-04
133636,7.89E-03,1.84E-04
133637,7.84E-03,1.84E-04
133638,7.80E-03,1.87E-04
133639,7.75E-03,1.91E-04
133640,7.77E-03,1.97E-04
133641,7.83E-03,2.05E-04
133642,7.87E-03,2.15E-04
133643,7.89E-03,2.28E-04
133644,7.91E-03,2.44E-04
133645,7.91E-03,2.62E-04
133646,7.88E-03,2.82E-04
133647,7.84E-03,3.05E-04
133648,7.85E-03,3.31E-04
133649,7.89E-03,3.59E-04
133650,7.91E-03,3.89E-04
133651,7.93E-03,4.20E-04
133652,7.95E-03,4.54E-04
133653,7.97E-03,4.90E-04
133654,7.98E-03,5.27E-04
133655,7.99E-03,5.66E-04
133656,8.00E-03,6.06E-04
133657,8.01E-03,6.49E-04
133658,8.01E-03,6.92E-04
133659,8.02E-03,7.37E-04
133660,8.02E-03,7.84E-04
133661,8.03E-03,8.32E-04
133662,8.06E-03,8.81E-04
133663,8.11E-03,9.32E-04
133664,8.14E-03,9.84E-04
133665,8.14E-03,1.04E-03
133666,8.15E-03,1.09E-03
133667,8.16E-03,1.14E-03
133668,8.17E-03,1.20E-03
133669,8.19E-03,1.25E-03
133670,8.22E-03,1.31E-03
133671,8.27E-03,1.37E-03
133672,8.30E-03,1.42E-03
133673,8.31E-03,1.48E-03
133674,8.33E-03,1.53E-03
133675,8.38E-03,1.59E-03
133676,8.44E-03,1.64E-03
133677,8.55E-03,1.69E-03
133678,8.66E-03,1.74E-03
133679,8.62E-03,1.79E-03
133680,8.49E-03,1.83E-03
133681,8.40E-03,1.87E-03
133682,8.34E-03,1.91E-03
133683,8.34E-03,1.95E-03
133684,8.40E-03,1.98E-03
133685,8.49E-03,2.02E-03
133686,8.57E-03,2.05E-03
133687,8.37E-03,2.08E-03
133688,8.13E-03,2.10E-03
133689,8.10E-03,2.13E-03
133690,8.10E-03,2.16E-03
133691,8.09E-03,2.18E-03
133692,8.10E-03,2.21E-03
133693,8.17E-03,2.23E-03
133694,8.27E-03,2.25E-03
133695,8.35E-03,2.28E-03
133696,8.40E-03,2.30E-03
133697,8.44E-03,2.32E-03
133698,8.50E-03,2.33E-03
133699,8.39E-03,2.35E-03
133700,8.00E-03,2.36E-03
133701,7.74E-03,2.38E-03
133702,7.75E-03,2.39E-03
133703,7.77E-03,2.41E-03
133704,7.79E-03,2.43E-03
133705,7.72E-03,2.45E-03
133706,7.56E-03,2.48E-03
133707,7.54E-03,2.50E-03
133708,7.63E-03,2.53E-03
133709,7.70E-03,2.56E-03
133710,7.76E-03,2.60E-03
133711,7.80E-03,2.63E-03
133712,7.84E-03,2.67E-03
133713,7.90E-03,2.71E-03
133714,8.07E-03,2.75E-03
133715,8.31E-03,2.78E-03
133716,8.45E-03,2.82E-03
133717,8.52E-03,2.86E-03
133718,8.60E-03,2.89E-03
133719,8.74E-03,2.92E-03
133720,8.97E-03,2.95E-03
133721,9.23E-03,2.98E-03
133722,8.60E-03,3.01E-03
133723,7.62E-03,3.03E-03
133724,7.44E-03,3.05E-03
133725,7.54E-03,3.07E-03
133726,7.62E-03,3.10E-03
133727,7.68E-03,3.12E-03
133728,7.63E-03,3.15E-03
133729,7.40E-03,3.19E-03
133730,7.35E-03,3.22E-03
133731,7.55E-03,3.27E-03
133732,7.70E-03,3.31E-03
133733,7.78E-03,3.36E-03
133734,7.84E-03,3.41E-03
133735,7.89E-03,3.47E-03
133736,7.92E-03,3.53E-03
133737,7.94E-03,3.59E-03
133738,7.96E-03,3.66E-03
133739,7.98E-03,3.72E-03
133740,7.99E-03,3.79E-03
133741,8.02E-03,3.86E-03
133742,8.12E-03,3.93E-03
133743,8.23E-03,4.00E-03
133744,8.28E-03,4.07E-03
133745,8.30E-03,4.14E-03
133746,8.34E-03,4.20E-03
133747,8.39E-03,4.26E-03
133748,8.55E-03,4.32E-03
133749,8.83E-03,4.37E-03
133750,8.85E-03,4.41E-03
133751,8.99E-03,4.45E-03
133752,9.29E-03,4.49E-03
133753,9.45E-03,4.52E-03
133754,9.16E-03,4.55E-03
133755,9.11E-03,4.58E-03
133756,8.86E-03,4.61E-03
133757,8.68E-03,4.64E-03
133758,7.39E-03,4.66E-03
133759,6.44E-03,4.68E-03
133760,6.57E-03,4.69E-03
133761,7.05E-03,4.71E-03
133762,7.31E-03,4.72E-03
133763,7.61E-03,4.74E-03
133764,7.86E-03,4.75E-03
133765,8.29E-03,4.77E-03
133766,8.48E-03,4.78E-03
133767,8.73E-03,4.80E-03
133768,8.85E-03,4.82E-03
133769,9.01E-03,4.84E-03
133770,8.99E-03,4.87E-03
133771,8.41E-03,4.89E-03
133772,8.00E-03,4.92E-03
133773,7.45E-03,4.94E-03
133774,7.35E-03,4.97E-03
133775,7.36E-03,4.99E-03
133776,7.68E-03,5.00E-03
133777,7.93E-03,5.02E-03
133778,8.09E-03,5.03E-03
133779,8.23E-03,5.05E-03
133780,8.45E-03,5.07E-03
133781,8.61E-03,5.09E-03
133782,8.76E-03,5.11E-03
133783,8.52E-03,5.14E-03
133784,8.07E-03,5.16E-03
133785,7.57E-03,5.18E-03
133786,7.46E-03,5.21E-03
133787,7.50E-03,5.23E-03
133788,7.62E-03,5.25E-03
133789,7.86E-03,5.27E-03
133790,7.99E-03,5.29E-03
133791,8.18E-03,5.31E-03
133792,8.41E-03,5.32E-03
133793,8.53E-03,5.34E-03
133794,8.65E-03,5.36E-03
133795,8.78E-03,5.37E-03
133796,8.66E-03,5.39E-03
133797,8.33E-03,5.41E-03
133798,7.90E-03,5.43E-03
133799,7.69E-03,5.45E-03
133800,7.77E-03,5.46E-03
133801,7.83E-03,5.48E-03
133802,7.87E-03,5.49E-03
133803,7.92E-03,5.50E-03
133804,8.02E-03,5.52E-03
133805,8.09E-03,5.54E-03
133806,8.09E-03,5.56E-03
133807,8.08E-03,5.58E-03
133808,8.07E-03,5.61E-03
133809,8.02E-03,5.64E-03
133810,7.42E-03,5.68E-03
133811,7.09E-03,5.71E-03
133812,7.42E-03,5.75E-03
133813,7.59E-03,5.79E-03
133814,7.70E-03,5.84E-03
133815,7.81E-03,5.89E-03
133816,7.86E-03,5.94E-03
133817,7.75E-03,6.00E-03
133818,7.77E-03,6.05E-03
133819,8.06E-03,6.10E-03
133820,8.23E-03,6.15E-03
133821,8.30E-03,6.20E-03
133822,8.35E-03,6.24E-03
133823,8.52E-03,6.27E-03
133824,8.69E-03,6.29E-03
133825,9.02E-03,6.29E-03
133826,9.15E-03,6.29E-03
133827,9.22E-03,6.27E-03
133828,9.94E-03,6.25E-03
133829,1.00E-02,6.24E-03
133830,9.51E-03,6.23E-03
133831,9.40E-03,6.23E-03
133832,8.79E-03,6.21E-03
133833,7.66E-03,6.18E-03
133834,7.22E-03,6.14E-03
133835,6.90E-03,6.08E-03
133836,7.82E-03,6.01E-03
133837,7.90E-03,5.93E-03
133838,8.09E-03,5.85E-03
133839,8.22E-03,5.78E-03
133840,8.26E-03,5.72E-03
133841,7.71E-03,5.66E-03
133842,6.98E-03,5.61E-03
133843,6.92E-03,5.57E-03
133844,6.82E-03,5.52E-03
133845,7.58E-03,5.47E-03
133846,7.68E-03,5.43E-03
133847,7.91E-03,5.39E-03
133848,8.57E-03,5.37E-03
133849,9.15E-03,5.34E-03
133850,6.67E-03,5.32E-03
133851,5.89E-03,5.28E-03
133852,6.60E-03,5.30E-03
133853,6.78E-03,5.34E-03
133854,6.81E-03,5.37E-03
133855,7.14E-03,5.40E-03
133856,7.20E-03,5.43E-03
133857,7.56E-03,5.46E-03
133858,7.62E-03,5.51E-03
133859,7.93E-03,5.56E-03
133860,7.96E-03,5.61E-03
133861,7.98E-03,5.67E-03
133862,8.00E-03,5.74E-03
133863,8.01E-03,5.81E-03
133864,8.03E-03,5.88E-03
133865,8.04E-03,5.95E-03
133866,8.05E-03,6.02E-03
133867,8.05E-03,6.09E-03
133868,8.05E-03,6.17E-03
133869,8.05E-03,6.24E-03
133870,8.06E-03,6.31E-03
133871,8.06E-03,6.38E-03
133872,8.06E-03,6.45E-03
133873,8.06E-03,6.52E-03
133874,8.06E-03,6.59E-03
133875,8.06E-03,6.66E-03
133876,8.07E-03,6.73E-03
133877,8.07E-03,6.79E-03
133878,8.07E-03,6.86E-03
133879,8.07E-03,6.92E-03
133880,8.07E-03,6.98E-03
133881,8.07E-03,7.04E-03
133882,8.07E-03,7.10E-03
133883,8.07E-03,7.16E-03
133884,8.07E-03,7.22E-03
133885,8.08E-03,7.27E-03
133886,8.07E-03,7.33E-03
133887,8.06E-03,7.38E-03
133888,8.06E-03,7.43E-03
133889,8.05E-03,7.48E-03
133890,8.05E-03,7.53E-03
133891,8.04E-03,7.58E-03
133892,8.04E-03,7.63E-03
133893,8.03E-03,7.68E-03
133894,8.02E-03,7.73E-03
133895,8.00E-03,7.79E-03
133896,7.99E-03,7.84E-03
133897,7.84E-03,7.90E-03
133898,7.75E-03,7.97E-03
133899,7.66E-03,8.04E-03
133900,7.52E-03,8.13E-03
133901,7.38E-03,8.23E-03
133902,7.25E-03,8.34E-03
133903,6.92E-03,8.46E-03
133904,6.84E-03,8.58E-03
133905,6.77E-03,8.72E-03
133906,7.01E-03,8.85E-03
133907,7.11E-03,9.00E-03
133908,7.30E-03,9.14E-03
133909,7.55E-03,9.29E-03
133910,7.86E-03,9.45E-03
133911,8.81E-03,9.60E-03
133912,9.10E-03,9.78E-03
133913,8.88E-03,9.96E-03
133914,8.73E-03,1.01E-02
133915,8.62E-03,1.03E-02
133916,8.54E-03,1.05E-02
133917,8.48E-03,1.07E-02
133918,8.45E-03,1.08E-02
133919,8.41E-03,1.10E-02
133920,8.35E-03,1.12E-02
133921,8.30E-03,1.13E-02
133922,8.26E-03,1.15E-02
133923,8.24E-03,1.16E-02
133924,8.22E-03,1.17E-02
133925,8.20E-03,1.18E-02
133926,8.18E-03,1.20E-02
133927,8.16E-03,1.21E-02
133928,8.18E-03,1.22E-02
133929,8.22E-03,1.23E-02
133930,8.24E-03,1.24E-02
133931,8.15E-03,1.25E-02
133932,8.06E-03,1.26E-02
133933,8.05E-03,1.27E-02
133934,8.05E-03,1.28E-02
133935,8.05E-03,1.29E-02
133936,8.05E-03,1.30E-02
133937,8.04E-03,1.31E-02
133938,8.03E-03,1.32E-02
133939,8.01E-03,1.33E-02
133940,7.99E-03,1.34E-02
133941,7.89E-03,1.36E-02
133942,7.84E-03,1.37E-02
133943,7.72E-03,1.39E-02
133944,7.55E-03,1.40E-02
133945,7.37E-03,1.42E-02
133946,7.17E-03,1.44E-02
133947,6.97E-03,1.46E-02
133948,6.96E-03,1.47E-02
133949,7.41E-03,1.49E-02
133950,7.87E-03,1.50E-02
133951,8.30E-03,1.52E-02
133952,8.63E-03,1.53E-02
133953,8.77E-03,1.55E-02
133954,8.98E-03,1.56E-02
133955,9.03E-03,1.58E-02
133956,8.85E-03,1.60E-02
133957,8.69E-03,1.62E-02
133958,8.58E-03,1.64E-02
133959,8.50E-03,1.65E-02
133960,8.42E-03,1.67E-02
133961,8.29E-03,1.68E-02
133962,8.21E-03,1.69E-02
133963,8.19E-03,1.71E-02
133964,8.19E-03,1.72E-02
133965,8.18E-03,1.73E-02
133966,8.18E-03,1.74E-02
133967,8.17E-03,1.75E-02
133968,8.05E-03,1.76E-02
133969,7.91E-03,1.77E-02
133970,7.71E-03,1.79E-02
133971,7.55E-03,1.81E-02
133972,7.20E-03,1.83E-02
133973,7.06E-03,1.85E-02
133974,6.82E-03,1.87E-02
133975,6.54E-03,1.90E-02
133976,6.28E-03,1.92E-02
133977,6.10E-03,1.95E-02
133978,7.38E-03,1.97E-02
133979,7.62E-03,1.99E-02
133980,7.99E-03,2.01E-02
133981,8.95E-03,2.03E-02
133982,9.61E-03,2.05E-02
133983,9.51E-03,2.08E-02
133984,9.26E-03,2.11E-02
133985,8.91E-03,2.15E-02
133986,8.69E-03,2.18E-02
133987,8.42E-03,2.22E-02
133988,8.39E-03,2.24E-02
133989,8.38E-03,2.27E-02
133990,8.36E-03,2.30E-02
133991,8.34E-03,2.32E-02
133992,8.33E-03,2.34E-02
133993,8.31E-03,2.36E-02
133994,8.29E-03,2.37E-02
133995,8.28E-03,2.39E-02
133996,8.27E-03,2.40E-02
133997,8.39E-03,2.41E-02
133998,8.59E-03,2.42E-02
133999,8.62E-03,2.42E-02
134000,8.52E-03,2.43E-02
134001,8.45E-03,2.44E-02
134002,8.39E-03,2.44E-02
134003,8.35E-03,2.45E-02
134004,8.32E-03,2.45E-02
134005,8.29E-03,2.45E-02
134006,8.27E-03,2.46E-02
134007,8.22E-03,2.46E-02
134008,8.11E-03,2.46E-02
134009,8.04E-03,2.46E-02
134010,8.01E-03,2.46E-02
134011,7.97E-03,2.46E-02
134012,7.90E-03,2.46E-02
134013,7.78E-03,2.46E-02
134014,7.76E-03,2.46E-02
134015,7.59E-03,2.47E-02
134016,7.56E-03,2.47E-02
134017,7.18E-03,2.47E-02
134018,7.15E-03,2.47E-02
134019,7.92E-03,2.47E-02
134020,8.22E-03,2.47E-02
134021,8.22E-03,2.47E-02
134022,8.27E-03,2.48E-02
134023,8.29E-03,2.48E-02
134024,8.20E-03,2.49E-02
134025,8.10E-03,2.51E-02
134026,8.01E-03,2.52E-02
134027,7.77E-03,2.54E-02
134028,7.62E-03,2.55E-02
134029,7.22E-03,2.56E-02
134030,7.23E-03,2.57E-02
134031,7.42E-03,2.58E-02
134032,7.72E-03,2.58E-02
134033,8.17E-03,2.58E-02
134034,8.84E-03,2.58E-02
134035,8.84E-03,2.59E-02
134036,8.74E-03,2.60E-02
134037,8.65E-03,2.61E-02
134038,8.27E-03,2.63E-02
134039,8.04E-03,2.65E-02
134040,7.98E-03,2.67E-02
134041,7.79E-03,2.68E-02
134042,7.57E-03,2.70E-02
134043,7.46E-03,2.71E-02
134044,7.37E-03,2.72E-02
134045,7.44E-03,2.74E-02
134046,7.55E-03,2.75E-02
134047,7.76E-03,2.75E-02
134048,7.95E-03,2.76E-02
134049,8.18E-03,2.76E-02
134050,8.31E-03,2.77E-02
134051,8.25E-03,2.77E-02
134052,8.03E-03,2.77E-02
134053,7.39E-03,2.77E-02
134054,7.19E-03,2.77E-02
134055,7.82E-03,2.76E-02
134056,9.97E-03,2.75E-02
134057,1.07E-02,2.76E-02
134058,8.45E-03,2.77E-02
134059,8.19E-03,2.77E-02
134060,7.62E-03,2.78E-02
134061,7.41E-03,2.77E-02
134062,7.02E-03,2.75E-02
134063,7.58E-03,2.75E-02
134064,8.31E-03,2.74E-02
134065,8.80E-03,2.73E-02
134066,9.11E-03,2.72E-02
134067,8.47E-03,2.71E-02
134068,7.86E-03,2.70E-02
134069,7.13E-03,2.68E-02
134070,7.11E-03,2.66E-02
134071,7.39E-03,2.65E-02
134072,7.90E-03,2.65E-02
134073,8.23E-03,2.65E-02
134074,8.62E-03,2.66E-02
134075,9.82E-03,2.69E-02
134076,1.04E-02,2.71E-02
134077,9.80E-03,2.74E-02
134078,7.79E-03,2.76E-02
134079,6.68E-03,2.00E-02
134080,8.22E-03,2.02E-02
134081,8.21E-03,2.05E-02
134082,8.32E-03,2.07E-02
134083,8.22E-03,2.08E-02
134084,8.00E-03,2.08E-02
134085,8.27E-03,2.07E-02
134086,8.74E-03,2.05E-02
134087,7.91E-03,1.77E-02
134088,8.81E-03,1.74E-02
134089,8.83E-03,1.69E-02
134090,8.91E-03,1.64E-02
134091,9.10E-03,1.59E-02
134092,9.30E-03,1.53E-02
134093,9.58E-03,1.46E-02
134094,8.40E-03,1.88E-02
134095,8.05E-03,1.91E-02
134096,7.97E-03,1.96E-02
134097,7.77E-03,2.08E-02
134098,8.03E-03,2.02E-02
134099,7.91E-03,2.12E-02
134100,7.63E-03,2.17E-02
134101,7.10E-03,2.22E-02
134102,7.28E-03,2.26E-02
134103,7.73E-03,2.08E-02
134104,7.99E-03,2.13E-02
134105,7.94E-03,2.16E-02
134106,7.92E-03,2.17E-02
134107,7.83E-03,2.16E-02
134108,7.69E-03,2.15E-02
134109,7.62E-03,2.13E-02
134110,7.51E-03,2.12E-02
134111,7.41E-03,2.10E-02
134112,6.99E-03,2.09E-02
134113,5.40E-03,2.09E-02
134114,5.97E-03,2.06E-02
134115,8.16E-03,2.05E-02
134116,6.91E-03,2.04E-02
134117,6.93E-03,2.02E-02
134118,6.78E-03,2.01E-02
134119,8.99E-03,2.65E-02
134120,9.17E-03,2.63E-02
134121,8.93E-03,2.61E-02
134122,8.80E-03,2.59E-02
134123,8.56E-03,2.58E-02
134124,8.09E-03,2.56E-02
134125,7.78E-03,2.55E-02
134126,7.41E-03,2.53E-02
134127,6.83E-03,2.52E-02
134128,6.89E-03,2.51E-02
134129,7.04E-03,2.50E-02
134130,7.10E-03,2.48E-02
134131,7.20E-03,2.47E-02
134132,7.30E-03,2.46E-02
134133,7.69E-03,2.45E-02
134134,7.91E-03,2.44E-02
134135,7.90E-03,2.43E-02
134136,8.03E-03,2.42E-02
134137,8.14E-03,2.41E-02
134138,8.20E-03,2.39E-02
134139,8.29E-03,2.38E-02
134140,8.57E-03,2.37E-02
134141,8.56E-03,2.36E-02
134142,8.64E-03,2.34E-02
134143,8.84E-03,2.33E-02
134144,8.85E-03,2.32E-02
134145,8.95E-03,2.30E-02
134146,9.09E-03,2.29E-02
134147,9.17E-03,2.27E-02
134148,9.36E-03,2.26E-02
134149,9.60E-03,2.24E-02
134150,9.61E-03,2.22E-02
134151,9.62E-03,2.21E-02
134152,9.63E-03,2.19E-02
134153,9.62E-03,2.17E-02
134154,9.61E-03,2.15E-02
134155,9.59E-03,2.13E-02
134156,9.58E-03,2.11E-02
134157,9.60E-03,2.09E-02
134158,9.62E-03,2.07E-02
134159,9.65E-03,2.05E-02
134160,9.68E-03,2.03E-02
134161,9.71E-03,2.01E-02
134162,9.84E-03,1.99E-02
134163,9.95E-03,1.97E-02
134164,9.94E-03,1.95E-02
134165,1.00E-02,1.94E-02
134166,1.01E-02,1.92E-02
134167,1.05E-02,1.90E-02
134168,1.07E-02,1.88E-02
134169,1.07E-02,1.86E-02
134170,1.03E-02,1.85E-02
134171,1.01E-02,1.83E-02
134172,1.00E-02,1.82E-02
134173,9.16E-03,1.81E-02
134174,9.11E-03,1.79E-02
134175,8.84E-03,1.78E-02
134176,8.75E-03,1.77E-02
134177,8.52E-03,1.76E-02
134178,8.45E-03,1.75E-02
134179,8.34E-03,1.74E-02
134180,8.30E-03,1.73E-02
134181,8.27E-03,1.72E-02
134182,8.26E-03,1.71E-02
134183,8.27E-03,1.70E-02
134184,8.28E-03,1.69E-02
134185,8.29E-03,1.68E-02
134186,8.30E-03,1.67E-02
134187,8.32E-03,1.66E-02
134188,8.32E-03,1.65E-02
134189,8.32E-03,1.64E-02
134190,8.32E-03,1.63E-02
134191,8.33E-03,1.62E-02
134192,8.33E-03,1.61E-02
134193,8.33E-03,1.60E-02
134194,8.34E-03,1.59E-02
134195,8.34E-03,1.58E-02
134196,8.35E-03,1.57E-02
134197,8.35E-03,1.56E-02
134198,8.35E-03,1.55E-02
134199,8.36E-03,1.54E-02
134200,8.36E-03,1.53E-02
134201,8.37E-03,1.52E-02
134202,8.37E-03,1.51E-02
134203,8.38E-03,1.50E-02
134204,8.38E-03,1.49E-02
134205,8.38E-03,1.48E-02
134206,8.39E-03,1.47E-02
134207,8.40E-03,1.46E-02
134208,8.40E-03,1.45E-02
134209,8.40E-03,1.44E-02
134210,8.40E-03,1.43E-02
134211,8.40E-03,1.42E-02
134212,8.39E-03,1.41E-02
134213,8.38E-03,1.40E-02
134214,8.36E-03,1.39E-02
134215,8.34E-03,1.38E-02
134216,8.33E-03,1.37E-02
134217,8.31E-03,1.36E-02
134218,8.30E-03,1.35E-02
134219,8.29E-03,1.34E-02
134220,8.29E-03,1.33E-02
134221,8.28E-03,1.32E-02
134222,8.27E-03,1.31E-02
134223,8.26E-03,1.30E-02
134224,8.26E-03,1.29E-02
134225,8.25E-03,1.27E-02
134226,8.25E-03,1.26E-02
134227,8.24E-03,1.25E-02
134228,8.23E-03,1.24E-02
134229,8.23E-03,1.24E-02
134230,8.22E-03,1.23E-02
134231,8.21E-03,1.22E-02
134232,8.20E-03,1.21E-02
134233,8.19E-03,1.21E-02
134234,8.19E-03,1.20E-02
134235,8.18E-03,1.20E-02
134236,8.17E-03,1.20E-02
134237,8.16E-03,1.21E-02
134238,8.16E-03,1.22E-02
134239,8.15E-03,1.23E-02
134240,8.15E-03,1.24E-02
134241,8.15E-03,1.26E-02
134242,8.14E-03,1.29E-02
134243,8.14E-03,1.31E-02
134244,8.14E-03,1.34E-02
134245,8.13E-03,1.38E-02
134246,8.13E-03,1.41E-02
134247,8.19E-03,1.45E-02
134248,8.13E-03,1.48E-02
134249,8.04E-03,1.51E-02
134250,7.96E-03,1.54E-02
134251,8.05E-03,1.58E-02
134252,8.28E-03,1.62E-02
134253,8.47E-03,1.64E-02
134254,8.29E-03,1.67E-02
134255,7.92E-03,1.69E-02
134256,7.37E-03,1.72E-02
134257,7.27E-03,1.78E-02
134258,8.19E-03,1.85E-02
134259,8.68E-03,1.85E-02
134260,8.38E-03,1.90E-02
134261,8.08E-03,1.93E-02
134262,7.99E-03,1.96E-02
134263,7.93E-03,1.99E-02
134264,7.78E-03,2.01E-02
134265,7.67E-03,2.03E-02
134266,7.53E-03,2.03E-02
134267,7.45E-03,2.03E-02
134268,7.39E-03,2.03E-02
134269,7.35E-03,2.03E-02
134270,8.28E-03,2.03E-02
134271,8.59E-03,2.03E-02
134272,7.42E-03,2.01E-02
134273,8.16E-03,2.01E-02
134274,6.56E-03,2.00E-02
134275,7.28E-03,2.00E-02
134276,9.75E-03,2.00E-02
134277,8.57E-03,2.00E-02
134278,8.04E-03,2.01E-02
134279,7.49E-03,2.01E-02
134280,8.42E-03,2.44E-02
134281,8.29E-03,2.50E-02
134282,8.25E-03,2.56E-02
134283,8.13E-03,2.64E-02
134284,7.47E-03,2.68E-02
134285,7.14E-03,2.75E-02
134286,7.09E-03,2.84E-02
134287,7.21E-03,2.89E-02
134288,7.72E-03,2.95E-02
134289,7.88E-03,3.03E-02
134290,7.94E-03,3.10E-02
134291,5.29E-03,3.37E-02
134292,6.91E-03,3.46E-02
134293,7.56E-03,3.60E-02
134294,7.73E-03,3.76E-02
134295,7.84E-03,3.94E-02
134296,7.92E-03,4.14E-02
134297,7.84E-03,4.37E-02
134298,7.83E-03,4.63E-02
134299,7.86E-03,4.93E-02
134300,7.89E-03,5.28E-02
134301,7.69E-03,5.65E-02
134302,7.49E-03,5.98E-02
134303,7.23E-03,6.41E-02
134304,7.07E-03,7.03E-02
134305,7.08E-03,7.88E-02
134306,9.46E-03,1.28E-02
134307,9.62E-03,1.22E-02
134308,9.57E-03,1.16E-02
134309,9.43E-03,1.08E-02
134310,9.32E-03,9.96E-03
134311,8.68E-03,9.14E-03
134312,8.48E-03,8.35E-03
134313,8.20E-03,7.62E-03
134314,8.06E-03,6.93E-03
134315,8.06E-03,6.30E-03
134316,8.06E-03,5.72E-03
134317,8.06E-03,5.20E-03
134318,8.05E-03,4.73E-03
134319,8.05E-03,4.32E-03
134320,8.05E-03,3.96E-03
134321,8.04E-03,3.65E-03
134322,8.04E-03,3.39E-03
134323,8.04E-03,3.18E-03
134324,8.04E-03,3.03E-03
134325,8.04E-03,2.92E-03
134326,8.04E-03,2.85E-03
134327,8.03E-03,2.83E-03
134328,8.03E-03,2.85E-03
134329,8.03E-03,2.90E-03
134330,8.03E-03,2.97E-03
134331,8.03E-03,3.07E-03
134332,8.02E-03,3.19E-03
134333,8.02E-03,3.32E-03
134334,8.02E-03,3.46E-03
134335,8.02E-03,3.61E-03
134336,8.10E-03,3.77E-03
134337,8.30E-03,3.93E-03
134338,8.44E-03,4.10E-03
134339,8.45E-03,4.26E-03
134340,8.38E-03,4.43E-03
134341,8.32E-03,4.59E-03
134342,8.28E-03,4.76E-03
134343,8.25E-03,4.92E-03
134344,8.23E-03,5.08E-03
134345,8.22E-03,5.24E-03
134346,8.20E-03,5.39E-03
134347,8.17E-03,5.55E-03
134348,8.16E-03,5.70E-03
134349,8.18E-03,5.85E-03
134350,8.22E-03,6.00E-03
134351,8.22E-03,6.15E-03
134352,8.10E-03,6.29E-03
134353,8.02E-03,6.44E-03
134354,8.02E-03,6.58E-03
134355,8.02E-03,6.72E-03
134356,8.01E-03,6.86E-03
134357,7.99E-03,7.01E-03
134358,7.97E-03,7.15E-03
134359,7.96E-03,7.30E-03
134360,7.95E-03,7.44E-03
134361,7.93E-03,7.59E-03
134362,7.90E-03,7.75E-03
134363,7.87E-03,7.90E-03
134364,7.83E-03,8.06E-03
134365,7.77E-03,8.22E-03
134366,7.64E-03,8.38E-03
134367,7.48E-03,8.53E-03
134368,7.74E-03,8.69E-03
134369,8.18E-03,8.85E-03
134370,8.41E-03,9.01E-03
134371,8.47E-03,9.18E-03
134372,8.40E-03,9.35E-03
134373,8.35E-03,9.53E-03
134374,8.31E-03,9.70E-03
134375,8.28E-03,9.87E-03
134376,8.25E-03,1.00E-02
134377,8.23E-03,1.02E-02
134378,8.22E-03,1.04E-02
134379,8.20E-03,1.05E-02
134380,8.19E-03,1.07E-02
134381,8.18E-03,1.08E-02
134382,8.37E-03,1.10E-02
134383,8.64E-03,1.11E-02
134384,8.60E-03,1.13E-02
134385,8.44E-03,1.14E-02
134386,8.35E-03,1.15E-02
134387,8.29E-03,1.17E-02
134388,8.25E-03,1.18E-02
134389,8.22E-03,1.19E-02
134390,8.20E-03,1.20E-02
134391,8.18E-03,1.21E-02
134392,8.17E-03,1.23E-02
134393,8.16E-03,1.24E-02
134394,8.15E-03,1.25E-02
134395,8.14E-03,1.26E-02
134396,8.14E-03,1.27E-02
134397,8.13E-03,1.27E-02
134398,8.13E-03,1.28E-02
134399,8.12E-03,1.29E-02
134400,8.12E-03,1.30E-02
134401,8.12E-03,1.31E-02
134402,8.12E-03,1.32E-02
134403,8.11E-03,1.33E-02
134404,8.11E-03,1.34E-02
134405,8.11E-03,1.34E-02
134406,8.11E-03,1.35E-02
134407,8.11E-03,1.36E-02
134408,8.11E-03,1.37E-02
134409,8.10E-03,1.38E-02
134410,8.10E-03,1.38E-02
134411,8.10E-03,1.39E-02
134412,8.10E-03,1.40E-02
134413,8.10E-03,1.41E-02
134414,8.10E-03,1.42E-02
134415,8.10E-03,1.42E-02
134416,8.10E-03,1.43E-02
134417,8.10E-03,1.44E-02
134418,8.10E-03,1.45E-02
134419,8.10E-03,1.45E-02
134420,8.09E-03,1.46E-02
134421,8.09E-03,1.47E-02
134422,8.09E-03,1.48E-02
134423,8.09E-03,1.48E-02
134424,8.09E-03,1.49E-02
134425,8.09E-03,1.50E-02
134426,8.09E-03,1.50E-02
134427,8.09E-03,1.51E-02
134428,8.09E-03,1.52E-02
134429,8.09E-03,1.53E-02
134430,8.09E-03,1.53E-02
134431,8.09E-03,1.54E-02
134432,8.09E-03,1.55E-02
134433,8.09E-03,1.55E-02
134434,8.09E-03,1.56E-02
134435,8.09E-03,1.57E-02
134436,8.09E-03,1.58E-02
134437,8.09E-03,1.58E-02
134438,8.09E-03,1.59E-02
134439,8.09E-03,1.60E-02
134440,8.09E-03,1.60E-02
134441,8.09E-03,1.61E-02
134442,8.09E-03,1.62E-02
134443,8.09E-03,1.62E-02
134444,8.09E-03,1.63E-02
134445,8.09E-03,1.64E-02
134446,8.09E-03,1.65E-02
134447,8.09E-03,1.65E-02
134448,8.09E-03,1.66E-02
134449,8.09E-03,1.67E-02
134450,8.09E-03,1.67E-02
134451,8.09E-03,1.68E-02
134452,8.09E-03,1.69E-02
134453,8.09E-03,1.69E-02
134454,8.09E-03,1.70E-02
134455,8.09E-03,1.71E-02
134456,8.09E-03,1.71E-02
134457,8.09E-03,1.72E-02
134458,8.09E-03,1.73E-02
134459,8.09E-03,1.73E-02
134460,8.09E-03,1.74E-02
134461,8.09E-03,1.75E-02
134462,8.09E-03,1.76E-02
134463,8.09E-03,1.76E-02
134464,8.09E-03,1.77E-02
134465,8.10E-03,1.78E-02
134466,8.10E-03,1.78E-02
134467,8.10E-03,1.79E-02
134468,8.10E-03,1.80E-02
134469,8.10E-03,1.80E-02
134470,8.10E-03,1.81E-02
134471,8.10E-03,1.82E-02
134472,8.10E-03,1.82E-02
134473,8.10E-03,1.83E-02
134474,8.11E-03,1.84E-02
134475,8.11E-03,1.84E-02
134476,8.11E-03,1.85E-02
134477,8.11E-03,1.86E-02
134478,8.11E-03,1.86E-02
134479,8.12E-03,1.87E-02
134480,8.12E-03,1.88E-02
134481,8.13E-03,1.88E-02
134482,8.13E-03,1.89E-02
134483,8.14E-03,1.89E-02
134484,8.15E-03,1.90E-02
134485,8.16E-03,1.90E-02
134486,8.17E-03,1.91E-02
134487,8.18E-03,1.91E-02
134488,8.20E-03,1.92E-02
134489,8.23E-03,1.92E-02
134490,8.27E-03,1.92E-02
134491,8.33E-03,1.93E-02
134492,8.43E-03,1.93E-02
134493,8.40E-03,1.94E-02
134494,8.03E-03,1.94E-02
134495,7.80E-03,1.95E-02
134496,7.86E-03,1.95E-02
134497,7.91E-03,1.96E-02
134498,7.94E-03,1.96E-02
134499,7.96E-03,1.96E-02
134500,7.98E-03,1.97E-02
134501,7.99E-03,1.97E-02
134502,8.00E-03,1.97E-02
134503,8.01E-03,1.98E-02
134504,8.02E-03,1.98E-02
134505,8.03E-03,1.99E-02
134506,8.03E-03,1.99E-02
134507,8.04E-03,2.00E-02
134508,8.04E-03,2.00E-02
134509,8.04E-03,2.01E-02
134510,8.05E-03,2.02E-02
134511,8.05E-03,2.02E-02
134512,8.05E-03,2.03E-02
134513,8.05E-03,2.04E-02
134514,8.05E-03,2.04E-02
134515,8.06E-03,2.05E-02
134516,8.06E-03,2.06E-02
134517,8.06E-03,2.07E-02
134518,8.06E-03,2.07E-02
134519,8.06E-03,2.08E-02
134520,8.06E-03,2.09E-02
134521,8.06E-03,2.10E-02
134522,8.06E-03,2.11E-02
134523,8.06E-03,2.12E-02
134524,8.07E-03,2.13E-02
134525,8.07E-03,2.13E-02
134526,8.07E-03,2.14E-02
134527,8.07E-03,2.15E-02
134528,8.07E-03,2.16E-02
134529,8.07E-03,2.17E-02
134530,8.08E-03,2.18E-02
134531,8.08E-03,2.19E-02
134532,8.10E-03,2.20E-02
134533,8.10E-03,2.21E-02
134534,8.10E-03,2.22E-02
134535,8.10E-03,2.23E-02
134536,8.10E-03,2.24E-02
134537,8.11E-03,2.25E-02
134538,8.11E-03,2.26E-02
134539,8.11E-03,2.27E-02
134540,8.11E-03,2.29E-02
134541,8.11E-03,2.30E-02
134542,8.12E-03,2.31E-02
134543,8.12E-03,2.32E-02
134544,8.12E-03,2.33E-02
134545,8.13E-03,2.34E-02
134546,8.13E-03,2.35E-02
134547,8.14E-03,2.36E-02
134548,8.15E-03,2.37E-02
134549,8.15E-03,2.38E-02
134550,8.16E-03,2.39E-02
134551,8.18E-03,2.40E-02
134552,8.20E-03,2.40E-02
134553,8.22E-03,2.40E-02
134554,8.32E-03,2.40E-02
134555,8.49E-03,2.40E-02
134556,8.50E-03,2.40E-02
134557,8.57E-03,2.39E-02
134558,8.61E-03,2.39E-02
134559,6.79E-03,2.61E-02
134560,5.83E-03,2.73E-02
134561,7.86E-03,2.01E-02
134562,7.12E-03,9.62E-02
134563,5.08E-03,0.10275
134564,9.29E-03,2.70E-02
134565,9.17E-03,2.70E-02
134566,9.48E-03,2.69E-02
134567,9.97E-03,2.69E-02
134568,1.10E-02,2.68E-02
134569,1.06E-02,2.68E-02
134570,8.77E-03,2.68E-02
134571,8.37E-03,2.68E-02
134572,8.32E-03,2.68E-02
134573,7.28E-03,2.68E-02
134574,7.19E-03,2.68E-02
134575,7.03E-03,2.69E-02
134576,6.90E-03,2.69E-02
134577,6.75E-03,2.68E-02
134578,6.88E-03,2.68E-02
134579,6.87E-03,2.67E-02
134580,6.95E-03,2.66E-02
134581,7.02E-03,2.65E-02
134582,6.96E-03,2.64E-02
134583,7.09E-03,2.62E-02
134584,7.34E-03,2.61E-02
134585,7.55E-03,2.60E-02
134586,7.78E-03,2.58E-02
134587,8.08E-03,2.57E-02
134588,8.25E-03,2.56E-02
134589,8.24E-03,2.56E-02
134590,8.27E-03,2.56E-02
134591,8.26E-03,2.57E-02
134592,8.20E-03,2.58E-02
134593,8.10E-03,2.59E-02
134594,8.05E-03,2.60E-02
134595,7.93E-03,2.61E-02
134596,7.84E-03,2.61E-02
134597,7.71E-03,2.61E-02
134598,7.59E-03,2.61E-02
134599,7.51E-03,2.61E-02
134600,7.45E-03,2.60E-02
134601,7.46E-03,2.59E-02
134602,7.48E-03,2.58E-02
134603,7.28E-03,2.57E-02
134604,7.62E-03,2.56E-02
134605,7.56E-03,2.55E-02
134606,8.43E-03,2.53E-02
134607,8.96E-03,2.52E-02
134608,8.86E-03,2.51E-02
134609,8.66E-03,2.50E-02
134610,8.69E-03,2.49E-02
134611,8.45E-03,2.49E-02
134612,8.02E-03,2.49E-02
134613,7.75E-03,2.48E-02
134614,7.16E-03,2.48E-02
134615,7.27E-03,2.48E-02
134616,7.58E-03,2.48E-02
134617,7.72E-03,2.47E-02
134618,7.92E-03,2.47E-02
134619,7.86E-03,2.47E-02
134620,7.66E-03,2.46E-02
134621,7.54E-03,2.46E-02
134622,7.40E-03,2.45E-02
134623,7.20E-03,2.45E-02
134624,7.93E-03,2.44E-02
134625,8.25E-03,2.43E-02
134626,7.37E-03,2.42E-02
134627,7.08E-03,2.41E-02
134628,6.37E-03,2.41E-02
134629,7.08E-03,2.40E-02
134630,7.20E-03,2.41E-02
134631,7.21E-03,2.39E-02
134632,6.27E-03,2.76E-02
134633,5.57E-03,1.71E-02
134634,9.02E-03,1.45E-02
134635,8.51E-03,8.81E-03
134636,5.22E-03,4.25E-03
134637,6.24E-03,4.20E-03
134638,7.03E-03,4.14E-03
134639,7.24E-03,4.11E-03
134640,7.13E-03,3.99E-03
134641,7.21E-03,3.73E-03
134642,7.27E-03,3.19E-03
134643,5.40E-03,3.18E-03
134644,5.19E-03,3.12E-03
134645,8.52E-03,2.14E-03
134646,7.76E-03,9.41E-04
134647,6.68E-03,2.73E-02
134648,9.63E-03,2.06E-02
134649,1.05E-02,2.06E-02
134650,8.24E-03,2.81E-02
134651,7.97E-03,2.66E-02
134652,6.84E-03,2.17E-02
134653,8.89E-03,2.76E-02
134654,8.91E-03,2.74E-02
134655,9.05E-03,2.73E-02
134656,8.84E-03,2.74E-02
134657,8.71E-03,2.76E-02
134658,8.62E-03,2.78E-02
134659,8.39E-03,2.80E-02
134660,8.40E-03,2.82E-02
134661,8.24E-03,2.82E-02
134662,8.27E-03,2.83E-02
134663,7.88E-03,2.82E-02
134664,7.72E-03,2.81E-02
134665,7.79E-03,2.80E-02
134666,7.51E-03,2.79E-02
134667,7.56E-03,2.77E-02
134668,7.57E-03,2.75E-02
134669,7.60E-03,2.73E-02
134670,7.62E-03,2.70E-02
134671,7.94E-03,2.67E-02
134672,8.60E-03,2.64E-02
134673,8.95E-03,2.62E-02
134674,9.12E-03,2.60E-02
134675,8.91E-03,2.57E-02
134676,8.61E-03,2.55E-02
134677,8.59E-03,2.53E-02
134678,8.26E-03,2.52E-02
134679,7.89E-03,2.50E-02
134680,7.64E-03,2.48E-02
134681,7.39E-03,2.47E-02
134682,7.27E-03,2.45E-02
134683,7.04E-03,2.44E-02
134684,6.96E-03,2.43E-02
134685,6.67E-03,2.41E-02
134686,7.11E-03,2.40E-02
134687,7.48E-03,2.40E-02
134688,7.50E-03,2.39E-02
134689,7.58E-03,2.39E-02
134690,7.42E-03,2.39E-02
134691,7.09E-03,2.40E-02
134692,7.33E-03,2.41E-02
134693,6.02E-03,2.44E-02
134694,6.42E-03,2.44E-02
134695,6.54E-03,2.43E-02
134696,6.04E-03,2.42E-02
134697,5.45E-03,2.42E-02
134698,7.33E-03,2.44E-02
134699,8.44E-03,2.40E-02
134700,7.33E-03,2.41E-02
134701,7.25E-03,2.42E-02
134702,7.09E-03,2.42E-02
134703,7.12E-03,2.42E-02
134704,7.22E-03,2.41E-02
134705,7.39E-03,2.40E-02
134706,7.59E-03,2.39E-02
134707,7.79E-03,2.38E-02
134708,7.98E-03,2.37E-02
134709,8.14E-03,2.37E-02
134710,8.24E-03,2.36E-02
134711,8.26E-03,2.35E-02
134712,8.28E-03,2.35E-02
134713,8.31E-03,2.34E-02
134714,8.35E-03,2.34E-02
134715,8.37E-03,2.34E-02
134716,8.47E-03,2.34E-02
134717,8.76E-03,2.34E-02
134718,8.27E-03,2.35E-02
134719,7.12E-03,2.35E-02
134720,6.87E-03,2.35E-02
134721,7.30E-03,2.35E-02
134722,7.60E-03,2.35E-02
134723,7.75E-03,2.36E-02
134724,7.83E-03,2.36E-02
134725,7.88E-03,2.36E-02
134726,7.92E-03,2.36E-02
134727,7.95E-03,2.37E-02
134728,7.97E-03,2.37E-02
134729,7.98E-03,2.38E-02
134730,8.00E-03,2.39E-02
134731,8.01E-03,2.39E-02
134732,8.01E-03,2.40E-02
134733,8.02E-03,2.41E-02
134734,8.03E-03,2.42E-02
134735,8.03E-03,2.43E-02
134736,8.03E-03,2.44E-02
134737,8.03E-03,2.46E-02
134738,8.03E-03,2.47E-02
134739,8.04E-03,2.48E-02
134740,8.06E-03,2.49E-02
134741,8.06E-03,2.50E-02
134742,8.07E-03,2.51E-02
134743,8.07E-03,2.53E-02
134744,8.07E-03,2.54E-02
134745,8.08E-03,2.55E-02
134746,8.10E-03,2.56E-02
134747,8.10E-03,2.58E-02
134748,8.10E-03,2.59E-02
134749,8.10E-03,2.60E-02
134750,8.10E-03,2.61E-02
134751,8.10E-03,2.63E-02
134752,8.10E-03,2.64E-02
134753,8.11E-03,2.65E-02
134754,8.11E-03,2.67E-02
134755,8.11E-03,2.68E-02
134756,8.11E-03,2.69E-02
134757,8.11E-03,2.70E-02
134758,8.11E-03,2.72E-02
134759,8.12E-03,2.73E-02
134760,8.12E-03,2.74E-02
134761,8.12E-03,2.76E-02
134762,8.12E-03,2.77E-02
134763,8.12E-03,2.78E-02
134764,8.13E-03,2.80E-02
134765,8.13E-03,2.81E-02
134766,8.13E-03,2.82E-02
134767,8.14E-03,2.83E-02
134768,8.14E-03,2.85E-02
134769,8.15E-03,2.86E-02
134770,8.15E-03,2.87E-02
134771,8.16E-03,2.89E-02
134772,8.17E-03,2.90E-02
134773,8.18E-03,2.91E-02
134774,8.19E-03,2.92E-02
134775,8.19E-03,2.94E-02
134776,8.19E-03,2.95E-02
134777,8.20E-03,2.96E-02
134778,8.20E-03,2.97E-02
134779,8.20E-03,2.98E-02
134780,8.22E-03,2.99E-02
134781,8.25E-03,2.99E-02
134782,8.28E-03,3.00E-02
134783,8.31E-03,3.00E-02
134784,8.36E-03,3.00E-02
134785,8.43E-03,3.00E-02
134786,8.52E-03,3.00E-02
134787,8.68E-03,2.99E-02
134788,8.82E-03,2.99E-02
134789,8.81E-03,2.98E-02
134790,8.71E-03,2.97E-02
134791,8.63E-03,2.96E-02
134792,8.56E-03,2.95E-02
134793,8.64E-03,2.94E-02
134794,8.76E-03,2.93E-02
134795,8.57E-03,2.92E-02
134796,8.29E-03,2.91E-02
134797,8.20E-03,2.89E-02
134798,8.12E-03,2.88E-02
134799,8.05E-03,2.86E-02
134800,7.99E-03,2.85E-02
134801,7.88E-03,2.83E-02
134802,7.46E-03,2.82E-02
134803,7.30E-03,2.81E-02
134804,7.55E-03,2.79E-02
134805,7.68E-03,2.78E-02
134806,7.67E-03,2.77E-02
134807,7.47E-03,2.76E-02
134808,7.19E-03,2.76E-02
134809,7.19E-03,2.75E-02
134810,7.45E-03,2.75E-02
134811,7.63E-03,2.75E-02
134812,7.74E-03,2.75E-02
134813,7.83E-03,2.75E-02
134814,7.89E-03,2.76E-02
134815,7.90E-03,2.77E-02
134816,7.90E-03,2.78E-02
134817,7.90E-03,2.79E-02
134818,7.90E-03,2.80E-02
134819,7.90E-03,2.81E-02
134820,7.96E-03,2.82E-02
134821,8.05E-03,2.84E-02
134822,8.09E-03,2.85E-02
134823,8.09E-03,2.86E-02
134824,8.09E-03,2.88E-02
134825,8.10E-03,2.89E-02
134826,8.11E-03,2.91E-02
134827,8.13E-03,2.93E-02
134828,8.14E-03,2.94E-02
134829,8.14E-03,2.96E-02
134830,8.14E-03,2.97E-02
134831,8.15E-03,2.99E-02
134832,8.15E-03,3.00E-02
134833,8.16E-03,3.01E-02
134834,8.16E-03,3.03E-02
134835,8.17E-03,3.04E-02
134836,8.17E-03,3.05E-02
134837,8.18E-03,3.07E-02
134838,8.19E-03,3.08E-02
134839,8.19E-03,3.09E-02
134840,8.21E-03,3.10E-02
134841,8.22E-03,3.10E-02
134842,8.23E-03,3.11E-02
134843,8.25E-03,3.12E-02
134844,8.26E-03,3.12E-02
134845,8.28E-03,3.13E-02
134846,8.29E-03,3.13E-02
134847,8.31E-03,3.13E-02
134848,8.34E-03,3.13E-02
134849,8.37E-03,3.12E-02
134850,8.41E-03,3.12E-02
134851,8.45E-03,3.11E-02
134852,8.51E-03,3.10E-02
134853,8.57E-03,3.09E-02
134854,8.59E-03,3.08E-02
134855,8.54E-03,3.07E-02
134856,8.53E-03,3.05E-02
134857,8.58E-03,3.04E-02
134858,8.75E-03,3.03E-02
134859,8.71E-03,3.02E-02
134860,7.84E-03,3.02E-02
134861,7.17E-03,3.01E-02
134862,7.30E-03,3.00E-02
134863,7.46E-03,2.99E-02
134864,7.58E-03,2.98E-02
134865,7.67E-03,2.97E-02
134866,7.65E-03,2.97E-02
134867,6.54E-03,2.97E-02
134868,6.72E-03,2.96E-02
134869,6.89E-03,2.96E-02
134870,7.29E-03,2.96E-02
134871,7.58E-03,2.97E-02
134872,7.84E-03,2.97E-02
134873,7.90E-03,2.98E-02
134874,7.93E-03,2.99E-02
134875,7.96E-03,3.00E-02
134876,7.98E-03,3.02E-02
134877,7.99E-03,3.04E-02
134878,8.01E-03,3.06E-02
134879,8.01E-03,3.08E-02
134880,8.02E-03,3.10E-02
134881,8.03E-03,3.12E-02
134882,8.03E-03,3.14E-02
134883,8.04E-03,3.16E-02
134884,8.04E-03,3.18E-02
134885,8.04E-03,3.21E-02
134886,8.05E-03,3.23E-02
134887,8.05E-03,3.25E-02
134888,8.05E-03,3.28E-02
134889,8.05E-03,3.30E-02
134890,8.06E-03,3.32E-02
134891,8.06E-03,3.34E-02
134892,8.06E-03,3.37E-02
134893,8.06E-03,3.39E-02
134894,8.06E-03,3.41E-02
134895,8.06E-03,3.44E-02
134896,8.06E-03,3.46E-02
134897,8.06E-03,3.48E-02
134898,8.07E-03,3.51E-02
134899,8.07E-03,3.53E-02
134900,8.07E-03,3.55E-02
134901,8.07E-03,3.57E-02
134902,8.07E-03,3.60E-02
134903,8.07E-03,3.62E-02
134904,8.07E-03,3.64E-02
134905,8.07E-03,3.67E-02
134906,8.07E-03,3.69E-02
134907,8.07E-03,3.72E-02
134908,8.07E-03,3.74E-02
134909,8.07E-03,3.76E-02
134910,8.07E-03,3.79E-02
134911,8.07E-03,3.81E-02
134912,8.07E-03,3.84E-02
134913,8.07E-03,3.86E-02
134914,8.07E-03,3.88E-02
134915,8.07E-03,3.91E-02
134916,8.07E-03,3.93E-02
134917,8.07E-03,3.96E-02
134918,8.07E-03,3.98E-02
134919,8.07E-03,4.01E-02
134920,8.07E-03,4.03E-02
134921,8.07E-03,4.06E-02
134922,8.07E-03,4.08E-02
134923,8.07E-03,4.11E-02
134924,8.07E-03,4.14E-02
134925,8.07E-03,4.16E-02
134926,8.07E-03,4.19E-02
134927,8.07E-03,4.21E-02
134928,8.07E-03,4.24E-02
134929,8.10E-03,4.27E-02
134930,8.05E-03,4.30E-02
134931,7.93E-03,4.33E-02
134932,7.78E-03,4.36E-02
134933,7.54E-03,4.40E-02
134934,7.90E-03,4.40E-02
134935,7.79E-03,4.41E-02
134936,7.81E-03,4.43E-02
134937,7.89E-03,4.44E-02
134938,7.94E-03,4.46E-02
134939,7.94E-03,4.48E-02
134940,7.94E-03,4.50E-02
134941,7.94E-03,4.52E-02
134942,7.94E-03,4.55E-02
134943,7.94E-03,4.58E-02
134944,7.94E-03,4.61E-02
134945,7.94E-03,4.65E-02
134946,7.94E-03,4.69E-02
134947,7.94E-03,4.75E-02
134948,7.94E-03,4.81E-02
134949,7.94E-03,4.88E-02
134950,7.94E-03,4.95E-02
134951,7.94E-03,5.04E-02
134952,7.94E-03,5.14E-02
134953,7.94E-03,5.25E-02
134954,7.94E-03,5.37E-02
134955,7.94E-03,5.51E-02
134956,7.94E-03,5.67E-02
134957,7.94E-03,5.84E-02
134958,7.94E-03,6.03E-02
134959,7.94E-03,6.25E-02
134960,8.00E-03,6.48E-02
134961,8.03E-03,6.75E-02
134962,8.02E-03,7.04E-02
134963,7.99E-03,7.36E-02
134964,7.94E-03,7.72E-02
134965,7.94E-03,8.12E-02
134966,7.94E-03,8.57E-02
134967,7.84E-03,9.08E-02
134968,7.78E-03,9.61E-02
134969,7.71E-03,0.10138
134970,7.79E-03,0.10626
134971,8.73E-03,0.11169
134972,7.69E-03,0.11572
134973,6.44E-03,2.09E-02
134974,5.85E-03,2.09E-02
134975,9.36E-03,2.29E-02
134976,6.40E-03,1.65E-02
134977,6.79E-03,1.60E-02
134978,7.06E-03,1.54E-02
134979,7.55E-03,1.50E-02
134980,8.99E-03,1.39E-02
134981,8.53E-03,1.32E-02
134982,8.26E-03,1.27E-02
134983,7.96E-03,1.21E-02
134984,7.77E-03,1.16E-02
134985,7.61E-03,1.12E-02
134986,7.29E-03,1.07E-02
134987,7.12E-03,1.03E-02
134988,6.90E-03,9.80E-03
134989,6.75E-03,9.42E-03
134990,7.24E-03,9.08E-03
134991,9.00E-03,8.50E-03
134992,8.67E-03,8.01E-03
134993,8.59E-03,7.63E-03
134994,8.45E-03,7.25E-03
134995,8.33E-03,6.89E-03
134996,8.10E-03,6.53E-03
134997,8.10E-03,6.19E-03
134998,8.10E-03,5.85E-03
134999,8.01E-03,5.53E-03
135000,7.80E-03,5.23E-03
135001,7.65E-03,4.94E-03
135002,7.39E-03,4.67E-03
135003,6.95E-03,4.45E-03
135004,6.87E-03,4.30E-03
135005,5.79E-03,4.05E-03
135006,6.25E-03,3.89E-03
135007,6.88E-03,3.86E-03
135008,7.12E-03,3.85E-03
135009,7.72E-03,3.82E-03
135010,8.83E-03,3.82E-03
135011,7.97E-03,3.73E-03
135012,7.07E-03,3.61E-03
135013,5.62E-03,3.53E-03
135014,7.14E-03,3.54E-03
135015,6.90E-03,3.52E-03
135016,7.38E-03,3.65E-03
135017,7.10E-03,3.47E-03
135018,6.76E-03,3.34E-03
135019,6.82E-03,3.25E-03
135020,6.67E-03,3.19E-03
135021,6.68E-03,3.15E-03
135022,6.79E-03,3.14E-03
135023,6.88E-03,3.14E-03
135024,6.51E-03,3.11E-03
135025,6.82E-03,3.05E-03
135026,5.94E-03,2.96E-03
135027,6.53E-03,2.88E-03
135028,7.04E-03,2.88E-03
135029,7.40E-03,2.89E-03
135030,7.38E-03,2.88E-03
135031,7.34E-03,2.87E-03
135032,7.31E-03,2.87E-03
135033,7.25E-03,2.88E-03
135034,7.19E-03,2.90E-03
135035,7.57E-03,2.95E-03
135036,7.70E-03,3.00E-03
135037,8.15E-03,3.05E-03
135038,8.57E-03,3.09E-03
135039,9.50E-03,3.10E-03
135040,9.09E-03,3.08E-03
135041,8.24E-03,3.09E-03
135042,8.19E-03,3.08E-03
135043,8.08E-03,3.05E-03
135044,7.77E-03,3.02E-03
135045,7.81E-03,3.01E-03
135046,7.92E-03,3.00E-03
135047,7.98E-03,2.98E-03
135048,8.09E-03,2.97E-03
135049,8.09E-03,2.96E-03
135050,8.09E-03,2.95E-03
135051,8.10E-03,2.93E-03
135052,8.11E-03,2.92E-03
135053,8.10E-03,2.90E-03
135054,8.29E-03,2.88E-03
135055,8.39E-03,2.86E-03
135056,8.50E-03,2.83E-03
135057,8.57E-03,2.80E-03
135058,8.91E-03,2.76E-03
135059,8.95E-03,2.71E-03
135060,8.79E-03,2.64E-03
135061,8.67E-03,2.56E-03
135062,8.55E-03,2.48E-03
135063,8.36E-03,2.39E-03
135064,8.23E-03,2.30E-03
135065,8.38E-03,2.21E-03
135066,8.40E-03,2.03E-03
135067,7.33E-03,1.87E-03
135068,7.19E-03,1.75E-03
135069,6.97E-03,1.63E-03
135070,7.15E-03,1.53E-03
135071,7.37E-03,1.44E-03
135072,7.62E-03,1.38E-03
135073,7.81E-03,1.33E-03
135074,7.92E-03,1.27E-03
135075,8.06E-03,1.22E-03
135076,8.25E-03,1.16E-03
135077,8.24E-03,1.09E-03
135078,8.18E-03,1.03E-03
135079,9.38E-03,7.95E-04
135080,7.92E-03,6.71E-04
135081,7.66E-03,5.82E-04
135082,7.29E-03,5.08E-04
135083,6.85E-03,4.55E-04
135084,6.42E-03,3.88E-04
135085,6.52E-03,3.17E-04
135086,7.10E-03,3.00E-04
135087,7.30E-03,3.03E-04
135088,8.63E-03,2.99E-04
135089,8.40E-03,2.85E-04
135090,8.44E-03,2.66E-04
135091,6.63E-03,2.47E-04
135092,6.80E-03,2.21E-04
135093,7.42E-03,2.07E-04
135094,8.04E-03,2.03E-04
135095,8.15E-03,2.02E-04
135096,8.45E-03,2.00E-04
135097,8.50E-03,1.96E-04
135098,8.80E-03,1.90E-04
135099,8.90E-03,1.87E-04
135100,9.00E-03,1.93E-04
135101,8.57E-03,2.15E-04
135102,8.16E-03,2.53E-04
135103,7.77E-03,2.97E-04
135104,7.13E-03,3.27E-04
135105,6.90E-03,3.52E-04
135106,7.04E-03,3.59E-04
135107,7.17E-03,3.47E-04
135108,7.88E-03,3.30E-04
135109,8.33E-03,3.15E-04
135110,8.60E-03,3.12E-04
135111,8.92E-03,3.18E-04
135112,8.13E-03,3.33E-04
135113,8.13E-03,3.51E-04
135114,8.07E-03,3.70E-04
135115,7.98E-03,3.85E-04
135116,8.04E-03,3.93E-04
135117,8.61E-03,4.05E-04
135118,8.52E-03,4.25E-04
135119,8.22E-03,4.49E-04
135120,7.78E-03,4.78E-04
135121,6.83E-03,5.06E-04
135122,6.89E-03,5.22E-04
135123,6.91E-03,5.27E-04
135124,7.17E-03,5.23E-04
135125,7.35E-03,5.13E-04
135126,7.46E-03,5.01E-04
135127,7.59E-03,4.87E-04
135128,7.71E-03,4.72E-04
135129,7.86E-03,4.57E-04
135130,7.91E-03,4.42E-04
135131,7.94E-03,4.29E-04
135132,7.96E-03,4.17E-04
135133,7.95E-03,4.06E-04
135134,7.92E-03,3.95E-04
135135,7.89E-03,3.84E-04
135136,7.86E-03,3.74E-04
135137,7.82E-03,3.62E-04
135138,7.83E-03,3.50E-04
135139,7.88E-03,3.37E-04
135140,7.91E-03,3.23E-04
135141,7.93E-03,3.10E-04
135142,7.95E-03,2.97E-04
135143,7.95E-03,2.86E-04
135144,7.92E-03,2.77E-04
135145,7.89E-03,2.71E-04
135146,7.89E-03,2.67E-04
135147,7.92E-03,2.66E-04
135148,7.95E-03,2.69E-04
135149,7.96E-03,2.77E-04
135150,7.98E-03,2.90E-04
135151,7.99E-03,3.07E-04
135152,8.00E-03,3.29E-04
135153,8.01E-03,3.55E-04
135154,8.02E-03,3.84E-04
135155,8.02E-03,4.17E-04
135156,8.03E-03,4.53E-04
135157,8.03E-03,4.92E-04
135158,8.04E-03,5.33E-04
135159,8.04E-03,5.76E-04
135160,8.07E-03,6.22E-04
135161,8.11E-03,6.70E-04
135162,8.13E-03,7.19E-04
135163,8.13E-03,7.70E-04
135164,8.14E-03,8.22E-04
135165,8.15E-03,8.75E-04
135166,8.16E-03,9.30E-04
135167,8.17E-03,9.85E-04
135168,8.20E-03,1.04E-03
135169,8.24E-03,1.10E-03
135170,8.27E-03,1.16E-03
135171,8.27E-03,1.21E-03
135172,8.29E-03,1.27E-03
135173,8.33E-03,1.32E-03
135174,8.38E-03,1.38E-03
135175,8.47E-03,1.43E-03
135176,8.55E-03,1.48E-03
135177,8.53E-03,1.53E-03
135178,8.42E-03,1.58E-03
135179,8.34E-03,1.62E-03
135180,8.30E-03,1.66E-03
135181,8.30E-03,1.70E-03
135182,8.35E-03,1.74E-03
135183,8.42E-03,1.78E-03
135184,8.48E-03,1.81E-03
135185,8.32E-03,1.84E-03
135186,8.12E-03,1.87E-03
135187,8.10E-03,1.90E-03
135188,8.10E-03,1.92E-03
135189,8.09E-03,1.95E-03
135190,8.10E-03,1.98E-03
135191,8.16E-03,2.00E-03
135192,8.24E-03,2.03E-03
135193,8.31E-03,2.05E-03
135194,8.35E-03,2.07E-03
135195,8.38E-03,2.09E-03
135196,8.42E-03,2.11E-03
135197,8.34E-03,2.12E-03
135198,8.02E-03,2.14E-03
135199,7.81E-03,2.15E-03
135200,7.82E-03,2.17E-03
135201,7.83E-03,2.18E-03
135202,7.85E-03,2.20E-03
135203,7.79E-03,2.23E-03
135204,7.66E-03,2.25E-03
135205,7.64E-03,2.28E-03
135206,7.72E-03,2.31E-03
135207,7.78E-03,2.34E-03
135208,7.82E-03,2.37E-03
135209,7.86E-03,2.41E-03
135210,7.89E-03,2.45E-03
135211,7.93E-03,2.49E-03
135212,8.08E-03,2.53E-03
135213,8.27E-03,2.58E-03
135214,8.39E-03,2.62E-03
135215,8.44E-03,2.65E-03
135216,8.51E-03,2.69E-03
135217,8.63E-03,2.72E-03
135218,8.81E-03,2.75E-03
135219,9.03E-03,2.78E-03
135220,8.51E-03,2.80E-03
135221,7.71E-03,2.82E-03
135222,7.56E-03,2.84E-03
135223,7.64E-03,2.86E-03
135224,7.71E-03,2.88E-03
135225,7.76E-03,2.90E-03
135226,7.71E-03,2.93E-03
135227,7.53E-03,2.97E-03
135228,7.49E-03,3.00E-03
135229,7.65E-03,3.04E-03
135230,7.77E-03,3.09E-03
135231,7.84E-03,3.14E-03
135232,7.89E-03,3.20E-03
135233,7.93E-03,3.26E-03
135234,7.95E-03,3.32E-03
135235,7.97E-03,3.39E-03
135236,7.99E-03,3.46E-03
135237,8.00E-03,3.53E-03
135238,8.01E-03,3.60E-03
135239,8.03E-03,3.68E-03
135240,8.11E-03,3.75E-03
135241,8.20E-03,3.83E-03
135242,8.24E-03,3.91E-03
135243,8.27E-03,3.98E-03
135244,8.30E-03,4.06E-03
135245,8.33E-03,4.13E-03
135246,8.49E-03,4.19E-03
135247,8.62E-03,4.25E-03
135248,8.71E-03,4.30E-03
135249,8.86E-03,4.34E-03
135250,9.02E-03,4.38E-03
135251,9.25E-03,4.41E-03
135252,8.98E-03,4.44E-03
135253,8.92E-03,4.46E-03
135254,8.88E-03,4.48E-03
135255,8.61E-03,4.50E-03
135256,7.44E-03,4.51E-03
135257,6.57E-03,4.52E-03
135258,6.80E-03,4.53E-03
135259,7.19E-03,4.54E-03
135260,7.47E-03,4.56E-03
135261,7.74E-03,4.58E-03
135262,7.93E-03,4.60E-03
135263,8.25E-03,4.62E-03
135264,8.50E-03,4.64E-03
135265,8.60E-03,4.66E-03
135266,8.71E-03,4.68E-03
135267,8.89E-03,4.71E-03
135268,8.87E-03,4.73E-03
135269,8.49E-03,4.76E-03
135270,8.05E-03,4.78E-03
135271,7.44E-03,4.81E-03
135272,7.30E-03,4.83E-03
135273,7.54E-03,4.84E-03
135274,7.78E-03,4.86E-03
135275,7.94E-03,4.87E-03
135276,8.09E-03,4.89E-03
135277,8.19E-03,4.91E-03
135278,8.44E-03,4.93E-03
135279,8.55E-03,4.95E-03
135280,8.64E-03,4.98E-03
135281,8.44E-03,5.00E-03
135282,8.08E-03,5.03E-03
135283,7.67E-03,5.05E-03
135284,7.57E-03,5.08E-03
135285,7.61E-03,5.10E-03
135286,7.70E-03,5.12E-03
135287,7.90E-03,5.14E-03
135288,8.01E-03,5.17E-03
135289,8.17E-03,5.19E-03
135290,8.36E-03,5.20E-03
135291,8.45E-03,5.22E-03
135292,8.55E-03,5.24E-03
135293,8.65E-03,5.26E-03
135294,8.56E-03,5.28E-03
135295,8.29E-03,5.30E-03
135296,7.93E-03,5.31E-03
135297,7.77E-03,5.32E-03
135298,7.83E-03,5.34E-03
135299,7.88E-03,5.35E-03
135300,7.91E-03,5.35E-03
135301,7.95E-03,5.36E-03
135302,8.03E-03,5.38E-03
135303,8.09E-03,5.39E-03
135304,8.09E-03,5.41E-03
135305,8.09E-03,5.43E-03
135306,8.08E-03,5.45E-03
135307,8.04E-03,5.48E-03
135308,7.55E-03,5.52E-03
135309,7.27E-03,5.55E-03
135310,7.54E-03,5.60E-03
135311,7.68E-03,5.64E-03
135312,7.77E-03,5.69E-03
135313,7.86E-03,5.75E-03
135314,7.90E-03,5.81E-03
135315,7.81E-03,5.88E-03
135316,7.83E-03,5.95E-03
135317,8.07E-03,6.02E-03
135318,8.21E-03,6.09E-03
135319,8.22E-03,6.15E-03
135320,8.29E-03,6.21E-03
135321,8.47E-03,6.26E-03
135322,8.61E-03,6.30E-03
135323,8.89E-03,6.33E-03
135324,8.90E-03,6.33E-03
135325,9.02E-03,6.31E-03
135326,9.72E-03,6.29E-03
135327,9.68E-03,6.26E-03
135328,9.19E-03,6.24E-03
135329,9.17E-03,6.22E-03
135330,8.83E-03,6.18E-03
135331,7.78E-03,6.14E-03
135332,7.26E-03,6.07E-03
135333,6.77E-03,6.00E-03
135334,7.85E-03,5.90E-03
135335,7.87E-03,5.80E-03
135336,8.14E-03,5.69E-03
135337,8.31E-03,5.60E-03
135338,8.38E-03,5.53E-03
135339,7.72E-03,5.47E-03
135340,7.09E-03,5.42E-03
135341,7.14E-03,5.37E-03
135342,7.09E-03,5.32E-03
135343,7.52E-03,5.26E-03
135344,7.74E-03,5.21E-03
135345,7.79E-03,5.16E-03
135346,8.58E-03,5.13E-03
135347,7.98E-03,5.09E-03
135348,7.44E-03,5.10E-03
135349,6.97E-03,5.06E-03
135350,6.80E-03,5.06E-03
135351,6.91E-03,5.08E-03
135352,6.99E-03,5.11E-03
135353,7.27E-03,5.14E-03
135354,7.38E-03,5.17E-03
135355,7.54E-03,5.22E-03
135356,7.68E-03,5.27E-03
135357,7.96E-03,5.34E-03
135358,7.99E-03,5.41E-03
135359,8.00E-03,5.48E-03
135360,8.02E-03,5.56E-03
135361,8.03E-03,5.63E-03
135362,8.04E-03,5.71E-03
135363,8.05E-03,5.79E-03
135364,8.06E-03,5.87E-03
135365,8.06E-03,5.95E-03
135366,8.06E-03,6.03E-03
135367,8.06E-03,6.11E-03
135368,8.06E-03,6.18E-03
135369,8.07E-03,6.26E-03
135370,8.07E-03,6.33E-03
135371,8.07E-03,6.41E-03
135372,8.07E-03,6.48E-03
135373,8.07E-03,6.55E-03
135374,8.07E-03,6.62E-03
135375,8.07E-03,6.69E-03
135376,8.07E-03,6.75E-03
135377,8.08E-03,6.82E-03
135378,8.08E-03,6.88E-03
135379,8.08E-03,6.94E-03
135380,8.08E-03,7.00E-03
135381,8.08E-03,7.06E-03
135382,8.08E-03,7.12E-03
135383,8.08E-03,7.17E-03
135384,8.08E-03,7.22E-03
135385,8.07E-03,7.27E-03
135386,8.06E-03,7.32E-03
135387,8.06E-03,7.37E-03
135388,8.06E-03,7.41E-03
135389,8.05E-03,7.45E-03
135390,8.05E-03,7.49E-03
135391,8.04E-03,7.54E-03
135392,8.03E-03,7.58E-03
135393,8.02E-03,7.62E-03
135394,8.01E-03,7.66E-03
135395,7.92E-03,7.70E-03
135396,7.84E-03,7.75E-03
135397,7.72E-03,7.81E-03
135398,7.63E-03,7.88E-03
135399,7.53E-03,7.96E-03
135400,7.44E-03,8.06E-03
135401,7.12E-03,8.18E-03
135402,7.06E-03,8.31E-03
135403,6.90E-03,8.45E-03
135404,7.18E-03,8.60E-03
135405,7.23E-03,8.76E-03
135406,7.45E-03,8.93E-03
135407,7.71E-03,9.12E-03
135408,8.00E-03,9.31E-03
135409,8.57E-03,9.50E-03
135410,8.87E-03,9.70E-03
135411,8.74E-03,9.92E-03
135412,8.61E-03,1.01E-02
135413,8.52E-03,1.03E-02
135414,8.46E-03,1.05E-02
135415,8.41E-03,1.07E-02
135416,8.39E-03,1.09E-02
135417,8.35E-03,1.11E-02
135418,8.30E-03,1.12E-02
135419,8.26E-03,1.14E-02
135420,8.23E-03,1.15E-02
135421,8.21E-03,1.16E-02
135422,8.20E-03,1.18E-02
135423,8.18E-03,1.19E-02
135424,8.16E-03,1.20E-02
135425,8.15E-03,1.21E-02
135426,8.17E-03,1.22E-02
135427,8.20E-03,1.23E-02
135428,8.22E-03,1.24E-02
135429,8.14E-03,1.25E-02
135430,8.06E-03,1.26E-02
135431,8.06E-03,1.27E-02
135432,8.06E-03,1.28E-02
135433,8.06E-03,1.29E-02
135434,8.06E-03,1.29E-02
135435,8.05E-03,1.30E-02
135436,8.04E-03,1.31E-02
135437,8.03E-03,1.32E-02
135438,8.01E-03,1.33E-02
135439,7.98E-03,1.34E-02
135440,7.93E-03,1.36E-02
135441,7.83E-03,1.37E-02
135442,7.68E-03,1.39E-02
135443,7.52E-03,1.41E-02
135444,7.32E-03,1.42E-02
135445,6.99E-03,1.44E-02
135446,6.86E-03,1.46E-02
135447,7.62E-03,1.48E-02
135448,7.86E-03,1.50E-02
135449,8.39E-03,1.52E-02
135450,8.61E-03,1.54E-02
135451,8.70E-03,1.56E-02
135452,8.82E-03,1.58E-02
135453,8.86E-03,1.60E-02
135454,8.71E-03,1.62E-02
135455,8.58E-03,1.64E-02
135456,8.49E-03,1.66E-02
135457,8.43E-03,1.67E-02
135458,8.36E-03,1.69E-02
135459,8.26E-03,1.70E-02
135460,8.19E-03,1.71E-02
135461,8.18E-03,1.72E-02
135462,8.17E-03,1.72E-02
135463,8.17E-03,1.73E-02
135464,8.16E-03,1.74E-02
135465,8.16E-03,1.74E-02
135466,8.04E-03,1.75E-02
135467,7.90E-03,1.76E-02
135468,7.73E-03,1.77E-02
135469,7.54E-03,1.78E-02
135470,7.38E-03,1.79E-02
135471,7.19E-03,1.81E-02
135472,7.05E-03,1.83E-02
135473,6.88E-03,1.86E-02
135474,6.67E-03,1.89E-02
135475,6.57E-03,1.92E-02
135476,7.48E-03,1.95E-02
135477,7.68E-03,1.98E-02
135478,8.01E-03,2.01E-02
135479,8.60E-03,2.04E-02
135480,9.34E-03,2.07E-02
135481,9.23E-03,2.11E-02
135482,9.10E-03,2.15E-02
135483,8.77E-03,2.19E-02
135484,8.60E-03,2.23E-02
135485,8.41E-03,2.27E-02
135486,8.34E-03,2.30E-02
135487,8.33E-03,2.33E-02
135488,8.31E-03,2.35E-02
135489,8.30E-03,2.37E-02
135490,8.29E-03,2.39E-02
135491,8.27E-03,2.41E-02
135492,8.26E-03,2.43E-02
135493,8.25E-03,2.44E-02
135494,8.24E-03,2.45E-02
135495,8.34E-03,2.46E-02
135496,8.50E-03,2.47E-02
135497,8.52E-03,2.48E-02
135498,8.45E-03,2.48E-02
135499,8.38E-03,2.49E-02
135500,8.34E-03,2.49E-02
135501,8.30E-03,2.49E-02
135502,8.28E-03,2.49E-02
135503,8.26E-03,2.49E-02
135504,8.24E-03,2.49E-02
135505,8.20E-03,2.49E-02
135506,8.11E-03,2.48E-02
135507,8.05E-03,2.48E-02
135508,8.03E-03,2.48E-02
135509,8.00E-03,2.47E-02
135510,7.94E-03,2.47E-02
135511,7.84E-03,2.47E-02
135512,7.82E-03,2.47E-02
135513,7.73E-03,2.47E-02
135514,7.64E-03,2.47E-02
135515,7.30E-03,2.47E-02
135516,7.32E-03,2.47E-02
135517,7.95E-03,2.47E-02
135518,8.19E-03,2.47E-02
135519,8.20E-03,2.48E-02
135520,8.24E-03,2.48E-02
135521,8.25E-03,2.49E-02
135522,8.23E-03,2.50E-02
135523,8.06E-03,2.51E-02
135524,8.01E-03,2.52E-02
135525,7.84E-03,2.54E-02
135526,7.63E-03,2.56E-02
135527,7.35E-03,2.57E-02
135528,7.29E-03,2.58E-02
135529,7.30E-03,2.59E-02
135530,7.67E-03,2.60E-02
135531,8.50E-03,2.60E-02
135532,8.89E-03,2.60E-02
135533,8.96E-03,2.61E-02
135534,8.61E-03,2.62E-02
135535,8.54E-03,2.64E-02
135536,8.34E-03,2.66E-02
135537,8.02E-03,2.67E-02
135538,7.92E-03,2.68E-02
135539,7.84E-03,2.70E-02
135540,7.66E-03,2.71E-02
135541,7.58E-03,2.72E-02
135542,7.50E-03,2.73E-02
135543,7.53E-03,2.75E-02
135544,7.64E-03,2.76E-02
135545,7.83E-03,2.78E-02
135546,7.98E-03,2.79E-02
135547,8.08E-03,2.80E-02
135548,8.13E-03,2.81E-02
135549,8.07E-03,2.82E-02
135550,7.91E-03,2.83E-02
135551,7.85E-03,2.83E-02
135552,7.99E-03,2.83E-02
135553,8.30E-03,2.83E-02
135554,8.82E-03,2.83E-02
135555,8.90E-03,2.83E-02
135556,8.73E-03,2.83E-02
135557,8.14E-03,2.83E-02
135558,7.84E-03,2.82E-02
135559,7.62E-03,2.81E-02
135560,7.46E-03,2.79E-02
135561,7.61E-03,2.77E-02
135562,8.18E-03,2.76E-02
135563,8.44E-03,2.74E-02
135564,8.31E-03,2.73E-02
135565,8.11E-03,2.71E-02
135566,7.83E-03,2.70E-02
135567,7.62E-03,2.67E-02
135568,7.80E-03,2.65E-02
135569,7.75E-03,2.63E-02
135570,8.02E-03,2.62E-02
135571,8.36E-03,2.62E-02
135572,8.60E-03,2.63E-02
135573,8.83E-03,2.64E-02
135574,8.67E-03,2.66E-02
135575,8.22E-03,2.68E-02
135576,6.67E-03,2.73E-02
135577,7.90E-03,2.25E-02
135578,8.11E-03,2.27E-02
135579,8.04E-03,2.27E-02
135580,8.01E-03,2.25E-02
135581,7.90E-03,2.23E-02
135582,7.70E-03,2.20E-02
135583,7.60E-03,2.17E-02
135584,7.55E-03,2.15E-02
135585,7.38E-03,2.13E-02
135586,7.02E-03,2.11E-02
135587,7.10E-03,2.10E-02
135588,6.56E-03,2.07E-02
135589,7.06E-03,2.07E-02
135590,7.42E-03,2.05E-02
135591,7.57E-03,2.03E-02
135592,8.99E-03,2.02E-02
135593,9.54E-03,2.01E-02
135594,8.64E-03,2.02E-02
135595,8.06E-03,2.03E-02
135596,7.32E-03,2.04E-02
135597,7.15E-03,2.05E-02
135598,7.26E-03,2.04E-02
135599,1.03E-02,2.01E-02
135600,8.87E-03,2.01E-02
135601,8.15E-03,2.02E-02
135602,7.80E-03,2.03E-02
135603,7.62E-03,2.04E-02
135604,7.40E-03,2.04E-02
135605,9.21E-03,2.12E-02
135606,8.47E-03,2.17E-02
135607,8.45E-03,2.20E-02
135608,8.32E-03,2.21E-02
135609,8.24E-03,2.21E-02
135610,7.95E-03,2.19E-02
135611,7.82E-03,2.18E-02
135612,7.07E-03,2.17E-02
135613,5.46E-03,2.15E-02
135614,5.34E-03,2.09E-02
135615,7.49E-03,2.05E-02
135616,9.80E-03,1.88E-02
135617,9.21E-03,1.84E-02
135618,9.01E-03,1.80E-02
135619,9.02E-03,1.76E-02
135620,9.18E-03,1.70E-02
135621,9.45E-03,1.63E-02
135622,9.91E-03,1.54E-02
135623,8.45E-03,2.81E-02
135624,8.74E-03,2.78E-02
135625,8.90E-03,2.80E-02
135626,8.78E-03,2.83E-02
135627,8.74E-03,2.86E-02
135628,8.69E-03,2.88E-02
135629,8.42E-03,2.89E-02
135630,8.49E-03,2.90E-02
135631,8.14E-03,2.90E-02
135632,8.33E-03,2.89E-02
135633,7.93E-03,2.88E-02
135634,7.74E-03,2.86E-02
135635,7.74E-03,2.85E-02
135636,7.63E-03,2.83E-02
135637,7.60E-03,2.80E-02
135638,7.65E-03,2.78E-02
135639,7.75E-03,2.76E-02
135640,7.84E-03,2.73E-02
135641,8.01E-03,2.71E-02
135642,8.28E-03,2.68E-02
135643,8.51E-03,2.66E-02
135644,8.56E-03,2.63E-02
135645,8.78E-03,2.60E-02
135646,8.51E-03,2.58E-02
135647,8.41E-03,2.55E-02
135648,8.23E-03,2.53E-02
135649,8.06E-03,2.50E-02
135650,7.96E-03,2.48E-02
135651,7.47E-03,2.45E-02
135652,7.35E-03,2.43E-02
135653,7.28E-03,2.41E-02
135654,7.38E-03,2.39E-02
135655,6.92E-03,2.37E-02
135656,7.17E-03,2.36E-02
135657,7.21E-03,2.34E-02
135658,7.63E-03,2.34E-02
135659,7.77E-03,2.33E-02
135660,7.53E-03,2.34E-02
135661,7.53E-03,2.35E-02
135662,7.40E-03,2.38E-02
135663,6.38E-03,2.41E-02
135664,6.49E-03,2.43E-02
135665,6.35E-03,2.44E-02
135666,4.51E-03,2.42E-02
135667,5.76E-03,2.43E-02
135668,1.08E-02,2.66E-02
135669,1.05E-02,2.68E-02
135670,9.48E-03,2.68E-02
135671,9.50E-03,2.67E-02
135672,9.68E-03,2.67E-02
135673,9.52E-03,2.67E-02
135674,9.35E-03,2.67E-02
135675,9.13E-03,2.67E-02
135676,8.51E-03,2.67E-02
135677,8.40E-03,2.67E-02
135678,7.30E-03,2.67E-02
135679,7.31E-03,2.67E-02
135680,7.25E-03,2.66E-02
135681,7.02E-03,2.66E-02
135682,7.00E-03,2.66E-02
135683,7.11E-03,2.65E-02
135684,7.18E-03,2.64E-02
135685,7.18E-03,2.63E-02
135686,7.24E-03,2.62E-02
135687,7.33E-03,2.61E-02
135688,7.47E-03,2.59E-02
135689,7.60E-03,2.58E-02
135690,7.65E-03,2.56E-02
135691,7.86E-03,2.55E-02
135692,8.03E-03,2.54E-02
135693,8.06E-03,2.53E-02
135694,8.14E-03,2.53E-02
135695,8.17E-03,2.53E-02
135696,8.20E-03,2.53E-02
135697,8.12E-03,2.54E-02
135698,8.04E-03,2.55E-02
135699,8.05E-03,2.56E-02
135700,7.93E-03,2.56E-02
135701,7.89E-03,2.57E-02
135702,7.77E-03,2.57E-02
135703,7.70E-03,2.57E-02
135704,7.67E-03,2.57E-02
135705,7.63E-03,2.56E-02
135706,7.63E-03,2.56E-02
135707,7.61E-03,2.55E-02
135708,7.63E-03,2.54E-02
135709,7.81E-03,2.53E-02
135710,8.03E-03,2.52E-02
135711,8.26E-03,2.51E-02
135712,8.64E-03,2.50E-02
135713,8.75E-03,2.49E-02
135714,8.58E-03,2.49E-02
135715,8.41E-03,2.48E-02
135716,8.24E-03,2.48E-02
135717,8.06E-03,2.48E-02
135718,7.72E-03,2.48E-02
135719,7.62E-03,2.48E-02
135720,7.65E-03,2.47E-02
135721,7.63E-03,2.47E-02
135722,7.81E-03,2.47E-02
135723,7.87E-03,2.47E-02
135724,7.87E-03,2.47E-02
135725,7.76E-03,2.46E-02
135726,7.67E-03,2.46E-02
135727,7.60E-03,2.45E-02
135728,7.75E-03,2.44E-02
135729,7.75E-03,2.43E-02
135730,7.78E-03,2.42E-02
135731,7.65E-03,2.41E-02
135732,7.43E-03,2.40E-02
135733,7.33E-03,2.38E-02
135734,7.35E-03,2.37E-02
135735,7.22E-03,2.36E-02
135736,7.02E-03,2.36E-02
135737,7.08E-03,2.40E-02
135738,6.91E-03,2.41E-02
135739,7.31E-03,2.50E-02
135740,8.19E-03,2.41E-02
135741,9.44E-03,2.43E-02
135742,8.73E-03,2.45E-02
135743,8.30E-03,2.47E-02
135744,7.97E-03,2.48E-02
135745,7.59E-03,2.49E-02
135746,7.28E-03,2.50E-02
135747,8.55E-03,1.83E-02
135748,8.24E-03,1.89E-02
135749,8.08E-03,1.95E-02
135750,7.87E-03,2.06E-02
135751,7.76E-03,2.11E-02
135752,7.77E-03,2.16E-02
135753,7.95E-03,2.22E-02
135754,9.09E-03,2.62E-02
135755,9.28E-03,2.60E-02
135756,8.99E-03,2.59E-02
135757,8.85E-03,2.57E-02
135758,8.54E-03,2.55E-02
135759,8.34E-03,2.54E-02
135760,7.93E-03,2.52E-02
135761,7.60E-03,2.51E-02
135762,7.06E-03,2.50E-02
135763,7.12E-03,2.48E-02
135764,7.23E-03,2.47E-02
135765,7.31E-03,2.46E-02
135766,7.37E-03,2.45E-02
135767,7.52E-03,2.44E-02
135768,7.72E-03,2.43E-02
135769,7.88E-03,2.42E-02
135770,7.92E-03,2.41E-02
135771,8.07E-03,2.40E-02
135772,8.13E-03,2.39E-02
135773,8.25E-03,2.38E-02
135774,8.27E-03,2.36E-02
135775,8.50E-03,2.35E-02
135776,8.50E-03,2.34E-02
135777,8.55E-03,2.33E-02
135778,8.67E-03,2.32E-02
135779,8.70E-03,2.30E-02
135780,8.78E-03,2.29E-02
135781,8.89E-03,2.28E-02
135782,9.04E-03,2.26E-02
135783,9.25E-03,2.25E-02
135784,9.32E-03,2.23E-02
135785,9.33E-03,2.21E-02
135786,9.34E-03,2.20E-02
135787,9.35E-03,2.18E-02
135788,9.34E-03,2.16E-02
135789,9.33E-03,2.14E-02
135790,9.32E-03,2.12E-02
135791,9.31E-03,2.10E-02
135792,9.32E-03,2.09E-02
135793,9.35E-03,2.07E-02
135794,9.37E-03,2.05E-02
135795,9.39E-03,2.03E-02
135796,9.42E-03,2.01E-02
135797,9.46E-03,1.99E-02
135798,9.56E-03,1.97E-02
135799,9.59E-03,1.95E-02
135800,9.72E-03,1.94E-02
135801,9.84E-03,1.92E-02
135802,1.01E-02,1.90E-02
135803,1.01E-02,1.88E-02
135804,1.01E-02,1.87E-02
135805,9.84E-03,1.85E-02
135806,9.77E-03,1.84E-02
135807,9.73E-03,1.82E-02
135808,9.00E-03,1.81E-02
135809,8.98E-03,1.80E-02
135810,8.74E-03,1.79E-02
135811,8.60E-03,1.77E-02
135812,8.44E-03,1.76E-02
135813,8.34E-03,1.75E-02
135814,8.30E-03,1.74E-02
135815,8.26E-03,1.73E-02
135816,8.24E-03,1.72E-02
135817,8.23E-03,1.71E-02
135818,8.24E-03,1.70E-02
135819,8.24E-03,1.69E-02
135820,8.25E-03,1.68E-02
135821,8.27E-03,1.67E-02
135822,8.28E-03,1.66E-02
135823,8.28E-03,1.65E-02
135824,8.28E-03,1.64E-02
135825,8.28E-03,1.63E-02
135826,8.28E-03,1.62E-02
135827,8.29E-03,1.61E-02
135828,8.29E-03,1.60E-02
135829,8.29E-03,1.59E-02
135830,8.30E-03,1.58E-02
135831,8.30E-03,1.57E-02
135832,8.30E-03,1.56E-02
135833,8.31E-03,1.55E-02
135834,8.31E-03,1.54E-02
135835,8.31E-03,1.53E-02
135836,8.32E-03,1.52E-02
135837,8.32E-03,1.51E-02
135838,8.32E-03,1.50E-02
135839,8.33E-03,1.49E-02
135840,8.33E-03,1.48E-02
135841,8.34E-03,1.47E-02
135842,8.34E-03,1.46E-02
135843,8.35E-03,1.45E-02
135844,8.35E-03,1.44E-02
135845,8.35E-03,1.43E-02
135846,8.34E-03,1.42E-02
135847,8.34E-03,1.41E-02
135848,8.32E-03,1.40E-02
135849,8.31E-03,1.39E-02
135850,8.30E-03,1.38E-02
135851,8.28E-03,1.37E-02
135852,8.27E-03,1.36E-02
135853,8.26E-03,1.35E-02
135854,8.26E-03,1.34E-02
135855,8.25E-03,1.33E-02
135856,8.24E-03,1.31E-02
135857,8.24E-03,1.30E-02
135858,8.23E-03,1.29E-02
135859,8.23E-03,1.28E-02
135860,8.22E-03,1.27E-02
135861,8.22E-03,1.26E-02
135862,8.21E-03,1.25E-02
135863,8.21E-03,1.24E-02
135864,8.20E-03,1.23E-02
135865,8.20E-03,1.22E-02
135866,8.19E-03,1.21E-02
135867,8.18E-03,1.21E-02
135868,8.18E-03,1.20E-02
135869,8.17E-03,1.20E-02
135870,8.16E-03,1.19E-02
135871,8.16E-03,1.19E-02
135872,8.15E-03,1.20E-02
135873,8.15E-03,1.20E-02
135874,8.14E-03,1.21E-02
135875,8.14E-03,1.23E-02
135876,8.14E-03,1.24E-02
135877,8.13E-03,1.26E-02
135878,8.13E-03,1.28E-02
135879,8.13E-03,1.31E-02
135880,8.13E-03,1.34E-02
135881,8.12E-03,1.37E-02
135882,8.12E-03,1.40E-02
135883,8.08E-03,1.43E-02
135884,8.04E-03,1.46E-02
135885,8.06E-03,1.49E-02
135886,8.03E-03,1.52E-02
135887,8.11E-03,1.55E-02
135888,8.17E-03,1.57E-02
135889,8.09E-03,1.60E-02
135890,7.93E-03,1.62E-02
135891,7.75E-03,1.66E-02
135892,8.02E-03,1.71E-02
135893,8.08E-03,1.75E-02
135894,8.24E-03,1.78E-02
135895,8.28E-03,1.82E-02
135896,8.14E-03,1.85E-02
135897,8.05E-03,1.88E-02
135898,7.94E-03,1.91E-02
135899,7.83E-03,1.94E-02
135900,7.74E-03,1.96E-02
135901,7.65E-03,1.98E-02
135902,7.55E-03,1.99E-02
135903,7.60E-03,1.99E-02
135904,7.78E-03,1.99E-02
135905,7.90E-03,1.99E-02
135906,8.01E-03,1.99E-02
135907,8.03E-03,1.99E-02
135908,7.72E-03,1.98E-02
135909,7.75E-03,1.98E-02
135910,7.91E-03,1.98E-02
135911,8.26E-03,1.97E-02
135912,8.41E-03,1.98E-02
135913,7.96E-03,1.98E-02
135914,7.85E-03,1.98E-02
135915,7.86E-03,1.98E-02
135916,8.12E-03,1.98E-02
135917,8.37E-03,1.98E-02
135918,8.57E-03,1.99E-02
135919,7.89E-03,1.99E-02
135920,7.77E-03,2.00E-02
135921,7.63E-03,2.01E-02
135922,7.50E-03,2.02E-02
135923,7.38E-03,2.03E-02
135924,5.35E-03,2.76E-02
135925,6.36E-03,2.87E-02
135926,6.59E-03,2.83E-02
135927,8.51E-03,1.65E-02
135928,5.92E-03,3.28E-03
135929,6.02E-03,2.84E-03
135930,7.29E-03,2.46E-02
135931,6.56E-03,2.30E-02
135932,7.13E-03,2.32E-02
135933,7.42E-03,2.32E-02
135934,7.36E-03,2.32E-02
135935,7.48E-03,2.31E-02
135936,7.61E-03,2.29E-02
135937,7.86E-03,2.28E-02
135938,8.79E-03,2.36E-02
135939,8.49E-03,2.41E-02
135940,8.27E-03,2.47E-02
135941,7.90E-03,2.51E-02
135942,7.73E-03,2.55E-02
135943,7.45E-03,2.61E-02
135944,7.42E-03,2.67E-02
135945,7.40E-03,2.72E-02
135946,7.60E-03,2.76E-02
135947,7.66E-03,2.81E-02
135948,7.71E-03,2.86E-02
135949,7.04E-03,2.90E-02
135950,6.57E-03,3.00E-02
135951,6.48E-03,3.17E-02
135952,6.86E-03,3.28E-02
135953,7.32E-03,3.38E-02
135954,7.63E-03,3.52E-02
135955,7.77E-03,3.68E-02
135956,7.94E-03,3.87E-02
135957,7.97E-03,4.08E-02
135958,7.91E-03,4.31E-02
135959,7.95E-03,4.57E-02
135960,7.82E-03,4.85E-02
135961,7.72E-03,5.13E-02
135962,7.53E-03,5.45E-02
135963,7.37E-03,5.85E-02
135964,7.26E-03,6.33E-02
135965,7.13E-03,6.94E-02
135966,7.46E-03,7.72E-02
135967,7.29E-03,8.87E-02
135968,6.17E-03,9.95E-02
135969,5.98E-03,0.11498
135970,6.41E-03,0.1314
135971,6.95E-03,2.15E-02
135972,7.48E-03,2.14E-02
135973,7.91E-03,2.12E-02
135974,9.00E-03,2.11E-02
135975,8.36E-03,2.10E-02
135976,7.03E-03,2.09E-02
135977,6.64E-03,2.08E-02
135978,6.97E-03,2.09E-02
135979,6.67E-03,2.07E-02
135980,6.91E-03,2.08E-02
135981,6.51E-03,2.07E-02
135982,6.76E-03,2.08E-02
135983,6.42E-03,2.07E-02
135984,6.45E-03,2.07E-02
135985,5.04E-03,2.06E-02
135986,5.82E-03,2.07E-02
135987,6.07E-03,2.31E-02
135988,6.64E-03,2.29E-02
135989,7.19E-03,2.28E-02
135990,7.55E-03,2.27E-02
135991,7.58E-03,2.25E-02
135992,7.72E-03,2.23E-02
135993,7.92E-03,2.21E-02
135994,8.08E-03,2.19E-02
135995,8.35E-03,2.17E-02
135996,9.11E-03,2.16E-02
135997,8.22E-03,2.14E-02
135998,7.08E-03,2.12E-02
135999,7.60E-03,2.11E-02
136000,7.81E-03,2.10E-02
136001,8.63E-03,2.09E-02
136002,6.10E-03,2.08E-02
136003,5.38E-03,2.07E-02
136004,6.99E-03,2.07E-02
136005,6.82E-03,2.07E-02
136006,6.80E-03,2.06E-02
136007,6.74E-03,2.06E-02
136008,6.52E-03,2.05E-02
136009,6.80E-03,2.05E-02
136010,5.64E-03,2.07E-02
136011,6.71E-03,2.06E-02
136012,7.99E-03,2.07E-02
136013,7.01E-03,2.05E-02
136014,7.51E-03,2.07E-02
136015,7.49E-03,2.06E-02
136016,7.32E-03,2.07E-02
136017,7.21E-03,2.06E-02
136018,6.98E-03,2.08E-02
136019,6.86E-03,2.06E-02
136020,6.26E-03,3.08E-03
136021,8.55E-03,2.70E-03
136022,6.67E-03,2.72E-02
136023,6.08E-03,2.46E-02
136024,7.94E-03,2.42E-02
136025,8.23E-03,2.43E-02
136026,8.48E-03,2.44E-02
136027,8.85E-03,2.45E-02
136028,8.68E-03,2.47E-02
136029,8.60E-03,2.48E-02
136030,8.63E-03,2.49E-02
136031,8.25E-03,2.49E-02
136032,8.00E-03,2.50E-02
136033,7.54E-03,2.50E-02
136034,7.25E-03,2.50E-02
136035,6.49E-03,2.51E-02
136036,5.91E-03,2.50E-02
136037,6.22E-03,2.48E-02
136038,6.17E-03,2.49E-02
136039,7.13E-03,2.47E-02
136040,4.47E-03,2.46E-02
136041,8.52E-03,4.45E-02
136042,8.11E-03,4.46E-02
136043,7.92E-03,4.48E-02
136044,7.94E-03,4.49E-02
136045,7.94E-03,4.50E-02
136046,7.94E-03,4.52E-02
136047,7.94E-03,4.53E-02
136048,7.94E-03,4.55E-02
136049,7.94E-03,4.57E-02
136050,7.94E-03,4.60E-02
136051,7.94E-03,4.62E-02
136052,7.94E-03,4.65E-02
136053,7.94E-03,4.69E-02
136054,7.94E-03,4.73E-02
136055,7.94E-03,4.78E-02
136056,7.94E-03,4.84E-02
136057,7.94E-03,4.90E-02
136058,7.94E-03,4.98E-02
136059,7.94E-03,5.06E-02
136060,7.94E-03,5.16E-02
136061,7.94E-03,5.27E-02
136062,7.94E-03,5.39E-02
136063,7.94E-03,5.53E-02
136064,7.94E-03,5.69E-02
136065,7.94E-03,5.86E-02
136066,7.94E-03,6.06E-02
136067,7.94E-03,6.28E-02
136068,7.94E-03,6.52E-02
136069,7.94E-03,6.79E-02
136070,7.94E-03,7.10E-02
136071,7.94E-03,7.44E-02
136072,7.94E-03,7.83E-02
136073,7.94E-03,8.27E-02
136074,7.94E-03,8.77E-02
136075,7.88E-03,9.33E-02
136076,7.82E-03,9.93E-02
136077,7.85E-03,0.10585
136078,7.99E-03,0.11316
136079,7.84E-03,0.1225
136080,7.49E-03,0.12975
136081,7.16E-03,0.13947
136082,6.68E-03,0.14758
136083,8.77E-03,2.48E-02
136084,7.13E-03,2.24E-02
136085,1.00E-02,1.32E-02
136086,9.61E-03,1.25E-02
136087,9.47E-03,1.17E-02
136088,9.31E-03,1.08E-02
136089,9.07E-03,9.82E-03
136090,8.57E-03,8.90E-03
136091,8.41E-03,8.03E-03
136092,8.18E-03,7.23E-03
136093,8.06E-03,6.50E-03
136094,8.06E-03,5.83E-03
136095,8.06E-03,5.23E-03
136096,8.06E-03,4.69E-03
136097,8.06E-03,4.21E-03
136098,8.06E-03,3.79E-03
136099,8.05E-03,3.42E-03
136100,8.05E-03,3.11E-03
136101,8.05E-03,2.85E-03
136102,8.05E-03,2.64E-03
136103,8.05E-03,2.49E-03
136104,8.05E-03,2.40E-03
136105,8.05E-03,2.35E-03
136106,8.04E-03,2.35E-03
136107,8.04E-03,2.40E-03
136108,8.04E-03,2.47E-03
136109,8.04E-03,2.58E-03
136110,8.04E-03,2.71E-03
136111,8.04E-03,2.85E-03
136112,8.03E-03,3.01E-03
136113,8.03E-03,3.17E-03
136114,8.03E-03,3.34E-03
136115,8.10E-03,3.52E-03
136116,8.26E-03,3.70E-03
136117,8.38E-03,3.88E-03
136118,8.38E-03,4.06E-03
136119,8.33E-03,4.24E-03
136120,8.27E-03,4.42E-03
136121,8.25E-03,4.60E-03
136122,8.22E-03,4.77E-03
136123,8.21E-03,4.94E-03
136124,8.19E-03,5.10E-03
136125,8.18E-03,5.27E-03
136126,8.16E-03,5.43E-03
136127,8.15E-03,5.58E-03
136128,8.16E-03,5.73E-03
136129,8.20E-03,5.88E-03
136130,8.19E-03,6.03E-03
136131,8.10E-03,6.18E-03
136132,8.03E-03,6.33E-03
136133,8.03E-03,6.47E-03
136134,8.03E-03,6.61E-03
136135,8.02E-03,6.75E-03
136136,8.01E-03,6.89E-03
136137,7.99E-03,7.03E-03
136138,7.98E-03,7.18E-03
136139,7.97E-03,7.32E-03
136140,7.96E-03,7.47E-03
136141,7.94E-03,7.63E-03
136142,7.91E-03,7.78E-03
136143,7.88E-03,7.95E-03
136144,7.83E-03,8.11E-03
136145,7.72E-03,8.28E-03
136146,7.59E-03,8.44E-03
136147,7.80E-03,8.61E-03
136148,8.16E-03,8.78E-03
136149,8.35E-03,8.95E-03
136150,8.40E-03,9.14E-03
136151,8.34E-03,9.32E-03
136152,8.30E-03,9.51E-03
136153,8.27E-03,9.69E-03
136154,8.24E-03,9.88E-03
136155,8.22E-03,1.01E-02
136156,8.21E-03,1.02E-02
136157,8.19E-03,1.04E-02
136158,8.18E-03,1.06E-02
136159,8.17E-03,1.07E-02
136160,8.16E-03,1.09E-02
136161,8.32E-03,1.10E-02
136162,8.54E-03,1.12E-02
136163,8.51E-03,1.13E-02
136164,8.37E-03,1.15E-02
136165,8.30E-03,1.16E-02
136166,8.25E-03,1.18E-02
136167,8.22E-03,1.19E-02
136168,8.19E-03,1.20E-02
136169,8.18E-03,1.21E-02
136170,8.16E-03,1.22E-02
136171,8.15E-03,1.23E-02
136172,8.15E-03,1.24E-02
136173,8.14E-03,1.25E-02
136174,8.13E-03,1.26E-02
136175,8.13E-03,1.27E-02
136176,8.12E-03,1.28E-02
136177,8.12E-03,1.29E-02
136178,8.12E-03,1.30E-02
136179,8.11E-03,1.31E-02
136180,8.11E-03,1.32E-02
136181,8.11E-03,1.33E-02
136182,8.11E-03,1.33E-02
136183,8.11E-03,1.34E-02
136184,8.10E-03,1.35E-02
136185,8.10E-03,1.36E-02
136186,8.10E-03,1.37E-02
136187,8.10E-03,1.37E-02
136188,8.10E-03,1.38E-02
136189,8.10E-03,1.39E-02
136190,8.10E-03,1.40E-02
136191,8.10E-03,1.41E-02
136192,8.10E-03,1.41E-02
136193,8.10E-03,1.42E-02
136194,8.10E-03,1.43E-02
136195,8.10E-03,1.44E-02
136196,8.09E-03,1.44E-02
136197,8.09E-03,1.45E-02
136198,8.09E-03,1.46E-02
136199,8.09E-03,1.47E-02
136200,8.09E-03,1.47E-02
136201,8.09E-03,1.48E-02
136202,8.09E-03,1.49E-02
136203,8.09E-03,1.50E-02
136204,8.09E-03,1.50E-02
136205,8.09E-03,1.51E-02
136206,8.09E-03,1.52E-02
136207,8.09E-03,1.53E-02
136208,8.09E-03,1.53E-02
136209,8.09E-03,1.54E-02
136210,8.09E-03,1.55E-02
136211,8.09E-03,1.56E-02
136212,8.09E-03,1.56E-02
136213,8.09E-03,1.57E-02
136214,8.09E-03,1.58E-02
136215,8.09E-03,1.58E-02
136216,8.09E-03,1.59E-02
136217,8.09E-03,1.60E-02
136218,8.09E-03,1.60E-02
136219,8.09E-03,1.61E-02
136220,8.09E-03,1.62E-02
136221,8.09E-03,1.63E-02
136222,8.09E-03,1.63E-02
136223,8.09E-03,1.64E-02
136224,8.09E-03,1.65E-02
136225,8.09E-03,1.65E-02
136226,8.09E-03,1.66E-02
136227,8.09E-03,1.67E-02
136228,8.09E-03,1.67E-02
136229,8.09E-03,1.68E-02
136230,8.09E-03,1.69E-02
136231,8.09E-03,1.70E-02
136232,8.09E-03,1.70E-02
136233,8.09E-03,1.71E-02
136234,8.09E-03,1.72E-02
136235,8.09E-03,1.72E-02
136236,8.09E-03,1.73E-02
136237,8.09E-03,1.74E-02
136238,8.09E-03,1.75E-02
136239,8.09E-03,1.75E-02
136240,8.09E-03,1.76E-02
136241,8.09E-03,1.77E-02
136242,8.09E-03,1.77E-02
136243,8.09E-03,1.78E-02
136244,8.09E-03,1.79E-02
136245,8.09E-03,1.79E-02
136246,8.09E-03,1.80E-02
136247,8.09E-03,1.81E-02
136248,8.10E-03,1.82E-02
136249,8.10E-03,1.82E-02
136250,8.10E-03,1.83E-02
136251,8.10E-03,1.84E-02
136252,8.10E-03,1.84E-02
136253,8.10E-03,1.85E-02
136254,8.10E-03,1.86E-02
136255,8.10E-03,1.87E-02
136256,8.11E-03,1.87E-02
136257,8.11E-03,1.88E-02
136258,8.11E-03,1.89E-02
136259,8.11E-03,1.89E-02
136260,8.12E-03,1.90E-02
136261,8.12E-03,1.91E-02
136262,8.13E-03,1.91E-02
136263,8.14E-03,1.92E-02
136264,8.14E-03,1.92E-02
136265,8.15E-03,1.93E-02
136266,8.16E-03,1.93E-02
136267,8.18E-03,1.94E-02
136268,8.20E-03,1.94E-02
136269,8.23E-03,1.94E-02
136270,8.28E-03,1.95E-02
136271,8.37E-03,1.95E-02
136272,8.34E-03,1.95E-02
136273,8.04E-03,1.96E-02
136274,7.85E-03,1.96E-02
136275,7.90E-03,1.96E-02
136276,7.94E-03,1.97E-02
136277,7.97E-03,1.97E-02
136278,7.98E-03,1.97E-02
136279,8.00E-03,1.97E-02
136280,8.01E-03,1.98E-02
136281,8.02E-03,1.98E-02
136282,8.03E-03,1.99E-02
136283,8.03E-03,1.99E-02
136284,8.04E-03,2.00E-02
136285,8.04E-03,2.00E-02
136286,8.04E-03,2.01E-02
136287,8.05E-03,2.01E-02
136288,8.05E-03,2.02E-02
136289,8.05E-03,2.03E-02
136290,8.05E-03,2.03E-02
136291,8.06E-03,2.04E-02
136292,8.06E-03,2.05E-02
136293,8.06E-03,2.05E-02
136294,8.06E-03,2.06E-02
136295,8.06E-03,2.07E-02
136296,8.06E-03,2.08E-02
136297,8.06E-03,2.09E-02
136298,8.06E-03,2.09E-02
136299,8.06E-03,2.10E-02
136300,8.06E-03,2.11E-02
136301,8.06E-03,2.12E-02
136302,8.07E-03,2.13E-02
136303,8.07E-03,2.14E-02
136304,8.07E-03,2.15E-02
136305,8.07E-03,2.16E-02
136306,8.07E-03,2.17E-02
136307,8.07E-03,2.18E-02
136308,8.08E-03,2.19E-02
136309,8.08E-03,2.20E-02
136310,8.08E-03,2.21E-02
136311,8.09E-03,2.22E-02
136312,8.10E-03,2.23E-02
136313,8.10E-03,2.24E-02
136314,8.10E-03,2.25E-02
136315,8.10E-03,2.26E-02
136316,8.10E-03,2.27E-02
136317,8.10E-03,2.29E-02
136318,8.10E-03,2.30E-02
136319,8.11E-03,2.31E-02
136320,8.11E-03,2.32E-02
136321,8.11E-03,2.33E-02
136322,8.11E-03,2.35E-02
136323,8.12E-03,2.36E-02
136324,8.12E-03,2.37E-02
136325,8.12E-03,2.38E-02
136326,8.13E-03,2.39E-02
136327,8.13E-03,2.41E-02
136328,8.14E-03,2.42E-02
136329,8.15E-03,2.43E-02
136330,8.16E-03,2.44E-02
136331,8.18E-03,2.45E-02
136332,8.20E-03,2.45E-02
136333,8.33E-03,2.46E-02
136334,8.40E-03,2.46E-02
136335,8.48E-03,2.45E-02
136336,8.74E-03,2.44E-02
136337,8.82E-03,2.43E-02
136338,9.63E-03,2.42E-02
136339,9.32E-03,2.43E-02
136340,8.18E-03,2.44E-02
136341,7.55E-03,2.45E-02
136342,7.28E-03,2.45E-02
136343,7.33E-03,2.44E-02
136344,7.36E-03,2.43E-02
136345,7.49E-03,2.42E-02
136346,7.71E-03,2.40E-02
136347,7.86E-03,2.39E-02
136348,8.05E-03,2.39E-02
136349,8.17E-03,2.38E-02
136350,8.21E-03,2.37E-02
136351,8.23E-03,2.37E-02
136352,8.25E-03,2.36E-02
136353,8.27E-03,2.36E-02
136354,8.30E-03,2.35E-02
136355,8.32E-03,2.35E-02
136356,8.39E-03,2.35E-02
136357,8.64E-03,2.35E-02
136358,8.23E-03,2.35E-02
136359,7.29E-03,2.35E-02
136360,7.09E-03,2.35E-02
136361,7.44E-03,2.35E-02
136362,7.69E-03,2.35E-02
136363,7.81E-03,2.35E-02
136364,7.88E-03,2.35E-02
136365,7.92E-03,2.35E-02
136366,7.95E-03,2.36E-02
136367,7.97E-03,2.36E-02
136368,7.99E-03,2.37E-02
136369,8.00E-03,2.38E-02
136370,8.01E-03,2.39E-02
136371,8.02E-03,2.40E-02
136372,8.03E-03,2.41E-02
136373,8.03E-03,2.42E-02
136374,8.04E-03,2.43E-02
136375,8.04E-03,2.44E-02
136376,8.04E-03,2.46E-02
136377,8.04E-03,2.47E-02
136378,8.04E-03,2.48E-02
136379,8.05E-03,2.49E-02
136380,8.06E-03,2.51E-02
136381,8.07E-03,2.52E-02
136382,8.07E-03,2.53E-02
136383,8.07E-03,2.55E-02
136384,8.07E-03,2.56E-02
136385,8.08E-03,2.57E-02
136386,8.09E-03,2.59E-02
136387,8.10E-03,2.60E-02
136388,8.10E-03,2.61E-02
136389,8.10E-03,2.63E-02
136390,8.10E-03,2.64E-02
136391,8.10E-03,2.65E-02
136392,8.10E-03,2.67E-02
136393,8.10E-03,2.68E-02
136394,8.10E-03,2.69E-02
136395,8.10E-03,2.71E-02
136396,8.11E-03,2.72E-02
136397,8.11E-03,2.73E-02
136398,8.11E-03,2.75E-02
136399,8.11E-03,2.76E-02
136400,8.11E-03,2.78E-02
136401,8.11E-03,2.79E-02
136402,8.11E-03,2.80E-02
136403,8.12E-03,2.82E-02
136404,8.12E-03,2.83E-02
136405,8.12E-03,2.84E-02
136406,8.12E-03,2.86E-02
136407,8.13E-03,2.87E-02
136408,8.13E-03,2.89E-02
136409,8.14E-03,2.90E-02
136410,8.14E-03,2.92E-02
136411,8.15E-03,2.93E-02
136412,8.15E-03,2.94E-02
136413,8.16E-03,2.96E-02
136414,8.17E-03,2.97E-02
136415,8.17E-03,2.99E-02
136416,8.17E-03,3.00E-02
136417,8.18E-03,3.01E-02
136418,8.18E-03,3.03E-02
136419,8.18E-03,3.04E-02
136420,8.20E-03,3.05E-02
136421,8.22E-03,3.06E-02
136422,8.24E-03,3.07E-02
136423,8.27E-03,3.07E-02
136424,8.31E-03,3.08E-02
136425,8.36E-03,3.08E-02
136426,8.44E-03,3.08E-02
136427,8.57E-03,3.07E-02
136428,8.68E-03,3.07E-02
136429,8.67E-03,3.06E-02
136430,8.60E-03,3.05E-02
136431,8.53E-03,3.04E-02
136432,8.48E-03,3.03E-02
136433,8.54E-03,3.01E-02
136434,8.64E-03,2.99E-02
136435,8.48E-03,2.97E-02
136436,8.25E-03,2.95E-02
136437,8.18E-03,2.93E-02
136438,8.12E-03,2.91E-02
136439,8.05E-03,2.88E-02
136440,8.01E-03,2.86E-02
136441,7.92E-03,2.84E-02
136442,7.57E-03,2.82E-02
136443,7.45E-03,2.80E-02
136444,7.65E-03,2.78E-02
136445,7.75E-03,2.76E-02
136446,7.75E-03,2.75E-02
136447,7.58E-03,2.74E-02
136448,7.35E-03,2.74E-02
136449,7.35E-03,2.73E-02
136450,7.57E-03,2.73E-02
136451,7.71E-03,2.73E-02
136452,7.80E-03,2.73E-02
136453,7.88E-03,2.74E-02
136454,7.93E-03,2.75E-02
136455,7.93E-03,2.76E-02
136456,7.93E-03,2.77E-02
136457,7.94E-03,2.78E-02
136458,7.94E-03,2.80E-02
136459,7.94E-03,2.81E-02
136460,7.98E-03,2.83E-02
136461,8.06E-03,2.85E-02
136462,8.09E-03,2.87E-02
136463,8.09E-03,2.88E-02
136464,8.09E-03,2.90E-02
136465,8.09E-03,2.92E-02
136466,8.10E-03,2.94E-02
136467,8.12E-03,2.95E-02
136468,8.13E-03,2.97E-02
136469,8.13E-03,2.99E-02
136470,8.13E-03,3.01E-02
136471,8.13E-03,3.02E-02
136472,8.14E-03,3.04E-02
136473,8.14E-03,3.06E-02
136474,8.15E-03,3.07E-02
136475,8.15E-03,3.09E-02
136476,8.16E-03,3.10E-02
136477,8.16E-03,3.12E-02
136478,8.17E-03,3.13E-02
136479,8.17E-03,3.14E-02
136480,8.18E-03,3.15E-02
136481,8.19E-03,3.16E-02
136482,8.20E-03,3.17E-02
136483,8.22E-03,3.18E-02
136484,8.23E-03,3.19E-02
136485,8.24E-03,3.19E-02
136486,8.25E-03,3.19E-02
136487,8.27E-03,3.19E-02
136488,8.29E-03,3.19E-02
136489,8.32E-03,3.19E-02
136490,8.35E-03,3.18E-02
136491,8.38E-03,3.18E-02
136492,8.43E-03,3.16E-02
136493,8.48E-03,3.15E-02
136494,8.49E-03,3.13E-02
136495,8.46E-03,3.12E-02
136496,8.44E-03,3.10E-02
136497,8.49E-03,3.08E-02
136498,8.63E-03,3.06E-02
136499,8.60E-03,3.04E-02
136500,7.88E-03,3.02E-02
136501,7.34E-03,3.01E-02
136502,7.44E-03,2.99E-02
136503,7.58E-03,2.97E-02
136504,7.67E-03,2.96E-02
136505,7.69E-03,2.94E-02
136506,7.68E-03,2.93E-02
136507,6.93E-03,2.93E-02
136508,6.75E-03,2.93E-02
136509,7.10E-03,2.93E-02
136510,7.47E-03,2.93E-02
136511,7.81E-03,2.93E-02
136512,7.88E-03,2.94E-02
136513,7.93E-03,2.96E-02
136514,7.96E-03,2.97E-02
136515,7.98E-03,2.99E-02
136516,8.00E-03,3.01E-02
136517,8.01E-03,3.04E-02
136518,8.02E-03,3.06E-02
136519,8.03E-03,3.08E-02
136520,8.03E-03,3.11E-02
136521,8.04E-03,3.13E-02
136522,8.04E-03,3.16E-02
136523,8.05E-03,3.18E-02
136524,8.05E-03,3.20E-02
136525,8.05E-03,3.23E-02
136526,8.05E-03,3.25E-02
136527,8.06E-03,3.28E-02
136528,8.06E-03,3.30E-02
136529,8.06E-03,3.33E-02
136530,8.06E-03,3.35E-02
136531,8.06E-03,3.38E-02
136532,8.06E-03,3.40E-02
136533,8.07E-03,3.42E-02
136534,8.07E-03,3.45E-02
136535,8.07E-03,3.47E-02
136536,8.07E-03,3.50E-02
136537,8.07E-03,3.52E-02
136538,8.07E-03,3.55E-02
136539,8.07E-03,3.57E-02
136540,8.07E-03,3.59E-02
136541,8.07E-03,3.62E-02
136542,8.07E-03,3.64E-02
136543,8.07E-03,3.67E-02
136544,8.07E-03,3.69E-02
136545,8.07E-03,3.71E-02
136546,8.07E-03,3.74E-02
136547,8.07E-03,3.76E-02
136548,8.07E-03,3.79E-02
136549,8.07E-03,3.81E-02
136550,8.07E-03,3.84E-02
136551,8.07E-03,3.86E-02
136552,8.07E-03,3.89E-02
136553,8.07E-03,3.91E-02
136554,8.07E-03,3.94E-02
136555,8.07E-03,3.96E-02
136556,8.07E-03,3.99E-02
136557,8.07E-03,4.01E-02
136558,8.07E-03,4.04E-02
136559,8.07E-03,4.06E-02
136560,8.07E-03,4.09E-02
136561,8.07E-03,4.12E-02
136562,8.07E-03,4.14E-02
136563,8.07E-03,4.17E-02
136564,8.07E-03,4.19E-02
136565,8.07E-03,4.22E-02
136566,8.08E-03,4.25E-02
136567,8.08E-03,4.27E-02
136568,8.07E-03,4.30E-02
136569,8.03E-03,4.33E-02
136570,8.02E-03,4.36E-02
136571,7.97E-03,4.39E-02
136572,7.87E-03,4.42E-02
136573,7.58E-03,4.45E-02
136574,7.44E-03,4.47E-02
136575,8.19E-03,2.28E-02
136576,6.85E-03,2.31E-02
136577,4.34E-03,2.33E-02
136578,4.62E-03,2.32E-02
136579,6.75E-03,2.30E-02
136580,7.85E-03,2.28E-02
136581,5.79E-03,2.22E-02
136582,6.38E-03,2.26E-02
136583,6.09E-03,2.23E-02
136584,8.64E-03,2.23E-02
136585,8.02E-03,2.22E-02
136586,7.91E-03,2.21E-02
136587,7.74E-03,2.21E-02
136588,7.67E-03,2.21E-02
136589,7.56E-03,2.21E-02
136590,7.30E-03,2.21E-02
136591,1.01E-02,2.62E-02
136592,7.72E-03,2.35E-02
136593,6.43E-03,2.19E-02
136594,5.17E-03,2.19E-02
136595,6.15E-03,2.08E-02
136596,5.42E-03,2.08E-02
136597,7.20E-03,1.59E-02
136598,7.25E-03,1.54E-02
136599,7.46E-03,1.48E-02
136600,7.99E-03,1.42E-02
136601,9.51E-03,1.35E-02
136602,9.72E-03,1.32E-02
136603,8.66E-03,1.26E-02
136604,8.39E-03,1.20E-02
136605,8.06E-03,1.14E-02
136606,7.85E-03,1.09E-02
136607,7.78E-03,1.03E-02
136608,7.41E-03,9.81E-03
136609,7.30E-03,9.37E-03
136610,7.23E-03,8.98E-03
136611,7.34E-03,8.62E-03
136612,7.85E-03,8.31E-03
136613,9.24E-03,7.99E-03
136614,9.63E-03,7.80E-03
136615,8.81E-03,7.40E-03
136616,8.55E-03,7.01E-03
136617,8.45E-03,6.62E-03
136618,8.31E-03,6.23E-03
136619,8.14E-03,5.86E-03
136620,8.10E-03,5.50E-03
136621,8.10E-03,5.16E-03
136622,8.01E-03,4.84E-03
136623,7.79E-03,4.54E-03
136624,7.67E-03,4.26E-03
136625,7.45E-03,4.00E-03
136626,7.28E-03,3.79E-03
136627,7.23E-03,3.58E-03
136628,6.53E-03,3.41E-03
136629,6.75E-03,3.29E-03
136630,7.07E-03,3.22E-03
136631,7.34E-03,3.21E-03
136632,7.88E-03,3.21E-03
136633,8.02E-03,3.15E-03
136634,7.89E-03,3.12E-03
136635,7.72E-03,3.06E-03
136636,7.38E-03,2.99E-03
136637,7.00E-03,2.94E-03
136638,9.17E-03,3.16E-03
136639,7.55E-03,2.93E-03
136640,7.22E-03,2.82E-03
136641,7.20E-03,2.73E-03
136642,6.98E-03,2.68E-03
136643,6.93E-03,2.66E-03
136644,7.16E-03,2.64E-03
136645,7.50E-03,2.65E-03
136646,8.07E-03,2.69E-03
136647,7.53E-03,2.57E-03
136648,6.75E-03,2.51E-03
136649,6.94E-03,2.45E-03
136650,7.16E-03,2.41E-03
136651,7.40E-03,2.40E-03
136652,7.45E-03,2.41E-03
136653,7.51E-03,2.41E-03
136654,7.47E-03,2.41E-03
136655,7.43E-03,2.42E-03
136656,7.28E-03,2.46E-03
136657,7.66E-03,2.51E-03
136658,7.75E-03,2.57E-03
136659,8.08E-03,2.63E-03
136660,8.52E-03,2.68E-03
136661,9.33E-03,2.70E-03
136662,9.17E-03,2.71E-03
136663,8.12E-03,2.70E-03
136664,8.10E-03,2.69E-03
136665,8.03E-03,2.67E-03
136666,7.81E-03,2.64E-03
136667,7.88E-03,2.62E-03
136668,7.98E-03,2.61E-03
136669,8.02E-03,2.60E-03
136670,8.09E-03,2.59E-03
136671,8.09E-03,2.58E-03
136672,8.09E-03,2.57E-03
136673,8.10E-03,2.56E-03
136674,8.11E-03,2.55E-03
136675,8.10E-03,2.54E-03
136676,8.22E-03,2.52E-03
136677,8.31E-03,2.50E-03
136678,8.37E-03,2.48E-03
136679,8.46E-03,2.45E-03
136680,8.80E-03,2.41E-03
136681,8.83E-03,2.35E-03
136682,8.65E-03,2.29E-03
136683,8.51E-03,2.21E-03
136684,8.42E-03,2.12E-03
136685,8.38E-03,2.03E-03
136686,8.37E-03,1.94E-03
136687,8.65E-03,1.84E-03
136688,9.49E-03,1.75E-03
136689,9.24E-03,1.68E-03
136690,7.90E-03,1.54E-03
136691,7.65E-03,1.39E-03
136692,7.36E-03,1.27E-03
136693,7.29E-03,1.17E-03
136694,7.50E-03,1.09E-03
136695,7.63E-03,1.02E-03
136696,7.84E-03,9.61E-04
136697,7.86E-03,9.06E-04
136698,8.10E-03,8.53E-04
136699,8.26E-03,7.96E-04
136700,8.18E-03,7.38E-04
136701,8.13E-03,6.73E-04
136702,8.15E-03,6.14E-04
136703,8.86E-03,5.57E-04
136704,9.51E-03,5.14E-04
136705,8.54E-03,4.27E-04
136706,7.72E-03,3.53E-04
136707,7.50E-03,3.03E-04
136708,7.20E-03,2.72E-04
136709,7.13E-03,2.68E-04
136710,6.94E-03,2.75E-04
136711,7.16E-03,2.72E-04
136712,7.46E-03,2.57E-04
136713,8.28E-03,2.52E-04
136714,8.22E-03,2.63E-04
136715,8.35E-03,2.94E-04
136716,6.96E-03,3.18E-04
136717,7.09E-03,3.32E-04
136718,7.62E-03,3.41E-04
136719,8.03E-03,3.46E-04
136720,8.17E-03,3.55E-04
136721,8.31E-03,3.64E-04
136722,8.42E-03,3.72E-04
136723,8.61E-03,3.85E-04
136724,8.79E-03,4.00E-04
136725,8.90E-03,4.25E-04
136726,8.49E-03,4.66E-04
136727,8.08E-03,5.11E-04
136728,8.02E-03,5.60E-04
136729,7.18E-03,5.98E-04
136730,7.14E-03,6.23E-04
136731,7.24E-03,6.32E-04
136732,7.37E-03,6.25E-04
136733,7.96E-03,6.07E-04
136734,8.18E-03,5.95E-04
136735,8.70E-03,5.89E-04
136736,8.87E-03,5.98E-04
136737,8.11E-03,6.24E-04
136738,8.11E-03,6.49E-04
136739,8.05E-03,6.67E-04
136740,8.00E-03,6.72E-04
136741,7.98E-03,6.69E-04
136742,8.68E-03,6.74E-04
136743,8.69E-03,6.86E-04
136744,8.21E-03,7.07E-04
136745,7.48E-03,7.33E-04
136746,7.08E-03,7.50E-04
136747,7.11E-03,7.61E-04
136748,7.18E-03,7.60E-04
136749,7.34E-03,7.55E-04
136750,7.49E-03,7.45E-04
136751,7.60E-03,7.34E-04
136752,7.73E-03,7.21E-04
136753,7.85E-03,7.09E-04
136754,7.92E-03,6.97E-04
136755,7.95E-03,6.85E-04
136756,7.97E-03,6.74E-04
136757,7.99E-03,6.62E-04
136758,7.99E-03,6.51E-04
136759,7.96E-03,6.40E-04
136760,7.94E-03,6.28E-04
136761,7.91E-03,6.15E-04
136762,7.88E-03,6.00E-04
136763,7.89E-03,5.84E-04
136764,7.93E-03,5.67E-04
136765,7.95E-03,5.48E-04
136766,7.97E-03,5.28E-04
136767,7.98E-03,5.07E-04
136768,7.98E-03,4.86E-04
136769,7.96E-03,4.65E-04
136770,7.94E-03,4.43E-04
136771,7.94E-03,4.20E-04
136772,7.96E-03,3.97E-04
136773,7.98E-03,3.74E-04
136774,7.99E-03,3.52E-04
136775,8.01E-03,3.31E-04
136776,8.01E-03,3.12E-04
136777,8.02E-03,2.97E-04
136778,8.03E-03,2.85E-04
136779,8.03E-03,2.79E-04
136780,8.04E-03,2.80E-04
136781,8.04E-03,2.87E-04
136782,8.05E-03,3.02E-04
136783,8.05E-03,3.24E-04
136784,8.05E-03,3.52E-04
136785,8.08E-03,3.85E-04
136786,8.11E-03,4.23E-04
136787,8.12E-03,4.65E-04
136788,8.13E-03,5.11E-04
136789,8.13E-03,5.59E-04
136790,8.14E-03,6.09E-04
136791,8.15E-03,6.61E-04
136792,8.16E-03,7.16E-04
136793,8.18E-03,7.71E-04
136794,8.21E-03,8.28E-04
136795,8.23E-03,8.86E-04
136796,8.23E-03,9.44E-04
136797,8.25E-03,1.00E-03
136798,8.28E-03,1.06E-03
136799,8.32E-03,1.12E-03
136800,8.39E-03,1.17E-03
136801,8.45E-03,1.23E-03
136802,8.43E-03,1.28E-03
136803,8.35E-03,1.33E-03
136804,8.29E-03,1.37E-03
136805,8.25E-03,1.42E-03
136806,8.25E-03,1.46E-03
136807,8.29E-03,1.50E-03
136808,8.35E-03,1.54E-03
136809,8.40E-03,1.57E-03
136810,8.27E-03,1.61E-03
136811,8.12E-03,1.64E-03
136812,8.10E-03,1.67E-03
136813,8.10E-03,1.69E-03
136814,8.09E-03,1.72E-03
136815,8.10E-03,1.75E-03
136816,8.15E-03,1.78E-03
136817,8.21E-03,1.80E-03
136818,8.26E-03,1.83E-03
136819,8.29E-03,1.85E-03
136820,8.32E-03,1.87E-03
136821,8.35E-03,1.89E-03
136822,8.29E-03,1.90E-03
136823,8.04E-03,1.91E-03
136824,7.87E-03,1.93E-03
136825,7.88E-03,1.94E-03
136826,7.89E-03,1.96E-03
136827,7.90E-03,1.97E-03
136828,7.86E-03,1.99E-03
136829,7.75E-03,2.02E-03
136830,7.74E-03,2.04E-03
136831,7.80E-03,2.08E-03
136832,7.85E-03,2.11E-03
136833,7.88E-03,2.15E-03
136834,7.91E-03,2.19E-03
136835,7.93E-03,2.23E-03
136836,7.97E-03,2.28E-03
136837,8.08E-03,2.33E-03
136838,8.23E-03,2.37E-03
136839,8.32E-03,2.42E-03
136840,8.36E-03,2.46E-03
136841,8.42E-03,2.50E-03
136842,8.51E-03,2.53E-03
136843,8.65E-03,2.56E-03
136844,8.82E-03,2.58E-03
136845,8.42E-03,2.60E-03
136846,7.79E-03,2.61E-03
136847,7.68E-03,2.62E-03
136848,7.75E-03,2.64E-03
136849,7.79E-03,2.66E-03
136850,7.83E-03,2.68E-03
136851,7.80E-03,2.70E-03
136852,7.66E-03,2.74E-03
136853,7.62E-03,2.77E-03
136854,7.75E-03,2.81E-03
136855,7.84E-03,2.86E-03
136856,7.90E-03,2.92E-03
136857,7.94E-03,2.98E-03
136858,7.96E-03,3.04E-03
136859,7.99E-03,3.11E-03
136860,8.00E-03,3.18E-03
136861,8.01E-03,3.25E-03
136862,8.02E-03,3.33E-03
136863,8.03E-03,3.41E-03
136864,8.05E-03,3.49E-03
136865,8.11E-03,3.58E-03
136866,8.18E-03,3.66E-03
136867,8.21E-03,3.75E-03
136868,8.23E-03,3.84E-03
136869,8.25E-03,3.92E-03
136870,8.28E-03,4.00E-03
136871,8.38E-03,4.08E-03
136872,8.43E-03,4.15E-03
136873,8.57E-03,4.21E-03
136874,8.66E-03,4.26E-03
136875,8.89E-03,4.30E-03
136876,9.09E-03,4.33E-03
136877,8.83E-03,4.35E-03
136878,8.76E-03,4.36E-03
136879,8.68E-03,4.36E-03
136880,8.36E-03,4.36E-03
136881,7.68E-03,4.35E-03
136882,6.91E-03,4.35E-03
136883,7.09E-03,4.35E-03
136884,7.39E-03,4.36E-03
136885,7.61E-03,4.38E-03
136886,7.82E-03,4.40E-03
136887,7.93E-03,4.44E-03
136888,8.17E-03,4.47E-03
136889,8.39E-03,4.51E-03
136890,8.49E-03,4.54E-03
136891,8.59E-03,4.57E-03
136892,8.68E-03,4.59E-03
136893,8.74E-03,4.61E-03
136894,8.59E-03,4.63E-03
136895,7.91E-03,4.65E-03
136896,7.43E-03,4.66E-03
136897,7.36E-03,4.67E-03
136898,7.64E-03,4.69E-03
136899,7.87E-03,4.70E-03
136900,7.98E-03,4.72E-03
136901,8.12E-03,4.75E-03
136902,8.25E-03,4.77E-03
136903,8.38E-03,4.80E-03
136904,8.49E-03,4.82E-03
136905,8.52E-03,4.85E-03
136906,8.37E-03,4.87E-03
136907,8.08E-03,4.89E-03
136908,7.76E-03,4.92E-03
136909,7.69E-03,4.94E-03
136910,7.72E-03,4.96E-03
136911,7.79E-03,4.99E-03
136912,7.95E-03,5.01E-03
136913,8.03E-03,5.04E-03
136914,8.15E-03,5.07E-03
136915,8.30E-03,5.10E-03
136916,8.37E-03,5.12E-03
136917,8.45E-03,5.14E-03
136918,8.53E-03,5.16E-03
136919,8.46E-03,5.17E-03
136920,8.25E-03,5.19E-03
136921,7.97E-03,5.20E-03
136922,7.84E-03,5.20E-03
136923,7.89E-03,5.21E-03
136924,7.93E-03,5.21E-03
136925,7.95E-03,5.22E-03
136926,7.99E-03,5.22E-03
136927,8.05E-03,5.23E-03
136928,8.09E-03,5.24E-03
136929,8.09E-03,5.25E-03
136930,8.09E-03,5.27E-03
136931,8.08E-03,5.29E-03
136932,8.01E-03,5.32E-03
136933,7.71E-03,5.35E-03
136934,7.46E-03,5.38E-03
136935,7.67E-03,5.42E-03
136936,7.78E-03,5.47E-03
136937,7.84E-03,5.53E-03
136938,7.91E-03,5.60E-03
136939,7.94E-03,5.67E-03
136940,7.88E-03,5.75E-03
136941,7.89E-03,5.84E-03
136942,8.07E-03,5.93E-03
136943,8.18E-03,6.02E-03
136944,8.19E-03,6.11E-03
136945,8.24E-03,6.20E-03
136946,8.41E-03,6.28E-03
136947,8.44E-03,6.34E-03
136948,8.73E-03,6.39E-03
136949,8.74E-03,6.42E-03
136950,8.92E-03,6.42E-03
136951,9.29E-03,6.39E-03
136952,9.28E-03,6.34E-03
136953,8.97E-03,6.30E-03
136954,8.90E-03,6.24E-03
136955,8.73E-03,6.17E-03
136956,7.87E-03,6.08E-03
136957,7.28E-03,5.99E-03
136958,6.97E-03,5.89E-03
136959,7.67E-03,5.77E-03
136960,7.87E-03,5.65E-03
136961,8.22E-03,5.54E-03
136962,8.43E-03,5.43E-03
136963,8.39E-03,5.34E-03
136964,7.70E-03,5.28E-03
136965,7.36E-03,5.21E-03
136966,7.38E-03,5.15E-03
136967,7.31E-03,5.08E-03
136968,7.56E-03,5.03E-03
136969,7.71E-03,4.98E-03
136970,7.85E-03,4.94E-03
136971,8.18E-03,4.89E-03
136972,7.96E-03,4.86E-03
136973,7.64E-03,4.83E-03
136974,7.39E-03,4.82E-03
136975,7.21E-03,4.80E-03
136976,7.13E-03,4.80E-03
136977,7.26E-03,4.81E-03
136978,7.41E-03,4.84E-03
136979,7.52E-03,4.89E-03
136980,7.63E-03,4.96E-03
136981,7.76E-03,5.03E-03
136982,7.95E-03,5.11E-03
136983,8.01E-03,5.20E-03
136984,8.02E-03,5.29E-03
136985,8.04E-03,5.37E-03
136986,8.04E-03,5.46E-03
136987,8.05E-03,5.55E-03
136988,8.06E-03,5.64E-03
136989,8.07E-03,5.73E-03
136990,8.07E-03,5.81E-03
136991,8.07E-03,5.90E-03
136992,8.07E-03,5.98E-03
136993,8.07E-03,6.06E-03
136994,8.07E-03,6.14E-03
136995,8.07E-03,6.22E-03
136996,8.08E-03,6.30E-03
136997,8.08E-03,6.37E-03
136998,8.08E-03,6.45E-03
136999,8.08E-03,6.52E-03
137000,8.08E-03,6.59E-03
137001,8.08E-03,6.66E-03
137002,8.08E-03,6.72E-03
137003,8.08E-03,6.79E-03
137004,8.08E-03,6.85E-03
137005,8.08E-03,6.91E-03
137006,8.08E-03,6.97E-03
137007,8.08E-03,7.02E-03
137008,8.08E-03,7.07E-03
137009,8.08E-03,7.12E-03
137010,8.08E-03,7.17E-03
137011,8.07E-03,7.21E-03
137012,8.07E-03,7.26E-03
137013,8.07E-03,7.30E-03
137014,8.06E-03,7.33E-03
137015,8.06E-03,7.37E-03
137016,8.05E-03,7.40E-03
137017,8.05E-03,7.43E-03
137018,8.04E-03,7.45E-03
137019,8.03E-03,7.48E-03
137020,8.02E-03,7.51E-03
137021,7.93E-03,7.53E-03
137022,7.81E-03,7.57E-03
137023,7.71E-03,7.61E-03
137024,7.66E-03,7.66E-03
137025,7.63E-03,7.74E-03
137026,7.35E-03,7.84E-03
137027,7.17E-03,7.96E-03
137028,7.09E-03,8.10E-03
137029,7.27E-03,8.27E-03
137030,7.35E-03,8.47E-03
137031,7.60E-03,8.69E-03
137032,7.86E-03,8.93E-03
137033,8.03E-03,9.17E-03
137034,8.59E-03,9.41E-03
137035,8.73E-03,9.67E-03
137036,8.59E-03,9.93E-03
137037,8.50E-03,1.02E-02
137038,8.43E-03,1.04E-02
137039,8.38E-03,1.06E-02
137040,8.34E-03,1.08E-02
137041,8.32E-03,1.10E-02
137042,8.30E-03,1.12E-02
137043,8.26E-03,1.13E-02
137044,8.23E-03,1.15E-02
137045,8.20E-03,1.16E-02
137046,8.19E-03,1.17E-02
137047,8.17E-03,1.18E-02
137048,8.16E-03,1.20E-02
137049,8.15E-03,1.21E-02
137050,8.14E-03,1.22E-02
137051,8.15E-03,1.23E-02
137052,8.17E-03,1.23E-02
137053,8.19E-03,1.24E-02
137054,8.13E-03,1.25E-02
137055,8.07E-03,1.26E-02
137056,8.07E-03,1.27E-02
137057,8.07E-03,1.28E-02
137058,8.07E-03,1.28E-02
137059,8.07E-03,1.29E-02
137060,8.06E-03,1.30E-02
137061,8.05E-03,1.30E-02
137062,8.04E-03,1.31E-02
137063,8.03E-03,1.32E-02
137064,8.00E-03,1.33E-02
137065,7.96E-03,1.34E-02
137066,7.89E-03,1.35E-02
137067,7.77E-03,1.36E-02
137068,7.65E-03,1.38E-02
137069,7.49E-03,1.40E-02
137070,7.23E-03,1.42E-02
137071,6.91E-03,1.44E-02
137072,7.67E-03,1.47E-02
137073,8.02E-03,1.49E-02
137074,8.53E-03,1.52E-02
137075,8.56E-03,1.55E-02
137076,8.57E-03,1.57E-02
137077,8.66E-03,1.60E-02
137078,8.69E-03,1.62E-02
137079,8.57E-03,1.65E-02
137080,8.47E-03,1.67E-02
137081,8.40E-03,1.68E-02
137082,8.36E-03,1.70E-02
137083,8.30E-03,1.71E-02
137084,8.22E-03,1.72E-02
137085,8.17E-03,1.73E-02
137086,8.16E-03,1.73E-02
137087,8.16E-03,1.73E-02
137088,8.15E-03,1.74E-02
137089,8.15E-03,1.74E-02
137090,8.15E-03,1.74E-02
137091,8.05E-03,1.74E-02
137092,7.95E-03,1.74E-02
137093,7.77E-03,1.74E-02
137094,7.62E-03,1.74E-02
137095,7.52E-03,1.74E-02
137096,7.37E-03,1.75E-02
137097,7.30E-03,1.77E-02
137098,7.15E-03,1.80E-02
137099,7.00E-03,1.83E-02
137100,6.95E-03,1.87E-02
137101,7.52E-03,1.92E-02
137102,7.79E-03,1.96E-02
137103,8.05E-03,2.01E-02
137104,8.53E-03,2.05E-02
137105,8.92E-03,2.10E-02
137106,8.97E-03,2.15E-02
137107,8.86E-03,2.20E-02
137108,8.63E-03,2.25E-02
137109,8.48E-03,2.29E-02
137110,8.40E-03,2.33E-02
137111,8.29E-03,2.36E-02
137112,8.28E-03,2.39E-02
137113,8.27E-03,2.41E-02
137114,8.25E-03,2.43E-02
137115,8.24E-03,2.45E-02
137116,8.24E-03,2.47E-02
137117,8.22E-03,2.49E-02
137118,8.21E-03,2.50E-02
137119,8.21E-03,2.51E-02
137120,8.28E-03,2.52E-02
137121,8.41E-03,2.53E-02
137122,8.43E-03,2.54E-02
137123,8.37E-03,2.54E-02
137124,8.32E-03,2.54E-02
137125,8.29E-03,2.55E-02
137126,8.26E-03,2.54E-02
137127,8.24E-03,2.54E-02
137128,8.22E-03,2.53E-02
137129,8.21E-03,2.53E-02
137130,8.18E-03,2.52E-02
137131,8.11E-03,2.51E-02
137132,8.06E-03,2.50E-02
137133,8.04E-03,2.49E-02
137134,8.02E-03,2.48E-02
137135,7.97E-03,2.48E-02
137136,7.90E-03,2.47E-02
137137,7.89E-03,2.47E-02
137138,7.87E-03,2.46E-02
137139,7.74E-03,2.46E-02
137140,7.43E-03,2.47E-02
137141,7.50E-03,2.47E-02
137142,7.98E-03,2.47E-02
137143,8.17E-03,2.47E-02
137144,8.18E-03,2.48E-02
137145,8.21E-03,2.49E-02
137146,8.22E-03,2.49E-02
137147,8.20E-03,2.50E-02
137148,8.08E-03,2.51E-02
137149,8.03E-03,2.53E-02
137150,7.92E-03,2.54E-02
137151,7.70E-03,2.56E-02
137152,7.50E-03,2.57E-02
137153,7.37E-03,2.59E-02
137154,7.12E-03,2.61E-02
137155,7.65E-03,2.61E-02
137156,8.82E-03,2.62E-02
137157,8.86E-03,2.63E-02
137158,8.74E-03,2.65E-02
137159,8.50E-03,2.66E-02
137160,8.42E-03,2.68E-02
137161,8.34E-03,2.69E-02
137162,7.98E-03,2.70E-02
137163,7.93E-03,2.70E-02
137164,7.87E-03,2.71E-02
137165,7.76E-03,2.71E-02
137166,7.69E-03,2.72E-02
137167,7.63E-03,2.73E-02
137168,7.65E-03,2.75E-02
137169,7.71E-03,2.77E-02
137170,7.86E-03,2.79E-02
137171,8.00E-03,2.81E-02
137172,8.00E-03,2.83E-02
137173,8.09E-03,2.85E-02
137174,8.13E-03,2.87E-02
137175,8.05E-03,2.89E-02
137176,8.05E-03,2.90E-02
137177,8.11E-03,2.91E-02
137178,8.29E-03,2.92E-02
137179,8.42E-03,2.92E-02
137180,8.51E-03,2.92E-02
137181,8.41E-03,2.91E-02
137182,8.21E-03,2.89E-02
137183,7.97E-03,2.87E-02
137184,7.92E-03,2.85E-02
137185,7.99E-03,2.82E-02
137186,7.98E-03,2.80E-02
137187,8.03E-03,2.77E-02
137188,8.02E-03,2.75E-02
137189,8.03E-03,2.73E-02
137190,8.01E-03,2.71E-02
137191,7.91E-03,2.68E-02
137192,7.79E-03,2.66E-02
137193,7.96E-03,2.64E-02
137194,8.03E-03,2.62E-02
137195,8.16E-03,2.60E-02
137196,8.24E-03,2.59E-02
137197,8.25E-03,2.58E-02
137198,8.17E-03,2.57E-02
137199,7.99E-03,2.57E-02
137200,7.39E-03,2.56E-02
137201,5.08E-03,2.67E-02
137202,6.15E-03,2.70E-02
137203,1.04E-02,2.32E-02
137204,8.46E-03,2.41E-02
137205,8.42E-03,2.41E-02
137206,8.14E-03,2.37E-02
137207,8.04E-03,2.33E-02
137208,7.94E-03,2.28E-02
137209,7.87E-03,2.24E-02
137210,7.79E-03,2.19E-02
137211,7.72E-03,2.16E-02
137212,7.52E-03,2.13E-02
137213,7.45E-03,2.11E-02
137214,7.47E-03,2.09E-02
137215,7.14E-03,2.08E-02
137216,7.26E-03,2.07E-02
137217,7.37E-03,2.06E-02
137218,8.14E-03,2.05E-02
137219,8.46E-03,2.04E-02
137220,8.96E-03,2.03E-02
137221,8.48E-03,2.04E-02
137222,7.86E-03,2.05E-02
137223,7.36E-03,2.07E-02
137224,6.93E-03,2.08E-02
137225,5.57E-03,2.07E-02
137226,1.03E-02,2.03E-02
137227,8.46E-03,2.04E-02
137228,8.37E-03,2.06E-02
137229,7.93E-03,2.07E-02
137230,7.61E-03,2.07E-02
137231,7.35E-03,2.06E-02
137232,7.24E-03,2.05E-02
137233,7.14E-03,2.05E-02
137234,6.67E-03,2.06E-02
137235,6.77E-03,2.07E-02
137236,5.53E-03,2.09E-02
137237,6.06E-03,2.10E-02
137238,7.70E-03,2.09E-02
137239,6.68E-03,2.11E-02
137240,7.38E-03,2.09E-02
137241,7.06E-03,2.10E-02
137242,6.56E-03,2.08E-02
137243,6.88E-03,2.11E-02
137244,7.33E-03,2.11E-02
137245,9.99E-03,2.13E-02
137246,9.16E-03,2.16E-02
137247,9.44E-03,2.19E-02
137248,6.67E-03,2.21E-02
137249,6.36E-03,2.25E-02
137250,8.03E-03,2.25E-02
137251,7.94E-03,2.27E-02
137252,7.69E-03,2.28E-02
137253,7.72E-03,2.28E-02
137254,7.78E-03,2.28E-02
137255,7.95E-03,2.28E-02
137256,8.17E-03,2.28E-02
137257,9.00E-03,2.28E-02
137258,8.54E-03,2.30E-02
137259,7.32E-03,2.31E-02
137260,6.69E-03,2.32E-02
137261,6.21E-03,2.32E-02
137262,6.04E-03,2.35E-02
137263,6.74E-03,2.36E-02
137264,9.55E-03,2.30E-02
137265,8.80E-03,2.35E-02
137266,8.42E-03,2.38E-02
137267,8.35E-03,2.37E-02
137268,8.17E-03,2.34E-02
137269,7.89E-03,2.30E-02
137270,7.56E-03,2.26E-02
137271,7.08E-03,2.24E-02
137272,6.98E-03,2.20E-02
137273,6.88E-03,2.15E-02
137274,7.46E-03,2.11E-02
137275,1.09E-02,1.97E-02
137276,9.37E-03,1.95E-02
137277,9.08E-03,1.93E-02
137278,8.97E-03,1.90E-02
137279,9.09E-03,1.84E-02
137280,9.38E-03,1.76E-02
137281,9.89E-03,1.66E-02
137282,8.50E-03,2.84E-02
137283,8.79E-03,2.86E-02
137284,8.82E-03,2.92E-02
137285,8.75E-03,2.96E-02
137286,8.64E-03,2.99E-02
137287,8.64E-03,3.00E-02
137288,8.33E-03,3.00E-02
137289,8.49E-03,2.99E-02
137290,8.13E-03,2.98E-02
137291,8.14E-03,2.95E-02
137292,8.01E-03,2.93E-02
137293,7.92E-03,2.90E-02
137294,7.81E-03,2.88E-02
137295,7.69E-03,2.85E-02
137296,7.71E-03,2.83E-02
137297,7.93E-03,2.81E-02
137298,8.03E-03,2.79E-02
137299,8.05E-03,2.77E-02
137300,8.16E-03,2.75E-02
137301,8.28E-03,2.73E-02
137302,8.40E-03,2.70E-02
137303,8.49E-03,2.68E-02
137304,8.65E-03,2.65E-02
137305,8.39E-03,2.62E-02
137306,8.40E-03,2.58E-02
137307,8.14E-03,2.55E-02
137308,8.13E-03,2.51E-02
137309,8.07E-03,2.47E-02
137310,7.85E-03,2.44E-02
137311,7.65E-03,2.40E-02
137312,7.56E-03,2.37E-02
137313,7.50E-03,2.34E-02
137314,7.23E-03,2.31E-02
137315,7.29E-03,2.30E-02
137316,7.29E-03,2.28E-02
137317,7.78E-03,2.27E-02
137318,7.80E-03,2.27E-02
137319,7.69E-03,2.27E-02
137320,7.65E-03,2.29E-02
137321,7.44E-03,2.32E-02
137322,6.84E-03,2.35E-02
137323,6.71E-03,2.39E-02
137324,6.50E-03,2.43E-02
137325,6.29E-03,2.45E-02
137326,9.55E-03,2.45E-02
137327,8.73E-03,2.49E-02
137328,8.58E-03,2.52E-02
137329,8.69E-03,2.53E-02
137330,8.60E-03,2.54E-02
137331,8.62E-03,2.53E-02
137332,8.36E-03,2.53E-02
137333,8.19E-03,2.51E-02
137334,7.90E-03,2.50E-02
137335,7.62E-03,2.49E-02
137336,7.33E-03,2.48E-02
137337,7.04E-03,2.48E-02
137338,7.03E-03,2.49E-02
137339,7.17E-03,2.49E-02
137340,1.02E-02,2.63E-02
137341,9.87E-03,2.64E-02
137342,9.48E-03,2.65E-02
137343,9.25E-03,2.65E-02
137344,9.36E-03,2.65E-02
137345,9.05E-03,2.65E-02
137346,8.93E-03,2.65E-02
137347,8.79E-03,2.65E-02
137348,8.48E-03,2.65E-02
137349,8.33E-03,2.65E-02
137350,7.64E-03,2.65E-02
137351,7.48E-03,2.64E-02
137352,7.39E-03,2.64E-02
137353,7.14E-03,2.64E-02
137354,7.25E-03,2.63E-02
137355,7.28E-03,2.62E-02
137356,7.35E-03,2.62E-02
137357,7.37E-03,2.60E-02
137358,7.47E-03,2.59E-02
137359,7.53E-03,2.58E-02
137360,7.56E-03,2.57E-02
137361,7.69E-03,2.55E-02
137362,7.74E-03,2.54E-02
137363,7.86E-03,2.52E-02
137364,7.97E-03,2.51E-02
137365,8.02E-03,2.50E-02
137366,8.06E-03,2.50E-02
137367,8.12E-03,2.50E-02
137368,8.15E-03,2.50E-02
137369,8.11E-03,2.50E-02
137370,7.97E-03,2.51E-02
137371,7.99E-03,2.52E-02
137372,7.92E-03,2.52E-02
137373,7.89E-03,2.53E-02
137374,7.77E-03,2.53E-02
137375,7.80E-03,2.53E-02
137376,7.72E-03,2.53E-02
137377,7.71E-03,2.53E-02
137378,7.71E-03,2.53E-02
137379,7.70E-03,2.52E-02
137380,7.77E-03,2.52E-02
137381,7.88E-03,2.51E-02
137382,8.06E-03,2.50E-02
137383,8.16E-03,2.49E-02
137384,8.14E-03,2.48E-02
137385,8.14E-03,2.48E-02
137386,8.22E-03,2.47E-02
137387,8.26E-03,2.47E-02
137388,8.18E-03,2.47E-02
137389,8.09E-03,2.47E-02
137390,7.91E-03,2.47E-02
137391,7.80E-03,2.47E-02
137392,7.70E-03,2.47E-02
137393,7.73E-03,2.47E-02
137394,7.91E-03,2.47E-02
137395,7.94E-03,2.46E-02
137396,7.93E-03,2.46E-02
137397,7.86E-03,2.46E-02
137398,7.85E-03,2.45E-02
137399,7.85E-03,2.44E-02
137400,7.88E-03,2.43E-02
137401,7.84E-03,2.42E-02
137402,7.75E-03,2.41E-02
137403,7.70E-03,2.40E-02
137404,7.60E-03,2.38E-02
137405,7.51E-03,2.37E-02
137406,7.43E-03,2.36E-02
137407,7.33E-03,2.35E-02
137408,7.12E-03,2.34E-02
137409,6.83E-03,2.35E-02
137410,6.96E-03,2.35E-02
137411,8.36E-03,2.37E-02
137412,9.40E-03,2.40E-02
137413,8.65E-03,2.42E-02
137414,8.21E-03,2.44E-02
137415,7.97E-03,2.46E-02
137416,7.70E-03,2.47E-02
137417,7.57E-03,2.48E-02
137418,7.91E-03,2.48E-02
137419,6.82E-03,2.46E-02
137420,4.75E-03,2.45E-02
137421,4.83E-03,2.45E-02
137422,8.63E-03,2.46E-02
137423,9.83E-03,2.45E-02
137424,8.18E-03,2.45E-02
137425,6.63E-03,2.48E-02
137426,8.15E-03,2.34E-02
137427,7.68E-03,2.37E-02
137428,7.54E-03,2.39E-02
137429,7.48E-03,2.40E-02
137430,7.50E-03,2.40E-02
137431,7.63E-03,2.39E-02
137432,8.92E-03,2.36E-02
137433,6.32E-03,2.35E-02
137434,7.92E-03,2.34E-02
137435,7.76E-03,2.33E-02
137436,7.72E-03,2.32E-02
137437,7.70E-03,2.30E-02
137438,7.86E-03,2.28E-02
137439,8.03E-03,2.26E-02
137440,8.13E-03,2.24E-02
137441,8.41E-03,2.22E-02
137442,8.99E-03,2.20E-02
137443,8.16E-03,2.18E-02
137444,7.02E-03,2.18E-02
137445,7.60E-03,2.16E-02
137446,7.81E-03,2.14E-02
137447,8.03E-03,2.12E-02
137448,7.90E-03,2.11E-02
137449,7.58E-03,2.09E-02
137450,7.25E-03,2.08E-02
137451,7.11E-03,2.08E-02
137452,6.99E-03,2.07E-02
137453,6.96E-03,2.07E-02
137454,8.03E-03,2.07E-02
137455,8.38E-03,2.07E-02
137456,7.66E-03,2.08E-02
137457,7.43E-03,2.08E-02
137458,7.20E-03,2.09E-02
137459,7.05E-03,2.10E-02
137460,6.82E-03,2.11E-02
137461,5.35E-03,2.12E-02
137462,5.41E-03,2.13E-02
137463,8.20E-03,2.11E-02
137464,8.69E-03,2.13E-02
137465,7.58E-03,2.15E-02
137466,8.69E-03,1.76E-02
137467,8.37E-03,1.83E-02
137468,8.09E-03,1.89E-02
137469,7.92E-03,1.94E-02
137470,7.99E-03,1.98E-02
137471,7.92E-03,2.04E-02
137472,8.07E-03,2.11E-02
137473,8.32E-03,2.17E-02
137474,8.68E-03,2.21E-02
137475,8.84E-03,2.23E-02
137476,8.77E-03,2.28E-02
137477,8.49E-03,2.33E-02
137478,8.09E-03,2.37E-02
137479,8.01E-03,2.39E-02
137480,7.85E-03,2.43E-02
137481,7.60E-03,2.46E-02
137482,7.54E-03,2.50E-02
137483,7.52E-03,2.54E-02
137484,7.61E-03,2.56E-02
137485,7.68E-03,2.59E-02
137486,7.61E-03,2.63E-02
137487,7.27E-03,2.70E-02
137488,7.11E-03,2.80E-02
137489,7.04E-03,2.91E-02
137490,7.20E-03,3.02E-02
137491,7.37E-03,3.13E-02
137492,7.60E-03,3.26E-02
137493,7.83E-03,3.41E-02
137494,7.96E-03,3.59E-02
137495,8.09E-03,3.77E-02
137496,8.03E-03,3.98E-02
137497,7.96E-03,4.19E-02
137498,7.94E-03,4.41E-02
137499,7.78E-03,4.64E-02
137500,7.57E-03,4.90E-02
137501,7.49E-03,5.19E-02
137502,7.45E-03,5.51E-02
137503,7.24E-03,5.87E-02
137504,6.69E-03,6.00E-02
137505,6.64E-03,6.86E-02
137506,6.04E-03,7.97E-02
137507,6.29E-03,9.27E-02
137508,6.27E-03,0.10912
137509,6.51E-03,0.12888
137510,6.49E-03,0.14911
137511,8.11E-03,2.53E-04
137512,7.51E-03,2.38E-04
137513,7.63E-03,2.21E-04
137514,7.52E-03,2.04E-04
137515,7.39E-03,1.88E-04
137516,7.17E-03,1.71E-04
137517,7.48E-03,1.54E-04
137518,7.48E-03,1.38E-04
137519,7.34E-03,1.25E-04
137520,7.30E-03,1.12E-04
137521,7.11E-03,9.63E-05
137522,5.71E-03,1.50E-04
137523,6.86E-03,1.54E-04
137524,7.13E-03,1.51E-04
137525,7.57E-03,1.39E-04
137526,5.29E-03,1.26E-04
137527,5.64E-03,1.27E-04
137528,8.20E-03,1.17E-04
137529,8.19E-03,1.11E-04
137530,9.22E-03,1.06E-04
137531,6.14E-03,9.10E-05
137532,6.50E-03,9.77E-05
137533,5.64E-03,1.15E-04
137534,7.23E-03,1.15E-04
137535,7.33E-03,1.08E-04
137536,7.39E-03,1.13E-04
137537,7.32E-03,1.26E-04
137538,7.55E-03,1.40E-04
137539,7.48E-03,1.53E-04
137540,7.53E-03,1.69E-04
137541,7.64E-03,1.85E-04
137542,7.82E-03,2.02E-04
137543,8.30E-03,2.19E-04
137544,9.34E-03,2.36E-04
137545,5.84E-03,2.74E-04
137546,8.73E-03,2.50E-04
137547,7.01E-03,2.80E-04
137548,9.41E-03,1.30E-02
137549,9.19E-03,1.19E-02
137550,9.09E-03,1.08E-02
137551,8.85E-03,9.71E-03
137552,8.51E-03,8.67E-03
137553,8.34E-03,7.71E-03
137554,8.15E-03,6.84E-03
137555,8.07E-03,6.07E-03
137556,8.07E-03,5.38E-03
137557,8.07E-03,4.76E-03
137558,8.07E-03,4.20E-03
137559,8.06E-03,3.71E-03
137560,8.06E-03,3.28E-03
137561,8.06E-03,2.91E-03
137562,8.06E-03,2.59E-03
137563,8.06E-03,2.32E-03
137564,8.06E-03,2.12E-03
137565,8.06E-03,1.97E-03
137566,8.05E-03,1.89E-03
137567,8.05E-03,1.87E-03
137568,8.05E-03,1.90E-03
137569,8.05E-03,1.97E-03
137570,8.05E-03,2.08E-03
137571,8.05E-03,2.22E-03
137572,8.05E-03,2.38E-03
137573,8.05E-03,2.55E-03
137574,8.04E-03,2.73E-03
137575,8.04E-03,2.92E-03
137576,8.04E-03,3.11E-03
137577,8.10E-03,3.31E-03
137578,8.22E-03,3.50E-03
137579,8.31E-03,3.70E-03
137580,8.32E-03,3.90E-03
137581,8.27E-03,4.09E-03
137582,8.23E-03,4.28E-03
137583,8.21E-03,4.47E-03
137584,8.19E-03,4.65E-03
137585,8.18E-03,4.82E-03
137586,8.17E-03,5.00E-03
137587,8.16E-03,5.16E-03
137588,8.14E-03,5.33E-03
137589,8.13E-03,5.49E-03
137590,8.15E-03,5.64E-03
137591,8.17E-03,5.79E-03
137592,8.17E-03,5.94E-03
137593,8.10E-03,6.09E-03
137594,8.04E-03,6.23E-03
137595,8.04E-03,6.37E-03
137596,8.04E-03,6.51E-03
137597,8.04E-03,6.65E-03
137598,8.02E-03,6.79E-03
137599,8.01E-03,6.92E-03
137600,8.01E-03,7.06E-03
137601,8.00E-03,7.21E-03
137602,7.98E-03,7.35E-03
137603,7.97E-03,7.50E-03
137604,7.95E-03,7.66E-03
137605,7.92E-03,7.82E-03
137606,7.89E-03,7.99E-03
137607,7.80E-03,8.17E-03
137608,7.70E-03,8.35E-03
137609,7.86E-03,8.53E-03
137610,8.14E-03,8.71E-03
137611,8.29E-03,8.90E-03
137612,8.33E-03,9.10E-03
137613,8.28E-03,9.31E-03
137614,8.25E-03,9.51E-03
137615,8.23E-03,9.71E-03
137616,8.21E-03,9.90E-03
137617,8.19E-03,1.01E-02
137618,8.18E-03,1.03E-02
137619,8.17E-03,1.05E-02
137620,8.16E-03,1.06E-02
137621,8.15E-03,1.08E-02
137622,8.15E-03,1.10E-02
137623,8.27E-03,1.11E-02
137624,8.44E-03,1.13E-02
137625,8.41E-03,1.15E-02
137626,8.31E-03,1.16E-02
137627,8.25E-03,1.17E-02
137628,8.21E-03,1.19E-02
137629,8.19E-03,1.20E-02
137630,8.17E-03,1.21E-02
137631,8.16E-03,1.22E-02
137632,8.15E-03,1.23E-02
137633,8.14E-03,1.24E-02
137634,8.13E-03,1.25E-02
137635,8.13E-03,1.26E-02
137636,8.12E-03,1.27E-02
137637,8.12E-03,1.28E-02
137638,8.11E-03,1.29E-02
137639,8.11E-03,1.30E-02
137640,8.11E-03,1.31E-02
137641,8.11E-03,1.31E-02
137642,8.11E-03,1.32E-02
137643,8.10E-03,1.33E-02
137644,8.10E-03,1.34E-02
137645,8.10E-03,1.35E-02
137646,8.10E-03,1.36E-02
137647,8.10E-03,1.36E-02
137648,8.10E-03,1.37E-02
137649,8.10E-03,1.38E-02
137650,8.10E-03,1.39E-02
137651,8.10E-03,1.40E-02
137652,8.09E-03,1.40E-02
137653,8.09E-03,1.41E-02
137654,8.09E-03,1.42E-02
137655,8.09E-03,1.43E-02
137656,8.09E-03,1.44E-02
137657,8.09E-03,1.44E-02
137658,8.09E-03,1.45E-02
137659,8.09E-03,1.46E-02
137660,8.09E-03,1.47E-02
137661,8.09E-03,1.47E-02
137662,8.09E-03,1.48E-02
137663,8.09E-03,1.49E-02
137664,8.09E-03,1.50E-02
137665,8.09E-03,1.50E-02
137666,8.09E-03,1.51E-02
137667,8.09E-03,1.52E-02
137668,8.09E-03,1.53E-02
137669,8.09E-03,1.53E-02
137670,8.09E-03,1.54E-02
137671,8.09E-03,1.55E-02
137672,8.09E-03,1.56E-02
137673,8.09E-03,1.56E-02
137674,8.09E-03,1.57E-02
137675,8.09E-03,1.58E-02
137676,8.09E-03,1.58E-02
137677,8.09E-03,1.59E-02
137678,8.09E-03,1.60E-02
137679,8.09E-03,1.61E-02
137680,8.09E-03,1.61E-02
137681,8.09E-03,1.62E-02
137682,8.09E-03,1.63E-02
137683,8.09E-03,1.63E-02
137684,8.09E-03,1.64E-02
137685,8.09E-03,1.65E-02
137686,8.09E-03,1.66E-02
137687,8.09E-03,1.66E-02
137688,8.09E-03,1.67E-02
137689,8.09E-03,1.68E-02
137690,8.09E-03,1.68E-02
137691,8.09E-03,1.69E-02
137692,8.09E-03,1.70E-02
137693,8.09E-03,1.71E-02
137694,8.09E-03,1.71E-02
137695,8.09E-03,1.72E-02
137696,8.09E-03,1.73E-02
137697,8.09E-03,1.73E-02
137698,8.09E-03,1.74E-02
137699,8.09E-03,1.75E-02
137700,8.09E-03,1.76E-02
137701,8.09E-03,1.76E-02
137702,8.09E-03,1.77E-02
137703,8.09E-03,1.78E-02
137704,8.09E-03,1.78E-02
137705,8.09E-03,1.79E-02
137706,8.09E-03,1.80E-02
137707,8.09E-03,1.81E-02
137708,8.09E-03,1.81E-02
137709,8.09E-03,1.82E-02
137710,8.09E-03,1.83E-02
137711,8.09E-03,1.84E-02
137712,8.09E-03,1.84E-02
137713,8.09E-03,1.85E-02
137714,8.10E-03,1.86E-02
137715,8.10E-03,1.87E-02
137716,8.10E-03,1.87E-02
137717,8.10E-03,1.88E-02
137718,8.10E-03,1.89E-02
137719,8.10E-03,1.90E-02
137720,8.10E-03,1.90E-02
137721,8.11E-03,1.91E-02
137722,8.11E-03,1.92E-02
137723,8.11E-03,1.92E-02
137724,8.12E-03,1.93E-02
137725,8.12E-03,1.94E-02
137726,8.13E-03,1.94E-02
137727,8.14E-03,1.95E-02
137728,8.15E-03,1.95E-02
137729,8.16E-03,1.96E-02
137730,8.18E-03,1.96E-02
137731,8.20E-03,1.96E-02
137732,8.24E-03,1.96E-02
137733,8.30E-03,1.97E-02
137734,8.28E-03,1.97E-02
137735,8.05E-03,1.97E-02
137736,7.90E-03,1.97E-02
137737,7.94E-03,1.97E-02
137738,7.97E-03,1.98E-02
137739,7.99E-03,1.98E-02
137740,8.01E-03,1.98E-02
137741,8.02E-03,1.98E-02
137742,8.03E-03,1.98E-02
137743,8.03E-03,1.99E-02
137744,8.04E-03,1.99E-02
137745,8.04E-03,2.00E-02
137746,8.05E-03,2.00E-02
137747,8.05E-03,2.01E-02
137748,8.05E-03,2.01E-02
137749,8.05E-03,2.02E-02
137750,8.06E-03,2.03E-02
137751,8.06E-03,2.03E-02
137752,8.06E-03,2.04E-02
137753,8.06E-03,2.05E-02
137754,8.06E-03,2.06E-02
137755,8.06E-03,2.06E-02
137756,8.07E-03,2.07E-02
137757,8.07E-03,2.08E-02
137758,8.07E-03,2.09E-02
137759,8.07E-03,2.10E-02
137760,8.07E-03,2.11E-02
137761,8.07E-03,2.12E-02
137762,8.07E-03,2.12E-02
137763,8.07E-03,2.13E-02
137764,8.07E-03,2.14E-02
137765,8.07E-03,2.15E-02
137766,8.07E-03,2.16E-02
137767,8.07E-03,2.17E-02
137768,8.08E-03,2.18E-02
137769,8.08E-03,2.19E-02
137770,8.08E-03,2.20E-02
137771,8.08E-03,2.21E-02
137772,8.08E-03,2.23E-02
137773,8.09E-03,2.24E-02
137774,8.09E-03,2.25E-02
137775,8.09E-03,2.26E-02
137776,8.10E-03,2.27E-02
137777,8.10E-03,2.28E-02
137778,8.10E-03,2.30E-02
137779,8.10E-03,2.31E-02
137780,8.10E-03,2.32E-02
137781,8.10E-03,2.33E-02
137782,8.10E-03,2.35E-02
137783,8.10E-03,2.36E-02
137784,8.11E-03,2.37E-02
137785,8.11E-03,2.39E-02
137786,8.11E-03,2.40E-02
137787,8.11E-03,2.41E-02
137788,8.12E-03,2.43E-02
137789,8.12E-03,2.44E-02
137790,8.13E-03,2.46E-02
137791,8.13E-03,2.47E-02
137792,8.14E-03,2.48E-02
137793,8.15E-03,2.50E-02
137794,8.17E-03,2.51E-02
137795,8.30E-03,2.52E-02
137796,8.34E-03,2.52E-02
137797,8.49E-03,2.52E-02
137798,8.68E-03,2.51E-02
137799,8.83E-03,2.50E-02
137800,8.90E-03,2.48E-02
137801,8.65E-03,2.48E-02
137802,8.41E-03,2.48E-02
137803,7.73E-03,2.48E-02
137804,7.46E-03,2.47E-02
137805,7.46E-03,2.45E-02
137806,7.47E-03,2.43E-02
137807,7.67E-03,2.42E-02
137808,7.87E-03,2.41E-02
137809,7.95E-03,2.40E-02
137810,8.06E-03,2.39E-02
137811,8.15E-03,2.39E-02
137812,8.18E-03,2.39E-02
137813,8.20E-03,2.39E-02
137814,8.21E-03,2.38E-02
137815,8.23E-03,2.38E-02
137816,8.25E-03,2.37E-02
137817,8.26E-03,2.37E-02
137818,8.33E-03,2.36E-02
137819,8.51E-03,2.35E-02
137820,8.20E-03,2.35E-02
137821,7.47E-03,2.35E-02
137822,7.31E-03,2.34E-02
137823,7.58E-03,2.34E-02
137824,7.78E-03,2.34E-02
137825,7.87E-03,2.34E-02
137826,7.92E-03,2.34E-02
137827,7.96E-03,2.34E-02
137828,7.98E-03,2.35E-02
137829,8.00E-03,2.36E-02
137830,8.01E-03,2.37E-02
137831,8.02E-03,2.38E-02
137832,8.03E-03,2.39E-02
137833,8.03E-03,2.40E-02
137834,8.04E-03,2.42E-02
137835,8.04E-03,2.43E-02
137836,8.05E-03,2.44E-02
137837,8.05E-03,2.45E-02
137838,8.05E-03,2.47E-02
137839,8.05E-03,2.48E-02
137840,8.05E-03,2.49E-02
137841,8.06E-03,2.51E-02
137842,8.07E-03,2.52E-02
137843,8.07E-03,2.54E-02
137844,8.07E-03,2.55E-02
137845,8.07E-03,2.56E-02
137846,8.08E-03,2.58E-02
137847,8.08E-03,2.59E-02
137848,8.09E-03,2.61E-02
137849,8.09E-03,2.62E-02
137850,8.09E-03,2.64E-02
137851,8.09E-03,2.65E-02
137852,8.10E-03,2.66E-02
137853,8.10E-03,2.68E-02
137854,8.10E-03,2.69E-02
137855,8.10E-03,2.71E-02
137856,8.10E-03,2.72E-02
137857,8.10E-03,2.74E-02
137858,8.10E-03,2.75E-02
137859,8.10E-03,2.76E-02
137860,8.10E-03,2.78E-02
137861,8.10E-03,2.79E-02
137862,8.10E-03,2.81E-02
137863,8.11E-03,2.82E-02
137864,8.11E-03,2.84E-02
137865,8.11E-03,2.85E-02
137866,8.11E-03,2.87E-02
137867,8.11E-03,2.88E-02
137868,8.11E-03,2.90E-02
137869,8.12E-03,2.91E-02
137870,8.12E-03,2.93E-02
137871,8.12E-03,2.94E-02
137872,8.13E-03,2.96E-02
137873,8.13E-03,2.97E-02
137874,8.14E-03,2.99E-02
137875,8.14E-03,3.01E-02
137876,8.15E-03,3.02E-02
137877,8.15E-03,3.04E-02
137878,8.15E-03,3.05E-02
137879,8.16E-03,3.07E-02
137880,8.16E-03,3.08E-02
137881,8.16E-03,3.10E-02
137882,8.17E-03,3.11E-02
137883,8.19E-03,3.13E-02
137884,8.20E-03,3.14E-02
137885,8.23E-03,3.15E-02
137886,8.26E-03,3.16E-02
137887,8.30E-03,3.16E-02
137888,8.36E-03,3.17E-02
137889,8.46E-03,3.17E-02
137890,8.55E-03,3.16E-02
137891,8.54E-03,3.15E-02
137892,8.48E-03,3.14E-02
137893,8.43E-03,3.13E-02
137894,8.39E-03,3.11E-02
137895,8.44E-03,3.09E-02
137896,8.52E-03,3.06E-02
137897,8.39E-03,3.03E-02
137898,8.21E-03,3.00E-02
137899,8.16E-03,2.97E-02
137900,8.11E-03,2.93E-02
137901,8.06E-03,2.90E-02
137902,8.03E-03,2.87E-02
137903,7.95E-03,2.83E-02
137904,7.69E-03,2.81E-02
137905,7.59E-03,2.78E-02
137906,7.74E-03,2.76E-02
137907,7.83E-03,2.73E-02
137908,7.82E-03,2.72E-02
137909,7.69E-03,2.71E-02
137910,7.51E-03,2.70E-02
137911,7.52E-03,2.70E-02
137912,7.68E-03,2.70E-02
137913,7.79E-03,2.70E-02
137914,7.86E-03,2.71E-02
137915,7.92E-03,2.72E-02
137916,7.96E-03,2.73E-02
137917,7.97E-03,2.75E-02
137918,7.97E-03,2.76E-02
137919,7.97E-03,2.78E-02
137920,7.97E-03,2.80E-02
137921,7.97E-03,2.82E-02
137922,8.00E-03,2.84E-02
137923,8.06E-03,2.86E-02
137924,8.09E-03,2.88E-02
137925,8.09E-03,2.90E-02
137926,8.09E-03,2.92E-02
137927,8.09E-03,2.94E-02
137928,8.10E-03,2.97E-02
137929,8.11E-03,2.99E-02
137930,8.12E-03,3.01E-02
137931,8.12E-03,3.03E-02
137932,8.12E-03,3.05E-02
137933,8.12E-03,3.06E-02
137934,8.13E-03,3.08E-02
137935,8.13E-03,3.10E-02
137936,8.13E-03,3.12E-02
137937,8.13E-03,3.14E-02
137938,8.14E-03,3.15E-02
137939,8.14E-03,3.17E-02
137940,8.15E-03,3.18E-02
137941,8.15E-03,3.20E-02
137942,8.16E-03,3.21E-02
137943,8.17E-03,3.22E-02
137944,8.18E-03,3.23E-02
137945,8.19E-03,3.24E-02
137946,8.20E-03,3.25E-02
137947,8.21E-03,3.26E-02
137948,8.22E-03,3.26E-02
137949,8.23E-03,3.27E-02
137950,8.25E-03,3.27E-02
137951,8.26E-03,3.27E-02
137952,8.29E-03,3.26E-02
137953,8.32E-03,3.25E-02
137954,8.35E-03,3.24E-02
137955,8.39E-03,3.22E-02
137956,8.40E-03,3.20E-02
137957,8.37E-03,3.18E-02
137958,8.36E-03,3.15E-02
137959,8.40E-03,3.12E-02
137960,8.51E-03,3.09E-02
137961,8.48E-03,3.06E-02
137962,7.92E-03,3.03E-02
137963,7.51E-03,3.00E-02
137964,7.59E-03,2.97E-02
137965,7.69E-03,2.94E-02
137966,7.76E-03,2.91E-02
137967,7.72E-03,2.89E-02
137968,7.68E-03,2.88E-02
137969,7.36E-03,2.87E-02
137970,6.83E-03,2.87E-02
137971,7.45E-03,2.87E-02
137972,7.75E-03,2.88E-02
137973,7.87E-03,2.89E-02
137974,7.93E-03,2.91E-02
137975,7.96E-03,2.93E-02
137976,7.99E-03,2.95E-02
137977,8.00E-03,2.98E-02
137978,8.02E-03,3.01E-02
137979,8.03E-03,3.03E-02
137980,8.03E-03,3.06E-02
137981,8.04E-03,3.09E-02
137982,8.04E-03,3.12E-02
137983,8.05E-03,3.14E-02
137984,8.05E-03,3.17E-02
137985,8.05E-03,3.20E-02
137986,8.06E-03,3.23E-02
137987,8.06E-03,3.25E-02
137988,8.06E-03,3.28E-02
137989,8.06E-03,3.31E-02
137990,8.06E-03,3.33E-02
137991,8.06E-03,3.36E-02
137992,8.07E-03,3.38E-02
137993,8.07E-03,3.41E-02
137994,8.07E-03,3.43E-02
137995,8.07E-03,3.46E-02
137996,8.07E-03,3.49E-02
137997,8.07E-03,3.51E-02
137998,8.07E-03,3.54E-02
137999,8.07E-03,3.56E-02
138000,8.07E-03,3.59E-02
138001,8.07E-03,3.61E-02
138002,8.07E-03,3.64E-02
138003,8.07E-03,3.66E-02
138004,8.07E-03,3.69E-02
138005,8.07E-03,3.71E-02
138006,8.07E-03,3.74E-02
138007,8.07E-03,3.76E-02
138008,8.07E-03,3.79E-02
138009,8.07E-03,3.81E-02
138010,8.07E-03,3.84E-02
138011,8.07E-03,3.86E-02
138012,8.07E-03,3.89E-02
138013,8.07E-03,3.91E-02
138014,8.07E-03,3.94E-02
138015,8.07E-03,3.96E-02
138016,8.07E-03,3.99E-02
138017,8.08E-03,4.01E-02
138018,8.08E-03,4.04E-02
138019,8.08E-03,4.07E-02
138020,8.08E-03,4.09E-02
138021,8.08E-03,4.12E-02
138022,8.08E-03,4.15E-02
138023,8.08E-03,4.17E-02
138024,8.08E-03,4.20E-02
138025,8.08E-03,4.23E-02
138026,8.08E-03,4.25E-02
138027,8.08E-03,4.28E-02
138028,8.08E-03,4.31E-02
138029,8.08E-03,4.34E-02
138030,8.08E-03,4.36E-02
138031,8.07E-03,4.39E-02
138032,8.08E-03,4.42E-02
138033,8.03E-03,4.45E-02
138034,7.95E-03,4.48E-02
138035,7.91E-03,4.51E-02
138036,7.94E-03,4.54E-02
138037,7.33E-03,4.50E-02
138038,7.64E-03,4.52E-02
138039,8.00E-03,4.53E-02
138040,7.91E-03,4.54E-02
138041,7.94E-03,4.55E-02
138042,7.94E-03,4.57E-02
138043,7.94E-03,4.58E-02
138044,7.94E-03,4.59E-02
138045,7.94E-03,4.61E-02
138046,7.94E-03,4.63E-02
138047,7.94E-03,4.65E-02
138048,7.94E-03,4.67E-02
138049,7.94E-03,4.70E-02
138050,7.94E-03,4.73E-02
138051,7.94E-03,4.77E-02
138052,7.94E-03,4.81E-02
138053,7.94E-03,4.86E-02
138054,7.94E-03,4.92E-02
138055,7.94E-03,4.99E-02
138056,7.94E-03,5.07E-02
138057,7.94E-03,5.17E-02
138058,7.94E-03,5.27E-02
138059,7.94E-03,5.39E-02
138060,7.94E-03,5.53E-02
138061,7.94E-03,5.68E-02
138062,7.94E-03,5.85E-02
138063,7.94E-03,6.05E-02
138064,7.94E-03,6.26E-02
138065,7.94E-03,6.51E-02
138066,7.94E-03,6.79E-02
138067,7.94E-03,7.10E-02
138068,7.94E-03,7.46E-02
138069,7.94E-03,7.87E-02
138070,7.94E-03,8.34E-02
138071,7.94E-03,8.87E-02
138072,7.94E-03,9.47E-02
138073,7.94E-03,0.10147
138074,7.93E-03,0.10939
138075,7.87E-03,0.1189
138076,7.73E-03,0.1296
138077,7.53E-03,0.14112
138078,7.13E-03,0.15266
138079,6.72E-03,0.16347
138080,6.54E-03,0.16926
138081,1.05E-02,2.60E-02
138082,9.42E-03,2.58E-02
138083,8.96E-03,2.57E-02
138084,8.67E-03,2.55E-02
138085,8.46E-03,2.53E-02
138086,8.40E-03,2.52E-02
138087,7.99E-03,2.50E-02
138088,7.75E-03,2.49E-02
138089,7.29E-03,2.48E-02
138090,7.32E-03,2.46E-02
138091,7.40E-03,2.45E-02
138092,7.51E-03,2.44E-02
138093,7.52E-03,2.43E-02
138094,7.65E-03,2.42E-02
138095,7.81E-03,2.41E-02
138096,7.86E-03,2.40E-02
138097,7.98E-03,2.39E-02
138098,8.08E-03,2.38E-02
138099,8.12E-03,2.37E-02
138100,8.22E-03,2.36E-02
138101,8.26E-03,2.35E-02
138102,8.41E-03,2.34E-02
138103,8.41E-03,2.32E-02
138104,8.45E-03,2.31E-02
138105,8.50E-03,2.30E-02
138106,8.56E-03,2.29E-02
138107,8.64E-03,2.28E-02
138108,8.74E-03,2.26E-02
138109,8.87E-03,2.25E-02
138110,8.99E-03,2.23E-02
138111,9.05E-03,2.22E-02
138112,9.06E-03,2.20E-02
138113,9.06E-03,2.19E-02
138114,9.07E-03,2.17E-02
138115,9.07E-03,2.15E-02
138116,9.06E-03,2.13E-02
138117,9.05E-03,2.12E-02
138118,9.04E-03,2.10E-02
138119,9.05E-03,2.08E-02
138120,9.07E-03,2.06E-02
138121,9.09E-03,2.04E-02
138122,9.11E-03,2.03E-02
138123,9.12E-03,2.01E-02
138124,9.14E-03,1.99E-02
138125,9.22E-03,1.97E-02
138126,9.29E-03,1.96E-02
138127,9.44E-03,1.94E-02
138128,9.52E-03,1.92E-02
138129,9.62E-03,1.90E-02
138130,9.60E-03,1.89E-02
138131,9.57E-03,1.87E-02
138132,9.49E-03,1.86E-02
138133,9.34E-03,1.84E-02
138134,9.36E-03,1.83E-02
138135,8.84E-03,1.81E-02
138136,8.76E-03,1.80E-02
138137,8.64E-03,1.79E-02
138138,8.42E-03,1.78E-02
138139,8.33E-03,1.77E-02
138140,8.29E-03,1.76E-02
138141,8.25E-03,1.75E-02
138142,8.22E-03,1.74E-02
138143,8.20E-03,1.73E-02
138144,8.20E-03,1.71E-02
138145,8.20E-03,1.70E-02
138146,8.21E-03,1.69E-02
138147,8.22E-03,1.68E-02
138148,8.23E-03,1.67E-02
138149,8.24E-03,1.66E-02
138150,8.24E-03,1.65E-02
138151,8.24E-03,1.64E-02
138152,8.24E-03,1.63E-02
138153,8.24E-03,1.62E-02
138154,8.24E-03,1.61E-02
138155,8.25E-03,1.60E-02
138156,8.25E-03,1.59E-02
138157,8.25E-03,1.58E-02
138158,8.26E-03,1.57E-02
138159,8.26E-03,1.56E-02
138160,8.26E-03,1.55E-02
138161,8.26E-03,1.54E-02
138162,8.27E-03,1.53E-02
138163,8.27E-03,1.52E-02
138164,8.27E-03,1.51E-02
138165,8.27E-03,1.50E-02
138166,8.28E-03,1.49E-02
138167,8.28E-03,1.48E-02
138168,8.28E-03,1.47E-02
138169,8.29E-03,1.46E-02
138170,8.29E-03,1.45E-02
138171,8.29E-03,1.44E-02
138172,8.29E-03,1.43E-02
138173,8.29E-03,1.42E-02
138174,8.28E-03,1.41E-02
138175,8.27E-03,1.40E-02
138176,8.26E-03,1.39E-02
138177,8.25E-03,1.38E-02
138178,8.24E-03,1.37E-02
138179,8.23E-03,1.36E-02
138180,8.23E-03,1.34E-02
138181,8.22E-03,1.33E-02
138182,8.22E-03,1.32E-02
138183,8.21E-03,1.31E-02
138184,8.21E-03,1.30E-02
138185,8.20E-03,1.29E-02
138186,8.20E-03,1.28E-02
138187,8.19E-03,1.27E-02
138188,8.19E-03,1.26E-02
138189,8.19E-03,1.24E-02
138190,8.18E-03,1.23E-02
138191,8.18E-03,1.22E-02
138192,8.17E-03,1.21E-02
138193,8.17E-03,1.21E-02
138194,8.16E-03,1.20E-02
138195,8.16E-03,1.19E-02
138196,8.15E-03,1.19E-02
138197,8.15E-03,1.18E-02
138198,8.14E-03,1.18E-02
138199,8.14E-03,1.19E-02
138200,8.13E-03,1.19E-02
138201,8.13E-03,1.20E-02
138202,8.13E-03,1.21E-02
138203,8.13E-03,1.22E-02
138204,8.13E-03,1.24E-02
138205,8.12E-03,1.26E-02
138206,8.12E-03,1.28E-02
138207,8.12E-03,1.30E-02
138208,8.12E-03,1.33E-02
138209,8.12E-03,1.35E-02
138210,8.11E-03,1.38E-02
138211,8.11E-03,1.41E-02
138212,8.11E-03,1.43E-02
138213,8.11E-03,1.46E-02
138214,8.11E-03,1.48E-02
138215,8.11E-03,1.51E-02
138216,8.11E-03,1.53E-02
138217,8.07E-03,1.56E-02
138218,7.99E-03,1.60E-02
138219,8.13E-03,1.63E-02
138220,8.10E-03,1.67E-02
138221,8.16E-03,1.71E-02
138222,8.19E-03,1.74E-02
138223,8.11E-03,1.78E-02
138224,8.08E-03,1.81E-02
138225,7.99E-03,1.84E-02
138226,7.98E-03,1.87E-02
138227,7.88E-03,1.90E-02
138228,7.80E-03,1.92E-02
138229,7.86E-03,1.93E-02
138230,7.88E-03,1.94E-02
138231,7.89E-03,1.95E-02
138232,7.96E-03,1.95E-02
138233,8.01E-03,1.95E-02
138234,7.98E-03,1.95E-02
138235,7.98E-03,1.95E-02
138236,7.99E-03,1.95E-02
138237,8.05E-03,1.95E-02
138238,8.10E-03,1.95E-02
138239,8.14E-03,1.95E-02
138240,8.01E-03,1.95E-02
138241,7.92E-03,1.95E-02
138242,7.91E-03,1.95E-02
138243,7.93E-03,1.95E-02
138244,8.04E-03,1.96E-02
138245,7.98E-03,1.96E-02
138246,7.89E-03,1.97E-02
138247,7.83E-03,1.98E-02
138248,7.66E-03,1.99E-02
138249,7.49E-03,2.00E-02
138250,7.44E-03,2.02E-02
138251,7.36E-03,2.03E-02
138252,7.31E-03,2.05E-02
138253,8.25E-03,2.07E-02
138254,8.42E-03,2.07E-02
138255,7.59E-03,2.07E-02
138256,7.33E-03,2.07E-02
138257,7.35E-03,2.10E-02
138258,8.48E-03,2.10E-02
138259,9.05E-03,2.12E-02
138260,9.41E-03,2.15E-02
138261,8.68E-03,2.15E-02
138262,7.30E-03,2.15E-02
138263,7.30E-03,2.15E-02
138264,7.37E-03,2.15E-02
138265,7.54E-03,2.15E-02
138266,7.63E-03,2.15E-02
138267,7.80E-03,2.15E-02
138268,7.82E-03,2.16E-02
138269,7.28E-03,2.17E-02
138270,6.14E-03,2.19E-02
138271,6.74E-03,2.18E-02
138272,6.32E-03,2.18E-02
138273,5.82E-03,2.20E-02
138274,6.19E-03,2.21E-02
138275,7.52E-03,2.23E-02
138276,7.46E-03,2.23E-02
138277,6.66E-03,2.23E-02
138278,7.36E-03,2.22E-02
138279,7.80E-03,2.22E-02
138280,7.46E-03,2.23E-02
138281,7.42E-03,2.23E-02
138282,7.40E-03,2.24E-02
138283,7.21E-03,2.24E-02
138284,7.36E-03,2.25E-02
138285,5.69E-03,2.25E-02
138286,8.65E-03,2.26E-02
138287,7.41E-03,2.24E-02
138288,7.48E-03,2.23E-02
138289,7.54E-03,2.22E-02
138290,7.67E-03,2.20E-02
138291,7.72E-03,2.18E-02
138292,7.83E-03,2.17E-02
138293,8.03E-03,2.15E-02
138294,8.28E-03,2.13E-02
138295,8.19E-03,2.12E-02
138296,8.03E-03,2.11E-02
138297,7.84E-03,2.09E-02
138298,7.72E-03,2.08E-02
138299,7.80E-03,2.08E-02
138300,7.63E-03,2.07E-02
138301,7.19E-03,2.07E-02
138302,6.88E-03,2.05E-02
138303,6.82E-03,2.05E-02
138304,7.12E-03,2.05E-02
138305,7.06E-03,2.04E-02
138306,6.97E-03,2.04E-02
138307,7.00E-03,2.04E-02
138308,6.95E-03,2.04E-02
138309,7.18E-03,2.04E-02
138310,7.24E-03,2.04E-02
138311,7.33E-03,2.04E-02
138312,7.32E-03,2.04E-02
138313,7.12E-03,2.04E-02
138314,7.17E-03,2.05E-02
138315,7.14E-03,2.06E-02
138316,7.33E-03,2.07E-02
138317,7.42E-03,2.09E-02
138318,7.86E-03,2.10E-02
138319,7.48E-03,2.12E-02
138320,8.54E-03,2.15E-02
138321,8.91E-03,2.17E-02
138322,7.98E-03,2.19E-02
138323,7.26E-03,2.21E-02
138324,6.65E-03,2.23E-02
138325,9.51E-03,2.46E-02
138326,8.42E-03,2.46E-02
138327,6.40E-03,2.49E-02
138328,6.86E-03,2.51E-02
138329,9.68E-03,2.54E-02
138330,8.68E-03,2.59E-02
138331,5.58E-03,2.62E-02
138332,5.33E-03,2.63E-02
138333,8.20E-03,2.76E-02
138334,5.42E-03,1.98E-03
138335,5.50E-03,1.89E-03
138336,6.08E-03,2.01E-03
138337,6.02E-03,1.69E-04
138338,7.29E-03,1.73E-04
138339,1.02E-02,1.66E-04
138340,8.91E-03,1.67E-04
138341,7.67E-03,1.75E-04
138342,7.75E-03,1.66E-04
138343,8.84E-03,1.57E-04
138344,9.59E-03,1.49E-04
138345,8.51E-03,1.44E-04
138346,8.44E-03,1.35E-04
138347,8.04E-03,1.34E-04
138348,7.28E-03,1.18E-04
138349,7.32E-03,1.23E-04
138350,7.10E-03,1.27E-04
138351,7.41E-03,1.25E-04
138352,7.56E-03,1.23E-04
138353,7.38E-03,1.26E-04
138354,7.45E-03,1.34E-04
138355,7.54E-03,1.44E-04
138356,7.60E-03,1.55E-04
138357,7.81E-03,1.68E-04
138358,8.08E-03,1.83E-04
138359,8.41E-03,2.00E-04
138360,8.79E-03,2.17E-04
138361,9.03E-03,2.34E-04
138362,5.81E-03,1.51E-04
138363,5.41E-03,1.50E-04
138364,7.29E-03,1.45E-04
138365,7.16E-03,1.45E-04
138366,6.82E-03,1.40E-04
138367,6.57E-03,1.30E-04
138368,6.67E-03,1.27E-04
138369,7.40E-03,1.21E-04
138370,8.32E-03,1.16E-04
138371,9.29E-03,1.15E-04
138372,8.64E-03,1.16E-04
138373,7.39E-03,1.22E-04
138374,7.45E-03,1.31E-04
138375,7.37E-03,1.45E-04
138376,7.33E-03,1.60E-04
138377,7.36E-03,1.75E-04
138378,7.34E-03,1.91E-04
138379,7.43E-03,2.08E-04
138380,7.47E-03,2.24E-04
138381,7.50E-03,2.39E-04
138382,5.60E-03,2.77E-04
138383,1.09E-02,1.64E-04
138384,8.06E-03,2.83E-04
138385,5.16E-03,3.04E-04
138386,4.89E-03,2.89E-04
138387,5.64E-03,3.00E-04
138388,4.98E-03,2.96E-04
138389,3.30E-03,2.93E-04
138390,4.64E-03,2.09E-04
138391,8.61E-03,1.97E-04
138392,8.73E-03,2.15E-04
138393,8.10E-03,2.18E-04
138394,8.52E-03,2.13E-04
138395,8.93E-03,2.08E-04
138396,8.93E-03,2.08E-04
138397,8.58E-03,2.03E-04
138398,8.45E-03,2.04E-04
138399,8.43E-03,2.01E-04
138400,8.64E-03,1.97E-04
138401,8.74E-03,1.87E-04
138402,8.63E-03,1.87E-04
138403,8.42E-03,1.80E-04
138404,8.06E-03,1.71E-04
138405,7.76E-03,1.61E-04
138406,7.52E-03,1.58E-04
138407,7.54E-03,1.56E-04
138408,7.48E-03,1.53E-04
138409,7.51E-03,1.48E-04
138410,7.38E-03,1.45E-04
138411,7.44E-03,1.46E-04
138412,7.45E-03,1.48E-04
138413,7.82E-03,1.52E-04
138414,8.01E-03,1.60E-04
138415,8.21E-03,1.69E-04
138416,8.46E-03,1.82E-04
138417,8.82E-03,1.96E-04
138418,9.46E-03,2.11E-04
138419,1.12E-02,2.27E-04
138420,8.09E-03,1.58E-04
138421,5.64E-03,1.58E-04
138422,5.77E-03,1.57E-04
138423,8.48E-03,1.69E-04
138424,5.08E-03,1.80E-04
138425,4.50E-03,1.86E-04
138426,6.36E-03,2.01E-04
138427,7.24E-03,2.17E-04
138428,7.49E-03,2.30E-04
138429,4.14E-03,2.97E-04
138430,5.23E-03,3.17E-04
138431,5.32E-03,2.99E-04
138432,6.16E-03,2.86E-04
138433,3.95E-03,2.45E-04
138434,6.96E-03,1.81E-04
138435,6.43E-03,1.74E-04
138436,6.59E-03,1.69E-04
138437,6.75E-03,1.69E-04
138438,7.02E-03,1.65E-04
138439,7.01E-03,1.61E-04
138440,6.99E-03,1.54E-04
138441,7.12E-03,1.50E-04
138442,7.46E-03,1.48E-04
138443,8.03E-03,1.45E-04
138444,8.26E-03,1.47E-04
138445,8.13E-03,1.47E-04
138446,7.78E-03,1.54E-04
138447,7.58E-03,1.63E-04
138448,7.47E-03,1.74E-04
138449,7.45E-03,1.87E-04
138450,7.46E-03,2.00E-04
138451,7.43E-03,2.15E-04
138452,7.46E-03,2.29E-04
138453,7.44E-03,2.43E-04
138454,7.38E-03,2.56E-04
138455,7.26E-03,2.68E-04
138456,7.17E-03,2.81E-04
138457,5.34E-03,3.12E-04
138458,4.95E-03,3.16E-04
138459,4.89E-03,3.14E-04
138460,8.81E-03,1.86E-04
138461,9.79E-03,1.99E-04
138462,6.17E-03,2.54E-04
138463,4.10E-03,2.39E-04
138464,6.83E-03,2.49E-04
138465,7.27E-03,2.40E-04
138466,7.54E-03,1.88E-04
138467,7.53E-03,1.72E-04
138468,6.59E-03,1.65E-04
138469,6.47E-03,1.72E-04
138470,6.41E-03,1.73E-04
138471,5.77E-03,1.77E-04
138472,6.03E-03,1.83E-04
138473,6.67E-03,1.90E-04
138474,9.32E-03,2.14E-04
138475,1.15E-02,2.09E-04
138476,1.04E-02,1.97E-04
138477,9.09E-03,1.85E-04
138478,8.77E-03,1.77E-04
138479,8.58E-03,1.71E-04
138480,8.38E-03,1.67E-04
138481,8.12E-03,1.65E-04
138482,8.03E-03,1.66E-04
138483,7.39E-03,1.70E-04
138484,7.47E-03,1.75E-04
138485,7.46E-03,1.80E-04
138486,7.57E-03,1.87E-04
138487,7.60E-03,1.93E-04
138488,7.70E-03,1.99E-04
138489,7.79E-03,2.06E-04
138490,7.91E-03,2.14E-04
138491,8.12E-03,2.21E-04
138492,8.35E-03,2.29E-04
138493,8.48E-03,2.35E-04
138494,8.57E-03,2.40E-04
138495,8.55E-03,2.44E-04
138496,8.53E-03,2.48E-04
138497,8.62E-03,2.50E-04
138498,8.62E-03,2.54E-04
138499,8.69E-03,2.59E-04
138500,8.58E-03,2.63E-04
138501,8.53E-03,2.67E-04
138502,8.50E-03,2.70E-04
138503,8.86E-03,2.70E-04
138504,9.20E-03,2.65E-04
138505,7.83E-03,3.01E-04
138506,7.45E-03,3.13E-04
138507,4.83E-03,2.32E-04
138508,6.33E-03,3.16E-04
138509,5.93E-03,3.22E-04
138510,6.31E-03,3.13E-04
138511,6.74E-03,3.07E-04
138512,7.14E-03,3.03E-04
138513,6.50E-03,2.89E-04
138514,6.19E-03,2.72E-04
138515,4.98E-03,3.21E-04
138516,4.94E-03,3.23E-04
138517,5.59E-03,3.26E-04
138518,4.38E-03,2.08E-04
138519,6.26E-03,2.02E-04
138520,6.44E-03,2.01E-04
138521,6.76E-03,2.01E-04
138522,7.12E-03,2.00E-04
138523,7.09E-03,1.98E-04
138524,7.12E-03,1.93E-04
138525,7.21E-03,1.89E-04
138526,7.41E-03,1.87E-04
138527,7.64E-03,1.84E-04
138528,7.82E-03,1.86E-04
138529,7.99E-03,1.87E-04
138530,7.95E-03,1.89E-04
138531,7.84E-03,1.92E-04
138532,7.69E-03,1.99E-04
138533,7.56E-03,2.08E-04
138534,7.58E-03,2.18E-04
138535,7.54E-03,2.29E-04
138536,7.50E-03,2.41E-04
138537,7.54E-03,2.52E-04
138538,7.44E-03,2.63E-04
138539,7.32E-03,2.74E-04
138540,7.24E-03,2.83E-04
138541,6.22E-03,2.91E-04
138542,6.81E-03,3.00E-04
138543,9.10E-03,2.04E-04
138544,4.21E-03,2.15E-04
138545,6.85E-03,1.94E-04
138546,9.57E-03,1.61E-03
138547,7.29E-03,1.59E-03
138548,7.44E-03,1.58E-03
138549,7.75E-03,1.55E-03
138550,7.84E-03,1.52E-03
138551,7.84E-03,1.50E-03
138552,7.89E-03,1.48E-03
138553,7.93E-03,1.46E-03
138554,8.10E-03,1.44E-03
138555,8.32E-03,1.40E-03
138556,5.99E-03,1.36E-03
138557,5.17E-03,1.35E-03
138558,7.60E-03,1.36E-03
138559,7.82E-03,1.37E-03
138560,8.48E-03,1.39E-03
138561,8.00E-03,1.38E-03
138562,6.87E-03,1.29E-03
138563,7.42E-03,1.29E-03
138564,7.21E-03,1.26E-03
138565,7.30E-03,1.25E-03
138566,8.15E-03,1.23E-03
138567,8.06E-03,1.22E-03
138568,7.82E-03,1.20E-03
138569,7.95E-03,1.16E-03
138570,8.83E-03,1.53E-03
138571,5.38E-03,9.83E-04
138572,7.14E-03,1.47E-03
138573,8.08E-03,1.55E-03
138574,7.04E-03,1.68E-03
138575,5.02E-03,1.67E-03
138576,6.42E-03,1.01E-03
138577,6.80E-03,1.03E-03
138578,7.37E-03,1.04E-03
138579,6.99E-03,1.13E-03
138580,7.11E-03,1.11E-03
138581,7.34E-03,1.08E-03
138582,3.81E-03,1.02E-03
138583,7.09E-03,1.10E-03
138584,7.97E-03,1.27E-03
138585,8.54E-03,1.17E-03
138586,7.16E-03,1.56E-03
138587,5.39E-03,1.58E-03
138588,4.26E-03,1.63E-03
138589,6.06E-03,1.68E-03
138590,7.25E-03,1.71E-03
138591,7.60E-03,1.76E-03
138592,7.40E-03,1.80E-03
138593,6.82E-03,1.86E-03
138594,7.06E-03,1.83E-03
138595,7.83E-03,1.27E-03
138596,7.87E-03,1.28E-03
138597,7.68E-03,1.44E-03
138598,7.97E-03,1.42E-03
138599,7.75E-03,1.40E-03
138600,7.73E-03,1.39E-03
138601,7.73E-03,1.37E-03
138602,7.79E-03,1.36E-03
138603,7.54E-03,1.34E-03
138604,5.50E-03,1.32E-03
138605,5.47E-03,1.30E-03
138606,8.21E-03,1.28E-03
138607,8.83E-03,1.28E-03
138608,4.87E-03,9.06E-04
138609,3.75E-03,9.14E-04
138610,4.79E-03,9.10E-04
138611,9.28E-03,9.40E-04
138612,7.08E-03,9.25E-04
138613,6.02E-03,8.95E-04
138614,8.34E-03,9.54E-04
138615,8.20E-03,9.93E-04
138616,9.97E-03,1.02E-03
138617,8.33E-03,1.05E-03
138618,7.16E-03,1.09E-03
138619,7.38E-03,1.11E-03
138620,8.34E-03,1.13E-03
138621,8.46E-03,1.13E-03
138622,7.73E-03,1.16E-03
138623,7.47E-03,1.19E-03
138624,7.41E-03,1.21E-03
138625,7.79E-03,1.23E-03
138626,7.89E-03,1.25E-03
138627,7.93E-03,1.27E-03
138628,7.96E-03,1.29E-03
138629,7.85E-03,1.31E-03
138630,7.84E-03,1.33E-03
138631,8.24E-03,1.33E-03
138632,8.54E-03,1.37E-03
138633,7.99E-03,1.40E-03
138634,6.44E-03,1.43E-03
138635,7.23E-03,1.45E-03
138636,7.79E-03,1.46E-03
138637,8.28E-03,1.47E-03
138638,9.20E-03,1.48E-03
138639,9.21E-03,1.48E-03
138640,8.30E-03,1.52E-03
138641,8.12E-03,1.54E-03
138642,8.02E-03,1.57E-03
138643,7.93E-03,1.59E-03
138644,7.94E-03,1.62E-03
138645,7.84E-03,1.64E-03
138646,7.82E-03,1.67E-03
138647,8.12E-03,1.69E-03
138648,8.54E-03,1.71E-03
138649,8.88E-03,1.74E-03
138650,8.90E-03,1.77E-03
138651,8.75E-03,1.80E-03
138652,9.11E-03,1.80E-03
138653,7.76E-03,1.91E-03
138654,7.43E-03,1.95E-03
138655,7.15E-03,2.00E-03
138656,7.33E-03,1.13E-03
138657,8.65E-03,1.14E-03
138658,8.90E-03,1.14E-03
138659,6.80E-03,1.98E-04
138660,6.46E-03,2.02E-04
138661,5.61E-03,2.02E-04
138662,4.00E-03,2.08E-04
138663,5.20E-03,2.23E-04
138664,4.36E-03,2.33E-04
138665,5.96E-03,2.42E-04
138666,6.42E-03,2.44E-04
138667,6.93E-03,2.43E-04
138668,7.09E-03,2.40E-04
138669,7.40E-03,2.36E-04
138670,7.52E-03,2.33E-04
138671,7.76E-03,2.32E-04
138672,7.76E-03,2.31E-04
138673,7.76E-03,2.29E-04
138674,7.90E-03,2.29E-04
138675,7.96E-03,2.31E-04
138676,7.94E-03,2.33E-04
138677,7.79E-03,2.36E-04
138678,7.73E-03,2.40E-04
138679,7.73E-03,2.46E-04
138680,7.70E-03,2.53E-04
138681,7.62E-03,2.61E-04
138682,7.60E-03,2.68E-04
138683,7.59E-03,2.76E-04
138684,7.49E-03,2.84E-04
138685,7.44E-03,2.91E-04
138686,7.45E-03,2.96E-04
138687,6.33E-03,3.01E-04
138688,5.57E-03,3.03E-04
138689,5.83E-03,3.06E-04
138690,8.16E-03,4.56E-02
138691,7.99E-03,4.59E-02
138692,7.93E-03,4.60E-02
138693,7.90E-03,4.61E-02
138694,7.94E-03,4.62E-02
138695,7.94E-03,4.63E-02
138696,7.94E-03,4.64E-02
138697,7.94E-03,4.65E-02
138698,7.94E-03,4.66E-02
138699,7.94E-03,4.68E-02
138700,7.94E-03,4.69E-02
138701,7.94E-03,4.71E-02
138702,7.94E-03,4.74E-02
138703,7.94E-03,4.76E-02
138704,7.94E-03,4.79E-02
138705,7.94E-03,4.83E-02
138706,7.94E-03,4.88E-02
138707,7.94E-03,4.93E-02
138708,7.94E-03,4.99E-02
138709,7.94E-03,5.07E-02
138710,7.94E-03,5.16E-02
138711,7.94E-03,5.26E-02
138712,7.94E-03,5.37E-02
138713,7.94E-03,5.50E-02
138714,7.94E-03,5.65E-02
138715,7.94E-03,5.81E-02
138716,7.94E-03,6.00E-02
138717,7.94E-03,6.21E-02
138718,7.94E-03,6.45E-02
138719,7.94E-03,6.73E-02
138720,7.94E-03,7.05E-02
138721,7.94E-03,7.41E-02
138722,7.94E-03,7.82E-02
138723,7.94E-03,8.30E-02
138724,7.94E-03,8.85E-02
138725,7.94E-03,9.48E-02
138726,7.94E-03,0.10225
138727,7.89E-03,0.11111
138728,7.79E-03,0.12155
138729,7.68E-03,0.13379
138730,7.53E-03,0.14808
138731,7.42E-03,0.16392
138732,7.34E-03,0.1817
138733,6.90E-03,0.1974
138734,5.77E-03,0.19392
138735,6.43E-03,0.16959
138736,6.60E-03,0.14833
138737,6.69E-03,0.11882
138738,6.59E-03,9.50E-02
138739,6.29E-03,7.78E-02
138740,5.67E-03,6.62E-02
138741,5.49E-03,5.88E-02
138742,6.45E-03,5.07E-02
138743,7.07E-03,4.86E-02
138744,7.37E-03,4.70E-02
138745,7.47E-03,4.63E-02
138746,7.56E-03,4.49E-02
138747,7.70E-03,4.33E-02
138748,7.86E-03,4.16E-02
138749,7.96E-03,3.99E-02
138750,8.01E-03,3.82E-02
138751,8.10E-03,3.65E-02
138752,8.09E-03,3.48E-02
138753,7.93E-03,3.31E-02
138754,7.85E-03,3.15E-02
138755,7.68E-03,3.00E-02
138756,7.54E-03,2.86E-02
138757,7.44E-03,2.73E-02
138758,7.35E-03,2.63E-02
138759,7.41E-03,2.56E-02
138760,7.48E-03,2.49E-02
138761,7.64E-03,2.42E-02
138762,7.78E-03,2.38E-02
138763,7.57E-03,2.36E-02
138764,7.64E-03,2.34E-02
138765,7.69E-03,2.31E-02
138766,7.71E-03,2.30E-02
138767,7.92E-03,2.29E-02
138768,8.10E-03,2.29E-02
138769,8.12E-03,2.28E-02
138770,8.39E-03,2.27E-02
138771,8.55E-03,2.23E-02
138772,8.59E-03,2.18E-02
138773,8.21E-03,2.14E-02
138774,8.17E-03,2.11E-02
138775,8.07E-03,2.05E-02
138776,7.92E-03,1.98E-02
138777,8.17E-03,1.92E-02
138778,7.86E-03,1.87E-02
138779,8.06E-03,1.83E-02
138780,8.24E-03,1.77E-02
138781,8.46E-03,1.71E-02
138782,8.57E-03,1.64E-02
138783,8.22E-03,1.59E-02
138784,7.92E-03,1.52E-02
138785,7.67E-03,1.46E-02
138786,7.77E-03,1.41E-02
138787,7.90E-03,1.36E-02
138788,8.80E-03,1.30E-02
138789,8.88E-03,1.26E-02
138790,8.60E-03,1.21E-02
138791,8.37E-03,1.14E-02
138792,8.13E-03,1.07E-02
138793,7.90E-03,1.00E-02
138794,7.94E-03,9.40E-03
138795,7.54E-03,8.85E-03
138796,7.57E-03,8.39E-03
138797,7.44E-03,8.06E-03
138798,7.52E-03,7.82E-03
138799,7.99E-03,7.60E-03
138800,8.57E-03,7.30E-03
138801,8.73E-03,7.09E-03
138802,8.77E-03,6.81E-03
138803,8.47E-03,6.40E-03
138804,8.38E-03,5.98E-03
138805,8.25E-03,5.57E-03
138806,8.19E-03,5.18E-03
138807,8.10E-03,4.81E-03
138808,8.10E-03,4.46E-03
138809,8.01E-03,4.14E-03
138810,7.88E-03,3.84E-03
138811,7.75E-03,3.56E-03
138812,7.59E-03,3.31E-03
138813,7.53E-03,3.07E-03
138814,7.46E-03,2.86E-03
138815,7.02E-03,2.73E-03
138816,7.10E-03,2.66E-03
138817,7.32E-03,2.62E-03
138818,7.52E-03,2.61E-03
138819,7.72E-03,2.60E-03
138820,7.87E-03,2.56E-03
138821,7.90E-03,2.52E-03
138822,7.81E-03,2.48E-03
138823,7.85E-03,2.45E-03
138824,7.81E-03,2.46E-03
138825,9.47E-03,2.59E-03
138826,1.03E-02,2.61E-03
138827,8.05E-03,2.45E-03
138828,7.67E-03,2.32E-03
138829,7.64E-03,2.22E-03
138830,7.15E-03,2.17E-03
138831,7.18E-03,2.16E-03
138832,7.51E-03,2.18E-03
138833,8.07E-03,2.21E-03
138834,9.19E-03,2.23E-03
138835,9.12E-03,2.23E-03
138836,7.57E-03,2.14E-03
138837,7.30E-03,2.06E-03
138838,7.33E-03,2.00E-03
138839,7.48E-03,1.96E-03
138840,7.60E-03,1.95E-03
138841,7.66E-03,1.95E-03
138842,7.66E-03,1.95E-03
138843,7.65E-03,1.95E-03
138844,7.59E-03,1.97E-03
138845,7.35E-03,2.00E-03
138846,7.78E-03,2.07E-03
138847,7.86E-03,2.15E-03
138848,7.97E-03,2.22E-03
138849,8.53E-03,2.29E-03
138850,8.99E-03,2.33E-03
138851,8.94E-03,2.34E-03
138852,8.09E-03,2.33E-03
138853,8.01E-03,2.30E-03
138854,7.99E-03,2.27E-03
138855,7.94E-03,2.25E-03
138856,7.89E-03,2.24E-03
138857,8.03E-03,2.23E-03
138858,8.09E-03,2.22E-03
138859,8.09E-03,2.22E-03
138860,8.09E-03,2.21E-03
138861,8.10E-03,2.20E-03
138862,8.10E-03,2.20E-03
138863,8.10E-03,2.19E-03
138864,8.10E-03,2.18E-03
138865,8.17E-03,2.17E-03
138866,8.23E-03,2.15E-03
138867,8.29E-03,2.13E-03
138868,8.36E-03,2.11E-03
138869,8.65E-03,2.07E-03
138870,8.90E-03,2.02E-03
138871,8.45E-03,1.94E-03
138872,8.37E-03,1.86E-03
138873,8.32E-03,1.76E-03
138874,8.31E-03,1.67E-03
138875,8.42E-03,1.58E-03
138876,8.67E-03,1.49E-03
138877,8.72E-03,1.37E-03
138878,8.61E-03,1.28E-03
138879,8.05E-03,1.17E-03
138880,7.77E-03,1.03E-03
138881,7.70E-03,9.04E-04
138882,7.44E-03,8.06E-04
138883,7.65E-03,7.31E-04
138884,7.69E-03,6.65E-04
138885,7.87E-03,6.06E-04
138886,7.94E-03,5.53E-04
138887,8.10E-03,5.02E-04
138888,8.24E-03,4.55E-04
138889,8.19E-03,4.10E-04
138890,8.22E-03,3.65E-04
138891,8.29E-03,3.33E-04
138892,8.53E-03,3.01E-04
138893,8.38E-03,2.88E-04
138894,8.31E-03,2.89E-04
138895,7.92E-03,3.04E-04
138896,7.65E-03,3.19E-04
138897,7.41E-03,3.56E-04
138898,7.41E-03,4.02E-04
138899,7.27E-03,4.36E-04
138900,7.42E-03,4.56E-04
138901,7.74E-03,4.67E-04
138902,7.96E-03,4.81E-04
138903,8.06E-03,4.97E-04
138904,8.17E-03,5.35E-04
138905,7.28E-03,5.68E-04
138906,7.38E-03,5.93E-04
138907,7.76E-03,6.08E-04
138908,7.99E-03,6.24E-04
138909,8.16E-03,6.40E-04
138910,8.20E-03,6.59E-04
138911,8.31E-03,6.75E-04
138912,8.46E-03,6.93E-04
138913,8.63E-03,7.11E-04
138914,8.70E-03,7.34E-04
138915,8.39E-03,7.65E-04
138916,8.08E-03,7.98E-04
138917,8.03E-03,8.33E-04
138918,7.36E-03,8.68E-04
138919,7.32E-03,8.86E-04
138920,7.43E-03,8.94E-04
138921,7.65E-03,8.97E-04
138922,7.95E-03,9.00E-04
138923,8.14E-03,8.96E-04
138924,8.61E-03,8.95E-04
138925,8.63E-03,9.08E-04
138926,8.12E-03,9.27E-04
138927,8.07E-03,9.53E-04
138928,8.01E-03,9.63E-04
138929,7.98E-03,9.65E-04
138930,8.04E-03,9.57E-04
138931,8.74E-03,9.46E-04
138932,8.89E-03,9.48E-04
138933,8.18E-03,9.68E-04
138934,7.36E-03,9.85E-04
138935,7.26E-03,9.86E-04
138936,7.39E-03,9.82E-04
138937,7.44E-03,9.77E-04
138938,7.56E-03,9.71E-04
138939,7.66E-03,9.65E-04
138940,7.75E-03,9.58E-04
138941,7.84E-03,9.51E-04
138942,7.92E-03,9.44E-04
138943,7.97E-03,9.37E-04
138944,8.00E-03,9.29E-04
138945,8.01E-03,9.21E-04
138946,8.02E-03,9.12E-04
138947,8.02E-03,9.02E-04
138948,8.00E-03,8.91E-04
138949,7.98E-03,8.79E-04
138950,7.96E-03,8.65E-04
138951,7.94E-03,8.50E-04
138952,7.95E-03,8.34E-04
138953,7.98E-03,8.15E-04
138954,8.00E-03,7.95E-04
138955,8.01E-03,7.74E-04
138956,8.02E-03,7.52E-04
138957,8.02E-03,7.29E-04
138958,8.00E-03,7.05E-04
138959,7.98E-03,6.80E-04
138960,7.99E-03,6.53E-04
138961,8.00E-03,6.25E-04
138962,8.02E-03,5.95E-04
138963,8.02E-03,5.65E-04
138964,8.03E-03,5.33E-04
138965,8.04E-03,5.01E-04
138966,8.04E-03,4.68E-04
138967,8.05E-03,4.35E-04
138968,8.05E-03,4.02E-04
138969,8.06E-03,3.69E-04
138970,8.06E-03,3.38E-04
138971,8.06E-03,3.09E-04
138972,8.07E-03,2.84E-04
138973,8.07E-03,2.66E-04
138974,8.08E-03,2.55E-04
138975,8.11E-03,2.55E-04
138976,8.12E-03,2.66E-04
138977,8.12E-03,2.88E-04
138978,8.12E-03,3.19E-04
138979,8.13E-03,3.58E-04
138980,8.13E-03,4.02E-04
138981,8.14E-03,4.51E-04
138982,8.15E-03,5.04E-04
138983,8.18E-03,5.59E-04
138984,8.19E-03,6.16E-04
138985,8.19E-03,6.75E-04
138986,8.20E-03,7.35E-04
138987,8.23E-03,7.95E-04
138988,8.26E-03,8.54E-04
138989,8.30E-03,9.13E-04
138990,8.35E-03,9.70E-04
138991,8.34E-03,1.02E-03
138992,8.28E-03,1.08E-03
138993,8.23E-03,1.12E-03
138994,8.21E-03,1.17E-03
138995,8.21E-03,1.22E-03
138996,8.24E-03,1.26E-03
138997,8.28E-03,1.30E-03
138998,8.31E-03,1.34E-03
138999,8.22E-03,1.37E-03
139000,8.11E-03,1.40E-03
139001,8.10E-03,1.43E-03
139002,8.10E-03,1.46E-03
139003,8.09E-03,1.49E-03
139004,8.10E-03,1.52E-03
139005,8.13E-03,1.55E-03
139006,8.18E-03,1.58E-03
139007,8.22E-03,1.61E-03
139008,8.24E-03,1.63E-03
139009,8.26E-03,1.65E-03
139010,8.28E-03,1.67E-03
139011,8.23E-03,1.68E-03
139012,8.06E-03,1.69E-03
139013,7.94E-03,1.70E-03
139014,7.94E-03,1.71E-03
139015,7.95E-03,1.72E-03
139016,7.96E-03,1.74E-03
139017,7.93E-03,1.76E-03
139018,7.85E-03,1.78E-03
139019,7.84E-03,1.81E-03
139020,7.89E-03,1.84E-03
139021,7.92E-03,1.88E-03
139022,7.95E-03,1.92E-03
139023,7.97E-03,1.96E-03
139024,7.98E-03,2.01E-03
139025,8.01E-03,2.06E-03
139026,8.09E-03,2.12E-03
139027,8.20E-03,2.17E-03
139028,8.26E-03,2.22E-03
139029,8.29E-03,2.27E-03
139030,8.33E-03,2.31E-03
139031,8.39E-03,2.35E-03
139032,8.50E-03,2.37E-03
139033,8.61E-03,2.39E-03
139034,8.33E-03,2.40E-03
139035,7.88E-03,2.41E-03
139036,7.80E-03,2.41E-03
139037,7.85E-03,2.42E-03
139038,7.88E-03,2.43E-03
139039,7.91E-03,2.45E-03
139040,7.88E-03,2.47E-03
139041,7.78E-03,2.50E-03
139042,7.76E-03,2.53E-03
139043,7.85E-03,2.58E-03
139044,7.92E-03,2.63E-03
139045,7.96E-03,2.69E-03
139046,7.98E-03,2.75E-03
139047,8.00E-03,2.82E-03
139048,8.02E-03,2.89E-03
139049,8.03E-03,2.96E-03
139050,8.04E-03,3.04E-03
139051,8.05E-03,3.13E-03
139052,8.05E-03,3.21E-03
139053,8.06E-03,3.30E-03
139054,8.11E-03,3.40E-03
139055,8.16E-03,3.49E-03
139056,8.18E-03,3.59E-03
139057,8.19E-03,3.69E-03
139058,8.21E-03,3.79E-03
139059,8.23E-03,3.88E-03
139060,8.26E-03,3.98E-03
139061,8.30E-03,4.06E-03
139062,8.42E-03,4.14E-03
139063,8.49E-03,4.21E-03
139064,8.72E-03,4.25E-03
139065,8.85E-03,4.28E-03
139066,8.62E-03,4.29E-03
139067,8.58E-03,4.28E-03
139068,8.48E-03,4.25E-03
139069,8.14E-03,4.21E-03
139070,7.95E-03,4.17E-03
139071,7.25E-03,4.14E-03
139072,7.38E-03,4.13E-03
139073,7.59E-03,4.13E-03
139074,7.75E-03,4.16E-03
139075,7.90E-03,4.21E-03
139076,7.98E-03,4.26E-03
139077,8.11E-03,4.32E-03
139078,8.29E-03,4.38E-03
139079,8.38E-03,4.44E-03
139080,8.48E-03,4.48E-03
139081,8.65E-03,4.50E-03
139082,8.88E-03,4.51E-03
139083,8.63E-03,4.51E-03
139084,7.66E-03,4.50E-03
139085,7.41E-03,4.49E-03
139086,7.59E-03,4.49E-03
139087,7.74E-03,4.50E-03
139088,7.90E-03,4.53E-03
139089,8.00E-03,4.56E-03
139090,8.14E-03,4.61E-03
139091,8.26E-03,4.65E-03
139092,8.30E-03,4.68E-03
139093,8.38E-03,4.71E-03
139094,8.40E-03,4.74E-03
139095,8.29E-03,4.75E-03
139096,8.09E-03,4.76E-03
139097,7.86E-03,4.77E-03
139098,7.81E-03,4.79E-03
139099,7.83E-03,4.81E-03
139100,7.88E-03,4.84E-03
139101,7.99E-03,4.87E-03
139102,8.05E-03,4.91E-03
139103,8.14E-03,4.96E-03
139104,8.24E-03,5.00E-03
139105,8.30E-03,5.03E-03
139106,8.35E-03,5.06E-03
139107,8.41E-03,5.08E-03
139108,8.36E-03,5.08E-03
139109,8.20E-03,5.09E-03
139110,8.01E-03,5.08E-03
139111,7.92E-03,5.08E-03
139112,7.95E-03,5.07E-03
139113,7.98E-03,5.07E-03
139114,8.00E-03,5.07E-03
139115,8.02E-03,5.08E-03
139116,8.06E-03,5.08E-03
139117,8.09E-03,5.09E-03
139118,8.10E-03,5.10E-03
139119,8.09E-03,5.11E-03
139120,8.09E-03,5.12E-03
139121,8.02E-03,5.14E-03
139122,7.83E-03,5.16E-03
139123,7.64E-03,5.19E-03
139124,7.79E-03,5.23E-03
139125,7.87E-03,5.28E-03
139126,7.92E-03,5.35E-03
139127,7.97E-03,5.43E-03
139128,7.99E-03,5.51E-03
139129,7.94E-03,5.61E-03
139130,7.95E-03,5.72E-03
139131,8.08E-03,5.83E-03
139132,8.16E-03,5.95E-03
139133,8.17E-03,6.07E-03
139134,8.20E-03,6.19E-03
139135,8.30E-03,6.30E-03
139136,8.39E-03,6.41E-03
139137,8.55E-03,6.50E-03
139138,8.61E-03,6.57E-03
139139,8.75E-03,6.61E-03
139140,8.91E-03,6.59E-03
139141,8.95E-03,6.53E-03
139142,8.74E-03,6.45E-03
139143,8.61E-03,6.32E-03
139144,8.58E-03,6.16E-03
139145,8.09E-03,6.00E-03
139146,7.28E-03,5.86E-03
139147,7.26E-03,5.73E-03
139148,7.59E-03,5.61E-03
139149,8.01E-03,5.51E-03
139150,8.28E-03,5.40E-03
139151,8.47E-03,5.29E-03
139152,8.37E-03,5.17E-03
139153,7.75E-03,5.06E-03
139154,7.62E-03,4.97E-03
139155,7.61E-03,4.87E-03
139156,7.58E-03,4.81E-03
139157,7.68E-03,4.78E-03
139158,7.74E-03,4.75E-03
139159,7.89E-03,4.73E-03
139160,8.04E-03,4.70E-03
139161,8.00E-03,4.65E-03
139162,7.77E-03,4.58E-03
139163,7.50E-03,4.53E-03
139164,7.59E-03,4.49E-03
139165,7.43E-03,4.46E-03
139166,7.47E-03,4.46E-03
139167,7.53E-03,4.51E-03
139168,7.63E-03,4.59E-03
139169,7.72E-03,4.69E-03
139170,7.83E-03,4.79E-03
139171,7.96E-03,4.89E-03
139172,8.04E-03,4.99E-03
139173,8.05E-03,5.10E-03
139174,8.05E-03,5.20E-03
139175,8.06E-03,5.30E-03
139176,8.07E-03,5.40E-03
139177,8.07E-03,5.50E-03
139178,8.08E-03,5.59E-03
139179,8.08E-03,5.68E-03
139180,8.08E-03,5.77E-03
139181,8.08E-03,5.86E-03
139182,8.08E-03,5.95E-03
139183,8.08E-03,6.03E-03
139184,8.08E-03,6.12E-03
139185,8.08E-03,6.20E-03
139186,8.08E-03,6.27E-03
139187,8.08E-03,6.35E-03
139188,8.08E-03,6.42E-03
139189,8.09E-03,6.50E-03
139190,8.09E-03,6.57E-03
139191,8.09E-03,6.63E-03
139192,8.09E-03,6.70E-03
139193,8.09E-03,6.76E-03
139194,8.09E-03,6.82E-03
139195,8.09E-03,6.88E-03
139196,8.09E-03,6.93E-03
139197,8.09E-03,6.98E-03
139198,8.09E-03,7.03E-03
139199,8.08E-03,7.08E-03
139200,8.08E-03,7.12E-03
139201,8.08E-03,7.16E-03
139202,8.08E-03,7.19E-03
139203,8.07E-03,7.22E-03
139204,8.07E-03,7.25E-03
139205,8.07E-03,7.27E-03
139206,8.06E-03,7.29E-03
139207,8.06E-03,7.30E-03
139208,8.05E-03,7.31E-03
139209,8.04E-03,7.31E-03
139210,8.03E-03,7.32E-03
139211,7.96E-03,7.32E-03
139212,7.80E-03,7.33E-03
139213,7.79E-03,7.34E-03
139214,7.72E-03,7.37E-03
139215,7.57E-03,7.42E-03
139216,7.36E-03,7.52E-03
139217,7.38E-03,7.66E-03
139218,7.44E-03,7.85E-03
139219,7.53E-03,8.11E-03
139220,7.77E-03,8.41E-03
139221,7.97E-03,8.73E-03
139222,8.08E-03,9.05E-03
139223,8.53E-03,9.38E-03
139224,8.55E-03,9.71E-03
139225,8.45E-03,1.00E-02
139226,8.38E-03,1.03E-02
139227,8.34E-03,1.05E-02
139228,8.30E-03,1.07E-02
139229,8.27E-03,1.09E-02
139230,8.26E-03,1.11E-02
139231,8.24E-03,1.13E-02
139232,8.21E-03,1.14E-02
139233,8.19E-03,1.16E-02
139234,8.17E-03,1.17E-02
139235,8.16E-03,1.18E-02
139236,8.15E-03,1.19E-02
139237,8.15E-03,1.20E-02
139238,8.14E-03,1.21E-02
139239,8.13E-03,1.22E-02
139240,8.14E-03,1.23E-02
139241,8.15E-03,1.24E-02
139242,8.16E-03,1.25E-02
139243,8.12E-03,1.25E-02
139244,8.08E-03,1.26E-02
139245,8.08E-03,1.27E-02
139246,8.08E-03,1.27E-02
139247,8.08E-03,1.28E-02
139248,8.08E-03,1.29E-02
139249,8.07E-03,1.29E-02
139250,8.07E-03,1.30E-02
139251,8.06E-03,1.30E-02
139252,8.05E-03,1.31E-02
139253,8.03E-03,1.31E-02
139254,8.00E-03,1.32E-02
139255,7.95E-03,1.33E-02
139256,7.86E-03,1.34E-02
139257,7.78E-03,1.35E-02
139258,7.67E-03,1.37E-02
139259,7.48E-03,1.39E-02
139260,7.14E-03,1.42E-02
139261,7.86E-03,1.45E-02
139262,8.10E-03,1.48E-02
139263,8.44E-03,1.52E-02
139264,8.43E-03,1.56E-02
139265,8.43E-03,1.60E-02
139266,8.50E-03,1.63E-02
139267,8.52E-03,1.66E-02
139268,8.44E-03,1.69E-02
139269,8.37E-03,1.71E-02
139270,8.32E-03,1.72E-02
139271,8.28E-03,1.73E-02
139272,8.24E-03,1.74E-02
139273,8.19E-03,1.75E-02
139274,8.15E-03,1.75E-02
139275,8.14E-03,1.75E-02
139276,8.14E-03,1.75E-02
139277,8.14E-03,1.74E-02
139278,8.14E-03,1.74E-02
139279,8.13E-03,1.73E-02
139280,8.08E-03,1.73E-02
139281,8.00E-03,1.72E-02
139282,7.87E-03,1.71E-02
139283,7.78E-03,1.70E-02
139284,7.62E-03,1.69E-02
139285,7.60E-03,1.69E-02
139286,7.52E-03,1.69E-02
139287,7.40E-03,1.71E-02
139288,7.31E-03,1.74E-02
139289,7.26E-03,1.79E-02
139290,7.56E-03,1.85E-02
139291,7.83E-03,1.93E-02
139292,8.04E-03,2.01E-02
139293,8.43E-03,2.08E-02
139294,8.55E-03,2.16E-02
139295,8.66E-03,2.23E-02
139296,8.61E-03,2.28E-02
139297,8.47E-03,2.33E-02
139298,8.40E-03,2.37E-02
139299,8.30E-03,2.40E-02
139300,8.23E-03,2.43E-02
139301,8.23E-03,2.45E-02
139302,8.22E-03,2.47E-02
139303,8.21E-03,2.49E-02
139304,8.20E-03,2.51E-02
139305,8.20E-03,2.53E-02
139306,8.19E-03,2.55E-02
139307,8.18E-03,2.56E-02
139308,8.18E-03,2.58E-02
139309,8.23E-03,2.59E-02
139310,8.32E-03,2.60E-02
139311,8.33E-03,2.60E-02
139312,8.29E-03,2.61E-02
139313,8.26E-03,2.61E-02
139314,8.23E-03,2.61E-02
139315,8.21E-03,2.60E-02
139316,8.20E-03,2.59E-02
139317,8.19E-03,2.58E-02
139318,8.18E-03,2.57E-02
139319,8.15E-03,2.55E-02
139320,8.11E-03,2.54E-02
139321,8.07E-03,2.52E-02
139322,8.06E-03,2.51E-02
139323,8.04E-03,2.49E-02
139324,8.01E-03,2.48E-02
139325,7.96E-03,2.47E-02
139326,7.95E-03,2.46E-02
139327,7.94E-03,2.45E-02
139328,7.84E-03,2.45E-02
139329,7.62E-03,2.45E-02
139330,7.67E-03,2.46E-02
139331,8.01E-03,2.46E-02
139332,8.15E-03,2.47E-02
139333,8.16E-03,2.49E-02
139334,8.18E-03,2.50E-02
139335,8.18E-03,2.51E-02
139336,8.17E-03,2.51E-02
139337,8.12E-03,2.52E-02
139338,8.09E-03,2.52E-02
139339,8.02E-03,2.53E-02
139340,7.80E-03,2.54E-02
139341,7.65E-03,2.56E-02
139342,7.57E-03,2.58E-02
139343,7.37E-03,2.61E-02
139344,7.78E-03,2.63E-02
139345,8.64E-03,2.65E-02
139346,8.82E-03,2.68E-02
139347,8.61E-03,2.70E-02
139348,8.38E-03,2.72E-02
139349,8.32E-03,2.72E-02
139350,8.23E-03,2.72E-02
139351,8.01E-03,2.72E-02
139352,7.98E-03,2.71E-02
139353,7.89E-03,2.71E-02
139354,7.86E-03,2.71E-02
139355,7.81E-03,2.71E-02
139356,7.77E-03,2.72E-02
139357,7.78E-03,2.73E-02
139358,7.82E-03,2.76E-02
139359,7.87E-03,2.79E-02
139360,8.03E-03,2.82E-02
139361,8.01E-03,2.86E-02
139362,8.05E-03,2.90E-02
139363,8.11E-03,2.94E-02
139364,8.04E-03,2.97E-02
139365,8.06E-03,3.00E-02
139366,8.10E-03,3.02E-02
139367,8.28E-03,3.03E-02
139368,8.40E-03,3.03E-02
139369,8.37E-03,3.02E-02
139370,8.27E-03,3.00E-02
139371,8.16E-03,2.98E-02
139372,8.09E-03,2.94E-02
139373,8.14E-03,2.90E-02
139374,8.12E-03,2.86E-02
139375,8.01E-03,2.82E-02
139376,7.98E-03,2.78E-02
139377,7.97E-03,2.74E-02
139378,7.99E-03,2.71E-02
139379,8.01E-03,2.68E-02
139380,7.98E-03,2.66E-02
139381,7.95E-03,2.64E-02
139382,7.99E-03,2.62E-02
139383,8.11E-03,2.60E-02
139384,8.13E-03,2.58E-02
139385,8.17E-03,2.56E-02
139386,8.22E-03,2.53E-02
139387,7.91E-03,2.50E-02
139388,7.75E-03,2.47E-02
139389,7.24E-03,2.42E-02
139390,6.47E-03,2.38E-02
139391,5.91E-03,2.35E-02
139392,5.54E-03,2.43E-02
139393,5.58E-03,2.55E-02
139394,6.44E-03,2.66E-02
139395,7.40E-03,1.36E-03
139396,6.25E-03,3.30E-04
139397,5.50E-03,3.28E-04
139398,6.78E-03,0.27618
139399,1.15E-02,2.54E-02
139400,9.05E-03,2.57E-02
139401,8.56E-03,2.53E-02
139402,8.30E-03,2.46E-02
139403,8.13E-03,2.38E-02
139404,7.99E-03,2.32E-02
139405,7.91E-03,2.26E-02
139406,7.84E-03,2.20E-02
139407,7.80E-03,2.16E-02
139408,7.73E-03,2.12E-02
139409,7.71E-03,2.09E-02
139410,7.68E-03,2.07E-02
139411,7.44E-03,2.06E-02
139412,7.53E-03,2.06E-02
139413,7.71E-03,2.06E-02
139414,8.11E-03,2.06E-02
139415,8.21E-03,2.06E-02
139416,8.97E-03,2.06E-02
139417,8.13E-03,2.06E-02
139418,7.91E-03,2.06E-02
139419,7.53E-03,2.07E-02
139420,7.17E-03,2.08E-02
139421,7.21E-03,2.09E-02
139422,7.43E-03,2.08E-02
139423,8.67E-03,2.08E-02
139424,8.58E-03,2.10E-02
139425,8.21E-03,2.11E-02
139426,8.06E-03,2.10E-02
139427,7.63E-03,2.09E-02
139428,7.45E-03,2.07E-02
139429,7.31E-03,2.05E-02
139430,7.24E-03,2.04E-02
139431,7.18E-03,2.03E-02
139432,7.25E-03,2.04E-02
139433,6.75E-03,2.06E-02
139434,7.13E-03,2.08E-02
139435,7.57E-03,2.11E-02
139436,8.73E-03,2.14E-02
139437,9.78E-03,2.17E-02
139438,9.13E-03,2.21E-02
139439,8.24E-03,2.24E-02
139440,7.67E-03,2.26E-02
139441,7.37E-03,2.30E-02
139442,7.51E-03,2.32E-02
139443,8.03E-03,2.34E-02
139444,7.75E-03,2.36E-02
139445,7.81E-03,2.37E-02
139446,7.86E-03,2.37E-02
139447,7.96E-03,2.37E-02
139448,8.12E-03,2.36E-02
139449,8.18E-03,2.35E-02
139450,8.00E-03,2.34E-02
139451,7.63E-03,2.32E-02
139452,7.17E-03,2.30E-02
139453,6.94E-03,2.30E-02
139454,6.67E-03,2.33E-02
139455,7.11E-03,2.37E-02
139456,7.43E-03,2.39E-02
139457,8.31E-03,2.40E-02
139458,8.66E-03,2.44E-02
139459,8.07E-03,2.48E-02
139460,7.93E-03,2.50E-02
139461,7.79E-03,2.50E-02
139462,7.73E-03,2.49E-02
139463,8.11E-03,2.47E-02
139464,8.42E-03,2.45E-02
139465,8.36E-03,2.44E-02
139466,7.80E-03,2.41E-02
139467,7.52E-03,2.40E-02
139468,7.56E-03,2.39E-02
139469,7.85E-03,2.37E-02
139470,7.90E-03,2.35E-02
139471,7.68E-03,2.34E-02
139472,7.82E-03,2.33E-02
139473,8.06E-03,2.32E-02
139474,8.16E-03,2.30E-02
139475,8.27E-03,2.28E-02
139476,8.21E-03,2.26E-02
139477,8.04E-03,2.24E-02
139478,7.82E-03,2.21E-02
139479,7.70E-03,2.18E-02
139480,7.81E-03,2.16E-02
139481,7.86E-03,2.13E-02
139482,7.82E-03,2.11E-02
139483,7.63E-03,2.09E-02
139484,7.55E-03,2.07E-02
139485,7.46E-03,2.06E-02
139486,7.43E-03,2.06E-02
139487,7.63E-03,2.06E-02
139488,7.76E-03,2.06E-02
139489,7.93E-03,2.07E-02
139490,7.77E-03,2.08E-02
139491,7.57E-03,2.09E-02
139492,7.43E-03,2.11E-02
139493,7.23E-03,2.12E-02
139494,7.08E-03,2.13E-02
139495,7.77E-03,2.14E-02
139496,8.69E-03,2.16E-02
139497,8.82E-03,2.17E-02
139498,7.47E-03,2.19E-02
139499,8.43E-03,2.20E-02
139500,8.78E-03,2.22E-02
139501,8.08E-03,2.25E-02
139502,7.78E-03,2.27E-02
139503,6.07E-03,2.29E-02
139504,6.98E-03,2.29E-02
139505,9.29E-03,2.29E-02
139506,8.44E-03,2.29E-02
139507,8.07E-03,2.30E-02
139508,7.96E-03,2.29E-02
139509,7.87E-03,2.27E-02
139510,7.74E-03,2.23E-02
139511,7.80E-03,2.19E-02
139512,7.93E-03,2.15E-02
139513,7.26E-03,2.10E-02
139514,8.06E-03,1.19E-03
139515,7.52E-03,1.19E-03
139516,8.74E-03,1.39E-03
139517,8.59E-03,1.37E-03
139518,7.83E-03,1.34E-03
139519,7.83E-03,1.42E-03
139520,6.49E-03,1.80E-03
139521,6.63E-03,1.74E-03
139522,5.74E-03,1.91E-03
139523,8.45E-03,2.03E-03
139524,8.03E-03,2.11E-03
139525,5.34E-03,2.10E-03
139526,7.38E-03,2.16E-03
139527,6.35E-03,2.21E-03
139528,6.76E-03,1.03E-03
139529,6.88E-03,1.00E-03
139530,4.53E-03,9.39E-04
139531,5.93E-03,9.28E-04
139532,7.98E-03,1.20E-03
139533,4.83E-03,1.05E-03
139534,6.10E-03,1.87E-04
139535,4.89E-03,2.02E-04
139536,6.64E-03,2.48E-04
139537,8.56E-03,1.96E-04
139538,1.01E-02,1.85E-04
139539,9.83E-03,1.77E-04
139540,9.73E-03,1.72E-04
139541,9.08E-03,1.69E-04
139542,8.89E-03,1.70E-04
139543,8.54E-03,1.75E-04
139544,8.43E-03,1.80E-04
139545,8.25E-03,1.88E-04
139546,8.07E-03,1.98E-04
139547,7.39E-03,2.08E-04
139548,7.48E-03,2.18E-04
139549,7.58E-03,2.28E-04
139550,7.74E-03,2.37E-04
139551,7.88E-03,2.45E-04
139552,7.92E-03,2.53E-04
139553,8.03E-03,2.63E-04
139554,8.08E-03,2.71E-04
139555,8.29E-03,2.78E-04
139556,8.44E-03,2.86E-04
139557,8.54E-03,2.91E-04
139558,8.49E-03,2.97E-04
139559,8.50E-03,3.00E-04
139560,8.52E-03,3.04E-04
139561,8.56E-03,3.08E-04
139562,8.66E-03,3.12E-04
139563,8.70E-03,3.17E-04
139564,8.69E-03,3.22E-04
139565,8.75E-03,3.26E-04
139566,8.88E-03,3.28E-04
139567,9.16E-03,3.30E-04
139568,1.05E-02,3.27E-04
139569,1.02E-02,3.29E-04
139570,8.76E-03,3.47E-04
139571,8.30E-03,3.65E-04
139572,8.10E-03,3.79E-04
139573,8.39E-03,3.88E-04
139574,1.00E-02,3.74E-04
139575,9.37E-03,2.99E-04
139576,9.89E-03,3.81E-04
139577,6.94E-03,3.29E-04
139578,6.75E-03,3.85E-04
139579,5.42E-03,3.66E-04
139580,7.93E-03,4.73E-04
139581,7.86E-03,4.25E-04
139582,7.54E-03,3.83E-04
139583,7.50E-03,5.14E-04
139584,7.41E-03,5.47E-04
139585,7.28E-03,5.76E-04
139586,7.10E-03,6.00E-04
139587,7.40E-03,6.20E-04
139588,8.17E-03,6.48E-04
139589,8.64E-03,6.77E-04
139590,6.07E-03,3.29E-04
139591,6.46E-03,3.28E-04
139592,6.57E-03,3.29E-04
139593,6.75E-03,3.28E-04
139594,6.92E-03,3.24E-04
139595,6.84E-03,3.13E-04
139596,7.28E-03,3.00E-04
139597,7.56E-03,2.81E-04
139598,8.80E-03,2.11E-04
139599,5.99E-03,1.79E-04
139600,6.40E-03,1.79E-04
139601,6.52E-03,1.84E-04
139602,6.74E-03,1.85E-04
139603,7.00E-03,1.86E-04
139604,7.59E-03,1.94E-04
139605,7.52E-03,2.09E-04
139606,7.60E-03,2.28E-04
139607,8.00E-03,2.39E-04
139608,6.63E-03,2.48E-04
139609,5.93E-03,3.15E-04
139610,4.63E-03,3.16E-04
139611,5.33E-03,3.19E-04
139612,4.98E-03,3.22E-04
139613,5.23E-03,3.23E-04
139614,4.65E-03,3.31E-04
139615,3.82E-03,3.25E-04
139616,4.83E-03,3.25E-04
139617,8.43E-03,8.40E-03
139618,6.68E-03,8.45E-03
139619,5.75E-03,8.49E-03
139620,6.43E-03,8.68E-03
139621,6.24E-03,8.54E-03
139622,6.67E-03,8.81E-03
139623,6.75E-03,8.57E-03
139624,6.82E-03,8.89E-03
139625,6.81E-03,8.64E-03
139626,6.87E-03,8.96E-03
139627,6.87E-03,8.76E-03
139628,6.74E-03,9.05E-03
139629,6.25E-03,8.98E-03
139630,5.52E-03,9.09E-03
139631,6.02E-03,9.19E-03
139632,8.34E-03,9.26E-03
139633,7.77E-03,9.43E-03
139634,7.64E-03,9.60E-03
139635,7.42E-03,9.76E-03
139636,7.16E-03,9.93E-03
139637,7.53E-03,1.01E-02
139638,6.09E-03,1.02E-02
139639,8.53E-03,1.03E-02
139640,9.59E-03,2.58E-02
139641,8.73E-03,2.61E-02
139642,8.40E-03,2.59E-02
139643,8.27E-03,2.53E-02
139644,8.06E-03,2.45E-02
139645,7.87E-03,2.37E-02
139646,7.66E-03,2.30E-02
139647,7.49E-03,2.24E-02
139648,7.36E-03,2.20E-02
139649,7.44E-03,2.18E-02
139650,8.02E-03,2.15E-02
139651,8.44E-03,2.13E-02
139652,9.26E-03,2.11E-02
139653,9.15E-03,2.10E-02
139654,8.86E-03,2.09E-02
139655,8.84E-03,2.05E-02
139656,8.96E-03,2.00E-02
139657,9.13E-03,1.93E-02
139658,9.46E-03,1.83E-02
139659,9.86E-03,1.73E-02
139660,9.01E-03,1.37E-02
139661,8.90E-03,1.24E-02
139662,8.76E-03,1.10E-02
139663,8.61E-03,9.65E-03
139664,8.46E-03,8.46E-03
139665,8.26E-03,7.40E-03
139666,8.13E-03,6.48E-03
139667,8.07E-03,5.67E-03
139668,8.07E-03,4.96E-03
139669,8.07E-03,4.32E-03
139670,8.07E-03,3.76E-03
139671,8.07E-03,3.27E-03
139672,8.07E-03,2.83E-03
139673,8.07E-03,2.45E-03
139674,8.07E-03,2.12E-03
139675,8.06E-03,1.84E-03
139676,8.06E-03,1.63E-03
139677,8.06E-03,1.49E-03
139678,8.06E-03,1.42E-03
139679,8.06E-03,1.42E-03
139680,8.06E-03,1.48E-03
139681,8.06E-03,1.60E-03
139682,8.06E-03,1.74E-03
139683,8.06E-03,1.92E-03
139684,8.06E-03,2.10E-03
139685,8.06E-03,2.30E-03
139686,8.06E-03,2.50E-03
139687,8.05E-03,2.71E-03
139688,8.06E-03,2.93E-03
139689,8.09E-03,3.14E-03
139690,8.18E-03,3.35E-03
139691,8.25E-03,3.57E-03
139692,8.25E-03,3.78E-03
139693,8.22E-03,3.98E-03
139694,8.19E-03,4.18E-03
139695,8.17E-03,4.37E-03
139696,8.16E-03,4.56E-03
139697,8.15E-03,4.74E-03
139698,8.14E-03,4.92E-03
139699,8.14E-03,5.09E-03
139700,8.12E-03,5.25E-03
139701,8.12E-03,5.41E-03
139702,8.13E-03,5.57E-03
139703,8.15E-03,5.72E-03
139704,8.14E-03,5.87E-03
139705,8.09E-03,6.01E-03
139706,8.05E-03,6.15E-03
139707,8.05E-03,6.29E-03
139708,8.05E-03,6.42E-03
139709,8.05E-03,6.55E-03
139710,8.04E-03,6.69E-03
139711,8.03E-03,6.82E-03
139712,8.03E-03,6.96E-03
139713,8.02E-03,7.09E-03
139714,8.01E-03,7.24E-03
139715,8.00E-03,7.38E-03
139716,7.99E-03,7.53E-03
139717,7.97E-03,7.69E-03
139718,7.94E-03,7.86E-03
139719,7.88E-03,8.04E-03
139720,7.80E-03,8.24E-03
139721,7.93E-03,8.44E-03
139722,8.13E-03,8.65E-03
139723,8.23E-03,8.87E-03
139724,8.26E-03,9.09E-03
139725,8.23E-03,9.31E-03
139726,8.20E-03,9.53E-03
139727,8.18E-03,9.74E-03
139728,8.17E-03,9.95E-03
139729,8.16E-03,1.01E-02
139730,8.15E-03,1.03E-02
139731,8.14E-03,1.05E-02
139732,8.14E-03,1.07E-02
139733,8.13E-03,1.09E-02
139734,8.13E-03,1.11E-02
139735,8.21E-03,1.13E-02
139736,8.33E-03,1.14E-02
139737,8.32E-03,1.16E-02
139738,8.24E-03,1.18E-02
139739,8.20E-03,1.19E-02
139740,8.17E-03,1.20E-02
139741,8.16E-03,1.21E-02
139742,8.14E-03,1.22E-02
139743,8.13E-03,1.23E-02
139744,8.13E-03,1.24E-02
139745,8.12E-03,1.25E-02
139746,8.12E-03,1.26E-02
139747,8.11E-03,1.27E-02
139748,8.11E-03,1.28E-02
139749,8.11E-03,1.29E-02
139750,8.10E-03,1.30E-02
139751,8.10E-03,1.31E-02
139752,8.10E-03,1.31E-02
139753,8.10E-03,1.32E-02
139754,8.10E-03,1.33E-02
139755,8.10E-03,1.34E-02
139756,8.10E-03,1.35E-02
139757,8.10E-03,1.36E-02
139758,8.09E-03,1.36E-02
139759,8.09E-03,1.37E-02
139760,8.09E-03,1.38E-02
139761,8.09E-03,1.39E-02
139762,8.09E-03,1.40E-02
139763,8.09E-03,1.40E-02
139764,8.09E-03,1.41E-02
139765,8.09E-03,1.42E-02
139766,8.09E-03,1.43E-02
139767,8.09E-03,1.43E-02
139768,8.09E-03,1.44E-02
139769,8.09E-03,1.45E-02
139770,8.09E-03,1.46E-02
139771,8.09E-03,1.47E-02
139772,8.09E-03,1.47E-02
139773,8.09E-03,1.48E-02
139774,8.09E-03,1.49E-02
139775,8.09E-03,1.50E-02
139776,8.09E-03,1.50E-02
139777,8.09E-03,1.51E-02
139778,8.09E-03,1.52E-02
139779,8.09E-03,1.53E-02
139780,8.09E-03,1.53E-02
139781,8.09E-03,1.54E-02
139782,8.09E-03,1.55E-02
139783,8.09E-03,1.56E-02
139784,8.09E-03,1.56E-02
139785,8.09E-03,1.57E-02
139786,8.09E-03,1.58E-02
139787,8.09E-03,1.59E-02
139788,8.09E-03,1.59E-02
139789,8.09E-03,1.60E-02
139790,8.09E-03,1.61E-02
139791,8.09E-03,1.61E-02
139792,8.09E-03,1.62E-02
139793,8.09E-03,1.63E-02
139794,8.09E-03,1.64E-02
139795,8.09E-03,1.64E-02
139796,8.09E-03,1.65E-02
139797,8.08E-03,1.66E-02
139798,8.08E-03,1.66E-02
139799,8.08E-03,1.67E-02
139800,8.08E-03,1.68E-02
139801,8.08E-03,1.69E-02
139802,8.08E-03,1.69E-02
139803,8.08E-03,1.70E-02
139804,8.08E-03,1.71E-02
139805,8.08E-03,1.72E-02
139806,8.08E-03,1.72E-02
139807,8.08E-03,1.73E-02
139808,8.08E-03,1.74E-02
139809,8.09E-03,1.74E-02
139810,8.09E-03,1.75E-02
139811,8.09E-03,1.76E-02
139812,8.09E-03,1.77E-02
139813,8.09E-03,1.77E-02
139814,8.09E-03,1.78E-02
139815,8.09E-03,1.79E-02
139816,8.09E-03,1.80E-02
139817,8.09E-03,1.80E-02
139818,8.09E-03,1.81E-02
139819,8.09E-03,1.82E-02
139820,8.09E-03,1.83E-02
139821,8.09E-03,1.83E-02
139822,8.09E-03,1.84E-02
139823,8.09E-03,1.85E-02
139824,8.09E-03,1.86E-02
139825,8.09E-03,1.86E-02
139826,8.09E-03,1.87E-02
139827,8.09E-03,1.88E-02
139828,8.09E-03,1.89E-02
139829,8.09E-03,1.90E-02
139830,8.10E-03,1.90E-02
139831,8.10E-03,1.91E-02
139832,8.10E-03,1.92E-02
139833,8.10E-03,1.93E-02
139834,8.10E-03,1.93E-02
139835,8.11E-03,1.94E-02
139836,8.11E-03,1.95E-02
139837,8.11E-03,1.96E-02
139838,8.12E-03,1.96E-02
139839,8.12E-03,1.97E-02
139840,8.13E-03,1.97E-02
139841,8.14E-03,1.98E-02
139842,8.15E-03,1.98E-02
139843,8.17E-03,1.99E-02
139844,8.19E-03,1.99E-02
139845,8.24E-03,1.99E-02
139846,8.23E-03,1.99E-02
139847,8.06E-03,1.98E-02
139848,7.95E-03,1.98E-02
139849,7.98E-03,1.98E-02
139850,8.00E-03,1.98E-02
139851,8.02E-03,1.98E-02
139852,8.03E-03,1.98E-02
139853,8.04E-03,1.99E-02
139854,8.04E-03,1.99E-02
139855,8.05E-03,1.99E-02
139856,8.05E-03,2.00E-02
139857,8.05E-03,2.00E-02
139858,8.06E-03,2.01E-02
139859,8.06E-03,2.02E-02
139860,8.06E-03,2.02E-02
139861,8.06E-03,2.03E-02
139862,8.06E-03,2.04E-02
139863,8.07E-03,2.04E-02
139864,8.07E-03,2.05E-02
139865,8.07E-03,2.06E-02
139866,8.07E-03,2.07E-02
139867,8.07E-03,2.07E-02
139868,8.07E-03,2.08E-02
139869,8.07E-03,2.09E-02
139870,8.07E-03,2.10E-02
139871,8.07E-03,2.11E-02
139872,8.07E-03,2.12E-02
139873,8.07E-03,2.13E-02
139874,8.07E-03,2.14E-02
139875,8.07E-03,2.15E-02
139876,8.07E-03,2.16E-02
139877,8.07E-03,2.17E-02
139878,8.08E-03,2.18E-02
139879,8.08E-03,2.19E-02
139880,8.08E-03,2.20E-02
139881,8.08E-03,2.21E-02
139882,8.08E-03,2.22E-02
139883,8.08E-03,2.23E-02
139884,8.08E-03,2.24E-02
139885,8.09E-03,2.25E-02
139886,8.09E-03,2.27E-02
139887,8.09E-03,2.28E-02
139888,8.09E-03,2.29E-02
139889,8.09E-03,2.30E-02
139890,8.09E-03,2.32E-02
139891,8.09E-03,2.33E-02
139892,8.09E-03,2.34E-02
139893,8.10E-03,2.36E-02
139894,8.10E-03,2.37E-02
139895,8.10E-03,2.38E-02
139896,8.10E-03,2.40E-02
139897,8.10E-03,2.41E-02
139898,8.10E-03,2.43E-02
139899,8.10E-03,2.44E-02
139900,8.11E-03,2.46E-02
139901,8.11E-03,2.48E-02
139902,8.11E-03,2.49E-02
139903,8.12E-03,2.51E-02
139904,8.13E-03,2.53E-02
139905,8.13E-03,2.54E-02
139906,8.15E-03,2.56E-02
139907,8.22E-03,2.58E-02
139908,8.29E-03,2.59E-02
139909,8.39E-03,2.60E-02
139910,8.53E-03,2.60E-02
139911,8.60E-03,2.59E-02
139912,8.66E-03,2.57E-02
139913,8.37E-03,2.54E-02
139914,8.12E-03,2.53E-02
139915,7.96E-03,2.50E-02
139916,7.68E-03,2.46E-02
139917,7.56E-03,2.43E-02
139918,7.64E-03,2.41E-02
139919,7.88E-03,2.40E-02
139920,7.93E-03,2.40E-02
139921,7.99E-03,2.40E-02
139922,8.07E-03,2.40E-02
139923,8.13E-03,2.40E-02
139924,8.15E-03,2.41E-02
139925,8.16E-03,2.41E-02
139926,8.17E-03,2.41E-02
139927,8.19E-03,2.40E-02
139928,8.20E-03,2.40E-02
139929,8.21E-03,2.39E-02
139930,8.26E-03,2.38E-02
139931,8.39E-03,2.36E-02
139932,8.16E-03,2.35E-02
139933,7.64E-03,2.34E-02
139934,7.53E-03,2.33E-02
139935,7.72E-03,2.32E-02
139936,7.86E-03,2.32E-02
139937,7.93E-03,2.32E-02
139938,7.97E-03,2.32E-02
139939,7.99E-03,2.33E-02
139940,8.01E-03,2.34E-02
139941,8.02E-03,2.35E-02
139942,8.03E-03,2.37E-02
139943,8.04E-03,2.38E-02
139944,8.04E-03,2.39E-02
139945,8.05E-03,2.41E-02
139946,8.05E-03,2.42E-02
139947,8.05E-03,2.44E-02
139948,8.06E-03,2.45E-02
139949,8.06E-03,2.46E-02
139950,8.06E-03,2.48E-02
139951,8.06E-03,2.49E-02
139952,8.06E-03,2.51E-02
139953,8.06E-03,2.52E-02
139954,8.07E-03,2.54E-02
139955,8.07E-03,2.55E-02
139956,8.08E-03,2.57E-02
139957,8.08E-03,2.58E-02
139958,8.08E-03,2.60E-02
139959,8.08E-03,2.61E-02
139960,8.09E-03,2.63E-02
139961,8.09E-03,2.64E-02
139962,8.09E-03,2.66E-02
139963,8.09E-03,2.67E-02
139964,8.09E-03,2.69E-02
139965,8.09E-03,2.70E-02
139966,8.09E-03,2.72E-02
139967,8.09E-03,2.73E-02
139968,8.09E-03,2.75E-02
139969,8.09E-03,2.76E-02
139970,8.09E-03,2.78E-02
139971,8.10E-03,2.79E-02
139972,8.10E-03,2.81E-02
139973,8.10E-03,2.82E-02
139974,8.10E-03,2.84E-02
139975,8.10E-03,2.85E-02
139976,8.10E-03,2.87E-02
139977,8.10E-03,2.89E-02
139978,8.10E-03,2.90E-02
139979,8.10E-03,2.92E-02
139980,8.11E-03,2.93E-02
139981,8.11E-03,2.95E-02
139982,8.11E-03,2.97E-02
139983,8.11E-03,2.98E-02
139984,8.11E-03,3.00E-02
139985,8.12E-03,3.02E-02
139986,8.12E-03,3.04E-02
139987,8.13E-03,3.05E-02
139988,8.13E-03,3.07E-02
139989,8.13E-03,3.09E-02
139990,8.13E-03,3.11E-02
139991,8.13E-03,3.13E-02
139992,8.14E-03,3.14E-02
139993,8.14E-03,3.16E-02
139994,8.15E-03,3.18E-02
139995,8.16E-03,3.20E-02
139996,8.17E-03,3.22E-02
139997,8.19E-03,3.23E-02
139998,8.21E-03,3.25E-02
139999,8.24E-03,3.26E-02
140000,8.28E-03,3.27E-02
140001,8.35E-03,3.27E-02
140002,8.42E-03,3.27E-02
140003,8.41E-03,3.26E-02
140004,8.37E-03,3.25E-02
140005,8.33E-03,3.23E-02
140006,8.30E-03,3.21E-02
140007,8.33E-03,3.18E-02
140008,8.39E-03,3.14E-02
140009,8.30E-03,3.10E-02
140010,8.18E-03,3.06E-02
140011,8.14E-03,3.01E-02
140012,8.10E-03,2.96E-02
140013,8.07E-03,2.91E-02
140014,8.04E-03,2.87E-02
140015,7.99E-03,2.82E-02
140016,7.80E-03,2.79E-02
140017,7.73E-03,2.75E-02
140018,7.84E-03,2.72E-02
140019,7.90E-03,2.69E-02
140020,7.89E-03,2.67E-02
140021,7.80E-03,2.66E-02
140022,7.68E-03,2.65E-02
140023,7.68E-03,2.65E-02
140024,7.80E-03,2.65E-02
140025,7.88E-03,2.66E-02
140026,7.93E-03,2.68E-02
140027,7.97E-03,2.69E-02
140028,7.99E-03,2.71E-02
140029,8.00E-03,2.73E-02
140030,8.00E-03,2.75E-02
140031,8.00E-03,2.77E-02
140032,8.00E-03,2.80E-02
140033,8.00E-03,2.82E-02
140034,8.02E-03,2.85E-02
140035,8.07E-03,2.87E-02
140036,8.09E-03,2.90E-02
140037,8.09E-03,2.92E-02
140038,8.09E-03,2.95E-02
140039,8.09E-03,2.97E-02
140040,8.09E-03,3.00E-02
140041,8.10E-03,3.02E-02
140042,8.11E-03,3.04E-02
140043,8.11E-03,3.06E-02
140044,8.11E-03,3.09E-02
140045,8.11E-03,3.11E-02
140046,8.11E-03,3.13E-02
140047,8.11E-03,3.15E-02
140048,8.12E-03,3.17E-02
140049,8.12E-03,3.18E-02
140050,8.12E-03,3.20E-02
140051,8.13E-03,3.22E-02
140052,8.13E-03,3.24E-02
140053,8.13E-03,3.25E-02
140054,8.14E-03,3.27E-02
140055,8.14E-03,3.28E-02
140056,8.15E-03,3.30E-02
140057,8.16E-03,3.31E-02
140058,8.16E-03,3.32E-02
140059,8.17E-03,3.33E-02
140060,8.18E-03,3.34E-02
140061,8.19E-03,3.35E-02
140062,8.20E-03,3.35E-02
140063,8.21E-03,3.35E-02
140064,8.23E-03,3.35E-02
140065,8.25E-03,3.34E-02
140066,8.28E-03,3.33E-02
140067,8.30E-03,3.31E-02
140068,8.31E-03,3.29E-02
140069,8.29E-03,3.26E-02
140070,8.28E-03,3.22E-02
140071,8.31E-03,3.18E-02
140072,8.39E-03,3.13E-02
140073,8.37E-03,3.08E-02
140074,7.97E-03,3.04E-02
140075,7.67E-03,2.99E-02
140076,7.73E-03,2.94E-02
140077,7.80E-03,2.90E-02
140078,7.85E-03,2.86E-02
140079,7.80E-03,2.83E-02
140080,7.72E-03,2.81E-02
140081,7.65E-03,2.80E-02
140082,7.24E-03,2.80E-02
140083,7.59E-03,2.80E-02
140084,7.85E-03,2.82E-02
140085,7.93E-03,2.84E-02
140086,7.97E-03,2.87E-02
140087,8.00E-03,2.90E-02
140088,8.01E-03,2.93E-02
140089,8.03E-03,2.97E-02
140090,8.04E-03,3.00E-02
140091,8.04E-03,3.03E-02
140092,8.05E-03,3.07E-02
140093,8.05E-03,3.10E-02
140094,8.05E-03,3.13E-02
140095,8.06E-03,3.16E-02
140096,8.06E-03,3.19E-02
140097,8.06E-03,3.22E-02
140098,8.06E-03,3.25E-02
140099,8.06E-03,3.28E-02
140100,8.07E-03,3.31E-02
140101,8.07E-03,3.33E-02
140102,8.07E-03,3.36E-02
140103,8.07E-03,3.39E-02
140104,8.07E-03,3.42E-02
140105,8.07E-03,3.44E-02
140106,8.07E-03,3.47E-02
140107,8.07E-03,3.50E-02
140108,8.07E-03,3.52E-02
140109,8.07E-03,3.55E-02
140110,8.07E-03,3.57E-02
140111,8.07E-03,3.60E-02
140112,8.07E-03,3.63E-02
140113,8.07E-03,3.65E-02
140114,8.07E-03,3.68E-02
140115,8.07E-03,3.70E-02
140116,8.07E-03,3.73E-02
140117,8.08E-03,3.76E-02
140118,8.08E-03,3.78E-02
140119,8.08E-03,3.81E-02
140120,8.08E-03,3.83E-02
140121,8.08E-03,3.86E-02
140122,8.08E-03,3.88E-02
140123,8.08E-03,3.91E-02
140124,8.08E-03,3.94E-02
140125,8.08E-03,3.96E-02
140126,8.08E-03,3.99E-02
140127,8.08E-03,4.01E-02
140128,8.08E-03,4.04E-02
140129,8.08E-03,4.07E-02
140130,8.08E-03,4.09E-02
140131,8.08E-03,4.12E-02
140132,8.08E-03,4.15E-02
140133,8.08E-03,4.18E-02
140134,8.08E-03,4.20E-02
140135,8.08E-03,4.23E-02
140136,8.08E-03,4.26E-02
140137,8.08E-03,4.28E-02
140138,8.08E-03,4.31E-02
140139,8.08E-03,4.34E-02
140140,8.08E-03,4.37E-02
140141,8.08E-03,4.40E-02
140142,8.08E-03,4.42E-02
140143,8.08E-03,4.45E-02
140144,8.03E-03,4.48E-02
140145,8.01E-03,4.51E-02
140146,8.03E-03,4.54E-02
140147,8.32E-03,4.56E-02
140148,9.71E-03,4.61E-02
140149,6.77E-03,0.29574
140150,9.43E-03,2.87E-02
140151,8.89E-03,3.02E-02
140152,8.74E-03,3.11E-02
140153,8.65E-03,3.16E-02
140154,8.52E-03,3.17E-02
140155,8.62E-03,3.16E-02
140156,8.30E-03,3.13E-02
140157,8.28E-03,3.10E-02
140158,8.14E-03,3.06E-02
140159,8.15E-03,3.01E-02
140160,7.98E-03,2.97E-02
140161,7.96E-03,2.93E-02
140162,7.85E-03,2.90E-02
140163,7.77E-03,2.87E-02
140164,7.82E-03,2.85E-02
140165,7.98E-03,2.83E-02
140166,8.07E-03,2.81E-02
140167,8.10E-03,2.80E-02
140168,8.17E-03,2.79E-02
140169,8.26E-03,2.78E-02
140170,8.29E-03,2.76E-02
140171,8.40E-03,2.74E-02
140172,8.50E-03,2.71E-02
140173,8.34E-03,2.67E-02
140174,8.26E-03,2.63E-02
140175,8.16E-03,2.58E-02
140176,8.11E-03,2.53E-02
140177,8.05E-03,2.47E-02
140178,7.96E-03,2.42E-02
140179,7.78E-03,2.36E-02
140180,7.74E-03,2.31E-02
140181,7.60E-03,2.27E-02
140182,7.56E-03,2.24E-02
140183,7.53E-03,2.22E-02
140184,7.57E-03,2.20E-02
140185,7.89E-03,2.19E-02
140186,7.85E-03,2.19E-02
140187,7.83E-03,2.20E-02
140188,7.67E-03,2.21E-02
140189,7.52E-03,2.22E-02
140190,7.27E-03,2.25E-02
140191,7.12E-03,2.30E-02
140192,7.03E-03,2.37E-02
140193,7.23E-03,2.45E-02
140194,8.67E-03,2.49E-02
140195,1.01E-02,2.53E-02
140196,8.81E-03,2.60E-02
140197,8.53E-03,2.64E-02
140198,8.53E-03,2.64E-02
140199,8.46E-03,2.63E-02
140200,8.45E-03,2.60E-02
140201,8.24E-03,2.56E-02
140202,8.10E-03,2.52E-02
140203,7.92E-03,2.49E-02
140204,7.78E-03,2.45E-02
140205,7.55E-03,2.43E-02
140206,7.40E-03,2.42E-02
140207,7.48E-03,2.44E-02
140208,7.60E-03,2.48E-02
140209,7.86E-03,2.49E-02
140210,8.37E-03,2.49E-02
140211,8.17E-03,2.52E-02
140212,7.98E-03,2.53E-02
140213,7.11E-03,2.53E-02
140214,7.80E-03,2.54E-02
140215,7.43E-03,2.53E-02
140216,6.06E-03,2.54E-02
140217,5.95E-03,2.58E-02
140218,6.72E-03,2.65E-02
140219,7.53E-03,2.69E-02
140220,6.13E-03,2.72E-02
140221,6.52E-03,2.76E-02
140222,5.73E-03,2.61E-02
140223,7.99E-03,2.59E-02
140224,7.88E-03,2.61E-02
140225,7.19E-03,2.60E-02
140226,9.36E-03,2.58E-02
140227,1.01E-02,2.52E-02
140228,9.27E-03,2.48E-02
140229,8.39E-03,2.45E-02
140230,8.28E-03,2.44E-02
140231,7.43E-03,2.44E-02
140232,6.74E-03,2.44E-02
140233,6.79E-03,2.44E-02
140234,6.87E-03,2.44E-02
140235,7.34E-03,2.45E-02
140236,7.69E-03,2.45E-02
140237,7.80E-03,2.44E-02
140238,7.99E-03,2.43E-02
140239,8.17E-03,2.41E-02
140240,8.33E-03,2.39E-02
140241,8.25E-03,2.37E-02
140242,7.93E-03,2.36E-02
140243,7.55E-03,2.34E-02
140244,7.31E-03,2.34E-02
140245,7.30E-03,2.33E-02
140246,7.36E-03,2.34E-02
140247,7.51E-03,2.35E-02
140248,7.61E-03,2.36E-02
140249,7.71E-03,2.37E-02
140250,7.73E-03,2.38E-02
140251,7.80E-03,2.40E-02
140252,7.92E-03,2.41E-02
140253,7.88E-03,2.42E-02
140254,7.87E-03,2.43E-02
140255,7.93E-03,2.44E-02
140256,7.97E-03,2.45E-02
140257,7.97E-03,2.45E-02
140258,8.00E-03,2.45E-02
140259,8.07E-03,2.46E-02
140260,8.10E-03,2.46E-02
140261,8.11E-03,2.46E-02
140262,8.06E-03,2.46E-02
140263,8.05E-03,2.46E-02
140264,8.10E-03,2.46E-02
140265,8.10E-03,2.46E-02
140266,8.15E-03,2.46E-02
140267,8.14E-03,2.46E-02
140268,8.09E-03,2.46E-02
140269,8.09E-03,2.47E-02
140270,8.09E-03,2.47E-02
140271,8.09E-03,2.48E-02
140272,8.01E-03,2.48E-02
140273,7.95E-03,2.49E-02
140274,7.87E-03,2.49E-02
140275,7.83E-03,2.50E-02
140276,7.86E-03,2.50E-02
140277,7.85E-03,2.50E-02
140278,8.02E-03,2.50E-02
140279,8.04E-03,2.50E-02
140280,8.04E-03,2.49E-02
140281,8.04E-03,2.49E-02
140282,8.04E-03,2.48E-02
140283,7.99E-03,2.48E-02
140284,8.08E-03,2.47E-02
140285,8.07E-03,2.47E-02
140286,8.01E-03,2.47E-02
140287,7.99E-03,2.47E-02
140288,7.98E-03,2.48E-02
140289,7.96E-03,2.49E-02
140290,7.93E-03,2.50E-02
140291,7.89E-03,2.51E-02
140292,7.84E-03,2.52E-02
140293,7.73E-03,2.54E-02
140294,7.70E-03,2.55E-02
140295,7.66E-03,2.56E-02
140296,7.61E-03,2.58E-02
140297,7.56E-03,2.59E-02
140298,7.48E-03,2.60E-02
140299,7.46E-03,2.60E-02
140300,7.40E-03,2.61E-02
140301,7.55E-03,2.62E-02
140302,7.60E-03,2.62E-02
140303,7.91E-03,2.62E-02
140304,8.26E-03,2.63E-02
140305,8.36E-03,2.63E-02
140306,8.51E-03,2.63E-02
140307,8.63E-03,2.63E-02
140308,8.67E-03,2.63E-02
140309,8.98E-03,2.63E-02
140310,8.96E-03,2.63E-02
140311,9.07E-03,2.63E-02
140312,9.27E-03,2.62E-02
140313,9.50E-03,2.60E-02
140314,1.06E-02,2.59E-02
140315,1.04E-02,2.58E-02
140316,9.29E-03,2.56E-02
140317,8.94E-03,2.54E-02
140318,8.53E-03,2.53E-02
140319,8.30E-03,2.51E-02
140320,8.31E-03,2.50E-02
140321,7.99E-03,2.48E-02
140322,7.88E-03,2.47E-02
140323,7.52E-03,2.46E-02
140324,7.54E-03,2.44E-02
140325,7.57E-03,2.43E-02
140326,7.65E-03,2.42E-02
140327,7.68E-03,2.41E-02
140328,7.77E-03,2.40E-02
140329,7.90E-03,2.39E-02
140330,7.94E-03,2.38E-02
140331,8.05E-03,2.37E-02
140332,8.09E-03,2.36E-02
140333,8.12E-03,2.35E-02
140334,8.15E-03,2.34E-02
140335,8.25E-03,2.33E-02
140336,8.32E-03,2.32E-02
140337,8.32E-03,2.31E-02
140338,8.35E-03,2.30E-02
140339,8.39E-03,2.29E-02
140340,8.43E-03,2.27E-02
140341,8.48E-03,2.26E-02
140342,8.56E-03,2.25E-02
140343,8.65E-03,2.24E-02
140344,8.74E-03,2.22E-02
140345,8.78E-03,2.21E-02
140346,8.78E-03,2.19E-02
140347,8.79E-03,2.18E-02
140348,8.79E-03,2.16E-02
140349,8.79E-03,2.14E-02
140350,8.78E-03,2.13E-02
140351,8.77E-03,2.11E-02
140352,8.77E-03,2.09E-02
140353,8.78E-03,2.08E-02
140354,8.79E-03,2.06E-02
140355,8.80E-03,2.04E-02
140356,8.82E-03,2.02E-02
140357,8.83E-03,2.01E-02
140358,8.84E-03,1.99E-02
140359,8.87E-03,1.97E-02
140360,8.96E-03,1.96E-02
140361,9.07E-03,1.94E-02
140362,9.04E-03,1.92E-02
140363,9.09E-03,1.91E-02
140364,9.20E-03,1.89E-02
140365,9.18E-03,1.88E-02
140366,9.13E-03,1.86E-02
140367,9.00E-03,1.85E-02
140368,8.91E-03,1.83E-02
140369,8.74E-03,1.82E-02
140370,8.57E-03,1.81E-02
140371,8.45E-03,1.80E-02
140372,8.33E-03,1.78E-02
140373,8.26E-03,1.77E-02
140374,8.23E-03,1.76E-02
140375,8.21E-03,1.75E-02
140376,8.19E-03,1.74E-02
140377,8.17E-03,1.73E-02
140378,8.17E-03,1.72E-02
140379,8.17E-03,1.71E-02
140380,8.18E-03,1.70E-02
140381,8.18E-03,1.69E-02
140382,8.19E-03,1.68E-02
140383,8.20E-03,1.67E-02
140384,8.20E-03,1.66E-02
140385,8.20E-03,1.65E-02
140386,8.20E-03,1.64E-02
140387,8.20E-03,1.63E-02
140388,8.20E-03,1.62E-02
140389,8.20E-03,1.61E-02
140390,8.21E-03,1.59E-02
140391,8.21E-03,1.58E-02
140392,8.21E-03,1.57E-02
140393,8.21E-03,1.56E-02
140394,8.21E-03,1.55E-02
140395,8.22E-03,1.54E-02
140396,8.22E-03,1.53E-02
140397,8.22E-03,1.52E-02
140398,8.22E-03,1.51E-02
140399,8.22E-03,1.50E-02
140400,8.22E-03,1.49E-02
140401,8.23E-03,1.48E-02
140402,8.23E-03,1.47E-02
140403,8.23E-03,1.46E-02
140404,8.23E-03,1.45E-02
140405,8.24E-03,1.44E-02
140406,8.23E-03,1.43E-02
140407,8.23E-03,1.42E-02
140408,8.23E-03,1.41E-02
140409,8.22E-03,1.40E-02
140410,8.22E-03,1.39E-02
140411,8.21E-03,1.38E-02
140412,8.20E-03,1.36E-02
140413,8.19E-03,1.35E-02
140414,8.19E-03,1.34E-02
140415,8.19E-03,1.33E-02
140416,8.18E-03,1.32E-02
140417,8.18E-03,1.31E-02
140418,8.17E-03,1.30E-02
140419,8.17E-03,1.28E-02
140420,8.17E-03,1.27E-02
140421,8.17E-03,1.26E-02
140422,8.16E-03,1.25E-02
140423,8.16E-03,1.24E-02
140424,8.16E-03,1.23E-02
140425,8.16E-03,1.22E-02
140426,8.15E-03,1.21E-02
140427,8.15E-03,1.20E-02
140428,8.14E-03,1.19E-02
140429,8.14E-03,1.18E-02
140430,8.14E-03,1.18E-02
140431,8.13E-03,1.17E-02
140432,8.13E-03,1.17E-02
140433,8.13E-03,1.17E-02
140434,8.12E-03,1.18E-02
140435,8.12E-03,1.18E-02
140436,8.12E-03,1.19E-02
140437,8.12E-03,1.20E-02
140438,8.12E-03,1.21E-02
140439,8.12E-03,1.23E-02
140440,8.11E-03,1.25E-02
140441,8.11E-03,1.27E-02
140442,8.11E-03,1.29E-02
140443,8.11E-03,1.31E-02
140444,8.11E-03,1.33E-02
140445,8.11E-03,1.36E-02
140446,8.11E-03,1.38E-02
140447,8.11E-03,1.40E-02
140448,8.11E-03,1.43E-02
140449,8.11E-03,1.45E-02
140450,8.11E-03,1.48E-02
140451,8.11E-03,1.51E-02
140452,8.11E-03,1.54E-02
140453,8.14E-03,1.57E-02
140454,8.11E-03,1.60E-02
140455,8.13E-03,1.64E-02
140456,8.16E-03,1.68E-02
140457,8.09E-03,1.71E-02
140458,8.11E-03,1.75E-02
140459,8.08E-03,1.78E-02
140460,7.99E-03,1.81E-02
140461,7.99E-03,1.84E-02
140462,8.03E-03,1.86E-02
140463,8.02E-03,1.88E-02
140464,8.01E-03,1.89E-02
140465,8.04E-03,1.90E-02
140466,8.00E-03,1.90E-02
140467,8.07E-03,1.91E-02
140468,8.08E-03,1.91E-02
140469,8.04E-03,1.91E-02
140470,8.10E-03,1.92E-02
140471,8.13E-03,1.92E-02
140472,8.13E-03,1.92E-02
140473,8.07E-03,1.92E-02
140474,8.03E-03,1.92E-02
140475,8.04E-03,1.92E-02
140476,8.02E-03,1.92E-02
140477,7.92E-03,1.93E-02
140478,8.10E-03,1.93E-02
140479,8.14E-03,1.94E-02
140480,8.01E-03,1.94E-02
140481,7.83E-03,1.95E-02
140482,7.63E-03,1.97E-02
140483,7.54E-03,1.98E-02
140484,7.53E-03,2.00E-02
140485,7.56E-03,2.01E-02
140486,7.76E-03,2.03E-02
140487,7.88E-03,2.04E-02
140488,8.00E-03,2.04E-02
140489,7.94E-03,2.05E-02
140490,8.00E-03,2.06E-02
140491,8.01E-03,2.07E-02
140492,8.14E-03,2.08E-02
140493,8.45E-03,2.08E-02
140494,8.46E-03,2.09E-02
140495,8.35E-03,2.10E-02
140496,8.26E-03,2.10E-02
140497,7.96E-03,2.10E-02
140498,7.77E-03,2.10E-02
140499,7.71E-03,2.09E-02
140500,7.77E-03,2.09E-02
140501,7.79E-03,2.10E-02
140502,7.59E-03,2.10E-02
140503,7.36E-03,2.11E-02
140504,7.19E-03,2.13E-02
140505,7.21E-03,2.14E-02
140506,6.80E-03,2.14E-02
140507,6.70E-03,2.15E-02
140508,7.00E-03,2.17E-02
140509,7.23E-03,2.17E-02
140510,7.43E-03,2.17E-02
140511,7.53E-03,2.18E-02
140512,7.52E-03,2.17E-02
140513,7.67E-03,2.17E-02
140514,7.72E-03,2.17E-02
140515,7.54E-03,2.17E-02
140516,7.43E-03,2.17E-02
140517,7.36E-03,2.18E-02
140518,7.14E-03,2.18E-02
140519,7.15E-03,2.20E-02
140520,7.64E-03,2.20E-02
140521,8.03E-03,2.19E-02
140522,8.29E-03,2.20E-02
140523,7.97E-03,2.19E-02
140524,7.67E-03,2.18E-02
140525,7.60E-03,2.17E-02
140526,7.64E-03,2.15E-02
140527,7.73E-03,2.14E-02
140528,7.88E-03,2.12E-02
140529,7.99E-03,2.11E-02
140530,8.06E-03,2.09E-02
140531,8.07E-03,2.08E-02
140532,7.98E-03,2.08E-02
140533,7.87E-03,2.07E-02
140534,7.87E-03,2.06E-02
140535,7.81E-03,2.05E-02
140536,7.68E-03,2.05E-02
140537,7.51E-03,2.04E-02
140538,7.46E-03,2.03E-02
140539,7.31E-03,2.03E-02
140540,7.28E-03,2.02E-02
140541,7.32E-03,2.02E-02
140542,7.27E-03,2.02E-02
140543,7.33E-03,2.02E-02
140544,7.33E-03,2.01E-02
140545,7.41E-03,2.01E-02
140546,7.43E-03,2.01E-02
140547,7.45E-03,2.01E-02
140548,7.46E-03,2.02E-02
140549,7.36E-03,2.02E-02
140550,7.43E-03,2.03E-02
140551,7.47E-03,2.03E-02
140552,7.66E-03,2.04E-02
140553,7.80E-03,2.06E-02
140554,7.78E-03,2.07E-02
140555,8.03E-03,2.09E-02
140556,8.07E-03,2.11E-02
140557,8.19E-03,2.12E-02
140558,8.06E-03,2.14E-02
140559,7.88E-03,2.15E-02
140560,8.88E-03,2.17E-02
140561,9.27E-03,2.19E-02
140562,8.46E-03,2.19E-02
140563,8.13E-03,2.19E-02
140564,8.00E-03,2.19E-02
140565,7.86E-03,2.18E-02
140566,7.73E-03,2.16E-02
140567,7.69E-03,2.13E-02
140568,7.50E-03,2.10E-02
140569,7.11E-03,2.08E-02
140570,6.27E-03,2.07E-02
140571,6.12E-03,2.05E-02
140572,6.98E-03,2.02E-02
140573,7.17E-03,1.45E-03
140574,6.96E-03,1.49E-03
140575,5.47E-03,1.55E-03
140576,6.14E-03,1.59E-03
140577,6.75E-03,1.62E-03
140578,7.04E-03,1.65E-03
140579,7.09E-03,1.68E-03
140580,6.75E-03,1.71E-03
140581,6.57E-03,1.94E-03
140582,6.71E-03,1.97E-03
140583,5.31E-03,1.99E-03
140584,4.48E-03,2.07E-03
140585,6.00E-03,2.09E-03
140586,6.13E-03,2.13E-03
140587,8.81E-03,2.20E-03
140588,9.37E-03,2.28E-03
140589,8.57E-03,2.34E-03
140590,8.53E-03,2.40E-03
140591,8.29E-03,2.46E-03
140592,7.70E-03,2.52E-03
140593,7.41E-03,8.20E-04
140594,6.75E-03,7.90E-04
140595,8.01E-03,8.36E-04
140596,6.53E-03,8.50E-04
140597,5.65E-03,8.22E-04
140598,7.18E-03,8.30E-04
140599,7.35E-03,8.36E-04
140600,6.61E-03,8.48E-04
140601,6.26E-03,8.39E-04
140602,6.16E-03,8.35E-04
140603,5.98E-03,8.40E-04
140604,5.76E-03,8.63E-04
140605,5.88E-03,8.96E-04
140606,6.08E-03,9.11E-04
140607,6.62E-03,9.27E-04
140608,6.67E-03,9.47E-04
140609,7.67E-03,1.19E-03
140610,7.76E-03,1.20E-03
140611,8.66E-03,1.33E-03
140612,7.99E-03,1.32E-03
140613,7.70E-03,1.31E-03
140614,7.64E-03,1.30E-03
140615,7.65E-03,1.29E-03
140616,7.55E-03,1.28E-03
140617,7.11E-03,1.27E-03
140618,6.59E-03,1.26E-03
140619,6.47E-03,1.23E-03
140620,6.80E-03,1.20E-03
140621,7.55E-03,1.19E-03
140622,6.22E-03,1.70E-03
140623,5.04E-03,1.62E-03
140624,6.84E-03,1.06E-03
140625,8.09E-03,1.06E-03
140626,6.74E-03,8.15E-04
140627,8.44E-03,8.09E-04
140628,9.80E-03,8.27E-04
140629,8.82E-03,8.54E-04
140630,7.90E-03,8.88E-04
140631,8.24E-03,9.14E-04
140632,8.49E-03,9.36E-04
140633,8.52E-03,9.63E-04
140634,8.33E-03,9.86E-04
140635,8.65E-03,1.02E-03
140636,8.79E-03,1.06E-03
140637,8.53E-03,1.10E-03
140638,8.46E-03,1.12E-03
140639,7.76E-03,1.16E-03
140640,7.79E-03,1.18E-03
140641,7.87E-03,1.21E-03
140642,8.00E-03,1.22E-03
140643,7.94E-03,1.24E-03
140644,7.71E-03,1.27E-03
140645,7.65E-03,1.29E-03
140646,7.80E-03,1.31E-03
140647,7.91E-03,1.33E-03
140648,7.96E-03,1.35E-03
140649,8.01E-03,1.37E-03
140650,8.05E-03,1.39E-03
140651,8.09E-03,1.41E-03
140652,8.14E-03,1.43E-03
140653,8.11E-03,1.45E-03
140654,7.79E-03,1.47E-03
140655,7.62E-03,1.50E-03
140656,7.59E-03,1.53E-03
140657,7.85E-03,1.55E-03
140658,8.29E-03,1.56E-03
140659,8.53E-03,1.57E-03
140660,8.48E-03,1.59E-03
140661,8.39E-03,1.60E-03
140662,8.14E-03,1.63E-03
140663,8.06E-03,1.66E-03
140664,8.00E-03,1.69E-03
140665,7.95E-03,1.71E-03
140666,7.97E-03,1.74E-03
140667,8.04E-03,1.76E-03
140668,8.20E-03,1.79E-03
140669,8.48E-03,1.82E-03
140670,8.72E-03,1.85E-03
140671,8.89E-03,1.88E-03
140672,9.31E-03,1.90E-03
140673,1.03E-02,1.91E-03
140674,1.00E-02,1.92E-03
140675,8.74E-03,1.98E-03
140676,8.16E-03,2.03E-03
140677,7.86E-03,2.07E-03
140678,7.80E-03,2.11E-03
140679,9.04E-03,2.13E-03
140680,9.78E-03,2.14E-03
140681,9.35E-03,2.22E-03
140682,8.64E-03,2.25E-03
140683,7.19E-03,2.32E-03
140684,8.81E-03,2.34E-03
140685,9.44E-03,2.39E-03
140686,8.82E-03,2.45E-03
140687,8.62E-03,2.51E-03
140688,8.42E-03,2.57E-03
140689,7.60E-03,2.63E-03
140690,8.58E-03,2.66E-03
140691,8.54E-03,2.78E-03
140692,8.35E-03,2.84E-03
140693,8.28E-03,2.91E-03
140694,8.18E-03,2.97E-03
140695,8.08E-03,3.03E-03
140696,8.09E-03,3.09E-03
140697,8.00E-03,3.16E-03
140698,7.75E-03,3.25E-03
140699,7.34E-03,3.32E-03
140700,8.16E-03,1.27E-03
140701,7.38E-03,1.31E-03
140702,6.57E-03,1.65E-03
140703,5.90E-03,1.79E-03
140704,7.46E-03,3.42E-03
140705,6.97E-03,3.52E-03
140706,6.92E-03,3.60E-03
140707,6.58E-03,3.68E-03
140708,6.19E-03,3.78E-03
140709,5.62E-03,3.86E-03
140710,5.38E-03,9.38E-04
140711,6.84E-03,9.05E-04
140712,5.60E-03,9.70E-04
140713,7.50E-03,1.11E-03
140714,8.26E-03,1.11E-03
140715,8.38E-03,1.11E-03
140716,8.11E-03,1.07E-03
140717,5.92E-03,1.03E-03
140718,7.35E-03,1.11E-03
140719,6.67E-03,1.58E-03
140720,6.18E-03,2.71E-04
140721,7.04E-03,2.56E-04
140722,7.32E-03,2.41E-04
140723,7.38E-03,2.29E-04
140724,7.22E-03,2.21E-04
140725,6.97E-03,2.14E-04
140726,6.75E-03,2.10E-04
140727,6.47E-03,2.06E-04
140728,6.13E-03,2.01E-04
140729,6.57E-03,1.91E-04
140730,6.60E-03,1.95E-04
140731,6.02E-03,2.00E-04
140732,5.70E-03,2.03E-04
140733,7.04E-03,2.05E-04
140734,7.60E-03,2.24E-04
140735,8.29E-03,2.52E-04
140736,8.77E-03,2.87E-04
140737,6.98E-03,3.34E-04
140738,9.50E-03,7.02E-04
140739,1.11E-02,7.33E-04
140740,1.00E-02,7.31E-04
140741,8.77E-03,7.29E-04
140742,1.02E-02,7.44E-04
140743,7.27E-03,7.41E-04
140744,6.27E-03,7.33E-04
140745,7.72E-03,7.46E-04
140746,8.09E-03,7.59E-04
140747,8.55E-03,7.69E-04
140748,9.43E-03,7.80E-04
140749,8.83E-03,7.80E-04
140750,7.43E-03,7.51E-04
140751,6.97E-03,7.40E-04
140752,7.08E-03,7.44E-04
140753,6.90E-03,7.53E-04
140754,6.57E-03,7.51E-04
140755,6.30E-03,7.52E-04
140756,6.28E-03,7.67E-04
140757,6.17E-03,7.87E-04
140758,6.29E-03,8.08E-04
140759,6.46E-03,8.31E-04
140760,6.76E-03,8.49E-04
140761,6.91E-03,8.73E-04
140762,7.44E-03,1.12E-03
140763,7.38E-03,1.11E-03
140764,6.81E-03,1.11E-03
140765,6.19E-03,1.13E-03
140766,6.10E-03,1.13E-03
140767,6.72E-03,1.16E-03
140768,7.00E-03,1.18E-03
140769,7.14E-03,1.19E-03
140770,7.39E-03,1.20E-03
140771,7.49E-03,1.21E-03
140772,7.46E-03,1.23E-03
140773,7.58E-03,1.22E-03
140774,7.51E-03,1.35E-03
140775,7.60E-03,1.39E-03
140776,6.18E-03,1.43E-03
140777,6.40E-03,1.47E-03
140778,6.74E-03,1.51E-03
140779,6.79E-03,1.54E-03
140780,7.00E-03,1.57E-03
140781,6.82E-03,1.61E-03
140782,5.02E-03,1.69E-03
140783,6.13E-03,1.83E-03
140784,6.35E-03,1.84E-03
140785,6.23E-03,1.89E-03
140786,5.61E-03,1.97E-03
140787,6.11E-03,2.01E-03
140788,6.63E-03,2.05E-03
140789,8.21E-03,2.12E-03
140790,8.47E-03,2.17E-03
140791,8.45E-03,2.23E-03
140792,8.56E-03,2.30E-03
140793,8.56E-03,2.37E-03
140794,8.30E-03,2.44E-03
140795,8.47E-03,2.68E-03
140796,8.34E-03,2.74E-03
140797,8.22E-03,2.80E-03
140798,8.19E-03,2.85E-03
140799,8.12E-03,2.91E-03
140800,8.13E-03,2.97E-03
140801,8.03E-03,3.05E-03
140802,7.87E-03,3.12E-03
140803,6.93E-03,3.16E-03
140804,6.54E-03,3.26E-03
140805,6.21E-03,3.33E-03
140806,6.85E-03,3.39E-03
140807,6.97E-03,3.46E-03
140808,7.00E-03,3.53E-03
140809,7.18E-03,3.61E-03
140810,6.71E-03,3.68E-03
140811,7.22E-03,3.93E-03
140812,6.17E-03,4.07E-03
140813,6.28E-03,4.39E-03
140814,7.93E-03,4.28E-03
140815,6.42E-03,4.22E-03
140816,5.84E-03,4.15E-03
140817,7.93E-03,4.04E-03
140818,7.55E-03,4.03E-03
140819,6.54E-03,3.99E-03
140820,6.59E-03,3.91E-03
140821,6.79E-03,3.82E-03
140822,6.99E-03,3.72E-03
140823,7.27E-03,3.63E-03
140824,8.02E-03,3.51E-03
140825,8.23E-03,3.47E-03
140826,7.86E-03,3.37E-03
140827,8.05E-03,3.29E-03
140828,8.10E-03,3.22E-03
140829,8.14E-03,3.15E-03
140830,8.22E-03,3.08E-03
140831,8.31E-03,3.02E-03
140832,8.39E-03,2.96E-03
140833,8.51E-03,2.90E-03
140834,8.52E-03,2.84E-03
140835,8.44E-03,2.78E-03
140836,8.41E-03,2.73E-03
140837,8.26E-03,2.68E-03
140838,8.48E-03,2.62E-03
140839,8.66E-03,2.57E-03
140840,8.49E-03,2.52E-03
140841,8.41E-03,2.47E-03
140842,8.39E-03,2.41E-03
140843,8.47E-03,2.37E-03
140844,8.93E-03,2.33E-03
140845,8.89E-03,2.29E-03
140846,8.73E-03,2.26E-03
140847,8.41E-03,2.21E-03
140848,8.15E-03,2.18E-03
140849,8.36E-03,2.14E-03
140850,8.83E-03,2.09E-03
140851,9.18E-03,2.06E-03
140852,9.32E-03,2.04E-03
140853,9.26E-03,2.01E-03
140854,8.92E-03,1.99E-03
140855,8.66E-03,1.96E-03
140856,8.39E-03,1.93E-03
140857,8.32E-03,1.89E-03
140858,8.18E-03,1.86E-03
140859,8.08E-03,1.84E-03
140860,8.09E-03,1.81E-03
140861,8.09E-03,1.78E-03
140862,8.17E-03,1.75E-03
140863,8.27E-03,1.73E-03
140864,8.37E-03,1.70E-03
140865,8.40E-03,1.69E-03
140866,8.35E-03,1.67E-03
140867,8.22E-03,1.65E-03
140868,8.00E-03,1.63E-03
140869,7.78E-03,1.61E-03
140870,7.71E-03,1.58E-03
140871,7.91E-03,1.56E-03
140872,8.01E-03,1.54E-03
140873,8.16E-03,1.52E-03
140874,8.20E-03,1.50E-03
140875,8.10E-03,1.48E-03
140876,8.05E-03,1.46E-03
140877,7.97E-03,1.44E-03
140878,7.94E-03,1.42E-03
140879,7.91E-03,1.40E-03
140880,7.84E-03,1.37E-03
140881,7.82E-03,1.35E-03
140882,7.97E-03,1.33E-03
140883,7.97E-03,1.31E-03
140884,7.85E-03,1.29E-03
140885,7.88E-03,1.26E-03
140886,7.81E-03,1.23E-03
140887,8.02E-03,1.20E-03
140888,8.25E-03,1.17E-03
140889,8.46E-03,1.14E-03
140890,8.37E-03,1.11E-03
140891,8.35E-03,1.08E-03
140892,8.36E-03,1.05E-03
140893,8.39E-03,1.02E-03
140894,8.28E-03,9.92E-04
140895,8.28E-03,9.62E-04
140896,8.46E-03,9.33E-04
140897,8.44E-03,9.16E-04
140898,8.09E-03,8.98E-04
140899,6.18E-03,8.89E-04
140900,6.69E-03,8.50E-04
140901,1.03E-02,8.19E-04
140902,9.16E-03,7.81E-04
140903,8.57E-03,7.57E-04
140904,8.11E-03,7.32E-04
140905,7.98E-03,7.05E-04
140906,7.70E-03,6.77E-04
140907,7.57E-03,6.53E-04
140908,7.80E-03,6.23E-04
140909,8.01E-03,5.89E-04
140910,1.01E-02,4.73E-04
140911,9.45E-03,4.82E-04
140912,9.35E-03,4.68E-04
140913,9.05E-03,4.55E-04
140914,8.64E-03,4.46E-04
140915,8.64E-03,4.32E-04
140916,8.97E-03,4.16E-04
140917,9.25E-03,4.09E-04
140918,9.46E-03,4.02E-04
140919,9.16E-03,3.94E-04
140920,8.86E-03,3.91E-04
140921,8.77E-03,3.88E-04
140922,8.73E-03,3.85E-04
140923,8.73E-03,3.81E-04
140924,8.75E-03,3.76E-04
140925,8.75E-03,3.73E-04
140926,8.70E-03,3.69E-04
140927,8.66E-03,3.65E-04
140928,8.62E-03,3.60E-04
140929,8.52E-03,3.55E-04
140930,8.44E-03,3.49E-04
140931,8.38E-03,3.43E-04
140932,8.26E-03,3.35E-04
140933,8.19E-03,3.26E-04
140934,8.10E-03,3.17E-04
140935,8.05E-03,3.07E-04
140936,7.83E-03,2.96E-04
140937,7.69E-03,2.85E-04
140938,7.51E-03,2.73E-04
140939,7.50E-03,2.59E-04
140940,8.04E-03,2.45E-04
140941,8.22E-03,2.29E-04
140942,8.47E-03,2.13E-04
140943,8.53E-03,1.98E-04
140944,8.83E-03,1.84E-04
140945,9.00E-03,1.72E-04
140946,9.21E-03,1.64E-04
140947,9.41E-03,1.59E-04
140948,9.30E-03,1.54E-04
140949,9.23E-03,1.52E-04
140950,8.98E-03,2.61E-04
140951,1.02E-02,1.58E-04
140952,8.87E-03,2.56E-04
140953,9.21E-03,1.76E-04
140954,6.46E-03,2.67E-04
140955,6.27E-03,2.85E-04
140956,6.58E-03,2.88E-04
140957,7.09E-03,2.87E-04
140958,7.25E-03,2.83E-04
140959,7.48E-03,2.79E-04
140960,7.64E-03,2.78E-04
140961,7.87E-03,2.77E-04
140962,7.87E-03,2.77E-04
140963,7.91E-03,2.77E-04
140964,7.99E-03,2.77E-04
140965,7.98E-03,2.78E-04
140966,7.98E-03,2.80E-04
140967,7.98E-03,2.82E-04
140968,7.92E-03,2.85E-04
140969,7.85E-03,2.88E-04
140970,7.81E-03,2.91E-04
140971,7.79E-03,2.95E-04
140972,7.73E-03,2.98E-04
140973,7.74E-03,3.02E-04
140974,7.52E-03,3.05E-04
140975,7.42E-03,3.08E-04
140976,7.32E-03,3.10E-04
140977,6.59E-03,3.13E-04
140978,6.52E-03,3.14E-04
140979,5.50E-03,3.16E-04
140980,5.51E-03,3.08E-04
140981,5.28E-03,3.15E-04
140982,5.59E-03,3.11E-04
140983,5.28E-03,3.14E-04
140984,5.29E-03,3.14E-04
140985,4.64E-03,3.14E-04
140986,4.54E-03,3.11E-04
140987,4.09E-03,3.17E-04
140988,3.50E-03,3.12E-04
140989,5.80E-03,3.27E-04
140990,5.98E-03,3.33E-04
140991,6.36E-03,3.36E-04
140992,6.81E-03,3.40E-04
140993,6.85E-03,3.43E-04
140994,7.07E-03,3.43E-04
140995,7.11E-03,3.40E-04
140996,7.53E-03,3.35E-04
140997,7.64E-03,3.30E-04
140998,7.27E-03,3.31E-04
140999,6.48E-03,3.30E-04
141000,8.60E-03,1.24E-03
141001,7.44E-03,1.21E-03
141002,7.58E-03,9.66E-04
141003,7.59E-03,9.53E-04
141004,5.90E-03,9.65E-04
141005,4.55E-03,9.99E-04
141006,6.70E-03,1.01E-03
141007,7.34E-03,1.03E-03
141008,7.29E-03,1.04E-03
141009,6.45E-03,5.36E-04
141010,6.67E-03,5.20E-04
141011,7.03E-03,4.92E-04
141012,7.01E-03,4.64E-04
141013,6.93E-03,4.38E-04
141014,6.65E-03,4.04E-04
141015,6.62E-03,3.59E-04
141016,7.78E-03,3.19E-04
141017,5.21E-03,4.63E-04
141018,8.68E-03,8.45E-04
141019,7.24E-03,1.04E-03
141020,5.85E-03,9.79E-04
141021,7.58E-03,1.23E-03
141022,7.41E-03,1.17E-03
141023,6.64E-03,1.15E-03
141024,7.15E-03,1.15E-03
141025,5.47E-03,1.08E-03
141026,7.03E-03,1.58E-03
141027,5.43E-03,2.19E-04
141028,7.04E-03,2.86E-04
141029,7.30E-03,2.77E-04
141030,7.40E-03,2.69E-04
141031,7.31E-03,2.62E-04
141032,7.15E-03,2.56E-04
141033,7.01E-03,2.52E-04
141034,6.77E-03,2.47E-04
141035,6.27E-03,2.37E-04
141036,7.66E-03,2.11E-04
141037,7.08E-03,2.16E-04
141038,6.78E-03,2.15E-04
141039,6.72E-03,2.07E-04
141040,7.22E-03,2.01E-04
141041,7.68E-03,2.02E-04
141042,8.38E-03,2.18E-04
141043,8.97E-03,2.40E-04
141044,7.69E-03,2.80E-04
141045,4.68E-03,3.13E-04
141046,6.06E-03,3.35E-04
141047,6.76E-03,3.50E-04
141048,6.67E-03,3.73E-04
141049,6.92E-03,4.03E-04
141050,6.37E-03,4.36E-04
141051,8.62E-03,5.93E-04
141052,9.78E-03,6.09E-04
141053,9.75E-03,6.28E-04
141054,9.47E-03,6.42E-04
141055,9.14E-03,6.55E-04
141056,8.76E-03,6.58E-04
141057,7.98E-03,6.73E-04
141058,7.80E-03,6.77E-04
141059,7.81E-03,6.76E-04
141060,8.07E-03,6.83E-04
141061,8.41E-03,6.89E-04
141062,8.56E-03,6.88E-04
141063,8.33E-03,6.85E-04
141064,8.02E-03,6.79E-04
141065,7.27E-03,6.65E-04
141066,7.19E-03,6.63E-04
141067,7.07E-03,6.63E-04
141068,6.86E-03,6.64E-04
141069,6.79E-03,6.65E-04
141070,6.68E-03,6.67E-04
141071,6.61E-03,6.75E-04
141072,6.60E-03,6.88E-04
141073,6.53E-03,7.06E-04
141074,6.54E-03,7.26E-04
141075,6.96E-03,7.49E-04
141076,7.17E-03,7.73E-04
141077,7.55E-03,8.01E-04
141078,7.90E-03,8.66E-04
141079,7.76E-03,8.98E-04
141080,5.85E-03,9.36E-04
141081,6.32E-03,9.46E-04
141082,6.74E-03,9.53E-04
141083,6.99E-03,9.65E-04
141084,7.53E-03,1.04E-03
141085,7.47E-03,1.03E-03
141086,7.28E-03,1.04E-03
141087,6.97E-03,1.06E-03
141088,6.68E-03,1.07E-03
141089,6.88E-03,1.08E-03
141090,7.10E-03,1.10E-03
141091,7.31E-03,1.11E-03
141092,7.53E-03,1.12E-03
141093,7.61E-03,1.13E-03
141094,7.62E-03,1.14E-03
141095,7.75E-03,1.14E-03
141096,8.23E-03,1.13E-03
141097,9.29E-03,1.10E-03
141098,8.59E-03,1.06E-03
141099,5.86E-03,9.93E-04
141100,6.53E-03,1.04E-03
141101,7.68E-03,1.24E-03
141102,8.23E-03,1.26E-03
141103,6.42E-03,1.30E-03
141104,6.69E-03,1.35E-03
141105,6.88E-03,1.39E-03
141106,6.86E-03,1.43E-03
141107,6.98E-03,1.47E-03
141108,7.62E-03,1.52E-03
141109,6.54E-03,1.70E-03
141110,6.81E-03,1.73E-03
141111,6.64E-03,1.79E-03
141112,6.44E-03,1.85E-03
141113,6.63E-03,1.91E-03
141114,7.11E-03,1.97E-03
141115,7.76E-03,2.02E-03
141116,8.19E-03,2.08E-03
141117,8.23E-03,2.13E-03
141118,8.49E-03,2.20E-03
141119,8.60E-03,2.27E-03
141120,8.94E-03,2.36E-03
141121,7.57E-03,2.45E-03
141122,8.03E-03,2.51E-03
141123,8.33E-03,2.58E-03
141124,8.23E-03,2.64E-03
141125,8.10E-03,2.70E-03
141126,8.10E-03,2.75E-03
141127,8.25E-03,2.81E-03
141128,8.17E-03,2.87E-03
141129,8.27E-03,2.93E-03
141130,7.78E-03,2.99E-03
141131,7.41E-03,3.06E-03
141132,7.26E-03,3.14E-03
141133,6.79E-03,3.21E-03
141134,6.97E-03,3.26E-03
141135,7.22E-03,3.32E-03
141136,7.19E-03,3.38E-03
141137,7.07E-03,3.43E-03
141138,6.83E-03,3.49E-03
141139,6.66E-03,3.58E-03
141140,6.79E-03,3.74E-03
141141,7.00E-03,3.82E-03
141142,8.60E-03,3.95E-03
141143,8.31E-03,4.06E-03
141144,7.41E-03,4.19E-03
141145,6.73E-03,4.56E-03
141146,8.13E-03,4.41E-03
141147,6.97E-03,2.76E-04
141148,5.56E-03,1.09E-03
141149,7.28E-03,1.08E-03
141150,6.13E-03,1.07E-03
141151,6.66E-03,1.03E-03
141152,6.99E-03,3.11E-04
141153,6.86E-03,3.21E-04
141154,6.90E-03,3.25E-04
141155,7.29E-03,3.25E-04
141156,7.38E-03,3.24E-04
141157,7.55E-03,3.24E-04
141158,7.67E-03,3.24E-04
141159,7.93E-03,3.24E-04
141160,7.96E-03,3.26E-04
141161,7.99E-03,3.27E-04
141162,8.01E-03,3.28E-04
141163,8.00E-03,3.29E-04
141164,8.00E-03,3.30E-04
141165,8.00E-03,3.31E-04
141166,8.00E-03,3.32E-04
141167,7.99E-03,3.32E-04
141168,7.98E-03,3.32E-04
141169,7.96E-03,3.32E-04
141170,7.84E-03,3.31E-04
141171,7.82E-03,3.30E-04
141172,7.55E-03,3.28E-04
141173,7.46E-03,3.27E-04
141174,7.19E-03,3.25E-04
141175,6.93E-03,3.22E-04
141176,6.52E-03,3.21E-04
141177,6.24E-03,3.16E-04
141178,5.94E-03,3.11E-04
141179,5.87E-03,3.07E-04
141180,5.85E-03,3.05E-04
141181,5.63E-03,3.01E-04
141182,5.47E-03,3.00E-04
141183,5.31E-03,2.98E-04
141184,5.03E-03,2.98E-04
141185,4.60E-03,2.98E-04
141186,4.56E-03,3.00E-04
141187,4.99E-03,3.05E-04
141188,5.35E-03,3.18E-04
141189,5.73E-03,3.27E-04
141190,6.23E-03,3.34E-04
141191,6.52E-03,3.43E-04
141192,6.80E-03,3.51E-04
141193,7.02E-03,3.57E-04
141194,7.18E-03,3.63E-04
141195,7.34E-03,3.69E-04
141196,7.51E-03,3.75E-04
141197,7.41E-03,3.84E-04
141198,7.15E-03,3.91E-04
141199,6.57E-03,3.95E-04
141200,6.24E-03,3.78E-04
141201,6.43E-03,3.48E-04
141202,7.38E-03,3.14E-04
141203,9.34E-03,2.57E-04
141204,8.12E-03,1.87E-04
141205,8.20E-03,1.51E-04
141206,8.68E-03,1.29E-04
141207,8.99E-03,1.21E-04
141208,9.20E-03,1.29E-04
141209,9.04E-03,1.44E-04
141210,9.12E-03,1.63E-04
141211,8.91E-03,1.82E-04
141212,8.79E-03,2.01E-04
141213,8.72E-03,2.21E-04
141214,8.46E-03,2.42E-04
141215,8.42E-03,2.63E-04
141216,8.23E-03,2.84E-04
141217,7.98E-03,3.04E-04
141218,7.61E-03,3.21E-04
141219,7.61E-03,3.37E-04
141220,7.76E-03,3.51E-04
141221,7.88E-03,3.64E-04
141222,8.01E-03,3.76E-04
141223,8.10E-03,3.87E-04
141224,8.22E-03,3.96E-04
141225,8.37E-03,4.05E-04
141226,8.45E-03,4.12E-04
141227,8.48E-03,4.19E-04
141228,8.50E-03,4.25E-04
141229,8.52E-03,4.30E-04
141230,8.55E-03,4.35E-04
141231,8.59E-03,4.39E-04
141232,8.63E-03,4.43E-04
141233,8.67E-03,4.46E-04
141234,8.67E-03,4.50E-04
141235,8.66E-03,4.53E-04
141236,8.78E-03,4.57E-04
141237,8.88E-03,4.61E-04
141238,9.01E-03,4.68E-04
141239,9.08E-03,4.77E-04
141240,8.98E-03,4.86E-04
141241,8.91E-03,4.93E-04
141242,8.75E-03,5.04E-04
141243,8.77E-03,5.17E-04
141244,8.92E-03,5.31E-04
141245,9.23E-03,5.49E-04
141246,9.64E-03,5.64E-04
141247,1.08E-02,5.74E-04
141248,1.09E-02,5.92E-04
141249,9.07E-03,6.30E-04
141250,8.31E-03,6.66E-04
141251,8.07E-03,6.99E-04
141252,7.97E-03,7.29E-04
141253,8.13E-03,7.57E-04
141254,8.09E-03,7.86E-04
141255,8.17E-03,8.12E-04
141256,8.41E-03,8.37E-04
141257,8.69E-03,8.63E-04
141258,8.25E-03,8.92E-04
141259,7.53E-03,9.07E-04
141260,7.57E-03,9.52E-04
141261,7.54E-03,9.81E-04
141262,8.19E-03,1.00E-03
141263,8.33E-03,1.02E-03
141264,8.32E-03,1.05E-03
141265,8.29E-03,1.08E-03
141266,8.26E-03,1.11E-03
141267,8.28E-03,1.14E-03
141268,8.34E-03,1.17E-03
141269,8.28E-03,1.20E-03
141270,8.19E-03,1.23E-03
141271,8.08E-03,1.26E-03
141272,7.97E-03,1.29E-03
141273,7.88E-03,1.31E-03
141274,7.91E-03,1.34E-03
141275,7.92E-03,1.37E-03
141276,8.01E-03,1.39E-03
141277,8.06E-03,1.42E-03
141278,8.03E-03,1.44E-03
141279,8.06E-03,1.46E-03
141280,8.08E-03,1.48E-03
141281,8.10E-03,1.51E-03
141282,8.09E-03,1.53E-03
141283,8.12E-03,1.55E-03
141284,8.14E-03,1.57E-03
141285,8.15E-03,1.59E-03
141286,8.15E-03,1.61E-03
141287,8.07E-03,1.63E-03
141288,8.00E-03,1.65E-03
141289,8.00E-03,1.67E-03
141290,8.03E-03,1.70E-03
141291,8.08E-03,1.72E-03
141292,8.17E-03,1.74E-03
141293,8.27E-03,1.76E-03
141294,8.34E-03,1.78E-03
141295,8.31E-03,1.81E-03
141296,8.25E-03,1.83E-03
141297,8.23E-03,1.85E-03
141298,8.18E-03,1.88E-03
141299,8.18E-03,1.91E-03
141300,8.25E-03,1.94E-03
141301,8.26E-03,1.97E-03
141302,8.29E-03,2.00E-03
141303,8.42E-03,2.03E-03
141304,8.60E-03,2.06E-03
141305,8.71E-03,2.09E-03
141306,8.84E-03,2.13E-03
141307,8.92E-03,2.16E-03
141308,8.84E-03,2.19E-03
141309,8.69E-03,2.22E-03
141310,8.54E-03,2.25E-03
141311,8.42E-03,2.29E-03
141312,8.39E-03,2.33E-03
141313,8.54E-03,2.37E-03
141314,8.66E-03,2.41E-03
141315,8.58E-03,2.45E-03
141316,8.52E-03,2.49E-03
141317,8.49E-03,2.53E-03
141318,8.40E-03,2.59E-03
141319,8.45E-03,2.64E-03
141320,8.51E-03,2.69E-03
141321,8.50E-03,2.74E-03
141322,8.48E-03,2.79E-03
141323,8.50E-03,2.85E-03
141324,8.53E-03,2.90E-03
141325,8.56E-03,2.96E-03
141326,8.47E-03,3.02E-03
141327,8.42E-03,3.08E-03
141328,8.33E-03,3.14E-03
141329,8.29E-03,3.21E-03
141330,8.23E-03,3.28E-03
141331,8.18E-03,3.35E-03
141332,8.09E-03,3.42E-03
141333,8.06E-03,3.50E-03
141334,8.04E-03,3.59E-03
141335,7.80E-03,3.66E-03
141336,7.49E-03,3.75E-03
141337,7.26E-03,3.85E-03
141338,7.06E-03,3.94E-03
141339,6.98E-03,4.03E-03
141340,7.14E-03,4.11E-03
141341,7.31E-03,4.19E-03
141342,7.18E-03,4.24E-03
141343,6.99E-03,4.28E-03
141344,6.86E-03,4.42E-03
141345,6.76E-03,4.52E-03
141346,6.39E-03,4.58E-03
141347,6.83E-03,4.59E-03
141348,6.76E-03,4.67E-03
141349,6.02E-03,4.82E-03
141350,7.17E-03,4.81E-03
141351,7.60E-03,4.93E-03
141352,5.47E-03,2.57E-04
141353,6.87E-03,3.97E-04
141354,9.53E-03,7.71E-04
141355,6.37E-03,9.25E-04
141356,6.20E-03,9.03E-04
141357,6.07E-03,1.00E-03
141358,8.46E-03,1.51E-03
141359,5.94E-03,8.88E-04
141360,6.78E-03,9.38E-04
141361,8.99E-03,1.09E-03
141362,8.45E-03,1.13E-03
141363,6.86E-03,1.17E-03
141364,7.03E-03,1.22E-03
141365,7.14E-03,1.27E-03
141366,7.29E-03,1.33E-03
141367,7.41E-03,1.38E-03
141368,7.91E-03,1.44E-03
141369,5.93E-03,2.50E-04
141370,6.69E-03,2.60E-04
141371,6.84E-03,2.83E-04
141372,7.04E-03,3.13E-04
141373,7.08E-03,3.48E-04
141374,1.03E-02,4.81E-04
141375,9.49E-03,5.12E-04
141376,9.22E-03,5.39E-04
141377,9.04E-03,5.62E-04
141378,8.77E-03,5.80E-04
141379,8.48E-03,5.93E-04
141380,8.32E-03,6.07E-04
141381,8.17E-03,6.15E-04
141382,7.90E-03,6.15E-04
141383,8.11E-03,6.13E-04
141384,8.24E-03,6.12E-04
141385,8.28E-03,6.09E-04
141386,8.24E-03,6.03E-04
141387,7.93E-03,5.98E-04
141388,7.72E-03,5.92E-04
141389,7.39E-03,5.84E-04
141390,7.27E-03,5.81E-04
141391,7.08E-03,5.79E-04
141392,7.07E-03,5.80E-04
141393,6.98E-03,5.84E-04
141394,6.88E-03,5.92E-04
141395,6.95E-03,6.05E-04
141396,6.80E-03,6.22E-04
141397,6.79E-03,6.42E-04
141398,7.39E-03,6.69E-04
141399,7.62E-03,6.99E-04
141400,8.18E-03,7.34E-04
141401,8.49E-03,8.02E-04
141402,8.31E-03,8.31E-04
141403,6.49E-03,8.56E-04
141404,6.67E-03,8.73E-04
141405,6.80E-03,8.85E-04
141406,7.23E-03,8.97E-04
141407,9.07E-03,9.56E-04
141408,8.00E-03,9.60E-04
141409,7.61E-03,9.78E-04
141410,7.32E-03,9.90E-04
141411,7.02E-03,1.00E-03
141412,7.22E-03,1.01E-03
141413,7.28E-03,1.02E-03
141414,7.56E-03,1.04E-03
141415,7.61E-03,1.05E-03
141416,7.73E-03,1.06E-03
141417,7.85E-03,1.07E-03
141418,7.76E-03,1.05E-03
141419,8.15E-03,1.03E-03
141420,8.03E-03,9.89E-04
141421,7.23E-03,9.52E-04
141422,8.40E-03,1.57E-03
141423,7.50E-03,1.62E-03
141424,6.98E-03,1.68E-03
141425,6.96E-03,1.74E-03
141426,7.05E-03,1.80E-03
141427,7.42E-03,1.86E-03
141428,7.70E-03,1.92E-03
141429,7.92E-03,1.98E-03
141430,8.18E-03,2.04E-03
141431,8.36E-03,2.11E-03
141432,8.61E-03,2.19E-03
141433,8.61E-03,2.27E-03
141434,7.75E-03,2.34E-03
141435,7.86E-03,2.41E-03
141436,8.08E-03,2.47E-03
141437,8.18E-03,2.54E-03
141438,8.04E-03,2.60E-03
141439,8.08E-03,2.66E-03
141440,8.23E-03,2.72E-03
141441,8.18E-03,2.78E-03
141442,8.04E-03,2.84E-03
141443,7.87E-03,2.89E-03
141444,7.66E-03,2.96E-03
141445,7.47E-03,3.02E-03
141446,7.23E-03,3.07E-03
141447,7.25E-03,3.12E-03
141448,7.32E-03,3.16E-03
141449,7.30E-03,3.21E-03
141450,7.24E-03,3.27E-03
141451,7.13E-03,3.34E-03
141452,7.13E-03,3.44E-03
141453,7.19E-03,3.56E-03
141454,7.27E-03,3.67E-03
141455,7.76E-03,3.78E-03
141456,7.93E-03,3.89E-03
141457,7.91E-03,4.04E-03
141458,8.09E-03,4.25E-03
141459,7.24E-03,4.31E-03
141460,7.67E-03,4.53E-03
141461,7.85E-03,4.70E-03
141462,9.73E-03,1.81E-04
141463,8.57E-03,1.37E-04
141464,8.41E-03,1.11E-04
141465,8.46E-03,1.14E-04
141466,8.68E-03,1.28E-04
141467,8.85E-03,1.48E-04
141468,8.89E-03,1.72E-04
141469,8.97E-03,1.99E-04
141470,8.69E-03,2.26E-04
141471,8.63E-03,2.52E-04
141472,8.57E-03,2.78E-04
141473,8.40E-03,3.02E-04
141474,8.31E-03,3.27E-04
141475,8.25E-03,3.50E-04
141476,7.96E-03,3.72E-04
141477,7.72E-03,3.91E-04
141478,7.72E-03,4.09E-04
141479,7.83E-03,4.25E-04
141480,7.93E-03,4.39E-04
141481,8.03E-03,4.52E-04
141482,8.10E-03,4.63E-04
141483,8.19E-03,4.72E-04
141484,8.31E-03,4.81E-04
141485,8.37E-03,4.88E-04
141486,8.39E-03,4.94E-04
141487,8.41E-03,5.00E-04
141488,8.43E-03,5.05E-04
141489,8.45E-03,5.10E-04
141490,8.48E-03,5.14E-04
141491,8.51E-03,5.18E-04
141492,8.54E-03,5.21E-04
141493,8.58E-03,5.24E-04
141494,8.62E-03,5.28E-04
141495,8.70E-03,5.32E-04
141496,8.72E-03,5.38E-04
141497,8.78E-03,5.46E-04
141498,8.83E-03,5.54E-04
141499,8.77E-03,5.63E-04
141500,8.79E-03,5.72E-04
141501,8.82E-03,5.82E-04
141502,8.83E-03,5.95E-04
141503,8.90E-03,6.10E-04
141504,9.11E-03,6.27E-04
141505,9.56E-03,6.45E-04
141506,9.65E-03,6.70E-04
141507,9.53E-03,6.92E-04
141508,8.84E-03,7.15E-04
141509,8.45E-03,7.46E-04
141510,8.22E-03,7.77E-04
141511,8.16E-03,8.07E-04
141512,8.17E-03,8.37E-04
141513,8.09E-03,8.65E-04
141514,8.15E-03,8.93E-04
141515,8.26E-03,9.19E-04
141516,8.28E-03,9.46E-04
141517,8.15E-03,9.68E-04
141518,8.02E-03,9.93E-04
141519,8.07E-03,1.02E-03
141520,7.99E-03,1.06E-03
141521,8.03E-03,1.08E-03
141522,8.15E-03,1.11E-03
141523,8.19E-03,1.14E-03
141524,8.25E-03,1.16E-03
141525,8.25E-03,1.19E-03
141526,8.23E-03,1.22E-03
141527,8.18E-03,1.25E-03
141528,8.13E-03,1.29E-03
141529,8.14E-03,1.31E-03
141530,8.14E-03,1.34E-03
141531,8.10E-03,1.37E-03
141532,7.99E-03,1.40E-03
141533,8.04E-03,1.43E-03
141534,8.04E-03,1.45E-03
141535,8.08E-03,1.48E-03
141536,8.09E-03,1.50E-03
141537,8.12E-03,1.53E-03
141538,8.19E-03,1.55E-03
141539,8.19E-03,1.57E-03
141540,8.19E-03,1.60E-03
141541,8.20E-03,1.62E-03
141542,8.20E-03,1.64E-03
141543,8.21E-03,1.66E-03
141544,8.21E-03,1.68E-03
141545,8.22E-03,1.70E-03
141546,8.17E-03,1.73E-03
141547,8.19E-03,1.75E-03
141548,8.24E-03,1.77E-03
141549,8.20E-03,1.79E-03
141550,8.15E-03,1.81E-03
141551,8.21E-03,1.84E-03
141552,8.28E-03,1.86E-03
141553,8.29E-03,1.88E-03
141554,8.30E-03,1.91E-03
141555,8.31E-03,1.93E-03
141556,8.28E-03,1.96E-03
141557,8.23E-03,1.98E-03
141558,8.24E-03,2.01E-03
141559,8.26E-03,2.04E-03
141560,8.33E-03,2.07E-03
141561,8.41E-03,2.10E-03
141562,8.42E-03,2.14E-03
141563,8.43E-03,2.17E-03
141564,8.52E-03,2.20E-03
141565,8.59E-03,2.24E-03
141566,8.60E-03,2.27E-03
141567,8.59E-03,2.31E-03
141568,8.55E-03,2.34E-03
141569,8.50E-03,2.37E-03
141570,8.44E-03,2.41E-03
141571,8.43E-03,2.45E-03
141572,8.43E-03,2.49E-03
141573,8.43E-03,2.53E-03
141574,8.42E-03,2.57E-03
141575,8.42E-03,2.61E-03
141576,8.42E-03,2.66E-03
141577,8.42E-03,2.71E-03
141578,8.42E-03,2.76E-03
141579,8.42E-03,2.81E-03
141580,8.41E-03,2.86E-03
141581,8.40E-03,2.91E-03
141582,8.43E-03,2.97E-03
141583,8.43E-03,3.03E-03
141584,8.39E-03,3.09E-03
141585,8.37E-03,3.14E-03
141586,8.37E-03,3.21E-03
141587,8.28E-03,3.27E-03
141588,8.25E-03,3.34E-03
141589,8.18E-03,3.41E-03
141590,8.18E-03,3.48E-03
141591,8.11E-03,3.56E-03
141592,7.97E-03,3.64E-03
141593,7.89E-03,3.72E-03
141594,7.81E-03,3.80E-03
141595,7.68E-03,3.89E-03
141596,7.48E-03,3.98E-03
141597,7.33E-03,4.07E-03
141598,7.24E-03,4.16E-03
141599,7.26E-03,4.25E-03
141600,7.29E-03,4.34E-03
141601,7.25E-03,4.40E-03
141602,7.25E-03,4.47E-03
141603,7.19E-03,4.58E-03
141604,6.99E-03,4.68E-03
141605,6.88E-03,4.73E-03
141606,6.86E-03,4.79E-03
141607,7.20E-03,4.88E-03
141608,7.35E-03,4.97E-03
141609,7.36E-03,5.06E-03
141610,7.22E-03,5.16E-03
141611,7.38E-03,5.23E-03
141612,8.69E-03,5.33E-03
141613,8.47E-03,5.51E-03
141614,6.69E-03,5.72E-03
141615,1.00E-02,2.28E-04
141616,8.90E-03,2.06E-04
141617,8.60E-03,1.99E-04
141618,8.05E-03,2.08E-04
141619,7.28E-03,2.21E-04
141620,7.23E-03,2.32E-04
141621,7.32E-03,2.44E-04
141622,7.58E-03,2.49E-04
141623,8.73E-03,2.48E-04
141624,8.30E-03,2.60E-04
141625,7.12E-03,2.82E-04
141626,7.13E-03,2.93E-04
141627,7.25E-03,2.99E-04
141628,7.29E-03,3.03E-04
141629,7.45E-03,3.06E-04
141630,7.45E-03,3.11E-04
141631,7.31E-03,3.16E-04
141632,7.07E-03,3.23E-04
141633,7.25E-03,3.27E-04
141634,6.15E-03,3.34E-04
141635,6.76E-03,3.49E-04
141636,7.05E-03,3.51E-04
141637,7.06E-03,3.54E-04
141638,7.35E-03,3.57E-04
141639,7.44E-03,3.61E-04
141640,7.54E-03,3.63E-04
141641,7.70E-03,3.67E-04
141642,7.77E-03,3.70E-04
141643,7.97E-03,3.74E-04
141644,7.99E-03,3.77E-04
141645,8.02E-03,3.80E-04
141646,8.03E-03,3.82E-04
141647,8.03E-03,3.83E-04
141648,8.02E-03,3.84E-04
141649,8.02E-03,3.84E-04
141650,8.02E-03,3.82E-04
141651,8.02E-03,3.80E-04
141652,8.01E-03,3.77E-04
141653,7.99E-03,3.73E-04
141654,7.92E-03,3.67E-04
141655,7.84E-03,3.61E-04
141656,7.63E-03,3.54E-04
141657,7.53E-03,3.47E-04
141658,7.34E-03,3.40E-04
141659,7.12E-03,3.32E-04
141660,6.88E-03,3.24E-04
141661,6.64E-03,3.16E-04
141662,6.47E-03,3.08E-04
141663,6.32E-03,2.99E-04
141664,6.24E-03,2.92E-04
141665,6.10E-03,2.86E-04
141666,5.97E-03,2.82E-04
141667,5.80E-03,2.80E-04
141668,5.51E-03,2.80E-04
141669,5.49E-03,2.80E-04
141670,5.46E-03,2.86E-04
141671,5.32E-03,2.94E-04
141672,5.86E-03,3.05E-04
141673,6.26E-03,3.18E-04
141674,6.49E-03,3.32E-04
141675,6.77E-03,3.45E-04
141676,7.01E-03,3.58E-04
141677,7.21E-03,3.72E-04
141678,7.37E-03,3.85E-04
141679,7.48E-03,4.00E-04
141680,7.49E-03,4.17E-04
141681,7.41E-03,4.33E-04
141682,7.26E-03,4.47E-04
141683,7.00E-03,4.54E-04
141684,6.97E-03,4.52E-04
141685,7.26E-03,4.40E-04
141686,7.89E-03,4.13E-04
141687,6.35E-03,3.14E-04
141688,8.69E-03,1.01E-03
141689,5.89E-03,7.98E-03
141690,6.51E-03,8.00E-03
141691,7.08E-03,8.06E-03
141692,6.90E-03,8.19E-03
141693,7.38E-03,8.42E-03
141694,8.45E-03,8.76E-03
141695,8.73E-03,9.01E-03
141696,7.91E-03,9.32E-03
141697,7.66E-03,9.58E-03
141698,7.35E-03,9.81E-03
141699,7.07E-03,9.98E-03
141700,6.46E-03,1.01E-02
141701,8.77E-03,1.04E-02
141702,7.83E-03,1.05E-02
141703,6.98E-03,1.07E-02
141704,5.69E-03,1.10E-02
141705,9.22E-03,4.31E-04
141706,9.09E-03,5.14E-04
141707,8.34E-03,5.52E-04
141708,8.06E-03,5.47E-04
141709,7.65E-03,5.49E-04
141710,7.53E-03,5.40E-04
141711,7.49E-03,5.24E-04
141712,7.51E-03,5.05E-04
141713,7.54E-03,4.84E-04
141714,7.64E-03,4.60E-04
141715,7.64E-03,4.35E-04
141716,7.57E-03,4.11E-04
141717,7.42E-03,3.88E-04
141718,7.26E-03,3.65E-04
141719,7.07E-03,3.43E-04
141720,6.88E-03,3.23E-04
141721,6.69E-03,3.04E-04
141722,6.56E-03,2.89E-04
141723,6.47E-03,2.77E-04
141724,6.27E-03,2.67E-04
141725,6.20E-03,2.62E-04
141726,6.25E-03,2.60E-04
141727,6.30E-03,2.60E-04
141728,6.40E-03,2.63E-04
141729,6.56E-03,2.69E-04
141730,6.67E-03,2.77E-04
141731,6.78E-03,2.88E-04
141732,6.92E-03,3.00E-04
141733,7.06E-03,3.13E-04
141734,7.22E-03,3.27E-04
141735,7.38E-03,3.42E-04
141736,7.53E-03,3.56E-04
141737,7.66E-03,3.71E-04
141738,7.76E-03,3.84E-04
141739,7.89E-03,3.96E-04
141740,8.01E-03,4.07E-04
141741,8.02E-03,4.17E-04
141742,8.03E-03,4.25E-04
141743,8.04E-03,4.32E-04
141744,8.04E-03,4.37E-04
141745,8.04E-03,4.40E-04
141746,8.05E-03,4.41E-04
141747,8.05E-03,4.41E-04
141748,8.05E-03,4.39E-04
141749,8.04E-03,4.36E-04
141750,8.02E-03,4.31E-04
141751,8.01E-03,4.25E-04
141752,7.90E-03,4.18E-04
141753,7.81E-03,4.10E-04
141754,7.69E-03,4.01E-04
141755,7.59E-03,3.93E-04
141756,7.59E-03,3.85E-04
141757,7.12E-03,3.80E-04
141758,7.18E-03,3.79E-04
141759,7.01E-03,3.74E-04
141760,7.07E-03,3.68E-04
141761,7.47E-03,3.63E-04
141762,7.45E-03,3.61E-04
141763,7.55E-03,3.60E-04
141764,7.59E-03,3.57E-04
141765,7.60E-03,3.53E-04
141766,7.55E-03,3.49E-04
141767,7.51E-03,3.44E-04
141768,7.49E-03,3.39E-04
141769,7.67E-03,3.28E-04
141770,7.79E-03,3.12E-04
141771,7.90E-03,3.03E-04
141772,7.86E-03,2.93E-04
141773,7.62E-03,2.86E-04
141774,7.54E-03,2.74E-04
141775,7.32E-03,2.60E-04
141776,8.36E-03,2.41E-04
141777,8.36E-03,2.22E-04
141778,9.05E-03,2.06E-04
141779,1.03E-02,1.86E-04
141780,8.37E-03,1.87E-04
141781,7.11E-03,1.85E-04
141782,7.04E-03,1.93E-04
141783,7.19E-03,2.06E-04
141784,7.41E-03,2.32E-04
141785,7.69E-03,2.71E-04
141786,9.12E-03,3.26E-04
141787,1.07E-02,3.80E-04
141788,9.29E-03,4.26E-04
141789,8.93E-03,4.62E-04
141790,8.71E-03,4.92E-04
141791,8.58E-03,5.15E-04
141792,8.41E-03,5.35E-04
141793,8.22E-03,5.47E-04
141794,8.30E-03,5.54E-04
141795,8.14E-03,5.55E-04
141796,8.12E-03,5.50E-04
141797,8.15E-03,5.43E-04
141798,8.18E-03,5.37E-04
141799,8.12E-03,5.29E-04
141800,7.95E-03,5.21E-04
141801,7.85E-03,5.14E-04
141802,7.69E-03,5.06E-04
141803,7.48E-03,5.01E-04
141804,7.37E-03,4.98E-04
141805,7.32E-03,4.98E-04
141806,7.24E-03,5.01E-04
141807,7.21E-03,5.06E-04
141808,7.23E-03,5.16E-04
141809,7.12E-03,5.31E-04
141810,7.15E-03,5.54E-04
141811,7.65E-03,5.85E-04
141812,7.92E-03,6.26E-04
141813,8.37E-03,6.68E-04
141814,8.60E-03,6.95E-04
141815,8.65E-03,7.14E-04
141816,8.48E-03,7.42E-04
141817,8.35E-03,7.58E-04
141818,6.91E-03,7.74E-04
141819,6.99E-03,7.94E-04
141820,7.27E-03,8.19E-04
141821,7.54E-03,8.45E-04
141822,8.94E-03,8.76E-04
141823,9.69E-03,8.98E-04
141824,8.48E-03,9.05E-04
141825,7.83E-03,9.10E-04
141826,7.57E-03,9.12E-04
141827,7.37E-03,9.16E-04
141828,7.41E-03,9.26E-04
141829,7.51E-03,9.43E-04
141830,7.74E-03,9.65E-04
141831,7.77E-03,9.86E-04
141832,7.90E-03,1.00E-03
141833,8.12E-03,1.01E-03
141834,9.14E-03,9.85E-04
141835,8.15E-03,9.33E-04
141836,7.74E-03,8.79E-04
141837,7.46E-03,8.17E-04
141838,8.75E-03,6.00E-03
141839,6.82E-03,5.81E-03
141840,6.47E-03,5.52E-03
141841,9.33E-03,5.28E-03
141842,8.80E-03,5.10E-03
141843,7.53E-03,4.75E-03
141844,7.43E-03,4.52E-03
141845,7.73E-03,4.36E-03
141846,7.70E-03,4.14E-03
141847,7.77E-03,4.01E-03
141848,7.95E-03,3.86E-03
141849,7.91E-03,3.71E-03
141850,7.72E-03,3.59E-03
141851,7.60E-03,3.49E-03
141852,7.44E-03,3.38E-03
141853,7.45E-03,3.28E-03
141854,7.37E-03,3.19E-03
141855,7.42E-03,3.12E-03
141856,7.46E-03,3.05E-03
141857,7.50E-03,3.00E-03
141858,7.53E-03,2.95E-03
141859,7.54E-03,2.91E-03
141860,7.64E-03,2.88E-03
141861,7.86E-03,2.85E-03
141862,7.96E-03,2.81E-03
141863,8.05E-03,2.77E-03
141864,8.12E-03,2.72E-03
141865,8.18E-03,2.65E-03
141866,8.08E-03,2.58E-03
141867,7.99E-03,2.51E-03
141868,8.09E-03,2.44E-03
141869,8.04E-03,2.37E-03
141870,7.95E-03,2.31E-03
141871,7.86E-03,2.24E-03
141872,8.36E-03,2.19E-03
141873,8.48E-03,2.12E-03
141874,8.39E-03,2.04E-03
141875,8.12E-03,1.96E-03
141876,7.84E-03,1.89E-03
141877,7.79E-03,1.81E-03
141878,7.60E-03,1.74E-03
141879,7.42E-03,1.67E-03
141880,7.38E-03,1.61E-03
141881,7.51E-03,1.57E-03
141882,7.89E-03,1.53E-03
141883,9.27E-03,1.47E-03
141884,9.37E-03,1.44E-03
141885,8.14E-03,1.37E-03
141886,7.83E-03,1.29E-03
141887,7.60E-03,1.21E-03
141888,7.44E-03,1.15E-03
141889,7.38E-03,1.09E-03
141890,7.43E-03,1.05E-03
141891,8.50E-03,1.01E-03
141892,9.91E-03,9.63E-04
141893,8.89E-03,8.96E-04
141894,7.10E-03,8.22E-04
141895,6.37E-03,7.65E-04
141896,5.52E-03,7.33E-04
141897,5.99E-03,7.53E-04
141898,6.36E-03,1.24E-02
141899,7.03E-03,1.21E-02
141900,7.86E-03,1.17E-02
141901,8.63E-03,1.14E-02
141902,6.36E-03,1.12E-02
141903,6.15E-03,1.11E-02
141904,8.04E-03,1.09E-02
141905,7.76E-03,1.08E-02
141906,7.97E-03,1.06E-02
141907,7.92E-03,1.04E-02
141908,7.70E-03,1.02E-02
141909,7.35E-03,9.99E-03
141910,7.52E-03,9.82E-03
141911,7.57E-03,9.69E-03
141912,7.69E-03,9.58E-03
141913,7.24E-03,9.52E-03
141914,6.21E-03,9.43E-03
141915,6.85E-03,9.26E-03
141916,6.70E-03,9.23E-03
141917,6.99E-03,9.16E-03
141918,7.05E-03,9.07E-03
141919,7.04E-03,8.94E-03
141920,6.95E-03,8.76E-03
141921,7.35E-03,8.58E-03
141922,7.80E-03,8.47E-03
141923,8.26E-03,8.29E-03
141924,8.69E-03,8.23E-03
141925,8.25E-03,8.24E-03
141926,8.00E-03,8.25E-03
141927,7.44E-03,8.22E-03
141928,6.53E-03,8.19E-03
141929,5.98E-03,8.14E-03
141930,8.76E-03,8.33E-03
141931,8.82E-03,8.45E-03
141932,8.35E-03,8.44E-03
141933,8.10E-03,8.34E-03
141934,7.76E-03,8.22E-03
141935,7.26E-03,8.12E-03
141936,5.75E-03,8.04E-03
141937,6.64E-03,8.03E-03
141938,8.73E-03,7.95E-03
141939,7.92E-03,7.85E-03
141940,7.90E-03,7.85E-03
141941,7.91E-03,7.75E-03
141942,7.91E-03,7.54E-03
141943,8.01E-03,7.27E-03
141944,8.32E-03,6.97E-03
141945,9.11E-03,6.64E-03
141946,8.93E-03,6.32E-03
141947,9.11E-03,6.00E-03
141948,9.16E-03,5.84E-03
141949,8.12E-03,5.69E-03
141950,8.03E-03,5.57E-03
141951,7.82E-03,5.41E-03
141952,7.57E-03,5.34E-03
141953,7.59E-03,5.25E-03
141954,7.51E-03,5.15E-03
141955,7.40E-03,5.07E-03
141956,7.46E-03,4.99E-03
141957,7.47E-03,4.90E-03
141958,7.34E-03,4.83E-03
141959,7.39E-03,4.74E-03
141960,7.45E-03,4.65E-03
141961,7.46E-03,4.56E-03
141962,7.43E-03,4.48E-03
141963,7.38E-03,4.39E-03
141964,7.33E-03,4.30E-03
141965,7.44E-03,4.21E-03
141966,7.62E-03,4.12E-03
141967,7.77E-03,4.03E-03
141968,7.91E-03,3.94E-03
141969,8.01E-03,3.86E-03
141970,8.04E-03,3.78E-03
141971,8.12E-03,3.69E-03
141972,8.11E-03,3.62E-03
141973,8.16E-03,3.54E-03
141974,8.23E-03,3.47E-03
141975,8.25E-03,3.40E-03
141976,8.29E-03,3.34E-03
141977,8.33E-03,3.27E-03
141978,8.28E-03,3.21E-03
141979,8.28E-03,3.15E-03
141980,8.29E-03,3.09E-03
141981,8.31E-03,3.04E-03
141982,8.32E-03,2.98E-03
141983,8.33E-03,2.93E-03
141984,8.33E-03,2.88E-03
141985,8.33E-03,2.83E-03
141986,8.33E-03,2.78E-03
141987,8.33E-03,2.74E-03
141988,8.33E-03,2.69E-03
141989,8.33E-03,2.65E-03
141990,8.33E-03,2.61E-03
141991,8.34E-03,2.57E-03
141992,8.34E-03,2.53E-03
141993,8.34E-03,2.49E-03
141994,8.35E-03,2.46E-03
141995,8.35E-03,2.42E-03
141996,8.34E-03,2.39E-03
141997,8.34E-03,2.35E-03
141998,8.34E-03,2.32E-03
141999,8.33E-03,2.28E-03
142000,8.33E-03,2.25E-03
142001,8.32E-03,2.21E-03
142002,8.31E-03,2.18E-03
142003,8.30E-03,2.15E-03
142004,8.28E-03,2.12E-03
142005,8.27E-03,2.09E-03
142006,8.26E-03,2.06E-03
142007,8.25E-03,2.04E-03
142008,8.24E-03,2.01E-03
142009,8.23E-03,1.99E-03
142010,8.23E-03,1.96E-03
142011,8.22E-03,1.94E-03
142012,8.21E-03,1.91E-03
142013,8.21E-03,1.89E-03
142014,8.20E-03,1.87E-03
142015,8.20E-03,1.84E-03
142016,8.19E-03,1.82E-03
142017,8.18E-03,1.80E-03
142018,8.18E-03,1.78E-03
142019,8.17E-03,1.76E-03
142020,8.17E-03,1.73E-03
142021,8.17E-03,1.71E-03
142022,8.17E-03,1.69E-03
142023,8.16E-03,1.67E-03
142024,8.16E-03,1.64E-03
142025,8.16E-03,1.62E-03
142026,8.16E-03,1.59E-03
142027,8.15E-03,1.57E-03
142028,8.09E-03,1.54E-03
142029,8.12E-03,1.52E-03
142030,8.14E-03,1.49E-03
142031,8.13E-03,1.46E-03
142032,8.13E-03,1.43E-03
142033,8.12E-03,1.40E-03
142034,8.12E-03,1.37E-03
142035,8.12E-03,1.34E-03
142036,8.12E-03,1.31E-03
142037,8.12E-03,1.28E-03
142038,8.13E-03,1.25E-03
142039,8.14E-03,1.23E-03
142040,8.15E-03,1.20E-03
142041,8.11E-03,1.17E-03
142042,8.06E-03,1.14E-03
142043,8.01E-03,1.11E-03
142044,8.05E-03,1.08E-03
142045,8.16E-03,1.05E-03
142046,8.15E-03,1.03E-03
142047,8.19E-03,1.00E-03
142048,8.22E-03,9.75E-04
142049,8.18E-03,9.46E-04
142050,8.19E-03,9.18E-04
142051,8.20E-03,8.88E-04
142052,8.24E-03,8.58E-04
142053,8.36E-03,8.30E-04
142054,8.63E-03,8.04E-04
142055,8.94E-03,7.81E-04
142056,9.07E-03,7.57E-04
142057,8.99E-03,7.31E-04
142058,8.86E-03,7.10E-04
142059,8.70E-03,6.92E-04
142060,8.60E-03,6.77E-04
142061,8.63E-03,6.63E-04
142062,8.61E-03,6.53E-04
142063,8.58E-03,6.43E-04
142064,8.57E-03,6.34E-04
142065,8.55E-03,6.27E-04
142066,8.53E-03,6.19E-04
142067,8.50E-03,6.13E-04
142068,8.47E-03,6.08E-04
142069,8.44E-03,6.04E-04
142070,8.42E-03,6.01E-04
142071,8.39E-03,5.97E-04
142072,8.37E-03,5.94E-04
142073,8.35E-03,5.90E-04
142074,8.33E-03,5.85E-04
142075,8.32E-03,5.80E-04
142076,8.31E-03,5.75E-04
142077,8.29E-03,5.69E-04
142078,8.25E-03,5.62E-04
142079,8.17E-03,5.53E-04
142080,8.10E-03,5.44E-04
142081,8.05E-03,5.33E-04
142082,7.98E-03,5.20E-04
142083,7.91E-03,5.06E-04
142084,7.83E-03,4.89E-04
142085,7.83E-03,4.70E-04
142086,8.00E-03,4.49E-04
142087,8.18E-03,4.26E-04
142088,8.22E-03,4.01E-04
142089,8.33E-03,3.75E-04
142090,8.42E-03,3.49E-04
142091,8.49E-03,3.21E-04
142092,8.55E-03,2.92E-04
142093,8.77E-03,2.63E-04
142094,8.70E-03,2.34E-04
142095,8.59E-03,2.07E-04
142096,8.47E-03,1.80E-04
142097,8.36E-03,1.53E-04
142098,8.31E-03,1.34E-04
142099,8.41E-03,1.29E-04
142100,8.20E-03,1.49E-04
142101,7.70E-03,1.87E-04
142102,7.40E-03,2.58E-04
142103,7.92E-03,3.26E-04
142104,8.92E-03,5.41E-04
142105,7.49E-03,6.52E-04
142106,7.96E-03,3.91E-04
142107,8.19E-03,5.02E-04
142108,7.56E-03,6.70E-04
142109,9.23E-03,4.64E-02
142110,8.21E-03,4.65E-02
142111,8.04E-03,4.67E-02
142112,7.94E-03,4.68E-02
142113,7.94E-03,4.69E-02
142114,7.94E-03,4.69E-02
142115,7.94E-03,4.70E-02
142116,7.94E-03,4.71E-02
142117,7.94E-03,4.72E-02
142118,7.94E-03,4.73E-02
142119,7.94E-03,4.74E-02
142120,7.94E-03,4.76E-02
142121,7.94E-03,4.78E-02
142122,7.94E-03,4.80E-02
142123,7.94E-03,4.82E-02
142124,7.94E-03,4.85E-02
142125,7.94E-03,4.89E-02
142126,7.94E-03,4.93E-02
142127,7.94E-03,4.99E-02
142128,7.94E-03,5.05E-02
142129,7.94E-03,5.13E-02
142130,7.94E-03,5.22E-02
142131,7.94E-03,5.33E-02
142132,7.94E-03,5.45E-02
142133,7.94E-03,5.59E-02
142134,7.94E-03,5.74E-02
142135,7.94E-03,5.92E-02
142136,7.94E-03,6.12E-02
142137,7.94E-03,6.35E-02
142138,7.94E-03,6.61E-02
142139,7.94E-03,6.92E-02
142140,7.94E-03,7.28E-02
142141,7.94E-03,7.68E-02
142142,7.94E-03,8.16E-02
142143,7.94E-03,8.71E-02
142144,7.94E-03,9.35E-02
142145,7.94E-03,0.10117
142146,7.94E-03,0.11032
142147,7.82E-03,0.12136
142148,7.65E-03,0.13437
142149,7.55E-03,0.1501
142150,7.44E-03,0.1696
142151,7.33E-03,0.19442
142152,7.24E-03,0.23239
142153,6.59E-03,0.20009
142154,7.02E-03,0.13257
142155,7.05E-03,9.62E-02
142156,7.01E-03,7.28E-02
142157,6.81E-03,5.72E-02
142158,6.61E-03,4.71E-02
142159,6.46E-03,4.12E-02
142160,7.05E-03,3.68E-02
142161,7.36E-03,3.64E-02
142162,7.50E-03,3.70E-02
142163,7.58E-03,3.76E-02
142164,7.69E-03,3.79E-02
142165,7.86E-03,3.76E-02
142166,7.94E-03,3.69E-02
142167,8.03E-03,3.59E-02
142168,8.10E-03,3.47E-02
142169,8.10E-03,3.34E-02
142170,8.10E-03,3.20E-02
142171,8.01E-03,3.05E-02
142172,7.94E-03,2.90E-02
142173,7.86E-03,2.75E-02
142174,7.72E-03,2.59E-02
142175,7.66E-03,2.43E-02
142176,7.69E-03,2.31E-02
142177,7.69E-03,2.25E-02
142178,7.64E-03,2.24E-02
142179,7.77E-03,2.25E-02
142180,7.98E-03,2.23E-02
142181,7.71E-03,2.17E-02
142182,7.80E-03,2.11E-02
142183,7.92E-03,2.10E-02
142184,7.86E-03,2.12E-02
142185,7.96E-03,2.15E-02
142186,8.12E-03,2.18E-02
142187,8.13E-03,2.21E-02
142188,8.29E-03,2.22E-02
142189,8.34E-03,2.22E-02
142190,8.37E-03,2.19E-02
142191,7.97E-03,2.10E-02
142192,8.10E-03,2.02E-02
142193,8.11E-03,1.97E-02
142194,7.90E-03,1.93E-02
142195,8.25E-03,1.88E-02
142196,7.90E-03,1.81E-02
142197,8.10E-03,1.74E-02
142198,8.21E-03,1.71E-02
142199,8.09E-03,1.68E-02
142200,8.29E-03,1.63E-02
142201,7.95E-03,1.54E-02
142202,8.05E-03,1.43E-02
142203,8.01E-03,1.35E-02
142204,8.02E-03,1.31E-02
142205,7.92E-03,1.30E-02
142206,8.41E-03,1.28E-02
142207,8.55E-03,1.24E-02
142208,8.48E-03,1.17E-02
142209,8.36E-03,1.08E-02
142210,8.23E-03,9.95E-03
142211,7.96E-03,9.16E-03
142212,8.01E-03,8.45E-03
142213,7.76E-03,7.81E-03
142214,7.79E-03,7.29E-03
142215,7.77E-03,6.97E-03
142216,7.77E-03,6.86E-03
142217,7.81E-03,6.86E-03
142218,8.19E-03,6.83E-03
142219,8.45E-03,6.62E-03
142220,8.50E-03,6.26E-03
142221,8.39E-03,5.80E-03
142222,8.30E-03,5.33E-03
142223,8.22E-03,4.89E-03
142224,8.16E-03,4.49E-03
142225,8.10E-03,4.11E-03
142226,8.10E-03,3.77E-03
142227,8.05E-03,3.44E-03
142228,7.91E-03,3.14E-03
142229,7.89E-03,2.86E-03
142230,7.76E-03,2.60E-03
142231,7.70E-03,2.35E-03
142232,7.68E-03,2.13E-03
142233,7.43E-03,2.02E-03
142234,7.48E-03,1.99E-03
142235,7.63E-03,2.01E-03
142236,7.69E-03,2.04E-03
142237,7.77E-03,2.05E-03
142238,7.84E-03,2.04E-03
142239,7.93E-03,1.97E-03
142240,8.15E-03,1.87E-03
142241,8.34E-03,1.86E-03
142242,8.31E-03,1.95E-03
142243,8.68E-03,2.01E-03
142244,8.57E-03,2.02E-03
142245,8.45E-03,1.98E-03
142246,7.93E-03,1.82E-03
142247,7.94E-03,1.71E-03
142248,7.42E-03,1.65E-03
142249,7.53E-03,1.66E-03
142250,7.76E-03,1.70E-03
142251,8.26E-03,1.77E-03
142252,8.54E-03,1.78E-03
142253,8.71E-03,1.77E-03
142254,7.52E-03,1.69E-03
142255,7.73E-03,1.59E-03
142256,7.70E-03,1.52E-03
142257,7.70E-03,1.51E-03
142258,7.70E-03,1.52E-03
142259,7.71E-03,1.52E-03
142260,7.79E-03,1.51E-03
142261,7.82E-03,1.49E-03
142262,7.76E-03,1.50E-03
142263,7.60E-03,1.54E-03
142264,7.82E-03,1.62E-03
142265,7.93E-03,1.72E-03
142266,7.99E-03,1.82E-03
142267,8.53E-03,1.92E-03
142268,8.63E-03,1.98E-03
142269,8.66E-03,2.00E-03
142270,8.05E-03,1.97E-03
142271,8.03E-03,1.91E-03
142272,8.06E-03,1.87E-03
142273,8.03E-03,1.85E-03
142274,8.00E-03,1.84E-03
142275,8.09E-03,1.85E-03
142276,8.09E-03,1.84E-03
142277,8.09E-03,1.84E-03
142278,8.10E-03,1.84E-03
142279,8.10E-03,1.84E-03
142280,8.10E-03,1.83E-03
142281,8.10E-03,1.82E-03
142282,8.10E-03,1.82E-03
142283,8.10E-03,1.81E-03
142284,8.17E-03,1.80E-03
142285,8.19E-03,1.79E-03
142286,8.27E-03,1.78E-03
142287,8.47E-03,1.75E-03
142288,8.68E-03,1.70E-03
142289,8.31E-03,1.61E-03
142290,8.26E-03,1.51E-03
142291,8.17E-03,1.41E-03
142292,8.25E-03,1.31E-03
142293,8.39E-03,1.22E-03
142294,8.42E-03,1.12E-03
142295,8.42E-03,1.02E-03
142296,8.42E-03,9.09E-04
142297,8.01E-03,7.86E-04
142298,7.93E-03,6.58E-04
142299,7.88E-03,5.46E-04
142300,7.66E-03,4.57E-04
142301,7.81E-03,3.88E-04
142302,7.81E-03,3.33E-04
142303,7.90E-03,2.86E-04
142304,8.03E-03,2.50E-04
142305,8.10E-03,2.29E-04
142306,8.22E-03,2.29E-04
142307,8.16E-03,2.48E-04
142308,8.13E-03,2.88E-04
142309,8.19E-03,3.47E-04
142310,8.34E-03,4.08E-04
142311,8.08E-03,4.52E-04
142312,8.18E-03,4.76E-04
142313,8.01E-03,5.10E-04
142314,7.84E-03,5.56E-04
142315,7.55E-03,5.95E-04
142316,7.65E-03,6.19E-04
142317,7.65E-03,6.41E-04
142318,7.68E-03,6.80E-04
142319,7.79E-03,7.24E-04
142320,7.99E-03,7.62E-04
142321,8.05E-03,7.91E-04
142322,8.08E-03,8.19E-04
142323,7.61E-03,8.39E-04
142324,7.67E-03,8.62E-04
142325,7.87E-03,8.88E-04
142326,8.06E-03,9.15E-04
142327,8.09E-03,9.46E-04
142328,8.12E-03,9.76E-04
142329,8.22E-03,1.00E-03
142330,8.34E-03,1.03E-03
142331,8.49E-03,1.06E-03
142332,8.56E-03,1.08E-03
142333,8.24E-03,1.09E-03
142334,8.12E-03,1.10E-03
142335,7.94E-03,1.10E-03
142336,7.73E-03,1.10E-03
142337,7.53E-03,1.11E-03
142338,7.62E-03,1.13E-03
142339,7.87E-03,1.16E-03
142340,8.08E-03,1.19E-03
142341,8.12E-03,1.22E-03
142342,8.37E-03,1.24E-03
142343,8.47E-03,1.25E-03
142344,8.10E-03,1.25E-03
142345,8.11E-03,1.25E-03
142346,8.11E-03,1.25E-03
142347,8.00E-03,1.25E-03
142348,8.09E-03,1.25E-03
142349,8.45E-03,1.25E-03
142350,8.57E-03,1.24E-03
142351,8.10E-03,1.23E-03
142352,7.69E-03,1.21E-03
142353,7.59E-03,1.19E-03
142354,7.68E-03,1.18E-03
142355,7.70E-03,1.17E-03
142356,7.77E-03,1.17E-03
142357,7.84E-03,1.17E-03
142358,7.89E-03,1.17E-03
142359,7.94E-03,1.18E-03
142360,7.99E-03,1.18E-03
142361,8.02E-03,1.18E-03
142362,8.04E-03,1.17E-03
142363,8.04E-03,1.17E-03
142364,8.05E-03,1.16E-03
142365,8.05E-03,1.16E-03
142366,8.04E-03,1.14E-03
142367,8.03E-03,1.13E-03
142368,8.02E-03,1.12E-03
142369,8.01E-03,1.10E-03
142370,8.01E-03,1.09E-03
142371,8.03E-03,1.07E-03
142372,8.04E-03,1.05E-03
142373,8.04E-03,1.03E-03
142374,8.05E-03,1.01E-03
142375,8.05E-03,9.83E-04
142376,8.04E-03,9.58E-04
142377,8.03E-03,9.32E-04
142378,8.03E-03,9.05E-04
142379,8.04E-03,8.76E-04
142380,8.05E-03,8.45E-04
142381,8.05E-03,8.14E-04
142382,8.06E-03,7.80E-04
142383,8.06E-03,7.46E-04
142384,8.07E-03,7.09E-04
142385,8.07E-03,6.71E-04
142386,8.07E-03,6.32E-04
142387,8.07E-03,5.92E-04
142388,8.08E-03,5.50E-04
142389,8.08E-03,5.08E-04
142390,8.08E-03,4.64E-04
142391,8.08E-03,4.20E-04
142392,8.09E-03,3.76E-04
142393,8.10E-03,3.33E-04
142394,8.11E-03,2.92E-04
142395,8.11E-03,2.55E-04
142396,8.11E-03,2.25E-04
142397,8.12E-03,2.09E-04
142398,8.12E-03,2.08E-04
142399,8.12E-03,2.26E-04
142400,8.13E-03,2.59E-04
142401,8.15E-03,3.03E-04
142402,8.16E-03,3.54E-04
142403,8.16E-03,4.10E-04
142404,8.16E-03,4.70E-04
142405,8.18E-03,5.31E-04
142406,8.19E-03,5.93E-04
142407,8.22E-03,6.55E-04
142408,8.25E-03,7.15E-04
142409,8.24E-03,7.73E-04
142410,8.21E-03,8.27E-04
142411,8.18E-03,8.79E-04
142412,8.17E-03,9.29E-04
142413,8.17E-03,9.77E-04
142414,8.18E-03,1.02E-03
142415,8.21E-03,1.07E-03
142416,8.23E-03,1.11E-03
142417,8.17E-03,1.14E-03
142418,8.11E-03,1.17E-03
142419,8.10E-03,1.21E-03
142420,8.10E-03,1.24E-03
142421,8.10E-03,1.27E-03
142422,8.10E-03,1.30E-03
142423,8.12E-03,1.33E-03
142424,8.15E-03,1.36E-03
142425,8.17E-03,1.39E-03
142426,8.18E-03,1.42E-03
142427,8.19E-03,1.44E-03
142428,8.21E-03,1.45E-03
142429,8.18E-03,1.46E-03
142430,8.07E-03,1.47E-03
142431,8.00E-03,1.47E-03
142432,8.00E-03,1.48E-03
142433,8.01E-03,1.49E-03
142434,8.02E-03,1.51E-03
142435,8.00E-03,1.52E-03
142436,7.95E-03,1.55E-03
142437,7.95E-03,1.57E-03
142438,7.97E-03,1.61E-03
142439,7.99E-03,1.64E-03
142440,8.01E-03,1.69E-03
142441,8.02E-03,1.74E-03
142442,8.03E-03,1.79E-03
142443,8.04E-03,1.85E-03
142444,8.09E-03,1.91E-03
142445,8.16E-03,1.97E-03
142446,8.20E-03,2.03E-03
142447,8.21E-03,2.09E-03
142448,8.24E-03,2.14E-03
142449,8.27E-03,2.18E-03
142450,8.34E-03,2.21E-03
142451,8.41E-03,2.22E-03
142452,8.24E-03,2.21E-03
142453,7.97E-03,2.20E-03
142454,7.92E-03,2.19E-03
142455,7.95E-03,2.19E-03
142456,7.97E-03,2.20E-03
142457,7.98E-03,2.21E-03
142458,7.97E-03,2.23E-03
142459,7.91E-03,2.25E-03
142460,7.90E-03,2.29E-03
142461,7.95E-03,2.34E-03
142462,7.99E-03,2.39E-03
142463,8.01E-03,2.45E-03
142464,8.03E-03,2.52E-03
142465,8.04E-03,2.59E-03
142466,8.05E-03,2.67E-03
142467,8.06E-03,2.75E-03
142468,8.06E-03,2.83E-03
142469,8.07E-03,2.92E-03
142470,8.07E-03,3.01E-03
142471,8.08E-03,3.11E-03
142472,8.10E-03,3.22E-03
142473,8.13E-03,3.32E-03
142474,8.15E-03,3.43E-03
142475,8.16E-03,3.55E-03
142476,8.16E-03,3.66E-03
142477,8.18E-03,3.77E-03
142478,8.20E-03,3.88E-03
142479,8.22E-03,3.99E-03
142480,8.26E-03,4.10E-03
142481,8.34E-03,4.19E-03
142482,8.49E-03,4.26E-03
142483,8.64E-03,4.29E-03
142484,8.42E-03,4.28E-03
142485,8.36E-03,4.23E-03
142486,8.33E-03,4.16E-03
142487,8.06E-03,4.06E-03
142488,8.06E-03,3.96E-03
142489,7.59E-03,3.89E-03
142490,7.67E-03,3.86E-03
142491,7.79E-03,3.87E-03
142492,7.89E-03,3.92E-03
142493,7.98E-03,3.99E-03
142494,8.03E-03,4.08E-03
142495,8.11E-03,4.17E-03
142496,8.21E-03,4.27E-03
142497,8.27E-03,4.36E-03
142498,8.33E-03,4.42E-03
142499,8.43E-03,4.46E-03
142500,8.61E-03,4.46E-03
142501,8.30E-03,4.41E-03
142502,7.92E-03,4.34E-03
142503,7.69E-03,4.28E-03
142504,7.79E-03,4.27E-03
142505,7.88E-03,4.29E-03
142506,7.98E-03,4.33E-03
142507,8.04E-03,4.40E-03
142508,8.13E-03,4.47E-03
142509,8.20E-03,4.53E-03
142510,8.22E-03,4.59E-03
142511,8.27E-03,4.63E-03
142512,8.28E-03,4.65E-03
142513,8.21E-03,4.64E-03
142514,8.09E-03,4.63E-03
142515,7.96E-03,4.61E-03
142516,7.92E-03,4.61E-03
142517,7.94E-03,4.63E-03
142518,7.97E-03,4.67E-03
142519,8.03E-03,4.72E-03
142520,8.07E-03,4.78E-03
142521,8.12E-03,4.85E-03
142522,8.19E-03,4.91E-03
142523,8.22E-03,4.97E-03
142524,8.25E-03,5.00E-03
142525,8.28E-03,5.02E-03
142526,8.25E-03,5.02E-03
142527,8.16E-03,5.00E-03
142528,8.04E-03,4.97E-03
142529,7.99E-03,4.94E-03
142530,8.01E-03,4.92E-03
142531,8.03E-03,4.92E-03
142532,8.04E-03,4.92E-03
142533,8.05E-03,4.93E-03
142534,8.08E-03,4.94E-03
142535,8.10E-03,4.95E-03
142536,8.10E-03,4.95E-03
142537,8.10E-03,4.96E-03
142538,8.09E-03,4.96E-03
142539,8.08E-03,4.95E-03
142540,7.92E-03,4.95E-03
142541,7.82E-03,4.97E-03
142542,7.91E-03,5.00E-03
142543,7.96E-03,5.07E-03
142544,7.99E-03,5.15E-03
142545,8.02E-03,5.24E-03
142546,8.03E-03,5.34E-03
142547,8.00E-03,5.46E-03
142548,8.01E-03,5.59E-03
142549,8.09E-03,5.73E-03
142550,8.14E-03,5.88E-03
142551,8.14E-03,6.03E-03
142552,8.16E-03,6.19E-03
142553,8.19E-03,6.35E-03
142554,8.28E-03,6.50E-03
142555,8.39E-03,6.65E-03
142556,8.42E-03,6.79E-03
142557,8.44E-03,6.89E-03
142558,8.50E-03,6.94E-03
142559,8.57E-03,6.89E-03
142560,8.57E-03,6.73E-03
142561,8.40E-03,6.48E-03
142562,8.32E-03,6.18E-03
142563,8.15E-03,5.86E-03
142564,7.39E-03,5.61E-03
142565,7.53E-03,5.47E-03
142566,7.73E-03,5.40E-03
142567,8.24E-03,5.36E-03
142568,8.29E-03,5.32E-03
142569,8.36E-03,5.22E-03
142570,8.37E-03,5.04E-03
142571,7.83E-03,4.82E-03
142572,7.84E-03,4.64E-03
142573,7.75E-03,4.52E-03
142574,7.75E-03,4.49E-03
142575,7.80E-03,4.50E-03
142576,7.85E-03,4.53E-03
142577,7.92E-03,4.56E-03
142578,7.97E-03,4.56E-03
142579,7.97E-03,4.51E-03
142580,7.89E-03,4.38E-03
142581,7.63E-03,4.21E-03
142582,7.88E-03,4.05E-03
142583,7.83E-03,4.00E-03
142584,7.71E-03,4.05E-03
142585,7.65E-03,4.17E-03
142586,7.73E-03,4.29E-03
142587,7.85E-03,4.42E-03
142588,7.97E-03,4.55E-03
142589,8.05E-03,4.68E-03
142590,8.06E-03,4.80E-03
142591,8.07E-03,4.92E-03
142592,8.07E-03,5.04E-03
142593,8.08E-03,5.15E-03
142594,8.08E-03,5.26E-03
142595,8.08E-03,5.36E-03
142596,8.08E-03,5.47E-03
142597,8.09E-03,5.56E-03
142598,8.09E-03,5.66E-03
142599,8.09E-03,5.75E-03
142600,8.09E-03,5.84E-03
142601,8.09E-03,5.93E-03
142602,8.09E-03,6.02E-03
142603,8.09E-03,6.10E-03
142604,8.09E-03,6.18E-03
142605,8.09E-03,6.26E-03
142606,8.09E-03,6.34E-03
142607,8.09E-03,6.41E-03
142608,8.09E-03,6.48E-03
142609,8.09E-03,6.55E-03
142610,8.09E-03,6.62E-03
142611,8.09E-03,6.68E-03
142612,8.09E-03,6.74E-03
142613,8.09E-03,6.80E-03
142614,8.09E-03,6.85E-03
142615,8.09E-03,6.90E-03
142616,8.09E-03,6.95E-03
142617,8.09E-03,6.99E-03
142618,8.09E-03,7.03E-03
142619,8.09E-03,7.06E-03
142620,8.09E-03,7.09E-03
142621,8.08E-03,7.12E-03
142622,8.08E-03,7.14E-03
142623,8.08E-03,7.15E-03
142624,8.08E-03,7.16E-03
142625,8.07E-03,7.16E-03
142626,8.07E-03,7.15E-03
142627,8.06E-03,7.13E-03
142628,8.06E-03,7.11E-03
142629,8.04E-03,7.08E-03
142630,7.95E-03,7.04E-03
142631,7.92E-03,7.00E-03
142632,7.80E-03,6.96E-03
142633,7.71E-03,6.93E-03
142634,7.63E-03,6.96E-03
142635,7.66E-03,7.10E-03
142636,7.69E-03,7.36E-03
142637,7.77E-03,7.70E-03
142638,7.87E-03,8.10E-03
142639,7.98E-03,8.54E-03
142640,8.12E-03,9.00E-03
142641,8.39E-03,9.44E-03
142642,8.37E-03,9.84E-03
142643,8.31E-03,1.02E-02
142644,8.27E-03,1.05E-02
142645,8.24E-03,1.07E-02
142646,8.22E-03,1.09E-02
142647,8.20E-03,1.11E-02
142648,8.20E-03,1.13E-02
142649,8.18E-03,1.14E-02
142650,8.17E-03,1.16E-02
142651,8.15E-03,1.17E-02
142652,8.14E-03,1.18E-02
142653,8.14E-03,1.19E-02
142654,8.13E-03,1.20E-02
142655,8.13E-03,1.21E-02
142656,8.12E-03,1.22E-02
142657,8.12E-03,1.23E-02
142658,8.12E-03,1.24E-02
142659,8.13E-03,1.25E-02
142660,8.14E-03,1.25E-02
142661,8.11E-03,1.26E-02
142662,8.09E-03,1.26E-02
142663,8.09E-03,1.27E-02
142664,8.09E-03,1.27E-02
142665,8.09E-03,1.28E-02
142666,8.09E-03,1.28E-02
142667,8.08E-03,1.29E-02
142668,8.08E-03,1.29E-02
142669,8.08E-03,1.29E-02
142670,8.07E-03,1.29E-02
142671,8.06E-03,1.30E-02
142672,8.04E-03,1.30E-02
142673,8.01E-03,1.30E-02
142674,7.96E-03,1.30E-02
142675,7.91E-03,1.31E-02
142676,7.84E-03,1.32E-02
142677,7.73E-03,1.34E-02
142678,7.52E-03,1.37E-02
142679,8.01E-03,1.42E-02
142680,8.01E-03,1.48E-02
142681,8.30E-03,1.54E-02
142682,8.30E-03,1.59E-02
142683,8.30E-03,1.64E-02
142684,8.34E-03,1.68E-02
142685,8.35E-03,1.71E-02
142686,8.30E-03,1.74E-02
142687,8.26E-03,1.76E-02
142688,8.23E-03,1.77E-02
142689,8.21E-03,1.77E-02
142690,8.19E-03,1.78E-02
142691,8.15E-03,1.78E-02
142692,8.13E-03,1.77E-02
142693,8.13E-03,1.77E-02
142694,8.12E-03,1.76E-02
142695,8.12E-03,1.76E-02
142696,8.12E-03,1.75E-02
142697,8.12E-03,1.73E-02
142698,8.12E-03,1.72E-02
142699,8.04E-03,1.70E-02
142700,7.93E-03,1.68E-02
142701,7.93E-03,1.66E-02
142702,7.80E-03,1.63E-02
142703,7.76E-03,1.61E-02
142704,7.71E-03,1.59E-02
142705,7.66E-03,1.58E-02
142706,7.65E-03,1.60E-02
142707,7.67E-03,1.65E-02
142708,7.73E-03,1.75E-02
142709,7.88E-03,1.88E-02
142710,8.02E-03,2.03E-02
142711,8.28E-03,2.16E-02
142712,8.37E-03,2.26E-02
142713,8.46E-03,2.34E-02
142714,8.44E-03,2.39E-02
142715,8.29E-03,2.43E-02
142716,8.26E-03,2.45E-02
142717,8.19E-03,2.48E-02
142718,8.18E-03,2.50E-02
142719,8.18E-03,2.52E-02
142720,8.17E-03,2.54E-02
142721,8.17E-03,2.56E-02
142722,8.16E-03,2.58E-02
142723,8.16E-03,2.60E-02
142724,8.15E-03,2.61E-02
142725,8.15E-03,2.63E-02
142726,8.15E-03,2.65E-02
142727,8.18E-03,2.66E-02
142728,8.23E-03,2.67E-02
142729,8.24E-03,2.68E-02
142730,8.21E-03,2.68E-02
142731,8.19E-03,2.68E-02
142732,8.18E-03,2.67E-02
142733,8.17E-03,2.66E-02
142734,8.16E-03,2.65E-02
142735,8.15E-03,2.63E-02
142736,8.15E-03,2.61E-02
142737,8.13E-03,2.59E-02
142738,8.10E-03,2.57E-02
142739,8.08E-03,2.55E-02
142740,8.08E-03,2.52E-02
142741,8.07E-03,2.50E-02
142742,8.04E-03,2.48E-02
142743,8.01E-03,2.46E-02
142744,8.01E-03,2.44E-02
142745,8.00E-03,2.43E-02
142746,7.94E-03,2.42E-02
142747,7.81E-03,2.42E-02
142748,7.84E-03,2.43E-02
142749,8.05E-03,2.45E-02
142750,8.13E-03,2.47E-02
142751,8.13E-03,2.50E-02
142752,8.15E-03,2.51E-02
142753,8.15E-03,2.52E-02
142754,8.14E-03,2.53E-02
142755,8.11E-03,2.53E-02
142756,8.10E-03,2.53E-02
142757,8.05E-03,2.52E-02
142758,7.92E-03,2.52E-02
142759,7.83E-03,2.52E-02
142760,7.78E-03,2.54E-02
142761,7.66E-03,2.58E-02
142762,7.91E-03,2.64E-02
142763,8.42E-03,2.71E-02
142764,8.53E-03,2.76E-02
142765,8.41E-03,2.79E-02
142766,8.32E-03,2.80E-02
142767,8.21E-03,2.79E-02
142768,8.14E-03,2.77E-02
142769,8.07E-03,2.74E-02
142770,8.00E-03,2.72E-02
142771,7.98E-03,2.70E-02
142772,7.95E-03,2.69E-02
142773,7.93E-03,2.68E-02
142774,7.90E-03,2.69E-02
142775,7.91E-03,2.70E-02
142776,7.93E-03,2.73E-02
142777,7.92E-03,2.77E-02
142778,8.03E-03,2.82E-02
142779,8.00E-03,2.88E-02
142780,8.07E-03,2.95E-02
142781,8.18E-03,3.02E-02
142782,8.18E-03,3.08E-02
142783,8.21E-03,3.12E-02
142784,8.25E-03,3.16E-02
142785,8.25E-03,3.18E-02
142786,8.29E-03,3.17E-02
142787,8.32E-03,3.15E-02
142788,8.26E-03,3.12E-02
142789,8.23E-03,3.07E-02
142790,8.21E-03,3.02E-02
142791,8.17E-03,2.96E-02
142792,8.11E-03,2.90E-02
142793,8.05E-03,2.84E-02
142794,8.00E-03,2.78E-02
142795,8.00E-03,2.73E-02
142796,8.04E-03,2.69E-02
142797,8.01E-03,2.65E-02
142798,7.94E-03,2.62E-02
142799,7.98E-03,2.61E-02
142800,7.97E-03,2.60E-02
142801,8.12E-03,2.60E-02
142802,8.13E-03,2.59E-02
142803,8.19E-03,2.56E-02
142804,8.13E-03,2.51E-02
142805,7.85E-03,2.45E-02
142806,7.67E-03,2.37E-02
142807,7.40E-03,2.28E-02
142808,6.98E-03,2.19E-02
142809,6.73E-03,2.12E-02
142810,6.79E-03,2.14E-02
142811,6.44E-03,2.28E-02
142812,7.26E-03,2.50E-02
142813,8.86E-03,2.79E-02
142814,9.69E-03,3.03E-02
142815,8.72E-03,3.29E-02
142816,8.51E-03,3.40E-02
142817,8.46E-03,3.42E-02
142818,8.39E-03,3.41E-02
142819,8.44E-03,3.36E-02
142820,8.35E-03,3.29E-02
142821,8.20E-03,3.22E-02
142822,8.10E-03,3.14E-02
142823,8.10E-03,3.06E-02
142824,8.02E-03,3.00E-02
142825,7.98E-03,2.94E-02
142826,7.95E-03,2.90E-02
142827,7.90E-03,2.86E-02
142828,7.93E-03,2.85E-02
142829,8.03E-03,2.84E-02
142830,8.08E-03,2.84E-02
142831,8.10E-03,2.84E-02
142832,8.11E-03,2.84E-02
142833,8.19E-03,2.84E-02
142834,8.22E-03,2.83E-02
142835,8.29E-03,2.82E-02
142836,8.34E-03,2.79E-02
142837,8.28E-03,2.75E-02
142838,8.19E-03,2.69E-02
142839,8.18E-03,2.62E-02
142840,8.14E-03,2.55E-02
142841,8.10E-03,2.47E-02
142842,8.02E-03,2.39E-02
142843,7.86E-03,2.32E-02
142844,7.88E-03,2.25E-02
142845,7.79E-03,2.19E-02
142846,7.74E-03,2.14E-02
142847,7.73E-03,2.11E-02
142848,7.75E-03,2.11E-02
142849,7.94E-03,2.11E-02
142850,7.98E-03,2.12E-02
142851,7.92E-03,2.12E-02
142852,7.78E-03,2.12E-02
142853,7.76E-03,2.11E-02
142854,7.63E-03,2.13E-02
142855,7.51E-03,2.17E-02
142856,7.54E-03,2.25E-02
142857,7.96E-03,2.40E-02
142858,8.18E-03,2.59E-02
142859,8.72E-03,2.73E-02
142860,8.75E-03,2.81E-02
142861,8.50E-03,2.82E-02
142862,8.38E-03,2.79E-02
142863,8.31E-03,2.74E-02
142864,8.26E-03,2.67E-02
142865,8.20E-03,2.60E-02
142866,8.08E-03,2.53E-02
142867,8.02E-03,2.46E-02
142868,7.90E-03,2.40E-02
142869,7.77E-03,2.35E-02
142870,7.67E-03,2.32E-02
142871,7.84E-03,2.32E-02
142872,7.62E-03,2.40E-02
142873,7.04E-03,2.49E-02
142874,8.29E-03,2.60E-02
142875,8.26E-03,2.66E-02
142876,8.38E-03,2.61E-02
142877,7.74E-03,2.53E-02
142878,7.71E-03,2.46E-02
142879,7.45E-03,2.40E-02
142880,7.27E-03,2.39E-02
142881,7.48E-03,2.45E-02
142882,7.17E-03,2.62E-02
142883,6.85E-03,2.78E-02
142884,7.49E-03,2.98E-02
142885,1.01E-02,2.91E-02
142886,9.14E-03,3.03E-02
142887,8.16E-03,3.09E-02
142888,7.57E-03,3.06E-02
142889,7.16E-03,2.98E-02
142890,6.82E-03,2.90E-02
142891,6.67E-03,2.80E-02
142892,7.67E-03,2.68E-02
142893,6.31E-03,1.40E-02
142894,7.73E-03,1.37E-02
142895,8.31E-03,1.33E-02
142896,9.13E-03,1.29E-02
142897,6.75E-03,1.27E-02
142898,6.30E-03,1.23E-02
142899,7.83E-03,1.19E-02
142900,7.78E-03,1.16E-02
142901,8.69E-03,1.11E-02
142902,8.66E-03,1.08E-02
142903,7.62E-03,1.04E-02
142904,7.97E-03,1.02E-02
142905,8.93E-03,1.01E-02
142906,6.75E-03,1.00E-02
142907,6.20E-03,1.01E-02
142908,8.02E-03,1.03E-02
142909,8.19E-03,1.02E-02
142910,7.78E-03,1.00E-02
142911,7.72E-03,9.68E-03
142912,7.93E-03,9.26E-03
142913,8.13E-03,8.81E-03
142914,8.04E-03,8.43E-03
142915,8.04E-03,8.00E-03
142916,7.27E-03,7.61E-03
142917,7.15E-03,7.33E-03
142918,6.89E-03,7.18E-03
142919,6.50E-03,7.23E-03
142920,6.66E-03,7.66E-03
142921,8.36E-03,8.35E-03
142922,9.34E-03,8.78E-03
142923,8.51E-03,8.98E-03
142924,8.27E-03,8.83E-03
142925,8.20E-03,8.48E-03
142926,7.74E-03,8.12E-03
142927,7.42E-03,7.81E-03
142928,7.18E-03,7.66E-03
142929,7.27E-03,7.78E-03
142930,7.42E-03,8.01E-03
142931,7.97E-03,8.28E-03
142932,7.79E-03,8.35E-03
142933,7.83E-03,8.16E-03
142934,7.91E-03,7.85E-03
142935,8.12E-03,7.50E-03
142936,8.40E-03,7.13E-03
142937,9.09E-03,6.74E-03
142938,8.83E-03,6.38E-03
142939,7.24E-03,6.10E-03
142940,7.57E-03,5.84E-03
142941,7.78E-03,5.39E-03
142942,8.06E-03,5.12E-03
142943,8.34E-03,4.93E-03
142944,8.18E-03,4.62E-03
142945,7.77E-03,4.37E-03
142946,7.76E-03,4.16E-03
142947,7.87E-03,3.97E-03
142948,7.89E-03,3.80E-03
142949,7.93E-03,3.65E-03
142950,7.90E-03,3.51E-03
142951,7.83E-03,3.38E-03
142952,7.83E-03,3.27E-03
142953,7.74E-03,3.18E-03
142954,7.68E-03,3.11E-03
142955,7.64E-03,3.04E-03
142956,7.77E-03,2.97E-03
142957,7.82E-03,2.90E-03
142958,7.76E-03,2.83E-03
142959,7.78E-03,2.77E-03
142960,7.79E-03,2.74E-03
142961,7.76E-03,2.73E-03
142962,7.95E-03,2.73E-03
142963,8.03E-03,2.74E-03
142964,8.10E-03,2.74E-03
142965,8.16E-03,2.70E-03
142966,8.17E-03,2.63E-03
142967,8.05E-03,2.53E-03
142968,8.10E-03,2.42E-03
142969,8.12E-03,2.32E-03
142970,8.10E-03,2.24E-03
142971,8.06E-03,2.19E-03
142972,8.07E-03,2.15E-03
142973,8.17E-03,2.12E-03
142974,8.30E-03,2.07E-03
142975,8.33E-03,2.01E-03
142976,8.06E-03,1.91E-03
142977,7.90E-03,1.81E-03
142978,7.87E-03,1.70E-03
142979,7.81E-03,1.59E-03
142980,7.73E-03,1.51E-03
142981,7.69E-03,1.46E-03
142982,7.87E-03,1.45E-03
142983,7.86E-03,1.46E-03
142984,8.55E-03,1.44E-03
142985,8.50E-03,1.40E-03
142986,8.21E-03,1.31E-03
142987,8.03E-03,1.20E-03
142988,7.92E-03,1.09E-03
142989,7.68E-03,1.01E-03
142990,7.70E-03,9.50E-04
142991,7.86E-03,9.20E-04
142992,8.37E-03,8.97E-04
142993,8.46E-03,8.49E-04
142994,8.02E-03,7.98E-04
142995,7.86E-03,7.02E-04
142996,7.28E-03,6.15E-04
142997,6.16E-03,5.60E-04
142998,5.01E-03,5.68E-04
142999,6.19E-03,5.69E-04
143000,7.42E-03,6.63E-04
143001,7.80E-03,7.73E-04
143002,8.22E-03,8.75E-04
143003,9.60E-03,9.56E-04
143004,9.23E-03,9.83E-04
143005,8.32E-03,9.82E-04
143006,8.07E-03,9.57E-04
143007,7.89E-03,9.29E-04
143008,7.84E-03,8.98E-04
143009,7.70E-03,8.66E-04
143010,7.68E-03,8.34E-04
143011,7.70E-03,8.14E-04
143012,7.80E-03,8.15E-04
143013,7.94E-03,8.37E-04
143014,8.41E-03,8.63E-04
143015,8.46E-03,8.63E-04
143016,8.35E-03,8.44E-04
143017,8.03E-03,8.01E-04
143018,7.73E-03,7.49E-04
143019,7.32E-03,7.05E-04
143020,7.37E-03,6.79E-04
143021,8.22E-03,6.75E-04
143022,8.13E-03,6.82E-04
143023,8.31E-03,6.75E-04
143024,8.17E-03,6.46E-04
143025,8.16E-03,6.04E-04
143026,7.99E-03,5.50E-04
143027,7.82E-03,4.98E-04
143028,7.56E-03,4.57E-04
143029,7.46E-03,4.33E-04
143030,7.52E-03,4.24E-04
143031,7.50E-03,4.22E-04
143032,7.52E-03,4.20E-04
143033,7.60E-03,4.18E-04
143034,7.66E-03,4.18E-04
143035,7.77E-03,4.21E-04
143036,7.90E-03,4.28E-04
143037,7.97E-03,4.37E-04
143038,8.05E-03,4.47E-04
143039,8.12E-03,4.57E-04
143040,8.14E-03,4.69E-04
143041,8.12E-03,4.81E-04
143042,8.14E-03,4.92E-04
143043,8.25E-03,4.99E-04
143044,8.24E-03,5.00E-04
143045,8.23E-03,4.94E-04
143046,8.32E-03,4.82E-04
143047,8.35E-03,4.60E-04
143048,8.50E-03,4.31E-04
143049,8.57E-03,3.92E-04
143050,8.84E-03,3.45E-04
143051,8.80E-03,2.88E-04
143052,8.47E-03,2.43E-04
143053,8.09E-03,1.96E-04
143054,7.75E-03,1.67E-04
143055,7.51E-03,1.57E-04
143056,7.48E-03,1.59E-04
143057,7.82E-03,1.70E-04
143058,8.27E-03,1.98E-04
143059,8.69E-03,2.27E-04
143060,8.80E-03,2.54E-04
143061,8.29E-03,2.80E-04
143062,8.43E-03,2.96E-04
143063,7.66E-03,3.08E-04
143064,7.84E-03,3.17E-04
143065,7.84E-03,3.30E-04
143066,7.86E-03,3.49E-04
143067,7.78E-03,3.65E-04
143068,7.74E-03,3.72E-04
143069,7.81E-03,3.76E-04
143070,7.82E-03,3.79E-04
143071,7.73E-03,3.87E-04
143072,7.76E-03,3.96E-04
143073,7.75E-03,4.03E-04
143074,7.74E-03,4.07E-04
143075,7.69E-03,4.07E-04
143076,7.70E-03,4.05E-04
143077,7.53E-03,4.02E-04
143078,7.53E-03,3.93E-04
143079,7.59E-03,3.86E-04
143080,7.56E-03,3.86E-04
143081,7.49E-03,3.94E-04
143082,7.72E-03,4.08E-04
143083,7.79E-03,4.24E-04
143084,7.84E-03,4.40E-04
143085,7.95E-03,4.55E-04
143086,8.03E-03,4.68E-04
143087,8.04E-03,4.79E-04
143088,8.05E-03,4.88E-04
143089,8.06E-03,4.95E-04
143090,8.07E-03,5.00E-04
143091,8.07E-03,5.02E-04
143092,8.07E-03,5.02E-04
143093,8.07E-03,4.99E-04
143094,8.07E-03,4.95E-04
143095,8.06E-03,4.87E-04
143096,8.06E-03,4.78E-04
143097,8.05E-03,4.66E-04
143098,8.04E-03,4.52E-04
143099,7.97E-03,4.35E-04
143100,7.88E-03,4.17E-04
143101,7.82E-03,3.98E-04
143102,7.71E-03,3.77E-04
143103,7.63E-03,3.54E-04
143104,7.53E-03,3.31E-04
143105,7.45E-03,3.08E-04
143106,7.38E-03,2.87E-04
143107,7.31E-03,2.72E-04
143108,7.16E-03,2.61E-04
143109,7.08E-03,2.53E-04
143110,6.95E-03,2.46E-04
143111,6.92E-03,2.41E-04
143112,6.92E-03,2.38E-04
143113,7.03E-03,2.40E-04
143114,7.05E-03,2.46E-04
143115,6.99E-03,2.54E-04
143116,7.17E-03,2.67E-04
143117,7.20E-03,2.86E-04
143118,7.30E-03,3.11E-04
143119,7.41E-03,3.41E-04
143120,7.52E-03,3.73E-04
143121,7.63E-03,4.07E-04
143122,7.75E-03,4.41E-04
143123,7.86E-03,4.75E-04
143124,7.93E-03,5.08E-04
143125,7.78E-03,5.39E-04
143126,7.73E-03,5.70E-04
143127,7.67E-03,6.01E-04
143128,7.69E-03,6.35E-04
143129,7.81E-03,6.69E-04
143130,8.06E-03,7.05E-04
143131,8.32E-03,7.26E-04
143132,9.13E-03,7.22E-04
143133,8.34E-03,7.37E-04
143134,7.90E-03,4.62E-02
143135,8.04E-03,4.60E-02
143136,8.11E-03,4.57E-02
143137,8.08E-03,4.54E-02
143138,8.08E-03,4.51E-02
143139,8.08E-03,4.48E-02
143140,8.08E-03,4.46E-02
143141,8.08E-03,4.43E-02
143142,8.08E-03,4.40E-02
143143,8.08E-03,4.37E-02
143144,8.08E-03,4.34E-02
143145,8.08E-03,4.32E-02
143146,8.08E-03,4.29E-02
143147,8.08E-03,4.26E-02
143148,8.08E-03,4.23E-02
143149,8.08E-03,4.20E-02
143150,8.08E-03,4.18E-02
143151,8.08E-03,4.15E-02
143152,8.08E-03,4.12E-02
143153,8.08E-03,4.09E-02
143154,8.08E-03,4.07E-02
143155,8.08E-03,4.04E-02
143156,8.08E-03,4.01E-02
143157,8.08E-03,3.99E-02
143158,8.08E-03,3.96E-02
143159,8.08E-03,3.93E-02
143160,8.08E-03,3.91E-02
143161,8.08E-03,3.88E-02
143162,8.08E-03,3.85E-02
143163,8.08E-03,3.83E-02
143164,8.08E-03,3.80E-02
143165,8.08E-03,3.77E-02
143166,8.08E-03,3.75E-02
143167,8.08E-03,3.72E-02
143168,8.08E-03,3.69E-02
143169,8.08E-03,3.67E-02
143170,8.08E-03,3.64E-02
143171,8.08E-03,3.61E-02
143172,8.08E-03,3.59E-02
143173,8.08E-03,3.56E-02
143174,8.08E-03,3.53E-02
143175,8.08E-03,3.51E-02
143176,8.08E-03,3.48E-02
143177,8.07E-03,3.45E-02
143178,8.07E-03,3.42E-02
143179,8.07E-03,3.39E-02
143180,8.07E-03,3.36E-02
143181,8.07E-03,3.33E-02
143182,8.07E-03,3.30E-02
143183,8.07E-03,3.27E-02
143184,8.07E-03,3.24E-02
143185,8.07E-03,3.21E-02
143186,8.07E-03,3.18E-02
143187,8.07E-03,3.14E-02
143188,8.06E-03,3.11E-02
143189,8.06E-03,3.07E-02
143190,8.06E-03,3.04E-02
143191,8.05E-03,3.00E-02
143192,8.05E-03,2.96E-02
143193,8.04E-03,2.92E-02
143194,8.03E-03,2.87E-02
143195,8.02E-03,2.83E-02
143196,7.99E-03,2.79E-02
143197,7.94E-03,2.75E-02
143198,7.72E-03,2.71E-02
143199,7.64E-03,2.69E-02
143200,7.82E-03,2.70E-02
143201,7.82E-03,2.72E-02
143202,7.91E-03,2.76E-02
143203,7.94E-03,2.80E-02
143204,7.91E-03,2.84E-02
143205,7.87E-03,2.90E-02
143206,7.83E-03,2.96E-02
143207,8.01E-03,3.04E-02
143208,8.25E-03,3.12E-02
143209,8.27E-03,3.19E-02
143210,8.22E-03,3.26E-02
143211,8.20E-03,3.31E-02
143212,8.21E-03,3.35E-02
143213,8.22E-03,3.39E-02
143214,8.22E-03,3.41E-02
143215,8.20E-03,3.43E-02
143216,8.18E-03,3.44E-02
143217,8.17E-03,3.44E-02
143218,8.16E-03,3.44E-02
143219,8.15E-03,3.44E-02
143220,8.14E-03,3.43E-02
143221,8.14E-03,3.42E-02
143222,8.13E-03,3.41E-02
143223,8.13E-03,3.40E-02
143224,8.13E-03,3.38E-02
143225,8.12E-03,3.37E-02
143226,8.12E-03,3.35E-02
143227,8.12E-03,3.33E-02
143228,8.11E-03,3.31E-02
143229,8.11E-03,3.30E-02
143230,8.11E-03,3.28E-02
143231,8.11E-03,3.26E-02
143232,8.10E-03,3.24E-02
143233,8.10E-03,3.22E-02
143234,8.10E-03,3.19E-02
143235,8.10E-03,3.17E-02
143236,8.10E-03,3.15E-02
143237,8.10E-03,3.13E-02
143238,8.10E-03,3.10E-02
143239,8.10E-03,3.08E-02
143240,8.09E-03,3.05E-02
143241,8.09E-03,3.03E-02
143242,8.09E-03,3.00E-02
143243,8.08E-03,2.97E-02
143244,8.08E-03,2.94E-02
143245,8.08E-03,2.91E-02
143246,8.07E-03,2.88E-02
143247,8.05E-03,2.85E-02
143248,8.03E-03,2.82E-02
143249,8.03E-03,2.80E-02
143250,8.03E-03,2.77E-02
143251,8.03E-03,2.74E-02
143252,8.03E-03,2.71E-02
143253,8.03E-03,2.69E-02
143254,8.01E-03,2.66E-02
143255,7.99E-03,2.64E-02
143256,7.96E-03,2.62E-02
143257,7.91E-03,2.60E-02
143258,7.84E-03,2.59E-02
143259,7.84E-03,2.59E-02
143260,7.91E-03,2.60E-02
143261,7.97E-03,2.62E-02
143262,7.97E-03,2.64E-02
143263,7.94E-03,2.67E-02
143264,7.87E-03,2.71E-02
143265,7.91E-03,2.75E-02
143266,8.03E-03,2.81E-02
143267,8.06E-03,2.87E-02
143268,8.07E-03,2.93E-02
143269,8.09E-03,2.99E-02
143270,8.11E-03,3.06E-02
143271,8.14E-03,3.12E-02
143272,8.21E-03,3.18E-02
143273,8.27E-03,3.24E-02
143274,8.23E-03,3.28E-02
143275,8.21E-03,3.32E-02
143276,8.23E-03,3.35E-02
143277,8.25E-03,3.38E-02
143278,8.28E-03,3.39E-02
143279,8.28E-03,3.40E-02
143280,8.25E-03,3.39E-02
143281,8.20E-03,3.38E-02
143282,8.18E-03,3.36E-02
143283,8.16E-03,3.34E-02
143284,8.14E-03,3.32E-02
143285,8.13E-03,3.29E-02
143286,8.13E-03,3.27E-02
143287,8.12E-03,3.25E-02
143288,8.11E-03,3.22E-02
143289,8.11E-03,3.20E-02
143290,8.11E-03,3.18E-02
143291,8.11E-03,3.16E-02
143292,8.11E-03,3.14E-02
143293,8.11E-03,3.12E-02
143294,8.11E-03,3.10E-02
143295,8.11E-03,3.08E-02
143296,8.10E-03,3.06E-02
143297,8.10E-03,3.04E-02
143298,8.10E-03,3.03E-02
143299,8.10E-03,3.01E-02
143300,8.10E-03,2.99E-02
143301,8.10E-03,2.97E-02
143302,8.09E-03,2.95E-02
143303,8.09E-03,2.94E-02
143304,8.09E-03,2.92E-02
143305,8.09E-03,2.90E-02
143306,8.09E-03,2.89E-02
143307,8.09E-03,2.87E-02
143308,8.09E-03,2.86E-02
143309,8.09E-03,2.84E-02
143310,8.09E-03,2.82E-02
143311,8.09E-03,2.81E-02
143312,8.09E-03,2.79E-02
143313,8.09E-03,2.78E-02
143314,8.09E-03,2.76E-02
143315,8.09E-03,2.75E-02
143316,8.09E-03,2.73E-02
143317,8.09E-03,2.72E-02
143318,8.09E-03,2.70E-02
143319,8.09E-03,2.68E-02
143320,8.09E-03,2.67E-02
143321,8.09E-03,2.65E-02
143322,8.08E-03,2.64E-02
143323,8.08E-03,2.62E-02
143324,8.08E-03,2.60E-02
143325,8.08E-03,2.59E-02
143326,8.08E-03,2.57E-02
143327,8.07E-03,2.55E-02
143328,8.07E-03,2.54E-02
143329,8.07E-03,2.52E-02
143330,8.07E-03,2.51E-02
143331,8.07E-03,2.49E-02
143332,8.07E-03,2.47E-02
143333,8.07E-03,2.46E-02
143334,8.06E-03,2.44E-02
143335,8.06E-03,2.43E-02
143336,8.06E-03,2.41E-02
143337,8.06E-03,2.39E-02
143338,8.05E-03,2.38E-02
143339,8.05E-03,2.36E-02
143340,8.04E-03,2.35E-02
143341,8.04E-03,2.33E-02
143342,8.03E-03,2.32E-02
143343,8.01E-03,2.30E-02
143344,7.99E-03,2.29E-02
143345,7.95E-03,2.28E-02
143346,7.87E-03,2.28E-02
143347,7.75E-03,2.29E-02
143348,7.82E-03,2.31E-02
143349,8.13E-03,2.35E-02
143350,8.27E-03,2.38E-02
143351,8.19E-03,2.40E-02
143352,8.16E-03,2.42E-02
143353,8.15E-03,2.43E-02
143354,8.14E-03,2.44E-02
143355,8.14E-03,2.44E-02
143356,8.13E-03,2.43E-02
143357,8.13E-03,2.43E-02
143358,8.11E-03,2.42E-02
143359,8.07E-03,2.40E-02
143360,8.03E-03,2.39E-02
143361,7.99E-03,2.38E-02
143362,7.96E-03,2.38E-02
143363,7.87E-03,2.38E-02
143364,7.76E-03,2.39E-02
143365,7.78E-03,2.42E-02
143366,7.94E-03,2.48E-02
143367,7.95E-03,2.56E-02
143368,8.28E-03,2.65E-02
143369,8.43E-03,2.71E-02
143370,8.42E-03,2.73E-02
143371,8.35E-03,2.71E-02
143372,8.32E-03,2.69E-02
143373,8.20E-03,2.67E-02
143374,8.13E-03,2.64E-02
143375,8.12E-03,2.62E-02
143376,8.11E-03,2.59E-02
143377,8.11E-03,2.57E-02
143378,8.10E-03,2.55E-02
143379,8.10E-03,2.53E-02
143380,8.10E-03,2.51E-02
143381,8.10E-03,2.49E-02
143382,8.10E-03,2.47E-02
143383,8.09E-03,2.46E-02
143384,8.09E-03,2.44E-02
143385,8.09E-03,2.42E-02
143386,8.09E-03,2.41E-02
143387,8.09E-03,2.39E-02
143388,8.09E-03,2.38E-02
143389,8.09E-03,2.36E-02
143390,8.09E-03,2.35E-02
143391,8.09E-03,2.34E-02
143392,8.09E-03,2.32E-02
143393,8.09E-03,2.31E-02
143394,8.09E-03,2.30E-02
143395,8.09E-03,2.28E-02
143396,8.09E-03,2.27E-02
143397,8.08E-03,2.26E-02
143398,8.08E-03,2.25E-02
143399,8.08E-03,2.23E-02
143400,8.08E-03,2.22E-02
143401,8.08E-03,2.21E-02
143402,8.08E-03,2.20E-02
143403,8.08E-03,2.19E-02
143404,8.08E-03,2.18E-02
143405,8.08E-03,2.17E-02
143406,8.08E-03,2.16E-02
143407,8.08E-03,2.15E-02
143408,8.08E-03,2.14E-02
143409,8.08E-03,2.13E-02
143410,8.08E-03,2.12E-02
143411,8.08E-03,2.11E-02
143412,8.07E-03,2.10E-02
143413,8.07E-03,2.09E-02
143414,8.07E-03,2.08E-02
143415,8.07E-03,2.08E-02
143416,8.07E-03,2.07E-02
143417,8.07E-03,2.06E-02
143418,8.07E-03,2.05E-02
143419,8.07E-03,2.04E-02
143420,8.07E-03,2.04E-02
143421,8.07E-03,2.03E-02
143422,8.07E-03,2.02E-02
143423,8.07E-03,2.02E-02
143424,8.06E-03,2.01E-02
143425,8.06E-03,2.00E-02
143426,8.06E-03,2.00E-02
143427,8.06E-03,1.99E-02
143428,8.05E-03,1.99E-02
143429,8.05E-03,1.99E-02
143430,8.04E-03,1.98E-02
143431,8.03E-03,1.98E-02
143432,8.02E-03,1.99E-02
143433,8.00E-03,1.99E-02
143434,8.07E-03,2.00E-02
143435,8.17E-03,2.01E-02
143436,8.18E-03,2.01E-02
143437,8.15E-03,2.01E-02
143438,8.13E-03,2.01E-02
143439,8.12E-03,2.01E-02
143440,8.11E-03,2.00E-02
143441,8.11E-03,2.00E-02
143442,8.11E-03,1.99E-02
143443,8.10E-03,1.98E-02
143444,8.10E-03,1.98E-02
143445,8.10E-03,1.97E-02
143446,8.10E-03,1.96E-02
143447,8.09E-03,1.95E-02
143448,8.09E-03,1.94E-02
143449,8.09E-03,1.93E-02
143450,8.09E-03,1.93E-02
143451,8.09E-03,1.92E-02
143452,8.09E-03,1.91E-02
143453,8.09E-03,1.90E-02
143454,8.09E-03,1.89E-02
143455,8.09E-03,1.89E-02
143456,8.09E-03,1.88E-02
143457,8.09E-03,1.87E-02
143458,8.09E-03,1.86E-02
143459,8.09E-03,1.85E-02
143460,8.09E-03,1.85E-02
143461,8.09E-03,1.84E-02
143462,8.09E-03,1.83E-02
143463,8.09E-03,1.82E-02
143464,8.09E-03,1.82E-02
143465,8.08E-03,1.81E-02
143466,8.08E-03,1.80E-02
143467,8.08E-03,1.79E-02
143468,8.08E-03,1.78E-02
143469,8.08E-03,1.78E-02
143470,8.08E-03,1.77E-02
143471,8.08E-03,1.76E-02
143472,8.08E-03,1.75E-02
143473,8.08E-03,1.75E-02
143474,8.08E-03,1.74E-02
143475,8.08E-03,1.73E-02
143476,8.08E-03,1.72E-02
143477,8.08E-03,1.72E-02
143478,8.08E-03,1.71E-02
143479,8.08E-03,1.70E-02
143480,8.08E-03,1.70E-02
143481,8.08E-03,1.69E-02
143482,8.08E-03,1.68E-02
143483,8.08E-03,1.67E-02
143484,8.08E-03,1.67E-02
143485,8.08E-03,1.66E-02
143486,8.08E-03,1.65E-02
143487,8.08E-03,1.64E-02
143488,8.08E-03,1.64E-02
143489,8.08E-03,1.63E-02
143490,8.08E-03,1.62E-02
143491,8.08E-03,1.62E-02
143492,8.08E-03,1.61E-02
143493,8.08E-03,1.60E-02
143494,8.08E-03,1.59E-02
143495,8.08E-03,1.59E-02
143496,8.08E-03,1.58E-02
143497,8.08E-03,1.57E-02
143498,8.08E-03,1.56E-02
143499,8.08E-03,1.56E-02
143500,8.08E-03,1.55E-02
143501,8.08E-03,1.54E-02
143502,8.08E-03,1.53E-02
143503,8.08E-03,1.53E-02
143504,8.08E-03,1.52E-02
143505,8.08E-03,1.51E-02
143506,8.08E-03,1.50E-02
143507,8.08E-03,1.50E-02
143508,8.09E-03,1.49E-02
143509,8.09E-03,1.48E-02
143510,8.09E-03,1.47E-02
143511,8.09E-03,1.47E-02
143512,8.09E-03,1.46E-02
143513,8.09E-03,1.45E-02
143514,8.09E-03,1.44E-02
143515,8.09E-03,1.43E-02
143516,8.09E-03,1.43E-02
143517,8.09E-03,1.42E-02
143518,8.09E-03,1.41E-02
143519,8.09E-03,1.40E-02
143520,8.09E-03,1.39E-02
143521,8.09E-03,1.39E-02
143522,8.09E-03,1.38E-02
143523,8.09E-03,1.37E-02
143524,8.09E-03,1.36E-02
143525,8.09E-03,1.35E-02
143526,8.09E-03,1.35E-02
143527,8.09E-03,1.34E-02
143528,8.09E-03,1.33E-02
143529,8.09E-03,1.32E-02
143530,8.09E-03,1.31E-02
143531,8.10E-03,1.30E-02
143532,8.10E-03,1.30E-02
143533,8.10E-03,1.29E-02
143534,8.10E-03,1.28E-02
143535,8.10E-03,1.27E-02
143536,8.11E-03,1.26E-02
143537,8.11E-03,1.25E-02
143538,8.11E-03,1.25E-02
143539,8.12E-03,1.24E-02
143540,8.13E-03,1.23E-02
143541,8.14E-03,1.22E-02
143542,8.15E-03,1.21E-02
143543,8.18E-03,1.19E-02
143544,8.22E-03,1.18E-02
143545,8.23E-03,1.16E-02
143546,8.16E-03,1.14E-02
143547,8.11E-03,1.12E-02
143548,8.11E-03,1.10E-02
143549,8.12E-03,1.08E-02
143550,8.12E-03,1.06E-02
143551,8.12E-03,1.04E-02
143552,8.13E-03,1.02E-02
143553,8.14E-03,1.00E-02
143554,8.14E-03,9.80E-03
143555,8.15E-03,9.58E-03
143556,8.17E-03,9.36E-03
143557,8.19E-03,9.11E-03
143558,8.17E-03,8.86E-03
143559,8.11E-03,8.59E-03
143560,7.99E-03,8.33E-03
143561,7.91E-03,8.10E-03
143562,7.96E-03,7.89E-03
143563,8.00E-03,7.71E-03
143564,8.01E-03,7.55E-03
143565,8.03E-03,7.40E-03
143566,8.03E-03,7.26E-03
143567,8.04E-03,7.12E-03
143568,8.05E-03,6.98E-03
143569,8.05E-03,6.85E-03
143570,8.05E-03,6.72E-03
143571,8.06E-03,6.60E-03
143572,8.06E-03,6.47E-03
143573,8.06E-03,6.34E-03
143574,8.06E-03,6.21E-03
143575,8.07E-03,6.08E-03
143576,8.09E-03,5.95E-03
143577,8.12E-03,5.82E-03
143578,8.12E-03,5.67E-03
143579,8.11E-03,5.52E-03
143580,8.10E-03,5.37E-03
143581,8.11E-03,5.21E-03
143582,8.11E-03,5.04E-03
143583,8.12E-03,4.87E-03
143584,8.12E-03,4.69E-03
143585,8.13E-03,4.51E-03
143586,8.14E-03,4.32E-03
143587,8.15E-03,4.12E-03
143588,8.16E-03,3.92E-03
143589,8.18E-03,3.70E-03
143590,8.18E-03,3.48E-03
143591,8.14E-03,3.25E-03
143592,8.09E-03,3.02E-03
143593,8.07E-03,2.79E-03
143594,8.07E-03,2.56E-03
143595,8.07E-03,2.34E-03
143596,8.07E-03,2.12E-03
143597,8.07E-03,1.90E-03
143598,8.07E-03,1.69E-03
143599,8.07E-03,1.49E-03
143600,8.07E-03,1.30E-03
143601,8.07E-03,1.15E-03
143602,8.07E-03,1.04E-03
143603,8.07E-03,1.01E-03
143604,8.07E-03,1.07E-03
143605,8.07E-03,1.22E-03
143606,8.07E-03,1.44E-03
143607,8.07E-03,1.73E-03
143608,8.07E-03,2.07E-03
143609,8.07E-03,2.46E-03
143610,8.07E-03,2.91E-03
143611,8.08E-03,3.40E-03
143612,8.08E-03,3.96E-03
143613,8.08E-03,4.60E-03
143614,8.08E-03,5.33E-03
143615,8.11E-03,6.18E-03
143616,8.19E-03,7.16E-03
143617,8.32E-03,8.31E-03
143618,8.41E-03,9.67E-03
143619,8.52E-03,1.12E-02
143620,8.58E-03,1.30E-02
143621,8.64E-03,1.50E-02
143622,8.84E-03,1.71E-02
143623,8.78E-03,1.90E-02
143624,8.92E-03,2.04E-02
143625,8.72E-03,2.11E-02
143626,8.69E-03,2.15E-02
143627,8.69E-03,2.18E-02
143628,8.61E-03,2.22E-02
143629,8.55E-03,2.27E-02
143630,8.46E-03,2.31E-02
143631,8.50E-03,2.31E-02
143632,7.98E-03,2.26E-02
143633,8.01E-03,2.18E-02
143634,7.89E-03,2.12E-02
143635,7.70E-03,2.13E-02
143636,7.76E-03,2.19E-02
143637,7.79E-03,2.30E-02
143638,7.89E-03,2.42E-02
143639,8.00E-03,2.55E-02
143640,8.25E-03,2.70E-02
143641,8.33E-03,2.86E-02
143642,8.32E-03,2.99E-02
143643,8.71E-03,3.05E-02
143644,9.18E-03,3.03E-02
143645,9.38E-03,2.92E-02
143646,9.21E-03,2.77E-02
143647,8.58E-03,2.64E-02
143648,8.39E-03,2.52E-02
143649,8.21E-03,2.41E-02
143650,8.01E-03,2.33E-02
143651,8.01E-03,2.26E-02
143652,7.98E-03,2.21E-02
143653,7.91E-03,2.15E-02
143654,7.92E-03,2.10E-02
143655,7.83E-03,2.06E-02
143656,7.83E-03,2.02E-02
143657,7.69E-03,2.01E-02
143658,7.81E-03,2.02E-02
143659,7.92E-03,2.05E-02
143660,8.05E-03,2.08E-02
143661,8.19E-03,2.10E-02
143662,8.58E-03,2.11E-02
143663,8.05E-03,2.10E-02
143664,7.95E-03,2.06E-02
143665,7.81E-03,2.03E-02
143666,7.85E-03,2.02E-02
143667,7.83E-03,2.07E-02
143668,7.51E-03,2.14E-02
143669,8.12E-03,2.20E-02
143670,8.34E-03,2.20E-02
143671,8.14E-03,2.16E-02
143672,7.95E-03,2.12E-02
143673,7.68E-03,2.10E-02
143674,7.55E-03,2.09E-02
143675,7.39E-03,2.08E-02
143676,7.34E-03,2.05E-02
143677,7.45E-03,2.00E-02
143678,7.42E-03,1.95E-02
143679,7.24E-03,1.95E-02
143680,7.75E-03,2.01E-02
143681,7.80E-03,2.11E-02
143682,8.33E-03,2.21E-02
143683,8.48E-03,2.25E-02
143684,8.61E-03,2.27E-02
143685,8.00E-03,2.30E-02
143686,7.83E-03,2.32E-02
143687,7.66E-03,2.35E-02
143688,7.70E-03,2.38E-02
143689,7.76E-03,2.41E-02
143690,7.81E-03,2.44E-02
143691,7.84E-03,2.47E-02
143692,7.84E-03,2.49E-02
143693,7.89E-03,2.49E-02
143694,7.95E-03,2.46E-02
143695,8.00E-03,2.43E-02
143696,7.83E-03,2.38E-02
143697,7.66E-03,2.33E-02
143698,7.52E-03,2.28E-02
143699,7.60E-03,2.24E-02
143700,7.42E-03,2.24E-02
143701,7.42E-03,2.31E-02
143702,7.43E-03,2.42E-02
143703,8.11E-03,2.55E-02
143704,8.10E-03,2.62E-02
143705,7.96E-03,2.63E-02
143706,7.83E-03,2.62E-02
143707,7.88E-03,2.59E-02
143708,7.97E-03,2.58E-02
143709,8.07E-03,2.56E-02
143710,8.10E-03,2.55E-02
143711,8.14E-03,2.53E-02
143712,7.96E-03,2.49E-02
143713,7.80E-03,2.46E-02
143714,7.80E-03,2.42E-02
143715,7.89E-03,2.40E-02
143716,8.01E-03,2.38E-02
143717,7.90E-03,2.37E-02
143718,8.03E-03,2.38E-02
143719,8.18E-03,2.39E-02
143720,8.14E-03,2.39E-02
143721,8.14E-03,2.37E-02
143722,8.05E-03,2.34E-02
143723,8.04E-03,2.29E-02
143724,8.02E-03,2.25E-02
143725,7.89E-03,2.20E-02
143726,7.80E-03,2.16E-02
143727,7.83E-03,2.13E-02
143728,7.86E-03,2.10E-02
143729,7.73E-03,2.07E-02
143730,7.68E-03,2.05E-02
143731,7.60E-03,2.04E-02
143732,7.63E-03,2.03E-02
143733,7.71E-03,2.03E-02
143734,7.81E-03,2.04E-02
143735,7.86E-03,2.06E-02
143736,7.76E-03,2.08E-02
143737,7.68E-03,2.10E-02
143738,7.55E-03,2.12E-02
143739,7.48E-03,2.14E-02
143740,7.64E-03,2.15E-02
143741,7.84E-03,2.17E-02
143742,8.19E-03,2.19E-02
143743,8.17E-03,2.21E-02
143744,8.24E-03,2.23E-02
143745,8.15E-03,2.25E-02
143746,8.23E-03,2.27E-02
143747,8.00E-03,2.30E-02
143748,7.56E-03,2.33E-02
143749,7.46E-03,2.35E-02
143750,7.60E-03,2.39E-02
143751,7.89E-03,2.43E-02
143752,8.25E-03,2.44E-02
143753,7.99E-03,2.44E-02
143754,7.90E-03,2.41E-02
143755,7.77E-03,2.37E-02
143756,7.73E-03,2.32E-02
143757,7.92E-03,2.26E-02
143758,8.32E-03,2.20E-02
143759,9.51E-03,2.13E-02
143760,9.51E-03,2.08E-02
143761,8.81E-03,2.02E-02
143762,8.33E-03,1.98E-02
143763,7.67E-03,4.66E-02
143764,6.31E-03,1.94E-02
143765,4.16E-03,1.92E-02
143766,8.22E-03,4.18E-04
143767,8.73E-03,3.74E-04
143768,8.07E-03,3.17E-04
143769,7.82E-03,2.61E-04
143770,7.78E-03,2.24E-04
143771,7.79E-03,2.09E-04
143772,8.00E-03,2.03E-04
143773,8.15E-03,2.05E-04
143774,8.24E-03,2.17E-04
143775,8.26E-03,2.38E-04
143776,8.31E-03,2.63E-04
143777,8.38E-03,2.90E-04
143778,8.48E-03,3.17E-04
143779,8.50E-03,3.46E-04
143780,8.40E-03,3.75E-04
143781,8.33E-03,4.04E-04
143782,8.28E-03,4.32E-04
143783,8.23E-03,4.60E-04
143784,8.17E-03,4.86E-04
143785,8.12E-03,5.12E-04
143786,8.04E-03,5.36E-04
143787,7.93E-03,5.57E-04
143788,7.94E-03,5.77E-04
143789,7.98E-03,5.94E-04
143790,8.02E-03,6.08E-04
143791,8.07E-03,6.21E-04
143792,8.10E-03,6.32E-04
143793,8.14E-03,6.41E-04
143794,8.19E-03,6.48E-04
143795,8.21E-03,6.55E-04
143796,8.22E-03,6.61E-04
143797,8.23E-03,6.66E-04
143798,8.24E-03,6.70E-04
143799,8.25E-03,6.74E-04
143800,8.26E-03,6.78E-04
143801,8.27E-03,6.81E-04
143802,8.29E-03,6.85E-04
143803,8.30E-03,6.88E-04
143804,8.32E-03,6.93E-04
143805,8.34E-03,6.98E-04
143806,8.35E-03,7.04E-04
143807,8.37E-03,7.10E-04
143808,8.38E-03,7.18E-04
143809,8.39E-03,7.27E-04
143810,8.40E-03,7.37E-04
143811,8.42E-03,7.49E-04
143812,8.45E-03,7.62E-04
143813,8.48E-03,7.78E-04
143814,8.57E-03,7.96E-04
143815,8.51E-03,8.19E-04
143816,8.47E-03,8.42E-04
143817,8.44E-03,8.66E-04
143818,8.42E-03,8.91E-04
143819,8.34E-03,9.16E-04
143820,8.22E-03,9.43E-04
143821,8.15E-03,9.72E-04
143822,8.25E-03,1.00E-03
143823,8.28E-03,1.03E-03
143824,8.25E-03,1.06E-03
143825,8.23E-03,1.09E-03
143826,8.14E-03,1.11E-03
143827,8.13E-03,1.14E-03
143828,8.16E-03,1.17E-03
143829,8.17E-03,1.20E-03
143830,8.15E-03,1.23E-03
143831,8.14E-03,1.26E-03
143832,8.13E-03,1.29E-03
143833,8.12E-03,1.31E-03
143834,8.12E-03,1.34E-03
143835,8.11E-03,1.37E-03
143836,8.11E-03,1.40E-03
143837,8.11E-03,1.43E-03
143838,8.11E-03,1.47E-03
143839,8.11E-03,1.49E-03
143840,8.11E-03,1.52E-03
143841,8.12E-03,1.55E-03
143842,8.12E-03,1.58E-03
143843,8.12E-03,1.61E-03
143844,8.13E-03,1.64E-03
143845,8.13E-03,1.66E-03
143846,8.13E-03,1.69E-03
143847,8.13E-03,1.71E-03
143848,8.13E-03,1.74E-03
143849,8.14E-03,1.76E-03
143850,8.14E-03,1.79E-03
143851,8.14E-03,1.81E-03
143852,8.14E-03,1.83E-03
143853,8.14E-03,1.85E-03
143854,8.15E-03,1.88E-03
143855,8.15E-03,1.90E-03
143856,8.15E-03,1.92E-03
143857,8.16E-03,1.95E-03
143858,8.16E-03,1.97E-03
143859,8.16E-03,1.99E-03
143860,8.17E-03,2.02E-03
143861,8.17E-03,2.04E-03
143862,8.17E-03,2.06E-03
143863,8.18E-03,2.09E-03
143864,8.18E-03,2.12E-03
143865,8.19E-03,2.14E-03
143866,8.19E-03,2.17E-03
143867,8.20E-03,2.20E-03
143868,8.21E-03,2.23E-03
143869,8.22E-03,2.26E-03
143870,8.22E-03,2.29E-03
143871,8.23E-03,2.32E-03
143872,8.23E-03,2.36E-03
143873,8.24E-03,2.39E-03
143874,8.24E-03,2.43E-03
143875,8.24E-03,2.46E-03
143876,8.25E-03,2.50E-03
143877,8.25E-03,2.53E-03
143878,8.25E-03,2.57E-03
143879,8.24E-03,2.61E-03
143880,8.24E-03,2.65E-03
143881,8.24E-03,2.69E-03
143882,8.24E-03,2.73E-03
143883,8.24E-03,2.77E-03
143884,8.24E-03,2.81E-03
143885,8.24E-03,2.86E-03
143886,8.24E-03,2.91E-03
143887,8.23E-03,2.95E-03
143888,8.23E-03,3.00E-03
143889,8.23E-03,3.05E-03
143890,8.23E-03,3.11E-03
143891,8.23E-03,3.16E-03
143892,8.22E-03,3.22E-03
143893,8.20E-03,3.28E-03
143894,8.19E-03,3.34E-03
143895,8.19E-03,3.40E-03
143896,8.18E-03,3.47E-03
143897,8.17E-03,3.53E-03
143898,8.17E-03,3.60E-03
143899,8.16E-03,3.68E-03
143900,8.15E-03,3.75E-03
143901,8.14E-03,3.83E-03
143902,8.06E-03,3.91E-03
143903,7.98E-03,4.00E-03
143904,7.89E-03,4.08E-03
143905,7.87E-03,4.17E-03
143906,7.77E-03,4.26E-03
143907,7.88E-03,4.35E-03
143908,7.95E-03,4.44E-03
143909,7.82E-03,4.54E-03
143910,7.76E-03,4.63E-03
143911,7.70E-03,4.72E-03
143912,7.72E-03,4.82E-03
143913,7.77E-03,4.90E-03
143914,7.74E-03,4.99E-03
143915,7.71E-03,5.08E-03
143916,7.69E-03,5.17E-03
143917,7.68E-03,5.25E-03
143918,7.71E-03,5.33E-03
143919,7.70E-03,5.42E-03
143920,7.81E-03,5.50E-03
143921,7.90E-03,5.61E-03
143922,8.03E-03,5.73E-03
143923,8.25E-03,5.85E-03
143924,8.34E-03,6.01E-03
143925,8.53E-03,6.13E-03
143926,8.48E-03,6.38E-03
143927,8.25E-03,6.62E-03
143928,8.12E-03,6.87E-03
143929,7.92E-03,7.11E-03
143930,7.88E-03,7.32E-03
143931,7.90E-03,7.47E-03
143932,7.89E-03,7.57E-03
143933,7.91E-03,7.68E-03
143934,8.77E-03,7.88E-03
143935,8.42E-03,8.08E-03
143936,7.36E-03,8.15E-03
143937,7.39E-03,8.18E-03
143938,7.85E-03,8.18E-03
143939,8.10E-03,8.18E-03
143940,8.25E-03,8.21E-03
143941,8.23E-03,8.34E-03
143942,7.98E-03,8.49E-03
143943,7.96E-03,8.67E-03
143944,7.71E-03,8.84E-03
143945,7.49E-03,9.01E-03
143946,7.37E-03,9.17E-03
143947,7.37E-03,9.28E-03
143948,7.53E-03,9.36E-03
143949,8.04E-03,9.44E-03
143950,7.23E-03,9.58E-03
143951,7.30E-03,9.68E-03
143952,7.59E-03,9.74E-03
143953,7.63E-03,9.82E-03
143954,7.61E-03,9.95E-03
143955,7.60E-03,1.01E-02
143956,7.68E-03,1.03E-02
143957,7.83E-03,1.05E-02
143958,7.86E-03,1.07E-02
143959,7.97E-03,1.09E-02
143960,7.65E-03,1.11E-02
143961,7.33E-03,1.12E-02
143962,6.97E-03,1.15E-02
143963,7.45E-03,1.17E-02
143964,7.69E-03,1.19E-02
143965,7.64E-03,1.21E-02
143966,9.12E-03,1.24E-02
143967,9.45E-03,1.27E-02
143968,8.44E-03,1.31E-02
143969,8.07E-03,1.34E-02
143970,7.51E-03,1.37E-02
143971,8.95E-03,1.40E-02
143972,9.41E-03,1.45E-02
143973,9.17E-03,1.46E-02
143974,9.00E-03,1.48E-02
143975,8.88E-03,1.49E-02
143976,8.66E-03,1.50E-02
143977,8.57E-03,1.51E-02
143978,8.40E-03,1.53E-02
143979,8.23E-03,1.56E-02
143980,8.08E-03,1.60E-02
143981,7.94E-03,1.63E-02
143982,7.76E-03,1.67E-02
143983,7.69E-03,1.71E-02
143984,7.59E-03,1.74E-02
143985,7.57E-03,1.76E-02
143986,7.67E-03,1.76E-02
143987,7.80E-03,1.74E-02
143988,7.98E-03,1.73E-02
143989,8.04E-03,1.72E-02
143990,8.13E-03,1.74E-02
143991,8.17E-03,1.77E-02
143992,8.18E-03,1.80E-02
143993,8.22E-03,1.85E-02
143994,8.17E-03,1.90E-02
143995,8.22E-03,1.96E-02
143996,8.32E-03,2.02E-02
143997,8.57E-03,2.09E-02
143998,9.06E-03,2.17E-02
143999,5.60E-03,2.26E-02
144000,7.91E-03,2.23E-02
144001,5.50E-03,2.54E-02
144002,6.72E-03,2.62E-02
144003,7.39E-03,2.70E-02
144004,7.54E-03,2.76E-02
144005,7.68E-03,2.81E-02
144006,7.86E-03,2.82E-02
144007,8.17E-03,2.81E-02
144008,8.51E-03,2.74E-02
144009,8.13E-03,2.73E-02
144010,7.57E-03,2.68E-02
144011,7.25E-03,2.57E-02
144012,7.38E-03,2.54E-02
144013,7.68E-03,2.57E-02
144014,8.14E-03,2.55E-02
144015,8.54E-03,2.53E-02
144016,8.86E-03,2.50E-02
144017,8.67E-03,2.47E-02
144018,8.35E-03,2.45E-02
144019,7.98E-03,2.43E-02
144020,7.57E-03,2.43E-02
144021,7.27E-03,2.42E-02
144022,7.20E-03,2.42E-02
144023,7.29E-03,2.42E-02
144024,7.45E-03,2.42E-02
144025,7.70E-03,2.42E-02
144026,7.89E-03,2.41E-02
144027,7.98E-03,2.40E-02
144028,8.11E-03,2.38E-02
144029,8.17E-03,2.37E-02
144030,8.08E-03,2.35E-02
144031,7.94E-03,2.34E-02
144032,7.76E-03,2.33E-02
144033,7.62E-03,2.32E-02
144034,7.54E-03,2.32E-02
144035,7.53E-03,2.33E-02
144036,7.65E-03,2.33E-02
144037,7.67E-03,2.34E-02
144038,7.74E-03,2.36E-02
144039,7.80E-03,2.37E-02
144040,7.90E-03,2.38E-02
144041,7.98E-03,2.40E-02
144042,8.02E-03,2.41E-02
144043,8.09E-03,2.42E-02
144044,8.09E-03,2.43E-02
144045,8.09E-03,2.43E-02
144046,8.10E-03,2.44E-02
144047,8.10E-03,2.44E-02
144048,8.10E-03,2.44E-02
144049,8.10E-03,2.45E-02
144050,8.10E-03,2.45E-02
144051,8.10E-03,2.45E-02
144052,8.10E-03,2.45E-02
144053,8.10E-03,2.44E-02
144054,8.10E-03,2.44E-02
144055,8.10E-03,2.44E-02
144056,8.09E-03,2.44E-02
144057,8.09E-03,2.45E-02
144058,8.09E-03,2.45E-02
144059,8.09E-03,2.45E-02
144060,8.09E-03,2.45E-02
144061,8.09E-03,2.46E-02
144062,8.05E-03,2.46E-02
144063,8.05E-03,2.46E-02
144064,8.09E-03,2.47E-02
144065,8.08E-03,2.47E-02
144066,8.08E-03,2.47E-02
144067,8.07E-03,2.47E-02
144068,8.06E-03,2.46E-02
144069,8.06E-03,2.46E-02
144070,8.06E-03,2.45E-02
144071,8.06E-03,2.45E-02
144072,8.06E-03,2.45E-02
144073,8.05E-03,2.44E-02
144074,8.05E-03,2.44E-02
144075,8.04E-03,2.44E-02
144076,8.03E-03,2.45E-02
144077,8.03E-03,2.45E-02
144078,8.01E-03,2.46E-02
144079,8.00E-03,2.47E-02
144080,7.97E-03,2.48E-02
144081,7.94E-03,2.49E-02
144082,7.92E-03,2.51E-02
144083,7.89E-03,2.52E-02
144084,7.87E-03,2.53E-02
144085,7.83E-03,2.55E-02
144086,7.80E-03,2.56E-02
144087,7.75E-03,2.57E-02
144088,7.69E-03,2.58E-02
144089,7.63E-03,2.58E-02
144090,7.69E-03,2.59E-02
144091,7.83E-03,2.59E-02
144092,7.97E-03,2.60E-02
144093,8.25E-03,2.60E-02
144094,8.24E-03,2.61E-02
144095,8.31E-03,2.61E-02
144096,8.34E-03,2.61E-02
144097,8.40E-03,2.61E-02
144098,8.53E-03,2.61E-02
144099,8.52E-03,2.61E-02
144100,8.54E-03,2.60E-02
144101,8.65E-03,2.59E-02
144102,8.98E-03,2.58E-02
144103,9.24E-03,2.57E-02
144104,9.18E-03,2.55E-02
144105,8.86E-03,2.54E-02
144106,8.72E-03,2.52E-02
144107,8.46E-03,2.51E-02
144108,8.20E-03,2.49E-02
144109,8.19E-03,2.48E-02
144110,8.06E-03,2.46E-02
144111,7.97E-03,2.45E-02
144112,7.75E-03,2.44E-02
144113,7.76E-03,2.42E-02
144114,7.78E-03,2.41E-02
144115,7.80E-03,2.40E-02
144116,7.84E-03,2.39E-02
144117,7.92E-03,2.38E-02
144118,7.99E-03,2.37E-02
144119,8.04E-03,2.36E-02
144120,8.07E-03,2.35E-02
144121,8.09E-03,2.34E-02
144122,8.11E-03,2.33E-02
144123,8.13E-03,2.32E-02
144124,8.19E-03,2.31E-02
144125,8.23E-03,2.30E-02
144126,8.23E-03,2.29E-02
144127,8.25E-03,2.28E-02
144128,8.27E-03,2.27E-02
144129,8.30E-03,2.26E-02
144130,8.33E-03,2.25E-02
144131,8.37E-03,2.23E-02
144132,8.43E-03,2.22E-02
144133,8.48E-03,2.21E-02
144134,8.50E-03,2.20E-02
144135,8.51E-03,2.18E-02
144136,8.51E-03,2.17E-02
144137,8.51E-03,2.15E-02
144138,8.51E-03,2.14E-02
144139,8.51E-03,2.12E-02
144140,8.50E-03,2.10E-02
144141,8.50E-03,2.09E-02
144142,8.50E-03,2.07E-02
144143,8.51E-03,2.05E-02
144144,8.52E-03,2.04E-02
144145,8.53E-03,2.02E-02
144146,8.53E-03,2.00E-02
144147,8.54E-03,1.99E-02
144148,8.56E-03,1.97E-02
144149,8.60E-03,1.96E-02
144150,8.67E-03,1.94E-02
144151,8.65E-03,1.92E-02
144152,8.70E-03,1.91E-02
144153,8.73E-03,1.89E-02
144154,8.71E-03,1.88E-02
144155,8.71E-03,1.87E-02
144156,8.69E-03,1.85E-02
144157,8.52E-03,1.84E-02
144158,8.50E-03,1.82E-02
144159,8.38E-03,1.81E-02
144160,8.31E-03,1.80E-02
144161,8.24E-03,1.79E-02
144162,8.19E-03,1.78E-02
144163,8.18E-03,1.77E-02
144164,8.16E-03,1.75E-02
144165,8.15E-03,1.74E-02
144166,8.14E-03,1.73E-02
144167,8.14E-03,1.72E-02
144168,8.14E-03,1.71E-02
144169,8.14E-03,1.70E-02
144170,8.15E-03,1.69E-02
144171,8.15E-03,1.68E-02
144172,8.16E-03,1.67E-02
144173,8.16E-03,1.66E-02
144174,8.16E-03,1.65E-02
144175,8.16E-03,1.64E-02
144176,8.16E-03,1.63E-02
144177,8.16E-03,1.62E-02
144178,8.16E-03,1.61E-02
144179,8.16E-03,1.60E-02
144180,8.16E-03,1.59E-02
144181,8.16E-03,1.58E-02
144182,8.17E-03,1.57E-02
144183,8.17E-03,1.56E-02
144184,8.17E-03,1.54E-02
144185,8.17E-03,1.53E-02
144186,8.17E-03,1.52E-02
144187,8.17E-03,1.51E-02
144188,8.17E-03,1.50E-02
144189,8.17E-03,1.49E-02
144190,8.17E-03,1.48E-02
144191,8.18E-03,1.47E-02
144192,8.18E-03,1.46E-02
144193,8.18E-03,1.45E-02
144194,8.18E-03,1.44E-02
144195,8.18E-03,1.43E-02
144196,8.18E-03,1.42E-02
144197,8.18E-03,1.41E-02
144198,8.17E-03,1.40E-02
144199,8.17E-03,1.39E-02
144200,8.16E-03,1.37E-02
144201,8.16E-03,1.36E-02
144202,8.15E-03,1.35E-02
144203,8.15E-03,1.34E-02
144204,8.15E-03,1.33E-02
144205,8.15E-03,1.32E-02
144206,8.15E-03,1.30E-02
144207,8.14E-03,1.29E-02
144208,8.14E-03,1.28E-02
144209,8.14E-03,1.27E-02
144210,8.14E-03,1.26E-02
144211,8.14E-03,1.24E-02
144212,8.14E-03,1.23E-02
144213,8.13E-03,1.22E-02
144214,8.13E-03,1.21E-02
144215,8.13E-03,1.20E-02
144216,8.13E-03,1.19E-02
144217,8.12E-03,1.18E-02
144218,8.12E-03,1.17E-02
144219,8.12E-03,1.17E-02
144220,8.12E-03,1.16E-02
144221,8.12E-03,1.16E-02
144222,8.11E-03,1.16E-02
144223,8.11E-03,1.16E-02
144224,8.11E-03,1.16E-02
144225,8.11E-03,1.17E-02
144226,8.11E-03,1.18E-02
144227,8.11E-03,1.19E-02
144228,8.11E-03,1.20E-02
144229,8.11E-03,1.22E-02
144230,8.11E-03,1.23E-02
144231,8.11E-03,1.25E-02
144232,8.10E-03,1.27E-02
144233,8.10E-03,1.29E-02
144234,8.10E-03,1.31E-02
144235,8.10E-03,1.33E-02
144236,8.10E-03,1.35E-02
144237,8.10E-03,1.38E-02
144238,8.10E-03,1.40E-02
144239,8.10E-03,1.42E-02
144240,8.10E-03,1.45E-02
144241,8.10E-03,1.48E-02
144242,8.10E-03,1.51E-02
144243,8.10E-03,1.55E-02
144244,8.11E-03,1.58E-02
144245,8.11E-03,1.62E-02
144246,8.11E-03,1.65E-02
144247,8.11E-03,1.69E-02
144248,8.11E-03,1.72E-02
144249,8.11E-03,1.75E-02
144250,8.11E-03,1.78E-02
144251,8.11E-03,1.80E-02
144252,8.07E-03,1.82E-02
144253,8.03E-03,1.84E-02
144254,8.03E-03,1.85E-02
144255,8.06E-03,1.86E-02
144256,8.12E-03,1.87E-02
144257,8.12E-03,1.87E-02
144258,8.12E-03,1.88E-02
144259,8.12E-03,1.88E-02
144260,8.12E-03,1.88E-02
144261,8.12E-03,1.88E-02
144262,8.07E-03,1.89E-02
144263,8.04E-03,1.89E-02
144264,8.04E-03,1.89E-02
144265,8.11E-03,1.89E-02
144266,8.14E-03,1.90E-02
144267,8.14E-03,1.90E-02
144268,8.15E-03,1.91E-02
144269,8.15E-03,1.92E-02
144270,8.16E-03,1.93E-02
144271,8.11E-03,1.94E-02
144272,8.00E-03,1.96E-02
144273,7.88E-03,1.97E-02
144274,7.75E-03,1.99E-02
144275,7.77E-03,2.00E-02
144276,7.90E-03,2.01E-02
144277,7.91E-03,2.01E-02
144278,7.94E-03,2.02E-02
144279,8.02E-03,2.03E-02
144280,8.08E-03,2.03E-02
144281,8.13E-03,2.04E-02
144282,8.17E-03,2.04E-02
144283,8.18E-03,2.05E-02
144284,8.17E-03,2.05E-02
144285,8.13E-03,2.05E-02
144286,8.04E-03,2.05E-02
144287,7.81E-03,2.05E-02
144288,7.78E-03,2.04E-02
144289,7.94E-03,2.04E-02
144290,7.82E-03,2.05E-02
144291,7.66E-03,2.05E-02
144292,7.60E-03,2.06E-02
144293,7.50E-03,2.07E-02
144294,7.41E-03,2.08E-02
144295,7.32E-03,2.10E-02
144296,7.19E-03,2.11E-02
144297,7.18E-03,2.11E-02
144298,7.31E-03,2.12E-02
144299,7.47E-03,2.12E-02
144300,7.60E-03,2.12E-02
144301,7.65E-03,2.12E-02
144302,7.64E-03,2.11E-02
144303,7.63E-03,2.11E-02
144304,7.58E-03,2.11E-02
144305,7.54E-03,2.12E-02
144306,7.39E-03,2.12E-02
144307,7.41E-03,2.13E-02
144308,7.47E-03,2.14E-02
144309,7.68E-03,2.14E-02
144310,7.86E-03,2.14E-02
144311,8.00E-03,2.14E-02
144312,7.88E-03,2.13E-02
144313,7.71E-03,2.13E-02
144314,7.74E-03,2.12E-02
144315,7.82E-03,2.11E-02
144316,7.85E-03,2.09E-02
144317,7.93E-03,2.08E-02
144318,7.99E-03,2.07E-02
144319,8.01E-03,2.06E-02
144320,8.08E-03,2.05E-02
144321,8.13E-03,2.04E-02
144322,8.06E-03,2.03E-02
144323,7.98E-03,2.03E-02
144324,7.86E-03,2.02E-02
144325,7.76E-03,2.02E-02
144326,7.67E-03,2.01E-02
144327,7.65E-03,2.01E-02
144328,7.60E-03,2.00E-02
144329,7.64E-03,2.00E-02
144330,7.57E-03,1.99E-02
144331,7.65E-03,1.99E-02
144332,7.65E-03,1.99E-02
144333,7.64E-03,1.99E-02
144334,7.68E-03,1.99E-02
144335,7.74E-03,1.99E-02
144336,7.68E-03,1.99E-02
144337,7.66E-03,1.99E-02
144338,7.63E-03,2.00E-02
144339,7.63E-03,2.00E-02
144340,7.63E-03,2.01E-02
144341,7.70E-03,2.02E-02
144342,7.81E-03,2.02E-02
144343,7.92E-03,2.04E-02
144344,8.04E-03,2.05E-02
144345,8.02E-03,2.06E-02
144346,8.06E-03,2.07E-02
144347,8.05E-03,2.08E-02
144348,8.13E-03,2.09E-02
144349,8.28E-03,2.10E-02
144350,8.43E-03,2.10E-02
144351,8.32E-03,2.11E-02
144352,8.07E-03,2.11E-02
144353,7.93E-03,2.11E-02
144354,7.73E-03,2.10E-02
144355,7.65E-03,2.09E-02
144356,7.54E-03,2.07E-02
144357,7.39E-03,2.06E-02
144358,7.15E-03,2.04E-02
144359,7.33E-03,2.02E-02
144360,8.48E-03,1.99E-02
144361,8.68E-03,1.97E-02
144362,6.17E-03,1.93E-02
144363,3.93E-03,1.92E-02
144364,4.34E-03,1.90E-02
144365,1.02E-02,2.20E-02
144366,8.50E-03,2.27E-02
144367,7.91E-03,2.33E-02
144368,7.70E-03,2.41E-02
144369,7.70E-03,2.48E-02
144370,7.71E-03,2.55E-02
144371,7.80E-03,2.60E-02
144372,7.85E-03,2.63E-02
144373,7.81E-03,2.58E-02
144374,7.76E-03,2.49E-02
144375,7.70E-03,2.43E-02
144376,7.78E-03,2.38E-02
144377,7.95E-03,2.35E-02
144378,8.11E-03,2.32E-02
144379,8.13E-03,2.29E-02
144380,8.19E-03,2.27E-02
144381,8.17E-03,2.24E-02
144382,8.10E-03,2.22E-02
144383,7.92E-03,2.20E-02
144384,7.75E-03,2.18E-02
144385,7.67E-03,2.15E-02
144386,7.67E-03,2.13E-02
144387,7.75E-03,2.11E-02
144388,7.84E-03,2.08E-02
144389,7.88E-03,2.05E-02
144390,7.93E-03,2.02E-02
144391,7.91E-03,2.00E-02
144392,7.90E-03,1.99E-02
144393,7.89E-03,2.00E-02
144394,7.89E-03,2.02E-02
144395,7.90E-03,2.05E-02
144396,7.96E-03,2.08E-02
144397,7.99E-03,2.12E-02
144398,8.05E-03,2.16E-02
144399,8.06E-03,2.22E-02
144400,8.02E-03,2.28E-02
144401,7.97E-03,2.36E-02
144402,7.98E-03,2.42E-02
144403,8.04E-03,2.48E-02
144404,8.05E-03,2.50E-02
144405,8.13E-03,2.48E-02
144406,8.07E-03,2.42E-02
144407,8.01E-03,2.38E-02
144408,8.04E-03,2.38E-02
144409,7.95E-03,2.41E-02
144410,7.89E-03,2.46E-02
144411,7.90E-03,2.52E-02
144412,7.96E-03,2.58E-02
144413,8.07E-03,2.63E-02
144414,8.07E-03,2.66E-02
144415,8.00E-03,2.67E-02
144416,8.07E-03,2.68E-02
144417,8.09E-03,2.70E-02
144418,8.00E-03,2.74E-02
144419,7.93E-03,2.82E-02
144420,7.81E-03,2.89E-02
144421,7.74E-03,2.83E-02
144422,7.67E-03,2.46E-02
144423,8.05E-03,2.12E-02
144424,7.97E-03,2.07E-02
144425,7.81E-03,2.14E-02
144426,7.75E-03,2.24E-02
144427,7.78E-03,2.33E-02
144428,7.87E-03,2.42E-02
144429,7.93E-03,2.51E-02
144430,7.86E-03,2.59E-02
144431,7.82E-03,2.66E-02
144432,7.79E-03,2.65E-02
144433,7.85E-03,2.58E-02
144434,7.84E-03,2.52E-02
144435,7.84E-03,2.48E-02
144436,7.78E-03,2.43E-02
144437,7.78E-03,2.40E-02
144438,7.92E-03,2.38E-02
144439,8.01E-03,2.36E-02
144440,8.21E-03,2.35E-02
144441,8.17E-03,2.36E-02
144442,7.92E-03,2.34E-02
144443,7.59E-03,2.16E-02
144444,7.96E-03,1.86E-02
144445,7.71E-03,1.74E-02
144446,7.69E-03,1.82E-02
144447,7.46E-03,1.96E-02
144448,7.36E-03,2.08E-02
144449,7.45E-03,2.13E-02
144450,7.62E-03,2.10E-02
144451,7.90E-03,2.08E-02
144452,8.16E-03,2.12E-02
144453,8.26E-03,2.22E-02
144454,8.05E-03,2.35E-02
144455,8.10E-03,2.42E-02
144456,7.88E-03,2.27E-02
144457,8.02E-03,1.98E-02
144458,8.27E-03,1.86E-02
144459,8.05E-03,1.94E-02
144460,7.98E-03,2.08E-02
144461,8.06E-03,2.17E-02
144462,8.19E-03,2.21E-02
144463,8.09E-03,2.17E-02
144464,8.06E-03,2.10E-02
144465,8.01E-03,2.03E-02
144466,8.00E-03,1.96E-02
144467,7.97E-03,1.93E-02
144468,7.99E-03,1.95E-02
144469,8.01E-03,2.01E-02
144470,8.01E-03,2.08E-02
144471,8.01E-03,2.14E-02
144472,8.07E-03,2.20E-02
144473,8.06E-03,2.26E-02
144474,8.04E-03,2.33E-02
144475,8.24E-03,2.42E-02
144476,8.35E-03,2.55E-02
144477,8.52E-03,2.75E-02
144478,8.77E-03,3.02E-02
144479,8.65E-03,3.36E-02
144480,8.37E-03,3.70E-02
144481,8.42E-03,3.87E-02
144482,8.38E-03,3.59E-02
144483,8.24E-03,3.15E-02
144484,8.20E-03,2.85E-02
144485,8.04E-03,2.63E-02
144486,7.96E-03,2.45E-02
144487,7.90E-03,2.28E-02
144488,7.96E-03,2.12E-02
144489,8.14E-03,1.97E-02
144490,8.29E-03,1.96E-02
144491,8.06E-03,2.16E-02
144492,7.84E-03,2.44E-02
144493,7.97E-03,2.63E-02
144494,8.09E-03,2.58E-02
144495,8.28E-03,2.46E-02
144496,8.35E-03,2.39E-02
144497,8.42E-03,2.36E-02
144498,8.36E-03,2.39E-02
144499,8.16E-03,2.48E-02
144500,8.14E-03,2.48E-02
144501,8.30E-03,2.34E-02
144502,8.46E-03,2.07E-02
144503,8.32E-03,1.72E-02
144504,8.26E-03,1.42E-02
144505,8.27E-03,1.18E-02
144506,8.22E-03,9.86E-03
144507,8.14E-03,8.33E-03
144508,8.12E-03,7.06E-03
144509,8.09E-03,5.99E-03
144510,8.08E-03,5.10E-03
144511,8.08E-03,4.35E-03
144512,8.08E-03,3.71E-03
144513,8.08E-03,3.16E-03
144514,8.08E-03,2.66E-03
144515,8.08E-03,2.22E-03
144516,8.08E-03,1.83E-03
144517,8.08E-03,1.48E-03
144518,8.08E-03,1.18E-03
144519,8.08E-03,9.37E-04
144520,8.08E-03,7.75E-04
144521,8.08E-03,7.26E-04
144522,8.08E-03,7.93E-04
144523,8.08E-03,9.40E-04
144524,8.08E-03,1.13E-03
144525,8.08E-03,1.34E-03
144526,8.08E-03,1.56E-03
144527,8.08E-03,1.78E-03
144528,8.08E-03,2.01E-03
144529,8.08E-03,2.24E-03
144530,8.08E-03,2.47E-03
144531,8.08E-03,2.71E-03
144532,8.08E-03,2.95E-03
144533,8.10E-03,3.20E-03
144534,8.12E-03,3.44E-03
144535,8.12E-03,3.67E-03
144536,8.11E-03,3.89E-03
144537,8.10E-03,4.10E-03
144538,8.10E-03,4.30E-03
144539,8.10E-03,4.49E-03
144540,8.10E-03,4.67E-03
144541,8.09E-03,4.85E-03
144542,8.09E-03,5.02E-03
144543,8.09E-03,5.18E-03
144544,8.09E-03,5.34E-03
144545,8.09E-03,5.50E-03
144546,8.10E-03,5.65E-03
144547,8.10E-03,5.78E-03
144548,8.08E-03,5.91E-03
144549,8.08E-03,6.03E-03
144550,8.08E-03,6.15E-03
144551,8.08E-03,6.27E-03
144552,8.08E-03,6.39E-03
144553,8.07E-03,6.51E-03
144554,8.07E-03,6.63E-03
144555,8.07E-03,6.76E-03
144556,8.07E-03,6.88E-03
144557,8.07E-03,7.00E-03
144558,8.07E-03,7.13E-03
144559,8.06E-03,7.26E-03
144560,8.06E-03,7.40E-03
144561,8.05E-03,7.56E-03
144562,8.04E-03,7.72E-03
144563,8.02E-03,7.93E-03
144564,8.05E-03,8.22E-03
144565,8.09E-03,8.55E-03
144566,8.11E-03,8.88E-03
144567,8.12E-03,9.17E-03
144568,8.11E-03,9.43E-03
144569,8.11E-03,9.67E-03
144570,8.10E-03,9.89E-03
144571,8.10E-03,1.01E-02
144572,8.10E-03,1.03E-02
144573,8.10E-03,1.05E-02
144574,8.10E-03,1.07E-02
144575,8.09E-03,1.09E-02
144576,8.09E-03,1.11E-02
144577,8.09E-03,1.14E-02
144578,8.11E-03,1.16E-02
144579,8.13E-03,1.19E-02
144580,8.13E-03,1.21E-02
144581,8.11E-03,1.22E-02
144582,8.11E-03,1.23E-02
144583,8.10E-03,1.24E-02
144584,8.10E-03,1.24E-02
144585,8.09E-03,1.25E-02
144586,8.09E-03,1.26E-02
144587,8.09E-03,1.27E-02
144588,8.09E-03,1.27E-02
144589,8.09E-03,1.28E-02
144590,8.09E-03,1.29E-02
144591,8.09E-03,1.30E-02
144592,8.09E-03,1.30E-02
144593,8.09E-03,1.31E-02
144594,8.09E-03,1.32E-02
144595,8.09E-03,1.33E-02
144596,8.09E-03,1.34E-02
144597,8.08E-03,1.35E-02
144598,8.08E-03,1.35E-02
144599,8.08E-03,1.36E-02
144600,8.08E-03,1.37E-02
144601,8.08E-03,1.38E-02
144602,8.08E-03,1.39E-02
144603,8.08E-03,1.39E-02
144604,8.08E-03,1.40E-02
144605,8.08E-03,1.41E-02
144606,8.08E-03,1.42E-02
144607,8.08E-03,1.43E-02
144608,8.08E-03,1.43E-02
144609,8.08E-03,1.44E-02
144610,8.08E-03,1.45E-02
144611,8.08E-03,1.46E-02
144612,8.08E-03,1.46E-02
144613,8.08E-03,1.47E-02
144614,8.08E-03,1.48E-02
144615,8.08E-03,1.49E-02
144616,8.08E-03,1.50E-02
144617,8.08E-03,1.50E-02
144618,8.08E-03,1.51E-02
144619,8.08E-03,1.52E-02
144620,8.08E-03,1.53E-02
144621,8.08E-03,1.53E-02
144622,8.08E-03,1.54E-02
144623,8.08E-03,1.55E-02
144624,8.08E-03,1.56E-02
144625,8.08E-03,1.56E-02
144626,8.08E-03,1.57E-02
144627,8.08E-03,1.58E-02
144628,8.08E-03,1.59E-02
144629,8.08E-03,1.59E-02
144630,8.08E-03,1.60E-02
144631,8.08E-03,1.61E-02
144632,8.08E-03,1.62E-02
144633,8.08E-03,1.62E-02
144634,8.08E-03,1.63E-02
144635,8.08E-03,1.64E-02
144636,8.08E-03,1.65E-02
144637,8.08E-03,1.65E-02
144638,8.08E-03,1.66E-02
144639,8.08E-03,1.67E-02
144640,8.08E-03,1.68E-02
144641,8.08E-03,1.68E-02
144642,8.08E-03,1.69E-02
144643,8.08E-03,1.70E-02
144644,8.08E-03,1.70E-02
144645,8.08E-03,1.71E-02
144646,8.08E-03,1.72E-02
144647,8.08E-03,1.73E-02
144648,8.08E-03,1.73E-02
144649,8.08E-03,1.74E-02
144650,8.08E-03,1.75E-02
144651,8.08E-03,1.76E-02
144652,8.08E-03,1.76E-02
144653,8.08E-03,1.77E-02
144654,8.08E-03,1.78E-02
144655,8.08E-03,1.79E-02
144656,8.08E-03,1.80E-02
144657,8.08E-03,1.80E-02
144658,8.08E-03,1.81E-02
144659,8.08E-03,1.82E-02
144660,8.08E-03,1.83E-02
144661,8.08E-03,1.83E-02
144662,8.08E-03,1.84E-02
144663,8.08E-03,1.85E-02
144664,8.08E-03,1.86E-02
144665,8.08E-03,1.87E-02
144666,8.08E-03,1.87E-02
144667,8.08E-03,1.88E-02
144668,8.08E-03,1.89E-02
144669,8.08E-03,1.90E-02
144670,8.08E-03,1.91E-02
144671,8.08E-03,1.92E-02
144672,8.08E-03,1.93E-02
144673,8.08E-03,1.93E-02
144674,8.08E-03,1.94E-02
144675,8.08E-03,1.95E-02
144676,8.09E-03,1.96E-02
144677,8.09E-03,1.97E-02
144678,8.09E-03,1.98E-02
144679,8.09E-03,1.99E-02
144680,8.09E-03,2.00E-02
144681,8.09E-03,2.01E-02
144682,8.09E-03,2.01E-02
144683,8.09E-03,2.02E-02
144684,8.09E-03,2.03E-02
144685,8.09E-03,2.04E-02
144686,8.10E-03,2.04E-02
144687,8.10E-03,2.05E-02
144688,8.11E-03,2.04E-02
144689,8.11E-03,2.03E-02
144690,8.08E-03,2.01E-02
144691,8.06E-03,1.99E-02
144692,8.06E-03,1.99E-02
144693,8.07E-03,1.98E-02
144694,8.07E-03,1.98E-02
144695,8.07E-03,1.99E-02
144696,8.07E-03,1.99E-02
144697,8.07E-03,1.99E-02
144698,8.07E-03,2.00E-02
144699,8.08E-03,2.01E-02
144700,8.08E-03,2.01E-02
144701,8.08E-03,2.02E-02
144702,8.08E-03,2.03E-02
144703,8.08E-03,2.04E-02
144704,8.08E-03,2.04E-02
144705,8.08E-03,2.05E-02
144706,8.08E-03,2.06E-02
144707,8.08E-03,2.07E-02
144708,8.08E-03,2.08E-02
144709,8.08E-03,2.09E-02
144710,8.08E-03,2.09E-02
144711,8.08E-03,2.10E-02
144712,8.08E-03,2.11E-02
144713,8.08E-03,2.12E-02
144714,8.08E-03,2.13E-02
144715,8.08E-03,2.14E-02
144716,8.08E-03,2.15E-02
144717,8.08E-03,2.16E-02
144718,8.08E-03,2.17E-02
144719,8.08E-03,2.18E-02
144720,8.08E-03,2.19E-02
144721,8.08E-03,2.20E-02
144722,8.08E-03,2.21E-02
144723,8.08E-03,2.23E-02
144724,8.08E-03,2.24E-02
144725,8.08E-03,2.25E-02
144726,8.08E-03,2.26E-02
144727,8.08E-03,2.28E-02
144728,8.08E-03,2.29E-02
144729,8.08E-03,2.30E-02
144730,8.08E-03,2.32E-02
144731,8.08E-03,2.33E-02
144732,8.08E-03,2.34E-02
144733,8.08E-03,2.36E-02
144734,8.08E-03,2.37E-02
144735,8.08E-03,2.39E-02
144736,8.08E-03,2.40E-02
144737,8.08E-03,2.42E-02
144738,8.08E-03,2.43E-02
144739,8.08E-03,2.45E-02
144740,8.09E-03,2.47E-02
144741,8.09E-03,2.48E-02
144742,8.09E-03,2.50E-02
144743,8.09E-03,2.52E-02
144744,8.09E-03,2.54E-02
144745,8.09E-03,2.56E-02
144746,8.09E-03,2.59E-02
144747,8.09E-03,2.61E-02
144748,8.09E-03,2.64E-02
144749,8.09E-03,2.67E-02
144750,8.10E-03,2.71E-02
144751,8.10E-03,2.75E-02
144752,8.20E-03,2.79E-02
144753,8.19E-03,2.84E-02
144754,8.21E-03,2.89E-02
144755,8.11E-03,2.95E-02
144756,8.02E-03,2.85E-02
144757,8.03E-03,2.58E-02
144758,8.13E-03,2.40E-02
144759,8.00E-03,2.35E-02
144760,7.95E-03,2.33E-02
144761,8.03E-03,2.33E-02
144762,8.04E-03,2.34E-02
144763,8.05E-03,2.36E-02
144764,8.06E-03,2.38E-02
144765,8.08E-03,2.41E-02
144766,8.09E-03,2.43E-02
144767,8.10E-03,2.45E-02
144768,8.10E-03,2.47E-02
144769,8.10E-03,2.47E-02
144770,8.10E-03,2.48E-02
144771,8.11E-03,2.47E-02
144772,8.11E-03,2.46E-02
144773,8.12E-03,2.44E-02
144774,8.14E-03,2.41E-02
144775,8.10E-03,2.35E-02
144776,7.99E-03,2.28E-02
144777,7.97E-03,2.23E-02
144778,8.01E-03,2.23E-02
144779,8.04E-03,2.24E-02
144780,8.05E-03,2.26E-02
144781,8.06E-03,2.28E-02
144782,8.06E-03,2.30E-02
144783,8.07E-03,2.32E-02
144784,8.07E-03,2.34E-02
144785,8.07E-03,2.36E-02
144786,8.07E-03,2.38E-02
144787,8.07E-03,2.40E-02
144788,8.07E-03,2.42E-02
144789,8.08E-03,2.43E-02
144790,8.08E-03,2.45E-02
144791,8.08E-03,2.47E-02
144792,8.08E-03,2.48E-02
144793,8.08E-03,2.50E-02
144794,8.08E-03,2.52E-02
144795,8.08E-03,2.53E-02
144796,8.08E-03,2.55E-02
144797,8.08E-03,2.57E-02
144798,8.08E-03,2.59E-02
144799,8.08E-03,2.60E-02
144800,8.08E-03,2.62E-02
144801,8.08E-03,2.64E-02
144802,8.08E-03,2.66E-02
144803,8.08E-03,2.68E-02
144804,8.08E-03,2.69E-02
144805,8.08E-03,2.71E-02
144806,8.08E-03,2.73E-02
144807,8.08E-03,2.74E-02
144808,8.08E-03,2.76E-02
144809,8.08E-03,2.77E-02
144810,8.08E-03,2.79E-02
144811,8.08E-03,2.81E-02
144812,8.08E-03,2.82E-02
144813,8.08E-03,2.84E-02
144814,8.08E-03,2.85E-02
144815,8.08E-03,2.87E-02
144816,8.08E-03,2.89E-02
144817,8.08E-03,2.90E-02
144818,8.08E-03,2.92E-02
144819,8.09E-03,2.94E-02
144820,8.09E-03,2.96E-02
144821,8.09E-03,2.97E-02
144822,8.09E-03,2.99E-02
144823,8.09E-03,3.01E-02
144824,8.09E-03,3.03E-02
144825,8.09E-03,3.05E-02
144826,8.09E-03,3.07E-02
144827,8.09E-03,3.09E-02
144828,8.09E-03,3.11E-02
144829,8.09E-03,3.13E-02
144830,8.09E-03,3.15E-02
144831,8.09E-03,3.17E-02
144832,8.09E-03,3.19E-02
144833,8.09E-03,3.22E-02
144834,8.09E-03,3.24E-02
144835,8.09E-03,3.26E-02
144836,8.09E-03,3.29E-02
144837,8.09E-03,3.31E-02
144838,8.10E-03,3.34E-02
144839,8.10E-03,3.37E-02
144840,8.10E-03,3.40E-02
144841,8.11E-03,3.44E-02
144842,8.11E-03,3.47E-02
144843,8.12E-03,3.50E-02
144844,8.14E-03,3.53E-02
144845,8.15E-03,3.55E-02
144846,8.15E-03,3.54E-02
144847,8.14E-03,3.52E-02
144848,8.13E-03,3.49E-02
144849,8.13E-03,3.45E-02
144850,8.13E-03,3.41E-02
144851,8.14E-03,3.35E-02
144852,8.13E-03,3.28E-02
144853,8.10E-03,3.19E-02
144854,8.09E-03,3.10E-02
144855,8.09E-03,3.02E-02
144856,8.08E-03,2.94E-02
144857,8.07E-03,2.86E-02
144858,8.06E-03,2.79E-02
144859,8.02E-03,2.71E-02
144860,8.01E-03,2.65E-02
144861,8.03E-03,2.62E-02
144862,8.04E-03,2.59E-02
144863,8.04E-03,2.56E-02
144864,8.03E-03,2.54E-02
144865,8.00E-03,2.52E-02
144866,8.00E-03,2.52E-02
144867,8.02E-03,2.54E-02
144868,8.04E-03,2.57E-02
144869,8.05E-03,2.60E-02
144870,8.06E-03,2.63E-02
144871,8.06E-03,2.67E-02
144872,8.07E-03,2.70E-02
144873,8.07E-03,2.73E-02
144874,8.07E-03,2.76E-02
144875,8.07E-03,2.79E-02
144876,8.07E-03,2.82E-02
144877,8.07E-03,2.86E-02
144878,8.08E-03,2.90E-02
144879,8.08E-03,2.94E-02
144880,8.08E-03,2.97E-02
144881,8.08E-03,3.00E-02
144882,8.08E-03,3.03E-02
144883,8.08E-03,3.06E-02
144884,8.09E-03,3.09E-02
144885,8.09E-03,3.12E-02
144886,8.09E-03,3.14E-02
144887,8.09E-03,3.17E-02
144888,8.09E-03,3.19E-02
144889,8.09E-03,3.22E-02
144890,8.09E-03,3.24E-02
144891,8.09E-03,3.27E-02
144892,8.09E-03,3.29E-02
144893,8.09E-03,3.31E-02
144894,8.09E-03,3.33E-02
144895,8.09E-03,3.35E-02
144896,8.09E-03,3.38E-02
144897,8.09E-03,3.40E-02
144898,8.09E-03,3.42E-02
144899,8.10E-03,3.44E-02
144900,8.10E-03,3.46E-02
144901,8.10E-03,3.47E-02
144902,8.10E-03,3.49E-02
144903,8.10E-03,3.51E-02
144904,8.10E-03,3.52E-02
144905,8.10E-03,3.53E-02
144906,8.11E-03,3.54E-02
144907,8.11E-03,3.55E-02
144908,8.12E-03,3.55E-02
144909,8.12E-03,3.54E-02
144910,8.13E-03,3.53E-02
144911,8.13E-03,3.50E-02
144912,8.12E-03,3.46E-02
144913,8.12E-03,3.41E-02
144914,8.13E-03,3.35E-02
144915,8.14E-03,3.28E-02
144916,8.14E-03,3.17E-02
144917,8.06E-03,3.04E-02
144918,8.00E-03,2.92E-02
144919,8.01E-03,2.84E-02
144920,8.02E-03,2.78E-02
144921,8.04E-03,2.73E-02
144922,8.04E-03,2.68E-02
144923,7.98E-03,2.63E-02
144924,7.98E-03,2.57E-02
144925,7.94E-03,2.56E-02
144926,7.94E-03,2.61E-02
144927,8.03E-03,2.67E-02
144928,8.05E-03,2.73E-02
144929,8.06E-03,2.79E-02
144930,8.06E-03,2.85E-02
144931,8.07E-03,2.90E-02
144932,8.07E-03,2.95E-02
144933,8.07E-03,3.00E-02
144934,8.07E-03,3.04E-02
144935,8.07E-03,3.08E-02
144936,8.08E-03,3.12E-02
144937,8.08E-03,3.16E-02
144938,8.08E-03,3.20E-02
144939,8.08E-03,3.23E-02
144940,8.08E-03,3.27E-02
144941,8.08E-03,3.30E-02
144942,8.08E-03,3.33E-02
144943,8.08E-03,3.36E-02
144944,8.08E-03,3.40E-02
144945,8.08E-03,3.43E-02
144946,8.08E-03,3.46E-02
144947,8.08E-03,3.49E-02
144948,8.08E-03,3.52E-02
144949,8.08E-03,3.54E-02
144950,8.08E-03,3.57E-02
144951,8.08E-03,3.60E-02
144952,8.08E-03,3.63E-02
144953,8.08E-03,3.66E-02
144954,8.08E-03,3.68E-02
144955,8.08E-03,3.71E-02
144956,8.08E-03,3.74E-02
144957,8.08E-03,3.77E-02
144958,8.08E-03,3.79E-02
144959,8.08E-03,3.82E-02
144960,8.08E-03,3.85E-02
144961,8.08E-03,3.87E-02
144962,8.08E-03,3.90E-02
144963,8.08E-03,3.93E-02
144964,8.08E-03,3.95E-02
144965,8.08E-03,3.98E-02
144966,8.08E-03,4.01E-02
144967,8.08E-03,4.04E-02
144968,8.08E-03,4.06E-02
144969,8.08E-03,4.09E-02
144970,8.08E-03,4.12E-02
144971,8.08E-03,4.15E-02
144972,8.08E-03,4.18E-02
144973,8.08E-03,4.20E-02
144974,8.08E-03,4.23E-02
144975,8.08E-03,4.26E-02
144976,8.08E-03,4.29E-02
144977,8.08E-03,4.32E-02
144978,8.08E-03,4.35E-02
144979,8.08E-03,4.37E-02
144980,8.08E-03,4.40E-02
144981,8.08E-03,4.43E-02
144982,8.08E-03,4.46E-02
144983,8.08E-03,4.49E-02
144984,8.08E-03,4.52E-02
144985,8.08E-03,4.55E-02
144986,8.08E-03,4.57E-02
144987,8.08E-03,4.60E-02
144988,8.08E-03,4.63E-02
144989,8.08E-03,4.66E-02
144990,7.96E-03,4.69E-02
144991,6.30E-03,4.69E-02
144992,7.67E-03,4.70E-02
144993,8.49E-03,4.71E-02
144994,8.22E-03,4.71E-02
144995,7.98E-03,4.74E-02
144996,7.94E-03,4.75E-02
144997,7.94E-03,4.75E-02
144998,7.94E-03,4.75E-02
144999,7.94E-03,4.76E-02
145000,7.94E-03,4.77E-02
145001,7.94E-03,4.78E-02
145002,7.94E-03,4.79E-02
145003,7.94E-03,4.79E-02
145004,7.94E-03,4.80E-02
145005,7.94E-03,4.82E-02
145006,7.94E-03,4.83E-02
145007,7.94E-03,4.85E-02
145008,7.94E-03,4.87E-02
145009,7.94E-03,4.90E-02
145010,7.94E-03,4.93E-02
145011,7.94E-03,4.97E-02
145012,7.94E-03,5.02E-02
145013,7.94E-03,5.09E-02
145014,7.94E-03,5.17E-02
145015,7.94E-03,5.27E-02
145016,7.94E-03,5.38E-02
145017,7.94E-03,5.50E-02
145018,7.94E-03,5.64E-02
145019,7.94E-03,5.79E-02
145020,7.94E-03,5.98E-02
145021,7.94E-03,6.19E-02
145022,7.94E-03,6.44E-02
145023,7.94E-03,6.73E-02
145024,7.94E-03,7.06E-02
145025,7.94E-03,7.45E-02
145026,7.94E-03,7.91E-02
145027,7.94E-03,8.44E-02
145028,7.94E-03,9.07E-02
145029,7.94E-03,9.82E-02
145030,7.94E-03,0.10708
145031,7.94E-03,0.11784
145032,7.87E-03,0.13106
145033,7.72E-03,0.14774
145034,7.54E-03,0.1677
145035,7.41E-03,0.19384
145036,7.44E-03,0.23167
145037,8.91E-03,0.26742
145038,9.11E-03,0.62357
145039,8.95E-03,0.2376
145040,7.57E-03,0.15332
145041,7.56E-03,0.10337
145042,7.61E-03,6.96E-02
145043,7.58E-03,4.98E-02
145044,7.48E-03,3.71E-02
145045,7.43E-03,2.85E-02
145046,7.70E-03,2.36E-02
145047,8.06E-03,2.33E-02
145048,7.64E-03,2.56E-02
145049,7.71E-03,2.79E-02
145050,7.78E-03,2.98E-02
145051,7.87E-03,3.12E-02
145052,7.97E-03,3.20E-02
145053,8.04E-03,3.23E-02
145054,8.10E-03,3.20E-02
145055,8.10E-03,3.14E-02
145056,8.10E-03,3.05E-02
145057,8.10E-03,2.94E-02
145058,8.03E-03,2.81E-02
145059,8.00E-03,2.67E-02
145060,7.92E-03,2.51E-02
145061,7.84E-03,2.34E-02
145062,7.88E-03,2.14E-02
145063,8.06E-03,1.95E-02
145064,8.16E-03,1.86E-02
145065,7.92E-03,1.96E-02
145066,7.83E-03,2.13E-02
145067,7.86E-03,2.16E-02
145068,7.95E-03,1.97E-02
145069,8.17E-03,1.83E-02
145070,8.08E-03,1.85E-02
145071,7.96E-03,1.94E-02
145072,8.00E-03,2.02E-02
145073,8.11E-03,2.08E-02
145074,8.14E-03,2.13E-02
145075,8.23E-03,2.19E-02
145076,8.14E-03,2.25E-02
145077,8.04E-03,2.28E-02
145078,7.97E-03,2.10E-02
145079,8.29E-03,1.87E-02
145080,8.23E-03,1.83E-02
145081,8.06E-03,1.90E-02
145082,8.12E-03,1.91E-02
145083,8.01E-03,1.74E-02
145084,8.31E-03,1.59E-02
145085,8.17E-03,1.61E-02
145086,8.04E-03,1.70E-02
145087,8.15E-03,1.69E-02
145088,7.94E-03,1.52E-02
145089,8.18E-03,1.31E-02
145090,8.34E-03,1.17E-02
145091,8.26E-03,1.16E-02
145092,7.94E-03,1.24E-02
145093,8.00E-03,1.32E-02
145094,8.11E-03,1.27E-02
145095,8.22E-03,1.15E-02
145096,8.29E-03,1.02E-02
145097,8.23E-03,9.20E-03
145098,8.05E-03,8.32E-03
145099,7.99E-03,7.52E-03
145100,8.00E-03,6.77E-03
145101,8.02E-03,6.10E-03
145102,8.11E-03,5.71E-03
145103,8.09E-03,5.70E-03
145104,7.85E-03,6.13E-03
145105,7.87E-03,6.61E-03
145106,7.99E-03,6.42E-03
145107,8.19E-03,5.79E-03
145108,8.29E-03,5.19E-03
145109,8.23E-03,4.68E-03
145110,8.16E-03,4.22E-03
145111,8.10E-03,3.81E-03
145112,8.10E-03,3.44E-03
145113,8.10E-03,3.09E-03
145114,8.10E-03,2.78E-03
145115,8.02E-03,2.48E-03
145116,7.99E-03,2.19E-03
145117,7.93E-03,1.92E-03
145118,7.88E-03,1.65E-03
145119,7.92E-03,1.41E-03
145120,7.87E-03,1.30E-03
145121,7.88E-03,1.32E-03
145122,7.81E-03,1.41E-03
145123,7.77E-03,1.49E-03
145124,7.75E-03,1.56E-03
145125,7.73E-03,1.57E-03
145126,7.88E-03,1.45E-03
145127,8.07E-03,1.27E-03
145128,8.20E-03,1.24E-03
145129,8.36E-03,1.34E-03
145130,8.30E-03,1.48E-03
145131,8.20E-03,1.59E-03
145132,8.17E-03,1.51E-03
145133,8.12E-03,1.31E-03
145134,8.11E-03,1.16E-03
145135,7.82E-03,1.14E-03
145136,7.90E-03,1.16E-03
145137,8.07E-03,1.22E-03
145138,8.16E-03,1.30E-03
145139,8.24E-03,1.39E-03
145140,8.46E-03,1.39E-03
145141,7.91E-03,1.24E-03
145142,8.15E-03,1.07E-03
145143,8.14E-03,1.03E-03
145144,7.94E-03,1.06E-03
145145,7.84E-03,1.11E-03
145146,7.84E-03,1.12E-03
145147,7.97E-03,1.08E-03
145148,8.04E-03,1.03E-03
145149,8.05E-03,1.03E-03
145150,7.92E-03,1.09E-03
145151,7.96E-03,1.18E-03
145152,8.03E-03,1.31E-03
145153,8.03E-03,1.45E-03
145154,8.27E-03,1.56E-03
145155,8.23E-03,1.65E-03
145156,8.23E-03,1.69E-03
145157,8.07E-03,1.63E-03
145158,8.17E-03,1.51E-03
145159,8.18E-03,1.45E-03
145160,8.08E-03,1.44E-03
145161,8.09E-03,1.46E-03
145162,8.10E-03,1.46E-03
145163,8.10E-03,1.47E-03
145164,8.10E-03,1.47E-03
145165,8.10E-03,1.47E-03
145166,8.10E-03,1.47E-03
145167,8.10E-03,1.47E-03
145168,8.10E-03,1.46E-03
145169,8.10E-03,1.46E-03
145170,8.10E-03,1.46E-03
145171,8.10E-03,1.45E-03
145172,8.11E-03,1.45E-03
145173,8.17E-03,1.45E-03
145174,8.24E-03,1.44E-03
145175,8.29E-03,1.38E-03
145176,8.18E-03,1.29E-03
145177,8.18E-03,1.17E-03
145178,8.11E-03,1.06E-03
145179,8.17E-03,9.54E-04
145180,8.26E-03,8.55E-04
145181,8.26E-03,7.65E-04
145182,8.14E-03,6.77E-04
145183,8.03E-03,5.71E-04
145184,7.95E-03,4.48E-04
145185,8.24E-03,3.30E-04
145186,8.19E-03,2.44E-04
145187,7.96E-03,1.95E-04
145188,7.91E-03,1.82E-04
145189,7.93E-03,1.98E-04
145190,8.01E-03,2.36E-04
145191,8.10E-03,2.88E-04
145192,8.10E-03,3.49E-04
145193,8.15E-03,4.15E-04
145194,8.14E-03,4.87E-04
145195,8.00E-03,5.76E-04
145196,7.85E-03,6.79E-04
145197,7.95E-03,7.55E-04
145198,8.11E-03,7.48E-04
145199,8.40E-03,7.48E-04
145200,8.18E-03,8.10E-04
145201,8.04E-03,8.86E-04
145202,7.81E-03,8.72E-04
145203,8.15E-03,8.12E-04
145204,8.19E-03,8.21E-04
145205,7.98E-03,8.98E-04
145206,7.83E-03,9.92E-04
145207,7.85E-03,1.07E-03
145208,7.96E-03,1.11E-03
145209,8.10E-03,1.10E-03
145210,7.93E-03,1.09E-03
145211,7.95E-03,1.11E-03
145212,8.02E-03,1.16E-03
145213,8.09E-03,1.21E-03
145214,8.10E-03,1.26E-03
145215,8.11E-03,1.30E-03
145216,8.14E-03,1.35E-03
145217,8.18E-03,1.40E-03
145218,8.23E-03,1.44E-03
145219,8.29E-03,1.46E-03
145220,8.16E-03,1.44E-03
145221,8.12E-03,1.40E-03
145222,8.01E-03,1.36E-03
145223,7.96E-03,1.31E-03
145224,7.85E-03,1.30E-03
145225,7.89E-03,1.33E-03
145226,8.07E-03,1.40E-03
145227,8.12E-03,1.48E-03
145228,8.12E-03,1.56E-03
145229,8.20E-03,1.63E-03
145230,8.15E-03,1.65E-03
145231,8.10E-03,1.60E-03
145232,8.21E-03,1.53E-03
145233,8.15E-03,1.51E-03
145234,8.05E-03,1.53E-03
145235,8.09E-03,1.56E-03
145236,8.24E-03,1.58E-03
145237,8.26E-03,1.57E-03
145238,8.08E-03,1.49E-03
145239,7.99E-03,1.42E-03
145240,7.93E-03,1.37E-03
145241,7.96E-03,1.36E-03
145242,7.97E-03,1.35E-03
145243,7.99E-03,1.36E-03
145244,8.01E-03,1.37E-03
145245,8.03E-03,1.38E-03
145246,8.05E-03,1.39E-03
145247,8.06E-03,1.41E-03
145248,8.07E-03,1.42E-03
145249,8.08E-03,1.42E-03
145250,8.08E-03,1.42E-03
145251,8.08E-03,1.42E-03
145252,8.08E-03,1.41E-03
145253,8.08E-03,1.40E-03
145254,8.08E-03,1.38E-03
145255,8.07E-03,1.37E-03
145256,8.07E-03,1.35E-03
145257,8.07E-03,1.34E-03
145258,8.08E-03,1.32E-03
145259,8.08E-03,1.30E-03
145260,8.08E-03,1.29E-03
145261,8.08E-03,1.26E-03
145262,8.08E-03,1.24E-03
145263,8.08E-03,1.22E-03
145264,8.08E-03,1.19E-03
145265,8.08E-03,1.16E-03
145266,8.08E-03,1.13E-03
145267,8.08E-03,1.10E-03
145268,8.08E-03,1.07E-03
145269,8.09E-03,1.04E-03
145270,8.09E-03,1.01E-03
145271,8.09E-03,9.69E-04
145272,8.09E-03,9.31E-04
145273,8.09E-03,8.91E-04
145274,8.09E-03,8.49E-04
145275,8.09E-03,8.05E-04
145276,8.09E-03,7.60E-04
145277,8.09E-03,7.14E-04
145278,8.09E-03,6.65E-04
145279,8.10E-03,6.16E-04
145280,8.10E-03,5.65E-04
145281,8.10E-03,5.12E-04
145282,8.10E-03,4.58E-04
145283,8.10E-03,4.03E-04
145284,8.10E-03,3.48E-04
145285,8.11E-03,2.94E-04
145286,8.11E-03,2.43E-04
145287,8.11E-03,1.99E-04
145288,8.12E-03,1.68E-04
145289,8.12E-03,1.62E-04
145290,8.12E-03,1.83E-04
145291,8.12E-03,2.25E-04
145292,8.12E-03,2.79E-04
145293,8.13E-03,3.39E-04
145294,8.14E-03,4.02E-04
145295,8.15E-03,4.64E-04
145296,8.15E-03,5.24E-04
145297,8.14E-03,5.82E-04
145298,8.13E-03,6.37E-04
145299,8.12E-03,6.90E-04
145300,8.12E-03,7.41E-04
145301,8.13E-03,7.90E-04
145302,8.14E-03,8.36E-04
145303,8.14E-03,8.78E-04
145304,8.12E-03,9.14E-04
145305,8.10E-03,9.46E-04
145306,8.10E-03,9.78E-04
145307,8.10E-03,1.01E-03
145308,8.10E-03,1.04E-03
145309,8.10E-03,1.08E-03
145310,8.11E-03,1.11E-03
145311,8.12E-03,1.14E-03
145312,8.12E-03,1.18E-03
145313,8.13E-03,1.20E-03
145314,8.13E-03,1.23E-03
145315,8.14E-03,1.24E-03
145316,8.13E-03,1.25E-03
145317,8.09E-03,1.25E-03
145318,8.07E-03,1.25E-03
145319,8.07E-03,1.25E-03
145320,8.07E-03,1.26E-03
145321,8.07E-03,1.27E-03
145322,8.06E-03,1.29E-03
145323,8.05E-03,1.31E-03
145324,8.05E-03,1.33E-03
145325,8.06E-03,1.37E-03
145326,8.06E-03,1.41E-03
145327,8.07E-03,1.46E-03
145328,8.07E-03,1.51E-03
145329,8.08E-03,1.57E-03
145330,8.08E-03,1.63E-03
145331,8.10E-03,1.70E-03
145332,8.12E-03,1.78E-03
145333,8.13E-03,1.85E-03
145334,8.14E-03,1.91E-03
145335,8.15E-03,1.97E-03
145336,8.16E-03,2.02E-03
145337,8.18E-03,2.05E-03
145338,8.20E-03,2.06E-03
145339,8.14E-03,2.04E-03
145340,8.06E-03,1.99E-03
145341,8.04E-03,1.97E-03
145342,8.05E-03,1.96E-03
145343,8.06E-03,1.96E-03
145344,8.06E-03,1.97E-03
145345,8.06E-03,1.98E-03
145346,8.04E-03,2.00E-03
145347,8.03E-03,2.04E-03
145348,8.05E-03,2.09E-03
145349,8.06E-03,2.15E-03
145350,8.07E-03,2.22E-03
145351,8.08E-03,2.29E-03
145352,8.08E-03,2.37E-03
145353,8.08E-03,2.45E-03
145354,8.09E-03,2.53E-03
145355,8.09E-03,2.62E-03
145356,8.09E-03,2.72E-03
145357,8.09E-03,2.82E-03
145358,8.09E-03,2.92E-03
145359,8.10E-03,3.04E-03
145360,8.11E-03,3.16E-03
145361,8.12E-03,3.28E-03
145362,8.12E-03,3.41E-03
145363,8.12E-03,3.53E-03
145364,8.13E-03,3.66E-03
145365,8.13E-03,3.80E-03
145366,8.14E-03,3.93E-03
145367,8.15E-03,4.07E-03
145368,8.18E-03,4.21E-03
145369,8.23E-03,4.32E-03
145370,8.28E-03,4.38E-03
145371,8.23E-03,4.33E-03
145372,8.16E-03,4.22E-03
145373,8.18E-03,4.09E-03
145374,8.08E-03,3.93E-03
145375,8.08E-03,3.73E-03
145376,7.93E-03,3.59E-03
145377,7.95E-03,3.55E-03
145378,8.00E-03,3.58E-03
145379,8.03E-03,3.66E-03
145380,8.06E-03,3.76E-03
145381,8.07E-03,3.89E-03
145382,8.10E-03,4.03E-03
145383,8.14E-03,4.17E-03
145384,8.16E-03,4.30E-03
145385,8.17E-03,4.41E-03
145386,8.21E-03,4.47E-03
145387,8.27E-03,4.47E-03
145388,8.11E-03,4.35E-03
145389,8.11E-03,4.15E-03
145390,7.96E-03,4.03E-03
145391,8.00E-03,4.01E-03
145392,8.03E-03,4.05E-03
145393,8.06E-03,4.13E-03
145394,8.08E-03,4.22E-03
145395,8.11E-03,4.33E-03
145396,8.13E-03,4.43E-03
145397,8.14E-03,4.51E-03
145398,8.16E-03,4.57E-03
145399,8.16E-03,4.58E-03
145400,8.14E-03,4.55E-03
145401,8.10E-03,4.50E-03
145402,8.05E-03,4.44E-03
145403,8.04E-03,4.42E-03
145404,8.05E-03,4.43E-03
145405,8.06E-03,4.48E-03
145406,8.08E-03,4.56E-03
145407,8.09E-03,4.65E-03
145408,8.11E-03,4.75E-03
145409,8.13E-03,4.84E-03
145410,8.14E-03,4.92E-03
145411,8.15E-03,4.98E-03
145412,8.16E-03,5.00E-03
145413,8.15E-03,4.98E-03
145414,8.12E-03,4.92E-03
145415,8.08E-03,4.84E-03
145416,8.06E-03,4.79E-03
145417,8.07E-03,4.76E-03
145418,8.07E-03,4.76E-03
145419,8.08E-03,4.76E-03
145420,8.08E-03,4.77E-03
145421,8.09E-03,4.79E-03
145422,8.10E-03,4.81E-03
145423,8.10E-03,4.81E-03
145424,8.10E-03,4.81E-03
145425,8.10E-03,4.79E-03
145426,8.09E-03,4.77E-03
145427,8.04E-03,4.72E-03
145428,8.01E-03,4.71E-03
145429,8.04E-03,4.76E-03
145430,8.05E-03,4.84E-03
145431,8.06E-03,4.94E-03
145432,8.07E-03,5.05E-03
145433,8.08E-03,5.17E-03
145434,8.07E-03,5.29E-03
145435,8.07E-03,5.44E-03
145436,8.10E-03,5.62E-03
145437,8.11E-03,5.81E-03
145438,8.11E-03,6.00E-03
145439,8.12E-03,6.20E-03
145440,8.13E-03,6.40E-03
145441,8.14E-03,6.61E-03
145442,8.20E-03,6.82E-03
145443,8.23E-03,7.05E-03
145444,8.21E-03,7.27E-03
145445,8.20E-03,7.46E-03
145446,8.22E-03,7.45E-03
145447,8.24E-03,7.17E-03
145448,8.23E-03,6.76E-03
145449,8.13E-03,6.26E-03
145450,8.08E-03,5.67E-03
145451,7.86E-03,5.26E-03
145452,7.91E-03,5.12E-03
145453,7.93E-03,5.13E-03
145454,8.15E-03,5.22E-03
145455,8.15E-03,5.29E-03
145456,8.14E-03,5.25E-03
145457,8.13E-03,5.02E-03
145458,8.03E-03,4.57E-03
145459,8.04E-03,4.20E-03
145460,7.91E-03,4.11E-03
145461,7.94E-03,4.14E-03
145462,7.98E-03,4.21E-03
145463,7.97E-03,4.32E-03
145464,7.99E-03,4.43E-03
145465,8.00E-03,4.48E-03
145466,7.90E-03,4.44E-03
145467,7.87E-03,4.28E-03
145468,7.87E-03,3.89E-03
145469,7.95E-03,3.48E-03
145470,7.86E-03,3.44E-03
145471,7.84E-03,3.63E-03
145472,7.84E-03,3.83E-03
145473,7.93E-03,4.01E-03
145474,8.01E-03,4.17E-03
145475,8.08E-03,4.33E-03
145476,8.08E-03,4.48E-03
145477,8.09E-03,4.62E-03
145478,8.09E-03,4.76E-03
145479,8.09E-03,4.89E-03
145480,8.09E-03,5.01E-03
145481,8.09E-03,5.13E-03
145482,8.09E-03,5.24E-03
145483,8.09E-03,5.35E-03
145484,8.10E-03,5.45E-03
145485,8.10E-03,5.55E-03
145486,8.10E-03,5.65E-03
145487,8.10E-03,5.75E-03
145488,8.10E-03,5.84E-03
145489,8.10E-03,5.93E-03
145490,8.10E-03,6.01E-03
145491,8.10E-03,6.10E-03
145492,8.10E-03,6.18E-03
145493,8.10E-03,6.26E-03
145494,8.10E-03,6.33E-03
145495,8.10E-03,6.41E-03
145496,8.10E-03,6.48E-03
145497,8.10E-03,6.54E-03
145498,8.10E-03,6.61E-03
145499,8.10E-03,6.67E-03
145500,8.10E-03,6.73E-03
145501,8.10E-03,6.78E-03
145502,8.10E-03,6.83E-03
145503,8.10E-03,6.88E-03
145504,8.10E-03,6.91E-03
145505,8.10E-03,6.95E-03
145506,8.10E-03,6.98E-03
145507,8.09E-03,7.00E-03
145508,8.09E-03,7.02E-03
145509,8.09E-03,7.03E-03
145510,8.09E-03,7.04E-03
145511,8.09E-03,7.04E-03
145512,8.09E-03,7.02E-03
145513,8.09E-03,7.00E-03
145514,8.09E-03,6.97E-03
145515,8.08E-03,6.92E-03
145516,8.08E-03,6.85E-03
145517,8.08E-03,6.77E-03
145518,8.07E-03,6.67E-03
145519,7.99E-03,6.54E-03
145520,7.94E-03,6.40E-03
145521,7.94E-03,6.29E-03
145522,7.98E-03,6.44E-03
145523,7.92E-03,6.83E-03
145524,7.96E-03,7.28E-03
145525,8.02E-03,7.77E-03
145526,8.07E-03,8.36E-03
145527,8.13E-03,9.03E-03
145528,8.22E-03,9.64E-03
145529,8.19E-03,1.01E-02
145530,8.17E-03,1.04E-02
145531,8.16E-03,1.07E-02
145532,8.15E-03,1.09E-02
145533,8.14E-03,1.11E-02
145534,8.13E-03,1.13E-02
145535,8.13E-03,1.15E-02
145536,8.13E-03,1.16E-02
145537,8.12E-03,1.17E-02
145538,8.12E-03,1.18E-02
145539,8.11E-03,1.19E-02
145540,8.11E-03,1.20E-02
145541,8.11E-03,1.21E-02
145542,8.11E-03,1.22E-02
145543,8.11E-03,1.23E-02
145544,8.11E-03,1.24E-02
145545,8.11E-03,1.25E-02
145546,8.11E-03,1.25E-02
145547,8.11E-03,1.26E-02
145548,8.10E-03,1.26E-02
145549,8.10E-03,1.27E-02
145550,8.10E-03,1.27E-02
145551,8.10E-03,1.27E-02
145552,8.10E-03,1.28E-02
145553,8.09E-03,1.28E-02
145554,8.09E-03,1.28E-02
145555,8.09E-03,1.28E-02
145556,8.09E-03,1.28E-02
145557,8.09E-03,1.28E-02
145558,8.09E-03,1.28E-02
145559,8.08E-03,1.28E-02
145560,8.07E-03,1.27E-02
145561,8.05E-03,1.26E-02
145562,8.04E-03,1.26E-02
145563,8.01E-03,1.26E-02
145564,7.97E-03,1.27E-02
145565,7.91E-03,1.30E-02
145566,8.06E-03,1.38E-02
145567,8.06E-03,1.47E-02
145568,8.17E-03,1.56E-02
145569,8.17E-03,1.63E-02
145570,8.17E-03,1.69E-02
145571,8.18E-03,1.75E-02
145572,8.18E-03,1.78E-02
145573,8.17E-03,1.81E-02
145574,8.15E-03,1.82E-02
145575,8.14E-03,1.82E-02
145576,8.14E-03,1.82E-02
145577,8.13E-03,1.82E-02
145578,8.12E-03,1.81E-02
145579,8.11E-03,1.80E-02
145580,8.11E-03,1.79E-02
145581,8.11E-03,1.78E-02
145582,8.11E-03,1.77E-02
145583,8.11E-03,1.76E-02
145584,8.11E-03,1.74E-02
145585,8.11E-03,1.72E-02
145586,8.10E-03,1.69E-02
145587,8.04E-03,1.66E-02
145588,8.04E-03,1.62E-02
145589,8.00E-03,1.58E-02
145590,7.96E-03,1.53E-02
145591,7.92E-03,1.48E-02
145592,7.94E-03,1.44E-02
145593,8.06E-03,1.42E-02
145594,8.11E-03,1.46E-02
145595,7.99E-03,1.62E-02
145596,7.94E-03,1.84E-02
145597,7.95E-03,2.08E-02
145598,8.05E-03,2.29E-02
145599,8.16E-03,2.43E-02
145600,8.24E-03,2.49E-02
145601,8.24E-03,2.52E-02
145602,8.15E-03,2.54E-02
145603,8.14E-03,2.55E-02
145604,8.13E-03,2.56E-02
145605,8.13E-03,2.58E-02
145606,8.13E-03,2.60E-02
145607,8.12E-03,2.61E-02
145608,8.12E-03,2.63E-02
145609,8.12E-03,2.65E-02
145610,8.12E-03,2.66E-02
145611,8.12E-03,2.68E-02
145612,8.12E-03,2.70E-02
145613,8.12E-03,2.72E-02
145614,8.13E-03,2.74E-02
145615,8.14E-03,2.76E-02
145616,8.15E-03,2.77E-02
145617,8.14E-03,2.77E-02
145618,8.13E-03,2.76E-02
145619,8.13E-03,2.75E-02
145620,8.12E-03,2.73E-02
145621,8.12E-03,2.71E-02
145622,8.12E-03,2.69E-02
145623,8.12E-03,2.66E-02
145624,8.11E-03,2.63E-02
145625,8.10E-03,2.60E-02
145626,8.09E-03,2.57E-02
145627,8.09E-03,2.54E-02
145628,8.09E-03,2.50E-02
145629,8.08E-03,2.47E-02
145630,8.07E-03,2.44E-02
145631,8.07E-03,2.42E-02
145632,8.07E-03,2.40E-02
145633,8.05E-03,2.38E-02
145634,8.00E-03,2.37E-02
145635,8.01E-03,2.39E-02
145636,8.08E-03,2.44E-02
145637,8.11E-03,2.48E-02
145638,8.11E-03,2.51E-02
145639,8.12E-03,2.54E-02
145640,8.12E-03,2.55E-02
145641,8.11E-03,2.55E-02
145642,8.10E-03,2.54E-02
145643,8.10E-03,2.53E-02
145644,8.08E-03,2.51E-02
145645,8.04E-03,2.48E-02
145646,8.01E-03,2.46E-02
145647,7.99E-03,2.48E-02
145648,7.95E-03,2.52E-02
145649,8.03E-03,2.64E-02
145650,8.21E-03,2.79E-02
145651,8.24E-03,2.89E-02
145652,8.20E-03,2.92E-02
145653,8.17E-03,2.91E-02
145654,8.14E-03,2.87E-02
145655,8.11E-03,2.82E-02
145656,8.09E-03,2.77E-02
145657,8.07E-03,2.72E-02
145658,8.06E-03,2.68E-02
145659,8.05E-03,2.66E-02
145660,8.04E-03,2.64E-02
145661,8.03E-03,2.64E-02
145662,8.04E-03,2.66E-02
145663,8.04E-03,2.69E-02
145664,8.04E-03,2.73E-02
145665,8.09E-03,2.79E-02
145666,8.08E-03,2.89E-02
145667,8.09E-03,3.01E-02
145668,8.16E-03,3.12E-02
145669,8.16E-03,3.20E-02
145670,8.17E-03,3.27E-02
145671,8.19E-03,3.33E-02
145672,8.19E-03,3.35E-02
145673,8.19E-03,3.35E-02
145674,8.17E-03,3.31E-02
145675,8.15E-03,3.25E-02
145676,8.14E-03,3.19E-02
145677,8.14E-03,3.11E-02
145678,8.12E-03,3.03E-02
145679,8.10E-03,2.94E-02
145680,8.08E-03,2.86E-02
145681,8.07E-03,2.78E-02
145682,8.06E-03,2.71E-02
145683,8.05E-03,2.65E-02
145684,8.04E-03,2.60E-02
145685,8.02E-03,2.57E-02
145686,8.07E-03,2.56E-02
145687,8.06E-03,2.58E-02
145688,8.11E-03,2.61E-02
145689,8.11E-03,2.61E-02
145690,8.15E-03,2.57E-02
145691,8.08E-03,2.50E-02
145692,7.89E-03,2.41E-02
145693,7.72E-03,2.29E-02
145694,7.56E-03,2.15E-02
145695,7.37E-03,2.01E-02
145696,7.39E-03,1.87E-02
145697,7.98E-03,1.76E-02
145698,8.08E-03,1.82E-02
145699,8.34E-03,2.21E-02
145700,7.90E-03,2.92E-02
145701,8.07E-03,3.49E-02
145702,8.24E-03,3.75E-02
145703,8.21E-03,3.81E-02
145704,8.31E-03,3.78E-02
145705,8.26E-03,3.69E-02
145706,8.20E-03,3.60E-02
145707,8.20E-03,3.49E-02
145708,8.14E-03,3.35E-02
145709,8.08E-03,3.21E-02
145710,8.08E-03,3.10E-02
145711,8.07E-03,3.01E-02
145712,8.06E-03,2.94E-02
145713,8.05E-03,2.88E-02
145714,8.03E-03,2.84E-02
145715,8.04E-03,2.83E-02
145716,8.08E-03,2.84E-02
145717,8.09E-03,2.86E-02
145718,8.10E-03,2.87E-02
145719,8.10E-03,2.89E-02
145720,8.11E-03,2.90E-02
145721,8.14E-03,2.92E-02
145722,8.19E-03,2.93E-02
145723,8.18E-03,2.90E-02
145724,8.16E-03,2.85E-02
145725,8.15E-03,2.77E-02
145726,8.14E-03,2.68E-02
145727,8.12E-03,2.58E-02
145728,8.10E-03,2.48E-02
145729,8.08E-03,2.37E-02
145730,8.00E-03,2.27E-02
145731,8.02E-03,2.17E-02
145732,7.98E-03,2.09E-02
145733,7.96E-03,2.02E-02
145734,8.01E-03,1.98E-02
145735,8.00E-03,2.00E-02
145736,8.02E-03,2.04E-02
145737,8.10E-03,2.05E-02
145738,8.03E-03,2.05E-02
145739,7.96E-03,2.02E-02
145740,7.97E-03,1.99E-02
145741,7.95E-03,1.98E-02
145742,7.90E-03,1.99E-02
145743,8.02E-03,2.07E-02
145744,8.19E-03,2.29E-02
145745,7.73E-03,2.74E-02
145746,7.97E-03,3.11E-02
145747,8.20E-03,3.15E-02
145748,8.29E-03,3.07E-02
145749,8.24E-03,2.97E-02
145750,8.18E-03,2.87E-02
145751,8.15E-03,2.76E-02
145752,8.17E-03,2.64E-02
145753,8.12E-03,2.53E-02
145754,8.06E-03,2.42E-02
145755,8.01E-03,2.33E-02
145756,7.96E-03,2.25E-02
145757,7.96E-03,2.17E-02
145758,8.16E-03,2.13E-02
145759,8.53E-03,2.19E-02
145760,8.01E-03,2.51E-02
145761,8.33E-03,2.86E-02
145762,7.92E-03,2.90E-02
145763,7.96E-03,2.73E-02
145764,8.07E-03,2.52E-02
145765,7.98E-03,2.36E-02
145766,7.88E-03,2.24E-02
145767,7.84E-03,2.19E-02
145768,7.75E-03,2.24E-02
145769,7.61E-03,2.44E-02
145770,7.81E-03,2.91E-02
145771,8.13E-03,3.40E-02
145772,8.94E-03,3.34E-02
145773,9.32E-03,3.50E-02
145774,7.99E-03,3.45E-02
145775,7.40E-03,3.31E-02
145776,7.03E-03,3.17E-02
145777,6.77E-03,3.03E-02
145778,6.71E-03,2.89E-02
145779,7.58E-03,2.74E-02
145780,7.19E-03,2.67E-02
145781,6.50E-03,2.55E-02
145782,6.29E-03,2.46E-02
145783,6.09E-03,2.38E-02
145784,4.77E-03,2.32E-02
145785,6.24E-03,2.21E-02
145786,9.67E-03,2.16E-02
145787,8.54E-03,2.08E-02
145788,8.28E-03,2.02E-02
145789,8.24E-03,1.95E-02
145790,8.19E-03,1.88E-02
145791,8.26E-03,1.82E-02
145792,8.23E-03,1.76E-02
145793,8.24E-03,1.71E-02
145794,8.23E-03,1.67E-02
145795,8.21E-03,1.65E-02
145796,8.10E-03,1.68E-02
145797,7.82E-03,1.75E-02
145798,7.65E-03,1.81E-02
145799,7.55E-03,1.82E-02
145800,7.57E-03,1.80E-02
145801,7.63E-03,1.76E-02
145802,7.81E-03,1.69E-02
145803,7.98E-03,1.64E-02
145804,8.11E-03,1.59E-02
145805,8.32E-03,1.55E-02
145806,8.49E-03,1.52E-02
145807,8.67E-03,1.49E-02
145808,8.76E-03,1.49E-02
145809,8.86E-03,1.49E-02
145810,8.98E-03,1.49E-02
145811,9.14E-03,1.49E-02
145812,9.46E-03,1.48E-02
145813,6.54E-03,1.42E-02
145814,7.40E-03,1.40E-02
145815,8.07E-03,1.37E-02
145816,7.92E-03,1.34E-02
145817,7.27E-03,1.30E-02
145818,7.38E-03,1.23E-02
145819,7.63E-03,1.19E-02
145820,8.05E-03,1.14E-02
145821,8.21E-03,1.10E-02
145822,8.10E-03,1.05E-02
145823,7.99E-03,1.01E-02
145824,8.15E-03,9.68E-03
145825,8.09E-03,9.44E-03
145826,7.71E-03,9.45E-03
145827,7.32E-03,1.01E-02
145828,7.36E-03,1.08E-02
145829,7.68E-03,1.08E-02
145830,7.80E-03,1.04E-02
145831,7.77E-03,9.91E-03
145832,7.87E-03,9.28E-03
145833,7.97E-03,8.65E-03
145834,8.02E-03,8.06E-03
145835,7.96E-03,7.51E-03
145836,7.70E-03,7.00E-03
145837,7.57E-03,6.53E-03
145838,7.58E-03,6.19E-03
145839,7.57E-03,6.27E-03
145840,7.88E-03,6.94E-03
145841,7.15E-03,8.51E-03
145842,7.47E-03,9.90E-03
145843,7.89E-03,9.99E-03
145844,7.97E-03,9.43E-03
145845,7.95E-03,8.68E-03
145846,7.89E-03,7.92E-03
145847,7.86E-03,7.33E-03
145848,7.94E-03,6.96E-03
145849,7.89E-03,7.16E-03
145850,7.43E-03,8.22E-03
145851,7.61E-03,9.10E-03
145852,7.51E-03,9.06E-03
145853,7.53E-03,8.71E-03
145854,7.68E-03,8.26E-03
145855,7.92E-03,7.80E-03
145856,8.33E-03,7.35E-03
145857,8.40E-03,6.95E-03
145858,8.15E-03,6.59E-03
145859,7.85E-03,6.16E-03
145860,7.68E-03,5.75E-03
145861,7.86E-03,5.36E-03
145862,8.05E-03,5.02E-03
145863,8.13E-03,4.73E-03
145864,8.13E-03,4.47E-03
145865,8.10E-03,4.22E-03
145866,8.01E-03,3.99E-03
145867,8.00E-03,3.79E-03
145868,8.05E-03,3.61E-03
145869,8.04E-03,3.44E-03
145870,8.03E-03,3.30E-03
145871,8.01E-03,3.16E-03
145872,8.01E-03,3.04E-03
145873,7.91E-03,2.98E-03
145874,7.83E-03,2.94E-03
145875,7.85E-03,2.90E-03
145876,7.89E-03,2.84E-03
145877,7.91E-03,2.75E-03
145878,7.94E-03,2.65E-03
145879,7.98E-03,2.57E-03
145880,8.01E-03,2.53E-03
145881,8.01E-03,2.55E-03
145882,8.07E-03,2.62E-03
145883,8.09E-03,2.68E-03
145884,8.07E-03,2.74E-03
145885,8.07E-03,2.74E-03
145886,8.11E-03,2.65E-03
145887,8.06E-03,2.50E-03
145888,8.14E-03,2.33E-03
145889,8.16E-03,2.18E-03
145890,8.20E-03,2.09E-03
145891,8.13E-03,2.06E-03
145892,8.09E-03,2.07E-03
145893,8.13E-03,2.07E-03
145894,8.11E-03,2.06E-03
145895,8.10E-03,2.02E-03
145896,8.04E-03,1.90E-03
145897,7.99E-03,1.74E-03
145898,7.99E-03,1.58E-03
145899,7.98E-03,1.44E-03
145900,7.98E-03,1.34E-03
145901,8.02E-03,1.28E-03
145902,8.20E-03,1.27E-03
145903,7.85E-03,1.39E-03
145904,7.96E-03,1.50E-03
145905,8.02E-03,1.43E-03
145906,8.11E-03,1.27E-03
145907,8.11E-03,1.10E-03
145908,8.10E-03,9.69E-04
145909,8.00E-03,8.65E-04
145910,8.09E-03,7.95E-04
145911,8.22E-03,7.71E-04
145912,7.81E-03,8.06E-04
145913,7.68E-03,8.11E-04
145914,7.77E-03,7.11E-04
145915,7.82E-03,5.77E-04
145916,7.82E-03,4.57E-04
145917,7.68E-03,3.83E-04
145918,7.09E-03,3.74E-04
145919,7.80E-03,4.18E-04
145920,7.52E-03,5.23E-04
145921,7.77E-03,6.74E-04
145922,8.02E-03,8.52E-04
145923,8.56E-03,9.90E-04
145924,8.25E-03,1.01E-03
145925,8.32E-03,9.55E-04
145926,8.13E-03,9.14E-04
145927,8.01E-03,8.75E-04
145928,7.93E-03,8.35E-04
145929,7.85E-03,7.92E-04
145930,7.91E-03,7.42E-04
145931,8.12E-03,6.92E-04
145932,8.25E-03,6.88E-04
145933,8.04E-03,7.53E-04
145934,7.98E-03,8.41E-04
145935,8.00E-03,8.83E-04
145936,8.02E-03,8.37E-04
145937,8.00E-03,7.57E-04
145938,7.97E-03,6.81E-04
145939,7.80E-03,6.09E-04
145940,7.88E-03,5.66E-04
145941,8.11E-03,5.79E-04
145942,8.04E-03,6.31E-04
145943,7.97E-03,6.65E-04
145944,7.83E-03,6.27E-04
145945,8.01E-03,5.48E-04
145946,8.01E-03,4.76E-04
145947,8.00E-03,4.09E-04
145948,8.08E-03,3.56E-04
145949,7.94E-03,3.32E-04
145950,7.84E-03,3.33E-04
145951,7.74E-03,3.42E-04
145952,7.79E-03,3.45E-04
145953,7.87E-03,3.42E-04
145954,7.91E-03,3.39E-04
145955,8.00E-03,3.43E-04
145956,8.07E-03,3.52E-04
145957,8.09E-03,3.63E-04
145958,8.12E-03,3.75E-04
145959,8.16E-03,3.89E-04
145960,8.12E-03,4.06E-04
145961,8.08E-03,4.24E-04
145962,8.13E-03,4.38E-04
145963,8.15E-03,4.47E-04
145964,8.17E-03,4.50E-04
145965,8.18E-03,4.46E-04
145966,8.25E-03,4.34E-04
145967,8.23E-03,4.12E-04
145968,8.16E-03,3.78E-04
145969,8.12E-03,3.31E-04
145970,8.12E-03,2.74E-04
145971,8.06E-03,2.14E-04
145972,8.05E-03,1.67E-04
145973,8.06E-03,1.45E-04
145974,7.95E-03,1.46E-04
145975,7.93E-03,1.56E-04
145976,8.14E-03,1.71E-04
145977,8.14E-03,2.08E-04
145978,8.05E-03,2.67E-04
145979,8.03E-03,3.29E-04
145980,8.11E-03,3.62E-04
145981,8.22E-03,3.66E-04
145982,8.20E-03,3.67E-04
145983,7.87E-03,3.57E-04
145984,8.14E-03,3.50E-04
145985,8.19E-03,3.65E-04
145986,7.87E-03,4.07E-04
145987,7.84E-03,4.47E-04
145988,7.94E-03,4.44E-04
145989,8.11E-03,4.13E-04
145990,8.14E-03,4.09E-04
145991,7.99E-03,4.28E-04
145992,7.91E-03,4.46E-04
145993,7.94E-03,4.57E-04
145994,7.98E-03,4.61E-04
145995,7.95E-03,4.60E-04
145996,7.88E-03,4.54E-04
145997,7.76E-03,4.41E-04
145998,7.75E-03,4.19E-04
145999,7.92E-03,3.85E-04
146000,7.63E-03,3.73E-04
146001,7.73E-03,3.98E-04
146002,7.87E-03,4.30E-04
146003,7.96E-03,4.58E-04
146004,8.00E-03,4.82E-04
146005,8.07E-03,5.03E-04
146006,8.08E-03,5.21E-04
146007,8.08E-03,5.36E-04
146008,8.08E-03,5.49E-04
146009,8.09E-03,5.58E-04
146010,8.09E-03,5.63E-04
146011,8.09E-03,5.66E-04
146012,8.09E-03,5.66E-04
146013,8.09E-03,5.62E-04
146014,8.09E-03,5.56E-04
146015,8.09E-03,5.46E-04
146016,8.09E-03,5.34E-04
146017,8.08E-03,5.19E-04
146018,8.08E-03,5.00E-04
146019,8.08E-03,4.79E-04
146020,8.00E-03,4.55E-04
146021,7.97E-03,4.29E-04
146022,7.90E-03,4.01E-04
146023,7.85E-03,3.71E-04
146024,7.81E-03,3.39E-04
146025,7.81E-03,3.05E-04
146026,7.90E-03,2.73E-04
146027,7.91E-03,2.52E-04
146028,7.65E-03,2.45E-04
146029,7.56E-03,2.41E-04
146030,7.56E-03,2.32E-04
146031,7.63E-03,2.22E-04
146032,7.68E-03,2.14E-04
146033,7.66E-03,2.18E-04
146034,7.64E-03,2.29E-04
146035,7.68E-03,2.33E-04
146036,7.81E-03,2.42E-04
146037,7.75E-03,2.67E-04
146038,7.73E-03,3.01E-04
146039,7.77E-03,3.40E-04
146040,7.82E-03,3.84E-04
146041,7.88E-03,4.32E-04
146042,7.95E-03,4.79E-04
146043,7.98E-03,5.23E-04
146044,8.03E-03,5.64E-04
146045,7.94E-03,6.00E-04
146046,7.92E-03,6.38E-04
146047,7.90E-03,6.82E-04
146048,7.92E-03,7.35E-04
146049,7.94E-03,8.01E-04
146050,8.02E-03,8.72E-04
146051,8.17E-03,9.40E-04
146052,8.18E-03,1.01E-03
146053,7.27E-03,9.97E-04
146054,6.28E-03,8.98E-04
146055,6.17E-03,8.43E-04
146056,6.73E-03,8.93E-04
146057,6.70E-03,9.12E-04
146058,7.01E-03,8.11E-04
146059,8.34E-03,7.01E-04
146060,7.21E-03,6.73E-04
146061,9.94E-03,4.73E-04
146062,5.83E-03,4.09E-04
146063,6.05E-03,3.45E-04
146064,7.21E-03,3.16E-04
146065,8.04E-03,2.99E-04
146066,8.07E-03,2.88E-04
146067,7.83E-03,2.89E-04
146068,7.71E-03,2.92E-04
146069,7.76E-03,2.96E-04
146070,7.84E-03,3.05E-04
146071,7.96E-03,3.17E-04
146072,8.01E-03,3.31E-04
146073,8.02E-03,3.48E-04
146074,8.11E-03,3.68E-04
146075,8.18E-03,3.92E-04
146076,8.25E-03,4.18E-04
146077,8.23E-03,4.44E-04
146078,8.20E-03,4.72E-04
146079,8.17E-03,5.00E-04
146080,8.16E-03,5.28E-04
146081,8.14E-03,5.55E-04
146082,8.12E-03,5.82E-04
146083,8.10E-03,6.08E-04
146084,8.08E-03,6.32E-04
146085,8.04E-03,6.54E-04
146086,8.04E-03,6.73E-04
146087,8.06E-03,6.90E-04
146088,8.07E-03,7.04E-04
146089,8.09E-03,7.16E-04
146090,8.10E-03,7.26E-04
146091,8.11E-03,7.34E-04
146092,8.13E-03,7.41E-04
146093,8.14E-03,7.47E-04
146094,8.14E-03,7.52E-04
146095,8.14E-03,7.57E-04
146096,8.14E-03,7.61E-04
146097,8.15E-03,7.64E-04
146098,8.15E-03,7.67E-04
146099,8.16E-03,7.71E-04
146100,8.16E-03,7.74E-04
146101,8.16E-03,7.77E-04
146102,8.17E-03,7.82E-04
146103,8.18E-03,7.86E-04
146104,8.18E-03,7.92E-04
146105,8.19E-03,7.98E-04
146106,8.19E-03,8.06E-04
146107,8.19E-03,8.15E-04
146108,8.20E-03,8.25E-04
146109,8.20E-03,8.37E-04
146110,8.21E-03,8.51E-04
146111,8.22E-03,8.67E-04
146112,8.23E-03,8.86E-04
146113,8.23E-03,9.07E-04
146114,8.22E-03,9.29E-04
146115,8.21E-03,9.53E-04
146116,8.20E-03,9.78E-04
146117,8.20E-03,1.00E-03
146118,8.19E-03,1.03E-03
146119,8.18E-03,1.06E-03
146120,8.17E-03,1.09E-03
146121,8.16E-03,1.12E-03
146122,8.15E-03,1.14E-03
146123,8.14E-03,1.17E-03
146124,8.13E-03,1.20E-03
146125,8.13E-03,1.23E-03
146126,8.12E-03,1.26E-03
146127,8.12E-03,1.29E-03
146128,8.12E-03,1.32E-03
146129,8.11E-03,1.35E-03
146130,8.11E-03,1.38E-03
146131,8.10E-03,1.41E-03
146132,8.10E-03,1.44E-03
146133,8.10E-03,1.47E-03
146134,8.10E-03,1.50E-03
146135,8.10E-03,1.53E-03
146136,8.10E-03,1.56E-03
146137,8.10E-03,1.59E-03
146138,8.10E-03,1.62E-03
146139,8.10E-03,1.65E-03
146140,8.10E-03,1.68E-03
146141,8.10E-03,1.70E-03
146142,8.11E-03,1.73E-03
146143,8.11E-03,1.76E-03
146144,8.11E-03,1.78E-03
146145,8.11E-03,1.81E-03
146146,8.11E-03,1.84E-03
146147,8.11E-03,1.86E-03
146148,8.11E-03,1.88E-03
146149,8.11E-03,1.91E-03
146150,8.11E-03,1.93E-03
146151,8.11E-03,1.96E-03
146152,8.11E-03,1.98E-03
146153,8.11E-03,2.00E-03
146154,8.11E-03,2.02E-03
146155,8.12E-03,2.05E-03
146156,8.12E-03,2.07E-03
146157,8.12E-03,2.10E-03
146158,8.12E-03,2.12E-03
146159,8.12E-03,2.15E-03
146160,8.12E-03,2.17E-03
146161,8.12E-03,2.20E-03
146162,8.12E-03,2.22E-03
146163,8.13E-03,2.25E-03
146164,8.13E-03,2.28E-03
146165,8.13E-03,2.31E-03
146166,8.13E-03,2.34E-03
146167,8.14E-03,2.37E-03
146168,8.14E-03,2.40E-03
146169,8.14E-03,2.44E-03
146170,8.14E-03,2.47E-03
146171,8.14E-03,2.51E-03
146172,8.14E-03,2.54E-03
146173,8.14E-03,2.58E-03
146174,8.15E-03,2.61E-03
146175,8.15E-03,2.65E-03
146176,8.15E-03,2.69E-03
146177,8.15E-03,2.73E-03
146178,8.14E-03,2.77E-03
146179,8.14E-03,2.81E-03
146180,8.14E-03,2.85E-03
146181,8.14E-03,2.89E-03
146182,8.14E-03,2.94E-03
146183,8.14E-03,2.98E-03
146184,8.14E-03,3.03E-03
146185,8.14E-03,3.08E-03
146186,8.14E-03,3.13E-03
146187,8.14E-03,3.18E-03
146188,8.14E-03,3.23E-03
146189,8.14E-03,3.29E-03
146190,8.14E-03,3.35E-03
146191,8.13E-03,3.41E-03
146192,8.13E-03,3.47E-03
146193,8.13E-03,3.53E-03
146194,8.12E-03,3.60E-03
146195,8.12E-03,3.67E-03
146196,8.12E-03,3.74E-03
146197,8.12E-03,3.81E-03
146198,8.11E-03,3.89E-03
146199,8.11E-03,3.97E-03
146200,8.11E-03,4.05E-03
146201,8.10E-03,4.14E-03
146202,8.04E-03,4.22E-03
146203,8.01E-03,4.31E-03
146204,8.00E-03,4.40E-03
146205,7.99E-03,4.50E-03
146206,8.05E-03,4.59E-03
146207,8.07E-03,4.68E-03
146208,8.06E-03,4.78E-03
146209,8.05E-03,4.88E-03
146210,8.04E-03,4.97E-03
146211,8.02E-03,5.06E-03
146212,8.00E-03,5.16E-03
146213,7.97E-03,5.25E-03
146214,7.96E-03,5.34E-03
146215,7.97E-03,5.42E-03
146216,8.00E-03,5.50E-03
146217,8.05E-03,5.58E-03
146218,8.04E-03,5.67E-03
146219,7.94E-03,5.78E-03
146220,7.96E-03,5.88E-03
146221,8.06E-03,6.00E-03
146222,8.07E-03,6.13E-03
146223,8.08E-03,6.28E-03
146224,7.97E-03,6.44E-03
146225,7.81E-03,6.63E-03
146226,7.64E-03,6.82E-03
146227,7.57E-03,7.00E-03
146228,7.59E-03,7.16E-03
146229,7.79E-03,7.29E-03
146230,7.95E-03,7.42E-03
146231,8.00E-03,7.60E-03
146232,8.10E-03,7.79E-03
146233,7.96E-03,7.96E-03
146234,7.70E-03,8.07E-03
146235,7.53E-03,8.12E-03
146236,7.82E-03,8.15E-03
146237,8.03E-03,8.18E-03
146238,8.19E-03,8.26E-03
146239,8.22E-03,8.39E-03
146240,8.10E-03,8.54E-03
146241,7.98E-03,8.72E-03
146242,7.85E-03,8.90E-03
146243,7.68E-03,9.08E-03
146244,7.63E-03,9.23E-03
146245,7.70E-03,9.37E-03
146246,7.91E-03,9.48E-03
146247,7.95E-03,9.59E-03
146248,7.79E-03,9.68E-03
146249,7.69E-03,9.79E-03
146250,7.74E-03,9.88E-03
146251,7.76E-03,9.97E-03
146252,7.74E-03,1.01E-02
146253,7.75E-03,1.02E-02
146254,7.78E-03,1.04E-02
146255,7.79E-03,1.06E-02
146256,7.84E-03,1.08E-02
146257,7.82E-03,1.10E-02
146258,7.76E-03,1.12E-02
146259,7.63E-03,1.14E-02
146260,7.53E-03,1.16E-02
146261,7.47E-03,1.18E-02
146262,7.49E-03,1.20E-02
146263,7.64E-03,1.22E-02
146264,8.36E-03,1.25E-02
146265,8.54E-03,1.27E-02
146266,8.36E-03,1.30E-02
146267,8.00E-03,1.32E-02
146268,8.27E-03,1.35E-02
146269,8.75E-03,1.38E-02
146270,9.20E-03,1.40E-02
146271,9.14E-03,1.42E-02
146272,8.97E-03,1.45E-02
146273,8.79E-03,1.46E-02
146274,8.68E-03,1.48E-02
146275,8.56E-03,1.50E-02
146276,8.50E-03,1.52E-02
146277,8.38E-03,1.54E-02
146278,8.20E-03,1.57E-02
146279,8.05E-03,1.59E-02
146280,7.89E-03,1.62E-02
146281,7.71E-03,1.65E-02
146282,7.59E-03,1.68E-02
146283,7.51E-03,1.70E-02
146284,7.52E-03,1.72E-02
146285,7.61E-03,1.73E-02
146286,7.74E-03,1.74E-02
146287,7.88E-03,1.75E-02
146288,8.10E-03,1.77E-02
146289,8.23E-03,1.78E-02
146290,8.29E-03,1.81E-02
146291,8.29E-03,1.84E-02
146292,8.26E-03,1.88E-02
146293,8.23E-03,1.92E-02
146294,8.20E-03,1.97E-02
146295,8.27E-03,2.03E-02
146296,8.38E-03,2.09E-02
146297,8.16E-03,2.15E-02
146298,7.56E-03,2.20E-02
146299,6.84E-03,2.25E-02
146300,6.56E-03,2.31E-02
146301,6.36E-03,2.36E-02
146302,6.15E-03,2.42E-02
146303,6.25E-03,2.49E-02
146304,6.61E-03,2.55E-02
146305,7.19E-03,2.59E-02
146306,7.49E-03,2.62E-02
146307,7.68E-03,2.64E-02
146308,7.89E-03,2.63E-02
146309,8.10E-03,2.60E-02
146310,8.11E-03,2.58E-02
146311,7.95E-03,2.57E-02
146312,7.61E-03,2.56E-02
146313,7.45E-03,2.52E-02
146314,7.48E-03,2.50E-02
146315,7.68E-03,2.50E-02
146316,7.97E-03,2.49E-02
146317,8.27E-03,2.48E-02
146318,8.42E-03,2.46E-02
146319,8.33E-03,2.44E-02
146320,8.22E-03,2.43E-02
146321,8.00E-03,2.41E-02
146322,7.76E-03,2.41E-02
146323,7.52E-03,2.40E-02
146324,7.42E-03,2.40E-02
146325,7.47E-03,2.40E-02
146326,7.59E-03,2.39E-02
146327,7.81E-03,2.39E-02
146328,7.91E-03,2.38E-02
146329,8.02E-03,2.37E-02
146330,8.08E-03,2.36E-02
146331,8.08E-03,2.34E-02
146332,8.02E-03,2.33E-02
146333,7.90E-03,2.32E-02
146334,7.78E-03,2.31E-02
146335,7.66E-03,2.31E-02
146336,7.64E-03,2.31E-02
146337,7.70E-03,2.32E-02
146338,7.74E-03,2.32E-02
146339,7.76E-03,2.33E-02
146340,7.85E-03,2.34E-02
146341,7.93E-03,2.35E-02
146342,8.03E-03,2.37E-02
146343,8.09E-03,2.38E-02
146344,8.09E-03,2.39E-02
146345,8.09E-03,2.40E-02
146346,8.09E-03,2.41E-02
146347,8.10E-03,2.42E-02
146348,8.10E-03,2.42E-02
146349,8.10E-03,2.43E-02
146350,8.10E-03,2.43E-02
146351,8.10E-03,2.43E-02
146352,8.10E-03,2.43E-02
146353,8.10E-03,2.43E-02
146354,8.10E-03,2.43E-02
146355,8.10E-03,2.43E-02
146356,8.10E-03,2.43E-02
146357,8.10E-03,2.43E-02
146358,8.10E-03,2.43E-02
146359,8.09E-03,2.43E-02
146360,8.09E-03,2.43E-02
146361,8.09E-03,2.43E-02
146362,8.09E-03,2.43E-02
146363,8.09E-03,2.43E-02
146364,8.09E-03,2.43E-02
146365,8.09E-03,2.44E-02
146366,8.09E-03,2.44E-02
146367,8.09E-03,2.44E-02
146368,8.09E-03,2.44E-02
146369,8.09E-03,2.43E-02
146370,8.09E-03,2.43E-02
146371,8.08E-03,2.43E-02
146372,8.08E-03,2.42E-02
146373,8.08E-03,2.42E-02
146374,8.08E-03,2.42E-02
146375,8.08E-03,2.42E-02
146376,8.08E-03,2.42E-02
146377,8.08E-03,2.42E-02
146378,8.08E-03,2.42E-02
146379,8.07E-03,2.43E-02
146380,8.07E-03,2.44E-02
146381,8.06E-03,2.44E-02
146382,8.05E-03,2.46E-02
146383,8.04E-03,2.47E-02
146384,8.04E-03,2.48E-02
146385,8.03E-03,2.49E-02
146386,8.02E-03,2.51E-02
146387,8.01E-03,2.52E-02
146388,8.00E-03,2.53E-02
146389,7.98E-03,2.54E-02
146390,7.96E-03,2.55E-02
146391,7.94E-03,2.55E-02
146392,7.93E-03,2.56E-02
146393,8.02E-03,2.57E-02
146394,8.10E-03,2.57E-02
146395,8.19E-03,2.58E-02
146396,8.16E-03,2.58E-02
146397,8.14E-03,2.59E-02
146398,8.12E-03,2.59E-02
146399,8.20E-03,2.59E-02
146400,8.28E-03,2.59E-02
146401,8.31E-03,2.58E-02
146402,8.31E-03,2.58E-02
146403,8.32E-03,2.57E-02
146404,8.31E-03,2.56E-02
146405,8.23E-03,2.55E-02
146406,8.22E-03,2.53E-02
146407,8.26E-03,2.52E-02
146408,8.31E-03,2.51E-02
146409,8.29E-03,2.49E-02
146410,8.16E-03,2.47E-02
146411,8.11E-03,2.46E-02
146412,8.13E-03,2.44E-02
146413,8.07E-03,2.43E-02
146414,7.98E-03,2.42E-02
146415,7.98E-03,2.41E-02
146416,7.99E-03,2.39E-02
146417,8.00E-03,2.38E-02
146418,8.01E-03,2.37E-02
146419,8.04E-03,2.36E-02
146420,8.06E-03,2.35E-02
146421,8.08E-03,2.34E-02
146422,8.09E-03,2.34E-02
146423,8.09E-03,2.33E-02
146424,8.10E-03,2.32E-02
146425,8.11E-03,2.31E-02
146426,8.13E-03,2.30E-02
146427,8.14E-03,2.29E-02
146428,8.14E-03,2.28E-02
146429,8.15E-03,2.27E-02
146430,8.15E-03,2.25E-02
146431,8.16E-03,2.24E-02
146432,8.17E-03,2.23E-02
146433,8.19E-03,2.22E-02
146434,8.21E-03,2.21E-02
146435,8.22E-03,2.20E-02
146436,8.23E-03,2.18E-02
146437,8.23E-03,2.17E-02
146438,8.23E-03,2.16E-02
146439,8.23E-03,2.14E-02
146440,8.23E-03,2.13E-02
146441,8.23E-03,2.11E-02
146442,8.23E-03,2.10E-02
146443,8.23E-03,2.08E-02
146444,8.23E-03,2.07E-02
146445,8.23E-03,2.05E-02
146446,8.24E-03,2.03E-02
146447,8.24E-03,2.02E-02
146448,8.24E-03,2.00E-02
146449,8.24E-03,1.99E-02
146450,8.25E-03,1.97E-02
146451,8.26E-03,1.96E-02
146452,8.28E-03,1.94E-02
146453,8.30E-03,1.93E-02
146454,8.32E-03,1.91E-02
146455,8.35E-03,1.90E-02
146456,8.28E-03,1.88E-02
146457,8.24E-03,1.87E-02
146458,8.29E-03,1.85E-02
146459,8.24E-03,1.84E-02
146460,8.21E-03,1.83E-02
146461,8.19E-03,1.82E-02
146462,8.17E-03,1.80E-02
146463,8.14E-03,1.79E-02
146464,8.13E-03,1.78E-02
146465,8.12E-03,1.77E-02
146466,8.12E-03,1.76E-02
146467,8.11E-03,1.75E-02
146468,8.11E-03,1.74E-02
146469,8.11E-03,1.72E-02
146470,8.11E-03,1.71E-02
146471,8.11E-03,1.70E-02
146472,8.11E-03,1.69E-02
146473,8.11E-03,1.68E-02
146474,8.12E-03,1.67E-02
146475,8.12E-03,1.66E-02
146476,8.12E-03,1.65E-02
146477,8.12E-03,1.64E-02
146478,8.12E-03,1.63E-02
146479,8.12E-03,1.62E-02
146480,8.12E-03,1.61E-02
146481,8.12E-03,1.60E-02
146482,8.12E-03,1.59E-02
146483,8.12E-03,1.58E-02
146484,8.12E-03,1.57E-02
146485,8.12E-03,1.56E-02
146486,8.12E-03,1.55E-02
146487,8.12E-03,1.53E-02
146488,8.12E-03,1.52E-02
146489,8.12E-03,1.51E-02
146490,8.12E-03,1.50E-02
146491,8.12E-03,1.49E-02
146492,8.12E-03,1.48E-02
146493,8.12E-03,1.47E-02
146494,8.12E-03,1.46E-02
146495,8.12E-03,1.45E-02
146496,8.12E-03,1.44E-02
146497,8.12E-03,1.43E-02
146498,8.12E-03,1.42E-02
146499,8.12E-03,1.41E-02
146500,8.12E-03,1.39E-02
146501,8.12E-03,1.38E-02
146502,8.12E-03,1.37E-02
146503,8.12E-03,1.36E-02
146504,8.12E-03,1.35E-02
146505,8.11E-03,1.34E-02
146506,8.11E-03,1.32E-02
146507,8.11E-03,1.31E-02
146508,8.11E-03,1.30E-02
146509,8.11E-03,1.29E-02
146510,8.11E-03,1.28E-02
146511,8.11E-03,1.26E-02
146512,8.11E-03,1.25E-02
146513,8.11E-03,1.24E-02
146514,8.11E-03,1.23E-02
146515,8.11E-03,1.21E-02
146516,8.11E-03,1.20E-02
146517,8.11E-03,1.19E-02
146518,8.11E-03,1.18E-02
146519,8.11E-03,1.17E-02
146520,8.10E-03,1.17E-02
146521,8.10E-03,1.16E-02
146522,8.10E-03,1.15E-02
146523,8.10E-03,1.15E-02
146524,8.10E-03,1.15E-02
146525,8.10E-03,1.15E-02
146526,8.10E-03,1.15E-02
146527,8.10E-03,1.15E-02
146528,8.10E-03,1.16E-02
146529,8.10E-03,1.17E-02
146530,8.10E-03,1.18E-02
146531,8.10E-03,1.19E-02
146532,8.10E-03,1.20E-02
146533,8.10E-03,1.22E-02
146534,8.10E-03,1.23E-02
146535,8.10E-03,1.25E-02
146536,8.10E-03,1.27E-02
146537,8.10E-03,1.29E-02
146538,8.10E-03,1.31E-02
146539,8.10E-03,1.33E-02
146540,8.10E-03,1.35E-02
146541,8.10E-03,1.37E-02
146542,8.10E-03,1.40E-02
146543,8.10E-03,1.43E-02
146544,8.10E-03,1.46E-02
146545,8.10E-03,1.49E-02
146546,8.10E-03,1.53E-02
146547,8.10E-03,1.56E-02
146548,8.10E-03,1.60E-02
146549,8.10E-03,1.63E-02
146550,8.10E-03,1.66E-02
146551,8.10E-03,1.69E-02
146552,8.10E-03,1.72E-02
146553,8.10E-03,1.74E-02
146554,8.10E-03,1.76E-02
146555,8.10E-03,1.78E-02
146556,8.10E-03,1.80E-02
146557,8.10E-03,1.81E-02
146558,8.10E-03,1.82E-02
146559,8.10E-03,1.83E-02
146560,8.10E-03,1.83E-02
146561,8.10E-03,1.84E-02
146562,8.10E-03,1.84E-02
146563,8.10E-03,1.85E-02
146564,8.10E-03,1.85E-02
146565,8.11E-03,1.85E-02
146566,8.11E-03,1.86E-02
146567,8.11E-03,1.86E-02
146568,8.11E-03,1.87E-02
146569,8.11E-03,1.87E-02
146570,8.11E-03,1.88E-02
146571,8.12E-03,1.89E-02
146572,8.12E-03,1.90E-02
146573,8.12E-03,1.91E-02
146574,8.12E-03,1.93E-02
146575,8.08E-03,1.94E-02
146576,8.04E-03,1.95E-02
146577,8.01E-03,1.97E-02
146578,7.96E-03,1.98E-02
146579,7.97E-03,1.98E-02
146580,7.94E-03,1.99E-02
146581,7.91E-03,2.00E-02
146582,7.94E-03,2.00E-02
146583,8.00E-03,2.00E-02
146584,8.03E-03,2.01E-02
146585,7.99E-03,2.01E-02
146586,7.96E-03,2.01E-02
146587,7.87E-03,2.00E-02
146588,8.09E-03,2.00E-02
146589,8.11E-03,2.00E-02
146590,8.03E-03,2.00E-02
146591,8.06E-03,1.99E-02
146592,7.98E-03,2.00E-02
146593,7.95E-03,2.00E-02
146594,7.88E-03,2.01E-02
146595,7.82E-03,2.02E-02
146596,7.69E-03,2.03E-02
146597,7.57E-03,2.05E-02
146598,7.46E-03,2.06E-02
146599,7.41E-03,2.06E-02
146600,7.50E-03,2.07E-02
146601,7.59E-03,2.07E-02
146602,7.66E-03,2.07E-02
146603,7.73E-03,2.06E-02
146604,7.75E-03,2.06E-02
146605,7.79E-03,2.06E-02
146606,7.77E-03,2.06E-02
146607,7.65E-03,2.06E-02
146608,7.52E-03,2.07E-02
146609,7.43E-03,2.07E-02
146610,7.51E-03,2.08E-02
146611,7.67E-03,2.08E-02
146612,7.83E-03,2.08E-02
146613,7.95E-03,2.08E-02
146614,8.02E-03,2.08E-02
146615,7.97E-03,2.07E-02
146616,7.87E-03,2.07E-02
146617,7.79E-03,2.06E-02
146618,7.81E-03,2.05E-02
146619,7.90E-03,2.04E-02
146620,7.94E-03,2.03E-02
146621,8.03E-03,2.02E-02
146622,8.11E-03,2.01E-02
146623,8.11E-03,2.01E-02
146624,8.10E-03,2.00E-02
146625,8.10E-03,2.00E-02
146626,8.02E-03,1.99E-02
146627,7.99E-03,1.99E-02
146628,7.94E-03,1.98E-02
146629,7.91E-03,1.98E-02
146630,7.91E-03,1.97E-02
146631,7.97E-03,1.97E-02
146632,7.94E-03,1.97E-02
146633,7.95E-03,1.96E-02
146634,7.95E-03,1.96E-02
146635,7.94E-03,1.96E-02
146636,7.96E-03,1.96E-02
146637,7.94E-03,1.96E-02
146638,7.93E-03,1.96E-02
146639,7.87E-03,1.97E-02
146640,7.82E-03,1.97E-02
146641,7.83E-03,1.97E-02
146642,7.91E-03,1.98E-02
146643,7.98E-03,1.98E-02
146644,7.99E-03,1.99E-02
146645,8.05E-03,2.00E-02
146646,8.10E-03,2.01E-02
146647,8.06E-03,2.02E-02
146648,8.02E-03,2.02E-02
146649,8.03E-03,2.03E-02
146650,8.05E-03,2.04E-02
146651,8.08E-03,2.04E-02
146652,8.20E-03,2.04E-02
146653,8.14E-03,2.04E-02
146654,7.96E-03,2.04E-02
146655,7.81E-03,2.04E-02
146656,7.63E-03,2.04E-02
146657,7.53E-03,2.03E-02
146658,7.42E-03,2.02E-02
146659,7.33E-03,2.01E-02
146660,7.36E-03,2.00E-02
146661,7.73E-03,1.98E-02
146662,7.81E-03,1.96E-02
146663,7.13E-03,1.94E-02
146664,5.78E-03,1.92E-02
146665,5.64E-03,1.90E-02
146666,7.25E-03,1.88E-02
146667,9.37E-03,2.15E-02
146668,1.03E-02,2.07E-02
146669,8.37E-03,2.02E-02
146670,7.44E-03,1.98E-02
146671,6.17E-03,1.95E-02
146672,5.32E-03,1.92E-02
146673,5.60E-03,1.89E-02
146674,8.29E-03,1.87E-02
146675,6.92E-03,1.85E-02
146677,4.53E-03,5.57E-04
146682,4.68E-03,5.47E-03
146683,4.76E-03,5.42E-03
146684,4.56E-03,5.37E-03
146685,5.86E-03,5.33E-03
146686,5.85E-03,5.45E-03
146687,6.45E-03,5.36E-03
146688,5.94E-03,5.30E-03
146689,6.76E-03,5.40E-03
146690,6.55E-03,5.28E-03
146691,6.06E-03,5.24E-03
146692,6.55E-03,5.18E-03
146693,6.73E-03,5.10E-03
146694,6.80E-03,5.21E-03
146695,7.20E-03,5.32E-03
146696,7.67E-03,5.54E-03
146697,6.44E-03,5.55E-03
146698,6.42E-03,5.55E-03
146699,7.61E-03,5.51E-03
146700,8.27E-03,5.43E-03
146701,8.75E-03,5.47E-03
146702,7.11E-03,5.47E-03
146703,7.95E-03,5.38E-03
146704,8.20E-03,5.37E-03
146705,7.47E-03,5.36E-03
146706,7.76E-03,5.34E-03
146707,7.59E-03,5.32E-03
146708,7.02E-03,5.28E-03
146709,6.68E-03,5.22E-03
146710,6.47E-03,5.16E-03
146711,6.55E-03,5.08E-03
146712,6.79E-03,4.99E-03
146713,6.38E-03,5.52E-03
146714,6.17E-03,5.43E-03
146715,5.24E-03,5.55E-03
146716,9.00E-03,5.61E-03
146717,7.09E-03,5.64E-03
146718,9.21E-03,5.58E-03
146719,7.00E-03,5.65E-03
146720,7.02E-03,5.56E-03
146721,7.03E-03,5.66E-03
146722,7.53E-03,5.52E-03
146723,6.72E-03,5.64E-03
146724,6.50E-03,5.64E-03
146725,7.56E-03,5.48E-03
146726,8.33E-03,5.43E-03
146727,7.49E-03,5.40E-03
146728,8.48E-03,5.31E-03
146729,9.81E-03,5.29E-03
146730,8.42E-03,5.29E-03
146731,8.28E-03,5.28E-03
146732,7.03E-03,5.27E-03
146733,7.71E-03,5.27E-03
146734,7.82E-03,5.26E-03
146735,7.69E-03,5.24E-03
146736,7.56E-03,5.22E-03
146737,7.19E-03,5.19E-03
146738,6.89E-03,5.14E-03
146739,6.90E-03,5.08E-03
146740,6.99E-03,4.99E-03
146741,6.99E-03,4.89E-03
146742,6.62E-03,5.64E-03
146743,6.35E-03,5.53E-03
146744,6.49E-03,5.37E-03
146745,6.94E-03,5.25E-03
146746,7.07E-03,5.12E-03
146747,6.98E-03,5.00E-03
146748,7.03E-03,4.87E-03
146749,7.12E-03,4.76E-03
146753,4.41E-03,1.90E-02
146754,7.10E-03,1.93E-02
146755,5.76E-03,1.89E-02
146756,4.19E-03,1.88E-02
146757,4.31E-03,1.86E-02
146758,8.58E-03,1.77E-02
146759,1.02E-02,1.77E-02
146760,1.07E-02,1.78E-02
146761,9.44E-03,1.77E-02
146762,1.17E-02,1.77E-02
146763,7.08E-03,1.83E-02
146764,7.56E-03,1.84E-02
146765,7.93E-03,1.82E-02
146766,4.29E-03,1.82E-02
146767,6.08E-03,1.85E-02
146768,4.31E-03,1.84E-02
146769,3.80E-03,1.82E-02
146770,9.02E-03,2.02E-02
146771,7.84E-03,2.05E-02
146772,8.67E-03,1.73E-02
146773,9.05E-03,1.77E-02
146774,8.58E-03,1.77E-02
146775,8.44E-03,1.73E-02
146776,8.23E-03,1.78E-02
146777,8.26E-03,1.75E-02
146778,8.00E-03,1.79E-02
146779,8.17E-03,1.77E-02
146780,8.19E-03,1.82E-02
146781,8.77E-03,1.80E-02
146782,8.19E-03,1.72E-02
146783,7.04E-03,1.72E-02
146784,5.95E-03,1.84E-02
146785,5.83E-03,1.86E-02
146786,7.32E-03,1.82E-02
146787,7.74E-03,1.81E-02
146788,8.18E-03,1.79E-02
146789,8.56E-03,1.79E-02
146790,9.14E-03,1.78E-02
146791,6.80E-03,1.82E-02
146792,7.36E-03,1.81E-02
146793,8.04E-03,1.80E-02
146794,8.48E-03,1.80E-02
146795,8.95E-03,1.79E-02
146796,9.24E-03,1.78E-02
146797,7.67E-03,1.76E-02
146798,6.91E-03,1.76E-02
146799,7.79E-03,1.72E-02
146800,7.08E-03,1.67E-02
146801,6.93E-03,1.65E-02
146802,7.82E-03,1.65E-02
146803,8.20E-03,1.67E-02
146804,8.26E-03,1.69E-02
146805,8.18E-03,1.71E-02
146806,8.09E-03,1.74E-02
146807,7.79E-03,1.76E-02
146808,7.18E-03,1.79E-02
146809,6.29E-03,1.82E-02
146810,5.63E-03,1.86E-02
146811,6.08E-03,1.92E-02
146812,6.06E-03,1.87E-02
146813,6.46E-03,1.86E-02
146814,4.91E-03,1.95E-02
146815,4.75E-03,1.98E-02
146816,5.96E-03,1.92E-02
146817,6.63E-03,1.96E-02
146818,7.43E-03,2.01E-02
146819,1.11E-02,1.77E-02
146820,9.64E-03,1.77E-02
146821,5.76E-03,1.78E-02
146822,4.65E-03,1.83E-02
146823,6.22E-03,1.87E-02
146824,6.61E-03,1.81E-02
146825,7.20E-03,1.76E-02
146826,7.63E-03,1.73E-02
146827,7.91E-03,1.69E-02
146828,8.08E-03,1.66E-02
146829,8.11E-03,1.62E-02
146830,8.02E-03,1.60E-02
146831,7.85E-03,1.58E-02
146832,7.67E-03,1.58E-02
146833,7.66E-03,1.59E-02
146834,7.44E-03,1.62E-02
146835,7.12E-03,1.71E-02
146836,6.76E-03,1.87E-02
146837,6.97E-03,1.97E-02
146838,6.19E-03,1.94E-02
146839,6.13E-03,1.91E-02
146840,6.42E-03,1.88E-02
146841,6.58E-03,1.87E-02
146842,6.33E-03,1.86E-02
146843,6.56E-03,1.85E-02
146844,7.05E-03,1.82E-02
146845,6.55E-03,1.81E-02
146846,7.27E-03,1.81E-02
146847,7.82E-03,1.80E-02
146848,8.20E-03,1.79E-02
146849,8.49E-03,1.79E-02
146850,8.47E-03,1.78E-02
146851,8.11E-03,1.76E-02
146865,1.04E-02,5.17E-03
146866,1.07E-02,5.19E-03
146867,4.30E-03,5.16E-03
146868,6.31E-03,5.23E-03
146869,5.37E-03,5.23E-03
146870,4.14E-03,5.17E-03
146871,3.69E-03,5.10E-03
146872,7.88E-03,1.42E-03
146873,7.41E-03,1.49E-03
146874,8.91E-03,3.42E-03
146875,8.04E-03,3.39E-03
146876,8.14E-03,3.46E-03
146877,7.23E-03,3.94E-03
146878,6.06E-03,3.99E-03
146879,9.34E-03,4.09E-03
146880,8.27E-03,4.03E-03
146881,9.63E-03,4.85E-03
146882,8.90E-03,4.80E-03
146883,8.30E-03,4.85E-03
146884,5.54E-03,4.26E-03
146885,6.44E-03,4.33E-03
146886,5.65E-03,4.31E-03
146887,5.27E-03,4.56E-03
146888,6.13E-03,4.62E-03
146889,5.60E-03,4.60E-03
146890,5.38E-03,4.96E-03
146891,6.24E-03,5.01E-03
146892,5.48E-03,5.02E-03
146893,5.48E-03,5.08E-03
146894,5.38E-03,5.15E-03
146895,5.62E-03,2.27E-03
146896,6.28E-03,2.29E-03
146897,6.31E-03,2.30E-03
146898,9.40E-03,4.79E-04
146899,9.59E-03,4.70E-04
146900,6.73E-03,1.99E-03
146901,5.14E-03,1.97E-03
146902,5.32E-03,1.92E-03
146903,7.73E-03,1.94E-03
146904,7.27E-03,4.69E-03
146905,7.71E-03,4.67E-03
146906,7.72E-03,4.60E-03
146907,7.13E-03,4.63E-03
146908,7.93E-03,1.88E-03
146909,7.53E-03,1.83E-03
146910,7.39E-03,1.79E-03
146911,7.20E-03,1.74E-03
146912,6.15E-03,1.70E-03
146913,6.15E-03,2.02E-03
146914,6.34E-03,2.05E-03
146915,4.24E-03,2.07E-03
146916,6.02E-03,2.08E-03
146917,7.26E-03,1.66E-03
146918,6.60E-03,1.60E-03
146919,7.06E-03,1.54E-03
146920,6.45E-03,1.54E-03
146921,6.53E-03,1.59E-03
146922,6.66E-03,1.64E-03
146923,5.27E-03,1.68E-03
146924,5.20E-03,1.73E-03
146925,6.39E-03,1.77E-03
146926,6.80E-03,1.80E-03
146927,6.96E-03,1.84E-03
146928,6.33E-03,1.88E-03
146929,4.92E-03,1.91E-03
146930,4.21E-03,1.94E-03
146931,5.42E-03,1.96E-03
146932,4.84E-03,1.98E-03
146933,3.69E-03,2.01E-03
146934,4.39E-03,2.03E-03
146935,5.09E-03,2.04E-03
146936,4.62E-03,2.06E-03
146937,3.28E-03,2.07E-03
146938,3.52E-03,2.10E-03
146939,4.75E-03,2.11E-03
146940,6.48E-03,2.12E-03
146941,7.06E-03,2.14E-03
146942,6.16E-03,2.17E-03
146943,4.92E-03,2.19E-03
146944,6.85E-03,2.18E-03
146945,6.78E-03,2.16E-03
146946,7.60E-03,2.13E-03
146947,7.43E-03,2.09E-03
146948,7.12E-03,2.06E-03
146949,7.60E-03,2.03E-03
146950,7.21E-03,2.00E-03
146951,8.44E-03,1.96E-03
146952,9.76E-03,1.92E-03
146953,9.02E-03,1.87E-03
146954,8.09E-03,1.82E-03
146955,7.98E-03,1.78E-03
146956,8.63E-03,1.72E-03
146957,8.42E-03,1.66E-03
146958,7.33E-03,1.60E-03
146959,7.10E-03,1.54E-03
146960,6.17E-03,1.53E-03
146961,6.44E-03,1.58E-03
146962,6.36E-03,1.63E-03
146963,6.25E-03,1.68E-03
146964,6.17E-03,1.72E-03
146965,6.15E-03,1.77E-03
146966,6.53E-03,1.81E-03
146967,6.54E-03,1.84E-03
146968,5.98E-03,1.88E-03
146969,5.76E-03,1.91E-03
146970,5.16E-03,1.94E-03
146971,5.20E-03,1.97E-03
146972,5.35E-03,1.99E-03
146973,4.26E-03,2.02E-03
146974,3.99E-03,2.04E-03
146975,4.35E-03,2.05E-03
146976,4.26E-03,2.07E-03
146977,4.24E-03,2.08E-03
146978,4.76E-03,2.11E-03
146979,5.09E-03,2.13E-03
146980,5.75E-03,2.14E-03
146981,6.26E-03,2.16E-03
146982,5.85E-03,2.18E-03
146983,6.72E-03,2.20E-03
146984,6.85E-03,2.21E-03
146985,7.19E-03,2.23E-03
146986,8.57E-03,2.22E-03
146987,7.41E-03,2.24E-03
146988,7.38E-03,2.25E-03
146989,7.34E-03,2.27E-03
146990,8.64E-03,2.32E-03
146991,7.28E-03,1.48E-03
146992,7.16E-03,1.48E-03
146993,7.86E-03,2.41E-03
146994,8.85E-03,2.38E-03
146995,8.67E-03,2.34E-03
146996,7.57E-03,2.31E-03
146997,7.36E-03,2.29E-03
146998,7.48E-03,2.26E-03
146999,7.71E-03,2.23E-03
147000,8.97E-03,2.20E-03
147001,8.78E-03,2.17E-03
147002,7.70E-03,2.14E-03
147003,7.67E-03,2.11E-03
147004,7.63E-03,2.08E-03
147005,7.66E-03,2.05E-03
147006,7.66E-03,2.01E-03
147007,7.84E-03,1.98E-03
147008,8.29E-03,1.94E-03
147009,8.54E-03,1.90E-03
147010,8.55E-03,1.86E-03
147011,8.35E-03,1.81E-03
147012,8.27E-03,1.76E-03
147013,8.18E-03,1.71E-03
147014,7.86E-03,1.65E-03
147015,7.43E-03,1.60E-03
147016,6.91E-03,1.54E-03
147017,6.96E-03,1.48E-03
147018,7.48E-03,1.42E-03
147019,7.57E-03,1.42E-03
147020,7.46E-03,1.41E-03
147021,7.84E-03,2.49E-03
147022,7.20E-03,2.53E-03
147023,8.69E-03,2.46E-03
147024,8.59E-03,2.42E-03
147025,7.96E-03,2.39E-03
147026,8.33E-03,2.36E-03
147027,8.31E-03,2.33E-03
147028,7.97E-03,2.31E-03
147029,7.75E-03,2.28E-03
147030,7.82E-03,2.25E-03
147031,8.01E-03,2.22E-03
147032,8.26E-03,2.19E-03
147033,8.28E-03,2.16E-03
147034,8.04E-03,2.13E-03
147035,7.85E-03,2.10E-03
147036,7.75E-03,2.07E-03
147037,7.75E-03,2.03E-03
147038,7.86E-03,2.00E-03
147039,7.93E-03,1.96E-03
147040,8.19E-03,1.93E-03
147041,8.28E-03,1.89E-03
147042,8.36E-03,1.84E-03
147043,8.30E-03,1.80E-03
147044,8.25E-03,1.75E-03
147045,8.13E-03,1.69E-03
147046,7.85E-03,1.64E-03
147047,7.64E-03,1.59E-03
147048,7.18E-03,1.54E-03
147049,5.56E-03,1.49E-03
147050,7.07E-03,1.42E-03
147051,7.45E-03,1.48E-03
147052,6.25E-03,1.54E-03
147053,6.52E-03,1.58E-03
147054,6.62E-03,1.63E-03
147055,6.59E-03,1.68E-03
147056,6.58E-03,1.73E-03
147057,6.38E-03,1.77E-03
147058,6.44E-03,1.81E-03
147059,6.34E-03,1.84E-03
147060,6.11E-03,1.88E-03
147061,5.87E-03,1.91E-03
147062,5.61E-03,1.94E-03
147063,5.50E-03,1.97E-03
147064,5.50E-03,2.00E-03
147065,4.74E-03,2.02E-03
147066,4.27E-03,2.04E-03
147067,4.40E-03,2.06E-03
147068,4.37E-03,2.08E-03
147069,4.35E-03,2.10E-03
147070,5.09E-03,2.12E-03
147071,5.24E-03,2.14E-03
147072,5.58E-03,2.16E-03
147073,6.07E-03,2.17E-03
147074,6.07E-03,2.19E-03
147075,7.37E-03,2.21E-03
147076,7.28E-03,2.24E-03
147077,7.45E-03,2.26E-03
147078,7.58E-03,2.28E-03
147079,8.60E-03,2.31E-03
147080,8.74E-03,2.33E-03
147081,9.02E-03,2.36E-03
147082,8.99E-03,2.39E-03
147083,7.71E-03,2.41E-03
147084,9.09E-03,2.44E-03
147085,9.04E-03,2.47E-03
147086,9.21E-03,2.50E-03
147087,7.15E-03,2.53E-03
147088,7.68E-03,2.56E-03
147089,1.02E-02,2.59E-03
147090,8.68E-03,2.63E-03
147091,8.10E-03,2.67E-03
147092,7.73E-03,2.71E-03
147093,6.97E-03,2.75E-03
147094,6.28E-03,2.80E-03
147095,8.26E-03,1.41E-03
147096,6.86E-03,1.46E-03
147097,7.43E-03,1.51E-03
147098,7.74E-03,1.57E-03
147099,7.84E-03,1.63E-03
147100,8.05E-03,1.68E-03
147101,8.17E-03,1.73E-03
147102,8.14E-03,1.78E-03
147103,8.19E-03,1.83E-03
147104,8.12E-03,1.87E-03
147105,8.12E-03,1.91E-03
147106,7.96E-03,1.95E-03
147107,7.94E-03,1.98E-03
147108,7.90E-03,2.02E-03
147109,7.98E-03,2.05E-03
147110,8.04E-03,2.08E-03
147111,8.13E-03,2.12E-03
147112,8.30E-03,2.15E-03
147113,8.21E-03,2.17E-03
147114,8.05E-03,2.20E-03
147115,8.02E-03,2.23E-03
147116,8.12E-03,2.26E-03
147117,8.18E-03,2.29E-03
147118,8.23E-03,2.32E-03
147119,8.31E-03,2.35E-03
147120,8.33E-03,2.38E-03
147121,8.38E-03,2.41E-03
147122,8.46E-03,2.45E-03
147123,8.39E-03,2.48E-03
147124,9.07E-03,2.52E-03
147125,9.94E-03,2.56E-03
147126,9.11E-03,2.61E-03
147127,8.61E-03,2.65E-03
147128,8.87E-03,2.69E-03
147129,8.72E-03,2.74E-03
147130,6.63E-03,2.78E-03
147131,5.98E-03,2.82E-03
147132,8.36E-03,2.85E-03
147133,5.30E-03,2.90E-03
147134,7.53E-03,2.92E-03
147135,7.80E-03,1.40E-03
147136,7.29E-03,1.47E-03
147137,7.01E-03,1.53E-03
147138,6.79E-03,1.58E-03
147139,6.84E-03,1.63E-03
147140,6.81E-03,1.68E-03
147141,6.75E-03,1.72E-03
147142,6.54E-03,1.77E-03
147143,6.51E-03,1.81E-03
147144,6.33E-03,1.84E-03
147145,6.25E-03,1.88E-03
147146,6.04E-03,1.91E-03
147147,5.93E-03,1.94E-03
147148,5.78E-03,1.97E-03
147149,5.52E-03,2.00E-03
147150,4.96E-03,2.03E-03
147151,4.66E-03,2.05E-03
147152,4.67E-03,2.07E-03
147153,4.58E-03,2.09E-03
147154,4.43E-03,2.11E-03
147155,5.16E-03,2.13E-03
147156,5.37E-03,2.15E-03
147157,5.77E-03,2.17E-03
147158,6.22E-03,2.19E-03
147159,6.60E-03,2.21E-03
147160,7.06E-03,2.23E-03
147161,7.55E-03,2.25E-03
147162,7.54E-03,2.28E-03
147163,7.85E-03,2.30E-03
147164,8.10E-03,2.32E-03
147165,8.64E-03,2.35E-03
147166,8.75E-03,2.38E-03
147167,8.61E-03,2.40E-03
147168,8.73E-03,2.43E-03
147169,8.77E-03,2.46E-03
147170,8.92E-03,2.48E-03
147171,8.61E-03,2.51E-03
147172,8.64E-03,2.54E-03
147173,8.23E-03,2.58E-03
147174,8.62E-03,2.61E-03
147175,8.53E-03,2.64E-03
147176,8.27E-03,2.68E-03
147177,7.97E-03,2.72E-03
147178,7.84E-03,2.76E-03
147179,8.83E-03,2.81E-03
147180,9.73E-03,2.86E-03
147181,8.69E-03,2.91E-03
147182,6.79E-03,2.96E-03
147183,7.36E-03,2.95E-03
147184,6.18E-03,3.00E-03
147185,6.73E-03,2.99E-03
147186,4.63E-03,3.04E-03
147187,5.96E-03,3.04E-03
147188,5.46E-03,3.08E-03
147189,7.61E-03,3.11E-03
147190,6.55E-03,3.15E-03
147191,9.37E-03,1.35E-03
147192,8.02E-03,1.35E-03
147193,7.91E-03,1.35E-03
147194,8.17E-03,1.35E-03
147195,8.26E-03,1.35E-03
147196,8.23E-03,1.34E-03
147197,8.05E-03,1.34E-03
147198,6.56E-03,3.29E-03
147199,7.89E-03,3.24E-03
147200,8.09E-03,3.19E-03
147201,7.17E-03,3.13E-03
147202,8.29E-03,3.09E-03
147203,8.30E-03,3.04E-03
147204,7.49E-03,2.99E-03
147205,7.85E-03,2.94E-03
147206,8.27E-03,2.90E-03
147207,8.53E-03,2.86E-03
147208,8.43E-03,2.82E-03
147209,8.30E-03,2.77E-03
147210,8.21E-03,2.73E-03
147211,8.31E-03,2.69E-03
147212,8.35E-03,2.66E-03
147213,8.44E-03,2.62E-03
147214,8.39E-03,2.59E-03
147215,8.79E-03,2.56E-03
147216,8.79E-03,2.52E-03
147217,8.85E-03,2.50E-03
147218,8.87E-03,2.47E-03
147219,8.78E-03,2.44E-03
147220,8.77E-03,2.41E-03
147221,8.66E-03,2.39E-03
147222,8.75E-03,2.36E-03
147223,8.60E-03,2.34E-03
147224,8.15E-03,2.31E-03
147225,7.70E-03,2.29E-03
147226,7.68E-03,2.27E-03
147227,7.09E-03,2.24E-03
147228,6.81E-03,2.22E-03
147229,6.30E-03,2.20E-03
147230,5.98E-03,2.18E-03
147231,5.64E-03,2.16E-03
147232,5.10E-03,2.14E-03
147233,4.71E-03,2.12E-03
147234,4.80E-03,2.10E-03
147235,4.84E-03,2.08E-03
147236,5.05E-03,2.05E-03
147237,5.23E-03,2.03E-03
147238,5.65E-03,2.01E-03
147239,5.97E-03,1.98E-03
147240,6.12E-03,1.95E-03
147241,6.22E-03,1.91E-03
147242,6.37E-03,1.88E-03
147243,6.51E-03,1.84E-03
147244,6.62E-03,1.81E-03
147245,6.69E-03,1.77E-03
147246,6.95E-03,1.72E-03
147247,7.02E-03,1.68E-03
147248,6.99E-03,1.63E-03
147249,7.10E-03,1.58E-03
147250,7.39E-03,1.52E-03
147251,7.51E-03,1.46E-03
147252,7.74E-03,1.40E-03
147253,7.91E-03,1.33E-03
147254,8.83E-03,1.27E-03
147255,8.58E-03,1.27E-03
147256,8.29E-03,1.27E-03
147257,8.29E-03,1.27E-03
147258,8.30E-03,1.27E-03
147259,8.36E-03,1.27E-03
147260,8.24E-03,1.27E-03
147261,8.06E-03,1.26E-03
147262,6.63E-03,3.34E-03
147263,6.73E-03,3.30E-03
147264,7.81E-03,3.26E-03
147265,7.57E-03,3.21E-03
147266,6.43E-03,3.17E-03
147267,6.45E-03,3.13E-03
147268,6.22E-03,3.09E-03
147269,6.02E-03,3.05E-03
147270,5.91E-03,3.01E-03
147271,6.39E-03,2.97E-03
147272,5.92E-03,2.94E-03
147273,4.43E-03,2.92E-03
147274,4.90E-03,2.88E-03
147275,5.92E-03,2.85E-03
147276,6.15E-03,2.82E-03
147277,8.22E-03,2.77E-03
147278,8.25E-03,2.73E-03
147279,8.66E-03,2.69E-03
147280,8.91E-03,2.64E-03
147281,9.08E-03,2.60E-03
147282,9.20E-03,2.55E-03
147283,8.82E-03,2.51E-03
147284,8.64E-03,2.47E-03
147285,8.50E-03,2.44E-03
147286,8.37E-03,2.40E-03
147287,8.37E-03,2.37E-03
147288,8.33E-03,2.34E-03
147289,8.28E-03,2.31E-03
147290,8.25E-03,2.28E-03
147291,8.29E-03,2.25E-03
147292,8.32E-03,2.22E-03
147293,8.29E-03,2.19E-03
147294,8.28E-03,2.16E-03
147295,8.28E-03,2.13E-03
147296,8.27E-03,2.10E-03
147297,8.15E-03,2.07E-03
147298,8.10E-03,2.04E-03
147299,8.09E-03,2.00E-03
147300,8.07E-03,1.97E-03
147301,8.03E-03,1.93E-03
147302,8.01E-03,1.90E-03
147303,8.04E-03,1.86E-03
147304,8.13E-03,1.82E-03
147305,8.11E-03,1.77E-03
147306,8.07E-03,1.72E-03
147307,7.99E-03,1.67E-03
147308,7.89E-03,1.62E-03
147309,7.95E-03,1.56E-03
147310,7.95E-03,1.50E-03
147311,9.19E-03,1.43E-03
147312,9.57E-03,1.36E-03
147313,8.79E-03,1.27E-03
147314,6.57E-03,3.56E-03
147315,7.34E-03,3.51E-03
147316,8.11E-03,3.34E-03
147317,6.96E-03,3.27E-03
147318,7.69E-03,3.22E-03
147319,7.76E-03,3.18E-03
147320,7.91E-03,3.13E-03
147321,7.89E-03,3.08E-03
147322,7.97E-03,3.03E-03
147323,7.98E-03,2.99E-03
147324,8.01E-03,2.94E-03
147325,8.14E-03,2.90E-03
147326,8.33E-03,2.86E-03
147327,8.25E-03,2.82E-03
147328,8.28E-03,2.78E-03
147329,8.34E-03,2.74E-03
147330,8.29E-03,2.70E-03
147331,8.33E-03,2.67E-03
147332,8.40E-03,2.64E-03
147333,8.45E-03,2.60E-03
147334,8.75E-03,2.57E-03
147335,8.78E-03,2.54E-03
147336,8.83E-03,2.51E-03
147337,8.84E-03,2.48E-03
147338,8.78E-03,2.45E-03
147339,8.81E-03,2.43E-03
147340,8.69E-03,2.40E-03
147341,8.65E-03,2.38E-03
147342,8.55E-03,2.35E-03
147343,8.27E-03,2.33E-03
147344,7.99E-03,2.30E-03
147345,7.75E-03,2.28E-03
147346,7.38E-03,2.25E-03
147347,6.99E-03,2.23E-03
147348,6.37E-03,2.21E-03
147349,6.00E-03,2.19E-03
147350,5.88E-03,2.17E-03
147351,5.13E-03,2.15E-03
147352,5.02E-03,2.12E-03
147353,5.08E-03,2.10E-03
147354,5.18E-03,2.08E-03
147355,5.46E-03,2.06E-03
147356,5.56E-03,2.03E-03
147357,5.77E-03,2.01E-03
147358,6.05E-03,1.98E-03
147359,6.27E-03,1.95E-03
147360,6.35E-03,1.92E-03
147361,6.57E-03,1.88E-03
147362,6.68E-03,1.84E-03
147363,6.79E-03,1.81E-03
147364,6.85E-03,1.76E-03
147365,7.05E-03,1.72E-03
147366,7.14E-03,1.67E-03
147367,7.22E-03,1.63E-03
147368,7.27E-03,1.57E-03
147369,7.47E-03,1.52E-03
147370,7.58E-03,1.46E-03
147371,7.75E-03,1.39E-03
147372,7.88E-03,1.33E-03
147373,8.00E-03,1.26E-03
147374,7.84E-03,3.68E-03
147375,7.04E-03,3.71E-03
147376,7.95E-03,3.63E-03
147377,7.00E-03,3.59E-03
147378,7.49E-03,3.55E-03
147379,7.94E-03,3.50E-03
147380,8.06E-03,3.46E-03
147381,7.80E-03,3.42E-03
147382,7.59E-03,3.37E-03
147383,7.38E-03,3.33E-03
147384,7.36E-03,3.28E-03
147385,7.19E-03,3.24E-03
147386,6.87E-03,3.19E-03
147387,6.48E-03,3.15E-03
147388,6.61E-03,3.11E-03
147389,6.58E-03,3.06E-03
147390,6.35E-03,3.02E-03
147391,6.19E-03,2.99E-03
147392,5.67E-03,2.95E-03
147393,5.45E-03,2.92E-03
147394,5.63E-03,2.88E-03
147395,5.82E-03,2.85E-03
147396,5.90E-03,2.82E-03
147397,8.37E-03,2.77E-03
147398,8.52E-03,2.72E-03
147399,8.52E-03,2.68E-03
147400,8.99E-03,2.63E-03
147401,9.03E-03,2.58E-03
147402,8.90E-03,2.54E-03
147403,8.73E-03,2.50E-03
147404,8.55E-03,2.46E-03
147405,8.46E-03,2.42E-03
147406,8.37E-03,2.39E-03
147407,8.38E-03,2.36E-03
147408,8.37E-03,2.32E-03
147409,8.40E-03,2.29E-03
147410,8.36E-03,2.26E-03
147411,8.33E-03,2.23E-03
147412,8.29E-03,2.20E-03
147413,8.26E-03,2.17E-03
147414,8.25E-03,2.14E-03
147415,8.26E-03,2.11E-03
147416,8.25E-03,2.08E-03
147417,8.21E-03,2.05E-03
147418,8.15E-03,2.02E-03
147419,8.10E-03,1.99E-03
147420,8.06E-03,1.95E-03
147421,8.03E-03,1.92E-03
147422,8.01E-03,1.88E-03
147423,8.02E-03,1.84E-03
147424,8.04E-03,1.80E-03
147425,8.03E-03,1.76E-03
147426,8.01E-03,1.71E-03
147427,7.99E-03,1.66E-03
147428,7.98E-03,1.60E-03
147429,8.13E-03,1.54E-03
147430,8.36E-03,1.48E-03
147431,8.61E-03,1.41E-03
147432,8.80E-03,1.34E-03
147433,8.75E-03,1.27E-03
147434,8.52E-03,1.18E-03
147435,8.65E-03,1.19E-03
147436,8.66E-03,1.19E-03
147437,8.54E-03,1.19E-03
147438,8.37E-03,1.19E-03
147439,8.25E-03,1.19E-03
147440,8.24E-03,1.19E-03
147441,8.21E-03,1.19E-03
147442,8.23E-03,1.19E-03
147443,8.19E-03,1.19E-03
147444,8.18E-03,1.19E-03
147445,8.32E-03,3.82E-03
147446,8.76E-03,3.76E-03
147447,7.84E-03,3.71E-03
147448,7.77E-03,3.67E-03
147449,7.70E-03,3.63E-03
147450,7.63E-03,3.58E-03
147451,7.82E-03,3.54E-03
147452,7.92E-03,3.50E-03
147453,7.83E-03,3.45E-03
147454,7.68E-03,3.40E-03
147455,7.53E-03,3.35E-03
147456,7.46E-03,3.31E-03
147457,7.34E-03,3.26E-03
147458,7.14E-03,3.22E-03
147459,7.00E-03,3.17E-03
147460,6.83E-03,3.13E-03
147461,6.69E-03,3.08E-03
147462,6.52E-03,3.04E-03
147463,6.26E-03,3.00E-03
147464,6.05E-03,2.97E-03
147465,5.96E-03,2.93E-03
147466,6.02E-03,2.89E-03
147467,6.09E-03,2.85E-03
147468,6.10E-03,2.81E-03
147469,8.07E-03,2.77E-03
147470,8.57E-03,2.72E-03
147471,8.60E-03,2.67E-03
147472,8.98E-03,2.62E-03
147473,8.96E-03,2.57E-03
147474,8.85E-03,2.53E-03
147475,8.73E-03,2.49E-03
147476,8.62E-03,2.45E-03
147477,8.53E-03,2.41E-03
147478,8.47E-03,2.37E-03
147479,8.43E-03,2.34E-03
147480,8.40E-03,2.31E-03
147481,8.36E-03,2.27E-03
147482,8.33E-03,2.24E-03
147483,8.30E-03,2.21E-03
147484,8.27E-03,2.18E-03
147485,8.24E-03,2.15E-03
147486,8.23E-03,2.12E-03
147487,8.24E-03,2.09E-03
147488,8.23E-03,2.06E-03
147489,8.19E-03,2.03E-03
147490,8.14E-03,2.00E-03
147491,8.10E-03,1.97E-03
147492,8.06E-03,1.94E-03
147493,8.03E-03,1.90E-03
147494,8.02E-03,1.86E-03
147495,8.03E-03,1.83E-03
147496,8.04E-03,1.78E-03
147497,8.03E-03,1.74E-03
147498,8.02E-03,1.69E-03
147499,8.00E-03,1.64E-03
147500,7.98E-03,1.59E-03
147501,8.18E-03,1.53E-03
147502,8.25E-03,1.47E-03
147503,8.34E-03,1.40E-03
147504,8.36E-03,1.33E-03
147505,8.35E-03,1.25E-03
147506,8.27E-03,1.17E-03
147507,8.20E-03,1.08E-03
147508,8.32E-03,1.09E-03
147509,8.44E-03,1.10E-03
147510,8.44E-03,1.10E-03
147511,8.40E-03,1.10E-03
147512,8.31E-03,1.11E-03
147513,8.21E-03,1.11E-03
147514,8.25E-03,1.11E-03
147515,8.32E-03,1.11E-03
147516,8.33E-03,1.11E-03
147517,8.37E-03,1.11E-03
147518,8.29E-03,1.11E-03
147519,8.21E-03,1.11E-03
147520,8.12E-03,1.19E-03
147521,7.99E-03,1.26E-03
147522,7.92E-03,1.32E-03
147523,7.79E-03,1.39E-03
147524,7.65E-03,1.45E-03
147525,7.52E-03,1.51E-03
147526,7.35E-03,1.57E-03
147527,7.30E-03,1.62E-03
147528,7.24E-03,1.67E-03
147529,7.16E-03,1.72E-03
147530,7.02E-03,1.76E-03
147531,6.95E-03,1.80E-03
147532,6.84E-03,1.84E-03
147533,6.77E-03,1.88E-03
147534,6.49E-03,1.92E-03
147535,6.51E-03,1.95E-03
147536,6.25E-03,1.98E-03
147537,6.02E-03,2.01E-03
147538,5.87E-03,2.04E-03
147539,5.65E-03,2.06E-03
147540,5.48E-03,2.09E-03
147541,5.39E-03,2.11E-03
147542,5.34E-03,2.13E-03
147543,5.36E-03,2.15E-03
147544,5.90E-03,2.17E-03
147545,6.18E-03,2.20E-03
147546,6.63E-03,2.22E-03
147547,7.04E-03,2.24E-03
147548,7.49E-03,2.26E-03
147549,7.85E-03,2.29E-03
147550,8.12E-03,2.31E-03
147551,8.31E-03,2.34E-03
147552,8.49E-03,2.36E-03
147553,8.59E-03,2.39E-03
147554,8.70E-03,2.41E-03
147555,8.81E-03,2.44E-03
147556,8.93E-03,2.47E-03
147557,8.96E-03,2.49E-03
147558,8.87E-03,2.52E-03
147559,8.85E-03,2.55E-03
147560,8.68E-03,2.58E-03
147561,8.48E-03,2.61E-03
147562,8.44E-03,2.64E-03
147563,8.35E-03,2.68E-03
147564,8.29E-03,2.71E-03
147565,8.34E-03,2.75E-03
147566,8.34E-03,2.78E-03
147567,8.32E-03,2.82E-03
147568,8.30E-03,2.86E-03
147569,8.20E-03,2.90E-03
147570,8.08E-03,2.94E-03
147571,8.00E-03,2.98E-03
147572,7.98E-03,3.03E-03
147573,7.91E-03,3.07E-03
147574,7.88E-03,3.12E-03
147575,7.91E-03,3.16E-03
147576,7.85E-03,3.21E-03
147577,8.15E-03,3.26E-03
147578,1.00E-02,3.33E-03
147579,9.36E-03,3.38E-03
147580,8.25E-03,3.43E-03
147581,7.44E-03,3.48E-03
147582,6.49E-03,3.52E-03
147583,8.02E-03,3.58E-03
147584,7.80E-03,3.63E-03
147585,6.11E-03,3.67E-03
147586,6.88E-03,3.72E-03
147587,8.77E-03,3.78E-03
147588,8.45E-03,3.85E-03
147589,8.47E-03,3.90E-03
147590,7.07E-03,4.05E-03
147591,6.20E-03,4.03E-03
147592,7.65E-03,3.99E-03
147593,8.47E-03,3.94E-03
147594,8.43E-03,3.90E-03
147595,7.33E-03,3.85E-03
147596,7.97E-03,3.81E-03
147597,8.01E-03,3.76E-03
147598,7.85E-03,3.72E-03
147599,7.76E-03,3.67E-03
147600,7.74E-03,3.63E-03
147601,7.82E-03,3.58E-03
147602,7.88E-03,3.53E-03
147603,7.83E-03,3.49E-03
147604,7.75E-03,3.44E-03
147605,7.64E-03,3.39E-03
147606,7.50E-03,3.34E-03
147607,7.51E-03,3.29E-03
147608,7.26E-03,3.24E-03
147609,7.15E-03,3.20E-03
147610,6.99E-03,3.15E-03
147611,6.84E-03,3.11E-03
147612,6.64E-03,3.06E-03
147613,6.53E-03,3.02E-03
147614,6.27E-03,2.98E-03
147615,6.20E-03,2.94E-03
147616,6.31E-03,2.89E-03
147617,6.35E-03,2.85E-03
147618,6.57E-03,2.81E-03
147619,7.46E-03,2.76E-03
147620,8.65E-03,2.72E-03
147621,8.62E-03,2.66E-03
147622,8.91E-03,2.61E-03
147623,8.85E-03,2.57E-03
147624,8.75E-03,2.52E-03
147625,8.65E-03,2.48E-03
147626,8.55E-03,2.43E-03
147627,8.47E-03,2.40E-03
147628,8.42E-03,2.36E-03
147629,8.39E-03,2.32E-03
147630,8.36E-03,2.29E-03
147631,8.33E-03,2.25E-03
147632,8.29E-03,2.22E-03
147633,8.27E-03,2.19E-03
147634,8.24E-03,2.16E-03
147635,8.22E-03,2.13E-03
147636,8.21E-03,2.10E-03
147637,8.21E-03,2.07E-03
147638,8.21E-03,2.04E-03
147639,8.17E-03,2.01E-03
147640,8.13E-03,1.98E-03
147641,8.09E-03,1.95E-03
147642,8.06E-03,1.92E-03
147643,8.03E-03,1.88E-03
147644,8.02E-03,1.85E-03
147645,8.03E-03,1.81E-03
147646,8.04E-03,1.77E-03
147647,8.04E-03,1.72E-03
147648,8.02E-03,1.68E-03
147649,8.00E-03,1.63E-03
147650,7.99E-03,1.57E-03
147651,8.07E-03,1.51E-03
147652,8.20E-03,1.45E-03
147653,8.22E-03,1.38E-03
147654,8.29E-03,1.31E-03
147655,8.20E-03,1.24E-03
147656,8.11E-03,1.15E-03
147657,8.03E-03,1.07E-03
147658,7.94E-03,9.77E-04
147659,8.15E-03,9.89E-04
147660,8.33E-03,9.97E-04
147661,8.30E-03,1.00E-03
147662,8.29E-03,1.01E-03
147663,8.31E-03,1.01E-03
147664,8.25E-03,1.01E-03
147665,8.18E-03,1.02E-03
147666,8.17E-03,1.02E-03
147667,8.26E-03,1.02E-03
147668,8.27E-03,1.02E-03
147669,8.32E-03,1.03E-03
147670,8.30E-03,1.03E-03
147671,8.18E-03,1.03E-03
147672,8.15E-03,1.03E-03
147673,8.12E-03,1.11E-03
147674,8.09E-03,1.18E-03
147675,8.03E-03,1.25E-03
147676,7.91E-03,1.32E-03
147677,7.80E-03,1.39E-03
147678,7.71E-03,1.45E-03
147679,7.57E-03,1.51E-03
147680,7.43E-03,1.56E-03
147681,7.39E-03,1.62E-03
147682,7.33E-03,1.67E-03
147683,7.26E-03,1.71E-03
147684,7.19E-03,1.76E-03
147685,7.11E-03,1.80E-03
147686,7.01E-03,1.84E-03
147687,6.88E-03,1.88E-03
147688,6.71E-03,1.91E-03
147689,6.61E-03,1.95E-03
147690,6.44E-03,1.98E-03
147691,6.24E-03,2.01E-03
147692,6.10E-03,2.04E-03
147693,5.90E-03,2.06E-03
147694,5.78E-03,2.09E-03
147695,5.70E-03,2.11E-03
147696,5.66E-03,2.14E-03
147697,5.68E-03,2.16E-03
147698,5.94E-03,2.18E-03
147699,6.45E-03,2.20E-03
147700,6.82E-03,2.23E-03
147701,7.18E-03,2.25E-03
147702,7.63E-03,2.27E-03
147703,7.94E-03,2.30E-03
147704,8.19E-03,2.32E-03
147705,8.35E-03,2.35E-03
147706,8.44E-03,2.37E-03
147707,8.53E-03,2.40E-03
147708,8.62E-03,2.43E-03
147709,8.72E-03,2.45E-03
147710,8.82E-03,2.48E-03
147711,8.91E-03,2.50E-03
147712,8.82E-03,2.53E-03
147713,8.78E-03,2.56E-03
147714,8.62E-03,2.59E-03
147715,8.48E-03,2.62E-03
147716,8.50E-03,2.65E-03
147717,8.42E-03,2.69E-03
147718,8.38E-03,2.72E-03
147719,8.34E-03,2.75E-03
147720,8.31E-03,2.79E-03
147721,8.29E-03,2.82E-03
147722,8.27E-03,2.86E-03
147723,8.25E-03,2.90E-03
147724,8.23E-03,2.94E-03
147725,8.22E-03,2.98E-03
147726,8.20E-03,3.02E-03
147727,8.19E-03,3.06E-03
147728,8.10E-03,3.11E-03
147729,8.04E-03,3.15E-03
147730,8.19E-03,3.20E-03
147731,8.63E-03,3.25E-03
147732,8.73E-03,3.31E-03
147733,8.70E-03,3.35E-03
147734,8.27E-03,3.40E-03
147735,7.64E-03,3.45E-03
147736,7.65E-03,3.50E-03
147737,7.65E-03,3.55E-03
147738,7.60E-03,3.60E-03
147739,7.50E-03,3.65E-03
147740,7.59E-03,3.70E-03
147741,7.92E-03,3.75E-03
147742,8.03E-03,3.81E-03
147743,7.90E-03,3.86E-03
147744,7.59E-03,3.90E-03
147745,7.55E-03,3.96E-03
147746,8.17E-03,4.14E-03
147747,7.47E-03,4.18E-03
147748,6.64E-03,4.22E-03
147749,6.95E-03,4.27E-03
147750,7.65E-03,4.23E-03
147751,8.25E-03,4.19E-03
147752,9.47E-03,4.15E-03
147753,9.07E-03,4.11E-03
147754,7.71E-03,4.07E-03
147755,7.64E-03,4.03E-03
147756,8.05E-03,3.99E-03
147757,8.18E-03,3.94E-03
147758,7.99E-03,3.90E-03
147759,7.87E-03,3.86E-03
147760,8.00E-03,3.81E-03
147761,7.93E-03,3.76E-03
147762,7.83E-03,3.72E-03
147763,7.84E-03,3.67E-03
147764,7.87E-03,3.62E-03
147765,7.86E-03,3.57E-03
147766,7.84E-03,3.52E-03
147767,7.80E-03,3.47E-03
147768,7.75E-03,3.42E-03
147769,7.57E-03,3.37E-03
147770,7.53E-03,3.32E-03
147771,7.42E-03,3.27E-03
147772,7.27E-03,3.23E-03
147773,7.14E-03,3.18E-03
147774,7.00E-03,3.13E-03
147775,6.80E-03,3.08E-03
147776,6.73E-03,3.04E-03
147777,6.51E-03,2.99E-03
147778,6.42E-03,2.94E-03
147779,6.52E-03,2.90E-03
147780,6.61E-03,2.85E-03
147781,6.96E-03,2.81E-03
147782,7.24E-03,2.76E-03
147783,8.55E-03,2.71E-03
147784,8.65E-03,2.66E-03
147785,8.84E-03,2.61E-03
147786,8.75E-03,2.56E-03
147787,8.66E-03,2.51E-03
147788,8.57E-03,2.46E-03
147789,8.48E-03,2.42E-03
147790,8.41E-03,2.38E-03
147791,8.37E-03,2.34E-03
147792,8.34E-03,2.30E-03
147793,8.31E-03,2.27E-03
147794,8.29E-03,2.23E-03
147795,8.26E-03,2.20E-03
147796,8.24E-03,2.17E-03
147797,8.21E-03,2.14E-03
147798,8.19E-03,2.11E-03
147799,8.19E-03,2.08E-03
147800,8.19E-03,2.05E-03
147801,8.18E-03,2.02E-03
147802,8.16E-03,1.99E-03
147803,8.12E-03,1.96E-03
147804,8.08E-03,1.93E-03
147805,8.06E-03,1.90E-03
147806,8.03E-03,1.86E-03
147807,8.02E-03,1.83E-03
147808,8.03E-03,1.79E-03
147809,8.04E-03,1.75E-03
147810,8.04E-03,1.70E-03
147811,8.02E-03,1.66E-03
147812,8.01E-03,1.61E-03
147813,8.00E-03,1.55E-03
147814,7.99E-03,1.49E-03
147815,8.06E-03,1.43E-03
147816,8.10E-03,1.37E-03
147817,8.14E-03,1.29E-03
147818,8.10E-03,1.22E-03
147819,7.98E-03,1.14E-03
147820,7.86E-03,1.05E-03
147821,7.74E-03,9.61E-04
147822,7.56E-03,8.67E-04
147823,7.83E-03,8.79E-04
147824,8.03E-03,8.90E-04
147825,8.12E-03,8.98E-04
147826,8.15E-03,9.04E-04
147827,8.22E-03,9.09E-04
147828,8.21E-03,9.14E-04
147829,8.15E-03,9.18E-04
147830,8.15E-03,9.22E-04
147831,8.15E-03,9.26E-04
147832,8.20E-03,9.29E-04
147833,8.25E-03,9.33E-04
147834,8.27E-03,9.37E-04
147835,8.39E-03,9.41E-04
147836,8.37E-03,9.46E-04
147837,8.27E-03,9.50E-04
147838,8.19E-03,9.53E-04
147839,8.13E-03,1.03E-03
147840,8.14E-03,1.11E-03
147841,8.03E-03,1.18E-03
147842,7.95E-03,1.25E-03
147843,7.88E-03,1.32E-03
147844,7.79E-03,1.38E-03
147845,7.67E-03,1.44E-03
147846,7.55E-03,1.50E-03
147847,7.51E-03,1.56E-03
147848,7.48E-03,1.61E-03
147849,7.43E-03,1.66E-03
147850,7.37E-03,1.71E-03
147851,7.30E-03,1.75E-03
147852,7.23E-03,1.80E-03
147853,7.14E-03,1.84E-03
147854,7.04E-03,1.88E-03
147855,6.93E-03,1.91E-03
147856,6.84E-03,1.95E-03
147857,6.70E-03,1.98E-03
147858,6.51E-03,2.01E-03
147859,6.32E-03,2.04E-03
147860,6.18E-03,2.07E-03
147861,6.08E-03,2.09E-03
147862,6.01E-03,2.12E-03
147863,5.98E-03,2.14E-03
147864,5.99E-03,2.16E-03
147865,6.22E-03,2.19E-03
147866,6.66E-03,2.21E-03
147867,6.98E-03,2.23E-03
147868,7.30E-03,2.26E-03
147869,7.69E-03,2.28E-03
147870,7.95E-03,2.31E-03
147871,8.17E-03,2.33E-03
147872,8.31E-03,2.36E-03
147873,8.39E-03,2.38E-03
147874,8.46E-03,2.41E-03
147875,8.54E-03,2.43E-03
147876,8.63E-03,2.46E-03
147877,8.72E-03,2.49E-03
147878,8.80E-03,2.51E-03
147879,8.78E-03,2.54E-03
147880,8.66E-03,2.57E-03
147881,8.54E-03,2.60E-03
147882,8.48E-03,2.63E-03
147883,8.42E-03,2.66E-03
147884,8.37E-03,2.69E-03
147885,8.33E-03,2.72E-03
147886,8.30E-03,2.76E-03
147887,8.28E-03,2.79E-03
147888,8.26E-03,2.83E-03
147889,8.24E-03,2.86E-03
147890,8.22E-03,2.90E-03
147891,8.21E-03,2.94E-03
147892,8.19E-03,2.98E-03
147893,8.18E-03,3.02E-03
147894,8.17E-03,3.06E-03
147895,8.17E-03,3.10E-03
147896,8.16E-03,3.14E-03
147897,8.29E-03,3.19E-03
147898,8.40E-03,3.24E-03
147899,8.43E-03,3.28E-03
147900,8.37E-03,3.33E-03
147901,8.18E-03,3.38E-03
147902,7.96E-03,3.42E-03
147903,7.85E-03,3.47E-03
147904,7.69E-03,3.52E-03
147905,7.63E-03,3.57E-03
147906,7.68E-03,3.62E-03
147907,7.77E-03,3.67E-03
147908,7.87E-03,3.73E-03
147909,7.88E-03,3.77E-03
147910,7.81E-03,3.82E-03
147911,7.80E-03,3.87E-03
147912,7.99E-03,3.93E-03
147913,8.12E-03,3.99E-03
147914,8.23E-03,4.04E-03
147915,8.09E-03,4.09E-03
147916,7.61E-03,4.13E-03
147917,7.26E-03,4.18E-03
147918,7.27E-03,4.23E-03
147919,8.27E-03,4.31E-03
147920,8.91E-03,4.36E-03
147921,7.72E-03,4.40E-03
147922,6.95E-03,4.44E-03
147923,5.48E-03,4.47E-03
147924,6.57E-03,4.49E-03
147925,5.97E-03,4.42E-03
147926,7.07E-03,4.38E-03
147927,7.71E-03,4.34E-03
147928,7.96E-03,4.30E-03
147929,7.96E-03,4.25E-03
147930,7.92E-03,4.20E-03
147931,7.64E-03,4.14E-03
147932,7.71E-03,4.09E-03
147933,7.89E-03,4.04E-03
147934,8.08E-03,3.99E-03
147935,8.06E-03,3.95E-03
147936,7.99E-03,3.89E-03
147937,7.92E-03,3.84E-03
147938,7.90E-03,3.79E-03
147939,7.94E-03,3.74E-03
147940,7.97E-03,3.70E-03
147941,7.84E-03,3.65E-03
147942,7.84E-03,3.60E-03
147943,7.86E-03,3.55E-03
147944,7.87E-03,3.50E-03
147945,7.91E-03,3.45E-03
147946,7.98E-03,3.40E-03
147947,8.14E-03,3.36E-03
147948,8.24E-03,3.31E-03
147949,8.31E-03,3.27E-03
147950,8.32E-03,3.22E-03
147951,8.21E-03,3.18E-03
147952,8.15E-03,3.13E-03
147953,8.15E-03,3.09E-03
147954,8.15E-03,3.05E-03
147955,8.16E-03,3.01E-03
147956,8.17E-03,2.97E-03
147957,8.18E-03,2.93E-03
147958,8.19E-03,2.90E-03
147959,8.21E-03,2.86E-03
147960,8.22E-03,2.83E-03
147961,8.24E-03,2.79E-03
147962,8.26E-03,2.76E-03
147963,8.29E-03,2.73E-03
147964,8.32E-03,2.70E-03
147965,8.36E-03,2.66E-03
147966,8.41E-03,2.64E-03
147967,8.47E-03,2.61E-03
147968,8.56E-03,2.58E-03
147969,8.67E-03,2.55E-03
147970,8.68E-03,2.52E-03
147971,8.61E-03,2.50E-03
147972,8.54E-03,2.47E-03
147973,8.46E-03,2.44E-03
147974,8.40E-03,2.42E-03
147975,8.33E-03,2.39E-03
147976,8.27E-03,2.37E-03
147977,8.15E-03,2.34E-03
147978,7.97E-03,2.32E-03
147979,7.74E-03,2.29E-03
147980,7.41E-03,2.27E-03
147981,7.14E-03,2.24E-03
147982,6.87E-03,2.22E-03
147983,6.50E-03,2.19E-03
147984,6.31E-03,2.17E-03
147985,6.29E-03,2.14E-03
147986,6.32E-03,2.12E-03
147987,6.38E-03,2.09E-03
147988,6.47E-03,2.07E-03
147989,6.59E-03,2.04E-03
147990,6.74E-03,2.01E-03
147991,6.91E-03,1.98E-03
147992,7.02E-03,1.94E-03
147993,7.10E-03,1.91E-03
147994,7.19E-03,1.87E-03
147995,7.28E-03,1.83E-03
147996,7.36E-03,1.79E-03
147997,7.42E-03,1.75E-03
147998,7.47E-03,1.70E-03
147999,7.52E-03,1.66E-03
148000,7.56E-03,1.61E-03
148001,7.60E-03,1.55E-03
148002,7.62E-03,1.50E-03
148003,7.65E-03,1.44E-03
148004,7.75E-03,1.38E-03
148005,7.78E-03,1.32E-03
148006,7.94E-03,1.25E-03
148007,8.00E-03,1.18E-03
148008,8.08E-03,1.11E-03
148009,8.15E-03,1.03E-03
148010,8.17E-03,9.57E-04
148011,7.52E-03,7.66E-04
148012,7.75E-03,7.75E-04
148013,7.89E-03,7.85E-04
148014,7.98E-03,7.93E-04
148015,8.10E-03,8.00E-04
148016,8.11E-03,8.06E-04
148017,8.11E-03,8.12E-04
148018,8.12E-03,8.17E-04
148019,8.13E-03,8.23E-04
148020,8.12E-03,8.28E-04
148021,8.12E-03,8.34E-04
148022,8.18E-03,8.39E-04
148023,8.22E-03,8.45E-04
148024,8.25E-03,8.50E-04
148025,8.40E-03,8.57E-04
148026,8.36E-03,8.65E-04
148027,8.18E-03,8.70E-04
148028,8.24E-03,8.77E-04
148029,6.73E-03,4.51E-03
148030,7.29E-03,4.58E-03
148031,7.37E-03,4.55E-03
148032,6.91E-03,4.52E-03
148033,6.98E-03,4.49E-03
148034,7.79E-03,4.45E-03
148035,9.07E-03,4.42E-03
148036,8.63E-03,4.39E-03
148037,7.18E-03,4.35E-03
148038,7.20E-03,4.32E-03
148039,7.69E-03,4.28E-03
148040,8.22E-03,4.24E-03
148041,8.37E-03,4.20E-03
148042,8.39E-03,4.16E-03
148043,8.33E-03,4.12E-03
148044,8.03E-03,4.08E-03
148045,8.03E-03,4.04E-03
148046,8.02E-03,4.00E-03
148047,8.02E-03,3.95E-03
148048,8.02E-03,3.91E-03
148049,8.00E-03,3.86E-03
148050,7.97E-03,3.81E-03
148051,7.94E-03,3.77E-03
148052,7.91E-03,3.72E-03
148053,7.90E-03,3.67E-03
148054,7.89E-03,3.62E-03
148055,7.87E-03,3.57E-03
148056,7.84E-03,3.51E-03
148057,7.79E-03,3.46E-03
148058,7.67E-03,3.41E-03
148059,7.61E-03,3.36E-03
148060,7.50E-03,3.31E-03
148061,7.38E-03,3.26E-03
148062,7.26E-03,3.20E-03
148063,7.15E-03,3.15E-03
148064,7.02E-03,3.10E-03
148065,6.86E-03,3.05E-03
148066,6.73E-03,3.00E-03
148067,6.61E-03,2.96E-03
148068,6.66E-03,2.91E-03
148069,6.78E-03,2.86E-03
148070,7.10E-03,2.81E-03
148071,7.63E-03,2.76E-03
148072,8.40E-03,2.71E-03
148073,8.66E-03,2.65E-03
148074,8.72E-03,2.60E-03
148075,8.64E-03,2.55E-03
148076,8.56E-03,2.50E-03
148077,8.49E-03,2.45E-03
148078,8.41E-03,2.41E-03
148079,8.35E-03,2.36E-03
148080,8.32E-03,2.32E-03
148081,8.29E-03,2.29E-03
148082,8.27E-03,2.25E-03
148083,8.25E-03,2.21E-03
148084,8.23E-03,2.18E-03
148085,8.21E-03,2.15E-03
148086,8.19E-03,2.12E-03
148087,8.17E-03,2.09E-03
148088,8.16E-03,2.06E-03
148089,8.17E-03,2.03E-03
148090,8.16E-03,2.00E-03
148091,8.14E-03,1.97E-03
148092,8.11E-03,1.94E-03
148093,8.08E-03,1.91E-03
148094,8.05E-03,1.87E-03
148095,8.03E-03,1.84E-03
148096,8.03E-03,1.80E-03
148097,8.03E-03,1.77E-03
148098,8.04E-03,1.73E-03
148099,8.04E-03,1.68E-03
148100,8.03E-03,1.64E-03
148101,8.01E-03,1.59E-03
148102,8.00E-03,1.53E-03
148103,8.00E-03,1.48E-03
148104,8.00E-03,1.41E-03
148105,7.99E-03,1.35E-03
148106,7.99E-03,1.27E-03
148107,7.95E-03,1.20E-03
148108,7.86E-03,1.12E-03
148109,7.72E-03,1.03E-03
148110,7.62E-03,9.40E-04
148111,7.43E-03,8.49E-04
148112,7.02E-03,7.58E-04
148113,8.25E-03,8.84E-04
148114,8.11E-03,9.61E-04
148115,8.09E-03,1.04E-03
148116,7.98E-03,1.11E-03
148117,7.98E-03,1.18E-03
148118,7.88E-03,1.25E-03
148119,7.76E-03,1.31E-03
148120,7.74E-03,1.37E-03
148121,7.72E-03,1.43E-03
148122,7.70E-03,1.49E-03
148123,7.68E-03,1.55E-03
148124,7.65E-03,1.60E-03
148125,7.62E-03,1.65E-03
148126,7.57E-03,1.70E-03
148127,7.53E-03,1.74E-03
148128,7.48E-03,1.79E-03
148129,7.42E-03,1.83E-03
148130,7.35E-03,1.87E-03
148131,7.27E-03,1.90E-03
148132,7.21E-03,1.94E-03
148133,7.11E-03,1.97E-03
148134,6.98E-03,2.00E-03
148135,6.85E-03,2.04E-03
148136,6.75E-03,2.06E-03
148137,6.69E-03,2.09E-03
148138,6.64E-03,2.12E-03
148139,6.61E-03,2.15E-03
148140,6.62E-03,2.17E-03
148141,6.78E-03,2.20E-03
148142,7.09E-03,2.22E-03
148143,7.30E-03,2.25E-03
148144,7.53E-03,2.27E-03
148145,7.79E-03,2.30E-03
148146,7.98E-03,2.32E-03
148147,8.13E-03,2.35E-03
148148,8.23E-03,2.37E-03
148149,8.28E-03,2.40E-03
148150,8.33E-03,2.42E-03
148151,8.39E-03,2.45E-03
148152,8.45E-03,2.48E-03
148153,8.51E-03,2.50E-03
148154,8.56E-03,2.53E-03
148155,8.56E-03,2.56E-03
148156,8.47E-03,2.58E-03
148157,8.39E-03,2.61E-03
148158,8.34E-03,2.64E-03
148159,8.30E-03,2.67E-03
148160,8.27E-03,2.70E-03
148161,8.24E-03,2.73E-03
148162,8.22E-03,2.76E-03
148163,8.20E-03,2.79E-03
148164,8.19E-03,2.83E-03
148165,8.18E-03,2.86E-03
148166,8.17E-03,2.90E-03
148167,8.16E-03,2.93E-03
148168,8.15E-03,2.97E-03
148169,8.14E-03,3.01E-03
148170,8.13E-03,3.04E-03
148171,8.13E-03,3.08E-03
148172,8.13E-03,3.13E-03
148173,8.12E-03,3.17E-03
148174,8.11E-03,3.21E-03
148175,8.09E-03,3.25E-03
148176,8.07E-03,3.29E-03
148177,8.06E-03,3.34E-03
148178,8.05E-03,3.38E-03
148179,8.04E-03,3.43E-03
148180,8.03E-03,3.48E-03
148181,8.02E-03,3.52E-03
148182,8.02E-03,3.57E-03
148183,8.03E-03,3.62E-03
148184,8.03E-03,3.67E-03
148185,8.03E-03,3.71E-03
148186,7.98E-03,3.76E-03
148187,8.00E-03,3.81E-03
148188,8.02E-03,3.86E-03
148189,8.04E-03,3.91E-03
148190,8.02E-03,3.95E-03
148191,7.89E-03,4.00E-03
148192,7.83E-03,4.05E-03
148193,7.84E-03,4.10E-03
148194,7.94E-03,4.15E-03
148195,7.98E-03,4.20E-03
148196,7.88E-03,4.25E-03
148197,7.66E-03,4.29E-03
148198,7.40E-03,4.33E-03
148199,7.85E-03,4.38E-03
148200,7.53E-03,4.44E-03
148201,6.55E-03,4.46E-03
148202,7.07E-03,4.51E-03
148203,7.97E-03,4.59E-03
148204,8.80E-03,4.63E-03
148205,6.96E-03,4.76E-03
148206,7.71E-03,4.73E-03
148207,8.85E-03,4.70E-03
148208,8.48E-03,4.68E-03
148209,7.11E-03,4.66E-03
148210,7.21E-03,4.64E-03
148211,7.37E-03,4.61E-03
148212,7.54E-03,4.58E-03
148213,7.66E-03,4.55E-03
148214,7.87E-03,4.51E-03
148215,8.11E-03,4.48E-03
148216,8.03E-03,4.45E-03
148217,7.97E-03,4.41E-03
148218,7.76E-03,4.37E-03
148219,7.85E-03,4.34E-03
148220,8.12E-03,4.30E-03
148221,8.25E-03,4.26E-03
148222,8.27E-03,4.22E-03
148223,8.23E-03,4.18E-03
148224,8.12E-03,4.14E-03
148225,8.03E-03,4.09E-03
148226,8.03E-03,4.05E-03
148227,8.02E-03,4.01E-03
148228,8.02E-03,3.96E-03
148229,8.01E-03,3.91E-03
148230,7.99E-03,3.86E-03
148231,7.96E-03,3.82E-03
148232,7.94E-03,3.77E-03
148233,7.92E-03,3.71E-03
148234,7.91E-03,3.66E-03
148235,7.90E-03,3.61E-03
148236,7.88E-03,3.56E-03
148237,7.84E-03,3.50E-03
148238,7.79E-03,3.45E-03
148239,7.71E-03,3.40E-03
148240,7.61E-03,3.34E-03
148241,7.51E-03,3.29E-03
148242,7.43E-03,3.23E-03
148243,7.34E-03,3.18E-03
148244,7.24E-03,3.13E-03
148245,7.08E-03,3.07E-03
148246,6.92E-03,3.02E-03
148247,6.84E-03,2.97E-03
148248,6.87E-03,2.92E-03
148249,6.92E-03,2.87E-03
148250,7.29E-03,2.81E-03
148251,7.93E-03,2.76E-03
148252,8.33E-03,2.70E-03
148253,8.55E-03,2.65E-03
148254,8.60E-03,2.59E-03
148255,8.53E-03,2.54E-03
148256,8.47E-03,2.49E-03
148257,8.41E-03,2.44E-03
148258,8.35E-03,2.39E-03
148259,8.30E-03,2.35E-03
148260,8.27E-03,2.31E-03
148261,8.25E-03,2.27E-03
148262,8.23E-03,2.23E-03
148263,8.21E-03,2.19E-03
148264,8.19E-03,2.16E-03
148265,8.18E-03,2.13E-03
148266,8.16E-03,2.09E-03
148267,8.15E-03,2.06E-03
148268,8.14E-03,2.03E-03
148269,8.14E-03,2.00E-03
148270,8.14E-03,1.97E-03
148271,8.12E-03,1.94E-03
148272,8.09E-03,1.91E-03
148273,8.07E-03,1.88E-03
148274,8.05E-03,1.85E-03
148275,8.03E-03,1.82E-03
148276,8.03E-03,1.78E-03
148277,8.03E-03,1.74E-03
148278,8.04E-03,1.70E-03
148279,8.04E-03,1.66E-03
148280,8.03E-03,1.62E-03
148281,8.02E-03,1.57E-03
148282,8.01E-03,1.51E-03
148283,8.01E-03,1.45E-03
148284,8.01E-03,1.39E-03
148285,8.00E-03,1.32E-03
148286,8.00E-03,1.25E-03
148287,7.91E-03,1.18E-03
148288,7.88E-03,1.10E-03
148289,7.70E-03,1.01E-03
148290,7.64E-03,9.18E-04
148291,7.45E-03,8.25E-04
148292,6.82E-03,7.39E-04
148293,5.81E-03,6.65E-04
148294,7.15E-03,6.57E-04
148295,7.58E-03,6.57E-04
148296,7.71E-03,6.66E-04
148297,7.88E-03,6.75E-04
148298,7.96E-03,6.84E-04
148299,8.08E-03,6.91E-04
148300,8.08E-03,6.99E-04
148301,8.09E-03,7.06E-04
148302,8.10E-03,7.13E-04
148303,8.10E-03,7.20E-04
148304,8.10E-03,7.28E-04
148305,8.09E-03,7.35E-04
148306,8.09E-03,7.42E-04
148307,8.16E-03,7.50E-04
148308,8.19E-03,7.58E-04
148309,8.26E-03,7.66E-04
148310,8.34E-03,7.75E-04
148311,8.30E-03,7.85E-04
148312,8.31E-03,7.95E-04
148313,8.24E-03,8.06E-04
148314,6.53E-03,6.40E-04
148315,6.98E-03,5.66E-04
148316,5.74E-03,4.79E-03
148317,5.25E-03,4.73E-03
148318,5.33E-03,4.77E-03
148319,6.34E-03,4.87E-03
148320,6.43E-03,4.84E-03
148321,6.76E-03,4.82E-03
148322,7.61E-03,4.80E-03
148323,7.96E-03,4.77E-03
148324,7.97E-03,4.75E-03
148325,7.80E-03,4.72E-03
148326,7.52E-03,4.70E-03
148327,7.59E-03,4.67E-03
148328,7.73E-03,4.64E-03
148329,7.83E-03,4.61E-03
148330,7.88E-03,4.58E-03
148331,8.00E-03,4.54E-03
148332,8.01E-03,4.51E-03
148333,7.95E-03,4.47E-03
148334,7.93E-03,4.44E-03
148335,7.98E-03,4.40E-03
148336,8.11E-03,4.36E-03
148337,8.15E-03,4.32E-03
148338,8.13E-03,4.28E-03
148339,8.10E-03,4.24E-03
148340,8.03E-03,4.20E-03
148341,8.03E-03,4.15E-03
148342,8.03E-03,4.11E-03
148343,8.03E-03,4.06E-03
148344,8.02E-03,4.01E-03
148345,8.02E-03,3.97E-03
148346,8.00E-03,3.92E-03
148347,7.98E-03,3.87E-03
148348,7.96E-03,3.82E-03
148349,7.95E-03,3.76E-03
148350,7.94E-03,3.71E-03
148351,7.93E-03,3.66E-03
148352,7.91E-03,3.60E-03
148353,7.88E-03,3.55E-03
148354,7.85E-03,3.49E-03
148355,7.79E-03,3.44E-03
148356,7.71E-03,3.38E-03
148357,7.63E-03,3.32E-03
148358,7.56E-03,3.27E-03
148359,7.50E-03,3.21E-03
148360,7.41E-03,3.15E-03
148361,7.29E-03,3.10E-03
148362,7.17E-03,3.04E-03
148363,7.11E-03,2.99E-03
148364,7.13E-03,2.93E-03
148365,7.17E-03,2.87E-03
148366,7.46E-03,2.82E-03
148367,7.95E-03,2.76E-03
148368,8.27E-03,2.70E-03
148369,8.43E-03,2.64E-03
148370,8.47E-03,2.59E-03
148371,8.42E-03,2.53E-03
148372,8.37E-03,2.48E-03
148373,8.32E-03,2.43E-03
148374,8.28E-03,2.38E-03
148375,8.24E-03,2.33E-03
148376,8.22E-03,2.29E-03
148377,8.20E-03,2.25E-03
148378,8.19E-03,2.21E-03
148379,8.17E-03,2.17E-03
148380,8.16E-03,2.14E-03
148381,8.15E-03,2.10E-03
148382,8.13E-03,2.07E-03
148383,8.12E-03,2.04E-03
148384,8.12E-03,2.01E-03
148385,8.12E-03,1.98E-03
148386,8.12E-03,1.95E-03
148387,8.10E-03,1.92E-03
148388,8.08E-03,1.89E-03
148389,8.06E-03,1.86E-03
148390,8.05E-03,1.82E-03
148391,8.04E-03,1.79E-03
148392,8.03E-03,1.76E-03
148393,8.03E-03,1.72E-03
148394,8.04E-03,1.68E-03
148395,8.04E-03,1.64E-03
148396,8.03E-03,1.59E-03
148397,8.02E-03,1.54E-03
148398,8.02E-03,1.49E-03
148399,8.01E-03,1.43E-03
148400,8.01E-03,1.37E-03
148401,8.01E-03,1.30E-03
148402,8.01E-03,1.23E-03
148403,7.93E-03,1.15E-03
148404,7.89E-03,1.07E-03
148405,7.72E-03,9.86E-04
148406,7.64E-03,8.96E-04
148407,7.38E-03,8.02E-04
148408,7.12E-03,7.12E-04
148409,8.22E-03,8.17E-04
148410,8.19E-03,8.92E-04
148411,8.10E-03,9.66E-04
148412,8.06E-03,1.04E-03
148413,7.98E-03,1.11E-03
148414,7.92E-03,1.18E-03
148415,7.83E-03,1.24E-03
148416,7.82E-03,1.31E-03
148417,7.81E-03,1.37E-03
148418,7.79E-03,1.43E-03
148419,7.77E-03,1.49E-03
148420,7.76E-03,1.54E-03
148421,7.74E-03,1.59E-03
148422,7.71E-03,1.64E-03
148423,7.68E-03,1.69E-03
148424,7.64E-03,1.74E-03
148425,7.61E-03,1.78E-03
148426,7.56E-03,1.82E-03
148427,7.50E-03,1.86E-03
148428,7.44E-03,1.90E-03
148429,7.39E-03,1.93E-03
148430,7.32E-03,1.97E-03
148431,7.21E-03,2.00E-03
148432,7.11E-03,2.03E-03
148433,7.04E-03,2.06E-03
148434,6.99E-03,2.09E-03
148435,6.95E-03,2.12E-03
148436,6.93E-03,2.15E-03
148437,6.94E-03,2.17E-03
148438,7.06E-03,2.20E-03
148439,7.30E-03,2.22E-03
148440,7.47E-03,2.25E-03
148441,7.64E-03,2.28E-03
148442,7.85E-03,2.30E-03
148443,7.99E-03,2.33E-03
148444,8.11E-03,2.35E-03
148445,8.18E-03,2.38E-03
148446,8.23E-03,2.40E-03
148447,8.27E-03,2.43E-03
148448,8.31E-03,2.46E-03
148449,8.36E-03,2.48E-03
148450,8.40E-03,2.51E-03
148451,8.45E-03,2.53E-03
148452,8.44E-03,2.56E-03
148453,8.37E-03,2.59E-03
148454,8.31E-03,2.61E-03
148455,8.27E-03,2.64E-03
148456,8.24E-03,2.67E-03
148457,8.22E-03,2.70E-03
148458,8.20E-03,2.73E-03
148459,8.18E-03,2.76E-03
148460,8.17E-03,2.79E-03
148461,8.16E-03,2.82E-03
148462,8.15E-03,2.86E-03
148463,8.14E-03,2.89E-03
148464,8.13E-03,2.93E-03
148465,8.12E-03,2.96E-03
148466,8.12E-03,3.00E-03
148467,8.11E-03,3.04E-03
148468,8.11E-03,3.08E-03
148469,8.11E-03,3.11E-03
148470,8.10E-03,3.15E-03
148471,8.10E-03,3.20E-03
148472,8.08E-03,3.24E-03
148473,8.07E-03,3.28E-03
148474,8.05E-03,3.32E-03
148475,8.04E-03,3.36E-03
148476,8.04E-03,3.41E-03
148477,8.03E-03,3.45E-03
148478,8.03E-03,3.50E-03
148479,8.03E-03,3.54E-03
148480,8.03E-03,3.59E-03
148481,8.03E-03,3.64E-03
148482,8.03E-03,3.68E-03
148483,8.03E-03,3.73E-03
148484,8.03E-03,3.78E-03
148485,8.02E-03,3.82E-03
148486,8.02E-03,3.87E-03
148487,8.02E-03,3.92E-03
148488,7.95E-03,3.96E-03
148489,7.94E-03,4.01E-03
148490,7.92E-03,4.06E-03
148491,7.95E-03,4.11E-03
148492,7.95E-03,4.15E-03
148493,7.90E-03,4.20E-03
148494,7.80E-03,4.24E-03
148495,7.72E-03,4.29E-03
148496,7.69E-03,4.33E-03
148497,7.54E-03,4.38E-03
148498,7.43E-03,4.42E-03
148499,7.59E-03,4.47E-03
148500,7.80E-03,4.52E-03
148501,7.90E-03,4.56E-03
148502,6.91E-03,4.68E-03
148503,7.25E-03,4.73E-03
148504,7.53E-03,5.46E-04
148505,7.76E-03,5.46E-04
148506,7.85E-03,5.54E-04
148507,7.91E-03,5.64E-04
148508,7.98E-03,5.72E-04
148509,8.05E-03,5.80E-04
148510,8.06E-03,5.89E-04
148511,8.07E-03,5.97E-04
148512,8.07E-03,6.06E-04
148513,8.07E-03,6.15E-04
148514,8.07E-03,6.24E-04
148515,8.07E-03,6.34E-04
148516,8.06E-03,6.43E-04
148517,8.07E-03,6.53E-04
148518,8.07E-03,6.64E-04
148519,8.17E-03,6.75E-04
148520,8.15E-03,6.87E-04
148521,8.21E-03,7.00E-04
148522,8.25E-03,7.14E-04
148523,8.30E-03,7.28E-04
148524,8.25E-03,7.43E-04
148525,8.37E-03,4.88E-03
148526,7.63E-03,4.91E-03
148527,6.95E-03,4.93E-03
148528,6.80E-03,5.00E-03
148529,7.65E-03,4.98E-03
148530,8.45E-03,4.96E-03
148531,9.70E-03,4.94E-03
148532,9.36E-03,4.93E-03
148533,7.68E-03,4.93E-03
148534,7.17E-03,4.91E-03
148535,7.25E-03,4.89E-03
148536,7.56E-03,4.86E-03
148537,7.81E-03,4.84E-03
148538,7.85E-03,4.82E-03
148539,7.78E-03,4.79E-03
148540,7.71E-03,4.76E-03
148541,7.69E-03,4.74E-03
148542,7.76E-03,4.71E-03
148543,7.79E-03,4.67E-03
148544,7.88E-03,4.64E-03
148545,7.99E-03,4.61E-03
148546,8.04E-03,4.58E-03
148547,8.04E-03,4.54E-03
148548,8.04E-03,4.50E-03
148549,8.04E-03,4.47E-03
148550,8.04E-03,4.43E-03
148551,8.04E-03,4.39E-03
148552,8.04E-03,4.34E-03
148553,8.04E-03,4.30E-03
148554,8.04E-03,4.26E-03
148555,8.03E-03,4.21E-03
148556,8.03E-03,4.17E-03
148557,8.03E-03,4.12E-03
148558,8.03E-03,4.07E-03
148559,8.02E-03,4.02E-03
148560,8.01E-03,3.97E-03
148561,7.99E-03,3.92E-03
148562,7.98E-03,3.87E-03
148563,7.98E-03,3.82E-03
148564,7.97E-03,3.76E-03
148565,7.96E-03,3.71E-03
148566,7.95E-03,3.65E-03
148567,7.93E-03,3.59E-03
148568,7.90E-03,3.54E-03
148569,7.86E-03,3.48E-03
148570,7.80E-03,3.42E-03
148571,7.75E-03,3.36E-03
148572,7.70E-03,3.30E-03
148573,7.65E-03,3.24E-03
148574,7.59E-03,3.18E-03
148575,7.51E-03,3.12E-03
148576,7.42E-03,3.06E-03
148577,7.38E-03,3.00E-03
148578,7.39E-03,2.94E-03
148579,7.42E-03,2.88E-03
148580,7.62E-03,2.82E-03
148581,7.98E-03,2.76E-03
148582,8.20E-03,2.70E-03
148583,8.32E-03,2.64E-03
148584,8.35E-03,2.58E-03
148585,8.31E-03,2.52E-03
148586,8.28E-03,2.47E-03
148587,8.24E-03,2.42E-03
148588,8.21E-03,2.37E-03
148589,8.18E-03,2.32E-03
148590,8.17E-03,2.28E-03
148591,8.16E-03,2.23E-03
148592,8.15E-03,2.19E-03
148593,8.14E-03,2.15E-03
148594,8.13E-03,2.11E-03
148595,8.12E-03,2.08E-03
148596,8.11E-03,2.05E-03
148597,8.10E-03,2.01E-03
148598,8.10E-03,1.98E-03
148599,8.10E-03,1.95E-03
148600,8.10E-03,1.92E-03
148601,8.08E-03,1.89E-03
148602,8.07E-03,1.86E-03
148603,8.06E-03,1.83E-03
148604,8.05E-03,1.80E-03
148605,8.04E-03,1.76E-03
148606,8.03E-03,1.73E-03
148607,8.04E-03,1.69E-03
148608,8.04E-03,1.66E-03
148609,8.04E-03,1.61E-03
148610,8.03E-03,1.57E-03
148611,8.03E-03,1.52E-03
148612,8.02E-03,1.47E-03
148613,8.02E-03,1.41E-03
148614,8.02E-03,1.35E-03
148615,8.02E-03,1.28E-03
148616,8.02E-03,1.21E-03
148617,7.97E-03,1.13E-03
148618,7.88E-03,1.05E-03
148619,7.79E-03,9.62E-04
148620,7.69E-03,8.72E-04
148621,7.52E-03,7.81E-04
148622,7.61E-03,6.89E-04
148623,8.73E-03,5.83E-04
148624,8.27E-03,4.48E-04
148625,8.07E-03,4.44E-04
148626,8.02E-03,4.48E-04
148627,7.95E-03,4.55E-04
148628,8.03E-03,4.62E-04
148629,8.03E-03,4.69E-04
148630,8.04E-03,4.77E-04
148631,8.04E-03,4.86E-04
148632,8.04E-03,4.97E-04
148633,8.05E-03,5.09E-04
148634,8.04E-03,5.21E-04
148635,8.04E-03,5.33E-04
148636,8.04E-03,5.44E-04
148637,8.04E-03,5.57E-04
148638,8.05E-03,5.72E-04
148639,8.05E-03,5.87E-04
148640,8.05E-03,6.03E-04
148641,8.11E-03,6.19E-04
148642,8.17E-03,6.36E-04
148643,8.22E-03,6.54E-04
148644,8.16E-03,6.72E-04
148645,8.18E-03,6.91E-04
148646,8.25E-03,7.59E-04
148647,8.18E-03,8.30E-04
148648,8.13E-03,9.00E-04
148649,8.07E-03,9.71E-04
148650,8.01E-03,1.04E-03
148651,7.96E-03,1.11E-03
148652,7.90E-03,1.18E-03
148653,7.89E-03,1.24E-03
148654,7.88E-03,1.30E-03
148655,7.87E-03,1.36E-03
148656,7.86E-03,1.42E-03
148657,7.85E-03,1.48E-03
148658,7.84E-03,1.53E-03
148659,7.82E-03,1.59E-03
148660,7.80E-03,1.63E-03
148661,7.78E-03,1.68E-03
148662,7.76E-03,1.73E-03
148663,7.73E-03,1.77E-03
148664,7.70E-03,1.81E-03
148665,7.65E-03,1.85E-03
148666,7.61E-03,1.89E-03
148667,7.58E-03,1.93E-03
148668,7.52E-03,1.96E-03
148669,7.45E-03,2.00E-03
148670,7.38E-03,2.03E-03
148671,7.33E-03,2.06E-03
148672,7.29E-03,2.09E-03
148673,7.26E-03,2.12E-03
148674,7.25E-03,2.15E-03
148675,7.25E-03,2.17E-03
148676,7.34E-03,2.20E-03
148677,7.51E-03,2.23E-03
148678,7.63E-03,2.25E-03
148679,7.75E-03,2.28E-03
148680,7.90E-03,2.31E-03
148681,8.01E-03,2.33E-03
148682,8.09E-03,2.36E-03
148683,8.14E-03,2.38E-03
148684,8.17E-03,2.41E-03
148685,8.20E-03,2.43E-03
148686,8.23E-03,2.46E-03
148687,8.27E-03,2.48E-03
148688,8.30E-03,2.51E-03
148689,8.33E-03,2.54E-03
148690,8.33E-03,2.56E-03
148691,8.28E-03,2.59E-03
148692,8.23E-03,2.62E-03
148693,8.21E-03,2.64E-03
148694,8.19E-03,2.67E-03
148695,8.17E-03,2.70E-03
148696,8.15E-03,2.73E-03
148697,8.14E-03,2.76E-03
148698,8.13E-03,2.79E-03
148699,8.12E-03,2.82E-03
148700,8.12E-03,2.85E-03
148701,8.11E-03,2.89E-03
148702,8.10E-03,2.92E-03
148703,8.10E-03,2.96E-03
148704,8.09E-03,2.99E-03
148705,8.09E-03,3.03E-03
148706,8.09E-03,3.07E-03
148707,8.09E-03,3.10E-03
148708,8.09E-03,3.14E-03
148709,8.08E-03,3.18E-03
148710,8.07E-03,3.22E-03
148711,8.06E-03,3.26E-03
148712,8.05E-03,3.30E-03
148713,8.04E-03,3.35E-03
148714,8.04E-03,3.39E-03
148715,8.03E-03,3.43E-03
148716,8.03E-03,3.48E-03
148717,8.03E-03,3.52E-03
148718,8.03E-03,3.56E-03
148719,8.04E-03,3.61E-03
148720,8.04E-03,3.65E-03
148721,8.03E-03,3.70E-03
148722,8.03E-03,3.74E-03
148723,8.03E-03,3.79E-03
148724,8.03E-03,3.84E-03
148725,8.02E-03,3.88E-03
148726,8.02E-03,3.93E-03
148727,8.02E-03,3.97E-03
148728,8.02E-03,4.02E-03
148729,8.02E-03,4.06E-03
148730,7.96E-03,4.11E-03
148731,7.92E-03,4.15E-03
148732,7.86E-03,4.20E-03
148733,7.75E-03,4.24E-03
148734,7.71E-03,4.28E-03
148735,7.64E-03,4.33E-03
148736,7.71E-03,4.38E-03
148737,7.76E-03,4.42E-03
148738,7.85E-03,4.46E-03
148739,7.80E-03,4.50E-03
148740,7.66E-03,4.54E-03
148741,7.65E-03,4.58E-03
148742,7.63E-03,4.63E-03
148743,8.09E-03,4.68E-03
148744,8.39E-03,4.73E-03
148745,8.39E-03,4.76E-03
148746,8.05E-03,4.80E-03
148747,7.50E-03,4.83E-03
148748,7.15E-03,4.87E-03
148749,7.09E-03,4.91E-03
148750,8.30E-03,4.96E-03
148751,8.21E-03,5.00E-03
148752,8.82E-03,4.15E-04
148753,8.76E-03,4.10E-04
148754,8.72E-03,3.76E-04
148755,8.21E-03,3.58E-04
148756,8.15E-03,3.57E-04
148757,8.00E-03,3.57E-04
148758,8.01E-03,3.59E-04
148759,8.01E-03,3.63E-04
148760,8.01E-03,3.69E-04
148761,8.02E-03,3.78E-04
148762,8.02E-03,3.90E-04
148763,8.02E-03,4.04E-04
148764,8.02E-03,4.21E-04
148765,8.02E-03,4.31E-04
148766,8.02E-03,4.46E-04
148767,8.02E-03,4.65E-04
148768,8.02E-03,4.85E-04
148769,8.02E-03,5.05E-04
148770,8.02E-03,5.25E-04
148771,8.02E-03,5.46E-04
148772,8.10E-03,5.66E-04
148773,8.18E-03,5.87E-04
148774,8.13E-03,6.08E-04
148775,8.18E-03,6.29E-04
148776,8.16E-03,6.51E-04
148777,8.17E-03,7.12E-04
148778,8.17E-03,7.77E-04
148779,8.11E-03,8.42E-04
148780,8.15E-03,9.08E-04
148781,8.07E-03,9.75E-04
148782,8.03E-03,1.04E-03
148783,7.96E-03,1.11E-03
148784,7.95E-03,1.17E-03
148785,7.95E-03,1.24E-03
148786,7.95E-03,1.30E-03
148787,7.94E-03,1.36E-03
148788,7.93E-03,1.42E-03
148789,7.93E-03,1.47E-03
148790,7.92E-03,1.53E-03
148791,7.91E-03,1.58E-03
148792,7.90E-03,1.63E-03
148793,7.88E-03,1.67E-03
148794,7.87E-03,1.72E-03
148795,7.85E-03,1.76E-03
148796,7.83E-03,1.80E-03
148797,7.81E-03,1.84E-03
148798,7.78E-03,1.88E-03
148799,7.76E-03,1.92E-03
148800,7.73E-03,1.96E-03
148801,7.69E-03,1.99E-03
148802,7.64E-03,2.02E-03
148803,7.61E-03,2.05E-03
148804,7.59E-03,2.08E-03
148805,7.57E-03,2.11E-03
148806,7.56E-03,2.14E-03
148807,7.57E-03,2.17E-03
148808,7.62E-03,2.20E-03
148809,7.72E-03,2.23E-03
148810,7.79E-03,2.25E-03
148811,7.87E-03,2.28E-03
148812,7.96E-03,2.31E-03
148813,8.02E-03,2.33E-03
148814,8.07E-03,2.36E-03
148815,8.10E-03,2.39E-03
148816,8.12E-03,2.41E-03
148817,8.14E-03,2.44E-03
148818,8.16E-03,2.46E-03
148819,8.18E-03,2.49E-03
148820,8.20E-03,2.51E-03
148821,8.21E-03,2.54E-03
148822,8.21E-03,2.56E-03
148823,8.18E-03,2.59E-03
148824,8.16E-03,2.62E-03
148825,8.14E-03,2.64E-03
148826,8.13E-03,2.67E-03
148827,8.12E-03,2.70E-03
148828,8.11E-03,2.73E-03
148829,8.10E-03,2.76E-03
148830,8.09E-03,2.79E-03
148831,8.09E-03,2.82E-03
148832,8.09E-03,2.85E-03
148833,8.08E-03,2.88E-03
148834,8.08E-03,2.92E-03
148835,8.08E-03,2.95E-03
148836,8.07E-03,2.98E-03
148837,8.07E-03,3.02E-03
148838,8.07E-03,3.05E-03
148839,8.07E-03,3.09E-03
148840,8.07E-03,3.13E-03
148841,8.06E-03,3.17E-03
148842,8.06E-03,3.21E-03
148843,8.05E-03,3.25E-03
148844,8.05E-03,3.29E-03
148845,8.04E-03,3.33E-03
148846,8.04E-03,3.37E-03
148847,8.04E-03,3.41E-03
148848,8.03E-03,3.45E-03
148849,8.03E-03,3.49E-03
148850,8.04E-03,3.54E-03
148851,8.04E-03,3.58E-03
148852,8.04E-03,3.62E-03
148853,8.04E-03,3.67E-03
148854,8.03E-03,3.71E-03
148855,8.03E-03,3.76E-03
148856,8.03E-03,3.80E-03
148857,8.03E-03,3.84E-03
148858,8.03E-03,3.89E-03
148859,8.03E-03,3.93E-03
148860,8.03E-03,3.98E-03
148861,8.03E-03,4.02E-03
148862,8.02E-03,4.06E-03
148863,8.02E-03,4.11E-03
148864,7.96E-03,4.15E-03
148865,7.89E-03,4.19E-03
148866,7.85E-03,4.24E-03
148867,7.80E-03,4.28E-03
148868,7.87E-03,4.32E-03
148869,7.89E-03,4.37E-03
148870,7.87E-03,4.41E-03
148871,7.87E-03,4.45E-03
148872,7.80E-03,4.49E-03
148873,7.75E-03,4.53E-03
148874,7.88E-03,4.57E-03
148875,8.06E-03,4.62E-03
148876,8.19E-03,4.66E-03
148877,8.15E-03,4.69E-03
148878,7.95E-03,4.73E-03
148879,7.73E-03,4.76E-03
148880,7.55E-03,4.80E-03
148881,7.74E-03,4.85E-03
148882,7.93E-03,4.89E-03
148883,7.83E-03,4.92E-03
148884,8.73E-03,4.98E-03
148885,8.52E-03,5.01E-03
148886,7.48E-03,5.04E-03
148887,6.75E-03,5.06E-03
148888,6.60E-03,5.13E-03
148889,7.49E-03,5.12E-03
148890,8.69E-03,5.10E-03
148891,9.06E-03,5.10E-03
148892,8.99E-03,5.09E-03
148893,8.33E-03,5.10E-03
148894,6.97E-03,5.09E-03
148895,7.14E-03,5.07E-03
148896,7.64E-03,5.06E-03
148897,8.23E-03,5.04E-03
148898,8.63E-03,5.03E-03
148899,8.51E-03,5.01E-03
148900,8.07E-03,5.00E-03
148901,7.69E-03,4.98E-03
148902,7.56E-03,4.96E-03
148903,7.66E-03,4.94E-03
148904,7.78E-03,4.91E-03
148905,7.87E-03,4.89E-03
148906,7.89E-03,4.86E-03
148907,7.89E-03,4.83E-03
148908,7.89E-03,4.81E-03
148909,7.88E-03,4.78E-03
148910,7.96E-03,4.74E-03
148911,8.04E-03,4.71E-03
148912,8.04E-03,4.68E-03
148913,8.04E-03,4.64E-03
148914,8.04E-03,4.61E-03
148915,8.04E-03,4.57E-03
148916,8.04E-03,4.53E-03
148917,8.04E-03,4.49E-03
148918,8.04E-03,4.45E-03
148919,8.04E-03,4.41E-03
148920,8.04E-03,4.37E-03
148921,8.04E-03,4.32E-03
148922,8.04E-03,4.28E-03
148923,8.04E-03,4.23E-03
148924,8.03E-03,4.18E-03
148925,8.03E-03,4.13E-03
148926,8.03E-03,4.08E-03
148927,8.02E-03,4.03E-03
148928,8.01E-03,3.98E-03
148929,8.01E-03,3.93E-03
148930,8.00E-03,3.87E-03
148931,8.00E-03,3.82E-03
148932,7.99E-03,3.76E-03
148933,7.99E-03,3.70E-03
148934,7.97E-03,3.65E-03
148935,7.96E-03,3.59E-03
148936,7.93E-03,3.53E-03
148937,7.90E-03,3.47E-03
148938,7.86E-03,3.40E-03
148939,7.84E-03,3.34E-03
148940,7.81E-03,3.28E-03
148941,7.77E-03,3.22E-03
148942,7.72E-03,3.15E-03
148943,7.67E-03,3.09E-03
148944,7.64E-03,3.03E-03
148945,7.65E-03,2.96E-03
148946,7.67E-03,2.90E-03
148947,7.79E-03,2.83E-03
148948,8.00E-03,2.77E-03
148949,8.14E-03,2.70E-03
148950,8.21E-03,2.64E-03
148951,8.23E-03,2.58E-03
148952,8.20E-03,2.52E-03
148953,8.18E-03,2.46E-03
148954,8.16E-03,2.41E-03
148955,8.14E-03,2.36E-03
148956,8.13E-03,2.31E-03
148957,8.12E-03,2.26E-03
148958,8.11E-03,2.22E-03
148959,8.10E-03,2.17E-03
148960,8.10E-03,2.13E-03
148961,8.09E-03,2.09E-03
148962,8.09E-03,2.06E-03
148963,8.08E-03,2.02E-03
148964,8.08E-03,1.99E-03
148965,8.07E-03,1.96E-03
148966,8.07E-03,1.92E-03
148967,8.07E-03,1.89E-03
148968,8.07E-03,1.86E-03
148969,8.06E-03,1.83E-03
148970,8.05E-03,1.80E-03
148971,8.04E-03,1.77E-03
148972,8.04E-03,1.74E-03
148973,8.04E-03,1.70E-03
148974,8.04E-03,1.67E-03
148975,8.04E-03,1.63E-03
148976,8.04E-03,1.59E-03
148977,8.04E-03,1.54E-03
148978,8.03E-03,1.49E-03
148979,8.03E-03,1.44E-03
148980,8.03E-03,1.38E-03
148981,8.03E-03,1.32E-03
148982,8.03E-03,1.25E-03
148983,8.03E-03,1.18E-03
148984,8.03E-03,1.11E-03
148985,7.93E-03,1.02E-03
148986,7.85E-03,9.37E-04
148987,7.79E-03,8.48E-04
148988,7.77E-03,7.56E-04
148989,7.68E-03,6.60E-04
148990,8.31E-03,5.62E-04
148991,8.50E-03,4.84E-04
148992,8.64E-03,4.28E-04
148993,8.04E-03,3.23E-03
148994,8.04E-03,3.27E-03
148995,8.04E-03,3.31E-03
148996,8.04E-03,3.35E-03
148997,8.04E-03,3.39E-03
148998,8.04E-03,3.43E-03
148999,8.04E-03,3.47E-03
149000,8.04E-03,3.51E-03
149001,8.04E-03,3.55E-03
149002,8.04E-03,3.59E-03
149003,8.04E-03,3.64E-03
149004,8.04E-03,3.68E-03
149005,8.04E-03,3.72E-03
149006,8.04E-03,3.76E-03
149007,8.04E-03,3.81E-03
149008,8.04E-03,3.85E-03
149009,8.04E-03,3.89E-03
149010,8.04E-03,3.94E-03
149011,8.04E-03,3.98E-03
149012,8.03E-03,4.02E-03
149013,8.03E-03,4.06E-03
149014,8.05E-03,3.19E-03
149015,8.03E-03,4.11E-03
149016,8.03E-03,4.15E-03
149017,7.45E-03,5.10E-03
149018,8.03E-03,4.19E-03
149019,5.58E-03,5.05E-03
149020,8.03E-03,4.23E-03
149021,5.30E-03,5.02E-03
149022,8.05E-03,3.15E-03
149023,8.03E-03,4.27E-03
149024,6.02E-03,4.99E-03
149025,8.03E-03,4.31E-03
149026,7.07E-03,4.95E-03
149027,7.99E-03,4.92E-03
149028,8.03E-03,4.35E-03
149029,8.05E-03,3.12E-03
149030,8.05E-03,3.08E-03
149031,8.05E-03,3.04E-03
149032,8.32E-03,4.89E-03
149033,7.95E-03,4.39E-03
149034,8.05E-03,3.01E-03
149035,8.18E-03,4.85E-03
149036,7.92E-03,4.43E-03
149037,7.89E-03,4.81E-03
149038,7.91E-03,4.47E-03
149039,8.05E-03,2.97E-03
149040,7.95E-03,4.51E-03
149041,7.76E-03,4.78E-03
149042,8.05E-03,2.94E-03
149043,8.02E-03,4.55E-03
149044,7.69E-03,4.74E-03
149045,8.07E-03,4.59E-03
149046,8.05E-03,2.91E-03
149047,7.81E-03,4.70E-03
149048,8.08E-03,4.63E-03
149049,8.03E-03,2.34E-03
149050,8.05E-03,2.36E-03
149051,7.97E-03,4.66E-03
149052,8.05E-03,2.88E-03
149053,8.06E-03,2.84E-03
149054,8.06E-03,2.81E-03
149055,8.06E-03,2.78E-03
149056,8.06E-03,2.75E-03
149057,8.06E-03,2.39E-03
149058,8.01E-03,2.31E-03
149059,8.06E-03,2.73E-03
149060,8.10E-03,6.75E-04
149061,8.09E-03,7.37E-04
149062,8.11E-03,7.95E-04
149063,8.07E-03,2.70E-03
149064,8.01E-03,9.78E-04
149065,8.07E-03,9.15E-04
149066,8.01E-03,1.04E-03
149067,8.12E-03,8.54E-04
149068,8.07E-03,2.41E-03
149069,8.01E-03,1.11E-03
149070,8.01E-03,1.17E-03
149071,8.07E-03,2.67E-03
149072,8.01E-03,1.23E-03
149073,8.01E-03,1.29E-03
149074,8.07E-03,2.44E-03
149075,8.01E-03,1.35E-03
149076,8.07E-03,2.64E-03
149077,8.00E-03,1.41E-03
149078,8.00E-03,1.47E-03
149079,8.08E-03,2.62E-03
149080,8.08E-03,2.46E-03
149081,8.00E-03,1.52E-03
149082,8.00E-03,1.57E-03
149083,8.08E-03,2.49E-03
149084,8.09E-03,2.59E-03
149085,7.99E-03,1.62E-03
149086,7.99E-03,1.67E-03
149087,8.09E-03,2.51E-03
149088,7.98E-03,1.71E-03
149089,8.10E-03,2.54E-03
149090,8.10E-03,2.56E-03
149091,7.98E-03,1.75E-03
149092,7.98E-03,2.28E-03
149093,7.97E-03,1.80E-03
149094,7.96E-03,1.84E-03
149095,7.96E-03,2.25E-03
149096,7.95E-03,1.87E-03
149097,7.95E-03,1.91E-03
149098,7.93E-03,2.23E-03
149099,7.94E-03,1.95E-03
149100,7.92E-03,1.98E-03
149101,7.91E-03,2.02E-03
149102,7.90E-03,2.05E-03
149103,7.90E-03,2.20E-03
149104,7.89E-03,2.08E-03
149105,7.88E-03,2.11E-03
149106,7.88E-03,2.17E-03
149107,7.88E-03,2.14E-03
149108,5.83E-03,5.21E-03
149109,6.76E-03,5.21E-03
149110,7.62E-03,5.20E-03
149111,8.20E-03,5.19E-03
149112,8.28E-03,5.19E-03
149113,8.19E-03,5.18E-03
149114,8.00E-03,5.17E-03
149115,7.66E-03,5.16E-03
149116,7.49E-03,5.15E-03
149117,7.77E-03,5.14E-03
149118,8.12E-03,5.12E-03
149119,8.36E-03,5.11E-03
149120,8.33E-03,5.09E-03
149121,8.13E-03,5.07E-03
149122,7.90E-03,5.05E-03
149123,7.78E-03,5.03E-03
149124,7.82E-03,5.01E-03
149125,7.91E-03,4.99E-03
149126,7.97E-03,4.96E-03
149127,8.04E-03,4.94E-03
149128,8.04E-03,4.91E-03
149129,8.04E-03,4.88E-03
149130,8.04E-03,4.85E-03
149131,8.04E-03,4.82E-03
149132,8.04E-03,4.78E-03
149133,8.04E-03,4.75E-03
149134,8.04E-03,4.72E-03
149135,8.04E-03,4.68E-03
149136,8.04E-03,4.64E-03
149137,8.04E-03,4.60E-03
149138,8.04E-03,4.56E-03
149139,8.04E-03,4.52E-03
149140,8.04E-03,4.48E-03
149141,8.04E-03,4.43E-03
149142,8.04E-03,4.39E-03
149143,8.04E-03,4.34E-03
149144,8.04E-03,4.30E-03
149145,8.04E-03,4.25E-03
149146,8.04E-03,4.20E-03
149147,8.04E-03,4.15E-03
149148,8.03E-03,4.09E-03
149149,8.03E-03,4.04E-03
149150,8.03E-03,3.99E-03
149151,8.03E-03,3.93E-03
149152,8.03E-03,3.87E-03
149153,8.03E-03,3.82E-03
149154,8.02E-03,3.76E-03
149155,8.02E-03,3.70E-03
149156,8.01E-03,3.64E-03
149157,8.00E-03,3.58E-03
149158,7.99E-03,3.51E-03
149159,7.98E-03,3.45E-03
149160,7.97E-03,3.39E-03
149161,7.96E-03,3.32E-03
149162,7.95E-03,3.25E-03
149163,7.93E-03,3.19E-03
149164,7.91E-03,3.12E-03
149165,7.91E-03,3.05E-03
149166,7.91E-03,2.98E-03
149167,7.91E-03,2.91E-03
149168,7.96E-03,2.84E-03
149169,8.03E-03,2.78E-03
149170,8.07E-03,2.71E-03
149171,8.10E-03,2.64E-03
149172,8.10E-03,2.58E-03
149173,8.09E-03,2.52E-03
149174,8.09E-03,2.46E-03
149175,8.08E-03,2.40E-03
149176,8.07E-03,2.35E-03
149177,8.07E-03,2.30E-03
149178,8.07E-03,2.25E-03
149179,8.06E-03,2.20E-03
149180,8.06E-03,2.16E-03
149181,8.06E-03,2.11E-03
149182,8.06E-03,2.07E-03
149183,8.06E-03,2.04E-03
149184,8.05E-03,2.00E-03
149185,8.05E-03,1.96E-03
149186,8.05E-03,1.93E-03
149187,8.05E-03,1.90E-03
149188,8.05E-03,1.87E-03
149189,8.05E-03,1.84E-03
149190,8.05E-03,1.80E-03
149191,8.04E-03,1.77E-03
149192,8.04E-03,1.74E-03
149193,8.04E-03,1.71E-03
149194,8.04E-03,1.68E-03
149195,8.04E-03,1.64E-03
149196,8.04E-03,1.60E-03
149197,8.04E-03,1.56E-03
149198,8.04E-03,1.52E-03
149199,8.04E-03,1.47E-03
149200,8.04E-03,1.41E-03
149201,8.04E-03,1.36E-03
149202,8.04E-03,1.30E-03
149203,8.04E-03,1.23E-03
149204,8.04E-03,1.16E-03
149205,8.04E-03,1.08E-03
149206,8.04E-03,9.98E-04
149207,7.96E-03,9.12E-04
149208,7.88E-03,8.23E-04
149209,7.88E-03,7.31E-04
149210,7.91E-03,6.38E-04
149211,8.10E-03,5.53E-04
149212,8.31E-03,4.87E-04
149213,8.44E-03,4.49E-04
149214,8.74E-03,3.86E-04
149215,8.77E-03,3.99E-04
149216,8.59E-03,3.47E-04
149217,8.25E-03,3.18E-04
149218,8.60E-03,4.16E-04
149219,8.11E-03,3.00E-04
149220,8.27E-03,4.54E-04
149221,7.99E-03,2.87E-04
149222,7.99E-03,2.78E-04
149223,7.99E-03,2.73E-04
149224,7.99E-03,2.74E-04
149225,7.99E-03,2.81E-04
149226,7.99E-03,2.92E-04
149227,7.99E-03,3.08E-04
149228,7.99E-03,3.29E-04
149229,7.99E-03,3.30E-04
149230,7.99E-03,3.57E-04
149231,7.99E-03,3.83E-04
149232,7.99E-03,4.08E-04
149233,7.99E-03,4.33E-04
149234,7.99E-03,4.58E-04
149235,7.99E-03,4.83E-04
149236,7.99E-03,5.08E-04
149237,8.08E-03,5.32E-04
149238,8.10E-03,5.56E-04
149239,8.12E-03,5.77E-04
149240,8.08E-03,5.98E-04
149241,8.02E-03,6.15E-04
149246,7.80E-03,1.20E-02
149247,8.63E-03,1.21E-02
149248,8.93E-03,1.20E-02
149249,4.40E-03,1.18E-02
149250,6.24E-03,1.18E-02
149251,5.88E-03,1.17E-02
149252,4.21E-03,1.17E-02
149253,3.59E-03,1.16E-02
149254,6.07E-03,1.16E-02
149255,5.47E-03,1.16E-02
149256,5.38E-03,1.16E-02
149257,9.56E-03,1.00E-02
149258,1.03E-02,9.87E-03
149259,8.38E-03,9.78E-03
149260,9.11E-03,9.75E-03
149261,9.02E-03,9.77E-03
149262,5.21E-03,1.03E-02
149263,6.61E-03,1.02E-02
149264,6.09E-03,1.15E-02
149265,6.37E-03,1.15E-02
149266,5.70E-03,1.11E-02
149267,7.39E-03,9.81E-03
149268,7.25E-03,9.80E-03
149269,7.29E-03,9.83E-03
149270,7.64E-03,9.85E-03
149271,7.42E-03,9.87E-03
149272,7.88E-03,9.90E-03
149273,7.85E-03,9.92E-03
149274,7.98E-03,9.94E-03
149275,8.25E-03,9.97E-03
149276,7.95E-03,9.99E-03
149277,8.26E-03,1.00E-02
149278,8.70E-03,1.00E-02
149279,7.78E-03,1.01E-02
149280,7.75E-03,1.01E-02
149281,8.60E-03,1.01E-02
149282,7.88E-03,1.02E-02
149283,8.30E-03,1.02E-02
149284,7.75E-03,1.02E-02
149285,7.80E-03,1.03E-02
149286,7.87E-03,1.03E-02
149287,7.84E-03,1.03E-02
149288,7.78E-03,1.04E-02
149289,8.02E-03,1.04E-02
149290,7.86E-03,1.04E-02
149291,7.84E-03,1.05E-02
149292,7.92E-03,1.05E-02
149293,7.77E-03,1.05E-02
149294,7.67E-03,1.06E-02
149295,7.75E-03,1.06E-02
149296,7.26E-03,1.07E-02
149297,7.79E-03,1.07E-02
149298,7.32E-03,1.08E-02
149299,6.98E-03,1.08E-02
149300,6.56E-03,1.09E-02
149301,6.26E-03,1.09E-02
149302,5.25E-03,1.10E-02
149303,6.14E-03,1.10E-02
149304,7.21E-03,1.10E-02
149305,7.38E-03,1.09E-02
149306,7.50E-03,1.08E-02
149307,7.67E-03,1.08E-02
149308,8.01E-03,1.07E-02
149309,7.53E-03,1.07E-02
149310,7.91E-03,1.07E-02
149311,7.54E-03,1.06E-02
149312,7.79E-03,1.06E-02
149313,8.05E-03,1.05E-02
149314,7.73E-03,1.05E-02
149315,7.89E-03,1.05E-02
149316,7.98E-03,1.04E-02
149317,7.85E-03,1.04E-02
149318,7.94E-03,1.04E-02
149319,7.74E-03,1.03E-02
149320,7.97E-03,1.03E-02
149321,8.03E-03,1.03E-02
149322,8.04E-03,1.02E-02
149323,8.25E-03,1.02E-02
149324,8.17E-03,1.02E-02
149325,7.97E-03,1.01E-02
149326,8.14E-03,1.01E-02
149327,8.20E-03,1.01E-02
149328,8.50E-03,1.01E-02
149329,7.80E-03,1.00E-02
149330,8.11E-03,1.00E-02
149331,7.89E-03,9.98E-03
149332,7.79E-03,9.95E-03
149333,7.94E-03,9.93E-03
149334,7.54E-03,9.91E-03
149335,7.63E-03,9.89E-03
149336,7.63E-03,9.87E-03
149337,7.67E-03,9.85E-03
149338,7.85E-03,9.84E-03
149339,6.94E-03,9.78E-03
149340,7.89E-03,1.11E-02
149341,7.17E-03,1.12E-02
149342,6.43E-03,1.12E-02
149343,5.03E-03,1.13E-02
149344,5.46E-03,1.14E-02
149345,5.82E-03,1.14E-02
149346,6.84E-03,1.13E-02
149347,7.50E-03,1.12E-02
149348,8.46E-03,1.11E-02
149349,8.42E-03,1.11E-02
149350,7.49E-03,1.10E-02
149351,7.54E-03,1.09E-02
149352,7.54E-03,1.09E-02
149353,7.67E-03,1.08E-02
149354,7.85E-03,1.08E-02
149355,7.82E-03,1.07E-02
149356,7.94E-03,1.07E-02
149357,7.75E-03,1.06E-02
149358,7.84E-03,1.06E-02
149359,8.00E-03,1.06E-02
149360,7.81E-03,1.05E-02
149361,7.92E-03,1.05E-02
149362,7.93E-03,1.04E-02
149363,7.94E-03,1.04E-02
149364,7.98E-03,1.04E-02
149365,7.83E-03,1.03E-02
149366,8.01E-03,1.03E-02
149367,8.03E-03,1.03E-02
149368,8.13E-03,1.02E-02
149369,8.28E-03,1.02E-02
149370,7.85E-03,1.02E-02
149371,8.12E-03,1.02E-02
149372,8.05E-03,1.01E-02
149373,8.20E-03,1.01E-02
149374,8.25E-03,1.01E-02
149375,7.90E-03,1.01E-02
149376,7.99E-03,1.00E-02
149377,8.01E-03,1.00E-02
149378,7.98E-03,9.99E-03
149379,7.83E-03,9.97E-03
149380,7.71E-03,9.95E-03
149381,7.77E-03,9.93E-03
149382,7.90E-03,9.91E-03
149383,7.77E-03,9.89E-03
149384,8.24E-03,9.87E-03
149385,9.08E-03,9.80E-03
149386,8.46E-03,9.84E-03
149387,9.50E-03,9.77E-03
149388,8.70E-03,9.83E-03
149389,8.54E-03,9.75E-03
149390,8.45E-03,9.81E-03
149391,8.20E-03,9.74E-03
149392,8.21E-03,9.79E-03
149393,8.15E-03,9.73E-03
149394,8.10E-03,9.78E-03
149395,7.84E-03,9.71E-03
149396,7.81E-03,9.77E-03
149397,7.55E-03,9.70E-03
149398,7.68E-03,9.76E-03
149399,7.27E-03,9.70E-03
149400,7.32E-03,9.76E-03
149401,5.66E-03,9.70E-03
149402,6.52E-03,9.76E-03
149403,6.67E-03,9.69E-03
149404,8.96E-03,9.70E-03
149405,7.93E-03,9.70E-03
149406,7.50E-03,9.70E-03
149407,7.46E-03,9.70E-03
149408,6.72E-03,9.71E-03
149409,6.79E-03,9.72E-03
149410,7.13E-03,9.70E-03
149411,7.20E-03,9.70E-03
149412,7.60E-03,9.68E-03
149413,8.75E-03,9.66E-03
149414,8.81E-03,9.65E-03
149415,7.64E-03,9.64E-03
149416,7.64E-03,9.63E-03
149417,7.76E-03,9.63E-03
149418,7.90E-03,9.63E-03
149419,7.81E-03,9.63E-03
149420,7.49E-03,9.63E-03
149421,7.22E-03,9.64E-03
149422,7.25E-03,9.64E-03
149423,7.63E-03,9.65E-03
149424,7.85E-03,9.66E-03
149425,8.15E-03,9.67E-03
149426,8.12E-03,9.68E-03
149427,8.38E-03,9.70E-03
149428,9.07E-03,9.71E-03
149429,6.91E-03,9.71E-03
149430,5.97E-03,9.74E-03
149431,7.40E-03,9.75E-03
149432,7.64E-03,9.77E-03
149433,7.52E-03,9.79E-03
149434,7.57E-03,9.81E-03
149435,7.55E-03,9.83E-03
149436,7.77E-03,9.86E-03
149437,7.97E-03,9.88E-03
149438,7.89E-03,9.91E-03
149439,8.10E-03,9.93E-03
149440,8.06E-03,9.96E-03
149441,8.16E-03,9.99E-03
149442,8.61E-03,1.00E-02
149443,7.63E-03,1.00E-02
149444,7.87E-03,1.01E-02
149445,8.33E-03,1.01E-02
149446,7.77E-03,1.01E-02
149447,8.16E-03,1.02E-02
149448,7.63E-03,1.02E-02
149449,7.77E-03,1.02E-02
149450,7.90E-03,1.03E-02
149451,7.82E-03,1.03E-02
149452,7.85E-03,1.03E-02
149453,8.00E-03,1.04E-02
149454,7.95E-03,1.04E-02
149455,7.92E-03,1.04E-02
149456,7.84E-03,1.05E-02
149457,7.77E-03,1.05E-02
149458,7.79E-03,1.06E-02
149459,7.45E-03,1.06E-02
149460,7.57E-03,1.06E-02
149461,7.35E-03,1.07E-02
149462,7.38E-03,1.07E-02
149463,6.69E-03,1.08E-02
149464,6.51E-03,1.08E-02
149465,6.37E-03,1.09E-02
149466,6.53E-03,1.10E-02
149467,5.78E-03,1.10E-02
149468,6.72E-03,1.11E-02
149469,6.96E-03,1.11E-02
149470,6.52E-03,1.12E-02
149471,6.50E-03,1.13E-02
149472,5.99E-03,1.14E-02
149473,7.45E-03,1.15E-02
149474,6.26E-03,1.15E-02
149475,7.14E-03,9.69E-03
149476,6.80E-03,9.73E-03
149477,7.71E-03,9.67E-03
149478,8.89E-03,9.65E-03
149479,7.13E-03,9.62E-03
149480,6.61E-03,9.61E-03
149481,7.94E-03,9.60E-03
149482,7.56E-03,9.59E-03
149483,8.16E-03,9.58E-03
149484,8.19E-03,9.57E-03
149485,8.05E-03,9.57E-03
149486,7.79E-03,9.56E-03
149487,7.86E-03,9.56E-03
149488,7.90E-03,9.56E-03
149489,7.83E-03,9.56E-03
149490,7.74E-03,9.57E-03
149491,7.59E-03,9.57E-03
149492,7.57E-03,9.58E-03
149493,7.67E-03,9.59E-03
149494,7.87E-03,9.60E-03
149495,8.12E-03,9.61E-03
149496,8.20E-03,9.62E-03
149497,8.30E-03,9.64E-03
149498,8.01E-03,9.65E-03
149499,7.57E-03,9.67E-03
149500,7.24E-03,9.69E-03
149501,7.30E-03,9.70E-03
149502,7.62E-03,9.72E-03
149503,7.70E-03,9.75E-03
149504,7.56E-03,9.77E-03
149505,7.83E-03,9.79E-03
149506,7.90E-03,9.82E-03
149507,8.05E-03,9.84E-03
149508,7.88E-03,9.87E-03
149509,8.00E-03,9.90E-03
149510,8.07E-03,9.92E-03
149511,8.20E-03,9.95E-03
149512,8.06E-03,9.98E-03
149513,8.09E-03,1.00E-02
149514,7.98E-03,1.00E-02
149515,8.02E-03,1.01E-02
149516,8.10E-03,1.01E-02
149517,7.86E-03,1.01E-02
149518,7.94E-03,1.02E-02
149519,7.87E-03,1.02E-02
149520,7.88E-03,1.02E-02
149521,7.94E-03,1.03E-02
149522,7.93E-03,1.03E-02
149523,8.00E-03,1.03E-02
149524,8.01E-03,1.04E-02
149525,7.99E-03,1.04E-02
149526,8.08E-03,1.04E-02
149527,7.69E-03,1.05E-02
149528,7.97E-03,1.05E-02
149529,7.58E-03,1.06E-02
149530,7.89E-03,1.06E-02
149531,7.41E-03,1.07E-02
149532,7.96E-03,1.07E-02
149533,7.47E-03,1.08E-02
149534,7.28E-03,1.08E-02
149535,7.06E-03,1.09E-02
149536,7.09E-03,1.09E-02
149537,6.83E-03,1.10E-02
149538,6.89E-03,1.11E-02
149539,6.96E-03,1.11E-02
149540,6.85E-03,1.12E-02
149541,6.82E-03,1.13E-02
149542,6.60E-03,1.14E-02
149543,6.34E-03,1.14E-02
149544,6.10E-03,1.15E-02
149545,5.77E-03,1.16E-02
149546,5.75E-03,1.17E-02
149547,6.80E-03,1.18E-02
149548,6.78E-03,1.16E-02
149549,7.99E-03,1.15E-02
149550,7.96E-03,1.14E-02
149551,7.31E-03,1.13E-02
149552,7.71E-03,1.12E-02
149553,7.94E-03,1.12E-02
149554,7.98E-03,1.11E-02
149555,7.85E-03,1.10E-02
149556,7.79E-03,1.10E-02
149557,7.89E-03,1.09E-02
149558,7.95E-03,1.09E-02
149559,8.02E-03,1.08E-02
149560,8.02E-03,1.08E-02
149561,8.02E-03,1.07E-02
149562,7.96E-03,1.07E-02
149563,7.91E-03,1.06E-02
149564,7.94E-03,1.06E-02
149565,7.95E-03,1.05E-02
149566,7.96E-03,1.05E-02
149567,7.93E-03,1.05E-02
149568,7.94E-03,1.04E-02
149569,7.95E-03,1.04E-02
149570,7.94E-03,1.04E-02
149571,8.00E-03,1.03E-02
149572,8.04E-03,1.03E-02
149573,8.11E-03,1.03E-02
149574,8.19E-03,1.02E-02
149575,7.93E-03,1.02E-02
149576,8.06E-03,1.02E-02
149577,8.11E-03,1.02E-02
149578,8.13E-03,1.01E-02
149579,8.07E-03,1.01E-02
149580,8.07E-03,1.01E-02
149581,8.02E-03,1.01E-02
149582,7.92E-03,1.00E-02
149583,8.02E-03,1.00E-02
149584,7.81E-03,1.00E-02
149585,7.88E-03,9.98E-03
149586,7.77E-03,9.96E-03
149587,7.93E-03,9.94E-03
149588,7.87E-03,9.92E-03
149589,8.20E-03,9.90E-03
149590,8.29E-03,9.89E-03
149591,8.34E-03,9.87E-03
149592,8.30E-03,9.86E-03
149593,8.17E-03,9.84E-03
149594,8.07E-03,9.83E-03
149595,7.96E-03,9.82E-03
149596,7.84E-03,9.82E-03
149597,7.78E-03,9.81E-03
149598,8.83E-03,9.80E-03
149599,9.07E-03,9.77E-03
149600,8.28E-03,9.77E-03
149601,7.63E-03,9.77E-03
149602,7.99E-03,9.77E-03
149603,8.10E-03,9.77E-03
149604,6.71E-03,9.79E-03
149605,6.76E-03,9.77E-03
149606,8.72E-03,9.75E-03
149607,8.09E-03,9.76E-03
149608,7.99E-03,9.78E-03
149609,7.90E-03,9.77E-03
149610,8.06E-03,9.79E-03
149611,6.62E-03,9.82E-03
149612,6.25E-03,9.81E-03
149613,8.78E-03,9.78E-03
149614,7.96E-03,9.82E-03
149615,7.41E-03,9.85E-03
149616,6.95E-03,9.89E-03
149617,6.54E-03,9.94E-03
149618,7.50E-03,9.89E-03
149619,5.86E-03,9.79E-03
149620,6.57E-03,9.76E-03
149621,7.36E-03,9.73E-03
149622,7.85E-03,9.70E-03
149623,8.96E-03,9.66E-03
149624,8.87E-03,9.63E-03
149625,7.78E-03,9.60E-03
149626,8.03E-03,9.58E-03
149627,7.85E-03,9.56E-03
149628,7.75E-03,9.54E-03
149629,7.73E-03,9.52E-03
149630,7.64E-03,9.51E-03
149631,7.95E-03,9.50E-03
149632,8.07E-03,9.50E-03
149633,8.10E-03,9.49E-03
149634,8.09E-03,9.49E-03
149635,7.97E-03,9.48E-03
149636,7.95E-03,9.48E-03
149637,7.90E-03,9.49E-03
149638,7.95E-03,9.49E-03
149639,7.85E-03,9.50E-03
149640,7.80E-03,9.51E-03
149641,7.87E-03,9.51E-03
149642,7.91E-03,9.52E-03
149643,7.95E-03,9.54E-03
149644,7.95E-03,9.55E-03
149645,7.95E-03,9.56E-03
149646,7.90E-03,9.58E-03
149647,7.88E-03,9.60E-03
149648,7.72E-03,9.62E-03
149649,7.56E-03,9.64E-03
149650,7.52E-03,9.66E-03
149651,7.78E-03,9.68E-03
149652,7.86E-03,9.70E-03
149653,7.80E-03,9.72E-03
149654,7.83E-03,9.75E-03
149655,7.94E-03,9.77E-03
149656,8.04E-03,9.80E-03
149657,8.05E-03,9.83E-03
149658,7.94E-03,9.85E-03
149659,8.03E-03,9.88E-03
149660,8.05E-03,9.91E-03
149661,8.00E-03,9.94E-03
149662,8.00E-03,9.97E-03
149663,8.01E-03,1.00E-02
149664,8.01E-03,1.00E-02
149665,8.01E-03,1.01E-02
149666,7.94E-03,1.01E-02
149667,7.95E-03,1.01E-02
149668,7.91E-03,1.02E-02
149669,7.93E-03,1.02E-02
149670,7.95E-03,1.02E-02
149671,7.96E-03,1.03E-02
149672,8.01E-03,1.03E-02
149673,8.04E-03,1.03E-02
149674,8.03E-03,1.04E-02
149675,8.13E-03,1.04E-02
149676,7.79E-03,1.04E-02
149677,7.95E-03,1.05E-02
149678,7.77E-03,1.05E-02
149679,7.89E-03,1.06E-02
149680,7.76E-03,1.06E-02
149681,7.78E-03,1.07E-02
149682,7.62E-03,1.07E-02
149683,7.53E-03,1.08E-02
149684,7.41E-03,1.08E-02
149685,7.36E-03,1.09E-02
149686,7.34E-03,1.10E-02
149687,7.26E-03,1.10E-02
149688,7.22E-03,1.11E-02
149689,7.16E-03,1.12E-02
149690,7.06E-03,1.12E-02
149691,6.94E-03,1.13E-02
149692,6.75E-03,1.14E-02
149693,6.52E-03,1.15E-02
149694,6.48E-03,1.16E-02
149695,6.72E-03,1.17E-02
149696,7.34E-03,1.18E-02
149697,8.65E-03,1.21E-02
149698,8.85E-03,1.20E-02
149699,7.34E-03,1.19E-02
149700,6.73E-03,1.17E-02
149701,6.72E-03,1.17E-02
149702,7.04E-03,1.16E-02
149703,7.43E-03,1.15E-02
149704,7.63E-03,1.14E-02
149705,7.71E-03,1.13E-02
149706,7.74E-03,1.13E-02
149707,7.91E-03,1.12E-02
149708,7.95E-03,1.11E-02
149709,8.02E-03,1.11E-02
149710,7.98E-03,1.10E-02
149711,7.95E-03,1.09E-02
149712,8.02E-03,1.09E-02
149713,8.02E-03,1.08E-02
149714,8.02E-03,1.08E-02
149715,8.02E-03,1.07E-02
149716,8.02E-03,1.07E-02
149717,8.02E-03,1.06E-02
149718,8.02E-03,1.06E-02
149719,8.02E-03,1.06E-02
149720,8.02E-03,1.05E-02
149721,7.96E-03,1.05E-02
149722,7.98E-03,1.05E-02
149723,7.99E-03,1.04E-02
149724,8.00E-03,1.04E-02
149725,8.03E-03,1.04E-02
149726,8.05E-03,1.03E-02
149727,8.06E-03,1.03E-02
149728,8.06E-03,1.03E-02
149729,8.07E-03,1.02E-02
149730,8.06E-03,1.02E-02
149731,8.05E-03,1.02E-02
149732,8.04E-03,1.02E-02
149733,8.03E-03,1.01E-02
149734,8.04E-03,1.01E-02
149735,8.07E-03,1.01E-02
149736,7.92E-03,1.01E-02
149737,7.96E-03,1.01E-02
149738,7.94E-03,1.00E-02
149739,8.04E-03,1.00E-02
149740,7.97E-03,9.99E-03
149741,7.94E-03,9.98E-03
149742,7.99E-03,9.96E-03
149743,8.09E-03,9.94E-03
149744,8.16E-03,9.93E-03
149745,8.21E-03,9.92E-03
149746,8.18E-03,9.90E-03
149747,8.11E-03,9.89E-03
149748,8.10E-03,9.88E-03
149749,7.98E-03,9.87E-03
149750,7.89E-03,9.87E-03
149751,8.14E-03,9.86E-03
149752,8.27E-03,9.85E-03
149753,8.27E-03,9.84E-03
149754,8.21E-03,9.84E-03
149755,8.03E-03,9.84E-03
149756,7.94E-03,9.84E-03
149757,7.71E-03,9.84E-03
149758,7.69E-03,9.83E-03
149759,7.56E-03,9.84E-03
149760,7.86E-03,9.84E-03
149761,8.22E-03,9.85E-03
149762,8.32E-03,9.85E-03
149763,8.34E-03,9.86E-03
149764,8.36E-03,9.86E-03
149765,8.19E-03,9.87E-03
149766,7.79E-03,9.88E-03
149767,7.98E-03,9.89E-03
149768,7.47E-03,9.92E-03
149769,7.71E-03,9.92E-03
149770,7.85E-03,9.94E-03
149771,7.61E-03,9.97E-03
149772,7.50E-03,1.00E-02
149773,7.73E-03,1.00E-02
149774,9.21E-03,1.00E-02
149775,8.30E-03,1.01E-02
149776,7.41E-03,1.02E-02
149777,7.99E-03,9.47E-03
149778,7.94E-03,9.46E-03
149779,7.88E-03,9.44E-03
149780,7.85E-03,9.43E-03
149781,8.15E-03,9.50E-03
149782,7.88E-03,9.42E-03
149783,8.03E-03,9.41E-03
149784,8.24E-03,9.52E-03
149785,8.02E-03,9.41E-03
149786,8.29E-03,9.54E-03
149787,8.02E-03,9.40E-03
149788,8.02E-03,9.40E-03
149789,8.02E-03,9.40E-03
149790,8.02E-03,9.40E-03
149791,8.01E-03,9.57E-03
149792,8.02E-03,9.41E-03
149793,8.02E-03,9.41E-03
149794,8.01E-03,9.42E-03
149795,7.97E-03,9.43E-03
149796,7.97E-03,9.44E-03
149797,8.01E-03,9.45E-03
149798,8.01E-03,9.47E-03
149799,8.01E-03,9.48E-03
149800,8.01E-03,9.50E-03
149801,8.01E-03,9.52E-03
149802,7.93E-03,9.54E-03
149803,7.84E-03,9.56E-03
149804,7.95E-03,9.58E-03
149805,7.94E-03,9.60E-03
149806,7.92E-03,9.62E-03
149807,7.94E-03,9.64E-03
149808,8.01E-03,9.67E-03
149809,8.02E-03,9.70E-03
149810,8.03E-03,9.72E-03
149811,8.03E-03,9.75E-03
149812,8.03E-03,9.78E-03
149813,8.03E-03,9.80E-03
149814,8.03E-03,9.83E-03
149815,8.03E-03,9.86E-03
149816,8.03E-03,9.89E-03
149817,8.03E-03,9.93E-03
149818,8.03E-03,9.96E-03
149819,8.03E-03,9.99E-03
149820,8.03E-03,1.00E-02
149821,8.03E-03,1.01E-02
149822,8.03E-03,1.01E-02
149823,7.97E-03,1.01E-02
149824,7.98E-03,1.02E-02
149825,8.00E-03,1.02E-02
149826,8.02E-03,1.02E-02
149827,8.05E-03,1.03E-02
149828,8.09E-03,1.03E-02
149829,8.03E-03,1.03E-02
149830,8.03E-03,1.04E-02
149831,8.03E-03,1.04E-02
149832,8.02E-03,1.04E-02
149833,8.01E-03,1.05E-02
149834,7.92E-03,9.60E-03
149835,7.33E-03,9.64E-03
149836,6.39E-03,9.67E-03
149837,8.00E-03,1.05E-02
149838,6.53E-03,9.72E-03
149839,7.99E-03,1.06E-02
149840,7.98E-03,1.06E-02
149841,8.52E-03,9.96E-03
149842,7.90E-03,1.07E-02
149843,7.04E-03,1.00E-02
149844,7.87E-03,1.07E-02
149845,5.80E-03,1.01E-02
149846,7.85E-03,1.08E-02
149847,4.39E-03,1.02E-02
149848,5.59E-03,1.03E-02
149849,7.76E-03,1.08E-02
149850,7.70E-03,1.09E-02
149851,7.66E-03,1.10E-02
149852,7.57E-03,1.11E-02
149853,7.54E-03,1.11E-02
149854,7.43E-03,1.12E-02
149855,7.29E-03,1.13E-02
149856,7.16E-03,1.14E-02
149857,7.03E-03,1.15E-02
149858,6.99E-03,1.16E-02
149859,7.16E-03,1.17E-02
149860,7.78E-03,1.19E-02
149861,8.11E-03,1.20E-02
149862,8.23E-03,1.21E-02
149863,8.12E-03,1.22E-02
149864,7.57E-03,1.22E-02
149865,6.79E-03,1.23E-02
149866,5.90E-03,1.23E-02
149867,7.03E-03,1.25E-02
149868,8.65E-03,1.24E-02
149869,8.32E-03,1.22E-02
149870,7.46E-03,1.21E-02
149871,8.08E-03,1.20E-02
149872,7.66E-03,1.19E-02
149873,7.08E-03,1.18E-02
149874,6.99E-03,1.17E-02
149875,7.22E-03,1.16E-02
149876,7.52E-03,1.15E-02
149877,7.70E-03,1.14E-02
149878,7.79E-03,1.14E-02
149879,7.87E-03,1.13E-02
149880,7.94E-03,1.12E-02
149881,8.02E-03,1.12E-02
149882,8.02E-03,1.11E-02
149883,8.02E-03,1.10E-02
149884,8.02E-03,1.10E-02
149885,8.02E-03,1.09E-02
149886,8.02E-03,1.09E-02
149887,8.02E-03,1.08E-02
149888,8.02E-03,1.08E-02
149889,8.02E-03,1.07E-02
149890,8.02E-03,1.07E-02
149891,8.02E-03,1.06E-02
149892,8.02E-03,1.06E-02
149893,8.02E-03,1.06E-02
149894,8.02E-03,1.05E-02
149895,8.02E-03,1.05E-02
149896,8.02E-03,1.04E-02
149897,8.02E-03,1.04E-02
149898,8.02E-03,1.04E-02
149899,8.02E-03,1.03E-02
149900,8.02E-03,1.03E-02
149901,8.02E-03,1.03E-02
149902,8.02E-03,1.03E-02
149903,8.02E-03,1.02E-02
149904,8.02E-03,1.02E-02
149905,8.02E-03,1.02E-02
149906,8.02E-03,1.02E-02
149907,8.02E-03,1.01E-02
149908,8.02E-03,1.01E-02
149909,8.02E-03,1.01E-02
149910,8.02E-03,1.01E-02
149911,8.02E-03,1.01E-02
149912,8.02E-03,1.00E-02
149913,8.02E-03,1.00E-02
149914,8.02E-03,1.00E-02
149915,8.02E-03,1.00E-02
149916,8.02E-03,9.98E-03
149917,8.06E-03,9.97E-03
149918,8.11E-03,9.96E-03
149919,8.12E-03,9.95E-03
149920,8.08E-03,9.94E-03
149921,8.10E-03,9.93E-03
149922,8.02E-03,9.92E-03
149923,8.02E-03,9.92E-03
149924,8.10E-03,9.91E-03
149925,8.11E-03,9.91E-03
149926,8.12E-03,9.90E-03
149927,8.06E-03,9.90E-03
149928,8.02E-03,9.90E-03
149929,7.93E-03,9.90E-03
149930,7.87E-03,9.90E-03
149931,7.79E-03,9.90E-03
149932,7.81E-03,9.91E-03
149933,7.97E-03,9.92E-03
149934,8.11E-03,9.92E-03
149935,8.20E-03,9.93E-03
149936,8.20E-03,9.94E-03
149937,8.20E-03,9.96E-03
149938,8.05E-03,9.96E-03
149939,7.95E-03,9.98E-03
149940,7.85E-03,9.99E-03
149941,7.84E-03,1.00E-02
149942,7.86E-03,1.00E-02
149943,7.77E-03,1.01E-02
149944,7.68E-03,1.01E-02
149945,7.66E-03,1.01E-02
149946,8.09E-03,1.01E-02
149947,8.53E-03,1.02E-02
149948,8.65E-03,1.02E-02
149949,8.27E-03,1.02E-02
149950,7.44E-03,1.03E-02
149951,6.60E-03,1.03E-02
149952,6.55E-03,1.04E-02
149953,1.03E-02,1.25E-02
149954,9.12E-03,1.04E-02
149955,8.37E-03,1.27E-02
149956,9.30E-03,1.05E-02
149957,5.72E-03,1.06E-02
149960,3.77E-03,1.79E-02
149961,5.08E-03,1.79E-02
149962,4.62E-03,1.77E-02
149963,3.62E-03,1.78E-02
149964,3.47E-03,1.78E-02
149965,4.94E-03,1.77E-02
149966,5.25E-03,1.78E-02
149967,6.70E-03,1.76E-02
149968,6.20E-03,1.75E-02
149969,5.94E-03,1.80E-02
149970,5.02E-03,1.79E-02
149971,5.66E-03,1.79E-02
149972,8.01E-03,1.78E-02
149973,6.65E-03,1.76E-02
149974,6.63E-03,1.74E-02
149975,7.03E-03,1.75E-02
149976,4.42E-03,1.75E-02
149977,5.66E-03,1.75E-02
149978,7.31E-03,1.80E-02
149979,5.02E-03,1.76E-02
149980,6.06E-03,1.75E-02
149981,6.64E-03,1.73E-02
149982,2.92E-03,3.77E-03
149983,4.04E-03,3.53E-03
149984,3.39E-03,3.31E-03
149985,2.30E-03,3.54E-03
149986,3.08E-03,3.81E-03
149987,3.64E-03,3.33E-03
149988,3.16E-03,3.65E-03
149989,3.80E-03,3.93E-03
149990,4.23E-03,3.53E-03
149991,4.09E-03,3.78E-03
149992,4.08E-03,4.01E-03
149993,4.80E-03,3.70E-03
149994,4.77E-03,3.91E-03
149995,4.71E-03,4.11E-03
149996,5.05E-03,4.22E-03
149997,5.19E-03,4.04E-03
149998,5.10E-03,3.86E-03
149999,6.22E-03,4.37E-03
150000,4.17E-03,3.97E-03
150001,3.66E-03,3.96E-03
150002,3.83E-03,4.08E-03
150003,4.26E-03,4.17E-03
150004,4.70E-03,4.27E-03
150005,5.04E-03,4.38E-03
150006,5.68E-03,4.02E-03
150007,5.41E-03,4.17E-03
150008,5.32E-03,4.33E-03
150009,5.53E-03,4.49E-03
150020,5.20E-03,9.64E-03
150021,7.47E-03,9.61E-03
150022,6.77E-03,9.50E-03
150023,4.72E-03,9.55E-03
150024,4.46E-03,9.69E-03
150025,6.79E-03,9.43E-03
150026,6.00E-03,9.53E-03
150027,5.81E-03,9.68E-03
150028,1.03E-02,1.07E-02
150029,1.02E-02,1.08E-02
150030,1.15E-02,1.09E-02
150031,1.19E-02,1.07E-02
150032,1.14E-02,8.99E-03
150033,1.15E-02,8.88E-03
150034,8.38E-03,8.89E-03
150035,8.84E-03,8.99E-03
150036,1.14E-02,9.65E-03
150037,1.10E-02,9.66E-03
150038,1.06E-02,9.72E-03
150039,1.05E-02,9.86E-03
150040,9.47E-03,9.90E-03
150041,1.07E-02,9.92E-03
150042,1.05E-02,7.99E-03
150043,1.09E-02,7.79E-03
150044,1.11E-02,7.96E-03
150045,9.38E-03,1.26E-02
150046,1.10E-02,1.29E-02
150047,1.06E-02,1.28E-02
150048,9.17E-03,1.37E-02
150049,8.71E-03,1.40E-02
150050,9.24E-03,1.39E-02
150051,6.00E-03,5.89E-03
150052,7.52E-03,5.90E-03
150053,6.31E-03,5.70E-03
150054,4.86E-03,5.74E-03
150055,4.73E-03,5.90E-03
150056,4.10E-03,7.41E-03
150057,5.90E-03,7.40E-03
150058,5.85E-03,9.60E-03
150059,7.60E-03,9.65E-03
150060,7.97E-03,9.93E-03
150061,5.03E-03,9.89E-03
150062,6.86E-03,1.00E-02
150063,1.21E-02,9.91E-03
150064,1.06E-02,9.96E-03
150065,8.79E-03,9.69E-03
150066,1.07E-02,9.77E-03
150067,8.32E-03,9.78E-03
150068,8.31E-03,9.62E-03
150069,7.31E-03,9.50E-03
150070,1.21E-02,9.07E-03
150071,1.03E-02,1.02E-02
150072,9.60E-03,1.02E-02
150073,1.06E-02,1.01E-02
150074,9.58E-03,1.17E-02
150075,8.28E-03,1.16E-02
150076,8.03E-03,1.14E-02
150077,1.04E-02,9.85E-03
150078,9.40E-03,9.81E-03
150079,8.11E-03,9.74E-03
150080,9.13E-03,9.93E-03
150081,8.66E-03,9.91E-03
150082,1.05E-02,1.10E-02
150083,8.81E-03,1.08E-02
150084,1.04E-02,9.77E-03
150085,9.56E-03,6.69E-03
150086,9.42E-03,6.81E-03
150087,4.93E-03,1.29E-02
150088,7.10E-03,1.30E-02
150089,6.06E-03,1.31E-02
150090,3.93E-03,1.29E-02
150091,4.55E-03,1.28E-02
150092,5.01E-03,1.08E-02
150093,6.71E-03,1.07E-02
150094,5.52E-03,1.08E-02
150095,8.34E-03,1.11E-02
150096,6.36E-03,1.09E-02
150097,5.28E-03,1.11E-02
150098,6.30E-03,1.12E-02
150099,5.45E-03,9.78E-03
150100,5.49E-03,9.86E-03
150101,5.42E-03,9.82E-03
150102,5.15E-03,7.02E-03
150103,5.00E-03,6.93E-03
150104,5.31E-03,6.87E-03
150105,5.72E-03,9.53E-03
150106,6.36E-03,9.48E-03
150107,5.98E-03,9.45E-03
150108,5.03E-03,6.40E-03
150109,5.00E-03,6.42E-03
150110,4.46E-03,6.31E-03
150111,4.46E-03,1.42E-02
150112,4.91E-03,1.42E-02
150113,3.95E-03,1.43E-02
150114,4.97E-03,9.47E-03
150115,4.93E-03,9.66E-03
150116,4.77E-03,9.55E-03
150117,1.19E-02,9.85E-03
150118,8.08E-03,9.30E-03
150119,9.33E-03,9.19E-03
150120,8.21E-03,9.36E-03
150121,1.04E-02,9.92E-03
150122,5.33E-03,1.13E-02
150123,7.56E-03,1.12E-02
150124,6.09E-03,9.81E-03
150125,7.39E-03,9.72E-03
150126,5.67E-03,9.15E-03
150127,1.03E-02,1.01E-02
150128,1.11E-02,9.83E-03
150129,8.57E-03,9.81E-03
150130,5.83E-03,9.89E-03
150131,6.34E-03,9.78E-03
150132,5.79E-03,9.76E-03
150133,8.17E-03,9.71E-03
150134,6.70E-03,9.53E-03
150135,6.57E-03,9.66E-03
150136,6.51E-03,9.78E-03
150137,6.64E-03,9.85E-03
150138,7.03E-03,9.91E-03
150139,7.94E-03,1.00E-02
150140,1.09E-02,9.86E-03
150141,7.20E-03,9.40E-03
150142,9.67E-03,1.03E-02
150143,1.16E-02,1.02E-02
150144,1.05E-02,1.01E-02
150145,1.06E-02,1.00E-02
150146,1.03E-02,9.99E-03
150147,1.25E-02,9.79E-03
150148,5.64E-03,1.05E-02
150149,6.28E-03,1.04E-02
150150,8.58E-03,1.00E-02
150151,7.67E-03,9.94E-03
150152,7.33E-03,9.84E-03
150153,6.91E-03,9.75E-03
150154,6.99E-03,9.64E-03
150155,7.06E-03,9.52E-03
150156,7.99E-03,1.07E-02
150157,9.15E-03,9.14E-03
150158,7.55E-03,9.39E-03
150159,8.22E-03,9.27E-03
150160,8.42E-03,9.45E-03
150161,8.78E-03,9.56E-03
150162,9.62E-03,9.65E-03
150163,1.08E-02,9.72E-03
150164,6.30E-03,1.06E-02
150165,7.62E-03,1.04E-02
150166,8.40E-03,1.03E-02
150167,8.81E-03,1.02E-02
150168,8.64E-03,1.01E-02
150169,8.12E-03,9.95E-03
150170,7.89E-03,9.84E-03
150171,7.42E-03,9.73E-03
150172,7.28E-03,9.62E-03
150173,8.40E-03,1.06E-02
150174,7.53E-03,1.08E-02
150175,7.35E-03,9.51E-03
150176,5.54E-03,1.04E-02
150177,8.86E-03,1.04E-02
150178,1.05E-02,1.03E-02
150179,1.08E-02,1.02E-02
150180,1.05E-02,1.01E-02
150181,1.04E-02,1.01E-02
150182,1.02E-02,9.99E-03
150183,9.94E-03,9.95E-03
150184,8.67E-03,9.83E-03
150185,8.18E-03,9.92E-03
150186,6.17E-03,9.84E-03
150187,7.84E-03,1.05E-02
150188,4.84E-03,1.09E-02
150189,7.77E-03,9.39E-03
150190,8.12E-03,9.25E-03
150191,8.72E-03,9.12E-03
150192,9.74E-03,9.28E-03
150193,9.43E-03,9.38E-03
150194,9.43E-03,9.50E-03
150195,9.97E-03,9.59E-03
150196,1.09E-02,9.67E-03
150197,1.22E-02,9.74E-03
150198,1.17E-02,9.74E-03
150199,8.92E-03,9.79E-03
150200,7.87E-03,1.04E-02
150201,8.37E-03,1.03E-02
150202,8.54E-03,1.02E-02
150203,8.51E-03,1.01E-02
150204,8.32E-03,9.97E-03
150205,8.11E-03,9.85E-03
150206,8.12E-03,9.73E-03
150207,7.78E-03,9.61E-03
150208,7.60E-03,9.50E-03
150209,7.69E-03,9.37E-03
150210,7.69E-03,9.25E-03
150211,7.75E-03,9.12E-03
150212,7.55E-03,9.01E-03
150213,7.15E-03,8.90E-03
150214,6.03E-03,8.79E-03
150215,7.63E-03,8.76E-03
150216,3.59E-03,8.72E-03
150217,7.04E-03,8.65E-03
150218,8.81E-03,1.06E-02
150219,5.46E-03,1.09E-02
150220,7.85E-03,1.06E-02
150221,1.11E-02,1.05E-02
150222,1.06E-02,1.04E-02
150223,1.06E-02,1.03E-02
150224,1.05E-02,1.02E-02
150225,1.02E-02,1.01E-02
150226,1.00E-02,1.01E-02
150227,9.50E-03,1.00E-02
150228,9.01E-03,9.97E-03
150229,8.51E-03,9.91E-03
150230,8.01E-03,1.04E-02
150231,8.45E-03,1.03E-02
150232,8.49E-03,1.02E-02
150233,8.54E-03,1.01E-02
150234,8.43E-03,9.98E-03
150235,8.27E-03,9.86E-03
150236,8.23E-03,9.73E-03
150237,7.94E-03,9.61E-03
150238,7.71E-03,9.49E-03
150239,7.70E-03,9.36E-03
150240,7.58E-03,9.24E-03
150241,7.54E-03,9.13E-03
150242,7.28E-03,9.02E-03
150243,6.54E-03,8.92E-03
150244,5.68E-03,8.84E-03
150245,4.80E-03,8.74E-03
150246,5.40E-03,8.59E-03
150247,8.50E-03,8.48E-03
150248,7.98E-03,8.36E-03
150249,7.17E-03,1.08E-02
150250,5.79E-03,1.09E-02
150251,8.31E-03,1.09E-02
150252,7.62E-03,1.06E-02
150253,9.37E-03,9.81E-03
150254,1.11E-02,9.79E-03
150255,1.07E-02,9.73E-03
150256,1.05E-02,9.67E-03
150257,1.08E-02,9.63E-03
150258,1.07E-02,9.59E-03
150259,1.02E-02,9.52E-03
150260,1.01E-02,9.43E-03
150261,1.04E-02,9.32E-03
150262,1.09E-02,9.19E-03
150263,9.40E-03,8.76E-03
150264,1.01E-02,8.58E-03
150265,8.57E-03,8.40E-03
150266,5.79E-03,8.20E-03
150267,6.61E-03,1.11E-02
150268,6.15E-03,1.12E-02
150269,5.39E-03,1.13E-02
150270,4.65E-03,1.14E-02
150271,8.78E-03,1.18E-02
150272,8.41E-03,1.20E-02
150273,1.03E-02,1.16E-02
150274,1.05E-02,1.14E-02
150275,9.40E-03,1.12E-02
150276,1.07E-02,1.10E-02
150277,1.21E-02,1.05E-02
150278,1.09E-02,1.04E-02
150279,1.05E-02,1.03E-02
150280,1.03E-02,1.03E-02
150281,9.99E-03,1.02E-02
150282,9.62E-03,1.01E-02
150283,9.48E-03,1.01E-02
150284,9.32E-03,1.00E-02
150285,9.54E-03,9.97E-03
150286,8.46E-03,9.84E-03
150287,6.25E-03,1.10E-02
150288,8.15E-03,1.05E-02
150289,8.51E-03,1.04E-02
150290,8.50E-03,1.02E-02
150291,8.59E-03,1.01E-02
150292,8.48E-03,9.99E-03
150293,8.34E-03,9.87E-03
150294,8.17E-03,9.74E-03
150295,8.00E-03,9.61E-03
150296,7.74E-03,9.48E-03
150297,7.69E-03,9.35E-03
150298,7.37E-03,9.23E-03
150299,7.19E-03,9.12E-03
150300,6.88E-03,9.00E-03
150301,6.50E-03,8.90E-03
150302,6.06E-03,8.79E-03
150303,5.96E-03,8.66E-03
150304,6.56E-03,8.48E-03
150305,7.28E-03,8.36E-03
150306,7.87E-03,8.28E-03
150307,8.72E-03,8.11E-03
150308,7.20E-03,1.07E-02
150309,6.96E-03,1.11E-02
150310,6.84E-03,1.12E-02
150311,6.90E-03,1.13E-02
150312,5.72E-03,1.15E-02
150313,8.01E-03,1.19E-02
150314,5.81E-03,1.21E-02
150315,6.14E-03,1.22E-02
150316,1.01E-02,1.22E-02
150317,1.03E-02,1.24E-02
150318,1.06E-02,1.22E-02
150319,9.69E-03,1.20E-02
150320,9.47E-03,1.18E-02
150321,9.93E-03,1.16E-02
150322,1.02E-02,1.14E-02
150323,1.04E-02,1.12E-02
150324,1.06E-02,1.10E-02
150325,1.10E-02,1.09E-02
150326,1.11E-02,1.07E-02
150327,1.09E-02,1.06E-02
150328,1.08E-02,1.05E-02
150329,1.03E-02,1.04E-02
150330,1.02E-02,1.03E-02
150331,9.71E-03,1.03E-02
150332,9.55E-03,1.02E-02
150333,9.40E-03,1.01E-02
150334,9.37E-03,1.01E-02
150335,9.49E-03,1.00E-02
150336,9.24E-03,1.00E-02
150337,8.91E-03,9.95E-03
150338,9.34E-03,9.89E-03
150339,7.59E-03,9.79E-03
150340,9.79E-03,9.83E-03
150341,8.51E-03,9.69E-03
150342,9.51E-03,9.68E-03
150343,1.04E-02,9.65E-03
150344,1.02E-02,9.60E-03
150345,1.04E-02,9.55E-03
150346,1.03E-02,9.50E-03
150347,1.03E-02,9.43E-03
150348,1.03E-02,9.35E-03
150349,1.06E-02,9.24E-03
150350,1.12E-02,9.13E-03
150351,1.30E-02,9.00E-03
150352,1.26E-02,8.88E-03
150353,1.05E-02,8.71E-03
150354,9.73E-03,8.54E-03
150355,9.39E-03,8.38E-03
150356,9.13E-03,8.18E-03
150357,1.06E-02,1.25E-02
150358,7.80E-03,9.89E-03
150359,9.12E-03,9.96E-03
150360,8.93E-03,1.00E-02
150361,8.86E-03,1.01E-02
150362,8.95E-03,1.01E-02
150363,9.20E-03,1.02E-02
150364,9.27E-03,1.02E-02
150365,9.45E-03,1.03E-02
150366,9.46E-03,1.03E-02
150367,1.00E-02,1.04E-02
150368,1.02E-02,1.05E-02
150369,1.05E-02,1.06E-02
150370,1.05E-02,1.07E-02
150371,1.05E-02,1.08E-02
150372,1.04E-02,1.09E-02
150373,1.02E-02,1.11E-02
150374,1.00E-02,1.12E-02
150375,9.90E-03,1.14E-02
150376,9.90E-03,1.16E-02
150377,9.84E-03,1.18E-02
150378,9.96E-03,1.20E-02
150379,1.02E-02,1.22E-02
150380,8.88E-03,1.23E-02
150381,9.72E-03,1.26E-02
150382,7.46E-03,1.11E-02
150383,7.41E-03,1.12E-02
150384,7.24E-03,1.14E-02
150385,6.41E-03,1.16E-02
150386,7.14E-03,1.18E-02
150387,7.73E-03,1.19E-02
150388,7.06E-03,1.20E-02
150389,6.86E-03,1.21E-02
150390,6.11E-03,1.22E-02
150391,6.10E-03,1.23E-02
150392,9.49E-03,1.24E-02
150393,8.36E-03,1.06E-02
150394,8.47E-03,1.04E-02
150395,8.56E-03,1.03E-02
150396,8.62E-03,1.02E-02
150397,8.41E-03,1.00E-02
150398,8.28E-03,9.88E-03
150399,8.14E-03,9.75E-03
150400,8.02E-03,9.61E-03
150401,7.76E-03,9.47E-03
150402,7.60E-03,9.33E-03
150403,7.30E-03,9.20E-03
150404,7.05E-03,9.08E-03
150405,6.81E-03,8.96E-03
150406,6.65E-03,8.84E-03
150407,6.39E-03,8.71E-03
150408,6.41E-03,8.56E-03
150409,6.98E-03,8.41E-03
150410,7.43E-03,8.28E-03
150411,7.92E-03,8.16E-03
150412,9.55E-03,8.03E-03
150413,1.06E-02,7.88E-03
150414,1.02E-02,7.77E-03
150415,7.70E-03,7.63E-03
150416,6.14E-03,7.51E-03
150417,7.83E-03,9.77E-03
150418,8.10E-03,9.82E-03
150419,7.83E-03,9.72E-03
150420,8.49E-03,9.72E-03
150421,1.06E-02,9.75E-03
150422,1.08E-02,9.75E-03
150423,9.57E-03,9.69E-03
150424,8.99E-03,9.63E-03
150425,9.26E-03,9.59E-03
150426,9.71E-03,9.56E-03
150427,9.84E-03,9.52E-03
150428,1.01E-02,9.47E-03
150429,1.00E-02,9.41E-03
150430,1.02E-02,9.34E-03
150431,1.03E-02,9.26E-03
150432,1.06E-02,9.17E-03
150433,1.10E-02,9.05E-03
150434,1.12E-02,8.93E-03
150435,1.11E-02,8.81E-03
150436,1.06E-02,8.66E-03
150437,9.96E-03,8.50E-03
150438,9.78E-03,8.33E-03
150439,1.01E-02,8.15E-03
150440,7.93E-03,7.63E-03
150441,6.71E-03,7.50E-03
150442,7.06E-03,1.30E-02
150443,7.13E-03,9.86E-03
150444,7.04E-03,9.90E-03
150445,7.54E-03,9.95E-03
150446,8.26E-03,9.98E-03
150447,8.69E-03,1.00E-02
150448,8.85E-03,1.00E-02
150449,8.77E-03,1.01E-02
150450,8.69E-03,1.01E-02
150451,8.83E-03,1.02E-02
150452,9.00E-03,1.02E-02
150453,9.05E-03,1.03E-02
150454,9.27E-03,1.03E-02
150455,9.31E-03,1.04E-02
150456,9.77E-03,1.05E-02
150457,9.91E-03,1.05E-02
150458,9.98E-03,1.06E-02
150459,1.01E-02,1.07E-02
150460,1.02E-02,1.08E-02
150461,1.01E-02,1.10E-02
150462,1.01E-02,1.11E-02
150463,9.97E-03,1.12E-02
150464,9.81E-03,1.14E-02
150465,9.71E-03,1.16E-02
150466,9.62E-03,1.18E-02
150467,9.59E-03,1.20E-02
150468,9.46E-03,1.21E-02
150469,9.34E-03,1.23E-02
150470,9.09E-03,1.25E-02
150471,7.28E-03,1.27E-02
150472,8.68E-03,1.07E-02
150473,8.68E-03,1.05E-02
150474,8.66E-03,1.04E-02
150475,8.66E-03,1.02E-02
150476,8.34E-03,1.01E-02
150477,8.23E-03,9.90E-03
150478,8.12E-03,9.75E-03
150479,8.09E-03,9.59E-03
150480,7.79E-03,9.44E-03
150481,7.55E-03,9.29E-03
150482,7.38E-03,9.15E-03
150483,7.13E-03,9.01E-03
150484,7.00E-03,8.88E-03
150485,6.81E-03,8.74E-03
150486,6.53E-03,8.61E-03
150487,6.60E-03,8.47E-03
150488,7.42E-03,8.33E-03
150489,7.71E-03,8.19E-03
150490,8.01E-03,8.05E-03
150491,9.39E-03,7.92E-03
150492,8.57E-03,7.80E-03
150493,8.34E-03,7.72E-03
150494,7.52E-03,7.62E-03
150495,6.37E-03,7.53E-03
150496,4.58E-03,7.43E-03
150497,4.65E-03,7.33E-03
150498,6.88E-03,7.28E-03
150499,8.94E-03,7.12E-03
150500,8.19E-03,7.24E-03
150501,7.44E-03,7.37E-03
150502,7.54E-03,7.50E-03
150503,8.16E-03,7.63E-03
150504,9.42E-03,7.79E-03
150505,9.82E-03,7.93E-03
150506,1.02E-02,8.10E-03
150507,1.00E-02,8.28E-03
150508,1.01E-02,8.44E-03
150509,1.03E-02,8.59E-03
150510,1.05E-02,8.73E-03
150511,1.06E-02,8.86E-03
150512,1.06E-02,8.97E-03
150513,1.04E-02,9.08E-03
150514,1.01E-02,9.18E-03
150515,9.97E-03,9.26E-03
150516,9.86E-03,9.33E-03
150517,9.67E-03,9.38E-03
150518,9.50E-03,9.43E-03
150519,9.45E-03,9.47E-03
150520,9.24E-03,9.52E-03
150521,9.19E-03,9.56E-03
150522,9.56E-03,9.60E-03
150523,9.58E-03,9.63E-03
150524,9.62E-03,9.64E-03
150525,9.33E-03,9.65E-03
150526,9.24E-03,9.67E-03
150527,7.79E-03,7.04E-03
150528,6.32E-03,1.31E-02
150529,8.05E-03,1.30E-02
150530,9.77E-03,1.11E-02
150531,8.22E-03,1.13E-02
150532,7.32E-03,1.16E-02
150533,6.65E-03,1.17E-02
150534,6.77E-03,1.19E-02
150535,7.24E-03,1.20E-02
150536,7.30E-03,1.21E-02
150537,7.24E-03,1.22E-02
150538,7.01E-03,1.23E-02
150539,7.61E-03,1.24E-02
150540,8.44E-03,1.25E-02
150541,9.27E-03,1.26E-02
150542,9.89E-03,1.27E-02
150543,9.05E-03,1.30E-02
150544,8.14E-03,1.31E-02
150545,5.44E-03,1.33E-02
150546,7.28E-03,1.34E-02
150547,5.26E-03,1.28E-02
150548,1.06E-02,9.74E-03
150549,8.56E-03,9.71E-03
150550,6.07E-03,9.70E-03
150551,6.97E-03,9.65E-03
150552,7.84E-03,9.61E-03
150553,9.02E-03,9.63E-03
150554,9.92E-03,9.61E-03
150555,9.49E-03,9.58E-03
150556,9.39E-03,9.56E-03
150557,9.39E-03,9.54E-03
150558,9.34E-03,9.51E-03
150559,9.19E-03,9.48E-03
150560,9.20E-03,9.44E-03
150561,9.24E-03,9.40E-03
150562,9.28E-03,9.35E-03
150563,9.36E-03,9.30E-03
150564,9.58E-03,9.24E-03
150565,9.64E-03,9.17E-03
150566,9.85E-03,9.10E-03
150567,9.97E-03,9.00E-03
150568,1.02E-02,8.90E-03
150569,1.01E-02,8.78E-03
150570,1.00E-02,8.66E-03
150571,9.86E-03,8.52E-03
150572,9.77E-03,8.38E-03
150573,9.59E-03,8.22E-03
150574,9.35E-03,8.06E-03
150575,9.03E-03,7.91E-03
150576,8.86E-03,7.76E-03
150577,8.40E-03,7.62E-03
150578,8.13E-03,7.48E-03
150579,7.90E-03,7.34E-03
150580,8.43E-03,7.19E-03
150581,7.23E-03,7.06E-03
150582,8.31E-03,7.17E-03
150583,6.83E-03,7.28E-03
150584,6.64E-03,7.41E-03
150585,6.77E-03,7.51E-03
150586,7.51E-03,7.58E-03
150587,7.86E-03,7.65E-03
150588,7.96E-03,7.72E-03
150589,8.85E-03,7.81E-03
150590,8.14E-03,7.93E-03
150591,7.95E-03,8.07E-03
150592,7.69E-03,8.22E-03
150593,6.56E-03,8.36E-03
150594,6.48E-03,8.48E-03
150595,7.08E-03,8.62E-03
150596,7.14E-03,8.76E-03
150597,7.33E-03,8.91E-03
150598,7.46E-03,9.06E-03
150599,7.63E-03,9.23E-03
150600,7.82E-03,9.40E-03
150601,8.07E-03,9.57E-03
150602,8.12E-03,9.75E-03
150603,8.24E-03,9.93E-03
150604,8.34E-03,1.01E-02
150605,8.51E-03,1.03E-02
150606,8.66E-03,1.04E-02
150607,8.79E-03,1.06E-02
150608,8.94E-03,1.08E-02
150609,7.30E-03,6.86E-03
150610,6.51E-03,1.28E-02
150611,5.72E-03,1.29E-02
150612,7.00E-03,1.31E-02
150613,7.15E-03,1.32E-02
150614,7.25E-03,1.34E-02
150615,8.20E-03,1.26E-02
150616,8.97E-03,1.25E-02
150617,9.21E-03,1.23E-02
150618,9.31E-03,1.21E-02
150619,9.37E-03,1.19E-02
150620,9.56E-03,1.18E-02
150621,9.64E-03,1.16E-02
150622,9.79E-03,1.14E-02
150623,9.93E-03,1.13E-02
150624,1.01E-02,1.11E-02
150625,1.00E-02,1.10E-02
150626,9.93E-03,1.09E-02
150627,9.82E-03,1.08E-02
150628,9.66E-03,1.07E-02
150629,9.63E-03,1.06E-02
150630,9.50E-03,1.05E-02
150631,9.15E-03,1.05E-02
150632,9.05E-03,1.04E-02
150633,8.91E-03,1.03E-02
150634,8.82E-03,1.03E-02
150635,8.71E-03,1.02E-02
150636,8.61E-03,1.02E-02
150637,8.59E-03,1.01E-02
150638,8.52E-03,1.01E-02
150639,8.39E-03,1.01E-02
150640,8.12E-03,1.00E-02
150641,7.86E-03,1.00E-02
150642,7.70E-03,9.96E-03
150643,7.79E-03,9.91E-03
150644,8.26E-03,9.87E-03
150645,8.80E-03,9.85E-03
150646,8.82E-03,9.82E-03
150647,8.11E-03,9.78E-03
150648,7.61E-03,9.74E-03
150649,7.38E-03,9.70E-03
150650,8.16E-03,9.62E-03
150651,7.36E-03,9.68E-03
150652,8.94E-03,1.28E-02
150653,1.07E-02,1.11E-02
150654,9.59E-03,1.15E-02
150655,6.50E-03,1.17E-02
150656,6.42E-03,1.19E-02
150657,6.58E-03,1.20E-02
150658,6.76E-03,1.22E-02
150659,7.42E-03,1.22E-02
150660,7.43E-03,1.23E-02
150661,7.88E-03,1.24E-02
150662,8.28E-03,1.25E-02
150663,8.56E-03,1.26E-02
150664,8.88E-03,1.28E-02
150665,8.95E-03,1.29E-02
150666,8.75E-03,1.30E-02
150667,8.41E-03,1.32E-02
150668,8.20E-03,1.34E-02
150669,7.71E-03,1.36E-02
150670,8.11E-03,1.37E-02
150671,8.05E-03,6.81E-03
150672,9.12E-03,6.74E-03
150673,8.72E-03,9.59E-03
150674,7.08E-03,9.54E-03
150675,7.04E-03,9.54E-03
150676,9.65E-03,9.55E-03
150677,9.85E-03,9.55E-03
150678,9.33E-03,9.56E-03
150679,9.73E-03,9.55E-03
150680,9.86E-03,9.55E-03
150681,9.76E-03,9.53E-03
150682,9.34E-03,9.51E-03
150683,9.18E-03,9.48E-03
150684,9.00E-03,9.46E-03
150685,8.96E-03,9.43E-03
150686,8.98E-03,9.40E-03
150687,9.00E-03,9.36E-03
150688,9.03E-03,9.31E-03
150689,9.07E-03,9.27E-03
150690,9.13E-03,9.21E-03
150691,9.24E-03,9.16E-03
150692,9.39E-03,9.09E-03
150693,9.67E-03,9.01E-03
150694,9.69E-03,8.92E-03
150695,9.77E-03,8.82E-03
150696,9.77E-03,8.71E-03
150697,9.63E-03,8.58E-03
150698,9.53E-03,8.45E-03
150699,9.51E-03,8.32E-03
150700,9.31E-03,8.17E-03
150701,9.12E-03,8.02E-03
150702,8.75E-03,7.88E-03
150703,8.60E-03,7.74E-03
150704,8.38E-03,7.60E-03
150705,8.11E-03,7.46E-03
150706,8.18E-03,7.32E-03
150707,7.92E-03,7.17E-03
150708,7.55E-03,7.06E-03
150709,7.52E-03,6.93E-03
150710,9.21E-03,1.27E-02
150711,8.50E-03,1.30E-02
150712,7.55E-03,1.32E-02
150713,7.63E-03,1.33E-02
150714,7.97E-03,1.35E-02
150715,9.72E-03,9.55E-03
150716,8.37E-03,9.52E-03
150717,7.59E-03,9.50E-03
150718,6.84E-03,9.47E-03
150719,8.38E-03,1.26E-02
150720,8.63E-03,1.24E-02
150721,8.92E-03,1.23E-02
150722,8.95E-03,1.21E-02
150723,9.13E-03,1.19E-02
150724,9.34E-03,1.18E-02
150725,9.38E-03,1.16E-02
150726,9.48E-03,1.14E-02
150727,9.61E-03,1.13E-02
150728,9.76E-03,1.12E-02
150729,9.76E-03,1.10E-02
150730,9.74E-03,1.09E-02
150731,9.58E-03,1.08E-02
150732,9.41E-03,1.07E-02
150733,9.29E-03,1.07E-02
150734,9.27E-03,1.06E-02
150735,8.96E-03,1.05E-02
150736,8.84E-03,1.05E-02
150737,8.75E-03,1.04E-02
150738,8.68E-03,1.03E-02
150739,8.59E-03,1.03E-02
150740,8.47E-03,1.03E-02
150741,8.35E-03,1.02E-02
150742,8.27E-03,1.02E-02
150743,8.21E-03,1.01E-02
150744,8.05E-03,1.01E-02
150745,7.92E-03,1.01E-02
150746,7.85E-03,1.00E-02
150747,8.00E-03,9.97E-03
150748,8.23E-03,9.94E-03
150749,8.37E-03,9.91E-03
150750,8.31E-03,9.88E-03
150751,8.09E-03,9.84E-03
150752,7.86E-03,9.80E-03
150753,7.71E-03,9.77E-03
150754,7.79E-03,9.74E-03
150755,8.12E-03,9.70E-03
150756,8.29E-03,9.66E-03
150757,8.36E-03,9.63E-03
150758,8.19E-03,9.60E-03
150759,7.77E-03,9.57E-03
150760,7.22E-03,9.54E-03
150761,8.65E-03,9.44E-03
150762,6.95E-03,9.43E-03
150763,6.21E-03,1.41E-02
150764,9.61E-03,6.67E-03
150765,7.98E-03,6.57E-03
150766,6.73E-03,6.49E-03
150767,6.80E-03,6.50E-03
150768,7.84E-03,6.59E-03
150769,8.42E-03,6.67E-03
150770,8.46E-03,6.74E-03
150771,8.57E-03,6.87E-03
150772,9.46E-03,7.02E-03
150773,8.87E-03,7.13E-03
150774,7.74E-03,7.27E-03
150775,7.15E-03,7.39E-03
150776,7.22E-03,7.47E-03
150777,7.52E-03,7.52E-03
150778,7.69E-03,7.56E-03
150779,7.88E-03,7.62E-03
150780,8.57E-03,7.69E-03
150781,8.28E-03,7.80E-03
150782,8.09E-03,7.93E-03
150783,7.73E-03,8.08E-03
150784,6.74E-03,8.21E-03
150785,6.56E-03,8.33E-03
150786,7.21E-03,8.46E-03
150787,7.32E-03,8.61E-03
150788,7.55E-03,8.77E-03
150789,7.62E-03,8.95E-03
150790,7.70E-03,9.14E-03
150791,7.86E-03,9.34E-03
150792,8.02E-03,9.54E-03
150793,8.15E-03,9.76E-03
150794,8.21E-03,9.97E-03
150795,8.34E-03,1.02E-02
150796,8.45E-03,1.04E-02
150797,8.66E-03,1.06E-02
150798,8.75E-03,1.08E-02
150799,9.01E-03,1.09E-02
150800,9.85E-03,1.11E-02
150801,9.90E-03,1.13E-02
150802,1.01E-02,1.16E-02
150803,6.38E-03,1.19E-02
150804,6.51E-03,1.20E-02
150805,6.84E-03,1.22E-02
150806,7.04E-03,1.23E-02
150807,7.45E-03,1.24E-02
150808,7.64E-03,1.25E-02
150809,8.24E-03,1.26E-02
150810,8.35E-03,1.27E-02
150811,8.59E-03,1.28E-02
150812,8.71E-03,1.29E-02
150813,8.76E-03,1.30E-02
150814,8.60E-03,1.32E-02
150815,8.52E-03,1.34E-02
150816,8.36E-03,1.36E-02
150817,8.10E-03,1.37E-02
150818,8.04E-03,1.39E-02
150819,7.39E-03,1.40E-02
150820,6.42E-03,1.41E-02
150821,7.07E-03,9.38E-03
150822,7.98E-03,9.40E-03
150823,9.04E-03,9.43E-03
150824,9.23E-03,9.47E-03
150825,7.74E-03,9.52E-03
150826,7.31E-03,9.54E-03
150827,7.05E-03,9.57E-03
150828,7.26E-03,9.61E-03
150829,7.73E-03,9.64E-03
150830,7.94E-03,9.67E-03
150831,8.13E-03,9.69E-03
150832,8.17E-03,9.73E-03
150833,7.97E-03,9.76E-03
150834,7.89E-03,9.79E-03
150835,7.90E-03,9.83E-03
150836,7.96E-03,9.86E-03
150837,8.10E-03,9.90E-03
150838,8.17E-03,9.94E-03
150839,8.24E-03,9.97E-03
150840,8.16E-03,1.00E-02
150841,8.07E-03,1.00E-02
150842,8.03E-03,1.01E-02
150843,8.08E-03,1.01E-02
150844,8.08E-03,1.02E-02
150845,8.19E-03,1.02E-02
150846,8.22E-03,1.02E-02
150847,8.28E-03,1.03E-02
150848,8.37E-03,1.03E-02
150849,8.47E-03,1.04E-02
150850,8.54E-03,1.04E-02
150851,8.59E-03,1.05E-02
150852,8.66E-03,1.05E-02
150853,8.75E-03,1.06E-02
150854,8.93E-03,1.06E-02
150855,8.99E-03,1.07E-02
150856,9.13E-03,1.08E-02
150857,9.25E-03,1.09E-02
150858,9.36E-03,1.10E-02
150859,9.38E-03,1.11E-02
150860,9.38E-03,1.12E-02
150861,9.36E-03,1.13E-02
150862,9.32E-03,1.15E-02
150863,9.25E-03,1.16E-02
150864,9.13E-03,1.18E-02
150865,8.97E-03,1.19E-02
150866,8.73E-03,1.21E-02
150867,8.65E-03,1.22E-02
150868,8.46E-03,1.24E-02
150869,8.47E-03,1.26E-02
150870,6.77E-03,9.22E-03
150871,7.41E-03,9.24E-03
150872,7.78E-03,9.26E-03
150873,8.20E-03,9.28E-03
150874,8.75E-03,9.29E-03
150875,8.28E-03,9.30E-03
150876,7.11E-03,9.32E-03
150877,7.87E-03,9.33E-03
150878,8.96E-03,9.34E-03
150879,7.03E-03,9.35E-03
150880,6.24E-03,9.37E-03
150881,8.81E-03,9.37E-03
150882,7.93E-03,9.39E-03
150883,7.49E-03,9.41E-03
150884,7.93E-03,9.43E-03
150885,8.50E-03,9.45E-03
150886,9.83E-03,9.47E-03
150887,9.42E-03,9.47E-03
150888,8.61E-03,9.48E-03
150889,8.71E-03,9.48E-03
150890,9.15E-03,9.47E-03
150891,9.27E-03,9.47E-03
150892,9.34E-03,9.47E-03
150893,9.40E-03,9.46E-03
150894,9.25E-03,9.45E-03
150895,8.99E-03,9.43E-03
150896,8.89E-03,9.40E-03
150897,8.77E-03,9.38E-03
150898,8.77E-03,9.35E-03
150899,8.78E-03,9.31E-03
150900,8.79E-03,9.28E-03
150901,8.82E-03,9.23E-03
150902,8.85E-03,9.18E-03
150903,8.89E-03,9.13E-03
150904,8.98E-03,9.07E-03
150905,9.10E-03,9.00E-03
150906,9.25E-03,8.93E-03
150907,9.29E-03,8.84E-03
150908,9.39E-03,8.74E-03
150909,9.47E-03,8.63E-03
150910,9.38E-03,8.51E-03
150911,9.28E-03,8.39E-03
150912,9.16E-03,8.26E-03
150913,9.04E-03,8.12E-03
150914,8.88E-03,7.99E-03
150915,8.68E-03,7.85E-03
150916,8.50E-03,7.71E-03
150917,8.46E-03,7.57E-03
150918,8.28E-03,7.44E-03
150919,8.15E-03,7.30E-03
150920,8.03E-03,7.17E-03
150921,8.05E-03,7.05E-03
150922,8.33E-03,6.94E-03
150923,7.96E-03,6.58E-03
150924,7.00E-03,6.50E-03
150925,6.63E-03,6.43E-03
150926,6.74E-03,6.30E-03
150927,6.68E-03,6.14E-03
150928,7.39E-03,6.18E-03
150929,7.44E-03,6.32E-03
150930,7.36E-03,6.51E-03
150931,7.79E-03,6.64E-03
150932,8.07E-03,6.73E-03
150933,8.34E-03,6.82E-03
150934,8.81E-03,6.92E-03
150935,8.52E-03,7.02E-03
150936,8.31E-03,7.14E-03
150937,8.05E-03,7.26E-03
150938,7.54E-03,7.34E-03
150939,7.47E-03,7.39E-03
150940,7.56E-03,7.43E-03
150941,7.74E-03,7.47E-03
150942,7.95E-03,7.52E-03
150943,8.47E-03,7.59E-03
150944,8.42E-03,7.67E-03
150945,8.11E-03,7.78E-03
150946,7.64E-03,7.90E-03
150947,6.90E-03,8.02E-03
150948,6.99E-03,8.13E-03
150949,7.23E-03,8.25E-03
150950,7.61E-03,8.41E-03
150951,7.72E-03,8.59E-03
150952,7.72E-03,8.80E-03
150953,7.78E-03,9.02E-03
150954,7.90E-03,9.25E-03
150955,8.03E-03,9.50E-03
150956,8.13E-03,9.76E-03
150957,8.17E-03,1.00E-02
150958,8.29E-03,1.03E-02
150959,8.45E-03,1.05E-02
150960,8.51E-03,1.08E-02
150961,8.68E-03,1.10E-02
150962,8.89E-03,1.12E-02
150963,9.20E-03,1.13E-02
150964,9.47E-03,1.15E-02
150965,9.55E-03,1.17E-02
150966,6.46E-03,1.20E-02
150967,6.83E-03,1.21E-02
150968,7.08E-03,1.22E-02
150969,7.31E-03,1.23E-02
150970,7.58E-03,1.24E-02
150971,7.78E-03,1.26E-02
150972,8.17E-03,1.27E-02
150973,8.27E-03,1.28E-02
150974,8.48E-03,1.30E-02
150975,8.51E-03,1.31E-02
150976,8.62E-03,1.32E-02
150977,8.48E-03,1.34E-02
150978,8.44E-03,1.35E-02
150979,8.35E-03,1.37E-02
150980,7.81E-03,1.38E-02
150981,7.66E-03,1.39E-02
150982,7.27E-03,1.39E-02
150983,6.70E-03,1.40E-02
150984,6.40E-03,1.41E-02
150985,6.73E-03,1.41E-02
150986,9.02E-03,1.40E-02
150987,9.64E-03,1.38E-02
150988,8.35E-03,1.36E-02
150989,7.97E-03,1.34E-02
150990,7.98E-03,1.32E-02
150991,9.08E-03,1.30E-02
150992,7.45E-03,9.66E-03
150993,8.33E-03,1.29E-02
150994,5.71E-03,1.43E-02
150995,5.92E-03,9.15E-03
150996,5.42E-03,1.43E-02
150997,5.54E-03,9.16E-03
150998,6.08E-03,9.16E-03
150999,6.25E-03,9.16E-03
151000,6.44E-03,9.17E-03
151001,6.63E-03,9.17E-03
151002,6.88E-03,9.18E-03
151003,7.18E-03,9.19E-03
151004,7.48E-03,9.20E-03
151005,7.76E-03,9.21E-03
151006,7.86E-03,9.22E-03
151007,8.52E-03,9.24E-03
151008,8.19E-03,9.27E-03
151009,7.55E-03,9.30E-03
151010,7.56E-03,9.32E-03
151011,7.87E-03,9.34E-03
151012,8.20E-03,9.36E-03
151013,8.73E-03,9.38E-03
151014,8.42E-03,9.42E-03
151015,7.64E-03,9.45E-03
151016,8.06E-03,9.48E-03
151017,8.32E-03,9.51E-03
151018,8.23E-03,9.54E-03
151019,7.94E-03,9.57E-03
151020,7.55E-03,9.60E-03
151021,7.42E-03,9.63E-03
151022,7.48E-03,9.67E-03
151023,7.67E-03,9.70E-03
151024,7.87E-03,9.73E-03
151025,8.03E-03,9.76E-03
151026,8.11E-03,9.79E-03
151027,8.11E-03,9.82E-03
151028,8.03E-03,9.85E-03
151029,7.96E-03,9.89E-03
151030,8.00E-03,9.92E-03
151031,8.11E-03,9.96E-03
151032,8.12E-03,1.00E-02
151033,8.13E-03,1.00E-02
151034,8.09E-03,1.01E-02
151035,8.10E-03,1.01E-02
151036,8.10E-03,1.01E-02
151037,8.11E-03,1.02E-02
151038,8.13E-03,1.02E-02
151039,8.15E-03,1.03E-02
151040,8.17E-03,1.03E-02
151041,8.21E-03,1.03E-02
151042,8.28E-03,1.04E-02
151043,8.35E-03,1.04E-02
151044,8.40E-03,1.05E-02
151045,8.44E-03,1.05E-02
151046,8.49E-03,1.06E-02
151047,8.55E-03,1.06E-02
151048,8.63E-03,1.07E-02
151049,8.74E-03,1.08E-02
151050,8.87E-03,1.08E-02
151051,8.96E-03,1.09E-02
151052,8.99E-03,1.10E-02
151053,9.00E-03,1.11E-02
151054,9.00E-03,1.12E-02
151055,8.98E-03,1.13E-02
151056,8.96E-03,1.15E-02
151057,8.90E-03,1.16E-02
151058,8.82E-03,1.18E-02
151059,8.70E-03,1.19E-02
151060,8.60E-03,1.20E-02
151061,8.52E-03,1.22E-02
151062,8.39E-03,1.23E-02
151063,8.40E-03,1.25E-02
151064,8.05E-03,1.26E-02
151065,7.02E-03,1.28E-02
151066,7.58E-03,1.31E-02
151067,7.98E-03,1.33E-02
151068,8.06E-03,1.35E-02
151069,8.26E-03,1.37E-02
151070,8.29E-03,1.39E-02
151071,7.93E-03,1.40E-02
151072,7.11E-03,1.42E-02
151073,6.49E-03,1.43E-02
151074,7.89E-03,1.00E-02
151075,7.78E-03,9.87E-03
151076,5.83E-03,9.60E-03
151077,6.96E-03,9.75E-03
151078,6.02E-03,1.00E-02
151079,6.19E-03,9.92E-03
151080,7.30E-03,9.60E-03
151081,7.29E-03,9.46E-03
151082,7.21E-03,9.44E-03
151083,6.86E-03,9.59E-03
151084,7.34E-03,9.38E-03
151085,8.88E-03,9.61E-03
151086,7.81E-03,9.36E-03
151087,8.12E-03,9.55E-03
151088,8.10E-03,9.35E-03
151089,7.75E-03,9.49E-03
151090,7.73E-03,9.31E-03
151091,7.30E-03,9.45E-03
151092,7.41E-03,9.27E-03
151093,5.62E-03,9.41E-03
151094,6.79E-03,9.24E-03
151095,6.57E-03,9.34E-03
151096,9.26E-03,9.27E-03
151097,8.47E-03,9.22E-03
151098,8.40E-03,9.19E-03
151099,8.30E-03,9.16E-03
151100,8.21E-03,9.14E-03
151101,8.18E-03,9.13E-03
151102,8.14E-03,9.11E-03
151103,8.12E-03,9.10E-03
151104,8.12E-03,9.09E-03
151105,8.11E-03,9.08E-03
151106,8.22E-03,9.08E-03
151107,8.20E-03,9.07E-03
151108,8.80E-03,9.06E-03
151109,6.54E-03,9.05E-03
151110,6.59E-03,9.04E-03
151111,8.10E-03,9.05E-03
151112,8.04E-03,9.06E-03
151113,8.10E-03,9.06E-03
151114,8.10E-03,9.07E-03
151115,8.10E-03,9.07E-03
151116,8.10E-03,9.08E-03
151117,8.10E-03,9.09E-03
151118,8.10E-03,9.10E-03
151119,8.10E-03,9.11E-03
151120,8.10E-03,9.11E-03
151121,7.99E-03,9.13E-03
151122,8.52E-03,9.13E-03
151123,8.02E-03,9.14E-03
151124,6.93E-03,9.15E-03
151125,7.48E-03,9.16E-03
151126,7.76E-03,9.18E-03
151127,8.11E-03,9.19E-03
151128,8.17E-03,9.21E-03
151129,8.06E-03,9.22E-03
151130,7.89E-03,9.24E-03
151131,7.92E-03,9.25E-03
151132,7.95E-03,9.26E-03
151133,7.66E-03,9.28E-03
151134,7.70E-03,9.30E-03
151135,8.07E-03,9.31E-03
151136,8.07E-03,9.32E-03
151137,8.00E-03,9.34E-03
151138,8.07E-03,9.36E-03
151139,8.53E-03,9.37E-03
151140,8.85E-03,9.38E-03
151141,8.86E-03,9.39E-03
151142,8.84E-03,9.40E-03
151143,8.64E-03,9.40E-03
151144,8.74E-03,9.40E-03
151145,8.86E-03,9.39E-03
151146,8.79E-03,9.39E-03
151147,8.72E-03,9.37E-03
151148,8.68E-03,9.36E-03
151149,8.64E-03,9.34E-03
151150,8.60E-03,9.32E-03
151151,8.57E-03,9.30E-03
151152,8.57E-03,9.26E-03
151153,8.58E-03,9.23E-03
151154,8.59E-03,9.19E-03
151155,8.61E-03,9.15E-03
151156,8.63E-03,9.10E-03
151157,8.66E-03,9.05E-03
151158,8.72E-03,8.99E-03
151159,8.81E-03,8.92E-03
151160,8.90E-03,8.84E-03
151161,9.00E-03,8.76E-03
151162,9.07E-03,8.66E-03
151163,9.07E-03,8.56E-03
151164,9.01E-03,8.45E-03
151165,8.94E-03,8.33E-03
151166,8.85E-03,8.21E-03
151167,8.76E-03,8.08E-03
151168,8.65E-03,7.95E-03
151169,8.55E-03,7.82E-03
151170,8.49E-03,7.68E-03
151171,8.37E-03,7.55E-03
151172,8.34E-03,7.42E-03
151173,8.19E-03,7.29E-03
151174,8.19E-03,7.17E-03
151175,8.20E-03,7.05E-03
151176,8.48E-03,6.92E-03
151177,8.64E-03,6.80E-03
151178,8.52E-03,6.70E-03
151179,8.08E-03,6.60E-03
151180,7.56E-03,6.51E-03
151181,7.57E-03,6.40E-03
151182,7.82E-03,6.27E-03
151183,7.01E-03,6.14E-03
151184,6.23E-03,5.98E-03
151185,6.30E-03,6.01E-03
151186,6.70E-03,6.02E-03
151187,9.53E-03,6.06E-03
151188,8.60E-03,6.28E-03
151189,7.84E-03,6.52E-03
151190,7.91E-03,6.71E-03
151191,8.02E-03,6.86E-03
151192,8.23E-03,6.98E-03
151193,8.53E-03,7.05E-03
151194,8.35E-03,7.10E-03
151195,8.11E-03,7.17E-03
151196,8.02E-03,7.22E-03
151197,7.78E-03,7.24E-03
151198,7.70E-03,7.26E-03
151199,7.69E-03,7.31E-03
151200,7.80E-03,7.37E-03
151201,8.11E-03,7.44E-03
151202,8.43E-03,7.51E-03
151203,8.55E-03,7.57E-03
151204,8.09E-03,7.62E-03
151205,7.74E-03,7.68E-03
151206,6.97E-03,7.75E-03
151207,7.39E-03,7.85E-03
151208,7.44E-03,7.98E-03
151209,7.73E-03,8.16E-03
151210,7.81E-03,8.37E-03
151211,7.81E-03,8.61E-03
151212,7.85E-03,8.87E-03
151213,7.94E-03,9.15E-03
151214,8.03E-03,9.45E-03
151215,8.10E-03,9.76E-03
151216,8.13E-03,1.01E-02
151217,8.21E-03,1.04E-02
151218,8.37E-03,1.07E-02
151219,8.40E-03,1.10E-02
151220,8.52E-03,1.13E-02
151221,8.67E-03,1.15E-02
151222,8.78E-03,1.17E-02
151223,8.96E-03,1.18E-02
151224,9.00E-03,1.19E-02
151225,6.70E-03,1.21E-02
151226,7.26E-03,1.21E-02
151227,7.30E-03,1.22E-02
151228,7.52E-03,1.23E-02
151229,7.75E-03,1.25E-02
151230,7.94E-03,1.27E-02
151231,8.05E-03,1.29E-02
151232,8.23E-03,1.31E-02
151233,8.38E-03,1.33E-02
151234,8.51E-03,1.34E-02
151235,8.58E-03,1.35E-02
151236,8.36E-03,1.36E-02
151237,8.31E-03,1.37E-02
151238,8.11E-03,1.38E-02
151239,7.70E-03,1.38E-02
151240,7.63E-03,1.38E-02
151241,7.44E-03,1.38E-02
151242,7.20E-03,1.39E-02
151243,6.97E-03,1.40E-02
151244,7.20E-03,1.43E-02
151245,9.19E-03,1.02E-02
151246,5.30E-03,1.44E-02
151247,6.33E-03,1.45E-02
151248,5.80E-03,1.45E-02
151249,6.30E-03,1.46E-02
151250,6.72E-03,1.45E-02
151251,6.47E-03,1.47E-02
151252,6.22E-03,1.47E-02
151253,8.71E-03,6.09E-03
151254,8.35E-03,1.00E-02
151255,9.18E-03,9.92E-03
151256,9.16E-03,9.82E-03
151257,8.23E-03,9.72E-03
151258,7.69E-03,9.66E-03
151259,7.28E-03,9.61E-03
151260,7.53E-03,9.55E-03
151261,7.74E-03,9.46E-03
151262,8.16E-03,9.42E-03
151263,8.41E-03,9.37E-03
151264,8.30E-03,9.34E-03
151265,8.28E-03,9.31E-03
151266,8.21E-03,9.28E-03
151267,8.15E-03,9.26E-03
151268,8.10E-03,9.25E-03
151269,8.10E-03,9.23E-03
151270,8.14E-03,9.22E-03
151271,8.11E-03,9.21E-03
151272,8.16E-03,9.20E-03
151273,8.26E-03,9.19E-03
151274,8.51E-03,9.19E-03
151275,7.67E-03,9.22E-03
151276,6.30E-03,9.24E-03
151277,6.08E-03,9.24E-03
151278,6.12E-03,9.24E-03
151279,6.26E-03,9.25E-03
151280,6.46E-03,9.25E-03
151281,6.69E-03,9.26E-03
151282,6.96E-03,9.27E-03
151283,7.16E-03,9.27E-03
151284,7.47E-03,9.28E-03
151285,7.69E-03,9.30E-03
151286,7.92E-03,9.31E-03
151287,8.01E-03,9.33E-03
151288,8.04E-03,9.35E-03
151289,7.94E-03,9.37E-03
151290,7.81E-03,9.40E-03
151291,7.93E-03,9.42E-03
151292,8.16E-03,9.44E-03
151293,8.16E-03,9.47E-03
151294,8.14E-03,9.49E-03
151295,8.01E-03,9.52E-03
151296,8.01E-03,9.55E-03
151297,8.10E-03,9.58E-03
151298,8.05E-03,9.61E-03
151299,7.86E-03,9.63E-03
151300,7.72E-03,9.66E-03
151301,7.64E-03,9.69E-03
151302,7.68E-03,9.72E-03
151303,7.77E-03,9.76E-03
151304,7.87E-03,9.79E-03
151305,8.03E-03,9.82E-03
151306,8.09E-03,9.85E-03
151307,8.08E-03,9.88E-03
151308,8.08E-03,9.91E-03
151309,8.08E-03,9.95E-03
151310,8.08E-03,9.98E-03
151311,8.08E-03,1.00E-02
151312,8.08E-03,1.01E-02
151313,8.07E-03,1.01E-02
151314,8.07E-03,1.01E-02
151315,8.08E-03,1.02E-02
151316,8.08E-03,1.02E-02
151317,8.09E-03,1.02E-02
151318,8.09E-03,1.03E-02
151319,8.11E-03,1.03E-02
151320,8.12E-03,1.03E-02
151321,8.15E-03,1.04E-02
151322,8.19E-03,1.04E-02
151323,8.23E-03,1.05E-02
151324,8.26E-03,1.05E-02
151325,8.28E-03,1.06E-02
151326,8.31E-03,1.06E-02
151327,8.35E-03,1.07E-02
151328,8.40E-03,1.07E-02
151329,8.46E-03,1.08E-02
151330,8.54E-03,1.09E-02
151331,8.59E-03,1.10E-02
151332,8.61E-03,1.11E-02
151333,8.62E-03,1.12E-02
151334,8.62E-03,1.13E-02
151335,8.61E-03,1.14E-02
151336,8.59E-03,1.15E-02
151337,8.56E-03,1.16E-02
151338,8.51E-03,1.17E-02
151339,8.44E-03,1.19E-02
151340,8.37E-03,1.20E-02
151341,8.33E-03,1.22E-02
151342,8.20E-03,1.23E-02
151343,7.98E-03,1.24E-02
151344,7.48E-03,1.26E-02
151345,6.73E-03,1.27E-02
151346,7.40E-03,1.50E-02
151347,6.76E-03,1.48E-02
151348,6.59E-03,1.47E-02
151349,6.65E-03,1.45E-02
151350,6.91E-03,1.44E-02
151351,7.26E-03,1.42E-02
151352,7.71E-03,1.40E-02
151353,7.95E-03,1.39E-02
151354,8.02E-03,1.37E-02
151355,7.98E-03,1.35E-02
151356,7.65E-03,1.34E-02
151357,7.16E-03,1.32E-02
151358,6.84E-03,5.87E-03
151359,7.17E-03,5.88E-03
151360,7.65E-03,5.88E-03
151361,7.62E-03,6.13E-03
151362,7.79E-03,6.30E-03
151363,7.99E-03,6.56E-03
151364,7.94E-03,6.82E-03
151365,8.02E-03,7.05E-03
151366,8.15E-03,7.24E-03
151367,8.34E-03,7.35E-03
151368,8.27E-03,7.34E-03
151369,8.10E-03,7.23E-03
151370,8.02E-03,7.09E-03
151371,7.90E-03,7.01E-03
151372,7.77E-03,7.04E-03
151373,7.76E-03,7.15E-03
151374,7.92E-03,7.28E-03
151375,8.20E-03,7.40E-03
151376,8.27E-03,7.49E-03
151377,8.34E-03,7.51E-03
151378,7.95E-03,7.47E-03
151379,7.95E-03,7.41E-03
151380,7.45E-03,7.39E-03
151381,7.58E-03,7.47E-03
151382,7.71E-03,7.64E-03
151383,7.79E-03,7.86E-03
151384,7.90E-03,8.11E-03
151385,7.90E-03,8.40E-03
151386,7.93E-03,8.71E-03
151387,7.98E-03,9.04E-03
151388,8.04E-03,9.41E-03
151389,8.08E-03,9.78E-03
151390,8.10E-03,1.02E-02
151391,8.11E-03,1.06E-02
151392,8.21E-03,1.10E-02
151393,8.27E-03,1.14E-02
151394,8.34E-03,1.17E-02
151395,8.42E-03,1.21E-02
151396,8.59E-03,1.23E-02
151397,8.56E-03,1.24E-02
151398,8.48E-03,1.23E-02
151399,7.23E-03,1.20E-02
151400,7.52E-03,1.19E-02
151401,7.59E-03,1.19E-02
151402,7.74E-03,1.21E-02
151403,7.89E-03,1.24E-02
151404,8.00E-03,1.27E-02
151405,8.07E-03,1.31E-02
151406,8.20E-03,1.34E-02
151407,8.25E-03,1.37E-02
151408,8.32E-03,1.39E-02
151409,8.35E-03,1.41E-02
151410,8.33E-03,1.41E-02
151411,8.14E-03,1.39E-02
151412,8.03E-03,1.38E-02
151413,7.77E-03,1.36E-02
151414,7.68E-03,1.36E-02
151415,7.58E-03,1.37E-02
151416,7.42E-03,1.38E-02
151417,7.37E-03,1.39E-02
151418,7.58E-03,1.42E-02
151419,7.18E-03,1.44E-02
151420,6.38E-03,1.47E-02
151421,7.49E-03,1.50E-02
151422,5.75E-03,1.52E-02
151423,6.77E-03,9.29E-03
151424,8.18E-03,9.34E-03
151425,8.88E-03,9.37E-03
151426,7.84E-03,9.30E-03
151427,7.55E-03,9.26E-03
151428,7.46E-03,9.23E-03
151429,7.54E-03,9.20E-03
151430,7.81E-03,9.17E-03
151431,7.93E-03,9.15E-03
151432,7.87E-03,9.12E-03
151433,7.82E-03,9.09E-03
151434,8.77E-03,9.08E-03
151435,9.33E-03,9.10E-03
151436,8.75E-03,9.06E-03
151437,8.43E-03,9.04E-03
151438,8.32E-03,9.01E-03
151439,8.23E-03,9.00E-03
151440,8.18E-03,8.98E-03
151441,8.17E-03,8.97E-03
151442,8.12E-03,8.96E-03
151443,8.10E-03,8.95E-03
151444,8.13E-03,8.95E-03
151445,8.09E-03,8.95E-03
151446,8.14E-03,8.94E-03
151447,7.91E-03,8.94E-03
151448,7.53E-03,8.94E-03
151449,7.61E-03,8.94E-03
151450,7.68E-03,8.94E-03
151451,8.01E-03,8.94E-03
151452,8.09E-03,8.95E-03
151453,8.09E-03,8.96E-03
151454,8.09E-03,8.97E-03
151455,8.09E-03,8.98E-03
151456,8.09E-03,8.99E-03
151457,8.09E-03,9.00E-03
151458,8.09E-03,9.01E-03
151459,8.09E-03,9.02E-03
151460,8.09E-03,9.03E-03
151461,7.96E-03,9.04E-03
151462,7.87E-03,9.05E-03
151463,7.74E-03,9.06E-03
151464,7.64E-03,9.08E-03
151465,7.85E-03,9.09E-03
151466,7.98E-03,9.11E-03
151467,8.08E-03,9.12E-03
151468,8.08E-03,9.14E-03
151469,7.98E-03,9.16E-03
151470,7.97E-03,9.17E-03
151471,7.91E-03,9.19E-03
151472,7.87E-03,9.20E-03
151473,7.87E-03,9.22E-03
151474,7.87E-03,9.23E-03
151475,7.93E-03,9.25E-03
151476,8.08E-03,9.26E-03
151477,8.19E-03,9.28E-03
151478,8.33E-03,9.29E-03
151479,8.47E-03,9.30E-03
151480,8.63E-03,9.31E-03
151481,8.58E-03,9.32E-03
151482,8.50E-03,9.32E-03
151483,8.54E-03,9.32E-03
151484,8.54E-03,9.31E-03
151485,8.50E-03,9.30E-03
151486,8.46E-03,9.29E-03
151487,8.44E-03,9.28E-03
151488,8.41E-03,9.26E-03
151489,8.39E-03,9.24E-03
151490,8.37E-03,9.21E-03
151491,8.37E-03,9.18E-03
151492,8.38E-03,9.15E-03
151493,8.38E-03,9.11E-03
151494,8.39E-03,9.06E-03
151495,8.41E-03,9.01E-03
151496,8.43E-03,8.96E-03
151497,8.47E-03,8.90E-03
151498,8.51E-03,8.83E-03
151499,8.57E-03,8.76E-03
151500,8.63E-03,8.68E-03
151501,8.67E-03,8.59E-03
151502,8.67E-03,8.49E-03
151503,8.64E-03,8.38E-03
151504,8.59E-03,8.27E-03
151505,8.54E-03,8.15E-03
151506,8.49E-03,8.03E-03
151507,8.42E-03,7.91E-03
151508,8.36E-03,7.78E-03
151509,8.32E-03,7.66E-03
151510,8.30E-03,7.53E-03
151511,8.27E-03,7.40E-03
151512,8.19E-03,7.28E-03
151513,8.15E-03,7.16E-03
151514,8.20E-03,7.04E-03
151515,8.31E-03,6.92E-03
151516,8.28E-03,6.81E-03
151517,8.16E-03,6.71E-03
151518,7.92E-03,6.61E-03
151519,7.71E-03,6.51E-03
151520,7.53E-03,6.39E-03
151521,7.27E-03,6.27E-03
151522,6.74E-03,6.15E-03
151523,9.43E-03,1.03E-02
151524,8.65E-03,1.02E-02
151525,7.53E-03,1.00E-02
151526,7.00E-03,9.94E-03
151527,6.47E-03,9.81E-03
151528,6.68E-03,5.86E-03
151529,6.89E-03,9.40E-03
151530,6.78E-03,6.01E-03
151531,6.78E-03,5.88E-03
151532,6.88E-03,5.75E-03
151533,6.88E-03,5.72E-03
151534,7.03E-03,5.70E-03
151535,7.24E-03,5.69E-03
151536,7.22E-03,5.69E-03
151537,6.06E-03,6.09E-03
151538,7.61E-03,6.34E-03
151539,7.91E-03,6.63E-03
151540,7.96E-03,6.97E-03
151541,8.04E-03,7.31E-03
151542,8.02E-03,7.61E-03
151543,8.03E-03,7.82E-03
151544,7.94E-03,7.82E-03
151545,8.06E-03,7.30E-03
151546,8.17E-03,6.77E-03
151547,8.03E-03,6.65E-03
151548,7.90E-03,6.75E-03
151549,7.94E-03,6.96E-03
151550,8.05E-03,7.20E-03
151551,8.10E-03,7.41E-03
151552,8.12E-03,7.53E-03
151553,8.14E-03,7.54E-03
151554,7.99E-03,7.39E-03
151555,7.99E-03,7.06E-03
151556,7.83E-03,6.89E-03
151557,7.87E-03,7.03E-03
151558,7.93E-03,7.27E-03
151559,7.94E-03,7.55E-03
151560,8.00E-03,7.85E-03
151561,8.00E-03,8.16E-03
151562,8.00E-03,8.53E-03
151563,8.02E-03,8.93E-03
151564,8.04E-03,9.37E-03
151565,8.05E-03,9.83E-03
151566,8.06E-03,1.03E-02
151567,8.07E-03,1.08E-02
151568,8.07E-03,1.12E-02
151569,8.14E-03,1.17E-02
151570,8.16E-03,1.23E-02
151571,8.18E-03,1.28E-02
151572,8.28E-03,1.32E-02
151573,8.27E-03,1.35E-02
151574,8.20E-03,1.28E-02
151575,7.76E-03,1.17E-02
151576,7.85E-03,1.14E-02
151577,7.89E-03,1.15E-02
151578,7.91E-03,1.18E-02
151579,7.99E-03,1.22E-02
151580,8.03E-03,1.27E-02
151581,8.07E-03,1.33E-02
151582,8.10E-03,1.38E-02
151583,8.11E-03,1.42E-02
151584,8.14E-03,1.46E-02
151585,8.18E-03,1.48E-02
151586,8.21E-03,1.47E-02
151587,8.03E-03,1.42E-02
151588,8.02E-03,1.36E-02
151589,7.95E-03,1.34E-02
151590,7.88E-03,1.34E-02
151591,7.80E-03,1.34E-02
151592,7.69E-03,1.36E-02
151593,7.62E-03,1.38E-02
151594,7.51E-03,1.40E-02
151595,7.26E-03,1.43E-02
151596,7.20E-03,1.46E-02
151597,6.88E-03,1.49E-02
151598,6.09E-03,1.52E-02
151599,6.80E-03,1.58E-02
151600,5.31E-03,1.56E-02
151601,5.95E-03,1.53E-02
151602,8.07E-03,1.51E-02
151603,7.15E-03,1.49E-02
151604,6.85E-03,1.48E-02
151605,6.85E-03,1.46E-02
151606,7.03E-03,1.44E-02
151607,7.29E-03,1.43E-02
151608,7.61E-03,1.41E-02
151609,7.80E-03,1.39E-02
151610,7.86E-03,1.37E-02
151611,7.73E-03,1.36E-02
151612,7.45E-03,1.34E-02
151613,7.03E-03,1.33E-02
151614,6.31E-03,1.32E-02
151615,6.85E-03,1.30E-02
151616,7.08E-03,1.28E-02
151617,6.85E-03,1.26E-02
151618,7.49E-03,1.26E-02
151619,7.89E-03,1.24E-02
151620,8.06E-03,1.22E-02
151621,8.14E-03,1.21E-02
151622,8.15E-03,1.20E-02
151623,8.18E-03,1.19E-02
151624,8.20E-03,1.17E-02
151625,8.22E-03,1.16E-02
151626,8.23E-03,1.15E-02
151627,8.23E-03,1.14E-02
151628,8.23E-03,1.13E-02
151629,8.23E-03,1.12E-02
151630,8.23E-03,1.11E-02
151631,8.23E-03,1.10E-02
151632,8.21E-03,1.09E-02
151633,8.18E-03,1.09E-02
151634,8.16E-03,1.08E-02
151635,8.15E-03,1.07E-02
151636,8.13E-03,1.07E-02
151637,8.12E-03,1.06E-02
151638,8.12E-03,1.06E-02
151639,8.11E-03,1.05E-02
151640,8.09E-03,1.05E-02
151641,8.08E-03,1.04E-02
151642,8.07E-03,1.04E-02
151643,8.07E-03,1.04E-02
151644,8.06E-03,1.03E-02
151645,8.06E-03,1.03E-02
151646,8.06E-03,1.02E-02
151647,8.06E-03,1.02E-02
151648,8.06E-03,1.02E-02
151649,8.06E-03,1.01E-02
151650,8.06E-03,1.01E-02
151651,8.06E-03,1.01E-02
151652,8.06E-03,1.00E-02
151653,8.06E-03,1.00E-02
151654,8.06E-03,9.97E-03
151655,8.06E-03,9.94E-03
151656,8.06E-03,9.91E-03
151657,8.06E-03,9.88E-03
151658,7.97E-03,9.84E-03
151659,7.90E-03,9.81E-03
151660,7.83E-03,9.78E-03
151661,7.91E-03,9.75E-03
151662,8.01E-03,9.72E-03
151663,8.02E-03,9.69E-03
151664,7.98E-03,9.67E-03
151665,7.96E-03,9.64E-03
151666,7.96E-03,9.61E-03
151667,8.00E-03,9.58E-03
151668,8.12E-03,9.56E-03
151669,8.11E-03,9.54E-03
151670,8.03E-03,9.51E-03
151671,7.95E-03,9.49E-03
151672,7.86E-03,9.47E-03
151673,7.90E-03,9.45E-03
151674,7.99E-03,9.43E-03
151675,7.99E-03,9.41E-03
151676,7.88E-03,9.39E-03
151677,7.71E-03,9.38E-03
151678,7.46E-03,9.37E-03
151679,7.16E-03,9.36E-03
151680,6.96E-03,9.34E-03
151681,6.75E-03,9.34E-03
151682,6.58E-03,9.33E-03
151683,6.39E-03,9.32E-03
151684,6.27E-03,9.32E-03
151685,6.29E-03,9.32E-03
151686,6.74E-03,9.32E-03
151687,7.35E-03,9.31E-03
151688,7.80E-03,9.31E-03
151689,8.08E-03,9.31E-03
151690,8.06E-03,9.32E-03
151691,8.09E-03,9.33E-03
151692,8.10E-03,9.34E-03
151693,8.08E-03,9.36E-03
151694,8.08E-03,9.38E-03
151695,8.12E-03,9.40E-03
151696,8.17E-03,9.42E-03
151697,8.23E-03,9.44E-03
151698,8.30E-03,9.48E-03
151699,8.27E-03,9.51E-03
151700,8.11E-03,9.55E-03
151701,7.86E-03,9.60E-03
151702,7.55E-03,9.68E-03
151703,7.49E-03,9.74E-03
151704,7.66E-03,9.81E-03
151705,8.12E-03,9.89E-03
151706,8.39E-03,9.98E-03
151707,8.42E-03,1.01E-02
151708,8.59E-03,1.02E-02
151709,8.55E-03,1.03E-02
151710,8.67E-03,1.05E-02
151711,8.59E-03,1.06E-02
151712,8.62E-03,1.05E-02
151713,8.31E-03,1.04E-02
151714,7.93E-03,1.02E-02
151715,7.17E-03,1.01E-02
151716,6.35E-03,9.94E-03
151717,5.80E-03,9.79E-03
151718,5.83E-03,9.64E-03
151719,6.74E-03,9.47E-03
151720,5.40E-03,9.27E-03
151721,3.96E-03,9.10E-03
151722,5.53E-03,9.16E-03
151723,7.34E-03,9.17E-03
151724,7.06E-03,9.13E-03
151725,7.70E-03,9.08E-03
151726,8.19E-03,9.09E-03
151727,7.99E-03,9.08E-03
151728,7.69E-03,9.05E-03
151729,7.53E-03,9.03E-03
151730,7.64E-03,9.00E-03
151731,7.78E-03,8.98E-03
151732,7.82E-03,8.95E-03
151733,7.84E-03,8.94E-03
151734,8.07E-03,8.92E-03
151735,8.33E-03,8.91E-03
151736,8.78E-03,8.90E-03
151737,8.66E-03,8.89E-03
151738,8.45E-03,8.87E-03
151739,8.31E-03,8.86E-03
151740,8.22E-03,8.84E-03
151741,8.16E-03,8.83E-03
151742,8.16E-03,8.82E-03
151743,8.10E-03,8.82E-03
151744,8.09E-03,8.81E-03
151745,8.14E-03,8.81E-03
151746,8.12E-03,8.81E-03
151747,8.06E-03,8.81E-03
151748,7.98E-03,8.82E-03
151749,7.79E-03,8.82E-03
151750,7.77E-03,8.82E-03
151751,7.83E-03,8.82E-03
151752,7.97E-03,8.83E-03
151753,8.08E-03,8.84E-03
151754,8.08E-03,8.84E-03
151755,8.08E-03,8.85E-03
151756,8.08E-03,8.87E-03
151757,8.08E-03,8.88E-03
151758,8.08E-03,8.89E-03
151759,8.08E-03,8.90E-03
151760,8.08E-03,8.91E-03
151761,8.08E-03,8.93E-03
151762,7.99E-03,8.94E-03
151763,7.89E-03,8.96E-03
151764,7.84E-03,8.97E-03
151765,7.85E-03,8.99E-03
151766,7.93E-03,9.00E-03
151767,8.01E-03,9.02E-03
151768,8.09E-03,9.03E-03
151769,8.09E-03,9.05E-03
151770,8.09E-03,9.07E-03
151771,8.09E-03,9.08E-03
151772,8.02E-03,9.10E-03
151773,7.95E-03,9.12E-03
151774,7.95E-03,9.14E-03
151775,8.03E-03,9.15E-03
151776,8.12E-03,9.17E-03
151777,8.11E-03,9.18E-03
151778,8.06E-03,9.19E-03
151779,8.16E-03,9.21E-03
151780,8.16E-03,9.22E-03
151781,8.19E-03,9.23E-03
151782,8.20E-03,9.23E-03
151783,8.22E-03,9.23E-03
151784,8.23E-03,9.23E-03
151785,8.23E-03,9.23E-03
151786,8.22E-03,9.22E-03
151787,8.20E-03,9.21E-03
151788,8.20E-03,9.19E-03
151789,8.19E-03,9.17E-03
151790,8.18E-03,9.15E-03
151791,8.18E-03,9.13E-03
151792,8.18E-03,9.09E-03
151793,8.18E-03,9.06E-03
151794,8.18E-03,9.02E-03
151795,8.18E-03,8.98E-03
151796,8.19E-03,8.93E-03
151797,8.19E-03,8.88E-03
151798,8.21E-03,8.82E-03
151799,8.22E-03,8.75E-03
151800,8.24E-03,8.68E-03
151801,8.26E-03,8.60E-03
151802,8.27E-03,8.51E-03
151803,8.27E-03,8.42E-03
151804,8.26E-03,8.32E-03
151805,8.25E-03,8.21E-03
151806,8.23E-03,8.10E-03
151807,8.21E-03,7.99E-03
151808,8.19E-03,7.87E-03
151809,8.17E-03,7.75E-03
151810,8.16E-03,7.63E-03
151811,8.15E-03,7.51E-03
151812,8.14E-03,7.39E-03
151813,8.14E-03,7.27E-03
151814,8.13E-03,7.15E-03
151815,8.13E-03,7.04E-03
151816,8.13E-03,6.92E-03
151817,8.12E-03,6.81E-03
151818,8.04E-03,6.71E-03
151819,7.94E-03,6.61E-03
151820,7.74E-03,6.51E-03
151821,7.53E-03,6.39E-03
151822,7.28E-03,6.28E-03
151823,6.95E-03,6.16E-03
151824,6.76E-03,6.03E-03
151825,6.78E-03,5.90E-03
151826,6.88E-03,5.77E-03
151833,1.01E-02,3.86E-03
151834,1.08E-02,5.31E-03
151835,1.04E-02,5.67E-03
151836,9.83E-03,1.05E-02
151837,9.27E-03,1.05E-02
151838,9.98E-03,1.03E-02
151839,1.02E-02,1.35E-02
151840,1.06E-02,1.33E-02
151841,9.11E-03,1.33E-02
151842,4.98E-03,1.34E-02
151843,4.98E-03,1.44E-02
151844,3.72E-03,1.45E-02
151845,4.02E-03,1.04E-02
151846,6.48E-03,1.05E-02
151847,5.58E-03,1.03E-02
151848,6.52E-03,1.39E-02
151849,7.46E-03,1.28E-02
151850,8.04E-03,1.13E-02
151851,8.79E-03,9.72E-03
151852,7.40E-03,7.71E-03
151853,8.10E-03,1.66E-02
151854,7.61E-03,1.67E-02
151855,7.31E-03,1.68E-02
151856,6.60E-03,1.24E-02
151857,7.78E-03,1.14E-02
151858,7.27E-03,1.27E-02
151859,7.54E-03,1.48E-02
151860,8.00E-03,1.40E-02
151861,9.07E-03,1.15E-02
151862,6.69E-03,1.53E-02
151863,8.22E-03,9.87E-03
151864,6.66E-03,1.53E-02
151865,7.64E-03,1.53E-02
151866,7.52E-03,1.42E-02
151867,7.69E-03,1.53E-02
151868,8.09E-03,1.51E-02
151869,8.58E-03,1.49E-02
151870,8.44E-03,1.46E-02
151871,7.75E-03,1.45E-02
151872,7.46E-03,1.43E-02
151873,6.93E-03,1.41E-02
151874,8.96E-03,1.06E-02
151875,1.02E-02,1.21E-02
151876,8.32E-03,1.34E-02
151877,7.93E-03,1.33E-02
151878,6.23E-03,1.33E-02
151879,6.81E-03,1.32E-02
151880,8.52E-03,1.34E-02
151881,7.69E-03,1.34E-02
151882,7.88E-03,1.33E-02
151883,8.78E-03,9.22E-03
151884,8.20E-03,8.26E-03
151885,9.09E-03,7.63E-03
151886,8.14E-03,6.59E-03
151887,7.66E-03,1.35E-02
151888,7.00E-03,1.40E-02
151889,8.10E-03,1.42E-02
151890,8.16E-03,1.44E-02
151891,8.53E-03,1.48E-02
151892,7.88E-03,1.53E-02
151893,8.05E-03,1.55E-02
151894,8.20E-03,1.58E-02
151895,8.26E-03,1.61E-02
151896,7.99E-03,1.64E-02
151897,7.83E-03,1.65E-02
151898,7.48E-03,1.67E-02
151899,7.36E-03,1.67E-02
151900,9.86E-03,1.33E-02
151901,8.86E-03,1.30E-02
151902,8.56E-03,1.29E-02
151903,8.46E-03,1.27E-02
151904,8.33E-03,1.25E-02
151905,8.08E-03,1.23E-02
151906,7.99E-03,1.21E-02
151907,7.99E-03,1.20E-02
151908,7.78E-03,1.18E-02
151909,7.71E-03,1.17E-02
151910,7.74E-03,1.15E-02
151911,7.68E-03,1.14E-02
151912,7.98E-03,1.13E-02
151913,7.78E-03,1.11E-02
151914,7.87E-03,1.10E-02
151915,7.77E-03,1.09E-02
151916,7.56E-03,1.08E-02
151917,7.41E-03,1.08E-02
151918,5.01E-03,1.02E-02
151919,4.70E-03,1.04E-02
151920,7.49E-03,1.04E-02
151921,6.88E-03,1.07E-02
151922,6.70E-03,1.07E-02
151923,7.63E-03,1.04E-02
151924,7.56E-03,1.05E-02
151925,7.76E-03,1.06E-02
151926,7.75E-03,1.06E-02
151927,7.79E-03,1.07E-02
151928,7.78E-03,1.09E-02
151929,7.77E-03,1.10E-02
151930,7.80E-03,1.11E-02
151931,7.88E-03,1.12E-02
151932,7.88E-03,1.13E-02
151933,7.94E-03,1.15E-02
151934,8.03E-03,1.16E-02
151935,8.08E-03,1.18E-02
151936,8.27E-03,1.19E-02
151937,8.45E-03,1.21E-02
151938,8.58E-03,1.22E-02
151939,9.04E-03,1.24E-02
151940,9.92E-03,1.26E-02
151941,9.68E-03,1.27E-02
151942,8.43E-03,1.27E-02
151943,7.95E-03,1.27E-02
151944,7.75E-03,1.27E-02
151945,8.22E-03,1.27E-02
151946,8.01E-03,1.26E-02
151947,8.51E-03,1.25E-02
151948,9.26E-03,1.24E-02
151949,1.09E-02,1.21E-02
151950,1.14E-02,1.13E-02
151951,9.60E-03,1.00E-02
151952,9.30E-03,8.63E-03
151953,9.50E-03,7.12E-03
151954,8.55E-03,9.97E-03
151955,5.17E-03,1.00E-02
151956,7.88E-03,1.00E-02
151957,7.70E-03,1.01E-02
151958,7.72E-03,1.02E-02
151959,7.69E-03,1.03E-02
151960,7.67E-03,1.04E-02
151961,7.69E-03,1.04E-02
151962,7.73E-03,1.05E-02
151963,7.88E-03,1.06E-02
151964,7.90E-03,1.07E-02
151965,7.91E-03,1.09E-02
151966,7.94E-03,1.10E-02
151967,8.01E-03,1.11E-02
151968,8.09E-03,1.12E-02
151969,8.21E-03,1.14E-02
151970,8.37E-03,1.15E-02
151971,8.52E-03,1.16E-02
151972,8.87E-03,1.18E-02
151973,8.95E-03,1.18E-02
151974,8.81E-03,1.19E-02
151975,8.47E-03,1.20E-02
151976,8.15E-03,1.20E-02
151977,8.00E-03,1.20E-02
151978,7.97E-03,1.19E-02
151979,8.24E-03,1.18E-02
151980,8.50E-03,1.16E-02
151981,9.09E-03,1.13E-02
151982,9.55E-03,1.08E-02
151983,9.65E-03,1.02E-02
151984,9.46E-03,9.26E-03
151985,9.05E-03,8.07E-03
151986,9.23E-03,6.69E-03
151987,9.21E-03,5.30E-03
151988,8.65E-03,4.06E-03
151989,6.71E-03,9.87E-03
151990,5.81E-03,9.69E-03
151991,5.78E-03,9.90E-03
151992,6.04E-03,1.02E-02
151993,5.96E-03,1.05E-02
151994,6.15E-03,1.04E-02
151995,6.58E-03,9.78E-03
151996,6.15E-03,1.03E-02
151997,7.90E-03,1.62E-02
151998,8.20E-03,1.31E-02
151999,9.65E-03,1.02E-02
152000,7.35E-03,8.02E-03
152001,6.56E-03,5.74E-03
152002,8.26E-03,4.72E-03
152003,1.04E-02,3.81E-03
152004,1.10E-02,2.91E-03
152005,9.71E-03,2.79E-03
152006,9.37E-03,2.02E-03
152007,9.12E-03,2.08E-03
152008,8.38E-03,1.42E-03
152009,7.27E-03,1.43E-03
152010,6.51E-03,1.05E-03
152011,7.08E-03,9.00E-04
152012,9.04E-03,6.91E-04
152013,7.38E-03,7.22E-04
152014,6.54E-03,7.83E-04
152015,7.36E-03,1.05E-02
152016,6.84E-03,1.07E-02
152017,6.71E-03,1.08E-02
152018,6.79E-03,1.08E-02
152019,6.98E-03,1.09E-02
152020,7.13E-03,1.10E-02
152021,7.37E-03,1.11E-02
152022,7.65E-03,1.12E-02
152023,7.80E-03,1.13E-02
152024,7.88E-03,1.14E-02
152025,7.80E-03,1.15E-02
152026,8.17E-03,1.16E-02
152027,8.04E-03,1.18E-02
152028,8.04E-03,1.20E-02
152029,7.90E-03,1.21E-02
152030,7.86E-03,1.23E-02
152031,7.96E-03,1.25E-02
152032,8.04E-03,1.27E-02
152033,8.06E-03,1.29E-02
152034,8.26E-03,1.31E-02
152035,8.43E-03,1.33E-02
152036,8.59E-03,1.35E-02
152037,8.85E-03,1.37E-02
152038,8.78E-03,1.40E-02
152039,8.33E-03,1.42E-02
152040,8.05E-03,1.46E-02
152041,7.88E-03,1.50E-02
152042,8.11E-03,1.54E-02
152043,8.02E-03,1.57E-02
152044,8.17E-03,1.61E-02
152045,8.03E-03,1.65E-02
152046,8.11E-03,1.69E-02
152047,8.07E-03,1.72E-02
152048,8.02E-03,1.75E-02
152049,7.90E-03,1.78E-02
152050,7.70E-03,1.80E-02
152051,7.60E-03,1.82E-02
152052,7.56E-03,1.84E-02
152053,7.71E-03,1.86E-02
152054,7.85E-03,1.89E-02
152055,7.98E-03,1.97E-02
152056,7.41E-03,9.95E-03
152057,6.46E-03,1.01E-02
152058,7.78E-03,1.03E-02
152059,7.84E-03,1.24E-03
152060,8.37E-03,1.24E-03
152061,7.89E-03,1.18E-03
152062,7.85E-03,1.16E-03
152063,7.59E-03,1.03E-03
152064,7.98E-03,9.35E-04
152065,8.15E-03,1.04E-03
152066,8.98E-03,1.30E-03
152067,9.23E-03,1.75E-03
152068,8.77E-03,2.31E-03
152069,8.11E-03,3.18E-03
152070,7.69E-03,4.56E-03
152071,7.73E-03,6.99E-03
152072,7.87E-03,9.20E-03
152073,7.92E-03,1.23E-02
152074,7.61E-03,1.62E-02
152075,7.78E-03,2.07E-02
152076,8.23E-03,1.08E-02
152077,7.51E-03,1.09E-02
152078,7.14E-03,1.10E-02
152079,7.06E-03,1.11E-02
152080,7.13E-03,1.12E-02
152081,7.30E-03,1.13E-02
152082,7.51E-03,1.14E-02
152083,7.68E-03,1.15E-02
152084,7.88E-03,1.16E-02
152085,8.04E-03,1.18E-02
152086,8.04E-03,1.19E-02
152087,8.04E-03,1.21E-02
152088,8.04E-03,1.22E-02
152089,8.04E-03,1.24E-02
152090,8.04E-03,1.26E-02
152091,8.04E-03,1.28E-02
152092,7.96E-03,1.30E-02
152093,8.04E-03,1.32E-02
152094,8.03E-03,1.34E-02
152095,8.24E-03,1.36E-02
152096,8.31E-03,1.39E-02
152097,8.39E-03,1.41E-02
152098,8.47E-03,1.44E-02
152099,8.50E-03,1.47E-02
152100,8.40E-03,1.50E-02
152101,8.19E-03,1.54E-02
152102,8.04E-03,1.58E-02
152103,8.04E-03,1.62E-02
152104,8.04E-03,1.66E-02
152105,8.14E-03,1.70E-02
152106,8.04E-03,1.74E-02
152107,8.02E-03,1.78E-02
152108,7.98E-03,1.82E-02
152109,7.93E-03,1.86E-02
152110,7.89E-03,1.90E-02
152111,7.81E-03,1.93E-02
152112,7.70E-03,1.96E-02
152113,7.75E-03,1.99E-02
152114,7.85E-03,2.03E-02
152115,7.94E-03,2.09E-02
152116,8.15E-03,2.23E-02
152117,6.15E-03,1.28E-03
152118,6.00E-03,1.30E-03
152119,7.15E-03,1.28E-03
152120,8.26E-03,1.18E-03
152121,8.24E-03,1.13E-03
152122,7.98E-03,7.48E-04
152123,6.47E-03,6.83E-04
152124,5.67E-03,5.80E-04
152125,7.30E-03,6.58E-04
152126,8.82E-03,9.89E-04
152127,9.27E-03,1.59E-03
152128,9.31E-03,2.36E-03
152129,9.10E-03,3.41E-03
152130,7.96E-03,4.53E-03
152131,8.48E-03,5.35E-03
152132,8.61E-03,6.37E-03
152133,8.77E-03,7.45E-03
152134,8.97E-03,8.42E-03
152135,8.98E-03,9.22E-03
152136,8.90E-03,9.86E-03
152137,8.64E-03,1.03E-02
152138,8.41E-03,1.07E-02
152139,8.22E-03,1.09E-02
152140,8.03E-03,1.11E-02
152141,8.03E-03,1.12E-02
152142,8.10E-03,1.12E-02
152143,8.28E-03,1.12E-02
152144,8.45E-03,1.12E-02
152145,8.50E-03,1.11E-02
152146,8.49E-03,1.11E-02
152147,8.38E-03,1.10E-02
152148,8.23E-03,1.09E-02
152149,8.13E-03,1.08E-02
152150,8.05E-03,1.07E-02
152151,8.00E-03,1.06E-02
152152,7.97E-03,1.05E-02
152153,7.97E-03,1.04E-02
152154,7.91E-03,1.03E-02
152155,8.06E-03,1.02E-02
152156,7.98E-03,1.01E-02
152157,7.98E-03,1.00E-02
152158,7.98E-03,9.96E-03
152159,7.98E-03,9.88E-03
152160,7.91E-03,9.80E-03
152161,7.88E-03,9.72E-03
152162,8.04E-03,9.66E-03
152163,8.30E-03,9.59E-03
152164,7.89E-03,9.64E-03
152165,6.71E-03,9.45E-03
152166,7.60E-03,9.45E-03
152167,7.76E-03,9.57E-03
152168,7.52E-03,9.74E-03
152169,7.57E-03,9.96E-03
152170,8.13E-03,1.02E-02
152171,9.58E-03,2.53E-02
152172,6.18E-03,1.06E-02
152173,4.30E-03,1.07E-02
152174,5.54E-03,1.07E-02
152175,5.57E-03,1.08E-02
152176,7.95E-03,1.09E-02
152177,1.06E-02,1.08E-02
152178,1.11E-02,1.09E-02
152179,8.77E-03,1.10E-02
152180,7.88E-03,1.11E-02
152181,7.44E-03,1.12E-02
152182,7.29E-03,1.14E-02
152183,7.34E-03,1.15E-02
152184,7.48E-03,1.16E-02
152185,7.65E-03,1.17E-02
152186,7.90E-03,1.19E-02
152187,8.04E-03,1.20E-02
152188,8.04E-03,1.21E-02
152189,8.04E-03,1.23E-02
152190,8.04E-03,1.25E-02
152191,8.04E-03,1.26E-02
152192,8.04E-03,1.28E-02
152193,8.04E-03,1.30E-02
152194,8.04E-03,1.32E-02
152195,8.04E-03,1.35E-02
152196,8.04E-03,1.37E-02
152197,8.07E-03,1.39E-02
152198,8.16E-03,1.42E-02
152199,8.26E-03,1.45E-02
152200,8.37E-03,1.48E-02
152201,8.44E-03,1.51E-02
152202,8.41E-03,1.54E-02
152203,8.28E-03,1.57E-02
152204,8.12E-03,1.61E-02
152205,8.04E-03,1.65E-02
152206,8.04E-03,1.70E-02
152207,8.04E-03,1.74E-02
152208,8.04E-03,1.78E-02
152209,8.03E-03,1.83E-02
152210,7.95E-03,1.87E-02
152211,7.98E-03,1.92E-02
152212,8.04E-03,1.97E-02
152213,7.97E-03,2.01E-02
152214,7.92E-03,2.06E-02
152215,7.83E-03,2.10E-02
152216,7.85E-03,2.14E-02
152217,7.89E-03,2.20E-02
152218,7.98E-03,2.29E-02
152219,8.27E-03,2.45E-02
152220,8.49E-03,2.73E-02
152221,5.03E-03,3.24E-02
152222,3.87E-03,3.61E-02
152223,4.85E-03,3.24E-02
152224,7.46E-03,2.91E-02
152225,6.53E-03,2.30E-02
152226,6.88E-03,1.71E-02
152227,7.11E-03,1.22E-02
152228,7.28E-03,8.49E-03
152229,7.51E-03,5.48E-03
152230,7.97E-03,3.44E-03
152231,8.23E-03,2.19E-03
152232,8.56E-03,1.60E-03
152233,8.81E-03,1.40E-03
152234,8.69E-03,1.38E-03
152235,8.35E-03,1.43E-03
152236,7.99E-03,1.55E-03
152237,7.84E-03,1.66E-03
152238,7.88E-03,1.76E-03
152239,7.89E-03,1.84E-03
152240,7.68E-03,1.91E-03
152241,6.89E-03,1.88E-03
152242,8.30E-03,1.58E-03
152243,8.54E-03,1.76E-03
152244,8.03E-03,1.72E-03
152245,8.03E-03,1.64E-03
152246,6.19E-03,1.48E-03
152247,7.96E-03,9.63E-03
152248,7.96E-03,9.56E-03
152249,7.96E-03,9.49E-03
152250,7.96E-03,9.42E-03
152251,7.96E-03,9.70E-03
152252,7.96E-03,9.37E-03
152253,8.12E-03,9.30E-03
152254,8.06E-03,9.24E-03
152255,7.96E-03,9.76E-03
152256,7.68E-03,9.27E-03
152257,7.56E-03,9.26E-03
152258,7.96E-03,9.83E-03
152259,8.72E-03,9.21E-03
152260,8.00E-03,9.90E-03
152261,7.95E-03,9.98E-03
152262,7.96E-03,1.01E-02
152263,7.99E-03,1.01E-02
152264,8.03E-03,1.02E-02
152265,8.04E-03,1.03E-02
152266,8.16E-03,1.04E-02
152267,8.19E-03,1.04E-02
152268,8.21E-03,1.04E-02
152269,8.12E-03,1.05E-02
152270,6.65E-03,5.35E-04
152271,6.83E-03,4.68E-04
152272,8.05E-03,1.05E-02
152273,7.42E-03,4.66E-04
152274,6.39E-03,1.37E-03
152275,7.94E-03,1.11E-03
152276,8.34E-03,1.10E-03
152277,6.66E-03,1.02E-03
152278,7.86E-03,7.09E-04
152279,7.07E-03,9.18E-04
152280,7.12E-03,8.93E-04
152281,7.68E-03,7.58E-04
152282,7.98E-03,1.05E-02
152283,7.98E-03,1.39E-03
152284,8.57E-03,1.98E-03
152285,7.95E-03,1.04E-02
152286,8.65E-03,2.72E-03
152287,7.95E-03,1.03E-02
152288,8.37E-03,3.51E-03
152289,8.11E-03,1.01E-02
152290,8.13E-03,9.81E-03
152291,8.21E-03,4.40E-03
152292,8.15E-03,9.45E-03
152293,8.01E-03,5.27E-03
152294,8.17E-03,6.08E-03
152295,8.18E-03,8.98E-03
152296,8.18E-03,6.91E-03
152297,8.19E-03,7.71E-03
152298,8.19E-03,8.40E-03
152299,8.66E-03,1.48E-03
152300,7.46E-03,1.15E-03
152301,7.69E-03,1.46E-03
152302,7.67E-03,9.78E-03
152303,7.63E-03,9.60E-03
152304,8.86E-03,9.39E-03
152305,8.34E-03,9.96E-03
152306,8.48E-03,9.14E-03
152307,8.72E-03,1.01E-02
152308,8.16E-03,1.03E-02
152309,6.73E-03,1.04E-02
152310,5.66E-03,1.05E-02
152311,5.87E-03,1.06E-02
152316,5.35E-03,7.54E-04
152317,6.59E-03,7.14E-04
152318,7.29E-03,6.83E-04
152319,7.28E-03,6.79E-04
152320,6.82E-03,6.86E-04
152321,6.05E-03,6.99E-04
152322,5.19E-03,7.05E-04
152323,4.53E-03,4.41E-04
152324,4.47E-03,4.46E-04
152325,4.30E-03,4.22E-04
152326,4.37E-03,6.79E-04
152327,3.88E-03,3.90E-04
152357,8.30E-03,1.56E-03
152358,9.53E-03,1.59E-03
152359,6.16E-03,1.52E-03
152360,4.66E-03,1.82E-03
152361,6.59E-03,1.79E-03
152362,6.15E-03,1.79E-03
152363,4.53E-03,1.82E-03
152364,4.61E-03,1.85E-03
152365,3.51E-03,9.60E-04
152366,4.91E-03,9.74E-04
152367,4.32E-03,9.45E-04
152368,3.28E-03,9.41E-04
152369,3.74E-03,9.38E-04
152370,3.78E-03,9.58E-04
152371,5.25E-03,9.60E-04
152372,5.04E-03,9.38E-04
152373,3.44E-03,9.50E-04
152374,4.49E-03,9.39E-04
152375,4.66E-03,9.21E-04
152376,6.30E-03,9.20E-04
152377,5.89E-03,9.46E-04
152378,4.30E-03,9.42E-04
152379,4.50E-03,9.39E-04
152380,4.23E-03,2.42E-03
152381,5.43E-03,2.44E-03
152382,5.12E-03,2.42E-03
152383,3.38E-03,2.41E-03
152384,4.08E-03,2.41E-03
152385,8.06E-03,2.26E-03
152386,9.54E-03,2.21E-03
152387,3.93E-03,1.50E-03
152388,6.27E-03,1.54E-03
152389,3.89E-03,1.51E-03
152390,4.83E-03,1.48E-03
152391,4.33E-03,9.12E-04
152392,3.89E-03,9.13E-04
152393,4.69E-03,9.14E-04
152394,4.69E-03,8.78E-04
152395,4.45E-03,8.80E-04
152396,4.97E-03,8.84E-04
152397,4.97E-03,8.43E-04
152398,4.80E-03,8.45E-04
152399,5.21E-03,8.51E-04
152400,6.10E-03,9.74E-04
152401,5.59E-03,9.69E-04
152402,5.64E-03,9.64E-04
152403,5.22E-03,2.30E-03
152404,7.39E-03,2.31E-03
152405,6.82E-03,2.37E-03
152406,4.98E-03,2.34E-03
152407,6.76E-03,2.31E-03
152408,5.29E-03,1.37E-03
152409,7.37E-03,1.37E-03
152410,6.36E-03,1.40E-03
152411,4.59E-03,1.40E-03
152412,5.01E-03,1.38E-03
152413,6.71E-03,1.80E-03
152414,6.09E-03,1.84E-03
152415,6.07E-03,1.87E-03
152416,5.35E-03,9.20E-04
152417,4.17E-03,9.30E-04
152418,5.81E-03,9.28E-04
152419,6.11E-03,9.04E-04
152420,5.02E-03,9.11E-04
152421,5.82E-03,9.23E-04
152422,8.16E-03,2.52E-03
152423,1.00E-02,2.50E-03
152424,9.49E-03,2.54E-03
152425,5.16E-03,2.53E-03
152426,7.41E-03,2.47E-03
152427,5.76E-03,2.49E-03
152428,4.11E-03,2.52E-03
152429,7.65E-03,2.42E-03
152430,6.97E-03,2.45E-03
152431,5.25E-03,2.48E-03
152432,5.33E-03,2.39E-03
152433,4.47E-03,2.39E-03
152434,5.50E-03,2.38E-03
152435,5.81E-03,2.37E-03
152436,5.36E-03,2.36E-03
152437,5.78E-03,2.36E-03
152438,6.31E-03,2.34E-03
152439,6.27E-03,2.33E-03
152440,6.34E-03,2.33E-03
152441,7.82E-03,4.09E-03
152442,9.32E-03,4.02E-03
152443,8.73E-03,3.98E-03
152444,8.49E-03,4.05E-03
152445,9.52E-03,9.72E-04
152446,9.13E-03,1.01E-03
152447,7.34E-03,1.02E-03
152448,8.99E-03,9.97E-04
152449,1.04E-02,2.55E-03
152450,1.05E-02,2.53E-03
152451,1.06E-02,2.47E-03
152452,9.63E-03,2.56E-03
152453,1.02E-02,2.51E-03
152454,1.02E-02,2.49E-03
152455,4.94E-03,3.07E-03
152456,6.67E-03,3.11E-03
152457,6.73E-03,3.10E-03
152458,4.99E-03,3.06E-03
152459,5.15E-03,3.03E-03
152460,9.03E-03,1.06E-03
152461,9.40E-03,1.08E-03
152462,8.59E-03,1.12E-03
152463,9.72E-03,3.19E-03
152464,1.06E-02,3.23E-03
152465,1.00E-02,3.25E-03
152466,1.00E-02,3.17E-03
152467,9.19E-03,9.38E-04
152468,9.74E-03,9.52E-04
152469,9.16E-03,9.13E-04
152470,4.97E-03,8.50E-04
152471,6.64E-03,8.24E-04
152472,6.55E-03,8.28E-04
152473,5.04E-03,8.51E-04
152474,5.01E-03,8.68E-04
152475,1.01E-02,7.94E-04
152476,1.03E-02,8.04E-04
152477,9.97E-03,7.67E-04
152478,4.82E-03,3.75E-03
152479,6.56E-03,3.79E-03
152480,6.71E-03,3.78E-03
152481,4.80E-03,3.74E-03
152482,5.02E-03,3.70E-03
152483,9.74E-03,3.86E-03
152484,9.63E-03,3.89E-03
152485,1.01E-02,3.84E-03
152486,1.12E-02,1.37E-03
152487,9.09E-03,1.41E-03
152488,9.45E-03,1.40E-03
152489,1.06E-02,1.35E-03
152490,9.72E-03,1.62E-03
152491,8.87E-03,1.65E-03
152492,6.28E-03,1.69E-03
152493,1.04E-02,1.20E-03
152494,8.92E-03,1.13E-03
152495,9.70E-03,1.17E-03
152496,9.70E-03,1.75E-03
152497,1.04E-02,1.79E-03
152498,9.81E-03,1.85E-03
152499,4.44E-03,2.83E-03
152500,7.14E-03,2.84E-03
152501,6.44E-03,2.87E-03
152502,4.00E-03,2.85E-03
152503,4.70E-03,2.83E-03
152504,1.11E-02,2.06E-03
152505,1.10E-02,2.12E-03
152506,1.07E-02,2.08E-03
152507,9.38E-03,2.86E-03
152508,9.19E-03,2.85E-03
152509,9.79E-03,2.88E-03
152510,4.52E-03,1.83E-04
152511,6.31E-03,1.81E-04
152512,6.19E-03,1.73E-04
152513,4.68E-03,1.81E-04
152514,4.50E-03,1.81E-04
152515,1.03E-02,4.12E-04
152516,1.00E-02,3.91E-04
152517,1.01E-02,3.94E-04
152518,1.07E-02,4.15E-04
152519,4.59E-03,3.53E-04
152520,6.58E-03,3.48E-04
152521,5.10E-03,3.52E-04
152522,3.84E-03,3.54E-04
152523,4.68E-03,3.54E-04
152524,4.65E-03,2.80E-03
152525,6.59E-03,2.77E-03
152526,6.43E-03,2.78E-03
152527,4.59E-03,2.80E-03
152528,4.81E-03,2.82E-03
152529,9.33E-03,3.25E-04
152530,8.82E-03,2.98E-04
152531,9.65E-03,3.13E-04
152532,9.90E-03,2.72E-03
152533,9.38E-03,2.70E-03
152534,9.81E-03,2.73E-03
152535,4.86E-03,2.90E-04
152536,6.77E-03,2.93E-04
152537,6.26E-03,2.92E-04
152538,4.60E-03,2.90E-04
152539,4.89E-03,2.87E-04
152540,1.02E-02,1.91E-04
152541,1.03E-02,1.95E-04
152542,9.45E-03,1.88E-04
152543,4.98E-03,2.41E-04
152544,7.12E-03,2.31E-04
152545,7.04E-03,2.58E-04
152546,5.93E-03,2.62E-04
152547,5.44E-03,2.53E-04
152548,4.68E-03,3.55E-03
152549,6.98E-03,3.59E-03
152550,6.81E-03,3.57E-03
152551,4.60E-03,3.54E-03
152552,4.52E-03,3.50E-03
152553,5.18E-03,2.01E-03
152554,6.57E-03,2.04E-03
152555,5.22E-03,1.50E-03
152556,7.08E-03,1.52E-03
152557,7.78E-03,1.71E-03
152558,9.66E-03,1.75E-03
152559,4.22E-03,1.46E-03
152560,5.29E-03,1.48E-03
152561,1.10E-02,1.89E-03
152562,1.09E-02,1.93E-03
152563,7.10E-03,2.32E-03
152564,7.02E-03,2.31E-03
152565,8.77E-03,1.76E-03
152566,1.05E-02,1.80E-03
152567,1.17E-02,1.84E-03
152568,8.68E-03,2.40E-03
152569,8.05E-03,2.43E-03
152570,7.77E-03,2.35E-03
152571,5.91E-03,1.62E-04
152572,4.76E-03,1.36E-04
152573,5.37E-03,1.34E-04
152574,5.47E-03,1.57E-04
152575,4.37E-03,1.86E-04
152576,5.24E-03,1.82E-04
152577,7.51E-03,9.16E-04
152578,6.95E-03,9.04E-04
152579,7.59E-03,8.96E-04
152580,8.72E-03,2.58E-03
152581,9.05E-03,1.44E-03
152582,8.36E-03,1.48E-03
152583,6.35E-03,1.47E-03
152584,8.79E-03,2.12E-03
152585,1.07E-02,2.17E-03
152586,5.90E-03,1.50E-03
152587,6.26E-03,1.47E-03
152588,5.53E-03,1.47E-03
152589,6.50E-03,1.45E-03
152590,5.92E-03,1.72E-03
152591,1.10E-02,1.80E-03
152592,8.61E-03,1.80E-03
152593,8.05E-03,9.69E-04
152594,4.94E-03,9.91E-04
152595,5.96E-03,1.01E-03
152596,9.75E-03,2.81E-03
152597,9.84E-03,2.77E-03
152598,8.65E-03,6.20E-04
152599,9.38E-03,6.58E-04
152600,7.57E-03,2.61E-04
152601,3.60E-03,2.79E-04
152602,4.38E-03,2.63E-04
152603,4.18E-03,5.64E-04
152604,2.26E-03,5.37E-04
152605,5.93E-03,4.07E-03
152606,9.01E-03,4.06E-03
152607,8.34E-03,4.79E-04
152608,9.49E-03,5.05E-04
152609,8.85E-03,5.08E-04
152610,8.36E-03,1.93E-03
152611,6.87E-03,1.94E-03
152612,8.74E-03,2.00E-03
152613,9.74E-03,1.32E-03
152614,8.49E-03,1.35E-03
152615,7.51E-03,1.38E-03
152616,5.15E-03,1.24E-03
152617,8.94E-03,1.20E-03
152618,8.08E-03,2.34E-04
152619,8.80E-03,2.30E-04
152620,7.96E-03,2.27E-04
152621,8.47E-03,4.12E-04
152622,7.90E-03,4.24E-04
152623,7.87E-03,4.25E-04
152624,7.86E-03,4.31E-03
152625,8.47E-03,4.24E-03
152626,9.26E-03,1.22E-03
152627,7.36E-03,1.25E-03
152628,9.98E-03,1.25E-03
152629,4.04E-03,2.56E-03
152630,5.91E-03,2.56E-03
152631,7.28E-03,2.56E-03
152632,7.62E-03,4.63E-03
152633,5.26E-03,4.57E-03
152634,7.58E-03,4.51E-03
152635,8.08E-03,1.39E-03
152636,7.91E-03,1.40E-03
152637,6.87E-03,1.41E-03
152638,6.41E-03,1.32E-03
152639,5.99E-03,1.31E-03
152640,6.31E-03,1.33E-03
152641,5.62E-03,1.58E-03
152642,5.85E-03,1.60E-03
152643,5.99E-03,1.58E-03
152644,5.34E-03,1.04E-03
152645,6.47E-03,1.03E-03
152646,5.46E-03,2.70E-03
152647,5.60E-03,2.66E-03
152648,6.16E-03,2.71E-03
152649,4.91E-03,1.33E-03
152650,5.07E-03,1.30E-03
152651,4.95E-03,1.31E-03
152652,5.83E-03,2.89E-03
152653,5.75E-03,2.86E-03
152654,5.54E-03,2.90E-03
152655,7.62E-03,1.69E-03
152656,6.78E-03,1.67E-03
152657,5.22E-03,2.63E-03
152658,4.56E-03,2.62E-03
152659,4.69E-03,2.60E-03
152660,5.96E-03,1.01E-03
152661,5.18E-03,9.85E-04
152662,4.61E-03,1.15E-03
152663,4.81E-03,1.14E-03
152664,4.90E-03,1.17E-03
152665,4.46E-03,9.83E-04
152666,4.42E-03,9.62E-04
152667,4.19E-03,9.64E-04
152668,4.57E-03,3.41E-03
152669,4.30E-03,3.37E-03
152670,4.37E-03,3.42E-03
152671,3.81E-03,1.47E-03
152672,5.24E-03,1.50E-03
152673,4.76E-03,7.12E-04
152674,4.84E-03,7.24E-04
152675,4.74E-03,7.09E-04
152676,6.99E-03,2.22E-03
152677,6.91E-03,2.24E-03
152678,8.00E-03,2.27E-03
152679,4.92E-03,1.52E-03
152680,4.93E-03,1.55E-03
152681,5.56E-03,1.55E-03
152682,4.63E-03,1.89E-03
152683,4.58E-03,1.88E-03
152684,4.87E-03,1.86E-03
152685,5.33E-03,4.07E-04
152686,6.03E-03,3.93E-04
152687,6.20E-03,4.03E-04
152688,5.23E-03,7.35E-04
152689,3.66E-03,7.27E-04
152690,3.96E-03,7.54E-04
152691,5.42E-03,9.68E-04
152692,6.08E-03,9.81E-04
152693,4.29E-03,1.87E-03
152694,3.54E-03,1.87E-03
152695,4.37E-03,1.92E-03
152696,4.23E-03,1.80E-03
152697,5.06E-03,1.81E-03
152698,6.33E-03,9.94E-04
152699,6.24E-03,1.00E-03
152700,8.52E-03,2.60E-03
152701,7.57E-03,2.59E-03
152702,4.71E-03,4.52E-03
152703,4.77E-03,4.58E-03
152704,4.33E-03,6.80E-04
152705,4.55E-03,7.08E-04
152706,4.64E-03,7.38E-04
152707,5.92E-03,2.78E-03
152708,5.68E-03,2.81E-03
152709,5.66E-03,2.78E-03
152710,5.85E-03,1.99E-03
152711,5.71E-03,1.99E-03
152712,5.40E-03,2.01E-03
152713,7.47E-03,2.33E-03
152714,6.75E-03,2.38E-03
152715,5.76E-03,2.44E-03
152716,7.19E-03,2.46E-03
152717,5.07E-03,2.69E-03
152718,5.36E-03,2.67E-03
152719,5.83E-03,2.67E-03
152720,9.13E-03,1.96E-03
152721,1.04E-02,1.93E-03
152722,6.61E-03,1.99E-03
152723,9.59E-03,2.26E-03
152724,7.54E-03,2.27E-03
152725,1.10E-02,1.89E-03
152726,8.04E-03,2.37E-03
152727,8.82E-03,1.08E-03
152728,9.75E-03,1.11E-03
152729,9.44E-03,1.16E-03
152730,1.17E-02,1.84E-03
152731,6.20E-03,1.78E-03
152732,1.04E-02,1.80E-03
152733,5.05E-03,1.20E-03
152734,8.82E-03,1.23E-03
152735,8.22E-03,2.32E-03
152736,2.96E-03,1.87E-04
152737,8.24E-03,2.12E-03
152738,6.37E-03,2.07E-03
152739,8.03E-03,3.71E-04
152740,7.36E-03,1.84E-03
152741,9.08E-03,1.85E-03
152742,8.81E-03,9.73E-04
152743,8.19E-03,9.47E-04
152744,9.58E-03,8.11E-04
152745,7.78E-03,7.91E-04
152746,7.14E-03,8.64E-04
152747,8.36E-03,8.72E-04
152748,7.76E-03,8.80E-04
152749,6.23E-03,8.78E-04
152750,5.98E-03,2.11E-03
152751,6.45E-03,2.14E-03
152752,6.52E-03,2.11E-03
152753,5.91E-03,2.08E-03
152754,7.71E-03,2.08E-03
152755,6.95E-03,2.10E-03
152756,6.13E-03,2.12E-03
152757,6.36E-03,2.16E-03
152758,7.28E-03,2.14E-03
152759,6.81E-03,2.03E-03
152760,7.38E-03,2.07E-03
152761,9.04E-03,8.68E-04
152762,7.25E-03,8.70E-04
152763,6.02E-03,1.16E-03
152764,7.33E-03,2.00E-04
152765,6.59E-03,2.02E-04
152766,6.29E-03,1.47E-03
152767,6.43E-03,1.48E-03
152768,6.38E-03,1.46E-03
152769,5.00E-03,1.45E-03
152770,5.68E-03,1.22E-03
152771,6.01E-03,1.18E-03
152772,6.39E-03,1.14E-03
152773,6.32E-03,1.19E-03
152774,5.34E-03,1.27E-03
152775,4.77E-03,5.72E-04
152776,3.67E-03,5.42E-04
152777,5.11E-03,2.15E-03
152778,5.33E-03,2.12E-03
152779,5.83E-03,2.16E-03
152780,4.81E-03,9.00E-04
152781,4.45E-03,8.96E-04
152782,4.55E-03,8.88E-04
152783,2.78E-03,2.71E-04
152784,4.40E-03,1.24E-03
152785,4.11E-03,1.28E-03
152786,4.25E-03,1.27E-03
152787,5.96E-03,4.47E-04
152788,7.29E-03,1.34E-03
152789,6.40E-03,1.36E-03
152790,6.65E-03,1.39E-03
152791,6.31E-03,1.41E-03
152792,6.55E-03,1.36E-03
152793,7.13E-03,1.34E-03
152794,7.58E-03,1.32E-03
152795,8.25E-03,1.30E-03
152796,8.39E-03,1.24E-03
152797,8.39E-03,1.29E-03
152798,6.64E-03,1.38E-03
152799,6.44E-03,1.43E-03
152800,6.66E-03,1.44E-03
152801,7.21E-03,1.41E-03
152802,7.68E-03,1.46E-03
152803,7.62E-03,1.44E-03
152804,8.77E-03,1.20E-03
152805,9.26E-03,1.23E-03
152806,9.84E-03,1.26E-03
152807,8.25E-03,1.29E-03
152808,7.84E-03,1.32E-03
152809,7.82E-03,1.34E-03
152810,7.71E-03,1.36E-03
152811,9.15E-03,1.14E-03
152812,7.80E-03,1.19E-03
152813,7.03E-03,1.21E-03
152814,7.20E-03,1.24E-03
152815,7.45E-03,1.28E-03
152816,7.22E-03,1.31E-03
152817,7.06E-03,1.34E-03
152818,7.06E-03,1.38E-03
152819,7.31E-03,1.41E-03
152820,7.44E-03,1.44E-03
152821,7.70E-03,1.47E-03
152822,7.82E-03,1.48E-03
152823,9.29E-03,1.51E-03
152824,7.94E-03,1.51E-03
152825,6.98E-03,9.27E-04
152826,9.09E-03,1.43E-03
152827,9.92E-03,1.49E-03
152828,6.76E-03,1.39E-03
152829,6.14E-03,1.37E-03
152830,8.87E-03,9.46E-04
152831,8.88E-03,1.46E-03
152832,7.76E-03,1.04E-03
152833,8.67E-03,1.08E-03
152834,9.24E-03,1.11E-03
152835,9.63E-03,1.14E-03
152836,1.09E-02,1.18E-03
152837,9.58E-03,1.21E-03
152838,9.30E-03,1.24E-03
152839,8.87E-03,1.27E-03
152840,8.23E-03,1.29E-03
152841,7.86E-03,1.32E-03
152842,7.60E-03,1.34E-03
152843,7.64E-03,1.35E-03
152844,7.21E-03,1.55E-03
152845,8.93E-03,1.55E-03
152846,7.37E-03,1.76E-03
152847,8.02E-03,1.73E-03
152848,6.45E-03,9.19E-04
152849,6.25E-03,9.30E-04
152850,8.62E-03,1.01E-03
152851,8.61E-03,1.04E-03
152852,9.15E-03,1.08E-03
152853,9.10E-03,1.12E-03
152854,7.59E-03,1.14E-03
152855,7.80E-03,1.18E-03
152856,7.92E-03,1.21E-03
152857,7.53E-03,1.24E-03
152858,7.41E-03,1.28E-03
152859,7.33E-03,1.31E-03
152860,7.24E-03,1.35E-03
152861,7.33E-03,1.38E-03
152862,7.41E-03,1.42E-03
152863,7.50E-03,1.45E-03
152864,7.63E-03,1.49E-03
152865,7.60E-03,1.52E-03
152866,7.20E-03,1.55E-03
152867,5.51E-03,2.39E-03
152868,5.46E-03,2.43E-03
152869,5.60E-03,2.43E-03
152870,7.36E-03,2.35E-03
152871,8.33E-03,2.40E-03
152872,7.34E-03,1.38E-03
152873,7.42E-03,1.77E-03
152874,9.18E-03,9.48E-04
152875,6.78E-03,9.20E-04
152876,7.82E-03,1.73E-03
152877,7.82E-03,1.37E-03
152878,9.75E-03,9.70E-04
152879,7.14E-03,1.90E-03
152880,7.14E-03,1.86E-03
152881,8.03E-03,1.74E-03
152882,7.96E-03,1.78E-03
152883,7.40E-03,1.82E-03
152884,8.46E-03,8.17E-04
152885,7.74E-03,7.98E-04
152886,7.35E-03,7.80E-04
152887,7.32E-03,7.41E-04
152888,7.60E-03,7.63E-04
152889,8.08E-03,9.89E-04
152890,7.73E-03,1.07E-03
152891,8.96E-03,1.10E-03
152892,9.60E-03,1.13E-03
152893,9.87E-03,1.16E-03
152894,9.80E-03,1.19E-03
152895,9.35E-03,1.22E-03
152896,9.20E-03,1.25E-03
152897,8.55E-03,1.27E-03
152898,8.02E-03,1.29E-03
152899,7.93E-03,1.31E-03
152900,8.03E-03,1.33E-03
152901,7.75E-03,1.34E-03
152902,7.20E-03,2.37E-03
152903,7.58E-03,2.32E-03
152904,7.88E-03,9.46E-04
152905,8.51E-03,1.92E-03
152906,6.85E-03,1.59E-03
152907,8.10E-03,2.28E-03
152908,8.24E-03,2.32E-03
152909,7.34E-03,1.62E-03
152910,9.56E-03,2.24E-03
152911,8.70E-03,2.28E-03
152912,9.33E-03,1.65E-03
152913,8.04E-03,1.62E-03
152914,8.27E-03,1.59E-03
152915,1.01E-02,1.56E-03
152916,1.08E-02,1.52E-03
152917,9.76E-03,1.49E-03
152918,1.01E-02,1.46E-03
152919,9.68E-03,1.42E-03
152920,8.36E-03,1.39E-03
152921,8.18E-03,1.36E-03
152922,7.75E-03,1.71E-03
152923,8.51E-03,1.76E-03
152924,7.78E-03,1.70E-03
152925,9.14E-03,2.36E-03
152926,8.67E-03,2.32E-03
152927,8.31E-03,2.20E-03
152928,8.17E-03,2.24E-03
152929,6.65E-03,2.17E-03
152930,6.36E-03,2.08E-03
152931,6.01E-03,1.98E-03
152932,5.83E-03,2.04E-03
152933,8.05E-03,1.99E-03
152934,8.60E-03,1.96E-03
152935,7.32E-03,1.93E-03
152936,6.55E-03,1.90E-03
152937,6.18E-03,1.87E-03
152938,6.22E-03,1.83E-03
152939,6.95E-03,1.80E-03
152940,9.02E-03,1.77E-03
152941,9.11E-03,1.73E-03
152942,7.31E-03,1.71E-03
152943,6.93E-03,1.67E-03
152944,8.90E-03,2.47E-03
152945,7.37E-03,2.47E-03
152946,7.30E-03,2.46E-03
152947,8.54E-03,2.44E-03
152948,9.23E-03,8.51E-04
152949,8.17E-03,8.66E-04
152950,7.79E-03,8.87E-04
152951,7.36E-03,9.10E-04
152952,7.45E-03,9.28E-04
152953,7.84E-03,9.49E-04
152954,8.29E-03,9.77E-04
152955,8.45E-03,1.01E-03
152956,8.50E-03,1.04E-03
152957,8.56E-03,1.08E-03
152958,8.33E-03,1.11E-03
152959,8.04E-03,1.14E-03
152960,7.91E-03,1.18E-03
152961,7.92E-03,1.21E-03
152962,7.82E-03,1.24E-03
152963,7.63E-03,1.28E-03
152964,7.52E-03,1.31E-03
152965,7.55E-03,1.35E-03
152966,7.56E-03,1.38E-03
152967,7.60E-03,1.42E-03
152968,7.63E-03,1.45E-03
152969,7.64E-03,1.49E-03
152970,7.66E-03,1.52E-03
152971,7.52E-03,1.56E-03
152972,7.46E-03,1.59E-03
152973,7.82E-03,1.63E-03
152974,8.79E-03,1.67E-03
152975,7.33E-03,1.71E-03
152976,8.11E-03,8.37E-04
152977,9.37E-03,1.70E-03
152978,9.33E-03,1.72E-03
152979,7.94E-03,2.29E-03
152980,7.93E-03,2.34E-03
152981,8.17E-03,9.67E-04
152982,4.87E-03,1.98E-03
152983,6.11E-03,2.00E-03
152984,6.91E-03,2.03E-03
152985,7.74E-03,1.88E-03
152986,8.17E-03,1.79E-03
152987,7.81E-03,1.83E-03
152988,6.03E-03,1.65E-03
152989,7.26E-03,1.67E-03
152990,8.24E-03,2.25E-03
152991,9.11E-03,2.20E-03
152992,7.14E-03,2.16E-03
152993,5.79E-03,2.11E-03
152994,8.22E-03,1.06E-03
152995,8.75E-03,1.09E-03
152996,9.13E-03,1.12E-03
152997,9.82E-03,1.15E-03
152998,9.76E-03,1.18E-03
152999,9.26E-03,1.21E-03
153000,9.23E-03,1.23E-03
153001,8.71E-03,1.25E-03
153002,8.02E-03,1.27E-03
153003,8.03E-03,1.29E-03
153004,7.97E-03,1.30E-03
153005,7.57E-03,1.32E-03
153006,8.00E-03,1.33E-03
153007,8.42E-03,1.94E-03
153008,7.83E-03,1.69E-03
153009,8.06E-03,2.27E-03
153010,7.52E-03,2.20E-03
153011,7.11E-03,2.17E-03
153012,6.92E-03,2.14E-03
153013,6.89E-03,2.10E-03
153014,7.33E-03,2.06E-03
153015,7.64E-03,2.02E-03
153016,7.69E-03,1.99E-03
153017,7.40E-03,1.96E-03
153018,7.02E-03,1.92E-03
153019,6.82E-03,1.89E-03
153020,6.96E-03,1.85E-03
153021,7.27E-03,1.82E-03
153022,7.97E-03,1.79E-03
153023,8.15E-03,1.76E-03
153024,8.03E-03,1.73E-03
153025,6.81E-03,1.64E-03
153026,8.38E-03,1.70E-03
153027,8.21E-03,1.62E-03
153028,8.18E-03,1.66E-03
153029,5.83E-03,1.60E-03
153030,6.86E-03,1.62E-03
153031,1.07E-02,2.40E-03
153032,8.36E-03,2.35E-03
153033,8.93E-03,2.52E-03
153034,8.27E-03,2.51E-03
153035,8.07E-03,2.50E-03
153036,7.59E-03,2.49E-03
153037,8.09E-03,2.47E-03
153038,6.57E-03,2.42E-03
153039,6.27E-03,2.45E-03
153040,7.76E-03,2.41E-03
153041,9.06E-03,2.46E-03
153042,7.06E-03,9.44E-04
153043,8.26E-03,1.02E-03
153044,7.81E-03,6.76E-04
153045,9.14E-03,6.99E-04
153046,7.23E-03,7.24E-04
153047,6.66E-03,7.35E-04
153048,8.35E-03,7.54E-04
153049,7.50E-03,7.71E-04
153050,9.62E-03,8.38E-04
153051,8.51E-03,8.58E-04
153052,8.10E-03,8.79E-04
153053,7.81E-03,9.02E-04
153054,7.79E-03,9.25E-04
153055,7.95E-03,9.51E-04
153056,8.11E-03,9.79E-04
153057,8.27E-03,1.01E-03
153058,8.33E-03,1.04E-03
153059,8.26E-03,1.07E-03
153060,8.06E-03,1.11E-03
153061,8.06E-03,1.14E-03
153062,8.06E-03,1.18E-03
153063,7.99E-03,1.21E-03
153064,7.88E-03,1.24E-03
153065,7.87E-03,1.28E-03
153066,7.85E-03,1.31E-03
153067,7.81E-03,1.35E-03
153068,7.86E-03,1.39E-03
153069,7.91E-03,1.42E-03
153070,7.96E-03,1.46E-03
153071,7.83E-03,1.49E-03
153072,7.79E-03,1.53E-03
153073,7.68E-03,1.56E-03
153074,7.71E-03,1.60E-03
153075,7.92E-03,1.63E-03
153076,7.58E-03,1.67E-03
153077,6.08E-03,1.71E-03
153078,6.37E-03,1.73E-03
153079,1.02E-02,1.75E-03
153080,1.05E-02,1.72E-03
153081,1.05E-02,1.69E-03
153082,9.18E-03,1.65E-03
153083,9.17E-03,1.61E-03
153084,9.54E-03,1.58E-03
153085,9.85E-03,1.54E-03
153086,9.93E-03,1.51E-03
153087,9.48E-03,1.47E-03
153088,9.10E-03,1.44E-03
153089,8.81E-03,1.41E-03
153090,8.54E-03,1.37E-03
153091,8.23E-03,1.34E-03
153092,6.98E-03,8.49E-04
153093,8.32E-03,8.52E-04
153094,7.39E-03,8.27E-04
153095,7.87E-03,8.06E-04
153096,7.85E-03,7.86E-04
153097,8.07E-03,7.65E-04
153098,9.39E-03,7.42E-04
153099,9.57E-03,7.12E-04
153100,8.15E-03,6.89E-04
153101,8.91E-03,6.60E-04
153102,9.04E-03,6.37E-04
153103,8.29E-03,6.13E-04
153104,7.88E-03,5.89E-04
153105,7.55E-03,5.65E-04
153106,6.86E-03,5.42E-04
153107,5.58E-03,5.15E-04
153108,6.16E-03,4.99E-04
153109,8.15E-03,4.74E-04
153110,7.14E-03,4.49E-04
153111,6.00E-03,2.07E-03
153112,6.90E-03,1.95E-03
153113,6.96E-03,1.96E-03
153114,7.92E-03,1.89E-03
153115,8.09E-03,1.68E-03
153116,7.60E-03,2.23E-03
153117,7.33E-03,2.20E-03
153118,7.22E-03,2.16E-03
153119,7.30E-03,2.12E-03
153120,7.44E-03,2.09E-03
153121,7.58E-03,2.05E-03
153122,7.68E-03,2.02E-03
153123,7.60E-03,1.98E-03
153124,7.44E-03,1.95E-03
153125,7.29E-03,1.91E-03
153126,7.56E-03,1.87E-03
153127,7.75E-03,1.84E-03
153128,7.81E-03,1.81E-03
153129,8.02E-03,1.78E-03
153130,8.19E-03,1.75E-03
153131,8.14E-03,1.72E-03
153132,8.17E-03,1.68E-03
153133,6.55E-03,1.59E-03
153134,9.03E-03,1.64E-03
153135,8.42E-03,1.57E-03
153136,8.74E-03,1.61E-03
153137,7.34E-03,1.55E-03
153138,7.68E-03,1.58E-03
153139,6.60E-03,1.53E-03
153140,7.06E-03,1.55E-03
153141,8.09E-03,2.30E-03
153142,8.10E-03,2.37E-03
153143,6.05E-03,2.43E-03
153144,9.01E-03,2.61E-03
153145,9.18E-03,2.59E-03
153146,9.00E-03,2.57E-03
153147,8.59E-03,2.56E-03
153148,8.26E-03,2.54E-03
153149,8.19E-03,2.53E-03
153150,8.15E-03,2.51E-03
153151,8.15E-03,2.49E-03
153152,8.63E-03,2.63E-03
153153,7.87E-03,2.65E-03
153154,7.92E-03,2.61E-03
153155,6.95E-03,2.68E-03
153156,7.35E-03,2.63E-03
153157,1.01E-02,2.50E-03
153158,7.92E-03,2.42E-03
153159,8.28E-03,2.31E-03
153160,7.70E-03,2.18E-03
153161,8.19E-03,2.22E-03
153162,8.31E-03,1.81E-03
153163,6.70E-03,2.14E-03
153164,5.86E-03,2.10E-03
153165,3.85E-03,2.06E-03
153166,6.96E-03,2.15E-03
153167,6.21E-03,2.11E-03
153168,7.92E-03,1.85E-03
153169,8.21E-03,1.66E-03
153170,7.00E-03,1.64E-03
153171,7.05E-03,1.62E-03
153172,7.10E-03,1.61E-03
153173,7.01E-03,1.59E-03
153174,7.24E-03,1.57E-03
153175,7.09E-03,1.56E-03
153176,7.19E-03,1.54E-03
153177,7.13E-03,1.52E-03
153178,6.55E-03,1.49E-03
153179,5.46E-03,1.47E-03
153180,8.22E-03,2.27E-03
153181,8.35E-03,2.00E-03
153182,8.83E-03,2.03E-03
153183,6.42E-03,2.04E-03
153184,4.12E-03,2.05E-03
153185,5.72E-03,2.08E-03
153186,7.19E-03,1.65E-03
153187,7.32E-03,1.66E-03
153188,5.29E-03,2.12E-03
153189,5.22E-03,2.08E-03
153190,5.92E-03,2.07E-03
153191,7.91E-03,1.91E-03
153192,7.98E-03,1.93E-03
153193,7.13E-03,1.64E-03
153194,7.81E-03,2.26E-03
153195,7.55E-03,2.22E-03
153196,7.50E-03,2.18E-03
153197,7.57E-03,2.15E-03
153198,7.61E-03,2.11E-03
153199,7.69E-03,2.08E-03
153200,7.75E-03,2.04E-03
153201,7.76E-03,2.01E-03
153202,7.72E-03,1.97E-03
153203,7.81E-03,1.94E-03
153204,7.89E-03,1.90E-03
153205,7.90E-03,1.87E-03
153206,7.90E-03,1.84E-03
153207,8.05E-03,1.81E-03
153208,8.13E-03,1.77E-03
153209,8.13E-03,1.74E-03
153210,8.26E-03,1.71E-03
153211,8.29E-03,1.67E-03
153212,8.14E-03,1.64E-03
153213,7.81E-03,1.61E-03
153214,7.59E-03,1.58E-03
153215,7.81E-03,1.54E-03
153216,8.02E-03,1.51E-03
153217,7.88E-03,1.48E-03
153218,8.04E-03,1.42E-03
153219,7.73E-03,1.44E-03
153220,7.07E-03,1.39E-03
153221,7.34E-03,1.42E-03
153222,6.21E-03,1.36E-03
153223,6.46E-03,1.33E-03
153224,6.79E-03,1.39E-03
153225,6.70E-03,1.35E-03
153226,8.12E-03,2.33E-03
153227,8.31E-03,2.40E-03
153228,8.21E-03,2.46E-03
153229,8.61E-03,2.53E-03
153230,7.98E-03,2.56E-03
153231,7.70E-03,2.59E-03
153232,7.52E-03,2.63E-03
153233,8.08E-03,2.68E-03
153234,8.26E-03,2.72E-03
153235,8.39E-03,2.77E-03
153236,7.97E-03,2.75E-03
153237,7.21E-03,2.74E-03
153238,7.29E-03,2.72E-03
153239,7.84E-03,2.70E-03
153240,8.28E-03,2.68E-03
153241,8.52E-03,2.66E-03
153242,8.77E-03,2.64E-03
153243,8.71E-03,2.62E-03
153244,8.57E-03,2.60E-03
153245,8.45E-03,2.59E-03
153246,8.52E-03,2.57E-03
153247,8.82E-03,2.55E-03
153248,1.02E-02,2.53E-03
153249,7.32E-03,2.73E-03
153250,9.11E-03,2.79E-03
153251,6.49E-03,2.67E-03
153252,8.08E-03,2.46E-03
153253,8.50E-03,2.27E-03
153254,7.92E-03,2.19E-03
153255,8.48E-03,2.28E-03
153256,7.34E-03,2.63E-03
153257,8.22E-03,2.59E-03
153258,8.05E-03,2.55E-03
153259,8.15E-03,2.52E-03
153260,8.17E-03,2.49E-03
153261,8.69E-03,2.23E-03
153262,7.94E-03,1.62E-03
153263,7.45E-03,1.61E-03
153264,7.29E-03,1.59E-03
153265,7.17E-03,1.57E-03
153266,7.15E-03,1.55E-03
153267,7.16E-03,1.54E-03
153268,7.21E-03,1.52E-03
153269,7.15E-03,1.50E-03
153270,7.04E-03,1.48E-03
153271,6.84E-03,1.46E-03
153272,6.88E-03,1.44E-03
153273,8.28E-03,1.43E-03
153274,9.00E-03,1.41E-03
153275,7.99E-03,1.38E-03
153276,7.22E-03,1.36E-03
153277,6.54E-03,2.05E-03
153278,8.18E-03,1.95E-03
153279,8.07E-03,1.98E-03
153280,8.03E-03,2.00E-03
153281,5.80E-03,2.03E-03
153282,7.57E-03,1.81E-03
153283,9.23E-03,1.77E-03
153284,7.79E-03,1.74E-03
153285,7.34E-03,1.71E-03
153286,7.47E-03,1.67E-03
153287,7.68E-03,1.64E-03
153288,7.74E-03,1.60E-03
153289,7.78E-03,1.57E-03
153290,7.83E-03,1.53E-03
153291,7.90E-03,1.50E-03
153292,8.06E-03,1.46E-03
153293,8.06E-03,1.42E-03
153294,8.06E-03,1.39E-03
153295,8.06E-03,1.35E-03
153296,8.06E-03,1.32E-03
153297,8.06E-03,1.28E-03
153298,8.06E-03,1.24E-03
153299,8.06E-03,1.21E-03
153300,8.06E-03,1.18E-03
153301,8.06E-03,1.14E-03
153302,8.06E-03,1.11E-03
153303,8.12E-03,1.07E-03
153304,8.13E-03,1.04E-03
153305,8.12E-03,1.01E-03
153306,8.07E-03,9.78E-04
153307,8.02E-03,9.50E-04
153308,7.99E-03,9.22E-04
153309,8.05E-03,8.96E-04
153310,8.26E-03,8.72E-04
153311,8.59E-03,8.49E-04
153312,8.75E-03,8.27E-04
153313,8.70E-03,8.03E-04
153314,8.26E-03,7.83E-04
153315,8.06E-03,7.62E-04
153316,7.87E-03,7.42E-04
153317,7.73E-03,7.25E-04
153318,7.78E-03,7.10E-04
153319,7.87E-03,6.85E-04
153320,7.47E-03,6.63E-04
153321,8.58E-03,6.47E-04
153322,8.87E-03,6.22E-04
153323,8.40E-03,6.01E-04
153324,7.95E-03,5.77E-04
153325,7.59E-03,5.54E-04
153326,7.24E-03,5.30E-04
153327,6.53E-03,5.07E-04
153328,7.36E-03,9.64E-04
153329,8.26E-03,1.05E-03
153330,8.51E-03,1.07E-03
153331,9.28E-03,1.10E-03
153332,9.94E-03,1.13E-03
153333,9.55E-03,1.16E-03
153334,9.31E-03,1.19E-03
153335,9.03E-03,1.21E-03
153336,8.84E-03,1.23E-03
153337,8.00E-03,1.25E-03
153338,7.99E-03,1.27E-03
153339,7.90E-03,1.28E-03
153340,7.62E-03,1.29E-03
153341,7.85E-03,1.30E-03
153342,8.06E-03,1.31E-03
153343,7.89E-03,1.31E-03
153344,7.21E-03,2.42E-03
153345,8.81E-03,2.14E-03
153346,9.14E-03,2.24E-03
153347,8.43E-03,1.61E-03
153348,7.04E-03,1.30E-03
153349,6.72E-03,1.28E-03
153350,8.18E-03,2.29E-03
153351,8.11E-03,2.25E-03
153352,7.97E-03,2.21E-03
153353,7.84E-03,2.17E-03
153354,7.84E-03,2.14E-03
153355,7.89E-03,2.10E-03
153356,7.92E-03,2.07E-03
153357,7.96E-03,2.03E-03
153358,8.01E-03,2.00E-03
153359,8.06E-03,1.96E-03
153360,8.06E-03,1.93E-03
153361,8.06E-03,1.90E-03
153362,8.01E-03,1.86E-03
153363,8.04E-03,1.83E-03
153364,8.07E-03,1.80E-03
153365,8.10E-03,1.77E-03
153366,8.06E-03,1.73E-03
153367,8.06E-03,1.70E-03
153368,7.97E-03,1.67E-03
153369,7.95E-03,1.63E-03
153370,7.92E-03,1.60E-03
153371,7.88E-03,1.56E-03
153372,7.91E-03,1.53E-03
153373,7.92E-03,1.50E-03
153374,7.73E-03,1.47E-03
153375,7.50E-03,1.44E-03
153376,7.45E-03,1.40E-03
153377,7.61E-03,1.37E-03
153378,8.66E-03,1.33E-03
153379,8.31E-03,1.29E-03
153380,8.31E-03,1.87E-03
153381,8.41E-03,1.89E-03
153382,8.48E-03,1.67E-03
153383,8.19E-03,2.35E-03
153384,8.45E-03,2.42E-03
153385,7.35E-03,2.87E-03
153386,7.81E-03,2.85E-03
153387,7.32E-03,2.83E-03
153388,7.28E-03,2.82E-03
153389,7.85E-03,2.80E-03
153390,7.77E-03,2.78E-03
153391,7.68E-03,2.76E-03
153392,7.87E-03,2.74E-03
153393,8.15E-03,2.72E-03
153394,8.41E-03,2.70E-03
153395,8.50E-03,2.69E-03
153396,8.48E-03,2.67E-03
153397,8.39E-03,2.65E-03
153398,8.42E-03,2.63E-03
153399,8.60E-03,2.61E-03
153400,9.00E-03,2.59E-03
153401,1.03E-02,2.57E-03
153402,8.31E-03,2.77E-03
153403,7.39E-03,2.82E-03
153404,7.81E-03,8.35E-04
153405,7.64E-03,8.15E-04
153406,7.91E-03,7.94E-04
153407,8.45E-03,7.72E-04
153408,8.68E-03,7.51E-04
153409,8.80E-03,7.25E-04
153410,8.99E-03,6.98E-04
153411,8.27E-03,6.72E-04
153412,8.34E-03,6.49E-04
153413,8.14E-03,6.25E-04
153414,7.81E-03,6.00E-04
153415,7.41E-03,5.75E-04
153416,6.88E-03,5.50E-04
153417,6.44E-03,5.22E-04
153418,5.82E-03,4.98E-04
153419,6.93E-03,4.79E-04
153420,6.69E-03,4.55E-04
153421,6.69E-03,4.25E-04
153422,6.34E-03,4.32E-04
153423,6.87E-03,3.46E-04
153424,6.62E-03,3.23E-04
153425,8.58E-03,1.01E-03
153426,8.67E-03,1.82E-03
153427,1.19E-02,1.78E-03
153428,1.05E-02,1.74E-03
153429,1.01E-02,1.71E-03
153430,9.83E-03,1.67E-03
153431,9.71E-03,1.63E-03
153432,9.65E-03,1.60E-03
153433,9.66E-03,1.56E-03
153434,9.57E-03,1.53E-03
153435,9.31E-03,1.49E-03
153436,9.15E-03,1.46E-03
153437,8.92E-03,1.42E-03
153438,8.78E-03,1.39E-03
153439,8.79E-03,1.35E-03
153440,9.00E-03,1.32E-03
153441,7.75E-03,9.84E-04
153442,8.91E-03,1.76E-03
153443,6.22E-03,9.45E-04
153444,6.70E-03,2.73E-03
153445,6.44E-03,2.68E-03
153446,6.54E-03,2.62E-03
153447,7.91E-03,2.59E-03
153448,8.60E-03,2.55E-03
153449,8.46E-03,2.51E-03
153450,8.08E-03,2.48E-03
153451,7.59E-03,2.45E-03
153452,9.43E-03,2.19E-03
153453,7.75E-03,1.59E-03
153454,7.54E-03,1.57E-03
153455,7.35E-03,1.55E-03
153456,7.17E-03,1.53E-03
153457,7.18E-03,1.52E-03
153458,7.20E-03,1.50E-03
153459,7.22E-03,1.48E-03
153460,7.17E-03,1.46E-03
153461,7.11E-03,1.44E-03
153462,7.15E-03,1.42E-03
153463,7.45E-03,1.41E-03
153464,7.76E-03,1.39E-03
153465,7.91E-03,1.37E-03
153466,7.77E-03,1.35E-03
153467,7.55E-03,1.32E-03
153468,8.44E-03,1.71E-03
153469,7.00E-03,1.27E-03
153470,8.25E-03,1.27E-03
153471,8.20E-03,1.25E-03
153472,5.84E-03,1.26E-03
153473,5.79E-03,1.24E-03
153474,6.36E-03,1.23E-03
153475,1.11E-02,2.20E-03
153476,1.05E-02,2.10E-03
153477,9.17E-03,2.03E-03
153478,8.42E-03,1.91E-03
153479,8.42E-03,1.93E-03
153480,8.09E-03,1.96E-03
153481,8.82E-03,1.62E-03
153482,9.70E-03,1.62E-03
153483,8.53E-03,1.27E-03
153484,8.38E-03,1.24E-03
153485,8.24E-03,2.32E-03
153486,8.14E-03,2.28E-03
153487,8.08E-03,2.24E-03
153488,8.06E-03,2.20E-03
153489,8.06E-03,2.16E-03
153490,8.06E-03,2.13E-03
153491,8.06E-03,2.09E-03
153492,8.06E-03,2.06E-03
153493,8.06E-03,2.02E-03
153494,8.06E-03,1.99E-03
153495,8.06E-03,1.96E-03
153496,8.06E-03,1.92E-03
153497,8.06E-03,1.89E-03
153498,8.06E-03,1.85E-03
153499,8.06E-03,1.82E-03
153500,8.06E-03,1.79E-03
153501,8.06E-03,1.76E-03
153502,8.06E-03,1.72E-03
153503,8.06E-03,1.69E-03
153504,8.00E-03,1.66E-03
153505,7.96E-03,1.62E-03
153506,7.97E-03,1.59E-03
153507,8.00E-03,1.56E-03
153508,7.91E-03,1.52E-03
153509,7.83E-03,1.49E-03
153510,7.72E-03,1.46E-03
153511,7.68E-03,1.42E-03
153512,7.89E-03,1.39E-03
153513,7.94E-03,1.35E-03
153514,7.70E-03,1.32E-03
153515,7.39E-03,1.28E-03
153516,8.01E-03,1.25E-03
153517,8.26E-03,2.38E-03
153518,8.79E-03,2.44E-03
153519,7.35E-03,2.93E-03
153520,7.51E-03,2.92E-03
153521,7.65E-03,2.90E-03
153522,7.97E-03,2.88E-03
153523,7.75E-03,2.86E-03
153524,7.80E-03,2.84E-03
153525,7.83E-03,2.82E-03
153526,7.88E-03,2.81E-03
153527,7.94E-03,2.79E-03
153528,8.13E-03,2.77E-03
153529,8.24E-03,2.75E-03
153530,8.28E-03,2.73E-03
153531,8.30E-03,2.71E-03
153532,8.27E-03,2.69E-03
153533,8.36E-03,2.67E-03
153534,8.50E-03,2.65E-03
153535,8.69E-03,2.63E-03
153536,8.66E-03,2.62E-03
153537,8.02E-03,2.61E-03
153538,7.52E-03,2.56E-03
153539,6.76E-03,2.60E-03
153540,8.21E-03,2.94E-03
153541,8.71E-03,1.82E-03
153542,8.83E-03,1.84E-03
153543,7.74E-03,2.60E-03
153544,6.77E-03,2.66E-03
153545,6.93E-03,2.70E-03
153546,7.08E-03,2.74E-03
153547,6.92E-03,2.78E-03
153548,6.81E-03,2.83E-03
153549,7.19E-03,2.88E-03
153550,1.01E-02,2.15E-03
153551,8.66E-03,1.92E-03
153552,8.91E-03,1.89E-03
153553,8.84E-03,1.87E-03
153554,6.62E-03,2.64E-03
153555,7.48E-03,2.65E-03
153556,8.04E-03,2.66E-03
153557,8.30E-03,2.68E-03
153558,8.32E-03,2.70E-03
153559,8.26E-03,2.72E-03
153560,8.15E-03,2.74E-03
153561,8.10E-03,2.76E-03
153562,8.12E-03,2.78E-03
153563,8.15E-03,2.80E-03
153564,8.16E-03,2.81E-03
153565,8.06E-03,2.83E-03
153566,7.99E-03,2.85E-03
153567,7.93E-03,2.87E-03
153568,7.88E-03,2.89E-03
153569,7.86E-03,2.91E-03
153570,7.81E-03,2.93E-03
153571,7.82E-03,2.95E-03
153572,7.78E-03,2.96E-03
153573,7.94E-03,2.98E-03
153574,8.40E-03,2.93E-03
153575,8.91E-03,3.00E-03
153576,8.05E-03,2.98E-03
153577,7.80E-03,3.03E-03
153578,7.60E-03,1.24E-03
153579,7.63E-03,1.23E-03
153580,7.49E-03,1.22E-03
153581,7.41E-03,1.21E-03
153582,8.17E-03,1.20E-03
153583,9.64E-03,1.19E-03
153584,8.00E-03,1.17E-03
153585,5.60E-03,1.15E-03
153586,8.28E-03,2.34E-03
153587,8.25E-03,2.30E-03
153588,8.06E-03,2.26E-03
153589,8.06E-03,2.23E-03
153590,8.06E-03,2.19E-03
153591,8.06E-03,2.15E-03
153592,8.06E-03,2.12E-03
153593,8.06E-03,2.08E-03
153594,8.06E-03,2.05E-03
153595,8.06E-03,2.01E-03
153596,8.06E-03,1.98E-03
153597,8.06E-03,1.95E-03
153598,8.06E-03,1.91E-03
153599,8.06E-03,1.88E-03
153600,8.06E-03,1.85E-03
153601,8.06E-03,1.81E-03
153602,8.06E-03,1.78E-03
153603,8.06E-03,1.75E-03
153604,8.06E-03,1.71E-03
153605,8.06E-03,1.68E-03
153606,8.06E-03,1.65E-03
153607,8.06E-03,1.61E-03
153608,8.06E-03,1.58E-03
153609,8.00E-03,1.54E-03
153610,7.90E-03,1.51E-03
153611,7.84E-03,1.48E-03
153612,7.84E-03,1.44E-03
153613,7.90E-03,1.41E-03
153614,7.93E-03,1.38E-03
153615,7.79E-03,1.34E-03
153616,7.87E-03,1.31E-03
153617,7.34E-03,1.28E-03
153618,8.51E-03,1.23E-03
153619,8.05E-03,1.20E-03
153620,5.79E-03,1.17E-03
153621,5.68E-03,1.15E-03
153622,8.48E-03,2.40E-03
153623,8.90E-03,2.46E-03
153624,8.35E-03,2.52E-03
153625,6.74E-03,2.57E-03
153626,7.68E-03,2.40E-03
153627,7.99E-03,2.43E-03
153628,8.57E-03,2.47E-03
153629,8.68E-03,2.50E-03
153630,7.03E-03,2.58E-03
153631,6.48E-03,2.63E-03
153632,6.63E-03,2.67E-03
153633,6.90E-03,2.71E-03
153634,6.70E-03,2.75E-03
153635,7.28E-03,2.80E-03
153636,7.59E-03,2.86E-03
153637,7.62E-03,2.90E-03
153638,7.27E-03,2.94E-03
153639,8.75E-03,1.78E-03
153640,9.21E-03,1.80E-03
153641,9.42E-03,1.63E-03
153642,8.10E-03,1.65E-03
153643,7.74E-03,1.29E-03
153644,7.71E-03,1.31E-03
153645,7.75E-03,1.33E-03
153646,7.60E-03,1.35E-03
153647,7.55E-03,1.37E-03
153648,7.29E-03,1.39E-03
153649,7.23E-03,1.41E-03
153650,7.27E-03,1.43E-03
153651,7.25E-03,1.44E-03
153652,7.23E-03,1.46E-03
153653,7.22E-03,1.48E-03
153654,7.20E-03,1.50E-03
153655,7.39E-03,1.52E-03
153656,7.48E-03,1.53E-03
153657,7.65E-03,1.55E-03
153658,8.26E-03,1.56E-03
153659,8.38E-03,1.58E-03
153660,8.53E-03,1.58E-03
153661,8.06E-03,1.20E-03
153662,7.92E-03,1.23E-03
153663,7.29E-03,1.19E-03
153664,1.05E-02,2.11E-03
153665,1.11E-02,2.06E-03
153666,1.07E-02,2.01E-03
153667,9.82E-03,1.88E-03
153668,9.64E-03,1.85E-03
153669,9.34E-03,1.82E-03
153670,7.48E-03,1.20E-03
153671,7.47E-03,1.19E-03
153672,7.45E-03,1.18E-03
153673,7.93E-03,1.17E-03
153674,8.26E-03,1.16E-03
153675,8.19E-03,1.15E-03
153676,7.88E-03,1.14E-03
153677,7.50E-03,1.12E-03
153678,6.94E-03,2.22E-03
153679,8.48E-03,2.16E-03
153680,8.59E-03,1.74E-03
153681,9.44E-03,1.76E-03
153682,7.90E-03,1.67E-03
153683,8.03E-03,1.61E-03
153684,7.63E-03,1.26E-03
153685,7.58E-03,1.27E-03
153686,7.63E-03,1.29E-03
153687,7.54E-03,1.31E-03
153688,7.50E-03,1.33E-03
153689,7.34E-03,1.35E-03
153690,7.32E-03,1.37E-03
153691,7.30E-03,1.39E-03
153692,7.29E-03,1.41E-03
153693,7.27E-03,1.42E-03
153694,7.26E-03,1.44E-03
153695,7.24E-03,1.46E-03
153696,7.31E-03,1.48E-03
153697,7.39E-03,1.50E-03
153698,7.38E-03,1.51E-03
153699,7.15E-03,1.52E-03
153700,6.62E-03,1.54E-03
153701,6.54E-03,1.20E-03
153702,5.63E-03,1.16E-03
153703,6.45E-03,1.16E-03
153704,8.34E-03,2.36E-03
153705,8.27E-03,2.32E-03
153706,8.06E-03,2.29E-03
153707,8.06E-03,2.25E-03
153708,8.06E-03,2.21E-03
153709,8.06E-03,2.18E-03
153710,8.06E-03,2.14E-03
153711,8.06E-03,2.11E-03
153712,8.06E-03,2.07E-03
153713,8.06E-03,2.04E-03
153714,8.06E-03,2.00E-03
153715,8.06E-03,1.97E-03
153716,8.06E-03,1.94E-03
153717,8.06E-03,1.90E-03
153718,8.06E-03,1.87E-03
153719,8.06E-03,1.84E-03
153720,8.06E-03,1.80E-03
153721,8.06E-03,1.77E-03
153722,8.06E-03,1.74E-03
153723,8.06E-03,1.70E-03
153724,8.06E-03,1.67E-03
153725,8.06E-03,1.63E-03
153726,8.06E-03,1.60E-03
153727,8.06E-03,1.57E-03
153728,8.06E-03,1.53E-03
153729,8.06E-03,1.50E-03
153730,8.06E-03,1.47E-03
153731,8.06E-03,1.43E-03
153732,7.97E-03,1.40E-03
153733,7.95E-03,1.36E-03
153734,7.91E-03,1.33E-03
153735,8.00E-03,1.29E-03
153736,7.87E-03,1.26E-03
153737,7.56E-03,1.23E-03
153738,7.23E-03,1.19E-03
153739,7.73E-03,1.16E-03
153740,9.09E-03,1.13E-03
153741,9.37E-03,1.09E-03
153742,8.58E-03,2.42E-03
153743,8.55E-03,2.48E-03
153744,7.62E-03,2.54E-03
153745,6.52E-03,2.59E-03
153746,6.80E-03,3.00E-03
153747,6.61E-03,3.06E-03
153748,7.36E-03,3.08E-03
153749,7.94E-03,3.06E-03
153750,8.01E-03,3.03E-03
153751,7.89E-03,3.01E-03
153752,7.89E-03,3.00E-03
153753,7.94E-03,2.98E-03
153754,7.98E-03,2.96E-03
153755,8.03E-03,2.94E-03
153756,8.07E-03,2.92E-03
153757,8.14E-03,2.90E-03
153758,8.18E-03,2.88E-03
153759,8.16E-03,2.86E-03
153760,8.14E-03,2.84E-03
153761,8.11E-03,2.82E-03
153762,8.10E-03,2.80E-03
153763,8.08E-03,2.78E-03
153764,8.16E-03,2.76E-03
153765,8.14E-03,2.74E-03
153766,8.02E-03,2.72E-03
153767,7.75E-03,2.70E-03
153768,7.35E-03,2.69E-03
153769,6.83E-03,2.67E-03
153770,6.45E-03,2.66E-03
153771,7.10E-03,2.64E-03
153772,7.21E-03,3.11E-03
153773,8.23E-03,2.35E-03
153774,8.01E-03,2.39E-03
153775,8.36E-03,2.43E-03
153776,8.62E-03,2.46E-03
153777,5.23E-03,2.56E-03
153778,5.90E-03,2.60E-03
153779,6.47E-03,2.64E-03
153780,6.77E-03,2.69E-03
153781,7.01E-03,2.73E-03
153782,7.75E-03,2.77E-03
153783,7.78E-03,2.82E-03
153784,7.68E-03,2.87E-03
153785,7.52E-03,2.92E-03
153786,7.42E-03,2.98E-03
153787,7.71E-03,3.04E-03
153788,6.89E-03,1.49E-03
153789,7.10E-03,1.47E-03
153790,7.21E-03,1.46E-03
153791,7.25E-03,1.44E-03
153792,7.28E-03,1.42E-03
153793,7.29E-03,1.40E-03
153794,7.31E-03,1.39E-03
153795,7.32E-03,1.37E-03
153796,7.34E-03,1.35E-03
153797,7.36E-03,1.33E-03
153798,7.38E-03,1.31E-03
153799,7.47E-03,1.30E-03
153800,7.55E-03,1.28E-03
153801,7.62E-03,1.26E-03
153802,7.53E-03,1.24E-03
153803,7.50E-03,1.22E-03
153804,7.07E-03,1.16E-03
153805,7.54E-03,1.15E-03
153806,7.82E-03,1.14E-03
153807,8.09E-03,1.13E-03
153808,8.08E-03,1.12E-03
153809,8.06E-03,1.11E-03
153810,8.02E-03,1.10E-03
153811,8.18E-03,1.09E-03
153812,1.05E-02,2.07E-03
153813,1.05E-02,2.02E-03
153814,1.07E-02,1.98E-03
153815,7.24E-03,1.04E-03
153816,7.72E-03,2.31E-03
153817,7.93E-03,2.35E-03
153818,7.99E-03,2.38E-03
153819,8.66E-03,2.42E-03
153820,8.42E-03,2.45E-03
153821,4.87E-03,2.54E-03
153822,5.38E-03,2.57E-03
153823,6.18E-03,2.61E-03
153824,6.89E-03,2.65E-03
153825,7.26E-03,2.70E-03
153826,7.55E-03,2.74E-03
153827,7.81E-03,2.79E-03
153828,7.75E-03,2.84E-03
153829,7.65E-03,2.89E-03
153830,7.81E-03,2.95E-03
153831,8.06E-03,3.01E-03
153832,8.35E-03,3.10E-03
153833,8.68E-03,3.07E-03
153834,1.02E-02,3.13E-03
153835,8.38E-03,2.38E-03
153836,8.24E-03,2.35E-03
153837,8.06E-03,2.31E-03
153838,8.06E-03,2.27E-03
153839,8.06E-03,2.24E-03
153840,8.06E-03,2.20E-03
153841,8.06E-03,2.17E-03
153842,8.06E-03,2.13E-03
153843,8.06E-03,2.10E-03
153844,8.06E-03,2.06E-03
153845,8.06E-03,2.03E-03
153846,8.06E-03,1.99E-03
153847,8.06E-03,1.96E-03
153848,8.06E-03,1.92E-03
153849,8.06E-03,1.89E-03
153850,8.06E-03,1.86E-03
153851,8.06E-03,1.82E-03
153852,8.06E-03,1.79E-03
153853,8.06E-03,1.76E-03
153854,8.06E-03,1.72E-03
153855,8.06E-03,1.69E-03
153856,8.06E-03,1.66E-03
153857,8.06E-03,1.62E-03
153858,8.06E-03,1.59E-03
153859,8.06E-03,1.55E-03
153860,8.06E-03,1.52E-03
153861,8.06E-03,1.49E-03
153862,8.06E-03,1.45E-03
153863,8.06E-03,1.42E-03
153864,8.00E-03,1.38E-03
153865,7.98E-03,1.35E-03
153866,7.98E-03,1.31E-03
153867,7.85E-03,1.28E-03
153868,7.77E-03,1.25E-03
153869,7.78E-03,1.21E-03
153870,8.10E-03,1.18E-03
153871,7.83E-03,1.15E-03
153872,8.20E-03,1.11E-03
153873,7.92E-03,1.06E-03
153874,8.10E-03,1.08E-03
153875,7.68E-03,1.03E-03
153876,8.41E-03,1.05E-03
153877,7.04E-03,1.01E-03
153878,8.40E-03,2.44E-03
153879,8.09E-03,2.50E-03
153880,7.45E-03,2.55E-03
153881,7.62E-03,2.61E-03
153882,8.32E-03,3.17E-03
153883,7.66E-03,3.15E-03
153884,7.52E-03,3.14E-03
153885,7.66E-03,3.13E-03
153886,7.88E-03,3.11E-03
153887,7.93E-03,3.09E-03
153888,7.97E-03,3.07E-03
153889,8.00E-03,3.05E-03
153890,8.06E-03,3.03E-03
153891,8.15E-03,3.01E-03
153892,8.23E-03,2.99E-03
153893,8.21E-03,2.97E-03
153894,8.19E-03,2.95E-03
153895,8.17E-03,2.93E-03
153896,8.15E-03,2.91E-03
153897,8.14E-03,2.88E-03
153898,8.11E-03,2.86E-03
153899,8.10E-03,2.84E-03
153900,8.08E-03,2.82E-03
153901,8.08E-03,2.80E-03
153902,8.02E-03,2.78E-03
153903,7.86E-03,2.76E-03
153904,7.71E-03,2.74E-03
153905,7.41E-03,2.73E-03
153906,7.19E-03,2.71E-03
153907,7.04E-03,2.69E-03
153908,7.36E-03,2.67E-03
153909,7.03E-03,3.23E-03
153910,4.74E-03,3.25E-03
153911,6.51E-03,2.25E-03
153912,7.51E-03,2.18E-03
153913,7.93E-03,2.11E-03
153914,8.03E-03,2.08E-03
153915,9.69E-03,1.78E-03
153916,7.96E-03,1.70E-03
153917,8.48E-03,1.72E-03
153918,7.64E-03,1.63E-03
153919,6.21E-03,1.49E-03
153920,6.57E-03,1.52E-03
153921,7.22E-03,1.55E-03
153922,7.20E-03,1.57E-03
153923,6.47E-03,1.16E-03
153924,4.57E-03,1.13E-03
153925,6.41E-03,1.12E-03
153926,4.79E-03,1.14E-03
153927,6.73E-03,1.45E-03
153928,7.01E-03,1.43E-03
153929,7.14E-03,1.42E-03
153930,7.29E-03,1.40E-03
153931,7.31E-03,1.38E-03
153932,7.33E-03,1.37E-03
153933,7.34E-03,1.35E-03
153934,7.36E-03,1.33E-03
153935,7.37E-03,1.31E-03
153936,7.39E-03,1.30E-03
153937,7.41E-03,1.28E-03
153938,7.43E-03,1.26E-03
153939,7.53E-03,1.24E-03
153940,7.55E-03,1.22E-03
153941,7.53E-03,1.20E-03
153942,7.09E-03,1.18E-03
153943,8.08E-03,2.39E-03
153944,8.32E-03,2.36E-03
153945,7.98E-03,2.33E-03
153946,7.43E-03,2.30E-03
153947,6.45E-03,2.27E-03
153948,1.01E-02,2.04E-03
153949,1.08E-02,1.99E-03
153950,1.10E-02,1.94E-03
153951,8.32E-03,1.75E-03
153952,7.24E-03,1.12E-03
153953,7.72E-03,1.11E-03
153954,7.84E-03,1.10E-03
153955,7.94E-03,1.09E-03
153956,8.11E-03,1.08E-03
153957,8.09E-03,1.07E-03
153958,8.13E-03,1.06E-03
153959,8.34E-03,1.05E-03
153960,8.25E-03,1.04E-03
153961,7.44E-03,1.03E-03
153962,6.56E-03,1.01E-03
153963,6.58E-03,9.80E-04
153964,6.23E-03,9.74E-04
153965,6.98E-03,1.60E-03
153966,6.07E-03,1.51E-03
153967,6.23E-03,1.54E-03
153968,5.95E-03,1.48E-03
153969,7.31E-03,1.11E-03
153970,6.89E-03,1.12E-03
153971,5.59E-03,1.11E-03
153972,8.31E-03,2.41E-03
153973,8.21E-03,2.37E-03
153974,8.06E-03,2.33E-03
153975,8.06E-03,2.30E-03
153976,8.06E-03,2.26E-03
153977,8.06E-03,2.22E-03
153978,8.06E-03,2.19E-03
153979,8.06E-03,2.15E-03
153980,8.06E-03,2.12E-03
153981,8.06E-03,2.08E-03
153982,8.06E-03,2.05E-03
153983,8.06E-03,2.01E-03
153984,8.06E-03,1.98E-03
153985,8.06E-03,1.95E-03
153986,8.06E-03,1.91E-03
153987,8.06E-03,1.88E-03
153988,8.06E-03,1.85E-03
153989,8.06E-03,1.81E-03
153990,8.06E-03,1.78E-03
153991,8.06E-03,1.74E-03
153992,8.06E-03,1.71E-03
153993,8.06E-03,1.68E-03
153994,8.06E-03,1.64E-03
153995,8.06E-03,1.61E-03
153996,8.06E-03,1.57E-03
153997,8.06E-03,1.54E-03
153998,8.06E-03,1.51E-03
153999,8.06E-03,1.47E-03
154000,8.06E-03,1.44E-03
154001,8.06E-03,1.40E-03
154002,8.06E-03,1.37E-03
154003,8.06E-03,1.34E-03
154004,7.97E-03,1.30E-03
154005,7.89E-03,1.27E-03
154006,7.90E-03,1.23E-03
154007,8.00E-03,1.20E-03
154008,7.89E-03,1.16E-03
154009,7.88E-03,1.13E-03
154010,7.93E-03,1.10E-03
154011,7.64E-03,1.07E-03
154012,7.03E-03,1.03E-03
154013,6.55E-03,9.99E-04
154014,6.69E-03,9.66E-04
154015,8.22E-03,2.46E-03
154016,7.85E-03,2.52E-03
154017,7.48E-03,2.57E-03
154018,7.30E-03,3.30E-03
154019,7.89E-03,3.28E-03
154020,8.96E-03,3.22E-03
154021,8.15E-03,3.21E-03
154022,7.93E-03,3.19E-03
154023,7.87E-03,3.17E-03
154024,7.93E-03,3.16E-03
154025,7.97E-03,3.14E-03
154026,8.05E-03,3.12E-03
154027,8.20E-03,3.10E-03
154028,8.25E-03,3.07E-03
154029,8.23E-03,3.05E-03
154030,8.22E-03,3.03E-03
154031,8.20E-03,3.01E-03
154032,8.18E-03,2.99E-03
154033,8.16E-03,2.97E-03
154034,8.15E-03,2.95E-03
154035,8.14E-03,2.93E-03
154036,8.11E-03,2.91E-03
154037,8.09E-03,2.89E-03
154038,8.08E-03,2.87E-03
154039,8.08E-03,2.84E-03
154040,8.04E-03,2.82E-03
154041,7.86E-03,2.80E-03
154042,7.75E-03,2.78E-03
154043,7.54E-03,2.76E-03
154044,7.37E-03,2.74E-03
154045,7.27E-03,2.72E-03
154046,6.58E-03,2.71E-03
154047,7.84E-03,2.63E-03
154048,4.93E-03,2.51E-03
154049,5.10E-03,2.55E-03
154050,5.81E-03,2.58E-03
154051,7.36E-03,2.62E-03
154052,7.38E-03,2.66E-03
154053,7.74E-03,2.71E-03
154054,7.95E-03,2.76E-03
154055,7.92E-03,2.81E-03
154056,8.01E-03,2.86E-03
154057,8.14E-03,2.92E-03
154058,8.31E-03,2.97E-03
154059,8.54E-03,3.03E-03
154060,8.45E-03,3.08E-03
154061,7.86E-03,3.12E-03
154062,6.71E-03,3.17E-03
154063,4.75E-03,3.21E-03
154064,4.57E-03,3.25E-03
154065,6.74E-03,3.29E-03
154066,6.59E-03,3.33E-03
154067,6.66E-03,2.21E-03
154068,7.92E-03,2.04E-03
154069,7.34E-03,1.66E-03
154070,8.24E-03,2.34E-03
154071,7.22E-03,1.68E-03
154072,6.48E-03,1.43E-03
154073,6.81E-03,1.41E-03
154074,7.02E-03,1.40E-03
154075,7.16E-03,1.38E-03
154076,7.33E-03,1.36E-03
154077,7.35E-03,1.35E-03
154078,7.36E-03,1.33E-03
154079,7.38E-03,1.31E-03
154080,7.39E-03,1.29E-03
154081,7.40E-03,1.28E-03
154082,7.42E-03,1.26E-03
154083,7.44E-03,1.24E-03
154084,7.46E-03,1.22E-03
154085,7.58E-03,1.20E-03
154086,7.53E-03,1.18E-03
154087,7.48E-03,1.16E-03
154088,7.20E-03,1.14E-03
154089,6.59E-03,2.72E-03
154090,6.94E-03,2.74E-03
154091,7.41E-03,2.76E-03
154092,7.63E-03,2.78E-03
154093,7.69E-03,2.80E-03
154094,7.84E-03,2.82E-03
154095,7.95E-03,2.84E-03
154096,8.09E-03,2.86E-03
154097,8.08E-03,2.88E-03
154098,8.08E-03,2.91E-03
154099,8.09E-03,2.93E-03
154100,8.10E-03,2.95E-03
154101,8.13E-03,2.97E-03
154102,8.14E-03,2.99E-03
154103,8.16E-03,3.02E-03
154104,8.18E-03,3.04E-03
154105,8.19E-03,3.06E-03
154106,8.21E-03,3.08E-03
154107,8.23E-03,3.10E-03
154108,8.24E-03,3.12E-03
154109,8.26E-03,3.14E-03
154110,8.22E-03,3.17E-03
154111,8.12E-03,3.19E-03
154112,8.07E-03,3.21E-03
154113,8.06E-03,3.23E-03
154114,8.24E-03,3.24E-03
154115,8.50E-03,3.26E-03
154116,8.74E-03,3.28E-03
154117,8.95E-03,3.30E-03
154118,8.90E-03,3.31E-03
154119,8.50E-03,3.33E-03
154120,8.70E-03,3.35E-03
154121,7.39E-03,3.38E-03
154122,8.09E-03,2.31E-03
154123,7.93E-03,2.28E-03
154124,7.01E-03,2.25E-03
154125,6.94E-03,2.23E-03
154126,9.59E-03,2.00E-03
154127,1.19E-02,1.89E-03
154128,1.04E-02,1.95E-03
154129,6.24E-03,1.70E-03
154130,6.17E-03,1.69E-03
154131,8.73E-03,1.76E-03
154132,5.89E-03,1.72E-03
154133,8.35E-03,1.08E-03
154134,7.83E-03,1.07E-03
154135,7.86E-03,1.06E-03
154136,7.94E-03,1.05E-03
154137,8.05E-03,1.04E-03
154138,7.99E-03,1.03E-03
154139,8.00E-03,1.02E-03
154140,7.91E-03,1.01E-03
154141,7.69E-03,1.00E-03
154142,6.74E-03,9.87E-04
154143,6.14E-03,9.71E-04
154144,5.06E-03,9.54E-04
154145,5.31E-03,9.47E-04
154146,5.31E-03,9.42E-04
154147,4.97E-03,9.40E-04
154148,6.27E-03,9.36E-04
154149,5.66E-03,1.45E-03
154150,6.45E-03,1.46E-03
154151,8.11E-03,1.07E-03
154152,7.45E-03,1.09E-03
154153,8.28E-03,1.08E-03
154154,7.43E-03,1.05E-03
154155,8.19E-03,2.43E-03
154156,8.15E-03,2.39E-03
154157,8.06E-03,2.35E-03
154158,8.06E-03,2.32E-03
154159,8.06E-03,2.28E-03
154160,8.06E-03,2.24E-03
154161,8.06E-03,2.21E-03
154162,8.06E-03,2.17E-03
154163,8.06E-03,2.14E-03
154164,8.06E-03,2.10E-03
154165,8.06E-03,2.07E-03
154166,8.06E-03,2.04E-03
154167,8.06E-03,2.00E-03
154168,8.06E-03,1.97E-03
154169,8.06E-03,1.93E-03
154170,8.06E-03,1.90E-03
154171,8.06E-03,1.87E-03
154172,8.06E-03,1.83E-03
154173,8.06E-03,1.80E-03
154174,8.06E-03,1.76E-03
154175,8.06E-03,1.73E-03
154176,8.06E-03,1.70E-03
154177,8.06E-03,1.66E-03
154178,8.06E-03,1.63E-03
154179,8.06E-03,1.59E-03
154180,8.06E-03,1.56E-03
154181,8.06E-03,1.53E-03
154182,8.06E-03,1.49E-03
154183,8.06E-03,1.46E-03
154184,8.06E-03,1.42E-03
154185,8.06E-03,1.39E-03
154186,8.06E-03,1.35E-03
154187,8.06E-03,1.32E-03
154188,8.06E-03,1.28E-03
154189,8.06E-03,1.25E-03
154190,8.06E-03,1.22E-03
154191,7.93E-03,1.18E-03
154192,7.86E-03,1.15E-03
154193,7.82E-03,1.12E-03
154194,7.69E-03,1.08E-03
154195,7.48E-03,1.05E-03
154196,7.43E-03,1.01E-03
154197,7.18E-03,9.33E-04
154198,7.87E-03,9.76E-04
154199,8.01E-03,2.48E-03
154200,7.74E-03,2.54E-03
154201,7.48E-03,2.59E-03
154202,7.02E-03,2.64E-03
154203,8.19E-03,2.37E-03
154204,7.74E-03,2.41E-03
154205,6.95E-03,2.45E-03
154206,4.24E-03,2.48E-03
154207,5.31E-03,2.51E-03
154208,6.02E-03,2.54E-03
154209,7.19E-03,2.58E-03
154210,7.57E-03,2.63E-03
154211,7.88E-03,2.68E-03
154212,8.04E-03,2.73E-03
154213,8.04E-03,2.78E-03
154214,8.09E-03,2.83E-03
154215,8.16E-03,2.88E-03
154216,8.28E-03,2.93E-03
154217,8.30E-03,2.99E-03
154218,8.09E-03,3.03E-03
154219,7.37E-03,3.08E-03
154220,6.60E-03,3.12E-03
154221,6.07E-03,3.17E-03
154222,5.36E-03,3.23E-03
154223,5.65E-03,3.26E-03
154224,5.68E-03,3.29E-03
154225,5.35E-03,3.34E-03
154226,5.65E-03,3.40E-03
154227,7.42E-03,2.01E-03
154228,5.40E-03,1.68E-03
154229,6.82E-03,1.62E-03
154230,6.74E-03,1.64E-03
154231,6.85E-03,2.69E-03
154232,8.05E-03,2.71E-03
154233,8.00E-03,2.74E-03
154234,1.09E-02,1.86E-03
154235,6.24E-03,1.56E-03
154236,6.56E-03,1.43E-03
154237,6.79E-03,1.41E-03
154238,7.02E-03,1.39E-03
154239,7.05E-03,1.37E-03
154240,7.20E-03,1.36E-03
154241,7.30E-03,1.34E-03
154242,7.36E-03,1.32E-03
154243,7.39E-03,1.31E-03
154244,7.40E-03,1.29E-03
154245,7.41E-03,1.27E-03
154246,7.42E-03,1.25E-03
154247,7.44E-03,1.24E-03
154248,7.46E-03,1.22E-03
154249,7.47E-03,1.20E-03
154250,7.49E-03,1.18E-03
154251,7.62E-03,1.16E-03
154252,7.56E-03,1.14E-03
154253,7.58E-03,1.12E-03
154254,7.57E-03,1.10E-03
154255,8.91E-03,1.97E-03
154256,9.37E-03,1.92E-03
154257,5.57E-03,1.68E-03
154258,6.85E-03,1.74E-03
154259,6.35E-03,1.71E-03
154260,6.53E-03,1.66E-03
154261,6.26E-03,1.65E-03
154262,6.59E-03,2.05E-03
154263,7.68E-03,2.77E-03
154264,7.73E-03,2.79E-03
154265,7.75E-03,2.81E-03
154266,7.83E-03,2.83E-03
154267,7.93E-03,2.86E-03
154268,8.04E-03,2.88E-03
154269,8.09E-03,2.90E-03
154270,8.07E-03,2.92E-03
154271,8.07E-03,2.95E-03
154272,8.09E-03,2.97E-03
154273,8.10E-03,2.99E-03
154274,8.13E-03,3.01E-03
154275,8.13E-03,3.04E-03
154276,8.15E-03,3.06E-03
154277,8.17E-03,3.08E-03
154278,8.18E-03,3.11E-03
154279,8.20E-03,3.13E-03
154280,8.22E-03,3.15E-03
154281,8.23E-03,3.17E-03
154282,8.25E-03,3.19E-03
154283,8.27E-03,3.22E-03
154284,8.22E-03,3.24E-03
154285,8.22E-03,3.26E-03
154286,8.24E-03,3.28E-03
154287,8.34E-03,3.30E-03
154288,8.53E-03,3.32E-03
154289,8.66E-03,3.34E-03
154290,8.75E-03,3.36E-03
154291,8.73E-03,3.37E-03
154292,8.52E-03,3.39E-03
154293,7.99E-03,3.41E-03
154294,7.42E-03,3.44E-03
154295,7.22E-03,3.45E-03
154296,7.76E-03,3.46E-03
154297,6.08E-03,1.04E-03
154298,8.28E-03,1.03E-03
154299,8.01E-03,1.03E-03
154300,7.94E-03,1.02E-03
154301,7.98E-03,1.01E-03
154302,8.00E-03,1.00E-03
154303,7.94E-03,9.91E-04
154304,7.87E-03,9.82E-04
154305,7.65E-03,9.72E-04
154306,7.38E-03,9.60E-04
154307,6.76E-03,9.48E-04
154308,6.14E-03,9.36E-04
154309,5.28E-03,9.23E-04
154310,5.13E-03,9.11E-04
154311,5.27E-03,9.07E-04
154312,6.23E-03,9.04E-04
154313,7.43E-03,9.05E-04
154314,7.63E-03,9.01E-04
154315,9.37E-03,8.97E-04
154316,8.89E-03,8.82E-04
154317,7.13E-03,8.67E-04
154318,5.32E-03,1.02E-03
154319,5.23E-03,1.52E-03
154320,6.56E-03,1.63E-03
154321,4.61E-03,1.48E-03
154322,4.37E-03,1.45E-03
154323,5.81E-03,1.43E-03
154324,6.55E-03,1.42E-03
154325,6.55E-03,1.03E-03
154326,8.53E-03,1.05E-03
154327,5.92E-03,1.01E-03
154328,8.15E-03,2.45E-03
154329,8.12E-03,2.41E-03
154330,8.06E-03,2.37E-03
154331,8.06E-03,2.34E-03
154332,8.06E-03,2.30E-03
154333,8.06E-03,2.27E-03
154334,8.06E-03,2.23E-03
154335,8.06E-03,2.19E-03
154336,8.06E-03,2.16E-03
154337,8.06E-03,2.13E-03
154338,8.06E-03,2.09E-03
154339,8.06E-03,2.06E-03
154340,8.06E-03,2.02E-03
154341,8.06E-03,1.99E-03
154342,8.06E-03,1.95E-03
154343,8.06E-03,1.92E-03
154344,8.06E-03,1.89E-03
154345,8.06E-03,1.85E-03
154346,8.06E-03,1.82E-03
154347,8.06E-03,1.78E-03
154348,8.06E-03,1.75E-03
154349,8.06E-03,1.72E-03
154350,8.06E-03,1.68E-03
154351,8.06E-03,1.65E-03
154352,8.06E-03,1.61E-03
154353,8.06E-03,1.58E-03
154354,8.06E-03,1.55E-03
154355,8.06E-03,1.51E-03
154356,8.06E-03,1.48E-03
154357,8.06E-03,1.44E-03
154358,8.06E-03,1.41E-03
154359,8.06E-03,1.37E-03
154360,8.06E-03,1.34E-03
154361,8.06E-03,1.30E-03
154362,8.06E-03,1.27E-03
154363,8.06E-03,1.23E-03
154364,8.00E-03,1.20E-03
154365,7.87E-03,1.17E-03
154366,7.85E-03,1.13E-03
154367,7.76E-03,1.10E-03
154368,7.75E-03,1.06E-03
154369,7.92E-03,1.03E-03
154370,8.45E-03,9.90E-04
154371,7.16E-03,8.91E-04
154372,7.84E-03,2.50E-03
154373,7.74E-03,2.55E-03
154374,7.55E-03,2.61E-03
154375,7.36E-03,2.66E-03
154376,6.80E-03,2.19E-03
154377,7.24E-03,2.21E-03
154378,7.48E-03,2.24E-03
154379,8.20E-03,2.26E-03
154380,8.57E-03,2.29E-03
154381,8.79E-03,2.33E-03
154382,8.90E-03,2.36E-03
154383,9.22E-03,2.41E-03
154384,3.76E-03,2.45E-03
154385,4.63E-03,2.48E-03
154386,6.45E-03,2.51E-03
154387,7.22E-03,2.54E-03
154388,7.81E-03,2.59E-03
154389,7.98E-03,2.64E-03
154390,8.04E-03,2.69E-03
154391,8.04E-03,2.74E-03
154392,8.03E-03,2.79E-03
154393,8.10E-03,2.84E-03
154394,8.01E-03,2.89E-03
154395,7.95E-03,2.94E-03
154396,7.76E-03,2.99E-03
154397,7.20E-03,3.04E-03
154398,6.78E-03,3.08E-03
154399,6.69E-03,3.14E-03
154400,5.80E-03,3.19E-03
154401,5.76E-03,3.23E-03
154402,5.83E-03,3.27E-03
154403,6.28E-03,3.31E-03
154404,6.54E-03,3.37E-03
154405,7.11E-03,3.45E-03
154406,6.43E-03,3.41E-03
154407,7.39E-03,3.50E-03
154408,6.06E-03,3.44E-03
154409,6.03E-03,2.07E-03
154410,7.91E-03,2.01E-03
154411,8.33E-03,1.97E-03
154412,7.25E-03,1.65E-03
154413,4.77E-03,1.75E-03
154414,6.27E-03,1.58E-03
154415,6.42E-03,1.59E-03
154416,6.48E-03,1.72E-03
154417,6.77E-03,1.69E-03
154418,7.56E-03,1.62E-03
154419,6.41E-03,1.60E-03
154420,7.16E-03,1.40E-03
154421,7.65E-03,1.37E-03
154422,7.46E-03,1.35E-03
154423,7.39E-03,1.34E-03
154424,7.38E-03,1.32E-03
154425,7.37E-03,1.30E-03
154426,7.40E-03,1.29E-03
154427,7.43E-03,1.27E-03
154428,7.44E-03,1.25E-03
154429,7.45E-03,1.23E-03
154430,7.46E-03,1.22E-03
154431,7.47E-03,1.20E-03
154432,7.49E-03,1.18E-03
154433,7.51E-03,1.16E-03
154434,7.52E-03,1.14E-03
154435,7.65E-03,1.12E-03
154436,7.62E-03,1.10E-03
154437,7.71E-03,1.08E-03
154438,7.83E-03,1.06E-03
154439,8.26E-03,2.80E-03
154440,8.04E-03,2.83E-03
154441,8.00E-03,2.85E-03
154442,7.94E-03,2.87E-03
154443,8.02E-03,2.89E-03
154444,8.10E-03,2.92E-03
154445,8.08E-03,2.94E-03
154446,8.07E-03,2.96E-03
154447,8.07E-03,2.99E-03
154448,8.09E-03,3.01E-03
154449,8.10E-03,3.03E-03
154450,8.12E-03,3.06E-03
154451,8.13E-03,3.08E-03
154452,8.15E-03,3.10E-03
154453,8.16E-03,3.13E-03
154454,8.18E-03,3.15E-03
154455,8.19E-03,3.17E-03
154456,8.21E-03,3.20E-03
154457,8.22E-03,3.22E-03
154458,8.24E-03,3.24E-03
154459,8.26E-03,3.27E-03
154460,8.28E-03,3.29E-03
154461,8.30E-03,3.31E-03
154462,8.31E-03,3.33E-03
154463,8.39E-03,3.35E-03
154464,8.46E-03,3.37E-03
154465,8.50E-03,3.39E-03
154466,8.54E-03,3.41E-03
154467,8.47E-03,3.43E-03
154468,8.24E-03,3.45E-03
154469,8.02E-03,3.47E-03
154470,7.92E-03,3.49E-03
154471,7.94E-03,3.50E-03
154472,8.83E-03,3.52E-03
154473,8.16E-03,3.55E-03
154474,7.62E-03,9.94E-04
154475,8.00E-03,9.85E-04
154476,7.99E-03,9.77E-04
154477,8.05E-03,9.68E-04
154478,8.01E-03,9.59E-04
154479,7.93E-03,9.50E-04
154480,7.78E-03,9.41E-04
154481,7.48E-03,9.31E-04
154482,7.20E-03,9.21E-04
154483,6.71E-03,9.11E-04
154484,6.28E-03,9.00E-04
154485,5.69E-03,8.92E-04
154486,5.17E-03,8.76E-04
154487,5.76E-03,8.72E-04
154488,6.64E-03,8.72E-04
154489,7.00E-03,8.68E-04
154490,7.72E-03,8.66E-04
154491,8.00E-03,8.61E-04
154492,7.68E-03,8.49E-04
154493,7.35E-03,8.39E-04
154494,8.13E-03,1.93E-03
154495,6.82E-03,2.02E-03
154496,7.59E-03,1.96E-03
154497,7.95E-03,1.93E-03
154498,8.20E-03,1.89E-03
154499,7.29E-03,1.75E-03
154500,5.96E-03,1.54E-03
154501,6.35E-03,1.55E-03
154502,6.22E-03,1.49E-03
154503,5.79E-03,1.44E-03
154504,5.99E-03,1.41E-03
154505,6.88E-03,1.40E-03
154506,6.35E-03,2.14E-03
154507,6.89E-03,9.90E-04
154508,5.41E-03,9.54E-04
154509,7.68E-03,9.74E-04
154510,8.06E-03,2.47E-03
154511,8.06E-03,2.43E-03
154512,8.06E-03,2.39E-03
154513,8.06E-03,2.36E-03
154514,8.06E-03,2.32E-03
154515,8.06E-03,2.28E-03
154516,8.06E-03,2.25E-03
154517,8.06E-03,2.21E-03
154518,8.06E-03,2.18E-03
154519,8.06E-03,2.14E-03
154520,8.06E-03,2.11E-03
154521,8.06E-03,2.08E-03
154522,8.06E-03,2.04E-03
154523,8.06E-03,2.01E-03
154524,8.06E-03,1.97E-03
154525,8.06E-03,1.94E-03
154526,8.06E-03,1.91E-03
154527,8.06E-03,1.87E-03
154528,8.06E-03,1.84E-03
154529,8.06E-03,1.80E-03
154530,8.06E-03,1.77E-03
154531,8.06E-03,1.74E-03
154532,8.06E-03,1.70E-03
154533,8.06E-03,1.67E-03
154534,8.06E-03,1.63E-03
154535,8.06E-03,1.60E-03
154536,8.06E-03,1.56E-03
154537,8.06E-03,1.53E-03
154538,8.06E-03,1.49E-03
154539,8.06E-03,1.46E-03
154540,8.06E-03,1.43E-03
154541,8.06E-03,1.39E-03
154542,8.06E-03,1.36E-03
154543,8.06E-03,1.32E-03
154544,8.06E-03,1.29E-03
154545,8.06E-03,1.25E-03
154546,8.06E-03,1.22E-03
154547,7.97E-03,1.18E-03
154548,7.94E-03,1.15E-03
154549,7.92E-03,1.11E-03
154550,7.88E-03,1.08E-03
154551,8.13E-03,1.04E-03
154552,8.38E-03,1.01E-03
154553,8.56E-03,9.75E-04
154554,8.25E-03,9.41E-04
154555,7.47E-03,9.12E-04
154556,6.85E-03,8.82E-04
154557,6.88E-03,8.55E-04
154558,7.50E-03,8.24E-04
154559,7.87E-03,2.52E-03
154560,7.86E-03,2.57E-03
154561,7.75E-03,2.62E-03
154562,8.08E-03,2.68E-03
154563,7.06E-03,2.16E-03
154564,7.55E-03,2.19E-03
154565,8.37E-03,2.22E-03
154566,8.82E-03,2.25E-03
154567,9.17E-03,2.28E-03
154568,1.05E-02,2.31E-03
154569,1.13E-02,2.37E-03
154570,3.86E-03,2.41E-03
154571,3.89E-03,2.43E-03
154572,6.80E-03,2.46E-03
154573,7.90E-03,2.51E-03
154574,7.91E-03,2.56E-03
154575,7.91E-03,2.60E-03
154576,8.04E-03,2.65E-03
154577,8.04E-03,2.70E-03
154578,8.03E-03,2.75E-03
154579,8.03E-03,2.80E-03
154580,7.94E-03,2.85E-03
154581,7.90E-03,2.90E-03
154582,7.68E-03,2.95E-03
154583,7.26E-03,3.00E-03
154584,6.94E-03,3.05E-03
154585,6.58E-03,3.10E-03
154586,5.96E-03,3.14E-03
154587,6.00E-03,3.19E-03
154588,6.10E-03,3.23E-03
154589,6.38E-03,3.28E-03
154590,6.43E-03,3.33E-03
154591,6.37E-03,3.37E-03
154592,6.03E-03,3.42E-03
154593,5.87E-03,3.47E-03
154594,6.41E-03,3.54E-03
154595,7.83E-03,3.60E-03
154596,8.19E-03,1.01E-03
154597,6.57E-03,2.09E-03
154598,1.01E-02,2.26E-03
154599,9.21E-03,2.23E-03
154600,9.03E-03,2.20E-03
154601,8.39E-03,2.17E-03
154602,7.60E-03,2.14E-03
154603,6.91E-03,2.11E-03
154604,8.57E-03,1.37E-03
154605,8.90E-03,1.33E-03
154606,7.67E-03,1.31E-03
154607,7.61E-03,1.30E-03
154608,7.57E-03,1.28E-03
154609,7.51E-03,1.26E-03
154610,7.44E-03,1.25E-03
154611,7.46E-03,1.23E-03
154612,7.47E-03,1.21E-03
154613,7.48E-03,1.19E-03
154614,7.49E-03,1.18E-03
154615,7.51E-03,1.16E-03
154616,7.52E-03,1.14E-03
154617,7.54E-03,1.12E-03
154618,7.55E-03,1.10E-03
154619,7.66E-03,1.09E-03
154620,7.67E-03,1.07E-03
154621,7.69E-03,1.05E-03
154622,7.79E-03,1.03E-03
154623,8.36E-03,9.51E-04
154624,7.99E-03,9.42E-04
154625,7.99E-03,9.35E-04
154626,8.05E-03,9.26E-04
154627,8.05E-03,9.18E-04
154628,7.89E-03,9.09E-04
154629,7.74E-03,9.00E-04
154630,7.44E-03,8.91E-04
154631,7.19E-03,8.82E-04
154632,6.73E-03,8.73E-04
154633,6.22E-03,8.65E-04
154634,5.95E-03,8.57E-04
154635,6.83E-03,1.71E-03
154636,8.40E-03,1.84E-03
154637,8.27E-03,1.79E-03
154638,7.54E-03,1.90E-03
154639,8.64E-03,2.83E-03
154640,8.21E-03,2.86E-03
154641,8.07E-03,2.88E-03
154642,8.04E-03,2.90E-03
154643,8.10E-03,2.93E-03
154644,8.10E-03,2.95E-03
154645,8.08E-03,2.98E-03
154646,8.07E-03,3.00E-03
154647,8.07E-03,3.02E-03
154648,8.08E-03,3.05E-03
154649,8.10E-03,3.07E-03
154650,8.11E-03,3.10E-03
154651,8.13E-03,3.12E-03
154652,8.14E-03,3.15E-03
154653,8.15E-03,3.17E-03
154654,8.17E-03,3.20E-03
154655,8.18E-03,3.22E-03
154656,8.20E-03,3.24E-03
154657,8.21E-03,3.27E-03
154658,8.23E-03,3.29E-03
154659,8.25E-03,3.31E-03
154660,8.26E-03,3.34E-03
154661,8.28E-03,3.36E-03
154662,8.30E-03,3.38E-03
154663,8.31E-03,3.41E-03
154664,8.33E-03,3.43E-03
154665,8.41E-03,3.45E-03
154666,8.41E-03,3.47E-03
154667,8.31E-03,3.49E-03
154668,8.25E-03,3.51E-03
154669,8.08E-03,3.53E-03
154670,8.05E-03,3.54E-03
154671,8.14E-03,3.56E-03
154672,8.15E-03,3.58E-03
154673,7.98E-03,3.60E-03
154674,7.74E-03,3.62E-03
154675,7.79E-03,3.63E-03
154676,5.34E-03,8.40E-04
154677,6.08E-03,8.38E-04
154678,6.45E-03,8.36E-04
154679,7.17E-03,8.33E-04
154680,7.54E-03,8.30E-04
154681,7.70E-03,8.24E-04
154682,7.74E-03,8.16E-04
154683,7.57E-03,8.07E-04
154684,7.49E-03,8.00E-04
154685,7.68E-03,7.94E-04
154686,8.44E-03,7.92E-04
154687,8.06E-03,2.48E-03
154688,8.06E-03,2.45E-03
154689,8.06E-03,2.41E-03
154690,8.06E-03,2.37E-03
154691,8.06E-03,2.34E-03
154692,8.06E-03,2.30E-03
154693,8.06E-03,2.27E-03
154694,8.06E-03,2.23E-03
154695,8.06E-03,2.20E-03
154696,8.06E-03,2.16E-03
154697,8.06E-03,2.13E-03
154698,8.06E-03,2.09E-03
154699,8.06E-03,2.06E-03
154700,8.06E-03,2.03E-03
154701,8.06E-03,1.99E-03
154702,8.06E-03,1.96E-03
154703,8.06E-03,1.92E-03
154704,8.06E-03,1.89E-03
154705,8.06E-03,1.86E-03
154706,8.06E-03,1.82E-03
154707,8.06E-03,1.79E-03
154708,8.06E-03,1.75E-03
154709,8.06E-03,1.72E-03
154710,8.06E-03,1.69E-03
154711,8.06E-03,1.65E-03
154712,8.06E-03,1.62E-03
154713,8.06E-03,1.58E-03
154714,8.06E-03,1.55E-03
154715,8.06E-03,1.51E-03
154716,8.06E-03,1.48E-03
154717,8.06E-03,1.44E-03
154718,8.06E-03,1.41E-03
154719,8.06E-03,1.37E-03
154720,8.06E-03,1.34E-03
154721,8.06E-03,1.30E-03
154722,8.06E-03,1.27E-03
154723,8.06E-03,1.23E-03
154724,8.06E-03,1.20E-03
154725,8.00E-03,1.16E-03
154726,8.04E-03,1.13E-03
154727,8.06E-03,1.10E-03
154728,8.20E-03,1.06E-03
154729,8.27E-03,1.03E-03
154730,8.32E-03,9.93E-04
154731,8.03E-03,9.61E-04
154732,7.78E-03,9.28E-04
154733,7.60E-03,8.96E-04
154734,7.76E-03,8.63E-04
154735,8.37E-03,8.30E-04
154736,7.97E-03,2.54E-03
154737,7.98E-03,2.59E-03
154738,8.07E-03,2.64E-03
154739,9.87E-03,2.74E-03
154740,8.60E-03,2.69E-03
154741,9.07E-03,2.79E-03
154742,8.71E-03,3.65E-03
154743,1.05E-02,2.32E-03
154744,4.05E-03,2.37E-03
154745,4.22E-03,2.39E-03
154746,7.10E-03,2.43E-03
154747,7.65E-03,2.47E-03
154748,7.77E-03,2.52E-03
154749,7.86E-03,2.56E-03
154750,8.04E-03,2.61E-03
154751,8.04E-03,2.66E-03
154752,8.03E-03,2.71E-03
154753,8.03E-03,2.76E-03
154754,7.97E-03,2.81E-03
154755,7.85E-03,2.86E-03
154756,7.71E-03,2.91E-03
154757,7.43E-03,2.96E-03
154758,7.02E-03,3.01E-03
154759,6.51E-03,3.06E-03
154760,5.93E-03,3.11E-03
154761,6.07E-03,3.15E-03
154762,6.32E-03,3.20E-03
154763,6.39E-03,3.24E-03
154764,6.48E-03,3.29E-03
154765,6.39E-03,3.34E-03
154766,6.40E-03,3.39E-03
154767,6.55E-03,3.45E-03
154768,6.76E-03,3.51E-03
154769,8.10E-03,3.57E-03
154770,6.82E-03,2.04E-03
154771,6.95E-03,1.97E-03
154772,6.72E-03,1.92E-03
154773,6.80E-03,1.89E-03
154774,7.26E-03,1.86E-03
154775,7.67E-03,1.74E-03
154776,7.16E-03,1.67E-03
154777,6.95E-03,1.56E-03
154778,7.54E-03,1.58E-03
154779,8.51E-03,1.59E-03
154780,6.94E-03,1.50E-03
154781,7.00E-03,1.45E-03
154782,6.85E-03,1.41E-03
154783,7.38E-03,1.38E-03
154784,6.39E-03,9.30E-04
154785,7.26E-03,9.38E-04
154786,8.89E-03,2.20E-03
154787,7.25E-03,7.47E-04
154788,8.72E-03,8.39E-04
154789,8.22E-03,8.75E-04
154790,7.93E-03,9.09E-04
154791,7.87E-03,9.43E-04
154792,8.01E-03,9.76E-04
154793,8.15E-03,1.01E-03
154794,8.17E-03,1.04E-03
154795,8.15E-03,1.08E-03
154796,8.06E-03,1.11E-03
154797,8.06E-03,1.15E-03
154798,8.06E-03,1.18E-03
154799,8.06E-03,1.22E-03
154800,8.06E-03,1.25E-03
154801,8.06E-03,1.28E-03
154802,8.06E-03,1.32E-03
154803,8.06E-03,1.36E-03
154804,8.06E-03,1.39E-03
154805,8.06E-03,1.43E-03
154806,8.06E-03,1.46E-03
154807,8.06E-03,1.49E-03
154808,8.06E-03,1.53E-03
154809,8.06E-03,1.56E-03
154810,8.06E-03,1.60E-03
154811,8.06E-03,1.63E-03
154812,8.06E-03,1.67E-03
154813,8.06E-03,1.70E-03
154814,8.06E-03,1.74E-03
154815,8.06E-03,1.77E-03
154816,8.06E-03,1.81E-03
154817,8.06E-03,1.84E-03
154818,8.06E-03,1.87E-03
154819,8.06E-03,1.91E-03
154820,8.06E-03,1.94E-03
154821,8.06E-03,1.98E-03
154822,8.06E-03,2.01E-03
154823,8.06E-03,2.04E-03
154824,8.06E-03,2.08E-03
154825,8.06E-03,2.11E-03
154826,8.06E-03,2.15E-03
154827,8.06E-03,2.18E-03
154828,8.06E-03,2.22E-03
154829,8.06E-03,2.25E-03
154830,8.06E-03,2.29E-03
154831,8.06E-03,2.32E-03
154832,8.06E-03,2.36E-03
154833,8.06E-03,2.39E-03
154834,8.06E-03,2.43E-03
154835,8.06E-03,2.46E-03
154836,8.06E-03,2.50E-03
154837,9.31E-03,2.18E-03
154838,8.89E-03,2.15E-03
154839,8.37E-03,2.11E-03
154840,7.42E-03,2.09E-03
154841,7.01E-03,2.06E-03
154842,6.96E-03,1.54E-03
154843,7.14E-03,1.52E-03
154844,6.37E-03,1.93E-03
154845,8.55E-03,1.34E-03
154846,7.91E-03,1.63E-03
154847,7.46E-03,1.70E-03
154848,6.76E-03,1.82E-03
154849,6.85E-03,1.77E-03
154850,6.97E-03,1.86E-03
154851,7.33E-03,6.87E-04
154852,7.68E-03,6.86E-04
154853,8.10E-03,2.55E-03
154854,8.08E-03,2.60E-03
154855,8.40E-03,2.65E-03
154856,9.54E-03,2.75E-03
154857,8.66E-03,2.70E-03
154858,9.93E-03,3.67E-03
154859,8.15E-03,3.74E-03
154860,8.48E-03,3.71E-03
154861,8.14E-03,3.69E-03
154862,8.03E-03,3.67E-03
154863,8.08E-03,3.66E-03
154864,8.09E-03,3.64E-03
154865,8.13E-03,3.62E-03
154866,8.17E-03,3.60E-03
154867,8.20E-03,3.58E-03
154868,8.30E-03,3.56E-03
154869,8.36E-03,3.54E-03
154870,8.35E-03,3.52E-03
154871,8.33E-03,3.50E-03
154872,8.31E-03,3.48E-03
154873,8.30E-03,3.46E-03
154874,8.28E-03,3.43E-03
154875,8.27E-03,3.41E-03
154876,8.25E-03,3.39E-03
154877,8.23E-03,3.36E-03
154878,8.22E-03,3.34E-03
154879,8.20E-03,3.31E-03
154880,8.19E-03,3.29E-03
154881,8.17E-03,3.26E-03
154882,8.16E-03,3.24E-03
154883,8.15E-03,3.21E-03
154884,8.13E-03,3.19E-03
154885,8.12E-03,3.16E-03
154886,8.11E-03,3.14E-03
154887,8.09E-03,3.11E-03
154888,8.08E-03,3.09E-03
154889,8.07E-03,3.06E-03
154890,8.07E-03,3.04E-03
154891,8.08E-03,3.01E-03
154892,8.09E-03,2.99E-03
154893,8.10E-03,2.96E-03
154894,8.09E-03,2.94E-03
154895,8.15E-03,2.91E-03
154896,8.24E-03,2.89E-03
154897,8.47E-03,2.86E-03
154898,8.20E-03,2.84E-03
154899,7.47E-03,2.82E-03
154900,7.86E-03,2.75E-03
154901,7.44E-03,3.70E-03
154902,7.40E-03,3.76E-03
154903,7.88E-03,2.28E-03
154904,4.84E-03,2.32E-03
154905,4.96E-03,2.35E-03
154906,7.09E-03,2.39E-03
154907,7.41E-03,2.43E-03
154908,7.66E-03,2.47E-03
154909,7.89E-03,2.52E-03
154910,8.04E-03,2.56E-03
154911,8.04E-03,2.61E-03
154912,8.03E-03,2.66E-03
154913,8.03E-03,2.71E-03
154914,8.03E-03,2.76E-03
154915,7.94E-03,2.81E-03
154916,7.86E-03,2.87E-03
154917,7.71E-03,2.92E-03
154918,7.05E-03,2.97E-03
154919,6.18E-03,3.02E-03
154920,6.06E-03,3.06E-03
154921,6.14E-03,3.11E-03
154922,6.40E-03,3.16E-03
154923,6.56E-03,3.20E-03
154924,6.56E-03,3.25E-03
154925,6.85E-03,3.31E-03
154926,7.02E-03,3.36E-03
154927,7.10E-03,3.42E-03
154928,7.24E-03,3.48E-03
154929,7.25E-03,3.53E-03
154930,8.16E-03,3.60E-03
154931,7.23E-03,3.64E-03
154932,6.88E-03,1.99E-03
154933,6.29E-03,1.85E-03
154934,6.84E-03,1.83E-03
154935,7.39E-03,1.73E-03
154936,7.47E-03,1.66E-03
154937,7.46E-03,1.59E-03
154938,7.58E-03,1.50E-03
154939,7.75E-03,1.46E-03
154940,7.98E-03,1.37E-03
154941,7.10E-03,9.33E-04
154942,7.48E-03,9.65E-04
154943,7.56E-03,9.91E-04
154944,7.67E-03,1.01E-03
154945,7.72E-03,1.03E-03
154946,7.65E-03,1.05E-03
154947,7.58E-03,1.06E-03
154948,7.57E-03,1.08E-03
154949,7.56E-03,1.10E-03
154950,7.54E-03,1.12E-03
154951,7.53E-03,1.14E-03
154952,7.52E-03,1.16E-03
154953,7.51E-03,1.17E-03
154954,7.50E-03,1.19E-03
154955,7.48E-03,1.21E-03
154956,7.63E-03,1.22E-03
154957,7.69E-03,1.24E-03
154958,7.74E-03,1.26E-03
154959,8.01E-03,1.28E-03
154960,8.71E-03,1.29E-03
154961,6.93E-03,1.30E-03
154962,6.59E-03,9.07E-04
154963,6.37E-03,8.97E-04
154964,7.60E-03,7.24E-04
154965,1.02E-02,7.39E-04
154966,1.05E-02,7.53E-04
154967,8.97E-03,7.58E-04
154968,8.35E-03,7.64E-04
154969,8.05E-03,7.69E-04
154970,7.84E-03,7.76E-04
154971,7.81E-03,7.83E-04
154972,7.72E-03,7.89E-04
154973,7.47E-03,7.94E-04
154974,7.07E-03,7.98E-04
154975,6.55E-03,8.00E-04
154976,6.20E-03,8.03E-04
154977,5.63E-03,8.05E-04
154978,5.25E-03,8.07E-04
154979,5.07E-03,8.10E-04
154980,5.48E-03,8.15E-04
154981,6.05E-03,8.21E-04
154982,6.37E-03,8.28E-04
154983,6.85E-03,8.35E-04
154984,7.22E-03,8.43E-04
154985,7.56E-03,8.51E-04
154986,7.77E-03,8.59E-04
154987,7.86E-03,8.68E-04
154988,8.05E-03,8.76E-04
154989,8.00E-03,8.84E-04
154990,7.93E-03,8.92E-04
154991,7.87E-03,9.00E-04
154992,8.03E-03,9.04E-04
154993,5.90E-03,8.97E-04
154994,8.62E-03,2.17E-03
154995,8.52E-03,1.47E-03
154996,5.24E-03,8.71E-04
154997,5.46E-03,8.66E-04
154998,7.15E-03,8.59E-04
154999,7.87E-03,8.55E-04
155000,7.92E-03,8.50E-04
155001,7.95E-03,8.42E-04
155002,8.05E-03,8.35E-04
155003,7.90E-03,8.27E-04
155004,7.83E-03,8.19E-04
155005,7.63E-03,8.12E-04
155006,7.33E-03,8.04E-04
155007,6.93E-03,7.97E-04
155008,6.46E-03,7.90E-04
155009,6.13E-03,7.84E-04
155010,5.70E-03,7.78E-04
155011,5.23E-03,7.74E-04
155012,5.35E-03,7.71E-04
155013,5.77E-03,7.68E-04
155014,6.22E-03,7.66E-04
155015,6.62E-03,7.65E-04
155016,7.06E-03,7.62E-04
155017,7.55E-03,7.59E-04
155018,7.70E-03,7.55E-04
155019,7.93E-03,7.50E-04
155020,8.17E-03,7.44E-04
155021,8.40E-03,7.38E-04
155022,8.55E-03,7.32E-04
155023,9.03E-03,7.27E-04
155024,9.23E-03,7.21E-04
155025,8.91E-03,7.09E-04
155026,7.92E-03,6.97E-04
155027,9.39E-03,2.13E-03
155028,8.72E-03,2.11E-03
155029,8.59E-03,2.09E-03
155030,8.33E-03,2.06E-03
155031,7.74E-03,2.03E-03
155032,7.27E-03,2.01E-03
155033,7.30E-03,1.62E-03
155034,7.77E-03,1.69E-03
155035,6.19E-03,1.79E-03
155036,3.95E-03,1.75E-03
155037,6.73E-03,1.82E-03
155038,8.03E-03,1.32E-03
155039,6.22E-03,1.29E-03
155040,6.20E-03,1.27E-03
155041,7.84E-03,1.25E-03
155042,8.16E-03,1.24E-03
155043,7.89E-03,1.22E-03
155044,7.78E-03,1.20E-03
155045,7.66E-03,1.18E-03
155046,7.52E-03,1.17E-03
155047,7.54E-03,1.15E-03
155048,7.55E-03,1.13E-03
155049,7.56E-03,1.12E-03
155050,7.56E-03,1.10E-03
155051,7.58E-03,1.08E-03
155052,7.59E-03,1.06E-03
155053,7.60E-03,1.04E-03
155054,7.62E-03,1.02E-03
155055,7.63E-03,1.01E-03
155056,7.68E-03,9.87E-04
155057,7.60E-03,9.69E-04
155058,7.27E-03,9.51E-04
155059,6.78E-03,9.29E-04
155060,6.86E-03,8.97E-04
155061,6.45E-03,8.75E-04
155062,6.33E-03,8.71E-04
155063,9.59E-03,6.56E-04
155064,8.58E-03,6.60E-04
155065,8.12E-03,2.51E-03
155066,8.06E-03,2.48E-03
155067,8.06E-03,2.44E-03
155068,8.06E-03,2.41E-03
155069,8.06E-03,2.37E-03
155070,8.06E-03,2.34E-03
155071,8.06E-03,2.30E-03
155072,8.06E-03,2.27E-03
155073,8.06E-03,2.23E-03
155074,8.06E-03,2.20E-03
155075,8.06E-03,2.16E-03
155076,8.06E-03,2.13E-03
155077,8.06E-03,2.10E-03
155078,8.06E-03,2.06E-03
155079,8.06E-03,2.03E-03
155080,8.06E-03,1.99E-03
155081,8.06E-03,1.96E-03
155082,8.06E-03,1.93E-03
155083,8.06E-03,1.89E-03
155084,8.06E-03,1.86E-03
155085,8.06E-03,1.82E-03
155086,8.06E-03,1.79E-03
155087,8.06E-03,1.75E-03
155088,8.06E-03,1.72E-03
155089,8.06E-03,1.69E-03
155090,8.06E-03,1.65E-03
155091,8.06E-03,1.62E-03
155092,8.06E-03,1.58E-03
155093,8.06E-03,1.55E-03
155094,8.06E-03,1.51E-03
155095,8.06E-03,1.48E-03
155096,8.06E-03,1.44E-03
155097,8.06E-03,1.41E-03
155098,8.06E-03,1.37E-03
155099,8.06E-03,1.34E-03
155100,8.06E-03,1.30E-03
155101,8.06E-03,1.27E-03
155102,8.06E-03,1.23E-03
155103,8.06E-03,1.20E-03
155104,8.06E-03,1.16E-03
155105,8.06E-03,1.13E-03
155106,8.06E-03,1.09E-03
155107,8.06E-03,1.06E-03
155108,8.06E-03,1.02E-03
155109,8.06E-03,9.90E-04
155110,8.06E-03,9.56E-04
155111,8.15E-03,9.23E-04
155112,8.43E-03,8.88E-04
155113,8.74E-03,8.53E-04
155114,8.67E-03,8.24E-04
155115,8.12E-03,7.91E-04
155116,7.40E-03,7.63E-04
155117,6.77E-03,7.35E-04
155118,6.63E-03,7.10E-04
155119,7.24E-03,6.85E-04
155120,8.13E-03,2.57E-03
155121,8.30E-03,2.61E-03
155122,8.46E-03,2.66E-03
155123,8.45E-03,2.71E-03
155124,7.64E-03,2.75E-03
155125,7.46E-03,3.83E-03
155126,7.68E-03,3.81E-03
155127,7.93E-03,3.80E-03
155128,8.15E-03,3.78E-03
155129,8.22E-03,3.76E-03
155130,8.13E-03,3.74E-03
155131,8.13E-03,3.72E-03
155132,8.15E-03,3.70E-03
155133,8.21E-03,3.68E-03
155134,8.26E-03,3.66E-03
155135,8.32E-03,3.64E-03
155136,8.36E-03,3.62E-03
155137,8.34E-03,3.60E-03
155138,8.33E-03,3.58E-03
155139,8.31E-03,3.56E-03
155140,8.30E-03,3.53E-03
155141,8.28E-03,3.51E-03
155142,8.27E-03,3.49E-03
155143,8.25E-03,3.46E-03
155144,8.24E-03,3.44E-03
155145,8.22E-03,3.41E-03
155146,8.21E-03,3.39E-03
155147,8.19E-03,3.36E-03
155148,8.18E-03,3.34E-03
155149,8.17E-03,3.31E-03
155150,8.15E-03,3.28E-03
155151,8.14E-03,3.26E-03
155152,8.13E-03,3.23E-03
155153,8.12E-03,3.21E-03
155154,8.10E-03,3.18E-03
155155,8.09E-03,3.15E-03
155156,8.08E-03,3.13E-03
155157,8.07E-03,3.10E-03
155158,8.07E-03,3.07E-03
155159,8.08E-03,3.05E-03
155160,8.09E-03,3.02E-03
155161,8.10E-03,3.00E-03
155162,8.08E-03,2.97E-03
155163,8.11E-03,2.95E-03
155164,8.14E-03,2.92E-03
155165,8.13E-03,2.90E-03
155166,7.81E-03,2.87E-03
155167,7.47E-03,2.85E-03
155168,7.25E-03,2.83E-03
155169,8.27E-03,2.80E-03
155170,7.46E-03,3.84E-03
155171,7.88E-03,2.20E-03
155172,7.36E-03,2.24E-03
155173,5.35E-03,2.28E-03
155174,5.21E-03,2.31E-03
155175,6.97E-03,2.34E-03
155176,7.21E-03,2.38E-03
155177,7.61E-03,2.43E-03
155178,7.97E-03,2.47E-03
155179,8.04E-03,2.52E-03
155180,8.04E-03,2.56E-03
155181,8.03E-03,2.61E-03
155182,8.03E-03,2.66E-03
155183,8.03E-03,2.71E-03
155184,8.03E-03,2.77E-03
155185,8.03E-03,2.82E-03
155186,8.04E-03,2.88E-03
155187,7.02E-03,2.93E-03
155188,5.86E-03,2.97E-03
155189,6.08E-03,3.02E-03
155190,6.27E-03,3.06E-03
155191,6.51E-03,3.11E-03
155192,6.62E-03,3.16E-03
155193,6.77E-03,3.22E-03
155194,7.06E-03,3.27E-03
155195,7.09E-03,3.33E-03
155196,7.28E-03,3.38E-03
155197,7.31E-03,3.44E-03
155198,7.51E-03,3.50E-03
155199,7.44E-03,3.56E-03
155200,7.03E-03,3.60E-03
155201,6.55E-03,3.67E-03
155202,6.49E-03,3.74E-03
155203,7.18E-03,3.80E-03
155204,6.75E-03,1.94E-03
155205,6.53E-03,1.81E-03
155206,6.76E-03,1.78E-03
155207,6.39E-03,1.73E-03
155208,8.00E-03,1.65E-03
155209,6.95E-03,1.47E-03
155210,5.90E-03,1.50E-03
155211,4.83E-03,1.53E-03
155212,6.44E-03,1.59E-03
155213,5.73E-03,1.56E-03
155214,8.80E-03,1.30E-03
155215,8.24E-03,1.26E-03
155216,8.07E-03,1.24E-03
155217,8.17E-03,1.21E-03
155218,8.32E-03,1.19E-03
155219,8.00E-03,1.18E-03
155220,7.88E-03,1.16E-03
155221,7.68E-03,1.14E-03
155222,7.56E-03,1.13E-03
155223,7.57E-03,1.11E-03
155224,7.58E-03,1.09E-03
155225,7.59E-03,1.07E-03
155226,7.60E-03,1.06E-03
155227,7.61E-03,1.04E-03
155228,7.62E-03,1.02E-03
155229,7.63E-03,1.00E-03
155230,7.65E-03,9.82E-04
155231,7.66E-03,9.64E-04
155232,7.67E-03,9.45E-04
155233,7.53E-03,9.27E-04
155234,7.37E-03,9.08E-04
155235,5.13E-03,8.67E-04
155236,6.84E-03,8.90E-04
155237,7.40E-03,8.42E-04
155238,7.86E-03,8.23E-04
155239,7.43E-03,8.19E-04
155240,7.72E-03,8.13E-04
155241,7.86E-03,8.07E-04
155242,7.92E-03,8.01E-04
155243,8.04E-03,7.93E-04
155244,7.98E-03,7.86E-04
155245,7.90E-03,7.79E-04
155246,7.73E-03,7.72E-04
155247,7.45E-03,7.65E-04
155248,7.06E-03,7.59E-04
155249,6.58E-03,7.53E-04
155250,6.09E-03,7.47E-04
155251,5.79E-03,7.42E-04
155252,5.27E-03,7.38E-04
155253,5.32E-03,7.34E-04
155254,6.16E-03,7.32E-04
155255,6.40E-03,7.30E-04
155256,6.77E-03,7.29E-04
155257,7.13E-03,7.27E-04
155258,7.59E-03,7.25E-04
155259,7.71E-03,7.21E-04
155260,8.09E-03,7.17E-04
155261,8.34E-03,7.12E-04
155262,8.48E-03,7.07E-04
155263,8.63E-03,7.01E-04
155264,8.78E-03,6.96E-04
155265,8.91E-03,6.88E-04
155266,8.73E-03,6.78E-04
155267,8.46E-03,6.67E-04
155268,6.22E-03,1.75E-03
155269,4.66E-03,1.72E-03
155270,7.30E-03,1.61E-03
155271,8.16E-03,1.68E-03
155272,7.09E-03,1.78E-03
155273,6.80E-03,1.89E-03
155274,7.58E-03,1.84E-03
155275,6.49E-03,1.48E-03
155276,6.45E-03,1.45E-03
155277,8.39E-03,1.43E-03
155278,5.90E-03,1.44E-03
155279,6.06E-03,8.47E-04
155280,6.74E-03,8.49E-04
155281,8.84E-03,6.03E-04
155282,1.00E-02,6.23E-04
155283,8.23E-03,5.95E-04
155284,8.16E-03,2.53E-03
155285,8.06E-03,2.49E-03
155286,8.06E-03,2.46E-03
155287,8.06E-03,2.42E-03
155288,8.06E-03,2.39E-03
155289,8.06E-03,2.35E-03
155290,8.06E-03,2.32E-03
155291,8.06E-03,2.28E-03
155292,8.06E-03,2.25E-03
155293,8.06E-03,2.21E-03
155294,8.06E-03,2.18E-03
155295,8.06E-03,2.15E-03
155296,8.06E-03,2.11E-03
155297,8.06E-03,2.08E-03
155298,8.06E-03,2.04E-03
155299,8.06E-03,2.01E-03
155300,8.06E-03,1.98E-03
155301,8.06E-03,1.94E-03
155302,8.06E-03,1.91E-03
155303,8.06E-03,1.87E-03
155304,8.06E-03,1.84E-03
155305,8.06E-03,1.81E-03
155306,8.06E-03,1.77E-03
155307,8.06E-03,1.74E-03
155308,8.06E-03,1.70E-03
155309,8.06E-03,1.67E-03
155310,8.06E-03,1.63E-03
155311,8.06E-03,1.60E-03
155312,8.06E-03,1.56E-03
155313,8.06E-03,1.53E-03
155314,8.06E-03,1.49E-03
155315,8.06E-03,1.46E-03
155316,8.06E-03,1.42E-03
155317,8.06E-03,1.39E-03
155318,8.06E-03,1.35E-03
155319,8.06E-03,1.32E-03
155320,8.06E-03,1.28E-03
155321,8.06E-03,1.25E-03
155322,8.06E-03,1.21E-03
155323,8.06E-03,1.18E-03
155324,8.06E-03,1.14E-03
155325,8.06E-03,1.11E-03
155326,8.06E-03,1.07E-03
155327,8.06E-03,1.04E-03
155328,8.06E-03,1.00E-03
155329,8.06E-03,9.70E-04
155330,8.16E-03,9.36E-04
155331,8.30E-03,9.02E-04
155332,8.40E-03,8.69E-04
155333,8.34E-03,8.38E-04
155334,8.08E-03,8.07E-04
155335,7.70E-03,7.76E-04
155336,7.47E-03,7.46E-04
155337,7.61E-03,7.16E-04
155338,7.89E-03,6.91E-04
155339,7.96E-03,6.67E-04
155340,7.50E-03,6.39E-04
155341,8.17E-03,6.13E-04
155342,7.41E-03,5.92E-04
155343,8.27E-03,2.58E-03
155344,8.33E-03,2.63E-03
155345,8.40E-03,2.67E-03
155346,8.26E-03,2.72E-03
155347,8.85E-03,2.77E-03
155348,7.91E-03,3.86E-03
155349,8.36E-03,3.92E-03
155350,7.89E-03,3.91E-03
155351,7.77E-03,3.89E-03
155352,7.83E-03,3.87E-03
155353,7.99E-03,3.86E-03
155354,8.15E-03,3.84E-03
155355,8.20E-03,3.82E-03
155356,8.29E-03,3.80E-03
155357,8.28E-03,3.78E-03
155358,8.30E-03,3.76E-03
155359,8.38E-03,3.74E-03
155360,8.36E-03,3.72E-03
155361,8.35E-03,3.70E-03
155362,8.33E-03,3.68E-03
155363,8.32E-03,3.66E-03
155364,8.31E-03,3.63E-03
155365,8.29E-03,3.61E-03
155366,8.28E-03,3.59E-03
155367,8.26E-03,3.56E-03
155368,8.25E-03,3.54E-03
155369,8.24E-03,3.51E-03
155370,8.22E-03,3.49E-03
155371,8.21E-03,3.46E-03
155372,8.19E-03,3.43E-03
155373,8.18E-03,3.41E-03
155374,8.17E-03,3.38E-03
155375,8.16E-03,3.35E-03
155376,8.15E-03,3.33E-03
155377,8.13E-03,3.30E-03
155378,8.12E-03,3.27E-03
155379,8.11E-03,3.25E-03
155380,8.10E-03,3.22E-03
155381,8.09E-03,3.19E-03
155382,8.08E-03,3.16E-03
155383,8.07E-03,3.14E-03
155384,8.07E-03,3.11E-03
155385,8.07E-03,3.08E-03
155386,8.09E-03,3.06E-03
155387,8.09E-03,3.03E-03
155388,8.08E-03,3.00E-03
155389,8.05E-03,2.98E-03
155390,8.02E-03,2.95E-03
155391,7.99E-03,2.93E-03
155392,7.85E-03,2.90E-03
155393,7.69E-03,2.88E-03
155394,7.69E-03,2.85E-03
155395,8.87E-03,2.83E-03
155396,1.02E-02,3.93E-03
155397,7.39E-03,1.96E-03
155398,8.16E-03,1.98E-03
155399,8.41E-03,2.01E-03
155400,8.35E-03,2.03E-03
155401,8.42E-03,2.06E-03
155402,8.52E-03,2.07E-03
155403,7.63E-03,2.16E-03
155404,7.55E-03,2.20E-03
155405,5.59E-03,2.23E-03
155406,5.28E-03,2.26E-03
155407,7.05E-03,2.29E-03
155408,7.10E-03,2.33E-03
155409,7.71E-03,2.37E-03
155410,8.03E-03,2.42E-03
155411,8.04E-03,2.46E-03
155412,8.04E-03,2.51E-03
155413,8.03E-03,2.56E-03
155414,8.03E-03,2.61E-03
155415,8.03E-03,2.66E-03
155416,8.03E-03,2.71E-03
155417,8.03E-03,2.77E-03
155418,8.04E-03,2.82E-03
155419,7.09E-03,2.88E-03
155420,6.01E-03,2.92E-03
155421,6.10E-03,2.97E-03
155422,6.42E-03,3.02E-03
155423,6.67E-03,3.07E-03
155424,6.76E-03,3.12E-03
155425,6.95E-03,3.18E-03
155426,7.14E-03,3.23E-03
155427,7.17E-03,3.29E-03
155428,7.27E-03,3.35E-03
155429,7.37E-03,3.41E-03
155430,7.43E-03,3.47E-03
155431,7.45E-03,3.52E-03
155432,7.36E-03,3.58E-03
155433,7.27E-03,3.65E-03
155434,7.43E-03,3.72E-03
155435,8.02E-03,3.79E-03
155436,8.42E-03,1.78E-03
155437,7.05E-03,1.74E-03
155438,9.59E-03,1.64E-03
155439,1.20E-02,1.33E-03
155440,6.28E-03,8.36E-04
155441,6.86E-03,1.57E-03
155442,6.59E-03,1.54E-03
155443,5.80E-03,1.51E-03
155444,9.52E-03,1.39E-03
155445,6.51E-03,1.41E-03
155446,5.38E-03,1.43E-03
155447,7.25E-03,8.17E-04
155448,8.95E-03,6.31E-04
155449,8.75E-03,6.40E-04
155450,8.72E-03,6.48E-04
155451,8.77E-03,6.57E-04
155452,8.73E-03,6.65E-04
155453,8.61E-03,6.71E-04
155454,8.47E-03,6.77E-04
155455,8.36E-03,6.81E-04
155456,8.12E-03,6.85E-04
155457,7.79E-03,6.88E-04
155458,7.57E-03,6.91E-04
155459,7.31E-03,6.93E-04
155460,6.94E-03,6.94E-04
155461,6.55E-03,6.95E-04
155462,6.32E-03,6.97E-04
155463,5.57E-03,6.98E-04
155464,5.31E-03,7.01E-04
155465,5.95E-03,7.05E-04
155466,6.01E-03,7.09E-04
155467,6.76E-03,7.15E-04
155468,7.16E-03,7.21E-04
155469,7.56E-03,7.27E-04
155470,7.83E-03,7.33E-04
155471,7.98E-03,7.40E-04
155472,8.04E-03,7.46E-04
155473,8.04E-03,7.53E-04
155474,7.93E-03,7.59E-04
155475,7.85E-03,7.66E-04
155476,7.71E-03,7.72E-04
155477,7.67E-03,7.78E-04
155478,7.11E-03,7.71E-04
155479,8.36E-03,7.77E-04
155480,8.27E-03,1.15E-03
155481,8.02E-03,1.14E-03
155482,7.86E-03,1.12E-03
155483,7.71E-03,1.10E-03
155484,7.59E-03,1.09E-03
155485,7.61E-03,1.07E-03
155486,7.62E-03,1.05E-03
155487,7.63E-03,1.03E-03
155488,7.63E-03,1.01E-03
155489,7.64E-03,9.96E-04
155490,7.66E-03,9.77E-04
155491,7.67E-03,9.58E-04
155492,7.68E-03,9.40E-04
155493,7.69E-03,9.21E-04
155494,7.70E-03,9.02E-04
155495,7.51E-03,8.84E-04
155496,7.35E-03,8.65E-04
155497,7.04E-03,8.46E-04
155498,7.60E-03,5.79E-04
155499,8.43E-03,1.82E-03
155500,8.18E-03,1.78E-03
155501,8.02E-03,1.74E-03
155502,7.79E-03,1.71E-03
155503,7.72E-03,1.68E-03
155504,7.76E-03,1.64E-03
155505,7.88E-03,1.60E-03
155506,7.91E-03,1.57E-03
155507,7.97E-03,1.53E-03
155508,8.06E-03,1.50E-03
155509,8.06E-03,1.46E-03
155510,8.06E-03,1.43E-03
155511,8.06E-03,1.39E-03
155512,8.06E-03,1.35E-03
155513,8.06E-03,1.32E-03
155514,8.06E-03,1.28E-03
155515,8.06E-03,1.24E-03
155516,8.06E-03,1.21E-03
155517,8.06E-03,1.17E-03
155518,8.06E-03,1.14E-03
155519,8.06E-03,1.10E-03
155520,8.06E-03,1.07E-03
155521,8.06E-03,1.04E-03
155522,8.06E-03,1.01E-03
155523,8.06E-03,9.76E-04
155524,8.06E-03,9.47E-04
155525,8.10E-03,9.19E-04
155526,8.14E-03,8.91E-04
155527,8.30E-03,8.66E-04
155528,8.42E-03,8.41E-04
155529,8.44E-03,8.18E-04
155530,8.49E-03,7.96E-04
155531,8.27E-03,7.74E-04
155532,8.15E-03,7.53E-04
155533,7.98E-03,7.33E-04
155534,7.93E-03,7.14E-04
155535,7.89E-03,6.94E-04
155536,7.79E-03,6.73E-04
155537,7.99E-03,6.51E-04
155538,8.12E-03,6.33E-04
155539,8.17E-03,6.08E-04
155540,8.20E-03,5.87E-04
155541,7.93E-03,5.65E-04
155542,7.78E-03,5.41E-04
155543,7.69E-03,5.17E-04
155544,8.65E-03,4.95E-04
155545,8.66E-03,4.67E-04
155546,7.70E-03,4.42E-04
155547,7.40E-03,4.17E-04
155548,8.32E-03,3.94E-04
155549,8.26E-03,3.67E-04
155550,7.44E-03,3.43E-04
155551,6.92E-03,3.18E-04
155552,6.46E-03,2.97E-04
155553,7.32E-03,2.91E-04
155554,8.46E-03,1.04E-03
155555,8.71E-03,1.06E-03
155556,9.75E-03,1.09E-03
155557,9.82E-03,1.12E-03
155558,9.51E-03,1.15E-03
155559,9.23E-03,1.18E-03
155560,8.92E-03,1.20E-03
155561,8.86E-03,1.22E-03
155562,7.99E-03,1.23E-03
155563,7.97E-03,1.25E-03
155564,7.86E-03,1.26E-03
155565,7.60E-03,1.27E-03
155566,7.78E-03,1.27E-03
155567,7.87E-03,1.28E-03
155568,8.91E-03,1.29E-03
155569,6.95E-03,9.63E-04
155570,9.62E-03,1.28E-03
155571,6.88E-03,1.71E-03
155572,7.67E-03,1.74E-03
155573,7.72E-03,1.59E-03
155574,7.18E-03,1.56E-03
155575,6.43E-03,1.46E-03
155576,6.43E-03,1.43E-03
155577,7.50E-03,1.70E-03
155578,7.34E-03,8.15E-04
155579,8.36E-03,5.84E-04
155580,8.57E-03,5.97E-04
155581,9.30E-03,1.24E-03
155582,8.30E-03,1.01E-03
155583,8.18E-03,1.90E-03
155584,8.65E-03,1.92E-03
155585,8.55E-03,1.95E-03
155586,8.46E-03,1.98E-03
155587,8.04E-03,2.01E-03
155588,7.36E-03,2.02E-03
155589,5.63E-03,2.03E-03
155590,5.52E-03,2.03E-03
155591,7.59E-03,2.07E-03
155592,7.99E-03,2.10E-03
155593,7.53E-03,2.15E-03
155594,5.59E-03,2.18E-03
155595,5.70E-03,2.21E-03
155596,6.97E-03,2.24E-03
155597,7.22E-03,2.28E-03
155598,7.78E-03,2.32E-03
155599,8.03E-03,2.36E-03
155600,8.04E-03,2.41E-03
155601,8.04E-03,2.46E-03
155602,8.03E-03,2.50E-03
155603,8.03E-03,2.55E-03
155604,8.03E-03,2.61E-03
155605,8.03E-03,2.66E-03
155606,8.03E-03,2.71E-03
155607,8.04E-03,2.77E-03
155608,7.16E-03,2.82E-03
155609,6.16E-03,2.87E-03
155610,6.24E-03,2.92E-03
155611,6.54E-03,2.97E-03
155612,6.74E-03,3.02E-03
155613,6.90E-03,3.08E-03
155614,7.03E-03,3.13E-03
155615,7.17E-03,3.19E-03
155616,7.22E-03,3.25E-03
155617,7.29E-03,3.31E-03
155618,7.58E-03,3.37E-03
155619,7.67E-03,3.43E-03
155620,7.61E-03,3.49E-03
155621,7.56E-03,3.56E-03
155622,7.57E-03,3.62E-03
155623,7.86E-03,3.69E-03
155624,8.59E-03,3.77E-03
155625,8.91E-03,3.95E-03
155626,6.03E-03,3.99E-03
155627,8.11E-03,3.96E-03
155628,7.76E-03,5.72E-04
155629,8.11E-03,2.54E-03
155630,8.06E-03,2.51E-03
155631,8.06E-03,2.47E-03
155632,8.06E-03,2.44E-03
155633,8.06E-03,2.40E-03
155634,8.06E-03,2.37E-03
155635,8.06E-03,2.33E-03
155636,8.06E-03,2.30E-03
155637,8.06E-03,2.26E-03
155638,8.06E-03,2.23E-03
155639,8.06E-03,2.20E-03
155640,8.06E-03,2.16E-03
155641,8.06E-03,2.13E-03
155642,8.06E-03,2.09E-03
155643,8.06E-03,2.06E-03
155644,8.06E-03,2.03E-03
155645,8.06E-03,1.99E-03
155646,8.06E-03,1.96E-03
155647,8.06E-03,1.92E-03
155648,8.06E-03,1.89E-03
155649,8.06E-03,1.86E-03
155650,8.06E-03,1.82E-03
155651,8.06E-03,1.79E-03
155652,8.06E-03,1.75E-03
155653,8.06E-03,1.72E-03
155654,8.06E-03,1.68E-03
155655,8.06E-03,1.65E-03
155656,8.06E-03,1.61E-03
155657,8.06E-03,1.58E-03
155658,8.06E-03,1.54E-03
155659,8.06E-03,1.51E-03
155660,8.06E-03,1.47E-03
155661,8.06E-03,1.44E-03
155662,8.06E-03,1.40E-03
155663,8.06E-03,1.37E-03
155664,8.06E-03,1.33E-03
155665,8.06E-03,1.30E-03
155666,8.06E-03,1.26E-03
155667,8.06E-03,1.22E-03
155668,8.06E-03,1.19E-03
155669,8.06E-03,1.15E-03
155670,8.06E-03,1.12E-03
155671,8.06E-03,1.09E-03
155672,8.06E-03,1.05E-03
155673,8.06E-03,1.02E-03
155674,8.06E-03,9.83E-04
155675,8.13E-03,9.49E-04
155676,8.18E-03,9.16E-04
155677,8.21E-03,8.83E-04
155678,8.18E-03,8.51E-04
155679,8.05E-03,8.19E-04
155680,7.84E-03,7.88E-04
155681,7.82E-03,7.56E-04
155682,7.80E-03,7.26E-04
155683,7.84E-03,6.99E-04
155684,7.77E-03,6.73E-04
155685,7.74E-03,6.48E-04
155686,7.53E-03,6.23E-04
155687,7.04E-03,5.97E-04
155688,6.46E-03,5.72E-04
155689,7.42E-03,5.38E-04
155690,7.06E-03,5.23E-04
155691,8.29E-03,2.59E-03
155692,6.68E-03,8.92E-04
155693,7.22E-03,8.86E-04
155694,6.76E-03,8.44E-04
155695,6.73E-03,8.58E-04
155696,6.21E-03,8.60E-04
155697,7.40E-03,9.83E-04
155698,8.20E-03,1.96E-03
155699,1.16E-02,1.87E-03
155700,1.05E-02,1.83E-03
155701,1.04E-02,1.80E-03
155702,1.06E-02,1.76E-03
155703,1.03E-02,1.73E-03
155704,9.81E-03,1.69E-03
155705,9.63E-03,1.65E-03
155706,9.54E-03,1.62E-03
155707,9.56E-03,1.58E-03
155708,9.46E-03,1.54E-03
155709,9.25E-03,1.51E-03
155710,9.07E-03,1.47E-03
155711,8.93E-03,1.44E-03
155712,8.90E-03,1.40E-03
155713,9.04E-03,1.36E-03
155714,9.21E-03,1.33E-03
155715,1.04E-02,1.29E-03
155716,8.33E-03,2.64E-03
155717,8.25E-03,2.68E-03
155718,8.23E-03,2.73E-03
155719,8.21E-03,2.81E-03
155720,8.92E-03,2.77E-03
155721,6.26E-03,4.05E-03
155722,8.06E-03,4.03E-03
155723,8.75E-03,4.01E-03
155724,8.53E-03,3.99E-03
155725,8.15E-03,3.97E-03
155726,7.96E-03,3.95E-03
155727,7.96E-03,3.94E-03
155728,8.07E-03,3.92E-03
155729,8.16E-03,3.90E-03
155730,8.27E-03,3.88E-03
155731,8.36E-03,3.86E-03
155732,8.37E-03,3.84E-03
155733,8.36E-03,3.82E-03
155734,8.35E-03,3.80E-03
155735,8.34E-03,3.78E-03
155736,8.33E-03,3.76E-03
155737,8.31E-03,3.73E-03
155738,8.30E-03,3.71E-03
155739,8.29E-03,3.69E-03
155740,8.27E-03,3.66E-03
155741,8.26E-03,3.64E-03
155742,8.25E-03,3.61E-03
155743,8.24E-03,3.59E-03
155744,8.22E-03,3.56E-03
155745,8.21E-03,3.53E-03
155746,8.20E-03,3.51E-03
155747,8.18E-03,3.48E-03
155748,8.17E-03,3.45E-03
155749,8.16E-03,3.43E-03
155750,8.15E-03,3.40E-03
155751,8.14E-03,3.37E-03
155752,8.13E-03,3.34E-03
155753,8.12E-03,3.31E-03
155754,8.11E-03,3.29E-03
155755,8.09E-03,3.26E-03
155756,8.08E-03,3.23E-03
155757,8.07E-03,3.20E-03
155758,8.06E-03,3.17E-03
155759,8.06E-03,3.15E-03
155760,8.07E-03,3.12E-03
155761,8.08E-03,3.09E-03
155762,8.09E-03,3.06E-03
155763,8.08E-03,3.04E-03
155764,8.05E-03,3.01E-03
155765,8.02E-03,2.98E-03
155766,7.99E-03,2.96E-03
155767,7.91E-03,2.93E-03
155768,7.94E-03,2.90E-03
155769,8.11E-03,2.88E-03
155770,7.68E-03,2.86E-03
155771,7.54E-03,8.25E-04
155772,8.17E-03,8.05E-04
155773,8.60E-03,7.86E-04
155774,8.58E-03,7.63E-04
155775,8.63E-03,7.39E-04
155776,8.68E-03,7.12E-04
155777,8.21E-03,6.87E-04
155778,8.10E-03,6.61E-04
155779,7.95E-03,6.36E-04
155780,7.80E-03,6.10E-04
155781,7.53E-03,5.84E-04
155782,7.25E-03,5.56E-04
155783,7.25E-03,5.28E-04
155784,6.96E-03,5.06E-04
155785,6.79E-03,4.84E-04
155786,6.74E-03,4.60E-04
155787,6.51E-03,4.36E-04
155788,6.55E-03,4.10E-04
155789,6.30E-03,3.91E-04
155790,6.72E-03,3.71E-04
155791,6.30E-03,3.48E-04
155792,6.09E-03,3.26E-04
155793,5.29E-03,3.03E-04
155794,4.38E-03,2.85E-04
155795,3.62E-03,2.75E-04
155796,4.83E-03,2.62E-04
155797,6.69E-03,2.80E-03
155798,6.97E-03,7.40E-04
155799,6.74E-03,1.52E-03
155800,6.31E-03,1.49E-03
155801,6.96E-03,1.41E-03
155802,7.46E-03,1.67E-03
155803,5.84E-03,7.87E-04
155804,8.88E-03,6.05E-04
155805,8.79E-03,6.13E-04
155806,8.79E-03,6.21E-04
155807,8.69E-03,6.29E-04
155808,8.62E-03,6.36E-04
155809,8.56E-03,6.42E-04
155810,8.39E-03,6.47E-04
155811,8.24E-03,6.51E-04
155812,8.10E-03,6.54E-04
155813,7.89E-03,6.57E-04
155814,7.70E-03,6.58E-04
155815,7.43E-03,6.60E-04
155816,7.06E-03,6.60E-04
155817,6.66E-03,6.61E-04
155818,6.31E-03,6.62E-04
155819,5.90E-03,6.64E-04
155820,5.45E-03,6.66E-04
155821,5.73E-03,6.69E-04
155822,6.27E-03,6.73E-04
155823,6.89E-03,6.77E-04
155824,7.28E-03,6.83E-04
155825,7.70E-03,6.89E-04
155826,7.96E-03,6.94E-04
155827,8.04E-03,7.00E-04
155828,8.04E-03,7.06E-04
155829,8.04E-03,7.13E-04
155830,7.99E-03,7.19E-04
155831,7.87E-03,7.25E-04
155832,7.72E-03,7.31E-04
155833,7.77E-03,7.35E-04
155834,7.42E-03,7.36E-04
155835,8.09E-03,1.12E-03
155836,7.94E-03,1.10E-03
155837,7.76E-03,1.08E-03
155838,7.67E-03,1.06E-03
155839,7.63E-03,1.05E-03
155840,7.65E-03,1.03E-03
155841,7.65E-03,1.01E-03
155842,7.66E-03,9.90E-04
155843,7.67E-03,9.72E-04
155844,7.68E-03,9.53E-04
155845,7.69E-03,9.34E-04
155846,7.70E-03,9.15E-04
155847,7.71E-03,8.96E-04
155848,7.72E-03,8.78E-04
155849,7.73E-03,8.59E-04
155850,7.54E-03,8.40E-04
155851,7.52E-03,8.22E-04
155852,7.39E-03,8.05E-04
155853,8.24E-03,7.94E-04
155854,8.59E-03,1.03E-03
155855,9.06E-03,1.06E-03
155856,9.66E-03,1.09E-03
155857,9.52E-03,1.12E-03
155858,9.33E-03,1.14E-03
155859,9.07E-03,1.17E-03
155860,8.90E-03,1.19E-03
155861,8.77E-03,1.20E-03
155862,8.05E-03,1.22E-03
155863,7.96E-03,1.23E-03
155864,7.80E-03,1.23E-03
155865,7.47E-03,1.24E-03
155866,7.59E-03,1.25E-03
155867,7.70E-03,1.25E-03
155868,8.30E-03,1.25E-03
155869,5.66E-03,9.51E-04
155870,6.73E-03,9.68E-04
155871,8.86E-03,3.94E-03
155872,8.64E-03,3.86E-03
155873,8.83E-03,3.80E-03
155874,8.69E-03,3.74E-03
155875,8.29E-03,3.66E-03
155876,7.89E-03,3.59E-03
155877,7.74E-03,3.53E-03
155878,7.74E-03,3.46E-03
155879,7.76E-03,3.40E-03
155880,7.60E-03,3.33E-03
155881,7.36E-03,3.27E-03
155882,7.29E-03,3.21E-03
155883,7.20E-03,3.15E-03
155884,7.11E-03,3.09E-03
155885,6.99E-03,3.03E-03
155886,6.84E-03,2.97E-03
155887,6.66E-03,2.92E-03
155888,6.39E-03,2.86E-03
155889,6.31E-03,2.82E-03
155890,7.23E-03,2.77E-03
155891,8.04E-03,2.71E-03
155892,8.03E-03,2.65E-03
155893,8.03E-03,2.60E-03
155894,8.03E-03,2.55E-03
155895,8.03E-03,2.49E-03
155896,8.03E-03,2.44E-03
155897,8.04E-03,2.40E-03
155898,8.04E-03,2.35E-03
155899,8.03E-03,2.31E-03
155900,7.89E-03,2.26E-03
155901,7.51E-03,2.22E-03
155902,7.01E-03,2.18E-03
155903,5.88E-03,2.16E-03
155904,5.04E-03,2.13E-03
155905,7.13E-03,2.10E-03
155906,7.97E-03,2.04E-03
155907,7.36E-03,5.59E-04
155908,6.24E-03,5.43E-04
155909,4.43E-03,5.29E-04
155910,3.94E-03,5.32E-04
155911,4.77E-03,5.35E-04
155912,5.24E-03,5.16E-04
155913,6.13E-03,5.14E-04
155914,7.91E-03,1.58E-03
155915,7.29E-03,1.54E-03
155916,9.78E-03,1.25E-03
155917,9.86E-03,1.29E-03
155918,8.06E-03,2.55E-03
155919,8.06E-03,2.52E-03
155920,8.06E-03,2.48E-03
155921,8.06E-03,2.45E-03
155922,8.06E-03,2.42E-03
155923,8.06E-03,2.38E-03
155924,8.06E-03,2.35E-03
155925,8.06E-03,2.31E-03
155926,8.06E-03,2.28E-03
155927,8.06E-03,2.24E-03
155928,8.06E-03,2.21E-03
155929,8.06E-03,2.18E-03
155930,8.06E-03,2.14E-03
155931,8.06E-03,2.11E-03
155932,8.06E-03,2.08E-03
155933,8.06E-03,2.04E-03
155934,8.06E-03,2.01E-03
155935,8.06E-03,1.97E-03
155936,8.06E-03,1.94E-03
155937,8.06E-03,1.90E-03
155938,8.06E-03,1.87E-03
155939,8.06E-03,1.84E-03
155940,8.06E-03,1.80E-03
155941,8.06E-03,1.77E-03
155942,8.06E-03,1.73E-03
155943,8.06E-03,1.70E-03
155944,8.06E-03,1.66E-03
155945,8.06E-03,1.63E-03
155946,8.06E-03,1.59E-03
155947,8.06E-03,1.56E-03
155948,8.06E-03,1.52E-03
155949,8.06E-03,1.49E-03
155950,8.06E-03,1.45E-03
155951,8.06E-03,1.42E-03
155952,8.06E-03,1.38E-03
155953,8.06E-03,1.34E-03
155954,8.06E-03,1.31E-03
155955,8.06E-03,1.27E-03
155956,8.06E-03,1.24E-03
155957,8.06E-03,1.20E-03
155958,8.06E-03,1.17E-03
155959,8.06E-03,1.13E-03
155960,8.06E-03,1.10E-03
155961,8.06E-03,1.06E-03
155962,8.06E-03,1.03E-03
155963,8.06E-03,9.96E-04
155964,8.06E-03,9.62E-04
155965,8.06E-03,9.28E-04
155966,8.06E-03,8.95E-04
155967,8.06E-03,8.62E-04
155968,8.00E-03,8.30E-04
155969,7.95E-03,7.99E-04
155970,7.96E-03,7.67E-04
155971,8.02E-03,7.37E-04
155972,7.94E-03,7.08E-04
155973,7.82E-03,6.81E-04
155974,7.72E-03,6.55E-04
155975,7.60E-03,6.29E-04
155976,7.44E-03,6.01E-04
155977,7.42E-03,5.72E-04
155978,7.33E-03,5.47E-04
155979,7.72E-03,5.25E-04
155980,9.01E-03,1.87E-03
155981,8.75E-03,1.90E-03
155982,8.75E-03,1.93E-03
155983,7.39E-03,1.95E-03
155984,6.78E-03,1.97E-03
155985,6.41E-03,1.98E-03
155986,7.42E-03,1.98E-03
155987,6.08E-03,9.12E-04
155988,7.09E-03,8.76E-04
155989,8.53E-03,8.75E-04
155990,8.26E-03,1.70E-03
155991,9.64E-03,1.21E-03
155992,6.67E-03,1.44E-03
155993,6.82E-03,1.42E-03
155994,7.38E-03,1.67E-03
155995,8.10E-03,1.01E-03
155996,7.08E-03,9.87E-04
155997,7.65E-03,2.86E-04
155998,7.03E-03,3.13E-04
155999,7.44E-03,3.37E-04
156000,7.64E-03,3.60E-04
156001,7.99E-03,3.85E-04
156002,7.88E-03,4.09E-04
156003,8.01E-03,4.33E-04
156004,8.07E-03,4.57E-04
156005,8.16E-03,4.83E-04
156006,8.03E-03,5.05E-04
156007,7.91E-03,5.28E-04
156008,7.99E-03,5.51E-04
156009,8.06E-03,5.73E-04
156010,8.07E-03,5.96E-04
156011,8.08E-03,6.18E-04
156012,8.09E-03,6.40E-04
156013,8.00E-03,6.60E-04
156014,7.93E-03,6.81E-04
156015,7.94E-03,7.02E-04
156016,7.99E-03,7.23E-04
156017,8.17E-03,7.44E-04
156018,8.20E-03,7.65E-04
156019,8.20E-03,7.88E-04
156020,8.29E-03,8.11E-04
156021,8.30E-03,8.35E-04
156022,8.23E-03,8.60E-04
156023,8.12E-03,8.87E-04
156024,8.06E-03,9.15E-04
156025,8.06E-03,9.44E-04
156026,8.06E-03,9.74E-04
156027,8.06E-03,1.01E-03
156028,8.06E-03,1.04E-03
156029,8.06E-03,1.07E-03
156030,8.06E-03,1.10E-03
156031,8.06E-03,1.14E-03
156032,8.06E-03,1.17E-03
156033,8.06E-03,1.21E-03
156034,8.06E-03,1.24E-03
156035,8.06E-03,1.28E-03
156036,8.06E-03,1.32E-03
156037,8.06E-03,1.35E-03
156038,8.06E-03,1.39E-03
156039,8.06E-03,1.43E-03
156040,8.06E-03,1.46E-03
156041,8.06E-03,1.50E-03
156042,8.06E-03,1.53E-03
156043,7.98E-03,1.57E-03
156044,7.94E-03,1.61E-03
156045,7.87E-03,1.64E-03
156046,7.88E-03,1.68E-03
156047,7.92E-03,1.71E-03
156048,8.06E-03,1.75E-03
156049,8.24E-03,1.78E-03
156050,8.40E-03,1.82E-03
156051,8.66E-03,1.86E-03
156052,8.79E-03,1.89E-03
156053,8.66E-03,1.93E-03
156054,7.65E-03,1.96E-03
156055,8.02E-03,2.03E-03
156056,8.22E-03,2.01E-03
156057,9.17E-03,1.98E-03
156058,1.15E-02,1.94E-03
156059,1.24E-02,1.89E-03
156060,1.08E-02,1.86E-03
156061,1.05E-02,1.82E-03
156062,1.03E-02,1.78E-03
156063,1.03E-02,1.75E-03
156064,1.00E-02,1.71E-03
156065,9.98E-03,1.67E-03
156066,9.62E-03,1.64E-03
156067,9.47E-03,1.60E-03
156068,9.34E-03,1.56E-03
156069,9.23E-03,1.52E-03
156070,9.12E-03,1.49E-03
156071,9.03E-03,1.45E-03
156072,8.92E-03,1.41E-03
156073,8.89E-03,1.37E-03
156074,8.99E-03,1.34E-03
156075,9.08E-03,1.25E-03
156076,9.46E-03,1.31E-03
156077,8.96E-03,1.27E-03
156078,7.05E-03,7.71E-04
156079,7.96E-03,2.56E-04
156080,7.77E-03,8.39E-04
156081,8.46E-03,8.22E-04
156082,8.48E-03,8.02E-04
156083,8.57E-03,7.78E-04
156084,8.49E-03,7.54E-04
156085,8.51E-03,7.28E-04
156086,8.22E-03,7.00E-04
156087,8.01E-03,6.73E-04
156088,7.87E-03,6.47E-04
156089,7.82E-03,6.20E-04
156090,7.68E-03,5.92E-04
156091,7.72E-03,5.64E-04
156092,7.32E-03,5.38E-04
156093,7.14E-03,5.13E-04
156094,7.00E-03,4.89E-04
156095,6.84E-03,4.64E-04
156096,6.75E-03,4.40E-04
156097,6.74E-03,4.16E-04
156098,6.47E-03,3.93E-04
156099,6.54E-03,3.72E-04
156100,6.23E-03,3.50E-04
156101,5.91E-03,3.29E-04
156102,5.31E-03,3.08E-04
156103,4.76E-03,2.90E-04
156104,4.67E-03,2.72E-04
156105,5.90E-03,2.40E-04
156106,6.26E-03,2.54E-04
156107,7.52E-03,5.52E-04
156108,7.84E-03,5.63E-04
156109,8.04E-03,5.72E-04
156110,8.23E-03,2.60E-03
156111,8.24E-03,2.65E-03
156112,8.18E-03,2.69E-03
156113,8.26E-03,2.73E-03
156114,7.64E-03,2.77E-03
156115,6.93E-03,4.17E-03
156116,7.44E-03,4.16E-03
156117,9.16E-03,4.14E-03
156118,7.45E-03,4.12E-03
156119,7.43E-03,4.11E-03
156120,7.68E-03,4.10E-03
156121,8.19E-03,4.08E-03
156122,8.41E-03,4.06E-03
156123,8.43E-03,4.04E-03
156124,8.33E-03,4.02E-03
156125,8.23E-03,4.00E-03
156126,8.17E-03,3.99E-03
156127,8.24E-03,3.97E-03
156128,8.32E-03,3.95E-03
156129,8.34E-03,3.93E-03
156130,8.34E-03,3.90E-03
156131,8.34E-03,3.88E-03
156132,8.33E-03,3.86E-03
156133,8.31E-03,3.84E-03
156134,8.30E-03,3.81E-03
156135,8.29E-03,3.79E-03
156136,8.28E-03,3.77E-03
156137,8.27E-03,3.74E-03
156138,8.26E-03,3.72E-03
156139,8.24E-03,3.69E-03
156140,8.23E-03,3.66E-03
156141,8.22E-03,3.64E-03
156142,8.21E-03,3.61E-03
156143,8.20E-03,3.58E-03
156144,8.18E-03,3.55E-03
156145,8.17E-03,3.53E-03
156146,8.16E-03,3.50E-03
156147,8.15E-03,3.47E-03
156148,8.14E-03,3.44E-03
156149,8.13E-03,3.41E-03
156150,8.12E-03,3.38E-03
156151,8.11E-03,3.35E-03
156152,8.10E-03,3.32E-03
156153,8.09E-03,3.30E-03
156154,8.08E-03,3.27E-03
156155,8.07E-03,3.24E-03
156156,8.06E-03,3.21E-03
156157,8.06E-03,3.18E-03
156158,8.07E-03,3.15E-03
156159,8.08E-03,3.12E-03
156160,8.08E-03,3.10E-03
156161,8.07E-03,3.07E-03
156162,8.05E-03,3.04E-03
156163,8.02E-03,3.01E-03
156164,7.99E-03,2.98E-03
156165,7.91E-03,2.96E-03
156166,7.80E-03,2.93E-03
156167,7.63E-03,2.91E-03
156168,7.20E-03,2.88E-03
156169,6.30E-03,2.80E-03
156170,6.93E-03,1.51E-03
156171,6.65E-03,1.47E-03
156172,6.65E-03,5.41E-04
156173,6.03E-03,5.29E-04
156174,5.58E-03,5.21E-04
156175,4.96E-03,5.23E-04
156176,5.01E-03,5.15E-04
156177,5.81E-03,5.02E-04
156178,7.59E-03,4.95E-04
156179,8.91E-03,4.88E-04
156180,8.76E-03,4.68E-04
156181,6.68E-03,9.05E-04
156182,6.94E-03,8.98E-04
156183,8.01E-03,8.96E-04
156184,9.21E-03,1.82E-03
156185,8.80E-03,1.85E-03
156186,8.66E-03,1.87E-03
156187,7.45E-03,1.89E-03
156188,6.89E-03,1.91E-03
156189,5.93E-03,1.93E-03
156190,5.70E-03,1.94E-03
156191,5.62E-03,1.91E-03
156192,1.07E-02,1.17E-03
156193,8.42E-03,1.12E-03
156194,7.49E-03,1.39E-03
156195,7.93E-03,1.36E-03
156196,7.65E-03,1.64E-03
156197,7.83E-03,1.61E-03
156198,7.96E-03,1.59E-03
156199,7.74E-03,1.55E-03
156200,6.80E-03,9.81E-04
156201,8.74E-03,1.03E-03
156202,9.18E-03,1.06E-03
156203,9.41E-03,1.08E-03
156204,9.46E-03,1.11E-03
156205,9.15E-03,1.13E-03
156206,9.04E-03,1.16E-03
156207,8.86E-03,1.17E-03
156208,8.60E-03,1.19E-03
156209,8.10E-03,1.20E-03
156210,7.95E-03,1.21E-03
156211,7.75E-03,1.21E-03
156212,7.48E-03,1.22E-03
156213,7.52E-03,1.22E-03
156214,7.67E-03,1.22E-03
156215,7.58E-03,1.21E-03
156216,7.00E-03,1.21E-03
156217,7.44E-03,9.02E-04
156218,6.00E-03,9.33E-04
156219,7.94E-03,1.01E-03
156220,9.82E-03,2.03E-03
156221,1.01E-02,1.99E-03
156222,1.07E-02,1.95E-03
156223,1.10E-02,1.91E-03
156224,1.08E-02,1.88E-03
156225,1.04E-02,1.84E-03
156226,1.03E-02,1.80E-03
156227,1.02E-02,1.76E-03
156228,9.86E-03,1.73E-03
156229,9.73E-03,1.69E-03
156230,9.49E-03,1.65E-03
156231,9.34E-03,1.62E-03
156232,9.23E-03,1.58E-03
156233,9.13E-03,1.54E-03
156234,9.03E-03,1.50E-03
156235,8.95E-03,1.46E-03
156236,8.89E-03,1.42E-03
156237,8.91E-03,1.38E-03
156238,8.83E-03,1.34E-03
156239,7.89E-03,1.31E-03
156240,5.15E-03,1.27E-03
156241,5.58E-03,7.47E-04
156242,7.71E-03,2.54E-04
156243,7.83E-03,2.82E-04
156244,8.11E-03,3.06E-04
156245,7.99E-03,3.28E-04
156246,7.76E-03,3.51E-04
156247,7.93E-03,3.75E-04
156248,7.94E-03,3.99E-04
156249,8.11E-03,4.23E-04
156250,8.00E-03,4.46E-04
156251,8.11E-03,4.69E-04
156252,8.11E-03,4.93E-04
156253,8.06E-03,5.15E-04
156254,8.06E-03,5.38E-04
156255,8.06E-03,5.60E-04
156256,8.06E-03,5.83E-04
156257,8.06E-03,6.05E-04
156258,8.06E-03,6.27E-04
156259,8.06E-03,6.48E-04
156260,8.06E-03,6.69E-04
156261,8.06E-03,6.91E-04
156262,8.06E-03,7.13E-04
156263,8.06E-03,7.35E-04
156264,8.12E-03,7.58E-04
156265,8.19E-03,7.81E-04
156266,8.18E-03,8.04E-04
156267,8.15E-03,8.29E-04
156268,8.13E-03,8.55E-04
156269,8.06E-03,8.83E-04
156270,8.06E-03,9.11E-04
156271,8.06E-03,9.41E-04
156272,8.06E-03,9.71E-04
156273,8.06E-03,1.00E-03
156274,8.06E-03,1.04E-03
156275,8.06E-03,1.07E-03
156276,8.06E-03,1.10E-03
156277,8.06E-03,1.14E-03
156278,8.06E-03,1.17E-03
156279,8.06E-03,1.21E-03
156280,8.06E-03,1.24E-03
156281,8.06E-03,1.28E-03
156282,8.06E-03,1.32E-03
156283,8.06E-03,1.35E-03
156284,8.06E-03,1.39E-03
156285,8.06E-03,1.43E-03
156286,8.06E-03,1.46E-03
156287,8.06E-03,1.50E-03
156288,8.06E-03,1.53E-03
156289,8.06E-03,1.57E-03
156290,8.06E-03,1.61E-03
156291,8.00E-03,1.64E-03
156292,8.03E-03,1.68E-03
156293,8.06E-03,1.71E-03
156294,8.12E-03,1.75E-03
156295,8.24E-03,1.79E-03
156296,8.35E-03,1.82E-03
156297,8.41E-03,1.86E-03
156298,8.38E-03,1.89E-03
156299,8.15E-03,1.92E-03
156300,7.48E-03,1.95E-03
156301,7.09E-03,1.99E-03
156302,7.23E-03,2.02E-03
156303,8.31E-03,2.05E-03
156304,8.98E-03,8.59E-04
156305,8.57E-03,8.42E-04
156306,8.48E-03,8.20E-04
156307,8.52E-03,7.96E-04
156308,8.48E-03,7.70E-04
156309,8.39E-03,7.43E-04
156310,8.20E-03,7.14E-04
156311,7.99E-03,6.86E-04
156312,7.86E-03,6.57E-04
156313,7.81E-03,6.29E-04
156314,7.74E-03,6.00E-04
156315,7.62E-03,5.73E-04
156316,7.41E-03,5.46E-04
156317,7.28E-03,5.20E-04
156318,7.15E-03,4.94E-04
156319,7.03E-03,4.69E-04
156320,6.90E-03,4.44E-04
156321,6.80E-03,4.21E-04
156322,6.65E-03,3.97E-04
156323,6.52E-03,3.74E-04
156324,6.19E-03,3.52E-04
156325,5.97E-03,3.31E-04
156326,5.32E-03,3.11E-04
156327,5.30E-03,2.92E-04
156328,5.27E-03,2.73E-04
156329,5.62E-03,2.55E-04
156330,5.00E-03,2.32E-04
156331,6.31E-03,2.29E-04
156332,6.95E-03,2.19E-04
156333,7.15E-03,9.98E-04
156334,7.24E-03,1.52E-03
156335,9.28E-03,1.22E-03
156336,9.27E-03,1.26E-03
156337,8.51E-03,1.33E-03
156338,9.44E-03,1.18E-03
156339,8.50E-03,5.81E-04
156340,8.64E-03,5.89E-04
156341,8.82E-03,5.96E-04
156342,8.64E-03,6.03E-04
156343,8.51E-03,6.09E-04
156344,8.48E-03,6.14E-04
156345,8.29E-03,6.18E-04
156346,8.22E-03,6.22E-04
156347,8.12E-03,6.24E-04
156348,7.98E-03,6.26E-04
156349,7.80E-03,6.27E-04
156350,7.53E-03,6.28E-04
156351,7.19E-03,6.28E-04
156352,6.76E-03,6.28E-04
156353,6.34E-03,6.28E-04
156354,6.00E-03,6.30E-04
156355,5.42E-03,6.32E-04
156356,5.73E-03,6.34E-04
156357,6.63E-03,6.37E-04
156358,7.04E-03,6.41E-04
156359,7.45E-03,6.46E-04
156360,7.82E-03,6.51E-04
156361,8.04E-03,6.56E-04
156362,8.04E-03,6.62E-04
156363,8.04E-03,6.67E-04
156364,8.04E-03,6.73E-04
156365,8.04E-03,6.79E-04
156366,7.95E-03,6.84E-04
156367,7.70E-03,6.89E-04
156368,7.55E-03,6.93E-04
156369,7.30E-03,6.98E-04
156370,6.85E-03,7.02E-04
156371,6.55E-03,7.06E-04
156372,5.24E-03,7.01E-04
156373,5.88E-03,7.08E-04
156374,6.62E-03,7.24E-04
156375,7.46E-03,7.48E-04
156376,7.66E-03,7.64E-04
156377,7.57E-03,7.79E-04
156378,7.67E-03,7.97E-04
156379,7.76E-03,8.15E-04
156380,7.75E-03,8.33E-04
156381,7.74E-03,8.52E-04
156382,7.73E-03,8.71E-04
156383,7.72E-03,8.90E-04
156384,7.71E-03,9.09E-04
156385,7.70E-03,9.28E-04
156386,7.70E-03,9.47E-04
156387,7.69E-03,9.66E-04
156388,7.68E-03,9.85E-04
156389,7.67E-03,1.00E-03
156390,7.72E-03,1.02E-03
156391,7.71E-03,1.04E-03
156392,7.74E-03,1.06E-03
156393,7.76E-03,1.07E-03
156394,6.91E-03,1.09E-03
156395,5.18E-03,1.09E-03
156396,7.42E-03,5.44E-04
156397,7.77E-03,5.50E-04
156398,7.19E-03,5.37E-04
156399,6.59E-03,4.40E-04
156400,8.11E-03,4.50E-04
156401,4.94E-03,1.89E-03
156402,8.47E-03,1.67E-03
156403,8.83E-03,1.70E-03
156404,7.27E-03,1.64E-03
156405,5.60E-03,1.87E-03
156406,8.06E-03,2.57E-03
156407,8.06E-03,2.53E-03
156408,8.06E-03,2.50E-03
156409,8.06E-03,2.46E-03
156410,8.06E-03,2.43E-03
156411,8.06E-03,2.39E-03
156412,8.06E-03,2.36E-03
156413,8.06E-03,2.33E-03
156414,8.06E-03,2.29E-03
156415,8.06E-03,2.26E-03
156416,8.06E-03,2.22E-03
156417,8.06E-03,2.19E-03
156418,8.06E-03,2.16E-03
156419,8.06E-03,2.12E-03
156420,8.06E-03,2.09E-03
156421,8.06E-03,2.06E-03
156422,8.06E-03,2.02E-03
156423,8.06E-03,1.99E-03
156424,8.06E-03,1.95E-03
156425,8.06E-03,1.92E-03
156426,8.06E-03,1.88E-03
156427,8.06E-03,1.85E-03
156428,8.06E-03,1.82E-03
156429,8.06E-03,1.78E-03
156430,8.06E-03,1.75E-03
156431,8.06E-03,1.71E-03
156432,8.06E-03,1.68E-03
156433,8.06E-03,1.64E-03
156434,8.06E-03,1.61E-03
156435,8.06E-03,1.57E-03
156436,8.06E-03,1.54E-03
156437,8.06E-03,1.50E-03
156438,8.06E-03,1.46E-03
156439,8.06E-03,1.43E-03
156440,8.06E-03,1.39E-03
156441,8.06E-03,1.36E-03
156442,8.06E-03,1.32E-03
156443,8.06E-03,1.29E-03
156444,8.06E-03,1.25E-03
156445,8.06E-03,1.22E-03
156446,8.06E-03,1.18E-03
156447,8.06E-03,1.15E-03
156448,8.06E-03,1.11E-03
156449,8.06E-03,1.08E-03
156450,8.06E-03,1.04E-03
156451,8.06E-03,1.01E-03
156452,8.06E-03,9.73E-04
156453,8.06E-03,9.40E-04
156454,8.06E-03,9.06E-04
156455,8.06E-03,8.74E-04
156456,8.06E-03,8.41E-04
156457,8.06E-03,8.09E-04
156458,8.06E-03,7.78E-04
156459,8.06E-03,7.47E-04
156460,8.01E-03,7.17E-04
156461,7.87E-03,6.89E-04
156462,7.74E-03,6.62E-04
156463,7.69E-03,6.35E-04
156464,7.65E-03,6.06E-04
156465,7.72E-03,5.78E-04
156466,7.67E-03,5.54E-04
156467,8.20E-03,5.28E-04
156468,8.12E-03,4.65E-04
156469,5.76E-03,4.47E-04
156470,5.61E-03,4.40E-04
156471,6.95E-03,1.43E-03
156472,7.12E-03,1.40E-03
156473,8.16E-03,2.61E-03
156474,8.10E-03,2.66E-03
156475,8.15E-03,2.70E-03
156476,8.02E-03,2.74E-03
156477,7.30E-03,2.77E-03
156478,6.33E-03,2.00E-03
156479,5.99E-03,2.04E-03
156480,4.84E-03,2.07E-03
156481,5.86E-03,2.09E-03
156482,7.25E-03,2.12E-03
156483,7.66E-03,2.16E-03
156484,7.97E-03,2.20E-03
156485,8.03E-03,2.24E-03
156486,8.04E-03,2.29E-03
156487,8.04E-03,2.33E-03
156488,8.03E-03,2.38E-03
156489,8.03E-03,2.43E-03
156490,8.03E-03,2.48E-03
156491,8.03E-03,2.54E-03
156492,8.03E-03,2.59E-03
156493,8.03E-03,2.65E-03
156494,7.30E-03,2.70E-03
156495,6.47E-03,2.76E-03
156496,6.53E-03,2.81E-03
156497,6.78E-03,2.86E-03
156498,6.95E-03,2.92E-03
156499,7.08E-03,2.98E-03
156500,7.19E-03,3.04E-03
156501,7.28E-03,3.10E-03
156502,7.35E-03,3.16E-03
156503,7.42E-03,3.23E-03
156504,7.59E-03,3.29E-03
156505,7.86E-03,3.36E-03
156506,7.88E-03,3.43E-03
156507,7.99E-03,3.50E-03
156508,8.11E-03,3.56E-03
156509,8.33E-03,3.63E-03
156510,8.50E-03,3.70E-03
156511,8.59E-03,3.77E-03
156512,8.57E-03,3.84E-03
156513,8.92E-03,3.91E-03
156514,8.44E-03,4.14E-03
156515,8.07E-03,4.23E-03
156516,6.85E-03,4.24E-03
156517,5.80E-03,4.23E-03
156518,6.41E-03,4.23E-03
156519,7.68E-03,4.22E-03
156520,7.75E-03,4.20E-03
156521,7.82E-03,4.18E-03
156522,7.90E-03,4.17E-03
156523,8.08E-03,4.15E-03
156524,8.30E-03,4.13E-03
156525,8.31E-03,4.11E-03
156526,8.24E-03,4.09E-03
156527,8.25E-03,4.07E-03
156528,8.27E-03,4.05E-03
156529,8.28E-03,4.03E-03
156530,8.30E-03,4.01E-03
156531,8.31E-03,3.99E-03
156532,8.32E-03,3.97E-03
156533,8.31E-03,3.94E-03
156534,8.30E-03,3.92E-03
156535,8.29E-03,3.90E-03
156536,8.28E-03,3.87E-03
156537,8.27E-03,3.85E-03
156538,8.26E-03,3.82E-03
156539,8.25E-03,3.80E-03
156540,8.24E-03,3.77E-03
156541,8.23E-03,3.74E-03
156542,8.21E-03,3.71E-03
156543,8.20E-03,3.69E-03
156544,8.19E-03,3.66E-03
156545,8.18E-03,3.63E-03
156546,8.17E-03,3.60E-03
156547,8.16E-03,3.57E-03
156548,8.15E-03,3.54E-03
156549,8.14E-03,3.51E-03
156550,8.13E-03,3.48E-03
156551,8.12E-03,3.45E-03
156552,8.11E-03,3.42E-03
156553,8.10E-03,3.39E-03
156554,8.09E-03,3.36E-03
156555,8.09E-03,3.33E-03
156556,8.08E-03,3.30E-03
156557,8.07E-03,3.27E-03
156558,8.06E-03,3.24E-03
156559,8.06E-03,3.21E-03
156560,8.07E-03,3.18E-03
156561,8.08E-03,3.16E-03
156562,8.08E-03,3.13E-03
156563,8.07E-03,3.10E-03
156564,8.05E-03,3.07E-03
156565,8.03E-03,3.04E-03
156566,8.00E-03,3.01E-03
156567,7.87E-03,2.98E-03
156568,7.75E-03,2.96E-03
156569,7.53E-03,2.93E-03
156570,7.16E-03,2.91E-03
156571,6.53E-03,2.89E-03
156572,6.10E-03,2.86E-03
156573,6.16E-03,2.84E-03
156574,6.84E-03,2.81E-03
156575,6.75E-03,2.28E-04
156576,6.83E-03,2.53E-04
156577,5.66E-03,2.74E-04
156578,5.35E-03,2.94E-04
156579,5.39E-03,3.13E-04
156580,6.26E-03,3.33E-04
156581,6.36E-03,3.55E-04
156582,6.62E-03,3.77E-04
156583,6.81E-03,4.01E-04
156584,7.00E-03,4.25E-04
156585,7.08E-03,4.50E-04
156586,7.20E-03,4.74E-04
156587,7.30E-03,5.00E-04
156588,7.42E-03,5.26E-04
156589,7.54E-03,5.53E-04
156590,7.61E-03,5.80E-04
156591,7.80E-03,6.09E-04
156592,7.84E-03,6.38E-04
156593,7.89E-03,6.68E-04
156594,8.03E-03,6.98E-04
156595,8.17E-03,7.28E-04
156596,8.29E-03,7.58E-04
156597,8.42E-03,7.87E-04
156598,8.50E-03,8.15E-04
156599,8.35E-03,8.39E-04
156600,8.49E-03,8.62E-04
156601,9.04E-03,8.81E-04
156602,6.52E-03,9.23E-04
156603,6.33E-03,9.28E-04
156604,8.85E-03,1.03E-03
156605,9.11E-03,1.06E-03
156606,9.31E-03,1.08E-03
156607,9.33E-03,1.11E-03
156608,9.15E-03,1.13E-03
156609,8.99E-03,1.15E-03
156610,8.82E-03,1.17E-03
156611,8.41E-03,1.18E-03
156612,8.09E-03,1.19E-03
156613,7.95E-03,1.19E-03
156614,7.76E-03,1.19E-03
156615,7.43E-03,1.19E-03
156616,7.48E-03,1.19E-03
156617,7.57E-03,1.19E-03
156618,7.39E-03,1.19E-03
156619,7.71E-03,1.19E-03
156620,6.35E-03,1.18E-03
156621,7.22E-03,9.97E-04
156622,6.94E-03,1.26E-03
156623,8.66E-03,1.30E-03
156624,8.48E-03,1.34E-03
156625,8.76E-03,1.39E-03
156626,8.81E-03,1.43E-03
156627,8.86E-03,1.47E-03
156628,8.94E-03,1.51E-03
156629,9.03E-03,1.55E-03
156630,9.12E-03,1.59E-03
156631,9.22E-03,1.63E-03
156632,9.35E-03,1.67E-03
156633,9.50E-03,1.71E-03
156634,9.80E-03,1.74E-03
156635,9.96E-03,1.78E-03
156636,1.00E-02,1.82E-03
156637,1.02E-02,1.86E-03
156638,1.03E-02,1.89E-03
156639,1.06E-02,1.93E-03
156640,1.06E-02,1.97E-03
156641,1.05E-02,2.01E-03
156642,1.07E-02,2.04E-03
156643,1.19E-02,2.08E-03
156644,1.15E-02,2.12E-03
156645,8.59E-03,2.15E-03
156646,9.25E-03,2.16E-03
156647,6.39E-03,2.18E-03
156648,8.71E-03,2.19E-03
156649,7.44E-03,2.07E-04
156650,7.58E-03,2.25E-04
156651,8.12E-03,2.51E-04
156652,8.21E-03,2.74E-04
156653,8.06E-03,2.96E-04
156654,8.06E-03,3.19E-04
156655,8.06E-03,3.42E-04
156656,8.00E-03,3.64E-04
156657,8.04E-03,3.88E-04
156658,8.06E-03,4.11E-04
156659,8.06E-03,4.34E-04
156660,8.06E-03,4.57E-04
156661,8.06E-03,4.80E-04
156662,8.06E-03,5.03E-04
156663,8.06E-03,5.25E-04
156664,8.06E-03,5.48E-04
156665,8.06E-03,5.70E-04
156666,8.06E-03,5.92E-04
156667,8.06E-03,6.15E-04
156668,8.06E-03,6.37E-04
156669,8.06E-03,6.59E-04
156670,8.06E-03,6.81E-04
156671,8.06E-03,7.04E-04
156672,8.06E-03,7.27E-04
156673,8.06E-03,7.50E-04
156674,8.06E-03,7.74E-04
156675,8.06E-03,7.98E-04
156676,8.06E-03,8.24E-04
156677,8.06E-03,8.51E-04
156678,8.06E-03,8.78E-04
156679,8.06E-03,9.08E-04
156680,8.06E-03,9.38E-04
156681,8.06E-03,9.69E-04
156682,8.06E-03,1.00E-03
156683,8.06E-03,1.03E-03
156684,8.06E-03,1.07E-03
156685,8.06E-03,1.10E-03
156686,8.06E-03,1.13E-03
156687,8.06E-03,1.17E-03
156688,8.06E-03,1.21E-03
156689,8.06E-03,1.24E-03
156690,8.06E-03,1.28E-03
156691,8.06E-03,1.31E-03
156692,8.06E-03,1.35E-03
156693,8.06E-03,1.39E-03
156694,8.06E-03,1.42E-03
156695,8.06E-03,1.46E-03
156696,8.06E-03,1.50E-03
156697,8.06E-03,1.53E-03
156698,8.06E-03,1.57E-03
156699,8.06E-03,1.61E-03
156700,8.06E-03,1.64E-03
156701,8.06E-03,1.68E-03
156702,8.06E-03,1.71E-03
156703,8.06E-03,1.75E-03
156704,8.13E-03,1.79E-03
156705,8.22E-03,1.82E-03
156706,8.23E-03,1.86E-03
156707,8.21E-03,1.89E-03
156708,8.04E-03,1.92E-03
156709,7.68E-03,1.96E-03
156710,7.57E-03,1.99E-03
156711,7.76E-03,2.02E-03
156712,8.43E-03,2.06E-03
156713,8.80E-03,2.09E-03
156714,8.80E-03,2.12E-03
156715,8.08E-03,2.15E-03
156716,6.09E-03,2.18E-03
156717,6.89E-03,2.20E-03
156718,5.88E-03,2.16E-04
156719,6.03E-03,2.11E-04
156720,5.82E-03,2.03E-04
156721,4.63E-03,1.97E-04
156722,6.17E-03,9.58E-04
156723,7.62E-03,1.02E-03
156724,7.95E-03,1.02E-03
156725,6.36E-03,9.26E-04
156726,6.69E-03,9.49E-04
156727,6.55E-03,9.51E-04
156728,8.61E-03,1.04E-03
156729,9.05E-03,1.06E-03
156730,9.26E-03,1.09E-03
156731,9.29E-03,1.11E-03
156732,9.05E-03,1.13E-03
156733,8.90E-03,1.15E-03
156734,8.71E-03,1.17E-03
156735,8.32E-03,1.17E-03
156736,8.07E-03,1.18E-03
156737,7.94E-03,1.18E-03
156738,7.78E-03,1.18E-03
156739,7.41E-03,1.18E-03
156740,7.46E-03,1.17E-03
156741,7.56E-03,1.17E-03
156742,7.53E-03,1.16E-03
156743,7.50E-03,1.16E-03
156744,7.57E-03,1.15E-03
156745,7.84E-03,1.13E-03
156746,7.70E-03,9.90E-04
156747,8.25E-03,1.02E-03
156748,7.90E-03,1.99E-04
156749,8.93E-03,1.98E-04
156750,8.02E-03,1.92E-04
156751,5.52E-03,1.87E-04
156752,3.88E-03,1.84E-04
156753,5.48E-03,1.86E-04
156754,5.80E-03,1.90E-04
156755,6.53E-03,1.94E-04
156756,6.37E-03,2.01E-04
156757,6.26E-03,2.14E-04
156758,7.65E-03,9.07E-04
156759,8.12E-03,8.84E-04
156760,8.21E-03,8.60E-04
156761,8.38E-03,8.34E-04
156762,8.32E-03,8.05E-04
156763,8.25E-03,7.74E-04
156764,8.14E-03,7.41E-04
156765,8.01E-03,7.09E-04
156766,7.92E-03,6.77E-04
156767,7.86E-03,6.46E-04
156768,7.81E-03,6.16E-04
156769,7.69E-03,5.87E-04
156770,7.64E-03,5.59E-04
156771,7.53E-03,5.32E-04
156772,7.44E-03,5.06E-04
156773,7.32E-03,4.81E-04
156774,7.24E-03,4.56E-04
156775,7.14E-03,4.31E-04
156776,6.98E-03,4.06E-04
156777,6.78E-03,3.81E-04
156778,6.58E-03,3.57E-04
156779,6.52E-03,3.33E-04
156780,5.03E-03,3.14E-04
156781,5.58E-03,2.96E-04
156782,5.99E-03,2.75E-04
156783,7.11E-03,2.54E-04
156784,7.03E-03,2.24E-04
156785,7.55E-03,1.04E-03
156786,8.17E-03,1.04E-03
156787,8.83E-03,2.22E-03
156788,9.24E-03,2.25E-03
156789,7.92E-03,2.28E-03
156790,7.77E-03,2.29E-03
156791,8.26E-03,2.26E-03
156792,8.52E-03,2.23E-03
156793,9.60E-03,2.20E-03
156794,9.82E-03,2.17E-03
156795,1.02E-02,2.13E-03
156796,1.06E-02,2.10E-03
156797,1.08E-02,2.06E-03
156798,1.04E-02,2.02E-03
156799,1.03E-02,1.99E-03
156800,1.03E-02,1.95E-03
156801,1.00E-02,1.91E-03
156802,9.97E-03,1.87E-03
156803,9.81E-03,1.84E-03
156804,9.71E-03,1.80E-03
156805,9.54E-03,1.76E-03
156806,9.35E-03,1.72E-03
156807,9.21E-03,1.69E-03
156808,9.09E-03,1.65E-03
156809,9.00E-03,1.61E-03
156810,8.92E-03,1.57E-03
156811,8.84E-03,1.53E-03
156812,8.77E-03,1.48E-03
156813,8.73E-03,1.44E-03
156814,8.68E-03,1.40E-03
156815,8.53E-03,1.35E-03
156816,8.35E-03,1.30E-03
156817,8.64E-03,1.26E-03
156818,7.40E-03,1.23E-03
156819,9.66E-03,1.18E-03
156820,1.19E-02,1.12E-03
156821,7.33E-03,2.23E-04
156822,7.74E-03,2.44E-04
156823,7.88E-03,2.66E-04
156824,8.00E-03,2.87E-04
156825,8.06E-03,3.09E-04
156826,8.06E-03,3.32E-04
156827,8.06E-03,3.54E-04
156828,8.06E-03,3.77E-04
156829,8.06E-03,4.00E-04
156830,8.06E-03,4.23E-04
156831,8.06E-03,4.45E-04
156832,8.06E-03,4.68E-04
156833,8.06E-03,4.91E-04
156834,8.06E-03,5.14E-04
156835,8.06E-03,5.36E-04
156836,8.06E-03,5.58E-04
156837,8.06E-03,5.81E-04
156838,8.06E-03,6.03E-04
156839,8.06E-03,6.26E-04
156840,8.06E-03,6.49E-04
156841,8.06E-03,6.71E-04
156842,8.06E-03,6.95E-04
156843,8.06E-03,7.18E-04
156844,8.06E-03,7.42E-04
156845,8.06E-03,7.67E-04
156846,8.06E-03,7.92E-04
156847,8.06E-03,8.19E-04
156848,8.06E-03,8.46E-04
156849,8.06E-03,8.74E-04
156850,8.06E-03,9.04E-04
156851,8.06E-03,9.34E-04
156852,8.06E-03,9.65E-04
156853,8.06E-03,9.98E-04
156854,8.06E-03,1.03E-03
156855,8.06E-03,1.06E-03
156856,8.06E-03,1.10E-03
156857,8.06E-03,1.13E-03
156858,8.06E-03,1.17E-03
156859,8.06E-03,1.20E-03
156860,8.06E-03,1.24E-03
156861,8.06E-03,1.28E-03
156862,8.06E-03,1.31E-03
156863,8.06E-03,1.35E-03
156864,8.06E-03,1.39E-03
156865,8.06E-03,1.42E-03
156866,8.06E-03,1.46E-03
156867,8.06E-03,1.50E-03
156868,8.06E-03,1.53E-03
156869,8.06E-03,1.57E-03
156870,8.06E-03,1.61E-03
156871,8.06E-03,1.64E-03
156872,8.06E-03,1.68E-03
156873,8.06E-03,1.71E-03
156874,8.06E-03,1.75E-03
156875,8.06E-03,1.79E-03
156876,8.13E-03,1.82E-03
156877,8.10E-03,1.86E-03
156878,7.99E-03,1.89E-03
156879,7.92E-03,1.92E-03
156880,7.86E-03,1.96E-03
156881,7.83E-03,1.99E-03
156882,7.97E-03,2.02E-03
156883,8.13E-03,2.06E-03
156884,8.26E-03,2.09E-03
156885,8.30E-03,2.12E-03
156886,7.88E-03,2.15E-03
156887,7.65E-03,2.18E-03
156888,8.80E-03,2.21E-03
156889,9.08E-03,2.24E-03
156890,7.76E-03,2.27E-03
156891,7.05E-03,2.30E-03
156892,6.26E-03,9.51E-04
156893,6.38E-03,2.02E-04
156894,7.02E-03,1.49E-03
156895,6.88E-03,1.46E-03
156896,9.12E-03,1.29E-03
156897,8.80E-03,1.14E-03
156898,7.27E-03,1.10E-03
156899,5.41E-03,1.07E-03
156900,5.09E-03,1.06E-03
156901,6.44E-03,1.04E-03
156902,7.34E-03,1.03E-03
156903,7.56E-03,1.01E-03
156904,7.61E-03,9.97E-04
156905,7.69E-03,9.78E-04
156906,7.71E-03,9.60E-04
156907,7.72E-03,9.41E-04
156908,7.73E-03,9.21E-04
156909,7.73E-03,9.02E-04
156910,7.74E-03,8.83E-04
156911,7.75E-03,8.63E-04
156912,7.76E-03,8.44E-04
156913,7.76E-03,8.25E-04
156914,7.77E-03,8.07E-04
156915,7.78E-03,7.88E-04
156916,7.79E-03,7.70E-04
156917,7.79E-03,7.53E-04
156918,7.67E-03,7.36E-04
156919,7.50E-03,7.20E-04
156920,7.27E-03,7.01E-04
156921,6.88E-03,6.85E-04
156922,6.31E-03,6.72E-04
156923,6.22E-03,6.67E-04
156924,7.11E-03,6.67E-04
156925,7.14E-03,6.63E-04
156926,7.35E-03,6.59E-04
156927,7.59E-03,6.54E-04
156928,7.77E-03,6.49E-04
156929,7.96E-03,6.45E-04
156930,8.04E-03,6.40E-04
156931,8.04E-03,6.35E-04
156932,8.04E-03,6.30E-04
156933,8.04E-03,6.24E-04
156934,8.04E-03,6.20E-04
156935,7.93E-03,6.15E-04
156936,7.74E-03,6.10E-04
156937,7.41E-03,6.06E-04
156938,6.73E-03,6.03E-04
156939,5.49E-03,6.01E-04
156940,5.11E-03,5.98E-04
156941,6.36E-03,5.96E-04
156942,6.42E-03,5.96E-04
156943,6.94E-03,5.96E-04
156944,7.30E-03,5.97E-04
156945,7.63E-03,5.97E-04
156946,7.87E-03,5.97E-04
156947,8.03E-03,5.97E-04
156948,8.16E-03,5.96E-04
156949,8.24E-03,5.94E-04
156950,8.26E-03,5.92E-04
156951,8.39E-03,5.88E-04
156952,8.45E-03,5.84E-04
156953,8.70E-03,5.79E-04
156954,8.75E-03,5.73E-04
156955,8.51E-03,5.66E-04
156956,8.29E-03,5.58E-04
156957,6.25E-03,5.29E-04
156958,6.17E-03,5.18E-04
156959,5.87E-03,5.12E-04
156960,5.64E-03,5.06E-04
156961,5.68E-03,4.98E-04
156962,6.47E-03,4.91E-04
156963,8.04E-03,4.83E-04
156964,8.23E-03,4.75E-04
156965,7.94E-03,4.61E-04
156966,6.29E-03,1.88E-03
156967,7.26E-03,1.86E-03
156968,7.99E-03,1.84E-03
156969,8.44E-03,1.82E-03
156970,8.67E-03,1.79E-03
156971,9.14E-03,1.77E-03
156972,9.13E-03,1.74E-03
156973,7.38E-03,1.56E-03
156974,7.40E-03,1.58E-03
156975,7.31E-03,1.61E-03
156976,6.06E-03,1.86E-03
156977,6.12E-03,1.85E-03
156978,7.42E-03,2.85E-03
156979,7.27E-03,2.88E-03
156980,7.20E-03,2.91E-03
156981,7.36E-03,2.93E-03
156982,7.58E-03,2.96E-03
156983,7.76E-03,2.98E-03
156984,7.85E-03,3.01E-03
156985,8.00E-03,3.04E-03
156986,8.03E-03,3.07E-03
156987,8.05E-03,3.10E-03
156988,8.07E-03,3.13E-03
156989,8.08E-03,3.16E-03
156990,8.07E-03,3.19E-03
156991,8.06E-03,3.22E-03
156992,8.06E-03,3.25E-03
156993,8.06E-03,3.28E-03
156994,8.06E-03,3.31E-03
156995,8.07E-03,3.34E-03
156996,8.08E-03,3.37E-03
156997,8.09E-03,3.40E-03
156998,8.10E-03,3.43E-03
156999,8.11E-03,3.46E-03
157000,8.11E-03,3.49E-03
157001,8.12E-03,3.53E-03
157002,8.13E-03,3.56E-03
157003,8.14E-03,3.59E-03
157004,8.15E-03,3.62E-03
157005,8.16E-03,3.65E-03
157006,8.17E-03,3.68E-03
157007,8.18E-03,3.71E-03
157008,8.19E-03,3.74E-03
157009,8.20E-03,3.77E-03
157010,8.21E-03,3.79E-03
157011,8.22E-03,3.82E-03
157012,8.23E-03,3.85E-03
157013,8.24E-03,3.88E-03
157014,8.25E-03,3.90E-03
157015,8.26E-03,3.93E-03
157016,8.27E-03,3.96E-03
157017,8.28E-03,3.98E-03
157018,8.29E-03,4.00E-03
157019,8.29E-03,4.03E-03
157020,8.29E-03,4.05E-03
157021,8.27E-03,4.08E-03
157022,8.26E-03,4.10E-03
157023,8.25E-03,4.12E-03
157024,8.23E-03,4.14E-03
157025,8.22E-03,4.16E-03
157026,8.22E-03,4.18E-03
157027,8.21E-03,4.20E-03
157028,8.12E-03,4.22E-03
157029,8.02E-03,4.24E-03
157030,8.05E-03,4.26E-03
157031,7.80E-03,4.28E-03
157032,7.70E-03,4.30E-03
157033,7.35E-03,4.31E-03
157034,7.15E-03,4.31E-03
157035,7.90E-03,4.31E-03
157036,8.22E-03,4.31E-03
157037,8.19E-03,4.30E-04
157038,7.50E-03,1.37E-03
157039,8.09E-03,1.34E-03
157040,7.15E-03,1.53E-03
157041,6.98E-03,1.50E-03
157042,8.76E-03,1.30E-03
157043,9.00E-03,1.19E-03
157044,9.24E-03,1.23E-03
157045,8.67E-03,1.14E-03
157046,7.03E-03,5.26E-04
157047,7.48E-03,5.31E-04
157048,6.52E-03,5.29E-04
157049,8.51E-03,4.39E-04
157050,1.06E-02,4.20E-04
157051,8.06E-03,2.58E-03
157052,8.06E-03,2.54E-03
157053,8.06E-03,2.51E-03
157054,8.06E-03,2.47E-03
157055,8.06E-03,2.44E-03
157056,8.06E-03,2.41E-03
157057,8.06E-03,2.37E-03
157058,8.06E-03,2.34E-03
157059,8.06E-03,2.31E-03
157060,8.06E-03,2.27E-03
157061,8.06E-03,2.24E-03
157062,8.06E-03,2.20E-03
157063,8.06E-03,2.17E-03
157064,8.06E-03,2.14E-03
157065,8.06E-03,2.10E-03
157066,8.06E-03,2.07E-03
157067,8.06E-03,2.04E-03
157068,8.06E-03,2.00E-03
157069,8.06E-03,1.97E-03
157070,8.06E-03,1.93E-03
157071,8.06E-03,1.90E-03
157072,8.06E-03,1.86E-03
157073,8.06E-03,1.83E-03
157074,8.06E-03,1.79E-03
157075,8.06E-03,1.76E-03
157076,8.06E-03,1.73E-03
157077,8.06E-03,1.69E-03
157078,8.06E-03,1.65E-03
157079,8.06E-03,1.62E-03
157080,8.06E-03,1.58E-03
157081,8.06E-03,1.55E-03
157082,8.06E-03,1.51E-03
157083,8.06E-03,1.48E-03
157084,8.06E-03,1.44E-03
157085,8.06E-03,1.41E-03
157086,8.06E-03,1.37E-03
157087,8.06E-03,1.33E-03
157088,8.06E-03,1.30E-03
157089,8.06E-03,1.26E-03
157090,8.06E-03,1.23E-03
157091,8.06E-03,1.19E-03
157092,8.06E-03,1.16E-03
157093,8.06E-03,1.12E-03
157094,8.06E-03,1.09E-03
157095,8.06E-03,1.05E-03
157096,8.06E-03,1.02E-03
157097,8.06E-03,9.84E-04
157098,8.06E-03,9.51E-04
157099,8.06E-03,9.17E-04
157100,8.06E-03,8.84E-04
157101,8.06E-03,8.52E-04
157102,8.06E-03,8.20E-04
157103,8.06E-03,7.88E-04
157104,8.06E-03,7.57E-04
157105,8.06E-03,7.26E-04
157106,7.97E-03,6.97E-04
157107,7.86E-03,6.69E-04
157108,7.85E-03,6.41E-04
157109,7.80E-03,6.13E-04
157110,7.84E-03,5.85E-04
157111,8.00E-03,5.60E-04
157112,8.37E-03,5.35E-04
157113,8.32E-03,5.12E-04
157114,8.15E-03,4.87E-04
157115,7.76E-03,4.69E-04
157116,7.24E-03,4.50E-04
157117,7.34E-03,4.39E-04
157118,8.10E-03,2.62E-03
157119,8.10E-03,2.66E-03
157120,8.03E-03,2.70E-03
157121,7.74E-03,2.74E-03
157122,7.39E-03,2.78E-03
157123,7.76E-03,2.81E-03
157124,4.21E-03,1.95E-03
157125,5.13E-03,1.98E-03
157126,5.23E-03,2.00E-03
157127,5.84E-03,2.03E-03
157128,7.25E-03,2.06E-03
157129,7.64E-03,2.10E-03
157130,7.85E-03,2.14E-03
157131,8.03E-03,2.18E-03
157132,8.04E-03,2.22E-03
157133,8.03E-03,2.27E-03
157134,8.03E-03,2.31E-03
157135,8.03E-03,2.36E-03
157136,8.03E-03,2.41E-03
157137,8.03E-03,2.47E-03
157138,8.03E-03,2.52E-03
157139,8.03E-03,2.58E-03
157140,7.37E-03,2.64E-03
157141,6.62E-03,2.69E-03
157142,6.67E-03,2.75E-03
157143,6.90E-03,2.80E-03
157144,7.05E-03,2.86E-03
157145,7.17E-03,2.92E-03
157146,7.27E-03,2.99E-03
157147,7.35E-03,3.05E-03
157148,7.42E-03,3.12E-03
157149,7.48E-03,3.18E-03
157150,7.64E-03,3.25E-03
157151,7.87E-03,3.32E-03
157152,8.02E-03,3.39E-03
157153,8.05E-03,3.46E-03
157154,8.13E-03,3.53E-03
157155,8.21E-03,3.60E-03
157156,8.38E-03,3.67E-03
157157,8.45E-03,3.74E-03
157158,8.60E-03,3.81E-03
157159,8.86E-03,3.88E-03
157160,8.80E-03,3.95E-03
157161,8.72E-03,4.03E-03
157162,8.87E-03,4.12E-03
157163,8.75E-03,4.20E-03
157164,9.24E-03,4.28E-03
157165,6.18E-03,1.84E-03
157166,8.20E-03,1.63E-03
157167,8.41E-03,1.66E-03
157168,6.87E-03,1.61E-03
157169,7.04E-03,1.42E-03
157170,7.15E-03,1.39E-03
157171,6.45E-03,1.82E-03
157172,7.70E-03,1.80E-03
157173,8.19E-03,1.78E-03
157174,8.27E-03,1.76E-03
157175,8.57E-03,1.74E-03
157176,8.78E-03,1.72E-03
157177,8.59E-03,1.69E-03
157178,6.80E-03,1.58E-03
157179,7.18E-03,1.55E-03
157180,6.80E-03,1.51E-03
157181,7.03E-03,1.53E-03
157182,6.84E-03,1.47E-03
157183,6.90E-03,1.44E-03
157184,9.27E-03,1.27E-03
157185,7.91E-03,1.11E-03
157186,7.51E-03,1.07E-03
157187,6.97E-03,1.04E-03
157188,6.82E-03,1.02E-03
157189,6.90E-03,9.99E-04
157190,7.19E-03,9.85E-04
157191,7.46E-03,9.70E-04
157192,7.60E-03,9.52E-04
157193,7.73E-03,9.33E-04
157194,7.75E-03,9.14E-04
157195,7.76E-03,8.95E-04
157196,7.76E-03,8.75E-04
157197,7.77E-03,8.56E-04
157198,7.77E-03,8.36E-04
157199,7.78E-03,8.17E-04
157200,7.79E-03,7.98E-04
157201,7.80E-03,7.79E-04
157202,7.80E-03,7.61E-04
157203,7.81E-03,7.43E-04
157204,7.82E-03,7.25E-04
157205,7.82E-03,7.09E-04
157206,7.72E-03,6.92E-04
157207,7.51E-03,6.76E-04
157208,7.37E-03,6.60E-04
157209,7.13E-03,6.46E-04
157210,6.96E-03,6.35E-04
157211,6.86E-03,6.29E-04
157212,7.31E-03,6.24E-04
157213,7.38E-03,6.21E-04
157214,7.51E-03,6.18E-04
157215,7.67E-03,6.15E-04
157216,7.84E-03,6.11E-04
157217,7.94E-03,6.06E-04
157218,8.04E-03,6.02E-04
157219,8.04E-03,5.98E-04
157220,8.04E-03,5.93E-04
157221,8.04E-03,5.89E-04
157222,8.04E-03,5.84E-04
157223,8.01E-03,5.80E-04
157224,7.95E-03,5.77E-04
157225,7.85E-03,5.74E-04
157226,7.06E-03,5.72E-04
157227,5.08E-03,5.70E-04
157228,4.94E-03,5.65E-04
157229,6.52E-03,5.65E-04
157230,6.62E-03,5.66E-04
157231,7.06E-03,5.67E-04
157232,7.45E-03,5.68E-04
157233,7.73E-03,5.69E-04
157234,7.94E-03,5.69E-04
157235,8.10E-03,5.70E-04
157236,8.21E-03,5.70E-04
157237,8.22E-03,5.69E-04
157238,8.24E-03,5.67E-04
157239,8.31E-03,5.65E-04
157240,8.47E-03,5.62E-04
157241,8.71E-03,5.58E-04
157242,8.69E-03,5.53E-04
157243,8.49E-03,5.47E-04
157244,8.31E-03,5.39E-04
157245,6.31E-03,5.19E-04
157246,6.25E-03,5.08E-04
157247,6.22E-03,5.00E-04
157248,5.88E-03,4.94E-04
157249,6.22E-03,4.87E-04
157250,6.77E-03,4.81E-04
157251,8.07E-03,4.74E-04
157252,8.16E-03,4.63E-04
157253,8.42E-03,4.52E-04
157254,7.45E-03,1.36E-03
157255,7.83E-03,1.33E-03
157256,8.37E-03,3.96E-04
157257,7.35E-03,3.82E-04
157258,8.06E-03,2.59E-03
157259,8.06E-03,2.55E-03
157260,8.06E-03,2.52E-03
157261,8.06E-03,2.48E-03
157262,8.06E-03,2.45E-03
157263,8.06E-03,2.42E-03
157264,8.06E-03,2.38E-03
157265,8.06E-03,2.35E-03
157266,8.06E-03,2.32E-03
157267,8.06E-03,2.28E-03
157268,8.06E-03,2.25E-03
157269,8.06E-03,2.22E-03
157270,8.06E-03,2.18E-03
157271,8.06E-03,2.15E-03
157272,8.06E-03,2.12E-03
157273,8.06E-03,2.08E-03
157274,8.06E-03,2.05E-03
157275,8.06E-03,2.01E-03
157276,8.06E-03,1.98E-03
157277,8.06E-03,1.95E-03
157278,8.06E-03,1.91E-03
157279,8.06E-03,1.88E-03
157280,8.06E-03,1.84E-03
157281,8.06E-03,1.81E-03
157282,8.06E-03,1.77E-03
157283,8.06E-03,1.74E-03
157284,8.06E-03,1.70E-03
157285,8.06E-03,1.67E-03
157286,8.06E-03,1.63E-03
157287,8.06E-03,1.60E-03
157288,8.06E-03,1.56E-03
157289,8.06E-03,1.53E-03
157290,8.06E-03,1.49E-03
157291,8.06E-03,1.45E-03
157292,8.06E-03,1.42E-03
157293,8.06E-03,1.38E-03
157294,8.06E-03,1.35E-03
157295,8.06E-03,1.31E-03
157296,8.06E-03,1.28E-03
157297,8.06E-03,1.24E-03
157298,8.06E-03,1.20E-03
157299,8.06E-03,1.17E-03
157300,8.06E-03,1.13E-03
157301,8.06E-03,1.10E-03
157302,8.06E-03,1.06E-03
157303,8.06E-03,1.03E-03
157304,8.06E-03,9.95E-04
157305,8.06E-03,9.61E-04
157306,8.06E-03,9.27E-04
157307,8.06E-03,8.94E-04
157308,8.06E-03,8.62E-04
157309,8.06E-03,8.29E-04
157310,8.06E-03,7.97E-04
157311,8.06E-03,7.66E-04
157312,8.06E-03,7.35E-04
157313,8.06E-03,7.05E-04
157314,7.99E-03,6.76E-04
157315,7.96E-03,6.48E-04
157316,8.02E-03,6.20E-04
157317,8.06E-03,5.93E-04
157318,8.16E-03,5.67E-04
157319,8.16E-03,5.43E-04
157320,8.15E-03,5.18E-04
157321,8.04E-03,4.96E-04
157322,7.83E-03,4.73E-04
157323,7.72E-03,4.54E-04
157324,7.69E-03,4.38E-04
157325,7.91E-03,4.24E-04
157326,8.09E-03,4.09E-04
157327,8.02E-03,3.95E-04
157328,8.30E-03,3.82E-04
157329,6.75E-03,3.54E-04
157330,8.10E-03,2.63E-03
157331,8.10E-03,2.67E-03
157332,8.00E-03,2.71E-03
157333,7.75E-03,2.74E-03
157334,7.91E-03,2.78E-03
157335,4.08E-03,1.89E-03
157336,4.89E-03,1.91E-03
157337,5.38E-03,1.93E-03
157338,5.57E-03,1.96E-03
157339,7.46E-03,1.99E-03
157340,7.62E-03,2.03E-03
157341,7.83E-03,2.06E-03
157342,8.03E-03,2.11E-03
157343,8.04E-03,2.15E-03
157344,8.03E-03,2.19E-03
157345,8.03E-03,2.24E-03
157346,8.03E-03,2.29E-03
157347,8.03E-03,2.34E-03
157348,8.03E-03,2.40E-03
157349,8.03E-03,2.45E-03
157350,8.03E-03,2.51E-03
157351,7.44E-03,2.57E-03
157352,6.77E-03,2.63E-03
157353,6.82E-03,2.68E-03
157354,7.02E-03,2.74E-03
157355,7.15E-03,2.80E-03
157356,7.26E-03,2.86E-03
157357,7.35E-03,2.93E-03
157358,7.42E-03,3.00E-03
157359,7.48E-03,3.06E-03
157360,7.54E-03,3.13E-03
157361,7.68E-03,3.20E-03
157362,7.89E-03,3.28E-03
157363,8.02E-03,3.35E-03
157364,8.05E-03,3.43E-03
157365,8.10E-03,3.50E-03
157366,8.16E-03,3.57E-03
157367,8.35E-03,3.64E-03
157368,8.35E-03,3.72E-03
157369,8.53E-03,3.79E-03
157370,8.72E-03,3.86E-03
157371,8.77E-03,3.93E-03
157372,8.77E-03,4.01E-03
157373,8.92E-03,4.09E-03
157374,8.84E-03,4.17E-03
157375,6.54E-03,4.39E-03
157376,8.03E-03,4.38E-03
157377,1.02E-02,4.38E-03
157378,8.62E-03,4.38E-03
157379,8.40E-03,4.39E-03
157380,8.18E-03,4.39E-03
157381,8.07E-03,4.38E-03
157382,8.04E-03,4.38E-03
157383,7.96E-03,4.36E-03
157384,8.04E-03,4.34E-03
157385,8.08E-03,4.32E-03
157386,8.18E-03,4.30E-03
157387,8.19E-03,4.28E-03
157388,8.20E-03,4.25E-03
157389,8.20E-03,4.23E-03
157390,8.21E-03,4.21E-03
157391,8.22E-03,4.19E-03
157392,8.24E-03,4.16E-03
157393,8.25E-03,4.14E-03
157394,8.26E-03,4.12E-03
157395,8.27E-03,4.09E-03
157396,8.26E-03,4.07E-03
157397,8.25E-03,4.04E-03
157398,8.24E-03,4.01E-03
157399,8.23E-03,3.99E-03
157400,8.23E-03,3.96E-03
157401,8.22E-03,3.93E-03
157402,8.21E-03,3.90E-03
157403,8.20E-03,3.88E-03
157404,8.19E-03,3.85E-03
157405,8.18E-03,3.82E-03
157406,8.17E-03,3.79E-03
157407,8.16E-03,3.76E-03
157408,8.15E-03,3.73E-03
157409,8.15E-03,3.69E-03
157410,8.14E-03,3.66E-03
157411,8.13E-03,3.63E-03
157412,8.12E-03,3.60E-03
157413,8.11E-03,3.57E-03
157414,8.11E-03,3.54E-03
157415,8.10E-03,3.50E-03
157416,8.09E-03,3.47E-03
157417,8.08E-03,3.44E-03
157418,8.08E-03,3.41E-03
157419,8.07E-03,3.38E-03
157420,8.06E-03,3.34E-03
157421,8.06E-03,3.31E-03
157422,8.06E-03,3.28E-03
157423,8.06E-03,3.25E-03
157424,8.07E-03,3.22E-03
157425,8.07E-03,3.19E-03
157426,8.07E-03,3.16E-03
157427,8.05E-03,3.13E-03
157428,8.03E-03,3.10E-03
157429,8.01E-03,3.07E-03
157430,7.92E-03,3.04E-03
157431,7.82E-03,3.01E-03
157432,7.72E-03,2.98E-03
157433,7.63E-03,2.95E-03
157434,7.71E-03,2.93E-03
157435,8.13E-03,2.90E-03
157436,9.54E-03,2.82E-03
157437,5.83E-03,1.78E-03
157438,5.59E-03,1.79E-03
157439,6.24E-03,1.78E-03
157440,7.59E-03,1.60E-03
157441,7.74E-03,1.62E-03
157442,6.27E-03,1.58E-03
157443,9.08E-03,1.29E-03
157444,8.32E-03,1.16E-03
157445,8.70E-03,1.20E-03
157446,8.07E-03,1.11E-03
157447,5.79E-03,5.14E-04
157448,7.58E-03,5.17E-04
157449,5.15E-03,5.25E-04
157450,6.47E-03,5.14E-04
157451,9.32E-03,4.31E-04
157452,6.60E-03,1.48E-03
157453,6.77E-03,1.51E-03
157454,6.95E-03,1.53E-03
157455,6.62E-03,1.55E-03
157456,8.23E-03,1.64E-03
157457,8.54E-03,1.67E-03
157458,8.48E-03,1.69E-03
157459,8.30E-03,1.71E-03
157460,7.99E-03,1.72E-03
157461,8.43E-03,1.73E-03
157462,7.42E-03,1.76E-03
157463,5.60E-03,2.41E-03
157464,5.78E-03,2.39E-03
157465,6.17E-03,2.36E-03
157466,6.67E-03,2.33E-03
157467,7.21E-03,2.30E-03
157468,7.78E-03,2.27E-03
157469,8.08E-03,2.24E-03
157470,8.16E-03,2.21E-03
157471,8.05E-03,2.18E-03
157472,7.96E-03,2.15E-03
157473,7.99E-03,2.12E-03
157474,8.10E-03,2.09E-03
157475,8.07E-03,2.06E-03
157476,8.08E-03,2.02E-03
157477,7.99E-03,1.99E-03
157478,7.93E-03,1.96E-03
157479,8.00E-03,1.92E-03
157480,8.06E-03,1.89E-03
157481,8.06E-03,1.85E-03
157482,8.06E-03,1.82E-03
157483,8.06E-03,1.78E-03
157484,8.06E-03,1.75E-03
157485,8.06E-03,1.71E-03
157486,8.06E-03,1.68E-03
157487,8.06E-03,1.64E-03
157488,8.06E-03,1.60E-03
157489,8.06E-03,1.57E-03
157490,8.06E-03,1.53E-03
157491,8.06E-03,1.49E-03
157492,8.06E-03,1.46E-03
157493,8.06E-03,1.42E-03
157494,8.06E-03,1.38E-03
157495,8.06E-03,1.35E-03
157496,8.06E-03,1.31E-03
157497,8.06E-03,1.27E-03
157498,8.06E-03,1.24E-03
157499,8.06E-03,1.20E-03
157500,8.06E-03,1.17E-03
157501,8.06E-03,1.13E-03
157502,8.06E-03,1.10E-03
157503,8.06E-03,1.06E-03
157504,8.06E-03,1.03E-03
157505,8.06E-03,9.94E-04
157506,8.06E-03,9.62E-04
157507,8.06E-03,9.31E-04
157508,8.06E-03,9.00E-04
157509,8.06E-03,8.70E-04
157510,8.06E-03,8.41E-04
157511,8.06E-03,8.14E-04
157512,8.06E-03,7.87E-04
157513,8.06E-03,7.61E-04
157514,8.06E-03,7.35E-04
157515,8.06E-03,7.11E-04
157516,8.06E-03,6.86E-04
157517,8.06E-03,6.62E-04
157518,8.06E-03,6.39E-04
157519,8.06E-03,6.16E-04
157520,8.06E-03,5.93E-04
157521,8.06E-03,5.70E-04
157522,8.06E-03,5.47E-04
157523,8.06E-03,5.25E-04
157524,8.06E-03,5.02E-04
157525,8.06E-03,4.79E-04
157526,8.06E-03,4.57E-04
157527,8.06E-03,4.34E-04
157528,8.06E-03,4.12E-04
157529,8.06E-03,3.89E-04
157530,8.06E-03,3.67E-04
157531,8.06E-03,3.44E-04
157532,8.06E-03,3.22E-04
157533,8.02E-03,3.01E-04
157534,7.90E-03,2.79E-04
157535,7.77E-03,2.59E-04
157536,7.49E-03,2.39E-04
157537,7.01E-03,2.20E-04
157538,6.98E-03,5.07E-04
157539,6.66E-03,4.98E-04
157540,6.45E-03,4.91E-04
157541,6.21E-03,4.86E-04
157542,6.79E-03,4.80E-04
157543,7.03E-03,4.74E-04
157544,7.89E-03,4.66E-04
157545,8.27E-03,4.55E-04
157546,8.79E-03,4.43E-04
157547,8.35E-03,1.06E-03
157548,8.96E-03,1.08E-03
157549,9.16E-03,1.10E-03
157550,9.35E-03,1.12E-03
157551,8.99E-03,1.14E-03
157552,8.81E-03,1.16E-03
157553,8.52E-03,1.17E-03
157554,8.27E-03,1.17E-03
157555,8.05E-03,1.17E-03
157556,7.94E-03,1.17E-03
157557,7.79E-03,1.16E-03
157558,7.46E-03,1.16E-03
157559,7.49E-03,1.15E-03
157560,7.54E-03,1.14E-03
157561,7.66E-03,1.14E-03
157562,7.74E-03,1.13E-03
157563,7.89E-03,1.11E-03
157564,8.26E-03,1.10E-03
157565,7.87E-03,1.08E-03
157566,7.96E-03,1.04E-03
157567,8.50E-03,5.25E-04
157568,8.62E-03,5.31E-04
157569,8.72E-03,5.36E-04
157570,8.70E-03,5.39E-04
157571,8.51E-03,5.42E-04
157572,8.23E-03,5.44E-04
157573,8.22E-03,5.45E-04
157574,8.20E-03,5.46E-04
157575,8.19E-03,5.45E-04
157576,8.16E-03,5.45E-04
157577,8.00E-03,5.43E-04
157578,7.80E-03,5.42E-04
157579,7.61E-03,5.41E-04
157580,7.23E-03,5.39E-04
157581,6.84E-03,5.38E-04
157582,6.51E-03,5.37E-04
157583,5.31E-03,5.37E-04
157584,5.44E-03,5.39E-04
157585,7.17E-03,5.41E-04
157586,7.87E-03,5.43E-04
157587,7.96E-03,5.45E-04
157588,8.02E-03,5.48E-04
157589,8.04E-03,5.51E-04
157590,8.04E-03,5.55E-04
157591,8.04E-03,5.59E-04
157592,8.04E-03,5.62E-04
157593,8.04E-03,5.66E-04
157594,7.99E-03,5.70E-04
157595,7.91E-03,5.73E-04
157596,7.79E-03,5.76E-04
157597,7.67E-03,5.78E-04
157598,7.60E-03,5.79E-04
157599,7.56E-03,5.81E-04
157600,7.40E-03,5.88E-04
157601,7.46E-03,5.96E-04
157602,7.50E-03,6.07E-04
157603,7.61E-03,6.19E-04
157604,7.70E-03,6.33E-04
157605,7.75E-03,6.48E-04
157606,7.85E-03,6.64E-04
157607,7.85E-03,6.80E-04
157608,7.84E-03,6.96E-04
157609,7.84E-03,7.14E-04
157610,7.83E-03,7.32E-04
157611,7.82E-03,7.50E-04
157612,7.81E-03,7.69E-04
157613,7.81E-03,7.89E-04
157614,7.80E-03,8.08E-04
157615,7.80E-03,8.28E-04
157616,7.79E-03,8.47E-04
157617,7.78E-03,8.67E-04
157618,7.77E-03,8.87E-04
157619,7.60E-03,9.06E-04
157620,7.48E-03,9.24E-04
157621,7.28E-03,9.43E-04
157622,7.23E-03,9.61E-04
157623,8.29E-03,9.76E-04
157624,8.58E-03,1.00E-03
157625,8.01E-03,9.82E-04
157626,6.80E-03,9.79E-04
157627,6.61E-03,9.77E-04
157628,9.10E-03,5.14E-04
157629,7.29E-03,1.80E-04
157630,7.58E-03,1.78E-04
157631,7.68E-03,1.76E-04
157632,7.24E-03,1.70E-04
157633,6.94E-03,1.63E-04
157634,5.96E-03,1.58E-04
157635,5.78E-03,1.61E-04
157636,6.65E-03,1.58E-03
157637,7.11E-03,1.58E-03
157638,6.86E-03,3.79E-04
157639,5.94E-03,3.76E-04
157640,6.01E-03,3.62E-04
157641,9.49E-03,1.07E-03
157642,6.66E-03,1.43E-03
157643,7.67E-03,1.13E-03
157644,7.83E-03,1.17E-03
157645,5.97E-03,1.43E-03
157646,6.23E-03,1.55E-03
157647,5.90E-03,1.71E-03
157648,5.40E-03,1.71E-03
157649,5.18E-03,1.70E-03
157650,5.29E-03,1.80E-03
157651,4.60E-03,1.81E-03
157652,5.05E-03,1.83E-03
157653,5.57E-03,1.85E-03
157654,5.56E-03,1.88E-03
157655,7.54E-03,1.91E-03
157656,7.51E-03,1.95E-03
157657,7.87E-03,1.99E-03
157658,8.03E-03,2.03E-03
157659,8.03E-03,2.07E-03
157660,8.03E-03,2.12E-03
157661,8.03E-03,2.17E-03
157662,8.03E-03,2.22E-03
157663,8.03E-03,2.27E-03
157664,8.03E-03,2.32E-03
157665,8.03E-03,2.38E-03
157666,8.03E-03,2.44E-03
157667,7.51E-03,2.50E-03
157668,6.91E-03,2.56E-03
157669,6.96E-03,2.61E-03
157670,7.14E-03,2.67E-03
157671,7.26E-03,2.74E-03
157672,7.35E-03,2.80E-03
157673,7.43E-03,2.87E-03
157674,7.49E-03,2.94E-03
157675,7.55E-03,3.01E-03
157676,7.60E-03,3.08E-03
157677,7.72E-03,3.15E-03
157678,7.90E-03,3.23E-03
157679,8.02E-03,3.31E-03
157680,8.04E-03,3.39E-03
157681,8.02E-03,3.46E-03
157682,8.12E-03,3.54E-03
157683,8.23E-03,3.62E-03
157684,8.28E-03,3.69E-03
157685,8.55E-03,3.77E-03
157686,8.76E-03,3.84E-03
157687,8.77E-03,3.92E-03
157688,8.85E-03,4.00E-03
157689,8.80E-03,4.07E-03
157690,8.63E-03,4.15E-03
157691,8.30E-03,4.21E-03
157692,7.66E-03,4.28E-03
157693,7.19E-03,4.36E-03
157694,7.23E-03,4.45E-03
157695,6.32E-03,4.47E-03
157696,6.61E-03,4.46E-03
157697,7.20E-03,4.46E-03
157698,8.36E-03,4.47E-03
157699,8.62E-03,4.47E-03
157700,8.61E-03,4.47E-03
157701,9.56E-03,4.48E-03
157702,9.51E-03,4.47E-03
157703,8.32E-03,4.46E-03
157704,8.10E-03,4.44E-03
157705,8.07E-03,4.42E-03
157706,8.16E-03,4.40E-03
157707,8.17E-03,4.37E-03
157708,8.17E-03,4.35E-03
157709,8.18E-03,4.33E-03
157710,8.18E-03,4.30E-03
157711,8.19E-03,4.28E-03
157712,8.20E-03,4.25E-03
157713,8.21E-03,4.23E-03
157714,8.22E-03,4.20E-03
157715,8.23E-03,4.18E-03
157716,8.24E-03,4.15E-03
157717,8.23E-03,4.13E-03
157718,8.23E-03,4.10E-03
157719,8.22E-03,4.07E-03
157720,8.21E-03,4.04E-03
157721,8.20E-03,4.02E-03
157722,8.20E-03,3.99E-03
157723,8.19E-03,3.96E-03
157724,8.18E-03,3.93E-03
157725,8.17E-03,3.90E-03
157726,8.16E-03,3.87E-03
157727,8.16E-03,3.84E-03
157728,8.15E-03,3.80E-03
157729,8.14E-03,3.77E-03
157730,8.13E-03,3.74E-03
157731,8.13E-03,3.71E-03
157732,8.12E-03,3.68E-03
157733,8.11E-03,3.64E-03
157734,8.10E-03,3.61E-03
157735,8.10E-03,3.58E-03
157736,8.09E-03,3.54E-03
157737,8.09E-03,3.51E-03
157738,8.08E-03,3.48E-03
157739,8.07E-03,3.44E-03
157740,8.07E-03,3.41E-03
157741,8.06E-03,3.38E-03
157742,8.05E-03,3.35E-03
157743,8.05E-03,3.31E-03
157744,8.06E-03,3.28E-03
157745,8.07E-03,3.25E-03
157746,8.07E-03,3.22E-03
157747,8.06E-03,3.18E-03
157748,8.05E-03,3.15E-03
157749,8.03E-03,3.12E-03
157750,8.01E-03,3.09E-03
157751,7.98E-03,3.06E-03
157752,7.89E-03,3.03E-03
157753,7.85E-03,3.00E-03
157754,7.93E-03,2.97E-03
157755,8.16E-03,2.95E-03
157756,8.50E-03,2.91E-03
157757,9.07E-03,2.82E-03
157758,7.95E-03,1.06E-03
157759,6.56E-03,2.53E-03
157760,7.94E-03,2.50E-03
157761,7.52E-03,2.47E-03
157762,6.38E-03,2.45E-03
157763,5.97E-03,2.42E-03
157764,5.89E-03,2.40E-03
157765,6.16E-03,2.38E-03
157766,6.58E-03,2.35E-03
157767,7.31E-03,2.32E-03
157768,7.65E-03,2.30E-03
157769,8.14E-03,2.27E-03
157770,8.46E-03,2.24E-03
157771,9.24E-03,2.21E-03
157772,9.71E-03,2.18E-03
157773,9.88E-03,2.14E-03
157774,1.02E-02,2.11E-03
157775,1.03E-02,2.07E-03
157776,1.03E-02,2.04E-03
157777,1.03E-02,2.00E-03
157778,1.02E-02,1.96E-03
157779,9.88E-03,1.93E-03
157780,9.80E-03,1.89E-03
157781,9.63E-03,1.85E-03
157782,9.49E-03,1.81E-03
157783,9.31E-03,1.78E-03
157784,9.20E-03,1.74E-03
157785,9.07E-03,1.70E-03
157786,8.97E-03,1.66E-03
157787,8.89E-03,1.62E-03
157788,8.82E-03,1.58E-03
157789,8.75E-03,1.54E-03
157790,8.69E-03,1.49E-03
157791,8.65E-03,1.45E-03
157792,8.61E-03,1.40E-03
157793,8.48E-03,1.36E-03
157794,8.49E-03,1.31E-03
157795,8.47E-03,1.27E-03
157796,8.54E-03,1.22E-03
157797,9.32E-03,1.18E-03
157798,1.03E-02,1.13E-03
157799,6.80E-03,1.05E-03
157800,8.51E-03,1.08E-03
157801,8.06E-03,2.59E-03
157802,8.06E-03,2.56E-03
157803,8.06E-03,2.53E-03
157804,8.06E-03,2.49E-03
157805,8.06E-03,2.46E-03
157806,8.06E-03,2.43E-03
157807,8.06E-03,2.39E-03
157808,8.06E-03,2.36E-03
157809,8.06E-03,2.33E-03
157810,8.06E-03,2.29E-03
157811,8.06E-03,2.26E-03
157812,8.06E-03,2.23E-03
157813,8.06E-03,2.19E-03
157814,8.06E-03,2.16E-03
157815,8.06E-03,2.13E-03
157816,8.06E-03,2.09E-03
157817,8.06E-03,2.06E-03
157818,8.06E-03,2.03E-03
157819,8.06E-03,1.99E-03
157820,8.06E-03,1.96E-03
157821,8.06E-03,1.92E-03
157822,8.06E-03,1.89E-03
157823,8.06E-03,1.86E-03
157824,8.06E-03,1.82E-03
157825,8.06E-03,1.79E-03
157826,8.06E-03,1.75E-03
157827,8.06E-03,1.72E-03
157828,8.06E-03,1.68E-03
157829,8.06E-03,1.64E-03
157830,8.06E-03,1.61E-03
157831,8.06E-03,1.57E-03
157832,8.06E-03,1.54E-03
157833,8.06E-03,1.50E-03
157834,8.06E-03,1.47E-03
157835,8.06E-03,1.43E-03
157836,8.06E-03,1.39E-03
157837,8.06E-03,1.36E-03
157838,8.06E-03,1.32E-03
157839,8.06E-03,1.29E-03
157840,8.06E-03,1.25E-03
157841,8.06E-03,1.21E-03
157842,8.06E-03,1.18E-03
157843,8.06E-03,1.14E-03
157844,8.06E-03,1.11E-03
157845,8.06E-03,1.07E-03
157846,8.06E-03,1.04E-03
157847,8.06E-03,1.00E-03
157848,8.06E-03,9.71E-04
157849,8.06E-03,9.37E-04
157850,8.06E-03,9.04E-04
157851,8.06E-03,8.71E-04
157852,8.06E-03,8.38E-04
157853,8.06E-03,8.06E-04
157854,8.06E-03,7.75E-04
157855,8.06E-03,7.44E-04
157856,8.06E-03,7.14E-04
157857,8.06E-03,6.85E-04
157858,8.06E-03,6.56E-04
157859,8.06E-03,6.28E-04
157860,8.06E-03,6.01E-04
157861,8.06E-03,5.75E-04
157862,8.11E-03,5.49E-04
157863,8.11E-03,5.25E-04
157864,8.05E-03,5.02E-04
157865,7.92E-03,4.79E-04
157866,7.85E-03,4.58E-04
157867,7.87E-03,4.40E-04
157868,7.96E-03,4.23E-04
157869,8.00E-03,4.08E-04
157870,7.93E-03,3.94E-04
157871,7.54E-03,3.79E-04
157872,6.94E-03,3.56E-04
157873,6.41E-03,3.49E-04
157874,6.34E-03,3.46E-04
157875,7.79E-03,1.09E-03
157876,7.65E-03,1.28E-03
157877,7.27E-03,1.32E-03
157878,7.14E-03,1.35E-03
157879,7.33E-03,1.38E-03
157880,8.28E-03,2.78E-03
157881,8.10E-03,2.64E-03
157882,8.36E-03,1.05E-03
157883,7.65E-03,1.08E-03
157884,7.93E-03,2.75E-03
157885,8.07E-03,2.68E-03
157886,7.91E-03,2.71E-03
157887,5.33E-03,1.55E-03
157888,5.28E-03,1.56E-03
157889,7.30E-03,9.32E-04
157890,7.57E-03,9.08E-04
157891,8.01E-03,8.81E-04
157892,8.30E-03,8.53E-04
157893,8.26E-03,8.22E-04
157894,8.20E-03,7.89E-04
157895,8.10E-03,7.54E-04
157896,7.99E-03,7.19E-04
157897,7.91E-03,6.85E-04
157898,7.86E-03,6.53E-04
157899,7.82E-03,6.22E-04
157900,7.76E-03,5.93E-04
157901,7.66E-03,5.66E-04
157902,7.58E-03,5.39E-04
157903,7.53E-03,5.13E-04
157904,7.43E-03,4.88E-04
157905,7.38E-03,4.62E-04
157906,7.28E-03,4.36E-04
157907,7.14E-03,4.10E-04
157908,6.95E-03,3.84E-04
157909,6.75E-03,3.59E-04
157910,6.69E-03,3.35E-04
157911,4.83E-03,3.14E-04
157912,5.71E-03,2.96E-04
157913,6.27E-03,2.75E-04
157914,6.34E-03,2.54E-04
157915,5.98E-03,2.29E-04
157916,5.71E-03,2.05E-04
157917,6.00E-03,2.00E-04
157918,6.00E-03,1.90E-04
157919,9.67E-03,4.25E-04
157920,6.61E-03,1.81E-04
157921,5.85E-03,1.65E-04
157922,5.94E-03,1.68E-04
157923,4.86E-03,1.62E-04
157924,6.21E-03,1.43E-03
157925,6.50E-03,1.45E-03
157926,6.62E-03,1.47E-03
157927,6.86E-03,1.49E-03
157928,6.85E-03,1.50E-03
157929,6.43E-03,1.53E-03
157930,7.79E-03,1.60E-03
157931,8.42E-03,1.62E-03
157932,8.48E-03,1.64E-03
157933,8.38E-03,1.65E-03
157934,8.16E-03,1.66E-03
157935,7.36E-03,1.66E-03
157936,5.20E-03,1.65E-03
157937,6.89E-03,1.69E-03
157938,7.21E-03,9.55E-04
157939,7.50E-03,9.29E-04
157940,7.79E-03,9.01E-04
157941,8.21E-03,8.71E-04
157942,8.21E-03,8.38E-04
157943,8.16E-03,8.03E-04
157944,8.07E-03,7.66E-04
157945,7.97E-03,7.28E-04
157946,7.91E-03,6.92E-04
157947,7.86E-03,6.58E-04
157948,7.82E-03,6.27E-04
157949,7.77E-03,5.98E-04
157950,7.69E-03,5.72E-04
157951,7.62E-03,5.47E-04
157952,7.57E-03,5.22E-04
157953,7.53E-03,4.96E-04
157954,7.47E-03,4.70E-04
157955,7.40E-03,4.42E-04
157956,7.28E-03,4.14E-04
157957,7.10E-03,3.86E-04
157958,6.91E-03,3.60E-04
157959,6.79E-03,3.36E-04
157960,5.25E-03,3.14E-04
157961,5.88E-03,2.95E-04
157962,6.22E-03,2.75E-04
157963,5.91E-03,2.53E-04
157964,5.61E-03,2.32E-04
157965,4.85E-03,2.09E-04
157966,7.28E-03,2.53E-03
157967,8.24E-03,2.50E-03
157968,8.05E-03,2.47E-03
157969,6.76E-03,2.44E-03
157970,6.50E-03,2.42E-03
157971,6.49E-03,2.39E-03
157972,6.79E-03,2.36E-03
157973,7.05E-03,2.33E-03
157974,7.31E-03,2.30E-03
157975,7.66E-03,2.27E-03
157976,7.90E-03,2.24E-03
157977,8.02E-03,2.21E-03
157978,8.02E-03,2.18E-03
157979,7.97E-03,2.15E-03
157980,8.00E-03,2.12E-03
157981,8.06E-03,2.09E-03
157982,8.06E-03,2.06E-03
157983,8.06E-03,2.02E-03
157984,8.06E-03,1.99E-03
157985,8.06E-03,1.95E-03
157986,8.06E-03,1.92E-03
157987,8.06E-03,1.89E-03
157988,8.06E-03,1.85E-03
157989,8.06E-03,1.82E-03
157990,8.06E-03,1.78E-03
157991,8.06E-03,1.75E-03
157992,8.06E-03,1.71E-03
157993,8.06E-03,1.67E-03
157994,8.06E-03,1.64E-03
157995,8.06E-03,1.60E-03
157996,8.06E-03,1.57E-03
157997,8.06E-03,1.53E-03
157998,8.06E-03,1.49E-03
157999,8.06E-03,1.46E-03
158000,8.06E-03,1.42E-03
158001,8.06E-03,1.38E-03
158002,8.06E-03,1.34E-03
158003,8.06E-03,1.31E-03
158004,8.06E-03,1.27E-03
158005,8.06E-03,1.23E-03
158006,8.06E-03,1.20E-03
158007,8.06E-03,1.16E-03
158008,8.06E-03,1.13E-03
158009,8.06E-03,1.09E-03
158010,8.06E-03,1.06E-03
158011,8.06E-03,1.02E-03
158012,8.06E-03,9.91E-04
158013,8.06E-03,9.59E-04
158014,8.06E-03,9.27E-04
158015,8.06E-03,8.96E-04
158016,8.06E-03,8.66E-04
158017,8.06E-03,8.37E-04
158018,8.06E-03,8.09E-04
158019,8.06E-03,7.81E-04
158020,8.06E-03,7.54E-04
158021,8.06E-03,7.28E-04
158022,8.06E-03,7.03E-04
158023,8.06E-03,6.78E-04
158024,8.06E-03,6.54E-04
158025,8.06E-03,6.30E-04
158026,8.06E-03,6.06E-04
158027,8.06E-03,5.83E-04
158028,8.06E-03,5.60E-04
158029,8.06E-03,5.37E-04
158030,8.06E-03,5.14E-04
158031,8.06E-03,4.91E-04
158032,8.06E-03,4.69E-04
158033,8.06E-03,4.46E-04
158034,8.06E-03,4.24E-04
158035,8.06E-03,4.01E-04
158036,8.06E-03,3.79E-04
158037,8.06E-03,3.57E-04
158038,8.06E-03,3.35E-04
158039,8.06E-03,3.14E-04
158040,7.97E-03,2.92E-04
158041,7.91E-03,2.72E-04
158042,7.74E-03,2.52E-04
158043,7.49E-03,2.33E-04
158044,7.11E-03,2.16E-04
158045,6.28E-03,2.01E-04
158046,5.61E-03,1.78E-04
158047,5.67E-03,1.72E-04
158048,5.30E-03,1.65E-04
158049,4.23E-03,1.53E-04
158050,4.21E-03,1.49E-04
158051,5.07E-03,1.47E-04
158052,5.95E-03,1.44E-04
158053,6.93E-03,1.39E-04
158054,7.76E-03,1.39E-04
158055,7.08E-03,1.44E-04
158056,7.20E-03,1.50E-04
158057,7.26E-03,1.56E-04
158058,7.16E-03,1.62E-04
158059,6.90E-03,1.67E-04
158060,6.94E-03,9.35E-04
158061,7.35E-03,9.20E-04
158062,7.51E-03,8.97E-04
158063,7.54E-03,8.77E-04
158064,7.58E-03,8.57E-04
158065,7.81E-03,8.37E-04
158066,7.82E-03,8.17E-04
158067,7.83E-03,7.98E-04
158068,7.84E-03,7.78E-04
158069,7.84E-03,7.59E-04
158070,7.84E-03,7.40E-04
158071,7.85E-03,7.21E-04
158072,7.85E-03,7.02E-04
158073,7.86E-03,6.83E-04
158074,7.87E-03,6.66E-04
158075,7.87E-03,6.49E-04
158076,7.88E-03,6.34E-04
158077,7.88E-03,6.19E-04
158078,7.81E-03,6.05E-04
158079,7.77E-03,5.92E-04
158080,7.75E-03,5.80E-04
158081,7.87E-03,5.67E-04
158082,7.97E-03,5.58E-04
158083,7.97E-03,5.43E-04
158084,7.90E-03,5.39E-04
158085,7.80E-03,5.40E-04
158086,7.83E-03,5.39E-04
158087,7.89E-03,5.39E-04
158088,7.98E-03,5.37E-04
158089,8.04E-03,5.35E-04
158090,8.04E-03,5.32E-04
158091,8.04E-03,5.30E-04
158092,8.04E-03,5.27E-04
158093,8.04E-03,5.24E-04
158094,8.04E-03,5.21E-04
158095,8.02E-03,5.18E-04
158096,7.97E-03,5.16E-04
158097,7.89E-03,5.14E-04
158098,7.28E-03,5.13E-04
158099,5.79E-03,5.11E-04
158100,5.69E-03,5.11E-04
158101,6.71E-03,5.11E-04
158102,7.00E-03,5.12E-04
158103,7.34E-03,5.14E-04
158104,7.67E-03,5.16E-04
158105,7.83E-03,5.18E-04
158106,8.01E-03,5.20E-04
158107,8.14E-03,5.22E-04
158108,8.17E-03,5.24E-04
158109,8.18E-03,5.26E-04
158110,8.19E-03,5.27E-04
158111,8.21E-03,5.27E-04
158112,8.51E-03,5.26E-04
158113,8.60E-03,5.25E-04
158114,8.65E-03,5.23E-04
158115,8.76E-03,5.19E-04
158116,8.89E-03,5.15E-04
158117,8.77E-03,4.95E-04
158118,7.22E-03,4.92E-04
158119,6.92E-03,4.89E-04
158120,6.29E-03,4.83E-04
158121,6.86E-03,4.78E-04
158122,7.14E-03,4.71E-04
158123,7.69E-03,4.62E-04
158124,8.49E-03,4.51E-04
158125,9.00E-03,4.38E-04
158126,5.76E-03,1.54E-03
158127,5.24E-03,1.71E-03
158128,5.17E-03,1.72E-03
158129,5.00E-03,1.72E-03
158130,5.03E-03,1.73E-03
158131,5.25E-03,1.75E-03
158132,5.80E-03,1.77E-03
158133,5.87E-03,1.80E-03
158134,7.42E-03,1.83E-03
158135,7.54E-03,1.87E-03
158136,7.85E-03,1.91E-03
158137,8.03E-03,1.95E-03
158138,8.03E-03,1.99E-03
158139,8.03E-03,2.04E-03
158140,8.03E-03,2.09E-03
158141,8.03E-03,2.14E-03
158142,8.03E-03,2.19E-03
158143,8.03E-03,2.25E-03
158144,8.03E-03,2.31E-03
158145,8.03E-03,2.36E-03
158146,7.58E-03,2.42E-03
158147,7.06E-03,2.48E-03
158148,7.10E-03,2.54E-03
158149,7.26E-03,2.60E-03
158150,7.36E-03,2.66E-03
158151,7.44E-03,2.73E-03
158152,7.51E-03,2.80E-03
158153,7.56E-03,2.87E-03
158154,7.61E-03,2.95E-03
158155,7.65E-03,3.02E-03
158156,7.76E-03,3.10E-03
158157,7.92E-03,3.18E-03
158158,8.03E-03,3.26E-03
158159,8.04E-03,3.35E-03
158160,8.02E-03,3.43E-03
158161,8.11E-03,3.51E-03
158162,8.17E-03,3.59E-03
158163,8.30E-03,3.67E-03
158164,8.49E-03,3.75E-03
158165,8.68E-03,3.83E-03
158166,8.87E-03,3.91E-03
158167,8.85E-03,3.99E-03
158168,8.75E-03,4.07E-03
158169,8.56E-03,4.14E-03
158170,8.10E-03,4.21E-03
158171,7.58E-03,4.28E-03
158172,7.39E-03,4.35E-03
158173,7.44E-03,4.42E-03
158174,6.65E-03,1.84E-04
158175,6.81E-03,2.83E-03
158176,6.79E-03,2.81E-03
158177,8.30E-03,1.08E-03
158178,8.69E-03,1.10E-03
158179,9.16E-03,1.12E-03
158180,9.21E-03,1.14E-03
158181,8.98E-03,1.16E-03
158182,8.61E-03,1.17E-03
158183,8.37E-03,1.18E-03
158184,8.22E-03,1.17E-03
158185,8.03E-03,1.17E-03
158186,7.94E-03,1.16E-03
158187,7.81E-03,1.15E-03
158188,7.52E-03,1.14E-03
158189,7.50E-03,1.13E-03
158190,7.58E-03,1.12E-03
158191,7.76E-03,1.11E-03
158192,7.87E-03,1.10E-03
158193,7.99E-03,1.08E-03
158194,8.12E-03,1.07E-03
158195,8.22E-03,1.05E-03
158196,7.43E-03,1.04E-03
158197,5.68E-03,1.04E-03
158198,5.70E-03,1.00E-03
158199,7.05E-03,1.00E-03
158200,8.87E-03,3.81E-04
158201,5.96E-03,3.80E-04
158202,5.89E-03,3.67E-04
158203,5.23E-03,3.65E-04
158204,6.73E-03,3.40E-04
158205,7.77E-03,1.05E-03
158206,8.11E-03,1.01E-03
158207,8.95E-03,9.68E-04
158208,7.13E-03,9.28E-04
158209,7.54E-03,1.37E-03
158210,6.74E-03,1.35E-03
158211,6.56E-03,1.32E-03
158212,5.85E-03,1.29E-03
158213,7.95E-03,2.78E-03
158214,7.21E-03,1.10E-03
158215,7.17E-03,1.14E-03
158216,6.08E-03,1.22E-03
158217,6.55E-03,1.53E-03
158218,8.24E-03,1.02E-03
158219,7.09E-03,1.01E-03
158220,6.43E-03,1.01E-03
158221,5.88E-03,1.62E-03
158222,4.63E-03,1.63E-03
158223,4.48E-03,1.61E-03
158224,6.08E-03,8.90E-04
158225,8.06E-03,2.60E-03
158226,8.06E-03,2.57E-03
158227,8.06E-03,2.54E-03
158228,8.06E-03,2.50E-03
158229,8.06E-03,2.47E-03
158230,8.06E-03,2.44E-03
158231,8.06E-03,2.40E-03
158232,8.06E-03,2.37E-03
158233,8.06E-03,2.34E-03
158234,8.06E-03,2.30E-03
158235,8.06E-03,2.27E-03
158236,8.06E-03,2.24E-03
158237,8.06E-03,2.21E-03
158238,8.06E-03,2.17E-03
158239,8.06E-03,2.14E-03
158240,8.06E-03,2.11E-03
158241,8.06E-03,2.07E-03
158242,8.06E-03,2.04E-03
158243,8.06E-03,2.00E-03
158244,8.06E-03,1.97E-03
158245,8.06E-03,1.94E-03
158246,8.06E-03,1.90E-03
158247,8.06E-03,1.87E-03
158248,8.06E-03,1.83E-03
158249,8.06E-03,1.80E-03
158250,8.06E-03,1.76E-03
158251,8.06E-03,1.73E-03
158252,8.06E-03,1.69E-03
158253,8.06E-03,1.66E-03
158254,8.06E-03,1.62E-03
158255,8.06E-03,1.58E-03
158256,8.06E-03,1.55E-03
158257,8.06E-03,1.51E-03
158258,8.06E-03,1.48E-03
158259,8.06E-03,1.44E-03
158260,8.06E-03,1.40E-03
158261,8.06E-03,1.37E-03
158262,8.06E-03,1.33E-03
158263,8.06E-03,1.30E-03
158264,8.06E-03,1.26E-03
158265,8.06E-03,1.23E-03
158266,8.06E-03,1.19E-03
158267,8.06E-03,1.15E-03
158268,8.06E-03,1.12E-03
158269,8.06E-03,1.08E-03
158270,8.06E-03,1.05E-03
158271,8.06E-03,1.01E-03
158272,8.06E-03,9.80E-04
158273,8.06E-03,9.46E-04
158274,8.06E-03,9.13E-04
158275,8.06E-03,8.80E-04
158276,8.06E-03,8.47E-04
158277,8.06E-03,8.15E-04
158278,8.06E-03,7.84E-04
158279,8.06E-03,7.53E-04
158280,8.06E-03,7.22E-04
158281,8.06E-03,6.93E-04
158282,8.06E-03,6.64E-04
158283,8.06E-03,6.36E-04
158284,8.06E-03,6.09E-04
158285,8.06E-03,5.82E-04
158286,8.06E-03,5.56E-04
158287,8.06E-03,5.31E-04
158288,8.06E-03,5.08E-04
158289,8.02E-03,4.85E-04
158290,8.00E-03,4.63E-04
158291,8.02E-03,4.43E-04
158292,8.02E-03,4.25E-04
158293,7.90E-03,4.08E-04
158294,7.81E-03,3.92E-04
158295,7.66E-03,3.75E-04
158296,7.39E-03,3.59E-04
158297,7.23E-03,3.46E-04
158298,7.53E-03,3.37E-04
158299,8.06E-03,3.30E-04
158300,7.50E-03,1.06E-03
158301,7.71E-03,1.09E-03
158302,5.46E-03,2.53E-03
158303,6.92E-03,2.50E-03
158304,7.29E-03,2.48E-03
158305,7.03E-03,2.46E-03
158306,6.71E-03,2.43E-03
158307,6.80E-03,2.41E-03
158308,6.99E-03,2.38E-03
158309,7.22E-03,2.36E-03
158310,7.56E-03,2.33E-03
158311,7.72E-03,2.31E-03
158312,8.12E-03,2.28E-03
158313,8.41E-03,2.25E-03
158314,9.12E-03,2.22E-03
158315,9.37E-03,2.19E-03
158316,9.61E-03,2.15E-03
158317,9.79E-03,2.12E-03
158318,1.00E-02,2.09E-03
158319,1.01E-02,2.05E-03
158320,9.99E-03,2.01E-03
158321,9.89E-03,1.98E-03
158322,9.65E-03,1.94E-03
158323,9.54E-03,1.90E-03
158324,9.42E-03,1.87E-03
158325,9.24E-03,1.83E-03
158326,9.14E-03,1.79E-03
158327,9.04E-03,1.75E-03
158328,8.94E-03,1.72E-03
158329,8.85E-03,1.68E-03
158330,8.78E-03,1.63E-03
158331,8.71E-03,1.59E-03
158332,8.65E-03,1.55E-03
158333,8.60E-03,1.50E-03
158334,8.56E-03,1.46E-03
158335,8.53E-03,1.41E-03
158336,8.50E-03,1.36E-03
158337,8.47E-03,1.32E-03
158338,8.45E-03,1.27E-03
158339,8.64E-03,1.22E-03
158340,8.76E-03,1.17E-03
158341,8.43E-03,1.12E-03
158342,8.09E-03,1.07E-03
158343,7.57E-03,1.01E-03
158344,8.04E-03,2.75E-03
158345,6.43E-03,1.08E-03
158346,6.60E-03,1.12E-03
158347,8.10E-03,2.64E-03
158348,7.93E-03,2.72E-03
158349,8.05E-03,4.54E-03
158350,7.32E-03,4.55E-03
158351,7.24E-03,4.55E-03
158352,7.59E-03,4.55E-03
158353,7.93E-03,4.55E-03
158354,8.25E-03,4.56E-03
158355,8.43E-03,4.56E-03
158356,9.02E-03,4.57E-03
158357,6.90E-03,4.61E-03
158358,9.04E-03,4.57E-03
158359,8.41E-03,4.55E-03
158360,8.20E-03,4.52E-03
158361,8.14E-03,4.50E-03
158362,8.15E-03,4.47E-03
158363,8.15E-03,4.45E-03
158364,8.16E-03,4.42E-03
158365,8.16E-03,4.40E-03
158366,8.17E-03,4.37E-03
158367,8.17E-03,4.35E-03
158368,8.18E-03,4.32E-03
158369,8.19E-03,4.30E-03
158370,8.20E-03,4.27E-03
158371,8.21E-03,4.24E-03
158372,8.21E-03,4.22E-03
158373,8.21E-03,4.19E-03
158374,8.20E-03,4.16E-03
158375,8.20E-03,4.13E-03
158376,8.19E-03,4.10E-03
158377,8.18E-03,4.07E-03
158378,8.18E-03,4.04E-03
158379,8.17E-03,4.01E-03
158380,8.16E-03,3.98E-03
158381,8.15E-03,3.95E-03
158382,8.15E-03,3.92E-03
158383,8.14E-03,3.88E-03
158384,8.13E-03,3.85E-03
158385,8.13E-03,3.82E-03
158386,8.12E-03,3.79E-03
158387,8.11E-03,3.75E-03
158388,8.11E-03,3.72E-03
158389,8.10E-03,3.68E-03
158390,8.10E-03,3.65E-03
158391,8.09E-03,3.62E-03
158392,8.08E-03,3.58E-03
158393,8.08E-03,3.55E-03
158394,8.07E-03,3.51E-03
158395,8.07E-03,3.48E-03
158396,8.06E-03,3.45E-03
158397,8.06E-03,3.41E-03
158398,8.05E-03,3.38E-03
158399,8.05E-03,3.34E-03
158400,8.06E-03,3.31E-03
158401,8.06E-03,3.28E-03
158402,8.07E-03,3.24E-03
158403,8.06E-03,3.21E-03
158404,8.05E-03,3.18E-03
158405,8.03E-03,3.15E-03
158406,8.01E-03,3.12E-03
158407,7.99E-03,3.09E-03
158408,7.96E-03,3.05E-03
158409,7.94E-03,3.02E-03
158410,7.99E-03,2.99E-03
158411,8.15E-03,2.96E-03
158412,8.47E-03,2.93E-03
158413,8.41E-03,2.90E-03
158414,8.01E-03,2.88E-03
158415,7.15E-03,2.85E-03
158416,6.41E-03,2.83E-03
158417,6.28E-03,2.80E-03
158418,6.74E-03,2.78E-03
158419,8.11E-03,2.75E-03
158420,8.01E-03,2.68E-03
158421,6.83E-03,1.75E-04
158422,7.18E-03,2.78E-03
158423,7.12E-03,1.18E-03
158424,7.94E-03,1.42E-03
158425,6.91E-03,1.44E-03
158426,6.88E-03,1.46E-03
158427,6.90E-03,1.47E-03
158428,7.01E-03,1.49E-03
158429,6.20E-03,1.50E-03
158430,8.47E-03,1.57E-03
158431,8.54E-03,1.58E-03
158432,8.47E-03,1.59E-03
158433,8.33E-03,1.60E-03
158434,8.30E-03,1.61E-03
158435,6.84E-03,1.60E-03
158436,5.26E-03,1.60E-03
158437,4.39E-03,1.58E-03
158438,5.71E-03,1.59E-03
158439,5.78E-03,2.67E-03
158440,5.50E-03,2.65E-03
158441,6.82E-03,2.62E-03
158442,7.47E-03,2.60E-03
158443,7.60E-03,2.56E-03
158444,7.44E-03,2.53E-03
158445,7.53E-03,2.50E-03
158446,7.51E-03,2.48E-03
158447,7.19E-03,2.45E-03
158448,6.83E-03,2.42E-03
158449,6.87E-03,2.39E-03
158450,7.11E-03,2.36E-03
158451,7.25E-03,2.33E-03
158452,7.57E-03,2.30E-03
158453,7.69E-03,2.27E-03
158454,7.86E-03,2.24E-03
158455,8.00E-03,2.21E-03
158456,8.06E-03,2.18E-03
158457,8.06E-03,2.15E-03
158458,8.06E-03,2.12E-03
158459,8.06E-03,2.09E-03
158460,8.06E-03,2.05E-03
158461,8.06E-03,2.02E-03
158462,8.06E-03,1.99E-03
158463,8.06E-03,1.95E-03
158464,8.06E-03,1.92E-03
158465,8.06E-03,1.88E-03
158466,8.06E-03,1.85E-03
158467,8.06E-03,1.81E-03
158468,8.06E-03,1.78E-03
158469,8.06E-03,1.74E-03
158470,8.06E-03,1.71E-03
158471,8.06E-03,1.67E-03
158472,8.06E-03,1.64E-03
158473,8.06E-03,1.60E-03
158474,8.06E-03,1.56E-03
158475,8.06E-03,1.53E-03
158476,8.06E-03,1.49E-03
158477,8.06E-03,1.45E-03
158478,8.06E-03,1.42E-03
158479,8.06E-03,1.38E-03
158480,8.06E-03,1.34E-03
158481,8.06E-03,1.30E-03
158482,8.06E-03,1.27E-03
158483,8.06E-03,1.23E-03
158484,8.06E-03,1.20E-03
158485,8.06E-03,1.16E-03
158486,8.06E-03,1.12E-03
158487,8.06E-03,1.09E-03
158488,8.06E-03,1.05E-03
158489,8.06E-03,1.02E-03
158490,8.06E-03,9.87E-04
158491,8.06E-03,9.55E-04
158492,8.06E-03,9.23E-04
158493,8.06E-03,8.92E-04
158494,8.06E-03,8.61E-04
158495,8.06E-03,8.32E-04
158496,8.06E-03,8.03E-04
158497,8.06E-03,7.75E-04
158498,8.06E-03,7.48E-04
158499,8.06E-03,7.22E-04
158500,8.06E-03,6.96E-04
158501,8.06E-03,6.70E-04
158502,8.06E-03,6.45E-04
158503,8.06E-03,6.21E-04
158504,8.06E-03,5.97E-04
158505,8.06E-03,5.73E-04
158506,8.06E-03,5.50E-04
158507,8.06E-03,5.27E-04
158508,8.06E-03,5.04E-04
158509,8.06E-03,4.81E-04
158510,8.06E-03,4.59E-04
158511,8.06E-03,4.36E-04
158512,8.06E-03,4.14E-04
158513,8.06E-03,3.92E-04
158514,8.06E-03,3.70E-04
158515,8.06E-03,3.48E-04
158516,8.06E-03,3.27E-04
158517,8.06E-03,3.06E-04
158518,8.01E-03,2.85E-04
158519,7.92E-03,2.65E-04
158520,7.78E-03,2.46E-04
158521,7.64E-03,2.29E-04
158522,7.40E-03,2.13E-04
158523,7.01E-03,1.98E-04
158524,7.20E-03,1.07E-03
158525,7.32E-03,1.06E-03
158526,6.77E-03,1.06E-03
158527,6.67E-03,1.05E-03
158528,6.72E-03,1.03E-03
158529,6.86E-03,1.00E-03
158530,7.17E-03,9.75E-04
158531,7.48E-03,9.46E-04
158532,7.79E-03,9.17E-04
158533,8.05E-03,8.86E-04
158534,8.16E-03,8.51E-04
158535,8.11E-03,8.15E-04
158536,8.04E-03,7.76E-04
158537,7.95E-03,7.37E-04
158538,7.90E-03,6.98E-04
158539,7.86E-03,6.62E-04
158540,7.83E-03,6.30E-04
158541,7.78E-03,6.03E-04
158542,7.72E-03,5.78E-04
158543,7.65E-03,5.56E-04
158544,7.62E-03,5.32E-04
158545,7.58E-03,5.06E-04
158546,7.53E-03,4.77E-04
158547,7.47E-03,4.46E-04
158548,7.37E-03,4.16E-04
158549,7.21E-03,3.87E-04
158550,7.06E-03,3.61E-04
158551,6.95E-03,3.36E-04
158552,5.66E-03,3.14E-04
158553,6.27E-03,2.93E-04
158554,6.15E-03,2.72E-04
158555,5.94E-03,2.51E-04
158556,5.57E-03,2.30E-04
158557,4.66E-03,2.10E-04
158558,5.50E-03,1.50E-04
158559,5.27E-03,1.41E-04
158560,5.03E-03,1.32E-04
158561,5.02E-03,1.28E-04
158562,5.14E-03,1.25E-04
158563,5.78E-03,1.21E-04
158564,6.96E-03,1.16E-04
158565,6.25E-03,1.09E-04
158566,7.29E-03,1.22E-04
158567,7.20E-03,1.29E-04
158568,7.14E-03,1.37E-04
158569,7.23E-03,1.44E-04
158570,7.23E-03,1.52E-04
158571,7.18E-03,1.61E-04
158572,6.96E-03,1.69E-04
158573,5.18E-03,1.56E-03
158574,7.79E-03,8.66E-04
158575,7.60E-03,8.43E-04
158576,7.64E-03,8.23E-04
158577,7.71E-03,8.04E-04
158578,7.81E-03,7.84E-04
158579,7.86E-03,7.65E-04
158580,7.87E-03,7.46E-04
158581,7.87E-03,7.27E-04
158582,7.88E-03,7.09E-04
158583,7.88E-03,6.90E-04
158584,7.88E-03,6.71E-04
158585,7.89E-03,6.52E-04
158586,7.89E-03,6.34E-04
158587,7.90E-03,6.17E-04
158588,7.90E-03,6.02E-04
158589,7.91E-03,5.87E-04
158590,7.91E-03,5.74E-04
158591,7.91E-03,5.62E-04
158592,7.92E-03,5.51E-04
158593,7.95E-03,5.40E-04
158594,8.00E-03,5.29E-04
158595,8.89E-03,5.19E-04
158596,8.96E-03,4.97E-04
158597,8.06E-03,5.00E-04
158598,7.92E-03,5.02E-04
158599,7.98E-03,5.04E-04
158600,7.99E-03,5.04E-04
158601,8.04E-03,5.04E-04
158602,8.04E-03,5.03E-04
158603,8.04E-03,5.02E-04
158604,8.04E-03,5.00E-04
158605,8.04E-03,4.98E-04
158606,8.04E-03,4.96E-04
158607,8.04E-03,4.94E-04
158608,8.02E-03,4.92E-04
158609,7.98E-03,4.90E-04
158610,7.91E-03,4.89E-04
158611,7.39E-03,4.88E-04
158612,6.14E-03,4.87E-04
158613,6.05E-03,4.87E-04
158614,6.91E-03,4.88E-04
158615,7.16E-03,4.90E-04
158616,7.45E-03,4.92E-04
158617,7.73E-03,4.94E-04
158618,7.86E-03,4.97E-04
158619,8.01E-03,5.00E-04
158620,8.13E-03,5.03E-04
158621,8.15E-03,5.06E-04
158622,8.16E-03,5.09E-04
158623,8.17E-03,5.12E-04
158624,8.18E-03,5.14E-04
158625,8.46E-03,5.15E-04
158626,8.47E-03,5.16E-04
158627,8.68E-03,5.14E-04
158628,8.86E-03,5.12E-04
158629,9.15E-03,5.08E-04
158630,1.01E-02,5.07E-04
158631,9.94E-03,4.92E-04
158632,8.30E-03,4.92E-04
158633,7.01E-03,4.89E-04
158634,6.53E-03,4.86E-04
158635,6.70E-03,4.81E-04
158636,7.32E-03,4.73E-04
158637,7.88E-03,4.63E-04
158638,8.60E-03,4.52E-04
158639,9.23E-03,4.38E-04
158640,9.59E-03,4.25E-04
158641,9.59E-03,4.13E-04
158642,9.33E-03,3.95E-04
158643,8.04E-03,3.87E-04
158644,7.77E-03,3.81E-04
158645,6.62E-03,3.68E-04
158646,5.88E-03,3.62E-04
158647,5.56E-03,3.51E-04
158648,6.86E-03,3.41E-04
158649,7.70E-03,3.33E-04
158650,7.68E-03,1.02E-03
158651,8.10E-03,9.85E-04
158652,8.00E-03,9.44E-04
158653,7.89E-03,9.06E-04
158654,8.07E-03,1.11E-03
158655,8.79E-03,1.13E-03
158656,9.20E-03,1.15E-03
158657,9.16E-03,1.17E-03
158658,8.70E-03,1.19E-03
158659,8.47E-03,1.19E-03
158660,8.30E-03,1.19E-03
158661,8.17E-03,1.18E-03
158662,8.01E-03,1.17E-03
158663,7.93E-03,1.16E-03
158664,7.82E-03,1.14E-03
158665,7.58E-03,1.13E-03
158666,7.53E-03,1.12E-03
158667,7.67E-03,1.10E-03
158668,7.75E-03,1.08E-03
158669,7.87E-03,1.07E-03
158670,7.91E-03,1.05E-03
158671,8.00E-03,1.04E-03
158672,7.70E-03,1.03E-03
158673,7.12E-03,1.02E-03
158674,6.82E-03,1.01E-03
158675,6.68E-03,9.74E-04
158676,6.89E-03,9.59E-04
158677,7.25E-03,9.57E-04
158678,7.33E-03,1.37E-03
158679,6.50E-03,1.34E-03
158680,6.18E-03,1.32E-03
158681,5.61E-03,1.30E-03
158682,7.85E-03,2.75E-03
158683,7.62E-03,2.75E-03
158684,6.54E-03,1.13E-03
158685,6.80E-03,1.08E-03
158686,6.01E-03,1.12E-03
158687,8.58E-03,1.52E-03
158688,6.95E-03,1.14E-03
158689,8.27E-03,4.63E-03
158690,7.70E-03,4.63E-03
158691,7.58E-03,4.64E-03
158692,7.68E-03,4.64E-03
158693,7.83E-03,4.65E-03
158694,7.98E-03,4.66E-03
158695,8.07E-03,4.67E-03
158696,7.51E-03,4.69E-03
158697,5.86E-03,4.70E-03
158698,6.13E-03,4.69E-03
158699,7.83E-03,4.68E-03
158700,8.25E-03,4.64E-03
158701,8.20E-03,4.61E-03
158702,8.12E-03,4.58E-03
158703,8.13E-03,4.55E-03
158704,8.13E-03,4.53E-03
158705,8.14E-03,4.50E-03
158706,8.14E-03,4.47E-03
158707,8.15E-03,4.44E-03
158708,8.15E-03,4.42E-03
158709,8.16E-03,4.39E-03
158710,8.17E-03,4.36E-03
158711,8.17E-03,4.34E-03
158712,8.18E-03,4.31E-03
158713,8.19E-03,4.28E-03
158714,8.18E-03,4.25E-03
158715,8.18E-03,4.22E-03
158716,8.17E-03,4.19E-03
158717,8.17E-03,4.16E-03
158718,8.16E-03,4.13E-03
158719,8.15E-03,4.10E-03
158720,8.15E-03,4.07E-03
158721,8.14E-03,4.03E-03
158722,8.14E-03,4.00E-03
158723,8.13E-03,3.97E-03
158724,8.13E-03,3.93E-03
158725,8.12E-03,3.90E-03
158726,8.11E-03,3.87E-03
158727,8.11E-03,3.83E-03
158728,8.10E-03,3.80E-03
158729,8.10E-03,3.76E-03
158730,8.09E-03,3.73E-03
158731,8.09E-03,3.69E-03
158732,8.08E-03,3.66E-03
158733,8.08E-03,3.62E-03
158734,8.07E-03,3.59E-03
158735,8.07E-03,3.55E-03
158736,8.06E-03,3.52E-03
158737,8.06E-03,3.48E-03
158738,8.05E-03,3.44E-03
158739,8.05E-03,3.41E-03
158740,8.05E-03,3.38E-03
158741,8.05E-03,3.34E-03
158742,8.06E-03,3.31E-03
158743,8.06E-03,3.27E-03
158744,8.06E-03,3.24E-03
158745,8.04E-03,3.21E-03
158746,8.03E-03,3.17E-03
158747,8.02E-03,3.14E-03
158748,8.00E-03,3.11E-03
158749,7.98E-03,3.08E-03
158750,7.95E-03,3.05E-03
158751,8.02E-03,3.01E-03
158752,8.08E-03,2.98E-03
158753,8.20E-03,2.95E-03
158754,8.11E-03,2.92E-03
158755,7.83E-03,2.90E-03
158756,7.43E-03,2.87E-03
158757,7.21E-03,2.84E-03
158758,7.23E-03,2.81E-03
158759,7.48E-03,2.79E-03
158760,8.35E-03,2.76E-03
158761,7.59E-03,2.68E-03
158762,7.46E-03,2.65E-03
158763,8.48E-03,2.63E-03
158764,5.38E-03,2.58E-03
158765,5.91E-03,2.56E-03
158766,7.45E-03,2.54E-03
158767,7.33E-03,2.51E-03
158768,7.29E-03,2.49E-03
158769,7.13E-03,2.47E-03
158770,7.10E-03,2.44E-03
158771,6.99E-03,2.42E-03
158772,7.10E-03,2.39E-03
158773,7.28E-03,2.37E-03
158774,7.53E-03,2.34E-03
158775,7.82E-03,2.31E-03
158776,8.11E-03,2.29E-03
158777,8.44E-03,2.26E-03
158778,8.86E-03,2.23E-03
158779,9.13E-03,2.20E-03
158780,9.36E-03,2.17E-03
158781,9.55E-03,2.13E-03
158782,9.78E-03,2.10E-03
158783,9.75E-03,2.06E-03
158784,9.69E-03,2.03E-03
158785,9.61E-03,1.99E-03
158786,9.49E-03,1.95E-03
158787,9.33E-03,1.92E-03
158788,9.17E-03,1.88E-03
158789,9.06E-03,1.84E-03
158790,8.97E-03,1.81E-03
158791,8.89E-03,1.77E-03
158792,8.80E-03,1.73E-03
158793,8.72E-03,1.69E-03
158794,8.66E-03,1.65E-03
158795,8.61E-03,1.60E-03
158796,8.56E-03,1.56E-03
158797,8.52E-03,1.51E-03
158798,8.48E-03,1.47E-03
158799,8.46E-03,1.42E-03
158800,8.43E-03,1.37E-03
158801,8.40E-03,1.32E-03
158802,8.38E-03,1.27E-03
158803,8.33E-03,1.22E-03
158804,8.28E-03,1.17E-03
158805,8.16E-03,1.11E-03
158806,8.01E-03,1.06E-03
158807,7.66E-03,1.00E-03
158808,7.48E-03,9.50E-04
158809,8.78E-03,8.48E-04
158810,8.06E-03,2.61E-03
158811,8.06E-03,2.58E-03
158812,8.06E-03,2.54E-03
158813,8.06E-03,2.51E-03
158814,8.06E-03,2.48E-03
158815,8.06E-03,2.44E-03
158816,8.06E-03,2.41E-03
158817,8.06E-03,2.38E-03
158818,8.06E-03,2.35E-03
158819,8.06E-03,2.31E-03
158820,8.06E-03,2.28E-03
158821,8.06E-03,2.25E-03
158822,8.06E-03,2.22E-03
158823,8.06E-03,2.18E-03
158824,8.06E-03,2.15E-03
158825,8.06E-03,2.12E-03
158826,8.06E-03,2.08E-03
158827,8.06E-03,2.05E-03
158828,8.06E-03,2.02E-03
158829,8.06E-03,1.98E-03
158830,8.06E-03,1.95E-03
158831,8.06E-03,1.91E-03
158832,8.06E-03,1.88E-03
158833,8.06E-03,1.84E-03
158834,8.06E-03,1.81E-03
158835,8.06E-03,1.77E-03
158836,8.06E-03,1.74E-03
158837,8.06E-03,1.70E-03
158838,8.06E-03,1.67E-03
158839,8.06E-03,1.63E-03
158840,8.06E-03,1.60E-03
158841,8.06E-03,1.56E-03
158842,8.06E-03,1.52E-03
158843,8.06E-03,1.49E-03
158844,8.06E-03,1.45E-03
158845,8.06E-03,1.41E-03
158846,8.06E-03,1.38E-03
158847,8.06E-03,1.34E-03
158848,8.06E-03,1.31E-03
158849,8.06E-03,1.27E-03
158850,8.06E-03,1.23E-03
158851,8.06E-03,1.20E-03
158852,8.06E-03,1.16E-03
158853,8.06E-03,1.13E-03
158854,8.06E-03,1.09E-03
158855,8.06E-03,1.06E-03
158856,8.06E-03,1.02E-03
158857,8.06E-03,9.89E-04
158858,8.06E-03,9.55E-04
158859,8.06E-03,9.22E-04
158860,8.06E-03,8.88E-04
158861,8.06E-03,8.56E-04
158862,8.06E-03,8.24E-04
158863,8.06E-03,7.92E-04
158864,8.06E-03,7.61E-04
158865,8.06E-03,7.31E-04
158866,8.06E-03,7.01E-04
158867,8.06E-03,6.72E-04
158868,8.06E-03,6.44E-04
158869,8.06E-03,6.16E-04
158870,8.06E-03,5.89E-04
158871,8.06E-03,5.63E-04
158872,8.06E-03,5.38E-04
158873,8.06E-03,5.14E-04
158874,8.06E-03,4.91E-04
158875,8.06E-03,4.68E-04
158876,8.06E-03,4.47E-04
158877,8.06E-03,4.27E-04
158878,7.96E-03,4.09E-04
158879,7.86E-03,3.92E-04
158880,7.72E-03,3.75E-04
158881,7.61E-03,3.59E-04
158882,7.74E-03,3.44E-04
158883,7.92E-03,3.31E-04
158884,8.43E-03,3.21E-04
158885,6.16E-03,2.92E-04
158886,7.16E-03,1.04E-03
158887,5.84E-03,2.65E-03
158888,7.94E-03,2.72E-03
158889,8.98E-03,2.68E-03
158890,8.10E-03,2.65E-03
158891,8.04E-03,2.68E-03
158892,5.61E-03,1.62E-03
158893,5.76E-03,1.62E-03
158894,5.62E-03,1.63E-03
158895,5.51E-03,1.64E-03
158896,5.60E-03,1.66E-03
158897,6.17E-03,1.68E-03
158898,6.36E-03,1.71E-03
158899,7.17E-03,1.75E-03
158900,7.53E-03,1.78E-03
158901,7.93E-03,1.82E-03
158902,8.03E-03,1.87E-03
158903,8.03E-03,1.91E-03
158904,8.03E-03,1.96E-03
158905,8.03E-03,2.01E-03
158906,8.03E-03,2.06E-03
158907,8.03E-03,2.12E-03
158908,8.03E-03,2.17E-03
158909,8.03E-03,2.23E-03
158910,8.03E-03,2.29E-03
158911,7.65E-03,2.34E-03
158912,7.21E-03,2.40E-03
158913,7.24E-03,2.46E-03
158914,7.37E-03,2.52E-03
158915,7.46E-03,2.59E-03
158916,7.53E-03,2.66E-03
158917,7.59E-03,2.73E-03
158918,7.64E-03,2.80E-03
158919,7.67E-03,2.88E-03
158920,7.71E-03,2.96E-03
158921,7.80E-03,3.04E-03
158922,7.94E-03,3.13E-03
158923,8.03E-03,3.21E-03
158924,8.04E-03,3.30E-03
158925,8.02E-03,3.39E-03
158926,8.12E-03,3.48E-03
158927,8.15E-03,3.57E-03
158928,8.26E-03,3.66E-03
158929,8.39E-03,3.74E-03
158930,8.61E-03,3.83E-03
158931,8.68E-03,3.91E-03
158932,8.83E-03,3.99E-03
158933,8.75E-03,4.07E-03
158934,8.68E-03,4.15E-03
158935,7.84E-03,4.22E-03
158936,7.58E-03,4.29E-03
158937,7.51E-03,4.34E-03
158938,7.39E-03,4.40E-03
158939,6.55E-03,4.45E-03
158940,6.57E-03,4.64E-03
158941,6.98E-03,1.50E-03
158942,7.61E-03,2.75E-03
158943,7.26E-03,2.75E-03
158944,4.65E-03,1.71E-04
158945,2.96E-03,1.75E-04
158946,4.20E-03,1.80E-04
158947,5.33E-03,2.03E-04
158948,5.78E-03,2.24E-04
158949,6.06E-03,2.46E-04
158950,6.33E-03,2.68E-04
158951,6.55E-03,2.92E-04
158952,6.19E-03,3.14E-04
158953,7.07E-03,3.37E-04
158954,7.13E-03,3.61E-04
158955,7.33E-03,3.87E-04
158956,7.45E-03,4.17E-04
158957,7.54E-03,4.49E-04
158958,7.59E-03,4.82E-04
158959,7.63E-03,5.15E-04
158960,7.66E-03,5.44E-04
158961,7.69E-03,5.67E-04
158962,7.74E-03,5.86E-04
158963,7.79E-03,6.07E-04
158964,7.83E-03,6.33E-04
158965,7.86E-03,6.66E-04
158966,7.89E-03,7.05E-04
158967,7.94E-03,7.45E-04
158968,8.00E-03,7.83E-04
158969,8.06E-03,8.20E-04
158970,8.10E-03,8.58E-04
158971,7.92E-03,8.94E-04
158972,7.85E-03,9.28E-04
158973,7.56E-03,9.58E-04
158974,7.36E-03,9.89E-04
158975,7.13E-03,1.02E-03
158976,6.88E-03,1.06E-03
158977,6.97E-03,1.09E-03
158978,7.07E-03,1.12E-03
158979,7.30E-03,1.13E-03
158980,7.29E-03,1.13E-03
158981,6.27E-03,1.14E-03
158982,5.71E-03,1.30E-03
158983,6.22E-03,1.33E-03
158984,6.55E-03,1.34E-03
158985,7.43E-03,1.36E-03
158986,7.34E-03,1.38E-03
158987,6.82E-03,1.41E-03
158988,6.64E-03,1.44E-03
158989,6.82E-03,1.46E-03
158990,7.30E-03,1.47E-03
158991,6.16E-03,1.49E-03
158992,7.54E-03,1.51E-03
158993,9.61E-03,1.55E-03
158994,8.84E-03,1.55E-03
158995,8.59E-03,1.55E-03
158996,8.09E-03,1.55E-03
158997,7.71E-03,1.55E-03
158998,6.93E-03,1.54E-03
158999,6.64E-03,1.54E-03
159000,5.96E-03,1.50E-03
159001,6.18E-03,1.48E-03
159002,8.33E-03,1.15E-03
159003,9.42E-03,1.18E-03
159004,9.21E-03,1.21E-03
159005,9.07E-03,1.22E-03
159006,8.43E-03,1.23E-03
159007,8.39E-03,1.22E-03
159008,8.23E-03,1.21E-03
159009,8.12E-03,1.19E-03
159010,7.99E-03,1.18E-03
159011,7.93E-03,1.16E-03
159012,7.84E-03,1.14E-03
159013,7.64E-03,1.12E-03
159014,7.60E-03,1.10E-03
159015,7.71E-03,1.08E-03
159016,7.78E-03,1.06E-03
159017,7.81E-03,1.04E-03
159018,7.83E-03,1.03E-03
159019,7.82E-03,1.01E-03
159020,7.50E-03,1.00E-03
159021,7.32E-03,9.88E-04
159022,7.14E-03,9.69E-04
159023,7.16E-03,9.49E-04
159024,7.02E-03,9.30E-04
159025,7.11E-03,9.16E-04
159026,7.32E-03,9.06E-04
159027,9.06E-03,8.06E-04
159028,7.66E-03,7.84E-04
159029,7.73E-03,7.66E-04
159030,7.77E-03,7.47E-04
159031,7.84E-03,7.27E-04
159032,7.90E-03,7.09E-04
159033,7.91E-03,6.91E-04
159034,7.91E-03,6.74E-04
159035,7.91E-03,6.57E-04
159036,7.91E-03,6.39E-04
159037,7.92E-03,6.21E-04
159038,7.92E-03,6.03E-04
159039,7.93E-03,5.85E-04
159040,7.93E-03,5.69E-04
159041,7.93E-03,5.54E-04
159042,7.94E-03,5.42E-04
159043,7.94E-03,5.31E-04
159044,7.94E-03,5.21E-04
159045,7.89E-03,5.11E-04
159046,7.91E-03,5.00E-04
159047,7.93E-03,4.90E-04
159048,8.17E-03,4.80E-04
159049,8.23E-03,4.57E-04
159050,7.95E-03,4.66E-04
159051,7.92E-03,4.69E-04
159052,7.97E-03,4.72E-04
159053,8.04E-03,4.74E-04
159054,8.04E-03,4.75E-04
159055,8.04E-03,4.76E-04
159056,8.04E-03,4.76E-04
159057,8.04E-03,4.76E-04
159058,8.04E-03,4.75E-04
159059,8.04E-03,4.74E-04
159060,8.04E-03,4.72E-04
159061,8.03E-03,4.70E-04
159062,7.99E-03,4.69E-04
159063,7.94E-03,4.67E-04
159064,7.51E-03,4.67E-04
159065,6.49E-03,4.67E-04
159066,6.42E-03,4.67E-04
159067,7.11E-03,4.68E-04
159068,7.32E-03,4.70E-04
159069,7.55E-03,4.73E-04
159070,7.78E-03,4.76E-04
159071,7.89E-03,4.79E-04
159072,8.02E-03,4.83E-04
159073,8.11E-03,4.88E-04
159074,8.13E-03,4.93E-04
159075,8.14E-03,4.97E-04
159076,8.15E-03,5.02E-04
159077,8.16E-03,5.06E-04
159078,8.38E-03,5.10E-04
159079,8.42E-03,5.12E-04
159080,8.65E-03,5.12E-04
159081,8.81E-03,5.12E-04
159082,9.10E-03,5.09E-04
159083,9.31E-03,5.07E-04
159084,9.28E-03,4.98E-04
159085,9.13E-03,4.97E-04
159086,6.67E-03,4.98E-04
159087,6.45E-03,4.94E-04
159088,6.83E-03,4.89E-04
159089,7.40E-03,4.80E-04
159090,8.16E-03,4.70E-04
159091,8.57E-03,4.58E-04
159092,9.45E-03,4.44E-04
159093,9.38E-03,4.30E-04
159094,9.16E-03,4.14E-04
159095,9.00E-03,4.03E-04
159096,7.52E-03,3.92E-04
159097,7.97E-03,3.83E-04
159098,6.61E-03,3.70E-04
159099,6.24E-03,3.58E-04
159100,6.94E-03,3.46E-04
159101,7.76E-03,3.38E-04
159102,8.01E-03,3.27E-04
159103,9.45E-03,3.18E-04
159104,8.66E-03,3.01E-04
159105,6.62E-03,2.94E-04
159106,7.72E-03,1.00E-03
159107,7.88E-03,9.63E-04
159108,7.98E-03,9.22E-04
159109,8.03E-03,8.73E-04
159110,7.31E-03,2.62E-03
159111,7.83E-03,2.59E-03
159112,8.01E-03,2.57E-03
159113,8.06E-03,2.54E-03
159114,7.98E-03,2.51E-03
159115,7.56E-03,2.48E-03
159116,7.26E-03,2.45E-03
159117,7.08E-03,2.42E-03
159118,7.18E-03,2.39E-03
159119,7.35E-03,2.36E-03
159120,7.47E-03,2.33E-03
159121,7.64E-03,2.30E-03
159122,7.79E-03,2.27E-03
159123,7.89E-03,2.24E-03
159124,8.00E-03,2.21E-03
159125,8.06E-03,2.18E-03
159126,8.06E-03,2.15E-03
159127,8.06E-03,2.12E-03
159128,8.06E-03,2.08E-03
159129,8.06E-03,2.05E-03
159130,8.06E-03,2.02E-03
159131,8.06E-03,1.98E-03
159132,8.06E-03,1.95E-03
159133,8.06E-03,1.92E-03
159134,8.06E-03,1.88E-03
159135,8.06E-03,1.85E-03
159136,8.06E-03,1.81E-03
159137,8.06E-03,1.78E-03
159138,8.06E-03,1.74E-03
159139,8.06E-03,1.70E-03
159140,8.06E-03,1.67E-03
159141,8.06E-03,1.63E-03
159142,8.06E-03,1.60E-03
159143,8.06E-03,1.56E-03
159144,8.06E-03,1.52E-03
159145,8.06E-03,1.49E-03
159146,8.06E-03,1.45E-03
159147,8.06E-03,1.41E-03
159148,8.06E-03,1.37E-03
159149,8.06E-03,1.34E-03
159150,8.06E-03,1.30E-03
159151,8.06E-03,1.26E-03
159152,8.06E-03,1.23E-03
159153,8.06E-03,1.19E-03
159154,8.06E-03,1.16E-03
159155,8.06E-03,1.12E-03
159156,8.06E-03,1.09E-03
159157,8.06E-03,1.05E-03
159158,8.06E-03,1.02E-03
159159,8.06E-03,9.83E-04
159160,8.06E-03,9.51E-04
159161,8.06E-03,9.19E-04
159162,8.06E-03,8.87E-04
159163,8.06E-03,8.57E-04
159164,8.06E-03,8.27E-04
159165,8.06E-03,7.98E-04
159166,8.06E-03,7.69E-04
159167,8.06E-03,7.42E-04
159168,8.06E-03,7.15E-04
159169,8.06E-03,6.88E-04
159170,8.06E-03,6.63E-04
159171,8.06E-03,6.37E-04
159172,8.06E-03,6.13E-04
159173,8.06E-03,5.88E-04
159174,8.06E-03,5.64E-04
159175,8.06E-03,5.41E-04
159176,8.06E-03,5.17E-04
159177,8.06E-03,4.94E-04
159178,8.06E-03,4.72E-04
159179,8.06E-03,4.49E-04
159180,8.06E-03,4.27E-04
159181,8.06E-03,4.05E-04
159182,8.06E-03,3.83E-04
159183,8.06E-03,3.61E-04
159184,8.06E-03,3.40E-04
159185,8.06E-03,3.19E-04
159186,8.06E-03,2.98E-04
159187,8.06E-03,2.79E-04
159188,8.00E-03,2.60E-04
159189,7.88E-03,2.42E-04
159190,7.84E-03,2.26E-04
159191,7.88E-03,2.11E-04
159192,8.10E-03,1.97E-04
159193,7.85E-03,2.72E-03
159194,8.81E-03,2.72E-03
159195,5.61E-03,1.29E-04
159196,5.76E-03,1.21E-04
159197,5.63E-03,1.15E-04
159198,5.60E-03,1.10E-04
159199,5.54E-03,1.06E-04
159200,5.87E-03,1.05E-04
159201,6.07E-03,1.07E-04
159202,5.02E-03,1.06E-04
159203,5.23E-03,1.08E-04
159204,6.45E-03,1.16E-04
159205,6.98E-03,1.22E-04
159206,7.15E-03,1.29E-04
159207,7.25E-03,1.38E-04
159208,7.45E-03,1.48E-04
159209,7.53E-03,1.58E-04
159210,7.76E-03,1.69E-04
159211,9.64E-03,1.74E-04
159212,7.67E-03,2.65E-03
159213,8.06E-03,8.13E-04
159214,8.06E-03,2.61E-03
159215,8.06E-03,2.58E-03
159216,8.06E-03,2.55E-03
159217,8.06E-03,2.52E-03
159218,8.06E-03,2.48E-03
159219,8.06E-03,2.45E-03
159220,8.06E-03,2.42E-03
159221,8.06E-03,2.39E-03
159222,8.06E-03,2.36E-03
159223,8.06E-03,2.32E-03
159224,8.06E-03,2.29E-03
159225,8.06E-03,2.26E-03
159226,8.06E-03,2.23E-03
159227,8.06E-03,2.19E-03
159228,8.06E-03,2.16E-03
159229,8.06E-03,2.13E-03
159230,8.06E-03,2.09E-03
159231,8.06E-03,2.06E-03
159232,8.06E-03,2.03E-03
159233,8.06E-03,1.99E-03
159234,8.06E-03,1.96E-03
159235,8.06E-03,1.92E-03
159236,8.06E-03,1.89E-03
159237,8.06E-03,1.85E-03
159238,8.06E-03,1.82E-03
159239,8.06E-03,1.78E-03
159240,8.06E-03,1.75E-03
159241,8.06E-03,1.71E-03
159242,8.06E-03,1.68E-03
159243,8.06E-03,1.64E-03
159244,8.06E-03,1.61E-03
159245,8.06E-03,1.57E-03
159246,8.06E-03,1.53E-03
159247,8.06E-03,1.50E-03
159248,8.06E-03,1.46E-03
159249,8.06E-03,1.42E-03
159250,8.06E-03,1.39E-03
159251,8.06E-03,1.35E-03
159252,8.06E-03,1.32E-03
159253,8.06E-03,1.28E-03
159254,8.06E-03,1.24E-03
159255,8.06E-03,1.21E-03
159256,8.06E-03,1.17E-03
159257,8.06E-03,1.14E-03
159258,8.06E-03,1.10E-03
159259,8.06E-03,1.07E-03
159260,8.06E-03,1.03E-03
159261,8.06E-03,9.97E-04
159262,8.06E-03,9.63E-04
159263,8.06E-03,9.30E-04
159264,8.06E-03,8.97E-04
159265,8.06E-03,8.64E-04
159266,8.06E-03,8.32E-04
159267,8.06E-03,8.00E-04
159268,8.06E-03,7.69E-04
159269,8.06E-03,7.39E-04
159270,8.06E-03,7.09E-04
159271,8.06E-03,6.80E-04
159272,8.06E-03,6.51E-04
159273,8.06E-03,6.24E-04
159274,8.06E-03,5.97E-04
159275,8.06E-03,5.70E-04
159276,8.06E-03,5.45E-04
159277,8.06E-03,5.20E-04
159278,8.06E-03,4.97E-04
159279,8.06E-03,4.74E-04
159280,8.06E-03,4.52E-04
159281,8.06E-03,4.31E-04
159282,7.99E-03,4.12E-04
159283,7.93E-03,3.93E-04
159284,7.85E-03,3.76E-04
159285,7.83E-03,3.59E-04
159286,7.90E-03,3.43E-04
159287,8.21E-03,3.29E-04
159288,8.48E-03,3.17E-04
159289,8.40E-03,3.08E-04
159290,7.97E-03,2.94E-04
159291,7.08E-03,2.85E-04
159292,6.44E-03,2.81E-04
159293,6.63E-03,2.83E-04
159294,8.10E-03,2.65E-03
159295,7.36E-03,1.03E-03
159296,5.60E-03,1.07E-03
159297,4.85E-03,1.10E-03
159298,7.78E-03,1.19E-03
159299,7.11E-03,4.72E-03
159300,7.44E-03,4.72E-03
159301,7.69E-03,4.72E-03
159302,7.73E-03,4.73E-03
159303,7.70E-03,4.73E-03
159304,7.75E-03,4.74E-03
159305,7.77E-03,4.75E-03
159306,7.76E-03,4.76E-03
159307,7.68E-03,4.77E-03
159308,7.10E-03,4.78E-03
159309,7.85E-03,4.78E-03
159310,8.26E-03,4.78E-03
159311,7.82E-03,4.76E-03
159312,8.04E-03,4.73E-03
159313,8.18E-03,4.69E-03
159314,8.11E-03,4.66E-03
159315,8.11E-03,4.63E-03
159316,8.12E-03,4.60E-03
159317,8.12E-03,4.57E-03
159318,8.12E-03,4.55E-03
159319,8.13E-03,4.52E-03
159320,8.13E-03,4.49E-03
159321,8.14E-03,4.46E-03
159322,8.14E-03,4.43E-03
159323,8.15E-03,4.40E-03
159324,8.16E-03,4.37E-03
159325,8.16E-03,4.34E-03
159326,8.16E-03,4.31E-03
159327,8.15E-03,4.28E-03
159328,8.15E-03,4.25E-03
159329,8.14E-03,4.22E-03
159330,8.14E-03,4.19E-03
159331,8.13E-03,4.15E-03
159332,8.13E-03,4.12E-03
159333,8.12E-03,4.09E-03
159334,8.12E-03,4.05E-03
159335,8.11E-03,4.02E-03
159336,8.11E-03,3.98E-03
159337,8.11E-03,3.95E-03
159338,8.10E-03,3.91E-03
159339,8.10E-03,3.88E-03
159340,8.09E-03,3.84E-03
159341,8.09E-03,3.81E-03
159342,8.08E-03,3.77E-03
159343,8.08E-03,3.73E-03
159344,8.07E-03,3.70E-03
159345,8.07E-03,3.66E-03
159346,8.07E-03,3.62E-03
159347,8.06E-03,3.59E-03
159348,8.06E-03,3.55E-03
159349,8.06E-03,3.51E-03
159350,8.05E-03,3.48E-03
159351,8.05E-03,3.44E-03
159352,8.05E-03,3.41E-03
159353,8.05E-03,3.37E-03
159354,8.06E-03,3.33E-03
159355,8.06E-03,3.30E-03
159356,8.05E-03,3.26E-03
159357,8.04E-03,3.23E-03
159358,8.03E-03,3.20E-03
159359,8.02E-03,3.16E-03
159360,8.01E-03,3.13E-03
159361,7.99E-03,3.10E-03
159362,7.97E-03,3.07E-03
159363,8.01E-03,3.03E-03
159364,8.02E-03,3.00E-03
159365,8.05E-03,2.97E-03
159366,7.96E-03,2.94E-03
159367,7.76E-03,2.91E-03
159368,7.61E-03,2.88E-03
159369,7.51E-03,2.85E-03
159370,7.73E-03,2.82E-03
159371,8.01E-03,2.80E-03
159372,8.30E-03,2.77E-03
159373,8.54E-03,2.74E-03
159374,8.37E-03,2.72E-03
159375,8.10E-03,2.69E-03
159376,8.26E-03,2.66E-03
159377,9.21E-03,2.63E-03
159378,8.53E-03,2.61E-03
159379,7.27E-03,2.59E-03
159380,6.94E-03,2.57E-03
159381,7.17E-03,2.54E-03
159382,7.43E-03,2.52E-03
159383,7.40E-03,2.50E-03
159384,7.40E-03,2.47E-03
159385,7.40E-03,2.45E-03
159386,7.36E-03,2.42E-03
159387,7.46E-03,2.40E-03
159388,7.58E-03,2.37E-03
159389,7.76E-03,2.35E-03
159390,7.96E-03,2.32E-03
159391,8.18E-03,2.29E-03
159392,8.38E-03,2.27E-03
159393,8.64E-03,2.24E-03
159394,8.92E-03,2.21E-03
159395,9.17E-03,2.17E-03
159396,9.35E-03,2.14E-03
159397,9.46E-03,2.11E-03
159398,9.44E-03,2.07E-03
159399,9.39E-03,2.04E-03
159400,9.32E-03,2.00E-03
159401,9.23E-03,1.97E-03
159402,9.10E-03,1.93E-03
159403,8.97E-03,1.89E-03
159404,8.87E-03,1.86E-03
159405,8.80E-03,1.82E-03
159406,8.73E-03,1.78E-03
159407,8.66E-03,1.74E-03
159408,8.60E-03,1.70E-03
159409,8.55E-03,1.66E-03
159410,8.51E-03,1.62E-03
159411,8.46E-03,1.57E-03
159412,8.43E-03,1.52E-03
159413,8.40E-03,1.48E-03
159414,8.38E-03,1.43E-03
159415,8.36E-03,1.38E-03
159416,8.34E-03,1.33E-03
159417,8.32E-03,1.27E-03
159418,8.24E-03,1.22E-03
159419,8.14E-03,1.16E-03
159420,7.97E-03,1.11E-03
159421,7.89E-03,1.05E-03
159422,7.75E-03,9.97E-04
159423,7.50E-03,9.42E-04
159424,7.46E-03,8.93E-04
159425,7.21E-03,1.52E-03
159426,6.54E-03,1.51E-03
159427,6.39E-03,1.52E-03
159428,5.90E-03,1.54E-03
159429,6.01E-03,1.56E-03
159430,6.41E-03,1.58E-03
159431,6.70E-03,1.62E-03
159432,7.18E-03,1.65E-03
159433,7.55E-03,1.69E-03
159434,8.03E-03,1.73E-03
159435,8.03E-03,1.78E-03
159436,8.03E-03,1.83E-03
159437,8.03E-03,1.88E-03
159438,8.03E-03,1.93E-03
159439,8.03E-03,1.98E-03
159440,8.03E-03,2.04E-03
159441,8.03E-03,2.09E-03
159442,8.03E-03,2.15E-03
159443,8.03E-03,2.20E-03
159444,7.72E-03,2.26E-03
159445,7.36E-03,2.32E-03
159446,7.39E-03,2.38E-03
159447,7.49E-03,2.44E-03
159448,7.57E-03,2.51E-03
159449,7.62E-03,2.57E-03
159450,7.67E-03,2.65E-03
159451,7.71E-03,2.72E-03
159452,7.74E-03,2.80E-03
159453,7.77E-03,2.89E-03
159454,7.84E-03,2.98E-03
159455,7.96E-03,3.07E-03
159456,8.03E-03,3.16E-03
159457,8.04E-03,3.26E-03
159458,8.02E-03,3.36E-03
159459,8.08E-03,3.45E-03
159460,8.12E-03,3.55E-03
159461,8.22E-03,3.65E-03
159462,8.32E-03,3.74E-03
159463,8.49E-03,3.83E-03
159464,8.60E-03,3.92E-03
159465,8.79E-03,4.01E-03
159466,8.74E-03,4.10E-03
159467,8.59E-03,4.18E-03
159468,7.80E-03,4.26E-03
159469,7.72E-03,4.32E-03
159470,7.49E-03,4.37E-03
159471,7.23E-03,4.40E-03
159472,6.97E-03,4.42E-03
159473,6.15E-03,4.50E-03
159474,5.99E-03,4.58E-03
159475,6.27E-03,4.65E-03
159476,6.87E-03,4.72E-03
159477,8.10E-03,2.69E-03
159478,1.02E-02,2.69E-03
159479,8.56E-03,1.21E-03
159480,7.80E-03,2.72E-03
159481,8.14E-03,2.72E-03
159482,8.62E-03,2.01E-04
159483,8.33E-03,2.12E-04
159484,8.10E-03,2.25E-04
159485,8.01E-03,2.40E-04
159486,8.06E-03,2.56E-04
159487,8.06E-03,2.74E-04
159488,8.06E-03,2.93E-04
159489,8.06E-03,3.12E-04
159490,8.06E-03,3.33E-04
159491,8.06E-03,3.53E-04
159492,8.06E-03,3.75E-04
159493,8.06E-03,3.96E-04
159494,8.06E-03,4.18E-04
159495,8.06E-03,4.40E-04
159496,8.06E-03,4.62E-04
159497,8.06E-03,4.85E-04
159498,8.06E-03,5.08E-04
159499,8.06E-03,5.32E-04
159500,8.06E-03,5.56E-04
159501,8.06E-03,5.80E-04
159502,8.06E-03,6.04E-04
159503,8.06E-03,6.30E-04
159504,8.06E-03,6.55E-04
159505,8.06E-03,6.81E-04
159506,8.06E-03,7.08E-04
159507,8.06E-03,7.35E-04
159508,8.06E-03,7.63E-04
159509,8.06E-03,7.92E-04
159510,8.06E-03,8.22E-04
159511,8.06E-03,8.52E-04
159512,8.06E-03,8.83E-04
159513,8.06E-03,9.14E-04
159514,8.06E-03,9.46E-04
159515,8.06E-03,9.79E-04
159516,8.06E-03,1.01E-03
159517,8.06E-03,1.05E-03
159518,8.06E-03,1.08E-03
159519,8.06E-03,1.12E-03
159520,8.06E-03,1.15E-03
159521,8.06E-03,1.19E-03
159522,8.06E-03,1.22E-03
159523,8.06E-03,1.26E-03
159524,8.06E-03,1.30E-03
159525,8.06E-03,1.33E-03
159526,8.06E-03,1.37E-03
159527,8.06E-03,1.41E-03
159528,8.06E-03,1.44E-03
159529,8.06E-03,1.48E-03
159530,8.06E-03,1.52E-03
159531,8.06E-03,1.55E-03
159532,8.06E-03,1.59E-03
159533,8.06E-03,1.63E-03
159534,8.06E-03,1.66E-03
159535,8.06E-03,1.70E-03
159536,8.06E-03,1.74E-03
159537,8.06E-03,1.77E-03
159538,8.06E-03,1.81E-03
159539,8.06E-03,1.84E-03
159540,8.06E-03,1.88E-03
159541,8.06E-03,1.91E-03
159542,8.06E-03,1.95E-03
159543,8.06E-03,1.98E-03
159544,8.06E-03,2.01E-03
159545,8.06E-03,2.05E-03
159546,8.06E-03,2.08E-03
159547,8.06E-03,2.11E-03
159548,8.06E-03,2.15E-03
159549,8.06E-03,2.18E-03
159550,8.06E-03,2.21E-03
159551,7.99E-03,2.24E-03
159552,7.93E-03,2.27E-03
159553,7.83E-03,2.30E-03
159554,7.74E-03,2.33E-03
159555,7.66E-03,2.36E-03
159556,7.82E-03,2.39E-03
159557,8.02E-03,2.42E-03
159558,8.06E-03,2.45E-03
159559,8.01E-03,2.48E-03
159560,7.98E-03,2.51E-03
159561,8.06E-03,2.54E-03
159562,8.04E-03,2.57E-03
159563,7.82E-03,2.60E-03
159564,7.50E-03,2.62E-03
159565,8.28E-03,7.53E-04
159566,8.92E-03,7.43E-04
159567,7.84E-03,7.23E-04
159568,7.83E-03,7.03E-04
159569,7.82E-03,6.84E-04
159570,7.93E-03,6.67E-04
159571,7.94E-03,6.50E-04
159572,7.94E-03,6.34E-04
159573,7.94E-03,6.19E-04
159574,7.95E-03,6.03E-04
159575,7.95E-03,5.87E-04
159576,7.95E-03,5.70E-04
159577,7.95E-03,5.53E-04
159578,7.96E-03,5.36E-04
159579,7.96E-03,5.21E-04
159580,7.96E-03,5.08E-04
159581,7.97E-03,4.98E-04
159582,7.97E-03,4.88E-04
159583,7.97E-03,4.80E-04
159584,7.85E-03,4.70E-04
159585,7.84E-03,4.60E-04
159586,7.71E-03,4.48E-04
159587,6.97E-03,4.28E-04
159588,5.26E-03,4.13E-04
159589,5.26E-03,4.36E-04
159590,7.07E-03,4.36E-04
159591,7.66E-03,4.37E-04
159592,7.89E-03,4.41E-04
159593,7.93E-03,4.45E-04
159594,8.04E-03,4.49E-04
159595,8.04E-03,4.52E-04
159596,8.04E-03,4.54E-04
159597,8.04E-03,4.56E-04
159598,8.04E-03,4.57E-04
159599,8.04E-03,4.57E-04
159600,8.04E-03,4.56E-04
159601,8.04E-03,4.55E-04
159602,8.03E-03,4.54E-04
159603,8.00E-03,4.52E-04
159604,7.96E-03,4.50E-04
159605,7.62E-03,4.49E-04
159606,6.84E-03,4.49E-04
159607,6.84E-03,4.50E-04
159608,7.32E-03,4.51E-04
159609,7.49E-03,4.53E-04
159610,7.61E-03,4.56E-04
159611,7.84E-03,4.61E-04
159612,7.93E-03,4.66E-04
159613,8.02E-03,4.72E-04
159614,8.10E-03,4.78E-04
159615,8.11E-03,4.85E-04
159616,8.12E-03,4.91E-04
159617,8.12E-03,4.98E-04
159618,8.13E-03,5.04E-04
159619,8.29E-03,5.10E-04
159620,8.37E-03,5.15E-04
159621,8.52E-03,5.18E-04
159622,8.73E-03,5.20E-04
159623,8.91E-03,5.19E-04
159624,9.14E-03,5.15E-04
159625,8.94E-03,5.11E-04
159626,8.91E-03,5.09E-04
159627,6.70E-03,5.09E-04
159628,6.57E-03,5.06E-04
159629,7.09E-03,4.99E-04
159630,7.48E-03,4.90E-04
159631,8.37E-03,4.80E-04
159632,8.61E-03,4.68E-04
159633,9.34E-03,4.55E-04
159634,9.21E-03,4.40E-04
159635,8.86E-03,4.24E-04
159636,8.38E-03,4.11E-04
159637,7.47E-03,3.99E-04
159638,6.94E-03,3.87E-04
159639,6.05E-03,3.73E-04
159640,6.00E-03,3.66E-04
159641,6.79E-03,3.52E-04
159642,7.33E-03,3.43E-04
159643,7.55E-03,3.33E-04
159644,8.14E-03,3.25E-04
159645,8.16E-03,3.19E-04
159646,7.72E-03,3.06E-04
159647,7.00E-03,2.98E-04
159648,7.14E-03,2.87E-04
159649,8.06E-03,2.62E-03
159650,8.06E-03,2.59E-03
159651,8.06E-03,2.55E-03
159652,8.06E-03,2.52E-03
159653,8.06E-03,2.49E-03
159654,8.06E-03,2.46E-03
159655,8.06E-03,2.43E-03
159656,8.06E-03,2.39E-03
159657,8.06E-03,2.36E-03
159658,8.06E-03,2.33E-03
159659,8.06E-03,2.30E-03
159660,8.06E-03,2.27E-03
159661,8.06E-03,2.23E-03
159662,8.06E-03,2.20E-03
159663,8.06E-03,2.17E-03
159664,8.06E-03,2.13E-03
159665,8.06E-03,2.10E-03
159666,8.06E-03,2.07E-03
159667,8.06E-03,2.03E-03
159668,8.06E-03,2.00E-03
159669,8.06E-03,1.97E-03
159670,8.06E-03,1.93E-03
159671,8.06E-03,1.90E-03
159672,8.06E-03,1.86E-03
159673,8.06E-03,1.83E-03
159674,8.06E-03,1.79E-03
159675,8.06E-03,1.76E-03
159676,8.06E-03,1.72E-03
159677,8.06E-03,1.69E-03
159678,8.06E-03,1.65E-03
159679,8.06E-03,1.61E-03
159680,8.06E-03,1.58E-03
159681,8.06E-03,1.54E-03
159682,8.06E-03,1.51E-03
159683,8.06E-03,1.47E-03
159684,8.06E-03,1.43E-03
159685,8.06E-03,1.40E-03
159686,8.06E-03,1.36E-03
159687,8.06E-03,1.32E-03
159688,8.06E-03,1.29E-03
159689,8.06E-03,1.25E-03
159690,8.06E-03,1.22E-03
159691,8.06E-03,1.18E-03
159692,8.06E-03,1.14E-03
159693,8.06E-03,1.11E-03
159694,8.06E-03,1.07E-03
159695,8.06E-03,1.04E-03
159696,8.06E-03,1.01E-03
159697,8.06E-03,9.71E-04
159698,8.06E-03,9.37E-04
159699,8.06E-03,9.04E-04
159700,8.06E-03,8.72E-04
159701,8.06E-03,8.39E-04
159702,8.06E-03,8.08E-04
159703,8.06E-03,7.77E-04
159704,8.06E-03,7.46E-04
159705,8.06E-03,7.16E-04
159706,8.06E-03,6.87E-04
159707,8.06E-03,6.59E-04
159708,8.06E-03,6.31E-04
159709,8.06E-03,6.04E-04
159710,8.06E-03,5.78E-04
159711,8.06E-03,5.52E-04
159712,8.06E-03,5.27E-04
159713,8.06E-03,5.03E-04
159714,8.06E-03,4.80E-04
159715,8.06E-03,4.57E-04
159716,8.06E-03,4.36E-04
159717,8.06E-03,4.15E-04
159718,8.06E-03,3.96E-04
159719,8.01E-03,3.78E-04
159720,8.03E-03,3.60E-04
159721,8.06E-03,3.44E-04
159722,8.15E-03,3.29E-04
159723,8.14E-03,3.15E-04
159724,8.12E-03,3.02E-04
159725,7.84E-03,2.90E-04
159726,7.51E-03,2.80E-04
159727,7.39E-03,2.73E-04
159728,7.64E-03,2.71E-04
159729,8.70E-03,2.74E-04
159730,1.03E-02,1.77E-04
159731,8.27E-03,1.69E-04
159732,7.96E-03,1.60E-04
159733,7.63E-03,1.49E-04
159734,7.35E-03,1.39E-04
159735,7.18E-03,1.29E-04
159736,6.87E-03,1.20E-04
159737,6.41E-03,1.12E-04
159738,5.72E-03,1.03E-04
159739,5.06E-03,9.34E-05
159740,5.32E-03,9.51E-05
159741,5.91E-03,9.47E-05
159742,6.11E-03,9.38E-05
159743,6.02E-03,9.36E-05
159744,6.01E-03,9.61E-05
159745,6.03E-03,1.00E-04
159746,5.92E-03,1.06E-04
159747,5.92E-03,1.13E-04
159748,5.55E-03,1.21E-04
159749,4.39E-03,1.28E-04
159750,4.59E-03,1.32E-04
159751,4.94E-03,1.51E-04
159752,5.06E-03,1.63E-04
159753,6.05E-03,1.73E-04
159754,5.85E-03,1.94E-04
159755,6.21E-03,2.16E-04
159756,6.36E-03,2.40E-04
159757,6.62E-03,2.64E-04
159758,6.82E-03,2.89E-04
159759,6.78E-03,3.14E-04
159760,7.17E-03,3.39E-04
159761,7.20E-03,3.64E-04
159762,7.45E-03,3.88E-04
159763,7.54E-03,4.16E-04
159764,7.61E-03,4.50E-04
159765,7.65E-03,4.85E-04
159766,7.68E-03,5.20E-04
159767,7.70E-03,5.52E-04
159768,7.73E-03,5.79E-04
159769,7.77E-03,5.99E-04
159770,7.81E-03,6.13E-04
159771,7.84E-03,6.39E-04
159772,7.86E-03,6.77E-04
159773,7.88E-03,7.17E-04
159774,7.92E-03,7.51E-04
159775,7.97E-03,7.83E-04
159776,8.02E-03,8.17E-04
159777,8.05E-03,8.53E-04
159778,7.97E-03,8.92E-04
159779,7.81E-03,9.30E-04
159780,7.60E-03,9.65E-04
159781,7.49E-03,9.95E-04
159782,7.39E-03,1.03E-03
159783,7.16E-03,1.09E-03
159784,7.23E-03,1.14E-03
159785,7.31E-03,1.18E-03
159786,7.52E-03,1.21E-03
159787,7.78E-03,1.22E-03
159788,8.59E-03,2.05E-04
159789,7.91E-03,9.92E-04
159790,7.92E-03,9.48E-04
159791,7.87E-03,8.98E-04
159792,8.01E-03,8.41E-04
159793,6.65E-03,7.84E-04
159794,6.30E-03,1.08E-03
159795,6.02E-03,1.11E-03
159796,5.96E-03,1.24E-03
159797,6.12E-03,1.28E-03
159798,6.38E-03,1.31E-03
159799,6.86E-03,1.34E-03
159800,7.80E-03,1.36E-03
159801,7.43E-03,1.38E-03
159802,5.65E-03,1.41E-03
159803,5.50E-03,1.45E-03
159804,6.26E-03,1.44E-03
159805,1.01E-02,1.23E-03
159806,9.30E-03,1.27E-03
159807,9.17E-03,1.29E-03
159808,8.90E-03,1.29E-03
159809,8.32E-03,1.28E-03
159810,8.22E-03,1.26E-03
159811,8.16E-03,1.24E-03
159812,8.08E-03,1.21E-03
159813,7.97E-03,1.19E-03
159814,7.92E-03,1.16E-03
159815,7.85E-03,1.14E-03
159816,7.70E-03,1.11E-03
159817,7.67E-03,1.09E-03
159818,7.75E-03,1.07E-03
159819,7.80E-03,1.04E-03
159820,7.83E-03,1.02E-03
159821,7.85E-03,1.00E-03
159822,7.78E-03,9.88E-04
159823,7.69E-03,9.72E-04
159824,7.48E-03,9.55E-04
159825,7.41E-03,9.38E-04
159826,7.34E-03,9.21E-04
159827,7.14E-03,9.04E-04
159828,7.16E-03,8.88E-04
159829,7.21E-03,8.73E-04
159830,7.45E-03,8.58E-04
159831,6.50E-03,4.88E-03
159832,7.05E-03,4.87E-03
159833,7.45E-03,4.87E-03
159834,7.70E-03,4.86E-03
159835,7.78E-03,4.86E-03
159836,7.76E-03,4.85E-03
159837,7.75E-03,4.84E-03
159838,7.69E-03,4.83E-03
159839,7.60E-03,4.82E-03
159840,7.46E-03,4.82E-03
159841,7.25E-03,4.81E-03
159842,7.09E-03,4.79E-03
159843,8.02E-03,2.69E-03
159844,8.97E-03,2.69E-03
159845,8.70E-03,2.66E-03
159846,6.61E-03,6.74E-04
159847,8.61E-03,1.05E-03
159848,8.10E-03,2.65E-03
159849,8.79E-03,1.42E-03
159850,9.91E-03,2.65E-04
159851,7.51E-03,1.46E-03
159852,8.12E-03,1.49E-03
159853,5.36E-03,1.53E-03
159854,9.00E-03,1.54E-03
159855,9.90E-03,1.53E-03
159856,9.90E-03,1.54E-03
159857,8.99E-03,1.53E-03
159858,8.56E-03,1.52E-03
159859,7.84E-03,1.51E-03
159860,7.64E-03,1.49E-03
159861,7.32E-03,1.47E-03
159862,6.96E-03,1.44E-03
159863,6.79E-03,1.42E-03
159864,6.94E-03,1.39E-03
159865,8.03E-03,1.39E-03
159866,8.15E-03,1.41E-03
159867,7.24E-03,1.40E-03
159868,7.00E-03,1.41E-03
159869,6.29E-03,1.43E-03
159870,6.38E-03,1.45E-03
159871,6.64E-03,1.47E-03
159872,6.96E-03,1.51E-03
159873,7.31E-03,1.55E-03
159874,7.78E-03,1.59E-03
159875,8.03E-03,1.65E-03
159876,8.03E-03,1.70E-03
159877,8.03E-03,1.75E-03
159878,8.03E-03,1.80E-03
159879,8.03E-03,1.86E-03
159880,8.03E-03,1.91E-03
159881,8.03E-03,1.96E-03
159882,8.03E-03,2.01E-03
159883,8.03E-03,2.07E-03
159884,8.03E-03,2.12E-03
159885,7.79E-03,2.17E-03
159886,7.51E-03,2.23E-03
159887,7.53E-03,2.29E-03
159888,7.61E-03,2.35E-03
159889,7.67E-03,2.41E-03
159890,7.71E-03,2.48E-03
159891,7.75E-03,2.56E-03
159892,7.78E-03,2.64E-03
159893,7.80E-03,2.72E-03
159894,7.83E-03,2.81E-03
159895,7.89E-03,2.90E-03
159896,7.97E-03,3.00E-03
159897,8.03E-03,3.10E-03
159898,8.04E-03,3.21E-03
159899,8.03E-03,3.32E-03
159900,8.03E-03,3.42E-03
159901,8.07E-03,3.53E-03
159902,8.17E-03,3.64E-03
159903,8.26E-03,3.75E-03
159904,8.35E-03,3.85E-03
159905,8.54E-03,3.95E-03
159906,8.77E-03,4.05E-03
159907,8.83E-03,4.14E-03
159908,8.30E-03,4.23E-03
159909,7.99E-03,4.31E-03
159910,7.74E-03,4.37E-03
159911,7.54E-03,4.42E-03
159912,7.24E-03,4.44E-03
159913,7.37E-03,4.44E-03
159914,6.18E-03,4.48E-03
159915,6.26E-03,4.57E-03
159916,6.52E-03,4.63E-03
159917,6.81E-03,4.68E-03
159918,7.04E-03,4.74E-03
159919,5.44E-03,4.98E-03
159920,6.90E-03,4.93E-03
159921,8.66E-03,4.87E-03
159922,8.06E-03,4.84E-03
159923,8.05E-03,4.81E-03
159924,8.15E-03,4.78E-03
159925,8.09E-03,4.74E-03
159926,8.10E-03,4.71E-03
159927,8.10E-03,4.68E-03
159928,8.10E-03,4.65E-03
159929,8.10E-03,4.62E-03
159930,8.11E-03,4.59E-03
159931,8.11E-03,4.56E-03
159932,8.12E-03,4.53E-03
159933,8.12E-03,4.50E-03
159934,8.13E-03,4.47E-03
159935,8.13E-03,4.44E-03
159936,8.13E-03,4.41E-03
159937,8.13E-03,4.37E-03
159938,8.13E-03,4.34E-03
159939,8.12E-03,4.31E-03
159940,8.12E-03,4.28E-03
159941,8.12E-03,4.24E-03
159942,8.11E-03,4.21E-03
159943,8.11E-03,4.17E-03
159944,8.11E-03,4.14E-03
159945,8.10E-03,4.10E-03
159946,8.10E-03,4.07E-03
159947,8.09E-03,4.03E-03
159948,8.09E-03,4.00E-03
159949,8.09E-03,3.96E-03
159950,8.08E-03,3.92E-03
159951,8.08E-03,3.89E-03
159952,8.08E-03,3.85E-03
159953,8.07E-03,3.81E-03
159954,8.07E-03,3.77E-03
159955,8.07E-03,3.74E-03
159956,8.06E-03,3.70E-03
159957,8.06E-03,3.66E-03
159958,8.06E-03,3.62E-03
159959,8.06E-03,3.59E-03
159960,8.05E-03,3.55E-03
159961,8.05E-03,3.51E-03
159962,8.05E-03,3.47E-03
159963,8.05E-03,3.44E-03
159964,8.05E-03,3.40E-03
159965,8.05E-03,3.36E-03
159966,8.05E-03,3.33E-03
159967,8.05E-03,3.29E-03
159968,8.04E-03,3.25E-03
159969,8.03E-03,3.22E-03
159970,8.03E-03,3.18E-03
159971,8.01E-03,3.15E-03
159972,8.00E-03,3.12E-03
159973,7.98E-03,3.08E-03
159974,7.97E-03,3.05E-03
159975,7.97E-03,3.02E-03
159976,7.97E-03,2.99E-03
159977,7.97E-03,2.96E-03
159978,7.87E-03,2.93E-03
159979,7.83E-03,2.90E-03
159980,7.81E-03,2.87E-03
159981,7.86E-03,2.84E-03
159982,8.13E-03,2.81E-03
159983,8.26E-03,2.78E-03
159984,8.33E-03,2.75E-03
159985,8.28E-03,2.73E-03
159986,8.22E-03,2.70E-03
159987,8.34E-03,2.67E-03
159988,8.32E-03,2.65E-03
159989,7.96E-03,2.62E-03
159990,7.81E-03,2.60E-03
159991,7.46E-03,2.57E-03
159992,7.40E-03,2.55E-03
159993,7.48E-03,2.53E-03
159994,7.61E-03,2.50E-03
159995,7.72E-03,2.48E-03
159996,7.77E-03,2.45E-03
159997,7.74E-03,2.43E-03
159998,7.71E-03,2.40E-03
159999,7.84E-03,2.38E-03
160000,7.92E-03,2.35E-03
160001,8.05E-03,2.33E-03
160002,8.18E-03,2.30E-03
160003,8.28E-03,2.27E-03
160004,8.56E-03,2.24E-03
160005,8.78E-03,2.21E-03
160006,9.01E-03,2.18E-03
160007,9.13E-03,2.15E-03
160008,9.15E-03,2.12E-03
160009,9.13E-03,2.08E-03
160010,9.09E-03,2.05E-03
160011,9.04E-03,2.01E-03
160012,8.96E-03,1.98E-03
160013,8.86E-03,1.94E-03
160014,8.76E-03,1.91E-03
160015,8.69E-03,1.87E-03
160016,8.63E-03,1.83E-03
160017,8.58E-03,1.79E-03
160018,8.52E-03,1.75E-03
160019,8.47E-03,1.71E-03
160020,8.44E-03,1.67E-03
160021,8.40E-03,1.63E-03
160022,8.37E-03,1.58E-03
160023,8.34E-03,1.53E-03
160024,8.32E-03,1.49E-03
160025,8.30E-03,1.44E-03
160026,8.29E-03,1.39E-03
160027,8.27E-03,1.33E-03
160028,8.26E-03,1.28E-03
160029,8.25E-03,1.22E-03
160030,8.16E-03,1.16E-03
160031,7.98E-03,1.11E-03
160032,7.87E-03,1.05E-03
160033,7.82E-03,9.91E-04
160034,7.74E-03,9.35E-04
160035,7.71E-03,8.83E-04
160036,7.59E-03,8.39E-04
160037,8.13E-03,2.69E-03
160038,8.55E-03,2.69E-03
160039,8.85E-03,2.06E-04
160040,8.76E-03,2.09E-04
160041,8.43E-03,2.16E-04
160042,8.22E-03,2.26E-04
160043,8.06E-03,2.39E-04
160044,8.06E-03,2.54E-04
160045,8.06E-03,2.70E-04
160046,8.06E-03,2.88E-04
160047,8.06E-03,3.07E-04
160048,8.06E-03,3.26E-04
160049,8.06E-03,3.47E-04
160050,8.06E-03,3.67E-04
160051,8.06E-03,3.88E-04
160052,8.06E-03,4.10E-04
160053,8.06E-03,4.32E-04
160054,8.06E-03,4.54E-04
160055,8.06E-03,4.77E-04
160056,8.06E-03,5.00E-04
160057,8.06E-03,5.23E-04
160058,8.06E-03,5.47E-04
160059,8.06E-03,5.72E-04
160060,8.06E-03,5.96E-04
160061,8.06E-03,6.22E-04
160062,8.06E-03,6.48E-04
160063,8.06E-03,6.74E-04
160064,8.06E-03,7.01E-04
160065,8.06E-03,7.29E-04
160066,8.06E-03,7.57E-04
160067,8.06E-03,7.86E-04
160068,8.06E-03,8.16E-04
160069,8.06E-03,8.46E-04
160070,8.06E-03,8.77E-04
160071,8.06E-03,9.09E-04
160072,8.06E-03,9.42E-04
160073,8.06E-03,9.74E-04
160074,8.06E-03,1.01E-03
160075,8.06E-03,1.04E-03
160076,8.06E-03,1.08E-03
160077,8.06E-03,1.11E-03
160078,8.06E-03,1.15E-03
160079,8.06E-03,1.18E-03
160080,8.06E-03,1.22E-03
160081,8.06E-03,1.26E-03
160082,8.06E-03,1.29E-03
160083,8.06E-03,1.33E-03
160084,8.06E-03,1.37E-03
160085,8.06E-03,1.40E-03
160086,8.06E-03,1.44E-03
160087,8.06E-03,1.48E-03
160088,8.06E-03,1.51E-03
160089,8.06E-03,1.55E-03
160090,8.06E-03,1.59E-03
160091,8.06E-03,1.62E-03
160092,8.06E-03,1.66E-03
160093,8.06E-03,1.69E-03
160094,8.06E-03,1.73E-03
160095,8.06E-03,1.77E-03
160096,8.06E-03,1.80E-03
160097,8.06E-03,1.84E-03
160098,8.06E-03,1.87E-03
160099,8.06E-03,1.91E-03
160100,8.06E-03,1.94E-03
160101,8.06E-03,1.98E-03
160102,8.06E-03,2.01E-03
160103,8.06E-03,2.04E-03
160104,8.06E-03,2.08E-03
160105,8.06E-03,2.11E-03
160106,8.06E-03,2.14E-03
160107,8.06E-03,2.17E-03
160108,8.06E-03,2.21E-03
160109,8.06E-03,2.24E-03
160110,8.06E-03,2.27E-03
160111,8.06E-03,2.30E-03
160112,8.06E-03,2.33E-03
160113,8.06E-03,2.36E-03
160114,8.06E-03,2.39E-03
160115,8.06E-03,2.42E-03
160116,8.06E-03,2.45E-03
160117,8.06E-03,2.48E-03
160118,8.06E-03,2.51E-03
160119,8.06E-03,2.54E-03
160120,8.01E-03,2.57E-03
160121,7.96E-03,2.60E-03
160122,8.07E-03,2.63E-03
160123,8.71E-03,2.85E-04
160124,7.64E-03,2.92E-04
160125,7.34E-03,2.99E-04
160126,7.24E-03,3.02E-04
160127,7.37E-03,3.06E-04
160128,7.74E-03,3.13E-04
160129,7.98E-03,3.20E-04
160130,7.91E-03,3.26E-04
160131,7.61E-03,3.31E-04
160132,7.38E-03,3.37E-04
160133,7.07E-03,3.45E-04
160134,6.76E-03,3.54E-04
160135,6.91E-03,3.68E-04
160136,7.12E-03,3.86E-04
160137,7.51E-03,4.05E-04
160138,7.80E-03,4.24E-04
160139,8.79E-03,4.42E-04
160140,8.95E-03,4.60E-04
160141,8.92E-03,4.75E-04
160142,8.59E-03,4.85E-04
160143,8.20E-03,4.94E-04
160144,7.65E-03,5.00E-04
160145,7.30E-03,5.07E-04
160146,7.11E-03,5.15E-04
160147,6.71E-03,5.23E-04
160148,8.68E-03,5.28E-04
160149,8.76E-03,5.32E-04
160150,8.82E-03,5.37E-04
160151,8.76E-03,5.39E-04
160152,8.58E-03,5.37E-04
160153,8.39E-03,5.33E-04
160154,8.27E-03,5.26E-04
160155,8.17E-03,5.18E-04
160156,8.11E-03,5.10E-04
160157,8.10E-03,5.01E-04
160158,8.09E-03,4.92E-04
160159,8.09E-03,4.83E-04
160160,8.08E-03,4.74E-04
160161,8.03E-03,4.65E-04
160162,7.96E-03,4.57E-04
160163,7.86E-03,4.50E-04
160164,7.72E-03,4.44E-04
160165,7.64E-03,4.39E-04
160166,7.50E-03,4.36E-04
160167,7.28E-03,4.34E-04
160168,7.24E-03,4.34E-04
160169,7.69E-03,4.36E-04
160170,7.98E-03,4.38E-04
160171,8.01E-03,4.41E-04
160172,8.03E-03,4.44E-04
160173,8.04E-03,4.45E-04
160174,8.04E-03,4.46E-04
160175,8.04E-03,4.46E-04
160176,8.04E-03,4.45E-04
160177,8.04E-03,4.42E-04
160178,8.04E-03,4.39E-04
160179,8.04E-03,4.35E-04
160180,8.04E-03,4.31E-04
160181,7.93E-03,4.26E-04
160182,7.82E-03,4.21E-04
160183,7.50E-03,4.16E-04
160184,6.94E-03,4.17E-04
160185,6.65E-03,4.14E-04
160186,6.60E-03,3.90E-04
160187,6.96E-03,3.91E-04
160188,7.55E-03,4.05E-04
160189,7.81E-03,4.16E-04
160190,7.84E-03,4.29E-04
160191,8.00E-03,4.39E-04
160192,8.00E-03,4.49E-04
160193,8.00E-03,4.57E-04
160194,7.99E-03,4.66E-04
160195,7.99E-03,4.76E-04
160196,7.99E-03,4.89E-04
160197,7.99E-03,5.05E-04
160198,7.99E-03,5.20E-04
160199,7.98E-03,5.35E-04
160200,7.98E-03,5.48E-04
160201,7.98E-03,5.62E-04
160202,7.98E-03,5.74E-04
160203,7.98E-03,5.88E-04
160204,7.97E-03,6.02E-04
160205,7.91E-03,6.17E-04
160206,7.83E-03,6.34E-04
160207,7.81E-03,6.53E-04
160208,7.71E-03,6.67E-04
160209,6.41E-03,7.59E-04
160210,7.34E-03,8.10E-04
160211,7.83E-03,8.73E-04
160212,8.02E-03,9.38E-04
160213,8.19E-03,9.98E-04
160214,7.99E-03,1.09E-03
160215,7.09E-03,1.13E-03
160216,6.94E-03,1.15E-03
160217,6.54E-03,1.18E-03
160218,6.70E-03,1.21E-03
160219,6.84E-03,1.25E-03
160220,7.33E-03,1.31E-03
160221,7.96E-03,1.37E-03
160222,8.06E-03,2.62E-03
160223,8.06E-03,2.59E-03
160224,8.06E-03,2.56E-03
160225,8.06E-03,2.53E-03
160226,8.06E-03,2.50E-03
160227,8.06E-03,2.46E-03
160228,8.06E-03,2.43E-03
160229,8.06E-03,2.40E-03
160230,8.06E-03,2.37E-03
160231,8.06E-03,2.34E-03
160232,8.06E-03,2.31E-03
160233,8.06E-03,2.27E-03
160234,8.06E-03,2.24E-03
160235,8.06E-03,2.21E-03
160236,8.06E-03,2.18E-03
160237,8.06E-03,2.14E-03
160238,8.06E-03,2.11E-03
160239,8.06E-03,2.08E-03
160240,8.06E-03,2.04E-03
160241,8.06E-03,2.01E-03
160242,8.06E-03,1.98E-03
160243,8.06E-03,1.94E-03
160244,8.06E-03,1.91E-03
160245,8.06E-03,1.87E-03
160246,8.06E-03,1.84E-03
160247,8.06E-03,1.80E-03
160248,8.06E-03,1.77E-03
160249,8.06E-03,1.73E-03
160250,8.06E-03,1.70E-03
160251,8.06E-03,1.66E-03
160252,8.06E-03,1.62E-03
160253,8.06E-03,1.59E-03
160254,8.06E-03,1.55E-03
160255,8.06E-03,1.52E-03
160256,8.06E-03,1.48E-03
160257,8.06E-03,1.44E-03
160258,8.06E-03,1.41E-03
160259,8.06E-03,1.37E-03
160260,8.06E-03,1.33E-03
160261,8.06E-03,1.30E-03
160262,8.06E-03,1.26E-03
160263,8.06E-03,1.22E-03
160264,8.06E-03,1.19E-03
160265,8.06E-03,1.15E-03
160266,8.06E-03,1.12E-03
160267,8.06E-03,1.08E-03
160268,8.06E-03,1.05E-03
160269,8.06E-03,1.01E-03
160270,8.06E-03,9.78E-04
160271,8.06E-03,9.45E-04
160272,8.06E-03,9.12E-04
160273,8.06E-03,8.79E-04
160274,8.06E-03,8.47E-04
160275,8.06E-03,8.15E-04
160276,8.06E-03,7.84E-04
160277,8.06E-03,7.54E-04
160278,8.06E-03,7.24E-04
160279,8.06E-03,6.95E-04
160280,8.06E-03,6.66E-04
160281,8.06E-03,6.38E-04
160282,8.06E-03,6.11E-04
160283,8.06E-03,5.85E-04
160284,8.06E-03,5.59E-04
160285,8.06E-03,5.34E-04
160286,8.06E-03,5.10E-04
160287,8.06E-03,4.86E-04
160288,8.06E-03,4.63E-04
160289,8.06E-03,4.41E-04
160290,8.06E-03,4.20E-04
160291,8.06E-03,4.00E-04
160292,8.06E-03,3.81E-04
160293,8.06E-03,3.63E-04
160294,8.06E-03,3.45E-04
160295,8.12E-03,3.29E-04
160296,8.08E-03,3.13E-04
160297,8.07E-03,2.99E-04
160298,7.85E-03,2.86E-04
160299,7.74E-03,2.75E-04
160300,7.78E-03,2.66E-04
160301,8.12E-03,2.62E-04
160302,9.10E-03,2.63E-04
160303,7.86E-03,2.13E-04
160304,7.68E-03,2.29E-04
160305,7.32E-03,4.98E-03
160306,7.59E-03,4.98E-03
160307,7.70E-03,4.97E-03
160308,7.78E-03,4.96E-03
160309,7.83E-03,4.95E-03
160310,7.77E-03,4.95E-03
160311,7.67E-03,4.94E-03
160312,7.55E-03,4.93E-03
160313,7.45E-03,4.92E-03
160314,7.32E-03,4.90E-03
160315,7.21E-03,4.87E-03
160316,7.18E-03,4.82E-03
160317,8.54E-03,2.02E-04
160318,8.82E-03,1.91E-04
160319,8.43E-03,1.78E-04
160320,8.15E-03,1.68E-04
160321,7.78E-03,1.57E-04
160322,7.49E-03,1.46E-04
160323,7.28E-03,1.34E-04
160324,7.01E-03,1.23E-04
160325,6.71E-03,1.12E-04
160326,6.36E-03,1.02E-04
160327,6.09E-03,9.24E-05
160328,6.15E-03,8.84E-05
160329,6.28E-03,8.70E-05
160330,6.45E-03,8.64E-05
160331,6.50E-03,8.66E-05
160332,6.44E-03,8.80E-05
160333,6.37E-03,9.09E-05
160334,6.37E-03,9.52E-05
160335,6.31E-03,1.01E-04
160336,6.00E-03,1.08E-04
160337,5.88E-03,1.16E-04
160338,5.25E-03,1.20E-04
160339,5.51E-03,1.34E-04
160340,6.20E-03,1.49E-04
160341,6.29E-03,1.66E-04
160342,6.41E-03,1.86E-04
160343,6.54E-03,2.09E-04
160344,6.78E-03,2.33E-04
160345,6.97E-03,2.58E-04
160346,7.16E-03,2.85E-04
160347,7.16E-03,3.13E-04
160348,7.26E-03,3.41E-04
160349,7.36E-03,3.69E-04
160350,7.56E-03,3.94E-04
160351,7.63E-03,4.16E-04
160352,7.68E-03,4.50E-04
160353,7.71E-03,4.83E-04
160354,7.73E-03,5.14E-04
160355,7.75E-03,5.49E-04
160356,7.76E-03,5.87E-04
160357,7.79E-03,6.18E-04
160358,7.82E-03,6.33E-04
160359,7.84E-03,6.61E-04
160360,7.86E-03,7.03E-04
160361,7.87E-03,7.32E-04
160362,7.90E-03,7.50E-04
160363,7.94E-03,7.73E-04
160364,7.97E-03,8.01E-04
160365,7.99E-03,8.35E-04
160366,8.01E-03,8.73E-04
160367,7.83E-03,9.17E-04
160368,7.68E-03,9.62E-04
160369,7.62E-03,1.00E-03
160370,7.52E-03,1.04E-03
160371,7.33E-03,1.12E-03
160372,7.40E-03,1.18E-03
160373,7.52E-03,1.24E-03
160374,7.73E-03,1.29E-03
160375,8.11E-03,1.33E-03
160376,9.68E-03,1.33E-03
160377,1.04E-02,1.35E-03
160378,9.25E-03,1.39E-03
160379,8.91E-03,1.39E-03
160380,8.69E-03,1.37E-03
160381,8.24E-03,1.34E-03
160382,8.18E-03,1.31E-03
160383,8.09E-03,1.27E-03
160384,8.03E-03,1.23E-03
160385,7.96E-03,1.20E-03
160386,7.92E-03,1.17E-03
160387,7.87E-03,1.14E-03
160388,7.76E-03,1.11E-03
160389,7.74E-03,1.08E-03
160390,7.80E-03,1.05E-03
160391,7.83E-03,1.03E-03
160392,7.85E-03,1.01E-03
160393,7.87E-03,9.88E-04
160394,7.80E-03,9.68E-04
160395,7.73E-03,9.48E-04
160396,7.65E-03,9.28E-04
160397,7.53E-03,9.10E-04
160398,7.47E-03,8.94E-04
160399,7.30E-03,8.80E-04
160400,7.33E-03,8.66E-04
160401,7.32E-03,8.52E-04
160402,7.40E-03,8.38E-04
160403,7.56E-03,8.18E-04
160404,8.10E-03,2.66E-03
160405,8.79E-03,2.66E-03
160406,7.06E-03,5.01E-03
160407,7.68E-03,4.98E-03
160408,8.08E-03,4.94E-03
160409,8.08E-03,4.90E-03
160410,8.12E-03,4.86E-03
160411,8.08E-03,4.83E-03
160412,8.08E-03,4.79E-03
160413,8.08E-03,4.76E-03
160414,8.08E-03,4.73E-03
160415,8.09E-03,4.69E-03
160416,8.09E-03,4.66E-03
160417,8.09E-03,4.63E-03
160418,8.09E-03,4.60E-03
160419,8.10E-03,4.57E-03
160420,8.10E-03,4.53E-03
160421,8.10E-03,4.50E-03
160422,8.11E-03,4.47E-03
160423,8.10E-03,4.44E-03
160424,8.10E-03,4.40E-03
160425,8.10E-03,4.37E-03
160426,8.10E-03,4.33E-03
160427,8.09E-03,4.30E-03
160428,8.09E-03,4.26E-03
160429,8.09E-03,4.23E-03
160430,8.09E-03,4.19E-03
160431,8.08E-03,4.16E-03
160432,8.08E-03,4.12E-03
160433,8.08E-03,4.08E-03
160434,8.08E-03,4.04E-03
160435,8.07E-03,4.01E-03
160436,8.07E-03,3.97E-03
160437,8.07E-03,3.93E-03
160438,8.07E-03,3.89E-03
160439,8.06E-03,3.85E-03
160440,8.06E-03,3.81E-03
160441,8.06E-03,3.78E-03
160442,8.06E-03,3.74E-03
160443,8.06E-03,3.70E-03
160444,8.05E-03,3.66E-03
160445,8.05E-03,3.62E-03
160446,8.05E-03,3.58E-03
160447,8.05E-03,3.54E-03
160448,8.04E-03,3.50E-03
160449,8.04E-03,3.47E-03
160450,8.05E-03,3.43E-03
160451,8.05E-03,3.39E-03
160452,8.05E-03,3.35E-03
160453,8.05E-03,3.31E-03
160454,8.04E-03,3.28E-03
160455,8.04E-03,3.24E-03
160456,8.03E-03,3.21E-03
160457,8.02E-03,3.17E-03
160458,8.01E-03,3.14E-03
160459,8.00E-03,3.10E-03
160460,7.99E-03,3.07E-03
160461,7.99E-03,3.04E-03
160462,7.99E-03,3.00E-03
160463,7.99E-03,2.97E-03
160464,7.99E-03,2.94E-03
160465,7.98E-03,2.91E-03
160466,7.98E-03,2.88E-03
160467,7.97E-03,2.85E-03
160468,8.06E-03,2.82E-03
160469,8.16E-03,2.79E-03
160470,8.22E-03,2.76E-03
160471,8.24E-03,2.74E-03
160472,8.25E-03,2.71E-03
160473,8.23E-03,2.68E-03
160474,8.14E-03,2.66E-03
160475,8.00E-03,2.63E-03
160476,7.85E-03,2.60E-03
160477,7.73E-03,2.58E-03
160478,7.67E-03,2.56E-03
160479,7.68E-03,2.53E-03
160480,7.78E-03,2.51E-03
160481,7.81E-03,2.48E-03
160482,7.85E-03,2.46E-03
160483,7.88E-03,2.43E-03
160484,7.91E-03,2.41E-03
160485,7.98E-03,2.38E-03
160486,8.00E-03,2.36E-03
160487,8.08E-03,2.33E-03
160488,8.16E-03,2.30E-03
160489,8.26E-03,2.28E-03
160490,8.45E-03,2.25E-03
160491,8.57E-03,2.22E-03
160492,8.74E-03,2.19E-03
160493,8.82E-03,2.16E-03
160494,8.83E-03,2.12E-03
160495,8.82E-03,2.09E-03
160496,8.79E-03,2.06E-03
160497,8.75E-03,2.02E-03
160498,8.70E-03,1.99E-03
160499,8.63E-03,1.95E-03
160500,8.55E-03,1.92E-03
160501,8.50E-03,1.88E-03
160502,8.46E-03,1.84E-03
160503,8.42E-03,1.81E-03
160504,8.38E-03,1.77E-03
160505,8.35E-03,1.72E-03
160506,8.32E-03,1.68E-03
160507,8.30E-03,1.64E-03
160508,8.28E-03,1.59E-03
160509,8.26E-03,1.54E-03
160510,8.24E-03,1.50E-03
160511,8.23E-03,1.44E-03
160512,8.22E-03,1.39E-03
160513,8.20E-03,1.34E-03
160514,8.20E-03,1.28E-03
160515,8.19E-03,1.22E-03
160516,8.18E-03,1.16E-03
160517,8.07E-03,1.11E-03
160518,7.91E-03,1.05E-03
160519,7.91E-03,9.86E-04
160520,7.90E-03,9.29E-04
160521,7.84E-03,8.75E-04
160522,7.74E-03,8.27E-04
160523,7.64E-03,7.90E-04
160524,8.10E-03,5.05E-03
160525,9.10E-03,1.47E-03
160526,8.60E-03,1.54E-03
160527,6.10E-03,1.58E-03
160528,9.01E-03,1.58E-03
160529,9.07E-03,1.56E-03
160530,9.00E-03,1.55E-03
160531,8.82E-03,1.54E-03
160532,8.35E-03,1.51E-03
160533,7.94E-03,1.47E-03
160534,7.77E-03,1.42E-03
160535,7.51E-03,1.37E-03
160536,7.30E-03,1.34E-03
160537,7.25E-03,1.31E-03
160538,7.32E-03,1.30E-03
160539,7.89E-03,1.28E-03
160540,7.83E-03,1.28E-03
160541,7.60E-03,1.29E-03
160542,7.38E-03,1.29E-03
160543,6.63E-03,1.29E-03
160544,6.80E-03,1.31E-03
160545,7.01E-03,1.35E-03
160546,7.20E-03,1.39E-03
160547,7.58E-03,1.44E-03
160548,8.01E-03,1.50E-03
160549,8.03E-03,1.56E-03
160550,8.03E-03,1.62E-03
160551,8.03E-03,1.67E-03
160552,8.03E-03,1.73E-03
160553,8.03E-03,1.79E-03
160554,8.03E-03,1.84E-03
160555,8.03E-03,1.89E-03
160556,8.03E-03,1.94E-03
160557,8.03E-03,1.99E-03
160558,8.03E-03,2.04E-03
160559,7.86E-03,2.09E-03
160560,7.66E-03,2.14E-03
160561,7.67E-03,2.19E-03
160562,7.73E-03,2.25E-03
160563,7.77E-03,2.31E-03
160564,7.80E-03,2.38E-03
160565,7.83E-03,2.46E-03
160566,7.85E-03,2.54E-03
160567,7.87E-03,2.63E-03
160568,7.89E-03,2.73E-03
160569,7.93E-03,2.83E-03
160570,7.99E-03,2.93E-03
160571,8.03E-03,3.04E-03
160572,8.04E-03,3.15E-03
160573,8.03E-03,3.27E-03
160574,8.03E-03,3.39E-03
160575,8.06E-03,3.52E-03
160576,8.13E-03,3.64E-03
160577,8.20E-03,3.77E-03
160578,8.26E-03,3.89E-03
160579,8.36E-03,4.00E-03
160580,8.59E-03,4.11E-03
160581,8.69E-03,4.21E-03
160582,8.23E-03,4.30E-03
160583,8.12E-03,4.38E-03
160584,7.78E-03,4.45E-03
160585,7.62E-03,4.49E-03
160586,7.37E-03,4.53E-03
160587,6.72E-03,4.55E-03
160588,5.78E-03,4.46E-03
160589,6.12E-03,4.52E-03
160590,6.75E-03,4.56E-03
160591,6.67E-03,4.57E-03
160592,6.89E-03,4.60E-03
160593,6.98E-03,4.66E-03
160594,7.22E-03,4.73E-03
160595,7.26E-03,2.63E-04
160596,8.29E-03,2.66E-03
160597,8.55E-03,2.66E-03
160598,8.08E-03,2.21E-04
160599,8.38E-03,2.18E-04
160600,8.43E-03,2.19E-04
160601,8.34E-03,2.22E-04
160602,8.23E-03,2.30E-04
160603,8.06E-03,2.40E-04
160604,8.06E-03,2.53E-04
160605,8.06E-03,2.68E-04
160606,8.06E-03,2.85E-04
160607,8.06E-03,3.03E-04
160608,8.06E-03,3.21E-04
160609,8.06E-03,3.41E-04
160610,8.06E-03,3.61E-04
160611,8.06E-03,3.81E-04
160612,8.06E-03,4.02E-04
160613,8.06E-03,4.24E-04
160614,8.06E-03,4.46E-04
160615,8.06E-03,4.69E-04
160616,8.06E-03,4.92E-04
160617,8.06E-03,5.15E-04
160618,8.06E-03,5.39E-04
160619,8.06E-03,5.64E-04
160620,8.06E-03,5.89E-04
160621,8.06E-03,6.14E-04
160622,8.06E-03,6.40E-04
160623,8.06E-03,6.67E-04
160624,8.06E-03,6.94E-04
160625,8.06E-03,7.22E-04
160626,8.06E-03,7.51E-04
160627,8.06E-03,7.80E-04
160628,8.06E-03,8.10E-04
160629,8.06E-03,8.41E-04
160630,8.06E-03,8.72E-04
160631,8.06E-03,9.04E-04
160632,8.06E-03,9.36E-04
160633,8.06E-03,9.69E-04
160634,8.06E-03,1.00E-03
160635,8.06E-03,1.04E-03
160636,8.06E-03,1.07E-03
160637,8.06E-03,1.11E-03
160638,8.06E-03,1.14E-03
160639,8.06E-03,1.18E-03
160640,8.06E-03,1.21E-03
160641,8.06E-03,1.25E-03
160642,8.06E-03,1.29E-03
160643,8.06E-03,1.32E-03
160644,8.06E-03,1.36E-03
160645,8.06E-03,1.40E-03
160646,8.06E-03,1.43E-03
160647,8.06E-03,1.47E-03
160648,8.06E-03,1.51E-03
160649,8.06E-03,1.54E-03
160650,8.06E-03,1.58E-03
160651,8.06E-03,1.62E-03
160652,8.06E-03,1.65E-03
160653,8.06E-03,1.69E-03
160654,8.06E-03,1.73E-03
160655,8.06E-03,1.76E-03
160656,8.06E-03,1.80E-03
160657,8.06E-03,1.83E-03
160658,8.06E-03,1.87E-03
160659,8.06E-03,1.90E-03
160660,8.06E-03,1.94E-03
160661,8.06E-03,1.97E-03
160662,8.06E-03,2.00E-03
160663,8.06E-03,2.04E-03
160664,8.06E-03,2.07E-03
160665,8.06E-03,2.10E-03
160666,8.06E-03,2.14E-03
160667,8.06E-03,2.17E-03
160668,8.06E-03,2.20E-03
160669,8.06E-03,2.23E-03
160670,8.06E-03,2.26E-03
160671,8.06E-03,2.30E-03
160672,8.06E-03,2.33E-03
160673,8.06E-03,2.36E-03
160674,8.06E-03,2.39E-03
160675,8.06E-03,2.42E-03
160676,8.06E-03,2.45E-03
160677,8.06E-03,2.48E-03
160678,8.06E-03,2.51E-03
160679,8.06E-03,2.54E-03
160680,8.06E-03,2.57E-03
160681,8.15E-03,2.60E-03
160682,8.36E-03,2.63E-03
160683,7.95E-03,2.21E-04
160684,8.34E-03,2.10E-04
160685,8.26E-03,1.96E-04
160686,8.15E-03,1.84E-04
160687,7.98E-03,1.71E-04
160688,7.58E-03,1.58E-04
160689,7.48E-03,1.45E-04
160690,7.32E-03,1.30E-04
160691,7.15E-03,1.16E-04
160692,6.94E-03,1.02E-04
160693,6.76E-03,9.36E-05
160694,6.82E-03,8.95E-05
160695,6.78E-03,8.79E-05
160696,6.90E-03,8.64E-05
160697,7.00E-03,8.54E-05
160698,6.93E-03,8.63E-05
160699,6.87E-03,8.92E-05
160700,6.90E-03,9.24E-05
160701,6.85E-03,9.48E-05
160702,6.71E-03,9.70E-05
160703,6.53E-03,1.02E-04
160704,6.25E-03,1.09E-04
160705,6.41E-03,1.21E-04
160706,6.65E-03,1.37E-04
160707,6.82E-03,1.56E-04
160708,6.93E-03,1.78E-04
160709,7.07E-03,2.01E-04
160710,7.23E-03,2.26E-04
160711,7.37E-03,2.52E-04
160712,7.53E-03,2.80E-04
160713,7.43E-03,3.09E-04
160714,7.45E-03,3.41E-04
160715,7.58E-03,3.74E-04
160716,7.68E-03,4.09E-04
160717,7.72E-03,4.31E-04
160718,7.75E-03,4.52E-04
160719,7.77E-03,4.70E-04
160720,7.78E-03,4.91E-04
160721,7.79E-03,5.25E-04
160722,7.80E-03,5.76E-04
160723,7.82E-03,6.32E-04
160724,7.83E-03,6.95E-04
160725,7.85E-03,7.31E-04
160726,7.86E-03,7.44E-04
160727,7.87E-03,7.40E-04
160728,7.88E-03,7.39E-04
160729,7.90E-03,7.52E-04
160730,7.92E-03,7.72E-04
160731,7.94E-03,7.99E-04
160732,7.95E-03,8.32E-04
160733,7.86E-03,8.75E-04
160734,7.77E-03,9.36E-04
160735,7.69E-03,1.01E-03
160736,7.67E-03,1.07E-03
160737,7.56E-03,1.14E-03
160738,7.62E-03,1.20E-03
160739,7.74E-03,1.27E-03
160740,7.82E-03,1.37E-03
160741,8.05E-03,1.47E-03
160742,8.69E-03,1.55E-03
160743,8.83E-03,1.59E-03
160744,8.75E-03,1.56E-03
160745,8.50E-03,1.53E-03
160746,8.44E-03,1.47E-03
160747,8.18E-03,1.42E-03
160748,8.08E-03,1.36E-03
160749,8.01E-03,1.31E-03
160750,7.98E-03,1.26E-03
160751,7.94E-03,1.22E-03
160752,7.91E-03,1.18E-03
160753,7.89E-03,1.14E-03
160754,7.82E-03,1.10E-03
160755,7.81E-03,1.07E-03
160756,7.84E-03,1.05E-03
160757,7.86E-03,1.02E-03
160758,7.88E-03,9.98E-04
160759,7.88E-03,9.76E-04
160760,7.89E-03,9.54E-04
160761,7.83E-03,9.31E-04
160762,7.83E-03,9.08E-04
160763,7.67E-03,8.85E-04
160764,7.57E-03,8.67E-04
160765,7.50E-03,8.54E-04
160766,7.48E-03,8.46E-04
160767,7.48E-03,8.41E-04
160768,7.52E-03,8.35E-04
160769,7.53E-03,8.27E-04
160770,7.59E-03,7.92E-04
160771,8.63E-03,5.07E-03
160772,7.76E-03,5.09E-03
160773,7.75E-03,5.08E-03
160774,7.83E-03,5.07E-03
160775,7.83E-03,5.06E-03
160776,7.83E-03,5.05E-03
160777,7.76E-03,5.04E-03
160778,7.64E-03,5.04E-03
160779,7.56E-03,5.02E-03
160780,7.44E-03,5.00E-03
160781,7.32E-03,4.96E-03
160782,7.23E-03,4.90E-03
160783,7.22E-03,4.81E-03
160784,6.58E-03,2.75E-04
160785,7.60E-03,2.80E-04
160786,8.71E-03,2.82E-04
160787,7.64E-03,3.02E-04
160788,7.89E-03,3.05E-04
160789,7.57E-03,3.10E-04
160790,7.53E-03,3.15E-04
160791,7.60E-03,3.19E-04
160792,7.74E-03,3.23E-04
160793,7.88E-03,3.26E-04
160794,7.84E-03,3.30E-04
160795,7.74E-03,3.31E-04
160796,7.58E-03,3.33E-04
160797,7.41E-03,3.34E-04
160798,7.24E-03,3.36E-04
160799,7.30E-03,3.50E-04
160800,7.43E-03,3.75E-04
160801,7.66E-03,4.09E-04
160802,7.77E-03,4.45E-04
160803,8.60E-03,4.75E-04
160804,8.61E-03,4.96E-04
160805,8.53E-03,5.08E-04
160806,8.46E-03,5.11E-04
160807,8.09E-03,5.11E-04
160808,7.77E-03,5.10E-04
160809,7.61E-03,5.12E-04
160810,7.51E-03,5.19E-04
160811,7.24E-03,5.33E-04
160812,8.30E-03,5.52E-04
160813,8.64E-03,5.67E-04
160814,8.55E-03,5.75E-04
160815,8.47E-03,5.73E-04
160816,8.39E-03,5.66E-04
160817,8.24E-03,5.56E-04
160818,8.16E-03,5.45E-04
160819,8.08E-03,5.34E-04
160820,8.08E-03,5.22E-04
160821,8.08E-03,5.11E-04
160822,8.07E-03,5.00E-04
160823,8.07E-03,4.88E-04
160824,8.07E-03,4.77E-04
160825,8.03E-03,4.66E-04
160826,7.99E-03,4.55E-04
160827,7.91E-03,4.44E-04
160828,7.87E-03,4.35E-04
160829,7.78E-03,4.27E-04
160830,7.65E-03,4.22E-04
160831,7.63E-03,4.19E-04
160832,7.64E-03,4.21E-04
160833,7.80E-03,4.25E-04
160834,7.97E-03,4.31E-04
160835,8.03E-03,4.36E-04
160836,8.04E-03,4.40E-04
160837,8.04E-03,4.42E-04
160838,8.04E-03,4.43E-04
160839,8.04E-03,4.42E-04
160840,8.04E-03,4.40E-04
160841,8.04E-03,4.37E-04
160842,8.04E-03,4.32E-04
160843,8.04E-03,4.27E-04
160844,8.04E-03,4.21E-04
160845,7.95E-03,4.15E-04
160846,7.79E-03,4.09E-04
160847,7.63E-03,4.02E-04
160848,7.42E-03,3.95E-04
160849,7.21E-03,3.88E-04
160850,7.22E-03,3.77E-04
160851,7.42E-03,3.74E-04
160852,7.62E-03,3.63E-04
160853,7.78E-03,3.73E-04
160854,7.89E-03,3.83E-04
160855,8.03E-03,3.99E-04
160856,8.03E-03,4.12E-04
160857,8.03E-03,4.23E-04
160858,8.03E-03,4.31E-04
160859,8.02E-03,4.39E-04
160860,8.02E-03,4.49E-04
160861,8.02E-03,4.59E-04
160862,8.02E-03,4.70E-04
160863,8.02E-03,4.81E-04
160864,8.02E-03,4.92E-04
160865,8.02E-03,5.02E-04
160866,8.02E-03,5.13E-04
160867,8.01E-03,5.23E-04
160868,8.01E-03,5.34E-04
160869,8.01E-03,5.46E-04
160870,7.84E-03,5.59E-04
160871,7.65E-03,5.70E-04
160872,7.31E-03,5.82E-04
160873,6.53E-03,5.98E-04
160874,6.10E-03,6.14E-04
160875,5.94E-03,6.50E-04
160876,6.60E-03,7.11E-04
160877,7.45E-03,7.72E-04
160878,7.81E-03,8.48E-04
160879,8.06E-03,9.33E-04
160880,8.29E-03,1.02E-03
160881,9.12E-03,1.09E-03
160882,8.97E-03,1.14E-03
160883,7.50E-03,1.14E-03
160884,7.28E-03,1.09E-03
160885,6.94E-03,1.07E-03
160886,7.20E-03,1.08E-03
160887,7.40E-03,1.15E-03
160888,7.64E-03,1.26E-03
160889,8.01E-03,1.38E-03
160890,9.40E-03,1.49E-03
160891,9.71E-03,1.56E-03
160892,8.59E-03,1.61E-03
160893,7.07E-03,1.62E-03
160894,8.39E-03,1.63E-03
160895,8.54E-03,1.64E-03
160896,8.58E-03,1.63E-03
160897,8.46E-03,1.58E-03
160898,8.18E-03,1.51E-03
160899,8.05E-03,1.42E-03
160900,7.85E-03,1.34E-03
160901,7.68E-03,1.26E-03
160902,7.67E-03,1.20E-03
160903,7.37E-03,1.18E-03
160904,7.67E-03,1.18E-03
160905,7.96E-03,1.20E-03
160906,7.89E-03,1.19E-03
160907,7.53E-03,1.17E-03
160908,7.70E-03,1.15E-03
160909,7.18E-03,1.14E-03
160910,7.27E-03,1.17E-03
160911,7.34E-03,1.21E-03
160912,7.54E-03,1.27E-03
160913,7.90E-03,1.34E-03
160914,8.02E-03,1.41E-03
160915,8.03E-03,1.48E-03
160916,8.03E-03,1.54E-03
160917,8.03E-03,1.60E-03
160918,8.03E-03,1.66E-03
160919,8.03E-03,1.72E-03
160920,8.03E-03,1.77E-03
160921,8.03E-03,1.82E-03
160922,8.03E-03,1.87E-03
160923,8.03E-03,1.91E-03
160924,8.03E-03,1.95E-03
160925,7.93E-03,1.99E-03
160926,7.81E-03,2.03E-03
160927,7.82E-03,2.08E-03
160928,7.85E-03,2.14E-03
160929,7.88E-03,2.20E-03
160930,7.89E-03,2.28E-03
160931,7.91E-03,2.36E-03
160932,7.92E-03,2.44E-03
160933,7.93E-03,2.54E-03
160934,7.94E-03,2.64E-03
160935,7.97E-03,2.74E-03
160936,8.01E-03,2.86E-03
160937,8.03E-03,2.98E-03
160938,8.03E-03,3.10E-03
160939,8.03E-03,3.23E-03
160940,8.03E-03,3.36E-03
160941,8.05E-03,3.50E-03
160942,8.09E-03,3.65E-03
160943,8.13E-03,3.79E-03
160944,8.17E-03,3.94E-03
160945,8.23E-03,4.09E-03
160946,8.37E-03,4.21E-03
160947,8.42E-03,4.32E-03
160948,8.23E-03,4.40E-03
160949,8.07E-03,4.47E-03
160950,7.83E-03,4.53E-03
160951,7.76E-03,4.59E-03
160952,7.56E-03,4.64E-03
160953,7.07E-03,4.73E-03
160954,6.55E-03,4.62E-03
160955,6.63E-03,4.63E-03
160956,6.83E-03,4.47E-03
160957,7.01E-03,4.43E-03
160958,7.12E-03,4.46E-03
160959,7.07E-03,4.53E-03
160960,7.19E-03,4.60E-03
160961,7.27E-03,4.69E-03
160962,6.97E-03,5.09E-03
160963,7.62E-03,5.07E-03
160964,7.98E-03,5.03E-03
160965,8.04E-03,4.98E-03
160966,8.06E-03,4.94E-03
160967,8.06E-03,4.91E-03
160968,8.06E-03,4.87E-03
160969,8.07E-03,4.84E-03
160970,8.07E-03,4.80E-03
160971,8.07E-03,4.77E-03
160972,8.07E-03,4.73E-03
160973,8.07E-03,4.70E-03
160974,8.07E-03,4.67E-03
160975,8.07E-03,4.64E-03
160976,8.08E-03,4.60E-03
160977,8.08E-03,4.57E-03
160978,8.08E-03,4.53E-03
160979,8.08E-03,4.50E-03
160980,8.08E-03,4.46E-03
160981,8.08E-03,4.43E-03
160982,8.07E-03,4.39E-03
160983,8.07E-03,4.36E-03
160984,8.07E-03,4.32E-03
160985,8.07E-03,4.28E-03
160986,8.07E-03,4.25E-03
160987,8.07E-03,4.21E-03
160988,8.06E-03,4.17E-03
160989,8.06E-03,4.13E-03
160990,8.06E-03,4.09E-03
160991,8.06E-03,4.05E-03
160992,8.06E-03,4.01E-03
160993,8.06E-03,3.97E-03
160994,8.06E-03,3.93E-03
160995,8.05E-03,3.89E-03
160996,8.05E-03,3.85E-03
160997,8.05E-03,3.81E-03
160998,8.05E-03,3.77E-03
160999,8.05E-03,3.73E-03
161000,8.05E-03,3.69E-03
161001,8.05E-03,3.65E-03
161002,8.05E-03,3.61E-03
161003,8.04E-03,3.57E-03
161004,8.04E-03,3.53E-03
161005,8.04E-03,3.49E-03
161006,8.04E-03,3.46E-03
161007,8.04E-03,3.42E-03
161008,8.05E-03,3.38E-03
161009,8.04E-03,3.34E-03
161010,8.04E-03,3.30E-03
161011,8.04E-03,3.26E-03
161012,8.03E-03,3.23E-03
161013,8.03E-03,3.19E-03
161014,8.02E-03,3.15E-03
161015,8.02E-03,3.12E-03
161016,8.01E-03,3.09E-03
161017,8.01E-03,3.05E-03
161018,8.01E-03,3.02E-03
161019,8.01E-03,2.98E-03
161020,8.01E-03,2.95E-03
161021,8.00E-03,2.92E-03
161022,8.00E-03,2.89E-03
161023,8.00E-03,2.86E-03
161024,7.99E-03,2.83E-03
161025,8.06E-03,2.80E-03
161026,8.11E-03,2.77E-03
161027,8.14E-03,2.74E-03
161028,8.15E-03,2.72E-03
161029,8.15E-03,2.69E-03
161030,8.09E-03,2.66E-03
161031,8.02E-03,2.64E-03
161032,7.98E-03,2.61E-03
161033,7.90E-03,2.58E-03
161034,7.87E-03,2.56E-03
161035,7.86E-03,2.53E-03
161036,7.88E-03,2.51E-03
161037,7.90E-03,2.49E-03
161038,7.92E-03,2.46E-03
161039,7.94E-03,2.44E-03
161040,7.96E-03,2.41E-03
161041,7.98E-03,2.39E-03
161042,8.01E-03,2.36E-03
161043,8.06E-03,2.33E-03
161044,8.12E-03,2.31E-03
161045,8.21E-03,2.28E-03
161046,8.28E-03,2.25E-03
161047,8.36E-03,2.22E-03
161048,8.46E-03,2.19E-03
161049,8.51E-03,2.16E-03
161050,8.51E-03,2.13E-03
161051,8.51E-03,2.10E-03
161052,8.49E-03,2.07E-03
161053,8.47E-03,2.03E-03
161054,8.43E-03,2.00E-03
161055,8.39E-03,1.96E-03
161056,8.35E-03,1.93E-03
161057,8.32E-03,1.89E-03
161058,8.29E-03,1.86E-03
161059,8.27E-03,1.82E-03
161060,8.25E-03,1.78E-03
161061,8.23E-03,1.74E-03
161062,8.21E-03,1.69E-03
161063,8.20E-03,1.65E-03
161064,8.18E-03,1.60E-03
161065,8.17E-03,1.55E-03
161066,8.16E-03,1.50E-03
161067,8.15E-03,1.45E-03
161068,8.15E-03,1.40E-03
161069,8.14E-03,1.34E-03
161070,8.13E-03,1.29E-03
161071,8.13E-03,1.23E-03
161072,8.12E-03,1.17E-03
161073,8.12E-03,1.11E-03
161074,8.06E-03,1.04E-03
161075,7.95E-03,9.83E-04
161076,7.88E-03,9.24E-04
161077,7.81E-03,8.69E-04
161078,7.80E-03,8.20E-04
161079,7.73E-03,7.81E-04
161080,7.64E-03,7.52E-04
161081,8.06E-03,2.62E-03
161082,8.06E-03,2.59E-03
161083,8.06E-03,2.56E-03
161084,8.06E-03,2.53E-03
161085,8.06E-03,2.50E-03
161086,8.06E-03,2.47E-03
161087,8.06E-03,2.44E-03
161088,8.06E-03,2.41E-03
161089,8.06E-03,2.38E-03
161090,8.06E-03,2.34E-03
161091,8.06E-03,2.31E-03
161092,8.06E-03,2.28E-03
161093,8.06E-03,2.25E-03
161094,8.06E-03,2.22E-03
161095,8.06E-03,2.18E-03
161096,8.06E-03,2.15E-03
161097,8.06E-03,2.12E-03
161098,8.06E-03,2.08E-03
161099,8.06E-03,2.05E-03
161100,8.06E-03,2.02E-03
161101,8.06E-03,1.98E-03
161102,8.06E-03,1.95E-03
161103,8.06E-03,1.92E-03
161104,8.06E-03,1.88E-03
161105,8.06E-03,1.85E-03
161106,8.06E-03,1.81E-03
161107,8.06E-03,1.78E-03
161108,8.06E-03,1.74E-03
161109,8.06E-03,1.70E-03
161110,8.06E-03,1.67E-03
161111,8.06E-03,1.63E-03
161112,8.06E-03,1.60E-03
161113,8.06E-03,1.56E-03
161114,8.06E-03,1.52E-03
161115,8.06E-03,1.49E-03
161116,8.06E-03,1.45E-03
161117,8.06E-03,1.41E-03
161118,8.06E-03,1.38E-03
161119,8.06E-03,1.34E-03
161120,8.06E-03,1.30E-03
161121,8.06E-03,1.27E-03
161122,8.06E-03,1.23E-03
161123,8.06E-03,1.20E-03
161124,8.06E-03,1.16E-03
161125,8.06E-03,1.12E-03
161126,8.06E-03,1.09E-03
161127,8.06E-03,1.05E-03
161128,8.06E-03,1.02E-03
161129,8.06E-03,9.85E-04
161130,8.06E-03,9.52E-04
161131,8.06E-03,9.18E-04
161132,8.06E-03,8.86E-04
161133,8.06E-03,8.54E-04
161134,8.06E-03,8.22E-04
161135,8.06E-03,7.91E-04
161136,8.06E-03,7.61E-04
161137,8.06E-03,7.31E-04
161138,8.06E-03,7.02E-04
161139,8.06E-03,6.73E-04
161140,8.06E-03,6.46E-04
161141,8.06E-03,6.19E-04
161142,8.06E-03,5.92E-04
161143,8.06E-03,5.66E-04
161144,8.06E-03,5.41E-04
161145,8.06E-03,5.16E-04
161146,8.06E-03,4.93E-04
161147,8.06E-03,4.70E-04
161148,8.06E-03,4.47E-04
161149,8.06E-03,4.26E-04
161150,8.06E-03,4.05E-04
161151,8.06E-03,3.85E-04
161152,8.06E-03,3.66E-04
161153,8.06E-03,3.48E-04
161154,8.06E-03,3.30E-04
161155,8.02E-03,3.13E-04
161156,8.01E-03,2.98E-04
161157,7.95E-03,2.84E-04
161158,7.86E-03,2.71E-04
161159,7.98E-03,2.61E-04
161160,8.22E-03,2.55E-04
161161,8.46E-03,2.53E-04
161162,7.98E-03,2.50E-04
161163,6.89E-03,2.47E-04
161164,6.52E-03,2.56E-04
161165,7.18E-03,2.69E-04
161166,6.02E-03,5.12E-03
161167,7.44E-03,5.20E-03
161168,8.40E-03,2.63E-03
161169,8.18E-03,2.60E-03
161170,8.06E-03,2.57E-03
161171,8.06E-03,2.54E-03
161172,8.06E-03,2.51E-03
161173,8.06E-03,2.48E-03
161174,8.06E-03,2.45E-03
161175,8.06E-03,2.42E-03
161176,8.06E-03,2.38E-03
161177,8.06E-03,2.35E-03
161178,8.06E-03,3.00E-04
161179,8.06E-03,2.83E-04
161180,8.06E-03,2.68E-04
161181,8.06E-03,2.55E-04
161182,8.06E-03,2.44E-04
161183,8.15E-03,2.35E-04
161184,8.22E-03,2.29E-04
161185,8.29E-03,2.28E-04
161186,8.14E-03,2.31E-04
161187,7.88E-03,2.37E-04
161188,7.14E-03,2.46E-04
161189,8.06E-03,1.35E-03
161190,8.06E-03,1.32E-03
161191,8.06E-03,1.28E-03
161192,8.06E-03,1.24E-03
161193,8.06E-03,1.21E-03
161194,8.06E-03,1.17E-03
161195,8.06E-03,1.14E-03
161196,8.06E-03,1.10E-03
161197,8.06E-03,2.32E-03
161198,8.06E-03,2.29E-03
161199,8.06E-03,2.26E-03
161200,8.06E-03,2.23E-03
161201,8.06E-03,2.20E-03
161202,8.06E-03,2.16E-03
161203,8.06E-03,2.13E-03
161204,8.06E-03,2.10E-03
161205,8.06E-03,2.07E-03
161206,8.06E-03,2.03E-03
161207,8.06E-03,2.00E-03
161208,8.06E-03,1.96E-03
161209,8.06E-03,1.93E-03
161210,8.06E-03,1.90E-03
161211,8.06E-03,1.86E-03
161212,8.06E-03,1.83E-03
161213,8.06E-03,1.79E-03
161214,8.06E-03,1.75E-03
161215,8.06E-03,1.72E-03
161216,8.06E-03,1.68E-03
161217,8.06E-03,1.65E-03
161218,8.06E-03,1.61E-03
161219,8.06E-03,1.57E-03
161220,8.06E-03,1.54E-03
161221,8.06E-03,1.50E-03
161222,8.06E-03,1.46E-03
161223,8.06E-03,1.43E-03
161224,8.06E-03,1.39E-03
161225,8.06E-03,1.07E-03
161226,8.06E-03,1.03E-03
161227,8.06E-03,9.98E-04
161228,8.06E-03,9.64E-04
161229,8.06E-03,9.31E-04
161230,8.06E-03,8.98E-04
161231,8.06E-03,8.66E-04
161232,8.06E-03,8.35E-04
161233,8.06E-03,8.04E-04
161234,8.06E-03,7.74E-04
161235,8.06E-03,7.45E-04
161236,8.06E-03,7.16E-04
161237,8.06E-03,6.88E-04
161238,8.06E-03,6.60E-04
161239,8.06E-03,6.33E-04
161240,8.06E-03,6.07E-04
161241,8.06E-03,5.81E-04
161242,8.06E-03,5.56E-04
161243,8.06E-03,5.31E-04
161244,8.06E-03,5.07E-04
161245,8.06E-03,4.84E-04
161246,8.06E-03,4.61E-04
161247,8.06E-03,4.39E-04
161248,8.06E-03,4.17E-04
161249,8.06E-03,3.96E-04
161250,8.06E-03,3.75E-04
161251,8.06E-03,3.55E-04
161252,8.06E-03,3.36E-04
161253,8.06E-03,3.17E-04
161254,7.90E-03,2.47E-04
161255,8.16E-03,2.34E-04
161256,7.33E-03,9.83E-05
161257,7.32E-03,9.59E-05
161258,8.19E-03,2.20E-04
161259,8.14E-03,2.05E-04
161260,8.00E-03,1.90E-04
161261,7.42E-03,9.48E-05
161262,7.75E-03,1.75E-04
161263,7.70E-03,1.58E-04
161264,7.31E-03,9.69E-05
161265,7.41E-03,9.55E-05
161266,7.65E-03,1.41E-04
161267,7.79E-03,2.71E-04
161268,7.72E-03,2.47E-04
161269,7.67E-03,2.21E-04
161270,7.44E-03,9.34E-05
161271,7.59E-03,1.22E-04
161272,7.58E-03,1.95E-04
161273,7.50E-03,1.69E-04
161274,7.45E-03,1.45E-04
161275,7.84E-03,1.03E-04
161276,7.54E-03,8.86E-05
161277,7.22E-03,9.96E-05
161278,7.23E-03,1.10E-04
161279,7.41E-03,1.25E-04
161280,7.70E-03,9.03E-05
161281,7.57E-03,8.92E-05
161282,7.68E-03,8.98E-05
161283,7.90E-03,1.15E-03
161284,7.91E-03,1.19E-03
161285,7.92E-03,1.25E-03
161286,7.82E-03,1.30E-03
161287,7.88E-03,1.45E-03
161288,7.80E-03,8.35E-04
161289,7.82E-03,8.67E-04
161290,8.09E-03,1.16E-03
161291,7.90E-03,8.96E-04
161292,7.90E-03,9.22E-04
161293,7.90E-03,9.47E-04
161294,7.90E-03,9.71E-04
161295,7.90E-03,9.95E-04
161296,7.95E-03,1.65E-03
161297,7.89E-03,1.02E-03
161298,7.89E-03,1.04E-03
161299,7.93E-03,1.30E-03
161300,7.94E-03,1.36E-03
161301,7.87E-03,1.07E-03
161302,7.88E-03,1.11E-03
161303,7.95E-03,1.43E-03
161304,8.03E-03,1.51E-03
161305,8.13E-03,1.60E-03
161306,8.15E-03,1.70E-03
161307,8.13E-03,1.82E-03
161308,7.84E-03,1.94E-03
161309,7.75E-03,9.37E-05
161310,7.80E-03,1.88E-03
161311,7.85E-03,7.85E-04
161312,7.85E-03,8.94E-04
161313,7.86E-03,7.20E-04
161314,7.85E-03,8.31E-04
161315,7.86E-03,7.19E-04
161316,7.84E-03,6.30E-04
161317,7.87E-03,7.25E-04
161318,7.84E-03,5.24E-04
161319,7.83E-03,4.81E-04
161320,7.88E-03,7.32E-04
161321,7.83E-03,4.54E-04
161322,7.88E-03,7.45E-04
161323,7.82E-03,4.34E-04
161324,7.88E-03,7.67E-04
161325,7.82E-03,4.52E-04
161326,7.83E-03,8.00E-04
161327,7.81E-03,8.62E-04
161328,7.81E-03,4.87E-04
161329,7.74E-03,1.01E-03
161330,7.71E-03,1.23E-03
161331,7.80E-03,4.26E-04
161332,8.00E-03,1.13E-03
161333,7.78E-03,3.80E-04
161334,7.70E-03,3.39E-04
161335,7.69E-03,3.01E-04
161336,7.40E-03,4.79E-03
161337,7.46E-03,4.90E-03
161338,7.47E-03,4.99E-03
161339,7.54E-03,5.05E-03
161340,7.60E-03,5.10E-03
161341,7.64E-03,5.12E-03
161342,7.73E-03,5.14E-03
161343,7.83E-03,5.15E-03
161344,7.83E-03,5.16E-03
161345,7.83E-03,5.17E-03
161346,7.83E-03,5.18E-03
161347,7.79E-03,5.18E-03
161348,7.85E-03,5.19E-03
161349,8.29E-03,5.19E-03
161350,7.61E-03,7.25E-04
161351,7.60E-03,8.83E-04
161352,7.56E-03,8.54E-04
161353,7.61E-03,8.43E-04
161354,7.58E-03,8.35E-04
161355,7.59E-03,8.29E-04
161356,7.72E-03,8.22E-04
161357,8.32E-03,5.15E-03
161358,7.37E-03,5.19E-03
161359,5.72E-03,5.21E-03
161360,7.96E-03,5.12E-03
161361,8.05E-03,5.07E-03
161362,8.05E-03,5.01E-03
161363,8.05E-03,4.99E-03
161364,8.05E-03,4.95E-03
161365,8.05E-03,4.91E-03
161366,8.05E-03,4.88E-03
161367,8.05E-03,4.84E-03
161368,8.05E-03,4.81E-03
161369,8.05E-03,4.78E-03
161370,8.05E-03,4.74E-03
161371,8.05E-03,4.71E-03
161372,8.05E-03,4.67E-03
161373,8.05E-03,4.63E-03
161374,8.05E-03,4.60E-03
161375,8.05E-03,4.56E-03
161376,8.05E-03,4.53E-03
161377,8.05E-03,4.49E-03
161378,8.05E-03,4.45E-03
161379,8.05E-03,4.42E-03
161380,8.05E-03,4.38E-03
161381,8.05E-03,4.34E-03
161382,8.05E-03,4.30E-03
161383,8.05E-03,4.26E-03
161384,8.05E-03,4.22E-03
161385,8.05E-03,4.18E-03
161386,8.05E-03,4.14E-03
161387,8.05E-03,4.10E-03
161388,8.05E-03,4.06E-03
161389,8.05E-03,4.02E-03
161390,8.05E-03,3.98E-03
161391,8.04E-03,3.94E-03
161392,8.04E-03,3.90E-03
161393,8.04E-03,3.85E-03
161394,8.04E-03,3.81E-03
161395,8.04E-03,3.77E-03
161396,8.04E-03,3.73E-03
161397,8.04E-03,3.69E-03
161398,8.04E-03,3.65E-03
161399,8.04E-03,3.61E-03
161400,8.04E-03,3.56E-03
161401,8.04E-03,3.52E-03
161402,8.04E-03,3.48E-03
161403,8.04E-03,3.44E-03
161404,8.04E-03,3.40E-03
161405,8.04E-03,3.36E-03
161406,8.04E-03,3.32E-03
161407,8.04E-03,3.29E-03
161408,8.04E-03,3.25E-03
161409,8.04E-03,3.21E-03
161410,8.03E-03,3.17E-03
161411,8.03E-03,3.14E-03
161412,8.03E-03,3.10E-03
161413,8.03E-03,3.07E-03
161414,8.03E-03,3.03E-03
161415,8.03E-03,3.00E-03
161416,8.03E-03,2.96E-03
161417,8.03E-03,2.93E-03
161418,8.03E-03,2.90E-03
161419,8.03E-03,2.87E-03
161420,8.02E-03,2.84E-03
161421,8.02E-03,2.81E-03
161422,8.02E-03,2.78E-03
161423,8.02E-03,2.75E-03
161424,8.02E-03,2.72E-03
161425,8.01E-03,2.69E-03
161426,8.01E-03,2.67E-03
161427,8.01E-03,2.64E-03
161428,8.00E-03,2.61E-03
161429,7.99E-03,2.59E-03
161430,7.98E-03,2.56E-03
161431,7.98E-03,2.54E-03
161432,7.99E-03,2.51E-03
161433,7.99E-03,2.49E-03
161434,8.00E-03,2.46E-03
161435,8.01E-03,2.44E-03
161436,8.01E-03,2.41E-03
161437,8.02E-03,2.39E-03
161438,8.03E-03,2.36E-03
161439,8.05E-03,2.34E-03
161440,8.07E-03,2.31E-03
161441,8.10E-03,2.28E-03
161442,8.12E-03,2.25E-03
161443,8.15E-03,2.23E-03
161444,8.18E-03,2.20E-03
161445,8.19E-03,2.17E-03
161446,8.20E-03,2.14E-03
161447,8.19E-03,2.11E-03
161448,8.19E-03,2.07E-03
161449,8.18E-03,2.04E-03
161450,8.17E-03,2.01E-03
161451,8.16E-03,1.97E-03
161452,8.14E-03,1.94E-03
161453,8.13E-03,1.90E-03
161454,8.12E-03,1.87E-03
161455,8.12E-03,1.83E-03
161456,8.11E-03,1.79E-03
161457,8.10E-03,1.75E-03
161458,8.10E-03,1.70E-03
161459,8.09E-03,1.66E-03
161460,8.09E-03,1.61E-03
161461,8.08E-03,1.56E-03
161462,8.08E-03,1.51E-03
161463,8.08E-03,1.46E-03
161464,8.08E-03,1.40E-03
161465,8.07E-03,1.35E-03
161466,8.07E-03,1.29E-03
161467,8.07E-03,1.23E-03
161468,8.07E-03,1.17E-03
161469,8.07E-03,1.11E-03
161470,8.07E-03,1.04E-03
161471,8.07E-03,9.80E-04
161472,8.00E-03,9.20E-04
161473,7.95E-03,8.62E-04
161474,7.86E-03,8.10E-04
161475,7.78E-03,7.63E-04
161476,7.73E-03,7.13E-04
161477,7.64E-03,6.41E-04
161478,8.06E-03,2.63E-03
161479,8.06E-03,2.60E-03
161480,8.06E-03,2.57E-03
161481,8.06E-03,2.53E-03
161482,8.06E-03,2.50E-03
161483,8.06E-03,2.47E-03
161484,8.06E-03,2.44E-03
161485,8.06E-03,2.41E-03
161486,8.06E-03,2.38E-03
161487,8.06E-03,2.35E-03
161488,8.06E-03,2.32E-03
161489,8.06E-03,2.29E-03
161490,8.06E-03,2.25E-03
161491,8.06E-03,2.22E-03
161492,8.06E-03,2.19E-03
161493,8.06E-03,2.16E-03
161494,8.06E-03,2.12E-03
161495,8.06E-03,2.09E-03
161496,8.06E-03,2.06E-03
161497,8.06E-03,2.03E-03
161498,8.06E-03,1.99E-03
161499,8.06E-03,1.96E-03
161500,8.06E-03,1.92E-03
161501,8.06E-03,1.89E-03
161502,8.06E-03,1.85E-03
161503,8.06E-03,1.82E-03
161504,8.06E-03,1.78E-03
161505,8.06E-03,1.75E-03
161506,8.06E-03,1.71E-03
161507,8.06E-03,1.68E-03
161508,8.06E-03,1.64E-03
161509,8.06E-03,1.60E-03
161510,8.06E-03,1.57E-03
161511,8.06E-03,1.53E-03
161512,8.06E-03,1.49E-03
161513,8.06E-03,1.46E-03
161514,8.06E-03,1.42E-03
161515,8.06E-03,1.38E-03
161516,8.06E-03,1.35E-03
161517,8.06E-03,1.31E-03
161518,8.06E-03,1.27E-03
161519,8.06E-03,1.24E-03
161520,8.06E-03,1.20E-03
161521,8.06E-03,1.17E-03
161522,8.06E-03,1.13E-03
161523,8.06E-03,1.10E-03
161524,8.06E-03,1.06E-03
161525,8.06E-03,1.03E-03
161526,8.06E-03,9.92E-04
161527,8.06E-03,9.58E-04
161528,8.06E-03,9.25E-04
161529,8.06E-03,8.92E-04
161530,8.06E-03,8.60E-04
161531,8.06E-03,8.29E-04
161532,8.06E-03,7.98E-04
161533,8.06E-03,7.68E-04
161534,8.06E-03,7.38E-04
161535,8.06E-03,7.09E-04
161536,8.06E-03,6.81E-04
161537,8.06E-03,6.53E-04
161538,8.06E-03,6.26E-04
161539,8.06E-03,5.99E-04
161540,8.06E-03,5.74E-04
161541,8.06E-03,5.48E-04
161542,8.06E-03,5.24E-04
161543,8.06E-03,5.00E-04
161544,8.06E-03,4.76E-04
161545,8.06E-03,4.54E-04
161546,8.06E-03,4.32E-04
161547,8.06E-03,4.11E-04
161548,8.06E-03,3.90E-04
161549,8.06E-03,3.70E-04
161550,8.06E-03,3.51E-04
161551,8.06E-03,3.32E-04
161552,8.06E-03,3.14E-04
161553,8.06E-03,2.98E-04
161554,8.06E-03,2.82E-04
161555,8.06E-03,2.69E-04
161556,8.06E-03,2.57E-04
161557,8.16E-03,2.49E-04
161558,8.10E-03,2.43E-04
161559,7.71E-03,2.38E-04
161560,7.35E-03,2.38E-04
161561,7.27E-03,2.44E-04
161562,8.17E-03,2.53E-04
161563,6.24E-03,2.56E-04
161564,4.53E-03,2.61E-04
161565,6.19E-03,2.69E-04
161566,8.18E-03,2.86E-04
161567,7.67E-03,2.90E-04
161568,7.81E-03,3.00E-04
161569,8.02E-03,3.08E-04
161570,8.11E-03,3.15E-04
161571,7.88E-03,3.24E-04
161572,7.83E-03,3.28E-04
161573,7.69E-03,3.32E-04
161574,7.73E-03,3.35E-04
161575,7.84E-03,3.37E-04
161576,7.94E-03,3.38E-04
161577,7.93E-03,3.37E-04
161578,7.83E-03,3.35E-04
161579,7.81E-03,3.30E-04
161580,7.69E-03,3.23E-04
161581,7.67E-03,3.14E-04
161582,8.07E-03,3.15E-04
161583,8.10E-03,3.50E-04
161584,7.81E-03,4.13E-04
161585,7.90E-03,4.76E-04
161586,8.36E-03,5.29E-04
161587,8.25E-03,5.53E-04
161588,8.20E-03,5.55E-04
161589,8.20E-03,5.48E-04
161590,8.06E-03,5.33E-04
161591,7.90E-03,5.19E-04
161592,7.90E-03,5.11E-04
161593,7.86E-03,5.12E-04
161594,7.77E-03,5.32E-04
161595,8.11E-03,5.83E-04
161596,8.29E-03,6.25E-04
161597,8.24E-03,6.31E-04
161598,8.18E-03,6.22E-04
161599,8.18E-03,6.07E-04
161600,8.09E-03,5.89E-04
161601,8.06E-03,5.71E-04
161602,8.06E-03,5.56E-04
161603,8.05E-03,5.41E-04
161604,8.05E-03,5.28E-04
161605,8.05E-03,5.14E-04
161606,8.05E-03,5.01E-04
161607,8.05E-03,4.88E-04
161608,8.04E-03,4.73E-04
161609,8.03E-03,4.59E-04
161610,8.01E-03,4.45E-04
161611,7.99E-03,4.31E-04
161612,7.96E-03,4.19E-04
161613,7.89E-03,4.10E-04
161614,7.90E-03,4.04E-04
161615,7.92E-03,4.07E-04
161616,7.96E-03,4.18E-04
161617,7.98E-03,4.30E-04
161618,8.04E-03,4.38E-04
161619,8.04E-03,4.43E-04
161620,8.04E-03,4.45E-04
161621,8.04E-03,4.46E-04
161622,8.04E-03,4.45E-04
161623,8.04E-03,4.42E-04
161624,8.04E-03,4.38E-04
161625,8.04E-03,4.33E-04
161626,8.04E-03,4.27E-04
161627,8.04E-03,4.21E-04
161628,7.98E-03,4.13E-04
161629,7.93E-03,4.05E-04
161630,7.82E-03,3.94E-04
161631,7.73E-03,3.78E-04
161632,8.13E-03,3.58E-04
161633,8.17E-03,3.89E-04
161634,7.71E-03,3.66E-04
161635,7.79E-03,3.29E-04
161636,7.90E-03,3.30E-04
161637,7.99E-03,3.33E-04
161638,8.06E-03,3.55E-04
161639,8.06E-03,3.74E-04
161640,8.06E-03,3.94E-04
161641,8.06E-03,4.08E-04
161642,8.06E-03,4.16E-04
161643,8.05E-03,4.19E-04
161644,8.05E-03,4.20E-04
161645,8.05E-03,4.22E-04
161646,8.05E-03,4.26E-04
161647,8.05E-03,4.33E-04
161648,8.05E-03,4.41E-04
161649,8.05E-03,4.49E-04
161650,8.05E-03,4.57E-04
161651,8.05E-03,4.66E-04
161652,8.05E-03,4.74E-04
161653,7.92E-03,4.80E-04
161654,7.72E-03,4.86E-04
161655,7.37E-03,4.85E-04
161656,6.95E-03,5.17E-04
161657,6.76E-03,5.38E-04
161658,7.54E-03,5.80E-04
161659,8.03E-03,6.48E-04
161660,7.66E-03,7.32E-04
161661,7.91E-03,8.24E-04
161662,8.03E-03,9.29E-04
161663,8.23E-03,1.05E-03
161664,8.14E-03,1.18E-03
161665,7.71E-03,1.27E-03
161666,7.38E-03,1.20E-03
161667,7.70E-03,1.01E-03
161668,8.03E-03,8.85E-04
161669,8.12E-03,8.86E-04
161670,7.70E-03,1.01E-03
161671,7.86E-03,1.19E-03
161672,8.01E-03,1.40E-03
161673,8.30E-03,1.63E-03
161674,8.07E-03,1.79E-03
161675,7.80E-03,1.73E-03
161676,7.95E-03,1.61E-03
161677,8.09E-03,1.66E-03
161678,8.14E-03,1.77E-03
161679,8.12E-03,1.80E-03
161680,8.13E-03,1.68E-03
161681,8.11E-03,1.52E-03
161682,8.09E-03,1.39E-03
161683,7.95E-03,1.27E-03
161684,7.88E-03,1.16E-03
161685,7.85E-03,1.05E-03
161686,7.45E-03,9.99E-04
161687,8.02E-03,1.05E-03
161688,7.85E-03,1.14E-03
161689,7.82E-03,1.16E-03
161690,7.79E-03,1.06E-03
161691,7.94E-03,9.74E-04
161692,7.71E-03,9.72E-04
161693,7.71E-03,1.01E-03
161694,7.80E-03,1.07E-03
161695,7.92E-03,1.15E-03
161696,7.99E-03,1.23E-03
161697,8.03E-03,1.32E-03
161698,8.03E-03,1.40E-03
161699,8.03E-03,1.47E-03
161700,8.03E-03,1.54E-03
161701,8.03E-03,1.60E-03
161702,8.03E-03,1.66E-03
161703,8.03E-03,1.71E-03
161704,8.03E-03,1.76E-03
161705,8.03E-03,1.80E-03
161706,8.03E-03,1.84E-03
161707,8.03E-03,1.87E-03
161708,8.00E-03,1.90E-03
161709,7.96E-03,1.92E-03
161710,7.96E-03,1.97E-03
161711,7.97E-03,2.02E-03
161712,7.98E-03,2.09E-03
161713,7.99E-03,2.16E-03
161714,7.99E-03,2.25E-03
161715,7.99E-03,2.34E-03
161716,8.00E-03,2.43E-03
161717,8.00E-03,2.54E-03
161718,8.01E-03,2.66E-03
161719,8.02E-03,2.78E-03
161720,8.03E-03,2.91E-03
161721,8.03E-03,3.04E-03
161722,8.03E-03,3.18E-03
161723,8.03E-03,3.33E-03
161724,8.04E-03,3.48E-03
161725,8.05E-03,3.65E-03
161726,8.06E-03,3.83E-03
161727,8.08E-03,4.01E-03
161728,8.10E-03,4.20E-03
161729,8.14E-03,4.37E-03
161730,8.16E-03,4.49E-03
161731,8.10E-03,4.53E-03
161732,8.04E-03,4.56E-03
161733,7.92E-03,4.60E-03
161734,7.84E-03,4.67E-03
161735,7.72E-03,4.77E-03
161736,7.98E-03,4.75E-03
161737,7.42E-03,5.45E-03
161738,6.97E-03,4.65E-03
161739,7.06E-03,4.24E-03
161740,7.13E-03,4.17E-03
161741,7.25E-03,4.24E-03
161742,7.30E-03,4.34E-03
161743,7.30E-03,4.43E-03
161744,7.37E-03,4.54E-03
161745,7.27E-03,4.64E-03
161749,9.67E-03,2.94E-04
161750,9.38E-03,2.96E-04
161751,9.14E-03,3.68E-04
161752,9.41E-03,3.73E-04
161753,9.29E-03,3.81E-04
161754,8.99E-03,3.92E-04
161755,8.55E-03,4.01E-04
161756,8.01E-03,4.07E-04
161757,7.93E-03,4.09E-04
161758,7.29E-03,4.12E-04
161759,6.48E-03,4.10E-04
161760,8.56E-03,3.70E-04
161761,7.84E-03,3.79E-04
161762,7.07E-03,3.92E-04
161763,7.08E-03,3.73E-04
161764,7.90E-03,3.41E-04
161765,8.67E-03,3.14E-04
161766,6.33E-03,4.06E-04
161767,6.24E-03,4.08E-04
161768,6.01E-03,4.14E-04
161769,5.74E-03,4.31E-04
161770,5.78E-03,4.01E-04
161771,5.52E-03,4.06E-04
161772,6.03E-03,3.40E-04
161773,6.05E-03,3.67E-04
161774,5.89E-03,3.34E-04
161775,5.34E-03,3.09E-04
161776,4.89E-03,3.09E-04
161777,8.60E-03,2.84E-04
161778,8.74E-03,2.74E-04
161779,9.33E-03,3.10E-04
161780,8.94E-03,3.31E-04
161781,8.50E-03,3.43E-04
161782,7.94E-03,3.47E-04
161783,7.88E-03,3.44E-04
161784,7.43E-03,3.40E-04
161785,8.01E-03,3.77E-04
161786,5.91E-03,3.54E-04
161787,7.22E-03,2.55E-04
161788,6.75E-03,2.80E-04
161789,8.90E-03,4.11E-04
161790,5.51E-03,4.60E-04
1,4.32E-03,4.94E-03
49,2.62E-03,6.94E-04
50,2.59E-03,6.99E-04
51,4.52E-03,7.68E-03
52,2.43E-03,2.61E-03
53,2.17E-03,3.59E-03
582,2.33E-03,4.13E-04
583,2.24E-03,3.37E-04
584,2.24E-03,3.75E-04
625,2.47E-03,1.13E-03
626,2.76E-03,1.23E-03
657,2.22E-03,1.08E-02
658,2.41E-03,6.50E-02
659,3.57E-03,1.11E-02
660,3.34E-03,7.72E-02
661,2.23E-03,7.00E-02
662,3.73E-03,6.81E-02
663,2.31E-03,5.48E-02
664,3.95E-03,6.54E-02
665,4.75E-03,1.14E-02
666,2.24E-03,0.14337
667,2.99E-03,6.12E-02
668,2.07E-03,7.69E-02
669,3.03E-03,0.12738
670,2.58E-03,0.14102
671,5.19E-03,2.10E-02
672,5.03E-03,9.94E-02
673,1.50E-03,2.88E-02
674,3.73E-03,8.98E-02
675,4.55E-03,3.01E-02
676,4.18E-03,0.11045
677,4.19E-03,3.28E-02
678,1.98E-03,3.35E-02
679,2.61E-03,7.51E-02
680,2.59E-03,3.25E-02
681,5.26E-03,2.61E-02
682,2.68E-03,7.13E-02
683,3.42E-03,5.91E-02
684,4.38E-03,5.47E-02
685,2.57E-03,5.65E-02
686,2.47E-03,5.45E-02
687,4.21E-03,4.72E-02
688,3.70E-03,8.35E-03
689,2.89E-03,4.82E-02
690,2.31E-03,2.75E-02
691,4.43E-03,0.11157
6759,2.66E-03,1.30E-02
6760,2.72E-03,1.76E-02
6761,3.95E-03,1.73E-02
7050,2.93E-03,4.71E-02
7051,3.62E-03,4.95E-02
7292,3.10E-03,1.07E-02
7293,3.12E-03,1.08E-02
7294,4.28E-03,1.24E-02
7295,4.41E-03,1.28E-02
8739,2.04E-03,2.42E-02
8740,2.72E-03,3.53E-02
8741,2.93E-03,4.54E-03
8742,2.91E-03,5.49E-03
8743,2.58E-03,2.34E-02
8744,4.27E-03,1.65E-02
8745,1.90E-03,1.87E-02
8746,2.37E-03,7.83E-03
8747,3.12E-03,2.27E-02
8748,1.60E-03,1.12E-02
8749,2.69E-03,8.22E-03
8750,1.32E-03,1.84E-02
8751,1.80E-03,1.91E-02
8752,3.59E-03,1.22E-02
8753,1.99E-03,8.41E-03
8754,1.03E-03,4.35E-03
8755,1.61E-03,1.83E-02
8756,4.30E-03,1.17E-02
8757,1.35E-03,3.74E-03
8758,8.70E-04,1.87E-02
8759,4.82E-03,2.69E-02
8760,1.47E-03,1.10E-02
8761,3.21E-03,3.34E-02
8762,3.00E-03,1.05E-02
8763,1.10E-03,4.05E-03
8764,1.59E-03,1.23E-02
8765,3.29E-03,2.93E-02
8766,1.23E-03,2.25E-02
8767,5.37E-03,1.24E-02
8768,3.49E-03,1.13E-02
8769,4.36E-03,8.25E-03
8770,1.03E-03,2.25E-02
8771,2.29E-03,1.02E-02
8772,2.01E-03,1.89E-02
8773,1.94E-03,5.00E-03
8774,2.71E-03,1.27E-02
8775,3.54E-03,1.12E-02
8776,4.80E-03,1.10E-02
8777,4.19E-03,3.06E-02
8778,2.00E-03,1.19E-02
8779,4.46E-03,9.06E-03
8780,3.07E-03,9.72E-03
8781,3.01E-03,1.15E-02
8782,2.83E-03,1.21E-02
8783,2.96E-03,8.02E-03
8784,3.18E-03,7.63E-03
8785,6.18E-03,1.54E-02
8786,3.45E-03,1.05E-02
8787,4.02E-03,1.19E-02
8788,1.44E-03,2.33E-02
8789,3.27E-03,8.14E-03
8790,3.67E-03,1.66E-02
8791,4.52E-03,9.08E-03
8792,1.86E-03,2.29E-02
8793,2.49E-03,6.63E-03
8794,2.31E-03,1.65E-02
8795,4.62E-03,1.50E-02
8796,5.40E-03,2.50E-02
8797,3.64E-03,1.03E-02
8798,2.53E-03,7.73E-03
8799,2.85E-03,9.65E-03
8800,2.34E-03,8.58E-03
8801,2.73E-03,6.16E-03
8802,3.12E-03,1.47E-02
8803,1.88E-03,1.50E-02
8804,5.60E-03,5.79E-03
8805,3.72E-03,2.50E-02
8806,3.01E-03,7.43E-03
8807,3.18E-03,1.20E-02
8808,2.55E-03,8.46E-03
8809,2.92E-03,1.44E-02
8810,9.29E-04,1.12E-02
8811,4.33E-03,1.60E-02
8812,4.82E-03,1.05E-02
8813,1.68E-03,1.95E-02
8814,2.32E-03,1.27E-02
8815,3.33E-03,7.92E-03
8816,3.04E-03,7.04E-03
8817,3.98E-03,5.63E-03
8818,3.51E-03,1.17E-02
8819,2.35E-03,1.01E-02
8820,4.68E-03,1.29E-02
8821,2.58E-03,5.18E-03
8822,3.14E-03,7.40E-03
8823,2.51E-03,2.02E-02
8824,4.23E-03,2.22E-02
8825,2.11E-03,1.67E-02
8826,3.89E-03,5.36E-03
8827,2.99E-03,1.30E-02
8828,3.87E-03,2.14E-02
8829,2.34E-03,5.83E-03
8830,3.27E-03,1.34E-02
8831,1.90E-03,5.95E-03
8832,3.04E-03,5.65E-03
8833,4.81E-03,1.40E-02
8834,2.44E-03,6.04E-03
8835,1.80E-03,7.71E-03
8836,3.50E-03,1.21E-02
8837,3.40E-03,2.05E-02
8838,3.87E-03,1.59E-02
8839,2.00E-03,1.31E-02
8840,4.34E-03,1.30E-02
8841,2.29E-03,1.49E-02
8842,2.60E-03,7.55E-03
8843,2.87E-03,1.75E-02
8844,3.86E-03,1.85E-02
8845,2.98E-03,1.34E-02
8846,3.65E-03,1.63E-02
8847,2.59E-03,8.29E-03
8848,3.50E-03,1.47E-02
8849,3.89E-03,1.46E-02
8850,2.74E-03,1.45E-02
8851,2.27E-03,8.83E-03
8852,3.51E-03,9.75E-03
8853,4.12E-03,1.89E-02
8854,3.50E-03,1.41E-02
8855,5.44E-03,1.87E-02
8856,2.02E-03,1.34E-02
8857,3.92E-03,1.12E-02
8858,4.91E-03,1.93E-02
8859,5.11E-03,1.29E-02
8860,2.51E-03,1.26E-02
8861,4.32E-03,1.14E-02
8862,3.61E-03,1.11E-02
8863,4.05E-03,1.41E-02
8864,3.72E-03,1.90E-02
8865,2.74E-03,1.11E-02
8866,3.06E-03,1.90E-02
8867,2.09E-03,1.90E-02
8868,3.65E-03,1.87E-02
8869,2.52E-03,1.02E-02
8870,3.92E-03,1.87E-02
8871,2.59E-03,1.44E-02
8872,3.60E-03,1.76E-02
8873,2.89E-03,1.69E-02
8874,4.65E-03,1.79E-02
8875,1.90E-03,1.45E-02
8876,2.87E-03,1.49E-02
8877,2.98E-03,1.48E-02
8878,4.06E-03,1.61E-02
8879,2.43E-03,1.52E-02
8880,3.78E-03,1.55E-02
8881,2.88E-03,1.32E-02
8882,4.21E-03,1.38E-02
8883,3.51E-03,1.60E-02
8884,4.79E-03,1.83E-02
8885,5.72E-03,1.22E-02
8886,5.36E-03,1.33E-02
75529,3.52E-03,5.76E-04
75530,3.35E-03,7.49E-04
75531,4.31E-03,1.55E-03
75532,4.04E-03,3.11E-03
75533,1.24E-03,6.97E-03
75534,3.96E-03,4.68E-03
75535,5.61E-03,4.93E-03
75536,1.98E-03,7.01E-03
75537,3.46E-03,6.35E-03
79644,2.30E-03,1.84E-02
79645,2.33E-03,4.79E-04
79646,3.28E-03,1.42E-02
79647,2.80E-03,2.57E-02
79648,2.25E-03,6.70E-04
79649,4.08E-03,6.38E-03
79650,2.42E-03,8.14E-04
79651,2.81E-03,4.68E-03
79652,3.75E-03,4.57E-03
79653,2.67E-03,4.52E-03
79654,3.39E-03,3.32E-03
79655,3.04E-03,1.17E-03
79656,3.66E-03,2.61E-03
79657,4.02E-03,3.04E-02
79658,2.22E-03,3.19E-04
79659,1.96E-03,9.91E-04
79660,3.88E-03,2.29E-03
79661,3.62E-03,3.12E-04
79662,1.05E-03,9.61E-04
79663,2.55E-03,1.05E-03
79664,4.08E-03,1.22E-03
79665,2.03E-03,1.30E-03
79666,1.66E-03,2.31E-04
79667,2.26E-03,2.96E-04
79668,1.84E-03,2.62E-02
79669,2.13E-03,2.61E-02
79670,2.53E-03,1.43E-04
79671,2.55E-03,6.98E-02
79672,3.95E-03,2.18E-02
79673,3.62E-03,2.17E-02
79674,3.68E-03,8.00E-02
79675,2.81E-03,2.50E-02
79676,4.31E-03,1.95E-02
79677,1.76E-03,1.10E-03
79678,1.65E-03,1.44E-03
79679,3.61E-03,2.50E-02
79680,2.77E-03,6.23E-03
79681,3.44E-03,2.61E-02
79682,2.77E-03,6.59E-03
79683,3.43E-03,1.30E-02
79684,2.78E-03,2.70E-02
79685,4.76E-03,2.46E-02
79686,2.18E-03,1.95E-02
79687,3.85E-03,1.39E-02
79688,1.85E-03,4.53E-02
79689,3.74E-03,6.36E-03
79690,3.23E-03,6.93E-03
79691,2.83E-03,1.48E-02
79692,3.60E-03,5.63E-03
79693,4.86E-03,1.25E-02
79694,2.85E-03,8.47E-03
79695,4.95E-03,2.00E-02
79696,3.39E-03,9.13E-03
79697,3.04E-03,1.94E-02
79698,3.26E-03,7.54E-03
79699,3.10E-03,7.59E-03
79700,2.51E-03,4.95E-03
79701,4.53E-03,6.77E-03
79702,2.26E-03,6.80E-03
79703,2.94E-03,4.52E-03
79704,3.46E-03,1.05E-02
79705,2.46E-03,7.09E-03
79706,3.50E-03,8.02E-03
79707,4.30E-03,7.28E-03
79708,3.57E-03,7.51E-03
79709,2.79E-03,4.83E-03
79710,4.19E-03,1.96E-02
79711,4.01E-03,1.70E-02
79712,2.86E-03,1.95E-02
79713,2.76E-03,1.99E-02
79714,2.22E-03,1.39E-02
79715,2.52E-03,1.90E-02
79716,4.59E-03,1.53E-02
79717,2.62E-03,8.00E-03
79718,3.30E-03,1.42E-02
79719,3.64E-03,8.59E-03
79720,3.06E-03,1.80E-02
79721,1.70E-03,8.72E-03
79722,3.93E-03,1.25E-02
79723,2.48E-03,1.56E-02
79724,1.53E-03,1.63E-02
79725,3.11E-03,2.34E-02
79726,4.37E-03,1.80E-02
79727,2.69E-03,9.00E-03
79728,3.05E-03,1.70E-02
79729,4.61E-03,7.55E-03
79730,3.76E-03,9.06E-03
79731,2.78E-03,2.27E-02
79732,4.74E-03,2.04E-02
79733,4.65E-03,9.16E-03
79734,2.10E-03,7.55E-03
79735,1.59E-03,1.99E-02
79736,2.56E-03,1.97E-02
79737,3.36E-03,9.52E-03
79738,3.87E-03,8.64E-03
79739,2.94E-03,2.00E-02
79740,3.14E-03,9.12E-03
79741,3.15E-03,1.64E-02
79742,1.91E-03,1.88E-02
79743,3.59E-03,1.17E-02
79744,5.94E-03,9.92E-03
79745,2.80E-03,9.92E-03
79746,1.59E-03,1.77E-02
79747,2.81E-03,1.04E-02
79748,3.47E-03,1.29E-02
79749,1.16E-03,1.09E-02
79750,4.09E-03,1.06E-02
79751,1.74E-03,1.06E-02
79752,5.71E-03,1.53E-02
79753,3.36E-03,1.50E-02
79754,1.79E-03,1.09E-02
79755,2.84E-03,1.11E-02
79756,2.49E-03,1.08E-02
79757,2.63E-03,1.59E-02
79758,2.10E-03,1.17E-02
79759,4.30E-03,1.28E-02
79760,3.14E-03,1.32E-02
79761,2.31E-03,1.31E-02
79762,2.69E-03,1.32E-02
79763,4.56E-03,1.16E-02
79764,3.57E-03,1.17E-02
79765,3.55E-03,1.55E-02
79766,2.65E-03,1.39E-02
79767,3.92E-03,1.31E-02
79768,2.83E-03,1.12E-02
79769,3.41E-03,1.33E-02
79770,2.99E-03,1.38E-02
79771,2.97E-03,1.27E-02
79772,3.79E-03,1.45E-02
79773,3.20E-03,1.38E-02
79774,3.49E-03,1.34E-02
79775,1.78E-03,1.33E-02
79776,3.78E-03,1.44E-02
79777,3.80E-03,1.33E-02
79778,3.81E-03,1.28E-02
79779,3.13E-03,1.31E-02
79780,4.05E-03,1.41E-02
79781,3.06E-03,1.25E-02
79782,3.33E-03,1.23E-02
79783,3.96E-03,1.23E-02
79784,2.75E-03,1.31E-02
79785,2.67E-03,1.20E-02
79786,3.49E-03,1.37E-02
79787,3.35E-03,1.29E-02
79788,2.86E-03,1.19E-02
79789,3.23E-03,1.23E-02
79790,5.15E-03,1.21E-02
79791,2.39E-03,4.50E-03
79792,3.17E-03,1.40E-02
79793,5.25E-03,1.54E-02
79794,4.72E-03,1.41E-02
79795,4.62E-03,1.05E-02
79796,3.67E-03,2.26E-02
79797,3.37E-03,1.17E-02
79798,4.51E-03,1.38E-02
79799,4.08E-03,8.37E-03
79800,3.78E-03,1.60E-02
146676,2.11E-03,7.11E-04
146678,3.15E-03,5.40E-03
146679,3.83E-03,5.31E-03
146680,3.84E-03,5.40E-03
146681,3.39E-03,5.48E-03
146750,2.61E-03,2.09E-02
146751,2.45E-03,1.94E-02
146752,3.00E-03,1.71E-02
146852,3.80E-03,5.16E-03
146853,3.46E-03,5.18E-03
146854,3.62E-03,5.01E-03
146855,3.18E-03,4.79E-03
146856,4.31E-03,4.48E-03
146857,3.66E-03,3.86E-03
146858,3.74E-03,3.58E-03
146859,2.74E-03,3.34E-03
146860,3.49E-03,3.19E-03
146861,4.06E-03,2.43E-03
146862,3.88E-03,2.35E-03
146863,3.31E-03,2.11E-03
146864,3.27E-03,1.50E-03
149242,2.05E-03,1.07E-02
149243,2.80E-03,1.28E-02
149244,4.01E-03,1.22E-02
149245,2.72E-03,9.81E-03
149958,2.34E-03,1.82E-02
149959,2.34E-03,1.80E-02
150010,3.00E-03,1.45E-02
150011,3.11E-03,6.12E-03
150012,3.21E-03,9.22E-03
150013,3.45E-03,9.38E-03
150014,3.58E-03,7.06E-03
150015,4.82E-03,1.26E-02
150016,3.50E-03,9.82E-03
150017,3.06E-03,1.08E-02
150018,2.98E-03,1.06E-02
150019,2.38E-03,1.04E-02
151827,2.84E-03,1.07E-02
151828,3.73E-03,1.37E-03
151829,2.79E-03,1.01E-02
151830,2.61E-03,9.60E-03
151831,4.56E-03,3.37E-03
151832,3.91E-03,1.01E-02
152312,1.99E-03,8.01E-04
152313,2.17E-03,6.20E-04
152314,1.81E-03,4.50E-04
152315,2.33E-03,1.01E-03
152328,2.86E-03,2.71E-04
152329,2.71E-03,4.45E-03
152330,5.01E-03,2.78E-04
152331,1.87E-03,1.05E-04
152332,3.03E-03,3.73E-04
152333,2.62E-03,1.15E-03
152334,3.65E-03,3.72E-04
152335,2.80E-03,4.40E-03
152336,2.50E-03,2.18E-04
152337,3.59E-03,4.69E-04
152338,2.62E-03,4.19E-03
152339,3.11E-03,1.58E-03
152340,4.01E-03,6.13E-04
152341,4.84E-03,3.63E-03
152342,4.23E-03,1.62E-03
152343,2.33E-03,1.69E-03
152344,3.67E-03,2.01E-03
152345,3.21E-03,1.71E-03
152346,3.66E-03,2.27E-03
152347,4.84E-03,1.22E-03
152348,2.76E-03,2.70E-03
152349,3.44E-03,2.79E-03
152350,4.11E-03,1.63E-03
152351,4.22E-03,6.60E-04
152352,3.12E-03,8.37E-04
152353,5.15E-03,2.45E-03
152354,4.09E-03,2.43E-03
152355,4.53E-03,1.12E-03
152356,3.25E-03,1.21E-03
161746,1.87E-03,5.52E-04
161747,3.69E-03,3.16E-04
161748,2.52E-03,3.06E-04
