Element Number,Area,Von Mises Stress
7,3.68E-03,2.55E-02
8,3.68E-03,2.55E-02
9,3.68E-03,2.54E-02
10,3.67E-03,2.54E-02
11,3.67E-03,2.54E-02
12,3.67E-03,2.54E-02
13,3.67E-03,2.53E-02
14,3.67E-03,2.53E-02
15,3.67E-03,2.53E-02
16,3.67E-03,2.52E-02
17,3.66E-03,2.52E-02
18,3.66E-03,2.52E-02
19,3.66E-03,2.52E-02
20,3.66E-03,2.51E-02
21,3.66E-03,2.50E-02
22,3.66E-03,2.50E-02
23,3.66E-03,2.49E-02
24,3.65E-03,2.49E-02
25,3.65E-03,2.49E-02
26,3.74E-03,2.53E-02
27,3.74E-03,2.53E-02
28,3.74E-03,2.53E-02
29,3.73E-03,2.53E-02
30,3.73E-03,2.53E-02
31,3.73E-03,2.52E-02
32,3.73E-03,2.52E-02
33,3.73E-03,2.52E-02
34,3.73E-03,2.52E-02
35,3.72E-03,2.51E-02
36,3.72E-03,2.51E-02
37,3.72E-03,2.50E-02
38,3.72E-03,2.50E-02
39,3.72E-03,2.50E-02
40,3.72E-03,2.49E-02
41,3.72E-03,2.49E-02
42,3.71E-03,2.49E-02
43,3.71E-03,2.49E-02
44,3.71E-03,2.49E-02
45,3.80E-03,2.52E-02
46,3.80E-03,2.52E-02
47,3.80E-03,2.52E-02
48,3.79E-03,2.51E-02
49,3.79E-03,2.51E-02
50,3.79E-03,2.51E-02
51,3.79E-03,2.51E-02
52,3.79E-03,2.51E-02
53,3.79E-03,2.50E-02
54,3.78E-03,2.50E-02
55,3.78E-03,2.49E-02
56,3.78E-03,2.49E-02
57,3.78E-03,2.49E-02
58,3.78E-03,2.48E-02
59,3.78E-03,2.48E-02
60,3.78E-03,2.48E-02
61,3.77E-03,2.48E-02
62,3.77E-03,2.48E-02
63,3.77E-03,2.48E-02
64,3.86E-03,2.50E-02
65,3.86E-03,2.50E-02
66,3.86E-03,2.50E-02
67,3.85E-03,2.50E-02
68,3.85E-03,2.50E-02
69,3.85E-03,2.50E-02
70,3.85E-03,2.49E-02
71,3.85E-03,2.49E-02
72,3.85E-03,2.49E-02
73,3.85E-03,2.49E-02
74,3.84E-03,2.48E-02
75,3.84E-03,2.48E-02
76,3.84E-03,2.47E-02
77,3.84E-03,2.47E-02
78,3.84E-03,2.47E-02
79,3.84E-03,2.46E-02
80,3.84E-03,2.46E-02
81,3.83E-03,2.46E-02
82,3.83E-03,2.47E-02
83,3.92E-03,2.49E-02
84,3.92E-03,2.49E-02
85,3.92E-03,2.49E-02
86,3.91E-03,2.49E-02
87,3.91E-03,2.49E-02
88,3.91E-03,2.48E-02
89,3.91E-03,2.48E-02
90,3.91E-03,2.48E-02
91,3.91E-03,2.48E-02
92,3.91E-03,2.47E-02
93,3.90E-03,2.47E-02
94,3.90E-03,2.47E-02
95,3.90E-03,2.46E-02
96,3.90E-03,2.46E-02
97,3.90E-03,2.45E-02
98,3.90E-03,2.45E-02
99,3.90E-03,2.45E-02
100,3.89E-03,2.45E-02
101,3.89E-03,2.45E-02
102,3.98E-03,2.48E-02
103,3.98E-03,2.48E-02
104,3.97E-03,2.47E-02
105,3.97E-03,2.47E-02
106,3.97E-03,2.47E-02
107,3.97E-03,2.47E-02
108,3.97E-03,2.47E-02
109,3.97E-03,2.47E-02
110,3.97E-03,2.46E-02
111,3.97E-03,2.46E-02
112,3.96E-03,2.46E-02
113,3.96E-03,2.45E-02
114,3.96E-03,2.45E-02
115,3.96E-03,2.45E-02
116,3.96E-03,2.44E-02
117,3.96E-03,2.44E-02
118,3.96E-03,2.43E-02
119,3.95E-03,2.43E-02
120,3.95E-03,2.43E-02
121,4.04E-03,2.46E-02
122,4.04E-03,2.46E-02
123,4.03E-03,2.46E-02
124,4.03E-03,2.46E-02
125,4.03E-03,2.46E-02
126,4.03E-03,2.46E-02
127,4.03E-03,2.46E-02
128,4.03E-03,2.45E-02
129,4.03E-03,2.45E-02
130,4.03E-03,2.45E-02
131,4.02E-03,2.45E-02
132,4.02E-03,2.44E-02
133,4.02E-03,2.44E-02
134,4.02E-03,2.44E-02
135,4.02E-03,2.43E-02
136,4.02E-03,2.43E-02
137,4.02E-03,2.42E-02
138,4.02E-03,2.41E-02
139,4.01E-03,2.40E-02
140,4.09E-03,2.45E-02
141,4.09E-03,2.45E-02
142,4.09E-03,2.45E-02
143,4.09E-03,2.45E-02
144,4.09E-03,2.44E-02
145,4.09E-03,2.44E-02
146,4.09E-03,2.44E-02
147,4.09E-03,2.44E-02
148,4.09E-03,2.44E-02
149,4.09E-03,2.44E-02
150,4.08E-03,2.44E-02
151,4.08E-03,2.43E-02
152,4.08E-03,2.43E-02
153,4.08E-03,2.43E-02
154,4.08E-03,2.42E-02
155,4.08E-03,2.41E-02
156,4.08E-03,2.40E-02
157,4.08E-03,2.39E-02
158,4.08E-03,2.37E-02
159,4.15E-03,2.43E-02
160,4.15E-03,2.43E-02
161,4.15E-03,2.43E-02
162,4.15E-03,2.43E-02
163,4.15E-03,2.43E-02
164,4.15E-03,2.43E-02
165,4.15E-03,2.43E-02
166,4.15E-03,2.43E-02
167,4.15E-03,2.43E-02
168,4.15E-03,2.43E-02
169,4.14E-03,2.43E-02
170,4.14E-03,2.42E-02
171,4.14E-03,2.42E-02
172,4.14E-03,2.42E-02
173,4.14E-03,2.41E-02
174,4.14E-03,2.40E-02
175,4.14E-03,2.39E-02
176,4.14E-03,2.37E-02
177,4.14E-03,2.35E-02
178,4.20E-03,2.42E-02
179,4.20E-03,2.42E-02
180,4.20E-03,2.42E-02
181,4.20E-03,2.42E-02
182,4.20E-03,2.42E-02
183,4.20E-03,2.42E-02
184,4.20E-03,2.42E-02
185,4.20E-03,2.42E-02
186,4.20E-03,2.42E-02
187,4.20E-03,2.42E-02
188,4.20E-03,2.41E-02
189,4.20E-03,2.41E-02
190,4.20E-03,2.41E-02
191,4.20E-03,2.41E-02
192,4.20E-03,2.40E-02
193,4.20E-03,2.39E-02
194,4.20E-03,2.38E-02
195,4.20E-03,2.36E-02
196,4.20E-03,2.34E-02
197,4.25E-03,2.40E-02
198,4.25E-03,2.40E-02
199,4.26E-03,2.40E-02
200,4.26E-03,2.40E-02
201,4.26E-03,2.40E-02
202,4.26E-03,2.40E-02
203,4.26E-03,2.40E-02
204,4.26E-03,2.40E-02
205,4.26E-03,2.40E-02
206,4.26E-03,2.40E-02
207,4.26E-03,2.40E-02
208,4.26E-03,2.40E-02
209,4.26E-03,2.40E-02
210,4.26E-03,2.40E-02
211,4.26E-03,2.39E-02
212,4.26E-03,2.38E-02
213,4.26E-03,2.37E-02
214,4.26E-03,2.36E-02
215,4.26E-03,2.35E-02
216,4.30E-03,2.39E-02
217,4.30E-03,2.39E-02
218,4.30E-03,2.39E-02
219,4.30E-03,2.39E-02
220,4.30E-03,2.39E-02
221,4.30E-03,2.39E-02
222,4.30E-03,2.39E-02
223,4.31E-03,2.39E-02
224,4.31E-03,2.39E-02
225,4.31E-03,2.39E-02
226,4.31E-03,2.39E-02
227,4.31E-03,2.39E-02
228,4.31E-03,2.39E-02
229,4.31E-03,2.39E-02
230,4.31E-03,2.38E-02
231,4.31E-03,2.38E-02
232,4.31E-03,2.37E-02
233,4.31E-03,2.36E-02
234,4.31E-03,2.36E-02
235,4.35E-03,2.37E-02
236,4.35E-03,2.37E-02
237,4.35E-03,2.37E-02
238,4.35E-03,2.38E-02
239,4.35E-03,2.38E-02
240,4.35E-03,2.38E-02
241,4.35E-03,2.38E-02
242,4.35E-03,2.38E-02
243,4.35E-03,2.38E-02
244,4.35E-03,2.38E-02
245,4.35E-03,2.38E-02
246,4.35E-03,2.38E-02
247,4.36E-03,2.38E-02
248,4.36E-03,2.38E-02
249,4.36E-03,2.37E-02
250,4.36E-03,2.37E-02
251,4.36E-03,2.37E-02
252,4.36E-03,2.37E-02
253,4.36E-03,2.37E-02
254,4.40E-03,2.36E-02
255,4.40E-03,2.36E-02
256,4.40E-03,2.36E-02
257,4.40E-03,2.36E-02
258,4.40E-03,2.36E-02
259,4.40E-03,2.36E-02
260,4.40E-03,2.36E-02
261,4.40E-03,2.37E-02
262,4.40E-03,2.37E-02
263,4.40E-03,2.37E-02
264,4.40E-03,2.37E-02
265,4.40E-03,2.37E-02
266,4.40E-03,2.37E-02
267,4.40E-03,2.37E-02
268,4.40E-03,2.36E-02
269,4.40E-03,2.36E-02
270,4.40E-03,2.36E-02
271,4.40E-03,2.37E-02
272,4.41E-03,2.37E-02
273,4.44E-03,2.34E-02
274,4.44E-03,2.34E-02
275,4.44E-03,2.34E-02
276,4.45E-03,2.35E-02
277,4.45E-03,2.35E-02
278,4.45E-03,2.35E-02
279,4.45E-03,2.35E-02
280,4.45E-03,2.35E-02
281,4.45E-03,2.35E-02
282,4.45E-03,2.35E-02
283,4.45E-03,2.36E-02
284,4.45E-03,2.36E-02
285,4.45E-03,2.36E-02
286,4.45E-03,2.36E-02
287,4.45E-03,2.36E-02
288,4.45E-03,2.36E-02
289,4.45E-03,2.36E-02
290,4.45E-03,2.36E-02
291,4.45E-03,2.37E-02
292,4.49E-03,2.33E-02
293,4.49E-03,2.33E-02
294,4.49E-03,2.33E-02
295,4.49E-03,2.33E-02
296,4.49E-03,2.33E-02
297,4.49E-03,2.34E-02
298,4.49E-03,2.34E-02
299,4.49E-03,2.34E-02
300,4.49E-03,2.34E-02
301,4.50E-03,2.34E-02
302,4.50E-03,2.34E-02
303,4.50E-03,2.35E-02
304,4.50E-03,2.35E-02
305,4.50E-03,2.35E-02
306,4.50E-03,2.35E-02
307,4.50E-03,2.35E-02
308,4.50E-03,2.36E-02
309,4.50E-03,2.36E-02
310,4.50E-03,2.37E-02
311,4.54E-03,2.31E-02
312,4.54E-03,2.31E-02
313,4.54E-03,2.31E-02
314,4.54E-03,2.32E-02
315,4.54E-03,2.32E-02
316,4.54E-03,2.32E-02
317,4.54E-03,2.32E-02
318,4.54E-03,2.33E-02
319,4.54E-03,2.33E-02
320,4.54E-03,2.33E-02
321,4.54E-03,2.33E-02
322,4.54E-03,2.33E-02
323,4.54E-03,2.34E-02
324,4.54E-03,2.34E-02
325,4.54E-03,2.34E-02
326,4.54E-03,2.35E-02
327,4.55E-03,2.35E-02
328,4.55E-03,2.36E-02
329,4.55E-03,2.37E-02
330,4.58E-03,2.30E-02
331,4.58E-03,2.30E-02
332,4.58E-03,2.30E-02
333,4.58E-03,2.30E-02
334,4.58E-03,2.30E-02
335,4.59E-03,2.31E-02
336,4.59E-03,2.31E-02
337,4.59E-03,2.31E-02
338,4.59E-03,2.32E-02
339,4.59E-03,2.32E-02
340,4.59E-03,2.32E-02
341,4.59E-03,2.32E-02
342,4.59E-03,2.33E-02
343,4.59E-03,2.33E-02
344,4.59E-03,2.34E-02
345,4.59E-03,2.34E-02
346,4.59E-03,2.35E-02
347,4.59E-03,2.35E-02
348,4.59E-03,2.36E-02
349,4.63E-03,2.28E-02
350,4.63E-03,2.28E-02
351,4.63E-03,2.28E-02
352,4.63E-03,2.29E-02
353,4.63E-03,2.29E-02
354,4.63E-03,2.29E-02
355,4.63E-03,2.30E-02
356,4.63E-03,2.30E-02
357,4.63E-03,2.30E-02
358,4.63E-03,2.31E-02
359,4.63E-03,2.31E-02
360,4.63E-03,2.31E-02
361,4.64E-03,2.32E-02
362,4.64E-03,2.32E-02
363,4.64E-03,2.33E-02
364,4.64E-03,2.33E-02
365,4.64E-03,2.34E-02
366,4.64E-03,2.35E-02
367,4.64E-03,2.36E-02
368,4.67E-03,2.26E-02
369,4.67E-03,2.27E-02
370,4.68E-03,2.27E-02
371,4.68E-03,2.27E-02
372,4.68E-03,2.27E-02
373,4.68E-03,2.28E-02
374,4.68E-03,2.28E-02
375,4.68E-03,2.29E-02
376,4.68E-03,2.29E-02
377,4.68E-03,2.29E-02
378,4.68E-03,2.30E-02
379,4.68E-03,2.31E-02
380,4.68E-03,2.31E-02
381,4.68E-03,2.32E-02
382,4.68E-03,2.32E-02
383,4.68E-03,2.33E-02
384,4.68E-03,2.33E-02
385,4.68E-03,2.34E-02
386,4.69E-03,2.35E-02
387,4.72E-03,2.25E-02
388,4.72E-03,2.25E-02
389,4.72E-03,2.25E-02
390,4.72E-03,2.26E-02
391,4.72E-03,2.26E-02
392,4.72E-03,2.26E-02
393,4.72E-03,2.27E-02
394,4.72E-03,2.27E-02
395,4.72E-03,2.28E-02
396,4.73E-03,2.28E-02
397,4.73E-03,2.29E-02
398,4.73E-03,2.30E-02
399,4.73E-03,2.30E-02
400,4.73E-03,2.31E-02
401,4.73E-03,2.32E-02
402,4.73E-03,2.32E-02
403,4.73E-03,2.33E-02
404,4.73E-03,2.33E-02
405,4.73E-03,2.34E-02
406,4.77E-03,2.23E-02
407,4.77E-03,2.23E-02
408,4.77E-03,2.24E-02
409,4.77E-03,2.24E-02
410,4.77E-03,2.24E-02
411,4.77E-03,2.25E-02
412,4.77E-03,2.25E-02
413,4.77E-03,2.26E-02
414,4.77E-03,2.26E-02
415,4.77E-03,2.27E-02
416,4.77E-03,2.28E-02
417,4.77E-03,2.29E-02
418,4.77E-03,2.29E-02
419,4.77E-03,2.30E-02
420,4.77E-03,2.31E-02
421,4.78E-03,2.32E-02
422,4.78E-03,2.32E-02
423,4.78E-03,2.33E-02
424,4.78E-03,2.33E-02
425,4.81E-03,2.22E-02
426,4.81E-03,2.22E-02
427,4.81E-03,2.22E-02
428,4.81E-03,2.23E-02
429,4.81E-03,2.23E-02
430,4.81E-03,2.23E-02
431,4.81E-03,2.24E-02
432,4.82E-03,2.24E-02
433,4.82E-03,2.25E-02
434,4.82E-03,2.26E-02
435,4.82E-03,2.27E-02
436,4.82E-03,2.27E-02
437,4.82E-03,2.28E-02
438,4.82E-03,2.29E-02
439,4.82E-03,2.30E-02
440,4.82E-03,2.31E-02
441,4.82E-03,2.32E-02
442,4.82E-03,2.32E-02
443,4.82E-03,2.32E-02
444,4.85E-03,2.20E-02
445,4.85E-03,2.20E-02
446,4.86E-03,2.21E-02
447,4.86E-03,2.21E-02
448,4.86E-03,2.21E-02
449,4.86E-03,2.22E-02
450,4.86E-03,2.22E-02
451,4.86E-03,2.23E-02
452,4.86E-03,2.24E-02
453,4.86E-03,2.24E-02
454,4.86E-03,2.25E-02
455,4.86E-03,2.26E-02
456,4.86E-03,2.27E-02
457,4.87E-03,2.28E-02
458,4.87E-03,2.30E-02
459,4.87E-03,2.31E-02
460,4.87E-03,2.31E-02
461,4.87E-03,2.32E-02
462,4.87E-03,2.32E-02
463,4.90E-03,2.18E-02
464,4.90E-03,2.19E-02
465,4.90E-03,2.19E-02
466,4.90E-03,2.19E-02
467,4.90E-03,2.20E-02
468,4.90E-03,2.20E-02
469,4.90E-03,2.21E-02
470,4.90E-03,2.21E-02
471,4.91E-03,2.22E-02
472,4.91E-03,2.23E-02
473,4.91E-03,2.24E-02
474,4.91E-03,2.25E-02
475,4.91E-03,2.26E-02
476,4.91E-03,2.28E-02
477,4.91E-03,2.29E-02
478,4.91E-03,2.30E-02
479,4.91E-03,2.31E-02
480,4.92E-03,2.32E-02
481,4.92E-03,2.31E-02
482,4.94E-03,2.17E-02
483,4.94E-03,2.17E-02
484,4.94E-03,2.17E-02
485,4.94E-03,2.18E-02
486,4.94E-03,2.18E-02
487,4.95E-03,2.19E-02
488,4.95E-03,2.19E-02
489,4.95E-03,2.20E-02
490,4.95E-03,2.20E-02
491,4.95E-03,2.21E-02
492,4.95E-03,2.22E-02
493,4.95E-03,2.24E-02
494,4.96E-03,2.25E-02
495,4.96E-03,2.26E-02
496,4.96E-03,2.28E-02
497,4.96E-03,2.30E-02
498,4.96E-03,2.31E-02
499,4.96E-03,2.32E-02
500,4.96E-03,2.32E-02
501,4.98E-03,2.15E-02
502,4.98E-03,2.16E-02
503,4.98E-03,2.16E-02
504,4.98E-03,2.16E-02
505,4.98E-03,2.16E-02
506,4.99E-03,2.17E-02
507,4.99E-03,2.17E-02
508,4.99E-03,2.18E-02
509,4.99E-03,2.19E-02
510,4.99E-03,2.20E-02
511,4.99E-03,2.21E-02
512,4.99E-03,2.22E-02
513,5.00E-03,2.23E-02
514,5.00E-03,2.25E-02
515,5.00E-03,2.27E-02
516,5.00E-03,2.29E-02
517,5.00E-03,2.31E-02
518,5.00E-03,2.33E-02
519,5.01E-03,2.34E-02
520,5.02E-03,2.14E-02
521,5.02E-03,2.14E-02
522,5.02E-03,2.14E-02
523,5.02E-03,2.14E-02
524,5.02E-03,2.15E-02
525,5.02E-03,2.15E-02
526,5.03E-03,2.16E-02
527,5.03E-03,2.16E-02
528,5.03E-03,2.17E-02
529,5.03E-03,2.18E-02
530,5.03E-03,2.19E-02
531,5.03E-03,2.20E-02
532,5.03E-03,2.22E-02
533,5.04E-03,2.24E-02
534,5.04E-03,2.26E-02
535,5.04E-03,2.28E-02
536,5.04E-03,2.31E-02
537,5.04E-03,2.34E-02
538,5.04E-03,2.37E-02
539,5.06E-03,2.12E-02
540,5.06E-03,2.12E-02
541,5.06E-03,2.13E-02
542,5.06E-03,2.13E-02
543,5.06E-03,2.13E-02
544,5.06E-03,2.14E-02
545,5.06E-03,2.14E-02
546,5.06E-03,2.15E-02
547,5.07E-03,2.15E-02
548,5.07E-03,2.16E-02
549,5.07E-03,2.17E-02
550,5.07E-03,2.19E-02
551,5.07E-03,2.20E-02
552,5.07E-03,2.22E-02
553,5.07E-03,2.24E-02
554,5.08E-03,2.27E-02
555,5.08E-03,2.30E-02
556,5.08E-03,2.34E-02
557,5.08E-03,2.40E-02
558,5.10E-03,2.11E-02
559,5.10E-03,2.11E-02
560,5.10E-03,2.11E-02
561,5.10E-03,2.11E-02
562,5.10E-03,2.12E-02
563,5.10E-03,2.12E-02
564,5.10E-03,2.12E-02
565,5.10E-03,2.13E-02
566,5.10E-03,2.14E-02
567,5.11E-03,2.15E-02
568,5.11E-03,2.16E-02
569,5.11E-03,2.17E-02
570,5.11E-03,2.18E-02
571,5.11E-03,2.20E-02
572,5.11E-03,2.22E-02
573,5.11E-03,2.25E-02
574,5.11E-03,2.29E-02
575,5.11E-03,2.35E-02
576,5.11E-03,2.42E-02
577,5.14E-03,2.09E-02
578,5.14E-03,2.09E-02
579,5.14E-03,2.10E-02
580,5.14E-03,2.10E-02
581,5.14E-03,2.10E-02
582,5.14E-03,2.10E-02
583,5.14E-03,2.11E-02
584,5.14E-03,2.11E-02
585,5.14E-03,2.12E-02
586,5.14E-03,2.13E-02
587,5.14E-03,2.14E-02
588,5.14E-03,2.15E-02
589,5.14E-03,2.17E-02
590,5.14E-03,2.19E-02
591,5.14E-03,2.21E-02
592,5.14E-03,2.24E-02
593,5.14E-03,2.28E-02
594,5.14E-03,2.34E-02
595,5.14E-03,2.42E-02
596,5.20E-03,2.08E-02
597,5.19E-03,2.08E-02
598,5.19E-03,2.08E-02
599,5.19E-03,2.08E-02
600,5.19E-03,2.09E-02
601,5.19E-03,2.09E-02
602,5.19E-03,2.09E-02
603,5.19E-03,2.10E-02
604,5.19E-03,2.10E-02
605,5.19E-03,2.11E-02
606,5.19E-03,2.12E-02
607,5.19E-03,2.13E-02
608,5.19E-03,2.15E-02
609,5.19E-03,2.17E-02
610,5.18E-03,2.19E-02
611,5.18E-03,2.23E-02
612,5.18E-03,2.27E-02
613,5.18E-03,2.33E-02
614,5.18E-03,2.39E-02
615,5.25E-03,2.07E-02
616,5.25E-03,2.07E-02
617,5.25E-03,2.07E-02
618,5.25E-03,2.07E-02
619,5.24E-03,2.07E-02
620,5.24E-03,2.07E-02
621,5.24E-03,2.08E-02
622,5.24E-03,2.08E-02
623,5.24E-03,2.09E-02
624,5.24E-03,2.09E-02
625,5.24E-03,2.10E-02
626,5.23E-03,2.12E-02
627,5.23E-03,2.13E-02
628,5.23E-03,2.15E-02
629,5.23E-03,2.18E-02
630,5.23E-03,2.21E-02
631,5.23E-03,2.25E-02
632,5.23E-03,2.30E-02
633,5.23E-03,2.36E-02
634,5.31E-03,2.05E-02
635,5.31E-03,2.05E-02
636,5.30E-03,2.05E-02
637,5.30E-03,2.05E-02
638,5.30E-03,2.06E-02
639,5.30E-03,2.06E-02
640,5.30E-03,2.06E-02
641,5.29E-03,2.07E-02
642,5.29E-03,2.07E-02
643,5.29E-03,2.08E-02
644,5.29E-03,2.09E-02
645,5.29E-03,2.10E-02
646,5.29E-03,2.11E-02
647,5.28E-03,2.13E-02
648,5.28E-03,2.16E-02
649,5.28E-03,2.19E-02
650,5.28E-03,2.23E-02
651,5.28E-03,2.27E-02
652,5.27E-03,2.32E-02
653,5.37E-03,2.04E-02
654,5.37E-03,2.04E-02
655,5.36E-03,2.04E-02
656,5.36E-03,2.04E-02
657,5.36E-03,2.04E-02
658,5.36E-03,2.04E-02
659,5.36E-03,2.05E-02
660,5.35E-03,2.05E-02
661,5.35E-03,2.06E-02
662,5.35E-03,2.06E-02
663,5.35E-03,2.07E-02
664,5.35E-03,2.08E-02
665,5.34E-03,2.10E-02
666,5.34E-03,2.12E-02
667,5.34E-03,2.14E-02
668,5.34E-03,2.17E-02
669,5.34E-03,2.21E-02
670,5.33E-03,2.24E-02
671,5.33E-03,2.28E-02
672,5.43E-03,2.03E-02
673,5.43E-03,2.03E-02
674,5.42E-03,2.03E-02
675,5.42E-03,2.03E-02
676,5.42E-03,2.03E-02
677,5.42E-03,2.03E-02
678,5.42E-03,2.03E-02
679,5.41E-03,2.04E-02
680,5.41E-03,2.04E-02
681,5.41E-03,2.05E-02
682,5.41E-03,2.05E-02
683,5.40E-03,2.06E-02
684,5.40E-03,2.08E-02
685,5.40E-03,2.10E-02
686,5.40E-03,2.12E-02
687,5.40E-03,2.15E-02
688,5.39E-03,2.18E-02
689,5.39E-03,2.21E-02
690,5.39E-03,2.25E-02
691,5.49E-03,2.02E-02
692,5.49E-03,2.02E-02
693,5.48E-03,2.02E-02
694,5.48E-03,2.02E-02
695,5.48E-03,2.02E-02
696,5.48E-03,2.02E-02
697,5.47E-03,2.02E-02
698,5.47E-03,2.02E-02
699,5.47E-03,2.03E-02
700,5.47E-03,2.03E-02
701,5.46E-03,2.04E-02
702,5.46E-03,2.05E-02
703,5.46E-03,2.06E-02
704,5.46E-03,2.08E-02
705,5.46E-03,2.09E-02
706,5.45E-03,2.12E-02
707,5.45E-03,2.14E-02
708,5.45E-03,2.18E-02
709,5.45E-03,2.22E-02
710,5.55E-03,2.01E-02
711,5.55E-03,2.00E-02
712,5.55E-03,2.00E-02
713,5.54E-03,2.00E-02
714,5.54E-03,2.00E-02
715,5.54E-03,2.00E-02
716,5.53E-03,2.01E-02
717,5.53E-03,2.01E-02
718,5.53E-03,2.01E-02
719,5.52E-03,2.02E-02
720,5.52E-03,2.02E-02
721,5.52E-03,2.03E-02
722,5.51E-03,2.04E-02
723,5.51E-03,2.05E-02
724,5.51E-03,2.07E-02
725,5.51E-03,2.09E-02
726,5.50E-03,2.11E-02
727,5.50E-03,2.14E-02
728,5.50E-03,2.19E-02
729,5.62E-03,1.99E-02
730,5.61E-03,1.99E-02
731,5.61E-03,1.99E-02
732,5.61E-03,1.99E-02
733,5.60E-03,1.99E-02
734,5.60E-03,1.99E-02
735,5.59E-03,1.99E-02
736,5.59E-03,1.99E-02
737,5.59E-03,2.00E-02
738,5.58E-03,2.00E-02
739,5.58E-03,2.01E-02
740,5.57E-03,2.01E-02
741,5.57E-03,2.02E-02
742,5.56E-03,2.03E-02
743,5.56E-03,2.04E-02
744,5.56E-03,2.06E-02
745,5.55E-03,2.08E-02
746,5.55E-03,2.10E-02
747,5.54E-03,2.15E-02
748,5.69E-03,1.98E-02
749,5.68E-03,1.98E-02
750,5.68E-03,1.98E-02
751,5.67E-03,1.98E-02
752,5.67E-03,1.98E-02
753,5.66E-03,1.98E-02
754,5.66E-03,1.98E-02
755,5.65E-03,1.98E-02
756,5.64E-03,1.98E-02
757,5.64E-03,1.99E-02
758,5.63E-03,1.99E-02
759,5.63E-03,2.00E-02
760,5.62E-03,2.00E-02
761,5.62E-03,2.01E-02
762,5.61E-03,2.02E-02
763,5.61E-03,2.03E-02
764,5.60E-03,2.04E-02
765,5.59E-03,2.06E-02
766,5.59E-03,2.08E-02
767,5.76E-03,1.97E-02
768,5.76E-03,1.97E-02
769,5.75E-03,1.97E-02
770,5.75E-03,1.97E-02
771,5.74E-03,1.97E-02
772,5.73E-03,1.97E-02
773,5.73E-03,1.97E-02
774,5.72E-03,1.97E-02
775,5.72E-03,1.97E-02
776,5.71E-03,1.97E-02
777,5.70E-03,1.98E-02
778,5.70E-03,1.98E-02
779,5.69E-03,1.98E-02
780,5.69E-03,1.99E-02
781,5.68E-03,1.99E-02
782,5.67E-03,2.00E-02
783,5.67E-03,2.01E-02
784,5.66E-03,2.01E-02
785,5.66E-03,2.00E-02
786,5.84E-03,1.96E-02
787,5.83E-03,1.96E-02
788,5.83E-03,1.96E-02
789,5.82E-03,1.96E-02
790,5.82E-03,1.96E-02
791,5.81E-03,1.96E-02
792,5.81E-03,1.96E-02
793,5.80E-03,1.96E-02
794,5.80E-03,1.96E-02
795,5.79E-03,1.96E-02
796,5.79E-03,1.96E-02
797,5.78E-03,1.96E-02
798,5.77E-03,1.96E-02
799,5.77E-03,1.97E-02
800,5.76E-03,1.97E-02
801,5.76E-03,1.97E-02
802,5.75E-03,1.97E-02
803,5.75E-03,1.96E-02
804,5.74E-03,1.93E-02
805,5.91E-03,1.95E-02
806,5.91E-03,1.95E-02
807,5.90E-03,1.95E-02
808,5.90E-03,1.95E-02
809,5.89E-03,1.95E-02
810,5.89E-03,1.95E-02
811,5.89E-03,1.94E-02
812,5.88E-03,1.94E-02
813,5.88E-03,1.94E-02
814,5.88E-03,1.94E-02
815,5.87E-03,1.94E-02
816,5.87E-03,1.94E-02
817,5.86E-03,1.94E-02
818,5.86E-03,1.94E-02
819,5.86E-03,1.94E-02
820,5.85E-03,1.94E-02
821,5.85E-03,1.94E-02
822,5.85E-03,1.92E-02
823,5.84E-03,1.88E-02
824,5.97E-03,1.94E-02
825,5.97E-03,1.94E-02
826,5.97E-03,1.94E-02
827,5.97E-03,1.94E-02
828,5.96E-03,1.94E-02
829,5.96E-03,1.93E-02
830,5.96E-03,1.93E-02
831,5.96E-03,1.93E-02
832,5.96E-03,1.93E-02
833,5.95E-03,1.93E-02
834,5.95E-03,1.93E-02
835,5.95E-03,1.93E-02
836,5.95E-03,1.92E-02
837,5.94E-03,1.92E-02
838,5.94E-03,1.91E-02
839,5.94E-03,1.91E-02
840,5.94E-03,1.90E-02
841,5.93E-03,1.89E-02
842,5.93E-03,1.87E-02
843,6.04E-03,1.93E-02
844,6.03E-03,1.93E-02
845,6.03E-03,1.93E-02
846,6.03E-03,1.93E-02
847,6.03E-03,1.92E-02
848,6.02E-03,1.92E-02
849,6.02E-03,1.92E-02
850,6.02E-03,1.92E-02
851,6.02E-03,1.92E-02
852,6.01E-03,1.91E-02
853,6.01E-03,1.91E-02
854,6.01E-03,1.91E-02
855,6.01E-03,1.90E-02
856,6.00E-03,1.90E-02
857,6.00E-03,1.89E-02
858,6.00E-03,1.87E-02
859,6.00E-03,1.86E-02
860,5.99E-03,1.85E-02
861,5.99E-03,1.86E-02
862,6.10E-03,1.92E-02
863,6.10E-03,1.92E-02
864,6.09E-03,1.92E-02
865,6.09E-03,1.92E-02
866,6.09E-03,1.91E-02
867,6.08E-03,1.91E-02
868,6.08E-03,1.91E-02
869,6.08E-03,1.91E-02
870,6.07E-03,1.90E-02
871,6.07E-03,1.90E-02
872,6.07E-03,1.90E-02
873,6.06E-03,1.89E-02
874,6.06E-03,1.88E-02
875,6.05E-03,1.87E-02
876,6.05E-03,1.86E-02
877,6.05E-03,1.84E-02
878,6.04E-03,1.83E-02
879,6.04E-03,1.82E-02
880,6.04E-03,1.83E-02
881,6.17E-03,1.91E-02
882,6.17E-03,1.91E-02
883,6.16E-03,1.91E-02
884,6.16E-03,1.90E-02
885,6.15E-03,1.90E-02
886,6.15E-03,1.90E-02
887,6.14E-03,1.90E-02
888,6.14E-03,1.89E-02
889,6.13E-03,1.89E-02
890,6.13E-03,1.88E-02
891,6.12E-03,1.88E-02
892,6.11E-03,1.87E-02
893,6.11E-03,1.86E-02
894,6.10E-03,1.85E-02
895,6.10E-03,1.83E-02
896,6.09E-03,1.81E-02
897,6.09E-03,1.80E-02
898,6.08E-03,1.78E-02
899,6.08E-03,1.79E-02
900,6.25E-03,1.90E-02
901,6.24E-03,1.90E-02
902,6.23E-03,1.90E-02
903,6.23E-03,1.89E-02
904,6.22E-03,1.89E-02
905,6.21E-03,1.89E-02
906,6.21E-03,1.88E-02
907,6.20E-03,1.88E-02
908,6.19E-03,1.88E-02
909,6.19E-03,1.87E-02
910,6.18E-03,1.86E-02
911,6.17E-03,1.85E-02
912,6.17E-03,1.84E-02
913,6.16E-03,1.83E-02
914,6.15E-03,1.81E-02
915,6.15E-03,1.79E-02
916,6.14E-03,1.77E-02
917,6.13E-03,1.74E-02
918,6.13E-03,1.72E-02
919,6.32E-03,1.89E-02
920,6.32E-03,1.89E-02
921,6.31E-03,1.89E-02
922,6.31E-03,1.88E-02
923,6.30E-03,1.88E-02
924,6.29E-03,1.88E-02
925,6.29E-03,1.87E-02
926,6.28E-03,1.87E-02
927,6.27E-03,1.86E-02
928,6.27E-03,1.86E-02
929,6.26E-03,1.85E-02
930,6.26E-03,1.84E-02
931,6.25E-03,1.83E-02
932,6.24E-03,1.81E-02
933,6.24E-03,1.79E-02
934,6.23E-03,1.77E-02
935,6.23E-03,1.74E-02
936,6.22E-03,1.70E-02
937,6.21E-03,1.64E-02
938,6.40E-03,1.88E-02
939,6.39E-03,1.88E-02
940,6.39E-03,1.88E-02
941,6.39E-03,1.87E-02
942,6.38E-03,1.87E-02
943,6.38E-03,1.86E-02
944,6.38E-03,1.86E-02
945,6.37E-03,1.85E-02
946,6.37E-03,1.85E-02
947,6.36E-03,1.84E-02
948,6.36E-03,1.83E-02
949,6.36E-03,1.82E-02
950,6.35E-03,1.81E-02
951,6.35E-03,1.79E-02
952,6.35E-03,1.77E-02
953,6.34E-03,1.75E-02
954,6.34E-03,1.71E-02
955,6.34E-03,1.66E-02
956,6.33E-03,1.58E-02
957,6.46E-03,1.87E-02
958,6.46E-03,1.87E-02
959,6.46E-03,1.86E-02
960,6.46E-03,1.86E-02
961,6.45E-03,1.85E-02
962,6.45E-03,1.85E-02
963,6.45E-03,1.84E-02
964,6.45E-03,1.84E-02
965,6.45E-03,1.83E-02
966,6.44E-03,1.83E-02
967,6.44E-03,1.82E-02
968,6.44E-03,1.81E-02
969,6.44E-03,1.79E-02
970,6.44E-03,1.78E-02
971,6.43E-03,1.75E-02
972,6.43E-03,1.72E-02
973,6.43E-03,1.68E-02
974,6.43E-03,1.62E-02
975,6.43E-03,1.55E-02
976,6.52E-03,1.86E-02
977,6.52E-03,1.86E-02
978,6.52E-03,1.85E-02
979,6.52E-03,1.85E-02
980,6.52E-03,1.84E-02
981,6.52E-03,1.84E-02
982,6.51E-03,1.83E-02
983,6.51E-03,1.83E-02
984,6.51E-03,1.82E-02
985,6.51E-03,1.81E-02
986,6.51E-03,1.80E-02
987,6.51E-03,1.79E-02
988,6.51E-03,1.78E-02
989,6.51E-03,1.76E-02
990,6.51E-03,1.74E-02
991,6.51E-03,1.70E-02
992,6.50E-03,1.66E-02
993,6.50E-03,1.60E-02
994,6.50E-03,1.53E-02
995,6.58E-03,1.85E-02
996,6.58E-03,1.85E-02
997,6.58E-03,1.84E-02
998,6.58E-03,1.84E-02
999,6.58E-03,1.83E-02
1000,6.58E-03,1.82E-02
1001,6.58E-03,1.82E-02
1002,6.58E-03,1.81E-02
1003,6.58E-03,1.80E-02
1004,6.58E-03,1.79E-02
1005,6.58E-03,1.78E-02
1006,6.58E-03,1.77E-02
1007,6.58E-03,1.76E-02
1008,6.58E-03,1.74E-02
1009,6.58E-03,1.72E-02
1010,6.58E-03,1.69E-02
1011,6.58E-03,1.64E-02
1012,6.58E-03,1.58E-02
1013,6.58E-03,1.51E-02
1014,6.62E-03,1.84E-02
1015,6.63E-03,1.83E-02
1016,6.63E-03,1.83E-02
1017,6.63E-03,1.82E-02
1018,6.63E-03,1.82E-02
1019,6.63E-03,1.81E-02
1020,6.63E-03,1.80E-02
1021,6.63E-03,1.80E-02
1022,6.63E-03,1.79E-02
1023,6.64E-03,1.78E-02
1024,6.64E-03,1.77E-02
1025,6.64E-03,1.76E-02
1026,6.64E-03,1.74E-02
1027,6.64E-03,1.72E-02
1028,6.64E-03,1.70E-02
1029,6.64E-03,1.67E-02
1030,6.64E-03,1.63E-02
1031,6.65E-03,1.58E-02
1032,6.65E-03,1.51E-02
1033,6.67E-03,1.83E-02
1034,6.67E-03,1.82E-02
1035,6.67E-03,1.82E-02
1036,6.67E-03,1.81E-02
1037,6.68E-03,1.80E-02
1038,6.68E-03,1.80E-02
1039,6.68E-03,1.79E-02
1040,6.68E-03,1.78E-02
1041,6.68E-03,1.77E-02
1042,6.69E-03,1.76E-02
1043,6.69E-03,1.75E-02
1044,6.69E-03,1.74E-02
1045,6.69E-03,1.72E-02
1046,6.69E-03,1.71E-02
1047,6.70E-03,1.68E-02
1048,6.70E-03,1.65E-02
1049,6.70E-03,1.62E-02
1050,6.70E-03,1.57E-02
1051,6.70E-03,1.52E-02
1052,6.71E-03,1.82E-02
1053,6.71E-03,1.81E-02
1054,6.72E-03,1.81E-02
1055,6.72E-03,1.80E-02
1056,6.72E-03,1.79E-02
1057,6.72E-03,1.78E-02
1058,6.73E-03,1.77E-02
1059,6.73E-03,1.77E-02
1060,6.73E-03,1.76E-02
1061,6.73E-03,1.75E-02
1062,6.73E-03,1.73E-02
1063,6.74E-03,1.72E-02
1064,6.74E-03,1.71E-02
1065,6.74E-03,1.69E-02
1066,6.74E-03,1.67E-02
1067,6.75E-03,1.64E-02
1068,6.75E-03,1.61E-02
1069,6.75E-03,1.57E-02
1070,6.75E-03,1.53E-02
1071,6.75E-03,1.81E-02
1072,6.75E-03,1.80E-02
1073,6.75E-03,1.79E-02
1074,6.76E-03,1.79E-02
1075,6.76E-03,1.78E-02
1076,6.76E-03,1.77E-02
1077,6.77E-03,1.76E-02
1078,6.77E-03,1.75E-02
1079,6.77E-03,1.74E-02
1080,6.77E-03,1.73E-02
1081,6.78E-03,1.72E-02
1082,6.78E-03,1.70E-02
1083,6.78E-03,1.69E-02
1084,6.78E-03,1.67E-02
1085,6.79E-03,1.65E-02
1086,6.79E-03,1.63E-02
1087,6.79E-03,1.60E-02
1088,6.79E-03,1.57E-02
1089,6.80E-03,1.54E-02
1090,6.79E-03,1.80E-02
1091,6.79E-03,1.79E-02
1092,6.79E-03,1.78E-02
1093,6.80E-03,1.77E-02
1094,6.80E-03,1.76E-02
1095,6.80E-03,1.75E-02
1096,6.80E-03,1.75E-02
1097,6.81E-03,1.74E-02
1098,6.81E-03,1.72E-02
1099,6.81E-03,1.71E-02
1100,6.81E-03,1.70E-02
1101,6.82E-03,1.69E-02
1102,6.82E-03,1.67E-02
1103,6.82E-03,1.65E-02
1104,6.82E-03,1.64E-02
1105,6.83E-03,1.62E-02
1106,6.83E-03,1.59E-02
1107,6.83E-03,1.57E-02
1108,6.84E-03,1.55E-02
1109,6.82E-03,1.79E-02
1110,6.83E-03,1.78E-02
1111,6.83E-03,1.77E-02
1112,6.83E-03,1.76E-02
1113,6.84E-03,1.75E-02
1114,6.84E-03,1.74E-02
1115,6.84E-03,1.73E-02
1116,6.84E-03,1.72E-02
1117,6.85E-03,1.71E-02
1118,6.85E-03,1.70E-02
1119,6.85E-03,1.68E-02
1120,6.85E-03,1.67E-02
1121,6.86E-03,1.65E-02
1122,6.86E-03,1.64E-02
1123,6.86E-03,1.62E-02
1124,6.87E-03,1.61E-02
1125,6.87E-03,1.59E-02
1126,6.87E-03,1.57E-02
1127,6.87E-03,1.56E-02
1128,6.86E-03,1.77E-02
1129,6.86E-03,1.77E-02
1130,6.87E-03,1.76E-02
1131,6.87E-03,1.75E-02
1132,6.87E-03,1.74E-02
1133,6.88E-03,1.73E-02
1134,6.88E-03,1.72E-02
1135,6.88E-03,1.70E-02
1136,6.88E-03,1.69E-02
1137,6.89E-03,1.68E-02
1138,6.89E-03,1.67E-02
1139,6.89E-03,1.65E-02
1140,6.89E-03,1.64E-02
1141,6.90E-03,1.62E-02
1142,6.90E-03,1.61E-02
1143,6.90E-03,1.59E-02
1144,6.91E-03,1.58E-02
1145,6.91E-03,1.58E-02
1146,6.91E-03,1.57E-02
1147,6.90E-03,1.76E-02
1148,6.90E-03,1.75E-02
1149,6.90E-03,1.74E-02
1150,6.91E-03,1.73E-02
1151,6.91E-03,1.72E-02
1152,6.91E-03,1.71E-02
1153,6.92E-03,1.70E-02
1154,6.92E-03,1.69E-02
1155,6.92E-03,1.68E-02
1156,6.92E-03,1.66E-02
1157,6.93E-03,1.65E-02
1158,6.93E-03,1.63E-02
1159,6.93E-03,1.62E-02
1160,6.93E-03,1.61E-02
1161,6.94E-03,1.59E-02
1162,6.94E-03,1.58E-02
1163,6.94E-03,1.58E-02
1164,6.95E-03,1.58E-02
1165,6.95E-03,1.58E-02
1166,6.94E-03,1.75E-02
1167,6.94E-03,1.74E-02
1168,6.94E-03,1.73E-02
1169,6.94E-03,1.72E-02
1170,6.95E-03,1.71E-02
1171,6.95E-03,1.70E-02
1172,6.95E-03,1.69E-02
1173,6.95E-03,1.67E-02
1174,6.96E-03,1.66E-02
1175,6.96E-03,1.65E-02
1176,6.96E-03,1.63E-02
1177,6.97E-03,1.62E-02
1178,6.97E-03,1.60E-02
1179,6.97E-03,1.59E-02
1180,6.97E-03,1.58E-02
1181,6.98E-03,1.57E-02
1182,6.98E-03,1.57E-02
1183,6.98E-03,1.58E-02
1184,6.98E-03,1.58E-02
1185,6.97E-03,1.74E-02
1186,6.98E-03,1.73E-02
1187,6.98E-03,1.72E-02
1188,6.98E-03,1.71E-02
1189,6.98E-03,1.70E-02
1190,6.99E-03,1.69E-02
1191,6.99E-03,1.67E-02
1192,6.99E-03,1.66E-02
1193,6.99E-03,1.65E-02
1194,7.00E-03,1.63E-02
1195,7.00E-03,1.62E-02
1196,7.00E-03,1.60E-02
1197,7.00E-03,1.59E-02
1198,7.01E-03,1.58E-02
1199,7.01E-03,1.57E-02
1200,7.01E-03,1.56E-02
1201,7.01E-03,1.56E-02
1202,7.02E-03,1.57E-02
1203,7.02E-03,1.59E-02
1204,7.01E-03,1.73E-02
1205,7.02E-03,1.72E-02
1206,7.02E-03,1.71E-02
1207,7.02E-03,1.70E-02
1208,7.02E-03,1.69E-02
1209,7.02E-03,1.67E-02
1210,7.03E-03,1.66E-02
1211,7.03E-03,1.65E-02
1212,7.03E-03,1.63E-02
1213,7.03E-03,1.62E-02
1214,7.04E-03,1.60E-02
1215,7.04E-03,1.59E-02
1216,7.04E-03,1.57E-02
1217,7.04E-03,1.56E-02
1218,7.05E-03,1.55E-02
1219,7.05E-03,1.55E-02
1220,7.05E-03,1.55E-02
1221,7.05E-03,1.57E-02
1222,7.06E-03,1.59E-02
1223,7.05E-03,1.72E-02
1224,7.06E-03,1.71E-02
1225,7.06E-03,1.70E-02
1226,7.06E-03,1.69E-02
1227,7.06E-03,1.67E-02
1228,7.06E-03,1.66E-02
1229,7.06E-03,1.65E-02
1230,7.07E-03,1.63E-02
1231,7.07E-03,1.62E-02
1232,7.07E-03,1.60E-02
1233,7.07E-03,1.59E-02
1234,7.07E-03,1.57E-02
1235,7.08E-03,1.56E-02
1236,7.08E-03,1.55E-02
1237,7.08E-03,1.54E-02
1238,7.08E-03,1.54E-02
1239,7.08E-03,1.54E-02
1240,7.08E-03,1.56E-02
1241,7.09E-03,1.60E-02
1242,7.10E-03,1.71E-02
1243,7.10E-03,1.70E-02
1244,7.10E-03,1.69E-02
1245,7.10E-03,1.68E-02
1246,7.10E-03,1.66E-02
1247,7.10E-03,1.65E-02
1248,7.10E-03,1.63E-02
1249,7.10E-03,1.62E-02
1250,7.10E-03,1.60E-02
1251,7.10E-03,1.59E-02
1252,7.11E-03,1.57E-02
1253,7.11E-03,1.56E-02
1254,7.11E-03,1.55E-02
1255,7.11E-03,1.54E-02
1256,7.11E-03,1.53E-02
1257,7.11E-03,1.52E-02
1258,7.11E-03,1.53E-02
1259,7.11E-03,1.55E-02
1260,7.11E-03,1.58E-02
1261,7.15E-03,1.70E-02
1262,7.15E-03,1.69E-02
1263,7.15E-03,1.68E-02
1264,7.15E-03,1.66E-02
1265,7.15E-03,1.65E-02
1266,7.15E-03,1.64E-02
1267,7.15E-03,1.62E-02
1268,7.15E-03,1.61E-02
1269,7.15E-03,1.59E-02
1270,7.14E-03,1.58E-02
1271,7.14E-03,1.56E-02
1272,7.14E-03,1.55E-02
1273,7.14E-03,1.53E-02
1274,7.14E-03,1.52E-02
1275,7.14E-03,1.52E-02
1276,7.14E-03,1.51E-02
1277,7.14E-03,1.51E-02
1278,7.14E-03,1.53E-02
1279,7.14E-03,1.56E-02
1280,7.20E-03,1.69E-02
1281,7.20E-03,1.68E-02
1282,7.20E-03,1.67E-02
1283,7.20E-03,1.65E-02
1284,7.20E-03,1.64E-02
1285,7.20E-03,1.63E-02
1286,7.19E-03,1.61E-02
1287,7.19E-03,1.59E-02
1288,7.19E-03,1.58E-02
1289,7.19E-03,1.56E-02
1290,7.19E-03,1.55E-02
1291,7.19E-03,1.53E-02
1292,7.19E-03,1.52E-02
1293,7.18E-03,1.51E-02
1294,7.18E-03,1.50E-02
1295,7.18E-03,1.50E-02
1296,7.18E-03,1.50E-02
1297,7.18E-03,1.51E-02
1298,7.18E-03,1.52E-02
1299,7.26E-03,1.68E-02
1300,7.26E-03,1.67E-02
1301,7.26E-03,1.66E-02
1302,7.26E-03,1.64E-02
1303,7.25E-03,1.63E-02
1304,7.25E-03,1.61E-02
1305,7.25E-03,1.60E-02
1306,7.25E-03,1.58E-02
1307,7.25E-03,1.57E-02
1308,7.25E-03,1.55E-02
1309,7.24E-03,1.54E-02
1310,7.24E-03,1.52E-02
1311,7.24E-03,1.51E-02
1312,7.24E-03,1.50E-02
1313,7.24E-03,1.49E-02
1314,7.23E-03,1.49E-02
1315,7.23E-03,1.49E-02
1316,7.23E-03,1.48E-02
1317,7.23E-03,1.47E-02
1318,7.32E-03,1.68E-02
1319,7.32E-03,1.66E-02
1320,7.32E-03,1.65E-02
1321,7.32E-03,1.63E-02
1322,7.32E-03,1.62E-02
1323,7.32E-03,1.60E-02
1324,7.32E-03,1.59E-02
1325,7.32E-03,1.57E-02
1326,7.32E-03,1.56E-02
1327,7.32E-03,1.54E-02
1328,7.32E-03,1.52E-02
1329,7.32E-03,1.51E-02
1330,7.32E-03,1.50E-02
1331,7.31E-03,1.49E-02
1332,7.31E-03,1.48E-02
1333,7.31E-03,1.48E-02
1334,7.31E-03,1.47E-02
1335,7.31E-03,1.46E-02
1336,7.31E-03,1.43E-02
1337,7.37E-03,1.67E-02
1338,7.37E-03,1.65E-02
1339,7.37E-03,1.64E-02
1340,7.37E-03,1.63E-02
1341,7.37E-03,1.61E-02
1342,7.37E-03,1.59E-02
1343,7.37E-03,1.58E-02
1344,7.37E-03,1.56E-02
1345,7.37E-03,1.54E-02
1346,7.37E-03,1.53E-02
1347,7.37E-03,1.51E-02
1348,7.38E-03,1.50E-02
1349,7.38E-03,1.48E-02
1350,7.38E-03,1.47E-02
1351,7.38E-03,1.47E-02
1352,7.38E-03,1.46E-02
1353,7.38E-03,1.45E-02
1354,7.38E-03,1.44E-02
1355,7.38E-03,1.41E-02
1356,7.42E-03,1.66E-02
1357,7.42E-03,1.65E-02
1358,7.42E-03,1.63E-02
1359,7.42E-03,1.62E-02
1360,7.42E-03,1.60E-02
1361,7.42E-03,1.59E-02
1362,7.42E-03,1.57E-02
1363,7.43E-03,1.55E-02
1364,7.43E-03,1.53E-02
1365,7.43E-03,1.52E-02
1366,7.43E-03,1.50E-02
1367,7.43E-03,1.48E-02
1368,7.43E-03,1.47E-02
1369,7.43E-03,1.46E-02
1370,7.43E-03,1.45E-02
1371,7.43E-03,1.44E-02
1372,7.43E-03,1.44E-02
1373,7.44E-03,1.42E-02
1374,7.44E-03,1.40E-02
1375,7.46E-03,1.65E-02
1376,7.47E-03,1.64E-02
1377,7.47E-03,1.62E-02
1378,7.47E-03,1.61E-02
1379,7.47E-03,1.59E-02
1380,7.47E-03,1.58E-02
1381,7.47E-03,1.56E-02
1382,7.47E-03,1.54E-02
1383,7.47E-03,1.52E-02
1384,7.48E-03,1.51E-02
1385,7.48E-03,1.49E-02
1386,7.48E-03,1.47E-02
1387,7.48E-03,1.46E-02
1388,7.48E-03,1.44E-02
1389,7.48E-03,1.43E-02
1390,7.48E-03,1.43E-02
1391,7.48E-03,1.42E-02
1392,7.49E-03,1.41E-02
1393,7.49E-03,1.39E-02
1394,7.51E-03,1.64E-02
1395,7.51E-03,1.63E-02
1396,7.51E-03,1.62E-02
1397,7.51E-03,1.60E-02
1398,7.52E-03,1.58E-02
1399,7.52E-03,1.57E-02
1400,7.52E-03,1.55E-02
1401,7.52E-03,1.53E-02
1402,7.52E-03,1.51E-02
1403,7.52E-03,1.50E-02
1404,7.52E-03,1.48E-02
1405,7.52E-03,1.46E-02
1406,7.53E-03,1.44E-02
1407,7.53E-03,1.43E-02
1408,7.53E-03,1.41E-02
1409,7.53E-03,1.41E-02
1410,7.53E-03,1.40E-02
1411,7.53E-03,1.39E-02
1412,7.53E-03,1.39E-02
1413,7.56E-03,1.64E-02
1414,7.56E-03,1.62E-02
1415,7.56E-03,1.61E-02
1416,7.56E-03,1.59E-02
1417,7.56E-03,1.58E-02
1418,7.56E-03,1.56E-02
1419,7.56E-03,1.54E-02
1420,7.57E-03,1.52E-02
1421,7.57E-03,1.51E-02
1422,7.57E-03,1.49E-02
1423,7.57E-03,1.47E-02
1424,7.57E-03,1.45E-02
1425,7.57E-03,1.43E-02
1426,7.57E-03,1.41E-02
1427,7.57E-03,1.39E-02
1428,7.57E-03,1.38E-02
1429,7.58E-03,1.38E-02
1430,7.58E-03,1.38E-02
1431,7.58E-03,1.38E-02
1432,7.60E-03,1.63E-02
1433,7.60E-03,1.62E-02
1434,7.61E-03,1.60E-02
1435,7.61E-03,1.59E-02
1436,7.61E-03,1.57E-02
1437,7.61E-03,1.55E-02
1438,7.61E-03,1.53E-02
1439,7.61E-03,1.52E-02
1440,7.61E-03,1.50E-02
1441,7.61E-03,1.48E-02
1442,7.61E-03,1.46E-02
1443,7.62E-03,1.43E-02
1444,7.62E-03,1.41E-02
1445,7.62E-03,1.39E-02
1446,7.62E-03,1.37E-02
1447,7.62E-03,1.36E-02
1448,7.62E-03,1.36E-02
1449,7.62E-03,1.37E-02
1450,7.62E-03,1.38E-02
1451,7.65E-03,1.62E-02
1452,7.65E-03,1.61E-02
1453,7.65E-03,1.59E-02
1454,7.65E-03,1.58E-02
1455,7.65E-03,1.56E-02
1456,7.66E-03,1.54E-02
1457,7.66E-03,1.53E-02
1458,7.66E-03,1.51E-02
1459,7.66E-03,1.49E-02
1460,7.66E-03,1.47E-02
1461,7.66E-03,1.45E-02
1462,7.66E-03,1.42E-02
1463,7.66E-03,1.40E-02
1464,7.66E-03,1.38E-02
1465,7.66E-03,1.35E-02
1466,7.66E-03,1.34E-02
1467,7.67E-03,1.34E-02
1468,7.67E-03,1.35E-02
1469,7.67E-03,1.38E-02
1470,7.70E-03,1.62E-02
1471,7.70E-03,1.60E-02
1472,7.70E-03,1.59E-02
1473,7.70E-03,1.57E-02
1474,7.70E-03,1.55E-02
1475,7.70E-03,1.54E-02
1476,7.70E-03,1.52E-02
1477,7.70E-03,1.50E-02
1478,7.70E-03,1.48E-02
1479,7.70E-03,1.46E-02
1480,7.70E-03,1.44E-02
1481,7.70E-03,1.41E-02
1482,7.70E-03,1.39E-02
1483,7.70E-03,1.36E-02
1484,7.70E-03,1.33E-02
1485,7.70E-03,1.31E-02
1486,7.70E-03,1.31E-02
1487,7.70E-03,1.33E-02
1488,7.70E-03,1.38E-02
1489,7.75E-03,1.61E-02
1490,7.75E-03,1.59E-02
1491,7.75E-03,1.58E-02
1492,7.75E-03,1.56E-02
1493,7.75E-03,1.55E-02
1494,7.74E-03,1.53E-02
1495,7.74E-03,1.51E-02
1496,7.74E-03,1.49E-02
1497,7.74E-03,1.47E-02
1498,7.74E-03,1.45E-02
1499,7.74E-03,1.43E-02
1500,7.74E-03,1.40E-02
1501,7.73E-03,1.38E-02
1502,7.73E-03,1.35E-02
1503,7.73E-03,1.32E-02
1504,7.73E-03,1.29E-02
1505,7.73E-03,1.28E-02
1506,7.73E-03,1.30E-02
1507,7.72E-03,1.37E-02
1508,7.81E-03,1.60E-02
1509,7.81E-03,1.59E-02
1510,7.80E-03,1.57E-02
1511,7.80E-03,1.56E-02
1512,7.79E-03,1.54E-02
1513,7.79E-03,1.52E-02
1514,7.78E-03,1.51E-02
1515,7.77E-03,1.49E-02
1516,7.77E-03,1.47E-02
1517,7.76E-03,1.44E-02
1518,7.76E-03,1.42E-02
1519,7.75E-03,1.40E-02
1520,7.75E-03,1.37E-02
1521,7.74E-03,1.34E-02
1522,7.73E-03,1.30E-02
1523,7.73E-03,1.27E-02
1524,7.72E-03,1.24E-02
1525,7.72E-03,1.26E-02
1526,7.71E-03,1.34E-02
1527,7.89E-03,1.60E-02
1528,7.87E-03,1.58E-02
1529,7.85E-03,1.57E-02
1530,7.83E-03,1.55E-02
1531,7.81E-03,1.53E-02
1532,7.79E-03,1.52E-02
1533,7.77E-03,1.50E-02
1534,7.75E-03,1.48E-02
1535,7.73E-03,1.46E-02
1536,7.71E-03,1.44E-02
1537,7.69E-03,1.41E-02
1538,7.67E-03,1.39E-02
1539,7.64E-03,1.36E-02
1540,7.62E-03,1.33E-02
1541,7.60E-03,1.29E-02
1542,7.58E-03,1.25E-02
1543,7.56E-03,1.21E-02
1544,7.54E-03,1.20E-02
1545,7.52E-03,1.26E-02
1546,8.00E-03,1.59E-02
1547,7.96E-03,1.57E-02
1548,7.93E-03,1.56E-02
1549,7.89E-03,1.54E-02
1550,7.85E-03,1.53E-02
1551,7.81E-03,1.51E-02
1552,7.78E-03,1.49E-02
1553,7.74E-03,1.47E-02
1554,7.70E-03,1.45E-02
1555,7.67E-03,1.43E-02
1556,7.63E-03,1.41E-02
1557,7.59E-03,1.38E-02
1558,7.55E-03,1.35E-02
1559,7.52E-03,1.32E-02
1560,7.48E-03,1.28E-02
1561,7.44E-03,1.24E-02
1562,7.41E-03,1.19E-02
1563,7.37E-03,1.14E-02
1564,7.33E-03,1.11E-02
1565,8.13E-03,1.58E-02
1566,8.08E-03,1.57E-02
1567,8.04E-03,1.55E-02
1568,7.99E-03,1.54E-02
1569,7.94E-03,1.52E-02
1570,7.90E-03,1.50E-02
1571,7.85E-03,1.48E-02
1572,7.80E-03,1.46E-02
1573,7.75E-03,1.44E-02
1574,7.71E-03,1.42E-02
1575,7.66E-03,1.40E-02
1576,7.61E-03,1.37E-02
1577,7.57E-03,1.35E-02
1578,7.52E-03,1.31E-02
1579,7.47E-03,1.28E-02
1580,7.42E-03,1.23E-02
1581,7.38E-03,1.16E-02
1582,7.33E-03,1.06E-02
1583,7.28E-03,9.23E-03
1584,8.27E-03,1.58E-02
1585,8.22E-03,1.56E-02
1586,8.17E-03,1.55E-02
1587,8.12E-03,1.53E-02
1588,8.07E-03,1.51E-02
1589,8.02E-03,1.49E-02
1590,7.97E-03,1.47E-02
1591,7.91E-03,1.46E-02
1592,7.86E-03,1.43E-02
1593,7.81E-03,1.41E-02
1594,7.76E-03,1.39E-02
1595,7.71E-03,1.36E-02
1596,7.66E-03,1.34E-02
1597,7.61E-03,1.31E-02
1598,7.55E-03,1.27E-02
1599,7.50E-03,1.22E-02
1600,7.45E-03,1.13E-02
1601,7.40E-03,9.75E-03
1602,7.35E-03,7.41E-03
1603,8.41E-03,1.57E-02
1604,8.40E-03,1.55E-02
1605,8.38E-03,1.54E-02
1606,8.36E-03,1.52E-02
1607,8.34E-03,1.50E-02
1608,8.32E-03,1.49E-02
1609,8.30E-03,1.47E-02
1610,8.28E-03,1.45E-02
1611,8.26E-03,1.43E-02
1612,8.24E-03,1.40E-02
1613,8.22E-03,1.38E-02
1614,8.20E-03,1.36E-02
1615,8.18E-03,1.33E-02
1616,8.17E-03,1.30E-02
1617,8.15E-03,1.26E-02
1618,8.13E-03,1.20E-02
1619,8.11E-03,1.09E-02
1620,8.09E-03,8.98E-03
1621,8.07E-03,6.19E-03
1622,8.49E-03,1.56E-02
1623,8.50E-03,1.55E-02
1624,8.50E-03,1.53E-02
1625,8.50E-03,1.51E-02
1626,8.51E-03,1.50E-02
1627,8.51E-03,1.48E-02
1628,8.51E-03,1.46E-02
1629,8.52E-03,1.44E-02
1630,8.52E-03,1.42E-02
1631,8.52E-03,1.40E-02
1632,8.52E-03,1.37E-02
1633,8.53E-03,1.35E-02
1634,8.53E-03,1.32E-02
1635,8.53E-03,1.29E-02
1636,8.54E-03,1.25E-02
1637,8.54E-03,1.18E-02
1638,8.54E-03,1.06E-02
1639,8.55E-03,8.63E-03
1640,8.55E-03,5.86E-03
1641,8.50E-03,1.56E-02
1642,8.51E-03,1.54E-02
1643,8.51E-03,1.53E-02
1644,8.51E-03,1.51E-02
1645,8.52E-03,1.49E-02
1646,8.52E-03,1.47E-02
1647,8.52E-03,1.45E-02
1648,8.53E-03,1.43E-02
1649,8.53E-03,1.41E-02
1650,8.54E-03,1.39E-02
1651,8.54E-03,1.37E-02
1652,8.54E-03,1.34E-02
1653,8.55E-03,1.31E-02
1654,8.55E-03,1.28E-02
1655,8.56E-03,1.24E-02
1656,8.56E-03,1.17E-02
1657,8.56E-03,1.06E-02
1658,8.57E-03,8.76E-03
1659,8.57E-03,6.26E-03
1660,8.46E-03,1.55E-02
1661,8.46E-03,1.54E-02
1662,8.46E-03,1.52E-02
1663,8.46E-03,1.50E-02
1664,8.46E-03,1.48E-02
1665,8.45E-03,1.47E-02
1666,8.45E-03,1.45E-02
1667,8.45E-03,1.43E-02
1668,8.45E-03,1.41E-02
1669,8.44E-03,1.38E-02
1670,8.44E-03,1.36E-02
1671,8.44E-03,1.33E-02
1672,8.44E-03,1.31E-02
1673,8.44E-03,1.27E-02
1674,8.43E-03,1.23E-02
1675,8.43E-03,1.16E-02
1676,8.43E-03,1.06E-02
1677,8.43E-03,9.14E-03
1678,8.43E-03,7.21E-03
1679,8.41E-03,1.54E-02
1680,8.41E-03,1.53E-02
1681,8.41E-03,1.51E-02
1682,8.41E-03,1.50E-02
1683,8.41E-03,1.48E-02
1684,8.41E-03,1.46E-02
1685,8.41E-03,1.44E-02
1686,8.40E-03,1.42E-02
1687,8.40E-03,1.40E-02
1688,8.40E-03,1.38E-02
1689,8.40E-03,1.35E-02
1690,8.40E-03,1.33E-02
1691,8.40E-03,1.30E-02
1692,8.39E-03,1.26E-02
1693,8.39E-03,1.22E-02
1694,8.39E-03,1.16E-02
1695,8.39E-03,1.07E-02
1696,8.39E-03,9.56E-03
1697,8.39E-03,8.37E-03
1698,8.38E-03,1.54E-02
1699,8.38E-03,1.52E-02
1700,8.38E-03,1.51E-02
1701,8.39E-03,1.49E-02
1702,8.39E-03,1.47E-02
1703,8.39E-03,1.45E-02
1704,8.39E-03,1.43E-02
1705,8.40E-03,1.41E-02
1706,8.40E-03,1.39E-02
1707,8.40E-03,1.37E-02
1708,8.41E-03,1.34E-02
1709,8.41E-03,1.32E-02
1710,8.41E-03,1.29E-02
1711,8.41E-03,1.25E-02
1712,8.42E-03,1.21E-02
1713,8.42E-03,1.15E-02
1714,8.42E-03,1.07E-02
1715,8.43E-03,9.94E-03
1716,8.43E-03,9.36E-03
1717,8.35E-03,1.53E-02
1718,8.36E-03,1.52E-02
1719,8.36E-03,1.50E-02
1720,8.37E-03,1.48E-02
1721,8.37E-03,1.46E-02
1722,8.38E-03,1.45E-02
1723,8.38E-03,1.43E-02
1724,8.39E-03,1.40E-02
1725,8.39E-03,1.38E-02
1726,8.40E-03,1.36E-02
1727,8.40E-03,1.34E-02
1728,8.41E-03,1.31E-02
1729,8.41E-03,1.28E-02
1730,8.42E-03,1.24E-02
1731,8.42E-03,1.20E-02
1732,8.43E-03,1.14E-02
1733,8.43E-03,1.08E-02
1734,8.44E-03,1.03E-02
1735,8.44E-03,1.00E-02
1736,8.34E-03,1.53E-02
1737,8.35E-03,1.51E-02
1738,8.35E-03,1.49E-02
1739,8.36E-03,1.47E-02
1740,8.36E-03,1.46E-02
1741,8.37E-03,1.44E-02
1742,8.38E-03,1.42E-02
1743,8.38E-03,1.40E-02
1744,8.39E-03,1.37E-02
1745,8.39E-03,1.35E-02
1746,8.40E-03,1.33E-02
1747,8.40E-03,1.30E-02
1748,8.41E-03,1.27E-02
1749,8.42E-03,1.23E-02
1750,8.42E-03,1.18E-02
1751,8.43E-03,1.14E-02
1752,8.43E-03,1.09E-02
1753,8.44E-03,1.05E-02
1754,8.45E-03,1.05E-02
1755,8.33E-03,1.52E-02
1756,8.34E-03,1.50E-02
1757,8.35E-03,1.49E-02
1758,8.35E-03,1.47E-02
1759,8.36E-03,1.45E-02
1760,8.37E-03,1.43E-02
1761,8.37E-03,1.41E-02
1762,8.38E-03,1.39E-02
1763,8.38E-03,1.37E-02
1764,8.39E-03,1.34E-02
1765,8.40E-03,1.32E-02
1766,8.40E-03,1.29E-02
1767,8.41E-03,1.25E-02
1768,8.42E-03,1.22E-02
1769,8.42E-03,1.18E-02
1770,8.43E-03,1.13E-02
1771,8.43E-03,1.10E-02
1772,8.44E-03,1.08E-02
1773,8.45E-03,1.08E-02
1774,8.33E-03,1.51E-02
1775,8.34E-03,1.50E-02
1776,8.35E-03,1.48E-02
1777,8.35E-03,1.46E-02
1778,8.36E-03,1.44E-02
1779,8.36E-03,1.42E-02
1780,8.37E-03,1.40E-02
1781,8.38E-03,1.38E-02
1782,8.38E-03,1.36E-02
1783,8.39E-03,1.33E-02
1784,8.40E-03,1.31E-02
1785,8.40E-03,1.28E-02
1786,8.41E-03,1.24E-02
1787,8.42E-03,1.21E-02
1788,8.42E-03,1.17E-02
1789,8.43E-03,1.13E-02
1790,8.44E-03,1.10E-02
1791,8.44E-03,1.09E-02
1792,8.45E-03,1.10E-02
1793,8.33E-03,1.51E-02
1794,8.34E-03,1.49E-02
1795,8.35E-03,1.47E-02
1796,8.35E-03,1.45E-02
1797,8.36E-03,1.43E-02
1798,8.37E-03,1.41E-02
1799,8.37E-03,1.39E-02
1800,8.38E-03,1.37E-02
1801,8.39E-03,1.35E-02
1802,8.39E-03,1.32E-02
1803,8.40E-03,1.30E-02
1804,8.41E-03,1.27E-02
1805,8.41E-03,1.23E-02
1806,8.42E-03,1.20E-02
1807,8.43E-03,1.17E-02
1808,8.43E-03,1.13E-02
1809,8.44E-03,1.11E-02
1810,8.45E-03,1.10E-02
1811,8.45E-03,1.11E-02
1812,8.34E-03,1.50E-02
1813,8.35E-03,1.48E-02
1814,8.35E-03,1.47E-02
1815,8.36E-03,1.45E-02
1816,8.37E-03,1.43E-02
1817,8.37E-03,1.41E-02
1818,8.38E-03,1.39E-02
1819,8.39E-03,1.36E-02
1820,8.39E-03,1.34E-02
1821,8.40E-03,1.31E-02
1822,8.41E-03,1.29E-02
1823,8.41E-03,1.26E-02
1824,8.42E-03,1.23E-02
1825,8.43E-03,1.19E-02
1826,8.43E-03,1.16E-02
1827,8.44E-03,1.13E-02
1828,8.45E-03,1.11E-02
1829,8.45E-03,1.11E-02
1830,8.46E-03,1.11E-02
1831,8.35E-03,1.49E-02
1832,8.36E-03,1.48E-02
1833,8.36E-03,1.46E-02
1834,8.37E-03,1.44E-02
1835,8.38E-03,1.42E-02
1836,8.38E-03,1.40E-02
1837,8.39E-03,1.38E-02
1838,8.40E-03,1.36E-02
1839,8.40E-03,1.33E-02
1840,8.41E-03,1.31E-02
1841,8.42E-03,1.28E-02
1842,8.42E-03,1.25E-02
1843,8.43E-03,1.22E-02
1844,8.44E-03,1.19E-02
1845,8.44E-03,1.16E-02
1846,8.45E-03,1.14E-02
1847,8.46E-03,1.12E-02
1848,8.46E-03,1.11E-02
1849,8.47E-03,1.11E-02
1850,8.36E-03,1.49E-02
1851,8.37E-03,1.47E-02
1852,8.37E-03,1.45E-02
1853,8.38E-03,1.43E-02
1854,8.39E-03,1.41E-02
1855,8.39E-03,1.39E-02
1856,8.40E-03,1.37E-02
1857,8.41E-03,1.35E-02
1858,8.41E-03,1.32E-02
1859,8.42E-03,1.30E-02
1860,8.43E-03,1.27E-02
1861,8.43E-03,1.24E-02
1862,8.44E-03,1.21E-02
1863,8.45E-03,1.19E-02
1864,8.45E-03,1.16E-02
1865,8.46E-03,1.14E-02
1866,8.47E-03,1.12E-02
1867,8.47E-03,1.11E-02
1868,8.48E-03,1.11E-02
1869,8.37E-03,1.48E-02
1870,8.38E-03,1.46E-02
1871,8.39E-03,1.45E-02
1872,8.39E-03,1.43E-02
1873,8.40E-03,1.41E-02
1874,8.41E-03,1.39E-02
1875,8.41E-03,1.36E-02
1876,8.42E-03,1.34E-02
1877,8.42E-03,1.32E-02
1878,8.43E-03,1.29E-02
1879,8.44E-03,1.26E-02
1880,8.44E-03,1.24E-02
1881,8.45E-03,1.21E-02
1882,8.46E-03,1.18E-02
1883,8.46E-03,1.16E-02
1884,8.47E-03,1.14E-02
1885,8.48E-03,1.12E-02
1886,8.48E-03,1.11E-02
1887,8.49E-03,1.10E-02
1888,8.38E-03,1.47E-02
1889,8.39E-03,1.46E-02
1890,8.40E-03,1.44E-02
1891,8.40E-03,1.42E-02
1892,8.41E-03,1.40E-02
1893,8.42E-03,1.38E-02
1894,8.42E-03,1.36E-02
1895,8.43E-03,1.33E-02
1896,8.44E-03,1.31E-02
1897,8.44E-03,1.28E-02
1898,8.45E-03,1.26E-02
1899,8.46E-03,1.23E-02
1900,8.46E-03,1.20E-02
1901,8.47E-03,1.18E-02
1902,8.47E-03,1.16E-02
1903,8.48E-03,1.14E-02
1904,8.49E-03,1.12E-02
1905,8.49E-03,1.11E-02
1906,8.50E-03,1.10E-02
1907,8.40E-03,1.47E-02
1908,8.40E-03,1.45E-02
1909,8.41E-03,1.43E-02
1910,8.42E-03,1.41E-02
1911,8.42E-03,1.39E-02
1912,8.43E-03,1.37E-02
1913,8.44E-03,1.35E-02
1914,8.44E-03,1.33E-02
1915,8.45E-03,1.30E-02
1916,8.45E-03,1.28E-02
1917,8.46E-03,1.25E-02
1918,8.47E-03,1.23E-02
1919,8.47E-03,1.20E-02
1920,8.48E-03,1.18E-02
1921,8.49E-03,1.15E-02
1922,8.49E-03,1.13E-02
1923,8.50E-03,1.12E-02
1924,8.51E-03,1.11E-02
1925,8.51E-03,1.10E-02
1926,8.41E-03,1.46E-02
1927,8.42E-03,1.45E-02
1928,8.42E-03,1.43E-02
1929,8.43E-03,1.41E-02
1930,8.43E-03,1.39E-02
1931,8.44E-03,1.37E-02
1932,8.45E-03,1.34E-02
1933,8.45E-03,1.32E-02
1934,8.46E-03,1.30E-02
1935,8.47E-03,1.27E-02
1936,8.47E-03,1.25E-02
1937,8.48E-03,1.22E-02
1938,8.49E-03,1.20E-02
1939,8.49E-03,1.17E-02
1940,8.50E-03,1.15E-02
1941,8.51E-03,1.13E-02
1942,8.51E-03,1.11E-02
1943,8.52E-03,1.10E-02
1944,8.52E-03,1.09E-02
1945,8.42E-03,1.46E-02
1946,8.43E-03,1.44E-02
1947,8.43E-03,1.42E-02
1948,8.44E-03,1.40E-02
1949,8.45E-03,1.38E-02
1950,8.45E-03,1.36E-02
1951,8.46E-03,1.34E-02
1952,8.47E-03,1.31E-02
1953,8.47E-03,1.29E-02
1954,8.48E-03,1.27E-02
1955,8.49E-03,1.24E-02
1956,8.49E-03,1.22E-02
1957,8.50E-03,1.19E-02
1958,8.50E-03,1.17E-02
1959,8.51E-03,1.15E-02
1960,8.52E-03,1.13E-02
1961,8.52E-03,1.11E-02
1962,8.53E-03,1.10E-02
1963,8.54E-03,1.08E-02
1964,8.43E-03,1.45E-02
1965,8.44E-03,1.43E-02
1966,8.45E-03,1.41E-02
1967,8.45E-03,1.40E-02
1968,8.46E-03,1.37E-02
1969,8.47E-03,1.35E-02
1970,8.47E-03,1.33E-02
1971,8.48E-03,1.31E-02
1972,8.48E-03,1.29E-02
1973,8.49E-03,1.26E-02
1974,8.50E-03,1.24E-02
1975,8.50E-03,1.21E-02
1976,8.51E-03,1.19E-02
1977,8.52E-03,1.17E-02
1978,8.52E-03,1.15E-02
1979,8.53E-03,1.13E-02
1980,8.54E-03,1.11E-02
1981,8.54E-03,1.09E-02
1982,8.55E-03,1.08E-02
1983,8.45E-03,1.45E-02
1984,8.45E-03,1.43E-02
1985,8.46E-03,1.41E-02
1986,8.47E-03,1.39E-02
1987,8.47E-03,1.37E-02
1988,8.48E-03,1.35E-02
1989,8.48E-03,1.33E-02
1990,8.49E-03,1.30E-02
1991,8.50E-03,1.28E-02
1992,8.50E-03,1.26E-02
1993,8.51E-03,1.23E-02
1994,8.52E-03,1.21E-02
1995,8.52E-03,1.19E-02
1996,8.53E-03,1.16E-02
1997,8.54E-03,1.14E-02
1998,8.54E-03,1.12E-02
1999,8.55E-03,1.10E-02
2000,8.56E-03,1.09E-02
2001,8.56E-03,1.07E-02
2002,8.46E-03,1.44E-02
2003,8.47E-03,1.42E-02
2004,8.47E-03,1.40E-02
2005,8.48E-03,1.38E-02
2006,8.48E-03,1.36E-02
2007,8.49E-03,1.34E-02
2008,8.50E-03,1.32E-02
2009,8.50E-03,1.30E-02
2010,8.51E-03,1.28E-02
2011,8.52E-03,1.25E-02
2012,8.52E-03,1.23E-02
2013,8.53E-03,1.21E-02
2014,8.54E-03,1.18E-02
2015,8.54E-03,1.16E-02
2016,8.55E-03,1.14E-02
2017,8.56E-03,1.12E-02
2018,8.56E-03,1.10E-02
2019,8.57E-03,1.08E-02
2020,8.57E-03,1.06E-02
2021,8.47E-03,1.44E-02
2022,8.48E-03,1.42E-02
2023,8.48E-03,1.40E-02
2024,8.49E-03,1.38E-02
2025,8.50E-03,1.36E-02
2026,8.50E-03,1.34E-02
2027,8.51E-03,1.32E-02
2028,8.52E-03,1.29E-02
2029,8.52E-03,1.27E-02
2030,8.53E-03,1.25E-02
2031,8.54E-03,1.23E-02
2032,8.54E-03,1.20E-02
2033,8.55E-03,1.18E-02
2034,8.55E-03,1.16E-02
2035,8.56E-03,1.14E-02
2036,8.57E-03,1.11E-02
2037,8.57E-03,1.09E-02
2038,8.58E-03,1.07E-02
2039,8.59E-03,1.06E-02
2040,8.48E-03,1.43E-02
2041,8.49E-03,1.41E-02
2042,8.50E-03,1.39E-02
2043,8.50E-03,1.37E-02
2044,8.51E-03,1.35E-02
2045,8.52E-03,1.33E-02
2046,8.52E-03,1.31E-02
2047,8.53E-03,1.29E-02
2048,8.54E-03,1.27E-02
2049,8.54E-03,1.24E-02
2050,8.55E-03,1.22E-02
2051,8.56E-03,1.20E-02
2052,8.56E-03,1.18E-02
2053,8.57E-03,1.16E-02
2054,8.57E-03,1.13E-02
2055,8.58E-03,1.11E-02
2056,8.59E-03,1.09E-02
2057,8.59E-03,1.07E-02
2058,8.60E-03,1.05E-02
2059,8.50E-03,1.43E-02
2060,8.50E-03,1.41E-02
2061,8.51E-03,1.39E-02
2062,8.52E-03,1.37E-02
2063,8.52E-03,1.35E-02
2064,8.53E-03,1.33E-02
2065,8.54E-03,1.31E-02
2066,8.54E-03,1.28E-02
2067,8.55E-03,1.26E-02
2068,8.56E-03,1.24E-02
2069,8.56E-03,1.22E-02
2070,8.57E-03,1.20E-02
2071,8.57E-03,1.17E-02
2072,8.58E-03,1.15E-02
2073,8.59E-03,1.13E-02
2074,8.59E-03,1.11E-02
2075,8.60E-03,1.08E-02
2076,8.61E-03,1.06E-02
2077,8.61E-03,1.04E-02
2078,8.51E-03,1.42E-02
2079,8.52E-03,1.40E-02
2080,8.52E-03,1.38E-02
2081,8.53E-03,1.36E-02
2082,8.54E-03,1.34E-02
2083,8.54E-03,1.32E-02
2084,8.55E-03,1.30E-02
2085,8.56E-03,1.28E-02
2086,8.56E-03,1.26E-02
2087,8.57E-03,1.24E-02
2088,8.57E-03,1.22E-02
2089,8.58E-03,1.19E-02
2090,8.59E-03,1.17E-02
2091,8.59E-03,1.15E-02
2092,8.60E-03,1.13E-02
2093,8.61E-03,1.10E-02
2094,8.61E-03,1.08E-02
2095,8.62E-03,1.05E-02
2096,8.63E-03,1.03E-02
2097,8.52E-03,1.42E-02
2098,8.53E-03,1.40E-02
2099,8.54E-03,1.38E-02
2100,8.54E-03,1.36E-02
2101,8.55E-03,1.34E-02
2102,8.56E-03,1.32E-02
2103,8.56E-03,1.30E-02
2104,8.57E-03,1.28E-02
2105,8.57E-03,1.25E-02
2106,8.58E-03,1.23E-02
2107,8.59E-03,1.21E-02
2108,8.59E-03,1.19E-02
2109,8.60E-03,1.17E-02
2110,8.61E-03,1.15E-02
2111,8.61E-03,1.12E-02
2112,8.62E-03,1.10E-02
2113,8.63E-03,1.08E-02
2114,8.63E-03,1.05E-02
2115,8.64E-03,1.02E-02
2116,8.53E-03,1.41E-02
2117,8.54E-03,1.39E-02
2118,8.54E-03,1.37E-02
2119,8.55E-03,1.35E-02
2120,8.56E-03,1.33E-02
2121,8.56E-03,1.31E-02
2122,8.57E-03,1.29E-02
2123,8.58E-03,1.27E-02
2124,8.58E-03,1.25E-02
2125,8.59E-03,1.23E-02
2126,8.60E-03,1.21E-02
2127,8.60E-03,1.19E-02
2128,8.61E-03,1.16E-02
2129,8.62E-03,1.14E-02
2130,8.62E-03,1.12E-02
2131,8.63E-03,1.10E-02
2132,8.64E-03,1.07E-02
2133,8.64E-03,1.04E-02
2134,8.65E-03,1.01E-02
2135,8.54E-03,1.41E-02
2136,8.54E-03,1.39E-02
2137,8.55E-03,1.37E-02
2138,8.56E-03,1.35E-02
2139,8.56E-03,1.33E-02
2140,8.57E-03,1.31E-02
2141,8.58E-03,1.29E-02
2142,8.58E-03,1.27E-02
2143,8.59E-03,1.25E-02
2144,8.60E-03,1.23E-02
2145,8.60E-03,1.20E-02
2146,8.61E-03,1.18E-02
2147,8.62E-03,1.16E-02
2148,8.62E-03,1.14E-02
2149,8.63E-03,1.12E-02
2150,8.64E-03,1.09E-02
2151,8.64E-03,1.07E-02
2152,8.65E-03,1.04E-02
2153,8.66E-03,1.01E-02
2154,8.54E-03,1.40E-02
2155,8.55E-03,1.38E-02
2156,8.56E-03,1.37E-02
2157,8.56E-03,1.35E-02
2158,8.57E-03,1.33E-02
2159,8.58E-03,1.31E-02
2160,8.58E-03,1.28E-02
2161,8.59E-03,1.26E-02
2162,8.60E-03,1.24E-02
2163,8.60E-03,1.22E-02
2164,8.61E-03,1.20E-02
2165,8.62E-03,1.18E-02
2166,8.62E-03,1.16E-02
2167,8.63E-03,1.14E-02
2168,8.64E-03,1.11E-02
2169,8.64E-03,1.09E-02
2170,8.65E-03,1.06E-02
2171,8.66E-03,1.04E-02
2172,8.66E-03,1.01E-02
2173,8.55E-03,1.40E-02
2174,8.55E-03,1.38E-02
2175,8.56E-03,1.36E-02
2176,8.57E-03,1.34E-02
2177,8.57E-03,1.32E-02
2178,8.58E-03,1.30E-02
2179,8.59E-03,1.28E-02
2180,8.59E-03,1.26E-02
2181,8.60E-03,1.24E-02
2182,8.61E-03,1.22E-02
2183,8.61E-03,1.20E-02
2184,8.62E-03,1.18E-02
2185,8.63E-03,1.15E-02
2186,8.63E-03,1.13E-02
2187,8.64E-03,1.11E-02
2188,8.65E-03,1.09E-02
2189,8.65E-03,1.06E-02
2190,8.66E-03,1.03E-02
2191,8.67E-03,1.01E-02
2192,8.55E-03,1.39E-02
2193,8.56E-03,1.38E-02
2194,8.56E-03,1.36E-02
2195,8.57E-03,1.34E-02
2196,8.58E-03,1.32E-02
2197,8.58E-03,1.30E-02
2198,8.59E-03,1.28E-02
2199,8.60E-03,1.26E-02
2200,8.60E-03,1.24E-02
2201,8.61E-03,1.21E-02
2202,8.62E-03,1.19E-02
2203,8.62E-03,1.17E-02
2204,8.63E-03,1.15E-02
2205,8.64E-03,1.13E-02
2206,8.64E-03,1.11E-02
2207,8.65E-03,1.08E-02
2208,8.66E-03,1.06E-02
2209,8.66E-03,1.03E-02
2210,8.67E-03,1.00E-02
2211,8.55E-03,1.39E-02
2212,8.56E-03,1.37E-02
2213,8.57E-03,1.35E-02
2214,8.57E-03,1.33E-02
2215,8.58E-03,1.31E-02
2216,8.59E-03,1.29E-02
2217,8.59E-03,1.27E-02
2218,8.60E-03,1.25E-02
2219,8.61E-03,1.23E-02
2220,8.61E-03,1.21E-02
2221,8.62E-03,1.19E-02
2222,8.63E-03,1.17E-02
2223,8.63E-03,1.15E-02
2224,8.64E-03,1.13E-02
2225,8.65E-03,1.10E-02
2226,8.65E-03,1.08E-02
2227,8.66E-03,1.05E-02
2228,8.67E-03,1.03E-02
2229,8.67E-03,1.00E-02
2230,8.55E-03,1.39E-02
2231,8.56E-03,1.37E-02
2232,8.57E-03,1.35E-02
2233,8.57E-03,1.33E-02
2234,8.58E-03,1.31E-02
2235,8.59E-03,1.29E-02
2236,8.59E-03,1.27E-02
2237,8.60E-03,1.25E-02
2238,8.61E-03,1.23E-02
2239,8.61E-03,1.21E-02
2240,8.62E-03,1.19E-02
2241,8.63E-03,1.17E-02
2242,8.63E-03,1.14E-02
2243,8.64E-03,1.12E-02
2244,8.65E-03,1.10E-02
2245,8.65E-03,1.08E-02
2246,8.66E-03,1.05E-02
2247,8.67E-03,1.03E-02
2248,8.67E-03,1.00E-02
2249,8.56E-03,1.38E-02
2250,8.56E-03,1.36E-02
2251,8.57E-03,1.34E-02
2252,8.58E-03,1.32E-02
2253,8.58E-03,1.31E-02
2254,8.59E-03,1.29E-02
2255,8.60E-03,1.27E-02
2256,8.60E-03,1.24E-02
2257,8.61E-03,1.22E-02
2258,8.62E-03,1.20E-02
2259,8.62E-03,1.18E-02
2260,8.63E-03,1.16E-02
2261,8.64E-03,1.14E-02
2262,8.64E-03,1.12E-02
2263,8.65E-03,1.10E-02
2264,8.66E-03,1.07E-02
2265,8.66E-03,1.05E-02
2266,8.67E-03,1.03E-02
2267,8.68E-03,1.00E-02
2268,8.56E-03,1.38E-02
2269,8.56E-03,1.36E-02
2270,8.57E-03,1.34E-02
2271,8.58E-03,1.32E-02
2272,8.58E-03,1.30E-02
2273,8.59E-03,1.28E-02
2274,8.60E-03,1.26E-02
2275,8.60E-03,1.24E-02
2276,8.61E-03,1.22E-02
2277,8.62E-03,1.20E-02
2278,8.62E-03,1.18E-02
2279,8.63E-03,1.16E-02
2280,8.64E-03,1.14E-02
2281,8.64E-03,1.12E-02
2282,8.65E-03,1.09E-02
2283,8.66E-03,1.07E-02
2284,8.66E-03,1.05E-02
2285,8.67E-03,1.03E-02
2286,8.68E-03,1.00E-02
2287,8.56E-03,1.37E-02
2288,8.56E-03,1.36E-02
2289,8.57E-03,1.34E-02
2290,8.58E-03,1.32E-02
2291,8.58E-03,1.30E-02
2292,8.59E-03,1.28E-02
2293,8.60E-03,1.26E-02
2294,8.60E-03,1.24E-02
2295,8.61E-03,1.22E-02
2296,8.62E-03,1.20E-02
2297,8.62E-03,1.18E-02
2298,8.63E-03,1.15E-02
2299,8.64E-03,1.13E-02
2300,8.64E-03,1.11E-02
2301,8.65E-03,1.09E-02
2302,8.66E-03,1.07E-02
2303,8.66E-03,1.05E-02
2304,8.67E-03,1.02E-02
2305,8.68E-03,1.00E-02
2306,8.56E-03,1.37E-02
2307,8.56E-03,1.35E-02
2308,8.57E-03,1.33E-02
2309,8.58E-03,1.31E-02
2310,8.58E-03,1.29E-02
2311,8.59E-03,1.27E-02
2312,8.60E-03,1.25E-02
2313,8.60E-03,1.23E-02
2314,8.61E-03,1.21E-02
2315,8.62E-03,1.19E-02
2316,8.62E-03,1.17E-02
2317,8.63E-03,1.15E-02
2318,8.64E-03,1.13E-02
2319,8.64E-03,1.11E-02
2320,8.65E-03,1.09E-02
2321,8.66E-03,1.07E-02
2322,8.66E-03,1.04E-02
2323,8.67E-03,1.02E-02
2324,8.68E-03,1.00E-02
2325,8.56E-03,1.37E-02
2326,8.56E-03,1.35E-02
2327,8.57E-03,1.33E-02
2328,8.58E-03,1.31E-02
2329,8.58E-03,1.29E-02
2330,8.59E-03,1.27E-02
2331,8.60E-03,1.25E-02
2332,8.60E-03,1.23E-02
2333,8.61E-03,1.21E-02
2334,8.62E-03,1.19E-02
2335,8.62E-03,1.17E-02
2336,8.63E-03,1.15E-02
2337,8.64E-03,1.13E-02
2338,8.64E-03,1.11E-02
2339,8.65E-03,1.08E-02
2340,8.66E-03,1.06E-02
2341,8.66E-03,1.04E-02
2342,8.67E-03,1.02E-02
2343,8.68E-03,1.00E-02
2344,8.56E-03,1.36E-02
2345,8.56E-03,1.34E-02
2346,8.57E-03,1.33E-02
2347,8.58E-03,1.31E-02
2348,8.58E-03,1.29E-02
2349,8.59E-03,1.27E-02
2350,8.60E-03,1.25E-02
2351,8.60E-03,1.23E-02
2352,8.61E-03,1.21E-02
2353,8.61E-03,1.19E-02
2354,8.62E-03,1.17E-02
2355,8.63E-03,1.14E-02
2356,8.63E-03,1.12E-02
2357,8.64E-03,1.10E-02
2358,8.65E-03,1.08E-02
2359,8.65E-03,1.06E-02
2360,8.66E-03,1.04E-02
2361,8.67E-03,1.02E-02
2362,8.67E-03,9.98E-03
2363,8.55E-03,1.36E-02
2364,8.56E-03,1.34E-02
2365,8.57E-03,1.32E-02
2366,8.57E-03,1.30E-02
2367,8.58E-03,1.28E-02
2368,8.59E-03,1.26E-02
2369,8.59E-03,1.24E-02
2370,8.60E-03,1.22E-02
2371,8.61E-03,1.20E-02
2372,8.61E-03,1.18E-02
2373,8.62E-03,1.16E-02
2374,8.63E-03,1.14E-02
2375,8.63E-03,1.12E-02
2376,8.64E-03,1.10E-02
2377,8.65E-03,1.08E-02
2378,8.65E-03,1.06E-02
2379,8.66E-03,1.04E-02
2380,8.67E-03,1.02E-02
2381,8.67E-03,9.97E-03
2382,8.55E-03,1.36E-02
2383,8.56E-03,1.34E-02
2384,8.57E-03,1.32E-02
2385,8.57E-03,1.30E-02
2386,8.58E-03,1.28E-02
2387,8.59E-03,1.26E-02
2388,8.59E-03,1.24E-02
2389,8.60E-03,1.22E-02
2390,8.61E-03,1.20E-02
2391,8.61E-03,1.18E-02
2392,8.62E-03,1.16E-02
2393,8.63E-03,1.14E-02
2394,8.63E-03,1.12E-02
2395,8.64E-03,1.10E-02
2396,8.65E-03,1.08E-02
2397,8.65E-03,1.06E-02
2398,8.66E-03,1.04E-02
2399,8.67E-03,1.02E-02
2400,8.67E-03,9.96E-03
2401,8.55E-03,1.35E-02
2402,8.56E-03,1.33E-02
2403,8.56E-03,1.31E-02
2404,8.57E-03,1.29E-02
2405,8.58E-03,1.27E-02
2406,8.58E-03,1.26E-02
2407,8.59E-03,1.24E-02
2408,8.60E-03,1.22E-02
2409,8.60E-03,1.20E-02
2410,8.61E-03,1.18E-02
2411,8.62E-03,1.16E-02
2412,8.62E-03,1.14E-02
2413,8.63E-03,1.11E-02
2414,8.64E-03,1.09E-02
2415,8.64E-03,1.07E-02
2416,8.65E-03,1.05E-02
2417,8.66E-03,1.03E-02
2418,8.66E-03,1.01E-02
2419,8.67E-03,9.95E-03
2420,8.55E-03,1.35E-02
2421,8.56E-03,1.33E-02
2422,8.56E-03,1.31E-02
2423,8.57E-03,1.29E-02
2424,8.58E-03,1.27E-02
2425,8.58E-03,1.25E-02
2426,8.59E-03,1.23E-02
2427,8.60E-03,1.21E-02
2428,8.60E-03,1.19E-02
2429,8.61E-03,1.17E-02
2430,8.62E-03,1.15E-02
2431,8.62E-03,1.13E-02
2432,8.63E-03,1.11E-02
2433,8.64E-03,1.09E-02
2434,8.64E-03,1.07E-02
2435,8.65E-03,1.05E-02
2436,8.66E-03,1.03E-02
2437,8.66E-03,1.01E-02
2438,8.67E-03,9.93E-03
2439,8.55E-03,1.35E-02
2440,8.55E-03,1.33E-02
2441,8.56E-03,1.31E-02
2442,8.57E-03,1.29E-02
2443,8.57E-03,1.27E-02
2444,8.58E-03,1.25E-02
2445,8.59E-03,1.23E-02
2446,8.59E-03,1.21E-02
2447,8.60E-03,1.19E-02
2448,8.61E-03,1.17E-02
2449,8.61E-03,1.15E-02
2450,8.62E-03,1.13E-02
2451,8.63E-03,1.11E-02
2452,8.63E-03,1.09E-02
2453,8.64E-03,1.07E-02
2454,8.65E-03,1.05E-02
2455,8.65E-03,1.03E-02
2456,8.66E-03,1.01E-02
2457,8.67E-03,9.92E-03
2458,8.55E-03,1.34E-02
2459,8.55E-03,1.32E-02
2460,8.56E-03,1.30E-02
2461,8.57E-03,1.28E-02
2462,8.57E-03,1.26E-02
2463,8.58E-03,1.24E-02
2464,8.59E-03,1.22E-02
2465,8.59E-03,1.20E-02
2466,8.60E-03,1.18E-02
2467,8.60E-03,1.17E-02
2468,8.61E-03,1.15E-02
2469,8.62E-03,1.13E-02
2470,8.62E-03,1.11E-02
2471,8.63E-03,1.09E-02
2472,8.64E-03,1.07E-02
2473,8.64E-03,1.05E-02
2474,8.65E-03,1.03E-02
2475,8.66E-03,1.01E-02
2476,8.66E-03,9.90E-03
2477,8.54E-03,1.34E-02
2478,8.55E-03,1.32E-02
2479,8.56E-03,1.30E-02
2480,8.56E-03,1.28E-02
2481,8.57E-03,1.26E-02
2482,8.58E-03,1.24E-02
2483,8.58E-03,1.22E-02
2484,8.59E-03,1.20E-02
2485,8.60E-03,1.18E-02
2486,8.60E-03,1.16E-02
2487,8.61E-03,1.14E-02
2488,8.62E-03,1.12E-02
2489,8.62E-03,1.10E-02
2490,8.63E-03,1.08E-02
2491,8.64E-03,1.06E-02
2492,8.64E-03,1.05E-02
2493,8.65E-03,1.03E-02
2494,8.66E-03,1.01E-02
2495,8.66E-03,9.89E-03
2496,8.54E-03,1.34E-02
2497,8.55E-03,1.32E-02
2498,8.55E-03,1.30E-02
2499,8.56E-03,1.28E-02
2500,8.57E-03,1.26E-02
2501,8.57E-03,1.24E-02
2502,8.58E-03,1.22E-02
2503,8.59E-03,1.20E-02
2504,8.59E-03,1.18E-02
2505,8.60E-03,1.16E-02
2506,8.61E-03,1.14E-02
2507,8.61E-03,1.12E-02
2508,8.62E-03,1.10E-02
2509,8.63E-03,1.08E-02
2510,8.63E-03,1.06E-02
2511,8.64E-03,1.04E-02
2512,8.65E-03,1.02E-02
2513,8.65E-03,1.01E-02
2514,8.66E-03,9.88E-03
2515,8.54E-03,1.33E-02
2516,8.54E-03,1.31E-02
2517,8.55E-03,1.29E-02
2518,8.56E-03,1.27E-02
2519,8.56E-03,1.25E-02
2520,8.57E-03,1.23E-02
2521,8.58E-03,1.21E-02
2522,8.58E-03,1.19E-02
2523,8.59E-03,1.17E-02
2524,8.60E-03,1.16E-02
2525,8.60E-03,1.14E-02
2526,8.61E-03,1.12E-02
2527,8.62E-03,1.10E-02
2528,8.62E-03,1.08E-02
2529,8.63E-03,1.06E-02
2530,8.64E-03,1.04E-02
2531,8.64E-03,1.02E-02
2532,8.65E-03,1.00E-02
2533,8.66E-03,9.86E-03
2534,8.53E-03,1.33E-02
2535,8.54E-03,1.31E-02
2536,8.55E-03,1.29E-02
2537,8.55E-03,1.27E-02
2538,8.56E-03,1.25E-02
2539,8.57E-03,1.23E-02
2540,8.57E-03,1.21E-02
2541,8.58E-03,1.19E-02
2542,8.59E-03,1.17E-02
2543,8.59E-03,1.15E-02
2544,8.60E-03,1.13E-02
2545,8.61E-03,1.11E-02
2546,8.61E-03,1.09E-02
2547,8.62E-03,1.08E-02
2548,8.63E-03,1.06E-02
2549,8.63E-03,1.04E-02
2550,8.64E-03,1.02E-02
2551,8.65E-03,1.00E-02
2552,8.65E-03,9.85E-03
2553,8.53E-03,1.32E-02
2554,8.54E-03,1.31E-02
2555,8.55E-03,1.29E-02
2556,8.55E-03,1.27E-02
2557,8.56E-03,1.25E-02
2558,8.56E-03,1.23E-02
2559,8.57E-03,1.21E-02
2560,8.58E-03,1.19E-02
2561,8.58E-03,1.17E-02
2562,8.59E-03,1.15E-02
2563,8.60E-03,1.13E-02
2564,8.60E-03,1.11E-02
2565,8.61E-03,1.09E-02
2566,8.62E-03,1.07E-02
2567,8.62E-03,1.05E-02
2568,8.63E-03,1.04E-02
2569,8.64E-03,1.02E-02
2570,8.64E-03,1.00E-02
2571,8.65E-03,9.84E-03
2572,8.53E-03,1.32E-02
2573,8.54E-03,1.30E-02
2574,8.54E-03,1.28E-02
2575,8.55E-03,1.26E-02
2576,8.56E-03,1.24E-02
2577,8.56E-03,1.22E-02
2578,8.57E-03,1.20E-02
2579,8.58E-03,1.18E-02
2580,8.58E-03,1.16E-02
2581,8.59E-03,1.15E-02
2582,8.59E-03,1.13E-02
2583,8.60E-03,1.11E-02
2584,8.61E-03,1.09E-02
2585,8.62E-03,1.05E-02
2586,8.63E-03,1.03E-02
2587,8.63E-03,1.01E-02
2588,8.65E-03,9.85E-03
1,2.16E-03,1.00E-02
2,2.15E-03,1.08E-02
3,2.15E-03,1.07E-02
4,2.16E-03,1.00E-02
5,4.32E-03,9.96E-03
6,4.31E-03,1.07E-02
2595,4.04E-03,2.55E-02
2596,5.94E-03,2.57E-02
2597,4.53E-03,2.56E-02
2598,5.45E-03,2.56E-02
2599,3.91E-03,3.59E-02
2600,3.04E-03,3.58E-02
2601,5.60E-03,3.24E-02
2602,5.65E-03,3.14E-02
2603,4.58E-03,3.06E-02
2604,4.95E-03,3.22E-02
2605,3.80E-03,2.57E-02
2606,5.35E-03,2.58E-02
2607,3.52E-03,2.57E-02
2608,2.47E-03,2.56E-02
2609,1.61E-03,2.55E-02
2610,2.28E-03,2.53E-02
2611,3.19E-03,2.53E-02
2612,3.88E-03,2.58E-02
2613,4.50E-03,2.58E-02
2614,4.13E-03,2.59E-02
2615,3.18E-03,2.64E-02
2616,3.53E-03,2.73E-02
2617,3.15E-03,2.64E-02
2618,2.57E-03,2.54E-02
2619,2.79E-03,2.54E-02
2620,4.28E-03,2.54E-02
2621,4.35E-03,2.51E-02
2622,3.09E-03,2.53E-02
2623,3.69E-03,2.54E-02
2624,5.07E-03,3.00E-02
2625,5.31E-03,2.96E-02
2626,5.60E-03,3.05E-02
2627,5.70E-03,3.13E-02
2628,4.49E-03,3.53E-02
2629,5.23E-03,2.62E-02
2630,4.90E-03,2.63E-02
2631,5.68E-03,2.60E-02
2632,5.48E-03,2.59E-02
2633,5.89E-03,2.58E-02
2634,5.61E-03,2.61E-02
2635,6.00E-03,2.59E-02
2636,2.35E-03,2.86E-02
2637,2.30E-03,2.91E-02
2638,2.78E-03,2.92E-02
2639,4.90E-03,2.88E-02
2640,5.67E-03,2.72E-02
2641,5.00E-03,2.79E-02
2642,5.20E-03,2.82E-02
2643,5.37E-03,2.75E-02
2644,5.47E-03,2.72E-02
2645,5.42E-03,2.67E-02
2646,5.84E-03,2.69E-02
2647,5.38E-03,2.64E-02
2648,4.95E-03,2.66E-02
2649,5.53E-03,2.62E-02
2650,5.30E-03,2.61E-02
2651,5.62E-03,2.59E-02
2652,5.52E-03,2.64E-02
2653,4.81E-03,2.62E-02
2654,5.42E-03,2.68E-02
2655,5.85E-03,2.66E-02
2656,5.31E-03,2.70E-02
2657,4.92E-03,2.82E-02
2658,4.93E-03,2.95E-02
2659,5.63E-03,2.58E-02
2660,6.44E-03,2.58E-02
2661,6.35E-03,2.58E-02
2662,5.81E-03,2.62E-02
2663,5.30E-03,2.57E-02
2664,6.67E-03,2.60E-02
2665,4.91E-03,2.90E-02
2666,4.92E-03,2.92E-02
2667,5.30E-03,2.83E-02
2668,5.35E-03,2.86E-02
2669,5.45E-03,2.75E-02
2670,5.33E-03,2.79E-02
2671,5.21E-03,2.70E-02
2672,5.36E-03,2.72E-02
2673,5.48E-03,2.65E-02
2674,5.46E-03,2.67E-02
2675,5.62E-03,2.63E-02
2676,5.44E-03,2.60E-02
2677,5.68E-03,2.59E-02
2678,5.39E-03,2.62E-02
2679,5.38E-03,2.61E-02
2680,5.42E-03,2.63E-02
2681,5.43E-03,2.63E-02
2682,4.55E-03,2.57E-02
2683,3.60E-03,2.56E-02
2684,5.28E-03,2.64E-02
2685,5.07E-03,2.64E-02
2686,5.45E-03,2.93E-02
2687,4.12E-03,2.69E-02
2688,4.33E-03,2.78E-02
2689,4.19E-03,2.89E-02
2690,6.28E-03,2.95E-02
2691,5.35E-03,2.57E-02
2692,6.97E-03,2.58E-02
2693,2.79E-03,2.56E-02
2694,5.66E-03,3.04E-02
2695,5.21E-03,2.58E-02
2696,4.51E-03,2.57E-02
2697,3.56E-03,2.56E-02
2698,4.32E-03,2.56E-02
2699,5.26E-03,2.93E-02
2700,4.56E-03,2.94E-02
2701,6.20E-03,2.95E-02
2702,6.24E-03,2.93E-02
2703,5.24E-03,2.91E-02
2704,5.27E-03,2.93E-02
2705,5.30E-03,2.85E-02
2706,5.27E-03,2.88E-02
2707,5.36E-03,2.78E-02
2708,5.35E-03,2.81E-02
2709,5.30E-03,2.72E-02
2710,5.32E-03,2.75E-02
2711,5.58E-03,2.67E-02
2712,5.52E-03,2.69E-02
2713,5.85E-03,2.63E-02
2714,5.67E-03,2.65E-02
2715,6.23E-03,2.59E-02
2716,6.03E-03,2.61E-02
2717,4.70E-03,2.57E-02
2718,3.10E-03,2.57E-02
2719,5.79E-03,2.60E-02
2720,5.75E-03,2.59E-02
2721,5.48E-03,2.62E-02
2722,5.66E-03,2.61E-02
2723,5.45E-03,2.61E-02
2724,5.42E-03,2.62E-02
2725,5.33E-03,2.59E-02
2726,5.44E-03,2.60E-02
2727,4.87E-03,2.55E-02
2728,5.40E-03,2.58E-02
2729,4.55E-03,2.64E-02
2730,4.39E-03,2.53E-02
2731,5.24E-03,2.92E-02
2732,4.92E-03,2.78E-02
2733,5.52E-03,2.98E-02
2734,6.72E-03,3.16E-02
2735,6.90E-03,3.21E-02
2736,6.10E-03,3.25E-02
2737,5.88E-03,3.27E-02
2738,3.41E-03,2.55E-02
2739,3.53E-03,2.55E-02
2740,2.67E-03,2.53E-02
2741,3.92E-03,2.54E-02
2742,5.29E-03,3.25E-02
2743,4.96E-03,3.27E-02
2744,4.87E-03,2.55E-02
2745,4.03E-03,2.55E-02
2746,6.72E-03,3.11E-02
2747,6.10E-03,3.19E-02
2748,4.63E-03,2.98E-02
2749,5.66E-03,3.04E-02
2750,5.27E-03,2.93E-02
2751,4.73E-03,2.93E-02
2752,5.65E-03,2.94E-02
2753,5.60E-03,2.93E-02
2754,5.36E-03,2.91E-02
2755,5.57E-03,2.93E-02
2756,5.35E-03,2.86E-02
2757,5.32E-03,2.89E-02
2758,5.38E-03,2.80E-02
2759,5.39E-03,2.83E-02
2760,5.40E-03,2.74E-02
2761,5.36E-03,2.77E-02
2762,5.57E-03,2.68E-02
2763,5.45E-03,2.71E-02
2764,5.69E-03,2.64E-02
2765,5.63E-03,2.66E-02
2766,5.47E-03,2.60E-02
2767,5.71E-03,2.62E-02
2768,3.77E-03,2.55E-02
2769,3.62E-03,2.51E-02
2770,4.41E-03,2.51E-02
2771,5.08E-03,2.58E-02
2772,4.72E-03,2.55E-02
2773,5.52E-03,2.64E-02
2774,5.38E-03,2.62E-02
2775,5.49E-03,2.65E-02
2776,5.54E-03,2.65E-02
2777,5.47E-03,2.61E-02
2778,5.48E-03,2.63E-02
2779,5.37E-03,2.56E-02
2780,5.43E-03,2.59E-02
2781,5.02E-03,2.47E-02
2782,5.24E-03,2.52E-02
2783,4.75E-03,2.34E-02
2784,4.81E-03,2.41E-02
2785,4.91E-03,2.36E-02
2786,4.94E-03,2.30E-02
2787,5.16E-03,2.76E-02
2788,4.97E-03,2.54E-02
2789,5.62E-03,3.30E-02
2790,5.37E-03,3.04E-02
2791,6.02E-03,3.44E-02
2792,5.82E-03,3.42E-02
2793,6.06E-03,3.32E-02
2794,6.10E-03,3.39E-02
2795,6.24E-03,3.22E-02
2796,4.99E-03,3.28E-02
2797,4.81E-03,2.59E-02
2798,5.69E-03,3.29E-02
2799,5.36E-03,3.18E-02
2800,2.93E-03,2.55E-02
2801,4.17E-03,2.50E-02
2802,4.19E-03,2.57E-02
2803,2.86E-03,2.54E-02
2804,6.67E-03,3.28E-02
2805,6.81E-03,3.33E-02
2806,5.83E-03,3.43E-02
2807,5.13E-03,3.50E-02
2808,3.86E-03,3.55E-02
2809,4.06E-03,2.54E-02
2810,3.85E-03,2.53E-02
2811,2.69E-03,2.54E-02
2812,3.54E-03,2.54E-02
2813,2.69E-03,2.54E-02
2814,3.24E-03,2.52E-02
2815,3.32E-03,2.50E-02
2816,3.76E-03,2.50E-02
2817,3.97E-03,3.56E-02
2818,4.53E-03,3.51E-02
2819,5.13E-03,3.44E-02
2820,5.78E-03,3.39E-02
2821,6.22E-03,3.35E-02
2822,6.25E-03,3.35E-02
2823,5.91E-03,3.32E-02
2824,5.76E-03,3.30E-02
2825,5.73E-03,3.27E-02
2826,5.61E-03,3.22E-02
2827,5.92E-03,3.15E-02
2828,5.99E-03,3.08E-02
2829,5.60E-03,3.02E-02
2830,5.14E-03,2.97E-02
2831,5.00E-03,2.94E-02
2832,5.20E-03,2.93E-02
2833,5.46E-03,2.93E-02
2834,5.56E-03,2.93E-02
2835,5.54E-03,2.92E-02
2836,5.48E-03,2.91E-02
2837,5.44E-03,2.89E-02
2838,5.44E-03,2.86E-02
2839,5.46E-03,2.84E-02
2840,5.45E-03,2.81E-02
2841,5.39E-03,2.78E-02
2842,5.43E-03,2.75E-02
2843,5.44E-03,2.72E-02
2844,5.51E-03,2.70E-02
2845,5.54E-03,2.67E-02
2846,5.56E-03,2.65E-02
2847,5.51E-03,2.63E-02
2848,5.30E-03,2.61E-02
2849,4.83E-03,2.60E-02
2850,4.31E-03,2.58E-02
2851,4.96E-03,2.48E-02
2852,4.75E-03,2.47E-02
2853,4.95E-03,2.49E-02
2854,5.16E-03,2.57E-02
2855,5.29E-03,2.67E-02
2856,5.35E-03,2.72E-02
2857,5.39E-03,2.72E-02
2858,5.46E-03,2.69E-02
2859,5.51E-03,2.66E-02
2860,5.49E-03,2.62E-02
2861,5.46E-03,2.58E-02
2862,5.44E-03,2.53E-02
2863,5.36E-03,2.48E-02
2864,5.16E-03,2.40E-02
2865,4.97E-03,2.30E-02
2866,4.99E-03,2.17E-02
2867,5.24E-03,2.02E-02
2868,5.98E-03,1.92E-02
2869,6.43E-03,2.03E-02
2870,5.73E-03,2.48E-02
2871,4.95E-03,3.21E-02
2872,5.09E-03,3.80E-02
2873,5.39E-03,3.98E-02
2874,5.70E-03,3.87E-02
2875,5.89E-03,3.64E-02
2876,5.93E-03,3.39E-02
2877,5.83E-03,3.14E-02
2878,5.19E-03,2.93E-02
2879,4.24E-03,2.80E-02
2880,4.33E-03,2.92E-02
2881,5.77E-03,3.18E-02
2882,7.02E-03,3.38E-02
2883,5.79E-03,3.57E-02
2884,5.10E-03,3.62E-02
2885,4.54E-03,3.55E-02
2886,3.93E-03,3.48E-02
2887,3.08E-03,3.53E-02
2888,3.63E-03,3.70E-02
2889,5.82E-03,3.67E-02
2890,6.02E-03,3.84E-02
2891,2.31E-03,2.55E-02
2892,3.07E-03,2.55E-02
2893,3.27E-03,2.56E-02
2894,3.69E-03,2.56E-02
2895,3.87E-03,2.56E-02
2896,4.33E-03,3.83E-02
2897,2.39E-03,2.49E-02
2898,2.16E-03,2.49E-02
2899,1.56E-03,2.49E-02
2900,2.69E-03,3.73E-02
2589,9.26E-04,3.73E-02
2590,1.78E-03,3.02E-02
2591,2.76E-03,3.26E-02
2592,1.82E-03,2.99E-02
2593,3.06E-03,2.78E-02
2594,2.55E-03,2.65E-02
2936,4.38E-03,9.04E-03
2937,5.76E-03,9.78E-03
2938,5.78E-03,9.68E-03
2939,5.53E-03,8.19E-03
2940,5.59E-03,8.19E-03
2941,5.37E-03,7.99E-03
2942,5.32E-03,7.99E-03
2943,4.98E-03,8.32E-03
2944,4.80E-03,8.13E-03
2945,7.51E-03,9.19E-03
2946,7.70E-03,9.40E-03
2947,7.36E-03,9.42E-03
2948,6.17E-03,9.22E-03
2949,6.32E-03,8.91E-03
2950,5.80E-03,8.60E-03
2951,6.34E-03,8.64E-03
2952,6.28E-03,8.65E-03
2953,5.79E-03,8.45E-03
2954,4.85E-03,8.81E-03
2955,5.64E-03,9.64E-03
2956,5.71E-03,9.74E-03
2957,5.76E-03,9.84E-03
2958,5.75E-03,9.95E-03
2959,6.33E-03,1.19E-02
2960,5.89E-03,1.18E-02
2961,4.94E-03,1.20E-02
2962,5.43E-03,7.93E-03
2963,5.39E-03,8.11E-03
2964,5.45E-03,8.29E-03
2965,5.50E-03,8.11E-03
2966,4.53E-03,1.13E-02
2967,3.65E-03,1.13E-02
2968,3.60E-03,1.29E-02
2969,5.96E-03,1.28E-02
2970,5.76E-03,1.19E-02
2971,5.65E-03,1.20E-02
2972,5.30E-03,1.30E-02
2973,5.70E-03,1.30E-02
2974,8.03E-03,1.28E-02
2975,5.36E-03,8.49E-03
2976,5.35E-03,8.30E-03
2977,7.19E-03,6.81E-03
2978,4.88E-03,6.63E-03
2979,4.25E-03,6.73E-03
2980,5.62E-03,6.91E-03
2981,6.76E-03,1.05E-02
2982,7.03E-03,1.05E-02
2983,7.01E-03,1.05E-02
2984,4.04E-03,1.04E-02
2985,6.54E-03,1.05E-02
2986,5.32E-03,9.75E-03
2987,5.58E-03,7.79E-03
2988,5.36E-03,7.68E-03
2989,7.40E-03,7.98E-03
2990,6.26E-03,8.43E-03
2991,5.82E-03,8.44E-03
2992,6.00E-03,8.43E-03
2993,5.82E-03,8.29E-03
2994,6.12E-03,8.30E-03
2995,7.63E-03,1.08E-02
2996,7.20E-03,1.07E-02
2997,6.85E-03,1.07E-02
2998,5.51E-03,8.23E-03
2999,5.60E-03,8.25E-03
3000,6.87E-03,8.30E-03
3001,5.80E-03,8.33E-03
3002,4.53E-03,8.19E-03
3003,5.92E-03,1.06E-02
3004,5.08E-03,1.04E-02
3005,7.23E-03,6.75E-03
3006,6.19E-03,1.03E-02
3007,5.92E-03,1.05E-02
3008,8.77E-03,1.03E-02
3009,7.27E-03,1.03E-02
3010,6.31E-03,1.14E-02
3011,4.27E-03,1.13E-02
3012,8.39E-03,1.13E-02
3013,8.02E-03,1.11E-02
3014,3.53E-03,1.02E-02
3015,3.30E-03,1.02E-02
3016,3.92E-03,1.03E-02
3017,4.13E-03,8.28E-03
3018,4.07E-03,8.11E-03
3019,3.71E-03,9.11E-03
3020,3.84E-03,8.96E-03
3021,4.21E-03,9.06E-03
3022,4.83E-03,8.41E-03
3023,5.02E-03,8.41E-03
3024,5.18E-03,8.58E-03
3025,4.97E-03,8.57E-03
3026,5.93E-03,1.18E-02
3027,5.92E-03,1.19E-02
3028,6.18E-03,1.20E-02
3029,6.38E-03,1.20E-02
3030,4.61E-03,1.07E-02
3031,7.09E-03,1.06E-02
3032,5.60E-03,1.06E-02
3033,4.47E-03,6.46E-03
3034,5.08E-03,6.48E-03
3035,5.72E-03,1.05E-02
3036,7.10E-03,1.04E-02
3037,5.47E-03,1.07E-02
3038,7.49E-03,1.04E-02
3039,6.55E-03,1.03E-02
3040,6.48E-03,1.02E-02
3041,5.47E-03,8.42E-03
3042,5.53E-03,8.42E-03
3043,5.36E-03,8.23E-03
3044,5.46E-03,8.24E-03
3045,5.44E-03,9.95E-03
3046,5.45E-03,9.85E-03
3047,6.38E-03,1.00E-02
3048,5.00E-03,9.94E-03
3049,5.57E-03,8.10E-03
3050,5.38E-03,8.09E-03
3051,5.63E-03,8.32E-03
3052,5.80E-03,8.32E-03
3053,5.48E-03,7.20E-03
3054,5.46E-03,7.37E-03
3055,5.47E-03,7.36E-03
3056,5.46E-03,7.53E-03
3057,5.45E-03,6.82E-03
3058,7.63E-03,7.01E-03
3059,7.53E-03,6.99E-03
3060,5.19E-03,7.19E-03
3061,6.31E-03,1.26E-02
3062,5.62E-03,1.28E-02
3063,6.59E-03,1.25E-02
3064,6.30E-03,1.26E-02
3065,7.36E-03,8.06E-03
3066,5.17E-03,7.95E-03
3067,7.16E-03,8.24E-03
3068,4.72E-03,8.31E-03
3069,5.61E-03,9.82E-03
3070,5.59E-03,1.00E-02
3071,7.01E-03,1.04E-02
3072,7.79E-03,1.05E-02
3073,5.61E-03,9.80E-03
3074,5.14E-03,8.61E-03
3075,4.97E-03,8.83E-03
3076,5.65E-03,9.63E-03
3077,5.33E-03,9.00E-03
3078,5.35E-03,8.81E-03
3079,5.77E-03,8.37E-03
3080,5.80E-03,8.17E-03
3081,5.84E-03,8.48E-03
3082,5.89E-03,8.50E-03
3083,5.64E-03,8.18E-03
3084,5.60E-03,8.19E-03
3085,5.21E-03,9.09E-03
3086,5.25E-03,9.29E-03
3087,5.21E-03,9.27E-03
3088,5.03E-03,9.08E-03
3089,4.76E-03,8.90E-03
3090,5.33E-03,8.87E-03
3091,4.77E-03,8.50E-03
3092,4.94E-03,8.64E-03
3093,5.14E-03,8.55E-03
3094,4.99E-03,8.42E-03
3095,4.86E-03,8.34E-03
3096,6.18E-03,8.37E-03
3097,6.48E-03,8.38E-03
3098,5.39E-03,7.57E-03
3099,5.40E-03,7.56E-03
3100,5.39E-03,9.91E-03
3101,6.21E-03,9.96E-03
3102,6.56E-03,1.00E-02
3103,5.29E-03,8.33E-03
3104,5.27E-03,8.33E-03
3105,6.61E-03,1.12E-02
3106,6.78E-03,1.11E-02
3107,4.58E-03,1.02E-02
3108,4.64E-03,1.01E-02
3109,4.66E-03,1.01E-02
3110,4.63E-03,9.15E-03
3111,4.79E-03,9.20E-03
3112,5.68E-03,7.10E-03
3113,5.82E-03,7.32E-03
3114,5.82E-03,9.45E-03
3115,5.97E-03,9.51E-03
3116,5.34E-03,8.43E-03
3117,5.43E-03,8.42E-03
3118,4.83E-03,6.57E-03
3119,4.47E-03,6.57E-03
3120,5.24E-03,6.47E-03
3121,5.33E-03,6.48E-03
3122,5.76E-03,5.99E-03
3123,5.04E-03,6.22E-03
3124,6.10E-03,1.20E-02
3125,5.84E-03,1.19E-02
3126,6.52E-03,1.22E-02
3127,6.04E-03,1.21E-02
3128,4.61E-03,8.94E-03
3129,6.22E-03,9.22E-03
3130,5.26E-03,9.24E-03
3131,4.61E-03,8.57E-03
3132,4.96E-03,8.79E-03
3133,3.91E-03,8.81E-03
3134,4.25E-03,8.63E-03
3135,4.55E-03,9.92E-03
3136,3.83E-03,9.89E-03
3137,3.29E-03,9.82E-03
3138,4.48E-03,9.73E-03
3139,1.88E-03,9.47E-03
3140,2.29E-03,9.45E-03
3141,2.84E-03,9.37E-03
3142,1.99E-03,9.76E-03
3143,2.71E-03,9.75E-03
3144,2.67E-03,9.69E-03
3145,2.96E-03,8.31E-03
3146,3.68E-03,8.22E-03
3147,3.66E-03,8.15E-03
3148,2.40E-03,1.02E-02
3149,3.09E-03,1.02E-02
3150,3.56E-03,1.01E-02
3151,5.42E-03,8.44E-03
3152,5.86E-03,8.16E-03
3153,5.09E-03,8.64E-03
3154,4.86E-03,8.67E-03
3155,5.19E-03,8.60E-03
3156,5.13E-03,8.84E-03
3157,4.72E-03,8.70E-03
3158,3.76E-03,8.88E-03
3159,4.15E-03,8.85E-03
3160,4.94E-03,8.36E-03
3161,6.25E-03,8.17E-03
3162,5.62E-03,8.40E-03
3163,5.62E-03,8.41E-03
3164,5.57E-03,8.21E-03
3165,5.69E-03,8.86E-03
3166,5.17E-03,8.79E-03
3167,5.14E-03,8.82E-03
3168,5.13E-03,8.74E-03
3169,5.20E-03,8.76E-03
3170,5.03E-03,8.71E-03
3171,5.73E-03,8.37E-03
3172,5.72E-03,8.39E-03
3173,5.81E-03,8.36E-03
3174,5.27E-03,8.58E-03
3175,5.25E-03,8.55E-03
3176,5.68E-03,8.43E-03
3177,5.79E-03,8.46E-03
3178,5.76E-03,8.44E-03
3179,5.96E-03,8.52E-03
3180,6.26E-03,8.53E-03
3181,5.15E-03,8.50E-03
3182,5.91E-03,8.57E-03
3183,5.16E-03,8.53E-03
3184,4.14E-03,8.73E-03
3185,5.76E-03,8.17E-03
3186,5.36E-03,8.39E-03
3187,5.26E-03,8.42E-03
3188,5.97E-03,7.97E-03
3189,6.46E-03,7.98E-03
3190,5.45E-03,9.93E-03
3191,4.95E-03,8.98E-03
3192,5.19E-03,8.43E-03
3193,4.49E-03,8.48E-03
3194,4.11E-03,8.43E-03
3195,5.65E-03,8.22E-03
3196,5.42E-03,8.36E-03
3197,5.21E-03,8.46E-03
3198,5.34E-03,1.08E-02
3199,5.33E-03,1.06E-02
3200,5.36E-03,1.08E-02
3201,5.48E-03,1.07E-02
3202,5.26E-03,1.08E-02
3203,5.94E-03,7.96E-03
3204,5.99E-03,1.03E-02
3205,6.72E-03,1.03E-02
3206,5.28E-03,1.01E-02
3207,5.53E-03,1.01E-02
3208,5.49E-03,9.37E-03
3209,5.05E-03,9.36E-03
3210,5.70E-03,9.40E-03
3211,5.60E-03,9.42E-03
3212,5.91E-03,9.58E-03
3213,5.55E-03,9.59E-03
3214,5.54E-03,7.99E-03
3215,5.49E-03,8.00E-03
3216,7.15E-03,8.23E-03
3217,7.18E-03,7.97E-03
3218,5.89E-03,9.56E-03
3219,4.43E-03,8.62E-03
3220,3.03E-03,8.47E-03
3221,5.47E-03,8.42E-03
3222,5.63E-03,8.41E-03
3223,5.51E-03,8.61E-03
3224,3.38E-03,8.55E-03
3225,3.72E-03,8.39E-03
3226,4.09E-03,8.30E-03
3227,3.41E-03,8.45E-03
3228,3.71E-03,8.40E-03
3229,6.75E-03,1.06E-02
3230,5.41E-03,1.07E-02
3231,5.68E-03,1.01E-02
3232,5.72E-03,1.01E-02
3233,5.81E-03,1.02E-02
3234,5.88E-03,1.02E-02
3235,5.78E-03,1.02E-02
3236,5.74E-03,1.01E-02
3237,5.68E-03,9.96E-03
3238,5.63E-03,9.92E-03
3239,5.56E-03,9.87E-03
3240,5.63E-03,1.00E-02
3241,5.64E-03,1.01E-02
3242,5.54E-03,9.97E-03
3243,5.31E-03,9.88E-03
3244,5.54E-03,9.83E-03
3245,5.72E-03,9.80E-03
3246,5.94E-03,9.73E-03
3247,5.83E-03,9.57E-03
3248,6.01E-03,9.63E-03
3249,5.09E-03,9.50E-03
3250,5.46E-03,9.44E-03
3251,5.22E-03,9.46E-03
3252,3.76E-03,9.54E-03
3253,5.70E-03,9.26E-03
3254,5.78E-03,9.31E-03
3255,5.75E-03,9.23E-03
3256,5.81E-03,9.20E-03
3257,5.65E-03,9.12E-03
3258,5.76E-03,9.16E-03
3259,7.09E-03,9.08E-03
3260,4.69E-03,9.04E-03
3261,5.00E-03,9.02E-03
3262,5.05E-03,9.02E-03
3263,5.25E-03,8.97E-03
3264,5.21E-03,9.00E-03
3265,5.23E-03,8.92E-03
3266,5.24E-03,8.95E-03
3267,4.92E-03,8.88E-03
3268,5.17E-03,8.90E-03
3269,6.17E-03,8.76E-03
3270,5.59E-03,8.78E-03
3271,5.84E-03,8.71E-03
3272,5.93E-03,8.73E-03
3273,5.75E-03,8.67E-03
3274,5.78E-03,8.69E-03
3275,5.67E-03,8.63E-03
3276,5.72E-03,8.65E-03
3277,5.69E-03,8.60E-03
3278,5.65E-03,8.62E-03
3279,5.78E-03,8.57E-03
3280,5.74E-03,8.59E-03
3281,5.80E-03,8.56E-03
3282,5.83E-03,8.56E-03
3283,6.11E-03,8.48E-03
3284,5.09E-03,8.56E-03
3285,7.02E-03,8.21E-03
3286,6.49E-03,8.20E-03
3287,6.23E-03,8.42E-03
3288,6.59E-03,8.44E-03
3289,5.77E-03,8.41E-03
3290,5.95E-03,8.41E-03
3291,4.90E-03,8.41E-03
3292,4.53E-03,8.39E-03
3293,4.80E-03,8.40E-03
3294,4.31E-03,8.45E-03
3295,4.74E-03,8.33E-03
3296,5.23E-03,8.35E-03
3297,4.74E-03,8.27E-03
3298,4.50E-03,8.26E-03
3299,5.33E-03,8.26E-03
3300,5.37E-03,8.29E-03
3301,4.93E-03,8.23E-03
3302,4.82E-03,8.23E-03
3303,5.82E-03,8.25E-03
3304,5.20E-03,8.23E-03
3305,5.73E-03,8.23E-03
3306,6.06E-03,8.25E-03
3307,5.88E-03,8.22E-03
3308,5.72E-03,8.22E-03
3309,6.10E-03,8.21E-03
3310,5.80E-03,8.25E-03
3311,5.71E-03,8.23E-03
3312,5.90E-03,8.28E-03
3313,5.87E-03,8.26E-03
3314,5.94E-03,8.31E-03
3315,5.96E-03,8.30E-03
3316,5.66E-03,8.34E-03
3317,5.82E-03,8.35E-03
3318,5.40E-03,8.34E-03
3319,5.93E-03,8.64E-03
3320,5.18E-03,8.50E-03
3321,6.01E-03,8.58E-03
3322,5.36E-03,8.74E-03
3323,5.50E-03,8.68E-03
3324,6.63E-03,8.89E-03
3325,5.82E-03,8.82E-03
3326,5.44E-03,8.92E-03
3327,6.53E-03,8.93E-03
3328,5.74E-03,9.02E-03
3329,5.72E-03,8.97E-03
3330,5.88E-03,9.10E-03
3331,5.79E-03,9.06E-03
3332,6.22E-03,9.18E-03
3333,6.26E-03,9.15E-03
3334,5.66E-03,9.23E-03
3335,5.72E-03,9.21E-03
3336,5.53E-03,9.29E-03
3337,5.65E-03,9.26E-03
3338,5.65E-03,9.38E-03
3339,5.50E-03,9.33E-03
3340,6.46E-03,9.47E-03
3341,5.91E-03,9.43E-03
3342,5.95E-03,9.70E-03
3343,6.13E-03,9.53E-03
3344,6.25E-03,9.53E-03
3345,5.92E-03,9.61E-03
3346,6.29E-03,9.60E-03
3347,5.72E-03,9.68E-03
3348,6.34E-03,9.64E-03
3349,5.53E-03,9.77E-03
3350,5.55E-03,9.72E-03
3351,5.54E-03,9.82E-03
3352,5.74E-03,1.00E-02
3353,5.40E-03,1.04E-02
3354,5.66E-03,1.04E-02
3355,5.80E-03,1.02E-02
3356,6.18E-03,1.02E-02
3357,5.32E-03,1.04E-02
3358,5.18E-03,1.04E-02
3359,5.63E-03,1.03E-02
3360,5.63E-03,1.03E-02
3361,4.81E-03,1.04E-02
3362,4.97E-03,1.04E-02
3363,4.40E-03,1.03E-02
3364,3.97E-03,1.06E-02
3365,4.24E-03,1.06E-02
3366,5.58E-03,1.04E-02
3367,6.20E-03,1.04E-02
3368,5.24E-03,1.06E-02
3369,5.65E-03,1.07E-02
3370,6.70E-03,1.08E-02
3371,7.00E-03,1.09E-02
3372,6.44E-03,1.09E-02
3373,6.36E-03,1.09E-02
3374,4.55E-03,1.11E-02
3375,3.94E-03,1.09E-02
3376,5.64E-03,1.10E-02
3377,3.09E-03,9.73E-03
3378,5.57E-03,7.98E-03
3379,5.67E-03,7.97E-03
3380,5.40E-03,9.94E-03
3381,4.46E-03,9.98E-03
3382,5.06E-03,1.09E-02
3383,5.89E-03,9.77E-03
3384,4.66E-03,9.63E-03
3385,5.29E-03,9.59E-03
3386,4.85E-03,9.10E-03
3387,5.65E-03,8.61E-03
3388,5.23E-03,8.62E-03
3389,4.42E-03,8.57E-03
3390,4.79E-03,8.62E-03
3391,5.41E-03,8.38E-03
3392,5.31E-03,8.40E-03
3393,4.87E-03,8.42E-03
3394,5.22E-03,8.42E-03
3395,5.99E-03,8.32E-03
3396,6.31E-03,8.01E-03
3397,5.58E-03,8.01E-03
3398,5.51E-03,8.20E-03
3399,5.56E-03,8.17E-03
3400,5.37E-03,8.23E-03
3401,5.64E-03,9.77E-03
3402,5.56E-03,9.72E-03
3403,5.63E-03,9.81E-03
3404,5.59E-03,9.90E-03
3405,6.17E-03,1.07E-02
3406,5.89E-03,1.06E-02
3407,6.32E-03,1.07E-02
3408,5.95E-03,7.77E-03
3409,5.89E-03,7.76E-03
3410,6.19E-03,7.77E-03
3411,5.07E-03,1.10E-02
3412,5.32E-03,1.09E-02
3413,5.22E-03,9.84E-03
3414,4.36E-03,9.61E-03
3415,4.49E-03,8.69E-03
3416,4.96E-03,8.56E-03
3417,5.15E-03,1.09E-02
3418,5.26E-03,1.11E-02
3419,5.74E-03,1.11E-02
3420,4.66E-03,1.12E-02
3421,5.06E-03,1.06E-02
3422,3.57E-03,1.07E-02
3423,4.71E-03,1.07E-02
3424,2.79E-03,9.83E-03
3425,5.37E-03,9.75E-03
3426,6.00E-03,9.76E-03
3427,5.51E-03,7.77E-03
3428,5.50E-03,7.78E-03
3429,5.46E-03,7.79E-03
3430,4.73E-03,8.77E-03
3431,6.35E-03,1.10E-02
3432,6.28E-03,1.11E-02
3433,5.31E-03,1.10E-02
3434,6.77E-03,1.10E-02
3435,3.74E-03,1.10E-02
3436,5.57E-03,1.09E-02
3437,7.16E-03,1.07E-02
3438,5.96E-03,1.08E-02
3439,6.51E-03,1.06E-02
3440,6.32E-03,1.07E-02
3441,6.90E-03,1.06E-02
3442,6.87E-03,1.06E-02
3443,6.41E-03,1.05E-02
3444,5.66E-03,1.06E-02
3445,5.76E-03,1.06E-02
3446,5.81E-03,1.05E-02
3447,5.63E-03,1.05E-02
3448,6.00E-03,1.04E-02
3449,5.95E-03,1.04E-02
3450,5.86E-03,1.03E-02
3451,6.03E-03,1.04E-02
3452,5.75E-03,1.03E-02
3453,5.79E-03,1.03E-02
3454,5.58E-03,1.02E-02
3455,5.69E-03,1.02E-02
3456,5.46E-03,1.01E-02
3457,5.54E-03,1.01E-02
3458,5.48E-03,9.99E-03
3459,5.39E-03,1.00E-02
3460,4.88E-03,9.91E-03
3461,4.85E-03,9.98E-03
3462,4.63E-03,9.88E-03
3463,4.85E-03,9.81E-03
3464,4.92E-03,9.60E-03
3465,5.49E-03,9.43E-03
3466,5.05E-03,9.45E-03
3467,5.76E-03,9.38E-03
3468,5.70E-03,9.41E-03
3469,5.85E-03,9.28E-03
3470,5.98E-03,9.34E-03
3471,4.99E-03,9.30E-03
3472,5.23E-03,9.24E-03
3473,5.28E-03,9.19E-03
3474,5.35E-03,9.21E-03
3475,5.29E-03,9.15E-03
3476,5.25E-03,9.17E-03
3477,5.33E-03,9.10E-03
3478,5.29E-03,9.13E-03
3479,5.42E-03,9.03E-03
3480,5.30E-03,9.08E-03
3481,5.67E-03,8.97E-03
3482,5.45E-03,8.98E-03
3483,5.65E-03,8.92E-03
3484,5.72E-03,8.94E-03
3485,5.61E-03,8.88E-03
3486,5.64E-03,8.90E-03
3487,5.69E-03,8.83E-03
3488,5.71E-03,8.85E-03
3489,5.76E-03,8.80E-03
3490,5.72E-03,8.82E-03
3491,5.86E-03,8.77E-03
3492,5.82E-03,8.78E-03
3493,5.77E-03,8.74E-03
3494,5.85E-03,8.75E-03
3495,5.89E-03,8.67E-03
3496,5.99E-03,8.72E-03
3497,6.00E-03,8.63E-03
3498,5.91E-03,8.65E-03
3499,5.79E-03,8.62E-03
3500,4.43E-03,8.58E-03
3501,4.57E-03,8.63E-03
3502,4.73E-03,8.59E-03
3503,4.30E-03,8.62E-03
3504,4.61E-03,8.58E-03
3505,4.49E-03,8.58E-03
3506,4.33E-03,8.63E-03
3507,4.56E-03,8.54E-03
3508,4.24E-03,8.54E-03
3509,4.71E-03,8.51E-03
3510,5.45E-03,8.31E-03
3511,5.36E-03,8.49E-03
3512,5.51E-03,8.47E-03
3513,5.61E-03,8.45E-03
3514,5.49E-03,8.44E-03
3515,5.40E-03,8.43E-03
3516,5.29E-03,8.43E-03
3517,5.11E-03,8.34E-03
3518,5.28E-03,8.34E-03
3519,5.46E-03,8.34E-03
3520,5.62E-03,8.34E-03
3521,5.54E-03,8.34E-03
3522,5.76E-03,8.34E-03
3523,4.85E-03,8.24E-03
3524,5.56E-03,8.33E-03
3525,5.31E-03,8.26E-03
3526,5.21E-03,8.25E-03
3527,5.50E-03,8.26E-03
3528,5.40E-03,8.26E-03
3529,6.21E-03,8.28E-03
3530,5.75E-03,8.27E-03
3531,5.66E-03,8.20E-03
3532,5.27E-03,8.18E-03
3533,4.89E-03,8.15E-03
3534,5.60E-03,8.23E-03
3535,5.44E-03,8.15E-03
3536,5.67E-03,8.17E-03
3537,5.11E-03,8.10E-03
3538,4.94E-03,8.12E-03
3539,5.28E-03,8.08E-03
3540,5.27E-03,8.09E-03
3541,5.29E-03,8.06E-03
3542,5.26E-03,8.07E-03
3543,5.52E-03,8.06E-03
3544,5.43E-03,8.06E-03
3545,5.80E-03,8.04E-03
3546,5.87E-03,8.05E-03
3547,5.91E-03,8.03E-03
3548,5.80E-03,8.03E-03
3549,6.08E-03,8.02E-03
3550,5.73E-03,8.03E-03
3551,5.68E-03,8.02E-03
3552,5.92E-03,8.06E-03
3553,5.87E-03,8.04E-03
3554,5.87E-03,8.10E-03
3555,5.91E-03,8.08E-03
3556,5.74E-03,8.14E-03
3557,5.80E-03,8.11E-03
3558,5.61E-03,8.15E-03
3559,5.39E-03,8.33E-03
3560,5.39E-03,8.28E-03
3561,5.67E-03,8.44E-03
3562,5.55E-03,8.39E-03
3563,5.64E-03,8.56E-03
3564,5.61E-03,8.50E-03
3565,6.03E-03,8.67E-03
3566,5.88E-03,8.63E-03
3567,5.84E-03,8.75E-03
3568,5.97E-03,8.72E-03
3569,5.79E-03,8.84E-03
3570,5.73E-03,8.79E-03
3571,5.99E-03,8.93E-03
3572,5.89E-03,8.89E-03
3573,5.96E-03,9.00E-03
3574,6.04E-03,8.97E-03
3575,5.81E-03,9.08E-03
3576,5.90E-03,9.05E-03
3577,5.66E-03,9.15E-03
3578,5.76E-03,9.11E-03
3579,5.79E-03,9.24E-03
3580,5.67E-03,9.19E-03
3581,6.05E-03,9.32E-03
3582,5.98E-03,9.28E-03
3583,6.25E-03,9.40E-03
3584,6.17E-03,9.36E-03
3585,6.13E-03,9.47E-03
3586,6.14E-03,9.44E-03
3587,5.87E-03,9.53E-03
3588,5.97E-03,9.49E-03
3589,5.62E-03,9.62E-03
3590,5.67E-03,9.58E-03
3591,5.57E-03,9.67E-03
3592,5.65E-03,9.85E-03
3593,6.17E-03,9.97E-03
3594,5.86E-03,1.01E-02
3595,6.33E-03,9.99E-03
3596,5.38E-03,1.01E-02
3597,5.65E-03,1.01E-02
3598,5.41E-03,1.02E-02
3599,5.32E-03,1.02E-02
3600,6.25E-03,1.03E-02
3601,5.73E-03,1.03E-02
3602,5.52E-03,1.05E-02
3603,5.47E-03,1.05E-02
3604,5.01E-03,1.05E-02
3605,5.60E-03,1.06E-02
3606,5.93E-03,1.08E-02
3607,6.22E-03,1.08E-02
3608,5.06E-03,1.09E-02
3609,5.56E-03,1.08E-02
3610,5.52E-03,7.76E-03
3611,5.47E-03,9.79E-03
3612,5.56E-03,9.87E-03
3613,6.90E-03,7.73E-03
3614,5.08E-03,1.11E-02
3615,5.43E-03,1.10E-02
3616,6.16E-03,9.91E-03
3617,4.18E-03,9.77E-03
3618,5.12E-03,9.75E-03
3619,4.36E-03,9.63E-03
3620,5.49E-03,8.82E-03
3621,5.12E-03,8.81E-03
3622,4.44E-03,8.74E-03
3623,5.08E-03,8.81E-03
3624,5.01E-03,8.80E-03
3625,4.95E-03,8.58E-03
3626,5.02E-03,8.59E-03
3627,5.25E-03,8.60E-03
3628,5.73E-03,8.51E-03
3629,5.47E-03,7.79E-03
3630,5.61E-03,8.01E-03
3631,5.71E-03,7.98E-03
3632,5.57E-03,8.04E-03
3633,5.62E-03,9.61E-03
3634,5.57E-03,9.57E-03
3635,5.62E-03,9.66E-03
3636,5.62E-03,9.75E-03
3637,5.92E-03,1.05E-02
3638,5.84E-03,1.05E-02
3639,5.95E-03,1.06E-02
3640,5.81E-03,7.55E-03
3641,5.75E-03,7.56E-03
3642,5.42E-03,7.56E-03
3643,5.30E-03,1.12E-02
3644,5.61E-03,1.12E-02
3645,5.38E-03,1.13E-02
3646,4.68E-03,1.07E-02
3647,5.93E-03,1.08E-02
3648,3.64E-03,9.87E-03
3649,6.12E-03,9.76E-03
3650,4.81E-03,8.86E-03
3651,5.12E-03,8.72E-03
3652,5.95E-03,7.82E-03
3653,6.02E-03,7.54E-03
3654,6.17E-03,1.08E-02
3655,7.30E-03,1.09E-02
3656,7.05E-03,1.08E-02
3657,6.08E-03,1.12E-02
3658,5.88E-03,1.12E-02
3659,5.56E-03,1.11E-02
3660,5.85E-03,1.12E-02
3661,5.17E-03,1.11E-02
3662,6.14E-03,1.09E-02
3663,5.64E-03,1.10E-02
3664,6.01E-03,1.09E-02
3665,6.17E-03,1.08E-02
3666,6.26E-03,1.09E-02
3667,5.63E-03,1.08E-02
3668,6.63E-03,1.07E-02
3669,7.57E-03,1.07E-02
3670,5.92E-03,1.07E-02
3671,6.28E-03,1.07E-02
3672,5.85E-03,1.06E-02
3673,5.80E-03,1.07E-02
3674,5.93E-03,1.06E-02
3675,5.91E-03,1.06E-02
3676,5.85E-03,1.05E-02
3677,5.89E-03,1.05E-02
3678,5.73E-03,1.04E-02
3679,5.79E-03,1.04E-02
3680,5.57E-03,1.03E-02
3681,5.67E-03,1.04E-02
3682,5.44E-03,1.02E-02
3683,5.54E-03,1.03E-02
3684,5.29E-03,1.02E-02
3685,5.40E-03,1.02E-02
3686,5.32E-03,1.01E-02
3687,5.26E-03,1.01E-02
3688,5.90E-03,1.00E-02
3689,4.90E-03,9.76E-03
3690,5.41E-03,9.62E-03
3691,4.73E-03,9.63E-03
3692,5.78E-03,9.56E-03
3693,5.68E-03,9.59E-03
3694,6.69E-03,9.46E-03
3695,6.11E-03,9.52E-03
3696,5.52E-03,9.46E-03
3697,6.02E-03,9.46E-03
3698,5.43E-03,9.42E-03
3699,5.45E-03,9.44E-03
3700,5.34E-03,9.37E-03
3701,5.37E-03,9.39E-03
3702,5.42E-03,9.32E-03
3703,5.37E-03,9.35E-03
3704,5.39E-03,9.28E-03
3705,5.39E-03,9.30E-03
3706,5.52E-03,9.21E-03
3707,5.36E-03,9.25E-03
3708,5.56E-03,9.17E-03
3709,5.48E-03,9.19E-03
3710,5.65E-03,9.12E-03
3711,5.61E-03,9.15E-03
3712,5.58E-03,9.08E-03
3713,5.63E-03,9.10E-03
3714,5.66E-03,9.03E-03
3715,5.63E-03,9.05E-03
3716,5.77E-03,9.00E-03
3717,5.72E-03,9.01E-03
3718,5.93E-03,8.96E-03
3719,5.84E-03,8.98E-03
3720,5.98E-03,8.93E-03
3721,5.96E-03,8.94E-03
3722,5.87E-03,8.88E-03
3723,5.96E-03,8.90E-03
3724,5.81E-03,8.84E-03
3725,5.69E-03,8.86E-03
3726,5.65E-03,8.82E-03
3727,4.90E-03,8.76E-03
3728,4.97E-03,8.79E-03
3729,4.67E-03,8.77E-03
3730,4.73E-03,8.78E-03
3731,4.61E-03,8.76E-03
3732,4.58E-03,8.75E-03
3733,4.65E-03,8.78E-03
3734,4.81E-03,8.69E-03
3735,4.69E-03,8.72E-03
3736,5.00E-03,8.65E-03
3737,5.22E-03,8.68E-03
3738,5.02E-03,8.71E-03
3739,5.45E-03,8.63E-03
3740,5.37E-03,8.65E-03
3741,5.38E-03,8.61E-03
3742,5.46E-03,8.62E-03
3743,5.30E-03,8.60E-03
3744,5.76E-03,8.53E-03
3745,6.05E-03,8.53E-03
3746,5.61E-03,8.52E-03
3747,5.63E-03,8.53E-03
3748,5.40E-03,8.51E-03
3749,5.46E-03,8.52E-03
3750,5.11E-03,8.50E-03
3751,5.71E-03,8.42E-03
3752,5.85E-03,8.42E-03
3753,5.59E-03,8.42E-03
3754,5.35E-03,8.42E-03
3755,5.22E-03,8.23E-03
3756,5.21E-03,8.41E-03
3757,5.08E-03,8.29E-03
3758,5.49E-03,8.29E-03
3759,5.63E-03,8.30E-03
3760,5.76E-03,8.30E-03
3761,4.70E-03,8.23E-03
3762,5.08E-03,8.23E-03
3763,5.63E-03,8.24E-03
3764,5.56E-03,8.24E-03
3765,5.90E-03,8.24E-03
3766,5.77E-03,8.24E-03
3767,6.26E-03,8.22E-03
3768,6.03E-03,8.23E-03
3769,5.03E-03,8.16E-03
3770,5.98E-03,8.22E-03
3771,5.48E-03,8.16E-03
3772,5.33E-03,8.16E-03
3773,5.63E-03,8.16E-03
3774,5.54E-03,8.16E-03
3775,5.71E-03,8.14E-03
3776,5.68E-03,8.15E-03
3777,5.50E-03,8.11E-03
3778,5.35E-03,8.14E-03
3779,5.35E-03,8.09E-03
3780,5.32E-03,8.09E-03
3781,5.51E-03,8.09E-03
3782,5.41E-03,8.09E-03
3783,6.28E-03,8.08E-03
3784,5.74E-03,8.09E-03
3785,4.89E-03,8.03E-03
3786,5.65E-03,8.07E-03
3787,5.39E-03,8.02E-03
3788,5.07E-03,8.01E-03
3789,5.46E-03,8.01E-03
3790,5.47E-03,8.04E-03
3791,5.50E-03,7.97E-03
3792,5.37E-03,7.98E-03
3793,5.29E-03,7.93E-03
3794,5.55E-03,7.96E-03
3795,5.37E-03,7.90E-03
3796,5.34E-03,7.91E-03
3797,5.35E-03,7.89E-03
3798,5.36E-03,7.89E-03
3799,5.57E-03,7.87E-03
3800,5.46E-03,7.88E-03
3801,5.77E-03,7.85E-03
3802,5.83E-03,7.86E-03
3803,5.90E-03,7.83E-03
3804,5.82E-03,7.84E-03
3805,5.99E-03,7.83E-03
3806,5.66E-03,7.81E-03
3807,5.66E-03,7.80E-03
3808,5.86E-03,7.83E-03
3809,5.81E-03,7.82E-03
3810,5.86E-03,7.88E-03
3811,5.89E-03,7.85E-03
3812,5.81E-03,7.92E-03
3813,5.84E-03,7.90E-03
3814,5.75E-03,7.95E-03
3815,5.40E-03,8.14E-03
3816,5.45E-03,8.09E-03
3817,5.56E-03,8.26E-03
3818,5.52E-03,8.20E-03
3819,5.71E-03,8.37E-03
3820,5.62E-03,8.31E-03
3821,5.87E-03,8.47E-03
3822,5.84E-03,8.42E-03
3823,5.89E-03,8.57E-03
3824,5.92E-03,8.52E-03
3825,5.87E-03,8.66E-03
3826,5.84E-03,8.61E-03
3827,5.90E-03,8.76E-03
3828,5.91E-03,8.71E-03
3829,5.94E-03,8.84E-03
3830,5.92E-03,8.80E-03
3831,5.85E-03,8.93E-03
3832,5.90E-03,8.89E-03
3833,5.74E-03,9.01E-03
3834,5.80E-03,8.97E-03
3835,5.85E-03,9.09E-03
3836,5.77E-03,9.05E-03
3837,6.04E-03,9.17E-03
3838,5.95E-03,9.13E-03
3839,6.20E-03,9.25E-03
3840,6.15E-03,9.21E-03
3841,6.10E-03,9.32E-03
3842,6.08E-03,9.29E-03
3843,5.91E-03,9.38E-03
3844,5.91E-03,9.35E-03
3845,5.68E-03,9.47E-03
3846,5.68E-03,9.43E-03
3847,5.60E-03,9.52E-03
3848,5.62E-03,9.70E-03
3849,5.99E-03,9.80E-03
3850,5.84E-03,9.91E-03
3851,6.00E-03,9.85E-03
3852,5.53E-03,1.00E-02
3853,5.64E-03,9.96E-03
3854,5.62E-03,1.01E-02
3855,5.51E-03,1.00E-02
3856,6.16E-03,1.02E-02
3857,5.83E-03,1.01E-02
3858,6.31E-03,1.02E-02
3859,6.45E-03,1.03E-02
3860,6.00E-03,1.04E-02
3861,5.83E-03,1.03E-02
3862,5.66E-03,1.04E-02
3863,5.73E-03,1.04E-02
3864,5.72E-03,1.04E-02
3865,5.86E-03,1.07E-02
3866,5.92E-03,1.06E-02
3867,5.70E-03,1.07E-02
3868,5.47E-03,7.56E-03
3869,5.75E-03,9.66E-03
3870,5.85E-03,9.73E-03
3871,5.37E-03,1.13E-02
3872,6.04E-03,1.09E-02
3873,5.06E-03,1.00E-02
3874,4.89E-03,9.93E-03
3875,5.01E-03,9.90E-03
3876,5.00E-03,9.91E-03
3877,6.12E-03,9.78E-03
3878,5.48E-03,9.01E-03
3879,4.71E-03,8.90E-03
3880,4.87E-03,9.01E-03
3881,4.79E-03,8.98E-03
3882,5.10E-03,8.78E-03
3883,5.47E-03,8.73E-03
3884,5.32E-03,8.76E-03
3885,5.49E-03,8.70E-03
3886,5.93E-03,8.40E-03
3887,4.60E-03,8.21E-03
3888,5.44E-03,8.38E-03
3889,5.45E-03,8.37E-03
3890,5.32E-03,8.20E-03
3891,5.40E-03,8.18E-03
3892,5.37E-03,8.05E-03
3893,5.32E-03,8.06E-03
3894,5.43E-03,8.05E-03
3895,5.42E-03,7.57E-03
3896,5.91E-03,7.80E-03
3897,6.04E-03,7.77E-03
3898,5.58E-03,7.84E-03
3899,5.63E-03,9.46E-03
3900,5.57E-03,9.41E-03
3901,5.65E-03,9.50E-03
3902,5.74E-03,9.60E-03
3903,5.87E-03,1.04E-02
3904,5.85E-03,1.04E-02
3905,5.84E-03,1.05E-02
3906,5.71E-03,7.34E-03
3907,5.59E-03,7.35E-03
3908,5.81E-03,1.11E-02
3909,4.94E-03,9.04E-03
3910,4.81E-03,8.85E-03
3911,6.07E-03,7.51E-03
3912,5.55E-03,7.13E-03
3913,6.25E-03,1.06E-02
3914,6.60E-03,1.07E-02
3915,6.61E-03,1.10E-02
3916,4.68E-03,8.04E-03
3917,5.30E-03,8.01E-03
3918,5.31E-03,7.35E-03
3919,5.31E-03,7.35E-03
3920,5.32E-03,7.35E-03
3921,5.52E-03,1.15E-02
3922,5.60E-03,1.14E-02
3923,5.58E-03,1.14E-02
3924,5.78E-03,1.13E-02
3925,5.73E-03,1.13E-02
3926,5.62E-03,1.13E-02
3927,5.78E-03,1.13E-02
3928,5.40E-03,1.12E-02
3929,5.49E-03,1.12E-02
3930,5.62E-03,1.11E-02
3931,5.50E-03,1.12E-02
3932,6.04E-03,1.11E-02
3933,5.84E-03,1.11E-02
3934,6.07E-03,1.10E-02
3935,6.18E-03,1.10E-02
3936,5.94E-03,1.09E-02
3937,7.34E-03,1.09E-02
3938,6.76E-03,1.09E-02
3939,7.47E-03,1.09E-02
3940,6.12E-03,1.08E-02
3941,6.34E-03,1.08E-02
3942,5.86E-03,1.08E-02
3943,5.92E-03,1.08E-02
3944,5.90E-03,1.07E-02
3945,5.88E-03,1.07E-02
3946,5.83E-03,1.06E-02
3947,5.89E-03,1.07E-02
3948,5.74E-03,1.06E-02
3949,5.75E-03,1.06E-02
3950,5.61E-03,1.05E-02
3951,5.66E-03,1.05E-02
3952,5.43E-03,1.04E-02
3953,5.55E-03,1.04E-02
3954,5.30E-03,1.03E-02
3955,5.35E-03,1.03E-02
3956,5.49E-03,1.02E-02
3957,5.36E-03,1.03E-02
3958,5.12E-03,1.02E-02
3959,5.94E-03,1.02E-02
3960,5.42E-03,1.01E-02
3961,4.52E-03,1.01E-02
3962,4.84E-03,1.00E-02
3963,4.18E-03,1.01E-02
3964,5.21E-03,9.94E-03
3965,5.26E-03,9.81E-03
3966,5.40E-03,9.80E-03
3967,5.24E-03,9.81E-03
3968,5.79E-03,9.73E-03
3969,5.68E-03,9.77E-03
3970,6.40E-03,9.66E-03
3971,6.14E-03,9.70E-03
3972,6.24E-03,9.64E-03
3973,6.60E-03,9.64E-03
3974,5.81E-03,9.63E-03
3975,6.01E-03,9.63E-03
3976,5.51E-03,9.59E-03
3977,5.60E-03,9.62E-03
3978,5.43E-03,9.55E-03
3979,5.47E-03,9.57E-03
3980,5.44E-03,9.50E-03
3981,5.42E-03,9.52E-03
3982,5.51E-03,9.45E-03
3983,5.46E-03,9.48E-03
3984,5.52E-03,9.40E-03
3985,5.49E-03,9.42E-03
3986,5.52E-03,9.36E-03
3987,5.50E-03,9.38E-03
3988,5.50E-03,9.32E-03
3989,5.53E-03,9.34E-03
3990,5.53E-03,9.27E-03
3991,5.53E-03,9.30E-03
3992,5.63E-03,9.23E-03
3993,5.59E-03,9.25E-03
3994,5.75E-03,9.19E-03
3995,5.70E-03,9.21E-03
3996,5.91E-03,9.15E-03
3997,5.85E-03,9.17E-03
3998,5.97E-03,9.11E-03
3999,5.99E-03,9.13E-03
4000,5.88E-03,9.07E-03
4001,5.86E-03,9.09E-03
4002,5.71E-03,9.04E-03
4003,5.70E-03,9.05E-03
4004,5.53E-03,9.02E-03
4005,4.92E-03,8.96E-03
4006,5.21E-03,8.99E-03
4007,5.05E-03,8.97E-03
4008,4.86E-03,8.94E-03
4009,4.85E-03,8.95E-03
4010,4.74E-03,8.92E-03
4011,4.80E-03,8.92E-03
4012,4.79E-03,8.94E-03
4013,5.02E-03,8.86E-03
4014,4.95E-03,8.89E-03
4015,5.07E-03,8.81E-03
4016,4.54E-03,8.91E-03
4017,5.17E-03,8.85E-03
4018,4.94E-03,8.88E-03
4019,5.39E-03,8.81E-03
4020,5.30E-03,8.83E-03
4021,5.41E-03,8.79E-03
4022,5.44E-03,8.80E-03
4023,5.35E-03,8.77E-03
4024,5.71E-03,8.71E-03
4025,5.69E-03,8.72E-03
4026,5.64E-03,8.70E-03
4027,5.65E-03,8.71E-03
4028,5.52E-03,8.68E-03
4029,5.51E-03,8.70E-03
4030,5.65E-03,8.63E-03
4031,5.72E-03,8.65E-03
4032,5.84E-03,8.62E-03
4033,5.79E-03,8.63E-03
4034,5.69E-03,8.61E-03
4035,5.79E-03,8.61E-03
4036,5.56E-03,8.61E-03
4037,5.60E-03,8.61E-03
4038,5.34E-03,8.60E-03
4039,5.43E-03,8.60E-03
4040,5.25E-03,8.59E-03
4041,5.65E-03,8.51E-03
4042,5.78E-03,8.49E-03
4043,6.12E-03,8.50E-03
4044,5.54E-03,8.48E-03
4045,5.65E-03,8.48E-03
4046,5.26E-03,8.47E-03
4047,6.22E-03,8.34E-03
4048,6.49E-03,8.36E-03
4049,5.44E-03,8.39E-03
4050,5.51E-03,8.36E-03
4051,5.51E-03,8.35E-03
4052,5.49E-03,8.34E-03
4053,5.45E-03,8.34E-03
4054,5.44E-03,8.33E-03
4055,5.29E-03,8.33E-03
4056,5.37E-03,8.33E-03
4057,5.07E-03,8.32E-03
4058,5.12E-03,8.32E-03
4059,5.26E-03,8.32E-03
4060,5.15E-03,8.14E-03
4061,5.23E-03,8.14E-03
4062,5.18E-03,8.14E-03
4063,5.32E-03,8.14E-03
4064,5.31E-03,8.14E-03
4065,5.34E-03,8.15E-03
4066,5.32E-03,8.14E-03
4067,5.47E-03,8.15E-03
4068,5.42E-03,8.15E-03
4069,5.49E-03,8.16E-03
4070,5.47E-03,8.15E-03
4071,5.47E-03,8.17E-03
4072,6.47E-03,8.15E-03
4073,5.51E-03,8.11E-03
4074,6.53E-03,8.16E-03
4075,6.38E-03,8.16E-03
4076,4.90E-03,8.10E-03
4077,5.96E-03,8.16E-03
4078,5.53E-03,8.12E-03
4079,5.39E-03,8.11E-03
4080,5.73E-03,8.11E-03
4081,5.68E-03,8.12E-03
4082,5.40E-03,8.09E-03
4083,5.56E-03,8.11E-03
4084,5.21E-03,8.06E-03
4085,5.65E-03,8.05E-03
4086,5.56E-03,8.05E-03
4087,5.89E-03,8.05E-03
4088,5.74E-03,8.05E-03
4089,5.90E-03,8.03E-03
4090,5.96E-03,8.04E-03
4091,5.57E-03,8.00E-03
4092,5.71E-03,8.03E-03
4093,5.55E-03,7.98E-03
4094,5.45E-03,7.99E-03
4095,5.60E-03,7.98E-03
4096,5.56E-03,7.98E-03
4097,5.56E-03,7.96E-03
4098,5.60E-03,7.97E-03
4099,5.46E-03,7.94E-03
4100,5.52E-03,7.95E-03
4101,5.41E-03,7.92E-03
4102,5.46E-03,7.93E-03
4103,5.54E-03,7.91E-03
4104,5.44E-03,7.92E-03
4105,5.69E-03,7.89E-03
4106,5.63E-03,7.91E-03
4107,5.35E-03,7.88E-03
4108,5.56E-03,7.89E-03
4109,5.32E-03,7.85E-03
4110,5.26E-03,7.85E-03
4111,5.42E-03,7.83E-03
4112,5.39E-03,7.84E-03
4113,5.48E-03,7.79E-03
4114,5.49E-03,7.81E-03
4115,5.55E-03,7.76E-03
4116,5.52E-03,7.78E-03
4117,5.43E-03,7.73E-03
4118,5.49E-03,7.74E-03
4119,5.49E-03,7.70E-03
4120,5.43E-03,7.72E-03
4121,5.63E-03,7.68E-03
4122,5.55E-03,7.69E-03
4123,5.78E-03,7.65E-03
4124,5.76E-03,7.66E-03
4125,5.90E-03,7.63E-03
4126,5.85E-03,7.64E-03
4127,5.70E-03,7.61E-03
4128,5.88E-03,7.62E-03
4129,4.87E-03,7.61E-03
4130,5.67E-03,7.58E-03
4131,5.61E-03,7.58E-03
4132,5.86E-03,7.61E-03
4133,5.81E-03,7.59E-03
4134,5.86E-03,7.65E-03
4135,5.90E-03,7.63E-03
4136,5.92E-03,7.70E-03
4137,5.86E-03,7.68E-03
4138,6.04E-03,7.73E-03
4139,5.46E-03,7.95E-03
4140,5.44E-03,7.90E-03
4141,5.54E-03,8.06E-03
4142,5.47E-03,8.01E-03
4143,5.67E-03,8.17E-03
4144,5.60E-03,8.12E-03
4145,5.76E-03,8.27E-03
4146,5.79E-03,8.22E-03
4147,5.82E-03,8.37E-03
4148,5.79E-03,8.32E-03
4149,5.84E-03,8.49E-03
4150,5.81E-03,8.43E-03
4151,5.89E-03,8.59E-03
4152,5.87E-03,8.54E-03
4153,6.00E-03,8.68E-03
4154,5.94E-03,8.64E-03
4155,5.92E-03,8.77E-03
4156,5.97E-03,8.73E-03
4157,5.80E-03,8.86E-03
4158,5.86E-03,8.82E-03
4159,5.91E-03,8.95E-03
4160,5.82E-03,8.91E-03
4161,5.97E-03,9.03E-03
4162,5.95E-03,8.99E-03
4163,6.16E-03,9.11E-03
4164,6.06E-03,9.07E-03
4165,6.04E-03,9.17E-03
4166,6.07E-03,9.14E-03
4167,5.88E-03,9.24E-03
4168,5.94E-03,9.21E-03
4169,5.66E-03,9.32E-03
4170,5.76E-03,9.28E-03
4171,5.65E-03,9.37E-03
4172,5.69E-03,9.55E-03
4173,6.12E-03,9.63E-03
4174,5.72E-03,9.77E-03
4175,5.85E-03,9.71E-03
4176,5.57E-03,9.86E-03
4177,5.65E-03,9.82E-03
4178,5.76E-03,9.93E-03
4179,5.60E-03,9.89E-03
4180,6.00E-03,1.00E-02
4181,5.88E-03,9.97E-03
4182,6.24E-03,1.01E-02
4183,6.16E-03,1.00E-02
4184,6.20E-03,1.02E-02
4185,6.31E-03,1.01E-02
4186,6.14E-03,1.02E-02
4187,6.12E-03,1.02E-02
4188,5.79E-03,1.03E-02
4189,5.86E-03,1.02E-02
4190,5.82E-03,1.03E-02
4191,5.87E-03,1.06E-02
4192,5.82E-03,1.05E-02
4193,5.98E-03,1.06E-02
4194,5.45E-03,7.35E-03
4195,5.97E-03,9.56E-03
4196,4.28E-03,1.01E-02
4197,5.67E-03,1.12E-02
4198,6.30E-03,1.10E-02
4199,5.66E-03,1.02E-02
4200,3.98E-03,1.02E-02
4201,4.98E-03,9.07E-03
4202,5.06E-03,8.97E-03
4203,5.58E-03,8.90E-03
4204,5.45E-03,8.93E-03
4205,5.62E-03,8.90E-03
4206,5.25E-03,8.20E-03
4207,6.17E-03,8.32E-03
4208,5.52E-03,7.48E-03
4209,5.37E-03,7.35E-03
4210,6.35E-03,7.58E-03
4211,6.62E-03,7.53E-03
4212,5.41E-03,7.65E-03
4213,5.61E-03,9.30E-03
4214,5.54E-03,9.26E-03
4215,5.64E-03,9.35E-03
4216,5.79E-03,1.03E-02
4217,5.78E-03,1.02E-02
4218,5.74E-03,1.03E-02
4219,5.41E-03,7.14E-03
4220,5.20E-03,7.13E-03
4221,5.21E-03,7.13E-03
4222,4.80E-03,7.25E-03
4223,4.78E-03,7.38E-03
4224,6.19E-03,1.11E-02
4225,5.56E-03,1.15E-02
4226,5.59E-03,1.16E-02
4227,5.61E-03,1.16E-02
4228,5.15E-03,9.22E-03
4229,5.49E-03,7.88E-03
4230,5.43E-03,7.99E-03
4231,5.36E-03,7.83E-03
4232,5.38E-03,7.89E-03
4233,5.42E-03,7.88E-03
4234,5.89E-03,7.29E-03
4235,5.23E-03,7.13E-03
4236,5.22E-03,6.94E-03
4237,5.56E-03,1.14E-02
4238,5.58E-03,1.15E-02
4239,5.59E-03,1.15E-02
4240,5.71E-03,1.15E-02
4241,5.64E-03,1.15E-02
4242,5.66E-03,1.14E-02
4243,5.74E-03,1.14E-02
4244,5.54E-03,1.13E-02
4245,5.62E-03,1.14E-02
4246,5.60E-03,1.13E-02
4247,5.57E-03,1.13E-02
4248,5.86E-03,1.12E-02
4249,5.77E-03,1.12E-02
4250,5.98E-03,1.11E-02
4251,6.07E-03,1.12E-02
4252,6.22E-03,1.11E-02
4253,6.63E-03,1.10E-02
4254,6.80E-03,1.10E-02
4255,6.12E-03,1.10E-02
4256,6.36E-03,1.10E-02
4257,5.95E-03,1.09E-02
4258,5.97E-03,1.09E-02
4259,5.83E-03,1.08E-02
4260,5.86E-03,1.09E-02
4261,5.81E-03,1.08E-02
4262,5.83E-03,1.08E-02
4263,5.71E-03,1.07E-02
4264,5.76E-03,1.07E-02
4265,5.60E-03,1.06E-02
4266,5.60E-03,1.07E-02
4267,5.43E-03,1.05E-02
4268,5.54E-03,1.06E-02
4269,5.32E-03,1.04E-02
4270,5.36E-03,1.05E-02
4271,5.49E-03,1.04E-02
4272,5.38E-03,1.04E-02
4273,4.93E-03,1.03E-02
4274,5.37E-03,1.04E-02
4275,5.43E-03,1.02E-02
4276,5.00E-03,1.03E-02
4277,6.23E-03,1.02E-02
4278,3.76E-03,1.01E-02
4279,4.64E-03,1.01E-02
4280,4.41E-03,1.01E-02
4281,6.01E-03,9.99E-03
4282,5.55E-03,9.96E-03
4283,5.61E-03,9.98E-03
4284,5.82E-03,9.91E-03
4285,5.70E-03,9.94E-03
4286,6.13E-03,9.86E-03
4287,6.03E-03,9.88E-03
4288,6.19E-03,9.83E-03
4289,6.32E-03,9.85E-03
4290,5.85E-03,9.80E-03
4291,6.06E-03,9.82E-03
4292,5.58E-03,9.77E-03
4293,5.69E-03,9.79E-03
4294,5.52E-03,9.72E-03
4295,5.52E-03,9.75E-03
4296,5.55E-03,9.68E-03
4297,5.51E-03,9.70E-03
4298,5.60E-03,9.63E-03
4299,5.59E-03,9.65E-03
4300,5.54E-03,9.59E-03
4301,5.53E-03,9.61E-03
4302,5.46E-03,9.55E-03
4303,5.48E-03,9.57E-03
4304,5.50E-03,9.51E-03
4305,5.49E-03,9.53E-03
4306,5.54E-03,9.47E-03
4307,5.50E-03,9.49E-03
4308,5.57E-03,9.42E-03
4309,5.59E-03,9.44E-03
4310,5.69E-03,9.38E-03
4311,5.71E-03,9.40E-03
4312,5.84E-03,9.34E-03
4313,5.84E-03,9.36E-03
4314,5.97E-03,9.30E-03
4315,5.95E-03,9.32E-03
4316,5.84E-03,9.27E-03
4317,5.85E-03,9.29E-03
4318,5.64E-03,9.23E-03
4319,5.65E-03,9.25E-03
4320,5.42E-03,9.20E-03
4321,5.47E-03,9.22E-03
4322,5.23E-03,9.17E-03
4323,5.26E-03,9.19E-03
4324,5.09E-03,9.15E-03
4325,5.16E-03,9.16E-03
4326,5.05E-03,9.11E-03
4327,5.02E-03,9.13E-03
4328,5.05E-03,9.09E-03
4329,4.91E-03,9.09E-03
4330,4.61E-03,9.10E-03
4331,5.27E-03,9.04E-03
4332,5.09E-03,9.07E-03
4333,5.79E-03,9.00E-03
4334,4.51E-03,9.08E-03
4335,5.05E-03,9.03E-03
4336,4.89E-03,9.05E-03
4337,5.35E-03,8.99E-03
4338,5.25E-03,9.01E-03
4339,5.44E-03,8.96E-03
4340,5.44E-03,8.98E-03
4341,5.41E-03,8.95E-03
4342,5.69E-03,8.89E-03
4343,5.60E-03,8.89E-03
4344,5.59E-03,8.88E-03
4345,5.64E-03,8.89E-03
4346,5.61E-03,8.85E-03
4347,5.56E-03,8.87E-03
4348,5.64E-03,8.83E-03
4349,5.58E-03,8.84E-03
4350,5.73E-03,8.81E-03
4351,5.69E-03,8.82E-03
4352,5.65E-03,8.80E-03
4353,5.73E-03,8.80E-03
4354,5.58E-03,8.79E-03
4355,5.60E-03,8.79E-03
4356,5.39E-03,8.77E-03
4357,5.48E-03,8.78E-03
4358,5.30E-03,8.75E-03
4359,5.30E-03,8.76E-03
4360,5.52E-03,8.69E-03
4361,5.41E-03,8.72E-03
4362,5.68E-03,8.67E-03
4363,5.69E-03,8.69E-03
4364,5.60E-03,8.65E-03
4365,5.65E-03,8.66E-03
4366,5.51E-03,8.60E-03
4367,5.75E-03,8.63E-03
4368,6.01E-03,8.57E-03
4369,5.90E-03,8.59E-03
4370,5.92E-03,8.56E-03
4371,6.04E-03,8.57E-03
4372,5.60E-03,8.57E-03
4373,5.74E-03,8.56E-03
4374,5.58E-03,8.55E-03
4375,5.54E-03,8.56E-03
4376,5.53E-03,8.53E-03
4377,5.50E-03,8.54E-03
4378,5.46E-03,8.52E-03
4379,5.53E-03,8.53E-03
4380,5.37E-03,8.52E-03
4381,5.41E-03,8.52E-03
4382,5.29E-03,8.51E-03
4383,5.32E-03,8.52E-03
4384,5.20E-03,8.50E-03
4385,5.25E-03,8.51E-03
4386,5.08E-03,8.49E-03
4387,5.21E-03,8.49E-03
4388,5.71E-03,8.42E-03
4389,5.37E-03,8.42E-03
4390,4.10E-03,8.21E-03
4391,4.49E-03,8.38E-03
4392,4.99E-03,8.42E-03
4393,4.44E-03,8.27E-03
4394,6.24E-03,8.29E-03
4395,5.91E-03,8.30E-03
4396,5.87E-03,8.31E-03
4397,5.40E-03,8.37E-03
4398,5.87E-03,8.34E-03
4399,4.70E-03,8.30E-03
4400,5.15E-03,8.29E-03
4401,5.34E-03,8.29E-03
4402,5.51E-03,8.28E-03
4403,5.58E-03,8.26E-03
4404,5.52E-03,8.39E-03
4405,5.50E-03,8.20E-03
4406,5.00E-03,8.13E-03
4407,5.36E-03,8.17E-03
4408,5.18E-03,8.16E-03
4409,5.64E-03,8.10E-03
4410,5.80E-03,8.08E-03
4411,5.75E-03,8.09E-03
4412,5.22E-03,8.07E-03
4413,5.45E-03,8.06E-03
4414,5.17E-03,8.00E-03
4415,5.38E-03,8.05E-03
4416,5.16E-03,7.95E-03
4417,5.23E-03,7.96E-03
4418,5.25E-03,7.95E-03
4419,5.22E-03,7.95E-03
4420,5.36E-03,7.95E-03
4421,5.29E-03,7.95E-03
4422,5.39E-03,7.96E-03
4423,5.37E-03,7.95E-03
4424,5.50E-03,7.96E-03
4425,5.44E-03,7.96E-03
4426,5.55E-03,7.97E-03
4427,5.53E-03,7.96E-03
4428,5.54E-03,7.98E-03
4429,5.85E-03,7.95E-03
4430,5.59E-03,7.94E-03
4431,5.77E-03,7.96E-03
4432,5.92E-03,7.96E-03
4433,5.47E-03,7.94E-03
4434,5.68E-03,7.97E-03
4435,5.51E-03,7.94E-03
4436,5.38E-03,7.93E-03
4437,5.60E-03,7.93E-03
4438,5.59E-03,7.94E-03
4439,5.46E-03,7.92E-03
4440,5.56E-03,7.92E-03
4441,5.39E-03,7.90E-03
4442,5.47E-03,7.87E-03
4443,5.63E-03,7.87E-03
4444,5.52E-03,7.87E-03
4445,5.73E-03,7.87E-03
4446,5.66E-03,7.87E-03
4447,5.74E-03,7.85E-03
4448,5.77E-03,7.86E-03
4449,5.61E-03,7.83E-03
4450,5.68E-03,7.84E-03
4451,5.58E-03,7.81E-03
4452,5.55E-03,7.82E-03
4453,5.62E-03,7.80E-03
4454,5.58E-03,7.81E-03
4455,5.57E-03,7.78E-03
4456,5.57E-03,7.79E-03
4457,5.52E-03,7.76E-03
4458,5.54E-03,7.77E-03
4459,5.48E-03,7.75E-03
4460,5.48E-03,7.76E-03
4461,5.51E-03,7.74E-03
4462,5.48E-03,7.75E-03
4463,5.61E-03,7.72E-03
4464,5.59E-03,7.73E-03
4465,5.46E-03,7.70E-03
4466,5.55E-03,7.71E-03
4467,5.47E-03,7.68E-03
4468,5.47E-03,7.69E-03
4469,5.60E-03,7.65E-03
4470,5.51E-03,7.67E-03
4471,5.56E-03,7.62E-03
4472,5.59E-03,7.64E-03
4473,5.66E-03,7.58E-03
4474,5.68E-03,7.60E-03
4475,5.51E-03,7.55E-03
4476,5.56E-03,7.56E-03
4477,5.53E-03,7.52E-03
4478,5.51E-03,7.54E-03
4479,5.71E-03,7.49E-03
4480,5.58E-03,7.50E-03
4481,5.79E-03,7.46E-03
4482,5.73E-03,7.47E-03
4483,5.87E-03,7.43E-03
4484,5.84E-03,7.44E-03
4485,5.71E-03,7.41E-03
4486,5.87E-03,7.41E-03
4487,5.83E-03,7.43E-03
4488,5.67E-03,7.36E-03
4489,5.58E-03,7.35E-03
4490,5.86E-03,7.38E-03
4491,5.81E-03,7.37E-03
4492,5.84E-03,7.42E-03
4493,5.91E-03,7.40E-03
4494,5.94E-03,7.48E-03
4495,5.86E-03,7.45E-03
4496,6.14E-03,7.51E-03
4497,5.43E-03,7.75E-03
4498,5.42E-03,7.70E-03
4499,5.51E-03,7.86E-03
4500,5.45E-03,7.81E-03
4501,5.64E-03,7.97E-03
4502,5.59E-03,7.92E-03
4503,5.73E-03,8.08E-03
4504,5.71E-03,8.02E-03
4505,5.74E-03,8.19E-03
4506,5.72E-03,8.13E-03
4507,5.85E-03,8.31E-03
4508,5.76E-03,8.25E-03
4509,5.89E-03,8.42E-03
4510,5.86E-03,8.37E-03
4511,5.97E-03,8.53E-03
4512,5.94E-03,8.47E-03
4513,5.90E-03,8.63E-03
4514,5.92E-03,8.58E-03
4515,5.80E-03,8.72E-03
4516,5.86E-03,8.67E-03
4517,5.87E-03,8.81E-03
4518,5.78E-03,8.77E-03
4519,5.95E-03,8.90E-03
4520,5.93E-03,8.85E-03
4521,6.14E-03,8.97E-03
4522,6.02E-03,8.93E-03
4523,5.99E-03,9.03E-03
4524,6.08E-03,9.00E-03
4525,5.84E-03,9.10E-03
4526,5.99E-03,9.07E-03
4527,5.65E-03,9.18E-03
4528,5.82E-03,9.14E-03
4529,5.63E-03,9.22E-03
4530,5.68E-03,9.40E-03
4531,5.73E-03,9.49E-03
4532,5.59E-03,9.62E-03
4533,5.64E-03,9.57E-03
4534,5.59E-03,9.71E-03
4535,5.58E-03,9.67E-03
4536,5.75E-03,9.77E-03
4537,5.63E-03,9.74E-03
4538,5.98E-03,9.85E-03
4539,5.82E-03,9.81E-03
4540,6.14E-03,9.92E-03
4541,6.06E-03,9.88E-03
4542,6.08E-03,1.00E-02
4543,6.15E-03,9.96E-03
4544,5.99E-03,1.01E-02
4545,6.06E-03,1.00E-02
4546,5.77E-03,1.01E-02
4547,5.88E-03,1.01E-02
4548,5.74E-03,1.02E-02
4549,5.81E-03,1.04E-02
4550,5.76E-03,1.04E-02
4551,5.92E-03,1.05E-02
4552,5.84E-03,1.05E-02
4553,5.77E-03,1.06E-02
4554,5.97E-03,1.05E-02
4555,5.32E-03,7.14E-03
4556,5.64E-03,8.43E-03
4557,4.12E-03,7.20E-03
4558,5.82E-03,1.12E-02
4559,5.74E-03,1.16E-02
4560,5.60E-03,1.15E-02
4561,6.40E-03,1.18E-02
4562,5.79E-03,1.18E-02
4563,6.52E-03,1.11E-02
4564,3.80E-03,1.03E-02
4565,5.33E-03,9.25E-03
4566,5.58E-03,9.09E-03
4567,5.52E-03,9.10E-03
4568,5.63E-03,9.08E-03
4569,5.49E-03,7.80E-03
4570,5.46E-03,7.70E-03
4571,5.44E-03,7.72E-03
4572,5.46E-03,7.70E-03
4573,5.80E-03,7.26E-03
4574,5.30E-03,7.13E-03
4575,6.31E-03,7.28E-03
4576,5.25E-03,7.45E-03
4577,5.59E-03,9.15E-03
4578,5.56E-03,9.11E-03
4579,5.58E-03,9.19E-03
4580,6.62E-03,9.40E-03
4581,5.69E-03,1.02E-02
4582,5.75E-03,1.01E-02
4583,5.67E-03,1.02E-02
4584,5.31E-03,6.93E-03
4585,6.34E-03,1.10E-02
4586,6.11E-03,1.11E-02
4587,5.45E-03,1.17E-02
4588,6.78E-03,1.08E-02
4589,3.56E-03,9.29E-03
4590,4.70E-03,9.37E-03
4591,5.29E-03,7.70E-03
4592,5.40E-03,7.66E-03
4593,5.93E-03,7.07E-03
4594,5.11E-03,6.92E-03
4595,5.08E-03,6.90E-03
4596,5.16E-03,6.90E-03
4597,4.69E-03,7.05E-03
4598,4.41E-03,7.03E-03
4599,5.67E-03,1.14E-02
4600,5.63E-03,1.17E-02
4601,5.65E-03,1.17E-02
4602,5.57E-03,1.16E-02
4603,5.58E-03,1.17E-02
4604,5.67E-03,1.16E-02
4605,5.62E-03,1.16E-02
4606,5.71E-03,1.15E-02
4607,5.71E-03,1.16E-02
4608,5.60E-03,1.15E-02
4609,5.67E-03,1.15E-02
4610,5.62E-03,1.14E-02
4611,5.61E-03,1.14E-02
4612,5.76E-03,1.13E-02
4613,5.75E-03,1.14E-02
4614,6.07E-03,1.13E-02
4615,6.00E-03,1.13E-02
4616,6.36E-03,1.12E-02
4617,6.43E-03,1.12E-02
4618,6.58E-03,1.12E-02
4619,6.13E-03,1.11E-02
4620,6.26E-03,1.11E-02
4621,5.93E-03,1.10E-02
4622,5.97E-03,1.11E-02
4623,5.76E-03,1.10E-02
4624,5.82E-03,1.10E-02
4625,5.73E-03,1.09E-02
4626,5.72E-03,1.10E-02
4627,5.68E-03,1.08E-02
4628,5.69E-03,1.09E-02
4629,5.56E-03,1.08E-02
4630,5.61E-03,1.08E-02
4631,5.43E-03,1.07E-02
4632,5.51E-03,1.07E-02
4633,5.37E-03,1.06E-02
4634,5.38E-03,1.06E-02
4635,5.39E-03,1.05E-02
4636,5.38E-03,1.06E-02
4637,5.09E-03,1.05E-02
4638,5.32E-03,1.05E-02
4639,5.42E-03,1.04E-02
4640,5.21E-03,1.04E-02
4641,5.26E-03,1.04E-02
4642,5.48E-03,1.04E-02
4643,4.15E-03,1.03E-02
4644,5.03E-03,1.03E-02
4645,3.88E-03,1.03E-02
4646,5.81E-03,1.02E-02
4647,4.43E-03,1.02E-02
4648,5.98E-03,1.02E-02
4649,5.70E-03,1.01E-02
4650,5.73E-03,1.01E-02
4651,5.76E-03,1.01E-02
4652,5.72E-03,1.01E-02
4653,5.91E-03,1.00E-02
4654,5.93E-03,1.01E-02
4655,5.97E-03,1.00E-02
4656,6.00E-03,1.00E-02
4657,5.85E-03,9.98E-03
4658,5.93E-03,1.00E-02
4659,5.67E-03,9.94E-03
4660,5.76E-03,9.96E-03
4661,5.62E-03,9.90E-03
4662,5.62E-03,9.92E-03
4663,5.75E-03,9.85E-03
4664,5.65E-03,9.88E-03
4665,5.67E-03,9.81E-03
4666,5.67E-03,9.83E-03
4667,5.59E-03,9.77E-03
4668,5.62E-03,9.79E-03
4669,5.42E-03,9.74E-03
4670,5.51E-03,9.75E-03
4671,5.46E-03,9.70E-03
4672,5.43E-03,9.72E-03
4673,5.50E-03,9.66E-03
4674,5.44E-03,9.68E-03
4675,5.55E-03,9.61E-03
4676,5.57E-03,9.63E-03
4677,5.66E-03,9.57E-03
4678,5.66E-03,9.59E-03
4679,5.80E-03,9.53E-03
4680,5.83E-03,9.55E-03
4681,5.90E-03,9.50E-03
4682,5.86E-03,9.51E-03
4683,5.78E-03,9.46E-03
4684,5.80E-03,9.48E-03
4685,5.58E-03,9.42E-03
4686,5.63E-03,9.44E-03
4687,5.36E-03,9.39E-03
4688,5.47E-03,9.40E-03
4689,5.25E-03,9.36E-03
4690,5.27E-03,9.38E-03
4691,5.17E-03,9.33E-03
4692,5.16E-03,9.35E-03
4693,5.20E-03,9.29E-03
4694,5.20E-03,9.31E-03
4695,5.21E-03,9.28E-03
4696,5.07E-03,9.27E-03
4697,5.20E-03,9.30E-03
4698,5.42E-03,9.22E-03
4699,5.30E-03,9.24E-03
4700,5.52E-03,9.20E-03
4701,5.89E-03,9.20E-03
4702,4.80E-03,9.24E-03
4703,4.69E-03,9.24E-03
4704,5.14E-03,9.20E-03
4705,4.99E-03,9.22E-03
4706,5.36E-03,9.17E-03
4707,5.29E-03,9.18E-03
4708,5.48E-03,9.14E-03
4709,5.49E-03,9.16E-03
4710,5.50E-03,9.12E-03
4711,5.66E-03,9.07E-03
4712,5.64E-03,9.07E-03
4713,5.62E-03,9.06E-03
4714,5.61E-03,9.07E-03
4715,5.54E-03,9.03E-03
4716,5.62E-03,9.05E-03
4717,5.59E-03,9.01E-03
4718,5.52E-03,9.02E-03
4719,5.68E-03,9.00E-03
4720,5.66E-03,9.00E-03
4721,5.63E-03,8.98E-03
4722,5.67E-03,8.99E-03
4723,5.47E-03,8.97E-03
4724,5.52E-03,8.97E-03
4725,5.38E-03,8.95E-03
4726,5.43E-03,8.96E-03
4727,5.40E-03,8.92E-03
4728,5.36E-03,8.93E-03
4729,5.51E-03,8.89E-03
4730,5.51E-03,8.90E-03
4731,5.62E-03,8.86E-03
4732,5.56E-03,8.88E-03
4733,5.64E-03,8.83E-03
4734,5.60E-03,8.84E-03
4735,5.63E-03,8.81E-03
4736,5.66E-03,8.81E-03
4737,5.87E-03,8.78E-03
4738,5.78E-03,8.79E-03
4739,5.90E-03,8.76E-03
4740,5.94E-03,8.77E-03
4741,5.72E-03,8.75E-03
4742,5.78E-03,8.75E-03
4743,5.60E-03,8.74E-03
4744,5.61E-03,8.75E-03
4745,5.56E-03,8.72E-03
4746,5.54E-03,8.73E-03
4747,5.50E-03,8.71E-03
4748,5.50E-03,8.72E-03
4749,5.41E-03,8.71E-03
4750,5.45E-03,8.71E-03
4751,5.37E-03,8.70E-03
4752,5.39E-03,8.70E-03
4753,5.31E-03,8.68E-03
4754,5.32E-03,8.69E-03
4755,5.57E-03,8.64E-03
4756,5.35E-03,8.67E-03
4757,5.44E-03,8.63E-03
4758,5.28E-03,8.62E-03
4759,6.15E-03,8.55E-03
4760,5.49E-03,8.60E-03
4761,5.98E-03,8.52E-03
4762,6.39E-03,8.52E-03
4763,5.85E-03,8.53E-03
4764,5.91E-03,8.52E-03
4765,6.25E-03,8.53E-03
4766,5.91E-03,8.53E-03
4767,5.62E-03,8.55E-03
4768,6.14E-03,8.52E-03
4769,5.41E-03,8.60E-03
4770,5.45E-03,8.57E-03
4771,5.68E-03,8.48E-03
4772,5.86E-03,8.47E-03
4773,5.32E-03,8.48E-03
4774,5.44E-03,8.48E-03
4775,5.62E-03,8.42E-03
4776,5.19E-03,8.47E-03
4777,5.08E-03,8.09E-03
4778,4.81E-03,8.09E-03
4779,5.35E-03,8.07E-03
4780,5.24E-03,8.08E-03
4781,5.51E-03,8.04E-03
4782,5.46E-03,8.06E-03
4783,5.45E-03,7.99E-03
4784,5.47E-03,8.02E-03
4785,5.26E-03,7.95E-03
4786,5.32E-03,7.96E-03
4787,5.46E-03,7.91E-03
4788,5.41E-03,7.95E-03
4789,5.61E-03,7.88E-03
4790,5.54E-03,7.88E-03
4791,5.60E-03,7.86E-03
4792,5.66E-03,7.87E-03
4793,5.44E-03,7.85E-03
4794,5.46E-03,7.86E-03
4795,5.35E-03,7.82E-03
4796,5.37E-03,7.84E-03
4797,5.35E-03,7.78E-03
4798,5.28E-03,7.80E-03
4799,5.33E-03,7.77E-03
4800,5.26E-03,7.78E-03
4801,5.33E-03,7.77E-03
4802,5.24E-03,7.77E-03
4803,5.37E-03,7.76E-03
4804,5.32E-03,7.77E-03
4805,5.42E-03,7.77E-03
4806,5.41E-03,7.76E-03
4807,5.57E-03,7.77E-03
4808,5.56E-03,7.77E-03
4809,5.62E-03,7.78E-03
4810,5.56E-03,7.77E-03
4811,5.60E-03,7.79E-03
4812,5.59E-03,7.76E-03
4813,5.43E-03,7.74E-03
4814,5.72E-03,7.77E-03
4815,5.69E-03,7.77E-03
4816,5.61E-03,7.77E-03
4817,5.62E-03,7.77E-03
4818,5.52E-03,7.76E-03
4819,5.52E-03,7.76E-03
4820,5.55E-03,7.75E-03
4821,5.53E-03,7.76E-03
4822,5.51E-03,7.74E-03
4823,5.57E-03,7.75E-03
4824,5.42E-03,7.73E-03
4825,5.58E-03,7.69E-03
4826,5.51E-03,7.69E-03
4827,5.65E-03,7.69E-03
4828,5.61E-03,7.69E-03
4829,5.70E-03,7.67E-03
4830,5.67E-03,7.68E-03
4831,5.59E-03,7.65E-03
4832,5.63E-03,7.66E-03
4833,5.60E-03,7.64E-03
4834,5.59E-03,7.64E-03
4835,5.60E-03,7.62E-03
4836,5.53E-03,7.63E-03
4837,5.57E-03,7.61E-03
4838,5.55E-03,7.62E-03
4839,5.56E-03,7.58E-03
4840,5.53E-03,7.59E-03
4841,5.52E-03,7.58E-03
4842,5.51E-03,7.58E-03
4843,5.48E-03,7.56E-03
4844,5.46E-03,7.57E-03
4845,5.60E-03,7.54E-03
4846,5.60E-03,7.56E-03
4847,5.57E-03,7.52E-03
4848,5.60E-03,7.53E-03
4849,5.56E-03,7.51E-03
4850,5.52E-03,7.52E-03
4851,5.59E-03,7.48E-03
4852,5.60E-03,7.49E-03
4853,5.65E-03,7.44E-03
4854,5.63E-03,7.46E-03
4855,5.65E-03,7.40E-03
4856,5.63E-03,7.42E-03
4857,5.64E-03,7.37E-03
4858,5.66E-03,7.39E-03
4859,5.54E-03,7.34E-03
4860,5.57E-03,7.35E-03
4861,5.64E-03,7.30E-03
4862,5.59E-03,7.32E-03
4863,5.76E-03,7.26E-03
4864,5.69E-03,7.28E-03
4865,5.90E-03,7.23E-03
4866,5.87E-03,7.24E-03
4867,5.87E-03,7.21E-03
4868,5.88E-03,7.21E-03
4869,5.79E-03,7.23E-03
4870,5.63E-03,7.13E-03
4871,5.64E-03,7.13E-03
4872,5.84E-03,7.14E-03
4873,5.82E-03,7.13E-03
4874,5.87E-03,7.19E-03
4875,5.82E-03,7.16E-03
4876,5.90E-03,7.25E-03
4877,5.84E-03,7.22E-03
4878,5.92E-03,7.28E-03
4879,5.45E-03,7.54E-03
4880,5.39E-03,7.50E-03
4881,5.52E-03,7.65E-03
4882,5.48E-03,7.59E-03
4883,5.59E-03,7.76E-03
4884,5.59E-03,7.71E-03
4885,5.68E-03,7.88E-03
4886,5.66E-03,7.82E-03
4887,5.76E-03,8.00E-03
4888,5.72E-03,7.93E-03
4889,5.87E-03,8.13E-03
4890,5.74E-03,8.06E-03
4891,5.91E-03,8.26E-03
4892,5.91E-03,8.19E-03
4893,6.00E-03,8.37E-03
4894,5.92E-03,8.31E-03
4895,5.91E-03,8.48E-03
4896,5.93E-03,8.43E-03
4897,5.80E-03,8.58E-03
4898,5.88E-03,8.53E-03
4899,5.86E-03,8.68E-03
4900,5.78E-03,8.63E-03
4901,5.95E-03,8.77E-03
4902,5.92E-03,8.73E-03
4903,6.01E-03,8.84E-03
4904,5.99E-03,8.80E-03
4905,6.02E-03,8.90E-03
4906,6.08E-03,8.87E-03
4907,5.88E-03,8.96E-03
4908,5.97E-03,8.93E-03
4909,5.73E-03,9.03E-03
4910,5.76E-03,8.99E-03
4911,5.61E-03,9.07E-03
4912,5.77E-03,9.29E-03
4913,5.60E-03,9.24E-03
4914,5.27E-03,9.36E-03
4915,5.14E-03,9.27E-03
4916,6.11E-03,9.33E-03
4917,5.49E-03,9.47E-03
4918,5.48E-03,9.42E-03
4919,5.54E-03,9.55E-03
4920,5.54E-03,9.51E-03
4921,5.67E-03,9.61E-03
4922,5.61E-03,9.58E-03
4923,5.83E-03,9.69E-03
4924,5.75E-03,9.65E-03
4925,5.91E-03,9.76E-03
4926,5.89E-03,9.73E-03
4927,5.96E-03,9.85E-03
4928,5.96E-03,9.81E-03
4929,5.87E-03,9.93E-03
4930,5.90E-03,9.89E-03
4931,5.85E-03,1.00E-02
4932,5.86E-03,9.97E-03
4933,5.82E-03,1.01E-02
4934,5.69E-03,1.03E-02
4935,5.69E-03,1.03E-02
4936,5.70E-03,1.04E-02
4937,5.70E-03,1.04E-02
4938,5.13E-03,1.05E-02
4939,5.57E-03,1.04E-02
4940,4.00E-03,1.05E-02
4941,5.20E-03,6.93E-03
4942,5.07E-03,7.23E-03
4943,5.78E-03,9.90E-03
4944,5.91E-03,1.13E-02
4945,5.54E-03,1.15E-02
4946,6.54E-03,1.13E-02
4947,5.33E-03,1.04E-02
4948,6.03E-03,9.41E-03
4949,5.54E-03,9.45E-03
4950,3.88E-03,9.47E-03
4951,5.58E-03,9.27E-03
4952,5.56E-03,9.28E-03
4953,5.62E-03,9.26E-03
4954,5.65E-03,7.62E-03
4955,5.39E-03,7.53E-03
4956,5.46E-03,7.54E-03
4957,6.22E-03,7.03E-03
4958,5.10E-03,6.73E-03
4959,5.31E-03,6.90E-03
4960,5.34E-03,7.04E-03
4961,5.56E-03,9.00E-03
4962,5.57E-03,8.95E-03
4963,5.56E-03,9.03E-03
4964,3.91E-03,9.17E-03
4965,4.38E-03,9.17E-03
4966,4.95E-03,9.21E-03
4967,5.72E-03,1.01E-02
4968,5.73E-03,1.00E-02
4969,5.62E-03,1.01E-02
4970,5.27E-03,6.71E-03
4971,4.90E-03,6.67E-03
4972,4.97E-03,6.71E-03
4973,6.00E-03,1.19E-02
4974,6.67E-03,1.19E-02
4975,6.24E-03,1.10E-02
4976,6.28E-03,1.12E-02
4977,5.30E-03,1.09E-02
4978,5.28E-03,7.52E-03
4979,5.36E-03,7.46E-03
4980,4.80E-03,6.82E-03
4981,4.54E-03,6.83E-03
4982,5.35E-03,6.99E-03
4983,5.03E-03,6.67E-03
4984,5.67E-03,1.14E-02
4985,5.72E-03,1.18E-02
4986,5.78E-03,1.19E-02
4987,5.56E-03,1.18E-02
4988,5.59E-03,1.18E-02
4989,5.64E-03,1.17E-02
4990,5.64E-03,1.17E-02
4991,5.74E-03,1.17E-02
4992,5.72E-03,1.17E-02
4993,5.69E-03,1.16E-02
4994,5.66E-03,1.16E-02
4995,5.62E-03,1.15E-02
4996,5.61E-03,1.16E-02
4997,5.75E-03,1.15E-02
4998,5.70E-03,1.15E-02
4999,6.10E-03,1.14E-02
5000,5.96E-03,1.14E-02
5001,6.35E-03,1.13E-02
5002,6.48E-03,1.14E-02
5003,6.24E-03,1.13E-02
5004,6.33E-03,1.13E-02
5005,6.06E-03,1.12E-02
5006,6.17E-03,1.13E-02
5007,5.87E-03,1.12E-02
5008,5.97E-03,1.12E-02
5009,5.74E-03,1.11E-02
5010,5.79E-03,1.12E-02
5011,5.65E-03,1.11E-02
5012,5.71E-03,1.11E-02
5013,5.57E-03,1.10E-02
5014,5.60E-03,1.10E-02
5015,5.53E-03,1.09E-02
5016,5.56E-03,1.09E-02
5017,5.44E-03,1.08E-02
5018,5.51E-03,1.09E-02
5019,5.36E-03,1.08E-02
5020,5.36E-03,1.08E-02
5021,5.35E-03,1.07E-02
5022,5.40E-03,1.07E-02
5023,5.27E-03,1.06E-02
5024,5.33E-03,1.07E-02
5025,5.34E-03,1.06E-02
5026,5.27E-03,1.06E-02
5027,5.29E-03,1.05E-02
5028,5.35E-03,1.05E-02
5029,4.76E-03,1.05E-02
5030,5.27E-03,1.05E-02
5031,4.98E-03,1.04E-02
5032,4.88E-03,1.04E-02
5033,5.65E-03,1.03E-02
5034,5.37E-03,1.04E-02
5035,5.74E-03,1.03E-02
5036,5.66E-03,1.03E-02
5037,5.72E-03,1.03E-02
5038,5.74E-03,1.03E-02
5039,5.83E-03,1.02E-02
5040,5.79E-03,1.02E-02
5041,5.92E-03,1.02E-02
5042,5.88E-03,1.02E-02
5043,5.89E-03,1.02E-02
5044,5.92E-03,1.02E-02
5045,5.71E-03,1.01E-02
5046,5.77E-03,1.01E-02
5047,5.60E-03,1.01E-02
5048,5.60E-03,1.01E-02
5049,5.74E-03,1.00E-02
5050,5.71E-03,1.01E-02
5051,5.69E-03,9.99E-03
5052,5.75E-03,1.00E-02
5053,5.64E-03,9.96E-03
5054,5.68E-03,9.98E-03
5055,5.46E-03,9.92E-03
5056,5.55E-03,9.94E-03
5057,5.46E-03,9.88E-03
5058,5.43E-03,9.90E-03
5059,5.46E-03,9.84E-03
5060,5.47E-03,9.86E-03
5061,5.55E-03,9.80E-03
5062,5.51E-03,9.82E-03
5063,5.65E-03,9.76E-03
5064,5.59E-03,9.78E-03
5065,5.79E-03,9.72E-03
5066,5.74E-03,9.74E-03
5067,5.86E-03,9.68E-03
5068,5.81E-03,9.70E-03
5069,5.74E-03,9.64E-03
5070,5.76E-03,9.66E-03
5071,5.54E-03,9.61E-03
5072,5.64E-03,9.62E-03
5073,5.32E-03,9.57E-03
5074,5.46E-03,9.59E-03
5075,5.20E-03,9.55E-03
5076,5.22E-03,9.56E-03
5077,5.22E-03,9.51E-03
5078,5.20E-03,9.53E-03
5079,5.26E-03,9.48E-03
5080,5.25E-03,9.49E-03
5081,5.37E-03,9.46E-03
5082,5.17E-03,9.45E-03
5083,5.03E-03,9.47E-03
5084,5.38E-03,9.40E-03
5085,5.27E-03,9.43E-03
5086,5.35E-03,9.39E-03
5087,5.38E-03,9.40E-03
5088,5.10E-03,9.40E-03
5089,5.24E-03,9.39E-03
5090,5.22E-03,9.37E-03
5091,5.16E-03,9.39E-03
5092,5.40E-03,9.35E-03
5093,5.32E-03,9.36E-03
5094,5.52E-03,9.32E-03
5095,5.48E-03,9.33E-03
5096,5.58E-03,9.30E-03
5097,5.66E-03,9.25E-03
5098,5.68E-03,9.26E-03
5099,5.58E-03,9.24E-03
5100,5.63E-03,9.24E-03
5101,5.48E-03,9.22E-03
5102,5.54E-03,9.23E-03
5103,5.51E-03,9.20E-03
5104,5.45E-03,9.20E-03
5105,5.62E-03,9.18E-03
5106,5.57E-03,9.19E-03
5107,5.52E-03,9.16E-03
5108,5.56E-03,9.17E-03
5109,5.51E-03,9.15E-03
5110,5.49E-03,9.16E-03
5111,5.42E-03,9.12E-03
5112,5.48E-03,9.14E-03
5113,5.36E-03,9.09E-03
5114,5.44E-03,9.11E-03
5115,5.49E-03,9.07E-03
5116,5.41E-03,9.08E-03
5117,5.58E-03,9.05E-03
5118,5.53E-03,9.06E-03
5119,5.64E-03,9.01E-03
5120,5.62E-03,9.03E-03
5121,5.72E-03,9.00E-03
5122,5.66E-03,9.01E-03
5123,5.81E-03,8.98E-03
5124,5.76E-03,8.99E-03
5125,5.80E-03,8.96E-03
5126,5.80E-03,8.97E-03
5127,5.73E-03,8.94E-03
5128,5.80E-03,8.95E-03
5129,5.59E-03,8.93E-03
5130,5.66E-03,8.93E-03
5131,5.56E-03,8.91E-03
5132,5.56E-03,8.92E-03
5133,5.55E-03,8.90E-03
5134,5.54E-03,8.90E-03
5135,5.46E-03,8.89E-03
5136,5.54E-03,8.90E-03
5137,5.45E-03,8.88E-03
5138,5.45E-03,8.89E-03
5139,5.36E-03,8.86E-03
5140,5.34E-03,8.87E-03
5141,5.49E-03,8.83E-03
5142,5.43E-03,8.84E-03
5143,5.46E-03,8.81E-03
5144,5.46E-03,8.83E-03
5145,5.78E-03,8.76E-03
5146,5.67E-03,8.78E-03
5147,5.97E-03,8.73E-03
5148,5.96E-03,8.74E-03
5149,5.85E-03,8.73E-03
5150,5.89E-03,8.73E-03
5151,5.85E-03,8.74E-03
5152,5.86E-03,8.73E-03
5153,5.58E-03,8.74E-03
5154,5.76E-03,8.73E-03
5155,4.99E-03,8.77E-03
5156,5.37E-03,8.76E-03
5157,5.82E-03,8.67E-03
5158,6.56E-03,8.68E-03
5159,5.52E-03,8.66E-03
5160,5.49E-03,8.67E-03
5161,5.82E-03,8.60E-03
5162,5.59E-03,8.64E-03
5163,6.00E-03,8.54E-03
5164,5.65E-03,8.57E-03
5165,6.15E-03,8.30E-03
5166,5.97E-03,8.31E-03
5167,5.85E-03,8.52E-03
5168,6.05E-03,8.52E-03
5169,5.82E-03,8.32E-03
5170,5.70E-03,8.34E-03
5171,5.74E-03,8.54E-03
5172,5.79E-03,8.53E-03
5173,5.54E-03,8.35E-03
5174,5.39E-03,8.37E-03
5175,5.51E-03,8.56E-03
5176,5.66E-03,8.55E-03
5177,5.16E-03,8.38E-03
5178,3.52E-03,8.41E-03
5179,4.75E-03,8.56E-03
5180,5.48E-03,8.58E-03
5181,3.59E-03,8.47E-03
5182,6.08E-03,8.51E-03
5183,5.77E-03,8.53E-03
5184,5.66E-03,8.54E-03
5185,5.52E-03,8.54E-03
5186,4.81E-03,8.55E-03
5187,5.31E-03,8.55E-03
5188,4.90E-03,8.59E-03
5189,5.39E-03,8.50E-03
5190,4.83E-03,8.50E-03
5191,6.28E-03,8.44E-03
5192,5.47E-03,8.48E-03
5193,5.56E-03,8.47E-03
5194,5.59E-03,8.47E-03
5195,5.66E-03,8.47E-03
5196,5.85E-03,8.47E-03
5197,6.57E-03,8.46E-03
5198,5.44E-03,8.37E-03
5199,5.49E-03,8.39E-03
5200,5.61E-03,8.35E-03
5201,5.54E-03,8.36E-03
5202,5.28E-03,8.31E-03
5203,5.69E-03,8.33E-03
5204,5.65E-03,8.27E-03
5205,5.08E-03,8.32E-03
5206,5.40E-03,8.18E-03
5207,5.13E-03,8.20E-03
5208,5.66E-03,8.14E-03
5209,5.54E-03,8.16E-03
5210,5.86E-03,8.10E-03
5211,5.73E-03,8.12E-03
5212,6.87E-03,8.06E-03
5213,6.18E-03,8.08E-03
5214,5.07E-03,7.95E-03
5215,6.15E-03,8.04E-03
5216,5.14E-03,7.89E-03
5217,5.02E-03,7.90E-03
5218,5.30E-03,7.86E-03
5219,5.21E-03,7.87E-03
5220,5.47E-03,7.83E-03
5221,5.40E-03,7.85E-03
5222,5.41E-03,7.78E-03
5223,5.46E-03,7.81E-03
5224,5.39E-03,7.75E-03
5225,5.39E-03,7.76E-03
5226,5.54E-03,7.70E-03
5227,5.47E-03,7.72E-03
5228,5.60E-03,7.67E-03
5229,5.59E-03,7.68E-03
5230,5.54E-03,7.65E-03
5231,5.61E-03,7.66E-03
5232,5.44E-03,7.64E-03
5233,5.47E-03,7.65E-03
5234,5.43E-03,7.62E-03
5235,5.45E-03,7.63E-03
5236,5.36E-03,7.59E-03
5237,5.36E-03,7.60E-03
5238,5.37E-03,7.58E-03
5239,5.33E-03,7.58E-03
5240,5.35E-03,7.58E-03
5241,5.33E-03,7.58E-03
5242,5.45E-03,7.57E-03
5243,5.38E-03,7.58E-03
5244,5.47E-03,7.57E-03
5245,5.46E-03,7.57E-03
5246,5.60E-03,7.58E-03
5247,5.57E-03,7.58E-03
5248,5.72E-03,7.58E-03
5249,5.66E-03,7.58E-03
5250,5.70E-03,7.60E-03
5251,5.49E-03,7.58E-03
5252,5.27E-03,7.57E-03
5253,5.68E-03,7.58E-03
5254,5.58E-03,7.58E-03
5255,5.63E-03,7.58E-03
5256,5.63E-03,7.58E-03
5257,5.53E-03,7.58E-03
5258,5.54E-03,7.58E-03
5259,5.57E-03,7.58E-03
5260,5.53E-03,7.58E-03
5261,5.57E-03,7.56E-03
5262,5.62E-03,7.57E-03
5263,5.49E-03,7.55E-03
5264,5.52E-03,7.52E-03
5265,5.52E-03,7.52E-03
5266,5.57E-03,7.51E-03
5267,5.56E-03,7.51E-03
5268,5.62E-03,7.49E-03
5269,5.64E-03,7.50E-03
5270,5.55E-03,7.47E-03
5271,5.55E-03,7.48E-03
5272,5.57E-03,7.46E-03
5273,5.55E-03,7.46E-03
5274,5.61E-03,7.45E-03
5275,5.58E-03,7.45E-03
5276,5.60E-03,7.43E-03
5277,5.60E-03,7.44E-03
5278,5.57E-03,7.41E-03
5279,5.53E-03,7.42E-03
5280,5.52E-03,7.40E-03
5281,5.55E-03,7.40E-03
5282,5.53E-03,7.39E-03
5283,5.48E-03,7.39E-03
5284,5.63E-03,7.37E-03
5285,5.58E-03,7.38E-03
5286,5.65E-03,7.35E-03
5287,5.64E-03,7.36E-03
5288,5.60E-03,7.33E-03
5289,5.58E-03,7.34E-03
5290,5.68E-03,7.30E-03
5291,5.63E-03,7.32E-03
5292,5.70E-03,7.27E-03
5293,5.70E-03,7.28E-03
5294,5.65E-03,7.23E-03
5295,5.62E-03,7.25E-03
5296,5.62E-03,7.19E-03
5297,5.64E-03,7.21E-03
5298,5.55E-03,7.16E-03
5299,5.57E-03,7.17E-03
5300,5.65E-03,7.11E-03
5301,5.63E-03,7.13E-03
5302,5.74E-03,7.07E-03
5303,5.70E-03,7.09E-03
5304,5.83E-03,7.03E-03
5305,5.80E-03,7.05E-03
5306,6.01E-03,7.00E-03
5307,5.89E-03,7.01E-03
5308,6.24E-03,7.00E-03
5309,5.68E-03,6.90E-03
5310,5.62E-03,6.90E-03
5311,5.85E-03,6.91E-03
5312,5.78E-03,6.90E-03
5313,5.85E-03,6.95E-03
5314,5.83E-03,6.93E-03
5315,5.77E-03,7.01E-03
5316,5.78E-03,6.98E-03
5317,5.65E-03,7.03E-03
5318,5.57E-03,7.31E-03
5319,5.46E-03,7.27E-03
5320,5.56E-03,7.43E-03
5321,5.52E-03,7.37E-03
5322,5.56E-03,7.55E-03
5323,5.59E-03,7.49E-03
5324,5.65E-03,7.67E-03
5325,5.63E-03,7.61E-03
5326,5.75E-03,7.81E-03
5327,5.67E-03,7.74E-03
5328,5.83E-03,7.95E-03
5329,5.72E-03,7.88E-03
5330,5.90E-03,8.09E-03
5331,5.90E-03,8.03E-03
5332,5.98E-03,8.22E-03
5333,5.95E-03,8.16E-03
5334,5.92E-03,8.34E-03
5335,5.91E-03,8.28E-03
5336,5.78E-03,8.45E-03
5337,5.87E-03,8.40E-03
5338,5.83E-03,8.56E-03
5339,5.80E-03,8.51E-03
5340,5.90E-03,8.65E-03
5341,5.87E-03,8.60E-03
5342,6.00E-03,8.72E-03
5343,5.93E-03,8.68E-03
5344,5.99E-03,8.77E-03
5345,6.00E-03,8.75E-03
5346,5.87E-03,8.83E-03
5347,5.95E-03,8.80E-03
5348,5.69E-03,8.89E-03
5349,5.69E-03,8.85E-03
5350,5.61E-03,8.92E-03
5351,5.57E-03,9.11E-03
5352,5.60E-03,9.07E-03
5353,5.48E-03,9.13E-03
5354,5.37E-03,9.30E-03
5355,5.26E-03,9.26E-03
5356,5.47E-03,9.38E-03
5357,5.44E-03,9.34E-03
5358,5.62E-03,9.45E-03
5359,5.53E-03,9.41E-03
5360,5.76E-03,9.53E-03
5361,5.71E-03,9.49E-03
5362,5.82E-03,9.61E-03
5363,5.81E-03,9.57E-03
5364,5.82E-03,9.71E-03
5365,5.83E-03,9.66E-03
5366,5.81E-03,9.80E-03
5367,5.74E-03,9.75E-03
5368,5.84E-03,9.84E-03
5369,5.62E-03,1.02E-02
5370,5.64E-03,1.02E-02
5371,5.59E-03,1.03E-02
5372,5.62E-03,1.02E-02
5373,5.07E-03,1.03E-02
5374,5.44E-03,1.03E-02
5375,4.12E-03,1.04E-02
5376,5.19E-03,6.70E-03
5377,5.28E-03,1.17E-02
5378,5.65E-03,9.45E-03
5379,5.79E-03,1.13E-02
5380,5.51E-03,1.16E-02
5381,4.38E-03,1.08E-02
5382,6.55E-03,1.14E-02
5383,6.28E-03,9.61E-03
5384,5.67E-03,9.64E-03
5385,6.07E-03,9.62E-03
5386,5.62E-03,9.46E-03
5387,5.63E-03,9.44E-03
5388,5.31E-03,8.65E-03
5389,5.30E-03,8.31E-03
5390,5.85E-03,7.43E-03
5391,5.37E-03,6.68E-03
5392,5.14E-03,6.80E-03
5393,5.55E-03,8.83E-03
5394,5.56E-03,8.80E-03
5395,5.51E-03,8.87E-03
5396,5.69E-03,9.95E-03
5397,5.70E-03,9.89E-03
5398,5.60E-03,1.00E-02
5399,4.16E-03,1.11E-02
5400,4.57E-03,1.09E-02
5401,5.51E-03,7.37E-03
5402,3.93E-03,6.48E-03
5403,5.35E-03,6.46E-03
5404,4.55E-03,6.43E-03
5405,3.79E-03,6.80E-03
5406,4.83E-03,8.99E-03
5407,4.74E-03,9.02E-03
5408,5.54E-03,1.03E-02
5409,4.34E-03,7.37E-03
5410,5.32E-03,7.29E-03
5411,4.94E-03,1.17E-02
5412,4.09E-03,1.11E-02
5413,5.72E-03,1.12E-02
5414,5.64E-03,1.14E-02
5415,6.23E-03,1.21E-02
5416,6.01E-03,1.20E-02
5417,6.25E-03,1.21E-02
5418,5.73E-03,1.20E-02
5419,5.88E-03,1.20E-02
5420,5.58E-03,1.19E-02
5421,5.66E-03,1.19E-02
5422,5.63E-03,1.18E-02
5423,5.59E-03,1.19E-02
5424,5.72E-03,1.18E-02
5425,5.71E-03,1.18E-02
5426,5.67E-03,1.17E-02
5427,5.65E-03,1.18E-02
5428,5.62E-03,1.17E-02
5429,5.61E-03,1.17E-02
5430,5.79E-03,1.16E-02
5431,5.69E-03,1.17E-02
5432,6.14E-03,1.15E-02
5433,5.92E-03,1.16E-02
5434,6.58E-03,1.15E-02
5435,6.22E-03,1.15E-02
5436,6.06E-03,1.14E-02
5437,6.09E-03,1.15E-02
5438,5.94E-03,1.14E-02
5439,6.06E-03,1.14E-02
5440,5.80E-03,1.13E-02
5441,5.95E-03,1.13E-02
5442,5.65E-03,1.13E-02
5443,5.73E-03,1.13E-02
5444,5.56E-03,1.12E-02
5445,5.59E-03,1.12E-02
5446,5.51E-03,1.11E-02
5447,5.55E-03,1.12E-02
5448,5.50E-03,1.11E-02
5449,5.52E-03,1.11E-02
5450,5.43E-03,1.10E-02
5451,5.48E-03,1.10E-02
5452,5.36E-03,1.09E-02
5453,5.36E-03,1.09E-02
5454,5.32E-03,1.08E-02
5455,5.37E-03,1.09E-02
5456,5.36E-03,1.08E-02
5457,5.35E-03,1.08E-02
5458,5.36E-03,1.07E-02
5459,5.35E-03,1.07E-02
5460,5.34E-03,1.07E-02
5461,5.38E-03,1.07E-02
5462,5.31E-03,1.06E-02
5463,5.30E-03,1.06E-02
5464,5.93E-03,1.06E-02
5465,5.40E-03,1.05E-02
5466,5.46E-03,1.05E-02
5467,5.58E-03,1.05E-02
5468,5.46E-03,1.05E-02
5469,5.68E-03,1.05E-02
5470,5.67E-03,1.05E-02
5471,5.62E-03,1.04E-02
5472,5.65E-03,1.04E-02
5473,5.70E-03,1.04E-02
5474,5.64E-03,1.04E-02
5475,5.88E-03,1.04E-02
5476,5.78E-03,1.04E-02
5477,5.86E-03,1.03E-02
5478,5.90E-03,1.04E-02
5479,5.70E-03,1.03E-02
5480,5.75E-03,1.03E-02
5481,5.68E-03,1.03E-02
5482,5.69E-03,1.03E-02
5483,5.72E-03,1.02E-02
5484,5.71E-03,1.02E-02
5485,5.73E-03,1.02E-02
5486,5.74E-03,1.02E-02
5487,5.65E-03,1.01E-02
5488,5.71E-03,1.02E-02
5489,5.53E-03,1.01E-02
5490,5.58E-03,1.01E-02
5491,5.44E-03,1.01E-02
5492,5.49E-03,1.01E-02
5493,5.49E-03,1.00E-02
5494,5.51E-03,1.00E-02
5495,5.51E-03,9.98E-03
5496,5.51E-03,1.00E-02
5497,5.68E-03,9.94E-03
5498,5.56E-03,9.96E-03
5499,5.71E-03,9.90E-03
5500,5.65E-03,9.92E-03
5501,5.80E-03,9.87E-03
5502,5.74E-03,9.89E-03
5503,5.68E-03,9.83E-03
5504,5.72E-03,9.85E-03
5505,5.51E-03,9.79E-03
5506,5.61E-03,9.81E-03
5507,5.31E-03,9.76E-03
5508,5.41E-03,9.78E-03
5509,5.27E-03,9.73E-03
5510,5.24E-03,9.75E-03
5511,5.28E-03,9.69E-03
5512,5.24E-03,9.71E-03
5513,5.33E-03,9.66E-03
5514,5.28E-03,9.67E-03
5515,5.43E-03,9.64E-03
5516,5.25E-03,9.62E-03
5517,5.20E-03,9.64E-03
5518,5.37E-03,9.59E-03
5519,5.26E-03,9.60E-03
5520,5.40E-03,9.57E-03
5521,5.34E-03,9.58E-03
5522,5.28E-03,9.56E-03
5523,5.31E-03,9.56E-03
5524,5.30E-03,9.54E-03
5525,5.30E-03,9.55E-03
5526,5.48E-03,9.52E-03
5527,5.39E-03,9.53E-03
5528,5.55E-03,9.50E-03
5529,5.54E-03,9.51E-03
5530,5.62E-03,9.48E-03
5531,5.59E-03,9.43E-03
5532,5.62E-03,9.44E-03
5533,5.52E-03,9.42E-03
5534,5.59E-03,9.42E-03
5535,5.48E-03,9.39E-03
5536,5.50E-03,9.41E-03
5537,5.49E-03,9.38E-03
5538,5.47E-03,9.38E-03
5539,5.53E-03,9.36E-03
5540,5.53E-03,9.37E-03
5541,5.47E-03,9.34E-03
5542,5.46E-03,9.35E-03
5543,5.48E-03,9.32E-03
5544,5.53E-03,9.33E-03
5545,5.42E-03,9.30E-03
5546,5.47E-03,9.31E-03
5547,5.41E-03,9.27E-03
5548,5.41E-03,9.29E-03
5549,5.52E-03,9.26E-03
5550,5.47E-03,9.27E-03
5551,5.56E-03,9.23E-03
5552,5.57E-03,9.24E-03
5553,5.65E-03,9.21E-03
5554,5.63E-03,9.22E-03
5555,5.70E-03,9.19E-03
5556,5.68E-03,9.20E-03
5557,5.73E-03,9.17E-03
5558,5.71E-03,9.18E-03
5559,5.73E-03,9.15E-03
5560,5.71E-03,9.16E-03
5561,5.73E-03,9.13E-03
5562,5.76E-03,9.14E-03
5563,5.61E-03,9.12E-03
5564,5.68E-03,9.12E-03
5565,5.56E-03,9.10E-03
5566,5.58E-03,9.11E-03
5567,5.60E-03,9.09E-03
5568,5.61E-03,9.09E-03
5569,5.57E-03,9.08E-03
5570,5.60E-03,9.08E-03
5571,5.50E-03,9.07E-03
5572,5.52E-03,9.07E-03
5573,5.43E-03,9.04E-03
5574,5.40E-03,9.06E-03
5575,5.50E-03,9.02E-03
5576,5.48E-03,9.03E-03
5577,5.58E-03,9.00E-03
5578,5.55E-03,9.02E-03
5579,5.76E-03,8.97E-03
5580,5.66E-03,8.99E-03
5581,5.88E-03,8.94E-03
5582,5.82E-03,8.95E-03
5583,5.82E-03,8.93E-03
5584,5.81E-03,8.93E-03
5585,5.73E-03,8.94E-03
5586,5.78E-03,8.94E-03
5587,5.54E-03,8.94E-03
5588,5.63E-03,8.94E-03
5589,5.18E-03,8.96E-03
5590,5.33E-03,8.95E-03
5591,4.75E-03,8.92E-03
5592,4.35E-03,8.97E-03
5593,5.88E-03,8.86E-03
5594,6.39E-03,8.88E-03
5595,5.65E-03,8.84E-03
5596,5.65E-03,8.85E-03
5597,5.68E-03,8.81E-03
5598,5.68E-03,8.83E-03
5599,5.80E-03,8.76E-03
5600,5.79E-03,8.78E-03
5601,5.78E-03,8.74E-03
5602,5.93E-03,8.75E-03
5603,5.71E-03,8.74E-03
5604,5.78E-03,8.74E-03
5605,5.65E-03,8.75E-03
5606,5.67E-03,8.75E-03
5607,6.28E-03,8.73E-03
5608,5.66E-03,8.76E-03
5609,5.87E-03,8.72E-03
5610,6.27E-03,8.72E-03
5611,5.49E-03,8.73E-03
5612,5.67E-03,8.73E-03
5613,5.04E-03,8.74E-03
5614,5.29E-03,8.74E-03
5615,4.86E-03,8.70E-03
5616,4.42E-03,8.73E-03
5617,5.88E-03,8.66E-03
5618,6.34E-03,8.67E-03
5619,5.65E-03,8.66E-03
5620,5.70E-03,8.66E-03
5621,5.51E-03,8.67E-03
5622,5.55E-03,8.66E-03
5623,5.46E-03,8.68E-03
5624,5.44E-03,8.67E-03
5625,5.60E-03,8.63E-03
5626,4.84E-03,8.70E-03
5627,5.55E-03,8.64E-03
5628,5.90E-03,8.63E-03
5629,5.41E-03,8.64E-03
5630,5.15E-03,8.66E-03
5631,5.02E-03,8.67E-03
5632,4.30E-03,8.66E-03
5633,3.64E-03,8.71E-03
5634,4.42E-03,8.70E-03
5635,5.04E-03,8.56E-03
5636,5.32E-03,8.56E-03
5637,4.38E-03,8.53E-03
5638,5.83E-03,8.54E-03
5639,5.15E-03,8.50E-03
5640,4.39E-03,8.50E-03
5641,5.08E-03,8.45E-03
5642,5.12E-03,8.47E-03
5643,5.22E-03,8.44E-03
5644,5.57E-03,8.41E-03
5645,5.76E-03,8.39E-03
5646,5.80E-03,8.39E-03
5647,4.98E-03,8.31E-03
5648,5.53E-03,8.28E-03
5649,5.51E-03,8.28E-03
5650,5.69E-03,8.27E-03
5651,5.63E-03,8.27E-03
5652,5.93E-03,8.24E-03
5653,5.93E-03,8.26E-03
5654,5.59E-03,8.20E-03
5655,5.70E-03,8.22E-03
5656,5.62E-03,8.17E-03
5657,5.58E-03,8.18E-03
5658,5.43E-03,8.13E-03
5659,5.58E-03,8.15E-03
5660,5.32E-03,8.08E-03
5661,5.37E-03,8.11E-03
5662,5.44E-03,8.00E-03
5663,5.42E-03,8.04E-03
5664,5.62E-03,7.95E-03
5665,5.55E-03,7.97E-03
5666,5.83E-03,7.90E-03
5667,5.69E-03,7.92E-03
5668,5.93E-03,7.84E-03
5669,5.88E-03,7.87E-03
5670,5.51E-03,7.77E-03
5671,5.77E-03,7.81E-03
5672,5.28E-03,7.69E-03
5673,5.28E-03,7.72E-03
5674,5.34E-03,7.66E-03
5675,5.26E-03,7.67E-03
5676,5.41E-03,7.62E-03
5677,5.39E-03,7.64E-03
5678,5.49E-03,7.57E-03
5679,5.47E-03,7.59E-03
5680,5.43E-03,7.53E-03
5681,5.44E-03,7.55E-03
5682,5.52E-03,7.48E-03
5683,5.51E-03,7.50E-03
5684,5.60E-03,7.46E-03
5685,5.59E-03,7.47E-03
5686,5.54E-03,7.44E-03
5687,5.62E-03,7.45E-03
5688,5.48E-03,7.43E-03
5689,5.52E-03,7.44E-03
5690,5.44E-03,7.41E-03
5691,5.42E-03,7.42E-03
5692,5.39E-03,7.39E-03
5693,5.42E-03,7.40E-03
5694,5.36E-03,7.39E-03
5695,5.41E-03,7.39E-03
5696,5.40E-03,7.39E-03
5697,5.35E-03,7.39E-03
5698,5.48E-03,7.38E-03
5699,5.45E-03,7.39E-03
5700,5.52E-03,7.38E-03
5701,5.47E-03,7.38E-03
5702,5.67E-03,7.39E-03
5703,5.62E-03,7.39E-03
5704,5.85E-03,7.39E-03
5705,5.76E-03,7.39E-03
5706,6.09E-03,7.39E-03
5707,5.47E-03,7.38E-03
5708,5.24E-03,7.38E-03
5709,5.64E-03,7.39E-03
5710,5.57E-03,7.39E-03
5711,5.59E-03,7.40E-03
5712,5.62E-03,7.40E-03
5713,5.55E-03,7.40E-03
5714,5.57E-03,7.40E-03
5715,5.58E-03,7.40E-03
5716,5.54E-03,7.40E-03
5717,5.61E-03,7.39E-03
5718,5.65E-03,7.39E-03
5719,5.52E-03,7.38E-03
5720,5.49E-03,7.34E-03
5721,5.50E-03,7.35E-03
5722,5.57E-03,7.33E-03
5723,5.52E-03,7.34E-03
5724,5.53E-03,7.32E-03
5725,5.57E-03,7.33E-03
5726,5.57E-03,7.30E-03
5727,5.56E-03,7.31E-03
5728,5.57E-03,7.28E-03
5729,5.54E-03,7.29E-03
5730,5.58E-03,7.27E-03
5731,5.54E-03,7.28E-03
5732,5.60E-03,7.25E-03
5733,5.60E-03,7.27E-03
5734,5.58E-03,7.23E-03
5735,5.59E-03,7.24E-03
5736,5.50E-03,7.22E-03
5737,5.56E-03,7.23E-03
5738,5.51E-03,7.21E-03
5739,5.48E-03,7.22E-03
5740,5.61E-03,7.19E-03
5741,5.56E-03,7.20E-03
5742,5.70E-03,7.17E-03
5743,5.64E-03,7.18E-03
5744,5.63E-03,7.15E-03
5745,5.62E-03,7.16E-03
5746,5.77E-03,7.13E-03
5747,5.66E-03,7.14E-03
5748,5.67E-03,7.09E-03
5749,5.72E-03,7.11E-03
5750,5.66E-03,7.05E-03
5751,5.61E-03,7.07E-03
5752,5.61E-03,7.01E-03
5753,5.64E-03,7.03E-03
5754,5.59E-03,6.98E-03
5755,5.59E-03,7.00E-03
5756,5.63E-03,6.93E-03
5757,5.61E-03,6.95E-03
5758,5.71E-03,6.88E-03
5759,5.66E-03,6.90E-03
5760,5.77E-03,6.83E-03
5761,5.72E-03,6.86E-03
5762,6.08E-03,6.79E-03
5763,5.86E-03,6.81E-03
5764,6.36E-03,6.78E-03
5765,5.75E-03,6.66E-03
5766,5.72E-03,6.66E-03
5767,5.86E-03,6.67E-03
5768,5.82E-03,6.66E-03
5769,5.78E-03,6.70E-03
5770,5.79E-03,6.68E-03
5771,5.63E-03,6.76E-03
5772,5.67E-03,6.73E-03
5773,5.36E-03,6.78E-03
5774,5.57E-03,7.07E-03
5775,6.08E-03,6.99E-03
5776,5.56E-03,7.20E-03
5777,5.55E-03,7.14E-03
5778,5.58E-03,7.33E-03
5779,5.58E-03,7.27E-03
5780,5.67E-03,7.47E-03
5781,5.64E-03,7.40E-03
5782,5.72E-03,7.62E-03
5783,5.69E-03,7.54E-03
5784,5.78E-03,7.78E-03
5785,5.75E-03,7.70E-03
5786,5.89E-03,7.93E-03
5787,5.87E-03,7.86E-03
5788,5.90E-03,8.07E-03
5789,5.91E-03,8.01E-03
5790,5.88E-03,8.21E-03
5791,5.87E-03,8.14E-03
5792,5.77E-03,8.33E-03
5793,5.84E-03,8.27E-03
5794,5.74E-03,8.44E-03
5795,5.75E-03,8.39E-03
5796,5.83E-03,8.54E-03
5797,5.84E-03,8.49E-03
5798,5.95E-03,8.61E-03
5799,5.90E-03,8.58E-03
5800,6.01E-03,8.66E-03
5801,5.94E-03,8.64E-03
5802,5.82E-03,8.70E-03
5803,6.00E-03,8.68E-03
5804,5.64E-03,8.75E-03
5805,5.71E-03,8.72E-03
5806,5.58E-03,8.77E-03
5807,5.43E-03,8.93E-03
5808,5.52E-03,8.90E-03
5809,5.15E-03,8.95E-03
5810,4.84E-03,9.04E-03
5811,5.33E-03,9.12E-03
5812,5.15E-03,9.08E-03
5813,5.47E-03,9.20E-03
5814,5.38E-03,9.16E-03
5815,5.58E-03,9.27E-03
5816,5.49E-03,9.23E-03
5817,5.66E-03,9.37E-03
5818,5.66E-03,9.32E-03
5819,5.77E-03,9.46E-03
5820,5.74E-03,9.41E-03
5821,5.72E-03,9.57E-03
5822,5.78E-03,9.52E-03
5823,5.77E-03,9.67E-03
5824,5.68E-03,9.62E-03
5825,5.78E-03,9.73E-03
5826,5.60E-03,1.01E-02
5827,5.63E-03,1.01E-02
5828,5.56E-03,1.02E-02
5829,5.58E-03,1.01E-02
5830,5.24E-03,1.02E-02
5831,5.42E-03,1.02E-02
5832,5.32E-03,1.03E-02
5833,6.20E-03,9.83E-03
5834,6.12E-03,9.82E-03
5835,5.41E-03,1.16E-02
5836,5.15E-03,1.08E-02
5837,7.06E-03,1.16E-02
5838,5.47E-03,9.82E-03
5839,5.62E-03,9.65E-03
5840,5.63E-03,9.62E-03
5841,5.22E-03,6.47E-03
5842,6.15E-03,6.43E-03
5843,3.36E-03,6.57E-03
5844,5.52E-03,8.66E-03
5845,5.45E-03,8.64E-03
5846,5.49E-03,8.69E-03
5847,5.08E-03,8.80E-03
5848,4.12E-03,6.28E-03
5849,5.57E-03,1.17E-02
5850,5.84E-03,1.02E-02
5851,6.36E-03,1.03E-02
5852,7.23E-03,1.06E-02
5853,4.13E-03,1.10E-02
5854,5.35E-03,1.10E-02
5855,4.99E-03,1.00E-02
5856,5.40E-03,8.12E-03
5857,6.83E-03,7.22E-03
5858,5.01E-03,6.55E-03
5859,6.28E-03,1.21E-02
5860,4.46E-03,1.12E-02
5861,5.20E-03,1.11E-02
5862,5.47E-03,1.14E-02
5863,5.48E-03,1.15E-02
5864,5.83E-03,1.07E-02
5865,6.20E-03,1.22E-02
5866,5.97E-03,1.22E-02
5867,6.10E-03,1.22E-02
5868,5.77E-03,1.21E-02
5869,5.86E-03,1.21E-02
5870,5.63E-03,1.20E-02
5871,5.69E-03,1.21E-02
5872,5.62E-03,1.20E-02
5873,5.58E-03,1.20E-02
5874,5.67E-03,1.19E-02
5875,5.65E-03,1.20E-02
5876,5.67E-03,1.19E-02
5877,5.63E-03,1.19E-02
5878,5.62E-03,1.18E-02
5879,5.62E-03,1.18E-02
5880,5.75E-03,1.18E-02
5881,5.67E-03,1.18E-02
5882,5.84E-03,1.17E-02
5883,5.87E-03,1.17E-02
5884,7.12E-03,1.16E-02
5885,5.55E-03,1.16E-02
5886,5.98E-03,1.16E-02
5887,5.88E-03,1.16E-02
5888,5.90E-03,1.15E-02
5889,5.92E-03,1.15E-02
5890,5.73E-03,1.15E-02
5891,5.84E-03,1.15E-02
5892,5.57E-03,1.14E-02
5893,5.68E-03,1.14E-02
5894,5.55E-03,1.13E-02
5895,5.55E-03,1.14E-02
5896,5.49E-03,1.13E-02
5897,5.47E-03,1.13E-02
5898,5.50E-03,1.12E-02
5899,5.51E-03,1.12E-02
5900,5.44E-03,1.11E-02
5901,5.47E-03,1.12E-02
5902,5.37E-03,1.11E-02
5903,5.38E-03,1.11E-02
5904,5.42E-03,1.10E-02
5905,5.41E-03,1.10E-02
5906,5.43E-03,1.09E-02
5907,5.38E-03,1.10E-02
5908,5.45E-03,1.09E-02
5909,5.44E-03,1.09E-02
5910,5.41E-03,1.08E-02
5911,5.42E-03,1.08E-02
5912,5.50E-03,1.08E-02
5913,5.43E-03,1.08E-02
5914,5.61E-03,1.07E-02
5915,5.53E-03,1.07E-02
5916,5.54E-03,1.07E-02
5917,5.70E-03,1.07E-02
5918,5.61E-03,1.07E-02
5919,5.56E-03,1.07E-02
5920,5.63E-03,1.06E-02
5921,5.65E-03,1.06E-02
5922,5.64E-03,1.06E-02
5923,5.60E-03,1.06E-02
5924,5.62E-03,1.06E-02
5925,5.63E-03,1.06E-02
5926,5.79E-03,1.05E-02
5927,5.71E-03,1.05E-02
5928,5.78E-03,1.05E-02
5929,5.81E-03,1.05E-02
5930,5.68E-03,1.05E-02
5931,5.74E-03,1.05E-02
5932,5.65E-03,1.04E-02
5933,5.67E-03,1.04E-02
5934,5.67E-03,1.04E-02
5935,5.63E-03,1.04E-02
5936,5.71E-03,1.04E-02
5937,5.68E-03,1.04E-02
5938,5.64E-03,1.03E-02
5939,5.67E-03,1.03E-02
5940,5.51E-03,1.03E-02
5941,5.58E-03,1.03E-02
5942,5.49E-03,1.02E-02
5943,5.52E-03,1.03E-02
5944,5.48E-03,1.02E-02
5945,5.51E-03,1.02E-02
5946,5.52E-03,1.02E-02
5947,5.55E-03,1.02E-02
5948,5.61E-03,1.01E-02
5949,5.52E-03,1.02E-02
5950,5.67E-03,1.01E-02
5951,5.62E-03,1.01E-02
5952,5.76E-03,1.00E-02
5953,5.70E-03,1.01E-02
5954,5.64E-03,1.00E-02
5955,5.67E-03,1.00E-02
5956,5.49E-03,9.98E-03
5957,5.57E-03,1.00E-02
5958,5.32E-03,9.95E-03
5959,5.41E-03,9.96E-03
5960,5.27E-03,9.92E-03
5961,5.27E-03,9.93E-03
5962,5.29E-03,9.88E-03
5963,5.30E-03,9.90E-03
5964,5.36E-03,9.84E-03
5965,5.27E-03,9.86E-03
5966,5.39E-03,9.82E-03
5967,5.28E-03,9.79E-03
5968,5.44E-03,9.79E-03
5969,5.33E-03,9.77E-03
5970,5.30E-03,9.78E-03
5971,5.37E-03,9.75E-03
5972,5.33E-03,9.76E-03
5973,5.34E-03,9.73E-03
5974,5.37E-03,9.74E-03
5975,5.37E-03,9.71E-03
5976,5.40E-03,9.72E-03
5977,5.50E-03,9.70E-03
5978,5.39E-03,9.71E-03
5979,5.53E-03,9.68E-03
5980,5.53E-03,9.69E-03
5981,5.61E-03,9.66E-03
5982,5.55E-03,9.61E-03
5983,5.55E-03,9.62E-03
5984,5.48E-03,9.59E-03
5985,5.55E-03,9.60E-03
5986,5.46E-03,9.58E-03
5987,5.47E-03,9.58E-03
5988,5.48E-03,9.56E-03
5989,5.46E-03,9.56E-03
5990,5.51E-03,9.54E-03
5991,5.53E-03,9.55E-03
5992,5.53E-03,9.52E-03
5993,5.54E-03,9.53E-03
5994,5.45E-03,9.50E-03
5995,5.54E-03,9.51E-03
5996,5.49E-03,9.48E-03
5997,5.45E-03,9.49E-03
5998,5.47E-03,9.46E-03
5999,5.49E-03,9.47E-03
6000,5.55E-03,9.44E-03
6001,5.48E-03,9.45E-03
6002,5.53E-03,9.42E-03
6003,5.56E-03,9.43E-03
6004,5.60E-03,9.39E-03
6005,5.61E-03,9.40E-03
6006,5.70E-03,9.38E-03
6007,5.63E-03,9.39E-03
6008,5.67E-03,9.36E-03
6009,5.68E-03,9.37E-03
6010,5.72E-03,9.34E-03
6011,5.64E-03,9.35E-03
6012,5.73E-03,9.32E-03
6013,5.69E-03,9.33E-03
6014,5.59E-03,9.31E-03
6015,5.66E-03,9.31E-03
6016,5.58E-03,9.29E-03
6017,5.59E-03,9.30E-03
6018,5.60E-03,9.28E-03
6019,5.59E-03,9.28E-03
6020,5.68E-03,9.27E-03
6021,5.62E-03,9.27E-03
6022,5.54E-03,9.25E-03
6023,5.59E-03,9.26E-03
6024,5.46E-03,9.23E-03
6025,5.46E-03,9.24E-03
6026,5.47E-03,9.21E-03
6027,5.43E-03,9.22E-03
6028,5.61E-03,9.20E-03
6029,5.57E-03,9.21E-03
6030,5.69E-03,9.17E-03
6031,5.62E-03,9.19E-03
6032,5.76E-03,9.14E-03
6033,5.70E-03,9.15E-03
6034,5.74E-03,9.14E-03
6035,5.74E-03,9.14E-03
6036,5.66E-03,9.14E-03
6037,5.74E-03,9.14E-03
6038,5.53E-03,9.14E-03
6039,5.57E-03,9.14E-03
6040,5.17E-03,9.15E-03
6041,5.36E-03,9.14E-03
6042,5.01E-03,9.09E-03
6043,5.28E-03,9.12E-03
6044,5.74E-03,9.06E-03
6045,5.49E-03,9.08E-03
6046,5.72E-03,9.04E-03
6047,5.67E-03,9.05E-03
6048,5.73E-03,9.01E-03
6049,5.73E-03,9.03E-03
6050,5.80E-03,8.98E-03
6051,5.75E-03,8.99E-03
6052,5.77E-03,8.95E-03
6053,5.81E-03,8.96E-03
6054,5.81E-03,8.94E-03
6055,5.80E-03,8.94E-03
6056,5.77E-03,8.94E-03
6057,5.78E-03,8.94E-03
6058,5.83E-03,8.94E-03
6059,5.79E-03,8.94E-03
6060,5.84E-03,8.92E-03
6061,5.89E-03,8.93E-03
6062,5.51E-03,8.93E-03
6063,5.65E-03,8.92E-03
6064,5.16E-03,8.93E-03
6065,5.33E-03,8.93E-03
6066,5.27E-03,8.87E-03
6067,5.19E-03,8.89E-03
6068,5.77E-03,8.86E-03
6069,5.56E-03,8.88E-03
6070,5.68E-03,8.85E-03
6071,5.72E-03,8.86E-03
6072,5.57E-03,8.86E-03
6073,5.61E-03,8.86E-03
6074,5.47E-03,8.87E-03
6075,5.54E-03,8.86E-03
6076,5.32E-03,8.84E-03
6077,5.64E-03,8.86E-03
6078,5.53E-03,8.86E-03
6079,5.53E-03,8.86E-03
6080,5.28E-03,8.87E-03
6081,5.42E-03,8.86E-03
6082,5.00E-03,8.89E-03
6083,5.17E-03,8.87E-03
6084,4.85E-03,8.87E-03
6085,4.81E-03,8.89E-03
6086,6.01E-03,8.77E-03
6087,5.80E-03,8.82E-03
6088,5.15E-03,8.78E-03
6089,5.48E-03,8.78E-03
6090,5.87E-03,8.76E-03
6091,4.40E-03,8.77E-03
6092,4.98E-03,8.78E-03
6093,5.32E-03,8.76E-03
6094,4.91E-03,8.73E-03
6095,4.44E-03,8.76E-03
6096,4.34E-03,8.65E-03
6097,5.96E-03,8.70E-03
6098,5.23E-03,8.55E-03
6099,4.00E-03,8.56E-03
6100,6.04E-03,8.50E-03
6101,5.54E-03,8.53E-03
6102,5.15E-03,8.37E-03
6103,5.80E-03,8.45E-03
6104,5.34E-03,8.33E-03
6105,5.20E-03,8.34E-03
6106,5.04E-03,8.32E-03
6107,5.25E-03,8.30E-03
6108,5.01E-03,8.25E-03
6109,4.92E-03,8.29E-03
6110,5.16E-03,8.22E-03
6111,5.16E-03,8.24E-03
6112,5.36E-03,8.20E-03
6113,5.27E-03,8.21E-03
6114,5.56E-03,8.19E-03
6115,5.48E-03,8.19E-03
6116,5.59E-03,8.18E-03
6117,5.67E-03,8.18E-03
6118,5.50E-03,8.15E-03
6119,5.54E-03,8.09E-03
6120,5.45E-03,8.10E-03
6121,5.57E-03,8.08E-03
6122,5.57E-03,8.09E-03
6123,5.74E-03,8.06E-03
6124,5.64E-03,8.07E-03
6125,5.65E-03,8.03E-03
6126,5.69E-03,8.04E-03
6127,5.60E-03,7.99E-03
6128,5.61E-03,8.01E-03
6129,5.47E-03,7.96E-03
6130,5.52E-03,7.97E-03
6131,5.40E-03,7.90E-03
6132,5.45E-03,7.93E-03
6133,5.48E-03,7.83E-03
6134,5.45E-03,7.86E-03
6135,5.67E-03,7.76E-03
6136,5.59E-03,7.79E-03
6137,5.75E-03,7.69E-03
6138,5.72E-03,7.72E-03
6139,5.80E-03,7.63E-03
6140,5.79E-03,7.66E-03
6141,5.60E-03,7.56E-03
6142,5.65E-03,7.59E-03
6143,5.39E-03,7.50E-03
6144,5.38E-03,7.53E-03
6145,5.33E-03,7.45E-03
6146,5.30E-03,7.47E-03
6147,5.42E-03,7.40E-03
6148,5.38E-03,7.43E-03
6149,5.52E-03,7.35E-03
6150,5.50E-03,7.38E-03
6151,5.47E-03,7.31E-03
6152,5.45E-03,7.33E-03
6153,5.53E-03,7.27E-03
6154,5.52E-03,7.29E-03
6155,5.57E-03,7.24E-03
6156,5.55E-03,7.25E-03
6157,5.56E-03,7.23E-03
6158,5.56E-03,7.24E-03
6159,5.55E-03,7.22E-03
6160,5.55E-03,7.23E-03
6161,5.49E-03,7.21E-03
6162,5.50E-03,7.22E-03
6163,5.48E-03,7.19E-03
6164,5.44E-03,7.20E-03
6165,5.40E-03,7.19E-03
6166,5.42E-03,7.19E-03
6167,5.47E-03,7.19E-03
6168,5.44E-03,7.19E-03
6169,5.46E-03,7.19E-03
6170,5.50E-03,7.19E-03
6171,5.53E-03,7.19E-03
6172,5.49E-03,7.19E-03
6173,5.70E-03,7.20E-03
6174,5.62E-03,7.20E-03
6175,5.96E-03,7.20E-03
6176,5.84E-03,7.21E-03
6177,6.16E-03,7.20E-03
6178,5.59E-03,7.20E-03
6179,5.60E-03,7.17E-03
6180,5.65E-03,7.21E-03
6181,5.61E-03,7.21E-03
6182,5.58E-03,7.22E-03
6183,5.65E-03,7.21E-03
6184,5.58E-03,7.22E-03
6185,5.60E-03,7.22E-03
6186,5.63E-03,7.22E-03
6187,5.62E-03,7.23E-03
6188,5.65E-03,7.21E-03
6189,5.67E-03,7.22E-03
6190,5.53E-03,7.20E-03
6191,5.59E-03,7.21E-03
6192,5.52E-03,7.19E-03
6193,5.54E-03,7.17E-03
6194,5.50E-03,7.18E-03
6195,5.54E-03,7.16E-03
6196,5.52E-03,7.17E-03
6197,5.53E-03,7.14E-03
6198,5.53E-03,7.15E-03
6199,5.52E-03,7.12E-03
6200,5.52E-03,7.13E-03
6201,5.50E-03,7.10E-03
6202,5.48E-03,7.11E-03
6203,5.57E-03,7.10E-03
6204,5.53E-03,7.10E-03
6205,5.60E-03,7.08E-03
6206,5.57E-03,7.09E-03
6207,5.56E-03,7.05E-03
6208,5.57E-03,7.07E-03
6209,5.51E-03,7.04E-03
6210,5.58E-03,7.05E-03
6211,5.51E-03,7.04E-03
6212,5.48E-03,7.04E-03
6213,5.58E-03,7.02E-03
6214,5.57E-03,7.03E-03
6215,5.68E-03,7.00E-03
6216,5.60E-03,7.01E-03
6217,5.69E-03,6.98E-03
6218,5.65E-03,6.99E-03
6219,5.76E-03,6.96E-03
6220,5.75E-03,6.97E-03
6221,5.63E-03,6.92E-03
6222,5.68E-03,6.94E-03
6223,5.62E-03,6.88E-03
6224,5.63E-03,6.90E-03
6225,5.59E-03,6.84E-03
6226,5.59E-03,6.86E-03
6227,5.57E-03,6.80E-03
6228,5.57E-03,6.82E-03
6229,5.64E-03,6.75E-03
6230,5.61E-03,6.78E-03
6231,5.69E-03,6.70E-03
6232,5.62E-03,6.72E-03
6233,5.75E-03,6.63E-03
6234,5.69E-03,6.66E-03
6235,5.97E-03,6.58E-03
6236,5.79E-03,6.60E-03
6237,6.36E-03,6.49E-03
6238,6.18E-03,6.55E-03
6239,5.22E-03,6.47E-03
6240,5.81E-03,6.43E-03
6241,5.85E-03,6.43E-03
6242,5.85E-03,6.43E-03
6243,5.87E-03,6.43E-03
6244,5.79E-03,6.45E-03
6245,5.76E-03,6.43E-03
6246,5.60E-03,6.50E-03
6247,5.60E-03,6.47E-03
6248,5.30E-03,6.53E-03
6249,5.49E-03,6.83E-03
6250,3.89E-03,6.68E-03
6251,5.70E-03,6.74E-03
6252,5.51E-03,6.96E-03
6253,5.52E-03,6.90E-03
6254,5.58E-03,7.10E-03
6255,5.61E-03,7.03E-03
6256,5.63E-03,7.26E-03
6257,5.62E-03,7.18E-03
6258,5.69E-03,7.44E-03
6259,5.67E-03,7.35E-03
6260,5.77E-03,7.61E-03
6261,5.77E-03,7.53E-03
6262,5.86E-03,7.78E-03
6263,5.82E-03,7.70E-03
6264,5.91E-03,7.94E-03
6265,5.90E-03,7.86E-03
6266,5.80E-03,8.08E-03
6267,5.85E-03,8.01E-03
6268,5.74E-03,8.22E-03
6269,5.77E-03,8.15E-03
6270,5.70E-03,8.34E-03
6271,5.69E-03,8.28E-03
6272,5.78E-03,8.44E-03
6273,5.79E-03,8.39E-03
6274,5.87E-03,8.51E-03
6275,5.81E-03,8.48E-03
6276,5.98E-03,8.56E-03
6277,5.92E-03,8.54E-03
6278,5.80E-03,8.59E-03
6279,5.93E-03,8.57E-03
6280,5.60E-03,8.62E-03
6281,5.67E-03,8.60E-03
6282,5.53E-03,8.63E-03
6283,5.48E-03,8.75E-03
6284,5.53E-03,8.72E-03
6285,5.20E-03,8.78E-03
6286,4.99E-03,8.86E-03
6287,5.30E-03,8.92E-03
6288,5.13E-03,8.88E-03
6289,5.45E-03,9.00E-03
6290,5.34E-03,8.96E-03
6291,5.56E-03,9.10E-03
6292,5.54E-03,9.05E-03
6293,5.63E-03,9.21E-03
6294,5.64E-03,9.15E-03
6295,5.67E-03,9.32E-03
6296,5.72E-03,9.26E-03
6297,5.67E-03,9.44E-03
6298,5.66E-03,9.38E-03
6299,5.66E-03,9.56E-03
6300,5.67E-03,9.50E-03
6301,5.78E-03,9.62E-03
6302,5.67E-03,9.79E-03
6303,5.62E-03,9.90E-03
6304,5.62E-03,9.85E-03
6305,5.62E-03,9.99E-03
6306,5.56E-03,9.95E-03
6307,5.53E-03,1.01E-02
6308,5.56E-03,1.00E-02
6309,5.57E-03,1.01E-02
6310,5.53E-03,1.01E-02
6311,5.65E-03,1.02E-02
6312,5.39E-03,1.16E-02
6313,6.68E-03,1.03E-02
6314,5.19E-03,1.09E-02
6315,5.42E-03,1.17E-02
6316,5.08E-03,9.99E-03
6317,5.31E-03,9.99E-03
6318,5.64E-03,9.83E-03
6319,6.18E-03,8.92E-03
6320,4.18E-03,6.23E-03
6321,4.85E-03,6.22E-03
6322,5.49E-03,6.21E-03
6323,5.00E-03,6.28E-03
6324,4.85E-03,6.29E-03
6325,5.18E-03,8.59E-03
6326,3.72E-03,1.12E-02
6327,6.23E-03,1.23E-02
6328,5.39E-03,1.10E-02
6329,3.35E-03,1.02E-02
6330,5.53E-03,8.51E-03
6331,5.27E-03,8.45E-03
6332,4.99E-03,1.14E-02
6333,5.60E-03,1.18E-02
6334,5.25E-03,1.15E-02
6335,7.06E-03,1.04E-02
6336,6.51E-03,1.06E-02
6337,6.75E-03,1.05E-02
6338,5.65E-03,1.07E-02
6339,6.11E-03,1.23E-02
6340,5.96E-03,1.23E-02
6341,5.99E-03,1.23E-02
6342,5.76E-03,1.22E-02
6343,5.80E-03,1.23E-02
6344,5.64E-03,1.22E-02
6345,5.68E-03,1.22E-02
6346,5.64E-03,1.21E-02
6347,5.63E-03,1.21E-02
6348,5.63E-03,1.21E-02
6349,5.64E-03,1.21E-02
6350,5.62E-03,1.20E-02
6351,5.61E-03,1.20E-02
6352,5.59E-03,1.20E-02
6353,5.56E-03,1.20E-02
6354,5.72E-03,1.19E-02
6355,5.66E-03,1.19E-02
6356,5.84E-03,1.18E-02
6357,5.83E-03,1.19E-02
6358,4.97E-03,1.18E-02
6359,7.04E-03,1.18E-02
6360,5.50E-03,1.18E-02
6361,4.38E-03,1.18E-02
6362,5.82E-03,1.17E-02
6363,5.79E-03,1.17E-02
6364,5.83E-03,1.17E-02
6365,5.86E-03,1.17E-02
6366,5.71E-03,1.16E-02
6367,5.76E-03,1.16E-02
6368,5.54E-03,1.15E-02
6369,5.60E-03,1.16E-02
6370,5.51E-03,1.15E-02
6371,5.54E-03,1.15E-02
6372,5.49E-03,1.14E-02
6373,5.46E-03,1.14E-02
6374,5.53E-03,1.13E-02
6375,5.52E-03,1.14E-02
6376,5.49E-03,1.13E-02
6377,5.48E-03,1.13E-02
6378,5.44E-03,1.12E-02
6379,5.44E-03,1.12E-02
6380,5.45E-03,1.11E-02
6381,5.46E-03,1.12E-02
6382,5.45E-03,1.11E-02
6383,5.43E-03,1.11E-02
6384,5.49E-03,1.10E-02
6385,5.46E-03,1.11E-02
6386,5.44E-03,1.10E-02
6387,5.47E-03,1.10E-02
6388,5.55E-03,1.09E-02
6389,5.48E-03,1.09E-02
6390,5.60E-03,1.09E-02
6391,5.58E-03,1.09E-02
6392,5.64E-03,1.09E-02
6393,5.63E-03,1.09E-02
6394,5.67E-03,1.08E-02
6395,5.63E-03,1.08E-02
6396,5.61E-03,1.08E-02
6397,5.63E-03,1.08E-02
6398,5.58E-03,1.08E-02
6399,5.56E-03,1.08E-02
6400,5.57E-03,1.07E-02
6401,5.58E-03,1.07E-02
6402,5.75E-03,1.07E-02
6403,5.66E-03,1.07E-02
6404,5.79E-03,1.07E-02
6405,5.77E-03,1.07E-02
6406,5.66E-03,1.06E-02
6407,5.73E-03,1.07E-02
6408,5.65E-03,1.06E-02
6409,5.67E-03,1.06E-02
6410,5.66E-03,1.06E-02
6411,5.62E-03,1.06E-02
6412,5.66E-03,1.05E-02
6413,5.67E-03,1.06E-02
6414,5.62E-03,1.05E-02
6415,5.63E-03,1.05E-02
6416,5.55E-03,1.05E-02
6417,5.59E-03,1.05E-02
6418,5.55E-03,1.04E-02
6419,5.55E-03,1.04E-02
6420,5.52E-03,1.04E-02
6421,5.51E-03,1.04E-02
6422,5.53E-03,1.04E-02
6423,5.52E-03,1.04E-02
6424,5.58E-03,1.03E-02
6425,5.51E-03,1.03E-02
6426,5.65E-03,1.03E-02
6427,5.60E-03,1.03E-02
6428,5.72E-03,1.02E-02
6429,5.69E-03,1.03E-02
6430,5.67E-03,1.02E-02
6431,5.68E-03,1.02E-02
6432,5.49E-03,1.02E-02
6433,5.56E-03,1.02E-02
6434,5.32E-03,1.01E-02
6435,5.40E-03,1.01E-02
6436,5.30E-03,1.01E-02
6437,5.32E-03,1.01E-02
6438,5.32E-03,1.01E-02
6439,5.36E-03,1.01E-02
6440,5.33E-03,1.00E-02
6441,5.35E-03,1.00E-02
6442,5.28E-03,1.00E-02
6443,5.26E-03,9.96E-03
6444,5.27E-03,9.97E-03
6445,5.31E-03,9.95E-03
6446,5.32E-03,9.96E-03
6447,5.37E-03,9.93E-03
6448,5.32E-03,9.94E-03
6449,5.42E-03,9.91E-03
6450,5.40E-03,9.92E-03
6451,5.43E-03,9.89E-03
6452,5.46E-03,9.89E-03
6453,5.49E-03,9.88E-03
6454,5.42E-03,9.88E-03
6455,5.56E-03,9.86E-03
6456,5.54E-03,9.87E-03
6457,5.61E-03,9.84E-03
6458,5.49E-03,9.79E-03
6459,5.55E-03,9.80E-03
6460,5.47E-03,9.77E-03
6461,5.45E-03,9.78E-03
6462,5.48E-03,9.75E-03
6463,5.48E-03,9.76E-03
6464,5.53E-03,9.73E-03
6465,5.48E-03,9.74E-03
6466,5.55E-03,9.72E-03
6467,5.52E-03,9.73E-03
6468,5.52E-03,9.70E-03
6469,5.55E-03,9.71E-03
6470,5.53E-03,9.68E-03
6471,5.54E-03,9.69E-03
6472,5.50E-03,9.66E-03
6473,5.54E-03,9.67E-03
6474,5.51E-03,9.64E-03
6475,5.50E-03,9.65E-03
6476,5.48E-03,9.62E-03
6477,5.51E-03,9.63E-03
6478,5.56E-03,9.60E-03
6479,5.52E-03,9.61E-03
6480,5.62E-03,9.58E-03
6481,5.64E-03,9.59E-03
6482,5.72E-03,9.56E-03
6483,5.68E-03,9.57E-03
6484,5.67E-03,9.55E-03
6485,5.67E-03,9.55E-03
6486,5.69E-03,9.53E-03
6487,5.64E-03,9.54E-03
6488,5.68E-03,9.51E-03
6489,5.67E-03,9.52E-03
6490,5.62E-03,9.50E-03
6491,5.63E-03,9.50E-03
6492,5.59E-03,9.48E-03
6493,5.60E-03,9.49E-03
6494,5.67E-03,9.47E-03
6495,5.64E-03,9.48E-03
6496,5.66E-03,9.46E-03
6497,5.63E-03,9.46E-03
6498,5.52E-03,9.44E-03
6499,5.62E-03,9.45E-03
6500,5.45E-03,9.42E-03
6501,5.46E-03,9.43E-03
6502,5.46E-03,9.41E-03
6503,5.43E-03,9.41E-03
6504,5.61E-03,9.40E-03
6505,5.55E-03,9.40E-03
6506,5.70E-03,9.37E-03
6507,5.61E-03,9.38E-03
6508,5.69E-03,9.35E-03
6509,5.70E-03,9.35E-03
6510,5.71E-03,9.34E-03
6511,5.72E-03,9.34E-03
6512,5.56E-03,9.34E-03
6513,5.64E-03,9.34E-03
6514,5.54E-03,9.33E-03
6515,5.54E-03,9.33E-03
6516,5.37E-03,9.32E-03
6517,5.48E-03,9.33E-03
6518,5.15E-03,9.29E-03
6519,5.33E-03,9.31E-03
6520,5.59E-03,9.26E-03
6521,5.42E-03,9.27E-03
6522,5.64E-03,9.24E-03
6523,5.61E-03,9.25E-03
6524,5.69E-03,9.22E-03
6525,5.65E-03,9.23E-03
6526,5.67E-03,9.18E-03
6527,5.71E-03,9.20E-03
6528,5.77E-03,9.16E-03
6529,5.70E-03,9.17E-03
6530,5.82E-03,9.14E-03
6531,5.78E-03,9.15E-03
6532,5.76E-03,9.14E-03
6533,5.77E-03,9.14E-03
6534,5.75E-03,9.14E-03
6535,5.79E-03,9.14E-03
6536,5.74E-03,9.13E-03
6537,5.74E-03,9.14E-03
6538,5.55E-03,9.12E-03
6539,5.63E-03,9.12E-03
6540,5.39E-03,9.10E-03
6541,5.43E-03,9.11E-03
6542,5.52E-03,9.08E-03
6543,5.49E-03,9.09E-03
6544,5.63E-03,9.07E-03
6545,5.54E-03,9.07E-03
6546,5.68E-03,9.06E-03
6547,5.71E-03,9.06E-03
6548,5.65E-03,9.05E-03
6549,5.68E-03,9.05E-03
6550,5.59E-03,9.06E-03
6551,5.57E-03,9.06E-03
6552,5.46E-03,9.06E-03
6553,5.60E-03,9.05E-03
6554,5.50E-03,9.07E-03
6555,5.48E-03,9.07E-03
6556,5.30E-03,9.08E-03
6557,5.40E-03,9.07E-03
6558,5.17E-03,9.08E-03
6559,5.21E-03,9.08E-03
6560,5.29E-03,9.05E-03
6561,5.13E-03,9.07E-03
6562,5.57E-03,9.02E-03
6563,5.48E-03,9.03E-03
6564,5.25E-03,9.01E-03
6565,5.48E-03,9.00E-03
6566,4.83E-03,8.99E-03
6567,4.95E-03,9.01E-03
6568,5.20E-03,8.99E-03
6569,4.95E-03,8.97E-03
6570,5.29E-03,8.98E-03
6571,5.36E-03,8.98E-03
6572,6.03E-03,8.94E-03
6573,5.96E-03,8.95E-03
6574,5.27E-03,8.98E-03
6575,4.19E-03,9.13E-03
6576,4.79E-03,8.92E-03
6577,4.99E-03,9.08E-03
6578,4.89E-03,8.80E-03
6579,5.93E-03,8.92E-03
6580,5.71E-03,8.95E-03
6581,5.45E-03,8.98E-03
6582,5.30E-03,8.75E-03
6583,5.28E-03,9.02E-03
6584,5.65E-03,8.68E-03
6585,5.47E-03,8.71E-03
6586,5.91E-03,8.66E-03
6587,4.80E-03,8.49E-03
6588,4.68E-03,8.46E-03
6589,5.21E-03,8.47E-03
6590,5.16E-03,8.32E-03
6591,5.01E-03,8.39E-03
6592,5.59E-03,8.25E-03
6593,5.46E-03,8.29E-03
6594,5.51E-03,8.17E-03
6595,5.57E-03,8.21E-03
6596,5.33E-03,8.09E-03
6597,5.35E-03,8.12E-03
6598,5.18E-03,8.07E-03
6599,5.26E-03,8.08E-03
6600,5.09E-03,8.03E-03
6601,5.16E-03,8.05E-03
6602,5.22E-03,7.99E-03
6603,5.18E-03,8.01E-03
6604,5.39E-03,7.97E-03
6605,5.29E-03,7.97E-03
6606,5.54E-03,7.96E-03
6607,5.48E-03,7.96E-03
6608,5.54E-03,7.95E-03
6609,5.57E-03,7.96E-03
6610,5.46E-03,7.94E-03
6611,5.50E-03,7.95E-03
6612,5.45E-03,7.93E-03
6613,5.54E-03,7.92E-03
6614,5.45E-03,7.93E-03
6615,5.48E-03,7.90E-03
6616,5.53E-03,7.91E-03
6617,5.61E-03,7.88E-03
6618,5.55E-03,7.89E-03
6619,5.68E-03,7.85E-03
6620,5.67E-03,7.87E-03
6621,5.60E-03,7.82E-03
6622,5.61E-03,7.84E-03
6623,5.53E-03,7.78E-03
6624,5.52E-03,7.80E-03
6625,5.39E-03,7.72E-03
6626,5.48E-03,7.75E-03
6627,5.53E-03,7.64E-03
6628,5.50E-03,7.68E-03
6629,5.65E-03,7.57E-03
6630,5.60E-03,7.61E-03
6631,5.71E-03,7.50E-03
6632,5.71E-03,7.54E-03
6633,5.72E-03,7.43E-03
6634,5.68E-03,7.46E-03
6635,5.58E-03,7.36E-03
6636,5.64E-03,7.39E-03
6637,5.43E-03,7.29E-03
6638,5.45E-03,7.32E-03
6639,5.34E-03,7.24E-03
6640,5.34E-03,7.26E-03
6641,5.46E-03,7.18E-03
6642,5.41E-03,7.21E-03
6643,5.53E-03,7.13E-03
6644,5.51E-03,7.15E-03
6645,5.45E-03,7.08E-03
6646,5.46E-03,7.11E-03
6647,5.49E-03,7.05E-03
6648,5.45E-03,7.06E-03
6649,5.55E-03,7.03E-03
6650,5.53E-03,7.03E-03
6651,5.54E-03,7.02E-03
6652,5.52E-03,7.02E-03
6653,5.54E-03,7.01E-03
6654,5.53E-03,7.01E-03
6655,5.54E-03,7.00E-03
6656,5.52E-03,7.01E-03
6657,5.46E-03,6.99E-03
6658,5.51E-03,6.99E-03
6659,5.42E-03,6.99E-03
6660,5.43E-03,6.99E-03
6661,5.55E-03,6.99E-03
6662,5.48E-03,6.99E-03
6663,5.49E-03,7.00E-03
6664,5.54E-03,6.99E-03
6665,5.57E-03,7.00E-03
6666,5.49E-03,7.00E-03
6667,5.74E-03,7.01E-03
6668,5.63E-03,7.01E-03
6669,5.90E-03,7.02E-03
6670,5.78E-03,7.02E-03
6671,6.12E-03,7.03E-03
6672,5.69E-03,7.02E-03
6673,5.78E-03,7.00E-03
6674,5.68E-03,7.03E-03
6675,5.65E-03,7.03E-03
6676,5.57E-03,7.04E-03
6677,5.65E-03,7.04E-03
6678,5.58E-03,7.05E-03
6679,5.55E-03,7.04E-03
6680,5.65E-03,7.05E-03
6681,5.64E-03,7.05E-03
6682,5.68E-03,7.04E-03
6683,5.69E-03,7.04E-03
6684,5.57E-03,7.03E-03
6685,5.60E-03,7.03E-03
6686,5.54E-03,7.02E-03
6687,5.58E-03,7.03E-03
6688,5.60E-03,7.00E-03
6689,5.54E-03,7.01E-03
6690,5.52E-03,6.99E-03
6691,5.57E-03,7.00E-03
6692,5.49E-03,6.97E-03
6693,5.53E-03,6.98E-03
6694,5.44E-03,6.94E-03
6695,5.45E-03,6.96E-03
6696,5.51E-03,6.93E-03
6697,5.48E-03,6.93E-03
6698,5.59E-03,6.92E-03
6699,5.53E-03,6.92E-03
6700,5.65E-03,6.90E-03
6701,5.59E-03,6.91E-03
6702,5.58E-03,6.88E-03
6703,5.59E-03,6.89E-03
6704,5.49E-03,6.87E-03
6705,5.55E-03,6.87E-03
6706,5.51E-03,6.86E-03
6707,5.47E-03,6.87E-03
6708,5.59E-03,6.85E-03
6709,5.54E-03,6.85E-03
6710,5.70E-03,6.83E-03
6711,5.63E-03,6.84E-03
6712,5.66E-03,6.81E-03
6713,5.67E-03,6.82E-03
6714,5.69E-03,6.79E-03
6715,5.71E-03,6.80E-03
6716,5.61E-03,6.76E-03
6717,5.66E-03,6.77E-03
6718,5.56E-03,6.72E-03
6719,5.57E-03,6.74E-03
6720,5.60E-03,6.68E-03
6721,5.57E-03,6.70E-03
6722,5.60E-03,6.63E-03
6723,5.60E-03,6.66E-03
6724,5.66E-03,6.58E-03
6725,5.64E-03,6.61E-03
6726,5.64E-03,6.51E-03
6727,5.65E-03,6.55E-03
6728,5.71E-03,6.44E-03
6729,5.67E-03,6.48E-03
6730,5.84E-03,6.36E-03
6731,5.71E-03,6.40E-03
6732,5.70E-03,6.27E-03
6733,5.84E-03,6.32E-03
6734,5.84E-03,6.24E-03
6735,5.13E-03,6.21E-03
6736,5.28E-03,6.20E-03
6737,6.13E-03,6.19E-03
6738,5.88E-03,6.12E-03
6739,5.81E-03,6.21E-03
6740,5.89E-03,6.21E-03
6741,5.83E-03,6.19E-03
6742,5.87E-03,6.20E-03
6743,5.74E-03,6.20E-03
6744,5.73E-03,6.19E-03
6745,5.51E-03,6.24E-03
6746,5.59E-03,6.22E-03
6747,5.33E-03,6.26E-03
6748,4.51E-03,6.45E-03
6749,4.47E-03,6.30E-03
6750,4.31E-03,6.35E-03
6751,5.34E-03,6.56E-03
6752,5.00E-03,6.49E-03
6753,5.52E-03,6.69E-03
6754,5.44E-03,6.63E-03
6755,5.62E-03,6.86E-03
6756,5.60E-03,6.77E-03
6757,5.66E-03,7.05E-03
6758,5.66E-03,6.95E-03
6759,5.74E-03,7.26E-03
6760,5.67E-03,7.16E-03
6761,5.77E-03,7.45E-03
6762,5.75E-03,7.36E-03
6763,5.87E-03,7.64E-03
6764,5.83E-03,7.55E-03
6765,5.82E-03,7.81E-03
6766,5.88E-03,7.72E-03
6767,5.74E-03,7.97E-03
6768,5.80E-03,7.89E-03
6769,5.71E-03,8.12E-03
6770,5.74E-03,8.05E-03
6771,5.67E-03,8.25E-03
6772,5.66E-03,8.19E-03
6773,5.76E-03,8.35E-03
6774,5.68E-03,8.30E-03
6775,5.80E-03,8.43E-03
6776,5.79E-03,8.40E-03
6777,5.90E-03,8.48E-03
6778,5.84E-03,8.46E-03
6779,5.79E-03,8.49E-03
6780,5.88E-03,8.49E-03
6781,5.59E-03,8.50E-03
6782,5.70E-03,8.49E-03
6783,5.41E-03,8.51E-03
6784,5.71E-03,8.49E-03
6785,5.60E-03,8.55E-03
6786,5.85E-03,8.52E-03
6787,5.30E-03,8.58E-03
6788,5.32E-03,8.70E-03
6789,5.15E-03,8.63E-03
6790,5.20E-03,8.66E-03
6791,5.46E-03,8.79E-03
6792,5.40E-03,8.74E-03
6793,5.58E-03,8.91E-03
6794,5.53E-03,8.85E-03
6795,5.65E-03,9.05E-03
6796,5.63E-03,8.98E-03
6797,5.60E-03,9.19E-03
6798,5.64E-03,9.12E-03
6799,5.61E-03,9.32E-03
6800,5.61E-03,9.26E-03
6801,5.69E-03,9.45E-03
6802,5.64E-03,9.39E-03
6803,5.70E-03,9.58E-03
6804,5.76E-03,9.52E-03
6805,5.61E-03,9.70E-03
6806,5.62E-03,9.81E-03
6807,5.60E-03,9.75E-03
6808,5.58E-03,9.90E-03
6809,5.58E-03,9.85E-03
6810,5.60E-03,9.97E-03
6811,5.59E-03,9.94E-03
6812,5.66E-03,1.00E-02
6813,5.66E-03,1.00E-02
6814,5.88E-03,1.01E-02
6815,5.77E-03,1.01E-02
6816,6.07E-03,1.02E-02
6817,6.03E-03,1.02E-02
6818,5.46E-03,1.02E-02
6819,6.34E-03,1.02E-02
6820,5.73E-03,1.12E-02
6821,6.22E-03,1.24E-02
6822,6.26E-03,1.22E-02
6823,5.58E-03,1.16E-02
6824,6.73E-03,1.04E-02
6825,5.74E-03,1.09E-02
6826,4.98E-03,1.02E-02
6827,5.63E-03,1.00E-02
6828,4.83E-03,9.12E-03
6829,6.30E-03,9.14E-03
6830,5.50E-03,9.24E-03
6831,4.91E-03,9.38E-03
6832,4.52E-03,9.46E-03
6833,5.99E-03,5.92E-03
6834,4.53E-03,8.40E-03
6835,4.90E-03,1.14E-02
6836,4.33E-03,1.13E-02
6837,4.48E-03,1.02E-02
6838,4.47E-03,1.03E-02
6839,6.42E-03,1.10E-02
6840,4.57E-03,1.02E-02
6841,6.87E-03,6.79E-03
6842,5.48E-03,6.73E-03
6843,5.27E-03,1.01E-02
6844,5.11E-03,1.01E-02
6845,5.75E-03,1.18E-02
6846,6.37E-03,1.24E-02
6847,6.39E-03,1.23E-02
6848,5.41E-03,1.15E-02
6849,6.13E-03,1.06E-02
6850,6.32E-03,1.05E-02
6851,5.87E-03,1.07E-02
6852,6.15E-03,1.25E-02
6853,5.99E-03,1.25E-02
6854,6.18E-03,1.25E-02
6855,5.90E-03,1.24E-02
6856,5.99E-03,1.24E-02
6857,5.74E-03,1.24E-02
6858,5.81E-03,1.24E-02
6859,5.62E-03,1.23E-02
6860,5.71E-03,1.23E-02
6861,5.62E-03,1.22E-02
6862,5.61E-03,1.23E-02
6863,5.60E-03,1.22E-02
6864,5.58E-03,1.22E-02
6865,5.58E-03,1.21E-02
6866,5.62E-03,1.22E-02
6867,5.61E-03,1.21E-02
6868,5.58E-03,1.21E-02
6869,5.74E-03,1.20E-02
6870,5.68E-03,1.21E-02
6871,6.07E-03,1.20E-02
6872,5.86E-03,1.20E-02
6873,5.70E-03,1.19E-02
6874,6.06E-03,1.20E-02
6875,5.45E-03,1.19E-02
6876,5.54E-03,1.19E-02
6877,5.75E-03,1.18E-02
6878,5.68E-03,1.19E-02
6879,5.73E-03,1.18E-02
6880,5.78E-03,1.18E-02
6881,5.60E-03,1.17E-02
6882,5.72E-03,1.18E-02
6883,5.50E-03,1.17E-02
6884,5.55E-03,1.17E-02
6885,5.47E-03,1.16E-02
6886,5.43E-03,1.17E-02
6887,5.49E-03,1.16E-02
6888,5.51E-03,1.16E-02
6889,5.52E-03,1.15E-02
6890,5.51E-03,1.15E-02
6891,5.51E-03,1.14E-02
6892,5.50E-03,1.15E-02
6893,5.46E-03,1.14E-02
6894,5.46E-03,1.14E-02
6895,5.50E-03,1.13E-02
6896,5.45E-03,1.13E-02
6897,5.46E-03,1.12E-02
6898,5.46E-03,1.13E-02
6899,5.51E-03,1.12E-02
6900,5.49E-03,1.12E-02
6901,5.54E-03,1.11E-02
6902,5.50E-03,1.12E-02
6903,5.54E-03,1.11E-02
6904,5.54E-03,1.11E-02
6905,5.58E-03,1.11E-02
6906,5.52E-03,1.11E-02
6907,5.62E-03,1.10E-02
6908,5.63E-03,1.10E-02
6909,5.63E-03,1.10E-02
6910,5.67E-03,1.10E-02
6911,5.58E-03,1.10E-02
6912,5.58E-03,1.10E-02
6913,5.55E-03,1.09E-02
6914,5.55E-03,1.09E-02
6915,5.54E-03,1.09E-02
6916,5.54E-03,1.09E-02
6917,5.77E-03,1.09E-02
6918,5.64E-03,1.09E-02
6919,5.72E-03,1.08E-02
6920,5.75E-03,1.09E-02
6921,5.64E-03,1.08E-02
6922,5.69E-03,1.08E-02
6923,5.61E-03,1.08E-02
6924,5.66E-03,1.08E-02
6925,5.62E-03,1.07E-02
6926,5.62E-03,1.08E-02
6927,5.61E-03,1.07E-02
6928,5.63E-03,1.07E-02
6929,5.60E-03,1.07E-02
6930,5.62E-03,1.07E-02
6931,5.55E-03,1.06E-02
6932,5.59E-03,1.07E-02
6933,5.55E-03,1.06E-02
6934,5.56E-03,1.06E-02
6935,5.56E-03,1.06E-02
6936,5.56E-03,1.06E-02
6937,5.51E-03,1.05E-02
6938,5.52E-03,1.06E-02
6939,5.52E-03,1.05E-02
6940,5.48E-03,1.05E-02
6941,5.64E-03,1.05E-02
6942,5.56E-03,1.05E-02
6943,5.65E-03,1.04E-02
6944,5.66E-03,1.04E-02
6945,5.65E-03,1.04E-02
6946,5.66E-03,1.04E-02
6947,5.48E-03,1.03E-02
6948,5.55E-03,1.04E-02
6949,5.36E-03,1.03E-02
6950,5.38E-03,1.03E-02
6951,5.36E-03,1.03E-02
6952,5.37E-03,1.03E-02
6953,5.37E-03,1.02E-02
6954,5.41E-03,1.03E-02
6955,5.33E-03,1.02E-02
6956,5.35E-03,1.02E-02
6957,5.18E-03,1.02E-02
6958,5.25E-03,1.01E-02
6959,5.16E-03,1.02E-02
6960,5.32E-03,1.01E-02
6961,5.33E-03,1.01E-02
6962,5.41E-03,1.01E-02
6963,5.35E-03,1.01E-02
6964,5.50E-03,1.01E-02
6965,5.44E-03,1.01E-02
6966,5.42E-03,1.01E-02
6967,5.47E-03,1.01E-02
6968,5.47E-03,1.01E-02
6969,5.44E-03,1.01E-02
6970,5.54E-03,1.00E-02
6971,5.54E-03,1.00E-02
6972,5.57E-03,1.00E-02
6973,5.48E-03,9.97E-03
6974,5.60E-03,9.99E-03
6975,5.53E-03,9.98E-03
6976,5.52E-03,9.95E-03
6977,5.51E-03,9.96E-03
6978,5.54E-03,9.93E-03
6979,5.50E-03,9.94E-03
6980,5.61E-03,9.92E-03
6981,5.58E-03,9.93E-03
6982,5.61E-03,9.90E-03
6983,5.60E-03,9.91E-03
6984,5.61E-03,9.88E-03
6985,5.59E-03,9.89E-03
6986,5.56E-03,9.86E-03
6987,5.59E-03,9.87E-03
6988,5.57E-03,9.84E-03
6989,5.56E-03,9.85E-03
6990,5.60E-03,9.83E-03
6991,5.59E-03,9.83E-03
6992,5.50E-03,9.81E-03
6993,5.54E-03,9.82E-03
6994,5.58E-03,9.79E-03
6995,5.51E-03,9.80E-03
6996,5.67E-03,9.77E-03
6997,5.66E-03,9.78E-03
6998,5.75E-03,9.75E-03
6999,5.70E-03,9.76E-03
7000,5.70E-03,9.74E-03
7001,5.70E-03,9.74E-03
7002,5.62E-03,9.72E-03
7003,5.62E-03,9.73E-03
7004,5.70E-03,9.70E-03
7005,5.64E-03,9.71E-03
7006,5.65E-03,9.69E-03
7007,5.67E-03,9.70E-03
7008,5.63E-03,9.68E-03
7009,5.62E-03,9.68E-03
7010,5.67E-03,9.66E-03
7011,5.70E-03,9.67E-03
7012,5.63E-03,9.65E-03
7013,5.68E-03,9.65E-03
7014,5.54E-03,9.63E-03
7015,5.59E-03,9.64E-03
7016,5.52E-03,9.61E-03
7017,5.49E-03,9.62E-03
7018,5.55E-03,9.60E-03
7019,5.52E-03,9.60E-03
7020,5.59E-03,9.59E-03
7021,5.55E-03,9.59E-03
7022,5.65E-03,9.56E-03
7023,5.59E-03,9.58E-03
7024,5.71E-03,9.55E-03
7025,5.69E-03,9.55E-03
7026,5.65E-03,9.54E-03
7027,5.69E-03,9.54E-03
7028,5.53E-03,9.53E-03
7029,5.62E-03,9.54E-03
7030,5.56E-03,9.52E-03
7031,5.54E-03,9.52E-03
7032,5.41E-03,9.51E-03
7033,5.51E-03,9.51E-03
7034,5.34E-03,9.49E-03
7035,5.34E-03,9.50E-03
7036,5.53E-03,9.46E-03
7037,5.38E-03,9.47E-03
7038,5.63E-03,9.44E-03
7039,5.57E-03,9.45E-03
7040,5.64E-03,9.42E-03
7041,5.66E-03,9.43E-03
7042,5.67E-03,9.39E-03
7043,5.67E-03,9.40E-03
7044,5.79E-03,9.37E-03
7045,5.71E-03,9.38E-03
7046,5.82E-03,9.35E-03
7047,5.78E-03,9.36E-03
7048,5.79E-03,9.34E-03
7049,5.82E-03,9.34E-03
7050,5.73E-03,9.33E-03
7051,5.79E-03,9.34E-03
7052,5.62E-03,9.33E-03
7053,5.65E-03,9.33E-03
7054,5.57E-03,9.31E-03
7055,5.61E-03,9.32E-03
7056,5.55E-03,9.29E-03
7057,5.55E-03,9.30E-03
7058,5.52E-03,9.28E-03
7059,5.53E-03,9.29E-03
7060,5.64E-03,9.27E-03
7061,5.53E-03,9.27E-03
7062,5.71E-03,9.26E-03
7063,5.67E-03,9.26E-03
7064,5.67E-03,9.26E-03
7065,5.70E-03,9.26E-03
7066,5.64E-03,9.26E-03
7067,5.65E-03,9.26E-03
7068,5.52E-03,9.27E-03
7069,5.56E-03,9.26E-03
7070,5.44E-03,9.28E-03
7071,5.48E-03,9.27E-03
7072,5.41E-03,9.28E-03
7073,5.41E-03,9.28E-03
7074,5.27E-03,9.28E-03
7075,5.32E-03,9.28E-03
7076,5.40E-03,9.26E-03
7077,5.28E-03,9.27E-03
7078,5.47E-03,9.24E-03
7079,5.50E-03,9.25E-03
7080,5.23E-03,9.22E-03
7081,5.37E-03,9.23E-03
7082,5.09E-03,9.20E-03
7083,5.11E-03,9.21E-03
7084,5.26E-03,9.20E-03
7085,5.16E-03,9.20E-03
7086,5.63E-03,9.18E-03
7087,5.42E-03,9.20E-03
7088,5.68E-03,9.19E-03
7089,5.65E-03,9.19E-03
7090,5.60E-03,9.18E-03
7091,5.67E-03,9.17E-03
7092,5.82E-03,9.19E-03
7093,5.88E-03,9.18E-03
7094,5.48E-03,9.24E-03
7095,5.66E-03,9.21E-03
7096,5.11E-03,9.33E-03
7097,5.34E-03,9.29E-03
7098,5.31E-03,9.39E-03
7099,5.13E-03,9.35E-03
7100,5.63E-03,9.56E-03
7101,5.63E-03,9.48E-03
7102,6.33E-03,9.69E-03
7103,5.67E-03,9.65E-03
7104,4.97E-03,9.96E-03
7105,5.92E-03,9.76E-03
7106,5.19E-03,9.87E-03
7107,5.34E-03,9.46E-03
7108,4.96E-03,9.64E-03
7109,4.13E-03,9.08E-03
7110,4.33E-03,9.32E-03
7111,5.49E-03,8.86E-03
7112,5.27E-03,8.97E-03
7113,6.11E-03,8.67E-03
7114,6.27E-03,8.77E-03
7115,5.43E-03,8.49E-03
7116,5.36E-03,8.55E-03
7117,5.65E-03,8.42E-03
7118,5.50E-03,8.45E-03
7119,5.76E-03,8.37E-03
7120,5.79E-03,8.40E-03
7121,5.39E-03,8.29E-03
7122,5.56E-03,8.35E-03
7123,5.28E-03,8.22E-03
7124,5.13E-03,8.25E-03
7125,5.36E-03,8.11E-03
7126,5.48E-03,8.18E-03
7127,5.55E-03,8.02E-03
7128,5.47E-03,8.06E-03
7129,5.49E-03,7.94E-03
7130,5.55E-03,7.98E-03
7131,5.35E-03,7.87E-03
7132,5.41E-03,7.90E-03
7133,5.30E-03,7.82E-03
7134,5.34E-03,7.85E-03
7135,5.23E-03,7.79E-03
7136,5.28E-03,7.81E-03
7137,5.27E-03,7.73E-03
7138,5.24E-03,7.76E-03
7139,5.43E-03,7.72E-03
7140,5.32E-03,7.72E-03
7141,5.56E-03,7.73E-03
7142,5.51E-03,7.72E-03
7143,5.56E-03,7.74E-03
7144,5.59E-03,7.74E-03
7145,5.50E-03,7.76E-03
7146,5.55E-03,7.75E-03
7147,5.44E-03,7.76E-03
7148,5.50E-03,7.76E-03
7149,5.50E-03,7.76E-03
7150,5.48E-03,7.76E-03
7151,5.46E-03,7.74E-03
7152,5.47E-03,7.75E-03
7153,5.58E-03,7.72E-03
7154,5.48E-03,7.73E-03
7155,5.63E-03,7.69E-03
7156,5.65E-03,7.70E-03
7157,5.59E-03,7.65E-03
7158,5.60E-03,7.67E-03
7159,5.54E-03,7.60E-03
7160,5.54E-03,7.63E-03
7161,5.43E-03,7.53E-03
7162,5.49E-03,7.57E-03
7163,5.56E-03,7.46E-03
7164,5.52E-03,7.50E-03
7165,5.69E-03,7.39E-03
7166,5.64E-03,7.43E-03
7167,5.69E-03,7.31E-03
7168,5.73E-03,7.35E-03
7169,5.66E-03,7.23E-03
7170,5.66E-03,7.27E-03
7171,5.55E-03,7.15E-03
7172,5.62E-03,7.19E-03
7173,5.46E-03,7.08E-03
7174,5.47E-03,7.12E-03
7175,5.42E-03,7.02E-03
7176,5.41E-03,7.05E-03
7177,5.49E-03,6.95E-03
7178,5.45E-03,6.98E-03
7179,5.52E-03,6.90E-03
7180,5.52E-03,6.92E-03
7181,5.47E-03,6.86E-03
7182,5.50E-03,6.88E-03
7183,5.52E-03,6.82E-03
7184,5.49E-03,6.84E-03
7185,5.53E-03,6.81E-03
7186,5.53E-03,6.81E-03
7187,5.58E-03,6.80E-03
7188,5.48E-03,6.80E-03
7189,5.58E-03,6.80E-03
7190,5.60E-03,6.80E-03
7191,5.54E-03,6.79E-03
7192,5.56E-03,6.80E-03
7193,5.47E-03,6.78E-03
7194,5.52E-03,6.79E-03
7195,5.44E-03,6.79E-03
7196,5.45E-03,6.79E-03
7197,5.59E-03,6.79E-03
7198,5.52E-03,6.79E-03
7199,5.50E-03,6.80E-03
7200,5.52E-03,6.79E-03
7201,5.58E-03,6.81E-03
7202,5.52E-03,6.80E-03
7203,5.73E-03,6.82E-03
7204,5.64E-03,6.81E-03
7205,5.81E-03,6.84E-03
7206,5.73E-03,6.83E-03
7207,5.83E-03,6.84E-03
7208,5.72E-03,6.84E-03
7209,5.87E-03,6.83E-03
7210,5.61E-03,6.86E-03
7211,5.63E-03,6.85E-03
7212,5.56E-03,6.86E-03
7213,5.67E-03,6.86E-03
7214,5.63E-03,6.87E-03
7215,5.59E-03,6.86E-03
7216,5.64E-03,6.87E-03
7217,5.62E-03,6.87E-03
7218,5.70E-03,6.87E-03
7219,5.68E-03,6.87E-03
7220,5.60E-03,6.86E-03
7221,5.63E-03,6.86E-03
7222,5.57E-03,6.85E-03
7223,5.59E-03,6.86E-03
7224,5.62E-03,6.84E-03
7225,5.58E-03,6.84E-03
7226,5.55E-03,6.82E-03
7227,5.64E-03,6.83E-03
7228,5.53E-03,6.80E-03
7229,5.57E-03,6.81E-03
7230,5.43E-03,6.77E-03
7231,5.44E-03,6.78E-03
7232,5.52E-03,6.75E-03
7233,5.48E-03,6.76E-03
7234,5.59E-03,6.74E-03
7235,5.51E-03,6.74E-03
7236,5.65E-03,6.72E-03
7237,5.60E-03,6.73E-03
7238,5.58E-03,6.70E-03
7239,5.61E-03,6.71E-03
7240,5.52E-03,6.69E-03
7241,5.58E-03,6.69E-03
7242,5.56E-03,6.68E-03
7243,5.48E-03,6.69E-03
7244,5.63E-03,6.67E-03
7245,5.58E-03,6.68E-03
7246,5.69E-03,6.66E-03
7247,5.63E-03,6.66E-03
7248,5.63E-03,6.64E-03
7249,5.64E-03,6.65E-03
7250,5.66E-03,6.62E-03
7251,5.67E-03,6.63E-03
7252,5.63E-03,6.59E-03
7253,5.66E-03,6.61E-03
7254,5.58E-03,6.56E-03
7255,5.56E-03,6.57E-03
7256,5.64E-03,6.51E-03
7257,5.62E-03,6.53E-03
7258,5.58E-03,6.47E-03
7259,5.58E-03,6.49E-03
7260,5.70E-03,6.42E-03
7261,5.68E-03,6.45E-03
7262,5.70E-03,6.34E-03
7263,5.71E-03,6.38E-03
7264,5.70E-03,6.25E-03
7265,5.74E-03,6.30E-03
7266,5.72E-03,6.15E-03
7267,5.73E-03,6.20E-03
7268,5.61E-03,6.05E-03
7269,5.68E-03,6.09E-03
7270,4.68E-03,5.99E-03
7271,5.41E-03,6.01E-03
7272,5.15E-03,5.94E-03
7273,4.96E-03,5.97E-03
7274,5.31E-03,5.91E-03
7275,4.42E-03,5.80E-03
7276,5.70E-03,5.96E-03
7277,5.00E-03,5.91E-03
7278,5.81E-03,5.98E-03
7279,5.84E-03,5.99E-03
7280,5.79E-03,5.97E-03
7281,5.83E-03,5.97E-03
7282,5.69E-03,5.97E-03
7283,5.70E-03,5.97E-03
7284,5.49E-03,5.99E-03
7285,5.57E-03,5.98E-03
7286,5.05E-03,6.00E-03
7287,5.38E-03,5.99E-03
7288,4.76E-03,6.01E-03
7289,4.97E-03,6.00E-03
7290,4.83E-03,6.13E-03
7291,4.68E-03,6.07E-03
7292,5.23E-03,6.25E-03
7293,5.05E-03,6.19E-03
7294,5.52E-03,6.41E-03
7295,5.42E-03,6.32E-03
7296,5.72E-03,6.61E-03
7297,5.61E-03,6.50E-03
7298,5.66E-03,6.85E-03
7299,5.68E-03,6.73E-03
7300,5.71E-03,7.09E-03
7301,5.65E-03,6.97E-03
7302,5.73E-03,7.30E-03
7303,5.71E-03,7.20E-03
7304,5.73E-03,7.50E-03
7305,5.70E-03,7.41E-03
7306,5.79E-03,7.69E-03
7307,5.79E-03,7.60E-03
7308,5.72E-03,7.87E-03
7309,5.78E-03,7.78E-03
7310,5.70E-03,8.03E-03
7311,5.72E-03,7.95E-03
7312,5.66E-03,8.17E-03
7313,5.64E-03,8.10E-03
7314,5.69E-03,8.28E-03
7315,5.62E-03,8.23E-03
7316,5.75E-03,8.37E-03
7317,5.73E-03,8.33E-03
7318,5.78E-03,8.42E-03
7319,5.73E-03,8.40E-03
7320,5.77E-03,8.42E-03
7321,5.83E-03,8.42E-03
7322,5.57E-03,8.39E-03
7323,5.69E-03,8.41E-03
7324,5.44E-03,8.39E-03
7325,5.42E-03,8.34E-03
7326,6.53E-03,8.28E-03
7327,5.22E-03,8.35E-03
7328,5.31E-03,8.35E-03
7329,5.21E-03,8.36E-03
7330,5.20E-03,8.34E-03
7331,5.32E-03,8.44E-03
7332,5.24E-03,8.39E-03
7333,5.47E-03,8.56E-03
7334,5.40E-03,8.50E-03
7335,5.64E-03,8.72E-03
7336,5.49E-03,8.64E-03
7337,5.66E-03,8.90E-03
7338,5.68E-03,8.81E-03
7339,5.64E-03,9.06E-03
7340,5.63E-03,8.98E-03
7341,5.62E-03,9.22E-03
7342,5.63E-03,9.14E-03
7343,5.70E-03,9.36E-03
7344,5.65E-03,9.29E-03
7345,5.68E-03,9.50E-03
7346,5.73E-03,9.43E-03
7347,5.61E-03,9.62E-03
7348,5.68E-03,9.56E-03
7349,5.59E-03,9.72E-03
7350,5.62E-03,9.67E-03
7351,5.58E-03,9.80E-03
7352,5.58E-03,9.76E-03
7353,5.68E-03,9.88E-03
7354,5.63E-03,9.84E-03
7355,5.69E-03,9.95E-03
7356,5.72E-03,9.92E-03
7357,5.80E-03,1.00E-02
7358,5.74E-03,9.98E-03
7359,5.84E-03,1.01E-02
7360,5.85E-03,1.00E-02
7361,5.60E-03,1.01E-02
7362,6.40E-03,1.12E-02
7363,5.83E-03,1.14E-02
7364,5.40E-03,1.04E-02
7365,5.87E-03,1.09E-02
7366,3.56E-03,1.03E-02
7367,5.27E-03,1.00E-02
7368,6.04E-03,1.00E-02
7369,4.71E-03,6.64E-03
7370,4.41E-03,1.02E-02
7371,4.66E-03,1.04E-02
7372,5.54E-03,1.11E-02
7373,5.61E-03,6.61E-03
7374,5.23E-03,6.56E-03
7375,5.36E-03,1.00E-02
7376,5.29E-03,1.00E-02
7377,4.76E-03,1.01E-02
7378,5.75E-03,1.17E-02
7379,6.40E-03,1.22E-02
7380,6.18E-03,1.21E-02
7381,4.82E-03,1.12E-02
7382,6.60E-03,1.23E-02
7383,5.71E-03,1.15E-02
7384,6.10E-03,1.07E-02
7385,5.99E-03,1.05E-02
7386,6.01E-03,1.08E-02
7387,5.99E-03,1.27E-02
7388,5.97E-03,1.27E-02
7389,5.92E-03,1.26E-02
7390,6.05E-03,1.26E-02
7391,5.86E-03,1.26E-02
7392,5.91E-03,1.26E-02
7393,5.72E-03,1.25E-02
7394,5.78E-03,1.25E-02
7395,5.61E-03,1.24E-02
7396,5.65E-03,1.25E-02
7397,5.63E-03,1.24E-02
7398,5.65E-03,1.24E-02
7399,5.59E-03,1.23E-02
7400,5.58E-03,1.24E-02
7401,5.56E-03,1.23E-02
7402,5.57E-03,1.23E-02
7403,5.61E-03,1.22E-02
7404,5.53E-03,1.23E-02
7405,5.74E-03,1.22E-02
7406,5.66E-03,1.22E-02
7407,5.88E-03,1.21E-02
7408,5.84E-03,1.22E-02
7409,5.73E-03,1.21E-02
7410,5.81E-03,1.21E-02
7411,5.67E-03,1.20E-02
7412,5.68E-03,1.20E-02
7413,5.68E-03,1.20E-02
7414,5.63E-03,1.20E-02
7415,5.68E-03,1.19E-02
7416,5.72E-03,1.20E-02
7417,5.62E-03,1.19E-02
7418,5.62E-03,1.19E-02
7419,5.54E-03,1.18E-02
7420,5.56E-03,1.19E-02
7421,5.45E-03,1.18E-02
7422,5.50E-03,1.18E-02
7423,5.50E-03,1.17E-02
7424,5.47E-03,1.17E-02
7425,5.55E-03,1.16E-02
7426,5.53E-03,1.17E-02
7427,5.57E-03,1.16E-02
7428,5.57E-03,1.16E-02
7429,5.49E-03,1.15E-02
7430,5.47E-03,1.15E-02
7431,5.51E-03,1.15E-02
7432,5.52E-03,1.15E-02
7433,5.50E-03,1.14E-02
7434,5.52E-03,1.14E-02
7435,5.56E-03,1.13E-02
7436,5.46E-03,1.14E-02
7437,5.57E-03,1.13E-02
7438,5.56E-03,1.13E-02
7439,5.56E-03,1.13E-02
7440,5.58E-03,1.13E-02
7441,5.57E-03,1.12E-02
7442,5.51E-03,1.12E-02
7443,5.61E-03,1.12E-02
7444,5.59E-03,1.12E-02
7445,5.61E-03,1.12E-02
7446,5.67E-03,1.12E-02
7447,5.52E-03,1.11E-02
7448,5.59E-03,1.11E-02
7449,5.50E-03,1.11E-02
7450,5.54E-03,1.11E-02
7451,5.57E-03,1.11E-02
7452,5.54E-03,1.11E-02
7453,5.71E-03,1.10E-02
7454,5.62E-03,1.11E-02
7455,5.70E-03,1.10E-02
7456,5.69E-03,1.10E-02
7457,5.61E-03,1.10E-02
7458,5.64E-03,1.10E-02
7459,5.60E-03,1.10E-02
7460,5.61E-03,1.10E-02
7461,5.60E-03,1.09E-02
7462,5.61E-03,1.09E-02
7463,5.60E-03,1.09E-02
7464,5.61E-03,1.09E-02
7465,5.60E-03,1.09E-02
7466,5.61E-03,1.09E-02
7467,5.61E-03,1.08E-02
7468,5.62E-03,1.08E-02
7469,5.57E-03,1.08E-02
7470,5.58E-03,1.08E-02
7471,5.56E-03,1.07E-02
7472,5.58E-03,1.08E-02
7473,5.51E-03,1.07E-02
7474,5.52E-03,1.07E-02
7475,5.53E-03,1.07E-02
7476,5.47E-03,1.07E-02
7477,5.60E-03,1.06E-02
7478,5.54E-03,1.07E-02
7479,5.71E-03,1.06E-02
7480,5.65E-03,1.06E-02
7481,5.65E-03,1.06E-02
7482,5.66E-03,1.06E-02
7483,5.48E-03,1.05E-02
7484,5.56E-03,1.05E-02
7485,5.43E-03,1.05E-02
7486,5.45E-03,1.05E-02
7487,5.45E-03,1.05E-02
7488,5.43E-03,1.05E-02
7489,5.44E-03,1.04E-02
7490,5.48E-03,1.04E-02
7491,5.37E-03,1.04E-02
7492,5.41E-03,1.04E-02
7493,5.44E-03,1.04E-02
7494,5.32E-03,1.04E-02
7495,4.90E-03,1.04E-02
7496,4.78E-03,1.03E-02
7497,5.32E-03,1.03E-02
7498,5.13E-03,1.04E-02
7499,5.38E-03,1.03E-02
7500,5.32E-03,1.03E-02
7501,5.46E-03,1.03E-02
7502,5.41E-03,1.03E-02
7503,5.47E-03,1.03E-02
7504,5.49E-03,1.03E-02
7505,5.48E-03,1.02E-02
7506,5.50E-03,1.03E-02
7507,5.49E-03,1.02E-02
7508,5.49E-03,1.02E-02
7509,5.56E-03,1.02E-02
7510,5.52E-03,1.02E-02
7511,5.61E-03,1.02E-02
7512,5.57E-03,1.02E-02
7513,5.60E-03,1.02E-02
7514,5.58E-03,1.02E-02
7515,5.57E-03,1.02E-02
7516,5.54E-03,1.02E-02
7517,5.56E-03,1.01E-02
7518,5.55E-03,1.01E-02
7519,5.64E-03,1.01E-02
7520,5.58E-03,1.01E-02
7521,5.64E-03,1.01E-02
7522,5.63E-03,1.01E-02
7523,5.64E-03,1.01E-02
7524,5.63E-03,1.01E-02
7525,5.64E-03,1.01E-02
7526,5.63E-03,1.01E-02
7527,5.64E-03,1.00E-02
7528,5.63E-03,1.01E-02
7529,5.64E-03,1.00E-02
7530,5.63E-03,1.00E-02
7531,5.64E-03,1.00E-02
7532,5.63E-03,1.00E-02
7533,5.56E-03,9.99E-03
7534,5.57E-03,1.00E-02
7535,5.58E-03,9.97E-03
7536,5.53E-03,9.98E-03
7537,5.66E-03,9.95E-03
7538,5.66E-03,9.96E-03
7539,5.76E-03,9.94E-03
7540,5.72E-03,9.94E-03
7541,5.67E-03,9.93E-03
7542,5.71E-03,9.93E-03
7543,5.64E-03,9.91E-03
7544,5.66E-03,9.92E-03
7545,5.67E-03,9.89E-03
7546,5.66E-03,9.90E-03
7547,5.62E-03,9.88E-03
7548,5.62E-03,9.89E-03
7549,5.61E-03,9.87E-03
7550,5.63E-03,9.87E-03
7551,5.65E-03,9.85E-03
7552,5.66E-03,9.86E-03
7553,5.62E-03,9.84E-03
7554,5.68E-03,9.84E-03
7555,5.55E-03,9.82E-03
7556,5.59E-03,9.83E-03
7557,5.57E-03,9.80E-03
7558,5.55E-03,9.81E-03
7559,5.60E-03,9.79E-03
7560,5.60E-03,9.80E-03
7561,5.55E-03,9.78E-03
7562,5.55E-03,9.79E-03
7563,5.71E-03,9.76E-03
7564,5.64E-03,9.77E-03
7565,5.72E-03,9.75E-03
7566,5.71E-03,9.75E-03
7567,5.58E-03,9.74E-03
7568,5.66E-03,9.74E-03
7569,5.54E-03,9.72E-03
7570,5.58E-03,9.73E-03
7571,5.57E-03,9.71E-03
7572,5.56E-03,9.72E-03
7573,5.50E-03,9.70E-03
7574,5.51E-03,9.70E-03
7575,5.42E-03,9.68E-03
7576,5.41E-03,9.69E-03
7577,5.54E-03,9.65E-03
7578,5.47E-03,9.67E-03
7579,5.59E-03,9.64E-03
7580,5.53E-03,9.65E-03
7581,5.62E-03,9.62E-03
7582,5.65E-03,9.63E-03
7583,5.68E-03,9.59E-03
7584,5.63E-03,9.60E-03
7585,5.78E-03,9.57E-03
7586,5.67E-03,9.58E-03
7587,5.80E-03,9.56E-03
7588,5.78E-03,9.56E-03
7589,5.81E-03,9.54E-03
7590,5.79E-03,9.55E-03
7591,5.72E-03,9.53E-03
7592,5.78E-03,9.54E-03
7593,5.67E-03,9.52E-03
7594,5.68E-03,9.52E-03
7595,5.53E-03,9.50E-03
7596,5.60E-03,9.51E-03
7597,5.56E-03,9.49E-03
7598,5.54E-03,9.50E-03
7599,5.56E-03,9.48E-03
7600,5.55E-03,9.49E-03
7601,5.59E-03,9.47E-03
7602,5.53E-03,9.47E-03
7603,5.68E-03,9.46E-03
7604,5.64E-03,9.47E-03
7605,5.74E-03,9.46E-03
7606,5.73E-03,9.46E-03
7607,5.67E-03,9.46E-03
7608,5.71E-03,9.46E-03
7609,5.55E-03,9.47E-03
7610,5.60E-03,9.47E-03
7611,5.47E-03,9.48E-03
7612,5.53E-03,9.48E-03
7613,5.43E-03,9.48E-03
7614,5.45E-03,9.48E-03
7615,5.37E-03,9.48E-03
7616,5.39E-03,9.48E-03
7617,5.49E-03,9.47E-03
7618,5.39E-03,9.47E-03
7619,5.45E-03,9.45E-03
7620,5.47E-03,9.46E-03
7621,5.32E-03,9.43E-03
7622,5.41E-03,9.44E-03
7623,5.24E-03,9.42E-03
7624,5.26E-03,9.42E-03
7625,5.33E-03,9.41E-03
7626,5.26E-03,9.42E-03
7627,5.55E-03,9.41E-03
7628,5.43E-03,9.41E-03
7629,5.62E-03,9.42E-03
7630,5.62E-03,9.42E-03
7631,5.70E-03,9.42E-03
7632,5.63E-03,9.42E-03
7633,5.72E-03,9.44E-03
7634,5.72E-03,9.43E-03
7635,5.52E-03,9.49E-03
7636,5.59E-03,9.46E-03
7637,5.36E-03,9.56E-03
7638,5.44E-03,9.53E-03
7639,5.44E-03,9.66E-03
7640,5.34E-03,9.60E-03
7641,5.69E-03,9.81E-03
7642,5.60E-03,9.73E-03
7643,5.63E-03,9.96E-03
7644,5.91E-03,9.87E-03
7645,5.35E-03,1.00E-02
7646,5.59E-03,1.00E-02
7647,5.12E-03,1.00E-02
7648,6.90E-03,1.00E-02
7649,6.11E-03,1.01E-02
7650,5.83E-03,1.02E-02
7651,5.37E-03,1.04E-02
7652,5.48E-03,1.03E-02
7653,5.47E-03,1.05E-02
7654,5.02E-03,1.04E-02
7655,4.89E-03,8.59E-03
7656,5.44E-03,8.68E-03
7657,5.57E-03,8.72E-03
7658,5.68E-03,8.76E-03
7659,5.75E-03,8.82E-03
7660,5.78E-03,8.89E-03
7661,5.85E-03,8.97E-03
7662,5.86E-03,9.07E-03
7663,5.90E-03,9.18E-03
7664,5.91E-03,9.31E-03
7665,5.91E-03,9.45E-03
7666,5.90E-03,9.60E-03
7667,5.89E-03,9.75E-03
7668,5.91E-03,9.91E-03
7669,5.95E-03,1.01E-02
7670,6.03E-03,1.02E-02
7671,6.00E-03,1.06E-02
7672,5.56E-03,1.06E-02
7673,5.67E-03,1.06E-02
7674,5.64E-03,1.06E-02
7675,6.12E-03,1.02E-02
7676,5.84E-03,1.04E-02
7677,6.54E-03,9.92E-03
7678,6.80E-03,1.00E-02
7679,4.73E-03,9.49E-03
7680,4.79E-03,9.69E-03
7681,4.93E-03,9.06E-03
7682,4.95E-03,9.28E-03
7683,5.00E-03,8.62E-03
7684,4.77E-03,8.90E-03
7685,5.47E-03,8.43E-03
7686,5.18E-03,8.48E-03
7687,5.73E-03,8.34E-03
7688,5.68E-03,8.37E-03
7689,5.51E-03,8.25E-03
7690,5.61E-03,8.30E-03
7691,5.64E-03,8.18E-03
7692,5.56E-03,8.21E-03
7693,5.67E-03,8.12E-03
7694,5.68E-03,8.15E-03
7695,5.46E-03,8.06E-03
7696,5.60E-03,8.09E-03
7697,5.37E-03,7.97E-03
7698,5.40E-03,8.01E-03
7699,5.49E-03,7.89E-03
7700,5.43E-03,7.93E-03
7701,5.54E-03,7.80E-03
7702,5.50E-03,7.85E-03
7703,5.56E-03,7.72E-03
7704,5.55E-03,7.76E-03
7705,5.42E-03,7.64E-03
7706,5.43E-03,7.68E-03
7707,5.37E-03,7.57E-03
7708,5.40E-03,7.60E-03
7709,5.32E-03,7.51E-03
7710,5.34E-03,7.54E-03
7711,5.29E-03,7.46E-03
7712,5.29E-03,7.48E-03
7713,5.41E-03,7.46E-03
7714,5.33E-03,7.45E-03
7715,5.58E-03,7.49E-03
7716,5.50E-03,7.47E-03
7717,5.62E-03,7.53E-03
7718,5.61E-03,7.51E-03
7719,5.54E-03,7.57E-03
7720,5.63E-03,7.55E-03
7721,5.51E-03,7.60E-03
7722,5.52E-03,7.59E-03
7723,5.50E-03,7.61E-03
7724,5.46E-03,7.61E-03
7725,5.49E-03,7.60E-03
7726,5.48E-03,7.61E-03
7727,5.58E-03,7.57E-03
7728,5.53E-03,7.59E-03
7729,5.60E-03,7.53E-03
7730,5.62E-03,7.55E-03
7731,5.60E-03,7.48E-03
7732,5.60E-03,7.50E-03
7733,5.52E-03,7.41E-03
7734,5.55E-03,7.44E-03
7735,5.50E-03,7.34E-03
7736,5.51E-03,7.38E-03
7737,5.61E-03,7.28E-03
7738,5.54E-03,7.31E-03
7739,5.67E-03,7.22E-03
7740,5.64E-03,7.25E-03
7741,5.67E-03,7.14E-03
7742,5.69E-03,7.18E-03
7743,5.64E-03,7.05E-03
7744,5.65E-03,7.10E-03
7745,5.52E-03,6.95E-03
7746,5.58E-03,7.00E-03
7747,5.48E-03,6.86E-03
7748,5.48E-03,6.91E-03
7749,5.47E-03,6.78E-03
7750,5.43E-03,6.82E-03
7751,5.56E-03,6.71E-03
7752,5.48E-03,6.74E-03
7753,5.54E-03,6.65E-03
7754,5.55E-03,6.68E-03
7755,5.55E-03,6.63E-03
7756,5.54E-03,6.64E-03
7757,5.52E-03,6.60E-03
7758,5.55E-03,6.61E-03
7759,5.53E-03,6.59E-03
7760,5.51E-03,6.59E-03
7761,5.58E-03,6.58E-03
7762,5.48E-03,6.58E-03
7763,5.65E-03,6.58E-03
7764,5.63E-03,6.58E-03
7765,5.64E-03,6.58E-03
7766,5.62E-03,6.58E-03
7767,5.48E-03,6.58E-03
7768,5.55E-03,6.58E-03
7769,5.51E-03,6.59E-03
7770,5.49E-03,6.58E-03
7771,5.57E-03,6.59E-03
7772,5.53E-03,6.59E-03
7773,5.51E-03,6.60E-03
7774,5.53E-03,6.60E-03
7775,5.60E-03,6.61E-03
7776,5.52E-03,6.60E-03
7777,5.67E-03,6.63E-03
7778,5.66E-03,6.62E-03
7779,5.69E-03,6.64E-03
7780,5.71E-03,6.63E-03
7781,5.52E-03,6.64E-03
7782,5.65E-03,6.67E-03
7783,5.72E-03,6.65E-03
7784,5.62E-03,6.68E-03
7785,5.65E-03,6.68E-03
7786,5.61E-03,6.69E-03
7787,5.69E-03,6.68E-03
7788,5.64E-03,6.69E-03
7789,5.62E-03,6.69E-03
7790,5.68E-03,6.70E-03
7791,5.64E-03,6.70E-03
7792,5.70E-03,6.70E-03
7793,5.73E-03,6.70E-03
7794,5.65E-03,6.69E-03
7795,5.68E-03,6.70E-03
7796,5.64E-03,6.68E-03
7797,5.63E-03,6.69E-03
7798,5.65E-03,6.67E-03
7799,5.65E-03,6.68E-03
7800,5.58E-03,6.65E-03
7801,5.65E-03,6.66E-03
7802,5.57E-03,6.62E-03
7803,5.55E-03,6.64E-03
7804,5.42E-03,6.59E-03
7805,5.53E-03,6.61E-03
7806,5.47E-03,6.57E-03
7807,5.45E-03,6.58E-03
7808,5.54E-03,6.56E-03
7809,5.49E-03,6.56E-03
7810,5.61E-03,6.54E-03
7811,5.57E-03,6.55E-03
7812,5.56E-03,6.52E-03
7813,5.60E-03,6.53E-03
7814,5.53E-03,6.51E-03
7815,5.55E-03,6.52E-03
7816,5.58E-03,6.51E-03
7817,5.53E-03,6.51E-03
7818,5.67E-03,6.50E-03
7819,5.62E-03,6.50E-03
7820,5.64E-03,6.49E-03
7821,5.62E-03,6.49E-03
7822,5.58E-03,6.48E-03
7823,5.61E-03,6.48E-03
7824,5.65E-03,6.46E-03
7825,5.63E-03,6.47E-03
7826,5.65E-03,6.43E-03
7827,5.65E-03,6.45E-03
7828,5.54E-03,6.40E-03
7829,5.57E-03,6.42E-03
7830,5.54E-03,6.36E-03
7831,5.55E-03,6.38E-03
7832,5.59E-03,6.31E-03
7833,5.55E-03,6.34E-03
7834,5.68E-03,6.26E-03
7835,5.67E-03,6.29E-03
7836,5.73E-03,6.18E-03
7837,5.68E-03,6.22E-03
7838,5.71E-03,6.08E-03
7839,5.73E-03,6.13E-03
7840,5.64E-03,5.95E-03
7841,5.68E-03,6.02E-03
7842,5.47E-03,5.81E-03
7843,5.57E-03,5.88E-03
7844,5.17E-03,5.72E-03
7845,5.27E-03,5.75E-03
7846,5.17E-03,5.68E-03
7847,5.10E-03,5.71E-03
7848,6.04E-03,5.57E-03
7849,5.27E-03,5.63E-03
7850,4.09E-03,5.59E-03
7851,4.51E-03,5.57E-03
7852,5.56E-03,5.72E-03
7853,5.30E-03,5.68E-03
7854,5.77E-03,5.76E-03
7855,5.69E-03,5.74E-03
7856,5.79E-03,5.78E-03
7857,5.81E-03,5.77E-03
7858,5.70E-03,5.78E-03
7859,5.70E-03,5.78E-03
7860,5.50E-03,5.75E-03
7861,5.55E-03,5.77E-03
7862,5.18E-03,5.69E-03
7863,5.37E-03,5.72E-03
7864,5.00E-03,5.66E-03
7865,5.10E-03,5.66E-03
7866,5.01E-03,5.75E-03
7867,4.92E-03,5.69E-03
7868,5.30E-03,5.90E-03
7869,5.12E-03,5.83E-03
7870,5.53E-03,6.11E-03
7871,5.41E-03,5.99E-03
7872,5.73E-03,6.37E-03
7873,5.62E-03,6.24E-03
7874,5.66E-03,6.65E-03
7875,5.66E-03,6.52E-03
7876,5.73E-03,6.92E-03
7877,5.67E-03,6.79E-03
7878,5.70E-03,7.16E-03
7879,5.70E-03,7.04E-03
7880,5.71E-03,7.38E-03
7881,5.68E-03,7.28E-03
7882,5.69E-03,7.59E-03
7883,5.76E-03,7.49E-03
7884,5.72E-03,7.78E-03
7885,5.73E-03,7.69E-03
7886,5.66E-03,7.95E-03
7887,5.66E-03,7.87E-03
7888,5.67E-03,8.09E-03
7889,5.62E-03,8.02E-03
7890,5.64E-03,8.21E-03
7891,5.62E-03,8.16E-03
7892,5.65E-03,8.31E-03
7893,5.67E-03,8.27E-03
7894,5.68E-03,8.38E-03
7895,5.64E-03,8.35E-03
7896,5.75E-03,8.39E-03
7897,5.73E-03,8.39E-03
7898,5.65E-03,8.33E-03
7899,5.73E-03,8.37E-03
7900,5.19E-03,8.25E-03
7901,5.64E-03,8.28E-03
7902,5.24E-03,8.09E-03
7903,4.94E-03,8.06E-03
7904,5.26E-03,8.02E-03
7905,5.19E-03,8.05E-03
7906,5.29E-03,8.03E-03
7907,5.24E-03,8.01E-03
7908,5.35E-03,8.15E-03
7909,5.29E-03,8.08E-03
7910,5.50E-03,8.33E-03
7911,5.46E-03,8.24E-03
7912,5.62E-03,8.53E-03
7913,5.54E-03,8.43E-03
7914,5.65E-03,8.75E-03
7915,5.67E-03,8.64E-03
7916,5.63E-03,8.95E-03
7917,5.61E-03,8.85E-03
7918,5.65E-03,9.13E-03
7919,5.64E-03,9.04E-03
7920,5.66E-03,9.29E-03
7921,5.66E-03,9.21E-03
7922,5.66E-03,9.43E-03
7923,5.67E-03,9.36E-03
7924,5.58E-03,9.54E-03
7925,5.68E-03,9.49E-03
7926,5.60E-03,9.63E-03
7927,5.60E-03,9.59E-03
7928,5.61E-03,9.72E-03
7929,5.60E-03,9.68E-03
7930,5.69E-03,9.79E-03
7931,5.62E-03,9.75E-03
7932,5.72E-03,9.85E-03
7933,5.74E-03,9.82E-03
7934,5.71E-03,9.91E-03
7935,5.67E-03,9.89E-03
7936,5.64E-03,9.96E-03
7937,5.72E-03,9.94E-03
7938,5.51E-03,9.99E-03
7939,3.30E-03,1.03E-02
7940,4.44E-03,1.04E-02
7941,5.24E-03,1.05E-02
7942,6.01E-03,1.09E-02
7943,6.80E-03,8.80E-03
7944,5.24E-03,6.48E-03
7945,5.45E-03,9.91E-03
7946,5.48E-03,9.93E-03
7947,5.32E-03,1.01E-02
7948,5.10E-03,6.45E-03
7949,4.81E-03,6.39E-03
7950,5.41E-03,1.29E-02
7951,3.87E-03,1.29E-02
7952,4.04E-03,1.28E-02
7953,6.20E-03,1.17E-02
7954,5.01E-03,1.11E-02
7955,4.57E-03,1.12E-02
7956,7.02E-03,1.25E-02
7957,7.27E-03,1.24E-02
7958,6.34E-03,1.16E-02
7959,6.13E-03,1.07E-02
7960,5.83E-03,1.06E-02
7961,6.13E-03,1.08E-02
7962,4.70E-03,1.02E-02
7963,5.85E-03,1.28E-02
7964,5.76E-03,1.28E-02
7965,5.81E-03,1.27E-02
7966,5.87E-03,1.28E-02
7967,5.76E-03,1.27E-02
7968,5.85E-03,1.27E-02
7969,5.73E-03,1.26E-02
7970,5.68E-03,1.27E-02
7971,5.63E-03,1.26E-02
7972,5.63E-03,1.26E-02
7973,5.62E-03,1.25E-02
7974,5.66E-03,1.25E-02
7975,5.62E-03,1.25E-02
7976,5.60E-03,1.25E-02
7977,5.55E-03,1.24E-02
7978,5.56E-03,1.24E-02
7979,5.60E-03,1.24E-02
7980,5.56E-03,1.24E-02
7981,5.72E-03,1.23E-02
7982,5.64E-03,1.23E-02
7983,5.81E-03,1.23E-02
7984,5.77E-03,1.23E-02
7985,5.79E-03,1.22E-02
7986,5.78E-03,1.22E-02
7987,5.71E-03,1.22E-02
7988,5.74E-03,1.22E-02
7989,5.67E-03,1.21E-02
7990,5.66E-03,1.21E-02
7991,5.63E-03,1.21E-02
7992,5.67E-03,1.21E-02
7993,5.58E-03,1.20E-02
7994,5.58E-03,1.20E-02
7995,5.57E-03,1.20E-02
7996,5.57E-03,1.20E-02
7997,5.55E-03,1.19E-02
7998,5.55E-03,1.19E-02
7999,5.58E-03,1.18E-02
8000,5.57E-03,1.19E-02
8001,5.58E-03,1.18E-02
8002,5.60E-03,1.18E-02
8003,5.59E-03,1.17E-02
8004,5.60E-03,1.17E-02
8005,5.59E-03,1.17E-02
8006,5.57E-03,1.17E-02
8007,5.57E-03,1.16E-02
8008,5.60E-03,1.16E-02
8009,5.54E-03,1.16E-02
8010,5.55E-03,1.16E-02
8011,5.51E-03,1.15E-02
8012,5.49E-03,1.15E-02
8013,5.63E-03,1.15E-02
8014,5.59E-03,1.15E-02
8015,5.56E-03,1.14E-02
8016,5.62E-03,1.14E-02
8017,5.57E-03,1.14E-02
8018,5.56E-03,1.14E-02
8019,5.60E-03,1.13E-02
8020,5.58E-03,1.14E-02
8021,5.54E-03,1.13E-02
8022,5.58E-03,1.13E-02
8023,5.54E-03,1.13E-02
8024,5.59E-03,1.13E-02
8025,5.55E-03,1.13E-02
8026,5.55E-03,1.13E-02
8027,5.57E-03,1.12E-02
8028,5.54E-03,1.12E-02
8029,5.66E-03,1.12E-02
8030,5.62E-03,1.12E-02
8031,5.65E-03,1.12E-02
8032,5.63E-03,1.12E-02
8033,5.59E-03,1.12E-02
8034,5.62E-03,1.12E-02
8035,5.57E-03,1.11E-02
8036,5.59E-03,1.11E-02
8037,5.57E-03,1.11E-02
8038,5.59E-03,1.11E-02
8039,5.57E-03,1.11E-02
8040,5.59E-03,1.11E-02
8041,5.57E-03,1.10E-02
8042,5.59E-03,1.10E-02
8043,5.57E-03,1.10E-02
8044,5.59E-03,1.10E-02
8045,5.58E-03,1.10E-02
8046,5.60E-03,1.10E-02
8047,5.59E-03,1.09E-02
8048,5.56E-03,1.09E-02
8049,5.52E-03,1.09E-02
8050,5.51E-03,1.09E-02
8051,5.49E-03,1.09E-02
8052,5.45E-03,1.09E-02
8053,5.64E-03,1.08E-02
8054,5.54E-03,1.08E-02
8055,5.67E-03,1.08E-02
8056,5.64E-03,1.08E-02
8057,5.61E-03,1.07E-02
8058,5.65E-03,1.08E-02
8059,5.47E-03,1.07E-02
8060,5.56E-03,1.07E-02
8061,5.49E-03,1.07E-02
8062,5.49E-03,1.07E-02
8063,5.49E-03,1.06E-02
8064,5.54E-03,1.07E-02
8065,5.50E-03,1.06E-02
8066,5.50E-03,1.06E-02
8067,5.50E-03,1.06E-02
8068,5.48E-03,1.06E-02
8069,5.97E-03,1.05E-02
8070,5.57E-03,1.06E-02
8071,5.25E-03,1.05E-02
8072,5.88E-03,1.05E-02
8073,5.33E-03,1.05E-02
8074,5.26E-03,1.05E-02
8075,5.45E-03,1.05E-02
8076,5.39E-03,1.05E-02
8077,5.57E-03,1.05E-02
8078,5.48E-03,1.05E-02
8079,5.52E-03,1.04E-02
8080,5.55E-03,1.05E-02
8081,5.50E-03,1.04E-02
8082,5.50E-03,1.04E-02
8083,5.46E-03,1.04E-02
8084,5.53E-03,1.04E-02
8085,5.58E-03,1.04E-02
8086,5.49E-03,1.04E-02
8087,5.63E-03,1.04E-02
8088,5.60E-03,1.04E-02
8089,5.57E-03,1.04E-02
8090,5.58E-03,1.04E-02
8091,5.61E-03,1.03E-02
8092,5.58E-03,1.03E-02
8093,5.59E-03,1.03E-02
8094,5.59E-03,1.03E-02
8095,5.63E-03,1.03E-02
8096,5.59E-03,1.03E-02
8097,5.64E-03,1.03E-02
8098,5.63E-03,1.03E-02
8099,5.64E-03,1.03E-02
8100,5.63E-03,1.03E-02
8101,5.64E-03,1.02E-02
8102,5.63E-03,1.03E-02
8103,5.64E-03,1.02E-02
8104,5.63E-03,1.02E-02
8105,5.64E-03,1.02E-02
8106,5.63E-03,1.02E-02
8107,5.64E-03,1.02E-02
8108,5.63E-03,1.02E-02
8109,5.60E-03,1.02E-02
8110,5.61E-03,1.02E-02
8111,5.64E-03,1.02E-02
8112,5.57E-03,1.02E-02
8113,5.74E-03,1.01E-02
8114,5.70E-03,1.01E-02
8115,5.74E-03,1.01E-02
8116,5.74E-03,1.01E-02
8117,5.65E-03,1.01E-02
8118,5.73E-03,1.01E-02
8119,5.63E-03,1.01E-02
8120,5.63E-03,1.01E-02
8121,5.64E-03,1.01E-02
8122,5.68E-03,1.01E-02
8123,5.61E-03,1.01E-02
8124,5.62E-03,1.01E-02
8125,5.60E-03,1.01E-02
8126,5.63E-03,1.01E-02
8127,5.65E-03,1.00E-02
8128,5.61E-03,1.00E-02
8129,5.58E-03,1.00E-02
8130,5.65E-03,1.00E-02
8131,5.57E-03,1.00E-02
8132,5.59E-03,1.00E-02
8133,5.59E-03,1.00E-02
8134,5.57E-03,1.00E-02
8135,5.60E-03,9.99E-03
8136,5.63E-03,9.99E-03
8137,5.53E-03,9.97E-03
8138,5.59E-03,9.98E-03
8139,5.70E-03,9.96E-03
8140,5.59E-03,9.97E-03
8141,5.69E-03,9.94E-03
8142,5.70E-03,9.95E-03
8143,5.61E-03,9.93E-03
8144,5.64E-03,9.94E-03
8145,5.57E-03,9.92E-03
8146,5.57E-03,9.93E-03
8147,5.56E-03,9.90E-03
8148,5.60E-03,9.91E-03
8149,5.51E-03,9.89E-03
8150,5.54E-03,9.90E-03
8151,5.44E-03,9.87E-03
8152,5.44E-03,9.88E-03
8153,5.53E-03,9.85E-03
8154,5.51E-03,9.86E-03
8155,5.57E-03,9.83E-03
8156,5.51E-03,9.84E-03
8157,5.62E-03,9.81E-03
8158,5.63E-03,9.83E-03
8159,5.69E-03,9.79E-03
8160,5.61E-03,9.80E-03
8161,5.73E-03,9.77E-03
8162,5.68E-03,9.78E-03
8163,5.72E-03,9.76E-03
8164,5.70E-03,9.77E-03
8165,5.77E-03,9.74E-03
8166,5.73E-03,9.75E-03
8167,5.70E-03,9.73E-03
8168,5.76E-03,9.74E-03
8169,5.63E-03,9.71E-03
8170,5.67E-03,9.72E-03
8171,5.61E-03,9.70E-03
8172,5.62E-03,9.71E-03
8173,5.59E-03,9.69E-03
8174,5.59E-03,9.69E-03
8175,5.54E-03,9.68E-03
8176,5.54E-03,9.69E-03
8177,5.62E-03,9.67E-03
8178,5.59E-03,9.67E-03
8179,5.64E-03,9.67E-03
8180,5.61E-03,9.67E-03
8181,5.70E-03,9.67E-03
8182,5.69E-03,9.67E-03
8183,5.68E-03,9.67E-03
8184,5.73E-03,9.67E-03
8185,5.63E-03,9.68E-03
8186,5.68E-03,9.67E-03
8187,5.51E-03,9.69E-03
8188,5.57E-03,9.68E-03
8189,5.48E-03,9.69E-03
8190,5.50E-03,9.69E-03
8191,5.46E-03,9.69E-03
8192,5.45E-03,9.69E-03
8193,5.54E-03,9.68E-03
8194,5.47E-03,9.68E-03
8195,5.53E-03,9.66E-03
8196,5.54E-03,9.67E-03
8197,5.42E-03,9.65E-03
8198,5.53E-03,9.65E-03
8199,5.35E-03,9.64E-03
8200,5.40E-03,9.64E-03
8201,5.47E-03,9.64E-03
8202,5.40E-03,9.64E-03
8203,5.55E-03,9.64E-03
8204,5.49E-03,9.64E-03
8205,5.64E-03,9.65E-03
8206,5.59E-03,9.64E-03
8207,5.67E-03,9.66E-03
8208,5.64E-03,9.66E-03
8209,5.67E-03,9.69E-03
8210,5.68E-03,9.67E-03
8211,5.58E-03,9.73E-03
8212,5.61E-03,9.71E-03
8213,5.47E-03,9.80E-03
8214,5.54E-03,9.76E-03
8215,5.54E-03,9.90E-03
8216,5.51E-03,9.85E-03
8217,5.71E-03,1.00E-02
8218,5.63E-03,9.96E-03
8219,5.74E-03,1.01E-02
8220,5.73E-03,1.01E-02
8221,5.54E-03,1.02E-02
8222,5.60E-03,1.02E-02
8223,5.76E-03,1.01E-02
8224,5.51E-03,1.01E-02
8225,5.91E-03,1.01E-02
8226,5.58E-03,1.01E-02
8227,5.78E-03,1.01E-02
8228,5.94E-03,1.01E-02
8229,5.46E-03,1.03E-02
8230,5.56E-03,1.02E-02
8231,4.51E-03,1.04E-02
8232,4.82E-03,1.04E-02
8233,5.65E-03,1.04E-02
8234,4.24E-03,1.04E-02
8235,5.96E-03,1.03E-02
8236,6.15E-03,1.03E-02
8237,5.92E-03,1.01E-02
8238,5.91E-03,1.02E-02
8239,5.85E-03,9.84E-03
8240,5.91E-03,9.95E-03
8241,5.84E-03,9.61E-03
8242,5.87E-03,9.72E-03
8243,5.83E-03,9.41E-03
8244,5.86E-03,9.51E-03
8245,5.79E-03,9.25E-03
8246,5.83E-03,9.33E-03
8247,5.73E-03,9.13E-03
8248,5.76E-03,9.19E-03
8249,5.92E-03,9.00E-03
8250,5.74E-03,9.07E-03
8251,6.78E-03,8.88E-03
8252,6.15E-03,8.79E-03
8253,5.96E-03,8.80E-03
8254,5.83E-03,8.80E-03
8255,5.70E-03,8.80E-03
8256,6.13E-03,8.67E-03
8257,5.01E-03,8.54E-03
8258,5.08E-03,8.80E-03
8259,5.78E-03,8.54E-03
8260,5.67E-03,8.55E-03
8261,6.06E-03,8.49E-03
8262,5.88E-03,8.52E-03
8263,5.03E-03,8.39E-03
8264,6.57E-03,8.45E-03
8265,5.35E-03,8.29E-03
8266,4.30E-03,8.28E-03
8267,5.62E-03,8.34E-03
8268,5.46E-03,8.31E-03
8269,5.78E-03,8.47E-03
8270,5.72E-03,8.39E-03
8271,5.87E-03,8.68E-03
8272,5.85E-03,8.56E-03
8273,5.91E-03,8.97E-03
8274,5.89E-03,8.82E-03
8275,5.95E-03,9.34E-03
8276,5.90E-03,9.15E-03
8277,5.95E-03,9.75E-03
8278,5.96E-03,9.54E-03
8279,5.96E-03,1.02E-02
8280,5.97E-03,9.96E-03
8281,5.86E-03,1.06E-02
8282,5.96E-03,1.04E-02
8283,5.78E-03,1.09E-02
8284,5.88E-03,1.08E-02
8285,5.66E-03,1.10E-02
8286,5.74E-03,1.10E-02
8287,5.85E-03,1.06E-02
8288,5.70E-03,1.09E-02
8289,5.72E-03,1.00E-02
8290,5.93E-03,1.03E-02
8291,5.13E-03,9.10E-03
8292,5.33E-03,9.54E-03
8293,5.05E-03,8.40E-03
8294,4.97E-03,8.72E-03
8295,5.24E-03,8.04E-03
8296,5.01E-03,8.16E-03
8297,5.46E-03,7.97E-03
8298,5.33E-03,7.98E-03
8299,5.61E-03,8.02E-03
8300,5.56E-03,7.99E-03
8301,5.51E-03,8.04E-03
8302,5.57E-03,8.04E-03
8303,5.59E-03,7.98E-03
8304,5.56E-03,8.01E-03
8305,5.55E-03,7.89E-03
8306,5.60E-03,7.93E-03
8307,5.49E-03,7.79E-03
8308,5.53E-03,7.84E-03
8309,5.50E-03,7.70E-03
8310,5.50E-03,7.74E-03
8311,5.56E-03,7.65E-03
8312,5.55E-03,7.67E-03
8313,5.62E-03,7.61E-03
8314,5.60E-03,7.63E-03
8315,5.57E-03,7.53E-03
8316,5.57E-03,7.57E-03
8317,5.49E-03,7.42E-03
8318,5.49E-03,7.48E-03
8319,5.45E-03,7.30E-03
8320,5.48E-03,7.36E-03
8321,5.39E-03,7.20E-03
8322,5.43E-03,7.25E-03
8323,5.40E-03,7.15E-03
8324,5.38E-03,7.16E-03
8325,5.48E-03,7.18E-03
8326,5.45E-03,7.16E-03
8327,5.57E-03,7.24E-03
8328,5.55E-03,7.21E-03
8329,5.62E-03,7.31E-03
8330,5.61E-03,7.27E-03
8331,5.62E-03,7.39E-03
8332,5.64E-03,7.35E-03
8333,5.54E-03,7.45E-03
8334,5.60E-03,7.42E-03
8335,5.54E-03,7.48E-03
8336,5.51E-03,7.47E-03
8337,5.53E-03,7.49E-03
8338,5.53E-03,7.49E-03
8339,5.57E-03,7.45E-03
8340,5.56E-03,7.47E-03
8341,5.60E-03,7.38E-03
8342,5.58E-03,7.41E-03
8343,5.56E-03,7.29E-03
8344,5.58E-03,7.33E-03
8345,5.49E-03,7.21E-03
8346,5.56E-03,7.25E-03
8347,5.53E-03,7.15E-03
8348,5.52E-03,7.17E-03
8349,5.58E-03,7.10E-03
8350,5.55E-03,7.12E-03
8351,5.63E-03,7.06E-03
8352,5.58E-03,7.08E-03
8353,5.70E-03,6.99E-03
8354,5.66E-03,7.03E-03
8355,5.61E-03,6.88E-03
8356,5.62E-03,6.94E-03
8357,5.55E-03,6.75E-03
8358,5.56E-03,6.82E-03
8359,5.44E-03,6.63E-03
8360,5.49E-03,6.69E-03
8361,5.47E-03,6.52E-03
8362,5.46E-03,6.57E-03
8363,5.56E-03,6.45E-03
8364,5.53E-03,6.48E-03
8365,5.55E-03,6.41E-03
8366,5.56E-03,6.43E-03
8367,5.56E-03,6.39E-03
8368,5.58E-03,6.39E-03
8369,5.57E-03,6.37E-03
8370,5.56E-03,6.38E-03
8371,5.54E-03,6.36E-03
8372,5.54E-03,6.36E-03
8373,5.55E-03,6.37E-03
8374,5.50E-03,6.36E-03
8375,5.63E-03,6.37E-03
8376,5.60E-03,6.37E-03
8377,5.59E-03,6.37E-03
8378,5.64E-03,6.37E-03
8379,5.51E-03,6.38E-03
8380,5.54E-03,6.38E-03
8381,5.53E-03,6.39E-03
8382,5.52E-03,6.38E-03
8383,5.58E-03,6.39E-03
8384,5.61E-03,6.39E-03
8385,5.59E-03,6.40E-03
8386,5.59E-03,6.40E-03
8387,5.60E-03,6.41E-03
8388,5.55E-03,6.41E-03
8389,5.65E-03,6.42E-03
8390,5.63E-03,6.42E-03
8391,5.67E-03,6.44E-03
8392,5.71E-03,6.43E-03
8393,5.47E-03,6.46E-03
8394,5.56E-03,6.49E-03
8395,5.40E-03,6.47E-03
8396,5.67E-03,6.50E-03
8397,5.64E-03,6.50E-03
8398,5.61E-03,6.51E-03
8399,5.66E-03,6.51E-03
8400,5.61E-03,6.52E-03
8401,5.61E-03,6.52E-03
8402,5.66E-03,6.53E-03
8403,5.64E-03,6.53E-03
8404,5.68E-03,6.53E-03
8405,5.72E-03,6.53E-03
8406,5.65E-03,6.53E-03
8407,5.71E-03,6.53E-03
8408,5.68E-03,6.52E-03
8409,5.65E-03,6.52E-03
8410,5.69E-03,6.50E-03
8411,5.71E-03,6.51E-03
8412,5.61E-03,6.48E-03
8413,5.70E-03,6.49E-03
8414,5.58E-03,6.45E-03
8415,5.59E-03,6.46E-03
8416,5.46E-03,6.42E-03
8417,5.52E-03,6.43E-03
8418,5.47E-03,6.39E-03
8419,5.45E-03,6.40E-03
8420,5.54E-03,6.37E-03
8421,5.53E-03,6.38E-03
8422,5.58E-03,6.36E-03
8423,5.54E-03,6.37E-03
8424,5.56E-03,6.34E-03
8425,5.58E-03,6.35E-03
8426,5.52E-03,6.34E-03
8427,5.55E-03,6.34E-03
8428,5.58E-03,6.33E-03
8429,5.57E-03,6.33E-03
8430,5.62E-03,6.32E-03
8431,5.62E-03,6.33E-03
8432,5.60E-03,6.32E-03
8433,5.61E-03,6.32E-03
8434,5.62E-03,6.31E-03
8435,5.58E-03,6.32E-03
8436,5.64E-03,6.30E-03
8437,5.66E-03,6.31E-03
8438,5.67E-03,6.27E-03
8439,5.66E-03,6.29E-03
8440,5.51E-03,6.25E-03
8441,5.56E-03,6.26E-03
8442,5.56E-03,6.21E-03
8443,5.55E-03,6.23E-03
8444,5.57E-03,6.17E-03
8445,5.58E-03,6.19E-03
8446,5.64E-03,6.11E-03
8447,5.59E-03,6.14E-03
8448,5.71E-03,6.03E-03
8449,5.64E-03,6.07E-03
8450,5.73E-03,5.92E-03
8451,5.69E-03,5.98E-03
8452,5.62E-03,5.78E-03
8453,5.66E-03,5.85E-03
8454,5.43E-03,5.57E-03
8455,5.55E-03,5.68E-03
8456,5.23E-03,5.38E-03
8457,5.34E-03,5.46E-03
8458,5.28E-03,5.36E-03
8459,5.29E-03,5.36E-03
8460,5.28E-03,5.20E-03
8461,5.29E-03,5.33E-03
8462,5.02E-03,5.38E-03
8463,5.02E-03,5.25E-03
8464,5.55E-03,5.42E-03
8465,5.24E-03,5.39E-03
8466,5.70E-03,5.53E-03
8467,5.64E-03,5.47E-03
8468,5.72E-03,5.65E-03
8469,5.74E-03,5.60E-03
8470,5.62E-03,5.65E-03
8471,5.67E-03,5.67E-03
8472,5.52E-03,5.54E-03
8473,5.55E-03,5.61E-03
8474,5.31E-03,5.36E-03
8475,5.38E-03,5.45E-03
8476,5.15E-03,5.21E-03
8477,5.23E-03,5.27E-03
8478,5.18E-03,5.28E-03
8479,5.14E-03,5.21E-03
8480,5.41E-03,5.50E-03
8481,5.28E-03,5.38E-03
8482,5.53E-03,5.82E-03
8483,5.44E-03,5.65E-03
8484,5.70E-03,6.16E-03
8485,5.62E-03,5.99E-03
8486,5.64E-03,6.47E-03
8487,5.64E-03,6.32E-03
8488,5.72E-03,6.76E-03
8489,5.66E-03,6.61E-03
8490,5.65E-03,7.03E-03
8491,5.64E-03,6.90E-03
8492,5.71E-03,7.29E-03
8493,5.68E-03,7.16E-03
8494,5.69E-03,7.52E-03
8495,5.69E-03,7.41E-03
8496,5.67E-03,7.71E-03
8497,5.68E-03,7.62E-03
8498,5.67E-03,7.88E-03
8499,5.66E-03,7.80E-03
8500,5.64E-03,8.02E-03
8501,5.64E-03,7.95E-03
8502,5.63E-03,8.16E-03
8503,5.61E-03,8.09E-03
8504,5.63E-03,8.27E-03
8505,5.65E-03,8.22E-03
8506,5.65E-03,8.36E-03
8507,5.68E-03,8.32E-03
8508,5.75E-03,8.40E-03
8509,5.68E-03,8.39E-03
8510,5.76E-03,8.34E-03
8511,5.73E-03,8.39E-03
8512,6.71E-03,8.16E-03
8513,5.91E-03,8.26E-03
8514,5.29E-03,7.70E-03
8515,4.37E-03,7.76E-03
8516,5.32E-03,7.59E-03
8517,5.26E-03,7.62E-03
8518,5.39E-03,7.65E-03
8519,5.28E-03,7.60E-03
8520,5.41E-03,7.84E-03
8521,5.37E-03,7.73E-03
8522,5.51E-03,8.09E-03
8523,5.49E-03,7.96E-03
8524,5.63E-03,8.35E-03
8525,5.60E-03,8.22E-03
8526,5.68E-03,8.61E-03
8527,5.66E-03,8.49E-03
8528,5.69E-03,8.85E-03
8529,5.64E-03,8.74E-03
8530,5.64E-03,9.06E-03
8531,5.64E-03,8.96E-03
8532,5.63E-03,9.23E-03
8533,5.68E-03,9.15E-03
8534,5.58E-03,9.37E-03
8535,5.60E-03,9.31E-03
8536,5.57E-03,9.47E-03
8537,5.59E-03,9.42E-03
8538,5.56E-03,9.56E-03
8539,5.59E-03,9.52E-03
8540,5.64E-03,9.63E-03
8541,5.58E-03,9.60E-03
8542,5.70E-03,9.70E-03
8543,5.66E-03,9.67E-03
8544,5.66E-03,9.76E-03
8545,5.70E-03,9.73E-03
8546,5.62E-03,9.82E-03
8547,5.66E-03,9.79E-03
8548,5.59E-03,9.86E-03
8549,5.61E-03,9.84E-03
8550,5.52E-03,9.89E-03
8551,5.66E-03,9.97E-03
8552,6.61E-03,8.66E-03
8553,5.50E-03,6.32E-03
8554,6.87E-03,1.18E-02
8555,4.95E-03,1.21E-02
8556,6.57E-03,1.10E-02
8557,5.50E-03,1.13E-02
8558,5.71E-03,1.05E-02
8559,8.64E-03,1.26E-02
8560,7.22E-03,1.27E-02
8561,7.32E-03,1.22E-02
8562,7.95E-03,1.24E-02
8563,6.95E-03,1.14E-02
8564,6.96E-03,1.16E-02
8565,6.14E-03,1.07E-02
8566,5.89E-03,1.06E-02
8567,6.52E-03,1.09E-02
8568,5.84E-03,1.00E-02
8569,5.97E-03,1.01E-02
8570,4.65E-03,1.30E-02
8571,5.34E-03,1.30E-02
8572,5.65E-03,1.30E-02
8573,5.75E-03,1.29E-02
8574,5.64E-03,1.30E-02
8575,5.77E-03,1.29E-02
8576,5.72E-03,1.29E-02
8577,5.65E-03,1.28E-02
8578,5.73E-03,1.28E-02
8579,5.72E-03,1.28E-02
8580,5.65E-03,1.28E-02
8581,5.65E-03,1.27E-02
8582,5.65E-03,1.27E-02
8583,5.59E-03,1.27E-02
8584,5.60E-03,1.27E-02
8585,5.63E-03,1.26E-02
8586,5.63E-03,1.26E-02
8587,5.63E-03,1.26E-02
8588,5.63E-03,1.26E-02
8589,5.63E-03,1.25E-02
8590,5.63E-03,1.25E-02
8591,5.69E-03,1.25E-02
8592,5.63E-03,1.25E-02
8593,5.74E-03,1.24E-02
8594,5.72E-03,1.24E-02
8595,5.79E-03,1.24E-02
8596,5.77E-03,1.24E-02
8597,5.69E-03,1.23E-02
8598,5.75E-03,1.23E-02
8599,5.63E-03,1.23E-02
8600,5.63E-03,1.23E-02
8601,5.63E-03,1.22E-02
8602,5.63E-03,1.22E-02
8603,5.60E-03,1.22E-02
8604,5.63E-03,1.22E-02
8605,5.56E-03,1.21E-02
8606,5.57E-03,1.21E-02
8607,5.56E-03,1.20E-02
8608,5.56E-03,1.21E-02
8609,5.59E-03,1.20E-02
8610,5.57E-03,1.20E-02
8611,5.63E-03,1.19E-02
8612,5.63E-03,1.20E-02
8613,5.56E-03,1.19E-02
8614,5.61E-03,1.19E-02
8615,5.60E-03,1.18E-02
8616,5.59E-03,1.18E-02
8617,5.60E-03,1.18E-02
8618,5.65E-03,1.18E-02
8619,5.54E-03,1.17E-02
8620,5.55E-03,1.17E-02
8621,5.57E-03,1.17E-02
8622,5.54E-03,1.17E-02
8623,5.63E-03,1.16E-02
8624,5.63E-03,1.16E-02
8625,5.60E-03,1.16E-02
8626,5.63E-03,1.16E-02
8627,5.61E-03,1.15E-02
8628,5.60E-03,1.16E-02
8629,5.57E-03,1.15E-02
8630,5.58E-03,1.15E-02
8631,5.57E-03,1.15E-02
8632,5.56E-03,1.15E-02
8633,5.55E-03,1.15E-02
8634,5.57E-03,1.15E-02
8635,5.57E-03,1.14E-02
8636,5.55E-03,1.14E-02
8637,5.63E-03,1.14E-02
8638,5.58E-03,1.14E-02
8639,5.62E-03,1.14E-02
8640,5.64E-03,1.14E-02
8641,5.60E-03,1.13E-02
8642,5.61E-03,1.14E-02
8643,5.61E-03,1.13E-02
8644,5.56E-03,1.13E-02
8645,5.57E-03,1.13E-02
8646,5.60E-03,1.13E-02
8647,5.57E-03,1.13E-02
8648,5.61E-03,1.13E-02
8649,5.58E-03,1.12E-02
8650,5.62E-03,1.12E-02
8651,5.58E-03,1.12E-02
8652,5.62E-03,1.12E-02
8653,5.58E-03,1.12E-02
8654,5.62E-03,1.12E-02
8655,5.57E-03,1.11E-02
8656,5.62E-03,1.12E-02
8657,5.57E-03,1.11E-02
8658,5.56E-03,1.11E-02
8659,5.52E-03,1.11E-02
8660,5.54E-03,1.11E-02
8661,5.49E-03,1.10E-02
8662,5.49E-03,1.11E-02
8663,5.61E-03,1.10E-02
8664,5.55E-03,1.10E-02
8665,5.66E-03,1.10E-02
8666,5.65E-03,1.10E-02
8667,5.57E-03,1.09E-02
8668,5.60E-03,1.09E-02
8669,5.53E-03,1.09E-02
8670,5.58E-03,1.09E-02
8671,5.57E-03,1.09E-02
8672,5.56E-03,1.09E-02
8673,5.60E-03,1.08E-02
8674,5.57E-03,1.08E-02
8675,5.58E-03,1.08E-02
8676,5.59E-03,1.08E-02
8677,5.56E-03,1.08E-02
8678,5.56E-03,1.08E-02
8679,5.73E-03,1.07E-02
8680,5.67E-03,1.07E-02
8681,5.52E-03,1.07E-02
8682,5.66E-03,1.07E-02
8683,5.43E-03,1.07E-02
8684,5.45E-03,1.07E-02
8685,5.52E-03,1.07E-02
8686,5.45E-03,1.07E-02
8687,5.57E-03,1.06E-02
8688,5.57E-03,1.07E-02
8689,5.63E-03,1.06E-02
8690,5.61E-03,1.06E-02
8691,5.58E-03,1.06E-02
8692,5.63E-03,1.06E-02
8693,5.52E-03,1.06E-02
8694,5.55E-03,1.06E-02
8695,5.57E-03,1.06E-02
8696,5.58E-03,1.06E-02
8697,5.55E-03,1.06E-02
8698,5.56E-03,1.06E-02
8699,5.53E-03,1.05E-02
8700,5.54E-03,1.05E-02
8701,5.59E-03,1.05E-02
8702,5.57E-03,1.05E-02
8703,5.63E-03,1.05E-02
8704,5.61E-03,1.05E-02
8705,5.63E-03,1.05E-02
8706,5.64E-03,1.05E-02
8707,5.63E-03,1.05E-02
8708,5.63E-03,1.05E-02
8709,5.63E-03,1.04E-02
8710,5.63E-03,1.05E-02
8711,5.63E-03,1.04E-02
8712,5.63E-03,1.04E-02
8713,5.63E-03,1.04E-02
8714,5.63E-03,1.04E-02
8715,5.63E-03,1.04E-02
8716,5.63E-03,1.04E-02
8717,5.63E-03,1.04E-02
8718,5.63E-03,1.04E-02
8719,5.67E-03,1.04E-02
8720,5.65E-03,1.04E-02
8721,5.65E-03,1.03E-02
8722,5.61E-03,1.04E-02
8723,5.71E-03,1.03E-02
8724,5.71E-03,1.03E-02
8725,5.69E-03,1.03E-02
8726,5.73E-03,1.03E-02
8727,5.63E-03,1.03E-02
8728,5.63E-03,1.03E-02
8729,5.63E-03,1.03E-02
8730,5.63E-03,1.03E-02
8731,5.64E-03,1.03E-02
8732,5.68E-03,1.03E-02
8733,5.60E-03,1.03E-02
8734,5.63E-03,1.03E-02
8735,5.63E-03,1.02E-02
8736,5.61E-03,1.03E-02
8737,5.61E-03,1.02E-02
8738,5.63E-03,1.02E-02
8739,5.58E-03,1.02E-02
8740,5.60E-03,1.02E-02
8741,5.56E-03,1.02E-02
8742,5.57E-03,1.02E-02
8743,5.63E-03,1.02E-02
8744,5.59E-03,1.02E-02
8745,5.64E-03,1.02E-02
8746,5.63E-03,1.02E-02
8747,5.63E-03,1.02E-02
8748,5.63E-03,1.02E-02
8749,5.68E-03,1.02E-02
8750,5.63E-03,1.02E-02
8751,5.66E-03,1.01E-02
8752,5.66E-03,1.01E-02
8753,5.61E-03,1.01E-02
8754,5.62E-03,1.01E-02
8755,5.64E-03,1.01E-02
8756,5.59E-03,1.01E-02
8757,5.57E-03,1.01E-02
8758,5.62E-03,1.01E-02
8759,5.54E-03,1.01E-02
8760,5.59E-03,1.01E-02
8761,5.53E-03,1.01E-02
8762,5.50E-03,1.01E-02
8763,5.54E-03,1.00E-02
8764,5.54E-03,1.01E-02
8765,5.60E-03,1.00E-02
8766,5.59E-03,1.00E-02
8767,5.61E-03,1.00E-02
8768,5.59E-03,1.00E-02
8769,5.70E-03,9.99E-03
8770,5.64E-03,1.00E-02
8771,5.74E-03,9.97E-03
8772,5.73E-03,9.98E-03
8773,5.67E-03,9.96E-03
8774,5.71E-03,9.97E-03
8775,5.64E-03,9.94E-03
8776,5.64E-03,9.95E-03
8777,5.66E-03,9.93E-03
8778,5.64E-03,9.94E-03
8779,5.65E-03,9.91E-03
8780,5.65E-03,9.92E-03
8781,5.64E-03,9.90E-03
8782,5.65E-03,9.91E-03
8783,5.61E-03,9.89E-03
8784,5.64E-03,9.90E-03
8785,5.64E-03,9.88E-03
8786,5.60E-03,9.89E-03
8787,5.64E-03,9.87E-03
8788,5.64E-03,9.88E-03
8789,5.64E-03,9.87E-03
8790,5.64E-03,9.87E-03
8791,5.64E-03,9.88E-03
8792,5.64E-03,9.87E-03
8793,5.66E-03,9.88E-03
8794,5.70E-03,9.88E-03
8795,5.64E-03,9.89E-03
8796,5.67E-03,9.88E-03
8797,5.56E-03,9.89E-03
8798,5.60E-03,9.89E-03
8799,5.56E-03,9.89E-03
8800,5.56E-03,9.89E-03
8801,5.53E-03,9.89E-03
8802,5.56E-03,9.89E-03
8803,5.61E-03,9.89E-03
8804,5.55E-03,9.89E-03
8805,5.61E-03,9.87E-03
8806,5.64E-03,9.88E-03
8807,5.52E-03,9.86E-03
8808,5.60E-03,9.87E-03
8809,5.49E-03,9.86E-03
8810,5.48E-03,9.86E-03
8811,5.49E-03,9.86E-03
8812,5.49E-03,9.86E-03
8813,5.55E-03,9.87E-03
8814,5.53E-03,9.86E-03
8815,5.65E-03,9.88E-03
8816,5.62E-03,9.87E-03
8817,5.65E-03,9.90E-03
8818,5.63E-03,9.89E-03
8819,5.64E-03,9.93E-03
8820,5.66E-03,9.91E-03
8821,5.60E-03,9.97E-03
8822,5.65E-03,9.94E-03
8823,5.58E-03,1.00E-02
8824,5.59E-03,9.99E-03
8825,5.62E-03,1.01E-02
8826,5.62E-03,1.01E-02
8827,5.70E-03,1.02E-02
8828,5.66E-03,1.02E-02
8829,5.70E-03,1.03E-02
8830,5.74E-03,1.03E-02
8831,5.61E-03,1.03E-02
8832,5.65E-03,1.03E-02
8833,5.65E-03,1.03E-02
8834,5.61E-03,1.03E-02
8835,5.76E-03,1.02E-02
8836,5.74E-03,1.02E-02
8837,5.65E-03,1.02E-02
8838,5.73E-03,1.01E-02
8839,5.32E-03,1.02E-02
8840,5.49E-03,1.02E-02
8841,5.08E-03,1.04E-02
8842,5.12E-03,1.03E-02
8843,5.43E-03,1.04E-02
8844,5.21E-03,1.04E-02
8845,5.91E-03,1.03E-02
8846,5.75E-03,1.04E-02
8847,5.89E-03,1.02E-02
8848,5.85E-03,1.03E-02
8849,5.84E-03,1.01E-02
8850,5.86E-03,1.01E-02
8851,5.82E-03,9.88E-03
8852,5.85E-03,9.97E-03
8853,5.83E-03,9.72E-03
8854,5.85E-03,9.80E-03
8855,5.77E-03,9.58E-03
8856,5.81E-03,9.65E-03
8857,5.78E-03,9.44E-03
8858,5.76E-03,9.51E-03
8859,5.95E-03,9.30E-03
8860,5.80E-03,9.37E-03
8861,6.15E-03,9.17E-03
8862,5.94E-03,9.24E-03
8863,5.95E-03,9.09E-03
8864,6.15E-03,9.12E-03
8865,5.62E-03,9.08E-03
8866,5.81E-03,9.08E-03
8867,6.31E-03,8.96E-03
8868,5.28E-03,9.08E-03
8869,6.35E-03,8.66E-03
8870,6.42E-03,8.95E-03
8871,6.77E-03,8.96E-03
8872,6.14E-03,8.64E-03
8873,5.98E-03,8.63E-03
8874,6.02E-03,8.92E-03
8875,6.17E-03,8.94E-03
8876,5.84E-03,8.61E-03
8877,5.76E-03,8.58E-03
8878,5.71E-03,8.89E-03
8879,5.84E-03,8.91E-03
8880,5.59E-03,8.56E-03
8881,5.46E-03,8.55E-03
8882,5.28E-03,8.87E-03
8883,5.51E-03,8.88E-03
8884,5.13E-03,8.55E-03
8885,5.17E-03,8.88E-03
8886,5.91E-03,8.71E-03
8887,6.42E-03,8.71E-03
8888,5.95E-03,8.74E-03
8889,5.67E-03,8.78E-03
8890,5.53E-03,8.81E-03
8891,4.31E-03,8.93E-03
8892,4.84E-03,8.89E-03
8893,4.75E-03,8.99E-03
8894,5.79E-03,8.89E-03
8895,5.21E-03,8.95E-03
8896,4.70E-03,8.68E-03
8897,5.79E-03,8.87E-03
8898,5.68E-03,8.63E-03
8899,5.43E-03,8.62E-03
8900,5.58E-03,8.42E-03
8901,5.29E-03,8.46E-03
8902,5.84E-03,8.32E-03
8903,5.79E-03,8.37E-03
8904,5.77E-03,8.27E-03
8905,5.79E-03,8.33E-03
8906,5.65E-03,8.24E-03
8907,5.56E-03,8.23E-03
8908,5.92E-03,8.30E-03
8909,5.77E-03,8.26E-03
8910,6.12E-03,8.36E-03
8911,6.00E-03,8.33E-03
8912,6.15E-03,8.38E-03
8913,6.21E-03,8.37E-03
8914,5.66E-03,8.37E-03
8915,5.78E-03,8.40E-03
8916,5.77E-03,8.31E-03
8917,5.60E-03,8.33E-03
8918,5.95E-03,8.22E-03
8919,5.85E-03,8.28E-03
8920,5.42E-03,8.08E-03
8921,5.77E-03,8.14E-03
8922,5.25E-03,7.84E-03
8923,5.26E-03,7.95E-03
8924,5.65E-03,7.85E-03
8925,5.53E-03,7.83E-03
8926,5.80E-03,8.00E-03
8927,5.75E-03,7.91E-03
8928,5.88E-03,8.25E-03
8929,5.85E-03,8.11E-03
8930,5.93E-03,8.60E-03
8931,5.92E-03,8.41E-03
8932,5.97E-03,9.04E-03
8933,5.90E-03,8.81E-03
8934,5.94E-03,9.57E-03
8935,5.94E-03,9.30E-03
8936,5.88E-03,1.02E-02
8937,5.92E-03,9.86E-03
8938,5.76E-03,1.08E-02
8939,5.83E-03,1.05E-02
8940,5.64E-03,1.13E-02
8941,5.69E-03,1.10E-02
8942,5.55E-03,1.17E-02
8943,5.61E-03,1.15E-02
8944,5.54E-03,1.14E-02
8945,5.54E-03,1.16E-02
8946,5.46E-03,1.02E-02
8947,5.53E-03,1.09E-02
8948,5.28E-03,8.45E-03
8949,5.37E-03,9.36E-03
8950,5.22E-03,7.40E-03
8951,5.14E-03,7.82E-03
8952,5.29E-03,7.29E-03
8953,5.34E-03,7.24E-03
8954,5.51E-03,7.53E-03
8955,5.40E-03,7.41E-03
8956,5.57E-03,7.74E-03
8957,5.54E-03,7.64E-03
8958,5.56E-03,7.86E-03
8959,5.59E-03,7.82E-03
8960,5.54E-03,7.83E-03
8961,5.55E-03,7.87E-03
8962,5.52E-03,7.66E-03
8963,5.57E-03,7.76E-03
8964,5.53E-03,7.48E-03
8965,5.58E-03,7.56E-03
8966,5.56E-03,7.40E-03
8967,5.53E-03,7.43E-03
8968,5.61E-03,7.41E-03
8969,5.59E-03,7.40E-03
8970,5.63E-03,7.43E-03
8971,5.63E-03,7.43E-03
8972,5.56E-03,7.39E-03
8973,5.59E-03,7.42E-03
8974,5.53E-03,7.24E-03
8975,5.53E-03,7.33E-03
8976,5.52E-03,6.99E-03
8977,5.54E-03,7.12E-03
8978,5.47E-03,6.83E-03
8979,5.49E-03,6.89E-03
8980,5.49E-03,6.82E-03
8981,5.47E-03,6.81E-03
8982,5.54E-03,6.87E-03
8983,5.57E-03,6.84E-03
8984,5.60E-03,6.98E-03
8985,5.59E-03,6.92E-03
8986,5.62E-03,7.11E-03
8987,5.62E-03,7.04E-03
8988,5.62E-03,7.21E-03
8989,5.62E-03,7.16E-03
8990,5.58E-03,7.30E-03
8991,5.62E-03,7.26E-03
8992,5.57E-03,7.36E-03
8993,5.56E-03,7.34E-03
8994,5.56E-03,7.39E-03
8995,5.59E-03,7.38E-03
8996,5.59E-03,7.36E-03
8997,5.56E-03,7.39E-03
8998,5.59E-03,7.24E-03
8999,5.61E-03,7.31E-03
9000,5.54E-03,7.09E-03
9001,5.58E-03,7.16E-03
9002,5.55E-03,6.98E-03
9003,5.58E-03,7.03E-03
9004,5.59E-03,6.94E-03
9005,5.59E-03,6.95E-03
9006,5.64E-03,6.93E-03
9007,5.62E-03,6.93E-03
9008,5.66E-03,6.91E-03
9009,5.63E-03,6.92E-03
9010,5.67E-03,6.86E-03
9011,5.64E-03,6.89E-03
9012,5.62E-03,6.75E-03
9013,5.65E-03,6.81E-03
9014,5.54E-03,6.56E-03
9015,5.56E-03,6.66E-03
9016,5.51E-03,6.37E-03
9017,5.51E-03,6.46E-03
9018,5.53E-03,6.25E-03
9019,5.56E-03,6.30E-03
9020,5.55E-03,6.18E-03
9021,5.58E-03,6.21E-03
9022,5.56E-03,6.15E-03
9023,5.59E-03,6.17E-03
9024,5.61E-03,6.14E-03
9025,5.62E-03,6.15E-03
9026,5.55E-03,6.14E-03
9027,5.58E-03,6.14E-03
9028,5.52E-03,6.14E-03
9029,5.52E-03,6.14E-03
9030,5.59E-03,6.15E-03
9031,5.56E-03,6.14E-03
9032,5.58E-03,6.15E-03
9033,5.60E-03,6.15E-03
9034,5.57E-03,6.16E-03
9035,5.57E-03,6.16E-03
9036,5.60E-03,6.17E-03
9037,5.61E-03,6.17E-03
9038,5.60E-03,6.18E-03
9039,5.61E-03,6.18E-03
9040,5.59E-03,6.19E-03
9041,5.61E-03,6.19E-03
9042,5.59E-03,6.20E-03
9043,5.60E-03,6.20E-03
9044,5.59E-03,6.21E-03
9045,5.60E-03,6.21E-03
9046,5.65E-03,6.22E-03
9047,5.62E-03,6.22E-03
9048,5.65E-03,6.24E-03
9049,5.67E-03,6.23E-03
9050,5.85E-03,6.27E-03
9051,4.88E-03,6.28E-03
9052,5.51E-03,6.31E-03
9053,5.30E-03,6.29E-03
9054,5.62E-03,6.33E-03
9055,5.56E-03,6.32E-03
9056,5.61E-03,6.34E-03
9057,5.61E-03,6.33E-03
9058,5.61E-03,6.35E-03
9059,5.62E-03,6.35E-03
9060,5.69E-03,6.36E-03
9061,5.67E-03,6.36E-03
9062,5.67E-03,6.36E-03
9063,5.69E-03,6.36E-03
9064,5.72E-03,6.36E-03
9065,5.72E-03,6.36E-03
9066,5.71E-03,6.35E-03
9067,5.74E-03,6.36E-03
9068,5.73E-03,6.33E-03
9069,5.74E-03,6.34E-03
9070,5.64E-03,6.31E-03
9071,5.69E-03,6.32E-03
9072,5.61E-03,6.27E-03
9073,5.61E-03,6.29E-03
9074,5.52E-03,6.24E-03
9075,5.60E-03,6.26E-03
9076,5.49E-03,6.21E-03
9077,5.48E-03,6.22E-03
9078,5.56E-03,6.19E-03
9079,5.54E-03,6.20E-03
9080,5.62E-03,6.18E-03
9081,5.55E-03,6.19E-03
9082,5.58E-03,6.16E-03
9083,5.66E-03,6.17E-03
9084,5.56E-03,6.15E-03
9085,5.56E-03,6.16E-03
9086,5.61E-03,6.15E-03
9087,5.61E-03,6.15E-03
9088,5.62E-03,6.15E-03
9089,5.62E-03,6.15E-03
9090,5.62E-03,6.15E-03
9091,5.62E-03,6.15E-03
9092,5.65E-03,6.15E-03
9093,5.57E-03,6.15E-03
9094,5.70E-03,6.14E-03
9095,5.68E-03,6.14E-03
9096,5.68E-03,6.12E-03
9097,5.69E-03,6.13E-03
9098,5.55E-03,6.10E-03
9099,5.55E-03,6.11E-03
9100,5.55E-03,6.06E-03
9101,5.55E-03,6.08E-03
9102,5.60E-03,6.02E-03
9103,5.57E-03,6.04E-03
9104,5.65E-03,5.97E-03
9105,5.63E-03,6.00E-03
9106,5.67E-03,5.89E-03
9107,5.64E-03,5.93E-03
9108,5.69E-03,5.79E-03
9109,5.65E-03,5.85E-03
9110,5.61E-03,5.63E-03
9111,5.67E-03,5.72E-03
9112,5.42E-03,5.39E-03
9113,5.54E-03,5.53E-03
9114,5.34E-03,5.00E-03
9115,5.36E-03,5.21E-03
9116,5.38E-03,4.81E-03
9117,5.42E-03,4.83E-03
9118,5.28E-03,5.05E-03
9119,5.32E-03,4.95E-03
9120,5.22E-03,5.02E-03
9121,5.00E-03,5.07E-03
9122,5.62E-03,4.99E-03
9123,5.51E-03,4.91E-03
9124,5.61E-03,5.35E-03
9125,5.62E-03,5.16E-03
9126,5.62E-03,5.61E-03
9127,5.63E-03,5.51E-03
9128,5.58E-03,5.61E-03
9129,5.62E-03,5.64E-03
9130,5.49E-03,5.38E-03
9131,5.51E-03,5.52E-03
9132,5.37E-03,5.00E-03
9133,5.42E-03,5.20E-03
9134,5.34E-03,4.67E-03
9135,5.34E-03,4.82E-03
9136,5.41E-03,4.64E-03
9137,5.36E-03,4.60E-03
9138,5.46E-03,5.05E-03
9139,5.48E-03,4.80E-03
9140,5.53E-03,5.59E-03
9141,5.49E-03,5.34E-03
9142,5.62E-03,5.98E-03
9143,5.61E-03,5.80E-03
9144,5.64E-03,6.30E-03
9145,5.61E-03,6.14E-03
9146,5.68E-03,6.60E-03
9147,5.67E-03,6.45E-03
9148,5.69E-03,6.91E-03
9149,5.64E-03,6.75E-03
9150,5.70E-03,7.22E-03
9151,5.71E-03,7.07E-03
9152,5.65E-03,7.47E-03
9153,5.67E-03,7.36E-03
9154,5.67E-03,7.66E-03
9155,5.65E-03,7.57E-03
9156,5.66E-03,7.81E-03
9157,5.64E-03,7.74E-03
9158,5.63E-03,7.96E-03
9159,5.65E-03,7.89E-03
9160,5.61E-03,8.10E-03
9161,5.62E-03,8.03E-03
9162,5.61E-03,8.24E-03
9163,5.61E-03,8.17E-03
9164,5.61E-03,8.37E-03
9165,5.63E-03,8.31E-03
9166,5.71E-03,8.45E-03
9167,5.65E-03,8.42E-03
9168,5.85E-03,8.43E-03
9169,5.73E-03,8.46E-03
9170,6.22E-03,8.17E-03
9171,6.12E-03,8.34E-03
9172,5.60E-03,7.77E-03
9173,6.04E-03,7.99E-03
9174,5.21E-03,7.18E-03
9175,5.29E-03,7.41E-03
9176,5.40E-03,7.04E-03
9177,5.40E-03,7.07E-03
9178,5.49E-03,7.19E-03
9179,5.41E-03,7.09E-03
9180,5.51E-03,7.51E-03
9181,5.45E-03,7.34E-03
9182,5.59E-03,7.86E-03
9183,5.54E-03,7.69E-03
9184,5.64E-03,8.19E-03
9185,5.63E-03,8.03E-03
9186,5.65E-03,8.49E-03
9187,5.63E-03,8.34E-03
9188,5.68E-03,8.77E-03
9189,5.64E-03,8.63E-03
9190,5.65E-03,9.03E-03
9191,5.66E-03,8.91E-03
9192,5.62E-03,9.21E-03
9193,5.67E-03,9.13E-03
9194,5.58E-03,9.33E-03
9195,5.59E-03,9.27E-03
9196,5.61E-03,9.41E-03
9197,5.60E-03,9.37E-03
9198,5.61E-03,9.49E-03
9199,5.60E-03,9.45E-03
9200,5.64E-03,9.55E-03
9201,5.60E-03,9.52E-03
9202,5.69E-03,9.61E-03
9203,5.69E-03,9.58E-03
9204,5.59E-03,9.67E-03
9205,5.62E-03,9.64E-03
9206,5.66E-03,9.72E-03
9207,5.66E-03,9.69E-03
9208,5.57E-03,9.77E-03
9209,5.67E-03,9.74E-03
9210,5.51E-03,9.81E-03
9211,5.52E-03,9.79E-03
9212,5.75E-03,9.86E-03
9213,5.56E-03,9.84E-03
9214,4.17E-03,6.25E-03
9215,6.14E-03,1.21E-02
9216,5.91E-03,9.88E-03
9217,3.77E-03,6.19E-03
9218,8.51E-03,1.22E-02
9219,7.71E-03,1.14E-02
9220,9.49E-03,1.26E-02
9221,8.69E-03,1.24E-02
9222,8.02E-03,1.20E-02
9223,7.73E-03,1.18E-02
9224,7.76E-03,1.16E-02
9225,8.47E-03,1.10E-02
9226,7.94E-03,1.05E-02
9227,5.37E-03,1.06E-02
9228,5.51E-03,1.07E-02
9229,7.70E-03,1.09E-02
9230,7.27E-03,1.01E-02
9231,5.34E-03,1.00E-02
9232,5.39E-03,9.93E-03
9233,4.62E-03,1.32E-02
9234,5.49E-03,1.32E-02
9235,5.60E-03,1.31E-02
9236,5.57E-03,1.31E-02
9237,5.57E-03,1.31E-02
9238,5.62E-03,1.31E-02
9239,5.65E-03,1.30E-02
9240,5.68E-03,1.30E-02
9241,5.66E-03,1.30E-02
9242,5.65E-03,1.30E-02
9243,5.66E-03,1.29E-02
9244,5.70E-03,1.29E-02
9245,5.67E-03,1.29E-02
9246,5.67E-03,1.28E-02
9247,5.61E-03,1.28E-02
9248,5.63E-03,1.28E-02
9249,5.63E-03,1.28E-02
9250,5.63E-03,1.27E-02
9251,5.63E-03,1.27E-02
9252,5.63E-03,1.27E-02
9253,5.63E-03,1.27E-02
9254,5.63E-03,1.26E-02
9255,5.63E-03,1.26E-02
9256,5.63E-03,1.26E-02
9257,5.67E-03,1.26E-02
9258,5.71E-03,1.25E-02
9259,5.73E-03,1.25E-02
9260,5.72E-03,1.25E-02
9261,5.68E-03,1.25E-02
9262,5.63E-03,1.24E-02
9263,5.63E-03,1.24E-02
9264,5.63E-03,1.24E-02
9265,5.63E-03,1.24E-02
9266,5.63E-03,1.24E-02
9267,5.63E-03,1.23E-02
9268,5.63E-03,1.23E-02
9269,5.63E-03,1.23E-02
9270,5.63E-03,1.22E-02
9271,5.63E-03,1.22E-02
9272,5.63E-03,1.22E-02
9273,5.63E-03,1.22E-02
9274,5.63E-03,1.21E-02
9275,5.63E-03,1.21E-02
9276,5.63E-03,1.21E-02
9277,5.63E-03,1.20E-02
9278,5.62E-03,1.20E-02
9279,5.62E-03,1.20E-02
9280,5.61E-03,1.20E-02
9281,5.59E-03,1.19E-02
9282,5.53E-03,1.19E-02
9283,5.51E-03,1.19E-02
9284,5.53E-03,1.19E-02
9285,5.56E-03,1.18E-02
9286,5.59E-03,1.18E-02
9287,5.63E-03,1.18E-02
9288,5.63E-03,1.18E-02
9289,5.63E-03,1.18E-02
9290,5.63E-03,1.17E-02
9291,5.63E-03,1.17E-02
9292,5.63E-03,1.17E-02
9293,5.63E-03,1.17E-02
9294,5.60E-03,1.17E-02
9295,5.56E-03,1.17E-02
9296,5.59E-03,1.16E-02
9297,5.63E-03,1.16E-02
9298,5.63E-03,1.16E-02
9299,5.63E-03,1.16E-02
9300,5.63E-03,1.16E-02
9301,5.63E-03,1.16E-02
9302,5.63E-03,1.16E-02
9303,5.63E-03,1.16E-02
9304,5.61E-03,1.15E-02
9305,5.55E-03,1.15E-02
9306,5.54E-03,1.15E-02
9307,5.55E-03,1.15E-02
9308,5.60E-03,1.15E-02
9309,5.59E-03,1.15E-02
9310,5.59E-03,1.15E-02
9311,5.60E-03,1.14E-02
9312,5.60E-03,1.14E-02
9313,5.60E-03,1.14E-02
9314,5.60E-03,1.14E-02
9315,5.60E-03,1.14E-02
9316,5.60E-03,1.14E-02
9317,5.60E-03,1.14E-02
9318,5.60E-03,1.13E-02
9319,5.60E-03,1.13E-02
9320,5.59E-03,1.13E-02
9321,5.58E-03,1.13E-02
9322,5.57E-03,1.13E-02
9323,5.58E-03,1.13E-02
9324,5.55E-03,1.12E-02
9325,5.55E-03,1.12E-02
9326,5.54E-03,1.12E-02
9327,5.57E-03,1.12E-02
9328,5.59E-03,1.12E-02
9329,5.63E-03,1.12E-02
9330,5.63E-03,1.11E-02
9331,5.63E-03,1.11E-02
9332,5.63E-03,1.11E-02
9333,5.58E-03,1.11E-02
9334,5.60E-03,1.11E-02
9335,5.63E-03,1.11E-02
9336,5.63E-03,1.10E-02
9337,5.63E-03,1.10E-02
9338,5.63E-03,1.10E-02
9339,5.63E-03,1.10E-02
9340,5.63E-03,1.10E-02
9341,5.63E-03,1.10E-02
9342,5.63E-03,1.09E-02
9343,5.63E-03,1.09E-02
9344,5.63E-03,1.09E-02
9345,5.60E-03,1.09E-02
9346,5.56E-03,1.09E-02
9347,5.52E-03,1.09E-02
9348,5.50E-03,1.09E-02
9349,5.54E-03,1.09E-02
9350,5.60E-03,1.08E-02
9351,5.63E-03,1.08E-02
9352,5.63E-03,1.08E-02
9353,5.63E-03,1.08E-02
9354,5.63E-03,1.08E-02
9355,5.63E-03,1.08E-02
9356,5.63E-03,1.08E-02
9357,5.59E-03,1.08E-02
9358,5.57E-03,1.08E-02
9359,5.59E-03,1.08E-02
9360,5.60E-03,1.08E-02
9361,5.64E-03,1.07E-02
9362,5.64E-03,1.07E-02
9363,5.63E-03,1.07E-02
9364,5.60E-03,1.07E-02
9365,5.63E-03,1.07E-02
9366,5.64E-03,1.07E-02
9367,5.68E-03,1.07E-02
9368,5.68E-03,1.07E-02
9369,5.66E-03,1.07E-02
9370,5.63E-03,1.07E-02
9371,5.63E-03,1.07E-02
9372,5.63E-03,1.06E-02
9373,5.63E-03,1.06E-02
9374,5.63E-03,1.06E-02
9375,5.63E-03,1.06E-02
9376,5.63E-03,1.06E-02
9377,5.63E-03,1.06E-02
9378,5.63E-03,1.06E-02
9379,5.63E-03,1.06E-02
9380,5.63E-03,1.06E-02
9381,5.63E-03,1.06E-02
9382,5.63E-03,1.06E-02
9383,5.63E-03,1.06E-02
9384,5.63E-03,1.06E-02
9385,5.66E-03,1.05E-02
9386,5.71E-03,1.05E-02
9387,5.72E-03,1.05E-02
9388,5.70E-03,1.05E-02
9389,5.68E-03,1.05E-02
9390,5.63E-03,1.05E-02
9391,5.63E-03,1.05E-02
9392,5.63E-03,1.05E-02
9393,5.63E-03,1.05E-02
9394,5.63E-03,1.05E-02
9395,5.63E-03,1.05E-02
9396,5.63E-03,1.05E-02
9397,5.63E-03,1.05E-02
9398,5.63E-03,1.05E-02
9399,5.63E-03,1.04E-02
9400,5.63E-03,1.04E-02
9401,5.63E-03,1.04E-02
9402,5.63E-03,1.04E-02
9403,5.59E-03,1.04E-02
9404,5.54E-03,1.04E-02
9405,5.58E-03,1.04E-02
9406,5.63E-03,1.04E-02
9407,5.63E-03,1.04E-02
9408,5.63E-03,1.04E-02
9409,5.63E-03,1.04E-02
9410,5.63E-03,1.04E-02
9411,5.63E-03,1.04E-02
9412,5.63E-03,1.04E-02
9413,5.63E-03,1.04E-02
9414,5.63E-03,1.03E-02
9415,5.64E-03,1.03E-02
9416,5.64E-03,1.03E-02
9417,5.64E-03,1.03E-02
9418,5.64E-03,1.03E-02
9419,5.64E-03,1.03E-02
9420,5.64E-03,1.03E-02
9421,5.64E-03,1.03E-02
9422,5.64E-03,1.03E-02
9423,5.61E-03,1.03E-02
9424,5.58E-03,1.03E-02
9425,5.59E-03,1.03E-02
9426,5.59E-03,1.03E-02
9427,5.59E-03,1.03E-02
9428,5.64E-03,1.02E-02
9429,5.64E-03,1.02E-02
9430,5.64E-03,1.02E-02
9431,5.64E-03,1.02E-02
9432,5.64E-03,1.02E-02
9433,5.64E-03,1.02E-02
9434,5.64E-03,1.02E-02
9435,5.64E-03,1.02E-02
9436,5.64E-03,1.02E-02
9437,5.64E-03,1.02E-02
9438,5.65E-03,1.02E-02
9439,5.65E-03,1.01E-02
9440,5.65E-03,1.01E-02
9441,5.66E-03,1.01E-02
9442,5.67E-03,1.01E-02
9443,5.71E-03,1.01E-02
9444,5.70E-03,1.01E-02
9445,5.68E-03,1.01E-02
9446,5.67E-03,1.01E-02
9447,5.65E-03,1.01E-02
9448,5.64E-03,1.01E-02
9449,5.64E-03,1.01E-02
9450,5.64E-03,1.01E-02
9451,5.64E-03,1.01E-02
9452,5.64E-03,1.01E-02
9453,5.64E-03,1.01E-02
9454,5.64E-03,1.01E-02
9455,5.64E-03,1.01E-02
9456,5.64E-03,1.01E-02
9457,5.64E-03,1.01E-02
9458,5.64E-03,1.01E-02
9459,5.64E-03,1.01E-02
9460,5.64E-03,1.01E-02
9461,5.64E-03,1.01E-02
9462,5.64E-03,1.01E-02
9463,5.64E-03,1.01E-02
9464,5.63E-03,1.01E-02
9465,5.59E-03,1.01E-02
9466,5.57E-03,1.01E-02
9467,5.61E-03,1.01E-02
9468,5.65E-03,1.01E-02
9469,5.64E-03,1.01E-02
9470,5.61E-03,1.01E-02
9471,5.63E-03,1.01E-02
9472,5.65E-03,1.01E-02
9473,5.61E-03,1.01E-02
9474,5.61E-03,1.01E-02
9475,5.61E-03,1.01E-02
9476,5.60E-03,1.01E-02
9477,5.59E-03,1.01E-02
9478,5.61E-03,1.01E-02
9479,5.66E-03,1.01E-02
9480,5.66E-03,1.01E-02
9481,5.66E-03,1.01E-02
9482,5.66E-03,1.01E-02
9483,5.66E-03,1.01E-02
9484,5.66E-03,1.02E-02
9485,5.66E-03,1.02E-02
9486,5.66E-03,1.02E-02
9487,5.62E-03,1.02E-02
9488,5.59E-03,1.03E-02
9489,5.62E-03,1.03E-02
9490,5.63E-03,1.03E-02
9491,5.68E-03,1.04E-02
9492,5.73E-03,1.04E-02
9493,5.73E-03,1.04E-02
9494,5.73E-03,1.04E-02
9495,5.71E-03,1.04E-02
9496,5.69E-03,1.04E-02
9497,5.73E-03,1.04E-02
9498,5.73E-03,1.04E-02
9499,5.73E-03,1.03E-02
9500,5.72E-03,1.03E-02
9501,5.66E-03,1.03E-02
9502,5.62E-03,1.02E-02
9503,5.46E-03,1.02E-02
9504,5.33E-03,1.03E-02
9505,5.21E-03,1.03E-02
9506,5.19E-03,1.04E-02
9507,5.30E-03,1.04E-02
9508,5.51E-03,1.04E-02
9509,5.68E-03,1.04E-02
9510,5.79E-03,1.04E-02
9511,5.79E-03,1.04E-02
9512,5.81E-03,1.04E-02
9513,5.80E-03,1.03E-02
9514,5.80E-03,1.03E-02
9515,5.79E-03,1.02E-02
9516,5.81E-03,1.01E-02
9517,5.81E-03,1.01E-02
9518,5.79E-03,1.00E-02
9519,5.78E-03,9.93E-03
9520,5.77E-03,9.87E-03
9521,5.76E-03,9.80E-03
9522,5.77E-03,9.74E-03
9523,5.76E-03,9.67E-03
9524,5.79E-03,9.61E-03
9525,5.94E-03,9.55E-03
9526,6.04E-03,9.50E-03
9527,6.09E-03,9.45E-03
9528,5.99E-03,9.40E-03
9529,5.84E-03,9.37E-03
9530,5.67E-03,9.35E-03
9531,5.81E-03,9.30E-03
9532,6.11E-03,9.26E-03
9533,6.43E-03,9.27E-03
9534,6.38E-03,9.25E-03
9535,6.20E-03,9.23E-03
9536,6.01E-03,9.22E-03
9537,5.85E-03,9.20E-03
9538,5.72E-03,9.19E-03
9539,5.55E-03,9.18E-03
9540,5.17E-03,9.17E-03
9541,4.80E-03,9.18E-03
9542,5.94E-03,9.06E-03
9543,6.64E-03,9.10E-03
9544,6.12E-03,9.10E-03
9545,5.82E-03,9.10E-03
9546,5.68E-03,9.13E-03
9547,4.11E-03,9.06E-03
9548,3.94E-03,9.14E-03
9549,5.21E-03,9.14E-03
9550,4.46E-03,9.17E-03
9551,5.51E-03,9.11E-03
9552,5.99E-03,9.16E-03
9553,5.30E-03,9.19E-03
9554,4.85E-03,9.21E-03
9555,4.32E-03,9.24E-03
9556,5.30E-03,9.20E-03
9557,4.66E-03,9.25E-03
9558,4.21E-03,9.27E-03
9559,3.99E-03,9.28E-03
9560,5.91E-03,9.20E-03
9561,4.50E-03,9.22E-03
9562,3.46E-03,9.14E-03
9563,4.11E-03,9.05E-03
9564,4.52E-03,9.01E-03
9565,5.13E-03,8.98E-03
9566,6.10E-03,8.94E-03
9567,5.28E-03,8.96E-03
9568,4.19E-03,8.82E-03
9569,4.75E-03,8.76E-03
9570,5.13E-03,8.70E-03
9571,5.35E-03,8.64E-03
9572,5.25E-03,8.60E-03
9573,5.26E-03,8.49E-03
9574,5.36E-03,8.37E-03
9575,5.50E-03,8.29E-03
9576,5.55E-03,8.18E-03
9577,5.66E-03,8.06E-03
9578,5.75E-03,7.99E-03
9579,5.78E-03,7.95E-03
9580,5.76E-03,7.91E-03
9581,5.65E-03,7.90E-03
9582,5.62E-03,7.90E-03
9583,5.68E-03,7.91E-03
9584,5.74E-03,7.94E-03
9585,5.89E-03,7.98E-03
9586,5.99E-03,8.03E-03
9587,6.07E-03,8.07E-03
9588,6.07E-03,8.11E-03
9589,5.98E-03,8.15E-03
9590,5.80E-03,8.16E-03
9591,5.62E-03,8.17E-03
9592,5.60E-03,8.14E-03
9593,5.68E-03,8.10E-03
9594,5.79E-03,8.06E-03
9595,5.79E-03,8.00E-03
9596,5.72E-03,7.90E-03
9597,5.54E-03,7.74E-03
9598,5.45E-03,7.55E-03
9599,5.48E-03,7.39E-03
9600,5.58E-03,7.30E-03
9601,5.69E-03,7.31E-03
9602,5.75E-03,7.38E-03
9603,5.80E-03,7.49E-03
9604,5.84E-03,7.63E-03
9605,5.86E-03,7.79E-03
9606,5.87E-03,7.97E-03
9607,5.88E-03,8.20E-03
9608,5.88E-03,8.44E-03
9609,5.92E-03,8.72E-03
9610,5.87E-03,9.03E-03
9611,5.86E-03,9.38E-03
9612,5.84E-03,9.77E-03
9613,5.81E-03,1.02E-02
9614,5.77E-03,1.06E-02
9615,5.71E-03,1.10E-02
9616,5.69E-03,1.14E-02
9617,5.59E-03,1.18E-02
9618,5.52E-03,1.22E-02
9619,5.43E-03,1.25E-02
9620,5.36E-03,1.28E-02
9621,5.27E-03,1.28E-02
9622,5.25E-03,1.21E-02
9623,5.27E-03,1.07E-02
9624,5.24E-03,9.33E-03
9625,5.56E-03,7.58E-03
9626,6.13E-03,6.32E-03
9627,5.87E-03,6.05E-03
9628,5.52E-03,6.23E-03
9629,5.48E-03,6.50E-03
9630,5.50E-03,6.83E-03
9631,5.55E-03,7.11E-03
9632,5.58E-03,7.33E-03
9633,5.64E-03,7.50E-03
9634,5.63E-03,7.64E-03
9635,5.60E-03,7.74E-03
9636,5.57E-03,7.78E-03
9637,5.55E-03,7.76E-03
9638,5.54E-03,7.64E-03
9639,5.54E-03,7.42E-03
9640,5.57E-03,7.23E-03
9641,5.55E-03,7.13E-03
9642,5.57E-03,7.08E-03
9643,5.59E-03,7.07E-03
9644,5.61E-03,7.10E-03
9645,5.62E-03,7.17E-03
9646,5.63E-03,7.23E-03
9647,5.63E-03,7.28E-03
9648,5.58E-03,7.30E-03
9649,5.55E-03,7.28E-03
9650,5.53E-03,7.23E-03
9651,5.52E-03,7.11E-03
9652,5.53E-03,6.90E-03
9653,5.55E-03,6.63E-03
9654,5.55E-03,6.45E-03
9655,5.57E-03,6.42E-03
9656,5.58E-03,6.43E-03
9657,5.58E-03,6.46E-03
9658,5.58E-03,6.50E-03
9659,5.59E-03,6.55E-03
9660,5.61E-03,6.63E-03
9661,5.61E-03,6.73E-03
9662,5.61E-03,6.82E-03
9663,5.61E-03,6.91E-03
9664,5.61E-03,6.98E-03
9665,5.62E-03,7.04E-03
9666,5.63E-03,7.10E-03
9667,5.63E-03,7.16E-03
9668,5.59E-03,7.21E-03
9669,5.58E-03,7.26E-03
9670,5.56E-03,7.29E-03
9671,5.60E-03,7.32E-03
9672,5.63E-03,7.33E-03
9673,5.61E-03,7.31E-03
9674,5.59E-03,7.25E-03
9675,5.57E-03,7.12E-03
9676,5.57E-03,6.97E-03
9677,5.58E-03,6.86E-03
9678,5.58E-03,6.78E-03
9679,5.59E-03,6.73E-03
9680,5.60E-03,6.70E-03
9681,5.61E-03,6.71E-03
9682,5.62E-03,6.73E-03
9683,5.62E-03,6.76E-03
9684,5.62E-03,6.77E-03
9685,5.63E-03,6.77E-03
9686,5.63E-03,6.76E-03
9687,5.62E-03,6.74E-03
9688,5.62E-03,6.71E-03
9689,5.60E-03,6.64E-03
9690,5.58E-03,6.54E-03
9691,5.56E-03,6.39E-03
9692,5.56E-03,6.21E-03
9693,5.57E-03,6.08E-03
9694,5.58E-03,6.00E-03
9695,5.59E-03,5.95E-03
9696,5.59E-03,5.92E-03
9697,5.59E-03,5.91E-03
9698,5.60E-03,5.90E-03
9699,5.60E-03,5.89E-03
9700,5.64E-03,5.89E-03
9701,5.63E-03,5.90E-03
9702,5.63E-03,5.90E-03
9703,5.63E-03,5.90E-03
9704,5.60E-03,5.91E-03
9705,5.60E-03,5.91E-03
9706,5.60E-03,5.92E-03
9707,5.60E-03,5.93E-03
9708,5.60E-03,5.93E-03
9709,5.60E-03,5.94E-03
9710,5.60E-03,5.95E-03
9711,5.60E-03,5.96E-03
9712,5.60E-03,5.96E-03
9713,5.61E-03,5.97E-03
9714,5.61E-03,5.98E-03
9715,5.61E-03,5.98E-03
9716,5.61E-03,5.99E-03
9717,5.61E-03,5.99E-03
9718,5.61E-03,6.00E-03
9719,5.61E-03,6.00E-03
9720,5.61E-03,6.01E-03
9721,5.61E-03,6.01E-03
9722,5.61E-03,6.02E-03
9723,5.61E-03,6.02E-03
9724,5.61E-03,6.03E-03
9725,5.65E-03,6.04E-03
9726,5.64E-03,6.05E-03
9727,3.84E-03,6.13E-03
9728,2.36E-03,6.09E-03
9729,3.27E-03,6.07E-03
9730,5.08E-03,6.09E-03
9731,5.33E-03,6.12E-03
9732,5.52E-03,6.13E-03
9733,5.58E-03,6.14E-03
9734,5.61E-03,6.15E-03
9735,5.61E-03,6.16E-03
9736,5.61E-03,6.17E-03
9737,5.61E-03,6.18E-03
9738,5.62E-03,6.19E-03
9739,5.62E-03,6.19E-03
9740,5.63E-03,6.19E-03
9741,5.64E-03,6.20E-03
9742,5.68E-03,6.20E-03
9743,5.70E-03,6.20E-03
9744,5.72E-03,6.20E-03
9745,5.76E-03,6.19E-03
9746,5.79E-03,6.19E-03
9747,5.79E-03,6.18E-03
9748,5.78E-03,6.17E-03
9749,5.75E-03,6.16E-03
9750,5.75E-03,6.14E-03
9751,5.73E-03,6.12E-03
9752,5.68E-03,6.10E-03
9753,5.63E-03,6.07E-03
9754,5.56E-03,6.06E-03
9755,5.52E-03,6.04E-03
9756,5.51E-03,6.03E-03
9757,5.49E-03,6.02E-03
9758,5.56E-03,6.01E-03
9759,5.63E-03,6.00E-03
9760,5.67E-03,5.99E-03
9761,5.66E-03,5.98E-03
9762,5.61E-03,5.98E-03
9763,5.61E-03,5.97E-03
9764,5.61E-03,5.96E-03
9765,5.61E-03,5.97E-03
9766,5.61E-03,5.97E-03
9767,5.61E-03,5.98E-03
9768,5.61E-03,5.99E-03
9769,5.61E-03,5.99E-03
9770,5.61E-03,5.99E-03
9771,5.59E-03,5.99E-03
9772,5.66E-03,5.99E-03
9773,5.68E-03,5.98E-03
9774,5.66E-03,5.98E-03
9775,5.65E-03,5.98E-03
9776,5.63E-03,5.97E-03
9777,5.58E-03,5.96E-03
9778,5.62E-03,5.95E-03
9779,5.62E-03,5.94E-03
9780,5.62E-03,5.92E-03
9781,5.62E-03,5.90E-03
9782,5.62E-03,5.88E-03
9783,5.63E-03,5.86E-03
9784,5.63E-03,5.83E-03
9785,5.63E-03,5.80E-03
9786,5.64E-03,5.77E-03
9787,5.64E-03,5.73E-03
9788,5.65E-03,5.68E-03
9789,5.65E-03,5.61E-03
9790,5.60E-03,5.53E-03
9791,5.55E-03,5.42E-03
9792,5.44E-03,5.26E-03
9793,5.35E-03,5.03E-03
9794,5.40E-03,4.64E-03
9795,5.63E-03,4.13E-03
9796,6.01E-03,3.87E-03
9797,5.83E-03,4.23E-03
9798,5.03E-03,5.45E-03
9799,4.97E-03,5.26E-03
9800,5.85E-03,4.24E-03
9801,5.77E-03,4.19E-03
9802,5.73E-03,4.46E-03
9803,5.64E-03,4.84E-03
9804,5.58E-03,5.24E-03
9805,5.55E-03,5.52E-03
9806,5.59E-03,5.68E-03
9807,5.57E-03,5.72E-03
9808,5.56E-03,5.66E-03
9809,5.49E-03,5.51E-03
9810,5.48E-03,5.28E-03
9811,5.47E-03,4.97E-03
9812,5.46E-03,4.62E-03
9813,5.45E-03,4.32E-03
9814,5.48E-03,4.07E-03
9815,5.57E-03,3.89E-03
9816,5.71E-03,3.83E-03
9817,5.72E-03,4.08E-03
9818,5.53E-03,4.63E-03
9819,5.49E-03,5.12E-03
9820,5.55E-03,5.44E-03
9821,5.61E-03,5.66E-03
9822,5.60E-03,5.84E-03
9823,5.60E-03,5.99E-03
9824,5.62E-03,6.14E-03
9825,5.63E-03,6.28E-03
9826,5.63E-03,6.44E-03
9827,5.65E-03,6.61E-03
9828,5.66E-03,6.79E-03
9829,5.66E-03,7.00E-03
9830,5.65E-03,7.20E-03
9831,5.64E-03,7.35E-03
9832,5.63E-03,7.46E-03
9833,5.63E-03,7.54E-03
9834,5.63E-03,7.62E-03
9835,5.63E-03,7.69E-03
9836,5.63E-03,7.75E-03
9837,5.63E-03,7.82E-03
9838,5.63E-03,7.89E-03
9839,5.64E-03,7.97E-03
9840,5.64E-03,8.05E-03
9841,5.65E-03,8.13E-03
9842,5.65E-03,8.22E-03
9843,5.66E-03,8.31E-03
9844,5.67E-03,8.39E-03
9845,5.66E-03,8.47E-03
9846,5.62E-03,8.54E-03
9847,5.66E-03,8.59E-03
9848,5.77E-03,8.60E-03
9849,5.87E-03,8.54E-03
9850,5.96E-03,8.39E-03
9851,5.81E-03,8.08E-03
9852,5.68E-03,7.52E-03
9853,5.57E-03,6.93E-03
9854,5.51E-03,6.57E-03
9855,5.54E-03,6.42E-03
9856,5.52E-03,6.42E-03
9857,5.55E-03,6.50E-03
9858,5.58E-03,6.68E-03
9859,5.54E-03,6.94E-03
9860,5.58E-03,7.19E-03
9861,5.58E-03,7.44E-03
9862,5.63E-03,7.66E-03
9863,5.63E-03,7.86E-03
9864,5.63E-03,8.04E-03
9865,5.63E-03,8.21E-03
9866,5.63E-03,8.37E-03
9867,5.64E-03,8.54E-03
9868,5.65E-03,8.70E-03
9869,5.65E-03,8.88E-03
9870,5.64E-03,9.04E-03
9871,5.63E-03,9.14E-03
9872,5.63E-03,9.21E-03
9873,5.62E-03,9.25E-03
9874,5.62E-03,9.29E-03
9875,5.62E-03,9.33E-03
9876,5.62E-03,9.36E-03
9877,5.63E-03,9.39E-03
9878,5.61E-03,9.42E-03
9879,5.62E-03,9.45E-03
9880,5.62E-03,9.48E-03
9881,5.62E-03,9.50E-03
9882,5.63E-03,9.53E-03
9883,5.64E-03,9.55E-03
9884,5.67E-03,9.58E-03
9885,5.69E-03,9.60E-03
9886,5.69E-03,9.63E-03
9887,5.68E-03,9.65E-03
9888,5.64E-03,9.67E-03
9889,5.63E-03,9.70E-03
9890,5.63E-03,9.72E-03
9891,5.66E-03,9.74E-03
9892,5.78E-03,9.76E-03
9893,6.06E-03,9.77E-03
9894,7.42E-03,9.80E-03
9895,4.70E-03,1.32E-02
9896,4.33E-03,9.36E-03
9897,3.27E-03,9.42E-03
9898,1.64E-03,9.51E-03
9899,1.10E-03,9.60E-03
2901,5.50E-04,9.65E-03
2902,3.11E-03,8.77E-03
2903,2.76E-03,8.89E-03
2904,1.35E-03,9.41E-03
2905,1.35E-03,9.46E-03
2906,2.94E-03,8.81E-03
2907,2.39E-03,1.04E-02
2908,2.48E-03,1.03E-02
2909,2.91E-03,8.78E-03
2910,2.74E-03,8.50E-03
2911,2.99E-03,1.18E-02
2912,2.90E-03,8.25E-03
2913,2.37E-03,8.23E-03
2914,2.81E-03,8.28E-03
2915,2.72E-03,8.41E-03
2916,2.41E-03,1.10E-02
2917,2.58E-03,8.31E-03
2918,3.00E-03,9.02E-03
2919,1.32E-03,9.65E-03
2920,2.93E-03,9.62E-03
2921,2.89E-03,9.66E-03
2922,2.31E-03,1.05E-02
2923,3.07E-03,1.02E-02
2924,2.11E-03,8.58E-03
2925,2.49E-03,8.50E-03
2926,2.18E-03,9.08E-03
2927,2.61E-03,8.36E-03
2928,2.38E-03,8.67E-03
2929,2.59E-03,8.97E-03
2930,2.65E-03,1.04E-02
2931,2.63E-03,8.29E-03
2932,2.71E-03,8.39E-03
2933,2.86E-03,8.32E-03
2934,2.57E-03,9.82E-03
2935,2.28E-03,9.06E-03
9902,7.76E-03,0.10044
9903,7.93E-03,0.16721
9904,6.78E-03,0.16392
9905,6.61E-03,0.1177
9906,6.15E-03,4.83E-02
9907,6.38E-03,5.35E-02
9908,6.29E-03,7.33E-02
9909,5.85E-03,2.91E-02
9910,5.62E-03,2.81E-02
9911,5.66E-03,4.65E-02
9912,5.56E-03,5.50E-02
9913,7.48E-03,7.94E-02
9914,5.98E-03,5.11E-02
9915,4.59E-03,5.48E-02
9916,4.96E-03,5.55E-02
9917,5.36E-03,5.72E-02
9918,7.34E-03,0.10285
9919,3.23E-03,4.94E-02
9920,2.44E-03,4.48E-02
9921,3.09E-03,4.89E-02
9922,5.69E-03,8.93E-02
9923,5.97E-03,8.49E-02
9924,5.56E-03,6.33E-02
9925,5.60E-03,7.28E-02
9926,4.42E-03,9.24E-02
9927,5.96E-03,3.95E-02
9928,5.89E-03,5.32E-02
9929,5.59E-03,0.11987
9930,6.12E-03,0.12024
9931,4.80E-03,0.11242
9932,4.78E-03,9.61E-02
9933,5.27E-03,7.77E-02
9934,6.28E-03,9.92E-02
9935,5.78E-03,7.97E-02
9936,5.33E-03,0.10073
9937,5.78E-03,5.12E-02
9938,5.22E-03,3.66E-02
9939,4.34E-03,4.56E-02
9940,4.85E-03,4.94E-02
9941,5.61E-03,5.09E-02
9942,6.91E-03,8.40E-02
9943,6.90E-03,8.52E-02
9944,6.20E-03,8.13E-02
9945,5.82E-03,7.81E-02
9946,5.94E-03,8.97E-02
9947,5.54E-03,7.50E-02
9948,5.25E-03,7.11E-02
9949,5.66E-03,7.97E-02
9950,5.51E-03,8.46E-02
9951,6.92E-03,0.10066
9952,6.23E-03,9.48E-02
9953,4.62E-03,0.11853
9954,5.46E-03,0.10746
9955,6.47E-03,0.13338
9956,6.20E-03,0.12442
9957,6.24E-03,0.15722
9958,5.89E-03,0.14706
9959,3.68E-03,6.88E-02
9960,3.89E-03,7.59E-02
9961,4.88E-03,3.44E-02
9962,3.61E-03,4.07E-02
9963,4.68E-03,5.17E-02
9964,5.72E-03,5.10E-02
9965,7.70E-03,0.18803
9966,6.09E-03,4.87E-02
9967,6.21E-03,0.10552
9968,5.77E-03,5.67E-02
9969,5.65E-03,1.55E-02
9970,5.37E-03,2.46E-02
9971,5.79E-03,3.00E-02
9972,5.78E-03,1.80E-02
9973,5.63E-03,5.01E-02
9974,5.69E-03,4.14E-02
9975,5.81E-03,6.23E-02
9976,5.54E-03,5.72E-02
9977,6.16E-03,6.68E-02
9978,5.99E-03,6.45E-02
9979,5.76E-03,6.62E-02
9980,6.09E-03,6.74E-02
9981,5.12E-03,6.33E-02
9982,5.48E-03,6.47E-02
9983,3.83E-03,6.99E-02
9984,4.24E-03,6.20E-02
9985,5.24E-03,6.34E-02
9986,5.50E-03,7.00E-02
9987,5.02E-03,6.12E-02
9988,4.64E-03,6.88E-02
9989,5.80E-03,4.11E-02
9990,6.56E-03,0.26822
9991,5.94E-03,6.18E-02
9992,7.13E-03,6.18E-02
9993,6.14E-03,5.93E-02
9994,5.45E-03,5.22E-02
9995,5.17E-03,5.14E-02
9996,5.99E-03,5.33E-02
9997,6.14E-03,5.38E-02
9998,5.84E-03,5.42E-02
9999,5.32E-03,5.42E-02
10000,5.23E-03,5.46E-02
10001,5.20E-03,5.48E-02
10002,5.28E-03,5.52E-02
10003,5.41E-03,5.47E-02
10004,5.66E-03,5.41E-02
10005,5.88E-03,5.30E-02
10006,5.95E-03,5.14E-02
10007,5.92E-03,4.83E-02
10008,5.78E-03,4.41E-02
10009,5.65E-03,3.85E-02
10010,5.56E-03,3.12E-02
10011,5.66E-03,2.44E-02
10012,5.76E-03,1.99E-02
10013,5.76E-03,1.81E-02
10014,5.66E-03,3.10E-02
10015,5.35E-03,4.29E-02
10016,4.75E-03,4.24E-02
10017,3.97E-03,4.38E-02
10018,2.74E-03,3.95E-02
10019,3.03E-03,4.61E-02
10020,4.51E-03,5.15E-02
10021,4.67E-03,4.80E-02
10022,4.49E-03,3.62E-02
10023,4.87E-03,2.15E-02
10024,5.95E-03,3.12E-02
10025,5.55E-03,5.68E-02
10026,5.66E-03,9.76E-02
10027,5.83E-03,0.15281
10028,6.04E-03,0.32655
10029,5.51E-03,0.734
10030,6.37E-03,0.45819
10031,6.79E-03,0.30713
10032,7.10E-03,0.25143
10033,6.64E-03,0.21257
10034,6.16E-03,0.19242
10035,6.00E-03,0.17458
10036,5.90E-03,0.15929
10037,5.69E-03,0.14715
10038,5.60E-03,0.13271
10039,5.83E-03,0.11999
10040,6.20E-03,0.11491
10041,6.26E-03,0.10741
10042,5.94E-03,0.10056
10043,5.70E-03,9.42E-02
10044,5.40E-03,8.88E-02
10045,5.70E-03,8.34E-02
10046,5.73E-03,7.89E-02
10047,4.29E-03,7.53E-02
10048,5.74E-03,7.14E-02
10049,8.00E-03,6.74E-02
10050,6.18E-03,6.45E-02
10051,5.41E-03,6.21E-02
10052,4.94E-03,5.99E-02
10053,3.87E-03,5.79E-02
10054,4.61E-03,5.57E-02
10055,5.65E-03,5.08E-02
10056,5.85E-03,5.40E-02
10057,4.41E-03,4.98E-02
10058,5.16E-03,5.19E-02
10059,5.80E-03,4.92E-02
10060,7.64E-03,4.88E-02
10061,6.25E-03,4.79E-02
10062,4.86E-03,4.70E-02
10063,3.47E-03,4.61E-02
10064,2.08E-03,4.53E-02
10093,6.06E-03,0.12049
10094,4.49E-03,5.48E-02
10095,6.60E-03,5.58E-02
10096,5.13E-03,5.60E-02
10097,3.40E-03,5.51E-02
10098,3.14E-03,5.42E-02
10099,5.36E-03,5.11E-02
10100,5.40E-03,5.19E-02
10101,5.33E-03,5.19E-02
10102,5.31E-03,5.11E-02
10103,5.41E-03,5.05E-02
10104,5.24E-03,5.04E-02
10105,4.59E-03,8.93E-02
10106,5.50E-03,8.61E-02
10107,4.14E-03,8.69E-02
10108,6.17E-03,8.98E-02
10109,6.95E-03,9.24E-02
10110,6.89E-03,8.85E-02
10111,2.81E-03,3.29E-02
10112,3.95E-03,3.23E-02
10113,5.81E-03,3.26E-02
10114,3.38E-03,3.72E-02
10115,4.08E-03,3.66E-02
10116,6.39E-03,3.63E-02
10117,5.00E-03,6.13E-02
10118,7.01E-03,6.19E-02
10119,6.73E-03,6.12E-02
10120,6.60E-03,6.24E-02
10121,4.86E-03,4.54E-02
10122,5.89E-03,4.44E-02
10123,6.06E-03,4.45E-02
10124,5.29E-03,4.57E-02
10125,2.24E-03,6.32E-02
10126,3.05E-03,6.39E-02
10127,5.90E-03,5.15E-02
10128,5.79E-03,5.15E-02
10129,6.05E-03,5.29E-02
10130,5.85E-03,5.28E-02
10131,4.98E-03,4.97E-02
10132,5.23E-03,5.03E-02
10133,4.03E-03,6.30E-02
10134,5.01E-03,6.22E-02
10135,5.01E-03,3.87E-02
10136,4.35E-03,3.79E-02
10137,4.55E-03,3.81E-02
10138,5.13E-03,3.89E-02
10139,5.88E-03,3.97E-02
10140,5.13E-03,5.25E-02
10141,5.15E-03,5.35E-02
10142,5.17E-03,5.24E-02
10143,5.53E-03,4.73E-02
10144,6.03E-03,4.74E-02
10145,6.73E-03,4.79E-02
10146,5.92E-03,4.77E-02
10147,5.75E-03,5.60E-02
10148,5.34E-03,5.58E-02
10149,4.69E-03,5.55E-02
10150,6.27E-03,6.51E-02
10151,5.23E-03,6.58E-02
10152,5.68E-03,5.14E-02
10153,5.22E-03,5.47E-02
10154,5.27E-03,5.46E-02
10155,3.77E-03,8.80E-02
10156,7.02E-03,9.55E-02
10157,5.68E-03,0.10024
10158,5.48E-03,9.68E-02
10159,6.30E-03,3.44E-02
10160,6.23E-03,3.52E-02
10161,5.17E-03,3.55E-02
10162,7.01E-03,0.16269
10163,6.49E-03,0.17717
10164,6.57E-03,0.16929
10165,3.38E-03,5.70E-02
10166,6.67E-03,5.74E-02
10167,2.67E-03,6.49E-02
10168,2.99E-03,6.45E-02
10169,2.63E-03,6.33E-02
10170,3.29E-03,6.65E-02
10171,3.46E-03,6.60E-02
10172,3.16E-03,5.94E-02
10173,3.81E-03,6.03E-02
10174,2.29E-03,6.02E-02
10175,1.98E-03,5.94E-02
10176,1.56E-03,5.85E-02
10177,2.99E-03,4.21E-02
10178,4.25E-03,4.28E-02
10179,2.96E-03,4.30E-02
10180,1.98E-03,4.24E-02
10181,1.55E-03,4.18E-02
10182,2.89E-03,3.46E-02
10183,4.94E-03,3.51E-02
10184,3.27E-03,3.58E-02
10185,2.57E-03,3.50E-02
10186,2.44E-03,3.42E-02
10187,5.39E-03,4.68E-02
10188,5.62E-03,4.81E-02
10189,5.16E-03,4.81E-02
10190,5.32E-03,4.69E-02
10191,3.90E-03,4.94E-02
10192,4.58E-03,4.99E-02
10193,4.60E-03,4.94E-02
10194,2.53E-03,6.44E-02
10195,2.41E-03,6.31E-02
10196,2.55E-03,6.47E-02
10197,4.02E-03,4.91E-02
10198,4.55E-03,4.79E-02
10199,4.40E-03,4.84E-02
10200,2.86E-03,7.45E-02
10201,3.44E-03,7.60E-02
10202,3.79E-03,7.40E-02
10203,2.77E-03,3.73E-02
10204,3.33E-03,3.79E-02
10205,2.90E-03,3.79E-02
10206,4.07E-03,0.11253
10207,4.01E-03,0.10894
10208,4.39E-03,0.1151
10209,3.48E-03,0.13437
10210,4.46E-03,0.13349
10211,3.68E-03,0.14104
10212,2.39E-03,6.20E-02
10213,1.72E-03,6.22E-02
10214,4.70E-03,4.74E-02
10215,4.52E-03,4.62E-02
10216,4.88E-03,4.62E-02
10217,5.14E-03,4.74E-02
10218,3.27E-03,2.68E-02
10219,2.77E-03,2.65E-02
10220,2.72E-03,2.59E-02
10221,3.67E-03,2.62E-02
10222,4.68E-03,2.79E-02
10223,5.13E-03,2.72E-02
10224,7.88E-03,5.74E-02
10225,7.03E-03,5.87E-02
10226,5.25E-03,4.13E-02
10227,5.23E-03,4.05E-02
10228,6.17E-03,5.62E-02
10229,2.88E-03,2.73E-02
10230,2.93E-03,2.80E-02
10231,7.42E-03,5.80E-02
10232,5.17E-03,5.77E-02
10233,7.60E-03,5.70E-02
10234,5.63E-03,3.91E-02
10235,7.00E-03,4.00E-02
10236,4.04E-03,5.10E-02
10237,4.31E-03,5.20E-02
10238,3.55E-03,5.28E-02
10239,3.44E-03,5.18E-02
10240,3.20E-03,5.41E-02
10241,3.67E-03,5.34E-02
10242,4.81E-03,5.34E-02
10243,4.76E-03,6.16E-02
10244,6.36E-03,6.35E-02
10245,3.88E-03,5.62E-02
10246,4.64E-03,5.58E-02
10247,5.48E-03,5.01E-02
10248,5.44E-03,4.93E-02
10249,5.55E-03,5.10E-02
10250,5.60E-03,5.27E-02
10251,5.61E-03,5.28E-02
10252,5.40E-03,7.87E-02
10253,5.45E-03,7.64E-02
10254,5.72E-03,5.46E-02
10255,3.86E-03,5.48E-02
10256,5.51E-03,5.37E-02
10257,4.80E-03,5.38E-02
10258,5.33E-03,5.39E-02
10259,4.34E-03,5.52E-02
10260,4.25E-03,5.55E-02
10261,5.09E-03,7.40E-02
10262,5.39E-03,7.60E-02
10263,6.03E-03,5.67E-02
10264,5.95E-03,5.68E-02
10265,4.82E-03,5.42E-02
10266,4.66E-03,5.39E-02
10267,4.50E-03,3.00E-02
10268,4.39E-03,3.00E-02
10269,3.87E-03,2.91E-02
10270,4.89E-03,2.87E-02
10271,5.27E-03,3.91E-02
10272,5.58E-03,3.91E-02
10273,3.21E-03,2.99E-02
10274,3.66E-03,2.95E-02
10275,4.03E-03,3.04E-02
10276,3.52E-03,3.06E-02
10277,2.88E-03,3.00E-02
10278,2.53E-03,2.93E-02
10279,2.79E-03,6.41E-02
10280,2.54E-03,6.33E-02
10281,4.21E-03,3.43E-02
10282,4.42E-03,3.37E-02
10283,3.25E-03,3.34E-02
10284,4.13E-03,4.61E-02
10285,3.54E-03,4.70E-02
10286,3.34E-03,4.69E-02
10287,4.93E-03,6.18E-02
10288,5.20E-03,4.70E-02
10289,4.61E-03,4.66E-02
10290,4.71E-03,4.65E-02
10291,4.91E-03,4.62E-02
10292,5.45E-03,4.73E-02
10293,5.19E-03,4.61E-02
10294,4.88E-03,4.59E-02
10295,4.03E-03,4.57E-02
10296,4.50E-03,4.60E-02
10297,5.36E-03,4.56E-02
10298,4.66E-03,4.70E-02
10299,4.70E-03,4.67E-02
10300,6.26E-03,4.59E-02
10301,4.96E-03,4.48E-02
10302,5.44E-03,4.45E-02
10303,4.63E-03,4.85E-02
10304,5.99E-03,4.79E-02
10305,4.92E-03,4.90E-02
10306,4.91E-03,4.82E-02
10307,5.28E-03,4.76E-02
10308,4.00E-03,4.91E-02
10309,4.77E-03,4.90E-02
10310,5.07E-03,4.48E-02
10311,5.19E-03,4.48E-02
10312,4.67E-03,4.54E-02
10313,4.82E-03,4.48E-02
10314,4.85E-03,4.56E-02
10315,5.39E-03,4.70E-02
10316,4.81E-03,4.59E-02
10317,4.77E-03,4.60E-02
10318,4.72E-03,4.73E-02
10319,4.39E-03,4.83E-02
10320,4.38E-03,4.79E-02
10321,5.93E-03,4.77E-02
10322,6.27E-03,4.65E-02
10323,6.09E-03,4.63E-02
10324,5.89E-03,4.65E-02
10325,5.74E-03,4.65E-02
10326,5.71E-03,4.66E-02
10327,5.70E-03,4.65E-02
10328,5.71E-03,4.65E-02
10329,5.75E-03,4.65E-02
10330,5.77E-03,4.65E-02
10331,5.83E-03,4.64E-02
10332,5.82E-03,4.64E-02
10333,5.75E-03,4.64E-02
10334,5.78E-03,4.64E-02
10335,5.43E-03,4.75E-02
10336,5.43E-03,4.76E-02
10337,5.47E-03,4.76E-02
10338,5.44E-03,4.66E-02
10339,4.70E-03,4.63E-02
10340,5.42E-03,4.65E-02
10341,5.38E-03,4.68E-02
10342,5.43E-03,4.67E-02
10343,5.37E-03,4.77E-02
10344,5.26E-03,4.69E-02
10345,5.33E-03,4.68E-02
10346,5.13E-03,4.81E-02
10347,5.23E-03,4.72E-02
10348,5.23E-03,4.73E-02
10349,4.94E-03,5.54E-02
10350,5.17E-03,5.49E-02
10351,5.26E-03,5.44E-02
10352,6.04E-03,5.40E-02
10353,5.83E-03,5.29E-02
10354,6.18E-03,5.36E-02
10355,4.83E-03,4.98E-02
10356,5.15E-03,5.03E-02
10357,5.32E-03,5.07E-02
10358,5.38E-03,5.13E-02
10359,5.43E-03,5.18E-02
10360,5.59E-03,5.24E-02
10361,5.38E-03,5.19E-02
10362,5.26E-03,5.09E-02
10363,5.36E-03,5.14E-02
10364,5.12E-03,5.04E-02
10365,6.63E-03,4.91E-02
10366,6.09E-03,4.88E-02
10367,6.33E-03,4.82E-02
10368,6.16E-03,4.85E-02
10369,5.24E-03,4.78E-02
10370,5.21E-03,4.79E-02
10371,5.26E-03,4.77E-02
10372,5.44E-03,4.75E-02
10373,5.88E-03,4.74E-02
10374,5.88E-03,4.73E-02
10375,5.81E-03,4.75E-02
10376,5.87E-03,4.74E-02
10377,5.75E-03,4.76E-02
10378,5.79E-03,4.75E-02
10379,5.73E-03,4.77E-02
10380,5.74E-03,4.76E-02
10381,5.69E-03,4.77E-02
10382,5.69E-03,4.77E-02
10383,5.67E-03,4.77E-02
10384,5.53E-03,4.81E-02
10385,4.75E-03,4.82E-02
10386,4.40E-03,4.79E-02
10387,4.45E-03,4.81E-02
10388,5.71E-03,4.74E-02
10389,5.16E-03,4.75E-02
10390,5.16E-03,4.71E-02
10391,5.74E-03,4.57E-02
10392,5.63E-03,4.45E-02
10393,5.75E-03,4.54E-02
10394,5.81E-03,4.54E-02
10395,5.75E-03,4.54E-02
10396,4.79E-03,5.53E-02
10397,4.43E-03,5.59E-02
10398,4.28E-03,5.46E-02
10399,5.41E-03,5.24E-02
10400,6.56E-03,4.91E-02
10401,5.14E-03,4.88E-02
10402,5.71E-03,4.83E-02
10403,6.24E-03,4.83E-02
10404,4.48E-03,4.90E-02
10405,5.11E-03,4.90E-02
10406,6.52E-03,4.72E-02
10407,6.39E-03,4.77E-02
10408,5.88E-03,4.69E-02
10409,5.45E-03,4.42E-02
10410,5.44E-03,4.54E-02
10411,5.19E-03,4.97E-02
10412,5.26E-03,4.97E-02
10413,5.37E-03,4.85E-02
10414,5.45E-03,4.85E-02
10415,5.29E-03,4.92E-02
10416,5.50E-03,4.31E-02
10417,4.89E-03,4.30E-02
10418,5.31E-03,4.35E-02
10419,5.42E-03,4.33E-02
10420,5.22E-03,4.37E-02
10421,5.36E-03,4.36E-02
10422,5.35E-03,4.42E-02
10423,5.16E-03,4.39E-02
10424,5.27E-03,4.46E-02
10425,5.42E-03,4.45E-02
10426,5.35E-03,4.49E-02
10427,5.16E-03,4.49E-02
10428,5.84E-03,4.52E-02
10429,5.63E-03,4.50E-02
10430,5.82E-03,4.54E-02
10431,5.90E-03,4.53E-02
10432,5.73E-03,4.54E-02
10433,5.78E-03,4.54E-02
10434,5.75E-03,4.54E-02
10435,5.69E-03,4.54E-02
10436,5.73E-03,4.54E-02
10437,5.28E-03,4.54E-02
10438,5.45E-03,4.53E-02
10439,5.06E-03,4.55E-02
10440,5.08E-03,4.55E-02
10441,5.35E-03,4.57E-02
10442,5.20E-03,4.56E-02
10443,5.40E-03,4.59E-02
10444,5.40E-03,4.58E-02
10445,5.33E-03,4.61E-02
10446,5.37E-03,4.60E-02
10447,5.25E-03,4.64E-02
10448,5.24E-03,4.62E-02
10449,5.52E-03,4.69E-02
10450,5.30E-03,4.66E-02
10451,5.90E-03,4.74E-02
10452,5.75E-03,4.71E-02
10453,5.88E-03,4.80E-02
10454,5.96E-03,4.77E-02
10455,5.12E-03,4.86E-02
10456,5.65E-03,4.83E-02
10457,4.89E-03,4.92E-02
10458,4.90E-03,4.89E-02
10459,5.27E-03,5.01E-02
10460,5.11E-03,4.96E-02
10461,5.49E-03,5.11E-02
10462,5.36E-03,5.06E-02
10463,5.75E-03,5.23E-02
10464,5.64E-03,5.17E-02
10465,5.71E-03,5.33E-02
10466,5.79E-03,5.28E-02
10467,5.23E-03,5.43E-02
10468,5.48E-03,5.38E-02
10469,5.10E-03,5.48E-02
10470,6.27E-03,5.68E-02
10471,5.09E-03,5.74E-02
10472,4.49E-03,5.65E-02
10473,5.02E-03,5.55E-02
10474,4.88E-03,5.50E-02
10475,4.36E-03,5.46E-02
10476,5.62E-03,5.35E-02
10477,6.13E-03,5.41E-02
10478,5.41E-03,5.29E-02
10479,5.42E-03,5.24E-02
10480,5.38E-03,5.14E-02
10481,5.45E-03,5.19E-02
10482,6.51E-03,5.04E-02
10483,5.48E-03,5.09E-02
10484,6.31E-03,4.96E-02
10485,6.97E-03,4.99E-02
10486,6.16E-03,4.93E-02
10487,5.29E-03,4.86E-02
10488,5.21E-03,4.87E-02
10489,5.33E-03,4.85E-02
10490,5.50E-03,4.84E-02
10491,5.57E-03,4.84E-02
10492,5.93E-03,4.84E-02
10493,6.32E-03,4.82E-02
10494,5.94E-03,4.83E-02
10495,5.86E-03,4.85E-02
10496,5.90E-03,4.84E-02
10497,5.72E-03,4.86E-02
10498,5.82E-03,4.86E-02
10499,5.69E-03,4.88E-02
10500,5.66E-03,4.87E-02
10501,5.57E-03,4.89E-02
10502,5.57E-03,4.88E-02
10503,5.45E-03,4.89E-02
10504,5.28E-03,4.93E-02
10505,5.13E-03,4.93E-02
10506,4.97E-03,4.92E-02
10507,5.17E-03,4.93E-02
10508,4.94E-03,4.90E-02
10509,4.90E-03,4.92E-02
10510,5.40E-03,4.86E-02
10511,5.21E-03,4.87E-02
10512,5.55E-03,4.82E-02
10513,3.46E-03,4.27E-02
10514,5.60E-03,4.66E-02
10515,5.71E-03,4.43E-02
10516,5.76E-03,4.43E-02
10517,5.72E-03,4.43E-02
10518,4.94E-03,5.59E-02
10519,3.90E-03,5.52E-02
10520,5.33E-03,5.29E-02
10521,5.75E-03,4.99E-02
10522,5.35E-03,4.93E-02
10523,5.00E-03,5.02E-02
10524,5.11E-03,5.02E-02
10525,5.04E-03,5.03E-02
10526,6.31E-03,4.86E-02
10527,6.13E-03,4.90E-02
10528,6.18E-03,4.82E-02
10529,6.93E-03,5.93E-02
10530,6.67E-03,5.97E-02
10531,6.09E-03,5.92E-02
10532,5.52E-03,4.93E-02
10533,4.67E-03,4.18E-02
10534,5.43E-03,4.09E-02
10535,5.16E-03,4.96E-02
10536,3.23E-03,4.19E-02
10537,5.32E-03,4.50E-02
10538,5.14E-03,4.37E-02
10539,5.14E-03,4.64E-02
10540,5.64E-03,4.18E-02
10541,5.91E-03,4.15E-02
10542,5.43E-03,4.23E-02
10543,5.52E-03,4.21E-02
10544,5.34E-03,4.26E-02
10545,5.36E-03,4.25E-02
10546,5.51E-03,4.30E-02
10547,5.35E-03,4.29E-02
10548,5.70E-03,4.32E-02
10549,5.66E-03,4.31E-02
10550,5.39E-03,4.36E-02
10551,5.55E-03,4.34E-02
10552,5.46E-03,4.38E-02
10553,5.40E-03,4.37E-02
10554,5.69E-03,4.40E-02
10555,5.58E-03,4.39E-02
10556,5.78E-03,4.42E-02
10557,5.76E-03,4.41E-02
10558,5.80E-03,4.43E-02
10559,5.78E-03,4.43E-02
10560,5.76E-03,4.43E-02
10561,5.56E-03,4.44E-02
10562,5.65E-03,4.43E-02
10563,5.35E-03,4.45E-02
10564,5.50E-03,4.44E-02
10565,5.26E-03,4.46E-02
10566,5.31E-03,4.45E-02
10567,5.35E-03,4.48E-02
10568,5.30E-03,4.47E-02
10569,5.41E-03,4.50E-02
10570,5.37E-03,4.49E-02
10571,5.37E-03,4.53E-02
10572,5.40E-03,4.51E-02
10573,5.37E-03,4.56E-02
10574,5.34E-03,4.54E-02
10575,5.59E-03,4.60E-02
10576,5.40E-03,4.58E-02
10577,5.74E-03,4.66E-02
10578,5.67E-03,4.63E-02
10579,5.68E-03,4.72E-02
10580,5.79E-03,4.69E-02
10581,5.31E-03,4.78E-02
10582,5.49E-03,4.75E-02
10583,5.17E-03,4.85E-02
10584,5.23E-03,4.81E-02
10585,5.30E-03,4.93E-02
10586,5.19E-03,4.89E-02
10587,5.50E-03,5.04E-02
10588,5.41E-03,4.98E-02
10589,5.71E-03,5.15E-02
10590,5.63E-03,5.09E-02
10591,5.70E-03,5.25E-02
10592,5.78E-03,5.20E-02
10593,5.43E-03,5.36E-02
10594,5.54E-03,5.31E-02
10595,5.47E-03,5.47E-02
10596,5.39E-03,5.41E-02
10597,6.90E-03,5.61E-02
10598,6.33E-03,5.54E-02
10599,5.84E-03,5.70E-02
10600,5.43E-03,5.86E-02
10601,5.17E-03,5.76E-02
10602,5.60E-03,5.79E-02
10603,4.65E-03,5.66E-02
10604,4.91E-03,5.72E-02
10605,4.68E-03,5.63E-02
10606,5.01E-03,5.59E-02
10607,4.99E-03,5.56E-02
10608,5.26E-03,5.48E-02
10609,5.17E-03,5.39E-02
10610,4.99E-03,5.44E-02
10611,5.32E-03,5.34E-02
10612,5.48E-03,5.28E-02
10613,5.67E-03,5.18E-02
10614,5.58E-03,5.23E-02
10615,6.16E-03,5.09E-02
10616,5.91E-03,5.14E-02
10617,6.26E-03,5.03E-02
10618,6.31E-03,5.06E-02
10619,6.05E-03,5.00E-02
10620,5.31E-03,4.94E-02
10621,5.26E-03,4.95E-02
10622,5.37E-03,4.93E-02
10623,5.78E-03,4.92E-02
10624,5.62E-03,4.93E-02
10625,5.92E-03,4.93E-02
10626,5.88E-03,4.93E-02
10627,5.99E-03,4.94E-02
10628,6.00E-03,4.93E-02
10629,5.85E-03,4.95E-02
10630,5.89E-03,4.95E-02
10631,5.65E-03,4.97E-02
10632,5.78E-03,4.96E-02
10633,5.60E-03,4.99E-02
10634,5.61E-03,4.98E-02
10635,5.42E-03,5.00E-02
10636,5.47E-03,5.00E-02
10637,5.23E-03,5.01E-02
10638,5.22E-03,5.04E-02
10639,5.17E-03,5.04E-02
10640,5.16E-03,5.04E-02
10641,5.20E-03,5.04E-02
10642,5.17E-03,5.01E-02
10643,5.15E-03,5.03E-02
10644,5.50E-03,4.97E-02
10645,5.36E-03,4.99E-02
10646,5.78E-03,4.93E-02
10647,5.70E-03,4.33E-02
10648,5.74E-03,4.32E-02
10649,5.69E-03,4.33E-02
10650,4.47E-03,6.32E-02
10651,6.73E-03,6.05E-02
10652,6.00E-03,5.99E-02
10653,5.51E-03,5.92E-02
10654,5.01E-03,5.64E-02
10655,5.30E-03,5.33E-02
10656,5.71E-03,5.06E-02
10657,5.41E-03,5.01E-02
10658,5.50E-03,5.01E-02
10659,5.11E-03,5.13E-02
10660,5.15E-03,5.14E-02
10661,6.17E-03,4.99E-02
10662,6.08E-03,5.02E-02
10663,6.45E-03,4.96E-02
10664,6.44E-03,6.07E-02
10665,3.90E-03,4.27E-02
10666,4.96E-03,4.15E-02
10667,7.10E-03,4.93E-02
10668,5.37E-03,4.99E-02
10669,5.27E-03,5.03E-02
10670,5.12E-03,5.13E-02
10671,5.30E-03,4.48E-02
10672,4.98E-03,4.37E-02
10673,5.07E-03,4.60E-02
10674,5.64E-03,4.08E-02
10675,6.39E-03,4.05E-02
10676,5.50E-03,4.12E-02
10677,5.60E-03,4.10E-02
10678,5.40E-03,4.15E-02
10679,5.43E-03,4.14E-02
10680,5.54E-03,4.18E-02
10681,5.43E-03,4.17E-02
10682,5.64E-03,4.21E-02
10683,5.58E-03,4.20E-02
10684,5.52E-03,4.24E-02
10685,5.61E-03,4.23E-02
10686,5.51E-03,4.27E-02
10687,5.50E-03,4.25E-02
10688,5.69E-03,4.29E-02
10689,5.58E-03,4.28E-02
10690,5.75E-03,4.30E-02
10691,5.74E-03,4.29E-02
10692,5.73E-03,4.32E-02
10693,5.75E-03,4.31E-02
10694,5.71E-03,4.32E-02
10695,5.58E-03,4.34E-02
10696,5.69E-03,4.33E-02
10697,5.43E-03,4.35E-02
10698,5.51E-03,4.34E-02
10699,5.38E-03,4.37E-02
10700,5.37E-03,4.36E-02
10701,5.36E-03,4.39E-02
10702,5.36E-03,4.38E-02
10703,5.41E-03,4.41E-02
10704,5.40E-03,4.40E-02
10705,5.43E-03,4.44E-02
10706,5.41E-03,4.43E-02
10707,5.38E-03,4.48E-02
10708,5.37E-03,4.46E-02
10709,5.59E-03,4.52E-02
10710,5.44E-03,4.50E-02
10711,5.71E-03,4.57E-02
10712,5.63E-03,4.54E-02
10713,5.59E-03,4.63E-02
10714,5.70E-03,4.60E-02
10715,5.36E-03,4.70E-02
10716,5.48E-03,4.66E-02
10717,5.27E-03,4.77E-02
10718,5.29E-03,4.73E-02
10719,5.36E-03,4.86E-02
10720,5.30E-03,4.81E-02
10721,5.55E-03,4.96E-02
10722,5.45E-03,4.90E-02
10723,5.68E-03,5.06E-02
10724,5.67E-03,5.01E-02
10725,5.67E-03,5.17E-02
10726,5.72E-03,5.12E-02
10727,5.59E-03,5.28E-02
10728,5.62E-03,5.23E-02
10729,5.85E-03,5.40E-02
10730,5.63E-03,5.34E-02
10731,6.49E-03,5.53E-02
10732,6.16E-03,5.47E-02
10733,7.56E-03,5.63E-02
10734,6.61E-03,6.01E-02
10735,5.95E-03,6.21E-02
10736,6.15E-03,6.11E-02
10737,3.99E-03,6.55E-02
10738,4.51E-03,6.43E-02
10739,3.65E-03,6.55E-02
10740,6.32E-03,6.22E-02
10741,5.91E-03,6.33E-02
10742,6.56E-03,6.12E-02
10743,5.15E-03,5.81E-02
10744,5.26E-03,5.85E-02
10745,4.91E-03,5.72E-02
10746,5.00E-03,5.76E-02
10747,4.91E-03,5.68E-02
10748,5.19E-03,5.63E-02
10749,4.26E-03,5.51E-02
10750,5.18E-03,5.42E-02
10751,4.87E-03,5.46E-02
10752,5.21E-03,5.38E-02
10753,5.57E-03,5.32E-02
10754,5.64E-03,5.23E-02
10755,5.63E-03,5.27E-02
10756,5.93E-03,5.15E-02
10757,5.74E-03,5.18E-02
10758,6.07E-03,5.09E-02
10759,6.07E-03,5.12E-02
10760,5.85E-03,5.07E-02
10761,5.32E-03,5.02E-02
10762,5.31E-03,5.02E-02
10763,5.36E-03,5.02E-02
10764,5.66E-03,5.02E-02
10765,5.58E-03,5.02E-02
10766,5.84E-03,5.03E-02
10767,5.75E-03,5.02E-02
10768,5.95E-03,5.04E-02
10769,5.87E-03,5.03E-02
10770,5.80E-03,5.06E-02
10771,5.86E-03,5.05E-02
10772,5.64E-03,5.08E-02
10773,5.69E-03,5.07E-02
10774,5.53E-03,5.10E-02
10775,5.61E-03,5.09E-02
10776,5.33E-03,5.11E-02
10777,5.42E-03,5.11E-02
10778,5.17E-03,5.12E-02
10779,5.19E-03,5.16E-02
10780,5.19E-03,5.15E-02
10781,5.27E-03,5.16E-02
10782,5.22E-03,5.16E-02
10783,5.32E-03,5.14E-02
10784,5.26E-03,5.15E-02
10785,5.60E-03,5.08E-02
10786,5.47E-03,5.11E-02
10787,5.80E-03,5.05E-02
10788,7.06E-03,4.93E-02
10789,5.78E-03,4.69E-02
10790,5.16E-03,4.25E-02
10791,5.61E-03,4.22E-02
10792,5.63E-03,4.21E-02
10793,5.60E-03,4.22E-02
10794,6.24E-03,5.58E-02
10795,5.10E-03,7.30E-02
10796,2.95E-03,7.36E-02
10797,6.43E-03,6.88E-02
10798,5.14E-03,7.01E-02
10799,5.34E-03,6.69E-02
10800,4.90E-03,6.68E-02
10801,6.76E-03,6.13E-02
10802,5.57E-03,6.03E-02
10803,5.12E-03,5.67E-02
10804,3.34E-03,5.54E-02
10805,3.31E-03,5.52E-02
10806,5.28E-03,5.36E-02
10807,5.53E-03,5.10E-02
10808,5.56E-03,5.10E-02
10809,5.12E-03,5.26E-02
10810,6.18E-03,5.12E-02
10811,6.07E-03,5.15E-02
10812,6.51E-03,5.09E-02
10813,4.51E-03,4.90E-02
10814,5.12E-03,5.01E-02
10815,5.33E-03,5.11E-02
10816,5.27E-03,4.78E-02
10817,5.06E-03,6.98E-02
10818,3.10E-03,7.35E-02
10819,6.45E-03,7.18E-02
10820,5.41E-03,6.06E-02
10821,4.15E-03,7.53E-02
10822,4.66E-03,6.16E-02
10823,4.38E-03,6.25E-02
10824,5.26E-03,4.46E-02
10825,5.14E-03,4.36E-02
10826,5.54E-03,4.58E-02
10827,5.73E-03,3.97E-02
10828,5.63E-03,3.95E-02
10829,5.57E-03,4.01E-02
10830,5.64E-03,3.99E-02
10831,5.46E-03,4.04E-02
10832,5.48E-03,4.02E-02
10833,5.60E-03,4.07E-02
10834,5.52E-03,4.05E-02
10835,5.61E-03,4.10E-02
10836,5.62E-03,4.08E-02
10837,5.59E-03,4.13E-02
10838,5.60E-03,4.11E-02
10839,5.57E-03,4.15E-02
10840,5.56E-03,4.14E-02
10841,5.62E-03,4.17E-02
10842,5.56E-03,4.16E-02
10843,5.71E-03,4.19E-02
10844,5.63E-03,4.18E-02
10845,5.65E-03,4.20E-02
10846,5.70E-03,4.20E-02
10847,5.64E-03,4.21E-02
10848,5.59E-03,4.24E-02
10849,5.62E-03,4.23E-02
10850,5.53E-03,4.25E-02
10851,5.55E-03,4.24E-02
10852,5.42E-03,4.27E-02
10853,5.46E-03,4.26E-02
10854,5.42E-03,4.30E-02
10855,5.43E-03,4.28E-02
10856,5.47E-03,4.32E-02
10857,5.45E-03,4.31E-02
10858,5.43E-03,4.35E-02
10859,5.45E-03,4.34E-02
10860,5.44E-03,4.39E-02
10861,5.44E-03,4.37E-02
10862,5.59E-03,4.43E-02
10863,5.46E-03,4.41E-02
10864,5.66E-03,4.48E-02
10865,5.62E-03,4.45E-02
10866,5.56E-03,4.55E-02
10867,5.65E-03,4.51E-02
10868,5.41E-03,4.61E-02
10869,5.49E-03,4.58E-02
10870,5.34E-03,4.69E-02
10871,5.37E-03,4.65E-02
10872,5.46E-03,4.77E-02
10873,5.39E-03,4.73E-02
10874,5.60E-03,4.87E-02
10875,5.56E-03,4.82E-02
10876,5.70E-03,4.97E-02
10877,5.67E-03,4.92E-02
10878,5.71E-03,5.08E-02
10879,5.72E-03,5.03E-02
10880,5.72E-03,5.19E-02
10881,5.70E-03,5.14E-02
10882,5.97E-03,5.31E-02
10883,5.80E-03,5.25E-02
10884,6.35E-03,5.45E-02
10885,6.11E-03,5.37E-02
10886,6.43E-03,5.52E-02
10887,6.59E-03,5.90E-02
10888,7.56E-03,5.80E-02
10889,5.97E-03,5.99E-02
10890,4.34E-03,6.43E-02
10891,3.27E-03,7.18E-02
10892,5.15E-03,6.50E-02
10893,5.08E-03,6.63E-02
10894,6.24E-03,6.31E-02
10895,5.51E-03,6.42E-02
10896,6.56E-03,6.22E-02
10897,5.12E-03,5.85E-02
10898,5.34E-03,5.96E-02
10899,5.16E-03,5.90E-02
10900,5.09E-03,5.75E-02
10901,5.06E-03,5.80E-02
10902,5.08E-03,5.71E-02
10903,5.34E-03,5.64E-02
10904,5.36E-03,5.56E-02
10905,4.92E-03,5.45E-02
10906,4.35E-03,5.48E-02
10907,5.20E-03,5.41E-02
10908,5.67E-03,5.35E-02
10909,5.62E-03,5.26E-02
10910,5.67E-03,5.30E-02
10911,5.92E-03,5.19E-02
10912,5.79E-03,5.23E-02
10913,5.92E-03,5.15E-02
10914,5.91E-03,5.17E-02
10915,5.70E-03,5.12E-02
10916,5.74E-03,5.13E-02
10917,5.37E-03,5.10E-02
10918,5.35E-03,5.10E-02
10919,5.46E-03,5.10E-02
10920,5.65E-03,5.11E-02
10921,5.63E-03,5.11E-02
10922,5.70E-03,5.12E-02
10923,5.69E-03,5.12E-02
10924,5.80E-03,5.14E-02
10925,5.78E-03,5.13E-02
10926,5.74E-03,5.16E-02
10927,5.77E-03,5.15E-02
10928,5.65E-03,5.18E-02
10929,5.66E-03,5.17E-02
10930,5.52E-03,5.20E-02
10931,5.56E-03,5.19E-02
10932,5.34E-03,5.22E-02
10933,5.41E-03,5.21E-02
10934,5.19E-03,5.23E-02
10935,5.24E-03,5.27E-02
10936,5.16E-03,5.26E-02
10937,5.30E-03,5.28E-02
10938,5.24E-03,5.28E-02
10939,5.43E-03,5.26E-02
10940,5.35E-03,5.27E-02
10941,5.65E-03,5.21E-02
10942,5.52E-03,5.24E-02
10943,5.82E-03,5.18E-02
10944,6.78E-03,5.06E-02
10945,7.12E-03,5.07E-02
10946,5.62E-03,5.12E-02
10947,5.96E-03,5.10E-02
10948,5.57E-03,5.14E-02
10949,4.98E-03,4.89E-02
10950,5.32E-03,5.02E-02
10951,5.15E-03,5.69E-02
10952,5.42E-03,5.12E-02
10953,5.27E-03,4.66E-02
10954,5.59E-03,4.11E-02
10955,5.60E-03,4.11E-02
10956,5.57E-03,4.12E-02
10957,5.09E-03,6.03E-02
10958,5.40E-03,5.94E-02
10959,4.90E-03,6.16E-02
10960,6.37E-03,6.63E-02
10961,5.23E-03,6.79E-02
10962,3.80E-03,7.29E-02
10963,5.24E-03,6.85E-02
10964,4.47E-03,5.52E-02
10965,5.23E-03,5.39E-02
10966,5.62E-03,5.19E-02
10967,5.55E-03,5.18E-02
10968,5.60E-03,5.19E-02
10969,5.19E-03,5.37E-02
10970,6.16E-03,5.25E-02
10971,6.05E-03,5.28E-02
10972,6.41E-03,5.23E-02
10973,4.76E-03,3.77E-02
10974,5.13E-03,4.76E-02
10975,4.70E-03,7.70E-02
10976,5.68E-03,7.48E-02
10977,4.87E-03,7.74E-02
10978,5.45E-03,7.11E-02
10979,5.84E-03,5.24E-02
10980,5.77E-03,5.26E-02
10981,6.10E-03,7.37E-02
10982,5.07E-03,5.65E-02
10983,5.46E-03,5.68E-02
10984,5.63E-03,5.19E-02
10985,4.64E-03,3.94E-02
10986,3.73E-03,3.89E-02
10987,5.47E-03,5.19E-02
10988,5.33E-03,4.46E-02
10989,5.72E-03,4.23E-02
10990,5.31E-03,4.35E-02
10991,5.39E-03,4.56E-02
10992,5.85E-03,3.82E-02
10993,5.64E-03,3.86E-02
10994,5.66E-03,3.84E-02
10995,5.62E-03,3.89E-02
10996,5.65E-03,3.88E-02
10997,5.55E-03,3.92E-02
10998,5.56E-03,3.91E-02
10999,5.58E-03,3.95E-02
11000,5.53E-03,3.94E-02
11001,5.66E-03,3.98E-02
11002,5.65E-03,3.96E-02
11003,5.60E-03,4.01E-02
11004,5.64E-03,4.00E-02
11005,5.61E-03,4.04E-02
11006,5.55E-03,4.03E-02
11007,5.58E-03,4.06E-02
11008,5.54E-03,4.05E-02
11009,5.67E-03,4.08E-02
11010,5.59E-03,4.07E-02
11011,5.66E-03,4.09E-02
11012,5.67E-03,4.09E-02
11013,5.60E-03,4.10E-02
11014,5.52E-03,4.13E-02
11015,5.54E-03,4.12E-02
11016,5.56E-03,4.15E-02
11017,5.54E-03,4.14E-02
11018,5.51E-03,4.18E-02
11019,5.55E-03,4.16E-02
11020,5.53E-03,4.20E-02
11021,5.50E-03,4.19E-02
11022,5.54E-03,4.23E-02
11023,5.61E-03,4.22E-02
11024,5.52E-03,4.26E-02
11025,5.51E-03,4.25E-02
11026,5.50E-03,4.30E-02
11027,5.53E-03,4.28E-02
11028,5.60E-03,4.34E-02
11029,5.49E-03,4.32E-02
11030,5.64E-03,4.39E-02
11031,5.63E-03,4.36E-02
11032,5.58E-03,4.46E-02
11033,5.64E-03,4.42E-02
11034,5.46E-03,4.53E-02
11035,5.52E-03,4.49E-02
11036,5.45E-03,4.60E-02
11037,5.41E-03,4.56E-02
11038,5.56E-03,4.68E-02
11039,5.50E-03,4.64E-02
11040,5.64E-03,4.78E-02
11041,5.58E-03,4.73E-02
11042,5.76E-03,4.88E-02
11043,5.72E-03,4.83E-02
11044,5.73E-03,4.99E-02
11045,5.77E-03,4.93E-02
11046,5.78E-03,5.10E-02
11047,5.74E-03,5.04E-02
11048,6.02E-03,5.21E-02
11049,5.86E-03,5.15E-02
11050,6.15E-03,5.33E-02
11051,6.09E-03,5.27E-02
11052,5.61E-03,5.44E-02
11053,6.01E-03,5.39E-02
11054,5.50E-03,5.59E-02
11055,4.46E-03,5.49E-02
11056,6.43E-03,5.78E-02
11057,7.06E-03,5.68E-02
11058,5.80E-03,5.86E-02
11059,5.17E-03,6.32E-02
11060,4.40E-03,7.03E-02
11061,4.56E-03,7.47E-02
11062,5.50E-03,6.59E-02
11063,5.73E-03,6.72E-02
11064,6.03E-03,6.38E-02
11065,5.75E-03,6.48E-02
11066,6.33E-03,6.28E-02
11067,4.89E-03,5.99E-02
11068,5.05E-03,6.05E-02
11069,5.09E-03,5.88E-02
11070,5.04E-03,5.93E-02
11071,5.27E-03,5.77E-02
11072,5.13E-03,5.82E-02
11073,5.29E-03,5.73E-02
11074,5.20E-03,5.56E-02
11075,5.20E-03,5.60E-02
11076,5.02E-03,5.46E-02
11077,4.69E-03,5.49E-02
11078,5.20E-03,5.43E-02
11079,5.83E-03,5.36E-02
11080,5.66E-03,5.29E-02
11081,5.47E-03,5.33E-02
11082,5.82E-03,5.23E-02
11083,5.79E-03,5.26E-02
11084,5.87E-03,5.20E-02
11085,5.85E-03,5.21E-02
11086,5.73E-03,5.19E-02
11087,5.42E-03,5.18E-02
11088,5.47E-03,5.18E-02
11089,5.39E-03,5.18E-02
11090,5.50E-03,5.18E-02
11091,5.57E-03,5.21E-02
11092,5.59E-03,5.20E-02
11093,5.66E-03,5.22E-02
11094,5.66E-03,5.22E-02
11095,5.73E-03,5.24E-02
11096,5.66E-03,5.23E-02
11097,5.75E-03,5.26E-02
11098,5.77E-03,5.25E-02
11099,5.60E-03,5.28E-02
11100,5.65E-03,5.27E-02
11101,5.48E-03,5.31E-02
11102,5.54E-03,5.30E-02
11103,5.35E-03,5.33E-02
11104,5.36E-03,5.32E-02
11105,5.16E-03,5.34E-02
11106,5.24E-03,5.34E-02
11107,5.31E-03,5.39E-02
11108,5.24E-03,5.38E-02
11109,5.34E-03,5.40E-02
11110,5.32E-03,5.40E-02
11111,5.46E-03,5.38E-02
11112,5.45E-03,5.39E-02
11113,5.71E-03,5.34E-02
11114,5.55E-03,5.36E-02
11115,5.82E-03,5.31E-02
11116,6.33E-03,5.22E-02
11117,6.46E-03,5.22E-02
11118,6.06E-03,5.22E-02
11119,3.94E-03,3.83E-02
11120,3.51E-03,3.78E-02
11121,5.27E-03,4.88E-02
11122,5.50E-03,5.02E-02
11123,4.24E-03,5.37E-02
11124,4.82E-03,5.38E-02
11125,4.32E-03,5.37E-02
11126,5.74E-03,4.01E-02
11127,5.29E-03,4.65E-02
11128,5.53E-03,4.00E-02
11129,5.53E-03,4.00E-02
11130,5.55E-03,4.01E-02
11131,5.30E-03,5.91E-02
11132,5.47E-03,5.81E-02
11133,5.21E-03,6.04E-02
11134,6.39E-03,6.46E-02
11135,5.41E-03,6.66E-02
11136,5.98E-03,7.80E-02
11137,5.11E-03,7.91E-02
11138,5.25E-03,6.97E-02
11139,5.22E-03,5.52E-02
11140,5.54E-03,5.40E-02
11141,5.62E-03,5.28E-02
11142,6.06E-03,5.39E-02
11143,5.99E-03,5.42E-02
11144,6.19E-03,5.37E-02
11145,4.97E-03,3.69E-02
11146,4.97E-03,3.66E-02
11147,3.98E-03,3.89E-02
11148,5.17E-03,4.76E-02
11149,5.94E-03,7.20E-02
11150,5.58E-03,7.49E-02
11151,4.62E-03,5.63E-02
11152,3.25E-03,5.66E-02
11153,5.27E-03,5.45E-02
11154,5.39E-03,4.44E-02
11155,5.42E-03,4.22E-02
11156,5.46E-03,4.33E-02
11157,5.43E-03,4.12E-02
11158,5.33E-03,4.54E-02
11159,5.35E-03,3.71E-02
11160,5.18E-03,3.71E-02
11161,5.64E-03,3.74E-02
11162,5.57E-03,3.72E-02
11163,5.67E-03,3.78E-02
11164,5.67E-03,3.76E-02
11165,5.53E-03,3.81E-02
11166,5.59E-03,3.79E-02
11167,5.58E-03,3.84E-02
11168,5.58E-03,3.82E-02
11169,5.64E-03,3.87E-02
11170,5.59E-03,3.85E-02
11171,5.59E-03,3.90E-02
11172,5.64E-03,3.88E-02
11173,5.57E-03,3.93E-02
11174,5.61E-03,3.91E-02
11175,5.57E-03,3.95E-02
11176,5.54E-03,3.94E-02
11177,5.63E-03,3.97E-02
11178,5.58E-03,3.96E-02
11179,5.63E-03,3.98E-02
11180,5.63E-03,3.98E-02
11181,5.62E-03,3.99E-02
11182,5.54E-03,4.03E-02
11183,5.55E-03,4.02E-02
11184,5.55E-03,4.05E-02
11185,5.58E-03,4.04E-02
11186,5.55E-03,4.08E-02
11187,5.62E-03,4.06E-02
11188,5.57E-03,4.11E-02
11189,5.53E-03,4.09E-02
11190,5.57E-03,4.14E-02
11191,5.63E-03,4.12E-02
11192,5.54E-03,4.17E-02
11193,5.55E-03,4.15E-02
11194,5.50E-03,4.21E-02
11195,5.53E-03,4.19E-02
11196,5.60E-03,4.25E-02
11197,5.51E-03,4.23E-02
11198,5.61E-03,4.30E-02
11199,5.61E-03,4.27E-02
11200,5.59E-03,4.36E-02
11201,5.62E-03,4.33E-02
11202,5.53E-03,4.43E-02
11203,5.55E-03,4.40E-02
11204,5.52E-03,4.51E-02
11205,5.51E-03,4.47E-02
11206,5.60E-03,4.59E-02
11207,5.50E-03,4.55E-02
11208,5.65E-03,4.68E-02
11209,5.63E-03,4.63E-02
11210,5.71E-03,4.78E-02
11211,5.69E-03,4.73E-02
11212,5.78E-03,4.88E-02
11213,5.77E-03,4.83E-02
11214,5.79E-03,4.99E-02
11215,5.80E-03,4.94E-02
11216,5.93E-03,5.10E-02
11217,5.89E-03,5.04E-02
11218,5.92E-03,5.21E-02
11219,5.92E-03,5.15E-02
11220,5.49E-03,5.31E-02
11221,5.76E-03,5.26E-02
11222,5.64E-03,5.50E-02
11223,5.46E-03,5.38E-02
11224,6.01E-03,5.64E-02
11225,5.92E-03,5.56E-02
11226,5.73E-03,5.72E-02
11227,5.35E-03,6.20E-02
11228,4.84E-03,7.15E-02
11229,5.28E-03,6.88E-02
11230,4.78E-03,7.55E-02
11231,4.30E-03,7.36E-02
11232,6.07E-03,8.25E-02
11233,6.28E-03,8.09E-02
11234,5.75E-03,7.84E-02
11235,4.88E-03,8.40E-02
11236,6.26E-03,8.04E-02
11237,5.74E-03,6.68E-02
11238,5.47E-03,6.82E-02
11239,5.97E-03,6.44E-02
11240,5.84E-03,6.55E-02
11241,6.14E-03,6.33E-02
11242,4.12E-03,6.10E-02
11243,4.84E-03,6.00E-02
11244,5.03E-03,6.05E-02
11245,5.07E-03,5.89E-02
11246,4.98E-03,5.95E-02
11247,5.36E-03,5.77E-02
11248,5.17E-03,5.83E-02
11249,5.64E-03,5.72E-02
11250,5.35E-03,5.55E-02
11251,4.65E-03,5.59E-02
11252,5.19E-03,5.46E-02
11253,5.13E-03,5.49E-02
11254,5.39E-03,5.43E-02
11255,5.61E-03,5.31E-02
11256,5.50E-03,5.34E-02
11257,5.79E-03,5.27E-02
11258,5.74E-03,5.29E-02
11259,5.80E-03,5.25E-02
11260,5.82E-03,5.25E-02
11261,5.64E-03,5.25E-02
11262,5.68E-03,5.24E-02
11263,5.38E-03,5.26E-02
11264,5.45E-03,5.26E-02
11265,5.39E-03,5.27E-02
11266,5.40E-03,5.27E-02
11267,5.54E-03,5.27E-02
11268,5.48E-03,5.27E-02
11269,5.57E-03,5.27E-02
11270,5.58E-03,5.30E-02
11271,5.60E-03,5.29E-02
11272,5.65E-03,5.32E-02
11273,5.62E-03,5.31E-02
11274,5.68E-03,5.35E-02
11275,5.64E-03,5.33E-02
11276,5.68E-03,5.36E-02
11277,5.73E-03,5.36E-02
11278,5.56E-03,5.39E-02
11279,5.64E-03,5.37E-02
11280,5.48E-03,5.41E-02
11281,5.54E-03,5.40E-02
11282,5.37E-03,5.43E-02
11283,5.38E-03,5.42E-02
11284,5.29E-03,5.44E-02
11285,5.32E-03,5.50E-02
11286,5.26E-03,5.49E-02
11287,5.33E-03,5.52E-02
11288,5.37E-03,5.51E-02
11289,5.46E-03,5.51E-02
11290,5.41E-03,5.52E-02
11291,5.67E-03,5.47E-02
11292,5.57E-03,5.49E-02
11293,5.83E-03,5.44E-02
11294,6.19E-03,5.36E-02
11295,6.20E-03,5.36E-02
11296,5.84E-03,5.37E-02
11297,6.03E-03,5.36E-02
11298,5.87E-03,5.40E-02
11299,5.77E-03,5.39E-02
11300,5.05E-03,3.74E-02
11301,5.36E-03,3.69E-02
11302,5.37E-03,4.88E-02
11303,5.57E-03,5.01E-02
11304,5.03E-03,4.00E-02
11305,5.24E-03,4.64E-02
11306,5.53E-03,5.68E-02
11307,5.36E-03,5.78E-02
11308,6.12E-03,6.32E-02
11309,5.55E-03,6.53E-02
11310,5.41E-03,8.49E-02
11311,5.41E-03,8.09E-02
11312,5.66E-03,7.05E-02
11313,5.63E-03,5.51E-02
11314,6.15E-03,5.41E-02
11315,6.01E-03,5.53E-02
11316,5.93E-03,5.55E-02
11317,6.13E-03,5.52E-02
11318,7.02E-03,5.45E-02
11319,5.50E-03,8.79E-02
11320,5.33E-03,3.58E-02
11321,5.62E-03,3.56E-02
11322,4.92E-03,3.88E-02
11323,5.24E-03,4.76E-02
11324,5.52E-03,3.89E-02
11325,5.53E-03,3.90E-02
11326,4.72E-03,6.15E-02
11327,5.83E-03,7.31E-02
11328,3.93E-03,5.65E-02
11329,3.12E-03,5.60E-02
11330,4.64E-03,5.59E-02
11331,5.36E-03,4.43E-02
11332,5.40E-03,4.21E-02
11333,5.40E-03,4.32E-02
11334,5.47E-03,4.10E-02
11335,5.29E-03,4.53E-02
11336,5.44E-03,3.61E-02
11337,5.38E-03,3.59E-02
11338,5.63E-03,3.63E-02
11339,5.57E-03,3.62E-02
11340,5.69E-03,3.66E-02
11341,5.64E-03,3.65E-02
11342,5.54E-03,3.70E-02
11343,5.59E-03,3.68E-02
11344,5.62E-03,3.72E-02
11345,5.61E-03,3.71E-02
11346,5.61E-03,3.75E-02
11347,5.63E-03,3.74E-02
11348,5.60E-03,3.79E-02
11349,5.61E-03,3.77E-02
11350,5.61E-03,3.81E-02
11351,5.61E-03,3.80E-02
11352,5.59E-03,3.83E-02
11353,5.59E-03,3.82E-02
11354,5.62E-03,3.85E-02
11355,5.62E-03,3.84E-02
11356,5.60E-03,3.88E-02
11357,5.62E-03,3.86E-02
11358,5.58E-03,3.88E-02
11359,5.51E-03,3.91E-02
11360,5.51E-03,3.92E-02
11361,5.47E-03,3.92E-02
11362,5.55E-03,3.95E-02
11363,5.55E-03,3.94E-02
11364,5.58E-03,3.98E-02
11365,5.61E-03,3.96E-02
11366,5.60E-03,4.01E-02
11367,5.58E-03,3.99E-02
11368,5.59E-03,4.04E-02
11369,5.62E-03,4.02E-02
11370,5.61E-03,4.07E-02
11371,5.59E-03,4.06E-02
11372,5.48E-03,4.11E-02
11373,5.55E-03,4.09E-02
11374,5.56E-03,4.15E-02
11375,5.48E-03,4.13E-02
11376,5.57E-03,4.21E-02
11377,5.60E-03,4.18E-02
11378,5.56E-03,4.27E-02
11379,5.56E-03,4.24E-02
11380,5.55E-03,4.34E-02
11381,5.55E-03,4.30E-02
11382,5.52E-03,4.41E-02
11383,5.51E-03,4.37E-02
11384,5.60E-03,4.49E-02
11385,5.57E-03,4.45E-02
11386,5.69E-03,4.57E-02
11387,5.62E-03,4.53E-02
11388,5.67E-03,4.67E-02
11389,5.69E-03,4.62E-02
11390,5.74E-03,4.78E-02
11391,5.74E-03,4.72E-02
11392,5.78E-03,4.88E-02
11393,5.75E-03,4.83E-02
11394,5.92E-03,4.98E-02
11395,5.90E-03,4.93E-02
11396,5.79E-03,5.08E-02
11397,5.86E-03,5.03E-02
11398,5.61E-03,5.20E-02
11399,5.65E-03,5.13E-02
11400,5.56E-03,5.35E-02
11401,5.54E-03,5.27E-02
11402,5.70E-03,5.51E-02
11403,5.73E-03,5.43E-02
11404,5.61E-03,5.59E-02
11405,5.24E-03,5.90E-02
11406,5.15E-03,6.04E-02
11407,5.19E-03,6.96E-02
11408,5.30E-03,6.74E-02
11409,5.16E-03,7.45E-02
11410,5.16E-03,7.20E-02
11411,5.46E-03,7.96E-02
11412,5.43E-03,7.74E-02
11413,5.03E-03,8.55E-02
11414,4.92E-03,8.22E-02
11415,5.57E-03,8.31E-02
11416,5.96E-03,6.76E-02
11417,5.95E-03,6.91E-02
11418,5.93E-03,6.48E-02
11419,5.94E-03,6.60E-02
11420,5.70E-03,6.30E-02
11421,5.94E-03,6.38E-02
11422,4.98E-03,6.11E-02
11423,5.29E-03,6.22E-02
11424,5.04E-03,6.00E-02
11425,4.87E-03,6.06E-02
11426,5.10E-03,5.88E-02
11427,5.00E-03,5.94E-02
11428,5.26E-03,5.76E-02
11429,5.20E-03,5.82E-02
11430,5.40E-03,5.70E-02
11431,3.46E-03,5.52E-02
11432,4.21E-03,5.56E-02
11433,5.39E-03,5.45E-02
11434,5.39E-03,5.47E-02
11435,5.48E-03,5.43E-02
11436,5.59E-03,5.33E-02
11437,5.67E-03,5.35E-02
11438,5.78E-03,5.30E-02
11439,5.75E-03,5.31E-02
11440,5.82E-03,5.29E-02
11441,5.81E-03,5.29E-02
11442,5.60E-03,5.31E-02
11443,5.69E-03,5.30E-02
11444,5.42E-03,5.34E-02
11445,5.47E-03,5.33E-02
11446,5.43E-03,5.36E-02
11447,5.42E-03,5.35E-02
11448,5.56E-03,5.36E-02
11449,5.54E-03,5.36E-02
11450,5.61E-03,5.36E-02
11451,5.63E-03,5.36E-02
11452,5.62E-03,5.38E-02
11453,5.62E-03,5.37E-02
11454,5.62E-03,5.40E-02
11455,5.64E-03,5.39E-02
11456,5.63E-03,5.43E-02
11457,5.56E-03,5.42E-02
11458,5.64E-03,5.45E-02
11459,5.62E-03,5.44E-02
11460,5.65E-03,5.47E-02
11461,5.69E-03,5.46E-02
11462,5.60E-03,5.49E-02
11463,5.66E-03,5.48E-02
11464,5.50E-03,5.51E-02
11465,5.56E-03,5.50E-02
11466,5.41E-03,5.53E-02
11467,5.47E-03,5.52E-02
11468,5.29E-03,5.55E-02
11469,5.33E-03,5.54E-02
11470,5.31E-03,5.58E-02
11471,5.29E-03,5.56E-02
11472,5.33E-03,5.61E-02
11473,5.34E-03,5.60E-02
11474,5.39E-03,5.64E-02
11475,5.36E-03,5.63E-02
11476,5.43E-03,5.63E-02
11477,5.42E-03,5.64E-02
11478,5.63E-03,5.60E-02
11479,5.57E-03,5.62E-02
11480,5.81E-03,5.58E-02
11481,6.06E-03,5.51E-02
11482,6.10E-03,5.51E-02
11483,5.84E-03,5.52E-02
11484,5.93E-03,5.51E-02
11485,5.54E-03,5.54E-02
11486,5.73E-03,5.53E-02
11487,5.02E-03,5.59E-02
11488,6.44E-03,3.57E-02
11489,4.59E-03,3.66E-02
11490,4.74E-03,3.99E-02
11491,5.20E-03,4.64E-02
11492,5.39E-03,4.88E-02
11493,5.51E-03,5.01E-02
11494,5.52E-03,3.78E-02
11495,5.49E-03,3.79E-02
11496,4.17E-03,5.94E-02
11497,5.36E-03,6.19E-02
11498,5.40E-03,6.37E-02
11499,5.48E-03,8.64E-02
11500,5.47E-03,7.81E-02
11501,6.59E-03,7.16E-02
11502,3.78E-03,5.48E-02
11503,5.89E-03,5.70E-02
11504,4.61E-03,3.86E-02
11505,5.22E-03,4.75E-02
11506,4.96E-03,6.03E-02
11507,4.42E-03,3.75E-02
11508,5.36E-03,5.72E-02
11509,4.32E-03,5.74E-02
11510,6.30E-03,5.30E-02
11511,7.30E-03,5.48E-02
11512,5.32E-03,4.41E-02
11513,5.36E-03,4.19E-02
11514,5.34E-03,4.30E-02
11515,5.65E-03,3.45E-02
11516,6.16E-03,3.46E-02
11517,5.90E-03,3.58E-02
11518,5.17E-03,4.09E-02
11519,5.22E-03,4.52E-02
11520,5.49E-03,3.47E-02
11521,5.50E-03,3.46E-02
11522,5.49E-03,3.50E-02
11523,5.44E-03,3.48E-02
11524,5.61E-03,3.52E-02
11525,5.57E-03,3.51E-02
11526,5.67E-03,3.55E-02
11527,5.67E-03,3.54E-02
11528,5.56E-03,3.58E-02
11529,5.61E-03,3.57E-02
11530,5.57E-03,3.61E-02
11531,5.59E-03,3.59E-02
11532,5.58E-03,3.64E-02
11533,5.58E-03,3.62E-02
11534,5.55E-03,3.67E-02
11535,5.55E-03,3.66E-02
11536,5.61E-03,3.70E-02
11537,5.56E-03,3.69E-02
11538,5.56E-03,3.72E-02
11539,5.59E-03,3.71E-02
11540,5.63E-03,3.74E-02
11541,5.59E-03,3.73E-02
11542,5.53E-03,3.77E-02
11543,5.54E-03,3.75E-02
11544,5.53E-03,3.78E-02
11545,5.50E-03,3.82E-02
11546,5.47E-03,3.80E-02
11547,5.48E-03,3.81E-02
11548,5.55E-03,3.85E-02
11549,5.52E-03,3.83E-02
11550,5.58E-03,3.88E-02
11551,5.59E-03,3.86E-02
11552,5.64E-03,3.91E-02
11553,5.60E-03,3.89E-02
11554,5.60E-03,3.94E-02
11555,5.63E-03,3.92E-02
11556,5.56E-03,3.98E-02
11557,5.57E-03,3.96E-02
11558,5.50E-03,4.02E-02
11559,5.56E-03,3.99E-02
11560,5.55E-03,4.06E-02
11561,5.48E-03,4.04E-02
11562,5.58E-03,4.11E-02
11563,5.56E-03,4.08E-02
11564,5.52E-03,4.17E-02
11565,5.59E-03,4.14E-02
11566,5.57E-03,4.24E-02
11567,5.53E-03,4.21E-02
11568,5.58E-03,4.31E-02
11569,5.57E-03,4.27E-02
11570,5.57E-03,4.38E-02
11571,5.55E-03,4.35E-02
11572,5.67E-03,4.47E-02
11573,5.60E-03,4.42E-02
11574,5.71E-03,4.56E-02
11575,5.72E-03,4.51E-02
11576,5.72E-03,4.66E-02
11577,5.73E-03,4.61E-02
11578,5.77E-03,4.76E-02
11579,5.73E-03,4.71E-02
11580,5.83E-03,4.85E-02
11581,5.83E-03,4.81E-02
11582,5.73E-03,4.95E-02
11583,5.77E-03,4.90E-02
11584,5.62E-03,5.07E-02
11585,5.65E-03,5.01E-02
11586,5.55E-03,5.21E-02
11587,5.59E-03,5.14E-02
11588,5.61E-03,5.36E-02
11589,5.59E-03,5.28E-02
11590,5.49E-03,5.53E-02
11591,5.56E-03,5.44E-02
11592,5.23E-03,5.73E-02
11593,5.38E-03,5.63E-02
11594,5.03E-03,5.84E-02
11595,5.27E-03,6.79E-02
11596,5.32E-03,6.57E-02
11597,5.32E-03,7.28E-02
11598,5.29E-03,7.02E-02
11599,5.38E-03,7.80E-02
11600,5.39E-03,7.53E-02
11601,5.72E-03,8.44E-02
11602,5.45E-03,8.08E-02
11603,5.41E-03,0.10279
11604,7.02E-03,9.28E-02
11605,6.33E-03,9.06E-02
11606,5.46E-03,8.24E-02
11607,5.41E-03,8.46E-02
11608,5.47E-03,8.01E-02
11609,6.11E-03,6.80E-02
11610,6.69E-03,7.01E-02
11611,5.88E-03,6.51E-02
11612,5.98E-03,6.64E-02
11613,5.63E-03,6.32E-02
11614,5.78E-03,6.41E-02
11615,5.22E-03,6.15E-02
11616,5.33E-03,6.24E-02
11617,5.09E-03,6.00E-02
11618,5.11E-03,6.07E-02
11619,5.15E-03,5.86E-02
11620,5.09E-03,5.93E-02
11621,5.15E-03,5.73E-02
11622,5.18E-03,5.79E-02
11623,4.42E-03,5.62E-02
11624,4.88E-03,5.67E-02
11625,4.79E-03,5.51E-02
11626,5.41E-03,5.42E-02
11627,5.42E-03,5.44E-02
11628,5.49E-03,5.41E-02
11629,5.58E-03,5.34E-02
11630,5.35E-03,5.35E-02
11631,5.76E-03,5.32E-02
11632,5.72E-03,5.33E-02
11633,5.77E-03,5.33E-02
11634,5.79E-03,5.32E-02
11635,5.61E-03,5.38E-02
11636,5.66E-03,5.35E-02
11637,5.45E-03,5.42E-02
11638,5.50E-03,5.40E-02
11639,5.44E-03,5.45E-02
11640,5.45E-03,5.44E-02
11641,5.56E-03,5.45E-02
11642,5.54E-03,5.45E-02
11643,5.66E-03,5.46E-02
11644,5.64E-03,5.45E-02
11645,5.65E-03,5.48E-02
11646,5.66E-03,5.46E-02
11647,5.64E-03,5.51E-02
11648,5.66E-03,5.49E-02
11649,5.56E-03,5.53E-02
11650,5.53E-03,5.52E-02
11651,5.67E-03,5.55E-02
11652,5.60E-03,5.54E-02
11653,5.66E-03,5.57E-02
11654,5.68E-03,5.56E-02
11655,5.60E-03,5.58E-02
11656,5.64E-03,5.58E-02
11657,5.55E-03,5.60E-02
11658,5.60E-03,5.59E-02
11659,5.46E-03,5.63E-02
11660,5.56E-03,5.62E-02
11661,5.42E-03,5.65E-02
11662,5.44E-03,5.64E-02
11663,5.34E-03,5.68E-02
11664,5.35E-03,5.66E-02
11665,5.36E-03,5.72E-02
11666,5.32E-03,5.70E-02
11667,5.38E-03,5.75E-02
11668,5.38E-03,5.74E-02
11669,5.46E-03,5.76E-02
11670,5.44E-03,5.76E-02
11671,5.65E-03,5.73E-02
11672,5.58E-03,5.75E-02
11673,5.76E-03,5.72E-02
11674,5.98E-03,5.66E-02
11675,6.05E-03,5.66E-02
11676,5.77E-03,5.68E-02
11677,5.84E-03,5.67E-02
11678,5.63E-03,5.70E-02
11679,3.89E-03,3.64E-02
11680,5.29E-03,3.96E-02
11681,5.19E-03,4.63E-02
11682,5.42E-03,4.87E-02
11683,5.46E-03,5.01E-02
11684,5.10E-03,5.79E-02
11685,5.40E-03,0.10764
11686,4.99E-03,8.91E-02
11687,5.06E-03,8.77E-02
11688,4.88E-03,7.26E-02
11689,4.97E-03,5.38E-02
11690,5.33E-03,6.21E-02
11691,5.24E-03,6.03E-02
11692,5.70E-03,3.34E-02
11693,6.13E-03,3.33E-02
11694,5.67E-03,3.82E-02
11695,5.09E-03,4.75E-02
11696,4.73E-03,5.54E-02
11697,5.09E-03,9.17E-02
11698,4.53E-03,5.49E-02
11699,5.06E-03,5.68E-02
11700,6.81E-03,5.64E-02
11701,5.28E-03,5.36E-02
11702,5.08E-03,5.36E-02
11703,5.20E-03,4.40E-02
11704,5.34E-03,4.18E-02
11705,5.32E-03,4.29E-02
11706,4.68E-03,3.46E-02
11707,4.91E-03,3.56E-02
11708,5.31E-03,4.07E-02
11709,5.16E-03,4.52E-02
11710,6.39E-03,5.31E-02
11711,5.79E-03,5.15E-02
11712,5.55E-03,3.36E-02
11713,5.59E-03,3.35E-02
11714,5.56E-03,3.39E-02
11715,5.55E-03,3.37E-02
11716,5.64E-03,3.41E-02
11717,5.56E-03,3.40E-02
11718,5.66E-03,3.44E-02
11719,5.72E-03,3.43E-02
11720,5.54E-03,3.47E-02
11721,5.59E-03,3.45E-02
11722,5.58E-03,3.50E-02
11723,5.52E-03,3.48E-02
11724,5.58E-03,3.53E-02
11725,5.58E-03,3.51E-02
11726,5.50E-03,3.56E-02
11727,5.55E-03,3.54E-02
11728,5.64E-03,3.58E-02
11729,5.56E-03,3.57E-02
11730,5.56E-03,3.61E-02
11731,5.62E-03,3.60E-02
11732,5.56E-03,3.63E-02
11733,5.53E-03,3.62E-02
11734,5.55E-03,3.66E-02
11735,5.54E-03,3.64E-02
11736,5.49E-03,3.68E-02
11737,5.55E-03,3.67E-02
11738,5.48E-03,3.70E-02
11739,5.46E-03,3.69E-02
11740,5.47E-03,3.72E-02
11741,5.49E-03,3.71E-02
11742,5.56E-03,3.74E-02
11743,5.54E-03,3.73E-02
11744,5.57E-03,3.77E-02
11745,5.57E-03,3.76E-02
11746,5.66E-03,3.81E-02
11747,5.64E-03,3.79E-02
11748,5.64E-03,3.84E-02
11749,5.66E-03,3.82E-02
11750,5.57E-03,3.88E-02
11751,5.59E-03,3.86E-02
11752,5.52E-03,3.92E-02
11753,5.59E-03,3.90E-02
11754,5.52E-03,3.96E-02
11755,5.49E-03,3.94E-02
11756,5.53E-03,4.01E-02
11757,5.54E-03,3.99E-02
11758,5.53E-03,4.07E-02
11759,5.51E-03,4.04E-02
11760,5.59E-03,4.14E-02
11761,5.59E-03,4.10E-02
11762,5.56E-03,4.20E-02
11763,5.55E-03,4.17E-02
11764,5.58E-03,4.28E-02
11765,5.56E-03,4.24E-02
11766,5.66E-03,4.35E-02
11767,5.61E-03,4.31E-02
11768,5.73E-03,4.44E-02
11769,5.71E-03,4.40E-02
11770,5.71E-03,4.54E-02
11771,5.73E-03,4.49E-02
11772,5.73E-03,4.63E-02
11773,5.73E-03,4.59E-02
11774,5.78E-03,4.72E-02
11775,5.79E-03,4.68E-02
11776,5.66E-03,4.83E-02
11777,5.73E-03,4.77E-02
11778,5.58E-03,4.94E-02
11779,5.62E-03,4.88E-02
11780,5.51E-03,5.06E-02
11781,5.56E-03,5.00E-02
11782,5.56E-03,5.21E-02
11783,5.54E-03,5.13E-02
11784,5.44E-03,5.37E-02
11785,5.50E-03,5.29E-02
11786,5.34E-03,5.55E-02
11787,5.40E-03,5.45E-02
11788,5.14E-03,5.66E-02
11789,5.31E-03,6.60E-02
11790,5.32E-03,6.40E-02
11791,5.37E-03,7.07E-02
11792,5.32E-03,6.82E-02
11793,5.51E-03,7.60E-02
11794,5.48E-03,7.32E-02
11795,5.89E-03,8.26E-02
11796,5.68E-03,7.91E-02
11797,6.01E-03,8.97E-02
11798,6.02E-03,8.66E-02
11799,5.86E-03,9.88E-02
11800,5.31E-03,9.36E-02
11801,5.55E-03,0.10358
11802,5.39E-03,0.12048
11803,5.77E-03,0.12714
11804,5.18E-03,0.11201
11805,5.86E-03,0.10271
11806,5.49E-03,0.10715
11807,6.20E-03,9.66E-02
11808,6.09E-03,9.95E-02
11809,5.74E-03,9.38E-02
11810,5.43E-03,8.37E-02
11811,5.35E-03,8.57E-02
11812,5.42E-03,7.94E-02
11813,5.46E-03,8.15E-02
11814,5.26E-03,7.55E-02
11815,5.36E-03,7.73E-02
11816,4.91E-03,7.19E-02
11817,4.27E-03,7.40E-02
11818,6.10E-03,6.84E-02
11819,6.50E-03,7.03E-02
11820,5.85E-03,6.54E-02
11821,5.93E-03,6.68E-02
11822,5.63E-03,6.33E-02
11823,5.69E-03,6.43E-02
11824,5.31E-03,6.17E-02
11825,5.39E-03,6.25E-02
11826,5.15E-03,5.99E-02
11827,5.21E-03,6.08E-02
11828,5.20E-03,5.82E-02
11829,5.12E-03,5.91E-02
11830,5.12E-03,5.66E-02
11831,5.15E-03,5.74E-02
11832,4.91E-03,5.60E-02
11833,4.64E-03,5.45E-02
11834,4.53E-03,5.43E-02
11835,5.33E-03,5.36E-02
11836,5.30E-03,5.37E-02
11837,5.36E-03,5.36E-02
11838,5.40E-03,5.82E-02
11839,5.31E-03,5.35E-02
11840,5.52E-03,5.35E-02
11841,5.51E-03,5.35E-02
11842,5.74E-03,5.34E-02
11843,5.76E-03,5.34E-02
11844,5.79E-03,5.37E-02
11845,5.77E-03,5.34E-02
11846,5.62E-03,5.45E-02
11847,5.62E-03,5.40E-02
11848,5.44E-03,5.52E-02
11849,5.47E-03,5.49E-02
11850,5.46E-03,5.55E-02
11851,5.49E-03,5.54E-02
11852,5.61E-03,5.55E-02
11853,5.62E-03,5.55E-02
11854,5.72E-03,5.55E-02
11855,5.72E-03,5.55E-02
11856,5.74E-03,5.59E-02
11857,5.78E-03,5.57E-02
11858,5.61E-03,5.62E-02
11859,5.61E-03,5.60E-02
11860,5.61E-03,5.64E-02
11861,5.56E-03,5.63E-02
11862,5.66E-03,5.66E-02
11863,5.63E-03,5.65E-02
11864,5.69E-03,5.67E-02
11865,5.67E-03,5.67E-02
11866,5.64E-03,5.68E-02
11867,5.64E-03,5.68E-02
11868,5.60E-03,5.70E-02
11869,5.64E-03,5.69E-02
11870,5.51E-03,5.72E-02
11871,5.60E-03,5.71E-02
11872,5.50E-03,5.74E-02
11873,5.47E-03,5.73E-02
11874,5.42E-03,5.77E-02
11875,5.41E-03,5.75E-02
11876,5.37E-03,5.82E-02
11877,5.35E-03,5.79E-02
11878,5.36E-03,5.86E-02
11879,5.37E-03,5.84E-02
11880,5.47E-03,5.88E-02
11881,5.41E-03,5.87E-02
11882,5.63E-03,5.87E-02
11883,5.59E-03,5.88E-02
11884,5.86E-03,5.84E-02
11885,5.75E-03,5.86E-02
11886,6.05E-03,5.83E-02
11887,5.97E-03,5.83E-02
11888,5.90E-03,5.83E-02
11889,6.02E-03,5.83E-02
11890,5.73E-03,5.86E-02
11891,5.77E-03,5.84E-02
11892,5.33E-03,5.89E-02
11893,5.61E-03,5.88E-02
11894,5.46E-03,5.84E-02
11895,5.27E-03,5.88E-02
11896,5.22E-03,0.11606
11897,6.00E-03,5.82E-02
11898,4.17E-03,3.38E-02
11899,5.59E-03,3.30E-02
11900,5.12E-03,3.66E-02
11901,3.97E-03,3.46E-02
11902,5.57E-03,3.93E-02
11903,5.02E-03,4.63E-02
11904,6.73E-03,5.45E-02
11905,5.42E-03,4.87E-02
11906,5.18E-03,5.01E-02
11907,5.38E-03,5.62E-02
11908,5.37E-03,9.35E-02
11909,5.20E-03,9.10E-02
11910,5.29E-03,5.32E-02
11911,5.30E-03,5.30E-02
11912,5.30E-03,5.33E-02
11913,6.18E-03,5.28E-02
11914,5.59E-03,6.03E-02
11915,6.00E-03,6.00E-02
11916,4.10E-03,3.35E-02
11917,4.42E-03,3.27E-02
11918,4.71E-03,3.45E-02
11919,5.10E-03,4.40E-02
11920,5.41E-03,4.17E-02
11921,5.28E-03,4.28E-02
11922,4.79E-03,3.55E-02
11923,5.51E-03,4.06E-02
11924,5.00E-03,4.51E-02
11925,6.65E-03,5.78E-02
11926,6.79E-03,5.61E-02
11927,5.52E-03,5.15E-02
11928,5.23E-03,3.21E-02
11929,5.69E-03,3.23E-02
11930,5.63E-03,3.21E-02
11931,5.53E-03,3.25E-02
11932,5.57E-03,3.24E-02
11933,5.55E-03,3.27E-02
11934,5.55E-03,3.26E-02
11935,5.61E-03,3.30E-02
11936,5.59E-03,3.29E-02
11937,5.63E-03,3.33E-02
11938,5.65E-03,3.32E-02
11939,5.56E-03,3.36E-02
11940,5.60E-03,3.34E-02
11941,5.55E-03,3.38E-02
11942,5.54E-03,3.37E-02
11943,5.52E-03,3.41E-02
11944,5.55E-03,3.40E-02
11945,5.52E-03,3.45E-02
11946,5.50E-03,3.43E-02
11947,5.65E-03,3.47E-02
11948,5.57E-03,3.46E-02
11949,5.57E-03,3.49E-02
11950,5.59E-03,3.48E-02
11951,5.56E-03,3.52E-02
11952,5.56E-03,3.51E-02
11953,5.56E-03,3.54E-02
11954,5.57E-03,3.53E-02
11955,5.54E-03,3.57E-02
11956,5.57E-03,3.56E-02
11957,5.48E-03,3.59E-02
11958,5.52E-03,3.58E-02
11959,5.50E-03,3.61E-02
11960,5.51E-03,3.60E-02
11961,5.55E-03,3.64E-02
11962,5.53E-03,3.63E-02
11963,5.54E-03,3.67E-02
11964,5.56E-03,3.65E-02
11965,5.66E-03,3.70E-02
11966,5.61E-03,3.69E-02
11967,5.66E-03,3.74E-02
11968,5.70E-03,3.72E-02
11969,5.60E-03,3.78E-02
11970,5.65E-03,3.76E-02
11971,5.51E-03,3.82E-02
11972,5.58E-03,3.80E-02
11973,5.47E-03,3.86E-02
11974,5.45E-03,3.84E-02
11975,5.59E-03,3.91E-02
11976,5.55E-03,3.89E-02
11977,5.54E-03,3.97E-02
11978,5.52E-03,3.94E-02
11979,5.57E-03,4.03E-02
11980,5.57E-03,4.00E-02
11981,5.57E-03,4.10E-02
11982,5.56E-03,4.06E-02
11983,5.58E-03,4.16E-02
11984,5.58E-03,4.13E-02
11985,5.66E-03,4.24E-02
11986,5.60E-03,4.20E-02
11987,5.72E-03,4.32E-02
11988,5.69E-03,4.28E-02
11989,5.69E-03,4.42E-02
11990,5.69E-03,4.37E-02
11991,5.76E-03,4.51E-02
11992,5.73E-03,4.46E-02
11993,5.77E-03,4.59E-02
11994,5.78E-03,4.55E-02
11995,5.59E-03,4.69E-02
11996,5.70E-03,4.64E-02
11997,5.47E-03,4.79E-02
11998,5.54E-03,4.74E-02
11999,5.52E-03,4.91E-02
12000,5.52E-03,4.85E-02
12001,5.53E-03,5.05E-02
12002,5.53E-03,4.98E-02
12003,5.42E-03,5.20E-02
12004,5.48E-03,5.12E-02
12005,5.49E-03,5.37E-02
12006,5.43E-03,5.28E-02
12007,5.52E-03,5.49E-02
12008,5.21E-03,5.63E-02
12009,5.33E-03,6.02E-02
12010,5.21E-03,5.84E-02
12011,5.35E-03,6.40E-02
12012,5.37E-03,6.20E-02
12013,5.40E-03,6.84E-02
12014,5.37E-03,6.61E-02
12015,5.55E-03,7.38E-02
12016,5.58E-03,7.10E-02
12017,5.78E-03,8.02E-02
12018,5.73E-03,7.68E-02
12019,5.72E-03,8.72E-02
12020,5.80E-03,8.36E-02
12021,5.52E-03,9.64E-02
12022,5.70E-03,9.11E-02
12023,5.11E-03,0.10617
12024,5.30E-03,0.10049
12025,5.70E-03,0.11402
12026,5.38E-03,0.13341
12027,4.96E-03,0.12693
12028,4.36E-03,0.13182
12029,5.32E-03,0.11547
12030,5.33E-03,0.12038
12031,5.67E-03,0.10621
12032,5.48E-03,0.1108
12033,5.77E-03,9.93E-02
12034,5.80E-03,0.10247
12035,5.55E-03,9.64E-02
12036,5.41E-03,8.47E-02
12037,5.24E-03,8.88E-02
12038,5.31E-03,8.69E-02
12039,5.41E-03,8.04E-02
12040,5.44E-03,8.26E-02
12041,5.14E-03,7.66E-02
12042,5.30E-03,7.84E-02
12043,5.29E-03,7.20E-02
12044,5.08E-03,7.47E-02
12045,5.90E-03,6.88E-02
12046,5.64E-03,7.04E-02
12047,5.80E-03,6.56E-02
12048,5.84E-03,6.71E-02
12049,5.62E-03,6.34E-02
12050,5.63E-03,6.44E-02
12051,5.39E-03,6.18E-02
12052,5.45E-03,6.26E-02
12053,5.21E-03,5.98E-02
12054,5.26E-03,6.08E-02
12055,5.24E-03,5.75E-02
12056,5.22E-03,5.87E-02
12057,5.18E-03,5.57E-02
12058,5.16E-03,5.66E-02
12059,4.97E-03,5.45E-02
12060,4.95E-03,5.50E-02
12061,4.79E-03,5.36E-02
12062,4.72E-03,5.40E-02
12063,4.75E-03,5.31E-02
12064,4.73E-03,5.33E-02
12065,5.05E-03,5.28E-02
12066,4.91E-03,5.29E-02
12067,5.24E-03,5.28E-02
12068,5.20E-03,5.28E-02
12069,5.28E-03,5.29E-02
12070,5.53E-03,5.35E-02
12071,5.54E-03,5.35E-02
12072,5.75E-03,5.36E-02
12073,5.74E-03,5.35E-02
12074,5.78E-03,5.40E-02
12075,5.78E-03,5.37E-02
12076,5.59E-03,5.52E-02
12077,5.62E-03,5.46E-02
12078,5.45E-03,5.63E-02
12079,5.48E-03,5.58E-02
12080,5.50E-03,5.66E-02
12081,5.48E-03,5.65E-02
12082,5.62E-03,5.64E-02
12083,5.61E-03,5.65E-02
12084,5.72E-03,5.66E-02
12085,5.74E-03,5.65E-02
12086,5.72E-03,5.70E-02
12087,5.74E-03,5.68E-02
12088,5.60E-03,5.74E-02
12089,5.64E-03,5.72E-02
12090,5.58E-03,5.76E-02
12091,5.57E-03,5.75E-02
12092,5.66E-03,5.77E-02
12093,5.63E-03,5.77E-02
12094,5.67E-03,5.78E-02
12095,5.69E-03,5.78E-02
12096,5.69E-03,5.78E-02
12097,5.70E-03,5.78E-02
12098,5.69E-03,5.79E-02
12099,5.69E-03,5.78E-02
12100,5.59E-03,5.80E-02
12101,5.63E-03,5.79E-02
12102,5.54E-03,5.82E-02
12103,5.51E-03,5.81E-02
12104,5.46E-03,5.85E-02
12105,5.47E-03,5.83E-02
12106,5.34E-03,5.90E-02
12107,5.35E-03,5.87E-02
12108,5.38E-03,5.95E-02
12109,5.36E-03,5.93E-02
12110,5.51E-03,5.99E-02
12111,5.39E-03,5.98E-02
12112,5.65E-03,6.00E-02
12113,5.56E-03,6.00E-02
12114,5.85E-03,6.00E-02
12115,5.73E-03,6.00E-02
12116,5.99E-03,6.00E-02
12117,5.98E-03,6.00E-02
12118,5.91E-03,6.02E-02
12119,5.94E-03,6.01E-02
12120,5.68E-03,6.05E-02
12121,5.75E-03,6.04E-02
12122,5.53E-03,6.07E-02
12123,5.58E-03,6.07E-02
12124,5.50E-03,6.06E-02
12125,4.31E-03,4.88E-02
12126,2.24E-03,4.80E-02
12127,6.69E-03,3.79E-02
12128,6.50E-03,3.66E-02
12129,5.72E-03,3.93E-02
12130,7.15E-03,5.43E-02
12131,4.74E-03,5.01E-02
12132,5.55E-03,0.14405
12133,6.20E-03,5.97E-02
12134,4.72E-03,3.20E-02
12135,5.95E-03,5.44E-02
12136,4.49E-03,5.47E-02
12137,5.36E-03,5.26E-02
12138,5.33E-03,5.22E-02
12139,5.37E-03,5.30E-02
12140,5.04E-03,3.26E-02
12141,3.14E-03,4.92E-02
12142,1.64E-03,4.85E-02
12143,4.97E-03,4.39E-02
12144,5.44E-03,4.16E-02
12145,5.19E-03,4.28E-02
12146,5.56E-03,4.05E-02
12147,4.87E-03,4.51E-02
12148,6.50E-03,5.77E-02
12149,7.36E-03,5.59E-02
12150,6.00E-03,5.27E-02
12151,5.05E-03,5.13E-02
12152,5.49E-03,0.15208
12153,4.86E-03,0.15803
12154,6.27E-03,6.16E-02
12155,5.87E-03,6.11E-02
12156,5.94E-03,5.95E-02
12157,4.01E-03,3.18E-02
12158,4.05E-03,3.08E-02
12159,5.46E-03,3.10E-02
12160,5.46E-03,3.10E-02
12161,5.57E-03,3.12E-02
12162,5.52E-03,3.11E-02
12163,5.51E-03,3.14E-02
12164,5.56E-03,3.13E-02
12165,5.50E-03,3.16E-02
12166,5.51E-03,3.15E-02
12167,5.58E-03,3.19E-02
12168,5.55E-03,3.18E-02
12169,5.62E-03,3.22E-02
12170,5.65E-03,3.20E-02
12171,5.57E-03,3.25E-02
12172,5.58E-03,3.23E-02
12173,5.51E-03,3.27E-02
12174,5.54E-03,3.26E-02
12175,5.55E-03,3.30E-02
12176,5.52E-03,3.29E-02
12177,5.55E-03,3.33E-02
12178,5.55E-03,3.32E-02
12179,5.63E-03,3.36E-02
12180,5.60E-03,3.35E-02
12181,5.57E-03,3.38E-02
12182,5.58E-03,3.37E-02
12183,5.53E-03,3.41E-02
12184,5.55E-03,3.39E-02
12185,5.57E-03,3.43E-02
12186,5.52E-03,3.42E-02
12187,5.59E-03,3.46E-02
12188,5.59E-03,3.45E-02
12189,5.54E-03,3.48E-02
12190,5.57E-03,3.47E-02
12191,5.55E-03,3.51E-02
12192,5.55E-03,3.50E-02
12193,5.49E-03,3.53E-02
12194,5.50E-03,3.52E-02
12195,5.59E-03,3.57E-02
12196,5.53E-03,3.55E-02
12197,5.65E-03,3.60E-02
12198,5.62E-03,3.58E-02
12199,5.66E-03,3.64E-02
12200,5.66E-03,3.62E-02
12201,5.61E-03,3.67E-02
12202,5.61E-03,3.66E-02
12203,5.51E-03,3.72E-02
12204,5.57E-03,3.69E-02
12205,5.52E-03,3.76E-02
12206,5.48E-03,3.74E-02
12207,5.55E-03,3.81E-02
12208,5.56E-03,3.79E-02
12209,5.55E-03,3.86E-02
12210,5.50E-03,3.84E-02
12211,5.58E-03,3.92E-02
12212,5.59E-03,3.89E-02
12213,5.57E-03,3.99E-02
12214,5.58E-03,3.96E-02
12215,5.58E-03,4.05E-02
12216,5.60E-03,4.02E-02
12217,5.63E-03,4.12E-02
12218,5.58E-03,4.09E-02
12219,5.69E-03,4.20E-02
12220,5.69E-03,4.16E-02
12221,5.77E-03,4.29E-02
12222,5.71E-03,4.24E-02
12223,5.79E-03,4.37E-02
12224,5.77E-03,4.33E-02
12225,5.75E-03,4.46E-02
12226,5.77E-03,4.42E-02
12227,5.56E-03,4.56E-02
12228,5.62E-03,4.51E-02
12229,5.48E-03,4.65E-02
12230,5.49E-03,4.60E-02
12231,5.53E-03,4.76E-02
12232,5.53E-03,4.70E-02
12233,5.50E-03,4.88E-02
12234,5.49E-03,4.82E-02
12235,5.48E-03,5.02E-02
12236,5.50E-03,4.95E-02
12237,5.61E-03,5.18E-02
12238,5.53E-03,5.09E-02
12239,6.08E-03,5.29E-02
12240,5.29E-03,5.81E-02
12241,5.16E-03,5.63E-02
12242,5.37E-03,6.18E-02
12243,5.37E-03,5.99E-02
12244,5.46E-03,6.60E-02
12245,5.42E-03,6.38E-02
12246,5.60E-03,7.12E-02
12247,5.61E-03,6.85E-02
12248,5.73E-03,7.73E-02
12249,5.70E-03,7.42E-02
12250,5.71E-03,8.43E-02
12251,5.73E-03,8.07E-02
12252,5.54E-03,9.29E-02
12253,5.63E-03,8.85E-02
12254,5.40E-03,0.10342
12255,5.43E-03,9.78E-02
12256,5.01E-03,0.11559
12257,5.44E-03,0.11042
12258,4.99E-03,0.13369
12259,4.99E-03,0.12475
12260,4.97E-03,0.15392
12261,6.02E-03,0.14335
12262,4.42E-03,0.13912
12263,4.64E-03,0.14602
12264,4.97E-03,0.13008
12265,4.65E-03,0.13457
12266,5.34E-03,0.11917
12267,5.21E-03,0.12464
12268,5.59E-03,0.10946
12269,5.49E-03,0.11418
12270,5.65E-03,0.10136
12271,5.68E-03,0.10513
12272,5.45E-03,9.52E-02
12273,5.52E-03,9.81E-02
12274,5.34E-03,9.01E-02
12275,5.33E-03,9.26E-02
12276,5.31E-03,8.55E-02
12277,5.33E-03,8.77E-02
12278,5.36E-03,8.10E-02
12279,5.38E-03,8.32E-02
12280,5.25E-03,7.69E-02
12281,5.30E-03,7.89E-02
12282,5.38E-03,7.29E-02
12283,5.27E-03,7.49E-02
12284,5.72E-03,6.93E-02
12285,5.60E-03,7.10E-02
12286,5.75E-03,6.59E-02
12287,5.77E-03,6.75E-02
12288,5.62E-03,6.36E-02
12289,5.63E-03,6.46E-02
12290,5.45E-03,6.18E-02
12291,5.46E-03,6.27E-02
12292,5.31E-03,5.95E-02
12293,5.30E-03,6.08E-02
12294,5.34E-03,5.67E-02
12295,5.32E-03,5.81E-02
12296,5.20E-03,5.45E-02
12297,5.26E-03,5.54E-02
12298,5.09E-03,5.34E-02
12299,5.10E-03,5.39E-02
12300,4.94E-03,5.25E-02
12301,4.89E-03,5.29E-02
12302,4.89E-03,5.17E-02
12303,4.90E-03,5.20E-02
12304,5.08E-03,5.14E-02
12305,5.00E-03,5.15E-02
12306,5.23E-03,5.17E-02
12307,5.21E-03,5.15E-02
12308,5.29E-03,5.19E-02
12309,5.56E-03,5.36E-02
12310,5.53E-03,5.33E-02
12311,5.70E-03,5.39E-02
12312,5.70E-03,5.38E-02
12313,5.72E-03,5.45E-02
12314,5.71E-03,5.41E-02
12315,5.59E-03,5.61E-02
12316,5.63E-03,5.51E-02
12317,5.48E-03,5.75E-02
12318,5.53E-03,5.69E-02
12319,5.53E-03,5.76E-02
12320,5.48E-03,5.77E-02
12321,5.63E-03,5.74E-02
12322,5.59E-03,5.74E-02
12323,5.74E-03,5.79E-02
12324,5.72E-03,5.76E-02
12325,5.71E-03,5.84E-02
12326,5.72E-03,5.81E-02
12327,5.60E-03,5.87E-02
12328,5.67E-03,5.85E-02
12329,5.62E-03,5.88E-02
12330,5.60E-03,5.88E-02
12331,5.61E-03,5.89E-02
12332,5.62E-03,5.89E-02
12333,5.65E-03,5.88E-02
12334,5.66E-03,5.88E-02
12335,5.68E-03,5.87E-02
12336,5.71E-03,5.88E-02
12337,5.71E-03,5.87E-02
12338,5.70E-03,5.87E-02
12339,5.64E-03,5.88E-02
12340,5.64E-03,5.88E-02
12341,5.57E-03,5.89E-02
12342,5.56E-03,5.88E-02
12343,5.50E-03,5.92E-02
12344,5.50E-03,5.90E-02
12345,5.39E-03,5.97E-02
12346,5.42E-03,5.94E-02
12347,5.36E-03,6.03E-02
12348,5.37E-03,6.00E-02
12349,5.49E-03,6.10E-02
12350,5.40E-03,6.07E-02
12351,5.65E-03,6.14E-02
12352,5.56E-03,6.12E-02
12353,5.78E-03,6.16E-02
12354,5.74E-03,6.15E-02
12355,5.93E-03,6.19E-02
12356,5.94E-03,6.18E-02
12357,5.81E-03,6.23E-02
12358,5.85E-03,6.21E-02
12359,5.67E-03,6.26E-02
12360,5.72E-03,6.25E-02
12361,5.61E-03,6.27E-02
12362,5.59E-03,6.27E-02
12363,5.79E-03,6.23E-02
12364,5.66E-03,6.26E-02
12365,5.97E-03,6.20E-02
12366,1.89E-03,4.78E-02
12367,4.21E-03,3.12E-02
12368,5.42E-03,3.13E-02
12369,5.87E-03,3.78E-02
12370,6.62E-03,3.64E-02
12371,6.48E-03,5.39E-02
12372,4.82E-03,5.01E-02
12373,5.29E-03,2.99E-02
12374,4.72E-03,5.29E-02
12375,4.31E-03,0.16756
12376,5.40E-03,5.11E-02
12377,5.41E-03,5.17E-02
12378,6.07E-03,6.34E-02
12379,6.22E-03,6.29E-02
12380,3.69E-03,4.70E-02
12381,5.41E-03,6.08E-02
12382,2.59E-03,4.87E-02
12383,4.72E-03,4.39E-02
12384,5.91E-03,4.16E-02
12385,5.46E-03,4.28E-02
12386,5.99E-03,3.27E-02
12387,5.63E-03,4.04E-02
12388,4.56E-03,4.50E-02
12389,6.51E-03,5.75E-02
12390,4.21E-03,5.22E-02
12391,4.50E-03,5.13E-02
12392,6.20E-03,5.93E-02
12393,5.53E-03,2.99E-02
12394,5.31E-03,2.98E-02
12395,5.56E-03,3.01E-02
12396,5.60E-03,3.00E-02
12397,5.48E-03,3.03E-02
12398,5.54E-03,3.02E-02
12399,5.52E-03,3.05E-02
12400,5.50E-03,3.04E-02
12401,5.56E-03,3.08E-02
12402,5.56E-03,3.07E-02
12403,5.61E-03,3.11E-02
12404,5.62E-03,3.09E-02
12405,5.59E-03,3.13E-02
12406,5.58E-03,3.12E-02
12407,5.54E-03,3.16E-02
12408,5.57E-03,3.15E-02
12409,5.59E-03,3.19E-02
12410,5.57E-03,3.18E-02
12411,5.61E-03,3.22E-02
12412,5.59E-03,3.21E-02
12413,5.63E-03,3.24E-02
12414,5.61E-03,3.23E-02
12415,5.49E-03,3.27E-02
12416,5.59E-03,3.26E-02
12417,5.57E-03,3.30E-02
12418,5.55E-03,3.28E-02
12419,5.62E-03,3.32E-02
12420,5.58E-03,3.31E-02
12421,5.61E-03,3.35E-02
12422,5.60E-03,3.34E-02
12423,5.64E-03,3.37E-02
12424,5.63E-03,3.36E-02
12425,5.54E-03,3.40E-02
12426,5.56E-03,3.39E-02
12427,5.57E-03,3.43E-02
12428,5.54E-03,3.42E-02
12429,5.59E-03,3.46E-02
12430,5.55E-03,3.44E-02
12431,5.62E-03,3.50E-02
12432,5.59E-03,3.48E-02
12433,5.63E-03,3.53E-02
12434,5.62E-03,3.51E-02
12435,5.60E-03,3.57E-02
12436,5.59E-03,3.55E-02
12437,5.50E-03,3.61E-02
12438,5.54E-03,3.59E-02
12439,5.56E-03,3.66E-02
12440,5.50E-03,3.64E-02
12441,5.62E-03,3.71E-02
12442,5.55E-03,3.68E-02
12443,5.57E-03,3.76E-02
12444,5.62E-03,3.73E-02
12445,5.60E-03,3.81E-02
12446,5.57E-03,3.79E-02
12447,5.57E-03,3.87E-02
12448,5.60E-03,3.84E-02
12449,5.59E-03,3.93E-02
12450,5.61E-03,3.90E-02
12451,5.61E-03,4.00E-02
12452,5.57E-03,3.97E-02
12453,5.66E-03,4.08E-02
12454,5.68E-03,4.04E-02
12455,5.73E-03,4.16E-02
12456,5.67E-03,4.12E-02
12457,5.77E-03,4.24E-02
12458,5.75E-03,4.20E-02
12459,5.70E-03,4.32E-02
12460,5.76E-03,4.28E-02
12461,5.55E-03,4.41E-02
12462,5.60E-03,4.37E-02
12463,5.48E-03,4.50E-02
12464,5.49E-03,4.46E-02
12465,5.48E-03,4.60E-02
12466,5.49E-03,4.55E-02
12467,5.50E-03,4.71E-02
12468,5.49E-03,4.66E-02
12469,5.50E-03,4.83E-02
12470,5.52E-03,4.77E-02
12471,5.56E-03,4.97E-02
12472,5.50E-03,4.90E-02
12473,4.38E-03,5.10E-02
12474,5.76E-03,5.04E-02
12475,4.69E-03,5.29E-02
12476,4.11E-03,5.17E-02
12477,5.30E-03,5.58E-02
12478,5.23E-03,5.42E-02
12479,5.37E-03,5.94E-02
12480,5.39E-03,5.76E-02
12481,5.48E-03,6.35E-02
12482,5.47E-03,6.13E-02
12483,5.58E-03,6.84E-02
12484,5.60E-03,6.58E-02
12485,5.65E-03,7.42E-02
12486,5.69E-03,7.12E-02
12487,5.68E-03,8.11E-02
12488,5.68E-03,7.75E-02
12489,5.56E-03,8.95E-02
12490,5.64E-03,8.51E-02
12491,5.45E-03,1.00E-01
12492,5.49E-03,9.44E-02
12493,5.32E-03,0.11276
12494,5.37E-03,0.10579
12495,5.40E-03,0.13041
12496,5.24E-03,0.12062
12497,5.77E-03,0.15121
12498,5.50E-03,0.14112
12499,6.36E-03,0.1959
12500,5.08E-03,0.21566
12501,5.72E-03,0.17627
12502,6.54E-03,0.18447
12503,5.10E-03,0.16078
12504,5.19E-03,0.16669
12505,4.89E-03,0.1442
12506,5.06E-03,0.15155
12507,4.99E-03,0.13243
12508,4.90E-03,0.13764
12509,5.33E-03,0.12243
12510,5.21E-03,0.12756
12511,5.53E-03,0.11234
12512,5.47E-03,0.11733
12513,5.55E-03,0.10347
12514,5.58E-03,0.10759
12515,5.46E-03,9.69E-02
12516,5.48E-03,1.00E-01
12517,5.36E-03,9.10E-02
12518,5.42E-03,9.39E-02
12519,5.32E-03,8.57E-02
12520,5.39E-03,8.83E-02
12521,5.34E-03,8.09E-02
12522,5.35E-03,8.32E-02
12523,5.37E-03,7.68E-02
12524,5.38E-03,7.87E-02
12525,5.41E-03,7.35E-02
12526,5.38E-03,7.51E-02
12527,5.64E-03,7.02E-02
12528,5.54E-03,7.19E-02
12529,5.64E-03,6.66E-02
12530,5.65E-03,6.84E-02
12531,5.56E-03,6.38E-02
12532,5.60E-03,6.50E-02
12533,5.44E-03,6.17E-02
12534,5.52E-03,6.28E-02
12535,5.41E-03,5.88E-02
12536,5.37E-03,6.04E-02
12537,5.40E-03,5.56E-02
12538,5.40E-03,5.72E-02
12539,5.27E-03,5.32E-02
12540,5.39E-03,5.42E-02
12541,5.15E-03,5.21E-02
12542,5.23E-03,5.26E-02
12543,5.07E-03,5.09E-02
12544,5.07E-03,5.15E-02
12545,5.00E-03,4.99E-02
12546,5.01E-03,5.03E-02
12547,5.18E-03,4.98E-02
12548,5.11E-03,4.98E-02
12549,5.28E-03,5.02E-02
12550,5.23E-03,4.99E-02
12551,5.36E-03,5.06E-02
12552,5.61E-03,5.37E-02
12553,5.49E-03,5.24E-02
12554,5.53E-03,5.31E-02
12555,5.69E-03,5.46E-02
12556,5.65E-03,5.42E-02
12557,5.65E-03,5.52E-02
12558,5.68E-03,5.49E-02
12559,5.56E-03,5.69E-02
12560,5.60E-03,5.58E-02
12561,5.47E-03,5.87E-02
12562,5.53E-03,5.81E-02
12563,5.54E-03,5.83E-02
12564,5.45E-03,5.86E-02
12565,5.65E-03,5.86E-02
12566,5.60E-03,5.83E-02
12567,5.74E-03,5.94E-02
12568,5.73E-03,5.90E-02
12569,5.67E-03,5.98E-02
12570,5.75E-03,5.96E-02
12571,5.61E-03,6.01E-02
12572,5.61E-03,6.00E-02
12573,5.62E-03,6.01E-02
12574,5.58E-03,6.01E-02
12575,5.61E-03,6.00E-02
12576,5.60E-03,6.01E-02
12577,5.60E-03,5.99E-02
12578,5.65E-03,5.99E-02
12579,5.71E-03,5.97E-02
12580,5.71E-03,5.98E-02
12581,5.74E-03,5.96E-02
12582,5.75E-03,5.96E-02
12583,5.67E-03,5.95E-02
12584,5.72E-03,5.95E-02
12585,5.64E-03,5.95E-02
12586,5.60E-03,5.95E-02
12587,5.53E-03,5.97E-02
12588,5.52E-03,5.96E-02
12589,5.37E-03,6.02E-02
12590,5.46E-03,5.99E-02
12591,5.38E-03,6.09E-02
12592,5.36E-03,6.05E-02
12593,5.49E-03,6.18E-02
12594,5.45E-03,6.13E-02
12595,5.62E-03,6.27E-02
12596,5.62E-03,6.23E-02
12597,5.76E-03,6.34E-02
12598,5.72E-03,6.30E-02
12599,5.81E-03,6.41E-02
12600,5.84E-03,6.38E-02
12601,5.75E-03,6.47E-02
12602,5.80E-03,6.45E-02
12603,5.69E-03,6.50E-02
12604,5.73E-03,6.49E-02
12605,5.63E-03,6.49E-02
12606,5.65E-03,6.50E-02
12607,5.79E-03,6.45E-02
12608,5.67E-03,6.48E-02
12609,5.97E-03,6.40E-02
12610,4.71E-03,5.00E-02
12611,5.37E-03,0.22303
12612,5.90E-03,3.78E-02
12613,3.06E-03,4.88E-02
12614,2.53E-03,4.77E-02
12615,5.94E-03,2.87E-02
12616,4.09E-03,4.60E-02
12617,2.92E-03,2.85E-02
12618,4.21E-03,4.39E-02
12619,5.46E-03,4.15E-02
12620,4.51E-03,3.14E-02
12621,5.19E-03,3.38E-02
12622,5.02E-03,4.03E-02
12623,4.30E-03,4.50E-02
12624,4.52E-03,5.10E-02
12625,5.21E-03,5.87E-02
12626,3.06E-03,6.13E-02
12627,5.58E-03,2.88E-02
12628,5.58E-03,2.87E-02
12629,5.57E-03,2.90E-02
12630,5.59E-03,2.89E-02
12631,5.48E-03,2.92E-02
12632,5.55E-03,2.91E-02
12633,5.54E-03,2.94E-02
12634,5.50E-03,2.93E-02
12635,5.60E-03,2.97E-02
12636,5.57E-03,2.96E-02
12637,5.63E-03,2.99E-02
12638,5.62E-03,2.98E-02
12639,5.58E-03,3.02E-02
12640,5.61E-03,3.01E-02
12641,5.60E-03,3.05E-02
12642,5.60E-03,3.04E-02
12643,5.60E-03,3.08E-02
12644,5.62E-03,3.06E-02
12645,5.61E-03,3.11E-02
12646,5.60E-03,3.09E-02
12647,5.62E-03,3.13E-02
12648,5.66E-03,3.12E-02
12649,5.56E-03,3.16E-02
12650,5.60E-03,3.14E-02
12651,5.57E-03,3.18E-02
12652,5.58E-03,3.17E-02
12653,5.58E-03,3.21E-02
12654,5.60E-03,3.20E-02
12655,5.63E-03,3.24E-02
12656,5.62E-03,3.22E-02
12657,5.60E-03,3.26E-02
12658,5.64E-03,3.25E-02
12659,5.59E-03,3.29E-02
12660,5.58E-03,3.28E-02
12661,5.56E-03,3.32E-02
12662,5.60E-03,3.31E-02
12663,5.55E-03,3.36E-02
12664,5.54E-03,3.34E-02
12665,5.57E-03,3.39E-02
12666,5.60E-03,3.37E-02
12667,5.62E-03,3.43E-02
12668,5.61E-03,3.41E-02
12669,5.55E-03,3.47E-02
12670,5.60E-03,3.45E-02
12671,5.57E-03,3.51E-02
12672,5.53E-03,3.49E-02
12673,5.61E-03,3.55E-02
12674,5.55E-03,3.53E-02
12675,5.64E-03,3.60E-02
12676,5.62E-03,3.58E-02
12677,5.57E-03,3.65E-02
12678,5.61E-03,3.62E-02
12679,5.63E-03,3.70E-02
12680,5.60E-03,3.67E-02
12681,5.63E-03,3.76E-02
12682,5.65E-03,3.73E-02
12683,5.59E-03,3.82E-02
12684,5.64E-03,3.79E-02
12685,5.64E-03,3.88E-02
12686,5.57E-03,3.85E-02
12687,5.67E-03,3.95E-02
12688,5.68E-03,3.91E-02
12689,5.66E-03,4.03E-02
12690,5.68E-03,3.99E-02
12691,5.74E-03,4.11E-02
12692,5.68E-03,4.07E-02
12693,5.66E-03,4.18E-02
12694,5.68E-03,4.14E-02
12695,5.58E-03,4.27E-02
12696,5.63E-03,4.22E-02
12697,5.45E-03,4.35E-02
12698,5.51E-03,4.31E-02
12699,5.47E-03,4.45E-02
12700,5.47E-03,4.40E-02
12701,5.53E-03,4.54E-02
12702,5.50E-03,4.49E-02
12703,5.52E-03,4.64E-02
12704,5.59E-03,4.59E-02
12705,5.45E-03,4.75E-02
12706,5.46E-03,4.70E-02
12707,4.94E-03,4.87E-02
12708,5.24E-03,4.79E-02
12709,4.97E-03,5.06E-02
12710,4.79E-03,4.98E-02
12711,5.37E-03,5.34E-02
12712,5.20E-03,5.19E-02
12713,5.41E-03,5.69E-02
12714,5.41E-03,5.51E-02
12715,5.50E-03,6.07E-02
12716,5.51E-03,5.88E-02
12717,5.55E-03,6.53E-02
12718,5.61E-03,6.28E-02
12719,5.60E-03,7.09E-02
12720,5.64E-03,6.79E-02
12721,5.62E-03,7.76E-02
12722,5.64E-03,7.42E-02
12723,5.57E-03,8.56E-02
12724,5.60E-03,8.13E-02
12725,5.49E-03,9.56E-02
12726,5.54E-03,9.03E-02
12727,5.41E-03,0.10833
12728,5.45E-03,0.10158
12729,5.53E-03,0.12503
12730,5.47E-03,0.11593
12731,6.06E-03,0.14694
12732,5.71E-03,0.13509
12733,4.57E-03,0.1927
12734,3.86E-03,0.31482
12735,6.10E-03,0.24824
12736,5.45E-03,0.27432
12737,5.75E-03,0.21501
12738,5.68E-03,0.2297
12739,5.64E-03,0.18755
12740,5.52E-03,0.2025
12741,5.26E-03,0.16632
12742,5.45E-03,0.17591
12743,5.09E-03,0.14873
12744,5.14E-03,0.15742
12745,5.22E-03,0.13453
12746,5.13E-03,0.14111
12747,5.37E-03,0.12433
12748,5.30E-03,0.1291
12749,5.56E-03,0.11492
12750,5.50E-03,0.11962
12751,5.55E-03,0.10632
12752,5.61E-03,0.11042
12753,5.44E-03,9.90E-02
12754,5.46E-03,0.10265
12755,5.36E-03,9.15E-02
12756,5.39E-03,9.52E-02
12757,5.31E-03,8.50E-02
12758,5.38E-03,8.80E-02
12759,5.38E-03,8.00E-02
12760,5.34E-03,8.24E-02
12761,5.40E-03,7.64E-02
12762,5.40E-03,7.80E-02
12763,5.47E-03,7.39E-02
12764,5.43E-03,7.51E-02
12765,5.61E-03,7.14E-02
12766,5.52E-03,7.27E-02
12767,5.60E-03,6.82E-02
12768,5.66E-03,6.99E-02
12769,5.54E-03,6.46E-02
12770,5.55E-03,6.63E-02
12771,5.46E-03,6.10E-02
12772,5.52E-03,6.28E-02
12773,5.47E-03,5.74E-02
12774,5.49E-03,5.92E-02
12775,5.41E-03,5.46E-02
12776,5.45E-03,5.59E-02
12777,5.35E-03,5.21E-02
12778,5.40E-03,5.33E-02
12779,5.26E-03,5.06E-02
12780,5.34E-03,5.13E-02
12781,5.14E-03,4.88E-02
12782,5.23E-03,4.97E-02
12783,5.15E-03,4.79E-02
12784,5.15E-03,4.82E-02
12785,5.29E-03,4.79E-02
12786,5.19E-03,4.78E-02
12787,5.36E-03,4.85E-02
12788,5.30E-03,4.81E-02
12789,5.44E-03,4.97E-02
12790,5.40E-03,4.90E-02
12791,5.51E-03,5.15E-02
12792,5.43E-03,5.05E-02
12793,5.61E-03,5.37E-02
12794,5.56E-03,5.26E-02
12795,5.68E-03,5.57E-02
12796,5.64E-03,5.48E-02
12797,5.58E-03,5.69E-02
12798,5.65E-03,5.64E-02
12799,5.54E-03,5.75E-02
12800,5.54E-03,5.70E-02
12801,5.52E-03,5.92E-02
12802,5.52E-03,5.87E-02
12803,5.57E-03,5.88E-02
12804,5.49E-03,5.89E-02
12805,5.67E-03,6.02E-02
12806,5.61E-03,5.95E-02
12807,5.74E-03,6.11E-02
12808,5.73E-03,6.08E-02
12809,5.70E-03,6.15E-02
12810,5.75E-03,6.14E-02
12811,5.64E-03,6.16E-02
12812,5.64E-03,6.16E-02
12813,5.62E-03,6.14E-02
12814,5.62E-03,6.15E-02
12815,5.60E-03,6.12E-02
12816,5.63E-03,6.13E-02
12817,5.62E-03,6.09E-02
12818,5.61E-03,6.10E-02
12819,5.73E-03,6.06E-02
12820,5.69E-03,6.07E-02
12821,5.74E-03,6.04E-02
12822,5.76E-03,6.05E-02
12823,5.69E-03,6.02E-02
12824,5.73E-03,6.03E-02
12825,5.64E-03,6.01E-02
12826,5.64E-03,6.01E-02
12827,5.58E-03,6.01E-02
12828,5.58E-03,6.01E-02
12829,5.47E-03,6.04E-02
12830,5.52E-03,6.03E-02
12831,5.45E-03,6.11E-02
12832,5.43E-03,6.07E-02
12833,5.56E-03,6.23E-02
12834,5.46E-03,6.16E-02
12835,5.62E-03,6.38E-02
12836,5.64E-03,6.31E-02
12837,5.70E-03,6.54E-02
12838,5.68E-03,6.46E-02
12839,5.76E-03,6.68E-02
12840,5.74E-03,6.62E-02
12841,5.70E-03,6.75E-02
12842,5.72E-03,6.73E-02
12843,5.67E-03,6.77E-02
12844,5.73E-03,6.77E-02
12845,5.64E-03,6.74E-02
12846,5.67E-03,6.76E-02
12847,5.85E-03,6.67E-02
12848,5.69E-03,6.71E-02
12849,6.15E-03,6.55E-02
12850,6.00E-03,6.62E-02
12851,4.35E-03,6.46E-02
12852,6.09E-03,6.46E-02
12853,2.96E-03,2.88E-02
12854,2.96E-03,4.68E-02
12855,4.12E-03,4.59E-02
12856,4.05E-03,0.3415
12857,3.89E-03,0.38944
12858,5.98E-03,2.75E-02
12859,2.95E-03,4.99E-02
12860,2.39E-03,4.89E-02
12861,2.90E-03,4.78E-02
12862,2.12E-03,6.15E-02
12863,1.82E-03,6.09E-02
12864,2.96E-03,5.63E-02
12865,2.81E-03,5.03E-02
12866,2.12E-03,3.24E-02
12867,2.12E-03,3.69E-02
12868,3.89E-03,4.38E-02
12869,3.25E-03,2.90E-02
12870,3.84E-03,3.15E-02
12871,3.23E-03,3.34E-02
12872,4.71E-03,3.78E-02
12873,4.96E-03,3.90E-02
12874,3.04E-03,4.12E-02
12875,4.47E-03,4.03E-02
12876,4.17E-03,4.50E-02
12877,2.43E-03,5.79E-02
12878,2.47E-03,6.08E-02
12879,2.21E-03,6.26E-02
12880,5.62E-03,2.77E-02
12881,5.68E-03,2.77E-02
12882,5.58E-03,2.79E-02
12883,5.56E-03,2.78E-02
12884,5.55E-03,2.81E-02
12885,5.60E-03,2.80E-02
12886,5.57E-03,2.83E-02
12887,5.55E-03,2.82E-02
12888,5.63E-03,2.86E-02
12889,5.57E-03,2.85E-02
12890,5.66E-03,2.88E-02
12891,5.62E-03,2.87E-02
12892,5.59E-03,2.91E-02
12893,5.60E-03,2.90E-02
12894,5.59E-03,2.94E-02
12895,5.60E-03,2.92E-02
12896,5.59E-03,2.96E-02
12897,5.60E-03,2.95E-02
12898,5.67E-03,2.99E-02
12899,5.63E-03,2.98E-02
12900,5.59E-03,3.02E-02
12901,5.66E-03,3.01E-02
12902,5.59E-03,3.04E-02
12903,5.60E-03,3.03E-02
12904,5.59E-03,3.07E-02
12905,5.60E-03,3.06E-02
12906,5.59E-03,3.10E-02
12907,5.60E-03,3.08E-02
12908,5.59E-03,3.13E-02
12909,5.60E-03,3.11E-02
12910,5.59E-03,3.15E-02
12911,5.60E-03,3.14E-02
12912,5.59E-03,3.18E-02
12913,5.60E-03,3.17E-02
12914,5.59E-03,3.21E-02
12915,5.60E-03,3.20E-02
12916,5.59E-03,3.25E-02
12917,5.60E-03,3.23E-02
12918,5.59E-03,3.28E-02
12919,5.60E-03,3.27E-02
12920,5.58E-03,3.32E-02
12921,5.60E-03,3.30E-02
12922,5.54E-03,3.36E-02
12923,5.58E-03,3.34E-02
12924,5.54E-03,3.40E-02
12925,5.51E-03,3.38E-02
12926,5.63E-03,3.45E-02
12927,5.59E-03,3.42E-02
12928,5.64E-03,3.49E-02
12929,5.62E-03,3.47E-02
12930,5.59E-03,3.54E-02
12931,5.60E-03,3.51E-02
12932,5.58E-03,3.59E-02
12933,5.60E-03,3.56E-02
12934,5.62E-03,3.64E-02
12935,5.61E-03,3.61E-02
12936,5.59E-03,3.70E-02
12937,5.58E-03,3.67E-02
12938,5.63E-03,3.76E-02
12939,5.60E-03,3.73E-02
12940,5.63E-03,3.82E-02
12941,5.67E-03,3.79E-02
12942,5.62E-03,3.89E-02
12943,5.61E-03,3.85E-02
12944,5.67E-03,3.97E-02
12945,5.66E-03,3.93E-02
12946,5.68E-03,4.04E-02
12947,5.66E-03,4.01E-02
12948,5.62E-03,4.11E-02
12949,5.62E-03,4.07E-02
12950,5.53E-03,4.20E-02
12951,5.56E-03,4.15E-02
12952,5.52E-03,4.28E-02
12953,5.52E-03,4.25E-02
12954,5.59E-03,4.36E-02
12955,5.57E-03,4.32E-02
12956,5.55E-03,4.44E-02
12957,5.60E-03,4.40E-02
12958,5.37E-03,4.53E-02
12959,5.46E-03,4.49E-02
12960,5.19E-03,4.65E-02
12961,5.27E-03,4.58E-02
12962,5.27E-03,4.81E-02
12963,5.16E-03,4.72E-02
12964,5.41E-03,5.10E-02
12965,5.37E-03,4.95E-02
12966,5.46E-03,5.43E-02
12967,5.43E-03,5.26E-02
12968,5.51E-03,5.78E-02
12969,5.48E-03,5.62E-02
12970,5.55E-03,6.18E-02
12971,5.57E-03,5.95E-02
12972,5.57E-03,6.75E-02
12973,5.54E-03,6.45E-02
12974,5.60E-03,7.38E-02
12975,5.61E-03,7.06E-02
12976,5.58E-03,8.08E-02
12977,5.61E-03,7.70E-02
12978,5.52E-03,9.09E-02
12979,5.55E-03,8.55E-02
12980,5.53E-03,0.10282
12981,5.47E-03,9.66E-02
12982,5.64E-03,0.11826
12983,5.57E-03,0.11009
12984,6.05E-03,0.13856
12985,5.80E-03,0.12753
12986,5.63E-03,0.15966
12987,6.01E-03,0.15119
12988,4.78E-03,0.19606
12989,4.74E-03,0.1712
12990,5.41E-03,0.24703
12991,5.30E-03,0.22066
12992,3.66E-03,0.34427
12993,4.00E-03,0.28672
12994,5.51E-03,0.27563
12995,4.87E-03,0.30298
12996,5.65E-03,0.22996
12997,5.68E-03,0.24761
12998,5.55E-03,0.19826
12999,5.63E-03,0.21363
13000,5.34E-03,0.1728
13001,5.44E-03,0.18474
13002,5.23E-03,0.15305
13003,5.27E-03,0.16257
13004,5.30E-03,0.13633
13005,5.24E-03,0.14425
13006,5.51E-03,0.12406
13007,5.39E-03,0.12951
13008,5.57E-03,0.11702
13009,5.57E-03,0.12002
13010,5.50E-03,0.11112
13011,5.54E-03,0.11435
13012,5.40E-03,0.1019
13013,5.46E-03,0.10689
13014,5.42E-03,9.14E-02
13015,5.39E-03,9.66E-02
13016,5.42E-03,8.30E-02
13017,5.43E-03,8.68E-02
13018,5.39E-03,7.84E-02
13019,5.43E-03,8.03E-02
13020,5.42E-03,7.58E-02
13021,5.39E-03,7.70E-02
13022,5.48E-03,7.38E-02
13023,5.46E-03,7.47E-02
13024,5.65E-03,7.28E-02
13025,5.58E-03,7.32E-02
13026,5.59E-03,7.13E-02
13027,5.64E-03,7.23E-02
13028,5.49E-03,6.65E-02
13029,5.52E-03,6.95E-02
13030,5.56E-03,5.90E-02
13031,5.51E-03,6.27E-02
13032,5.57E-03,5.47E-02
13033,5.60E-03,5.63E-02
13034,5.53E-03,5.37E-02
13035,5.53E-03,5.40E-02
13036,5.43E-03,5.21E-02
13037,5.49E-03,5.33E-02
13038,5.41E-03,4.83E-02
13039,5.41E-03,5.03E-02
13040,5.30E-03,4.59E-02
13041,5.36E-03,4.68E-02
13042,5.29E-03,4.56E-02
13043,5.33E-03,4.57E-02
13044,5.39E-03,4.59E-02
13045,5.32E-03,4.57E-02
13046,5.47E-03,4.65E-02
13047,5.45E-03,4.61E-02
13048,5.51E-03,4.79E-02
13049,5.48E-03,4.71E-02
13050,5.52E-03,5.02E-02
13051,5.50E-03,4.89E-02
13052,5.63E-03,5.36E-02
13053,5.57E-03,5.18E-02
13054,5.68E-03,5.74E-02
13055,5.69E-03,5.56E-02
13056,5.54E-03,6.00E-02
13057,5.64E-03,5.90E-02
13058,5.52E-03,5.86E-02
13059,5.48E-03,6.01E-02
13060,5.48E-03,5.69E-02
13061,5.54E-03,5.72E-02
13062,5.64E-03,6.00E-02
13063,5.59E-03,5.77E-02
13064,5.67E-03,6.25E-02
13065,5.56E-03,6.17E-02
13066,5.70E-03,6.32E-02
13067,5.72E-03,6.29E-02
13068,5.66E-03,6.34E-02
13069,5.70E-03,6.34E-02
13070,5.63E-03,6.32E-02
13071,5.64E-03,6.34E-02
13072,5.61E-03,6.28E-02
13073,5.61E-03,6.30E-02
13074,5.60E-03,6.23E-02
13075,5.61E-03,6.26E-02
13076,5.60E-03,6.19E-02
13077,5.61E-03,6.21E-02
13078,5.64E-03,6.15E-02
13079,5.61E-03,6.17E-02
13080,5.66E-03,6.11E-02
13081,5.66E-03,6.13E-02
13082,5.64E-03,6.08E-02
13083,5.65E-03,6.09E-02
13084,5.62E-03,6.06E-02
13085,5.64E-03,6.07E-02
13086,5.54E-03,6.04E-02
13087,5.57E-03,6.05E-02
13088,5.53E-03,6.05E-02
13089,5.54E-03,6.04E-02
13090,5.54E-03,6.10E-02
13091,5.52E-03,6.07E-02
13092,5.60E-03,6.22E-02
13093,5.51E-03,6.14E-02
13094,5.63E-03,6.47E-02
13095,5.65E-03,6.33E-02
13096,5.62E-03,6.79E-02
13097,5.61E-03,6.63E-02
13098,5.67E-03,7.01E-02
13099,5.65E-03,6.92E-02
13100,5.68E-03,7.09E-02
13101,5.62E-03,7.06E-02
13102,5.71E-03,7.08E-02
13103,5.68E-03,7.09E-02
13104,5.64E-03,7.02E-02
13105,5.68E-03,7.05E-02
13106,5.82E-03,6.91E-02
13107,5.68E-03,6.97E-02
13108,6.23E-03,6.77E-02
13109,5.97E-03,6.84E-02
13110,6.44E-03,6.67E-02
13111,2.96E-03,4.68E-02
13112,2.80E-03,4.60E-02
13113,4.16E-03,0.46072
13114,2.62E-03,2.83E-02
13115,3.04E-03,2.77E-02
13116,4.03E-03,6.63E-02
13117,2.82E-03,2.70E-02
13118,2.06E-03,4.81E-02
13119,2.05E-03,2.88E-02
13120,3.06E-03,3.07E-02
13121,3.15E-03,3.14E-02
13122,2.81E-03,3.20E-02
13123,1.62E-03,3.31E-02
13124,2.09E-03,3.35E-02
13125,1.88E-03,3.42E-02
13126,2.18E-03,3.51E-02
13127,2.74E-03,3.58E-02
13128,2.79E-03,3.64E-02
13129,2.16E-03,3.76E-02
13130,3.04E-03,3.83E-02
13131,3.45E-03,3.91E-02
13132,3.02E-03,4.00E-02
13133,2.45E-03,4.07E-02
13134,2.11E-03,4.16E-02
13135,2.10E-03,4.26E-02
13136,2.53E-03,4.34E-02
13137,3.07E-03,4.41E-02
13138,3.03E-03,4.47E-02
13139,2.17E-03,4.54E-02
13140,1.83E-03,4.63E-02
13141,2.65E-03,4.70E-02
13142,1.87E-03,4.77E-02
13143,1.52E-03,4.84E-02
13144,2.00E-03,4.91E-02
13145,1.90E-03,4.96E-02
13146,3.56E-03,5.27E-02
13147,3.51E-03,5.50E-02
13148,3.90E-03,5.57E-02
13149,2.03E-03,5.69E-02
13150,2.11E-03,5.74E-02
13151,1.80E-03,5.82E-02
13152,1.88E-03,5.90E-02
13153,2.09E-03,5.97E-02
13154,2.26E-03,6.03E-02
13155,1.76E-03,6.17E-02
13156,2.60E-03,6.23E-02
13157,2.94E-03,6.60E-02
13158,2.46E-03,6.48E-02
13159,2.06E-03,6.56E-02
13160,4.61E-03,2.63E-02
13161,5.39E-03,2.64E-02
13162,5.63E-03,2.65E-02
13163,5.57E-03,2.66E-02
13164,5.59E-03,2.67E-02
13165,5.60E-03,2.68E-02
13166,5.60E-03,2.69E-02
13167,5.61E-03,2.70E-02
13168,5.62E-03,2.71E-02
13169,5.60E-03,2.72E-02
13170,5.63E-03,2.73E-02
13171,5.65E-03,2.75E-02
13172,5.63E-03,2.76E-02
13173,5.64E-03,2.77E-02
13174,5.60E-03,2.78E-02
13175,5.60E-03,2.80E-02
13176,5.60E-03,2.81E-02
13177,5.60E-03,2.82E-02
13178,5.60E-03,2.84E-02
13179,5.60E-03,2.85E-02
13180,5.60E-03,2.86E-02
13181,5.60E-03,2.88E-02
13182,5.60E-03,2.89E-02
13183,5.60E-03,2.90E-02
13184,5.60E-03,2.92E-02
13185,5.60E-03,2.93E-02
13186,5.60E-03,2.94E-02
13187,5.60E-03,2.96E-02
13188,5.60E-03,2.97E-02
13189,5.60E-03,2.99E-02
13190,5.60E-03,3.00E-02
13191,5.60E-03,3.01E-02
13192,5.60E-03,3.03E-02
13193,5.60E-03,3.04E-02
13194,5.60E-03,3.06E-02
13195,5.60E-03,3.07E-02
13196,5.60E-03,3.09E-02
13197,5.60E-03,3.10E-02
13198,5.60E-03,3.12E-02
13199,5.60E-03,3.14E-02
13200,5.60E-03,3.16E-02
13201,5.60E-03,3.18E-02
13202,5.60E-03,3.19E-02
13203,5.60E-03,3.21E-02
13204,5.60E-03,3.23E-02
13205,5.58E-03,3.25E-02
13206,5.55E-03,3.27E-02
13207,5.57E-03,3.29E-02
13208,5.63E-03,3.32E-02
13209,5.64E-03,3.34E-02
13210,5.63E-03,3.36E-02
13211,5.65E-03,3.38E-02
13212,5.59E-03,3.40E-02
13213,5.59E-03,3.42E-02
13214,5.59E-03,3.45E-02
13215,5.59E-03,3.47E-02
13216,5.60E-03,3.50E-02
13217,5.60E-03,3.52E-02
13218,5.60E-03,3.55E-02
13219,5.62E-03,3.58E-02
13220,5.63E-03,3.61E-02
13221,5.64E-03,3.63E-02
13222,5.64E-03,3.66E-02
13223,5.60E-03,3.69E-02
13224,5.60E-03,3.72E-02
13225,5.60E-03,3.76E-02
13226,5.60E-03,3.79E-02
13227,5.60E-03,3.83E-02
13228,5.60E-03,3.87E-02
13229,5.60E-03,3.91E-02
13230,5.60E-03,3.94E-02
13231,5.61E-03,3.95E-02
13232,5.61E-03,3.98E-02
13233,5.61E-03,4.05E-02
13234,5.61E-03,4.09E-02
13235,5.61E-03,4.11E-02
13236,5.60E-03,4.15E-02
13237,5.60E-03,4.18E-02
13238,5.59E-03,4.22E-02
13239,5.57E-03,4.24E-02
13240,5.50E-03,4.29E-02
13241,5.43E-03,4.33E-02
13242,5.36E-03,4.37E-02
13243,5.34E-03,4.42E-02
13244,5.55E-03,4.45E-02
13245,5.62E-03,4.56E-02
13246,5.48E-03,4.71E-02
13247,5.46E-03,4.84E-02
13248,5.49E-03,4.98E-02
13249,5.51E-03,5.14E-02
13250,5.52E-03,5.34E-02
13251,5.53E-03,5.45E-02
13252,5.51E-03,5.64E-02
13253,5.52E-03,5.80E-02
13254,5.56E-03,6.10E-02
13255,5.61E-03,6.39E-02
13256,5.61E-03,6.65E-02
13257,5.61E-03,6.95E-02
13258,5.61E-03,7.27E-02
13259,5.61E-03,7.49E-02
13260,5.61E-03,8.04E-02
13261,5.61E-03,8.60E-02
13262,5.61E-03,9.05E-02
13263,5.63E-03,9.64E-02
13264,5.63E-03,0.10293
13265,5.69E-03,0.11022
13266,5.82E-03,0.11854
13267,5.90E-03,0.12692
13268,5.83E-03,0.13581
13269,5.55E-03,0.14601
13270,5.22E-03,0.16078
13271,5.15E-03,0.18125
13272,5.15E-03,0.2037
13273,4.93E-03,0.22239
13274,4.54E-03,0.25676
13275,4.48E-03,0.30684
13276,5.31E-03,0.40049
13277,6.61E-03,0.77016
13278,4.85E-03,0.54778
13279,4.55E-03,0.41194
13280,4.69E-03,0.34431
13281,5.00E-03,0.31673
13282,5.38E-03,0.29152
13283,5.57E-03,0.267
13284,5.63E-03,0.2436
13285,5.62E-03,0.22433
13286,5.56E-03,0.20807
13287,5.50E-03,0.19334
13288,5.44E-03,0.17999
13289,5.37E-03,0.1681
13290,5.33E-03,0.15744
13291,5.35E-03,0.14753
13292,5.41E-03,0.13809
13293,5.50E-03,0.12889
13294,5.65E-03,0.12119
13295,5.69E-03,0.11777
13296,5.65E-03,0.11851
13297,5.53E-03,0.11991
13298,5.45E-03,0.11869
13299,5.42E-03,0.11339
13300,5.39E-03,0.1057
13301,5.40E-03,9.82E-02
13302,5.39E-03,9.13E-02
13303,5.44E-03,8.47E-02
13304,5.51E-03,7.94E-02
13305,5.58E-03,7.69E-02
13306,5.50E-03,7.63E-02
13307,5.43E-03,7.60E-02
13308,5.42E-03,7.52E-02
13309,5.48E-03,7.41E-02
13310,5.53E-03,7.33E-02
13311,5.63E-03,7.32E-02
13312,5.64E-03,7.38E-02
13313,5.62E-03,7.53E-02
13314,5.50E-03,7.64E-02
13315,5.42E-03,7.53E-02
13316,5.40E-03,7.03E-02
13317,5.48E-03,6.27E-02
13318,5.66E-03,5.56E-02
13319,5.78E-03,5.12E-02
13320,5.74E-03,5.04E-02
13321,5.66E-03,5.15E-02
13322,5.60E-03,5.32E-02
13323,5.49E-03,5.44E-02
13324,5.39E-03,5.39E-02
13325,5.41E-03,4.99E-02
13326,5.58E-03,4.48E-02
13327,5.59E-03,4.27E-02
13328,5.51E-03,4.27E-02
13329,5.46E-03,4.31E-02
13330,5.48E-03,4.34E-02
13331,5.52E-03,4.36E-02
13332,5.52E-03,4.38E-02
13333,5.52E-03,4.40E-02
13334,5.56E-03,4.44E-02
13335,5.56E-03,4.50E-02
13336,5.55E-03,4.59E-02
13337,5.57E-03,4.71E-02
13338,5.58E-03,4.86E-02
13339,5.61E-03,5.08E-02
13340,5.63E-03,5.35E-02
13341,5.65E-03,5.65E-02
13342,5.65E-03,5.96E-02
13343,5.58E-03,6.25E-02
13344,5.42E-03,6.48E-02
13345,5.29E-03,6.58E-02
13346,5.27E-03,6.21E-02
13347,5.93E-03,5.13E-02
13348,6.10E-03,4.78E-02
13349,5.36E-03,5.61E-02
13350,5.32E-03,6.36E-02
13351,5.50E-03,6.50E-02
13352,5.60E-03,6.54E-02
13353,5.66E-03,6.55E-02
13354,5.67E-03,6.55E-02
13355,5.66E-03,6.55E-02
13356,5.62E-03,6.55E-02
13357,5.61E-03,6.53E-02
13358,5.60E-03,6.50E-02
13359,5.60E-03,6.45E-02
13360,5.60E-03,6.41E-02
13361,5.61E-03,6.38E-02
13362,5.61E-03,6.35E-02
13363,5.61E-03,6.32E-02
13364,5.60E-03,6.30E-02
13365,5.60E-03,6.27E-02
13366,5.60E-03,6.24E-02
13367,5.60E-03,6.21E-02
13368,5.60E-03,6.18E-02
13369,5.60E-03,6.16E-02
13370,5.59E-03,6.13E-02
13371,5.59E-03,6.11E-02
13372,5.59E-03,6.10E-02
13373,5.58E-03,6.08E-02
13374,5.58E-03,6.06E-02
13375,5.57E-03,6.05E-02
13376,5.57E-03,6.05E-02
13377,5.56E-03,6.05E-02
13378,5.56E-03,6.06E-02
13379,5.57E-03,6.09E-02
13380,5.64E-03,6.15E-02
13381,5.67E-03,6.27E-02
13382,5.69E-03,6.53E-02
13383,5.64E-03,6.85E-02
13384,5.60E-03,7.12E-02
13385,5.54E-03,7.29E-02
13386,5.55E-03,7.40E-02
13387,5.59E-03,7.45E-02
13388,5.65E-03,7.47E-02
13389,5.66E-03,7.46E-02
13390,5.68E-03,7.43E-02
13391,5.62E-03,7.38E-02
13392,5.59E-03,7.31E-02
13393,5.59E-03,7.24E-02
13394,5.69E-03,7.16E-02
13395,5.83E-03,7.08E-02
13396,6.09E-03,7.02E-02
13397,7.34E-03,6.91E-02
13398,5.65E-03,6.85E-02
13399,3.89E-03,6.82E-02
13400,3.24E-03,6.72E-02
13401,2.75E-03,6.64E-02
13402,1.96E-03,2.78E-02
13403,2.41E-03,2.74E-02
13404,2.72E-03,2.69E-02
13405,2.12E-03,2.63E-02
13406,1.96E-03,2.58E-02
9900,6.95E-04,4.46E-02
9901,2.61E-03,4.98E-02
10065,6.62E-04,2.83E-02
10066,6.62E-04,2.83E-02
10067,2.03E-03,0.53423
10068,2.03E-03,1.0924
10069,7.46E-04,3.72E-02
10070,6.70E-04,3.28E-02
10071,7.84E-04,4.99E-02
10072,8.63E-04,5.67E-02
10073,1.19E-03,4.44E-02
10074,1.19E-03,4.44E-02
10075,9.92E-04,3.97E-02
10076,9.92E-04,3.97E-02
10077,6.08E-04,6.14E-02
10078,1.60E-03,0.38222
10079,1.15E-03,6.11E-02
10080,2.01E-03,0.20602
10081,2.45E-03,0.10175
10082,1.50E-03,3.68E-02
10083,2.19E-03,8.69E-02
10084,2.44E-03,7.68E-02
10085,2.51E-03,7.08E-02
10086,1.85E-03,6.36E-02
10087,3.76E-03,4.86E-02
10088,2.25E-03,4.24E-02
10089,2.57E-03,4.65E-02
10090,2.34E-03,4.60E-02
10091,2.46E-03,4.70E-02
10092,2.63E-03,0.12868
13407,2.65E-03,2.21E-02
13408,2.66E-03,2.22E-02
13409,2.68E-03,2.23E-02
13410,2.69E-03,2.24E-02
13411,2.70E-03,2.24E-02
13412,2.71E-03,2.25E-02
13413,2.73E-03,2.26E-02
13414,2.65E-03,2.21E-02
13415,2.66E-03,2.22E-02
13416,2.67E-03,2.23E-02
13417,2.68E-03,2.24E-02
13418,2.70E-03,2.24E-02
13419,2.71E-03,2.25E-02
13420,2.72E-03,2.26E-02
13421,2.65E-03,2.21E-02
13422,2.66E-03,2.21E-02
13423,2.67E-03,2.22E-02
13424,2.68E-03,2.23E-02
13425,2.69E-03,2.25E-02
13426,2.71E-03,2.26E-02
13427,2.72E-03,2.27E-02
13428,2.64E-03,2.20E-02
13429,2.66E-03,2.21E-02
13430,2.67E-03,2.22E-02
13431,2.68E-03,2.23E-02
13432,2.69E-03,2.25E-02
13433,2.70E-03,2.26E-02
13434,2.72E-03,2.27E-02
13435,2.65E-03,2.19E-02
13436,2.66E-03,2.20E-02
13437,2.67E-03,2.21E-02
13438,2.68E-03,2.23E-02
13439,2.69E-03,2.24E-02
13440,2.70E-03,2.26E-02
13441,2.72E-03,2.27E-02
13442,2.65E-03,2.18E-02
13443,2.66E-03,2.20E-02
13444,2.67E-03,2.21E-02
13445,2.69E-03,2.22E-02
13446,2.70E-03,2.24E-02
13447,2.71E-03,2.25E-02
13448,2.72E-03,2.27E-02
13449,2.66E-03,2.17E-02
13450,2.67E-03,2.19E-02
13451,2.68E-03,2.20E-02
13452,2.69E-03,2.21E-02
13453,2.71E-03,2.23E-02
13454,2.72E-03,2.25E-02
13455,2.73E-03,2.27E-02
13456,2.67E-03,2.16E-02
13457,2.68E-03,2.17E-02
13458,2.69E-03,2.19E-02
13459,2.70E-03,2.20E-02
13460,2.72E-03,2.22E-02
13461,2.73E-03,2.24E-02
13462,2.74E-03,2.26E-02
13463,2.68E-03,2.14E-02
13464,2.70E-03,2.16E-02
13465,2.71E-03,2.17E-02
13466,2.72E-03,2.19E-02
13467,2.73E-03,2.21E-02
13468,2.74E-03,2.23E-02
13469,2.75E-03,2.25E-02
13470,2.70E-03,2.12E-02
13471,2.71E-03,2.14E-02
13472,2.72E-03,2.15E-02
13473,2.74E-03,2.17E-02
13474,2.75E-03,2.19E-02
13475,2.76E-03,2.22E-02
13476,2.77E-03,2.24E-02
13477,2.73E-03,2.10E-02
13478,2.74E-03,2.11E-02
13479,2.75E-03,2.12E-02
13480,2.76E-03,2.14E-02
13481,2.77E-03,2.17E-02
13482,2.78E-03,2.20E-02
13483,2.79E-03,2.23E-02
13484,2.76E-03,2.08E-02
13485,2.77E-03,2.08E-02
13486,2.78E-03,2.09E-02
13487,2.79E-03,2.11E-02
13488,2.80E-03,2.13E-02
13489,2.81E-03,2.17E-02
13490,2.82E-03,2.22E-02
13491,2.80E-03,2.07E-02
13492,2.81E-03,2.06E-02
13493,2.82E-03,2.06E-02
13494,2.83E-03,2.06E-02
13495,2.84E-03,2.07E-02
13496,2.84E-03,2.12E-02
13497,2.85E-03,2.19E-02
13498,2.91E-03,2.06E-02
13499,2.90E-03,2.05E-02
13500,2.89E-03,2.03E-02
13501,2.89E-03,2.02E-02
13502,2.88E-03,2.00E-02
13503,2.87E-03,1.98E-02
13504,2.86E-03,1.98E-02
13505,3.05E-03,2.05E-02
13506,3.05E-03,2.03E-02
13507,3.04E-03,2.01E-02
13508,3.04E-03,1.98E-02
13509,3.04E-03,1.92E-02
13510,3.04E-03,1.82E-02
13511,3.04E-03,1.69E-02
13512,3.11E-03,2.04E-02
13513,3.12E-03,2.02E-02
13514,3.14E-03,1.98E-02
13515,3.15E-03,1.93E-02
13516,3.17E-03,1.85E-02
13517,3.18E-03,1.75E-02
13518,3.19E-03,1.61E-02
13519,3.09E-03,2.03E-02
13520,3.11E-03,2.00E-02
13521,3.13E-03,1.96E-02
13522,3.14E-03,1.90E-02
13523,3.16E-03,1.84E-02
13524,3.17E-03,1.76E-02
13525,3.19E-03,1.68E-02
13526,3.06E-03,2.01E-02
13527,3.07E-03,1.98E-02
13528,3.09E-03,1.95E-02
13529,3.11E-03,1.90E-02
13530,3.12E-03,1.85E-02
13531,3.14E-03,1.79E-02
13532,3.15E-03,1.73E-02
13533,3.01E-03,2.00E-02
13534,3.02E-03,1.98E-02
13535,3.04E-03,1.95E-02
13536,3.06E-03,1.91E-02
13537,3.07E-03,1.87E-02
13538,3.09E-03,1.83E-02
13539,3.11E-03,1.79E-02
13540,2.95E-03,2.00E-02
13541,2.96E-03,1.98E-02
13542,2.98E-03,1.95E-02
13543,3.00E-03,1.93E-02
13544,3.02E-03,1.90E-02
13545,3.03E-03,1.87E-02
13546,3.05E-03,1.84E-02
13547,2.88E-03,2.00E-02
13548,2.90E-03,1.98E-02
13549,2.92E-03,1.97E-02
13550,2.93E-03,1.95E-02
13551,2.95E-03,1.93E-02
13552,2.97E-03,1.91E-02
13553,2.99E-03,1.89E-02
13554,2.81E-03,2.01E-02
13555,2.83E-03,2.00E-02
13556,2.85E-03,1.98E-02
13557,2.87E-03,1.97E-02
13558,2.88E-03,1.96E-02
13559,2.90E-03,1.95E-02
13560,2.92E-03,1.94E-02
13561,2.74E-03,2.01E-02
13562,2.76E-03,2.01E-02
13563,2.78E-03,2.00E-02
13564,2.79E-03,2.00E-02
13565,2.81E-03,1.99E-02
13566,2.83E-03,1.99E-02
13567,2.85E-03,1.99E-02
13568,2.67E-03,2.02E-02
13569,2.68E-03,2.02E-02
13570,2.70E-03,2.02E-02
13571,2.72E-03,2.02E-02
13572,2.74E-03,2.03E-02
13573,2.75E-03,2.03E-02
13574,2.77E-03,2.04E-02
13575,2.59E-03,2.03E-02
13576,2.61E-03,2.04E-02
13577,2.63E-03,2.04E-02
13578,2.65E-03,2.05E-02
13579,2.66E-03,2.06E-02
13580,2.68E-03,2.07E-02
13581,2.70E-03,2.09E-02
13582,2.53E-03,2.04E-02
13583,2.54E-03,2.05E-02
13584,2.56E-03,2.06E-02
13585,2.58E-03,2.07E-02
13586,2.59E-03,2.09E-02
13587,2.61E-03,2.11E-02
13588,2.63E-03,2.13E-02
13589,2.46E-03,2.05E-02
13590,2.48E-03,2.06E-02
13591,2.50E-03,2.07E-02
13592,2.51E-03,2.09E-02
13593,2.53E-03,2.11E-02
13594,2.55E-03,2.14E-02
13595,2.56E-03,2.16E-02
13596,2.41E-03,2.05E-02
13597,2.42E-03,2.06E-02
13598,2.44E-03,2.08E-02
13599,2.46E-03,2.10E-02
13600,2.47E-03,2.13E-02
13601,2.49E-03,2.16E-02
13602,2.50E-03,2.19E-02
13603,2.36E-03,2.06E-02
13604,2.38E-03,2.06E-02
13605,2.39E-03,2.07E-02
13606,2.41E-03,2.10E-02
13607,2.42E-03,2.13E-02
13608,2.44E-03,2.16E-02
13609,2.45E-03,2.21E-02
13610,2.33E-03,2.06E-02
13611,2.34E-03,2.06E-02
13612,2.36E-03,2.06E-02
13613,2.37E-03,2.08E-02
13614,2.38E-03,2.11E-02
13615,2.40E-03,2.15E-02
13616,2.41E-03,2.21E-02
13617,2.33E-03,2.07E-02
13618,2.34E-03,2.06E-02
13619,2.34E-03,2.05E-02
13620,2.35E-03,2.04E-02
13621,2.36E-03,2.05E-02
13622,2.37E-03,2.09E-02
13623,2.37E-03,2.17E-02
13624,2.44E-03,2.09E-02
13625,2.39E-03,2.07E-02
13626,2.35E-03,2.05E-02
13627,2.30E-03,2.00E-02
13628,2.26E-03,1.93E-02
13629,2.21E-03,1.83E-02
13630,2.16E-03,1.71E-02
13631,2.58E-03,2.11E-02
13632,2.59E-03,2.08E-02
13633,2.60E-03,2.03E-02
13634,2.61E-03,1.95E-02
13635,2.62E-03,1.80E-02
13636,2.63E-03,1.57E-02
13637,2.63E-03,1.27E-02
13638,2.46E-03,2.12E-02
13639,2.49E-03,2.09E-02
13640,2.51E-03,2.02E-02
13641,2.53E-03,1.92E-02
13642,2.56E-03,1.79E-02
13643,2.58E-03,1.62E-02
13644,2.60E-03,1.43E-02
13645,2.23E-03,2.13E-02
13646,2.25E-03,2.09E-02
13647,2.28E-03,2.04E-02
13648,2.30E-03,1.98E-02
13649,2.32E-03,1.92E-02
13650,2.35E-03,1.86E-02
13651,2.37E-03,1.81E-02
13652,2.01E-03,2.15E-02
13653,2.04E-03,2.13E-02
13654,2.06E-03,2.11E-02
13655,2.08E-03,2.10E-02
13656,2.11E-03,2.09E-02
13657,2.13E-03,2.09E-02
13658,2.15E-03,2.10E-02
13659,1.83E-03,2.20E-02
13660,1.86E-03,2.21E-02
13661,1.88E-03,2.22E-02
13662,1.90E-03,2.23E-02
13663,1.92E-03,2.25E-02
13664,1.95E-03,2.27E-02
13665,1.97E-03,2.30E-02
13666,1.67E-03,2.27E-02
13667,1.69E-03,2.30E-02
13668,1.71E-03,2.33E-02
13669,1.74E-03,2.36E-02
13670,1.76E-03,2.40E-02
13671,1.78E-03,2.44E-02
13672,1.80E-03,2.48E-02
13673,1.52E-03,2.36E-02
13674,1.54E-03,2.40E-02
13675,1.56E-03,2.45E-02
13676,1.59E-03,2.50E-02
13677,1.61E-03,2.55E-02
13678,1.63E-03,2.60E-02
13679,1.65E-03,2.66E-02
13680,1.39E-03,2.44E-02
13681,1.41E-03,2.49E-02
13682,1.43E-03,2.56E-02
13683,1.45E-03,2.62E-02
13684,1.47E-03,2.70E-02
13685,1.49E-03,2.78E-02
13686,1.51E-03,2.86E-02
13687,1.28E-03,2.51E-02
13688,1.30E-03,2.57E-02
13689,1.31E-03,2.65E-02
13690,1.33E-03,2.74E-02
13691,1.35E-03,2.84E-02
13692,1.36E-03,2.95E-02
13693,1.38E-03,3.07E-02
13694,1.22E-03,2.56E-02
13695,1.22E-03,2.63E-02
13696,1.23E-03,2.71E-02
13697,1.24E-03,2.82E-02
13698,1.25E-03,2.94E-02
13699,1.26E-03,3.09E-02
13700,1.27E-03,3.26E-02
13701,1.23E-03,2.60E-02
13702,1.23E-03,2.66E-02
13703,1.22E-03,2.74E-02
13704,1.21E-03,2.83E-02
13705,1.20E-03,2.95E-02
13706,1.19E-03,3.08E-02
13707,1.18E-03,3.24E-02
13708,1.38E-03,2.59E-02
13709,1.35E-03,2.64E-02
13710,1.31E-03,2.69E-02
13711,1.28E-03,2.73E-02
13712,1.25E-03,2.76E-02
13713,1.22E-03,2.77E-02
13714,1.18E-03,2.77E-02
13715,1.57E-03,2.52E-02
13716,1.55E-03,2.53E-02
13717,1.54E-03,2.53E-02
13718,1.53E-03,2.51E-02
13719,1.51E-03,2.47E-02
13720,1.50E-03,2.40E-02
13721,1.48E-03,2.30E-02
13722,1.68E-03,2.40E-02
13723,1.67E-03,2.40E-02
13724,1.67E-03,2.37E-02
13725,1.66E-03,2.34E-02
13726,1.65E-03,2.29E-02
13727,1.64E-03,2.24E-02
13728,1.64E-03,2.19E-02
13729,1.76E-03,2.31E-02
13730,1.76E-03,2.30E-02
13731,1.76E-03,2.27E-02
13732,1.75E-03,2.25E-02
13733,1.75E-03,2.22E-02
13734,1.74E-03,2.18E-02
13735,1.74E-03,2.15E-02
13736,1.83E-03,2.24E-02
13737,1.83E-03,2.23E-02
13738,1.83E-03,2.22E-02
13739,1.83E-03,2.20E-02
13740,1.82E-03,2.19E-02
13741,1.82E-03,2.16E-02
13742,1.82E-03,2.14E-02
13743,1.88E-03,2.20E-02
13744,1.88E-03,2.20E-02
13745,1.88E-03,2.19E-02
13746,1.88E-03,2.18E-02
13747,1.88E-03,2.17E-02
13748,1.88E-03,2.17E-02
13749,1.88E-03,2.16E-02
13750,1.93E-03,2.17E-02
13751,1.93E-03,2.17E-02
13752,1.93E-03,2.17E-02
13753,1.93E-03,2.17E-02
13754,1.93E-03,2.17E-02
13755,1.93E-03,2.18E-02
13756,1.93E-03,2.18E-02
13757,1.98E-03,2.13E-02
13758,1.98E-03,2.14E-02
13759,1.98E-03,2.15E-02
13760,1.98E-03,2.16E-02
13761,1.98E-03,2.17E-02
13762,1.98E-03,2.19E-02
13763,1.98E-03,2.20E-02
13764,2.04E-03,2.10E-02
13765,2.03E-03,2.11E-02
13766,2.03E-03,2.13E-02
13767,2.03E-03,2.15E-02
13768,2.03E-03,2.17E-02
13769,2.03E-03,2.20E-02
13770,2.03E-03,2.23E-02
13771,2.10E-03,2.06E-02
13772,2.10E-03,2.08E-02
13773,2.09E-03,2.10E-02
13774,2.09E-03,2.13E-02
13775,2.08E-03,2.17E-02
13776,2.08E-03,2.21E-02
13777,2.08E-03,2.26E-02
13778,2.18E-03,2.02E-02
13779,2.17E-03,2.04E-02
13780,2.16E-03,2.06E-02
13781,2.15E-03,2.09E-02
13782,2.15E-03,2.14E-02
13783,2.14E-03,2.20E-02
13784,2.13E-03,2.28E-02
13785,2.28E-03,1.98E-02
13786,2.27E-03,1.99E-02
13787,2.25E-03,2.01E-02
13788,2.23E-03,2.04E-02
13789,2.21E-03,2.08E-02
13790,2.20E-03,2.16E-02
13791,2.18E-03,2.28E-02
13792,2.48E-03,1.95E-02
13793,2.40E-03,1.96E-02
13794,2.32E-03,1.96E-02
13795,2.24E-03,1.97E-02
13796,2.16E-03,1.98E-02
13797,2.09E-03,2.00E-02
13798,2.01E-03,2.02E-02
13799,2.78E-03,1.93E-02
13800,2.72E-03,1.92E-02
13801,2.66E-03,1.91E-02
13802,2.60E-03,1.88E-02
13803,2.54E-03,1.82E-02
13804,2.48E-03,1.73E-02
13805,2.41E-03,1.59E-02
13806,3.03E-03,1.90E-02
13807,3.00E-03,1.88E-02
13808,2.97E-03,1.83E-02
13809,2.94E-03,1.76E-02
13810,2.91E-03,1.65E-02
13811,2.89E-03,1.51E-02
13812,2.86E-03,1.36E-02
13813,3.20E-03,1.87E-02
13814,3.18E-03,1.83E-02
13815,3.17E-03,1.77E-02
13816,3.15E-03,1.68E-02
13817,3.14E-03,1.55E-02
13818,3.13E-03,1.41E-02
13819,3.11E-03,1.26E-02
13820,3.32E-03,1.84E-02
13821,3.31E-03,1.80E-02
13822,3.31E-03,1.73E-02
13823,3.31E-03,1.64E-02
13824,3.30E-03,1.52E-02
13825,3.30E-03,1.37E-02
13826,3.29E-03,1.20E-02
13827,3.38E-03,1.82E-02
13828,3.39E-03,1.78E-02
13829,3.40E-03,1.72E-02
13830,3.41E-03,1.64E-02
13831,3.42E-03,1.52E-02
13832,3.43E-03,1.36E-02
13833,3.44E-03,1.17E-02
13834,3.34E-03,1.79E-02
13835,3.37E-03,1.76E-02
13836,3.40E-03,1.72E-02
13837,3.43E-03,1.66E-02
13838,3.46E-03,1.58E-02
13839,3.48E-03,1.45E-02
13840,3.51E-03,1.26E-02
13841,3.15E-03,1.76E-02
13842,3.18E-03,1.73E-02
13843,3.21E-03,1.71E-02
13844,3.24E-03,1.68E-02
13845,3.28E-03,1.66E-02
13846,3.31E-03,1.64E-02
13847,3.34E-03,1.66E-02
13848,2.97E-03,1.73E-02
13849,2.99E-03,1.71E-02
13850,3.02E-03,1.70E-02
13851,3.04E-03,1.70E-02
13852,3.06E-03,1.75E-02
13853,3.08E-03,1.87E-02
13854,3.10E-03,2.11E-02
13855,2.97E-03,1.71E-02
13856,2.96E-03,1.70E-02
13857,2.96E-03,1.71E-02
13858,2.95E-03,1.75E-02
13859,2.95E-03,1.83E-02
13860,2.94E-03,1.96E-02
13861,2.94E-03,2.15E-02
13862,3.08E-03,1.70E-02
13863,3.06E-03,1.71E-02
13864,3.04E-03,1.74E-02
13865,3.02E-03,1.79E-02
13866,3.00E-03,1.85E-02
13867,2.98E-03,1.91E-02
13868,2.96E-03,1.96E-02
13869,3.21E-03,1.71E-02
13870,3.20E-03,1.73E-02
13871,3.19E-03,1.75E-02
13872,3.18E-03,1.78E-02
13873,3.16E-03,1.80E-02
13874,3.15E-03,1.80E-02
13875,3.14E-03,1.78E-02
13876,3.32E-03,1.71E-02
13877,3.31E-03,1.73E-02
13878,3.31E-03,1.74E-02
13879,3.30E-03,1.75E-02
13880,3.30E-03,1.75E-02
13881,3.29E-03,1.73E-02
13882,3.28E-03,1.70E-02
13883,3.41E-03,1.71E-02
13884,3.41E-03,1.71E-02
13885,3.40E-03,1.72E-02
13886,3.40E-03,1.72E-02
13887,3.40E-03,1.71E-02
13888,3.40E-03,1.69E-02
13889,3.40E-03,1.66E-02
13890,3.49E-03,1.69E-02
13891,3.49E-03,1.70E-02
13892,3.49E-03,1.70E-02
13893,3.49E-03,1.69E-02
13894,3.49E-03,1.68E-02
13895,3.49E-03,1.66E-02
13896,3.49E-03,1.64E-02
13897,3.55E-03,1.67E-02
13898,3.55E-03,1.67E-02
13899,3.56E-03,1.67E-02
13900,3.56E-03,1.67E-02
13901,3.56E-03,1.66E-02
13902,3.56E-03,1.65E-02
13903,3.57E-03,1.64E-02
13904,3.61E-03,1.65E-02
13905,3.62E-03,1.65E-02
13906,3.62E-03,1.65E-02
13907,3.62E-03,1.65E-02
13908,3.63E-03,1.65E-02
13909,3.63E-03,1.65E-02
13910,3.63E-03,1.65E-02
13911,3.67E-03,1.62E-02
13912,3.67E-03,1.63E-02
13913,3.68E-03,1.63E-02
13914,3.68E-03,1.63E-02
13915,3.68E-03,1.64E-02
13916,3.69E-03,1.65E-02
13917,3.69E-03,1.66E-02
13918,3.73E-03,1.60E-02
13919,3.73E-03,1.60E-02
13920,3.73E-03,1.60E-02
13921,3.73E-03,1.61E-02
13922,3.74E-03,1.63E-02
13923,3.74E-03,1.65E-02
13924,3.74E-03,1.68E-02
13925,3.79E-03,1.57E-02
13926,3.79E-03,1.57E-02
13927,3.79E-03,1.57E-02
13928,3.79E-03,1.59E-02
13929,3.79E-03,1.61E-02
13930,3.79E-03,1.65E-02
13931,3.79E-03,1.70E-02
13932,3.87E-03,1.55E-02
13933,3.86E-03,1.54E-02
13934,3.86E-03,1.54E-02
13935,3.85E-03,1.55E-02
13936,3.84E-03,1.58E-02
13937,3.84E-03,1.64E-02
13938,3.83E-03,1.71E-02
13939,3.97E-03,1.52E-02
13940,3.96E-03,1.52E-02
13941,3.94E-03,1.51E-02
13942,3.92E-03,1.51E-02
13943,3.90E-03,1.53E-02
13944,3.88E-03,1.59E-02
13945,3.86E-03,1.70E-02
13946,4.15E-03,1.51E-02
13947,4.06E-03,1.50E-02
13948,3.97E-03,1.49E-02
13949,3.88E-03,1.48E-02
13950,3.79E-03,1.48E-02
13951,3.70E-03,1.50E-02
13952,3.62E-03,1.54E-02
13953,4.44E-03,1.50E-02
13954,4.33E-03,1.48E-02
13955,4.23E-03,1.47E-02
13956,4.12E-03,1.45E-02
13957,4.02E-03,1.42E-02
13958,3.91E-03,1.36E-02
13959,3.81E-03,1.25E-02
13960,4.72E-03,1.49E-02
13961,4.68E-03,1.47E-02
13962,4.64E-03,1.45E-02
13963,4.61E-03,1.41E-02
13964,4.57E-03,1.34E-02
13965,4.53E-03,1.22E-02
13966,4.49E-03,1.06E-02
13967,4.90E-03,1.48E-02
13968,4.88E-03,1.46E-02
13969,4.86E-03,1.43E-02
13970,4.84E-03,1.37E-02
13971,4.82E-03,1.27E-02
13972,4.80E-03,1.14E-02
13973,4.79E-03,9.92E-03
13974,5.02E-03,1.47E-02
13975,5.02E-03,1.45E-02
13976,5.02E-03,1.40E-02
13977,5.02E-03,1.33E-02
13978,5.01E-03,1.23E-02
13979,5.01E-03,1.10E-02
13980,5.01E-03,9.57E-03
13981,5.10E-03,1.46E-02
13982,5.11E-03,1.43E-02
13983,5.13E-03,1.38E-02
13984,5.14E-03,1.31E-02
13985,5.15E-03,1.21E-02
13986,5.17E-03,1.09E-02
13987,5.18E-03,9.48E-03
13988,5.12E-03,1.44E-02
13989,5.14E-03,1.41E-02
13990,5.17E-03,1.37E-02
13991,5.20E-03,1.30E-02
13992,5.22E-03,1.21E-02
13993,5.25E-03,1.10E-02
13994,5.27E-03,9.70E-03
13995,5.08E-03,1.42E-02
13996,5.12E-03,1.39E-02
13997,5.15E-03,1.36E-02
13998,5.19E-03,1.30E-02
13999,5.22E-03,1.23E-02
14000,5.25E-03,1.13E-02
14001,5.29E-03,1.02E-02
14002,5.01E-03,1.40E-02
14003,5.05E-03,1.37E-02
14004,5.09E-03,1.35E-02
14005,5.13E-03,1.31E-02
14006,5.16E-03,1.26E-02
14007,5.20E-03,1.19E-02
14008,5.24E-03,1.10E-02
14009,4.89E-03,1.37E-02
14010,4.94E-03,1.35E-02
14011,4.98E-03,1.33E-02
14012,5.02E-03,1.31E-02
14013,5.06E-03,1.29E-02
14014,5.10E-03,1.26E-02
14015,5.15E-03,1.22E-02
14016,4.77E-03,1.34E-02
14017,4.81E-03,1.32E-02
14018,4.85E-03,1.31E-02
14019,4.89E-03,1.31E-02
14020,4.94E-03,1.32E-02
14021,4.98E-03,1.34E-02
14022,5.02E-03,1.37E-02
14023,4.65E-03,1.32E-02
14024,4.69E-03,1.30E-02
14025,4.73E-03,1.28E-02
14026,4.77E-03,1.29E-02
14027,4.81E-03,1.33E-02
14028,4.85E-03,1.41E-02
14029,4.89E-03,1.54E-02
14030,4.57E-03,1.30E-02
14031,4.60E-03,1.28E-02
14032,4.63E-03,1.26E-02
14033,4.66E-03,1.27E-02
14034,4.69E-03,1.31E-02
14035,4.72E-03,1.45E-02
14036,4.75E-03,1.70E-02
14037,4.60E-03,1.28E-02
14038,4.55E-03,1.27E-02
14039,4.49E-03,1.26E-02
14040,4.43E-03,1.26E-02
14041,4.38E-03,1.30E-02
14042,4.32E-03,1.42E-02
14043,4.27E-03,1.68E-02
14044,4.84E-03,1.28E-02
14045,4.63E-03,1.27E-02
14046,4.42E-03,1.27E-02
14047,4.20E-03,1.28E-02
14048,3.99E-03,1.30E-02
14049,3.78E-03,1.32E-02
14050,3.56E-03,1.31E-02
14051,5.28E-03,1.28E-02
14052,5.16E-03,1.28E-02
14053,5.04E-03,1.28E-02
14054,4.93E-03,1.29E-02
14055,4.81E-03,1.26E-02
14056,4.69E-03,1.15E-02
14057,4.57E-03,9.05E-03
14058,5.55E-03,1.29E-02
14059,5.54E-03,1.29E-02
14060,5.54E-03,1.29E-02
14061,5.54E-03,1.27E-02
14062,5.53E-03,1.19E-02
14063,5.53E-03,1.01E-02
14064,5.53E-03,7.66E-03
14065,5.59E-03,1.29E-02
14066,5.63E-03,1.29E-02
14067,5.66E-03,1.28E-02
14068,5.69E-03,1.24E-02
14069,5.72E-03,1.14E-02
14070,5.75E-03,9.89E-03
14071,5.78E-03,7.92E-03
14072,5.54E-03,1.28E-02
14073,5.57E-03,1.28E-02
14074,5.61E-03,1.26E-02
14075,5.65E-03,1.21E-02
14076,5.69E-03,1.13E-02
14077,5.73E-03,1.02E-02
14078,5.77E-03,8.73E-03
14079,5.43E-03,1.27E-02
14080,5.47E-03,1.26E-02
14081,5.51E-03,1.23E-02
14082,5.56E-03,1.20E-02
14083,5.60E-03,1.14E-02
14084,5.64E-03,1.06E-02
14085,5.68E-03,9.74E-03
14086,5.30E-03,1.24E-02
14087,5.35E-03,1.23E-02
14088,5.39E-03,1.21E-02
14089,5.43E-03,1.18E-02
14090,5.47E-03,1.15E-02
14091,5.52E-03,1.12E-02
14092,5.56E-03,1.09E-02
14093,5.19E-03,1.22E-02
14094,5.23E-03,1.20E-02
14095,5.27E-03,1.18E-02
14096,5.31E-03,1.17E-02
14097,5.35E-03,1.16E-02
14098,5.39E-03,1.17E-02
14099,5.43E-03,1.20E-02
14100,5.10E-03,1.19E-02
14101,5.14E-03,1.17E-02
14102,5.17E-03,1.16E-02
14103,5.21E-03,1.16E-02
14104,5.24E-03,1.17E-02
14105,5.28E-03,1.21E-02
14106,5.31E-03,1.29E-02
14107,5.05E-03,1.16E-02
14108,5.08E-03,1.14E-02
14109,5.11E-03,1.14E-02
14110,5.13E-03,1.14E-02
14111,5.16E-03,1.17E-02
14112,5.19E-03,1.24E-02
14113,5.22E-03,1.35E-02
14114,5.04E-03,1.14E-02
14115,5.06E-03,1.12E-02
14116,5.08E-03,1.12E-02
14117,5.09E-03,1.13E-02
14118,5.11E-03,1.17E-02
14119,5.13E-03,1.24E-02
14120,5.14E-03,1.36E-02
14121,5.09E-03,1.11E-02
14122,5.09E-03,1.10E-02
14123,5.08E-03,1.10E-02
14124,5.08E-03,1.11E-02
14125,5.08E-03,1.15E-02
14126,5.08E-03,1.22E-02
14127,5.08E-03,1.33E-02
14128,5.19E-03,1.10E-02
14129,5.17E-03,1.08E-02
14130,5.15E-03,1.08E-02
14131,5.13E-03,1.09E-02
14132,5.11E-03,1.13E-02
14133,5.10E-03,1.18E-02
14134,5.08E-03,1.26E-02
14135,5.32E-03,1.08E-02
14136,5.29E-03,1.07E-02
14137,5.27E-03,1.06E-02
14138,5.24E-03,1.07E-02
14139,5.22E-03,1.09E-02
14140,5.19E-03,1.12E-02
14141,5.17E-03,1.17E-02
14142,5.47E-03,1.07E-02
14143,5.44E-03,1.05E-02
14144,5.40E-03,1.04E-02
14145,5.37E-03,1.04E-02
14146,5.33E-03,1.04E-02
14147,5.30E-03,1.06E-02
14148,5.26E-03,1.08E-02
14149,5.65E-03,1.06E-02
14150,5.60E-03,1.04E-02
14151,5.55E-03,1.02E-02
14152,5.50E-03,1.00E-02
14153,5.44E-03,9.90E-03
14154,5.39E-03,9.84E-03
14155,5.34E-03,9.89E-03
14156,5.85E-03,1.05E-02
14157,5.79E-03,1.02E-02
14158,5.73E-03,9.89E-03
14159,5.67E-03,9.61E-03
14160,5.61E-03,9.34E-03
14161,5.54E-03,9.09E-03
14162,5.48E-03,8.88E-03
14163,6.07E-03,1.04E-02
14164,6.01E-03,1.00E-02
14165,5.94E-03,9.60E-03
14166,5.88E-03,9.19E-03
14167,5.82E-03,8.77E-03
14168,5.75E-03,8.33E-03
14169,5.69E-03,7.92E-03
14170,6.30E-03,1.03E-02
14171,6.23E-03,9.81E-03
14172,6.17E-03,9.31E-03
14173,6.10E-03,8.76E-03
14174,6.04E-03,8.18E-03
14175,5.98E-03,7.60E-03
14176,5.91E-03,7.08E-03
14177,6.52E-03,1.02E-02
14178,6.45E-03,9.63E-03
14179,6.39E-03,9.02E-03
14180,6.32E-03,8.33E-03
14181,6.25E-03,7.60E-03
14182,6.18E-03,6.89E-03
14183,6.11E-03,6.30E-03
14184,6.76E-03,1.01E-02
14185,6.68E-03,9.47E-03
14186,6.59E-03,8.74E-03
14187,6.51E-03,7.93E-03
14188,6.42E-03,7.06E-03
14189,6.34E-03,6.20E-03
14190,6.26E-03,5.50E-03
14191,7.02E-03,1.00E-02
14192,6.90E-03,9.31E-03
14193,6.78E-03,8.48E-03
14194,6.66E-03,7.55E-03
14195,6.54E-03,6.55E-03
14196,6.41E-03,5.52E-03
14197,6.29E-03,4.60E-03
14198,7.33E-03,9.98E-03
14199,7.20E-03,9.17E-03
14200,7.06E-03,8.25E-03
14201,6.93E-03,7.20E-03
14202,6.79E-03,6.06E-03
14203,6.66E-03,4.85E-03
14204,6.52E-03,3.67E-03
14205,7.66E-03,9.94E-03
14206,7.52E-03,9.05E-03
14207,7.38E-03,8.04E-03
14208,7.25E-03,6.89E-03
14209,7.11E-03,5.60E-03
14210,6.97E-03,4.21E-03
14211,6.83E-03,2.84E-03
14212,7.99E-03,9.92E-03
14213,7.85E-03,8.96E-03
14214,7.71E-03,7.86E-03
14215,7.57E-03,6.61E-03
14216,7.43E-03,5.19E-03
14217,7.29E-03,3.66E-03
14218,7.15E-03,2.15E-03
14219,8.31E-03,9.91E-03
14220,8.18E-03,8.89E-03
14221,8.04E-03,7.71E-03
14222,7.90E-03,6.37E-03
14223,7.76E-03,4.85E-03
14224,7.62E-03,3.21E-03
14225,7.48E-03,1.63E-03
14226,8.64E-03,9.92E-03
14227,8.50E-03,8.84E-03
14228,8.36E-03,7.60E-03
14229,8.22E-03,6.17E-03
14230,8.08E-03,4.58E-03
14231,7.94E-03,2.89E-03
14232,7.80E-03,1.37E-03
14233,8.98E-03,9.95E-03
14234,8.83E-03,8.82E-03
14235,8.69E-03,7.51E-03
14236,8.55E-03,6.03E-03
14237,8.41E-03,4.40E-03
14238,8.27E-03,2.72E-03
14239,8.13E-03,1.46E-03
14240,9.31E-03,1.00E-02
14241,9.17E-03,8.82E-03
14242,9.02E-03,7.47E-03
14243,8.88E-03,5.95E-03
14244,8.74E-03,4.31E-03
14245,8.60E-03,2.70E-03
14246,8.46E-03,1.82E-03
14247,9.64E-03,1.01E-02
14248,9.50E-03,8.84E-03
14249,9.36E-03,7.45E-03
14250,9.21E-03,5.92E-03
14251,9.07E-03,4.30E-03
14252,8.93E-03,2.84E-03
14253,8.79E-03,2.32E-03
14254,9.97E-03,1.01E-02
14255,9.83E-03,8.88E-03
14256,9.69E-03,7.47E-03
14257,9.54E-03,5.94E-03
14258,9.40E-03,4.37E-03
14259,9.26E-03,3.09E-03
14260,9.12E-03,2.90E-03
14261,1.03E-02,1.02E-02
14262,1.02E-02,8.95E-03
14263,1.00E-02,7.52E-03
14264,9.87E-03,5.99E-03
14265,9.73E-03,4.51E-03
14266,9.59E-03,3.43E-03
14267,9.45E-03,3.52E-03
14268,1.06E-02,1.03E-02
14269,1.05E-02,9.04E-03
14270,1.03E-02,7.60E-03
14271,1.02E-02,6.09E-03
14272,1.01E-02,4.68E-03
14273,9.91E-03,3.81E-03
14274,9.77E-03,4.18E-03
14275,1.10E-02,1.05E-02
14276,1.08E-02,9.14E-03
14277,1.06E-02,7.70E-03
14278,1.04E-02,6.21E-03
14279,1.02E-02,4.87E-03
14280,1.00E-02,4.18E-03
14281,9.82E-03,4.82E-03
14282,1.13E-02,1.06E-02
14283,1.10E-02,9.25E-03
14284,1.06E-02,7.79E-03
14285,1.03E-02,6.32E-03
14286,9.99E-03,5.06E-03
14287,9.65E-03,4.54E-03
14288,9.32E-03,5.25E-03
14289,1.18E-02,1.07E-02
14290,1.15E-02,9.37E-03
14291,1.13E-02,7.90E-03
14292,1.10E-02,6.44E-03
14293,1.07E-02,5.28E-03
14294,1.04E-02,4.95E-03
14295,1.02E-02,5.45E-03
14296,1.22E-02,1.09E-02
14297,1.21E-02,9.51E-03
14298,1.19E-02,8.06E-03
14299,1.18E-02,6.64E-03
14300,1.16E-02,5.60E-03
14301,1.15E-02,5.37E-03
14302,1.13E-02,5.79E-03
14303,1.26E-02,1.11E-02
14304,1.25E-02,9.69E-03
14305,1.23E-02,8.26E-03
14306,1.22E-02,6.90E-03
14307,1.20E-02,5.97E-03
14308,1.19E-02,5.81E-03
14309,1.18E-02,6.35E-03
14310,1.29E-02,1.12E-02
14311,1.28E-02,9.88E-03
14312,1.27E-02,8.48E-03
14313,1.25E-02,7.20E-03
14314,1.24E-02,6.37E-03
14315,1.23E-02,6.29E-03
14316,1.21E-02,6.97E-03
14317,1.33E-02,1.14E-02
14318,1.31E-02,1.01E-02
14319,1.30E-02,8.72E-03
14320,1.29E-02,7.52E-03
14321,1.27E-02,6.79E-03
14322,1.26E-02,6.80E-03
14323,1.25E-02,7.62E-03
14324,1.36E-02,1.16E-02
14325,1.35E-02,1.03E-02
14326,1.33E-02,8.97E-03
14327,1.32E-02,7.86E-03
14328,1.31E-02,7.22E-03
14329,1.29E-02,7.33E-03
14330,1.28E-02,8.30E-03
14331,1.39E-02,1.18E-02
14332,1.38E-02,1.05E-02
14333,1.37E-02,9.24E-03
14334,1.35E-02,8.20E-03
14335,1.34E-02,7.66E-03
14336,1.33E-02,7.89E-03
14337,1.31E-02,9.02E-03
14338,1.42E-02,1.20E-02
14339,1.41E-02,1.07E-02
14340,1.40E-02,9.51E-03
14341,1.39E-02,8.55E-03
14342,1.37E-02,8.10E-03
14343,1.36E-02,8.46E-03
14344,1.35E-02,9.79E-03
14345,1.46E-02,1.22E-02
14346,1.44E-02,1.09E-02
14347,1.43E-02,9.78E-03
14348,1.42E-02,8.88E-03
14349,1.41E-02,8.51E-03
14350,1.39E-02,9.02E-03
14351,1.38E-02,1.06E-02
14352,1.49E-02,1.23E-02
14353,1.48E-02,1.11E-02
14354,1.46E-02,1.00E-02
14355,1.45E-02,9.14E-03
14356,1.44E-02,8.86E-03
14357,1.42E-02,9.53E-03
14358,1.41E-02,1.15E-02
14379,7.00E-03,6.93E-03
14380,7.68E-03,7.00E-03
14381,7.74E-03,7.39E-03
14382,6.71E-03,7.24E-03
14383,5.95E-03,1.25E-02
14384,6.73E-03,1.24E-02
14385,3.55E-03,1.25E-02
14386,4.87E-03,1.23E-02
14387,4.39E-03,1.23E-02
14388,3.29E-03,1.25E-02
14389,3.46E-03,1.25E-02
14390,1.63E-02,9.17E-03
14391,6.85E-03,9.80E-03
14392,5.60E-03,1.27E-02
14393,6.65E-03,1.28E-02
14394,5.34E-03,1.52E-02
14395,4.81E-03,1.47E-02
14396,4.82E-03,1.49E-02
14397,4.88E-03,1.54E-02
14398,4.45E-03,1.58E-02
14399,5.14E-03,1.59E-02
14400,3.87E-03,1.06E-02
14401,6.00E-03,1.02E-02
14402,4.82E-03,1.05E-02
14403,5.03E-03,4.74E-03
14404,5.00E-03,4.57E-03
14405,4.14E-03,4.80E-03
14406,4.93E-03,4.99E-03
14407,5.41E-03,9.94E-03
14408,7.14E-03,1.03E-02
14409,6.23E-03,1.04E-02
14410,7.32E-03,9.72E-03
14411,3.39E-03,1.27E-02
14412,6.01E-03,1.26E-02
14413,4.36E-03,1.25E-02
14414,2.03E-03,1.26E-02
14415,3.43E-03,1.27E-02
14416,4.74E-03,5.15E-03
14417,6.41E-03,5.48E-03
14418,7.27E-03,7.95E-03
14419,5.01E-03,7.66E-03
14420,6.42E-03,7.63E-03
14421,7.23E-03,7.74E-03
14422,5.08E-03,1.51E-02
14423,3.22E-03,1.49E-02
14424,5.60E-03,1.16E-02
14425,3.42E-03,1.17E-02
14426,4.22E-03,1.26E-02
14427,4.70E-03,1.27E-02
14428,6.10E-03,1.26E-02
14429,5.84E-03,1.25E-02
14430,4.79E-03,1.08E-02
14431,4.08E-03,1.12E-02
14432,4.15E-03,1.11E-02
14433,7.32E-03,1.02E-02
14434,6.29E-03,1.07E-02
14435,5.92E-03,2.64E-03
14436,5.85E-03,2.29E-03
14437,7.24E-03,6.69E-03
14438,6.49E-03,6.63E-03
14439,7.57E-03,6.87E-03
14440,7.79E-03,7.11E-03
14441,6.09E-03,6.78E-03
14442,5.62E-03,9.18E-03
14443,5.50E-03,9.44E-03
14444,5.53E-03,8.95E-03
14445,5.79E-03,5.26E-03
14446,4.61E-03,5.41E-03
14447,5.81E-03,4.69E-03
14448,5.49E-03,4.86E-03
14449,6.75E-03,5.11E-03
14450,7.18E-03,5.47E-03
14451,7.19E-03,5.44E-03
14452,6.28E-03,5.76E-03
14453,5.53E-03,1.41E-02
14454,5.57E-03,1.36E-02
14455,5.35E-03,1.33E-02
14456,5.06E-03,1.39E-02
14457,4.31E-03,1.48E-02
14458,4.81E-03,1.46E-02
14459,6.68E-03,8.83E-03
14460,6.24E-03,8.97E-03
14461,6.42E-03,5.32E-03
14462,4.36E-03,5.06E-03
14463,7.73E-03,8.76E-03
14464,8.45E-03,8.61E-03
14465,7.21E-03,5.44E-03
14466,5.10E-03,8.10E-03
14467,4.86E-03,7.81E-03
14468,7.30E-03,2.07E-02
14469,6.46E-03,1.98E-02
14470,6.48E-03,1.27E-02
14471,6.53E-03,1.26E-02
14472,6.37E-03,1.28E-02
14473,6.63E-03,1.01E-02
14474,6.19E-03,9.83E-03
14475,5.04E-03,1.34E-02
14476,5.33E-03,1.35E-02
14477,4.49E-03,1.32E-02
14478,4.53E-03,1.32E-02
14479,4.66E-03,1.08E-02
14480,4.36E-03,1.10E-02
14481,7.07E-03,1.21E-02
14482,5.65E-03,1.22E-02
14483,6.12E-03,1.18E-02
14484,4.73E-03,1.26E-02
14485,6.69E-03,1.31E-02
14486,4.94E-03,1.34E-02
14487,6.27E-03,1.28E-02
14488,7.02E-03,1.29E-02
14489,3.15E-03,8.86E-03
14490,3.71E-03,8.84E-03
14491,3.84E-03,9.12E-03
14492,4.70E-03,5.37E-03
14493,4.53E-03,5.32E-03
14494,5.08E-03,5.67E-03
14495,5.72E-03,5.77E-03
14496,4.88E-03,7.61E-03
14497,8.56E-03,7.38E-03
14498,3.36E-03,3.71E-03
14499,3.59E-03,3.85E-03
14500,3.41E-03,3.63E-03
14501,2.90E-03,7.88E-03
14502,3.15E-03,7.68E-03
14503,2.85E-03,7.74E-03
14504,3.95E-03,8.71E-03
14505,4.86E-03,9.02E-03
14506,4.09E-03,8.86E-03
14507,2.02E-03,1.30E-02
14508,2.75E-03,1.31E-02
14509,2.80E-03,1.32E-02
14510,3.39E-03,2.12E-02
14511,3.43E-03,2.15E-02
14512,4.18E-03,2.09E-02
14513,2.74E-03,1.37E-02
14514,2.97E-03,1.37E-02
14515,2.38E-03,1.37E-02
14516,7.69E-03,1.02E-02
14517,7.05E-03,8.09E-03
14518,6.90E-03,8.01E-03
14519,7.41E-03,7.27E-03
14520,4.93E-03,1.17E-02
14521,4.09E-03,1.15E-02
14522,5.44E-03,1.13E-02
14523,4.44E-03,1.12E-02
14524,6.57E-03,9.65E-03
14525,6.05E-03,9.61E-03
14526,4.66E-03,1.59E-02
14527,4.00E-03,1.58E-02
14528,4.23E-03,1.63E-02
14529,4.24E-03,1.64E-02
14530,4.91E-03,2.51E-03
14531,6.00E-03,2.81E-03
14532,5.93E-03,2.71E-03
14533,5.05E-03,3.02E-03
14534,4.58E-03,1.60E-02
14535,4.66E-03,1.58E-02
14536,4.46E-03,1.56E-02
14537,4.55E-03,1.54E-02
14538,4.96E-03,2.05E-03
14539,4.98E-03,2.13E-03
14540,4.99E-03,2.38E-03
14541,5.00E-03,2.31E-03
14542,6.65E-03,1.17E-02
14543,8.43E-03,1.16E-02
14544,6.42E-03,1.15E-02
14545,4.86E-03,1.12E-02
14546,5.70E-03,2.08E-02
14547,7.11E-03,2.05E-02
14548,6.03E-03,1.95E-02
14549,5.69E-03,1.98E-02
14550,6.57E-03,1.18E-02
14551,8.86E-03,1.16E-02
14552,1.28E-02,1.02E-02
14553,8.53E-03,1.09E-02
14554,5.14E-03,1.53E-02
14555,1.14E-02,1.10E-02
14556,1.23E-02,1.27E-02
14557,3.84E-03,1.31E-02
14558,5.57E-03,1.75E-02
14559,4.31E-03,1.83E-02
14560,5.61E-03,1.35E-02
14561,5.56E-03,1.37E-02
14562,5.92E-03,1.47E-02
14563,5.88E-03,1.47E-02
14564,4.11E-03,1.07E-02
14565,5.71E-03,1.04E-02
14566,5.24E-03,9.52E-03
14567,5.43E-03,9.96E-03
14568,4.71E-03,6.74E-03
14569,4.45E-03,6.61E-03
14570,5.12E-03,7.03E-03
14571,5.11E-03,7.15E-03
14572,4.92E-03,6.85E-03
14573,3.48E-03,1.03E-02
14574,4.28E-03,9.71E-03
14575,3.37E-03,1.00E-02
14576,5.49E-03,5.90E-03
14577,5.58E-03,5.87E-03
14578,5.77E-03,5.87E-03
14579,5.15E-03,1.07E-02
14580,5.14E-03,1.03E-02
14581,4.60E-03,4.67E-03
14582,4.60E-03,4.35E-03
14583,4.50E-03,4.28E-03
14584,4.53E-03,4.58E-03
14585,4.67E-03,5.10E-03
14586,4.38E-03,5.02E-03
14587,5.84E-03,8.25E-03
14588,5.42E-03,8.18E-03
14589,4.97E-03,3.67E-03
14590,5.04E-03,3.68E-03
14591,4.88E-03,1.48E-02
14592,5.52E-03,1.48E-02
14593,5.09E-03,4.41E-03
14594,5.23E-03,4.54E-03
14595,4.78E-03,3.05E-03
14596,4.84E-03,3.12E-03
14597,6.12E-03,2.29E-03
14598,7.39E-03,9.50E-03
14599,6.38E-03,9.22E-03
14600,5.19E-03,1.88E-02
14601,5.17E-03,1.88E-02
14602,5.13E-03,1.81E-02
14603,5.20E-03,1.81E-02
14604,5.87E-03,8.17E-03
14605,5.58E-03,8.15E-03
14606,4.36E-03,1.38E-02
14607,4.55E-03,1.39E-02
14608,2.85E-03,1.24E-02
14609,4.72E-03,2.20E-02
14610,4.03E-03,2.17E-02
14611,4.72E-03,2.25E-02
14612,5.11E-03,2.29E-02
14613,6.87E-03,2.53E-02
14614,6.20E-03,2.50E-02
14615,3.96E-03,1.27E-02
14616,3.49E-03,1.26E-02
14617,5.75E-03,1.54E-02
14618,5.35E-03,1.54E-02
14619,5.59E-03,1.48E-02
14620,5.74E-03,1.47E-02
14621,4.97E-03,1.42E-02
14622,5.02E-03,1.48E-02
14623,5.06E-03,1.47E-02
14624,5.08E-03,1.41E-02
14625,2.04E-03,7.86E-03
14626,3.24E-03,7.52E-03
14627,3.32E-03,7.61E-03
14628,3.29E-03,8.43E-03
14629,4.29E-03,8.54E-03
14630,2.44E-03,9.47E-03
14631,3.64E-03,9.52E-03
14632,3.72E-03,9.74E-03
14633,2.04E-03,1.90E-02
14634,3.32E-03,1.90E-02
14635,3.30E-03,1.85E-02
14636,2.01E-03,5.50E-03
14637,1.69E-03,5.47E-03
14638,3.64E-03,5.62E-03
14639,3.71E-03,5.35E-03
14640,3.70E-03,5.21E-03
14641,3.50E-03,5.58E-03
14642,6.26E-03,5.76E-03
14643,5.01E-03,1.67E-02
14644,5.63E-03,7.18E-03
14645,3.05E-03,7.90E-03
14646,3.31E-03,8.12E-03
14647,3.55E-03,8.27E-03
14648,3.90E-03,8.05E-03
14649,4.67E-03,8.55E-03
14650,5.34E-03,8.01E-03
14651,4.91E-03,8.10E-03
14652,4.92E-03,8.07E-03
14653,4.94E-03,8.00E-03
14654,5.09E-03,8.24E-03
14655,5.39E-03,7.70E-03
14656,5.20E-03,7.84E-03
14657,5.58E-03,7.83E-03
14658,5.15E-03,8.37E-03
14659,5.51E-03,7.57E-03
14660,6.10E-03,7.57E-03
14661,5.71E-03,8.29E-03
14662,5.60E-03,8.42E-03
14663,6.49E-03,8.69E-03
14664,6.22E-03,8.81E-03
14665,5.67E-03,7.31E-03
14666,4.99E-03,8.65E-03
14667,6.06E-03,9.05E-03
14668,6.54E-03,9.17E-03
14669,6.31E-03,9.68E-03
14670,6.04E-03,9.56E-03
14671,4.65E-03,7.91E-03
14672,3.97E-03,7.52E-03
14673,5.24E-03,8.19E-03
14674,5.00E-03,8.64E-03
14675,5.25E-03,9.10E-03
14676,5.11E-03,8.68E-03
14677,4.78E-03,8.95E-03
14678,5.58E-03,9.74E-03
14679,5.61E-03,9.85E-03
14680,5.51E-03,9.92E-03
14681,5.42E-03,9.47E-03
14682,5.76E-03,8.52E-03
14683,5.68E-03,8.97E-03
14684,5.61E-03,8.55E-03
14685,5.64E-03,7.31E-03
14686,5.45E-03,7.43E-03
14687,6.26E-03,7.46E-03
14688,5.07E-03,6.48E-03
14689,5.88E-03,7.49E-03
14690,6.81E-03,7.26E-03
14691,5.89E-03,7.66E-03
14692,6.19E-03,9.29E-03
14693,5.93E-03,9.42E-03
14694,5.77E-03,9.53E-03
14695,5.68E-03,9.64E-03
14696,5.15E-03,8.76E-03
14697,4.18E-03,6.55E-03
14698,6.22E-03,9.79E-03
14699,5.84E-03,9.51E-03
14700,5.52E-03,9.41E-03
14701,5.90E-03,8.47E-03
14702,6.47E-03,8.66E-03
14703,4.74E-03,8.25E-03
14704,5.19E-03,8.03E-03
14705,5.25E-03,7.19E-03
14706,5.80E-03,7.15E-03
14707,5.82E-03,7.17E-03
14708,7.00E-03,6.60E-03
14709,6.69E-03,6.46E-03
14710,4.97E-03,6.33E-03
14711,4.96E-03,9.08E-03
14712,6.65E-03,1.02E-02
14713,6.43E-03,1.01E-02
14714,4.45E-03,7.55E-03
14715,5.64E-03,6.93E-03
14716,5.16E-03,6.18E-03
14717,5.27E-03,6.19E-03
14718,3.73E-03,6.46E-03
14719,4.96E-03,6.50E-03
14720,5.35E-03,6.24E-03
14721,5.37E-03,8.55E-03
14722,4.74E-03,6.57E-03
14723,3.92E-03,6.78E-03
14724,3.25E-03,1.05E-02
14725,5.50E-03,9.05E-03
14726,5.18E-03,9.11E-03
14727,4.63E-03,7.13E-03
14728,5.92E-03,9.25E-03
14729,5.23E-03,9.08E-03
14730,3.85E-03,9.30E-03
14731,4.84E-03,9.31E-03
14732,5.47E-03,5.96E-03
14733,5.49E-03,6.02E-03
14734,5.58E-03,6.40E-03
14735,5.49E-03,6.31E-03
14736,5.18E-03,8.90E-03
14737,5.19E-03,6.06E-03
14738,5.30E-03,6.68E-03
14739,6.01E-03,6.48E-03
14740,5.79E-03,1.00E-02
14741,5.95E-03,9.89E-03
14742,4.46E-03,6.90E-03
14743,5.66E-03,9.38E-03
14744,5.19E-03,7.30E-03
14745,5.63E-03,9.20E-03
14746,5.57E-03,9.31E-03
14747,5.88E-03,8.95E-03
14748,5.71E-03,9.09E-03
14749,6.09E-03,8.82E-03
14750,5.29E-03,8.14E-03
14751,5.56E-03,7.05E-03
14752,5.68E-03,6.94E-03
14753,5.87E-03,7.05E-03
14754,5.49E-03,6.82E-03
14755,5.72E-03,6.15E-03
14756,6.00E-03,6.28E-03
14757,5.53E-03,6.21E-03
14758,4.89E-03,6.25E-03
14759,5.71E-03,6.24E-03
14760,6.99E-03,6.26E-03
14761,7.21E-03,6.09E-03
14762,4.65E-03,6.13E-03
14763,4.75E-03,6.00E-03
14764,5.70E-03,6.37E-03
14765,4.67E-03,6.39E-03
14766,5.78E-03,6.45E-03
14767,6.00E-03,6.27E-03
14768,7.02E-03,6.23E-03
14769,6.36E-03,6.53E-03
14770,5.91E-03,6.14E-03
14771,6.18E-03,6.18E-03
14772,4.72E-03,6.10E-03
14773,6.01E-03,7.82E-03
14774,6.71E-03,7.61E-03
14775,4.09E-03,1.00E-02
14776,4.83E-03,1.00E-02
14777,5.03E-03,9.57E-03
14778,4.99E-03,1.00E-02
14779,6.01E-03,8.01E-03
14780,5.62E-03,1.01E-02
14781,5.21E-03,1.03E-02
14782,5.32E-03,6.59E-03
14783,5.16E-03,9.22E-03
14784,5.98E-03,1.03E-02
14785,3.32E-03,9.62E-03
14786,5.11E-03,9.75E-03
14787,5.64E-03,9.94E-03
14788,4.78E-03,9.59E-03
14789,5.66E-03,8.98E-03
14790,5.47E-03,8.06E-03
14791,5.67E-03,8.18E-03
14792,5.33E-03,7.89E-03
14793,4.97E-03,7.63E-03
14794,4.73E-03,6.75E-03
14795,5.19E-03,6.76E-03
14796,5.65E-03,6.79E-03
14797,6.52E-03,6.43E-03
14798,5.20E-03,5.99E-03
14799,5.20E-03,5.86E-03
14800,5.37E-03,5.67E-03
14801,5.40E-03,5.75E-03
14802,5.22E-03,5.98E-03
14803,3.37E-03,5.56E-03
14804,4.41E-03,5.65E-03
14805,5.14E-03,5.70E-03
14806,5.25E-03,5.52E-03
14807,5.64E-03,5.94E-03
14808,5.90E-03,1.05E-02
14809,4.17E-03,1.05E-02
14810,4.86E-03,1.05E-02
14811,5.54E-03,5.60E-03
14812,3.91E-03,1.08E-02
14813,5.79E-03,1.07E-02
14814,5.12E-03,6.85E-03
14815,5.03E-03,9.48E-03
14816,5.47E-03,1.06E-02
14817,5.08E-03,9.16E-03
14818,4.77E-03,7.18E-03
14819,6.73E-03,6.35E-03
14820,4.59E-03,1.06E-02
14821,4.58E-03,1.09E-02
14822,6.35E-03,6.79E-03
14823,5.22E-03,7.02E-03
14824,5.06E-03,9.67E-03
14825,6.51E-03,9.60E-03
14826,5.96E-03,8.64E-03
14827,5.18E-03,8.74E-03
14828,5.06E-03,6.77E-03
14829,6.12E-03,5.90E-03
14830,6.41E-03,5.75E-03
14831,4.33E-03,8.31E-03
14832,6.59E-03,6.88E-03
14833,2.84E-03,1.10E-02
14834,7.06E-03,6.64E-03
14835,5.39E-03,1.02E-02
14836,5.76E-03,6.76E-03
14837,5.49E-03,6.67E-03
14838,5.79E-03,9.36E-03
14839,6.01E-03,6.96E-03
14840,6.22E-03,6.89E-03
14841,5.77E-03,1.05E-02
14842,5.90E-03,1.04E-02
14843,5.25E-03,7.37E-03
14844,5.36E-03,7.18E-03
14845,5.71E-03,7.63E-03
14846,5.42E-03,7.52E-03
14847,5.45E-03,9.81E-03
14848,6.43E-03,7.85E-03
14849,6.14E-03,7.70E-03
14850,4.55E-03,9.62E-03
14851,5.70E-03,8.77E-03
14852,5.63E-03,8.88E-03
14853,5.78E-03,8.51E-03
14854,5.70E-03,8.65E-03
14855,5.79E-03,8.35E-03
14856,5.16E-03,7.73E-03
14857,5.56E-03,6.55E-03
14858,5.38E-03,6.69E-03
14859,5.63E-03,6.55E-03
14860,5.71E-03,6.66E-03
14861,5.39E-03,6.43E-03
14862,7.27E-03,5.92E-03
14863,5.07E-03,5.92E-03
14864,5.31E-03,5.84E-03
14865,5.95E-03,5.82E-03
14866,5.88E-03,5.85E-03
14867,5.62E-03,5.79E-03
14868,5.77E-03,5.82E-03
14869,5.30E-03,5.76E-03
14870,5.32E-03,5.78E-03
14871,5.27E-03,5.70E-03
14872,5.27E-03,5.82E-03
14873,4.93E-03,5.85E-03
14874,6.06E-03,8.19E-03
14875,6.39E-03,8.00E-03
14876,5.18E-03,1.05E-02
14877,5.71E-03,8.38E-03
14878,6.21E-03,5.45E-03
14879,5.95E-03,5.78E-03
14880,5.25E-03,5.35E-03
14881,5.24E-03,5.29E-03
14882,5.62E-03,1.06E-02
14883,4.70E-03,1.06E-02
14884,5.34E-03,6.93E-03
14885,5.28E-03,9.66E-03
14886,5.85E-03,1.08E-02
14887,4.31E-03,9.99E-03
14888,4.76E-03,1.02E-02
14889,5.37E-03,1.04E-02
14890,5.26E-03,9.40E-03
14891,5.00E-03,9.20E-03
14892,6.18E-03,8.53E-03
14893,5.52E-03,7.61E-03
14894,5.59E-03,7.76E-03
14895,5.38E-03,7.47E-03
14896,5.00E-03,7.24E-03
14897,5.62E-03,6.41E-03
14898,5.97E-03,6.02E-03
14899,5.61E-03,5.55E-03
14900,6.08E-03,5.35E-03
14901,5.81E-03,6.27E-03
14902,4.10E-03,1.10E-02
14903,5.57E-03,1.10E-02
14904,4.50E-03,1.10E-02
14905,4.77E-03,1.10E-02
14906,4.18E-03,1.12E-02
14907,5.16E-03,7.16E-03
14908,5.13E-03,9.87E-03
14909,4.90E-03,1.13E-02
14910,5.20E-03,1.11E-02
14911,4.38E-03,1.10E-02
14912,6.17E-03,9.14E-03
14913,5.95E-03,9.09E-03
14914,5.10E-03,8.77E-03
14915,5.23E-03,6.79E-03
14916,4.59E-03,6.42E-03
14917,5.26E-03,6.32E-03
14918,5.01E-03,5.42E-03
14919,7.05E-03,6.69E-03
14920,4.87E-03,1.14E-02
14921,5.92E-03,7.12E-03
14922,5.58E-03,7.28E-03
14923,5.83E-03,1.01E-02
14924,5.01E-03,1.04E-02
14925,5.06E-03,8.36E-03
14926,5.95E-03,7.11E-03
14927,5.45E-03,9.64E-03
14928,5.15E-03,9.83E-03
14929,4.58E-03,8.08E-03
14930,3.95E-03,7.94E-03
14931,5.71E-03,5.17E-03
14932,6.21E-03,5.76E-03
14933,6.99E-03,5.41E-03
14934,6.26E-03,9.68E-03
14935,6.23E-03,9.80E-03
14936,6.27E-03,9.24E-03
14937,3.03E-03,5.42E-03
14938,2.27E-03,5.12E-03
14939,3.07E-03,4.96E-03
14940,5.93E-03,6.09E-03
14941,6.19E-03,6.08E-03
14942,6.40E-03,5.75E-03
14943,5.24E-03,5.40E-03
14944,5.11E-03,5.01E-03
14945,4.84E-03,4.98E-03
14946,6.47E-03,7.03E-03
14947,5.33E-03,1.06E-02
14948,5.76E-03,7.13E-03
14949,5.58E-03,7.03E-03
14950,5.75E-03,9.87E-03
14951,5.70E-03,7.36E-03
14952,5.79E-03,7.25E-03
14953,5.70E-03,1.10E-02
14954,5.72E-03,1.09E-02
14955,5.48E-03,7.69E-03
14956,5.63E-03,7.52E-03
14957,6.84E-03,1.02E-02
14958,5.69E-03,7.98E-03
14959,5.57E-03,7.85E-03
14960,5.18E-03,1.03E-02
14961,6.12E-03,8.26E-03
14962,5.91E-03,8.12E-03
14963,4.97E-03,9.27E-03
14964,5.44E-03,8.35E-03
14965,5.72E-03,8.44E-03
14966,5.70E-03,8.07E-03
14967,5.65E-03,8.21E-03
14968,5.64E-03,7.91E-03
14969,5.25E-03,7.34E-03
14970,5.53E-03,6.18E-03
14971,5.42E-03,6.32E-03
14972,5.67E-03,6.17E-03
14973,5.65E-03,6.29E-03
14974,5.82E-03,6.10E-03
14975,6.51E-03,5.55E-03
14976,5.11E-03,5.52E-03
14977,5.01E-03,5.59E-03
14978,5.23E-03,5.45E-03
14979,5.76E-03,5.49E-03
14980,5.81E-03,5.53E-03
14981,5.73E-03,5.46E-03
14982,5.79E-03,5.47E-03
14983,5.56E-03,5.44E-03
14984,5.66E-03,5.45E-03
14985,5.46E-03,5.40E-03
14986,5.49E-03,5.43E-03
14987,5.65E-03,5.37E-03
14988,5.58E-03,6.13E-03
14989,5.58E-03,6.19E-03
14990,5.81E-03,6.10E-03
14991,5.93E-03,8.60E-03
14992,6.08E-03,8.42E-03
14993,5.04E-03,1.10E-02
14994,5.74E-03,8.77E-03
14995,6.01E-03,6.41E-03
14996,5.87E-03,6.41E-03
14997,5.99E-03,5.20E-03
14998,5.64E-03,1.10E-02
14999,5.45E-03,1.11E-02
15000,5.41E-03,7.27E-03
15001,5.25E-03,1.01E-02
15002,5.54E-03,1.13E-02
15003,5.73E-03,1.10E-02
15004,5.01E-03,1.09E-02
15005,5.53E-03,9.00E-03
15006,5.13E-03,8.83E-03
15007,6.12E-03,8.06E-03
15008,5.48E-03,7.34E-03
15009,5.48E-03,7.19E-03
15010,5.23E-03,6.84E-03
15011,5.90E-03,6.35E-03
15012,5.51E-03,6.08E-03
15013,5.63E-03,6.04E-03
15014,5.59E-03,5.54E-03
15015,5.64E-03,5.64E-03
15016,3.37E-03,5.21E-03
15017,6.68E-03,4.98E-03
15018,6.61E-03,5.02E-03
15019,6.18E-03,6.57E-03
15020,4.54E-03,1.15E-02
15021,5.04E-03,1.16E-02
15022,4.87E-03,1.15E-02
15023,5.58E-03,9.40E-03
15024,5.33E-03,1.16E-02
15025,5.39E-03,7.45E-03
15026,5.07E-03,1.18E-02
15027,5.04E-03,1.18E-02
15028,5.25E-03,1.17E-02
15029,5.07E-03,1.06E-02
15030,4.89E-03,1.06E-02
15031,5.04E-03,1.08E-02
15032,5.18E-03,8.38E-03
15033,5.66E-03,6.37E-03
15034,5.91E-03,6.99E-03
15035,4.94E-03,1.19E-02
15036,4.57E-03,7.37E-03
15037,5.28E-03,1.00E-02
15038,5.70E-03,7.45E-03
15039,5.65E-03,7.61E-03
15040,5.04E-03,7.96E-03
15041,5.80E-03,4.92E-03
15042,4.76E-03,7.66E-03
15043,4.83E-03,7.61E-03
15044,5.60E-03,8.60E-03
15045,5.87E-03,8.67E-03
15046,6.06E-03,9.26E-03
15047,3.63E-03,4.83E-03
15048,4.13E-03,4.95E-03
15049,6.16E-03,6.08E-03
15050,5.96E-03,6.42E-03
15051,6.69E-03,5.42E-03
15052,6.41E-03,5.75E-03
15053,4.37E-03,1.15E-02
15054,5.11E-03,5.05E-03
15055,4.98E-03,4.67E-03
15056,4.86E-03,4.65E-03
15057,4.23E-03,4.92E-03
15058,5.85E-03,7.33E-03
15059,5.69E-03,1.11E-02
15060,5.65E-03,7.48E-03
15061,5.54E-03,7.37E-03
15062,5.38E-03,1.03E-02
15063,5.28E-03,1.10E-02
15064,5.64E-03,7.74E-03
15065,5.72E-03,7.60E-03
15066,5.60E-03,1.15E-02
15067,5.56E-03,1.14E-02
15068,5.63E-03,8.04E-03
15069,5.67E-03,7.89E-03
15070,7.09E-03,1.07E-02
15071,6.26E-03,1.09E-02
15072,5.74E-03,8.36E-03
15073,5.63E-03,8.20E-03
15074,5.03E-03,1.08E-02
15075,5.96E-03,8.66E-03
15076,5.84E-03,8.51E-03
15077,5.23E-03,8.90E-03
15078,5.75E-03,7.91E-03
15079,5.93E-03,8.02E-03
15080,5.64E-03,7.64E-03
15081,5.59E-03,7.79E-03
15082,5.54E-03,7.49E-03
15083,5.37E-03,7.06E-03
15084,5.30E-03,6.94E-03
15085,5.61E-03,5.82E-03
15086,5.55E-03,5.95E-03
15087,5.70E-03,5.82E-03
15088,5.69E-03,5.92E-03
15089,5.68E-03,5.73E-03
15090,5.29E-03,5.14E-03
15091,5.03E-03,5.16E-03
15092,4.84E-03,5.24E-03
15093,5.15E-03,5.09E-03
15094,5.76E-03,5.12E-03
15095,6.26E-03,5.13E-03
15096,5.62E-03,5.11E-03
15097,5.70E-03,5.11E-03
15098,5.54E-03,5.09E-03
15099,5.61E-03,5.10E-03
15100,5.62E-03,5.05E-03
15101,5.57E-03,5.07E-03
15102,5.92E-03,5.04E-03
15103,5.78E-03,6.45E-03
15104,5.75E-03,6.50E-03
15105,5.76E-03,6.42E-03
15106,5.82E-03,9.00E-03
15107,5.95E-03,8.82E-03
15108,5.03E-03,1.15E-02
15109,5.73E-03,9.19E-03
15110,5.67E-03,1.15E-02
15111,5.34E-03,1.16E-02
15112,5.46E-03,7.59E-03
15113,5.35E-03,1.19E-02
15114,7.31E-03,1.07E-02
15115,5.58E-03,1.16E-02
15116,5.11E-03,1.10E-02
15117,4.87E-03,1.14E-02
15118,5.45E-03,8.56E-03
15119,5.18E-03,8.44E-03
15120,5.27E-03,7.59E-03
15121,5.39E-03,6.45E-03
15122,6.27E-03,5.90E-03
15123,6.62E-03,5.78E-03
15124,5.71E-03,5.68E-03
15125,4.46E-03,4.89E-03
15126,5.07E-03,4.69E-03
15127,5.95E-03,6.87E-03
15128,5.86E-03,6.74E-03
15129,5.74E-03,6.73E-03
15130,5.07E-03,1.21E-02
15131,5.01E-03,1.21E-02
15132,4.94E-03,1.20E-02
15133,5.32E-03,1.21E-02
15134,5.55E-03,7.77E-03
15135,5.08E-03,1.24E-02
15136,5.20E-03,1.23E-02
15137,5.17E-03,1.13E-02
15138,4.71E-03,1.21E-02
15139,4.73E-03,1.20E-02
15140,5.14E-03,7.99E-03
15141,5.96E-03,5.97E-03
15142,5.39E-03,5.27E-03
15143,5.17E-03,5.18E-03
15144,6.09E-03,4.67E-03
15145,6.09E-03,4.65E-03
15146,5.52E-03,7.28E-03
15147,5.04E-03,1.25E-02
15148,5.47E-03,7.79E-03
15149,5.52E-03,7.95E-03
15150,4.86E-03,7.57E-03
15151,4.96E-03,7.25E-03
15152,4.94E-03,7.24E-03
15153,5.96E-03,8.72E-03
15154,5.50E-03,1.17E-02
15155,4.48E-03,1.20E-02
15156,5.61E-03,1.16E-02
15157,5.95E-03,1.11E-02
15158,5.85E-03,1.11E-02
15159,6.16E-03,1.06E-02
15160,5.95E-03,1.05E-02
15161,6.43E-03,1.01E-02
15162,5.99E-03,9.18E-03
15163,4.89E-03,4.78E-03
15164,5.40E-03,4.61E-03
15165,6.13E-03,6.08E-03
15166,5.99E-03,6.42E-03
15167,6.06E-03,6.76E-03
15168,6.87E-03,5.09E-03
15169,6.65E-03,5.42E-03
15170,6.30E-03,5.74E-03
15171,5.58E-03,9.84E-03
15172,5.48E-03,6.94E-03
15173,5.44E-03,6.80E-03
15174,5.34E-03,1.01E-02
15175,5.24E-03,1.03E-02
15176,4.77E-03,1.22E-02
15177,3.77E-03,4.64E-03
15178,5.18E-03,7.62E-03
15179,5.59E-03,1.16E-02
15180,5.67E-03,7.83E-03
15181,5.60E-03,7.71E-03
15182,5.14E-03,1.05E-02
15183,5.20E-03,1.07E-02
15184,5.69E-03,8.10E-03
15185,5.70E-03,7.96E-03
15186,5.59E-03,1.20E-02
15187,5.48E-03,1.19E-02
15188,6.09E-03,1.14E-02
15189,5.73E-03,1.14E-02
15190,5.73E-03,8.41E-03
15191,5.68E-03,8.25E-03
15192,5.89E-03,1.15E-02
15193,5.75E-03,8.73E-03
15194,5.68E-03,8.57E-03
15195,5.03E-03,1.12E-02
15196,5.89E-03,9.05E-03
15197,5.85E-03,8.89E-03
15198,5.33E-03,8.51E-03
15199,5.57E-03,7.49E-03
15200,5.56E-03,7.56E-03
15201,5.56E-03,7.23E-03
15202,5.57E-03,7.37E-03
15203,5.52E-03,7.09E-03
15204,5.06E-03,1.23E-02
15205,5.37E-03,6.67E-03
15206,5.36E-03,6.55E-03
15207,5.70E-03,5.48E-03
15208,5.66E-03,5.65E-03
15209,5.65E-03,5.46E-03
15210,5.67E-03,5.56E-03
15211,5.56E-03,5.36E-03
15212,4.59E-03,4.76E-03
15213,5.10E-03,4.79E-03
15214,4.93E-03,4.86E-03
15215,5.10E-03,4.73E-03
15216,5.64E-03,4.76E-03
15217,4.05E-03,4.73E-03
15218,5.77E-03,4.74E-03
15219,5.49E-03,4.76E-03
15220,5.50E-03,4.76E-03
15221,5.53E-03,4.74E-03
15222,5.55E-03,4.75E-03
15223,5.65E-03,4.72E-03
15224,5.56E-03,4.73E-03
15225,5.82E-03,4.71E-03
15226,5.75E-03,6.76E-03
15227,5.68E-03,6.81E-03
15228,5.66E-03,6.74E-03
15229,5.79E-03,9.41E-03
15230,5.90E-03,9.22E-03
15231,5.03E-03,1.21E-02
15232,5.70E-03,9.62E-03
15233,5.19E-03,1.05E-02
15234,5.66E-03,1.21E-02
15235,5.52E-03,1.21E-02
15236,5.87E-03,1.11E-02
15237,5.57E-03,7.91E-03
15238,5.19E-03,1.24E-02
15239,5.41E-03,1.22E-02
15240,5.28E-03,1.15E-02
15241,4.95E-03,1.19E-02
15242,5.42E-03,8.17E-03
15243,5.25E-03,8.16E-03
15244,5.24E-03,8.04E-03
15245,5.12E-03,7.20E-03
15246,5.50E-03,6.05E-03
15247,5.94E-03,5.43E-03
15248,5.63E-03,5.33E-03
15249,4.91E-03,4.33E-03
15250,5.03E-03,4.35E-03
15251,4.69E-03,4.32E-03
15252,5.70E-03,4.63E-03
15253,5.77E-03,7.20E-03
15254,5.16E-03,1.26E-02
15255,5.10E-03,1.26E-02
15256,4.99E-03,1.26E-02
15257,5.38E-03,1.05E-02
15258,5.54E-03,1.03E-02
15259,5.32E-03,1.07E-02
15260,5.33E-03,1.27E-02
15261,5.65E-03,1.16E-02
15262,5.53E-03,8.10E-03
15263,5.26E-03,1.14E-02
15264,5.39E-03,1.18E-02
15265,4.84E-03,1.26E-02
15266,4.97E-03,1.25E-02
15267,5.17E-03,7.61E-03
15268,6.23E-03,5.55E-03
15269,5.94E-03,4.35E-03
15270,5.89E-03,4.32E-03
15271,5.65E-03,7.06E-03
15272,5.75E-03,7.08E-03
15273,5.05E-03,1.30E-02
15274,5.02E-03,1.31E-02
15275,5.27E-03,1.21E-02
15276,5.36E-03,8.14E-03
15277,5.46E-03,8.30E-03
15278,5.08E-03,7.23E-03
15279,5.74E-03,7.62E-03
15280,4.78E-03,6.84E-03
15281,4.90E-03,6.88E-03
15282,4.52E-03,1.26E-02
15283,5.18E-03,1.23E-02
15284,5.97E-03,8.74E-03
15285,6.26E-03,1.12E-02
15286,6.21E-03,1.06E-02
15287,6.44E-03,1.01E-02
15288,6.55E-03,9.64E-03
15289,6.14E-03,9.18E-03
15290,6.13E-03,4.38E-03
15291,6.42E-03,4.27E-03
15292,6.11E-03,6.08E-03
15293,5.92E-03,6.41E-03
15294,6.05E-03,6.75E-03
15295,7.57E-03,4.74E-03
15296,6.82E-03,5.08E-03
15297,6.55E-03,5.42E-03
15298,6.33E-03,5.74E-03
15299,5.12E-03,1.29E-02
15300,5.00E-03,8.01E-03
15301,5.07E-03,1.09E-02
15302,5.64E-03,1.21E-02
15303,6.09E-03,1.11E-02
15304,5.69E-03,8.18E-03
15305,5.65E-03,8.05E-03
15306,4.96E-03,1.11E-02
15307,5.69E-03,8.46E-03
15308,5.70E-03,8.32E-03
15309,5.57E-03,1.26E-02
15310,5.35E-03,1.25E-02
15311,5.39E-03,1.21E-02
15312,5.53E-03,1.18E-02
15313,5.28E-03,1.20E-02
15314,5.65E-03,8.78E-03
15315,5.67E-03,8.62E-03
15316,5.49E-03,1.21E-02
15317,5.75E-03,9.11E-03
15318,5.71E-03,8.95E-03
15319,5.12E-03,1.17E-02
15320,4.99E-03,1.28E-02
15321,4.94E-03,1.27E-02
15322,5.86E-03,9.44E-03
15323,5.85E-03,9.27E-03
15324,5.32E-03,8.10E-03
15325,5.47E-03,7.08E-03
15326,5.32E-03,7.15E-03
15327,5.56E-03,6.84E-03
15328,5.52E-03,6.97E-03
15329,5.49E-03,6.55E-03
15330,5.56E-03,6.70E-03
15331,5.42E-03,6.29E-03
15332,5.44E-03,6.42E-03
15333,5.42E-03,6.16E-03
15334,5.71E-03,5.14E-03
15335,5.87E-03,5.31E-03
15336,5.57E-03,5.10E-03
15337,5.57E-03,5.21E-03
15338,5.21E-03,4.92E-03
15339,5.45E-03,5.00E-03
15340,4.72E-03,4.76E-03
15341,4.97E-03,4.84E-03
15342,4.79E-03,4.49E-03
15343,5.15E-03,4.43E-03
15344,5.18E-03,4.48E-03
15345,5.10E-03,4.38E-03
15346,4.62E-03,4.39E-03
15347,4.77E-03,4.37E-03
15348,5.38E-03,4.40E-03
15349,4.98E-03,4.36E-03
15350,5.45E-03,4.41E-03
15351,5.41E-03,4.41E-03
15352,5.51E-03,4.40E-03
15353,5.49E-03,4.41E-03
15354,5.65E-03,4.38E-03
15355,5.53E-03,4.39E-03
15356,5.68E-03,4.37E-03
15357,4.60E-03,4.62E-03
15358,5.61E-03,7.08E-03
15359,5.64E-03,7.12E-03
15360,5.53E-03,7.05E-03
15361,5.74E-03,9.82E-03
15362,5.84E-03,9.62E-03
15363,5.04E-03,1.26E-02
15364,5.69E-03,1.00E-02
15365,5.21E-03,1.09E-02
15366,5.81E-03,1.26E-02
15367,5.60E-03,1.27E-02
15368,5.51E-03,1.16E-02
15369,5.74E-03,1.16E-02
15370,5.57E-03,8.25E-03
15371,5.08E-03,1.29E-02
15372,5.30E-03,1.28E-02
15373,5.97E-03,1.21E-02
15374,5.06E-03,1.24E-02
15375,4.29E-03,7.83E-03
15376,5.28E-03,7.76E-03
15377,5.28E-03,7.64E-03
15378,4.99E-03,6.85E-03
15379,5.71E-03,5.67E-03
15380,5.26E-03,5.08E-03
15381,5.64E-03,4.98E-03
15382,4.93E-03,4.00E-03
15383,5.06E-03,4.02E-03
15384,4.92E-03,4.01E-03
15385,5.76E-03,4.31E-03
15386,5.86E-03,7.53E-03
15387,6.01E-03,7.09E-03
15388,5.81E-03,7.44E-03
15389,5.11E-03,7.34E-03
15390,5.03E-03,1.31E-02
15391,5.45E-03,1.09E-02
15392,5.50E-03,1.07E-02
15393,5.33E-03,1.11E-02
15394,5.08E-03,1.32E-02
15395,5.21E-03,1.32E-02
15396,5.49E-03,1.21E-02
15397,5.56E-03,8.45E-03
15398,4.05E-03,1.17E-02
15399,4.48E-03,1.20E-02
15400,5.20E-03,7.24E-03
15401,6.26E-03,5.19E-03
15402,5.75E-03,4.02E-03
15403,5.81E-03,4.00E-03
15404,5.95E-03,7.92E-03
15405,5.09E-03,1.35E-02
15406,5.03E-03,1.36E-02
15407,5.29E-03,1.26E-02
15408,5.32E-03,8.48E-03
15409,5.47E-03,8.64E-03
15410,5.14E-03,6.91E-03
15411,4.45E-03,6.49E-03
15412,5.98E-03,1.19E-02
15413,6.15E-03,1.27E-02
15414,5.58E-03,1.31E-02
15415,4.67E-03,6.59E-03
15416,6.03E-03,8.76E-03
15417,6.42E-03,1.06E-02
15418,6.54E-03,1.01E-02
15419,6.58E-03,9.60E-03
15420,6.29E-03,9.19E-03
15421,4.77E-03,4.08E-03
15422,3.98E-03,3.83E-03
15423,5.54E-03,3.86E-03
15424,6.06E-03,8.26E-03
15425,5.05E-03,7.71E-03
15426,5.96E-03,6.08E-03
15427,5.78E-03,6.41E-03
15428,5.94E-03,6.74E-03
15429,5.93E-03,7.08E-03
15430,6.21E-03,7.45E-03
15431,6.97E-03,1.26E-02
15432,7.16E-03,1.20E-02
15433,6.36E-03,1.13E-02
15434,6.15E-03,4.38E-03
15435,6.53E-03,4.37E-03
15436,6.90E-03,4.76E-03
15437,6.71E-03,5.09E-03
15438,6.59E-03,5.42E-03
15439,6.25E-03,5.74E-03
15440,5.61E-03,6.10E-03
15441,4.69E-03,4.42E-03
15442,5.47E-03,8.09E-03
15443,4.92E-03,8.34E-03
15444,5.02E-03,1.13E-02
15445,5.16E-03,1.11E-02
15446,5.83E-03,1.26E-02
15447,5.45E-03,1.16E-02
15448,5.69E-03,8.53E-03
15449,5.62E-03,8.39E-03
15450,4.76E-03,1.15E-02
15451,5.67E-03,8.82E-03
15452,5.70E-03,8.67E-03
15453,5.35E-03,1.31E-02
15454,5.15E-03,1.30E-02
15455,5.38E-03,1.26E-02
15456,5.53E-03,1.24E-02
15457,5.39E-03,1.25E-02
15458,5.66E-03,9.15E-03
15459,5.70E-03,8.98E-03
15460,5.33E-03,1.27E-02
15461,5.78E-03,9.49E-03
15462,5.75E-03,9.32E-03
15463,5.29E-03,1.22E-02
15464,5.02E-03,1.31E-02
15465,4.97E-03,1.33E-02
15466,4.99E-03,1.32E-02
15467,5.87E-03,9.84E-03
15468,5.87E-03,9.66E-03
15469,5.33E-03,7.69E-03
15470,5.45E-03,6.69E-03
15471,5.27E-03,6.78E-03
15472,5.59E-03,6.46E-03
15473,5.57E-03,6.58E-03
15474,5.52E-03,6.19E-03
15475,5.58E-03,6.33E-03
15476,5.48E-03,5.92E-03
15477,5.50E-03,6.06E-03
15478,5.49E-03,5.80E-03
15479,5.72E-03,4.79E-03
15480,5.59E-03,4.94E-03
15481,5.51E-03,4.74E-03
15482,5.63E-03,4.85E-03
15483,5.10E-03,4.57E-03
15484,5.33E-03,4.65E-03
15485,4.88E-03,4.49E-03
15486,4.59E-03,4.22E-03
15487,5.21E-03,4.10E-03
15488,5.40E-03,4.16E-03
15489,5.16E-03,4.05E-03
15490,4.91E-03,4.03E-03
15491,4.82E-03,4.02E-03
15492,5.25E-03,4.04E-03
15493,5.03E-03,4.04E-03
15494,5.38E-03,4.06E-03
15495,5.31E-03,4.06E-03
15496,5.49E-03,4.06E-03
15497,5.48E-03,4.06E-03
15498,5.61E-03,4.05E-03
15499,5.51E-03,4.06E-03
15500,5.59E-03,4.04E-03
15501,5.74E-03,4.35E-03
15502,5.58E-03,7.39E-03
15503,5.69E-03,7.45E-03
15504,5.32E-03,7.36E-03
15505,5.73E-03,1.02E-02
15506,5.88E-03,1.00E-02
15507,5.05E-03,1.31E-02
15508,5.70E-03,1.05E-02
15509,5.23E-03,1.13E-02
15510,5.36E-03,1.32E-02
15511,6.40E-03,1.32E-02
15512,5.53E-03,1.23E-02
15513,5.59E-03,1.21E-02
15514,5.59E-03,8.60E-03
15515,3.98E-03,1.21E-02
15516,4.99E-03,1.34E-02
15517,5.22E-03,1.34E-02
15518,5.04E-03,1.30E-02
15519,5.22E-03,7.48E-03
15520,5.23E-03,7.38E-03
15521,5.30E-03,7.27E-03
15522,4.99E-03,6.54E-03
15523,5.68E-03,5.33E-03
15524,5.26E-03,4.71E-03
15525,5.64E-03,4.64E-03
15526,4.53E-03,4.03E-03
15527,4.66E-03,4.08E-03
15528,5.97E-03,4.00E-03
15529,6.23E-03,4.04E-03
15530,5.85E-03,7.85E-03
15531,5.04E-03,1.36E-02
15532,5.01E-03,1.37E-02
15533,5.42E-03,1.13E-02
15534,5.56E-03,1.11E-02
15535,5.36E-03,1.16E-02
15536,5.54E-03,1.27E-02
15537,5.52E-03,8.80E-03
15538,5.38E-03,6.90E-03
15539,5.58E-03,3.70E-03
15540,5.77E-03,3.69E-03
15541,6.01E-03,8.33E-03
15542,6.13E-03,8.21E-03
15543,4.88E-03,7.63E-03
15544,5.46E-03,1.32E-02
15545,5.39E-03,8.80E-03
15546,5.43E-03,8.97E-03
15547,5.27E-03,6.56E-03
15548,5.95E-03,8.77E-03
15549,6.63E-03,1.01E-02
15550,6.74E-03,9.58E-03
15551,6.56E-03,9.17E-03
15552,5.94E-03,1.34E-02
15553,5.80E-03,1.36E-02
15554,3.42E-03,3.45E-03
15555,3.95E-03,3.48E-03
15556,5.98E-03,8.31E-03
15557,6.31E-03,7.77E-03
15558,5.35E-03,6.40E-03
15559,5.74E-03,6.72E-03
15560,5.99E-03,7.06E-03
15561,6.50E-03,7.42E-03
15562,6.41E-03,1.26E-02
15563,6.65E-03,1.20E-02
15564,6.55E-03,1.13E-02
15565,6.54E-03,1.07E-02
15566,6.40E-03,4.06E-03
15567,6.88E-03,4.42E-03
15568,6.78E-03,4.77E-03
15569,6.73E-03,5.10E-03
15570,6.65E-03,5.43E-03
15571,5.37E-03,4.84E-03
15572,4.29E-03,3.98E-03
15573,6.20E-03,8.34E-03
15574,5.56E-03,8.59E-03
15575,5.05E-03,1.18E-02
15576,5.15E-03,1.15E-02
15577,5.61E-03,1.32E-02
15578,6.24E-03,1.32E-02
15579,5.56E-03,1.22E-02
15580,5.66E-03,8.88E-03
15581,5.64E-03,8.74E-03
15582,4.79E-03,1.20E-02
15583,5.67E-03,9.18E-03
15584,5.69E-03,9.03E-03
15585,4.85E-03,1.35E-02
15586,4.98E-03,1.35E-02
15587,5.40E-03,1.32E-02
15588,5.58E-03,1.30E-02
15589,5.43E-03,1.31E-02
15590,5.65E-03,9.52E-03
15591,5.66E-03,9.35E-03
15592,5.29E-03,1.33E-02
15593,5.83E-03,9.87E-03
15594,5.76E-03,9.70E-03
15595,5.17E-03,1.29E-02
15596,5.47E-03,1.27E-02
15597,5.47E-03,1.37E-02
15598,4.97E-03,1.38E-02
15599,4.79E-03,1.37E-02
15600,5.85E-03,1.02E-02
15601,5.85E-03,1.00E-02
15602,5.34E-03,7.33E-03
15603,5.50E-03,6.33E-03
15604,5.37E-03,6.42E-03
15605,5.58E-03,6.10E-03
15606,5.55E-03,6.22E-03
15607,5.54E-03,5.84E-03
15608,5.61E-03,5.98E-03
15609,5.50E-03,5.58E-03
15610,5.54E-03,5.71E-03
15611,5.54E-03,5.45E-03
15612,5.66E-03,4.44E-03
15613,5.60E-03,4.58E-03
15614,5.45E-03,4.39E-03
15615,5.61E-03,4.50E-03
15616,5.06E-03,4.22E-03
15617,5.26E-03,4.30E-03
15618,4.84E-03,4.15E-03
15619,4.24E-03,3.92E-03
15620,5.23E-03,3.78E-03
15621,5.28E-03,3.85E-03
15622,5.06E-03,3.69E-03
15623,5.18E-03,3.72E-03
15624,5.03E-03,3.69E-03
15625,4.91E-03,3.67E-03
15626,5.22E-03,3.71E-03
15627,5.09E-03,3.70E-03
15628,5.33E-03,3.72E-03
15629,5.25E-03,3.72E-03
15630,5.47E-03,3.73E-03
15631,5.47E-03,3.72E-03
15632,5.48E-03,3.74E-03
15633,5.49E-03,3.73E-03
15634,5.52E-03,3.73E-03
15635,5.97E-03,4.02E-03
15636,6.10E-03,8.55E-03
15637,5.86E-03,8.42E-03
15638,5.55E-03,7.72E-03
15639,5.67E-03,7.78E-03
15640,5.15E-03,7.67E-03
15641,5.74E-03,1.06E-02
15642,5.90E-03,1.04E-02
15643,5.08E-03,1.37E-02
15644,5.03E-03,1.37E-02
15645,5.70E-03,1.09E-02
15646,5.34E-03,1.38E-02
15647,5.21E-03,1.37E-02
15648,6.12E-03,1.33E-02
15649,5.93E-03,8.70E-03
15650,5.30E-03,1.18E-02
15651,4.89E-03,1.37E-02
15652,5.52E-03,1.38E-02
15653,5.59E-03,1.29E-02
15654,5.63E-03,1.27E-02
15655,5.56E-03,8.95E-03
15656,5.24E-03,1.25E-02
15657,4.96E-03,1.40E-02
15658,5.63E-03,1.37E-02
15659,5.13E-03,1.40E-02
15660,6.57E-03,7.21E-03
15661,5.70E-03,7.09E-03
15662,5.48E-03,6.93E-03
15663,5.96E-03,6.22E-03
15664,5.72E-03,6.18E-03
15665,5.62E-03,4.98E-03
15666,4.97E-03,4.41E-03
15667,5.70E-03,4.30E-03
15668,6.00E-03,3.68E-03
15669,5.92E-03,8.17E-03
15670,4.65E-03,7.93E-03
15671,4.92E-03,1.42E-02
15672,4.97E-03,1.43E-02
15673,5.44E-03,1.18E-02
15674,5.59E-03,1.15E-02
15675,5.94E-03,8.66E-03
15676,6.05E-03,8.58E-03
15677,5.59E-03,7.91E-03
15678,4.40E-03,8.09E-03
15679,5.41E-03,1.20E-02
15680,5.57E-03,1.33E-02
15681,5.49E-03,9.13E-03
15682,5.37E-03,1.31E-02
15683,6.38E-03,1.31E-02
15684,5.54E-03,6.57E-03
15685,5.43E-03,3.40E-03
15686,5.67E-03,3.35E-03
15687,4.95E-03,1.48E-02
15688,5.97E-03,8.79E-03
15689,6.92E-03,9.63E-03
15690,7.11E-03,9.14E-03
15691,5.76E-03,1.38E-02
15692,5.49E-03,9.10E-03
15693,5.50E-03,9.29E-03
15694,5.78E-03,6.21E-03
15695,5.88E-03,1.41E-02
15696,5.83E-03,1.42E-02
15697,3.85E-03,3.44E-03
15698,4.17E-03,3.20E-03
15699,5.76E-03,8.34E-03
15700,6.04E-03,7.82E-03
15701,6.21E-03,7.35E-03
15702,4.15E-03,6.10E-03
15703,4.91E-03,6.36E-03
15704,5.54E-03,6.68E-03
15705,5.78E-03,7.00E-03
15706,5.97E-03,7.36E-03
15707,6.38E-03,7.75E-03
15708,6.24E-03,1.26E-02
15709,6.09E-03,1.32E-02
15710,6.11E-03,1.32E-02
15711,5.66E-03,1.38E-02
15712,5.35E-03,1.38E-02
15713,5.90E-03,1.32E-02
15714,6.18E-03,1.26E-02
15715,6.46E-03,1.20E-02
15716,6.65E-03,1.14E-02
15717,6.62E-03,1.08E-02
15718,6.69E-03,1.02E-02
15719,6.32E-03,3.70E-03
15720,6.40E-03,3.73E-03
15721,6.59E-03,4.08E-03
15722,6.78E-03,4.44E-03
15723,6.73E-03,4.78E-03
15724,6.84E-03,5.12E-03
15725,4.50E-03,5.87E-03
15726,4.69E-03,3.75E-03
15727,4.51E-03,3.69E-03
15728,4.35E-03,3.64E-03
15729,6.25E-03,1.32E-02
15730,5.67E-03,8.90E-03
15731,5.50E-03,9.43E-03
15732,5.16E-03,1.22E-02
15733,5.20E-03,1.20E-02
15734,4.67E-03,1.40E-02
15735,5.99E-03,1.39E-02
15736,5.59E-03,1.28E-02
15737,5.60E-03,9.24E-03
15738,5.59E-03,9.09E-03
15739,5.06E-03,1.24E-02
15740,4.59E-03,1.41E-02
15741,3.93E-03,1.41E-02
15742,5.68E-03,9.54E-03
15743,5.67E-03,9.39E-03
15744,4.87E-03,1.40E-02
15745,5.34E-03,1.39E-02
15746,5.42E-03,1.38E-02
15747,5.67E-03,9.89E-03
15748,5.63E-03,9.71E-03
15749,5.19E-03,1.39E-02
15750,5.82E-03,1.03E-02
15751,5.77E-03,1.01E-02
15752,5.16E-03,1.32E-02
15753,3.99E-03,1.41E-02
15754,4.96E-03,1.44E-02
15755,4.64E-03,1.43E-02
15756,5.92E-03,1.06E-02
15757,5.91E-03,1.04E-02
15758,5.57E-03,6.99E-03
15759,5.60E-03,5.99E-03
15760,5.59E-03,6.08E-03
15761,5.61E-03,5.77E-03
15762,5.60E-03,5.89E-03
15763,5.58E-03,5.51E-03
15764,5.65E-03,5.64E-03
15765,5.54E-03,5.25E-03
15766,5.61E-03,5.38E-03
15767,5.51E-03,5.12E-03
15768,6.09E-03,4.12E-03
15769,5.20E-03,4.28E-03
15770,5.43E-03,4.05E-03
15771,5.62E-03,4.16E-03
15772,5.02E-03,3.89E-03
15773,5.18E-03,3.97E-03
15774,4.86E-03,3.82E-03
15775,4.26E-03,3.60E-03
15776,5.32E-03,3.43E-03
15777,5.12E-03,3.49E-03
15778,5.10E-03,3.37E-03
15779,5.21E-03,3.39E-03
15780,4.99E-03,3.34E-03
15781,5.04E-03,3.35E-03
15782,5.10E-03,3.35E-03
15783,5.01E-03,3.34E-03
15784,5.17E-03,3.38E-03
15785,5.09E-03,3.36E-03
15786,5.34E-03,3.39E-03
15787,5.26E-03,3.38E-03
15788,5.46E-03,3.40E-03
15789,5.45E-03,3.39E-03
15790,5.49E-03,3.42E-03
15791,5.51E-03,3.41E-03
15792,5.42E-03,3.43E-03
15793,6.17E-03,3.68E-03
15794,5.77E-03,8.91E-03
15795,5.77E-03,8.75E-03
15796,5.54E-03,8.05E-03
15797,5.73E-03,8.10E-03
15798,5.08E-03,7.98E-03
15799,5.78E-03,1.11E-02
15800,5.92E-03,1.08E-02
15801,5.14E-03,1.43E-02
15802,5.04E-03,1.43E-02
15803,5.73E-03,1.13E-02
15804,5.26E-03,1.44E-02
15805,5.21E-03,1.43E-02
15806,3.85E-03,6.04E-03
15807,5.00E-03,8.33E-03
15808,5.21E-03,8.16E-03
15809,5.90E-03,1.39E-02
15810,5.84E-03,1.38E-02
15811,5.75E-03,9.07E-03
15812,5.34E-03,1.22E-02
15813,5.37E-03,1.44E-02
15814,5.68E-03,1.35E-02
15815,5.69E-03,1.34E-02
15816,5.53E-03,9.29E-03
15817,5.86E-03,1.30E-02
15818,5.05E-03,1.45E-02
15819,5.10E-03,1.46E-02
15820,3.99E-03,1.44E-02
15821,6.14E-03,6.87E-03
15822,6.02E-03,6.78E-03
15823,5.68E-03,6.61E-03
15824,6.43E-03,5.90E-03
15825,6.24E-03,5.85E-03
15826,6.01E-03,3.94E-03
15827,4.63E-03,3.36E-03
15828,4.62E-03,3.31E-03
15829,6.16E-03,3.00E-03
15830,4.99E-03,3.16E-03
15831,6.18E-03,3.35E-03
15832,5.30E-03,8.94E-03
15833,6.06E-03,8.48E-03
15834,4.63E-03,8.22E-03
15835,4.98E-03,1.48E-02
15836,5.55E-03,1.22E-02
15837,5.60E-03,1.19E-02
15838,6.15E-03,8.78E-03
15839,7.37E-03,9.11E-03
15840,5.45E-03,1.24E-02
15841,5.80E-03,1.39E-02
15842,5.48E-03,9.47E-03
15843,4.66E-03,1.36E-02
15844,5.29E-03,1.36E-02
15845,4.97E-03,1.54E-02
15846,5.00E-03,1.53E-02
15847,5.81E-03,6.24E-03
15848,5.85E-03,1.44E-02
15849,5.48E-03,9.62E-03
15850,6.04E-03,5.90E-03
15851,4.35E-03,3.34E-03
15852,5.36E-03,3.10E-03
15853,5.53E-03,8.38E-03
15854,5.91E-03,7.88E-03
15855,5.83E-03,1.47E-02
15856,5.78E-03,1.48E-02
15857,5.98E-03,7.44E-03
15858,6.10E-03,6.99E-03
15859,5.23E-03,6.62E-03
15860,5.57E-03,6.94E-03
15861,5.95E-03,7.29E-03
15862,5.96E-03,7.65E-03
15863,4.64E-03,1.38E-02
15864,6.59E-03,1.33E-02
15865,6.23E-03,1.27E-02
15866,6.33E-03,1.21E-02
15867,6.51E-03,1.15E-02
15868,6.69E-03,1.09E-02
15869,6.80E-03,1.03E-02
15870,7.05E-03,9.67E-03
15871,6.53E-03,3.75E-03
15872,6.68E-03,4.11E-03
15873,6.77E-03,4.45E-03
15874,6.70E-03,4.79E-03
15875,6.78E-03,5.11E-03
15876,6.32E-03,3.36E-03
15877,6.35E-03,3.39E-03
15878,4.97E-03,1.54E-02
15879,4.97E-03,6.03E-03
15880,4.54E-03,1.41E-02
15881,4.79E-03,8.61E-03
15882,4.87E-03,8.45E-03
15883,4.76E-03,3.42E-03
15884,4.42E-03,3.89E-03
15885,5.95E-03,5.61E-03
15886,4.28E-03,3.69E-03
15887,6.47E-03,1.41E-02
15888,4.47E-03,1.45E-02
15889,5.95E-03,1.39E-02
15890,5.62E-03,9.24E-03
15891,5.24E-03,1.26E-02
15892,5.25E-03,1.24E-02
15893,4.88E-03,1.45E-02
15894,5.17E-03,1.45E-02
15895,5.73E-03,1.34E-02
15896,5.61E-03,9.59E-03
15897,5.56E-03,9.44E-03
15898,5.22E-03,1.28E-02
15899,4.72E-03,1.47E-02
15900,4.66E-03,1.46E-02
15901,5.65E-03,9.91E-03
15902,5.59E-03,9.75E-03
15903,4.92E-03,1.46E-02
15904,5.30E-03,1.45E-02
15905,5.53E-03,1.43E-02
15906,5.38E-03,1.44E-02
15907,5.70E-03,1.03E-02
15908,5.62E-03,1.01E-02
15909,5.18E-03,1.46E-02
15910,5.79E-03,1.06E-02
15911,5.76E-03,1.04E-02
15912,3.52E-03,1.47E-02
15913,4.97E-03,1.37E-02
15914,5.45E-03,1.50E-02
15915,4.49E-03,1.48E-02
15916,5.90E-03,1.10E-02
15917,5.92E-03,1.08E-02
15918,5.79E-03,6.68E-03
15919,5.68E-03,5.69E-03
15920,5.80E-03,5.79E-03
15921,5.65E-03,5.46E-03
15922,5.61E-03,5.58E-03
15923,5.63E-03,5.20E-03
15924,5.67E-03,5.33E-03
15925,5.57E-03,4.93E-03
15926,5.58E-03,5.07E-03
15927,5.45E-03,4.66E-03
15928,5.47E-03,4.80E-03
15929,4.95E-03,4.15E-03
15930,5.01E-03,4.28E-03
15931,4.81E-03,4.03E-03
15932,5.34E-03,3.73E-03
15933,5.54E-03,3.82E-03
15934,5.01E-03,3.57E-03
15935,5.11E-03,3.65E-03
15936,4.84E-03,3.49E-03
15937,4.44E-03,3.29E-03
15938,5.26E-03,3.09E-03
15939,5.78E-03,3.12E-03
15940,5.12E-03,3.04E-03
15941,5.18E-03,3.06E-03
15942,5.02E-03,3.02E-03
15943,5.08E-03,3.03E-03
15944,5.12E-03,3.02E-03
15945,5.09E-03,3.02E-03
15946,5.21E-03,3.04E-03
15947,5.14E-03,3.03E-03
15948,5.37E-03,3.06E-03
15949,5.29E-03,3.05E-03
15950,5.51E-03,3.07E-03
15951,5.42E-03,3.06E-03
15952,5.47E-03,3.10E-03
15953,5.52E-03,3.08E-03
15954,5.32E-03,3.12E-03
15955,6.31E-03,3.34E-03
15956,5.66E-03,9.25E-03
15957,5.60E-03,9.10E-03
15958,5.59E-03,8.36E-03
15959,5.83E-03,8.42E-03
15960,5.15E-03,8.29E-03
15961,5.47E-03,1.44E-02
15962,5.32E-03,1.44E-02
15963,5.85E-03,1.15E-02
15964,5.90E-03,1.12E-02
15965,5.10E-03,1.49E-02
15966,5.05E-03,1.49E-02
15967,5.76E-03,1.17E-02
15968,5.20E-03,1.50E-02
15969,5.18E-03,1.49E-02
15970,7.20E-03,8.77E-03
15971,4.71E-03,6.31E-03
15972,4.99E-03,1.60E-02
15973,4.97E-03,1.60E-02
15974,5.78E-03,1.46E-02
15975,5.63E-03,1.44E-02
15976,5.66E-03,9.42E-03
15977,5.40E-03,1.27E-02
15978,5.22E-03,1.50E-02
15979,5.83E-03,1.42E-02
15980,5.90E-03,1.40E-02
15981,5.51E-03,9.63E-03
15982,4.38E-03,1.38E-02
15983,5.46E-03,1.35E-02
15984,5.24E-03,1.52E-02
15985,4.08E-03,1.41E-02
15986,5.06E-03,1.53E-02
15987,4.45E-03,1.51E-02
15988,6.07E-03,6.58E-03
15989,6.01E-03,6.48E-03
15990,5.90E-03,6.30E-03
15991,5.76E-03,5.57E-03
15992,3.98E-03,3.65E-03
15993,5.66E-03,3.59E-03
15994,6.75E-03,3.00E-03
15995,5.28E-03,9.29E-03
15996,4.97E-03,8.48E-03
15997,4.97E-03,1.55E-02
15998,5.59E-03,1.26E-02
15999,5.65E-03,1.24E-02
16000,5.49E-03,1.29E-02
16001,5.85E-03,1.45E-02
16002,5.46E-03,9.80E-03
16003,5.01E-03,1.60E-02
16004,6.09E-03,5.95E-03
16005,5.43E-03,8.40E-03
16006,5.63E-03,7.93E-03
16007,5.79E-03,1.50E-02
16008,5.52E-03,9.77E-03
16009,5.49E-03,9.95E-03
16010,4.03E-03,1.54E-02
16011,3.65E-03,1.58E-02
16012,5.94E-03,5.63E-03
16013,5.07E-03,2.82E-03
16014,5.82E-03,7.52E-03
16015,5.73E-03,1.54E-02
16016,5.73E-03,1.55E-02
16017,5.58E-03,8.06E-03
16018,5.95E-03,7.11E-03
16019,6.02E-03,6.71E-03
16020,5.73E-03,6.89E-03
16021,5.83E-03,7.22E-03
16022,5.78E-03,7.58E-03
16023,6.18E-03,1.40E-02
16024,6.80E-03,1.34E-02
16025,6.31E-03,1.27E-02
16026,6.33E-03,1.21E-02
16027,6.43E-03,1.15E-02
16028,6.66E-03,1.10E-02
16029,6.79E-03,1.03E-02
16030,7.00E-03,9.77E-03
16031,7.33E-03,9.22E-03
16032,6.57E-03,3.77E-03
16033,6.68E-03,4.12E-03
16034,6.71E-03,4.46E-03
16035,6.67E-03,4.79E-03
16036,6.76E-03,5.12E-03
16037,5.96E-03,5.71E-03
16038,6.32E-03,5.42E-03
16039,6.43E-03,3.42E-03
16040,6.29E-03,3.03E-03
16041,6.35E-03,3.06E-03
16042,5.43E-03,6.00E-03
16043,4.79E-03,3.00E-03
16044,4.88E-03,6.30E-03
16045,5.76E-03,1.45E-02
16046,5.54E-03,9.59E-03
16047,5.35E-03,1.31E-02
16048,5.29E-03,1.29E-02
16049,4.93E-03,1.51E-02
16050,5.09E-03,1.51E-02
16051,5.96E-03,1.41E-02
16052,5.56E-03,9.95E-03
16053,5.54E-03,9.79E-03
16054,5.50E-03,1.33E-02
16055,4.88E-03,1.52E-02
16056,4.87E-03,1.52E-02
16057,5.70E-03,1.03E-02
16058,5.61E-03,1.01E-02
16059,5.01E-03,1.52E-02
16060,5.18E-03,1.51E-02
16061,5.32E-03,1.49E-02
16062,5.26E-03,1.50E-02
16063,5.66E-03,1.06E-02
16064,5.63E-03,1.04E-02
16065,4.89E-03,1.43E-02
16066,4.55E-03,1.42E-02
16067,5.14E-03,1.52E-02
16068,5.80E-03,1.10E-02
16069,5.78E-03,1.08E-02
16070,4.90E-03,1.45E-02
16071,3.98E-03,1.53E-02
16072,5.95E-03,1.14E-02
16073,5.90E-03,1.12E-02
16074,5.96E-03,6.39E-03
16075,5.61E-03,5.40E-03
16076,5.67E-03,5.51E-03
16077,5.72E-03,5.16E-03
16078,5.65E-03,5.29E-03
16079,5.70E-03,4.90E-03
16080,5.72E-03,5.03E-03
16081,5.53E-03,4.64E-03
16082,5.60E-03,4.77E-03
16083,5.40E-03,4.37E-03
16084,5.43E-03,4.50E-03
16085,5.16E-03,4.12E-03
16086,5.19E-03,4.25E-03
16087,4.92E-03,3.88E-03
16088,5.04E-03,4.00E-03
16089,4.78E-03,3.75E-03
16090,5.27E-03,3.42E-03
16091,5.36E-03,3.51E-03
16092,5.04E-03,3.27E-03
16093,5.14E-03,3.34E-03
16094,4.85E-03,3.19E-03
16095,5.06E-03,2.99E-03
16096,5.33E-03,2.78E-03
16097,5.99E-03,2.81E-03
16098,5.08E-03,2.72E-03
16099,5.16E-03,2.75E-03
16100,5.10E-03,2.70E-03
16101,5.10E-03,2.71E-03
16102,5.16E-03,2.70E-03
16103,5.13E-03,2.70E-03
16104,5.25E-03,2.72E-03
16105,5.21E-03,2.71E-03
16106,5.39E-03,2.73E-03
16107,5.33E-03,2.72E-03
16108,5.56E-03,2.74E-03
16109,5.45E-03,2.73E-03
16110,5.50E-03,2.78E-03
16111,5.56E-03,2.76E-03
16112,5.47E-03,2.81E-03
16113,6.35E-03,3.01E-03
16114,5.58E-03,9.59E-03
16115,5.54E-03,9.43E-03
16116,5.62E-03,8.66E-03
16117,6.15E-03,8.74E-03
16118,5.32E-03,8.58E-03
16119,5.43E-03,1.51E-02
16120,5.45E-03,1.50E-02
16121,5.32E-03,1.51E-02
16122,5.92E-03,1.19E-02
16123,5.92E-03,1.16E-02
16124,5.07E-03,1.55E-02
16125,5.02E-03,1.55E-02
16126,5.76E-03,1.21E-02
16127,5.16E-03,1.56E-02
16128,5.12E-03,1.55E-02
16129,5.08E-03,6.60E-03
16130,5.69E-03,1.52E-02
16131,5.55E-03,1.51E-02
16132,5.61E-03,9.75E-03
16133,5.42E-03,1.31E-02
16134,5.16E-03,1.56E-02
16135,6.14E-03,1.49E-02
16136,5.94E-03,1.47E-02
16137,5.44E-03,9.97E-03
16138,4.97E-03,1.56E-02
16139,5.11E-03,1.40E-02
16140,4.84E-03,1.42E-02
16141,5.06E-03,1.59E-02
16142,4.68E-03,1.52E-02
16143,6.10E-03,6.33E-03
16144,6.15E-03,6.21E-03
16145,6.13E-03,6.02E-03
16146,4.32E-03,3.37E-03
16147,4.88E-03,3.43E-03
16148,4.85E-03,3.27E-03
16149,4.86E-03,2.77E-03
16150,4.90E-03,2.84E-03
16151,4.96E-03,2.71E-03
16152,6.62E-03,2.64E-03
16153,5.13E-03,8.74E-03
16154,5.00E-03,1.61E-02
16155,5.61E-03,1.31E-02
16156,5.70E-03,1.28E-02
16157,5.78E-03,8.40E-03
16158,5.29E-03,7.98E-03
16159,5.53E-03,1.33E-02
16160,5.84E-03,1.52E-02
16161,5.43E-03,1.01E-02
16162,5.09E-03,1.67E-02
16163,5.05E-03,1.67E-02
16164,6.40E-03,5.69E-03
16165,5.32E-03,5.34E-03
16166,5.53E-03,5.38E-03
16167,5.10E-03,2.47E-03
16168,5.60E-03,7.60E-03
16169,5.71E-03,1.57E-02
16170,5.48E-03,1.01E-02
16171,5.46E-03,1.03E-02
16172,5.75E-03,7.95E-03
16173,5.82E-03,7.21E-03
16174,5.70E-03,1.60E-02
16175,5.62E-03,1.62E-02
16176,5.26E-03,8.33E-03
16177,5.93E-03,6.83E-03
16178,6.61E-03,7.19E-03
16179,5.68E-03,7.53E-03
16180,6.00E-03,6.46E-03
16181,6.00E-03,1.41E-02
16182,6.36E-03,1.34E-02
16183,6.43E-03,1.28E-02
16184,6.38E-03,1.22E-02
16185,6.38E-03,1.16E-02
16186,6.55E-03,1.10E-02
16187,6.72E-03,1.04E-02
16188,6.91E-03,9.87E-03
16189,7.18E-03,9.31E-03
16190,6.56E-03,3.79E-03
16191,6.66E-03,4.13E-03
16192,6.65E-03,4.47E-03
16193,6.63E-03,4.80E-03
16194,6.54E-03,5.12E-03
16195,5.80E-03,5.68E-03
16196,6.03E-03,5.39E-03
16197,6.47E-03,3.44E-03
16198,6.39E-03,3.09E-03
16199,6.24E-03,2.70E-03
16200,6.24E-03,2.73E-03
16201,5.12E-03,6.28E-03
16202,4.85E-03,6.56E-03
16203,5.66E-03,1.51E-02
16204,5.53E-03,9.93E-03
16205,5.36E-03,1.35E-02
16206,5.31E-03,1.33E-02
16207,4.91E-03,1.57E-02
16208,5.07E-03,1.57E-02
16209,6.35E-03,1.49E-02
16210,5.53E-03,1.03E-02
16211,5.44E-03,1.01E-02
16212,5.31E-03,1.38E-02
16213,4.78E-03,1.58E-02
16214,4.88E-03,1.58E-02
16215,5.62E-03,1.06E-02
16216,5.57E-03,1.05E-02
16217,4.69E-03,1.58E-02
16218,5.14E-03,1.58E-02
16219,5.12E-03,1.57E-02
16220,5.64E-03,1.10E-02
16221,5.64E-03,1.08E-02
16222,4.84E-03,1.49E-02
16223,4.69E-03,1.45E-02
16224,4.64E-03,1.47E-02
16225,5.13E-03,1.59E-02
16226,5.81E-03,1.14E-02
16227,5.78E-03,1.12E-02
16228,4.78E-03,1.51E-02
16229,4.39E-03,1.57E-02
16230,5.99E-03,1.18E-02
16231,5.90E-03,1.16E-02
16232,6.17E-03,6.11E-03
16233,5.57E-03,5.13E-03
16234,5.46E-03,5.24E-03
16235,5.71E-03,4.89E-03
16236,5.65E-03,5.01E-03
16237,5.71E-03,4.63E-03
16238,5.78E-03,4.76E-03
16239,5.56E-03,4.37E-03
16240,5.63E-03,4.50E-03
16241,5.38E-03,4.11E-03
16242,5.41E-03,4.24E-03
16243,5.16E-03,3.86E-03
16244,5.19E-03,3.98E-03
16245,4.94E-03,3.63E-03
16246,5.01E-03,3.74E-03
16247,4.70E-03,3.51E-03
16248,5.15E-03,3.14E-03
16249,5.16E-03,3.21E-03
16250,5.03E-03,2.99E-03
16251,5.08E-03,3.06E-03
16252,4.93E-03,2.91E-03
16253,5.74E-03,2.68E-03
16254,5.24E-03,2.48E-03
16255,5.32E-03,2.50E-03
16256,5.10E-03,2.42E-03
16257,5.18E-03,2.44E-03
16258,5.15E-03,2.39E-03
16259,5.14E-03,2.40E-03
16260,5.24E-03,2.38E-03
16261,5.15E-03,2.38E-03
16262,5.29E-03,2.39E-03
16263,5.26E-03,2.39E-03
16264,5.42E-03,2.40E-03
16265,5.35E-03,2.40E-03
16266,5.53E-03,2.41E-03
16267,5.45E-03,2.41E-03
16268,5.57E-03,2.45E-03
16269,5.58E-03,2.43E-03
16270,5.49E-03,2.47E-03
16271,6.33E-03,2.67E-03
16272,5.52E-03,9.59E-03
16273,5.60E-03,9.91E-03
16274,5.56E-03,9.74E-03
16275,6.86E-03,9.20E-03
16276,6.28E-03,9.35E-03
16277,5.88E-03,8.95E-03
16278,6.49E-03,9.06E-03
16279,5.55E-03,8.85E-03
16280,5.55E-03,1.57E-02
16281,5.53E-03,1.56E-02
16282,5.52E-03,1.57E-02
16283,5.56E-03,1.55E-02
16284,5.42E-03,1.56E-02
16285,5.82E-03,1.55E-02
16286,5.68E-03,1.55E-02
16287,5.95E-03,1.23E-02
16288,5.95E-03,1.21E-02
16289,5.09E-03,1.61E-02
16290,5.06E-03,1.61E-02
16291,5.79E-03,1.25E-02
16292,5.19E-03,1.62E-02
16293,5.14E-03,1.62E-02
16294,5.14E-03,6.86E-03
16295,5.68E-03,1.59E-02
16296,5.56E-03,1.58E-02
16297,5.58E-03,1.01E-02
16298,4.83E-03,8.13E-03
16299,5.19E-03,8.01E-03
16300,5.43E-03,1.35E-02
16301,5.14E-03,1.62E-02
16302,4.58E-03,1.56E-02
16303,5.98E-03,1.53E-02
16304,5.42E-03,1.03E-02
16305,5.08E-03,1.66E-02
16306,4.35E-03,1.65E-02
16307,6.11E-03,6.11E-03
16308,6.22E-03,5.98E-03
16309,6.46E-03,5.76E-03
16310,4.54E-03,3.13E-03
16311,4.77E-03,3.22E-03
16312,4.80E-03,3.04E-03
16313,4.95E-03,2.46E-03
16314,4.95E-03,2.53E-03
16315,5.08E-03,2.47E-03
16316,5.67E-03,2.21E-03
16317,5.38E-03,8.97E-03
16318,5.02E-03,1.67E-02
16319,5.46E-03,7.67E-03
16320,5.70E-03,1.59E-02
16321,5.40E-03,1.05E-02
16322,5.62E-03,7.88E-03
16323,5.68E-03,7.31E-03
16324,5.53E-03,1.64E-02
16325,5.45E-03,1.04E-02
16326,5.44E-03,1.06E-02
16327,5.20E-03,1.74E-02
16328,5.16E-03,1.74E-02
16329,5.63E-03,8.26E-03
16330,5.80E-03,6.95E-03
16331,5.57E-03,1.68E-02
16332,5.41E-03,1.70E-02
16333,4.86E-03,7.25E-03
16334,5.40E-03,7.53E-03
16335,5.49E-03,8.64E-03
16336,5.98E-03,6.59E-03
16337,5.53E-03,5.97E-03
16338,6.01E-03,6.25E-03
16339,3.96E-03,1.61E-02
16340,4.47E-03,1.65E-02
16341,3.95E-03,1.60E-02
16342,5.63E-03,1.61E-02
16343,5.30E-03,1.55E-02
16344,5.89E-03,1.41E-02
16345,6.18E-03,1.35E-02
16346,6.42E-03,1.28E-02
16347,6.41E-03,1.22E-02
16348,6.37E-03,1.16E-02
16349,6.47E-03,1.11E-02
16350,6.61E-03,1.05E-02
16351,6.80E-03,9.97E-03
16352,7.01E-03,9.43E-03
16353,7.11E-03,8.91E-03
16354,6.58E-03,3.80E-03
16355,6.65E-03,4.14E-03
16356,6.62E-03,4.48E-03
16357,6.53E-03,4.80E-03
16358,6.32E-03,5.10E-03
16359,5.74E-03,5.65E-03
16360,5.94E-03,5.37E-03
16361,6.49E-03,3.46E-03
16362,6.45E-03,3.11E-03
16363,6.31E-03,2.75E-03
16364,6.16E-03,2.37E-03
16365,6.17E-03,2.40E-03
16366,4.97E-03,6.54E-03
16367,4.95E-03,2.59E-03
16368,4.66E-03,6.83E-03
16369,5.64E-03,1.58E-02
16370,5.53E-03,1.03E-02
16371,4.68E-03,8.10E-03
16372,5.33E-03,1.40E-02
16373,5.36E-03,1.38E-02
16374,4.90E-03,1.63E-02
16375,5.08E-03,1.63E-02
16376,4.80E-03,1.59E-02
16377,6.43E-03,1.56E-02
16378,5.50E-03,1.06E-02
16379,5.44E-03,1.05E-02
16380,5.13E-03,1.45E-02
16381,5.20E-03,1.42E-02
16382,4.68E-03,1.64E-02
16383,4.86E-03,1.64E-02
16384,4.68E-03,1.64E-02
16385,3.77E-03,1.62E-02
16386,5.60E-03,1.10E-02
16387,5.56E-03,1.08E-02
16388,4.95E-03,1.50E-02
16389,4.92E-03,1.47E-02
16390,4.62E-03,1.64E-02
16391,5.05E-03,1.65E-02
16392,4.91E-03,1.64E-02
16393,5.66E-03,1.14E-02
16394,5.65E-03,1.12E-02
16395,4.89E-03,1.55E-02
16396,4.77E-03,1.52E-02
16397,5.16E-03,1.66E-02
16398,5.81E-03,1.18E-02
16399,5.78E-03,1.16E-02
16400,4.72E-03,1.56E-02
16401,4.45E-03,1.61E-02
16402,4.28E-03,1.63E-02
16403,5.95E-03,1.22E-02
16404,5.91E-03,1.20E-02
16405,6.35E-03,5.86E-03
16406,4.96E-03,5.10E-03
16407,4.06E-03,5.16E-03
16408,5.50E-03,4.89E-03
16409,5.36E-03,5.00E-03
16410,5.71E-03,4.64E-03
16411,5.60E-03,4.77E-03
16412,5.65E-03,4.39E-03
16413,5.73E-03,4.52E-03
16414,5.59E-03,4.13E-03
16415,5.57E-03,4.26E-03
16416,5.39E-03,3.88E-03
16417,5.39E-03,4.00E-03
16418,5.19E-03,3.63E-03
16419,5.19E-03,3.75E-03
16420,4.95E-03,3.41E-03
16421,4.98E-03,3.52E-03
16422,4.81E-03,3.31E-03
16423,5.08E-03,2.88E-03
16424,5.01E-03,2.96E-03
16425,5.00E-03,2.74E-03
16426,5.10E-03,2.81E-03
16427,5.00E-03,2.66E-03
16428,4.41E-03,2.32E-03
16429,5.76E-03,2.40E-03
16430,4.83E-03,2.21E-03
16431,4.25E-03,2.24E-03
16432,5.17E-03,2.18E-03
16433,5.10E-03,2.20E-03
16434,5.15E-03,2.13E-03
16435,5.20E-03,2.15E-03
16436,5.23E-03,2.09E-03
16437,5.20E-03,2.11E-03
16438,5.25E-03,2.08E-03
16439,5.24E-03,2.08E-03
16440,5.32E-03,2.08E-03
16441,5.28E-03,2.08E-03
16442,5.45E-03,2.08E-03
16443,5.38E-03,2.08E-03
16444,5.52E-03,2.09E-03
16445,5.50E-03,2.09E-03
16446,5.53E-03,2.13E-03
16447,5.56E-03,2.11E-03
16448,5.53E-03,2.15E-03
16449,6.20E-03,2.34E-03
16450,5.92E-03,9.86E-03
16451,5.64E-03,1.02E-02
16452,5.64E-03,1.01E-02
16453,6.40E-03,9.53E-03
16454,6.21E-03,9.65E-03
16455,6.13E-03,9.25E-03
16456,6.35E-03,9.39E-03
16457,6.08E-03,9.12E-03
16458,5.59E-03,1.64E-02
16459,5.57E-03,1.63E-02
16460,5.55E-03,1.64E-02
16461,5.66E-03,1.63E-02
16462,5.62E-03,1.63E-02
16463,5.79E-03,1.62E-02
16464,5.75E-03,1.63E-02
16465,5.85E-03,1.62E-02
16466,5.97E-03,1.27E-02
16467,5.94E-03,1.25E-02
16468,5.17E-03,1.68E-02
16469,5.14E-03,1.67E-02
16470,5.79E-03,1.32E-02
16471,5.85E-03,1.30E-02
16472,5.17E-03,1.68E-02
16473,5.18E-03,1.68E-02
16474,3.92E-03,7.10E-03
16475,5.66E-03,1.66E-02
16476,5.57E-03,1.65E-02
16477,5.57E-03,1.04E-02
16478,5.30E-03,7.76E-03
16479,5.13E-03,1.69E-02
16480,5.70E-03,1.61E-02
16481,5.35E-03,1.06E-02
16482,5.11E-03,1.73E-02
16483,5.11E-03,1.73E-02
16484,6.12E-03,5.93E-03
16485,6.23E-03,5.79E-03
16486,6.78E-03,5.54E-03
16487,4.82E-03,2.94E-03
16488,4.79E-03,3.04E-03
16489,4.82E-03,2.85E-03
16490,4.96E-03,2.24E-03
16491,5.33E-03,7.84E-03
16492,5.51E-03,7.41E-03
16493,5.49E-03,1.66E-02
16494,5.37E-03,1.08E-02
16495,5.13E-03,1.74E-02
16496,5.67E-03,8.20E-03
16497,5.73E-03,7.06E-03
16498,5.28E-03,1.71E-02
16499,5.44E-03,1.08E-02
16500,5.43E-03,1.10E-02
16501,4.63E-03,7.52E-03
16502,5.92E-03,8.60E-03
16503,5.88E-03,6.71E-03
16504,4.92E-03,1.77E-02
16505,5.53E-03,5.94E-03
16506,5.94E-03,6.38E-03
16507,6.27E-03,1.67E-02
16508,5.92E-03,1.67E-02
16509,5.21E-03,1.59E-02
16510,5.21E-03,6.25E-03
16511,6.69E-03,9.04E-03
16512,5.14E-03,1.54E-02
16513,5.56E-03,1.48E-02
16514,5.95E-03,1.41E-02
16515,6.18E-03,1.35E-02
16516,6.34E-03,1.29E-02
16517,6.42E-03,1.23E-02
16518,6.37E-03,1.17E-02
16519,6.42E-03,1.12E-02
16520,6.54E-03,1.06E-02
16521,6.66E-03,1.01E-02
16522,6.85E-03,9.55E-03
16523,6.89E-03,9.04E-03
16524,6.92E-03,8.36E-03
16525,6.88E-03,8.58E-03
16526,6.02E-03,6.07E-03
16527,6.63E-03,3.81E-03
16528,6.63E-03,4.16E-03
16529,6.54E-03,4.48E-03
16530,6.39E-03,4.80E-03
16531,6.22E-03,5.08E-03
16532,5.61E-03,5.63E-03
16533,5.79E-03,5.35E-03
16534,6.51E-03,3.47E-03
16535,6.41E-03,3.13E-03
16536,6.38E-03,2.78E-03
16537,6.20E-03,2.43E-03
16538,6.09E-03,2.04E-03
16539,6.12E-03,2.08E-03
16540,4.89E-03,6.81E-03
16541,4.70E-03,7.09E-03
16542,5.46E-03,1.40E-02
16543,5.69E-03,1.66E-02
16544,5.52E-03,1.06E-02
16545,5.26E-03,7.99E-03
16546,5.28E-03,7.89E-03
16547,5.28E-03,1.45E-02
16548,5.34E-03,1.42E-02
16549,4.84E-03,1.69E-02
16550,5.07E-03,1.69E-02
16551,5.03E-03,1.65E-02
16552,5.44E-03,1.63E-02
16553,5.44E-03,1.10E-02
16554,5.41E-03,1.08E-02
16555,6.27E-03,8.19E-03
16556,5.16E-03,1.50E-02
16557,5.18E-03,1.47E-02
16558,4.65E-03,1.70E-02
16559,4.87E-03,1.70E-02
16560,4.74E-03,1.71E-02
16561,4.72E-03,1.68E-02
16562,5.63E-03,1.14E-02
16563,5.58E-03,1.12E-02
16564,5.06E-03,1.55E-02
16565,5.00E-03,1.52E-02
16566,4.44E-03,1.70E-02
16567,4.61E-03,1.70E-02
16568,5.08E-03,1.73E-02
16569,4.95E-03,1.72E-02
16570,5.68E-03,1.17E-02
16571,5.65E-03,1.15E-02
16572,4.94E-03,1.60E-02
16573,4.87E-03,1.58E-02
16574,4.41E-03,1.69E-02
16575,4.39E-03,1.70E-02
16576,5.16E-03,1.73E-02
16577,5.80E-03,1.22E-02
16578,5.78E-03,1.20E-02
16579,4.83E-03,1.64E-02
16580,4.76E-03,1.62E-02
16581,4.57E-03,1.67E-02
16582,4.50E-03,1.68E-02
16583,6.01E-03,1.26E-02
16584,5.92E-03,1.24E-02
16585,6.51E-03,5.66E-03
16586,5.05E-03,4.89E-03
16587,4.06E-03,4.96E-03
16588,5.52E-03,4.69E-03
16589,5.39E-03,4.80E-03
16590,5.68E-03,4.44E-03
16591,5.61E-03,4.56E-03
16592,5.64E-03,4.19E-03
16593,5.68E-03,4.31E-03
16594,5.58E-03,3.93E-03
16595,5.58E-03,4.06E-03
16596,5.40E-03,3.68E-03
16597,5.39E-03,3.81E-03
16598,5.20E-03,3.45E-03
16599,5.20E-03,3.56E-03
16600,4.98E-03,3.23E-03
16601,4.99E-03,3.33E-03
16602,4.84E-03,3.13E-03
16603,5.03E-03,2.68E-03
16604,4.96E-03,2.76E-03
16605,5.04E-03,2.53E-03
16606,5.08E-03,2.60E-03
16607,4.99E-03,2.45E-03
16608,4.77E-03,2.13E-03
16609,4.99E-03,2.17E-03
16610,4.88E-03,1.98E-03
16611,4.89E-03,2.06E-03
16612,5.17E-03,1.91E-03
16613,5.06E-03,1.95E-03
16614,5.21E-03,1.85E-03
16615,5.23E-03,1.88E-03
16616,5.28E-03,1.81E-03
16617,5.24E-03,1.83E-03
16618,5.25E-03,1.78E-03
16619,5.28E-03,1.79E-03
16620,5.34E-03,1.77E-03
16621,5.33E-03,1.78E-03
16622,5.46E-03,1.77E-03
16623,5.40E-03,1.77E-03
16624,5.55E-03,1.78E-03
16625,5.54E-03,1.78E-03
16626,5.60E-03,1.82E-03
16627,5.59E-03,1.80E-03
16628,5.72E-03,1.90E-03
16629,5.65E-03,1.86E-03
16630,5.96E-03,1.98E-03
16631,5.83E-03,1.93E-03
16632,6.05E-03,2.01E-03
16633,5.93E-03,1.02E-02
16634,5.68E-03,1.05E-02
16635,5.77E-03,1.03E-02
16636,6.26E-03,9.83E-03
16637,6.08E-03,9.99E-03
16638,6.29E-03,9.55E-03
16639,6.31E-03,9.69E-03
16640,6.31E-03,9.40E-03
16641,4.70E-03,1.66E-02
16642,5.53E-03,1.72E-02
16643,5.67E-03,1.71E-02
16644,5.62E-03,1.71E-02
16645,5.76E-03,1.71E-02
16646,5.71E-03,1.71E-02
16647,5.84E-03,1.70E-02
16648,5.79E-03,1.71E-02
16649,5.97E-03,1.69E-02
16650,5.95E-03,1.31E-02
16651,6.03E-03,1.29E-02
16652,5.19E-03,1.74E-02
16653,5.14E-03,1.74E-02
16654,5.87E-03,1.37E-02
16655,5.90E-03,1.34E-02
16656,5.17E-03,1.74E-02
16657,5.24E-03,1.74E-02
16658,5.60E-03,1.42E-02
16659,5.60E-03,1.39E-02
16660,4.10E-03,7.34E-03
16661,4.93E-03,7.81E-03
16662,6.06E-03,1.74E-02
16663,5.65E-03,1.72E-02
16664,5.59E-03,1.07E-02
16665,5.50E-03,7.53E-03
16666,5.48E-03,1.45E-02
16667,5.18E-03,1.75E-02
16668,5.38E-03,1.68E-02
16669,5.34E-03,1.10E-02
16670,4.87E-03,1.75E-02
16671,4.51E-03,1.76E-02
16672,5.17E-03,1.81E-02
16673,5.14E-03,1.81E-02
16674,4.88E-03,2.79E-03
16675,4.81E-03,2.89E-03
16676,4.87E-03,2.70E-03
16677,5.02E-03,2.20E-03
16678,5.16E-03,1.81E-02
16679,5.43E-03,8.12E-03
16680,5.59E-03,7.18E-03
16681,5.23E-03,1.73E-02
16682,5.40E-03,1.11E-02
16683,5.95E-03,8.51E-03
16684,5.76E-03,6.84E-03
16685,4.92E-03,1.78E-02
16686,5.42E-03,1.11E-02
16687,5.42E-03,1.13E-02
16688,5.66E-03,1.67E-02
16689,6.07E-03,1.74E-02
16690,5.84E-03,1.73E-02
16691,5.64E-03,1.66E-02
16692,5.47E-03,5.92E-03
16693,5.89E-03,6.51E-03
16694,4.20E-03,1.83E-02
16695,5.36E-03,1.59E-02
16696,5.29E-03,6.23E-03
16697,5.11E-03,6.52E-03
16698,6.38E-03,8.94E-03
16699,7.62E-03,9.39E-03
16700,6.21E-03,5.65E-03
16701,6.18E-03,5.80E-03
16702,5.53E-03,1.47E-02
16703,5.82E-03,1.41E-02
16704,6.11E-03,1.35E-02
16705,6.32E-03,1.29E-02
16706,6.46E-03,1.23E-02
16707,5.22E-03,1.52E-02
16708,6.39E-03,1.18E-02
16709,6.40E-03,1.12E-02
16710,6.46E-03,1.07E-02
16711,6.58E-03,1.02E-02
16712,6.76E-03,9.66E-03
16713,6.79E-03,9.17E-03
16714,6.71E-03,8.70E-03
16715,6.32E-03,8.05E-03
16716,6.54E-03,8.24E-03
16717,5.96E-03,6.21E-03
16718,6.63E-03,3.83E-03
16719,6.54E-03,4.17E-03
16720,6.42E-03,4.49E-03
16721,6.33E-03,4.79E-03
16722,6.21E-03,5.07E-03
16723,6.53E-03,3.49E-03
16724,6.49E-03,3.15E-03
16725,5.43E-03,5.62E-03
16726,5.73E-03,5.34E-03
16727,6.30E-03,2.80E-03
16728,6.27E-03,2.45E-03
16729,6.16E-03,2.10E-03
16730,6.02E-03,1.72E-03
16731,6.00E-03,1.75E-03
16732,4.78E-03,7.07E-03
16733,4.92E-03,7.34E-03
16734,5.77E-03,1.73E-02
16735,5.51E-03,1.09E-02
16736,5.67E-03,7.79E-03
16737,5.48E-03,7.65E-03
16738,5.20E-03,1.49E-02
16739,5.36E-03,1.47E-02
16740,5.00E-03,1.75E-02
16741,5.04E-03,1.72E-02
16742,5.25E-03,1.70E-02
16743,5.44E-03,1.13E-02
16744,5.42E-03,1.12E-02
16745,5.78E-03,7.95E-03
16746,5.19E-03,1.55E-02
16747,5.19E-03,1.52E-02
16748,4.65E-03,1.76E-02
16749,4.79E-03,1.76E-02
16750,4.92E-03,1.77E-02
16751,4.88E-03,1.75E-02
16752,5.59E-03,1.17E-02
16753,5.53E-03,1.15E-02
16754,5.11E-03,1.60E-02
16755,5.10E-03,1.57E-02
16756,4.59E-03,1.76E-02
16757,5.06E-03,1.80E-02
16758,4.98E-03,1.79E-02
16759,5.67E-03,1.21E-02
16760,5.63E-03,1.19E-02
16761,5.03E-03,1.65E-02
16762,4.95E-03,1.63E-02
16763,4.51E-03,1.75E-02
16764,4.49E-03,1.75E-02
16765,5.17E-03,1.80E-02
16766,5.80E-03,1.26E-02
16767,5.78E-03,1.23E-02
16768,4.84E-03,1.70E-02
16769,4.86E-03,1.68E-02
16770,4.65E-03,1.73E-02
16771,4.59E-03,1.74E-02
16772,6.04E-03,1.30E-02
16773,5.90E-03,1.28E-02
16774,6.51E-03,5.38E-03
16775,6.35E-03,5.51E-03
16776,6.66E-03,5.08E-03
16777,7.06E-03,5.24E-03
16778,5.33E-03,4.78E-03
16779,5.82E-03,4.91E-03
16780,5.53E-03,4.54E-03
16781,5.42E-03,4.66E-03
16782,5.65E-03,4.28E-03
16783,5.60E-03,4.41E-03
16784,5.62E-03,4.03E-03
16785,5.64E-03,4.15E-03
16786,5.52E-03,3.78E-03
16787,5.56E-03,3.90E-03
16788,5.40E-03,3.53E-03
16789,5.41E-03,3.66E-03
16790,5.22E-03,3.30E-03
16791,5.21E-03,3.41E-03
16792,5.00E-03,3.09E-03
16793,5.04E-03,3.19E-03
16794,4.89E-03,2.99E-03
16795,5.03E-03,2.53E-03
16796,4.97E-03,2.61E-03
16797,5.09E-03,2.36E-03
16798,5.10E-03,2.44E-03
16799,5.03E-03,2.28E-03
16800,4.93E-03,1.92E-03
16801,4.91E-03,1.98E-03
16802,5.03E-03,1.80E-03
16803,5.03E-03,1.86E-03
16804,5.16E-03,1.69E-03
16805,5.11E-03,1.74E-03
16806,5.24E-03,1.61E-03
16807,5.26E-03,1.65E-03
16808,5.32E-03,1.56E-03
16809,5.28E-03,1.58E-03
16810,5.31E-03,1.51E-03
16811,5.33E-03,1.53E-03
16812,5.37E-03,1.49E-03
16813,5.34E-03,1.50E-03
16814,5.47E-03,1.48E-03
16815,5.44E-03,1.48E-03
16816,5.58E-03,1.48E-03
16817,5.56E-03,1.48E-03
16818,5.63E-03,1.52E-03
16819,5.61E-03,1.50E-03
16820,5.75E-03,1.58E-03
16821,5.70E-03,1.55E-03
16822,5.89E-03,1.65E-03
16823,5.78E-03,1.61E-03
16824,5.98E-03,1.69E-03
16825,5.89E-03,1.05E-02
16826,5.69E-03,1.08E-02
16827,5.81E-03,1.07E-02
16828,6.14E-03,1.01E-02
16829,6.04E-03,1.03E-02
16830,6.40E-03,9.84E-03
16831,6.28E-03,9.99E-03
16832,6.53E-03,9.68E-03
16833,4.68E-03,1.72E-02
16834,5.67E-03,1.79E-02
16835,5.77E-03,1.79E-02
16836,5.68E-03,1.79E-02
16837,5.85E-03,1.80E-02
16838,5.78E-03,1.80E-02
16839,5.96E-03,1.78E-02
16840,5.90E-03,1.79E-02
16841,6.90E-03,1.75E-02
16842,6.17E-03,1.77E-02
16843,6.91E-03,1.75E-02
16844,4.91E-03,1.63E-02
16845,4.59E-03,1.64E-02
16846,5.21E-03,1.61E-02
16847,5.33E-03,1.53E-02
16848,5.98E-03,1.36E-02
16849,6.05E-03,1.33E-02
16850,5.24E-03,1.81E-02
16851,5.21E-03,1.81E-02
16852,5.86E-03,1.41E-02
16853,5.92E-03,1.38E-02
16854,5.15E-03,1.81E-02
16855,5.23E-03,1.81E-02
16856,5.62E-03,1.47E-02
16857,5.66E-03,1.44E-02
16858,4.53E-03,8.06E-03
16859,4.91E-03,7.56E-03
16860,5.82E-03,1.81E-02
16861,5.74E-03,1.80E-02
16862,5.59E-03,1.10E-02
16863,5.58E-03,7.30E-03
16864,5.51E-03,1.49E-02
16865,5.19E-03,1.81E-02
16866,5.19E-03,1.75E-02
16867,5.34E-03,1.13E-02
16868,4.92E-03,1.81E-02
16869,5.87E-03,1.71E-02
16870,5.84E-03,1.69E-02
16871,4.87E-03,2.79E-03
16872,4.90E-03,2.69E-03
16873,5.25E-03,1.87E-02
16874,5.87E-03,8.42E-03
16875,5.66E-03,6.96E-03
16876,5.00E-03,1.80E-02
16877,5.38E-03,1.15E-02
16878,5.74E-03,1.64E-02
16879,5.17E-03,1.47E-02
16880,4.75E-03,1.46E-02
16881,4.99E-03,1.51E-02
16882,5.15E-03,1.88E-02
16883,5.21E-03,1.88E-02
16884,5.29E-03,5.90E-03
16885,5.78E-03,6.64E-03
16886,4.60E-03,1.85E-02
16887,5.42E-03,1.14E-02
16888,5.40E-03,1.16E-02
16889,5.55E-03,1.58E-02
16890,5.35E-03,6.20E-03
16891,5.16E-03,6.50E-03
16892,5.01E-03,6.79E-03
16893,6.31E-03,8.82E-03
16894,6.62E-03,9.24E-03
16895,6.82E-03,9.82E-03
16896,6.88E-03,9.69E-03
16897,6.04E-03,5.94E-03
16898,6.18E-03,5.56E-03
16899,6.13E-03,5.70E-03
16900,5.70E-03,1.41E-02
16901,5.96E-03,1.35E-02
16902,6.18E-03,1.30E-02
16903,6.43E-03,1.24E-02
16904,5.49E-03,1.46E-02
16905,5.44E-03,1.51E-02
16906,6.46E-03,1.18E-02
16907,6.43E-03,1.13E-02
16908,6.42E-03,1.08E-02
16909,6.55E-03,1.03E-02
16910,6.66E-03,9.78E-03
16911,6.69E-03,9.29E-03
16912,6.66E-03,8.83E-03
16913,6.52E-03,8.40E-03
16914,6.07E-03,7.84E-03
16915,6.29E-03,7.98E-03
16916,5.91E-03,6.35E-03
16917,6.55E-03,3.84E-03
16918,6.44E-03,4.17E-03
16919,6.37E-03,4.49E-03
16920,6.27E-03,4.78E-03
16921,6.58E-03,3.50E-03
16922,6.46E-03,3.16E-03
16923,6.25E-03,5.06E-03
16924,5.07E-03,5.62E-03
16925,5.85E-03,5.34E-03
16926,6.46E-03,2.82E-03
16927,6.24E-03,2.48E-03
16928,6.21E-03,2.13E-03
16929,6.08E-03,1.78E-03
16930,5.96E-03,1.40E-03
16931,5.97E-03,1.43E-03
16932,4.96E-03,7.34E-03
16933,4.94E-03,7.60E-03
16934,2.79E-03,1.91E-02
16935,5.55E-03,1.80E-02
16936,5.52E-03,1.87E-02
16937,5.57E-03,1.89E-02
16938,5.50E-03,1.12E-02
16939,5.73E-03,7.55E-03
16940,5.62E-03,7.42E-03
16941,5.26E-03,1.54E-02
16942,5.37E-03,1.52E-02
16943,5.02E-03,1.81E-02
16944,5.00E-03,1.80E-02
16945,5.11E-03,1.77E-02
16946,5.44E-03,1.17E-02
16947,5.35E-03,1.15E-02
16948,5.90E-03,7.68E-03
16949,5.16E-03,1.60E-02
16950,5.20E-03,1.57E-02
16951,4.63E-03,1.82E-02
16952,4.70E-03,1.81E-02
16953,4.97E-03,1.85E-02
16954,4.93E-03,1.83E-02
16955,5.50E-03,1.21E-02
16956,5.46E-03,1.19E-02
16957,6.19E-03,1.65E-02
16958,5.94E-03,1.67E-02
16959,5.13E-03,1.65E-02
16960,5.13E-03,1.62E-02
16961,4.61E-03,1.82E-02
16962,4.61E-03,1.82E-02
16963,5.05E-03,1.87E-02
16964,5.00E-03,1.86E-02
16965,5.65E-03,1.25E-02
16966,5.60E-03,1.23E-02
16967,3.90E-03,1.58E-02
16968,4.61E-03,1.62E-02
16969,5.05E-03,1.71E-02
16970,5.01E-03,1.68E-02
16971,4.59E-03,1.81E-02
16972,4.56E-03,1.81E-02
16973,5.09E-03,1.88E-02
16974,5.81E-03,1.29E-02
16975,5.74E-03,1.27E-02
16976,4.72E-03,1.56E-02
16977,4.96E-03,1.76E-02
16978,4.90E-03,1.73E-02
16979,4.73E-03,1.79E-02
16980,4.68E-03,1.80E-02
16981,6.03E-03,1.34E-02
16982,5.91E-03,1.32E-02
16983,6.37E-03,5.27E-03
16984,6.31E-03,5.41E-03
16985,6.22E-03,4.97E-03
16986,6.30E-03,5.12E-03
16987,5.71E-03,4.69E-03
16988,5.90E-03,4.83E-03
16989,5.52E-03,4.43E-03
16990,5.55E-03,4.56E-03
16991,5.63E-03,4.17E-03
16992,5.59E-03,4.30E-03
16993,5.61E-03,3.92E-03
16994,5.54E-03,4.04E-03
16995,5.50E-03,3.67E-03
16996,5.56E-03,3.79E-03
16997,5.42E-03,3.43E-03
16998,5.42E-03,3.55E-03
16999,5.23E-03,3.20E-03
17000,5.25E-03,3.31E-03
17001,5.00E-03,2.99E-03
17002,5.12E-03,3.09E-03
17003,4.92E-03,2.89E-03
17004,5.03E-03,2.42E-03
17005,4.93E-03,2.60E-03
17006,4.98E-03,2.51E-03
17007,5.13E-03,2.25E-03
17008,5.11E-03,2.33E-03
17009,5.04E-03,2.08E-03
17010,5.06E-03,2.16E-03
17011,5.00E-03,1.92E-03
17012,5.01E-03,2.00E-03
17013,5.04E-03,1.77E-03
17014,4.98E-03,1.85E-03
17015,5.09E-03,1.64E-03
17016,5.06E-03,1.70E-03
17017,5.21E-03,1.53E-03
17018,5.14E-03,1.58E-03
17019,5.28E-03,1.42E-03
17020,5.29E-03,1.47E-03
17021,5.33E-03,1.34E-03
17022,5.32E-03,1.38E-03
17023,5.35E-03,1.27E-03
17024,5.35E-03,1.30E-03
17025,5.40E-03,1.23E-03
17026,5.34E-03,1.25E-03
17027,5.50E-03,1.20E-03
17028,5.49E-03,1.21E-03
17029,5.56E-03,1.20E-03
17030,5.55E-03,1.20E-03
17031,5.65E-03,1.23E-03
17032,5.61E-03,1.21E-03
17033,5.73E-03,1.27E-03
17034,5.68E-03,1.25E-03
17035,5.83E-03,1.33E-03
17036,5.79E-03,1.30E-03
17037,5.91E-03,1.37E-03
17038,5.86E-03,1.08E-02
17039,5.69E-03,1.12E-02
17040,5.80E-03,1.10E-02
17041,6.07E-03,1.04E-02
17042,6.01E-03,1.06E-02
17043,6.39E-03,1.01E-02
17044,6.15E-03,1.03E-02
17045,6.58E-03,9.97E-03
17046,4.51E-03,1.49E-02
17047,4.79E-03,1.77E-02
17048,5.91E-03,1.89E-02
17049,5.95E-03,1.88E-02
17050,5.85E-03,1.89E-02
17051,5.89E-03,1.89E-02
17052,6.02E-03,1.87E-02
17053,5.90E-03,1.88E-02
17054,6.43E-03,1.84E-02
17055,6.24E-03,1.86E-02
17056,6.21E-03,1.82E-02
17057,6.48E-03,1.83E-02
17058,5.93E-03,1.79E-02
17059,6.02E-03,1.81E-02
17060,6.03E-03,1.75E-02
17061,5.97E-03,1.77E-02
17062,6.24E-03,1.70E-02
17063,6.43E-03,1.72E-02
17064,5.31E-03,1.67E-02
17065,5.42E-03,1.69E-02
17066,5.28E-03,1.62E-02
17067,5.20E-03,1.65E-02
17068,5.26E-03,1.59E-02
17069,5.31E-03,1.58E-02
17070,6.00E-03,1.40E-02
17071,6.01E-03,1.37E-02
17072,5.27E-03,1.87E-02
17073,5.25E-03,1.87E-02
17074,5.87E-03,1.45E-02
17075,5.93E-03,1.43E-02
17076,5.16E-03,1.87E-02
17077,5.30E-03,1.87E-02
17078,5.64E-03,1.51E-02
17079,5.68E-03,1.48E-02
17080,5.55E-03,8.30E-03
17081,5.22E-03,7.83E-03
17082,5.58E-03,1.13E-02
17083,5.70E-03,7.08E-03
17084,5.51E-03,1.54E-02
17085,5.15E-03,1.87E-02
17086,5.04E-03,1.83E-02
17087,5.36E-03,1.17E-02
17088,5.74E-03,1.62E-02
17089,3.91E-03,1.46E-02
17090,4.51E-03,1.49E-02
17091,6.62E-03,1.97E-02
17092,4.93E-03,5.88E-03
17093,5.72E-03,6.77E-03
17094,4.84E-03,1.88E-02
17095,5.35E-03,1.18E-02
17096,5.59E-03,1.57E-02
17097,5.10E-03,1.57E-02
17098,3.81E-03,1.91E-02
17099,5.26E-03,6.17E-03
17100,5.25E-03,6.47E-03
17101,5.10E-03,6.76E-03
17102,4.95E-03,7.05E-03
17103,6.42E-03,8.70E-03
17104,6.59E-03,9.12E-03
17105,6.68E-03,9.55E-03
17106,6.55E-03,1.01E-02
17107,6.57E-03,9.99E-03
17108,5.97E-03,6.08E-03
17109,6.07E-03,5.85E-03
17110,6.09E-03,5.50E-03
17111,6.07E-03,5.65E-03
17112,5.93E-03,1.35E-02
17113,6.13E-03,1.30E-02
17114,6.35E-03,1.25E-02
17115,5.71E-03,1.41E-02
17116,5.54E-03,1.45E-02
17117,6.49E-03,1.19E-02
17118,6.43E-03,1.14E-02
17119,6.42E-03,1.09E-02
17120,6.48E-03,1.04E-02
17121,6.56E-03,9.89E-03
17122,6.67E-03,9.42E-03
17123,6.63E-03,8.96E-03
17124,6.52E-03,8.54E-03
17125,6.34E-03,8.14E-03
17126,5.98E-03,7.64E-03
17127,6.12E-03,7.79E-03
17128,5.53E-03,1.51E-02
17129,5.81E-03,6.49E-03
17130,6.52E-03,3.86E-03
17131,6.42E-03,4.18E-03
17132,6.35E-03,4.49E-03
17133,6.59E-03,3.52E-03
17134,6.47E-03,3.18E-03
17135,6.34E-03,4.78E-03
17136,6.63E-03,5.05E-03
17137,6.42E-03,2.84E-03
17138,6.37E-03,2.50E-03
17139,6.19E-03,2.15E-03
17140,6.13E-03,1.81E-03
17141,6.02E-03,1.46E-03
17142,5.91E-03,1.09E-03
17143,5.91E-03,1.12E-03
17144,5.19E-03,7.60E-03
17145,5.31E-03,7.87E-03
17146,2.87E-03,1.95E-02
17147,5.28E-03,1.89E-02
17148,5.28E-03,1.88E-02
17149,5.42E-03,1.17E-02
17150,5.49E-03,1.15E-02
17151,5.77E-03,7.34E-03
17152,5.72E-03,7.21E-03
17153,5.28E-03,1.59E-02
17154,5.32E-03,1.57E-02
17155,4.90E-03,1.87E-02
17156,5.08E-03,1.87E-02
17157,4.97E-03,1.88E-02
17158,4.97E-03,1.85E-02
17159,5.34E-03,1.20E-02
17160,5.34E-03,1.19E-02
17161,5.89E-03,7.49E-03
17162,5.16E-03,1.65E-02
17163,5.21E-03,1.62E-02
17164,4.66E-03,1.87E-02
17165,4.67E-03,1.87E-02
17166,4.94E-03,1.92E-02
17167,4.93E-03,1.90E-02
17168,5.46E-03,1.24E-02
17169,5.41E-03,1.22E-02
17170,5.28E-03,1.58E-02
17171,5.65E-03,1.60E-02
17172,5.15E-03,1.71E-02
17173,5.16E-03,1.67E-02
17174,4.56E-03,1.87E-02
17175,4.63E-03,1.87E-02
17176,5.01E-03,1.95E-02
17177,5.00E-03,1.94E-02
17178,5.62E-03,1.29E-02
17179,5.58E-03,1.26E-02
17180,4.72E-03,1.53E-02
17181,4.95E-03,1.57E-02
17182,5.09E-03,1.76E-02
17183,5.08E-03,1.74E-02
17184,4.69E-03,1.87E-02
17185,4.61E-03,1.87E-02
17186,5.13E-03,1.95E-02
17187,5.09E-03,1.95E-02
17188,5.79E-03,1.33E-02
17189,5.70E-03,1.31E-02
17190,5.19E-03,1.45E-02
17191,7.34E-03,1.45E-02
17192,5.84E-03,1.41E-02
17193,4.89E-03,1.43E-02
17194,5.28E-03,1.43E-02
17195,4.67E-03,1.51E-02
17196,4.56E-03,1.43E-02
17197,4.55E-03,1.43E-02
17198,5.01E-03,1.81E-02
17199,5.02E-03,1.79E-02
17200,4.83E-03,1.85E-02
17201,4.79E-03,1.86E-02
17202,5.24E-03,1.95E-02
17203,5.25E-03,1.95E-02
17204,5.95E-03,1.38E-02
17205,5.90E-03,1.36E-02
17206,6.16E-03,5.20E-03
17207,6.16E-03,5.35E-03
17208,6.08E-03,4.90E-03
17209,6.22E-03,5.05E-03
17210,5.75E-03,4.63E-03
17211,5.94E-03,4.76E-03
17212,5.55E-03,4.37E-03
17213,5.65E-03,4.50E-03
17214,5.56E-03,4.11E-03
17215,5.57E-03,4.24E-03
17216,5.62E-03,3.85E-03
17217,5.55E-03,3.98E-03
17218,5.50E-03,3.61E-03
17219,5.60E-03,3.73E-03
17220,5.39E-03,3.37E-03
17221,5.44E-03,3.49E-03
17222,5.25E-03,3.15E-03
17223,5.32E-03,3.26E-03
17224,5.06E-03,2.94E-03
17225,5.18E-03,3.04E-03
17226,5.00E-03,2.74E-03
17227,5.01E-03,2.84E-03
17228,4.98E-03,2.55E-03
17229,4.96E-03,2.64E-03
17230,5.08E-03,2.36E-03
17231,5.02E-03,2.45E-03
17232,5.14E-03,2.19E-03
17233,5.11E-03,2.28E-03
17234,5.08E-03,2.02E-03
17235,5.07E-03,2.10E-03
17236,5.04E-03,1.86E-03
17237,5.03E-03,1.94E-03
17238,5.09E-03,1.70E-03
17239,5.08E-03,1.78E-03
17240,5.16E-03,1.55E-03
17241,5.10E-03,1.62E-03
17242,5.29E-03,1.42E-03
17243,5.22E-03,1.48E-03
17244,5.33E-03,1.30E-03
17245,5.32E-03,1.36E-03
17246,5.39E-03,1.19E-03
17247,5.35E-03,1.24E-03
17248,5.36E-03,1.09E-03
17249,5.39E-03,1.14E-03
17250,5.44E-03,1.02E-03
17251,5.36E-03,1.05E-03
17252,5.54E-03,9.69E-04
17253,5.50E-03,9.92E-04
17254,5.56E-03,9.47E-04
17255,5.57E-03,9.54E-04
17256,5.62E-03,9.62E-04
17257,5.62E-03,9.51E-04
17258,5.72E-03,9.85E-04
17259,5.69E-03,9.71E-04
17260,5.79E-03,1.03E-03
17261,5.78E-03,1.00E-03
17262,5.84E-03,1.06E-03
17263,5.82E-03,1.11E-02
17264,5.66E-03,1.15E-02
17265,5.77E-03,1.13E-02
17266,6.01E-03,1.07E-02
17267,5.96E-03,1.09E-02
17268,6.31E-03,1.04E-02
17269,6.13E-03,1.06E-02
17270,6.41E-03,1.03E-02
17271,3.44E-03,1.47E-02
17272,3.19E-03,1.45E-02
17273,4.56E-03,1.45E-02
17274,4.88E-03,1.83E-02
17275,5.96E-03,1.99E-02
17276,6.04E-03,1.98E-02
17277,5.87E-03,1.99E-02
17278,5.93E-03,1.99E-02
17279,6.03E-03,1.97E-02
17280,5.91E-03,1.98E-02
17281,6.25E-03,1.94E-02
17282,6.14E-03,1.96E-02
17283,6.16E-03,1.91E-02
17284,6.28E-03,1.92E-02
17285,5.97E-03,1.87E-02
17286,6.08E-03,1.89E-02
17287,5.99E-03,1.83E-02
17288,5.98E-03,1.85E-02
17289,5.89E-03,1.79E-02
17290,6.01E-03,1.81E-02
17291,5.45E-03,1.74E-02
17292,5.70E-03,1.76E-02
17293,5.32E-03,1.68E-02
17294,5.35E-03,1.71E-02
17295,4.29E-03,1.63E-02
17296,5.12E-03,1.65E-02
17297,5.30E-03,1.94E-02
17298,5.27E-03,1.95E-02
17299,5.99E-03,1.44E-02
17300,5.95E-03,1.41E-02
17301,5.28E-03,1.93E-02
17302,5.31E-03,1.94E-02
17303,5.86E-03,1.50E-02
17304,5.92E-03,1.47E-02
17305,5.21E-03,1.93E-02
17306,5.27E-03,1.93E-02
17307,5.59E-03,1.56E-02
17308,5.71E-03,1.53E-02
17309,2.90E-03,5.57E-03
17310,4.88E-03,5.76E-03
17311,3.81E-03,5.42E-03
17312,5.59E-03,1.17E-02
17313,5.65E-03,6.90E-03
17314,5.54E-03,1.59E-02
17315,5.15E-03,1.93E-02
17316,4.93E-03,1.90E-02
17317,5.35E-03,1.20E-02
17318,5.60E-03,1.55E-02
17319,6.29E-03,1.53E-02
17320,5.13E-03,1.62E-02
17321,4.38E-03,1.93E-02
17322,4.26E-03,1.98E-02
17323,4.95E-03,1.98E-02
17324,5.29E-03,6.11E-03
17325,5.33E-03,6.42E-03
17326,5.21E-03,6.73E-03
17327,5.08E-03,7.03E-03
17328,5.02E-03,7.32E-03
17329,6.54E-03,8.15E-03
17330,7.23E-03,8.57E-03
17331,6.82E-03,8.99E-03
17332,6.67E-03,9.42E-03
17333,6.52E-03,9.86E-03
17334,5.92E-03,6.23E-03
17335,5.99E-03,6.00E-03
17336,6.04E-03,5.80E-03
17337,6.81E-03,1.43E-02
17338,6.81E-03,1.38E-02
17339,5.34E-03,1.20E-02
17340,6.11E-03,1.30E-02
17341,6.29E-03,1.25E-02
17342,5.94E-03,1.35E-02
17343,5.70E-03,1.40E-02
17344,6.49E-03,1.20E-02
17345,6.43E-03,1.15E-02
17346,6.40E-03,1.10E-02
17347,6.43E-03,1.05E-02
17348,6.52E-03,1.00E-02
17349,6.61E-03,9.54E-03
17350,6.67E-03,9.09E-03
17351,6.56E-03,8.68E-03
17352,6.36E-03,8.29E-03
17353,6.21E-03,7.94E-03
17354,5.59E-03,1.45E-02
17355,5.50E-03,1.50E-02
17356,5.77E-03,6.63E-03
17357,6.42E-03,3.86E-03
17358,6.37E-03,4.18E-03
17359,6.54E-03,3.53E-03
17360,6.51E-03,3.19E-03
17361,6.31E-03,4.48E-03
17362,6.34E-03,4.76E-03
17363,6.40E-03,2.86E-03
17364,6.31E-03,2.52E-03
17365,6.29E-03,2.18E-03
17366,6.13E-03,1.83E-03
17367,6.09E-03,1.49E-03
17368,5.99E-03,1.15E-03
17369,5.84E-03,8.04E-04
17370,5.89E-03,8.31E-04
17371,5.41E-03,7.88E-03
17372,4.57E-03,1.30E-02
17373,6.41E-03,1.99E-02
17374,5.43E-03,1.21E-02
17375,5.46E-03,1.19E-02
17376,5.72E-03,7.18E-03
17377,5.69E-03,7.04E-03
17378,5.30E-03,1.37E-02
17379,5.72E-03,1.42E-02
17380,5.31E-03,1.64E-02
17381,5.36E-03,1.61E-02
17382,4.90E-03,1.93E-02
17383,5.08E-03,1.93E-02
17384,4.92E-03,1.96E-02
17385,4.92E-03,1.93E-02
17386,5.34E-03,1.24E-02
17387,5.34E-03,1.22E-02
17388,5.93E-03,7.48E-03
17389,5.86E-03,7.33E-03
17390,5.20E-03,1.69E-02
17391,5.20E-03,1.67E-02
17392,4.72E-03,1.93E-02
17393,4.68E-03,1.93E-02
17394,4.88E-03,2.00E-02
17395,4.90E-03,1.98E-02
17396,5.48E-03,1.28E-02
17397,5.39E-03,1.26E-02
17398,3.74E-03,1.34E-02
17399,3.40E-03,1.31E-02
17400,5.29E-03,1.52E-02
17401,5.47E-03,1.54E-02
17402,5.14E-03,1.76E-02
17403,5.17E-03,1.73E-02
17404,4.63E-03,1.93E-02
17405,4.66E-03,1.93E-02
17406,4.94E-03,2.03E-02
17407,4.93E-03,2.02E-02
17408,5.59E-03,1.32E-02
17409,5.57E-03,1.30E-02
17410,7.41E-03,1.51E-02
17411,4.93E-03,1.67E-02
17412,7.36E-03,1.61E-02
17413,5.65E-03,1.18E-02
17414,5.59E-03,1.20E-02
17415,4.76E-03,1.96E-02
17416,4.80E-03,2.01E-02
17417,5.77E-03,2.04E-02
17418,5.98E-03,6.03E-03
17419,5.44E-03,6.37E-03
17420,5.30E-03,6.69E-03
17421,5.23E-03,6.99E-03
17422,5.18E-03,7.29E-03
17423,5.15E-03,7.59E-03
17424,7.23E-03,8.49E-03
17425,6.67E-03,8.89E-03
17426,6.64E-03,9.31E-03
17427,6.49E-03,9.74E-03
17428,5.84E-03,6.37E-03
17429,5.98E-03,6.15E-03
17430,6.00E-03,5.95E-03
17431,5.88E-03,1.37E-02
17432,4.87E-03,1.48E-02
17433,5.09E-03,1.50E-02
17434,5.19E-03,1.82E-02
17435,5.12E-03,1.79E-02
17436,4.70E-03,1.93E-02
17437,4.66E-03,1.93E-02
17438,5.09E-03,2.03E-02
17439,5.06E-03,2.03E-02
17440,5.76E-03,1.37E-02
17441,5.67E-03,1.35E-02
17442,4.98E-03,1.38E-02
17443,4.64E-03,1.40E-02
17444,4.57E-03,1.39E-02
17445,4.02E-03,1.42E-02
17446,4.38E-03,1.43E-02
17447,5.53E-03,1.35E-02
17448,4.72E-03,1.44E-02
17449,4.83E-03,1.46E-02
17450,4.40E-03,1.40E-02
17451,4.64E-03,1.40E-02
17452,5.22E-03,1.87E-02
17453,5.20E-03,1.85E-02
17454,4.98E-03,1.91E-02
17455,4.84E-03,1.92E-02
17456,5.22E-03,2.02E-02
17457,5.20E-03,2.03E-02
17458,5.95E-03,1.42E-02
17459,5.82E-03,1.40E-02
17460,4.92E-03,1.09E-02
17461,4.46E-03,1.07E-02
17462,4.02E-03,1.07E-02
17463,3.05E-03,1.03E-02
17464,3.38E-03,1.01E-02
17465,4.37E-03,1.03E-02
17466,4.80E-03,9.76E-03
17467,5.95E-03,5.79E-03
17468,6.01E-03,5.48E-03
17469,6.00E-03,5.64E-03
17470,6.05E-03,5.18E-03
17471,6.03E-03,5.33E-03
17472,5.95E-03,4.88E-03
17473,6.03E-03,5.03E-03
17474,5.73E-03,4.60E-03
17475,5.86E-03,4.74E-03
17476,5.55E-03,4.34E-03
17477,5.65E-03,4.47E-03
17478,5.56E-03,4.09E-03
17479,5.56E-03,4.21E-03
17480,5.57E-03,3.84E-03
17481,5.56E-03,3.96E-03
17482,5.50E-03,3.60E-03
17483,5.57E-03,3.72E-03
17484,5.37E-03,3.36E-03
17485,5.48E-03,3.48E-03
17486,5.27E-03,3.14E-03
17487,5.37E-03,3.25E-03
17488,5.14E-03,2.94E-03
17489,5.19E-03,3.04E-03
17490,5.06E-03,2.74E-03
17491,5.08E-03,2.84E-03
17492,5.03E-03,2.55E-03
17493,5.07E-03,2.64E-03
17494,5.13E-03,2.37E-03
17495,5.04E-03,2.46E-03
17496,5.18E-03,2.19E-03
17497,5.19E-03,2.28E-03
17498,5.07E-03,2.02E-03
17499,5.13E-03,2.11E-03
17500,5.11E-03,1.86E-03
17501,5.08E-03,1.94E-03
17502,5.12E-03,1.70E-03
17503,5.13E-03,1.78E-03
17504,5.17E-03,1.54E-03
17505,5.15E-03,1.62E-03
17506,5.33E-03,1.39E-03
17507,5.25E-03,1.46E-03
17508,5.34E-03,1.25E-03
17509,5.31E-03,1.32E-03
17510,5.40E-03,1.12E-03
17511,5.38E-03,1.19E-03
17512,5.39E-03,1.00E-03
17513,5.37E-03,1.06E-03
17514,5.48E-03,8.94E-04
17515,5.42E-03,9.45E-04
17516,5.57E-03,8.09E-04
17517,5.49E-03,8.49E-04
17518,5.57E-03,7.52E-04
17519,5.60E-03,7.76E-04
17520,5.62E-03,7.33E-04
17521,5.60E-03,7.39E-04
17522,5.67E-03,7.32E-04
17523,5.67E-03,7.30E-04
17524,5.77E-03,7.55E-04
17525,5.72E-03,7.38E-04
17526,5.80E-03,7.78E-04
17527,5.77E-03,1.14E-02
17528,5.75E-03,1.16E-02
17529,5.94E-03,1.10E-02
17530,5.91E-03,1.12E-02
17531,6.16E-03,1.07E-02
17532,6.10E-03,1.09E-02
17533,6.36E-03,1.04E-02
17534,6.33E-03,1.06E-02
17535,6.35E-03,1.02E-02
17536,6.43E-03,1.03E-02
17537,4.48E-03,1.43E-02
17538,4.18E-03,1.40E-02
17539,5.13E-03,1.89E-02
17540,7.08E-03,2.07E-02
17541,6.04E-03,2.09E-02
17542,6.21E-03,2.08E-02
17543,5.91E-03,2.10E-02
17544,5.96E-03,2.09E-02
17545,5.96E-03,2.08E-02
17546,5.93E-03,2.09E-02
17547,6.12E-03,2.04E-02
17548,6.03E-03,2.06E-02
17549,6.11E-03,2.00E-02
17550,6.17E-03,2.02E-02
17551,5.99E-03,1.96E-02
17552,6.06E-03,1.98E-02
17553,5.88E-03,1.92E-02
17554,5.94E-03,1.94E-02
17555,5.85E-03,1.87E-02
17556,5.90E-03,1.90E-02
17557,5.56E-03,1.81E-02
17558,5.67E-03,1.84E-02
17559,5.41E-03,1.75E-02
17560,5.45E-03,1.78E-02
17561,5.34E-03,1.72E-02
17562,3.46E-03,1.05E-02
17563,5.31E-03,2.01E-02
17564,5.30E-03,2.02E-02
17565,5.94E-03,1.48E-02
17566,5.97E-03,1.45E-02
17567,5.35E-03,2.00E-02
17568,5.33E-03,2.00E-02
17569,5.81E-03,1.54E-02
17570,5.90E-03,1.51E-02
17571,5.24E-03,1.99E-02
17572,5.30E-03,1.99E-02
17573,5.60E-03,1.60E-02
17574,5.80E-03,1.57E-02
17575,4.15E-03,1.08E-02
17576,4.45E-03,1.07E-02
17577,5.26E-03,1.22E-02
17578,6.30E-03,1.26E-02
17579,6.03E-03,1.30E-02
17580,4.74E-03,5.29E-03
17581,6.18E-03,5.06E-03
17582,5.95E-03,1.35E-02
17583,6.34E-03,1.20E-02
17584,6.43E-03,1.15E-02
17585,6.38E-03,1.10E-02
17586,6.41E-03,1.06E-02
17587,6.51E-03,1.01E-02
17588,6.55E-03,9.66E-03
17589,6.61E-03,9.22E-03
17590,6.52E-03,8.81E-03
17591,6.44E-03,8.44E-03
17592,6.27E-03,8.09E-03
17593,5.61E-03,1.39E-02
17594,5.51E-03,1.44E-02
17595,5.53E-03,1.49E-02
17596,6.02E-03,7.63E-03
17597,5.73E-03,6.77E-03
17598,6.40E-03,3.87E-03
17599,6.52E-03,3.54E-03
17600,6.49E-03,3.21E-03
17601,6.37E-03,4.18E-03
17602,6.21E-03,4.47E-03
17603,6.12E-03,4.75E-03
17604,6.42E-03,2.87E-03
17605,6.35E-03,2.54E-03
17606,6.26E-03,2.20E-03
17607,6.18E-03,1.86E-03
17608,6.10E-03,1.52E-03
17609,6.03E-03,1.18E-03
17610,5.95E-03,8.61E-04
17611,5.31E-03,1.23E-02
17612,5.02E-03,1.04E-02
17613,1.33E-02,9.48E-03
17614,6.70E-03,1.48E-02
17615,5.57E-03,1.63E-02
17616,5.14E-03,1.99E-02
17617,6.64E-03,1.57E-02
17618,5.46E-03,1.22E-02
17619,4.87E-03,1.99E-02
17620,5.00E-03,2.04E-02
17621,5.34E-03,2.09E-02
17622,5.77E-03,5.71E-03
17623,4.02E-03,5.42E-03
17624,4.36E-03,5.19E-03
17625,5.34E-03,4.97E-03
17626,4.65E-03,5.45E-03
17627,4.83E-03,5.18E-03
17628,4.74E-03,5.18E-03
17629,4.53E-03,5.47E-03
17630,5.07E-03,5.74E-03
17631,6.00E-03,6.01E-03
17632,5.60E-03,6.33E-03
17633,5.37E-03,6.65E-03
17634,5.29E-03,6.96E-03
17635,5.21E-03,7.26E-03
17636,5.29E-03,7.56E-03
17637,5.35E-03,7.86E-03
17638,6.30E-03,8.46E-03
17639,6.50E-03,8.83E-03
17640,6.66E-03,9.21E-03
17641,6.51E-03,9.62E-03
17642,6.35E-03,1.00E-02
17643,5.82E-03,6.52E-03
17644,5.96E-03,6.30E-03
17645,6.05E-03,6.11E-03
17646,5.96E-03,5.95E-03
17647,4.39E-03,1.11E-02
17648,4.97E-03,1.13E-02
17649,5.47E-03,1.15E-02
17650,4.99E-03,1.16E-02
17651,4.91E-03,1.14E-02
17652,4.63E-03,1.11E-02
17653,4.74E-03,1.10E-02
17654,4.79E-03,1.08E-02
17655,5.33E-03,1.23E-02
17656,6.23E-03,1.26E-02
17657,5.95E-03,1.30E-02
17658,6.29E-03,1.21E-02
17659,6.35E-03,1.16E-02
17660,6.40E-03,1.11E-02
17661,6.43E-03,1.07E-02
17662,6.51E-03,1.02E-02
17663,6.51E-03,9.78E-03
17664,6.60E-03,9.35E-03
17665,6.53E-03,8.95E-03
17666,6.40E-03,8.58E-03
17667,6.32E-03,8.24E-03
17668,5.83E-03,1.35E-02
17669,5.60E-03,1.39E-02
17670,5.54E-03,1.43E-02
17671,6.13E-03,7.79E-03
17672,5.69E-03,6.91E-03
17673,6.46E-03,3.56E-03
17674,6.45E-03,3.22E-03
17675,6.40E-03,3.87E-03
17676,6.37E-03,4.18E-03
17677,6.07E-03,4.46E-03
17678,5.87E-03,4.73E-03
17679,5.19E-03,4.93E-03
17680,6.43E-03,2.89E-03
17681,6.38E-03,2.56E-03
17682,6.23E-03,2.22E-03
17683,6.21E-03,1.88E-03
17684,6.12E-03,1.55E-03
17685,6.04E-03,1.21E-03
17686,5.98E-03,8.89E-04
17687,5.33E-03,1.25E-02
17688,7.38E-03,2.08E-02
17689,6.60E-03,1.45E-02
17690,5.37E-03,1.66E-02
17691,5.07E-03,1.99E-02
17692,6.75E-03,1.54E-02
17693,5.42E-03,1.24E-02
17694,4.90E-03,2.02E-02
17695,4.97E-03,2.07E-02
17696,5.32E-03,2.13E-02
17697,4.45E-03,5.24E-03
17698,3.59E-03,5.48E-03
17699,4.79E-03,5.74E-03
17700,5.42E-03,6.00E-03
17701,5.67E-03,6.30E-03
17702,5.47E-03,6.61E-03
17703,5.35E-03,6.92E-03
17704,5.29E-03,7.23E-03
17705,5.24E-03,7.53E-03
17706,5.40E-03,7.83E-03
17707,5.53E-03,8.13E-03
17708,5.94E-03,8.44E-03
17709,6.34E-03,8.76E-03
17710,6.47E-03,9.13E-03
17711,6.43E-03,9.52E-03
17712,6.31E-03,9.92E-03
17713,5.78E-03,6.67E-03
17714,5.94E-03,6.45E-03
17715,5.98E-03,6.27E-03
17716,5.96E-03,6.11E-03
17717,4.07E-03,1.20E-02
17718,4.44E-03,1.19E-02
17719,4.93E-03,1.16E-02
17720,4.99E-03,1.14E-02
17721,5.34E-03,1.12E-02
17722,5.60E-03,1.11E-02
17723,5.29E-03,1.25E-02
17724,6.12E-03,1.26E-02
17725,6.22E-03,1.22E-02
17726,6.31E-03,1.17E-02
17727,6.35E-03,1.12E-02
17728,6.45E-03,1.08E-02
17729,6.45E-03,1.03E-02
17730,6.51E-03,9.90E-03
17731,6.58E-03,9.48E-03
17732,6.55E-03,9.09E-03
17733,6.44E-03,8.73E-03
17734,6.35E-03,8.40E-03
17735,5.92E-03,1.30E-02
17736,5.77E-03,1.34E-02
17737,5.52E-03,1.38E-02
17738,6.16E-03,7.94E-03
17739,5.68E-03,7.06E-03
17740,6.37E-03,3.24E-03
17741,6.40E-03,3.56E-03
17742,6.38E-03,3.88E-03
17743,6.28E-03,4.17E-03
17744,5.96E-03,4.45E-03
17745,5.67E-03,4.70E-03
17746,5.29E-03,4.93E-03
17747,6.40E-03,2.91E-03
17748,6.37E-03,2.57E-03
17749,6.23E-03,2.24E-03
17750,6.21E-03,1.91E-03
17751,6.14E-03,1.57E-03
17752,6.06E-03,1.24E-03
17753,6.01E-03,9.18E-04
17754,5.32E-03,1.27E-02
17755,6.95E-03,2.11E-02
17756,6.68E-03,1.42E-02
17757,5.34E-03,1.69E-02
17758,4.91E-03,1.99E-02
17759,6.56E-03,1.50E-02
17760,5.34E-03,1.26E-02
17761,4.93E-03,2.04E-02
17762,4.95E-03,2.10E-02
17763,5.20E-03,2.16E-02
17764,4.42E-03,5.37E-03
17765,4.70E-03,5.67E-03
17766,5.21E-03,5.96E-03
17767,5.53E-03,6.25E-03
17768,5.52E-03,6.56E-03
17769,5.39E-03,6.88E-03
17770,5.29E-03,7.19E-03
17771,5.31E-03,7.49E-03
17772,5.30E-03,7.80E-03
17773,5.52E-03,8.10E-03
17774,5.70E-03,8.40E-03
17775,6.10E-03,8.72E-03
17776,6.29E-03,9.07E-03
17777,6.37E-03,9.43E-03
17778,6.27E-03,9.81E-03
17779,5.76E-03,6.82E-03
17780,5.86E-03,6.61E-03
17781,5.92E-03,6.43E-03
17782,5.91E-03,6.27E-03
17783,4.70E-03,1.22E-02
17784,4.95E-03,1.21E-02
17785,5.04E-03,1.19E-02
17786,5.13E-03,1.16E-02
17787,5.17E-03,1.15E-02
17788,5.91E-03,1.13E-02
17789,5.33E-03,1.27E-02
17790,6.19E-03,1.22E-02
17791,6.24E-03,1.18E-02
17792,6.36E-03,1.13E-02
17793,6.42E-03,1.09E-02
17794,6.42E-03,1.05E-02
17795,6.46E-03,1.00E-02
17796,6.54E-03,9.62E-03
17797,6.53E-03,9.24E-03
17798,6.48E-03,8.88E-03
17799,6.36E-03,8.55E-03
17800,6.04E-03,1.26E-02
17801,5.83E-03,1.30E-02
17802,5.61E-03,1.34E-02
17803,6.21E-03,8.10E-03
17804,5.78E-03,7.21E-03
17805,6.37E-03,3.25E-03
17806,6.33E-03,3.57E-03
17807,6.30E-03,3.87E-03
17808,6.21E-03,4.16E-03
17809,5.96E-03,4.44E-03
17810,5.81E-03,4.70E-03
17811,6.23E-03,4.99E-03
17812,6.33E-03,2.92E-03
17813,6.31E-03,2.59E-03
17814,6.26E-03,2.26E-03
17815,6.17E-03,1.93E-03
17816,6.15E-03,1.60E-03
17817,6.07E-03,1.27E-03
17818,6.02E-03,9.48E-04
17819,5.31E-03,1.29E-02
17820,5.87E-03,2.16E-02
17821,6.16E-03,1.40E-02
17822,5.22E-03,1.72E-02
17823,4.74E-03,1.99E-02
17824,6.43E-03,1.47E-02
17825,5.35E-03,1.28E-02
17826,4.94E-03,2.07E-02
17827,4.99E-03,2.13E-02
17828,5.09E-03,2.19E-02
17829,4.66E-03,5.57E-03
17830,5.31E-03,5.90E-03
17831,5.37E-03,6.21E-03
17832,5.53E-03,6.51E-03
17833,5.45E-03,6.83E-03
17834,5.37E-03,7.14E-03
17835,5.31E-03,7.45E-03
17836,5.37E-03,7.76E-03
17837,5.42E-03,8.06E-03
17838,5.60E-03,8.36E-03
17839,5.87E-03,8.67E-03
17840,6.13E-03,9.00E-03
17841,6.22E-03,9.36E-03
17842,6.22E-03,9.72E-03
17843,5.75E-03,6.98E-03
17844,5.85E-03,6.77E-03
17845,5.88E-03,6.59E-03
17846,5.90E-03,6.44E-03
17847,5.50E-03,1.24E-02
17848,5.45E-03,1.23E-02
17849,5.07E-03,1.21E-02
17850,5.18E-03,1.18E-02
17851,5.19E-03,1.17E-02
17852,5.43E-03,1.15E-02
17853,5.40E-03,1.29E-02
17854,6.26E-03,1.18E-02
17855,6.29E-03,1.14E-02
17856,6.44E-03,1.10E-02
17857,6.42E-03,1.06E-02
17858,6.47E-03,1.02E-02
17859,6.51E-03,9.76E-03
17860,6.49E-03,9.39E-03
17861,6.44E-03,9.03E-03
17862,6.37E-03,8.71E-03
17863,6.11E-03,1.22E-02
17864,5.94E-03,1.26E-02
17865,5.73E-03,1.30E-02
17866,6.24E-03,8.26E-03
17867,5.84E-03,7.37E-03
17868,6.31E-03,3.26E-03
17869,6.32E-03,3.57E-03
17870,6.25E-03,3.87E-03
17871,6.12E-03,4.16E-03
17872,6.04E-03,4.43E-03
17873,5.95E-03,4.70E-03
17874,6.18E-03,5.29E-03
17875,6.59E-03,5.01E-03
17876,6.34E-03,2.94E-03
17877,6.30E-03,2.61E-03
17878,6.27E-03,2.28E-03
17879,6.12E-03,1.95E-03
17880,6.08E-03,1.63E-03
17881,6.08E-03,1.30E-03
17882,6.00E-03,9.78E-04
17883,5.31E-03,1.31E-02
17884,5.54E-03,2.21E-02
17885,5.39E-03,1.37E-02
17886,5.12E-03,1.75E-02
17887,4.71E-03,1.99E-02
17888,6.26E-03,1.44E-02
17889,5.29E-03,1.30E-02
17890,4.93E-03,2.09E-02
17891,4.95E-03,2.15E-02
17892,5.04E-03,2.21E-02
17893,5.27E-03,5.55E-03
17894,5.29E-03,5.84E-03
17895,5.38E-03,6.16E-03
17896,5.46E-03,6.47E-03
17897,5.47E-03,6.79E-03
17898,5.39E-03,7.10E-03
17899,5.38E-03,7.41E-03
17900,5.37E-03,7.72E-03
17901,5.42E-03,8.02E-03
17902,5.54E-03,8.32E-03
17903,5.68E-03,8.62E-03
17904,5.95E-03,8.94E-03
17905,6.10E-03,9.28E-03
17906,6.15E-03,9.63E-03
17907,5.76E-03,7.13E-03
17908,5.76E-03,6.93E-03
17909,5.86E-03,6.76E-03
17910,5.83E-03,6.61E-03
17911,5.76E-03,1.25E-02
17912,5.25E-03,1.23E-02
17913,5.15E-03,1.21E-02
17914,5.22E-03,1.19E-02
17915,5.29E-03,1.18E-02
17916,5.48E-03,1.32E-02
17917,6.29E-03,1.15E-02
17918,6.34E-03,1.11E-02
17919,6.41E-03,1.07E-02
17920,6.47E-03,1.03E-02
17921,6.52E-03,9.91E-03
17922,6.50E-03,9.54E-03
17923,6.45E-03,9.19E-03
17924,6.37E-03,8.87E-03
17925,6.19E-03,1.19E-02
17926,6.03E-03,1.23E-02
17927,5.83E-03,1.26E-02
17928,6.26E-03,8.42E-03
17929,5.92E-03,7.52E-03
17930,6.30E-03,3.27E-03
17931,6.35E-03,3.58E-03
17932,6.22E-03,3.87E-03
17933,6.10E-03,4.16E-03
17934,6.12E-03,4.43E-03
17935,6.14E-03,4.70E-03
17936,5.80E-03,5.23E-03
17937,6.06E-03,4.97E-03
17938,6.25E-03,2.95E-03
17939,6.28E-03,2.63E-03
17940,6.24E-03,2.30E-03
17941,6.14E-03,1.98E-03
17942,6.03E-03,1.65E-03
17943,6.02E-03,1.33E-03
17944,5.97E-03,1.01E-03
17945,5.37E-03,1.33E-02
17946,5.34E-03,2.24E-02
17947,4.93E-03,1.32E-02
17948,5.42E-03,1.48E-02
17949,5.08E-03,1.78E-02
17950,4.69E-03,1.99E-02
17951,6.42E-03,1.40E-02
17952,5.34E-03,1.32E-02
17953,4.94E-03,2.10E-02
17954,4.93E-03,2.17E-02
17955,4.98E-03,2.23E-02
17956,5.59E-03,5.50E-03
17957,5.36E-03,5.80E-03
17958,5.38E-03,6.12E-03
17959,5.45E-03,6.43E-03
17960,5.46E-03,6.74E-03
17961,5.41E-03,7.06E-03
17962,5.40E-03,7.37E-03
17963,5.39E-03,7.68E-03
17964,5.39E-03,7.97E-03
17965,5.48E-03,8.27E-03
17966,5.61E-03,8.57E-03
17967,5.77E-03,8.89E-03
17968,5.96E-03,9.21E-03
17969,6.07E-03,9.56E-03
17970,5.81E-03,7.29E-03
17971,5.80E-03,7.10E-03
17972,5.81E-03,6.93E-03
17973,5.83E-03,6.78E-03
17974,5.77E-03,1.26E-02
17975,5.43E-03,1.28E-02
17976,4.61E-03,1.30E-02
17977,4.13E-03,1.34E-02
17978,5.35E-03,1.24E-02
17979,5.26E-03,1.22E-02
17980,5.26E-03,1.21E-02
17981,5.28E-03,1.20E-02
17982,5.55E-03,1.34E-02
17983,6.30E-03,1.12E-02
17984,6.38E-03,1.08E-02
17985,6.47E-03,1.04E-02
17986,6.50E-03,1.01E-02
17987,6.49E-03,9.70E-03
17988,6.47E-03,9.36E-03
17989,6.39E-03,9.04E-03
17990,6.25E-03,1.16E-02
17991,6.07E-03,1.19E-02
17992,5.93E-03,1.23E-02
17993,6.27E-03,8.59E-03
17994,6.04E-03,7.68E-03
17995,6.33E-03,3.28E-03
17996,6.30E-03,3.58E-03
17997,6.22E-03,3.87E-03
17998,6.12E-03,4.15E-03
17999,6.15E-03,4.42E-03
18000,6.08E-03,4.70E-03
18001,5.78E-03,5.20E-03
18002,5.90E-03,4.94E-03
18003,6.28E-03,2.97E-03
18004,6.19E-03,2.65E-03
18005,6.20E-03,2.32E-03
18006,6.17E-03,2.00E-03
18007,6.07E-03,1.67E-03
18008,5.97E-03,1.35E-03
18009,5.94E-03,1.04E-03
18010,5.45E-03,1.35E-02
18011,5.22E-03,2.27E-02
18012,6.42E-03,1.29E-02
18013,5.43E-03,1.42E-02
18014,5.25E-03,1.46E-02
18015,5.12E-03,1.81E-02
18016,4.68E-03,1.99E-02
18017,6.12E-03,1.36E-02
18018,5.31E-03,1.34E-02
18019,4.98E-03,2.11E-02
18020,4.92E-03,2.18E-02
18021,4.94E-03,2.25E-02
18022,5.48E-03,5.77E-03
18023,5.40E-03,6.07E-03
18024,5.45E-03,6.38E-03
18025,5.47E-03,6.70E-03
18026,5.45E-03,7.02E-03
18027,5.41E-03,7.33E-03
18028,5.62E-03,5.46E-03
18029,5.35E-03,7.63E-03
18030,5.38E-03,7.93E-03
18031,5.43E-03,8.23E-03
18032,5.55E-03,8.53E-03
18033,5.67E-03,8.83E-03
18034,5.79E-03,9.15E-03
18035,5.98E-03,9.48E-03
18036,5.90E-03,7.45E-03
18037,5.83E-03,7.26E-03
18038,5.80E-03,7.10E-03
18039,5.75E-03,6.96E-03
18040,5.51E-03,1.27E-02
18041,5.02E-03,1.29E-02
18042,4.64E-03,1.31E-02
18043,4.91E-03,1.33E-02
18044,5.70E-03,1.34E-02
18045,5.47E-03,1.25E-02
18046,5.29E-03,1.24E-02
18047,5.24E-03,1.23E-02
18048,5.29E-03,1.22E-02
18049,5.57E-03,1.36E-02
18050,6.36E-03,1.09E-02
18051,6.41E-03,1.06E-02
18052,6.50E-03,1.02E-02
18053,6.50E-03,9.86E-03
18054,6.49E-03,9.52E-03
18055,6.40E-03,9.22E-03
18056,6.22E-03,1.13E-02
18057,6.15E-03,1.16E-02
18058,6.04E-03,1.20E-02
18059,6.29E-03,8.76E-03
18060,6.07E-03,7.84E-03
18061,6.32E-03,3.28E-03
18062,6.36E-03,3.58E-03
18063,6.23E-03,3.87E-03
18064,6.13E-03,4.15E-03
18065,6.07E-03,4.42E-03
18066,5.96E-03,4.68E-03
18067,6.30E-03,2.98E-03
18068,6.23E-03,2.66E-03
18069,6.18E-03,2.34E-03
18070,6.13E-03,2.02E-03
18071,6.14E-03,1.70E-03
18072,6.00E-03,1.38E-03
18073,5.89E-03,1.07E-03
18074,5.73E-03,5.17E-03
18075,5.81E-03,4.91E-03
18076,5.52E-03,1.37E-02
18077,5.12E-03,2.29E-02
18078,6.47E-03,1.28E-02
18079,5.49E-03,1.37E-02
18080,5.09E-03,1.45E-02
18081,5.12E-03,1.84E-02
18082,4.73E-03,1.99E-02
18083,6.08E-03,1.33E-02
18084,5.37E-03,1.37E-02
18085,5.04E-03,2.11E-02
18086,4.95E-03,2.18E-02
18087,4.93E-03,2.26E-02
18088,5.46E-03,6.03E-03
18089,5.51E-03,6.34E-03
18090,5.48E-03,6.65E-03
18091,5.46E-03,6.97E-03
18092,5.41E-03,7.28E-03
18093,5.57E-03,5.72E-03
18094,5.62E-03,5.43E-03
18095,5.39E-03,7.59E-03
18096,5.34E-03,7.89E-03
18097,5.39E-03,8.18E-03
18098,5.47E-03,8.48E-03
18099,5.61E-03,8.78E-03
18100,5.74E-03,9.08E-03
18101,5.84E-03,9.40E-03
18102,5.98E-03,7.62E-03
18103,5.84E-03,7.43E-03
18104,5.74E-03,7.27E-03
18105,5.72E-03,7.13E-03
18106,5.25E-03,1.28E-02
18107,4.92E-03,1.29E-02
18108,4.89E-03,1.31E-02
18109,4.94E-03,1.32E-02
18110,5.42E-03,1.26E-02
18111,5.30E-03,1.25E-02
18112,5.26E-03,1.24E-02
18113,5.31E-03,1.23E-02
18114,5.65E-03,1.38E-02
18115,6.34E-03,1.07E-02
18116,6.50E-03,1.04E-02
18117,6.54E-03,1.00E-02
18118,6.50E-03,9.70E-03
18119,6.43E-03,9.39E-03
18120,6.24E-03,1.11E-02
18121,6.20E-03,1.14E-02
18122,6.12E-03,1.17E-02
18123,6.30E-03,8.94E-03
18124,6.11E-03,8.00E-03
18125,6.36E-03,3.29E-03
18126,6.36E-03,3.58E-03
18127,6.22E-03,3.87E-03
18128,6.16E-03,4.14E-03
18129,6.02E-03,4.41E-03
18130,6.33E-03,2.99E-03
18131,6.25E-03,2.68E-03
18132,6.22E-03,2.36E-03
18133,6.12E-03,2.04E-03
18134,6.09E-03,1.72E-03
18135,6.05E-03,1.40E-03
18136,5.92E-03,1.10E-03
18137,5.91E-03,4.65E-03
18138,5.64E-03,5.14E-03
18139,5.75E-03,4.89E-03
18140,5.57E-03,1.40E-02
18141,5.04E-03,2.31E-02
18142,5.26E-03,1.26E-02
18143,5.55E-03,1.33E-02
18144,5.00E-03,1.44E-02
18145,4.53E-03,1.36E-02
18146,4.64E-03,1.36E-02
18147,5.22E-03,1.87E-02
18148,4.81E-03,1.99E-02
18149,5.77E-03,1.31E-02
18150,5.46E-03,1.39E-02
18151,5.10E-03,2.11E-02
18152,4.99E-03,2.18E-02
18153,4.94E-03,2.26E-02
18154,5.56E-03,6.29E-03
18155,5.54E-03,6.61E-03
18156,5.46E-03,6.92E-03
18157,5.41E-03,7.24E-03
18158,5.50E-03,5.99E-03
18159,5.57E-03,5.69E-03
18160,5.61E-03,5.39E-03
18161,5.40E-03,7.55E-03
18162,5.32E-03,7.85E-03
18163,5.36E-03,8.14E-03
18164,5.42E-03,8.43E-03
18165,5.52E-03,8.73E-03
18166,5.65E-03,9.03E-03
18167,5.77E-03,9.34E-03
18168,5.98E-03,7.79E-03
18169,5.90E-03,7.60E-03
18170,5.76E-03,7.45E-03
18171,5.69E-03,7.31E-03
18172,5.08E-03,1.28E-02
18173,4.91E-03,1.29E-02
18174,4.83E-03,1.31E-02
18175,5.39E-03,1.34E-02
18176,4.65E-03,1.32E-02
18177,5.29E-03,1.27E-02
18178,5.38E-03,1.26E-02
18179,5.30E-03,1.25E-02
18180,5.36E-03,1.25E-02
18181,4.26E-03,1.35E-02
18182,3.83E-03,1.33E-02
18183,3.69E-03,1.32E-02
18184,5.74E-03,1.41E-02
18185,6.38E-03,1.05E-02
18186,6.56E-03,1.02E-02
18187,6.50E-03,9.87E-03
18188,6.50E-03,9.58E-03
18189,6.29E-03,1.08E-02
18190,6.18E-03,1.12E-02
18191,6.17E-03,1.15E-02
18192,6.32E-03,9.12E-03
18193,6.14E-03,8.17E-03
18194,6.37E-03,3.29E-03
18195,6.36E-03,3.58E-03
18196,6.18E-03,3.86E-03
18197,6.13E-03,4.13E-03
18198,6.32E-03,2.99E-03
18199,6.27E-03,2.69E-03
18200,6.20E-03,2.38E-03
18201,6.16E-03,2.06E-03
18202,6.06E-03,1.74E-03
18203,6.05E-03,1.42E-03
18204,5.91E-03,1.12E-03
18205,5.96E-03,4.39E-03
18206,5.86E-03,4.63E-03
18207,5.56E-03,5.11E-03
18208,5.66E-03,4.86E-03
18209,5.61E-03,1.42E-02
18210,5.02E-03,2.32E-02
18211,4.77E-03,1.24E-02
18212,5.61E-03,1.29E-02
18213,4.94E-03,1.42E-02
18214,4.61E-03,1.36E-02
18215,5.41E-03,1.91E-02
18216,4.91E-03,1.98E-02
18217,5.21E-03,1.28E-02
18218,5.52E-03,1.41E-02
18219,5.17E-03,2.10E-02
18220,5.10E-03,2.18E-02
18221,4.97E-03,2.26E-02
18222,5.53E-03,6.56E-03
18223,5.56E-03,6.87E-03
18224,5.47E-03,7.19E-03
18225,5.58E-03,6.25E-03
18226,5.55E-03,5.95E-03
18227,5.59E-03,5.65E-03
18228,5.55E-03,5.36E-03
18229,5.39E-03,7.50E-03
18230,5.33E-03,7.81E-03
18231,5.32E-03,8.10E-03
18232,5.37E-03,8.39E-03
18233,5.45E-03,8.68E-03
18234,5.57E-03,8.97E-03
18235,5.69E-03,9.27E-03
18236,6.03E-03,7.96E-03
18237,5.92E-03,7.77E-03
18238,5.80E-03,7.62E-03
18239,5.70E-03,7.49E-03
18240,5.00E-03,1.29E-02
18241,4.91E-03,1.29E-02
18242,4.64E-03,1.30E-02
18243,5.19E-03,1.28E-02
18244,5.34E-03,1.27E-02
18245,5.38E-03,1.26E-02
18246,5.42E-03,1.26E-02
18247,3.98E-03,1.31E-02
18248,5.79E-03,1.44E-02
18249,6.39E-03,1.03E-02
18250,6.53E-03,1.00E-02
18251,6.46E-03,9.76E-03
18252,6.29E-03,1.07E-02
18253,6.17E-03,1.10E-02
18254,6.13E-03,1.13E-02
18255,6.06E-03,1.18E-02
18256,6.20E-03,1.16E-02
18257,6.31E-03,9.31E-03
18258,6.16E-03,8.34E-03
18259,6.34E-03,3.29E-03
18260,6.29E-03,3.58E-03
18261,6.16E-03,3.85E-03
18262,6.34E-03,3.00E-03
18263,6.29E-03,2.70E-03
18264,6.22E-03,2.39E-03
18265,6.17E-03,2.08E-03
18266,6.10E-03,1.76E-03
18267,6.03E-03,1.45E-03
18268,5.95E-03,1.14E-03
18269,6.03E-03,4.12E-03
18270,5.89E-03,4.37E-03
18271,5.79E-03,4.60E-03
18272,5.52E-03,5.08E-03
18273,5.60E-03,4.83E-03
18274,5.70E-03,1.45E-02
18275,1.10E-02,9.27E-03
18276,4.93E-03,2.33E-02
18277,3.73E-03,1.23E-02
18278,5.71E-03,1.26E-02
18279,5.85E-03,1.20E-02
18280,4.70E-03,1.41E-02
18281,4.57E-03,1.36E-02
18282,5.43E-03,1.93E-02
18283,5.15E-03,1.97E-02
18284,4.50E-03,1.34E-02
18285,5.78E-03,1.17E-02
18286,5.82E-03,1.15E-02
18287,5.57E-03,1.44E-02
18288,5.45E-03,1.43E-02
18289,5.50E-03,1.45E-02
18290,5.22E-03,2.10E-02
18291,5.15E-03,2.17E-02
18292,5.09E-03,2.25E-02
18293,5.55E-03,6.82E-03
18294,5.54E-03,7.14E-03
18295,5.61E-03,6.51E-03
18296,5.60E-03,6.21E-03
18297,5.57E-03,5.91E-03
18298,5.54E-03,5.62E-03
18299,5.50E-03,5.33E-03
18300,5.41E-03,7.45E-03
18301,5.35E-03,7.76E-03
18302,5.29E-03,8.05E-03
18303,5.35E-03,8.34E-03
18304,5.39E-03,8.63E-03
18305,5.49E-03,8.92E-03
18306,5.61E-03,9.21E-03
18307,6.06E-03,8.13E-03
18308,5.93E-03,7.95E-03
18309,5.82E-03,7.80E-03
18310,5.72E-03,7.68E-03
18311,4.93E-03,1.29E-02
18312,4.79E-03,1.29E-02
18313,5.11E-03,1.28E-02
18314,5.26E-03,1.28E-02
18315,5.36E-03,1.27E-02
18316,5.43E-03,1.27E-02
18317,3.55E-03,1.31E-02
18318,4.38E-03,1.30E-02
18319,3.75E-03,1.33E-02
18320,5.92E-03,1.46E-02
18321,6.41E-03,1.02E-02
18322,6.46E-03,9.95E-03
18323,6.25E-03,1.05E-02
18324,6.17E-03,1.08E-02
18325,6.04E-03,1.11E-02
18326,6.17E-03,1.14E-02
18327,6.39E-03,9.50E-03
18328,6.17E-03,8.52E-03
18329,6.31E-03,3.30E-03
18330,6.18E-03,3.58E-03
18331,6.39E-03,3.00E-03
18332,6.27E-03,2.71E-03
18333,6.24E-03,2.41E-03
18334,6.16E-03,2.10E-03
18335,6.10E-03,1.79E-03
18336,6.04E-03,1.47E-03
18337,5.98E-03,1.17E-03
18338,6.10E-03,3.84E-03
18339,5.96E-03,4.10E-03
18340,5.82E-03,4.35E-03
18341,5.73E-03,4.58E-03
18342,5.46E-03,5.05E-03
18343,5.57E-03,4.81E-03
18344,5.79E-03,1.47E-02
18345,4.61E-03,1.02E-02
18346,5.80E-03,9.61E-03
18347,4.95E-03,2.33E-02
18348,5.00E-03,2.33E-02
18349,4.89E-03,1.19E-02
18350,5.69E-03,7.57E-03
18351,5.72E-03,7.20E-03
18352,5.70E-03,7.39E-03
18353,5.81E-03,6.84E-03
18354,5.70E-03,7.02E-03
18355,5.84E-03,6.49E-03
18356,5.82E-03,6.67E-03
18357,5.84E-03,6.15E-03
18358,5.82E-03,6.32E-03
18359,5.88E-03,5.83E-03
18360,5.84E-03,5.99E-03
18361,5.93E-03,5.51E-03
18362,5.89E-03,5.67E-03
18363,5.92E-03,5.20E-03
18364,5.90E-03,5.35E-03
18365,5.85E-03,4.91E-03
18366,5.93E-03,5.05E-03
18367,5.69E-03,4.62E-03
18368,5.73E-03,4.76E-03
18369,5.53E-03,4.36E-03
18370,5.58E-03,4.49E-03
18371,5.56E-03,4.11E-03
18372,5.55E-03,4.24E-03
18373,5.56E-03,3.87E-03
18374,5.55E-03,3.99E-03
18375,5.54E-03,3.63E-03
18376,5.58E-03,3.75E-03
18377,5.38E-03,3.40E-03
18378,5.46E-03,3.52E-03
18379,5.28E-03,3.19E-03
18380,5.34E-03,3.30E-03
18381,5.22E-03,2.99E-03
18382,5.24E-03,3.09E-03
18383,5.15E-03,2.80E-03
18384,5.17E-03,2.89E-03
18385,5.10E-03,2.61E-03
18386,5.11E-03,2.70E-03
18387,5.21E-03,2.43E-03
18388,5.12E-03,2.52E-03
18389,5.17E-03,2.26E-03
18390,5.16E-03,2.34E-03
18391,5.13E-03,2.09E-03
18392,5.19E-03,2.17E-03
18393,5.11E-03,1.93E-03
18394,5.12E-03,2.01E-03
18395,5.19E-03,1.76E-03
18396,5.15E-03,1.85E-03
18397,5.28E-03,1.60E-03
18398,5.22E-03,1.68E-03
18399,5.37E-03,1.45E-03
18400,5.33E-03,1.53E-03
18401,5.36E-03,1.30E-03
18402,5.35E-03,1.37E-03
18403,5.42E-03,1.15E-03
18404,5.40E-03,1.22E-03
18405,5.40E-03,1.01E-03
18406,5.41E-03,1.08E-03
18407,5.50E-03,8.83E-04
18408,5.44E-03,9.47E-04
18409,5.56E-03,7.67E-04
18410,5.51E-03,8.23E-04
18411,5.59E-03,6.69E-04
18412,5.60E-03,7.16E-04
18413,5.63E-03,5.96E-04
18414,5.57E-03,6.29E-04
18415,5.70E-03,5.53E-04
18416,5.67E-03,5.72E-04
18417,5.73E-03,5.39E-04
18418,5.66E-03,5.42E-04
18419,5.78E-03,5.58E-04
18420,5.79E-03,5.44E-04
18421,5.91E-03,6.00E-04
18422,5.87E-03,5.79E-04
18423,5.94E-03,6.53E-04
18424,5.95E-03,6.25E-04
18425,5.88E-03,7.13E-04
18426,5.92E-03,6.82E-04
18427,5.86E-03,7.76E-04
18428,5.85E-03,7.44E-04
18429,5.86E-03,8.34E-04
18430,5.82E-03,8.06E-04
18431,5.86E-03,8.85E-04
18432,5.86E-03,8.60E-04
18433,5.37E-03,1.38E-02
18434,5.41E-03,1.40E-02
18435,5.39E-03,1.33E-02
18436,5.36E-03,1.36E-02
18437,5.43E-03,1.29E-02
18438,5.40E-03,1.31E-02
18439,5.53E-03,1.25E-02
18440,5.45E-03,1.27E-02
18441,5.63E-03,1.21E-02
18442,5.56E-03,1.23E-02
18443,5.77E-03,1.17E-02
18444,5.72E-03,1.19E-02
18445,5.89E-03,1.13E-02
18446,5.82E-03,1.15E-02
18447,6.04E-03,1.10E-02
18448,6.00E-03,1.12E-02
18449,6.19E-03,1.07E-02
18450,6.18E-03,1.09E-02
18451,6.23E-03,1.05E-02
18452,6.28E-03,1.06E-02
18453,6.19E-03,1.02E-02
18454,6.26E-03,1.03E-02
18455,6.08E-03,1.00E-02
18456,6.15E-03,1.01E-02
18457,6.06E-03,9.82E-03
18458,6.04E-03,9.91E-03
18459,5.90E-03,9.66E-03
18460,5.99E-03,9.74E-03
18461,5.73E-03,9.51E-03
18462,5.77E-03,9.58E-03
18463,5.79E-03,1.23E-02
18464,4.65E-03,1.40E-02
18465,4.41E-03,1.37E-02
18466,5.46E-03,1.95E-02
18467,4.09E-03,1.34E-02
18468,4.18E-03,1.33E-02
18469,4.71E-03,1.33E-02
18470,5.01E-03,2.40E-02
18471,5.14E-03,2.40E-02
18472,5.04E-03,2.40E-02
18473,5.23E-03,2.38E-02
18474,5.14E-03,2.39E-02
18475,5.53E-03,2.33E-02
18476,5.36E-03,2.36E-02
18477,6.14E-03,2.25E-02
18478,5.78E-03,2.29E-02
18479,6.85E-03,2.19E-02
18480,6.56E-03,2.22E-02
18481,6.72E-03,2.17E-02
18482,6.90E-03,2.17E-02
18483,6.12E-03,2.20E-02
18484,6.31E-03,2.18E-02
18485,5.93E-03,2.21E-02
18486,6.00E-03,2.21E-02
18487,5.89E-03,2.19E-02
18488,5.88E-03,2.21E-02
18489,6.01E-03,2.15E-02
18490,5.96E-03,2.17E-02
18491,6.09E-03,2.09E-02
18492,6.06E-03,2.12E-02
18493,5.95E-03,2.05E-02
18494,5.99E-03,2.07E-02
18495,5.84E-03,2.01E-02
18496,5.93E-03,2.03E-02
18497,5.77E-03,1.96E-02
18498,5.81E-03,1.99E-02
18499,5.61E-03,1.90E-02
18500,5.69E-03,1.93E-02
18501,5.58E-03,1.82E-02
18502,5.60E-03,1.86E-02
18503,6.29E-03,1.73E-02
18504,5.58E-03,1.78E-02
18505,6.64E-03,1.64E-02
18506,6.86E-03,1.69E-02
18507,6.44E-03,1.56E-02
18508,6.53E-03,1.60E-02
18509,6.31E-03,1.49E-02
18510,6.35E-03,1.53E-02
18511,6.20E-03,1.41E-02
18512,6.26E-03,1.45E-02
18513,5.86E-03,1.35E-02
18514,6.06E-03,1.38E-02
18515,5.44E-03,1.31E-02
18516,4.67E-03,1.09E-02
18517,5.20E-03,1.11E-02
18518,4.45E-03,1.06E-02
18519,5.59E-03,1.46E-02
18520,5.50E-03,1.47E-02
18521,5.30E-03,2.09E-02
18522,5.20E-03,2.17E-02
18523,5.12E-03,2.25E-02
18524,5.04E-03,2.32E-02
18525,5.08E-03,2.39E-02
18526,5.57E-03,7.09E-03
18527,5.60E-03,6.78E-03
18528,5.64E-03,6.47E-03
18529,5.62E-03,6.17E-03
18530,5.52E-03,5.87E-03
18531,5.46E-03,5.58E-03
18532,5.44E-03,5.30E-03
18533,5.43E-03,7.40E-03
18534,5.41E-03,7.71E-03
18535,5.26E-03,8.01E-03
18536,5.28E-03,8.30E-03
18537,5.35E-03,8.58E-03
18538,5.43E-03,8.87E-03
18539,5.53E-03,9.15E-03
18540,5.65E-03,9.45E-03
18541,6.05E-03,8.31E-03
18542,5.95E-03,8.13E-03
18543,5.85E-03,7.98E-03
18544,5.74E-03,7.86E-03
18545,5.68E-03,7.76E-03
18546,4.93E-03,1.29E-02
18547,5.04E-03,1.29E-02
18548,5.22E-03,1.28E-02
18549,5.37E-03,1.28E-02
18550,5.41E-03,1.28E-02
18551,4.04E-03,1.30E-02
18552,4.19E-03,1.30E-02
18553,4.66E-03,1.29E-02
18554,3.67E-03,1.31E-02
18555,5.97E-03,1.49E-02
18556,6.43E-03,1.01E-02
18557,6.31E-03,1.04E-02
18558,6.15E-03,1.07E-02
18559,5.97E-03,1.09E-02
18560,5.91E-03,1.12E-02
18561,6.38E-03,9.69E-03
18562,6.19E-03,8.70E-03
18563,6.24E-03,3.29E-03
18564,6.32E-03,3.01E-03
18565,6.28E-03,2.72E-03
18566,6.20E-03,2.42E-03
18567,6.18E-03,2.11E-03
18568,6.12E-03,1.81E-03
18569,6.05E-03,1.50E-03
18570,5.97E-03,1.19E-03
18571,5.92E-03,9.09E-04
18572,6.18E-03,3.57E-03
18573,6.01E-03,3.83E-03
18574,5.91E-03,4.08E-03
18575,5.75E-03,4.32E-03
18576,5.67E-03,4.55E-03
18577,5.39E-03,5.03E-03
18578,5.53E-03,4.78E-03
18579,5.86E-03,1.50E-02
18580,5.67E-03,1.49E-02
18581,5.58E-03,1.50E-02
18582,5.31E-03,2.08E-02
18583,5.32E-03,2.16E-02
18584,5.23E-03,2.24E-02
18585,5.12E-03,2.32E-02
18586,5.05E-03,2.39E-02
18587,5.56E-03,7.04E-03
18588,5.64E-03,6.73E-03
18589,5.62E-03,6.42E-03
18590,5.61E-03,6.12E-03
18591,5.47E-03,5.83E-03
18592,5.42E-03,5.55E-03
18593,5.37E-03,5.28E-03
18594,5.52E-03,7.35E-03
18595,5.45E-03,7.66E-03
18596,5.35E-03,7.96E-03
18597,5.31E-03,8.25E-03
18598,5.33E-03,8.53E-03
18599,5.38E-03,8.82E-03
18600,5.46E-03,9.10E-03
18601,5.55E-03,9.39E-03
18602,6.07E-03,8.49E-03
18603,5.95E-03,8.31E-03
18604,5.85E-03,8.17E-03
18605,5.81E-03,8.05E-03
18606,5.71E-03,7.95E-03
18607,4.97E-03,1.29E-02
18608,5.17E-03,1.29E-02
18609,5.32E-03,1.29E-02
18610,5.41E-03,1.29E-02
18611,4.03E-03,1.30E-02
18612,4.86E-03,1.29E-02
18613,4.54E-03,1.29E-02
18614,3.87E-03,1.30E-02
18615,5.96E-03,1.52E-02
18616,6.33E-03,1.03E-02
18617,6.15E-03,1.06E-02
18618,5.90E-03,1.08E-02
18619,5.69E-03,1.11E-02
18620,6.37E-03,9.89E-03
18621,6.21E-03,8.88E-03
18622,6.28E-03,3.01E-03
18623,6.30E-03,2.72E-03
18624,6.24E-03,2.43E-03
18625,6.18E-03,2.13E-03
18626,6.12E-03,1.83E-03
18627,6.06E-03,1.52E-03
18628,6.01E-03,1.22E-03
18629,5.90E-03,9.35E-04
18630,6.17E-03,3.29E-03
18631,6.14E-03,3.56E-03
18632,5.93E-03,3.82E-03
18633,5.84E-03,4.07E-03
18634,5.70E-03,4.30E-03
18635,5.60E-03,4.53E-03
18636,5.41E-03,5.00E-03
18637,5.49E-03,4.75E-03
18638,5.94E-03,1.53E-02
18639,5.79E-03,1.51E-02
18640,5.66E-03,1.52E-02
18641,5.34E-03,2.07E-02
18642,5.32E-03,2.15E-02
18643,5.30E-03,2.22E-02
18644,5.26E-03,2.30E-02
18645,5.14E-03,2.38E-02
18646,5.64E-03,6.98E-03
18647,5.63E-03,6.68E-03
18648,5.65E-03,6.38E-03
18649,5.58E-03,6.09E-03
18650,5.43E-03,5.80E-03
18651,5.39E-03,5.52E-03
18652,5.37E-03,5.25E-03
18653,5.57E-03,7.29E-03
18654,5.49E-03,7.60E-03
18655,5.43E-03,7.91E-03
18656,5.31E-03,8.20E-03
18657,5.27E-03,8.49E-03
18658,5.35E-03,8.77E-03
18659,5.41E-03,9.05E-03
18660,5.50E-03,9.33E-03
18661,6.12E-03,8.67E-03
18662,5.92E-03,8.50E-03
18663,5.84E-03,8.36E-03
18664,5.77E-03,8.24E-03
18665,5.74E-03,8.14E-03
18666,4.89E-03,1.29E-02
18667,5.11E-03,1.29E-02
18668,5.28E-03,1.29E-02
18669,5.39E-03,1.30E-02
18670,4.74E-03,1.29E-02
18671,4.36E-03,1.29E-02
18672,4.17E-03,1.30E-02
18673,5.87E-03,1.55E-02
18674,5.47E-03,1.30E-02
18675,5.42E-03,1.29E-02
18676,6.17E-03,1.05E-02
18677,5.98E-03,1.07E-02
18678,5.64E-03,1.10E-02
18679,6.41E-03,1.01E-02
18680,6.23E-03,9.07E-03
18681,6.30E-03,2.72E-03
18682,6.31E-03,2.44E-03
18683,6.20E-03,2.14E-03
18684,6.14E-03,1.84E-03
18685,6.09E-03,1.54E-03
18686,5.98E-03,1.24E-03
18687,5.92E-03,9.62E-04
18688,6.24E-03,3.01E-03
18689,6.10E-03,3.28E-03
18690,6.04E-03,3.55E-03
18691,5.93E-03,3.80E-03
18692,5.77E-03,4.05E-03
18693,5.65E-03,4.28E-03
18694,5.54E-03,4.51E-03
18695,5.99E-03,1.56E-02
18696,5.83E-03,1.54E-02
18697,5.77E-03,1.55E-02
18698,5.35E-03,2.06E-02
18699,5.36E-03,2.13E-02
18700,5.34E-03,2.21E-02
18701,5.29E-03,2.29E-02
18702,5.23E-03,2.37E-02
18703,5.63E-03,6.93E-03
18704,5.66E-03,6.63E-03
18705,5.63E-03,6.34E-03
18706,5.53E-03,6.05E-03
18707,5.39E-03,5.77E-03
18708,5.37E-03,5.50E-03
18709,5.61E-03,7.24E-03
18710,5.54E-03,7.55E-03
18711,5.46E-03,7.85E-03
18712,5.36E-03,8.15E-03
18713,5.24E-03,8.44E-03
18714,5.29E-03,8.72E-03
18715,5.36E-03,9.00E-03
18716,5.46E-03,9.28E-03
18717,6.11E-03,8.86E-03
18718,6.01E-03,8.69E-03
18719,5.82E-03,8.55E-03
18720,5.77E-03,8.43E-03
18721,5.75E-03,8.34E-03
18722,4.87E-03,1.29E-02
18723,5.03E-03,1.29E-02
18724,5.24E-03,1.30E-02
18725,5.37E-03,1.30E-02
18726,5.45E-03,1.31E-02
18727,4.65E-03,1.29E-02
18728,4.30E-03,1.29E-02
18729,5.84E-03,1.58E-02
18730,5.41E-03,1.28E-02
18731,5.49E-03,1.32E-02
18732,5.48E-03,1.31E-02
18733,6.10E-03,1.07E-02
18734,5.74E-03,1.09E-02
18735,6.39E-03,1.03E-02
18736,6.25E-03,9.26E-03
18737,6.30E-03,2.44E-03
18738,6.23E-03,2.16E-03
18739,6.16E-03,1.86E-03
18740,6.09E-03,1.56E-03
18741,6.04E-03,1.27E-03
18742,5.93E-03,9.89E-04
18743,6.30E-03,2.73E-03
18744,6.13E-03,3.01E-03
18745,6.05E-03,3.27E-03
18746,5.96E-03,3.53E-03
18747,5.85E-03,3.78E-03
18748,5.73E-03,4.02E-03
18749,5.63E-03,4.25E-03
18750,5.92E-03,1.59E-02
18751,5.86E-03,1.57E-02
18752,5.82E-03,1.58E-02
18753,5.32E-03,2.05E-02
18754,5.38E-03,2.12E-02
18755,5.39E-03,2.20E-02
18756,5.37E-03,2.28E-02
18757,5.26E-03,2.36E-02
18758,5.70E-03,6.88E-03
18759,5.61E-03,6.58E-03
18760,5.59E-03,6.29E-03
18761,5.49E-03,6.01E-03
18762,5.40E-03,5.74E-03
18763,5.64E-03,7.18E-03
18764,5.59E-03,7.49E-03
18765,5.51E-03,7.80E-03
18766,5.42E-03,8.10E-03
18767,5.30E-03,8.39E-03
18768,5.26E-03,8.67E-03
18769,5.32E-03,8.95E-03
18770,5.38E-03,9.23E-03
18771,6.12E-03,9.05E-03
18772,6.02E-03,8.88E-03
18773,5.84E-03,8.74E-03
18774,5.81E-03,8.63E-03
18775,5.75E-03,8.54E-03
18776,5.01E-03,1.29E-02
18777,5.18E-03,1.30E-02
18778,5.34E-03,1.31E-02
18779,5.43E-03,1.31E-02
18780,5.49E-03,1.32E-02
18781,4.79E-03,1.29E-02
18782,4.50E-03,1.29E-02
18783,5.78E-03,1.62E-02
18784,5.40E-03,1.27E-02
18785,5.46E-03,1.30E-02
18786,5.98E-03,1.09E-02
18787,6.27E-03,1.05E-02
18788,6.28E-03,9.46E-03
18789,6.25E-03,2.16E-03
18790,6.19E-03,1.87E-03
18791,6.11E-03,1.58E-03
18792,6.01E-03,1.29E-03
18793,5.94E-03,1.02E-03
18794,6.26E-03,2.44E-03
18795,6.18E-03,2.73E-03
18796,6.08E-03,3.00E-03
18797,6.00E-03,3.26E-03
18798,5.89E-03,3.52E-03
18799,5.80E-03,3.76E-03
18800,5.63E-03,4.00E-03
18801,5.88E-03,1.63E-02
18802,5.94E-03,1.60E-02
18803,5.82E-03,1.61E-02
18804,5.26E-03,2.05E-02
18805,5.35E-03,2.12E-02
18806,5.41E-03,2.19E-02
18807,5.41E-03,2.26E-02
18808,5.39E-03,2.34E-02
18809,5.72E-03,6.83E-03
18810,5.62E-03,6.54E-03
18811,5.52E-03,6.25E-03
18812,5.49E-03,5.98E-03
18813,5.71E-03,7.13E-03
18814,5.64E-03,7.43E-03
18815,5.56E-03,7.74E-03
18816,5.48E-03,8.04E-03
18817,5.38E-03,8.34E-03
18818,5.27E-03,8.62E-03
18819,5.31E-03,8.90E-03
18820,5.36E-03,9.17E-03
18821,6.13E-03,9.25E-03
18822,6.03E-03,9.08E-03
18823,5.88E-03,8.94E-03
18824,5.82E-03,8.83E-03
18825,5.74E-03,8.74E-03
18826,5.14E-03,1.30E-02
18827,5.29E-03,1.31E-02
18828,5.41E-03,1.32E-02
18829,5.51E-03,1.33E-02
18830,4.96E-03,1.29E-02
18831,4.75E-03,1.29E-02
18832,5.68E-03,1.65E-02
18833,5.39E-03,1.26E-02
18834,5.46E-03,1.29E-02
18835,5.78E-03,1.11E-02
18836,5.31E-03,1.11E-02
18837,6.23E-03,1.07E-02
18838,6.29E-03,9.66E-03
18839,6.22E-03,1.88E-03
18840,6.11E-03,1.60E-03
18841,6.05E-03,1.31E-03
18842,5.93E-03,1.04E-03
18843,6.25E-03,2.17E-03
18844,6.20E-03,2.45E-03
18845,6.12E-03,2.72E-03
18846,6.00E-03,2.99E-03
18847,5.93E-03,3.25E-03
18848,5.82E-03,3.50E-03
18849,5.67E-03,3.74E-03
18850,5.80E-03,1.66E-02
18851,5.94E-03,1.64E-02
18852,5.89E-03,1.64E-02
18853,5.16E-03,2.05E-02
18854,5.28E-03,2.11E-02
18855,5.39E-03,2.18E-02
18856,5.44E-03,2.25E-02
18857,5.45E-03,2.32E-02
18858,5.73E-03,6.78E-03
18859,5.57E-03,6.49E-03
18860,5.53E-03,6.22E-03
18861,5.73E-03,7.07E-03
18862,5.67E-03,7.37E-03
18863,5.61E-03,7.68E-03
18864,5.54E-03,7.98E-03
18865,5.44E-03,8.28E-03
18866,5.34E-03,8.57E-03
18867,5.31E-03,8.85E-03
18868,5.34E-03,9.12E-03
18869,6.16E-03,9.45E-03
18870,6.02E-03,9.28E-03
18871,5.92E-03,9.14E-03
18872,5.79E-03,9.03E-03
18873,5.75E-03,8.94E-03
18874,5.27E-03,1.31E-02
18875,5.37E-03,1.32E-02
18876,5.52E-03,1.33E-02
18877,5.09E-03,1.30E-02
18878,4.88E-03,1.29E-02
18879,5.59E-03,1.68E-02
18880,5.39E-03,1.25E-02
18881,5.46E-03,1.28E-02
18882,5.46E-03,1.12E-02
18883,3.94E-03,1.12E-02
18884,5.12E-03,1.11E-02
18885,6.25E-03,1.09E-02
18886,6.31E-03,9.86E-03
18887,6.12E-03,1.61E-03
18888,6.07E-03,1.33E-03
18889,5.96E-03,1.06E-03
18890,6.18E-03,1.89E-03
18891,6.21E-03,2.17E-03
18892,6.14E-03,2.45E-03
18893,6.05E-03,2.72E-03
18894,5.93E-03,2.98E-03
18895,5.85E-03,3.24E-03
18896,5.73E-03,3.48E-03
18897,5.75E-03,1.69E-02
18898,4.54E-03,1.05E-02
18899,5.94E-03,1.67E-02
18900,5.95E-03,1.68E-02
18901,5.05E-03,2.05E-02
18902,5.19E-03,2.11E-02
18903,5.33E-03,2.17E-02
18904,5.44E-03,2.24E-02
18905,5.49E-03,2.31E-02
18906,5.69E-03,6.73E-03
18907,5.57E-03,6.45E-03
18908,5.72E-03,7.02E-03
18909,5.70E-03,7.32E-03
18910,5.65E-03,7.62E-03
18911,5.58E-03,7.92E-03
18912,5.50E-03,8.22E-03
18913,5.39E-03,8.51E-03
18914,5.32E-03,8.79E-03
18915,5.31E-03,9.07E-03
18916,6.18E-03,9.65E-03
18917,6.03E-03,9.48E-03
18918,5.90E-03,9.34E-03
18919,5.80E-03,9.23E-03
18920,5.76E-03,9.14E-03
18921,5.38E-03,1.32E-02
18922,5.49E-03,1.34E-02
18923,5.18E-03,1.31E-02
18924,5.03E-03,1.30E-02
18925,5.46E-03,1.71E-02
18926,5.39E-03,1.23E-02
18927,5.45E-03,1.26E-02
18928,4.84E-03,1.12E-02
18929,6.46E-03,1.12E-02
18930,6.29E-03,1.01E-02
18931,6.09E-03,1.35E-03
18932,5.99E-03,1.08E-03
18933,6.13E-03,1.62E-03
18934,6.17E-03,1.90E-03
18935,6.13E-03,2.17E-03
18936,6.09E-03,2.45E-03
18937,5.96E-03,2.71E-03
18938,5.89E-03,2.97E-03
18939,5.77E-03,3.22E-03
18940,5.65E-03,1.73E-02
18941,4.80E-03,1.09E-02
18942,5.96E-03,1.71E-02
18943,5.88E-03,1.70E-02
18944,4.94E-03,2.05E-02
18945,5.08E-03,2.10E-02
18946,5.21E-03,2.16E-02
18947,5.45E-03,2.23E-02
18948,5.49E-03,2.30E-02
18949,5.65E-03,6.69E-03
18950,5.71E-03,6.97E-03
18951,5.73E-03,7.26E-03
18952,5.70E-03,7.56E-03
18953,5.60E-03,7.86E-03
18954,5.56E-03,8.16E-03
18955,5.45E-03,8.45E-03
18956,5.35E-03,8.74E-03
18957,5.29E-03,9.01E-03
18958,6.20E-03,9.86E-03
18959,6.06E-03,9.68E-03
18960,5.94E-03,9.54E-03
18961,5.79E-03,9.43E-03
18962,5.72E-03,9.35E-03
18963,5.44E-03,1.34E-02
18964,5.29E-03,1.33E-02
18965,5.15E-03,1.31E-02
18966,5.35E-03,1.74E-02
18967,5.40E-03,1.21E-02
18968,5.48E-03,1.25E-02
18969,4.69E-03,1.14E-02
18970,7.51E-03,1.14E-02
18971,6.36E-03,1.03E-02
18972,6.03E-03,1.11E-03
18973,6.11E-03,1.36E-03
18974,6.11E-03,1.64E-03
18975,6.15E-03,1.91E-03
18976,6.07E-03,2.18E-03
18977,5.99E-03,2.44E-03
18978,5.91E-03,2.70E-03
18979,5.81E-03,2.96E-03
18980,5.53E-03,1.76E-02
18981,5.96E-03,1.75E-02
18982,5.81E-03,1.74E-02
18983,4.81E-03,2.05E-02
18984,4.99E-03,2.10E-02
18985,5.14E-03,2.16E-02
18986,5.35E-03,2.22E-02
18987,5.47E-03,2.29E-02
18988,5.67E-03,6.92E-03
18989,5.71E-03,7.20E-03
18990,5.73E-03,7.50E-03
18991,5.66E-03,7.79E-03
18992,5.61E-03,8.09E-03
18993,5.51E-03,8.39E-03
18994,5.39E-03,8.68E-03
18995,5.33E-03,8.95E-03
18996,6.18E-03,1.01E-02
18997,6.08E-03,9.89E-03
18998,5.92E-03,9.75E-03
18999,5.81E-03,9.63E-03
19000,5.68E-03,9.55E-03
19001,5.41E-03,1.34E-02
19002,5.27E-03,1.33E-02
19003,5.25E-03,1.77E-02
19004,5.44E-03,1.19E-02
19005,5.46E-03,1.23E-02
19006,4.60E-03,1.16E-02
19007,6.37E-03,1.05E-02
19008,6.05E-03,1.13E-03
19009,6.06E-03,1.38E-03
19010,6.12E-03,1.65E-03
19011,6.03E-03,1.91E-03
19012,6.02E-03,2.18E-03
19013,5.92E-03,2.44E-03
19014,5.86E-03,2.69E-03
19015,1.00E-02,9.97E-03
19016,5.39E-03,1.79E-02
19017,5.89E-03,1.79E-02
19018,5.76E-03,1.77E-02
19019,4.69E-03,2.05E-02
19020,4.83E-03,2.11E-02
19021,5.09E-03,2.16E-02
19022,5.22E-03,2.22E-02
19023,5.41E-03,2.28E-02
19024,5.71E-03,7.15E-03
19025,5.79E-03,7.44E-03
19026,5.73E-03,7.73E-03
19027,5.62E-03,8.03E-03
19028,5.58E-03,8.32E-03
19029,5.46E-03,8.61E-03
19030,5.34E-03,8.89E-03
19031,6.19E-03,1.03E-02
19032,6.10E-03,1.01E-02
19033,5.94E-03,9.95E-03
19034,5.81E-03,9.84E-03
19035,5.67E-03,9.76E-03
19036,5.38E-03,1.34E-02
19037,5.14E-03,1.80E-02
19038,5.47E-03,1.17E-02
19039,5.48E-03,1.21E-02
19040,3.13E-03,1.17E-02
19041,2.17E-03,1.18E-02
19042,6.35E-03,1.07E-02
19043,6.04E-03,1.14E-03
19044,6.15E-03,1.40E-03
19045,6.05E-03,1.66E-03
19046,6.03E-03,1.92E-03
19047,5.90E-03,2.17E-03
19048,5.89E-03,2.43E-03
19049,5.22E-03,1.82E-02
19050,5.86E-03,1.82E-02
19051,5.66E-03,1.81E-02
19052,4.71E-03,2.05E-02
19053,4.70E-03,2.11E-02
19054,4.99E-03,2.16E-02
19055,5.06E-03,2.22E-02
19056,5.40E-03,2.28E-02
19057,5.76E-03,7.38E-03
19058,5.74E-03,7.66E-03
19059,5.67E-03,7.96E-03
19060,5.62E-03,8.25E-03
19061,5.53E-03,8.55E-03
19062,5.41E-03,8.83E-03
19063,6.27E-03,1.05E-02
19064,6.05E-03,1.03E-02
19065,5.96E-03,1.02E-02
19066,5.79E-03,1.00E-02
19067,5.69E-03,9.97E-03
19068,5.36E-03,1.34E-02
19069,5.57E-03,1.34E-02
19070,5.33E-03,1.12E-02
19071,5.07E-03,1.83E-02
19072,5.15E-03,1.12E-02
19073,5.80E-03,1.15E-02
19074,5.39E-03,1.19E-02
19075,3.29E-03,1.18E-02
19076,4.54E-03,1.18E-02
19077,6.48E-03,1.10E-02
19078,6.05E-03,1.17E-03
19079,6.05E-03,1.41E-03
19080,6.00E-03,1.66E-03
19081,5.89E-03,1.92E-03
19082,5.90E-03,2.17E-03
19083,5.18E-03,1.32E-02
19084,5.07E-03,1.85E-02
19085,5.80E-03,1.86E-02
19086,5.50E-03,1.84E-02
19087,4.70E-03,2.05E-02
19088,4.75E-03,2.11E-02
19089,4.83E-03,2.17E-02
19090,5.02E-03,2.23E-02
19091,5.25E-03,2.29E-02
19092,5.73E-03,7.60E-03
19093,5.73E-03,7.89E-03
19094,5.63E-03,8.18E-03
19095,5.60E-03,8.48E-03
19096,5.43E-03,8.76E-03
19097,6.29E-03,1.07E-02
19098,6.08E-03,1.05E-02
19099,5.96E-03,1.04E-02
19100,5.80E-03,1.03E-02
19101,5.66E-03,1.02E-02
19102,4.35E-03,1.34E-02
19103,5.32E-03,1.41E-02
19104,5.70E-03,1.13E-02
19105,4.27E-03,1.33E-02
19106,5.04E-03,1.86E-02
19107,4.00E-03,1.14E-02
19108,5.49E-03,1.17E-02
19109,4.29E-03,1.19E-02
19110,6.80E-03,1.12E-02
19111,6.07E-03,1.18E-03
19112,5.98E-03,1.42E-03
19113,5.94E-03,1.67E-03
19114,5.90E-03,1.92E-03
19115,4.99E-03,1.32E-02
19116,4.94E-03,1.88E-02
19117,5.02E-03,1.31E-02
19118,5.66E-03,1.89E-02
19119,5.28E-03,1.87E-02
19120,4.72E-03,2.05E-02
19121,4.75E-03,2.11E-02
19122,4.78E-03,2.17E-02
19123,4.92E-03,2.23E-02
19124,5.13E-03,2.29E-02
19125,5.76E-03,7.83E-03
19126,5.73E-03,8.11E-03
19127,5.59E-03,8.40E-03
19128,5.51E-03,8.69E-03
19129,6.12E-03,1.08E-02
19130,5.96E-03,1.06E-02
19131,5.79E-03,1.05E-02
19132,5.67E-03,1.04E-02
19133,3.79E-03,1.34E-02
19134,4.75E-03,1.13E-02
19135,5.38E-03,1.37E-02
19136,6.44E-03,1.15E-02
19137,5.14E-03,1.40E-02
19138,4.13E-03,1.31E-02
19139,5.09E-03,1.89E-02
19140,6.46E-03,1.10E-02
19141,4.36E-03,1.15E-02
19142,4.44E-03,1.21E-02
19143,5.11E-03,1.20E-02
19144,7.18E-03,1.14E-02
19145,5.98E-03,1.20E-03
19146,5.95E-03,1.43E-03
19147,5.90E-03,1.67E-03
19148,4.19E-03,1.23E-02
19149,4.15E-03,1.25E-02
19150,4.70E-03,1.32E-02
19151,4.47E-03,1.25E-02
19152,4.67E-03,1.33E-02
19153,4.88E-03,1.91E-02
19154,4.91E-03,1.31E-02
19155,5.36E-03,1.92E-02
19156,5.04E-03,1.90E-02
19157,4.72E-03,2.11E-02
19158,4.78E-03,2.17E-02
19159,4.86E-03,2.24E-02
19160,5.05E-03,2.30E-02
19161,5.74E-03,8.04E-03
19162,5.66E-03,8.33E-03
19163,5.59E-03,8.62E-03
19164,5.91E-03,1.08E-02
19165,5.77E-03,1.07E-02
19166,5.64E-03,1.06E-02
19167,4.86E-03,1.33E-02
19168,4.39E-03,1.15E-02
19169,4.27E-03,1.21E-02
19170,5.45E-03,1.33E-02
19171,6.66E-03,1.17E-02
19172,5.07E-03,1.39E-02
19173,4.92E-03,1.30E-02
19174,4.25E-03,1.30E-02
19175,5.18E-03,1.93E-02
19176,4.81E-03,2.05E-02
19177,6.33E-03,1.10E-02
19178,3.19E-03,1.11E-02
19179,6.85E-03,1.20E-02
19180,7.97E-03,1.16E-02
19181,5.94E-03,1.22E-03
19182,5.88E-03,1.44E-03
19183,4.89E-03,1.27E-02
19184,4.95E-03,1.29E-02
19185,5.07E-03,1.30E-02
19186,4.52E-03,1.32E-02
19187,4.98E-03,1.15E-02
19188,4.41E-03,1.23E-02
19189,5.21E-03,1.36E-02
19190,4.86E-03,1.31E-02
19191,4.96E-03,1.94E-02
19192,6.57E-03,1.12E-02
19193,4.82E-03,1.31E-02
19194,4.74E-03,1.25E-02
19195,4.95E-03,1.95E-02
19196,4.86E-03,1.93E-02
19197,4.74E-03,2.17E-02
19198,4.82E-03,2.24E-02
19199,4.93E-03,2.30E-02
19200,5.73E-03,8.26E-03
19201,5.63E-03,8.54E-03
19202,5.72E-03,1.09E-02
19203,5.60E-03,1.08E-02
19204,4.86E-03,1.32E-02
19205,4.07E-03,1.16E-02
19206,3.99E-03,1.20E-02
19207,5.48E-03,1.29E-02
19208,5.69E-03,1.19E-02
19209,5.00E-03,1.38E-02
19210,4.80E-03,1.29E-02
19211,4.20E-03,1.29E-02
19212,4.69E-03,1.33E-02
19213,5.36E-03,1.96E-02
19214,4.93E-03,2.04E-02
19215,6.08E-03,1.10E-02
19216,4.88E-03,1.28E-02
19217,5.67E-03,1.22E-02
19218,7.78E-03,1.19E-02
19219,4.80E-03,1.30E-02
19220,5.87E-03,1.23E-03
19221,5.15E-03,1.28E-02
19222,5.29E-03,1.30E-02
19223,4.68E-03,1.32E-02
19224,4.50E-03,1.16E-02
19225,4.34E-03,1.22E-02
19226,5.28E-03,1.32E-02
19227,5.14E-03,1.35E-02
19228,4.83E-03,1.29E-02
19229,5.04E-03,1.98E-02
19230,4.80E-03,2.11E-02
19231,6.36E-03,1.12E-02
19232,6.84E-03,1.14E-02
19233,5.33E-03,1.16E-02
19234,4.74E-03,1.30E-02
19235,4.62E-03,1.24E-02
19236,4.99E-03,2.00E-02
19237,4.64E-03,1.98E-02
19238,4.77E-03,1.96E-02
19239,4.83E-03,2.24E-02
19240,4.94E-03,2.31E-02
19241,5.75E-03,8.47E-03
19242,5.43E-03,1.10E-02
19243,5.63E-03,1.32E-02
19244,3.35E-03,1.17E-02
19245,3.57E-03,1.19E-02
19246,5.46E-03,1.26E-02
19247,5.59E-03,1.21E-02
19248,4.83E-03,1.37E-02
19249,4.67E-03,1.29E-02
19250,4.31E-03,1.29E-02
19251,4.64E-03,1.34E-02
19252,5.94E-03,2.00E-02
19253,5.08E-03,2.03E-02
19254,5.76E-03,1.11E-02
19255,4.75E-03,1.08E-02
19256,4.40E-03,1.03E-02
19257,5.30E-03,1.31E-02
19258,5.53E-03,1.30E-02
19259,5.27E-03,1.27E-02
19260,6.53E-03,1.22E-02
19261,7.45E-03,1.05E-02
19262,4.77E-03,1.30E-02
19263,4.96E-03,1.26E-02
19264,5.04E-03,1.31E-02
19265,5.85E-03,1.05E-03
19266,5.85E-03,1.24E-03
19267,5.82E-03,1.07E-03
19268,5.98E-03,1.91E-02
19269,5.34E-03,1.30E-02
19270,5.31E-03,1.28E-02
19271,5.10E-03,1.31E-02
19272,4.10E-03,1.17E-02
19273,4.16E-03,1.21E-02
19274,5.37E-03,1.29E-02
19275,4.94E-03,1.18E-02
19276,5.03E-03,1.34E-02
19277,4.75E-03,1.29E-02
19278,4.25E-03,1.28E-02
19279,5.16E-03,2.01E-02
19280,4.89E-03,2.10E-02
19281,6.14E-03,1.13E-02
19282,6.91E-03,1.16E-02
19283,4.01E-03,1.18E-02
19284,4.86E-03,1.30E-02
19285,4.45E-03,1.22E-02
19286,5.23E-03,1.32E-02
19287,3.75E-03,1.28E-02
19288,4.42E-03,2.03E-02
19289,4.63E-03,2.01E-02
19290,4.82E-03,1.99E-02
19291,4.93E-03,2.31E-02
19292,5.12E-03,2.38E-02
19293,5.09E-03,2.38E-02
19294,4.79E-03,2.17E-02
19295,6.45E-03,1.14E-02
19296,5.84E-03,1.67E-03
19297,5.84E-03,1.44E-03
19298,5.83E-03,2.17E-03
19299,5.83E-03,1.92E-03
19300,5.73E-03,2.68E-03
19301,5.81E-03,2.42E-03
19302,5.70E-03,3.20E-03
19303,5.73E-03,2.94E-03
19304,5.61E-03,3.72E-03
19305,5.65E-03,3.46E-03
19306,5.54E-03,4.23E-03
19307,5.57E-03,3.98E-03
19308,5.43E-03,4.73E-03
19309,5.45E-03,4.48E-03
19310,5.44E-03,5.22E-03
19311,5.43E-03,4.98E-03
19312,5.43E-03,5.71E-03
19313,5.40E-03,5.47E-03
19314,5.50E-03,6.18E-03
19315,5.47E-03,5.95E-03
19316,5.58E-03,6.65E-03
19317,5.56E-03,6.41E-03
19318,5.68E-03,7.10E-03
19319,5.63E-03,6.88E-03
19320,5.75E-03,7.55E-03
19321,5.70E-03,7.33E-03
19322,5.77E-03,7.98E-03
19323,5.75E-03,7.76E-03
19324,5.74E-03,8.39E-03
19325,5.77E-03,8.19E-03
19326,5.50E-03,1.16E-02
19327,4.56E-03,1.35E-02
19328,4.58E-03,1.36E-02
19329,4.61E-03,1.14E-02
19330,5.49E-03,1.10E-02
19331,5.31E-03,1.12E-02
19332,5.54E-03,1.05E-02
19333,5.51E-03,1.08E-02
19334,5.62E-03,1.01E-02
19335,5.51E-03,1.03E-02
19336,5.66E-03,9.70E-03
19337,5.64E-03,9.91E-03
19338,5.66E-03,9.28E-03
19339,5.68E-03,9.49E-03
19340,5.67E-03,8.87E-03
19341,5.67E-03,9.08E-03
19342,5.64E-03,8.46E-03
19343,5.67E-03,8.66E-03
19344,5.65E-03,8.07E-03
19345,5.65E-03,8.26E-03
19346,5.67E-03,7.68E-03
19347,5.65E-03,7.87E-03
19348,5.68E-03,7.30E-03
19349,5.65E-03,7.49E-03
19350,5.73E-03,6.93E-03
19351,5.66E-03,7.12E-03
19352,5.79E-03,6.58E-03
19353,5.77E-03,6.75E-03
19354,5.78E-03,6.23E-03
19355,5.80E-03,6.40E-03
19356,5.81E-03,5.90E-03
19357,5.77E-03,6.06E-03
19358,5.84E-03,5.58E-03
19359,5.86E-03,5.74E-03
19360,5.82E-03,5.27E-03
19361,5.84E-03,5.42E-03
19362,5.79E-03,4.97E-03
19363,5.81E-03,5.12E-03
19364,5.66E-03,4.69E-03
19365,5.70E-03,4.83E-03
19366,5.58E-03,4.43E-03
19367,5.56E-03,4.55E-03
19368,5.56E-03,4.18E-03
19369,5.56E-03,4.30E-03
19370,5.57E-03,3.94E-03
19371,5.53E-03,4.06E-03
19372,5.51E-03,3.71E-03
19373,5.58E-03,3.82E-03
19374,5.47E-03,3.49E-03
19375,5.46E-03,3.60E-03
19376,5.36E-03,3.28E-03
19377,5.42E-03,3.39E-03
19378,5.35E-03,3.09E-03
19379,5.34E-03,3.18E-03
19380,5.27E-03,2.90E-03
19381,5.31E-03,2.99E-03
19382,5.20E-03,2.72E-03
19383,5.20E-03,2.81E-03
19384,5.22E-03,2.54E-03
19385,5.20E-03,2.63E-03
19386,5.23E-03,2.38E-03
19387,5.24E-03,2.46E-03
19388,5.19E-03,2.21E-03
19389,5.21E-03,2.29E-03
19390,5.17E-03,2.06E-03
19391,5.21E-03,2.14E-03
19392,5.30E-03,1.90E-03
19393,5.23E-03,1.98E-03
19394,5.34E-03,1.74E-03
19395,5.28E-03,1.82E-03
19396,5.39E-03,1.58E-03
19397,5.37E-03,1.66E-03
19398,5.40E-03,1.43E-03
19399,5.42E-03,1.51E-03
19400,5.44E-03,1.27E-03
19401,5.39E-03,1.35E-03
19402,5.43E-03,1.12E-03
19403,5.45E-03,1.20E-03
19404,5.51E-03,9.86E-04
19405,5.45E-03,1.05E-03
19406,5.60E-03,8.57E-04
19407,5.55E-03,9.20E-04
19408,5.58E-03,7.33E-04
19409,5.60E-03,7.94E-04
19410,5.65E-03,6.18E-04
19411,5.62E-03,6.72E-04
19412,5.67E-03,5.28E-04
19413,5.63E-03,5.70E-04
19414,5.68E-03,4.64E-04
19415,5.68E-03,4.93E-04
19416,5.75E-03,4.31E-04
19417,5.71E-03,4.44E-04
19418,5.86E-03,4.33E-04
19419,5.85E-03,4.28E-04
19420,5.83E-03,4.60E-04
19421,5.84E-03,4.43E-04
19422,5.81E-03,5.07E-04
19423,5.82E-03,4.82E-04
19424,5.75E-03,5.63E-04
19425,5.81E-03,5.34E-04
19426,5.77E-03,6.18E-04
19427,5.78E-03,5.90E-04
19428,5.79E-03,6.69E-04
19429,5.82E-03,6.44E-04
19430,5.83E-03,7.19E-04
19431,5.85E-03,6.93E-04
19432,5.87E-03,7.75E-04
19433,5.84E-03,7.46E-04
19434,5.85E-03,8.29E-04
19435,5.87E-03,8.02E-04
19436,5.93E-03,8.75E-04
19437,5.88E-03,8.52E-04
19438,5.94E-03,9.22E-04
19439,5.96E-03,8.98E-04
19440,6.01E-03,9.68E-04
19441,6.02E-03,9.45E-04
19442,5.95E-03,1.01E-03
19443,6.00E-03,9.93E-04
19444,5.96E-03,1.04E-03
19445,6.00E-03,1.83E-02
19446,5.99E-03,1.87E-02
19447,5.97E-03,1.76E-02
19448,6.03E-03,1.79E-02
19449,5.85E-03,1.69E-02
19450,5.89E-03,1.72E-02
19451,5.81E-03,1.62E-02
19452,5.83E-03,1.65E-02
19453,5.65E-03,1.56E-02
19454,5.71E-03,1.59E-02
19455,5.48E-03,1.51E-02
19456,5.55E-03,1.54E-02
19457,5.48E-03,1.46E-02
19458,5.51E-03,1.49E-02
19459,5.41E-03,1.41E-02
19460,5.38E-03,1.44E-02
19461,5.44E-03,1.37E-02
19462,5.41E-03,1.39E-02
19463,5.44E-03,1.32E-02
19464,5.42E-03,1.34E-02
19465,5.57E-03,1.28E-02
19466,5.50E-03,1.30E-02
19467,5.63E-03,1.24E-02
19468,5.57E-03,1.26E-02
19469,5.73E-03,1.20E-02
19470,5.68E-03,1.22E-02
19471,5.84E-03,1.16E-02
19472,5.76E-03,1.18E-02
19473,5.94E-03,1.13E-02
19474,5.90E-03,1.15E-02
19475,6.06E-03,1.10E-02
19476,6.05E-03,1.12E-02
19477,6.10E-03,1.07E-02
19478,6.13E-03,1.09E-02
19479,6.09E-03,1.05E-02
19480,6.14E-03,1.06E-02
19481,6.02E-03,1.03E-02
19482,6.07E-03,1.04E-02
19483,6.02E-03,1.01E-02
19484,5.96E-03,1.02E-02
19485,5.96E-03,9.91E-03
19486,5.98E-03,9.99E-03
19487,5.74E-03,9.75E-03
19488,5.87E-03,9.83E-03
19489,5.60E-03,9.62E-03
19490,5.70E-03,9.69E-03
19491,5.48E-03,9.51E-03
19492,5.55E-03,9.56E-03
19493,5.41E-03,9.39E-03
19494,5.42E-03,9.45E-03
19495,5.37E-03,9.28E-03
19496,5.38E-03,9.34E-03
19497,5.31E-03,9.17E-03
19498,5.27E-03,9.23E-03
19499,5.36E-03,9.04E-03
19500,5.34E-03,9.11E-03
19501,5.50E-03,8.90E-03
19502,5.42E-03,8.97E-03
19503,5.59E-03,8.75E-03
19504,5.57E-03,8.83E-03
19505,5.73E-03,8.60E-03
19506,5.69E-03,8.67E-03
19507,5.58E-03,1.31E-02
19508,5.94E-03,1.31E-02
19509,3.34E-03,1.18E-02
19510,5.51E-03,1.23E-02
19511,4.79E-03,1.36E-02
19512,4.53E-03,1.28E-02
19513,4.53E-03,1.34E-02
19514,5.97E-03,2.01E-02
19515,5.26E-03,1.12E-02
19516,4.10E-03,1.15E-02
19517,4.62E-03,1.12E-02
19518,5.27E-03,1.20E-02
19519,5.22E-03,1.18E-02
19520,5.58E-03,1.24E-02
19521,5.48E-03,1.22E-02
19522,5.60E-03,1.27E-02
19523,5.53E-03,1.26E-02
19524,5.54E-03,1.30E-02
19525,5.60E-03,1.29E-02
19526,5.56E-03,1.32E-02
19527,5.56E-03,1.31E-02
19528,5.54E-03,1.34E-02
19529,5.53E-03,1.33E-02
19530,5.56E-03,1.35E-02
19531,5.57E-03,1.34E-02
19532,5.56E-03,1.36E-02
19533,5.59E-03,1.35E-02
19534,5.52E-03,1.36E-02
19535,5.50E-03,1.36E-02
19536,5.49E-03,1.36E-02
19537,5.49E-03,1.36E-02
19538,5.91E-03,1.36E-02
19539,5.73E-03,1.36E-02
19540,5.05E-03,1.34E-02
19541,4.91E-03,1.35E-02
19542,4.98E-03,1.34E-02
19543,4.35E-03,1.34E-02
19544,5.73E-03,1.33E-02
19545,6.26E-03,1.34E-02
19546,5.46E-03,1.32E-02
19547,5.50E-03,1.33E-02
19548,5.37E-03,1.32E-02
19549,5.28E-03,2.36E-02
19550,5.24E-03,2.37E-02
19551,5.43E-03,2.35E-02
19552,5.34E-03,2.35E-02
19553,5.55E-03,2.35E-02
19554,5.50E-03,2.35E-02
19555,5.54E-03,2.37E-02
19556,5.56E-03,2.36E-02
19557,5.40E-03,2.40E-02
19558,5.52E-03,2.39E-02
19559,5.20E-03,2.43E-02
19560,5.25E-03,2.42E-02
19561,5.12E-03,2.45E-02
19562,5.15E-03,2.44E-02
19563,5.11E-03,2.46E-02
19564,5.14E-03,2.45E-02
19565,5.18E-03,2.46E-02
19566,5.13E-03,2.46E-02
19567,5.37E-03,2.45E-02
19568,5.26E-03,2.46E-02
19569,5.69E-03,2.42E-02
19570,5.51E-03,2.44E-02
19571,6.14E-03,2.36E-02
19572,5.90E-03,2.39E-02
19573,6.55E-03,2.30E-02
19574,6.38E-03,2.33E-02
19575,6.46E-03,2.29E-02
19576,6.57E-03,2.29E-02
19577,6.08E-03,2.32E-02
19578,6.28E-03,2.30E-02
19579,5.85E-03,2.35E-02
19580,5.98E-03,2.34E-02
19581,5.83E-03,2.32E-02
19582,5.81E-03,2.34E-02
19583,5.94E-03,2.26E-02
19584,5.88E-03,2.29E-02
19585,6.00E-03,2.19E-02
19586,5.97E-03,2.22E-02
19587,5.93E-03,2.15E-02
19588,5.94E-03,2.17E-02
19589,5.77E-03,2.11E-02
19590,5.85E-03,2.13E-02
19591,5.73E-03,2.05E-02
19592,5.72E-03,2.08E-02
19593,5.71E-03,1.98E-02
19594,5.72E-03,2.02E-02
19595,5.75E-03,1.90E-02
19596,5.68E-03,1.94E-02
19597,6.23E-03,1.80E-02
19598,5.88E-03,1.85E-02
19599,6.39E-03,1.71E-02
19600,6.30E-03,1.76E-02
19601,6.32E-03,1.63E-02
19602,6.36E-03,1.67E-02
19603,6.26E-03,1.56E-02
19604,6.30E-03,1.59E-02
19605,6.21E-03,1.48E-02
19606,6.26E-03,1.52E-02
19607,6.02E-03,1.39E-02
19608,6.15E-03,1.43E-02
19609,6.14E-03,1.27E-02
19610,5.88E-03,1.34E-02
19611,5.20E-03,1.11E-02
19612,5.69E-03,1.14E-02
19613,4.90E-03,1.06E-02
19614,6.53E-03,1.29E-02
19615,5.89E-03,1.11E-02
19616,4.75E-03,1.29E-02
19617,4.42E-03,1.17E-02
19618,4.78E-03,1.24E-02
19619,3.82E-03,1.29E-02
19620,5.80E-03,1.25E-03
19621,5.76E-03,1.09E-03
19622,5.41E-03,1.29E-02
19623,5.45E-03,1.30E-02
19624,3.89E-03,1.18E-02
19625,3.95E-03,1.20E-02
19626,5.42E-03,1.26E-02
19627,5.08E-03,1.19E-02
19628,5.28E-03,1.21E-02
19629,4.94E-03,1.34E-02
19630,4.56E-03,1.28E-02
19631,4.33E-03,1.28E-02
19632,4.47E-03,1.32E-02
19633,4.71E-03,1.33E-02
19634,4.68E-03,1.32E-02
19635,5.57E-03,2.05E-02
19636,5.03E-03,2.09E-02
19637,5.99E-03,1.13E-02
19638,4.91E-03,1.16E-02
19639,6.72E-03,1.19E-02
19640,6.80E-03,1.01E-02
19641,4.73E-03,1.29E-02
19642,3.88E-03,1.18E-02
19643,5.80E-03,8.32E-03
19644,5.79E-03,8.52E-03
19645,5.17E-03,1.27E-02
19646,5.02E-03,1.29E-02
19647,4.36E-03,1.21E-02
19648,5.27E-03,1.28E-02
19649,5.11E-03,1.31E-02
19650,4.10E-03,1.28E-02
19651,4.30E-03,2.06E-02
19652,4.64E-03,2.05E-02
19653,4.89E-03,2.03E-02
19654,5.06E-03,2.38E-02
19655,5.25E-03,2.45E-02
19656,5.21E-03,2.45E-02
19657,4.81E-03,2.24E-02
19658,4.84E-03,2.17E-02
19659,6.19E-03,1.15E-02
19660,5.67E-03,1.20E-02
19661,5.44E-03,1.19E-02
19662,6.43E-03,1.17E-02
19663,5.77E-03,1.67E-03
19664,5.78E-03,1.45E-03
19665,5.75E-03,2.16E-03
19666,5.77E-03,1.91E-03
19667,5.68E-03,2.67E-03
19668,5.71E-03,2.42E-03
19669,5.59E-03,3.19E-03
19670,5.64E-03,2.93E-03
19671,5.59E-03,3.70E-03
19672,5.60E-03,3.45E-03
19673,5.52E-03,4.21E-03
19674,5.49E-03,3.95E-03
19675,5.46E-03,4.71E-03
19676,5.43E-03,4.46E-03
19677,5.51E-03,5.20E-03
19678,5.41E-03,4.95E-03
19679,5.42E-03,5.68E-03
19680,5.45E-03,5.44E-03
19681,5.49E-03,6.15E-03
19682,5.47E-03,5.91E-03
19683,5.55E-03,6.61E-03
19684,5.53E-03,6.38E-03
19685,5.63E-03,7.06E-03
19686,5.58E-03,6.83E-03
19687,5.71E-03,7.49E-03
19688,5.64E-03,7.27E-03
19689,5.77E-03,7.91E-03
19690,5.76E-03,7.70E-03
19691,5.79E-03,8.12E-03
19692,5.33E-03,1.11E-02
19693,5.24E-03,1.14E-02
19694,5.48E-03,1.07E-02
19695,5.38E-03,1.09E-02
19696,5.55E-03,1.03E-02
19697,5.50E-03,1.05E-02
19698,5.62E-03,9.86E-03
19699,5.54E-03,1.01E-02
19700,5.68E-03,9.44E-03
19701,5.66E-03,9.65E-03
19702,5.59E-03,9.02E-03
19703,5.64E-03,9.23E-03
19704,5.62E-03,8.61E-03
19705,5.64E-03,8.81E-03
19706,5.57E-03,8.21E-03
19707,5.61E-03,8.40E-03
19708,5.58E-03,7.81E-03
19709,5.59E-03,8.01E-03
19710,5.63E-03,7.43E-03
19711,5.60E-03,7.62E-03
19712,5.71E-03,7.05E-03
19713,5.67E-03,7.24E-03
19714,5.77E-03,6.69E-03
19715,5.77E-03,6.87E-03
19716,5.71E-03,6.34E-03
19717,5.74E-03,6.51E-03
19718,5.72E-03,6.00E-03
19719,5.72E-03,6.17E-03
19720,5.72E-03,5.68E-03
19721,5.78E-03,5.84E-03
19722,5.72E-03,5.37E-03
19723,5.81E-03,5.52E-03
19724,5.70E-03,5.07E-03
19725,5.74E-03,5.22E-03
19726,5.62E-03,4.79E-03
19727,5.66E-03,4.93E-03
19728,5.57E-03,4.53E-03
19729,5.57E-03,4.66E-03
19730,5.56E-03,4.29E-03
19731,5.52E-03,4.41E-03
19732,5.60E-03,4.05E-03
19733,5.51E-03,4.17E-03
19734,5.50E-03,3.83E-03
19735,5.59E-03,3.94E-03
19736,5.49E-03,3.62E-03
19737,5.52E-03,3.72E-03
19738,5.41E-03,3.42E-03
19739,5.43E-03,3.52E-03
19740,5.37E-03,3.23E-03
19741,5.41E-03,3.32E-03
19742,5.33E-03,3.04E-03
19743,5.39E-03,3.13E-03
19744,5.29E-03,2.87E-03
19745,5.29E-03,2.96E-03
19746,5.26E-03,2.71E-03
19747,5.29E-03,2.79E-03
19748,5.24E-03,2.54E-03
19749,5.30E-03,2.62E-03
19750,5.27E-03,2.38E-03
19751,5.31E-03,2.46E-03
19752,5.25E-03,2.23E-03
19753,5.30E-03,2.31E-03
19754,5.35E-03,2.08E-03
19755,5.30E-03,2.15E-03
19756,5.39E-03,1.92E-03
19757,5.33E-03,2.00E-03
19758,5.40E-03,1.77E-03
19759,5.41E-03,1.85E-03
19760,5.45E-03,1.62E-03
19761,5.48E-03,1.69E-03
19762,5.46E-03,1.46E-03
19763,5.42E-03,1.53E-03
19764,5.46E-03,1.31E-03
19765,5.47E-03,1.38E-03
19766,5.53E-03,1.17E-03
19767,5.47E-03,1.24E-03
19768,5.59E-03,1.04E-03
19769,5.60E-03,1.11E-03
19770,5.60E-03,9.10E-04
19771,5.61E-03,9.77E-04
19772,5.60E-03,7.82E-04
19773,5.61E-03,8.44E-04
19774,5.70E-03,6.73E-04
19775,5.64E-03,7.26E-04
19776,5.70E-03,5.81E-04
19777,5.72E-03,6.25E-04
19778,5.74E-03,5.09E-04
19779,5.75E-03,5.42E-04
19780,5.72E-03,4.63E-04
19781,5.77E-03,4.83E-04
19782,5.76E-03,4.42E-04
19783,5.75E-03,4.50E-04
19784,5.77E-03,4.46E-04
19785,5.73E-03,4.41E-04
19786,5.73E-03,4.69E-04
19787,5.78E-03,4.55E-04
19788,5.72E-03,5.06E-04
19789,5.78E-03,4.86E-04
19790,5.76E-03,5.47E-04
19791,5.77E-03,5.27E-04
19792,5.79E-03,5.92E-04
19793,5.82E-03,5.70E-04
19794,5.77E-03,6.40E-04
19795,5.78E-03,6.15E-04
19796,5.78E-03,6.90E-04
19797,5.77E-03,6.66E-04
19798,5.87E-03,7.37E-04
19799,5.84E-03,7.13E-04
19800,5.90E-03,7.85E-04
19801,5.91E-03,7.61E-04
19802,5.97E-03,8.36E-04
19803,5.93E-03,8.10E-04
19804,5.88E-03,8.87E-04
19805,5.92E-03,8.61E-04
19806,5.85E-03,9.35E-04
19807,5.89E-03,9.12E-04
19808,5.67E-03,1.24E-02
19809,6.66E-03,1.14E-02
19810,4.85E-03,1.29E-02
19811,4.12E-03,1.18E-02
19812,4.68E-03,1.23E-02
19813,3.21E-03,1.28E-02
19814,5.80E-03,9.83E-04
19815,5.86E-03,9.59E-04
19816,6.20E-03,1.97E-02
19817,6.35E-03,2.01E-02
19818,6.04E-03,1.88E-02
19819,6.12E-03,1.92E-02
19820,5.91E-03,1.80E-02
19821,6.04E-03,1.84E-02
19822,5.85E-03,1.73E-02
19823,5.84E-03,1.76E-02
19824,5.75E-03,1.66E-02
19825,5.83E-03,1.70E-02
19826,5.63E-03,1.60E-02
19827,5.68E-03,1.63E-02
19828,5.53E-03,1.55E-02
19829,5.51E-03,1.57E-02
19830,5.48E-03,1.50E-02
19831,5.50E-03,1.52E-02
19832,5.43E-03,1.45E-02
19833,5.39E-03,1.47E-02
19834,5.48E-03,1.40E-02
19835,5.42E-03,1.42E-02
19836,5.49E-03,1.35E-02
19837,5.46E-03,1.38E-02
19838,5.57E-03,1.31E-02
19839,5.55E-03,1.33E-02
19840,5.66E-03,1.27E-02
19841,5.64E-03,1.29E-02
19842,5.68E-03,1.23E-02
19843,5.64E-03,1.25E-02
19844,5.72E-03,1.19E-02
19845,5.72E-03,1.21E-02
19846,5.88E-03,1.16E-02
19847,5.78E-03,1.17E-02
19848,5.94E-03,1.13E-02
19849,5.95E-03,1.14E-02
19850,5.97E-03,1.10E-02
19851,5.99E-03,1.11E-02
19852,5.99E-03,1.08E-02
19853,6.00E-03,1.09E-02
19854,5.92E-03,1.05E-02
19855,5.96E-03,1.06E-02
19856,5.95E-03,1.03E-02
19857,5.91E-03,1.04E-02
19858,5.89E-03,1.02E-02
19859,5.94E-03,1.02E-02
19860,5.83E-03,9.99E-03
19861,5.89E-03,1.01E-02
19862,5.65E-03,9.86E-03
19863,5.72E-03,9.92E-03
19864,5.52E-03,9.73E-03
19865,5.61E-03,9.79E-03
19866,5.44E-03,9.61E-03
19867,5.45E-03,9.67E-03
19868,5.37E-03,9.49E-03
19869,5.40E-03,9.55E-03
19870,5.33E-03,9.37E-03
19871,5.36E-03,9.44E-03
19872,5.32E-03,9.25E-03
19873,5.32E-03,9.31E-03
19874,5.45E-03,9.10E-03
19875,5.37E-03,9.18E-03
19876,5.60E-03,8.95E-03
19877,5.54E-03,9.03E-03
19878,5.68E-03,8.79E-03
19879,5.63E-03,8.87E-03
19880,5.55E-03,1.29E-02
19881,3.82E-03,1.19E-02
19882,5.37E-03,1.24E-02
19883,4.88E-03,1.33E-02
19884,4.43E-03,1.28E-02
19885,4.55E-03,1.32E-02
19886,5.45E-03,2.08E-02
19887,5.63E-03,1.14E-02
19888,6.44E-03,1.22E-02
19889,5.03E-03,1.18E-02
19890,5.25E-03,1.15E-02
19891,5.45E-03,1.23E-02
19892,5.35E-03,1.21E-02
19893,5.58E-03,1.27E-02
19894,5.51E-03,1.25E-02
19895,5.63E-03,1.30E-02
19896,5.60E-03,1.28E-02
19897,5.61E-03,1.32E-02
19898,5.60E-03,1.31E-02
19899,5.61E-03,1.34E-02
19900,5.64E-03,1.33E-02
19901,5.51E-03,1.36E-02
19902,5.59E-03,1.35E-02
19903,5.54E-03,1.37E-02
19904,5.55E-03,1.36E-02
19905,5.61E-03,1.38E-02
19906,5.59E-03,1.37E-02
19907,5.57E-03,1.38E-02
19908,5.56E-03,1.38E-02
19909,5.57E-03,1.38E-02
19910,5.53E-03,1.38E-02
19911,5.59E-03,1.37E-02
19912,5.57E-03,1.38E-02
19913,5.10E-03,1.37E-02
19914,5.37E-03,1.37E-02
19915,5.35E-03,1.36E-02
19916,5.11E-03,1.36E-02
19917,5.74E-03,1.35E-02
19918,5.62E-03,1.36E-02
19919,5.52E-03,1.34E-02
19920,5.57E-03,1.35E-02
19921,5.54E-03,1.33E-02
19922,5.46E-03,1.34E-02
19923,5.76E-03,1.32E-02
19924,5.60E-03,1.33E-02
19925,5.37E-03,1.30E-02
19926,5.73E-03,1.31E-02
19927,5.47E-03,2.44E-02
19928,5.34E-03,2.45E-02
19929,5.54E-03,2.42E-02
19930,5.47E-03,2.43E-02
19931,5.61E-03,2.41E-02
19932,5.59E-03,2.41E-02
19933,5.57E-03,2.43E-02
19934,5.60E-03,2.42E-02
19935,5.40E-03,2.46E-02
19936,5.52E-03,2.45E-02
19937,5.18E-03,2.48E-02
19938,5.29E-03,2.47E-02
19939,5.20E-03,2.49E-02
19940,5.17E-03,2.49E-02
19941,5.19E-03,2.50E-02
19942,5.17E-03,2.50E-02
19943,5.31E-03,2.52E-02
19944,5.23E-03,2.51E-02
19945,5.52E-03,2.53E-02
19946,5.40E-03,2.53E-02
19947,5.83E-03,2.52E-02
19948,5.67E-03,2.53E-02
19949,6.17E-03,2.48E-02
19950,6.00E-03,2.50E-02
19951,6.38E-03,2.43E-02
19952,6.31E-03,2.45E-02
19953,6.26E-03,2.42E-02
19954,6.36E-03,2.42E-02
19955,6.00E-03,2.46E-02
19956,6.14E-03,2.44E-02
19957,5.76E-03,2.50E-02
19958,5.89E-03,2.49E-02
19959,5.80E-03,2.46E-02
19960,5.75E-03,2.49E-02
19961,5.88E-03,2.37E-02
19962,5.83E-03,2.42E-02
19963,5.96E-03,2.30E-02
19964,5.93E-03,2.33E-02
19965,5.85E-03,2.25E-02
19966,5.90E-03,2.27E-02
19967,5.71E-03,2.21E-02
19968,5.82E-03,2.23E-02
19969,5.70E-03,2.15E-02
19970,5.69E-03,2.18E-02
19971,5.71E-03,2.07E-02
19972,5.64E-03,2.11E-02
19973,5.80E-03,1.99E-02
19974,5.75E-03,2.03E-02
19975,6.08E-03,1.90E-02
19976,5.89E-03,1.94E-02
19977,6.18E-03,1.80E-02
19978,6.09E-03,1.85E-02
19979,6.21E-03,1.71E-02
19980,6.21E-03,1.75E-02
19981,6.20E-03,1.63E-02
19982,6.21E-03,1.67E-02
19983,6.11E-03,1.54E-02
19984,6.22E-03,1.59E-02
19985,6.18E-03,1.44E-02
19986,6.13E-03,1.49E-02
19987,7.38E-03,1.31E-02
19988,6.41E-03,1.38E-02
19989,6.20E-03,1.21E-02
19990,7.25E-03,1.26E-02
19991,5.57E-03,1.13E-02
19992,5.82E-03,1.17E-02
19993,5.81E-03,1.09E-02
19994,4.75E-03,1.28E-02
19995,4.66E-03,1.19E-02
19996,5.75E-03,8.72E-03
19997,5.76E-03,1.18E-02
19998,5.21E-03,1.27E-02
19999,5.13E-03,1.29E-02
20000,4.21E-03,1.20E-02
20001,5.28E-03,1.26E-02
20002,5.03E-03,1.31E-02
20003,4.64E-03,1.28E-02
20004,4.30E-03,1.28E-02
20005,4.30E-03,1.30E-02
20006,4.83E-03,1.30E-02
20007,4.74E-03,1.30E-02
20008,4.40E-03,2.09E-02
20009,4.94E-03,2.06E-02
20010,5.19E-03,2.45E-02
20011,4.90E-03,2.31E-02
20012,4.84E-03,2.16E-02
20013,6.13E-03,1.15E-02
20014,5.22E-03,1.18E-02
20015,5.19E-03,1.24E-02
20016,6.18E-03,1.19E-02
20017,4.25E-03,1.18E-02
20018,4.21E-03,1.19E-02
20019,3.43E-03,2.08E-02
20020,3.38E-03,2.10E-02
20021,7.12E-03,2.12E-02
20022,3.47E-03,2.13E-02
20023,5.39E-03,2.15E-02
20024,6.64E-03,2.18E-02
20025,4.96E-03,1.30E-02
20026,4.98E-03,1.25E-02
20027,5.01E-03,1.28E-02
20028,4.35E-03,1.19E-02
20029,4.65E-03,1.22E-02
20030,5.20E-03,1.28E-02
20031,4.03E-03,1.28E-02
20032,4.75E-03,2.08E-02
20033,4.83E-03,2.24E-02
20034,6.11E-03,1.17E-02
20035,5.81E-03,9.56E-04
20036,5.79E-03,1.01E-03
20037,5.78E-03,9.86E-04
20038,4.88E-03,1.28E-02
20039,4.99E-03,1.21E-02
20040,4.65E-03,1.21E-02
20041,4.36E-03,1.19E-02
20042,5.75E-03,1.26E-03
20043,5.75E-03,1.11E-03
20044,5.71E-03,1.68E-03
20045,5.71E-03,1.46E-03
20046,5.68E-03,2.16E-03
20047,5.69E-03,1.91E-03
20048,5.56E-03,2.66E-03
20049,5.65E-03,2.41E-03
20050,5.53E-03,3.17E-03
20051,5.58E-03,2.92E-03
20052,5.49E-03,3.68E-03
20053,5.54E-03,3.43E-03
20054,5.48E-03,4.19E-03
20055,5.49E-03,3.94E-03
20056,5.48E-03,4.68E-03
20057,5.45E-03,4.44E-03
20058,5.50E-03,5.17E-03
20059,5.43E-03,4.93E-03
20060,5.48E-03,5.65E-03
20061,5.48E-03,5.41E-03
20062,5.53E-03,6.11E-03
20063,5.49E-03,5.88E-03
20064,5.56E-03,6.57E-03
20065,5.51E-03,6.34E-03
20066,5.54E-03,7.01E-03
20067,5.58E-03,6.79E-03
20068,5.64E-03,7.44E-03
20069,5.60E-03,7.23E-03
20070,5.71E-03,7.85E-03
20071,5.71E-03,7.65E-03
20072,5.76E-03,8.25E-03
20073,5.74E-03,8.05E-03
20074,5.76E-03,8.64E-03
20075,5.79E-03,8.45E-03
20076,5.38E-03,1.14E-02
20077,5.42E-03,1.16E-02
20078,5.47E-03,1.09E-02
20079,5.46E-03,1.11E-02
20080,5.53E-03,1.05E-02
20081,5.53E-03,1.07E-02
20082,5.60E-03,1.00E-02
20083,5.51E-03,1.03E-02
20084,5.65E-03,9.61E-03
20085,5.61E-03,9.83E-03
20086,5.54E-03,9.19E-03
20087,5.62E-03,9.40E-03
20088,5.56E-03,8.77E-03
20089,5.60E-03,8.98E-03
20090,5.54E-03,8.37E-03
20091,5.60E-03,8.57E-03
20092,5.57E-03,7.97E-03
20093,5.53E-03,8.17E-03
20094,5.58E-03,7.58E-03
20095,5.57E-03,7.77E-03
20096,5.71E-03,7.20E-03
20097,5.67E-03,7.39E-03
20098,5.71E-03,6.83E-03
20099,5.71E-03,7.01E-03
20100,5.71E-03,6.48E-03
20101,5.67E-03,6.66E-03
20102,5.74E-03,6.14E-03
20103,5.69E-03,6.31E-03
20104,5.73E-03,5.81E-03
20105,5.74E-03,5.97E-03
20106,5.71E-03,5.50E-03
20107,5.75E-03,5.65E-03
20108,5.68E-03,5.21E-03
20109,5.71E-03,5.35E-03
20110,5.60E-03,4.93E-03
20111,5.65E-03,5.07E-03
20112,5.57E-03,4.67E-03
20113,5.59E-03,4.80E-03
20114,5.56E-03,4.43E-03
20115,5.52E-03,4.55E-03
20116,5.58E-03,4.20E-03
20117,5.52E-03,4.31E-03
20118,5.54E-03,3.99E-03
20119,5.56E-03,4.09E-03
20120,5.47E-03,3.78E-03
20121,5.54E-03,3.88E-03
20122,5.47E-03,3.59E-03
20123,5.47E-03,3.68E-03
20124,5.42E-03,3.40E-03
20125,5.45E-03,3.49E-03
20126,5.38E-03,3.23E-03
20127,5.40E-03,3.31E-03
20128,5.38E-03,3.06E-03
20129,5.33E-03,3.15E-03
20130,5.32E-03,2.90E-03
20131,5.35E-03,2.98E-03
20132,5.35E-03,2.74E-03
20133,5.34E-03,2.82E-03
20134,5.31E-03,2.59E-03
20135,5.38E-03,2.67E-03
20136,5.32E-03,2.45E-03
20137,5.37E-03,2.52E-03
20138,5.39E-03,2.29E-03
20139,5.37E-03,2.37E-03
20140,5.44E-03,2.14E-03
20141,5.40E-03,2.22E-03
20142,5.46E-03,2.00E-03
20143,5.42E-03,2.07E-03
20144,5.50E-03,1.84E-03
20145,5.50E-03,1.92E-03
20146,5.49E-03,1.68E-03
20147,5.46E-03,1.76E-03
20148,5.48E-03,1.54E-03
20149,5.46E-03,1.61E-03
20150,5.54E-03,1.41E-03
20151,5.50E-03,1.47E-03
20152,5.59E-03,1.28E-03
20153,5.57E-03,1.34E-03
20154,5.59E-03,1.15E-03
20155,5.60E-03,1.22E-03
20156,5.60E-03,1.02E-03
20157,5.60E-03,1.08E-03
20158,5.69E-03,9.10E-04
20159,5.64E-03,9.62E-04
20160,5.71E-03,8.11E-04
20161,5.69E-03,8.58E-04
20162,5.75E-03,7.27E-04
20163,5.71E-03,7.67E-04
20164,5.72E-03,6.60E-04
20165,5.76E-03,6.91E-04
20166,5.74E-03,6.10E-04
20167,5.74E-03,6.33E-04
20168,5.75E-03,5.75E-04
20169,5.71E-03,5.90E-04
20170,5.73E-03,5.60E-04
20171,5.77E-03,5.66E-04
20172,5.70E-03,5.63E-04
20173,5.77E-03,5.59E-04
20174,5.76E-03,5.82E-04
20175,5.68E-03,5.72E-04
20176,5.71E-03,6.08E-04
20177,5.70E-03,5.95E-04
20178,5.74E-03,6.37E-04
20179,5.72E-03,6.23E-04
20180,5.72E-03,6.71E-04
20181,5.71E-03,6.53E-04
20182,5.79E-03,7.10E-04
20183,5.75E-03,6.90E-04
20184,5.83E-03,7.54E-04
20185,5.82E-03,7.32E-04
20186,5.81E-03,8.00E-04
20187,5.84E-03,7.76E-04
20188,5.83E-03,8.48E-04
20189,5.85E-03,8.23E-04
20190,5.87E-03,9.00E-04
20191,5.85E-03,8.74E-04
20192,5.83E-03,9.28E-04
20193,6.25E-03,2.02E-02
20194,6.48E-03,2.07E-02
20195,6.01E-03,1.93E-02
20196,6.14E-03,1.97E-02
20197,5.88E-03,1.85E-02
20198,5.98E-03,1.89E-02
20199,5.82E-03,1.77E-02
20200,5.83E-03,1.81E-02
20201,5.70E-03,1.70E-02
20202,5.78E-03,1.74E-02
20203,5.58E-03,1.64E-02
20204,5.65E-03,1.67E-02
20205,5.51E-03,1.59E-02
20206,5.56E-03,1.61E-02
20207,5.51E-03,1.53E-02
20208,5.52E-03,1.56E-02
20209,5.45E-03,1.48E-02
20210,5.42E-03,1.51E-02
20211,5.50E-03,1.43E-02
20212,5.45E-03,1.46E-02
20213,5.51E-03,1.38E-02
20214,5.49E-03,1.41E-02
20215,5.63E-03,1.34E-02
20216,5.59E-03,1.36E-02
20217,5.62E-03,1.30E-02
20218,5.64E-03,1.32E-02
20219,5.65E-03,1.26E-02
20220,5.60E-03,1.28E-02
20221,5.70E-03,1.22E-02
20222,5.67E-03,1.24E-02
20223,5.79E-03,1.19E-02
20224,5.74E-03,1.20E-02
20225,5.84E-03,1.16E-02
20226,5.83E-03,1.17E-02
20227,5.85E-03,1.13E-02
20228,5.85E-03,1.14E-02
20229,5.91E-03,1.10E-02
20230,5.86E-03,1.11E-02
20231,5.85E-03,1.08E-02
20232,5.91E-03,1.09E-02
20233,5.85E-03,1.06E-02
20234,5.87E-03,1.07E-02
20235,5.87E-03,1.04E-02
20236,5.87E-03,1.05E-02
20237,5.83E-03,1.02E-02
20238,5.88E-03,1.03E-02
20239,5.70E-03,1.01E-02
20240,5.75E-03,1.02E-02
20241,5.59E-03,9.95E-03
20242,5.68E-03,1.00E-02
20243,5.46E-03,9.83E-03
20244,5.52E-03,9.89E-03
20245,5.40E-03,9.71E-03
20246,5.43E-03,9.76E-03
20247,5.39E-03,9.58E-03
20248,5.43E-03,9.64E-03
20249,5.34E-03,9.44E-03
20250,5.34E-03,9.51E-03
20251,5.42E-03,9.30E-03
20252,5.34E-03,9.37E-03
20253,5.56E-03,9.15E-03
20254,5.52E-03,9.23E-03
20255,5.64E-03,8.99E-03
20256,5.64E-03,9.07E-03
20257,5.74E-03,8.83E-03
20258,5.67E-03,8.91E-03
20259,5.17E-03,1.28E-02
20260,4.20E-03,1.19E-02
20261,5.18E-03,1.24E-02
20262,4.97E-03,1.30E-02
20263,4.50E-03,1.28E-02
20264,4.54E-03,1.30E-02
20265,4.28E-03,2.13E-02
20266,4.52E-03,2.10E-02
20267,5.20E-03,2.45E-02
20268,5.06E-03,2.38E-02
20269,4.48E-03,2.16E-02
20270,5.80E-03,1.17E-02
20271,5.68E-03,1.21E-02
20272,5.51E-03,1.21E-02
20273,5.80E-03,1.18E-02
20274,5.51E-03,1.26E-02
20275,5.48E-03,1.24E-02
20276,5.54E-03,1.29E-02
20277,5.58E-03,1.28E-02
20278,5.60E-03,1.32E-02
20279,5.53E-03,1.31E-02
20280,5.57E-03,1.35E-02
20281,5.58E-03,1.34E-02
20282,5.57E-03,1.37E-02
20283,5.58E-03,1.36E-02
20284,5.53E-03,1.38E-02
20285,5.57E-03,1.37E-02
20286,5.57E-03,1.39E-02
20287,5.55E-03,1.39E-02
20288,5.60E-03,1.40E-02
20289,5.56E-03,1.39E-02
20290,5.59E-03,1.40E-02
20291,5.59E-03,1.40E-02
20292,5.54E-03,1.40E-02
20293,5.58E-03,1.40E-02
20294,5.50E-03,1.40E-02
20295,5.52E-03,1.40E-02
20296,5.30E-03,1.39E-02
20297,5.37E-03,1.39E-02
20298,5.45E-03,1.38E-02
20299,5.32E-03,1.39E-02
20300,5.69E-03,1.38E-02
20301,5.59E-03,1.38E-02
20302,5.57E-03,1.37E-02
20303,5.64E-03,1.37E-02
20304,5.58E-03,1.36E-02
20305,5.56E-03,1.36E-02
20306,5.65E-03,1.35E-02
20307,5.61E-03,1.35E-02
20308,5.48E-03,1.33E-02
20309,5.61E-03,1.34E-02
20310,5.40E-03,2.51E-02
20311,5.34E-03,2.53E-02
20312,5.36E-03,2.52E-02
20313,5.38E-03,2.53E-02
20314,5.34E-03,2.53E-02
20315,5.50E-03,2.52E-02
20316,5.44E-03,2.53E-02
20317,5.62E-03,2.50E-02
20318,5.56E-03,2.51E-02
20319,5.65E-03,2.49E-02
20320,5.65E-03,2.49E-02
20321,5.54E-03,2.50E-02
20322,5.63E-03,2.49E-02
20323,5.42E-03,2.51E-02
20324,5.49E-03,2.51E-02
20325,5.18E-03,2.52E-02
20326,5.29E-03,2.52E-02
20327,5.27E-03,2.52E-02
20328,5.23E-03,2.52E-02
20329,5.28E-03,2.53E-02
20330,5.24E-03,2.52E-02
20331,5.43E-03,2.56E-02
20332,5.35E-03,2.54E-02
20333,5.65E-03,2.60E-02
20334,5.53E-03,2.58E-02
20335,5.92E-03,2.62E-02
20336,5.78E-03,2.62E-02
20337,6.15E-03,2.61E-02
20338,6.04E-03,2.62E-02
20339,6.24E-03,2.58E-02
20340,6.22E-03,2.60E-02
20341,6.11E-03,2.57E-02
20342,6.20E-03,2.57E-02
20343,5.90E-03,2.62E-02
20344,6.00E-03,2.59E-02
20345,5.75E-03,2.66E-02
20346,5.82E-03,2.64E-02
20347,5.72E-03,2.60E-02
20348,5.72E-03,2.64E-02
20349,5.79E-03,2.49E-02
20350,5.74E-03,2.55E-02
20351,5.88E-03,2.41E-02
20352,5.88E-03,2.44E-02
20353,5.80E-03,2.37E-02
20354,5.85E-03,2.39E-02
20355,5.68E-03,2.31E-02
20356,5.77E-03,2.34E-02
20357,5.65E-03,2.24E-02
20358,5.67E-03,2.28E-02
20359,5.69E-03,2.17E-02
20360,5.64E-03,2.21E-02
20361,5.84E-03,2.09E-02
20362,5.79E-03,2.13E-02
20363,5.98E-03,2.00E-02
20364,5.87E-03,2.04E-02
20365,6.07E-03,1.89E-02
20366,6.00E-03,1.95E-02
20367,6.07E-03,1.80E-02
20368,6.07E-03,1.84E-02
20369,6.09E-03,1.72E-02
20370,6.07E-03,1.76E-02
20371,6.14E-03,1.62E-02
20372,6.11E-03,1.68E-02
20373,6.24E-03,1.50E-02
20374,6.22E-03,1.56E-02
20375,6.65E-03,1.37E-02
20376,6.47E-03,1.43E-02
20377,6.29E-03,1.27E-02
20378,6.60E-03,1.32E-02
20379,5.75E-03,1.16E-02
20380,5.92E-03,1.21E-02
20381,5.45E-03,2.24E-02
20382,5.28E-03,1.32E-02
20383,6.35E-03,1.12E-02
20384,5.17E-03,1.26E-02
20385,5.15E-03,1.28E-02
20386,4.41E-03,1.20E-02
20387,4.58E-03,1.21E-02
20388,5.17E-03,1.26E-02
20389,4.97E-03,1.22E-02
20390,5.14E-03,1.28E-02
20391,4.68E-03,1.27E-02
20392,4.36E-03,1.27E-02
20393,4.14E-03,1.28E-02
20394,5.04E-03,1.28E-02
20395,4.86E-03,1.28E-02
20396,4.30E-03,2.21E-02
20397,4.63E-03,2.13E-02
20398,4.75E-03,2.11E-02
20399,4.85E-03,2.30E-02
20400,5.17E-03,2.44E-02
20401,4.30E-03,2.17E-02
20402,4.28E-03,2.21E-02
20403,4.72E-03,2.23E-02
20404,5.98E-03,1.18E-02
20405,6.44E-03,1.21E-02
20406,5.96E-03,1.20E-02
20407,5.92E-03,1.19E-02
20408,5.73E-03,8.57E-03
20409,5.78E-03,8.75E-03
20410,5.87E-03,1.02E-03
20411,5.78E-03,1.05E-03
20412,5.68E-03,1.03E-03
20413,5.73E-03,1.02E-03
20414,4.99E-03,1.24E-02
20415,5.05E-03,1.27E-02
20416,3.72E-03,1.25E-02
20417,4.67E-03,1.29E-02
20418,5.11E-03,1.32E-02
20419,4.78E-03,2.32E-02
20420,4.55E-03,2.29E-02
20421,1.49E-02,9.99E-03
20422,4.41E-03,1.23E-02
20423,4.83E-03,1.21E-02
20424,4.53E-03,1.20E-02
20425,9.36E-03,1.04E-02
20426,5.66E-03,1.28E-03
20427,5.65E-03,1.13E-03
20428,5.62E-03,1.68E-03
20429,5.65E-03,1.46E-03
20430,5.55E-03,2.16E-03
20431,5.58E-03,1.91E-03
20432,5.48E-03,2.65E-03
20433,5.51E-03,2.40E-03
20434,5.48E-03,3.16E-03
20435,5.51E-03,2.91E-03
20436,5.47E-03,3.66E-03
20437,5.51E-03,3.41E-03
20438,5.47E-03,4.17E-03
20439,5.51E-03,3.92E-03
20440,5.48E-03,4.66E-03
20441,5.46E-03,4.41E-03
20442,5.48E-03,5.14E-03
20443,5.45E-03,4.90E-03
20444,5.50E-03,5.62E-03
20445,5.49E-03,5.38E-03
20446,5.59E-03,6.08E-03
20447,5.52E-03,5.85E-03
20448,5.53E-03,6.53E-03
20449,5.55E-03,6.31E-03
20450,5.50E-03,6.97E-03
20451,5.52E-03,6.75E-03
20452,5.59E-03,7.39E-03
20453,5.52E-03,7.18E-03
20454,5.69E-03,7.80E-03
20455,5.67E-03,7.59E-03
20456,5.74E-03,8.19E-03
20457,5.70E-03,7.99E-03
20458,5.76E-03,8.38E-03
20459,6.17E-03,1.23E-02
20460,5.44E-03,1.20E-02
20461,5.29E-03,1.22E-02
20462,5.46E-03,1.16E-02
20463,5.51E-03,1.18E-02
20464,5.54E-03,1.11E-02
20465,5.53E-03,1.13E-02
20466,5.52E-03,1.07E-02
20467,5.55E-03,1.09E-02
20468,5.59E-03,1.02E-02
20469,5.56E-03,1.05E-02
20470,5.61E-03,9.81E-03
20471,5.61E-03,1.00E-02
20472,5.57E-03,9.38E-03
20473,5.57E-03,9.59E-03
20474,5.58E-03,8.96E-03
20475,5.58E-03,9.17E-03
20476,5.57E-03,8.55E-03
20477,5.59E-03,8.75E-03
20478,5.51E-03,8.15E-03
20479,5.53E-03,8.35E-03
20480,5.62E-03,7.76E-03
20481,5.57E-03,7.95E-03
20482,5.71E-03,7.37E-03
20483,5.65E-03,7.56E-03
20484,5.67E-03,7.00E-03
20485,5.70E-03,7.19E-03
20486,5.70E-03,6.65E-03
20487,5.66E-03,6.82E-03
20488,5.72E-03,6.31E-03
20489,5.67E-03,6.48E-03
20490,5.75E-03,5.98E-03
20491,5.73E-03,6.14E-03
20492,5.68E-03,5.66E-03
20493,5.74E-03,5.82E-03
20494,5.68E-03,5.38E-03
20495,5.70E-03,5.52E-03
20496,5.60E-03,5.10E-03
20497,5.58E-03,5.24E-03
20498,5.58E-03,4.85E-03
20499,5.62E-03,4.97E-03
20500,5.54E-03,4.61E-03
20501,5.54E-03,4.73E-03
20502,5.60E-03,4.38E-03
20503,5.55E-03,4.49E-03
20504,5.59E-03,4.17E-03
20505,5.58E-03,4.28E-03
20506,5.50E-03,3.97E-03
20507,5.53E-03,4.07E-03
20508,5.51E-03,3.79E-03
20509,5.48E-03,3.88E-03
20510,5.46E-03,3.61E-03
20511,5.46E-03,3.70E-03
20512,5.45E-03,3.44E-03
20513,5.42E-03,3.53E-03
20514,5.44E-03,3.28E-03
20515,5.38E-03,3.36E-03
20516,5.36E-03,3.13E-03
20517,5.36E-03,3.20E-03
20518,5.45E-03,2.98E-03
20519,5.41E-03,3.05E-03
20520,5.40E-03,2.83E-03
20521,5.41E-03,2.90E-03
20522,5.39E-03,2.69E-03
20523,5.43E-03,2.76E-03
20524,5.45E-03,2.54E-03
20525,5.41E-03,2.61E-03
20526,5.48E-03,2.39E-03
20527,5.45E-03,2.46E-03
20528,5.53E-03,2.25E-03
20529,5.50E-03,2.32E-03
20530,5.51E-03,2.10E-03
20531,5.51E-03,2.17E-03
20532,5.50E-03,1.94E-03
20533,5.47E-03,2.02E-03
20534,5.53E-03,1.80E-03
20535,5.50E-03,1.87E-03
20536,5.51E-03,1.67E-03
20537,5.48E-03,1.73E-03
20538,5.59E-03,1.54E-03
20539,5.59E-03,1.61E-03
20540,5.59E-03,1.42E-03
20541,5.58E-03,1.48E-03
20542,5.60E-03,1.29E-03
20543,5.58E-03,1.35E-03
20544,5.67E-03,1.18E-03
20545,5.65E-03,1.23E-03
20546,5.69E-03,1.08E-03
20547,5.66E-03,1.13E-03
20548,5.72E-03,9.94E-04
20549,5.68E-03,1.04E-03
20550,5.72E-03,9.20E-04
20551,5.73E-03,9.55E-04
20552,5.71E-03,8.59E-04
20553,5.71E-03,8.89E-04
20554,5.73E-03,8.08E-04
20555,5.67E-03,8.31E-04
20556,5.74E-03,7.71E-04
20557,5.76E-03,7.89E-04
20558,5.73E-03,7.52E-04
20559,5.74E-03,7.60E-04
20560,5.72E-03,7.50E-04
20561,5.70E-03,7.49E-04
20562,5.68E-03,7.56E-04
20563,5.68E-03,7.52E-04
20564,5.72E-03,7.66E-04
20565,5.67E-03,7.61E-04
20566,5.68E-03,7.79E-04
20567,5.70E-03,7.70E-04
20568,5.78E-03,8.06E-04
20569,5.72E-03,7.91E-04
20570,5.77E-03,8.38E-04
20571,5.78E-03,8.22E-04
20572,5.78E-03,8.73E-04
20573,5.76E-03,8.55E-04
20574,5.78E-03,9.13E-04
20575,5.85E-03,8.92E-04
20576,5.82E-03,9.61E-04
20577,5.77E-03,9.36E-04
20578,5.81E-03,9.88E-04
20579,5.73E-03,2.28E-02
20580,5.56E-03,2.38E-02
20581,5.34E-03,2.33E-02
20582,6.30E-03,2.18E-02
20583,6.12E-03,2.22E-02
20584,6.19E-03,2.07E-02
20585,6.32E-03,2.12E-02
20586,5.98E-03,1.98E-02
20587,6.09E-03,2.02E-02
20588,5.84E-03,1.89E-02
20589,5.90E-03,1.93E-02
20590,5.74E-03,1.81E-02
20591,5.79E-03,1.85E-02
20592,5.64E-03,1.74E-02
20593,5.73E-03,1.78E-02
20594,5.55E-03,1.68E-02
20595,5.61E-03,1.71E-02
20596,5.54E-03,1.62E-02
20597,5.55E-03,1.65E-02
20598,5.47E-03,1.57E-02
20599,5.53E-03,1.60E-02
20600,5.46E-03,1.52E-02
20601,5.46E-03,1.54E-02
20602,5.50E-03,1.46E-02
20603,5.48E-03,1.49E-02
20604,5.52E-03,1.42E-02
20605,5.52E-03,1.44E-02
20606,5.64E-03,1.37E-02
20607,5.58E-03,1.39E-02
20608,5.61E-03,1.32E-02
20609,5.61E-03,1.35E-02
20610,5.63E-03,1.28E-02
20611,5.59E-03,1.30E-02
20612,5.68E-03,1.25E-02
20613,5.66E-03,1.26E-02
20614,5.70E-03,1.21E-02
20615,5.71E-03,1.23E-02
20616,5.71E-03,1.18E-02
20617,5.71E-03,1.20E-02
20618,5.75E-03,1.15E-02
20619,5.70E-03,1.17E-02
20620,5.83E-03,1.13E-02
20621,5.80E-03,1.14E-02
20622,5.82E-03,1.10E-02
20623,5.83E-03,1.11E-02
20624,5.81E-03,1.08E-02
20625,5.84E-03,1.09E-02
20626,5.83E-03,1.06E-02
20627,5.82E-03,1.07E-02
20628,5.80E-03,1.05E-02
20629,5.81E-03,1.06E-02
20630,5.70E-03,1.03E-02
20631,5.76E-03,1.04E-02
20632,5.60E-03,1.02E-02
20633,5.69E-03,1.02E-02
20634,5.51E-03,1.00E-02
20635,5.58E-03,1.01E-02
20636,5.45E-03,9.91E-03
20637,5.48E-03,9.98E-03
20638,5.42E-03,9.78E-03
20639,5.45E-03,9.85E-03
20640,5.34E-03,9.64E-03
20641,5.39E-03,9.71E-03
20642,5.37E-03,9.49E-03
20643,5.35E-03,9.57E-03
20644,5.54E-03,9.34E-03
20645,5.48E-03,9.42E-03
20646,5.65E-03,9.17E-03
20647,5.61E-03,9.25E-03
20648,5.67E-03,9.00E-03
20649,5.66E-03,9.09E-03
20650,5.20E-03,1.27E-02
20651,4.46E-03,1.20E-02
20652,5.09E-03,1.24E-02
20653,5.10E-03,1.28E-02
20654,4.55E-03,1.27E-02
20655,4.57E-03,1.28E-02
20656,4.66E-03,2.17E-02
20657,4.50E-03,2.15E-02
20658,5.02E-03,2.37E-02
20659,4.50E-03,2.23E-02
20660,5.89E-03,1.19E-02
20661,5.38E-03,1.22E-02
20662,3.94E-03,2.41E-02
20663,5.71E-03,8.92E-03
20664,5.73E-03,1.08E-03
20665,6.97E-03,1.24E-02
20666,6.61E-03,1.26E-02
20667,5.22E-03,1.25E-02
20668,5.05E-03,1.22E-02
20669,5.17E-03,1.25E-02
20670,5.23E-03,1.27E-02
20671,4.81E-03,1.27E-02
20672,5.36E-03,1.26E-02
20673,5.11E-03,1.26E-02
20674,4.24E-03,1.27E-02
20675,4.67E-03,2.25E-02
20676,4.81E-03,2.26E-02
20677,4.80E-03,2.24E-02
20678,4.73E-03,2.16E-02
20679,4.13E-03,2.46E-02
20680,5.44E-03,2.50E-02
20681,4.79E-03,2.30E-02
20682,5.41E-03,1.30E-02
20683,6.15E-03,1.23E-02
20684,5.82E-03,1.20E-02
20685,1.41E-02,1.14E-02
20686,6.11E-03,1.21E-02
20687,5.78E-03,1.24E-02
20688,5.70E-03,1.27E-02
20689,5.63E-03,1.29E-02
20690,5.60E-03,1.31E-02
20691,5.54E-03,1.32E-02
20692,5.53E-03,1.34E-02
20693,5.55E-03,1.35E-02
20694,5.54E-03,1.36E-02
20695,5.54E-03,1.37E-02
20696,5.52E-03,1.38E-02
20697,5.53E-03,1.39E-02
20698,5.51E-03,1.40E-02
20699,5.50E-03,1.41E-02
20700,5.47E-03,1.41E-02
20701,5.51E-03,1.41E-02
20702,5.56E-03,1.42E-02
20703,5.59E-03,1.42E-02
20704,5.58E-03,1.42E-02
20705,5.58E-03,1.42E-02
20706,5.58E-03,1.43E-02
20707,5.52E-03,1.42E-02
20708,5.53E-03,1.42E-02
20709,5.52E-03,1.42E-02
20710,5.45E-03,1.42E-02
20711,5.42E-03,1.41E-02
20712,5.43E-03,1.41E-02
20713,5.48E-03,1.41E-02
20714,5.61E-03,1.40E-02
20715,5.66E-03,1.40E-02
20716,5.69E-03,1.40E-02
20717,5.61E-03,1.39E-02
20718,5.61E-03,1.39E-02
20719,5.58E-03,1.38E-02
20720,5.57E-03,1.38E-02
20721,5.59E-03,1.37E-02
20722,5.58E-03,1.37E-02
20723,5.53E-03,1.36E-02
20724,5.50E-03,1.35E-02
20725,5.74E-03,1.34E-02
20726,6.66E-03,2.55E-02
20727,5.84E-03,2.58E-02
20728,5.62E-03,2.59E-02
20729,5.51E-03,2.59E-02
20730,5.50E-03,2.60E-02
20731,5.46E-03,2.61E-02
20732,5.49E-03,2.61E-02
20733,5.54E-03,2.61E-02
20734,5.59E-03,2.61E-02
20735,5.62E-03,2.60E-02
20736,5.66E-03,2.59E-02
20737,5.67E-03,2.58E-02
20738,5.66E-03,2.56E-02
20739,5.59E-03,2.57E-02
20740,5.53E-03,2.57E-02
20741,5.49E-03,2.56E-02
20742,5.42E-03,2.55E-02
20743,5.35E-03,2.54E-02
20744,5.28E-03,2.55E-02
20745,5.31E-03,2.54E-02
20746,5.34E-03,2.53E-02
20747,5.31E-03,2.53E-02
20748,5.39E-03,2.54E-02
20749,5.44E-03,2.56E-02
20750,5.55E-03,2.58E-02
20751,5.62E-03,2.62E-02
20752,5.74E-03,2.66E-02
20753,5.84E-03,2.70E-02
20754,5.94E-03,2.72E-02
20755,6.02E-03,2.74E-02
20756,6.09E-03,2.76E-02
20757,6.11E-03,2.77E-02
20758,6.09E-03,2.78E-02
20759,6.04E-03,2.77E-02
20760,5.92E-03,2.76E-02
20761,5.87E-03,2.77E-02
20762,5.79E-03,2.79E-02
20763,5.75E-03,2.81E-02
20764,5.71E-03,2.81E-02
20765,5.70E-03,2.79E-02
20766,5.66E-03,2.75E-02
20767,5.72E-03,2.68E-02
20768,5.76E-03,2.60E-02
20769,5.82E-03,2.55E-02
20770,5.84E-03,2.53E-02
20771,5.82E-03,2.52E-02
20772,5.75E-03,2.49E-02
20773,5.66E-03,2.46E-02
20774,5.64E-03,2.42E-02
20775,5.59E-03,2.38E-02
20776,5.62E-03,2.34E-02
20777,5.65E-03,2.30E-02
20778,5.69E-03,2.26E-02
20779,5.75E-03,2.22E-02
20780,5.81E-03,2.18E-02
20781,5.80E-03,2.15E-02
20782,5.86E-03,2.10E-02
20783,5.90E-03,2.06E-02
20784,5.96E-03,2.00E-02
20785,5.99E-03,1.95E-02
20786,5.96E-03,1.89E-02
20787,5.93E-03,1.86E-02
20788,5.99E-03,1.83E-02
20789,6.03E-03,1.78E-02
20790,6.11E-03,1.71E-02
20791,6.14E-03,1.63E-02
20792,6.20E-03,1.56E-02
20793,6.29E-03,1.51E-02
20794,6.36E-03,1.45E-02
20795,6.25E-03,1.39E-02
20796,6.15E-03,1.33E-02
20797,5.88E-03,1.27E-02
20798,5.76E-03,1.21E-02
20799,4.93E-03,1.23E-02
20800,3.54E-03,2.37E-02
20801,4.72E-03,2.34E-02
20802,5.79E-03,1.18E-03
20803,5.74E-03,1.21E-03
20804,5.71E-03,8.67E-03
20805,5.68E-03,8.85E-03
20806,6.50E-03,1.27E-02
20807,5.96E-03,2.48E-02
20808,6.07E-03,2.55E-02
20809,4.66E-03,1.21E-02
20810,4.88E-03,1.22E-02
20811,5.21E-03,1.15E-02
20812,7.07E-03,2.62E-02
20813,7.18E-03,2.63E-02
20814,6.13E-03,2.65E-02
20815,5.83E-03,2.66E-02
20816,5.65E-03,2.66E-02
20817,5.56E-03,2.67E-02
20818,5.54E-03,2.68E-02
20819,5.58E-03,2.69E-02
20820,5.59E-03,2.70E-02
20821,5.65E-03,2.70E-02
20822,5.70E-03,2.71E-02
20823,5.74E-03,2.71E-02
20824,5.69E-03,2.70E-02
20825,5.66E-03,2.67E-02
20826,5.58E-03,2.66E-02
20827,5.52E-03,2.66E-02
20828,5.48E-03,2.62E-02
20829,5.41E-03,2.57E-02
20830,5.40E-03,2.55E-02
20831,5.38E-03,2.55E-02
20832,5.38E-03,2.53E-02
20833,5.41E-03,2.51E-02
20834,5.42E-03,2.52E-02
20835,5.51E-03,2.53E-02
20836,5.51E-03,2.56E-02
20837,5.61E-03,2.59E-02
20838,5.69E-03,2.63E-02
20839,5.76E-03,2.69E-02
20840,5.86E-03,2.75E-02
20841,5.91E-03,2.81E-02
20842,5.95E-03,2.86E-02
20843,5.97E-03,2.92E-02
20844,5.97E-03,2.98E-02
20845,5.96E-03,3.03E-02
20846,5.91E-03,3.04E-02
20847,5.78E-03,3.03E-02
20848,5.70E-03,3.02E-02
20849,5.68E-03,3.01E-02
20850,5.68E-03,2.97E-02
20851,5.71E-03,2.92E-02
20852,5.69E-03,2.89E-02
20853,5.65E-03,2.86E-02
20854,5.67E-03,2.80E-02
20855,5.70E-03,2.74E-02
20856,5.75E-03,2.71E-02
20857,5.79E-03,2.70E-02
20858,5.74E-03,2.67E-02
20859,5.68E-03,2.62E-02
20860,5.63E-03,2.57E-02
20861,5.61E-03,2.52E-02
20862,5.56E-03,2.48E-02
20863,5.60E-03,2.43E-02
20864,5.59E-03,2.39E-02
20865,5.64E-03,2.35E-02
20866,5.70E-03,2.32E-02
20867,5.74E-03,2.28E-02
20868,5.76E-03,2.25E-02
20869,5.80E-03,2.22E-02
20870,5.83E-03,2.18E-02
20871,5.84E-03,2.14E-02
20872,5.85E-03,2.09E-02
20873,5.82E-03,2.02E-02
20874,5.82E-03,1.97E-02
20875,5.83E-03,1.94E-02
20876,5.87E-03,1.89E-02
20877,6.01E-03,1.81E-02
20878,6.02E-03,1.72E-02
20879,6.10E-03,1.65E-02
20880,6.16E-03,1.60E-02
20881,6.17E-03,1.54E-02
20882,6.12E-03,1.47E-02
20883,5.98E-03,1.40E-02
20884,5.83E-03,1.35E-02
20885,5.66E-03,1.29E-02
20886,4.69E-03,1.22E-02
20887,7.69E-03,1.11E-02
20888,5.69E-03,8.50E-03
20889,5.65E-03,1.05E-03
20890,5.64E-03,1.06E-03
20891,5.63E-03,1.15E-03
20892,5.59E-03,1.29E-03
20893,5.52E-03,1.47E-03
20894,5.50E-03,1.69E-03
20895,5.54E-03,1.91E-03
20896,5.49E-03,2.15E-03
20897,5.48E-03,2.40E-03
20898,5.49E-03,2.65E-03
20899,5.48E-03,2.90E-03
20900,5.49E-03,3.15E-03
20901,5.48E-03,3.40E-03
20902,5.49E-03,3.65E-03
20903,5.49E-03,3.90E-03
20904,5.49E-03,4.15E-03
20905,5.49E-03,4.39E-03
20906,5.48E-03,4.64E-03
20907,5.48E-03,4.88E-03
20908,5.47E-03,5.12E-03
20909,5.52E-03,5.35E-03
20910,5.56E-03,5.59E-03
20911,5.55E-03,5.82E-03
20912,5.58E-03,6.05E-03
20913,5.56E-03,6.27E-03
20914,5.53E-03,6.50E-03
20915,5.49E-03,6.72E-03
20916,5.51E-03,6.93E-03
20917,5.50E-03,7.14E-03
20918,5.52E-03,7.34E-03
20919,5.55E-03,7.54E-03
20920,5.62E-03,7.74E-03
20921,5.64E-03,7.94E-03
20922,5.66E-03,8.13E-03
20923,5.69E-03,8.31E-03
20924,5.67E-03,1.38E-02
20925,6.34E-03,1.22E-02
20926,6.00E-03,1.25E-02
20927,5.87E-03,1.28E-02
20928,5.81E-03,1.30E-02
20929,5.69E-03,1.32E-02
20930,5.63E-03,1.34E-02
20931,5.59E-03,1.35E-02
20932,5.56E-03,1.37E-02
20933,5.58E-03,1.38E-02
20934,5.56E-03,1.39E-02
20935,5.57E-03,1.40E-02
20936,5.53E-03,1.41E-02
20937,5.56E-03,1.42E-02
20938,5.53E-03,1.43E-02
20939,5.54E-03,1.43E-02
20940,5.52E-03,1.44E-02
20941,5.52E-03,1.44E-02
20942,5.55E-03,1.44E-02
20943,5.53E-03,1.45E-02
20944,5.52E-03,1.45E-02
20945,5.50E-03,1.45E-02
20946,5.54E-03,1.45E-02
20947,5.56E-03,1.45E-02
20948,5.58E-03,1.45E-02
20949,5.57E-03,1.44E-02
20950,5.52E-03,1.44E-02
20951,5.52E-03,1.44E-02
20952,5.52E-03,1.44E-02
20953,5.55E-03,1.43E-02
20954,5.61E-03,1.43E-02
20955,5.60E-03,1.43E-02
20956,5.67E-03,1.42E-02
20957,5.67E-03,1.42E-02
20958,5.62E-03,1.41E-02
20959,5.60E-03,1.41E-02
20960,5.56E-03,1.40E-02
20961,5.58E-03,1.40E-02
20962,5.58E-03,1.40E-02
20963,5.59E-03,1.39E-02
20964,5.63E-03,1.38E-02
20965,5.78E-03,1.16E-03
20966,6.92E-03,1.37E-02
20967,4.83E-03,1.37E-02
20968,3.55E-03,1.35E-02
20969,4.30E-03,1.34E-02
20970,5.37E-03,1.32E-02
20971,5.97E-03,1.30E-02
20972,6.00E-03,1.28E-02
20973,5.84E-03,1.26E-02
20974,5.63E-03,1.24E-02
20975,5.54E-03,1.22E-02
20976,5.51E-03,1.20E-02
20977,5.55E-03,1.18E-02
20978,5.54E-03,1.15E-02
20979,5.56E-03,1.13E-02
20980,5.56E-03,1.11E-02
20981,5.54E-03,1.09E-02
20982,5.62E-03,1.07E-02
20983,5.61E-03,1.04E-02
20984,5.64E-03,1.02E-02
20985,5.60E-03,1.00E-02
20986,5.55E-03,9.79E-03
20987,5.57E-03,9.58E-03
20988,5.56E-03,9.37E-03
20989,5.58E-03,9.16E-03
20990,5.57E-03,8.95E-03
20991,5.57E-03,8.74E-03
20992,5.55E-03,8.54E-03
20993,5.53E-03,8.34E-03
20994,5.58E-03,8.14E-03
20995,5.60E-03,7.95E-03
20996,5.63E-03,7.75E-03
20997,5.68E-03,7.56E-03
20998,5.69E-03,7.38E-03
20999,5.64E-03,7.20E-03
21000,5.66E-03,7.02E-03
21001,5.65E-03,6.84E-03
21002,5.68E-03,6.67E-03
21003,5.67E-03,6.50E-03
21004,5.72E-03,6.33E-03
21005,5.74E-03,6.17E-03
21006,5.74E-03,6.01E-03
21007,5.72E-03,5.86E-03
21008,5.68E-03,5.71E-03
21009,5.63E-03,5.57E-03
21010,5.56E-03,5.43E-03
21011,5.61E-03,5.30E-03
21012,5.60E-03,5.17E-03
21013,5.59E-03,5.04E-03
21014,5.58E-03,4.92E-03
21015,5.55E-03,4.81E-03
21016,5.60E-03,4.70E-03
21017,5.61E-03,4.59E-03
21018,5.59E-03,4.48E-03
21019,5.61E-03,4.38E-03
21020,5.54E-03,4.29E-03
21021,5.52E-03,4.19E-03
21022,5.52E-03,4.10E-03
21023,5.50E-03,4.01E-03
21024,5.51E-03,3.92E-03
21025,5.49E-03,3.84E-03
21026,5.49E-03,3.76E-03
21027,5.48E-03,3.68E-03
21028,5.48E-03,3.60E-03
21029,5.46E-03,3.52E-03
21030,5.42E-03,3.45E-03
21031,5.43E-03,3.38E-03
21032,5.50E-03,3.30E-03
21033,5.53E-03,3.23E-03
21034,5.52E-03,3.15E-03
21035,5.51E-03,3.08E-03
21036,5.47E-03,3.01E-03
21037,5.47E-03,2.94E-03
21038,5.46E-03,2.87E-03
21039,5.48E-03,2.80E-03
21040,5.48E-03,2.73E-03
21041,5.50E-03,2.65E-03
21042,5.54E-03,2.58E-03
21043,5.52E-03,2.51E-03
21044,5.51E-03,2.44E-03
21045,5.54E-03,2.37E-03
21046,5.52E-03,2.29E-03
21047,5.55E-03,2.22E-03
21048,5.55E-03,2.14E-03
21049,5.59E-03,2.07E-03
21050,5.58E-03,2.01E-03
21051,5.53E-03,1.95E-03
21052,5.53E-03,1.89E-03
21053,5.55E-03,1.82E-03
21054,5.57E-03,1.76E-03
21055,5.58E-03,1.70E-03
21056,5.56E-03,1.64E-03
21057,5.62E-03,1.58E-03
21058,5.67E-03,1.52E-03
21059,5.67E-03,1.47E-03
21060,5.68E-03,1.42E-03
21061,5.68E-03,1.37E-03
21062,5.70E-03,1.32E-03
21063,5.69E-03,1.28E-03
21064,5.71E-03,1.24E-03
21065,5.72E-03,1.20E-03
21066,5.66E-03,1.17E-03
21067,5.70E-03,1.14E-03
21068,5.66E-03,1.11E-03
21069,5.72E-03,1.08E-03
21070,5.78E-03,1.06E-03
21071,5.76E-03,1.03E-03
21072,5.69E-03,1.01E-03
21073,5.71E-03,1.00E-03
21074,5.72E-03,9.93E-04
21075,5.64E-03,9.85E-04
21076,5.65E-03,9.79E-04
21077,5.66E-03,9.77E-04
21078,5.67E-03,9.76E-04
21079,5.67E-03,9.75E-04
21080,5.67E-03,9.73E-04
21081,5.66E-03,9.74E-04
21082,5.71E-03,9.80E-04
21083,5.70E-03,9.88E-04
21084,5.70E-03,9.97E-04
21085,5.73E-03,1.01E-03
21086,5.76E-03,1.02E-03
21087,5.76E-03,1.03E-03
21088,5.79E-03,1.05E-03
21089,5.75E-03,1.06E-03
21090,5.76E-03,1.08E-03
21091,5.78E-03,1.11E-03
21092,5.78E-03,1.13E-03
21093,5.48E-03,1.23E-02
21094,5.93E-03,1.22E-02
21095,6.54E-03,1.33E-02
21096,5.78E-03,1.34E-02
21097,4.87E-03,2.29E-02
21098,5.35E-03,2.48E-02
21099,4.98E-03,2.36E-02
21100,5.13E-03,2.43E-02
21101,5.76E-03,2.46E-02
21102,3.68E-03,2.42E-02
21103,4.87E-03,2.20E-02
21104,4.70E-03,2.21E-02
21105,4.76E-03,1.26E-02
21106,4.67E-03,1.27E-02
21107,4.55E-03,1.27E-02
21108,5.37E-03,1.25E-02
21109,5.21E-03,1.24E-02
21110,4.75E-03,1.21E-02
21111,5.23E-03,1.26E-02
21112,4.94E-03,2.30E-02
21113,5.86E-03,2.63E-02
21114,5.20E-03,1.21E-02
21115,5.68E-03,1.11E-03
21116,5.14E-03,1.26E-02
21117,5.27E-03,1.24E-02
21118,5.00E-03,1.22E-02
21119,6.32E-03,1.25E-02
21120,5.30E-03,1.23E-02
21121,5.31E-03,1.23E-02
21122,5.44E-03,1.26E-02
21123,5.68E-03,9.09E-03
21124,5.64E-03,9.18E-03
21125,5.67E-03,9.26E-03
21126,5.64E-03,9.35E-03
21127,5.59E-03,9.43E-03
21128,5.53E-03,9.52E-03
21129,5.47E-03,9.60E-03
21130,5.40E-03,9.68E-03
21131,5.38E-03,9.75E-03
21132,5.39E-03,9.83E-03
21133,5.43E-03,9.90E-03
21134,5.44E-03,9.97E-03
21135,5.45E-03,1.00E-02
21136,5.46E-03,1.01E-02
21137,5.47E-03,1.02E-02
21138,5.53E-03,1.03E-02
21139,5.56E-03,1.03E-02
21140,5.65E-03,1.04E-02
21141,5.67E-03,1.05E-02
21142,5.69E-03,1.05E-02
21143,5.74E-03,1.06E-02
21144,5.73E-03,1.07E-02
21145,5.77E-03,1.08E-02
21146,5.75E-03,1.09E-02
21147,5.78E-03,1.10E-02
21148,5.76E-03,1.11E-02
21149,5.78E-03,1.12E-02
21150,5.76E-03,1.13E-02
21151,5.76E-03,1.14E-02
21152,5.77E-03,1.15E-02
21153,5.72E-03,1.16E-02
21154,5.67E-03,1.18E-02
21155,5.68E-03,1.19E-02
21156,5.63E-03,1.21E-02
21157,5.61E-03,1.22E-02
21158,5.65E-03,1.24E-02
21159,5.70E-03,1.26E-02
21160,5.67E-03,1.27E-02
21161,5.64E-03,1.29E-02
21162,5.63E-03,1.31E-02
21163,5.55E-03,1.33E-02
21164,5.58E-03,1.35E-02
21165,5.59E-03,1.38E-02
21166,5.58E-03,1.40E-02
21167,5.55E-03,1.42E-02
21168,5.51E-03,1.45E-02
21169,5.53E-03,1.47E-02
21170,5.52E-03,1.50E-02
21171,5.50E-03,1.52E-02
21172,5.50E-03,1.55E-02
21173,5.47E-03,1.58E-02
21174,5.48E-03,1.61E-02
21175,5.48E-03,1.63E-02
21176,5.53E-03,1.66E-02
21177,5.57E-03,1.69E-02
21178,5.55E-03,1.72E-02
21179,5.59E-03,1.75E-02
21180,5.59E-03,1.78E-02
21181,5.64E-03,1.82E-02
21182,5.67E-03,1.86E-02
21183,5.74E-03,1.89E-02
21184,5.79E-03,1.94E-02
21185,5.81E-03,1.98E-02
21186,5.89E-03,2.02E-02
21187,5.98E-03,2.07E-02
21188,6.05E-03,2.12E-02
21189,6.10E-03,2.17E-02
21190,6.02E-03,2.22E-02
21191,5.91E-03,2.28E-02
21192,5.94E-03,2.33E-02
21193,5.76E-03,2.37E-02
21194,6.23E-03,2.43E-02
21195,6.41E-03,2.50E-02
21196,5.65E-03,2.57E-02
21197,5.70E-03,8.61E-03
21198,5.69E-03,8.77E-03
21199,5.68E-03,9.01E-03
21200,5.73E-03,1.37E-03
21201,5.75E-03,1.40E-03
21202,5.66E-03,1.24E-03
21203,6.58E-03,1.21E-02
21204,5.08E-03,2.64E-02
21205,5.41E-03,1.25E-02
21206,5.19E-03,1.22E-02
21207,5.46E-03,1.24E-02
21208,5.03E-03,1.26E-02
21209,5.13E-03,1.26E-02
21210,4.98E-03,2.26E-02
21211,4.94E-03,2.40E-02
21212,4.97E-03,2.44E-02
21213,5.04E-03,2.41E-02
21214,5.01E-03,2.35E-02
21215,7.79E-03,1.31E-02
21216,5.80E-03,1.24E-02
21217,5.74E-03,1.33E-03
21218,5.72E-03,1.35E-03
21219,5.74E-03,1.29E-03
21220,5.71E-03,1.31E-03
21221,5.77E-03,1.26E-03
21222,5.77E-03,1.27E-03
21223,5.67E-03,1.24E-03
21224,5.71E-03,1.25E-03
21225,5.67E-03,1.22E-03
21226,5.65E-03,1.23E-03
21227,5.67E-03,1.21E-03
21228,5.65E-03,1.22E-03
21229,5.64E-03,1.22E-03
21230,5.65E-03,1.21E-03
21231,5.63E-03,1.23E-03
21232,5.64E-03,1.22E-03
21233,5.63E-03,1.24E-03
21234,5.61E-03,1.23E-03
21235,5.67E-03,1.26E-03
21236,5.65E-03,1.25E-03
21237,5.69E-03,1.29E-03
21238,5.68E-03,1.28E-03
21239,5.67E-03,1.34E-03
21240,5.73E-03,1.31E-03
21241,5.63E-03,1.39E-03
21242,5.65E-03,1.37E-03
21243,5.64E-03,1.46E-03
21244,5.66E-03,1.43E-03
21245,5.66E-03,1.54E-03
21246,5.68E-03,1.50E-03
21247,5.65E-03,1.62E-03
21248,5.64E-03,1.58E-03
21249,5.64E-03,1.72E-03
21250,5.64E-03,1.67E-03
21251,5.63E-03,1.82E-03
21252,5.63E-03,1.77E-03
21253,5.58E-03,1.93E-03
21254,5.63E-03,1.87E-03
21255,5.53E-03,2.05E-03
21256,5.54E-03,1.99E-03
21257,5.55E-03,2.17E-03
21258,5.54E-03,2.11E-03
21259,5.59E-03,2.30E-03
21260,5.60E-03,2.23E-03
21261,5.59E-03,2.43E-03
21262,5.61E-03,2.36E-03
21263,5.56E-03,2.58E-03
21264,5.57E-03,2.50E-03
21265,5.54E-03,2.72E-03
21266,5.55E-03,2.65E-03
21267,5.55E-03,2.86E-03
21268,5.57E-03,2.79E-03
21269,5.54E-03,3.00E-03
21270,5.53E-03,2.93E-03
21271,5.53E-03,3.14E-03
21272,5.52E-03,3.07E-03
21273,5.57E-03,3.28E-03
21274,5.55E-03,3.21E-03
21275,5.58E-03,3.42E-03
21276,5.57E-03,3.35E-03
21277,5.51E-03,3.56E-03
21278,5.55E-03,3.49E-03
21279,5.49E-03,3.71E-03
21280,5.47E-03,3.64E-03
21281,5.55E-03,3.85E-03
21282,5.51E-03,3.78E-03
21283,5.55E-03,4.01E-03
21284,5.52E-03,3.93E-03
21285,5.56E-03,4.17E-03
21286,5.53E-03,4.09E-03
21287,5.56E-03,4.34E-03
21288,5.54E-03,4.25E-03
21289,5.59E-03,4.52E-03
21290,5.55E-03,4.43E-03
21291,5.61E-03,4.71E-03
21292,5.60E-03,4.62E-03
21293,5.60E-03,4.92E-03
21294,5.63E-03,4.82E-03
21295,5.61E-03,5.15E-03
21296,5.58E-03,5.03E-03
21297,5.63E-03,5.39E-03
21298,5.62E-03,5.27E-03
21299,5.59E-03,5.65E-03
21300,5.63E-03,5.52E-03
21301,5.63E-03,5.93E-03
21302,5.61E-03,5.79E-03
21303,5.71E-03,6.22E-03
21304,5.66E-03,6.07E-03
21305,5.66E-03,6.54E-03
21306,5.71E-03,6.38E-03
21307,5.66E-03,6.88E-03
21308,5.64E-03,6.71E-03
21309,5.65E-03,7.23E-03
21310,5.64E-03,7.05E-03
21311,5.67E-03,7.59E-03
21312,5.63E-03,7.41E-03
21313,5.62E-03,7.96E-03
21314,5.65E-03,7.77E-03
21315,5.57E-03,8.35E-03
21316,5.61E-03,8.16E-03
21317,5.61E-03,8.75E-03
21318,5.57E-03,8.55E-03
21319,5.60E-03,9.16E-03
21320,5.61E-03,8.96E-03
21321,5.60E-03,9.58E-03
21322,5.61E-03,9.37E-03
21323,5.59E-03,1.00E-02
21324,5.60E-03,9.79E-03
21325,5.65E-03,1.04E-02
21326,5.60E-03,1.02E-02
21327,5.61E-03,1.09E-02
21328,5.62E-03,1.07E-02
21329,5.59E-03,1.13E-02
21330,5.58E-03,1.11E-02
21331,5.59E-03,1.18E-02
21332,5.60E-03,1.15E-02
21333,5.57E-03,1.22E-02
21334,5.61E-03,1.20E-02
21335,5.67E-03,1.27E-02
21336,5.63E-03,1.24E-02
21337,5.81E-03,1.31E-02
21338,5.75E-03,1.29E-02
21339,5.31E-03,1.35E-02
21340,5.66E-03,1.33E-02
21341,4.21E-03,1.38E-02
21342,4.84E-03,1.36E-02
21343,4.24E-03,1.40E-02
21344,3.76E-03,1.39E-02
21345,5.83E-03,1.41E-02
21346,4.95E-03,1.40E-02
21347,5.65E-03,1.42E-02
21348,5.60E-03,1.41E-02
21349,5.57E-03,1.42E-02
21350,5.62E-03,1.42E-02
21351,5.59E-03,1.43E-02
21352,5.57E-03,1.43E-02
21353,5.60E-03,1.44E-02
21354,5.62E-03,1.44E-02
21355,5.62E-03,1.45E-02
21356,5.66E-03,1.44E-02
21357,5.59E-03,1.46E-02
21358,5.60E-03,1.45E-02
21359,5.59E-03,1.46E-02
21360,5.60E-03,1.46E-02
21361,5.59E-03,1.47E-02
21362,5.60E-03,1.47E-02
21363,5.59E-03,1.47E-02
21364,5.60E-03,1.47E-02
21365,5.59E-03,1.47E-02
21366,5.60E-03,1.47E-02
21367,5.58E-03,1.47E-02
21368,5.60E-03,1.47E-02
21369,5.59E-03,1.47E-02
21370,5.56E-03,1.47E-02
21371,5.54E-03,1.46E-02
21372,5.55E-03,1.47E-02
21373,5.52E-03,1.45E-02
21374,5.52E-03,1.46E-02
21375,5.59E-03,1.44E-02
21376,5.57E-03,1.45E-02
21377,5.59E-03,1.42E-02
21378,5.60E-03,1.43E-02
21379,5.59E-03,1.40E-02
21380,5.60E-03,1.41E-02
21381,5.65E-03,1.37E-02
21382,5.60E-03,1.39E-02
21383,5.77E-03,1.34E-02
21384,5.67E-03,1.36E-02
21385,5.96E-03,1.30E-02
21386,5.85E-03,1.32E-02
21387,4.47E-03,1.26E-02
21388,5.75E-03,1.28E-02
21389,5.60E-03,8.25E-03
21390,5.64E-03,8.43E-03
21391,5.58E-03,7.88E-03
21392,5.58E-03,8.07E-03
21393,5.51E-03,7.50E-03
21394,5.54E-03,7.69E-03
21395,5.51E-03,7.10E-03
21396,5.50E-03,7.30E-03
21397,5.51E-03,6.68E-03
21398,5.50E-03,6.89E-03
21399,5.58E-03,6.24E-03
21400,5.53E-03,6.46E-03
21401,5.55E-03,5.79E-03
21402,5.56E-03,6.02E-03
21403,5.52E-03,5.33E-03
21404,5.57E-03,5.56E-03
21405,5.49E-03,4.86E-03
21406,5.47E-03,5.10E-03
21407,5.50E-03,4.37E-03
21408,5.48E-03,4.62E-03
21409,5.50E-03,3.88E-03
21410,5.49E-03,4.13E-03
21411,5.50E-03,3.38E-03
21412,5.49E-03,3.63E-03
21413,5.50E-03,2.89E-03
21414,5.49E-03,3.13E-03
21415,5.50E-03,2.39E-03
21416,5.49E-03,2.64E-03
21417,5.53E-03,1.92E-03
21418,5.48E-03,2.15E-03
21419,5.49E-03,1.49E-03
21420,5.48E-03,1.69E-03
21421,5.57E-03,1.17E-03
21422,5.52E-03,1.31E-03
21423,5.57E-03,1.08E-03
21424,5.59E-03,1.09E-03
21425,5.71E-03,8.94E-03
21426,5.69E-03,1.42E-03
21427,5.63E-03,1.28E-03
21428,5.63E-03,1.15E-03
21429,5.70E-03,9.17E-03
21430,5.65E-03,9.34E-03
21431,5.70E-03,9.26E-03
21432,5.63E-03,9.51E-03
21433,5.63E-03,9.43E-03
21434,5.54E-03,9.69E-03
21435,5.60E-03,9.60E-03
21436,5.47E-03,9.85E-03
21437,5.51E-03,9.77E-03
21438,5.45E-03,1.00E-02
21439,5.41E-03,9.93E-03
21440,5.49E-03,1.02E-02
21441,5.47E-03,1.01E-02
21442,5.51E-03,1.03E-02
21443,5.44E-03,1.02E-02
21444,5.59E-03,1.05E-02
21445,5.54E-03,1.04E-02
21446,5.61E-03,1.06E-02
21447,5.55E-03,1.05E-02
21448,5.63E-03,1.08E-02
21449,5.65E-03,1.07E-02
21450,5.66E-03,1.09E-02
21451,5.68E-03,1.08E-02
21452,5.67E-03,1.11E-02
21453,5.70E-03,1.10E-02
21454,5.68E-03,1.13E-02
21455,5.71E-03,1.12E-02
21456,5.68E-03,1.15E-02
21457,5.71E-03,1.14E-02
21458,5.66E-03,1.18E-02
21459,5.70E-03,1.16E-02
21460,5.61E-03,1.20E-02
21461,5.65E-03,1.19E-02
21462,5.55E-03,1.23E-02
21463,5.62E-03,1.22E-02
21464,5.63E-03,1.26E-02
21465,5.57E-03,1.25E-02
21466,5.67E-03,1.30E-02
21467,5.69E-03,1.28E-02
21468,5.63E-03,1.34E-02
21469,5.63E-03,1.32E-02
21470,5.59E-03,1.38E-02
21471,5.56E-03,1.36E-02
21472,5.57E-03,1.43E-02
21473,5.60E-03,1.40E-02
21474,5.56E-03,1.48E-02
21475,5.59E-03,1.45E-02
21476,5.56E-03,1.53E-02
21477,5.54E-03,1.50E-02
21478,5.54E-03,1.58E-02
21479,5.53E-03,1.56E-02
21480,5.53E-03,1.64E-02
21481,5.51E-03,1.61E-02
21482,5.52E-03,1.70E-02
21483,5.50E-03,1.67E-02
21484,5.54E-03,1.76E-02
21485,5.52E-03,1.73E-02
21486,5.57E-03,1.83E-02
21487,5.56E-03,1.79E-02
21488,5.65E-03,1.90E-02
21489,5.60E-03,1.86E-02
21490,5.75E-03,1.98E-02
21491,5.70E-03,1.94E-02
21492,5.79E-03,2.07E-02
21493,5.72E-03,2.03E-02
21494,5.86E-03,2.17E-02
21495,5.83E-03,2.12E-02
21496,5.83E-03,2.28E-02
21497,5.87E-03,2.23E-02
21498,5.74E-03,2.37E-02
21499,5.78E-03,2.33E-02
21500,5.90E-03,2.47E-02
21501,5.77E-03,2.42E-02
21502,5.28E-03,2.60E-02
21503,5.85E-03,2.53E-02
21504,6.16E-03,2.72E-02
21505,6.14E-03,2.72E-02
21506,6.31E-03,2.72E-02
21507,5.66E-03,2.73E-02
21508,5.89E-03,2.73E-02
21509,5.62E-03,2.75E-02
21510,5.59E-03,2.74E-02
21511,5.61E-03,2.78E-02
21512,5.65E-03,2.76E-02
21513,5.74E-03,2.82E-02
21514,5.69E-03,2.79E-02
21515,5.64E-03,2.86E-02
21516,5.71E-03,2.84E-02
21517,5.55E-03,2.79E-02
21518,5.62E-03,2.85E-02
21519,5.48E-03,2.66E-02
21520,5.52E-03,2.73E-02
21521,5.45E-03,2.54E-02
21522,5.43E-03,2.60E-02
21523,5.46E-03,2.46E-02
21524,5.50E-03,2.48E-02
21525,5.44E-03,2.49E-02
21526,5.44E-03,2.47E-02
21527,5.52E-03,2.55E-02
21528,5.48E-03,2.52E-02
21529,5.72E-03,2.62E-02
21530,5.61E-03,2.58E-02
21531,5.87E-03,2.76E-02
21532,5.77E-03,2.67E-02
21533,5.87E-03,3.00E-02
21534,5.87E-03,2.87E-02
21535,5.87E-03,3.23E-02
21536,5.86E-03,3.12E-02
21537,5.74E-03,3.41E-02
21538,5.81E-03,3.33E-02
21539,5.52E-03,3.39E-02
21540,5.70E-03,3.44E-02
21541,5.60E-03,3.12E-02
21542,5.53E-03,3.27E-02
21543,5.69E-03,2.88E-02
21544,5.67E-03,2.97E-02
21545,5.66E-03,2.89E-02
21546,5.69E-03,2.86E-02
21547,5.65E-03,2.95E-02
21548,5.58E-03,2.94E-02
21549,5.69E-03,2.83E-02
21550,5.63E-03,2.90E-02
21551,5.65E-03,2.68E-02
21552,5.67E-03,2.75E-02
21553,5.58E-03,2.57E-02
21554,5.60E-03,2.62E-02
21555,5.58E-03,2.48E-02
21556,5.59E-03,2.52E-02
21557,5.63E-03,2.40E-02
21558,5.59E-03,2.44E-02
21559,5.66E-03,2.35E-02
21560,5.68E-03,2.37E-02
21561,5.73E-03,2.31E-02
21562,5.70E-03,2.33E-02
21563,5.68E-03,2.27E-02
21564,5.70E-03,2.29E-02
21565,5.66E-03,2.14E-02
21566,5.73E-03,2.23E-02
21567,5.85E-03,1.94E-02
21568,5.73E-03,2.03E-02
21569,5.87E-03,1.84E-02
21570,5.87E-03,1.89E-02
21571,5.99E-03,1.70E-02
21572,5.97E-03,1.78E-02
21573,6.01E-03,1.55E-02
21574,6.03E-03,1.63E-02
21575,5.85E-03,1.43E-02
21576,5.89E-03,1.49E-02
21577,5.71E-03,1.30E-02
21578,5.71E-03,1.38E-02
21579,5.57E-03,2.73E-02
21580,4.58E-03,2.67E-02
21581,5.66E-03,9.09E-03
21582,5.62E-03,1.46E-03
21583,4.79E-03,2.74E-02
21584,3.44E-03,2.76E-02
21585,7.31E-03,1.43E-02
21586,6.00E-03,1.43E-02
21587,5.92E-03,1.46E-02
21588,5.76E-03,1.62E-02
21589,5.81E-03,1.67E-02
21590,6.06E-03,1.65E-02
21591,5.90E-03,1.79E-02
21592,5.48E-03,2.02E-02
21593,5.41E-03,2.05E-02
21594,5.83E-03,1.91E-02
21595,5.99E-03,1.87E-02
21596,5.74E-03,2.08E-02
21597,5.33E-03,2.42E-02
21598,5.35E-03,2.56E-02
21599,5.59E-03,2.50E-02
21600,5.63E-03,2.45E-02
21601,5.67E-03,2.43E-02
21602,5.67E-03,2.43E-02
21603,5.64E-03,2.44E-02
21604,5.62E-03,2.46E-02
21605,5.59E-03,2.48E-02
21606,5.59E-03,2.52E-02
21607,5.60E-03,2.56E-02
21608,5.60E-03,2.60E-02
21609,5.62E-03,2.65E-02
21610,5.64E-03,2.71E-02
21611,5.66E-03,2.79E-02
21612,5.65E-03,2.88E-02
21613,5.66E-03,2.99E-02
21614,5.57E-03,3.15E-02
21615,5.33E-03,3.34E-02
21616,5.23E-03,3.29E-02
21617,5.63E-03,2.91E-02
21618,5.91E-03,2.65E-02
21619,5.80E-03,2.73E-02
21620,5.61E-03,2.98E-02
21621,5.54E-03,3.24E-02
21622,5.47E-03,3.57E-02
21623,5.24E-03,3.95E-02
21624,5.30E-03,4.07E-02
21625,5.57E-03,3.86E-02
21626,5.71E-03,3.67E-02
21627,5.74E-03,3.54E-02
21628,5.72E-03,3.39E-02
21629,5.77E-03,3.16E-02
21630,5.85E-03,2.90E-02
21631,5.90E-03,2.69E-02
21632,5.83E-03,2.59E-02
21633,5.72E-03,2.58E-02
21634,5.58E-03,2.57E-02
21635,5.53E-03,2.55E-02
21636,5.51E-03,2.52E-02
21637,5.48E-03,2.47E-02
21638,5.50E-03,2.41E-02
21639,5.58E-03,2.33E-02
21640,5.68E-03,2.31E-02
21641,5.48E-03,2.52E-02
21642,5.32E-03,2.73E-02
21643,5.57E-03,2.66E-02
21644,5.66E-03,2.70E-02
21645,5.35E-03,3.00E-02
21646,5.36E-03,3.15E-02
21647,5.56E-03,3.06E-02
21648,5.66E-03,2.98E-02
21649,5.66E-03,2.92E-02
21650,5.64E-03,2.88E-02
21651,5.65E-03,2.85E-02
21652,5.63E-03,2.83E-02
21653,5.60E-03,2.81E-02
21654,5.61E-03,2.80E-02
21655,5.66E-03,2.79E-02
21656,5.79E-03,2.79E-02
21657,6.00E-03,2.80E-02
21658,6.07E-03,2.80E-02
21659,5.94E-03,2.82E-02
21660,5.54E-03,2.84E-02
21661,4.83E-03,2.88E-02
21662,4.12E-03,2.92E-02
21663,4.19E-03,2.82E-02
21664,4.92E-03,2.72E-02
21665,5.28E-03,2.62E-02
21666,5.49E-03,2.55E-02
21667,5.54E-03,2.51E-02
21668,5.55E-03,2.47E-02
21669,5.57E-03,2.42E-02
21670,5.66E-03,2.37E-02
21671,5.70E-03,2.33E-02
21672,5.68E-03,2.28E-02
21673,5.71E-03,2.23E-02
21674,5.70E-03,2.17E-02
21675,5.70E-03,2.12E-02
21676,5.66E-03,2.07E-02
21677,5.67E-03,2.03E-02
21678,5.60E-03,1.98E-02
21679,5.55E-03,1.94E-02
21680,5.55E-03,1.90E-02
21681,5.55E-03,1.87E-02
21682,5.55E-03,1.83E-02
21683,5.55E-03,1.80E-02
21684,5.55E-03,1.77E-02
21685,5.56E-03,1.74E-02
21686,5.56E-03,1.71E-02
21687,5.57E-03,1.68E-02
21688,5.58E-03,1.65E-02
21689,5.58E-03,1.62E-02
21690,5.58E-03,1.59E-02
21691,5.58E-03,1.56E-02
21692,5.59E-03,1.53E-02
21693,5.59E-03,1.51E-02
21694,5.59E-03,1.48E-02
21695,5.60E-03,1.45E-02
21696,5.61E-03,1.43E-02
21697,5.61E-03,1.41E-02
21698,5.61E-03,1.38E-02
21699,5.64E-03,1.36E-02
21700,5.67E-03,1.34E-02
21701,5.69E-03,1.32E-02
21702,5.64E-03,1.31E-02
21703,5.58E-03,1.29E-02
21704,5.52E-03,1.27E-02
21705,5.48E-03,1.26E-02
21706,5.52E-03,1.24E-02
21707,5.55E-03,1.23E-02
21708,5.61E-03,1.21E-02
21709,5.64E-03,1.20E-02
21710,5.63E-03,1.19E-02
21711,5.63E-03,1.18E-02
21712,5.62E-03,1.16E-02
21713,5.62E-03,1.15E-02
21714,5.61E-03,1.14E-02
21715,5.61E-03,1.13E-02
21716,5.60E-03,1.12E-02
21717,5.59E-03,1.11E-02
21718,5.58E-03,1.11E-02
21719,5.57E-03,1.10E-02
21720,5.57E-03,1.09E-02
21721,5.56E-03,1.08E-02
21722,5.56E-03,1.07E-02
21723,5.55E-03,1.07E-02
21724,5.54E-03,1.06E-02
21725,5.53E-03,1.05E-02
21726,5.52E-03,1.04E-02
21727,5.55E-03,1.03E-02
21728,5.53E-03,1.03E-02
21729,5.53E-03,1.02E-02
21730,5.52E-03,1.01E-02
21731,5.54E-03,1.00E-02
21732,5.55E-03,9.93E-03
21733,5.55E-03,9.84E-03
21734,5.57E-03,9.75E-03
21735,5.61E-03,9.67E-03
21736,5.60E-03,9.58E-03
21737,5.66E-03,9.49E-03
21738,5.71E-03,9.40E-03
21739,5.68E-03,9.32E-03
21740,5.61E-03,9.24E-03
21741,5.58E-03,1.49E-03
21742,5.57E-03,1.32E-03
21743,5.56E-03,1.19E-03
21744,5.55E-03,1.12E-03
21745,5.53E-03,1.12E-03
21746,5.49E-03,1.19E-03
21747,5.49E-03,1.32E-03
21748,5.49E-03,1.50E-03
21749,5.50E-03,1.70E-03
21750,5.50E-03,1.92E-03
21751,5.50E-03,2.15E-03
21752,5.50E-03,2.39E-03
21753,5.50E-03,2.63E-03
21754,5.50E-03,2.88E-03
21755,5.50E-03,3.12E-03
21756,5.50E-03,3.37E-03
21757,5.50E-03,3.62E-03
21758,5.50E-03,3.87E-03
21759,5.50E-03,4.11E-03
21760,5.50E-03,4.36E-03
21761,5.51E-03,4.60E-03
21762,5.51E-03,4.84E-03
21763,5.53E-03,5.08E-03
21764,5.54E-03,5.31E-03
21765,5.58E-03,5.54E-03
21766,5.56E-03,5.77E-03
21767,5.58E-03,5.99E-03
21768,5.57E-03,6.21E-03
21769,5.50E-03,6.43E-03
21770,5.50E-03,6.64E-03
21771,5.50E-03,6.85E-03
21772,5.50E-03,7.06E-03
21773,5.51E-03,7.26E-03
21774,5.51E-03,7.46E-03
21775,5.51E-03,7.65E-03
21776,5.54E-03,7.83E-03
21777,5.53E-03,8.02E-03
21778,5.53E-03,8.20E-03
21779,5.56E-03,8.37E-03
21780,5.64E-03,8.54E-03
21781,5.65E-03,8.71E-03
21782,5.66E-03,8.86E-03
21783,5.62E-03,9.02E-03
21784,5.56E-03,9.16E-03
21785,1.29E-02,1.26E-02
21786,7.17E-03,1.30E-02
21787,5.88E-03,1.33E-02
21788,5.87E-03,1.35E-02
21789,5.82E-03,1.36E-02
21790,5.74E-03,1.38E-02
21791,5.66E-03,1.39E-02
21792,5.59E-03,1.41E-02
21793,5.59E-03,1.42E-02
21794,5.59E-03,1.43E-02
21795,5.59E-03,1.44E-02
21796,5.59E-03,1.45E-02
21797,5.59E-03,1.46E-02
21798,5.59E-03,1.47E-02
21799,5.59E-03,1.48E-02
21800,5.59E-03,1.48E-02
21801,5.59E-03,1.49E-02
21802,5.59E-03,1.49E-02
21803,5.59E-03,1.49E-02
21804,5.59E-03,1.50E-02
21805,5.59E-03,1.50E-02
21806,5.59E-03,1.50E-02
21807,5.59E-03,1.50E-02
21808,5.59E-03,1.50E-02
21809,5.59E-03,1.50E-02
21810,5.60E-03,1.50E-02
21811,5.60E-03,1.50E-02
21812,5.60E-03,1.50E-02
21813,5.60E-03,1.49E-02
21814,5.60E-03,1.49E-02
21815,5.60E-03,1.49E-02
21816,5.60E-03,1.48E-02
21817,5.61E-03,1.48E-02
21818,5.59E-03,1.48E-02
21819,5.62E-03,1.47E-02
21820,5.66E-03,1.47E-02
21821,5.67E-03,1.46E-02
21822,5.62E-03,1.46E-02
21823,5.61E-03,1.46E-02
21824,5.60E-03,1.45E-02
21825,5.63E-03,1.45E-02
21826,5.68E-03,1.45E-02
21827,5.75E-03,1.44E-02
21828,5.57E-03,1.44E-02
21829,5.20E-03,1.43E-02
21830,4.83E-03,1.43E-02
21831,5.37E-03,1.42E-02
21832,5.63E-03,1.41E-02
21833,5.21E-03,1.39E-02
21834,5.42E-03,1.37E-02
21835,5.64E-03,1.35E-02
21836,5.73E-03,1.33E-02
21837,5.69E-03,1.31E-02
21838,5.68E-03,1.29E-02
21839,5.64E-03,1.27E-02
21840,5.60E-03,1.25E-02
21841,5.60E-03,1.22E-02
21842,5.60E-03,1.20E-02
21843,5.60E-03,1.18E-02
21844,5.60E-03,1.15E-02
21845,5.60E-03,1.13E-02
21846,5.61E-03,1.11E-02
21847,5.64E-03,1.09E-02
21848,5.63E-03,1.07E-02
21849,5.60E-03,1.05E-02
21850,5.61E-03,1.02E-02
21851,5.61E-03,1.00E-02
21852,5.61E-03,9.81E-03
21853,5.61E-03,9.60E-03
21854,5.61E-03,9.39E-03
21855,5.61E-03,9.18E-03
21856,5.61E-03,8.98E-03
21857,5.61E-03,8.78E-03
21858,5.62E-03,8.58E-03
21859,5.62E-03,8.38E-03
21860,5.62E-03,8.19E-03
21861,5.62E-03,8.00E-03
21862,5.63E-03,7.81E-03
21863,5.63E-03,7.63E-03
21864,5.63E-03,7.45E-03
21865,5.63E-03,7.27E-03
21866,5.63E-03,7.10E-03
21867,5.63E-03,6.93E-03
21868,5.63E-03,6.77E-03
21869,5.63E-03,6.61E-03
21870,5.68E-03,6.46E-03
21871,5.67E-03,6.31E-03
21872,5.64E-03,6.16E-03
21873,5.62E-03,6.02E-03
21874,5.60E-03,5.88E-03
21875,5.62E-03,5.75E-03
21876,5.61E-03,5.63E-03
21877,5.61E-03,5.51E-03
21878,5.61E-03,5.39E-03
21879,5.61E-03,5.28E-03
21880,5.61E-03,5.17E-03
21881,5.60E-03,5.07E-03
21882,5.60E-03,4.97E-03
21883,5.60E-03,4.87E-03
21884,5.59E-03,4.78E-03
21885,5.59E-03,4.69E-03
21886,5.59E-03,4.60E-03
21887,5.59E-03,4.51E-03
21888,5.59E-03,4.43E-03
21889,5.59E-03,4.35E-03
21890,5.59E-03,4.27E-03
21891,5.58E-03,4.20E-03
21892,5.58E-03,4.12E-03
21893,5.58E-03,4.05E-03
21894,5.58E-03,3.98E-03
21895,5.54E-03,3.91E-03
21896,5.58E-03,3.84E-03
21897,5.62E-03,3.77E-03
21898,5.67E-03,3.70E-03
21899,5.67E-03,3.63E-03
21900,5.62E-03,3.56E-03
21901,5.58E-03,3.50E-03
21902,5.58E-03,3.43E-03
21903,5.58E-03,3.36E-03
21904,5.59E-03,3.29E-03
21905,5.59E-03,3.22E-03
21906,5.59E-03,3.15E-03
21907,5.59E-03,3.08E-03
21908,5.54E-03,3.01E-03
21909,5.50E-03,2.94E-03
21910,5.53E-03,2.87E-03
21911,5.59E-03,2.80E-03
21912,5.67E-03,2.73E-03
21913,5.69E-03,2.66E-03
21914,5.68E-03,2.59E-03
21915,5.66E-03,2.53E-03
21916,5.62E-03,2.47E-03
21917,5.60E-03,2.40E-03
21918,5.59E-03,2.34E-03
21919,5.63E-03,2.28E-03
21920,5.63E-03,2.23E-03
21921,5.63E-03,2.17E-03
21922,5.63E-03,2.12E-03
21923,5.63E-03,2.06E-03
21924,5.63E-03,2.01E-03
21925,5.63E-03,1.97E-03
21926,5.64E-03,1.92E-03
21927,5.64E-03,1.88E-03
21928,5.64E-03,1.83E-03
21929,5.64E-03,1.79E-03
21930,5.64E-03,1.75E-03
21931,5.64E-03,1.72E-03
21932,5.63E-03,1.69E-03
21933,5.64E-03,1.66E-03
21934,5.64E-03,1.63E-03
21935,5.70E-03,1.60E-03
21936,5.67E-03,1.58E-03
21937,5.65E-03,1.56E-03
21938,5.64E-03,1.54E-03
21939,5.64E-03,1.53E-03
21940,5.64E-03,1.51E-03
21941,5.59E-03,1.50E-03
21942,5.54E-03,1.50E-03
21943,5.56E-03,1.49E-03
21944,5.59E-03,1.48E-03
21945,5.64E-03,1.48E-03
21946,5.64E-03,1.47E-03
21947,5.64E-03,1.48E-03
21948,5.64E-03,1.48E-03
21949,5.64E-03,1.48E-03
21950,5.64E-03,1.49E-03
21951,5.64E-03,1.49E-03
21952,5.64E-03,1.50E-03
21953,5.64E-03,1.51E-03
21954,5.68E-03,1.53E-03
21955,5.69E-03,1.54E-03
21956,5.66E-03,1.56E-03
21957,5.67E-03,1.58E-03
21958,5.68E-03,1.60E-03
21959,5.71E-03,1.62E-03
21960,5.68E-03,1.64E-03
21961,5.63E-03,1.67E-03
21962,5.57E-03,1.70E-03
21963,6.02E-03,1.27E-02
21964,6.01E-03,1.28E-02
21965,5.70E-03,2.33E-02
21966,4.82E-03,2.40E-02
21967,4.76E-03,2.41E-02
21968,5.65E-03,2.36E-02
21969,5.62E-03,2.30E-02
21970,6.22E-03,1.25E-02
21971,6.03E-03,1.25E-02
21972,6.21E-03,1.24E-02
21973,6.24E-03,1.23E-02
21974,6.28E-03,1.24E-02
22057,5.61E-03,3.15E-02
22058,4.79E-03,1.65E-02
22059,5.58E-03,8.30E-03
22060,4.95E-03,2.80E-02
22061,6.70E-03,2.80E-02
22062,6.31E-03,2.48E-02
22063,5.96E-03,2.50E-02
22064,5.47E-03,2.58E-02
22065,5.00E-03,7.89E-03
22066,4.87E-03,1.01E-02
22067,4.96E-03,7.21E-03
22068,4.82E-03,9.35E-03
22069,4.98E-03,8.75E-03
22070,4.92E-03,1.11E-02
22071,5.00E-03,1.21E-02
22072,5.02E-03,9.70E-03
22073,6.23E-03,5.51E-02
22074,6.17E-03,5.71E-02
22075,4.70E-03,6.57E-03
22076,6.01E-03,7.14E-03
22077,6.50E-03,7.25E-03
22078,6.98E-03,4.12E-02
22079,7.38E-03,4.03E-02
22080,5.34E-03,4.26E-02
22081,6.89E-03,3.10E-03
22082,7.01E-03,3.10E-03
22083,6.25E-03,3.25E-03
22084,6.21E-03,3.23E-03
22085,6.27E-03,5.49E-02
22086,6.41E-03,5.30E-02
22087,5.72E-03,7.21E-02
22088,5.69E-03,7.05E-02
22089,6.52E-03,7.17E-03
22090,6.78E-03,7.31E-03
22091,6.28E-03,7.32E-03
22092,3.65E-03,3.70E-02
22093,6.29E-03,3.74E-02
22094,6.26E-03,3.77E-02
22095,5.97E-03,2.76E-02
22096,6.83E-03,2.83E-02
22097,6.57E-03,2.55E-02
22098,6.25E-03,2.41E-02
22099,2.16E-03,3.77E-02
22100,3.38E-03,3.71E-02
22101,3.35E-03,3.84E-02
22102,2.09E-03,3.89E-02
22103,2.10E-03,3.85E-02
22104,7.17E-03,4.78E-03
22105,6.96E-03,4.59E-03
22106,6.91E-03,4.56E-03
22107,5.68E-03,4.76E-03
22108,6.36E-03,3.22E-02
22109,6.09E-03,3.55E-02
22110,4.79E-03,3.42E-02
22111,6.77E-03,1.30E-02
22112,6.23E-03,1.08E-02
22113,6.91E-03,3.32E-02
22114,6.85E-03,3.09E-02
22115,6.16E-03,3.33E-02
22116,6.52E-03,0.10291
22117,6.69E-03,9.67E-02
22118,6.49E-03,9.71E-02
22119,2.91E-03,1.33E-02
22120,4.06E-03,1.31E-02
22121,4.32E-03,1.33E-02
22122,3.03E-03,1.35E-02
22123,3.24E-03,1.38E-02
22124,7.46E-03,3.68E-02
22125,7.44E-03,3.44E-02
22126,6.54E-03,3.75E-02
22127,6.00E-03,2.46E-02
22128,5.96E-03,2.39E-02
22129,6.04E-03,2.41E-02
22130,5.01E-03,7.68E-02
22131,4.56E-03,8.33E-02
22132,5.26E-03,8.44E-02
22133,5.69E-03,7.68E-02
22134,5.90E-03,7.31E-02
22135,6.81E-03,7.64E-02
22136,5.16E-03,9.53E-02
22137,8.05E-03,6.24E-03
22138,7.82E-03,6.29E-03
22139,6.69E-03,6.47E-03
22140,5.68E-03,1.78E-02
22141,5.53E-03,1.67E-02
22142,5.85E-03,1.88E-02
22143,5.03E-03,6.84E-03
22144,3.99E-03,6.99E-03
22145,5.54E-03,6.67E-03
22146,5.31E-03,4.03E-02
22147,3.78E-03,3.87E-02
22148,6.94E-03,5.28E-03
22149,7.03E-03,5.14E-03
22150,9.33E-03,3.83E-02
22151,8.25E-03,4.28E-02
22152,3.67E-03,1.27E-02
22153,3.51E-03,1.27E-02
22154,5.32E-03,2.05E-02
22155,4.74E-03,2.23E-02
22156,3.53E-03,3.61E-02
22157,4.86E-03,3.57E-02
22158,4.76E-03,1.09E-02
22159,4.61E-03,1.15E-02
22160,6.64E-03,1.12E-02
22161,6.64E-03,1.12E-02
22162,5.19E-03,3.64E-02
22163,3.96E-03,3.80E-02
22164,4.77E-03,4.46E-03
22165,6.18E-03,4.37E-03
22166,6.07E-03,2.73E-02
22167,4.49E-03,2.70E-02
22168,5.89E-03,1.69E-02
22169,5.85E-03,1.61E-02
22170,5.92E-03,1.80E-02
22171,5.90E-03,1.71E-02
22172,5.52E-03,3.67E-03
22173,6.63E-03,3.57E-03
22174,4.63E-03,3.68E-02
22175,5.07E-03,3.62E-02
22176,5.79E-03,6.44E-03
22177,6.31E-03,6.22E-03
22178,4.67E-03,1.95E-02
22179,3.33E-03,1.98E-02
22180,4.98E-03,1.22E-03
22181,5.02E-03,1.34E-03
22182,6.28E-03,3.98E-02
22183,3.95E-03,6.34E-03
22184,3.09E-03,6.42E-03
22185,3.05E-03,0.1286
22186,5.23E-03,4.13E-02
22187,4.06E-03,4.42E-02
22188,4.17E-03,6.25E-03
22189,6.55E-03,9.00E-03
22190,5.48E-03,8.97E-03
22191,5.35E-03,2.94E-03
22192,6.28E-03,3.06E-03
22193,6.47E-03,4.93E-03
22194,6.44E-03,5.00E-03
22195,4.72E-03,7.64E-03
22196,5.82E-03,7.72E-03
22197,3.99E-03,3.85E-03
22198,3.70E-03,3.77E-03
22199,4.43E-03,3.73E-03
22200,6.88E-03,1.97E-02
22201,6.67E-03,1.94E-02
22202,6.22E-03,1.91E-02
22203,6.35E-03,1.93E-02
22204,6.03E-03,4.87E-03
22205,6.15E-03,5.05E-03
22206,6.24E-03,5.23E-03
22207,9.00E-03,1.75E-02
22208,8.63E-03,1.82E-02
22209,7.47E-03,1.79E-02
22210,7.36E-03,1.72E-02
22211,6.94E-03,1.70E-02
22212,7.62E-03,1.67E-02
22213,5.64E-03,3.91E-02
22214,6.02E-03,7.12E-02
22215,6.04E-03,7.08E-02
22216,5.20E-03,6.66E-02
22217,5.36E-03,6.66E-02
22218,5.59E-03,7.28E-02
22219,5.57E-03,6.99E-02
22220,7.24E-03,9.13E-03
22221,7.77E-03,8.83E-03
22222,7.24E-03,9.10E-03
22223,5.96E-03,1.98E-02
22224,5.82E-03,1.87E-02
22225,5.68E-03,1.76E-02
22226,6.29E-03,0.14851
22227,5.12E-03,0.15845
22228,7.21E-03,0.15408
22229,6.05E-03,5.60E-03
22230,7.13E-03,5.59E-03
22231,6.73E-03,5.59E-03
22232,6.81E-03,8.51E-03
22233,6.88E-03,8.42E-03
22234,6.34E-03,8.44E-03
22235,7.31E-03,1.24E-02
22236,7.16E-03,1.26E-02
22237,2.92E-03,1.59E-03
22238,4.43E-03,1.41E-03
22239,3.19E-03,7.69E-02
22240,4.91E-03,7.65E-02
22241,6.10E-03,5.92E-02
22242,5.44E-03,1.47E-02
22243,4.38E-03,1.52E-02
22244,6.22E-03,4.18E-02
22245,7.59E-03,3.86E-02
22246,5.80E-03,3.69E-02
22247,3.99E-03,7.97E-03
22248,3.60E-03,8.04E-03
22249,3.54E-03,7.67E-03
22250,4.47E-03,7.86E-03
22251,3.79E-03,1.41E-02
22252,4.94E-03,1.44E-02
22253,6.66E-03,9.21E-03
22254,6.34E-03,8.95E-03
22255,5.40E-03,8.97E-03
22256,5.15E-03,9.18E-03
22257,1.36E-03,9.01E-03
22258,3.75E-03,9.12E-03
22259,4.47E-03,9.14E-03
22260,6.40E-03,2.03E-02
22261,4.93E-03,1.77E-02
22262,4.88E-03,1.97E-02
22263,5.91E-03,3.26E-02
22264,5.60E-03,3.34E-02
22265,7.21E-03,1.10E-02
22266,7.21E-03,1.06E-02
22267,7.01E-03,1.08E-02
22268,6.45E-03,1.00E-02
22269,6.84E-03,9.80E-03
22270,5.25E-03,8.17E-03
22271,5.38E-03,8.35E-03
22272,5.28E-03,8.19E-03
22273,5.43E-03,4.18E-02
22274,6.38E-03,3.94E-02
22275,5.45E-03,3.84E-02
22276,4.70E-03,4.03E-02
22277,5.94E-03,3.74E-02
22278,4.39E-03,3.56E-02
22279,5.51E-03,3.99E-02
22280,5.34E-03,4.83E-02
22281,5.31E-03,4.85E-02
22282,5.49E-03,4.67E-02
22283,5.52E-03,4.64E-02
22284,5.99E-03,4.78E-02
22285,5.28E-03,4.97E-02
22286,4.66E-03,4.08E-02
22287,5.48E-03,4.10E-02
22288,5.24E-03,4.12E-02
22289,5.24E-03,1.58E-02
22290,5.63E-03,3.88E-02
22291,4.83E-03,3.96E-02
22292,4.74E-03,4.04E-02
22293,6.13E-03,1.10E-02
22294,4.38E-03,1.05E-02
22295,4.43E-03,1.01E-02
22296,3.69E-03,3.63E-02
22297,5.12E-03,1.44E-02
22298,5.15E-03,1.37E-02
22299,5.36E-03,1.32E-02
22300,5.40E-03,1.40E-02
22301,5.55E-03,4.25E-02
22302,5.01E-03,4.30E-02
22303,5.40E-03,4.02E-02
22304,5.90E-03,1.99E-02
22305,4.87E-03,4.62E-02
22306,5.34E-03,4.41E-02
22307,6.48E-03,4.12E-02
22308,4.78E-03,4.13E-02
22309,5.38E-03,4.27E-02
22310,4.88E-03,4.42E-02
22311,7.19E-03,9.32E-03
22312,7.19E-03,9.21E-03
22313,6.57E-03,5.65E-03
22314,6.31E-03,5.80E-03
22315,4.00E-03,1.26E-02
22316,4.00E-03,1.26E-02
22317,3.81E-03,1.30E-02
22318,4.24E-03,1.29E-02
22319,4.99E-03,1.30E-02
22320,5.09E-03,5.50E-03
22321,6.12E-03,2.76E-02
22322,3.55E-03,2.66E-02
22323,7.22E-03,1.63E-02
22324,7.38E-03,1.60E-02
22325,5.13E-03,7.88E-03
22326,5.51E-03,1.27E-02
22327,3.63E-03,1.29E-02
22328,4.77E-03,1.29E-02
22329,5.09E-03,1.26E-02
22330,6.88E-03,2.64E-02
22331,6.55E-03,2.63E-02
22332,6.17E-03,2.22E-02
22333,4.73E-03,1.97E-02
22334,5.00E-03,5.83E-02
22335,4.28E-03,5.65E-02
22336,4.57E-03,5.99E-02
22337,7.20E-03,6.05E-02
22338,6.43E-03,6.10E-02
22339,6.15E-03,6.46E-02
22340,6.52E-03,6.51E-02
22341,5.68E-03,1.40E-02
22342,5.85E-03,1.41E-02
22343,5.11E-03,6.93E-02
22344,5.65E-03,6.75E-02
22345,6.06E-03,6.55E-02
22346,5.86E-03,4.58E-02
22347,5.86E-03,4.64E-02
22348,6.00E-03,6.25E-02
22349,4.78E-03,5.78E-02
22350,5.55E-03,6.49E-02
22351,6.74E-03,5.41E-03
22352,5.00E-03,5.26E-03
22353,4.89E-03,5.11E-03
22354,3.61E-03,8.72E-02
22355,5.19E-03,8.60E-02
22356,5.89E-03,8.30E-02
22357,5.88E-03,4.76E-03
22358,6.82E-03,4.73E-03
22359,6.36E-03,4.85E-03
22360,7.37E-03,2.61E-02
22361,6.26E-03,2.62E-02
22362,6.87E-03,3.33E-02
22363,6.54E-03,3.34E-02
22364,6.51E-03,3.21E-02
22365,5.20E-03,1.48E-02
22366,5.90E-03,1.45E-02
22367,6.49E-03,4.87E-03
22368,5.23E-03,5.02E-03
22369,4.69E-03,5.17E-03
22370,6.53E-03,2.28E-02
22371,4.82E-03,2.20E-02
22372,6.17E-03,2.36E-02
22373,6.68E-03,9.68E-02
22374,6.60E-03,9.88E-02
22375,6.34E-03,9.50E-02
22376,6.93E-03,1.09E-02
22377,6.62E-03,1.15E-02
22378,6.59E-03,1.05E-02
22379,4.01E-03,9.86E-02
22380,4.71E-03,3.48E-02
22381,6.85E-03,4.38E-02
22382,6.93E-03,4.04E-02
22383,5.99E-03,4.08E-02
22384,5.86E-03,1.40E-02
22385,5.80E-03,1.42E-02
22386,5.36E-03,4.36E-02
22387,6.98E-03,4.30E-02
22388,6.35E-03,4.31E-02
22389,7.98E-03,1.54E-02
22390,4.95E-03,1.53E-02
22391,4.45E-03,1.53E-02
22392,6.14E-03,0.11096
22393,5.80E-03,0.11545
22394,6.59E-03,0.11102
22395,5.12E-03,6.87E-03
22396,3.94E-03,6.16E-02
22397,5.07E-03,5.85E-02
22398,7.24E-03,7.18E-03
22399,7.06E-03,7.01E-03
22400,5.49E-03,7.00E-03
22401,7.92E-03,7.38E-03
22402,7.28E-03,7.23E-03
22403,8.08E-03,7.43E-03
22404,5.68E-03,6.78E-03
22405,6.00E-03,6.91E-03
22406,5.43E-03,7.05E-03
22407,5.59E-03,4.66E-02
22408,6.42E-03,5.99E-02
22409,4.40E-03,6.36E-02
22410,6.22E-03,6.01E-02
22411,6.58E-03,3.48E-02
22412,7.17E-03,3.41E-02
22413,5.69E-03,3.53E-02
22414,7.02E-03,0.24987
22415,7.60E-03,0.24209
22416,7.17E-03,0.20311
22417,5.05E-03,4.22E-03
22418,6.03E-03,4.81E-03
22419,5.83E-03,5.39E-03
22420,4.92E-03,7.37E-03
22421,6.59E-03,1.14E-02
22422,6.52E-03,1.21E-02
22423,5.83E-03,1.20E-02
22424,5.43E-03,7.78E-03
22425,6.26E-03,7.75E-03
22426,5.69E-03,7.61E-03
22427,6.46E-03,0.60675
22428,6.74E-03,0.47699
22429,3.05E-03,7.64E-03
22430,3.40E-03,7.73E-03
22431,2.69E-03,7.67E-03
22432,4.83E-03,7.79E-03
22433,4.14E-03,7.75E-03
22434,5.62E-03,7.69E-03
22435,5.29E-03,7.46E-03
22436,5.55E-03,7.49E-03
22437,5.87E-03,7.71E-03
22438,4.16E-03,1.15E-02
22439,4.96E-03,1.21E-02
22440,4.91E-03,5.03E-02
22441,4.93E-03,5.01E-02
22442,4.02E-03,7.88E-03
22443,3.88E-03,7.83E-03
22444,4.06E-03,7.67E-03
22445,3.33E-03,7.18E-03
22446,3.72E-03,7.25E-03
22447,3.92E-03,7.36E-03
22448,5.57E-03,1.37E-02
22449,6.04E-03,1.28E-02
22450,4.11E-03,4.29E-02
22451,4.22E-03,4.29E-02
22452,4.20E-03,4.21E-02
22453,2.93E-03,1.75E-02
22454,2.28E-03,1.80E-02
22455,2.45E-03,1.79E-02
22456,3.57E-03,2.56E-02
22457,4.32E-03,2.46E-02
22458,3.77E-03,2.23E-02
22459,3.86E-03,2.89E-02
22460,4.83E-03,2.65E-02
22461,3.75E-03,2.53E-02
22462,4.13E-03,2.72E-02
22463,4.17E-03,1.84E-02
22464,5.00E-03,1.76E-02
22465,4.11E-03,1.74E-02
22466,3.08E-03,3.92E-03
22467,3.37E-03,3.87E-03
22468,5.13E-03,2.56E-02
22469,4.52E-03,2.59E-02
22470,3.09E-03,6.49E-03
22471,3.79E-03,6.35E-03
22472,3.46E-03,6.41E-03
22473,3.73E-03,3.24E-02
22474,3.73E-03,3.03E-02
22475,3.77E-03,2.90E-02
22476,4.15E-03,7.04E-02
22477,3.40E-03,7.05E-02
22478,3.63E-03,6.61E-02
22479,3.52E-03,6.20E-02
22480,4.20E-03,5.72E-02
22481,4.18E-03,5.76E-02
22482,3.26E-03,6.98E-03
22483,2.83E-03,6.81E-03
22484,3.86E-03,6.89E-03
22485,4.23E-03,2.65E-02
22486,5.32E-03,2.66E-02
22487,4.04E-03,2.87E-02
22488,3.10E-03,7.51E-02
22489,3.81E-03,7.69E-02
22490,2.84E-03,7.59E-02
22491,5.27E-03,2.57E-02
22492,4.06E-03,2.43E-02
22493,5.94E-03,2.84E-02
22494,4.74E-03,1.11E-02
22495,5.54E-03,1.10E-02
22496,4.27E-03,1.09E-02
22497,3.23E-03,8.91E-02
22498,3.20E-03,8.99E-02
22499,3.16E-03,0.10196
22500,3.09E-03,9.92E-02
22501,3.28E-03,9.45E-02
22502,2.89E-03,1.92E-02
22503,3.04E-03,1.90E-02
22504,3.36E-03,1.86E-02
22505,3.64E-03,2.96E-02
22506,4.43E-03,2.82E-02
22507,4.03E-03,2.93E-02
22508,5.14E-03,0.15849
22509,5.81E-03,0.18806
22510,5.15E-03,0.1956
22511,5.65E-03,0.16344
22512,4.08E-03,0.19721
22513,4.40E-03,0.19089
22514,4.01E-03,0.17112
22515,3.13E-03,0.17169
22516,2.88E-03,0.16737
22517,2.90E-03,0.15714
22518,3.63E-03,2.24E-02
22519,4.83E-03,2.31E-02
22520,3.95E-03,2.33E-02
22521,3.69E-03,2.38E-02
22522,4.25E-03,2.31E-02
22523,4.10E-03,2.36E-02
22524,4.26E-03,0.24487
22525,4.40E-03,0.27548
22526,4.72E-03,0.27549
22527,3.63E-03,2.58E-02
22528,3.20E-03,2.33E-02
22529,3.58E-03,2.36E-02
22530,2.99E-03,8.79E-03
22531,3.64E-03,8.93E-03
22532,3.70E-03,8.38E-03
22533,4.46E-03,5.28E-04
22534,4.17E-03,6.95E-04
22535,4.72E-03,8.30E-04
22536,4.04E-03,6.51E-03
22537,3.66E-03,6.58E-03
22538,3.11E-03,7.90E-03
22539,3.01E-03,7.88E-03
22540,3.26E-03,7.79E-03
22541,3.47E-03,7.82E-02
22542,4.01E-03,7.39E-02
22543,3.57E-03,7.67E-02
22544,3.60E-03,1.48E-02
22545,3.60E-03,1.68E-02
22546,4.17E-03,1.65E-02
22547,5.37E-03,5.02E-03
22548,5.43E-03,5.04E-03
22549,4.71E-03,4.88E-03
22550,2.92E-03,8.74E-03
22551,3.32E-03,8.74E-03
22552,3.42E-03,8.64E-03
22553,4.15E-03,8.46E-02
22554,3.91E-03,8.60E-02
22555,3.67E-03,8.74E-02
22556,4.09E-03,6.09E-03
22557,3.98E-03,6.17E-03
22558,5.26E-03,6.23E-03
22559,4.19E-03,4.90E-03
22560,4.08E-03,4.95E-03
22561,4.16E-03,5.07E-03
22562,4.21E-03,0.33003
22563,4.11E-03,0.35215
22564,4.03E-03,0.36162
22565,3.20E-03,4.31E-02
22566,3.70E-03,4.35E-02
22567,3.80E-03,4.29E-02
22568,4.24E-03,1.60E-03
22569,4.98E-03,1.53E-03
22570,4.59E-03,4.23E-02
22571,3.72E-03,4.15E-02
22572,5.50E-03,1.97E-02
22573,5.83E-03,1.92E-02
22574,5.68E-03,6.85E-03
22575,6.07E-03,7.04E-03
22576,7.03E-03,4.68E-02
22577,5.28E-03,4.79E-02
22578,6.08E-03,3.52E-02
22579,5.84E-03,3.40E-02
22580,6.10E-03,3.28E-02
22581,6.04E-03,1.88E-02
22582,7.49E-03,4.40E-02
22583,5.36E-03,4.13E-02
22584,7.38E-03,4.41E-02
22585,5.12E-03,4.66E-02
22586,5.69E-03,1.03E-02
22587,7.56E-03,1.05E-02
22588,5.42E-03,1.37E-02
22589,6.42E-03,1.35E-02
22590,7.53E-03,2.79E-02
22591,5.42E-03,2.81E-02
22592,7.54E-03,2.58E-02
22593,4.90E-03,4.36E-02
22594,9.10E-03,2.69E-02
22595,6.02E-03,2.60E-02
22596,5.79E-03,2.70E-02
22597,8.43E-03,2.62E-02
22598,5.15E-03,4.14E-02
22599,6.54E-03,7.20E-03
22600,9.06E-03,1.07E-02
22601,7.02E-03,1.25E-02
22602,5.52E-03,5.91E-03
22603,5.37E-03,5.91E-03
22604,4.50E-03,5.71E-03
22605,5.10E-03,5.73E-03
22606,5.94E-03,5.34E-03
22607,6.05E-03,1.62E-02
22608,6.06E-03,1.85E-02
22609,7.00E-03,4.93E-03
22610,5.21E-03,4.77E-03
22611,5.04E-03,5.03E-03
22612,5.24E-03,3.01E-02
22613,5.92E-03,2.02E-02
22614,6.11E-03,2.01E-02
22615,5.21E-03,3.62E-02
22616,5.10E-03,3.73E-02
22617,5.45E-03,3.48E-02
22618,5.13E-03,4.41E-02
22619,5.56E-03,4.28E-02
22620,4.91E-03,4.50E-02
22621,6.42E-03,2.79E-02
22622,5.97E-03,2.55E-02
22623,6.95E-03,2.92E-02
22624,8.21E-03,3.32E-02
22625,7.17E-03,4.77E-02
22626,8.33E-03,4.99E-02
22627,6.28E-03,5.80E-02
22628,5.69E-03,5.63E-02
22629,5.84E-03,1.68E-02
22630,4.96E-03,1.86E-02
22631,6.24E-03,1.52E-02
22632,7.61E-03,2.51E-02
22633,5.64E-03,2.52E-02
22634,6.30E-03,2.37E-02
22635,5.31E-03,2.35E-02
22636,9.10E-03,4.34E-02
22637,6.10E-03,1.81E-02
22638,8.02E-03,1.87E-02
22639,5.18E-03,1.76E-02
22640,6.95E-03,3.09E-02
22641,6.16E-03,2.92E-02
22642,6.07E-03,3.24E-02
22643,6.53E-03,1.71E-02
22644,5.05E-03,1.84E-03
22645,5.95E-03,2.02E-03
22646,5.91E-03,1.88E-03
22647,4.49E-03,2.07E-03
22648,4.46E-03,7.05E-03
22649,5.78E-03,7.04E-03
22650,5.88E-03,6.52E-04
22651,7.41E-03,9.20E-04
22652,6.09E-03,1.23E-03
22653,6.63E-03,4.01E-02
22654,5.45E-03,7.47E-02
22655,6.75E-03,8.63E-03
22656,5.19E-03,8.62E-03
22657,4.92E-03,8.77E-03
22658,6.93E-03,8.74E-03
22659,6.47E-03,9.05E-03
22660,4.85E-03,9.24E-03
22661,5.50E-03,3.25E-02
22662,5.39E-03,3.32E-02
22663,5.49E-03,3.41E-02
22664,5.46E-03,3.33E-02
22665,6.60E-03,2.36E-02
22666,6.09E-03,2.39E-02
22667,6.05E-03,2.46E-02
22668,5.91E-03,2.48E-02
22669,7.81E-03,1.62E-02
22670,5.16E-03,1.57E-02
22671,4.95E-03,1.62E-02
22672,6.20E-03,1.55E-02
22673,5.52E-03,1.66E-02
22674,6.15E-03,5.52E-02
22675,6.11E-03,5.28E-02
22676,6.09E-03,5.27E-02
22677,6.04E-03,5.04E-02
22678,3.65E-03,5.92E-03
22679,5.79E-03,6.05E-03
22680,5.24E-03,6.37E-03
22681,4.79E-03,6.23E-03
22682,6.57E-03,4.97E-02
22683,6.59E-03,4.85E-02
22684,6.75E-03,4.87E-02
22685,7.19E-03,4.75E-02
22686,6.79E-03,3.01E-02
22687,6.69E-03,3.01E-02
22688,6.54E-03,2.93E-02
22689,6.56E-03,2.94E-02
22690,5.19E-03,2.63E-02
22691,5.34E-03,2.63E-02
22692,5.34E-03,2.41E-02
22693,5.55E-03,2.42E-02
22694,5.03E-03,3.69E-03
22695,5.36E-03,3.55E-03
22696,4.75E-03,3.70E-03
22697,4.29E-03,3.85E-03
22698,5.57E-03,5.51E-03
22699,5.62E-03,5.30E-03
22700,5.97E-03,5.10E-03
22701,5.71E-03,5.31E-03
22702,6.28E-03,2.53E-02
22703,6.40E-03,2.52E-02
22704,6.33E-03,2.58E-02
22705,6.33E-03,2.58E-02
22706,5.81E-03,8.07E-02
22707,6.08E-03,7.81E-02
22708,6.73E-03,7.71E-02
22709,5.85E-03,7.43E-02
22710,6.07E-03,2.05E-02
22711,6.25E-03,2.03E-02
22712,6.21E-03,1.99E-02
22713,6.54E-03,3.02E-02
22714,6.60E-03,3.04E-02
22715,6.63E-03,3.10E-02
22716,6.68E-03,3.11E-02
22717,5.43E-03,2.89E-02
22718,5.29E-03,2.91E-02
22719,5.46E-03,2.77E-02
22720,7.63E-03,2.79E-02
22721,5.95E-03,3.31E-02
22722,5.92E-03,3.74E-02
22723,6.30E-03,3.99E-02
22724,5.76E-03,4.52E-02
22725,5.45E-03,3.26E-02
22726,5.64E-03,3.21E-02
22727,5.33E-03,3.27E-02
22728,5.65E-03,3.21E-02
22729,4.93E-03,3.23E-02
22730,5.46E-03,7.46E-03
22731,5.64E-03,7.62E-03
22732,6.00E-03,7.74E-03
22733,5.70E-03,7.58E-03
22734,5.63E-03,6.22E-02
22735,5.62E-03,5.89E-02
22736,5.73E-03,5.52E-02
22737,5.71E-03,5.81E-02
22738,6.25E-03,7.40E-03
22739,6.81E-03,7.25E-03
22740,5.73E-03,7.32E-03
22741,5.30E-03,7.19E-03
22742,6.65E-03,0.15852
22743,4.60E-03,0.1502
22744,4.11E-03,0.12227
22745,5.00E-03,0.10833
22746,4.72E-03,0.13679
22747,4.68E-03,2.40E-02
22748,6.03E-03,2.16E-02
22749,6.62E-03,2.11E-02
22750,6.78E-03,3.21E-03
22751,5.45E-03,3.07E-02
22752,5.68E-03,1.05E-02
22753,5.55E-03,9.86E-03
22754,5.32E-03,2.59E-03
22755,4.50E-03,3.16E-03
22756,6.69E-03,2.14E-02
22757,6.32E-03,2.04E-02
22758,6.97E-03,2.18E-03
22759,5.08E-03,2.19E-03
22760,5.41E-03,4.65E-02
22761,5.68E-03,4.45E-02
22762,4.99E-03,6.84E-03
22763,4.62E-03,6.81E-03
22764,6.48E-03,6.93E-03
22765,6.88E-03,6.87E-03
22766,6.16E-03,7.24E-03
22767,6.28E-03,7.36E-03
22768,5.54E-03,0.10325
22769,5.69E-03,0.10389
22770,6.99E-03,7.07E-03
22771,6.19E-03,6.96E-03
22772,5.70E-03,7.87E-03
22773,6.27E-03,7.73E-03
22774,5.41E-03,8.13E-03
22775,5.22E-03,8.05E-03
22776,4.35E-03,1.93E-02
22777,3.39E-03,1.98E-02
22778,5.17E-03,4.39E-02
22779,4.69E-03,4.36E-02
22780,6.66E-03,4.14E-02
22781,5.47E-03,3.88E-02
22782,5.55E-03,1.23E-02
22783,5.67E-03,1.25E-02
22784,6.44E-03,6.26E-02
22785,6.27E-03,6.29E-02
22786,5.48E-03,1.03E-02
22787,5.33E-03,1.05E-02
22788,6.85E-03,5.17E-03
22789,6.81E-03,5.43E-03
22790,6.41E-03,5.29E-03
22791,5.53E-03,1.29E-02
22792,5.96E-03,1.34E-02
22793,5.53E-03,8.58E-03
22794,5.62E-03,8.51E-03
22795,6.23E-03,1.35E-02
22796,5.42E-03,1.55E-02
22797,6.16E-03,1.35E-02
22798,5.79E-03,2.47E-02
22799,6.46E-03,2.47E-02
22800,6.71E-03,4.58E-02
22801,6.20E-03,4.83E-02
22802,5.08E-03,1.04E-02
22803,5.04E-03,1.02E-02
22804,4.92E-03,8.41E-03
22805,4.98E-03,8.37E-03
22806,6.71E-03,8.45E-03
22807,4.98E-03,4.92E-03
22808,6.25E-03,5.88E-03
22809,6.52E-03,2.95E-02
22810,6.71E-03,2.95E-02
22811,6.70E-03,1.56E-02
22812,6.30E-03,1.32E-02
22813,4.65E-03,3.00E-02
22814,5.98E-03,7.61E-03
22815,6.04E-03,7.49E-03
22816,5.58E-03,7.85E-03
22817,6.17E-03,7.83E-03
22818,5.65E-03,9.58E-03
22819,5.29E-03,1.03E-02
22820,4.96E-03,1.00E-02
22821,5.37E-03,8.84E-03
22822,5.44E-03,8.71E-03
22823,4.45E-03,8.00E-03
22824,4.20E-03,7.96E-03
22825,4.23E-03,7.95E-03
22826,6.09E-03,1.93E-02
22827,5.06E-03,1.88E-02
22828,5.68E-03,1.84E-02
22829,5.91E-03,9.07E-03
22830,5.75E-03,9.01E-03
22831,6.03E-03,2.02E-02
22832,6.18E-03,2.05E-02
22833,5.33E-03,9.94E-03
22834,5.24E-03,9.91E-03
22835,4.85E-03,8.11E-03
22836,4.70E-03,7.75E-03
22837,5.03E-03,4.07E-02
22838,4.93E-03,4.07E-02
22839,4.79E-03,2.62E-02
22840,4.82E-03,2.67E-02
22841,4.91E-03,3.93E-02
22842,5.52E-03,3.84E-02
22843,5.23E-03,4.01E-02
22844,6.40E-03,4.02E-02
22845,6.05E-03,3.92E-02
22846,4.14E-03,8.21E-03
22847,4.81E-03,7.93E-03
22848,5.16E-03,7.95E-03
22849,4.82E-03,8.14E-03
22850,3.47E-03,8.20E-03
22851,3.28E-03,8.31E-03
22852,5.63E-03,1.29E-02
22853,5.56E-03,1.32E-02
22854,4.91E-03,9.02E-03
22855,6.80E-03,1.09E-02
22856,6.29E-03,9.88E-03
22857,3.47E-03,1.11E-02
22858,3.98E-03,1.12E-02
22859,5.33E-03,1.30E-02
22860,4.63E-03,1.24E-02
22861,4.68E-03,1.16E-02
22862,4.89E-03,1.10E-02
22863,6.16E-03,2.21E-02
22864,6.28E-03,2.22E-02
22865,6.59E-03,9.20E-03
22866,7.16E-03,9.40E-03
22867,6.50E-03,2.33E-02
22868,6.93E-03,2.40E-02
22869,4.96E-03,4.66E-02
22870,6.92E-03,4.87E-02
22871,5.16E-03,4.75E-02
22872,5.18E-03,5.36E-03
22873,5.23E-03,6.14E-03
22874,5.17E-03,4.83E-03
22875,4.12E-03,1.14E-02
22876,4.51E-03,1.13E-02
22877,4.49E-03,1.19E-02
22878,4.61E-03,1.20E-02
22879,5.74E-03,1.27E-02
22880,6.23E-03,1.24E-02
22881,4.50E-03,1.21E-02
22882,4.92E-03,5.96E-03
22883,4.97E-03,6.15E-03
22884,5.19E-03,6.02E-03
22885,5.30E-03,5.83E-03
22886,2.79E-03,5.86E-03
22887,5.51E-03,5.75E-03
22888,6.03E-03,5.19E-02
22889,5.57E-03,5.07E-02
22890,6.36E-03,4.75E-02
22891,5.55E-03,5.28E-03
22892,6.12E-03,5.47E-03
22893,4.76E-03,5.61E-03
22894,6.09E-03,9.10E-03
22895,6.06E-03,8.92E-03
22896,5.29E-03,8.39E-03
22897,4.87E-03,8.25E-03
22898,6.60E-03,4.64E-03
22899,5.13E-03,4.62E-03
22900,5.63E-03,1.48E-02
22901,7.06E-03,1.58E-02
22902,5.68E-03,1.51E-02
22903,5.59E-03,6.51E-03
22904,5.48E-03,6.41E-03
22905,2.56E-03,4.03E-03
22906,3.76E-03,4.19E-03
22907,5.45E-03,6.62E-02
22908,5.18E-03,6.67E-02
22909,6.75E-03,9.46E-03
22910,6.80E-03,9.27E-03
22911,5.72E-03,2.50E-02
22912,5.71E-03,2.75E-02
22913,6.05E-03,7.55E-02
22914,5.92E-03,7.22E-02
22915,6.17E-03,8.09E-03
22916,4.82E-03,8.53E-03
22917,5.85E-03,2.22E-02
22918,6.24E-03,2.23E-02
22919,5.03E-03,2.80E-02
22920,7.09E-03,3.04E-02
22921,7.09E-03,2.83E-02
22922,6.46E-03,2.38E-02
22923,6.83E-03,2.45E-02
22924,4.49E-03,7.81E-03
22925,4.57E-03,8.22E-02
22926,5.11E-03,8.23E-02
22927,5.67E-03,8.09E-03
22928,5.46E-03,7.96E-03
22929,6.21E-03,3.90E-02
22930,6.20E-03,3.95E-02
22931,5.18E-03,5.19E-02
22932,5.17E-03,5.14E-02
22933,5.24E-03,5.08E-02
22934,6.64E-03,1.47E-02
22935,5.11E-03,1.44E-02
22936,5.06E-03,3.42E-02
22937,5.41E-03,3.37E-02
22938,8.07E-03,3.22E-02
22939,5.76E-03,1.14E-02
22940,5.92E-03,1.16E-02
22941,5.43E-03,4.62E-03
22942,5.35E-03,4.82E-03
22943,5.98E-03,3.78E-02
22944,5.89E-03,3.51E-02
22945,6.02E-03,3.49E-02
22946,6.15E-03,3.76E-02
22947,5.86E-03,4.02E-02
22948,7.28E-03,2.39E-02
22949,5.19E-03,8.39E-02
22950,6.05E-03,8.19E-02
22951,5.96E-03,8.73E-02
22952,5.84E-03,8.76E-02
22953,5.93E-03,1.13E-02
22954,5.72E-03,1.14E-02
22955,5.40E-03,1.12E-02
22956,6.24E-03,2.21E-02
22957,3.65E-03,9.49E-02
22958,2.95E-03,8.85E-02
22959,2.77E-03,8.96E-02
22960,3.38E-03,9.81E-02
22961,4.21E-03,0.10462
22962,4.13E-03,0.10326
22963,4.46E-03,5.78E-03
22964,5.37E-03,5.95E-03
22965,5.65E-03,2.68E-03
22966,5.49E-03,2.89E-03
22967,5.96E-03,1.86E-02
22968,5.10E-03,1.78E-02
22969,4.74E-03,1.79E-02
22970,5.93E-03,1.87E-02
22971,6.61E-03,1.93E-02
22972,6.28E-03,3.50E-02
22973,6.23E-03,3.72E-02
22974,3.97E-03,3.50E-02
22975,4.46E-03,3.45E-02
22976,3.56E-03,3.43E-02
22977,3.99E-03,3.46E-02
22978,4.11E-03,3.54E-02
22979,4.36E-03,6.72E-03
22980,5.31E-03,0.10942
22981,6.29E-03,0.10525
22982,5.51E-03,0.10301
22983,5.21E-03,3.36E-02
22984,6.72E-03,3.75E-02
22985,6.62E-03,6.40E-03
22986,6.90E-03,6.40E-03
22987,4.79E-03,0.13312
22988,4.42E-03,0.1332
22989,5.27E-03,1.41E-02
22990,5.93E-03,5.39E-02
22991,4.43E-03,5.41E-02
22992,6.92E-03,9.68E-02
22993,7.10E-03,9.62E-02
22994,6.61E-03,1.21E-02
22995,7.15E-03,1.22E-02
22996,4.79E-03,3.51E-02
22997,4.97E-03,3.46E-02
22998,4.28E-03,6.20E-03
22999,5.49E-03,6.28E-03
23000,5.22E-03,6.31E-03
23001,4.87E-03,6.21E-03
23002,5.47E-03,1.25E-02
23003,5.15E-03,1.29E-02
23004,5.76E-03,6.26E-03
23005,4.90E-03,6.22E-03
23006,5.61E-03,7.19E-03
23007,4.95E-03,0.15092
23008,5.10E-03,0.15239
23009,5.35E-03,6.74E-03
23010,5.16E-03,6.66E-03
23011,5.48E-03,5.42E-02
23012,5.30E-03,5.56E-02
23013,5.61E-03,3.06E-02
23014,5.57E-03,3.17E-02
23015,4.78E-03,2.70E-02
23016,6.10E-03,2.77E-02
23017,4.87E-03,4.17E-02
23018,4.62E-03,4.25E-02
23019,4.86E-03,4.27E-02
23020,5.00E-03,4.18E-02
23021,3.88E-03,4.32E-02
23022,4.08E-03,4.40E-02
23023,3.57E-03,4.42E-02
23024,4.23E-03,4.35E-02
23025,4.41E-03,3.79E-02
23026,4.99E-03,3.74E-02
23027,4.02E-03,3.67E-02
23028,3.98E-03,3.69E-02
23029,5.33E-03,2.74E-02
23030,5.00E-03,2.73E-02
23031,4.10E-03,2.78E-02
23032,4.12E-03,7.79E-03
23033,4.61E-03,7.85E-03
23034,4.76E-03,2.55E-02
23035,3.35E-03,8.14E-03
23036,4.67E-03,8.22E-03
23037,3.17E-03,7.14E-03
23038,4.00E-03,6.98E-03
23039,4.04E-03,7.13E-03
23040,2.55E-03,7.51E-03
23041,4.30E-03,7.58E-03
23042,3.88E-03,7.65E-03
23043,1.89E-03,1.82E-02
23044,3.36E-03,1.84E-02
23045,3.52E-03,1.82E-02
23046,2.50E-03,1.12E-02
23047,3.07E-03,1.10E-02
23048,2.89E-03,1.11E-02
23049,2.49E-03,5.46E-02
23050,3.98E-03,5.72E-02
23051,3.72E-03,5.59E-02
23052,3.06E-03,1.32E-02
23053,3.92E-03,1.32E-02
23054,1.85E-03,4.15E-03
23055,2.08E-03,4.08E-03
23056,2.58E-03,4.17E-03
23057,2.46E-03,1.67E-02
23058,3.17E-03,1.69E-02
23059,3.19E-03,1.66E-02
23060,2.86E-03,6.69E-03
23061,4.29E-03,6.81E-03
23062,2.53E-03,1.62E-02
23063,4.07E-03,1.59E-02
23064,3.83E-03,1.57E-02
23065,2.95E-03,1.41E-02
23066,3.37E-03,1.40E-02
23067,4.33E-03,1.38E-02
23068,4.43E-03,3.84E-02
23069,5.35E-03,4.11E-02
23070,2.37E-03,6.81E-03
23071,4.30E-03,6.87E-03
23072,3.82E-03,6.78E-03
23073,3.40E-03,3.09E-02
23074,4.44E-03,3.08E-02
23075,2.88E-03,3.29E-03
23076,4.32E-03,3.22E-03
23077,3.91E-03,3.03E-03
23078,4.19E-03,7.44E-02
23079,3.05E-03,6.58E-02
23080,2.09E-03,1.77E-02
23081,2.88E-03,1.77E-02
23082,2.97E-03,1.82E-02
23083,3.60E-03,5.98E-02
23084,3.82E-03,5.60E-02
23085,3.60E-03,5.98E-02
23086,3.31E-03,4.22E-02
23087,4.36E-03,4.15E-02
23088,3.90E-03,4.15E-02
23089,2.91E-03,9.27E-02
23090,3.89E-03,9.57E-02
23091,3.40E-03,9.36E-02
23092,2.17E-03,3.99E-03
23093,3.16E-03,4.00E-03
23094,3.24E-03,4.13E-03
23095,2.01E-03,4.19E-02
23096,2.68E-03,4.19E-02
23097,2.37E-03,4.23E-02
23098,5.75E-03,1.47E-02
23099,6.45E-03,6.18E-02
23100,6.59E-03,5.24E-02
23101,7.06E-03,7.66E-03
23102,3.74E-03,7.32E-02
23103,4.43E-03,5.47E-03
23104,3.76E-03,1.14E-02
23105,4.83E-03,8.08E-03
23106,5.29E-03,3.33E-02
23107,4.99E-03,3.78E-02
23108,5.57E-03,8.57E-03
23109,4.44E-03,1.13E-02
23110,4.55E-03,3.66E-02
23111,3.20E-03,9.01E-03
23112,4.58E-03,8.74E-03
23113,5.13E-03,8.44E-03
23114,5.05E-03,8.51E-03
23115,3.26E-03,9.16E-03
23116,4.94E-03,8.54E-03
23117,4.70E-03,8.84E-03
23118,5.17E-03,8.29E-03
23119,4.87E-03,8.34E-03
23120,5.67E-03,8.28E-03
23121,4.06E-03,8.99E-03
23122,4.31E-03,9.25E-03
23123,4.96E-03,9.09E-03
23124,5.35E-03,1.83E-02
23125,5.07E-03,1.63E-02
23126,4.97E-03,8.63E-03
23127,4.93E-03,8.40E-03
23128,4.39E-03,8.68E-03
23129,4.18E-03,8.75E-03
23130,5.18E-03,1.82E-02
23131,4.94E-03,8.91E-03
23132,4.15E-03,8.16E-03
23133,4.73E-03,8.18E-03
23134,4.95E-03,8.09E-03
23135,5.01E-03,8.55E-03
23136,6.49E-03,8.39E-03
23137,3.95E-03,8.76E-03
23138,4.22E-03,9.01E-03
23139,5.04E-03,8.43E-03
23140,5.06E-03,8.69E-03
23141,5.47E-03,1.77E-02
23142,5.35E-03,1.57E-02
23143,5.15E-03,8.20E-03
23144,5.28E-03,8.21E-03
23145,5.51E-03,8.00E-03
23146,5.32E-03,8.00E-03
23147,4.17E-03,8.14E-03
23148,4.82E-03,1.44E-02
23149,5.19E-03,8.46E-03
23150,5.35E-03,8.22E-03
23151,6.03E-03,1.83E-02
23152,5.60E-03,1.50E-02
23153,4.87E-03,1.33E-02
23154,5.99E-03,1.79E-02
23155,5.98E-03,1.84E-02
23156,5.66E-03,1.70E-02
23157,5.75E-03,1.91E-02
23158,5.64E-03,8.00E-03
23159,5.00E-03,7.58E-03
23160,5.91E-03,7.73E-03
23161,4.72E-03,7.65E-03
23162,4.36E-03,7.66E-03
23163,5.86E-03,2.01E-02
23164,5.33E-03,9.31E-03
23165,5.59E-03,1.96E-02
23166,4.47E-03,8.70E-03
23167,5.56E-03,2.00E-02
23168,6.31E-03,9.45E-03
23169,7.10E-03,1.85E-02
23170,5.38E-03,1.68E-02
23171,5.00E-03,1.21E-02
23172,5.30E-03,9.24E-03
23173,6.05E-03,1.54E-02
23174,5.87E-03,1.63E-02
23175,3.39E-03,7.73E-03
23176,4.97E-03,8.19E-03
23177,5.34E-03,8.70E-03
23178,5.34E-03,8.70E-03
23179,5.32E-03,8.79E-03
23180,5.30E-03,8.76E-03
23181,6.43E-03,9.76E-03
23182,5.59E-03,9.89E-03
23183,5.26E-03,8.66E-03
23184,3.85E-03,7.79E-03
23185,5.75E-03,8.08E-03
23186,6.68E-03,8.20E-03
23187,4.83E-03,9.79E-03
23188,5.39E-03,1.01E-02
23189,5.38E-03,8.58E-03
23190,5.26E-03,8.70E-03
23191,3.97E-03,8.95E-03
23192,5.44E-03,8.63E-03
23193,5.54E-03,8.62E-03
23194,5.47E-03,8.73E-03
23195,4.58E-03,9.64E-03
23196,4.99E-03,8.96E-03
23197,5.48E-03,1.51E-02
23198,7.43E-03,1.59E-02
23199,4.26E-03,1.53E-02
23200,4.99E-03,1.36E-02
23201,5.30E-03,1.40E-02
23202,5.91E-03,2.05E-02
23203,5.36E-03,8.64E-03
23204,4.56E-03,8.68E-03
23205,6.54E-03,8.58E-03
23206,5.55E-03,8.66E-03
23207,5.22E-03,8.01E-03
23208,4.85E-03,8.08E-03
23209,5.52E-03,8.54E-03
23210,5.42E-03,8.57E-03
23211,4.86E-03,9.24E-03
23212,6.12E-03,8.42E-03
23213,5.66E-03,8.61E-03
23214,5.64E-03,8.50E-03
23215,5.18E-03,1.38E-02
23216,5.51E-03,1.19E-02
23217,5.68E-03,2.04E-02
23218,5.38E-03,7.86E-03
23219,5.07E-03,8.09E-03
23220,6.52E-03,1.89E-02
23221,6.42E-03,1.63E-02
23222,6.33E-03,9.67E-03
23223,5.32E-03,1.05E-02
23224,5.11E-03,8.73E-03
23225,5.28E-03,8.48E-03
23226,4.87E-03,1.25E-02
23227,6.07E-03,1.02E-02
23228,5.78E-03,2.16E-02
23229,5.71E-03,2.21E-02
23230,5.48E-03,7.74E-03
23231,5.47E-03,1.11E-02
23232,5.44E-03,8.22E-03
23233,5.71E-03,8.76E-03
23234,6.04E-03,8.81E-03
23235,5.57E-03,1.29E-02
23236,5.29E-03,1.17E-02
23237,4.55E-03,8.62E-03
23238,5.55E-03,7.98E-03
23239,4.91E-03,8.69E-03
23240,3.83E-03,1.28E-02
23241,4.94E-03,1.21E-02
23242,4.80E-03,1.23E-02
23243,5.07E-03,8.78E-03
23244,4.75E-03,1.30E-02
23245,4.52E-03,1.34E-02
23246,3.69E-03,1.33E-02
23247,4.23E-03,1.37E-02
23248,5.77E-03,1.02E-02
23249,5.86E-03,1.01E-02
23250,5.94E-03,1.16E-02
23251,5.19E-03,7.81E-03
23252,5.34E-03,8.93E-03
23253,5.43E-03,8.86E-03
23254,4.60E-03,7.69E-03
23255,5.22E-03,7.67E-03
23256,4.65E-03,7.73E-03
23257,5.80E-03,2.16E-02
23258,5.45E-03,2.06E-02
23259,6.52E-03,1.80E-02
23260,3.61E-03,1.72E-02
23261,4.70E-03,1.52E-02
23262,4.91E-03,1.34E-02
23263,5.74E-03,8.04E-03
23264,5.91E-03,8.11E-03
23265,5.93E-03,8.50E-03
23266,5.94E-03,8.09E-03
23267,5.34E-03,8.20E-03
23268,5.07E-03,1.15E-02
23269,5.59E-03,1.09E-02
23270,6.23E-03,1.15E-02
23271,4.07E-03,1.22E-02
23272,4.20E-03,9.23E-03
23273,6.40E-03,8.58E-03
23274,5.44E-03,8.80E-03
23275,4.28E-03,8.80E-03
23276,5.86E-03,8.59E-03
23277,5.83E-03,8.79E-03
23278,6.21E-03,8.84E-03
23279,5.63E-03,8.75E-03
23280,4.58E-03,9.24E-03
23281,6.41E-03,8.57E-03
23282,6.08E-03,1.37E-02
23283,5.81E-03,1.43E-02
23284,6.77E-03,1.51E-02
23285,5.88E-03,2.11E-02
23286,5.30E-03,8.66E-03
23287,5.10E-03,8.03E-03
23288,3.82E-03,7.55E-03
23289,4.12E-03,7.65E-03
23290,5.36E-03,7.68E-03
23291,5.35E-03,7.70E-03
23292,5.55E-03,8.49E-03
23293,5.48E-03,8.54E-03
23294,5.64E-03,1.04E-02
23295,5.41E-03,8.98E-03
23296,4.79E-03,9.18E-03
23297,5.44E-03,8.89E-03
23298,4.96E-03,9.69E-03
23299,6.04E-03,8.38E-03
23300,5.83E-03,8.46E-03
23301,5.35E-03,1.32E-02
23302,6.08E-03,1.34E-02
23303,5.84E-03,1.23E-02
23304,6.04E-03,2.27E-02
23305,5.90E-03,2.10E-02
23306,5.33E-03,8.61E-03
23307,5.75E-03,8.58E-03
23308,5.30E-03,7.89E-03
23309,5.10E-03,8.00E-03
23310,4.58E-03,7.77E-03
23311,4.87E-03,7.67E-03
23312,4.75E-03,7.77E-03
23313,5.14E-03,7.78E-03
23314,6.05E-03,8.23E-03
23315,7.63E-03,8.82E-03
23316,5.67E-03,8.72E-03
23317,5.93E-03,1.97E-02
23318,5.86E-03,1.74E-02
23319,5.42E-03,9.54E-03
23320,5.47E-03,9.01E-03
23321,5.08E-03,1.02E-02
23322,4.95E-03,9.01E-03
23323,5.15E-03,8.76E-03
23324,5.61E-03,8.44E-03
23325,5.11E-03,1.19E-02
23326,5.93E-03,1.02E-02
23327,5.73E-03,2.27E-02
23328,5.36E-03,7.80E-03
23329,5.49E-03,8.01E-03
23330,4.87E-03,7.95E-03
23331,5.97E-03,2.37E-02
23332,5.73E-03,2.43E-02
23333,5.77E-03,1.38E-02
23334,5.30E-03,1.07E-02
23335,5.33E-03,8.49E-03
23336,5.88E-03,8.74E-03
23337,5.96E-03,8.80E-03
23338,5.16E-03,1.07E-02
23339,5.23E-03,7.79E-03
23340,6.23E-03,8.91E-03
23341,6.78E-03,8.72E-03
23342,6.17E-03,8.73E-03
23343,6.02E-03,8.91E-03
23344,5.59E-03,8.66E-03
23345,5.67E-03,7.83E-03
23346,6.30E-03,8.14E-03
23347,3.67E-03,9.24E-03
23348,3.90E-03,9.76E-03
23349,3.88E-03,1.37E-02
23350,4.06E-03,1.36E-02
23351,5.18E-03,1.31E-02
23352,5.49E-03,8.23E-03
23353,5.63E-03,1.06E-02
23354,5.43E-03,9.79E-03
23355,6.71E-03,8.62E-03
23356,6.60E-03,9.99E-03
23357,6.78E-03,8.80E-03
23358,4.75E-03,8.69E-03
23359,5.89E-03,8.62E-03
23360,5.62E-03,8.42E-03
23361,5.99E-03,8.91E-03
23362,4.73E-03,1.25E-02
23363,4.03E-03,8.83E-03
23364,4.75E-03,1.39E-02
23365,5.86E-03,1.00E-02
23366,5.73E-03,1.06E-02
23367,5.74E-03,1.05E-02
23368,5.05E-03,1.18E-02
23369,5.53E-03,7.98E-03
23370,5.91E-03,9.15E-03
23371,4.93E-03,7.86E-03
23372,4.43E-03,7.73E-03
23373,5.39E-03,2.32E-02
23374,5.04E-03,2.25E-02
23375,5.90E-03,2.22E-02
23376,5.64E-03,2.06E-02
23377,5.67E-03,2.31E-02
23378,5.54E-03,2.03E-02
23379,4.95E-03,1.83E-02
23380,4.56E-03,1.69E-02
23381,5.49E-03,1.12E-02
23382,4.49E-03,7.69E-03
23383,4.90E-03,7.69E-03
23384,5.90E-03,7.69E-03
23385,4.71E-03,1.49E-02
23386,5.66E-03,8.05E-03
23387,5.77E-03,8.12E-03
23388,4.93E-03,7.88E-03
23389,4.91E-03,1.31E-02
23390,5.31E-03,8.22E-03
23391,5.00E-03,1.17E-02
23392,5.44E-03,8.57E-03
23393,5.89E-03,1.13E-02
23394,5.97E-03,1.19E-02
23395,4.17E-03,1.24E-02
23396,5.10E-03,1.33E-02
23397,4.78E-03,2.09E-02
23398,5.16E-03,1.90E-02
23399,5.57E-03,8.49E-03
23400,5.51E-03,8.54E-03
23401,5.07E-03,8.91E-03
23402,3.31E-03,2.38E-02
23403,5.58E-03,1.07E-02
23404,5.07E-03,9.05E-03
23405,5.69E-03,8.95E-03
23406,5.64E-03,8.99E-03
23407,5.59E-03,8.91E-03
23408,4.92E-03,9.32E-03
23409,5.94E-03,8.42E-03
23410,6.52E-03,1.18E-02
23411,5.50E-03,1.25E-02
23412,6.27E-03,1.28E-02
23413,6.11E-03,2.31E-02
23414,3.94E-03,2.46E-02
23415,4.41E-03,2.59E-02
23416,5.79E-03,2.47E-02
23417,5.99E-03,2.15E-02
23418,5.32E-03,8.62E-03
23419,5.24E-03,7.94E-03
23420,4.65E-03,7.78E-03
23421,5.04E-03,7.77E-03
23422,5.93E-03,8.18E-03
23423,6.14E-03,8.82E-03
23424,6.25E-03,8.94E-03
23425,5.84E-03,8.86E-03
23426,5.15E-03,2.00E-02
23427,5.60E-03,1.82E-02
23428,5.71E-03,1.08E-02
23429,5.24E-03,9.41E-03
23430,5.41E-03,9.05E-03
23431,5.07E-03,9.78E-03
23432,5.09E-03,9.07E-03
23433,5.86E-03,8.29E-03
23434,5.70E-03,8.38E-03
23435,5.22E-03,1.13E-02
23436,6.56E-03,1.11E-02
23437,6.09E-03,1.04E-02
23438,5.79E-03,2.33E-02
23439,5.40E-03,8.58E-03
23440,5.53E-03,8.59E-03
23441,5.35E-03,7.84E-03
23442,5.33E-03,7.96E-03
23443,5.42E-03,2.15E-02
23444,4.53E-03,2.31E-02
23445,4.74E-03,8.76E-03
23446,5.37E-03,8.78E-03
23447,4.67E-03,7.84E-03
23448,5.24E-03,7.93E-03
23449,6.27E-03,2.59E-02
23450,5.61E-03,2.64E-02
23451,4.86E-03,1.38E-02
23452,3.79E-03,1.39E-02
23453,5.80E-03,1.49E-02
23454,5.21E-03,9.18E-03
23455,5.21E-03,1.03E-02
23456,5.22E-03,8.80E-03
23457,5.57E-03,8.43E-03
23458,5.92E-03,8.73E-03
23459,5.96E-03,8.80E-03
23460,6.71E-03,8.72E-03
23461,6.35E-03,8.88E-03
23462,5.15E-03,1.00E-02
23463,6.07E-03,8.70E-03
23464,5.74E-03,2.48E-02
23465,4.64E-03,8.80E-03
23466,5.30E-03,7.81E-03
23467,5.61E-03,8.00E-03
23468,5.87E-03,8.74E-03
23469,6.20E-03,8.92E-03
23470,5.84E-03,8.70E-03
23471,5.55E-03,8.15E-03
23472,4.44E-03,9.37E-03
23473,5.11E-03,9.90E-03
23474,4.43E-03,1.32E-02
23475,5.65E-03,1.16E-02
23476,5.32E-03,1.08E-02
23477,5.39E-03,8.53E-03
23478,5.99E-03,8.88E-03
23479,5.42E-03,9.09E-03
23480,5.10E-03,9.06E-03
23481,5.31E-03,8.91E-03
23482,6.00E-03,9.74E-03
23483,6.28E-03,8.43E-03
23484,4.94E-03,7.88E-03
23485,5.86E-03,9.10E-03
23486,5.75E-03,8.67E-03
23487,5.75E-03,8.36E-03
23488,6.09E-03,9.82E-03
23489,6.75E-03,9.63E-03
23490,5.32E-03,8.76E-03
23491,4.76E-03,1.26E-02
23492,5.76E-03,7.80E-03
23493,5.88E-03,8.29E-03
23494,5.80E-03,1.38E-02
23495,5.28E-03,1.42E-02
23496,5.78E-03,1.03E-02
23497,5.72E-03,1.10E-02
23498,5.67E-03,1.08E-02
23499,5.25E-03,1.14E-02
23500,5.36E-03,8.27E-03
23501,6.14E-03,8.97E-03
23502,6.36E-03,7.24E-03
23503,6.37E-03,7.40E-03
23504,4.17E-03,9.29E-03
23505,3.27E-03,9.26E-03
23506,4.93E-03,1.20E-02
23507,5.14E-03,8.07E-03
23508,3.76E-03,2.64E-02
23509,4.82E-03,7.94E-03
23510,4.81E-03,2.42E-02
23511,5.87E-03,2.47E-02
23512,5.72E-03,2.55E-02
23513,5.18E-03,2.21E-02
23514,5.22E-03,1.99E-02
23515,4.66E-03,1.84E-02
23516,3.70E-03,2.61E-02
23517,5.43E-03,2.20E-02
23518,4.61E-03,7.71E-03
23519,4.68E-03,7.70E-03
23520,4.73E-03,1.66E-02
23521,5.61E-03,8.14E-03
23522,5.61E-03,8.20E-03
23523,4.76E-03,7.83E-03
23524,4.84E-03,1.48E-02
23525,5.18E-03,7.99E-03
23526,5.06E-03,1.31E-02
23527,5.25E-03,8.26E-03
23528,5.69E-03,1.12E-02
23529,5.84E-03,1.17E-02
23530,5.41E-03,1.23E-02
23531,6.06E-03,1.31E-02
23532,5.35E-03,1.82E-02
23533,5.32E-03,1.68E-02
23534,5.71E-03,9.83E-03
23535,5.59E-03,8.53E-03
23536,5.55E-03,8.59E-03
23537,5.21E-03,1.44E-02
23538,5.19E-03,8.59E-03
23539,4.74E-03,8.98E-03
23540,3.89E-03,1.43E-02
23541,5.20E-03,1.83E-02
23542,6.35E-03,1.77E-02
23543,6.37E-03,1.74E-02
23544,6.47E-03,1.69E-02
23545,5.51E-03,1.63E-02
23546,5.96E-03,1.60E-02
23547,4.21E-03,1.56E-02
23548,3.85E-03,1.52E-02
23549,5.25E-03,1.50E-02
23550,4.05E-03,1.45E-02
23551,4.31E-03,7.75E-03
23552,5.70E-03,8.19E-03
23553,4.12E-03,2.77E-02
23554,5.55E-03,2.30E-02
23555,5.16E-03,2.08E-02
23556,5.10E-03,2.15E-02
23557,3.97E-03,1.95E-02
23558,5.38E-03,1.91E-02
23559,5.38E-03,1.96E-02
23560,5.42E-03,1.47E-02
23561,5.70E-03,1.10E-02
23562,5.45E-03,9.23E-03
23563,5.30E-03,9.30E-03
23564,5.59E-03,9.12E-03
23565,5.57E-03,9.17E-03
23566,5.51E-03,9.08E-03
23567,5.08E-03,9.42E-03
23568,5.75E-03,8.33E-03
23569,4.81E-03,1.01E-02
23570,5.25E-03,1.08E-02
23571,6.13E-03,1.08E-02
23572,7.15E-03,2.56E-02
23573,5.92E-03,2.39E-02
23574,5.22E-03,8.61E-03
23575,5.34E-03,7.90E-03
23576,5.18E-03,2.24E-02
23577,6.38E-03,8.76E-03
23578,5.08E-03,8.79E-03
23579,6.18E-03,8.75E-03
23580,6.03E-03,8.74E-03
23581,5.96E-03,8.74E-03
23582,4.86E-03,7.89E-03
23583,5.13E-03,7.92E-03
23584,6.49E-03,8.61E-03
23585,6.26E-03,8.65E-03
23586,6.38E-03,8.63E-03
23587,2.72E-03,2.95E-02
23588,3.61E-03,3.08E-02
23589,5.25E-03,2.88E-02
23590,3.26E-03,1.40E-02
23591,5.23E-03,1.78E-02
23592,5.63E-03,1.59E-02
23593,5.04E-03,1.86E-02
23594,6.05E-03,1.56E-02
23595,5.77E-03,1.12E-02
23596,5.39E-03,9.20E-03
23597,5.14E-03,9.90E-03
23598,5.23E-03,9.14E-03
23599,5.81E-03,8.24E-03
23600,5.66E-03,8.36E-03
23601,5.93E-03,8.82E-03
23602,5.99E-03,8.84E-03
23603,5.09E-03,9.50E-03
23604,5.92E-03,8.73E-03
23605,4.09E-03,2.84E-02
23606,5.72E-03,2.54E-02
23607,5.47E-03,8.58E-03
23608,5.72E-03,8.73E-03
23609,5.38E-03,7.86E-03
23610,5.51E-03,7.96E-03
23611,5.52E-03,2.40E-02
23612,4.56E-03,2.56E-02
23613,5.68E-03,8.74E-03
23614,7.19E-03,8.90E-03
23615,5.53E-03,8.55E-03
23616,5.13E-03,8.53E-03
23617,6.15E-03,8.59E-03
23618,6.13E-03,8.67E-03
23619,5.90E-03,8.70E-03
23620,4.59E-03,7.99E-03
23621,5.63E-03,8.16E-03
23622,4.90E-03,9.52E-03
23623,5.20E-03,1.01E-02
23624,4.00E-03,1.34E-02
23625,5.64E-03,1.25E-02
23626,5.94E-03,1.64E-02
23627,4.88E-03,9.29E-03
23628,3.95E-03,9.07E-03
23629,4.57E-03,8.87E-03
23630,5.27E-03,1.04E-02
23631,5.35E-03,8.86E-03
23632,5.09E-03,1.03E-02
23633,5.57E-03,8.46E-03
23634,5.94E-03,8.91E-03
23635,5.09E-03,9.06E-03
23636,5.17E-03,8.28E-03
23637,6.20E-03,7.27E-03
23638,6.00E-03,9.56E-03
23639,6.06E-03,8.35E-03
23640,3.42E-03,3.14E-02
23641,5.62E-03,2.69E-02
23642,5.70E-03,8.84E-03
23643,5.27E-03,7.91E-03
23644,5.57E-03,8.08E-03
23645,6.25E-03,9.08E-03
23646,5.93E-03,8.67E-03
23647,6.22E-03,8.41E-03
23648,6.27E-03,9.47E-03
23649,4.44E-03,8.64E-03
23650,4.63E-03,1.28E-02
23651,4.53E-03,5.90E-03
23652,4.62E-03,6.30E-03
23653,5.65E-03,9.40E-03
23654,6.75E-03,1.41E-02
23655,5.78E-03,1.46E-02
23656,6.66E-03,1.73E-02
23657,5.66E-03,1.06E-02
23658,3.68E-03,9.26E-03
23659,5.22E-03,1.10E-02
23660,5.36E-03,8.59E-03
23661,5.98E-03,9.01E-03
23662,5.46E-03,9.23E-03
23663,5.35E-03,9.21E-03
23664,5.19E-03,7.21E-03
23665,6.34E-03,7.36E-03
23666,4.88E-03,8.05E-03
23667,5.70E-03,9.26E-03
23668,6.09E-03,8.70E-03
23669,5.83E-03,1.06E-02
23670,5.93E-03,1.04E-02
23671,5.91E-03,6.58E-03
23672,5.69E-03,1.14E-02
23673,5.65E-03,1.12E-02
23674,5.82E-03,9.30E-03
23675,4.98E-03,1.16E-02
23676,5.27E-03,8.34E-03
23677,5.78E-03,2.75E-02
23678,4.87E-03,2.78E-02
23679,6.24E-03,6.23E-03
23680,6.26E-03,6.34E-03
23681,5.16E-03,1.94E-02
23682,4.70E-03,1.91E-02
23683,4.81E-03,1.22E-02
23684,4.94E-03,8.18E-03
23685,4.81E-03,2.60E-02
23686,5.88E-03,2.71E-02
23687,5.86E-03,2.80E-02
23688,4.84E-03,9.33E-03
23689,5.15E-03,9.37E-03
23690,4.68E-03,8.05E-03
23691,4.98E-03,2.38E-02
23692,5.07E-03,2.17E-02
23693,4.96E-03,1.98E-02
23694,5.13E-03,2.80E-02
23695,5.50E-03,2.43E-02
23696,5.31E-03,2.26E-02
23697,4.57E-03,7.75E-03
23698,4.79E-03,1.81E-02
23699,5.03E-03,1.86E-02
23700,5.54E-03,8.29E-03
23701,5.54E-03,8.35E-03
23702,4.85E-03,7.79E-03
23703,4.85E-03,1.63E-02
23704,5.30E-03,1.78E-02
23705,4.91E-03,7.86E-03
23706,5.00E-03,1.45E-02
23707,5.15E-03,8.03E-03
23708,5.34E-03,1.28E-02
23709,6.05E-03,1.99E-02
23710,5.77E-03,1.10E-02
23711,4.43E-03,1.59E-02
23712,5.82E-03,1.21E-02
23713,5.67E-03,1.28E-02
23714,6.80E-03,1.37E-02
23715,3.46E-03,1.55E-02
23716,5.38E-03,1.58E-02
23717,5.42E-03,1.46E-02
23718,4.44E-03,3.67E-02
23719,5.58E-03,9.70E-03
23720,5.10E-03,1.48E-02
23721,5.55E-03,8.70E-03
23722,5.51E-03,8.63E-03
23723,5.32E-03,1.47E-02
23724,5.82E-03,1.02E-02
23725,4.48E-03,3.70E-02
23726,5.25E-03,3.60E-02
23727,5.24E-03,3.59E-02
23728,5.07E-03,8.64E-03
23729,5.19E-03,8.28E-03
23730,3.82E-03,1.47E-02
23731,4.53E-03,7.82E-03
23732,5.92E-03,9.14E-03
23733,4.38E-03,7.95E-03
23734,4.09E-03,8.71E-03
23735,5.60E-03,8.27E-03
23736,4.40E-03,9.02E-03
23737,6.14E-03,9.01E-03
23738,4.90E-03,9.07E-03
23739,4.46E-03,3.70E-02
23740,5.18E-03,3.69E-02
23741,4.86E-03,1.71E-02
23742,4.39E-03,1.66E-02
23743,5.02E-03,3.79E-02
23744,3.91E-03,1.41E-02
23745,5.43E-03,1.68E-02
23746,5.29E-03,1.72E-02
23747,5.42E-03,1.52E-02
23748,5.81E-03,1.14E-02
23749,5.70E-03,9.48E-03
23750,5.61E-03,9.58E-03
23751,5.62E-03,9.31E-03
23752,5.66E-03,9.39E-03
23753,5.53E-03,9.25E-03
23754,5.17E-03,9.51E-03
23755,5.72E-03,8.31E-03
23756,5.96E-03,8.83E-03
23757,5.00E-03,8.98E-03
23758,5.98E-03,8.89E-03
23759,6.73E-03,2.78E-02
23760,5.81E-03,2.62E-02
23761,5.55E-03,8.63E-03
23762,5.42E-03,7.91E-03
23763,5.18E-03,2.48E-02
23764,6.39E-03,8.70E-03
23765,5.79E-03,8.56E-03
23766,6.86E-03,8.89E-03
23767,6.95E-03,8.86E-03
23768,6.05E-03,8.69E-03
23769,5.08E-03,8.05E-03
23770,5.49E-03,8.14E-03
23771,6.32E-03,8.54E-03
23772,6.23E-03,8.60E-03
23773,6.30E-03,8.56E-03
23774,4.85E-03,8.26E-03
23775,3.70E-03,8.20E-03
23776,5.13E-03,9.64E-03
23777,5.28E-03,1.02E-02
23778,4.03E-03,1.37E-02
23779,5.34E-03,1.56E-02
23780,5.54E-03,1.35E-02
23781,5.28E-03,1.61E-02
23782,5.36E-03,1.51E-02
23783,5.72E-03,1.60E-02
23784,5.73E-03,1.16E-02
23785,5.76E-03,1.00E-02
23786,5.44E-03,9.36E-03
23787,6.48E-03,8.86E-03
23788,4.50E-03,9.16E-03
23789,4.67E-03,8.90E-03
23790,6.32E-03,8.70E-03
23791,6.09E-03,8.79E-03
23792,5.25E-03,1.00E-02
23793,5.29E-03,9.23E-03
23794,5.12E-03,1.06E-02
23795,5.68E-03,8.26E-03
23796,5.59E-03,8.40E-03
23797,5.87E-03,8.93E-03
23798,5.72E-03,9.00E-03
23799,6.15E-03,9.09E-03
23800,5.52E-03,8.84E-03
23801,5.56E-03,9.08E-03
23802,5.10E-03,7.80E-03
23803,4.71E-03,7.34E-03
23804,4.96E-03,7.50E-03
23805,5.27E-03,7.14E-03
23806,5.99E-03,7.26E-03
23807,6.03E-03,9.41E-03
23808,6.13E-03,8.29E-03
23809,4.52E-03,3.03E-02
23810,5.83E-03,2.77E-02
23811,5.56E-03,8.66E-03
23812,5.47E-03,8.80E-03
23813,5.40E-03,7.95E-03
23814,5.51E-03,8.03E-03
23815,5.63E-03,2.64E-02
23816,5.07E-03,2.78E-02
23817,6.60E-03,9.06E-03
23818,5.32E-03,8.46E-03
23819,5.89E-03,8.48E-03
23820,6.16E-03,8.51E-03
23821,6.16E-03,8.63E-03
23822,5.98E-03,8.67E-03
23823,6.74E-03,8.51E-03
23824,5.49E-03,8.40E-03
23825,5.57E-03,9.33E-03
23826,5.02E-03,8.65E-03
23827,5.15E-03,3.59E-02
23828,4.93E-03,3.69E-02
23829,4.42E-03,1.30E-02
23830,4.01E-03,4.66E-03
23831,5.57E-03,1.04E-02
23832,5.62E-03,1.50E-02
23833,5.95E-03,1.68E-02
23834,5.80E-03,1.05E-02
23835,4.67E-03,9.40E-03
23836,5.79E-03,8.71E-03
23837,5.25E-03,8.73E-03
23838,5.18E-03,1.06E-02
23839,5.36E-03,8.94E-03
23840,5.60E-03,1.09E-02
23841,5.52E-03,8.55E-03
23842,5.87E-03,9.05E-03
23843,5.43E-03,9.21E-03
23844,6.33E-03,9.49E-03
23845,6.45E-03,9.34E-03
23846,5.15E-03,6.70E-03
23847,6.12E-03,6.11E-03
23848,6.37E-03,7.33E-03
23849,6.00E-03,2.94E-02
23850,5.78E-03,8.97E-03
23851,5.29E-03,8.09E-03
23852,5.55E-03,8.24E-03
23853,5.91E-03,9.26E-03
23854,5.94E-03,8.69E-03
23855,5.88E-03,1.01E-02
23856,5.40E-03,9.42E-03
23857,5.60E-03,9.45E-03
23858,5.50E-03,7.49E-03
23859,6.12E-03,1.44E-02
23860,5.94E-03,1.49E-02
23861,3.99E-03,1.82E-02
23862,5.92E-03,1.77E-02
23863,5.51E-03,1.10E-02
23864,4.66E-03,9.40E-03
23865,5.67E-03,8.50E-03
23866,6.26E-03,8.60E-03
23867,5.02E-03,1.12E-02
23868,5.28E-03,8.67E-03
23869,5.49E-03,2.99E-02
23870,5.23E-03,2.95E-02
23871,5.92E-03,9.19E-03
23872,5.42E-03,9.40E-03
23873,4.99E-03,5.77E-03
23874,6.29E-03,6.48E-03
23875,4.94E-03,3.28E-02
23876,5.19E-03,3.23E-02
23877,5.51E-03,8.50E-03
23878,6.21E-03,8.82E-03
23879,5.80E-03,1.14E-02
23880,5.78E-03,1.11E-02
23881,4.50E-03,4.83E-03
23882,5.03E-03,4.97E-03
23883,3.54E-03,1.87E-02
23884,4.90E-03,1.18E-02
23885,5.09E-03,8.45E-03
23886,4.82E-03,2.77E-02
23887,5.77E-03,9.27E-03
23888,5.81E-03,9.34E-03
23889,6.20E-03,5.71E-03
23890,6.21E-03,5.89E-03
23891,5.72E-03,2.93E-02
23892,6.19E-03,3.05E-02
23893,5.60E-03,9.54E-03
23894,4.98E-03,1.98E-02
23895,4.68E-03,1.24E-02
23896,4.87E-03,8.28E-03
23897,4.90E-03,2.55E-02
23898,4.23E-03,8.11E-03
23899,3.56E-03,7.72E-03
23900,3.57E-03,8.17E-03
23901,4.66E-03,8.16E-03
23902,4.97E-03,2.34E-02
23903,5.24E-03,9.36E-03
23904,4.58E-03,8.01E-03
23905,5.01E-03,2.14E-02
23906,5.72E-03,3.02E-02
23907,5.80E-03,3.07E-02
23908,5.75E-03,2.69E-02
23909,5.54E-03,2.54E-02
23910,5.55E-03,2.36E-02
23911,4.62E-03,7.87E-03
23912,4.88E-03,1.96E-02
23913,4.25E-03,1.95E-02
23914,3.74E-03,1.90E-02
23915,5.51E-03,8.55E-03
23916,5.55E-03,8.41E-03
23917,4.71E-03,7.81E-03
23918,4.88E-03,1.79E-02
23919,5.73E-03,3.51E-02
23920,4.83E-03,3.41E-02
23921,4.85E-03,3.43E-02
23922,4.79E-03,1.83E-02
23923,4.87E-03,7.84E-03
23924,4.99E-03,1.60E-02
23925,5.51E-03,8.77E-03
23926,5.52E-03,8.86E-03
23927,5.73E-03,3.51E-02
23928,4.92E-03,1.75E-02
23929,5.03E-03,7.92E-03
23930,5.24E-03,1.43E-02
23931,5.17E-03,3.59E-02
23932,5.45E-03,2.03E-02
23933,5.14E-03,8.08E-03
23934,5.57E-03,1.25E-02
23935,3.63E-03,1.70E-02
23936,4.22E-03,1.62E-02
23937,5.10E-03,8.34E-03
23938,5.79E-03,1.08E-02
23939,5.77E-03,1.25E-02
23940,5.98E-03,1.33E-02
23941,6.17E-03,1.41E-02
23942,5.02E-03,8.72E-03
23943,5.32E-03,3.69E-02
23944,5.15E-03,3.80E-02
23945,5.02E-03,9.17E-03
23946,4.14E-03,1.56E-02
23947,4.11E-03,1.51E-02
23948,5.47E-03,1.35E-02
23949,5.52E-03,1.23E-02
23950,3.90E-03,1.44E-02
23951,5.51E-03,1.03E-02
23952,5.25E-03,9.75E-03
23953,4.01E-03,1.38E-02
23954,5.22E-03,8.32E-03
23955,4.89E-03,3.77E-02
23956,5.44E-03,1.45E-02
23957,5.44E-03,1.49E-02
23958,5.36E-03,3.49E-02
23959,5.52E-03,1.56E-02
23960,5.74E-03,1.18E-02
23961,5.88E-03,9.76E-03
23962,5.84E-03,9.89E-03
23963,5.67E-03,9.53E-03
23964,5.83E-03,9.64E-03
23965,5.52E-03,9.43E-03
23966,5.48E-03,9.03E-03
23967,5.61E-03,8.87E-03
23968,5.75E-03,8.88E-03
23969,5.55E-03,8.86E-03
23970,5.22E-03,8.85E-03
23971,5.22E-03,9.14E-03
23972,5.50E-03,8.97E-03
23973,3.06E-03,8.91E-03
23974,5.22E-03,9.62E-03
23975,5.97E-03,1.04E-02
23976,5.64E-03,1.13E-02
23977,5.46E-03,1.09E-02
23978,5.58E-03,1.11E-02
23979,5.34E-03,1.08E-02
23980,5.62E-03,8.33E-03
23981,5.81E-03,8.96E-03
23982,5.28E-03,9.05E-03
23983,4.91E-03,7.45E-03
23984,5.82E-03,7.27E-03
23985,5.92E-03,8.24E-03
23986,5.88E-03,9.38E-03
23987,6.61E-03,8.20E-03
23988,5.14E-03,3.02E-02
23989,5.73E-03,2.84E-02
23990,5.60E-03,8.73E-03
23991,5.46E-03,7.99E-03
23992,5.30E-03,2.72E-02
23993,5.87E-03,8.50E-03
23994,6.32E-03,8.97E-03
23995,6.39E-03,9.05E-03
23996,6.06E-03,8.66E-03
23997,5.92E-03,8.49E-03
23998,4.47E-03,9.17E-03
23999,6.22E-03,8.49E-03
24000,6.11E-03,8.58E-03
24001,6.18E-03,8.53E-03
24002,4.58E-03,3.79E-02
24003,4.67E-03,3.77E-02
24004,4.28E-03,1.32E-02
24005,4.89E-03,4.24E-03
24006,5.70E-03,9.20E-03
24007,4.40E-03,8.46E-03
24008,5.48E-03,1.34E-02
24009,5.48E-03,1.13E-02
24010,5.83E-03,1.40E-02
24011,5.46E-03,3.34E-02
24012,5.08E-03,3.43E-02
24013,5.53E-03,1.55E-02
24014,5.73E-03,1.64E-02
24015,5.69E-03,1.18E-02
24016,5.76E-03,1.20E-02
24017,5.99E-03,1.04E-02
24018,5.35E-03,9.51E-03
24019,5.50E-03,8.65E-03
24020,5.18E-03,8.70E-03
24021,5.37E-03,8.98E-03
24022,5.30E-03,8.72E-03
24023,4.87E-03,8.69E-03
24024,5.66E-03,8.60E-03
24025,5.19E-03,1.01E-02
24026,5.28E-03,9.33E-03
24027,5.56E-03,1.14E-02
24028,5.56E-03,1.22E-02
24029,5.60E-03,1.21E-02
24030,5.40E-03,1.13E-02
24031,5.58E-03,8.34E-03
24032,5.53E-03,8.48E-03
24033,5.85E-03,9.09E-03
24034,5.51E-03,9.17E-03
24035,4.99E-03,9.23E-03
24036,5.86E-03,9.30E-03
24037,5.10E-03,6.30E-03
24038,5.01E-03,5.90E-03
24039,5.04E-03,5.98E-03
24040,5.30E-03,5.91E-03
24041,5.94E-03,6.04E-03
24042,6.45E-03,7.35E-03
24043,4.77E-03,3.26E-02
24044,5.82E-03,2.99E-02
24045,5.61E-03,8.78E-03
24046,5.65E-03,8.92E-03
24047,5.43E-03,8.12E-03
24048,5.56E-03,8.20E-03
24049,5.77E-03,2.88E-02
24050,5.45E-03,3.00E-02
24051,6.14E-03,9.27E-03
24052,4.94E-03,9.44E-03
24053,6.86E-03,9.33E-03
24054,5.23E-03,8.37E-03
24055,5.68E-03,8.38E-03
24056,6.13E-03,8.45E-03
24057,5.62E-03,9.41E-03
24058,5.85E-03,9.32E-03
24059,6.03E-03,8.62E-03
24060,5.97E-03,8.67E-03
24061,5.99E-03,8.69E-03
24062,5.96E-03,8.85E-03
24063,5.63E-03,9.97E-03
24064,7.06E-03,9.03E-03
24065,6.52E-03,9.20E-03
24066,5.01E-03,3.88E-02
24067,5.02E-03,3.88E-02
24068,5.35E-03,9.65E-03
24069,5.48E-03,9.68E-03
24070,5.41E-03,8.32E-03
24071,5.73E-03,1.54E-02
24072,5.70E-03,1.72E-02
24073,5.59E-03,1.15E-02
24074,5.47E-03,1.08E-02
24075,4.95E-03,9.56E-03
24076,5.89E-03,8.50E-03
24077,5.85E-03,8.49E-03
24078,5.16E-03,1.07E-02
24079,5.34E-03,9.04E-03
24080,5.33E-03,3.20E-02
24081,5.33E-03,3.16E-02
24082,5.51E-03,1.23E-02
24083,5.58E-03,1.32E-02
24084,5.55E-03,1.31E-02
24085,5.72E-03,1.17E-02
24086,5.46E-03,8.70E-03
24087,5.82E-03,9.23E-03
24088,5.49E-03,9.38E-03
24089,4.31E-03,9.53E-03
24090,6.05E-03,9.68E-03
24091,6.13E-03,9.63E-03
24092,5.06E-03,5.32E-03
24093,6.09E-03,5.55E-03
24094,6.26E-03,6.56E-03
24095,6.10E-03,3.22E-02
24096,5.36E-03,8.36E-03
24097,5.53E-03,8.47E-03
24098,5.71E-03,9.47E-03
24099,6.06E-03,8.74E-03
24100,5.71E-03,1.09E-02
24101,4.79E-03,4.52E-03
24102,5.28E-03,5.63E-03
24103,4.95E-03,3.77E-02
24104,4.06E-03,3.88E-02
24105,4.27E-03,3.84E-02
24106,5.95E-03,1.48E-02
24107,5.84E-03,1.53E-02
24108,3.51E-03,1.82E-02
24109,5.32E-03,9.58E-03
24110,5.58E-03,8.36E-03
24111,5.37E-03,8.31E-03
24112,5.27E-03,8.49E-03
24113,5.40E-03,8.51E-03
24114,5.34E-03,8.28E-03
24115,4.98E-03,1.13E-02
24116,5.16E-03,8.78E-03
24117,5.07E-03,2.93E-02
24118,5.51E-03,1.33E-02
24119,5.56E-03,1.42E-02
24120,5.62E-03,1.41E-02
24121,5.84E-03,9.39E-03
24122,5.40E-03,9.62E-03
24123,6.24E-03,6.08E-03
24124,5.06E-03,3.89E-02
24125,5.06E-03,3.48E-02
24126,5.21E-03,3.49E-02
24127,5.35E-03,3.13E-02
24128,5.67E-03,3.25E-02
24129,6.21E-03,8.90E-03
24130,5.72E-03,1.22E-02
24131,5.68E-03,1.19E-02
24132,5.92E-03,9.75E-03
24133,6.71E-03,1.72E-02
24134,4.75E-03,4.37E-03
24135,4.95E-03,4.25E-03
24136,4.44E-03,1.93E-02
24137,4.21E-03,1.89E-02
24138,4.81E-03,1.20E-02
24139,5.01E-03,8.57E-03
24140,4.94E-03,2.73E-02
24141,6.21E-03,5.96E-03
24142,6.20E-03,6.14E-03
24143,4.34E-03,7.70E-03
24144,4.33E-03,8.15E-03
24145,3.81E-03,2.01E-02
24146,4.22E-03,1.96E-02
24147,4.57E-03,1.26E-02
24148,4.84E-03,8.40E-03
24149,4.95E-03,2.51E-02
24150,5.62E-03,9.58E-03
24151,5.43E-03,9.38E-03
24152,5.47E-03,9.19E-03
24153,5.42E-03,8.75E-03
24154,4.60E-03,8.25E-03
24155,4.97E-03,2.31E-02
24156,6.13E-03,3.13E-02
24157,5.70E-03,2.93E-02
24158,5.71E-03,2.81E-02
24159,5.63E-03,2.63E-02
24160,5.47E-03,8.53E-03
24161,4.62E-03,8.09E-03
24162,4.91E-03,2.11E-02
24163,5.78E-03,3.29E-02
24164,5.80E-03,3.34E-02
24165,3.77E-03,1.96E-02
24166,5.49E-03,8.79E-03
24167,5.44E-03,8.82E-03
24168,5.52E-03,8.61E-03
24169,4.68E-03,7.94E-03
24170,4.90E-03,1.94E-02
24171,4.49E-03,1.88E-02
24172,4.76E-03,7.89E-03
24173,4.95E-03,1.76E-02
24174,5.41E-03,8.97E-03
24175,5.43E-03,9.06E-03
24176,5.56E-03,3.41E-02
24177,4.93E-03,1.80E-02
24178,4.91E-03,7.91E-03
24179,5.12E-03,1.57E-02
24180,5.48E-03,3.51E-02
24181,5.49E-03,2.04E-02
24182,5.06E-03,7.98E-03
24183,5.42E-03,1.40E-02
24184,4.65E-03,1.73E-02
24185,4.37E-03,1.67E-02
24186,5.44E-03,3.60E-02
24187,5.12E-03,8.14E-03
24188,5.65E-03,1.22E-02
24189,5.80E-03,1.30E-02
24190,6.05E-03,1.37E-02
24191,5.97E-03,1.44E-02
24192,5.11E-03,8.42E-03
24193,5.51E-03,1.42E-02
24194,5.45E-03,1.33E-02
24195,5.68E-03,1.06E-02
24196,5.37E-03,3.69E-02
24197,5.37E-03,3.80E-02
24198,5.06E-03,8.79E-03
24199,5.43E-03,1.24E-02
24200,4.22E-03,1.59E-02
24201,4.08E-03,1.53E-02
24202,5.43E-03,1.15E-02
24203,5.59E-03,9.32E-03
24204,5.63E-03,1.13E-02
24205,5.56E-03,1.01E-02
24206,5.77E-03,1.07E-02
24207,4.77E-03,8.45E-03
24208,4.15E-03,1.46E-02
24209,5.07E-03,9.25E-03
24210,5.82E-03,9.78E-03
24211,5.86E-03,7.57E-03
24212,4.72E-03,7.39E-03
24213,4.08E-03,1.40E-02
24214,4.16E-03,1.35E-02
24215,4.78E-03,4.82E-03
24216,5.79E-03,3.26E-02
24217,5.69E-03,9.14E-03
24218,5.48E-03,1.23E-02
24219,5.71E-03,1.26E-02
24220,5.15E-03,3.58E-02
24221,5.06E-03,3.68E-02
24222,5.20E-03,3.50E-02
24223,5.59E-03,1.59E-02
24224,5.77E-03,1.23E-02
24225,6.24E-03,1.01E-02
24226,6.27E-03,1.02E-02
24227,5.71E-03,9.77E-03
24228,6.07E-03,9.91E-03
24229,5.52E-03,9.64E-03
24230,5.69E-03,8.70E-03
24231,5.97E-03,8.71E-03
24232,5.44E-03,8.66E-03
24233,5.58E-03,8.67E-03
24234,5.30E-03,8.67E-03
24235,4.98E-03,8.70E-03
24236,5.24E-03,9.73E-03
24237,5.48E-03,1.17E-02
24238,5.54E-03,1.19E-02
24239,5.44E-03,1.15E-02
24240,5.51E-03,8.41E-03
24241,5.72E-03,9.13E-03
24242,5.48E-03,9.25E-03
24243,5.06E-03,6.12E-03
24244,5.64E-03,5.97E-03
24245,6.77E-03,7.34E-03
24246,5.14E-03,3.23E-02
24247,5.46E-03,3.05E-02
24248,5.68E-03,8.85E-03
24249,5.47E-03,8.16E-03
24250,5.57E-03,2.95E-02
24251,6.27E-03,9.29E-03
24252,6.04E-03,8.42E-03
24253,5.64E-03,8.68E-03
24254,5.94E-03,8.63E-03
24255,6.03E-03,9.10E-03
24256,5.97E-03,9.21E-03
24257,5.95E-03,8.65E-03
24258,6.30E-03,8.95E-03
24259,5.93E-03,9.75E-03
24260,5.66E-03,9.44E-03
24261,5.73E-03,9.58E-03
24262,5.69E-03,9.51E-03
24263,6.07E-03,8.59E-03
24264,6.23E-03,8.52E-03
24265,5.27E-03,3.87E-02
24266,5.51E-03,1.11E-02
24267,5.44E-03,9.19E-03
24268,6.05E-03,1.18E-02
24269,5.49E-03,3.42E-02
24270,5.62E-03,1.58E-02
24271,5.68E-03,1.67E-02
24272,5.63E-03,1.21E-02
24273,5.68E-03,1.24E-02
24274,5.75E-03,1.14E-02
24275,5.27E-03,9.72E-03
24276,5.74E-03,8.51E-03
24277,5.40E-03,8.49E-03
24278,5.13E-03,8.46E-03
24279,4.20E-03,8.40E-03
24280,5.02E-03,8.43E-03
24281,5.22E-03,8.07E-03
24282,4.78E-03,8.11E-03
24283,5.20E-03,1.03E-02
24284,5.31E-03,9.44E-03
24285,5.43E-03,3.40E-02
24286,5.48E-03,3.36E-02
24287,5.60E-03,1.29E-02
24288,5.64E-03,1.20E-02
24289,5.53E-03,8.48E-03
24290,5.48E-03,8.62E-03
24291,5.76E-03,9.28E-03
24292,5.53E-03,9.36E-03
24293,5.61E-03,9.53E-03
24294,5.81E-03,9.54E-03
24295,5.10E-03,5.11E-03
24296,5.11E-03,4.98E-03
24297,5.17E-03,5.03E-03
24298,5.90E-03,5.40E-03
24299,6.33E-03,6.66E-03
24300,5.09E-03,3.47E-02
24301,5.82E-03,3.24E-02
24302,5.57E-03,8.94E-03
24303,5.64E-03,9.08E-03
24304,5.46E-03,8.38E-03
24305,5.55E-03,8.43E-03
24306,5.91E-03,3.15E-02
24307,5.81E-03,3.24E-02
24308,5.80E-03,9.49E-03
24309,5.45E-03,9.62E-03
24310,5.82E-03,9.59E-03
24311,5.70E-03,8.28E-03
24312,5.79E-03,8.31E-03
24313,5.41E-03,9.60E-03
24314,5.45E-03,9.47E-03
24315,5.91E-03,8.63E-03
24316,6.04E-03,8.70E-03
24317,6.68E-03,9.16E-03
24318,6.12E-03,9.34E-03
24319,5.70E-03,1.06E-02
24320,4.75E-03,4.47E-03
24321,5.33E-03,6.39E-03
24322,5.15E-03,3.76E-02
24323,5.57E-03,3.85E-02
24324,5.75E-03,1.57E-02
24325,4.96E-03,1.79E-02
24326,5.30E-03,1.75E-02
24327,5.51E-03,1.19E-02
24328,5.25E-03,9.74E-03
24329,5.74E-03,8.36E-03
24330,5.25E-03,8.26E-03
24331,5.14E-03,1.09E-02
24332,5.20E-03,9.16E-03
24333,5.26E-03,3.12E-02
24334,5.63E-03,1.40E-02
24335,5.70E-03,1.26E-02
24336,5.41E-03,8.89E-03
24337,5.77E-03,9.44E-03
24338,5.48E-03,9.60E-03
24339,5.35E-03,9.66E-03
24340,5.96E-03,9.94E-03
24341,5.87E-03,9.87E-03
24342,5.02E-03,4.53E-03
24343,6.16E-03,5.77E-03
24344,6.23E-03,6.26E-03
24345,5.08E-03,3.90E-02
24346,5.54E-03,3.50E-02
24347,4.77E-03,3.32E-02
24348,4.37E-03,3.40E-02
24349,5.59E-03,9.37E-03
24350,5.56E-03,8.69E-03
24351,5.50E-03,8.76E-03
24352,5.52E-03,9.71E-03
24353,6.04E-03,8.83E-03
24354,5.63E-03,1.16E-02
24355,5.93E-03,9.99E-03
24356,4.23E-03,3.93E-02
24357,5.62E-03,2.11E-02
24358,5.79E-03,1.86E-02
24359,6.40E-03,1.43E-02
24360,5.18E-03,4.35E-03
24361,5.82E-03,1.52E-02
24362,5.74E-03,1.56E-02
24363,4.23E-03,1.85E-02
24364,5.30E-03,9.76E-03
24365,5.63E-03,8.26E-03
24366,5.17E-03,8.30E-03
24367,5.27E-03,8.07E-03
24368,4.85E-03,1.15E-02
24369,5.12E-03,8.90E-03
24370,5.03E-03,2.90E-02
24371,5.61E-03,1.52E-02
24372,5.66E-03,1.51E-02
24373,5.75E-03,9.63E-03
24374,5.29E-03,9.87E-03
24375,6.21E-03,6.35E-03
24376,5.00E-03,3.98E-02
24377,5.09E-03,3.97E-02
24378,5.07E-03,3.99E-02
24379,5.16E-03,3.71E-02
24380,5.26E-03,3.74E-02
24381,6.32E-03,8.40E-03
24382,6.10E-03,9.01E-03
24383,4.67E-03,7.79E-03
24384,4.67E-03,8.18E-03
24385,4.73E-03,5.31E-03
24386,4.92E-03,4.61E-03
24387,4.39E-03,2.00E-02
24388,5.43E-03,1.92E-02
24389,4.73E-03,1.22E-02
24390,4.94E-03,8.70E-03
24391,4.96E-03,2.68E-02
24392,5.75E-03,9.80E-03
24393,5.68E-03,9.61E-03
24394,5.53E-03,9.41E-03
24395,5.48E-03,8.99E-03
24396,4.47E-03,1.28E-02
24397,4.77E-03,8.53E-03
24398,4.93E-03,2.47E-02
24399,5.66E-03,1.31E-02
24400,5.68E-03,1.27E-02
24401,5.81E-03,3.20E-02
24402,5.66E-03,3.06E-02
24403,5.64E-03,2.93E-02
24404,5.73E-03,2.40E-02
24405,5.57E-03,8.78E-03
24406,4.68E-03,8.35E-03
24407,4.90E-03,2.27E-02
24408,5.77E-03,3.54E-02
24409,5.81E-03,3.60E-02
24410,5.55E-03,3.26E-02
24411,5.87E-03,3.18E-02
24412,5.95E-03,3.18E-02
24413,6.25E-03,2.07E-02
24414,5.49E-03,2.01E-02
24415,5.42E-03,9.14E-03
24416,5.41E-03,9.16E-03
24417,5.44E-03,8.87E-03
24418,5.98E-03,8.59E-03
24419,4.65E-03,8.18E-03
24420,4.85E-03,2.09E-02
24421,4.71E-03,1.94E-02
24422,4.73E-03,8.03E-03
24423,4.88E-03,1.91E-02
24424,5.31E-03,9.22E-03
24425,5.33E-03,9.30E-03
24426,5.37E-03,3.33E-02
24427,4.83E-03,1.85E-02
24428,4.85E-03,7.98E-03
24429,5.02E-03,1.72E-02
24430,5.52E-03,3.42E-02
24431,5.54E-03,8.37E-03
24432,4.84E-03,8.12E-03
24433,5.53E-03,8.20E-03
24434,5.72E-03,7.93E-03
24435,5.57E-03,8.02E-03
24436,5.54E-03,2.06E-02
24437,4.93E-03,7.98E-03
24438,5.35E-03,1.55E-02
24439,4.93E-03,1.77E-02
24440,4.61E-03,1.70E-02
24441,5.48E-03,3.50E-02
24442,5.19E-03,7.61E-03
24443,5.06E-03,7.83E-03
24444,5.06E-03,8.04E-03
24445,5.58E-03,1.36E-02
24446,5.47E-03,3.60E-02
24447,5.87E-03,1.34E-02
24448,6.00E-03,1.41E-02
24449,5.84E-03,1.48E-02
24450,5.16E-03,8.21E-03
24451,5.48E-03,1.43E-02
24452,5.47E-03,1.34E-02
24453,5.57E-03,1.19E-02
24454,5.23E-03,3.80E-02
24455,5.47E-03,3.70E-02
24456,5.06E-03,8.51E-03
24457,5.41E-03,1.25E-02
24458,4.36E-03,1.63E-02
24459,4.26E-03,1.56E-02
24460,5.32E-03,1.16E-02
24461,5.45E-03,1.05E-02
24462,5.64E-03,9.06E-03
24463,5.59E-03,7.91E-03
24464,5.13E-03,1.09E-02
24465,5.14E-03,9.25E-03
24466,4.19E-03,1.49E-02
24467,4.97E-03,8.86E-03
24468,4.94E-03,9.29E-03
24469,4.24E-03,1.00E-02
24470,4.54E-03,8.68E-03
24471,5.75E-03,7.06E-03
24472,5.32E-03,7.25E-03
24473,4.10E-03,1.42E-02
24474,4.12E-03,9.57E-03
24475,4.13E-03,1.37E-02
24476,4.96E-03,6.23E-03
24477,5.60E-03,3.25E-02
24478,5.13E-03,1.02E-02
24479,5.56E-03,2.09E-02
24480,5.74E-03,2.12E-02
24481,5.10E-03,1.02E-02
24482,5.50E-03,3.33E-02
24483,5.47E-03,1.01E-02
24484,5.83E-03,1.03E-02
24485,5.22E-03,3.58E-02
24486,5.21E-03,3.67E-02
24487,5.26E-03,3.50E-02
24488,5.64E-03,1.63E-02
24489,5.76E-03,1.27E-02
24490,5.35E-03,1.12E-02
24491,6.42E-03,1.04E-02
24492,5.76E-03,1.00E-02
24493,6.20E-03,1.02E-02
24494,5.57E-03,9.86E-03
24495,5.64E-03,8.50E-03
24496,5.71E-03,8.51E-03
24497,5.44E-03,8.49E-03
24498,5.61E-03,8.50E-03
24499,5.42E-03,8.49E-03
24500,5.06E-03,8.42E-03
24501,4.75E-03,8.13E-03
24502,5.24E-03,9.86E-03
24503,5.78E-03,3.61E-02
24504,5.50E-03,3.78E-02
24505,6.10E-03,3.58E-02
24506,5.57E-03,1.26E-02
24507,5.58E-03,1.28E-02
24508,5.60E-03,1.23E-02
24509,5.50E-03,8.55E-03
24510,5.64E-03,9.32E-03
24511,5.74E-03,9.52E-03
24512,4.73E-03,7.63E-03
24513,4.63E-03,7.47E-03
24514,5.09E-03,5.02E-03
24515,5.27E-03,5.13E-03
24516,5.60E-03,5.25E-03
24517,6.18E-03,6.79E-03
24518,4.92E-03,7.95E-03
24519,4.91E-03,7.85E-03
24520,5.25E-03,3.44E-02
24521,5.32E-03,3.28E-02
24522,5.65E-03,9.01E-03
24523,5.50E-03,8.40E-03
24524,5.65E-03,3.18E-02
24525,5.89E-03,9.53E-03
24526,6.11E-03,8.35E-03
24527,5.90E-03,9.07E-03
24528,6.61E-03,9.07E-03
24529,5.77E-03,9.24E-03
24530,5.64E-03,9.36E-03
24531,5.97E-03,8.67E-03
24532,6.31E-03,9.50E-03
24533,5.77E-03,1.03E-02
24534,5.82E-03,3.40E-02
24535,5.59E-03,9.72E-03
24536,5.66E-03,9.86E-03
24537,5.62E-03,9.80E-03
24538,5.43E-03,8.61E-03
24539,6.39E-03,8.52E-03
24540,4.94E-03,5.41E-03
24541,5.52E-03,8.98E-03
24542,5.39E-03,7.19E-03
24543,6.37E-03,1.05E-02
24544,6.20E-03,9.40E-03
24545,5.41E-03,3.75E-02
24546,5.43E-03,3.41E-02
24547,5.75E-03,1.62E-02
24548,5.58E-03,1.70E-02
24549,5.64E-03,1.25E-02
24550,5.71E-03,1.28E-02
24551,5.06E-03,1.17E-02
24552,5.38E-03,9.92E-03
24553,5.74E-03,8.36E-03
24554,5.22E-03,8.25E-03
24555,4.63E-03,8.15E-03
24556,5.39E-03,7.91E-03
24557,5.16E-03,7.89E-03
24558,5.07E-03,7.92E-03
24559,5.15E-03,1.04E-02
24560,5.23E-03,9.57E-03
24561,5.35E-03,3.32E-02
24562,5.67E-03,1.39E-02
24563,5.68E-03,1.29E-02
24564,5.50E-03,8.67E-03
24565,5.44E-03,8.81E-03
24566,5.68E-03,9.49E-03
24567,5.51E-03,9.57E-03
24568,5.38E-03,9.74E-03
24569,5.74E-03,9.82E-03
24570,5.07E-03,4.60E-03
24571,5.97E-03,5.56E-03
24572,6.12E-03,6.46E-03
24573,5.79E-03,1.43E-02
24574,5.37E-03,1.53E-02
24575,5.53E-03,1.52E-02
24576,5.19E-03,3.91E-02
24577,5.13E-03,3.68E-02
24578,5.50E-03,3.51E-02
24579,5.45E-03,9.14E-03
24580,5.54E-03,9.29E-03
24581,5.54E-03,8.71E-03
24582,5.51E-03,8.74E-03
24583,5.31E-03,3.41E-02
24584,5.97E-03,3.48E-02
24585,5.61E-03,9.74E-03
24586,5.52E-03,9.86E-03
24587,5.62E-03,9.82E-03
24588,5.84E-03,8.21E-03
24589,5.85E-03,8.26E-03
24590,5.32E-03,9.78E-03
24591,5.27E-03,9.64E-03
24592,6.24E-03,2.14E-02
24593,5.83E-03,8.65E-03
24594,5.98E-03,8.76E-03
24595,6.15E-03,9.75E-03
24596,6.09E-03,9.88E-03
24597,5.62E-03,1.13E-02
24598,5.81E-03,1.02E-02
24599,5.95E-03,1.03E-02
24600,4.29E-03,3.94E-02
24601,5.87E-03,1.57E-02
24602,5.29E-03,4.81E-03
24603,5.76E-03,3.18E-02
24604,5.74E-03,1.61E-02
24605,4.45E-03,1.81E-02
24606,5.46E-03,1.23E-02
24607,5.36E-03,9.94E-03
24608,5.65E-03,8.24E-03
24609,5.34E-03,8.31E-03
24610,5.27E-03,8.05E-03
24611,5.00E-03,1.11E-02
24612,5.18E-03,9.29E-03
24613,5.12E-03,3.07E-02
24614,5.66E-03,1.50E-02
24615,5.66E-03,1.34E-02
24616,5.36E-03,9.14E-03
24617,5.74E-03,9.69E-03
24618,5.40E-03,9.84E-03
24619,5.55E-03,9.91E-03
24620,5.65E-03,1.01E-02
24621,4.97E-03,4.81E-03
24622,6.21E-03,6.58E-03
24623,5.27E-03,1.53E-02
24624,4.51E-03,1.63E-02
24625,4.74E-03,1.63E-02
24626,5.52E-03,3.97E-02
24627,5.18E-03,4.00E-02
24628,5.22E-03,3.83E-02
24629,5.42E-03,3.76E-02
24630,5.50E-03,9.64E-03
24631,5.71E-03,9.10E-03
24632,5.45E-03,9.13E-03
24633,5.36E-03,9.97E-03
24634,6.42E-03,8.36E-03
24635,5.84E-03,2.10E-02
24636,5.32E-03,8.65E-03
24637,6.04E-03,8.93E-03
24638,5.97E-03,9.14E-03
24639,4.88E-03,8.26E-03
24640,4.46E-03,3.97E-02
24641,4.28E-03,3.97E-02
24642,5.34E-03,3.84E-02
24643,5.05E-03,4.20E-03
24644,5.59E-03,3.25E-02
24645,4.84E-03,1.87E-02
24646,5.61E-03,1.55E-02
24647,5.60E-03,1.59E-02
24648,5.34E-03,9.96E-03
24649,5.74E-03,8.17E-03
24650,5.31E-03,7.87E-03
24651,4.85E-03,1.17E-02
24652,5.04E-03,9.04E-03
24653,5.01E-03,2.85E-02
24654,5.64E-03,1.62E-02
24655,5.71E-03,1.61E-02
24656,5.71E-03,9.91E-03
24657,5.20E-03,1.01E-02
24658,6.42E-03,6.74E-03
24659,6.29E-03,6.94E-03
24660,6.17E-03,7.08E-03
24661,6.20E-03,7.23E-03
24662,5.09E-03,4.08E-02
24663,5.16E-03,3.95E-02
24664,5.28E-03,3.99E-02
24665,5.40E-03,3.76E-02
24666,5.02E-03,1.61E-02
24667,4.71E-03,6.94E-03
24668,4.85E-03,5.82E-03
24669,6.68E-03,7.83E-03
24670,5.90E-03,1.00E-02
24671,5.72E-03,9.85E-03
24672,5.70E-03,9.65E-03
24673,5.54E-03,9.23E-03
24674,4.67E-03,1.24E-02
24675,4.88E-03,8.84E-03
24676,4.93E-03,2.64E-02
24677,5.62E-03,1.24E-02
24678,5.70E-03,3.47E-02
24679,5.37E-03,3.29E-02
24680,6.06E-03,3.23E-02
24681,5.88E-03,2.19E-02
24682,5.77E-03,2.16E-02
24683,4.38E-03,1.30E-02
24684,5.65E-03,2.72E-02
24685,5.57E-03,9.02E-03
24686,4.76E-03,8.65E-03
24687,4.89E-03,2.43E-02
24688,5.94E-03,3.10E-02
24689,5.95E-03,3.10E-02
24690,5.51E-03,2.07E-02
24691,4.21E-03,1.94E-02
24692,5.63E-03,2.15E-02
24693,5.41E-03,9.56E-03
24694,5.43E-03,9.58E-03
24695,5.42E-03,9.20E-03
24696,5.70E-03,7.41E-03
24697,5.73E-03,8.82E-03
24698,4.67E-03,8.46E-03
24699,4.82E-03,2.24E-02
24700,6.26E-03,1.17E-02
24701,4.91E-03,1.05E-02
24702,4.83E-03,1.06E-02
24703,5.92E-03,3.18E-02
24704,5.03E-03,1.99E-02
24705,6.05E-03,8.62E-03
24706,4.67E-03,8.27E-03
24707,4.79E-03,2.06E-02
24708,5.15E-03,9.52E-03
24709,5.17E-03,9.60E-03
24710,5.55E-03,3.26E-02
24711,5.03E-03,1.91E-02
24712,5.49E-03,8.43E-03
24713,4.78E-03,8.14E-03
24714,4.90E-03,1.88E-02
24715,5.54E-03,3.33E-02
24716,5.53E-03,8.24E-03
24717,6.30E-03,2.02E-02
24718,5.74E-03,2.08E-02
24719,4.87E-03,8.07E-03
24720,5.03E-03,1.52E-02
24721,5.01E-03,1.69E-02
24722,5.11E-03,1.82E-02
24723,5.15E-03,1.74E-02
24724,5.55E-03,3.41E-02
24725,5.14E-03,8.07E-03
24726,4.99E-03,8.06E-03
24727,5.72E-03,1.44E-02
24728,5.54E-03,1.51E-02
24729,5.56E-03,3.51E-02
24730,5.92E-03,1.38E-02
24731,5.86E-03,1.45E-02
24732,5.72E-03,1.52E-02
24733,5.07E-03,8.12E-03
24734,5.47E-03,1.34E-02
24735,5.67E-03,1.32E-02
24736,5.55E-03,3.61E-02
24737,5.21E-03,8.31E-03
24738,5.42E-03,1.25E-02
24739,4.67E-03,1.66E-02
24740,4.38E-03,1.59E-02
24741,5.63E-03,3.72E-02
24742,5.32E-03,1.17E-02
24743,5.30E-03,1.17E-02
24744,5.72E-03,6.96E-03
24745,5.64E-03,5.90E-03
24746,5.15E-03,1.09E-02
24747,5.19E-03,1.04E-02
24748,4.26E-03,1.52E-02
24749,4.95E-03,8.58E-03
24750,4.83E-03,8.90E-03
24751,4.79E-03,1.02E-02
24752,4.72E-03,8.73E-03
24753,4.84E-03,9.33E-03
24754,5.70E-03,7.08E-03
24755,5.42E-03,7.41E-03
24756,4.20E-03,1.45E-02
24757,4.48E-03,9.31E-03
24758,3.62E-03,9.57E-03
24759,4.13E-03,1.39E-02
24760,5.02E-03,7.95E-03
24761,5.01E-03,7.02E-03
24762,5.22E-03,8.90E-03
24763,4.38E-03,2.60E-02
24764,4.47E-03,9.15E-03
24765,5.45E-03,8.03E-03
24766,5.78E-03,8.12E-03
24767,5.44E-03,3.58E-02
24768,5.39E-03,3.66E-02
24769,5.45E-03,3.50E-02
24770,5.69E-03,1.66E-02
24771,5.78E-03,1.31E-02
24772,6.62E-03,1.12E-02
24773,5.20E-03,1.15E-02
24774,6.43E-03,1.07E-02
24775,5.90E-03,1.03E-02
24776,6.22E-03,1.05E-02
24777,5.60E-03,1.01E-02
24778,5.68E-03,8.33E-03
24779,5.73E-03,8.34E-03
24780,5.56E-03,8.31E-03
24781,5.63E-03,8.32E-03
24782,5.45E-03,8.30E-03
24783,4.93E-03,8.22E-03
24784,5.11E-03,7.91E-03
24785,5.22E-03,1.00E-02
24786,6.07E-03,3.71E-02
24787,5.56E-03,3.50E-02
24788,5.59E-03,1.34E-02
24789,5.63E-03,1.37E-02
24790,5.58E-03,1.32E-02
24791,5.44E-03,8.74E-03
24792,5.64E-03,9.53E-03
24793,5.59E-03,9.78E-03
24794,4.92E-03,7.47E-03
24795,5.13E-03,4.83E-03
24796,5.10E-03,4.70E-03
24797,5.35E-03,5.16E-03
24798,5.20E-03,4.99E-03
24799,5.69E-03,5.35E-03
24800,5.94E-03,6.75E-03
24801,5.38E-03,1.52E-02
24802,5.92E-03,3.91E-02
24803,5.27E-03,3.65E-02
24804,5.41E-03,3.53E-02
24805,5.51E-03,9.22E-03
24806,5.54E-03,8.72E-03
24807,6.42E-03,3.44E-02
24808,5.63E-03,9.78E-03
24809,6.10E-03,8.31E-03
24810,6.02E-03,9.59E-03
24811,6.14E-03,9.66E-03
24812,5.90E-03,2.26E-02
24813,6.02E-03,2.28E-02
24814,6.02E-03,2.34E-02
24815,6.10E-03,2.36E-02
24816,6.02E-03,2.43E-02
24817,5.56E-03,9.42E-03
24818,5.29E-03,9.51E-03
24819,6.00E-03,2.21E-02
24820,5.91E-03,8.70E-03
24821,6.24E-03,1.05E-02
24822,5.98E-03,1.01E-02
24823,5.02E-03,1.07E-02
24824,5.47E-03,1.09E-02
24825,5.41E-03,1.04E-02
24826,6.20E-03,1.05E-02
24827,5.92E-03,3.67E-02
24828,5.60E-03,1.02E-02
24829,5.53E-03,1.01E-02
24830,4.88E-03,1.71E-02
24831,5.56E-03,6.92E-03
24832,5.33E-03,5.39E-03
24833,6.96E-03,6.99E-03
24834,5.95E-03,3.10E-02
24835,5.99E-03,2.43E-02
24836,5.13E-03,2.49E-02
24837,5.80E-03,1.65E-02
24838,4.97E-03,1.77E-02
24839,5.51E-03,1.73E-02
24840,5.57E-03,1.29E-02
24841,5.67E-03,1.32E-02
24842,5.32E-03,1.20E-02
24843,5.49E-03,1.01E-02
24844,5.66E-03,8.22E-03
24845,5.34E-03,8.11E-03
24846,5.27E-03,8.02E-03
24847,3.90E-03,8.03E-03
24848,5.46E-03,7.72E-03
24849,5.33E-03,7.70E-03
24850,5.32E-03,7.71E-03
24851,5.11E-03,1.06E-02
24852,5.22E-03,9.71E-03
24853,5.24E-03,3.26E-02
24854,3.93E-03,3.78E-02
24855,5.40E-03,3.64E-02
24856,5.71E-03,1.48E-02
24857,5.65E-03,1.38E-02
24858,5.40E-03,8.93E-03
24859,5.41E-03,9.06E-03
24860,5.68E-03,9.73E-03
24861,5.49E-03,9.80E-03
24862,5.51E-03,9.96E-03
24863,5.62E-03,1.01E-02
24864,5.09E-03,5.11E-03
24865,6.11E-03,6.51E-03
24866,6.07E-03,6.87E-03
24867,5.00E-03,1.64E-02
24868,5.68E-03,1.62E-02
24869,5.49E-03,3.99E-02
24870,5.45E-03,4.00E-02
24871,5.19E-03,3.81E-02
24872,6.22E-03,3.95E-02
24873,5.07E-03,3.90E-02
24874,5.42E-03,3.78E-02
24875,5.35E-03,9.39E-03
24876,5.44E-03,9.56E-03
24877,5.65E-03,9.11E-03
24878,5.47E-03,9.12E-03
24879,5.62E-03,3.72E-02
24880,5.44E-03,1.00E-02
24881,5.53E-03,1.01E-02
24882,5.57E-03,1.01E-02
24883,5.94E-03,8.15E-03
24884,5.98E-03,8.22E-03
24885,5.18E-03,9.97E-03
24886,4.99E-03,9.80E-03
24887,6.04E-03,2.16E-02
24888,6.12E-03,2.30E-02
24889,5.77E-03,8.70E-03
24890,6.04E-03,8.84E-03
24891,5.91E-03,1.04E-02
24892,5.81E-03,1.05E-02
24893,5.00E-03,2.65E-02
24894,5.06E-03,2.71E-02
24895,4.99E-03,2.73E-02
24896,5.91E-03,9.29E-03
24897,4.33E-03,4.11E-02
24898,5.14E-03,4.04E-03
24899,5.70E-03,3.18E-02
24900,3.73E-03,1.83E-02
24901,5.99E-03,1.95E-02
24902,5.63E-03,1.64E-02
24903,5.57E-03,1.26E-02
24904,5.41E-03,1.02E-02
24905,5.69E-03,8.13E-03
24906,5.28E-03,7.85E-03
24907,4.97E-03,1.13E-02
24908,5.12E-03,9.44E-03
24909,5.04E-03,3.02E-02
24910,3.61E-03,3.82E-02
24911,3.65E-03,3.66E-02
24912,5.71E-03,1.60E-02
24913,5.66E-03,1.40E-02
24914,5.63E-03,1.44E-02
24915,5.76E-03,9.96E-03
24916,5.33E-03,1.01E-02
24917,5.52E-03,1.02E-02
24918,5.40E-03,1.04E-02
24919,4.84E-03,8.53E-03
24920,4.95E-03,5.98E-03
24921,6.94E-03,8.34E-03
24922,6.06E-03,7.44E-03
24923,4.79E-03,1.73E-02
24924,5.05E-03,1.73E-02
24925,5.16E-03,4.07E-02
24926,5.21E-03,4.09E-02
24927,4.42E-03,4.16E-02
24928,4.22E-03,4.09E-02
24929,5.31E-03,3.97E-02
24930,4.70E-03,3.97E-02
24931,5.85E-03,4.14E-02
24932,5.43E-03,4.02E-02
24933,5.83E-03,9.59E-03
24934,5.41E-03,9.55E-03
24935,4.91E-03,3.98E-02
24936,5.24E-03,1.03E-02
24937,4.85E-03,2.88E-02
24938,5.21E-03,2.63E-02
24939,5.95E-03,2.32E-02
24940,5.87E-03,2.12E-02
24941,6.21E-03,2.38E-02
24942,6.54E-03,8.51E-03
24943,5.47E-03,8.64E-03
24944,6.08E-03,9.04E-03
24945,4.98E-03,1.60E-02
24946,4.91E-03,5.01E-03
24947,5.97E-03,1.03E-02
24948,5.88E-03,1.01E-02
24949,5.71E-03,9.90E-03
24950,5.62E-03,9.46E-03
24951,5.45E-03,1.59E-02
24952,5.39E-03,1.63E-02
24953,5.28E-03,1.02E-02
24954,5.80E-03,8.09E-03
24955,5.41E-03,7.68E-03
24956,4.77E-03,1.19E-02
24957,4.98E-03,9.20E-03
24958,4.98E-03,2.81E-02
24959,4.41E-03,3.81E-02
24960,5.69E-03,1.73E-02
24961,5.78E-03,1.72E-02
24962,5.66E-03,1.36E-02
24963,5.47E-03,1.21E-02
24964,5.71E-03,1.02E-02
24965,5.01E-03,1.04E-02
24966,4.99E-03,1.07E-02
24967,5.77E-03,8.53E-03
24968,5.86E-03,8.46E-03
24969,5.82E-03,3.72E-02
24970,5.41E-03,3.56E-02
24971,5.02E-03,3.46E-02
24972,5.95E-03,3.03E-02
24973,5.74E-03,2.96E-02
24974,5.79E-03,2.23E-02
24975,4.30E-03,1.32E-02
24976,5.76E-03,3.03E-02
24977,5.61E-03,9.26E-03
24978,4.61E-03,1.26E-02
24979,4.84E-03,8.99E-03
24980,4.87E-03,2.60E-02
24981,4.44E-03,3.95E-02
24982,4.99E-03,1.72E-02
24983,3.51E-03,4.24E-02
24984,3.41E-03,4.35E-02
24985,5.86E-03,3.03E-02
24986,6.12E-03,2.54E-02
24987,5.59E-03,2.14E-02
24988,5.61E-03,2.48E-02
24989,5.35E-03,1.00E-02
24990,5.43E-03,1.01E-02
24991,5.46E-03,9.60E-03
24992,3.99E-03,7.09E-03
24993,4.62E-03,8.37E-03
24994,5.52E-03,7.60E-03
24995,5.86E-03,7.38E-03
24996,5.62E-03,7.26E-03
24997,5.79E-03,7.22E-03
24998,5.66E-03,9.06E-03
24999,4.73E-03,8.79E-03
25000,4.81E-03,2.40E-02
25001,3.46E-03,3.99E-02
25002,6.15E-03,9.36E-03
25003,5.99E-03,1.32E-02
25004,3.72E-03,1.07E-02
25005,4.01E-03,1.08E-02
25006,5.86E-03,3.10E-02
25007,5.34E-03,2.05E-02
25008,5.75E-03,8.86E-03
25009,4.64E-03,8.58E-03
25010,4.81E-03,2.21E-02
25011,5.22E-03,9.44E-03
25012,4.96E-03,9.86E-03
25013,4.86E-03,9.97E-03
25014,5.74E-03,3.18E-02
25015,5.11E-03,1.97E-02
25016,5.68E-03,8.65E-03
25017,4.70E-03,8.39E-03
25018,4.83E-03,2.03E-02
25019,4.62E-03,1.91E-02
25020,5.36E-03,2.23E-02
25021,5.60E-03,3.25E-02
25022,5.59E-03,8.47E-03
25023,5.92E-03,2.03E-02
25024,5.96E-03,2.09E-02
25025,4.82E-03,8.26E-03
25026,4.98E-03,1.51E-02
25027,4.91E-03,1.84E-02
25028,5.20E-03,1.88E-02
25029,5.38E-03,1.79E-02
25030,5.62E-03,3.33E-02
25031,5.33E-03,7.85E-03
25032,5.48E-03,8.28E-03
25033,4.92E-03,8.18E-03
25034,5.23E-03,1.43E-02
25035,5.14E-03,1.66E-02
25036,5.64E-03,3.41E-02
25037,5.87E-03,1.41E-02
25038,5.78E-03,1.48E-02
25039,5.58E-03,1.55E-02
25040,5.24E-03,1.62E-02
25041,5.05E-03,8.15E-03
25042,5.45E-03,1.34E-02
25043,5.15E-03,9.96E-03
25044,5.21E-03,9.46E-03
25045,5.89E-03,1.47E-02
25046,5.62E-03,3.51E-02
25047,5.14E-03,8.19E-03
25048,5.43E-03,1.25E-02
25049,4.59E-03,8.81E-03
25050,5.15E-03,1.70E-02
25051,4.49E-03,1.62E-02
25052,5.62E-03,3.61E-02
25053,5.32E-03,1.17E-02
25054,5.29E-03,1.30E-02
25055,5.53E-03,3.72E-02
25056,5.69E-03,5.11E-03
25057,5.59E-03,4.27E-03
25058,5.18E-03,1.09E-02
25059,5.11E-03,1.15E-02
25060,4.36E-03,1.55E-02
25061,5.54E-03,3.94E-02
25062,5.70E-03,3.82E-02
25063,5.00E-03,8.42E-03
25064,4.80E-03,8.64E-03
25065,4.95E-03,1.03E-02
25066,4.78E-03,8.75E-03
25067,4.87E-03,1.03E-02
25068,5.79E-03,7.61E-03
25069,5.63E-03,8.01E-03
25070,4.28E-03,1.48E-02
25071,4.71E-03,8.95E-03
25072,4.58E-03,9.63E-03
25073,4.73E-03,9.40E-03
25074,4.20E-03,1.41E-02
25075,4.65E-03,9.31E-03
25076,5.27E-03,8.93E-03
25077,4.70E-03,4.17E-02
25078,5.43E-03,3.92E-02
25079,5.01E-03,4.17E-02
25080,5.18E-03,4.25E-02
25081,5.41E-03,4.01E-02
25082,5.39E-03,1.00E-02
25083,5.32E-03,9.96E-03
25084,3.63E-03,4.15E-02
25085,5.48E-03,6.08E-03
25086,5.75E-03,6.11E-03
25087,5.54E-03,3.74E-02
25088,5.48E-03,3.83E-02
25089,5.59E-03,3.57E-02
25090,5.59E-03,3.65E-02
25091,5.55E-03,3.49E-02
25092,6.04E-03,3.03E-02
25093,4.54E-03,2.55E-02
25094,5.86E-03,1.70E-02
25095,5.79E-03,1.35E-02
25096,6.16E-03,1.15E-02
25097,5.74E-03,1.18E-02
25098,6.35E-03,1.10E-02
25099,6.53E-03,1.12E-02
25100,5.91E-03,1.05E-02
25101,6.14E-03,1.07E-02
25102,5.61E-03,1.03E-02
25103,5.69E-03,8.18E-03
25104,5.67E-03,8.20E-03
25105,5.64E-03,8.13E-03
25106,5.70E-03,8.16E-03
25107,5.48E-03,8.12E-03
25108,5.52E-03,8.04E-03
25109,5.24E-03,7.72E-03
25110,5.19E-03,1.02E-02
25111,5.25E-03,3.45E-02
25112,5.65E-03,1.43E-02
25113,5.68E-03,1.46E-02
25114,5.58E-03,1.41E-02
25115,5.38E-03,8.99E-03
25116,5.61E-03,9.77E-03
25117,5.54E-03,1.00E-02
25118,5.07E-03,7.74E-03
25119,5.12E-03,5.58E-03
25120,5.08E-03,5.35E-03
25121,5.39E-03,6.07E-03
25122,5.20E-03,5.81E-03
25123,5.70E-03,6.31E-03
25124,5.95E-03,7.21E-03
25125,5.12E-03,9.08E-03
25126,5.08E-03,8.60E-03
25127,5.15E-03,9.52E-03
25128,5.59E-03,1.63E-02
25129,5.08E-03,4.00E-02
25130,6.38E-03,4.01E-02
25131,5.85E-03,3.94E-02
25132,5.09E-03,3.86E-02
25133,4.95E-03,3.81E-02
25134,5.27E-03,3.79E-02
25135,5.40E-03,9.47E-03
25136,5.57E-03,9.12E-03
25137,6.24E-03,3.70E-02
25138,5.52E-03,1.00E-02
25139,4.72E-03,2.84E-02
25140,4.61E-03,2.78E-02
25141,6.26E-03,8.40E-03
25142,6.09E-03,8.30E-03
25143,5.91E-03,1.02E-02
25144,5.95E-03,1.03E-02
25145,5.03E-03,9.56E-03
25146,4.94E-03,9.68E-03
25147,6.09E-03,2.23E-02
25148,5.99E-03,8.77E-03
25149,5.07E-03,1.11E-02
25150,5.65E-03,1.08E-02
25151,4.83E-03,2.75E-02
25152,4.87E-03,2.68E-02
25153,4.97E-03,2.74E-02
25154,5.20E-03,1.04E-02
25155,5.80E-03,1.05E-02
25156,5.25E-03,1.05E-02
25157,5.96E-03,9.48E-03
25158,4.26E-03,4.28E-02
25159,5.58E-03,5.07E-03
25160,5.28E-03,4.14E-03
25161,4.89E-03,5.37E-03
25162,5.88E-03,3.10E-02
25163,5.22E-03,2.80E-02
25164,4.58E-03,1.80E-02
25165,5.24E-03,1.90E-02
25166,5.80E-03,1.69E-02
25167,3.62E-03,8.15E-03
25168,4.59E-03,3.79E-02
25169,5.48E-03,3.91E-02
25170,5.58E-03,4.00E-02
25171,5.64E-03,1.35E-02
25172,5.69E-03,1.23E-02
25173,5.53E-03,1.04E-02
25174,5.71E-03,8.10E-03
25175,4.25E-03,7.94E-03
25176,5.22E-03,7.85E-03
25177,5.42E-03,7.51E-03
25178,5.07E-03,1.08E-02
25179,5.16E-03,9.87E-03
25180,5.06E-03,3.20E-02
25181,4.72E-03,3.52E-02
25182,5.74E-03,1.58E-02
25183,5.62E-03,1.47E-02
25184,5.39E-03,9.25E-03
25185,5.35E-03,9.36E-03
25186,5.74E-03,1.00E-02
25187,5.49E-03,1.01E-02
25188,5.53E-03,1.02E-02
25189,5.49E-03,1.03E-02
25190,4.39E-03,8.54E-03
25191,5.00E-03,6.41E-03
25192,6.45E-03,8.20E-03
25193,5.98E-03,7.75E-03
25194,5.28E-03,1.74E-02
25195,5.62E-03,1.73E-02
25196,5.24E-03,4.08E-02
25197,5.43E-03,4.11E-02
25198,5.93E-03,4.04E-02
25199,4.80E-03,4.16E-02
25200,5.84E-03,4.33E-02
25201,5.09E-03,4.34E-02
25202,5.49E-03,4.18E-02
25203,5.56E-03,4.19E-02
25204,5.01E-03,4.11E-02
25205,5.35E-03,4.00E-02
25206,5.50E-03,4.03E-02
25207,5.22E-03,9.69E-03
25208,5.38E-03,9.87E-03
25209,5.67E-03,9.58E-03
25210,5.47E-03,9.56E-03
25211,5.32E-03,3.96E-02
25212,5.36E-03,1.03E-02
25213,5.54E-03,1.04E-02
25214,5.55E-03,1.04E-02
25215,4.31E-03,2.81E-02
25216,5.03E-03,2.70E-02
25217,5.90E-03,8.10E-03
25218,6.06E-03,8.21E-03
25219,4.61E-03,9.72E-03
25220,5.10E-03,1.02E-02
25221,5.07E-03,9.99E-03
25222,6.10E-03,2.18E-02
25223,6.33E-03,2.31E-02
25224,5.75E-03,8.76E-03
25225,6.12E-03,8.95E-03
25226,5.81E-03,1.11E-02
25227,5.62E-03,1.13E-02
25228,5.13E-03,1.59E-02
25229,5.12E-03,7.67E-03
25230,5.10E-03,4.45E-03
25231,5.97E-03,1.04E-02
25232,5.82E-03,1.01E-02
25233,5.70E-03,9.70E-03
25234,5.81E-03,1.98E-02
25235,5.52E-03,1.67E-02
25236,5.39E-03,1.04E-02
25237,5.75E-03,8.05E-03
25238,5.42E-03,7.67E-03
25239,5.47E-03,7.28E-03
25240,4.89E-03,1.15E-02
25241,5.05E-03,9.60E-03
25242,4.99E-03,2.97E-02
25243,4.31E-03,3.62E-02
25244,5.81E-03,1.71E-02
25245,5.65E-03,1.49E-02
25246,5.62E-03,1.53E-02
25247,5.61E-03,1.33E-02
25248,5.14E-03,1.18E-02
25249,5.73E-03,1.03E-02
25250,5.36E-03,1.04E-02
25251,5.49E-03,1.05E-02
25252,5.27E-03,1.07E-02
25253,6.22E-03,1.06E-02
25254,5.91E-03,8.67E-03
25255,5.13E-03,1.83E-02
25256,5.30E-03,1.84E-02
25257,5.17E-03,4.19E-02
25258,6.18E-03,4.33E-02
25259,5.17E-03,4.38E-02
25260,5.34E-03,4.41E-02
25261,5.38E-03,3.81E-02
25262,5.24E-03,1.03E-02
25263,5.78E-03,1.01E-02
25264,5.32E-03,1.00E-02
25265,4.43E-03,4.22E-02
25266,5.12E-03,1.06E-02
25267,5.50E-03,2.89E-02
25268,5.87E-03,2.30E-02
25269,5.94E-03,2.14E-02
25270,5.19E-03,2.51E-02
25271,5.83E-03,2.45E-02
25272,6.18E-03,8.55E-03
25273,6.09E-03,8.68E-03
25274,6.20E-03,9.17E-03
25275,4.25E-03,1.35E-02
25276,5.80E-03,3.37E-02
25277,4.92E-03,6.52E-03
25278,5.67E-03,9.50E-03
25279,5.18E-03,1.66E-02
25280,5.25E-03,1.04E-02
25281,5.76E-03,8.03E-03
25282,4.96E-03,7.53E-03
25283,5.78E-03,7.53E-03
25284,4.68E-03,1.21E-02
25285,4.91E-03,9.37E-03
25286,4.90E-03,2.76E-02
25287,4.59E-03,3.76E-02
25288,5.73E-03,1.84E-02
25289,5.81E-03,1.83E-02
25290,5.68E-03,1.46E-02
25291,5.71E-03,1.06E-02
25292,5.34E-03,1.07E-02
25293,5.83E-03,1.09E-02
25294,4.99E-03,4.17E-02
25295,4.86E-03,4.17E-02
25296,5.01E-03,9.86E-03
25297,5.11E-03,1.70E-02
25298,4.08E-03,4.37E-02
25299,5.61E-03,4.26E-02
25300,4.80E-03,4.47E-02
25301,3.45E-03,4.44E-02
25302,5.75E-03,2.95E-02
25303,5.51E-03,2.61E-02
25304,5.89E-03,2.52E-02
25305,5.73E-03,2.21E-02
25306,5.70E-03,2.80E-02
25307,5.10E-03,1.05E-02
25308,5.26E-03,1.05E-02
25309,5.58E-03,1.01E-02
25310,5.90E-03,9.85E-03
25311,4.73E-03,9.07E-03
25312,5.48E-03,7.61E-03
25313,6.89E-03,7.37E-03
25314,6.15E-03,7.20E-03
25315,5.66E-03,9.30E-03
25316,5.57E-03,3.98E-02
25317,5.52E-03,3.89E-02
25318,4.53E-03,1.28E-02
25319,4.79E-03,9.15E-03
25320,4.87E-03,2.55E-02
25321,4.44E-03,3.85E-02
25322,5.95E-03,7.18E-03
25323,6.09E-03,1.08E-02
25324,3.91E-03,1.11E-02
25325,5.10E-03,1.82E-02
25326,4.23E-03,4.48E-02
25327,5.81E-03,3.02E-02
25328,5.46E-03,2.11E-02
25329,5.73E-03,9.09E-03
25330,4.71E-03,8.93E-03
25331,4.79E-03,2.36E-02
25332,4.56E-03,3.95E-02
25333,6.54E-03,1.47E-02
25334,5.07E-03,9.74E-03
25335,4.60E-03,1.03E-02
25336,5.76E-03,3.10E-02
25337,5.21E-03,2.03E-02
25338,5.69E-03,8.88E-03
25339,4.68E-03,8.70E-03
25340,4.78E-03,2.18E-02
25341,5.56E-03,4.49E-02
25342,5.34E-03,4.51E-02
25343,4.95E-03,4.35E-02
25344,5.30E-03,4.33E-02
25345,5.60E-03,2.55E-02
25346,5.69E-03,3.17E-02
25347,5.63E-03,8.69E-03
25348,5.87E-03,2.05E-02
25349,5.94E-03,2.11E-02
25350,4.71E-03,8.52E-03
25351,4.37E-03,1.50E-02
25352,4.83E-03,2.00E-02
25353,6.34E-03,1.94E-02
25354,5.63E-03,2.30E-02
25355,5.22E-03,1.94E-02
25356,5.39E-03,1.84E-02
25357,5.69E-03,3.24E-02
25358,5.24E-03,8.10E-03
25359,5.14E-03,7.88E-03
25360,5.61E-03,8.49E-03
25361,4.86E-03,8.38E-03
25362,4.99E-03,1.42E-02
25363,5.24E-03,1.04E-02
25364,4.77E-03,1.16E-02
25365,4.35E-03,1.16E-02
25366,4.04E-03,1.08E-02
25367,4.92E-03,1.81E-02
25368,5.67E-03,3.32E-02
25369,4.82E-03,2.63E-02
25370,4.66E-03,2.69E-02
25371,5.86E-03,1.45E-02
25372,5.71E-03,1.51E-02
25373,5.48E-03,1.58E-02
25374,4.98E-03,8.29E-03
25375,5.32E-03,1.34E-02
25376,5.16E-03,9.75E-03
25377,5.64E-03,1.63E-02
25378,6.41E-03,4.32E-02
25379,5.71E-03,3.41E-02
25380,5.08E-03,8.24E-03
25381,5.37E-03,1.25E-02
25382,4.92E-03,9.01E-03
25383,6.07E-03,1.75E-02
25384,4.75E-03,1.66E-02
25385,5.67E-03,3.51E-02
25386,5.34E-03,1.17E-02
25387,4.79E-03,8.51E-03
25388,5.78E-03,1.43E-02
25389,5.66E-03,3.62E-02
25390,5.59E-03,3.77E-03
25391,5.60E-03,3.63E-03
25392,5.22E-03,1.10E-02
25393,4.98E-03,1.27E-02
25394,5.68E-03,4.47E-02
25395,4.43E-03,1.58E-02
25396,5.60E-03,3.71E-02
25397,5.57E-03,8.35E-03
25398,4.83E-03,8.52E-03
25399,5.06E-03,1.03E-02
25400,4.83E-03,8.76E-03
25401,4.88E-03,1.13E-02
25402,5.71E-03,4.60E-02
25403,5.84E-03,8.53E-03
25404,5.71E-03,9.00E-03
25405,4.31E-03,1.50E-02
25406,4.74E-03,8.71E-03
25407,4.83E-03,9.72E-03
25408,4.76E-03,9.40E-03
25409,4.81E-03,1.02E-02
25410,4.23E-03,1.43E-02
25411,4.73E-03,9.00E-03
25412,4.57E-03,9.31E-03
25413,5.58E-03,1.10E-02
25414,5.46E-03,3.40E-02
25415,5.48E-03,4.47E-03
25416,5.56E-03,4.74E-03
25417,5.77E-03,3.73E-02
25418,5.63E-03,3.82E-02
25419,5.71E-03,3.56E-02
25420,5.80E-03,3.64E-02
25421,5.60E-03,3.48E-02
25422,6.21E-03,3.03E-02
25423,6.33E-03,2.87E-02
25424,4.87E-03,2.56E-02
25425,6.32E-03,1.77E-02
25426,4.80E-03,1.84E-02
25427,6.04E-03,1.73E-02
25428,5.79E-03,1.38E-02
25429,6.15E-03,1.18E-02
25430,5.92E-03,1.20E-02
25431,6.22E-03,1.13E-02
25432,6.31E-03,1.15E-02
25433,5.82E-03,1.08E-02
25434,6.15E-03,1.10E-02
25435,5.72E-03,1.06E-02
25436,5.80E-03,8.04E-03
25437,5.75E-03,8.08E-03
25438,5.73E-03,7.98E-03
25439,5.80E-03,8.01E-03
25440,5.51E-03,7.95E-03
25441,5.63E-03,7.95E-03
25442,5.27E-03,7.82E-03
25443,5.45E-03,7.86E-03
25444,5.08E-03,7.53E-03
25445,5.14E-03,1.03E-02
25446,5.03E-03,3.37E-02
25447,5.66E-03,1.53E-02
25448,5.68E-03,1.56E-02
25449,5.62E-03,1.50E-02
25450,5.35E-03,9.30E-03
25451,5.60E-03,1.00E-02
25452,5.52E-03,1.03E-02
25453,5.31E-03,8.34E-03
25454,5.11E-03,6.94E-03
25455,5.08E-03,6.72E-03
25456,5.29E-03,7.41E-03
25457,5.16E-03,7.13E-03
25458,5.76E-03,7.85E-03
25459,5.94E-03,8.13E-03
25460,5.44E-03,9.69E-03
25461,5.23E-03,9.11E-03
25462,4.69E-03,1.07E-02
25463,5.29E-03,1.02E-02
25464,4.47E-03,1.11E-02
25465,5.46E-03,1.74E-02
25466,5.49E-03,4.09E-02
25467,5.57E-03,4.09E-02
25468,5.50E-03,4.10E-02
25469,5.76E-03,4.08E-02
25470,6.05E-03,4.13E-02
25471,5.98E-03,4.12E-02
25472,5.80E-03,4.05E-02
25473,5.92E-03,4.16E-02
25474,6.01E-03,4.14E-02
25475,5.28E-03,4.33E-02
25476,5.57E-03,4.19E-02
25477,4.95E-03,4.08E-02
25478,5.30E-03,4.04E-02
25479,5.41E-03,4.05E-02
25480,5.34E-03,9.77E-03
25481,5.54E-03,9.57E-03
25482,5.59E-03,3.98E-02
25483,5.53E-03,1.03E-02
25484,5.00E-03,2.76E-02
25485,6.15E-03,8.41E-03
25486,6.05E-03,8.31E-03
25487,5.92E-03,1.09E-02
25488,5.89E-03,1.10E-02
25489,6.23E-03,8.49E-03
25490,4.94E-03,9.83E-03
25491,6.20E-03,2.24E-02
25492,5.98E-03,8.86E-03
25493,4.92E-03,1.17E-02
25494,5.27E-03,1.15E-02
25495,5.44E-03,8.09E-03
25496,5.52E-03,8.14E-03
25497,5.24E-03,9.64E-03
25498,5.44E-03,7.80E-03
25499,5.28E-03,4.07E-02
25500,5.61E-03,3.94E-02
25501,5.59E-03,3.83E-03
25502,5.29E-03,4.01E-03
25503,4.73E-03,3.59E-03
25504,5.81E-03,1.04E-02
25505,5.76E-03,9.94E-03
25506,5.67E-03,3.17E-02
25507,5.91E-03,3.10E-02
25508,5.45E-03,2.81E-02
25509,5.73E-03,1.92E-02
25510,5.57E-03,1.72E-02
25511,5.78E-03,1.26E-02
25512,5.45E-03,1.06E-02
25513,5.77E-03,8.01E-03
25514,5.14E-03,7.67E-03
25515,5.33E-03,7.31E-03
25516,5.02E-03,1.10E-02
25517,5.09E-03,1.00E-02
25518,4.98E-03,3.14E-02
25519,4.59E-03,3.45E-02
25520,5.74E-03,1.69E-02
25521,5.63E-03,1.57E-02
25522,5.48E-03,1.30E-02
25523,5.36E-03,9.64E-03
25524,5.25E-03,9.70E-03
25525,5.74E-03,1.03E-02
25526,5.52E-03,1.04E-02
25527,5.53E-03,1.05E-02
25528,5.49E-03,1.06E-02
25529,6.06E-03,1.07E-02
25530,5.16E-03,9.42E-03
25531,5.12E-03,8.15E-03
25532,6.85E-03,9.94E-03
25533,6.03E-03,8.99E-03
25534,5.41E-03,1.84E-02
25535,5.66E-03,1.84E-02
25536,5.30E-03,4.18E-02
25537,5.46E-03,4.21E-02
25538,5.35E-03,4.52E-02
25539,5.82E-03,4.54E-02
25540,5.41E-03,4.52E-02
25541,5.76E-03,4.38E-02
25542,5.48E-03,4.41E-02
25543,5.13E-03,4.36E-02
25544,6.57E-03,3.99E-02
25545,5.50E-03,4.27E-02
25546,5.87E-03,4.30E-02
25547,5.22E-03,1.00E-02
25548,5.29E-03,1.02E-02
25549,5.67E-03,1.01E-02
25550,5.42E-03,1.01E-02
25551,5.47E-03,4.26E-02
25552,5.07E-03,4.22E-02
25553,5.40E-03,1.06E-02
25554,5.50E-03,1.07E-02
25555,5.50E-03,1.07E-02
25556,5.25E-03,2.81E-02
25557,5.34E-03,2.68E-02
25558,5.70E-03,8.21E-03
25559,5.93E-03,2.37E-02
25560,6.06E-03,2.19E-02
25561,6.96E-03,2.39E-02
25562,6.52E-03,2.32E-02
25563,6.03E-03,8.83E-03
25564,6.34E-03,9.07E-03
25565,4.25E-03,1.37E-02
25566,5.19E-03,5.87E-03
25567,5.38E-03,4.09E-03
25568,4.66E-03,3.87E-03
25569,5.73E-03,9.75E-03
25570,5.27E-03,3.24E-02
25571,5.72E-03,3.17E-02
25572,4.02E-03,2.53E-02
25573,4.38E-03,2.48E-02
25574,5.76E-03,1.99E-02
25575,5.37E-03,1.70E-02
25576,5.36E-03,1.06E-02
25577,5.80E-03,7.98E-03
25578,5.87E-03,7.46E-03
25579,5.43E-03,7.47E-03
25580,4.24E-03,7.67E-03
25581,5.66E-03,7.04E-03
25582,5.49E-03,7.08E-03
25583,4.76E-03,7.37E-03
25584,5.90E-03,7.01E-03
25585,4.82E-03,1.17E-02
25586,4.98E-03,9.78E-03
25587,4.93E-03,2.92E-02
25588,4.56E-03,3.57E-02
25589,5.85E-03,1.81E-02
25590,5.66E-03,1.59E-02
25591,5.61E-03,1.63E-02
25592,5.69E-03,1.42E-02
25593,4.76E-03,1.23E-02
25594,5.78E-03,1.06E-02
25595,5.41E-03,1.08E-02
25596,5.53E-03,1.08E-02
25597,5.08E-03,1.11E-02
25598,5.27E-03,1.10E-02
25599,5.93E-03,1.09E-02
25600,5.04E-03,1.08E-02
25601,4.84E-03,1.09E-02
25602,5.28E-03,7.26E-03
25603,5.23E-03,3.32E-02
25604,5.37E-03,3.40E-02
25605,5.27E-03,1.09E-02
25606,6.06E-03,1.01E-02
25607,5.14E-03,1.68E-02
25608,5.32E-03,1.95E-02
25609,5.38E-03,1.96E-02
25610,4.57E-03,4.26E-02
25611,5.14E-03,4.30E-02
25612,6.06E-03,4.27E-02
25613,5.79E-03,4.17E-02
25614,5.91E-03,4.28E-02
25615,5.40E-03,4.68E-02
25616,5.81E-03,4.56E-02
25617,5.79E-03,4.61E-02
25618,5.36E-03,4.35E-02
25619,4.93E-03,4.59E-02
25620,6.36E-03,4.53E-02
25621,4.89E-03,1.06E-02
25622,5.79E-03,1.08E-02
25623,5.18E-03,1.06E-02
25624,4.46E-03,4.48E-02
25625,5.68E-03,1.09E-02
25626,5.56E-03,2.88E-02
25627,5.69E-03,2.59E-02
25628,5.81E-03,2.28E-02
25629,5.99E-03,2.15E-02
25630,6.59E-03,9.34E-03
25631,4.42E-03,9.84E-03
25632,5.16E-03,9.68E-03
25633,6.14E-03,8.62E-03
25634,6.26E-03,8.75E-03
25635,5.74E-03,3.13E-02
25636,5.36E-03,1.07E-02
25637,5.23E-03,8.61E-03
25638,7.05E-03,7.17E-03
25639,7.29E-03,7.48E-03
25640,5.71E-03,9.54E-03
25641,4.82E-03,1.69E-02
25642,5.23E-03,1.06E-02
25643,5.83E-03,7.99E-03
25644,4.59E-03,1.24E-02
25645,4.85E-03,9.54E-03
25646,4.87E-03,2.71E-02
25647,4.65E-03,3.69E-02
25648,5.68E-03,5.02E-03
25649,5.86E-03,8.30E-03
25650,5.84E-03,1.95E-02
25651,5.95E-03,1.94E-02
25652,5.70E-03,1.55E-02
25653,6.00E-03,1.10E-02
25654,5.11E-03,1.11E-02
25655,5.31E-03,1.13E-02
25656,5.02E-03,1.13E-02
25657,5.84E-03,1.13E-02
25658,5.26E-03,1.81E-02
25659,4.53E-03,4.34E-02
25660,4.78E-03,4.37E-02
25661,4.60E-03,4.62E-02
25662,5.76E-03,2.95E-02
25663,5.63E-03,2.18E-02
25664,4.46E-03,1.30E-02
25665,6.28E-03,1.21E-02
25666,6.33E-03,1.14E-02
25667,5.71E-03,9.34E-03
25668,4.78E-03,3.24E-02
25669,4.10E-03,3.31E-02
25670,4.76E-03,9.31E-03
25671,4.82E-03,2.51E-02
25672,4.48E-03,3.77E-02
25673,5.79E-03,1.20E-02
25674,5.30E-03,1.01E-02
25675,5.25E-03,1.93E-02
25676,5.73E-03,3.01E-02
25677,5.31E-03,2.09E-02
25678,5.71E-03,9.13E-03
25679,4.69E-03,9.08E-03
25680,4.76E-03,2.33E-02
25681,4.88E-03,3.91E-02
25682,5.73E-03,2.88E-02
25683,6.17E-03,1.60E-02
25684,5.66E-03,1.14E-02
25685,5.66E-03,3.09E-02
25686,5.70E-03,8.92E-03
25687,5.74E-03,2.06E-02
25688,5.91E-03,2.12E-02
25689,4.67E-03,8.85E-03
25690,4.38E-03,1.50E-02
25691,4.72E-03,2.15E-02
25692,5.57E-03,2.62E-02
25693,5.23E-03,2.00E-02
25694,5.35E-03,1.91E-02
25695,5.69E-03,3.16E-02
25696,5.40E-03,8.31E-03
25697,5.37E-03,8.13E-03
25698,5.70E-03,8.72E-03
25699,4.76E-03,8.66E-03
25700,5.00E-03,1.41E-02
25701,5.85E-03,1.24E-02
25702,5.28E-03,1.21E-02
25703,3.94E-03,1.10E-02
25704,4.77E-03,1.97E-02
25705,5.57E-03,1.99E-02
25706,5.57E-03,2.34E-02
25707,5.74E-03,3.23E-02
25708,4.99E-03,2.64E-02
25709,5.82E-03,1.48E-02
25710,5.70E-03,1.55E-02
25711,5.27E-03,1.61E-02
25712,4.89E-03,8.51E-03
25713,5.20E-03,1.33E-02
25714,4.74E-03,1.01E-02
25715,4.75E-03,1.80E-02
25716,5.98E-03,4.13E-02
25717,5.73E-03,3.32E-02
25718,5.68E-03,4.78E-02
25719,5.08E-03,8.39E-03
25720,5.33E-03,1.25E-02
25721,4.91E-03,9.28E-03
25722,4.76E-03,4.26E-02
25723,5.85E-03,1.82E-02
25724,5.42E-03,1.70E-02
25725,5.75E-03,3.41E-02
25726,5.36E-03,1.17E-02
25727,4.91E-03,8.72E-03
25728,4.23E-03,1.62E-02
25729,4.18E-03,1.54E-02
25730,5.74E-03,3.51E-02
25731,5.69E-03,3.86E-03
25732,5.64E-03,4.58E-03
25733,5.23E-03,1.10E-02
25734,5.10E-03,8.47E-03
25735,4.86E-03,1.38E-02
25736,4.76E-03,4.33E-02
25737,4.56E-03,1.61E-02
25738,5.71E-03,3.61E-02
25739,6.40E-03,8.31E-03
25740,4.76E-03,8.45E-03
25741,5.14E-03,1.03E-02
25742,4.90E-03,8.80E-03
25743,4.84E-03,1.24E-02
25744,5.16E-03,4.44E-02
25745,5.90E-03,9.76E-03
25746,5.78E-03,1.02E-02
25747,4.38E-03,1.53E-02
25748,4.70E-03,8.58E-03
25749,4.96E-03,9.76E-03
25750,4.86E-03,9.35E-03
25751,4.79E-03,1.12E-02
25752,4.24E-03,1.46E-02
25753,4.69E-03,8.76E-03
25754,4.77E-03,9.33E-03
25755,4.76E-03,1.02E-02
25756,5.71E-03,1.30E-02
25757,5.29E-03,1.17E-02
25758,5.76E-03,4.06E-02
25759,5.66E-03,3.83E-02
25760,4.65E-03,9.05E-03
25761,5.65E-03,1.14E-02
25762,5.49E-03,3.77E-03
25763,5.83E-03,3.44E-03
25764,5.60E-03,1.04E-02
25765,5.77E-03,1.02E-02
25766,6.07E-03,3.72E-02
25767,5.87E-03,3.81E-02
25768,5.83E-03,3.54E-02
25769,6.03E-03,3.63E-02
25770,5.69E-03,3.47E-02
25771,6.28E-03,2.95E-02
25772,6.24E-03,3.03E-02
25773,5.98E-03,2.89E-02
25774,4.68E-03,2.57E-02
25775,6.57E-03,1.81E-02
25776,6.50E-03,1.86E-02
25777,5.95E-03,1.76E-02
25778,5.71E-03,1.38E-02
25779,5.85E-03,1.41E-02
25780,5.43E-03,1.33E-02
25781,5.44E-03,1.35E-02
25782,6.23E-03,1.21E-02
25783,6.05E-03,1.23E-02
25784,6.16E-03,1.15E-02
25785,6.33E-03,1.18E-02
25786,5.81E-03,1.11E-02
25787,6.12E-03,1.13E-02
25788,5.67E-03,1.08E-02
25789,5.89E-03,7.93E-03
25790,5.81E-03,7.97E-03
25791,5.87E-03,7.84E-03
25792,5.86E-03,7.88E-03
25793,5.76E-03,7.77E-03
25794,5.83E-03,7.81E-03
25795,5.81E-03,7.74E-03
25796,4.77E-03,7.66E-03
25797,5.14E-03,7.33E-03
25798,5.11E-03,1.05E-02
25799,4.87E-03,3.30E-02
25800,5.69E-03,1.63E-02
25801,5.73E-03,1.66E-02
25802,5.61E-03,1.60E-02
25803,5.19E-03,1.26E-02
25804,5.39E-03,9.67E-03
25805,5.65E-03,1.04E-02
25806,5.51E-03,1.06E-02
25807,5.46E-03,1.07E-02
25808,5.84E-03,1.07E-02
25809,5.54E-03,9.35E-03
25810,5.08E-03,8.66E-03
25811,5.10E-03,8.46E-03
25812,5.14E-03,8.94E-03
25813,5.11E-03,8.81E-03
25814,5.06E-03,9.33E-03
25815,6.02E-03,9.34E-03
25816,5.75E-03,1.05E-02
25817,5.26E-03,1.16E-02
25818,5.45E-03,1.11E-02
25819,5.23E-03,1.19E-02
25820,5.49E-03,1.85E-02
25821,5.79E-03,4.18E-02
25822,5.79E-03,4.19E-02
25823,5.75E-03,4.19E-02
25824,5.59E-03,4.18E-02
25825,5.93E-03,4.24E-02
25826,5.81E-03,4.23E-02
25827,6.05E-03,4.26E-02
25828,5.32E-03,4.53E-02
25829,5.66E-03,4.40E-02
25830,5.55E-03,4.32E-02
25831,5.46E-03,4.03E-02
25832,5.56E-03,4.28E-02
25833,5.65E-03,4.29E-02
25834,5.39E-03,1.01E-02
25835,5.58E-03,1.01E-02
25836,5.33E-03,4.24E-02
25837,5.47E-03,1.06E-02
25838,5.16E-03,2.74E-02
25839,5.95E-03,8.41E-03
25840,5.81E-03,8.32E-03
25841,5.87E-03,1.19E-02
25842,5.89E-03,1.15E-02
25843,5.89E-03,1.17E-02
25844,6.03E-03,8.51E-03
25845,5.81E-03,2.50E-02
25846,5.94E-03,2.44E-02
25847,4.86E-03,1.00E-02
25848,6.24E-03,2.26E-02
25849,6.22E-03,8.96E-03
25850,5.58E-03,1.21E-02
25851,5.32E-03,1.23E-02
25852,4.22E-03,1.39E-02
25853,4.75E-03,1.11E-02
25854,4.34E-03,1.11E-02
25855,5.09E-03,4.56E-02
25856,4.00E-03,1.15E-02
25857,5.62E-03,3.97E-03
25858,5.34E-03,5.18E-03
25859,5.51E-03,3.65E-03
25860,4.57E-03,1.07E-02
25861,5.72E-03,1.05E-02
25862,5.75E-03,9.99E-03
25863,5.80E-03,4.16E-02
25864,6.09E-03,3.10E-02
25865,5.23E-03,2.82E-02
25866,3.90E-03,2.53E-02
25867,5.82E-03,1.94E-02
25868,5.63E-03,1.75E-02
25869,5.75E-03,1.29E-02
25870,5.55E-03,1.08E-02
25871,5.81E-03,7.93E-03
25872,5.24E-03,7.50E-03
25873,3.33E-03,7.47E-03
25874,5.37E-03,7.11E-03
25875,4.74E-03,7.16E-03
25876,6.29E-03,6.96E-03
25877,4.88E-03,1.12E-02
25878,5.02E-03,1.02E-02
25879,4.92E-03,3.08E-02
25880,4.66E-03,3.40E-02
25881,5.81E-03,1.79E-02
25882,5.61E-03,1.66E-02
25883,5.60E-03,1.38E-02
25884,5.29E-03,1.29E-02
25885,5.87E-03,1.01E-02
25886,5.15E-03,1.01E-02
25887,5.79E-03,1.07E-02
25888,5.58E-03,1.07E-02
25889,5.53E-03,1.09E-02
25890,5.41E-03,1.09E-02
25891,5.86E-03,1.09E-02
25892,5.10E-03,1.10E-02
25893,5.58E-03,1.10E-02
25894,5.18E-03,1.01E-02
25895,7.14E-03,1.15E-02
25896,6.08E-03,1.04E-02
25897,5.59E-03,1.33E-02
25898,5.20E-03,1.68E-02
25899,5.50E-03,1.96E-02
25900,5.77E-03,1.95E-02
25901,4.89E-03,4.27E-02
25902,5.38E-03,4.27E-02
25903,5.40E-03,4.32E-02
25904,5.63E-03,4.42E-02
25905,5.77E-03,4.29E-02
25906,5.89E-03,4.42E-02
25907,5.42E-03,4.70E-02
25908,5.62E-03,4.75E-02
25909,5.48E-03,4.73E-02
25910,5.76E-03,4.58E-02
25911,5.72E-03,4.62E-02
25912,5.56E-03,4.61E-02
25913,6.26E-03,4.26E-02
25914,5.97E-03,4.55E-02
25915,5.59E-03,4.53E-02
25916,5.73E-03,4.54E-02
25917,5.99E-03,1.04E-02
25918,5.16E-03,1.06E-02
25919,5.69E-03,1.07E-02
25920,5.32E-03,1.06E-02
25921,5.43E-03,4.52E-02
25922,5.04E-03,4.49E-02
25923,5.48E-03,1.10E-02
25924,5.56E-03,1.11E-02
25925,5.49E-03,1.10E-02
25926,5.43E-03,2.80E-02
25927,5.52E-03,2.66E-02
25928,5.48E-03,8.21E-03
25929,5.90E-03,2.35E-02
25930,6.06E-03,2.17E-02
25931,5.75E-03,9.57E-03
25932,6.42E-03,8.92E-03
25933,5.81E-03,3.43E-02
25934,4.23E-03,1.10E-02
25935,5.38E-03,7.89E-03
25936,7.30E-03,7.10E-03
25937,7.68E-03,7.32E-03
25938,4.59E-03,6.87E-03
25939,4.51E-03,6.72E-03
25940,6.33E-03,6.91E-03
25941,4.76E-03,1.08E-02
25942,5.77E-03,9.79E-03
25943,5.65E-03,2.01E-02
25944,5.40E-03,1.73E-02
25945,5.26E-03,1.08E-02
25946,5.85E-03,7.93E-03
25947,5.39E-03,7.30E-03
25948,5.67E-03,6.84E-03
25949,5.55E-03,6.88E-03
25950,5.84E-03,6.79E-03
25951,4.75E-03,1.19E-02
25952,4.92E-03,9.98E-03
25953,4.87E-03,2.87E-02
25954,4.69E-03,3.52E-02
25955,5.23E-03,3.88E-03
25956,5.41E-03,3.87E-03
25957,5.64E-03,6.07E-03
25958,5.93E-03,1.92E-02
25959,5.71E-03,1.69E-02
25960,5.69E-03,1.73E-02
25961,5.76E-03,1.51E-02
25962,5.98E-03,1.27E-02
25963,5.80E-03,1.30E-02
25964,5.81E-03,1.10E-02
25965,5.56E-03,1.11E-02
25966,5.55E-03,1.11E-02
25967,5.27E-03,1.13E-02
25968,5.39E-03,1.13E-02
25969,6.22E-03,1.17E-02
25970,5.41E-03,1.79E-02
25971,5.45E-03,2.06E-02
25972,5.54E-03,2.07E-02
25973,3.65E-03,4.33E-02
25974,5.09E-03,4.41E-02
25975,5.79E-03,4.55E-02
25976,5.75E-03,4.77E-02
25977,6.59E-03,4.80E-02
25978,6.70E-03,4.78E-02
25979,5.74E-03,1.14E-02
25980,5.04E-03,1.11E-02
25981,4.88E-03,4.73E-02
25982,5.63E-03,1.12E-02
25983,5.59E-03,2.87E-02
25984,5.76E-03,2.57E-02
25985,5.74E-03,2.25E-02
25986,5.69E-03,4.18E-02
25987,4.39E-03,1.33E-02
25988,5.60E-03,1.09E-02
25989,5.04E-03,4.39E-03
25990,6.03E-03,7.69E-03
25991,5.73E-03,9.58E-03
25992,6.60E-03,3.18E-02
25993,5.85E-03,3.37E-02
25994,4.22E-03,3.27E-02
25995,5.03E-03,1.06E-02
25996,5.14E-03,1.08E-02
25997,6.01E-03,7.98E-03
25998,4.40E-03,7.08E-03
25999,4.53E-03,1.26E-02
26000,4.81E-03,9.73E-03
26001,4.85E-03,2.67E-02
26002,4.66E-03,3.62E-02
26003,5.78E-03,9.41E-03
26004,5.97E-03,2.06E-02
26005,6.01E-03,2.05E-02
26006,5.78E-03,1.65E-02
26007,4.56E-03,1.07E-02
26008,5.76E-03,1.15E-02
26009,4.94E-03,1.16E-02
26010,4.73E-03,1.16E-02
26011,5.28E-03,1.92E-02
26012,5.36E-03,4.85E-02
26013,4.53E-03,4.57E-02
26014,5.00E-03,4.72E-02
26015,5.70E-03,2.94E-02
26016,5.38E-03,2.15E-02
26017,5.95E-03,1.45E-02
26018,5.94E-03,1.38E-02
26019,5.77E-03,9.37E-03
26020,6.15E-03,8.69E-03
26021,6.27E-03,8.84E-03
26022,4.72E-03,9.48E-03
26023,5.10E-03,1.58E-02
26024,4.74E-03,2.48E-02
26025,4.80E-03,3.72E-02
26026,5.79E-03,3.20E-02
26027,5.65E-03,1.30E-02
26028,5.49E-03,1.15E-02
26029,5.51E-03,1.19E-02
26030,5.35E-03,2.05E-02
26031,5.71E-03,3.00E-02
26032,5.18E-03,4.58E-02
26033,5.59E-03,4.30E-02
26034,5.72E-03,9.16E-03
26035,5.36E-03,2.07E-02
26036,5.72E-03,2.14E-02
26037,4.65E-03,9.23E-03
26038,4.45E-03,1.48E-02
26039,4.70E-03,2.29E-02
26040,5.17E-03,3.86E-02
26041,5.69E-03,2.94E-02
26042,5.36E-03,1.70E-02
26043,5.16E-03,2.06E-02
26044,5.15E-03,1.97E-02
26045,5.75E-03,3.07E-02
26046,5.52E-03,8.50E-03
26047,5.58E-03,8.33E-03
26048,5.99E-03,8.12E-03
26049,5.79E-03,8.96E-03
26050,4.67E-03,9.00E-03
26051,5.24E-03,1.41E-02
26052,4.82E-03,1.14E-02
26053,4.68E-03,2.11E-02
26054,4.06E-03,3.94E-02
26055,5.55E-03,2.68E-02
26056,5.06E-03,1.89E-02
26057,5.78E-03,3.15E-02
26058,5.63E-03,2.71E-02
26059,5.13E-03,2.66E-02
26060,5.88E-03,1.51E-02
26061,5.92E-03,1.58E-02
26062,5.63E-03,1.70E-02
26063,6.31E-03,1.64E-02
26064,4.79E-03,8.81E-03
26065,5.20E-03,1.33E-02
26066,4.65E-03,1.04E-02
26067,4.66E-03,1.94E-02
26068,4.30E-03,4.00E-02
26069,5.09E-03,2.08E-02
26070,5.18E-03,2.41E-02
26071,4.57E-03,4.46E-02
26072,4.72E-03,4.44E-02
26073,4.56E-03,1.80E-02
26074,5.75E-03,3.23E-02
26075,4.14E-03,4.66E-02
26076,4.75E-03,4.82E-02
26077,5.33E-03,4.43E-02
26078,4.88E-03,8.66E-03
26079,5.30E-03,1.25E-02
26080,4.86E-03,9.52E-03
26081,4.49E-03,1.76E-02
26082,4.77E-03,4.14E-02
26083,4.41E-03,1.72E-02
26084,5.85E-03,3.31E-02
26085,5.07E-03,8.51E-03
26086,5.36E-03,1.17E-02
26087,5.01E-03,8.92E-03
26088,3.56E-03,1.62E-02
26089,5.81E-03,3.41E-02
26090,5.66E-03,5.36E-03
26091,5.67E-03,6.40E-03
26092,4.93E-03,8.44E-03
26093,5.28E-03,1.10E-02
26094,5.01E-03,8.63E-03
26095,4.39E-03,1.49E-02
26096,3.94E-03,4.18E-02
26097,4.48E-03,1.64E-02
26098,5.79E-03,3.51E-02
26099,4.02E-03,8.49E-03
26100,5.22E-03,1.04E-02
26101,5.06E-03,8.77E-03
26102,4.67E-03,1.35E-02
26103,5.54E-03,4.29E-02
26104,5.89E-03,1.11E-02
26105,5.96E-03,1.14E-02
26106,4.39E-03,1.56E-02
26107,4.50E-03,8.50E-03
26108,5.01E-03,9.80E-03
26109,4.91E-03,9.31E-03
26110,4.72E-03,1.22E-02
26111,4.31E-03,1.49E-02
26112,4.61E-03,8.64E-03
26113,4.88E-03,9.38E-03
26114,4.76E-03,1.01E-02
26115,4.74E-03,1.11E-02
26116,5.92E-03,1.69E-02
26117,5.78E-03,1.52E-02
26118,5.34E-03,1.38E-02
26119,5.70E-03,3.95E-02
26120,5.70E-03,3.72E-02
26121,4.68E-03,8.83E-03
26122,4.74E-03,9.08E-03
26123,4.21E-03,1.42E-02
26124,4.20E-03,1.18E-02
26125,4.71E-03,1.16E-02
26126,5.54E-03,4.53E-03
26127,5.44E-03,4.45E-03
26128,5.85E-03,1.02E-02
26129,6.64E-03,4.11E-02
26130,6.26E-03,3.70E-02
26131,6.45E-03,3.80E-02
26132,5.97E-03,3.53E-02
26133,6.14E-03,3.61E-02
26134,5.75E-03,3.45E-02
26135,6.24E-03,2.95E-02
26136,6.27E-03,3.03E-02
26137,6.07E-03,2.88E-02
26138,4.74E-03,2.59E-02
26139,5.98E-03,1.84E-02
26140,6.00E-03,1.89E-02
26141,5.91E-03,1.79E-02
26142,5.78E-03,1.41E-02
26143,5.87E-03,1.45E-02
26144,4.36E-03,1.36E-02
26145,5.56E-03,1.38E-02
26146,6.55E-03,1.24E-02
26147,6.14E-03,1.27E-02
26148,6.21E-03,1.18E-02
26149,6.35E-03,1.21E-02
26150,5.85E-03,1.13E-02
26151,6.09E-03,1.16E-02
26152,5.64E-03,1.11E-02
26153,5.93E-03,7.82E-03
26154,5.87E-03,7.88E-03
26155,6.03E-03,7.72E-03
26156,5.97E-03,7.77E-03
26157,6.02E-03,7.63E-03
26158,6.03E-03,7.67E-03
26159,6.23E-03,7.59E-03
26160,4.69E-03,7.51E-03
26161,5.23E-03,7.14E-03
26162,5.81E-03,6.91E-03
26163,4.98E-03,1.07E-02
26164,4.84E-03,3.24E-02
26165,5.71E-03,1.73E-02
26166,5.77E-03,1.77E-02
26167,5.66E-03,1.70E-02
26168,5.54E-03,1.34E-02
26169,5.25E-03,1.01E-02
26170,5.74E-03,1.07E-02
26171,5.46E-03,1.09E-02
26172,5.81E-03,1.10E-02
26173,6.84E-03,1.06E-02
26174,5.81E-03,1.05E-02
26175,5.06E-03,1.06E-02
26176,5.11E-03,1.04E-02
26177,5.07E-03,1.08E-02
26178,5.07E-03,1.07E-02
26179,4.74E-03,1.11E-02
26180,5.99E-03,1.07E-02
26181,6.00E-03,1.15E-02
26182,5.57E-03,1.24E-02
26183,5.74E-03,1.20E-02
26184,5.56E-03,1.29E-02
26185,5.22E-03,1.26E-02
26186,5.43E-03,1.68E-02
26187,5.61E-03,1.96E-02
26188,6.20E-03,4.22E-02
26189,6.26E-03,4.27E-02
26190,7.06E-03,4.25E-02
26191,5.98E-03,4.29E-02
26192,5.97E-03,4.29E-02
26193,5.87E-03,4.29E-02
26194,5.93E-03,4.35E-02
26195,5.79E-03,4.34E-02
26196,6.08E-03,4.39E-02
26197,6.10E-03,4.37E-02
26198,6.06E-03,4.40E-02
26199,5.38E-03,4.71E-02
26200,5.73E-03,4.60E-02
26201,6.33E-03,4.57E-02
26202,5.75E-03,4.24E-02
26203,5.84E-03,4.55E-02
26204,5.56E-03,1.06E-02
26205,5.56E-03,1.06E-02
26206,5.25E-03,4.51E-02
26207,5.49E-03,1.10E-02
26208,5.43E-03,2.73E-02
26209,5.80E-03,8.43E-03
26210,5.63E-03,8.32E-03
26211,5.86E-03,1.22E-02
26212,5.99E-03,1.24E-02
26213,5.97E-03,8.55E-03
26214,5.96E-03,2.41E-02
26215,4.72E-03,1.00E-02
26216,4.93E-03,1.04E-02
26217,4.77E-03,1.02E-02
26218,6.36E-03,2.27E-02
26219,4.50E-03,9.82E-03
26220,6.58E-03,9.09E-03
26221,6.32E-03,3.77E-02
26222,3.36E-03,1.23E-02
26223,4.83E-03,4.55E-02
26224,4.03E-03,4.64E-02
26225,5.65E-03,5.40E-03
26226,5.49E-03,7.10E-03
26227,6.98E-03,7.15E-03
26228,5.06E-03,1.06E-02
26229,5.77E-03,1.00E-02
26230,4.07E-03,3.98E-02
26231,6.26E-03,3.10E-02
26232,6.16E-03,2.80E-02
26233,5.20E-03,2.54E-02
26234,5.73E-03,1.96E-02
26235,5.60E-03,1.77E-02
26236,4.93E-03,1.75E-02
26237,5.28E-03,1.33E-02
26238,5.54E-03,1.11E-02
26239,5.86E-03,7.86E-03
26240,5.73E-03,7.30E-03
26241,3.88E-03,7.37E-03
26242,5.34E-03,6.92E-03
26243,4.73E-03,6.99E-03
26244,6.56E-03,6.76E-03
26245,7.06E-03,6.55E-03
26246,4.42E-03,6.67E-03
26247,5.93E-03,6.73E-03
26248,4.90E-03,1.14E-02
26249,4.97E-03,1.04E-02
26250,4.90E-03,3.03E-02
26251,4.76E-03,3.35E-02
26252,5.34E-03,4.43E-03
26253,5.44E-03,4.39E-03
26254,5.87E-03,1.90E-02
26255,5.70E-03,1.77E-02
26256,5.81E-03,1.47E-02
26257,5.64E-03,1.32E-02
26258,4.49E-03,1.06E-02
26259,4.86E-03,1.06E-02
26260,5.79E-03,1.11E-02
26261,5.72E-03,1.11E-02
26262,5.51E-03,1.12E-02
26263,5.34E-03,1.13E-02
26264,5.64E-03,1.13E-02
26265,5.80E-03,1.13E-02
26266,5.23E-03,1.22E-02
26267,6.07E-03,1.19E-02
26268,5.79E-03,1.79E-02
26269,5.66E-03,2.08E-02
26270,5.85E-03,2.07E-02
26271,4.33E-03,4.35E-02
26272,5.49E-03,4.43E-02
26273,6.23E-03,4.55E-02
26274,5.57E-03,4.97E-02
26275,5.41E-03,4.88E-02
26276,5.50E-03,4.96E-02
26277,5.45E-03,4.93E-02
26278,5.76E-03,4.80E-02
26279,6.08E-03,4.82E-02
26280,5.93E-03,4.82E-02
26281,6.19E-03,4.83E-02
26282,5.44E-03,4.57E-02
26283,6.08E-03,4.80E-02
26284,5.61E-03,4.79E-02
26285,5.75E-03,4.80E-02
26286,6.32E-03,1.09E-02
26287,5.44E-03,1.10E-02
26288,5.67E-03,1.13E-02
26289,5.21E-03,1.12E-02
26290,5.53E-03,4.78E-02
26291,5.16E-03,4.76E-02
26292,5.41E-03,1.12E-02
26293,5.55E-03,1.14E-02
26294,5.54E-03,1.14E-02
26295,5.54E-03,2.79E-02
26296,5.66E-03,2.64E-02
26297,5.00E-03,8.20E-03
26298,7.81E-03,1.31E-02
26299,5.94E-03,2.32E-02
26300,5.56E-03,4.06E-02
26301,4.35E-03,1.35E-02
26302,4.84E-03,4.52E-02
26303,5.58E-03,1.01E-02
26304,5.23E-03,5.15E-03
26305,5.37E-03,5.18E-03
26306,5.24E-03,6.15E-03
26307,7.13E-03,7.55E-03
26308,6.41E-03,1.09E-02
26309,5.73E-03,9.84E-03
26310,5.76E-03,4.14E-02
26311,5.06E-03,4.27E-02
26312,5.15E-03,4.17E-02
26313,5.60E-03,3.35E-02
26314,6.66E-03,3.26E-02
26315,6.91E-03,3.19E-02
26316,5.34E-03,2.03E-02
26317,5.36E-03,1.11E-02
26318,5.81E-03,7.89E-03
26319,6.35E-03,7.09E-03
26320,5.66E-03,6.65E-03
26321,5.62E-03,6.69E-03
26322,4.91E-03,6.90E-03
26323,5.85E-03,6.60E-03
26324,6.77E-03,6.66E-03
26325,7.99E-03,6.43E-03
26326,4.60E-03,1.21E-02
26327,4.82E-03,1.02E-02
26328,4.90E-03,2.82E-02
26329,4.74E-03,3.46E-02
26330,5.57E-03,7.12E-03
26331,5.99E-03,2.04E-02
26332,5.74E-03,1.79E-02
26333,5.73E-03,1.83E-02
26334,5.81E-03,1.61E-02
26335,5.13E-03,1.11E-02
26336,5.79E-03,1.15E-02
26337,5.78E-03,1.15E-02
26338,5.54E-03,1.15E-02
26339,5.26E-03,1.16E-02
26340,5.04E-03,1.16E-02
26341,5.94E-03,1.15E-02
26342,5.97E-03,1.15E-02
26343,5.47E-03,1.39E-02
26344,5.47E-03,1.91E-02
26345,5.59E-03,2.18E-02
26346,5.70E-03,2.19E-02
26347,6.23E-03,4.35E-02
26348,5.45E-03,4.45E-02
26349,5.45E-03,5.05E-02
26350,5.66E-03,4.99E-02
26351,5.71E-03,4.88E-02
26352,5.33E-03,4.88E-02
26353,6.32E-03,5.07E-02
26354,6.17E-03,5.07E-02
26355,5.74E-03,1.21E-02
26356,5.39E-03,4.98E-02
26357,4.66E-03,1.16E-02
26358,5.61E-03,2.86E-02
26359,5.86E-03,2.55E-02
26360,5.66E-03,2.21E-02
26361,5.43E-03,6.40E-03
26362,6.36E-03,6.56E-03
26363,4.65E-03,6.28E-03
26364,4.94E-03,6.43E-03
26365,4.20E-03,6.24E-03
26366,4.48E-03,6.44E-03
26367,5.78E-03,1.18E-02
26368,5.54E-03,1.19E-02
26369,5.90E-03,1.30E-02
26370,5.79E-03,9.62E-03
26371,5.42E-03,4.24E-02
26372,5.26E-03,4.35E-02
26373,5.48E-03,4.33E-02
26374,6.18E-03,2.18E-02
26375,6.55E-03,9.00E-03
26376,5.34E-03,8.04E-03
26377,5.90E-03,8.04E-03
26378,5.24E-03,6.25E-03
26379,5.04E-03,6.07E-03
26380,4.51E-03,1.28E-02
26381,4.76E-03,9.92E-03
26382,5.26E-03,1.57E-02
26383,6.64E-03,1.41E-02
26384,4.77E-03,2.62E-02
26385,4.78E-03,3.55E-02
26386,5.96E-03,3.53E-02
26387,5.61E-03,1.05E-02
26388,6.15E-03,2.18E-02
26389,6.44E-03,2.17E-02
26390,5.84E-03,1.74E-02
26391,4.16E-03,1.18E-02
26392,5.10E-03,1.18E-02
26393,5.58E-03,1.19E-02
26394,5.39E-03,2.04E-02
26395,6.76E-03,4.69E-02
26396,6.31E-03,5.17E-02
26397,5.96E-03,5.22E-02
26398,5.72E-03,1.19E-02
26399,5.69E-03,2.92E-02
26400,5.76E-03,8.46E-03
26401,4.00E-03,4.50E-02
26402,5.56E-03,4.18E-02
26403,5.81E-03,9.41E-03
26404,4.26E-03,2.08E-02
26405,5.27E-03,2.14E-02
26406,4.72E-03,9.65E-03
26407,5.22E-03,1.47E-02
26408,5.54E-03,1.29E-02
26409,4.74E-03,2.43E-02
26410,5.04E-03,3.67E-02
26411,5.82E-03,3.27E-02
26412,5.43E-03,1.42E-02
26413,5.52E-03,2.17E-02
26414,6.09E-03,5.05E-02
26415,5.13E-03,2.12E-02
26416,5.12E-03,2.03E-02
26417,5.75E-03,2.99E-02
26418,5.78E-03,8.73E-03
26419,5.45E-03,8.54E-03
26420,6.23E-03,8.05E-03
26421,6.50E-03,8.34E-03
26422,6.14E-03,1.39E-02
26423,6.90E-03,1.36E-02
26424,5.88E-03,9.20E-03
26425,4.65E-03,9.39E-03
26426,5.19E-03,1.40E-02
26427,5.12E-03,1.18E-02
26428,4.67E-03,2.25E-02
26429,5.52E-03,3.81E-02
26430,5.64E-03,3.00E-02
26431,5.02E-03,1.78E-02
26432,4.93E-03,1.94E-02
26433,5.80E-03,3.06E-02
26434,5.99E-03,2.73E-02
26435,5.42E-03,2.66E-02
26436,6.13E-03,1.54E-02
26437,6.16E-03,1.61E-02
26438,4.71E-03,9.16E-03
26439,5.25E-03,1.32E-02
26440,4.80E-03,1.06E-02
26441,4.62E-03,2.07E-02
26442,3.86E-03,3.82E-02
26443,5.31E-03,2.74E-02
26444,4.22E-03,4.54E-02
26445,5.20E-03,4.54E-02
26446,4.42E-03,1.86E-02
26447,5.80E-03,3.14E-02
26448,4.70E-03,4.80E-02
26449,4.43E-03,4.64E-02
26450,5.33E-03,4.31E-02
26451,4.75E-03,8.96E-03
26452,5.07E-03,4.97E-02
26453,4.73E-03,4.94E-02
26454,4.26E-03,4.95E-02
26455,5.31E-03,1.25E-02
26456,4.84E-03,9.76E-03
26457,4.53E-03,1.90E-02
26458,4.79E-03,3.96E-02
26459,4.54E-03,2.15E-02
26460,4.65E-03,2.49E-02
26461,5.85E-03,3.22E-02
26462,4.72E-03,6.09E-03
26463,4.78E-03,8.78E-03
26464,4.63E-03,4.79E-02
26465,5.31E-03,1.17E-02
26466,5.03E-03,9.13E-03
26467,4.28E-03,1.72E-02
26468,5.91E-03,3.31E-02
26469,5.06E-03,4.43E-02
26470,5.64E-03,7.41E-03
26471,5.70E-03,8.58E-03
26472,4.53E-03,8.56E-03
26473,5.35E-03,1.10E-02
26474,5.05E-03,8.78E-03
26475,4.32E-03,1.61E-02
26476,4.72E-03,4.05E-02
26477,4.20E-03,1.66E-02
26478,5.82E-03,3.41E-02
26479,3.51E-03,8.68E-03
26480,5.25E-03,1.04E-02
26481,5.07E-03,8.79E-03
26482,4.56E-03,1.47E-02
26483,5.29E-03,4.12E-02
26484,5.96E-03,1.25E-02
26485,5.96E-03,1.28E-02
26486,4.31E-03,1.59E-02
26487,4.24E-03,8.57E-03
26488,5.10E-03,9.84E-03
26489,4.98E-03,9.27E-03
26490,4.65E-03,1.33E-02
26491,4.37E-03,1.51E-02
26492,4.55E-03,8.60E-03
26493,5.03E-03,9.42E-03
26494,4.87E-03,9.99E-03
26495,4.68E-03,1.20E-02
26496,5.97E-03,1.92E-02
26497,5.70E-03,1.76E-02
26498,5.54E-03,1.59E-02
26499,5.63E-03,3.83E-02
26500,5.71E-03,3.61E-02
26501,4.67E-03,8.71E-03
26502,4.78E-03,9.11E-03
26503,4.83E-03,1.09E-02
26504,4.28E-03,1.44E-02
26505,4.73E-03,8.89E-03
26506,5.19E-03,1.10E-02
26507,4.98E-03,1.08E-02
26508,4.84E-03,4.54E-02
26509,4.67E-03,1.17E-02
26510,3.55E-03,1.21E-02
26511,4.99E-03,4.66E-02
26512,5.60E-03,6.26E-03
26513,5.55E-03,6.22E-03
26514,6.11E-03,6.55E-03
26515,6.54E-03,6.84E-03
26516,6.64E-03,6.51E-03
26517,6.33E-03,6.70E-03
26518,6.71E-03,6.99E-03
26519,5.49E-03,1.03E-02
26520,5.20E-03,4.04E-02
26521,6.34E-03,3.69E-02
26522,6.65E-03,3.87E-02
26523,6.71E-03,3.78E-02
26524,6.09E-03,3.52E-02
26525,6.18E-03,3.60E-02
26526,5.90E-03,3.43E-02
26527,6.39E-03,2.96E-02
26528,6.36E-03,3.03E-02
26529,6.34E-03,2.88E-02
26530,4.91E-03,2.60E-02
26531,5.97E-03,1.87E-02
26532,5.86E-03,1.91E-02
26533,5.84E-03,1.82E-02
26534,4.30E-03,1.77E-02
26535,5.73E-03,1.79E-02
26536,5.95E-03,1.44E-02
26537,5.96E-03,1.48E-02
26538,5.04E-03,1.37E-02
26539,5.70E-03,1.40E-02
26540,6.68E-03,1.27E-02
26541,7.11E-03,1.31E-02
26542,6.22E-03,1.21E-02
26543,6.33E-03,1.24E-02
26544,5.86E-03,1.16E-02
26545,6.10E-03,1.18E-02
26546,5.60E-03,1.13E-02
26547,5.92E-03,7.74E-03
26548,5.89E-03,7.80E-03
26549,6.03E-03,7.61E-03
26550,5.97E-03,7.67E-03
26551,6.20E-03,7.49E-03
26552,6.12E-03,7.55E-03
26553,5.75E-03,7.38E-03
26554,6.00E-03,7.45E-03
26555,5.84E-03,7.33E-03
26556,5.15E-03,6.95E-03
26557,5.41E-03,6.68E-03
26558,5.84E-03,6.38E-03
26559,4.93E-03,1.09E-02
26560,4.86E-03,3.18E-02
26561,5.32E-03,4.10E-03
26562,5.80E-03,1.84E-02
26563,5.86E-03,1.87E-02
26564,5.72E-03,1.80E-02
26565,6.20E-03,1.36E-02
26566,5.88E-03,1.43E-02
26567,5.31E-03,1.33E-02
26568,5.00E-03,1.06E-02
26569,5.78E-03,1.11E-02
26570,5.45E-03,1.12E-02
26571,5.75E-03,1.13E-02
26572,6.25E-03,1.19E-02
26573,6.13E-03,1.17E-02
26574,5.04E-03,1.27E-02
26575,5.11E-03,1.25E-02
26576,5.06E-03,1.30E-02
26577,5.04E-03,1.28E-02
26578,5.29E-03,1.31E-02
26579,6.02E-03,1.22E-02
26580,6.11E-03,1.26E-02
26581,6.26E-03,1.22E-02
26582,5.73E-03,1.35E-02
26583,5.87E-03,1.31E-02
26584,5.62E-03,1.42E-02
26585,5.63E-03,1.39E-02
26586,5.31E-03,1.49E-02
26587,5.48E-03,1.46E-02
26588,5.21E-03,1.53E-02
26589,5.86E-03,1.78E-02
26590,5.75E-03,2.07E-02
26591,5.49E-03,4.36E-02
26592,6.36E-03,4.36E-02
26593,6.76E-03,4.35E-02
26594,6.12E-03,4.39E-02
26595,6.16E-03,4.38E-02
26596,6.23E-03,4.37E-02
26597,6.16E-03,4.39E-02
26598,4.51E-03,4.41E-02
26599,6.03E-03,4.47E-02
26600,5.85E-03,4.45E-02
26601,6.20E-03,4.51E-02
26602,6.15E-03,4.49E-02
26603,6.27E-03,4.53E-02
26604,5.31E-03,4.98E-02
26605,5.39E-03,4.91E-02
26606,5.81E-03,4.81E-02
26607,6.24E-03,4.83E-02
26608,5.17E-03,4.52E-02
26609,5.51E-03,4.53E-02
26610,4.75E-03,4.53E-02
26611,5.87E-03,4.81E-02
26612,5.79E-03,1.10E-02
26613,5.49E-03,1.12E-02
26614,5.37E-03,4.77E-02
26615,5.50E-03,1.13E-02
26616,5.58E-03,2.72E-02
26617,5.54E-03,8.33E-03
26618,5.81E-03,1.30E-02
26619,5.94E-03,1.32E-02
26620,6.11E-03,8.76E-03
26621,5.92E-03,8.60E-03
26622,6.39E-03,1.33E-02
26623,6.38E-03,1.69E-02
26624,5.87E-03,1.72E-02
26625,4.38E-03,9.77E-03
26626,4.72E-03,1.02E-02
26627,4.95E-03,1.06E-02
26628,4.84E-03,1.04E-02
26629,5.53E-03,3.95E-02
26630,4.25E-03,1.37E-02
26631,5.01E-03,4.61E-02
26632,5.71E-03,7.43E-03
26633,5.63E-03,9.28E-03
26634,5.37E-03,7.27E-03
26635,6.27E-03,6.71E-03
26636,7.49E-03,7.40E-03
26637,5.61E-03,1.06E-02
26638,5.69E-03,1.01E-02
26639,7.48E-03,3.93E-02
26640,5.37E-03,4.09E-02
26641,5.97E-03,3.34E-02
26642,6.50E-03,3.10E-02
26643,5.33E-03,2.54E-02
26644,6.35E-03,2.28E-02
26645,6.31E-03,2.40E-02
26646,5.60E-03,1.98E-02
26647,5.50E-03,1.13E-02
26648,5.84E-03,7.83E-03
26649,6.24E-03,7.13E-03
26650,5.41E-03,6.73E-03
26651,5.05E-03,6.83E-03
26652,5.90E-03,6.55E-03
26653,6.90E-03,6.31E-03
26654,4.76E-03,1.16E-02
26655,4.88E-03,1.06E-02
26656,4.90E-03,2.98E-02
26657,4.82E-03,3.29E-02
26658,5.42E-03,5.20E-03
26659,5.94E-03,2.01E-02
26660,5.74E-03,1.87E-02
26661,5.95E-03,1.56E-02
26662,5.31E-03,1.39E-02
26663,4.16E-03,1.12E-02
26664,5.07E-03,1.11E-02
26665,5.85E-03,1.15E-02
26666,5.95E-03,1.15E-02
26667,5.49E-03,1.15E-02
26668,5.37E-03,1.16E-02
26669,5.45E-03,1.16E-02
26670,5.91E-03,1.16E-02
26671,5.22E-03,1.43E-02
26672,5.75E-03,1.90E-02
26673,5.78E-03,2.19E-02
26674,5.93E-03,2.19E-02
26675,5.64E-03,4.53E-02
26676,6.48E-03,4.68E-02
26677,6.03E-03,5.12E-02
26678,5.70E-03,5.15E-02
26679,5.88E-03,5.18E-02
26680,5.45E-03,5.08E-02
26681,5.44E-03,5.17E-02
26682,5.36E-03,5.14E-02
26683,5.74E-03,5.01E-02
26684,6.27E-03,5.06E-02
26685,6.41E-03,5.06E-02
26686,5.57E-03,4.89E-02
26687,6.06E-03,5.06E-02
26688,5.68E-03,5.05E-02
26689,5.83E-03,5.06E-02
26690,5.76E-03,1.15E-02
26691,5.84E-03,1.15E-02
26692,5.49E-03,1.15E-02
26693,5.64E-03,1.20E-02
26694,5.15E-03,1.18E-02
26695,5.55E-03,5.05E-02
26696,5.40E-03,5.01E-02
26697,5.39E-03,1.16E-02
26698,5.58E-03,1.18E-02
26699,5.53E-03,1.18E-02
26700,5.63E-03,2.78E-02
26701,5.76E-03,2.63E-02
26702,4.72E-03,8.23E-03
26703,5.62E-03,1.58E-02
26704,6.30E-03,1.57E-02
26705,6.49E-03,1.54E-02
26706,4.36E-03,1.18E-02
26707,3.73E-03,1.78E-02
26708,6.42E-03,2.28E-02
26709,4.73E-03,6.36E-03
26710,4.87E-03,6.18E-03
26711,5.41E-03,1.23E-02
26712,4.30E-03,1.22E-02
26713,5.56E-03,1.20E-02
26714,5.81E-03,1.24E-02
26715,6.27E-03,1.12E-02
26716,6.32E-03,1.09E-02
26717,5.79E-03,9.88E-03
26718,5.60E-03,1.16E-02
26719,5.45E-03,4.14E-02
26720,5.78E-03,4.30E-02
26721,6.16E-03,4.27E-02
26722,5.55E-03,4.41E-02
26723,4.33E-03,4.42E-02
26724,5.93E-03,3.25E-02
26725,6.34E-03,3.18E-02
26726,6.35E-03,2.23E-02
26727,5.38E-03,1.13E-02
26728,4.48E-03,1.01E-02
26729,6.25E-03,8.92E-03
26730,5.76E-03,7.94E-03
26731,6.21E-03,6.85E-03
26732,6.73E-03,6.92E-03
26733,5.66E-03,6.48E-03
26734,5.54E-03,6.52E-03
26735,5.28E-03,6.75E-03
26736,5.82E-03,6.43E-03
26737,4.18E-03,6.10E-03
26738,4.85E-03,5.91E-03
26739,4.60E-03,1.23E-02
26740,4.82E-03,1.04E-02
26741,5.39E-03,1.55E-02
26742,5.28E-03,1.48E-02
26743,4.82E-03,2.77E-02
26744,4.77E-03,3.39E-02
26745,6.11E-03,3.86E-02
26746,5.46E-03,8.17E-03
26747,5.11E-03,6.57E-03
26748,5.12E-03,5.91E-03
26749,6.08E-03,2.15E-02
26750,5.82E-03,1.89E-02
26751,5.79E-03,1.93E-02
26752,5.85E-03,1.70E-02
26753,5.53E-03,1.16E-02
26754,6.99E-03,1.19E-02
26755,6.26E-03,1.20E-02
26756,5.56E-03,1.18E-02
26757,5.25E-03,1.19E-02
26758,5.69E-03,1.18E-02
26759,6.24E-03,1.71E-02
26760,8.29E-03,1.75E-02
26761,5.45E-03,2.02E-02
26762,5.67E-03,2.31E-02
26763,5.81E-03,2.32E-02
26764,5.73E-03,5.27E-02
26765,5.64E-03,5.20E-02
26766,6.25E-03,5.18E-02
26767,6.63E-03,5.16E-02
26768,6.29E-03,5.33E-02
26769,6.00E-03,5.34E-02
26770,5.19E-03,1.20E-02
26771,5.77E-03,1.28E-02
26772,4.53E-03,1.23E-02
26773,5.77E-03,5.24E-02
26774,5.30E-03,1.21E-02
26775,5.67E-03,2.84E-02
26776,5.94E-03,2.53E-02
26777,4.21E-03,4.37E-02
26778,5.50E-03,4.07E-02
26779,4.49E-03,1.30E-02
26780,5.98E-03,1.54E-02
26781,5.78E-03,7.91E-03
26782,5.87E-03,9.67E-03
26783,5.67E-03,4.21E-02
26784,6.22E-03,2.19E-02
26785,5.15E-03,2.05E-02
26786,5.00E-03,8.09E-03
26787,5.45E-03,7.99E-03
26788,4.77E-03,1.01E-02
26789,5.28E-03,1.46E-02
26790,5.39E-03,1.33E-02
26791,4.81E-03,2.58E-02
26792,4.92E-03,3.50E-02
26793,5.95E-03,3.60E-02
26794,5.49E-03,1.16E-02
26795,6.06E-03,2.29E-02
26796,6.83E-03,2.29E-02
26797,5.86E-03,1.84E-02
26798,5.49E-03,2.15E-02
26799,6.51E-03,5.38E-02
26800,6.50E-03,5.42E-02
26801,4.90E-03,2.18E-02
26802,4.94E-03,2.09E-02
26803,5.56E-03,1.24E-02
26804,5.71E-03,2.91E-02
26805,6.06E-03,9.00E-03
26806,5.42E-03,8.74E-03
26807,5.56E-03,8.61E-03
26808,4.72E-03,1.43E-02
26809,5.13E-03,1.49E-02
26810,5.91E-03,9.44E-03
26811,4.75E-03,9.83E-03
26812,5.16E-03,1.38E-02
26813,5.21E-03,1.21E-02
26814,4.70E-03,2.39E-02
26815,5.03E-03,3.62E-02
26816,5.78E-03,3.32E-02
26817,5.22E-03,1.53E-02
26818,5.50E-03,2.29E-02
26819,4.98E-03,2.00E-02
26820,3.20E-03,1.26E-02
26821,5.11E-03,1.26E-02
26822,5.78E-03,2.98E-02
26823,5.47E-03,2.67E-02
26824,6.31E-03,1.58E-02
26825,6.47E-03,1.65E-02
26826,4.71E-03,9.57E-03
26827,5.30E-03,1.31E-02
26828,5.05E-03,1.09E-02
26829,4.61E-03,2.21E-02
26830,4.72E-03,3.68E-02
26831,5.50E-03,3.06E-02
26832,4.78E-03,1.88E-02
26833,5.50E-03,4.65E-02
26834,5.94E-03,4.65E-02
26835,4.72E-03,1.91E-02
26836,5.80E-03,3.05E-02
26837,4.33E-03,4.48E-02
26838,5.35E-03,4.19E-02
26839,4.69E-03,9.34E-03
26840,5.77E-03,5.09E-02
26841,4.55E-03,4.90E-02
26842,5.30E-03,1.24E-02
26843,4.87E-03,1.00E-02
26844,4.56E-03,2.04E-02
26845,5.10E-03,3.75E-02
26846,5.02E-03,2.80E-02
26847,4.11E-03,1.83E-02
26848,5.87E-03,3.13E-02
26849,5.16E-03,5.95E-03
26850,4.68E-03,9.12E-03
26851,4.64E-03,4.78E-02
26852,5.14E-03,4.69E-02
26853,4.99E-03,4.56E-02
26854,5.33E-03,1.17E-02
26855,5.03E-03,9.34E-03
26856,4.46E-03,1.87E-02
26857,5.92E-03,3.21E-02
26858,4.54E-03,4.63E-02
26859,5.20E-03,4.31E-02
26860,5.64E-03,9.65E-03
26861,5.74E-03,1.09E-02
26862,4.59E-03,8.92E-03
26863,4.96E-03,4.43E-02
26864,5.40E-03,1.10E-02
26865,5.03E-03,8.94E-03
26866,4.29E-03,1.73E-02
26867,4.48E-03,3.88E-02
26868,3.70E-03,1.71E-02
26869,5.93E-03,3.31E-02
26870,4.46E-03,8.91E-03
26871,5.32E-03,1.04E-02
26872,5.10E-03,8.88E-03
26873,4.43E-03,1.59E-02
26874,4.16E-03,3.95E-02
26875,5.93E-03,1.39E-02
26876,5.94E-03,1.42E-02
26877,4.33E-03,1.63E-02
26878,4.27E-03,8.78E-03
26879,5.19E-03,9.87E-03
26880,5.05E-03,9.22E-03
26881,4.62E-03,1.45E-02
26882,4.35E-03,1.55E-02
26883,4.50E-03,8.69E-03
26884,5.09E-03,9.45E-03
26885,4.96E-03,9.90E-03
26886,4.70E-03,1.31E-02
26887,5.56E-03,1.99E-02
26888,5.43E-03,1.81E-02
26889,5.68E-03,3.72E-02
26890,5.81E-03,3.51E-02
26891,4.60E-03,8.71E-03
26892,4.94E-03,9.16E-03
26893,4.87E-03,1.08E-02
26894,4.74E-03,1.19E-02
26895,4.52E-03,4.05E-02
26896,4.32E-03,1.47E-02
26897,4.70E-03,8.80E-03
26898,4.81E-03,8.95E-03
26899,5.50E-03,3.83E-02
26900,4.34E-03,1.40E-02
26901,5.19E-03,6.51E-03
26902,5.14E-03,7.39E-03
26903,5.68E-03,8.41E-03
26904,5.50E-03,8.42E-03
26905,5.26E-03,8.28E-03
26906,5.28E-03,7.16E-03
26907,6.41E-03,7.01E-03
26908,6.26E-03,6.86E-03
26909,6.72E-03,7.18E-03
26910,5.66E-03,1.04E-02
26911,5.82E-03,4.02E-02
26912,4.94E-03,1.08E-02
26913,5.20E-03,1.13E-02
26914,5.01E-03,1.10E-02
26915,6.41E-03,3.67E-02
26916,6.52E-03,3.83E-02
26917,6.56E-03,3.76E-02
26918,6.15E-03,3.50E-02
26919,6.27E-03,3.58E-02
26920,5.97E-03,3.42E-02
26921,6.56E-03,2.96E-02
26922,6.44E-03,3.03E-02
26923,6.91E-03,2.88E-02
26924,5.35E-03,2.61E-02
26925,6.38E-03,2.34E-02
26926,5.96E-03,1.89E-02
26927,5.76E-03,1.93E-02
26928,5.89E-03,1.85E-02
26929,6.19E-03,1.47E-02
26930,6.19E-03,1.51E-02
26931,6.87E-03,1.39E-02
26932,6.12E-03,1.43E-02
26933,6.65E-03,1.31E-02
26934,7.27E-03,1.35E-02
26935,6.21E-03,1.24E-02
26936,6.38E-03,1.27E-02
26937,5.82E-03,1.18E-02
26938,6.13E-03,1.21E-02
26939,5.71E-03,1.16E-02
26940,5.96E-03,7.67E-03
26941,5.84E-03,7.75E-03
26942,6.02E-03,7.51E-03
26943,5.97E-03,7.59E-03
26944,6.24E-03,7.38E-03
26945,6.18E-03,7.44E-03
26946,6.88E-03,7.23E-03
26947,6.32E-03,7.32E-03
26948,6.68E-03,7.19E-03
26949,5.23E-03,6.78E-03
26950,6.04E-03,6.51E-03
26951,6.55E-03,6.17E-03
26952,4.83E-03,1.11E-02
26953,5.49E-03,1.64E-02
26954,6.11E-03,1.71E-02
26955,5.35E-03,1.62E-02
26956,4.86E-03,3.13E-02
26957,5.32E-03,4.23E-03
26958,5.78E-03,1.95E-02
26959,5.85E-03,1.98E-02
26960,5.75E-03,1.91E-02
26961,6.83E-03,1.46E-02
26962,6.15E-03,1.52E-02
26963,6.91E-03,1.42E-02
26964,4.95E-03,1.12E-02
26965,5.95E-03,1.15E-02
26966,5.45E-03,1.16E-02
26967,5.79E-03,1.16E-02
26968,6.15E-03,1.33E-02
26969,6.03E-03,1.30E-02
26970,5.04E-03,1.47E-02
26971,5.06E-03,1.46E-02
26972,5.12E-03,1.50E-02
26973,5.07E-03,1.49E-02
26974,5.38E-03,1.52E-02
26975,5.97E-03,1.37E-02
26976,6.12E-03,1.39E-02
26977,6.19E-03,1.36E-02
26978,5.92E-03,1.47E-02
26979,5.99E-03,1.43E-02
26980,5.71E-03,1.54E-02
26981,5.76E-03,1.50E-02
26982,5.18E-03,1.59E-02
26983,5.61E-03,1.56E-02
26984,4.89E-03,1.60E-02
26985,5.78E-03,1.74E-02
26986,5.66E-03,1.89E-02
26987,5.85E-03,2.19E-02
26988,5.44E-03,4.43E-02
26989,5.46E-03,4.42E-02
26990,5.49E-03,4.44E-02
26991,6.16E-03,4.47E-02
26992,6.00E-03,4.46E-02
26993,6.22E-03,4.49E-02
26994,6.20E-03,4.48E-02
26995,6.97E-03,4.49E-02
26996,6.34E-03,4.50E-02
26997,6.56E-03,4.51E-02
26998,6.18E-03,4.59E-02
26999,6.16E-03,4.56E-02
27000,6.28E-03,4.63E-02
27001,6.26E-03,4.61E-02
27002,6.42E-03,4.66E-02
27003,5.42E-03,4.83E-02
27004,5.37E-03,4.80E-02
27005,5.63E-03,5.02E-02
27006,4.80E-03,4.86E-02
27007,5.08E-03,4.71E-02
27008,5.38E-03,4.85E-02
27009,5.73E-03,5.16E-02
27010,5.40E-03,5.11E-02
27011,5.82E-03,5.03E-02
27012,6.29E-03,5.06E-02
27013,5.10E-03,4.82E-02
27014,5.53E-03,4.86E-02
27015,3.22E-03,4.80E-02
27016,4.16E-03,4.78E-02
27017,5.96E-03,5.07E-02
27018,5.71E-03,1.15E-02
27019,5.41E-03,1.19E-02
27020,5.43E-03,5.03E-02
27021,5.50E-03,1.17E-02
27022,6.40E-03,6.71E-03
27023,5.98E-03,6.61E-03
27024,5.68E-03,2.70E-02
27025,5.29E-03,8.36E-03
27026,5.81E-03,1.38E-02
27027,5.75E-03,1.39E-02
27028,5.85E-03,1.59E-02
27029,6.06E-03,8.83E-03
27030,5.81E-03,8.67E-03
27031,6.36E-03,1.52E-02
27032,4.87E-03,1.22E-02
27033,6.23E-03,1.73E-02
27034,5.73E-03,1.75E-02
27035,6.16E-03,2.44E-02
27036,6.44E-03,8.45E-03
27037,4.70E-03,6.07E-03
27038,4.93E-03,1.23E-02
27039,5.71E-03,9.68E-03
27040,5.73E-03,1.16E-02
27041,5.38E-03,9.49E-03
27042,5.12E-03,8.34E-03
27043,6.21E-03,6.87E-03
27044,5.85E-03,1.07E-02
27045,5.77E-03,1.01E-02
27046,5.52E-03,1.19E-02
27047,4.71E-03,4.50E-02
27048,6.08E-03,3.90E-02
27049,5.64E-03,4.06E-02
27050,4.12E-03,4.22E-02
27051,6.03E-03,3.33E-02
27052,6.38E-03,3.10E-02
27053,5.94E-03,2.48E-02
27054,5.72E-03,2.55E-02
27055,6.40E-03,2.29E-02
27056,6.16E-03,2.41E-02
27057,5.44E-03,1.15E-02
27058,5.76E-03,9.59E-03
27059,5.19E-03,9.90E-03
27060,6.39E-03,9.11E-03
27061,5.76E-03,7.81E-03
27062,6.33E-03,7.00E-03
27063,5.56E-03,6.57E-03
27064,5.35E-03,6.68E-03
27065,5.99E-03,6.40E-03
27066,4.80E-03,5.89E-03
27067,4.78E-03,5.98E-03
27068,4.72E-03,1.18E-02
27069,4.83E-03,1.09E-02
27070,5.51E-03,1.53E-02
27071,4.54E-03,1.47E-02
27072,4.84E-03,2.93E-02
27073,4.80E-03,3.24E-02
27074,3.84E-03,4.99E-02
27075,5.46E-03,4.82E-02
27076,6.24E-03,4.19E-02
27077,5.39E-03,6.12E-03
27078,5.20E-03,4.64E-03
27079,5.97E-03,2.12E-02
27080,5.81E-03,1.97E-02
27081,6.00E-03,1.66E-02
27082,6.51E-03,1.49E-02
27083,5.28E-03,1.16E-02
27084,5.34E-03,1.17E-02
27085,5.84E-03,1.19E-02
27086,6.10E-03,1.20E-02
27087,5.51E-03,1.19E-02
27088,5.37E-03,1.19E-02
27089,6.14E-03,1.19E-02
27090,5.72E-03,1.19E-02
27091,5.26E-03,1.64E-02
27092,5.30E-03,1.74E-02
27093,6.17E-03,1.80E-02
27094,5.52E-03,2.01E-02
27095,5.87E-03,2.32E-02
27096,5.92E-03,2.30E-02
27097,5.12E-03,4.51E-02
27098,5.66E-03,4.56E-02
27099,6.58E-03,4.65E-02
27100,7.34E-03,4.83E-02
27101,6.78E-03,4.81E-02
27102,6.17E-03,5.27E-02
27103,5.99E-03,5.33E-02
27104,6.07E-03,5.37E-02
27105,5.57E-03,5.29E-02
27106,5.33E-03,5.38E-02
27107,5.36E-03,5.34E-02
27108,5.73E-03,5.23E-02
27109,6.29E-03,5.29E-02
27110,6.31E-03,5.32E-02
27111,5.81E-03,5.18E-02
27112,6.02E-03,5.34E-02
27113,5.71E-03,5.32E-02
27114,5.82E-03,5.33E-02
27115,5.74E-03,1.21E-02
27116,5.78E-03,1.20E-02
27117,5.40E-03,1.20E-02
27118,5.64E-03,1.27E-02
27119,5.02E-03,1.25E-02
27120,5.66E-03,5.31E-02
27121,5.66E-03,5.27E-02
27122,5.60E-03,1.21E-02
27123,5.60E-03,1.22E-02
27124,5.60E-03,1.22E-02
27125,5.68E-03,2.76E-02
27126,5.84E-03,2.61E-02
27127,5.35E-03,8.25E-03
27128,5.29E-03,1.74E-02
27129,5.30E-03,1.79E-02
27130,6.14E-03,1.77E-02
27131,6.77E-03,1.77E-02
27132,3.88E-03,4.25E-02
27133,5.47E-03,3.95E-02
27134,4.43E-03,1.33E-02
27135,5.86E-03,1.47E-02
27136,5.01E-03,5.41E-03
27137,2.91E-03,5.48E-03
27138,4.64E-03,5.58E-03
27139,6.70E-03,8.24E-03
27140,5.47E-03,7.79E-03
27141,5.87E-03,9.93E-03
27142,4.59E-03,1.13E-02
27143,5.18E-03,1.16E-02
27144,4.85E-03,1.06E-02
27145,5.71E-03,4.12E-02
27146,4.81E-03,1.04E-02
27147,5.81E-03,4.18E-02
27148,6.01E-03,3.25E-02
27149,6.07E-03,3.17E-02
27150,6.54E-03,2.24E-02
27151,5.46E-03,2.00E-02
27152,4.67E-03,2.11E-02
27153,5.20E-03,2.07E-02
27154,3.94E-03,1.81E-02
27155,5.31E-03,1.15E-02
27156,6.14E-03,9.01E-03
27157,5.82E-03,7.95E-03
27158,5.90E-03,6.72E-03
27159,6.15E-03,6.79E-03
27160,5.53E-03,6.32E-03
27161,5.47E-03,6.37E-03
27162,5.67E-03,6.63E-03
27163,5.57E-03,6.29E-03
27164,4.55E-03,1.26E-02
27165,4.81E-03,1.06E-02
27166,5.32E-03,1.45E-02
27167,5.34E-03,1.36E-02
27168,4.85E-03,2.73E-02
27169,4.88E-03,3.34E-02
27170,6.04E-03,3.93E-02
27171,5.45E-03,9.24E-03
27172,5.63E-03,2.27E-02
27173,5.81E-03,1.99E-02
27174,5.80E-03,2.03E-02
27175,5.94E-03,1.80E-02
27176,5.63E-03,1.21E-02
27177,7.11E-03,1.24E-02
27178,6.47E-03,1.24E-02
27179,5.57E-03,1.22E-02
27180,5.21E-03,1.22E-02
27181,5.36E-03,1.22E-02
27182,5.40E-03,1.22E-02
27183,6.23E-03,1.86E-02
27184,6.49E-03,1.91E-02
27185,5.44E-03,2.14E-02
27186,5.69E-03,2.43E-02
27187,5.99E-03,2.44E-02
27188,5.95E-03,5.47E-02
27189,5.53E-03,5.43E-02
27190,5.99E-03,5.51E-02
27191,6.00E-03,5.49E-02
27192,6.16E-03,5.59E-02
27193,6.10E-03,5.60E-02
27194,5.28E-03,2.23E-02
27195,4.71E-03,2.14E-02
27196,5.60E-03,1.25E-02
27197,5.81E-03,1.37E-02
27198,5.86E-03,5.52E-02
27199,6.88E-03,1.25E-02
27200,5.73E-03,2.83E-02
27201,6.02E-03,2.51E-02
27202,5.02E-03,1.27E-02
27203,6.13E-03,9.23E-03
27204,6.55E-03,9.02E-03
27205,4.19E-03,8.79E-03
27206,4.44E-03,1.51E-02
27207,5.90E-03,1.58E-02
27208,5.97E-03,1.79E-02
27209,5.91E-03,9.71E-03
27210,7.38E-03,2.19E-02
27211,4.58E-03,5.54E-03
27212,4.72E-03,5.35E-03
27213,4.22E-03,5.31E-03
27214,4.78E-03,1.03E-02
27215,5.30E-03,1.37E-02
27216,5.28E-03,1.24E-02
27217,4.79E-03,2.54E-02
27218,4.96E-03,3.44E-02
27219,5.93E-03,3.65E-02
27220,5.37E-03,1.28E-02
27221,5.47E-03,2.39E-02
27222,5.73E-03,2.39E-02
27223,5.86E-03,1.95E-02
27224,5.40E-03,1.25E-02
27225,5.45E-03,2.27E-02
27226,6.19E-03,5.60E-02
27227,6.18E-03,5.64E-02
27228,4.37E-03,5.05E-02
27229,5.25E-03,5.19E-02
27230,4.96E-03,2.06E-02
27231,5.69E-03,1.30E-02
27232,4.67E-03,1.30E-02
27233,5.51E-03,1.32E-02
27234,5.73E-03,2.90E-02
27235,5.86E-03,9.47E-03
27236,5.35E-03,2.67E-02
27237,6.58E-03,1.61E-02
27238,6.26E-03,1.69E-02
27239,4.76E-03,1.00E-02
27240,5.33E-03,1.30E-02
27241,5.19E-03,1.12E-02
27242,4.70E-03,2.35E-02
27243,4.99E-03,3.54E-02
27244,5.71E-03,3.37E-02
27245,5.10E-03,1.64E-02
27246,5.53E-03,2.41E-02
27247,4.87E-03,1.97E-02
27248,5.81E-03,2.97E-02
27249,4.17E-03,4.34E-02
27250,4.73E-03,2.02E-02
27251,5.38E-03,4.07E-02
27252,4.71E-03,9.76E-03
27253,5.49E-03,5.09E-02
27254,5.28E-03,4.91E-02
27255,5.03E-03,4.73E-02
27256,5.29E-03,1.23E-02
27257,5.04E-03,1.03E-02
27258,4.64E-03,2.17E-02
27259,4.98E-03,3.58E-02
27260,5.43E-03,3.10E-02
27261,4.59E-03,1.88E-02
27262,5.84E-03,3.04E-02
27263,4.64E-03,9.53E-03
27264,4.72E-03,4.75E-02
27265,5.05E-03,4.58E-02
27266,5.34E-03,1.16E-02
27267,5.06E-03,9.55E-03
27268,4.56E-03,2.00E-02
27269,4.98E-03,2.82E-02
27270,4.29E-03,1.81E-02
27271,5.95E-03,3.12E-02
27272,4.48E-03,4.46E-02
27273,5.27E-03,4.19E-02
27274,5.73E-03,1.21E-02
27275,5.83E-03,1.33E-02
27276,4.65E-03,9.32E-03
27277,4.61E-03,4.61E-02
27278,5.00E-03,4.44E-02
27279,5.41E-03,1.10E-02
27280,5.08E-03,9.12E-03
27281,4.44E-03,1.84E-02
27282,4.90E-03,3.72E-02
27283,3.63E-03,1.76E-02
27284,5.98E-03,3.21E-02
27285,4.54E-03,9.17E-03
27286,5.09E-03,4.31E-02
27287,5.41E-03,1.04E-02
27288,5.10E-03,8.97E-03
27289,4.40E-03,1.71E-02
27290,3.99E-03,3.82E-02
27291,5.87E-03,1.54E-02
27292,5.92E-03,1.57E-02
27293,4.22E-03,1.67E-02
27294,4.29E-03,9.12E-03
27295,5.28E-03,9.89E-03
27296,5.13E-03,9.21E-03
27297,4.54E-03,1.56E-02
27298,3.74E-03,3.92E-02
27299,4.44E-03,1.58E-02
27300,4.47E-03,8.93E-03
27301,5.22E-03,9.49E-03
27302,5.06E-03,9.82E-03
27303,4.66E-03,1.42E-02
27304,5.24E-03,2.21E-02
27305,5.37E-03,2.03E-02
27306,5.69E-03,3.61E-02
27307,5.82E-03,3.40E-02
27308,4.58E-03,8.84E-03
27309,5.02E-03,9.21E-03
27310,4.90E-03,1.07E-02
27311,4.71E-03,1.29E-02
27312,3.29E-03,3.96E-02
27313,3.52E-03,3.98E-02
27314,4.36E-03,1.50E-02
27315,4.69E-03,8.84E-03
27316,4.87E-03,9.02E-03
27317,4.84E-03,1.17E-02
27318,5.51E-03,3.72E-02
27319,4.36E-03,1.43E-02
27320,5.57E-03,6.66E-03
27321,5.32E-03,6.53E-03
27322,4.80E-03,8.90E-03
27323,5.30E-03,6.21E-03
27324,3.48E-03,1.15E-02
27325,5.68E-03,1.09E-02
27326,5.69E-03,1.07E-02
27327,5.54E-03,1.08E-02
27328,5.24E-03,1.05E-02
27329,5.22E-03,9.39E-03
27330,2.23E-03,5.77E-03
27331,5.92E-03,5.63E-03
27332,6.25E-03,7.17E-03
27333,6.19E-03,7.01E-03
27334,6.96E-03,7.57E-03
27335,6.40E-03,7.35E-03
27336,5.71E-03,1.04E-02
27337,5.19E-03,1.24E-02
27338,5.11E-03,1.25E-02
27339,5.26E-03,1.22E-02
27340,5.12E-03,4.59E-02
27341,5.39E-03,4.56E-02
27342,4.98E-03,4.48E-02
27343,5.70E-03,3.98E-02
27344,4.89E-03,1.10E-02
27345,5.13E-03,1.15E-02
27346,4.98E-03,1.12E-02
27347,6.30E-03,3.65E-02
27348,6.27E-03,3.80E-02
27349,6.34E-03,3.72E-02
27350,6.12E-03,3.49E-02
27351,6.26E-03,3.57E-02
27352,6.03E-03,3.41E-02
27353,6.68E-03,2.96E-02
27354,6.47E-03,3.03E-02
27355,5.24E-03,2.83E-02
27356,7.28E-03,2.89E-02
27357,5.57E-03,2.61E-02
27358,6.40E-03,2.35E-02
27359,5.84E-03,1.91E-02
27360,5.68E-03,1.96E-02
27361,5.76E-03,1.88E-02
27362,6.43E-03,1.50E-02
27363,6.42E-03,1.54E-02
27364,6.68E-03,1.41E-02
27365,6.53E-03,1.46E-02
27366,6.60E-03,1.34E-02
27367,6.79E-03,1.38E-02
27368,6.19E-03,1.27E-02
27369,6.45E-03,1.30E-02
27370,5.81E-03,1.21E-02
27371,6.14E-03,1.24E-02
27372,5.80E-03,1.18E-02
27373,5.54E-03,9.50E-03
27374,5.02E-03,9.65E-03
27375,5.85E-03,7.61E-03
27376,5.74E-03,7.70E-03
27377,6.11E-03,7.43E-03
27378,5.98E-03,7.52E-03
27379,6.35E-03,7.27E-03
27380,6.21E-03,7.35E-03
27381,6.59E-03,7.12E-03
27382,6.46E-03,7.19E-03
27383,6.45E-03,7.06E-03
27384,5.40E-03,6.61E-03
27385,7.05E-03,6.12E-03
27386,6.45E-03,6.37E-03
27387,6.46E-03,6.00E-03
27388,3.80E-03,5.79E-03
27389,4.60E-03,5.89E-03
27390,4.79E-03,1.14E-02
27391,5.55E-03,1.51E-02
27392,4.84E-03,3.08E-02
27393,5.35E-03,5.00E-02
27394,6.36E-03,4.55E-02
27395,5.26E-03,4.73E-03
27396,5.87E-03,2.05E-02
27397,5.87E-03,2.09E-02
27398,5.86E-03,2.01E-02
27399,6.40E-03,1.57E-02
27400,6.17E-03,1.61E-02
27401,6.51E-03,1.52E-02
27402,5.18E-03,1.17E-02
27403,6.18E-03,1.20E-02
27404,5.46E-03,1.19E-02
27405,5.79E-03,1.19E-02
27406,6.11E-03,1.47E-02
27407,6.00E-03,1.44E-02
27408,5.04E-03,1.68E-02
27409,4.98E-03,1.67E-02
27410,5.12E-03,1.71E-02
27411,5.04E-03,1.70E-02
27412,5.26E-03,1.72E-02
27413,5.93E-03,1.52E-02
27414,6.14E-03,1.52E-02
27415,6.17E-03,1.49E-02
27416,5.98E-03,1.59E-02
27417,6.06E-03,1.56E-02
27418,5.81E-03,1.66E-02
27419,5.86E-03,1.63E-02
27420,5.92E-03,1.70E-02
27421,5.74E-03,1.68E-02
27422,6.16E-03,1.72E-02
27423,6.15E-03,1.85E-02
27424,5.69E-03,2.00E-02
27425,5.94E-03,2.31E-02
27426,5.45E-03,4.53E-02
27427,5.42E-03,4.52E-02
27428,5.51E-03,4.55E-02
27429,6.04E-03,4.58E-02
27430,5.84E-03,4.57E-02
27431,6.20E-03,4.60E-02
27432,6.15E-03,4.59E-02
27433,6.49E-03,4.62E-02
27434,6.39E-03,4.61E-02
27435,6.27E-03,4.63E-02
27436,6.32E-03,4.70E-02
27437,6.35E-03,4.68E-02
27438,6.48E-03,4.75E-02
27439,6.38E-03,4.73E-02
27440,6.58E-03,4.79E-02
27441,5.69E-03,4.97E-02
27442,5.87E-03,4.93E-02
27443,5.55E-03,5.00E-02
27444,4.67E-03,4.92E-02
27445,5.56E-03,5.07E-02
27446,5.67E-03,5.25E-02
27447,5.81E-03,5.26E-02
27448,5.96E-03,5.35E-02
27449,5.43E-03,5.31E-02
27450,5.89E-03,5.25E-02
27451,6.37E-03,5.30E-02
27452,5.59E-03,5.14E-02
27453,5.67E-03,5.17E-02
27454,5.72E-03,5.09E-02
27455,5.94E-03,5.33E-02
27456,5.66E-03,1.20E-02
27457,5.41E-03,1.26E-02
27458,5.57E-03,5.30E-02
27459,5.57E-03,1.21E-02
27460,5.98E-03,6.91E-03
27461,5.75E-03,6.79E-03
27462,5.76E-03,2.69E-02
27463,5.37E-03,8.42E-03
27464,5.89E-03,1.46E-02
27465,5.94E-03,1.48E-02
27466,5.51E-03,1.79E-02
27467,6.08E-03,5.38E-03
27468,6.34E-03,5.60E-03
27469,5.33E-03,5.83E-03
27470,5.70E-03,8.74E-03
27471,6.51E-03,1.74E-02
27472,4.78E-03,8.18E-03
27473,4.90E-03,8.04E-03
27474,3.82E-03,4.13E-02
27475,5.49E-03,3.83E-02
27476,4.46E-03,1.36E-02
27477,5.00E-03,1.09E-02
27478,5.82E-03,1.20E-02
27479,5.81E-03,1.39E-02
27480,5.30E-03,1.17E-02
27481,5.12E-03,1.07E-02
27482,4.90E-03,5.72E-03
27483,6.14E-03,7.04E-03
27484,6.05E-03,8.11E-03
27485,5.70E-03,7.75E-03
27486,5.67E-03,1.07E-02
27487,5.81E-03,1.02E-02
27488,5.41E-03,1.19E-02
27489,6.27E-03,3.88E-02
27490,5.85E-03,4.03E-02
27491,3.10E-03,4.18E-02
27492,4.95E-03,1.02E-02
27493,5.69E-03,4.10E-02
27494,5.98E-03,3.32E-02
27495,6.16E-03,3.10E-02
27496,6.15E-03,2.49E-02
27497,5.90E-03,2.55E-02
27498,6.47E-03,2.30E-02
27499,6.27E-03,2.42E-02
27500,5.49E-03,2.03E-02
27501,5.82E-03,1.79E-02
27502,5.59E-03,1.85E-02
27503,5.46E-03,1.18E-02
27504,6.28E-03,9.19E-03
27505,5.55E-03,7.79E-03
27506,6.22E-03,6.87E-03
27507,5.65E-03,6.41E-03
27508,5.58E-03,6.54E-03
27509,6.02E-03,6.25E-03
27510,5.07E-03,5.82E-03
27511,4.62E-03,1.21E-02
27512,4.78E-03,1.11E-02
27513,5.42E-03,1.43E-02
27514,5.37E-03,1.38E-02
27515,4.89E-03,2.88E-02
27516,4.89E-03,3.18E-02
27517,6.09E-03,4.26E-02
27518,5.38E-03,7.09E-03
27519,5.19E-03,4.77E-03
27520,5.96E-03,2.24E-02
27521,5.85E-03,2.08E-02
27522,6.03E-03,1.76E-02
27523,6.29E-03,1.60E-02
27524,5.80E-03,1.22E-02
27525,5.56E-03,1.22E-02
27526,6.70E-03,1.25E-02
27527,6.25E-03,1.25E-02
27528,5.50E-03,1.23E-02
27529,5.36E-03,1.23E-02
27530,6.35E-03,1.22E-02
27531,5.51E-03,1.22E-02
27532,5.12E-03,1.86E-02
27533,5.00E-03,1.89E-02
27534,6.27E-03,1.85E-02
27535,6.62E-03,1.93E-02
27536,5.48E-03,2.13E-02
27537,6.08E-03,2.44E-02
27538,5.88E-03,2.41E-02
27539,5.16E-03,4.61E-02
27540,7.26E-03,4.76E-02
27541,6.98E-03,4.98E-02
27542,6.95E-03,4.95E-02
27543,6.62E-03,5.02E-02
27544,5.60E-03,5.23E-02
27545,5.72E-03,5.40E-02
27546,5.78E-03,5.42E-02
27547,6.02E-03,5.47E-02
27548,6.16E-03,5.57E-02
27549,5.69E-03,5.50E-02
27550,5.10E-03,5.59E-02
27551,5.28E-03,5.54E-02
27552,5.76E-03,5.46E-02
27553,6.14E-03,5.51E-02
27554,6.33E-03,5.54E-02
27555,6.27E-03,5.58E-02
27556,5.97E-03,5.47E-02
27557,5.80E-03,5.45E-02
27558,5.97E-03,5.61E-02
27559,5.71E-03,5.59E-02
27560,5.81E-03,5.60E-02
27561,6.07E-03,2.42E-02
27562,7.05E-03,2.34E-02
27563,4.41E-03,2.19E-02
27564,5.71E-03,1.27E-02
27565,5.71E-03,1.26E-02
27566,5.57E-03,1.25E-02
27567,5.69E-03,1.35E-02
27568,5.11E-03,1.32E-02
27569,5.67E-03,5.58E-02
27570,5.71E-03,5.55E-02
27571,5.88E-03,1.25E-02
27572,5.57E-03,1.26E-02
27573,5.63E-03,1.26E-02
27574,5.72E-03,2.75E-02
27575,5.89E-03,2.59E-02
27576,7.09E-03,9.27E-03
27577,5.04E-03,9.03E-03
27578,5.33E-03,8.66E-03
27579,5.23E-03,8.32E-03
27580,5.31E-03,1.96E-02
27581,5.77E-03,1.98E-02
27582,5.73E-03,1.58E-02
27583,5.43E-03,1.67E-02
27584,5.81E-03,6.61E-03
27585,5.88E-03,6.69E-03
27586,5.23E-03,5.66E-02
27587,5.91E-03,2.55E-02
27588,6.21E-03,2.58E-02
27589,5.74E-03,4.91E-02
27590,3.23E-03,5.19E-02
27591,4.16E-03,5.26E-02
27592,5.86E-03,1.71E-02
27593,6.12E-03,5.71E-03
27594,5.92E-03,9.98E-03
27595,4.91E-03,1.16E-02
27596,3.74E-03,4.28E-02
27597,5.81E-03,3.24E-02
27598,5.85E-03,3.16E-02
27599,6.77E-03,2.25E-02
27600,5.31E-03,1.17E-02
27601,4.15E-03,6.22E-03
27602,4.87E-03,6.26E-03
27603,5.68E-03,6.52E-03
27604,5.37E-03,6.17E-03
27605,5.83E-03,5.44E-03
27606,5.28E-03,5.26E-03
27607,4.54E-03,1.28E-02
27608,4.79E-03,1.08E-02
27609,5.68E-03,5.37E-02
27610,5.62E-03,5.21E-02
27611,5.35E-03,1.35E-02
27612,5.34E-03,1.26E-02
27613,4.85E-03,2.68E-02
27614,4.87E-03,3.28E-02
27615,6.05E-03,3.98E-02
27616,5.38E-03,1.04E-02
27617,5.88E-03,2.45E-02
27618,6.35E-03,2.39E-02
27619,5.90E-03,2.09E-02
27620,5.87E-03,2.14E-02
27621,5.97E-03,1.90E-02
27622,5.93E-03,1.28E-02
27623,5.72E-03,1.27E-02
27624,6.42E-03,1.29E-02
27625,6.40E-03,1.29E-02
27626,5.54E-03,1.26E-02
27627,5.41E-03,1.26E-02
27628,5.10E-03,1.24E-02
27629,6.32E-03,2.01E-02
27630,6.46E-03,2.04E-02
27631,5.44E-03,2.26E-02
27632,4.96E-03,2.51E-02
27633,5.59E-03,2.52E-02
27634,5.67E-03,5.35E-02
27635,5.79E-03,5.55E-02
27636,5.75E-03,5.52E-02
27637,5.84E-03,5.58E-02
27638,6.03E-03,5.68E-02
27639,5.92E-03,5.81E-02
27640,5.96E-03,5.80E-02
27641,5.88E-03,5.33E-02
27642,4.61E-03,5.34E-02
27643,6.18E-03,5.86E-02
27644,6.17E-03,5.88E-02
27645,4.97E-03,2.11E-02
27646,5.75E-03,1.30E-02
27647,5.86E-03,1.45E-02
27648,5.12E-03,1.38E-02
27649,5.82E-03,5.82E-02
27650,6.27E-03,1.29E-02
27651,5.76E-03,2.81E-02
27652,5.98E-03,2.50E-02
27653,4.79E-03,1.08E-02
27654,5.93E-03,2.05E-02
27655,5.80E-03,2.02E-02
27656,5.92E-03,9.76E-03
27657,3.70E-03,1.14E-02
27658,5.10E-03,4.54E-02
27659,4.82E-03,2.72E-02
27660,4.91E-03,2.67E-02
27661,6.34E-03,2.14E-02
27662,7.42E-03,2.20E-02
27663,5.88E-03,1.76E-02
27664,7.12E-03,1.64E-02
27665,4.78E-03,1.05E-02
27666,5.51E-03,5.06E-02
27667,5.16E-03,4.93E-02
27668,5.33E-03,1.28E-02
27669,5.18E-03,1.15E-02
27670,4.79E-03,2.49E-02
27671,4.82E-03,3.37E-02
27672,5.85E-03,3.70E-02
27673,5.28E-03,1.40E-02
27674,5.67E-03,1.28E-02
27675,5.42E-03,2.39E-02
27676,5.30E-03,2.56E-02
27677,5.09E-03,2.61E-02
27678,6.09E-03,5.81E-02
27679,6.09E-03,5.85E-02
27680,4.98E-03,2.03E-02
27681,5.75E-03,2.88E-02
27682,4.16E-03,4.21E-02
27683,5.58E-03,2.23E-02
27684,5.16E-03,1.78E-02
27685,5.39E-03,3.95E-02
27686,4.91E-03,2.49E-02
27687,6.83E-03,2.34E-02
27688,5.53E-03,5.33E-03
27689,5.65E-03,5.51E-03
27690,6.34E-03,9.51E-03
27691,4.78E-03,1.02E-02
27692,5.33E-03,4.90E-02
27693,5.06E-03,4.77E-02
27694,5.31E-03,1.22E-02
27695,5.16E-03,1.05E-02
27696,4.72E-03,2.31E-02
27697,4.63E-03,3.44E-02
27698,5.67E-03,3.42E-02
27699,5.68E-03,1.25E-02
27700,5.12E-03,2.52E-02
27701,4.78E-03,1.94E-02
27702,5.84E-03,2.95E-02
27703,6.95E-03,5.74E-03
27704,4.71E-03,9.98E-03
27705,4.98E-03,4.73E-02
27706,5.10E-03,4.60E-02
27707,5.34E-03,1.15E-02
27708,5.16E-03,9.77E-03
27709,4.65E-03,2.14E-02
27710,3.91E-03,3.52E-02
27711,5.49E-03,3.12E-02
27712,4.47E-03,1.86E-02
27713,5.90E-03,3.03E-02
27714,4.31E-03,4.31E-02
27715,5.24E-03,4.07E-02
27716,5.96E-03,1.45E-02
27717,5.84E-03,1.60E-02
27718,4.66E-03,9.74E-03
27719,4.77E-03,4.59E-02
27720,5.08E-03,4.45E-02
27721,5.41E-03,1.09E-02
27722,5.18E-03,9.28E-03
27723,4.53E-03,1.97E-02
27724,3.69E-03,3.58E-02
27725,5.80E-03,2.74E-02
27726,4.09E-03,1.79E-02
27727,6.05E-03,3.11E-02
27728,4.63E-03,4.45E-02
27729,4.62E-03,9.53E-03
27730,5.06E-03,4.32E-02
27731,5.43E-03,1.04E-02
27732,5.14E-03,9.08E-03
27733,4.44E-03,1.82E-02
27734,3.79E-03,3.69E-02
27735,5.74E-03,1.70E-02
27736,5.81E-03,1.72E-02
27737,4.24E-03,1.72E-02
27738,5.16E-03,4.19E-02
27739,4.53E-03,9.41E-03
27740,5.36E-03,9.91E-03
27741,5.15E-03,9.22E-03
27742,4.52E-03,1.68E-02
27743,3.74E-03,3.77E-02
27744,4.80E-03,1.63E-02
27745,4.49E-03,9.26E-03
27746,5.26E-03,9.53E-03
27747,5.14E-03,9.73E-03
27748,4.64E-03,1.54E-02
27749,3.44E-03,3.86E-02
27750,3.84E-03,2.64E-02
27751,4.97E-03,2.44E-02
27752,5.24E-03,2.26E-02
27753,5.75E-03,3.50E-02
27754,5.93E-03,3.30E-02
27755,4.57E-03,9.09E-03
27756,5.13E-03,9.26E-03
27757,5.05E-03,1.05E-02
27758,4.70E-03,1.40E-02
27759,4.43E-03,1.54E-02
27760,4.68E-03,8.99E-03
27761,4.99E-03,9.09E-03
27762,4.95E-03,1.15E-02
27763,4.74E-03,1.27E-02
27764,5.62E-03,3.60E-02
27765,4.39E-03,1.46E-02
27766,5.57E-03,6.83E-03
27767,5.36E-03,6.70E-03
27768,4.97E-03,6.42E-03
27769,4.78E-03,8.97E-03
27770,4.88E-03,9.00E-03
27771,3.75E-03,4.00E-02
27772,5.55E-03,3.71E-02
27773,4.44E-03,1.38E-02
27774,4.99E-03,1.12E-02
27775,5.07E-03,1.09E-02
27776,5.81E-03,1.30E-02
27777,5.45E-03,1.30E-02
27778,5.20E-03,1.28E-02
27779,5.16E-03,1.18E-02
27780,6.06E-03,7.33E-03
27781,6.11E-03,7.19E-03
27782,5.60E-03,7.65E-03
27783,5.95E-03,7.49E-03
27784,5.05E-03,8.01E-03
27785,5.81E-03,1.04E-02
27786,5.52E-03,1.22E-02
27787,4.41E-03,4.46E-02
27788,6.07E-03,3.95E-02
27789,5.14E-03,1.17E-02
27790,4.79E-03,1.14E-02
27791,2.98E-03,4.13E-02
27792,5.11E-03,5.36E-03
27793,5.01E-03,6.72E-03
27794,4.61E-03,1.12E-02
27795,5.14E-03,9.99E-03
27796,6.12E-03,4.01E-02
27797,6.15E-03,3.62E-02
27798,6.21E-03,3.77E-02
27799,6.20E-03,3.70E-02
27800,6.07E-03,3.47E-02
27801,6.17E-03,3.55E-02
27802,5.98E-03,3.40E-02
27803,6.40E-03,2.96E-02
27804,6.27E-03,3.03E-02
27805,5.49E-03,2.84E-02
27806,6.05E-03,2.89E-02
27807,4.93E-03,2.78E-02
27808,5.64E-03,2.61E-02
27809,6.37E-03,2.36E-02
27810,5.65E-03,1.94E-02
27811,5.61E-03,1.98E-02
27812,5.44E-03,1.89E-02
27813,6.70E-03,1.53E-02
27814,6.71E-03,1.57E-02
27815,6.69E-03,1.44E-02
27816,6.62E-03,1.48E-02
27817,6.49E-03,1.37E-02
27818,6.64E-03,1.40E-02
27819,6.18E-03,1.29E-02
27820,6.44E-03,1.33E-02
27821,5.89E-03,1.23E-02
27822,6.11E-03,1.26E-02
27823,5.81E-03,1.20E-02
27824,6.03E-03,9.54E-03
27825,5.57E-03,9.80E-03
27826,6.32E-03,9.39E-03
27827,5.69E-03,7.57E-03
27828,5.64E-03,7.67E-03
27829,6.12E-03,7.37E-03
27830,5.83E-03,7.47E-03
27831,6.32E-03,7.18E-03
27832,6.16E-03,7.27E-03
27833,6.45E-03,7.02E-03
27834,6.37E-03,7.09E-03
27835,6.35E-03,6.95E-03
27836,5.73E-03,6.46E-03
27837,6.91E-03,6.11E-03
27838,6.58E-03,6.18E-03
27839,7.01E-03,5.95E-03
27840,7.17E-03,6.04E-03
27841,6.55E-03,5.84E-03
27842,4.37E-03,5.65E-03
27843,4.82E-03,5.72E-03
27844,4.70E-03,1.16E-02
27845,5.27E-03,1.40E-02
27846,4.92E-03,3.03E-02
27847,6.65E-03,4.60E-02
27848,5.27E-03,5.43E-03
27849,5.87E-03,2.16E-02
27850,5.90E-03,2.20E-02
27851,5.86E-03,2.12E-02
27852,6.22E-03,1.66E-02
27853,6.11E-03,1.71E-02
27854,6.11E-03,1.62E-02
27855,5.51E-03,1.22E-02
27856,6.29E-03,1.25E-02
27857,5.43E-03,1.23E-02
27858,5.72E-03,1.22E-02
27859,6.06E-03,1.61E-02
27860,5.93E-03,1.59E-02
27861,5.03E-03,1.88E-02
27862,4.98E-03,1.91E-02
27863,4.95E-03,1.90E-02
27864,5.17E-03,1.93E-02
27865,5.69E-03,1.68E-02
27866,6.13E-03,1.66E-02
27867,6.12E-03,1.64E-02
27868,6.06E-03,1.73E-02
27869,6.14E-03,1.69E-02
27870,5.96E-03,1.78E-02
27871,5.99E-03,1.76E-02
27872,5.97E-03,1.83E-02
27873,5.93E-03,1.81E-02
27874,5.98E-03,1.85E-02
27875,6.28E-03,1.96E-02
27876,5.78E-03,2.11E-02
27877,5.68E-03,2.12E-02
27878,6.08E-03,2.43E-02
27879,5.45E-03,4.64E-02
27880,5.33E-03,4.62E-02
27881,5.66E-03,4.66E-02
27882,5.51E-03,4.65E-02
27883,5.98E-03,4.68E-02
27884,5.79E-03,4.67E-02
27885,6.24E-03,4.71E-02
27886,6.05E-03,4.70E-02
27887,6.36E-03,4.73E-02
27888,6.28E-03,4.72E-02
27889,6.33E-03,4.74E-02
27890,6.49E-03,4.82E-02
27891,6.68E-03,4.79E-02
27892,6.42E-03,4.88E-02
27893,6.42E-03,4.85E-02
27894,6.71E-03,4.92E-02
27895,5.93E-03,5.10E-02
27896,6.21E-03,5.06E-02
27897,6.05E-03,5.16E-02
27898,5.87E-03,5.13E-02
27899,5.07E-03,5.12E-02
27900,5.61E-03,5.25E-02
27901,5.61E-03,5.32E-02
27902,5.54E-03,5.29E-02
27903,5.89E-03,5.44E-02
27904,6.13E-03,5.54E-02
27905,5.51E-03,5.53E-02
27906,5.96E-03,5.48E-02
27907,6.34E-03,5.56E-02
27908,5.84E-03,5.47E-02
27909,5.68E-03,5.42E-02
27910,5.90E-03,5.61E-02
27911,5.44E-03,2.27E-02
27912,5.64E-03,1.26E-02
27913,5.49E-03,1.34E-02
27914,5.61E-03,5.56E-02
27915,5.69E-03,1.26E-02
27916,5.94E-03,7.09E-03
27917,5.73E-03,6.96E-03
27918,5.81E-03,2.67E-02
27919,5.85E-03,1.35E-02
27920,6.67E-03,1.32E-02
27921,4.56E-03,8.80E-03
27922,5.51E-03,8.65E-03
27923,5.45E-03,8.48E-03
27924,6.03E-03,1.56E-02
27925,5.78E-03,1.57E-02
27926,5.99E-03,1.99E-02
27927,5.85E-03,1.99E-02
27928,5.01E-03,4.06E-02
27929,5.22E-03,4.13E-02
27930,5.51E-03,1.07E-02
27931,5.68E-03,6.51E-03
27932,5.74E-03,6.59E-03
27933,4.38E-03,5.77E-02
27934,5.21E-03,5.88E-02
27935,3.62E-03,2.64E-02
27936,5.85E-03,1.45E-02
27937,5.86E-03,1.63E-02
27938,5.20E-03,1.40E-02
27939,5.08E-03,1.32E-02
27940,3.54E-03,6.12E-03
27941,5.24E-03,5.88E-03
27942,6.03E-03,7.22E-03
27943,6.93E-03,8.46E-03
27944,6.36E-03,8.28E-03
27945,4.49E-03,7.87E-03
27946,5.88E-03,1.02E-02
27947,5.48E-03,1.19E-02
27948,4.51E-03,4.33E-02
27949,6.30E-03,3.84E-02
27950,5.94E-03,3.31E-02
27951,5.97E-03,3.09E-02
27952,6.30E-03,2.49E-02
27953,6.34E-03,2.56E-02
27954,6.68E-03,2.31E-02
27955,6.50E-03,2.43E-02
27956,5.49E-03,2.09E-02
27957,6.52E-03,1.83E-02
27958,6.40E-03,1.87E-02
27959,5.52E-03,1.20E-02
27960,6.18E-03,9.30E-03
27961,5.22E-03,7.78E-03
27962,6.02E-03,6.76E-03
27963,4.89E-03,6.09E-03
27964,6.68E-03,6.26E-03
27965,5.76E-03,6.43E-03
27966,6.24E-03,6.08E-03
27967,5.52E-03,5.67E-03
27968,5.47E-03,5.19E-03
27969,4.65E-03,1.23E-02
27970,4.83E-03,1.13E-02
27971,5.57E-03,5.18E-02
27972,5.29E-03,5.14E-02
27973,5.36E-03,1.33E-02
27974,5.38E-03,1.29E-02
27975,4.89E-03,2.83E-02
27976,4.84E-03,3.12E-02
27977,6.06E-03,4.33E-02
27978,5.38E-03,8.11E-03
27979,5.22E-03,5.20E-03
27980,6.08E-03,2.35E-02
27981,5.89E-03,2.18E-02
27982,6.04E-03,1.86E-02
27983,5.54E-03,1.69E-02
27984,5.87E-03,1.28E-02
27985,5.68E-03,1.27E-02
27986,6.83E-03,1.31E-02
27987,6.30E-03,1.30E-02
27988,5.55E-03,1.26E-02
27989,5.48E-03,1.26E-02
27990,5.76E-03,1.26E-02
27991,5.36E-03,1.25E-02
27992,5.23E-03,2.07E-02
27993,6.25E-03,1.99E-02
27994,6.43E-03,2.07E-02
27995,6.03E-03,2.10E-02
27996,5.51E-03,2.25E-02
27997,6.73E-03,2.58E-02
27998,5.98E-03,2.53E-02
27999,5.19E-03,4.67E-02
28000,5.29E-03,4.70E-02
28001,5.58E-03,4.77E-02
28002,6.79E-03,4.89E-02
28003,7.41E-03,5.15E-02
28004,7.46E-03,5.11E-02
28005,6.50E-03,5.17E-02
28006,5.70E-03,5.49E-02
28007,5.90E-03,5.61E-02
28008,6.13E-03,5.77E-02
28009,5.79E-03,5.72E-02
28010,5.39E-03,5.76E-02
28011,5.94E-03,5.69E-02
28012,6.21E-03,5.77E-02
28013,6.26E-03,5.76E-02
28014,6.24E-03,5.79E-02
28015,6.18E-03,5.83E-02
28016,5.92E-03,5.78E-02
28017,5.51E-03,4.94E-02
28018,4.92E-03,5.24E-02
28019,6.11E-03,5.88E-02
28020,5.66E-03,5.86E-02
28021,5.76E-03,5.88E-02
28022,5.98E-03,2.40E-02
28023,5.95E-03,2.33E-02
28024,5.06E-03,2.18E-02
28025,5.78E-03,1.33E-02
28026,5.75E-03,1.32E-02
28027,5.73E-03,1.31E-02
28028,5.80E-03,1.43E-02
28029,5.38E-03,1.40E-02
28030,5.58E-03,5.85E-02
28031,5.70E-03,5.83E-02
28032,5.98E-03,1.30E-02
28033,5.55E-03,1.30E-02
28034,5.59E-03,1.30E-02
28035,5.74E-03,2.73E-02
28036,5.81E-03,2.57E-02
28037,6.97E-03,9.18E-03
28038,6.58E-03,8.68E-03
28039,4.44E-03,1.09E-02
28040,6.11E-03,1.68E-02
28041,5.83E-03,2.17E-02
28042,6.12E-03,2.21E-02
28043,5.88E-03,2.20E-02
28044,5.96E-03,2.16E-02
28045,5.75E-03,1.94E-02
28046,5.23E-03,5.90E-03
28047,6.10E-03,1.00E-02
28048,5.54E-03,1.16E-02
28049,4.45E-03,4.21E-02
28050,4.45E-03,4.44E-02
28051,4.33E-03,4.52E-02
28052,5.76E-03,3.23E-02
28053,5.89E-03,3.16E-02
28054,4.14E-03,2.73E-02
28055,4.73E-03,2.67E-02
28056,6.89E-03,2.26E-02
28057,5.80E-03,1.72E-02
28058,5.82E-03,1.79E-02
28059,5.32E-03,1.19E-02
28060,5.63E-03,8.82E-03
28061,5.55E-03,6.42E-03
28062,5.38E-03,6.01E-03
28063,5.11E-03,5.20E-03
28064,5.03E-03,5.15E-03
28065,4.53E-03,1.31E-02
28066,4.80E-03,1.10E-02
28067,5.52E-03,5.04E-02
28068,5.64E-03,4.96E-02
28069,5.34E-03,1.26E-02
28070,5.28E-03,1.18E-02
28071,4.84E-03,2.63E-02
28072,4.84E-03,3.22E-02
28073,6.02E-03,4.04E-02
28074,5.41E-03,1.15E-02
28075,5.13E-03,6.41E-03
28076,5.20E-03,5.53E-03
28077,5.81E-03,2.51E-02
28078,5.88E-03,2.24E-02
28079,5.94E-03,2.01E-02
28080,6.32E-03,1.40E-02
28081,6.26E-03,1.36E-02
28082,5.82E-03,1.34E-02
28083,6.11E-03,1.35E-02
28084,6.12E-03,1.35E-02
28085,5.51E-03,1.31E-02
28086,5.55E-03,1.29E-02
28087,4.81E-03,1.27E-02
28088,6.40E-03,1.98E-02
28089,4.89E-03,1.91E-02
28090,6.25E-03,2.15E-02
28091,6.37E-03,2.17E-02
28092,5.42E-03,2.38E-02
28093,5.45E-03,2.63E-02
28094,5.37E-03,4.66E-02
28095,6.90E-03,5.31E-02
28096,5.87E-03,5.73E-02
28097,5.81E-03,5.69E-02
28098,6.01E-03,5.76E-02
28099,5.98E-03,5.66E-02
28100,6.12E-03,5.69E-02
28101,6.06E-03,5.89E-02
28102,6.51E-03,6.16E-02
28103,5.90E-03,6.10E-02
28104,5.89E-03,6.11E-02
28105,5.92E-03,6.11E-02
28106,5.12E-03,2.09E-02
28107,5.82E-03,1.36E-02
28108,5.93E-03,1.54E-02
28109,5.75E-03,1.43E-02
28110,5.71E-03,6.12E-02
28111,5.89E-03,1.35E-02
28112,5.77E-03,2.80E-02
28113,5.86E-03,2.48E-02
28114,3.97E-03,4.07E-02
28115,5.17E-03,1.91E-02
28116,5.35E-03,3.83E-02
28117,5.81E-03,2.24E-02
28118,4.76E-03,1.25E-02
28119,4.80E-03,1.35E-02
28120,5.40E-03,5.25E-03
28121,5.39E-03,5.44E-03
28122,7.17E-03,9.38E-03
28123,6.21E-03,9.81E-03
28124,4.77E-03,4.13E-02
28125,4.70E-03,1.16E-02
28126,5.21E-03,1.18E-02
28127,6.83E-03,5.57E-03
28128,4.78E-03,1.07E-02
28129,5.39E-03,4.88E-02
28130,5.22E-03,4.79E-02
28131,5.37E-03,1.20E-02
28132,5.19E-03,1.08E-02
28133,4.78E-03,2.45E-02
28134,4.75E-03,3.31E-02
28135,5.82E-03,3.76E-02
28136,5.23E-03,1.52E-02
28137,4.95E-03,8.23E-03
28138,5.11E-03,7.92E-03
28139,5.19E-03,6.38E-03
28140,5.61E-03,1.31E-02
28141,5.65E-03,1.32E-02
28142,5.26E-03,2.50E-02
28143,5.28E-03,2.66E-02
28144,5.10E-03,2.71E-02
28145,6.00E-03,6.02E-02
28146,6.03E-03,6.06E-02
28147,6.25E-03,6.03E-02
28148,4.97E-03,6.41E-02
28149,5.00E-03,2.00E-02
28150,5.81E-03,2.86E-02
28151,5.27E-03,2.67E-02
28152,5.81E-03,2.59E-02
28153,5.31E-03,5.69E-03
28154,6.36E-03,5.47E-03
28155,4.81E-03,1.05E-02
28156,5.19E-03,4.73E-02
28157,5.17E-03,4.62E-02
28158,5.38E-03,1.14E-02
28159,5.16E-03,9.98E-03
28160,4.75E-03,2.27E-02
28161,4.40E-03,3.41E-02
28162,5.70E-03,3.46E-02
28163,4.76E-03,2.61E-02
28164,4.73E-03,1.91E-02
28165,5.91E-03,2.94E-02
28166,4.23E-03,4.17E-02
28167,5.25E-03,3.95E-02
28168,5.32E-03,1.66E-02
28169,5.65E-03,1.83E-02
28170,4.74E-03,1.02E-02
28171,4.93E-03,4.57E-02
28172,5.16E-03,4.47E-02
28173,5.45E-03,1.08E-02
28174,5.18E-03,9.44E-03
28175,4.63E-03,2.10E-02
28176,3.48E-03,3.44E-02
28177,5.56E-03,3.14E-02
28178,3.83E-03,2.74E-02
28179,4.46E-03,1.84E-02
28180,6.01E-03,3.02E-02
28181,4.56E-03,4.29E-02
28182,4.66E-03,9.96E-03
28183,4.74E-03,4.43E-02
28184,5.12E-03,4.33E-02
28185,5.47E-03,1.03E-02
28186,5.22E-03,9.19E-03
28187,4.53E-03,1.94E-02
28188,3.40E-03,3.55E-02
28189,5.52E-03,2.33E-02
28190,6.25E-03,2.75E-02
28191,5.15E-03,7.75E-03
28192,4.85E-03,7.77E-03
28193,5.65E-03,1.87E-02
28194,5.69E-03,1.89E-02
28195,4.23E-03,1.77E-02
28196,5.21E-03,4.07E-02
28197,4.60E-03,9.76E-03
28198,5.13E-03,4.20E-02
28199,5.41E-03,9.90E-03
28200,5.19E-03,9.25E-03
28201,4.51E-03,1.80E-02
28202,3.57E-03,3.63E-02
28203,4.63E-03,1.68E-02
28204,4.56E-03,9.63E-03
28205,5.33E-03,9.55E-03
28206,5.19E-03,9.67E-03
28207,4.62E-03,1.65E-02
28208,3.45E-03,3.70E-02
28209,4.82E-03,2.81E-02
28210,4.72E-03,2.70E-02
28211,5.04E-03,2.49E-02
28212,5.84E-03,3.39E-02
28213,6.00E-03,3.20E-02
28214,4.55E-03,9.44E-03
28215,5.21E-03,9.30E-03
28216,5.12E-03,1.04E-02
28217,4.69E-03,1.51E-02
28218,2.70E-03,3.78E-02
28219,4.80E-03,1.57E-02
28220,4.69E-03,9.27E-03
28221,5.09E-03,9.16E-03
28222,5.01E-03,1.14E-02
28223,4.77E-03,1.37E-02
28224,5.73E-03,3.50E-02
28225,4.39E-03,1.49E-02
28226,5.54E-03,6.99E-03
28227,5.42E-03,6.87E-03
28228,5.22E-03,6.58E-03
28229,4.73E-03,9.16E-03
28230,4.97E-03,9.10E-03
28231,4.90E-03,1.25E-02
28232,5.60E-03,3.60E-02
28233,4.49E-03,1.41E-02
28234,6.23E-03,1.13E-02
28235,5.64E-03,1.10E-02
28236,5.50E-03,1.07E-02
28237,4.82E-03,9.10E-03
28238,4.15E-03,8.16E-03
28239,5.25E-03,6.00E-02
28240,5.85E-03,2.89E-02
28241,4.92E-03,1.05E-02
28242,5.10E-03,1.03E-02
28243,5.33E-03,1.01E-02
28244,5.85E-03,1.54E-02
28245,5.27E-03,1.51E-02
28246,5.15E-03,1.53E-02
28247,5.14E-03,1.43E-02
28248,4.89E-03,6.28E-03
28249,5.96E-03,7.51E-03
28250,6.06E-03,7.36E-03
28251,4.76E-03,7.74E-03
28252,5.78E-03,7.65E-03
28253,5.67E-03,8.09E-03
28254,5.72E-03,1.05E-02
28255,6.08E-03,1.25E-02
28256,5.57E-03,1.22E-02
28257,4.56E-03,4.38E-02
28258,6.58E-03,3.92E-02
28259,6.10E-03,3.60E-02
28260,6.07E-03,3.74E-02
28261,6.03E-03,3.67E-02
28262,6.06E-03,3.46E-02
28263,6.07E-03,3.53E-02
28264,6.00E-03,3.38E-02
28265,6.17E-03,2.96E-02
28266,6.14E-03,3.03E-02
28267,5.68E-03,2.84E-02
28268,5.96E-03,2.90E-02
28269,5.18E-03,2.78E-02
28270,5.79E-03,2.62E-02
28271,6.63E-03,2.37E-02
28272,5.69E-03,1.96E-02
28273,5.55E-03,2.05E-02
28274,5.60E-03,2.00E-02
28275,5.81E-03,1.91E-02
28276,6.76E-03,1.56E-02
28277,6.64E-03,1.47E-02
28278,6.68E-03,1.51E-02
28279,6.43E-03,1.39E-02
28280,6.57E-03,1.43E-02
28281,6.18E-03,1.32E-02
28282,6.42E-03,1.35E-02
28283,5.93E-03,1.26E-02
28284,6.04E-03,1.29E-02
28285,5.80E-03,1.23E-02
28286,5.91E-03,9.70E-03
28287,5.67E-03,9.91E-03
28288,6.19E-03,9.48E-03
28289,5.61E-03,7.55E-03
28290,5.46E-03,7.66E-03
28291,6.09E-03,7.32E-03
28292,5.80E-03,7.44E-03
28293,6.31E-03,7.11E-03
28294,6.14E-03,7.21E-03
28295,6.29E-03,6.93E-03
28296,6.32E-03,7.02E-03
28297,6.27E-03,6.84E-03
28298,5.88E-03,6.33E-03
28299,6.59E-03,5.94E-03
28300,6.45E-03,6.00E-03
28301,6.72E-03,5.79E-03
28302,6.78E-03,5.87E-03
28303,6.80E-03,5.69E-03
28304,5.36E-03,5.51E-03
28305,5.28E-03,5.58E-03
28306,5.41E-03,5.24E-03
28307,5.42E-03,5.06E-03
28308,5.50E-03,5.13E-03
28309,4.57E-03,4.92E-03
28310,5.25E-03,5.19E-03
28311,5.31E-03,4.98E-03
28312,4.76E-03,1.18E-02
28313,5.52E-03,5.16E-02
28314,5.36E-03,1.31E-02
28315,4.89E-03,2.97E-02
28316,5.98E-03,4.64E-02
28317,5.31E-03,6.26E-03
28318,5.90E-03,2.26E-02
28319,5.95E-03,2.31E-02
28320,5.90E-03,2.22E-02
28321,6.05E-03,1.76E-02
28322,6.07E-03,1.81E-02
28323,5.81E-03,1.72E-02
28324,5.67E-03,1.28E-02
28325,6.35E-03,1.30E-02
28326,5.53E-03,1.26E-02
28327,5.60E-03,1.25E-02
28328,4.86E-03,8.71E-03
28329,6.03E-03,1.76E-02
28330,5.88E-03,1.74E-02
28331,5.00E-03,2.11E-02
28332,5.11E-03,2.10E-02
28333,4.81E-03,2.11E-02
28334,4.86E-03,2.11E-02
28335,4.84E-03,2.12E-02
28336,5.36E-03,1.86E-02
28337,6.16E-03,1.81E-02
28338,6.10E-03,1.79E-02
28339,6.17E-03,1.86E-02
28340,6.19E-03,1.83E-02
28341,6.04E-03,1.92E-02
28342,6.10E-03,1.89E-02
28343,6.06E-03,1.95E-02
28344,6.04E-03,1.94E-02
28345,6.11E-03,1.97E-02
28346,6.27E-03,2.09E-02
28347,5.77E-03,2.24E-02
28348,5.64E-03,2.24E-02
28349,6.17E-03,2.56E-02
28350,5.40E-03,4.74E-02
28351,5.34E-03,4.72E-02
28352,5.53E-03,4.75E-02
28353,5.87E-03,4.79E-02
28354,5.76E-03,4.78E-02
28355,6.21E-03,4.82E-02
28356,6.00E-03,4.81E-02
28357,6.33E-03,4.84E-02
28358,6.28E-03,4.83E-02
28359,6.43E-03,4.85E-02
28360,6.55E-03,4.94E-02
28361,6.72E-03,4.91E-02
28362,6.41E-03,5.00E-02
28363,6.46E-03,4.97E-02
28364,6.47E-03,5.04E-02
28365,6.10E-03,5.24E-02
28366,6.17E-03,5.20E-02
28367,6.09E-03,5.32E-02
28368,6.03E-03,5.28E-02
28369,5.80E-03,5.40E-02
28370,6.03E-03,5.35E-02
28371,5.70E-03,5.44E-02
28372,5.94E-03,5.63E-02
28373,6.16E-03,5.74E-02
28374,5.64E-03,5.75E-02
28375,6.23E-03,5.73E-02
28376,6.93E-03,5.95E-02
28377,6.27E-03,5.81E-02
28378,5.88E-03,5.74E-02
28379,5.91E-03,5.76E-02
28380,6.56E-03,5.66E-02
28381,5.98E-03,5.70E-02
28382,5.90E-03,5.64E-02
28383,5.27E-03,5.36E-02
28384,5.15E-03,5.61E-02
28385,5.95E-03,5.89E-02
28386,5.54E-03,2.26E-02
28387,5.70E-03,1.32E-02
28388,5.64E-03,1.42E-02
28389,5.62E-03,5.83E-02
28390,5.68E-03,1.30E-02
28391,5.87E-03,7.25E-03
28392,5.67E-03,7.12E-03
28393,5.84E-03,2.65E-02
28394,6.00E-03,1.41E-02
28395,6.30E-03,1.38E-02
28396,6.35E-03,1.40E-02
28397,6.17E-03,8.89E-03
28398,4.98E-03,1.07E-02
28399,5.49E-03,8.74E-03
28400,5.41E-03,8.56E-03
28401,6.21E-03,1.64E-02
28402,6.80E-03,1.67E-02
28403,5.81E-03,2.20E-02
28404,5.85E-03,2.21E-02
28405,5.94E-03,2.30E-02
28406,6.11E-03,2.26E-02
28407,5.96E-03,1.69E-02
28408,5.91E-03,1.87E-02
28409,5.21E-03,1.63E-02
28410,4.92E-03,1.46E-02
28411,4.97E-03,1.57E-02
28412,4.76E-03,5.14E-03
28413,6.06E-03,4.86E-03
28414,5.38E-03,6.03E-03
28415,5.19E-03,6.31E-03
28416,6.01E-03,7.38E-03
28417,7.21E-03,8.65E-03
28418,6.69E-03,8.41E-03
28419,5.41E-03,7.97E-03
28420,6.05E-03,1.03E-02
28421,5.67E-03,1.19E-02
28422,5.01E-03,4.27E-02
28423,4.59E-03,4.48E-02
28424,4.68E-03,4.40E-02
28425,4.64E-03,4.08E-02
28426,6.10E-03,3.82E-02
28427,5.91E-03,3.30E-02
28428,6.02E-03,3.09E-02
28429,5.18E-03,2.70E-02
28430,6.52E-03,2.50E-02
28431,6.35E-03,2.57E-02
28432,6.66E-03,2.32E-02
28433,6.59E-03,2.44E-02
28434,6.40E-03,2.21E-02
28435,6.07E-03,2.16E-02
28436,5.99E-03,1.86E-02
28437,5.93E-03,1.89E-02
28438,5.39E-03,1.68E-02
28439,5.48E-03,1.75E-02
28440,5.56E-03,1.22E-02
28441,6.03E-03,9.01E-03
28442,5.86E-03,6.67E-03
28443,6.57E-03,5.98E-03
28444,6.77E-03,6.10E-03
28445,5.72E-03,6.33E-03
28446,6.23E-03,5.92E-03
28447,5.56E-03,5.35E-03
28448,5.93E-03,5.52E-03
28449,5.13E-03,5.08E-03
28450,5.42E-03,5.01E-03
28451,4.65E-03,1.26E-02
28452,4.78E-03,1.16E-02
28453,5.49E-03,5.02E-02
28454,5.52E-03,4.98E-02
28455,5.36E-03,1.24E-02
28456,5.37E-03,1.20E-02
28457,4.91E-03,2.78E-02
28458,4.81E-03,3.07E-02
28459,5.72E-03,5.04E-02
28460,5.95E-03,4.37E-02
28461,5.42E-03,9.16E-03
28462,5.29E-03,5.81E-03
28463,6.00E-03,2.46E-02
28464,5.93E-03,2.28E-02
28465,6.01E-03,1.96E-02
28466,4.94E-03,1.77E-02
28467,5.60E-03,1.34E-02
28468,5.71E-03,1.34E-02
28469,6.36E-03,1.37E-02
28470,6.21E-03,1.35E-02
28471,5.51E-03,1.31E-02
28472,5.58E-03,1.30E-02
28473,5.52E-03,1.30E-02
28474,5.16E-03,1.28E-02
28475,4.97E-03,1.02E-02
28476,4.79E-03,1.06E-02
28477,4.69E-03,1.16E-02
28478,5.18E-03,2.30E-02
28479,4.79E-03,2.01E-02
28480,6.18E-03,2.12E-02
28481,6.31E-03,2.20E-02
28482,6.07E-03,2.23E-02
28483,5.49E-03,2.37E-02
28484,6.59E-03,2.72E-02
28485,5.81E-03,2.66E-02
28486,5.16E-03,4.62E-02
28487,6.20E-03,4.78E-02
28488,5.41E-03,4.79E-02
28489,6.63E-03,4.99E-02
28490,6.68E-03,5.01E-02
28491,6.37E-03,5.32E-02
28492,5.72E-03,5.64E-02
28493,5.98E-03,5.80E-02
28494,6.05E-03,5.98E-02
28495,5.96E-03,5.94E-02
28496,5.78E-03,6.01E-02
28497,6.34E-03,6.01E-02
28498,5.98E-03,6.08E-02
28499,5.99E-03,6.10E-02
28500,6.49E-03,6.19E-02
28501,5.67E-03,2.38E-02
28502,5.61E-03,2.31E-02
28503,5.26E-03,2.16E-02
28504,5.81E-03,1.40E-02
28505,5.79E-03,1.39E-02
28506,5.80E-03,1.37E-02
28507,5.88E-03,1.52E-02
28508,5.83E-03,1.47E-02
28509,5.53E-03,6.13E-02
28510,5.47E-03,6.12E-02
28511,5.56E-03,6.11E-02
28512,5.76E-03,1.35E-02
28513,5.44E-03,1.35E-02
28514,5.53E-03,1.35E-02
28515,5.76E-03,2.71E-02
28516,5.78E-03,2.55E-02
28517,7.25E-03,8.77E-03
28518,3.79E-03,3.93E-02
28519,5.06E-03,2.03E-02
28520,5.43E-03,3.71E-02
28521,4.50E-03,1.34E-02
28522,5.82E-03,2.18E-02
28523,4.86E-03,1.60E-02
28524,4.99E-03,1.71E-02
28525,5.40E-03,5.39E-03
28526,5.59E-03,9.54E-03
28527,6.66E-03,1.01E-02
28528,6.25E-03,1.16E-02
28529,5.59E-03,3.22E-02
28530,6.69E-03,2.27E-02
28531,5.90E-03,1.82E-02
28532,5.43E-03,1.21E-02
28533,4.07E-03,1.12E-02
28534,5.62E-03,8.92E-03
28535,5.38E-03,6.32E-03
28536,6.02E-03,5.87E-03
28537,5.31E-03,5.02E-03
28538,5.06E-03,4.97E-03
28539,5.74E-03,4.42E-03
28540,4.80E-03,1.13E-02
28541,5.44E-03,4.87E-02
28542,5.41E-03,4.80E-02
28543,5.42E-03,1.19E-02
28544,5.29E-03,1.10E-02
28545,4.84E-03,2.59E-02
28546,4.78E-03,3.16E-02
28547,6.46E-03,5.55E-02
28548,5.95E-03,4.10E-02
28549,5.40E-03,1.26E-02
28550,5.27E-03,5.88E-03
28551,5.71E-03,2.61E-02
28552,5.87E-03,2.34E-02
28553,6.03E-03,2.11E-02
28554,4.31E-03,1.43E-02
28555,5.90E-03,1.41E-02
28556,6.00E-03,1.41E-02
28557,5.50E-03,1.35E-02
28558,5.67E-03,1.33E-02
28559,4.78E-03,1.30E-02
28560,4.76E-03,1.49E-02
28561,5.43E-03,2.20E-02
28562,6.12E-03,2.27E-02
28563,6.54E-03,2.31E-02
28564,5.36E-03,2.49E-02
28565,5.46E-03,2.74E-02
28566,6.15E-03,4.76E-02
28567,5.54E-03,5.23E-02
28568,5.55E-03,5.33E-02
28569,6.36E-03,5.94E-02
28570,5.69E-03,5.85E-02
28571,6.43E-03,5.97E-02
28572,6.03E-03,6.11E-02
28573,6.26E-03,6.05E-02
28574,5.55E-03,6.36E-02
28575,6.23E-03,6.45E-02
28576,5.85E-03,6.44E-02
28577,5.20E-03,2.07E-02
28578,5.94E-03,1.43E-02
28579,6.00E-03,1.62E-02
28580,6.89E-03,1.51E-02
28581,5.42E-03,6.39E-02
28582,5.77E-03,2.78E-02
28583,5.74E-03,2.46E-02
28584,5.11E-03,9.90E-03
28585,5.97E-03,2.49E-02
28586,5.80E-03,5.65E-03
28587,3.85E-03,4.43E-02
28588,4.92E-03,4.55E-02
28589,5.41E-03,4.49E-02
28590,4.83E-03,1.10E-02
28591,5.30E-03,4.72E-02
28592,5.27E-03,4.64E-02
28593,5.40E-03,1.13E-02
28594,5.22E-03,1.02E-02
28595,4.79E-03,2.40E-02
28596,4.59E-03,3.25E-02
28597,5.83E-03,3.81E-02
28598,5.24E-03,1.64E-02
28599,5.25E-03,6.52E-03
28600,5.48E-03,1.35E-02
28601,5.64E-03,1.37E-02
28602,5.11E-03,1.32E-02
28603,3.91E-03,2.33E-02
28604,4.54E-03,2.47E-02
28605,6.11E-03,2.45E-02
28606,5.21E-03,2.62E-02
28607,5.57E-03,2.76E-02
28608,5.46E-03,2.80E-02
28609,5.86E-03,6.22E-02
28610,5.97E-03,6.27E-02
28611,4.56E-03,6.56E-02
28612,4.45E-03,6.65E-02
28613,4.98E-03,1.97E-02
28614,5.92E-03,2.85E-02
28615,4.13E-03,4.03E-02
28616,5.30E-03,3.83E-02
28617,5.29E-03,2.92E-02
28618,5.55E-03,2.82E-02
28619,4.14E-03,1.81E-02
28620,6.12E-03,6.06E-03
28621,6.04E-03,5.93E-03
28622,4.51E-03,1.14E-02
28623,4.96E-03,1.17E-02
28624,4.81E-03,1.07E-02
28625,5.09E-03,4.56E-02
28626,5.24E-03,4.48E-02
28627,5.51E-03,1.08E-02
28628,5.23E-03,9.60E-03
28629,4.76E-03,2.23E-02
28630,4.17E-03,3.31E-02
28631,5.72E-03,3.50E-02
28632,5.56E-03,1.34E-02
28633,5.12E-03,2.73E-02
28634,4.72E-03,1.89E-02
28635,6.03E-03,2.92E-02
28636,4.51E-03,4.14E-02
28637,4.74E-03,1.04E-02
28638,4.89E-03,4.41E-02
28639,5.19E-03,4.33E-02
28640,5.53E-03,1.03E-02
28641,5.25E-03,9.30E-03
28642,4.67E-03,2.06E-02
28643,4.31E-03,3.38E-02
28644,6.01E-03,3.17E-02
28645,4.92E-03,8.14E-03
28646,5.50E-03,2.05E-02
28647,5.60E-03,2.06E-02
28648,5.16E-03,2.83E-02
28649,4.37E-03,1.81E-02
28650,5.26E-03,3.95E-02
28651,4.69E-03,1.02E-02
28652,4.69E-03,4.27E-02
28653,5.21E-03,4.20E-02
28654,5.50E-03,9.89E-03
28655,5.30E-03,9.29E-03
28656,4.56E-03,1.91E-02
28657,3.43E-03,3.47E-02
28658,3.72E-03,2.43E-02
28659,4.16E-03,1.73E-02
28660,5.22E-03,4.07E-02
28661,4.63E-03,1.00E-02
28662,5.38E-03,9.57E-03
28663,5.25E-03,9.62E-03
28664,4.58E-03,1.77E-02
28665,3.50E-03,3.55E-02
28666,5.12E-03,3.02E-02
28667,4.86E-03,2.93E-02
28668,4.94E-03,2.74E-02
28669,3.40E-03,1.65E-02
28670,5.89E-03,3.29E-02
28671,6.09E-03,3.10E-02
28672,4.61E-03,9.83E-03
28673,5.34E-03,9.35E-03
28674,5.21E-03,1.03E-02
28675,4.68E-03,1.63E-02
28676,3.23E-03,3.63E-02
28677,3.46E-03,1.61E-02
28678,4.61E-03,9.64E-03
28679,5.14E-03,9.23E-03
28680,5.11E-03,1.12E-02
28681,4.79E-03,1.48E-02
28682,3.34E-03,3.67E-02
28683,5.84E-03,3.39E-02
28684,4.31E-03,1.51E-02
28685,5.56E-03,7.15E-03
28686,5.50E-03,7.03E-03
28687,5.32E-03,6.74E-03
28688,4.75E-03,9.46E-03
28689,5.06E-03,9.20E-03
28690,4.99E-03,1.23E-02
28691,4.85E-03,1.35E-02
28692,5.63E-03,3.49E-02
28693,4.43E-03,1.44E-02
28694,5.80E-03,1.14E-02
28695,5.77E-03,1.11E-02
28696,5.65E-03,1.08E-02
28697,4.79E-03,9.33E-03
28698,4.92E-03,9.24E-03
28699,5.39E-03,6.45E-03
28700,5.19E-03,6.34E-03
28701,3.92E-03,7.86E-03
28702,4.88E-03,7.76E-03
28703,5.01E-03,8.11E-03
28704,5.92E-03,2.41E-02
28705,3.39E-03,4.20E-03
28706,5.65E-03,4.26E-03
28707,6.43E-03,4.48E-03
28708,6.21E-03,4.47E-03
28709,6.16E-03,4.70E-03
28710,3.57E-03,7.90E-03
28711,2.42E-03,4.10E-03
28712,4.78E-03,4.32E-03
28713,6.07E-03,1.79E-02
28714,4.98E-03,1.73E-02
28715,5.14E-03,1.78E-02
28716,5.08E-03,1.68E-02
28717,5.43E-03,4.39E-03
28718,4.83E-03,5.00E-03
28719,5.37E-03,6.18E-03
28720,5.13E-03,6.45E-03
28721,6.05E-03,7.67E-03
28722,6.06E-03,7.53E-03
28723,5.79E-03,7.96E-03
28724,5.99E-03,7.82E-03
28725,6.78E-03,8.18E-03
28726,5.84E-03,1.05E-02
28727,5.52E-03,1.24E-02
28728,5.65E-03,1.21E-02
28729,4.88E-03,4.33E-02
28730,6.02E-03,3.96E-02
28731,5.45E-03,4.04E-02
28732,6.27E-03,3.90E-02
28733,5.98E-03,3.57E-02
28734,5.93E-03,3.72E-02
28735,5.90E-03,3.64E-02
28736,6.05E-03,3.43E-02
28737,5.93E-03,3.51E-02
28738,5.98E-03,3.37E-02
28739,6.19E-03,2.96E-02
28740,6.02E-03,3.02E-02
28741,5.84E-03,2.83E-02
28742,6.01E-03,2.90E-02
28743,5.52E-03,2.77E-02
28744,6.61E-03,2.38E-02
28745,5.67E-03,2.07E-02
28746,5.83E-03,2.11E-02
28747,5.70E-03,1.98E-02
28748,5.63E-03,2.02E-02
28749,5.82E-03,1.93E-02
28750,5.39E-03,1.67E-02
28751,4.39E-03,1.72E-02
28752,6.73E-03,1.58E-02
28753,6.54E-03,1.50E-02
28754,6.65E-03,1.54E-02
28755,6.44E-03,1.42E-02
28756,6.52E-03,1.46E-02
28757,6.19E-03,1.34E-02
28758,6.35E-03,1.38E-02
28759,5.94E-03,1.28E-02
28760,6.05E-03,1.31E-02
28761,5.81E-03,1.25E-02
28762,5.95E-03,9.84E-03
28763,5.78E-03,1.01E-02
28764,6.14E-03,9.41E-03
28765,6.18E-03,9.62E-03
28766,6.11E-03,9.21E-03
28767,5.52E-03,7.55E-03
28768,5.34E-03,7.67E-03
28769,6.03E-03,7.30E-03
28770,5.72E-03,7.42E-03
28771,6.26E-03,7.06E-03
28772,6.10E-03,7.18E-03
28773,6.20E-03,6.85E-03
28774,6.30E-03,6.95E-03
28775,6.16E-03,6.76E-03
28776,5.98E-03,6.24E-03
28777,6.45E-03,5.78E-03
28778,6.33E-03,5.85E-03
28779,6.49E-03,5.64E-03
28780,6.51E-03,5.71E-03
28781,6.59E-03,5.54E-03
28782,5.72E-03,5.43E-03
28783,5.63E-03,5.12E-03
28784,5.46E-03,5.07E-03
28785,5.43E-03,4.88E-03
28786,5.32E-03,4.94E-03
28787,4.70E-03,4.74E-03
28788,5.16E-03,4.79E-03
28789,6.28E-03,4.66E-03
28790,6.57E-03,4.71E-03
28791,4.85E-03,4.63E-03
28792,4.69E-03,1.21E-02
28793,5.49E-03,5.00E-02
28794,5.39E-03,1.22E-02
28795,4.89E-03,2.92E-02
28796,5.86E-03,4.70E-02
28797,5.36E-03,7.16E-03
28798,5.96E-03,2.37E-02
28799,5.95E-03,2.41E-02
28800,5.95E-03,2.33E-02
28801,5.99E-03,1.86E-02
28802,6.05E-03,1.91E-02
28803,5.78E-03,1.82E-02
28804,5.77E-03,1.34E-02
28805,6.31E-03,1.36E-02
28806,5.57E-03,1.30E-02
28807,5.38E-03,1.29E-02
28808,4.71E-03,1.10E-02
28809,5.97E-03,1.92E-02
28810,5.86E-03,1.91E-02
28811,4.95E-03,2.33E-02
28812,5.06E-03,2.32E-02
28813,4.67E-03,2.32E-02
28814,4.86E-03,2.32E-02
28815,4.41E-03,2.31E-02
28816,4.97E-03,2.05E-02
28817,4.08E-03,2.05E-02
28818,5.39E-03,2.05E-02
28819,6.21E-03,1.96E-02
28820,6.11E-03,1.94E-02
28821,6.16E-03,2.01E-02
28822,6.21E-03,1.98E-02
28823,6.05E-03,2.05E-02
28824,6.10E-03,2.03E-02
28825,6.05E-03,2.08E-02
28826,6.05E-03,2.07E-02
28827,6.13E-03,2.10E-02
28828,6.16E-03,2.22E-02
28829,5.77E-03,2.36E-02
28830,5.64E-03,2.36E-02
28831,6.13E-03,2.68E-02
28832,5.02E-03,4.59E-02
28833,5.32E-03,4.84E-02
28834,5.32E-03,4.81E-02
28835,5.55E-03,4.87E-02
28836,5.52E-03,4.86E-02
28837,5.83E-03,4.90E-02
28838,5.75E-03,4.89E-02
28839,6.19E-03,4.93E-02
28840,6.03E-03,4.92E-02
28841,6.40E-03,4.95E-02
28842,6.28E-03,4.94E-02
28843,6.53E-03,4.96E-02
28844,6.56E-03,5.06E-02
28845,6.65E-03,5.03E-02
28846,6.33E-03,5.13E-02
28847,6.46E-03,5.09E-02
28848,6.14E-03,5.17E-02
28849,6.11E-03,5.38E-02
28850,6.17E-03,5.35E-02
28851,6.04E-03,5.47E-02
28852,6.08E-03,5.43E-02
28853,5.83E-03,5.56E-02
28854,5.90E-03,5.52E-02
28855,5.75E-03,5.60E-02
28856,6.00E-03,5.85E-02
28857,5.92E-03,5.83E-02
28858,6.07E-03,5.89E-02
28859,6.10E-03,5.95E-02
28860,5.87E-03,5.98E-02
28861,6.47E-03,5.99E-02
28862,6.12E-03,6.07E-02
28863,5.89E-03,6.03E-02
28864,5.87E-03,6.06E-02
28865,6.06E-03,6.02E-02
28866,6.10E-03,6.01E-02
28867,6.52E-03,5.98E-02
28868,5.98E-03,6.01E-02
28869,5.73E-03,5.98E-02
28870,5.60E-03,6.15E-02
28871,5.82E-03,6.17E-02
28872,5.39E-03,2.23E-02
28873,5.77E-03,1.38E-02
28874,5.81E-03,1.50E-02
28875,5.53E-03,6.11E-02
28876,5.59E-03,1.35E-02
28877,5.83E-03,7.41E-03
28878,5.65E-03,7.28E-03
28879,5.82E-03,2.63E-02
28880,6.11E-03,1.48E-02
28881,6.19E-03,1.45E-02
28882,6.26E-03,1.46E-02
28883,4.47E-03,4.57E-03
28884,6.77E-03,9.02E-03
28885,3.68E-03,3.79E-02
28886,4.78E-03,2.19E-02
28887,5.53E-03,3.60E-02
28888,4.48E-03,1.36E-02
28889,6.72E-03,1.96E-02
28890,5.93E-03,2.12E-02
28891,5.04E-03,1.88E-02
28892,5.06E-03,1.83E-02
28893,6.51E-03,4.52E-03
28894,5.37E-03,5.30E-03
28895,6.02E-03,5.08E-03
28896,5.56E-03,6.20E-03
28897,5.93E-03,7.54E-03
28898,6.73E-03,8.75E-03
28899,6.79E-03,8.53E-03
28900,6.65E-03,9.83E-03
28901,6.35E-03,1.03E-02
28902,5.68E-03,1.19E-02
28903,5.70E-03,4.15E-02
28904,5.59E-03,4.20E-02
28905,4.40E-03,4.35E-02
28906,5.59E-03,4.08E-02
28907,6.00E-03,3.79E-02
28908,6.08E-03,3.28E-02
28909,5.57E-03,3.08E-02
28910,6.56E-03,2.51E-02
28911,6.49E-03,2.57E-02
28912,6.71E-03,2.33E-02
28913,6.64E-03,2.45E-02
28914,5.90E-03,2.22E-02
28915,5.73E-03,2.18E-02
28916,5.81E-03,1.88E-02
28917,5.76E-03,1.91E-02
28918,5.58E-03,1.78E-02
28919,5.58E-03,1.24E-02
28920,5.68E-03,1.09E-02
28921,5.91E-03,9.11E-03
28922,5.17E-03,8.31E-03
28923,5.46E-03,8.83E-03
28924,5.35E-03,8.65E-03
28925,4.86E-03,7.82E-03
28926,5.78E-03,6.60E-03
28927,6.59E-03,5.88E-03
28928,6.45E-03,6.01E-03
28929,5.47E-03,6.23E-03
28930,6.08E-03,5.78E-03
28931,5.67E-03,5.19E-03
28932,6.27E-03,5.37E-03
28933,4.99E-03,4.90E-03
28934,4.93E-03,4.45E-03
28935,5.95E-03,4.45E-03
28936,4.66E-03,1.29E-02
28937,4.84E-03,1.18E-02
28938,5.45E-03,4.85E-02
28939,5.51E-03,4.82E-02
28940,5.41E-03,1.17E-02
28941,5.38E-03,1.12E-02
28942,4.87E-03,2.73E-02
28943,4.83E-03,3.01E-02
28944,6.08E-03,5.14E-02
28945,5.97E-03,4.43E-02
28946,5.38E-03,1.02E-02
28947,5.34E-03,6.55E-03
28948,5.87E-03,2.57E-02
28949,5.98E-03,2.39E-02
28950,6.05E-03,2.06E-02
28951,5.09E-03,1.88E-02
28952,5.87E-03,1.42E-02
28953,5.81E-03,1.41E-02
28954,6.21E-03,1.44E-02
28955,6.04E-03,1.41E-02
28956,5.52E-03,1.35E-02
28957,5.69E-03,1.34E-02
28958,5.35E-03,1.33E-02
28959,5.13E-03,1.31E-02
28960,4.83E-03,1.28E-02
28961,4.53E-03,1.31E-02
28962,4.61E-03,1.41E-02
28963,5.04E-03,2.53E-02
28964,4.23E-03,2.53E-02
28965,5.09E-03,2.18E-02
28966,6.10E-03,2.25E-02
28967,6.58E-03,2.33E-02
28968,5.97E-03,2.35E-02
28969,5.45E-03,2.49E-02
28970,5.96E-03,2.85E-02
28971,5.67E-03,2.77E-02
28972,5.44E-03,4.71E-02
28973,6.58E-03,5.11E-02
28974,6.56E-03,5.09E-02
28975,6.64E-03,5.14E-02
28976,4.95E-03,5.36E-02
28977,5.77E-03,5.48E-02
28978,5.94E-03,5.48E-02
28979,5.62E-03,5.81E-02
28980,5.99E-03,6.00E-02
28981,5.88E-03,6.18E-02
28982,6.08E-03,6.16E-02
28983,5.77E-03,6.34E-02
28984,5.51E-03,6.39E-02
28985,6.30E-03,6.26E-02
28986,5.93E-03,6.48E-02
28987,5.39E-03,6.41E-02
28988,5.42E-03,6.43E-02
28989,5.36E-03,2.37E-02
28990,5.29E-03,2.28E-02
28991,5.37E-03,2.14E-02
28992,5.88E-03,1.47E-02
28993,5.85E-03,1.46E-02
28994,5.93E-03,1.44E-02
28995,5.95E-03,1.60E-02
28996,6.19E-03,1.55E-02
28997,5.35E-03,6.39E-02
28998,5.30E-03,6.37E-02
28999,5.58E-03,1.40E-02
29000,5.40E-03,1.40E-02
29001,5.50E-03,1.40E-02
29002,5.79E-03,2.69E-02
29003,5.78E-03,2.53E-02
29004,5.04E-03,9.69E-03
29005,5.82E-03,2.42E-02
29006,4.91E-03,1.86E-02
29007,5.01E-03,1.97E-02
29008,5.40E-03,4.70E-03
29009,5.33E-03,4.58E-03
29010,4.37E-03,4.62E-03
29011,6.08E-03,4.72E-03
29012,5.53E-03,5.56E-03
29013,6.74E-03,8.92E-03
29014,5.77E-03,1.16E-02
29015,3.50E-03,4.36E-02
29016,4.00E-03,4.41E-02
29017,5.47E-03,4.62E-02
29018,5.82E-03,4.55E-02
29019,6.33E-03,2.28E-02
29020,5.83E-03,1.84E-02
29021,5.63E-03,9.02E-03
29022,4.32E-03,7.94E-03
29023,5.21E-03,6.23E-03
29024,6.17E-03,5.75E-03
29025,5.73E-03,4.26E-03
29026,4.83E-03,1.15E-02
29027,5.37E-03,4.70E-02
29028,5.39E-03,4.65E-02
29029,5.40E-03,1.12E-02
29030,5.31E-03,1.04E-02
29031,4.86E-03,2.54E-02
29032,4.68E-03,3.10E-02
29033,7.14E-03,5.61E-02
29034,5.95E-03,4.15E-02
29035,5.36E-03,1.39E-02
29036,5.37E-03,6.37E-03
29037,5.70E-03,2.72E-02
29038,6.15E-03,2.45E-02
29039,6.15E-03,2.22E-02
29040,6.12E-03,1.73E-02
29041,6.60E-03,1.77E-02
29042,5.90E-03,1.48E-02
29043,5.47E-03,1.40E-02
29044,5.79E-03,1.38E-02
29045,5.23E-03,1.34E-02
29046,4.76E-03,1.75E-02
29047,5.61E-03,2.43E-02
29048,5.76E-03,2.44E-02
29049,5.33E-03,2.61E-02
29050,5.45E-03,2.84E-02
29051,5.04E-03,4.87E-02
29052,4.46E-03,4.86E-02
29053,5.24E-03,5.48E-02
29054,4.83E-03,6.10E-02
29055,5.17E-03,6.03E-02
29056,4.34E-03,6.22E-02
29057,6.00E-03,6.18E-02
29058,5.66E-03,6.42E-02
29059,5.73E-03,6.48E-02
29060,6.04E-03,6.33E-02
29061,5.33E-03,6.64E-02
29062,6.29E-03,6.55E-02
29063,5.24E-03,2.04E-02
29064,5.93E-03,1.49E-02
29065,6.00E-03,1.71E-02
29066,5.20E-03,6.73E-02
29067,5.04E-03,6.63E-02
29068,5.88E-03,2.76E-02
29069,5.55E-03,2.43E-02
29070,4.12E-03,3.89E-02
29071,5.38E-03,3.71E-02
29072,5.57E-03,2.74E-02
29073,4.12E-03,2.02E-02
29074,5.30E-03,1.24E-02
29075,5.50E-03,4.53E-03
29076,5.64E-03,4.73E-03
29077,5.12E-03,4.45E-03
29078,6.70E-03,4.65E-03
29079,5.23E-03,4.78E-03
29080,6.73E-03,5.22E-03
29081,5.75E-03,5.83E-03
29082,5.98E-03,6.21E-03
29083,6.35E-03,6.13E-03
29084,5.29E-03,1.20E-02
29085,4.84E-03,1.13E-02
29086,5.23E-03,4.55E-02
29087,5.27E-03,4.49E-02
29088,5.51E-03,1.07E-02
29089,5.26E-03,9.78E-03
29090,4.80E-03,2.36E-02
29091,4.49E-03,3.18E-02
29092,6.22E-03,6.04E-02
29093,5.73E-03,3.85E-02
29094,5.17E-03,1.78E-02
29095,5.40E-03,6.72E-03
29096,5.27E-03,1.38E-02
29097,5.84E-03,1.42E-02
29098,6.79E-03,1.36E-02
29099,5.18E-03,1.32E-02
29100,5.29E-03,2.73E-02
29101,5.78E-03,2.87E-02
29102,5.65E-03,2.91E-02
29103,3.41E-03,6.26E-02
29104,4.39E-03,6.81E-02
29105,5.20E-03,6.86E-02
29106,5.82E-03,6.89E-02
29107,5.73E-03,6.93E-02
29108,4.95E-03,1.94E-02
29109,4.48E-03,4.03E-03
29110,2.60E-03,3.97E-03
29111,6.01E-03,2.83E-02
29112,4.26E-03,3.99E-02
29113,5.27E-03,3.16E-02
29114,5.41E-03,3.06E-02
29115,4.89E-03,6.28E-03
29116,4.85E-03,6.43E-03
29117,4.77E-03,1.10E-02
29118,5.04E-03,4.40E-02
29119,5.24E-03,4.34E-02
29120,5.58E-03,1.02E-02
29121,5.29E-03,9.41E-03
29122,4.77E-03,2.19E-02
29123,4.13E-03,3.23E-02
29124,5.66E-03,3.54E-02
29125,5.41E-03,2.24E-02
29126,5.54E-03,2.24E-02
29127,5.22E-03,2.85E-02
29128,3.74E-03,6.85E-02
29129,4.31E-03,6.73E-02
29130,4.69E-03,1.86E-02
29131,5.31E-03,3.82E-02
29132,4.75E-03,1.07E-02
29133,4.84E-03,4.26E-02
29134,5.26E-03,4.20E-02
29135,5.55E-03,9.86E-03
29136,5.32E-03,9.34E-03
29137,4.70E-03,2.03E-02
29138,3.84E-03,3.31E-02
29139,4.88E-03,6.43E-02
29140,5.56E-03,6.78E-02
29141,5.30E-03,3.17E-02
29142,5.64E-03,2.94E-02
29143,4.34E-03,1.78E-02
29144,5.28E-03,3.94E-02
29145,4.67E-03,4.12E-02
29146,4.72E-03,1.05E-02
29147,5.28E-03,4.07E-02
29148,5.47E-03,9.58E-03
29149,5.35E-03,9.59E-03
29150,4.63E-03,1.88E-02
29151,3.66E-03,3.40E-02
29152,5.21E-03,3.25E-02
29153,5.07E-03,3.13E-02
29154,5.01E-03,2.98E-02
29155,3.90E-03,1.69E-02
29156,5.96E-03,3.19E-02
29157,6.10E-03,3.00E-02
29158,4.69E-03,1.03E-02
29159,5.38E-03,9.39E-03
29160,5.28E-03,1.02E-02
29161,4.70E-03,1.74E-02
29162,3.52E-03,3.47E-02
29163,4.81E-03,2.71E-02
29164,5.40E-03,2.70E-02
29165,3.06E-03,1.64E-02
29166,4.60E-03,1.01E-02
29167,5.29E-03,9.30E-03
29168,5.21E-03,1.10E-02
29169,4.77E-03,1.59E-02
29170,3.54E-03,3.55E-02
29171,5.91E-03,3.28E-02
29172,4.16E-03,1.55E-02
29173,5.54E-03,7.30E-03
29174,5.53E-03,7.18E-03
29175,5.40E-03,6.90E-03
29176,4.66E-03,9.86E-03
29177,5.14E-03,9.30E-03
29178,5.10E-03,1.21E-02
29179,4.83E-03,1.46E-02
29180,3.23E-03,3.58E-02
29181,5.74E-03,3.38E-02
29182,4.33E-03,1.47E-02
29183,5.74E-03,1.14E-02
29184,5.76E-03,1.11E-02
29185,5.76E-03,1.08E-02
29186,4.80E-03,9.66E-03
29187,5.01E-03,9.37E-03
29188,4.98E-03,1.33E-02
29189,3.58E-03,3.65E-02
29190,4.78E-03,2.34E-02
29191,5.60E-03,3.48E-02
29192,4.54E-03,1.39E-02
29193,4.85E-03,9.50E-03
29194,6.17E-03,2.05E-02
29195,4.72E-03,1.97E-02
29196,5.17E-03,2.03E-02
29197,5.14E-03,1.93E-02
29198,4.32E-03,4.55E-03
29199,6.10E-03,4.60E-03
29200,5.47E-03,5.18E-03
29201,5.26E-03,6.48E-03
29202,5.51E-03,6.34E-03
29203,5.37E-03,6.61E-03
29204,6.11E-03,7.82E-03
29205,5.99E-03,7.68E-03
29206,7.11E-03,8.15E-03
29207,6.27E-03,7.98E-03
29208,7.04E-03,8.31E-03
29209,8.30E-03,1.01E-02
29210,6.34E-03,9.67E-03
29211,5.95E-03,1.05E-02
29212,5.41E-03,1.24E-02
29213,5.59E-03,1.21E-02
29214,4.93E-03,1.28E-02
29215,5.04E-03,1.26E-02
29216,5.87E-03,4.28E-02
29217,5.73E-03,3.91E-02
29218,5.75E-03,3.98E-02
29219,5.90E-03,3.85E-02
29220,5.89E-03,3.55E-02
29221,5.67E-03,3.69E-02
29222,5.68E-03,3.62E-02
29223,6.03E-03,3.41E-02
29224,5.95E-03,3.48E-02
29225,6.06E-03,3.34E-02
29226,6.27E-03,2.96E-02
29227,6.25E-03,3.02E-02
29228,6.00E-03,2.83E-02
29229,6.12E-03,2.89E-02
29230,6.77E-03,2.70E-02
29231,5.99E-03,2.77E-02
29232,6.73E-03,2.39E-02
29233,5.76E-03,2.09E-02
29234,5.75E-03,2.13E-02
29235,5.64E-03,2.00E-02
29236,5.68E-03,2.04E-02
29237,5.65E-03,1.95E-02
29238,5.80E-03,1.69E-02
29239,5.52E-03,1.74E-02
29240,6.47E-03,1.61E-02
29241,6.20E-03,1.65E-02
29242,6.50E-03,1.52E-02
29243,6.47E-03,1.56E-02
29244,6.44E-03,1.44E-02
29245,6.44E-03,1.48E-02
29246,6.17E-03,1.37E-02
29247,6.32E-03,1.40E-02
29248,5.95E-03,1.30E-02
29249,6.06E-03,1.33E-02
29250,5.80E-03,1.27E-02
29251,5.62E-03,1.05E-02
29252,5.55E-03,1.07E-02
29253,6.01E-03,9.99E-03
29254,5.86E-03,1.02E-02
29255,6.14E-03,9.54E-03
29256,6.20E-03,9.76E-03
29257,6.14E-03,9.32E-03
29258,5.26E-03,8.48E-03
29259,5.57E-03,7.55E-03
29260,5.39E-03,7.68E-03
29261,6.00E-03,7.30E-03
29262,5.74E-03,7.43E-03
29263,6.24E-03,7.03E-03
29264,6.04E-03,7.16E-03
29265,6.20E-03,6.80E-03
29266,6.26E-03,6.90E-03
29267,6.08E-03,6.70E-03
29268,5.76E-03,6.14E-03
29269,6.34E-03,5.63E-03
29270,6.22E-03,5.71E-03
29271,6.27E-03,5.49E-03
29272,6.35E-03,5.56E-03
29273,6.20E-03,5.41E-03
29274,6.01E-03,5.26E-03
29275,5.31E-03,4.86E-03
29276,5.61E-03,4.97E-03
29277,5.50E-03,4.91E-03
29278,5.02E-03,4.83E-03
29279,4.14E-03,4.75E-03
29280,5.76E-03,4.78E-03
29281,5.53E-03,4.70E-03
29282,5.19E-03,4.78E-03
29283,5.91E-03,4.60E-03
29284,5.47E-03,4.64E-03
29285,5.85E-03,4.47E-03
29286,6.33E-03,4.51E-03
29287,5.97E-03,4.46E-03
29288,5.54E-03,4.39E-03
29289,5.05E-03,4.37E-03
29290,5.39E-03,4.30E-03
29291,5.10E-03,4.32E-03
29292,4.33E-03,4.28E-03
29293,4.75E-03,1.23E-02
29294,5.48E-03,4.84E-02
29295,5.41E-03,1.15E-02
29296,4.84E-03,2.87E-02
29297,5.96E-03,4.77E-02
29298,5.39E-03,8.12E-03
29299,5.97E-03,2.47E-02
29300,5.94E-03,2.52E-02
29301,5.97E-03,2.43E-02
29302,5.93E-03,1.97E-02
29303,6.06E-03,2.02E-02
29304,5.91E-03,1.91E-02
29305,5.67E-03,1.42E-02
29306,6.11E-03,1.42E-02
29307,5.65E-03,1.35E-02
29308,5.28E-03,1.32E-02
29309,4.42E-03,1.33E-02
29310,5.96E-03,2.09E-02
29311,5.82E-03,2.08E-02
29312,5.00E-03,2.56E-02
29313,4.98E-03,2.56E-02
29314,4.85E-03,2.54E-02
29315,4.89E-03,2.56E-02
29316,5.23E-03,2.52E-02
29317,4.91E-03,2.23E-02
29318,4.91E-03,2.20E-02
29319,5.12E-03,2.23E-02
29320,6.22E-03,2.12E-02
29321,6.17E-03,2.10E-02
29322,6.20E-03,2.15E-02
29323,6.23E-03,2.13E-02
29324,6.10E-03,2.19E-02
29325,6.15E-03,2.17E-02
29326,6.10E-03,2.21E-02
29327,6.06E-03,2.20E-02
29328,6.09E-03,2.23E-02
29329,6.07E-03,2.34E-02
29330,5.71E-03,2.48E-02
29331,5.58E-03,2.48E-02
29332,5.89E-03,2.81E-02
29333,5.26E-03,4.67E-02
29334,5.29E-03,4.94E-02
29335,5.30E-03,4.91E-02
29336,5.52E-03,4.98E-02
29337,5.46E-03,4.96E-02
29338,5.78E-03,5.01E-02
29339,5.73E-03,5.00E-02
29340,6.22E-03,5.04E-02
29341,6.11E-03,5.03E-02
29342,6.37E-03,5.07E-02
29343,6.28E-03,5.06E-02
29344,6.49E-03,5.08E-02
29345,6.56E-03,5.19E-02
29346,6.63E-03,5.16E-02
29347,6.28E-03,5.26E-02
29348,6.46E-03,5.23E-02
29349,5.99E-03,5.31E-02
29350,6.08E-03,5.54E-02
29351,6.00E-03,5.50E-02
29352,5.98E-03,5.64E-02
29353,6.07E-03,5.59E-02
29354,5.81E-03,5.73E-02
29355,5.89E-03,5.68E-02
29356,5.71E-03,5.77E-02
29357,5.94E-03,6.05E-02
29358,5.88E-03,6.02E-02
29359,6.00E-03,6.12E-02
29360,5.96E-03,6.08E-02
29361,5.98E-03,6.15E-02
29362,6.30E-03,6.24E-02
29363,6.05E-03,6.21E-02
29364,7.28E-03,6.21E-02
29365,7.26E-03,6.22E-02
29366,6.65E-03,6.24E-02
29367,6.13E-03,6.31E-02
29368,5.93E-03,6.33E-02
29369,5.85E-03,6.35E-02
29370,5.80E-03,6.36E-02
29371,6.04E-03,6.34E-02
29372,6.03E-03,6.35E-02
29373,5.98E-03,6.33E-02
29374,6.15E-03,6.33E-02
29375,5.91E-03,6.31E-02
29376,5.53E-03,6.45E-02
29377,5.28E-03,2.21E-02
29378,5.86E-03,1.45E-02
29379,6.01E-03,1.58E-02
29380,5.31E-03,6.38E-02
29381,5.52E-03,1.40E-02
29382,5.79E-03,7.56E-03
29383,5.65E-03,7.43E-03
29384,5.80E-03,2.61E-02
29385,6.07E-03,1.55E-02
29386,6.45E-03,1.53E-02
29387,6.53E-03,1.54E-02
29388,4.53E-03,9.16E-03
29389,4.65E-03,7.12E-02
29390,6.75E-03,2.25E-02
29391,5.88E-03,2.36E-02
29392,5.12E-03,2.12E-02
29393,5.09E-03,2.08E-02
29394,4.44E-03,4.74E-03
29395,4.21E-03,4.67E-03
29396,6.99E-03,4.86E-03
29397,6.17E-03,4.75E-03
29398,5.60E-03,5.47E-03
29399,5.72E-03,5.30E-03
29400,5.62E-03,6.36E-03
29401,5.85E-03,7.69E-03
29402,6.59E-03,8.84E-03
29403,6.63E-03,8.65E-03
29404,6.69E-03,9.14E-03
29405,6.36E-03,1.03E-02
29406,5.68E-03,1.18E-02
29407,4.59E-03,4.49E-02
29408,4.82E-03,4.49E-02
29409,4.62E-03,4.40E-02
29410,6.85E-03,4.11E-02
29411,6.12E-03,4.17E-02
29412,6.82E-03,4.04E-02
29413,5.77E-03,3.75E-02
29414,7.00E-03,3.17E-02
29415,6.26E-03,3.25E-02
29416,6.95E-03,3.09E-02
29417,6.59E-03,2.51E-02
29418,6.64E-03,2.58E-02
29419,6.70E-03,2.34E-02
29420,6.68E-03,2.45E-02
29421,4.73E-03,2.23E-02
29422,5.67E-03,2.20E-02
29423,5.72E-03,1.90E-02
29424,5.41E-03,1.93E-02
29425,5.81E-03,1.80E-02
29426,5.70E-03,1.26E-02
29427,5.85E-03,1.15E-02
29428,5.97E-03,1.12E-02
29429,5.87E-03,9.24E-03
29430,6.32E-03,8.19E-03
29431,5.46E-03,8.41E-03
29432,4.98E-03,7.83E-03
29433,5.57E-03,6.55E-03
29434,5.16E-03,6.15E-03
29435,6.15E-03,5.67E-03
29436,5.48E-03,5.17E-03
29437,5.78E-03,5.04E-03
29438,6.87E-03,5.19E-03
29439,4.32E-03,4.64E-03
29440,4.94E-03,4.21E-03
29441,4.92E-03,4.23E-03
29442,5.77E-03,4.24E-03
29443,4.65E-03,1.31E-02
29444,4.83E-03,1.21E-02
29445,5.41E-03,4.69E-02
29446,5.47E-03,4.67E-02
29447,5.41E-03,1.10E-02
29448,5.35E-03,1.06E-02
29449,4.91E-03,2.68E-02
29450,4.78E-03,2.96E-02
29451,6.16E-03,5.20E-02
29452,5.98E-03,4.49E-02
29453,5.39E-03,1.14E-02
29454,5.43E-03,7.34E-03
29455,5.85E-03,2.67E-02
29456,5.85E-03,2.48E-02
29457,6.15E-03,2.17E-02
29458,5.78E-03,1.82E-02
29459,5.96E-03,1.51E-02
29460,5.85E-03,1.49E-02
29461,5.84E-03,1.50E-02
29462,5.54E-03,1.40E-02
29463,5.85E-03,1.39E-02
29464,5.14E-03,1.37E-02
29465,5.26E-03,1.35E-02
29466,4.62E-03,1.66E-02
29467,5.07E-03,2.78E-02
29468,4.93E-03,2.74E-02
29469,5.12E-03,2.40E-02
29470,5.86E-03,2.40E-02
29471,5.98E-03,2.38E-02
29472,5.84E-03,2.48E-02
29473,5.42E-03,2.61E-02
29474,5.79E-03,3.03E-02
29475,5.98E-03,2.97E-02
29476,5.49E-03,2.87E-02
29477,5.86E-03,4.84E-02
29478,5.36E-03,4.80E-02
29479,4.54E-03,4.89E-02
29480,5.65E-03,5.47E-02
29481,5.10E-03,5.62E-02
29482,5.56E-03,5.63E-02
29483,5.48E-03,5.99E-02
29484,5.80E-03,6.19E-02
29485,5.68E-03,6.38E-02
29486,6.16E-03,6.39E-02
29487,5.62E-03,6.61E-02
29488,6.19E-03,6.57E-02
29489,5.26E-03,6.70E-02
29490,4.82E-03,6.80E-02
29491,5.60E-03,2.11E-02
29492,5.87E-03,1.54E-02
29493,5.81E-03,1.53E-02
29494,5.89E-03,1.51E-02
29495,6.07E-03,1.69E-02
29496,7.21E-03,1.59E-02
29497,6.44E-03,1.63E-02
29498,5.25E-03,6.67E-02
29499,5.14E-03,6.64E-02
29500,5.31E-03,1.45E-02
29501,5.33E-03,1.45E-02
29502,5.36E-03,1.46E-02
29503,5.87E-03,2.67E-02
29504,5.75E-03,2.51E-02
29505,4.02E-03,3.74E-02
29506,5.47E-03,3.59E-02
29507,5.68E-03,2.67E-02
29508,5.16E-03,2.24E-02
29509,4.95E-03,2.11E-02
29510,5.03E-03,2.22E-02
29511,5.50E-03,1.21E-02
29512,6.78E-03,4.37E-03
29513,7.00E-03,4.63E-03
29514,5.71E-03,4.91E-03
29515,6.11E-03,4.89E-03
29516,5.44E-03,4.93E-03
29517,5.06E-03,4.90E-03
29518,4.83E-03,4.81E-03
29519,6.42E-03,5.15E-03
29520,5.83E-03,4.94E-03
29521,5.67E-03,5.74E-03
29522,5.25E-03,6.28E-03
29523,5.36E-03,6.41E-03
29524,6.60E-03,9.05E-03
29525,5.78E-03,1.16E-02
29526,5.61E-03,4.11E-03
29527,5.78E-03,4.11E-03
29528,5.88E-03,1.86E-02
29529,5.32E-03,1.18E-02
29530,5.37E-03,8.93E-03
29531,5.50E-03,9.14E-03
29532,6.54E-03,8.01E-03
29533,4.94E-03,6.18E-03
29534,4.84E-03,1.18E-02
29535,5.33E-03,4.54E-02
29536,5.40E-03,4.51E-02
29537,5.51E-03,1.05E-02
29538,5.32E-03,9.94E-03
29539,4.87E-03,2.49E-02
29540,4.59E-03,3.04E-02
29541,6.52E-03,5.66E-02
29542,5.85E-03,4.19E-02
29543,5.33E-03,1.52E-02
29544,5.61E-03,6.93E-03
29545,5.88E-03,2.82E-02
29546,5.05E-03,2.53E-02
29547,6.53E-03,2.33E-02
29548,5.82E-03,1.82E-02
29549,5.48E-03,1.87E-02
29550,5.93E-03,1.56E-02
29551,5.36E-03,1.45E-02
29552,6.54E-03,1.43E-02
29553,5.73E-03,1.38E-02
29554,3.57E-03,1.54E-02
29555,4.49E-03,1.55E-02
29556,4.86E-03,2.00E-02
29557,5.18E-03,1.32E-02
29558,6.03E-03,1.36E-02
29559,6.09E-03,2.47E-02
29560,5.32E-03,2.73E-02
29561,5.53E-03,2.94E-02
29562,4.82E-03,5.62E-02
29563,4.77E-03,6.24E-02
29564,5.21E-03,6.89E-02
29565,5.93E-03,6.93E-02
29566,4.30E-03,2.27E-02
29567,4.63E-03,2.34E-02
29568,5.15E-03,2.01E-02
29569,6.01E-03,1.56E-02
29570,6.07E-03,1.80E-02
29571,3.38E-03,6.97E-02
29572,4.69E-03,6.92E-02
29573,5.71E-03,4.05E-03
29574,5.98E-03,2.74E-02
29575,4.18E-03,3.85E-02
29576,5.89E-03,5.69E-03
29577,5.87E-03,5.77E-03
29578,5.48E-03,2.98E-02
29579,5.35E-03,4.96E-03
29580,5.13E-03,5.50E-03
29581,5.99E-03,5.43E-03
29582,5.92E-03,6.01E-03
29583,5.11E-03,4.43E-02
29584,6.18E-03,4.56E-02
29585,5.44E-03,4.52E-02
29586,5.85E-03,2.29E-02
29587,4.50E-03,6.39E-03
29588,3.72E-03,6.26E-03
29589,4.81E-03,1.15E-02
29590,5.17E-03,4.39E-02
29591,5.35E-03,4.35E-02
29592,5.57E-03,1.02E-02
29593,5.35E-03,9.52E-03
29594,4.81E-03,2.32E-02
29595,4.43E-03,3.10E-02
29596,5.94E-03,6.09E-02
29597,5.73E-03,3.88E-02
29598,5.19E-03,1.93E-02
29599,6.15E-03,7.05E-03
29600,4.20E-03,1.41E-02
29601,4.76E-03,1.46E-02
29602,5.28E-03,2.42E-02
29603,5.48E-03,2.43E-02
29604,5.40E-03,2.85E-02
29605,6.00E-03,2.97E-02
29606,5.88E-03,3.01E-02
29607,5.19E-03,6.40E-02
29608,4.46E-03,6.35E-02
29609,4.95E-03,6.87E-02
29610,4.90E-03,7.14E-02
29611,3.49E-03,7.01E-02
29612,5.31E-03,6.68E-02
29613,3.64E-03,7.01E-02
29614,5.77E-03,7.27E-02
29615,4.96E-03,1.91E-02
29616,5.33E-03,3.71E-02
29617,4.64E-03,5.12E-03
29618,5.23E-03,3.40E-02
29619,5.25E-03,3.30E-02
29620,4.78E-03,1.13E-02
29621,4.99E-03,4.25E-02
29622,5.35E-03,4.21E-02
29623,5.59E-03,9.83E-03
29624,5.38E-03,9.39E-03
29625,4.78E-03,2.15E-02
29626,4.22E-03,3.17E-02
29627,7.20E-03,7.11E-02
29628,5.39E-03,6.55E-02
29629,5.48E-03,3.55E-02
29630,5.63E-03,2.96E-02
29631,4.61E-03,1.82E-02
29632,5.07E-03,1.60E-02
29633,3.65E-03,1.65E-02
29634,5.34E-03,3.82E-02
29635,4.60E-03,3.97E-02
29636,4.76E-03,1.10E-02
29637,4.78E-03,4.10E-02
29638,5.32E-03,4.07E-02
29639,5.56E-03,9.59E-03
29640,5.40E-03,9.56E-03
29641,4.70E-03,2.00E-02
29642,3.79E-03,3.25E-02
29643,4.63E-03,3.22E-02
29644,5.23E-03,3.49E-02
29645,5.15E-03,3.35E-02
29646,5.32E-03,3.22E-02
29647,6.07E-03,3.06E-02
29648,4.32E-03,1.74E-02
29649,6.07E-03,3.09E-02
29650,6.11E-03,2.91E-02
29651,4.72E-03,1.08E-02
29652,5.34E-03,3.94E-02
29653,5.43E-03,9.43E-03
29654,5.37E-03,1.01E-02
29655,4.68E-03,1.85E-02
29656,3.65E-03,3.33E-02
29657,5.09E-03,2.96E-02
29658,5.38E-03,2.94E-02
29659,4.16E-03,1.67E-02
29660,4.70E-03,1.05E-02
29661,5.36E-03,9.37E-03
29662,5.31E-03,1.08E-02
29663,4.77E-03,1.71E-02
29664,3.53E-03,3.40E-02
29665,6.00E-03,3.18E-02
29666,4.10E-03,1.61E-02
29667,5.47E-03,7.45E-03
29668,5.48E-03,7.33E-03
29669,5.52E-03,7.06E-03
29670,4.64E-03,1.03E-02
29671,5.24E-03,9.40E-03
29672,5.17E-03,1.18E-02
29673,4.86E-03,1.56E-02
29674,3.47E-03,3.46E-02
29675,5.87E-03,3.27E-02
29676,4.27E-03,1.51E-02
29677,5.73E-03,1.14E-02
29678,5.75E-03,1.11E-02
29679,5.84E-03,1.09E-02
29680,4.70E-03,1.01E-02
29681,5.09E-03,9.51E-03
29682,5.09E-03,1.30E-02
29683,4.94E-03,1.43E-02
29684,3.58E-03,3.52E-02
29685,5.50E-03,2.48E-02
29686,5.71E-03,3.37E-02
29687,4.54E-03,1.43E-02
29688,4.82E-03,9.87E-03
29689,4.94E-03,9.67E-03
29690,6.11E-03,2.30E-02
29691,5.00E-03,2.20E-02
29692,5.28E-03,2.28E-02
29693,5.20E-03,2.18E-02
29694,4.11E-03,4.74E-03
29695,6.43E-03,4.80E-03
29696,5.43E-03,5.38E-03
29697,5.43E-03,6.64E-03
29698,5.57E-03,6.50E-03
29699,5.44E-03,6.77E-03
29700,6.10E-03,7.97E-03
29701,5.95E-03,7.82E-03
29702,6.48E-03,8.31E-03
29703,6.40E-03,8.13E-03
29704,6.67E-03,8.46E-03
29705,6.77E-03,9.58E-03
29706,6.77E-03,9.36E-03
29707,7.97E-03,1.01E-02
29708,7.70E-03,9.84E-03
29709,6.03E-03,1.06E-02
29710,5.45E-03,1.24E-02
29711,5.61E-03,1.21E-02
29712,4.06E-03,1.28E-02
29713,5.23E-03,1.26E-02
29714,5.82E-03,4.29E-02
29715,4.99E-03,4.34E-02
29716,6.27E-03,4.24E-02
29717,5.93E-03,3.88E-02
29718,6.02E-03,3.95E-02
29719,5.28E-03,3.66E-02
29720,5.72E-03,3.71E-02
29721,5.92E-03,3.81E-02
29722,5.84E-03,3.53E-02
29723,5.61E-03,3.60E-02
29724,6.10E-03,3.39E-02
29725,5.91E-03,3.46E-02
29726,6.08E-03,3.32E-02
29727,6.38E-03,2.95E-02
29728,6.69E-03,3.02E-02
29729,6.18E-03,2.83E-02
29730,6.24E-03,2.89E-02
29731,6.36E-03,2.70E-02
29732,6.13E-03,2.76E-02
29733,6.61E-03,2.64E-02
29734,6.91E-03,2.39E-02
29735,5.70E-03,2.11E-02
29736,5.77E-03,2.15E-02
29737,5.57E-03,2.02E-02
29738,5.68E-03,2.06E-02
29739,5.60E-03,1.97E-02
29740,5.92E-03,1.71E-02
29741,5.78E-03,1.76E-02
29742,6.26E-03,1.63E-02
29743,6.10E-03,1.67E-02
29744,6.39E-03,1.55E-02
29745,6.36E-03,1.59E-02
29746,6.44E-03,1.47E-02
29747,6.42E-03,1.51E-02
29748,6.18E-03,1.39E-02
29749,6.38E-03,1.43E-02
29750,5.99E-03,1.32E-02
29751,6.06E-03,1.36E-02
29752,5.85E-03,1.29E-02
29753,5.73E-03,1.06E-02
29754,5.63E-03,1.09E-02
29755,6.04E-03,1.01E-02
29756,5.91E-03,1.04E-02
29757,6.18E-03,9.67E-03
29758,6.22E-03,9.91E-03
29759,6.18E-03,9.45E-03
29760,5.23E-03,8.74E-03
29761,5.25E-03,8.57E-03
29762,5.66E-03,7.58E-03
29763,5.45E-03,7.70E-03
29764,5.96E-03,7.31E-03
29765,5.78E-03,7.45E-03
29766,6.16E-03,7.02E-03
29767,6.01E-03,7.17E-03
29768,6.19E-03,6.75E-03
29769,6.31E-03,6.88E-03
29770,6.14E-03,6.66E-03
29771,4.74E-03,5.96E-03
29772,5.21E-03,6.05E-03
29773,6.17E-03,5.51E-03
29774,6.16E-03,5.59E-03
29775,5.99E-03,5.35E-03
29776,6.13E-03,5.43E-03
29777,5.71E-03,5.27E-03
29778,5.96E-03,5.11E-03
29779,5.48E-03,4.70E-03
29780,5.67E-03,4.83E-03
29781,5.58E-03,4.76E-03
29782,3.64E-03,4.58E-03
29783,4.91E-03,4.64E-03
29784,5.82E-03,4.53E-03
29785,5.92E-03,4.60E-03
29786,5.70E-03,4.42E-03
29787,5.75E-03,4.47E-03
29788,6.15E-03,4.35E-03
29789,5.82E-03,4.37E-03
29790,5.88E-03,4.29E-03
29791,6.05E-03,4.32E-03
29792,5.57E-03,4.27E-03
29793,6.72E-03,4.18E-03
29794,6.06E-03,4.20E-03
29795,5.68E-03,4.10E-03
29796,6.71E-03,4.16E-03
29797,5.46E-03,4.10E-03
29798,4.80E-03,1.26E-02
29799,5.51E-03,4.68E-02
29800,5.37E-03,1.08E-02
29801,4.85E-03,2.82E-02
29802,6.08E-03,4.84E-02
29803,5.46E-03,9.13E-03
29804,5.95E-03,2.57E-02
29805,5.98E-03,2.62E-02
29806,5.98E-03,2.53E-02
29807,5.96E-03,2.07E-02
29808,6.13E-03,2.12E-02
29809,5.41E-03,1.97E-02
29810,5.69E-03,2.02E-02
29811,5.26E-03,1.91E-02
29812,5.68E-03,1.50E-02
29813,5.95E-03,1.47E-02
29814,5.84E-03,1.48E-02
29815,5.68E-03,1.47E-02
29816,5.66E-03,1.40E-02
29817,5.25E-03,1.36E-02
29818,4.39E-03,1.58E-02
29819,5.98E-03,2.26E-02
29820,5.80E-03,2.26E-02
29821,5.01E-03,2.80E-02
29822,5.05E-03,2.79E-02
29823,4.95E-03,2.77E-02
29824,4.95E-03,2.79E-02
29825,4.84E-03,2.77E-02
29826,4.93E-03,2.39E-02
29827,4.91E-03,2.40E-02
29828,5.00E-03,2.41E-02
29829,6.23E-03,2.28E-02
29830,6.22E-03,2.27E-02
29831,6.24E-03,2.31E-02
29832,6.27E-03,2.29E-02
29833,6.12E-03,2.33E-02
29834,6.14E-03,2.32E-02
29835,6.00E-03,2.35E-02
29836,6.03E-03,2.34E-02
29837,5.98E-03,2.36E-02
29838,5.99E-03,2.48E-02
29839,5.65E-03,2.61E-02
29840,5.50E-03,2.61E-02
29841,5.61E-03,2.91E-02
29842,5.65E-03,4.69E-02
29843,6.32E-03,4.61E-02
29844,5.44E-03,4.75E-02
29845,4.91E-03,4.99E-02
29846,3.99E-03,4.98E-02
29847,5.29E-03,5.04E-02
29848,5.19E-03,5.01E-02
29849,5.48E-03,5.09E-02
29850,5.41E-03,5.07E-02
29851,5.79E-03,5.13E-02
29852,5.82E-03,5.11E-02
29853,6.19E-03,5.16E-02
29854,6.12E-03,5.14E-02
29855,6.42E-03,5.19E-02
29856,6.28E-03,5.17E-02
29857,6.55E-03,5.22E-02
29858,6.57E-03,5.20E-02
29859,6.60E-03,5.26E-02
29860,6.61E-03,5.33E-02
29861,6.60E-03,5.29E-02
29862,6.31E-03,5.41E-02
29863,6.48E-03,5.36E-02
29864,5.87E-03,5.44E-02
29865,5.92E-03,5.71E-02
29866,5.80E-03,5.66E-02
29867,5.91E-03,5.81E-02
29868,5.95E-03,5.76E-02
29869,5.83E-03,5.91E-02
29870,5.92E-03,5.86E-02
29871,5.69E-03,5.95E-02
29872,5.82E-03,6.25E-02
29873,5.81E-03,6.22E-02
29874,5.84E-03,6.32E-02
29875,5.81E-03,6.28E-02
29876,5.76E-03,6.35E-02
29877,6.26E-03,6.47E-02
29878,6.30E-03,6.43E-02
29879,6.74E-03,6.50E-02
29880,6.50E-03,6.50E-02
29881,6.38E-03,6.52E-02
29882,6.53E-03,6.50E-02
29883,6.08E-03,6.57E-02
29884,6.19E-03,6.55E-02
29885,5.85E-03,6.59E-02
29886,5.93E-03,6.69E-02
29887,5.76E-03,6.68E-02
29888,6.06E-03,6.67E-02
29889,6.08E-03,6.68E-02
29890,6.09E-03,6.66E-02
29891,6.08E-03,6.67E-02
29892,6.09E-03,6.62E-02
29893,5.27E-03,6.71E-02
29894,5.28E-03,6.74E-02
29895,6.00E-03,2.19E-02
29896,5.90E-03,1.52E-02
29897,6.16E-03,1.66E-02
29898,5.18E-03,6.66E-02
29899,5.47E-03,1.46E-02
29900,5.70E-03,7.70E-03
29901,5.57E-03,7.58E-03
29902,5.85E-03,2.59E-02
29903,5.88E-03,1.62E-02
29904,6.04E-03,1.62E-02
29905,4.65E-03,2.93E-02
29906,4.32E-03,4.00E-03
29907,5.73E-03,5.44E-03
29908,5.53E-03,3.82E-03
29909,3.94E-03,3.60E-02
29910,5.57E-03,3.48E-02
29911,5.99E-03,2.53E-02
29912,5.80E-03,2.61E-02
29913,5.28E-03,2.36E-02
29914,5.39E-03,2.47E-02
29915,5.16E-03,2.33E-02
29916,5.68E-03,1.13E-02
29917,6.20E-03,4.38E-03
29918,7.19E-03,4.65E-03
29919,6.41E-03,4.88E-03
29920,5.12E-03,4.90E-03
29921,4.72E-03,4.85E-03
29922,6.41E-03,5.09E-03
29923,6.18E-03,4.98E-03
29924,5.62E-03,5.65E-03
29925,5.61E-03,5.50E-03
29926,5.68E-03,6.52E-03
29927,5.82E-03,7.83E-03
29928,6.41E-03,8.96E-03
29929,6.37E-03,8.77E-03
29930,6.60E-03,9.26E-03
29931,6.24E-03,1.04E-02
29932,5.75E-03,1.19E-02
29933,5.83E-03,4.14E-03
29934,5.77E-03,4.35E-02
29935,6.45E-03,4.05E-02
29936,6.32E-03,4.12E-02
29937,6.39E-03,3.99E-02
29938,7.33E-03,3.15E-02
29939,6.60E-03,3.23E-02
29940,7.36E-03,3.08E-02
29941,6.48E-03,2.95E-02
29942,5.02E-03,1.95E-02
29943,5.94E-03,1.82E-02
29944,5.47E-03,1.22E-02
29945,5.27E-03,1.16E-02
29946,5.33E-03,1.14E-02
29947,5.85E-03,9.37E-03
29948,5.38E-03,8.35E-03
29949,5.38E-03,8.51E-03
29950,5.11E-03,9.01E-03
29951,5.01E-03,8.82E-03
29952,5.58E-03,7.88E-03
29953,5.53E-03,6.52E-03
29954,5.12E-03,6.10E-03
29955,6.15E-03,5.60E-03
29956,5.79E-03,4.90E-03
29957,5.05E-03,4.03E-03
29958,5.99E-03,4.03E-03
29959,4.55E-03,1.35E-02
29960,4.83E-03,1.24E-02
29961,5.36E-03,4.53E-02
29962,5.46E-03,4.51E-02
29963,5.46E-03,1.04E-02
29964,5.35E-03,1.01E-02
29965,4.92E-03,2.63E-02
29966,4.73E-03,2.90E-02
29967,6.22E-03,5.27E-02
29968,5.99E-03,4.53E-02
29969,5.43E-03,1.26E-02
29970,5.52E-03,8.21E-03
29971,5.96E-03,2.77E-02
29972,6.02E-03,2.57E-02
29973,6.32E-03,2.28E-02
29974,5.70E-03,2.05E-02
29975,5.57E-03,1.92E-02
29976,6.14E-03,1.59E-02
29977,5.95E-03,1.57E-02
29978,5.22E-03,1.56E-02
29979,5.51E-03,1.45E-02
29980,5.89E-03,1.44E-02
29981,4.95E-03,1.41E-02
29982,5.48E-03,1.39E-02
29983,6.42E-03,1.53E-02
29984,4.21E-03,1.72E-02
29985,4.77E-03,1.90E-02
29986,4.90E-03,1.31E-02
29987,5.63E-03,1.36E-02
29988,5.00E-03,3.02E-02
29989,4.94E-03,2.96E-02
29990,5.61E-03,2.67E-02
29991,5.86E-03,2.54E-02
29992,5.69E-03,2.51E-02
29993,5.69E-03,2.61E-02
29994,5.40E-03,2.73E-02
29995,5.34E-03,2.98E-02
29996,5.30E-03,4.93E-02
29997,5.42E-03,4.89E-02
29998,4.66E-03,4.97E-02
29999,5.58E-03,5.60E-02
30000,4.98E-03,5.75E-02
30001,5.41E-03,5.79E-02
30002,5.37E-03,6.19E-02
30003,5.59E-03,6.41E-02
30004,5.51E-03,6.59E-02
30005,6.24E-03,6.62E-02
30006,5.58E-03,6.88E-02
30007,6.09E-03,6.94E-02
30008,4.78E-03,7.08E-02
30009,5.19E-03,6.99E-02
30010,5.13E-03,7.01E-02
30011,5.55E-03,2.40E-02
30012,4.82E-03,2.29E-02
30013,5.47E-03,2.08E-02
30014,5.91E-03,1.58E-02
30015,6.07E-03,1.78E-02
30016,6.57E-03,1.70E-02
30017,6.30E-03,1.72E-02
30018,5.19E-03,6.97E-02
30019,5.06E-03,6.94E-02
30020,5.20E-03,1.51E-02
30021,5.20E-03,1.52E-02
30022,6.00E-03,2.65E-02
30023,5.71E-03,2.47E-02
30024,4.08E-03,3.71E-02
30025,5.85E-03,1.52E-02
30026,4.16E-03,5.81E-03
30027,4.43E-03,5.93E-03
30028,4.86E-03,3.64E-02
30029,3.80E-03,3.68E-02
30030,3.77E-03,5.53E-03
30031,4.77E-03,1.55E-02
30032,5.67E-03,2.91E-02
30033,5.51E-03,9.58E-03
30034,5.16E-03,9.08E-03
30035,5.93E-03,1.46E-02
30036,5.14E-03,5.00E-03
30037,6.04E-03,5.37E-03
30038,5.88E-03,5.92E-03
30039,5.19E-03,6.56E-03
30040,6.41E-03,9.16E-03
30041,5.89E-03,4.55E-02
30042,5.02E-03,4.46E-02
30043,5.72E-03,1.16E-02
30044,4.38E-03,4.38E-02
30045,6.70E-03,2.46E-02
30046,6.58E-03,2.52E-02
30047,7.67E-03,2.34E-02
30048,5.72E-03,2.26E-02
30049,5.48E-03,1.20E-02
30050,5.38E-03,9.29E-03
30051,5.34E-03,8.15E-03
30052,5.07E-03,6.18E-03
30053,3.20E-03,5.80E-03
30054,4.30E-03,5.70E-03
30055,4.62E-03,3.84E-03
30056,4.87E-03,1.21E-02
30057,5.28E-03,4.38E-02
30058,5.46E-03,4.36E-02
30059,5.51E-03,1.01E-02
30060,5.37E-03,9.64E-03
30061,4.89E-03,2.45E-02
30062,4.53E-03,2.98E-02
30063,6.05E-03,5.71E-02
30064,5.82E-03,4.22E-02
30065,5.33E-03,1.66E-02
30066,5.70E-03,7.58E-03
30067,6.13E-03,2.92E-02
30068,6.24E-03,1.92E-02
30069,5.41E-03,1.96E-02
30070,6.44E-03,1.68E-02
30071,5.86E-03,1.62E-02
30072,5.27E-03,1.51E-02
30073,4.14E-03,1.46E-02
30074,7.00E-03,1.39E-02
30075,5.96E-03,1.41E-02
30076,5.13E-03,2.48E-02
30077,4.97E-03,2.36E-02
30078,7.08E-03,1.39E-02
30079,5.01E-03,2.60E-02
30080,5.39E-03,2.63E-02
30081,5.36E-03,2.62E-02
30082,5.57E-03,2.74E-02
30083,5.45E-03,2.85E-02
30084,5.59E-03,3.05E-02
30085,5.51E-03,5.76E-02
30086,3.58E-03,6.35E-02
30087,5.08E-03,6.83E-02
30088,5.26E-03,7.15E-02
30089,4.00E-03,7.18E-02
30090,5.25E-03,7.02E-02
30091,5.21E-03,7.24E-02
30092,5.92E-03,7.29E-02
30093,6.31E-03,7.52E-02
30094,5.22E-03,1.97E-02
30095,5.86E-03,1.65E-02
30096,6.19E-03,1.91E-02
30097,4.98E-03,7.25E-02
30098,6.40E-03,1.48E-02
30099,5.86E-03,1.49E-02
30100,4.81E-03,7.40E-02
30101,4.66E-03,7.46E-02
30102,5.42E-03,3.59E-02
30103,5.84E-03,5.17E-03
30104,5.33E-03,3.22E-02
30105,5.60E-03,5.12E-03
30106,5.85E-03,5.10E-03
30107,5.44E-03,5.15E-03
30108,5.94E-03,6.19E-03
30109,4.78E-03,1.18E-02
30110,5.12E-03,4.24E-02
30111,5.42E-03,4.21E-02
30112,5.61E-03,9.79E-03
30113,5.38E-03,9.44E-03
30114,4.82E-03,2.28E-02
30115,4.34E-03,3.04E-02
30116,5.78E-03,6.17E-02
30117,5.64E-03,3.91E-02
30118,5.33E-03,2.09E-02
30119,6.37E-03,7.36E-03
30120,5.59E-03,2.98E-02
30121,6.87E-03,3.08E-02
30122,6.43E-03,3.12E-02
30123,5.86E-03,7.60E-02
30124,4.94E-03,1.88E-02
30125,3.46E-03,1.70E-02
30126,5.38E-03,3.70E-02
30127,4.53E-03,3.82E-02
30128,5.27E-03,3.64E-02
30129,5.03E-03,3.54E-02
30130,5.67E-03,5.65E-03
30131,5.28E-03,5.70E-03
30132,4.80E-03,1.15E-02
30133,4.94E-03,4.09E-02
30134,5.42E-03,4.07E-02
30135,5.60E-03,9.59E-03
30136,5.44E-03,9.55E-03
30137,4.77E-03,2.12E-02
30138,4.07E-03,3.11E-02
30139,7.10E-03,7.07E-02
30140,6.87E-03,6.62E-02
30141,5.15E-03,3.58E-02
30142,5.58E-03,8.06E-03
30143,5.28E-03,3.72E-02
30144,5.13E-03,3.57E-02
30145,5.07E-03,3.44E-02
30146,6.06E-03,3.08E-02
30147,4.61E-03,1.79E-02
30148,6.12E-03,2.99E-02
30149,6.10E-03,2.81E-02
30150,4.77E-03,1.13E-02
30151,4.71E-03,3.95E-02
30152,5.38E-03,3.94E-02
30153,5.53E-03,9.47E-03
30154,5.45E-03,9.97E-03
30155,4.75E-03,1.96E-02
30156,3.88E-03,3.19E-02
30157,4.03E-03,3.34E-02
30158,5.36E-03,8.96E-03
30159,4.85E-03,3.18E-02
30160,5.42E-03,3.06E-02
30161,6.07E-03,3.15E-02
30162,4.45E-03,1.71E-02
30163,5.38E-03,3.82E-02
30164,4.73E-03,1.10E-02
30165,5.41E-03,9.45E-03
30166,5.39E-03,1.07E-02
30167,4.75E-03,1.82E-02
30168,3.67E-03,3.26E-02
30169,6.09E-03,3.07E-02
30170,4.11E-03,1.63E-02
30171,5.59E-03,7.60E-03
30172,5.05E-03,7.46E-03
30173,5.55E-03,7.21E-03
30174,3.82E-03,3.64E-02
30175,5.73E-03,4.68E-03
30176,4.69E-03,1.08E-02
30177,5.33E-03,9.51E-03
30178,5.25E-03,1.16E-02
30179,4.86E-03,1.67E-02
30180,3.60E-03,3.34E-02
30181,6.00E-03,3.16E-02
30182,4.25E-03,1.55E-02
30183,5.72E-03,1.14E-02
30184,5.73E-03,1.12E-02
30185,5.87E-03,1.09E-02
30186,4.67E-03,1.06E-02
30187,5.18E-03,9.65E-03
30188,5.17E-03,1.27E-02
30189,4.91E-03,1.53E-02
30190,3.60E-03,3.40E-02
30191,5.73E-03,2.65E-02
30192,5.76E-03,3.26E-02
30193,4.53E-03,1.46E-02
30194,4.76E-03,1.03E-02
30195,5.02E-03,9.85E-03
30196,5.06E-03,1.40E-02
30197,3.90E-03,3.47E-02
30198,5.66E-03,3.36E-02
30199,4.85E-03,1.01E-02
30200,5.95E-03,2.56E-02
30201,5.35E-03,2.42E-02
30202,5.42E-03,2.53E-02
30203,5.29E-03,2.44E-02
30204,5.31E-03,1.00E-02
30205,5.55E-03,4.64E-03
30206,4.97E-03,4.76E-03
30207,5.93E-03,4.92E-03
30208,6.53E-03,4.89E-03
30209,4.84E-03,4.91E-03
30210,6.35E-03,5.02E-03
30211,5.46E-03,5.57E-03
30212,5.54E-03,6.80E-03
30213,5.58E-03,6.66E-03
30214,5.51E-03,6.93E-03
30215,6.03E-03,8.11E-03
30216,5.91E-03,7.96E-03
30217,6.31E-03,8.43E-03
30218,6.21E-03,8.26E-03
30219,6.36E-03,8.60E-03
30220,6.76E-03,9.69E-03
30221,6.64E-03,9.46E-03
30222,6.91E-03,1.02E-02
30223,6.91E-03,9.95E-03
30224,5.98E-03,1.06E-02
30225,5.50E-03,1.24E-02
30226,5.67E-03,1.21E-02
30227,5.05E-03,1.29E-02
30228,5.53E-03,1.26E-02
30229,5.69E-03,4.16E-03
30230,5.63E-03,3.91E-03
30231,5.52E-03,3.93E-03
30232,5.74E-03,4.23E-02
30233,5.47E-03,4.28E-02
30234,6.10E-03,4.18E-02
30235,6.08E-03,3.84E-02
30236,6.17E-03,3.92E-02
30237,5.70E-03,3.50E-02
30238,5.63E-03,3.57E-02
30239,6.13E-03,3.37E-02
30240,5.93E-03,3.44E-02
30241,6.31E-03,3.30E-02
30242,6.23E-03,2.82E-02
30243,6.28E-03,2.88E-02
30244,6.17E-03,2.70E-02
30245,6.13E-03,2.76E-02
30246,6.46E-03,2.58E-02
30247,6.37E-03,2.64E-02
30248,6.87E-03,2.40E-02
30249,5.80E-03,2.12E-02
30250,5.91E-03,2.17E-02
30251,5.48E-03,2.03E-02
30252,5.70E-03,2.08E-02
30253,5.31E-03,1.99E-02
30254,5.93E-03,1.74E-02
30255,5.90E-03,1.78E-02
30256,6.22E-03,1.65E-02
30257,6.08E-03,1.69E-02
30258,6.29E-03,1.57E-02
30259,6.30E-03,1.61E-02
30260,6.38E-03,1.49E-02
30261,6.36E-03,1.53E-02
30262,6.18E-03,1.41E-02
30263,6.36E-03,1.45E-02
30264,6.02E-03,1.35E-02
30265,6.07E-03,1.38E-02
30266,5.81E-03,1.28E-02
30267,5.91E-03,1.31E-02
30268,5.76E-03,1.08E-02
30269,5.60E-03,1.11E-02
30270,6.06E-03,1.03E-02
30271,5.94E-03,1.06E-02
30272,6.23E-03,9.82E-03
30273,6.20E-03,1.01E-02
30274,6.12E-03,9.58E-03
30275,5.25E-03,8.67E-03
30276,5.79E-03,7.62E-03
30277,5.71E-03,7.75E-03
30278,5.94E-03,7.33E-03
30279,5.87E-03,7.48E-03
30280,5.97E-03,7.04E-03
30281,5.96E-03,7.19E-03
30282,6.52E-03,6.73E-03
30283,6.06E-03,6.87E-03
30284,6.73E-03,6.63E-03
30285,5.00E-03,6.00E-03
30286,6.10E-03,5.40E-03
30287,6.13E-03,5.50E-03
30288,5.81E-03,5.22E-03
30289,6.01E-03,5.31E-03
30290,5.60E-03,5.13E-03
30291,5.79E-03,4.98E-03
30292,5.58E-03,4.55E-03
30293,5.64E-03,4.62E-03
30294,6.37E-03,4.45E-03
30295,5.38E-03,4.51E-03
30296,5.95E-03,4.36E-03
30297,6.43E-03,4.43E-03
30298,5.78E-03,4.24E-03
30299,5.85E-03,4.30E-03
30300,5.84E-03,4.16E-03
30301,5.81E-03,4.19E-03
30302,5.72E-03,4.09E-03
30303,5.88E-03,4.13E-03
30304,5.37E-03,4.06E-03
30305,6.34E-03,3.95E-03
30306,6.42E-03,4.00E-03
30307,5.96E-03,3.91E-03
30308,6.28E-03,3.92E-03
30309,5.74E-03,3.88E-03
30310,5.78E-03,3.89E-03
30311,5.72E-03,3.89E-03
30312,4.75E-03,1.29E-02
30313,5.45E-03,4.52E-02
30314,5.37E-03,1.03E-02
30315,4.83E-03,2.76E-02
30316,6.07E-03,4.89E-02
30317,5.50E-03,1.02E-02
30318,6.03E-03,2.67E-02
30319,6.02E-03,2.72E-02
30320,6.12E-03,2.62E-02
30321,5.98E-03,2.17E-02
30322,6.19E-03,2.22E-02
30323,5.77E-03,2.11E-02
30324,5.72E-03,1.98E-02
30325,6.04E-03,1.58E-02
30326,5.82E-03,1.54E-02
30327,5.56E-03,1.55E-02
30328,3.93E-03,1.59E-02
30329,6.48E-03,1.54E-02
30330,5.68E-03,1.44E-02
30331,5.21E-03,1.40E-02
30332,4.62E-03,1.82E-02
30333,6.84E-03,1.34E-02
30334,5.74E-03,1.35E-02
30335,6.08E-03,2.44E-02
30336,5.85E-03,2.44E-02
30337,5.05E-03,3.04E-02
30338,5.02E-03,3.04E-02
30339,4.87E-03,3.00E-02
30340,4.98E-03,3.02E-02
30341,4.83E-03,2.98E-02
30342,5.56E-03,2.64E-02
30343,4.86E-03,2.57E-02
30344,4.84E-03,2.59E-02
30345,4.84E-03,2.57E-02
30346,6.29E-03,2.45E-02
30347,6.27E-03,2.45E-02
30348,6.20E-03,2.46E-02
30349,6.30E-03,2.46E-02
30350,6.08E-03,2.48E-02
30351,6.08E-03,2.47E-02
30352,5.92E-03,2.49E-02
30353,6.04E-03,2.48E-02
30354,5.89E-03,2.50E-02
30355,5.60E-03,2.62E-02
30356,5.45E-03,2.73E-02
30357,5.19E-03,3.00E-02
30358,5.71E-03,4.67E-02
30359,5.72E-03,4.61E-02
30360,5.56E-03,4.78E-02
30361,5.69E-03,4.72E-02
30362,5.47E-03,4.84E-02
30363,4.95E-03,5.10E-02
30364,4.90E-03,5.05E-02
30365,5.27E-03,5.16E-02
30366,5.13E-03,5.13E-02
30367,5.57E-03,5.21E-02
30368,5.39E-03,5.18E-02
30369,5.88E-03,5.25E-02
30370,5.76E-03,5.23E-02
30371,6.22E-03,5.28E-02
30372,6.08E-03,5.26E-02
30373,6.41E-03,5.31E-02
30374,6.29E-03,5.29E-02
30375,6.63E-03,5.34E-02
30376,6.52E-03,5.32E-02
30377,6.68E-03,5.39E-02
30378,6.70E-03,5.36E-02
30379,6.55E-03,5.46E-02
30380,6.63E-03,5.42E-02
30381,6.34E-03,5.55E-02
30382,6.46E-03,5.50E-02
30383,6.28E-03,5.59E-02
30384,5.87E-03,5.88E-02
30385,5.70E-03,5.83E-02
30386,5.89E-03,5.98E-02
30387,5.92E-03,5.93E-02
30388,5.90E-03,6.10E-02
30389,5.89E-03,6.04E-02
30390,5.85E-03,6.15E-02
30391,5.70E-03,6.46E-02
30392,5.67E-03,6.43E-02
30393,5.72E-03,6.52E-02
30394,5.74E-03,6.49E-02
30395,5.61E-03,6.55E-02
30396,6.46E-03,6.71E-02
30397,6.39E-03,6.66E-02
30398,6.30E-03,6.76E-02
30399,6.33E-03,6.74E-02
30400,6.25E-03,6.79E-02
30401,6.35E-03,6.77E-02
30402,6.04E-03,6.84E-02
30403,6.14E-03,6.81E-02
30404,5.78E-03,6.86E-02
30405,5.96E-03,7.03E-02
30406,6.09E-03,7.05E-02
30407,6.07E-03,7.01E-02
30408,6.06E-03,7.02E-02
30409,6.15E-03,6.99E-02
30410,6.16E-03,7.00E-02
30411,6.14E-03,6.96E-02
30412,5.00E-03,7.04E-02
30413,5.10E-03,2.35E-02
30414,6.89E-03,2.24E-02
30415,6.87E-03,2.16E-02
30416,5.87E-03,1.60E-02
30417,6.14E-03,1.75E-02
30418,5.81E-03,4.41E-03
30419,5.18E-03,6.96E-02
30420,5.18E-03,1.52E-02
30421,5.54E-03,7.84E-03
30422,5.52E-03,7.72E-03
30423,4.53E-03,5.68E-03
30424,3.47E-03,5.63E-03
30425,4.25E-03,7.13E-02
30426,5.93E-03,2.56E-02
30427,4.00E-03,3.57E-02
30428,6.53E-03,6.79E-02
30429,5.67E-03,6.99E-02
30430,4.80E-03,2.85E-02
30431,5.57E-03,1.72E-02
30432,5.77E-03,2.78E-02
30433,5.75E-03,2.86E-02
30434,5.53E-03,2.60E-02
30435,5.66E-03,2.71E-02
30436,5.25E-03,2.59E-02
30437,5.87E-03,1.17E-02
30438,5.89E-03,1.37E-02
30439,5.31E-03,5.04E-03
30440,6.13E-03,5.31E-03
30441,6.04E-03,5.20E-03
30442,5.56E-03,5.84E-03
30443,5.10E-03,5.70E-03
30444,6.01E-03,6.67E-03
30445,5.73E-03,7.96E-03
30446,6.25E-03,9.07E-03
30447,6.23E-03,8.89E-03
30448,6.47E-03,9.36E-03
30449,6.24E-03,1.04E-02
30450,5.75E-03,1.19E-02
30451,5.07E-03,3.73E-03
30452,5.30E-03,4.29E-02
30453,6.33E-03,4.00E-02
30454,6.18E-03,4.06E-02
30455,6.26E-03,3.94E-02
30456,5.18E-03,3.59E-02
30457,6.88E-03,3.14E-02
30458,6.66E-03,3.21E-02
30459,6.89E-03,3.07E-02
30460,6.45E-03,2.52E-02
30461,6.60E-03,2.46E-02
30462,5.97E-03,1.84E-02
30463,5.78E-03,1.23E-02
30464,6.00E-03,9.47E-03
30465,5.94E-03,7.98E-03
30466,4.34E-03,6.28E-03
30467,6.15E-03,6.45E-03
30468,5.41E-03,5.88E-03
30469,5.22E-03,6.05E-03
30470,6.13E-03,5.65E-03
30471,6.18E-03,5.54E-03
30472,5.05E-03,3.85E-03
30473,6.39E-03,3.80E-03
30474,5.21E-03,3.69E-03
30475,5.54E-03,3.69E-03
30476,4.58E-03,1.38E-02
30477,4.83E-03,1.27E-02
30478,5.38E-03,4.38E-02
30479,5.43E-03,4.37E-02
30480,5.48E-03,9.96E-03
30481,5.36E-03,9.75E-03
30482,4.90E-03,2.58E-02
30483,4.70E-03,2.85E-02
30484,6.10E-03,5.32E-02
30485,5.93E-03,4.58E-02
30486,5.45E-03,1.39E-02
30487,5.63E-03,9.17E-03
30488,6.07E-03,2.87E-02
30489,6.47E-03,2.67E-02
30490,5.55E-03,2.02E-02
30491,6.29E-03,1.67E-02
30492,5.92E-03,1.64E-02
30493,5.98E-03,1.65E-02
30494,4.66E-03,1.63E-02
30495,5.43E-03,1.50E-02
30496,5.78E-03,1.49E-02
30497,5.02E-03,1.45E-02
30498,5.64E-03,1.43E-02
30499,6.66E-03,1.82E-02
30500,5.81E-03,1.93E-02
30501,4.89E-03,2.25E-02
30502,4.82E-03,2.15E-02
30503,6.16E-03,1.38E-02
30504,5.42E-03,5.11E-02
30505,5.08E-03,3.27E-02
30506,4.63E-03,3.17E-02
30507,5.78E-03,2.92E-02
30508,5.16E-03,2.83E-02
30509,4.04E-03,2.75E-02
30510,4.58E-03,2.66E-02
30511,5.73E-03,2.64E-02
30512,5.74E-03,2.74E-02
30513,5.59E-03,2.74E-02
30514,5.40E-03,2.85E-02
30515,5.24E-03,3.08E-02
30516,5.16E-03,5.03E-02
30517,5.32E-03,4.98E-02
30518,5.06E-03,5.09E-02
30519,5.41E-03,5.87E-02
30520,6.64E-03,5.77E-02
30521,5.45E-03,5.96E-02
30522,4.43E-03,6.40E-02
30523,5.07E-03,6.60E-02
30524,4.64E-03,6.58E-02
30525,5.41E-03,6.63E-02
30526,5.31E-03,6.80E-02
30527,6.68E-03,6.86E-02
30528,5.58E-03,7.15E-02
30529,5.98E-03,7.37E-02
30530,6.03E-03,7.31E-02
30531,6.51E-03,7.51E-02
30532,4.59E-03,7.32E-02
30533,5.09E-03,7.29E-02
30534,5.03E-03,7.30E-02
30535,5.52E-03,2.05E-02
30536,5.75E-03,1.66E-02
30537,5.93E-03,1.87E-02
30538,6.22E-03,1.80E-02
30539,6.11E-03,1.82E-02
30540,4.67E-03,4.60E-03
30541,5.24E-03,7.28E-02
30542,5.38E-03,7.27E-02
30543,4.52E-03,1.59E-02
30544,5.04E-03,1.57E-02
30545,5.06E-03,1.58E-02
30546,5.78E-03,1.16E-02
30547,5.61E-03,7.73E-03
30548,5.21E-03,1.49E-02
30549,5.21E-03,7.45E-02
30550,3.53E-03,7.70E-02
30551,5.51E-03,3.47E-02
30552,6.04E-03,5.11E-03
30553,5.18E-03,5.36E-03
30554,5.47E-03,3.16E-02
30555,6.39E-03,1.74E-02
30556,7.20E-03,6.61E-02
30557,5.38E-03,5.19E-03
30558,5.84E-03,5.58E-03
30559,6.32E-03,6.11E-03
30560,4.20E-03,6.65E-03
30561,6.28E-03,9.26E-03
30562,4.18E-03,4.49E-02
30563,5.05E-03,4.41E-02
30564,4.25E-03,4.51E-02
30565,5.20E-03,1.16E-02
30566,4.19E-03,1.18E-02
30567,4.91E-03,8.96E-03
30568,3.71E-03,9.11E-03
30569,5.43E-03,8.60E-03
30570,4.65E-03,8.46E-03
30571,4.24E-03,5.67E-03
30572,5.44E-03,6.15E-03
30573,4.76E-03,1.24E-02
30574,5.20E-03,4.23E-02
30575,5.42E-03,4.21E-02
30576,5.53E-03,9.74E-03
30577,5.41E-03,9.50E-03
30578,4.84E-03,2.40E-02
30579,4.55E-03,2.92E-02
30580,5.97E-03,5.76E-02
30581,5.81E-03,4.26E-02
30582,5.40E-03,1.80E-02
30583,5.87E-03,8.30E-03
30584,6.28E-03,3.01E-02
30585,3.22E-03,2.01E-02
30586,4.88E-03,2.04E-02
30587,6.23E-03,1.78E-02
30588,5.22E-03,1.57E-02
30589,5.11E-03,1.54E-02
30590,5.38E-03,1.54E-02
30591,6.33E-03,1.43E-02
30592,5.84E-03,1.45E-02
30593,6.28E-03,1.42E-02
30594,4.68E-03,2.77E-02
30595,5.58E-03,2.97E-02
30596,5.31E-03,3.14E-02
30597,5.79E-03,7.63E-02
30598,6.00E-03,7.92E-02
30599,6.24E-03,7.91E-02
30600,3.40E-03,7.59E-02
30601,5.17E-03,1.94E-02
30602,5.96E-03,1.72E-02
30603,5.30E-03,1.72E-02
30604,4.97E-03,4.94E-03
30605,4.56E-03,4.78E-03
30606,5.59E-03,7.55E-02
30607,5.21E-03,1.75E-02
30608,3.96E-03,2.05E-02
30609,5.53E-03,2.01E-02
30610,5.40E-03,3.58E-02
30611,4.43E-03,3.68E-02
30612,5.23E-03,3.46E-02
30613,5.77E-03,5.13E-03
30614,5.51E-03,5.14E-03
30615,5.52E-03,5.32E-03
30616,5.45E-03,5.35E-03
30617,5.30E-03,5.92E-03
30618,5.52E-03,5.86E-03
30619,5.38E-03,6.73E-03
30620,3.91E-03,6.67E-03
30621,4.84E-03,1.21E-02
30622,5.09E-03,4.08E-02
30623,5.41E-03,4.07E-02
30624,5.58E-03,9.59E-03
30625,5.47E-03,9.54E-03
30626,4.85E-03,2.24E-02
30627,4.27E-03,2.98E-02
30628,5.98E-03,6.20E-02
30629,5.60E-03,3.94E-02
30630,5.41E-03,2.23E-02
30631,5.85E-03,7.89E-03
30632,3.83E-03,2.10E-02
30633,5.78E-03,1.47E-02
30634,5.19E-03,2.74E-02
30635,4.99E-03,2.62E-02
30636,4.66E-03,6.40E-03
30637,2.76E-03,6.53E-03
30638,5.13E-03,3.80E-02
30639,4.97E-03,3.65E-02
30640,3.61E-03,3.38E-02
30641,5.90E-03,3.10E-02
30642,5.80E-03,7.95E-02
30643,4.90E-03,1.84E-02
30644,6.20E-03,2.89E-02
30645,6.20E-03,2.72E-02
30646,5.51E-03,2.42E-02
30647,5.16E-03,3.81E-02
30648,4.81E-03,1.19E-02
30649,4.91E-03,3.94E-02
30650,5.43E-03,3.94E-02
30651,5.59E-03,9.51E-03
30652,5.49E-03,9.89E-03
30653,4.81E-03,2.08E-02
30654,4.09E-03,3.05E-02
30655,6.42E-03,7.11E-02
30656,6.53E-03,6.70E-02
30657,4.99E-03,3.62E-02
30658,5.59E-03,8.27E-03
30659,6.19E-03,2.90E-02
30660,6.40E-03,3.17E-02
30661,4.66E-03,3.21E-02
30662,4.61E-03,3.22E-02
30663,5.74E-03,2.31E-02
30664,7.00E-03,3.19E-02
30665,4.63E-03,1.75E-02
30666,5.42E-03,3.69E-02
30667,4.59E-03,3.81E-02
30668,4.78E-03,1.16E-02
30669,5.43E-03,3.81E-02
30670,5.48E-03,9.52E-03
30671,5.47E-03,1.05E-02
30672,4.78E-03,1.93E-02
30673,3.80E-03,3.13E-02
30674,6.14E-03,2.97E-02
30675,4.44E-03,1.67E-02
30676,5.46E-03,7.37E-03
30677,3.87E-03,3.56E-03
30678,4.51E-03,3.51E-03
30679,5.79E-03,4.75E-03
30680,5.78E-03,4.55E-03
30681,5.93E-03,4.61E-03
30682,4.74E-03,1.14E-02
30683,5.40E-03,9.62E-03
30684,5.32E-03,1.14E-02
30685,4.84E-03,1.78E-02
30686,3.70E-03,3.20E-02
30687,5.32E-03,8.67E-03
30688,6.19E-03,9.90E-03
30689,5.38E-03,2.86E-02
30690,6.07E-03,3.06E-02
30691,6.13E-03,2.19E-02
30692,4.33E-03,1.59E-02
30693,5.90E-03,1.09E-02
30694,4.67E-03,1.11E-02
30695,5.27E-03,9.79E-03
30696,5.27E-03,1.25E-02
30697,4.90E-03,1.64E-02
30698,3.67E-03,3.27E-02
30699,6.09E-03,2.84E-02
30700,5.90E-03,3.15E-02
30701,4.54E-03,1.50E-02
30702,4.72E-03,1.08E-02
30703,5.10E-03,1.00E-02
30704,5.15E-03,1.37E-02
30705,5.01E-03,1.50E-02
30706,3.86E-03,3.35E-02
30707,5.78E-03,3.25E-02
30708,7.15E-03,1.29E-02
30709,7.58E-03,1.33E-02
30710,4.80E-03,1.06E-02
30711,4.94E-03,1.03E-02
30712,3.96E-03,3.43E-02
30713,5.28E-03,7.16E-02
30714,5.61E-03,6.67E-02
30715,5.80E-03,2.82E-02
30716,5.61E-03,2.66E-02
30717,5.57E-03,2.78E-02
30718,5.41E-03,2.69E-02
30719,5.67E-03,1.28E-02
30720,5.96E-03,5.11E-03
30721,5.70E-03,5.08E-03
30722,6.06E-03,5.25E-03
30723,5.43E-03,5.77E-03
30724,5.60E-03,6.97E-03
30725,5.59E-03,6.83E-03
30726,5.60E-03,7.09E-03
30727,5.93E-03,8.24E-03
30728,5.89E-03,8.09E-03
30729,6.15E-03,8.55E-03
30730,6.10E-03,8.39E-03
30731,6.20E-03,8.72E-03
30732,6.50E-03,9.79E-03
30733,6.55E-03,9.57E-03
30734,6.47E-03,1.02E-02
30735,6.50E-03,1.00E-02
30736,5.98E-03,1.07E-02
30737,5.81E-03,1.24E-02
30738,5.81E-03,1.21E-02
30739,6.02E-03,1.26E-02
30740,5.51E-03,4.18E-03
30741,5.36E-03,3.95E-03
30742,5.79E-03,4.17E-02
30743,5.73E-03,4.23E-02
30744,6.09E-03,4.12E-02
30745,6.13E-03,3.82E-02
30746,6.18E-03,3.88E-02
30747,5.62E-03,3.48E-02
30748,5.62E-03,3.54E-02
30749,6.12E-03,3.35E-02
30750,6.08E-03,3.41E-02
30751,6.47E-03,3.28E-02
30752,6.27E-03,2.82E-02
30753,6.29E-03,2.88E-02
30754,6.17E-03,2.70E-02
30755,6.18E-03,2.76E-02
30756,6.29E-03,2.64E-02
30757,7.49E-03,2.34E-02
30758,6.83E-03,2.41E-02
30759,7.22E-03,2.29E-02
30760,5.93E-03,2.14E-02
30761,6.01E-03,2.18E-02
30762,5.57E-03,2.05E-02
30763,5.75E-03,2.09E-02
30764,5.07E-03,2.01E-02
30765,5.94E-03,1.76E-02
30766,5.96E-03,1.80E-02
30767,6.16E-03,1.67E-02
30768,6.02E-03,1.72E-02
30769,6.26E-03,1.59E-02
30770,6.20E-03,1.63E-02
30771,6.33E-03,1.51E-02
30772,6.32E-03,1.55E-02
30773,6.21E-03,1.44E-02
30774,6.32E-03,1.47E-02
30775,6.08E-03,1.37E-02
30776,6.12E-03,1.40E-02
30777,6.03E-03,1.30E-02
30778,6.03E-03,1.33E-02
30779,6.02E-03,1.26E-02
30780,5.75E-03,1.10E-02
30781,5.60E-03,1.13E-02
30782,6.05E-03,1.05E-02
30783,5.96E-03,1.08E-02
30784,6.31E-03,9.97E-03
30785,6.16E-03,1.02E-02
30786,6.36E-03,9.72E-03
30787,5.56E-03,8.78E-03
30788,6.00E-03,7.69E-03
30789,6.08E-03,7.86E-03
30790,5.97E-03,7.36E-03
30791,5.98E-03,7.52E-03
30792,5.75E-03,7.06E-03
30793,5.85E-03,7.21E-03
30794,5.67E-03,6.91E-03
30795,5.92E-03,6.59E-03
30796,5.26E-03,5.96E-03
30797,6.09E-03,5.32E-03
30798,6.16E-03,5.43E-03
30799,5.83E-03,5.12E-03
30800,5.94E-03,5.22E-03
30801,5.49E-03,5.02E-03
30802,5.80E-03,4.82E-03
30803,5.61E-03,4.43E-03
30804,5.70E-03,4.49E-03
30805,5.98E-03,4.31E-03
30806,5.81E-03,4.38E-03
30807,5.98E-03,4.21E-03
30808,6.07E-03,4.26E-03
30809,5.88E-03,4.08E-03
30810,5.92E-03,4.14E-03
30811,5.82E-03,3.98E-03
30812,5.87E-03,4.03E-03
30813,5.69E-03,3.91E-03
30814,5.78E-03,3.94E-03
30815,5.43E-03,3.88E-03
30816,6.29E-03,3.74E-03
30817,6.41E-03,3.77E-03
30818,6.02E-03,3.69E-03
30819,6.23E-03,3.71E-03
30820,5.88E-03,3.66E-03
30821,5.91E-03,3.67E-03
30822,5.92E-03,3.67E-03
30823,4.79E-03,1.32E-02
30824,5.38E-03,4.37E-02
30825,5.40E-03,9.86E-03
30826,4.76E-03,2.71E-02
30827,6.01E-03,4.95E-02
30828,5.54E-03,1.14E-02
30829,6.08E-03,2.76E-02
30830,6.02E-03,2.81E-02
30831,6.31E-03,2.71E-02
30832,6.04E-03,2.27E-02
30833,6.27E-03,2.32E-02
30834,5.84E-03,2.14E-02
30835,5.89E-03,2.21E-02
30836,5.72E-03,2.08E-02
30837,6.07E-03,1.66E-02
30838,5.72E-03,1.61E-02
30839,5.36E-03,1.62E-02
30840,5.70E-03,1.64E-02
30841,6.17E-03,1.61E-02
30842,5.58E-03,1.49E-02
30843,5.36E-03,1.44E-02
30844,4.87E-03,2.04E-02
30845,6.30E-03,1.36E-02
30846,6.12E-03,1.37E-02
30847,4.94E-03,5.32E-02
30848,6.32E-03,2.63E-02
30849,6.00E-03,2.62E-02
30850,5.09E-03,3.29E-02
30851,5.21E-03,3.28E-02
30852,4.84E-03,3.23E-02
30853,4.91E-03,3.27E-02
30854,4.78E-03,3.20E-02
30855,5.85E-03,2.89E-02
30856,4.96E-03,2.78E-02
30857,4.43E-03,2.77E-02
30858,4.83E-03,2.76E-02
30859,6.35E-03,2.62E-02
30860,6.33E-03,2.63E-02
30861,6.22E-03,2.63E-02
30862,6.26E-03,2.62E-02
30863,6.11E-03,2.63E-02
30864,6.11E-03,2.63E-02
30865,5.95E-03,2.63E-02
30866,6.08E-03,2.63E-02
30867,5.81E-03,2.64E-02
30868,5.64E-03,2.75E-02
30869,5.41E-03,2.85E-02
30870,3.99E-03,3.13E-02
30871,4.87E-03,3.10E-02
30872,5.59E-03,4.76E-02
30873,5.68E-03,4.70E-02
30874,5.50E-03,4.88E-02
30875,5.61E-03,4.82E-02
30876,5.43E-03,4.93E-02
30877,5.14E-03,5.20E-02
30878,5.12E-03,5.14E-02
30879,5.27E-03,5.27E-02
30880,5.16E-03,5.24E-02
30881,5.67E-03,5.32E-02
30882,5.35E-03,5.30E-02
30883,5.99E-03,5.36E-02
30884,5.64E-03,5.34E-02
30885,6.16E-03,5.40E-02
30886,6.01E-03,5.38E-02
30887,6.44E-03,5.43E-02
30888,6.30E-03,5.42E-02
30889,6.59E-03,5.47E-02
30890,6.53E-03,5.45E-02
30891,6.64E-03,5.52E-02
30892,6.64E-03,5.49E-02
30893,6.58E-03,5.60E-02
30894,6.62E-03,5.56E-02
30895,6.47E-03,5.69E-02
30896,6.55E-03,5.64E-02
30897,6.40E-03,5.74E-02
30898,5.84E-03,6.05E-02
30899,5.76E-03,6.00E-02
30900,5.91E-03,6.16E-02
30901,5.90E-03,6.11E-02
30902,5.91E-03,6.29E-02
30903,5.89E-03,6.22E-02
30904,6.25E-03,6.41E-02
30905,5.91E-03,6.35E-02
30906,4.37E-03,6.51E-02
30907,5.64E-03,6.68E-02
30908,5.56E-03,6.65E-02
30909,5.63E-03,6.73E-02
30910,5.63E-03,6.71E-02
30911,5.50E-03,6.76E-02
30912,6.56E-03,6.96E-02
30913,7.16E-03,6.92E-02
30914,6.28E-03,7.01E-02
30915,6.42E-03,6.99E-02
30916,6.18E-03,7.06E-02
30917,6.23E-03,7.03E-02
30918,6.00E-03,7.12E-02
30919,6.10E-03,7.09E-02
30920,5.86E-03,7.14E-02
30921,6.10E-03,7.36E-02
30922,6.07E-03,7.39E-02
30923,6.11E-03,7.35E-02
30924,6.08E-03,7.35E-02
30925,6.09E-03,7.33E-02
30926,6.14E-03,7.34E-02
30927,6.10E-03,7.32E-02
30928,6.23E-03,7.18E-02
30929,6.17E-03,7.59E-02
30930,6.30E-03,7.53E-02
30931,4.88E-03,7.31E-02
30932,5.99E-03,2.12E-02
30933,5.80E-03,1.67E-02
30934,6.01E-03,1.84E-02
30935,5.37E-03,4.40E-03
30936,5.32E-03,7.27E-02
30937,4.79E-03,1.58E-02
30938,5.86E-03,1.16E-02
30939,5.69E-03,1.12E-02
30940,5.75E-03,1.14E-02
30941,4.72E-03,7.05E-02
30942,4.51E-03,7.08E-02
30943,5.39E-03,3.55E-03
30944,6.05E-03,3.57E-03
30945,5.33E-03,7.85E-03
30946,4.37E-03,1.58E-02
30947,5.82E-03,1.53E-02
30948,4.96E-03,5.75E-03
30949,3.78E-03,5.81E-03
30950,3.66E-03,5.85E-03
30951,5.34E-03,7.64E-03
30952,6.13E-03,7.79E-02
30953,5.75E-03,6.14E-03
30954,5.60E-03,3.35E-02
30955,5.76E-03,5.53E-03
30956,5.81E-03,3.00E-02
30957,5.78E-03,3.03E-02
30958,5.58E-03,3.11E-02
30959,5.71E-03,2.86E-02
30960,5.83E-03,2.96E-02
30961,5.39E-03,2.85E-02
30962,6.19E-03,1.65E-02
30963,6.32E-03,1.43E-02
30964,5.77E-03,6.37E-02
30965,5.54E-03,6.78E-02
30966,6.53E-03,5.33E-03
30967,5.51E-03,5.24E-03
30968,5.87E-03,5.52E-03
30969,5.64E-03,5.42E-03
30970,5.62E-03,6.03E-03
30971,5.18E-03,5.91E-03
30972,3.55E-03,6.77E-03
30973,5.81E-03,6.86E-03
30974,6.12E-03,9.18E-03
30975,6.04E-03,9.00E-03
30976,6.31E-03,9.46E-03
30977,6.18E-03,1.05E-02
30978,5.87E-03,1.19E-02
30979,5.14E-03,4.31E-02
30980,3.29E-03,4.42E-02
30981,5.59E-03,4.22E-02
30982,6.73E-03,3.12E-02
30983,6.59E-03,3.19E-02
30984,6.72E-03,3.06E-02
30985,5.09E-03,1.21E-02
30986,5.20E-03,9.33E-03
30987,5.36E-03,8.31E-03
30988,5.93E-03,6.31E-03
30989,5.91E-03,6.40E-03
30990,6.15E-03,5.75E-03
30991,5.41E-03,6.03E-03
30992,6.35E-03,5.49E-03
30993,5.63E-03,4.85E-03
30994,5.27E-03,3.70E-03
30995,6.44E-03,3.56E-03
30996,4.57E-03,1.41E-02
30997,4.77E-03,1.30E-02
30998,5.32E-03,4.23E-02
30999,5.42E-03,4.22E-02
31000,5.50E-03,9.68E-03
31001,5.42E-03,9.56E-03
31002,4.81E-03,2.53E-02
31003,4.66E-03,2.79E-02
31004,6.01E-03,5.37E-02
31005,5.90E-03,4.62E-02
31006,5.48E-03,1.52E-02
31007,5.69E-03,1.02E-02
31008,6.06E-03,2.95E-02
31009,7.20E-03,2.76E-02
31010,5.48E-03,2.11E-02
31011,6.18E-03,1.76E-02
31012,4.85E-03,1.70E-02
31013,4.60E-03,1.68E-02
31014,5.41E-03,1.56E-02
31015,5.50E-03,1.54E-02
31016,5.38E-03,1.49E-02
31017,5.74E-03,1.46E-02
31018,6.16E-03,2.13E-02
31019,5.37E-03,2.17E-02
31020,6.21E-03,1.41E-02
31021,5.53E-03,4.77E-02
31022,5.61E-03,3.53E-02
31023,4.48E-03,3.40E-02
31024,6.77E-03,3.19E-02
31025,4.73E-03,2.92E-02
31026,5.54E-03,2.79E-02
31027,5.83E-03,2.87E-02
31028,5.39E-03,2.97E-02
31029,5.12E-03,3.17E-02
31030,4.59E-03,4.46E-02
31031,4.84E-03,4.55E-02
31032,6.95E-03,6.01E-02
31033,7.24E-03,5.94E-02
31034,6.04E-03,6.10E-02
31035,5.23E-03,6.80E-02
31036,5.11E-03,6.76E-02
31037,5.39E-03,6.84E-02
31038,5.07E-03,7.01E-02
31039,5.78E-03,7.44E-02
31040,5.84E-03,7.65E-02
31041,6.11E-03,7.91E-02
31042,4.81E-03,7.71E-02
31043,5.69E-03,7.53E-02
31044,4.81E-03,7.58E-02
31045,5.09E-03,7.59E-02
31046,4.93E-03,7.59E-02
31047,5.47E-03,2.01E-02
31048,5.87E-03,1.78E-02
31049,5.59E-03,1.74E-02
31050,6.08E-03,1.90E-02
31051,6.05E-03,1.92E-02
31052,5.19E-03,4.60E-03
31053,5.22E-03,7.60E-02
31054,5.71E-03,7.58E-02
31055,5.29E-03,1.64E-02
31056,4.80E-03,1.63E-02
31057,4.84E-03,1.63E-02
31058,3.72E-03,2.13E-02
31059,5.63E-03,1.96E-02
31060,3.98E-03,2.11E-02
31061,5.42E-03,3.46E-02
31062,4.21E-03,3.54E-02
31063,5.44E-03,3.40E-02
31064,6.50E-03,2.03E-02
31065,5.59E-03,5.33E-03
31066,5.74E-03,5.35E-03
31067,5.46E-03,5.39E-03
31068,5.67E-03,5.78E-03
31069,6.14E-03,6.31E-03
31070,3.84E-03,5.95E-03
31071,6.17E-03,9.36E-03
31072,6.30E-03,1.39E-02
31073,5.98E-03,1.39E-02
31074,5.88E-03,1.38E-02
31075,4.92E-03,4.50E-02
31076,5.31E-03,4.63E-02
31077,4.90E-03,4.59E-02
31078,6.18E-03,3.89E-02
31079,6.50E-03,2.47E-02
31080,3.85E-03,6.57E-03
31081,5.27E-03,6.15E-03
31082,4.86E-03,1.27E-02
31083,5.20E-03,4.08E-02
31084,5.40E-03,4.07E-02
31085,5.56E-03,9.58E-03
31086,5.49E-03,9.54E-03
31087,4.89E-03,2.36E-02
31088,4.57E-03,2.86E-02
31089,5.99E-03,5.82E-02
31090,5.87E-03,4.29E-02
31091,5.45E-03,1.95E-02
31092,5.82E-03,9.20E-03
31093,6.14E-03,3.09E-02
31094,6.15E-03,2.14E-02
31095,6.11E-03,1.88E-02
31096,5.99E-03,1.74E-02
31097,5.94E-03,1.72E-02
31098,5.10E-03,1.63E-02
31099,4.93E-03,1.59E-02
31100,5.48E-03,1.50E-02
31101,6.03E-03,1.45E-02
31102,3.79E-03,1.43E-02
31103,5.57E-03,1.42E-02
31104,4.93E-03,2.50E-02
31105,4.88E-03,2.38E-02
31106,4.15E-03,7.22E-02
31107,2.86E-03,6.68E-03
31108,3.20E-03,6.78E-03
31109,3.41E-03,7.40E-02
31110,4.94E-03,3.87E-02
31111,3.23E-03,3.58E-02
31112,5.84E-03,3.09E-02
31113,4.93E-03,3.22E-02
31114,4.99E-03,3.23E-02
31115,5.77E-03,7.96E-02
31116,3.63E-03,7.81E-02
31117,5.14E-03,1.90E-02
31118,4.61E-03,1.79E-02
31119,4.08E-03,1.78E-02
31120,4.59E-03,4.97E-03
31121,6.25E-03,2.80E-02
31122,6.41E-03,2.53E-02
31123,5.42E-03,3.69E-02
31124,5.42E-03,5.55E-03
31125,5.70E-03,5.99E-03
31126,4.85E-03,1.24E-02
31127,5.04E-03,3.94E-02
31128,5.38E-03,3.94E-02
31129,5.63E-03,9.54E-03
31130,5.53E-03,9.83E-03
31131,4.86E-03,2.20E-02
31132,4.24E-03,2.93E-02
31133,6.27E-03,6.28E-02
31134,5.76E-03,3.92E-02
31135,5.55E-03,2.38E-02
31136,5.65E-03,8.73E-03
31137,3.48E-03,1.64E-02
31138,5.53E-03,3.97E-02
31139,6.65E-03,2.89E-02
31140,5.48E-03,3.05E-02
31141,6.23E-03,3.22E-02
31142,3.81E-03,3.29E-02
31143,5.48E-03,8.28E-02
31144,4.78E-03,2.38E-02
31145,4.86E-03,1.81E-02
31146,5.39E-03,3.57E-02
31147,4.63E-03,3.66E-02
31148,4.84E-03,1.22E-02
31149,4.83E-03,3.80E-02
31150,5.47E-03,3.81E-02
31151,5.54E-03,9.59E-03
31152,5.52E-03,1.04E-02
31153,4.84E-03,2.04E-02
31154,4.10E-03,3.00E-02
31155,6.32E-03,6.77E-02
31156,5.40E-03,3.55E-02
31157,5.63E-03,8.57E-03
31158,4.88E-03,2.18E-02
31159,5.22E-03,4.02E-02
31160,4.37E-03,7.29E-02
31161,6.25E-03,2.87E-02
31162,4.65E-03,1.71E-02
31163,5.88E-03,3.25E-02
31164,5.94E-03,7.55E-03
31165,5.04E-03,3.55E-02
31166,5.01E-03,3.77E-03
31167,5.10E-03,3.56E-03
31168,6.34E-03,3.46E-03
31169,4.50E-03,3.39E-03
31170,5.76E-03,4.43E-03
31171,5.89E-03,4.50E-03
31172,4.82E-03,1.19E-02
31173,5.40E-03,3.69E-02
31174,5.47E-03,9.73E-03
31175,5.42E-03,1.12E-02
31176,4.78E-03,1.89E-02
31177,3.83E-03,3.07E-02
31178,6.05E-03,7.66E-02
31179,6.16E-03,7.25E-02
31180,5.60E-03,9.77E-03
31181,5.81E-03,8.80E-03
31182,5.60E-03,2.87E-02
31183,5.42E-03,2.98E-02
31184,5.36E-03,3.02E-02
31185,6.20E-03,8.29E-02
31186,6.17E-03,2.96E-02
31187,6.02E-03,2.26E-02
31188,6.17E-03,2.15E-02
31189,4.49E-03,1.63E-02
31190,5.76E-03,1.09E-02
31191,4.71E-03,1.17E-02
31192,5.35E-03,9.93E-03
31193,5.36E-03,1.23E-02
31194,4.90E-03,1.75E-02
31195,3.77E-03,3.14E-02
31196,5.75E-03,1.15E-02
31197,4.42E-03,1.10E-02
31198,5.16E-03,9.99E-03
31199,6.02E-03,3.05E-02
31200,4.59E-03,1.54E-02
31201,5.20E-03,6.05E-03
31202,4.71E-03,1.14E-02
31203,5.19E-03,1.02E-02
31204,5.19E-03,1.34E-02
31205,4.97E-03,1.61E-02
31206,3.79E-03,3.22E-02
31207,5.85E-03,3.14E-02
31208,6.57E-03,1.29E-02
31209,6.89E-03,1.32E-02
31210,4.77E-03,1.11E-02
31211,5.03E-03,1.05E-02
31212,5.12E-03,1.47E-02
31213,4.04E-03,3.30E-02
31214,5.61E-03,6.97E-02
31215,5.71E-03,3.24E-02
31216,5.82E-03,5.62E-03
31217,5.70E-03,5.70E-03
31218,4.85E-03,1.08E-02
31219,6.29E-03,6.09E-02
31220,4.18E-03,7.87E-03
31221,3.34E-03,6.62E-03
31222,2.93E-03,7.31E-02
31223,5.72E-03,3.06E-02
31224,5.79E-03,2.92E-02
31225,5.70E-03,3.04E-02
31226,5.55E-03,2.96E-02
31227,6.23E-03,1.55E-02
31228,6.39E-03,1.24E-02
31229,7.09E-03,7.34E-02
31230,6.49E-03,7.35E-02
31231,5.18E-03,7.51E-02
31232,4.05E-03,6.35E-02
31233,5.70E-03,5.31E-03
31234,5.72E-03,5.28E-03
31235,5.88E-03,5.46E-03
31236,5.34E-03,5.96E-03
31237,5.64E-03,7.13E-03
31238,5.52E-03,6.99E-03
31239,5.77E-03,7.26E-03
31240,5.91E-03,8.36E-03
31241,5.78E-03,8.22E-03
31242,6.03E-03,8.66E-03
31243,5.97E-03,8.51E-03
31244,6.08E-03,8.83E-03
31245,6.35E-03,9.87E-03
31246,6.34E-03,9.67E-03
31247,6.14E-03,1.03E-02
31248,6.35E-03,1.01E-02
31249,5.96E-03,1.07E-02
31250,6.04E-03,1.24E-02
31251,5.91E-03,1.21E-02
31252,6.30E-03,1.26E-02
31253,6.54E-03,1.36E-02
31254,5.37E-03,4.18E-03
31255,5.29E-03,3.97E-03
31256,5.28E-03,4.24E-02
31257,4.28E-03,4.37E-02
31258,5.91E-03,4.11E-02
31259,5.83E-03,4.17E-02
31260,6.13E-03,4.00E-02
31261,6.09E-03,4.06E-02
31262,5.96E-03,3.78E-02
31263,6.05E-03,3.83E-02
31264,5.46E-03,3.72E-02
31265,5.60E-03,3.45E-02
31266,5.46E-03,3.50E-02
31267,6.22E-03,3.33E-02
31268,6.10E-03,3.39E-02
31269,6.44E-03,3.26E-02
31270,6.57E-03,3.00E-02
31271,6.27E-03,2.81E-02
31272,6.33E-03,2.87E-02
31273,6.17E-03,2.70E-02
31274,6.19E-03,2.75E-02
31275,6.24E-03,2.64E-02
31276,6.85E-03,2.35E-02
31277,6.64E-03,2.41E-02
31278,6.42E-03,2.25E-02
31279,6.65E-03,2.30E-02
31280,6.00E-03,2.15E-02
31281,6.15E-03,2.20E-02
31282,5.51E-03,2.06E-02
31283,5.84E-03,2.10E-02
31284,5.14E-03,2.01E-02
31285,6.07E-03,1.86E-02
31286,5.94E-03,1.78E-02
31287,5.95E-03,1.82E-02
31288,6.08E-03,1.70E-02
31289,6.01E-03,1.74E-02
31290,6.17E-03,1.61E-02
31291,6.12E-03,1.65E-02
31292,6.29E-03,1.53E-02
31293,6.22E-03,1.57E-02
31294,6.19E-03,1.46E-02
31295,6.24E-03,1.50E-02
31296,6.15E-03,1.39E-02
31297,6.16E-03,1.42E-02
31298,6.19E-03,1.32E-02
31299,6.16E-03,1.35E-02
31300,6.86E-03,1.25E-02
31301,6.32E-03,1.28E-02
31302,5.45E-03,1.18E-02
31303,5.01E-03,1.20E-02
31304,5.79E-03,1.12E-02
31305,5.66E-03,1.15E-02
31306,6.05E-03,1.07E-02
31307,5.97E-03,1.10E-02
31308,6.35E-03,1.01E-02
31309,6.18E-03,1.04E-02
31310,6.85E-03,9.57E-03
31311,6.45E-03,9.85E-03
31312,5.03E-03,9.10E-03
31313,5.04E-03,9.29E-03
31314,5.77E-03,8.64E-03
31315,5.65E-03,8.88E-03
31316,6.76E-03,8.17E-03
31317,5.43E-03,8.47E-03
31318,6.17E-03,7.77E-03
31319,6.39E-03,7.96E-03
31320,5.98E-03,7.41E-03
31321,6.07E-03,7.58E-03
31322,5.63E-03,7.11E-03
31323,5.87E-03,7.25E-03
31324,5.14E-03,6.96E-03
31325,5.15E-03,6.51E-03
31326,5.50E-03,5.92E-03
31327,6.12E-03,5.26E-03
31328,6.21E-03,5.37E-03
31329,5.87E-03,5.05E-03
31330,5.98E-03,5.15E-03
31331,5.62E-03,4.96E-03
31332,5.96E-03,4.67E-03
31333,5.72E-03,4.31E-03
31334,5.72E-03,4.37E-03
31335,5.83E-03,4.18E-03
31336,5.75E-03,4.25E-03
31337,5.85E-03,4.06E-03
31338,5.88E-03,4.12E-03
31339,5.88E-03,3.93E-03
31340,5.93E-03,3.99E-03
31341,5.83E-03,3.83E-03
31342,5.85E-03,3.88E-03
31343,5.70E-03,3.74E-03
31344,5.76E-03,3.78E-03
31345,5.49E-03,3.71E-03
31346,6.33E-03,3.53E-03
31347,6.43E-03,3.55E-03
31348,6.07E-03,3.48E-03
31349,6.22E-03,3.51E-03
31350,5.96E-03,3.45E-03
31351,6.00E-03,3.46E-03
31352,6.02E-03,3.44E-03
31353,4.78E-03,1.36E-02
31354,5.39E-03,4.22E-02
31355,5.48E-03,9.62E-03
31356,4.76E-03,2.66E-02
31357,5.96E-03,4.99E-02
31358,5.55E-03,1.26E-02
31359,6.12E-03,2.84E-02
31360,6.04E-03,2.90E-02
31361,6.23E-03,2.80E-02
31362,6.45E-03,2.48E-02
31363,6.70E-03,2.54E-02
31364,6.10E-03,2.37E-02
31365,6.24E-03,2.42E-02
31366,5.94E-03,2.25E-02
31367,6.01E-03,2.31E-02
31368,5.82E-03,2.18E-02
31369,6.11E-03,1.75E-02
31370,5.67E-03,1.69E-02
31371,5.57E-03,1.70E-02
31372,5.39E-03,1.69E-02
31373,5.54E-03,1.55E-02
31374,5.70E-03,1.48E-02
31375,5.03E-03,2.27E-02
31376,6.25E-03,1.40E-02
31377,5.20E-03,5.34E-02
31378,5.09E-03,5.02E-02
31379,6.60E-03,2.82E-02
31380,3.95E-03,3.72E-02
31381,5.06E-03,3.54E-02
31382,5.55E-03,3.56E-02
31383,4.82E-03,3.48E-02
31384,4.92E-03,3.52E-02
31385,4.68E-03,3.44E-02
31386,6.25E-03,3.05E-02
31387,6.19E-03,3.13E-02
31388,5.21E-03,3.01E-02
31389,5.38E-03,3.01E-02
31390,5.02E-03,2.98E-02
31391,6.39E-03,2.80E-02
31392,6.49E-03,2.81E-02
31393,6.24E-03,2.80E-02
31394,6.26E-03,2.80E-02
31395,6.12E-03,2.79E-02
31396,6.13E-03,2.79E-02
31397,5.97E-03,2.79E-02
31398,6.04E-03,2.79E-02
31399,5.91E-03,2.79E-02
31400,5.56E-03,2.86E-02
31401,5.08E-03,2.96E-02
31402,4.05E-03,3.23E-02
31403,4.78E-03,3.21E-02
31404,5.48E-03,4.74E-02
31405,5.45E-03,4.69E-02
31406,5.49E-03,4.86E-02
31407,5.54E-03,4.80E-02
31408,5.30E-03,4.97E-02
31409,5.43E-03,4.92E-02
31410,5.28E-03,5.03E-02
31411,5.19E-03,5.30E-02
31412,5.16E-03,5.25E-02
31413,5.29E-03,5.38E-02
31414,5.20E-03,5.34E-02
31415,5.63E-03,5.44E-02
31416,5.44E-03,5.41E-02
31417,6.00E-03,5.48E-02
31418,5.64E-03,5.46E-02
31419,6.15E-03,5.52E-02
31420,6.00E-03,5.51E-02
31421,6.42E-03,5.56E-02
31422,6.36E-03,5.54E-02
31423,6.63E-03,5.60E-02
31424,6.57E-03,5.58E-02
31425,6.67E-03,5.66E-02
31426,6.68E-03,5.62E-02
31427,6.55E-03,5.73E-02
31428,6.64E-03,5.69E-02
31429,6.53E-03,5.84E-02
31430,6.58E-03,5.78E-02
31431,6.68E-03,5.89E-02
31432,5.93E-03,6.23E-02
31433,5.86E-03,6.17E-02
31434,5.96E-03,6.35E-02
31435,5.96E-03,6.29E-02
31436,5.86E-03,6.48E-02
31437,5.88E-03,6.41E-02
31438,6.15E-03,6.61E-02
31439,5.99E-03,6.54E-02
31440,5.53E-03,6.67E-02
31441,5.59E-03,6.90E-02
31442,5.53E-03,6.87E-02
31443,5.60E-03,6.96E-02
31444,5.59E-03,6.93E-02
31445,5.38E-03,6.98E-02
31446,6.49E-03,7.20E-02
31447,6.75E-03,7.17E-02
31448,6.18E-03,7.26E-02
31449,6.31E-03,7.23E-02
31450,6.08E-03,7.32E-02
31451,6.13E-03,7.29E-02
31452,5.94E-03,7.40E-02
31453,6.03E-03,7.36E-02
31454,5.97E-03,7.43E-02
31455,6.85E-03,7.67E-02
31456,6.05E-03,7.70E-02
31457,6.12E-03,7.70E-02
31458,6.11E-03,7.69E-02
31459,6.06E-03,7.69E-02
31460,6.10E-03,7.68E-02
31461,6.14E-03,7.69E-02
31462,6.00E-03,7.67E-02
31463,6.01E-03,7.99E-02
31464,6.03E-03,7.93E-02
31465,6.02E-03,7.73E-02
31466,5.97E-03,8.14E-02
31467,5.95E-03,8.06E-02
31468,6.24E-03,7.42E-02
31469,4.78E-03,7.53E-02
31470,4.83E-03,7.59E-02
31471,5.72E-03,2.08E-02
31472,5.81E-03,1.76E-02
31473,5.87E-03,1.94E-02
31474,5.30E-03,4.39E-03
31475,4.92E-03,2.75E-02
31476,5.21E-03,3.01E-02
31477,5.00E-03,2.88E-02
31478,5.68E-03,7.60E-02
31479,5.37E-03,1.64E-02
31480,5.18E-03,3.27E-02
31481,5.44E-03,3.22E-02
31482,5.51E-03,1.12E-02
31483,3.78E-03,1.86E-02
31484,6.85E-03,1.81E-02
31485,5.37E-03,1.85E-02
31486,3.87E-03,7.24E-02
31487,7.37E-03,3.38E-03
31488,6.31E-03,3.40E-03
31489,7.31E-03,3.39E-03
31490,5.54E-03,3.34E-02
31491,4.13E-03,3.41E-02
31492,4.10E-03,1.45E-02
31493,5.76E-03,3.28E-02
31494,5.54E-03,3.34E-02
31495,5.87E-03,3.12E-02
31496,5.55E-03,3.13E-02
31497,6.56E-03,1.94E-02
31498,6.52E-03,1.71E-02
31499,6.55E-03,1.59E-02
31500,5.38E-03,7.41E-02
31501,5.01E-03,5.53E-03
31502,5.37E-03,5.52E-03
31503,5.50E-03,5.52E-03
31504,6.03E-03,5.54E-03
31505,5.62E-03,5.44E-03
31506,5.72E-03,5.72E-03
31507,5.64E-03,5.61E-03
31508,5.69E-03,6.22E-03
31509,4.70E-03,6.06E-03
31510,3.81E-03,6.89E-03
31511,5.64E-03,7.02E-03
31512,5.10E-03,7.96E-03
31513,5.88E-03,9.28E-03
31514,5.94E-03,9.10E-03
31515,6.17E-03,9.56E-03
31516,6.01E-03,1.05E-02
31517,6.01E-03,1.18E-02
31518,4.76E-03,5.62E-03
31519,5.32E-03,5.16E-03
31520,4.22E-03,4.44E-02
31521,4.53E-03,4.51E-02
31522,5.56E-03,4.18E-02
31523,6.63E-03,3.05E-02
31524,4.93E-03,6.65E-03
31525,5.69E-03,6.04E-03
31526,6.47E-03,5.46E-03
31527,5.61E-03,3.55E-03
31528,6.64E-03,3.35E-03
31529,4.56E-03,1.45E-02
31530,4.80E-03,1.33E-02
31531,5.29E-03,4.08E-02
31532,5.40E-03,4.07E-02
31533,5.54E-03,9.57E-03
31534,5.46E-03,9.55E-03
31535,4.93E-03,2.49E-02
31536,4.62E-03,2.74E-02
31537,6.04E-03,5.43E-02
31538,5.97E-03,4.66E-02
31539,5.48E-03,1.66E-02
31540,5.62E-03,1.14E-02
31541,6.01E-03,3.03E-02
31542,5.86E-03,2.21E-02
31543,6.08E-03,1.86E-02
31544,6.27E-03,1.79E-02
31545,5.53E-03,1.62E-02
31546,5.39E-03,1.60E-02
31547,6.01E-03,1.53E-02
31548,5.90E-03,1.50E-02
31549,5.46E-03,2.38E-02
31550,4.81E-03,2.44E-02
31551,4.80E-03,2.63E-02
31552,6.34E-03,1.45E-02
31553,6.18E-03,1.43E-02
31554,4.60E-03,4.45E-02
31555,3.40E-03,3.91E-02
31556,4.23E-03,3.65E-02
31557,6.88E-03,3.44E-02
31558,6.10E-03,2.93E-02
31559,4.72E-03,2.98E-02
31560,5.57E-03,3.08E-02
31561,6.45E-03,3.30E-02
31562,5.23E-03,3.30E-02
31563,5.04E-03,3.26E-02
31564,5.36E-03,7.00E-02
31565,5.42E-03,6.94E-02
31566,5.45E-03,7.05E-02
31567,4.93E-03,7.23E-02
31568,2.61E-03,7.42E-02
31569,6.27E-03,7.76E-02
31570,5.85E-03,8.00E-02
31571,5.73E-03,8.28E-02
31572,6.05E-03,8.07E-02
31573,6.18E-03,8.08E-02
31574,5.66E-03,8.10E-02
31575,4.69E-03,7.88E-02
31576,4.84E-03,7.88E-02
31577,4.86E-03,7.87E-02
31578,5.33E-03,1.97E-02
31579,5.61E-03,1.83E-02
31580,5.45E-03,2.07E-02
31581,5.95E-03,2.00E-02
31582,5.94E-03,2.03E-02
31583,5.49E-03,7.91E-02
31584,6.70E-03,7.91E-02
31585,6.50E-03,2.70E-02
31586,3.84E-03,1.68E-02
31587,4.85E-03,1.69E-02
31588,5.35E-03,3.61E-02
31589,6.79E-03,2.36E-02
31590,5.40E-03,5.59E-03
31591,5.11E-03,6.54E-03
31592,5.67E-03,6.50E-03
31593,5.86E-03,6.07E-03
31594,4.07E-03,7.97E-03
31595,5.99E-03,9.45E-03
31596,6.57E-03,3.18E-02
31597,5.86E-03,6.43E-03
31598,4.12E-03,6.33E-03
31599,7.23E-03,5.70E-03
31600,6.00E-03,3.40E-03
31601,4.89E-03,1.31E-02
31602,5.16E-03,3.93E-02
31603,5.40E-03,3.93E-02
31604,5.63E-03,9.59E-03
31605,5.53E-03,9.77E-03
31606,4.93E-03,2.32E-02
31607,4.54E-03,2.80E-02
31608,6.14E-03,5.87E-02
31609,5.93E-03,4.29E-02
31610,5.48E-03,2.09E-02
31611,5.63E-03,1.03E-02
31612,5.90E-03,3.16E-02
31613,5.51E-03,2.83E-02
31614,5.22E-03,2.85E-02
31615,6.01E-03,1.98E-02
31616,4.88E-03,1.64E-02
31617,4.90E-03,1.50E-02
31618,5.52E-03,1.54E-02
31619,5.97E-03,1.49E-02
31620,6.35E-03,1.46E-02
31621,5.90E-03,4.02E-02
31622,5.23E-03,4.04E-02
31623,4.86E-03,3.73E-02
31624,7.42E-03,3.06E-02
31625,6.12E-03,3.22E-02
31626,4.85E-03,3.32E-02
31627,5.47E-03,8.31E-02
31628,5.77E-03,2.34E-02
31629,5.37E-03,8.09E-02
31630,7.22E-03,3.31E-02
31631,5.11E-03,1.86E-02
31632,5.44E-03,3.45E-02
31633,4.59E-03,3.52E-02
31634,4.59E-03,3.89E-02
31635,5.21E-03,6.18E-03
31636,5.19E-03,6.79E-03
31637,4.87E-03,1.28E-02
31638,4.98E-03,3.79E-02
31639,5.39E-03,3.80E-02
31640,5.56E-03,9.67E-03
31641,5.58E-03,1.03E-02
31642,4.86E-03,2.16E-02
31643,4.20E-03,2.87E-02
31644,6.24E-03,6.35E-02
31645,5.98E-03,3.88E-02
31646,5.52E-03,2.56E-02
31647,5.74E-03,9.60E-03
31648,5.87E-03,2.25E-02
31649,4.81E-03,1.69E-02
31650,4.21E-03,1.66E-02
31651,5.86E-03,4.23E-02
31652,4.91E-03,3.35E-02
31653,4.63E-03,8.62E-02
31654,4.89E-03,8.23E-02
31655,5.40E-03,8.09E-02
31656,6.41E-03,2.78E-02
31657,4.91E-03,1.76E-02
31658,5.94E-03,3.22E-02
31659,7.71E-03,3.75E-02
31660,4.55E-03,1.70E-02
31661,5.07E-03,3.53E-02
31662,4.81E-03,3.58E-02
31663,4.18E-03,1.75E-02
31664,3.25E-03,1.73E-02
31665,5.24E-03,3.34E-03
31666,4.10E-03,1.92E-02
31667,5.47E-03,3.14E-03
31668,5.42E-03,3.12E-03
31669,5.29E-03,3.33E-03
31670,4.89E-03,3.64E-02
31671,7.65E-03,3.34E-02
31672,5.65E-03,4.34E-03
31673,5.75E-03,4.42E-03
31674,4.85E-03,1.25E-02
31675,4.74E-03,3.65E-02
31676,5.41E-03,3.68E-02
31677,5.52E-03,9.84E-03
31678,5.52E-03,1.10E-02
31679,4.82E-03,2.01E-02
31680,4.11E-03,2.94E-02
31681,6.19E-03,6.83E-02
31682,5.84E-03,9.15E-03
31683,3.40E-03,3.06E-02
31684,3.81E-03,3.15E-02
31685,4.77E-03,8.63E-02
31686,6.23E-03,2.86E-02
31687,6.37E-03,2.23E-02
31688,5.87E-03,2.11E-02
31689,4.69E-03,1.67E-02
31690,5.36E-03,1.10E-02
31691,4.80E-03,1.23E-02
31692,5.41E-03,3.56E-02
31693,5.43E-03,1.01E-02
31694,5.40E-03,1.20E-02
31695,4.88E-03,1.86E-02
31696,3.89E-03,3.01E-02
31697,6.11E-03,7.32E-02
31698,4.83E-03,1.03E-02
31699,6.62E-03,9.01E-03
31700,6.14E-03,2.94E-02
31701,4.68E-03,1.58E-02
31702,5.48E-03,5.98E-03
31703,4.10E-03,6.30E-03
31704,4.42E-03,6.28E-03
31705,4.72E-03,1.20E-02
31706,5.28E-03,1.04E-02
31707,5.28E-03,1.32E-02
31708,4.95E-03,1.71E-02
31709,3.90E-03,3.09E-02
31710,5.99E-03,8.23E-02
31711,6.08E-03,7.81E-02
31712,5.95E-03,3.03E-02
31713,6.51E-03,1.29E-02
31714,6.71E-03,1.31E-02
31715,4.77E-03,1.17E-02
31716,5.11E-03,1.07E-02
31717,5.21E-03,1.44E-02
31718,5.06E-03,1.57E-02
31719,4.09E-03,3.18E-02
31720,5.44E-03,7.39E-02
31721,5.77E-03,3.13E-02
31722,5.75E-03,5.80E-03
31723,5.69E-03,5.88E-03
31724,4.80E-03,1.14E-02
31725,4.95E-03,1.11E-02
31726,6.14E-03,6.48E-02
31727,5.64E-03,3.23E-02
31728,4.10E-03,3.28E-02
31729,6.73E-03,5.42E-02
31730,4.48E-03,3.55E-02
31731,4.54E-03,3.60E-02
31732,5.74E-03,3.31E-02
31733,5.92E-03,3.18E-02
31734,5.97E-03,3.32E-02
31735,5.77E-03,3.23E-02
31736,6.63E-03,1.84E-02
31737,5.74E-03,1.39E-02
31738,6.06E-03,1.49E-02
31739,5.05E-03,1.14E-02
31740,5.80E-03,1.28E-02
31741,6.39E-03,9.71E-03
31742,5.29E-03,1.13E-02
31743,4.50E-03,6.22E-02
31744,4.48E-03,5.92E-02
31745,5.09E-03,7.39E-02
31746,5.21E-03,6.76E-02
31747,5.60E-03,5.50E-03
31748,5.55E-03,5.51E-03
31749,5.76E-03,5.48E-03
31750,5.72E-03,5.67E-03
31751,5.38E-03,6.14E-03
31752,5.75E-03,7.28E-03
31753,5.63E-03,7.14E-03
31754,5.87E-03,7.42E-03
31755,5.57E-03,8.21E-03
31756,5.37E-03,8.08E-03
31757,5.84E-03,8.47E-03
31758,5.69E-03,8.34E-03
31759,5.91E-03,8.77E-03
31760,5.85E-03,8.62E-03
31761,5.94E-03,8.93E-03
31762,6.21E-03,9.95E-03
31763,6.16E-03,9.75E-03
31764,6.00E-03,1.04E-02
31765,6.19E-03,1.02E-02
31766,5.80E-03,1.07E-02
31767,6.13E-03,1.23E-02
31768,6.06E-03,1.21E-02
31769,6.32E-03,1.26E-02
31770,7.23E-03,1.35E-02
31771,5.22E-03,3.76E-03
31772,5.18E-03,3.55E-03
31773,5.40E-03,4.18E-03
31774,5.27E-03,3.98E-03
31775,4.55E-03,5.70E-03
31776,5.07E-03,5.85E-03
31777,5.89E-03,5.84E-03
31778,5.58E-03,5.37E-03
31779,6.16E-03,5.57E-03
31780,4.83E-03,4.40E-02
31781,4.18E-03,4.36E-02
31782,4.60E-03,4.27E-02
31783,5.25E-03,4.31E-02
31784,6.00E-03,4.06E-02
31785,6.04E-03,4.11E-02
31786,6.19E-03,3.95E-02
31787,6.10E-03,4.00E-02
31788,6.17E-03,3.84E-02
31789,5.69E-03,3.74E-02
31790,5.93E-03,3.79E-02
31791,5.19E-03,3.69E-02
31792,5.66E-03,3.42E-02
31793,5.43E-03,3.48E-02
31794,6.25E-03,3.30E-02
31795,6.09E-03,3.37E-02
31796,6.47E-03,3.24E-02
31797,6.45E-03,2.93E-02
31798,6.48E-03,2.99E-02
31799,6.23E-03,2.81E-02
31800,6.36E-03,2.87E-02
31801,6.13E-03,2.69E-02
31802,6.15E-03,2.75E-02
31803,6.22E-03,2.58E-02
31804,6.13E-03,2.64E-02
31805,6.38E-03,2.47E-02
31806,6.56E-03,2.36E-02
31807,6.50E-03,2.42E-02
31808,6.35E-03,2.26E-02
31809,6.54E-03,2.31E-02
31810,6.07E-03,2.16E-02
31811,6.27E-03,2.21E-02
31812,5.90E-03,2.07E-02
31813,5.95E-03,2.12E-02
31814,6.65E-03,2.02E-02
31815,6.09E-03,1.88E-02
31816,5.92E-03,1.80E-02
31817,6.03E-03,1.84E-02
31818,6.01E-03,1.72E-02
31819,5.97E-03,1.76E-02
31820,6.11E-03,1.64E-02
31821,6.12E-03,1.68E-02
31822,6.22E-03,1.56E-02
31823,6.13E-03,1.60E-02
31824,6.19E-03,1.48E-02
31825,6.24E-03,1.52E-02
31826,6.20E-03,1.41E-02
31827,6.21E-03,1.44E-02
31828,6.34E-03,1.34E-02
31829,6.24E-03,1.37E-02
31830,7.10E-03,1.27E-02
31831,6.55E-03,1.30E-02
31832,5.69E-03,1.20E-02
31833,6.77E-03,1.23E-02
31834,5.87E-03,1.14E-02
31835,5.78E-03,1.17E-02
31836,6.05E-03,1.09E-02
31837,5.98E-03,1.11E-02
31838,6.36E-03,1.03E-02
31839,6.22E-03,1.06E-02
31840,7.13E-03,9.73E-03
31841,6.63E-03,1.00E-02
31842,5.83E-03,9.25E-03
31843,6.70E-03,9.51E-03
31844,6.11E-03,8.75E-03
31845,5.82E-03,9.00E-03
31846,7.35E-03,8.34E-03
31847,7.22E-03,8.53E-03
31848,6.31E-03,7.87E-03
31849,6.61E-03,8.10E-03
31850,6.02E-03,7.48E-03
31851,6.17E-03,7.67E-03
31852,5.71E-03,7.14E-03
31853,5.95E-03,7.30E-03
31854,4.95E-03,7.03E-03
31855,5.34E-03,6.52E-03
31856,6.53E-03,5.91E-03
31857,6.20E-03,5.22E-03
31858,6.35E-03,5.34E-03
31859,5.97E-03,5.00E-03
31860,6.05E-03,5.11E-03
31861,6.52E-03,4.81E-03
31862,5.93E-03,4.90E-03
31863,7.14E-03,4.64E-03
31864,7.42E-03,4.71E-03
31865,6.11E-03,4.57E-03
31866,5.74E-03,4.21E-03
31867,5.67E-03,4.27E-03
31868,5.88E-03,4.07E-03
31869,5.84E-03,4.14E-03
31870,5.84E-03,3.93E-03
31871,5.86E-03,4.00E-03
31872,5.85E-03,3.80E-03
31873,5.89E-03,3.86E-03
31874,5.83E-03,3.68E-03
31875,5.80E-03,3.74E-03
31876,5.77E-03,3.60E-03
31877,5.78E-03,3.64E-03
31878,5.69E-03,3.57E-03
31879,6.25E-03,3.33E-03
31880,6.41E-03,3.34E-03
31881,6.07E-03,3.28E-03
31882,6.16E-03,3.30E-03
31883,6.05E-03,3.24E-03
31884,6.00E-03,3.25E-03
31885,6.51E-03,3.23E-03
31886,6.16E-03,3.23E-03
31887,6.30E-03,3.20E-03
31888,4.70E-03,1.39E-02
31889,5.32E-03,4.07E-02
31890,5.51E-03,9.56E-03
31891,4.81E-03,2.61E-02
31892,6.03E-03,5.04E-02
31893,5.52E-03,1.39E-02
31894,6.06E-03,2.92E-02
31895,6.02E-03,2.97E-02
31896,6.04E-03,2.87E-02
31897,6.16E-03,2.57E-02
31898,6.21E-03,2.63E-02
31899,6.10E-03,2.47E-02
31900,6.14E-03,2.52E-02
31901,5.96E-03,2.35E-02
31902,6.04E-03,2.41E-02
31903,5.87E-03,2.29E-02
31904,6.04E-03,1.83E-02
31905,6.07E-03,1.85E-02
31906,5.99E-03,1.82E-02
31907,5.85E-03,1.78E-02
31908,6.07E-03,1.79E-02
31909,5.59E-03,1.76E-02
31910,5.64E-03,1.61E-02
31911,6.14E-03,1.52E-02
31912,4.83E-03,2.53E-02
31913,6.34E-03,1.44E-02
31914,5.82E-03,4.98E-02
31915,5.38E-03,4.69E-02
31916,6.40E-03,3.09E-02
31917,6.73E-03,3.01E-02
31918,4.97E-03,3.81E-02
31919,3.77E-03,3.86E-02
31920,4.94E-03,3.85E-02
31921,4.81E-03,3.74E-02
31922,4.86E-03,3.77E-02
31923,4.63E-03,3.69E-02
31924,6.70E-03,3.25E-02
31925,6.36E-03,3.34E-02
31926,5.67E-03,3.20E-02
31927,6.18E-03,3.23E-02
31928,5.64E-03,3.17E-02
31929,6.35E-03,2.98E-02
31930,6.52E-03,3.00E-02
31931,6.21E-03,2.97E-02
31932,6.27E-03,2.98E-02
31933,6.11E-03,2.96E-02
31934,6.16E-03,2.96E-02
31935,6.07E-03,2.95E-02
31936,6.03E-03,2.95E-02
31937,6.10E-03,2.94E-02
31938,6.16E-03,3.00E-02
31939,5.09E-03,3.07E-02
31940,5.02E-03,3.29E-02
31941,5.26E-03,4.57E-02
31942,5.31E-03,4.72E-02
31943,5.21E-03,4.65E-02
31944,5.42E-03,4.84E-02
31945,5.44E-03,4.78E-02
31946,5.43E-03,4.95E-02
31947,5.43E-03,4.89E-02
31948,5.33E-03,5.07E-02
31949,5.38E-03,5.01E-02
31950,5.29E-03,5.19E-02
31951,5.31E-03,5.13E-02
31952,5.18E-03,5.30E-02
31953,5.19E-03,5.24E-02
31954,5.21E-03,5.40E-02
31955,5.21E-03,5.35E-02
31956,5.30E-03,5.49E-02
31957,5.24E-03,5.45E-02
31958,5.59E-03,5.56E-02
31959,5.50E-03,5.53E-02
31960,5.96E-03,5.61E-02
31961,5.69E-03,5.58E-02
31962,6.17E-03,5.65E-02
31963,6.01E-03,5.63E-02
31964,6.45E-03,5.69E-02
31965,6.40E-03,5.67E-02
31966,6.66E-03,5.73E-02
31967,6.65E-03,5.71E-02
31968,6.65E-03,5.79E-02
31969,6.69E-03,5.76E-02
31970,6.57E-03,5.88E-02
31971,6.67E-03,5.83E-02
31972,6.54E-03,5.99E-02
31973,6.53E-03,5.93E-02
31974,6.53E-03,6.12E-02
31975,6.62E-03,6.05E-02
31976,6.23E-03,6.25E-02
31977,6.01E-03,6.40E-02
31978,6.10E-03,6.33E-02
31979,5.95E-03,6.54E-02
31980,5.95E-03,6.47E-02
31981,5.92E-03,6.67E-02
31982,5.92E-03,6.60E-02
31983,5.92E-03,6.81E-02
31984,5.94E-03,6.74E-02
31985,5.61E-03,6.88E-02
31986,5.56E-03,7.12E-02
31987,5.54E-03,7.09E-02
31988,5.59E-03,7.19E-02
31989,5.59E-03,7.16E-02
31990,5.57E-03,7.22E-02
31991,5.03E-03,7.47E-02
31992,3.60E-03,7.47E-02
31993,6.31E-03,7.46E-02
31994,5.73E-03,7.46E-02
31995,6.18E-03,7.52E-02
31996,6.13E-03,7.49E-02
31997,6.00E-03,7.58E-02
31998,6.07E-03,7.55E-02
31999,5.93E-03,7.67E-02
32000,5.98E-03,7.63E-02
32001,6.01E-03,7.72E-02
32002,6.20E-03,8.03E-02
32003,5.97E-03,8.04E-02
32004,6.04E-03,8.04E-02
32005,6.15E-03,8.03E-02
32006,6.07E-03,8.05E-02
32007,6.03E-03,8.04E-02
32008,6.06E-03,8.03E-02
32009,6.12E-03,8.05E-02
32010,5.98E-03,8.02E-02
32011,5.82E-03,8.39E-02
32012,5.77E-03,8.32E-02
32013,5.82E-03,8.55E-02
32014,5.80E-03,8.47E-02
32015,6.09E-03,8.32E-02
32016,5.93E-03,8.74E-02
32017,5.84E-03,8.64E-02
32018,6.19E-03,8.86E-02
32019,5.66E-03,8.14E-02
32020,5.16E-03,8.22E-02
32021,6.05E-03,8.07E-02
32022,5.40E-03,8.15E-02
32023,4.45E-03,7.94E-02
32024,5.75E-03,2.46E-02
32025,4.90E-03,7.87E-02
32026,5.55E-03,2.04E-02
32027,5.99E-03,1.88E-02
32028,6.56E-03,1.87E-02
32029,5.94E-03,2.06E-02
32030,5.48E-03,4.40E-03
32031,4.77E-03,3.01E-02
32032,5.17E-03,3.27E-02
32033,4.89E-03,3.13E-02
32034,6.65E-03,7.96E-02
32035,4.67E-03,8.17E-02
32036,4.16E-03,8.45E-02
32037,4.59E-03,8.53E-02
32038,5.35E-03,8.21E-02
32039,5.13E-03,1.70E-02
32040,5.75E-03,3.53E-02
32041,5.58E-03,3.58E-02
32042,6.12E-03,3.39E-02
32043,5.70E-03,3.43E-02
32044,7.60E-03,2.27E-02
32045,6.49E-03,2.00E-02
32046,6.40E-03,1.88E-02
32047,5.81E-03,5.26E-02
32048,5.37E-03,5.71E-03
32049,5.36E-03,5.74E-03
32050,5.44E-03,5.72E-03
32051,5.72E-03,5.74E-03
32052,5.56E-03,5.63E-03
32053,5.77E-03,5.93E-03
32054,5.70E-03,5.78E-03
32055,5.70E-03,6.41E-03
32056,5.27E-03,6.20E-03
32057,5.69E-03,7.13E-03
32058,4.97E-03,8.08E-03
32059,5.83E-03,9.36E-03
32060,5.79E-03,9.19E-03
32061,6.06E-03,9.64E-03
32062,5.84E-03,1.06E-02
32063,5.11E-03,1.43E-02
32064,5.14E-03,5.82E-03
32065,6.45E-03,4.11E-02
32066,4.91E-03,3.50E-02
32067,5.58E-03,6.19E-03
32068,5.87E-03,3.40E-03
32069,6.67E-03,3.19E-03
32070,6.55E-03,3.18E-03
32071,5.40E-03,3.32E-03
32072,5.41E-03,3.11E-03
32073,4.66E-03,1.48E-02
32074,4.88E-03,1.37E-02
32075,5.26E-03,3.93E-02
32076,5.37E-03,3.93E-02
32077,5.58E-03,9.63E-03
32078,5.57E-03,9.71E-03
32079,4.85E-03,2.44E-02
32080,4.60E-03,2.68E-02
32081,6.07E-03,5.48E-02
32082,6.03E-03,4.69E-02
32083,5.53E-03,1.80E-02
32084,5.59E-03,1.26E-02
32085,5.87E-03,3.10E-02
32086,4.63E-03,2.91E-02
32087,4.81E-03,2.76E-02
32088,6.04E-03,1.97E-02
32089,5.82E-03,1.90E-02
32090,7.49E-03,1.91E-02
32091,7.46E-03,1.88E-02
32092,4.66E-03,1.83E-02
32093,5.60E-03,1.66E-02
32094,6.23E-03,1.59E-02
32095,5.78E-03,1.55E-02
32096,7.02E-03,1.56E-02
32097,4.45E-03,2.71E-02
32098,4.70E-03,2.91E-02
32099,6.24E-03,1.49E-02
32100,6.39E-03,1.47E-02
32101,4.82E-03,4.02E-02
32102,4.72E-03,4.09E-02
32103,4.59E-03,3.86E-02
32104,5.79E-03,3.78E-02
32105,6.15E-03,3.67E-02
32106,6.67E-03,3.08E-02
32107,5.91E-03,3.12E-02
32108,5.94E-03,3.20E-02
32109,6.08E-03,3.41E-02
32110,5.69E-03,3.39E-02
32111,5.13E-03,3.35E-02
32112,5.63E-03,4.47E-02
32113,5.08E-03,4.32E-02
32114,5.97E-03,4.37E-02
32115,3.54E-03,7.59E-02
32116,5.90E-03,8.19E-02
32117,6.32E-03,8.07E-02
32118,5.69E-03,8.35E-02
32119,5.29E-03,8.64E-02
32120,5.73E-03,8.80E-02
32121,4.94E-03,8.62E-02
32122,5.37E-03,2.41E-02
32123,5.03E-03,8.18E-02
32124,4.90E-03,8.17E-02
32125,5.25E-03,1.93E-02
32126,5.74E-03,2.12E-02
32127,5.88E-03,2.14E-02
32128,5.46E-03,3.33E-02
32129,4.47E-03,3.39E-02
32130,5.50E-03,3.86E-02
32131,5.84E-03,5.87E-03
32132,5.36E-03,5.78E-03
32133,6.41E-03,6.77E-03
32134,5.96E-03,6.67E-03
32135,5.44E-03,6.25E-03
32136,5.83E-03,9.54E-03
32137,6.04E-03,1.18E-02
32138,3.56E-03,3.57E-02
32139,3.69E-03,3.52E-02
32140,4.87E-03,1.34E-02
32141,5.10E-03,3.79E-02
32142,5.38E-03,3.80E-02
32143,5.62E-03,9.76E-03
32144,5.57E-03,1.02E-02
32145,4.85E-03,2.28E-02
32146,4.51E-03,2.75E-02
32147,6.15E-03,5.93E-02
32148,6.17E-03,4.28E-02
32149,5.56E-03,2.24E-02
32150,5.63E-03,1.15E-02
32151,5.99E-03,2.32E-02
32152,5.71E-03,2.09E-02
32153,4.76E-03,1.96E-02
32154,2.88E-03,1.77E-02
32155,6.54E-03,1.69E-02
32156,4.91E-03,1.75E-02
32157,5.97E-03,1.70E-02
32158,5.76E-03,1.66E-02
32159,6.35E-03,1.54E-02
32160,7.06E-03,1.48E-02
32161,7.64E-03,3.58E-02
32162,5.27E-03,4.28E-02
32163,5.30E-03,3.92E-02
32164,5.06E-03,3.40E-02
32165,5.51E-03,7.15E-02
32166,5.48E-03,7.21E-02
32167,5.71E-03,7.49E-02
32168,4.30E-03,7.47E-02
32169,5.09E-03,8.69E-02
32170,5.74E-03,8.70E-02
32171,6.22E-03,8.60E-02
32172,6.58E-03,2.68E-02
32173,6.26E-03,2.30E-02
32174,5.16E-03,8.41E-02
32175,6.57E-03,3.43E-02
32176,5.11E-03,1.82E-02
32177,5.23E-03,6.34E-03
32178,5.88E-03,6.08E-03
32179,6.29E-03,6.10E-03
32180,5.45E-03,4.27E-03
32181,5.30E-03,4.37E-03
32182,4.89E-03,1.32E-02
32183,4.93E-03,3.65E-02
32184,5.38E-03,3.67E-02
32185,5.54E-03,9.96E-03
32186,5.61E-03,1.09E-02
32187,4.87E-03,2.12E-02
32188,4.20E-03,2.82E-02
32189,6.19E-03,6.41E-02
32190,6.94E-03,3.80E-02
32191,5.70E-03,2.74E-02
32192,5.78E-03,1.05E-02
32193,5.82E-03,4.45E-02
32194,3.55E-03,3.19E-02
32195,5.54E-03,3.21E-02
32196,4.72E-03,3.27E-02
32197,5.11E-03,3.32E-02
32198,5.56E-03,3.39E-02
32199,4.48E-03,8.92E-02
32200,4.22E-03,9.02E-02
32201,6.34E-03,2.76E-02
32202,6.78E-03,2.18E-02
32203,5.28E-03,8.74E-02
32204,4.90E-03,1.72E-02
32205,4.62E-03,3.51E-02
32206,4.94E-03,1.09E-02
32207,4.85E-03,1.29E-02
32208,5.45E-03,3.55E-02
32209,5.49E-03,1.02E-02
32210,5.46E-03,1.18E-02
32211,4.87E-03,1.97E-02
32212,4.09E-03,2.89E-02
32213,6.14E-03,6.89E-02
32214,6.09E-03,9.82E-03
32215,6.23E-03,2.84E-02
32216,4.80E-03,1.62E-02
32217,4.78E-03,6.40E-03
32218,4.79E-03,1.26E-02
32219,5.41E-03,3.44E-02
32220,5.36E-03,1.06E-02
32221,5.41E-03,1.29E-02
32222,4.93E-03,1.82E-02
32223,4.08E-03,2.96E-02
32224,6.11E-03,7.38E-02
32225,6.91E-03,9.44E-03
32226,6.06E-03,2.92E-02
32227,6.41E-03,1.28E-02
32228,6.55E-03,1.30E-02
32229,4.78E-03,1.23E-02
32230,5.20E-03,1.09E-02
32231,5.24E-03,1.41E-02
32232,5.02E-03,1.68E-02
32233,4.14E-03,3.05E-02
32234,6.98E-03,7.83E-02
32235,7.29E-03,9.05E-02
32236,6.17E-03,7.89E-02
32237,7.21E-03,9.98E-03
32238,5.87E-03,3.02E-02
32239,5.66E-03,5.99E-03
32240,5.60E-03,6.06E-03
32241,4.78E-03,1.20E-02
32242,5.03E-03,1.13E-02
32243,5.17E-03,1.54E-02
32244,6.45E-03,6.96E-02
32245,6.36E-03,8.43E-02
32246,5.69E-03,3.11E-02
32247,4.86E-03,1.17E-02
32248,4.10E-03,3.15E-02
32249,6.77E-03,5.91E-02
32250,7.36E-03,4.83E-02
32251,5.74E-03,3.55E-02
32252,6.10E-03,3.45E-02
32253,6.33E-03,3.62E-02
32254,6.19E-03,3.52E-02
32255,6.75E-03,2.13E-02
32256,5.94E-03,1.64E-02
32257,6.05E-03,1.76E-02
32258,5.31E-03,1.39E-02
32259,5.78E-03,1.50E-02
32260,5.39E-03,1.25E-02
32261,5.10E-03,5.86E-02
32262,5.07E-03,5.51E-02
32263,5.29E-03,6.71E-02
32264,5.85E-03,6.30E-02
32265,4.58E-03,7.13E-02
32266,5.52E-03,5.70E-03
32267,5.47E-03,5.71E-03
32268,5.49E-03,5.70E-03
32269,5.67E-03,5.68E-03
32270,5.68E-03,5.85E-03
32271,5.47E-03,6.31E-03
32272,5.88E-03,7.42E-03
32273,5.75E-03,7.27E-03
32274,5.93E-03,7.56E-03
32275,5.52E-03,8.32E-03
32276,5.34E-03,8.20E-03
32277,5.73E-03,8.58E-03
32278,5.70E-03,8.45E-03
32279,5.84E-03,8.87E-03
32280,5.82E-03,8.72E-03
32281,5.77E-03,9.03E-03
32282,6.08E-03,1.00E-02
32283,6.03E-03,9.83E-03
32284,5.93E-03,1.04E-02
32285,6.02E-03,1.02E-02
32286,5.61E-03,1.08E-02
32287,6.22E-03,1.23E-02
32288,6.19E-03,1.20E-02
32289,6.30E-03,1.25E-02
32290,6.84E-03,1.36E-02
32291,7.27E-03,1.34E-02
32292,5.70E-03,1.40E-02
32293,5.33E-03,3.76E-03
32294,5.34E-03,3.54E-03
32295,5.49E-03,4.20E-03
32296,5.39E-03,3.98E-03
32297,5.41E-03,5.37E-03
32298,5.32E-03,5.59E-03
32299,5.83E-03,4.30E-02
32300,5.11E-03,4.31E-02
32301,5.20E-03,4.18E-02
32302,5.90E-03,4.26E-02
32303,6.08E-03,4.00E-02
32304,6.13E-03,4.05E-02
32305,6.14E-03,3.90E-02
32306,6.15E-03,3.95E-02
32307,6.12E-03,3.79E-02
32308,6.18E-03,3.85E-02
32309,5.63E-03,3.69E-02
32310,5.90E-03,3.74E-02
32311,4.99E-03,3.65E-02
32312,5.77E-03,3.40E-02
32313,5.49E-03,3.46E-02
32314,6.26E-03,3.28E-02
32315,6.16E-03,3.34E-02
32316,6.54E-03,3.16E-02
32317,6.54E-03,3.22E-02
32318,6.40E-03,2.92E-02
32319,6.44E-03,2.98E-02
32320,6.20E-03,2.80E-02
32321,6.34E-03,2.86E-02
32322,6.07E-03,2.69E-02
32323,6.12E-03,2.75E-02
32324,6.11E-03,2.58E-02
32325,6.11E-03,2.64E-02
32326,6.24E-03,2.47E-02
32327,6.17E-03,2.53E-02
32328,6.41E-03,2.37E-02
32329,6.36E-03,2.42E-02
32330,6.34E-03,2.27E-02
32331,6.44E-03,2.32E-02
32332,6.07E-03,2.18E-02
32333,6.24E-03,2.22E-02
32334,6.12E-03,2.08E-02
32335,6.00E-03,2.13E-02
32336,6.10E-03,1.90E-02
32337,6.15E-03,1.95E-02
32338,5.91E-03,1.82E-02
32339,6.00E-03,1.86E-02
32340,5.98E-03,1.74E-02
32341,5.98E-03,1.78E-02
32342,6.05E-03,1.66E-02
32343,6.05E-03,1.70E-02
32344,6.15E-03,1.58E-02
32345,6.12E-03,1.62E-02
32346,6.13E-03,1.50E-02
32347,6.19E-03,1.54E-02
32348,6.25E-03,1.43E-02
32349,6.22E-03,1.46E-02
32350,6.37E-03,1.36E-02
32351,6.30E-03,1.39E-02
32352,6.51E-03,1.29E-02
32353,6.50E-03,1.32E-02
32354,6.01E-03,1.22E-02
32355,6.43E-03,1.26E-02
32356,5.90E-03,1.16E-02
32357,5.91E-03,1.19E-02
32358,6.08E-03,1.10E-02
32359,6.01E-03,1.13E-02
32360,6.28E-03,1.05E-02
32361,6.24E-03,1.07E-02
32362,6.38E-03,9.92E-03
32363,6.45E-03,1.02E-02
32364,6.13E-03,9.40E-03
32365,6.28E-03,9.68E-03
32366,6.37E-03,8.87E-03
32367,6.10E-03,9.13E-03
32368,6.71E-03,8.45E-03
32369,6.59E-03,8.64E-03
32370,6.42E-03,7.99E-03
32371,6.61E-03,8.22E-03
32372,6.13E-03,7.56E-03
32373,6.29E-03,7.77E-03
32374,6.00E-03,7.17E-03
32375,6.03E-03,7.36E-03
32376,5.97E-03,6.78E-03
32377,5.92E-03,6.98E-03
32378,5.45E-03,6.39E-03
32379,5.81E-03,6.57E-03
32380,6.97E-03,6.09E-03
32381,4.71E-03,6.29E-03
32382,6.74E-03,5.73E-03
32383,6.71E-03,5.88E-03
32384,6.59E-03,5.45E-03
32385,6.24E-03,5.19E-03
32386,6.38E-03,5.32E-03
32387,6.06E-03,4.96E-03
32388,6.10E-03,5.08E-03
32389,5.78E-03,4.74E-03
32390,6.07E-03,4.85E-03
32391,5.97E-03,4.58E-03
32392,5.76E-03,4.64E-03
32393,5.96E-03,4.50E-03
32394,5.79E-03,4.13E-03
32395,5.47E-03,4.21E-03
32396,5.85E-03,3.97E-03
32397,5.83E-03,4.05E-03
32398,5.87E-03,3.82E-03
32399,5.88E-03,3.90E-03
32400,5.81E-03,3.68E-03
32401,5.86E-03,3.75E-03
32402,5.84E-03,3.56E-03
32403,5.78E-03,3.62E-03
32404,5.83E-03,3.46E-03
32405,5.85E-03,3.51E-03
32406,5.86E-03,3.43E-03
32407,6.22E-03,3.14E-03
32408,6.32E-03,3.16E-03
32409,6.03E-03,3.08E-03
32410,6.14E-03,3.11E-03
32411,5.98E-03,3.03E-03
32412,5.98E-03,3.05E-03
32413,6.04E-03,2.99E-03
32414,6.08E-03,3.02E-03
32415,5.69E-03,2.95E-03
32416,5.93E-03,2.98E-03
32417,5.47E-03,2.91E-03
32418,5.53E-03,2.93E-03
32419,4.83E-03,1.43E-02
32420,5.33E-03,3.93E-02
32421,5.57E-03,9.67E-03
32422,4.71E-03,2.56E-02
32423,6.05E-03,5.09E-02
32424,5.60E-03,1.52E-02
32425,5.98E-03,3.00E-02
32426,5.94E-03,3.05E-02
32427,5.96E-03,2.95E-02
32428,5.93E-03,2.67E-02
32429,5.77E-03,2.72E-02
32430,5.98E-03,2.57E-02
32431,5.94E-03,2.62E-02
32432,6.00E-03,2.46E-02
32433,5.97E-03,2.52E-02
32434,5.98E-03,2.39E-02
32435,6.02E-03,1.94E-02
32436,6.06E-03,1.95E-02
32437,6.01E-03,1.92E-02
32438,5.98E-03,1.87E-02
32439,6.32E-03,1.88E-02
32440,5.86E-03,1.85E-02
32441,5.88E-03,1.69E-02
32442,6.47E-03,1.58E-02
32443,4.51E-03,2.81E-02
32444,2.97E-03,8.37E-02
32445,6.36E-03,1.48E-02
32446,5.98E-03,4.23E-02
32447,6.28E-03,3.30E-02
32448,6.62E-03,3.21E-02
32449,6.51E-03,3.26E-02
32450,4.00E-03,4.09E-02
32451,4.44E-03,4.10E-02
32452,4.73E-03,4.07E-02
32453,4.44E-03,4.11E-02
32454,4.84E-03,3.99E-02
32455,4.84E-03,4.03E-02
32456,4.77E-03,3.94E-02
32457,6.32E-03,3.49E-02
32458,6.40E-03,3.56E-02
32459,5.96E-03,3.40E-02
32460,6.14E-03,3.44E-02
32461,6.08E-03,3.35E-02
32462,6.36E-03,3.17E-02
32463,6.50E-03,3.19E-02
32464,6.18E-03,3.15E-02
32465,6.27E-03,3.16E-02
32466,6.00E-03,3.13E-02
32467,6.07E-03,3.14E-02
32468,6.10E-03,3.10E-02
32469,6.02E-03,3.11E-02
32470,6.28E-03,3.09E-02
32471,6.41E-03,3.15E-02
32472,5.52E-03,3.18E-02
32473,5.31E-03,3.37E-02
32474,6.26E-03,4.46E-02
32475,4.81E-03,4.40E-02
32476,5.55E-03,4.64E-02
32477,5.70E-03,4.55E-02
32478,5.44E-03,4.80E-02
32479,5.43E-03,4.73E-02
32480,5.47E-03,4.93E-02
32481,5.45E-03,4.87E-02
32482,5.39E-03,5.05E-02
32483,5.42E-03,4.99E-02
32484,5.34E-03,5.17E-02
32485,5.36E-03,5.11E-02
32486,5.29E-03,5.29E-02
32487,5.31E-03,5.23E-02
32488,5.23E-03,5.41E-02
32489,5.26E-03,5.35E-02
32490,5.21E-03,5.51E-02
32491,5.22E-03,5.46E-02
32492,5.35E-03,5.60E-02
32493,5.31E-03,5.56E-02
32494,5.58E-03,5.68E-02
32495,5.51E-03,5.64E-02
32496,5.84E-03,5.73E-02
32497,5.77E-03,5.71E-02
32498,6.17E-03,5.78E-02
32499,6.07E-03,5.76E-02
32500,6.46E-03,5.82E-02
32501,6.34E-03,5.80E-02
32502,6.61E-03,5.87E-02
32503,6.61E-03,5.84E-02
32504,6.72E-03,5.93E-02
32505,6.69E-03,5.90E-02
32506,6.58E-03,6.02E-02
32507,6.65E-03,5.97E-02
32508,6.48E-03,6.15E-02
32509,6.52E-03,6.08E-02
32510,6.48E-03,6.29E-02
32511,6.51E-03,6.22E-02
32512,6.17E-03,6.43E-02
32513,6.35E-03,6.36E-02
32514,6.01E-03,6.58E-02
32515,6.13E-03,6.50E-02
32516,5.89E-03,6.73E-02
32517,5.98E-03,6.66E-02
32518,5.88E-03,6.87E-02
32519,5.89E-03,6.80E-02
32520,5.74E-03,7.02E-02
32521,5.85E-03,6.95E-02
32522,5.63E-03,7.08E-02
32523,5.50E-03,7.26E-02
32524,5.54E-03,7.35E-02
32525,5.57E-03,7.31E-02
32526,5.67E-03,7.42E-02
32527,5.65E-03,7.38E-02
32528,5.64E-03,7.47E-02
32529,5.05E-03,7.72E-02
32530,4.68E-03,7.68E-02
32531,5.84E-03,7.74E-02
32532,5.53E-03,7.73E-02
32533,6.01E-03,7.78E-02
32534,5.97E-03,7.76E-02
32535,6.02E-03,7.85E-02
32536,6.02E-03,7.82E-02
32537,5.94E-03,7.94E-02
32538,5.97E-03,7.90E-02
32539,5.95E-03,7.99E-02
32540,5.85E-03,8.39E-02
32541,5.55E-03,8.39E-02
32542,5.96E-03,8.40E-02
32543,5.96E-03,8.39E-02
32544,6.01E-03,8.41E-02
32545,6.04E-03,8.40E-02
32546,6.04E-03,8.40E-02
32547,6.07E-03,8.41E-02
32548,5.90E-03,8.38E-02
32549,5.56E-03,8.78E-02
32550,5.50E-03,8.70E-02
32551,5.70E-03,8.97E-02
32552,5.65E-03,8.88E-02
32553,5.69E-03,9.15E-02
32554,5.68E-03,9.06E-02
32555,5.69E-03,9.26E-02
32556,5.83E-03,8.72E-02
32557,5.70E-03,8.74E-02
32558,5.89E-03,8.72E-02
32559,5.29E-03,8.92E-02
32560,5.52E-03,8.87E-02
32561,5.08E-03,8.85E-02
32562,6.03E-03,2.52E-02
32563,5.13E-03,8.17E-02
32564,6.43E-03,3.34E-02
32565,5.40E-03,2.06E-02
32566,5.29E-03,1.99E-02
32567,6.01E-03,1.99E-02
32568,4.11E-03,1.97E-02
32569,6.04E-03,1.98E-02
32570,6.04E-03,2.18E-02
32571,7.42E-03,3.11E-02
32572,5.58E-03,3.22E-02
32573,5.71E-03,6.12E-03
32574,5.63E-03,4.42E-03
32575,4.27E-03,3.26E-02
32576,4.72E-03,3.28E-02
32577,4.57E-03,3.36E-02
32578,5.70E-03,3.78E-02
32579,5.64E-03,3.83E-02
32580,6.51E-03,3.69E-02
32581,6.47E-03,2.27E-02
32582,6.37E-03,2.17E-02
32583,5.82E-03,4.74E-02
32584,5.45E-03,5.90E-03
32585,5.44E-03,5.94E-03
32586,5.23E-03,5.89E-03
32587,5.66E-03,5.93E-03
32588,5.42E-03,5.83E-03
32589,5.62E-03,5.95E-03
32590,5.82E-03,6.58E-03
32591,5.72E-03,6.35E-03
32592,5.10E-03,8.18E-03
32593,5.71E-03,9.44E-03
32594,5.68E-03,9.27E-03
32595,5.92E-03,9.72E-03
32596,5.74E-03,1.05E-02
32597,5.68E-03,1.06E-02
32598,5.46E-03,1.43E-02
32599,5.56E-03,1.41E-02
32600,6.21E-03,4.10E-02
32601,5.55E-03,4.13E-02
32602,6.54E-03,4.06E-02
32603,5.09E-03,3.49E-02
32604,4.75E-03,1.53E-02
32605,4.87E-03,1.41E-02
32606,5.17E-03,3.79E-02
32607,5.33E-03,3.79E-02
32608,5.62E-03,9.85E-03
32609,5.62E-03,1.00E-02
32610,4.82E-03,2.39E-02
32611,4.57E-03,2.63E-02
32612,6.14E-03,5.52E-02
32613,6.10E-03,4.72E-02
32614,5.58E-03,1.95E-02
32615,5.65E-03,1.39E-02
32616,5.72E-03,3.16E-02
32617,5.95E-03,2.08E-02
32618,6.08E-03,2.00E-02
32619,4.62E-03,2.02E-02
32620,7.22E-03,2.01E-02
32621,6.68E-03,1.99E-02
32622,4.36E-03,1.85E-02
32623,5.94E-03,1.74E-02
32624,6.02E-03,1.65E-02
32625,7.60E-03,1.60E-02
32626,7.53E-03,1.61E-02
32627,4.75E-03,3.19E-02
32628,6.46E-03,1.53E-02
32629,6.69E-03,1.50E-02
32630,6.31E-03,3.62E-02
32631,4.69E-03,1.43E-02
32632,4.93E-03,4.32E-02
32633,5.07E-03,4.06E-02
32634,5.82E-03,4.02E-02
32635,5.88E-03,3.89E-02
32636,6.44E-03,3.22E-02
32637,7.95E-03,3.25E-02
32638,6.30E-03,3.33E-02
32639,5.97E-03,3.51E-02
32640,5.67E-03,3.48E-02
32641,5.35E-03,3.43E-02
32642,4.60E-03,4.32E-02
32643,3.90E-03,4.34E-02
32644,5.56E-03,7.36E-02
32645,5.49E-03,7.42E-02
32646,5.41E-03,8.45E-02
32647,5.55E-03,8.36E-02
32648,6.38E-03,8.29E-02
32649,5.54E-03,8.69E-02
32650,5.07E-03,9.01E-02
32651,6.57E-03,8.37E-02
32652,7.27E-03,9.12E-02
32653,4.21E-03,9.33E-02
32654,5.54E-03,9.47E-02
32655,6.47E-03,2.60E-02
32656,6.38E-03,2.40E-02
32657,5.64E-03,8.47E-02
32658,5.20E-03,8.48E-02
32659,6.86E-03,3.44E-02
32660,5.25E-03,1.88E-02
32661,5.87E-03,4.14E-02
32662,7.19E-03,2.95E-02
32663,5.71E-03,6.07E-03
32664,4.89E-03,5.99E-03
32665,6.91E-03,6.96E-03
32666,6.17E-03,6.84E-03
32667,5.66E-03,6.43E-03
32668,5.73E-03,9.61E-03
32669,7.06E-03,6.13E-03
32670,4.22E-03,3.51E-02
32671,4.04E-03,4.24E-03
32672,4.97E-03,4.34E-03
32673,6.13E-03,3.26E-03
32674,6.36E-03,3.02E-03
32675,6.28E-03,3.04E-03
32676,5.59E-03,2.71E-03
32677,4.94E-03,1.38E-02
32678,5.05E-03,3.65E-02
32679,5.35E-03,3.67E-02
32680,5.59E-03,1.01E-02
32681,5.62E-03,1.07E-02
32682,4.88E-03,2.23E-02
32683,4.49E-03,2.70E-02
32684,6.22E-03,5.99E-02
32685,6.40E-03,4.31E-02
32686,5.64E-03,2.41E-02
32687,5.75E-03,1.27E-02
32688,5.68E-03,2.22E-02
32689,5.85E-03,2.24E-02
32690,5.36E-03,2.21E-02
32691,5.19E-03,2.10E-02
32692,6.75E-03,1.76E-02
32693,6.87E-03,1.73E-02
32694,6.47E-03,1.50E-02
32695,6.80E-03,1.58E-02
32696,5.22E-03,4.51E-02
32697,5.57E-03,4.16E-02
32698,5.04E-03,3.29E-02
32699,5.23E-03,3.35E-02
32700,4.88E-03,3.37E-02
32701,4.22E-03,3.42E-02
32702,5.77E-03,3.45E-02
32703,3.48E-03,8.93E-02
32704,6.39E-03,2.66E-02
32705,7.08E-03,2.28E-02
32706,5.35E-03,8.69E-02
32707,6.50E-03,3.54E-02
32708,5.30E-03,1.77E-02
32709,4.66E-03,3.38E-02
32710,4.46E-03,9.13E-02
32711,5.33E-03,9.54E-02
32712,6.22E-03,6.32E-03
32713,5.90E-03,6.29E-03
32714,5.35E-03,6.50E-03
32715,4.91E-03,1.35E-02
32716,4.85E-03,3.51E-02
32717,5.40E-03,3.55E-02
32718,5.54E-03,1.04E-02
32719,5.56E-03,1.16E-02
32720,4.89E-03,2.08E-02
32721,4.22E-03,2.76E-02
32722,6.12E-03,6.47E-02
32723,7.07E-03,3.81E-02
32724,5.94E-03,2.91E-02
32725,5.91E-03,1.16E-02
32726,3.38E-03,1.47E-02
32727,6.27E-03,2.74E-02
32728,5.00E-03,1.67E-02
32729,5.87E-03,6.52E-03
32730,4.86E-03,1.33E-02
32731,5.40E-03,3.43E-02
32732,5.44E-03,1.08E-02
32733,5.44E-03,1.26E-02
32734,4.93E-03,1.93E-02
32735,4.24E-03,2.84E-02
32736,6.18E-03,6.95E-02
32737,6.16E-03,1.06E-02
32738,6.19E-03,2.82E-02
32739,6.22E-03,2.13E-02
32740,6.34E-03,1.27E-02
32741,6.39E-03,1.29E-02
32742,4.78E-03,1.30E-02
32743,5.42E-03,3.32E-02
32744,5.29E-03,1.11E-02
32745,5.35E-03,1.38E-02
32746,5.00E-03,1.79E-02
32747,4.46E-03,2.91E-02
32748,7.32E-03,8.48E-02
32749,7.40E-03,9.12E-02
32750,6.15E-03,7.44E-02
32751,6.52E-03,1.18E-02
32752,6.89E-03,1.29E-02
32753,6.39E-03,1.12E-02
32754,6.19E-03,9.92E-03
32755,5.97E-03,2.91E-02
32756,5.58E-03,6.17E-03
32757,5.53E-03,6.24E-03
32758,4.77E-03,1.27E-02
32759,5.12E-03,1.16E-02
32760,5.25E-03,1.51E-02
32761,5.11E-03,1.64E-02
32762,7.40E-03,7.43E-02
32763,6.61E-03,8.50E-02
32764,6.26E-03,7.96E-02
32765,6.98E-03,9.70E-03
32766,5.78E-03,3.00E-02
32767,4.82E-03,1.23E-02
32768,4.96E-03,1.20E-02
32769,4.18E-03,3.02E-02
32770,6.94E-03,6.40E-02
32771,7.51E-03,4.21E-02
32772,5.61E-03,3.10E-02
32773,5.61E-03,6.30E-03
32774,5.63E-03,4.21E-03
32775,5.71E-03,4.44E-03
32776,4.24E-03,3.13E-02
32777,7.00E-03,5.30E-02
32778,5.65E-03,3.79E-02
32779,6.33E-03,3.73E-02
32780,7.25E-03,3.95E-02
32781,6.59E-03,2.41E-02
32782,5.94E-03,1.91E-02
32783,6.14E-03,2.04E-02
32784,5.66E-03,1.64E-02
32785,5.77E-03,1.78E-02
32786,5.93E-03,1.36E-02
32787,5.73E-03,1.50E-02
32788,6.33E-03,1.25E-02
32789,5.44E-03,5.42E-02
32790,5.56E-03,5.06E-02
32791,5.38E-03,6.19E-02
32792,5.46E-03,5.80E-02
32793,5.86E-03,7.18E-02
32794,5.31E-03,6.69E-02
32795,4.32E-03,7.95E-02
32796,5.33E-03,7.60E-02
32797,4.53E-03,8.45E-02
32798,5.51E-03,5.89E-03
32799,5.52E-03,5.90E-03
32800,5.41E-03,5.89E-03
32801,5.55E-03,5.87E-03
32802,5.63E-03,6.03E-03
32803,5.67E-03,6.47E-03
32804,5.92E-03,7.54E-03
32805,5.85E-03,7.39E-03
32806,5.69E-03,7.83E-03
32807,5.75E-03,7.69E-03
32808,5.24E-03,7.96E-03
32809,5.54E-03,8.43E-03
32810,5.41E-03,8.31E-03
32811,5.69E-03,8.69E-03
32812,5.68E-03,8.56E-03
32813,5.70E-03,8.97E-03
32814,5.71E-03,8.82E-03
32815,5.70E-03,9.12E-03
32816,5.97E-03,1.01E-02
32817,5.93E-03,9.90E-03
32818,5.89E-03,1.03E-02
32819,5.36E-03,1.05E-02
32820,5.38E-03,1.08E-02
32821,6.22E-03,1.18E-02
32822,6.07E-03,1.16E-02
32823,6.21E-03,1.22E-02
32824,6.25E-03,1.20E-02
32825,6.30E-03,1.25E-02
32826,6.52E-03,1.35E-02
32827,6.68E-03,1.33E-02
32828,6.42E-03,1.39E-02
32829,5.40E-03,3.31E-03
32830,5.44E-03,3.09E-03
32831,5.42E-03,3.76E-03
32832,5.39E-03,3.53E-03
32833,5.53E-03,3.98E-03
32834,5.95E-03,4.65E-03
32835,5.57E-03,5.37E-03
32836,5.24E-03,5.15E-03
32837,5.45E-03,5.59E-03
32838,5.46E-03,4.27E-02
32839,5.86E-03,4.30E-02
32840,5.64E-03,4.20E-02
32841,5.53E-03,4.24E-02
32842,5.73E-03,4.17E-02
32843,6.16E-03,3.95E-02
32844,6.27E-03,4.00E-02
32845,6.19E-03,3.85E-02
32846,6.19E-03,3.90E-02
32847,6.11E-03,3.74E-02
32848,6.20E-03,3.80E-02
32849,5.94E-03,3.64E-02
32850,6.08E-03,3.69E-02
32851,5.45E-03,3.61E-02
32852,5.95E-03,3.38E-02
32853,5.78E-03,3.44E-02
32854,6.33E-03,3.26E-02
32855,6.26E-03,3.32E-02
32856,6.52E-03,3.14E-02
32857,6.55E-03,3.20E-02
32858,6.56E-03,3.08E-02
32859,6.38E-03,2.91E-02
32860,6.43E-03,2.97E-02
32861,6.20E-03,2.80E-02
32862,6.28E-03,2.85E-02
32863,6.04E-03,2.69E-02
32864,6.08E-03,2.74E-02
32865,6.09E-03,2.58E-02
32866,6.08E-03,2.63E-02
32867,6.22E-03,2.48E-02
32868,6.13E-03,2.53E-02
32869,6.28E-03,2.38E-02
32870,6.23E-03,2.43E-02
32871,6.32E-03,2.28E-02
32872,6.31E-03,2.33E-02
32873,6.07E-03,2.19E-02
32874,6.21E-03,2.23E-02
32875,6.00E-03,2.09E-02
32876,6.04E-03,2.14E-02
32877,6.01E-03,1.92E-02
32878,6.07E-03,1.96E-02
32879,5.91E-03,1.83E-02
32880,5.93E-03,1.88E-02
32881,5.93E-03,1.75E-02
32882,5.94E-03,1.79E-02
32883,6.01E-03,1.67E-02
32884,6.03E-03,1.71E-02
32885,6.09E-03,1.60E-02
32886,6.06E-03,1.63E-02
32887,6.11E-03,1.52E-02
32888,6.12E-03,1.56E-02
32889,6.20E-03,1.45E-02
32890,6.18E-03,1.48E-02
32891,6.37E-03,1.38E-02
32892,6.27E-03,1.41E-02
32893,6.30E-03,1.31E-02
32894,6.38E-03,1.34E-02
32895,6.01E-03,1.24E-02
32896,6.15E-03,1.28E-02
32897,5.94E-03,1.18E-02
32898,5.97E-03,1.21E-02
32899,6.07E-03,1.12E-02
32900,6.03E-03,1.15E-02
32901,6.25E-03,1.06E-02
32902,6.17E-03,1.09E-02
32903,6.26E-03,1.01E-02
32904,6.32E-03,1.04E-02
32905,6.17E-03,9.55E-03
32906,6.16E-03,9.82E-03
32907,6.28E-03,9.02E-03
32908,6.25E-03,9.28E-03
32909,6.49E-03,8.55E-03
32910,6.43E-03,8.78E-03
32911,6.41E-03,8.10E-03
32912,6.48E-03,8.33E-03
32913,6.25E-03,7.65E-03
32914,6.34E-03,7.87E-03
32915,6.25E-03,7.22E-03
32916,6.21E-03,7.44E-03
32917,6.79E-03,7.01E-03
32918,5.96E-03,6.45E-03
32919,6.16E-03,6.64E-03
32920,6.71E-03,6.12E-03
32921,6.38E-03,6.25E-03
32922,6.68E-03,5.76E-03
32923,6.69E-03,5.93E-03
32924,6.52E-03,5.46E-03
32925,6.64E-03,5.61E-03
32926,6.31E-03,5.19E-03
32927,6.43E-03,5.32E-03
32928,6.09E-03,4.94E-03
32929,6.17E-03,5.06E-03
32930,5.91E-03,4.70E-03
32931,6.00E-03,4.82E-03
32932,6.02E-03,4.51E-03
32933,5.97E-03,4.60E-03
32934,5.82E-03,4.44E-03
32935,5.84E-03,4.06E-03
32936,5.76E-03,4.17E-03
32937,5.89E-03,3.89E-03
32938,5.88E-03,3.98E-03
32939,5.91E-03,3.73E-03
32940,5.90E-03,3.81E-03
32941,5.86E-03,3.58E-03
32942,5.86E-03,3.66E-03
32943,5.85E-03,3.45E-03
32944,5.81E-03,3.52E-03
32945,5.93E-03,3.34E-03
32946,5.89E-03,3.39E-03
32947,5.97E-03,3.30E-03
32948,6.15E-03,2.96E-03
32949,6.20E-03,2.99E-03
32950,6.04E-03,2.90E-03
32951,6.11E-03,2.93E-03
32952,5.99E-03,2.84E-03
32953,6.00E-03,2.86E-03
32954,5.97E-03,2.79E-03
32955,5.96E-03,2.81E-03
32956,5.70E-03,2.76E-03
32957,5.84E-03,2.78E-03
32958,5.62E-03,2.74E-03
32959,4.88E-03,1.47E-02
32960,5.28E-03,3.79E-02
32961,5.66E-03,9.94E-03
32962,4.78E-03,2.51E-02
32963,6.11E-03,5.13E-02
32964,5.62E-03,1.66E-02
32965,5.84E-03,3.06E-02
32966,5.84E-03,3.11E-02
32967,5.94E-03,2.97E-02
32968,5.71E-03,3.02E-02
32969,5.74E-03,2.83E-02
32970,4.85E-03,2.86E-02
32971,5.79E-03,2.76E-02
32972,5.62E-03,2.80E-02
32973,5.94E-03,2.67E-02
32974,5.88E-03,2.72E-02
32975,6.09E-03,2.57E-02
32976,5.98E-03,2.62E-02
32977,6.10E-03,2.43E-02
32978,6.07E-03,2.50E-02
32979,6.11E-03,2.05E-02
32980,6.07E-03,2.06E-02
32981,6.04E-03,2.03E-02
32982,4.84E-03,2.07E-02
32983,4.53E-03,2.05E-02
32984,6.22E-03,1.96E-02
32985,6.47E-03,1.98E-02
32986,6.09E-03,1.91E-02
32987,6.08E-03,1.95E-02
32988,6.90E-03,1.78E-02
32989,6.77E-03,1.81E-02
32990,6.15E-03,1.76E-02
32991,6.68E-03,1.63E-02
32992,4.57E-03,3.10E-02
32993,3.22E-03,9.16E-02
32994,6.59E-03,1.52E-02
32995,5.38E-03,1.40E-02
32996,8.32E-03,3.20E-02
32997,5.68E-03,2.27E-02
32998,6.45E-03,3.42E-02
32999,6.36E-03,3.46E-02
33000,4.45E-03,2.03E-02
33001,5.92E-03,2.21E-02
33002,4.62E-03,1.81E-02
33003,4.04E-03,0.101
33004,4.61E-03,1.41E-02
33005,4.68E-03,4.35E-02
33006,5.06E-03,4.32E-02
33007,4.74E-03,4.32E-02
33008,4.61E-03,4.35E-02
33009,4.92E-03,4.23E-02
33010,4.87E-03,4.28E-02
33011,5.01E-03,4.16E-02
33012,6.05E-03,3.72E-02
33013,6.06E-03,3.80E-02
33014,6.06E-03,3.60E-02
33015,6.05E-03,3.65E-02
33016,6.13E-03,3.55E-02
33017,6.34E-03,3.37E-02
33018,6.40E-03,3.39E-02
33019,6.14E-03,3.34E-02
33020,6.20E-03,3.35E-02
33021,6.02E-03,3.30E-02
33022,6.04E-03,3.32E-02
33023,6.06E-03,3.26E-02
33024,6.04E-03,3.28E-02
33025,6.27E-03,3.24E-02
33026,6.19E-03,3.27E-02
33027,5.49E-03,3.30E-02
33028,5.47E-03,3.45E-02
33029,4.99E-03,4.38E-02
33030,5.57E-03,4.57E-02
33031,5.23E-03,4.49E-02
33032,5.64E-03,4.72E-02
33033,5.73E-03,4.64E-02
33034,5.55E-03,4.89E-02
33035,5.59E-03,4.81E-02
33036,5.48E-03,5.02E-02
33037,5.46E-03,4.96E-02
33038,5.38E-03,5.14E-02
33039,5.37E-03,5.08E-02
33040,5.35E-03,5.26E-02
33041,5.37E-03,5.20E-02
33042,5.30E-03,5.39E-02
33043,5.34E-03,5.32E-02
33044,5.20E-03,5.51E-02
33045,5.27E-03,5.45E-02
33046,5.21E-03,5.62E-02
33047,5.22E-03,5.57E-02
33048,5.36E-03,5.72E-02
33049,5.29E-03,5.67E-02
33050,5.55E-03,5.80E-02
33051,5.51E-03,5.76E-02
33052,5.82E-03,5.86E-02
33053,5.77E-03,5.83E-02
33054,6.15E-03,5.91E-02
33055,6.08E-03,5.89E-02
33056,6.47E-03,5.96E-02
33057,6.29E-03,5.94E-02
33058,6.58E-03,6.01E-02
33059,6.53E-03,5.98E-02
33060,6.64E-03,6.08E-02
33061,6.62E-03,6.04E-02
33062,6.58E-03,6.17E-02
33063,6.62E-03,6.12E-02
33064,6.45E-03,6.31E-02
33065,6.55E-03,6.24E-02
33066,6.36E-03,6.46E-02
33067,6.45E-03,6.38E-02
33068,6.19E-03,6.61E-02
33069,6.25E-03,6.53E-02
33070,6.03E-03,6.77E-02
33071,6.10E-03,6.69E-02
33072,5.92E-03,6.93E-02
33073,6.02E-03,6.85E-02
33074,5.86E-03,7.08E-02
33075,5.91E-03,7.01E-02
33076,5.76E-03,7.23E-02
33077,5.83E-03,7.16E-02
33078,5.62E-03,7.29E-02
33079,5.61E-03,7.57E-02
33080,5.49E-03,7.47E-02
33081,5.58E-03,7.52E-02
33082,5.70E-03,7.65E-02
33083,5.68E-03,7.61E-02
33084,6.40E-03,7.72E-02
33085,5.86E-03,7.69E-02
33086,5.16E-03,7.81E-02
33087,5.83E-03,7.75E-02
33088,5.33E-03,7.95E-02
33089,5.07E-03,7.90E-02
33090,5.72E-03,8.01E-02
33091,5.51E-03,7.98E-02
33092,5.95E-03,8.06E-02
33093,5.86E-03,8.03E-02
33094,5.92E-03,8.13E-02
33095,5.97E-03,8.09E-02
33096,5.82E-03,8.23E-02
33097,5.87E-03,8.18E-02
33098,5.76E-03,8.28E-02
33099,5.81E-03,8.42E-02
33100,4.89E-03,8.78E-02
33101,5.64E-03,8.77E-02
33102,5.39E-03,8.77E-02
33103,5.89E-03,8.78E-02
33104,5.80E-03,8.78E-02
33105,5.97E-03,8.79E-02
33106,5.98E-03,8.78E-02
33107,6.11E-03,8.79E-02
33108,6.08E-03,8.79E-02
33109,6.05E-03,8.76E-02
33110,5.53E-03,9.19E-02
33111,5.33E-03,9.09E-02
33112,5.58E-03,9.41E-02
33113,5.58E-03,9.30E-02
33114,5.39E-03,9.60E-02
33115,5.56E-03,9.51E-02
33116,5.15E-03,9.69E-02
33117,5.74E-03,9.55E-02
33118,5.51E-03,0.10171
33119,6.07E-03,9.22E-02
33120,6.44E-03,9.16E-02
33121,5.98E-03,9.29E-02
33122,5.96E-03,9.26E-02
33123,5.94E-03,9.36E-02
33124,5.92E-03,9.32E-02
33125,5.74E-03,9.50E-02
33126,5.78E-03,9.42E-02
33127,5.53E-03,9.59E-02
33128,5.60E-03,9.57E-02
33129,5.48E-03,9.55E-02
33130,6.38E-03,2.51E-02
33131,5.81E-03,8.53E-02
33132,6.77E-03,3.46E-02
33133,6.85E-03,3.46E-02
33134,5.01E-03,2.02E-02
33135,5.20E-03,1.95E-02
33136,5.61E-03,2.11E-02
33137,5.20E-03,2.09E-02
33138,5.46E-03,4.00E-02
33139,5.77E-03,4.08E-02
33140,6.85E-03,4.00E-02
33141,6.61E-03,2.56E-02
33142,6.54E-03,2.48E-02
33143,6.23E-03,1.39E-02
33144,7.13E-03,3.09E-02
33145,6.31E-03,4.22E-02
33146,5.69E-03,6.08E-03
33147,5.60E-03,6.12E-03
33148,5.23E-03,6.01E-03
33149,5.45E-03,6.13E-03
33150,5.97E-03,6.73E-03
33151,5.73E-03,6.52E-03
33152,5.50E-03,8.28E-03
33153,5.80E-03,9.79E-03
33154,5.81E-03,1.07E-02
33155,6.07E-03,1.39E-02
33156,6.78E-03,6.38E-03
33157,6.07E-03,6.19E-03
33158,6.06E-03,4.03E-02
33159,5.90E-03,4.06E-02
33160,6.25E-03,3.99E-02
33161,5.53E-03,2.86E-03
33162,5.66E-03,2.66E-03
33163,4.86E-03,1.57E-02
33164,4.97E-03,1.45E-02
33165,5.12E-03,3.65E-02
33166,5.30E-03,3.66E-02
33167,5.67E-03,1.02E-02
33168,5.68E-03,1.05E-02
33169,4.86E-03,2.35E-02
33170,4.55E-03,2.58E-02
33171,6.18E-03,5.57E-02
33172,6.21E-03,4.74E-02
33173,5.57E-03,2.10E-02
33174,5.69E-03,1.53E-02
33175,5.20E-03,3.31E-02
33176,6.32E-03,2.28E-02
33177,6.04E-03,2.20E-02
33178,5.92E-03,2.13E-02
33179,4.92E-03,2.13E-02
33180,6.22E-03,1.80E-02
33181,6.46E-03,1.71E-02
33182,7.06E-03,1.65E-02
33183,6.71E-03,1.67E-02
33184,7.13E-03,1.52E-02
33185,4.50E-03,3.62E-02
33186,4.77E-03,3.55E-02
33187,6.77E-03,1.57E-02
33188,4.34E-03,1.47E-02
33189,5.12E-03,4.55E-02
33190,5.56E-03,4.29E-02
33191,5.71E-03,4.24E-02
33192,5.78E-03,4.12E-02
33193,6.02E-03,3.36E-02
33194,7.00E-03,3.41E-02
33195,6.65E-03,3.45E-02
33196,5.51E-03,3.58E-02
33197,5.67E-03,3.56E-02
33198,5.57E-03,3.50E-02
33199,5.70E-03,8.61E-02
33200,4.56E-03,9.04E-02
33201,4.80E-03,9.40E-02
33202,4.23E-03,0.10227
33203,6.37E-03,2.57E-02
33204,6.22E-03,2.39E-02
33205,6.78E-03,8.80E-02
33206,6.86E-03,3.57E-02
33207,5.33E-03,1.84E-02
33208,4.62E-03,3.25E-02
33209,5.03E-03,0.10136
33210,6.25E-03,4.38E-02
33211,3.49E-03,3.67E-02
33212,6.63E-03,1.54E-02
33213,4.80E-03,1.66E-02
33214,4.63E-03,1.44E-02
33215,6.72E-03,8.68E-02
33216,6.63E-03,9.53E-02
33217,5.76E-03,6.27E-03
33218,6.42E-03,7.11E-03
33219,6.18E-03,6.99E-03
33220,5.68E-03,6.59E-03
33221,5.48E-03,9.34E-03
33222,5.52E-03,9.50E-03
33223,4.97E-03,1.42E-02
33224,4.99E-03,3.51E-02
33225,5.29E-03,3.54E-02
33226,5.56E-03,1.06E-02
33227,5.66E-03,1.13E-02
33228,4.88E-03,2.19E-02
33229,4.47E-03,2.64E-02
33230,6.16E-03,6.04E-02
33231,6.33E-03,4.34E-02
33232,5.72E-03,2.58E-02
33233,5.81E-03,1.40E-02
33234,4.63E-03,3.39E-02
33235,4.83E-03,2.31E-02
33236,5.86E-03,2.35E-02
33237,5.33E-03,2.34E-02
33238,6.46E-03,2.11E-02
33239,5.56E-03,2.11E-02
33240,6.24E-03,1.81E-02
33241,6.04E-03,1.84E-02
33242,7.11E-03,1.64E-02
33243,4.47E-03,3.51E-02
33244,5.31E-03,3.50E-02
33245,5.28E-03,8.64E-02
33246,4.31E-03,8.69E-02
33247,4.68E-03,9.32E-02
33248,4.31E-03,9.24E-02
33249,5.17E-03,0.10512
33250,6.29E-03,2.64E-02
33251,6.08E-03,3.63E-02
33252,5.33E-03,1.72E-02
33253,5.74E-03,6.64E-03
33254,4.91E-03,1.39E-02
33255,4.77E-03,3.37E-02
33256,5.37E-03,3.42E-02
33257,5.50E-03,1.09E-02
33258,5.54E-03,1.23E-02
33259,4.92E-03,2.04E-02
33260,4.29E-03,2.71E-02
33261,6.18E-03,6.52E-02
33262,5.68E-03,3.49E-02
33263,5.68E-03,3.93E-02
33264,5.45E-03,1.20E-02
33265,5.40E-03,1.26E-02
33266,5.02E-03,1.16E-02
33267,5.54E-03,3.07E-02
33268,5.97E-03,1.27E-02
33269,5.11E-03,1.89E-02
33270,4.47E-03,4.88E-02
33271,5.40E-03,4.69E-02
33272,5.91E-03,4.40E-02
33273,6.25E-03,2.71E-02
33274,5.42E-03,2.26E-02
33275,5.01E-03,2.18E-02
33276,5.98E-03,6.59E-03
33277,6.41E-03,6.68E-03
33278,6.12E-03,1.26E-02
33279,6.27E-03,1.28E-02
33280,4.83E-03,1.37E-02
33281,5.42E-03,3.31E-02
33282,5.38E-03,1.14E-02
33283,5.42E-03,1.35E-02
33284,4.98E-03,1.89E-02
33285,4.60E-03,2.78E-02
33286,7.42E-03,9.16E-02
33287,6.39E-03,8.52E-02
33288,6.57E-03,9.10E-02
33289,6.14E-03,7.00E-02
33290,6.03E-03,1.08E-02
33291,4.07E-03,1.63E-02
33292,6.68E-03,1.94E-02
33293,6.06E-03,1.15E-02
33294,6.04E-03,2.80E-02
33295,4.88E-03,2.08E-02
33296,5.65E-03,6.36E-03
33297,5.41E-03,6.43E-03
33298,5.02E-03,6.60E-03
33299,4.79E-03,1.34E-02
33300,5.49E-03,3.20E-02
33301,5.21E-03,1.18E-02
33302,5.28E-03,1.48E-02
33303,5.07E-03,1.75E-02
33304,7.74E-03,7.80E-02
33305,6.62E-03,8.55E-02
33306,6.19E-03,7.49E-02
33307,6.32E-03,1.03E-02
33308,7.17E-03,2.67E-02
33309,6.32E-03,1.06E-02
33310,5.10E-03,4.31E-02
33311,5.32E-03,4.47E-02
33312,5.45E-03,4.37E-02
33313,5.90E-03,2.89E-02
33314,4.87E-03,3.58E-02
33315,4.82E-03,1.30E-02
33316,5.04E-03,1.23E-02
33317,5.21E-03,1.61E-02
33318,4.50E-03,2.89E-02
33319,6.85E-03,6.83E-02
33320,6.32E-03,8.00E-02
33321,6.62E-03,1.01E-02
33322,7.56E-03,3.65E-02
33323,5.66E-03,2.99E-02
33324,5.13E-03,6.46E-03
33325,5.70E-03,4.22E-03
33326,5.88E-03,4.46E-03
33327,4.88E-03,1.27E-02
33328,4.23E-03,3.00E-02
33329,6.91E-03,5.77E-02
33330,7.09E-03,4.71E-02
33331,4.12E-03,4.23E-02
33332,4.17E-03,4.32E-02
33333,5.66E-03,4.03E-02
33334,6.11E-03,2.68E-02
33335,5.87E-03,2.18E-02
33336,6.05E-03,2.32E-02
33337,5.72E-03,1.92E-02
33338,5.78E-03,2.06E-02
33339,5.98E-03,1.64E-02
33340,5.83E-03,1.78E-02
33341,6.14E-03,1.51E-02
33342,5.34E-03,2.11E-02
33343,5.28E-03,1.87E-02
33344,5.33E-03,3.51E-02
33345,5.46E-03,4.94E-02
33346,5.76E-03,4.58E-02
33347,5.47E-03,5.70E-02
33348,5.49E-03,5.30E-02
33349,5.46E-03,6.57E-02
33350,5.57E-03,6.12E-02
33351,5.43E-03,7.47E-02
33352,5.37E-03,6.98E-02
33353,5.95E-03,8.08E-02
33354,5.61E-03,6.08E-03
33355,5.63E-03,6.08E-03
33356,5.31E-03,6.08E-03
33357,5.49E-03,6.08E-03
33358,5.57E-03,6.06E-03
33359,5.45E-03,6.21E-03
33360,5.86E-03,6.63E-03
33361,6.44E-03,7.22E-03
33362,5.81E-03,7.65E-03
33363,5.90E-03,7.51E-03
33364,5.52E-03,7.93E-03
33365,5.60E-03,7.79E-03
33366,5.44E-03,8.22E-03
33367,5.33E-03,8.08E-03
33368,5.66E-03,8.53E-03
33369,5.59E-03,8.41E-03
33370,5.67E-03,8.78E-03
33371,5.68E-03,8.66E-03
33372,5.62E-03,9.05E-03
33373,5.65E-03,8.92E-03
33374,5.56E-03,9.20E-03
33375,5.87E-03,1.01E-02
33376,5.91E-03,9.97E-03
33377,6.02E-03,1.03E-02
33378,5.38E-03,1.08E-02
33379,6.44E-03,1.17E-02
33380,6.54E-03,1.15E-02
33381,6.15E-03,1.22E-02
33382,6.29E-03,1.19E-02
33383,6.16E-03,1.24E-02
33384,6.50E-03,1.34E-02
33385,6.47E-03,1.32E-02
33386,6.30E-03,1.37E-02
33387,5.47E-03,3.30E-03
33388,5.48E-03,3.08E-03
33389,5.48E-03,3.75E-03
33390,5.43E-03,3.52E-03
33391,5.58E-03,3.99E-03
33392,6.90E-03,4.91E-03
33393,6.21E-03,4.67E-03
33394,5.67E-03,5.39E-03
33395,6.63E-03,5.15E-03
33396,5.58E-03,5.81E-03
33397,5.46E-03,5.60E-03
33398,5.60E-03,6.01E-03
33399,6.63E-03,6.39E-03
33400,5.02E-03,4.25E-02
33401,4.88E-03,4.27E-02
33402,5.50E-03,4.19E-02
33403,5.36E-03,4.22E-02
33404,5.65E-03,4.13E-02
33405,5.61E-03,4.16E-02
33406,5.71E-03,4.10E-02
33407,6.20E-03,3.90E-02
33408,6.27E-03,3.94E-02
33409,6.23E-03,3.80E-02
33410,6.21E-03,3.85E-02
33411,6.19E-03,3.70E-02
33412,6.22E-03,3.75E-02
33413,6.16E-03,3.59E-02
33414,6.14E-03,3.65E-02
33415,6.36E-03,3.48E-02
33416,6.68E-03,3.54E-02
33417,6.17E-03,3.35E-02
33418,6.15E-03,3.41E-02
33419,6.41E-03,3.24E-02
33420,6.32E-03,3.30E-02
33421,6.57E-03,3.13E-02
33422,6.51E-03,3.18E-02
33423,6.49E-03,3.01E-02
33424,6.58E-03,3.07E-02
33425,6.32E-03,2.90E-02
33426,6.42E-03,2.95E-02
33427,6.17E-03,2.79E-02
33428,6.26E-03,2.85E-02
33429,6.06E-03,2.69E-02
33430,6.12E-03,2.74E-02
33431,6.10E-03,2.58E-02
33432,6.08E-03,2.63E-02
33433,6.14E-03,2.48E-02
33434,6.14E-03,2.53E-02
33435,6.25E-03,2.38E-02
33436,6.20E-03,2.43E-02
33437,6.20E-03,2.29E-02
33438,6.24E-03,2.33E-02
33439,6.07E-03,2.20E-02
33440,6.15E-03,2.24E-02
33441,5.93E-03,2.11E-02
33442,6.01E-03,2.15E-02
33443,5.94E-03,2.06E-02
33444,5.89E-03,1.94E-02
33445,5.94E-03,1.98E-02
33446,5.85E-03,1.85E-02
33447,5.85E-03,1.89E-02
33448,5.92E-03,1.77E-02
33449,5.86E-03,1.81E-02
33450,5.97E-03,1.69E-02
33451,5.96E-03,1.73E-02
33452,6.01E-03,1.61E-02
33453,6.01E-03,1.65E-02
33454,6.10E-03,1.54E-02
33455,6.06E-03,1.58E-02
33456,6.20E-03,1.47E-02
33457,6.16E-03,1.50E-02
33458,6.26E-03,1.40E-02
33459,6.24E-03,1.43E-02
33460,6.17E-03,1.33E-02
33461,6.24E-03,1.36E-02
33462,6.00E-03,1.26E-02
33463,6.08E-03,1.29E-02
33464,6.01E-03,1.20E-02
33465,5.98E-03,1.23E-02
33466,6.08E-03,1.14E-02
33467,6.07E-03,1.17E-02
33468,6.24E-03,1.08E-02
33469,6.13E-03,1.11E-02
33470,6.24E-03,1.02E-02
33471,6.29E-03,1.05E-02
33472,6.13E-03,9.71E-03
33473,6.13E-03,9.97E-03
33474,6.25E-03,9.17E-03
33475,6.19E-03,9.44E-03
33476,6.41E-03,8.68E-03
33477,6.33E-03,8.92E-03
33478,6.47E-03,8.21E-03
33479,6.44E-03,8.45E-03
33480,6.34E-03,7.75E-03
33481,6.39E-03,7.98E-03
33482,6.42E-03,7.30E-03
33483,6.33E-03,7.52E-03
33484,6.50E-03,7.10E-03
33485,6.36E-03,6.51E-03
33486,6.40E-03,6.72E-03
33487,6.60E-03,6.16E-03
33488,6.48E-03,6.31E-03
33489,6.50E-03,5.81E-03
33490,6.56E-03,5.98E-03
33491,6.43E-03,5.49E-03
33492,6.47E-03,5.64E-03
33493,6.28E-03,5.20E-03
33494,6.40E-03,5.34E-03
33495,6.12E-03,4.94E-03
33496,6.18E-03,5.07E-03
33497,6.01E-03,4.70E-03
33498,6.06E-03,4.81E-03
33499,6.25E-03,4.47E-03
33500,6.07E-03,4.58E-03
33501,4.90E-03,4.22E-03
33502,6.70E-03,4.38E-03
33503,5.90E-03,4.02E-03
33504,5.82E-03,4.13E-03
33505,5.92E-03,3.84E-03
33506,5.93E-03,3.93E-03
33507,5.92E-03,3.66E-03
33508,5.92E-03,3.75E-03
33509,5.85E-03,3.51E-03
33510,5.85E-03,3.58E-03
33511,5.87E-03,3.36E-03
33512,5.83E-03,3.43E-03
33513,5.98E-03,3.24E-03
33514,5.90E-03,3.30E-03
33515,6.23E-03,3.14E-03
33516,6.05E-03,3.18E-03
33517,6.15E-03,2.87E-03
33518,6.05E-03,2.91E-03
33519,6.07E-03,2.80E-03
33520,6.11E-03,2.84E-03
33521,5.93E-03,2.72E-03
33522,5.97E-03,2.76E-03
33523,5.90E-03,2.65E-03
33524,5.87E-03,2.68E-03
33525,5.91E-03,2.60E-03
33526,5.86E-03,2.63E-03
33527,5.70E-03,2.57E-03
33528,5.82E-03,2.59E-03
33529,5.60E-03,2.52E-03
33530,5.66E-03,2.55E-03
33531,5.67E-03,2.46E-03
33532,5.64E-03,2.49E-03
33533,4.95E-03,1.51E-02
33534,5.24E-03,3.65E-02
33535,5.68E-03,1.04E-02
33536,4.64E-03,2.46E-02
33537,6.14E-03,5.15E-02
33538,5.62E-03,1.81E-02
33539,5.79E-03,3.12E-02
33540,5.77E-03,3.16E-02
33541,5.71E-03,3.02E-02
33542,5.86E-03,3.07E-02
33543,5.27E-03,2.96E-02
33544,5.28E-03,2.99E-02
33545,5.69E-03,2.90E-02
33546,4.92E-03,2.94E-02
33547,5.68E-03,2.84E-02
33548,5.63E-03,2.87E-02
33549,5.88E-03,2.77E-02
33550,5.78E-03,2.81E-02
33551,6.03E-03,2.68E-02
33552,5.90E-03,2.73E-02
33553,6.20E-03,2.54E-02
33554,6.12E-03,2.61E-02
33555,6.46E-03,2.47E-02
33556,7.25E-03,2.33E-02
33557,6.19E-03,2.17E-02
33558,6.32E-03,2.19E-02
33559,6.08E-03,2.15E-02
33560,5.40E-03,2.19E-02
33561,5.21E-03,2.16E-02
33562,6.34E-03,2.07E-02
33563,6.43E-03,2.09E-02
33564,6.92E-03,1.99E-02
33565,6.29E-03,2.04E-02
33566,7.21E-03,1.96E-02
33567,6.66E-03,1.87E-02
33568,6.59E-03,1.90E-02
33569,6.37E-03,1.83E-02
33570,6.69E-03,1.68E-02
33571,7.04E-03,1.54E-02
33572,4.89E-03,3.46E-02
33573,4.92E-03,3.36E-02
33574,3.61E-03,9.82E-02
33575,5.70E-03,0.10354
33576,5.23E-03,0.10477
33577,6.85E-03,1.56E-02
33578,6.15E-03,1.40E-02
33579,4.81E-03,1.46E-02
33580,4.97E-03,4.60E-02
33581,5.07E-03,4.59E-02
33582,4.87E-03,4.56E-02
33583,4.85E-03,4.59E-02
33584,5.06E-03,4.46E-02
33585,4.95E-03,4.52E-02
33586,5.17E-03,4.39E-02
33587,5.91E-03,3.94E-02
33588,5.92E-03,4.02E-02
33589,6.06E-03,3.81E-02
33590,5.98E-03,3.87E-02
33591,6.11E-03,3.76E-02
33592,6.35E-03,3.64E-02
33593,6.30E-03,3.67E-02
33594,6.26E-03,3.58E-02
33595,6.34E-03,3.60E-02
33596,6.07E-03,3.54E-02
33597,6.16E-03,3.56E-02
33598,6.05E-03,3.49E-02
33599,5.98E-03,3.52E-02
33600,6.06E-03,3.42E-02
33601,6.04E-03,3.46E-02
33602,6.09E-03,3.39E-02
33603,5.81E-03,3.40E-02
33604,6.44E-03,3.40E-02
33605,6.86E-03,3.41E-02
33606,5.66E-03,3.53E-02
33607,5.62E-03,4.65E-02
33608,5.43E-03,4.56E-02
33609,5.70E-03,4.81E-02
33610,5.63E-03,4.73E-02
33611,5.59E-03,4.97E-02
33612,5.70E-03,4.90E-02
33613,5.44E-03,5.11E-02
33614,5.52E-03,5.04E-02
33615,5.43E-03,5.23E-02
33616,5.40E-03,5.17E-02
33617,5.40E-03,5.35E-02
33618,5.42E-03,5.29E-02
33619,5.34E-03,5.48E-02
33620,5.39E-03,5.42E-02
33621,5.28E-03,5.61E-02
33622,5.31E-03,5.55E-02
33623,5.26E-03,5.73E-02
33624,5.27E-03,5.67E-02
33625,5.44E-03,5.83E-02
33626,5.27E-03,5.78E-02
33627,5.60E-03,5.92E-02
33628,5.48E-03,5.88E-02
33629,5.85E-03,5.99E-02
33630,5.72E-03,5.96E-02
33631,6.13E-03,6.05E-02
33632,5.98E-03,6.02E-02
33633,6.48E-03,6.10E-02
33634,6.27E-03,6.07E-02
33635,6.60E-03,6.15E-02
33636,6.53E-03,6.12E-02
33637,6.61E-03,6.23E-02
33638,6.63E-03,6.19E-02
33639,6.50E-03,6.33E-02
33640,6.58E-03,6.27E-02
33641,6.46E-03,6.48E-02
33642,6.47E-03,6.40E-02
33643,6.26E-03,6.64E-02
33644,6.38E-03,6.56E-02
33645,6.16E-03,6.80E-02
33646,6.23E-03,6.72E-02
33647,5.97E-03,6.96E-02
33648,6.08E-03,6.88E-02
33649,5.93E-03,7.13E-02
33650,5.97E-03,7.05E-02
33651,5.78E-03,7.30E-02
33652,5.84E-03,7.22E-02
33653,5.71E-03,7.44E-02
33654,5.78E-03,7.37E-02
33655,5.56E-03,7.57E-02
33656,5.61E-03,7.51E-02
33657,5.50E-03,7.69E-02
33658,5.52E-03,7.63E-02
33659,5.61E-03,7.79E-02
33660,5.54E-03,7.75E-02
33661,5.75E-03,7.87E-02
33662,5.67E-03,7.83E-02
33663,6.00E-03,7.96E-02
33664,5.90E-03,7.91E-02
33665,6.36E-03,8.03E-02
33666,6.66E-03,8.00E-02
33667,5.56E-03,8.18E-02
33668,5.53E-03,8.13E-02
33669,5.72E-03,8.26E-02
33670,5.60E-03,8.23E-02
33671,5.93E-03,8.34E-02
33672,5.87E-03,8.30E-02
33673,5.89E-03,8.42E-02
33674,5.94E-03,8.37E-02
33675,5.74E-03,8.53E-02
33676,5.83E-03,8.47E-02
33677,5.57E-03,8.59E-02
33678,4.98E-03,8.86E-02
33679,5.71E-03,8.72E-02
33680,4.98E-03,9.14E-02
33681,4.80E-03,9.03E-02
33682,5.57E-03,9.17E-02
33683,5.35E-03,9.16E-02
33684,5.82E-03,9.17E-02
33685,5.71E-03,9.17E-02
33686,5.98E-03,9.18E-02
33687,5.90E-03,9.18E-02
33688,6.16E-03,9.17E-02
33689,6.03E-03,9.18E-02
33690,6.49E-03,9.11E-02
33691,6.35E-03,9.15E-02
33692,4.60E-03,9.25E-02
33693,5.57E-03,9.61E-02
33694,5.51E-03,9.50E-02
33695,5.57E-03,9.84E-02
33696,5.56E-03,9.72E-02
33697,5.43E-03,0.1007
33698,5.50E-03,9.96E-02
33699,5.15E-03,0.10178
33700,3.89E-03,0.10638
33701,6.11E-03,0.10345
33702,6.77E-03,9.29E-02
33703,6.82E-03,9.83E-02
33704,7.24E-03,9.70E-02
33705,7.29E-03,9.74E-02
33706,6.29E-03,9.76E-02
33707,6.61E-03,9.73E-02
33708,6.04E-03,9.86E-02
33709,6.09E-03,9.81E-02
33710,5.93E-03,1.00E-01
33711,5.91E-03,9.92E-02
33712,5.76E-03,0.10187
33713,5.82E-03,0.1009
33714,5.65E-03,0.10303
33715,5.69E-03,0.1026
33716,5.76E-03,0.10313
33717,4.33E-03,0.10621
33718,6.30E-03,2.48E-02
33719,7.04E-03,8.87E-02
33720,6.55E-03,8.88E-02
33721,7.13E-03,3.58E-02
33722,7.18E-03,3.57E-02
33723,4.95E-03,1.98E-02
33724,5.15E-03,1.90E-02
33725,5.08E-03,2.24E-02
33726,5.09E-03,2.21E-02
33727,6.98E-03,1.36E-02
33728,4.54E-03,3.12E-02
33729,4.56E-03,0.10756
33730,4.41E-03,0.10668
33731,4.78E-03,0.11268
33732,5.10E-03,4.23E-02
33733,5.80E-03,4.33E-02
33734,3.67E-03,3.93E-02
33735,4.74E-03,3.88E-02
33736,6.16E-03,2.91E-02
33737,4.59E-03,3.03E-02
33738,6.12E-03,2.75E-02
33739,6.11E-03,1.67E-02
33740,4.34E-03,1.31E-02
33741,5.28E-03,2.47E-02
33742,6.63E-03,2.59E-02
33743,5.84E-03,6.48E-03
33744,5.98E-03,6.52E-03
33745,5.79E-03,6.26E-03
33746,5.61E-03,6.26E-03
33747,5.50E-03,6.29E-03
33748,5.99E-03,6.20E-03
33749,5.36E-03,6.30E-03
33750,6.02E-03,6.88E-03
33751,5.81E-03,6.69E-03
33752,5.68E-03,8.38E-03
33753,5.56E-03,9.66E-03
33754,5.71E-03,9.85E-03
33755,7.11E-03,1.12E-02
33756,6.37E-03,1.37E-02
33757,6.05E-03,3.96E-02
33758,5.97E-03,4.00E-02
33759,6.20E-03,3.92E-02
33760,4.70E-03,2.99E-03
33761,5.07E-03,1.61E-02
33762,4.99E-03,1.49E-02
33763,5.09E-03,3.51E-02
33764,5.25E-03,3.53E-02
33765,5.69E-03,1.07E-02
33766,5.70E-03,1.11E-02
33767,4.81E-03,2.30E-02
33768,4.54E-03,2.53E-02
33769,6.61E-03,0.10192
33770,6.12E-03,5.61E-02
33771,6.19E-03,4.77E-02
33772,5.69E-03,2.26E-02
33773,5.73E-03,1.67E-02
33774,5.02E-03,3.35E-02
33775,6.65E-03,2.40E-02
33776,5.14E-03,2.42E-02
33777,6.85E-03,2.34E-02
33778,5.95E-03,2.26E-02
33779,5.79E-03,2.20E-02
33780,6.20E-03,1.87E-02
33781,7.01E-03,1.77E-02
33782,6.37E-03,1.72E-02
33783,7.05E-03,1.62E-02
33784,5.20E-03,1.51E-02
33785,5.78E-03,3.55E-02
33786,7.13E-03,3.57E-02
33787,5.86E-03,3.56E-02
33788,4.67E-03,8.91E-02
33789,6.80E-03,8.93E-02
33790,5.53E-03,0.10605
33791,6.26E-03,2.54E-02
33792,5.89E-03,2.35E-02
33793,7.46E-03,3.69E-02
33794,6.39E-03,0.10953
33795,5.96E-03,1.78E-02
33796,6.42E-03,4.62E-02
33797,5.48E-03,1.87E-02
33798,6.69E-03,1.50E-02
33799,5.80E-03,6.46E-03
33800,6.13E-03,7.25E-03
33801,6.05E-03,7.13E-03
33802,5.79E-03,6.75E-03
33803,5.37E-03,9.42E-03
33804,5.20E-03,9.56E-03
33805,6.21E-03,1.07E-02
33806,5.91E-03,1.05E-02
33807,5.85E-03,2.42E-03
33808,5.67E-03,2.28E-03
33809,5.83E-03,2.25E-03
33810,4.99E-03,1.46E-02
33811,4.94E-03,3.38E-02
33812,5.31E-03,3.41E-02
33813,5.54E-03,1.11E-02
33814,5.61E-03,1.21E-02
33815,4.89E-03,2.15E-02
33816,4.42E-03,2.59E-02
33817,6.45E-03,9.92E-02
33818,6.33E-03,9.40E-02
33819,6.20E-03,6.08E-02
33820,6.10E-03,4.36E-02
33821,5.60E-03,1.24E-02
33822,6.00E-03,1.12E-02
33823,5.51E-03,2.74E-02
33824,5.87E-03,1.53E-02
33825,4.62E-03,3.41E-02
33826,5.73E-03,2.48E-02
33827,5.45E-03,1.92E-02
33828,5.61E-03,4.95E-02
33829,5.13E-03,4.77E-02
33830,5.44E-03,4.53E-02
33831,5.75E-03,4.59E-02
33832,5.80E-03,3.55E-02
33833,5.46E-03,3.54E-02
33834,5.55E-03,3.63E-02
33835,5.33E-03,3.65E-02
33836,6.24E-03,2.61E-02
33837,4.84E-03,2.26E-02
33838,5.85E-03,1.44E-02
33839,5.93E-03,1.41E-02
33840,5.70E-03,1.36E-02
33841,4.66E-03,3.24E-02
33842,6.07E-03,6.79E-03
33843,5.98E-03,1.25E-02
33844,5.96E-03,1.27E-02
33845,4.91E-03,1.43E-02
33846,5.39E-03,3.30E-02
33847,5.45E-03,1.16E-02
33848,5.49E-03,1.32E-02
33849,4.96E-03,2.00E-02
33850,4.19E-03,2.65E-02
33851,6.80E-03,8.73E-02
33852,6.33E-03,9.13E-02
33853,6.12E-03,6.56E-02
33854,5.15E-03,4.01E-02
33855,5.84E-03,1.06E-02
33856,4.64E-03,1.39E-02
33857,6.35E-03,1.58E-02
33858,4.61E-03,3.22E-02
33859,6.01E-03,1.39E-02
33860,6.12E-03,2.69E-02
33861,4.26E-03,2.14E-02
33862,5.02E-03,6.51E-03
33863,5.65E-03,6.61E-03
33864,5.01E-03,6.60E-03
33865,4.78E-03,3.46E-02
33866,5.76E-03,4.33E-02
33867,4.49E-03,3.51E-02
33868,4.24E-03,6.69E-03
33869,5.21E-03,6.83E-03
33870,6.04E-03,6.87E-03
33871,4.86E-03,1.41E-02
33872,5.46E-03,3.19E-02
33873,5.31E-03,1.21E-02
33874,5.39E-03,1.44E-02
33875,5.05E-03,1.86E-02
33876,3.55E-03,2.74E-02
33877,6.73E-03,8.02E-02
33878,6.33E-03,8.59E-02
33879,6.18E-03,7.04E-02
33880,6.19E-03,1.04E-02
33881,6.64E-03,2.31E-02
33882,6.14E-03,1.25E-02
33883,5.28E-03,4.23E-02
33884,5.54E-03,4.28E-02
33885,5.57E-03,4.55E-02
33886,5.65E-03,4.45E-02
33887,5.98E-03,2.78E-02
33888,4.55E-03,2.05E-02
33889,4.83E-03,1.37E-02
33890,5.54E-03,3.09E-02
33891,5.14E-03,1.25E-02
33892,5.28E-03,1.57E-02
33893,5.15E-03,1.71E-02
33894,3.35E-03,2.79E-02
33895,6.85E-03,7.13E-02
33896,6.32E-03,8.03E-02
33897,6.17E-03,7.53E-02
33898,6.33E-03,1.08E-02
33899,7.04E-03,3.20E-02
33900,6.16E-03,1.14E-02
33901,5.76E-03,2.87E-02
33902,3.91E-03,6.59E-03
33903,5.83E-03,4.23E-03
33904,5.92E-03,4.48E-03
33905,4.85E-03,1.34E-02
33906,4.97E-03,1.30E-02
33907,4.11E-03,2.89E-02
33908,6.66E-03,6.20E-02
33909,7.04E-03,4.15E-02
33910,4.03E-03,4.45E-02
33911,6.05E-03,4.49E-02
33912,4.31E-03,2.99E-02
33913,6.77E-03,5.18E-02
33914,4.63E-03,0.11339
33915,3.90E-03,0.11818
33916,5.78E-03,4.28E-02
33917,4.76E-03,4.17E-02
33918,4.68E-03,4.44E-02
33919,4.17E-03,4.44E-02
33920,4.92E-03,3.82E-02
33921,6.12E-03,3.29E-02
33922,5.75E-03,2.98E-02
33923,5.79E-03,2.47E-02
33924,5.70E-03,2.60E-02
33925,5.75E-03,2.21E-02
33926,5.72E-03,2.34E-02
33927,5.92E-03,1.93E-02
33928,5.79E-03,2.07E-02
33929,5.97E-03,1.80E-02
33930,5.62E-03,1.21E-02
33931,8.14E-03,1.23E-02
33932,6.87E-03,1.11E-02
33933,5.03E-03,1.35E-02
33934,5.02E-03,1.25E-02
33935,5.21E-03,1.68E-02
33936,5.16E-03,1.50E-02
33937,4.45E-03,1.96E-02
33938,5.29E-03,1.82E-02
33939,4.96E-03,2.30E-02
33940,4.60E-03,2.96E-02
33941,5.80E-03,2.80E-02
33942,5.54E-03,4.43E-02
33943,5.79E-03,4.10E-02
33944,5.53E-03,5.14E-02
33945,5.50E-03,4.77E-02
33946,5.49E-03,5.95E-02
33947,5.50E-03,5.53E-02
33948,5.62E-03,6.90E-02
33949,5.51E-03,6.40E-02
33950,6.08E-03,8.00E-02
33951,5.88E-03,7.45E-02
33952,5.54E-03,9.11E-02
33953,6.80E-03,8.62E-02
33954,5.12E-03,0.11457
33955,4.62E-03,0.10911
33956,4.83E-03,6.67E-03
33957,4.10E-03,6.76E-03
33958,6.45E-03,6.59E-03
33959,5.76E-03,6.26E-03
33960,5.81E-03,6.26E-03
33961,5.72E-03,6.26E-03
33962,5.68E-03,6.25E-03
33963,5.16E-03,6.36E-03
33964,5.89E-03,6.78E-03
33965,6.11E-03,7.37E-03
33966,5.76E-03,7.76E-03
33967,5.80E-03,7.62E-03
33968,5.42E-03,8.03E-03
33969,5.46E-03,7.90E-03
33970,5.19E-03,8.31E-03
33971,5.23E-03,8.17E-03
33972,5.83E-03,8.62E-03
33973,5.83E-03,8.49E-03
33974,5.66E-03,8.87E-03
33975,5.67E-03,8.75E-03
33976,5.57E-03,9.13E-03
33977,5.62E-03,9.00E-03
33978,5.49E-03,9.27E-03
33979,5.92E-03,1.02E-02
33980,5.93E-03,1.00E-02
33981,5.33E-03,1.03E-02
33982,7.05E-03,1.09E-02
33983,6.60E-03,1.16E-02
33984,6.91E-03,1.14E-02
33985,6.27E-03,1.21E-02
33986,6.40E-03,1.19E-02
33987,5.89E-03,1.23E-02
33988,6.41E-03,1.32E-02
33989,6.36E-03,1.30E-02
33990,6.46E-03,1.34E-02
33991,5.59E-03,2.85E-03
33992,5.65E-03,2.63E-03
33993,5.53E-03,3.29E-03
33994,5.58E-03,3.07E-03
33995,5.59E-03,3.75E-03
33996,5.46E-03,3.52E-03
33997,5.62E-03,3.99E-03
33998,6.20E-03,4.94E-03
33999,6.01E-03,4.70E-03
34000,6.07E-03,5.39E-03
34001,6.26E-03,5.17E-03
34002,5.78E-03,5.84E-03
34003,5.84E-03,5.62E-03
34004,5.72E-03,6.23E-03
34005,5.70E-03,6.04E-03
34006,5.58E-03,6.41E-03
34007,5.27E-03,4.17E-02
34008,5.21E-03,4.20E-02
34009,5.49E-03,4.12E-02
34010,5.47E-03,4.15E-02
34011,5.71E-03,4.06E-02
34012,5.73E-03,4.09E-02
34013,5.79E-03,4.03E-02
34014,6.25E-03,3.84E-02
34015,6.23E-03,3.88E-02
34016,6.26E-03,3.75E-02
34017,6.23E-03,3.80E-02
34018,6.20E-03,3.65E-02
34019,6.23E-03,3.70E-02
34020,6.45E-03,3.56E-02
34021,6.28E-03,3.60E-02
34022,7.10E-03,3.45E-02
34023,7.05E-03,3.51E-02
34024,6.31E-03,3.33E-02
34025,6.45E-03,3.39E-02
34026,6.47E-03,3.22E-02
34027,6.39E-03,3.27E-02
34028,6.56E-03,3.11E-02
34029,6.51E-03,3.16E-02
34030,6.42E-03,3.00E-02
34031,6.49E-03,3.05E-02
34032,6.26E-03,2.89E-02
34033,6.43E-03,2.94E-02
34034,6.16E-03,2.79E-02
34035,6.28E-03,2.84E-02
34036,6.05E-03,2.68E-02
34037,6.10E-03,2.73E-02
34038,6.04E-03,2.58E-02
34039,6.06E-03,2.63E-02
34040,6.12E-03,2.48E-02
34041,6.08E-03,2.53E-02
34042,6.20E-03,2.39E-02
34043,6.13E-03,2.43E-02
34044,6.14E-03,2.30E-02
34045,6.17E-03,2.34E-02
34046,6.03E-03,2.21E-02
34047,6.12E-03,2.25E-02
34048,5.92E-03,2.12E-02
34049,5.96E-03,2.16E-02
34050,5.83E-03,2.03E-02
34051,5.91E-03,2.07E-02
34052,5.88E-03,1.95E-02
34053,5.83E-03,1.99E-02
34054,5.78E-03,1.87E-02
34055,5.81E-03,1.91E-02
34056,5.88E-03,1.79E-02
34057,5.80E-03,1.83E-02
34058,5.94E-03,1.71E-02
34059,5.90E-03,1.75E-02
34060,5.98E-03,1.63E-02
34061,5.96E-03,1.67E-02
34062,6.07E-03,1.56E-02
34063,6.00E-03,1.59E-02
34064,6.15E-03,1.48E-02
34065,6.12E-03,1.52E-02
34066,6.21E-03,1.41E-02
34067,6.22E-03,1.45E-02
34068,6.11E-03,1.35E-02
34069,6.15E-03,1.38E-02
34070,5.98E-03,1.28E-02
34071,6.01E-03,1.31E-02
34072,6.03E-03,1.22E-02
34073,6.02E-03,1.25E-02
34074,6.07E-03,1.16E-02
34075,6.07E-03,1.19E-02
34076,6.22E-03,1.10E-02
34077,6.13E-03,1.13E-02
34078,6.18E-03,1.04E-02
34079,6.24E-03,1.07E-02
34080,6.12E-03,9.86E-03
34081,6.13E-03,1.01E-02
34082,6.16E-03,9.32E-03
34083,6.10E-03,9.59E-03
34084,6.32E-03,8.82E-03
34085,6.25E-03,9.07E-03
34086,6.42E-03,8.33E-03
34087,6.36E-03,8.58E-03
34088,6.39E-03,7.86E-03
34089,6.34E-03,8.09E-03
34090,6.37E-03,7.40E-03
34091,6.44E-03,7.62E-03
34092,6.36E-03,7.00E-03
34093,6.41E-03,7.20E-03
34094,6.41E-03,6.59E-03
34095,6.40E-03,6.80E-03
34096,6.43E-03,6.22E-03
34097,6.43E-03,6.40E-03
34098,6.44E-03,5.87E-03
34099,6.46E-03,6.04E-03
34100,6.36E-03,5.54E-03
34101,6.41E-03,5.70E-03
34102,6.23E-03,5.24E-03
34103,6.38E-03,5.39E-03
34104,6.10E-03,4.96E-03
34105,6.21E-03,5.10E-03
34106,6.06E-03,4.71E-03
34107,6.05E-03,4.83E-03
34108,6.41E-03,4.47E-03
34109,6.14E-03,4.58E-03
34110,6.89E-03,4.22E-03
34111,7.00E-03,4.33E-03
34112,6.02E-03,4.00E-03
34113,6.05E-03,4.10E-03
34114,5.95E-03,3.80E-03
34115,6.03E-03,3.90E-03
34116,5.90E-03,3.62E-03
34117,5.97E-03,3.71E-03
34118,5.83E-03,3.45E-03
34119,5.89E-03,3.53E-03
34120,5.83E-03,3.30E-03
34121,5.81E-03,3.37E-03
34122,6.00E-03,3.16E-03
34123,5.92E-03,3.22E-03
34124,6.30E-03,3.03E-03
34125,6.12E-03,3.09E-03
34126,5.17E-03,2.95E-03
34127,6.81E-03,2.98E-03
34128,6.02E-03,2.83E-03
34129,4.76E-03,2.87E-03
34130,6.01E-03,2.73E-03
34131,5.82E-03,2.78E-03
34132,5.95E-03,2.65E-03
34133,5.98E-03,2.69E-03
34134,5.89E-03,2.57E-03
34135,5.93E-03,2.61E-03
34136,5.86E-03,2.49E-03
34137,5.83E-03,2.53E-03
34138,5.90E-03,2.43E-03
34139,5.88E-03,2.46E-03
34140,5.76E-03,2.39E-03
34141,5.87E-03,2.41E-03
34142,5.65E-03,2.34E-03
34143,5.68E-03,2.37E-03
34144,5.65E-03,2.31E-03
34145,5.02E-03,1.55E-02
34146,5.23E-03,3.52E-02
34147,5.71E-03,1.09E-02
34148,4.65E-03,2.42E-02
34149,6.45E-03,0.10004
34150,6.48E-03,0.10091
34151,6.18E-03,5.18E-02
34152,6.35E-03,1.20E-02
34153,6.27E-03,1.09E-02
34154,6.38E-03,1.16E-02
34155,5.67E-03,1.96E-02
34156,5.62E-03,3.25E-02
34157,5.46E-03,3.30E-02
34158,5.80E-03,3.15E-02
34159,5.76E-03,3.20E-02
34160,5.64E-03,3.07E-02
34161,5.78E-03,3.11E-02
34162,5.30E-03,3.02E-02
34163,5.46E-03,3.04E-02
34164,5.35E-03,2.97E-02
34165,5.30E-03,2.99E-02
34166,5.58E-03,2.93E-02
34167,5.54E-03,2.95E-02
34168,5.80E-03,2.87E-02
34169,5.67E-03,2.90E-02
34170,6.05E-03,2.79E-02
34171,5.98E-03,2.84E-02
34172,6.28E-03,2.66E-02
34173,6.14E-03,2.73E-02
34174,6.67E-03,2.52E-02
34175,6.55E-03,2.58E-02
34176,6.70E-03,2.46E-02
34177,6.37E-03,2.30E-02
34178,6.41E-03,2.32E-02
34179,6.12E-03,2.27E-02
34180,5.55E-03,2.32E-02
34181,6.16E-03,2.25E-02
34182,5.73E-03,2.30E-02
34183,6.32E-03,2.24E-02
34184,5.60E-03,2.25E-02
34185,6.45E-03,2.18E-02
34186,6.41E-03,2.21E-02
34187,6.83E-03,2.10E-02
34188,6.64E-03,2.14E-02
34189,6.82E-03,2.02E-02
34190,7.02E-03,2.06E-02
34191,6.54E-03,1.95E-02
34192,6.68E-03,1.99E-02
34193,6.33E-03,1.91E-02
34194,6.42E-03,1.74E-02
34195,7.22E-03,1.59E-02
34196,7.18E-03,1.60E-02
34197,7.26E-03,1.57E-02
34198,5.42E-03,1.48E-02
34199,5.37E-03,4.83E-02
34200,5.09E-03,4.85E-02
34201,5.28E-03,4.86E-02
34202,5.00E-03,4.79E-02
34203,5.03E-03,4.83E-02
34204,5.19E-03,4.70E-02
34205,5.05E-03,4.75E-02
34206,5.15E-03,4.62E-02
34207,5.86E-03,4.16E-02
34208,5.87E-03,4.24E-02
34209,6.06E-03,4.03E-02
34210,5.96E-03,4.09E-02
34211,6.18E-03,3.93E-02
34212,6.13E-03,3.98E-02
34213,6.30E-03,3.85E-02
34214,6.27E-03,3.89E-02
34215,6.20E-03,3.80E-02
34216,6.28E-03,3.82E-02
34217,6.00E-03,3.75E-02
34218,6.14E-03,3.78E-02
34219,6.07E-03,3.69E-02
34220,5.95E-03,3.73E-02
34221,6.08E-03,3.61E-02
34222,6.05E-03,3.65E-02
34223,6.04E-03,3.57E-02
34224,7.55E-03,3.52E-02
34225,6.33E-03,3.53E-02
34226,7.64E-03,3.54E-02
34227,6.07E-03,3.60E-02
34228,5.73E-03,4.74E-02
34229,5.59E-03,4.65E-02
34230,5.80E-03,4.91E-02
34231,5.72E-03,4.83E-02
34232,5.68E-03,5.07E-02
34233,5.78E-03,4.99E-02
34234,5.48E-03,5.20E-02
34235,5.57E-03,5.13E-02
34236,5.49E-03,5.32E-02
34237,5.51E-03,5.26E-02
34238,5.43E-03,5.44E-02
34239,5.48E-03,5.38E-02
34240,5.36E-03,5.57E-02
34241,5.42E-03,5.50E-02
34242,5.28E-03,5.70E-02
34243,5.29E-03,5.64E-02
34244,5.27E-03,5.83E-02
34245,5.27E-03,5.77E-02
34246,5.45E-03,5.94E-02
34247,5.27E-03,5.89E-02
34248,5.57E-03,6.04E-02
34249,5.46E-03,6.00E-02
34250,5.79E-03,6.12E-02
34251,5.74E-03,6.09E-02
34252,6.09E-03,6.19E-02
34253,5.99E-03,6.16E-02
34254,6.36E-03,6.24E-02
34255,6.23E-03,6.22E-02
34256,6.55E-03,6.30E-02
34257,6.49E-03,6.27E-02
34258,6.61E-03,6.38E-02
34259,6.60E-03,6.34E-02
34260,6.53E-03,6.50E-02
34261,6.58E-03,6.44E-02
34262,6.41E-03,6.65E-02
34263,6.47E-03,6.57E-02
34264,6.22E-03,6.82E-02
34265,6.31E-03,6.73E-02
34266,6.11E-03,6.99E-02
34267,6.16E-03,6.91E-02
34268,5.92E-03,7.17E-02
34269,6.07E-03,7.08E-02
34270,5.86E-03,7.34E-02
34271,5.94E-03,7.25E-02
34272,5.83E-03,7.51E-02
34273,5.82E-03,7.43E-02
34274,5.68E-03,7.66E-02
34275,5.79E-03,7.59E-02
34276,5.56E-03,7.79E-02
34277,5.62E-03,7.72E-02
34278,5.51E-03,7.92E-02
34279,5.53E-03,7.85E-02
34280,5.61E-03,8.02E-02
34281,5.55E-03,7.97E-02
34282,5.76E-03,8.10E-02
34283,5.68E-03,8.06E-02
34284,6.08E-03,8.19E-02
34285,5.85E-03,8.14E-02
34286,6.11E-03,8.30E-02
34287,6.25E-03,8.25E-02
34288,5.68E-03,8.42E-02
34289,5.81E-03,8.36E-02
34290,5.77E-03,8.52E-02
34291,5.68E-03,8.47E-02
34292,5.86E-03,8.61E-02
34293,5.83E-03,8.57E-02
34294,5.86E-03,8.71E-02
34295,5.88E-03,8.66E-02
34296,5.71E-03,8.84E-02
34297,5.81E-03,8.77E-02
34298,5.20E-03,8.96E-02
34299,5.51E-03,8.90E-02
34300,3.84E-03,9.02E-02
34301,5.58E-03,9.20E-02
34302,5.96E-03,9.08E-02
34303,5.33E-03,9.46E-02
34304,5.37E-03,9.35E-02
34305,5.56E-03,9.56E-02
34306,5.44E-03,9.53E-02
34307,5.76E-03,9.58E-02
34308,5.68E-03,9.57E-02
34309,5.98E-03,9.58E-02
34310,5.91E-03,9.58E-02
34311,6.23E-03,9.56E-02
34312,6.07E-03,9.57E-02
34313,6.99E-03,9.53E-02
34314,6.41E-03,9.55E-02
34315,5.58E-03,9.66E-02
34316,6.57E-03,9.58E-02
34317,5.88E-03,9.77E-02
34318,5.92E-03,9.66E-02
34319,5.70E-03,0.10019
34320,5.68E-03,9.91E-02
34321,5.59E-03,0.10268
34322,5.59E-03,0.1014
34323,5.45E-03,0.10519
34324,5.48E-03,0.10396
34325,5.25E-03,0.10614
34326,5.15E-03,0.10958
34327,4.33E-03,0.10999
34328,6.18E-03,0.10744
34329,5.81E-03,0.10862
34330,6.40E-03,0.10527
34331,6.31E-03,0.10628
34332,6.60E-03,0.10358
34333,6.51E-03,0.10435
34334,6.68E-03,0.10289
34335,6.65E-03,0.10316
34336,6.29E-03,0.10332
34337,6.53E-03,0.10291
34338,6.11E-03,0.10449
34339,6.14E-03,0.10382
34340,5.92E-03,0.10641
34341,5.94E-03,0.10534
34342,5.78E-03,0.10869
34343,5.81E-03,0.10753
34344,5.67E-03,0.11048
34345,5.71E-03,0.10968
34346,5.41E-03,0.11258
34347,5.68E-03,0.11127
34348,4.95E-03,0.11432
34349,5.18E-03,0.1134
34350,4.85E-03,0.11481
34351,6.06E-03,2.45E-02
34352,7.88E-03,9.14E-02
34353,7.75E-03,9.22E-02
34354,7.31E-03,9.21E-02
34355,7.37E-03,3.70E-02
34356,8.10E-03,3.70E-02
34357,5.61E-03,0.11361
34358,4.39E-03,1.96E-02
34359,5.34E-03,1.86E-02
34360,5.90E-03,2.34E-02
34361,5.03E-03,4.48E-02
34362,5.88E-03,4.57E-02
34363,5.88E-03,4.69E-02
34364,5.10E-03,4.71E-02
34365,4.84E-03,4.16E-02
34366,4.58E-03,3.06E-02
34367,5.30E-03,3.24E-02
34368,4.88E-03,3.02E-02
34369,5.86E-03,1.98E-02
34370,6.77E-03,1.51E-02
34371,5.59E-03,6.70E-03
34372,5.86E-03,6.45E-03
34373,6.10E-03,6.43E-03
34374,5.29E-03,6.46E-03
34375,5.44E-03,6.47E-03
34376,6.02E-03,7.03E-03
34377,5.88E-03,6.85E-03
34378,6.24E-03,8.44E-03
34379,5.21E-03,9.69E-03
34380,7.09E-03,1.34E-02
34381,5.74E-03,2.40E-03
34382,5.16E-03,6.64E-03
34383,5.34E-03,1.66E-02
34384,5.09E-03,1.53E-02
34385,5.01E-03,3.38E-02
34386,5.28E-03,3.40E-02
34387,5.63E-03,1.14E-02
34388,5.75E-03,1.18E-02
34389,4.88E-03,2.26E-02
34390,4.57E-03,2.48E-02
34391,6.43E-03,9.48E-02
34392,6.56E-03,9.62E-02
34393,6.15E-03,5.64E-02
34394,6.18E-03,4.78E-02
34395,6.12E-03,1.08E-02
34396,6.86E-03,1.13E-02
34397,5.68E-03,2.44E-02
34398,5.81E-03,1.82E-02
34399,4.97E-03,3.37E-02
34400,6.55E-03,2.53E-02
34401,7.02E-03,2.53E-02
34402,7.05E-03,2.48E-02
34403,3.78E-03,2.33E-02
34404,5.47E-03,2.39E-02
34405,5.93E-03,1.95E-02
34406,6.63E-03,1.84E-02
34407,6.37E-03,1.78E-02
34408,6.07E-03,5.05E-02
34409,5.37E-03,4.99E-02
34410,5.11E-03,5.09E-02
34411,5.97E-03,4.75E-02
34412,5.62E-03,3.66E-02
34413,5.93E-03,3.71E-02
34414,7.13E-03,3.68E-02
34415,5.52E-03,3.69E-02
34416,4.23E-03,3.59E-02
34417,4.48E-03,3.55E-02
34418,5.90E-03,8.89E-02
34419,6.69E-03,9.16E-02
34420,7.49E-03,9.27E-02
34421,5.69E-03,0.11714
34422,6.17E-03,2.52E-02
34423,5.68E-03,2.33E-02
34424,5.66E-03,1.38E-02
34425,4.70E-03,3.12E-02
34426,5.85E-03,4.96E-02
34427,6.06E-03,4.89E-02
34428,5.31E-03,1.81E-02
34429,5.65E-03,6.64E-03
34430,5.95E-03,7.38E-03
34431,5.93E-03,7.27E-03
34432,5.91E-03,6.91E-03
34433,4.22E-03,1.24E-02
34434,4.86E-03,1.25E-02
34435,4.99E-03,1.50E-02
34436,4.87E-03,3.24E-02
34437,5.34E-03,3.28E-02
34438,5.49E-03,1.18E-02
34439,5.59E-03,1.29E-02
34440,4.93E-03,2.11E-02
34441,4.31E-03,2.55E-02
34442,6.35E-03,8.85E-02
34443,6.35E-03,9.10E-02
34444,6.13E-03,6.12E-02
34445,5.87E-03,4.37E-02
34446,5.91E-03,1.08E-02
34447,6.65E-03,1.48E-02
34448,5.43E-03,2.94E-02
34449,5.96E-03,1.67E-02
34450,4.90E-03,3.41E-02
34451,6.30E-03,2.60E-02
34452,4.22E-03,2.01E-02
34453,5.83E-03,3.67E-02
34454,4.73E-03,3.69E-02
34455,6.21E-03,2.59E-02
34456,5.56E-03,2.22E-02
34457,6.55E-03,1.32E-02
34458,5.25E-03,1.34E-02
34459,5.49E-03,5.30E-02
34460,5.78E-03,5.23E-02
34461,5.14E-03,4.49E-02
34462,4.32E-03,6.66E-03
34463,3.43E-03,6.71E-03
34464,5.63E-03,6.96E-03
34465,4.91E-03,1.48E-02
34466,5.41E-03,3.17E-02
34467,5.40E-03,1.23E-02
34468,5.45E-03,1.41E-02
34469,5.02E-03,1.96E-02
34470,4.01E-03,2.63E-02
34471,6.47E-03,8.15E-02
34472,6.23E-03,8.57E-02
34473,6.13E-03,6.59E-02
34474,6.07E-03,1.10E-02
34475,6.55E-03,2.03E-02
34476,6.07E-03,1.52E-02
34477,4.78E-03,3.50E-02
34478,4.98E-03,3.45E-02
34479,5.78E-03,4.35E-02
34480,5.74E-03,4.64E-02
34481,5.93E-03,4.54E-02
34482,6.10E-03,2.67E-02
34483,4.19E-03,2.12E-02
34484,4.98E-03,3.44E-02
34485,5.24E-03,3.92E-02
34486,4.86E-03,1.45E-02
34487,5.49E-03,3.07E-02
34488,5.23E-03,1.28E-02
34489,5.32E-03,1.54E-02
34490,5.11E-03,1.82E-02
34491,2.92E-03,2.67E-02
34492,6.53E-03,7.43E-02
34493,6.26E-03,8.06E-02
34494,6.15E-03,7.07E-02
34495,6.21E-03,1.16E-02
34496,6.64E-03,2.77E-02
34497,6.13E-03,1.37E-02
34498,4.97E-03,0.11891
34499,5.68E-03,0.12269
34500,4.48E-03,0.11623
34501,5.87E-03,2.76E-02
34502,4.28E-03,2.03E-02
34503,5.87E-03,4.24E-03
34504,5.97E-03,4.49E-03
34505,4.85E-03,1.41E-02
34506,5.60E-03,2.97E-02
34507,5.06E-03,1.33E-02
34508,5.25E-03,1.68E-02
34509,3.94E-03,2.78E-02
34510,6.46E-03,6.55E-02
34511,6.17E-03,7.55E-02
34512,6.16E-03,1.24E-02
34513,6.78E-03,3.66E-02
34514,5.25E-03,4.65E-02
34515,5.67E-03,4.79E-02
34516,5.62E-03,4.88E-02
34517,4.90E-03,1.38E-02
34518,4.19E-03,2.88E-02
34519,6.59E-03,5.60E-02
34520,6.68E-03,4.62E-02
34521,4.49E-03,0.1042
34522,5.46E-03,4.16E-02
34523,5.59E-03,4.19E-02
34524,3.90E-03,0.12385
34525,3.73E-03,0.12555
34526,5.07E-03,0.12277
34527,5.75E-03,4.52E-02
34528,5.96E-03,4.74E-02
34529,4.01E-03,4.65E-02
34530,4.32E-03,4.73E-02
34531,3.35E-03,4.69E-02
34532,3.62E-03,4.69E-02
34533,5.32E-03,4.02E-02
34534,5.25E-03,4.11E-02
34535,5.72E-03,3.76E-02
34536,5.50E-03,3.90E-02
34537,6.14E-03,3.62E-02
34538,5.49E-03,3.29E-02
34539,5.70E-03,2.76E-02
34540,5.52E-03,2.89E-02
34541,5.74E-03,2.51E-02
34542,5.67E-03,2.64E-02
34543,5.78E-03,2.25E-02
34544,5.74E-03,2.38E-02
34545,5.84E-03,2.11E-02
34546,6.38E-03,1.33E-02
34547,6.98E-03,1.46E-02
34548,5.06E-03,1.21E-02
34549,5.42E-03,1.30E-02
34550,5.70E-03,1.14E-02
34551,5.73E-03,1.15E-02
34552,5.18E-03,1.18E-02
34553,5.24E-03,1.16E-02
34554,5.28E-03,1.35E-02
34555,5.20E-03,1.25E-02
34556,5.33E-03,1.68E-02
34557,5.15E-03,1.49E-02
34558,5.73E-03,2.12E-02
34559,5.49E-03,1.98E-02
34560,5.50E-03,2.58E-02
34561,5.58E-03,2.33E-02
34562,5.84E-03,3.22E-02
34563,5.48E-03,2.97E-02
34564,5.61E-03,3.88E-02
34565,5.77E-03,3.56E-02
34566,5.54E-03,4.56E-02
34567,5.53E-03,4.21E-02
34568,5.55E-03,5.33E-02
34569,5.52E-03,4.92E-02
34570,5.69E-03,6.23E-02
34571,5.62E-03,5.76E-02
34572,5.95E-03,7.24E-02
34573,5.81E-03,6.73E-02
34574,5.33E-03,8.16E-02
34575,5.77E-03,7.70E-02
34576,4.86E-03,9.46E-02
34577,4.88E-03,8.78E-02
34578,5.27E-03,6.80E-03
34579,4.92E-03,6.98E-03
34580,4.89E-03,6.90E-03
34581,5.47E-03,6.76E-03
34582,5.96E-03,6.44E-03
34583,6.00E-03,6.44E-03
34584,5.98E-03,6.44E-03
34585,5.69E-03,6.42E-03
34586,5.01E-03,6.53E-03
34587,5.92E-03,6.93E-03
34588,5.98E-03,7.49E-03
34589,5.64E-03,7.87E-03
34590,5.86E-03,7.74E-03
34591,5.22E-03,8.13E-03
34592,5.46E-03,8.00E-03
34593,4.86E-03,8.38E-03
34594,5.09E-03,8.25E-03
34595,5.81E-03,8.71E-03
34596,4.40E-03,8.50E-03
34597,6.40E-03,8.58E-03
34598,5.64E-03,8.95E-03
34599,5.67E-03,8.83E-03
34600,5.55E-03,9.21E-03
34601,5.60E-03,9.08E-03
34602,5.34E-03,9.48E-03
34603,5.51E-03,9.34E-03
34604,5.57E-03,9.90E-03
34605,4.13E-03,9.73E-03
34606,5.02E-03,9.62E-03
34607,6.45E-03,1.02E-02
34608,6.03E-03,1.01E-02
34609,7.90E-03,1.07E-02
34610,6.05E-03,1.04E-02
34611,8.21E-03,1.11E-02
34612,8.24E-03,1.09E-02
34613,6.69E-03,1.16E-02
34614,7.07E-03,1.14E-02
34615,6.24E-03,1.20E-02
34616,6.44E-03,1.18E-02
34617,6.12E-03,1.22E-02
34618,6.64E-03,1.30E-02
34619,6.23E-03,1.29E-02
34620,6.63E-03,1.32E-02
34621,5.61E-03,2.83E-03
34622,5.63E-03,2.61E-03
34623,5.49E-03,3.29E-03
34624,5.54E-03,3.06E-03
34625,5.62E-03,3.75E-03
34626,5.52E-03,3.52E-03
34627,5.65E-03,3.99E-03
34628,6.13E-03,4.96E-03
34629,6.04E-03,4.72E-03
34630,6.06E-03,5.42E-03
34631,6.14E-03,5.19E-03
34632,5.73E-03,5.87E-03
34633,5.97E-03,5.65E-03
34634,5.53E-03,6.26E-03
34635,5.75E-03,6.07E-03
34636,5.38E-03,6.45E-03
34637,5.42E-03,4.10E-02
34638,5.39E-03,4.13E-02
34639,5.61E-03,4.05E-02
34640,5.48E-03,4.07E-02
34641,5.77E-03,3.99E-02
34642,5.76E-03,4.02E-02
34643,6.03E-03,3.93E-02
34644,5.86E-03,3.97E-02
34645,6.17E-03,3.87E-02
34646,6.04E-03,3.90E-02
34647,6.28E-03,3.79E-02
34648,6.18E-03,3.83E-02
34649,6.25E-03,3.70E-02
34650,6.28E-03,3.75E-02
34651,6.18E-03,3.61E-02
34652,6.22E-03,3.66E-02
34653,6.42E-03,3.52E-02
34654,6.27E-03,3.57E-02
34655,6.61E-03,3.42E-02
34656,6.57E-03,3.47E-02
34657,6.38E-03,3.31E-02
34658,6.47E-03,3.37E-02
34659,6.47E-03,3.20E-02
34660,6.44E-03,3.25E-02
34661,6.47E-03,3.09E-02
34662,6.47E-03,3.15E-02
34663,6.37E-03,2.99E-02
34664,6.47E-03,3.04E-02
34665,6.27E-03,2.88E-02
34666,6.38E-03,2.93E-02
34667,6.15E-03,2.78E-02
34668,6.24E-03,2.83E-02
34669,6.04E-03,2.68E-02
34670,6.04E-03,2.73E-02
34671,6.00E-03,2.58E-02
34672,6.03E-03,2.63E-02
34673,6.07E-03,2.49E-02
34674,6.01E-03,2.53E-02
34675,6.18E-03,2.39E-02
34676,6.14E-03,2.44E-02
34677,6.14E-03,2.30E-02
34678,6.16E-03,2.35E-02
34679,6.00E-03,2.21E-02
34680,6.09E-03,2.26E-02
34681,5.85E-03,2.13E-02
34682,5.91E-03,2.17E-02
34683,5.89E-03,2.04E-02
34684,5.88E-03,2.08E-02
34685,5.79E-03,1.96E-02
34686,5.84E-03,2.00E-02
34687,5.77E-03,1.88E-02
34688,5.75E-03,1.92E-02
34689,5.84E-03,1.80E-02
34690,5.79E-03,1.84E-02
34691,5.91E-03,1.73E-02
34692,5.85E-03,1.76E-02
34693,5.97E-03,1.65E-02
34694,5.94E-03,1.69E-02
34695,6.07E-03,1.58E-02
34696,6.04E-03,1.61E-02
34697,6.11E-03,1.50E-02
34698,6.11E-03,1.54E-02
34699,6.17E-03,1.43E-02
34700,6.15E-03,1.47E-02
34701,6.05E-03,1.36E-02
34702,6.10E-03,1.40E-02
34703,5.93E-03,1.30E-02
34704,5.94E-03,1.33E-02
34705,6.01E-03,1.24E-02
34706,5.98E-03,1.27E-02
34707,6.09E-03,1.17E-02
34708,6.01E-03,1.20E-02
34709,6.21E-03,1.11E-02
34710,6.15E-03,1.14E-02
34711,6.19E-03,1.06E-02
34712,6.22E-03,1.09E-02
34713,6.12E-03,1.00E-02
34714,6.11E-03,1.03E-02
34715,6.12E-03,9.48E-03
34716,6.09E-03,9.75E-03
34717,6.23E-03,8.96E-03
34718,6.17E-03,9.21E-03
34719,6.30E-03,8.46E-03
34720,6.35E-03,8.71E-03
34721,6.41E-03,7.98E-03
34722,6.33E-03,8.22E-03
34723,6.37E-03,7.52E-03
34724,6.43E-03,7.75E-03
34725,6.30E-03,7.09E-03
34726,6.39E-03,7.30E-03
34727,6.37E-03,6.69E-03
34728,6.31E-03,6.89E-03
34729,6.33E-03,6.31E-03
34730,6.34E-03,6.49E-03
34731,6.37E-03,5.94E-03
34732,6.34E-03,6.12E-03
34733,6.33E-03,5.61E-03
34734,6.39E-03,5.77E-03
34735,6.18E-03,5.30E-03
34736,6.32E-03,5.45E-03
34737,6.08E-03,5.01E-03
34738,6.16E-03,5.15E-03
34739,6.01E-03,4.74E-03
34740,6.01E-03,4.87E-03
34741,6.36E-03,4.47E-03
34742,6.19E-03,4.61E-03
34743,6.41E-03,4.24E-03
34744,6.42E-03,4.35E-03
34745,6.02E-03,4.00E-03
34746,6.27E-03,4.11E-03
34747,5.97E-03,3.79E-03
34748,6.03E-03,3.90E-03
34749,5.89E-03,3.60E-03
34750,5.93E-03,3.69E-03
34751,5.81E-03,3.42E-03
34752,5.82E-03,3.51E-03
34753,5.78E-03,3.25E-03
34754,5.81E-03,3.34E-03
34755,5.93E-03,3.10E-03
34756,5.89E-03,3.17E-03
34757,6.17E-03,2.95E-03
34758,6.01E-03,3.02E-03
34759,5.69E-03,2.84E-03
34760,5.94E-03,2.89E-03
34761,5.62E-03,2.72E-03
34762,5.53E-03,2.77E-03
34763,5.88E-03,2.61E-03
34764,5.83E-03,2.67E-03
34765,5.85E-03,2.52E-03
34766,5.88E-03,2.57E-03
34767,5.88E-03,2.43E-03
34768,5.86E-03,2.47E-03
34769,5.88E-03,2.35E-03
34770,5.83E-03,2.39E-03
34771,5.86E-03,2.28E-03
34772,5.92E-03,2.31E-03
34773,5.80E-03,2.22E-03
34774,5.80E-03,2.25E-03
34775,5.71E-03,2.17E-03
34776,5.75E-03,2.19E-03
34777,5.55E-03,2.11E-03
34778,5.60E-03,2.14E-03
34779,5.74E-03,2.07E-03
34780,5.24E-03,1.60E-02
34781,5.23E-03,3.39E-02
34782,5.73E-03,1.16E-02
34783,4.72E-03,2.37E-02
34784,6.48E-03,9.56E-02
34785,6.27E-03,5.21E-02
34786,6.33E-03,1.08E-02
34787,5.75E-03,2.13E-02
34788,5.60E-03,3.27E-02
34789,5.55E-03,3.32E-02
34790,5.83E-03,3.18E-02
34791,5.76E-03,3.22E-02
34792,5.68E-03,3.11E-02
34793,5.74E-03,3.14E-02
34794,5.45E-03,3.06E-02
34795,5.49E-03,3.08E-02
34796,5.31E-03,3.04E-02
34797,5.29E-03,3.05E-02
34798,5.46E-03,3.01E-02
34799,5.40E-03,3.03E-02
34800,5.64E-03,2.97E-02
34801,5.62E-03,3.00E-02
34802,5.97E-03,2.90E-02
34803,5.95E-03,2.94E-02
34804,6.25E-03,2.78E-02
34805,6.18E-03,2.84E-02
34806,6.49E-03,2.65E-02
34807,6.43E-03,2.71E-02
34808,6.53E-03,2.59E-02
34809,6.34E-03,2.43E-02
34810,6.41E-03,2.45E-02
34811,4.18E-03,2.47E-02
34812,6.71E-03,2.40E-02
34813,5.86E-03,2.46E-02
34814,5.40E-03,2.48E-02
34815,6.90E-03,2.38E-02
34816,6.05E-03,2.43E-02
34817,6.31E-03,2.36E-02
34818,7.14E-03,2.37E-02
34819,6.50E-03,2.29E-02
34820,6.43E-03,2.33E-02
34821,6.68E-03,2.21E-02
34822,6.59E-03,2.25E-02
34823,6.74E-03,2.12E-02
34824,6.78E-03,2.17E-02
34825,6.64E-03,2.04E-02
34826,6.66E-03,2.08E-02
34827,6.44E-03,1.99E-02
34828,6.42E-03,1.81E-02
34829,7.29E-03,1.64E-02
34830,7.36E-03,1.66E-02
34831,7.77E-03,1.58E-02
34832,7.42E-03,1.61E-02
34833,5.82E-03,1.53E-02
34834,7.10E-03,1.56E-02
34835,5.94E-03,1.47E-02
34836,5.80E-03,1.50E-02
34837,6.42E-03,1.43E-02
34838,5.99E-03,5.13E-02
34839,4.50E-03,5.25E-02
34840,4.69E-03,5.17E-02
34841,5.18E-03,5.10E-02
34842,5.39E-03,5.12E-02
34843,5.12E-03,5.02E-02
34844,5.11E-03,5.06E-02
34845,5.20E-03,4.93E-02
34846,5.12E-03,4.98E-02
34847,5.69E-03,4.86E-02
34848,5.18E-03,4.76E-02
34849,5.52E-03,4.55E-02
34850,5.81E-03,4.38E-02
34851,5.79E-03,4.46E-02
34852,6.05E-03,4.26E-02
34853,5.94E-03,4.32E-02
34854,6.17E-03,4.16E-02
34855,6.13E-03,4.21E-02
34856,6.28E-03,4.07E-02
34857,6.24E-03,4.11E-02
34858,6.16E-03,4.03E-02
34859,6.23E-03,4.05E-02
34860,6.00E-03,3.98E-02
34861,6.08E-03,4.00E-02
34862,6.09E-03,3.91E-02
34863,5.99E-03,3.95E-02
34864,6.14E-03,3.81E-02
34865,6.12E-03,3.86E-02
34866,6.18E-03,3.76E-02
34867,7.05E-03,3.66E-02
34868,6.35E-03,3.67E-02
34869,7.05E-03,3.68E-02
34870,3.93E-03,3.74E-02
34871,3.95E-03,3.81E-02
34872,6.30E-03,3.78E-02
34873,5.35E-03,3.69E-02
34874,4.94E-03,3.72E-02
34875,4.33E-03,3.62E-02
34876,5.80E-03,3.65E-02
34877,3.74E-03,3.58E-02
34878,5.83E-03,4.84E-02
34879,5.77E-03,4.74E-02
34880,5.83E-03,5.02E-02
34881,5.83E-03,4.93E-02
34882,5.70E-03,5.16E-02
34883,5.77E-03,5.09E-02
34884,5.51E-03,5.29E-02
34885,5.63E-03,5.23E-02
34886,5.50E-03,5.40E-02
34887,5.54E-03,5.35E-02
34888,5.49E-03,5.52E-02
34889,5.56E-03,5.46E-02
34890,5.34E-03,5.66E-02
34891,5.45E-03,5.59E-02
34892,5.27E-03,5.79E-02
34893,5.28E-03,5.72E-02
34894,5.26E-03,5.92E-02
34895,5.27E-03,5.86E-02
34896,5.42E-03,6.05E-02
34897,5.31E-03,5.99E-02
34898,5.53E-03,6.16E-02
34899,5.46E-03,6.11E-02
34900,5.75E-03,6.26E-02
34901,5.71E-03,6.21E-02
34902,6.04E-03,6.33E-02
34903,5.98E-03,6.30E-02
34904,6.32E-03,6.39E-02
34905,6.18E-03,6.36E-02
34906,6.47E-03,6.46E-02
34907,6.50E-03,6.42E-02
34908,6.52E-03,6.55E-02
34909,6.52E-03,6.50E-02
34910,6.51E-03,6.67E-02
34911,6.49E-03,6.60E-02
34912,6.39E-03,6.83E-02
34913,6.44E-03,6.75E-02
34914,6.14E-03,7.01E-02
34915,6.24E-03,6.92E-02
34916,6.07E-03,7.19E-02
34917,6.09E-03,7.10E-02
34918,5.89E-03,7.38E-02
34919,6.02E-03,7.28E-02
34920,5.81E-03,7.56E-02
34921,5.91E-03,7.47E-02
34922,5.78E-03,7.73E-02
34923,5.84E-03,7.64E-02
34924,5.67E-03,7.88E-02
34925,5.71E-03,7.81E-02
34926,5.54E-03,8.01E-02
34927,5.60E-03,7.94E-02
34928,5.52E-03,8.14E-02
34929,5.52E-03,8.07E-02
34930,5.59E-03,8.24E-02
34931,5.53E-03,8.19E-02
34932,5.73E-03,8.33E-02
34933,5.70E-03,8.29E-02
34934,5.95E-03,8.43E-02
34935,5.84E-03,8.38E-02
34936,5.94E-03,8.56E-02
34937,6.00E-03,8.49E-02
34938,5.79E-03,8.67E-02
34939,5.87E-03,8.61E-02
34940,5.77E-03,8.79E-02
34941,5.78E-03,8.73E-02
34942,5.83E-03,8.84E-02
34943,5.85E-03,9.01E-02
34944,5.87E-03,8.95E-02
34945,5.70E-03,9.15E-02
34946,5.81E-03,9.08E-02
34947,5.30E-03,9.27E-02
34948,5.59E-03,9.21E-02
34949,5.33E-03,9.25E-02
34950,5.94E-03,9.56E-02
34951,6.32E-03,9.42E-02
34952,5.50E-03,9.81E-02
34953,5.62E-03,9.70E-02
34954,5.58E-03,9.95E-02
34955,5.53E-03,9.89E-02
34956,5.75E-03,9.99E-02
34957,5.66E-03,9.98E-02
34958,5.97E-03,9.98E-02
34959,5.92E-03,9.99E-02
34960,6.21E-03,9.97E-02
34961,6.12E-03,9.98E-02
34962,6.54E-03,9.97E-02
34963,6.49E-03,9.95E-02
34964,6.32E-03,1.00E-01
34965,6.46E-03,9.97E-02
34966,6.69E-03,0.10126
34967,6.66E-03,0.10053
34968,5.84E-03,0.10406
34969,5.89E-03,0.10274
34970,5.64E-03,0.10673
34971,5.63E-03,0.10537
34972,5.55E-03,0.10925
34973,5.52E-03,0.10804
34974,5.64E-03,0.11015
34975,5.43E-03,0.11458
34976,5.91E-03,0.11398
34977,5.98E-03,0.11281
34978,5.80E-03,0.11383
34979,6.31E-03,0.11059
34980,6.17E-03,0.11169
34981,6.46E-03,0.10899
34982,6.42E-03,0.10963
34983,6.46E-03,0.10847
34984,6.48E-03,0.10858
34985,6.31E-03,0.10911
34986,6.34E-03,0.10866
34987,6.08E-03,0.11062
34988,6.10E-03,0.10979
34989,5.93E-03,0.11294
34990,5.91E-03,0.11168
34991,5.75E-03,0.11563
34992,5.81E-03,0.11433
34993,5.62E-03,0.11813
34994,5.70E-03,0.11692
34995,5.39E-03,0.12053
34996,5.51E-03,0.1194
34997,5.31E-03,0.12313
34998,5.19E-03,0.12189
34999,4.89E-03,0.12454
35000,5.51E-03,0.11996
35001,5.91E-03,2.42E-02
35002,5.09E-03,1.39E-02
35003,6.23E-03,1.39E-02
35004,4.66E-03,2.99E-02
35005,7.21E-03,9.55E-02
35006,5.26E-03,4.72E-02
35007,5.82E-03,4.83E-02
35008,5.34E-03,5.08E-02
35009,5.06E-03,5.06E-02
35010,5.17E-03,3.38E-02
35011,5.21E-03,3.50E-02
35012,5.19E-03,3.30E-02
35013,5.38E-03,2.25E-02
35014,5.59E-03,2.34E-02
35015,5.74E-03,1.81E-02
35016,5.26E-03,2.16E-02
35017,5.07E-03,7.03E-03
35018,5.91E-03,6.63E-03
35019,5.06E-03,6.61E-03
35020,5.66E-03,6.65E-03
35021,5.88E-03,7.16E-03
35022,6.05E-03,7.00E-03
35023,4.55E-03,8.43E-03
35024,3.52E-03,8.50E-03
35025,5.06E-03,9.91E-03
35026,4.86E-03,1.23E-02
35027,7.02E-03,1.33E-02
35028,6.09E-03,1.71E-02
35029,5.10E-03,1.57E-02
35030,4.97E-03,3.25E-02
35031,5.27E-03,3.27E-02
35032,5.55E-03,1.21E-02
35033,5.66E-03,1.26E-02
35034,4.87E-03,2.22E-02
35035,4.58E-03,2.44E-02
35036,6.34E-03,8.95E-02
35037,6.37E-03,9.07E-02
35038,6.15E-03,5.68E-02
35039,6.26E-03,4.77E-02
35040,6.15E-03,1.12E-02
35041,6.78E-03,1.32E-02
35042,5.86E-03,2.63E-02
35043,5.89E-03,1.98E-02
35044,5.05E-03,3.37E-02
35045,6.42E-03,2.67E-02
35046,6.30E-03,2.04E-02
35047,6.40E-03,1.86E-02
35048,5.62E-03,5.36E-02
35049,4.20E-03,5.47E-02
35050,4.60E-03,4.90E-02
35051,5.29E-03,3.80E-02
35052,7.16E-03,3.81E-02
35053,7.84E-03,3.82E-02
35054,3.99E-03,3.79E-02
35055,4.55E-03,3.54E-02
35056,6.65E-03,9.56E-02
35057,6.35E-03,9.55E-02
35058,6.20E-03,0.12811
35059,6.19E-03,2.49E-02
35060,5.59E-03,2.31E-02
35061,5.32E-03,1.34E-02
35062,5.93E-03,5.17E-02
35063,5.14E-03,5.43E-02
35064,5.64E-03,4.47E-02
35065,3.73E-03,4.79E-02
35066,5.52E-03,6.83E-03
35067,5.56E-03,7.50E-03
35068,5.85E-03,7.41E-03
35069,5.95E-03,7.05E-03
35070,5.53E-03,2.37E-03
35071,4.95E-03,1.54E-02
35072,4.81E-03,3.12E-02
35073,5.35E-03,3.16E-02
35074,5.46E-03,1.26E-02
35075,5.52E-03,1.38E-02
35076,4.99E-03,2.07E-02
35077,4.24E-03,2.51E-02
35078,6.28E-03,8.30E-02
35079,6.26E-03,8.58E-02
35080,6.15E-03,6.15E-02
35081,6.07E-03,1.18E-02
35082,6.47E-03,1.78E-02
35083,6.00E-03,3.18E-02
35084,6.01E-03,1.82E-02
35085,5.11E-03,3.40E-02
35086,5.96E-03,2.62E-02
35087,6.73E-03,2.69E-02
35088,5.87E-03,1.94E-02
35089,6.42E-03,1.75E-02
35090,6.13E-03,4.43E-02
35091,5.85E-03,4.75E-02
35092,5.91E-03,4.65E-02
35093,6.26E-03,2.56E-02
35094,4.91E-03,2.19E-02
35095,6.51E-03,4.30E-02
35096,4.88E-03,1.84E-02
35097,3.70E-03,1.94E-02
35098,4.88E-03,1.52E-02
35099,5.43E-03,3.05E-02
35100,5.32E-03,1.31E-02
35101,5.37E-03,1.51E-02
35102,5.09E-03,1.92E-02
35103,3.86E-03,2.57E-02
35104,6.31E-03,7.62E-02
35105,6.22E-03,8.06E-02
35106,6.14E-03,6.61E-02
35107,6.10E-03,1.26E-02
35108,6.46E-03,2.43E-02
35109,6.06E-03,1.65E-02
35110,5.20E-03,3.42E-02
35111,4.50E-03,0.12027
35112,5.20E-03,0.12374
35113,4.26E-03,0.12841
35114,3.48E-03,0.1223
35115,5.98E-03,2.65E-02
35116,4.46E-03,2.09E-02
35117,5.98E-03,1.30E-02
35118,5.59E-03,1.30E-02
35119,5.87E-03,4.25E-03
35120,6.05E-03,4.50E-03
35121,4.85E-03,1.49E-02
35122,5.53E-03,2.95E-02
35123,5.15E-03,1.36E-02
35124,5.32E-03,1.64E-02
35125,5.20E-03,1.78E-02
35126,3.86E-03,2.65E-02
35127,6.25E-03,6.83E-02
35128,6.17E-03,7.56E-02
35129,6.15E-03,7.08E-02
35130,6.18E-03,1.37E-02
35131,6.52E-03,3.22E-02
35132,6.11E-03,1.50E-02
35133,5.67E-03,5.14E-02
35134,5.67E-03,5.18E-02
35135,4.87E-03,1.45E-02
35136,5.66E-03,2.86E-02
35137,4.99E-03,1.41E-02
35138,4.09E-03,2.76E-02
35139,6.35E-03,5.98E-02
35140,6.54E-03,4.11E-02
35141,4.76E-03,0.10084
35142,5.57E-03,4.09E-02
35143,5.61E-03,4.13E-02
35144,4.52E-03,2.87E-02
35145,6.07E-03,4.24E-02
35146,6.38E-03,5.05E-02
35147,4.98E-03,0.13282
35148,5.67E-03,4.78E-02
35149,5.60E-03,5.10E-02
35150,4.28E-03,4.99E-02
35151,4.63E-03,5.04E-02
35152,3.32E-03,4.96E-02
35153,4.03E-03,4.98E-02
35154,5.58E-03,4.30E-02
35155,5.66E-03,4.40E-02
35156,5.81E-03,4.06E-02
35157,5.67E-03,4.19E-02
35158,5.90E-03,3.84E-02
35159,5.92E-03,3.95E-02
35160,5.69E-03,3.65E-02
35161,5.87E-03,3.73E-02
35162,5.51E-03,3.57E-02
35163,5.55E-03,3.06E-02
35164,5.37E-03,3.18E-02
35165,5.74E-03,2.81E-02
35166,5.64E-03,2.94E-02
35167,5.76E-03,2.57E-02
35168,5.74E-03,2.69E-02
35169,5.69E-03,2.44E-02
35170,5.42E-03,1.90E-02
35171,4.90E-03,2.03E-02
35172,5.93E-03,1.64E-02
35173,7.01E-03,1.75E-02
35174,5.56E-03,1.42E-02
35175,5.73E-03,1.52E-02
35176,5.53E-03,1.26E-02
35177,5.62E-03,1.33E-02
35178,5.28E-03,1.16E-02
35179,5.42E-03,1.20E-02
35180,5.30E-03,1.17E-02
35181,5.26E-03,1.14E-02
35182,5.40E-03,1.38E-02
35183,5.31E-03,1.25E-02
35184,5.60E-03,1.73E-02
35185,5.53E-03,1.55E-02
35186,5.53E-03,2.16E-02
35187,5.60E-03,1.91E-02
35188,5.65E-03,2.73E-02
35189,5.54E-03,2.44E-02
35190,5.59E-03,3.32E-02
35191,5.65E-03,3.01E-02
35192,5.53E-03,3.96E-02
35193,5.58E-03,3.63E-02
35194,5.59E-03,4.68E-02
35195,5.53E-03,4.30E-02
35196,5.70E-03,5.52E-02
35197,5.64E-03,5.09E-02
35198,5.72E-03,6.45E-02
35199,5.79E-03,5.99E-02
35200,5.52E-03,7.44E-02
35201,5.62E-03,6.92E-02
35202,5.44E-03,8.67E-02
35203,5.37E-03,8.05E-02
35204,5.16E-03,7.13E-03
35205,5.19E-03,7.07E-03
35206,5.32E-03,7.24E-03
35207,5.24E-03,7.19E-03
35208,5.29E-03,6.99E-03
35209,5.16E-03,7.06E-03
35210,5.26E-03,6.92E-03
35211,6.22E-03,6.62E-03
35212,6.17E-03,6.62E-03
35213,6.37E-03,6.60E-03
35214,6.25E-03,6.61E-03
35215,6.09E-03,6.60E-03
35216,6.40E-03,6.60E-03
35217,5.66E-03,6.59E-03
35218,5.14E-03,6.70E-03
35219,6.06E-03,7.08E-03
35220,5.87E-03,7.72E-03
35221,5.93E-03,7.61E-03
35222,5.52E-03,7.97E-03
35223,5.92E-03,7.84E-03
35224,5.05E-03,8.21E-03
35225,5.53E-03,8.09E-03
35226,4.98E-03,8.32E-03
35227,5.62E-03,8.80E-03
35228,3.89E-03,8.62E-03
35229,5.35E-03,8.69E-03
35230,5.61E-03,9.02E-03
35231,5.61E-03,8.91E-03
35232,5.57E-03,9.27E-03
35233,5.59E-03,9.14E-03
35234,5.48E-03,9.54E-03
35235,5.52E-03,9.40E-03
35236,4.83E-03,9.82E-03
35237,5.33E-03,9.68E-03
35238,6.92E-03,1.02E-02
35239,7.25E-03,1.01E-02
35240,8.31E-03,1.07E-02
35241,7.87E-03,1.05E-02
35242,7.48E-03,1.11E-02
35243,8.00E-03,1.09E-02
35244,6.71E-03,1.15E-02
35245,7.08E-03,1.13E-02
35246,6.32E-03,1.19E-02
35247,6.48E-03,1.17E-02
35248,6.08E-03,1.21E-02
35249,6.70E-03,1.28E-02
35250,6.66E-03,1.31E-02
35251,5.58E-03,2.82E-03
35252,5.54E-03,2.60E-03
35253,5.51E-03,3.29E-03
35254,5.53E-03,3.06E-03
35255,5.51E-03,3.76E-03
35256,5.47E-03,3.52E-03
35257,5.61E-03,3.99E-03
35258,6.15E-03,4.98E-03
35259,6.12E-03,4.74E-03
35260,6.02E-03,5.45E-03
35261,6.08E-03,5.21E-03
35262,5.69E-03,5.90E-03
35263,5.91E-03,5.68E-03
35264,5.46E-03,6.30E-03
35265,5.71E-03,6.10E-03
35266,5.22E-03,6.68E-03
35267,5.37E-03,6.49E-03
35268,5.23E-03,6.88E-03
35269,5.71E-03,4.02E-02
35270,5.57E-03,4.05E-02
35271,5.80E-03,3.98E-02
35272,5.56E-03,4.00E-02
35273,5.85E-03,3.93E-02
35274,5.84E-03,3.95E-02
35275,6.12E-03,3.87E-02
35276,5.94E-03,3.90E-02
35277,6.17E-03,3.81E-02
35278,6.11E-03,3.84E-02
35279,6.27E-03,3.74E-02
35280,6.18E-03,3.77E-02
35281,6.22E-03,3.66E-02
35282,6.31E-03,3.70E-02
35283,6.15E-03,3.57E-02
35284,6.18E-03,3.61E-02
35285,6.35E-03,3.48E-02
35286,6.22E-03,3.53E-02
35287,6.38E-03,3.39E-02
35288,6.42E-03,3.43E-02
35289,6.36E-03,3.28E-02
35290,6.38E-03,3.34E-02
35291,6.39E-03,3.18E-02
35292,6.33E-03,3.23E-02
35293,6.42E-03,3.08E-02
35294,6.45E-03,3.13E-02
35295,6.37E-03,2.97E-02
35296,6.43E-03,3.02E-02
35297,6.24E-03,2.87E-02
35298,6.28E-03,2.92E-02
35299,6.09E-03,2.77E-02
35300,6.19E-03,2.82E-02
35301,6.02E-03,2.68E-02
35302,6.05E-03,2.72E-02
35303,5.92E-03,2.58E-02
35304,6.01E-03,2.63E-02
35305,6.03E-03,2.49E-02
35306,5.95E-03,2.53E-02
35307,6.11E-03,2.40E-02
35308,6.11E-03,2.44E-02
35309,6.06E-03,2.31E-02
35310,6.15E-03,2.35E-02
35311,5.93E-03,2.22E-02
35312,6.02E-03,2.27E-02
35313,5.84E-03,2.14E-02
35314,5.91E-03,2.18E-02
35315,5.81E-03,2.05E-02
35316,5.80E-03,2.10E-02
35317,5.78E-03,1.98E-02
35318,5.77E-03,2.02E-02
35319,5.76E-03,1.90E-02
35320,5.77E-03,1.93E-02
35321,5.85E-03,1.82E-02
35322,5.78E-03,1.86E-02
35323,5.88E-03,1.74E-02
35324,5.85E-03,1.78E-02
35325,6.02E-03,1.67E-02
35326,5.98E-03,1.70E-02
35327,6.04E-03,1.59E-02
35328,6.01E-03,1.63E-02
35329,6.07E-03,1.52E-02
35330,6.05E-03,1.56E-02
35331,6.09E-03,1.45E-02
35332,6.11E-03,1.49E-02
35333,6.01E-03,1.38E-02
35334,6.03E-03,1.42E-02
35335,5.90E-03,1.32E-02
35336,5.96E-03,1.35E-02
35337,6.03E-03,1.25E-02
35338,5.94E-03,1.29E-02
35339,6.07E-03,1.19E-02
35340,6.01E-03,1.22E-02
35341,6.17E-03,1.13E-02
35342,6.09E-03,1.16E-02
35343,6.15E-03,1.07E-02
35344,6.18E-03,1.10E-02
35345,6.03E-03,1.02E-02
35346,6.05E-03,1.05E-02
35347,6.08E-03,9.64E-03
35348,6.01E-03,9.91E-03
35349,6.20E-03,9.11E-03
35350,6.14E-03,9.37E-03
35351,6.28E-03,8.61E-03
35352,6.31E-03,8.86E-03
35353,6.33E-03,8.12E-03
35354,6.31E-03,8.36E-03
35355,6.32E-03,7.65E-03
35356,6.39E-03,7.88E-03
35357,6.30E-03,7.21E-03
35358,6.34E-03,7.42E-03
35359,6.30E-03,6.80E-03
35360,6.26E-03,7.00E-03
35361,6.30E-03,6.41E-03
35362,6.28E-03,6.61E-03
35363,6.29E-03,6.04E-03
35364,6.30E-03,6.22E-03
35365,6.25E-03,5.69E-03
35366,6.31E-03,5.86E-03
35367,6.14E-03,5.37E-03
35368,6.27E-03,5.53E-03
35369,6.06E-03,5.08E-03
35370,6.11E-03,5.22E-03
35371,6.04E-03,4.80E-03
35372,6.00E-03,4.94E-03
35373,6.17E-03,4.52E-03
35374,6.13E-03,4.66E-03
35375,6.31E-03,4.28E-03
35376,6.25E-03,4.40E-03
35377,6.10E-03,4.03E-03
35378,6.21E-03,4.15E-03
35379,5.99E-03,3.81E-03
35380,6.00E-03,3.92E-03
35381,5.86E-03,3.61E-03
35382,5.91E-03,3.71E-03
35383,5.74E-03,3.42E-03
35384,5.79E-03,3.51E-03
35385,5.79E-03,3.24E-03
35386,5.75E-03,3.33E-03
35387,5.91E-03,3.07E-03
35388,5.89E-03,3.15E-03
35389,5.95E-03,2.91E-03
35390,5.91E-03,2.99E-03
35391,5.76E-03,2.78E-03
35392,5.83E-03,2.84E-03
35393,5.71E-03,2.64E-03
35394,5.74E-03,2.70E-03
35395,5.78E-03,2.53E-03
35396,5.76E-03,2.58E-03
35397,5.80E-03,2.42E-03
35398,5.77E-03,2.47E-03
35399,5.86E-03,2.32E-03
35400,5.82E-03,2.37E-03
35401,5.89E-03,2.23E-03
35402,5.87E-03,2.27E-03
35403,5.88E-03,2.14E-03
35404,5.93E-03,2.18E-03
35405,5.80E-03,2.07E-03
35406,5.85E-03,2.11E-03
35407,5.67E-03,2.01E-03
35408,5.77E-03,2.04E-03
35409,5.46E-03,1.95E-03
35410,5.61E-03,1.98E-03
35411,5.26E-03,1.91E-03
35412,5.31E-03,1.63E-02
35413,5.16E-03,3.26E-02
35414,5.64E-03,1.23E-02
35415,4.59E-03,2.33E-02
35416,6.33E-03,9.02E-02
35417,6.29E-03,5.23E-02
35418,6.36E-03,1.19E-02
35419,5.92E-03,2.30E-02
35420,5.63E-03,3.28E-02
35421,5.56E-03,3.32E-02
35422,5.82E-03,3.19E-02
35423,5.80E-03,3.23E-02
35424,5.66E-03,3.13E-02
35425,5.75E-03,3.15E-02
35426,5.46E-03,3.10E-02
35427,5.54E-03,3.11E-02
35428,5.36E-03,3.10E-02
35429,5.31E-03,3.10E-02
35430,5.37E-03,3.09E-02
35431,5.36E-03,3.10E-02
35432,5.57E-03,3.07E-02
35433,5.55E-03,3.08E-02
35434,5.86E-03,3.01E-02
35435,5.90E-03,3.05E-02
35436,6.17E-03,2.91E-02
35437,6.10E-03,2.96E-02
35438,6.38E-03,2.78E-02
35439,6.40E-03,2.84E-02
35440,6.42E-03,2.72E-02
35441,6.21E-03,2.56E-02
35442,6.14E-03,2.58E-02
35443,6.70E-03,2.57E-02
35444,6.78E-03,2.56E-02
35445,6.00E-03,2.60E-02
35446,5.80E-03,2.61E-02
35447,6.41E-03,2.54E-02
35448,6.22E-03,2.57E-02
35449,6.41E-03,2.49E-02
35450,6.50E-03,2.52E-02
35451,6.44E-03,2.42E-02
35452,6.36E-03,2.46E-02
35453,6.62E-03,2.33E-02
35454,6.51E-03,2.38E-02
35455,6.71E-03,2.24E-02
35456,6.65E-03,2.29E-02
35457,6.76E-03,2.14E-02
35458,6.74E-03,2.19E-02
35459,6.68E-03,2.09E-02
35460,6.53E-03,1.90E-02
35461,7.31E-03,1.69E-02
35462,7.13E-03,1.63E-02
35463,7.30E-03,1.66E-02
35464,6.33E-03,1.57E-02
35465,6.69E-03,1.60E-02
35466,6.11E-03,1.49E-02
35467,6.03E-03,1.53E-02
35468,6.31E-03,1.44E-02
35469,5.50E-03,5.42E-02
35470,5.23E-03,5.32E-02
35471,5.41E-03,5.36E-02
35472,5.17E-03,5.23E-02
35473,5.15E-03,5.28E-02
35474,5.24E-03,5.14E-02
35475,5.17E-03,5.19E-02
35476,4.25E-03,5.04E-02
35477,5.60E-03,5.10E-02
35478,5.04E-03,4.95E-02
35479,3.95E-03,5.04E-02
35480,5.46E-03,4.77E-02
35481,5.24E-03,4.86E-02
35482,5.75E-03,4.61E-02
35483,5.71E-03,4.69E-02
35484,6.02E-03,4.49E-02
35485,5.94E-03,4.55E-02
35486,6.18E-03,4.39E-02
35487,6.09E-03,4.44E-02
35488,6.24E-03,4.31E-02
35489,6.22E-03,4.34E-02
35490,6.11E-03,4.27E-02
35491,6.23E-03,4.29E-02
35492,5.99E-03,4.22E-02
35493,6.04E-03,4.25E-02
35494,6.08E-03,4.14E-02
35495,6.02E-03,4.19E-02
35496,6.18E-03,4.03E-02
35497,6.15E-03,4.09E-02
35498,7.10E-03,3.87E-02
35499,6.44E-03,3.97E-02
35500,6.12E-03,3.83E-02
35501,5.58E-03,3.86E-02
35502,6.72E-03,3.80E-02
35503,6.52E-03,3.81E-02
35504,6.97E-03,3.81E-02
35505,6.84E-03,3.80E-02
35506,4.86E-03,3.84E-02
35507,6.70E-03,3.84E-02
35508,5.22E-03,3.74E-02
35509,4.92E-03,3.78E-02
35510,4.72E-03,3.65E-02
35511,5.00E-03,3.70E-02
35512,4.55E-03,3.58E-02
35513,5.86E-03,4.96E-02
35514,5.85E-03,4.86E-02
35515,5.75E-03,5.13E-02
35516,5.88E-03,5.05E-02
35517,5.65E-03,5.26E-02
35518,5.69E-03,5.20E-02
35519,5.49E-03,5.38E-02
35520,5.59E-03,5.32E-02
35521,5.49E-03,5.49E-02
35522,5.51E-03,5.43E-02
35523,5.54E-03,5.60E-02
35524,5.57E-03,5.54E-02
35525,5.33E-03,5.73E-02
35526,5.45E-03,5.67E-02
35527,5.24E-03,5.87E-02
35528,5.29E-03,5.80E-02
35529,5.28E-03,6.01E-02
35530,5.25E-03,5.94E-02
35531,5.38E-03,6.15E-02
35532,5.36E-03,6.08E-02
35533,5.57E-03,6.28E-02
35534,5.51E-03,6.22E-02
35535,5.77E-03,6.39E-02
35536,5.68E-03,6.34E-02
35537,6.02E-03,6.47E-02
35538,5.89E-03,6.43E-02
35539,6.31E-03,6.55E-02
35540,6.15E-03,6.51E-02
35541,6.43E-03,6.62E-02
35542,6.40E-03,6.58E-02
35543,6.51E-03,6.72E-02
35544,6.52E-03,6.67E-02
35545,6.51E-03,6.85E-02
35546,6.50E-03,6.78E-02
35547,6.34E-03,7.03E-02
35548,6.37E-03,6.94E-02
35549,6.10E-03,7.22E-02
35550,6.22E-03,7.12E-02
35551,6.03E-03,7.41E-02
35552,6.10E-03,7.31E-02
35553,5.86E-03,7.59E-02
35554,5.98E-03,7.50E-02
35555,5.77E-03,7.77E-02
35556,5.86E-03,7.68E-02
35557,5.70E-03,7.95E-02
35558,5.77E-03,7.86E-02
35559,5.69E-03,8.09E-02
35560,5.69E-03,8.02E-02
35561,5.58E-03,8.23E-02
35562,5.60E-03,8.16E-02
35563,5.53E-03,8.36E-02
35564,5.53E-03,8.30E-02
35565,5.56E-03,8.47E-02
35566,5.52E-03,8.42E-02
35567,5.70E-03,8.56E-02
35568,5.69E-03,8.52E-02
35569,5.84E-03,8.67E-02
35570,5.81E-03,8.61E-02
35571,5.93E-03,8.80E-02
35572,5.93E-03,8.74E-02
35573,5.83E-03,8.93E-02
35574,5.88E-03,8.87E-02
35575,5.81E-03,9.06E-02
35576,5.76E-03,9.00E-02
35577,5.94E-03,9.18E-02
35578,5.87E-03,9.12E-02
35579,5.82E-03,9.31E-02
35580,5.88E-03,9.25E-02
35581,5.75E-03,9.46E-02
35582,5.84E-03,9.39E-02
35583,5.62E-03,9.56E-02
35584,5.69E-03,9.53E-02
35585,5.89E-03,9.55E-02
35586,6.12E-03,9.93E-02
35587,6.46E-03,9.79E-02
35588,5.68E-03,0.10183
35589,5.79E-03,0.10066
35590,5.61E-03,0.10344
35591,5.62E-03,0.10277
35592,5.73E-03,0.10405
35593,5.69E-03,0.10385
35594,5.94E-03,0.10408
35595,5.88E-03,0.10412
35596,6.22E-03,0.10388
35597,6.12E-03,0.10398
35598,6.40E-03,0.10373
35599,6.36E-03,0.1038
35600,6.55E-03,0.10392
35601,6.45E-03,0.10374
35602,6.39E-03,0.10546
35603,6.45E-03,0.10469
35604,5.90E-03,0.10785
35605,6.01E-03,0.10648
35606,5.64E-03,0.11061
35607,5.69E-03,0.10924
35608,5.58E-03,0.11315
35609,5.53E-03,0.11194
35610,6.06E-03,0.11574
35611,5.63E-03,0.11432
35612,5.31E-03,0.11761
35613,5.87E-03,0.11937
35614,5.64E-03,0.11924
35615,5.86E-03,0.11797
35616,5.78E-03,0.11883
35617,6.16E-03,0.11586
35618,6.08E-03,0.11695
35619,6.36E-03,0.11428
35620,6.30E-03,0.11495
35621,6.33E-03,0.11398
35622,6.38E-03,0.11392
35623,6.22E-03,0.11502
35624,6.21E-03,0.11435
35625,6.06E-03,0.11695
35626,6.04E-03,0.11589
35627,5.89E-03,0.11963
35628,5.89E-03,0.1182
35629,5.73E-03,0.12275
35630,5.77E-03,0.12115
35631,5.57E-03,0.12565
35632,5.65E-03,0.12421
35633,5.33E-03,0.12844
35634,5.46E-03,0.12706
35635,5.05E-03,0.13175
35636,5.18E-03,0.12991
35637,4.56E-03,0.13338
35638,5.58E-03,0.13101
35639,5.89E-03,2.40E-02
35640,4.84E-03,1.34E-02
35641,5.37E-03,1.34E-02
35642,5.55E-03,4.96E-02
35643,5.90E-03,5.10E-02
35644,5.06E-03,5.41E-02
35645,5.33E-03,4.97E-02
35646,4.48E-03,5.18E-02
35647,6.03E-03,4.81E-02
35648,5.27E-03,3.78E-02
35649,5.25E-03,3.69E-02
35650,5.42E-03,2.57E-02
35651,5.50E-03,2.67E-02
35652,5.42E-03,2.45E-02
35653,5.07E-03,7.03E-03
35654,6.10E-03,6.81E-03
35655,5.00E-03,6.76E-03
35656,6.03E-03,7.30E-03
35657,6.47E-03,7.15E-03
35658,6.25E-03,1.29E-02
35659,5.49E-03,7.41E-03
35660,5.42E-03,1.75E-02
35661,5.01E-03,1.61E-02
35662,4.98E-03,3.13E-02
35663,5.28E-03,3.15E-02
35664,5.51E-03,1.29E-02
35665,5.58E-03,1.35E-02
35666,4.96E-03,2.18E-02
35667,4.60E-03,2.39E-02
35668,6.17E-03,8.41E-02
35669,6.19E-03,8.54E-02
35670,6.18E-03,5.70E-02
35671,6.29E-03,4.77E-02
35672,6.21E-03,1.29E-02
35673,6.47E-03,1.60E-02
35674,6.15E-03,2.84E-02
35675,6.05E-03,2.14E-02
35676,5.27E-03,3.36E-02
35677,6.87E-03,2.76E-02
35678,6.31E-03,2.81E-02
35679,4.03E-03,2.06E-02
35680,5.50E-03,3.84E-02
35681,6.05E-03,4.55E-02
35682,4.94E-03,0.14259
35683,4.73E-03,0.14233
35684,5.17E-03,0.14266
35685,6.23E-03,2.46E-02
35686,5.62E-03,2.28E-02
35687,5.66E-03,7.60E-03
35688,4.04E-03,7.52E-03
35689,5.87E-03,6.84E-03
35690,4.28E-03,6.79E-03
35691,4.54E-03,7.11E-03
35692,3.93E-03,1.99E-02
35693,4.89E-03,1.59E-02
35694,4.74E-03,2.99E-02
35695,5.37E-03,3.04E-02
35696,5.41E-03,1.34E-02
35697,5.44E-03,1.47E-02
35698,5.07E-03,2.03E-02
35699,4.26E-03,2.46E-02
35700,6.17E-03,7.77E-02
35701,6.12E-03,8.05E-02
35702,6.14E-03,6.16E-02
35703,7.40E-03,4.20E-02
35704,6.10E-03,1.39E-02
35705,6.39E-03,2.14E-02
35706,6.02E-03,1.97E-02
35707,5.34E-03,3.37E-02
35708,4.95E-03,0.12335
35709,4.11E-03,0.1264
35710,6.21E-03,0.13971
35711,5.81E-03,0.13827
35712,3.65E-03,0.13089
35713,6.16E-03,2.54E-02
35714,5.53E-03,5.66E-02
35715,5.68E-03,5.60E-02
35716,4.77E-03,2.16E-02
35717,5.45E-03,1.30E-02
35718,5.50E-03,4.24E-03
35719,6.36E-03,4.51E-03
35720,4.86E-03,1.56E-02
35721,5.45E-03,2.94E-02
35722,5.25E-03,1.40E-02
35723,5.38E-03,1.60E-02
35724,5.17E-03,1.88E-02
35725,3.94E-03,2.53E-02
35726,4.38E-03,0.11177
35727,6.07E-03,7.07E-02
35728,6.11E-03,7.56E-02
35729,6.18E-03,6.62E-02
35730,6.13E-03,1.51E-02
35731,6.39E-03,2.84E-02
35732,6.06E-03,1.80E-02
35733,5.45E-03,2.75E-02
35734,5.55E-03,5.51E-02
35735,5.78E-03,5.55E-02
35736,4.86E-03,1.53E-02
35737,5.55E-03,2.84E-02
35738,5.08E-03,1.45E-02
35739,5.28E-03,1.74E-02
35740,4.09E-03,2.64E-02
35741,4.42E-03,1.77E-03
35742,5.63E-03,1.83E-03
35743,5.82E-03,2.09E-03
35744,5.14E-03,1.99E-03
35745,6.05E-03,6.28E-02
35746,6.08E-03,7.08E-02
35747,6.14E-03,1.65E-02
35748,6.37E-03,3.65E-02
35749,6.00E-03,9.51E-02
35750,5.72E-03,4.02E-02
35751,4.69E-03,4.07E-02
35752,4.92E-03,1.49E-02
35753,5.73E-03,2.75E-02
35754,4.22E-03,2.05E-02
35755,4.34E-03,2.75E-02
35756,5.66E-03,4.17E-02
35757,6.10E-03,5.43E-02
35758,6.28E-03,4.53E-02
35759,3.91E-03,1.34E-02
35760,5.76E-03,5.03E-02
35761,5.30E-03,5.45E-02
35762,4.60E-03,5.35E-02
35763,4.80E-03,5.38E-02
35764,4.38E-03,5.28E-02
35765,5.67E-03,4.58E-02
35766,5.88E-03,4.68E-02
35767,5.73E-03,4.36E-02
35768,5.71E-03,4.47E-02
35769,5.77E-03,4.14E-02
35770,5.80E-03,4.25E-02
35771,5.61E-03,3.97E-02
35772,5.67E-03,4.05E-02
35773,5.44E-03,3.87E-02
35774,5.51E-03,3.36E-02
35775,5.35E-03,3.58E-02
35776,5.38E-03,3.47E-02
35777,5.73E-03,3.12E-02
35778,5.64E-03,3.24E-02
35779,5.69E-03,2.89E-02
35780,5.65E-03,3.00E-02
35781,5.63E-03,2.77E-02
35782,5.83E-03,2.14E-02
35783,5.46E-03,2.30E-02
35784,5.92E-03,1.92E-02
35785,6.13E-03,2.04E-02
35786,5.70E-03,1.71E-02
35787,5.75E-03,1.82E-02
35788,5.54E-03,1.49E-02
35789,5.61E-03,1.60E-02
35790,5.42E-03,1.29E-02
35791,5.48E-03,1.39E-02
35792,5.37E-03,1.14E-02
35793,5.35E-03,1.20E-02
35794,5.43E-03,1.16E-02
35795,5.43E-03,1.13E-02
35796,5.55E-03,1.37E-02
35797,5.46E-03,1.24E-02
35798,5.57E-03,1.71E-02
35799,5.56E-03,1.52E-02
35800,5.60E-03,2.21E-02
35801,5.61E-03,1.94E-02
35802,5.54E-03,2.76E-02
35803,5.61E-03,2.48E-02
35804,5.51E-03,3.35E-02
35805,5.56E-03,3.05E-02
35806,5.59E-03,4.02E-02
35807,5.52E-03,3.67E-02
35808,5.70E-03,4.81E-02
35809,5.66E-03,4.40E-02
35810,5.74E-03,5.68E-02
35811,5.76E-03,5.23E-02
35812,5.61E-03,6.67E-02
35813,5.65E-03,6.16E-02
35814,5.68E-03,7.86E-02
35815,5.55E-03,7.22E-02
35816,5.33E-03,7.30E-03
35817,5.43E-03,7.36E-03
35818,5.33E-03,7.16E-03
35819,5.28E-03,7.23E-03
35820,5.32E-03,7.09E-03
35821,6.35E-03,6.80E-03
35822,6.49E-03,6.81E-03
35823,6.30E-03,6.78E-03
35824,6.34E-03,6.79E-03
35825,5.88E-03,6.78E-03
35826,6.24E-03,6.78E-03
35827,5.75E-03,6.78E-03
35828,5.54E-03,6.86E-03
35829,6.49E-03,7.23E-03
35830,5.87E-03,7.82E-03
35831,5.85E-03,7.71E-03
35832,5.52E-03,8.06E-03
35833,5.95E-03,7.94E-03
35834,5.10E-03,8.28E-03
35835,5.45E-03,8.17E-03
35836,4.54E-03,8.48E-03
35837,4.90E-03,8.38E-03
35838,4.49E-03,8.70E-03
35839,4.35E-03,8.56E-03
35840,5.31E-03,8.87E-03
35841,4.72E-03,8.79E-03
35842,5.55E-03,9.08E-03
35843,5.46E-03,8.97E-03
35844,5.59E-03,9.32E-03
35845,5.60E-03,9.20E-03
35846,5.69E-03,9.59E-03
35847,5.63E-03,9.45E-03
35848,6.67E-03,9.91E-03
35849,5.70E-03,9.73E-03
35850,7.15E-03,1.03E-02
35851,7.42E-03,1.01E-02
35852,7.27E-03,1.06E-02
35853,7.30E-03,1.05E-02
35854,7.17E-03,1.10E-02
35855,7.37E-03,1.08E-02
35856,6.72E-03,1.14E-02
35857,6.90E-03,1.12E-02
35858,6.42E-03,1.18E-02
35859,6.54E-03,1.16E-02
35860,6.28E-03,1.20E-02
35861,6.68E-03,1.27E-02
35862,6.47E-03,1.28E-02
35863,5.43E-03,2.37E-03
35864,4.59E-03,2.18E-03
35865,5.56E-03,2.82E-03
35866,5.51E-03,2.59E-03
35867,5.53E-03,3.29E-03
35868,5.58E-03,3.06E-03
35869,5.42E-03,3.76E-03
35870,5.49E-03,3.53E-03
35871,5.43E-03,4.00E-03
35872,6.21E-03,5.00E-03
35873,6.24E-03,4.75E-03
35874,5.94E-03,5.47E-03
35875,6.06E-03,5.24E-03
35876,5.68E-03,5.92E-03
35877,5.86E-03,5.71E-03
35878,5.47E-03,6.33E-03
35879,5.68E-03,6.13E-03
35880,5.33E-03,6.72E-03
35881,5.46E-03,6.53E-03
35882,5.32E-03,7.11E-03
35883,5.32E-03,6.92E-03
35884,5.38E-03,7.29E-03
35885,4.70E-03,6.48E-03
35886,4.76E-03,6.39E-03
35887,3.77E-03,6.53E-03
35888,4.34E-03,6.43E-03
35889,3.84E-03,6.53E-03
35890,5.68E-03,1.92E-03
35891,5.23E-03,2.01E-03
35892,6.01E-03,2.30E-03
35893,3.41E-03,2.06E-03
35894,4.98E-03,2.30E-03
35895,4.35E-03,2.40E-03
35896,5.87E-03,2.23E-03
35897,5.86E-03,3.95E-02
35898,6.18E-03,3.98E-02
35899,5.90E-03,3.92E-02
35900,5.67E-03,3.94E-02
35901,5.91E-03,3.87E-02
35902,5.90E-03,3.89E-02
35903,6.11E-03,3.82E-02
35904,5.98E-03,3.84E-02
35905,6.09E-03,3.76E-02
35906,6.05E-03,3.79E-02
35907,6.20E-03,3.69E-02
35908,6.14E-03,3.72E-02
35909,6.25E-03,3.61E-02
35910,6.26E-03,3.65E-02
35911,6.16E-03,3.53E-02
35912,6.17E-03,3.57E-02
35913,6.26E-03,3.45E-02
35914,6.23E-03,3.49E-02
35915,6.33E-03,3.36E-02
35916,6.29E-03,3.40E-02
35917,6.29E-03,3.26E-02
35918,6.35E-03,3.31E-02
35919,6.31E-03,3.16E-02
35920,6.30E-03,3.21E-02
35921,6.41E-03,3.06E-02
35922,6.39E-03,3.11E-02
35923,6.32E-03,2.96E-02
35924,6.36E-03,3.01E-02
35925,6.17E-03,2.86E-02
35926,6.24E-03,2.91E-02
35927,6.02E-03,2.77E-02
35928,6.12E-03,2.82E-02
35929,6.01E-03,2.67E-02
35930,6.01E-03,2.72E-02
35931,5.93E-03,2.58E-02
35932,5.93E-03,2.63E-02
35933,6.02E-03,2.49E-02
35934,5.96E-03,2.54E-02
35935,6.09E-03,2.40E-02
35936,6.04E-03,2.45E-02
35937,6.03E-03,2.32E-02
35938,6.14E-03,2.36E-02
35939,5.92E-03,2.23E-02
35940,5.98E-03,2.27E-02
35941,5.83E-03,2.15E-02
35942,5.89E-03,2.19E-02
35943,5.80E-03,2.07E-02
35944,5.78E-03,2.11E-02
35945,5.78E-03,1.99E-02
35946,5.79E-03,2.03E-02
35947,5.75E-03,1.91E-02
35948,5.77E-03,1.95E-02
35949,5.79E-03,1.83E-02
35950,5.77E-03,1.87E-02
35951,5.84E-03,1.76E-02
35952,5.82E-03,1.79E-02
35953,5.95E-03,1.68E-02
35954,5.91E-03,1.72E-02
35955,5.98E-03,1.61E-02
35956,5.98E-03,1.65E-02
35957,6.02E-03,1.54E-02
35958,6.00E-03,1.57E-02
35959,6.01E-03,1.47E-02
35960,6.01E-03,1.50E-02
35961,5.94E-03,1.40E-02
35962,6.02E-03,1.43E-02
35963,5.90E-03,1.34E-02
35964,5.93E-03,1.37E-02
35965,5.98E-03,1.27E-02
35966,5.95E-03,1.30E-02
35967,6.07E-03,1.21E-02
35968,6.00E-03,1.24E-02
35969,6.07E-03,1.15E-02
35970,6.04E-03,1.18E-02
35971,6.05E-03,1.09E-02
35972,6.05E-03,1.12E-02
35973,6.02E-03,1.04E-02
35974,6.03E-03,1.06E-02
35975,6.03E-03,9.80E-03
35976,6.03E-03,1.01E-02
35977,6.14E-03,9.27E-03
35978,6.10E-03,9.53E-03
35979,6.22E-03,8.76E-03
35980,6.25E-03,9.01E-03
35981,6.25E-03,8.27E-03
35982,6.24E-03,8.51E-03
35983,6.37E-03,7.79E-03
35984,6.34E-03,8.03E-03
35985,6.24E-03,7.34E-03
35986,6.28E-03,7.56E-03
35987,6.22E-03,6.93E-03
35988,6.20E-03,7.13E-03
35989,6.17E-03,6.53E-03
35990,6.16E-03,6.73E-03
35991,6.23E-03,6.15E-03
35992,6.22E-03,6.34E-03
35993,6.21E-03,5.80E-03
35994,6.23E-03,5.97E-03
35995,6.06E-03,5.47E-03
35996,6.18E-03,5.63E-03
35997,5.98E-03,5.17E-03
35998,5.99E-03,5.32E-03
35999,5.97E-03,4.87E-03
36000,5.93E-03,5.02E-03
36001,6.13E-03,4.59E-03
36002,6.05E-03,4.73E-03
36003,6.19E-03,4.34E-03
36004,6.17E-03,4.46E-03
36005,6.06E-03,4.09E-03
36006,6.15E-03,4.21E-03
36007,5.93E-03,3.85E-03
36008,5.98E-03,3.97E-03
36009,5.78E-03,3.64E-03
36010,5.87E-03,3.75E-03
36011,5.77E-03,3.44E-03
36012,5.76E-03,3.54E-03
36013,5.75E-03,3.25E-03
36014,5.72E-03,3.35E-03
36015,5.88E-03,3.07E-03
36016,5.79E-03,3.16E-03
36017,5.91E-03,2.90E-03
36018,5.89E-03,2.98E-03
36019,5.76E-03,2.75E-03
36020,5.85E-03,2.82E-03
36021,5.71E-03,2.60E-03
36022,5.78E-03,2.67E-03
36023,5.68E-03,2.47E-03
36024,5.68E-03,2.53E-03
36025,5.73E-03,2.35E-03
36026,5.70E-03,2.41E-03
36027,5.86E-03,2.24E-03
36028,5.79E-03,2.30E-03
36029,5.91E-03,2.14E-03
36030,5.90E-03,2.19E-03
36031,5.92E-03,2.04E-03
36032,5.96E-03,2.09E-03
36033,5.81E-03,1.95E-03
36034,5.86E-03,2.00E-03
36035,5.74E-03,1.88E-03
36036,5.76E-03,1.92E-03
36037,5.67E-03,1.81E-03
36038,5.66E-03,1.84E-03
36039,4.48E-03,1.75E-03
36040,5.58E-03,1.77E-03
36041,7.20E-03,1.74E-03
36042,5.34E-03,1.73E-03
36043,5.08E-03,1.67E-02
36044,5.13E-03,3.14E-02
36045,5.59E-03,1.32E-02
36046,4.67E-03,2.29E-02
36047,6.16E-03,8.49E-02
36048,6.30E-03,5.24E-02
36049,6.34E-03,1.43E-02
36050,6.07E-03,2.48E-02
36051,5.67E-03,3.27E-02
36052,5.68E-03,3.31E-02
36053,5.79E-03,3.18E-02
36054,5.81E-03,3.22E-02
36055,5.62E-03,3.14E-02
36056,5.79E-03,3.15E-02
36057,5.48E-03,3.13E-02
36058,5.56E-03,3.13E-02
36059,5.34E-03,3.15E-02
36060,5.32E-03,3.14E-02
36061,5.38E-03,3.17E-02
36062,5.34E-03,3.16E-02
36063,5.54E-03,3.16E-02
36064,5.48E-03,3.17E-02
36065,5.90E-03,3.12E-02
36066,5.80E-03,3.15E-02
36067,6.13E-03,3.04E-02
36068,6.04E-03,3.09E-02
36069,6.33E-03,2.92E-02
36070,6.34E-03,2.98E-02
36071,6.30E-03,2.85E-02
36072,6.07E-03,2.72E-02
36073,5.83E-03,2.73E-02
36074,6.18E-03,2.74E-02
36075,6.30E-03,2.73E-02
36076,6.09E-03,2.75E-02
36077,6.23E-03,2.75E-02
36078,6.24E-03,2.70E-02
36079,6.14E-03,2.73E-02
36080,6.27E-03,2.63E-02
36081,6.29E-03,2.67E-02
36082,6.34E-03,2.55E-02
36083,6.27E-03,2.59E-02
36084,6.52E-03,2.46E-02
36085,6.44E-03,2.51E-02
36086,6.62E-03,2.36E-02
36087,6.53E-03,2.41E-02
36088,6.74E-03,2.25E-02
36089,6.70E-03,2.31E-02
36090,7.11E-03,2.13E-02
36091,6.81E-03,2.20E-02
36092,6.16E-03,2.07E-02
36093,6.78E-03,1.94E-02
36094,6.56E-03,1.99E-02
36095,7.15E-03,1.75E-02
36096,6.90E-03,1.68E-02
36097,7.02E-03,1.72E-02
36098,6.34E-03,1.61E-02
36099,6.46E-03,1.65E-02
36100,6.03E-03,1.52E-02
36101,6.05E-03,1.56E-02
36102,4.91E-03,1.44E-02
36103,5.49E-03,1.48E-02
36104,4.18E-03,1.39E-02
36105,5.47E-03,5.71E-02
36106,5.29E-03,5.71E-02
36107,5.11E-03,5.65E-02
36108,4.91E-03,5.66E-02
36109,5.17E-03,5.53E-02
36110,5.27E-03,5.58E-02
36111,5.16E-03,5.42E-02
36112,5.16E-03,5.48E-02
36113,5.17E-03,5.34E-02
36114,5.17E-03,5.38E-02
36115,4.78E-03,5.25E-02
36116,5.03E-03,5.31E-02
36117,4.94E-03,5.15E-02
36118,4.79E-03,5.20E-02
36119,5.40E-03,4.99E-02
36120,5.20E-03,5.07E-02
36121,5.74E-03,4.85E-02
36122,5.59E-03,4.92E-02
36123,5.98E-03,4.73E-02
36124,5.99E-03,4.78E-02
36125,6.13E-03,4.63E-02
36126,6.07E-03,4.68E-02
36127,6.24E-03,4.56E-02
36128,6.23E-03,4.59E-02
36129,6.08E-03,4.52E-02
36130,6.18E-03,4.53E-02
36131,5.96E-03,4.48E-02
36132,6.01E-03,4.50E-02
36133,6.06E-03,4.39E-02
36134,6.05E-03,4.44E-02
36135,6.26E-03,4.26E-02
36136,6.19E-03,4.33E-02
36137,7.32E-03,4.06E-02
36138,6.71E-03,4.16E-02
36139,6.49E-03,3.98E-02
36140,7.23E-03,4.01E-02
36141,6.65E-03,3.93E-02
36142,6.52E-03,3.95E-02
36143,6.76E-03,3.92E-02
36144,6.65E-03,3.93E-02
36145,6.60E-03,3.93E-02
36146,6.68E-03,3.92E-02
36147,5.44E-03,3.89E-02
36148,5.85E-03,3.92E-02
36149,4.52E-03,3.87E-02
36150,5.12E-03,3.76E-02
36151,5.42E-03,3.82E-02
36152,4.85E-03,3.63E-02
36153,4.97E-03,3.70E-02
36154,4.78E-03,3.57E-02
36155,5.94E-03,4.67E-02
36156,5.95E-03,4.89E-02
36157,5.98E-03,4.77E-02
36158,5.88E-03,5.09E-02
36159,5.92E-03,4.99E-02
36160,5.75E-03,5.24E-02
36161,5.81E-03,5.17E-02
36162,5.66E-03,5.36E-02
36163,5.73E-03,5.30E-02
36164,5.53E-03,5.46E-02
36165,5.60E-03,5.41E-02
36166,5.50E-03,5.56E-02
36167,5.47E-03,5.51E-02
36168,5.49E-03,5.68E-02
36169,5.51E-03,5.62E-02
36170,5.30E-03,5.80E-02
36171,5.38E-03,5.74E-02
36172,5.29E-03,5.94E-02
36173,5.28E-03,5.87E-02
36174,5.30E-03,6.09E-02
36175,5.25E-03,6.01E-02
36176,5.36E-03,6.24E-02
36177,5.37E-03,6.17E-02
36178,5.56E-03,6.39E-02
36179,5.53E-03,6.32E-02
36180,5.76E-03,6.52E-02
36181,5.65E-03,6.46E-02
36182,6.01E-03,6.62E-02
36183,5.87E-03,6.57E-02
36184,6.23E-03,6.71E-02
36185,6.12E-03,6.66E-02
36186,6.39E-03,6.79E-02
36187,6.33E-03,6.75E-02
36188,6.40E-03,6.90E-02
36189,6.42E-03,6.84E-02
36190,6.40E-03,7.05E-02
36191,6.41E-03,6.97E-02
36192,6.25E-03,7.24E-02
36193,6.31E-03,7.14E-02
36194,6.08E-03,7.44E-02
36195,6.17E-03,7.33E-02
36196,6.00E-03,7.63E-02
36197,6.06E-03,7.53E-02
36198,5.84E-03,7.81E-02
36199,5.95E-03,7.72E-02
36200,5.76E-03,7.99E-02
36201,5.79E-03,7.90E-02
36202,5.69E-03,8.16E-02
36203,5.72E-03,8.08E-02
36204,5.64E-03,8.31E-02
36205,5.63E-03,8.24E-02
36206,5.62E-03,8.45E-02
36207,5.62E-03,8.38E-02
36208,5.51E-03,8.58E-02
36209,5.54E-03,8.52E-02
36210,5.56E-03,8.70E-02
36211,5.52E-03,8.65E-02
36212,5.67E-03,8.80E-02
36213,5.67E-03,8.75E-02
36214,5.82E-03,8.91E-02
36215,5.73E-03,8.85E-02
36216,5.92E-03,9.05E-02
36217,5.91E-03,8.98E-02
36218,5.82E-03,9.20E-02
36219,5.88E-03,9.13E-02
36220,5.88E-03,9.34E-02
36221,5.77E-03,9.27E-02
36222,5.90E-03,9.48E-02
36223,5.88E-03,9.41E-02
36224,5.90E-03,9.62E-02
36225,5.86E-03,9.54E-02
36226,5.77E-03,9.78E-02
36227,5.89E-03,9.70E-02
36228,5.85E-03,9.88E-02
36229,5.75E-03,9.84E-02
36230,6.23E-03,9.93E-02
36231,6.05E-03,9.91E-02
36232,6.78E-03,9.96E-02
36233,6.58E-03,9.94E-02
36234,6.63E-03,0.10081
36235,6.74E-03,0.10003
36236,6.17E-03,0.10314
36237,6.30E-03,0.10184
36238,5.77E-03,0.10582
36239,5.85E-03,0.10455
36240,5.61E-03,0.10758
36241,5.65E-03,0.10684
36242,5.69E-03,0.10834
36243,5.71E-03,0.10808
36244,5.91E-03,0.10845
36245,5.91E-03,0.10844
36246,6.14E-03,0.10825
36247,6.07E-03,0.10837
36248,6.33E-03,0.10796
36249,6.31E-03,0.1081
36250,6.39E-03,0.10826
36251,6.40E-03,0.10796
36252,6.26E-03,0.10961
36253,6.29E-03,0.10881
36254,5.91E-03,0.11177
36255,5.99E-03,0.11057
36256,5.66E-03,0.11447
36257,5.70E-03,0.11311
36258,5.53E-03,0.11709
36259,5.54E-03,0.11579
36260,5.37E-03,0.12002
36261,5.50E-03,0.11845
36262,5.04E-03,0.1213
36263,5.72E-03,0.12421
36264,6.01E-03,0.12471
36265,5.80E-03,0.12289
36266,5.77E-03,0.1236
36267,6.04E-03,0.12098
36268,6.04E-03,0.12193
36269,6.29E-03,0.11951
36270,6.24E-03,0.12012
36271,6.23E-03,0.1195
36272,6.30E-03,0.11929
36273,6.11E-03,0.12104
36274,6.17E-03,0.12014
36275,5.99E-03,0.12346
36276,5.99E-03,0.12215
36277,5.82E-03,0.12648
36278,5.86E-03,0.12491
36279,5.71E-03,0.12981
36280,5.72E-03,0.12815
36281,5.53E-03,0.13293
36282,5.57E-03,0.13145
36283,5.35E-03,0.13606
36284,5.43E-03,0.13445
36285,5.00E-03,0.1397
36286,5.11E-03,0.13784
36287,4.82E-03,0.14113
36288,5.63E-03,0.14176
36289,6.02E-03,2.37E-02
36290,6.59E-03,7.47E-03
36291,5.73E-03,5.25E-02
36292,5.86E-03,5.44E-02
36293,5.90E-03,5.37E-02
36294,5.10E-03,5.80E-02
36295,5.07E-03,5.79E-02
36296,5.27E-03,5.26E-02
36297,4.97E-03,5.42E-02
36298,5.57E-03,5.13E-02
36299,5.52E-03,2.86E-02
36300,5.54E-03,2.98E-02
36301,5.54E-03,2.74E-02
36302,5.28E-03,1.71E-03
36303,5.61E-03,1.62E-03
36304,5.23E-03,1.48E-03
36305,5.58E-03,1.85E-03
36306,5.11E-03,6.33E-03
36307,6.24E-03,7.17E-03
36308,5.93E-03,7.60E-03
36309,6.41E-03,7.69E-03
36310,5.64E-03,1.27E-02
36311,5.76E-03,1.27E-02
36312,5.51E-03,7.50E-03
36313,5.43E-03,6.22E-03
36314,6.94E-03,2.28E-03
36315,4.34E-03,1.79E-02
36316,4.87E-03,1.66E-02
36317,4.93E-03,3.00E-02
36318,5.29E-03,3.02E-02
36319,5.43E-03,1.37E-02
36320,5.47E-03,1.44E-02
36321,5.06E-03,2.14E-02
36322,4.67E-03,2.35E-02
36323,6.58E-03,4.34E-02
36324,6.09E-03,7.88E-02
36325,6.10E-03,8.02E-02
36326,6.16E-03,5.71E-02
36327,6.34E-03,4.77E-02
36328,6.19E-03,1.54E-02
36329,6.32E-03,1.91E-02
36330,6.48E-03,3.05E-02
36331,6.04E-03,2.30E-02
36332,5.49E-03,3.33E-02
36333,5.73E-03,2.93E-02
36334,5.93E-03,2.94E-02
36335,3.68E-03,3.94E-02
36336,4.95E-03,3.97E-02
36337,4.07E-03,3.84E-02
36338,4.52E-03,0.12705
36339,3.63E-03,0.12872
36340,5.24E-03,0.15295
36341,5.07E-03,0.1411
36342,6.83E-03,2.43E-02
36343,5.05E-03,6.17E-03
36344,5.28E-03,2.24E-02
36345,4.75E-03,1.29E-02
36346,5.38E-03,1.30E-02
36347,5.83E-03,5.73E-02
36348,4.77E-03,6.29E-03
36349,6.17E-03,6.27E-03
36350,5.49E-03,6.20E-03
36351,6.85E-03,6.30E-03
36352,5.11E-03,7.12E-03
36353,5.42E-03,1.27E-02
36354,4.96E-03,4.25E-03
36355,4.62E-03,4.49E-03
36356,5.81E-03,1.65E-03
36357,5.84E-03,1.58E-03
36358,5.96E-03,1.54E-03
36359,4.83E-03,1.64E-02
36360,4.74E-03,2.87E-02
36361,5.38E-03,2.92E-02
36362,5.33E-03,1.43E-02
36363,5.45E-03,1.57E-02
36364,5.16E-03,1.99E-02
36365,4.39E-03,2.42E-02
36366,5.71E-03,4.58E-02
36367,5.87E-03,4.81E-02
36368,6.03E-03,4.70E-02
36369,6.34E-03,2.43E-03
36370,5.79E-03,2.40E-03
36371,4.01E-03,0.12046
36372,5.96E-03,7.24E-02
36373,6.02E-03,7.55E-02
36374,6.11E-03,6.17E-02
36375,7.39E-03,4.19E-02
36376,6.11E-03,1.67E-02
36377,6.28E-03,2.52E-02
36378,6.03E-03,2.13E-02
36379,5.46E-03,3.35E-02
36380,5.65E-03,3.32E-02
36381,5.20E-03,2.91E-02
36382,3.49E-03,1.96E-02
36383,4.84E-03,1.61E-02
36384,5.46E-03,2.82E-02
36385,5.17E-03,1.48E-02
36386,5.31E-03,1.70E-02
36387,5.26E-03,1.85E-02
36388,4.16E-03,2.52E-02
36389,4.97E-03,1.92E-03
36390,4.75E-03,0.10789
36391,5.87E-03,6.53E-02
36392,6.00E-03,7.07E-02
36393,6.07E-03,6.62E-02
36394,6.22E-03,3.80E-02
36395,6.18E-03,1.81E-02
36396,6.31E-03,3.25E-02
36397,6.07E-03,1.96E-02
36398,6.55E-03,8.48E-02
36399,4.16E-03,3.97E-02
36400,4.39E-03,3.92E-02
36401,3.51E-03,3.92E-02
36402,4.34E-03,4.02E-02
36403,4.89E-03,1.58E-02
36404,5.81E-03,2.64E-02
36405,4.60E-03,2.12E-02
36406,5.58E-03,2.73E-02
36407,5.02E-03,1.53E-02
36408,4.32E-03,2.64E-02
36409,4.34E-03,4.11E-02
36410,5.82E-03,5.76E-02
36411,6.17E-03,4.06E-02
36412,5.04E-03,6.69E-03
36413,5.05E-03,6.77E-03
36414,5.80E-03,6.58E-03
36415,4.25E-03,4.20E-02
36416,5.98E-03,4.92E-02
36417,4.03E-03,1.30E-02
36418,5.48E-03,5.97E-02
36419,5.84E-03,5.31E-02
36420,5.05E-03,5.80E-02
36421,4.85E-03,5.69E-02
36422,4.95E-03,5.75E-02
36423,4.78E-03,5.57E-02
36424,5.72E-03,4.87E-02
36425,5.74E-03,4.99E-02
36426,5.76E-03,4.66E-02
36427,5.76E-03,4.76E-02
36428,5.70E-03,4.45E-02
36429,5.76E-03,4.55E-02
36430,5.55E-03,4.26E-02
36431,5.65E-03,4.35E-02
36432,5.29E-03,4.07E-02
36433,5.39E-03,4.17E-02
36434,5.40E-03,3.87E-02
36435,5.33E-03,3.98E-02
36436,5.52E-03,3.65E-02
36437,5.44E-03,3.76E-02
36438,5.71E-03,3.42E-02
36439,5.60E-03,3.53E-02
36440,5.65E-03,3.20E-02
36441,5.69E-03,3.31E-02
36442,5.63E-03,3.09E-02
36443,5.78E-03,2.48E-02
36444,5.64E-03,2.61E-02
36445,5.85E-03,2.25E-02
36446,5.89E-03,2.36E-02
36447,5.71E-03,2.03E-02
36448,5.76E-03,2.14E-02
36449,5.57E-03,1.79E-02
36450,5.66E-03,1.91E-02
36451,5.44E-03,1.54E-02
36452,5.49E-03,1.67E-02
36453,5.40E-03,1.29E-02
36454,5.43E-03,1.41E-02
36455,5.49E-03,1.13E-02
36456,5.40E-03,1.19E-02
36457,5.57E-03,1.13E-02
36458,5.56E-03,1.11E-02
36459,5.62E-03,1.33E-02
36460,5.58E-03,1.21E-02
36461,5.61E-03,1.72E-02
36462,5.63E-03,1.50E-02
36463,5.50E-03,2.22E-02
36464,5.60E-03,1.96E-02
36465,5.46E-03,2.75E-02
36466,5.48E-03,2.47E-02
36467,5.60E-03,3.37E-02
36468,5.52E-03,3.05E-02
36469,5.71E-03,4.09E-02
36470,5.64E-03,3.72E-02
36471,5.78E-03,4.92E-02
36472,5.81E-03,4.49E-02
36473,5.66E-03,5.84E-02
36474,5.70E-03,5.37E-02
36475,5.86E-03,6.87E-02
36476,5.65E-03,6.34E-02
36477,5.55E-03,1.54E-03
36478,6.28E-03,2.09E-03
36479,4.73E-03,6.25E-03
36480,5.07E-03,6.21E-03
36481,5.01E-03,6.22E-03
36482,4.94E-03,6.23E-03
36483,4.40E-03,6.28E-03
36484,5.49E-03,7.46E-03
36485,5.58E-03,7.52E-03
36486,5.44E-03,7.32E-03
36487,5.40E-03,7.39E-03
36488,5.47E-03,7.25E-03
36489,6.41E-03,6.97E-03
36490,6.65E-03,6.99E-03
36491,6.21E-03,6.95E-03
36492,6.32E-03,6.96E-03
36493,6.05E-03,6.94E-03
36494,6.16E-03,6.95E-03
36495,6.17E-03,6.93E-03
36496,6.01E-03,6.94E-03
36497,5.81E-03,7.00E-03
36498,5.68E-03,6.94E-03
36499,5.87E-03,7.02E-03
36500,7.00E-03,7.28E-03
36501,8.26E-03,7.40E-03
36502,5.90E-03,7.92E-03
36503,6.08E-03,7.80E-03
36504,5.60E-03,8.14E-03
36505,5.98E-03,8.03E-03
36506,5.21E-03,8.35E-03
36507,5.33E-03,8.25E-03
36508,4.76E-03,8.53E-03
36509,4.88E-03,8.44E-03
36510,4.71E-03,8.74E-03
36511,4.63E-03,8.64E-03
36512,5.13E-03,8.93E-03
36513,4.96E-03,8.84E-03
36514,5.58E-03,9.13E-03
36515,5.33E-03,9.02E-03
36516,5.65E-03,9.36E-03
36517,5.58E-03,9.24E-03
36518,5.84E-03,9.62E-03
36519,5.69E-03,9.48E-03
36520,6.41E-03,9.94E-03
36521,6.05E-03,9.77E-03
36522,6.89E-03,1.03E-02
36523,6.68E-03,1.01E-02
36524,7.08E-03,1.06E-02
36525,6.94E-03,1.04E-02
36526,6.88E-03,1.10E-02
36527,7.01E-03,1.08E-02
36528,6.58E-03,1.13E-02
36529,6.72E-03,1.12E-02
36530,6.40E-03,1.17E-02
36531,6.50E-03,1.15E-02
36532,6.59E-03,1.19E-02
36533,6.45E-03,1.24E-02
36534,6.69E-03,1.22E-02
36535,6.20E-03,1.26E-02
36536,4.69E-03,1.98E-03
36537,5.54E-03,1.82E-03
36538,5.41E-03,2.38E-03
36539,5.65E-03,2.16E-03
36540,5.53E-03,2.82E-03
36541,5.51E-03,2.59E-03
36542,5.52E-03,3.30E-03
36543,5.53E-03,3.06E-03
36544,5.35E-03,3.77E-03
36545,5.45E-03,3.53E-03
36546,5.24E-03,4.01E-03
36547,6.17E-03,5.03E-03
36548,6.67E-03,4.77E-03
36549,5.91E-03,5.51E-03
36550,6.00E-03,5.27E-03
36551,5.64E-03,5.95E-03
36552,5.82E-03,5.73E-03
36553,5.48E-03,6.37E-03
36554,5.66E-03,6.16E-03
36555,5.39E-03,6.76E-03
36556,5.42E-03,6.56E-03
36557,5.36E-03,7.14E-03
36558,5.38E-03,6.95E-03
36559,5.40E-03,7.32E-03
36560,5.11E-03,6.59E-03
36561,5.42E-03,6.63E-03
36562,6.39E-03,6.41E-03
36563,6.01E-03,6.49E-03
36564,5.17E-03,6.38E-03
36565,5.83E-03,6.37E-03
36566,5.30E-03,6.33E-03
36567,5.28E-03,6.35E-03
36568,5.18E-03,6.32E-03
36569,5.50E-03,6.25E-03
36570,5.17E-03,6.20E-03
36571,5.44E-03,6.16E-03
36572,6.59E-03,2.65E-03
36573,5.70E-03,2.41E-03
36574,5.86E-03,2.82E-03
36575,6.98E-03,2.70E-03
36576,5.82E-03,2.65E-03
36577,6.05E-03,2.70E-03
36578,6.07E-03,2.55E-03
36579,5.84E-03,3.90E-02
36580,6.11E-03,3.91E-02
36581,5.92E-03,3.85E-02
36582,5.69E-03,3.88E-02
36583,5.93E-03,3.81E-02
36584,5.93E-03,3.83E-02
36585,6.07E-03,3.76E-02
36586,6.01E-03,3.79E-02
36587,6.10E-03,3.71E-02
36588,6.08E-03,3.73E-02
36589,6.17E-03,3.64E-02
36590,6.13E-03,3.67E-02
36591,6.23E-03,3.57E-02
36592,6.22E-03,3.61E-02
36593,6.19E-03,3.50E-02
36594,6.13E-03,3.53E-02
36595,6.24E-03,3.41E-02
36596,6.25E-03,3.45E-02
36597,6.25E-03,3.33E-02
36598,6.23E-03,3.37E-02
36599,6.19E-03,3.23E-02
36600,6.24E-03,3.28E-02
36601,6.22E-03,3.14E-02
36602,6.22E-03,3.19E-02
36603,6.36E-03,3.04E-02
36604,6.28E-03,3.09E-02
36605,6.25E-03,2.95E-02
36606,6.33E-03,3.00E-02
36607,6.15E-03,2.86E-02
36608,6.20E-03,2.90E-02
36609,5.99E-03,2.76E-02
36610,6.05E-03,2.81E-02
36611,5.94E-03,2.67E-02
36612,6.00E-03,2.72E-02
36613,5.89E-03,2.58E-02
36614,5.87E-03,2.63E-02
36615,5.99E-03,2.49E-02
36616,5.91E-03,2.54E-02
36617,6.02E-03,2.41E-02
36618,5.98E-03,2.45E-02
36619,5.99E-03,2.32E-02
36620,6.07E-03,2.37E-02
36621,5.89E-03,2.24E-02
36622,5.91E-03,2.28E-02
36623,5.78E-03,2.16E-02
36624,5.81E-03,2.20E-02
36625,5.81E-03,2.08E-02
36626,5.80E-03,2.12E-02
36627,5.76E-03,2.00E-02
36628,5.78E-03,2.04E-02
36629,5.73E-03,1.92E-02
36630,5.77E-03,1.96E-02
36631,5.74E-03,1.85E-02
36632,5.74E-03,1.88E-02
36633,5.83E-03,1.77E-02
36634,5.81E-03,1.81E-02
36635,5.90E-03,1.70E-02
36636,5.87E-03,1.73E-02
36637,5.94E-03,1.63E-02
36638,5.95E-03,1.66E-02
36639,5.96E-03,1.55E-02
36640,5.95E-03,1.59E-02
36641,5.98E-03,1.49E-02
36642,6.01E-03,1.52E-02
36643,5.86E-03,1.42E-02
36644,5.94E-03,1.45E-02
36645,5.86E-03,1.35E-02
36646,5.85E-03,1.39E-02
36647,5.97E-03,1.29E-02
36648,5.88E-03,1.32E-02
36649,6.02E-03,1.23E-02
36650,6.01E-03,1.26E-02
36651,6.07E-03,1.17E-02
36652,6.02E-03,1.20E-02
36653,6.05E-03,1.11E-02
36654,6.05E-03,1.14E-02
36655,5.91E-03,1.05E-02
36656,5.98E-03,1.08E-02
36657,6.00E-03,9.96E-03
36658,5.96E-03,1.02E-02
36659,6.06E-03,9.43E-03
36660,6.03E-03,9.69E-03
36661,6.11E-03,8.92E-03
36662,6.10E-03,9.18E-03
36663,6.17E-03,8.42E-03
36664,6.20E-03,8.67E-03
36665,6.26E-03,7.94E-03
36666,6.24E-03,8.18E-03
36667,6.19E-03,7.49E-03
36668,6.23E-03,7.71E-03
36669,6.11E-03,7.07E-03
36670,6.14E-03,7.28E-03
36671,6.08E-03,6.67E-03
36672,6.09E-03,6.87E-03
36673,6.17E-03,6.28E-03
36674,6.12E-03,6.47E-03
36675,6.17E-03,5.92E-03
36676,6.16E-03,6.09E-03
36677,6.02E-03,5.59E-03
36678,6.09E-03,5.75E-03
36679,5.94E-03,5.28E-03
36680,5.97E-03,5.43E-03
36681,5.94E-03,4.98E-03
36682,5.89E-03,5.13E-03
36683,6.06E-03,4.69E-03
36684,6.00E-03,4.83E-03
36685,6.09E-03,4.42E-03
36686,6.01E-03,4.55E-03
36687,6.00E-03,4.16E-03
36688,6.07E-03,4.29E-03
36689,5.82E-03,3.92E-03
36690,5.95E-03,4.04E-03
36691,5.71E-03,3.70E-03
36692,5.81E-03,3.81E-03
36693,5.71E-03,3.50E-03
36694,5.69E-03,3.60E-03
36695,5.74E-03,3.29E-03
36696,5.70E-03,3.40E-03
36697,5.80E-03,3.10E-03
36698,5.74E-03,3.20E-03
36699,5.89E-03,2.92E-03
36700,5.88E-03,3.01E-03
36701,5.78E-03,2.75E-03
36702,5.82E-03,2.83E-03
36703,5.65E-03,2.59E-03
36704,5.70E-03,2.67E-03
36705,5.69E-03,2.45E-03
36706,5.66E-03,2.52E-03
36707,5.70E-03,2.32E-03
36708,5.66E-03,2.38E-03
36709,5.82E-03,2.20E-03
36710,5.73E-03,2.26E-03
36711,5.88E-03,2.08E-03
36712,5.88E-03,2.14E-03
36713,5.97E-03,1.97E-03
36714,5.96E-03,2.03E-03
36715,5.85E-03,1.87E-03
36716,5.88E-03,1.92E-03
36717,5.76E-03,1.79E-03
36718,5.78E-03,1.83E-03
36719,5.67E-03,1.71E-03
36720,5.71E-03,1.75E-03
36721,5.89E-03,1.65E-03
36722,5.52E-03,1.68E-03
36723,5.64E-03,1.61E-03
36724,4.80E-03,1.73E-02
36725,5.09E-03,3.01E-02
36726,5.46E-03,1.41E-02
36727,4.77E-03,2.25E-02
36728,5.91E-03,4.47E-02
36729,6.06E-03,7.97E-02
36730,6.32E-03,5.25E-02
36731,6.20E-03,1.72E-02
36732,6.21E-03,2.66E-02
36733,5.80E-03,3.24E-02
36734,5.82E-03,3.29E-02
36735,5.88E-03,3.16E-02
36736,5.93E-03,3.20E-02
36737,5.66E-03,3.13E-02
36738,5.84E-03,3.14E-02
36739,5.45E-03,3.16E-02
36740,5.57E-03,3.14E-02
36741,5.33E-03,3.20E-02
36742,5.33E-03,3.18E-02
36743,5.36E-03,3.24E-02
36744,5.32E-03,3.23E-02
36745,5.56E-03,3.25E-02
36746,5.44E-03,3.25E-02
36747,5.86E-03,3.24E-02
36748,5.77E-03,3.25E-02
36749,6.11E-03,3.18E-02
36750,6.00E-03,3.21E-02
36751,6.25E-03,3.07E-02
36752,6.27E-03,3.13E-02
36753,6.25E-03,3.00E-02
36754,5.87E-03,2.90E-02
36755,5.68E-03,2.90E-02
36756,6.09E-03,2.92E-02
36757,6.00E-03,2.90E-02
36758,6.09E-03,2.92E-02
36759,6.11E-03,2.92E-02
36760,6.07E-03,2.86E-02
36761,6.03E-03,2.90E-02
36762,6.15E-03,2.79E-02
36763,6.09E-03,2.83E-02
36764,6.17E-03,2.69E-02
36765,6.12E-03,2.74E-02
36766,6.35E-03,2.59E-02
36767,6.30E-03,2.64E-02
36768,6.54E-03,2.49E-02
36769,6.43E-03,2.54E-02
36770,6.65E-03,2.37E-02
36771,6.58E-03,2.43E-02
36772,7.47E-03,2.23E-02
36773,6.82E-03,2.31E-02
36774,7.30E-03,2.18E-02
36775,6.98E-03,2.02E-02
36776,6.66E-03,2.09E-02
36777,7.39E-03,1.91E-02
36778,7.28E-03,1.96E-02
36779,7.05E-03,1.82E-02
36780,7.31E-03,1.86E-02
36781,6.73E-03,1.74E-02
36782,6.82E-03,1.78E-02
36783,6.26E-03,1.65E-02
36784,6.34E-03,1.70E-02
36785,5.80E-03,1.56E-02
36786,5.95E-03,1.60E-02
36787,5.07E-03,1.46E-02
36788,5.37E-03,1.51E-02
36789,4.29E-03,1.35E-02
36790,4.45E-03,1.40E-02
36791,5.29E-03,5.96E-02
36792,5.42E-03,5.98E-02
36793,4.96E-03,5.85E-02
36794,4.82E-03,5.92E-02
36795,5.16E-03,5.71E-02
36796,5.05E-03,5.78E-02
36797,5.15E-03,5.59E-02
36798,5.15E-03,5.64E-02
36799,5.10E-03,5.51E-02
36800,5.16E-03,5.54E-02
36801,5.00E-03,5.44E-02
36802,5.07E-03,5.47E-02
36803,5.09E-03,5.34E-02
36804,5.03E-03,5.39E-02
36805,5.40E-03,5.21E-02
36806,5.23E-03,5.28E-02
36807,5.76E-03,5.08E-02
36808,5.57E-03,5.15E-02
36809,5.92E-03,4.97E-02
36810,5.94E-03,5.02E-02
36811,6.05E-03,4.89E-02
36812,6.07E-03,4.93E-02
36813,6.16E-03,4.82E-02
36814,6.15E-03,4.85E-02
36815,6.07E-03,4.78E-02
36816,6.08E-03,4.80E-02
36817,5.88E-03,4.75E-02
36818,5.96E-03,4.77E-02
36819,6.01E-03,4.66E-02
36820,6.02E-03,4.71E-02
36821,6.29E-03,4.50E-02
36822,6.23E-03,4.59E-02
36823,6.79E-03,4.30E-02
36824,6.65E-03,4.39E-02
36825,6.72E-03,4.15E-02
36826,6.81E-03,4.22E-02
36827,6.54E-03,4.08E-02
36828,6.54E-03,4.11E-02
36829,6.48E-03,4.05E-02
36830,6.41E-03,4.06E-02
36831,6.12E-03,4.03E-02
36832,6.28E-03,4.04E-02
36833,5.61E-03,4.00E-02
36834,5.11E-03,3.74E-02
36835,5.39E-03,3.81E-02
36836,4.99E-03,3.59E-02
36837,5.05E-03,3.66E-02
36838,5.00E-03,3.45E-02
36839,4.95E-03,3.51E-02
36840,5.24E-03,3.39E-02
36841,5.94E-03,5.05E-02
36842,5.92E-03,4.93E-02
36843,5.83E-03,5.23E-02
36844,5.88E-03,5.15E-02
36845,5.75E-03,5.36E-02
36846,5.80E-03,5.30E-02
36847,5.65E-03,5.45E-02
36848,5.69E-03,5.41E-02
36849,5.53E-03,5.54E-02
36850,5.62E-03,5.49E-02
36851,5.48E-03,5.63E-02
36852,5.45E-03,5.58E-02
36853,5.44E-03,5.74E-02
36854,5.44E-03,5.68E-02
36855,5.31E-03,5.86E-02
36856,5.39E-03,5.80E-02
36857,5.27E-03,6.00E-02
36858,5.28E-03,5.93E-02
36859,5.30E-03,6.15E-02
36860,5.27E-03,6.07E-02
36861,5.42E-03,6.32E-02
36862,5.39E-03,6.24E-02
36863,5.55E-03,6.50E-02
36864,5.51E-03,6.41E-02
36865,5.74E-03,6.65E-02
36866,5.64E-03,6.58E-02
36867,5.95E-03,6.77E-02
36868,5.84E-03,6.71E-02
36869,6.17E-03,6.87E-02
36870,6.12E-03,6.82E-02
36871,6.31E-03,6.97E-02
36872,6.29E-03,6.92E-02
36873,6.38E-03,7.10E-02
36874,6.40E-03,7.03E-02
36875,6.33E-03,7.27E-02
36876,6.36E-03,7.18E-02
36877,6.20E-03,7.47E-02
36878,6.26E-03,7.37E-02
36879,6.04E-03,7.67E-02
36880,6.13E-03,7.57E-02
36881,5.97E-03,7.87E-02
36882,6.02E-03,7.77E-02
36883,5.86E-03,8.05E-02
36884,5.90E-03,7.96E-02
36885,5.71E-03,8.21E-02
36886,5.76E-03,8.13E-02
36887,5.61E-03,8.37E-02
36888,5.63E-03,8.30E-02
36889,5.65E-03,8.52E-02
36890,5.59E-03,8.45E-02
36891,5.63E-03,8.67E-02
36892,5.61E-03,8.59E-02
36893,5.53E-03,8.81E-02
36894,5.59E-03,8.74E-02
36895,5.56E-03,8.92E-02
36896,5.55E-03,8.87E-02
36897,5.65E-03,9.03E-02
36898,5.65E-03,8.98E-02
36899,5.78E-03,9.15E-02
36900,5.72E-03,9.08E-02
36901,5.88E-03,9.31E-02
36902,5.85E-03,9.22E-02
36903,5.79E-03,9.47E-02
36904,5.83E-03,9.39E-02
36905,5.87E-03,9.63E-02
36906,5.78E-03,9.55E-02
36907,5.87E-03,9.78E-02
36908,5.85E-03,9.70E-02
36909,5.86E-03,9.93E-02
36910,5.88E-03,9.85E-02
36911,5.79E-03,0.101
36912,5.79E-03,0.10016
36913,5.85E-03,0.10237
36914,5.84E-03,0.10177
36915,6.15E-03,0.10308
36916,6.01E-03,0.10281
36917,6.54E-03,0.1036
36918,6.34E-03,0.10329
36919,6.45E-03,0.10473
36920,6.45E-03,0.10402
36921,6.11E-03,0.10712
36922,6.19E-03,0.10579
36923,5.73E-03,0.10995
36924,5.80E-03,0.10857
36925,5.60E-03,0.11191
36926,5.63E-03,0.11109
36927,5.67E-03,0.11273
36928,5.69E-03,0.11245
36929,5.88E-03,0.1129
36930,5.87E-03,0.11287
36931,6.06E-03,0.11278
36932,6.07E-03,0.11286
36933,6.26E-03,0.11248
36934,6.22E-03,0.11264
36935,6.32E-03,0.11269
36936,6.38E-03,0.11249
36937,6.19E-03,0.11382
36938,6.23E-03,0.11311
36939,5.93E-03,0.11589
36940,5.95E-03,0.11476
36941,5.68E-03,0.11839
36942,5.67E-03,0.11712
36943,5.47E-03,0.12094
36944,5.45E-03,0.11965
36945,5.22E-03,0.12363
36946,5.28E-03,0.12231
36947,4.97E-03,0.12514
36948,5.56E-03,0.12862
36949,4.17E-03,0.12896
36950,5.75E-03,0.12892
36951,5.70E-03,0.1275
36952,5.71E-03,0.12826
36953,5.97E-03,0.12582
36954,5.97E-03,0.12666
36955,6.15E-03,0.12475
36956,6.14E-03,0.12514
36957,6.17E-03,0.12525
36958,6.23E-03,0.12475
36959,6.02E-03,0.12731
36960,6.11E-03,0.12612
36961,5.91E-03,0.13013
36962,5.92E-03,0.12864
36963,5.79E-03,0.13356
36964,5.83E-03,0.13176
36965,5.70E-03,0.137
36966,5.70E-03,0.13531
36967,5.52E-03,0.14006
36968,5.59E-03,0.13856
36969,5.33E-03,0.14324
36970,5.41E-03,0.14157
36971,5.09E-03,0.14705
36972,5.15E-03,0.14514
36973,4.97E-03,0.14903
36974,5.66E-03,0.15311
36975,5.57E-03,0.15291
36976,4.99E-03,0.15207
36977,5.49E-03,0.15252
36978,6.43E-03,2.33E-02
36979,4.41E-03,1.27E-02
36980,5.91E-03,5.57E-02
36981,5.93E-03,5.66E-02
36982,5.15E-03,6.21E-02
36983,5.16E-03,6.19E-02
36984,5.15E-03,5.72E-02
36985,5.57E-03,3.29E-02
36986,5.90E-03,1.44E-03
36987,5.85E-03,1.34E-03
36988,5.80E-03,1.59E-03
36989,4.71E-03,2.52E-03
36990,5.50E-03,2.85E-03
36991,5.08E-03,6.13E-03
36992,4.60E-03,6.07E-03
36993,4.68E-03,6.13E-03
36994,5.46E-03,6.20E-03
36995,4.98E-03,6.11E-03
36996,4.33E-03,6.16E-03
36997,5.60E-03,7.66E-03
36998,7.97E-03,7.29E-03
36999,5.63E-03,1.27E-02
37000,3.94E-03,4.44E-03
37001,4.90E-03,4.24E-03
37002,4.67E-03,4.62E-03
37003,5.64E-03,1.62E-03
37004,5.70E-03,1.49E-03
37005,3.95E-03,1.85E-02
37006,4.74E-03,1.71E-02
37007,4.87E-03,2.88E-02
37008,5.28E-03,2.90E-02
37009,5.40E-03,1.46E-02
37010,5.45E-03,1.53E-02
37011,5.17E-03,2.10E-02
37012,4.84E-03,2.31E-02
37013,4.92E-03,4.27E-02
37014,4.26E-03,4.61E-02
37015,5.94E-03,4.51E-02
37016,6.37E-03,2.83E-03
37017,5.79E-03,2.76E-03
37018,4.41E-03,0.13159
37019,5.93E-03,7.37E-02
37020,5.98E-03,7.52E-02
37021,6.14E-03,5.71E-02
37022,6.49E-03,4.76E-02
37023,6.12E-03,1.84E-02
37024,6.22E-03,2.26E-02
37025,6.45E-03,3.21E-02
37026,6.03E-03,2.47E-02
37027,5.78E-03,3.29E-02
37028,3.74E-03,3.09E-02
37029,6.20E-03,3.11E-02
37030,4.92E-03,4.04E-02
37031,4.91E-03,3.97E-02
37032,5.77E-03,3.26E-02
37033,5.69E-03,6.11E-02
37034,5.81E-03,6.03E-02
37035,4.73E-03,6.08E-03
37036,5.61E-03,1.25E-02
37037,4.10E-03,1.25E-02
37038,3.97E-03,1.93E-02
37039,4.79E-03,1.69E-02
37040,4.70E-03,2.76E-02
37041,5.37E-03,2.80E-02
37042,5.26E-03,1.52E-02
37043,5.35E-03,1.66E-02
37044,5.24E-03,1.95E-02
37045,4.45E-03,2.41E-02
37046,4.78E-03,4.71E-02
37047,4.77E-03,4.60E-02
37048,5.12E-03,2.30E-03
37049,4.47E-03,0.11793
37050,5.75E-03,6.72E-02
37051,5.94E-03,7.06E-02
37052,6.10E-03,6.17E-02
37053,5.94E-03,4.29E-02
37054,6.11E-03,1.98E-02
37055,6.18E-03,2.91E-02
37056,6.02E-03,2.30E-02
37057,5.13E-03,3.10E-02
37058,5.68E-03,0.16202
37059,5.72E-03,7.32E-02
37060,5.11E-03,1.46E-03
37061,5.42E-03,1.13E-03
37062,5.30E-03,8.85E-04
37063,5.95E-03,1.04E-03
37064,6.28E-03,7.77E-04
37065,4.70E-03,1.43E-03
37066,5.32E-03,1.24E-02
37067,4.81E-03,3.88E-02
37068,4.41E-03,3.89E-02
37069,4.20E-03,3.94E-02
37070,4.04E-03,2.01E-02
37071,4.86E-03,1.66E-02
37072,5.90E-03,2.52E-02
37073,5.11E-03,2.19E-02
37074,5.46E-03,2.71E-02
37075,5.11E-03,1.57E-02
37076,5.30E-03,1.80E-02
37077,4.30E-03,2.52E-02
37078,4.30E-03,4.05E-02
37079,4.91E-03,1.85E-03
37080,5.49E-03,0.10433
37081,5.62E-03,6.01E-02
37082,6.01E-03,6.60E-02
37083,6.09E-03,2.13E-02
37084,6.17E-03,3.65E-02
37085,5.25E-03,6.81E-03
37086,5.35E-03,6.95E-03
37087,5.52E-03,7.00E-03
37088,5.51E-03,6.86E-03
37089,4.96E-03,1.62E-02
37090,5.59E-03,2.62E-02
37091,3.84E-03,4.14E-02
37092,5.90E-03,4.44E-02
37093,4.27E-03,1.29E-02
37094,4.25E-03,1.26E-02
37095,6.26E-03,6.39E-03
37096,5.64E-03,5.26E-02
37097,6.08E-03,5.61E-02
37098,4.89E-03,6.20E-02
37099,5.06E-03,6.02E-02
37100,5.13E-03,6.13E-02
37101,5.04E-03,5.88E-02
37102,5.66E-03,5.16E-02
37103,5.61E-03,5.29E-02
37104,5.73E-03,4.94E-02
37105,5.72E-03,5.05E-02
37106,5.60E-03,4.74E-02
37107,5.70E-03,4.84E-02
37108,5.45E-03,4.55E-02
37109,5.60E-03,4.64E-02
37110,5.29E-03,4.36E-02
37111,5.35E-03,4.46E-02
37112,5.44E-03,4.16E-02
37113,5.35E-03,4.27E-02
37114,5.53E-03,3.94E-02
37115,5.46E-03,4.05E-02
37116,5.72E-03,3.72E-02
37117,5.58E-03,3.83E-02
37118,5.65E-03,3.50E-02
37119,5.69E-03,3.61E-02
37120,5.65E-03,3.40E-02
37121,5.73E-03,2.82E-02
37122,5.70E-03,2.94E-02
37123,5.79E-03,2.59E-02
37124,5.80E-03,2.70E-02
37125,5.68E-03,2.37E-02
37126,5.75E-03,2.48E-02
37127,5.59E-03,2.14E-02
37128,5.67E-03,2.26E-02
37129,5.49E-03,1.87E-02
37130,5.51E-03,2.01E-02
37131,5.42E-03,1.57E-02
37132,5.45E-03,1.72E-02
37133,5.57E-03,1.30E-02
37134,5.48E-03,1.43E-02
37135,5.56E-03,1.12E-02
37136,5.57E-03,1.19E-02
37137,5.59E-03,1.10E-02
37138,5.57E-03,1.08E-02
37139,5.58E-03,1.31E-02
37140,5.58E-03,1.18E-02
37141,5.50E-03,1.71E-02
37142,5.54E-03,1.50E-02
37143,5.46E-03,2.18E-02
37144,5.47E-03,1.93E-02
37145,5.61E-03,2.74E-02
37146,5.53E-03,2.45E-02
37147,5.70E-03,3.40E-02
37148,5.61E-03,3.06E-02
37149,5.77E-03,4.15E-02
37150,5.80E-03,3.76E-02
37151,5.74E-03,4.97E-02
37152,5.73E-03,4.56E-02
37153,5.71E-03,5.84E-02
37154,5.74E-03,5.41E-02
37155,5.36E-03,1.16E-03
37156,5.19E-03,9.68E-04
37157,5.27E-03,1.07E-03
37158,5.67E-03,1.25E-03
37159,5.98E-03,1.92E-03
37160,5.76E-03,1.77E-03
37161,5.59E-03,2.25E-03
37162,5.65E-03,2.07E-03
37163,5.41E-03,2.70E-03
37164,7.05E-03,2.87E-03
37165,6.03E-03,2.55E-03
37166,5.72E-03,2.44E-03
37167,6.30E-03,3.02E-03
37168,6.01E-03,3.12E-03
37169,5.86E-03,2.80E-03
37170,6.08E-03,2.68E-03
37171,5.79E-03,3.23E-03
37172,5.62E-03,3.32E-03
37173,5.29E-03,3.01E-03
37174,5.64E-03,2.90E-03
37175,5.63E-03,3.39E-03
37176,4.88E-03,3.11E-03
37177,4.98E-03,3.10E-03
37178,6.51E-03,3.38E-03
37179,6.69E-03,3.43E-03
37180,6.12E-03,3.56E-03
37181,5.31E-03,3.71E-03
37182,4.72E-03,3.75E-03
37183,5.40E-03,4.01E-03
37184,5.39E-03,3.92E-03
37185,5.08E-03,4.19E-03
37186,5.28E-03,4.10E-03
37187,4.52E-03,4.35E-03
37188,5.06E-03,4.28E-03
37189,5.10E-03,5.98E-03
37190,5.16E-03,5.90E-03
37191,4.65E-03,6.01E-03
37192,5.93E-03,6.01E-03
37193,5.43E-03,6.05E-03
37194,4.18E-03,6.01E-03
37195,5.35E-03,6.08E-03
37196,5.76E-03,6.06E-03
37197,5.37E-03,6.13E-03
37198,5.30E-03,6.10E-03
37199,5.02E-03,6.15E-03
37200,5.50E-03,6.15E-03
37201,4.03E-03,6.14E-03
37202,4.14E-03,6.16E-03
37203,4.79E-03,6.10E-03
37204,4.24E-03,6.11E-03
37205,5.05E-03,6.11E-03
37206,4.91E-03,6.10E-03
37207,4.98E-03,6.12E-03
37208,5.50E-03,6.17E-03
37209,5.73E-03,7.83E-03
37210,5.87E-03,7.78E-03
37211,5.62E-03,7.61E-03
37212,5.81E-03,7.68E-03
37213,5.53E-03,7.47E-03
37214,5.50E-03,7.54E-03
37215,5.57E-03,7.40E-03
37216,6.40E-03,7.14E-03
37217,6.65E-03,7.16E-03
37218,6.19E-03,7.11E-03
37219,6.26E-03,7.12E-03
37220,6.13E-03,7.09E-03
37221,6.18E-03,7.10E-03
37222,6.81E-03,7.08E-03
37223,6.24E-03,7.09E-03
37224,6.29E-03,7.14E-03
37225,6.82E-03,7.09E-03
37226,6.35E-03,7.17E-03
37227,7.97E-03,7.55E-03
37228,7.27E-03,7.41E-03
37229,6.41E-03,7.77E-03
37230,6.05E-03,8.00E-03
37231,6.29E-03,7.89E-03
37232,5.64E-03,8.21E-03
37233,6.00E-03,8.11E-03
37234,5.27E-03,8.41E-03
37235,5.36E-03,8.31E-03
37236,4.89E-03,8.59E-03
37237,4.97E-03,8.50E-03
37238,4.88E-03,8.78E-03
37239,4.82E-03,8.69E-03
37240,5.16E-03,8.97E-03
37241,5.04E-03,8.88E-03
37242,5.57E-03,9.16E-03
37243,5.28E-03,9.06E-03
37244,5.71E-03,9.39E-03
37245,5.60E-03,9.27E-03
37246,5.90E-03,9.64E-03
37247,5.70E-03,9.51E-03
37248,6.17E-03,9.94E-03
37249,6.03E-03,9.79E-03
37250,6.59E-03,1.02E-02
37251,6.48E-03,1.01E-02
37252,6.73E-03,1.06E-02
37253,6.68E-03,1.04E-02
37254,6.62E-03,1.09E-02
37255,6.71E-03,1.07E-02
37256,6.44E-03,1.12E-02
37257,6.55E-03,1.11E-02
37258,6.35E-03,1.16E-02
37259,6.40E-03,1.14E-02
37260,6.44E-03,1.19E-02
37261,6.48E-03,1.17E-02
37262,6.17E-03,1.22E-02
37263,6.39E-03,1.21E-02
37264,5.99E-03,1.23E-02
37265,5.65E-03,1.26E-02
37266,5.15E-03,1.95E-03
37267,5.49E-03,1.77E-03
37268,5.55E-03,2.38E-03
37269,5.51E-03,2.16E-03
37270,5.56E-03,2.83E-03
37271,5.55E-03,2.60E-03
37272,5.49E-03,3.30E-03
37273,5.53E-03,3.06E-03
37274,5.25E-03,3.78E-03
37275,5.43E-03,3.54E-03
37276,5.14E-03,4.01E-03
37277,6.01E-03,5.06E-03
37278,6.41E-03,4.82E-03
37279,5.84E-03,5.54E-03
37280,5.89E-03,5.31E-03
37281,5.63E-03,5.98E-03
37282,5.75E-03,5.77E-03
37283,5.49E-03,6.40E-03
37284,5.63E-03,6.20E-03
37285,5.42E-03,6.80E-03
37286,5.45E-03,6.60E-03
37287,5.38E-03,7.18E-03
37288,5.38E-03,6.99E-03
37289,5.46E-03,7.53E-03
37290,5.38E-03,7.36E-03
37291,5.58E-03,7.87E-03
37292,5.54E-03,7.70E-03
37293,5.31E-03,6.83E-03
37294,5.26E-03,6.90E-03
37295,5.57E-03,6.70E-03
37296,5.34E-03,6.77E-03
37297,5.87E-03,6.58E-03
37298,5.72E-03,6.63E-03
37299,5.60E-03,6.50E-03
37300,5.80E-03,6.53E-03
37301,5.50E-03,6.45E-03
37302,5.48E-03,6.48E-03
37303,5.58E-03,6.41E-03
37304,5.52E-03,6.43E-03
37305,5.87E-03,6.36E-03
37306,6.06E-03,6.37E-03
37307,5.50E-03,6.32E-03
37308,5.60E-03,6.34E-03
37309,5.38E-03,6.27E-03
37310,5.45E-03,6.30E-03
37311,4.52E-03,6.23E-03
37312,4.63E-03,6.26E-03
37313,6.03E-03,6.14E-03
37314,4.68E-03,6.19E-03
37315,5.86E-03,6.03E-03
37316,6.27E-03,6.09E-03
37317,6.63E-03,5.95E-03
37318,6.87E-03,5.87E-03
37319,6.26E-03,5.79E-03
37320,5.96E-03,5.71E-03
37321,5.81E-03,5.66E-03
37322,5.80E-03,5.61E-03
37323,5.70E-03,5.56E-03
37324,5.73E-03,5.52E-03
37325,5.69E-03,5.46E-03
37326,5.87E-03,5.40E-03
37327,3.44E-03,5.19E-03
37328,3.96E-03,5.30E-03
37329,5.15E-03,5.33E-03
37330,4.00E-03,5.17E-03
37331,5.88E-03,5.14E-03
37332,5.70E-03,5.06E-03
37333,5.64E-03,4.97E-03
37334,5.71E-03,4.87E-03
37335,5.96E-03,4.66E-03
37336,5.69E-03,4.77E-03
37337,4.81E-03,4.58E-03
37338,5.40E-03,4.56E-03
37339,5.24E-03,4.40E-03
37340,5.26E-03,4.48E-03
37341,5.38E-03,4.24E-03
37342,5.33E-03,4.32E-03
37343,5.89E-03,4.01E-03
37344,5.29E-03,4.17E-03
37345,6.07E-03,3.86E-03
37346,6.06E-03,3.95E-03
37347,6.14E-03,3.73E-03
37348,6.22E-03,3.79E-03
37349,5.82E-03,3.61E-03
37350,6.04E-03,3.66E-03
37351,6.10E-03,3.44E-03
37352,5.93E-03,3.54E-03
37353,7.18E-03,3.22E-03
37354,6.45E-03,3.34E-03
37355,6.46E-03,3.19E-03
37356,7.30E-03,3.20E-03
37357,6.15E-03,3.08E-03
37358,6.27E-03,3.14E-03
37359,6.15E-03,2.98E-03
37360,6.35E-03,3.02E-03
37361,6.11E-03,2.91E-03
37362,5.77E-03,3.84E-02
37363,5.38E-03,3.86E-02
37364,5.90E-03,3.80E-02
37365,5.65E-03,3.82E-02
37366,5.92E-03,3.76E-02
37367,5.91E-03,3.78E-02
37368,5.99E-03,3.71E-02
37369,6.01E-03,3.73E-02
37370,6.04E-03,3.66E-02
37371,6.06E-03,3.68E-02
37372,6.11E-03,3.60E-02
37373,6.09E-03,3.63E-02
37374,6.18E-03,3.53E-02
37375,6.13E-03,3.56E-02
37376,6.13E-03,3.46E-02
37377,6.11E-03,3.49E-02
37378,6.16E-03,3.38E-02
37379,6.14E-03,3.42E-02
37380,6.17E-03,3.30E-02
37381,6.16E-03,3.34E-02
37382,6.10E-03,3.21E-02
37383,6.16E-03,3.25E-02
37384,6.14E-03,3.12E-02
37385,6.15E-03,3.17E-02
37386,6.24E-03,3.03E-02
37387,6.15E-03,3.08E-02
37388,6.24E-03,2.94E-02
37389,6.27E-03,2.98E-02
37390,6.07E-03,2.85E-02
37391,6.14E-03,2.89E-02
37392,5.96E-03,2.76E-02
37393,6.04E-03,2.80E-02
37394,5.88E-03,2.67E-02
37395,5.95E-03,2.71E-02
37396,5.84E-03,2.58E-02
37397,5.82E-03,2.62E-02
37398,5.88E-03,2.50E-02
37399,5.82E-03,2.54E-02
37400,5.96E-03,2.41E-02
37401,5.95E-03,2.45E-02
37402,5.95E-03,2.33E-02
37403,6.02E-03,2.37E-02
37404,5.82E-03,2.25E-02
37405,5.86E-03,2.29E-02
37406,5.77E-03,2.16E-02
37407,5.75E-03,2.21E-02
37408,5.78E-03,2.09E-02
37409,5.79E-03,2.12E-02
37410,5.76E-03,2.01E-02
37411,5.77E-03,2.05E-02
37412,5.70E-03,1.93E-02
37413,5.70E-03,1.97E-02
37414,5.70E-03,1.86E-02
37415,5.70E-03,1.90E-02
37416,5.77E-03,1.79E-02
37417,5.75E-03,1.82E-02
37418,5.86E-03,1.71E-02
37419,5.82E-03,1.75E-02
37420,5.88E-03,1.64E-02
37421,5.89E-03,1.68E-02
37422,5.90E-03,1.57E-02
37423,5.91E-03,1.61E-02
37424,5.94E-03,1.50E-02
37425,5.91E-03,1.54E-02
37426,5.81E-03,1.44E-02
37427,5.87E-03,1.47E-02
37428,5.80E-03,1.37E-02
37429,5.80E-03,1.40E-02
37430,5.90E-03,1.31E-02
37431,5.86E-03,1.34E-02
37432,5.93E-03,1.24E-02
37433,5.97E-03,1.28E-02
37434,6.00E-03,1.19E-02
37435,5.96E-03,1.21E-02
37436,5.94E-03,1.13E-02
37437,6.00E-03,1.16E-02
37438,5.92E-03,1.07E-02
37439,5.92E-03,1.10E-02
37440,5.90E-03,1.01E-02
37441,5.90E-03,1.04E-02
37442,6.07E-03,9.60E-03
37443,5.96E-03,9.87E-03
37444,6.08E-03,9.08E-03
37445,6.08E-03,9.34E-03
37446,6.11E-03,8.58E-03
37447,6.07E-03,8.83E-03
37448,6.15E-03,8.10E-03
37449,6.19E-03,8.34E-03
37450,6.11E-03,7.65E-03
37451,6.14E-03,7.87E-03
37452,5.97E-03,7.22E-03
37453,6.06E-03,7.43E-03
37454,5.96E-03,6.81E-03
37455,5.97E-03,7.02E-03
37456,6.08E-03,6.42E-03
37457,5.97E-03,6.62E-03
37458,6.09E-03,6.06E-03
37459,6.08E-03,6.23E-03
37460,5.95E-03,5.72E-03
37461,6.06E-03,5.89E-03
37462,5.87E-03,5.40E-03
37463,5.90E-03,5.56E-03
37464,5.87E-03,5.10E-03
37465,5.81E-03,5.25E-03
37466,5.93E-03,4.80E-03
37467,5.93E-03,4.95E-03
37468,6.01E-03,4.52E-03
37469,5.96E-03,4.66E-03
37470,5.93E-03,4.26E-03
37471,6.00E-03,4.39E-03
37472,5.77E-03,4.02E-03
37473,5.90E-03,4.14E-03
37474,5.70E-03,3.79E-03
37475,5.73E-03,3.90E-03
37476,5.67E-03,3.58E-03
37477,5.68E-03,3.69E-03
37478,5.67E-03,3.37E-03
37479,5.68E-03,3.47E-03
37480,5.76E-03,3.16E-03
37481,5.72E-03,3.26E-03
37482,5.86E-03,2.96E-03
37483,5.81E-03,3.06E-03
37484,5.73E-03,2.79E-03
37485,5.77E-03,2.87E-03
37486,5.67E-03,2.62E-03
37487,5.68E-03,2.71E-03
37488,5.70E-03,2.47E-03
37489,5.66E-03,2.55E-03
37490,5.71E-03,2.33E-03
37491,5.63E-03,2.40E-03
37492,5.76E-03,2.20E-03
37493,5.73E-03,2.26E-03
37494,5.86E-03,2.07E-03
37495,5.84E-03,2.13E-03
37496,5.91E-03,1.95E-03
37497,5.90E-03,2.01E-03
37498,5.81E-03,1.84E-03
37499,5.84E-03,1.89E-03
37500,5.71E-03,1.74E-03
37501,5.78E-03,1.79E-03
37502,5.66E-03,1.65E-03
37503,5.67E-03,1.69E-03
37504,5.69E-03,1.57E-03
37505,5.70E-03,1.61E-03
37506,5.74E-03,1.48E-03
37507,5.74E-03,1.52E-03
37508,5.58E-03,1.40E-03
37509,5.73E-03,1.45E-03
37510,4.47E-03,1.78E-02
37511,5.05E-03,2.89E-02
37512,5.45E-03,1.50E-02
37513,5.00E-03,2.21E-02
37514,5.97E-03,4.39E-02
37515,4.04E-03,0.14106
37516,5.92E-03,7.46E-02
37517,6.33E-03,5.25E-02
37518,6.14E-03,2.04E-02
37519,6.12E-03,2.83E-02
37520,6.00E-03,3.20E-02
37521,5.96E-03,3.25E-02
37522,5.89E-03,3.13E-02
37523,5.98E-03,3.16E-02
37524,5.69E-03,3.12E-02
37525,5.75E-03,3.12E-02
37526,5.46E-03,3.18E-02
37527,5.56E-03,3.15E-02
37528,5.33E-03,3.25E-02
37529,5.37E-03,3.22E-02
37530,5.36E-03,3.31E-02
37531,5.32E-03,3.28E-02
37532,5.51E-03,3.33E-02
37533,5.43E-03,3.32E-02
37534,5.81E-03,3.34E-02
37535,5.79E-03,3.34E-02
37536,6.07E-03,3.32E-02
37537,6.00E-03,3.33E-02
37538,6.28E-03,3.24E-02
37539,6.18E-03,3.29E-02
37540,6.40E-03,3.18E-02
37541,5.75E-03,3.09E-02
37542,5.62E-03,3.09E-02
37543,5.99E-03,3.11E-02
37544,5.85E-03,3.10E-02
37545,6.01E-03,3.11E-02
37546,6.02E-03,3.12E-02
37547,6.00E-03,3.04E-02
37548,5.99E-03,3.08E-02
37549,6.03E-03,2.94E-02
37550,6.00E-03,2.99E-02
37551,6.09E-03,2.84E-02
37552,6.03E-03,2.89E-02
37553,6.23E-03,2.73E-02
37554,6.22E-03,2.79E-02
37555,6.41E-03,2.62E-02
37556,6.30E-03,2.68E-02
37557,6.51E-03,2.50E-02
37558,6.44E-03,2.56E-02
37559,6.87E-03,2.36E-02
37560,6.70E-03,2.43E-02
37561,6.75E-03,2.25E-02
37562,6.83E-03,2.31E-02
37563,6.81E-03,2.13E-02
37564,6.70E-03,2.19E-02
37565,7.00E-03,2.01E-02
37566,6.94E-03,2.07E-02
37567,6.78E-03,1.90E-02
37568,6.96E-03,1.95E-02
37569,6.54E-03,1.80E-02
37570,6.66E-03,1.85E-02
37571,6.22E-03,1.71E-02
37572,6.22E-03,1.76E-02
37573,5.79E-03,1.60E-02
37574,5.78E-03,1.65E-02
37575,5.20E-03,1.48E-02
37576,5.23E-03,1.54E-02
37577,4.55E-03,1.36E-02
37578,4.76E-03,1.41E-02
37579,5.54E-03,6.28E-02
37580,5.27E-03,6.20E-02
37581,5.41E-03,6.26E-02
37582,5.05E-03,6.01E-02
37583,5.10E-03,6.11E-02
37584,5.16E-03,5.84E-02
37585,5.05E-03,5.92E-02
37586,5.17E-03,5.71E-02
37587,5.17E-03,5.77E-02
37588,5.13E-03,5.64E-02
37589,5.20E-03,5.66E-02
37590,5.11E-03,5.60E-02
37591,5.10E-03,5.62E-02
37592,5.21E-03,5.54E-02
37593,5.20E-03,5.58E-02
37594,5.47E-03,5.43E-02
37595,5.33E-03,5.49E-02
37596,5.79E-03,5.32E-02
37597,5.65E-03,5.38E-02
37598,5.88E-03,5.23E-02
37599,5.91E-03,5.27E-02
37600,6.02E-03,5.17E-02
37601,6.00E-03,5.20E-02
37602,6.11E-03,5.10E-02
37603,6.05E-03,5.13E-02
37604,5.97E-03,5.06E-02
37605,6.00E-03,5.07E-02
37606,5.86E-03,5.04E-02
37607,5.90E-03,5.05E-02
37608,5.98E-03,4.96E-02
37609,5.95E-03,5.01E-02
37610,6.21E-03,4.78E-02
37611,6.15E-03,4.88E-02
37612,6.49E-03,4.55E-02
37613,6.48E-03,4.66E-02
37614,6.58E-03,4.36E-02
37615,6.59E-03,4.45E-02
37616,6.45E-03,4.24E-02
37617,6.47E-03,4.29E-02
37618,6.21E-03,4.18E-02
37619,6.27E-03,4.20E-02
37620,5.84E-03,4.13E-02
37621,6.02E-03,4.15E-02
37622,5.34E-03,4.09E-02
37623,5.08E-03,3.69E-02
37624,4.31E-03,3.83E-02
37625,4.78E-03,3.77E-02
37626,5.04E-03,3.51E-02
37627,5.06E-03,3.60E-02
37628,5.17E-03,3.36E-02
37629,5.05E-03,3.43E-02
37630,5.41E-03,3.30E-02
37631,5.93E-03,4.98E-02
37632,5.66E-03,4.85E-02
37633,5.91E-03,5.23E-02
37634,5.90E-03,5.12E-02
37635,5.83E-03,5.38E-02
37636,5.84E-03,5.31E-02
37637,5.69E-03,5.47E-02
37638,5.75E-03,5.43E-02
37639,5.61E-03,5.54E-02
37640,5.64E-03,5.50E-02
37641,5.54E-03,5.61E-02
37642,5.60E-03,5.57E-02
37643,5.48E-03,5.69E-02
37644,5.49E-03,5.65E-02
37645,5.49E-03,5.79E-02
37646,5.50E-03,5.74E-02
37647,5.29E-03,5.91E-02
37648,5.41E-03,5.85E-02
37649,5.23E-03,6.04E-02
37650,5.25E-03,5.97E-02
37651,5.29E-03,6.20E-02
37652,5.24E-03,6.12E-02
37653,5.44E-03,6.39E-02
37654,5.38E-03,6.29E-02
37655,5.55E-03,6.59E-02
37656,5.51E-03,6.49E-02
37657,5.72E-03,6.77E-02
37658,5.64E-03,6.68E-02
37659,5.90E-03,6.92E-02
37660,5.82E-03,6.85E-02
37661,6.08E-03,7.04E-02
37662,6.11E-03,6.99E-02
37663,6.25E-03,7.17E-02
37664,6.21E-03,7.10E-02
37665,6.32E-03,7.32E-02
37666,6.29E-03,7.24E-02
37667,6.23E-03,7.52E-02
37668,6.30E-03,7.42E-02
37669,6.13E-03,7.72E-02
37670,6.18E-03,7.62E-02
37671,6.02E-03,7.93E-02
37672,6.10E-03,7.82E-02
37673,5.93E-03,8.12E-02
37674,5.98E-03,8.03E-02
37675,5.80E-03,8.28E-02
37676,5.84E-03,8.20E-02
37677,5.66E-03,8.44E-02
37678,5.76E-03,8.36E-02
37679,5.59E-03,8.58E-02
37680,5.60E-03,8.51E-02
37681,5.66E-03,8.72E-02
37682,5.62E-03,8.65E-02
37683,5.59E-03,8.88E-02
37684,5.61E-03,8.80E-02
37685,5.54E-03,9.03E-02
37686,5.60E-03,8.95E-02
37687,5.54E-03,9.15E-02
37688,5.55E-03,9.09E-02
37689,5.63E-03,9.25E-02
37690,5.60E-03,9.20E-02
37691,5.77E-03,9.38E-02
37692,5.71E-03,9.31E-02
37693,5.87E-03,9.56E-02
37694,5.84E-03,9.47E-02
37695,5.80E-03,9.75E-02
37696,5.82E-03,9.66E-02
37697,5.84E-03,9.92E-02
37698,5.79E-03,9.84E-02
37699,5.82E-03,0.10081
37700,5.86E-03,0.10005
37701,5.78E-03,0.10242
37702,5.80E-03,0.10159
37703,5.77E-03,0.10433
37704,5.80E-03,0.10334
37705,5.88E-03,0.10604
37706,5.81E-03,0.10525
37707,6.05E-03,0.10702
37708,5.98E-03,0.10663
37709,6.32E-03,0.10759
37710,6.18E-03,0.1073
37711,6.24E-03,0.10866
37712,6.28E-03,0.10799
37713,6.01E-03,0.1111
37714,6.07E-03,0.1097
37715,5.74E-03,0.11419
37716,5.80E-03,0.11265
37717,5.61E-03,0.11639
37718,5.61E-03,0.11549
37719,5.68E-03,0.11722
37720,5.65E-03,0.11694
37721,5.83E-03,0.11739
37722,5.82E-03,0.11733
37723,6.03E-03,0.11746
37724,6.02E-03,0.11743
37725,6.22E-03,0.11745
37726,6.17E-03,0.11747
37727,6.22E-03,0.11742
37728,6.32E-03,0.11737
37729,6.10E-03,0.11826
37730,6.10E-03,0.11768
37731,5.89E-03,0.12022
37732,5.88E-03,0.11913
37733,5.64E-03,0.12241
37734,5.68E-03,0.12134
37735,5.41E-03,0.12452
37736,5.39E-03,0.12344
37737,5.12E-03,0.12674
37738,5.18E-03,0.1256
37739,4.51E-03,0.12954
37740,4.87E-03,0.12811
37741,4.29E-03,0.13195
37742,4.28E-03,0.1308
37743,5.32E-03,0.13268
37744,4.99E-03,0.13263
37745,5.60E-03,0.13182
37746,5.55E-03,0.13238
37747,5.88E-03,0.13043
37748,5.89E-03,0.13112
37749,6.04E-03,0.12999
37750,6.04E-03,0.13002
37751,6.05E-03,0.13133
37752,6.07E-03,0.13044
37753,5.98E-03,0.13395
37754,5.98E-03,0.13253
37755,5.82E-03,0.13703
37756,5.84E-03,0.13543
37757,5.76E-03,0.14073
37758,5.78E-03,0.13884
37759,5.65E-03,0.14431
37760,5.69E-03,0.1426
37761,5.51E-03,0.14706
37762,5.55E-03,0.14578
37763,5.31E-03,0.14985
37764,5.41E-03,0.14835
37765,5.15E-03,0.15393
37766,5.18E-03,0.15168
37767,5.01E-03,0.15919
37768,5.04E-03,0.1565
37769,5.28E-03,0.16321
37770,5.18E-03,0.16154
37771,5.55E-03,0.16498
37772,5.53E-03,0.16457
37773,5.64E-03,0.16476
37774,5.92E-03,5.96E-02
37775,4.41E-03,6.60E-02
37776,5.38E-03,6.61E-02
37777,6.54E-03,1.16E-03
37778,6.55E-03,1.06E-03
37779,5.82E-03,1.31E-03
37780,5.03E-03,5.16E-03
37781,5.04E-03,6.04E-03
37782,5.34E-03,1.24E-02
37783,6.21E-03,4.23E-02
37784,6.08E-03,4.11E-02
37785,4.08E-03,1.88E-02
37786,4.65E-03,1.76E-02
37787,4.79E-03,2.76E-02
37788,5.28E-03,2.79E-02
37789,5.29E-03,1.56E-02
37790,5.36E-03,1.63E-02
37791,5.30E-03,2.06E-02
37792,5.42E-03,2.29E-02
37793,5.37E-03,4.43E-02
37794,4.16E-03,4.24E-02
37795,4.73E-03,2.64E-03
37796,4.55E-03,0.13115
37797,5.71E-03,6.87E-02
37798,5.87E-03,7.02E-02
37799,6.08E-03,5.71E-02
37800,6.20E-03,4.76E-02
37801,6.09E-03,2.17E-02
37802,6.15E-03,2.63E-02
37803,5.90E-03,3.37E-02
37804,5.98E-03,2.65E-02
37805,6.27E-03,3.21E-02
37806,3.96E-03,3.22E-02
37807,5.70E-03,6.46E-02
37808,5.82E-03,6.36E-02
37809,5.62E-03,6.27E-02
37810,5.72E-03,1.17E-03
37811,7.00E-03,6.41E-04
37812,4.66E-03,6.02E-03
37813,3.80E-03,6.01E-03
37814,3.52E-03,1.44E-03
37815,5.68E-03,7.98E-03
37816,5.63E-03,8.03E-03
37817,4.96E-03,1.24E-02
37818,5.77E-03,1.22E-02
37819,5.71E-03,1.20E-02
37820,6.49E-03,3.26E-03
37821,5.14E-03,3.82E-02
37822,4.81E-03,3.84E-02
37823,4.32E-03,3.91E-02
37824,4.15E-03,1.97E-02
37825,4.80E-03,1.74E-02
37826,6.23E-03,2.41E-02
37827,5.88E-03,2.26E-02
37828,4.42E-03,2.07E-02
37829,4.63E-03,2.64E-02
37830,5.34E-03,2.69E-02
37831,5.20E-03,1.61E-02
37832,5.30E-03,1.76E-02
37833,4.51E-03,2.40E-02
37834,5.24E-03,1.91E-02
37835,4.32E-03,3.99E-02
37836,4.87E-03,2.22E-03
37837,4.75E-03,1.81E-03
37838,5.74E-03,8.93E-02
37839,4.85E-03,0.11611
37840,5.39E-03,6.22E-02
37841,5.98E-03,6.58E-02
37842,6.05E-03,6.15E-02
37843,6.11E-03,2.32E-02
37844,6.05E-03,3.30E-02
37845,6.04E-03,2.47E-02
37846,5.81E-03,3.14E-02
37847,5.44E-03,7.08E-03
37848,5.45E-03,7.13E-03
37849,5.85E-03,6.07E-03
37850,6.46E-03,6.11E-03
37851,5.51E-03,1.36E-03
37852,5.54E-03,1.37E-03
37853,5.47E-03,1.32E-03
37854,4.93E-03,1.71E-02
37855,5.43E-03,2.60E-02
37856,5.07E-03,1.66E-02
37857,4.28E-03,4.08E-02
37858,5.07E-03,0.10211
37859,5.94E-03,4.03E-02
37860,4.37E-03,3.88E-02
37861,4.78E-03,4.31E-02
37862,4.45E-03,1.30E-02
37863,4.22E-03,1.25E-02
37864,4.82E-03,6.55E-03
37865,5.38E-03,4.80E-02
37866,5.24E-03,5.54E-02
37867,6.04E-03,5.93E-02
37868,5.20E-03,6.35E-02
37869,5.29E-03,6.49E-02
37870,5.27E-03,6.02E-02
37871,5.25E-03,6.19E-02
37872,5.50E-03,5.71E-02
37873,5.38E-03,5.86E-02
37874,5.59E-03,5.45E-02
37875,5.57E-03,5.57E-02
37876,5.69E-03,5.22E-02
37877,5.71E-03,5.33E-02
37878,5.60E-03,5.02E-02
37879,5.62E-03,5.12E-02
37880,5.42E-03,4.83E-02
37881,5.51E-03,4.93E-02
37882,5.33E-03,4.65E-02
37883,5.36E-03,4.74E-02
37884,5.44E-03,4.45E-02
37885,5.40E-03,4.55E-02
37886,5.55E-03,4.23E-02
37887,5.49E-03,4.34E-02
37888,5.72E-03,4.01E-02
37889,5.59E-03,4.12E-02
37890,5.69E-03,3.80E-02
37891,5.74E-03,3.90E-02
37892,5.55E-03,3.59E-02
37893,5.65E-03,3.70E-02
37894,5.63E-03,3.38E-02
37895,5.55E-03,3.49E-02
37896,5.77E-03,3.16E-02
37897,5.70E-03,3.27E-02
37898,5.84E-03,2.94E-02
37899,5.82E-03,3.05E-02
37900,5.70E-03,2.74E-02
37901,5.76E-03,2.84E-02
37902,5.60E-03,2.51E-02
37903,5.64E-03,2.63E-02
37904,5.48E-03,2.24E-02
37905,5.54E-03,2.38E-02
37906,5.40E-03,1.93E-02
37907,5.43E-03,2.09E-02
37908,5.55E-03,1.61E-02
37909,5.49E-03,1.77E-02
37910,5.56E-03,1.33E-02
37911,5.61E-03,1.47E-02
37912,5.58E-03,1.13E-02
37913,5.57E-03,1.22E-02
37914,5.58E-03,1.09E-02
37915,5.58E-03,1.08E-02
37916,5.51E-03,1.30E-02
37917,5.54E-03,1.17E-02
37918,5.47E-03,1.67E-02
37919,5.45E-03,1.47E-02
37920,5.60E-03,2.16E-02
37921,5.52E-03,1.90E-02
37922,5.65E-03,2.74E-02
37923,5.59E-03,2.44E-02
37924,5.73E-03,3.40E-02
37925,5.73E-03,3.06E-02
37926,5.71E-03,4.10E-02
37927,5.70E-03,3.74E-02
37928,5.64E-03,4.87E-02
37929,5.68E-03,4.48E-02
37930,5.29E-03,7.19E-04
37931,4.52E-03,5.69E-04
37932,5.23E-03,6.51E-04
37933,5.47E-03,8.88E-04
37934,5.37E-03,8.03E-04
37935,5.72E-03,9.76E-04
37936,5.59E-03,1.61E-03
37937,5.65E-03,1.47E-03
37938,5.69E-03,1.94E-03
37939,5.68E-03,1.78E-03
37940,5.85E-03,2.23E-03
37941,5.74E-03,2.10E-03
37942,5.71E-03,2.47E-03
37943,5.83E-03,2.35E-03
37944,5.36E-03,2.67E-03
37945,5.56E-03,2.57E-03
37946,4.35E-03,2.83E-03
37947,5.52E-03,2.75E-03
37948,6.44E-03,3.11E-03
37949,4.92E-03,2.96E-03
37950,6.11E-03,3.39E-03
37951,5.88E-03,3.27E-03
37952,4.70E-03,3.62E-03
37953,4.65E-03,3.50E-03
37954,5.27E-03,3.79E-03
37955,5.57E-03,3.68E-03
37956,5.20E-03,3.98E-03
37957,5.24E-03,3.88E-03
37958,4.70E-03,4.16E-03
37959,5.06E-03,4.07E-03
37960,5.98E-03,4.45E-03
37961,5.52E-03,4.33E-03
37962,5.64E-03,4.68E-03
37963,5.70E-03,4.57E-03
37964,5.47E-03,4.86E-03
37965,5.54E-03,4.78E-03
37966,4.44E-03,4.98E-03
37967,5.01E-03,4.92E-03
37968,4.41E-03,5.08E-03
37969,5.64E-03,5.35E-03
37970,5.84E-03,5.27E-03
37971,5.69E-03,5.47E-03
37972,5.73E-03,5.41E-03
37973,5.79E-03,5.56E-03
37974,5.78E-03,5.51E-03
37975,6.06E-03,5.69E-03
37976,5.94E-03,5.62E-03
37977,4.93E-03,5.83E-03
37978,6.82E-03,5.77E-03
37979,5.01E-03,5.92E-03
37980,4.47E-03,5.88E-03
37981,4.58E-03,5.94E-03
37982,5.04E-03,5.94E-03
37983,5.15E-03,5.95E-03
37984,4.78E-03,5.95E-03
37985,5.46E-03,5.98E-03
37986,5.41E-03,5.95E-03
37987,5.41E-03,6.04E-03
37988,5.39E-03,6.01E-03
37989,5.02E-03,6.07E-03
37990,5.32E-03,6.06E-03
37991,4.96E-03,6.07E-03
37992,4.93E-03,6.08E-03
37993,4.84E-03,6.01E-03
37994,4.73E-03,6.04E-03
37995,5.11E-03,6.01E-03
37996,4.99E-03,6.00E-03
37997,5.19E-03,6.01E-03
37998,5.74E-03,6.04E-03
37999,6.54E-03,7.90E-03
38000,6.46E-03,7.94E-03
38001,5.62E-03,7.76E-03
38002,5.77E-03,7.83E-03
38003,5.55E-03,7.61E-03
38004,5.59E-03,7.68E-03
38005,5.99E-03,7.46E-03
38006,5.69E-03,7.54E-03
38007,6.38E-03,7.36E-03
38008,6.27E-03,7.29E-03
38009,6.45E-03,7.32E-03
38010,6.08E-03,7.26E-03
38011,6.15E-03,7.28E-03
38012,6.18E-03,7.24E-03
38013,6.11E-03,7.25E-03
38014,6.47E-03,7.24E-03
38015,6.28E-03,7.23E-03
38016,6.48E-03,7.27E-03
38017,6.52E-03,7.25E-03
38018,6.77E-03,7.35E-03
38019,6.51E-03,7.31E-03
38020,7.39E-03,7.64E-03
38021,7.51E-03,7.53E-03
38022,6.58E-03,7.85E-03
38023,6.97E-03,7.74E-03
38024,6.17E-03,8.07E-03
38025,6.28E-03,7.96E-03
38026,5.74E-03,8.27E-03
38027,5.94E-03,8.17E-03
38028,5.35E-03,8.46E-03
38029,5.42E-03,8.37E-03
38030,5.01E-03,8.64E-03
38031,5.06E-03,8.55E-03
38032,4.96E-03,8.82E-03
38033,4.91E-03,8.73E-03
38034,5.18E-03,9.00E-03
38035,5.11E-03,8.91E-03
38036,5.49E-03,9.19E-03
38037,5.33E-03,9.09E-03
38038,5.63E-03,9.41E-03
38039,5.61E-03,9.29E-03
38040,5.87E-03,9.65E-03
38041,5.76E-03,9.52E-03
38042,6.05E-03,9.93E-03
38043,6.00E-03,9.79E-03
38044,6.36E-03,1.02E-02
38045,6.32E-03,1.01E-02
38046,6.52E-03,1.05E-02
38047,6.46E-03,1.04E-02
38048,6.42E-03,1.08E-02
38049,6.53E-03,1.07E-02
38050,6.27E-03,1.11E-02
38051,6.33E-03,1.10E-02
38052,6.27E-03,1.14E-02
38053,6.22E-03,1.13E-02
38054,6.31E-03,1.17E-02
38055,6.27E-03,1.16E-02
38056,6.05E-03,1.19E-02
38057,6.24E-03,1.18E-02
38058,5.67E-03,1.21E-02
38059,5.88E-03,1.20E-02
38060,6.72E-03,1.23E-02
38061,5.48E-03,1.22E-02
38062,5.89E-03,1.22E-02
38063,5.49E-03,1.58E-03
38064,5.56E-03,1.45E-03
38065,5.44E-03,1.94E-03
38066,5.50E-03,1.74E-03
38067,5.55E-03,2.37E-03
38068,5.44E-03,2.15E-03
38069,5.61E-03,2.83E-03
38070,5.62E-03,2.60E-03
38071,5.43E-03,3.31E-03
38072,5.54E-03,3.07E-03
38073,5.25E-03,3.79E-03
38074,5.39E-03,3.55E-03
38075,4.92E-03,4.23E-03
38076,5.12E-03,4.02E-03
38077,5.03E-03,4.68E-03
38078,4.82E-03,4.46E-03
38079,5.75E-03,5.11E-03
38080,5.45E-03,4.89E-03
38081,5.69E-03,5.58E-03
38082,5.74E-03,5.34E-03
38083,5.60E-03,6.02E-03
38084,5.66E-03,5.80E-03
38085,5.51E-03,6.44E-03
38086,5.60E-03,6.23E-03
38087,5.46E-03,6.84E-03
38088,5.47E-03,6.64E-03
38089,5.37E-03,7.21E-03
38090,5.44E-03,7.03E-03
38091,5.38E-03,7.57E-03
38092,5.36E-03,7.40E-03
38093,5.41E-03,7.91E-03
38094,5.45E-03,7.75E-03
38095,5.42E-03,6.96E-03
38096,5.45E-03,7.02E-03
38097,5.54E-03,6.83E-03
38098,5.51E-03,6.90E-03
38099,5.73E-03,6.72E-03
38100,5.64E-03,6.78E-03
38101,5.65E-03,6.63E-03
38102,5.71E-03,6.67E-03
38103,5.54E-03,6.57E-03
38104,5.60E-03,6.60E-03
38105,5.69E-03,6.51E-03
38106,5.56E-03,6.54E-03
38107,5.74E-03,6.47E-03
38108,5.75E-03,6.49E-03
38109,5.52E-03,6.42E-03
38110,5.66E-03,6.45E-03
38111,5.19E-03,6.38E-03
38112,5.38E-03,6.40E-03
38113,5.18E-03,6.31E-03
38114,5.19E-03,6.35E-03
38115,5.56E-03,6.22E-03
38116,5.31E-03,6.27E-03
38117,6.04E-03,6.11E-03
38118,5.81E-03,6.17E-03
38119,6.26E-03,5.97E-03
38120,6.17E-03,6.04E-03
38121,5.97E-03,5.83E-03
38122,6.20E-03,5.89E-03
38123,5.77E-03,5.72E-03
38124,5.86E-03,5.77E-03
38125,5.66E-03,5.64E-03
38126,5.70E-03,5.68E-03
38127,5.63E-03,5.55E-03
38128,5.67E-03,5.59E-03
38129,6.13E-03,5.41E-03
38130,5.45E-03,5.49E-03
38131,5.84E-03,5.25E-03
38132,6.24E-03,5.34E-03
38133,5.73E-03,5.07E-03
38134,5.74E-03,5.16E-03
38135,5.66E-03,4.89E-03
38136,5.72E-03,4.98E-03
38137,5.46E-03,4.75E-03
38138,5.33E-03,4.81E-03
38139,5.42E-03,4.62E-03
38140,5.37E-03,4.70E-03
38141,5.43E-03,4.47E-03
38142,5.43E-03,4.54E-03
38143,6.02E-03,4.28E-03
38144,5.62E-03,4.38E-03
38145,6.15E-03,4.16E-03
38146,6.29E-03,4.22E-03
38147,6.04E-03,4.04E-03
38148,6.13E-03,4.11E-03
38149,5.93E-03,3.91E-03
38150,5.97E-03,3.98E-03
38151,6.14E-03,3.76E-03
38152,5.96E-03,3.84E-03
38153,6.51E-03,3.63E-03
38154,6.34E-03,3.68E-03
38155,6.15E-03,3.55E-03
38156,6.36E-03,3.59E-03
38157,6.23E-03,3.45E-03
38158,6.15E-03,3.51E-03
38159,6.41E-03,3.35E-03
38160,6.21E-03,3.40E-03
38161,6.33E-03,3.31E-03
38162,5.50E-03,4.01E-02
38163,5.16E-03,3.89E-02
38164,5.59E-03,3.78E-02
38165,5.43E-03,3.80E-02
38166,5.81E-03,3.74E-02
38167,5.68E-03,3.77E-02
38168,5.89E-03,3.71E-02
38169,5.88E-03,3.73E-02
38170,5.97E-03,3.66E-02
38171,5.99E-03,3.68E-02
38172,6.01E-03,3.61E-02
38173,6.02E-03,3.64E-02
38174,6.04E-03,3.55E-02
38175,6.03E-03,3.58E-02
38176,6.08E-03,3.49E-02
38177,6.07E-03,3.52E-02
38178,6.05E-03,3.42E-02
38179,6.05E-03,3.46E-02
38180,6.10E-03,3.35E-02
38181,6.10E-03,3.39E-02
38182,6.10E-03,3.27E-02
38183,6.06E-03,3.31E-02
38184,6.01E-03,3.19E-02
38185,6.07E-03,3.23E-02
38186,6.05E-03,3.10E-02
38187,6.06E-03,3.15E-02
38188,6.12E-03,3.01E-02
38189,6.06E-03,3.06E-02
38190,6.20E-03,2.93E-02
38191,6.20E-03,2.97E-02
38192,6.02E-03,2.84E-02
38193,6.11E-03,2.88E-02
38194,5.95E-03,2.75E-02
38195,6.00E-03,2.79E-02
38196,5.84E-03,2.66E-02
38197,5.92E-03,2.71E-02
38198,5.75E-03,2.58E-02
38199,5.76E-03,2.62E-02
38200,5.86E-03,2.50E-02
38201,5.75E-03,2.54E-02
38202,5.96E-03,2.41E-02
38203,5.90E-03,2.46E-02
38204,5.90E-03,2.33E-02
38205,5.96E-03,2.37E-02
38206,5.82E-03,2.25E-02
38207,5.82E-03,2.29E-02
38208,5.77E-03,2.17E-02
38209,5.79E-03,2.21E-02
38210,5.76E-03,2.10E-02
38211,5.75E-03,2.13E-02
38212,5.69E-03,2.02E-02
38213,5.72E-03,2.06E-02
38214,5.63E-03,1.94E-02
38215,5.68E-03,1.98E-02
38216,5.66E-03,1.87E-02
38217,5.63E-03,1.91E-02
38218,5.75E-03,1.80E-02
38219,5.69E-03,1.84E-02
38220,5.77E-03,1.73E-02
38221,5.77E-03,1.76E-02
38222,5.82E-03,1.66E-02
38223,5.82E-03,1.69E-02
38224,5.86E-03,1.59E-02
38225,5.86E-03,1.62E-02
38226,5.88E-03,1.52E-02
38227,5.89E-03,1.55E-02
38228,5.80E-03,1.45E-02
38229,5.85E-03,1.48E-02
38230,5.78E-03,1.39E-02
38231,5.78E-03,1.42E-02
38232,5.85E-03,1.32E-02
38233,5.82E-03,1.36E-02
38234,5.92E-03,1.26E-02
38235,5.92E-03,1.29E-02
38236,5.93E-03,1.20E-02
38237,5.94E-03,1.23E-02
38238,5.90E-03,1.14E-02
38239,5.90E-03,1.17E-02
38240,5.87E-03,1.09E-02
38241,5.89E-03,1.12E-02
38242,5.94E-03,1.03E-02
38243,5.91E-03,1.06E-02
38244,5.97E-03,9.77E-03
38245,5.92E-03,1.00E-02
38246,6.03E-03,9.25E-03
38247,6.01E-03,9.51E-03
38248,6.05E-03,8.75E-03
38249,5.97E-03,9.00E-03
38250,6.11E-03,8.27E-03
38251,6.08E-03,8.51E-03
38252,6.01E-03,7.81E-03
38253,6.07E-03,8.04E-03
38254,5.87E-03,7.38E-03
38255,5.95E-03,7.60E-03
38256,5.86E-03,6.97E-03
38257,5.81E-03,7.18E-03
38258,5.97E-03,6.58E-03
38259,5.93E-03,6.77E-03
38260,6.01E-03,6.21E-03
38261,6.03E-03,6.39E-03
38262,5.88E-03,5.87E-03
38263,5.98E-03,6.04E-03
38264,5.77E-03,5.55E-03
38265,5.85E-03,5.71E-03
38266,5.79E-03,5.24E-03
38267,5.73E-03,5.39E-03
38268,5.87E-03,4.93E-03
38269,5.84E-03,5.08E-03
38270,5.90E-03,4.65E-03
38271,5.91E-03,4.79E-03
38272,5.86E-03,4.38E-03
38273,5.94E-03,4.51E-03
38274,5.69E-03,4.13E-03
38275,5.78E-03,4.26E-03
38276,5.63E-03,3.91E-03
38277,5.65E-03,4.02E-03
38278,5.61E-03,3.68E-03
38279,5.62E-03,3.80E-03
38280,5.67E-03,3.47E-03
38281,5.66E-03,3.57E-03
38282,5.76E-03,3.25E-03
38283,5.70E-03,3.36E-03
38284,5.75E-03,3.05E-03
38285,5.77E-03,3.15E-03
38286,5.69E-03,2.86E-03
38287,5.71E-03,2.95E-03
38288,5.64E-03,2.69E-03
38289,5.62E-03,2.77E-03
38290,5.66E-03,2.53E-03
38291,5.66E-03,2.61E-03
38292,5.65E-03,2.38E-03
38293,5.60E-03,2.45E-03
38294,5.75E-03,2.23E-03
38295,5.70E-03,2.30E-03
38296,5.82E-03,2.10E-03
38297,5.77E-03,2.16E-03
38298,5.90E-03,1.97E-03
38299,5.87E-03,2.03E-03
38300,5.79E-03,1.85E-03
38301,5.81E-03,1.91E-03
38302,5.68E-03,1.74E-03
38303,5.75E-03,1.79E-03
38304,5.72E-03,1.64E-03
38305,5.69E-03,1.69E-03
38306,5.71E-03,1.54E-03
38307,5.74E-03,1.59E-03
38308,5.63E-03,1.45E-03
38309,5.69E-03,1.49E-03
38310,5.59E-03,1.41E-03
38311,4.46E-03,1.83E-02
38312,5.00E-03,2.77E-02
38313,5.34E-03,1.59E-02
38314,5.77E-03,2.17E-02
38315,3.95E-03,4.35E-02
38316,5.07E-03,4.29E-02
38317,3.47E-03,3.27E-03
38318,3.93E-03,2.94E-03
38319,4.25E-03,0.14346
38320,5.81E-03,6.96E-02
38321,6.21E-03,5.24E-02
38322,6.11E-03,2.38E-02
38323,5.96E-03,3.01E-02
38324,6.14E-03,3.15E-02
38325,6.30E-03,3.18E-02
38326,5.91E-03,3.10E-02
38327,5.98E-03,3.12E-02
38328,5.69E-03,3.11E-02
38329,5.78E-03,3.09E-02
38330,5.43E-03,3.20E-02
38331,5.58E-03,3.15E-02
38332,5.35E-03,3.30E-02
38333,5.35E-03,3.25E-02
38334,5.38E-03,3.36E-02
38335,5.34E-03,3.33E-02
38336,5.54E-03,3.40E-02
38337,5.47E-03,3.38E-02
38338,5.78E-03,3.43E-02
38339,5.75E-03,3.42E-02
38340,6.04E-03,3.45E-02
38341,5.98E-03,3.45E-02
38342,6.23E-03,3.43E-02
38343,6.15E-03,3.45E-02
38344,6.86E-03,3.32E-02
38345,6.43E-03,3.39E-02
38346,5.63E-03,3.31E-02
38347,5.85E-03,3.29E-02
38348,5.71E-03,3.31E-02
38349,5.68E-03,3.31E-02
38350,5.90E-03,3.33E-02
38351,5.79E-03,3.32E-02
38352,5.87E-03,3.31E-02
38353,5.87E-03,3.33E-02
38354,5.89E-03,3.22E-02
38355,5.93E-03,3.28E-02
38356,5.94E-03,3.10E-02
38357,5.90E-03,3.16E-02
38358,5.98E-03,2.99E-02
38359,5.91E-03,3.04E-02
38360,6.10E-03,2.88E-02
38361,6.05E-03,2.93E-02
38362,6.25E-03,2.77E-02
38363,6.20E-03,2.83E-02
38364,6.41E-03,2.64E-02
38365,6.35E-03,2.71E-02
38366,6.58E-03,2.50E-02
38367,6.46E-03,2.56E-02
38368,6.61E-03,2.38E-02
38369,6.57E-03,2.44E-02
38370,6.62E-03,2.25E-02
38371,6.59E-03,2.32E-02
38372,6.74E-03,2.12E-02
38373,6.73E-03,2.19E-02
38374,6.54E-03,1.99E-02
38375,6.64E-03,2.05E-02
38376,6.36E-03,1.88E-02
38377,6.45E-03,1.93E-02
38378,6.05E-03,1.76E-02
38379,6.14E-03,1.82E-02
38380,5.67E-03,1.63E-02
38381,5.83E-03,1.70E-02
38382,5.19E-03,1.50E-02
38383,5.35E-03,1.57E-02
38384,4.86E-03,1.36E-02
38385,5.06E-03,1.43E-02
38386,5.52E-03,6.58E-02
38387,5.66E-03,6.60E-02
38388,5.31E-03,6.36E-02
38389,5.42E-03,6.49E-02
38390,5.17E-03,6.12E-02
38391,5.17E-03,6.23E-02
38392,5.18E-03,5.92E-02
38393,5.15E-03,6.01E-02
38394,5.18E-03,5.79E-02
38395,5.21E-03,5.85E-02
38396,5.23E-03,5.73E-02
38397,5.20E-03,5.75E-02
38398,5.23E-03,5.75E-02
38399,5.22E-03,5.73E-02
38400,5.32E-03,5.74E-02
38401,5.33E-03,5.75E-02
38402,5.54E-03,5.66E-02
38403,5.38E-03,5.70E-02
38404,5.70E-03,5.55E-02
38405,5.62E-03,5.60E-02
38406,5.86E-03,5.49E-02
38407,5.82E-03,5.51E-02
38408,5.94E-03,5.48E-02
38409,5.93E-03,5.49E-02
38410,6.03E-03,5.41E-02
38411,6.00E-03,5.45E-02
38412,5.87E-03,5.35E-02
38413,5.93E-03,5.37E-02
38414,5.84E-03,5.34E-02
38415,5.81E-03,5.34E-02
38416,5.96E-03,5.28E-02
38417,5.88E-03,5.32E-02
38418,6.16E-03,5.09E-02
38419,6.04E-03,5.20E-02
38420,6.32E-03,4.82E-02
38421,6.30E-03,4.96E-02
38422,6.41E-03,4.60E-02
38423,6.40E-03,4.70E-02
38424,6.21E-03,4.43E-02
38425,6.34E-03,4.51E-02
38426,5.95E-03,4.32E-02
38427,6.17E-03,4.38E-02
38428,5.58E-03,4.22E-02
38429,5.86E-03,4.27E-02
38430,5.12E-03,4.08E-02
38431,5.28E-03,4.16E-02
38432,4.57E-03,3.85E-02
38433,4.94E-03,3.96E-02
38434,4.99E-03,3.61E-02
38435,4.84E-03,3.72E-02
38436,5.12E-03,3.39E-02
38437,5.09E-03,3.50E-02
38438,5.28E-03,3.23E-02
38439,5.16E-03,3.30E-02
38440,5.49E-03,3.18E-02
38441,4.93E-03,3.82E-02
38442,5.58E-03,4.09E-02
38443,5.23E-03,3.96E-02
38444,5.37E-03,4.39E-02
38445,5.65E-03,4.25E-02
38446,5.60E-03,4.50E-02
38447,6.93E-03,4.85E-02
38448,5.91E-03,5.21E-02
38449,5.84E-03,5.05E-02
38450,5.84E-03,5.43E-02
38451,5.85E-03,5.34E-02
38452,5.75E-03,5.52E-02
38453,5.82E-03,5.48E-02
38454,5.64E-03,5.56E-02
38455,5.69E-03,5.54E-02
38456,5.58E-03,5.61E-02
38457,5.59E-03,5.59E-02
38458,5.55E-03,5.67E-02
38459,5.57E-03,5.64E-02
38460,5.50E-03,5.74E-02
38461,5.50E-03,5.70E-02
38462,5.52E-03,5.83E-02
38463,5.55E-03,5.78E-02
38464,5.38E-03,5.94E-02
38465,5.44E-03,5.88E-02
38466,5.30E-03,6.08E-02
38467,5.29E-03,6.01E-02
38468,5.31E-03,6.24E-02
38469,5.27E-03,6.15E-02
38470,5.43E-03,6.43E-02
38471,5.36E-03,6.33E-02
38472,5.59E-03,6.65E-02
38473,5.50E-03,6.54E-02
38474,5.71E-03,6.88E-02
38475,5.63E-03,6.77E-02
38476,5.88E-03,7.07E-02
38477,5.80E-03,6.98E-02
38478,6.03E-03,7.23E-02
38479,6.02E-03,7.15E-02
38480,6.23E-03,7.38E-02
38481,6.14E-03,7.30E-02
38482,6.28E-03,7.57E-02
38483,6.27E-03,7.47E-02
38484,6.17E-03,7.80E-02
38485,6.27E-03,7.69E-02
38486,6.04E-03,8.01E-02
38487,6.07E-03,7.91E-02
38488,5.95E-03,8.20E-02
38489,6.02E-03,8.11E-02
38490,5.82E-03,8.38E-02
38491,5.90E-03,8.29E-02
38492,5.76E-03,8.53E-02
38493,5.82E-03,8.46E-02
38494,5.65E-03,8.66E-02
38495,5.71E-03,8.60E-02
38496,5.57E-03,8.78E-02
38497,5.61E-03,8.72E-02
38498,5.60E-03,8.92E-02
38499,5.58E-03,8.84E-02
38500,5.55E-03,9.08E-02
38501,5.59E-03,8.99E-02
38502,5.53E-03,9.24E-02
38503,5.57E-03,9.16E-02
38504,5.54E-03,9.36E-02
38505,5.52E-03,9.30E-02
38506,5.62E-03,9.47E-02
38507,5.59E-03,9.42E-02
38508,5.74E-03,9.62E-02
38509,5.71E-03,9.54E-02
38510,5.81E-03,9.83E-02
38511,5.79E-03,9.72E-02
38512,5.81E-03,0.10033
38513,5.78E-03,9.93E-02
38514,5.79E-03,0.10226
38515,5.80E-03,0.10132
38516,5.77E-03,0.10391
38517,5.78E-03,0.10311
38518,5.75E-03,0.10557
38519,5.75E-03,0.10469
38520,5.78E-03,0.10769
38521,5.75E-03,0.10657
38522,5.85E-03,0.10983
38523,5.82E-03,0.10883
38524,5.99E-03,0.11111
38525,5.90E-03,0.11058
38526,6.15E-03,0.11173
38527,6.09E-03,0.11146
38528,6.05E-03,0.11266
38529,6.16E-03,0.11207
38530,5.92E-03,0.11507
38531,5.97E-03,0.11367
38532,5.69E-03,0.11849
38533,5.81E-03,0.11676
38534,5.62E-03,0.12097
38535,5.59E-03,0.11995
38536,5.66E-03,0.12166
38537,5.65E-03,0.12152
38538,5.81E-03,0.12178
38539,5.74E-03,0.1217
38540,6.02E-03,0.12239
38541,5.93E-03,0.12203
38542,6.19E-03,0.12284
38543,6.11E-03,0.12274
38544,6.16E-03,0.12263
38545,6.18E-03,0.12275
38546,6.02E-03,0.12306
38547,6.02E-03,0.12268
38548,5.80E-03,0.12485
38549,5.87E-03,0.12383
38550,5.60E-03,0.12662
38551,5.68E-03,0.12581
38552,5.31E-03,0.1277
38553,5.43E-03,0.12721
38554,5.08E-03,0.12895
38555,5.17E-03,0.12823
38556,4.68E-03,0.13116
38557,4.90E-03,0.12993
38558,4.62E-03,0.13404
38559,4.56E-03,0.13253
38560,5.22E-03,0.13577
38561,4.89E-03,0.13519
38562,5.63E-03,0.13575
38563,5.39E-03,0.13595
38564,5.83E-03,0.1349
38565,5.78E-03,0.1353
38566,6.00E-03,0.13539
38567,5.94E-03,0.13487
38568,5.99E-03,0.13802
38569,6.04E-03,0.13649
38570,5.89E-03,0.14122
38571,5.93E-03,0.13973
38572,5.77E-03,0.14418
38573,5.79E-03,0.14264
38574,5.68E-03,0.14798
38575,5.75E-03,0.14596
38576,5.62E-03,0.1518
38577,5.64E-03,0.15001
38578,5.50E-03,0.15397
38579,5.58E-03,0.1531
38580,5.37E-03,0.1558
38581,5.43E-03,0.15471
38582,5.23E-03,0.1601
38583,5.21E-03,0.15756
38584,5.14E-03,0.16655
38585,5.11E-03,0.16318
38586,5.29E-03,0.17281
38587,5.20E-03,0.1699
38588,5.63E-03,0.17595
38589,5.48E-03,0.17478
38590,6.02E-03,0.17332
38591,5.81E-03,0.1755
38592,7.32E-03,0.16803
38593,6.37E-03,0.17057
38594,4.75E-03,0.1768
38595,6.22E-03,0.16866
38596,5.43E-03,0.18433
38597,4.31E-03,0.18565
38598,3.47E-03,0.15881
38599,3.85E-03,0.16895
38600,5.88E-03,6.26E-02
38601,5.57E-03,5.28E-02
38602,5.82E-03,0.12324
38603,5.76E-03,4.46E-04
38604,4.34E-03,5.99E-03
38605,5.37E-03,8.07E-03
38606,4.52E-03,8.12E-03
38607,5.85E-03,8.03E-03
38608,5.88E-03,1.19E-02
38609,4.13E-03,3.50E-03
38610,4.58E-03,3.86E-02
38611,4.14E-03,1.22E-02
38612,4.23E-03,1.93E-02
38613,4.68E-03,1.81E-02
38614,4.51E-03,2.14E-02
38615,4.75E-03,2.64E-02
38616,5.20E-03,2.67E-02
38617,5.59E-03,2.51E-02
38618,5.27E-03,1.65E-02
38619,5.30E-03,1.73E-02
38620,5.08E-03,2.29E-02
38621,5.29E-03,2.02E-02
38622,4.27E-03,3.93E-02
38623,4.35E-03,4.16E-02
38624,3.56E-03,4.34E-02
38625,3.49E-03,4.26E-02
38626,4.62E-03,2.54E-03
38627,4.00E-03,1.74E-03
38628,5.35E-03,7.69E-02
38629,4.97E-03,0.12699
38630,4.75E-03,0.17551
38631,3.10E-03,0.15611
38632,5.88E-03,0.18615
38633,5.55E-03,6.37E-02
38634,5.86E-03,6.54E-02
38635,5.97E-03,5.70E-02
38636,6.13E-03,2.52E-02
38637,6.05E-03,3.00E-02
38638,5.51E-03,3.55E-02
38639,5.95E-03,2.83E-02
38640,7.27E-03,3.07E-02
38641,5.94E-03,4.54E-02
38642,6.86E-03,4.73E-02
38643,5.77E-03,7.04E-02
38644,5.95E-03,6.69E-02
38645,5.72E-03,7.47E-02
38646,5.63E-03,1.04E-03
38647,5.93E-03,8.98E-04
38648,5.37E-03,7.17E-03
38649,5.48E-03,7.29E-03
38650,5.32E-03,7.20E-03
38651,5.54E-03,7.31E-03
38652,5.66E-03,5.91E-03
38653,5.36E-03,1.33E-03
38654,5.41E-03,1.28E-03
38655,5.51E-03,1.38E-03
38656,5.42E-03,1.34E-03
38657,4.34E-03,2.03E-02
38658,4.87E-03,1.79E-02
38659,4.53E-03,2.52E-02
38660,5.30E-03,2.58E-02
38661,5.18E-03,1.70E-02
38662,5.29E-03,1.87E-02
38663,5.24E-03,4.74E-02
38664,5.10E-03,4.55E-02
38665,4.36E-03,4.03E-02
38666,4.73E-03,2.14E-03
38667,4.56E-03,0.11412
38668,5.12E-03,0.18969
38669,3.76E-03,0.16759
38670,5.95E-03,6.11E-02
38671,6.06E-03,2.67E-02
38672,5.87E-03,3.67E-02
38673,6.58E-03,4.74E-02
38674,4.90E-03,4.07E-02
38675,4.68E-03,1.30E-02
38676,4.37E-03,1.24E-02
38677,4.68E-03,6.63E-03
38678,4.43E-03,6.29E-03
38679,3.66E-03,6.42E-03
38680,5.53E-03,4.38E-02
38681,5.06E-03,5.71E-02
38682,4.94E-03,5.10E-02
38683,6.14E-03,6.56E-02
38684,5.97E-03,6.34E-02
38685,5.62E-03,6.96E-02
38686,5.41E-03,6.75E-02
38687,5.33E-03,6.65E-02
38688,5.43E-03,6.82E-02
38689,5.38E-03,6.31E-02
38690,5.40E-03,6.48E-02
38691,5.50E-03,5.99E-02
38692,5.48E-03,6.14E-02
38693,5.58E-03,5.72E-02
38694,5.57E-03,5.85E-02
38695,5.61E-03,5.50E-02
38696,5.67E-03,5.60E-02
38697,5.57E-03,5.29E-02
38698,5.61E-03,5.39E-02
38699,5.45E-03,5.11E-02
38700,5.47E-03,5.20E-02
38701,5.35E-03,4.92E-02
38702,5.34E-03,5.02E-02
38703,5.45E-03,4.73E-02
38704,5.42E-03,4.83E-02
38705,5.55E-03,4.51E-02
38706,5.55E-03,4.62E-02
38707,5.69E-03,4.30E-02
38708,5.62E-03,4.40E-02
38709,5.71E-03,4.09E-02
38710,5.74E-03,4.19E-02
38711,5.59E-03,3.89E-02
38712,5.64E-03,3.99E-02
38713,5.64E-03,3.70E-02
38714,5.62E-03,3.80E-02
38715,5.76E-03,3.49E-02
38716,5.70E-03,3.60E-02
38717,5.81E-03,3.29E-02
38718,5.76E-03,3.39E-02
38719,5.76E-03,3.11E-02
38720,5.77E-03,3.20E-02
38721,5.61E-03,2.89E-02
38722,5.66E-03,3.00E-02
38723,5.47E-03,2.63E-02
38724,5.50E-03,2.77E-02
38725,5.46E-03,2.33E-02
38726,5.49E-03,2.49E-02
38727,5.55E-03,2.01E-02
38728,5.50E-03,2.17E-02
38729,5.59E-03,1.69E-02
38730,5.61E-03,1.85E-02
38731,5.54E-03,1.39E-02
38732,5.56E-03,1.54E-02
38733,5.52E-03,1.16E-02
38734,5.53E-03,1.26E-02
38735,5.50E-03,1.12E-02
38736,5.52E-03,1.11E-02
38737,5.45E-03,1.31E-02
38738,5.46E-03,1.19E-02
38739,5.56E-03,1.67E-02
38740,5.48E-03,1.47E-02
38741,5.67E-03,2.16E-02
38742,5.58E-03,1.90E-02
38743,5.67E-03,2.70E-02
38744,5.68E-03,2.42E-02
38745,5.67E-03,3.28E-02
38746,5.66E-03,2.99E-02
38747,5.68E-03,3.94E-02
38748,5.67E-03,3.60E-02
38749,5.48E-03,5.75E-02
38750,5.53E-03,4.72E-02
38751,5.59E-03,4.32E-02
38752,5.10E-03,0.15229
38753,5.83E-03,0.13647
38754,5.33E-03,0.17008
38755,5.44E-03,4.70E-04
38756,5.11E-03,3.54E-04
38757,5.24E-03,3.90E-04
38758,5.50E-03,6.23E-04
38759,5.43E-03,5.45E-04
38760,5.87E-03,7.69E-04
38761,5.56E-03,7.06E-04
38762,5.58E-03,1.33E-03
38763,5.60E-03,1.18E-03
38764,5.66E-03,1.62E-03
38765,5.63E-03,1.48E-03
38766,5.74E-03,1.91E-03
38767,5.72E-03,1.77E-03
38768,5.62E-03,2.14E-03
38769,5.72E-03,2.03E-03
38770,5.46E-03,2.35E-03
38771,5.54E-03,2.25E-03
38772,5.16E-03,2.56E-03
38773,5.21E-03,2.43E-03
38774,5.56E-03,2.82E-03
38775,5.29E-03,2.73E-03
38776,5.51E-03,3.09E-03
38777,5.77E-03,2.96E-03
38778,5.14E-03,3.41E-03
38779,5.23E-03,3.23E-03
38780,5.33E-03,3.58E-03
38781,5.15E-03,3.48E-03
38782,5.16E-03,3.78E-03
38783,5.25E-03,3.68E-03
38784,5.25E-03,4.03E-03
38785,5.13E-03,3.89E-03
38786,5.60E-03,4.27E-03
38787,5.47E-03,4.18E-03
38788,5.60E-03,4.48E-03
38789,5.65E-03,4.38E-03
38790,5.32E-03,4.67E-03
38791,5.47E-03,4.58E-03
38792,4.83E-03,4.83E-03
38793,5.06E-03,4.74E-03
38794,5.17E-03,5.05E-03
38795,5.01E-03,4.93E-03
38796,5.54E-03,5.26E-03
38797,5.47E-03,5.15E-03
38798,5.64E-03,5.40E-03
38799,5.69E-03,5.34E-03
38800,5.75E-03,5.49E-03
38801,5.76E-03,5.45E-03
38802,5.88E-03,5.62E-03
38803,5.84E-03,5.55E-03
38804,5.52E-03,5.76E-03
38805,5.89E-03,5.69E-03
38806,5.11E-03,5.87E-03
38807,5.26E-03,5.83E-03
38808,5.02E-03,5.88E-03
38809,5.04E-03,5.88E-03
38810,5.10E-03,5.84E-03
38811,4.98E-03,5.86E-03
38812,5.31E-03,5.87E-03
38813,5.23E-03,5.84E-03
38814,5.41E-03,5.97E-03
38815,5.40E-03,5.92E-03
38816,5.24E-03,6.00E-03
38817,5.31E-03,5.99E-03
38818,5.02E-03,6.00E-03
38819,5.11E-03,6.00E-03
38820,4.99E-03,5.95E-03
38821,4.98E-03,5.97E-03
38822,5.19E-03,5.92E-03
38823,5.06E-03,5.93E-03
38824,5.89E-03,5.96E-03
38825,5.41E-03,5.93E-03
38826,5.16E-03,5.89E-03
38827,4.60E-03,5.93E-03
38828,5.48E-03,5.89E-03
38829,5.92E-03,5.28E-03
38830,5.88E-03,4.80E-03
38831,2.90E-03,3.20E-03
38832,3.20E-03,3.63E-03
38833,5.98E-03,4.03E-03
38834,6.34E-03,4.92E-03
38835,7.40E-03,4.42E-03
38836,6.89E-03,2.92E-04
38837,5.83E-03,4.98E-04
38838,5.55E-03,8.14E-03
38839,5.35E-03,8.23E-03
38840,5.52E-03,8.18E-03
38841,5.80E-03,8.10E-03
38842,5.47E-03,7.89E-03
38843,5.63E-03,7.96E-03
38844,5.52E-03,7.74E-03
38845,5.51E-03,7.81E-03
38846,5.80E-03,7.61E-03
38847,5.71E-03,7.67E-03
38848,6.12E-03,7.51E-03
38849,6.02E-03,7.55E-03
38850,6.12E-03,7.45E-03
38851,6.20E-03,7.47E-03
38852,6.02E-03,7.41E-03
38853,6.04E-03,7.43E-03
38854,6.05E-03,7.39E-03
38855,6.01E-03,7.40E-03
38856,6.27E-03,7.38E-03
38857,6.17E-03,7.38E-03
38858,6.40E-03,7.41E-03
38859,6.34E-03,7.40E-03
38860,6.80E-03,7.48E-03
38861,6.53E-03,7.44E-03
38862,7.16E-03,7.58E-03
38863,7.13E-03,7.53E-03
38864,6.90E-03,7.74E-03
38865,7.21E-03,7.65E-03
38866,6.56E-03,7.93E-03
38867,6.75E-03,7.83E-03
38868,6.27E-03,8.13E-03
38869,6.29E-03,8.03E-03
38870,5.89E-03,8.32E-03
38871,5.86E-03,8.23E-03
38872,5.42E-03,8.50E-03
38873,5.44E-03,8.41E-03
38874,5.13E-03,8.68E-03
38875,5.17E-03,8.59E-03
38876,5.04E-03,8.85E-03
38877,5.04E-03,8.76E-03
38878,5.22E-03,9.02E-03
38879,5.16E-03,8.93E-03
38880,5.41E-03,9.20E-03
38881,5.39E-03,9.11E-03
38882,5.60E-03,9.41E-03
38883,5.62E-03,9.31E-03
38884,5.81E-03,9.65E-03
38885,5.73E-03,9.53E-03
38886,5.97E-03,9.91E-03
38887,5.97E-03,9.77E-03
38888,6.15E-03,1.02E-02
38889,6.18E-03,1.00E-02
38890,6.30E-03,1.05E-02
38891,6.27E-03,1.03E-02
38892,6.22E-03,1.07E-02
38893,6.31E-03,1.06E-02
38894,6.09E-03,1.10E-02
38895,6.14E-03,1.09E-02
38896,6.17E-03,1.13E-02
38897,6.12E-03,1.11E-02
38898,6.16E-03,1.15E-02
38899,6.14E-03,1.14E-02
38900,6.03E-03,1.17E-02
38901,6.15E-03,1.16E-02
38902,5.91E-03,1.18E-02
38903,5.93E-03,1.18E-02
38904,7.30E-03,1.20E-02
38905,6.88E-03,1.19E-02
38906,6.18E-03,1.18E-02
38907,6.47E-03,1.20E-02
38908,6.67E-03,1.15E-02
38909,6.23E-03,1.16E-02
38910,5.37E-03,1.56E-03
38911,5.41E-03,1.42E-03
38912,5.45E-03,1.93E-03
38913,5.44E-03,1.73E-03
38914,5.56E-03,2.37E-03
38915,5.50E-03,2.14E-03
38916,5.60E-03,2.84E-03
38917,5.62E-03,2.61E-03
38918,5.42E-03,3.32E-03
38919,5.53E-03,3.08E-03
38920,5.30E-03,3.80E-03
38921,5.35E-03,3.56E-03
38922,5.11E-03,4.26E-03
38923,5.16E-03,4.03E-03
38924,5.13E-03,4.72E-03
38925,5.08E-03,4.49E-03
38926,5.47E-03,5.16E-03
38927,5.33E-03,4.94E-03
38928,5.61E-03,5.61E-03
38929,5.60E-03,5.38E-03
38930,5.62E-03,6.06E-03
38931,5.60E-03,5.84E-03
38932,5.56E-03,6.48E-03
38933,5.63E-03,6.27E-03
38934,5.45E-03,6.87E-03
38935,5.51E-03,6.68E-03
38936,5.39E-03,7.25E-03
38937,5.40E-03,7.07E-03
38938,5.35E-03,7.62E-03
38939,5.37E-03,7.44E-03
38940,5.34E-03,7.96E-03
38941,5.36E-03,7.79E-03
38942,5.30E-03,8.27E-03
38943,5.33E-03,8.12E-03
38944,5.43E-03,7.20E-03
38945,5.49E-03,7.25E-03
38946,5.45E-03,7.09E-03
38947,5.43E-03,7.15E-03
38948,5.57E-03,6.98E-03
38949,5.48E-03,7.03E-03
38950,5.68E-03,6.87E-03
38951,5.63E-03,6.92E-03
38952,5.67E-03,6.77E-03
38953,5.68E-03,6.82E-03
38954,5.63E-03,6.70E-03
38955,5.65E-03,6.73E-03
38956,5.70E-03,6.64E-03
38957,5.66E-03,6.67E-03
38958,5.67E-03,6.59E-03
38959,5.75E-03,6.61E-03
38960,5.50E-03,6.53E-03
38961,5.60E-03,6.56E-03
38962,5.32E-03,6.48E-03
38963,5.39E-03,6.51E-03
38964,5.30E-03,6.40E-03
38965,5.28E-03,6.44E-03
38966,5.58E-03,6.32E-03
38967,5.39E-03,6.36E-03
38968,5.89E-03,6.21E-03
38969,5.75E-03,6.26E-03
38970,6.00E-03,6.08E-03
38971,5.99E-03,6.14E-03
38972,5.92E-03,5.96E-03
38973,5.99E-03,6.02E-03
38974,5.76E-03,5.85E-03
38975,5.84E-03,5.90E-03
38976,5.68E-03,5.77E-03
38977,5.72E-03,5.81E-03
38978,5.64E-03,5.69E-03
38979,5.68E-03,5.73E-03
38980,5.78E-03,5.56E-03
38981,5.75E-03,5.63E-03
38982,5.83E-03,5.43E-03
38983,5.92E-03,5.51E-03
38984,5.72E-03,5.27E-03
38985,5.79E-03,5.35E-03
38986,5.62E-03,5.11E-03
38987,5.67E-03,5.19E-03
38988,5.62E-03,4.96E-03
38989,5.59E-03,5.04E-03
38990,5.47E-03,4.84E-03
38991,5.50E-03,4.91E-03
38992,5.55E-03,4.70E-03
38993,5.48E-03,4.77E-03
38994,5.89E-03,4.57E-03
38995,5.70E-03,4.63E-03
38996,6.06E-03,4.46E-03
38997,6.01E-03,4.51E-03
38998,6.05E-03,4.35E-03
38999,6.11E-03,4.41E-03
39000,5.97E-03,4.23E-03
39001,5.99E-03,4.29E-03
39002,6.07E-03,4.10E-03
39003,5.97E-03,4.16E-03
39004,6.16E-03,4.00E-03
39005,6.10E-03,4.04E-03
39006,6.07E-03,3.91E-03
39007,6.15E-03,3.95E-03
39008,6.15E-03,3.83E-03
39009,6.06E-03,3.87E-03
39010,6.22E-03,3.76E-03
39011,6.12E-03,3.79E-03
39012,6.01E-03,3.73E-03
39013,6.22E-03,3.73E-03
39014,4.53E-03,3.24E-03
39015,5.93E-03,3.70E-03
39016,5.92E-03,3.64E-03
39017,5.44E-03,3.73E-03
39018,5.68E-03,5.26E-03
39019,4.31E-03,3.57E-02
39020,5.13E-03,3.83E-02
39021,5.42E-03,3.77E-02
39022,4.27E-03,3.83E-02
39023,5.78E-03,3.79E-02
39024,5.57E-03,3.73E-02
39025,5.46E-03,3.75E-02
39026,5.74E-03,3.70E-02
39027,5.65E-03,3.71E-02
39028,5.82E-03,3.66E-02
39029,5.83E-03,3.68E-02
39030,5.94E-03,3.61E-02
39031,5.94E-03,3.64E-02
39032,5.99E-03,3.57E-02
39033,5.95E-03,3.59E-02
39034,6.05E-03,3.51E-02
39035,5.99E-03,3.54E-02
39036,5.99E-03,3.45E-02
39037,6.03E-03,3.48E-02
39038,5.94E-03,3.39E-02
39039,5.93E-03,3.42E-02
39040,5.98E-03,3.32E-02
39041,5.97E-03,3.35E-02
39042,5.94E-03,3.24E-02
39043,5.95E-03,3.28E-02
39044,5.92E-03,3.17E-02
39045,5.90E-03,3.21E-02
39046,5.95E-03,3.08E-02
39047,5.93E-03,3.12E-02
39048,6.01E-03,3.00E-02
39049,6.01E-03,3.04E-02
39050,6.03E-03,2.91E-02
39051,6.01E-03,2.96E-02
39052,5.94E-03,2.83E-02
39053,6.02E-03,2.87E-02
39054,5.91E-03,2.74E-02
39055,5.93E-03,2.79E-02
39056,5.83E-03,2.66E-02
39057,5.84E-03,2.70E-02
39058,5.73E-03,2.58E-02
39059,5.72E-03,2.62E-02
39060,5.78E-03,2.50E-02
39061,5.69E-03,2.54E-02
39062,5.95E-03,2.42E-02
39063,5.83E-03,2.46E-02
39064,5.81E-03,2.34E-02
39065,5.89E-03,2.38E-02
39066,5.76E-03,2.26E-02
39067,5.77E-03,2.30E-02
39068,5.74E-03,2.18E-02
39069,5.75E-03,2.22E-02
39070,5.75E-03,2.10E-02
39071,5.73E-03,2.14E-02
39072,5.69E-03,2.03E-02
39073,5.73E-03,2.07E-02
39074,5.60E-03,1.95E-02
39075,5.67E-03,1.99E-02
39076,5.63E-03,1.88E-02
39077,5.58E-03,1.92E-02
39078,5.66E-03,1.81E-02
39079,5.63E-03,1.85E-02
39080,5.71E-03,1.74E-02
39081,5.67E-03,1.78E-02
39082,5.79E-03,1.67E-02
39083,5.77E-03,1.71E-02
39084,5.82E-03,1.60E-02
39085,5.83E-03,1.64E-02
39086,5.83E-03,1.53E-02
39087,5.90E-03,1.57E-02
39088,5.75E-03,1.47E-02
39089,5.77E-03,1.50E-02
39090,5.79E-03,1.40E-02
39091,5.77E-03,1.44E-02
39092,5.81E-03,1.34E-02
39093,5.80E-03,1.37E-02
39094,5.85E-03,1.28E-02
39095,5.88E-03,1.31E-02
39096,5.91E-03,1.22E-02
39097,5.91E-03,1.25E-02
39098,5.81E-03,1.16E-02
39099,5.88E-03,1.19E-02
39100,5.82E-03,1.10E-02
39101,5.82E-03,1.13E-02
39102,5.88E-03,1.05E-02
39103,5.89E-03,1.08E-02
39104,5.89E-03,9.95E-03
39105,5.88E-03,1.02E-02
39106,6.00E-03,9.43E-03
39107,5.96E-03,9.69E-03
39108,5.95E-03,8.93E-03
39109,5.96E-03,9.17E-03
39110,6.00E-03,8.45E-03
39111,5.98E-03,8.69E-03
39112,5.94E-03,7.99E-03
39113,5.97E-03,8.22E-03
39114,5.80E-03,7.55E-03
39115,5.84E-03,7.77E-03
39116,5.74E-03,7.14E-03
39117,5.73E-03,7.34E-03
39118,5.89E-03,6.75E-03
39119,5.81E-03,6.94E-03
39120,5.94E-03,6.38E-03
39121,5.97E-03,6.56E-03
39122,5.84E-03,6.03E-03
39123,5.92E-03,6.20E-03
39124,5.76E-03,5.71E-03
39125,5.76E-03,5.87E-03
39126,5.70E-03,5.39E-03
39127,5.70E-03,5.55E-03
39128,5.83E-03,5.08E-03
39129,5.79E-03,5.23E-03
39130,5.86E-03,4.79E-03
39131,5.84E-03,4.94E-03
39132,5.78E-03,4.52E-03
39133,5.85E-03,4.66E-03
39134,5.65E-03,4.27E-03
39135,5.71E-03,4.39E-03
39136,5.60E-03,4.04E-03
39137,5.65E-03,4.15E-03
39138,5.57E-03,3.81E-03
39139,5.55E-03,3.92E-03
39140,5.63E-03,3.59E-03
39141,5.59E-03,3.70E-03
39142,5.68E-03,3.37E-03
39143,5.65E-03,3.48E-03
39144,5.68E-03,3.15E-03
39145,5.69E-03,3.26E-03
39146,5.62E-03,2.96E-03
39147,5.67E-03,3.06E-03
39148,5.65E-03,2.79E-03
39149,5.58E-03,2.87E-03
39150,5.62E-03,2.61E-03
39151,5.67E-03,2.70E-03
39152,5.60E-03,2.46E-03
39153,5.55E-03,2.53E-03
39154,5.70E-03,2.31E-03
39155,5.62E-03,2.38E-03
39156,5.77E-03,2.17E-03
39157,5.74E-03,2.24E-03
39158,5.81E-03,2.03E-03
39159,5.81E-03,2.10E-03
39160,5.71E-03,1.90E-03
39161,5.76E-03,1.96E-03
39162,5.63E-03,1.79E-03
39163,5.69E-03,1.84E-03
39164,5.70E-03,1.67E-03
39165,5.64E-03,1.73E-03
39166,5.73E-03,1.56E-03
39167,5.74E-03,1.62E-03
39168,5.59E-03,1.47E-03
39169,5.67E-03,1.51E-03
39170,5.55E-03,1.43E-03
39171,4.93E-03,1.13E-02
39172,5.12E-03,1.18E-02
39173,4.46E-03,1.87E-02
39174,4.28E-03,2.19E-02
39175,4.89E-03,2.66E-02
39176,5.15E-03,2.41E-02
39177,5.31E-03,1.69E-02
39178,4.05E-03,2.23E-02
39179,5.56E-03,2.15E-02
39180,4.93E-03,4.40E-02
39181,3.74E-03,3.87E-02
39182,4.19E-03,3.89E-02
39183,4.15E-03,4.21E-02
39184,4.33E-03,2.86E-03
39185,5.44E-03,6.74E-02
39186,6.12E-03,0.13975
39187,3.52E-03,0.1397
39188,4.92E-03,0.19557
39189,5.21E-03,0.19283
39190,5.74E-03,6.48E-02
39191,5.99E-03,5.24E-02
39192,6.09E-03,2.74E-02
39193,5.76E-03,3.20E-02
39194,6.16E-03,3.09E-02
39195,6.43E-03,3.09E-02
39196,5.85E-03,3.07E-02
39197,5.97E-03,3.07E-02
39198,5.65E-03,3.11E-02
39199,5.76E-03,3.08E-02
39200,5.41E-03,3.23E-02
39201,5.57E-03,3.17E-02
39202,5.38E-03,3.34E-02
39203,5.41E-03,3.29E-02
39204,5.42E-03,3.40E-02
39205,5.41E-03,3.37E-02
39206,5.60E-03,3.45E-02
39207,5.50E-03,3.42E-02
39208,5.82E-03,3.51E-02
39209,5.72E-03,3.48E-02
39210,6.02E-03,3.59E-02
39211,5.93E-03,3.55E-02
39212,6.25E-03,3.62E-02
39213,6.11E-03,3.61E-02
39214,6.95E-03,3.57E-02
39215,6.39E-03,3.61E-02
39216,5.96E-03,3.54E-02
39217,6.78E-03,3.53E-02
39218,5.77E-03,3.56E-02
39219,5.80E-03,3.55E-02
39220,5.80E-03,3.58E-02
39221,5.77E-03,3.58E-02
39222,5.80E-03,3.53E-02
39223,5.79E-03,3.56E-02
39224,5.82E-03,3.42E-02
39225,5.84E-03,3.48E-02
39226,5.88E-03,3.26E-02
39227,5.85E-03,3.34E-02
39228,5.91E-03,3.13E-02
39229,5.88E-03,3.19E-02
39230,6.01E-03,3.04E-02
39231,5.95E-03,3.08E-02
39232,6.11E-03,2.93E-02
39233,6.08E-03,2.98E-02
39234,6.23E-03,2.79E-02
39235,6.18E-03,2.86E-02
39236,6.36E-03,2.65E-02
39237,6.30E-03,2.72E-02
39238,6.45E-03,2.53E-02
39239,6.35E-03,2.59E-02
39240,6.57E-03,2.41E-02
39241,6.45E-03,2.47E-02
39242,6.47E-03,2.25E-02
39243,6.56E-03,2.33E-02
39244,6.29E-03,2.09E-02
39245,6.40E-03,2.17E-02
39246,6.17E-03,1.97E-02
39247,6.21E-03,2.03E-02
39248,5.89E-03,1.83E-02
39249,6.06E-03,1.90E-02
39250,5.57E-03,1.68E-02
39251,5.84E-03,1.76E-02
39252,5.17E-03,1.51E-02
39253,5.51E-03,1.59E-02
39254,4.97E-03,1.37E-02
39255,5.06E-03,1.44E-02
39256,5.51E-03,6.80E-02
39257,5.84E-03,6.97E-02
39258,5.35E-03,6.42E-02
39259,5.45E-03,6.60E-02
39260,5.21E-03,6.15E-02
39261,5.29E-03,6.27E-02
39262,5.21E-03,5.95E-02
39263,5.24E-03,6.05E-02
39264,5.24E-03,5.83E-02
39265,5.23E-03,5.88E-02
39266,5.28E-03,5.80E-02
39267,5.25E-03,5.81E-02
39268,5.37E-03,5.85E-02
39269,5.31E-03,5.82E-02
39270,5.41E-03,5.92E-02
39271,5.43E-03,5.89E-02
39272,5.62E-03,5.88E-02
39273,5.46E-03,5.91E-02
39274,5.69E-03,5.79E-02
39275,5.62E-03,5.83E-02
39276,5.84E-03,5.79E-02
39277,5.73E-03,5.77E-02
39278,5.89E-03,5.82E-02
39279,5.92E-03,5.81E-02
39280,5.89E-03,5.75E-02
39281,5.88E-03,5.80E-02
39282,5.85E-03,5.65E-02
39283,5.87E-03,5.70E-02
39284,5.78E-03,5.64E-02
39285,5.75E-03,5.64E-02
39286,5.91E-03,5.62E-02
39287,5.82E-03,5.65E-02
39288,6.09E-03,5.43E-02
39289,5.96E-03,5.55E-02
39290,6.18E-03,5.12E-02
39291,6.12E-03,5.27E-02
39292,6.23E-03,4.89E-02
39293,6.22E-03,4.99E-02
39294,6.09E-03,4.69E-02
39295,6.24E-03,4.79E-02
39296,5.80E-03,4.49E-02
39297,6.06E-03,4.59E-02
39298,5.42E-03,4.32E-02
39299,5.73E-03,4.40E-02
39300,5.09E-03,4.08E-02
39301,5.33E-03,4.21E-02
39302,4.93E-03,3.80E-02
39303,4.99E-03,3.94E-02
39304,5.07E-03,3.50E-02
39305,4.99E-03,3.65E-02
39306,5.14E-03,3.25E-02
39307,5.11E-03,3.37E-02
39308,5.29E-03,3.07E-02
39309,5.17E-03,3.15E-02
39310,5.57E-03,2.99E-02
39311,5.39E-03,3.02E-02
39312,4.70E-03,3.06E-02
39313,5.44E-03,3.18E-02
39314,5.75E-03,3.28E-02
39315,6.15E-03,3.36E-02
39316,6.60E-03,3.54E-02
39317,6.98E-03,3.45E-02
39318,5.26E-03,3.85E-02
39319,5.51E-03,3.69E-02
39320,5.51E-03,4.17E-02
39321,5.38E-03,4.01E-02
39322,5.70E-03,4.49E-02
39323,5.57E-03,4.33E-02
39324,6.08E-03,4.79E-02
39325,6.16E-03,4.67E-02
39326,4.31E-03,4.73E-02
39327,5.08E-03,4.99E-02
39328,5.54E-03,4.98E-02
39329,4.74E-03,4.90E-02
39330,6.21E-03,4.68E-02
39331,6.31E-03,4.89E-02
39332,6.57E-03,4.89E-02
39333,6.24E-03,5.10E-02
39334,6.30E-03,4.96E-02
39335,5.93E-03,5.50E-02
39336,6.11E-03,5.32E-02
39337,5.82E-03,5.62E-02
39338,5.90E-03,5.58E-02
39339,5.64E-03,5.64E-02
39340,5.75E-03,5.63E-02
39341,5.55E-03,5.65E-02
39342,5.62E-03,5.64E-02
39343,5.53E-03,5.67E-02
39344,5.52E-03,5.66E-02
39345,5.53E-03,5.72E-02
39346,5.51E-03,5.69E-02
39347,5.52E-03,5.78E-02
39348,5.54E-03,5.74E-02
39349,5.54E-03,5.86E-02
39350,5.57E-03,5.82E-02
39351,5.42E-03,5.97E-02
39352,5.48E-03,5.91E-02
39353,5.31E-03,6.09E-02
39354,5.36E-03,6.03E-02
39355,5.33E-03,6.25E-02
39356,5.29E-03,6.17E-02
39357,5.47E-03,6.45E-02
39358,5.37E-03,6.34E-02
39359,5.60E-03,6.69E-02
39360,5.51E-03,6.57E-02
39361,5.72E-03,6.97E-02
39362,5.65E-03,6.83E-02
39363,5.84E-03,7.21E-02
39364,5.79E-03,7.10E-02
39365,6.00E-03,7.42E-02
39366,5.93E-03,7.32E-02
39367,6.14E-03,7.63E-02
39368,6.05E-03,7.52E-02
39369,6.12E-03,7.87E-02
39370,6.13E-03,7.75E-02
39371,6.06E-03,8.13E-02
39372,6.13E-03,8.00E-02
39373,5.94E-03,8.34E-02
39374,5.98E-03,8.24E-02
39375,5.90E-03,8.50E-02
39376,5.96E-03,8.42E-02
39377,5.81E-03,8.65E-02
39378,5.85E-03,8.58E-02
39379,5.74E-03,8.78E-02
39380,5.80E-03,8.72E-02
39381,5.68E-03,8.87E-02
39382,5.70E-03,8.83E-02
39383,5.55E-03,8.96E-02
39384,5.59E-03,8.92E-02
39385,5.58E-03,9.09E-02
39386,5.54E-03,9.02E-02
39387,5.51E-03,9.26E-02
39388,5.56E-03,9.17E-02
39389,5.54E-03,9.43E-02
39390,5.54E-03,9.34E-02
39391,5.53E-03,9.57E-02
39392,5.55E-03,9.50E-02
39393,5.65E-03,9.70E-02
39394,5.57E-03,9.63E-02
39395,5.75E-03,9.87E-02
39396,5.71E-03,9.78E-02
39397,5.76E-03,0.10097
39398,5.77E-03,9.98E-02
39399,5.72E-03,0.10327
39400,5.72E-03,0.10215
39401,5.73E-03,0.10529
39402,5.73E-03,0.10431
39403,5.70E-03,0.10703
39404,5.72E-03,0.10619
39405,5.76E-03,0.10875
39406,5.69E-03,0.10785
39407,5.72E-03,0.11105
39408,5.75E-03,0.1098
39409,5.78E-03,0.11362
39410,5.72E-03,0.11239
39411,5.87E-03,0.11533
39412,5.83E-03,0.11464
39413,5.98E-03,0.11611
39414,6.00E-03,0.11578
39415,5.92E-03,0.11697
39416,5.99E-03,0.11646
39417,5.81E-03,0.11914
39418,5.89E-03,0.11783
39419,5.66E-03,0.12268
39420,5.73E-03,0.12084
39421,5.56E-03,0.12545
39422,5.61E-03,0.12431
39423,5.66E-03,0.1259
39424,5.59E-03,0.12591
39425,5.76E-03,0.12597
39426,5.70E-03,0.12578
39427,5.97E-03,0.12761
39428,5.82E-03,0.12665
39429,6.08E-03,0.12886
39430,6.01E-03,0.1285
39431,6.04E-03,0.12854
39432,6.08E-03,0.12876
39433,5.91E-03,0.12851
39434,5.94E-03,0.12841
39435,5.75E-03,0.12982
39436,5.83E-03,0.12896
39437,5.55E-03,0.13111
39438,5.65E-03,0.13064
39439,5.26E-03,0.13046
39440,5.46E-03,0.13101
39441,5.08E-03,0.13007
39442,5.19E-03,0.12998
39443,4.82E-03,0.13186
39444,4.95E-03,0.13074
39445,4.91E-03,0.13468
39446,4.82E-03,0.13324
39447,5.20E-03,0.13747
39448,5.02E-03,0.13612
39449,5.62E-03,0.13899
39450,5.34E-03,0.13847
39451,5.78E-03,0.13938
39452,5.68E-03,0.13921
39453,5.98E-03,0.14129
39454,5.85E-03,0.13998
39455,5.92E-03,0.14573
39456,5.96E-03,0.14332
39457,5.80E-03,0.14943
39458,5.89E-03,0.14783
39459,5.70E-03,0.15159
39460,5.74E-03,0.15054
39461,5.65E-03,0.15528
39462,5.66E-03,0.15317
39463,5.62E-03,0.15935
39464,5.67E-03,0.15748
39465,5.48E-03,0.16074
39466,5.55E-03,0.16045
39467,5.40E-03,0.16124
39468,5.44E-03,0.16077
39469,5.27E-03,0.1654
39470,5.31E-03,0.16275
39471,5.23E-03,0.17276
39472,5.21E-03,0.16887
39473,5.41E-03,0.18024
39474,5.23E-03,0.17666
39475,5.68E-03,0.18553
39476,5.43E-03,0.18335
39477,5.95E-03,0.18646
39478,5.79E-03,0.18663
39479,6.25E-03,0.18505
39480,6.23E-03,0.18507
39481,5.47E-03,0.19102
39482,5.94E-03,0.18537
39483,5.40E-03,0.20723
39484,5.47E-03,0.19973
39485,5.53E-03,0.21522
39486,5.53E-03,0.21262
39487,6.31E-03,0.21214
39488,5.54E-03,0.21555
39489,5.46E-03,0.22049
39490,6.32E-03,0.21411
39491,6.02E-03,0.21384
39492,5.33E-03,0.2204
39493,5.76E-03,6.66E-02
39494,4.50E-03,7.34E-04
39495,6.18E-03,5.86E-03
39496,5.58E-03,6.43E-03
39497,4.76E-03,6.97E-03
39498,3.31E-03,7.34E-03
39499,6.34E-03,3.69E-04
39500,4.87E-03,7.08E-03
39501,5.89E-03,7.32E-03
39502,5.37E-03,7.20E-03
39503,5.98E-03,6.13E-03
39504,5.40E-03,1.30E-03
39505,4.19E-03,1.20E-02
39506,4.45E-03,1.98E-02
39507,4.78E-03,1.86E-02
39508,4.44E-03,2.09E-02
39509,4.76E-03,2.53E-02
39510,5.19E-03,2.56E-02
39511,5.31E-03,2.50E-02
39512,4.19E-03,2.21E-02
39513,4.71E-03,2.30E-02
39514,4.60E-03,2.40E-02
39515,5.25E-03,1.74E-02
39516,5.29E-03,1.83E-02
39517,5.28E-03,1.97E-02
39518,5.58E-03,4.67E-02
39519,5.18E-03,4.60E-02
39520,5.39E-03,4.52E-02
39521,4.32E-03,3.80E-02
39522,3.91E-03,3.83E-02
39523,4.16E-03,3.89E-02
39524,4.38E-03,3.98E-02
39525,4.30E-03,4.11E-02
39526,4.47E-03,4.30E-02
39527,4.26E-03,4.22E-02
39528,5.90E-03,5.59E-03
39529,3.24E-03,3.66E-03
39530,4.79E-03,2.47E-03
39531,5.08E-03,3.26E-03
39532,4.77E-03,2.05E-03
39533,3.58E-03,9.10E-02
39534,4.83E-03,8.29E-02
39535,5.55E-03,5.16E-02
39536,5.45E-03,6.27E-02
39537,4.79E-03,0.12382
39538,3.62E-03,0.15203
39539,4.96E-03,9.73E-02
39540,4.55E-03,0.11282
39541,3.69E-03,0.14416
39542,4.30E-03,0.17288
39543,3.94E-03,0.15827
39544,5.27E-03,0.1629
39545,5.55E-03,5.88E-02
39546,5.91E-03,6.05E-02
39547,5.87E-03,5.66E-02
39548,6.03E-03,2.88E-02
39549,5.94E-03,3.37E-02
39550,5.39E-03,3.75E-02
39551,5.88E-03,3.03E-02
39552,5.68E-03,4.71E-02
39553,5.53E-03,4.24E-02
39554,4.82E-03,1.30E-02
39555,4.59E-03,1.24E-02
39556,6.13E-03,1.08E-03
39557,4.78E-03,1.72E-03
39558,5.39E-03,1.55E-03
39559,4.07E-03,6.49E-03
39560,3.84E-03,6.24E-03
39561,5.69E-03,8.29E-03
39562,6.02E-03,7.82E-03
39563,5.47E-03,7.37E-03
39564,4.22E-03,6.88E-03
39565,6.60E-03,1.74E-04
39566,6.59E-03,1.44E-04
39567,3.97E-03,1.13E-02
39568,5.21E-03,1.09E-02
39569,5.33E-03,8.37E-03
39570,5.30E-03,8.42E-03
39571,5.74E-03,4.04E-02
39572,5.26E-03,4.70E-02
39573,5.41E-03,7.37E-03
39574,5.09E-03,6.87E-03
39575,3.48E-03,0.10035
39576,4.70E-03,4.21E-03
39577,5.05E-03,1.76E-02
39578,3.94E-03,2.16E-02
39579,3.31E-03,2.25E-02
39580,4.56E-03,7.51E-03
39581,5.42E-03,7.48E-03
39582,5.65E-03,7.32E-02
39583,5.76E-03,7.01E-02
39584,5.65E-03,7.42E-02
39585,5.61E-03,7.42E-02
39586,4.24E-03,7.60E-02
39587,5.93E-03,7.43E-02
39588,5.44E-03,6.92E-02
39589,5.47E-03,7.10E-02
39590,5.48E-03,6.58E-02
39591,5.49E-03,6.75E-02
39592,5.55E-03,6.26E-02
39593,5.55E-03,6.42E-02
39594,5.65E-03,5.99E-02
39595,5.60E-03,6.12E-02
39596,5.66E-03,5.76E-02
39597,5.71E-03,5.87E-02
39598,5.56E-03,5.56E-02
39599,5.60E-03,5.66E-02
39600,5.49E-03,5.38E-02
39601,5.52E-03,5.47E-02
39602,5.38E-03,5.20E-02
39603,5.41E-03,5.29E-02
39604,5.51E-03,5.00E-02
39605,5.46E-03,5.10E-02
39606,5.57E-03,4.79E-02
39607,5.56E-03,4.90E-02
39608,5.69E-03,4.57E-02
39609,5.63E-03,4.68E-02
39610,5.72E-03,4.37E-02
39611,5.75E-03,4.47E-02
39612,5.59E-03,4.19E-02
39613,5.65E-03,4.28E-02
39614,5.61E-03,4.01E-02
39615,5.58E-03,4.10E-02
39616,5.70E-03,3.83E-02
39617,5.69E-03,3.92E-02
39618,5.80E-03,3.65E-02
39619,5.74E-03,3.74E-02
39620,5.74E-03,3.48E-02
39621,5.76E-03,3.57E-02
39622,5.59E-03,3.28E-02
39623,5.64E-03,3.39E-02
39624,5.51E-03,3.04E-02
39625,5.53E-03,3.16E-02
39626,5.46E-03,2.76E-02
39627,5.49E-03,2.90E-02
39628,5.59E-03,2.45E-02
39629,5.49E-03,2.60E-02
39630,5.53E-03,2.12E-02
39631,5.57E-03,2.29E-02
39632,5.51E-03,1.79E-02
39633,5.50E-03,1.96E-02
39634,5.49E-03,1.47E-02
39635,5.47E-03,1.62E-02
39636,5.48E-03,1.25E-02
39637,5.48E-03,1.34E-02
39638,5.42E-03,1.22E-02
39639,5.45E-03,1.21E-02
39640,5.50E-03,1.39E-02
39641,5.46E-03,1.28E-02
39642,5.59E-03,1.72E-02
39643,5.55E-03,1.55E-02
39644,5.63E-03,2.14E-02
39645,5.65E-03,1.92E-02
39646,5.65E-03,2.58E-02
39647,5.63E-03,2.36E-02
39648,5.68E-03,3.10E-02
39649,5.66E-03,2.83E-02
39650,5.61E-03,3.72E-02
39651,5.63E-03,3.39E-02
39652,5.58E-03,5.68E-02
39653,5.62E-03,4.50E-02
39654,5.61E-03,4.08E-02
39655,5.65E-03,4.96E-02
39656,5.49E-03,7.46E-02
39657,5.53E-03,6.06E-02
39658,5.64E-03,6.83E-02
39659,5.63E-03,5.48E-02
39660,5.42E-03,6.66E-02
39661,5.25E-03,8.23E-02
39662,5.12E-03,8.87E-02
39663,5.31E-03,7.37E-02
39664,5.52E-03,0.1045
39665,5.38E-03,9.28E-02
39666,5.52E-03,0.13017
39667,5.55E-03,0.1157
39668,5.15E-03,0.16306
39669,4.97E-03,0.14425
39670,6.39E-03,0.20642
39671,5.32E-03,0.1875
39672,5.39E-03,8.42E-03
39673,3.45E-03,8.77E-03
39674,6.40E-03,7.87E-03
39675,5.52E-03,2.47E-04
39676,5.62E-03,2.01E-04
39677,5.49E-03,3.69E-04
39678,5.52E-03,3.07E-04
39679,5.08E-03,4.44E-04
39680,5.46E-03,4.22E-04
39681,3.75E-03,5.78E-04
39682,3.94E-03,5.02E-04
39683,5.47E-03,7.71E-04
39684,4.99E-03,6.52E-04
39685,5.56E-03,1.04E-03
39686,5.57E-03,9.00E-04
39687,5.66E-03,1.31E-03
39688,5.64E-03,1.17E-03
39689,5.71E-03,1.58E-03
39690,5.69E-03,1.45E-03
39691,5.62E-03,1.83E-03
39692,5.67E-03,1.71E-03
39693,5.41E-03,2.05E-03
39694,5.53E-03,1.94E-03
39695,5.34E-03,2.29E-03
39696,5.35E-03,2.16E-03
39697,5.47E-03,2.54E-03
39698,5.39E-03,2.42E-03
39699,5.50E-03,2.81E-03
39700,5.52E-03,2.66E-03
39701,5.31E-03,3.13E-03
39702,5.37E-03,2.97E-03
39703,5.28E-03,3.39E-03
39704,5.28E-03,3.28E-03
39705,5.22E-03,3.61E-03
39706,5.25E-03,3.49E-03
39707,5.36E-03,3.90E-03
39708,5.25E-03,3.75E-03
39709,5.53E-03,4.12E-03
39710,5.48E-03,4.02E-03
39711,5.50E-03,4.28E-03
39712,5.58E-03,4.20E-03
39713,5.29E-03,4.48E-03
39714,5.41E-03,4.38E-03
39715,5.10E-03,4.66E-03
39716,5.18E-03,4.58E-03
39717,5.28E-03,4.89E-03
39718,5.15E-03,4.75E-03
39719,5.49E-03,5.18E-03
39720,5.42E-03,5.04E-03
39721,5.62E-03,5.35E-03
39722,5.61E-03,5.29E-03
39723,5.71E-03,5.48E-03
39724,5.69E-03,5.41E-03
39725,5.76E-03,5.60E-03
39726,5.74E-03,5.54E-03
39727,5.60E-03,5.70E-03
39728,5.75E-03,5.65E-03
39729,5.30E-03,5.79E-03
39730,5.39E-03,5.76E-03
39731,5.18E-03,5.79E-03
39732,5.23E-03,5.81E-03
39733,5.20E-03,5.73E-03
39734,5.16E-03,5.76E-03
39735,5.34E-03,5.79E-03
39736,5.29E-03,5.75E-03
39737,5.43E-03,5.89E-03
39738,5.39E-03,5.84E-03
39739,5.37E-03,5.93E-03
39740,5.40E-03,5.92E-03
39741,5.18E-03,5.91E-03
39742,5.28E-03,5.92E-03
39743,5.17E-03,5.92E-03
39744,5.15E-03,5.92E-03
39745,5.36E-03,5.86E-03
39746,5.25E-03,5.89E-03
39747,6.24E-03,5.90E-03
39748,5.63E-03,5.88E-03
39749,5.62E-03,5.79E-03
39750,6.19E-03,5.88E-03
39751,5.51E-03,5.71E-03
39752,5.64E-03,5.72E-03
39753,4.54E-03,6.31E-03
39754,3.55E-03,7.64E-03
39755,3.26E-03,6.89E-03
39756,5.66E-03,5.15E-03
39757,5.40E-03,5.71E-03
39758,6.24E-03,4.26E-03
39759,5.89E-03,4.73E-03
39760,6.41E-03,3.51E-03
39761,6.34E-03,3.84E-03
39762,6.41E-03,1.43E-04
39763,6.69E-03,2.64E-04
39764,5.00E-03,6.95E-03
39765,4.50E-03,7.08E-03
39766,5.42E-03,8.30E-03
39767,5.39E-03,8.33E-03
39768,3.98E-03,8.23E-03
39769,5.16E-03,8.28E-03
39770,4.84E-03,8.14E-03
39771,3.92E-03,8.18E-03
39772,5.42E-03,8.01E-03
39773,5.34E-03,8.08E-03
39774,5.49E-03,7.87E-03
39775,5.46E-03,7.94E-03
39776,5.68E-03,7.75E-03
39777,5.57E-03,7.81E-03
39778,5.97E-03,7.65E-03
39779,5.87E-03,7.70E-03
39780,5.97E-03,7.59E-03
39781,6.02E-03,7.62E-03
39782,5.89E-03,7.55E-03
39783,5.96E-03,7.57E-03
39784,5.93E-03,7.53E-03
39785,5.90E-03,7.54E-03
39786,6.11E-03,7.52E-03
39787,6.03E-03,7.52E-03
39788,6.24E-03,7.55E-03
39789,6.16E-03,7.53E-03
39790,6.42E-03,7.61E-03
39791,6.35E-03,7.57E-03
39792,6.69E-03,7.70E-03
39793,6.60E-03,7.65E-03
39794,6.66E-03,7.83E-03
39795,6.71E-03,7.76E-03
39796,6.41E-03,8.00E-03
39797,6.56E-03,7.91E-03
39798,6.18E-03,8.19E-03
39799,6.23E-03,8.09E-03
39800,5.87E-03,8.37E-03
39801,5.90E-03,8.28E-03
39802,5.49E-03,8.54E-03
39803,5.57E-03,8.45E-03
39804,5.21E-03,8.70E-03
39805,5.29E-03,8.62E-03
39806,5.14E-03,8.87E-03
39807,5.17E-03,8.79E-03
39808,5.28E-03,9.03E-03
39809,5.21E-03,8.95E-03
39810,5.44E-03,9.21E-03
39811,5.39E-03,9.12E-03
39812,5.55E-03,9.41E-03
39813,5.59E-03,9.31E-03
39814,5.81E-03,9.63E-03
39815,5.69E-03,9.52E-03
39816,5.87E-03,9.87E-03
39817,5.87E-03,9.75E-03
39818,5.99E-03,1.01E-02
39819,6.02E-03,1.00E-02
39820,6.12E-03,1.04E-02
39821,6.09E-03,1.02E-02
39822,6.09E-03,1.06E-02
39823,6.10E-03,1.05E-02
39824,5.96E-03,1.09E-02
39825,6.01E-03,1.08E-02
39826,6.02E-03,1.11E-02
39827,5.99E-03,1.10E-02
39828,6.01E-03,1.13E-02
39829,6.04E-03,1.12E-02
39830,5.98E-03,1.15E-02
39831,5.98E-03,1.14E-02
39832,6.07E-03,1.16E-02
39833,5.93E-03,1.15E-02
39834,6.43E-03,1.16E-02
39835,6.47E-03,1.16E-02
39836,6.18E-03,1.15E-02
39837,6.33E-03,1.16E-02
39838,6.77E-03,1.11E-02
39839,6.17E-03,1.13E-02
39840,5.28E-03,1.30E-03
39841,5.35E-03,1.26E-03
39842,5.33E-03,1.25E-03
39843,5.38E-03,1.54E-03
39844,5.35E-03,1.40E-03
39845,5.42E-03,1.92E-03
39846,5.44E-03,1.72E-03
39847,5.55E-03,2.37E-03
39848,5.48E-03,2.14E-03
39849,5.57E-03,2.85E-03
39850,5.62E-03,2.61E-03
39851,5.42E-03,3.33E-03
39852,5.52E-03,3.09E-03
39853,5.30E-03,3.81E-03
39854,5.35E-03,3.57E-03
39855,5.22E-03,4.28E-03
39856,5.23E-03,4.04E-03
39857,5.23E-03,4.75E-03
39858,5.19E-03,4.52E-03
39859,5.44E-03,5.20E-03
39860,5.33E-03,4.98E-03
39861,5.55E-03,5.65E-03
39862,5.50E-03,5.42E-03
39863,5.61E-03,6.09E-03
39864,5.58E-03,5.87E-03
39865,5.54E-03,6.51E-03
39866,5.63E-03,6.30E-03
39867,5.53E-03,6.91E-03
39868,5.53E-03,6.71E-03
39869,5.44E-03,7.30E-03
39870,5.45E-03,7.10E-03
39871,5.37E-03,7.66E-03
39872,5.40E-03,7.48E-03
39873,5.37E-03,8.00E-03
39874,5.37E-03,7.83E-03
39875,5.35E-03,8.32E-03
39876,5.32E-03,8.17E-03
39877,5.84E-03,7.45E-03
39878,5.69E-03,7.47E-03
39879,5.52E-03,7.40E-03
39880,5.57E-03,7.43E-03
39881,5.47E-03,7.33E-03
39882,5.48E-03,7.37E-03
39883,5.53E-03,7.22E-03
39884,5.50E-03,7.28E-03
39885,5.58E-03,7.11E-03
39886,5.54E-03,7.17E-03
39887,5.66E-03,7.01E-03
39888,5.60E-03,7.06E-03
39889,5.72E-03,6.91E-03
39890,5.70E-03,6.96E-03
39891,5.71E-03,6.83E-03
39892,5.70E-03,6.87E-03
39893,5.76E-03,6.77E-03
39894,5.73E-03,6.80E-03
39895,5.67E-03,6.71E-03
39896,5.75E-03,6.74E-03
39897,5.56E-03,6.64E-03
39898,5.63E-03,6.67E-03
39899,5.46E-03,6.58E-03
39900,5.50E-03,6.61E-03
39901,5.47E-03,6.51E-03
39902,5.46E-03,6.55E-03
39903,5.61E-03,6.42E-03
39904,5.54E-03,6.47E-03
39905,5.84E-03,6.32E-03
39906,5.70E-03,6.37E-03
39907,5.91E-03,6.20E-03
39908,5.87E-03,6.26E-03
39909,5.86E-03,6.09E-03
39910,5.85E-03,6.14E-03
39911,5.75E-03,6.00E-03
39912,5.79E-03,6.04E-03
39913,5.65E-03,5.92E-03
39914,5.71E-03,5.95E-03
39915,5.65E-03,5.84E-03
39916,5.64E-03,5.88E-03
39917,5.76E-03,5.74E-03
39918,5.72E-03,5.79E-03
39919,5.80E-03,5.61E-03
39920,5.82E-03,5.68E-03
39921,5.74E-03,5.47E-03
39922,5.79E-03,5.54E-03
39923,5.64E-03,5.33E-03
39924,5.71E-03,5.40E-03
39925,5.62E-03,5.20E-03
39926,5.63E-03,5.26E-03
39927,5.63E-03,5.08E-03
39928,5.63E-03,5.14E-03
39929,5.74E-03,4.95E-03
39930,5.67E-03,5.02E-03
39931,5.85E-03,4.85E-03
39932,5.79E-03,4.90E-03
39933,6.00E-03,4.75E-03
39934,5.88E-03,4.80E-03
39935,6.02E-03,4.66E-03
39936,6.03E-03,4.71E-03
39937,5.95E-03,4.55E-03
39938,5.93E-03,4.60E-03
39939,5.95E-03,4.44E-03
39940,5.91E-03,4.49E-03
39941,5.94E-03,4.36E-03
39942,5.93E-03,4.40E-03
39943,5.96E-03,4.27E-03
39944,5.99E-03,4.31E-03
39945,6.02E-03,4.21E-03
39946,5.94E-03,4.24E-03
39947,6.04E-03,4.17E-03
39948,6.06E-03,4.19E-03
39949,6.17E-03,4.14E-03
39950,6.03E-03,4.16E-03
39951,6.92E-03,4.14E-03
39952,6.79E-03,4.09E-03
39953,6.63E-03,4.24E-03
39954,6.06E-03,6.10E-03
39955,5.47E-03,5.86E-03
39956,5.49E-03,7.06E-03
39957,6.06E-03,6.56E-03
39958,5.60E-03,7.79E-03
39959,5.01E-03,7.54E-03
39960,4.95E-03,1.05E-02
39961,6.40E-03,8.49E-03
39962,6.39E-03,9.01E-03
39963,5.65E-03,9.70E-03
39964,4.69E-03,2.44E-02
39965,4.95E-03,2.52E-02
39966,5.17E-03,2.60E-02
39967,5.87E-03,2.81E-02
39968,5.42E-03,2.70E-02
39969,5.50E-03,3.05E-02
39970,5.93E-03,2.95E-02
39971,5.96E-03,3.24E-02
39972,5.69E-03,3.15E-02
39973,6.25E-03,3.32E-02
39974,5.27E-03,3.56E-02
39975,5.18E-03,3.70E-02
39976,5.00E-03,3.64E-02
39977,5.81E-03,3.83E-02
39978,5.35E-03,3.76E-02
39979,7.37E-03,3.94E-02
39980,6.46E-03,3.88E-02
39981,5.44E-03,4.00E-02
39982,5.98E-03,3.93E-02
39983,7.24E-03,3.93E-02
39984,4.23E-03,3.94E-02
39985,4.35E-03,3.93E-02
39986,5.39E-03,3.86E-02
39987,5.68E-03,3.92E-02
39988,4.73E-03,3.85E-02
39989,4.92E-03,3.80E-02
39990,5.09E-03,3.82E-02
39991,5.55E-03,3.77E-02
39992,4.93E-03,3.78E-02
39993,5.57E-03,3.73E-02
39994,6.00E-03,3.75E-02
39995,5.61E-03,3.69E-02
39996,5.50E-03,3.71E-02
39997,5.72E-03,3.65E-02
39998,5.60E-03,3.67E-02
39999,5.77E-03,3.61E-02
40000,5.73E-03,3.63E-02
40001,5.87E-03,3.57E-02
40002,5.82E-03,3.59E-02
40003,5.96E-03,3.53E-02
40004,5.91E-03,3.55E-02
40005,5.96E-03,3.47E-02
40006,5.96E-03,3.50E-02
40007,5.93E-03,3.42E-02
40008,5.95E-03,3.45E-02
40009,5.85E-03,3.36E-02
40010,5.88E-03,3.39E-02
40011,5.94E-03,3.29E-02
40012,5.89E-03,3.32E-02
40013,5.87E-03,3.22E-02
40014,5.91E-03,3.25E-02
40015,5.90E-03,3.14E-02
40016,5.85E-03,3.18E-02
40017,5.87E-03,3.06E-02
40018,5.87E-03,3.10E-02
40019,5.94E-03,2.98E-02
40020,5.87E-03,3.02E-02
40021,5.89E-03,2.90E-02
40022,5.90E-03,2.94E-02
40023,5.91E-03,2.82E-02
40024,5.88E-03,2.86E-02
40025,5.86E-03,2.74E-02
40026,5.88E-03,2.78E-02
40027,5.78E-03,2.66E-02
40028,5.80E-03,2.70E-02
40029,5.67E-03,2.58E-02
40030,5.68E-03,2.62E-02
40031,5.78E-03,2.50E-02
40032,5.67E-03,2.54E-02
40033,5.84E-03,2.42E-02
40034,5.78E-03,2.46E-02
40035,5.75E-03,2.34E-02
40036,5.80E-03,2.38E-02
40037,5.70E-03,2.26E-02
40038,5.73E-03,2.30E-02
40039,5.69E-03,2.19E-02
40040,5.69E-03,2.22E-02
40041,5.73E-03,2.11E-02
40042,5.74E-03,2.15E-02
40043,5.68E-03,2.04E-02
40044,5.69E-03,2.08E-02
40045,5.60E-03,1.96E-02
40046,5.63E-03,2.00E-02
40047,5.60E-03,1.89E-02
40048,5.55E-03,1.93E-02
40049,5.65E-03,1.82E-02
40050,5.61E-03,1.86E-02
40051,5.66E-03,1.75E-02
40052,5.69E-03,1.79E-02
40053,5.74E-03,1.68E-02
40054,5.72E-03,1.72E-02
40055,5.82E-03,1.61E-02
40056,5.81E-03,1.65E-02
40057,5.77E-03,1.55E-02
40058,5.85E-03,1.58E-02
40059,5.69E-03,1.48E-02
40060,5.71E-03,1.52E-02
40061,5.75E-03,1.42E-02
40062,5.69E-03,1.45E-02
40063,5.79E-03,1.36E-02
40064,5.76E-03,1.39E-02
40065,5.85E-03,1.30E-02
40066,5.84E-03,1.33E-02
40067,5.88E-03,1.24E-02
40068,5.94E-03,1.27E-02
40069,5.75E-03,1.18E-02
40070,5.80E-03,1.21E-02
40071,5.73E-03,1.12E-02
40072,5.75E-03,1.15E-02
40073,5.79E-03,1.07E-02
40074,5.78E-03,1.09E-02
40075,5.83E-03,1.01E-02
40076,5.86E-03,1.04E-02
40077,5.91E-03,9.61E-03
40078,5.87E-03,9.86E-03
40079,5.89E-03,9.11E-03
40080,5.88E-03,9.36E-03
40081,5.91E-03,8.63E-03
40082,5.88E-03,8.87E-03
40083,5.83E-03,8.17E-03
40084,5.89E-03,8.39E-03
40085,5.75E-03,7.73E-03
40086,5.75E-03,7.95E-03
40087,5.69E-03,7.32E-03
40088,5.68E-03,7.52E-03
40089,5.79E-03,6.93E-03
40090,5.74E-03,7.12E-03
40091,5.82E-03,6.55E-03
40092,5.83E-03,6.74E-03
40093,5.74E-03,6.21E-03
40094,5.78E-03,6.38E-03
40095,5.71E-03,5.88E-03
40096,5.74E-03,6.04E-03
40097,5.63E-03,5.56E-03
40098,5.64E-03,5.72E-03
40099,5.74E-03,5.25E-03
40100,5.71E-03,5.40E-03
40101,5.80E-03,4.96E-03
40102,5.80E-03,5.10E-03
40103,5.76E-03,4.68E-03
40104,5.81E-03,4.82E-03
40105,5.68E-03,4.43E-03
40106,5.68E-03,4.55E-03
40107,5.59E-03,4.19E-03
40108,5.63E-03,4.31E-03
40109,5.57E-03,3.95E-03
40110,5.56E-03,4.07E-03
40111,5.55E-03,3.73E-03
40112,5.54E-03,3.84E-03
40113,5.60E-03,3.50E-03
40114,5.57E-03,3.62E-03
40115,5.68E-03,3.29E-03
40116,5.67E-03,3.39E-03
40117,5.56E-03,3.09E-03
40118,5.62E-03,3.19E-03
40119,5.64E-03,2.91E-03
40120,5.56E-03,3.00E-03
40121,5.62E-03,2.73E-03
40122,5.66E-03,2.82E-03
40123,5.59E-03,2.57E-03
40124,5.54E-03,2.65E-03
40125,5.65E-03,2.42E-03
40126,5.61E-03,2.50E-03
40127,5.75E-03,2.27E-03
40128,5.73E-03,2.34E-03
40129,5.76E-03,2.13E-03
40130,5.76E-03,2.20E-03
40131,5.67E-03,2.00E-03
40132,5.73E-03,2.07E-03
40133,5.56E-03,1.88E-03
40134,5.66E-03,1.94E-03
40135,5.69E-03,1.76E-03
40136,5.59E-03,1.81E-03
40137,5.70E-03,1.65E-03
40138,5.70E-03,1.70E-03
40139,5.62E-03,1.55E-03
40140,5.71E-03,1.59E-03
40141,5.52E-03,1.46E-03
40142,5.54E-03,1.50E-03
40143,5.43E-03,1.38E-03
40144,5.47E-03,1.42E-03
40145,4.33E-03,1.16E-02
40146,5.25E-03,9.07E-03
40147,4.63E-03,1.92E-02
40148,4.37E-03,2.15E-02
40149,4.93E-03,2.55E-02
40150,4.99E-03,2.40E-02
40151,4.21E-03,2.31E-02
40152,5.27E-03,1.79E-02
40153,4.91E-03,2.07E-02
40154,4.68E-03,3.98E-02
40155,4.89E-03,4.72E-02
40156,4.95E-03,4.41E-02
40157,4.33E-03,3.93E-02
40158,4.31E-03,4.16E-02
40159,4.88E-03,3.89E-02
40160,4.60E-03,4.54E-03
40161,5.46E-03,4.76E-03
40162,5.61E-03,5.16E-03
40163,5.46E-03,4.96E-03
40164,4.87E-03,2.83E-03
40165,4.18E-03,1.87E-03
40166,5.24E-03,7.33E-02
40167,5.63E-03,6.25E-02
40168,5.24E-03,0.13618
40169,3.63E-03,0.15072
40170,4.37E-03,0.12935
40171,4.88E-03,0.16931
40172,5.32E-03,8.12E-02
40173,5.67E-03,6.00E-02
40174,5.63E-03,5.23E-02
40175,5.96E-03,3.11E-02
40176,5.65E-03,3.38E-02
40177,5.25E-03,3.89E-02
40178,5.05E-03,0.22709
40179,4.62E-03,1.24E-02
40180,5.26E-03,1.37E-03
40181,4.93E-03,4.43E-02
40182,4.08E-03,6.28E-03
40183,4.18E-03,6.28E-03
40184,5.80E-03,9.02E-05
40185,4.93E-03,6.62E-03
40186,5.03E-03,5.53E-03
40187,3.63E-03,5.51E-03
40188,5.09E-03,6.07E-03
40189,6.58E-03,1.07E-02
40190,5.33E-03,8.48E-03
40191,5.38E-03,1.34E-03
40192,5.55E-03,4.41E-02
40193,3.55E-03,7.43E-03
40194,3.41E-03,7.54E-03
40195,5.02E-03,6.28E-03
40196,5.18E-03,1.05E-02
40197,4.82E-03,1.09E-02
40198,4.52E-03,1.19E-02
40199,4.80E-03,9.38E-03
40200,4.34E-03,9.22E-03
40201,5.03E-03,1.84E-02
40202,4.59E-03,2.04E-02
40203,4.83E-03,2.18E-02
40204,5.16E-03,2.26E-02
40205,5.22E-03,2.48E-02
40206,4.69E-03,2.42E-02
40207,5.17E-03,1.80E-02
40208,5.27E-03,1.84E-02
40209,4.21E-03,2.23E-02
40210,4.96E-03,2.12E-02
40211,5.24E-03,1.92E-02
40212,4.83E-03,3.98E-02
40213,4.64E-03,4.01E-02
40214,4.59E-03,4.06E-02
40215,5.09E-03,4.49E-02
40216,5.20E-03,4.52E-02
40217,5.03E-03,4.26E-02
40218,4.81E-03,4.17E-02
40219,4.49E-03,4.06E-02
40220,4.64E-03,3.92E-02
40221,3.87E-03,4.15E-03
40222,5.41E-03,4.31E-03
40223,3.95E-03,3.01E-03
40224,4.37E-03,3.51E-03
40225,5.48E-03,4.64E-03
40226,5.12E-03,3.74E-03
40227,4.83E-03,2.40E-03
40228,5.29E-03,2.12E-03
40229,5.58E-03,1.95E-03
40230,5.34E-03,8.74E-04
40231,5.38E-03,1.14E-03
40232,3.57E-03,9.64E-02
40233,4.62E-03,8.99E-02
40234,5.47E-03,8.83E-02
40235,5.66E-03,8.29E-02
40236,5.49E-03,6.88E-02
40237,4.21E-03,0.10928
40238,4.35E-03,0.14203
40239,4.32E-03,0.14018
40240,4.82E-03,0.14114
40241,3.95E-03,0.1499
40242,4.92E-03,0.104
40243,4.13E-03,4.77E-02
40244,5.82E-03,5.57E-02
40245,4.19E-03,5.32E-02
40246,5.00E-03,5.38E-02
40247,5.78E-03,3.74E-02
40248,5.91E-03,3.24E-02
40249,5.76E-03,7.89E-03
40250,7.08E-03,2.89E-02
40251,6.36E-03,2.97E-02
40252,6.12E-03,3.01E-02
40253,5.93E-03,3.04E-02
40254,5.76E-03,3.06E-02
40255,5.68E-03,3.09E-02
40256,5.59E-03,3.15E-02
40257,5.52E-03,3.21E-02
40258,5.45E-03,3.27E-02
40259,5.42E-03,3.31E-02
40260,5.38E-03,3.35E-02
40261,5.41E-03,3.38E-02
40262,5.49E-03,3.40E-02
40263,5.53E-03,3.43E-02
40264,5.62E-03,3.47E-02
40265,5.70E-03,3.52E-02
40266,5.84E-03,3.58E-02
40267,5.90E-03,3.64E-02
40268,5.99E-03,3.71E-02
40269,6.08E-03,3.78E-02
40270,6.16E-03,3.83E-02
40271,6.32E-03,3.86E-02
40272,6.51E-03,3.88E-02
40273,6.29E-03,3.87E-02
40274,5.99E-03,3.84E-02
40275,5.77E-03,3.85E-02
40276,5.70E-03,3.90E-02
40277,5.71E-03,3.90E-02
40278,5.72E-03,3.85E-02
40279,5.71E-03,3.79E-02
40280,5.71E-03,3.74E-02
40281,5.77E-03,3.69E-02
40282,5.76E-03,3.62E-02
40283,5.79E-03,3.52E-02
40284,5.82E-03,3.42E-02
40285,5.87E-03,3.34E-02
40286,5.86E-03,3.29E-02
40287,5.90E-03,3.24E-02
40288,5.95E-03,3.19E-02
40289,5.99E-03,3.14E-02
40290,6.01E-03,3.08E-02
40291,6.09E-03,3.02E-02
40292,6.08E-03,2.96E-02
40293,6.15E-03,2.89E-02
40294,6.23E-03,2.82E-02
40295,6.27E-03,2.75E-02
40296,6.31E-03,2.70E-02
40297,6.29E-03,2.65E-02
40298,6.36E-03,2.59E-02
40299,6.37E-03,2.51E-02
40300,6.30E-03,2.41E-02
40301,6.20E-03,2.32E-02
40302,6.14E-03,2.23E-02
40303,6.03E-03,2.15E-02
40304,5.94E-03,2.08E-02
40305,5.89E-03,2.00E-02
40306,5.81E-03,1.91E-02
40307,5.71E-03,1.81E-02
40308,5.59E-03,1.72E-02
40309,5.54E-03,1.63E-02
40310,5.40E-03,1.54E-02
40311,5.25E-03,1.45E-02
40312,5.19E-03,1.37E-02
40313,5.12E-03,1.29E-02
40314,4.76E-03,1.23E-02
40315,5.65E-03,7.20E-02
40316,5.46E-03,6.84E-02
40317,5.45E-03,6.53E-02
40318,5.40E-03,6.34E-02
40319,5.34E-03,6.22E-02
40320,5.26E-03,6.11E-02
40321,5.28E-03,6.01E-02
40322,5.30E-03,5.93E-02
40323,5.30E-03,5.88E-02
40324,5.32E-03,5.86E-02
40325,5.30E-03,5.85E-02
40326,5.32E-03,5.86E-02
40327,5.39E-03,5.88E-02
40328,5.43E-03,5.92E-02
40329,5.51E-03,5.98E-02
40330,5.50E-03,6.06E-02
40331,5.53E-03,6.10E-02
40332,5.59E-03,6.10E-02
40333,5.63E-03,6.06E-02
40334,5.68E-03,6.03E-02
40335,5.72E-03,6.07E-02
40336,5.79E-03,6.13E-02
40337,5.82E-03,6.18E-02
40338,5.82E-03,6.19E-02
40339,5.81E-03,6.18E-02
40340,5.83E-03,6.14E-02
40341,5.78E-03,6.08E-02
40342,5.75E-03,6.01E-02
40343,5.75E-03,5.95E-02
40344,5.73E-03,5.95E-02
40345,5.75E-03,5.98E-02
40346,5.89E-03,5.97E-02
40347,5.92E-03,5.89E-02
40348,5.97E-03,5.76E-02
40349,6.01E-03,5.62E-02
40350,6.06E-03,5.46E-02
40351,6.08E-03,5.34E-02
40352,6.08E-03,5.25E-02
40353,6.04E-03,5.17E-02
40354,5.94E-03,5.03E-02
40355,5.83E-03,4.86E-02
40356,5.68E-03,4.70E-02
40357,5.55E-03,4.57E-02
40358,5.39E-03,4.42E-02
40359,5.28E-03,4.24E-02
40360,5.17E-03,4.05E-02
40361,5.11E-03,3.86E-02
40362,5.05E-03,3.68E-02
40363,5.08E-03,3.52E-02
40364,5.16E-03,3.36E-02
40365,5.18E-03,3.21E-02
40366,5.21E-03,3.08E-02
40367,5.23E-03,2.97E-02
40368,5.28E-03,2.89E-02
40369,5.28E-03,2.83E-02
40370,5.22E-03,2.78E-02
40371,4.62E-03,2.44E-02
40372,4.96E-03,2.52E-02
40373,5.16E-03,2.60E-02
40374,5.37E-03,2.68E-02
40375,5.51E-03,2.80E-02
40376,5.37E-03,2.92E-02
40377,4.64E-03,3.06E-02
40378,5.27E-03,3.19E-02
40379,5.65E-03,3.31E-02
40380,5.91E-03,3.40E-02
40381,6.00E-03,3.49E-02
40382,5.82E-03,3.59E-02
40383,5.56E-03,3.75E-02
40384,5.41E-03,3.92E-02
40385,5.40E-03,4.07E-02
40386,5.52E-03,4.22E-02
40387,5.64E-03,4.37E-02
40388,5.70E-03,4.54E-02
40389,5.85E-03,4.74E-02
40390,5.93E-03,4.93E-02
40391,5.89E-03,5.15E-02
40392,6.62E-03,5.24E-02
40393,6.68E-03,5.20E-02
40394,6.14E-03,5.17E-02
40395,6.01E-03,5.25E-02
40396,5.99E-03,5.50E-02
40397,5.94E-03,5.72E-02
40398,5.90E-03,5.81E-02
40399,5.86E-03,5.81E-02
40400,5.76E-03,5.78E-02
40401,5.72E-03,5.75E-02
40402,5.63E-03,5.73E-02
40403,5.56E-03,5.72E-02
40404,5.54E-03,5.71E-02
40405,5.51E-03,5.71E-02
40406,5.48E-03,5.72E-02
40407,5.51E-03,5.73E-02
40408,5.53E-03,5.75E-02
40409,5.56E-03,5.78E-02
40410,5.59E-03,5.81E-02
40411,5.58E-03,5.84E-02
40412,5.51E-03,5.88E-02
40413,5.53E-03,5.93E-02
40414,5.47E-03,5.98E-02
40415,5.46E-03,6.04E-02
40416,5.40E-03,6.10E-02
40417,5.35E-03,6.17E-02
40418,5.40E-03,6.25E-02
40419,5.44E-03,6.34E-02
40420,5.50E-03,6.44E-02
40421,5.57E-03,6.56E-02
40422,5.62E-03,6.69E-02
40423,5.65E-03,6.85E-02
40424,5.72E-03,7.02E-02
40425,5.76E-03,7.19E-02
40426,5.85E-03,7.34E-02
40427,5.89E-03,7.49E-02
40428,5.96E-03,7.63E-02
40429,6.02E-03,7.78E-02
40430,6.06E-03,7.93E-02
40431,6.04E-03,8.09E-02
40432,6.04E-03,8.24E-02
40433,6.02E-03,8.38E-02
40434,5.96E-03,8.51E-02
40435,5.91E-03,8.62E-02
40436,5.86E-03,8.71E-02
40437,5.90E-03,8.77E-02
40438,5.81E-03,8.82E-02
40439,5.76E-03,8.88E-02
40440,5.77E-03,8.94E-02
40441,5.74E-03,8.99E-02
40442,5.69E-03,9.03E-02
40443,5.70E-03,9.06E-02
40444,5.66E-03,9.08E-02
40445,5.62E-03,9.11E-02
40446,5.56E-03,9.14E-02
40447,5.49E-03,9.18E-02
40448,5.51E-03,9.24E-02
40449,5.56E-03,9.32E-02
40450,5.57E-03,9.41E-02
40451,5.51E-03,9.50E-02
40452,5.54E-03,9.59E-02
40453,5.55E-03,9.67E-02
40454,5.54E-03,9.75E-02
40455,5.57E-03,9.84E-02
40456,5.62E-03,9.93E-02
40457,5.69E-03,0.10031
40458,5.72E-03,0.10138
40459,5.73E-03,0.1026
40460,5.70E-03,0.10383
40461,5.66E-03,0.10505
40462,5.64E-03,0.10619
40463,5.64E-03,0.10726
40464,5.62E-03,0.10828
40465,5.63E-03,0.10927
40466,5.62E-03,0.11021
40467,5.65E-03,0.1111
40468,5.70E-03,0.11201
40469,5.73E-03,0.11306
40470,5.72E-03,0.11436
40471,5.75E-03,0.11585
40472,5.72E-03,0.11735
40473,5.73E-03,0.11859
40474,5.78E-03,0.11953
40475,5.87E-03,0.12022
40476,5.88E-03,0.12082
40477,5.87E-03,0.12139
40478,5.84E-03,0.12198
40479,5.74E-03,0.12265
40480,5.71E-03,0.12362
40481,5.65E-03,0.12493
40482,5.61E-03,0.12651
40483,5.58E-03,0.12804
40484,5.55E-03,0.12916
40485,5.56E-03,0.12966
40486,5.63E-03,0.12963
40487,5.66E-03,0.12955
40488,5.72E-03,0.12999
40489,5.79E-03,0.13135
40490,5.88E-03,0.13327
40491,5.89E-03,0.13486
40492,5.98E-03,0.13548
40493,6.01E-03,0.13546
40494,5.98E-03,0.13535
40495,5.88E-03,0.13536
40496,5.81E-03,0.13522
40497,5.78E-03,0.13495
40498,5.70E-03,0.13512
40499,5.63E-03,0.13574
40500,5.53E-03,0.13587
40501,5.43E-03,0.13482
40502,5.32E-03,0.13279
40503,5.22E-03,0.13095
40504,5.12E-03,0.13031
40505,5.06E-03,0.13074
40506,4.97E-03,0.13141
40507,5.02E-03,0.13202
40508,5.06E-03,0.13298
40509,5.15E-03,0.1347
40510,5.27E-03,0.13694
40511,5.41E-03,0.13922
40512,5.54E-03,0.14123
40513,5.64E-03,0.14287
40514,5.72E-03,0.1443
40515,5.79E-03,0.14599
40516,5.89E-03,0.1484
40517,5.88E-03,0.15156
40518,5.83E-03,0.15461
40519,5.84E-03,0.15699
40520,5.78E-03,0.15859
40521,5.71E-03,0.15942
40522,5.66E-03,0.15986
40523,5.63E-03,0.16065
40524,5.60E-03,0.16247
40525,5.58E-03,0.16494
40526,5.58E-03,0.16667
40527,5.59E-03,0.16717
40528,5.50E-03,0.167
40529,5.45E-03,0.16675
40530,5.39E-03,0.16677
40531,5.35E-03,0.1676
40532,5.31E-03,0.17007
40533,5.27E-03,0.17363
40534,5.28E-03,0.17727
40535,5.31E-03,0.18068
40536,5.46E-03,0.18441
40537,5.54E-03,0.18884
40538,5.67E-03,0.19331
40539,5.78E-03,0.19715
40540,5.88E-03,0.19979
40541,5.92E-03,0.20154
40542,5.88E-03,0.20244
40543,5.73E-03,0.20463
40544,5.61E-03,0.20994
40545,5.56E-03,0.21921
40546,5.53E-03,0.2291
40547,5.57E-03,0.23552
40548,5.67E-03,0.23784
40549,5.79E-03,0.23719
40550,5.85E-03,0.23888
40551,5.89E-03,0.24129
40552,5.85E-03,0.24455
40553,5.84E-03,0.24705
40554,6.12E-03,0.2458
40555,5.22E-03,0.26475
40556,5.54E-03,7.54E-02
40557,5.41E-03,8.08E-02
40558,5.48E-03,8.18E-02
40559,5.45E-03,8.06E-02
40560,5.45E-03,7.90E-02
40561,4.99E-03,7.82E-02
40562,4.17E-03,7.77E-02
40563,5.51E-03,7.30E-02
40564,5.54E-03,7.16E-02
40565,5.54E-03,7.01E-02
40566,5.59E-03,6.88E-02
40567,5.61E-03,6.70E-02
40568,5.62E-03,6.54E-02
40569,5.66E-03,6.39E-02
40570,5.68E-03,6.26E-02
40571,5.71E-03,6.13E-02
40572,5.71E-03,6.02E-02
40573,5.63E-03,5.92E-02
40574,5.56E-03,5.82E-02
40575,5.56E-03,5.73E-02
40576,5.53E-03,5.64E-02
40577,5.48E-03,5.55E-02
40578,5.42E-03,5.46E-02
40579,5.47E-03,5.37E-02
40580,5.51E-03,5.27E-02
40581,5.54E-03,5.16E-02
40582,5.62E-03,5.06E-02
40583,5.64E-03,4.95E-02
40584,5.70E-03,4.84E-02
40585,5.73E-03,4.74E-02
40586,5.71E-03,4.65E-02
40587,5.65E-03,4.56E-02
40588,5.57E-03,4.48E-02
40589,5.62E-03,4.40E-02
40590,5.61E-03,4.31E-02
40591,5.62E-03,4.23E-02
40592,5.70E-03,4.15E-02
40593,5.71E-03,4.08E-02
40594,5.75E-03,4.00E-02
40595,5.74E-03,3.93E-02
40596,5.68E-03,3.85E-02
40597,5.64E-03,3.77E-02
40598,5.58E-03,3.67E-02
40599,5.56E-03,3.56E-02
40600,5.56E-03,3.45E-02
40601,5.54E-03,3.33E-02
40602,5.52E-03,3.20E-02
40603,5.52E-03,3.05E-02
40604,5.59E-03,2.90E-02
40605,5.61E-03,2.75E-02
40606,5.56E-03,2.58E-02
40607,5.53E-03,2.42E-02
40608,5.50E-03,2.25E-02
40609,5.50E-03,2.07E-02
40610,5.50E-03,1.90E-02
40611,5.48E-03,1.75E-02
40612,5.51E-03,1.62E-02
40613,5.44E-03,1.52E-02
40614,5.40E-03,1.45E-02
40615,5.45E-03,1.43E-02
40616,5.47E-03,1.44E-02
40617,5.55E-03,1.50E-02
40618,5.57E-03,1.59E-02
40619,5.63E-03,1.71E-02
40620,5.65E-03,1.84E-02
40621,5.59E-03,1.98E-02
40622,5.54E-03,2.13E-02
40623,5.55E-03,2.29E-02
40624,5.59E-03,2.46E-02
40625,5.58E-03,2.66E-02
40626,5.60E-03,2.89E-02
40627,5.61E-03,3.16E-02
40628,5.60E-03,3.47E-02
40629,5.66E-03,3.83E-02
40630,5.60E-03,4.25E-02
40631,5.51E-03,4.73E-02
40632,5.45E-03,5.27E-02
40633,5.39E-03,5.91E-02
40634,5.38E-03,6.68E-02
40635,5.42E-03,7.56E-02
40636,5.47E-03,8.52E-02
40637,5.50E-03,9.62E-02
40638,5.44E-03,0.10748
40639,5.40E-03,0.12234
40640,5.50E-03,0.14056
40641,5.66E-03,0.15958
40642,5.52E-03,0.17499
40643,5.35E-03,0.19639
40644,5.98E-03,0.25785
40645,5.23E-03,0.22221
40646,4.33E-03,8.73E-03
40647,5.63E-03,8.33E-03
40648,5.25E-03,6.86E-03
40649,5.51E-03,7.38E-03
40650,5.85E-03,7.90E-03
40651,5.19E-03,7.13E-02
40652,5.37E-03,6.60E-02
40653,5.44E-03,6.28E-02
40654,5.42E-03,6.14E-02
40655,5.38E-03,6.04E-02
40656,5.36E-03,5.94E-02
40657,5.35E-03,5.88E-02
40658,5.39E-03,5.87E-02
40659,5.38E-03,5.87E-02
40660,5.40E-03,5.89E-02
40661,5.41E-03,5.90E-02
40662,5.42E-03,5.92E-02
40663,5.42E-03,5.93E-02
40664,5.49E-03,5.96E-02
40665,5.57E-03,6.00E-02
40666,5.56E-03,6.09E-02
40667,5.63E-03,6.21E-02
40668,5.62E-03,6.29E-02
40669,5.66E-03,6.31E-02
40670,5.65E-03,6.35E-02
40671,5.67E-03,6.46E-02
40672,5.71E-03,6.55E-02
40673,5.77E-03,6.59E-02
40674,5.81E-03,6.59E-02
40675,5.83E-03,6.59E-02
40676,5.76E-03,6.57E-02
40677,5.73E-03,6.53E-02
40678,5.67E-03,6.45E-02
40679,5.65E-03,6.34E-02
40680,5.62E-03,6.29E-02
40681,5.68E-03,6.28E-02
40682,5.84E-03,6.23E-02
40683,5.89E-03,6.13E-02
40684,5.90E-03,6.05E-02
40685,5.93E-03,5.98E-02
40686,5.91E-03,5.90E-02
40687,5.95E-03,5.78E-02
40688,5.93E-03,5.72E-02
40689,5.90E-03,5.67E-02
40690,5.81E-03,5.50E-02
40691,5.66E-03,5.24E-02
40692,5.55E-03,5.03E-02
40693,5.43E-03,4.81E-02
40694,5.31E-03,4.54E-02
40695,5.23E-03,4.25E-02
40696,5.21E-03,3.96E-02
40697,5.18E-03,3.70E-02
40698,5.22E-03,3.48E-02
40699,5.22E-03,3.31E-02
40700,5.32E-03,3.17E-02
40701,5.28E-03,3.03E-02
40702,5.25E-03,2.90E-02
40703,5.23E-03,2.81E-02
40704,5.24E-03,2.72E-02
40705,5.15E-03,2.61E-02
40706,4.94E-03,2.50E-02
40707,4.37E-03,2.41E-02
40708,4.95E-03,2.51E-02
40709,5.83E-03,2.65E-02
40710,6.09E-03,2.79E-02
40711,5.99E-03,2.93E-02
40712,5.85E-03,3.04E-02
40713,5.64E-03,3.12E-02
40714,5.60E-03,3.19E-02
40715,5.49E-03,3.26E-02
40716,5.48E-03,3.29E-02
40717,5.42E-03,3.30E-02
40718,5.43E-03,3.30E-02
40719,5.46E-03,3.31E-02
40720,5.47E-03,3.34E-02
40721,5.55E-03,3.37E-02
40722,5.59E-03,3.39E-02
40723,5.65E-03,3.46E-02
40724,5.68E-03,3.56E-02
40725,5.83E-03,3.64E-02
40726,5.86E-03,3.71E-02
40727,5.96E-03,3.83E-02
40728,6.02E-03,3.95E-02
40729,6.10E-03,4.02E-02
40730,6.11E-03,4.12E-02
40731,6.09E-03,4.24E-02
40732,5.96E-03,4.31E-02
40733,5.81E-03,4.27E-02
40734,5.68E-03,4.28E-02
40735,5.63E-03,4.34E-02
40736,5.63E-03,4.28E-02
40737,5.63E-03,4.15E-02
40738,5.60E-03,4.04E-02
40739,5.64E-03,3.95E-02
40740,5.71E-03,3.87E-02
40741,5.71E-03,3.79E-02
40742,5.75E-03,3.68E-02
40743,5.74E-03,3.57E-02
40744,5.77E-03,3.51E-02
40745,5.78E-03,3.46E-02
40746,5.78E-03,3.41E-02
40747,5.86E-03,3.35E-02
40748,5.90E-03,3.29E-02
40749,5.93E-03,3.23E-02
40750,5.99E-03,3.18E-02
40751,6.02E-03,3.14E-02
40752,6.03E-03,3.08E-02
40753,6.06E-03,3.02E-02
40754,6.07E-03,2.95E-02
40755,6.09E-03,2.90E-02
40756,6.13E-03,2.85E-02
40757,6.20E-03,2.78E-02
40758,6.17E-03,2.71E-02
40759,6.06E-03,2.62E-02
40760,5.97E-03,2.52E-02
40761,5.90E-03,2.42E-02
40762,5.86E-03,2.33E-02
40763,5.77E-03,2.22E-02
40764,5.75E-03,2.11E-02
40765,5.70E-03,1.99E-02
40766,5.67E-03,1.87E-02
40767,5.54E-03,1.76E-02
40768,5.49E-03,1.66E-02
40769,5.40E-03,1.56E-02
40770,5.39E-03,1.47E-02
40771,5.40E-03,1.38E-02
40772,5.48E-03,1.30E-02
40773,3.72E-03,1.18E-02
40774,4.53E-03,1.14E-02
40775,5.95E-03,1.11E-02
40776,5.69E-03,8.47E-03
40777,5.54E-03,9.17E-03
40778,5.57E-03,3.59E-02
40779,5.87E-03,3.48E-02
40780,5.04E-03,5.00E-02
40781,5.40E-03,5.15E-02
40782,6.34E-03,5.46E-02
40783,5.26E-03,9.60E-02
40784,4.67E-03,0.14489
40785,4.66E-03,0.1188
40786,3.99E-03,0.13317
40787,4.49E-03,0.13736
40788,4.95E-03,0.13187
40789,4.81E-03,0.11991
40790,5.81E-03,7.60E-02
40791,5.22E-03,8.00E-02
40792,4.14E-03,2.75E-03
40793,5.48E-03,1.45E-03
40794,5.57E-03,1.73E-03
40795,5.45E-03,2.16E-03
40796,5.46E-03,1.79E-03
40797,5.13E-03,2.30E-03
40798,5.11E-03,2.81E-03
40799,5.24E-03,3.26E-03
40800,5.10E-03,4.09E-03
40801,5.39E-03,4.47E-03
40802,4.82E-03,3.95E-02
40803,4.70E-03,4.11E-02
40804,4.59E-03,3.97E-02
40805,4.61E-03,4.02E-02
40806,5.20E-03,4.38E-02
40807,5.02E-03,4.51E-02
40808,4.22E-03,4.04E-02
40809,5.11E-03,2.02E-02
40810,5.28E-03,1.88E-02
40811,4.48E-03,2.32E-02
40812,5.28E-03,2.37E-02
40813,4.92E-03,2.44E-02
40814,5.11E-03,2.46E-02
40815,4.71E-03,2.10E-02
40816,4.78E-03,1.98E-02
40817,4.94E-03,1.92E-02
40818,3.93E-03,9.20E-03
40819,5.25E-03,9.66E-03
40820,4.62E-03,1.13E-02
40821,4.62E-03,1.19E-02
40822,4.66E-03,1.18E-02
40823,4.49E-03,0.10451
40824,4.96E-03,9.66E-02
40825,5.17E-03,3.74E-03
40826,5.29E-03,3.79E-03
40827,5.35E-03,1.89E-02
40828,5.35E-03,1.94E-02
40829,5.74E-03,0.29565
40830,3.44E-03,1.09E-02
40831,5.02E-03,4.33E-02
40832,5.12E-03,6.35E-03
40833,3.13E-03,7.50E-03
40834,5.67E-03,4.10E-02
40835,5.37E-03,1.46E-03
40836,5.44E-03,1.50E-03
40837,5.46E-03,1.54E-03
40838,5.53E-03,1.58E-03
40839,5.58E-03,1.63E-03
40840,5.63E-03,1.67E-03
40841,5.68E-03,1.72E-03
40842,5.66E-03,1.78E-03
40843,5.68E-03,1.83E-03
40844,5.64E-03,1.89E-03
40845,5.63E-03,1.94E-03
40846,5.59E-03,2.01E-03
40847,5.57E-03,2.07E-03
40848,5.59E-03,2.14E-03
40849,5.61E-03,2.20E-03
40850,5.69E-03,2.27E-03
40851,5.73E-03,2.34E-03
40852,5.72E-03,2.41E-03
40853,5.66E-03,2.48E-03
40854,5.61E-03,2.56E-03
40855,5.59E-03,2.64E-03
40856,5.56E-03,2.72E-03
40857,5.53E-03,2.80E-03
40858,5.57E-03,2.88E-03
40859,5.65E-03,2.97E-03
40860,5.59E-03,3.06E-03
40861,5.57E-03,3.15E-03
40862,5.57E-03,3.25E-03
40863,5.60E-03,3.35E-03
40864,5.63E-03,3.45E-03
40865,5.56E-03,3.55E-03
40866,5.56E-03,3.66E-03
40867,5.58E-03,3.77E-03
40868,5.53E-03,3.89E-03
40869,5.54E-03,4.00E-03
40870,5.55E-03,4.12E-03
40871,5.58E-03,4.23E-03
40872,5.61E-03,4.36E-03
40873,5.61E-03,4.48E-03
40874,5.66E-03,4.60E-03
40875,5.64E-03,4.73E-03
40876,5.74E-03,4.86E-03
40877,5.78E-03,5.00E-03
40878,5.80E-03,5.14E-03
40879,5.80E-03,5.28E-03
40880,5.75E-03,5.43E-03
40881,5.71E-03,5.58E-03
40882,5.61E-03,5.74E-03
40883,5.60E-03,5.90E-03
40884,5.62E-03,6.06E-03
40885,5.66E-03,6.23E-03
40886,5.69E-03,6.40E-03
40887,5.71E-03,6.57E-03
40888,5.68E-03,6.74E-03
40889,5.69E-03,6.92E-03
40890,5.69E-03,7.11E-03
40891,5.68E-03,7.31E-03
40892,5.66E-03,7.50E-03
40893,5.65E-03,7.71E-03
40894,5.70E-03,7.92E-03
40895,5.69E-03,8.13E-03
40896,5.68E-03,8.35E-03
40897,5.75E-03,8.58E-03
40898,5.78E-03,8.81E-03
40899,5.79E-03,9.05E-03
40900,5.80E-03,9.29E-03
40901,5.82E-03,9.54E-03
40902,5.85E-03,9.80E-03
40903,5.76E-03,1.01E-02
40904,5.73E-03,1.03E-02
40905,5.79E-03,1.06E-02
40906,5.75E-03,1.08E-02
40907,5.70E-03,1.11E-02
40908,5.69E-03,1.14E-02
40909,5.65E-03,1.17E-02
40910,5.71E-03,1.20E-02
40911,5.72E-03,1.22E-02
40912,5.80E-03,1.25E-02
40913,5.82E-03,1.28E-02
40914,5.79E-03,1.31E-02
40915,5.78E-03,1.34E-02
40916,5.77E-03,1.37E-02
40917,5.72E-03,1.40E-02
40918,5.72E-03,1.44E-02
40919,5.66E-03,1.47E-02
40920,5.65E-03,1.50E-02
40921,5.66E-03,1.53E-02
40922,5.73E-03,1.56E-02
40923,5.76E-03,1.60E-02
40924,5.79E-03,1.63E-02
40925,5.75E-03,1.66E-02
40926,5.72E-03,1.70E-02
40927,5.70E-03,1.73E-02
40928,5.67E-03,1.77E-02
40929,5.66E-03,1.80E-02
40930,5.63E-03,1.83E-02
40931,5.58E-03,1.87E-02
40932,5.57E-03,1.90E-02
40933,5.59E-03,1.94E-02
40934,5.60E-03,1.97E-02
40935,5.60E-03,2.01E-02
40936,5.63E-03,2.05E-02
40937,5.66E-03,2.08E-02
40938,5.69E-03,2.12E-02
40939,5.71E-03,2.16E-02
40940,5.63E-03,2.19E-02
40941,5.62E-03,2.23E-02
40942,5.63E-03,2.27E-02
40943,5.66E-03,2.31E-02
40944,5.70E-03,2.34E-02
40945,5.75E-03,2.38E-02
40946,5.79E-03,2.42E-02
40947,5.74E-03,2.46E-02
40948,5.73E-03,2.50E-02
40949,5.66E-03,2.54E-02
40950,5.64E-03,2.58E-02
40951,5.68E-03,2.61E-02
40952,5.72E-03,2.65E-02
40953,5.77E-03,2.69E-02
40954,5.76E-03,2.73E-02
40955,5.82E-03,2.77E-02
40956,5.88E-03,2.81E-02
40957,5.81E-03,2.85E-02
40958,5.80E-03,2.89E-02
40959,5.77E-03,2.93E-02
40960,5.75E-03,2.97E-02
40961,5.76E-03,3.01E-02
40962,5.77E-03,3.04E-02
40963,5.76E-03,3.08E-02
40964,5.76E-03,3.12E-02
40965,5.74E-03,3.16E-02
40966,5.80E-03,3.19E-02
40967,5.82E-03,3.23E-02
40968,5.83E-03,3.26E-02
40969,5.82E-03,3.29E-02
40970,5.77E-03,3.32E-02
40971,5.78E-03,3.35E-02
40972,5.83E-03,3.38E-02
40973,5.88E-03,3.41E-02
40974,5.91E-03,3.44E-02
40975,5.88E-03,3.46E-02
40976,5.87E-03,3.49E-02
40977,5.78E-03,3.51E-02
40978,5.74E-03,3.53E-02
40979,5.72E-03,3.55E-02
40980,5.70E-03,3.57E-02
40981,5.68E-03,3.59E-02
40982,5.64E-03,3.61E-02
40983,5.61E-03,3.62E-02
40984,5.57E-03,3.64E-02
40985,5.54E-03,3.66E-02
40986,5.56E-03,3.68E-02
40987,5.51E-03,3.70E-02
40988,5.40E-03,3.72E-02
40989,5.25E-03,3.73E-02
40990,5.16E-03,3.75E-02
40991,5.31E-03,3.77E-02
40992,5.87E-03,3.80E-02
40993,6.23E-03,3.82E-02
40994,6.19E-03,3.84E-02
40995,6.44E-03,3.83E-02
40996,6.50E-03,3.83E-02
40997,6.31E-03,3.80E-02
40998,5.81E-03,3.76E-02
40999,5.61E-03,3.70E-02
41000,5.40E-03,3.64E-02
41001,5.43E-03,3.58E-02
41002,5.71E-03,3.50E-02
41003,6.11E-03,3.42E-02
41004,6.23E-03,3.36E-02
41005,6.16E-03,3.28E-02
41006,5.97E-03,3.20E-02
41007,5.88E-03,3.12E-02
41008,5.96E-03,3.02E-02
41009,5.81E-03,2.91E-02
41010,5.66E-03,2.81E-02
41011,5.44E-03,2.71E-02
41012,5.18E-03,2.61E-02
41013,4.98E-03,2.52E-02
41014,4.73E-03,2.44E-02
41015,4.79E-03,2.38E-02
41016,4.89E-03,2.28E-02
41017,5.89E-03,2.25E-02
41018,5.08E-03,2.21E-02
41019,5.41E-03,2.18E-02
41020,4.87E-03,2.14E-02
41021,4.42E-03,2.11E-02
41022,4.60E-03,2.08E-02
41023,4.91E-03,2.03E-02
41024,6.52E-03,1.97E-02
41025,6.17E-03,1.88E-02
41026,5.93E-03,1.80E-02
41027,5.88E-03,1.72E-02
41028,5.84E-03,1.65E-02
41029,5.80E-03,1.58E-02
41030,5.84E-03,1.51E-02
41031,5.88E-03,1.43E-02
41032,5.95E-03,1.35E-02
41033,6.29E-03,1.26E-02
41034,4.71E-03,1.19E-02
41035,4.41E-03,1.13E-02
41036,5.94E-03,1.07E-02
41037,5.85E-03,1.02E-02
41038,5.91E-03,9.70E-03
41039,5.91E-03,9.21E-03
41040,5.70E-03,8.59E-03
41041,5.51E-03,8.08E-03
41042,5.56E-03,7.65E-03
41043,5.71E-03,7.21E-03
41044,5.72E-03,6.81E-03
41045,5.75E-03,6.45E-03
41046,5.67E-03,6.20E-03
41047,5.65E-03,5.93E-03
41048,5.59E-03,5.68E-03
41049,5.48E-03,5.44E-03
41050,5.50E-03,5.22E-03
41051,6.41E-03,4.94E-03
41052,6.82E-03,4.75E-03
41053,6.51E-03,4.66E-03
41054,6.29E-03,4.61E-03
41055,6.12E-03,4.57E-03
41056,6.00E-03,4.57E-03
41057,5.92E-03,4.57E-03
41058,5.88E-03,4.58E-03
41059,5.88E-03,4.60E-03
41060,5.87E-03,4.62E-03
41061,5.88E-03,4.65E-03
41062,5.86E-03,4.68E-03
41063,5.82E-03,4.71E-03
41064,5.84E-03,4.75E-03
41065,5.88E-03,4.79E-03
41066,5.84E-03,4.83E-03
41067,5.91E-03,4.88E-03
41068,5.88E-03,4.92E-03
41069,5.93E-03,4.97E-03
41070,5.94E-03,5.01E-03
41071,5.95E-03,5.05E-03
41072,5.89E-03,5.09E-03
41073,5.81E-03,5.13E-03
41074,5.79E-03,5.17E-03
41075,5.74E-03,5.22E-03
41076,5.69E-03,5.27E-03
41077,5.66E-03,5.33E-03
41078,5.66E-03,5.38E-03
41079,5.64E-03,5.44E-03
41080,5.67E-03,5.49E-03
41081,5.70E-03,5.55E-03
41082,5.76E-03,5.61E-03
41083,5.77E-03,5.68E-03
41084,5.78E-03,5.74E-03
41085,5.81E-03,5.80E-03
41086,5.80E-03,5.86E-03
41087,5.77E-03,5.91E-03
41088,5.71E-03,5.96E-03
41089,5.68E-03,6.00E-03
41090,5.66E-03,6.04E-03
41091,5.67E-03,6.07E-03
41092,5.71E-03,6.11E-03
41093,5.74E-03,6.15E-03
41094,5.78E-03,6.19E-03
41095,5.78E-03,6.23E-03
41096,5.78E-03,6.28E-03
41097,5.85E-03,6.33E-03
41098,5.76E-03,6.39E-03
41099,5.78E-03,6.44E-03
41100,5.69E-03,6.49E-03
41101,5.62E-03,6.54E-03
41102,5.62E-03,6.58E-03
41103,5.62E-03,6.63E-03
41104,5.57E-03,6.66E-03
41105,5.58E-03,6.70E-03
41106,5.64E-03,6.73E-03
41107,5.64E-03,6.77E-03
41108,5.61E-03,6.80E-03
41109,5.63E-03,6.83E-03
41110,5.64E-03,6.87E-03
41111,5.70E-03,6.90E-03
41112,5.75E-03,6.93E-03
41113,5.75E-03,6.97E-03
41114,5.73E-03,7.01E-03
41115,5.71E-03,7.05E-03
41116,5.65E-03,7.10E-03
41117,5.68E-03,7.15E-03
41118,5.66E-03,7.20E-03
41119,5.62E-03,7.25E-03
41120,5.60E-03,7.31E-03
41121,5.54E-03,7.36E-03
41122,5.53E-03,7.41E-03
41123,5.53E-03,7.45E-03
41124,5.54E-03,7.49E-03
41125,5.59E-03,7.53E-03
41126,5.61E-03,7.56E-03
41127,5.56E-03,7.58E-03
41128,5.39E-03,7.61E-03
41129,5.21E-03,7.63E-03
41130,4.88E-03,7.65E-03
41131,4.70E-03,7.66E-03
41132,5.39E-03,8.53E-03
41133,5.39E-03,8.38E-03
41134,5.39E-03,8.22E-03
41135,5.44E-03,8.05E-03
41136,5.44E-03,7.88E-03
41137,5.46E-03,7.70E-03
41138,5.44E-03,7.52E-03
41139,5.49E-03,7.34E-03
41140,5.51E-03,7.15E-03
41141,5.52E-03,6.95E-03
41142,5.53E-03,6.75E-03
41143,5.51E-03,6.55E-03
41144,5.57E-03,6.34E-03
41145,5.54E-03,6.12E-03
41146,5.53E-03,5.91E-03
41147,5.50E-03,5.69E-03
41148,5.42E-03,5.46E-03
41149,5.35E-03,5.24E-03
41150,5.31E-03,5.01E-03
41151,5.28E-03,4.78E-03
41152,5.21E-03,4.54E-03
41153,5.26E-03,4.30E-03
41154,5.27E-03,4.06E-03
41155,5.31E-03,3.82E-03
41156,5.36E-03,3.58E-03
41157,5.44E-03,3.34E-03
41158,5.50E-03,3.10E-03
41159,5.54E-03,2.86E-03
41160,5.61E-03,2.62E-03
41161,5.56E-03,2.38E-03
41162,5.45E-03,2.14E-03
41163,5.41E-03,1.92E-03
41164,5.37E-03,1.71E-03
41165,5.32E-03,1.53E-03
41166,5.30E-03,1.38E-03
41167,5.30E-03,1.27E-03
41168,5.32E-03,1.21E-03
41169,5.39E-03,1.22E-03
41170,5.41E-03,1.30E-03
41171,5.39E-03,1.43E-03
41172,5.89E-03,1.02E-02
41173,6.07E-03,9.02E-03
41174,5.89E-03,9.48E-03
41175,6.01E-03,9.94E-03
41176,6.06E-03,1.03E-02
41177,6.10E-03,1.07E-02
41178,6.11E-03,1.10E-02
41179,6.02E-03,1.11E-02
41180,6.04E-03,1.12E-02
41181,6.06E-03,1.13E-02
41182,6.09E-03,1.13E-02
41183,5.95E-03,1.13E-02
41184,5.83E-03,1.13E-02
41185,5.81E-03,1.12E-02
41186,5.87E-03,1.12E-02
41187,5.89E-03,1.11E-02
41188,5.88E-03,1.10E-02
41189,5.88E-03,1.09E-02
41190,5.89E-03,1.08E-02
41191,5.84E-03,1.07E-02
41192,5.84E-03,1.06E-02
41193,5.92E-03,1.05E-02
41194,5.98E-03,1.04E-02
41195,5.99E-03,1.03E-02
41196,5.92E-03,1.02E-02
41197,5.87E-03,1.01E-02
41198,5.84E-03,9.94E-03
41199,5.76E-03,9.83E-03
41200,5.73E-03,9.72E-03
41201,5.65E-03,9.61E-03
41202,5.66E-03,9.50E-03
41203,5.52E-03,9.40E-03
41204,5.53E-03,9.30E-03
41205,5.45E-03,9.21E-03
41206,5.41E-03,9.12E-03
41207,5.33E-03,9.04E-03
41208,5.29E-03,8.96E-03
41209,5.22E-03,8.88E-03
41210,5.25E-03,8.80E-03
41211,5.31E-03,8.72E-03
41212,5.40E-03,8.64E-03
41213,5.56E-03,8.56E-03
41214,5.67E-03,8.48E-03
41215,5.85E-03,8.40E-03
41216,5.92E-03,8.32E-03
41217,6.04E-03,8.24E-03
41218,6.14E-03,8.15E-03
41219,6.21E-03,8.07E-03
41220,6.29E-03,7.99E-03
41221,6.36E-03,7.92E-03
41222,6.37E-03,7.86E-03
41223,6.31E-03,7.80E-03
41224,6.23E-03,7.76E-03
41225,6.16E-03,7.72E-03
41226,6.10E-03,7.70E-03
41227,6.00E-03,7.68E-03
41228,5.98E-03,7.66E-03
41229,5.92E-03,7.66E-03
41230,5.89E-03,7.66E-03
41231,5.81E-03,7.67E-03
41232,5.78E-03,7.68E-03
41233,5.81E-03,7.69E-03
41234,5.84E-03,7.71E-03
41235,5.88E-03,7.73E-03
41236,5.88E-03,7.76E-03
41237,5.84E-03,7.79E-03
41238,5.76E-03,7.83E-03
41239,5.64E-03,7.88E-03
41240,5.48E-03,7.94E-03
41241,5.37E-03,8.00E-03
41242,5.31E-03,8.07E-03
41243,5.30E-03,8.14E-03
41244,5.18E-03,8.21E-03
41245,4.90E-03,8.26E-03
41246,4.69E-03,8.30E-03
41247,4.79E-03,8.36E-03
41248,5.02E-03,8.41E-03
41249,5.29E-03,8.44E-03
41250,5.36E-03,8.48E-03
41251,5.39E-03,8.52E-03
41252,5.32E-03,8.57E-03
41253,5.33E-03,8.62E-03
41254,5.32E-03,8.68E-03
41255,5.43E-03,5.88E-03
41256,5.04E-03,5.78E-03
41257,5.18E-03,5.86E-03
41258,5.03E-03,4.37E-02
41259,5.10E-03,1.05E-02
41260,5.31E-03,5.88E-03
41261,4.88E-03,5.65E-03
41262,3.70E-03,5.44E-03
41263,3.68E-03,5.30E-03
41264,3.73E-03,6.48E-03
41265,4.69E-03,7.05E-03
41266,4.40E-03,6.94E-03
41267,5.33E-03,6.84E-03
41268,5.32E-03,6.74E-03
41269,5.41E-03,1.25E-04
41270,5.93E-03,9.32E-05
41271,5.96E-03,1.04E-04
41272,5.58E-03,1.81E-04
41273,5.26E-03,3.09E-04
41274,5.02E-03,4.65E-04
41275,5.16E-03,6.23E-04
41276,5.36E-03,8.36E-04
41277,5.47E-03,1.11E-03
41278,5.49E-03,1.44E-03
41279,5.66E-03,1.82E-03
41280,6.52E-03,2.25E-03
41281,6.77E-03,2.77E-03
41282,6.17E-03,3.27E-03
41283,6.01E-03,3.69E-03
41284,5.78E-03,4.10E-03
41285,5.56E-03,4.49E-03
41286,5.18E-03,4.96E-03
41287,4.81E-03,5.55E-03
41288,4.74E-03,6.24E-03
41289,5.80E-03,7.22E-03
41290,6.20E-03,8.26E-03
41291,5.65E-03,9.27E-03
41292,5.36E-03,1.03E-02
41293,6.22E-03,1.13E-02
41294,6.28E-03,1.23E-02
41295,5.93E-03,1.32E-02
41296,5.80E-03,1.41E-02
41297,5.77E-03,1.51E-02
41298,5.71E-03,1.58E-02
41299,5.68E-03,1.65E-02
41300,5.71E-03,1.73E-02
41301,5.78E-03,1.81E-02
41302,5.85E-03,1.89E-02
41303,5.61E-03,1.95E-02
41304,5.36E-03,2.01E-02
41305,5.24E-03,2.12E-02
41306,5.40E-03,2.19E-02
41307,6.05E-03,2.27E-02
41308,5.68E-03,2.34E-02
41309,5.01E-03,2.44E-02
41310,5.04E-03,2.53E-02
41311,5.16E-03,2.61E-02
41312,5.26E-03,2.69E-02
41313,5.29E-03,2.77E-02
41314,5.23E-03,2.87E-02
41315,5.32E-03,3.00E-02
41316,5.35E-03,3.15E-02
41317,5.53E-03,3.31E-02
41318,5.65E-03,3.44E-02
41319,5.65E-03,3.56E-02
41320,5.66E-03,3.72E-02
41321,5.55E-03,3.89E-02
41322,5.47E-03,4.03E-02
41323,5.43E-03,4.15E-02
41324,5.44E-03,4.26E-02
41325,5.53E-03,4.38E-02
41326,5.71E-03,4.53E-02
41327,5.80E-03,4.71E-02
41328,5.86E-03,4.95E-02
41329,6.05E-03,5.22E-02
41330,6.08E-03,5.56E-02
41331,6.02E-03,5.74E-02
41332,5.80E-03,5.66E-02
41333,5.68E-03,5.79E-02
41334,5.72E-03,6.14E-02
41335,5.83E-03,6.18E-02
41336,5.83E-03,6.09E-02
41337,5.80E-03,5.98E-02
41338,5.72E-03,5.90E-02
41339,5.70E-03,5.84E-02
41340,5.61E-03,5.79E-02
41341,5.53E-03,5.77E-02
41342,5.49E-03,5.75E-02
41343,5.44E-03,5.75E-02
41344,5.48E-03,5.75E-02
41345,5.50E-03,5.76E-02
41346,5.54E-03,5.78E-02
41347,5.58E-03,5.80E-02
41348,5.55E-03,5.83E-02
41349,5.52E-03,5.86E-02
41350,5.53E-03,5.89E-02
41351,5.54E-03,5.93E-02
41352,5.53E-03,5.98E-02
41353,5.50E-03,6.03E-02
41354,5.45E-03,6.09E-02
41355,5.43E-03,6.15E-02
41356,5.43E-03,6.22E-02
41357,5.47E-03,6.30E-02
41358,5.54E-03,6.40E-02
41359,5.54E-03,6.51E-02
41360,5.60E-03,6.64E-02
41361,5.66E-03,6.80E-02
41362,5.73E-03,7.00E-02
41363,5.80E-03,7.22E-02
41364,5.85E-03,7.44E-02
41365,5.84E-03,7.66E-02
41366,5.88E-03,7.89E-02
41367,5.94E-03,8.12E-02
41368,5.96E-03,8.33E-02
41369,5.96E-03,8.53E-02
41370,5.93E-03,8.69E-02
41371,5.90E-03,8.84E-02
41372,5.88E-03,8.96E-02
41373,5.83E-03,9.06E-02
41374,5.78E-03,9.13E-02
41375,5.79E-03,9.17E-02
41376,5.73E-03,9.19E-02
41377,5.70E-03,9.21E-02
41378,5.72E-03,9.23E-02
41379,5.69E-03,9.25E-02
41380,5.70E-03,9.25E-02
41381,5.72E-03,9.26E-02
41382,5.67E-03,9.27E-02
41383,5.63E-03,9.29E-02
41384,5.55E-03,9.31E-02
41385,5.55E-03,9.35E-02
41386,5.48E-03,9.39E-02
41387,5.49E-03,9.44E-02
41388,5.58E-03,9.51E-02
41389,5.52E-03,9.59E-02
41390,5.57E-03,9.69E-02
41391,5.54E-03,9.80E-02
41392,5.56E-03,9.92E-02
41393,5.57E-03,0.10059
41394,5.60E-03,0.10197
41395,5.65E-03,0.10325
41396,5.68E-03,0.10447
41397,5.72E-03,0.10568
41398,5.65E-03,0.10688
41399,5.62E-03,0.10798
41400,5.65E-03,0.10904
41401,5.62E-03,0.1101
41402,5.58E-03,0.11116
41403,5.54E-03,0.11224
41404,5.62E-03,0.11339
41405,5.62E-03,0.1145
41406,5.67E-03,0.11553
41407,5.70E-03,0.11655
41408,5.66E-03,0.11773
41409,5.67E-03,0.11916
41410,5.67E-03,0.12065
41411,5.69E-03,0.12209
41412,5.70E-03,0.12341
41413,5.75E-03,0.12469
41414,5.80E-03,0.12599
41415,5.78E-03,0.12725
41416,5.75E-03,0.12824
41417,5.65E-03,0.12888
41418,5.62E-03,0.12919
41419,5.59E-03,0.12941
41420,5.55E-03,0.12964
41421,5.58E-03,0.13014
41422,5.58E-03,0.13082
41423,5.58E-03,0.1316
41424,5.63E-03,0.13241
41425,5.66E-03,0.13332
41426,5.73E-03,0.13464
41427,5.75E-03,0.13668
41428,5.81E-03,0.13933
41429,5.83E-03,0.14141
41430,5.92E-03,0.1425
41431,5.88E-03,0.14299
41432,5.88E-03,0.14353
41433,5.83E-03,0.14408
41434,5.74E-03,0.14406
41435,5.72E-03,0.14284
41436,5.67E-03,0.14118
41437,5.58E-03,0.14083
41438,5.54E-03,0.14011
41439,5.48E-03,0.13775
41440,5.33E-03,0.13495
41441,5.24E-03,0.13231
41442,5.14E-03,0.13055
41443,5.12E-03,0.13011
41444,5.07E-03,0.12922
41445,5.16E-03,0.12788
41446,5.21E-03,0.12798
41447,5.29E-03,0.13002
41448,5.39E-03,0.13328
41449,5.46E-03,0.13726
41450,5.57E-03,0.14181
41451,5.60E-03,0.14645
41452,5.65E-03,0.15067
41453,5.69E-03,0.15433
41454,5.76E-03,0.15815
41455,5.80E-03,0.16194
41456,5.80E-03,0.1649
41457,5.78E-03,0.16698
41458,5.74E-03,0.16845
41459,5.67E-03,0.16947
41460,5.61E-03,0.16978
41461,5.58E-03,0.16936
41462,5.56E-03,0.16999
41463,5.56E-03,0.17176
41464,5.56E-03,0.17236
41465,5.55E-03,0.17198
41466,5.50E-03,0.17215
41467,5.45E-03,0.1729
41468,5.41E-03,0.17351
41469,5.39E-03,0.17369
41470,5.33E-03,0.17482
41471,5.34E-03,0.17736
41472,5.37E-03,0.1791
41473,5.45E-03,0.18054
41474,5.52E-03,0.18396
41475,5.60E-03,0.18968
41476,5.72E-03,0.19695
41477,5.77E-03,0.20466
41478,5.83E-03,0.21233
41479,5.78E-03,0.21931
41480,5.72E-03,0.22513
41481,5.63E-03,0.23027
41482,5.58E-03,0.23562
41483,5.63E-03,0.24266
41484,5.65E-03,0.24993
41485,5.67E-03,0.25464
41486,5.72E-03,0.25699
41487,5.74E-03,0.2595
41488,5.77E-03,0.26294
41489,5.82E-03,0.26677
41490,5.88E-03,0.27353
41491,6.01E-03,0.28051
41492,6.23E-03,0.28253
41493,6.40E-03,0.28857
41494,6.30E-03,0.29659
41495,5.67E-03,0.30638
41496,5.39E-03,0.31101
41497,6.09E-03,0.31679
41498,5.87E-03,0.33739
41499,5.73E-03,5.50E-03
41500,5.90E-03,5.57E-03
41501,5.91E-03,5.71E-03
41502,5.85E-03,5.81E-03
41503,5.82E-03,5.84E-03
41504,5.61E-03,5.86E-03
41505,5.39E-03,5.86E-03
41506,5.28E-03,5.89E-03
41507,5.27E-03,5.94E-03
41508,5.29E-03,5.90E-03
41509,5.30E-03,5.82E-03
41510,5.38E-03,5.81E-03
41511,5.46E-03,5.82E-03
41512,5.45E-03,5.80E-03
41513,5.46E-03,5.78E-03
41514,5.45E-03,5.77E-03
41515,5.39E-03,5.75E-03
41516,5.34E-03,5.71E-03
41517,5.32E-03,5.66E-03
41518,5.32E-03,5.66E-03
41519,5.30E-03,5.66E-03
41520,5.40E-03,5.64E-03
41521,5.44E-03,5.63E-03
41522,5.49E-03,5.64E-03
41523,5.57E-03,5.66E-03
41524,5.65E-03,5.66E-03
41525,5.71E-03,5.66E-03
41526,5.69E-03,5.64E-03
41527,5.65E-03,5.57E-03
41528,5.62E-03,5.45E-03
41529,5.62E-03,5.34E-03
41530,5.58E-03,5.24E-03
41531,5.51E-03,5.09E-03
41532,5.42E-03,4.91E-03
41533,5.31E-03,4.73E-03
41534,5.28E-03,4.57E-03
41535,5.27E-03,4.47E-03
41536,5.31E-03,4.38E-03
41537,5.34E-03,4.27E-03
41538,5.45E-03,4.16E-03
41539,5.50E-03,4.08E-03
41540,5.57E-03,4.03E-03
41541,5.58E-03,3.98E-03
41542,5.55E-03,3.90E-03
41543,5.52E-03,3.80E-03
41544,5.39E-03,3.67E-03
41545,5.31E-03,3.52E-03
41546,5.28E-03,3.36E-03
41547,5.32E-03,3.20E-03
41548,5.35E-03,3.03E-03
41549,5.41E-03,2.84E-03
41550,5.46E-03,2.67E-03
41551,5.44E-03,2.52E-03
41552,5.44E-03,2.38E-03
41553,5.45E-03,2.26E-03
41554,5.41E-03,2.13E-03
41555,5.34E-03,2.01E-03
41556,5.39E-03,1.89E-03
41557,5.48E-03,1.76E-03
41558,5.55E-03,1.64E-03
41559,5.59E-03,1.52E-03
41560,5.63E-03,1.40E-03
41561,5.68E-03,1.27E-03
41562,5.71E-03,1.13E-03
41563,5.66E-03,9.98E-04
41564,5.54E-03,8.67E-04
41565,5.50E-03,7.40E-04
41566,5.47E-03,6.18E-04
41567,5.31E-03,5.07E-04
41568,4.95E-03,4.21E-04
41569,4.76E-03,3.59E-04
41570,4.73E-03,2.86E-04
41571,4.98E-03,2.24E-04
41572,5.33E-03,1.86E-04
41573,5.43E-03,1.56E-04
41574,5.60E-03,1.22E-04
41575,5.67E-03,9.24E-05
41576,5.85E-03,7.65E-05
41577,5.91E-03,7.95E-05
41578,5.91E-03,9.62E-05
41579,5.41E-03,1.24E-04
41580,5.79E-03,8.11E-03
41581,5.91E-03,6.13E-03
41582,5.13E-03,1.55E-04
41583,5.51E-03,0.42222
41584,5.59E-03,0.36957
41585,3.56E-03,6.33E-03
41586,5.48E-03,6.06E-03
41587,5.98E-03,5.27E-03
41588,4.88E-03,1.11E-02
41589,4.74E-03,1.09E-02
41590,5.51E-03,1.02E-02
41591,5.17E-03,9.51E-03
41592,5.79E-03,9.75E-03
41593,5.36E-03,1.98E-02
41594,5.09E-03,2.05E-02
41595,5.33E-03,2.35E-02
41596,5.03E-03,2.34E-02
41597,5.31E-03,1.97E-02
41598,3.83E-03,4.11E-02
41599,3.87E-03,4.22E-02
41600,5.28E-03,4.36E-02
41601,4.90E-03,4.05E-02
41602,4.91E-03,4.02E-02
41603,5.40E-03,3.92E-03
41604,5.47E-03,3.24E-03
41605,5.42E-03,2.75E-03
41606,5.51E-03,2.10E-03
41607,5.17E-03,2.43E-03
41608,5.39E-03,8.81E-02
41609,4.96E-03,0.11461
41610,4.95E-03,0.12548
41611,4.66E-03,0.12531
41612,5.09E-03,0.11031
41613,5.78E-03,4.98E-02
41614,5.95E-03,4.73E-02
41615,5.59E-03,3.82E-02
41616,5.67E-03,9.29E-03
41617,5.71E-03,8.70E-03
41618,5.92E-03,1.07E-02
41619,5.71E-03,9.99E-03
41620,5.60E-03,1.41E-02
41621,5.82E-03,1.31E-02
41622,5.43E-03,1.59E-02
41623,5.49E-03,1.50E-02
41624,5.54E-03,1.81E-02
41625,5.48E-03,1.70E-02
41626,5.62E-03,2.08E-02
41627,5.62E-03,1.94E-02
41628,5.68E-03,2.41E-02
41629,5.67E-03,2.24E-02
41630,5.71E-03,2.71E-02
41631,5.70E-03,2.57E-02
41632,5.94E-03,2.86E-02
41633,5.81E-03,2.80E-02
41634,6.01E-03,2.97E-02
41635,5.98E-03,2.90E-02
41636,5.88E-03,3.16E-02
41637,6.00E-03,3.06E-02
41638,5.86E-03,3.28E-02
41639,5.88E-03,3.23E-02
41640,5.89E-03,3.31E-02
41641,5.87E-03,3.30E-02
41642,5.89E-03,3.36E-02
41643,5.89E-03,3.33E-02
41644,5.77E-03,3.48E-02
41645,5.80E-03,3.42E-02
41646,5.67E-03,3.66E-02
41647,5.68E-03,3.57E-02
41648,5.61E-03,3.77E-02
41649,5.62E-03,3.74E-02
41650,5.69E-03,3.85E-02
41651,5.70E-03,3.80E-02
41652,5.61E-03,4.15E-02
41653,5.65E-03,3.96E-02
41654,5.55E-03,4.52E-02
41655,5.52E-03,4.35E-02
41656,5.48E-03,4.86E-02
41657,5.56E-03,4.69E-02
41658,5.55E-03,4.99E-02
41659,5.52E-03,5.01E-02
41660,5.90E-03,4.60E-02
41661,5.70E-03,4.81E-02
41662,6.02E-03,4.22E-02
41663,5.96E-03,4.39E-02
41664,5.91E-03,3.93E-02
41665,5.96E-03,4.07E-02
41666,5.80E-03,3.68E-02
41667,5.80E-03,3.80E-02
41668,5.67E-03,3.45E-02
41669,5.69E-03,3.57E-02
41670,5.60E-03,3.25E-02
41671,5.67E-03,3.34E-02
41672,5.47E-03,3.19E-02
41673,5.53E-03,3.19E-02
41674,5.42E-03,3.32E-02
41675,5.45E-03,3.24E-02
41676,5.37E-03,3.46E-02
41677,5.42E-03,3.40E-02
41678,5.52E-03,3.31E-02
41679,5.43E-03,3.44E-02
41680,5.85E-03,2.84E-02
41681,5.71E-03,3.10E-02
41682,5.68E-03,2.34E-02
41683,5.83E-03,2.58E-02
41684,4.52E-03,2.01E-02
41685,5.02E-03,2.14E-02
41686,4.60E-03,2.03E-02
41687,4.12E-03,1.94E-02
41688,5.07E-03,2.40E-02
41689,4.89E-03,2.21E-02
41690,5.22E-03,2.72E-02
41691,5.19E-03,2.58E-02
41692,5.41E-03,2.83E-02
41693,5.29E-03,2.80E-02
41694,5.44E-03,2.97E-02
41695,5.47E-03,2.87E-02
41696,5.28E-03,3.46E-02
41697,5.37E-03,3.17E-02
41698,5.20E-03,4.25E-02
41699,5.21E-03,3.82E-02
41700,5.31E-03,5.17E-02
41701,5.25E-03,4.70E-02
41702,5.50E-03,5.86E-02
41703,5.34E-03,5.57E-02
41704,5.75E-03,6.22E-02
41705,5.67E-03,6.06E-02
41706,5.81E-03,6.48E-02
41707,5.82E-03,6.37E-02
41708,5.83E-03,6.34E-02
41709,5.75E-03,6.45E-02
41710,5.90E-03,6.16E-02
41711,5.86E-03,6.22E-02
41712,5.66E-03,6.45E-02
41713,5.84E-03,6.24E-02
41714,5.58E-03,6.97E-02
41715,5.55E-03,6.74E-02
41716,5.70E-03,7.02E-02
41717,5.58E-03,7.04E-02
41718,5.78E-03,6.99E-02
41719,5.76E-03,7.00E-02
41720,5.77E-03,7.02E-02
41721,5.79E-03,7.00E-02
41722,5.60E-03,7.03E-02
41723,5.69E-03,7.04E-02
41724,5.63E-03,6.62E-02
41725,5.59E-03,6.89E-02
41726,5.71E-03,6.09E-02
41727,5.70E-03,6.32E-02
41728,5.59E-03,5.96E-02
41729,5.69E-03,5.97E-02
41730,5.44E-03,6.00E-02
41731,5.49E-03,5.98E-02
41732,5.49E-03,5.98E-02
41733,5.44E-03,6.00E-02
41734,5.52E-03,5.88E-02
41735,5.51E-03,5.94E-02
41736,5.47E-03,5.70E-02
41737,5.48E-03,5.80E-02
41738,5.49E-03,5.66E-02
41739,5.50E-03,5.63E-02
41740,5.42E-03,5.98E-02
41741,5.40E-03,5.80E-02
41742,5.43E-03,6.13E-02
41743,5.40E-03,1.63E-03
41744,5.42E-03,1.60E-03
41745,5.34E-03,8.76E-03
41746,5.31E-03,8.82E-03
41747,5.21E-03,5.38E-03
41748,5.18E-03,5.43E-03
41749,6.38E-03,6.50E-03
41750,5.27E-03,5.53E-03
41751,5.28E-03,5.39E-03
41752,5.37E-03,8.65E-03
41753,5.32E-03,8.70E-03
41754,5.29E-03,8.57E-03
41755,5.38E-03,8.61E-03
41756,5.15E-03,8.48E-03
41757,5.21E-03,8.53E-03
41758,5.19E-03,8.38E-03
41759,5.14E-03,8.44E-03
41760,5.22E-03,8.26E-03
41761,5.21E-03,8.33E-03
41762,5.27E-03,8.13E-03
41763,5.16E-03,8.19E-03
41764,5.51E-03,8.01E-03
41765,5.40E-03,8.06E-03
41766,5.73E-03,7.92E-03
41767,5.62E-03,7.96E-03
41768,5.78E-03,7.87E-03
41769,5.75E-03,7.89E-03
41770,5.74E-03,7.82E-03
41771,5.76E-03,7.84E-03
41772,5.66E-03,7.80E-03
41773,5.70E-03,7.81E-03
41774,5.74E-03,7.78E-03
41775,5.71E-03,7.79E-03
41776,5.80E-03,7.80E-03
41777,5.81E-03,7.79E-03
41778,5.87E-03,7.83E-03
41779,5.82E-03,7.81E-03
41780,5.96E-03,7.90E-03
41781,5.87E-03,7.86E-03
41782,6.03E-03,8.00E-03
41783,6.01E-03,7.94E-03
41784,6.03E-03,8.13E-03
41785,6.05E-03,8.06E-03
41786,5.98E-03,8.28E-03
41787,5.99E-03,8.20E-03
41788,5.87E-03,8.43E-03
41789,5.92E-03,8.35E-03
41790,5.67E-03,8.58E-03
41791,5.72E-03,8.51E-03
41792,5.42E-03,8.73E-03
41793,5.49E-03,8.66E-03
41794,5.35E-03,8.88E-03
41795,5.35E-03,8.81E-03
41796,5.40E-03,9.04E-03
41797,5.37E-03,8.96E-03
41798,5.44E-03,9.20E-03
41799,5.43E-03,9.12E-03
41800,5.49E-03,9.38E-03
41801,5.49E-03,9.29E-03
41802,5.55E-03,9.58E-03
41803,5.54E-03,9.48E-03
41804,5.65E-03,9.78E-03
41805,5.63E-03,9.67E-03
41806,5.79E-03,9.98E-03
41807,5.72E-03,9.88E-03
41808,5.82E-03,1.02E-02
41809,5.80E-03,1.01E-02
41810,5.77E-03,1.04E-02
41811,5.81E-03,1.03E-02
41812,5.72E-03,1.06E-02
41813,5.73E-03,1.05E-02
41814,5.72E-03,1.07E-02
41815,5.73E-03,1.07E-02
41816,5.76E-03,1.09E-02
41817,5.75E-03,1.08E-02
41818,5.71E-03,1.10E-02
41819,5.76E-03,1.09E-02
41820,5.81E-03,1.10E-02
41821,5.75E-03,1.10E-02
41822,5.82E-03,1.10E-02
41823,5.85E-03,1.10E-02
41824,5.82E-03,1.08E-02
41825,5.86E-03,1.09E-02
41826,5.84E-03,1.03E-02
41827,5.80E-03,1.06E-02
41828,5.82E-03,9.67E-03
41829,5.81E-03,1.00E-02
41830,6.48E-03,8.79E-03
41831,5.89E-03,9.28E-03
41832,5.69E-03,7.84E-03
41833,6.41E-03,8.33E-03
41834,5.32E-03,6.89E-03
41835,5.44E-03,7.38E-03
41836,5.24E-03,5.96E-03
41837,5.22E-03,6.42E-03
41838,5.40E-03,1.19E-03
41839,5.39E-03,1.39E-03
41840,5.39E-03,1.26E-03
41841,5.33E-03,1.24E-03
41842,5.36E-03,1.18E-03
41843,5.35E-03,1.52E-03
41844,5.30E-03,1.36E-03
41845,5.38E-03,1.92E-03
41846,5.35E-03,1.71E-03
41847,5.54E-03,2.38E-03
41848,5.45E-03,2.15E-03
41849,5.54E-03,2.87E-03
41850,5.51E-03,2.63E-03
41851,5.46E-03,3.35E-03
41852,5.48E-03,3.11E-03
41853,5.28E-03,3.83E-03
41854,5.38E-03,3.59E-03
41855,5.25E-03,4.32E-03
41856,5.25E-03,4.08E-03
41857,5.29E-03,4.80E-03
41858,5.23E-03,4.56E-03
41859,5.36E-03,5.27E-03
41860,5.37E-03,5.03E-03
41861,5.47E-03,5.72E-03
41862,5.39E-03,5.49E-03
41863,5.51E-03,6.16E-03
41864,5.51E-03,5.94E-03
41865,5.52E-03,6.58E-03
41866,5.51E-03,6.37E-03
41867,5.53E-03,6.99E-03
41868,5.52E-03,6.78E-03
41869,5.52E-03,7.38E-03
41870,5.52E-03,7.18E-03
41871,5.47E-03,7.75E-03
41872,5.47E-03,7.56E-03
41873,5.45E-03,8.10E-03
41874,5.43E-03,7.93E-03
41875,5.40E-03,8.43E-03
41876,5.45E-03,8.27E-03
41877,5.34E-03,8.74E-03
41878,5.42E-03,8.59E-03
41879,5.50E-03,1.71E-03
41880,5.43E-03,1.67E-03
41881,5.58E-03,1.80E-03
41882,5.56E-03,1.75E-03
41883,5.67E-03,1.89E-03
41884,5.66E-03,1.84E-03
41885,5.66E-03,2.00E-03
41886,5.64E-03,1.94E-03
41887,5.64E-03,2.11E-03
41888,5.64E-03,2.05E-03
41889,5.55E-03,2.23E-03
41890,5.59E-03,2.17E-03
41891,5.56E-03,2.37E-03
41892,5.56E-03,2.30E-03
41893,5.65E-03,2.50E-03
41894,5.62E-03,2.44E-03
41895,5.62E-03,2.65E-03
41896,5.68E-03,2.58E-03
41897,5.61E-03,2.81E-03
41898,5.58E-03,2.73E-03
41899,5.54E-03,2.97E-03
41900,5.56E-03,2.89E-03
41901,5.62E-03,3.14E-03
41902,5.60E-03,3.06E-03
41903,5.58E-03,3.33E-03
41904,5.63E-03,3.24E-03
41905,5.59E-03,3.53E-03
41906,5.57E-03,3.43E-03
41907,5.54E-03,3.73E-03
41908,5.58E-03,3.63E-03
41909,5.54E-03,3.95E-03
41910,5.56E-03,3.84E-03
41911,5.54E-03,4.18E-03
41912,5.49E-03,4.06E-03
41913,5.62E-03,4.41E-03
41914,5.57E-03,4.30E-03
41915,5.64E-03,4.67E-03
41916,5.67E-03,4.54E-03
41917,5.64E-03,4.93E-03
41918,5.64E-03,4.79E-03
41919,5.73E-03,5.19E-03
41920,5.64E-03,5.06E-03
41921,5.72E-03,5.48E-03
41922,5.76E-03,5.33E-03
41923,5.71E-03,5.78E-03
41924,5.73E-03,5.62E-03
41925,5.58E-03,6.09E-03
41926,5.63E-03,5.93E-03
41927,5.59E-03,6.42E-03
41928,5.58E-03,6.26E-03
41929,5.62E-03,6.77E-03
41930,5.59E-03,6.59E-03
41931,5.63E-03,7.12E-03
41932,5.63E-03,6.94E-03
41933,5.65E-03,7.50E-03
41934,5.66E-03,7.31E-03
41935,5.65E-03,7.90E-03
41936,5.62E-03,7.70E-03
41937,5.64E-03,8.33E-03
41938,5.66E-03,8.11E-03
41939,5.66E-03,8.77E-03
41940,5.61E-03,8.55E-03
41941,5.69E-03,9.24E-03
41942,5.67E-03,9.00E-03
41943,5.68E-03,9.73E-03
41944,5.67E-03,9.48E-03
41945,5.70E-03,1.02E-02
41946,5.71E-03,9.98E-03
41947,5.72E-03,1.07E-02
41948,5.64E-03,1.05E-02
41949,5.69E-03,1.13E-02
41950,5.72E-03,1.10E-02
41951,5.62E-03,1.18E-02
41952,5.65E-03,1.16E-02
41953,5.65E-03,1.24E-02
41954,5.66E-03,1.21E-02
41955,5.79E-03,1.30E-02
41956,5.69E-03,1.27E-02
41957,5.74E-03,1.36E-02
41958,5.76E-03,1.33E-02
41959,5.70E-03,1.42E-02
41960,5.72E-03,1.39E-02
41961,5.60E-03,1.48E-02
41962,5.64E-03,1.45E-02
41963,5.65E-03,1.54E-02
41964,5.61E-03,1.51E-02
41965,5.73E-03,1.61E-02
41966,5.69E-03,1.58E-02
41967,5.76E-03,1.68E-02
41968,5.73E-03,1.64E-02
41969,5.71E-03,1.74E-02
41970,5.72E-03,1.71E-02
41971,5.68E-03,1.81E-02
41972,5.68E-03,1.78E-02
41973,5.62E-03,1.88E-02
41974,5.63E-03,1.85E-02
41975,5.58E-03,1.95E-02
41976,5.60E-03,1.91E-02
41977,5.58E-03,2.02E-02
41978,5.59E-03,1.98E-02
41979,5.65E-03,2.09E-02
41980,5.61E-03,2.06E-02
41981,5.62E-03,2.16E-02
41982,5.63E-03,2.13E-02
41983,5.59E-03,2.24E-02
41984,5.60E-03,2.20E-02
41985,5.59E-03,2.31E-02
41986,5.58E-03,2.27E-02
41987,5.63E-03,2.38E-02
41988,5.63E-03,2.35E-02
41989,5.69E-03,2.46E-02
41990,5.72E-03,2.42E-02
41991,5.64E-03,2.54E-02
41992,5.67E-03,2.50E-02
41993,5.66E-03,2.61E-02
41994,5.60E-03,2.57E-02
41995,5.71E-03,2.69E-02
41996,5.67E-03,2.65E-02
41997,5.74E-03,2.76E-02
41998,5.74E-03,2.72E-02
41999,5.72E-03,2.84E-02
42000,5.76E-03,2.80E-02
42001,5.73E-03,2.91E-02
42002,5.71E-03,2.88E-02
42003,5.67E-03,2.99E-02
42004,5.67E-03,2.95E-02
42005,5.64E-03,3.06E-02
42006,5.63E-03,3.03E-02
42007,5.70E-03,3.13E-02
42008,5.66E-03,3.10E-02
42009,5.76E-03,3.20E-02
42010,5.76E-03,3.17E-02
42011,5.78E-03,3.26E-02
42012,5.78E-03,3.23E-02
42013,5.71E-03,3.32E-02
42014,5.72E-03,3.29E-02
42015,5.80E-03,3.38E-02
42016,5.75E-03,3.35E-02
42017,5.77E-03,3.43E-02
42018,5.82E-03,3.40E-02
42019,5.70E-03,3.47E-02
42020,5.73E-03,3.45E-02
42021,5.73E-03,3.51E-02
42022,5.75E-03,3.49E-02
42023,5.65E-03,3.55E-02
42024,5.64E-03,3.53E-02
42025,5.58E-03,3.58E-02
42026,5.57E-03,3.57E-02
42027,5.48E-03,3.62E-02
42028,5.53E-03,3.60E-02
42029,5.39E-03,3.65E-02
42030,5.44E-03,3.64E-02
42031,5.29E-03,3.69E-02
42032,5.33E-03,3.67E-02
42033,5.46E-03,3.72E-02
42034,5.30E-03,3.70E-02
42035,5.90E-03,3.74E-02
42036,5.69E-03,3.73E-02
42037,6.10E-03,3.75E-02
42038,6.03E-03,3.75E-02
42039,6.06E-03,3.71E-02
42040,6.20E-03,3.74E-02
42041,5.70E-03,3.64E-02
42042,5.79E-03,3.68E-02
42043,5.65E-03,3.52E-02
42044,5.56E-03,3.58E-02
42045,5.91E-03,3.38E-02
42046,5.74E-03,3.45E-02
42047,6.00E-03,3.24E-02
42048,5.94E-03,3.31E-02
42049,5.92E-03,3.08E-02
42050,5.98E-03,3.16E-02
42051,5.74E-03,2.90E-02
42052,5.84E-03,2.99E-02
42053,5.43E-03,2.71E-02
42054,5.61E-03,2.80E-02
42055,5.00E-03,2.52E-02
42056,5.21E-03,2.61E-02
42057,4.91E-03,2.36E-02
42058,4.93E-03,2.44E-02
42059,5.11E-03,2.20E-02
42060,5.03E-03,2.28E-02
42061,6.30E-03,2.06E-02
42062,5.33E-03,2.13E-02
42063,6.16E-03,1.89E-02
42064,6.65E-03,1.98E-02
42065,5.92E-03,1.73E-02
42066,6.05E-03,1.81E-02
42067,5.85E-03,1.59E-02
42068,5.86E-03,1.66E-02
42069,5.81E-03,1.45E-02
42070,5.84E-03,1.52E-02
42071,5.62E-03,1.31E-02
42072,5.87E-03,1.38E-02
42073,5.45E-03,1.16E-02
42074,5.33E-03,1.25E-02
42075,5.78E-03,1.07E-02
42076,5.52E-03,1.12E-02
42077,5.72E-03,9.76E-03
42078,5.81E-03,1.03E-02
42079,5.59E-03,8.73E-03
42080,5.70E-03,9.27E-03
42081,5.59E-03,7.83E-03
42082,5.56E-03,8.26E-03
42083,5.53E-03,7.08E-03
42084,5.55E-03,7.45E-03
42085,5.45E-03,6.46E-03
42086,5.50E-03,6.76E-03
42087,5.46E-03,5.93E-03
42088,5.43E-03,6.19E-03
42089,5.88E-03,5.45E-03
42090,5.63E-03,5.67E-03
42091,6.11E-03,5.18E-03
42092,6.07E-03,5.31E-03
42093,5.95E-03,5.03E-03
42094,6.09E-03,5.09E-03
42095,5.82E-03,4.99E-03
42096,5.87E-03,5.00E-03
42097,5.79E-03,4.99E-03
42098,5.76E-03,4.99E-03
42099,5.80E-03,5.03E-03
42100,5.80E-03,5.01E-03
42101,5.76E-03,5.08E-03
42102,5.79E-03,5.05E-03
42103,5.78E-03,5.14E-03
42104,5.80E-03,5.11E-03
42105,5.80E-03,5.21E-03
42106,5.76E-03,5.17E-03
42107,5.81E-03,5.28E-03
42108,5.79E-03,5.24E-03
42109,5.85E-03,5.35E-03
42110,5.86E-03,5.32E-03
42111,5.85E-03,5.42E-03
42112,5.84E-03,5.38E-03
42113,5.79E-03,5.50E-03
42114,5.87E-03,5.46E-03
42115,5.71E-03,5.59E-03
42116,5.75E-03,5.54E-03
42117,5.68E-03,5.68E-03
42118,5.68E-03,5.63E-03
42119,5.68E-03,5.78E-03
42120,5.68E-03,5.73E-03
42121,5.80E-03,5.89E-03
42122,5.78E-03,5.84E-03
42123,5.84E-03,5.99E-03
42124,5.84E-03,5.94E-03
42125,5.81E-03,6.09E-03
42126,5.79E-03,6.04E-03
42127,5.74E-03,6.17E-03
42128,5.76E-03,6.13E-03
42129,5.71E-03,6.24E-03
42130,5.71E-03,6.21E-03
42131,5.76E-03,6.31E-03
42132,5.72E-03,6.27E-03
42133,5.79E-03,6.39E-03
42134,5.81E-03,6.35E-03
42135,5.82E-03,6.48E-03
42136,5.82E-03,6.43E-03
42137,5.72E-03,6.57E-03
42138,5.75E-03,6.52E-03
42139,5.69E-03,6.66E-03
42140,5.66E-03,6.62E-03
42141,5.64E-03,6.75E-03
42142,5.63E-03,6.71E-03
42143,5.67E-03,6.83E-03
42144,5.68E-03,6.79E-03
42145,5.66E-03,6.90E-03
42146,5.64E-03,6.86E-03
42147,5.61E-03,6.97E-03
42148,5.63E-03,6.93E-03
42149,5.67E-03,7.04E-03
42150,5.60E-03,7.00E-03
42151,5.68E-03,7.11E-03
42152,5.69E-03,7.07E-03
42153,5.69E-03,7.19E-03
42154,5.69E-03,7.15E-03
42155,5.67E-03,7.29E-03
42156,5.64E-03,7.24E-03
42157,5.66E-03,7.39E-03
42158,5.66E-03,7.34E-03
42159,5.62E-03,7.49E-03
42160,5.65E-03,7.44E-03
42161,5.61E-03,7.58E-03
42162,5.61E-03,7.54E-03
42163,5.58E-03,7.66E-03
42164,5.60E-03,7.62E-03
42165,5.52E-03,7.72E-03
42166,5.57E-03,7.69E-03
42167,5.30E-03,7.76E-03
42168,5.41E-03,7.74E-03
42169,5.38E-03,7.78E-03
42170,5.17E-03,7.78E-03
42171,4.17E-03,1.83E-04
42172,5.55E-03,1.99E-04
42173,5.36E-03,1.92E-04
42174,5.61E-03,2.09E-04
42175,5.61E-03,2.10E-04
42176,5.29E-03,2.44E-04
42177,5.39E-03,1.98E-04
42178,5.51E-03,5.18E-04
42179,5.37E-03,3.53E-04
42180,5.48E-03,1.05E-03
42181,5.48E-03,7.45E-04
42182,5.90E-03,1.83E-03
42183,5.62E-03,1.42E-03
42184,6.06E-03,2.64E-03
42185,6.17E-03,2.18E-03
42186,5.58E-03,3.55E-03
42187,5.85E-03,3.08E-03
42188,5.20E-03,4.31E-03
42189,5.59E-03,4.01E-03
42190,5.22E-03,5.35E-03
42191,5.12E-03,4.68E-03
42192,5.57E-03,7.55E-03
42193,5.17E-03,6.37E-03
42194,5.59E-03,1.07E-02
42195,5.33E-03,9.10E-03
42196,5.78E-03,1.24E-02
42197,5.62E-03,1.18E-02
42198,5.74E-03,1.40E-02
42199,5.79E-03,1.32E-02
42200,5.63E-03,1.58E-02
42201,5.67E-03,1.49E-02
42202,5.61E-03,1.78E-02
42203,5.61E-03,1.69E-02
42204,5.65E-03,1.89E-02
42205,5.64E-03,1.84E-02
42206,5.48E-03,2.02E-02
42207,5.60E-03,1.95E-02
42208,5.56E-03,2.18E-02
42209,5.44E-03,2.09E-02
42210,5.47E-03,2.34E-02
42211,5.51E-03,2.26E-02
42212,5.17E-03,2.55E-02
42213,5.29E-03,2.44E-02
42214,5.24E-03,2.72E-02
42215,5.18E-03,2.65E-02
42216,5.31E-03,2.81E-02
42217,5.28E-03,2.77E-02
42218,5.53E-03,2.99E-02
42219,5.44E-03,2.87E-02
42220,5.48E-03,3.47E-02
42221,5.49E-03,3.20E-02
42222,5.39E-03,3.98E-02
42223,5.51E-03,3.76E-02
42224,5.42E-03,4.19E-02
42225,5.40E-03,4.11E-02
42226,5.48E-03,4.29E-02
42227,5.44E-03,4.25E-02
42228,5.70E-03,4.44E-02
42229,5.56E-03,4.35E-02
42230,5.91E-03,4.80E-02
42231,5.77E-03,4.58E-02
42232,5.89E-03,5.62E-02
42233,5.96E-03,5.13E-02
42234,5.22E-03,6.80E-02
42235,5.65E-03,6.30E-02
42236,5.50E-03,6.90E-02
42237,5.19E-03,7.03E-02
42238,5.79E-03,6.25E-02
42239,5.71E-03,6.51E-02
42240,5.72E-03,5.95E-02
42241,5.75E-03,6.07E-02
42242,5.63E-03,5.82E-02
42243,5.68E-03,5.87E-02
42244,5.50E-03,5.77E-02
42245,5.55E-03,5.79E-02
42246,5.45E-03,5.77E-02
42247,5.44E-03,5.76E-02
42248,5.52E-03,5.79E-02
42249,5.51E-03,5.77E-02
42250,5.53E-03,5.83E-02
42251,5.53E-03,5.81E-02
42252,5.52E-03,5.90E-02
42253,5.55E-03,5.86E-02
42254,5.48E-03,5.97E-02
42255,5.49E-03,5.93E-02
42256,5.48E-03,6.07E-02
42257,5.50E-03,6.02E-02
42258,5.48E-03,6.18E-02
42259,5.46E-03,6.12E-02
42260,5.50E-03,6.33E-02
42261,5.50E-03,6.25E-02
42262,5.62E-03,6.55E-02
42263,5.56E-03,6.43E-02
42264,5.73E-03,6.88E-02
42265,5.66E-03,6.69E-02
42266,5.81E-03,7.47E-02
42267,5.82E-03,7.14E-02
42268,5.78E-03,8.23E-02
42269,5.79E-03,7.85E-02
42270,5.86E-03,8.88E-02
42271,5.84E-03,8.58E-02
42272,5.82E-03,9.28E-02
42273,5.83E-03,9.11E-02
42274,5.83E-03,9.48E-02
42275,5.86E-03,9.40E-02
42276,5.74E-03,9.59E-02
42277,5.79E-03,9.54E-02
42278,5.76E-03,9.63E-02
42279,5.73E-03,9.63E-02
42280,5.68E-03,9.54E-02
42281,5.74E-03,9.60E-02
42282,5.69E-03,9.42E-02
42283,5.61E-03,9.47E-02
42284,5.69E-03,9.43E-02
42285,5.71E-03,9.41E-02
42286,5.59E-03,9.51E-02
42287,5.69E-03,9.47E-02
42288,5.52E-03,9.54E-02
42289,5.56E-03,9.53E-02
42290,5.56E-03,9.54E-02
42291,5.51E-03,9.53E-02
42292,5.57E-03,9.70E-02
42293,5.58E-03,9.59E-02
42294,5.55E-03,0.10077
42295,5.57E-03,9.87E-02
42296,5.58E-03,0.10509
42297,5.54E-03,0.10299
42298,5.61E-03,0.10827
42299,5.58E-03,0.10692
42300,5.62E-03,0.11005
42301,5.63E-03,0.10925
42302,5.61E-03,0.11174
42303,5.63E-03,0.11084
42304,5.58E-03,0.11385
42305,5.59E-03,0.11273
42306,5.58E-03,0.11649
42307,5.52E-03,0.11512
42308,5.65E-03,0.11943
42309,5.61E-03,0.11798
42310,5.66E-03,0.12159
42311,5.66E-03,0.12066
42312,5.65E-03,0.12308
42313,5.64E-03,0.12229
42314,5.70E-03,0.12652
42315,5.69E-03,0.12443
42316,5.72E-03,0.13186
42317,5.67E-03,0.12914
42318,5.64E-03,0.13628
42319,5.71E-03,0.13432
42320,5.51E-03,0.1369
42321,5.55E-03,0.13729
42322,5.48E-03,0.13201
42323,5.45E-03,0.13499
42324,5.59E-03,0.12845
42325,5.56E-03,0.12932
42326,5.62E-03,0.13356
42327,5.62E-03,0.13003
42328,5.65E-03,0.14168
42329,5.64E-03,0.13792
42330,5.77E-03,0.14531
42331,5.69E-03,0.14397
42332,5.78E-03,0.14907
42333,5.73E-03,0.14677
42334,5.78E-03,0.15407
42335,5.73E-03,0.15189
42336,5.68E-03,0.15521
42337,5.76E-03,0.15515
42338,5.60E-03,0.15032
42339,5.62E-03,0.15395
42340,5.61E-03,0.14096
42341,5.58E-03,0.14536
42342,5.37E-03,0.13738
42343,5.54E-03,0.13806
42344,5.18E-03,0.13324
42345,5.24E-03,0.13642
42346,5.22E-03,0.12363
42347,5.19E-03,0.12837
42348,5.35E-03,0.11989
42349,5.25E-03,0.12055
42350,5.53E-03,0.12526
42351,5.45E-03,0.12139
42352,5.61E-03,0.14039
42353,5.56E-03,0.13168
42354,5.55E-03,0.15992
42355,5.58E-03,0.15026
42356,5.64E-03,0.17272
42357,5.57E-03,0.1677
42358,5.76E-03,0.17607
42359,5.69E-03,0.17509
42360,5.71E-03,0.17846
42361,5.74E-03,0.1771
42362,5.55E-03,0.18197
42363,5.64E-03,0.18027
42364,5.49E-03,0.17961
42365,5.50E-03,0.18204
42366,5.59E-03,0.17333
42367,5.51E-03,0.17601
42368,5.57E-03,0.17601
42369,5.61E-03,0.17343
42370,5.43E-03,0.18257
42371,5.57E-03,0.17937
42372,5.34E-03,0.18211
42373,5.37E-03,0.18389
42374,5.45E-03,0.17596
42375,5.37E-03,0.17873
42376,5.60E-03,0.17851
42377,5.53E-03,0.17561
42378,5.79E-03,0.1937
42379,5.70E-03,0.18427
42380,5.79E-03,0.22318
42381,5.79E-03,0.20694
42382,5.58E-03,0.25657
42383,5.67E-03,0.24047
42384,5.46E-03,0.2744
42385,5.48E-03,0.26912
42386,5.74E-03,0.26487
42387,5.58E-03,0.27119
42388,5.77E-03,0.26683
42389,5.80E-03,0.26236
42390,5.66E-03,0.28977
42391,5.71E-03,0.27751
42392,5.82E-03,0.30608
42393,5.71E-03,0.29878
42394,6.09E-03,0.32195
42395,6.00E-03,0.31378
42396,5.98E-03,0.3391
42397,6.15E-03,0.3307
42398,5.72E-03,0.35703
42399,5.83E-03,0.34763
42400,5.45E-03,0.38172
42401,5.68E-03,0.3711
42402,5.91E-03,0.40265
42403,5.53E-03,0.38785
42404,5.33E-03,0.2623
42405,5.09E-03,0.30795
42406,5.55E-03,0.1965
42407,5.52E-03,0.22805
42408,5.54E-03,0.14828
42409,5.48E-03,0.16965
42410,5.63E-03,0.11393
42411,5.58E-03,0.12956
42412,5.54E-03,8.72E-02
42413,5.62E-03,9.96E-02
42414,5.54E-03,6.75E-02
42415,5.56E-03,7.68E-02
42416,5.50E-03,5.17E-02
42417,5.55E-03,5.90E-02
42418,5.52E-03,4.02E-02
42419,5.47E-03,4.54E-02
42420,5.61E-03,3.25E-02
42421,5.58E-03,3.60E-02
42422,5.58E-03,2.76E-02
42423,5.66E-03,2.97E-02
42424,5.59E-03,2.45E-02
42425,5.62E-03,2.59E-02
42426,5.56E-03,2.24E-02
42427,5.60E-03,2.34E-02
42428,5.58E-03,2.09E-02
42429,5.55E-03,2.16E-02
42430,5.62E-03,1.94E-02
42431,5.61E-03,2.02E-02
42432,5.58E-03,1.82E-02
42433,5.63E-03,1.88E-02
42434,5.50E-03,1.79E-02
42435,5.51E-03,1.79E-02
42436,5.47E-03,1.88E-02
42437,5.51E-03,1.82E-02
42438,5.53E-03,2.10E-02
42439,5.49E-03,1.98E-02
42440,5.54E-03,2.40E-02
42441,5.53E-03,2.24E-02
42442,5.52E-03,2.73E-02
42443,5.54E-03,2.57E-02
42444,5.56E-03,3.06E-02
42445,5.54E-03,2.90E-02
42446,5.61E-03,3.37E-02
42447,5.61E-03,3.22E-02
42448,5.55E-03,3.64E-02
42449,5.55E-03,3.51E-02
42450,5.60E-03,3.87E-02
42451,5.56E-03,3.76E-02
42452,5.63E-03,4.06E-02
42453,5.61E-03,3.97E-02
42454,5.67E-03,4.22E-02
42455,5.65E-03,4.15E-02
42456,5.73E-03,4.35E-02
42457,5.68E-03,4.29E-02
42458,5.67E-03,4.47E-02
42459,5.68E-03,4.41E-02
42460,5.56E-03,4.61E-02
42461,5.57E-03,4.54E-02
42462,5.55E-03,4.75E-02
42463,5.55E-03,4.68E-02
42464,5.70E-03,4.91E-02
42465,5.61E-03,4.83E-02
42466,5.69E-03,5.10E-02
42467,5.74E-03,5.01E-02
42468,5.60E-03,5.31E-02
42469,5.64E-03,5.21E-02
42470,5.52E-03,5.52E-02
42471,5.55E-03,5.42E-02
42472,5.51E-03,5.71E-02
42473,5.51E-03,5.62E-02
42474,5.55E-03,5.88E-02
42475,5.54E-03,5.80E-02
42476,5.63E-03,6.06E-02
42477,5.60E-03,5.97E-02
42478,5.74E-03,6.27E-02
42479,5.63E-03,6.16E-02
42480,5.75E-03,6.52E-02
42481,5.74E-03,6.39E-02
42482,5.67E-03,6.83E-02
42483,5.70E-03,6.67E-02
42484,5.63E-03,7.17E-02
42485,5.65E-03,6.99E-02
42486,5.64E-03,7.43E-02
42487,5.58E-03,7.35E-02
42488,5.54E-03,7.53E-02
42489,5.61E-03,7.49E-02
42490,4.38E-03,7.57E-02
42491,4.91E-03,7.48E-02
42492,5.00E-03,8.26E-02
42493,5.04E-03,7.88E-02
42494,5.40E-03,8.61E-02
42495,5.21E-03,8.47E-02
42496,5.15E-03,9.29E-02
42497,5.33E-03,8.88E-02
42498,5.27E-03,9.67E-02
42499,3.87E-03,7.85E-03
42500,4.28E-03,7.72E-03
42501,5.54E-03,7.52E-03
42502,5.68E-03,7.63E-03
42503,4.89E-03,7.33E-03
42504,4.46E-03,7.43E-03
42505,6.45E-03,7.18E-03
42506,4.90E-03,7.26E-03
42507,5.39E-03,6.97E-03
42508,7.24E-03,7.08E-03
42509,4.94E-03,6.75E-03
42510,5.19E-03,6.86E-03
42511,4.47E-03,6.65E-03
42512,5.22E-03,6.17E-03
42513,5.03E-03,5.58E-03
42514,6.04E-03,5.84E-03
42515,4.71E-03,5.15E-03
42516,4.63E-03,5.33E-03
42517,6.09E-03,5.55E-03
42518,6.92E-03,5.38E-03
42519,5.87E-03,5.63E-03
42520,5.93E-03,5.60E-03
42521,5.52E-03,5.90E-03
42522,5.72E-03,5.74E-03
42523,5.37E-03,6.00E-03
42524,5.40E-03,6.01E-03
42525,5.40E-03,5.87E-03
42526,5.39E-03,5.94E-03
42527,5.36E-03,5.70E-03
42528,5.38E-03,5.79E-03
42529,5.52E-03,5.57E-03
42530,5.47E-03,5.61E-03
42531,5.54E-03,5.70E-03
42532,5.52E-03,5.62E-03
42533,5.39E-03,5.81E-03
42534,5.46E-03,5.78E-03
42535,5.35E-03,5.57E-03
42536,5.35E-03,5.74E-03
42537,5.56E-03,5.29E-03
42538,5.42E-03,5.39E-03
42539,5.57E-03,5.46E-03
42540,5.59E-03,5.33E-03
42541,5.62E-03,5.77E-03
42542,5.59E-03,5.63E-03
42543,5.68E-03,5.85E-03
42544,5.66E-03,5.84E-03
42545,5.64E-03,5.63E-03
42546,5.67E-03,5.79E-03
42547,5.66E-03,5.13E-03
42548,5.66E-03,5.39E-03
42549,5.52E-03,4.76E-03
42550,5.60E-03,4.91E-03
42551,5.28E-03,4.46E-03
42552,5.34E-03,4.64E-03
42553,5.36E-03,4.07E-03
42554,5.35E-03,4.24E-03
42555,5.50E-03,3.94E-03
42556,5.48E-03,3.96E-03
42557,5.56E-03,3.88E-03
42558,5.57E-03,3.93E-03
42559,5.62E-03,3.77E-03
42560,5.62E-03,3.83E-03
42561,5.39E-03,3.67E-03
42562,5.50E-03,3.73E-03
42563,5.38E-03,3.33E-03
42564,5.30E-03,3.55E-03
42565,5.45E-03,2.73E-03
42566,5.36E-03,3.03E-03
42567,5.52E-03,2.33E-03
42568,5.52E-03,2.49E-03
42569,5.47E-03,2.13E-03
42570,5.51E-03,2.22E-03
42571,5.48E-03,1.89E-03
42572,5.46E-03,2.02E-03
42573,5.47E-03,1.61E-03
42574,5.45E-03,1.75E-03
42575,5.58E-03,1.36E-03
42576,5.51E-03,1.49E-03
42577,5.67E-03,1.09E-03
42578,5.58E-03,1.23E-03
42579,5.74E-03,8.21E-04
42580,5.73E-03,9.52E-04
42581,5.53E-03,5.74E-04
42582,5.63E-03,6.96E-04
42583,5.43E-03,3.56E-04
42584,5.48E-03,4.59E-04
42585,5.26E-03,2.13E-04
42586,5.36E-03,2.74E-04
42587,5.10E-03,1.59E-04
42588,5.17E-03,1.71E-04
42589,5.36E-03,1.75E-04
42590,5.16E-03,1.62E-04
42591,5.67E-03,1.94E-04
42592,5.50E-03,1.86E-04
42593,5.87E-03,2.06E-04
42594,5.76E-03,1.99E-04
42595,5.57E-03,2.12E-04
42596,5.79E-03,2.09E-04
42597,4.03E-03,1.86E-04
42598,5.00E-03,2.02E-04
42599,4.08E-03,1.64E-04
42600,5.87E-03,5.07E-03
42601,5.07E-03,6.36E-02
42602,5.58E-03,0.41245
42603,5.45E-03,1.56E-03
42604,5.32E-03,8.88E-03
42605,5.27E-03,5.52E-03
42606,5.52E-03,5.66E-03
42607,3.95E-03,7.82E-03
42608,3.86E-03,2.71E-04
42609,5.18E-03,3.16E-04
42610,5.75E-03,3.29E-04
42611,5.91E-03,3.54E-04
42612,5.93E-03,3.79E-04
42613,5.83E-03,3.92E-04
42614,5.71E-03,3.91E-04
42615,5.61E-03,3.75E-04
42616,5.48E-03,3.49E-04
42617,5.36E-03,3.15E-04
42618,5.37E-03,2.78E-04
42619,5.46E-03,2.37E-04
42620,5.63E-03,2.00E-04
42621,5.56E-03,1.90E-04
42622,5.46E-03,1.97E-04
42623,5.42E-03,2.37E-04
42624,5.48E-03,3.16E-04
42625,5.63E-03,4.16E-04
42626,5.83E-03,5.23E-04
42627,5.88E-03,6.44E-04
42628,5.79E-03,7.97E-04
42629,5.61E-03,9.75E-04
42630,5.58E-03,1.13E-03
42631,5.58E-03,1.24E-03
42632,5.59E-03,1.34E-03
42633,5.54E-03,1.49E-03
42634,5.44E-03,1.69E-03
42635,5.42E-03,1.84E-03
42636,5.50E-03,1.90E-03
42637,5.58E-03,1.92E-03
42638,5.69E-03,1.95E-03
42639,5.75E-03,2.06E-03
42640,5.65E-03,2.34E-03
42641,5.14E-03,2.92E-03
42642,5.07E-03,3.49E-03
42643,5.23E-03,3.73E-03
42644,5.38E-03,3.76E-03
42645,5.56E-03,3.68E-03
42646,5.71E-03,3.60E-03
42647,5.71E-03,3.62E-03
42648,5.57E-03,3.77E-03
42649,5.49E-03,3.87E-03
42650,5.49E-03,3.75E-03
42651,5.62E-03,3.53E-03
42652,5.77E-03,3.50E-03
42653,5.46E-03,3.98E-03
42654,5.17E-03,4.56E-03
42655,5.35E-03,4.66E-03
42656,5.55E-03,4.60E-03
42657,5.77E-03,4.56E-03
42658,5.82E-03,4.84E-03
42659,5.54E-03,5.57E-03
42660,5.44E-03,6.09E-03
42661,5.59E-03,6.12E-03
42662,5.65E-03,6.13E-03
42663,5.59E-03,6.16E-03
42664,5.55E-03,6.02E-03
42665,5.60E-03,5.64E-03
42666,5.68E-03,5.20E-03
42667,5.73E-03,4.87E-03
42668,5.75E-03,4.71E-03
42669,5.64E-03,4.87E-03
42670,5.31E-03,5.53E-03
42671,5.20E-03,6.09E-03
42672,5.35E-03,6.03E-03
42673,5.47E-03,5.84E-03
42674,5.51E-03,5.65E-03
42675,5.52E-03,5.44E-03
42676,5.61E-03,5.21E-03
42677,5.67E-03,5.17E-03
42678,5.39E-03,5.63E-03
42679,5.26E-03,5.99E-03
42680,5.49E-03,5.75E-03
42681,5.51E-03,5.77E-03
42682,5.21E-03,6.31E-03
42683,5.21E-03,6.44E-03
42684,5.50E-03,6.00E-03
42685,5.74E-03,5.55E-03
42686,6.01E-03,5.23E-03
42687,5.95E-03,5.38E-03
42688,5.90E-03,5.75E-03
42689,6.69E-03,5.56E-03
42690,6.26E-03,5.16E-03
42691,5.26E-03,4.73E-03
42692,5.15E-03,4.81E-03
42693,4.78E-03,4.98E-03
42694,4.75E-03,5.23E-03
42695,5.18E-03,5.50E-03
42696,6.16E-03,5.78E-03
42697,6.00E-03,6.02E-03
42698,4.36E-03,6.41E-03
42699,4.69E-03,6.55E-03
42700,5.03E-03,6.66E-03
42701,5.16E-03,6.77E-03
42702,5.62E-03,6.88E-03
42703,6.04E-03,6.98E-03
42704,5.31E-03,7.06E-03
42705,5.01E-03,7.14E-03
42706,4.95E-03,7.23E-03
42707,4.94E-03,7.33E-03
42708,5.13E-03,7.43E-03
42709,5.18E-03,7.51E-03
42710,4.40E-03,7.61E-03
42711,3.91E-03,7.71E-03
42712,5.09E-03,8.07E-03
42713,5.75E-03,7.93E-03
42714,4.06E-03,0.13342
42715,5.28E-03,0.10146
42716,5.64E-03,9.08E-02
42717,5.43E-03,9.02E-02
42718,5.14E-03,9.15E-02
42719,4.96E-03,9.01E-02
42720,4.96E-03,7.95E-02
42721,5.94E-03,6.71E-02
42722,6.29E-03,6.74E-02
42723,5.72E-03,7.50E-02
42724,5.69E-03,7.86E-02
42725,5.69E-03,7.83E-02
42726,5.64E-03,7.77E-02
42727,5.64E-03,7.44E-02
42728,5.66E-03,7.31E-02
42729,5.70E-03,7.13E-02
42730,5.70E-03,6.94E-02
42731,5.75E-03,6.77E-02
42732,5.73E-03,6.63E-02
42733,5.74E-03,6.50E-02
42734,5.63E-03,6.38E-02
42735,5.60E-03,6.29E-02
42736,5.56E-03,6.20E-02
42737,5.60E-03,6.11E-02
42738,5.60E-03,6.03E-02
42739,5.56E-03,5.95E-02
42740,5.56E-03,5.86E-02
42741,5.55E-03,5.76E-02
42742,5.59E-03,5.66E-02
42743,5.57E-03,5.56E-02
42744,5.61E-03,5.46E-02
42745,5.66E-03,5.36E-02
42746,5.67E-03,5.26E-02
42747,5.61E-03,5.17E-02
42748,5.61E-03,5.09E-02
42749,5.54E-03,5.01E-02
42750,5.48E-03,4.95E-02
42751,5.51E-03,4.89E-02
42752,5.54E-03,4.84E-02
42753,5.64E-03,4.78E-02
42754,5.66E-03,4.74E-02
42755,5.69E-03,4.69E-02
42756,5.62E-03,4.64E-02
42757,5.62E-03,4.58E-02
42758,5.56E-03,4.52E-02
42759,5.57E-03,4.45E-02
42760,5.62E-03,4.37E-02
42761,5.63E-03,4.28E-02
42762,5.59E-03,4.19E-02
42763,5.57E-03,4.08E-02
42764,5.56E-03,3.96E-02
42765,5.61E-03,3.83E-02
42766,5.60E-03,3.70E-02
42767,5.61E-03,3.55E-02
42768,5.61E-03,3.40E-02
42769,5.57E-03,3.24E-02
42770,5.55E-03,3.08E-02
42771,5.54E-03,2.92E-02
42772,5.54E-03,2.77E-02
42773,5.53E-03,2.63E-02
42774,5.52E-03,2.51E-02
42775,5.51E-03,2.41E-02
42776,5.53E-03,2.34E-02
42777,5.53E-03,2.30E-02
42778,5.55E-03,2.30E-02
42779,5.55E-03,2.32E-02
42780,5.60E-03,2.35E-02
42781,5.60E-03,2.40E-02
42782,5.60E-03,2.45E-02
42783,5.60E-03,2.49E-02
42784,5.60E-03,2.52E-02
42785,5.55E-03,2.54E-02
42786,5.53E-03,2.56E-02
42787,5.53E-03,2.57E-02
42788,5.59E-03,2.58E-02
42789,5.59E-03,2.61E-02
42790,5.63E-03,2.66E-02
42791,5.60E-03,2.75E-02
42792,5.59E-03,2.90E-02
42793,5.56E-03,3.14E-02
42794,5.54E-03,3.48E-02
42795,5.54E-03,3.93E-02
42796,5.55E-03,4.51E-02
42797,5.58E-03,5.20E-02
42798,5.64E-03,6.00E-02
42799,5.65E-03,6.91E-02
42800,5.66E-03,7.91E-02
42801,5.68E-03,9.04E-02
42802,5.62E-03,0.10437
42803,5.58E-03,0.12169
42804,5.55E-03,0.14265
42805,5.54E-03,0.16734
42806,5.49E-03,0.19667
42807,5.40E-03,0.23326
42808,5.36E-03,0.28029
42809,5.16E-03,0.3532
42810,4.79E-03,0.458
42811,5.28E-03,0.4058
42812,5.49E-03,0.5677
42813,5.31E-03,0.26284
42814,6.28E-03,0.24999
42815,5.87E-03,0.31424
42816,5.17E-03,0.42326
42817,5.02E-03,0.46915
42818,5.50E-03,0.44238
42819,5.66E-03,0.41359
42820,5.57E-03,0.42769
42821,5.54E-03,0.42461
42822,5.97E-03,0.38148
42823,5.93E-03,0.37154
42824,5.71E-03,0.38369
42825,5.82E-03,0.36269
42826,6.02E-03,0.33392
42827,5.73E-03,0.34057
42828,5.47E-03,0.34737
42829,5.57E-03,0.32215
42830,5.72E-03,0.29192
42831,5.91E-03,0.26374
42832,6.02E-03,0.24987
42833,5.78E-03,0.26688
42834,5.39E-03,0.30799
42835,5.24E-03,0.3342
42836,5.32E-03,0.32625
42837,5.48E-03,0.29985
42838,5.58E-03,0.26714
42839,5.71E-03,0.23409
42840,5.85E-03,0.20403
42841,5.92E-03,0.18262
42842,5.83E-03,0.17281
42843,5.62E-03,0.17014
42844,5.58E-03,0.16798
42845,5.67E-03,0.16537
42846,5.49E-03,0.17555
42847,5.23E-03,0.19547
42848,5.26E-03,0.20074
42849,5.45E-03,0.1936
42850,5.60E-03,0.18608
42851,5.60E-03,0.17923
42852,5.65E-03,0.17192
42853,5.72E-03,0.16633
42854,5.56E-03,0.17456
42855,5.31E-03,0.19451
42856,5.33E-03,0.20163
42857,5.52E-03,0.19608
42858,5.65E-03,0.19107
42859,5.69E-03,0.18812
42860,5.75E-03,0.18681
42861,5.75E-03,0.18724
42862,5.64E-03,0.19025
42863,5.47E-03,0.19427
42864,5.39E-03,0.18896
42865,5.45E-03,0.17317
42866,5.56E-03,0.15507
42867,5.65E-03,0.13782
42868,5.73E-03,0.1231
42869,5.76E-03,0.11247
42870,5.60E-03,0.10896
42871,5.41E-03,0.11071
42872,5.40E-03,0.11156
42873,5.47E-03,0.11282
42874,5.28E-03,0.12478
42875,5.08E-03,0.14154
42876,5.19E-03,0.14497
42877,5.43E-03,0.14006
42878,5.66E-03,0.13485
42879,5.85E-03,0.13426
42880,5.57E-03,0.14895
42881,5.39E-03,0.16673
42882,5.55E-03,0.16905
42883,5.65E-03,0.16787
42884,5.65E-03,0.16857
42885,5.59E-03,0.16829
42886,5.60E-03,0.16309
42887,5.73E-03,0.15458
42888,5.78E-03,0.14871
42889,5.71E-03,0.15022
42890,5.56E-03,0.15485
42891,5.52E-03,0.15284
42892,5.59E-03,0.14426
42893,5.66E-03,0.13308
42894,5.76E-03,0.12398
42895,5.72E-03,0.12089
42896,5.57E-03,0.12511
42897,5.40E-03,0.13395
42898,5.36E-03,0.1425
42899,5.41E-03,0.14775
42900,5.49E-03,0.14844
42901,5.64E-03,0.14635
42902,5.66E-03,0.14288
42903,5.64E-03,0.13853
42904,5.61E-03,0.13366
42905,5.65E-03,0.12862
42906,5.66E-03,0.12506
42907,5.64E-03,0.12425
42908,5.59E-03,0.12531
42909,5.62E-03,0.12638
42910,5.62E-03,0.12581
42911,5.60E-03,0.12377
42912,5.55E-03,0.12145
42913,5.52E-03,0.11947
42914,5.53E-03,0.11777
42915,5.51E-03,0.11636
42916,5.52E-03,0.11518
42917,5.54E-03,0.11424
42918,5.57E-03,0.11358
42919,5.59E-03,0.11324
42920,5.57E-03,0.11329
42921,5.47E-03,0.113
42922,5.45E-03,0.11139
42923,5.48E-03,0.10879
42924,5.49E-03,0.10576
42925,5.52E-03,0.1024
42926,5.58E-03,9.88E-02
42927,5.57E-03,9.61E-02
42928,5.64E-03,9.49E-02
42929,5.65E-03,9.49E-02
42930,5.59E-03,9.59E-02
42931,5.53E-03,9.71E-02
42932,5.58E-03,9.76E-02
42933,5.63E-03,9.74E-02
42934,5.66E-03,9.66E-02
42935,5.69E-03,9.56E-02
42936,5.71E-03,9.51E-02
42937,5.71E-03,9.52E-02
42938,5.70E-03,9.63E-02
42939,5.68E-03,9.85E-02
42940,5.63E-03,0.10083
42941,5.67E-03,0.10181
42942,5.68E-03,0.10153
42943,5.71E-03,0.10101
42944,5.77E-03,0.10064
42945,5.74E-03,0.1006
42946,5.76E-03,0.10063
42947,5.72E-03,0.10005
42948,5.68E-03,9.85E-02
42949,5.70E-03,9.58E-02
42950,5.69E-03,9.22E-02
42951,5.69E-03,8.74E-02
42952,5.73E-03,8.09E-02
42953,5.81E-03,7.41E-02
42954,5.81E-03,6.94E-02
42955,5.74E-03,6.69E-02
42956,5.67E-03,6.52E-02
42957,5.61E-03,6.41E-02
42958,5.58E-03,6.32E-02
42959,5.58E-03,6.25E-02
42960,5.59E-03,6.19E-02
42961,5.60E-03,6.13E-02
42962,5.52E-03,6.08E-02
42963,5.46E-03,6.04E-02
42964,5.50E-03,5.99E-02
42965,5.50E-03,5.96E-02
42966,5.52E-03,5.92E-02
42967,5.49E-03,5.89E-02
42968,5.49E-03,5.86E-02
42969,5.50E-03,5.84E-02
42970,5.48E-03,5.82E-02
42971,5.50E-03,5.80E-02
42972,5.48E-03,5.78E-02
42973,5.45E-03,5.77E-02
42974,5.47E-03,5.77E-02
42975,5.51E-03,5.77E-02
42976,5.56E-03,5.79E-02
42977,5.65E-03,5.82E-02
42978,5.72E-03,5.87E-02
42979,5.79E-03,5.95E-02
42980,5.74E-03,6.07E-02
42981,5.73E-03,6.27E-02
42982,5.67E-03,6.61E-02
42983,5.52E-03,7.33E-02
42984,4.54E-03,9.62E-02
42985,4.61E-03,9.23E-02
42986,5.60E-03,6.44E-02
42987,5.95E-03,5.36E-02
42988,6.03E-03,4.81E-02
42989,5.96E-03,4.52E-02
42990,5.80E-03,4.36E-02
42991,5.67E-03,4.28E-02
42992,5.56E-03,4.27E-02
42993,5.48E-03,4.31E-02
42994,5.40E-03,4.36E-02
42995,5.35E-03,4.40E-02
42996,5.30E-03,4.42E-02
42997,5.21E-03,4.40E-02
42998,5.03E-03,4.20E-02
42999,5.17E-03,3.53E-02
43000,5.72E-03,2.92E-02
43001,5.71E-03,2.70E-02
43002,5.60E-03,2.66E-02
43003,5.42E-03,2.72E-02
43004,5.24E-03,2.80E-02
43005,5.20E-03,2.82E-02
43006,5.23E-03,2.72E-02
43007,5.28E-03,2.58E-02
43008,5.38E-03,2.44E-02
43009,5.48E-03,2.33E-02
43010,5.53E-03,2.24E-02
43011,5.54E-03,2.15E-02
43012,5.51E-03,2.08E-02
43013,5.53E-03,2.01E-02
43014,5.59E-03,1.95E-02
43015,5.60E-03,1.91E-02
43016,5.55E-03,1.88E-02
43017,5.41E-03,1.86E-02
43018,5.30E-03,1.80E-02
43019,5.53E-03,1.58E-02
43020,5.80E-03,1.41E-02
43021,5.60E-03,1.41E-02
43022,5.50E-03,1.37E-02
43023,5.65E-03,1.25E-02
43024,5.28E-03,1.22E-02
43025,4.81E-03,1.22E-02
43026,4.69E-03,9.83E-03
43027,5.29E-03,6.76E-03
43028,6.22E-03,4.70E-03
43029,7.15E-03,3.66E-03
43030,6.11E-03,3.42E-03
43031,4.82E-03,3.79E-03
43032,4.71E-03,3.92E-03
43033,5.22E-03,3.16E-03
43034,6.01E-03,2.36E-03
43035,6.22E-03,1.94E-03
43036,5.81E-03,1.71E-03
43037,5.51E-03,1.41E-03
43038,5.37E-03,1.02E-03
43039,5.38E-03,6.67E-04
43040,5.46E-03,4.47E-04
43041,5.69E-03,3.46E-04
43042,6.03E-03,3.06E-04
43043,5.95E-03,3.22E-04
43044,5.05E-03,3.99E-04
43045,4.74E-03,4.52E-04
43046,5.08E-03,4.11E-04
43047,5.53E-03,3.33E-04
43048,5.42E-03,2.55E-04
43049,5.50E-03,1.78E-04
43050,4.73E-03,8.00E-03
43051,3.91E-03,8.02E-03
43052,4.41E-03,7.99E-03
43053,5.20E-03,7.95E-03
43054,5.62E-03,7.93E-03
43055,5.57E-03,7.91E-03
43056,5.34E-03,7.90E-03
43057,5.35E-03,7.89E-03
43058,5.40E-03,7.87E-03
43059,5.53E-03,7.85E-03
43060,5.57E-03,7.82E-03
43061,5.61E-03,7.79E-03
43062,5.65E-03,7.75E-03
43063,5.65E-03,7.72E-03
43064,5.66E-03,7.67E-03
43065,5.65E-03,7.63E-03
43066,5.69E-03,7.58E-03
43067,5.67E-03,7.53E-03
43068,5.63E-03,7.48E-03
43069,5.63E-03,7.44E-03
43070,5.64E-03,7.39E-03
43071,5.66E-03,7.34E-03
43072,5.68E-03,7.30E-03
43073,5.66E-03,7.25E-03
43074,5.62E-03,7.21E-03
43075,5.57E-03,7.18E-03
43076,5.52E-03,7.14E-03
43077,5.54E-03,7.11E-03
43078,5.59E-03,7.07E-03
43079,5.65E-03,7.04E-03
43080,5.66E-03,7.00E-03
43081,5.68E-03,6.96E-03
43082,5.71E-03,6.92E-03
43083,5.66E-03,6.89E-03
43084,5.67E-03,6.85E-03
43085,5.67E-03,6.80E-03
43086,5.67E-03,6.76E-03
43087,5.70E-03,6.72E-03
43088,5.75E-03,6.67E-03
43089,5.81E-03,6.63E-03
43090,5.82E-03,6.59E-03
43091,5.78E-03,6.55E-03
43092,5.77E-03,6.51E-03
43093,5.73E-03,6.48E-03
43094,5.73E-03,6.45E-03
43095,5.73E-03,6.42E-03
43096,5.72E-03,6.39E-03
43097,5.74E-03,6.35E-03
43098,5.78E-03,6.32E-03
43099,5.82E-03,6.28E-03
43100,5.87E-03,6.24E-03
43101,5.88E-03,6.20E-03
43102,5.85E-03,6.16E-03
43103,5.82E-03,6.11E-03
43104,5.79E-03,6.07E-03
43105,5.71E-03,6.02E-03
43106,5.70E-03,5.98E-03
43107,5.69E-03,5.94E-03
43108,5.72E-03,5.90E-03
43109,5.75E-03,5.86E-03
43110,5.80E-03,5.82E-03
43111,5.86E-03,5.78E-03
43112,5.84E-03,5.75E-03
43113,5.80E-03,5.72E-03
43114,5.71E-03,5.69E-03
43115,5.70E-03,5.66E-03
43116,5.71E-03,5.63E-03
43117,5.68E-03,5.60E-03
43118,5.70E-03,5.57E-03
43119,5.71E-03,5.54E-03
43120,5.71E-03,5.52E-03
43121,5.67E-03,5.50E-03
43122,5.69E-03,5.47E-03
43123,5.66E-03,5.45E-03
43124,5.69E-03,5.43E-03
43125,5.70E-03,5.41E-03
43126,5.64E-03,5.40E-03
43127,5.59E-03,5.39E-03
43128,5.63E-03,5.40E-03
43129,5.65E-03,5.41E-03
43130,5.71E-03,5.45E-03
43131,5.75E-03,5.50E-03
43132,5.83E-03,5.58E-03
43133,5.81E-03,5.69E-03
43134,5.73E-03,5.83E-03
43135,5.62E-03,5.99E-03
43136,5.41E-03,6.18E-03
43137,5.31E-03,6.42E-03
43138,5.29E-03,6.69E-03
43139,5.34E-03,6.98E-03
43140,5.42E-03,7.30E-03
43141,5.49E-03,7.66E-03
43142,5.53E-03,8.04E-03
43143,5.56E-03,8.44E-03
43144,5.53E-03,8.87E-03
43145,5.60E-03,9.34E-03
43146,5.65E-03,9.83E-03
43147,5.68E-03,1.03E-02
43148,5.71E-03,1.08E-02
43149,5.67E-03,1.12E-02
43150,5.60E-03,1.17E-02
43151,5.53E-03,1.22E-02
43152,5.54E-03,1.29E-02
43153,5.63E-03,1.35E-02
43154,5.76E-03,1.41E-02
43155,5.82E-03,1.48E-02
43156,5.86E-03,1.55E-02
43157,5.88E-03,1.61E-02
43158,5.89E-03,1.68E-02
43159,5.94E-03,1.75E-02
43160,6.06E-03,1.82E-02
43161,6.17E-03,1.90E-02
43162,6.23E-03,1.98E-02
43163,5.93E-03,2.05E-02
43164,5.56E-03,2.13E-02
43165,5.22E-03,2.20E-02
43166,5.14E-03,2.28E-02
43167,5.03E-03,2.36E-02
43168,5.02E-03,2.44E-02
43169,5.08E-03,2.53E-02
43170,5.24E-03,2.61E-02
43171,5.39E-03,2.70E-02
43172,5.54E-03,2.79E-02
43173,5.68E-03,2.88E-02
43174,5.76E-03,2.96E-02
43175,5.78E-03,3.05E-02
43176,5.84E-03,3.12E-02
43177,5.86E-03,3.20E-02
43178,5.86E-03,3.26E-02
43179,5.83E-03,3.33E-02
43180,5.74E-03,3.40E-02
43181,5.65E-03,3.46E-02
43182,5.63E-03,3.52E-02
43183,5.66E-03,3.57E-02
43184,5.76E-03,3.61E-02
43185,5.87E-03,3.64E-02
43186,5.92E-03,3.66E-02
43187,5.91E-03,3.67E-02
43188,5.81E-03,3.67E-02
43189,5.70E-03,3.67E-02
43190,5.57E-03,3.67E-02
43191,5.44E-03,3.66E-02
43192,5.35E-03,3.65E-02
43193,5.32E-03,3.64E-02
43194,5.35E-03,3.62E-02
43195,5.36E-03,3.61E-02
43196,5.32E-03,3.59E-02
43197,5.36E-03,3.58E-02
43198,5.43E-03,3.56E-02
43199,5.46E-03,3.54E-02
43200,5.47E-03,3.53E-02
43201,5.54E-03,3.51E-02
43202,5.59E-03,3.49E-02
43203,5.65E-03,3.47E-02
43204,5.68E-03,3.45E-02
43205,5.69E-03,3.43E-02
43206,5.70E-03,3.41E-02
43207,5.70E-03,3.39E-02
43208,5.69E-03,3.37E-02
43209,5.73E-03,3.34E-02
43210,5.66E-03,3.32E-02
43211,5.67E-03,3.29E-02
43212,5.68E-03,3.26E-02
43213,5.73E-03,3.24E-02
43214,5.75E-03,3.21E-02
43215,5.72E-03,3.18E-02
43216,5.67E-03,3.14E-02
43217,5.55E-03,3.11E-02
43218,5.50E-03,3.08E-02
43219,5.46E-03,3.04E-02
43220,5.47E-03,3.01E-02
43221,5.51E-03,2.97E-02
43222,5.58E-03,2.94E-02
43223,5.61E-03,2.90E-02
43224,5.61E-03,2.87E-02
43225,5.64E-03,2.83E-02
43226,5.67E-03,2.79E-02
43227,5.70E-03,2.76E-02
43228,5.68E-03,2.72E-02
43229,5.66E-03,2.68E-02
43230,5.65E-03,2.65E-02
43231,5.63E-03,2.61E-02
43232,5.58E-03,2.57E-02
43233,5.57E-03,2.54E-02
43234,5.60E-03,2.50E-02
43235,5.66E-03,2.46E-02
43236,5.65E-03,2.42E-02
43237,5.57E-03,2.39E-02
43238,5.56E-03,2.35E-02
43239,5.54E-03,2.31E-02
43240,5.54E-03,2.28E-02
43241,5.58E-03,2.24E-02
43242,5.64E-03,2.21E-02
43243,5.62E-03,2.17E-02
43244,5.59E-03,2.14E-02
43245,5.58E-03,2.10E-02
43246,5.57E-03,2.06E-02
43247,5.56E-03,2.03E-02
43248,5.60E-03,1.99E-02
43249,5.60E-03,1.96E-02
43250,5.63E-03,1.92E-02
43251,5.66E-03,1.89E-02
43252,5.67E-03,1.86E-02
43253,5.74E-03,1.82E-02
43254,5.69E-03,1.79E-02
43255,5.71E-03,1.76E-02
43256,5.74E-03,1.72E-02
43257,5.73E-03,1.69E-02
43258,5.67E-03,1.66E-02
43259,5.68E-03,1.62E-02
43260,5.66E-03,1.59E-02
43261,5.66E-03,1.56E-02
43262,5.61E-03,1.53E-02
43263,5.57E-03,1.50E-02
43264,5.61E-03,1.47E-02
43265,5.68E-03,1.44E-02
43266,5.71E-03,1.41E-02
43267,5.74E-03,1.37E-02
43268,5.74E-03,1.35E-02
43269,5.70E-03,1.32E-02
43270,5.62E-03,1.29E-02
43271,5.59E-03,1.26E-02
43272,5.55E-03,1.23E-02
43273,5.56E-03,1.20E-02
43274,5.60E-03,1.17E-02
43275,5.67E-03,1.15E-02
43276,5.67E-03,1.12E-02
43277,5.67E-03,1.09E-02
43278,5.59E-03,1.07E-02
43279,5.56E-03,1.04E-02
43280,5.54E-03,1.02E-02
43281,5.55E-03,9.92E-03
43282,5.53E-03,9.68E-03
43283,5.55E-03,9.44E-03
43284,5.57E-03,9.20E-03
43285,5.58E-03,8.97E-03
43286,5.56E-03,8.75E-03
43287,5.54E-03,8.53E-03
43288,5.56E-03,8.32E-03
43289,5.61E-03,8.11E-03
43290,5.64E-03,7.91E-03
43291,5.63E-03,7.71E-03
43292,5.59E-03,7.52E-03
43293,5.60E-03,7.33E-03
43294,5.55E-03,7.15E-03
43295,5.49E-03,6.97E-03
43296,5.47E-03,6.80E-03
43297,5.49E-03,6.63E-03
43298,5.52E-03,6.46E-03
43299,5.57E-03,6.30E-03
43300,5.63E-03,6.14E-03
43301,5.66E-03,5.98E-03
43302,5.69E-03,5.83E-03
43303,5.70E-03,5.68E-03
43304,5.68E-03,5.54E-03
43305,5.64E-03,5.40E-03
43306,5.61E-03,5.26E-03
43307,5.62E-03,5.13E-03
43308,5.62E-03,5.00E-03
43309,5.64E-03,4.87E-03
43310,5.62E-03,4.74E-03
43311,5.57E-03,4.61E-03
43312,5.58E-03,4.49E-03
43313,5.52E-03,4.37E-03
43314,5.48E-03,4.26E-03
43315,5.48E-03,4.14E-03
43316,5.53E-03,4.03E-03
43317,5.58E-03,3.93E-03
43318,5.55E-03,3.82E-03
43319,5.56E-03,3.72E-03
43320,5.55E-03,3.62E-03
43321,5.60E-03,3.52E-03
43322,5.64E-03,3.43E-03
43323,5.65E-03,3.34E-03
43324,5.65E-03,3.25E-03
43325,5.58E-03,3.16E-03
43326,5.58E-03,3.08E-03
43327,5.59E-03,3.00E-03
43328,5.60E-03,2.92E-03
43329,5.63E-03,2.84E-03
43330,5.63E-03,2.77E-03
43331,5.56E-03,2.69E-03
43332,5.55E-03,2.62E-03
43333,5.51E-03,2.56E-03
43334,5.53E-03,2.49E-03
43335,5.61E-03,2.42E-03
43336,5.63E-03,2.36E-03
43337,5.63E-03,2.30E-03
43338,5.63E-03,2.25E-03
43339,5.63E-03,2.19E-03
43340,5.63E-03,2.14E-03
43341,5.62E-03,2.09E-03
43342,5.66E-03,2.04E-03
43343,5.63E-03,1.99E-03
43344,5.55E-03,1.95E-03
43345,5.50E-03,1.91E-03
43346,5.49E-03,1.87E-03
43347,5.46E-03,1.83E-03
43348,5.45E-03,1.80E-03
43349,5.46E-03,1.76E-03
43350,5.33E-03,8.95E-03
43351,5.37E-03,8.80E-03
43352,5.43E-03,8.64E-03
43353,5.43E-03,8.48E-03
43354,5.48E-03,8.32E-03
43355,5.49E-03,8.15E-03
43356,5.47E-03,7.97E-03
43357,5.55E-03,7.79E-03
43358,5.52E-03,7.61E-03
43359,5.51E-03,7.42E-03
43360,5.51E-03,7.22E-03
43361,5.51E-03,7.02E-03
43362,5.51E-03,6.82E-03
43363,5.51E-03,6.61E-03
43364,5.51E-03,6.40E-03
43365,5.50E-03,6.19E-03
43366,5.49E-03,5.97E-03
43367,5.48E-03,5.74E-03
43368,5.45E-03,5.52E-03
43369,5.43E-03,5.29E-03
43370,5.37E-03,5.06E-03
43371,5.34E-03,4.82E-03
43372,5.28E-03,4.58E-03
43373,5.23E-03,4.34E-03
43374,5.25E-03,4.10E-03
43375,5.30E-03,3.85E-03
43376,5.39E-03,3.61E-03
43377,5.47E-03,3.36E-03
43378,5.53E-03,3.12E-03
43379,5.55E-03,2.87E-03
43380,5.50E-03,2.63E-03
43381,5.53E-03,2.39E-03
43382,5.48E-03,2.15E-03
43383,5.39E-03,1.92E-03
43384,5.31E-03,1.71E-03
43385,5.31E-03,1.51E-03
43386,5.36E-03,1.34E-03
43387,5.41E-03,1.22E-03
43388,5.40E-03,1.15E-03
43389,5.40E-03,1.15E-03
43390,5.38E-03,1.22E-03
43391,5.40E-03,1.35E-03
43392,5.40E-03,1.53E-03
43393,5.43E-03,1.73E-03
43394,5.39E-03,5.61E-03
43395,5.32E-03,6.04E-03
43396,5.28E-03,6.48E-03
43397,5.25E-03,6.93E-03
43398,5.33E-03,7.37E-03
43399,5.60E-03,7.81E-03
43400,5.82E-03,8.24E-03
43401,5.91E-03,8.63E-03
43402,5.76E-03,9.03E-03
43403,5.59E-03,9.40E-03
43404,5.57E-03,9.73E-03
43405,5.62E-03,1.00E-02
43406,5.63E-03,1.03E-02
43407,5.62E-03,1.05E-02
43408,5.60E-03,1.06E-02
43409,5.59E-03,1.07E-02
43410,5.60E-03,1.07E-02
43411,5.63E-03,1.07E-02
43412,5.63E-03,1.08E-02
43413,5.63E-03,1.07E-02
43414,5.65E-03,1.07E-02
43415,5.63E-03,1.07E-02
43416,5.66E-03,1.06E-02
43417,5.65E-03,1.06E-02
43418,5.57E-03,1.05E-02
43419,5.57E-03,1.04E-02
43420,5.57E-03,1.03E-02
43421,5.63E-03,1.03E-02
43422,5.65E-03,1.02E-02
43423,5.66E-03,1.01E-02
43424,5.64E-03,9.99E-03
43425,5.68E-03,9.90E-03
43426,5.63E-03,9.81E-03
43427,5.55E-03,9.72E-03
43428,5.50E-03,9.63E-03
43429,5.47E-03,9.54E-03
43430,5.44E-03,9.45E-03
43431,5.44E-03,9.36E-03
43432,5.43E-03,9.28E-03
43433,5.44E-03,9.20E-03
43434,5.44E-03,9.12E-03
43435,5.46E-03,9.04E-03
43436,5.43E-03,8.96E-03
43437,5.46E-03,8.89E-03
43438,5.49E-03,8.82E-03
43439,5.56E-03,8.75E-03
43440,5.62E-03,8.67E-03
43441,5.74E-03,8.60E-03
43442,5.81E-03,8.53E-03
43443,5.88E-03,8.46E-03
43444,5.94E-03,8.39E-03
43445,5.94E-03,8.32E-03
43446,5.88E-03,8.25E-03
43447,5.83E-03,8.18E-03
43448,5.73E-03,8.13E-03
43449,5.68E-03,8.07E-03
43450,5.63E-03,8.02E-03
43451,5.59E-03,7.98E-03
43452,5.55E-03,7.95E-03
43453,5.61E-03,7.93E-03
43454,5.59E-03,7.92E-03
43455,5.62E-03,7.91E-03
43456,5.61E-03,7.90E-03
43457,5.58E-03,7.90E-03
43458,5.60E-03,7.90E-03
43459,5.60E-03,7.91E-03
43460,5.61E-03,7.93E-03
43461,5.62E-03,7.95E-03
43462,5.68E-03,7.97E-03
43463,5.69E-03,7.99E-03
43464,5.72E-03,8.02E-03
43465,5.70E-03,8.05E-03
43466,5.61E-03,8.09E-03
43467,5.49E-03,8.13E-03
43468,5.27E-03,8.18E-03
43469,5.10E-03,8.24E-03
43470,4.97E-03,8.30E-03
43471,5.08E-03,8.37E-03
43472,5.33E-03,8.44E-03
43473,5.50E-03,8.50E-03
43474,5.54E-03,8.56E-03
43475,5.47E-03,8.60E-03
43476,5.44E-03,8.64E-03
43477,5.43E-03,8.68E-03
43478,5.47E-03,8.73E-03
43479,5.40E-03,8.78E-03
43480,5.36E-03,8.83E-03
43481,5.31E-03,8.88E-03
43482,5.24E-03,8.95E-03
43483,5.26E-03,9.01E-03
43484,5.34E-03,9.08E-03
43485,5.34E-03,4.83E-03
43486,5.28E-03,4.86E-03
43487,5.23E-03,4.90E-03
43488,5.14E-03,4.96E-03
43489,5.14E-03,5.03E-03
43490,5.20E-03,5.11E-03
43491,5.36E-03,5.19E-03
43492,3.68E-03,7.11E-02
43493,5.84E-03,4.65E-02
43494,5.65E-03,4.82E-02
43495,5.18E-03,5.77E-02
43496,5.24E-03,5.88E-02
43497,5.59E-03,5.29E-02
43498,5.78E-03,4.98E-02
43499,5.65E-03,5.19E-02
43500,5.54E-03,5.53E-02
43501,5.53E-03,5.76E-02
43502,5.57E-03,5.92E-02
43503,5.56E-03,6.03E-02
43504,5.59E-03,6.09E-02
43505,5.52E-03,6.11E-02
43506,5.49E-03,6.09E-02
43507,5.52E-03,6.03E-02
43508,5.62E-03,5.90E-02
43509,5.78E-03,5.70E-02
43510,6.05E-03,5.60E-02
43511,6.01E-03,6.08E-02
43512,5.53E-03,7.13E-02
43513,5.39E-03,7.85E-02
43514,5.48E-03,7.82E-02
43515,5.62E-03,7.57E-02
43516,5.67E-03,7.45E-02
43517,5.69E-03,7.41E-02
43518,5.72E-03,7.38E-02
43519,5.74E-03,7.40E-02
43520,5.68E-03,7.53E-02
43521,5.47E-03,7.77E-02
43522,5.21E-03,7.97E-02
43523,5.17E-03,7.45E-02
43524,5.66E-03,6.39E-02
43525,6.00E-03,5.81E-02
43526,5.96E-03,5.92E-02
43527,5.86E-03,6.30E-02
43528,5.76E-03,6.67E-02
43529,5.64E-03,7.14E-02
43530,5.37E-03,7.58E-02
43531,5.49E-03,7.32E-02
43532,5.78E-03,6.62E-02
43533,5.58E-03,6.61E-02
43534,5.22E-03,6.87E-02
43535,5.11E-03,6.44E-02
43536,5.17E-03,5.66E-02
43537,5.21E-03,4.93E-02
43538,5.19E-03,4.28E-02
43539,5.21E-03,3.69E-02
43540,5.36E-03,3.17E-02
43541,5.52E-03,2.78E-02
43542,5.71E-03,2.52E-02
43543,5.81E-03,2.43E-02
43544,5.59E-03,2.60E-02
43545,5.27E-03,2.83E-02
43546,5.22E-03,2.76E-02
43547,5.22E-03,2.50E-02
43548,5.14E-03,2.23E-02
43549,5.01E-03,1.95E-02
43550,5.00E-03,1.65E-02
43551,5.51E-03,1.44E-02
43552,6.51E-03,1.44E-02
43553,6.00E-03,1.66E-02
43554,5.77E-03,2.01E-02
43555,5.80E-03,2.38E-02
43556,5.73E-03,2.77E-02
43557,5.54E-03,3.24E-02
43558,5.29E-03,3.74E-02
43559,5.17E-03,3.90E-02
43560,5.27E-03,3.72E-02
43561,5.38E-03,3.52E-02
43562,5.41E-03,3.35E-02
43563,5.41E-03,3.18E-02
43564,5.57E-03,2.99E-02
43565,5.85E-03,2.86E-02
43566,5.85E-03,3.01E-02
43567,5.56E-03,3.39E-02
43568,5.59E-03,3.51E-02
43569,5.83E-03,3.45E-02
43570,5.77E-03,3.69E-02
43571,5.57E-03,4.04E-02
43572,5.81E-03,4.01E-02
43573,6.04E-03,4.01E-02
43574,5.85E-03,4.45E-02
43575,5.75E-03,4.80E-02
43576,5.89E-03,4.83E-02
43577,5.57E-03,5.28E-02
43578,4.94E-03,6.17E-02
43579,5.00E-03,6.21E-02
43580,5.46E-03,5.37E-02
43581,5.56E-03,4.99E-02
43582,5.35E-03,5.04E-02
43583,5.33E-03,4.80E-02
43584,5.51E-03,4.33E-02
43585,5.66E-03,3.93E-02
43586,5.85E-03,3.68E-02
43587,5.69E-03,3.81E-02
43588,5.40E-03,4.11E-02
43589,5.43E-03,4.08E-02
43590,5.58E-03,3.87E-02
43591,5.64E-03,3.71E-02
43592,5.68E-03,3.60E-02
43593,5.73E-03,3.52E-02
43594,5.81E-03,3.47E-02
43595,5.81E-03,3.45E-02
43596,5.81E-03,3.46E-02
43597,5.77E-03,3.51E-02
43598,5.65E-03,3.61E-02
43599,5.63E-03,3.63E-02
43600,5.67E-03,3.47E-02
43601,5.85E-03,3.28E-02
43602,5.89E-03,3.13E-02
43603,5.91E-03,3.05E-02
43604,5.77E-03,3.10E-02
43605,5.46E-03,3.23E-02
43606,5.40E-03,3.17E-02
43607,5.48E-03,2.91E-02
43608,5.54E-03,2.63E-02
43609,5.57E-03,2.39E-02
43610,5.57E-03,2.18E-02
43611,5.53E-03,2.01E-02
43612,5.54E-03,1.86E-02
43613,5.50E-03,1.73E-02
43614,5.45E-03,1.63E-02
43615,5.48E-03,1.54E-02
43616,5.62E-03,1.45E-02
43617,6.02E-03,1.35E-02
43618,6.30E-03,1.26E-02
43619,6.28E-03,1.19E-02
43620,6.03E-03,1.10E-02
43621,5.80E-03,1.01E-02
43622,5.71E-03,9.39E-03
43623,5.68E-03,8.87E-03
43624,5.63E-03,8.53E-03
43625,5.59E-03,8.19E-03
43626,5.42E-03,7.42E-03
43627,5.30E-03,6.06E-03
43628,5.41E-03,4.78E-03
43629,6.30E-03,1.14E-04
43630,5.39E-03,4.43E-02
43631,4.00E-03,4.63E-02
43632,6.10E-03,0.10342
43633,5.76E-03,0.12008
43634,5.58E-03,0.12067
43635,5.83E-03,0.10706
43636,6.01E-03,9.64E-02
43637,5.70E-03,2.76E-03
43638,6.38E-03,2.40E-03
43639,6.27E-03,2.64E-03
43640,6.31E-03,3.19E-03
43641,5.81E-03,3.28E-03
43642,5.74E-03,4.05E-02
43643,5.77E-03,4.11E-02
43644,5.93E-03,4.21E-02
43645,5.54E-03,4.21E-02
43646,5.27E-03,4.09E-02
43647,5.90E-03,2.08E-02
43648,5.81E-03,2.21E-02
43649,6.06E-03,2.23E-02
43650,6.03E-03,2.13E-02
43651,6.14E-03,2.04E-02
43652,6.17E-03,1.01E-02
43653,5.69E-03,9.72E-03
43654,6.08E-03,9.84E-03
43655,5.72E-03,1.03E-02
43656,5.75E-03,1.05E-02
43659,1.37E-03,8.57E-03
43718,6.41E-03,1.43E-02
43719,5.45E-03,1.19E-02
43720,8.19E-03,2.10E-02
43721,5.48E-03,1.09E-02
43722,7.34E-03,1.08E-02
43723,4.62E-03,1.95E-02
43724,6.26E-03,1.96E-02
43725,5.41E-03,1.55E-02
43726,4.11E-03,1.55E-02
43727,6.01E-03,1.52E-02
43728,5.09E-03,1.53E-02
43729,4.22E-03,2.20E-02
43730,5.36E-03,2.19E-02
43731,3.83E-03,1.54E-02
43732,4.44E-03,2.19E-02
43733,5.28E-03,2.21E-02
43734,5.77E-03,2.22E-02
43735,7.05E-03,1.54E-02
43736,5.96E-03,1.52E-02
43737,6.57E-03,1.55E-02
43738,3.81E-03,3.04E-02
43739,4.45E-03,3.04E-02
43740,4.55E-03,3.04E-02
43741,6.12E-03,1.57E-02
43742,5.92E-03,1.56E-02
43743,5.34E-03,1.58E-02
43744,4.65E-03,3.08E-02
43745,4.68E-03,3.08E-02
43746,4.62E-03,3.05E-02
43747,7.39E-03,1.37E-02
43748,6.88E-03,1.34E-02
43749,6.62E-03,1.35E-02
43750,6.25E-03,1.37E-02
43751,3.57E-03,1.17E-02
43752,4.74E-03,1.18E-02
43753,4.32E-03,1.13E-02
43754,3.42E-03,1.13E-02
43755,3.58E-03,1.15E-02
43756,5.96E-03,1.11E-02
43757,6.70E-03,1.08E-02
43758,6.76E-03,1.10E-02
43759,6.32E-03,1.18E-02
43760,7.04E-03,1.16E-02
43761,7.27E-03,1.18E-02
43762,3.02E-03,1.44E-02
43763,3.95E-03,1.45E-02
43764,4.03E-03,1.44E-02
43765,3.14E-03,1.43E-02
43766,3.34E-03,1.43E-02
43767,4.60E-03,1.54E-02
43768,3.04E-03,1.73E-02
43769,4.74E-03,1.73E-02
43770,4.46E-03,1.74E-02
43771,2.94E-03,1.73E-02
43772,2.61E-03,1.72E-02
43773,2.44E-03,1.67E-02
43774,4.10E-03,1.67E-02
43775,3.25E-03,1.66E-02
43776,2.02E-03,1.65E-02
43777,1.84E-03,1.66E-02
43778,8.24E-03,2.02E-02
43779,8.01E-03,1.99E-02
43780,6.78E-03,1.99E-02
43781,6.67E-03,1.03E-02
43782,7.35E-03,9.96E-03
43783,7.34E-03,1.01E-02
43784,3.05E-03,1.05E-02
43785,4.27E-03,1.07E-02
43786,4.03E-03,1.09E-02
43787,2.81E-03,1.07E-02
43788,3.34E-03,1.04E-02
43789,5.58E-03,1.87E-02
43790,5.50E-03,1.87E-02
43791,6.61E-03,1.81E-02
43792,5.34E-03,1.78E-02
43793,6.20E-03,1.83E-02
43794,5.39E-03,2.56E-02
43795,5.44E-03,2.59E-02
43796,5.33E-03,2.54E-02
43797,4.86E-03,2.19E-02
43798,5.12E-03,2.21E-02
43799,5.64E-03,1.39E-02
43800,5.53E-03,1.38E-02
43801,3.95E-03,1.02E-02
43802,4.88E-03,1.01E-02
43803,5.15E-03,1.86E-02
43804,3.79E-03,1.87E-02
43805,6.27E-03,1.15E-02
43806,6.98E-03,1.13E-02
43807,4.56E-03,1.77E-02
43808,4.57E-03,1.77E-02
43809,5.20E-03,1.54E-02
43810,3.78E-03,1.52E-02
43811,4.67E-03,1.69E-02
43812,3.72E-03,1.69E-02
43813,4.64E-03,1.32E-02
43814,4.36E-03,1.33E-02
43815,6.66E-03,1.43E-02
43816,7.10E-03,1.45E-02
43817,3.56E-03,1.69E-02
43818,4.89E-03,1.68E-02
43819,5.77E-03,1.04E-02
43820,4.77E-03,1.07E-02
43821,3.97E-03,2.89E-02
43822,5.34E-03,2.88E-02
43823,7.05E-03,6.13E-03
43824,5.50E-03,6.40E-03
43825,5.62E-03,9.42E-03
43826,5.38E-03,9.42E-03
43827,5.30E-03,2.53E-02
43828,2.99E-03,1.07E-02
43829,3.91E-03,1.05E-02
43830,4.30E-03,2.89E-02
43831,3.38E-03,2.91E-02
43832,4.45E-03,1.27E-02
43833,3.44E-03,1.29E-02
43834,4.18E-03,1.91E-02
43835,3.15E-03,1.91E-02
43836,2.54E-03,1.42E-02
43837,4.53E-03,1.41E-02
43838,5.82E-03,1.30E-02
43839,6.25E-03,1.28E-02
43840,5.55E-03,1.04E-02
43841,6.27E-03,1.04E-02
43842,5.90E-03,1.32E-02
43843,5.44E-03,1.34E-02
43844,4.26E-03,1.36E-02
43845,5.37E-03,1.71E-02
43846,4.97E-03,1.70E-02
43847,5.46E-03,1.71E-02
43848,6.29E-03,1.74E-02
43849,7.84E-03,1.74E-02
43850,7.82E-03,1.57E-02
43851,6.89E-03,1.59E-02
43852,7.55E-03,1.55E-02
43853,6.87E-03,2.12E-02
43854,5.03E-03,2.11E-02
43855,6.90E-03,2.11E-02
43856,4.99E-03,2.19E-02
43857,6.22E-03,2.21E-02
43858,5.52E-03,2.20E-02
43859,4.74E-03,2.18E-02
43860,6.47E-03,1.94E-02
43861,4.95E-03,1.94E-02
43862,4.82E-03,1.93E-02
43863,4.94E-03,1.93E-02
43864,4.89E-03,1.73E-02
43865,4.92E-03,1.70E-02
43866,4.98E-03,1.66E-02
43867,7.22E-03,1.51E-02
43868,3.48E-03,2.96E-02
43869,4.44E-03,2.96E-02
43870,3.20E-03,9.14E-03
43871,3.86E-03,8.72E-03
43872,4.67E-03,1.87E-02
43873,4.72E-03,1.86E-02
43874,6.09E-03,1.88E-02
43875,3.84E-03,1.91E-02
43876,5.07E-03,1.91E-02
43877,5.16E-03,1.86E-02
43878,5.91E-03,1.85E-02
43879,4.80E-03,1.61E-02
43880,4.04E-03,1.63E-02
43881,5.45E-03,1.80E-02
43882,5.38E-03,1.79E-02
43883,6.31E-03,1.63E-02
43884,6.39E-03,1.62E-02
43885,5.62E-03,1.64E-02
43886,6.57E-03,1.69E-02
43887,7.25E-03,1.68E-02
43888,7.02E-03,1.66E-02
43889,6.33E-03,1.66E-02
43890,6.38E-03,1.65E-02
43891,6.13E-03,1.64E-02
43892,6.49E-03,1.81E-02
43893,4.41E-03,1.82E-02
43894,4.79E-03,1.82E-02
43895,5.39E-03,1.82E-02
43896,5.24E-03,1.57E-02
43897,5.33E-03,1.58E-02
43898,5.55E-03,2.21E-02
43899,5.20E-03,1.24E-02
43900,6.47E-03,1.24E-02
43901,5.85E-03,1.23E-02
43902,5.81E-03,1.15E-02
43903,7.40E-03,1.53E-02
43904,5.99E-03,1.51E-02
43905,5.20E-03,1.52E-02
43906,5.93E-03,1.78E-02
43907,5.96E-03,1.78E-02
43908,5.29E-03,1.79E-02
43909,3.74E-03,2.18E-02
43910,5.46E-03,2.19E-02
43911,5.86E-03,2.19E-02
43912,5.47E-03,2.22E-02
43913,5.70E-03,2.24E-02
43914,6.50E-03,1.35E-02
43915,4.55E-03,1.35E-02
43916,5.27E-03,1.30E-02
43917,4.95E-03,1.32E-02
43918,6.87E-03,2.33E-02
43919,5.36E-03,2.34E-02
43920,5.40E-03,2.33E-02
43921,6.36E-03,1.68E-02
43922,5.93E-03,1.67E-02
43923,5.94E-03,1.69E-02
43924,6.49E-03,2.49E-02
43925,6.62E-03,2.47E-02
43926,5.39E-03,1.50E-02
43927,6.31E-03,1.50E-02
43928,5.22E-03,1.53E-02
43929,5.20E-03,1.86E-02
43930,6.59E-03,2.47E-02
43931,5.76E-03,2.45E-02
43932,5.86E-03,1.39E-02
43933,4.60E-03,1.41E-02
43934,4.45E-03,2.60E-02
43935,5.57E-03,2.57E-02
43936,6.90E-03,2.28E-02
43937,7.61E-03,2.29E-02
43938,5.30E-03,2.27E-02
43939,5.24E-03,2.19E-02
43940,5.15E-03,2.17E-02
43941,5.72E-03,1.47E-02
43942,3.85E-03,1.48E-02
43943,4.87E-03,1.95E-02
43944,3.80E-03,1.97E-02
43945,6.03E-03,1.31E-02
43946,4.59E-03,1.32E-02
43947,5.65E-03,1.88E-02
43948,4.20E-03,1.88E-02
43949,6.24E-03,1.01E-02
43950,6.15E-03,1.01E-02
43951,5.52E-03,1.04E-02
43952,5.72E-03,2.82E-02
43953,3.90E-03,2.83E-02
43954,6.44E-03,2.83E-02
43955,5.08E-03,1.46E-02
43956,5.48E-03,1.45E-02
43957,5.73E-03,1.47E-02
43958,5.99E-03,2.98E-02
43959,6.36E-03,2.96E-02
43960,5.04E-03,1.21E-02
43961,5.49E-03,1.24E-02
43962,3.60E-03,7.04E-03
43963,4.75E-03,7.02E-03
43964,4.72E-03,1.90E-02
43965,4.76E-03,1.90E-02
43966,3.98E-03,1.90E-02
43967,6.22E-03,1.02E-02
43968,5.91E-03,1.05E-02
43969,4.85E-03,1.09E-02
43970,6.44E-03,1.12E-02
43971,6.98E-03,1.10E-02
43972,7.21E-03,1.09E-02
43973,6.18E-03,7.62E-03
43974,4.41E-03,7.65E-03
43975,3.83E-03,8.90E-03
43976,4.35E-03,8.96E-03
43977,5.86E-03,9.14E-03
43978,4.45E-03,3.07E-02
43979,8.94E-03,7.71E-03
43980,6.90E-03,7.59E-03
43981,6.50E-03,7.76E-03
43982,6.80E-03,1.05E-02
43983,6.93E-03,1.06E-02
43984,8.36E-03,7.83E-03
43985,5.42E-03,4.72E-03
43986,3.85E-03,4.50E-03
43987,4.23E-03,4.57E-03
43988,4.68E-03,4.79E-03
43989,5.26E-03,2.51E-02
43990,6.50E-03,1.06E-02
43991,5.57E-03,1.02E-02
43992,5.47E-03,1.04E-02
43993,4.96E-03,1.50E-02
43994,5.59E-03,1.52E-02
43995,3.22E-03,9.03E-03
43996,4.39E-03,9.02E-03
43997,5.35E-03,8.98E-03
43998,4.23E-03,8.29E-03
43999,4.30E-03,8.17E-03
44000,5.93E-03,1.41E-02
44001,6.64E-03,1.38E-02
44002,6.02E-03,1.36E-02
44003,4.45E-03,1.69E-02
44004,4.02E-03,1.70E-02
44005,3.42E-03,1.70E-02
44006,4.20E-03,1.69E-02
44007,3.83E-03,1.67E-02
44008,4.90E-03,1.67E-02
44009,4.59E-03,1.29E-02
44010,4.18E-03,1.28E-02
44011,4.75E-03,1.25E-02
44012,4.38E-03,1.26E-02
44013,4.46E-03,1.31E-02
44014,3.00E-03,1.29E-02
44015,6.31E-03,1.33E-02
44016,6.20E-03,1.33E-02
44017,4.79E-03,1.34E-02
44018,4.29E-03,1.72E-02
44019,4.39E-03,1.72E-02
44020,4.95E-03,1.72E-02
44021,4.09E-03,1.38E-02
44022,3.07E-03,1.36E-02
44023,7.45E-03,1.42E-02
44024,7.32E-03,1.40E-02
44025,5.01E-03,1.78E-02
44026,7.96E-03,1.97E-02
44027,6.53E-03,1.95E-02
44028,6.68E-03,1.96E-02
44029,7.52E-03,1.98E-02
44030,5.30E-03,1.35E-02
44031,5.70E-03,1.37E-02
44032,6.19E-03,1.38E-02
44033,6.07E-03,1.36E-02
44034,4.77E-03,1.59E-02
44035,6.19E-03,1.60E-02
44036,5.37E-03,1.62E-02
44037,4.58E-03,1.60E-02
44038,3.04E-03,2.45E-02
44039,3.80E-03,2.43E-02
44040,3.63E-03,2.44E-02
44041,3.41E-03,1.19E-02
44042,3.23E-03,1.20E-02
44043,4.17E-03,1.19E-02
44044,4.21E-03,1.44E-02
44045,4.59E-03,1.47E-02
44046,3.06E-03,1.47E-02
44047,3.73E-03,1.20E-02
44048,3.69E-03,1.21E-02
44049,4.17E-03,1.19E-02
44050,5.75E-03,1.87E-02
44051,4.83E-03,1.87E-02
44052,3.83E-03,1.87E-02
44053,4.26E-03,1.87E-02
44054,4.63E-03,1.88E-02
44055,5.56E-03,1.88E-02
44056,5.17E-03,1.88E-02
44057,4.92E-03,1.88E-02
44058,4.31E-03,1.08E-02
44059,5.16E-03,1.05E-02
44060,4.28E-03,1.08E-02
44061,2.85E-03,1.88E-02
44062,3.08E-03,1.89E-02
44063,2.84E-03,1.89E-02
44064,4.70E-03,2.67E-02
44065,5.64E-03,2.66E-02
44066,4.41E-03,2.69E-02
44067,3.17E-03,8.15E-03
44068,3.00E-03,8.22E-03
44069,3.61E-03,8.38E-03
44070,2.97E-03,1.78E-02
44071,3.41E-03,1.78E-02
44072,3.18E-03,1.80E-02
44073,4.00E-03,1.20E-02
44074,3.96E-03,1.21E-02
44075,4.07E-03,1.22E-02
44076,4.00E-03,1.46E-02
44077,3.37E-03,1.47E-02
44078,4.29E-03,1.47E-02
44079,3.96E-03,3.00E-02
44080,4.18E-03,3.00E-02
44081,3.61E-03,1.36E-02
44082,3.53E-03,1.34E-02
44083,3.87E-03,1.35E-02
44084,3.35E-03,9.36E-03
44085,3.22E-03,9.50E-03
44086,3.69E-03,9.42E-03
44087,5.43E-03,2.89E-02
44088,4.41E-03,2.89E-02
44089,4.81E-03,2.87E-02
44090,6.11E-03,2.87E-02
44091,3.45E-03,1.39E-02
44092,4.31E-03,1.39E-02
44093,4.14E-03,1.37E-02
44094,3.99E-03,4.27E-03
44095,3.94E-03,4.34E-03
44096,3.81E-03,6.35E-03
44097,3.49E-03,6.38E-03
44098,4.05E-03,6.55E-03
44099,2.96E-03,1.29E-02
44100,4.18E-03,1.27E-02
44101,3.59E-03,1.96E-02
44102,3.42E-03,1.97E-02
44103,3.77E-03,1.99E-02
44104,3.16E-03,1.65E-02
44105,3.09E-03,1.64E-02
44106,3.00E-03,1.65E-02
44107,5.03E-03,1.41E-02
44108,4.53E-03,1.42E-02
44109,3.33E-03,1.93E-02
44110,4.42E-03,1.94E-02
44111,2.54E-03,1.46E-02
44112,2.69E-03,1.47E-02
44113,2.87E-03,1.48E-02
44114,3.48E-03,8.87E-03
44115,4.71E-03,8.82E-03
44116,3.42E-03,1.37E-02
44117,4.37E-03,1.38E-02
44118,4.49E-03,1.36E-02
44119,4.32E-03,1.36E-02
44120,4.63E-03,1.34E-02
44121,3.61E-03,1.74E-02
44122,2.67E-03,1.73E-02
44123,2.89E-03,1.73E-02
44124,3.55E-03,2.59E-02
44125,3.54E-03,2.59E-02
44126,3.58E-03,2.57E-02
44127,4.33E-03,2.88E-02
44128,3.34E-03,2.89E-02
44129,3.09E-03,1.50E-02
44130,2.94E-03,1.49E-02
44131,3.47E-03,1.51E-02
44132,6.12E-03,1.40E-02
44133,4.86E-03,1.42E-02
44134,5.27E-03,1.43E-02
44135,3.12E-03,1.21E-02
44136,3.01E-03,1.22E-02
44137,3.15E-03,1.22E-02
44138,3.95E-03,1.20E-02
44139,4.51E-03,1.19E-02
44140,4.48E-03,1.21E-02
44141,2.97E-03,1.45E-02
44142,3.03E-03,1.46E-02
44143,3.24E-03,1.45E-02
44144,3.91E-03,9.08E-03
44145,4.89E-03,8.89E-03
44146,4.34E-03,8.88E-03
44147,3.26E-03,1.21E-02
44148,3.23E-03,1.19E-02
44149,3.15E-03,1.20E-02
44150,3.46E-03,9.77E-03
44151,4.54E-03,9.99E-03
44152,6.25E-03,9.83E-03
44153,3.64E-03,9.62E-03
44154,3.66E-03,9.78E-03
44155,3.45E-03,9.47E-03
44156,7.24E-03,1.81E-02
44157,6.66E-03,1.82E-02
44158,4.70E-03,1.82E-02
44159,4.45E-03,1.52E-02
44160,5.58E-03,1.54E-02
44161,3.60E-03,2.06E-02
44162,3.56E-03,2.06E-02
44163,4.07E-03,2.07E-02
44164,5.22E-03,2.20E-02
44165,5.02E-03,2.18E-02
44166,3.44E-03,1.49E-02
44167,3.57E-03,1.47E-02
44168,3.45E-03,1.49E-02
44169,3.14E-03,1.54E-02
44170,3.04E-03,1.53E-02
44171,3.21E-03,1.54E-02
44172,3.84E-03,1.05E-02
44173,3.66E-03,1.03E-02
44174,3.11E-03,1.04E-02
44175,5.88E-03,1.38E-02
44176,6.36E-03,1.39E-02
44177,7.34E-03,1.40E-02
44178,6.58E-03,1.44E-02
44179,7.26E-03,1.42E-02
44180,6.68E-03,9.53E-03
44181,7.32E-03,9.16E-03
44182,6.96E-03,9.97E-03
44183,6.69E-03,9.57E-03
44184,4.54E-03,3.03E-02
44185,5.81E-03,3.05E-02
44186,4.05E-03,1.76E-02
44187,5.69E-03,1.75E-02
44188,6.76E-03,1.70E-02
44189,7.12E-03,1.72E-02
44190,6.31E-03,1.84E-02
44191,6.52E-03,1.85E-02
44192,6.03E-03,1.77E-02
44193,6.75E-03,1.79E-02
44194,5.83E-03,1.76E-02
44195,5.76E-03,2.35E-02
44196,5.74E-03,2.34E-02
44197,5.62E-03,2.80E-02
44198,6.65E-03,2.79E-02
44199,6.71E-03,2.78E-02
44200,5.57E-03,1.52E-02
44201,5.75E-03,1.50E-02
44202,5.16E-03,1.44E-02
44203,5.19E-03,1.45E-02
44204,4.94E-03,1.49E-02
44205,5.11E-03,1.47E-02
44206,5.55E-03,1.45E-02
44207,3.83E-03,1.71E-02
44208,5.37E-03,1.72E-02
44209,4.21E-03,1.70E-02
44210,3.21E-03,1.70E-02
44211,3.70E-03,1.29E-02
44212,4.37E-03,1.30E-02
44213,4.34E-03,1.28E-02
44214,8.50E-03,2.69E-02
44215,6.28E-03,2.71E-02
44216,4.87E-03,2.69E-02
44217,6.48E-03,1.45E-02
44218,4.93E-03,1.45E-02
44219,7.25E-03,9.21E-03
44220,7.10E-03,8.86E-03
44221,5.23E-03,8.75E-03
44222,6.61E-03,9.27E-03
44223,8.59E-03,1.73E-02
44224,7.22E-03,1.73E-02
44225,8.09E-03,1.74E-02
44226,4.23E-03,2.76E-02
44227,5.24E-03,2.80E-02
44228,6.96E-03,2.79E-02
44229,7.57E-03,2.93E-02
44230,6.38E-03,2.93E-02
44231,5.60E-03,2.95E-02
44232,3.71E-03,1.71E-02
44233,3.73E-03,1.72E-02
44234,4.97E-03,1.89E-02
44235,6.47E-03,1.90E-02
44236,7.12E-03,1.90E-02
44237,6.04E-03,1.90E-02
44238,6.94E-03,1.87E-02
44239,5.45E-03,1.88E-02
44240,5.84E-03,1.88E-02
44241,5.80E-03,1.88E-02
44242,6.37E-03,1.85E-02
44243,6.99E-03,1.86E-02
44244,7.11E-03,1.86E-02
44245,6.76E-03,1.70E-02
44246,6.66E-03,1.72E-02
44247,6.60E-03,1.80E-02
44248,4.73E-03,1.80E-02
44249,6.39E-03,1.68E-02
44250,6.49E-03,1.69E-02
44251,6.30E-03,1.67E-02
44252,6.03E-03,1.69E-02
44253,5.70E-03,1.53E-02
44254,6.86E-03,1.52E-02
44255,7.03E-03,2.04E-02
44256,5.21E-03,2.04E-02
44257,8.61E-03,2.01E-02
44258,5.60E-03,1.86E-02
44259,5.62E-03,1.86E-02
44260,5.57E-03,1.86E-02
44261,5.63E-03,1.86E-02
44262,4.32E-03,1.32E-02
44263,4.90E-03,1.30E-02
44264,3.44E-03,1.31E-02
44265,7.55E-03,2.19E-02
44266,6.01E-03,2.19E-02
44267,6.75E-03,2.16E-02
44268,4.53E-03,2.16E-02
44269,6.80E-03,1.73E-02
44270,6.40E-03,1.71E-02
44271,5.48E-03,1.75E-02
44272,4.73E-03,1.76E-02
44273,6.18E-03,1.34E-02
44274,6.01E-03,1.32E-02
44275,5.87E-03,1.31E-02
44276,3.85E-03,1.29E-02
44277,5.21E-03,1.72E-02
44278,6.47E-03,1.73E-02
44279,7.08E-03,1.70E-02
44280,6.62E-03,1.56E-02
44281,6.59E-03,1.58E-02
44282,6.86E-03,1.57E-02
44283,7.00E-03,1.58E-02
44284,5.44E-03,2.64E-02
44285,4.78E-03,2.62E-02
44286,6.43E-03,2.64E-02
44287,6.18E-03,2.62E-02
44288,5.21E-03,2.36E-02
44289,6.36E-03,2.36E-02
44290,6.63E-03,2.40E-02
44291,5.87E-03,2.39E-02
44292,5.35E-03,1.61E-02
44293,7.57E-03,1.62E-02
44294,7.82E-03,1.63E-02
44295,5.42E-03,1.64E-02
44296,5.43E-03,1.11E-02
44297,4.96E-03,1.10E-02
44298,5.55E-03,1.07E-02
44299,6.45E-03,1.08E-02
44300,5.72E-03,2.67E-02
44301,3.74E-03,2.66E-02
44302,4.09E-03,2.67E-02
44303,5.34E-03,2.66E-02
44304,4.92E-03,2.13E-02
44305,6.47E-03,2.10E-02
44306,5.69E-03,1.59E-02
44307,5.66E-03,1.56E-02
44308,5.98E-03,1.65E-02
44309,6.16E-03,1.61E-02
44310,5.55E-03,1.48E-02
44311,5.35E-03,1.47E-02
44312,5.39E-03,1.46E-02
44313,5.43E-03,6.35E-03
44314,5.28E-03,6.31E-03
44315,5.64E-03,6.71E-03
44316,4.98E-03,6.69E-03
44317,4.58E-03,2.98E-02
44318,5.10E-03,2.99E-02
44319,4.60E-03,9.27E-03
44320,6.69E-03,9.43E-03
44321,6.24E-03,9.36E-03
44322,3.55E-03,9.50E-03
44323,5.73E-03,1.08E-02
44324,5.57E-03,1.11E-02
44325,5.42E-03,1.09E-02
44326,4.98E-03,2.59E-02
44327,5.87E-03,2.59E-02
44328,5.96E-03,2.68E-02
44329,5.28E-03,2.67E-02
44330,7.31E-03,3.01E-02
44331,5.20E-03,3.07E-02
44332,4.30E-03,3.05E-02
44333,5.62E-03,7.36E-03
44334,5.59E-03,7.71E-03
44335,6.29E-03,7.62E-03
44336,5.92E-03,8.02E-03
44337,4.40E-03,1.60E-02
44338,5.00E-03,1.59E-02
44339,6.01E-03,1.58E-02
44340,4.32E-03,1.41E-02
44341,4.84E-03,1.39E-02
44342,5.05E-03,2.05E-02
44343,7.34E-03,2.04E-02
44344,6.76E-03,2.04E-02
44345,4.85E-03,2.03E-02
44346,6.52E-03,1.80E-02
44347,4.74E-03,1.80E-02
44348,6.85E-03,1.81E-02
44349,5.79E-03,1.94E-02
44350,5.88E-03,1.93E-02
44351,2.00E-03,1.30E-02
44352,4.70E-03,1.29E-02
44353,4.90E-03,1.04E-02
44354,4.76E-03,2.71E-02
44355,5.79E-03,2.71E-02
44356,6.08E-03,1.05E-02
44357,4.23E-03,1.03E-02
44358,4.43E-03,2.62E-02
44359,3.97E-03,2.62E-02
44360,5.28E-03,1.48E-02
44361,5.25E-03,1.49E-02
44362,5.13E-03,1.47E-02
44363,4.75E-03,1.18E-02
44364,3.95E-03,1.75E-02
44365,4.82E-03,1.74E-02
44366,6.66E-03,1.77E-02
44367,5.48E-03,1.78E-02
44368,5.55E-03,1.68E-02
44369,5.60E-03,1.69E-02
44370,5.19E-03,8.92E-03
44371,6.62E-03,9.07E-03
44372,6.90E-03,1.10E-02
44373,6.39E-03,1.09E-02
44374,5.44E-03,2.50E-02
44375,4.82E-03,2.50E-02
44376,5.21E-03,1.10E-02
44377,7.43E-03,1.12E-02
44378,6.74E-03,1.86E-02
44379,6.60E-03,1.87E-02
44380,5.75E-03,8.68E-03
44381,5.12E-03,8.44E-03
44382,5.38E-03,1.86E-02
44383,5.45E-03,1.86E-02
44384,4.89E-03,2.33E-02
44385,5.09E-03,1.31E-02
44386,6.86E-03,1.44E-02
44387,6.21E-03,1.46E-02
44388,5.44E-03,1.19E-02
44389,6.74E-03,1.19E-02
44390,5.13E-03,1.45E-02
44391,4.88E-03,1.44E-02
44392,5.95E-03,1.42E-02
44393,4.61E-03,1.41E-02
44394,6.04E-03,1.85E-02
44395,6.03E-03,1.84E-02
44396,6.56E-03,1.84E-02
44397,7.41E-03,1.83E-02
44398,5.19E-03,1.83E-02
44399,5.68E-03,1.83E-02
44400,5.84E-03,1.83E-02
44401,5.91E-03,1.84E-02
44402,6.51E-03,1.82E-02
44403,6.12E-03,1.83E-02
44404,5.86E-03,1.83E-02
44405,5.87E-03,1.83E-02
44406,5.87E-03,1.82E-02
44407,4.93E-03,1.85E-02
44408,5.23E-03,1.83E-02
44409,5.06E-03,1.87E-02
44410,6.18E-03,1.43E-02
44411,5.58E-03,1.45E-02
44412,3.75E-03,1.24E-02
44413,3.62E-03,1.25E-02
44414,5.20E-03,2.10E-02
44415,5.19E-03,2.10E-02
44416,5.90E-03,1.27E-02
44417,3.60E-03,1.26E-02
44418,5.53E-03,1.86E-02
44419,5.52E-03,1.86E-02
44420,4.95E-03,2.04E-02
44421,5.27E-03,2.03E-02
44422,5.87E-03,1.70E-02
44423,5.88E-03,1.69E-02
44424,5.45E-03,1.78E-02
44425,5.29E-03,1.78E-02
44426,5.78E-03,2.19E-02
44427,5.75E-03,2.18E-02
44428,5.47E-03,1.34E-02
44429,5.42E-03,1.36E-02
44430,6.08E-03,2.22E-02
44431,5.36E-03,1.52E-02
44432,5.37E-03,1.54E-02
44433,5.24E-03,2.20E-02
44434,5.21E-03,2.20E-02
44435,4.55E-03,2.19E-02
44436,4.75E-03,2.19E-02
44437,5.78E-03,2.22E-02
44438,5.20E-03,2.21E-02
44439,5.08E-03,1.41E-02
44440,5.10E-03,1.42E-02
44441,6.29E-03,1.35E-02
44442,6.28E-03,1.37E-02
44443,6.11E-03,1.06E-02
44444,6.00E-03,1.08E-02
44445,3.78E-03,1.34E-02
44446,4.85E-03,1.35E-02
44447,4.56E-03,1.33E-02
44448,4.38E-03,1.32E-02
44449,6.63E-03,1.07E-02
44450,6.59E-03,1.05E-02
44451,6.25E-03,1.02E-02
44452,5.71E-03,1.39E-02
44453,5.64E-03,1.41E-02
44454,4.19E-03,1.45E-02
44455,3.53E-03,1.45E-02
44456,4.27E-03,1.72E-02
44457,6.12E-03,1.69E-02
44458,3.76E-03,1.51E-02
44459,4.29E-03,1.52E-02
44460,4.70E-03,1.50E-02
44461,4.45E-03,1.49E-02
44462,4.89E-03,2.55E-02
44463,5.16E-03,2.54E-02
44464,5.25E-03,1.27E-02
44465,5.63E-03,1.25E-02
44466,5.25E-03,1.86E-02
44467,4.87E-03,1.44E-02
44468,5.01E-03,1.42E-02
44469,4.28E-03,1.30E-02
44470,3.44E-03,1.29E-02
44471,3.47E-03,1.76E-02
44472,6.80E-03,1.77E-02
44473,6.66E-03,1.76E-02
44474,5.00E-03,1.28E-02
44475,5.01E-03,1.31E-02
44476,3.61E-03,1.24E-02
44477,3.36E-03,1.25E-02
44478,6.55E-03,1.00E-02
44479,6.36E-03,1.03E-02
44480,4.94E-03,2.74E-02
44481,5.79E-03,9.72E-03
44482,5.75E-03,9.69E-03
44483,4.90E-03,1.12E-02
44484,4.90E-03,1.14E-02
44485,5.69E-03,8.96E-03
44486,5.77E-03,9.02E-03
44487,7.46E-03,1.46E-02
44488,5.53E-03,1.25E-02
44489,5.58E-03,1.26E-02
44490,5.15E-03,1.05E-02
44491,5.12E-03,1.06E-02
44492,5.76E-03,9.35E-03
44493,5.75E-03,9.37E-03
44494,5.85E-03,9.40E-03
44495,6.03E-03,1.27E-02
44496,5.73E-03,1.26E-02
44497,4.25E-03,1.27E-02
44498,5.25E-03,1.53E-02
44499,5.24E-03,1.51E-02
44500,5.09E-03,2.80E-02
44501,5.06E-03,1.88E-02
44502,5.06E-03,1.88E-02
44503,5.77E-03,1.84E-02
44504,5.80E-03,1.85E-02
44505,5.90E-03,2.36E-02
44506,4.17E-03,2.39E-02
44507,4.98E-03,1.08E-02
44508,4.99E-03,1.07E-02
44509,5.03E-03,1.35E-02
44510,5.10E-03,1.33E-02
44511,5.09E-03,1.32E-02
44512,4.91E-03,1.34E-02
44513,5.20E-03,1.40E-02
44514,5.06E-03,1.37E-02
44515,4.49E-03,1.14E-02
44516,4.53E-03,1.16E-02
44517,4.68E-03,2.52E-02
44518,4.56E-03,2.54E-02
44519,5.74E-03,1.75E-02
44520,5.80E-03,1.74E-02
44521,7.36E-03,1.09E-02
44522,6.62E-03,1.09E-02
44523,6.22E-03,2.90E-02
44524,6.93E-03,2.88E-02
44525,6.92E-03,2.86E-02
44526,4.67E-03,1.19E-02
44527,4.64E-03,1.17E-02
44528,4.97E-03,1.35E-02
44529,4.78E-03,1.37E-02
44530,5.79E-03,9.61E-03
44531,5.75E-03,9.33E-03
44532,5.02E-03,2.95E-02
44533,5.28E-03,2.92E-02
44534,5.85E-03,7.90E-03
44535,5.35E-03,8.18E-03
44536,6.14E-03,9.67E-03
44537,5.78E-03,9.71E-03
44538,4.84E-03,1.02E-02
44539,6.27E-03,9.93E-03
44540,4.76E-03,1.81E-02
44541,5.88E-03,1.83E-02
44542,5.53E-03,1.89E-02
44543,5.57E-03,1.89E-02
44544,5.66E-03,8.43E-03
44545,5.54E-03,8.16E-03
44546,4.14E-03,1.43E-02
44547,4.62E-03,1.44E-02
44548,4.55E-03,1.46E-02
44549,4.89E-03,1.44E-02
44550,6.34E-03,9.87E-03
44551,4.04E-03,9.77E-03
44552,5.04E-03,1.00E-02
44553,4.82E-03,9.99E-03
44554,5.74E-03,1.02E-02
44555,3.98E-03,1.01E-02
44556,5.14E-03,7.39E-03
44557,5.16E-03,7.46E-03
44558,5.51E-03,9.97E-03
44559,5.55E-03,9.73E-03
44560,5.42E-03,9.97E-03
44561,5.35E-03,9.95E-03
44562,5.40E-03,1.85E-02
44563,5.12E-03,1.82E-02
44564,5.07E-03,9.79E-03
44565,4.43E-03,9.84E-03
44566,5.33E-03,2.30E-02
44567,5.25E-03,2.32E-02
44568,5.77E-03,1.77E-02
44569,5.75E-03,1.78E-02
44570,5.17E-03,1.24E-02
44571,5.25E-03,1.28E-02
44572,4.88E-03,9.98E-03
44573,4.93E-03,9.82E-03
44574,5.35E-03,7.40E-03
44575,5.34E-03,7.29E-03
44576,4.41E-03,7.24E-03
44577,4.52E-03,7.27E-03
44578,4.97E-03,7.55E-03
44579,5.29E-03,7.52E-03
44580,5.86E-03,1.26E-02
44581,5.89E-03,1.25E-02
44582,5.02E-03,9.42E-03
44583,5.06E-03,9.38E-03
44584,5.32E-03,2.17E-02
44585,5.34E-03,2.20E-02
44586,4.99E-03,9.83E-03
44587,4.75E-03,9.77E-03
44588,8.05E-03,9.64E-03
44589,6.47E-03,9.81E-03
44590,4.99E-03,1.49E-02
44591,4.76E-03,1.48E-02
44592,4.64E-03,8.70E-03
44593,3.59E-03,8.81E-03
44594,4.68E-03,8.76E-03
44595,5.00E-03,8.56E-03
44596,4.36E-03,1.96E-02
44597,3.70E-03,1.97E-02
44598,4.77E-03,1.99E-02
44599,4.35E-03,1.98E-02
44600,5.72E-03,1.48E-02
44601,6.52E-03,1.49E-02
44602,6.64E-03,7.15E-03
44603,6.48E-03,7.01E-03
44604,5.14E-03,8.54E-03
44605,5.12E-03,8.54E-03
44606,5.59E-03,1.49E-02
44607,5.62E-03,1.53E-02
44608,5.08E-03,1.46E-02
44609,5.10E-03,1.43E-02
44610,7.06E-03,9.22E-03
44611,5.38E-03,9.16E-03
44612,4.18E-03,3.08E-02
44613,5.29E-03,3.09E-02
44614,6.31E-03,7.81E-03
44615,5.56E-03,7.55E-03
44616,4.02E-03,1.72E-02
44617,6.08E-03,8.34E-03
44618,5.22E-03,8.32E-03
44619,6.54E-03,2.98E-02
44620,4.01E-03,3.10E-02
44621,5.36E-03,3.12E-02
44622,5.57E-03,1.62E-02
44623,5.49E-03,1.59E-02
44624,5.35E-03,1.09E-02
44625,3.10E-03,1.72E-02
44626,3.98E-03,1.71E-02
44627,4.36E-03,1.52E-02
44628,3.94E-03,1.71E-02
44629,3.66E-03,1.72E-02
44630,4.18E-03,1.69E-02
44631,5.90E-03,8.52E-03
44632,5.07E-03,8.46E-03
44633,2.70E-03,1.35E-02
44634,2.90E-03,1.36E-02
44635,3.72E-03,1.35E-02
44636,3.77E-03,1.33E-02
44637,3.94E-03,1.82E-02
44638,4.19E-03,1.81E-02
44639,4.70E-03,1.81E-02
44640,4.56E-03,1.81E-02
44641,4.94E-03,9.77E-03
44642,5.05E-03,9.80E-03
44643,5.17E-03,1.01E-02
44644,5.25E-03,1.00E-02
44645,5.84E-03,1.53E-02
44646,5.77E-03,1.54E-02
44647,5.98E-03,1.56E-02
44648,6.11E-03,1.54E-02
44649,4.87E-03,1.31E-02
44650,4.19E-03,1.33E-02
44651,4.32E-03,1.31E-02
44652,4.15E-03,2.21E-02
44653,2.45E-03,1.46E-02
44654,3.54E-03,1.44E-02
44655,3.20E-03,1.45E-02
44656,1.95E-03,1.13E-02
44657,2.79E-03,1.12E-02
44658,2.88E-03,1.11E-02
44659,4.16E-03,1.31E-02
44660,4.07E-03,1.29E-02
44661,3.64E-03,1.54E-02
44662,4.76E-03,1.56E-02
44663,3.83E-03,1.55E-02
44664,2.80E-03,1.60E-02
44665,4.14E-03,1.60E-02
44666,3.62E-03,1.59E-02
44667,2.86E-03,8.00E-03
44668,4.02E-03,7.85E-03
44669,3.47E-03,8.08E-03
44670,2.30E-03,6.26E-03
44671,3.04E-03,6.35E-03
44672,3.47E-03,6.47E-03
44673,2.35E-03,1.01E-02
44674,3.01E-03,9.91E-03
44675,3.52E-03,9.95E-03
44676,2.23E-03,1.21E-02
44677,3.57E-03,1.21E-02
44678,3.38E-03,1.22E-02
44679,2.08E-03,1.52E-02
44680,2.76E-03,1.52E-02
44681,2.75E-03,1.51E-02
44682,2.08E-03,1.65E-02
44683,2.87E-03,1.65E-02
44684,2.10E-03,1.34E-02
44685,3.66E-03,1.32E-02
44686,4.37E-03,1.33E-02
44687,3.73E-03,1.87E-02
44688,3.33E-03,1.88E-02
44689,3.41E-03,1.48E-02
44690,3.58E-03,1.46E-02
44691,3.94E-03,1.93E-02
44692,5.10E-03,1.92E-02
44693,3.95E-03,1.70E-02
44694,4.68E-03,1.54E-02
44695,4.15E-03,1.21E-02
44696,4.31E-03,1.87E-02
44697,3.89E-03,1.92E-02
44698,5.63E-03,1.91E-02
44699,3.86E-03,1.93E-02
44700,5.22E-03,1.93E-02
44701,4.57E-03,1.91E-02
44702,5.26E-03,1.91E-02
44703,4.70E-03,1.90E-02
44704,5.36E-03,1.90E-02
44705,3.64E-03,1.89E-02
44706,3.74E-03,1.88E-02
44707,2.81E-03,1.88E-02
44708,3.57E-03,1.89E-02
44709,4.16E-03,1.89E-02
44710,4.80E-03,1.93E-02
44711,5.14E-03,1.92E-02
44712,3.64E-03,1.94E-02
44713,5.56E-03,1.90E-02
44714,6.25E-03,1.90E-02
44715,5.18E-03,1.93E-02
44716,5.24E-03,1.91E-02
44717,5.16E-03,1.93E-02
44718,4.01E-03,1.88E-02
44719,4.93E-03,1.89E-02
44720,5.53E-03,1.94E-02
44721,6.33E-03,1.96E-02
44722,4.79E-03,1.98E-02
44723,5.02E-03,1.99E-02
44724,5.85E-03,1.98E-02
44725,3.91E-03,1.88E-02
44726,5.16E-03,1.89E-02
44727,5.00E-03,1.88E-02
44728,5.07E-03,1.87E-02
44729,5.83E-03,1.97E-02
44730,5.20E-03,2.00E-02
44731,4.86E-03,1.93E-02
44732,5.19E-03,1.92E-02
44733,4.82E-03,1.94E-02
44734,5.91E-03,1.97E-02
44735,5.38E-03,1.90E-02
44736,5.85E-03,1.99E-02
44737,5.16E-03,2.00E-02
44738,5.66E-03,1.98E-02
44739,5.64E-03,1.90E-02
44740,5.37E-03,1.92E-02
44741,5.37E-03,1.91E-02
44742,5.39E-03,1.92E-02
44743,5.35E-03,1.93E-02
44744,4.87E-03,1.87E-02
44745,5.52E-03,1.88E-02
44746,5.90E-03,1.89E-02
44747,5.36E-03,1.94E-02
44748,5.69E-03,1.95E-02
44749,5.34E-03,1.97E-02
44750,4.83E-03,1.86E-02
44751,4.98E-03,1.98E-02
44752,5.42E-03,2.00E-02
44753,5.16E-03,1.93E-02
44754,5.24E-03,1.94E-02
44755,6.00E-03,1.87E-02
44756,5.99E-03,1.89E-02
44757,5.28E-03,2.01E-02
44758,5.16E-03,1.95E-02
44759,5.38E-03,1.92E-02
44760,5.27E-03,2.01E-02
44761,5.82E-03,1.99E-02
44762,5.61E-03,1.97E-02
44763,5.46E-03,1.90E-02
44764,4.84E-03,2.01E-02
44765,6.10E-03,2.02E-02
44766,5.77E-03,1.98E-02
44767,5.58E-03,1.86E-02
44768,5.47E-03,1.90E-02
44769,5.36E-03,1.93E-02
44770,5.62E-03,1.88E-02
44771,5.70E-03,1.89E-02
44772,5.40E-03,1.94E-02
44773,5.56E-03,1.95E-02
44774,4.45E-03,1.86E-02
44775,5.82E-03,1.86E-02
44776,5.42E-03,1.97E-02
44777,4.02E-03,1.85E-02
44778,5.47E-03,1.99E-02
44779,5.40E-03,1.93E-02
44780,5.44E-03,1.94E-02
44781,5.51E-03,2.01E-02
44782,5.47E-03,1.91E-02
44783,5.67E-03,2.02E-02
44784,5.45E-03,1.92E-02
44785,5.69E-03,1.98E-02
44786,5.41E-03,1.95E-02
44787,5.39E-03,1.91E-02
44788,6.20E-03,2.01E-02
44789,7.92E-03,2.03E-02
44790,5.68E-03,1.97E-02
44791,5.52E-03,1.90E-02
44792,5.74E-03,2.00E-02
44793,5.76E-03,1.98E-02
44794,5.87E-03,1.85E-02
44795,5.51E-03,1.90E-02
44796,5.47E-03,1.91E-02
44797,5.50E-03,1.92E-02
44798,5.42E-03,1.93E-02
44799,5.67E-03,1.88E-02
44800,5.61E-03,1.89E-02
44801,5.39E-03,1.94E-02
44802,5.49E-03,1.95E-02
44803,4.58E-03,1.85E-02
44804,5.61E-03,1.85E-02
44805,5.52E-03,1.96E-02
44806,6.35E-03,1.84E-02
44807,5.75E-03,1.83E-02
44808,5.71E-03,1.98E-02
44809,5.55E-03,1.99E-02
44810,5.51E-03,1.93E-02
44811,5.56E-03,1.94E-02
44812,5.64E-03,2.00E-02
44813,5.76E-03,2.02E-02
44814,6.11E-03,2.03E-02
44815,5.84E-03,2.00E-02
44816,5.72E-03,1.87E-02
44817,5.92E-03,2.01E-02
44818,6.10E-03,2.03E-02
44819,5.54E-03,1.95E-02
44820,5.56E-03,1.91E-02
44821,5.76E-03,1.97E-02
44822,5.46E-03,1.88E-02
44823,5.59E-03,1.90E-02
44824,5.87E-03,1.98E-02
44825,4.35E-03,1.85E-02
44826,5.52E-03,1.90E-02
44827,5.55E-03,1.91E-02
44828,5.52E-03,1.92E-02
44829,5.46E-03,1.93E-02
44830,5.66E-03,1.88E-02
44831,5.39E-03,1.94E-02
44832,5.71E-03,1.87E-02
44833,5.42E-03,1.95E-02
44834,5.76E-03,1.85E-02
44835,5.56E-03,1.96E-02
44836,5.77E-03,1.84E-02
44837,7.59E-03,1.82E-02
44838,6.57E-03,1.82E-02
44839,5.64E-03,1.99E-02
44840,5.58E-03,1.92E-02
44841,5.72E-03,1.94E-02
44842,5.68E-03,2.00E-02
44843,5.81E-03,2.02E-02
44844,5.99E-03,2.03E-02
44845,7.33E-03,2.05E-02
44846,6.40E-03,2.04E-02
44847,5.05E-03,1.87E-02
44848,5.93E-03,2.04E-02
44849,5.70E-03,2.03E-02
44850,5.67E-03,2.01E-02
44851,5.56E-03,1.89E-02
44852,5.65E-03,1.97E-02
44853,5.71E-03,1.95E-02
44854,5.51E-03,1.91E-02
44855,5.90E-03,1.97E-02
44856,5.39E-03,1.88E-02
44857,5.44E-03,1.89E-02
44858,8.07E-03,1.82E-02
44859,5.99E-03,1.84E-02
44860,5.31E-03,2.05E-02
44861,5.68E-03,2.00E-02
44862,5.89E-03,1.98E-02
44863,5.60E-03,1.85E-02
44864,5.55E-03,1.90E-02
44865,5.55E-03,1.91E-02
44866,5.51E-03,1.92E-02
44867,5.46E-03,1.93E-02
44868,5.39E-03,1.86E-02
44869,5.61E-03,1.88E-02
44870,5.42E-03,1.94E-02
44871,5.70E-03,1.87E-02
44872,5.42E-03,1.95E-02
44873,5.76E-03,1.86E-02
44874,5.50E-03,1.96E-02
44875,5.88E-03,1.84E-02
44876,6.07E-03,1.80E-02
44877,6.24E-03,1.81E-02
44878,6.13E-03,1.82E-02
44879,5.60E-03,1.98E-02
44880,5.64E-03,1.92E-02
44881,5.88E-03,1.94E-02
44882,5.71E-03,2.00E-02
44883,5.97E-03,2.03E-02
44884,6.20E-03,2.04E-02
44885,6.09E-03,2.06E-02
44886,6.39E-03,2.06E-02
44887,5.52E-03,2.04E-02
44888,5.50E-03,2.00E-02
44889,5.55E-03,1.89E-02
44890,5.66E-03,1.97E-02
44891,5.81E-03,2.01E-02
44892,5.33E-03,2.01E-02
44893,5.24E-03,2.03E-02
44894,5.84E-03,1.95E-02
44895,5.53E-03,1.91E-02
44896,5.67E-03,1.81E-02
44897,5.39E-03,1.81E-02
44898,6.50E-03,1.83E-02
44899,3.96E-03,2.02E-02
44900,4.47E-03,2.00E-02
44901,5.73E-03,2.06E-02
44902,5.94E-03,1.80E-02
44903,6.04E-03,1.97E-02
44904,5.33E-03,1.87E-02
44905,5.32E-03,1.89E-02
44906,5.67E-03,1.83E-02
44907,5.56E-03,1.98E-02
44908,5.60E-03,1.90E-02
44909,5.61E-03,1.91E-02
44910,5.54E-03,1.92E-02
44911,5.60E-03,1.89E-02
44912,5.46E-03,1.93E-02
44913,5.58E-03,1.85E-02
44914,5.63E-03,1.84E-02
44915,5.62E-03,1.88E-02
44916,5.41E-03,1.94E-02
44917,5.67E-03,1.87E-02
44918,5.39E-03,1.95E-02
44919,5.82E-03,1.86E-02
44920,5.45E-03,1.96E-02
44921,5.90E-03,1.84E-02
44922,6.30E-03,1.81E-02
44923,6.10E-03,1.83E-02
44924,5.58E-03,1.97E-02
44925,5.53E-03,1.80E-02
44926,4.24E-03,1.79E-02
44927,5.57E-03,1.98E-02
44928,5.63E-03,1.92E-02
44929,5.95E-03,1.93E-02
44930,5.85E-03,2.01E-02
44931,5.94E-03,2.02E-02
44932,6.11E-03,2.04E-02
44933,6.33E-03,2.05E-02
44934,5.97E-03,2.07E-02
44935,6.15E-03,2.07E-02
44936,5.20E-03,2.05E-02
44937,5.30E-03,2.04E-02
44938,5.25E-03,2.03E-02
44939,4.35E-03,2.01E-02
44940,5.73E-03,2.08E-02
44941,5.40E-03,1.91E-02
44942,5.71E-03,1.90E-02
44943,5.15E-03,1.91E-02
44944,5.37E-03,1.91E-02
44945,5.54E-03,1.90E-02
44946,5.18E-03,1.91E-02
44947,5.35E-03,1.91E-02
44948,5.51E-03,1.90E-02
44949,5.19E-03,1.91E-02
44950,5.35E-03,1.91E-02
44951,5.50E-03,1.90E-02
44952,5.77E-03,1.99E-02
44953,4.65E-03,2.06E-02
44954,5.37E-03,1.79E-02
44955,6.07E-03,1.95E-02
44956,5.44E-03,1.90E-02
44957,5.81E-03,1.82E-02
44958,6.17E-03,1.79E-02
44959,5.64E-03,1.79E-02
44960,4.35E-03,1.91E-02
44961,6.63E-03,1.97E-02
44962,5.02E-03,1.87E-02
44963,5.02E-03,1.89E-02
44964,5.61E-03,1.90E-02
44965,5.66E-03,1.91E-02
44966,5.81E-03,1.91E-02
44967,5.73E-03,1.90E-02
44968,5.68E-03,1.90E-02
44969,5.27E-03,1.91E-02
44970,5.58E-03,1.90E-02
44971,5.63E-03,1.92E-02
44972,5.75E-03,1.99E-02
44973,5.63E-03,1.89E-02
44974,4.82E-03,1.91E-02
44975,5.48E-03,1.93E-02
44976,5.73E-03,1.85E-02
44977,5.83E-03,1.84E-02
44978,5.64E-03,1.89E-02
44979,5.02E-03,1.91E-02
44980,5.41E-03,1.94E-02
44981,5.69E-03,1.87E-02
44982,5.05E-03,1.91E-02
44983,5.43E-03,1.95E-02
44984,5.82E-03,1.86E-02
44985,5.08E-03,1.91E-02
44986,5.42E-03,1.96E-02
44987,5.86E-03,1.85E-02
44988,6.49E-03,1.80E-02
44989,6.30E-03,1.81E-02
44990,5.48E-03,1.97E-02
44991,5.99E-03,1.83E-02
44992,5.25E-03,1.79E-02
44993,5.08E-03,1.78E-02
44994,5.55E-03,1.98E-02
44995,5.52E-03,1.92E-02
44996,5.87E-03,1.93E-02
44997,5.70E-03,1.99E-02
44998,5.81E-03,2.00E-02
44999,5.89E-03,2.02E-02
45000,6.07E-03,2.03E-02
45001,6.23E-03,2.05E-02
45002,6.24E-03,2.06E-02
45003,5.94E-03,2.08E-02
45004,6.13E-03,2.08E-02
45005,5.20E-03,2.05E-02
45006,5.26E-03,2.04E-02
45007,4.77E-03,2.02E-02
45008,5.40E-03,2.07E-02
45009,5.57E-03,2.06E-02
45010,5.67E-03,2.09E-02
45011,4.87E-03,1.89E-02
45012,7.36E-03,1.89E-02
45013,6.41E-03,1.89E-02
45014,5.85E-03,1.90E-02
45015,5.64E-03,1.90E-02
45016,5.56E-03,1.90E-02
45017,5.69E-03,1.90E-02
45018,5.49E-03,1.89E-02
45019,3.06E-03,1.88E-02
45020,5.17E-03,1.89E-02
45021,3.04E-03,1.88E-02
45022,4.80E-03,1.88E-02
45023,7.43E-03,1.87E-02
45024,4.90E-03,1.79E-02
45025,4.54E-03,1.78E-02
45026,5.77E-03,1.83E-02
45027,6.06E-03,1.91E-02
45028,6.63E-03,1.95E-02
45029,5.31E-03,1.90E-02
45030,5.72E-03,1.80E-02
45031,5.76E-03,1.81E-02
45032,5.67E-03,1.90E-02
45033,5.89E-03,1.90E-02
45034,6.75E-03,1.89E-02
45035,6.02E-03,1.90E-02
45036,5.22E-03,2.09E-02
45037,6.73E-03,2.10E-02
45038,6.47E-03,1.78E-02
45039,5.51E-03,1.78E-02
45040,5.73E-03,1.92E-02
45041,5.01E-03,1.97E-02
45042,5.98E-03,2.01E-02
45043,6.00E-03,1.99E-02
45044,4.10E-03,1.87E-02
45045,4.63E-03,1.88E-02
45046,5.64E-03,1.89E-02
45047,5.44E-03,1.89E-02
45048,4.63E-03,1.92E-02
45049,5.50E-03,1.92E-02
45050,4.79E-03,1.85E-02
45051,6.78E-03,1.83E-02
45052,5.64E-03,1.89E-02
45053,4.04E-03,1.89E-02
45054,5.30E-03,1.89E-02
45055,4.93E-03,1.92E-02
45056,5.41E-03,1.93E-02
45057,5.66E-03,1.88E-02
45058,4.98E-03,1.92E-02
45059,5.41E-03,1.94E-02
45060,5.77E-03,1.86E-02
45061,5.01E-03,1.92E-02
45062,5.40E-03,1.95E-02
45063,5.82E-03,1.85E-02
45064,7.06E-03,1.78E-02
45065,6.53E-03,1.80E-02
45066,5.41E-03,1.96E-02
45067,5.94E-03,1.84E-02
45068,5.57E-03,1.78E-02
45069,5.15E-03,1.77E-02
45070,5.49E-03,1.97E-02
45071,5.48E-03,1.91E-02
45072,5.61E-03,1.93E-02
45073,6.16E-03,1.82E-02
45074,5.61E-03,1.99E-02
45075,5.75E-03,2.00E-02
45076,5.84E-03,2.01E-02
45077,6.07E-03,2.03E-02
45078,6.17E-03,2.04E-02
45079,6.25E-03,2.06E-02
45080,6.27E-03,2.07E-02
45081,6.33E-03,2.09E-02
45082,5.28E-03,2.05E-02
45083,5.15E-03,2.04E-02
45084,5.27E-03,2.02E-02
45085,5.37E-03,2.07E-02
45086,5.29E-03,2.06E-02
45087,5.53E-03,2.08E-02
45088,5.64E-03,2.10E-02
45089,6.35E-03,1.89E-02
45090,6.05E-03,1.89E-02
45091,5.82E-03,1.90E-02
45092,5.68E-03,1.90E-02
45093,5.68E-03,1.90E-02
45094,5.80E-03,1.90E-02
45095,6.09E-03,1.89E-02
45096,6.55E-03,1.89E-02
45097,4.97E-03,1.88E-02
45098,4.29E-03,1.87E-02
45099,7.12E-03,1.87E-02
45100,6.14E-03,1.88E-02
45101,7.35E-03,1.87E-02
45102,6.54E-03,1.86E-02
45103,5.46E-03,1.90E-02
45104,5.04E-03,1.77E-02
45105,5.99E-03,1.82E-02
45106,5.18E-03,1.91E-02
45107,4.95E-03,1.91E-02
45108,4.18E-03,1.78E-02
45109,3.93E-03,1.77E-02
45110,3.87E-03,1.91E-02
45111,6.67E-03,1.89E-02
45112,6.39E-03,1.87E-02
45113,5.46E-03,1.91E-02
45114,5.05E-03,1.96E-02
45115,4.58E-03,1.98E-02
45116,6.59E-03,1.95E-02
45117,5.17E-03,1.90E-02
45118,5.83E-03,1.79E-02
45119,5.88E-03,1.81E-02
45120,5.62E-03,1.89E-02
45121,5.93E-03,1.90E-02
45122,5.83E-03,1.76E-02
45123,4.71E-03,1.92E-02
45124,5.35E-03,1.92E-02
45125,5.47E-03,2.00E-02
45126,5.43E-03,1.99E-02
45127,4.07E-03,1.86E-02
45128,5.03E-03,1.88E-02
45129,6.09E-03,1.81E-02
45130,5.72E-03,1.89E-02
45131,5.45E-03,1.89E-02
45132,5.74E-03,1.89E-02
45133,4.89E-03,1.91E-02
45134,5.39E-03,1.91E-02
45135,4.91E-03,1.92E-02
45136,5.34E-03,1.93E-02
45137,6.35E-03,1.84E-02
45138,5.23E-03,1.86E-02
45139,6.94E-03,1.82E-02
45140,5.73E-03,1.88E-02
45141,6.31E-03,1.88E-02
45142,5.91E-03,1.89E-02
45143,5.04E-03,1.76E-02
45144,4.97E-03,1.92E-02
45145,5.39E-03,1.94E-02
45146,5.71E-03,1.87E-02
45147,7.12E-03,1.88E-02
45148,4.98E-03,1.92E-02
45149,5.37E-03,1.95E-02
45150,5.81E-03,1.85E-02
45151,6.98E-03,1.79E-02
45152,7.73E-03,1.76E-02
45153,4.86E-03,1.92E-02
45154,5.37E-03,1.96E-02
45155,5.88E-03,1.84E-02
45156,5.80E-03,1.77E-02
45157,5.58E-03,1.76E-02
45158,5.34E-03,1.76E-02
45159,4.61E-03,1.92E-02
45160,5.43E-03,1.97E-02
45161,5.44E-03,1.91E-02
45162,5.52E-03,1.92E-02
45163,6.05E-03,1.82E-02
45164,6.39E-03,1.81E-02
45165,5.54E-03,1.98E-02
45166,5.85E-03,2.01E-02
45167,5.95E-03,2.02E-02
45168,6.13E-03,2.04E-02
45169,6.22E-03,2.05E-02
45170,6.26E-03,2.07E-02
45171,6.55E-03,2.08E-02
45172,5.68E-03,1.99E-02
45173,5.29E-03,2.05E-02
45174,5.28E-03,2.04E-02
45175,5.44E-03,2.02E-02
45176,5.48E-03,2.08E-02
45177,5.34E-03,2.06E-02
45178,5.53E-03,2.09E-02
45179,5.64E-03,2.09E-02
45180,4.98E-03,2.11E-02
45181,6.15E-03,1.88E-02
45182,6.14E-03,1.89E-02
45183,5.95E-03,1.89E-02
45184,5.78E-03,1.89E-02
45185,5.76E-03,1.89E-02
45186,5.77E-03,1.89E-02
45187,5.91E-03,1.89E-02
45188,6.07E-03,1.89E-02
45189,5.70E-03,1.88E-02
45190,5.03E-03,1.87E-02
45191,6.08E-03,1.87E-02
45192,6.25E-03,1.86E-02
45193,6.24E-03,1.86E-02
45194,4.93E-03,1.88E-02
45195,6.01E-03,1.86E-02
45196,5.45E-03,1.86E-02
45197,5.05E-03,1.92E-02
45198,5.40E-03,1.96E-02
45199,5.42E-03,1.97E-02
45200,5.60E-03,1.94E-02
45201,5.40E-03,1.89E-02
45202,5.98E-03,1.78E-02
45203,5.84E-03,1.80E-02
45204,5.65E-03,1.89E-02
45205,5.64E-03,1.90E-02
45206,4.92E-03,1.92E-02
45207,5.24E-03,1.93E-02
45208,5.80E-03,1.85E-02
45209,5.50E-03,2.00E-02
45210,5.47E-03,1.99E-02
45211,5.17E-03,1.87E-02
45212,6.52E-03,1.81E-02
45213,5.78E-03,1.88E-02
45214,5.76E-03,1.88E-02
45215,5.79E-03,1.90E-02
45216,4.82E-03,1.91E-02
45217,5.46E-03,1.91E-02
45218,4.99E-03,1.93E-02
45219,5.34E-03,1.94E-02
45220,4.68E-03,1.88E-02
45221,4.39E-03,1.85E-02
45222,4.73E-03,1.84E-02
45223,6.03E-03,1.83E-02
45224,5.70E-03,1.85E-02
45225,6.29E-03,1.82E-02
45226,5.82E-03,1.87E-02
45227,6.16E-03,1.89E-02
45228,4.97E-03,1.91E-02
45229,4.97E-03,1.93E-02
45230,5.35E-03,1.95E-02
45231,5.76E-03,1.86E-02
45232,6.89E-03,1.88E-02
45233,8.47E-03,1.76E-02
45234,7.31E-03,1.77E-02
45235,4.90E-03,1.92E-02
45236,5.34E-03,1.96E-02
45237,5.86E-03,1.84E-02
45238,4.07E-03,1.88E-02
45239,6.04E-03,1.76E-02
45240,5.81E-03,1.75E-02
45241,5.67E-03,1.75E-02
45242,4.78E-03,1.92E-02
45243,5.37E-03,1.97E-02
45244,5.43E-03,1.90E-02
45245,5.52E-03,1.92E-02
45246,5.96E-03,1.83E-02
45247,6.41E-03,1.79E-02
45248,5.47E-03,1.98E-02
45249,6.17E-03,1.81E-02
45250,5.93E-03,2.01E-02
45251,6.06E-03,2.03E-02
45252,6.17E-03,2.04E-02
45253,6.17E-03,2.06E-02
45254,6.23E-03,2.08E-02
45255,5.89E-03,2.09E-02
45256,5.61E-03,1.99E-02
45257,5.79E-03,2.00E-02
45258,5.35E-03,2.05E-02
45259,5.43E-03,2.04E-02
45260,5.59E-03,2.02E-02
45261,5.48E-03,2.08E-02
45262,5.40E-03,2.07E-02
45263,5.52E-03,2.09E-02
45264,5.57E-03,2.10E-02
45265,5.59E-03,2.10E-02
45266,5.98E-03,2.12E-02
45267,6.17E-03,1.88E-02
45268,6.16E-03,1.88E-02
45269,6.10E-03,1.89E-02
45270,5.95E-03,1.89E-02
45271,5.85E-03,1.89E-02
45272,5.85E-03,1.89E-02
45273,5.84E-03,1.89E-02
45274,5.99E-03,1.89E-02
45275,5.95E-03,1.88E-02
45276,5.48E-03,1.87E-02
45277,5.46E-03,1.87E-02
45278,6.18E-03,1.86E-02
45279,5.62E-03,1.75E-02
45280,5.31E-03,1.87E-02
45281,4.60E-03,1.92E-02
45282,5.08E-03,1.93E-02
45283,5.16E-03,1.85E-02
45284,5.44E-03,1.95E-02
45285,5.49E-03,1.97E-02
45286,5.53E-03,1.94E-02
45287,5.35E-03,1.89E-02
45288,6.73E-03,1.77E-02
45289,6.30E-03,1.79E-02
45290,5.86E-03,1.88E-02
45291,5.83E-03,1.90E-02
45292,5.03E-03,1.93E-02
45293,5.27E-03,1.94E-02
45294,6.09E-03,1.85E-02
45295,6.09E-03,1.85E-02
45296,4.71E-03,1.84E-02
45297,5.89E-03,2.00E-02
45298,5.42E-03,1.98E-02
45299,5.49E-03,1.87E-02
45300,6.19E-03,1.80E-02
45301,5.83E-03,1.87E-02
45302,6.29E-03,1.87E-02
45303,6.25E-03,1.84E-02
45304,5.98E-03,1.85E-02
45305,6.00E-03,1.90E-02
45306,6.28E-03,1.91E-02
45307,5.03E-03,1.93E-02
45308,5.33E-03,1.94E-02
45309,5.98E-03,1.83E-02
45310,5.83E-03,1.84E-02
45311,6.09E-03,1.81E-02
45312,5.81E-03,1.86E-02
45313,6.15E-03,1.89E-02
45314,7.14E-03,1.76E-02
45315,4.97E-03,1.93E-02
45316,5.32E-03,1.95E-02
45317,5.65E-03,1.83E-02
45318,5.97E-03,1.82E-02
45319,5.85E-03,1.85E-02
45320,5.47E-03,1.88E-02
45321,6.60E-03,1.75E-02
45322,5.99E-03,1.74E-02
45323,5.81E-03,1.74E-02
45324,4.88E-03,1.93E-02
45325,5.33E-03,1.96E-02
45326,5.48E-03,1.90E-02
45327,5.37E-03,1.91E-02
45328,5.88E-03,1.83E-02
45329,6.48E-03,1.78E-02
45330,4.70E-03,1.92E-02
45331,5.40E-03,1.97E-02
45332,6.04E-03,1.82E-02
45333,5.99E-03,2.02E-02
45334,6.12E-03,2.04E-02
45335,6.16E-03,2.05E-02
45336,6.20E-03,2.07E-02
45337,6.14E-03,2.09E-02
45338,5.29E-03,2.10E-02
45339,5.53E-03,1.98E-02
45340,6.26E-03,1.80E-02
45341,5.86E-03,2.01E-02
45342,5.70E-03,2.00E-02
45343,5.36E-03,2.05E-02
45344,6.12E-03,1.85E-02
45345,5.60E-03,2.03E-02
45346,6.17E-03,2.02E-02
45347,5.47E-03,2.08E-02
45348,5.42E-03,2.07E-02
45349,5.55E-03,2.09E-02
45350,5.59E-03,2.10E-02
45351,5.63E-03,2.11E-02
45352,5.66E-03,2.11E-02
45353,6.88E-03,2.12E-02
45354,7.19E-03,2.13E-02
45355,5.63E-03,1.87E-02
45356,6.09E-03,1.88E-02
45357,6.11E-03,1.88E-02
45358,6.05E-03,1.88E-02
45359,6.02E-03,1.89E-02
45360,5.94E-03,1.89E-02
45361,5.91E-03,1.89E-02
45362,5.88E-03,1.88E-02
45363,5.88E-03,1.88E-02
45364,5.70E-03,1.88E-02
45365,5.57E-03,1.87E-02
45366,5.87E-03,1.86E-02
45367,6.47E-03,1.73E-02
45368,5.68E-03,1.99E-02
45369,5.87E-03,1.73E-02
45370,4.41E-03,1.87E-02
45371,5.06E-03,1.87E-02
45372,4.17E-03,1.92E-02
45373,5.14E-03,1.93E-02
45374,6.25E-03,1.84E-02
45375,5.43E-03,1.95E-02
45376,5.45E-03,1.97E-02
45377,5.53E-03,1.93E-02
45378,5.48E-03,1.88E-02
45379,4.97E-03,1.77E-02
45380,5.77E-03,1.78E-02
45381,6.02E-03,1.87E-02
45382,5.11E-03,1.86E-02
45383,5.37E-03,1.86E-02
45384,5.93E-03,1.90E-02
45385,5.10E-03,1.93E-02
45386,5.26E-03,1.94E-02
45387,5.93E-03,1.83E-02
45388,5.37E-03,1.98E-02
45389,5.59E-03,1.86E-02
45390,6.04E-03,1.79E-02
45391,5.95E-03,1.86E-02
45392,6.46E-03,1.86E-02
45393,5.65E-03,1.84E-02
45394,6.04E-03,1.90E-02
45395,6.90E-03,1.74E-02
45396,4.42E-03,1.80E-02
45397,3.65E-03,1.81E-02
45398,5.06E-03,1.93E-02
45399,5.28E-03,1.95E-02
45400,5.65E-03,1.82E-02
45401,5.44E-03,1.82E-02
45402,5.78E-03,1.81E-02
45403,6.13E-03,1.82E-02
45404,6.04E-03,1.83E-02
45405,6.14E-03,1.80E-02
45406,5.84E-03,1.85E-02
45407,6.18E-03,1.82E-02
45408,5.97E-03,1.83E-02
45409,5.87E-03,1.89E-02
45410,4.77E-03,1.75E-02
45411,6.16E-03,1.73E-02
45412,6.01E-03,1.73E-02
45413,5.85E-03,1.73E-02
45414,4.99E-03,1.93E-02
45415,5.31E-03,1.96E-02
45416,5.58E-03,1.89E-02
45417,5.88E-03,1.91E-02
45418,5.82E-03,1.83E-02
45419,6.60E-03,1.76E-02
45420,6.51E-03,1.70E-02
45421,4.92E-03,1.93E-02
45422,5.32E-03,1.97E-02
45423,5.91E-03,1.82E-02
45424,6.00E-03,2.03E-02
45425,6.11E-03,2.05E-02
45426,6.13E-03,2.06E-02
45427,6.18E-03,2.08E-02
45428,5.84E-03,2.11E-02
45429,4.83E-03,1.92E-02
45430,5.51E-03,1.98E-02
45431,6.14E-03,1.80E-02
45432,5.94E-03,2.02E-02
45433,5.68E-03,1.99E-02
45434,6.28E-03,1.78E-02
45435,5.77E-03,2.00E-02
45436,5.44E-03,2.05E-02
45437,6.04E-03,1.85E-02
45438,5.53E-03,2.03E-02
45439,5.26E-03,1.88E-02
45440,5.46E-03,2.08E-02
45441,5.45E-03,2.07E-02
45442,5.05E-03,1.87E-02
45443,5.51E-03,2.09E-02
45444,5.60E-03,2.10E-02
45445,6.02E-03,2.12E-02
45446,5.80E-03,2.12E-02
45447,5.64E-03,2.11E-02
45448,6.53E-03,2.13E-02
45449,6.64E-03,2.14E-02
45450,6.08E-03,1.86E-02
45451,5.77E-03,1.87E-02
45452,6.03E-03,1.88E-02
45453,6.05E-03,1.88E-02
45454,6.09E-03,1.88E-02
45455,6.03E-03,1.88E-02
45456,5.95E-03,1.88E-02
45457,5.88E-03,1.88E-02
45458,5.80E-03,1.88E-02
45459,5.76E-03,1.88E-02
45460,5.66E-03,1.87E-02
45461,5.70E-03,1.86E-02
45462,6.10E-03,1.72E-02
45463,6.02E-03,1.84E-02
45464,4.60E-03,2.02E-02
45465,5.63E-03,2.09E-02
45466,4.88E-03,1.92E-02
45467,4.98E-03,2.01E-02
45468,4.26E-03,1.98E-02
45469,5.18E-03,1.94E-02
45470,5.75E-03,1.84E-02
45471,5.44E-03,1.81E-02
45472,5.50E-03,1.94E-02
45473,5.34E-03,1.96E-02
45474,5.72E-03,1.93E-02
45475,5.36E-03,1.87E-02
45476,4.65E-03,1.76E-02
45477,5.81E-03,1.78E-02
45478,6.12E-03,1.86E-02
45479,5.31E-03,1.86E-02
45480,5.47E-03,1.85E-02
45481,6.01E-03,1.91E-02
45482,6.16E-03,1.90E-02
45483,6.74E-03,1.71E-02
45484,6.63E-03,1.72E-02
45485,5.15E-03,1.94E-02
45486,5.23E-03,1.95E-02
45487,5.74E-03,1.82E-02
45488,5.88E-03,1.80E-02
45489,6.56E-03,1.79E-02
45490,5.07E-03,1.97E-02
45491,5.69E-03,1.85E-02
45492,5.93E-03,1.78E-02
45493,5.96E-03,1.85E-02
45494,6.34E-03,1.85E-02
45495,5.42E-03,1.84E-02
45496,5.17E-03,1.83E-02
45497,5.99E-03,1.90E-02
45498,6.01E-03,1.91E-02
45499,5.81E-03,1.72E-02
45500,5.85E-03,1.71E-02
45501,5.86E-03,1.72E-02
45502,5.11E-03,1.94E-02
45503,5.29E-03,1.96E-02
45504,5.63E-03,1.81E-02
45505,5.65E-03,1.81E-02
45506,5.69E-03,1.80E-02
45507,4.28E-03,1.88E-02
45508,4.68E-03,1.90E-02
45509,6.40E-03,1.81E-02
45510,6.40E-03,1.82E-02
45511,6.12E-03,1.79E-02
45512,5.80E-03,1.84E-02
45513,6.58E-03,1.75E-02
45514,5.08E-03,1.93E-02
45515,5.31E-03,1.96E-02
45516,5.89E-03,1.83E-02
45517,5.90E-03,1.82E-02
45518,6.01E-03,2.04E-02
45519,6.04E-03,2.05E-02
45520,6.05E-03,2.07E-02
45521,5.94E-03,2.09E-02
45522,5.84E-03,2.10E-02
45523,5.04E-03,1.93E-02
45524,5.49E-03,1.98E-02
45525,5.93E-03,1.81E-02
45526,5.93E-03,2.02E-02
45527,5.13E-03,1.93E-02
45528,5.58E-03,1.99E-02
45529,6.11E-03,1.79E-02
45530,5.88E-03,2.01E-02
45531,5.53E-03,2.05E-02
45532,5.86E-03,1.86E-02
45533,6.35E-03,1.77E-02
45534,5.72E-03,2.00E-02
45535,6.01E-03,1.92E-02
45536,5.58E-03,2.03E-02
45537,4.26E-03,2.02E-02
45538,5.00E-03,2.00E-02
45539,3.59E-03,1.98E-02
45540,5.66E-03,1.89E-02
45541,5.48E-03,2.08E-02
45542,5.43E-03,2.07E-02
45543,5.36E-03,1.88E-02
45544,5.51E-03,2.10E-02
45545,5.30E-03,1.87E-02
45546,5.58E-03,2.11E-02
45547,6.30E-03,2.13E-02
45548,5.94E-03,2.13E-02
45549,5.76E-03,2.12E-02
45550,5.65E-03,2.12E-02
45551,6.29E-03,2.12E-02
45552,6.52E-03,2.14E-02
45553,6.50E-03,2.14E-02
45554,6.24E-03,1.85E-02
45555,6.28E-03,1.85E-02
45556,5.98E-03,1.86E-02
45557,5.97E-03,1.87E-02
45558,6.05E-03,1.87E-02
45559,6.12E-03,1.88E-02
45560,6.07E-03,1.88E-02
45561,5.99E-03,1.88E-02
45562,5.86E-03,1.88E-02
45563,5.82E-03,1.88E-02
45564,5.70E-03,1.88E-02
45565,5.68E-03,1.87E-02
45566,5.68E-03,1.87E-02
45567,5.37E-03,1.75E-02
45568,6.80E-03,1.78E-02
45569,5.21E-03,1.77E-02
45570,4.36E-03,1.73E-02
45571,5.29E-03,1.72E-02
45572,6.22E-03,1.70E-02
45573,5.21E-03,1.94E-02
45574,5.85E-03,1.83E-02
45575,5.66E-03,1.80E-02
45576,5.55E-03,1.94E-02
45577,5.00E-03,1.96E-02
45578,6.36E-03,1.93E-02
45579,5.21E-03,1.87E-02
45580,5.64E-03,1.77E-02
45581,6.11E-03,1.85E-02
45582,5.31E-03,1.86E-02
45583,5.34E-03,1.85E-02
45584,4.90E-03,1.82E-02
45585,4.29E-03,1.82E-02
45586,6.00E-03,1.85E-02
45587,6.48E-03,1.70E-02
45588,6.31E-03,1.71E-02
45589,6.47E-03,1.90E-02
45590,6.96E-03,1.79E-02
45591,5.69E-03,1.70E-02
45592,5.84E-03,1.71E-02
45593,5.19E-03,1.94E-02
45594,5.27E-03,1.95E-02
45595,5.66E-03,1.82E-02
45596,5.80E-03,1.79E-02
45597,6.17E-03,1.78E-02
45598,5.84E-03,1.77E-02
45599,4.28E-03,1.74E-02
45600,3.96E-03,1.76E-02
45601,4.29E-03,1.75E-02
45602,3.78E-03,1.96E-02
45603,4.27E-03,1.88E-02
45604,5.91E-03,1.84E-02
45605,5.81E-03,1.77E-02
45606,5.19E-03,1.72E-02
45607,5.79E-03,1.74E-02
45608,5.62E-03,1.70E-02
45609,5.89E-03,1.84E-02
45610,6.23E-03,1.84E-02
45611,5.15E-03,1.83E-02
45612,6.40E-03,1.73E-02
45613,5.64E-03,1.81E-02
45614,6.50E-03,1.69E-02
45615,6.07E-03,1.70E-02
45616,5.18E-03,1.94E-02
45617,5.32E-03,1.96E-02
45618,5.85E-03,1.82E-02
45619,5.66E-03,1.80E-02
45620,5.69E-03,1.80E-02
45621,7.23E-03,1.80E-02
45622,5.96E-03,1.78E-02
45623,5.87E-03,1.83E-02
45624,5.99E-03,2.05E-02
45625,6.04E-03,2.06E-02
45626,6.11E-03,2.08E-02
45627,5.93E-03,2.09E-02
45628,5.18E-03,1.94E-02
45629,5.39E-03,1.97E-02
45630,5.85E-03,1.81E-02
45631,5.97E-03,2.03E-02
45632,5.22E-03,1.93E-02
45633,5.47E-03,1.98E-02
45634,5.95E-03,1.80E-02
45635,5.91E-03,2.02E-02
45636,5.58E-03,2.05E-02
45637,5.85E-03,1.86E-02
45638,6.34E-03,1.76E-02
45639,5.92E-03,1.85E-02
45640,6.12E-03,1.78E-02
45641,5.78E-03,2.00E-02
45642,5.00E-03,1.92E-02
45643,5.41E-03,1.93E-02
45644,5.60E-03,1.99E-02
45645,6.66E-03,2.03E-02
45646,6.55E-03,2.01E-02
45647,4.65E-03,1.98E-02
45648,5.97E-03,1.90E-02
45649,5.48E-03,2.08E-02
45650,5.57E-03,2.07E-02
45651,4.79E-03,1.75E-02
45652,5.21E-03,1.77E-02
45653,5.64E-03,1.89E-02
45654,5.51E-03,2.10E-02
45655,5.37E-03,1.88E-02
45656,5.53E-03,2.11E-02
45657,6.16E-03,2.14E-02
45658,5.86E-03,2.13E-02
45659,5.76E-03,2.13E-02
45660,5.63E-03,2.12E-02
45661,5.34E-03,1.87E-02
45662,6.04E-03,2.11E-02
45663,6.32E-03,2.13E-02
45664,6.50E-03,2.14E-02
45665,6.61E-03,2.14E-02
45666,6.55E-03,2.15E-02
45667,6.19E-03,1.84E-02
45668,6.23E-03,1.84E-02
45669,6.22E-03,1.85E-02
45670,6.06E-03,1.85E-02
45671,6.00E-03,1.86E-02
45672,6.01E-03,1.87E-02
45673,6.06E-03,1.87E-02
45674,6.08E-03,1.88E-02
45675,5.99E-03,1.88E-02
45676,5.92E-03,1.88E-02
45677,5.79E-03,1.88E-02
45678,5.76E-03,1.88E-02
45679,5.65E-03,1.87E-02
45680,5.68E-03,1.87E-02
45681,5.83E-03,1.69E-02
45682,5.28E-03,1.71E-02
45683,6.18E-03,1.68E-02
45684,5.22E-03,1.72E-02
45685,5.66E-03,1.68E-02
45686,5.81E-03,1.70E-02
45687,5.23E-03,1.95E-02
45688,5.79E-03,1.82E-02
45689,5.92E-03,1.79E-02
45690,4.91E-03,1.76E-02
45691,5.52E-03,1.94E-02
45692,4.86E-03,1.95E-02
45693,6.36E-03,1.92E-02
45694,5.28E-03,1.86E-02
45695,5.68E-03,1.76E-02
45696,5.46E-03,1.67E-02
45697,5.59E-03,1.69E-02
45698,6.09E-03,1.84E-02
45699,5.27E-03,1.85E-02
45700,5.16E-03,1.84E-02
45701,5.14E-03,1.83E-02
45702,5.07E-03,1.83E-02
45703,5.89E-03,1.84E-02
45704,5.92E-03,1.84E-02
45705,6.11E-03,1.72E-02
45706,6.12E-03,1.80E-02
45707,5.80E-03,1.90E-02
45708,3.99E-03,1.74E-02
45709,5.30E-03,1.66E-02
45710,5.00E-03,1.64E-02
45711,5.68E-03,1.67E-02
45712,5.94E-03,1.69E-02
45713,5.21E-03,1.95E-02
45714,5.29E-03,1.96E-02
45715,5.85E-03,1.82E-02
45716,5.81E-03,1.82E-02
45717,5.66E-03,1.81E-02
45718,5.71E-03,1.79E-02
45719,5.93E-03,1.77E-02
45720,5.70E-03,1.75E-02
45721,5.40E-03,1.74E-02
45722,3.79E-03,1.96E-02
45723,7.25E-03,1.82E-02
45724,6.04E-03,1.84E-02
45725,5.72E-03,1.76E-02
45726,5.48E-03,1.71E-02
45727,5.52E-03,1.73E-02
45728,5.42E-03,1.69E-02
45729,5.84E-03,1.83E-02
45730,6.12E-03,1.83E-02
45731,5.94E-03,2.05E-02
45732,6.07E-03,2.07E-02
45733,6.08E-03,2.09E-02
45734,6.12E-03,1.70E-02
45735,6.54E-03,1.69E-02
45736,5.55E-03,1.77E-02
45737,6.06E-03,1.69E-02
45738,5.24E-03,1.94E-02
45739,5.33E-03,1.97E-02
45740,5.43E-03,1.69E-02
45741,4.23E-03,1.62E-02
45742,5.04E-03,1.63E-02
45743,5.82E-03,1.82E-02
45744,5.98E-03,2.04E-02
45745,5.89E-03,1.71E-02
45746,5.21E-03,1.72E-02
45747,5.53E-03,1.70E-02
45748,5.35E-03,1.94E-02
45749,5.41E-03,1.98E-02
45750,5.81E-03,1.80E-02
45751,5.92E-03,2.02E-02
45752,5.77E-03,2.05E-02
45753,5.70E-03,1.86E-02
45754,6.21E-03,1.74E-02
45755,5.88E-03,1.84E-02
45756,5.93E-03,1.78E-02
45757,5.87E-03,2.01E-02
45758,5.78E-03,1.85E-02
45759,5.84E-03,1.93E-02
45760,5.57E-03,1.99E-02
45761,5.70E-03,2.00E-02
45762,6.12E-03,1.76E-02
45763,6.71E-03,1.91E-02
45764,7.70E-03,2.03E-02
45765,6.81E-03,1.90E-02
45766,5.54E-03,2.08E-02
45767,5.66E-03,2.07E-02
45768,5.03E-03,1.76E-02
45769,6.64E-03,1.78E-02
45770,5.42E-03,1.82E-02
45771,5.97E-03,1.90E-02
45772,5.56E-03,2.10E-02
45773,5.53E-03,1.89E-02
45774,5.53E-03,2.11E-02
45775,6.00E-03,2.15E-02
45776,5.67E-03,2.13E-02
45777,5.58E-03,2.12E-02
45778,5.41E-03,1.88E-02
45779,5.31E-03,1.86E-02
45780,5.95E-03,2.10E-02
45781,6.18E-03,2.12E-02
45782,6.26E-03,2.15E-02
45783,6.41E-03,2.13E-02
45784,6.50E-03,2.15E-02
45785,6.71E-03,2.15E-02
45786,6.71E-03,2.16E-02
45787,6.15E-03,1.84E-02
45788,6.12E-03,1.85E-02
45789,6.01E-03,1.86E-02
45790,6.00E-03,1.86E-02
45791,6.01E-03,1.87E-02
45792,6.05E-03,1.87E-02
45793,5.96E-03,1.88E-02
45794,5.84E-03,1.88E-02
45795,5.75E-03,1.87E-02
45796,5.68E-03,1.87E-02
45797,5.63E-03,1.87E-02
45798,6.08E-03,1.67E-02
45799,5.91E-03,1.67E-02
45800,6.03E-03,1.88E-02
45801,5.60E-03,1.87E-02
45802,4.75E-03,1.75E-02
45803,5.84E-03,2.14E-02
45804,5.33E-03,1.66E-02
45805,5.38E-03,1.64E-02
45806,6.19E-03,1.83E-02
45807,6.88E-03,1.62E-02
45808,5.86E-03,1.68E-02
45809,5.26E-03,1.95E-02
45810,5.75E-03,1.81E-02
45811,5.78E-03,1.78E-02
45812,5.84E-03,1.78E-02
45813,5.49E-03,1.75E-02
45814,5.38E-03,1.93E-02
45815,4.88E-03,1.95E-02
45816,5.44E-03,1.90E-02
45817,5.66E-03,1.92E-02
45818,5.57E-03,1.86E-02
45819,5.59E-03,1.75E-02
45820,5.43E-03,1.67E-02
45821,6.00E-03,1.83E-02
45822,5.91E-03,2.07E-02
45823,5.88E-03,2.06E-02
45824,6.55E-03,2.08E-02
45825,5.94E-03,1.82E-02
45826,5.69E-03,1.71E-02
45827,6.64E-03,1.67E-02
45828,5.70E-03,1.78E-02
45829,6.01E-03,1.65E-02
45830,6.07E-03,1.67E-02
45831,5.25E-03,1.95E-02
45832,5.32E-03,1.96E-02
45833,5.64E-03,1.79E-02
45834,5.62E-03,1.80E-02
45835,5.62E-03,1.79E-02
45836,5.84E-03,1.75E-02
45837,5.87E-03,1.76E-02
45838,5.82E-03,1.74E-02
45839,6.12E-03,1.72E-02
45840,4.98E-03,1.96E-02
45841,5.99E-03,1.87E-02
45842,5.45E-03,1.75E-02
45843,5.55E-03,1.70E-02
45844,5.55E-03,1.72E-02
45845,5.42E-03,1.68E-02
45846,5.32E-03,1.64E-02
45847,5.77E-03,1.82E-02
45848,6.04E-03,1.82E-02
45849,5.85E-03,2.04E-02
45850,5.50E-03,1.93E-02
45851,4.98E-03,1.73E-02
45852,5.14E-03,1.84E-02
45853,5.23E-03,1.85E-02
45854,5.39E-03,1.69E-02
45855,5.58E-03,1.71E-02
45856,5.25E-03,1.84E-02
45857,5.80E-03,1.84E-02
45858,4.99E-03,2.05E-02
45859,6.07E-03,1.67E-02
45860,5.37E-03,1.95E-02
45861,5.35E-03,1.97E-02
45862,5.65E-03,1.69E-02
45863,5.48E-03,1.68E-02
45864,5.54E-03,1.68E-02
45865,5.74E-03,1.80E-02
45866,5.42E-03,1.61E-02
45867,6.00E-03,1.60E-02
45868,5.90E-03,2.03E-02
45869,6.18E-03,2.05E-02
45870,5.62E-03,1.86E-02
45871,5.97E-03,1.73E-02
45872,5.66E-03,1.84E-02
45873,5.81E-03,1.70E-02
45874,5.83E-03,1.79E-02
45875,5.84E-03,2.02E-02
45876,5.66E-03,1.85E-02
45877,5.70E-03,1.93E-02
45878,5.54E-03,1.94E-02
45879,5.54E-03,1.98E-02
45880,5.63E-03,1.99E-02
45881,5.90E-03,1.77E-02
45882,5.63E-03,1.85E-02
45883,6.18E-03,1.93E-02
45884,5.78E-03,2.00E-02
45885,5.97E-03,1.75E-02
45886,7.88E-03,1.91E-02
45887,5.63E-03,2.08E-02
45888,5.82E-03,2.06E-02
45889,5.39E-03,1.72E-02
45890,4.87E-03,1.74E-02
45891,5.04E-03,1.76E-02
45892,5.48E-03,1.78E-02
45893,5.95E-03,1.80E-02
45894,5.70E-03,1.81E-02
45895,7.89E-03,1.59E-02
45896,6.46E-03,1.91E-02
45897,5.62E-03,2.10E-02
45898,5.78E-03,1.90E-02
45899,5.55E-03,2.11E-02
45900,5.13E-03,1.68E-02
45901,5.32E-03,1.69E-02
45902,5.92E-03,2.15E-02
45903,5.74E-03,2.15E-02
45904,5.68E-03,2.14E-02
45905,5.53E-03,2.13E-02
45906,5.51E-03,1.89E-02
45907,5.29E-03,1.86E-02
45908,5.27E-03,1.85E-02
45909,5.98E-03,2.09E-02
45910,5.95E-03,2.11E-02
45911,6.12E-03,2.16E-02
45912,6.26E-03,2.13E-02
45913,6.40E-03,2.16E-02
45914,6.69E-03,2.14E-02
45915,6.60E-03,2.16E-02
45916,7.82E-03,2.16E-02
45917,6.98E-03,2.17E-02
45918,6.05E-03,1.83E-02
45919,6.11E-03,1.84E-02
45920,6.10E-03,1.85E-02
45921,6.01E-03,1.86E-02
45922,5.99E-03,1.86E-02
45923,6.01E-03,1.87E-02
45924,6.03E-03,1.87E-02
45925,5.95E-03,1.87E-02
45926,5.88E-03,1.87E-02
45927,5.79E-03,1.87E-02
45928,5.71E-03,1.87E-02
45929,5.58E-03,1.87E-02
45930,6.17E-03,1.65E-02
45931,6.11E-03,1.66E-02
45932,6.53E-03,1.66E-02
45933,6.42E-03,1.66E-02
45934,5.39E-03,1.83E-02
45935,5.77E-03,1.83E-02
45936,5.40E-03,1.87E-02
45937,6.10E-03,1.66E-02
45938,5.30E-03,1.95E-02
45939,5.74E-03,1.81E-02
45940,5.81E-03,1.81E-02
45941,5.65E-03,1.80E-02
45942,5.77E-03,1.77E-02
45943,5.63E-03,1.78E-02
45944,5.82E-03,1.77E-02
45945,5.77E-03,1.74E-02
45946,5.38E-03,1.93E-02
45947,5.09E-03,1.95E-02
45948,5.72E-03,1.89E-02
45949,5.57E-03,1.91E-02
45950,5.84E-03,1.85E-02
45951,5.49E-03,1.73E-02
45952,5.42E-03,1.66E-02
45953,5.83E-03,1.82E-02
45954,5.55E-03,2.05E-02
45955,6.51E-03,1.63E-02
45956,6.21E-03,1.66E-02
45957,5.78E-03,1.82E-02
45958,5.31E-03,1.95E-02
45959,5.36E-03,1.96E-02
45960,5.62E-03,1.78E-02
45961,5.60E-03,1.79E-02
45962,5.63E-03,1.78E-02
45963,5.84E-03,1.74E-02
45964,5.83E-03,1.75E-02
45965,5.89E-03,1.73E-02
45966,5.29E-03,1.67E-02
45967,5.73E-03,1.96E-02
45968,6.10E-03,1.87E-02
45969,4.81E-03,1.75E-02
45970,5.31E-03,1.74E-02
45971,5.60E-03,1.69E-02
45972,5.50E-03,1.71E-02
45973,5.53E-03,1.66E-02
45974,5.50E-03,1.63E-02
45975,5.65E-03,1.81E-02
45976,5.79E-03,1.81E-02
45977,5.82E-03,2.04E-02
45978,4.64E-03,2.04E-02
45979,6.66E-03,2.04E-02
45980,5.62E-03,1.86E-02
45981,5.49E-03,1.72E-02
45982,6.14E-03,1.66E-02
45983,5.63E-03,1.83E-02
45984,5.73E-03,1.68E-02
45985,5.79E-03,1.69E-02
45986,5.65E-03,1.67E-02
45987,5.56E-03,1.67E-02
45988,5.69E-03,1.79E-02
45989,5.88E-03,1.60E-02
45990,6.19E-03,1.58E-02
45991,5.88E-03,2.02E-02
45992,5.60E-03,1.84E-02
45993,5.74E-03,1.94E-02
45994,5.50E-03,1.95E-02
45995,5.44E-03,1.97E-02
45996,5.54E-03,1.99E-02
45997,5.85E-03,1.78E-02
45998,5.60E-03,1.85E-02
45999,5.99E-03,1.93E-02
46000,5.72E-03,2.00E-02
46001,5.89E-03,1.76E-02
46002,6.47E-03,1.93E-02
46003,5.79E-03,2.01E-02
46004,5.78E-03,2.08E-02
46005,6.02E-03,2.06E-02
46006,5.88E-03,1.74E-02
46007,4.89E-03,1.73E-02
46008,4.94E-03,1.75E-02
46009,5.26E-03,1.77E-02
46010,5.67E-03,1.79E-02
46011,5.72E-03,1.81E-02
46012,8.37E-03,1.57E-02
46013,5.69E-03,1.86E-02
46014,6.56E-03,1.91E-02
46015,5.66E-03,2.10E-02
46016,5.50E-03,1.83E-02
46017,6.01E-03,1.91E-02
46018,5.58E-03,2.11E-02
46019,4.60E-03,1.67E-02
46020,5.18E-03,1.66E-02
46021,4.72E-03,1.68E-02
46022,5.82E-03,2.16E-02
46023,5.70E-03,2.15E-02
46024,5.57E-03,2.14E-02
46025,5.58E-03,2.13E-02
46026,5.65E-03,1.90E-02
46027,6.64E-03,1.66E-02
46028,7.00E-03,1.67E-02
46029,5.36E-03,1.87E-02
46030,5.32E-03,1.86E-02
46031,6.32E-03,2.08E-02
46032,5.35E-03,1.84E-02
46033,5.85E-03,2.10E-02
46034,6.03E-03,2.16E-02
46035,5.93E-03,2.11E-02
46036,6.29E-03,2.17E-02
46037,6.31E-03,2.13E-02
46038,6.45E-03,2.17E-02
46039,6.66E-03,2.17E-02
46040,7.56E-03,2.15E-02
46041,6.64E-03,2.17E-02
46042,6.66E-03,2.18E-02
46043,3.69E-03,1.70E-02
46044,4.11E-03,1.72E-02
46045,5.70E-03,1.82E-02
46046,6.08E-03,1.83E-02
46047,6.01E-03,1.85E-02
46048,5.99E-03,1.86E-02
46049,5.98E-03,1.86E-02
46050,6.04E-03,1.87E-02
46051,5.98E-03,1.87E-02
46052,5.96E-03,1.87E-02
46053,5.77E-03,1.87E-02
46054,5.71E-03,1.87E-02
46055,5.65E-03,1.87E-02
46056,6.18E-03,1.64E-02
46057,6.56E-03,1.64E-02
46058,6.43E-03,1.64E-02
46059,6.60E-03,1.65E-02
46060,6.08E-03,1.84E-02
46061,5.86E-03,1.71E-02
46062,3.47E-03,1.76E-02
46063,5.74E-03,1.82E-02
46064,6.28E-03,1.68E-02
46065,5.50E-03,1.88E-02
46066,4.59E-03,1.70E-02
46067,6.32E-03,1.64E-02
46068,6.12E-03,1.81E-02
46069,6.51E-03,1.81E-02
46070,6.43E-03,1.82E-02
46071,5.37E-03,1.96E-02
46072,5.66E-03,1.80E-02
46073,5.82E-03,1.81E-02
46074,5.63E-03,1.80E-02
46075,5.79E-03,1.76E-02
46076,5.67E-03,1.77E-02
46077,5.82E-03,1.76E-02
46078,5.93E-03,1.72E-02
46079,4.85E-03,1.66E-02
46080,5.39E-03,1.92E-02
46081,5.53E-03,1.94E-02
46082,6.13E-03,1.88E-02
46083,5.38E-03,1.91E-02
46084,5.99E-03,1.84E-02
46085,5.38E-03,1.72E-02
46086,5.51E-03,1.65E-02
46087,5.69E-03,1.81E-02
46088,5.37E-03,2.04E-02
46089,4.24E-03,1.76E-02
46090,7.07E-03,2.04E-02
46091,4.49E-03,1.70E-02
46092,7.03E-03,1.61E-02
46093,6.30E-03,1.64E-02
46094,5.62E-03,1.83E-02
46095,6.43E-03,1.81E-02
46096,5.98E-03,1.80E-02
46097,5.59E-03,1.77E-02
46098,5.57E-03,1.78E-02
46099,5.65E-03,1.77E-02
46100,5.89E-03,1.73E-02
46101,5.87E-03,1.74E-02
46102,5.90E-03,1.72E-02
46103,5.91E-03,1.70E-02
46104,5.57E-03,1.66E-02
46105,6.37E-03,1.96E-02
46106,6.30E-03,1.86E-02
46107,5.62E-03,1.67E-02
46108,5.46E-03,1.69E-02
46109,5.58E-03,1.65E-02
46110,5.65E-03,1.62E-02
46111,5.62E-03,1.80E-02
46112,5.42E-03,1.81E-02
46113,5.44E-03,1.80E-02
46114,6.67E-03,1.57E-02
46115,6.12E-03,1.51E-02
46116,6.26E-03,1.53E-02
46117,5.93E-03,2.03E-02
46118,6.21E-03,1.64E-02
46119,5.50E-03,1.84E-02
46120,5.65E-03,1.95E-02
46121,5.45E-03,1.97E-02
46122,5.48E-03,1.98E-02
46123,5.42E-03,1.80E-02
46124,5.78E-03,1.67E-02
46125,5.84E-03,1.68E-02
46126,5.76E-03,1.66E-02
46127,5.63E-03,1.81E-02
46128,5.65E-03,1.66E-02
46129,5.73E-03,1.78E-02
46130,5.86E-03,1.80E-02
46131,4.37E-03,1.80E-02
46132,5.87E-03,1.58E-02
46133,6.83E-03,1.57E-02
46134,5.54E-03,1.84E-02
46135,5.87E-03,1.94E-02
46136,5.70E-03,1.99E-02
46137,8.00E-03,2.00E-02
46138,5.83E-03,1.76E-02
46139,6.17E-03,1.93E-02
46140,5.72E-03,2.00E-02
46141,6.26E-03,2.06E-02
46142,5.89E-03,2.08E-02
46143,5.86E-03,1.74E-02
46144,5.06E-03,1.75E-02
46145,5.07E-03,1.76E-02
46146,5.33E-03,1.78E-02
46147,5.58E-03,1.80E-02
46148,7.67E-03,1.55E-02
46149,5.63E-03,1.86E-02
46150,5.64E-03,1.85E-02
46151,6.53E-03,1.92E-02
46152,5.84E-03,2.01E-02
46153,5.72E-03,2.10E-02
46154,5.68E-03,1.72E-02
46155,5.53E-03,1.82E-02
46156,6.16E-03,1.91E-02
46157,5.63E-03,2.11E-02
46158,5.23E-03,1.50E-02
46159,5.65E-03,1.49E-02
46160,4.85E-03,1.67E-02
46161,5.70E-03,2.16E-02
46162,5.63E-03,2.15E-02
46163,5.59E-03,2.14E-02
46164,5.67E-03,2.13E-02
46165,5.83E-03,1.90E-02
46166,5.57E-03,1.89E-02
46167,6.55E-03,1.65E-02
46168,4.79E-03,1.69E-02
46169,6.31E-03,1.67E-02
46170,5.47E-03,1.88E-02
46171,5.39E-03,1.87E-02
46172,5.59E-03,2.08E-02
46173,5.39E-03,1.85E-02
46174,5.36E-03,2.09E-02
46175,5.98E-03,2.17E-02
46176,5.40E-03,1.84E-02
46177,5.69E-03,2.10E-02
46178,6.13E-03,2.17E-02
46179,5.82E-03,2.12E-02
46180,6.27E-03,2.18E-02
46181,5.91E-03,2.14E-02
46182,6.53E-03,2.18E-02
46183,6.62E-03,2.18E-02
46184,5.27E-03,2.16E-02
46185,4.58E-03,2.16E-02
46186,5.72E-03,2.18E-02
46187,6.17E-03,2.19E-02
46188,6.48E-03,1.97E-02
46189,3.54E-03,1.71E-02
46190,4.62E-03,1.73E-02
46191,4.30E-03,1.69E-02
46192,6.47E-03,1.81E-02
46193,6.17E-03,1.82E-02
46194,6.11E-03,1.83E-02
46195,6.06E-03,1.84E-02
46196,5.97E-03,1.85E-02
46197,5.98E-03,1.86E-02
46198,6.00E-03,1.86E-02
46199,6.01E-03,1.87E-02
46200,5.95E-03,1.87E-02
46201,5.86E-03,1.87E-02
46202,5.72E-03,1.87E-02
46203,5.65E-03,1.87E-02
46204,6.40E-03,1.62E-02
46205,6.50E-03,1.63E-02
46206,6.56E-03,1.63E-02
46207,6.52E-03,1.63E-02
46208,5.40E-03,1.96E-02
46209,4.78E-03,1.74E-02
46210,5.22E-03,1.73E-02
46211,4.49E-03,1.88E-02
46212,3.90E-03,1.88E-02
46213,4.38E-03,1.86E-02
46214,4.07E-03,2.05E-02
46215,6.54E-03,1.62E-02
46216,5.82E-03,1.82E-02
46217,5.45E-03,1.96E-02
46218,5.58E-03,1.79E-02
46219,5.53E-03,1.80E-02
46220,5.62E-03,1.79E-02
46221,5.82E-03,1.75E-02
46222,5.71E-03,1.76E-02
46223,5.86E-03,1.75E-02
46224,5.90E-03,1.71E-02
46225,5.70E-03,1.65E-02
46226,5.51E-03,1.92E-02
46227,5.80E-03,1.94E-02
46228,5.12E-03,1.90E-02
46229,5.89E-03,1.83E-02
46230,5.33E-03,1.71E-02
46231,5.61E-03,1.63E-02
46232,5.46E-03,1.80E-02
46233,6.72E-03,1.55E-02
46234,5.08E-03,1.77E-02
46235,5.01E-03,1.73E-02
46236,4.95E-03,1.75E-02
46237,5.84E-03,1.65E-02
46238,4.37E-03,2.04E-02
46239,6.17E-03,2.03E-02
46240,6.07E-03,1.84E-02
46241,7.21E-03,1.59E-02
46242,6.40E-03,1.62E-02
46243,5.52E-03,1.83E-02
46244,5.49E-03,1.96E-02
46245,5.49E-03,1.97E-02
46246,5.16E-03,1.80E-02
46247,5.64E-03,1.77E-02
46248,5.58E-03,1.77E-02
46249,5.69E-03,1.76E-02
46250,5.92E-03,1.72E-02
46251,5.94E-03,1.73E-02
46252,5.94E-03,1.71E-02
46253,5.87E-03,1.69E-02
46254,5.80E-03,1.65E-02
46255,5.34E-03,1.78E-02
46256,5.53E-03,1.80E-02
46257,5.28E-03,1.71E-02
46258,5.59E-03,1.66E-02
46259,5.49E-03,1.68E-02
46260,5.68E-03,1.64E-02
46261,5.74E-03,1.60E-02
46262,5.62E-03,1.79E-02
46263,5.48E-03,1.79E-02
46264,6.51E-03,1.55E-02
46265,5.93E-03,1.49E-02
46266,6.00E-03,1.51E-02
46267,5.31E-03,1.76E-02
46268,6.35E-03,1.62E-02
46269,5.43E-03,1.84E-02
46270,5.75E-03,1.95E-02
46271,5.63E-03,1.98E-02
46272,5.54E-03,2.02E-02
46273,6.22E-03,2.06E-02
46274,5.55E-03,1.79E-02
46275,5.84E-03,1.66E-02
46276,5.87E-03,1.67E-02
46277,5.86E-03,1.65E-02
46278,5.76E-03,2.00E-02
46279,5.74E-03,1.64E-02
46280,5.44E-03,1.55E-02
46281,5.68E-03,1.57E-02
46282,5.79E-03,1.77E-02
46283,6.23E-03,1.80E-02
46284,5.98E-03,1.94E-02
46285,5.69E-03,1.99E-02
46286,5.98E-03,2.08E-02
46287,5.24E-03,1.53E-02
46288,4.51E-03,1.54E-02
46289,5.85E-03,1.75E-02
46290,5.05E-03,1.76E-02
46291,5.04E-03,1.78E-02
46292,5.43E-03,1.80E-02
46293,4.87E-03,1.50E-02
46294,5.52E-03,1.60E-02
46295,5.40E-03,1.59E-02
46296,5.52E-03,1.85E-02
46297,5.46E-03,1.85E-02
46298,6.23E-03,1.93E-02
46299,5.84E-03,2.01E-02
46300,5.78E-03,2.10E-02
46301,5.96E-03,1.73E-02
46302,5.51E-03,1.81E-02
46303,6.21E-03,1.92E-02
46304,5.94E-03,2.02E-02
46305,5.68E-03,2.12E-02
46306,5.77E-03,1.47E-02
46307,4.64E-03,1.66E-02
46308,6.02E-03,1.71E-02
46309,5.68E-03,2.17E-02
46310,5.67E-03,2.16E-02
46311,5.64E-03,2.14E-02
46312,5.71E-03,2.13E-02
46313,6.00E-03,1.91E-02
46314,5.78E-03,1.90E-02
46315,3.48E-03,2.04E-02
46316,5.52E-03,1.89E-02
46317,6.23E-03,1.64E-02
46318,5.46E-03,1.88E-02
46319,4.82E-03,2.07E-02
46320,5.40E-03,1.86E-02
46321,5.13E-03,2.08E-02
46322,5.81E-03,2.18E-02
46323,5.36E-03,1.85E-02
46324,5.43E-03,2.10E-02
46325,6.05E-03,2.18E-02
46326,5.48E-03,1.83E-02
46327,5.64E-03,2.11E-02
46328,6.17E-03,2.19E-02
46329,5.65E-03,2.13E-02
46330,6.35E-03,2.19E-02
46331,5.30E-03,2.14E-02
46332,6.47E-03,2.19E-02
46333,4.50E-03,2.16E-02
46334,6.58E-03,2.19E-02
46335,5.43E-03,2.17E-02
46336,5.88E-03,2.20E-02
46337,5.69E-03,2.19E-02
46338,4.33E-03,1.98E-02
46339,4.51E-03,1.95E-02
46340,4.41E-03,1.72E-02
46341,4.95E-03,1.74E-02
46342,4.44E-03,1.68E-02
46343,4.55E-03,1.70E-02
46344,6.62E-03,1.80E-02
46345,6.15E-03,1.81E-02
46346,6.15E-03,1.83E-02
46347,6.05E-03,1.84E-02
46348,5.97E-03,1.84E-02
46349,5.91E-03,1.85E-02
46350,5.96E-03,1.86E-02
46351,6.01E-03,1.86E-02
46352,5.97E-03,1.87E-02
46353,5.88E-03,1.87E-02
46354,5.82E-03,1.87E-02
46355,5.63E-03,1.87E-02
46356,6.47E-03,1.61E-02
46357,6.56E-03,1.61E-02
46358,6.49E-03,1.62E-02
46359,6.18E-03,1.62E-02
46360,5.57E-03,1.86E-02
46361,4.03E-03,2.06E-02
46362,6.69E-03,1.61E-02
46363,5.28E-03,1.83E-02
46364,5.53E-03,1.97E-02
46365,5.58E-03,1.79E-02
46366,5.57E-03,1.79E-02
46367,5.58E-03,1.78E-02
46368,5.80E-03,1.74E-02
46369,5.73E-03,1.75E-02
46370,5.86E-03,1.74E-02
46371,5.90E-03,1.70E-02
46372,5.53E-03,1.63E-02
46373,6.09E-03,1.64E-02
46374,5.70E-03,1.61E-02
46375,5.54E-03,1.91E-02
46376,5.90E-03,1.93E-02
46377,5.09E-03,1.89E-02
46378,5.65E-03,1.82E-02
46379,5.35E-03,1.70E-02
46380,5.74E-03,1.62E-02
46381,5.48E-03,1.79E-02
46382,6.23E-03,1.53E-02
46383,5.28E-03,1.72E-02
46384,5.24E-03,1.74E-02
46385,5.61E-03,1.86E-02
46386,4.63E-03,1.48E-02
46387,5.27E-03,1.47E-02
46388,7.06E-03,1.57E-02
46389,6.59E-03,1.61E-02
46390,5.36E-03,1.83E-02
46391,4.08E-03,1.82E-02
46392,5.62E-03,1.96E-02
46393,5.56E-03,1.98E-02
46394,4.33E-03,2.04E-02
46395,6.02E-03,2.06E-02
46396,5.46E-03,1.79E-02
46397,5.65E-03,1.76E-02
46398,5.58E-03,1.76E-02
46399,5.69E-03,1.75E-02
46400,5.91E-03,1.71E-02
46401,5.92E-03,1.72E-02
46402,5.93E-03,1.70E-02
46403,5.86E-03,1.68E-02
46404,5.93E-03,1.63E-02
46405,5.50E-03,1.59E-02
46406,5.59E-03,2.02E-02
46407,5.40E-03,1.77E-02
46408,5.37E-03,1.79E-02
46409,5.37E-03,1.70E-02
46410,5.55E-03,1.65E-02
46411,5.49E-03,1.67E-02
46412,5.79E-03,1.62E-02
46413,5.73E-03,1.59E-02
46414,5.66E-03,1.77E-02
46415,5.58E-03,1.79E-02
46416,5.40E-03,1.78E-02
46417,6.14E-03,1.52E-02
46418,5.45E-03,1.48E-02
46419,5.64E-03,1.49E-02
46420,5.35E-03,1.75E-02
46421,5.77E-03,1.63E-02
46422,6.51E-03,1.61E-02
46423,5.86E-03,1.95E-02
46424,5.70E-03,1.99E-02
46425,6.00E-03,2.08E-02
46426,5.16E-03,1.79E-02
46427,5.89E-03,1.64E-02
46428,5.89E-03,1.66E-02
46429,5.98E-03,1.63E-02
46430,5.29E-03,2.00E-02
46431,5.52E-03,1.55E-02
46432,5.84E-03,1.76E-02
46433,6.02E-03,1.78E-02
46434,5.78E-03,1.78E-02
46435,4.84E-03,1.77E-02
46436,5.20E-03,1.79E-02
46437,4.45E-03,1.51E-02
46438,5.70E-03,1.61E-02
46439,3.79E-03,1.64E-02
46440,4.18E-03,1.63E-02
46441,5.41E-03,1.85E-02
46442,5.45E-03,1.84E-02
46443,6.04E-03,1.94E-02
46444,5.82E-03,2.00E-02
46445,5.86E-03,2.10E-02
46446,4.79E-03,1.80E-02
46447,6.49E-03,1.80E-02
46448,4.18E-03,1.79E-02
46449,5.92E-03,1.74E-02
46450,5.42E-03,1.81E-02
46451,5.52E-03,1.85E-02
46452,6.16E-03,1.93E-02
46453,5.94E-03,2.01E-02
46454,5.72E-03,2.12E-02
46455,5.49E-03,1.46E-02
46456,6.21E-03,1.81E-02
46457,4.19E-03,1.65E-02
46458,6.11E-03,1.72E-02
46459,5.71E-03,2.17E-02
46460,5.68E-03,2.16E-02
46461,5.66E-03,2.15E-02
46462,5.70E-03,2.13E-02
46463,6.04E-03,1.92E-02
46464,6.52E-03,2.02E-02
46465,5.87E-03,1.91E-02
46466,4.37E-03,2.03E-02
46467,5.69E-03,1.90E-02
46468,4.29E-03,2.05E-02
46469,5.87E-03,1.62E-02
46470,5.54E-03,1.89E-02
46471,4.56E-03,2.06E-02
46472,5.45E-03,1.87E-02
46473,5.34E-03,2.07E-02
46474,5.79E-03,2.18E-02
46475,5.39E-03,1.86E-02
46476,5.36E-03,2.09E-02
46477,5.93E-03,2.19E-02
46478,5.40E-03,1.84E-02
46479,5.43E-03,2.10E-02
46480,6.06E-03,2.19E-02
46481,5.46E-03,1.83E-02
46482,5.56E-03,2.11E-02
46483,6.25E-03,2.20E-02
46484,5.40E-03,2.13E-02
46485,6.39E-03,2.20E-02
46486,4.97E-03,2.15E-02
46487,6.43E-03,2.20E-02
46488,6.32E-03,2.20E-02
46489,5.17E-03,2.16E-02
46490,5.51E-03,2.18E-02
46491,5.06E-03,1.97E-02
46492,5.07E-03,1.95E-02
46493,4.69E-03,1.73E-02
46494,5.75E-03,1.75E-02
46495,4.44E-03,1.67E-02
46496,4.44E-03,1.70E-02
46497,4.38E-03,1.71E-02
46498,6.12E-03,1.79E-02
46499,6.25E-03,1.81E-02
46500,6.15E-03,1.82E-02
46501,6.06E-03,1.83E-02
46502,5.99E-03,1.84E-02
46503,5.93E-03,1.85E-02
46504,5.95E-03,1.85E-02
46505,6.01E-03,1.86E-02
46506,5.95E-03,1.86E-02
46507,5.90E-03,1.86E-02
46508,5.81E-03,1.86E-02
46509,5.74E-03,1.86E-02
46510,6.61E-03,1.60E-02
46511,6.49E-03,1.60E-02
46512,6.28E-03,1.60E-02
46513,5.87E-03,1.61E-02
46514,4.55E-03,1.46E-02
46515,6.84E-03,1.59E-02
46516,5.01E-03,1.83E-02
46517,5.61E-03,1.97E-02
46518,5.18E-03,2.06E-02
46519,5.54E-03,2.06E-02
46520,5.50E-03,1.78E-02
46521,5.40E-03,1.78E-02
46522,5.52E-03,1.77E-02
46523,5.87E-03,1.73E-02
46524,5.77E-03,1.74E-02
46525,5.87E-03,1.73E-02
46526,5.90E-03,1.69E-02
46527,5.68E-03,1.61E-02
46528,5.87E-03,1.62E-02
46529,5.63E-03,1.60E-02
46530,5.11E-03,2.06E-02
46531,5.24E-03,2.04E-02
46532,5.49E-03,1.91E-02
46533,5.74E-03,1.93E-02
46534,5.06E-03,1.89E-02
46535,5.48E-03,1.81E-02
46536,5.40E-03,1.68E-02
46537,5.80E-03,1.60E-02
46538,5.57E-03,1.78E-02
46539,5.85E-03,1.51E-02
46540,5.52E-03,1.71E-02
46541,5.51E-03,1.73E-02
46542,5.39E-03,1.63E-02
46543,6.70E-03,1.55E-02
46544,6.70E-03,1.59E-02
46545,5.74E-03,1.96E-02
46546,5.60E-03,1.98E-02
46547,5.81E-03,2.08E-02
46548,5.26E-03,2.08E-02
46549,5.34E-03,2.08E-02
46550,5.30E-03,1.78E-02
46551,5.64E-03,1.75E-02
46552,5.61E-03,1.76E-02
46553,5.71E-03,1.74E-02
46554,5.91E-03,1.70E-02
46555,5.89E-03,1.71E-02
46556,5.90E-03,1.69E-02
46557,5.86E-03,1.67E-02
46558,6.02E-03,1.62E-02
46559,5.64E-03,1.58E-02
46560,5.17E-03,2.08E-02
46561,5.22E-03,2.06E-02
46562,5.34E-03,2.02E-02
46563,5.51E-03,1.94E-02
46564,4.63E-03,1.76E-02
46565,5.71E-03,1.78E-02
46566,5.49E-03,1.69E-02
46567,5.44E-03,1.65E-02
46568,5.96E-03,1.61E-02
46569,5.80E-03,1.57E-02
46570,4.98E-03,1.44E-02
46571,5.74E-03,1.76E-02
46572,5.62E-03,1.77E-02
46573,4.94E-03,1.79E-02
46574,4.81E-03,1.44E-02
46575,4.84E-03,1.46E-02
46576,4.95E-03,1.74E-02
46577,5.69E-03,1.62E-02
46578,6.63E-03,1.59E-02
46579,5.41E-03,1.84E-02
46580,5.93E-03,1.95E-02
46581,5.76E-03,1.99E-02
46582,5.84E-03,2.10E-02
46583,5.28E-03,2.10E-02
46584,5.02E-03,1.22E-02
46585,5.27E-03,1.23E-02
46586,5.89E-03,1.80E-02
46587,5.41E-03,1.78E-02
46588,5.93E-03,1.63E-02
46589,5.89E-03,1.64E-02
46590,6.01E-03,1.62E-02
46591,5.25E-03,2.08E-02
46592,5.19E-03,1.99E-02
46593,5.15E-03,1.62E-02
46594,5.52E-03,1.53E-02
46595,5.61E-03,1.54E-02
46596,5.85E-03,1.74E-02
46597,5.89E-03,1.77E-02
46598,5.77E-03,1.77E-02
46599,5.27E-03,1.80E-02
46600,5.46E-03,1.85E-02
46601,6.03E-03,1.94E-02
46602,5.86E-03,2.00E-02
46603,5.75E-03,2.12E-02
46604,4.02E-03,1.59E-02
46605,5.29E-03,1.47E-02
46606,5.00E-03,1.46E-02
46607,5.30E-03,1.84E-02
46608,5.17E-03,1.83E-02
46609,5.11E-03,1.51E-02
46610,5.33E-03,1.50E-02
46611,4.63E-03,1.56E-02
46612,5.40E-03,1.79E-02
46613,5.79E-03,1.81E-02
46614,5.14E-03,1.57E-02
46615,2.71E-03,1.63E-02
46616,3.79E-03,1.64E-02
46617,5.17E-03,2.12E-02
46618,5.14E-03,1.86E-02
46619,5.06E-03,1.83E-02
46620,5.20E-03,1.82E-02
46621,5.13E-03,1.84E-02
46622,5.25E-03,1.82E-02
46623,5.17E-03,2.12E-02
46624,5.31E-03,2.10E-02
46625,5.20E-03,2.12E-02
46626,5.35E-03,1.21E-02
46627,6.07E-03,1.72E-02
46628,5.71E-03,2.17E-02
46629,5.70E-03,2.16E-02
46630,5.70E-03,2.15E-02
46631,5.72E-03,2.13E-02
46632,5.58E-03,1.86E-02
46633,6.08E-03,1.93E-02
46634,5.92E-03,2.01E-02
46635,6.29E-03,1.70E-02
46636,5.91E-03,1.92E-02
46637,6.06E-03,2.02E-02
46638,5.62E-03,1.86E-02
46639,5.75E-03,1.91E-02
46640,4.69E-03,2.04E-02
46641,4.92E-03,1.49E-02
46642,5.77E-03,1.50E-02
46643,6.51E-03,1.65E-02
46644,5.62E-03,1.90E-02
46645,4.69E-03,2.05E-02
46646,4.98E-03,2.14E-02
46647,5.29E-03,2.14E-02
46648,5.27E-03,1.61E-02
46649,6.15E-03,1.62E-02
46650,5.51E-03,1.89E-02
46651,5.00E-03,2.06E-02
46652,5.79E-03,2.19E-02
46653,5.45E-03,1.87E-02
46654,5.24E-03,2.08E-02
46655,5.86E-03,2.19E-02
46656,5.39E-03,1.86E-02
46657,5.34E-03,2.09E-02
46658,5.97E-03,2.20E-02
46659,5.40E-03,1.84E-02
46660,5.43E-03,2.10E-02
46661,6.13E-03,2.20E-02
46662,5.37E-03,1.82E-02
46663,5.46E-03,2.12E-02
46664,6.31E-03,2.21E-02
46665,5.28E-03,2.13E-02
46666,5.37E-03,1.58E-02
46667,6.41E-03,2.21E-02
46668,6.10E-03,2.21E-02
46669,6.41E-03,2.21E-02
46670,5.18E-03,2.15E-02
46671,5.61E-03,2.16E-02
46672,5.30E-03,1.97E-02
46673,5.31E-03,1.95E-02
46674,5.95E-03,2.18E-02
46675,4.64E-03,1.76E-02
46676,5.25E-03,1.74E-02
46677,4.58E-03,1.67E-02
46678,4.45E-03,1.69E-02
46679,4.56E-03,1.73E-02
46680,4.38E-03,1.71E-02
46681,5.94E-03,1.78E-02
46682,6.15E-03,1.79E-02
46683,6.16E-03,1.81E-02
46684,6.15E-03,1.82E-02
46685,6.12E-03,1.83E-02
46686,6.02E-03,1.84E-02
46687,5.94E-03,1.85E-02
46688,5.84E-03,1.85E-02
46689,6.02E-03,1.86E-02
46690,5.89E-03,1.86E-02
46691,5.85E-03,1.86E-02
46692,5.74E-03,1.86E-02
46693,6.56E-03,1.58E-02
46694,6.32E-03,1.59E-02
46695,6.01E-03,1.59E-02
46696,5.27E-03,1.60E-02
46697,3.47E-03,1.60E-02
46698,6.93E-03,1.57E-02
46699,5.02E-03,1.83E-02
46700,5.69E-03,1.97E-02
46701,5.56E-03,2.08E-02
46702,5.20E-03,1.83E-02
46703,5.32E-03,1.82E-02
46704,5.39E-03,1.82E-02
46705,5.48E-03,1.77E-02
46706,5.40E-03,1.78E-02
46707,5.55E-03,1.76E-02
46708,5.89E-03,1.72E-02
46709,5.82E-03,1.73E-02
46710,5.88E-03,1.72E-02
46711,5.87E-03,1.68E-02
46712,5.89E-03,1.60E-02
46713,5.92E-03,1.61E-02
46714,5.82E-03,1.59E-02
46715,5.33E-03,2.04E-02
46716,5.39E-03,1.90E-02
46717,5.57E-03,1.92E-02
46718,5.19E-03,1.88E-02
46719,5.26E-03,1.80E-02
46720,5.48E-03,1.67E-02
46721,5.94E-03,1.59E-02
46722,4.91E-03,1.43E-02
46723,5.63E-03,1.77E-02
46724,4.99E-03,1.56E-02
46725,4.65E-03,1.55E-02
46726,5.46E-03,1.49E-02
46727,4.50E-03,1.77E-02
46728,4.01E-03,1.78E-02
46729,4.88E-03,1.48E-02
46730,5.57E-03,1.70E-02
46731,6.28E-03,1.72E-02
46732,4.41E-03,1.63E-02
46733,6.78E-03,1.57E-02
46734,5.32E-03,1.84E-02
46735,5.25E-03,1.83E-02
46736,5.81E-03,1.96E-02
46737,5.67E-03,1.98E-02
46738,5.75E-03,2.10E-02
46739,5.36E-03,2.10E-02
46740,5.07E-03,1.24E-02
46741,5.36E-03,1.26E-02
46742,4.36E-03,1.34E-02
46743,5.35E-03,1.35E-02
46744,5.24E-03,1.83E-02
46745,5.34E-03,1.82E-02
46746,5.48E-03,1.82E-02
46747,5.73E-03,1.81E-02
46748,5.30E-03,1.78E-02
46749,5.64E-03,1.74E-02
46750,5.61E-03,1.75E-02
46751,5.73E-03,1.73E-02
46752,5.87E-03,1.68E-02
46753,5.88E-03,1.65E-02
46754,6.01E-03,1.61E-02
46755,5.79E-03,1.18E-02
46756,6.41E-03,1.20E-02
46757,6.53E-03,1.23E-02
46758,5.30E-03,2.06E-02
46759,5.33E-03,2.01E-02
46760,5.23E-03,1.93E-02
46761,5.19E-03,1.83E-02
46762,5.20E-03,1.85E-02
46763,5.30E-03,1.81E-02
46764,5.65E-03,1.68E-02
46765,5.46E-03,1.64E-02
46766,5.95E-03,1.55E-02
46767,5.68E-03,1.43E-02
46768,4.54E-03,1.39E-02
46769,4.68E-03,1.40E-02
46770,5.25E-03,1.29E-02
46771,5.56E-03,1.30E-02
46772,6.59E-03,1.28E-02
46773,5.79E-03,1.75E-02
46774,5.71E-03,1.76E-02
46775,4.93E-03,1.53E-02
46776,5.05E-03,1.32E-02
46777,4.82E-03,1.31E-02
46778,5.13E-03,1.48E-02
46779,5.05E-03,1.80E-02
46780,5.51E-03,1.44E-02
46781,6.70E-03,1.58E-02
46782,5.42E-03,1.85E-02
46783,5.19E-03,1.83E-02
46784,5.96E-03,1.95E-02
46785,5.82E-03,1.99E-02
46786,5.74E-03,2.12E-02
46787,5.22E-03,2.12E-02
46788,5.31E-03,1.38E-02
46789,5.14E-03,1.83E-02
46790,5.33E-03,1.82E-02
46791,5.51E-03,1.82E-02
46792,5.66E-03,1.79E-02
46793,5.95E-03,1.62E-02
46794,5.92E-03,1.63E-02
46795,6.01E-03,1.61E-02
46796,5.31E-03,2.07E-02
46797,5.31E-03,1.99E-02
46798,4.82E-03,1.74E-02
46799,5.08E-03,1.61E-02
46800,4.27E-03,1.44E-02
46801,4.09E-03,1.37E-02
46802,5.99E-03,1.73E-02
46803,5.83E-03,1.76E-02
46804,5.77E-03,1.76E-02
46805,5.72E-03,2.18E-02
46806,5.73E-03,2.17E-02
46807,5.73E-03,2.15E-02
46808,5.54E-03,1.85E-02
46809,5.21E-03,1.83E-02
46810,6.07E-03,1.94E-02
46811,5.83E-03,2.00E-02
46812,5.71E-03,2.14E-02
46813,5.00E-03,2.14E-02
46814,7.82E-03,1.22E-02
46815,5.40E-03,1.26E-02
46816,7.99E-03,1.25E-02
46817,5.40E-03,2.11E-02
46818,5.37E-03,2.09E-02
46819,2.83E-03,1.57E-02
46820,3.97E-03,1.58E-02
46821,5.73E-03,1.20E-02
46822,6.13E-03,1.71E-02
46823,5.16E-03,1.83E-02
46824,5.95E-03,1.93E-02
46825,5.87E-03,2.02E-02
46826,5.77E-03,1.41E-02
46827,6.38E-03,1.69E-02
46828,5.65E-03,1.86E-02
46829,4.85E-03,1.83E-02
46830,5.14E-03,1.83E-02
46831,5.82E-03,1.92E-02
46832,5.33E-03,2.03E-02
46833,5.57E-03,1.86E-02
46834,6.05E-03,1.52E-02
46835,4.59E-03,1.48E-02
46836,3.46E-03,1.49E-02
46837,6.68E-03,1.66E-02
46838,5.69E-03,1.91E-02
46839,5.23E-03,2.13E-02
46840,4.16E-03,1.61E-02
46841,6.73E-03,1.64E-02
46842,5.61E-03,1.90E-02
46843,4.95E-03,2.05E-02
46844,5.77E-03,2.19E-02
46845,5.47E-03,1.88E-02
46846,5.15E-03,2.07E-02
46847,5.83E-03,2.20E-02
46848,5.41E-03,1.87E-02
46849,5.31E-03,2.08E-02
46850,5.92E-03,2.21E-02
46851,5.43E-03,1.85E-02
46852,5.36E-03,2.09E-02
46853,6.03E-03,2.21E-02
46854,5.40E-03,1.83E-02
46855,5.37E-03,2.11E-02
46856,6.20E-03,2.21E-02
46857,5.34E-03,1.82E-02
46858,5.37E-03,2.12E-02
46859,5.24E-03,1.57E-02
46860,5.54E-03,1.60E-02
46861,6.35E-03,2.22E-02
46862,5.91E-03,2.21E-02
46863,6.35E-03,2.22E-02
46864,6.44E-03,2.22E-02
46865,5.30E-03,2.14E-02
46866,5.46E-03,2.15E-02
46867,5.43E-03,1.96E-02
46868,5.43E-03,1.94E-02
46869,6.30E-03,2.17E-02
46870,5.14E-03,1.76E-02
46871,5.23E-03,1.66E-02
46872,4.40E-03,1.68E-02
46873,4.58E-03,1.74E-02
46874,4.37E-03,1.70E-02
46875,5.83E-03,1.77E-02
46876,5.99E-03,1.78E-02
46877,6.12E-03,1.80E-02
46878,6.18E-03,1.81E-02
46879,6.14E-03,1.82E-02
46880,6.06E-03,1.83E-02
46881,5.93E-03,1.84E-02
46882,5.86E-03,1.85E-02
46883,5.86E-03,1.85E-02
46884,5.99E-03,1.86E-02
46885,5.84E-03,1.86E-02
46886,5.82E-03,1.86E-02
46887,4.39E-03,1.72E-02
46888,6.40E-03,1.57E-02
46889,6.14E-03,1.57E-02
46890,5.69E-03,1.58E-02
46891,4.92E-03,1.59E-02
46892,3.77E-03,1.59E-02
46893,3.53E-03,1.82E-02
46894,4.81E-03,1.82E-02
46895,6.97E-03,1.55E-02
46896,5.19E-03,1.84E-02
46897,5.74E-03,1.97E-02
46898,5.50E-03,2.10E-02
46899,4.85E-03,1.27E-02
46900,5.54E-03,1.32E-02
46901,5.17E-03,1.34E-02
46902,5.51E-03,1.81E-02
46903,5.46E-03,1.76E-02
46904,5.40E-03,1.77E-02
46905,5.52E-03,1.76E-02
46906,5.87E-03,1.71E-02
46907,5.79E-03,1.72E-02
46908,5.89E-03,1.71E-02
46909,5.84E-03,1.67E-02
46910,5.99E-03,1.59E-02
46911,5.98E-03,1.60E-02
46912,5.98E-03,1.56E-02
46913,5.94E-03,1.57E-02
46914,5.96E-03,1.21E-02
46915,5.34E-03,2.03E-02
46916,5.38E-03,1.89E-02
46917,5.36E-03,1.91E-02
46918,5.18E-03,1.87E-02
46919,5.33E-03,1.79E-02
46920,5.60E-03,1.66E-02
46921,6.43E-03,1.57E-02
46922,5.81E-03,1.41E-02
46923,5.59E-03,1.30E-02
46924,5.72E-03,1.76E-02
46925,5.81E-03,1.20E-02
46926,5.16E-03,1.55E-02
46927,4.88E-03,1.54E-02
46928,4.31E-03,1.33E-02
46929,5.20E-03,1.46E-02
46930,5.42E-03,1.79E-02
46931,6.22E-03,1.41E-02
46932,5.93E-03,1.38E-02
46933,5.70E-03,1.47E-02
46934,6.81E-03,1.56E-02
46935,5.33E-03,1.84E-02
46936,5.17E-03,1.83E-02
46937,5.90E-03,1.96E-02
46938,5.83E-03,1.98E-02
46939,5.69E-03,2.12E-02
46940,5.33E-03,2.12E-02
46941,5.57E-03,1.27E-02
46942,5.40E-03,1.32E-02
46943,5.34E-03,1.31E-02
46944,5.33E-03,1.34E-02
46945,5.01E-03,1.37E-02
46946,5.70E-03,1.81E-02
46947,5.67E-03,1.80E-02
46948,5.57E-03,1.80E-02
46949,5.34E-03,1.77E-02
46950,5.65E-03,1.73E-02
46951,5.57E-03,1.74E-02
46952,5.76E-03,1.72E-02
46953,5.85E-03,1.64E-02
46954,5.99E-03,1.60E-02
46955,7.13E-03,1.21E-02
46956,5.34E-03,2.05E-02
46957,5.37E-03,2.01E-02
46958,5.35E-03,1.92E-02
46959,5.29E-03,1.82E-02
46960,5.21E-03,1.84E-02
46961,5.42E-03,1.80E-02
46962,5.91E-03,1.68E-02
46963,5.79E-03,1.66E-02
46964,5.64E-03,1.62E-02
46965,4.87E-03,1.56E-02
46966,5.83E-03,1.54E-02
46967,5.13E-03,1.42E-02
46968,4.23E-03,1.43E-02
46969,7.06E-03,1.41E-02
46970,5.62E-03,1.38E-02
46971,6.62E-03,1.27E-02
46972,5.88E-03,1.74E-02
46973,5.72E-03,1.75E-02
46974,6.62E-03,1.70E-02
46975,5.44E-03,1.17E-02
46976,4.68E-03,1.18E-02
46977,5.76E-03,2.17E-02
46978,5.85E-03,1.43E-02
46979,6.62E-03,1.56E-02
46980,5.48E-03,1.85E-02
46981,5.20E-03,1.83E-02
46982,6.04E-03,1.95E-02
46983,5.83E-03,1.99E-02
46984,5.70E-03,2.14E-02
46985,5.09E-03,2.14E-02
46986,6.01E-03,1.28E-02
46987,4.46E-03,1.41E-02
46988,4.48E-03,1.40E-02
46989,5.92E-03,1.61E-02
46990,5.90E-03,1.62E-02
46991,6.00E-03,1.60E-02
46992,5.36E-03,2.07E-02
46993,6.23E-03,1.59E-02
46994,4.65E-03,1.56E-02
46995,5.50E-03,1.50E-02
46996,5.99E-03,1.72E-02
46997,5.77E-03,1.75E-02
46998,5.70E-03,1.75E-02
46999,5.15E-03,1.83E-02
47000,5.99E-03,1.94E-02
47001,5.91E-03,2.01E-02
47002,5.73E-03,2.15E-02
47003,3.97E-03,2.16E-02
47004,4.72E-03,1.47E-02
47005,5.43E-03,2.11E-02
47006,5.40E-03,2.09E-02
47007,5.72E-03,1.40E-02
47008,6.08E-03,1.42E-02
47009,4.85E-03,1.19E-02
47010,6.20E-03,1.70E-02
47011,5.67E-03,1.86E-02
47012,5.17E-03,1.83E-02
47013,5.87E-03,1.93E-02
47014,5.72E-03,2.02E-02
47015,5.65E-03,1.86E-02
47016,3.17E-03,1.48E-02
47017,6.38E-03,1.67E-02
47018,5.56E-03,1.85E-02
47019,4.94E-03,1.83E-02
47020,5.09E-03,1.83E-02
47021,5.75E-03,1.92E-02
47022,6.02E-03,2.16E-02
47023,6.76E-03,1.17E-02
47024,6.31E-03,1.65E-02
47025,5.64E-03,1.91E-02
47026,5.10E-03,2.04E-02
47027,5.77E-03,2.19E-02
47028,5.67E-03,1.61E-02
47029,5.97E-03,1.63E-02
47030,5.55E-03,1.89E-02
47031,5.12E-03,2.05E-02
47032,5.82E-03,2.20E-02
47033,5.38E-03,1.83E-02
47034,5.46E-03,1.88E-02
47035,5.23E-03,2.07E-02
47036,5.87E-03,2.21E-02
47037,4.84E-03,1.34E-02
47038,4.30E-03,1.34E-02
47039,4.87E-03,1.32E-02
47040,5.32E-03,1.31E-02
47041,5.14E-03,1.33E-02
47042,5.44E-03,1.86E-02
47043,5.35E-03,2.08E-02
47044,5.95E-03,2.22E-02
47045,5.43E-03,1.85E-02
47046,5.34E-03,2.10E-02
47047,6.09E-03,2.22E-02
47048,5.96E-03,1.38E-02
47049,6.93E-03,1.34E-02
47050,5.40E-03,1.83E-02
47051,5.36E-03,2.11E-02
47052,5.33E-03,1.56E-02
47053,5.48E-03,1.58E-02
47054,6.26E-03,2.23E-02
47055,6.49E-03,2.22E-02
47056,3.89E-03,2.21E-02
47057,5.15E-03,1.43E-02
47058,6.39E-03,2.22E-02
47059,6.42E-03,2.23E-02
47060,5.34E-03,1.81E-02
47061,5.32E-03,2.12E-02
47062,6.49E-03,1.61E-02
47063,6.39E-03,2.23E-02
47064,5.27E-03,2.14E-02
47065,5.56E-03,1.96E-02
47066,5.56E-03,1.93E-02
47067,5.35E-03,2.15E-02
47068,6.61E-03,1.26E-02
47069,6.37E-03,1.23E-02
47070,4.79E-03,1.78E-02
47071,4.48E-03,1.77E-02
47072,5.24E-03,2.17E-02
47073,6.36E-03,1.64E-02
47074,5.16E-03,1.67E-02
47075,4.48E-03,1.75E-02
47076,4.37E-03,1.69E-02
47077,5.74E-03,1.76E-02
47078,5.86E-03,1.77E-02
47079,6.04E-03,1.79E-02
47080,6.17E-03,1.80E-02
47081,6.14E-03,1.82E-02
47082,6.09E-03,1.83E-02
47083,5.97E-03,1.84E-02
47084,5.86E-03,1.84E-02
47085,5.83E-03,1.85E-02
47086,5.88E-03,1.85E-02
47087,5.95E-03,1.86E-02
47088,5.81E-03,1.86E-02
47089,4.39E-03,1.71E-02
47090,4.41E-03,1.73E-02
47091,6.24E-03,1.55E-02
47092,5.99E-03,1.56E-02
47093,5.57E-03,1.57E-02
47094,5.47E-03,1.57E-02
47095,6.49E-03,1.81E-02
47096,4.20E-03,1.82E-02
47097,5.00E-03,1.35E-02
47098,7.45E-03,1.52E-02
47099,6.89E-03,1.50E-02
47100,7.14E-03,1.54E-02
47101,5.23E-03,1.84E-02
47102,5.82E-03,1.97E-02
47103,5.50E-03,2.12E-02
47104,5.28E-03,1.29E-02
47105,5.20E-03,1.35E-02
47106,5.58E-03,1.81E-02
47107,5.44E-03,1.75E-02
47108,5.38E-03,1.76E-02
47109,5.47E-03,1.75E-02
47110,5.87E-03,1.71E-02
47111,5.79E-03,1.71E-02
47112,5.84E-03,1.69E-02
47113,5.89E-03,1.70E-02
47114,5.84E-03,1.67E-02
47115,5.83E-03,1.68E-02
47116,5.83E-03,1.65E-02
47117,6.07E-03,1.57E-02
47118,6.04E-03,1.58E-02
47119,6.00E-03,1.55E-02
47120,6.07E-03,1.56E-02
47121,6.41E-03,1.54E-02
47122,6.40E-03,1.19E-02
47123,5.34E-03,2.03E-02
47124,5.34E-03,1.88E-02
47125,5.32E-03,1.90E-02
47126,5.19E-03,1.86E-02
47127,5.44E-03,1.77E-02
47128,5.77E-03,1.64E-02
47129,6.32E-03,1.55E-02
47130,6.10E-03,1.39E-02
47131,5.61E-03,1.29E-02
47132,5.76E-03,1.74E-02
47133,5.48E-03,1.17E-02
47134,5.39E-03,1.52E-02
47135,5.48E-03,1.50E-02
47136,5.57E-03,1.77E-02
47137,5.25E-03,1.54E-02
47138,5.20E-03,1.53E-02
47139,5.86E-03,1.39E-02
47140,5.55E-03,1.37E-02
47141,6.01E-03,1.46E-02
47142,6.77E-03,1.54E-02
47143,5.39E-03,1.84E-02
47144,5.22E-03,1.84E-02
47145,5.99E-03,1.97E-02
47146,5.86E-03,1.98E-02
47147,5.65E-03,2.14E-02
47148,5.37E-03,2.14E-02
47149,5.63E-03,1.29E-02
47150,5.42E-03,1.34E-02
47151,5.42E-03,1.32E-02
47152,5.13E-03,1.38E-02
47153,5.44E-03,1.55E-02
47154,4.43E-03,1.53E-02
47155,4.98E-03,1.52E-02
47156,5.84E-03,1.53E-02
47157,6.00E-03,1.81E-02
47158,5.09E-03,1.79E-02
47159,5.26E-03,1.80E-02
47160,5.41E-03,1.76E-02
47161,5.60E-03,1.72E-02
47162,5.52E-03,1.73E-02
47163,5.77E-03,1.71E-02
47164,5.80E-03,1.63E-02
47165,6.04E-03,1.58E-02
47166,5.52E-03,1.50E-02
47167,6.34E-03,1.51E-02
47168,5.46E-03,2.05E-02
47169,5.39E-03,1.92E-02
47170,5.36E-03,1.81E-02
47171,5.46E-03,1.78E-02
47172,6.23E-03,1.67E-02
47173,6.00E-03,1.64E-02
47174,5.98E-03,1.61E-02
47175,5.16E-03,1.55E-02
47176,5.58E-03,1.52E-02
47177,7.08E-03,1.39E-02
47178,5.20E-03,1.41E-02
47179,7.84E-03,1.38E-02
47180,6.47E-03,1.35E-02
47181,6.04E-03,1.25E-02
47182,5.90E-03,1.72E-02
47183,5.72E-03,1.74E-02
47184,6.57E-03,1.69E-02
47185,5.19E-03,1.15E-02
47186,3.87E-03,1.31E-02
47187,5.39E-03,1.58E-02
47188,5.96E-03,1.42E-02
47189,6.55E-03,1.55E-02
47190,5.54E-03,1.85E-02
47191,5.19E-03,1.84E-02
47192,6.00E-03,1.95E-02
47193,5.83E-03,2.00E-02
47194,5.70E-03,2.16E-02
47195,5.47E-03,2.16E-02
47196,5.38E-03,1.29E-02
47197,6.21E-03,1.30E-02
47198,4.86E-03,1.43E-02
47199,4.94E-03,1.41E-02
47200,5.94E-03,1.60E-02
47201,5.87E-03,1.61E-02
47202,5.98E-03,1.59E-02
47203,5.20E-03,1.48E-02
47204,6.31E-03,1.18E-02
47205,5.28E-03,2.13E-02
47206,4.52E-03,1.45E-02
47207,4.97E-03,1.46E-02
47208,5.48E-03,2.07E-02
47209,6.87E-03,1.57E-02
47210,6.34E-03,1.55E-02
47211,5.96E-03,1.37E-02
47212,4.66E-03,1.43E-02
47213,5.40E-03,1.41E-02
47214,5.53E-03,1.22E-02
47215,6.03E-03,1.70E-02
47216,5.69E-03,1.74E-02
47217,5.62E-03,1.73E-02
47218,6.36E-03,1.74E-02
47219,5.47E-03,1.98E-02
47220,4.10E-03,1.47E-02
47221,5.32E-03,1.48E-02
47222,4.17E-03,1.51E-02
47223,5.27E-03,1.50E-02
47224,4.24E-03,1.48E-02
47225,4.19E-03,1.60E-02
47226,6.31E-03,1.12E-02
47227,6.35E-03,1.14E-02
47228,5.78E-03,1.86E-02
47229,5.21E-03,1.83E-02
47230,5.94E-03,1.94E-02
47231,5.74E-03,2.01E-02
47232,5.79E-03,2.17E-02
47233,4.37E-03,2.18E-02
47234,5.64E-03,1.86E-02
47235,4.81E-03,1.46E-02
47236,4.01E-03,1.46E-02
47237,5.11E-03,1.14E-02
47238,3.59E-03,1.16E-02
47239,5.48E-03,2.11E-02
47240,5.43E-03,2.08E-02
47241,4.86E-03,1.45E-02
47242,5.35E-03,1.49E-02
47243,4.86E-03,1.47E-02
47244,4.82E-03,1.18E-02
47245,6.19E-03,1.68E-02
47246,5.89E-03,1.56E-02
47247,5.82E-03,1.58E-02
47248,5.32E-03,1.57E-02
47249,5.57E-03,1.85E-02
47250,5.60E-03,1.86E-02
47251,5.15E-03,1.83E-02
47252,5.80E-03,1.93E-02
47253,5.52E-03,2.02E-02
47254,5.19E-03,2.17E-02
47255,5.54E-03,1.13E-02
47256,6.22E-03,1.66E-02
47257,4.55E-03,1.54E-02
47258,5.29E-03,1.83E-02
47259,5.17E-03,1.83E-02
47260,5.70E-03,1.92E-02
47261,5.30E-03,2.03E-02
47262,5.76E-03,2.20E-02
47263,5.84E-03,1.64E-02
47264,4.59E-03,1.52E-02
47265,5.62E-03,1.91E-02
47266,5.23E-03,2.04E-02
47267,5.82E-03,2.21E-02
47268,4.21E-03,1.61E-02
47269,5.40E-03,1.83E-02
47270,5.75E-03,1.83E-02
47271,5.25E-03,1.83E-02
47272,5.50E-03,1.89E-02
47273,5.22E-03,2.06E-02
47274,5.80E-03,2.22E-02
47275,5.41E-03,1.29E-02
47276,5.33E-03,1.32E-02
47277,5.47E-03,1.88E-02
47278,5.30E-03,2.07E-02
47279,5.93E-03,2.22E-02
47280,5.44E-03,1.86E-02
47281,5.34E-03,2.08E-02
47282,6.00E-03,2.23E-02
47283,6.08E-03,1.36E-02
47284,5.42E-03,1.84E-02
47285,5.35E-03,2.10E-02
47286,5.41E-03,1.57E-02
47287,6.16E-03,2.23E-02
47288,4.69E-03,1.44E-02
47289,5.33E-03,1.55E-02
47290,3.49E-03,1.28E-02
47291,3.78E-03,1.26E-02
47292,6.85E-03,2.23E-02
47293,6.02E-03,2.21E-02
47294,5.14E-03,1.44E-02
47295,6.59E-03,2.23E-02
47296,6.48E-03,2.23E-02
47297,5.48E-03,1.82E-02
47298,5.30E-03,2.11E-02
47299,5.80E-03,1.60E-02
47300,6.30E-03,2.24E-02
47301,5.83E-03,1.80E-02
47302,5.24E-03,2.13E-02
47303,6.14E-03,1.62E-02
47304,6.43E-03,2.24E-02
47305,5.70E-03,1.95E-02
47306,5.69E-03,1.92E-02
47307,5.17E-03,2.14E-02
47308,4.57E-03,1.65E-02
47309,6.53E-03,2.22E-02
47310,6.96E-03,2.23E-02
47311,5.20E-03,1.22E-02
47312,3.71E-03,1.79E-02
47313,3.26E-03,1.77E-02
47314,4.93E-03,2.16E-02
47315,4.19E-03,1.66E-02
47316,4.24E-03,1.75E-02
47317,3.70E-03,2.17E-02
47318,4.35E-03,1.68E-02
47319,4.59E-03,1.25E-02
47320,5.70E-03,1.75E-02
47321,5.75E-03,1.76E-02
47322,5.97E-03,1.78E-02
47323,6.11E-03,1.79E-02
47324,6.18E-03,1.81E-02
47325,6.07E-03,1.82E-02
47326,6.03E-03,1.83E-02
47327,5.81E-03,1.84E-02
47328,5.81E-03,1.84E-02
47329,5.81E-03,1.85E-02
47330,5.92E-03,1.85E-02
47331,5.87E-03,1.86E-02
47332,4.33E-03,1.72E-02
47333,4.34E-03,1.74E-02
47334,4.35E-03,1.70E-02
47335,6.14E-03,1.54E-02
47336,5.81E-03,1.55E-02
47337,5.43E-03,1.55E-02
47338,5.07E-03,1.44E-02
47339,3.46E-03,1.27E-02
47340,5.24E-03,1.83E-02
47341,4.73E-03,1.48E-02
47342,4.95E-03,1.82E-02
47343,5.04E-03,1.43E-02
47344,5.49E-03,2.01E-02
47345,4.28E-03,1.44E-02
47346,5.66E-03,1.48E-02
47347,4.16E-03,1.46E-02
47348,3.98E-03,1.45E-02
47349,5.12E-03,1.35E-02
47350,6.50E-03,1.50E-02
47351,6.46E-03,1.48E-02
47352,6.68E-03,1.52E-02
47353,5.29E-03,1.84E-02
47354,5.91E-03,1.98E-02
47355,5.56E-03,2.14E-02
47356,5.27E-03,1.35E-02
47357,5.49E-03,1.31E-02
47358,5.26E-03,1.37E-02
47359,3.84E-03,1.46E-02
47360,4.86E-03,1.48E-02
47361,3.90E-03,1.46E-02
47362,4.69E-03,1.47E-02
47363,5.57E-03,1.51E-02
47364,5.19E-03,1.50E-02
47365,5.98E-03,1.52E-02
47366,5.75E-03,1.81E-02
47367,5.40E-03,1.75E-02
47368,5.36E-03,1.75E-02
47369,5.46E-03,1.74E-02
47370,5.87E-03,1.70E-02
47371,5.78E-03,1.71E-02
47372,5.85E-03,1.68E-02
47373,5.92E-03,1.69E-02
47374,5.82E-03,1.65E-02
47375,5.86E-03,1.67E-02
47376,5.82E-03,1.64E-02
47377,6.07E-03,1.56E-02
47378,6.02E-03,1.57E-02
47379,6.28E-03,1.54E-02
47380,6.13E-03,1.55E-02
47381,6.92E-03,1.52E-02
47382,5.91E-03,1.17E-02
47383,5.44E-03,2.03E-02
47384,5.36E-03,1.87E-02
47385,5.36E-03,1.90E-02
47386,5.32E-03,1.85E-02
47387,5.57E-03,1.76E-02
47388,5.94E-03,1.62E-02
47389,5.48E-03,1.53E-02
47390,4.97E-03,1.42E-02
47391,6.54E-03,1.37E-02
47392,4.85E-03,1.45E-02
47393,6.15E-03,1.28E-02
47394,5.82E-03,1.73E-02
47395,5.74E-03,1.46E-02
47396,5.93E-03,1.44E-02
47397,6.47E-03,1.14E-02
47398,5.86E-03,1.44E-02
47399,6.38E-03,1.32E-02
47400,5.60E-03,1.98E-02
47401,6.84E-03,1.30E-02
47402,5.27E-03,1.56E-02
47403,5.57E-03,1.49E-02
47404,4.36E-03,1.50E-02
47405,3.58E-03,1.49E-02
47406,5.69E-03,1.38E-02
47407,5.48E-03,1.36E-02
47408,5.98E-03,1.44E-02
47409,6.63E-03,1.53E-02
47410,5.39E-03,1.85E-02
47411,5.29E-03,1.84E-02
47412,5.98E-03,1.97E-02
47413,5.90E-03,1.99E-02
47414,5.67E-03,2.16E-02
47415,5.49E-03,2.16E-02
47416,5.68E-03,1.31E-02
47417,5.01E-03,1.40E-02
47418,5.00E-03,1.48E-02
47419,5.46E-03,1.55E-02
47420,6.58E-03,1.81E-02
47421,6.22E-03,1.81E-02
47422,4.70E-03,1.79E-02
47423,5.35E-03,1.80E-02
47424,5.78E-03,1.62E-02
47425,6.06E-03,1.57E-02
47426,5.94E-03,1.50E-02
47427,5.55E-03,1.16E-02
47428,5.73E-03,1.16E-02
47429,5.85E-03,2.15E-02
47430,5.75E-03,1.81E-02
47431,5.04E-03,1.43E-02
47432,4.78E-03,1.79E-02
47433,5.43E-03,1.75E-02
47434,5.57E-03,1.76E-02
47435,5.57E-03,2.05E-02
47436,5.58E-03,2.00E-02
47437,5.48E-03,1.91E-02
47438,5.40E-03,1.80E-02
47439,5.30E-03,1.82E-02
47440,5.47E-03,1.77E-02
47441,6.36E-03,1.65E-02
47442,6.20E-03,1.63E-02
47443,6.33E-03,1.59E-02
47444,5.39E-03,1.53E-02
47445,5.39E-03,1.50E-02
47446,5.10E-03,1.39E-02
47447,6.50E-03,1.30E-02
47448,6.89E-03,1.32E-02
47449,4.45E-03,1.45E-02
47450,5.08E-03,1.43E-02
47451,6.13E-03,1.29E-02
47452,5.97E-03,1.24E-02
47453,5.90E-03,1.71E-02
47454,5.65E-03,1.73E-02
47455,6.57E-03,1.67E-02
47456,5.36E-03,1.13E-02
47457,5.96E-03,1.58E-02
47458,6.04E-03,1.11E-02
47459,6.44E-03,1.13E-02
47460,5.73E-03,1.86E-02
47461,5.50E-03,1.72E-02
47462,5.59E-03,1.71E-02
47463,5.84E-03,1.40E-02
47464,6.30E-03,1.53E-02
47465,5.52E-03,1.85E-02
47466,5.23E-03,1.84E-02
47467,5.96E-03,1.95E-02
47468,5.87E-03,2.00E-02
47469,5.73E-03,2.17E-02
47470,5.62E-03,2.18E-02
47471,4.99E-03,1.31E-02
47472,5.59E-03,1.32E-02
47473,4.65E-03,1.42E-02
47474,5.70E-03,1.86E-02
47475,5.91E-03,1.59E-02
47476,5.84E-03,1.60E-02
47477,5.94E-03,1.57E-02
47478,5.21E-03,1.47E-02
47479,6.33E-03,1.11E-02
47480,6.31E-03,1.10E-02
47481,3.37E-03,1.14E-02
47482,5.39E-03,2.13E-02
47483,5.56E-03,2.06E-02
47484,5.76E-03,1.97E-02
47485,6.70E-03,1.55E-02
47486,6.74E-03,1.53E-02
47487,5.07E-03,1.46E-02
47488,5.27E-03,1.43E-02
47489,5.66E-03,1.29E-02
47490,5.64E-03,1.45E-02
47491,5.67E-03,1.39E-02
47492,5.67E-03,1.20E-02
47493,6.05E-03,1.69E-02
47494,5.58E-03,1.73E-02
47495,5.56E-03,1.72E-02
47496,5.34E-03,1.59E-02
47497,4.96E-03,1.58E-02
47498,5.57E-03,1.85E-02
47499,5.20E-03,1.84E-02
47500,5.91E-03,1.94E-02
47501,5.74E-03,2.01E-02
47502,5.79E-03,2.19E-02
47503,6.82E-03,2.19E-02
47504,4.87E-03,1.45E-02
47505,5.88E-03,1.47E-02
47506,6.08E-03,1.46E-02
47507,5.52E-03,1.50E-02
47508,5.66E-03,1.48E-02
47509,5.81E-03,1.47E-02
47510,5.48E-03,1.10E-02
47511,5.48E-03,2.10E-02
47512,5.45E-03,2.08E-02
47513,4.42E-03,1.45E-02
47514,6.06E-03,1.17E-02
47515,6.10E-03,1.67E-02
47516,4.66E-03,1.56E-02
47517,5.58E-03,1.86E-02
47518,5.24E-03,1.84E-02
47519,5.78E-03,1.93E-02
47520,5.50E-03,2.02E-02
47521,5.79E-03,2.20E-02
47522,6.11E-03,2.22E-02
47523,6.02E-03,1.64E-02
47524,4.75E-03,1.53E-02
47525,5.37E-03,1.84E-02
47526,5.62E-03,1.92E-02
47527,5.35E-03,2.03E-02
47528,6.20E-03,1.44E-02
47529,5.89E-03,1.45E-02
47530,5.77E-03,2.21E-02
47531,5.85E-03,2.24E-02
47532,5.98E-03,2.24E-02
47533,5.50E-03,1.62E-02
47534,5.34E-03,1.83E-02
47535,5.36E-03,1.84E-02
47536,5.58E-03,1.90E-02
47537,5.32E-03,2.05E-02
47538,5.82E-03,2.22E-02
47539,4.29E-03,1.60E-02
47540,5.42E-03,1.28E-02
47541,5.40E-03,1.30E-02
47542,4.96E-03,1.51E-02
47543,5.48E-03,1.89E-02
47544,5.33E-03,2.06E-02
47545,5.84E-03,2.23E-02
47546,3.94E-03,1.47E-02
47547,5.15E-03,1.48E-02
47548,5.47E-03,1.87E-02
47549,5.35E-03,2.07E-02
47550,5.93E-03,2.24E-02
47551,6.10E-03,1.34E-02
47552,5.37E-03,1.51E-02
47553,5.54E-03,1.50E-02
47554,5.69E-03,1.48E-02
47555,5.27E-03,1.52E-02
47556,5.45E-03,1.51E-02
47557,5.11E-03,1.83E-02
47558,4.56E-03,1.83E-02
47559,3.94E-03,1.82E-02
47560,4.07E-03,1.82E-02
47561,5.32E-03,1.37E-02
47562,5.39E-03,1.85E-02
47563,5.34E-03,2.09E-02
47564,5.33E-03,1.56E-02
47565,6.07E-03,2.24E-02
47566,5.00E-03,1.45E-02
47567,6.70E-03,2.24E-02
47568,6.59E-03,2.24E-02
47569,5.40E-03,1.84E-02
47570,5.30E-03,2.10E-02
47571,5.47E-03,1.59E-02
47572,6.23E-03,2.24E-02
47573,4.93E-03,1.17E-02
47574,5.38E-03,1.82E-02
47575,5.26E-03,2.11E-02
47576,5.58E-03,1.61E-02
47577,6.35E-03,2.25E-02
47578,5.81E-03,1.92E-02
47579,5.06E-03,1.80E-02
47580,5.11E-03,2.13E-02
47581,5.08E-03,1.63E-02
47582,6.50E-03,2.25E-02
47583,6.22E-03,2.24E-02
47584,3.42E-03,1.78E-02
47585,4.92E-03,2.14E-02
47586,3.67E-03,1.65E-02
47587,3.80E-03,1.77E-02
47588,4.24E-03,2.16E-02
47589,4.21E-03,1.67E-02
47590,3.92E-03,2.17E-02
47591,4.37E-03,1.23E-02
47592,5.67E-03,1.74E-02
47593,5.70E-03,1.75E-02
47594,5.90E-03,1.77E-02
47595,6.08E-03,1.78E-02
47596,6.14E-03,1.80E-02
47597,6.08E-03,1.81E-02
47598,6.04E-03,1.82E-02
47599,5.79E-03,1.83E-02
47600,5.83E-03,1.84E-02
47601,5.71E-03,1.84E-02
47602,5.81E-03,1.85E-02
47603,5.88E-03,1.85E-02
47604,4.18E-03,1.26E-02
47605,4.28E-03,1.73E-02
47606,4.22E-03,1.75E-02
47607,4.29E-03,1.29E-02
47608,4.26E-03,1.71E-02
47609,4.26E-03,1.69E-02
47610,5.93E-03,1.53E-02
47611,5.68E-03,1.53E-02
47612,5.66E-03,1.54E-02
47613,5.35E-03,1.34E-02
47614,6.41E-03,1.49E-02
47615,6.12E-03,1.46E-02
47616,6.45E-03,1.51E-02
47617,5.37E-03,1.84E-02
47618,5.98E-03,1.98E-02
47619,5.62E-03,2.16E-02
47620,5.57E-03,1.33E-02
47621,5.24E-03,1.38E-02
47622,5.11E-03,1.50E-02
47623,4.96E-03,1.49E-02
47624,5.51E-03,1.52E-02
47625,5.30E-03,1.51E-02
47626,5.65E-03,1.54E-02
47627,5.45E-03,1.84E-02
47628,5.53E-03,1.83E-02
47629,5.40E-03,1.83E-02
47630,5.27E-03,1.79E-02
47631,6.62E-03,1.80E-02
47632,5.41E-03,1.74E-02
47633,5.37E-03,1.75E-02
47634,5.45E-03,1.73E-02
47635,5.69E-03,1.71E-02
47636,5.85E-03,1.69E-02
47637,5.76E-03,1.70E-02
47638,5.83E-03,1.67E-02
47639,5.89E-03,1.68E-02
47640,5.80E-03,1.64E-02
47641,5.83E-03,1.65E-02
47642,5.78E-03,1.63E-02
47643,6.13E-03,1.55E-02
47644,6.07E-03,1.56E-02
47645,6.33E-03,1.52E-02
47646,6.22E-03,1.53E-02
47647,6.25E-03,1.51E-02
47648,6.14E-03,1.43E-02
47649,6.40E-03,1.41E-02
47650,6.34E-03,1.43E-02
47651,4.79E-03,1.15E-02
47652,4.54E-03,2.16E-02
47653,4.47E-03,1.82E-02
47654,4.73E-03,1.78E-02
47655,4.62E-03,1.78E-02
47656,5.84E-03,1.77E-02
47657,4.41E-03,1.78E-02
47658,5.55E-03,2.02E-02
47659,5.36E-03,1.86E-02
47660,5.42E-03,1.89E-02
47661,5.33E-03,1.84E-02
47662,5.43E-03,1.75E-02
47663,6.15E-03,1.61E-02
47664,5.50E-03,1.51E-02
47665,5.10E-03,1.40E-02
47666,6.34E-03,1.34E-02
47667,4.85E-03,1.44E-02
47668,6.14E-03,1.26E-02
47669,5.81E-03,1.72E-02
47670,5.33E-03,1.47E-02
47671,5.41E-03,1.46E-02
47672,6.18E-03,1.12E-02
47673,6.37E-03,1.55E-02
47674,4.87E-03,1.10E-02
47675,5.15E-03,1.11E-02
47676,5.82E-03,1.85E-02
47677,6.30E-03,1.40E-02
47678,6.40E-03,1.38E-02
47679,5.45E-03,2.23E-02
47680,5.64E-03,1.70E-02
47681,5.60E-03,1.71E-02
47682,4.46E-03,1.28E-02
47683,5.60E-03,1.70E-02
47684,5.61E-03,1.37E-02
47685,5.54E-03,1.35E-02
47686,5.97E-03,1.43E-02
47687,6.34E-03,1.51E-02
47688,5.43E-03,1.85E-02
47689,5.30E-03,1.84E-02
47690,5.97E-03,1.97E-02
47691,5.90E-03,1.99E-02
47692,5.71E-03,2.18E-02
47693,5.65E-03,2.18E-02
47694,5.69E-03,1.33E-02
47695,5.49E-03,1.37E-02
47696,5.55E-03,1.36E-02
47697,5.45E-03,1.39E-02
47698,5.19E-03,1.41E-02
47699,5.37E-03,1.49E-02
47700,5.71E-03,1.58E-02
47701,5.58E-03,1.56E-02
47702,5.70E-03,1.59E-02
47703,5.70E-03,1.86E-02
47704,5.09E-03,1.83E-02
47705,3.57E-03,1.82E-02
47706,5.74E-03,1.81E-02
47707,5.33E-03,1.81E-02
47708,5.96E-03,1.80E-02
47709,5.05E-03,1.76E-02
47710,5.48E-03,1.72E-02
47711,5.77E-03,1.61E-02
47712,6.06E-03,1.56E-02
47713,5.82E-03,1.48E-02
47714,6.42E-03,1.43E-02
47715,6.50E-03,1.40E-02
47716,4.20E-03,1.12E-02
47717,5.24E-03,1.14E-02
47718,5.21E-03,1.13E-02
47719,4.08E-03,1.31E-02
47720,4.20E-03,1.29E-02
47721,5.91E-03,2.26E-02
47722,5.93E-03,2.26E-02
47723,5.30E-03,2.15E-02
47724,5.66E-03,2.04E-02
47725,5.71E-03,1.99E-02
47726,5.58E-03,1.90E-02
47727,5.44E-03,1.79E-02
47728,5.34E-03,1.81E-02
47729,5.46E-03,1.76E-02
47730,6.41E-03,1.63E-02
47731,6.34E-03,1.61E-02
47732,6.52E-03,1.57E-02
47733,5.95E-03,1.51E-02
47734,5.40E-03,1.48E-02
47735,5.20E-03,1.41E-02
47736,4.87E-03,1.37E-02
47737,5.89E-03,1.28E-02
47738,6.16E-03,1.30E-02
47739,5.55E-03,1.27E-02
47740,5.75E-03,1.44E-02
47741,5.44E-03,1.41E-02
47742,7.67E-03,1.28E-02
47743,5.99E-03,1.23E-02
47744,5.92E-03,1.70E-02
47745,5.63E-03,1.71E-02
47746,6.50E-03,1.66E-02
47747,6.10E-03,1.11E-02
47748,5.22E-03,1.60E-02
47749,5.02E-03,1.59E-02
47750,5.72E-03,1.39E-02
47751,6.14E-03,1.52E-02
47752,5.50E-03,1.85E-02
47753,5.26E-03,1.84E-02
47754,5.98E-03,1.95E-02
47755,5.85E-03,2.00E-02
47756,3.72E-03,1.31E-02
47757,4.48E-03,1.32E-02
47758,6.15E-03,1.38E-02
47759,5.76E-03,2.19E-02
47760,5.60E-03,2.20E-02
47761,5.91E-03,1.58E-02
47762,5.83E-03,1.59E-02
47763,5.95E-03,1.56E-02
47764,5.29E-03,1.46E-02
47765,5.91E-03,1.09E-02
47766,6.28E-03,1.29E-02
47767,6.21E-03,1.28E-02
47768,4.02E-03,1.31E-02
47769,4.35E-03,1.31E-02
47770,6.17E-03,1.29E-02
47771,5.56E-03,2.24E-02
47772,5.33E-03,2.12E-02
47773,5.55E-03,2.06E-02
47774,5.87E-03,1.96E-02
47775,7.26E-03,1.53E-02
47776,7.04E-03,1.51E-02
47777,6.09E-03,1.42E-02
47778,5.64E-03,1.44E-02
47779,5.97E-03,1.41E-02
47780,5.79E-03,1.27E-02
47781,5.11E-03,1.44E-02
47782,5.74E-03,1.38E-02
47783,5.93E-03,1.19E-02
47784,6.05E-03,1.68E-02
47785,5.53E-03,1.72E-02
47786,5.52E-03,1.71E-02
47787,5.45E-03,1.31E-02
47788,5.19E-03,1.57E-02
47789,5.55E-03,1.85E-02
47790,5.28E-03,1.84E-02
47791,5.81E-03,1.94E-02
47792,5.67E-03,2.01E-02
47793,4.78E-03,1.31E-02
47794,4.71E-03,1.32E-02
47795,6.17E-03,1.41E-02
47796,5.76E-03,2.21E-02
47797,6.16E-03,2.22E-02
47798,3.85E-03,1.28E-02
47799,5.45E-03,2.10E-02
47800,5.50E-03,2.08E-02
47801,4.21E-03,1.44E-02
47802,6.45E-03,1.16E-02
47803,6.03E-03,1.65E-02
47804,5.57E-03,1.07E-02
47805,5.02E-03,1.55E-02
47806,5.62E-03,1.86E-02
47807,5.32E-03,1.84E-02
47808,5.72E-03,1.93E-02
47809,5.52E-03,2.02E-02
47810,5.93E-03,1.44E-02
47811,5.73E-03,2.22E-02
47812,5.72E-03,2.24E-02
47813,5.96E-03,1.63E-02
47814,5.35E-03,1.84E-02
47815,5.57E-03,1.92E-02
47816,5.41E-03,2.03E-02
47817,5.76E-03,1.47E-02
47818,5.75E-03,2.23E-02
47819,5.88E-03,2.26E-02
47820,5.51E-03,1.60E-02
47821,5.48E-03,1.27E-02
47822,5.50E-03,1.25E-02
47823,5.69E-03,1.23E-02
47824,5.45E-03,1.26E-02
47825,5.45E-03,1.29E-02
47826,4.93E-03,1.31E-02
47827,4.81E-03,1.31E-02
47828,5.18E-03,1.52E-02
47829,6.35E-03,1.58E-02
47830,5.41E-03,1.84E-02
47831,5.51E-03,1.90E-02
47832,5.39E-03,2.05E-02
47833,5.57E-03,1.50E-02
47834,5.82E-03,2.24E-02
47835,5.34E-03,1.49E-02
47836,5.52E-03,1.84E-02
47837,5.47E-03,1.84E-02
47838,5.47E-03,1.88E-02
47839,5.40E-03,2.06E-02
47840,5.86E-03,2.24E-02
47841,5.83E-03,1.33E-02
47842,5.37E-03,1.87E-02
47843,5.33E-03,2.07E-02
47844,5.35E-03,1.55E-02
47845,5.98E-03,2.25E-02
47846,5.43E-03,1.44E-02
47847,6.17E-03,1.47E-02
47848,6.63E-03,2.24E-02
47849,6.60E-03,2.25E-02
47850,5.38E-03,1.85E-02
47851,5.32E-03,2.09E-02
47852,5.28E-03,1.57E-02
47853,6.14E-03,2.25E-02
47854,5.43E-03,1.33E-02
47855,5.07E-03,1.32E-02
47856,4.90E-03,1.14E-02
47857,5.34E-03,1.83E-02
47858,5.26E-03,2.10E-02
47859,5.35E-03,1.60E-02
47860,6.29E-03,2.25E-02
47861,5.59E-03,1.69E-02
47862,5.89E-03,1.91E-02
47863,5.26E-03,1.81E-02
47864,5.07E-03,2.12E-02
47865,5.19E-03,1.62E-02
47866,6.46E-03,2.26E-02
47867,5.21E-03,2.23E-02
47868,5.76E-03,2.25E-02
47869,4.32E-03,1.17E-02
47870,4.38E-03,1.79E-02
47871,4.95E-03,2.13E-02
47872,4.61E-03,1.65E-02
47873,6.58E-03,2.25E-02
47874,4.18E-03,1.78E-02
47875,4.65E-03,2.15E-02
47876,4.29E-03,1.66E-02
47877,5.30E-03,2.17E-02
47878,3.57E-03,1.22E-02
47879,5.58E-03,1.72E-02
47880,5.62E-03,1.74E-02
47881,5.86E-03,1.76E-02
47882,5.94E-03,1.77E-02
47883,6.02E-03,1.79E-02
47884,6.11E-03,1.80E-02
47885,6.07E-03,1.81E-02
47886,5.82E-03,1.82E-02
47887,5.86E-03,1.83E-02
47888,5.72E-03,1.84E-02
47889,5.75E-03,1.85E-02
47890,5.78E-03,1.85E-02
47891,6.32E-03,1.37E-02
47892,6.26E-03,1.36E-02
47893,4.63E-03,2.16E-02
47894,4.21E-03,1.24E-02
47895,4.23E-03,1.74E-02
47896,4.13E-03,1.76E-02
47897,4.25E-03,1.28E-02
47898,4.27E-03,1.72E-02
47899,4.18E-03,1.68E-02
47900,4.24E-03,1.70E-02
47901,5.74E-03,1.51E-02
47902,5.65E-03,1.52E-02
47903,5.68E-03,1.53E-02
47904,6.61E-03,1.26E-02
47905,7.87E-03,1.27E-02
47906,4.35E-03,1.32E-02
47907,4.70E-03,1.08E-02
47908,5.79E-03,1.85E-02
47909,5.46E-03,1.33E-02
47910,6.22E-03,1.47E-02
47911,6.05E-03,1.45E-02
47912,6.28E-03,1.49E-02
47913,5.37E-03,1.84E-02
47914,6.00E-03,1.98E-02
47915,5.67E-03,2.18E-02
47916,5.59E-03,1.34E-02
47917,5.34E-03,1.40E-02
47918,5.35E-03,1.51E-02
47919,5.32E-03,1.50E-02
47920,5.53E-03,1.54E-02
47921,5.43E-03,1.53E-02
47922,5.61E-03,1.55E-02
47923,5.36E-03,1.61E-02
47924,5.51E-03,1.60E-02
47925,5.74E-03,1.85E-02
47926,5.19E-03,1.61E-02
47927,5.15E-03,1.62E-02
47928,5.19E-03,1.63E-02
47929,5.26E-03,1.62E-02
47930,5.55E-03,1.84E-02
47931,5.60E-03,1.84E-02
47932,5.69E-03,1.83E-02
47933,5.65E-03,1.84E-02
47934,5.64E-03,1.83E-02
47935,4.36E-03,1.82E-02
47936,6.38E-03,1.79E-02
47937,6.51E-03,1.79E-02
47938,5.83E-03,1.77E-02
47939,5.42E-03,1.78E-02
47940,5.34E-03,1.75E-02
47941,5.37E-03,1.75E-02
47942,5.39E-03,1.73E-02
47943,5.37E-03,1.74E-02
47944,5.43E-03,1.72E-02
47945,5.83E-03,1.68E-02
47946,5.75E-03,1.69E-02
47947,5.86E-03,1.66E-02
47948,5.87E-03,1.67E-02
47949,5.80E-03,1.63E-02
47950,5.86E-03,1.64E-02
47951,5.75E-03,1.62E-02
47952,6.14E-03,1.54E-02
47953,6.07E-03,1.55E-02
47954,6.30E-03,1.51E-02
47955,6.22E-03,1.52E-02
47956,6.16E-03,1.50E-02
47957,6.53E-03,1.42E-02
47958,6.27E-03,1.08E-02
47959,6.13E-03,1.07E-02
47960,4.82E-03,1.12E-02
47961,4.60E-03,1.30E-02
47962,5.94E-03,2.28E-02
47963,5.99E-03,2.30E-02
47964,6.02E-03,2.31E-02
47965,6.03E-03,2.29E-02
47966,5.21E-03,2.17E-02
47967,5.63E-03,2.02E-02
47968,5.41E-03,1.85E-02
47969,5.50E-03,1.88E-02
47970,5.36E-03,1.83E-02
47971,5.42E-03,1.74E-02
47972,6.38E-03,1.59E-02
47973,5.60E-03,1.49E-02
47974,5.07E-03,1.39E-02
47975,5.10E-03,1.40E-02
47976,5.06E-03,1.38E-02
47977,5.55E-03,1.32E-02
47978,3.92E-03,1.33E-02
47979,6.05E-03,1.31E-02
47980,5.53E-03,1.26E-02
47981,5.31E-03,1.42E-02
47982,6.14E-03,1.25E-02
47983,5.79E-03,1.71E-02
47984,5.65E-03,1.49E-02
47985,5.63E-03,1.47E-02
47986,6.07E-03,1.70E-02
47987,7.64E-03,1.68E-02
47988,6.31E-03,1.09E-02
47989,3.58E-03,1.32E-02
47990,5.11E-03,1.60E-02
47991,3.43E-03,1.82E-02
47992,5.34E-03,1.45E-02
47993,5.56E-03,1.36E-02
47994,5.49E-03,1.34E-02
47995,5.84E-03,1.41E-02
47996,6.13E-03,1.50E-02
47997,5.49E-03,1.85E-02
47998,5.35E-03,1.84E-02
47999,5.97E-03,1.97E-02
48000,5.88E-03,1.99E-02
48001,6.15E-03,1.34E-02
48002,6.02E-03,1.37E-02
48003,5.75E-03,2.19E-02
48004,5.68E-03,2.20E-02
48005,5.57E-03,1.35E-02
48006,5.54E-03,1.43E-02
48007,5.61E-03,1.50E-02
48008,5.60E-03,1.59E-02
48009,5.61E-03,1.58E-02
48010,5.58E-03,1.60E-02
48011,5.45E-03,1.83E-02
48012,5.42E-03,1.80E-02
48013,5.17E-03,1.81E-02
48014,5.70E-03,1.80E-02
48015,4.26E-03,1.76E-02
48016,4.78E-03,1.77E-02
48017,5.02E-03,1.75E-02
48018,5.48E-03,1.71E-02
48019,5.78E-03,1.60E-02
48020,6.02E-03,1.55E-02
48021,6.37E-03,1.47E-02
48022,6.09E-03,1.44E-02
48023,6.49E-03,1.42E-02
48024,6.41E-03,1.39E-02
48025,6.45E-03,1.32E-02
48026,5.05E-03,1.09E-02
48027,5.17E-03,1.11E-02
48028,5.28E-03,1.11E-02
48029,4.55E-03,1.27E-02
48030,4.55E-03,1.27E-02
48031,5.20E-03,1.29E-02
48032,5.53E-03,1.29E-02
48033,6.07E-03,2.33E-02
48034,6.29E-03,2.33E-02
48035,6.29E-03,2.31E-02
48036,5.91E-03,2.27E-02
48037,5.34E-03,2.14E-02
48038,5.72E-03,2.04E-02
48039,5.86E-03,1.99E-02
48040,5.69E-03,1.89E-02
48041,5.47E-03,1.77E-02
48042,5.41E-03,1.80E-02
48043,5.50E-03,1.75E-02
48044,4.54E-03,1.71E-02
48045,6.49E-03,1.61E-02
48046,6.42E-03,1.59E-02
48047,6.48E-03,1.55E-02
48048,5.94E-03,1.49E-02
48049,5.57E-03,1.46E-02
48050,5.23E-03,1.39E-02
48051,4.78E-03,1.34E-02
48052,5.84E-03,1.26E-02
48053,5.67E-03,1.27E-02
48054,5.66E-03,1.25E-02
48055,5.50E-03,1.21E-02
48056,5.50E-03,1.22E-02
48057,5.46E-03,1.42E-02
48058,5.57E-03,1.39E-02
48059,5.84E-03,1.22E-02
48060,5.90E-03,1.69E-02
48061,5.66E-03,1.70E-02
48062,6.61E-03,1.64E-02
48063,5.26E-03,1.32E-02
48064,5.07E-03,1.58E-02
48065,5.60E-03,1.38E-02
48066,6.01E-03,1.51E-02
48067,5.54E-03,1.85E-02
48068,5.32E-03,1.84E-02
48069,5.88E-03,1.95E-02
48070,5.76E-03,2.00E-02
48071,4.97E-03,1.34E-02
48072,6.03E-03,1.40E-02
48073,5.71E-03,2.21E-02
48074,5.95E-03,2.22E-02
48075,5.63E-03,1.38E-02
48076,5.56E-03,1.39E-02
48077,5.91E-03,1.56E-02
48078,5.79E-03,1.58E-02
48079,5.96E-03,1.55E-02
48080,5.42E-03,1.45E-02
48081,4.21E-03,1.28E-02
48082,7.13E-03,1.09E-02
48083,4.90E-03,1.26E-02
48084,6.12E-03,1.27E-02
48085,5.52E-03,2.24E-02
48086,5.33E-03,2.12E-02
48087,5.58E-03,2.05E-02
48088,5.93E-03,1.96E-02
48089,6.51E-03,1.40E-02
48090,6.49E-03,1.41E-02
48091,5.69E-03,1.39E-02
48092,5.74E-03,1.24E-02
48093,6.29E-03,1.20E-02
48094,4.78E-03,1.18E-02
48095,5.29E-03,1.19E-02
48096,5.15E-03,1.42E-02
48097,5.80E-03,1.36E-02
48098,6.25E-03,1.18E-02
48099,6.00E-03,1.66E-02
48100,5.48E-03,1.71E-02
48101,5.52E-03,1.70E-02
48102,6.59E-03,1.05E-02
48103,6.82E-03,1.51E-02
48104,5.38E-03,1.48E-02
48105,5.08E-03,1.49E-02
48106,5.07E-03,1.56E-02
48107,5.61E-03,1.85E-02
48108,5.29E-03,1.84E-02
48109,5.72E-03,1.94E-02
48110,5.62E-03,2.01E-02
48111,4.99E-03,1.33E-02
48112,5.92E-03,1.43E-02
48113,5.69E-03,2.22E-02
48114,5.88E-03,2.24E-02
48115,5.37E-03,2.09E-02
48116,5.48E-03,2.07E-02
48117,4.86E-03,1.16E-02
48118,4.27E-03,1.16E-02
48119,4.70E-03,1.43E-02
48120,7.23E-03,1.15E-02
48121,6.01E-03,1.64E-02
48122,5.66E-03,1.85E-02
48123,5.34E-03,1.84E-02
48124,5.63E-03,1.93E-02
48125,5.50E-03,2.02E-02
48126,5.00E-03,1.33E-02
48127,5.79E-03,1.45E-02
48128,5.67E-03,2.23E-02
48129,5.87E-03,2.26E-02
48130,5.94E-03,1.61E-02
48131,5.45E-03,1.28E-02
48132,4.58E-03,1.33E-02
48133,5.07E-03,1.53E-02
48134,6.01E-03,1.55E-02
48135,6.02E-03,1.56E-02
48136,5.90E-03,1.59E-02
48137,5.40E-03,1.84E-02
48138,5.48E-03,1.91E-02
48139,5.41E-03,2.04E-02
48140,4.75E-03,1.33E-02
48141,5.60E-03,1.48E-02
48142,5.71E-03,2.24E-02
48143,5.81E-03,2.28E-02
48144,4.60E-03,1.13E-02
48145,6.06E-03,1.16E-02
48146,5.25E-03,1.12E-02
48147,4.14E-03,1.32E-02
48148,5.37E-03,1.30E-02
48149,3.85E-03,1.31E-02
48150,3.69E-03,1.31E-02
48151,3.33E-03,1.33E-02
48152,4.24E-03,1.32E-02
48153,5.28E-03,1.51E-02
48154,5.47E-03,1.84E-02
48155,5.44E-03,1.90E-02
48156,5.40E-03,2.05E-02
48157,5.33E-03,1.51E-02
48158,5.84E-03,2.25E-02
48159,5.78E-03,1.27E-02
48160,5.91E-03,1.28E-02
48161,6.50E-03,1.31E-02
48162,5.47E-03,1.84E-02
48163,5.43E-03,1.88E-02
48164,5.35E-03,2.06E-02
48165,5.31E-03,1.54E-02
48166,5.90E-03,2.26E-02
48167,6.48E-03,1.46E-02
48168,6.94E-03,1.48E-02
48169,6.50E-03,2.25E-02
48170,6.61E-03,2.26E-02
48171,5.44E-03,1.84E-02
48172,5.52E-03,1.84E-02
48173,5.42E-03,1.86E-02
48174,5.32E-03,2.08E-02
48175,5.15E-03,1.56E-02
48176,6.06E-03,2.26E-02
48177,4.82E-03,1.31E-02
48178,5.31E-03,1.35E-02
48179,5.22E-03,1.34E-02
48180,4.92E-03,1.12E-02
48181,6.76E-03,1.46E-02
48182,5.79E-03,1.48E-02
48183,5.31E-03,1.84E-02
48184,5.26E-03,2.09E-02
48185,5.21E-03,1.59E-02
48186,6.23E-03,2.26E-02
48187,5.53E-03,1.69E-02
48188,5.62E-03,1.68E-02
48189,5.92E-03,1.92E-02
48190,5.95E-03,1.90E-02
48191,5.23E-03,1.83E-02
48192,5.09E-03,2.10E-02
48193,5.11E-03,1.61E-02
48194,6.39E-03,2.27E-02
48195,4.96E-03,2.22E-02
48196,4.10E-03,2.23E-02
48197,5.03E-03,2.25E-02
48198,4.60E-03,1.15E-02
48199,4.98E-03,1.81E-02
48200,4.97E-03,2.12E-02
48201,4.84E-03,1.63E-02
48202,6.53E-03,2.26E-02
48203,5.01E-03,2.20E-02
48204,4.12E-03,1.18E-02
48205,4.31E-03,1.79E-02
48206,4.77E-03,2.13E-02
48207,4.35E-03,1.66E-02
48208,6.65E-03,2.26E-02
48209,5.28E-03,2.18E-02
48210,3.58E-03,1.20E-02
48211,5.47E-03,1.71E-02
48212,5.60E-03,1.73E-02
48213,5.77E-03,1.75E-02
48214,5.81E-03,1.76E-02
48215,5.95E-03,1.78E-02
48216,6.06E-03,1.79E-02
48217,6.08E-03,1.81E-02
48218,5.91E-03,1.82E-02
48219,5.91E-03,1.83E-02
48220,5.79E-03,1.83E-02
48221,5.65E-03,1.84E-02
48222,5.70E-03,1.85E-02
48223,5.92E-03,2.32E-02
48224,6.35E-03,2.35E-02
48225,6.25E-03,2.35E-02
48226,6.21E-03,1.36E-02
48227,6.19E-03,1.34E-02
48228,4.58E-03,2.15E-02
48229,4.07E-03,1.23E-02
48230,4.26E-03,1.75E-02
48231,4.26E-03,1.77E-02
48232,4.69E-03,2.16E-02
48233,4.33E-03,1.27E-02
48234,4.28E-03,1.73E-02
48235,4.30E-03,1.68E-02
48236,4.23E-03,1.70E-02
48237,4.26E-03,1.72E-02
48238,5.77E-03,1.50E-02
48239,5.69E-03,1.51E-02
48240,5.55E-03,1.52E-02
48241,4.70E-03,1.53E-02
48242,6.89E-03,1.26E-02
48243,6.14E-03,1.24E-02
48244,6.13E-03,1.24E-02
48245,4.71E-03,1.64E-02
48246,5.93E-03,1.65E-02
48247,3.89E-03,1.33E-02
48248,6.69E-03,1.11E-02
48249,5.71E-03,1.08E-02
48250,5.75E-03,1.85E-02
48251,5.71E-03,1.85E-02
48252,5.27E-03,1.63E-02
48253,3.95E-03,1.34E-02
48254,5.14E-03,1.61E-02
48255,4.06E-03,1.83E-02
48256,3.99E-03,1.27E-02
48257,3.41E-03,1.82E-02
48258,5.43E-03,1.31E-02
48259,6.08E-03,1.46E-02
48260,5.96E-03,1.44E-02
48261,6.17E-03,1.48E-02
48262,5.45E-03,1.85E-02
48263,5.94E-03,1.98E-02
48264,5.87E-03,1.35E-02
48265,5.70E-03,2.20E-02
48266,5.66E-03,1.36E-02
48267,5.55E-03,1.40E-02
48268,5.55E-03,1.42E-02
48269,5.57E-03,1.53E-02
48270,5.60E-03,1.52E-02
48271,5.58E-03,1.55E-02
48272,5.54E-03,1.54E-02
48273,5.57E-03,1.57E-02
48274,5.47E-03,1.63E-02
48275,5.53E-03,1.61E-02
48276,5.41E-03,1.65E-02
48277,5.41E-03,1.64E-02
48278,4.96E-03,1.66E-02
48279,5.45E-03,1.84E-02
48280,5.43E-03,1.84E-02
48281,5.60E-03,1.84E-02
48282,5.50E-03,1.84E-02
48283,5.80E-03,1.83E-02
48284,5.71E-03,1.83E-02
48285,6.28E-03,1.83E-02
48286,5.79E-03,1.78E-02
48287,5.79E-03,1.79E-02
48288,5.60E-03,1.78E-02
48289,5.27E-03,1.74E-02
48290,5.22E-03,1.75E-02
48291,5.32E-03,1.72E-02
48292,5.30E-03,1.73E-02
48293,5.43E-03,1.72E-02
48294,5.78E-03,1.67E-02
48295,5.73E-03,1.68E-02
48296,5.88E-03,1.65E-02
48297,5.89E-03,1.66E-02
48298,5.84E-03,1.62E-02
48299,5.88E-03,1.63E-02
48300,5.78E-03,1.61E-02
48301,6.11E-03,1.52E-02
48302,6.06E-03,1.54E-02
48303,6.23E-03,1.50E-02
48304,6.18E-03,1.51E-02
48305,6.71E-03,1.48E-02
48306,6.48E-03,1.40E-02
48307,6.28E-03,1.34E-02
48308,5.84E-03,1.04E-02
48309,6.40E-03,1.06E-02
48310,5.89E-03,1.05E-02
48311,5.22E-03,1.10E-02
48312,4.97E-03,1.28E-02
48313,5.26E-03,1.29E-02
48314,6.08E-03,2.29E-02
48315,5.27E-03,2.16E-02
48316,5.69E-03,2.01E-02
48317,5.50E-03,1.84E-02
48318,5.55E-03,1.87E-02
48319,5.42E-03,1.82E-02
48320,5.29E-03,1.73E-02
48321,6.37E-03,1.57E-02
48322,5.72E-03,1.47E-02
48323,5.10E-03,1.37E-02
48324,5.08E-03,1.38E-02
48325,5.01E-03,1.35E-02
48326,5.16E-03,1.29E-02
48327,4.89E-03,1.31E-02
48328,5.59E-03,1.28E-02
48329,5.58E-03,1.24E-02
48330,5.60E-03,1.41E-02
48331,5.90E-03,1.25E-02
48332,5.80E-03,1.69E-02
48333,5.80E-03,1.50E-02
48334,5.95E-03,1.49E-02
48335,5.79E-03,1.68E-02
48336,6.56E-03,1.66E-02
48337,5.69E-03,1.25E-02
48338,5.84E-03,1.22E-02
48339,4.43E-03,1.34E-02
48340,5.08E-03,1.59E-02
48341,5.50E-03,1.34E-02
48342,5.45E-03,1.32E-02
48343,5.70E-03,1.40E-02
48344,6.06E-03,1.49E-02
48345,5.52E-03,1.85E-02
48346,5.39E-03,1.84E-02
48347,5.83E-03,1.97E-02
48348,5.83E-03,1.99E-02
48349,5.39E-03,1.35E-02
48350,5.90E-03,1.38E-02
48351,5.68E-03,2.21E-02
48352,5.78E-03,2.21E-02
48353,5.70E-03,1.36E-02
48354,5.61E-03,1.42E-02
48355,5.79E-03,1.45E-02
48356,5.76E-03,1.52E-02
48357,5.58E-03,1.60E-02
48358,5.62E-03,1.59E-02
48359,5.56E-03,1.62E-02
48360,5.41E-03,1.84E-02
48361,5.45E-03,1.84E-02
48362,5.44E-03,1.84E-02
48363,5.06E-03,1.76E-02
48364,5.09E-03,1.76E-02
48365,5.10E-03,1.75E-02
48366,5.44E-03,1.70E-02
48367,5.75E-03,1.59E-02
48368,5.97E-03,1.54E-02
48369,4.99E-03,1.46E-02
48370,6.39E-03,1.42E-02
48371,5.42E-03,1.43E-02
48372,6.72E-03,1.41E-02
48373,6.30E-03,1.37E-02
48374,6.30E-03,1.29E-02
48375,6.30E-03,1.31E-02
48376,6.82E-03,1.07E-02
48377,7.08E-03,1.06E-02
48378,6.93E-03,1.03E-02
48379,5.92E-03,1.07E-02
48380,5.47E-03,1.09E-02
48381,5.72E-03,1.08E-02
48382,6.05E-03,1.26E-02
48383,4.70E-03,1.25E-02
48384,4.78E-03,1.26E-02
48385,5.54E-03,1.27E-02
48386,5.90E-03,1.27E-02
48387,5.22E-03,1.29E-02
48388,4.52E-03,1.31E-02
48389,4.78E-03,1.29E-02
48390,6.15E-03,2.36E-02
48391,6.91E-03,2.31E-02
48392,5.80E-03,2.27E-02
48393,5.34E-03,2.22E-02
48394,5.24E-03,2.14E-02
48395,5.73E-03,2.03E-02
48396,5.95E-03,1.98E-02
48397,5.84E-03,1.88E-02
48398,5.47E-03,1.76E-02
48399,5.52E-03,1.79E-02
48400,5.46E-03,1.74E-02
48401,5.41E-03,1.70E-02
48402,6.43E-03,1.60E-02
48403,6.40E-03,1.58E-02
48404,6.41E-03,1.53E-02
48405,5.67E-03,1.47E-02
48406,5.87E-03,1.43E-02
48407,5.30E-03,1.37E-02
48408,4.68E-03,1.31E-02
48409,4.81E-03,1.32E-02
48410,4.60E-03,1.29E-02
48411,5.65E-03,1.23E-02
48412,5.53E-03,1.24E-02
48413,5.69E-03,1.23E-02
48414,5.47E-03,1.20E-02
48415,5.57E-03,1.41E-02
48416,5.68E-03,1.38E-02
48417,4.75E-03,1.25E-02
48418,5.98E-03,1.21E-02
48419,5.48E-03,1.06E-02
48420,5.88E-03,1.67E-02
48421,5.66E-03,1.69E-02
48422,6.46E-03,1.62E-02
48423,6.50E-03,1.02E-02
48424,4.88E-03,1.00E-02
48425,5.03E-03,1.01E-02
48426,4.19E-03,9.82E-03
48427,6.37E-03,1.19E-02
48428,4.49E-03,1.46E-02
48429,5.13E-03,1.57E-02
48430,5.53E-03,1.37E-02
48431,5.84E-03,1.49E-02
48432,5.58E-03,1.85E-02
48433,5.35E-03,1.84E-02
48434,5.79E-03,1.95E-02
48435,5.71E-03,2.00E-02
48436,5.12E-03,1.35E-02
48437,5.86E-03,1.41E-02
48438,5.69E-03,2.23E-02
48439,5.86E-03,2.24E-02
48440,5.14E-03,1.80E-02
48441,5.30E-03,1.80E-02
48442,5.85E-03,1.55E-02
48443,5.74E-03,1.57E-02
48444,5.86E-03,1.54E-02
48445,7.34E-03,1.28E-02
48446,5.02E-03,1.25E-02
48447,6.07E-03,1.25E-02
48448,4.81E-03,1.27E-02
48449,5.35E-03,1.55E-02
48450,5.29E-03,1.57E-02
48451,4.69E-03,1.60E-02
48452,4.26E-03,1.61E-02
48453,3.44E-03,1.59E-02
48454,5.29E-03,2.12E-02
48455,5.62E-03,2.05E-02
48456,6.01E-03,1.95E-02
48457,5.59E-03,1.48E-02
48458,5.73E-03,1.49E-02
48459,4.88E-03,1.37E-02
48460,4.67E-03,1.37E-02
48461,6.15E-03,1.39E-02
48462,5.21E-03,1.36E-02
48463,5.68E-03,1.21E-02
48464,5.12E-03,1.16E-02
48465,5.75E-03,1.41E-02
48466,5.85E-03,1.35E-02
48467,6.41E-03,1.18E-02
48468,5.97E-03,1.65E-02
48469,5.63E-03,1.85E-02
48470,5.35E-03,1.84E-02
48471,5.67E-03,1.94E-02
48472,5.60E-03,2.01E-02
48473,5.09E-03,1.35E-02
48474,5.77E-03,1.44E-02
48475,5.68E-03,2.24E-02
48476,5.74E-03,2.26E-02
48477,4.85E-03,1.25E-02
48478,3.89E-03,1.35E-02
48479,5.04E-03,1.13E-02
48480,7.12E-03,1.14E-02
48481,6.07E-03,1.62E-02
48482,5.09E-03,1.27E-02
48483,4.66E-03,1.34E-02
48484,5.10E-03,1.54E-02
48485,6.72E-03,1.57E-02
48486,5.69E-03,1.85E-02
48487,5.42E-03,1.84E-02
48488,5.56E-03,1.93E-02
48489,5.45E-03,2.02E-02
48490,4.95E-03,1.34E-02
48491,5.62E-03,1.47E-02
48492,5.69E-03,2.25E-02
48493,5.79E-03,2.28E-02
48494,5.24E-03,2.09E-02
48495,5.34E-03,2.07E-02
48496,6.08E-03,1.43E-02
48497,6.24E-03,1.60E-02
48498,5.55E-03,1.69E-02
48499,5.42E-03,1.69E-02
48500,5.69E-03,1.15E-02
48501,5.66E-03,1.12E-02
48502,5.19E-03,1.32E-02
48503,4.32E-03,1.33E-02
48504,4.14E-03,1.34E-02
48505,5.23E-03,1.52E-02
48506,4.81E-03,1.34E-02
48507,5.43E-03,1.84E-02
48508,5.44E-03,1.91E-02
48509,5.42E-03,2.04E-02
48510,5.44E-03,1.50E-02
48511,5.73E-03,2.26E-02
48512,5.86E-03,2.30E-02
48513,6.23E-03,1.27E-02
48514,6.42E-03,1.30E-02
48515,5.49E-03,1.84E-02
48516,5.44E-03,1.89E-02
48517,5.39E-03,2.05E-02
48518,5.35E-03,1.52E-02
48519,5.83E-03,2.26E-02
48520,6.23E-03,1.48E-02
48521,6.28E-03,1.50E-02
48522,6.25E-03,2.26E-02
48523,6.70E-03,2.26E-02
48524,5.49E-03,1.84E-02
48525,5.41E-03,1.88E-02
48526,5.34E-03,2.06E-02
48527,5.19E-03,1.55E-02
48528,5.97E-03,2.27E-02
48529,4.68E-03,1.29E-02
48530,5.05E-03,1.32E-02
48531,5.67E-03,1.37E-02
48532,5.28E-03,1.35E-02
48533,4.88E-03,1.10E-02
48534,5.50E-03,1.49E-02
48535,5.46E-03,1.84E-02
48536,5.33E-03,1.86E-02
48537,5.27E-03,2.08E-02
48538,5.16E-03,1.57E-02
48539,6.14E-03,2.27E-02
48540,5.52E-03,1.68E-02
48541,5.66E-03,1.67E-02
48542,6.01E-03,1.92E-02
48543,6.01E-03,1.89E-02
48544,5.39E-03,1.84E-02
48545,5.24E-03,1.84E-02
48546,5.14E-03,2.09E-02
48547,5.12E-03,1.60E-02
48548,6.31E-03,2.27E-02
48549,4.89E-03,2.22E-02
48550,4.71E-03,2.25E-02
48551,4.71E-03,1.13E-02
48552,5.43E-03,1.85E-02
48553,5.41E-03,1.85E-02
48554,5.11E-03,1.82E-02
48555,5.02E-03,2.10E-02
48556,4.92E-03,1.62E-02
48557,4.51E-03,1.64E-02
48558,4.34E-03,1.63E-02
48559,6.45E-03,2.28E-02
48560,4.85E-03,2.20E-02
48561,4.40E-03,1.16E-02
48562,4.59E-03,1.80E-02
48563,4.86E-03,2.12E-02
48564,4.59E-03,1.65E-02
48565,6.07E-03,1.56E-02
48566,5.10E-03,1.60E-02
48567,6.60E-03,2.27E-02
48568,4.59E-03,2.19E-02
48569,4.00E-03,1.19E-02
48570,5.57E-03,1.72E-02
48571,5.66E-03,1.74E-02
48572,5.72E-03,1.75E-02
48573,5.89E-03,1.77E-02
48574,6.04E-03,1.78E-02
48575,6.07E-03,1.80E-02
48576,6.00E-03,1.81E-02
48577,5.92E-03,1.82E-02
48578,5.83E-03,1.83E-02
48579,5.64E-03,1.84E-02
48580,5.66E-03,1.84E-02
48581,6.07E-03,2.34E-02
48582,6.24E-03,2.38E-02
48583,6.18E-03,2.37E-02
48584,6.33E-03,2.40E-02
48585,6.64E-03,2.40E-02
48586,6.30E-03,2.44E-02
48587,6.75E-03,2.43E-02
48588,6.06E-03,1.35E-02
48589,6.05E-03,1.33E-02
48590,4.65E-03,2.13E-02
48591,6.68E-03,2.27E-02
48592,3.74E-03,2.17E-02
48593,4.11E-03,1.21E-02
48594,4.34E-03,1.77E-02
48595,4.39E-03,1.79E-02
48596,4.40E-03,2.15E-02
48597,3.95E-03,2.16E-02
48598,4.42E-03,1.25E-02
48599,4.30E-03,1.75E-02
48600,4.39E-03,1.67E-02
48601,4.28E-03,1.69E-02
48602,4.25E-03,1.71E-02
48603,3.66E-03,1.47E-02
48604,3.65E-03,1.50E-02
48605,4.47E-03,1.47E-02
48606,4.49E-03,1.51E-02
48607,6.82E-03,1.44E-02
48608,5.83E-03,1.46E-02
48609,5.69E-03,1.49E-02
48610,5.53E-03,1.50E-02
48611,5.14E-03,1.51E-02
48612,4.31E-03,1.73E-02
48613,6.02E-03,1.24E-02
48614,6.31E-03,1.67E-02
48615,4.17E-03,1.34E-02
48616,5.97E-03,1.11E-02
48617,5.73E-03,1.08E-02
48618,5.66E-03,1.85E-02
48619,5.67E-03,1.85E-02
48620,5.37E-03,1.65E-02
48621,4.50E-03,1.35E-02
48622,5.28E-03,1.62E-02
48623,4.23E-03,1.35E-02
48624,5.07E-03,1.60E-02
48625,5.38E-03,1.30E-02
48626,5.88E-03,1.44E-02
48627,5.81E-03,1.42E-02
48628,6.06E-03,1.47E-02
48629,5.50E-03,1.85E-02
48630,5.84E-03,1.98E-02
48631,5.79E-03,1.37E-02
48632,5.71E-03,2.21E-02
48633,5.75E-03,1.38E-02
48634,5.72E-03,1.44E-02
48635,5.73E-03,1.54E-02
48636,5.71E-03,1.53E-02
48637,5.66E-03,1.57E-02
48638,5.69E-03,1.56E-02
48639,5.63E-03,1.58E-02
48640,5.51E-03,1.64E-02
48641,5.56E-03,1.63E-02
48642,5.47E-03,1.66E-02
48643,5.52E-03,1.65E-02
48644,5.32E-03,1.67E-02
48645,5.59E-03,1.84E-02
48646,5.55E-03,1.84E-02
48647,5.90E-03,1.83E-02
48648,5.73E-03,1.83E-02
48649,5.71E-03,1.82E-02
48650,6.44E-03,1.83E-02
48651,4.56E-03,1.81E-02
48652,4.55E-03,1.82E-02
48653,4.84E-03,1.81E-02
48654,5.47E-03,1.79E-02
48655,5.67E-03,1.78E-02
48656,5.60E-03,1.78E-02
48657,5.39E-03,1.77E-02
48658,5.27E-03,1.73E-02
48659,5.24E-03,1.74E-02
48660,5.32E-03,1.72E-02
48661,5.32E-03,1.73E-02
48662,5.40E-03,1.71E-02
48663,5.75E-03,1.66E-02
48664,5.77E-03,1.67E-02
48665,5.84E-03,1.64E-02
48666,5.87E-03,1.65E-02
48667,5.82E-03,1.61E-02
48668,5.82E-03,1.63E-02
48669,5.75E-03,1.60E-02
48670,6.03E-03,1.51E-02
48671,6.00E-03,1.52E-02
48672,6.10E-03,1.48E-02
48673,6.10E-03,1.50E-02
48674,4.92E-03,1.46E-02
48675,6.40E-03,1.47E-02
48676,4.18E-03,1.44E-02
48677,6.36E-03,1.39E-02
48678,6.26E-03,1.33E-02
48679,6.90E-03,1.03E-02
48680,6.38E-03,1.01E-02
48681,5.74E-03,1.08E-02
48682,7.15E-03,1.25E-02
48683,5.04E-03,1.27E-02
48684,5.89E-03,1.29E-02
48685,5.43E-03,1.28E-02
48686,5.12E-03,1.29E-02
48687,5.77E-03,1.53E-02
48688,5.77E-03,1.56E-02
48689,7.58E-03,1.52E-02
48690,6.29E-03,1.53E-02
48691,6.20E-03,2.38E-02
48692,6.04E-03,2.29E-02
48693,5.20E-03,2.18E-02
48694,5.21E-03,2.20E-02
48695,5.16E-03,2.16E-02
48696,5.78E-03,2.01E-02
48697,5.64E-03,1.83E-02
48698,5.65E-03,1.86E-02
48699,5.54E-03,1.81E-02
48700,5.34E-03,1.72E-02
48701,6.40E-03,1.55E-02
48702,5.69E-03,1.45E-02
48703,5.07E-03,1.34E-02
48704,5.15E-03,1.36E-02
48705,5.02E-03,1.33E-02
48706,5.06E-03,1.27E-02
48707,4.94E-03,1.28E-02
48708,5.42E-03,1.26E-02
48709,5.60E-03,1.21E-02
48710,5.65E-03,1.40E-02
48711,5.82E-03,1.23E-02
48712,6.24E-03,1.04E-02
48713,5.83E-03,1.68E-02
48714,6.03E-03,1.52E-02
48715,6.21E-03,1.50E-02
48716,6.03E-03,1.66E-02
48717,6.24E-03,1.64E-02
48718,5.43E-03,9.62E-03
48719,5.52E-03,9.97E-03
48720,5.07E-03,9.83E-03
48721,6.05E-03,1.01E-02
48722,5.78E-03,1.24E-02
48723,5.67E-03,1.22E-02
48724,4.62E-03,1.46E-02
48725,4.05E-03,1.44E-02
48726,5.17E-03,1.44E-02
48727,5.09E-03,1.58E-02
48728,4.79E-03,2.46E-02
48729,5.38E-03,2.43E-02
48730,4.59E-03,1.51E-02
48731,5.49E-03,1.33E-02
48732,5.55E-03,1.31E-02
48733,5.60E-03,1.39E-02
48734,5.95E-03,1.47E-02
48735,5.53E-03,1.85E-02
48736,5.42E-03,1.84E-02
48737,5.82E-03,1.96E-02
48738,5.77E-03,1.99E-02
48739,5.35E-03,1.36E-02
48740,5.80E-03,1.39E-02
48741,5.72E-03,2.23E-02
48742,5.79E-03,2.23E-02
48743,5.99E-03,1.38E-02
48744,5.94E-03,1.47E-02
48745,5.97E-03,1.53E-02
48746,5.59E-03,1.62E-02
48747,5.60E-03,1.61E-02
48748,5.56E-03,1.63E-02
48749,5.40E-03,1.84E-02
48750,5.40E-03,1.85E-02
48751,5.44E-03,1.84E-02
48752,5.25E-03,1.79E-02
48753,5.13E-03,1.80E-02
48754,5.36E-03,1.79E-02
48755,5.27E-03,1.75E-02
48756,5.33E-03,1.76E-02
48757,5.30E-03,1.74E-02
48758,5.49E-03,1.69E-02
48759,5.74E-03,1.58E-02
48760,5.92E-03,1.53E-02
48761,5.63E-03,1.40E-02
48762,5.31E-03,1.42E-02
48763,6.02E-03,1.39E-02
48764,6.10E-03,1.36E-02
48765,6.03E-03,1.30E-02
48766,6.32E-03,1.04E-02
48767,6.38E-03,1.03E-02
48768,6.18E-03,1.04E-02
48769,6.14E-03,1.07E-02
48770,6.72E-03,1.06E-02
48771,5.57E-03,1.24E-02
48772,4.56E-03,1.24E-02
48773,4.74E-03,1.24E-02
48774,5.71E-03,1.25E-02
48775,6.12E-03,1.25E-02
48776,5.15E-03,1.27E-02
48777,3.83E-03,1.57E-02
48778,4.78E-03,1.65E-02
48779,4.68E-03,1.62E-02
48780,6.33E-03,2.41E-02
48781,5.82E-03,2.36E-02
48782,5.53E-03,2.24E-02
48783,5.62E-03,2.27E-02
48784,5.39E-03,2.22E-02
48785,5.22E-03,2.14E-02
48786,5.78E-03,2.02E-02
48787,6.03E-03,1.97E-02
48788,5.89E-03,1.87E-02
48789,5.64E-03,1.75E-02
48790,5.62E-03,1.77E-02
48791,5.66E-03,1.73E-02
48792,5.78E-03,1.68E-02
48793,6.36E-03,1.58E-02
48794,6.32E-03,1.56E-02
48795,6.06E-03,1.51E-02
48796,5.57E-03,1.45E-02
48797,5.86E-03,1.41E-02
48798,5.23E-03,1.35E-02
48799,4.75E-03,1.28E-02
48800,4.88E-03,1.29E-02
48801,4.80E-03,1.27E-02
48802,5.53E-03,1.20E-02
48803,5.45E-03,1.22E-02
48804,5.67E-03,1.20E-02
48805,5.42E-03,1.17E-02
48806,5.93E-03,1.40E-02
48807,5.59E-03,1.36E-02
48808,5.69E-03,1.24E-02
48809,6.03E-03,1.20E-02
48810,5.56E-03,1.05E-02
48811,5.22E-03,9.75E-03
48812,5.31E-03,1.00E-02
48813,5.97E-03,1.66E-02
48814,5.70E-03,1.68E-02
48815,6.42E-03,1.60E-02
48816,5.74E-03,1.18E-02
48817,5.07E-03,1.23E-02
48818,3.86E-03,1.22E-02
48819,4.58E-03,1.22E-02
48820,6.48E-03,2.31E-02
48821,4.48E-03,1.48E-02
48822,4.52E-03,1.48E-02
48823,4.68E-03,1.44E-02
48824,5.49E-03,1.35E-02
48825,5.82E-03,1.48E-02
48826,5.63E-03,1.85E-02
48827,5.37E-03,1.84E-02
48828,5.71E-03,1.95E-02
48829,5.66E-03,2.00E-02
48830,5.15E-03,1.36E-02
48831,5.76E-03,1.42E-02
48832,5.70E-03,2.24E-02
48833,5.72E-03,2.25E-02
48834,5.81E-03,1.54E-02
48835,5.73E-03,1.56E-02
48836,5.86E-03,1.53E-02
48837,6.02E-03,1.22E-02
48838,5.97E-03,1.22E-02
48839,4.89E-03,1.25E-02
48840,3.87E-03,1.42E-02
48841,3.03E-03,1.66E-02
48842,3.69E-03,1.68E-02
48843,6.03E-03,1.66E-02
48844,6.31E-03,1.70E-02
48845,4.77E-03,2.35E-02
48846,5.14E-03,2.11E-02
48847,6.12E-03,1.94E-02
48848,5.37E-03,1.48E-02
48849,4.86E-03,1.35E-02
48850,5.30E-03,1.37E-02
48851,4.93E-03,1.34E-02
48852,5.65E-03,1.19E-02
48853,5.20E-03,1.14E-02
48854,4.81E-03,1.10E-02
48855,5.07E-03,1.09E-02
48856,5.74E-03,1.33E-02
48857,6.34E-03,1.17E-02
48858,6.05E-03,1.63E-02
48859,5.32E-03,1.26E-02
48860,4.63E-03,1.35E-02
48861,5.08E-03,1.56E-02
48862,5.67E-03,1.85E-02
48863,5.38E-03,1.84E-02
48864,5.55E-03,1.94E-02
48865,5.53E-03,2.01E-02
48866,5.08E-03,1.36E-02
48867,5.65E-03,1.45E-02
48868,5.68E-03,2.25E-02
48869,5.68E-03,2.27E-02
48870,5.83E-03,2.48E-02
48871,5.65E-03,2.04E-02
48872,5.23E-03,2.06E-02
48873,4.86E-03,2.09E-02
48874,4.13E-03,1.44E-02
48875,4.62E-03,1.33E-02
48876,5.43E-03,1.11E-02
48877,6.13E-03,1.40E-02
48878,6.18E-03,1.13E-02
48879,6.31E-03,1.61E-02
48880,5.52E-03,1.67E-02
48881,5.31E-03,1.68E-02
48882,4.53E-03,9.99E-03
48883,4.46E-03,9.94E-03
48884,5.82E-03,1.14E-02
48885,5.66E-03,1.11E-02
48886,5.32E-03,1.33E-02
48887,4.88E-03,1.34E-02
48888,4.24E-03,1.35E-02
48889,4.53E-03,1.32E-02
48890,5.18E-03,1.53E-02
48891,4.74E-03,1.36E-02
48892,5.69E-03,1.85E-02
48893,5.43E-03,1.84E-02
48894,5.45E-03,1.92E-02
48895,5.48E-03,2.02E-02
48896,4.87E-03,1.36E-02
48897,5.51E-03,1.48E-02
48898,5.71E-03,2.26E-02
48899,5.74E-03,2.30E-02
48900,4.51E-03,2.46E-02
48901,5.76E-03,1.41E-02
48902,6.76E-03,1.42E-02
48903,5.72E-03,1.26E-02
48904,5.75E-03,1.28E-02
48905,5.50E-03,1.84E-02
48906,5.48E-03,1.91E-02
48907,5.38E-03,2.04E-02
48908,5.38E-03,1.51E-02
48909,5.76E-03,2.27E-02
48910,5.84E-03,2.32E-02
48911,5.98E-03,1.50E-02
48912,6.27E-03,1.51E-02
48913,5.40E-03,9.50E-03
48914,4.80E-03,1.26E-02
48915,4.46E-03,1.28E-02
48916,5.37E-03,2.03E-02
48917,6.85E-03,2.26E-02
48918,6.93E-03,2.27E-02
48919,5.48E-03,1.84E-02
48920,5.43E-03,1.89E-02
48921,5.34E-03,2.05E-02
48922,5.28E-03,1.54E-02
48923,4.25E-03,1.74E-02
48924,5.51E-03,1.74E-02
48925,5.89E-03,2.28E-02
48926,5.02E-03,1.31E-02
48927,5.18E-03,1.34E-02
48928,6.08E-03,1.38E-02
48929,5.05E-03,1.37E-02
48930,4.89E-03,1.08E-02
48931,5.35E-03,1.51E-02
48932,5.46E-03,1.84E-02
48933,5.38E-03,1.87E-02
48934,5.31E-03,2.06E-02
48935,5.18E-03,1.56E-02
48936,5.50E-03,1.71E-02
48937,6.06E-03,2.28E-02
48938,5.58E-03,1.67E-02
48939,5.68E-03,1.66E-02
48940,6.04E-03,1.91E-02
48941,6.07E-03,1.88E-02
48942,5.44E-03,1.84E-02
48943,5.31E-03,1.85E-02
48944,5.17E-03,2.08E-02
48945,5.10E-03,1.59E-02
48946,3.41E-03,1.69E-02
48947,6.23E-03,2.28E-02
48948,4.89E-03,2.23E-02
48949,4.80E-03,1.11E-02
48950,6.24E-03,1.48E-02
48951,4.48E-03,1.48E-02
48952,5.32E-03,1.85E-02
48953,4.71E-03,1.28E-02
48954,5.20E-03,1.83E-02
48955,5.07E-03,2.09E-02
48956,4.98E-03,1.61E-02
48957,3.89E-03,1.66E-02
48958,4.56E-03,1.29E-02
48959,4.71E-03,1.26E-02
48960,4.76E-03,1.27E-02
48961,4.74E-03,1.29E-02
48962,6.36E-03,2.29E-02
48963,4.94E-03,2.21E-02
48964,4.52E-03,1.14E-02
48965,5.38E-03,1.85E-02
48966,5.39E-03,1.85E-02
48967,4.88E-03,1.81E-02
48968,4.97E-03,2.10E-02
48969,4.70E-03,1.64E-02
48970,4.73E-03,1.63E-02
48971,4.60E-03,1.31E-02
48972,6.55E-03,2.29E-02
48973,4.69E-03,2.19E-02
48974,4.24E-03,1.17E-02
48975,5.58E-03,1.73E-02
48976,5.67E-03,1.74E-02
48977,5.82E-03,1.76E-02
48978,5.95E-03,1.78E-02
48979,6.02E-03,1.79E-02
48980,6.06E-03,1.80E-02
48981,5.94E-03,1.81E-02
48982,5.86E-03,1.82E-02
48983,5.72E-03,1.83E-02
48984,5.69E-03,1.84E-02
48985,5.42E-03,1.70E-02
48986,6.09E-03,2.36E-02
48987,6.20E-03,2.39E-02
48988,6.33E-03,2.42E-02
48989,6.34E-03,2.45E-02
48990,4.62E-03,2.50E-02
48991,5.92E-03,1.33E-02
48992,5.89E-03,1.32E-02
48993,4.77E-03,2.12E-02
48994,5.28E-03,1.60E-02
48995,6.61E-03,2.28E-02
48996,4.10E-03,2.17E-02
48997,4.10E-03,1.19E-02
48998,4.42E-03,1.78E-02
48999,4.52E-03,1.80E-02
49000,4.55E-03,2.13E-02
49001,5.49E-03,1.56E-02
49002,6.76E-03,2.28E-02
49003,3.47E-03,2.16E-02
49004,4.32E-03,1.24E-02
49005,4.38E-03,1.76E-02
49006,4.25E-03,2.15E-02
49007,4.50E-03,1.66E-02
49008,4.37E-03,1.68E-02
49009,4.24E-03,1.70E-02
49010,4.97E-03,1.54E-02
49011,5.55E-03,1.48E-02
49012,6.02E-03,1.43E-02
49013,5.63E-03,1.45E-02
49014,5.53E-03,1.48E-02
49015,5.30E-03,1.49E-02
49016,4.31E-03,1.74E-02
49017,4.28E-03,1.72E-02
49018,4.72E-03,1.51E-02
49019,5.76E-03,1.71E-02
49020,5.69E-03,1.71E-02
49021,5.78E-03,1.70E-02
49022,5.96E-03,1.22E-02
49023,5.24E-03,1.27E-02
49024,5.97E-03,1.24E-02
49025,4.86E-03,1.25E-02
49026,5.80E-03,1.21E-02
49027,5.95E-03,1.68E-02
49028,4.31E-03,1.36E-02
49029,5.83E-03,1.10E-02
49030,5.72E-03,1.07E-02
49031,5.66E-03,1.84E-02
49032,5.62E-03,1.85E-02
49033,5.75E-03,1.66E-02
49034,4.38E-03,1.36E-02
49035,5.40E-03,1.63E-02
49036,4.50E-03,1.36E-02
49037,5.13E-03,1.61E-02
49038,5.07E-03,1.59E-02
49039,5.40E-03,1.29E-02
49040,5.77E-03,1.43E-02
49041,5.70E-03,1.41E-02
49042,5.91E-03,1.45E-02
49043,5.49E-03,1.85E-02
49044,5.81E-03,1.98E-02
49045,5.63E-03,1.38E-02
49046,5.72E-03,2.23E-02
49047,5.76E-03,1.41E-02
49048,5.81E-03,1.40E-02
49049,5.65E-03,1.44E-02
49050,5.72E-03,1.43E-02
49051,5.79E-03,1.45E-02
49052,5.86E-03,1.56E-02
49053,5.91E-03,1.55E-02
49054,5.72E-03,1.58E-02
49055,5.78E-03,1.57E-02
49056,5.63E-03,1.60E-02
49057,5.56E-03,1.65E-02
49058,5.54E-03,1.64E-02
49059,5.59E-03,1.67E-02
49060,5.60E-03,1.66E-02
49061,5.72E-03,1.69E-02
49062,5.73E-03,1.68E-02
49063,5.88E-03,1.70E-02
49064,5.33E-03,1.85E-02
49065,5.39E-03,1.85E-02
49066,5.46E-03,1.85E-02
49067,5.63E-03,1.84E-02
49068,5.57E-03,1.84E-02
49069,5.81E-03,1.83E-02
49070,5.70E-03,1.83E-02
49071,5.45E-03,1.82E-02
49072,5.77E-03,1.82E-02
49073,4.97E-03,1.81E-02
49074,5.18E-03,1.81E-02
49075,4.99E-03,1.80E-02
49076,5.46E-03,1.77E-02
49077,5.53E-03,1.78E-02
49078,5.44E-03,1.77E-02
49079,5.31E-03,1.73E-02
49080,5.34E-03,1.74E-02
49081,5.38E-03,1.71E-02
49082,5.32E-03,1.72E-02
49083,5.45E-03,1.70E-02
49084,5.76E-03,1.65E-02
49085,5.79E-03,1.66E-02
49086,5.87E-03,1.63E-02
49087,5.87E-03,1.64E-02
49088,5.82E-03,1.60E-02
49089,5.85E-03,1.62E-02
49090,5.76E-03,1.59E-02
49091,6.02E-03,1.50E-02
49092,5.99E-03,1.51E-02
49093,6.19E-03,1.47E-02
49094,6.05E-03,1.49E-02
49095,5.33E-03,1.45E-02
49096,5.80E-03,1.46E-02
49097,5.18E-03,1.43E-02
49098,6.12E-03,1.38E-02
49099,6.05E-03,1.31E-02
49100,6.12E-03,1.05E-02
49101,5.51E-03,1.22E-02
49102,5.68E-03,1.23E-02
49103,5.18E-03,1.25E-02
49104,5.75E-03,1.26E-02
49105,6.08E-03,1.26E-02
49106,5.28E-03,1.26E-02
49107,4.69E-03,1.26E-02
49108,5.45E-03,1.48E-02
49109,5.19E-03,1.43E-02
49110,5.67E-03,1.44E-02
49111,5.83E-03,1.49E-02
49112,3.84E-03,1.59E-02
49113,6.06E-03,2.39E-02
49114,5.84E-03,2.29E-02
49115,5.20E-03,2.18E-02
49116,5.24E-03,2.20E-02
49117,5.19E-03,2.16E-02
49118,5.87E-03,2.00E-02
49119,5.73E-03,1.82E-02
49120,5.70E-03,1.85E-02
49121,5.65E-03,1.80E-02
49122,5.73E-03,1.70E-02
49123,6.15E-03,1.54E-02
49124,5.73E-03,1.43E-02
49125,5.06E-03,1.32E-02
49126,5.14E-03,1.33E-02
49127,4.97E-03,1.31E-02
49128,5.03E-03,1.24E-02
49129,4.90E-03,1.26E-02
49130,5.35E-03,1.23E-02
49131,5.59E-03,1.19E-02
49132,5.50E-03,1.38E-02
49133,5.64E-03,1.22E-02
49134,5.51E-03,1.03E-02
49135,5.82E-03,1.67E-02
49136,6.21E-03,1.53E-02
49137,6.35E-03,1.52E-02
49138,6.16E-03,1.64E-02
49139,6.33E-03,1.62E-02
49140,5.80E-03,9.39E-03
49141,5.40E-03,9.72E-03
49142,5.35E-03,9.56E-03
49143,5.35E-03,9.88E-03
49144,4.29E-03,1.23E-02
49145,5.55E-03,1.21E-02
49146,4.30E-03,1.21E-02
49147,5.02E-03,1.21E-02
49148,4.69E-03,1.23E-02
49149,4.31E-03,1.20E-02
49150,5.46E-03,1.32E-02
49151,5.56E-03,1.30E-02
49152,5.54E-03,1.38E-02
49153,5.85E-03,1.46E-02
49154,5.56E-03,1.85E-02
49155,5.45E-03,1.85E-02
49156,5.72E-03,1.96E-02
49157,5.70E-03,1.99E-02
49158,5.29E-03,1.38E-02
49159,5.67E-03,1.41E-02
49160,5.67E-03,2.25E-02
49161,5.67E-03,2.25E-02
49162,6.29E-03,1.40E-02
49163,5.84E-03,1.49E-02
49164,6.10E-03,1.55E-02
49165,5.63E-03,1.63E-02
49166,5.63E-03,1.62E-02
49167,5.58E-03,1.64E-02
49168,5.44E-03,1.84E-02
49169,5.44E-03,1.85E-02
49170,5.49E-03,1.84E-02
49171,5.14E-03,1.79E-02
49172,5.25E-03,1.79E-02
49173,5.40E-03,1.74E-02
49174,5.47E-03,1.75E-02
49175,5.34E-03,1.74E-02
49176,5.54E-03,1.68E-02
49177,5.67E-03,1.57E-02
49178,5.92E-03,1.52E-02
49179,5.52E-03,1.39E-02
49180,5.56E-03,1.41E-02
49181,5.73E-03,1.38E-02
49182,5.92E-03,1.35E-02
49183,5.81E-03,1.28E-02
49184,6.13E-03,1.01E-02
49185,6.06E-03,1.01E-02
49186,6.15E-03,1.02E-02
49187,5.31E-03,1.22E-02
49188,4.74E-03,1.22E-02
49189,5.64E-03,1.23E-02
49190,5.99E-03,1.23E-02
49191,5.10E-03,1.24E-02
49192,4.89E-03,1.23E-02
49193,4.83E-03,1.23E-02
49194,4.86E-03,1.39E-02
49195,4.31E-03,1.41E-02
49196,5.60E-03,1.44E-02
49197,5.21E-03,1.62E-02
49198,3.47E-03,1.75E-02
49199,4.55E-03,1.77E-02
49200,4.43E-03,1.77E-02
49201,5.45E-03,2.41E-02
49202,5.32E-03,2.37E-02
49203,5.45E-03,2.31E-02
49204,5.42E-03,2.24E-02
49205,5.46E-03,2.27E-02
49206,5.31E-03,2.22E-02
49207,5.14E-03,2.13E-02
49208,5.81E-03,2.02E-02
49209,6.07E-03,1.97E-02
49210,5.98E-03,1.87E-02
49211,5.72E-03,1.74E-02
49212,5.69E-03,1.76E-02
49213,5.77E-03,1.71E-02
49214,6.00E-03,1.67E-02
49215,6.38E-03,1.56E-02
49216,6.35E-03,1.54E-02
49217,5.73E-03,1.50E-02
49218,6.18E-03,1.42E-02
49219,5.68E-03,1.39E-02
49220,5.21E-03,1.32E-02
49221,4.85E-03,1.25E-02
49222,4.92E-03,1.27E-02
49223,4.85E-03,1.24E-02
49224,5.45E-03,1.18E-02
49225,5.38E-03,1.19E-02
49226,5.66E-03,1.17E-02
49227,5.46E-03,1.15E-02
49228,5.29E-03,1.09E-02
49229,5.56E-03,1.35E-02
49230,5.72E-03,1.24E-02
49231,6.00E-03,1.19E-02
49232,5.67E-03,1.05E-02
49233,5.48E-03,9.69E-03
49234,5.49E-03,9.96E-03
49235,6.05E-03,1.64E-02
49236,5.71E-03,1.66E-02
49237,6.40E-03,1.58E-02
49238,4.58E-03,1.24E-02
49239,5.70E-03,1.17E-02
49240,4.59E-03,1.37E-02
49241,5.03E-03,1.57E-02
49242,4.00E-03,1.53E-02
49243,5.44E-03,1.34E-02
49244,5.72E-03,1.47E-02
49245,5.64E-03,1.85E-02
49246,5.43E-03,1.84E-02
49247,5.61E-03,1.95E-02
49248,5.59E-03,2.00E-02
49249,5.14E-03,1.38E-02
49250,5.64E-03,1.44E-02
49251,5.65E-03,2.26E-02
49252,5.61E-03,2.27E-02
49253,5.77E-03,1.53E-02
49254,5.67E-03,1.55E-02
49255,5.86E-03,1.52E-02
49256,4.60E-03,1.26E-02
49257,5.01E-03,1.23E-02
49258,5.60E-03,1.65E-02
49259,4.27E-03,2.17E-02
49260,3.75E-03,2.20E-02
49261,4.48E-03,2.18E-02
49262,5.71E-03,2.14E-02
49263,5.25E-03,2.13E-02
49264,4.03E-03,2.11E-02
49265,4.99E-03,2.10E-02
49266,4.42E-03,2.49E-02
49267,4.95E-03,2.35E-02
49268,5.00E-03,2.11E-02
49269,6.09E-03,1.93E-02
49270,5.21E-03,1.46E-02
49271,4.79E-03,1.33E-02
49272,5.14E-03,1.35E-02
49273,4.82E-03,1.31E-02
49274,5.62E-03,1.16E-02
49275,5.46E-03,1.12E-02
49276,4.97E-03,1.08E-02
49277,4.89E-03,1.07E-02
49278,4.73E-03,1.38E-02
49279,4.80E-03,1.38E-02
49280,5.75E-03,1.32E-02
49281,6.10E-03,1.16E-02
49282,6.21E-03,1.62E-02
49283,4.97E-03,1.67E-02
49284,5.46E-03,1.66E-02
49285,5.31E-03,9.88E-03
49286,3.67E-03,9.71E-03
49287,5.05E-03,9.77E-03
49288,5.66E-03,1.10E-02
49289,5.92E-03,1.13E-02
49290,5.11E-03,1.35E-02
49291,4.77E-03,1.36E-02
49292,4.84E-03,1.34E-02
49293,5.20E-03,1.54E-02
49294,4.73E-03,1.37E-02
49295,5.65E-03,1.85E-02
49296,5.37E-03,1.84E-02
49297,5.49E-03,1.94E-02
49298,5.51E-03,2.01E-02
49299,5.01E-03,1.37E-02
49300,5.53E-03,1.47E-02
49301,5.67E-03,2.27E-02
49302,5.67E-03,2.29E-02
49303,4.20E-03,1.24E-02
49304,4.69E-03,2.48E-02
49305,3.55E-03,2.06E-02
49306,4.65E-03,2.08E-02
49307,5.13E-03,1.43E-02
49308,4.66E-03,1.31E-02
49309,5.41E-03,1.08E-02
49310,5.78E-03,1.40E-02
49311,5.86E-03,1.13E-02
49312,4.90E-03,1.37E-02
49313,5.69E-03,2.14E-02
49314,5.27E-03,2.11E-02
49315,5.96E-03,1.41E-02
49316,5.65E-03,1.85E-02
49317,5.46E-03,1.84E-02
49318,5.45E-03,1.92E-02
49319,5.37E-03,2.02E-02
49320,5.40E-03,1.49E-02
49321,5.70E-03,2.28E-02
49322,5.73E-03,2.32E-02
49323,5.85E-03,1.51E-02
49324,6.75E-03,1.53E-02
49325,5.65E-03,9.42E-03
49326,5.74E-03,9.26E-03
49327,4.09E-03,2.47E-02
49328,3.63E-03,2.04E-02
49329,6.41E-03,2.25E-02
49330,6.98E-03,2.26E-02
49331,6.80E-03,2.28E-02
49332,5.49E-03,1.84E-02
49333,5.42E-03,1.90E-02
49334,5.39E-03,2.04E-02
49335,5.30E-03,1.52E-02
49336,4.87E-03,1.78E-02
49337,5.80E-03,2.28E-02
49338,5.86E-03,2.34E-02
49339,5.23E-03,1.32E-02
49340,5.18E-03,1.35E-02
49341,4.18E-03,1.40E-02
49342,5.02E-03,1.38E-02
49343,4.28E-03,1.41E-02
49344,3.58E-03,1.41E-02
49345,4.56E-03,1.05E-02
49346,4.53E-03,1.06E-02
49347,5.28E-03,1.52E-02
49348,5.51E-03,1.84E-02
49349,5.40E-03,1.89E-02
49350,5.29E-03,2.05E-02
49351,5.20E-03,1.55E-02
49352,5.21E-03,1.74E-02
49353,5.97E-03,2.29E-02
49354,5.58E-03,1.66E-02
49355,5.70E-03,1.65E-02
49356,6.04E-03,1.90E-02
49357,6.09E-03,1.87E-02
49358,5.47E-03,1.84E-02
49359,5.35E-03,1.87E-02
49360,5.20E-03,2.06E-02
49361,5.10E-03,1.58E-02
49362,4.46E-03,1.71E-02
49363,4.90E-03,1.28E-02
49364,4.90E-03,1.26E-02
49365,5.00E-03,1.26E-02
49366,4.99E-03,1.29E-02
49367,6.15E-03,2.29E-02
49368,5.36E-03,1.21E-02
49369,5.04E-03,1.20E-02
49370,5.25E-03,2.23E-02
49371,4.08E-03,1.03E-02
49372,4.65E-03,1.03E-02
49373,4.66E-03,1.09E-02
49374,5.51E-03,1.45E-02
49375,5.18E-03,1.46E-02
49376,5.39E-03,1.84E-02
49377,5.06E-03,1.29E-02
49378,5.22E-03,1.85E-02
49379,5.13E-03,2.08E-02
49380,4.97E-03,1.60E-02
49381,4.55E-03,1.69E-02
49382,4.85E-03,1.30E-02
49383,6.32E-03,2.30E-02
49384,4.87E-03,2.21E-02
49385,4.63E-03,1.12E-02
49386,5.32E-03,1.85E-02
49387,5.00E-03,1.83E-02
49388,5.03E-03,2.09E-02
49389,4.78E-03,1.63E-02
49390,4.62E-03,1.66E-02
49391,4.73E-03,1.32E-02
49392,6.49E-03,2.30E-02
49393,4.76E-03,2.19E-02
49394,4.48E-03,1.14E-02
49395,5.62E-03,1.73E-02
49396,5.72E-03,1.75E-02
49397,5.86E-03,1.77E-02
49398,5.96E-03,1.78E-02
49399,6.08E-03,1.79E-02
49400,6.00E-03,1.81E-02
49401,5.91E-03,1.82E-02
49402,5.81E-03,1.83E-02
49403,5.70E-03,1.83E-02
49404,5.48E-03,1.71E-02
49405,6.10E-03,2.38E-02
49406,6.18E-03,2.41E-02
49407,6.25E-03,2.44E-02
49408,6.14E-03,2.47E-02
49409,5.00E-03,2.51E-02
49410,5.53E-03,2.51E-02
49411,5.80E-03,1.32E-02
49412,5.81E-03,1.30E-02
49413,5.35E-03,1.85E-02
49414,4.86E-03,2.10E-02
49415,4.95E-03,1.63E-02
49416,4.66E-03,1.33E-02
49417,6.58E-03,2.29E-02
49418,4.51E-03,2.18E-02
49419,4.22E-03,1.17E-02
49420,5.31E-03,1.69E-02
49421,5.39E-03,1.85E-02
49422,5.37E-03,1.85E-02
49423,4.69E-03,1.27E-02
49424,4.57E-03,1.79E-02
49425,4.73E-03,1.81E-02
49426,4.65E-03,2.12E-02
49427,5.30E-03,1.60E-02
49428,6.70E-03,2.29E-02
49429,4.44E-03,2.16E-02
49430,4.19E-03,1.22E-02
49431,4.42E-03,1.77E-02
49432,4.44E-03,2.13E-02
49433,4.63E-03,1.65E-02
49434,4.45E-03,1.67E-02
49435,4.33E-03,1.69E-02
49436,5.50E-03,1.57E-02
49437,6.82E-03,2.28E-02
49438,4.19E-03,2.15E-02
49439,5.42E-03,1.49E-02
49440,5.46E-03,1.47E-02
49441,5.42E-03,1.47E-02
49442,4.39E-03,1.75E-02
49443,4.24E-03,1.71E-02
49444,4.94E-03,1.54E-02
49445,5.62E-03,1.72E-02
49446,5.38E-03,1.74E-02
49447,5.49E-03,1.74E-02
49448,5.40E-03,1.73E-02
49449,4.28E-03,1.73E-02
49450,5.74E-03,1.71E-02
49451,4.73E-03,1.51E-02
49452,5.82E-03,1.20E-02
49453,5.70E-03,1.19E-02
49454,5.91E-03,1.69E-02
49455,5.61E-03,1.47E-02
49456,4.31E-03,1.37E-02
49457,5.64E-03,1.09E-02
49458,5.62E-03,1.07E-02
49459,5.61E-03,1.84E-02
49460,5.57E-03,1.84E-02
49461,5.92E-03,1.67E-02
49462,5.63E-03,1.41E-02
49463,5.40E-03,1.45E-02
49464,4.39E-03,1.37E-02
49465,5.42E-03,1.64E-02
49466,4.65E-03,1.38E-02
49467,5.25E-03,1.62E-02
49468,6.03E-03,1.37E-02
49469,6.00E-03,1.40E-02
49470,5.08E-03,1.60E-02
49471,6.39E-03,1.37E-02
49472,4.07E-03,1.34E-02
49473,3.72E-03,1.35E-02
49474,5.10E-03,1.37E-02
49475,5.74E-03,1.55E-02
49476,5.24E-03,1.68E-02
49477,4.81E-03,1.71E-02
49478,4.42E-03,1.75E-02
49479,5.27E-03,1.32E-02
49480,3.72E-03,1.32E-02
49481,4.91E-03,1.30E-02
49482,6.03E-03,1.28E-02
49483,5.72E-03,1.42E-02
49484,5.63E-03,1.40E-02
49485,5.83E-03,1.44E-02
49486,5.47E-03,1.85E-02
49487,5.74E-03,1.98E-02
49488,5.55E-03,1.39E-02
49489,5.65E-03,2.25E-02
49490,5.69E-03,1.43E-02
49491,5.84E-03,1.42E-02
49492,5.67E-03,1.46E-02
49493,5.68E-03,1.45E-02
49494,5.79E-03,1.47E-02
49495,5.93E-03,1.58E-02
49496,6.00E-03,1.56E-02
49497,5.76E-03,1.60E-02
49498,5.87E-03,1.59E-02
49499,5.66E-03,1.61E-02
49500,5.61E-03,1.67E-02
49501,5.58E-03,1.65E-02
49502,5.66E-03,1.69E-02
49503,5.70E-03,1.68E-02
49504,5.57E-03,1.70E-02
49505,5.62E-03,1.69E-02
49506,5.64E-03,1.72E-02
49507,5.67E-03,1.71E-02
49508,5.57E-03,1.73E-02
49509,5.36E-03,1.85E-02
49510,5.45E-03,1.85E-02
49511,5.43E-03,1.85E-02
49512,5.43E-03,1.85E-02
49513,5.47E-03,1.85E-02
49514,5.62E-03,1.83E-02
49515,5.57E-03,1.84E-02
49516,5.78E-03,1.83E-02
49517,5.69E-03,1.83E-02
49518,5.46E-03,1.82E-02
49519,5.63E-03,1.82E-02
49520,5.18E-03,1.81E-02
49521,5.34E-03,1.81E-02
49522,5.12E-03,1.80E-02
49523,5.49E-03,1.77E-02
49524,5.35E-03,1.85E-02
49525,5.36E-03,1.78E-02
49526,5.47E-03,1.78E-02
49527,5.49E-03,1.76E-02
49528,5.41E-03,1.72E-02
49529,5.36E-03,1.73E-02
49530,5.42E-03,1.70E-02
49531,5.47E-03,1.71E-02
49532,5.41E-03,1.69E-02
49533,5.82E-03,1.64E-02
49534,5.82E-03,1.65E-02
49535,5.90E-03,1.62E-02
49536,5.90E-03,1.63E-02
49537,5.82E-03,1.59E-02
49538,5.87E-03,1.61E-02
49539,5.78E-03,1.58E-02
49540,5.96E-03,1.49E-02
49541,5.95E-03,1.50E-02
49542,5.90E-03,1.46E-02
49543,5.97E-03,1.47E-02
49544,5.57E-03,1.43E-02
49545,5.74E-03,1.45E-02
49546,5.54E-03,1.42E-02
49547,5.87E-03,1.36E-02
49548,5.87E-03,1.30E-02
49549,5.90E-03,9.98E-03
49550,6.66E-03,1.03E-02
49551,6.16E-03,1.02E-02
49552,4.95E-03,1.03E-02
49553,5.45E-03,1.21E-02
49554,5.31E-03,1.23E-02
49555,5.72E-03,1.24E-02
49556,5.83E-03,1.23E-02
49557,5.31E-03,1.24E-02
49558,4.84E-03,1.24E-02
49559,4.80E-03,1.24E-02
49560,4.85E-03,1.25E-02
49561,4.90E-03,1.40E-02
49562,5.54E-03,1.44E-02
49563,3.62E-03,1.49E-02
49564,5.16E-03,1.59E-02
49565,4.43E-03,1.84E-02
49566,4.63E-03,1.81E-02
49567,4.28E-03,1.80E-02
49568,5.12E-03,2.20E-02
49569,5.19E-03,2.16E-02
49570,4.92E-03,2.22E-02
49571,5.22E-03,2.26E-02
49572,5.33E-03,2.27E-02
49573,5.06E-03,2.23E-02
49574,5.58E-03,2.39E-02
49575,5.61E-03,2.29E-02
49576,5.17E-03,2.18E-02
49577,5.12E-03,2.20E-02
49578,5.15E-03,2.15E-02
49579,6.05E-03,1.99E-02
49580,5.79E-03,1.81E-02
49581,5.82E-03,1.84E-02
49582,5.72E-03,1.79E-02
49583,5.91E-03,1.69E-02
49584,6.03E-03,1.52E-02
49585,5.71E-03,1.41E-02
49586,5.11E-03,1.29E-02
49587,5.19E-03,1.31E-02
49588,4.99E-03,1.28E-02
49589,4.99E-03,1.22E-02
49590,4.94E-03,1.23E-02
49591,5.26E-03,1.21E-02
49592,5.62E-03,1.16E-02
49593,5.56E-03,1.08E-02
49594,5.50E-03,1.08E-02
49595,5.04E-03,1.37E-02
49596,5.75E-03,1.21E-02
49597,5.56E-03,1.02E-02
49598,5.95E-03,1.20E-02
49599,5.88E-03,1.20E-02
49600,5.89E-03,1.65E-02
49601,6.31E-03,1.55E-02
49602,6.40E-03,1.53E-02
49603,6.21E-03,1.63E-02
49604,6.39E-03,1.60E-02
49605,5.58E-03,9.27E-03
49606,5.22E-03,9.47E-03
49607,4.84E-03,9.61E-03
49608,4.17E-03,1.22E-02
49609,5.47E-03,1.19E-02
49610,5.75E-03,2.25E-02
49611,5.41E-03,2.26E-02
49612,4.80E-03,1.66E-02
49613,4.61E-03,1.32E-02
49614,4.61E-03,1.34E-02
49615,4.62E-03,1.38E-02
49616,5.03E-03,2.22E-02
49617,5.06E-03,1.58E-02
49618,5.64E-03,1.55E-02
49619,5.39E-03,1.31E-02
49620,5.45E-03,1.29E-02
49621,5.49E-03,1.36E-02
49622,5.74E-03,1.45E-02
49623,5.59E-03,1.85E-02
49624,5.46E-03,1.85E-02
49625,5.64E-03,1.96E-02
49626,5.63E-03,1.99E-02
49627,5.23E-03,1.39E-02
49628,5.57E-03,1.42E-02
49629,5.63E-03,2.26E-02
49630,5.59E-03,2.27E-02
49631,6.06E-03,1.43E-02
49632,5.66E-03,1.50E-02
49633,6.16E-03,1.56E-02
49634,5.64E-03,1.65E-02
49635,5.66E-03,1.64E-02
49636,5.64E-03,1.66E-02
49637,5.51E-03,1.86E-02
49638,5.50E-03,1.84E-02
49639,5.49E-03,1.85E-02
49640,5.53E-03,1.84E-02
49641,5.51E-03,1.74E-02
49642,5.52E-03,1.75E-02
49643,5.45E-03,1.73E-02
49644,5.53E-03,1.68E-02
49645,5.61E-03,1.56E-02
49646,5.90E-03,1.50E-02
49647,6.19E-03,1.38E-02
49648,5.97E-03,1.39E-02
49649,5.65E-03,1.37E-02
49650,5.79E-03,1.34E-02
49651,5.42E-03,1.27E-02
49652,5.92E-03,9.85E-03
49653,5.79E-03,9.79E-03
49654,6.02E-03,9.91E-03
49655,5.87E-03,1.21E-02
49656,4.61E-03,1.20E-02
49657,5.56E-03,1.21E-02
49658,5.89E-03,1.21E-02
49659,5.16E-03,1.22E-02
49660,4.97E-03,1.21E-02
49661,4.92E-03,1.21E-02
49662,5.06E-03,1.36E-02
49663,5.72E-03,1.39E-02
49664,4.98E-03,1.37E-02
49665,6.01E-03,1.41E-02
49666,6.85E-03,1.54E-02
49667,5.53E-03,1.62E-02
49668,4.46E-03,1.78E-02
49669,4.98E-03,2.08E-02
49670,6.44E-03,2.09E-02
49671,5.64E-03,2.13E-02
49672,3.60E-03,2.51E-02
49673,5.50E-03,2.41E-02
49674,5.13E-03,2.37E-02
49675,5.07E-03,2.33E-02
49676,5.26E-03,2.31E-02
49677,5.32E-03,2.24E-02
49678,5.34E-03,2.26E-02
49679,5.25E-03,2.22E-02
49680,5.01E-03,2.13E-02
49681,6.31E-03,2.01E-02
49682,6.14E-03,1.96E-02
49683,6.03E-03,1.86E-02
49684,5.82E-03,1.72E-02
49685,5.80E-03,1.75E-02
49686,5.83E-03,1.70E-02
49687,6.10E-03,1.65E-02
49688,5.61E-03,1.48E-02
49689,6.21E-03,1.40E-02
49690,5.39E-03,1.37E-02
49691,5.29E-03,1.30E-02
49692,4.88E-03,1.23E-02
49693,4.91E-03,1.24E-02
49694,4.83E-03,1.22E-02
49695,5.46E-03,1.15E-02
49696,5.34E-03,1.17E-02
49697,5.69E-03,1.15E-02
49698,5.61E-03,1.12E-02
49699,5.05E-03,1.06E-02
49700,3.74E-03,1.36E-02
49701,5.52E-03,1.34E-02
49702,5.45E-03,1.23E-02
49703,5.84E-03,1.18E-02
49704,5.67E-03,1.04E-02
49705,5.68E-03,9.63E-03
49706,5.63E-03,9.90E-03
49707,6.17E-03,1.63E-02
49708,5.81E-03,1.65E-02
49709,6.49E-03,1.59E-02
49710,6.33E-03,1.52E-02
49711,6.38E-03,1.54E-02
49712,4.00E-03,9.50E-03
49713,6.35E-03,1.16E-02
49714,5.34E-03,1.24E-02
49715,5.07E-03,1.21E-02
49716,5.10E-03,1.36E-02
49717,5.10E-03,1.56E-02
49718,4.72E-03,1.38E-02
49719,4.82E-03,1.29E-02
49720,5.16E-03,1.05E-02
49721,3.99E-03,1.04E-02
49722,5.39E-03,1.33E-02
49723,5.63E-03,1.46E-02
49724,5.56E-03,1.85E-02
49725,5.46E-03,1.85E-02
49726,5.54E-03,1.95E-02
49727,5.53E-03,2.00E-02
49728,5.12E-03,1.39E-02
49729,5.53E-03,1.45E-02
49730,4.62E-03,1.87E-02
49731,5.60E-03,2.27E-02
49732,5.55E-03,2.29E-02
49733,5.72E-03,1.52E-02
49734,5.57E-03,1.54E-02
49735,5.82E-03,1.51E-02
49736,5.30E-03,1.25E-02
49737,5.08E-03,1.20E-02
49738,5.90E-03,1.33E-02
49739,4.66E-03,1.46E-02
49740,5.59E-03,1.65E-02
49741,4.95E-03,1.71E-02
49742,4.83E-03,1.74E-02
49743,4.70E-03,2.50E-02
49744,3.28E-03,2.45E-02
49745,4.34E-03,2.43E-02
49746,4.95E-03,2.35E-02
49747,4.93E-03,2.10E-02
49748,6.02E-03,1.93E-02
49749,5.26E-03,1.44E-02
49750,4.53E-03,1.31E-02
49751,4.97E-03,1.33E-02
49752,4.45E-03,1.29E-02
49753,4.65E-03,1.29E-02
49754,5.65E-03,1.13E-02
49755,5.73E-03,1.09E-02
49756,5.26E-03,1.38E-02
49757,5.61E-03,1.30E-02
49758,5.81E-03,1.15E-02
49759,6.41E-03,1.60E-02
49760,5.64E-03,1.65E-02
49761,4.85E-03,1.39E-02
49762,5.52E-03,2.14E-02
49763,5.48E-03,2.11E-02
49764,5.45E-03,1.40E-02
49765,5.59E-03,1.85E-02
49766,5.46E-03,1.84E-02
49767,5.45E-03,1.93E-02
49768,5.43E-03,2.01E-02
49769,4.98E-03,1.39E-02
49770,5.43E-03,1.48E-02
49771,6.61E-03,2.05E-02
49772,6.47E-03,2.05E-02
49773,4.76E-03,1.84E-02
49774,5.66E-03,2.28E-02
49775,5.65E-03,2.31E-02
49776,5.37E-03,1.53E-02
49777,5.07E-03,1.54E-02
49778,4.20E-03,1.23E-02
49779,5.73E-03,9.36E-03
49780,5.76E-03,9.16E-03
49781,5.90E-03,9.13E-03
49782,5.19E-03,1.67E-02
49783,4.66E-03,2.49E-02
49784,3.57E-03,2.05E-02
49785,4.93E-03,2.07E-02
49786,5.22E-03,1.39E-02
49787,5.90E-03,1.05E-02
49788,5.90E-03,1.39E-02
49789,5.67E-03,1.12E-02
49790,6.37E-03,2.27E-02
49791,6.82E-03,2.28E-02
49792,5.53E-03,1.07E-02
49793,5.61E-03,1.09E-02
49794,5.58E-03,1.85E-02
49795,5.47E-03,1.84E-02
49796,5.44E-03,1.92E-02
49797,5.41E-03,2.02E-02
49798,5.32E-03,1.51E-02
49799,5.36E-03,2.08E-02
49800,4.84E-03,1.81E-02
49801,5.92E-03,2.18E-02
49802,5.72E-03,2.29E-02
49803,5.72E-03,2.33E-02
49804,5.27E-03,1.34E-02
49805,5.12E-03,1.37E-02
49806,4.94E-03,1.40E-02
49807,4.88E-03,1.44E-02
49808,4.80E-03,1.43E-02
49809,5.22E-03,1.53E-02
49810,3.79E-03,2.48E-02
49811,5.66E-03,2.02E-02
49812,5.05E-03,2.05E-02
49813,5.11E-03,1.48E-02
49814,2.95E-03,1.51E-02
49815,5.51E-03,1.84E-02
49816,5.47E-03,1.90E-02
49817,5.28E-03,2.04E-02
49818,5.23E-03,1.54E-02
49819,5.08E-03,1.78E-02
49820,5.16E-03,1.27E-02
49821,5.17E-03,1.24E-02
49822,5.21E-03,1.25E-02
49823,5.27E-03,1.28E-02
49824,5.88E-03,2.30E-02
49825,5.89E-03,2.36E-02
49826,5.56E-03,1.66E-02
49827,5.69E-03,1.65E-02
49828,4.31E-03,1.37E-02
49829,4.14E-03,1.37E-02
49830,4.02E-03,1.35E-02
49831,5.74E-03,1.89E-02
49832,6.38E-03,1.87E-02
49833,5.50E-03,1.84E-02
49834,5.39E-03,1.88E-02
49835,5.26E-03,2.05E-02
49836,5.09E-03,1.56E-02
49837,4.98E-03,1.74E-02
49838,5.13E-03,1.29E-02
49839,6.06E-03,2.30E-02
49840,4.84E-03,1.19E-02
49841,5.18E-03,1.19E-02
49842,5.18E-03,1.18E-02
49843,5.49E-03,2.24E-02
49844,4.95E-03,1.01E-02
49845,4.88E-03,1.01E-02
49846,4.68E-03,1.06E-02
49847,5.46E-03,1.42E-02
49848,5.36E-03,1.42E-02
49849,5.42E-03,1.84E-02
49850,5.27E-03,1.31E-02
49851,5.29E-03,1.86E-02
49852,5.16E-03,2.06E-02
49853,5.00E-03,1.59E-02
49854,4.52E-03,1.72E-02
49855,4.98E-03,1.31E-02
49856,6.24E-03,2.31E-02
49857,5.10E-03,2.22E-02
49858,4.71E-03,1.09E-02
49859,5.39E-03,1.85E-02
49860,5.13E-03,1.84E-02
49861,5.09E-03,2.08E-02
49862,4.86E-03,1.61E-02
49863,4.69E-03,1.69E-02
49864,4.85E-03,1.33E-02
49865,6.39E-03,2.31E-02
49866,4.83E-03,2.20E-02
49867,4.56E-03,1.12E-02
49868,5.66E-03,1.74E-02
49869,5.77E-03,1.76E-02
49870,5.92E-03,1.77E-02
49871,6.03E-03,1.79E-02
49872,6.04E-03,1.80E-02
49873,5.96E-03,1.81E-02
49874,5.86E-03,1.82E-02
49875,5.75E-03,1.83E-02
49876,5.49E-03,1.72E-02
49877,6.12E-03,2.40E-02
49878,6.13E-03,2.43E-02
49879,6.09E-03,2.46E-02
49880,5.92E-03,2.49E-02
49881,5.52E-03,2.53E-02
49882,5.71E-03,1.31E-02
49883,5.65E-03,1.29E-02
49884,5.35E-03,1.85E-02
49885,4.94E-03,2.09E-02
49886,4.79E-03,1.66E-02
49887,4.71E-03,1.34E-02
49888,6.51E-03,2.31E-02
49889,4.62E-03,2.18E-02
49890,4.38E-03,1.15E-02
49891,5.40E-03,1.70E-02
49892,5.34E-03,1.85E-02
49893,4.71E-03,1.25E-02
49894,5.21E-03,1.28E-02
49895,4.70E-03,1.80E-02
49896,4.87E-03,1.82E-02
49897,4.75E-03,2.10E-02
49898,5.05E-03,1.63E-02
49899,4.76E-03,1.35E-02
49900,6.64E-03,2.30E-02
49901,4.39E-03,2.16E-02
49902,5.23E-03,1.68E-02
49903,4.21E-03,1.20E-02
49904,5.29E-03,1.85E-02
49905,4.52E-03,1.78E-02
49906,4.55E-03,2.12E-02
49907,4.72E-03,1.64E-02
49908,4.52E-03,1.66E-02
49909,4.38E-03,1.68E-02
49910,5.47E-03,1.60E-02
49911,6.78E-03,2.30E-02
49912,4.25E-03,2.15E-02
49913,5.37E-03,1.51E-02
49914,5.46E-03,1.48E-02
49915,5.29E-03,1.46E-02
49916,5.39E-03,1.46E-02
49917,5.30E-03,1.85E-02
49918,4.41E-03,1.76E-02
49919,4.39E-03,2.13E-02
49920,4.27E-03,1.70E-02
49921,5.25E-03,1.57E-02
49922,6.87E-03,2.29E-02
49923,3.72E-03,1.75E-02
49924,5.92E-03,1.74E-02
49925,5.26E-03,1.85E-02
49926,4.36E-03,1.74E-02
49927,4.27E-03,1.72E-02
49928,5.91E-03,1.72E-02
49929,4.84E-03,1.54E-02
49930,5.80E-03,1.17E-02
49931,5.64E-03,1.17E-02
49932,5.91E-03,1.70E-02
49933,4.69E-03,1.51E-02
49934,4.36E-03,1.38E-02
49935,5.51E-03,1.09E-02
49936,5.51E-03,1.06E-02
49937,5.60E-03,1.83E-02
49938,5.55E-03,1.84E-02
49939,5.75E-03,1.68E-02
49940,5.08E-03,1.48E-02
49941,4.27E-03,1.38E-02
49942,5.64E-03,1.65E-02
49943,4.74E-03,1.39E-02
49944,5.37E-03,1.63E-02
49945,6.13E-03,1.44E-02
49946,5.15E-03,1.61E-02
49947,5.54E-03,1.40E-02
49948,5.49E-03,2.30E-02
49949,5.42E-03,2.29E-02
49950,4.91E-03,1.37E-02
49951,4.74E-03,1.40E-02
49952,5.30E-03,2.25E-02
49953,4.98E-03,1.59E-02
49954,5.84E-03,1.27E-02
49955,5.60E-03,1.41E-02
49956,5.56E-03,1.39E-02
49957,5.76E-03,1.43E-02
49958,5.50E-03,1.85E-02
49959,5.65E-03,1.98E-02
49960,5.46E-03,1.41E-02
49961,5.61E-03,2.27E-02
49962,5.65E-03,1.45E-02
49963,5.70E-03,1.44E-02
49964,5.57E-03,1.48E-02
49965,5.65E-03,1.46E-02
49966,5.66E-03,1.49E-02
49967,5.95E-03,1.59E-02
49968,6.05E-03,1.58E-02
49969,5.83E-03,1.61E-02
49970,5.90E-03,1.60E-02
49971,5.73E-03,1.63E-02
49972,5.72E-03,1.68E-02
49973,5.68E-03,1.67E-02
49974,5.67E-03,1.70E-02
49975,5.72E-03,1.69E-02
49976,5.60E-03,1.72E-02
49977,5.63E-03,1.71E-02
49978,5.57E-03,1.73E-02
49979,5.56E-03,1.72E-02
49980,5.26E-03,1.75E-02
49981,5.45E-03,1.74E-02
49982,5.51E-03,1.85E-02
49983,5.53E-03,1.85E-02
49984,5.54E-03,1.85E-02
49985,5.65E-03,1.83E-02
49986,5.58E-03,1.84E-02
49987,5.69E-03,1.82E-02
49988,5.66E-03,1.83E-02
49989,5.54E-03,1.81E-02
49990,5.56E-03,1.82E-02
49991,5.32E-03,1.80E-02
49992,5.43E-03,1.81E-02
49993,5.24E-03,1.79E-02
49994,5.25E-03,1.80E-02
49995,5.36E-03,1.78E-02
49996,5.30E-03,1.78E-02
49997,5.54E-03,1.76E-02
49998,5.43E-03,1.77E-02
49999,5.53E-03,1.76E-02
50000,5.38E-03,1.71E-02
50001,5.43E-03,1.72E-02
50002,5.40E-03,1.70E-02
50003,5.38E-03,1.70E-02
50004,5.45E-03,1.69E-02
50005,5.88E-03,1.63E-02
50006,5.81E-03,1.64E-02
50007,5.87E-03,1.61E-02
50008,5.92E-03,1.62E-02
50009,5.78E-03,1.58E-02
50010,5.84E-03,1.60E-02
50011,5.71E-03,1.57E-02
50012,5.93E-03,1.48E-02
50013,5.90E-03,1.49E-02
50014,5.79E-03,1.45E-02
50015,5.87E-03,1.46E-02
50016,5.62E-03,1.42E-02
50017,5.67E-03,1.44E-02
50018,5.64E-03,1.41E-02
50019,5.70E-03,1.35E-02
50020,5.70E-03,1.29E-02
50021,3.87E-03,9.57E-03
50022,5.02E-03,9.66E-03
50023,5.55E-03,9.72E-03
50024,5.77E-03,9.99E-03
50025,6.08E-03,9.96E-03
50026,5.32E-03,1.00E-02
50027,5.26E-03,1.20E-02
50028,5.27E-03,1.21E-02
50029,5.65E-03,1.21E-02
50030,5.75E-03,1.21E-02
50031,5.33E-03,1.22E-02
50032,4.94E-03,1.22E-02
50033,4.89E-03,1.22E-02
50034,4.96E-03,1.23E-02
50035,4.98E-03,1.23E-02
50036,5.09E-03,1.24E-02
50037,5.03E-03,1.37E-02
50038,5.57E-03,1.41E-02
50039,4.74E-03,1.46E-02
50040,5.84E-03,1.58E-02
50041,4.96E-03,1.81E-02
50042,5.40E-03,1.93E-02
50043,5.13E-03,1.90E-02
50044,5.94E-03,2.01E-02
50045,5.85E-03,2.01E-02
50046,5.63E-03,1.97E-02
50047,6.20E-03,2.09E-02
50048,6.09E-03,2.05E-02
50049,5.46E-03,2.20E-02
50050,5.55E-03,2.17E-02
50051,5.45E-03,2.27E-02
50052,5.44E-03,2.24E-02
50053,5.64E-03,2.33E-02
50054,5.59E-03,2.31E-02
50055,4.66E-03,2.53E-02
50056,5.29E-03,2.39E-02
50057,5.32E-03,2.29E-02
50058,5.13E-03,2.17E-02
50059,5.12E-03,2.19E-02
50060,5.06E-03,2.15E-02
50061,6.12E-03,1.98E-02
50062,5.87E-03,1.80E-02
50063,5.88E-03,1.83E-02
50064,5.76E-03,1.78E-02
50065,5.97E-03,1.67E-02
50066,5.91E-03,1.50E-02
50067,5.69E-03,1.38E-02
50068,5.15E-03,1.27E-02
50069,5.50E-03,1.28E-02
50070,5.05E-03,1.26E-02
50071,4.97E-03,1.19E-02
50072,4.96E-03,1.20E-02
50073,5.23E-03,1.18E-02
50074,5.70E-03,1.13E-02
50075,5.58E-03,1.05E-02
50076,5.35E-03,1.05E-02
50077,4.88E-03,1.35E-02
50078,5.69E-03,1.21E-02
50079,5.62E-03,1.02E-02
50080,5.85E-03,1.18E-02
50081,5.88E-03,1.18E-02
50082,6.05E-03,1.64E-02
50083,6.33E-03,1.57E-02
50084,6.71E-03,1.55E-02
50085,6.26E-03,1.61E-02
50086,6.44E-03,1.56E-02
50087,6.44E-03,1.59E-02
50088,4.99E-03,9.25E-03
50089,4.34E-03,9.41E-03
50090,5.39E-03,1.18E-02
50091,5.05E-03,1.57E-02
50092,4.69E-03,1.40E-02
50093,4.53E-03,1.04E-02
50094,5.30E-03,1.30E-02
50095,5.26E-03,1.28E-02
50096,5.44E-03,1.35E-02
50097,5.67E-03,1.44E-02
50098,5.57E-03,1.85E-02
50099,5.48E-03,1.85E-02
50100,5.57E-03,1.96E-02
50101,5.57E-03,1.99E-02
50102,5.20E-03,1.40E-02
50103,5.48E-03,1.44E-02
50104,5.64E-03,1.97E-02
50105,5.38E-03,1.90E-02
50106,5.57E-03,2.28E-02
50107,5.50E-03,2.29E-02
50108,5.29E-03,1.45E-02
50109,5.46E-03,1.52E-02
50110,6.16E-03,1.58E-02
50111,5.69E-03,1.66E-02
50112,5.75E-03,1.65E-02
50113,5.68E-03,1.67E-02
50114,5.53E-03,1.86E-02
50115,4.57E-03,1.76E-02
50116,3.13E-03,1.76E-02
50117,4.21E-03,1.43E-02
50118,3.74E-03,1.42E-02
50119,5.31E-03,2.56E-02
50120,4.88E-03,2.57E-02
50121,5.62E-03,1.86E-02
50122,5.57E-03,1.84E-02
50123,5.55E-03,1.85E-02
50124,5.59E-03,1.84E-02
50125,5.53E-03,1.73E-02
50126,5.55E-03,1.74E-02
50127,5.47E-03,1.72E-02
50128,5.55E-03,1.67E-02
50129,5.56E-03,1.55E-02
50130,5.95E-03,1.49E-02
50131,5.75E-03,1.39E-02
50132,5.34E-03,1.36E-02
50133,5.67E-03,1.32E-02
50134,5.31E-03,1.26E-02
50135,3.40E-03,9.38E-03
50136,5.87E-03,9.58E-03
50137,5.72E-03,9.51E-03
50138,5.92E-03,9.63E-03
50139,5.82E-03,1.19E-02
50140,5.91E-03,1.19E-02
50141,5.13E-03,1.19E-02
50142,5.49E-03,1.19E-02
50143,5.80E-03,1.18E-02
50144,5.23E-03,1.20E-02
50145,5.06E-03,1.19E-02
50146,5.02E-03,1.19E-02
50147,5.14E-03,1.29E-02
50148,5.17E-03,1.28E-02
50149,5.51E-03,1.33E-02
50150,5.30E-03,1.36E-02
50151,5.19E-03,1.35E-02
50152,5.54E-03,1.37E-02
50153,4.95E-03,1.43E-02
50154,5.69E-03,1.61E-02
50155,5.02E-03,1.78E-02
50156,6.02E-03,2.13E-02
50157,4.56E-03,2.52E-02
50158,4.73E-03,2.42E-02
50159,5.07E-03,2.38E-02
50160,5.15E-03,2.33E-02
50161,5.28E-03,2.31E-02
50162,5.28E-03,2.24E-02
50163,5.25E-03,2.26E-02
50164,5.22E-03,2.21E-02
50165,5.03E-03,2.12E-02
50166,6.32E-03,2.00E-02
50167,6.11E-03,1.95E-02
50168,6.15E-03,1.85E-02
50169,5.89E-03,1.71E-02
50170,5.85E-03,1.74E-02
50171,5.90E-03,1.68E-02
50172,6.20E-03,1.63E-02
50173,5.60E-03,1.46E-02
50174,5.62E-03,1.37E-02
50175,5.30E-03,1.35E-02
50176,4.38E-03,1.28E-02
50177,5.65E-03,1.28E-02
50178,4.85E-03,1.20E-02
50179,4.94E-03,1.22E-02
50180,4.85E-03,1.19E-02
50181,5.40E-03,1.13E-02
50182,5.28E-03,1.14E-02
50183,5.81E-03,1.12E-02
50184,5.86E-03,1.10E-02
50185,4.99E-03,1.36E-02
50186,5.39E-03,1.32E-02
50187,4.10E-03,1.25E-02
50188,5.58E-03,1.23E-02
50189,5.75E-03,1.18E-02
50190,5.68E-03,1.04E-02
50191,5.76E-03,9.57E-03
50192,5.74E-03,9.85E-03
50193,6.35E-03,1.62E-02
50194,6.07E-03,1.64E-02
50195,4.81E-03,1.27E-02
50196,4.87E-03,1.40E-02
50197,5.53E-03,2.14E-02
50198,5.53E-03,2.10E-02
50199,5.11E-03,1.40E-02
50200,4.49E-03,1.24E-02
50201,5.32E-03,1.32E-02
50202,5.57E-03,1.45E-02
50203,5.60E-03,1.85E-02
50204,5.46E-03,1.85E-02
50205,5.48E-03,1.95E-02
50206,5.48E-03,2.00E-02
50207,5.09E-03,1.40E-02
50208,5.43E-03,1.46E-02
50209,5.98E-03,2.01E-02
50210,4.94E-03,1.87E-02
50211,5.57E-03,2.29E-02
50212,5.52E-03,2.31E-02
50213,4.66E-03,1.56E-02
50214,4.02E-03,1.55E-02
50215,5.60E-03,1.51E-02
50216,5.44E-03,1.53E-02
50217,5.88E-03,1.50E-02
50218,5.11E-03,1.24E-02
50219,5.84E-03,9.30E-03
50220,5.87E-03,9.09E-03
50221,6.06E-03,9.00E-03
50222,6.05E-03,9.02E-03
50223,5.17E-03,1.18E-02
50224,5.34E-03,1.29E-02
50225,6.46E-03,1.53E-02
50226,7.62E-03,1.49E-02
50227,5.41E-03,1.64E-02
50228,4.99E-03,2.50E-02
50229,5.15E-03,2.35E-02
50230,4.95E-03,2.09E-02
50231,5.82E-03,1.92E-02
50232,5.06E-03,1.41E-02
50233,5.32E-03,1.42E-02
50234,5.75E-03,1.11E-02
50235,6.01E-03,1.06E-02
50236,5.62E-03,1.37E-02
50237,5.41E-03,1.29E-02
50238,5.71E-03,1.14E-02
50239,6.54E-03,1.59E-02
50240,5.44E-03,2.27E-02
50241,6.90E-03,2.28E-02
50242,5.55E-03,1.04E-02
50243,5.84E-03,1.12E-02
50244,5.55E-03,1.85E-02
50245,5.50E-03,1.84E-02
50246,5.46E-03,1.93E-02
50247,5.42E-03,2.01E-02
50248,4.98E-03,1.40E-02
50249,5.34E-03,1.49E-02
50250,5.65E-03,2.04E-02
50251,4.97E-03,1.84E-02
50252,5.35E-03,1.26E-02
50253,5.31E-03,1.23E-02
50254,5.39E-03,1.23E-02
50255,5.43E-03,1.26E-02
50256,5.54E-03,2.17E-02
50257,5.65E-03,2.30E-02
50258,5.61E-03,2.33E-02
50259,5.19E-03,1.36E-02
50260,5.00E-03,1.39E-02
50261,4.70E-03,1.42E-02
50262,5.02E-03,1.46E-02
50263,4.92E-03,1.44E-02
50264,4.81E-03,1.21E-02
50265,5.01E-03,1.70E-02
50266,5.08E-03,1.67E-02
50267,5.54E-03,2.07E-02
50268,4.96E-03,1.34E-02
50269,5.25E-03,2.21E-02
50270,5.16E-03,1.54E-02
50271,3.79E-03,2.47E-02
50272,5.45E-03,2.49E-02
50273,4.89E-03,2.07E-02
50274,5.26E-03,1.37E-02
50275,5.14E-03,1.39E-02
50276,4.40E-03,1.02E-02
50277,5.65E-03,1.02E-02
50278,6.19E-03,1.38E-02
50279,5.50E-03,1.11E-02
50280,5.09E-03,1.47E-02
50281,4.45E-03,1.49E-02
50282,4.46E-03,1.51E-02
50283,5.55E-03,1.84E-02
50284,5.51E-03,1.84E-02
50285,5.50E-03,1.91E-02
50286,5.36E-03,2.02E-02
50287,5.26E-03,1.52E-02
50288,5.00E-03,1.81E-02
50289,5.42E-03,1.28E-02
50290,5.79E-03,2.31E-02
50291,5.70E-03,2.35E-02
50292,5.21E-03,1.65E-02
50293,6.11E-03,1.64E-02
50294,4.12E-03,1.36E-02
50295,4.76E-03,1.34E-02
50296,5.64E-03,2.02E-02
50297,5.37E-03,2.04E-02
50298,5.32E-03,1.88E-02
50299,4.77E-03,1.86E-02
50300,4.24E-03,2.59E-02
50301,3.73E-03,2.59E-02
50302,4.21E-03,2.60E-02
50303,5.54E-03,1.84E-02
50304,5.49E-03,1.90E-02
50305,5.29E-03,2.04E-02
50306,5.11E-03,1.55E-02
50307,5.06E-03,1.78E-02
50308,5.28E-03,1.30E-02
50309,5.97E-03,2.31E-02
50310,5.98E-03,2.38E-02
50311,5.31E-03,1.17E-02
50312,5.04E-03,1.17E-02
50313,5.14E-03,1.16E-02
50314,6.06E-03,2.24E-02
50315,5.24E-03,9.81E-03
50316,5.19E-03,9.85E-03
50317,4.77E-03,1.04E-02
50318,5.49E-03,1.38E-02
50319,5.40E-03,1.39E-02
50320,6.17E-03,2.58E-02
50321,5.52E-03,1.84E-02
50322,5.30E-03,1.32E-02
50323,5.36E-03,1.88E-02
50324,5.19E-03,2.05E-02
50325,5.06E-03,1.58E-02
50326,4.84E-03,1.75E-02
50327,5.02E-03,1.32E-02
50328,6.13E-03,2.31E-02
50329,5.31E-03,2.22E-02
50330,4.76E-03,1.07E-02
50331,5.45E-03,1.84E-02
50332,5.25E-03,1.86E-02
50333,5.14E-03,2.06E-02
50334,4.90E-03,1.60E-02
50335,4.73E-03,1.72E-02
50336,4.96E-03,1.34E-02
50337,6.35E-03,2.32E-02
50338,4.95E-03,2.20E-02
50339,4.67E-03,1.10E-02
50340,5.64E-03,1.75E-02
50341,5.86E-03,1.76E-02
50342,5.95E-03,1.78E-02
50343,6.05E-03,1.79E-02
50344,6.00E-03,1.80E-02
50345,5.86E-03,1.81E-02
50346,5.81E-03,1.82E-02
50347,5.58E-03,1.72E-02
50348,6.04E-03,2.42E-02
50349,6.03E-03,2.45E-02
50350,5.98E-03,2.48E-02
50351,5.81E-03,2.52E-02
50352,5.68E-03,2.55E-02
50353,5.63E-03,1.30E-02
50354,5.65E-03,1.28E-02
50355,5.31E-03,1.85E-02
50356,5.02E-03,2.08E-02
50357,4.75E-03,1.63E-02
50358,4.74E-03,1.69E-02
50359,4.83E-03,1.35E-02
50360,6.42E-03,2.32E-02
50361,4.72E-03,2.18E-02
50362,4.52E-03,1.13E-02
50363,5.42E-03,1.71E-02
50364,5.28E-03,1.85E-02
50365,4.67E-03,1.26E-02
50366,5.75E-03,1.29E-02
50367,4.82E-03,1.82E-02
50368,4.95E-03,1.84E-02
50369,4.81E-03,2.09E-02
50370,4.91E-03,1.66E-02
50371,4.74E-03,1.36E-02
50372,6.64E-03,2.31E-02
50373,4.51E-03,2.16E-02
50374,5.34E-03,1.69E-02
50375,4.17E-03,1.18E-02
50376,4.51E-03,1.22E-02
50377,5.27E-03,1.85E-02
50378,4.63E-03,1.80E-02
50379,4.67E-03,2.10E-02
50380,4.63E-03,1.65E-02
50381,4.39E-03,1.67E-02
50382,5.22E-03,1.63E-02
50383,4.87E-03,1.37E-02
50384,6.71E-03,2.31E-02
50385,4.43E-03,2.15E-02
50386,5.30E-03,1.52E-02
50387,5.43E-03,1.49E-02
50388,5.47E-03,1.47E-02
50389,5.25E-03,1.44E-02
50390,5.39E-03,1.67E-02
50391,5.46E-03,1.45E-02
50392,5.11E-03,1.77E-02
50393,5.68E-03,1.78E-02
50394,5.27E-03,1.85E-02
50395,4.50E-03,1.78E-02
50396,4.50E-03,2.12E-02
50397,4.29E-03,1.70E-02
50398,6.08E-03,1.60E-02
50399,6.81E-03,2.30E-02
50400,4.38E-03,2.13E-02
50401,5.19E-03,1.86E-02
50402,4.75E-03,1.86E-02
50403,5.28E-03,1.85E-02
50404,4.39E-03,1.76E-02
50405,4.27E-03,1.72E-02
50406,6.94E-03,2.30E-02
50407,5.15E-03,1.85E-02
50408,6.10E-03,1.73E-02
50409,4.32E-03,1.74E-02
50410,5.03E-03,1.57E-02
50411,5.67E-03,1.15E-02
50412,5.60E-03,1.15E-02
50413,6.05E-03,1.71E-02
50414,4.65E-03,1.54E-02
50415,5.51E-03,1.40E-02
50416,5.35E-03,1.08E-02
50417,5.38E-03,1.06E-02
50418,5.62E-03,1.83E-02
50419,5.58E-03,1.84E-02
50420,5.74E-03,1.69E-02
50421,4.64E-03,1.51E-02
50422,4.03E-03,1.40E-02
50423,5.51E-03,2.37E-02
50424,5.75E-03,1.67E-02
50425,4.17E-03,1.49E-02
50426,4.39E-03,1.40E-02
50427,6.38E-03,2.41E-02
50428,5.48E-03,1.64E-02
50429,4.56E-03,1.46E-02
50430,5.84E-03,2.37E-02
50431,5.21E-03,1.62E-02
50432,5.26E-03,1.42E-02
50433,5.74E-03,2.32E-02
50434,5.20E-03,1.39E-02
50435,5.23E-03,1.41E-02
50436,5.42E-03,2.28E-02
50437,5.01E-03,1.60E-02
50438,4.99E-03,1.58E-02
50439,4.79E-03,1.41E-02
50440,5.15E-03,1.30E-02
50441,4.35E-03,1.26E-02
50442,5.15E-03,1.28E-02
50443,5.03E-03,1.26E-02
50444,5.57E-03,1.40E-02
50445,5.52E-03,1.37E-02
50446,5.68E-03,1.42E-02
50447,5.53E-03,1.85E-02
50448,5.60E-03,1.97E-02
50449,5.38E-03,1.42E-02
50450,5.53E-03,1.94E-02
50451,5.51E-03,2.28E-02
50452,5.46E-03,1.47E-02
50453,5.51E-03,1.46E-02
50454,5.48E-03,1.49E-02
50455,5.50E-03,1.48E-02
50456,5.53E-03,1.51E-02
50457,5.99E-03,1.61E-02
50458,6.06E-03,1.60E-02
50459,5.82E-03,1.63E-02
50460,5.91E-03,1.62E-02
50461,5.77E-03,1.64E-02
50462,5.76E-03,1.69E-02
50463,5.67E-03,1.68E-02
50464,5.70E-03,1.71E-02
50465,5.74E-03,1.70E-02
50466,5.63E-03,1.73E-02
50467,5.67E-03,1.72E-02
50468,5.49E-03,1.74E-02
50469,5.54E-03,1.74E-02
50470,5.15E-03,1.76E-02
50471,5.37E-03,1.75E-02
50472,4.85E-03,1.77E-02
50473,5.62E-03,1.86E-02
50474,5.58E-03,1.86E-02
50475,5.67E-03,1.85E-02
50476,5.61E-03,1.85E-02
50477,5.66E-03,1.85E-02
50478,5.61E-03,1.83E-02
50479,5.61E-03,1.84E-02
50480,5.64E-03,1.82E-02
50481,5.65E-03,1.83E-02
50482,5.55E-03,1.81E-02
50483,5.58E-03,1.82E-02
50484,5.34E-03,1.80E-02
50485,5.49E-03,1.81E-02
50486,5.29E-03,1.79E-02
50487,5.26E-03,1.79E-02
50488,5.33E-03,1.77E-02
50489,5.28E-03,1.78E-02
50490,5.50E-03,1.76E-02
50491,5.42E-03,1.77E-02
50492,5.53E-03,1.75E-02
50493,5.41E-03,1.71E-02
50494,5.45E-03,1.72E-02
50495,5.40E-03,1.69E-02
50496,5.40E-03,1.70E-02
50497,5.47E-03,1.68E-02
50498,5.97E-03,1.62E-02
50499,5.96E-03,1.63E-02
50500,5.82E-03,1.60E-02
50501,5.92E-03,1.61E-02
50502,5.68E-03,1.57E-02
50503,5.81E-03,1.59E-02
50504,5.59E-03,1.56E-02
50505,5.94E-03,1.47E-02
50506,5.96E-03,1.48E-02
50507,5.75E-03,1.44E-02
50508,5.85E-03,1.45E-02
50509,5.59E-03,1.41E-02
50510,5.65E-03,1.43E-02
50511,5.55E-03,1.40E-02
50512,5.57E-03,1.34E-02
50513,5.54E-03,1.28E-02
50514,5.30E-03,9.38E-03
50515,4.65E-03,9.33E-03
50516,5.53E-03,9.45E-03
50517,5.72E-03,9.72E-03
50518,5.84E-03,9.67E-03
50519,5.45E-03,9.76E-03
50520,5.19E-03,1.18E-02
50521,5.23E-03,1.19E-02
50522,5.58E-03,1.19E-02
50523,5.72E-03,1.19E-02
50524,5.39E-03,1.20E-02
50525,4.98E-03,1.20E-02
50526,4.97E-03,1.19E-02
50527,5.06E-03,1.21E-02
50528,5.06E-03,1.20E-02
50529,5.12E-03,1.22E-02
50530,5.10E-03,1.21E-02
50531,5.23E-03,1.22E-02
50532,5.30E-03,1.27E-02
50533,5.40E-03,1.24E-02
50534,5.12E-03,1.26E-02
50535,5.22E-03,1.25E-02
50536,5.07E-03,1.26E-02
50537,5.20E-03,1.34E-02
50538,5.57E-03,1.38E-02
50539,5.06E-03,1.43E-02
50540,6.13E-03,1.57E-02
50541,5.75E-03,1.85E-02
50542,5.46E-03,1.81E-02
50543,5.47E-03,1.93E-02
50544,5.40E-03,1.89E-02
50545,5.65E-03,2.01E-02
50546,5.53E-03,1.97E-02
50547,6.12E-03,2.09E-02
50548,5.84E-03,2.04E-02
50549,5.69E-03,2.20E-02
50550,5.73E-03,2.17E-02
50551,5.65E-03,2.28E-02
50552,5.67E-03,2.24E-02
50553,5.77E-03,2.32E-02
50554,4.78E-03,2.56E-02
50555,4.88E-03,2.58E-02
50556,4.63E-03,2.54E-02
50557,5.13E-03,2.40E-02
50558,5.33E-03,2.29E-02
50559,5.12E-03,2.17E-02
50560,5.17E-03,2.19E-02
50561,5.10E-03,2.14E-02
50562,6.17E-03,1.98E-02
50563,5.94E-03,1.79E-02
50564,5.98E-03,1.82E-02
50565,5.82E-03,1.76E-02
50566,6.04E-03,1.66E-02
50567,6.33E-03,1.50E-02
50568,5.96E-03,1.48E-02
50569,5.64E-03,1.36E-02
50570,3.62E-03,1.26E-02
50571,5.21E-03,1.24E-02
50572,6.58E-03,1.26E-02
50573,5.08E-03,1.23E-02
50574,5.03E-03,1.17E-02
50575,4.93E-03,1.18E-02
50576,5.17E-03,1.15E-02
50577,5.90E-03,1.11E-02
50578,5.64E-03,1.02E-02
50579,5.99E-03,1.03E-02
50580,5.00E-03,1.34E-02
50581,5.66E-03,1.20E-02
50582,5.66E-03,1.01E-02
50583,5.77E-03,1.16E-02
50584,5.72E-03,1.15E-02
50585,6.26E-03,1.63E-02
50586,6.08E-03,1.58E-02
50587,6.59E-03,1.57E-02
50588,5.55E-03,1.22E-02
50589,5.63E-03,1.23E-02
50590,5.52E-03,1.23E-02
50591,6.09E-03,1.55E-02
50592,6.45E-03,1.54E-02
50593,6.43E-03,1.52E-02
50594,4.30E-03,1.26E-02
50595,6.37E-03,1.59E-02
50596,6.48E-03,1.57E-02
50597,4.87E-03,1.41E-02
50598,5.54E-03,2.13E-02
50599,5.54E-03,2.10E-02
50600,4.54E-03,1.22E-02
50601,5.16E-03,1.29E-02
50602,5.01E-03,1.27E-02
50603,5.40E-03,1.34E-02
50604,5.63E-03,1.43E-02
50605,5.56E-03,1.85E-02
50606,5.52E-03,1.85E-02
50607,5.52E-03,1.96E-02
50608,5.52E-03,1.99E-02
50609,5.22E-03,1.42E-02
50610,5.41E-03,1.45E-02
50611,5.72E-03,1.98E-02
50612,5.19E-03,1.91E-02
50613,5.43E-03,1.26E-02
50614,5.56E-03,1.24E-02
50615,5.65E-03,1.25E-02
50616,5.49E-03,2.29E-02
50617,5.46E-03,2.30E-02
50618,5.20E-03,1.47E-02
50619,5.11E-03,1.55E-02
50620,5.28E-03,1.53E-02
50621,6.09E-03,1.60E-02
50622,5.65E-03,1.68E-02
50623,5.74E-03,1.67E-02
50624,5.71E-03,1.69E-02
50625,5.64E-03,1.84E-02
50626,5.60E-03,1.85E-02
50627,5.65E-03,1.84E-02
50628,5.55E-03,1.73E-02
50629,5.57E-03,1.74E-02
50630,5.47E-03,1.72E-02
50631,5.46E-03,1.66E-02
50632,5.44E-03,1.54E-02
50633,5.90E-03,1.48E-02
50634,4.91E-03,1.37E-02
50635,5.24E-03,1.34E-02
50636,5.58E-03,1.31E-02
50637,5.43E-03,1.25E-02
50638,5.86E-03,9.04E-03
50639,6.01E-03,8.90E-03
50640,5.15E-03,9.22E-03
50641,6.89E-03,8.85E-03
50642,5.75E-03,9.30E-03
50643,5.68E-03,9.24E-03
50644,5.83E-03,9.35E-03
50645,5.40E-03,1.17E-02
50646,5.30E-03,1.17E-02
50647,5.41E-03,1.17E-02
50648,5.46E-03,1.17E-02
50649,5.74E-03,1.16E-02
50650,5.28E-03,1.18E-02
50651,5.16E-03,1.16E-02
50652,5.11E-03,1.17E-02
50653,5.52E-03,1.21E-02
50654,5.21E-03,1.26E-02
50655,5.15E-03,1.25E-02
50656,5.39E-03,1.30E-02
50657,5.31E-03,1.33E-02
50658,5.25E-03,1.32E-02
50659,5.39E-03,1.33E-02
50660,5.67E-03,1.60E-02
50661,4.92E-03,1.74E-02
50662,5.07E-03,1.77E-02
50663,5.87E-03,2.13E-02
50664,4.85E-03,2.60E-02
50665,4.87E-03,2.52E-02
50666,4.62E-03,2.44E-02
50667,5.08E-03,2.38E-02
50668,5.25E-03,2.33E-02
50669,5.29E-03,2.31E-02
50670,5.27E-03,2.24E-02
50671,5.32E-03,2.26E-02
50672,5.24E-03,2.21E-02
50673,4.99E-03,2.12E-02
50674,5.85E-03,1.99E-02
50675,5.85E-03,1.94E-02
50676,6.50E-03,1.83E-02
50677,5.95E-03,1.70E-02
50678,5.88E-03,1.72E-02
50679,6.03E-03,1.67E-02
50680,6.18E-03,1.62E-02
50681,5.66E-03,1.44E-02
50682,5.34E-03,1.35E-02
50683,3.24E-03,1.27E-02
50684,5.93E-03,1.32E-02
50685,4.87E-03,1.18E-02
50686,4.96E-03,1.19E-02
50687,4.91E-03,1.16E-02
50688,5.26E-03,1.10E-02
50689,5.20E-03,1.12E-02
50690,6.00E-03,1.09E-02
50691,6.14E-03,1.07E-02
50692,5.39E-03,1.35E-02
50693,5.54E-03,1.31E-02
50694,4.51E-03,1.24E-02
50695,5.43E-03,1.22E-02
50696,5.65E-03,1.17E-02
50697,5.60E-03,1.03E-02
50698,5.86E-03,9.52E-03
50699,5.84E-03,9.80E-03
50700,5.92E-03,9.24E-03
50701,6.46E-03,1.60E-02
50702,6.94E-03,1.64E-02
50703,6.59E-03,1.63E-02
50704,5.44E-03,1.57E-02
50705,5.44E-03,1.58E-02
50706,6.50E-03,1.48E-02
50707,5.68E-03,2.28E-02
50708,6.87E-03,2.29E-02
50709,5.60E-03,1.01E-02
50710,5.36E-03,1.09E-02
50711,5.25E-03,1.06E-02
50712,6.45E-03,1.15E-02
50713,5.23E-03,1.31E-02
50714,5.54E-03,1.44E-02
50715,5.57E-03,1.85E-02
50716,5.49E-03,1.84E-02
50717,5.51E-03,1.94E-02
50718,5.45E-03,2.00E-02
50719,5.04E-03,1.42E-02
50720,5.38E-03,1.48E-02
50721,5.83E-03,2.01E-02
50722,5.05E-03,1.88E-02
50723,5.29E-03,1.30E-02
50724,5.52E-03,1.27E-02
50725,5.54E-03,2.16E-02
50726,5.61E-03,2.30E-02
50727,5.51E-03,2.33E-02
50728,5.08E-03,1.37E-02
50729,4.95E-03,1.41E-02
50730,4.90E-03,1.43E-02
50731,5.01E-03,1.56E-02
50732,5.52E-03,1.50E-02
50733,5.15E-03,1.52E-02
50734,5.71E-03,1.49E-02
50735,5.36E-03,1.23E-02
50736,6.37E-03,8.72E-03
50737,5.23E-03,1.16E-02
50738,5.28E-03,1.26E-02
50739,5.31E-03,1.63E-02
50740,5.58E-03,2.07E-02
50741,5.00E-03,1.36E-02
50742,5.39E-03,2.24E-02
50743,5.09E-03,1.56E-02
50744,5.25E-03,2.51E-02
50745,5.24E-03,2.35E-02
50746,5.06E-03,2.09E-02
50747,5.55E-03,1.91E-02
50748,5.26E-03,1.41E-02
50749,4.58E-03,1.26E-02
50750,5.49E-03,1.08E-02
50751,6.65E-03,1.02E-02
50752,5.21E-03,1.00E-02
50753,6.17E-03,1.36E-02
50754,6.17E-03,1.28E-02
50755,5.55E-03,1.14E-02
50756,6.53E-03,1.57E-02
50757,5.48E-03,1.47E-02
50758,5.71E-03,1.52E-02
50759,7.07E-03,1.49E-02
50760,7.24E-03,2.68E-02
50761,5.75E-03,1.11E-02
50762,5.47E-03,1.84E-02
50763,5.54E-03,1.84E-02
50764,5.48E-03,1.93E-02
50765,5.40E-03,2.01E-02
50766,4.97E-03,1.42E-02
50767,5.25E-03,1.51E-02
50768,5.63E-03,2.04E-02
50769,5.05E-03,1.84E-02
50770,5.14E-03,1.33E-02
50771,5.46E-03,1.29E-02
50772,5.50E-03,2.20E-02
50773,5.71E-03,2.31E-02
50774,5.64E-03,2.35E-02
50775,6.27E-03,1.20E-02
50776,4.88E-03,1.18E-02
50777,5.52E-03,1.20E-02
50778,5.26E-03,2.06E-02
50779,4.17E-03,1.84E-02
50780,4.05E-03,1.86E-02
50781,5.40E-03,1.11E-02
50782,6.07E-03,2.71E-02
50783,5.52E-03,1.84E-02
50784,5.55E-03,1.84E-02
50785,5.51E-03,1.91E-02
50786,5.37E-03,2.02E-02
50787,5.13E-03,1.54E-02
50788,5.10E-03,1.81E-02
50789,5.37E-03,1.31E-02
50790,5.88E-03,2.32E-02
50791,5.81E-03,2.37E-02
50792,5.55E-03,1.16E-02
50793,3.93E-03,1.16E-02
50794,4.77E-03,1.15E-02
50795,5.61E-03,2.01E-02
50796,5.64E-03,2.03E-02
50797,4.96E-03,1.37E-02
50798,4.94E-03,1.35E-02
50799,5.97E-03,1.38E-02
50800,4.38E-03,2.24E-02
50801,3.67E-03,2.26E-02
50802,5.42E-03,9.53E-03
50803,5.40E-03,9.59E-03
50804,4.97E-03,1.02E-02
50805,5.48E-03,1.35E-02
50806,5.52E-03,1.35E-02
50807,6.61E-03,2.61E-02
50808,5.54E-03,1.84E-02
50809,5.23E-03,1.34E-02
50810,5.39E-03,1.89E-02
50811,5.27E-03,2.04E-02
50812,5.07E-03,1.56E-02
50813,5.01E-03,1.78E-02
50814,5.24E-03,1.33E-02
50815,6.07E-03,2.32E-02
50816,5.96E-03,2.40E-02
50817,4.84E-03,1.65E-02
50818,5.08E-03,2.22E-02
50819,4.86E-03,1.05E-02
50820,5.53E-03,1.84E-02
50821,5.30E-03,1.87E-02
50822,5.15E-03,2.05E-02
50823,4.96E-03,1.59E-02
50824,4.85E-03,1.75E-02
50825,5.10E-03,1.34E-02
50826,6.25E-03,2.33E-02
50827,5.02E-03,2.20E-02
50828,4.72E-03,1.08E-02
50829,5.78E-03,1.75E-02
50830,5.85E-03,1.77E-02
50831,5.95E-03,1.78E-02
50832,5.99E-03,1.79E-02
50833,5.92E-03,1.81E-02
50834,5.85E-03,1.82E-02
50835,5.59E-03,1.73E-02
50836,6.03E-03,2.44E-02
50837,5.95E-03,2.47E-02
50838,5.88E-03,2.50E-02
50839,5.78E-03,2.54E-02
50840,5.90E-03,2.57E-02
50841,5.62E-03,1.28E-02
50842,5.60E-03,1.27E-02
50843,5.37E-03,1.84E-02
50844,5.05E-03,2.06E-02
50845,4.83E-03,1.62E-02
50846,4.80E-03,1.72E-02
50847,4.93E-03,1.36E-02
50848,6.38E-03,2.33E-02
50849,4.79E-03,2.18E-02
50850,4.60E-03,1.11E-02
50851,5.52E-03,1.71E-02
50852,5.28E-03,1.85E-02
50853,5.71E-03,1.31E-02
50854,4.51E-03,1.27E-02
50855,5.12E-03,1.85E-02
50856,4.93E-03,1.83E-02
50857,4.94E-03,2.08E-02
50858,4.68E-03,1.64E-02
50859,4.82E-03,1.69E-02
50860,4.82E-03,1.37E-02
50861,6.52E-03,2.33E-02
50862,4.62E-03,2.17E-02
50863,5.38E-03,1.69E-02
50864,4.28E-03,1.16E-02
50865,3.93E-03,1.20E-02
50866,5.22E-03,1.85E-02
50867,4.73E-03,1.81E-02
50868,4.79E-03,2.09E-02
50869,4.52E-03,1.67E-02
50870,4.94E-03,1.66E-02
50871,4.77E-03,1.38E-02
50872,6.63E-03,2.32E-02
50873,4.45E-03,2.15E-02
50874,5.24E-03,1.53E-02
50875,5.39E-03,1.51E-02
50876,5.51E-03,1.48E-02
50877,5.69E-03,1.45E-02
50878,5.98E-03,1.42E-02
50879,5.49E-03,1.68E-02
50880,5.75E-03,1.45E-02
50881,3.20E-03,1.86E-02
50882,4.34E-03,1.86E-02
50883,4.78E-03,1.86E-02
50884,6.62E-03,1.78E-02
50885,5.91E-03,1.80E-02
50886,6.03E-03,1.80E-02
50887,6.16E-03,1.79E-02
50888,5.21E-03,1.85E-02
50889,3.48E-03,1.24E-02
50890,2.79E-03,1.23E-02
50891,4.56E-03,1.79E-02
50892,4.62E-03,2.10E-02
50893,4.39E-03,1.69E-02
50894,5.61E-03,1.63E-02
50895,6.79E-03,2.32E-02
50896,4.41E-03,2.13E-02
50897,4.45E-03,1.86E-02
50898,5.24E-03,1.85E-02
50899,4.46E-03,1.77E-02
50900,4.49E-03,2.12E-02
50901,4.27E-03,1.71E-02
50902,6.91E-03,2.31E-02
50903,6.93E-03,2.30E-02
50904,5.03E-03,1.85E-02
50905,6.34E-03,1.75E-02
50906,5.17E-03,1.85E-02
50907,4.35E-03,1.75E-02
50908,4.32E-03,1.73E-02
50909,5.45E-03,1.60E-02
50910,5.64E-03,1.13E-02
50911,5.52E-03,1.13E-02
50912,6.00E-03,1.66E-02
50913,6.16E-03,1.72E-02
50914,4.52E-03,1.56E-02
50915,4.68E-03,1.41E-02
50916,5.08E-03,1.08E-02
50917,5.17E-03,1.05E-02
50918,5.67E-03,1.82E-02
50919,5.60E-03,1.83E-02
50920,5.95E-03,1.70E-02
50921,4.47E-03,1.53E-02
50922,3.70E-03,1.41E-02
50923,5.81E-03,2.49E-02
50924,5.93E-03,2.52E-02
50925,5.63E-03,2.54E-02
50926,5.70E-03,2.55E-02
50927,6.29E-03,2.50E-02
50928,5.86E-03,1.68E-02
50929,4.34E-03,1.51E-02
50930,3.82E-03,1.41E-02
50931,6.82E-03,2.45E-02
50932,5.60E-03,1.65E-02
50933,3.63E-03,1.49E-02
50934,6.09E-03,2.40E-02
50935,5.30E-03,1.63E-02
50936,4.89E-03,1.45E-02
50937,5.81E-03,2.35E-02
50938,5.16E-03,1.42E-02
50939,3.71E-03,1.42E-02
50940,4.14E-03,1.43E-02
50941,5.69E-03,2.31E-02
50942,5.05E-03,1.61E-02
50943,4.95E-03,1.59E-02
50944,4.69E-03,1.43E-02
50945,4.78E-03,1.43E-02
50946,5.66E-03,2.12E-02
50947,5.56E-03,2.09E-02
50948,4.85E-03,1.25E-02
50949,5.58E-03,1.38E-02
50950,5.51E-03,1.36E-02
50951,5.62E-03,1.41E-02
50952,5.53E-03,1.85E-02
50953,5.56E-03,1.97E-02
50954,5.33E-03,1.43E-02
50955,5.47E-03,1.94E-02
50956,5.61E-03,1.25E-02
50957,5.41E-03,2.30E-02
50958,5.35E-03,1.49E-02
50959,5.33E-03,1.48E-02
50960,5.35E-03,1.51E-02
50961,5.38E-03,1.50E-02
50962,5.35E-03,1.52E-02
50963,5.98E-03,1.62E-02
50964,6.05E-03,1.61E-02
50965,5.81E-03,1.65E-02
50966,5.93E-03,1.63E-02
50967,5.80E-03,1.66E-02
50968,5.76E-03,1.71E-02
50969,5.70E-03,1.70E-02
50970,5.68E-03,1.72E-02
50971,5.75E-03,1.72E-02
50972,5.60E-03,1.74E-02
50973,5.66E-03,1.73E-02
50974,5.42E-03,1.76E-02
50975,5.51E-03,1.75E-02
50976,5.25E-03,1.77E-02
50977,5.31E-03,1.76E-02
50978,5.48E-03,1.78E-02
50979,5.28E-03,1.78E-02
50980,5.75E-03,1.79E-02
50981,6.21E-03,1.86E-02
50982,5.75E-03,1.86E-02
50983,5.89E-03,1.86E-02
50984,5.71E-03,1.86E-02
50985,5.70E-03,1.86E-02
50986,5.73E-03,1.85E-02
50987,5.72E-03,1.86E-02
50988,5.67E-03,1.85E-02
50989,5.60E-03,1.83E-02
50990,5.61E-03,1.84E-02
50991,5.60E-03,1.82E-02
50992,5.64E-03,1.83E-02
50993,5.57E-03,1.81E-02
50994,5.59E-03,1.82E-02
50995,5.32E-03,1.80E-02
50996,5.44E-03,1.80E-02
50997,5.26E-03,1.78E-02
50998,5.29E-03,1.79E-02
50999,5.41E-03,1.77E-02
51000,5.34E-03,1.78E-02
51001,5.57E-03,1.75E-02
51002,5.41E-03,1.76E-02
51003,5.58E-03,1.74E-02
51004,5.43E-03,1.70E-02
51005,5.44E-03,1.71E-02
51006,5.39E-03,1.68E-02
51007,5.43E-03,1.69E-02
51008,5.30E-03,1.67E-02
51009,6.06E-03,1.61E-02
51010,6.36E-03,1.63E-02
51011,5.79E-03,1.59E-02
51012,5.93E-03,1.60E-02
51013,5.56E-03,1.56E-02
51014,5.68E-03,1.58E-02
51015,5.52E-03,1.55E-02
51016,5.93E-03,1.45E-02
51017,6.13E-03,1.47E-02
51018,5.74E-03,1.43E-02
51019,5.86E-03,1.44E-02
51020,5.50E-03,1.40E-02
51021,5.61E-03,1.41E-02
51022,5.32E-03,1.39E-02
51023,5.41E-03,1.33E-02
51024,5.61E-03,1.27E-02
51025,5.85E-03,8.77E-03
51026,5.77E-03,8.73E-03
51027,5.95E-03,8.83E-03
51028,5.70E-03,8.97E-03
51029,5.45E-03,9.10E-03
51030,5.96E-03,9.04E-03
51031,5.57E-03,9.17E-03
51032,5.73E-03,9.45E-03
51033,5.78E-03,9.40E-03
51034,5.55E-03,9.49E-03
51035,4.97E-03,1.17E-02
51036,5.36E-03,1.17E-02
51037,5.54E-03,1.17E-02
51038,5.68E-03,1.16E-02
51039,5.42E-03,1.17E-02
51040,5.11E-03,1.17E-02
51041,5.09E-03,1.17E-02
51042,5.08E-03,1.18E-02
51043,5.11E-03,1.18E-02
51044,5.16E-03,1.19E-02
51045,5.11E-03,1.19E-02
51046,5.29E-03,1.20E-02
51047,5.22E-03,1.20E-02
51048,5.51E-03,1.21E-02
51049,5.55E-03,1.21E-02
51050,5.20E-03,1.23E-02
51051,5.36E-03,1.22E-02
51052,5.13E-03,1.24E-02
51053,5.29E-03,1.31E-02
51054,5.45E-03,1.34E-02
51055,5.25E-03,1.40E-02
51056,5.35E-03,1.39E-02
51057,6.18E-03,1.44E-02
51058,5.89E-03,1.41E-02
51059,6.88E-03,1.45E-02
51060,6.49E-03,1.53E-02
51061,7.07E-03,1.49E-02
51062,6.02E-03,1.57E-02
51063,5.56E-03,1.85E-02
51064,5.24E-03,1.81E-02
51065,5.48E-03,1.92E-02
51066,5.48E-03,1.89E-02
51067,5.51E-03,2.00E-02
51068,5.44E-03,1.96E-02
51069,6.22E-03,2.08E-02
51070,5.52E-03,2.04E-02
51071,5.99E-03,2.20E-02
51072,6.09E-03,2.16E-02
51073,5.75E-03,2.28E-02
51074,5.86E-03,2.24E-02
51075,5.72E-03,2.32E-02
51076,6.79E-03,2.66E-02
51077,4.84E-03,2.57E-02
51078,4.70E-03,2.58E-02
51079,4.85E-03,2.55E-02
51080,4.39E-03,1.35E-02
51081,4.87E-03,2.42E-02
51082,5.06E-03,2.40E-02
51083,5.34E-03,2.28E-02
51084,5.13E-03,2.16E-02
51085,5.17E-03,2.19E-02
51086,5.07E-03,2.14E-02
51087,5.92E-03,1.97E-02
51088,5.90E-03,1.78E-02
51089,6.02E-03,1.80E-02
51090,5.83E-03,1.75E-02
51091,6.08E-03,1.64E-02
51092,6.15E-03,1.46E-02
51093,5.71E-03,1.34E-02
51094,5.20E-03,1.22E-02
51095,5.80E-03,1.23E-02
51096,5.05E-03,1.20E-02
51097,5.05E-03,1.14E-02
51098,4.94E-03,1.15E-02
51099,5.07E-03,1.13E-02
51100,6.18E-03,1.08E-02
51101,5.66E-03,9.90E-03
51102,5.76E-03,1.00E-02
51103,5.35E-03,1.33E-02
51104,5.60E-03,1.19E-02
51105,5.68E-03,1.01E-02
51106,5.83E-03,8.98E-03
51107,5.74E-03,1.14E-02
51108,5.74E-03,1.13E-02
51109,6.48E-03,1.61E-02
51110,6.10E-03,1.60E-02
51111,5.78E-03,1.59E-02
51112,5.89E-03,1.20E-02
51113,6.47E-03,1.55E-02
51114,6.28E-03,1.53E-02
51115,6.73E-03,1.50E-02
51116,6.79E-03,1.53E-02
51117,7.81E-03,2.29E-02
51118,5.63E-03,9.82E-03
51119,5.56E-03,1.03E-02
51120,5.92E-03,1.17E-02
51121,5.41E-03,1.33E-02
51122,5.64E-03,1.42E-02
51123,5.50E-03,1.85E-02
51124,5.51E-03,1.85E-02
51125,5.52E-03,1.96E-02
51126,5.45E-03,1.98E-02
51127,5.17E-03,1.43E-02
51128,5.33E-03,1.46E-02
51129,5.70E-03,1.98E-02
51130,5.28E-03,1.91E-02
51131,5.41E-03,1.29E-02
51132,5.62E-03,1.27E-02
51133,5.49E-03,2.16E-02
51134,5.96E-03,2.12E-02
51135,5.19E-03,2.14E-02
51136,5.70E-03,2.15E-02
51137,5.53E-03,2.31E-02
51138,5.45E-03,2.32E-02
51139,5.02E-03,1.39E-02
51140,4.93E-03,1.42E-02
51141,5.07E-03,1.47E-02
51142,5.03E-03,1.46E-02
51143,5.18E-03,1.49E-02
51144,5.19E-03,1.55E-02
51145,5.97E-03,1.62E-02
51146,5.64E-03,1.69E-02
51147,5.78E-03,1.68E-02
51148,5.64E-03,1.70E-02
51149,5.67E-03,1.84E-02
51150,5.68E-03,1.85E-02
51151,5.70E-03,1.84E-02
51152,5.57E-03,1.72E-02
51153,5.59E-03,1.73E-02
51154,5.47E-03,1.71E-02
51155,4.79E-03,1.65E-02
51156,5.31E-03,1.53E-02
51157,6.46E-03,1.47E-02
51158,4.78E-03,1.36E-02
51159,4.97E-03,1.33E-02
51160,5.55E-03,1.30E-02
51161,5.51E-03,1.24E-02
51162,6.14E-03,8.63E-03
51163,7.08E-03,8.54E-03
51164,6.57E-03,8.61E-03
51165,5.83E-03,9.08E-03
51166,5.24E-03,1.15E-02
51167,5.10E-03,1.15E-02
51168,5.29E-03,1.15E-02
51169,5.44E-03,1.15E-02
51170,5.66E-03,1.14E-02
51171,5.35E-03,1.15E-02
51172,5.26E-03,1.14E-02
51173,5.25E-03,1.14E-02
51174,5.76E-03,1.18E-02
51175,5.21E-03,1.23E-02
51176,5.18E-03,1.22E-02
51177,5.30E-03,1.27E-02
51178,5.27E-03,1.29E-02
51179,5.28E-03,1.29E-02
51180,5.35E-03,1.30E-02
51181,5.61E-03,1.60E-02
51182,5.07E-03,1.77E-02
51183,6.29E-03,2.13E-02
51184,5.58E-03,2.07E-02
51185,5.15E-03,1.39E-02
51186,5.47E-03,2.27E-02
51187,5.00E-03,1.57E-02
51188,5.55E-03,2.46E-02
51189,5.05E-03,2.53E-02
51190,6.25E-03,2.49E-02
51191,5.92E-03,2.47E-02
51192,5.16E-03,2.38E-02
51193,5.41E-03,2.33E-02
51194,5.38E-03,2.31E-02
51195,5.10E-03,2.11E-02
51196,5.71E-03,1.98E-02
51197,5.64E-03,1.93E-02
51198,6.17E-03,1.82E-02
51199,6.02E-03,1.68E-02
51200,5.93E-03,1.71E-02
51201,6.10E-03,1.66E-02
51202,5.42E-03,1.42E-02
51203,5.52E-03,1.26E-02
51204,5.75E-03,1.28E-02
51205,4.57E-03,1.24E-02
51206,4.91E-03,1.15E-02
51207,4.93E-03,1.16E-02
51208,4.96E-03,1.14E-02
51209,5.01E-03,1.08E-02
51210,5.13E-03,1.09E-02
51211,6.49E-03,1.07E-02
51212,6.35E-03,1.04E-02
51213,5.33E-03,9.74E-03
51214,5.37E-03,1.34E-02
51215,5.62E-03,1.30E-02
51216,6.32E-03,1.24E-02
51217,5.53E-03,1.21E-02
51218,5.59E-03,1.16E-02
51219,5.51E-03,1.03E-02
51220,5.90E-03,9.48E-03
51221,5.80E-03,9.76E-03
51222,5.99E-03,9.19E-03
51223,6.54E-03,1.59E-02
51224,7.41E-03,1.63E-02
51225,7.14E-03,1.61E-02
51226,5.29E-03,1.59E-02
51227,5.47E-03,1.60E-02
51228,6.96E-03,1.47E-02
51229,7.22E-03,1.50E-02
51230,7.14E-03,2.69E-02
51231,3.78E-03,1.08E-02
51232,5.50E-03,1.06E-02
51233,5.91E-03,1.13E-02
51234,5.09E-03,1.28E-02
51235,5.15E-03,1.30E-02
51236,5.59E-03,1.43E-02
51237,5.52E-03,1.84E-02
51238,5.52E-03,1.84E-02
51239,5.49E-03,1.94E-02
51240,5.43E-03,2.00E-02
51241,5.10E-03,1.43E-02
51242,5.34E-03,1.49E-02
51243,5.68E-03,2.01E-02
51244,5.17E-03,1.88E-02
51245,5.28E-03,1.32E-02
51246,5.58E-03,1.30E-02
51247,5.50E-03,2.19E-02
51248,4.18E-03,2.14E-02
51249,4.79E-03,2.16E-02
51250,5.00E-03,2.17E-02
51251,5.63E-03,2.32E-02
51252,5.57E-03,2.34E-02
51253,5.18E-03,1.58E-02
51254,4.24E-03,1.49E-02
51255,4.80E-03,1.51E-02
51256,5.68E-03,1.21E-02
51257,5.42E-03,1.18E-02
51258,5.72E-03,1.17E-02
51259,6.47E-03,8.44E-03
51260,5.31E-03,1.14E-02
51261,5.26E-03,1.23E-02
51262,5.19E-03,1.63E-02
51263,5.57E-03,2.50E-02
51264,5.52E-03,2.52E-02
51265,5.33E-03,2.35E-02
51266,5.27E-03,2.26E-02
51267,5.28E-03,2.23E-02
51268,5.14E-03,2.08E-02
51269,5.03E-03,1.88E-02
51270,5.28E-03,1.90E-02
51271,5.31E-03,1.85E-02
51272,5.09E-03,1.82E-02
51273,6.23E-03,1.60E-02
51274,6.28E-03,1.58E-02
51275,5.11E-03,1.39E-02
51276,5.13E-03,1.24E-02
51277,5.23E-03,1.06E-02
51278,6.33E-03,1.27E-02
51279,5.46E-03,1.13E-02
51280,4.70E-03,8.40E-03
51281,6.46E-03,1.56E-02
51282,6.60E-03,2.66E-02
51283,5.47E-03,2.73E-02
51284,5.76E-03,2.75E-02
51285,5.61E-03,2.04E-02
51286,5.06E-03,1.10E-02
51287,5.41E-03,1.84E-02
51288,5.56E-03,1.84E-02
51289,5.53E-03,1.92E-02
51290,5.39E-03,2.01E-02
51291,4.97E-03,1.43E-02
51292,5.26E-03,1.52E-02
51293,5.17E-03,1.84E-02
51294,5.16E-03,1.36E-02
51295,5.46E-03,1.32E-02
51296,5.41E-03,2.23E-02
51297,4.67E-03,2.16E-02
51298,4.93E-03,2.18E-02
51299,4.93E-03,2.19E-02
51300,5.78E-03,2.33E-02
51301,5.66E-03,2.37E-02
51302,4.60E-03,1.14E-02
51303,6.62E-03,1.14E-02
51304,5.69E-03,1.39E-02
51305,6.12E-03,1.40E-02
51306,4.77E-03,1.73E-02
51307,5.40E-03,2.05E-02
51308,5.01E-03,1.87E-02
51309,4.51E-03,1.33E-02
51310,3.94E-03,1.35E-02
51311,4.65E-03,1.35E-02
51312,4.61E-03,1.36E-02
51313,5.13E-03,1.10E-02
51314,3.63E-03,2.25E-02
51315,5.53E-03,9.27E-03
51316,5.53E-03,9.33E-03
51317,5.16E-03,9.90E-03
51318,5.45E-03,1.31E-02
51319,5.66E-03,1.32E-02
51320,6.33E-03,2.63E-02
51321,5.51E-03,1.84E-02
51322,5.57E-03,1.84E-02
51323,5.12E-03,1.36E-02
51324,5.46E-03,1.91E-02
51325,5.29E-03,2.02E-02
51326,5.11E-03,1.55E-02
51327,5.15E-03,1.81E-02
51328,5.30E-03,1.34E-02
51329,4.98E-03,2.20E-02
51330,5.97E-03,2.33E-02
51331,5.89E-03,2.39E-02
51332,4.43E-03,1.65E-02
51333,6.06E-03,2.00E-02
51334,6.04E-03,2.02E-02
51335,5.09E-03,1.84E-02
51336,5.18E-03,1.37E-02
51337,5.89E-03,9.44E-03
51338,4.85E-03,2.23E-02
51339,5.01E-03,1.02E-02
51340,5.56E-03,1.84E-02
51341,5.05E-03,1.33E-02
51342,5.36E-03,1.89E-02
51343,5.28E-03,2.03E-02
51344,5.09E-03,1.58E-02
51345,5.00E-03,1.78E-02
51346,5.24E-03,1.35E-02
51347,6.16E-03,2.34E-02
51348,5.94E-03,2.42E-02
51349,4.98E-03,2.20E-02
51350,4.87E-03,1.06E-02
51351,5.72E-03,1.76E-02
51352,5.90E-03,1.77E-02
51353,6.02E-03,1.79E-02
51354,5.91E-03,1.80E-02
51355,5.86E-03,1.81E-02
51356,5.58E-03,1.74E-02
51357,6.00E-03,2.46E-02
51358,5.86E-03,2.49E-02
51359,5.79E-03,2.52E-02
51360,5.90E-03,2.56E-02
51361,5.65E-03,1.27E-02
51362,5.65E-03,1.26E-02
51363,5.41E-03,1.84E-02
51364,5.26E-03,1.87E-02
51365,5.08E-03,2.05E-02
51366,4.86E-03,1.60E-02
51367,4.86E-03,1.75E-02
51368,5.08E-03,1.37E-02
51369,6.26E-03,2.34E-02
51370,4.88E-03,2.19E-02
51371,4.70E-03,1.09E-02
51372,5.52E-03,1.72E-02
51373,5.34E-03,1.84E-02
51374,4.40E-03,1.29E-02
51375,3.52E-03,1.28E-02
51376,5.04E-03,1.85E-02
51377,5.03E-03,2.06E-02
51378,4.77E-03,1.63E-02
51379,4.87E-03,1.72E-02
51380,4.92E-03,1.38E-02
51381,6.48E-03,2.34E-02
51382,4.67E-03,2.17E-02
51383,5.37E-03,1.70E-02
51384,4.52E-03,1.14E-02
51385,4.13E-03,1.19E-02
51386,6.14E-03,2.59E-02
51387,6.15E-03,1.86E-02
51388,5.84E-03,1.81E-02
51389,5.80E-03,1.82E-02
51390,5.72E-03,1.83E-02
51391,5.68E-03,1.82E-02
51392,5.27E-03,1.84E-02
51393,3.34E-03,1.25E-02
51394,4.86E-03,1.83E-02
51395,4.93E-03,2.07E-02
51396,4.64E-03,1.66E-02
51397,4.80E-03,1.69E-02
51398,4.81E-03,1.39E-02
51399,6.52E-03,2.34E-02
51400,4.56E-03,8.18E-03
51401,5.67E-03,8.19E-03
51402,4.54E-03,2.15E-02
51403,5.18E-03,1.54E-02
51404,5.30E-03,1.52E-02
51405,5.45E-03,1.49E-02
51406,5.58E-03,1.47E-02
51407,5.96E-03,1.44E-02
51408,5.69E-03,1.39E-02
51409,6.45E-03,1.41E-02
51410,5.36E-03,1.68E-02
51411,5.94E-03,1.44E-02
51412,5.66E-03,1.86E-02
51413,5.95E-03,1.80E-02
51414,5.22E-03,1.85E-02
51415,2.86E-03,1.23E-02
51416,3.77E-03,1.21E-02
51417,4.63E-03,1.80E-02
51418,4.71E-03,2.09E-02
51419,4.46E-03,1.68E-02
51420,4.68E-03,1.66E-02
51421,4.69E-03,1.40E-02
51422,6.69E-03,2.33E-02
51423,4.43E-03,2.13E-02
51424,5.43E-03,1.86E-02
51425,6.30E-03,1.78E-02
51426,5.16E-03,1.85E-02
51427,4.51E-03,1.78E-02
51428,4.57E-03,2.10E-02
51429,4.33E-03,1.70E-02
51430,3.49E-03,1.64E-02
51431,6.83E-03,2.33E-02
51432,7.10E-03,2.30E-02
51433,4.48E-03,2.12E-02
51434,5.01E-03,1.85E-02
51435,6.49E-03,1.76E-02
51436,5.22E-03,1.85E-02
51437,4.41E-03,1.76E-02
51438,4.29E-03,1.72E-02
51439,3.41E-03,1.62E-02
51440,6.93E-03,2.32E-02
51441,5.66E-03,1.11E-02
51442,5.57E-03,1.11E-02
51443,5.63E-03,1.66E-02
51444,5.15E-03,1.85E-02
51445,6.28E-03,1.73E-02
51446,4.38E-03,1.74E-02
51447,4.34E-03,1.59E-02
51448,2.37E-03,1.43E-02
51449,4.03E-03,1.07E-02
51450,5.28E-03,1.05E-02
51451,6.30E-03,1.64E-02
51452,5.70E-03,1.82E-02
51453,5.67E-03,1.83E-02
51454,6.14E-03,1.71E-02
51455,4.42E-03,1.56E-02
51456,3.35E-03,1.42E-02
51457,5.33E-03,2.58E-02
51458,6.44E-03,2.54E-02
51459,4.48E-03,2.15E-02
51460,5.83E-03,1.69E-02
51461,4.37E-03,1.53E-02
51462,3.56E-03,1.43E-02
51463,6.53E-03,2.49E-02
51464,4.40E-03,2.13E-02
51465,5.73E-03,1.66E-02
51466,4.46E-03,1.51E-02
51467,6.42E-03,2.44E-02
51468,4.40E-03,2.12E-02
51469,5.42E-03,1.64E-02
51470,4.60E-03,1.48E-02
51471,6.06E-03,2.39E-02
51472,5.50E-03,2.11E-02
51473,5.01E-03,1.45E-02
51474,3.70E-03,1.43E-02
51475,3.44E-03,1.44E-02
51476,5.79E-03,2.34E-02
51477,5.12E-03,1.62E-02
51478,4.93E-03,1.60E-02
51479,4.48E-03,1.44E-02
51480,4.82E-03,1.44E-02
51481,5.54E-03,2.08E-02
51482,5.10E-03,2.65E-02
51483,3.64E-03,1.49E-02
51484,4.68E-03,2.07E-02
51485,4.99E-03,2.63E-02
51486,4.99E-03,2.61E-02
51487,5.68E-03,9.74E-03
51488,5.60E-03,1.00E-02
51489,4.83E-03,1.22E-02
51490,4.94E-03,1.19E-02
51491,4.79E-03,1.26E-02
51492,4.88E-03,1.24E-02
51493,5.62E-03,1.37E-02
51494,5.51E-03,1.35E-02
51495,5.62E-03,1.40E-02
51496,5.53E-03,1.85E-02
51497,5.48E-03,1.97E-02
51498,5.29E-03,1.45E-02
51499,5.51E-03,1.94E-02
51500,5.53E-03,1.28E-02
51501,5.54E-03,2.15E-02
51502,5.44E-03,2.32E-02
51503,5.06E-03,1.41E-02
51504,5.01E-03,1.44E-02
51505,5.00E-03,1.45E-02
51506,5.30E-03,1.51E-02
51507,5.23E-03,1.50E-02
51508,5.31E-03,1.53E-02
51509,5.32E-03,1.52E-02
51510,5.28E-03,1.54E-02
51511,5.99E-03,1.64E-02
51512,6.04E-03,1.63E-02
51513,5.88E-03,1.66E-02
51514,5.92E-03,1.65E-02
51515,5.83E-03,1.67E-02
51516,5.71E-03,1.72E-02
51517,5.68E-03,1.71E-02
51518,5.69E-03,1.74E-02
51519,5.71E-03,1.73E-02
51520,5.58E-03,1.75E-02
51521,5.67E-03,1.75E-02
51522,5.44E-03,1.77E-02
51523,5.51E-03,1.76E-02
51524,5.36E-03,1.78E-02
51525,5.34E-03,1.78E-02
51526,5.52E-03,1.79E-02
51527,5.43E-03,1.79E-02
51528,5.78E-03,1.81E-02
51529,5.63E-03,1.80E-02
51530,5.79E-03,1.81E-02
51531,6.73E-03,1.87E-02
51532,5.85E-03,1.86E-02
51533,6.02E-03,1.86E-02
51534,5.78E-03,1.86E-02
51535,5.79E-03,1.86E-02
51536,5.75E-03,1.85E-02
51537,5.80E-03,1.86E-02
51538,5.75E-03,1.85E-02
51539,5.64E-03,1.83E-02
51540,5.61E-03,1.84E-02
51541,5.55E-03,1.82E-02
51542,5.61E-03,1.83E-02
51543,5.50E-03,1.81E-02
51544,5.57E-03,1.81E-02
51545,5.40E-03,1.79E-02
51546,5.41E-03,1.80E-02
51547,5.36E-03,1.78E-02
51548,5.34E-03,1.79E-02
51549,5.37E-03,1.77E-02
51550,5.38E-03,1.77E-02
51551,5.52E-03,1.75E-02
51552,5.42E-03,1.76E-02
51553,5.56E-03,1.74E-02
51554,5.46E-03,1.69E-02
51555,5.45E-03,1.70E-02
51556,5.46E-03,1.67E-02
51557,5.46E-03,1.68E-02
51558,5.45E-03,1.66E-02
51559,6.03E-03,1.60E-02
51560,7.16E-03,1.62E-02
51561,5.69E-03,1.58E-02
51562,5.80E-03,1.59E-02
51563,5.54E-03,1.55E-02
51564,5.62E-03,1.57E-02
51565,5.42E-03,1.54E-02
51566,5.96E-03,1.44E-02
51567,6.15E-03,1.46E-02
51568,5.70E-03,1.42E-02
51569,5.84E-03,1.43E-02
51570,5.44E-03,1.39E-02
51571,5.61E-03,1.40E-02
51572,5.18E-03,1.37E-02
51573,5.37E-03,1.32E-02
51574,5.59E-03,1.25E-02
51575,5.81E-03,8.51E-03
51576,5.73E-03,8.47E-03
51577,5.99E-03,8.56E-03
51578,5.58E-03,8.69E-03
51579,5.62E-03,8.64E-03
51580,5.68E-03,8.83E-03
51581,5.70E-03,8.75E-03
51582,5.63E-03,8.89E-03
51583,5.73E-03,9.18E-03
51584,5.78E-03,9.13E-03
51585,5.67E-03,9.22E-03
51586,4.93E-03,1.14E-02
51587,5.35E-03,1.15E-02
51588,5.54E-03,1.15E-02
51589,5.62E-03,1.14E-02
51590,5.43E-03,1.15E-02
51591,5.16E-03,1.15E-02
51592,5.19E-03,1.15E-02
51593,5.13E-03,1.16E-02
51594,5.16E-03,1.15E-02
51595,5.13E-03,1.17E-02
51596,5.12E-03,1.16E-02
51597,5.16E-03,1.18E-02
51598,5.14E-03,1.17E-02
51599,5.51E-03,1.18E-02
51600,5.69E-03,1.19E-02
51601,5.30E-03,1.20E-02
51602,5.40E-03,1.20E-02
51603,5.20E-03,1.21E-02
51604,5.28E-03,1.28E-02
51605,5.40E-03,1.31E-02
51606,5.67E-03,1.37E-02
51607,5.55E-03,1.36E-02
51608,5.78E-03,1.38E-02
51609,6.17E-03,1.44E-02
51610,6.10E-03,1.52E-02
51611,6.31E-03,1.48E-02
51612,5.82E-03,1.56E-02
51613,5.56E-03,1.84E-02
51614,5.16E-03,1.80E-02
51615,5.42E-03,1.92E-02
51616,5.43E-03,1.88E-02
51617,5.27E-03,2.00E-02
51618,5.40E-03,1.96E-02
51619,5.34E-03,2.04E-02
51620,6.38E-03,2.21E-02
51621,7.18E-03,2.16E-02
51622,5.55E-03,2.06E-02
51623,5.18E-03,1.42E-02
51624,5.59E-03,2.30E-02
51625,4.95E-03,1.58E-02
51626,5.74E-03,2.29E-02
51627,6.02E-03,2.25E-02
51628,5.56E-03,2.32E-02
51629,5.15E-03,2.39E-02
51630,7.00E-03,2.42E-02
51631,6.23E-03,2.67E-02
51632,4.90E-03,2.57E-02
51633,4.92E-03,2.59E-02
51634,5.00E-03,2.55E-02
51635,5.05E-03,2.42E-02
51636,4.98E-03,2.44E-02
51637,5.12E-03,2.40E-02
51638,5.29E-03,2.28E-02
51639,5.29E-03,2.21E-02
51640,5.18E-03,2.16E-02
51641,5.20E-03,2.18E-02
51642,5.15E-03,2.14E-02
51643,5.67E-03,1.96E-02
51644,5.83E-03,1.76E-02
51645,5.81E-03,1.79E-02
51646,5.82E-03,1.74E-02
51647,6.14E-03,1.63E-02
51648,6.46E-03,1.44E-02
51649,5.48E-03,1.34E-02
51650,5.86E-03,1.31E-02
51651,4.60E-03,1.21E-02
51652,4.56E-03,1.23E-02
51653,5.06E-03,1.19E-02
51654,4.83E-03,1.20E-02
51655,4.99E-03,1.18E-02
51656,5.02E-03,1.11E-02
51657,4.98E-03,1.13E-02
51658,5.06E-03,1.10E-02
51659,6.92E-03,1.05E-02
51660,7.25E-03,9.92E-03
51661,5.57E-03,9.60E-03
51662,5.43E-03,9.66E-03
51663,5.71E-03,9.43E-03
51664,5.67E-03,9.51E-03
51665,5.40E-03,1.32E-02
51666,5.60E-03,1.18E-02
51667,5.64E-03,1.00E-02
51668,6.04E-03,8.92E-03
51669,5.64E-03,1.11E-02
51670,5.64E-03,1.11E-02
51671,6.57E-03,1.60E-02
51672,5.84E-03,1.62E-02
51673,5.66E-03,1.61E-02
51674,7.16E-03,1.17E-02
51675,5.97E-03,1.18E-02
51676,6.50E-03,1.53E-02
51677,6.61E-03,1.51E-02
51678,5.08E-03,2.75E-02
51679,3.51E-03,2.72E-02
51680,5.38E-03,2.71E-02
51681,5.45E-03,1.97E-02
51682,5.69E-03,9.34E-03
51683,5.85E-03,9.65E-03
51684,5.54E-03,1.03E-02
51685,5.89E-03,1.16E-02
51686,5.35E-03,1.32E-02
51687,5.72E-03,1.41E-02
51688,5.49E-03,1.84E-02
51689,5.53E-03,1.84E-02
51690,5.47E-03,1.95E-02
51691,5.43E-03,1.98E-02
51692,5.17E-03,1.45E-02
51693,5.35E-03,1.48E-02
51694,5.69E-03,1.98E-02
51695,5.41E-03,1.91E-02
51696,5.39E-03,1.32E-02
51697,5.64E-03,1.30E-02
51698,5.41E-03,2.19E-02
51699,5.34E-03,2.18E-02
51700,5.53E-03,2.33E-02
51701,5.52E-03,2.34E-02
51702,5.17E-03,1.49E-02
51703,5.16E-03,1.48E-02
51704,5.17E-03,1.51E-02
51705,5.18E-03,1.57E-02
51706,5.97E-03,1.63E-02
51707,5.69E-03,1.71E-02
51708,5.77E-03,1.70E-02
51709,5.67E-03,1.72E-02
51710,4.15E-03,1.87E-02
51711,5.76E-03,1.84E-02
51712,5.77E-03,1.85E-02
51713,5.66E-03,1.84E-02
51714,5.57E-03,1.72E-02
51715,5.58E-03,1.72E-02
51716,5.55E-03,1.71E-02
51717,4.92E-03,1.64E-02
51718,5.11E-03,1.52E-02
51719,6.39E-03,1.46E-02
51720,4.01E-03,1.34E-02
51721,5.57E-03,1.29E-02
51722,5.66E-03,1.23E-02
51723,5.39E-03,1.16E-02
51724,6.22E-03,8.35E-03
51725,6.44E-03,8.22E-03
51726,6.28E-03,8.29E-03
51727,5.91E-03,1.15E-02
51728,5.74E-03,1.13E-02
51729,5.18E-03,1.13E-02
51730,5.04E-03,1.13E-02
51731,5.26E-03,1.13E-02
51732,5.45E-03,1.13E-02
51733,5.63E-03,1.12E-02
51734,5.41E-03,1.13E-02
51735,5.29E-03,1.12E-02
51736,5.30E-03,1.12E-02
51737,6.98E-03,1.15E-02
51738,5.22E-03,1.20E-02
51739,5.20E-03,1.19E-02
51740,5.22E-03,1.26E-02
51741,5.28E-03,1.24E-02
51742,5.20E-03,1.27E-02
51743,5.52E-03,1.59E-02
51744,5.08E-03,1.76E-02
51745,4.36E-03,2.07E-02
51746,4.41E-03,2.36E-02
51747,5.49E-03,2.47E-02
51748,5.28E-03,2.54E-02
51749,5.82E-03,2.50E-02
51750,5.51E-03,2.47E-02
51751,5.26E-03,2.38E-02
51752,5.39E-03,2.33E-02
51753,5.35E-03,2.30E-02
51754,5.33E-03,2.23E-02
51755,5.35E-03,2.25E-02
51756,5.30E-03,2.20E-02
51757,5.18E-03,2.11E-02
51758,5.39E-03,1.92E-02
51759,5.35E-03,1.80E-02
51760,6.10E-03,1.67E-02
51761,5.91E-03,1.70E-02
51762,6.26E-03,1.64E-02
51763,5.16E-03,1.40E-02
51764,4.90E-03,1.24E-02
51765,5.23E-03,1.26E-02
51766,5.25E-03,1.22E-02
51767,4.97E-03,1.11E-02
51768,5.14E-03,1.04E-02
51769,5.29E-03,1.04E-02
51770,6.46E-03,1.01E-02
51771,4.54E-03,9.50E-03
51772,4.89E-03,9.40E-03
51773,5.16E-03,1.33E-02
51774,5.76E-03,1.29E-02
51775,5.88E-03,1.23E-02
51776,5.77E-03,1.20E-02
51777,5.57E-03,1.15E-02
51778,5.42E-03,1.03E-02
51779,4.73E-03,8.23E-03
51780,6.42E-03,8.60E-03
51781,6.43E-03,1.57E-02
51782,5.52E-03,1.62E-02
51783,6.59E-03,1.60E-02
51784,5.28E-03,1.60E-02
51785,5.43E-03,1.61E-02
51786,6.19E-03,2.68E-02
51787,4.84E-03,2.71E-02
51788,6.52E-03,2.76E-02
51789,5.58E-03,2.03E-02
51790,5.24E-03,1.87E-02
51791,4.95E-03,1.87E-02
51792,4.20E-03,1.08E-02
51793,5.28E-03,1.05E-02
51794,6.65E-03,1.12E-02
51795,3.75E-03,1.27E-02
51796,4.28E-03,1.29E-02
51797,5.74E-03,1.42E-02
51798,5.43E-03,1.84E-02
51799,5.52E-03,1.84E-02
51800,5.50E-03,1.94E-02
51801,5.41E-03,1.99E-02
51802,5.07E-03,1.45E-02
51803,5.32E-03,1.51E-02
51804,5.66E-03,2.01E-02
51805,5.32E-03,1.88E-02
51806,5.31E-03,1.35E-02
51807,5.50E-03,1.32E-02
51808,5.48E-03,2.22E-02
51809,5.05E-03,2.19E-02
51810,5.74E-03,2.33E-02
51811,5.62E-03,2.36E-02
51812,4.66E-03,1.50E-02
51813,5.17E-03,1.32E-02
51814,6.41E-03,1.19E-02
51815,5.95E-03,1.20E-02
51816,6.44E-03,8.15E-03
51817,5.34E-03,1.11E-02
51818,5.28E-03,1.20E-02
51819,5.88E-03,1.35E-02
51820,5.90E-03,1.35E-02
51821,6.28E-03,1.40E-02
51822,5.19E-03,1.62E-02
51823,4.82E-03,1.71E-02
51824,5.46E-03,2.55E-02
51825,5.42E-03,2.52E-02
51826,5.33E-03,2.58E-02
51827,4.10E-03,2.76E-02
51828,4.04E-03,2.74E-02
51829,5.49E-03,2.52E-02
51830,5.40E-03,2.35E-02
51831,5.18E-03,2.08E-02
51832,5.19E-03,1.89E-02
51833,5.24E-03,1.82E-02
51834,6.64E-03,1.48E-02
51835,4.57E-03,1.33E-02
51836,5.44E-03,1.36E-02
51837,5.66E-03,9.12E-03
51838,5.62E-03,9.04E-03
51839,4.07E-03,1.34E-02
51840,5.81E-03,1.25E-02
51841,5.45E-03,1.12E-02
51842,4.94E-03,2.25E-02
51843,5.61E-03,9.00E-03
51844,5.63E-03,9.06E-03
51845,5.34E-03,9.65E-03
51846,6.42E-03,1.54E-02
51847,5.53E-03,1.28E-02
51848,5.64E-03,1.28E-02
51849,6.17E-03,2.64E-02
51850,5.45E-03,1.84E-02
51851,5.66E-03,1.84E-02
51852,5.08E-03,1.43E-02
51853,5.07E-03,1.38E-02
51854,5.52E-03,1.92E-02
51855,5.37E-03,2.01E-02
51856,4.97E-03,1.44E-02
51857,5.24E-03,1.54E-02
51858,5.23E-03,1.84E-02
51859,5.17E-03,1.38E-02
51860,5.44E-03,1.34E-02
51861,5.44E-03,2.26E-02
51862,5.02E-03,2.21E-02
51863,5.86E-03,2.34E-02
51864,5.74E-03,2.38E-02
51865,5.18E-03,1.59E-02
51866,4.73E-03,1.48E-02
51867,4.42E-03,1.67E-02
51868,5.23E-03,2.05E-02
51869,5.15E-03,1.86E-02
51870,4.72E-03,1.35E-02
51871,4.61E-03,1.09E-02
51872,6.21E-03,9.15E-03
51873,4.82E-03,2.23E-02
51874,5.16E-03,9.97E-03
51875,3.58E-03,1.61E-02
51876,5.53E-03,1.83E-02
51877,5.59E-03,1.84E-02
51878,5.07E-03,1.35E-02
51879,5.45E-03,1.90E-02
51880,5.24E-03,2.02E-02
51881,5.12E-03,1.56E-02
51882,5.14E-03,1.81E-02
51883,5.34E-03,1.36E-02
51884,5.27E-03,2.21E-02
51885,4.87E-03,2.22E-02
51886,6.05E-03,2.35E-02
51887,5.85E-03,2.41E-02
51888,5.43E-03,1.46E-02
51889,4.27E-03,1.22E-02
51890,4.88E-03,1.37E-02
51891,4.85E-03,2.21E-02
51892,5.07E-03,1.03E-02
51893,5.74E-03,1.76E-02
51894,5.93E-03,1.78E-02
51895,5.98E-03,1.79E-02
51896,5.77E-03,1.80E-02
51897,5.65E-03,1.74E-02
51898,5.95E-03,2.48E-02
51899,5.84E-03,2.51E-02
51900,5.81E-03,2.54E-02
51901,6.00E-03,2.44E-02
51902,5.76E-03,1.25E-02
51903,5.49E-03,1.84E-02
51904,4.95E-03,1.31E-02
51905,5.29E-03,1.88E-02
51906,5.19E-03,2.03E-02
51907,5.03E-03,1.59E-02
51908,5.00E-03,1.78E-02
51909,5.19E-03,1.38E-02
51910,6.22E-03,2.35E-02
51911,4.43E-03,1.41E-02
51912,4.89E-03,2.19E-02
51913,4.79E-03,1.06E-02
51914,5.54E-03,1.73E-02
51915,5.55E-03,1.83E-02
51916,5.52E-03,1.84E-02
51917,5.52E-03,1.84E-02
51918,5.43E-03,1.84E-02
51919,5.40E-03,1.84E-02
51920,3.42E-03,1.28E-02
51921,5.14E-03,1.86E-02
51922,5.10E-03,2.05E-02
51923,4.86E-03,1.62E-02
51924,4.91E-03,1.75E-02
51925,5.04E-03,1.39E-02
51926,6.35E-03,2.35E-02
51927,4.81E-03,2.17E-02
51928,5.41E-03,1.71E-02
51929,4.55E-03,1.12E-02
51930,4.27E-03,1.17E-02
51931,6.04E-03,2.58E-02
51932,6.18E-03,2.61E-02
51933,6.02E-03,2.75E-02
51934,5.61E-03,1.86E-02
51935,5.57E-03,1.82E-02
51936,5.30E-03,1.84E-02
51937,3.30E-03,1.26E-02
51938,4.96E-03,1.84E-02
51939,4.99E-03,2.06E-02
51940,4.70E-03,1.64E-02
51941,4.86E-03,1.72E-02
51942,4.91E-03,1.40E-02
51943,6.47E-03,2.35E-02
51944,5.66E-03,7.95E-03
51945,5.59E-03,7.91E-03
51946,4.58E-03,2.15E-02
51947,5.26E-03,1.53E-02
51948,5.37E-03,1.51E-02
51949,5.49E-03,1.48E-02
51950,5.71E-03,1.45E-02
51951,6.20E-03,1.42E-02
51952,4.12E-03,1.38E-02
51953,5.82E-03,1.39E-02
51954,5.37E-03,1.69E-02
51955,5.60E-03,1.43E-02
51956,5.90E-03,1.86E-02
51957,5.78E-03,1.81E-02
51958,5.25E-03,1.84E-02
51959,3.54E-03,1.24E-02
51960,4.16E-03,1.20E-02
51961,4.77E-03,1.82E-02
51962,4.84E-03,2.07E-02
51963,4.59E-03,1.67E-02
51964,4.79E-03,1.69E-02
51965,4.71E-03,1.41E-02
51966,6.56E-03,2.35E-02
51967,4.54E-03,2.13E-02
51968,5.45E-03,1.86E-02
51969,6.08E-03,1.79E-02
51970,5.20E-03,1.84E-02
51971,4.19E-03,1.22E-02
51972,4.62E-03,1.80E-02
51973,4.69E-03,2.09E-02
51974,4.40E-03,1.69E-02
51975,4.47E-03,1.66E-02
51976,4.47E-03,1.42E-02
51977,6.75E-03,2.34E-02
51978,7.24E-03,2.31E-02
51979,4.48E-03,2.12E-02
51980,5.20E-03,1.85E-02
51981,6.35E-03,1.77E-02
51982,5.23E-03,1.85E-02
51983,4.51E-03,1.78E-02
51984,4.56E-03,2.10E-02
51985,4.34E-03,1.71E-02
51986,3.25E-03,1.64E-02
51987,3.69E-03,1.43E-02
51988,6.86E-03,2.33E-02
51989,7.00E-03,2.32E-02
51990,5.90E-03,1.09E-02
51991,5.74E-03,1.09E-02
51992,5.39E-03,1.67E-02
51993,5.22E-03,1.85E-02
51994,6.35E-03,1.75E-02
51995,5.18E-03,1.85E-02
51996,4.37E-03,1.76E-02
51997,4.34E-03,1.74E-02
51998,3.96E-03,1.61E-02
51999,2.86E-03,1.44E-02
52000,4.52E-03,1.08E-02
52001,5.20E-03,1.05E-02
52002,5.68E-03,1.65E-02
52003,5.76E-03,1.81E-02
52004,5.72E-03,1.82E-02
52005,6.24E-03,1.72E-02
52006,4.37E-03,1.59E-02
52007,3.17E-03,1.44E-02
52008,5.22E-03,2.62E-02
52009,7.52E-03,2.57E-02
52010,3.80E-03,2.16E-02
52011,4.30E-03,2.14E-02
52012,5.61E-03,1.63E-02
52013,5.95E-03,1.70E-02
52014,4.41E-03,1.56E-02
52015,3.56E-03,1.44E-02
52016,6.62E-03,2.52E-02
52017,4.53E-03,2.12E-02
52018,5.84E-03,1.68E-02
52019,4.50E-03,1.53E-02
52020,6.46E-03,2.47E-02
52021,4.72E-03,2.11E-02
52022,5.57E-03,1.65E-02
52023,4.52E-03,1.51E-02
52024,6.25E-03,2.42E-02
52025,4.85E-03,2.09E-02
52026,5.05E-03,1.56E-02
52027,4.83E-03,1.47E-02
52028,3.58E-03,1.45E-02
52029,4.22E-03,1.45E-02
52030,5.95E-03,2.37E-02
52031,5.26E-03,1.63E-02
52032,5.01E-03,1.61E-02
52033,4.21E-03,1.46E-02
52034,4.70E-03,1.46E-02
52035,5.43E-03,2.08E-02
52036,5.46E-03,2.05E-02
52037,5.07E-03,1.44E-02
52038,5.80E-03,2.33E-02
52039,4.90E-03,1.59E-02
52040,4.46E-03,2.66E-02
52041,3.34E-03,2.14E-02
52042,3.90E-03,2.16E-02
52043,5.02E-03,2.18E-02
52044,4.87E-03,2.64E-02
52045,5.08E-03,2.62E-02
52046,4.46E-03,1.98E-02
52047,5.04E-03,1.96E-02
52048,3.52E-03,1.05E-02
52049,5.79E-03,9.98E-03
52050,5.19E-03,1.21E-02
52051,5.49E-03,1.18E-02
52052,4.92E-03,1.25E-02
52053,5.18E-03,1.23E-02
52054,5.71E-03,1.36E-02
52055,5.68E-03,1.34E-02
52056,5.68E-03,1.39E-02
52057,5.52E-03,1.84E-02
52058,5.45E-03,1.97E-02
52059,5.27E-03,1.46E-02
52060,5.54E-03,1.94E-02
52061,5.53E-03,1.31E-02
52062,5.48E-03,2.18E-02
52063,5.52E-03,2.33E-02
52064,5.07E-03,1.46E-02
52065,5.10E-03,1.47E-02
52066,5.23E-03,1.53E-02
52067,5.20E-03,1.52E-02
52068,5.25E-03,1.55E-02
52069,5.24E-03,1.54E-02
52070,5.21E-03,1.56E-02
52071,6.02E-03,1.66E-02
52072,6.01E-03,1.65E-02
52073,5.89E-03,1.68E-02
52074,5.94E-03,1.67E-02
52075,5.82E-03,1.69E-02
52076,5.69E-03,1.73E-02
52077,5.63E-03,1.73E-02
52078,5.67E-03,1.75E-02
52079,5.67E-03,1.74E-02
52080,5.62E-03,1.77E-02
52081,5.62E-03,1.76E-02
52082,5.42E-03,1.78E-02
52083,5.50E-03,1.77E-02
52084,5.41E-03,1.79E-02
52085,5.40E-03,1.79E-02
52086,5.47E-03,1.80E-02
52087,5.42E-03,1.80E-02
52088,5.65E-03,1.82E-02
52089,5.54E-03,1.81E-02
52090,5.64E-03,1.83E-02
52091,5.68E-03,1.82E-02
52092,5.55E-03,1.83E-02
52093,5.97E-03,1.87E-02
52094,5.77E-03,1.87E-02
52095,5.88E-03,1.87E-02
52096,5.97E-03,1.87E-02
52097,5.84E-03,1.86E-02
52098,5.84E-03,1.86E-02
52099,5.78E-03,1.86E-02
52100,5.89E-03,1.86E-02
52101,5.78E-03,1.85E-02
52102,5.61E-03,1.83E-02
52103,5.62E-03,1.84E-02
52104,5.51E-03,1.82E-02
52105,5.54E-03,1.82E-02
52106,5.45E-03,1.81E-02
52107,5.51E-03,1.81E-02
52108,5.38E-03,1.79E-02
52109,5.45E-03,1.80E-02
52110,5.37E-03,1.78E-02
52111,5.38E-03,1.78E-02
52112,5.38E-03,1.76E-02
52113,5.36E-03,1.77E-02
52114,5.54E-03,1.74E-02
52115,5.46E-03,1.75E-02
52116,5.59E-03,1.73E-02
52117,5.50E-03,1.69E-02
52118,5.52E-03,1.70E-02
52119,5.54E-03,1.66E-02
52120,5.52E-03,1.68E-02
52121,5.41E-03,1.65E-02
52122,5.65E-03,1.60E-02
52123,5.23E-03,1.61E-02
52124,5.66E-03,1.57E-02
52125,5.62E-03,1.58E-02
52126,5.43E-03,1.54E-02
52127,5.58E-03,1.56E-02
52128,5.34E-03,1.53E-02
52129,5.93E-03,1.43E-02
52130,6.01E-03,1.45E-02
52131,5.69E-03,1.40E-02
52132,5.81E-03,1.42E-02
52133,5.43E-03,1.38E-02
52134,5.64E-03,1.39E-02
52135,4.99E-03,1.35E-02
52136,5.28E-03,1.36E-02
52137,5.45E-03,1.30E-02
52138,5.71E-03,1.24E-02
52139,5.12E-03,1.15E-02
52140,6.19E-03,1.17E-02
52141,6.26E-03,8.25E-03
52142,5.46E-03,7.94E-03
52143,5.02E-03,7.97E-03
52144,5.86E-03,8.24E-03
52145,5.70E-03,8.20E-03
52146,6.02E-03,8.29E-03
52147,5.76E-03,8.41E-03
52148,5.99E-03,8.36E-03
52149,5.69E-03,8.55E-03
52150,5.74E-03,8.48E-03
52151,5.73E-03,8.68E-03
52152,5.64E-03,8.62E-03
52153,5.77E-03,8.80E-03
52154,5.78E-03,8.74E-03
52155,5.77E-03,8.90E-03
52156,5.77E-03,8.86E-03
52157,5.71E-03,8.95E-03
52158,5.14E-03,1.14E-02
52159,5.71E-03,1.14E-02
52160,4.90E-03,1.13E-02
52161,5.33E-03,1.13E-02
52162,5.52E-03,1.12E-02
52163,5.58E-03,1.12E-02
52164,5.45E-03,1.13E-02
52165,5.22E-03,1.13E-02
52166,5.26E-03,1.12E-02
52167,5.11E-03,1.13E-02
52168,5.21E-03,1.13E-02
52169,5.07E-03,1.14E-02
52170,5.14E-03,1.14E-02
52171,5.01E-03,1.15E-02
52172,5.07E-03,1.14E-02
52173,5.12E-03,1.15E-02
52174,5.77E-03,1.16E-02
52175,5.16E-03,1.18E-02
52176,5.44E-03,1.17E-02
52177,5.14E-03,1.19E-02
52178,5.24E-03,1.25E-02
52179,5.28E-03,1.25E-02
52180,5.24E-03,1.27E-02
52181,5.76E-03,1.33E-02
52182,5.83E-03,1.32E-02
52183,5.72E-03,1.34E-02
52184,5.93E-03,1.44E-02
52185,5.73E-03,1.52E-02
52186,5.86E-03,1.48E-02
52187,5.67E-03,1.55E-02
52188,5.34E-03,1.83E-02
52189,5.24E-03,1.80E-02
52190,5.42E-03,1.91E-02
52191,5.42E-03,1.87E-02
52192,5.32E-03,1.99E-02
52193,5.41E-03,1.95E-02
52194,5.39E-03,2.03E-02
52195,6.43E-03,2.21E-02
52196,7.27E-03,2.16E-02
52197,5.62E-03,2.29E-02
52198,5.97E-03,2.25E-02
52199,5.47E-03,2.33E-02
52200,5.89E-03,2.40E-02
52201,5.45E-03,2.44E-02
52202,5.34E-03,2.68E-02
52203,5.03E-03,2.58E-02
52204,5.09E-03,2.60E-02
52205,5.15E-03,2.56E-02
52206,5.23E-03,2.42E-02
52207,5.31E-03,2.45E-02
52208,5.25E-03,2.40E-02
52209,5.33E-03,2.28E-02
52210,5.24E-03,2.15E-02
52211,5.25E-03,2.18E-02
52212,5.18E-03,2.13E-02
52213,5.41E-03,1.95E-02
52214,5.68E-03,1.75E-02
52215,5.68E-03,1.78E-02
52216,5.74E-03,1.72E-02
52217,6.01E-03,1.59E-02
52218,6.12E-03,1.61E-02
52219,6.18E-03,1.56E-02
52220,4.67E-03,1.41E-02
52221,4.84E-03,1.30E-02
52222,5.39E-03,1.32E-02
52223,4.72E-03,1.28E-02
52224,4.75E-03,1.19E-02
52225,4.88E-03,1.20E-02
52226,4.95E-03,1.16E-02
52227,4.86E-03,1.17E-02
52228,4.95E-03,1.15E-02
52229,5.03E-03,1.09E-02
52230,5.02E-03,1.10E-02
52231,5.08E-03,1.08E-02
52232,5.28E-03,1.02E-02
52233,4.65E-03,1.02E-02
52234,6.87E-03,1.02E-02
52235,6.63E-03,9.72E-03
52236,6.27E-03,9.59E-03
52237,6.60E-03,9.64E-03
52238,5.48E-03,9.28E-03
52239,5.32E-03,9.35E-03
52240,5.58E-03,9.20E-03
52241,5.44E-03,1.31E-02
52242,5.68E-03,1.18E-02
52243,5.59E-03,1.00E-02
52244,6.22E-03,8.87E-03
52245,5.64E-03,1.09E-02
52246,5.62E-03,1.09E-02
52247,5.17E-03,1.07E-02
52248,6.42E-03,1.59E-02
52249,5.68E-03,1.64E-02
52250,5.55E-03,1.62E-02
52251,6.70E-03,1.14E-02
52252,6.17E-03,1.15E-02
52253,3.60E-03,2.16E-02
52254,4.08E-03,2.17E-02
52255,5.40E-03,2.02E-02
52256,7.34E-03,1.48E-02
52257,6.54E-03,1.51E-02
52258,6.65E-03,1.50E-02
52259,5.42E-03,2.69E-02
52260,6.70E-03,2.79E-02
52261,6.62E-03,2.77E-02
52262,5.57E-03,2.03E-02
52263,5.16E-03,1.87E-02
52264,4.89E-03,1.87E-02
52265,5.49E-03,1.02E-02
52266,5.88E-03,1.15E-02
52267,6.11E-03,1.31E-02
52268,5.78E-03,1.40E-02
52269,5.47E-03,1.84E-02
52270,5.58E-03,1.84E-02
52271,5.46E-03,1.95E-02
52272,5.42E-03,1.98E-02
52273,5.16E-03,1.46E-02
52274,5.41E-03,1.49E-02
52275,5.62E-03,1.97E-02
52276,5.46E-03,1.91E-02
52277,5.36E-03,1.34E-02
52278,5.56E-03,1.33E-02
52279,5.42E-03,2.22E-02
52280,5.26E-03,2.20E-02
52281,5.68E-03,2.34E-02
52282,5.56E-03,2.35E-02
52283,5.32E-03,2.20E-02
52284,3.25E-03,2.16E-02
52285,4.29E-03,2.18E-02
52286,5.85E-03,1.65E-02
52287,5.70E-03,1.72E-02
52288,5.76E-03,1.71E-02
52289,5.63E-03,1.73E-02
52290,5.62E-03,1.71E-02
52291,5.58E-03,1.72E-02
52292,5.56E-03,1.70E-02
52293,5.05E-03,1.51E-02
52294,5.70E-03,1.45E-02
52295,5.66E-03,1.28E-02
52296,5.82E-03,1.22E-02
52297,3.92E-03,1.13E-02
52298,5.23E-03,1.15E-02
52299,6.25E-03,8.07E-03
52300,6.30E-03,7.92E-03
52301,6.16E-03,8.00E-03
52302,6.23E-03,1.13E-02
52303,4.09E-03,1.11E-02
52304,5.17E-03,1.11E-02
52305,4.97E-03,1.11E-02
52306,5.18E-03,1.11E-02
52307,5.43E-03,1.11E-02
52308,5.63E-03,1.10E-02
52309,5.41E-03,1.11E-02
52310,5.35E-03,1.09E-02
52311,5.29E-03,1.10E-02
52312,5.24E-03,1.17E-02
52313,5.18E-03,1.16E-02
52314,5.28E-03,1.21E-02
52315,5.11E-03,1.23E-02
52316,5.16E-03,1.22E-02
52317,5.04E-03,1.24E-02
52318,6.00E-03,1.36E-02
52319,5.62E-03,1.58E-02
52320,5.23E-03,1.75E-02
52321,5.78E-03,2.06E-02
52322,5.98E-03,2.36E-02
52323,5.31E-03,2.48E-02
52324,5.38E-03,2.61E-02
52325,7.38E-03,2.64E-02
52326,7.33E-03,2.67E-02
52327,6.69E-03,2.70E-02
52328,6.16E-03,2.67E-02
52329,5.04E-03,2.72E-02
52330,5.65E-03,2.63E-02
52331,5.57E-03,2.54E-02
52332,5.35E-03,2.47E-02
52333,5.34E-03,2.38E-02
52334,5.44E-03,2.33E-02
52335,5.35E-03,2.30E-02
52336,5.30E-03,2.23E-02
52337,5.32E-03,2.25E-02
52338,5.29E-03,2.20E-02
52339,5.24E-03,2.10E-02
52340,5.27E-03,1.92E-02
52341,5.33E-03,1.79E-02
52342,6.53E-03,1.66E-02
52343,5.73E-03,1.68E-02
52344,6.61E-03,1.63E-02
52345,6.33E-03,1.46E-02
52346,5.13E-03,1.33E-02
52347,5.45E-03,1.37E-02
52348,4.66E-03,1.22E-02
52349,4.79E-03,1.24E-02
52350,6.29E-03,9.79E-03
52351,5.25E-03,9.24E-03
52352,5.12E-03,9.13E-03
52353,5.60E-03,9.26E-03
52354,5.59E-03,8.95E-03
52355,5.01E-03,1.32E-02
52356,5.59E-03,1.28E-02
52357,5.70E-03,1.22E-02
52358,5.73E-03,1.20E-02
52359,5.75E-03,1.15E-02
52360,5.42E-03,1.03E-02
52361,6.54E-03,8.54E-03
52362,5.63E-03,2.25E-02
52363,5.69E-03,8.73E-03
52364,5.69E-03,8.79E-03
52365,5.50E-03,9.40E-03
52366,6.35E-03,1.56E-02
52367,5.62E-03,1.58E-02
52368,5.12E-03,1.62E-02
52369,5.24E-03,1.63E-02
52370,6.33E-03,1.13E-02
52371,5.32E-03,1.25E-02
52372,6.38E-03,1.24E-02
52373,7.03E-03,2.77E-02
52374,6.51E-03,2.80E-02
52375,4.92E-03,1.87E-02
52376,6.10E-03,1.40E-02
52377,6.13E-03,1.30E-02
52378,5.88E-03,2.66E-02
52379,5.32E-03,1.04E-02
52380,6.34E-03,1.11E-02
52381,5.91E-03,1.41E-02
52382,5.46E-03,1.84E-02
52383,5.63E-03,1.84E-02
52384,5.09E-03,1.45E-02
52385,5.07E-03,1.40E-02
52386,5.50E-03,1.93E-02
52387,5.40E-03,1.99E-02
52388,5.08E-03,1.46E-02
52389,5.28E-03,1.52E-02
52390,5.63E-03,2.00E-02
52391,5.34E-03,1.87E-02
52392,5.29E-03,1.38E-02
52393,5.48E-03,1.35E-02
52394,5.45E-03,2.25E-02
52395,5.15E-03,2.22E-02
52396,5.77E-03,2.35E-02
52397,5.66E-03,2.38E-02
52398,5.20E-03,1.50E-02
52399,5.15E-03,1.59E-02
52400,5.16E-03,1.61E-02
52401,4.80E-03,1.88E-02
52402,4.70E-03,1.88E-02
52403,5.77E-03,1.85E-02
52404,5.77E-03,1.84E-02
52405,4.81E-03,1.49E-02
52406,5.88E-03,1.17E-02
52407,5.93E-03,1.19E-02
52408,5.64E-03,1.12E-02
52409,5.10E-03,1.11E-02
52410,6.26E-03,7.85E-03
52411,5.44E-03,1.09E-02
52412,5.27E-03,1.17E-02
52413,5.79E-03,1.61E-02
52414,4.75E-03,1.70E-02
52415,5.35E-03,2.56E-02
52416,5.32E-03,2.53E-02
52417,5.43E-03,2.59E-02
52418,5.41E-03,2.35E-02
52419,5.20E-03,2.07E-02
52420,5.20E-03,1.88E-02
52421,5.06E-03,1.83E-02
52422,5.14E-03,1.80E-02
52423,4.88E-03,1.65E-02
52424,4.47E-03,1.33E-02
52425,4.96E-03,1.11E-02
52426,4.99E-03,1.10E-02
52427,5.00E-03,1.33E-02
52428,5.64E-03,1.25E-02
52429,6.31E-03,1.11E-02
52430,5.81E-03,9.12E-03
52431,5.61E-03,7.95E-03
52432,5.65E-03,8.24E-03
52433,4.87E-03,2.23E-02
52434,5.32E-03,9.72E-03
52435,6.38E-03,1.53E-02
52436,3.94E-03,1.60E-02
52437,4.65E-03,1.25E-02
52438,5.48E-03,1.83E-02
52439,5.62E-03,1.84E-02
52440,5.08E-03,1.37E-02
52441,5.57E-03,1.92E-02
52442,5.35E-03,2.01E-02
52443,4.89E-03,1.46E-02
52444,5.21E-03,1.55E-02
52445,5.25E-03,1.84E-02
52446,5.20E-03,1.41E-02
52447,5.43E-03,1.37E-02
52448,5.58E-03,2.29E-02
52449,5.09E-03,2.23E-02
52450,5.92E-03,2.35E-02
52451,5.84E-03,2.40E-02
52452,5.19E-03,1.47E-02
52453,6.10E-03,2.52E-02
52454,4.80E-03,2.04E-02
52455,6.13E-03,1.47E-02
52456,6.23E-03,1.13E-02
52457,5.34E-03,1.12E-02
52458,3.18E-03,1.10E-02
52459,3.16E-03,1.10E-02
52460,2.34E-03,1.09E-02
52461,5.16E-03,1.11E-02
52462,3.79E-03,1.20E-02
52463,3.25E-03,1.20E-02
52464,5.16E-03,1.85E-02
52465,4.64E-03,1.35E-02
52466,4.93E-03,2.21E-02
52467,5.24E-03,1.00E-02
52468,5.84E-03,1.77E-02
52469,5.91E-03,1.78E-02
52470,5.81E-03,1.80E-02
52471,5.65E-03,1.75E-02
52472,5.77E-03,2.50E-02
52473,5.55E-03,2.53E-02
52474,5.97E-03,2.72E-02
52475,5.28E-03,2.75E-02
52476,6.83E-03,2.73E-02
52477,5.95E-03,2.45E-02
52478,5.94E-03,2.43E-02
52479,5.16E-03,1.23E-02
52480,5.54E-03,1.83E-02
52481,5.54E-03,1.84E-02
52482,4.93E-03,1.33E-02
52483,5.34E-03,1.90E-02
52484,5.25E-03,2.02E-02
52485,5.11E-03,1.58E-02
52486,5.13E-03,1.81E-02
52487,5.31E-03,1.39E-02
52488,4.87E-03,2.23E-02
52489,4.65E-03,2.25E-02
52490,6.16E-03,2.36E-02
52491,3.23E-03,1.08E-02
52492,2.69E-03,1.09E-02
52493,5.40E-03,1.42E-02
52494,5.05E-03,1.40E-02
52495,3.86E-03,1.37E-02
52496,4.94E-03,2.19E-02
52497,5.04E-03,1.04E-02
52498,5.54E-03,1.73E-02
52499,5.14E-03,1.87E-02
52500,5.44E-03,1.85E-02
52501,5.39E-03,1.85E-02
52502,5.29E-03,1.85E-02
52503,5.41E-03,1.84E-02
52504,5.45E-03,1.84E-02
52505,4.57E-03,1.30E-02
52506,5.23E-03,1.87E-02
52507,5.14E-03,2.03E-02
52508,4.97E-03,1.61E-02
52509,4.99E-03,1.78E-02
52510,5.16E-03,1.40E-02
52511,6.26E-03,2.36E-02
52512,4.86E-03,2.17E-02
52513,5.44E-03,1.72E-02
52514,4.61E-03,1.10E-02
52515,4.49E-03,1.15E-02
52516,6.16E-03,2.60E-02
52517,6.13E-03,2.63E-02
52518,6.81E-03,2.74E-02
52519,5.44E-03,1.86E-02
52520,5.48E-03,1.83E-02
52521,5.40E-03,1.84E-02
52522,4.75E-03,1.27E-02
52523,5.07E-03,1.85E-02
52524,5.08E-03,2.04E-02
52525,4.85E-03,1.63E-02
52526,4.91E-03,1.75E-02
52527,4.99E-03,1.42E-02
52528,6.39E-03,2.36E-02
52529,6.50E-03,2.28E-02
52530,4.51E-03,2.23E-02
52531,5.26E-03,2.20E-02
52532,5.60E-03,2.22E-02
52533,5.38E-03,2.21E-02
52534,6.31E-03,2.24E-02
52535,4.88E-03,2.25E-02
52536,6.68E-03,2.26E-02
52537,6.05E-03,2.26E-02
52538,6.66E-03,2.28E-02
52539,5.84E-03,7.68E-03
52540,5.87E-03,7.66E-03
52541,4.69E-03,2.15E-02
52542,5.26E-03,1.52E-02
52543,5.37E-03,1.50E-02
52544,5.54E-03,1.47E-02
52545,6.15E-03,1.44E-02
52546,6.76E-03,1.41E-02
52547,5.40E-03,1.70E-02
52548,5.64E-03,1.43E-02
52549,5.74E-03,1.86E-02
52550,5.65E-03,1.81E-02
52551,5.32E-03,1.84E-02
52552,3.56E-03,1.25E-02
52553,4.25E-03,1.18E-02
52554,4.90E-03,1.83E-02
52555,4.94E-03,2.06E-02
52556,4.60E-03,1.66E-02
52557,4.80E-03,1.72E-02
52558,4.84E-03,1.43E-02
52559,6.49E-03,2.36E-02
52560,7.14E-03,2.30E-02
52561,4.55E-03,2.13E-02
52562,3.71E-03,2.16E-02
52563,5.61E-03,1.86E-02
52564,5.97E-03,1.80E-02
52565,5.28E-03,1.84E-02
52566,3.70E-03,1.22E-02
52567,4.09E-03,1.20E-02
52568,4.72E-03,1.81E-02
52569,4.80E-03,2.07E-02
52570,4.52E-03,1.68E-02
52571,4.67E-03,1.69E-02
52572,4.65E-03,1.44E-02
52573,6.61E-03,2.35E-02
52574,7.15E-03,2.31E-02
52575,4.54E-03,2.12E-02
52576,3.25E-03,2.15E-02
52577,5.48E-03,1.85E-02
52578,6.19E-03,1.78E-02
52579,5.23E-03,1.84E-02
52580,4.59E-03,1.79E-02
52581,4.67E-03,2.09E-02
52582,4.43E-03,1.71E-02
52583,4.39E-03,1.66E-02
52584,4.36E-03,1.44E-02
52585,6.83E-03,2.35E-02
52586,7.12E-03,2.33E-02
52587,4.96E-03,1.07E-02
52588,3.19E-03,1.05E-02
52589,4.55E-03,2.10E-02
52590,3.15E-03,2.15E-02
52591,5.40E-03,1.68E-02
52592,5.29E-03,1.85E-02
52593,6.35E-03,1.76E-02
52594,5.22E-03,1.85E-02
52595,4.43E-03,1.77E-02
52596,4.35E-03,1.73E-02
52597,4.24E-03,1.64E-02
52598,4.04E-03,1.45E-02
52599,6.89E-03,2.34E-02
52600,6.26E-03,1.08E-02
52601,5.51E-03,1.05E-02
52602,4.02E-03,2.13E-02
52603,5.55E-03,1.66E-02
52604,5.73E-03,1.81E-02
52605,5.77E-03,1.82E-02
52606,5.27E-03,1.85E-02
52607,6.29E-03,1.73E-02
52608,4.36E-03,1.75E-02
52609,4.24E-03,1.61E-02
52610,3.96E-03,1.46E-02
52611,7.88E-03,2.61E-02
52612,4.20E-03,2.12E-02
52613,5.71E-03,1.64E-02
52614,6.12E-03,1.71E-02
52615,4.42E-03,1.59E-02
52616,3.60E-03,1.46E-02
52617,6.83E-03,2.56E-02
52618,4.50E-03,2.11E-02
52619,5.29E-03,1.62E-02
52620,5.85E-03,1.69E-02
52621,4.53E-03,1.56E-02
52622,6.64E-03,2.50E-02
52623,4.61E-03,2.10E-02
52624,5.72E-03,1.66E-02
52625,4.58E-03,1.53E-02
52626,6.35E-03,2.45E-02
52627,4.73E-03,2.08E-02
52628,5.00E-03,1.57E-02
52629,4.74E-03,1.50E-02
52630,3.75E-03,1.46E-02
52631,3.98E-03,1.47E-02
52632,6.07E-03,2.41E-02
52633,5.35E-03,1.64E-02
52634,5.00E-03,1.62E-02
52635,4.21E-03,1.47E-02
52636,4.45E-03,1.47E-02
52637,5.27E-03,2.07E-02
52638,5.41E-03,2.05E-02
52639,4.99E-03,1.47E-02
52640,5.90E-03,2.36E-02
52641,5.15E-03,1.55E-02
52642,4.92E-03,1.60E-02
52643,5.11E-03,1.19E-02
52644,3.94E-03,1.16E-02
52645,4.72E-03,1.18E-02
52646,4.56E-03,1.20E-02
52647,5.51E-03,2.02E-02
52648,5.96E-03,9.57E-03
52649,5.70E-03,9.90E-03
52650,5.36E-03,1.20E-02
52651,5.58E-03,1.17E-02
52652,5.20E-03,1.22E-02
52653,5.80E-03,1.35E-02
52654,5.85E-03,1.33E-02
52655,5.80E-03,1.38E-02
52656,5.51E-03,1.84E-02
52657,5.42E-03,1.97E-02
52658,5.29E-03,1.48E-02
52659,5.51E-03,1.94E-02
52660,5.52E-03,1.34E-02
52661,5.40E-03,2.21E-02
52662,5.59E-03,2.35E-02
52663,5.63E-03,2.19E-02
52664,5.17E-03,1.48E-02
52665,5.21E-03,1.49E-02
52666,5.24E-03,1.52E-02
52667,5.18E-03,1.55E-02
52668,5.21E-03,1.54E-02
52669,5.18E-03,1.57E-02
52670,5.18E-03,1.56E-02
52671,5.15E-03,1.58E-02
52672,6.05E-03,1.67E-02
52673,5.97E-03,1.66E-02
52674,5.92E-03,1.69E-02
52675,6.00E-03,1.68E-02
52676,5.86E-03,1.70E-02
52677,5.65E-03,1.75E-02
52678,5.62E-03,1.74E-02
52679,5.66E-03,1.76E-02
52680,5.66E-03,1.76E-02
52681,5.60E-03,1.78E-02
52682,5.64E-03,1.77E-02
52683,5.47E-03,1.79E-02
52684,5.52E-03,1.79E-02
52685,5.42E-03,1.80E-02
52686,5.42E-03,1.80E-02
52687,5.49E-03,1.82E-02
52688,5.45E-03,1.81E-02
52689,5.60E-03,1.83E-02
52690,5.57E-03,1.82E-02
52691,5.62E-03,1.84E-02
52692,5.63E-03,1.83E-02
52693,5.51E-03,1.84E-02
52694,5.27E-03,1.86E-02
52695,4.86E-03,1.85E-02
52696,5.40E-03,1.86E-02
52697,4.91E-03,1.87E-02
52698,5.65E-03,1.87E-02
52699,5.34E-03,1.87E-02
52700,5.84E-03,1.87E-02
52701,5.78E-03,1.87E-02
52702,5.82E-03,1.86E-02
52703,5.84E-03,1.87E-02
52704,5.77E-03,1.86E-02
52705,5.81E-03,1.86E-02
52706,5.84E-03,1.85E-02
52707,5.69E-03,1.84E-02
52708,5.59E-03,1.83E-02
52709,5.62E-03,1.83E-02
52710,5.52E-03,1.82E-02
52711,5.50E-03,1.82E-02
52712,5.47E-03,1.80E-02
52713,5.55E-03,1.81E-02
52714,5.41E-03,1.79E-02
52715,5.45E-03,1.80E-02
52716,5.36E-03,1.77E-02
52717,5.39E-03,1.78E-02
52718,5.41E-03,1.76E-02
52719,5.38E-03,1.77E-02
52720,5.56E-03,1.74E-02
52721,5.45E-03,1.75E-02
52722,5.54E-03,1.73E-02
52723,5.54E-03,1.68E-02
52724,5.55E-03,1.69E-02
52725,5.61E-03,1.66E-02
52726,5.56E-03,1.67E-02
52727,6.80E-03,1.63E-02
52728,5.84E-03,1.65E-02
52729,5.93E-03,1.58E-02
52730,4.91E-03,1.60E-02
52731,5.62E-03,1.56E-02
52732,5.60E-03,1.57E-02
52733,5.45E-03,1.53E-02
52734,5.54E-03,1.55E-02
52735,5.30E-03,1.52E-02
52736,5.82E-03,1.42E-02
52737,5.80E-03,1.43E-02
52738,5.66E-03,1.39E-02
52739,5.76E-03,1.41E-02
52740,5.51E-03,1.36E-02
52741,5.61E-03,1.38E-02
52742,5.20E-03,1.34E-02
52743,5.40E-03,1.35E-02
52744,5.58E-03,1.29E-02
52745,5.80E-03,1.23E-02
52746,5.73E-03,1.16E-02
52747,5.42E-03,7.67E-03
52748,5.39E-03,7.66E-03
52749,5.97E-03,7.95E-03
52750,5.80E-03,7.93E-03
52751,6.07E-03,8.00E-03
52752,5.85E-03,8.14E-03
52753,6.02E-03,8.07E-03
52754,5.71E-03,8.27E-03
52755,5.77E-03,8.21E-03
52756,5.72E-03,8.40E-03
52757,5.65E-03,8.34E-03
52758,5.77E-03,8.53E-03
52759,5.79E-03,8.47E-03
52760,5.82E-03,8.63E-03
52761,5.78E-03,8.58E-03
52762,5.76E-03,8.68E-03
52763,5.98E-03,1.12E-02
52764,4.87E-03,1.11E-02
52765,5.28E-03,1.11E-02
52766,5.54E-03,1.10E-02
52767,5.57E-03,1.10E-02
52768,5.47E-03,1.11E-02
52769,5.25E-03,1.10E-02
52770,5.28E-03,1.10E-02
52771,5.11E-03,1.11E-02
52772,5.25E-03,1.11E-02
52773,5.02E-03,1.12E-02
52774,5.12E-03,1.11E-02
52775,5.10E-03,1.12E-02
52776,5.00E-03,1.12E-02
52777,5.32E-03,1.13E-02
52778,4.99E-03,1.16E-02
52779,4.88E-03,1.15E-02
52780,5.11E-03,1.16E-02
52781,5.22E-03,1.22E-02
52782,4.89E-03,1.24E-02
52783,5.82E-03,1.30E-02
52784,5.89E-03,1.29E-02
52785,5.60E-03,1.31E-02
52786,5.65E-03,1.31E-02
52787,5.86E-03,1.32E-02
52788,5.73E-03,1.32E-02
52789,5.32E-03,1.44E-02
52790,5.48E-03,1.51E-02
52791,5.29E-03,1.48E-02
52792,5.56E-03,1.55E-02
52793,5.35E-03,1.83E-02
52794,5.22E-03,1.79E-02
52795,5.46E-03,1.91E-02
52796,5.41E-03,1.87E-02
52797,5.50E-03,1.99E-02
52798,5.49E-03,1.95E-02
52799,5.46E-03,2.02E-02
52800,5.97E-03,2.21E-02
52801,6.85E-03,2.16E-02
52802,5.55E-03,2.29E-02
52803,5.76E-03,2.25E-02
52804,5.49E-03,2.32E-02
52805,4.43E-03,2.41E-02
52806,5.06E-03,2.45E-02
52807,5.73E-03,2.64E-02
52808,3.44E-03,2.69E-02
52809,4.09E-03,2.71E-02
52810,3.73E-03,2.69E-02
52811,5.05E-03,2.59E-02
52812,4.95E-03,2.61E-02
52813,5.28E-03,2.57E-02
52814,5.33E-03,2.42E-02
52815,5.31E-03,2.45E-02
52816,5.36E-03,2.40E-02
52817,5.34E-03,2.28E-02
52818,5.23E-03,2.15E-02
52819,5.24E-03,2.17E-02
52820,5.23E-03,2.13E-02
52821,5.21E-03,1.94E-02
52822,5.53E-03,1.74E-02
52823,5.43E-03,1.76E-02
52824,5.66E-03,1.71E-02
52825,5.82E-03,1.57E-02
52826,5.97E-03,1.60E-02
52827,5.58E-03,1.55E-02
52828,4.57E-03,1.50E-02
52829,6.72E-03,1.48E-02
52830,3.91E-03,1.39E-02
52831,5.10E-03,1.28E-02
52832,5.43E-03,1.29E-02
52833,4.91E-03,1.26E-02
52834,4.83E-03,1.16E-02
52835,4.87E-03,1.17E-02
52836,4.96E-03,1.13E-02
52837,4.94E-03,1.15E-02
52838,4.98E-03,1.12E-02
52839,4.96E-03,1.08E-02
52840,5.05E-03,1.06E-02
52841,5.06E-03,1.07E-02
52842,5.13E-03,1.04E-02
52843,5.09E-03,1.05E-02
52844,5.16E-03,1.01E-02
52845,5.16E-03,1.02E-02
52846,5.37E-03,9.89E-03
52847,5.46E-03,9.99E-03
52848,5.86E-03,9.85E-03
52849,7.18E-03,9.38E-03
52850,5.65E-03,9.31E-03
52851,6.88E-03,9.33E-03
52852,5.37E-03,8.98E-03
52853,5.23E-03,9.05E-03
52854,5.56E-03,8.83E-03
52855,5.44E-03,8.90E-03
52856,5.51E-03,8.66E-03
52857,5.56E-03,8.75E-03
52858,5.38E-03,1.30E-02
52859,5.74E-03,1.17E-02
52860,5.57E-03,9.97E-03
52861,5.97E-03,8.83E-03
52862,6.05E-03,2.26E-02
52863,5.67E-03,8.86E-03
52864,5.62E-03,9.13E-03
52865,5.73E-03,1.07E-02
52866,5.33E-03,1.07E-02
52867,6.19E-03,1.57E-02
52868,5.58E-03,1.65E-02
52869,5.33E-03,1.64E-02
52870,6.54E-03,1.12E-02
52871,4.62E-03,1.21E-02
52872,5.95E-03,2.82E-02
52873,6.08E-03,2.80E-02
52874,4.90E-03,1.87E-02
52875,4.08E-03,1.99E-02
52876,6.37E-03,1.50E-02
52877,6.49E-03,1.48E-02
52878,6.04E-03,1.31E-02
52879,6.17E-03,1.35E-02
52880,3.37E-03,1.31E-02
52881,4.81E-03,1.29E-02
52882,5.61E-03,2.70E-02
52883,5.63E-03,2.68E-02
52884,5.63E-03,1.02E-02
52885,5.83E-03,1.14E-02
52886,6.29E-03,1.30E-02
52887,5.95E-03,1.39E-02
52888,5.50E-03,1.84E-02
52889,5.57E-03,1.84E-02
52890,5.15E-03,1.47E-02
52891,5.10E-03,1.42E-02
52892,5.46E-03,1.95E-02
52893,5.40E-03,1.98E-02
52894,5.18E-03,1.48E-02
52895,5.36E-03,1.51E-02
52896,5.62E-03,1.97E-02
52897,5.44E-03,1.91E-02
52898,5.37E-03,1.37E-02
52899,5.52E-03,1.36E-02
52900,5.45E-03,2.25E-02
52901,5.25E-03,2.23E-02
52902,5.69E-03,2.36E-02
52903,5.70E-03,2.37E-02
52904,5.10E-03,2.22E-02
52905,5.07E-03,1.60E-02
52906,5.88E-03,1.67E-02
52907,5.75E-03,1.74E-02
52908,5.73E-03,1.73E-02
52909,5.64E-03,1.75E-02
52910,5.42E-03,1.86E-02
52911,5.45E-03,1.86E-02
52912,5.37E-03,1.86E-02
52913,5.16E-03,1.88E-02
52914,5.72E-03,1.84E-02
52915,5.52E-03,1.70E-02
52916,5.56E-03,1.71E-02
52917,5.55E-03,1.69E-02
52918,5.08E-03,1.50E-02
52919,5.29E-03,1.45E-02
52920,5.45E-03,1.44E-02
52921,5.70E-03,1.27E-02
52922,5.99E-03,1.20E-02
52923,4.78E-03,1.12E-02
52924,5.19E-03,1.14E-02
52925,5.41E-03,7.66E-03
52926,6.21E-03,7.78E-03
52927,6.20E-03,7.63E-03
52928,6.09E-03,7.71E-03
52929,6.27E-03,1.10E-02
52930,7.40E-03,1.11E-02
52931,4.15E-03,1.09E-02
52932,5.13E-03,1.09E-02
52933,4.99E-03,1.09E-02
52934,5.14E-03,1.09E-02
52935,5.27E-03,1.09E-02
52936,5.62E-03,1.07E-02
52937,5.44E-03,1.09E-02
52938,5.42E-03,1.07E-02
52939,5.36E-03,1.07E-02
52940,4.48E-03,1.10E-02
52941,5.21E-03,1.14E-02
52942,5.10E-03,1.14E-02
52943,5.05E-03,1.20E-02
52944,5.26E-03,1.18E-02
52945,4.96E-03,1.20E-02
52946,5.04E-03,1.22E-02
52947,5.64E-03,1.58E-02
52948,5.20E-03,1.74E-02
52949,6.13E-03,2.06E-02
52950,4.16E-03,2.43E-02
52951,5.20E-03,2.50E-02
52952,5.49E-03,2.63E-02
52953,5.84E-03,2.69E-02
52954,5.21E-03,2.48E-02
52955,5.46E-03,2.38E-02
52956,5.40E-03,2.32E-02
52957,5.30E-03,2.30E-02
52958,5.30E-03,2.10E-02
52959,5.20E-03,1.91E-02
52960,5.28E-03,1.78E-02
52961,5.40E-03,1.67E-02
52962,4.65E-03,1.62E-02
52963,6.21E-03,1.60E-02
52964,5.16E-03,1.35E-02
52965,4.73E-03,1.21E-02
52966,4.37E-03,1.15E-02
52967,5.01E-03,1.06E-02
52968,6.10E-03,9.49E-03
52969,5.19E-03,8.94E-03
52970,5.24E-03,9.02E-03
52971,5.19E-03,8.86E-03
52972,5.03E-03,1.31E-02
52973,5.54E-03,1.27E-02
52974,5.63E-03,1.22E-02
52975,5.68E-03,1.19E-02
52976,5.90E-03,1.14E-02
52977,5.47E-03,1.02E-02
52978,5.81E-03,9.09E-03
52979,5.61E-03,8.51E-03
52980,5.28E-03,2.23E-02
52981,5.53E-03,2.24E-02
52982,5.47E-03,9.47E-03
52983,6.23E-03,1.54E-02
52984,5.54E-03,1.58E-02
52985,5.73E-03,1.57E-02
52986,5.91E-03,2.56E-02
52987,5.25E-03,1.24E-02
52988,6.26E-03,1.41E-02
52989,5.19E-03,1.87E-02
52990,5.72E-03,1.88E-02
52991,5.44E-03,1.84E-02
52992,5.64E-03,1.84E-02
52993,5.11E-03,1.38E-02
52994,5.53E-03,1.93E-02
52995,5.38E-03,1.99E-02
52996,5.08E-03,1.47E-02
52997,5.29E-03,1.54E-02
52998,5.62E-03,2.00E-02
52999,5.37E-03,1.87E-02
53000,5.28E-03,1.40E-02
53001,5.49E-03,1.38E-02
53002,5.59E-03,2.28E-02
53003,5.26E-03,2.24E-02
53004,5.86E-03,2.36E-02
53005,5.84E-03,2.39E-02
53006,5.97E-03,2.23E-02
53007,5.13E-03,1.48E-02
53008,5.64E-03,1.16E-02
53009,5.71E-03,1.18E-02
53010,6.17E-03,7.56E-03
53011,5.48E-03,1.07E-02
53012,5.28E-03,1.14E-02
53013,5.36E-03,2.58E-02
53014,5.30E-03,2.54E-02
53015,5.45E-03,2.61E-02
53016,7.12E-03,2.81E-02
53017,6.54E-03,2.84E-02
53018,5.83E-03,2.55E-02
53019,4.35E-03,2.52E-02
53020,5.59E-03,2.35E-02
53021,5.35E-03,2.25E-02
53022,5.32E-03,2.22E-02
53023,5.31E-03,2.06E-02
53024,5.22E-03,1.87E-02
53025,5.08E-03,1.82E-02
53026,4.98E-03,1.79E-02
53027,4.34E-03,1.64E-02
53028,3.44E-03,1.33E-02
53029,4.93E-03,1.33E-02
53030,5.53E-03,1.24E-02
53031,6.46E-03,1.11E-02
53032,5.72E-03,9.66E-03
53033,5.07E-03,2.21E-02
53034,4.22E-03,2.22E-02
53035,5.65E-03,8.59E-03
53036,5.75E-03,8.92E-03
53037,5.65E-03,8.65E-03
53038,5.56E-03,9.79E-03
53039,5.93E-03,1.78E-02
53040,5.83E-03,1.79E-02
53041,5.67E-03,1.75E-02
53042,6.26E-03,1.51E-02
53043,5.46E-03,2.52E-02
53044,3.64E-03,2.77E-02
53045,4.36E-03,2.75E-02
53046,5.90E-03,2.47E-02
53047,5.45E-03,2.74E-02
53048,4.86E-03,2.77E-02
53049,5.91E-03,2.44E-02
53050,5.80E-03,1.24E-02
53051,5.56E-03,1.22E-02
53052,5.51E-03,8.38E-03
53053,5.56E-03,8.56E-03
53054,5.53E-03,8.28E-03
53055,5.10E-03,1.87E-02
53056,4.70E-03,1.86E-02
53057,5.56E-03,1.83E-02
53058,5.56E-03,1.84E-02
53059,5.00E-03,1.35E-02
53060,5.48E-03,1.91E-02
53061,5.30E-03,2.00E-02
53062,4.89E-03,1.47E-02
53063,5.20E-03,1.57E-02
53064,5.26E-03,1.84E-02
53065,5.18E-03,1.44E-02
53066,5.39E-03,1.40E-02
53067,5.75E-03,2.32E-02
53068,5.26E-03,2.26E-02
53069,6.02E-03,2.37E-02
53070,5.87E-03,2.42E-02
53071,6.11E-03,2.24E-02
53072,5.07E-03,1.63E-02
53073,4.97E-03,1.64E-02
53074,5.07E-03,1.46E-02
53075,5.58E-03,1.08E-02
53076,6.27E-03,1.39E-02
53077,5.02E-03,1.84E-02
53078,5.75E-03,1.44E-02
53079,4.82E-03,1.35E-02
53080,4.99E-03,2.19E-02
53081,4.83E-03,2.21E-02
53082,5.89E-03,1.01E-02
53083,5.53E-03,1.74E-02
53084,5.22E-03,1.87E-02
53085,5.36E-03,1.85E-02
53086,5.58E-03,1.82E-02
53087,5.51E-03,1.84E-02
53088,4.84E-03,1.32E-02
53089,5.30E-03,1.89E-02
53090,5.25E-03,2.02E-02
53091,5.10E-03,1.59E-02
53092,5.11E-03,1.81E-02
53093,5.27E-03,1.41E-02
53094,3.84E-03,2.25E-02
53095,5.07E-03,2.27E-02
53096,6.17E-03,2.37E-02
53097,6.91E-03,2.26E-02
53098,5.59E-03,1.28E-02
53099,5.87E-03,1.27E-02
53100,4.15E-03,2.75E-02
53101,4.00E-03,1.37E-02
53102,4.93E-03,2.17E-02
53103,4.91E-03,2.19E-02
53104,5.46E-03,1.72E-02
53105,4.64E-03,1.07E-02
53106,4.57E-03,1.13E-02
53107,6.24E-03,2.61E-02
53108,5.97E-03,2.65E-02
53109,6.12E-03,2.73E-02
53110,5.36E-03,1.86E-02
53111,5.41E-03,1.83E-02
53112,5.41E-03,1.84E-02
53113,4.46E-03,1.29E-02
53114,5.19E-03,1.87E-02
53115,5.16E-03,2.03E-02
53116,4.88E-03,1.62E-02
53117,4.98E-03,1.78E-02
53118,5.15E-03,1.43E-02
53119,6.31E-03,2.37E-02
53120,6.60E-03,2.28E-02
53121,6.09E-03,7.37E-03
53122,6.47E-03,7.35E-03
53123,4.80E-03,2.15E-02
53124,4.83E-03,2.18E-02
53125,5.29E-03,1.51E-02
53126,5.18E-03,1.48E-02
53127,5.59E-03,1.46E-02
53128,6.42E-03,1.42E-02
53129,7.46E-03,1.39E-02
53130,5.39E-03,1.71E-02
53131,8.22E-03,2.79E-02
53132,5.56E-03,1.86E-02
53133,5.58E-03,1.82E-02
53134,5.39E-03,1.84E-02
53135,4.18E-03,1.26E-02
53136,4.41E-03,1.16E-02
53137,5.01E-03,1.85E-02
53138,5.05E-03,2.04E-02
53139,4.80E-03,1.65E-02
53140,4.89E-03,1.75E-02
53141,4.97E-03,1.44E-02
53142,6.44E-03,2.37E-02
53143,6.81E-03,2.30E-02
53144,4.65E-03,2.13E-02
53145,4.20E-03,2.16E-02
53146,5.64E-03,1.85E-02
53147,5.86E-03,1.80E-02
53148,5.33E-03,1.84E-02
53149,3.96E-03,1.23E-02
53150,4.31E-03,1.18E-02
53151,4.83E-03,1.83E-02
53152,4.92E-03,2.06E-02
53153,4.63E-03,1.67E-02
53154,4.75E-03,1.72E-02
53155,4.78E-03,1.45E-02
53156,6.55E-03,2.37E-02
53157,7.04E-03,2.32E-02
53158,4.54E-03,2.11E-02
53159,3.34E-03,2.14E-02
53160,5.57E-03,1.85E-02
53161,6.01E-03,1.79E-02
53162,5.30E-03,1.84E-02
53163,4.12E-03,1.21E-02
53164,4.66E-03,1.81E-02
53165,4.78E-03,2.07E-02
53166,4.53E-03,1.70E-02
53167,4.56E-03,1.69E-02
53168,4.57E-03,1.46E-02
53169,6.65E-03,2.36E-02
53170,7.06E-03,2.33E-02
53171,4.38E-03,1.05E-02
53172,3.47E-03,1.04E-02
53173,4.53E-03,2.10E-02
53174,3.35E-03,2.14E-02
53175,5.45E-03,1.69E-02
53176,5.40E-03,1.85E-02
53177,6.22E-03,1.77E-02
53178,5.25E-03,1.84E-02
53179,4.55E-03,1.78E-02
53180,4.65E-03,2.08E-02
53181,4.40E-03,1.72E-02
53182,4.23E-03,1.67E-02
53183,4.24E-03,1.46E-02
53184,8.08E-03,2.71E-02
53185,6.76E-03,2.35E-02
53186,6.93E-03,2.34E-02
53187,5.96E-03,1.08E-02
53188,5.89E-03,1.05E-02
53189,4.36E-03,2.13E-02
53190,5.49E-03,1.67E-02
53191,5.57E-03,1.80E-02
53192,5.74E-03,1.81E-02
53193,5.34E-03,1.85E-02
53194,6.23E-03,1.74E-02
53195,5.26E-03,1.84E-02
53196,4.41E-03,1.76E-02
53197,4.33E-03,1.74E-02
53198,4.22E-03,1.64E-02
53199,3.86E-03,1.47E-02
53200,7.51E-03,2.65E-02
53201,4.20E-03,2.11E-02
53202,5.60E-03,1.65E-02
53203,6.17E-03,1.72E-02
53204,4.39E-03,1.61E-02
53205,3.88E-03,1.47E-02
53206,7.28E-03,2.59E-02
53207,4.40E-03,2.10E-02
53208,5.74E-03,1.62E-02
53209,6.03E-03,1.70E-02
53210,4.51E-03,1.58E-02
53211,6.82E-03,2.54E-02
53212,4.54E-03,2.09E-02
53213,5.71E-03,1.68E-02
53214,4.55E-03,1.56E-02
53215,6.42E-03,2.49E-02
53216,4.76E-03,2.08E-02
53217,4.97E-03,1.58E-02
53218,4.74E-03,1.53E-02
53219,3.79E-03,1.48E-02
53220,3.87E-03,1.48E-02
53221,6.33E-03,2.44E-02
53222,5.43E-03,1.65E-02
53223,5.19E-03,1.63E-02
53224,4.29E-03,1.49E-02
53225,4.38E-03,1.49E-02
53226,5.04E-03,2.06E-02
53227,5.27E-03,2.04E-02
53228,4.91E-03,1.50E-02
53229,6.04E-03,2.39E-02
53230,5.03E-03,1.56E-02
53231,5.01E-03,1.61E-02
53232,5.48E-03,2.02E-02
53233,5.96E-03,1.60E-02
53234,3.97E-03,1.07E-02
53235,4.06E-03,1.07E-02
53236,4.37E-03,1.05E-02
53237,5.54E-03,9.14E-03
53238,5.54E-03,8.86E-03
53239,4.96E-03,9.65E-03
53240,5.32E-03,9.39E-03
53241,5.24E-03,9.93E-03
53242,5.48E-03,1.19E-02
53243,5.69E-03,1.17E-02
53244,5.31E-03,1.21E-02
53245,5.87E-03,1.35E-02
53246,5.94E-03,1.32E-02
53247,5.94E-03,1.37E-02
53248,5.54E-03,1.84E-02
53249,5.17E-03,1.46E-02
53250,5.13E-03,1.44E-02
53251,5.40E-03,1.96E-02
53252,5.32E-03,1.49E-02
53253,5.54E-03,1.94E-02
53254,5.49E-03,1.36E-02
53255,5.40E-03,2.24E-02
53256,5.66E-03,2.36E-02
53257,5.84E-03,2.22E-02
53258,5.18E-03,1.48E-02
53259,5.22E-03,1.50E-02
53260,5.24E-03,1.49E-02
53261,5.22E-03,1.52E-02
53262,5.26E-03,1.51E-02
53263,5.28E-03,1.54E-02
53264,5.20E-03,1.57E-02
53265,5.27E-03,1.55E-02
53266,5.16E-03,1.59E-02
53267,5.17E-03,1.58E-02
53268,5.11E-03,1.60E-02
53269,6.16E-03,1.69E-02
53270,6.11E-03,1.68E-02
53271,6.01E-03,1.71E-02
53272,6.06E-03,1.70E-02
53273,5.93E-03,1.72E-02
53274,5.66E-03,1.76E-02
53275,5.61E-03,1.75E-02
53276,5.64E-03,1.78E-02
53277,5.65E-03,1.77E-02
53278,5.57E-03,1.79E-02
53279,5.59E-03,1.79E-02
53280,5.47E-03,1.80E-02
53281,5.53E-03,1.80E-02
53282,5.52E-03,1.82E-02
53283,5.50E-03,1.81E-02
53284,5.51E-03,1.83E-02
53285,5.49E-03,1.82E-02
53286,5.58E-03,1.84E-02
53287,5.56E-03,1.83E-02
53288,5.52E-03,1.85E-02
53289,5.58E-03,1.84E-02
53290,5.45E-03,1.85E-02
53291,5.63E-03,1.87E-02
53292,5.12E-03,1.87E-02
53293,5.50E-03,1.88E-02
53294,5.30E-03,1.88E-02
53295,5.77E-03,1.87E-02
53296,5.69E-03,1.87E-02
53297,5.83E-03,1.87E-02
53298,5.81E-03,1.87E-02
53299,5.77E-03,1.86E-02
53300,5.81E-03,1.86E-02
53301,5.80E-03,1.85E-02
53302,5.59E-03,1.83E-02
53303,5.65E-03,1.83E-02
53304,5.47E-03,1.82E-02
53305,5.48E-03,1.82E-02
53306,5.44E-03,1.80E-02
53307,5.47E-03,1.81E-02
53308,5.39E-03,1.79E-02
53309,5.45E-03,1.79E-02
53310,5.41E-03,1.77E-02
53311,5.39E-03,1.78E-02
53312,5.43E-03,1.75E-02
53313,5.42E-03,1.76E-02
53314,5.60E-03,1.73E-02
53315,5.50E-03,1.74E-02
53316,5.63E-03,1.72E-02
53317,5.56E-03,1.67E-02
53318,5.59E-03,1.68E-02
53319,5.65E-03,1.65E-02
53320,5.57E-03,1.66E-02
53321,6.06E-03,1.63E-02
53322,5.79E-03,1.64E-02
53323,5.46E-03,1.60E-02
53324,6.02E-03,1.61E-02
53325,5.58E-03,1.58E-02
53326,5.64E-03,1.59E-02
53327,5.59E-03,1.55E-02
53328,5.68E-03,1.56E-02
53329,5.49E-03,1.52E-02
53330,5.55E-03,1.54E-02
53331,5.31E-03,1.51E-02
53332,5.70E-03,1.41E-02
53333,5.54E-03,1.42E-02
53334,5.66E-03,1.38E-02
53335,5.74E-03,1.40E-02
53336,5.59E-03,1.35E-02
53337,5.64E-03,1.37E-02
53338,5.61E-03,1.33E-02
53339,5.49E-03,1.34E-02
53340,6.29E-03,1.30E-02
53341,6.32E-03,1.31E-02
53342,5.75E-03,1.28E-02
53343,5.73E-03,1.22E-02
53344,5.44E-03,1.15E-02
53345,5.45E-03,7.65E-03
53346,5.39E-03,7.37E-03
53347,5.35E-03,7.40E-03
53348,5.34E-03,7.38E-03
53349,5.36E-03,7.40E-03
53350,6.03E-03,7.67E-03
53351,5.91E-03,7.65E-03
53352,6.12E-03,7.72E-03
53353,5.90E-03,7.85E-03
53354,6.00E-03,7.78E-03
53355,5.68E-03,8.00E-03
53356,5.78E-03,7.93E-03
53357,5.71E-03,8.12E-03
53358,5.60E-03,8.06E-03
53359,5.77E-03,8.25E-03
53360,5.76E-03,8.19E-03
53361,5.89E-03,8.36E-03
53362,5.83E-03,8.30E-03
53363,5.72E-03,8.47E-03
53364,5.81E-03,8.41E-03
53365,5.72E-03,8.53E-03
53366,6.64E-03,1.10E-02
53367,4.83E-03,1.09E-02
53368,5.21E-03,1.09E-02
53369,5.60E-03,1.08E-02
53370,5.61E-03,1.08E-02
53371,5.52E-03,1.08E-02
53372,5.29E-03,1.08E-02
53373,5.31E-03,1.08E-02
53374,5.14E-03,1.08E-02
53375,5.22E-03,1.08E-02
53376,5.06E-03,1.09E-02
53377,5.10E-03,1.09E-02
53378,5.01E-03,1.10E-02
53379,5.00E-03,1.09E-02
53380,5.01E-03,1.10E-02
53381,3.88E-03,1.11E-02
53382,4.96E-03,1.13E-02
53383,4.34E-03,1.13E-02
53384,5.03E-03,1.13E-02
53385,5.17E-03,1.19E-02
53386,5.21E-03,1.18E-02
53387,4.73E-03,1.21E-02
53388,5.81E-03,1.26E-02
53389,6.40E-03,1.25E-02
53390,5.44E-03,1.28E-02
53391,5.58E-03,1.27E-02
53392,5.50E-03,1.28E-02
53393,4.09E-03,1.43E-02
53394,5.30E-03,1.50E-02
53395,4.89E-03,1.47E-02
53396,5.53E-03,1.54E-02
53397,5.42E-03,1.82E-02
53398,5.37E-03,1.78E-02
53399,5.52E-03,1.90E-02
53400,5.44E-03,1.86E-02
53401,5.62E-03,1.98E-02
53402,5.60E-03,1.94E-02
53403,5.76E-03,2.02E-02
53404,5.39E-03,2.20E-02
53405,4.85E-03,2.16E-02
53406,5.42E-03,2.28E-02
53407,5.41E-03,2.24E-02
53408,5.53E-03,2.32E-02
53409,5.00E-03,2.46E-02
53410,5.66E-03,2.66E-02
53411,4.32E-03,2.70E-02
53412,4.48E-03,2.72E-02
53413,4.44E-03,2.69E-02
53414,4.27E-03,2.64E-02
53415,5.04E-03,2.60E-02
53416,4.87E-03,2.62E-02
53417,5.21E-03,2.57E-02
53418,5.41E-03,2.42E-02
53419,5.37E-03,2.45E-02
53420,5.49E-03,2.40E-02
53421,5.34E-03,2.27E-02
53422,5.28E-03,2.20E-02
53423,5.28E-03,2.14E-02
53424,5.28E-03,2.17E-02
53425,5.27E-03,2.12E-02
53426,5.07E-03,1.93E-02
53427,5.49E-03,1.72E-02
53428,5.39E-03,1.75E-02
53429,5.51E-03,1.70E-02
53430,5.51E-03,1.56E-02
53431,5.72E-03,1.58E-02
53432,5.37E-03,1.51E-02
53433,5.37E-03,1.53E-02
53434,4.04E-03,1.47E-02
53435,4.21E-03,1.49E-02
53436,5.34E-03,1.45E-02
53437,4.81E-03,1.37E-02
53438,4.03E-03,1.27E-02
53439,4.93E-03,1.25E-02
53440,4.53E-03,1.26E-02
53441,4.88E-03,1.23E-02
53442,4.85E-03,1.13E-02
53443,4.82E-03,1.14E-02
53444,4.91E-03,1.11E-02
53445,4.90E-03,1.12E-02
53446,4.95E-03,1.09E-02
53447,5.06E-03,1.03E-02
53448,5.07E-03,1.04E-02
53449,5.17E-03,1.01E-02
53450,5.13E-03,1.02E-02
53451,5.26E-03,9.85E-03
53452,5.17E-03,9.96E-03
53453,5.04E-03,9.62E-03
53454,4.95E-03,9.72E-03
53455,5.66E-03,9.55E-03
53456,4.91E-03,9.04E-03
53457,5.31E-03,8.69E-03
53458,5.25E-03,8.77E-03
53459,5.47E-03,8.53E-03
53460,5.39E-03,8.61E-03
53461,5.52E-03,8.46E-03
53462,5.33E-03,1.29E-02
53463,5.75E-03,1.17E-02
53464,5.62E-03,9.94E-03
53465,5.79E-03,8.80E-03
53466,5.52E-03,2.24E-02
53467,5.57E-03,9.20E-03
53468,5.63E-03,8.21E-03
53469,5.52E-03,7.93E-03
53470,5.63E-03,1.05E-02
53471,5.89E-03,1.05E-02
53472,6.05E-03,1.56E-02
53473,5.03E-03,1.65E-02
53474,5.45E-03,1.67E-02
53475,5.08E-03,1.65E-02
53476,5.58E-03,2.55E-02
53477,5.62E-03,1.04E-02
53478,5.60E-03,1.13E-02
53479,5.61E-03,1.23E-02
53480,5.96E-03,1.29E-02
53481,6.18E-03,1.38E-02
53482,6.15E-03,1.88E-02
53483,5.08E-03,1.88E-02
53484,5.36E-03,1.88E-02
53485,5.98E-03,1.87E-02
53486,4.92E-03,1.87E-02
53487,5.48E-03,1.84E-02
53488,5.60E-03,1.84E-02
53489,5.17E-03,1.40E-02
53490,5.49E-03,1.95E-02
53491,5.43E-03,1.98E-02
53492,5.26E-03,1.49E-02
53493,5.32E-03,1.52E-02
53494,5.65E-03,1.97E-02
53495,5.46E-03,1.90E-02
53496,5.34E-03,1.40E-02
53497,5.51E-03,1.38E-02
53498,5.52E-03,2.27E-02
53499,5.35E-03,2.25E-02
53500,5.82E-03,2.37E-02
53501,5.76E-03,2.39E-02
53502,5.43E-03,2.24E-02
53503,6.22E-03,2.23E-02
53504,5.18E-03,1.44E-02
53505,5.24E-03,1.46E-02
53506,5.10E-03,1.62E-02
53507,5.92E-03,1.68E-02
53508,5.43E-03,1.87E-02
53509,5.45E-03,1.87E-02
53510,5.52E-03,1.87E-02
53511,5.59E-03,1.70E-02
53512,5.64E-03,1.71E-02
53513,5.57E-03,1.69E-02
53514,5.34E-03,1.49E-02
53515,5.05E-03,1.44E-02
53516,5.14E-03,1.43E-02
53517,5.55E-03,1.26E-02
53518,5.79E-03,1.19E-02
53519,6.18E-03,1.11E-02
53520,5.18E-03,1.13E-02
53521,6.17E-03,7.49E-03
53522,6.16E-03,7.35E-03
53523,6.06E-03,7.42E-03
53524,5.29E-03,1.08E-02
53525,5.16E-03,1.07E-02
53526,5.11E-03,1.07E-02
53527,5.15E-03,1.07E-02
53528,5.08E-03,1.07E-02
53529,5.68E-03,1.05E-02
53530,5.48E-03,1.06E-02
53531,5.45E-03,1.05E-02
53532,5.42E-03,1.05E-02
53533,4.30E-03,1.08E-02
53534,5.91E-03,1.08E-02
53535,5.20E-03,1.11E-02
53536,5.10E-03,1.11E-02
53537,5.26E-03,1.15E-02
53538,5.04E-03,1.16E-02
53539,4.92E-03,1.17E-02
53540,3.67E-03,1.18E-02
53541,4.70E-03,1.18E-02
53542,4.29E-03,1.20E-02
53543,5.67E-03,1.57E-02
53544,5.47E-03,1.69E-02
53545,5.38E-03,1.73E-02
53546,5.17E-03,2.51E-02
53547,5.55E-03,2.65E-02
53548,5.66E-03,2.71E-02
53549,7.58E-03,2.83E-02
53550,5.53E-03,2.84E-02
53551,4.86E-03,2.81E-02
53552,4.37E-03,2.64E-02
53553,4.21E-03,2.54E-02
53554,5.44E-03,2.56E-02
53555,3.85E-03,2.52E-02
53556,5.13E-03,2.50E-02
53557,5.30E-03,2.48E-02
53558,5.53E-03,2.37E-02
53559,5.18E-03,2.32E-02
53560,5.20E-03,2.29E-02
53561,5.26E-03,2.22E-02
53562,5.28E-03,2.24E-02
53563,5.25E-03,2.19E-02
53564,5.38E-03,2.09E-02
53565,5.84E-03,2.03E-02
53566,5.21E-03,1.99E-02
53567,5.19E-03,1.90E-02
53568,5.10E-03,1.76E-02
53569,5.22E-03,1.66E-02
53570,4.80E-03,1.60E-02
53571,5.18E-03,1.58E-02
53572,4.63E-03,1.34E-02
53573,4.52E-03,1.13E-02
53574,5.83E-03,9.19E-03
53575,5.07E-03,8.63E-03
53576,4.91E-03,8.69E-03
53577,5.19E-03,8.56E-03
53578,5.16E-03,1.31E-02
53579,5.38E-03,1.26E-02
53580,5.48E-03,1.21E-02
53581,5.57E-03,1.19E-02
53582,5.93E-03,1.14E-02
53583,5.59E-03,1.02E-02
53584,5.75E-03,9.64E-03
53585,5.73E-03,9.06E-03
53586,5.65E-03,8.49E-03
53587,5.20E-03,2.22E-02
53588,5.31E-03,2.22E-02
53589,6.06E-03,1.48E-02
53590,6.15E-03,1.47E-02
53591,6.19E-03,8.72E-03
53592,5.78E-03,9.00E-03
53593,5.60E-03,9.54E-03
53594,6.05E-03,1.78E-02
53595,5.68E-03,1.76E-02
53596,5.43E-03,7.35E-03
53597,5.47E-03,7.63E-03
53598,6.18E-03,1.53E-02
53599,6.79E-03,1.57E-02
53600,6.18E-03,1.56E-02
53601,4.53E-03,2.53E-02
53602,3.35E-03,2.79E-02
53603,5.80E-03,2.49E-02
53604,4.29E-03,2.79E-02
53605,5.88E-03,2.46E-02
53606,6.48E-03,1.08E-02
53607,6.67E-03,1.08E-02
53608,6.16E-03,2.58E-02
53609,5.01E-03,1.22E-02
53610,5.44E-03,8.09E-03
53611,5.39E-03,8.01E-03
53612,5.55E-03,8.47E-03
53613,5.66E-03,8.18E-03
53614,7.37E-03,1.40E-02
53615,5.63E-03,1.87E-02
53616,4.96E-03,1.86E-02
53617,5.50E-03,1.83E-02
53618,5.62E-03,1.84E-02
53619,5.10E-03,1.37E-02
53620,5.49E-03,1.93E-02
53621,5.36E-03,1.99E-02
53622,4.99E-03,1.49E-02
53623,5.29E-03,1.55E-02
53624,5.59E-03,1.99E-02
53625,5.38E-03,1.87E-02
53626,5.27E-03,1.43E-02
53627,5.42E-03,1.40E-02
53628,5.66E-03,2.31E-02
53629,5.55E-03,2.27E-02
53630,5.94E-03,2.38E-02
53631,5.78E-03,2.41E-02
53632,6.00E-03,2.25E-02
53633,4.88E-03,1.65E-02
53634,4.93E-03,1.65E-02
53635,5.34E-03,1.47E-02
53636,4.46E-03,1.23E-02
53637,5.45E-03,1.15E-02
53638,5.61E-03,1.17E-02
53639,6.17E-03,7.27E-03
53640,5.50E-03,1.04E-02
53641,5.92E-03,1.05E-02
53642,5.26E-03,1.11E-02
53643,6.56E-03,1.34E-02
53644,6.24E-03,1.30E-02
53645,4.57E-03,1.39E-02
53646,5.42E-03,2.59E-02
53647,5.23E-03,2.56E-02
53648,5.47E-03,2.63E-02
53649,5.32E-03,2.34E-02
53650,5.48E-03,2.05E-02
53651,5.28E-03,1.86E-02
53652,4.24E-03,1.81E-02
53653,4.36E-03,1.78E-02
53654,5.16E-03,1.63E-02
53655,5.17E-03,1.41E-02
53656,4.98E-03,1.27E-02
53657,4.30E-03,1.29E-02
53658,5.10E-03,1.32E-02
53659,5.42E-03,1.23E-02
53660,5.96E-03,1.10E-02
53661,5.08E-03,2.19E-02
53662,5.29E-03,2.21E-02
53663,5.41E-03,8.43E-03
53664,5.38E-03,8.53E-03
53665,6.15E-03,8.78E-03
53666,6.01E-03,9.88E-03
53667,5.51E-03,1.74E-02
53668,6.05E-03,1.50E-02
53669,5.37E-03,1.86E-02
53670,5.33E-03,1.85E-02
53671,5.59E-03,1.83E-02
53672,5.55E-03,1.84E-02
53673,5.01E-03,1.34E-02
53674,5.40E-03,1.91E-02
53675,5.27E-03,2.00E-02
53676,4.91E-03,1.49E-02
53677,5.22E-03,1.58E-02
53678,5.23E-03,1.84E-02
53679,5.13E-03,1.46E-02
53680,5.36E-03,1.42E-02
53681,5.82E-03,2.35E-02
53682,5.57E-03,2.28E-02
53683,6.33E-03,2.29E-02
53684,6.07E-03,2.38E-02
53685,5.87E-03,2.44E-02
53686,6.31E-03,2.27E-02
53687,4.59E-03,1.45E-02
53688,4.22E-03,8.30E-03
53689,5.13E-03,1.24E-02
53690,5.74E-03,1.23E-02
53691,6.15E-03,2.86E-02
53692,5.06E-03,2.76E-02
53693,5.22E-03,1.83E-02
53694,5.18E-03,1.34E-02
53695,5.00E-03,2.17E-02
53696,4.47E-03,2.19E-02
53697,5.40E-03,1.73E-02
53698,4.43E-03,1.05E-02
53699,4.62E-03,1.11E-02
53700,6.33E-03,2.64E-02
53701,5.70E-03,2.67E-02
53702,5.35E-03,2.68E-02
53703,5.91E-03,2.71E-02
53704,5.33E-03,1.86E-02
53705,5.37E-03,1.84E-02
53706,5.71E-03,1.82E-02
53707,5.47E-03,1.84E-02
53708,4.82E-03,1.30E-02
53709,5.29E-03,1.88E-02
53710,5.24E-03,2.01E-02
53711,5.01E-03,1.61E-02
53712,5.09E-03,1.81E-02
53713,5.25E-03,1.44E-02
53714,6.22E-03,2.38E-02
53715,6.55E-03,2.29E-02
53716,4.70E-03,7.11E-03
53717,4.60E-03,6.96E-03
53718,6.44E-03,7.05E-03
53719,4.89E-03,2.15E-02
53720,4.80E-03,2.17E-02
53721,5.27E-03,1.53E-02
53722,5.18E-03,1.50E-02
53723,5.12E-03,1.47E-02
53724,6.56E-03,1.44E-02
53725,6.49E-03,1.41E-02
53726,5.41E-03,1.71E-02
53727,8.02E-03,2.77E-02
53728,5.45E-03,1.86E-02
53729,5.50E-03,1.82E-02
53730,5.41E-03,1.84E-02
53731,4.56E-03,1.27E-02
53732,4.61E-03,1.14E-02
53733,5.13E-03,1.86E-02
53734,5.15E-03,2.03E-02
53735,4.90E-03,1.64E-02
53736,4.97E-03,1.78E-02
53737,5.09E-03,1.45E-02
53738,6.35E-03,2.38E-02
53739,6.62E-03,2.30E-02
53740,4.75E-03,2.13E-02
53741,4.57E-03,2.16E-02
53742,5.59E-03,1.85E-02
53743,5.72E-03,1.81E-02
53744,5.37E-03,1.84E-02
53745,4.21E-03,1.24E-02
53746,4.42E-03,1.17E-02
53747,4.95E-03,1.84E-02
53748,5.03E-03,2.04E-02
53749,4.74E-03,1.66E-02
53750,4.85E-03,1.75E-02
53751,4.92E-03,1.46E-02
53752,6.47E-03,2.38E-02
53753,6.80E-03,2.32E-02
53754,4.62E-03,2.11E-02
53755,4.02E-03,2.14E-02
53756,5.62E-03,1.85E-02
53757,5.89E-03,1.79E-02
53758,5.33E-03,1.84E-02
53759,4.16E-03,1.22E-02
53760,4.31E-03,1.19E-02
53761,5.68E-03,8.65E-03
53762,5.17E-03,8.42E-03
53763,4.77E-03,1.82E-02
53764,4.90E-03,2.05E-02
53765,4.60E-03,1.69E-02
53766,4.68E-03,1.72E-02
53767,4.69E-03,1.47E-02
53768,6.52E-03,2.38E-02
53769,6.98E-03,2.33E-02
53770,4.49E-03,1.03E-02
53771,4.57E-03,2.10E-02
53772,3.70E-03,2.13E-02
53773,5.39E-03,1.70E-02
53774,5.55E-03,1.85E-02
53775,6.14E-03,1.78E-02
53776,5.29E-03,1.84E-02
53777,4.65E-03,1.80E-02
53778,4.75E-03,2.07E-02
53779,4.49E-03,1.71E-02
53780,4.53E-03,1.69E-02
53781,4.43E-03,1.48E-02
53782,6.25E-03,2.78E-02
53783,1.08E-02,2.75E-02
53784,6.72E-03,2.37E-02
53785,6.90E-03,2.35E-02
53786,5.83E-03,1.07E-02
53787,5.92E-03,1.04E-02
53788,4.60E-03,2.08E-02
53789,4.19E-03,2.12E-02
53790,5.52E-03,1.68E-02
53791,5.53E-03,1.79E-02
53792,5.44E-03,1.81E-02
53793,5.17E-03,1.06E-02
53794,5.41E-03,1.84E-02
53795,6.18E-03,1.75E-02
53796,5.30E-03,1.84E-02
53797,4.47E-03,1.78E-02
53798,4.38E-03,1.73E-02
53799,4.33E-03,1.67E-02
53800,4.17E-03,1.49E-02
53801,7.91E-03,2.69E-02
53802,6.76E-03,2.36E-02
53803,4.28E-03,2.10E-02
53804,5.56E-03,1.66E-02
53805,5.35E-03,1.84E-02
53806,6.18E-03,1.73E-02
53807,4.39E-03,1.76E-02
53808,4.38E-03,1.64E-02
53809,4.01E-03,1.49E-02
53810,7.46E-03,2.63E-02
53811,4.35E-03,2.09E-02
53812,5.73E-03,1.63E-02
53813,6.13E-03,1.71E-02
53814,4.51E-03,1.61E-02
53815,7.02E-03,2.57E-02
53816,4.50E-03,2.08E-02
53817,5.88E-03,1.69E-02
53818,4.57E-03,1.58E-02
53819,6.56E-03,2.52E-02
53820,7.96E-03,2.81E-02
53821,4.70E-03,2.07E-02
53822,4.90E-03,1.59E-02
53823,5.49E-03,1.66E-02
53824,4.70E-03,1.55E-02
53825,3.87E-03,1.50E-02
53826,3.91E-03,1.50E-02
53827,6.31E-03,2.47E-02
53828,8.90E-03,2.86E-02
53829,5.39E-03,1.64E-02
53830,4.21E-03,1.50E-02
53831,4.34E-03,1.51E-02
53832,4.93E-03,2.05E-02
53833,5.18E-03,2.03E-02
53834,4.83E-03,1.52E-02
53835,6.18E-03,2.42E-02
53836,8.39E-03,2.89E-02
53837,5.04E-03,1.57E-02
53838,5.06E-03,1.62E-02
53839,5.36E-03,2.01E-02
53840,6.81E-03,1.58E-02
53841,5.91E-03,1.61E-02
53842,4.86E-03,1.88E-02
53843,5.46E-03,9.04E-03
53844,5.49E-03,8.76E-03
53845,5.42E-03,9.58E-03
53846,5.32E-03,9.30E-03
53847,5.55E-03,9.85E-03
53848,5.56E-03,1.18E-02
53849,5.59E-03,1.16E-02
53850,5.56E-03,1.21E-02
53851,5.94E-03,1.34E-02
53852,5.99E-03,1.31E-02
53853,6.00E-03,1.36E-02
53854,5.16E-03,1.87E-02
53855,5.51E-03,1.84E-02
53856,5.17E-03,1.42E-02
53857,5.45E-03,1.96E-02
53858,5.34E-03,1.51E-02
53859,5.57E-03,1.94E-02
53860,5.45E-03,1.39E-02
53861,5.46E-03,2.26E-02
53862,5.73E-03,2.38E-02
53863,5.90E-03,2.24E-02
53864,5.27E-03,1.45E-02
53865,5.26E-03,1.50E-02
53866,5.31E-03,1.49E-02
53867,5.27E-03,1.52E-02
53868,5.30E-03,1.51E-02
53869,5.32E-03,1.54E-02
53870,5.28E-03,1.53E-02
53871,5.34E-03,1.56E-02
53872,5.35E-03,1.55E-02
53873,5.27E-03,1.59E-02
53874,5.32E-03,1.57E-02
53875,5.24E-03,1.60E-02
53876,5.26E-03,1.60E-02
53877,5.18E-03,1.61E-02
53878,6.37E-03,1.71E-02
53879,6.31E-03,1.69E-02
53880,6.05E-03,1.73E-02
53881,6.18E-03,1.72E-02
53882,5.97E-03,1.73E-02
53883,5.64E-03,1.76E-02
53884,5.61E-03,1.78E-02
53885,5.61E-03,1.77E-02
53886,5.58E-03,1.79E-02
53887,5.60E-03,1.78E-02
53888,5.60E-03,1.80E-02
53889,5.58E-03,1.80E-02
53890,5.50E-03,1.82E-02
53891,5.57E-03,1.81E-02
53892,5.48E-03,1.83E-02
53893,5.47E-03,1.82E-02
53894,5.55E-03,1.84E-02
53895,5.48E-03,1.83E-02
53896,5.56E-03,1.85E-02
53897,5.55E-03,1.84E-02
53898,5.54E-03,1.86E-02
53899,5.54E-03,1.85E-02
53900,5.50E-03,1.86E-02
53901,5.36E-03,1.88E-02
53902,5.54E-03,1.87E-02
53903,4.73E-03,1.88E-02
53904,5.13E-03,1.88E-02
53905,4.91E-03,1.89E-02
53906,5.96E-03,1.88E-02
53907,6.05E-03,1.89E-02
53908,5.25E-03,1.88E-02
53909,5.38E-03,1.88E-02
53910,5.25E-03,1.88E-02
53911,5.24E-03,1.88E-02
53912,5.47E-03,1.88E-02
53913,5.35E-03,1.88E-02
53914,5.73E-03,1.87E-02
53915,5.62E-03,1.88E-02
53916,5.76E-03,1.87E-02
53917,5.78E-03,1.87E-02
53918,5.74E-03,1.86E-02
53919,5.74E-03,1.86E-02
53920,5.73E-03,1.85E-02
53921,5.71E-03,1.85E-02
53922,5.71E-03,1.84E-02
53923,5.72E-03,1.84E-02
53924,5.57E-03,1.83E-02
53925,5.63E-03,1.83E-02
53926,5.50E-03,1.81E-02
53927,5.54E-03,1.82E-02
53928,5.48E-03,1.80E-02
53929,5.49E-03,1.81E-02
53930,5.37E-03,1.78E-02
53931,5.42E-03,1.79E-02
53932,5.48E-03,1.77E-02
53933,5.39E-03,1.77E-02
53934,5.48E-03,1.75E-02
53935,5.44E-03,1.76E-02
53936,5.53E-03,1.73E-02
53937,5.53E-03,1.74E-02
53938,5.59E-03,1.72E-02
53939,5.60E-03,1.67E-02
53940,5.59E-03,1.68E-02
53941,5.70E-03,1.64E-02
53942,5.66E-03,1.65E-02
53943,5.84E-03,1.62E-02
53944,5.77E-03,1.63E-02
53945,5.73E-03,1.59E-02
53946,5.79E-03,1.61E-02
53947,5.66E-03,1.57E-02
53948,5.65E-03,1.58E-02
53949,5.61E-03,1.54E-02
53950,5.63E-03,1.55E-02
53951,5.54E-03,1.51E-02
53952,5.62E-03,1.53E-02
53953,5.46E-03,1.50E-02
53954,5.53E-03,1.40E-02
53955,5.36E-03,1.41E-02
53956,5.69E-03,1.37E-02
53957,5.73E-03,1.39E-02
53958,5.62E-03,1.34E-02
53959,5.65E-03,1.36E-02
53960,5.59E-03,1.31E-02
53961,5.61E-03,1.33E-02
53962,5.97E-03,1.29E-02
53963,5.71E-03,1.30E-02
53964,5.79E-03,1.27E-02
53965,6.16E-03,1.21E-02
53966,5.30E-03,1.14E-02
53967,5.53E-03,7.32E-03
53968,5.46E-03,7.03E-03
53969,5.29E-03,7.08E-03
53970,5.40E-03,7.06E-03
53971,5.24E-03,7.12E-03
53972,5.28E-03,7.10E-03
53973,5.21E-03,7.13E-03
53974,6.05E-03,7.39E-03
53975,6.19E-03,7.37E-03
53976,6.14E-03,7.43E-03
53977,5.89E-03,7.57E-03
53978,5.94E-03,7.49E-03
53979,5.65E-03,7.72E-03
53980,5.76E-03,7.64E-03
53981,5.70E-03,7.84E-03
53982,5.59E-03,7.78E-03
53983,5.76E-03,7.96E-03
53984,5.72E-03,7.90E-03
53985,5.88E-03,8.08E-03
53986,5.84E-03,8.02E-03
53987,5.74E-03,8.19E-03
53988,5.83E-03,8.13E-03
53989,5.72E-03,8.32E-03
53990,5.75E-03,8.25E-03
53991,5.61E-03,8.39E-03
53992,6.62E-03,1.09E-02
53993,5.04E-03,1.07E-02
53994,5.12E-03,1.07E-02
53995,5.59E-03,1.06E-02
53996,5.63E-03,1.06E-02
53997,5.50E-03,1.06E-02
53998,5.34E-03,1.06E-02
53999,5.35E-03,1.05E-02
54000,5.18E-03,1.06E-02
54001,5.22E-03,1.06E-02
54002,5.05E-03,1.06E-02
54003,5.08E-03,1.06E-02
54004,4.96E-03,1.07E-02
54005,4.98E-03,1.07E-02
54006,4.79E-03,1.07E-02
54007,4.28E-03,1.09E-02
54008,4.69E-03,1.09E-02
54009,4.94E-03,1.10E-02
54010,5.42E-03,1.10E-02
54011,5.02E-03,1.10E-02
54012,5.15E-03,1.16E-02
54013,5.21E-03,1.15E-02
54014,4.86E-03,1.18E-02
54015,5.50E-03,1.22E-02
54016,5.64E-03,1.21E-02
54017,5.15E-03,1.24E-02
54018,5.31E-03,1.23E-02
54019,5.01E-03,1.25E-02
54020,4.26E-03,1.42E-02
54021,5.32E-03,1.49E-02
54022,4.93E-03,1.45E-02
54023,5.47E-03,1.53E-02
54024,5.48E-03,1.81E-02
54025,5.42E-03,1.77E-02
54026,5.56E-03,1.89E-02
54027,5.48E-03,1.85E-02
54028,5.75E-03,1.97E-02
54029,5.68E-03,1.93E-02
54030,6.09E-03,2.06E-02
54031,5.88E-03,2.01E-02
54032,5.45E-03,2.21E-02
54033,4.61E-03,2.18E-02
54034,5.27E-03,2.29E-02
54035,5.23E-03,2.25E-02
54036,5.00E-03,2.36E-02
54037,5.29E-03,2.33E-02
54038,5.07E-03,2.44E-02
54039,4.56E-03,2.40E-02
54040,4.93E-03,2.48E-02
54041,5.62E-03,2.68E-02
54042,5.14E-03,2.71E-02
54043,4.96E-03,2.74E-02
54044,6.21E-03,2.69E-02
54045,5.01E-03,2.60E-02
54046,4.79E-03,2.63E-02
54047,5.22E-03,2.58E-02
54048,5.47E-03,2.42E-02
54049,5.37E-03,2.45E-02
54050,5.73E-03,2.40E-02
54051,5.27E-03,2.27E-02
54052,5.31E-03,2.14E-02
54053,5.29E-03,2.16E-02
54054,5.33E-03,2.11E-02
54055,4.81E-03,1.94E-02
54056,5.01E-03,1.96E-02
54057,5.08E-03,1.92E-02
54058,5.52E-03,1.71E-02
54059,5.37E-03,1.74E-02
54060,5.52E-03,1.69E-02
54061,5.28E-03,1.54E-02
54062,5.36E-03,1.56E-02
54063,4.86E-03,1.50E-02
54064,5.20E-03,1.52E-02
54065,4.76E-03,1.45E-02
54066,4.60E-03,1.48E-02
54067,4.91E-03,1.43E-02
54068,4.80E-03,1.35E-02
54069,3.70E-03,1.24E-02
54070,4.15E-03,1.26E-02
54071,4.67E-03,1.22E-02
54072,4.64E-03,1.23E-02
54073,4.72E-03,1.21E-02
54074,4.84E-03,1.10E-02
54075,4.67E-03,1.11E-02
54076,4.97E-03,1.08E-02
54077,4.92E-03,1.09E-02
54078,5.03E-03,1.05E-02
54079,5.02E-03,1.07E-02
54080,5.02E-03,1.03E-02
54081,5.01E-03,1.04E-02
54082,5.08E-03,1.00E-02
54083,5.06E-03,1.02E-02
54084,5.18E-03,9.80E-03
54085,5.18E-03,9.92E-03
54086,5.25E-03,9.56E-03
54087,5.24E-03,9.68E-03
54088,5.37E-03,9.35E-03
54089,5.23E-03,9.45E-03
54090,5.63E-03,9.27E-03
54091,4.05E-03,8.74E-03
54092,5.27E-03,8.40E-03
54093,5.25E-03,8.48E-03
54094,5.44E-03,8.24E-03
54095,5.37E-03,8.32E-03
54096,5.46E-03,8.17E-03
54097,5.29E-03,1.28E-02
54098,5.73E-03,1.16E-02
54099,5.71E-03,9.92E-03
54100,5.71E-03,8.78E-03
54101,5.31E-03,2.22E-02
54102,5.63E-03,9.27E-03
54103,6.38E-03,1.77E-02
54104,6.03E-03,1.77E-02
54105,5.60E-03,8.19E-03
54106,5.49E-03,7.91E-03
54107,5.40E-03,1.02E-02
54108,5.72E-03,1.03E-02
54109,5.87E-03,1.03E-02
54110,6.10E-03,1.54E-02
54111,5.14E-03,2.52E-02
54112,4.83E-03,2.50E-02
54113,3.41E-03,2.81E-02
54114,4.80E-03,1.66E-02
54115,4.63E-03,1.67E-02
54116,5.58E-03,2.51E-02
54117,4.52E-03,1.15E-02
54118,4.66E-03,1.17E-02
54119,4.88E-03,1.58E-02
54120,3.88E-03,2.82E-02
54121,4.52E-03,1.57E-02
54122,5.98E-03,2.48E-02
54123,6.68E-03,1.06E-02
54124,6.44E-03,1.05E-02
54125,6.09E-03,1.07E-02
54126,5.62E-03,2.54E-02
54127,5.98E-03,2.56E-02
54128,5.28E-03,1.21E-02
54129,3.97E-03,1.88E-02
54130,5.49E-03,7.90E-03
54131,5.40E-03,1.12E-02
54132,5.75E-03,1.25E-02
54133,5.70E-03,1.23E-02
54134,5.84E-03,1.28E-02
54135,6.20E-03,1.38E-02
54136,5.78E-03,1.87E-02
54137,5.69E-03,1.86E-02
54138,5.51E-03,1.83E-02
54139,5.61E-03,1.84E-02
54140,5.21E-03,1.39E-02
54141,5.20E-03,1.43E-02
54142,5.46E-03,1.94E-02
54143,5.41E-03,1.97E-02
54144,5.18E-03,1.51E-02
54145,5.35E-03,1.54E-02
54146,5.63E-03,1.96E-02
54147,5.48E-03,1.90E-02
54148,5.36E-03,1.42E-02
54149,5.43E-03,1.41E-02
54150,5.59E-03,2.30E-02
54151,5.55E-03,2.28E-02
54152,5.86E-03,2.39E-02
54153,5.77E-03,2.40E-02
54154,5.85E-03,2.27E-02
54155,5.93E-03,2.26E-02
54156,5.19E-03,1.64E-02
54157,6.34E-03,1.70E-02
54158,5.47E-03,1.88E-02
54159,5.46E-03,1.87E-02
54160,5.49E-03,1.88E-02
54161,5.58E-03,1.69E-02
54162,5.58E-03,1.70E-02
54163,5.57E-03,1.68E-02
54164,5.66E-03,1.48E-02
54165,5.33E-03,1.25E-02
54166,5.74E-03,1.18E-02
54167,4.36E-03,6.84E-03
54168,6.14E-03,7.20E-03
54169,6.15E-03,7.07E-03
54170,6.07E-03,7.13E-03
54171,5.01E-03,8.11E-03
54172,5.96E-03,1.07E-02
54173,5.23E-03,1.05E-02
54174,5.22E-03,1.05E-02
54175,5.12E-03,1.05E-02
54176,4.88E-03,1.05E-02
54177,5.67E-03,1.03E-02
54178,5.52E-03,1.04E-02
54179,5.46E-03,1.02E-02
54180,5.47E-03,1.03E-02
54181,5.43E-03,1.06E-02
54182,5.15E-03,1.08E-02
54183,4.99E-03,1.08E-02
54184,5.30E-03,1.12E-02
54185,5.07E-03,1.13E-02
54186,4.91E-03,1.14E-02
54187,4.59E-03,1.15E-02
54188,5.89E-03,1.26E-02
54189,5.68E-03,1.37E-02
54190,6.41E-03,1.33E-02
54191,5.39E-03,1.41E-02
54192,5.78E-03,1.67E-02
54193,5.51E-03,1.63E-02
54194,5.55E-03,1.72E-02
54195,5.20E-03,2.52E-02
54196,5.53E-03,2.66E-02
54197,5.47E-03,2.76E-02
54198,5.61E-03,2.73E-02
54199,4.90E-03,2.79E-02
54200,4.53E-03,2.84E-02
54201,4.82E-03,2.57E-02
54202,5.18E-03,2.48E-02
54203,6.01E-03,2.37E-02
54204,4.77E-03,2.31E-02
54205,5.11E-03,2.29E-02
54206,5.25E-03,2.21E-02
54207,5.28E-03,2.24E-02
54208,5.30E-03,2.18E-02
54209,5.49E-03,2.08E-02
54210,6.37E-03,2.02E-02
54211,6.07E-03,1.99E-02
54212,5.33E-03,1.88E-02
54213,5.05E-03,1.75E-02
54214,5.38E-03,1.65E-02
54215,4.95E-03,1.56E-02
54216,5.03E-03,1.37E-02
54217,4.97E-03,1.39E-02
54218,4.35E-03,1.31E-02
54219,5.70E-03,8.79E-03
54220,5.73E-03,8.89E-03
54221,5.10E-03,8.68E-03
54222,5.04E-03,8.33E-03
54223,4.87E-03,8.39E-03
54224,5.17E-03,8.26E-03
54225,5.30E-03,1.30E-02
54226,5.37E-03,1.26E-02
54227,5.42E-03,1.20E-02
54228,5.53E-03,1.18E-02
54229,5.87E-03,1.13E-02
54230,5.80E-03,1.02E-02
54231,5.78E-03,9.04E-03
54232,5.65E-03,8.47E-03
54233,5.15E-03,2.20E-02
54234,5.02E-03,2.20E-02
54235,5.73E-03,1.47E-02
54236,5.96E-03,1.45E-02
54237,5.74E-03,9.06E-03
54238,5.73E-03,9.60E-03
54239,5.45E-03,1.75E-02
54240,5.51E-03,7.61E-03
54241,6.15E-03,1.51E-02
54242,6.24E-03,1.56E-02
54243,6.26E-03,1.54E-02
54244,5.08E-03,1.09E-02
54245,5.52E-03,1.86E-02
54246,5.43E-03,1.85E-02
54247,5.56E-03,1.83E-02
54248,5.59E-03,1.84E-02
54249,5.09E-03,1.36E-02
54250,5.27E-03,1.44E-02
54251,5.45E-03,1.92E-02
54252,5.34E-03,1.98E-02
54253,4.99E-03,1.50E-02
54254,5.23E-03,1.57E-02
54255,5.54E-03,1.99E-02
54256,5.36E-03,1.87E-02
54257,5.24E-03,1.46E-02
54258,5.41E-03,1.43E-02
54259,5.77E-03,2.34E-02
54260,5.94E-03,2.30E-02
54261,5.99E-03,2.39E-02
54262,5.81E-03,2.43E-02
54263,6.22E-03,2.27E-02
54264,4.66E-03,1.67E-02
54265,4.89E-03,1.67E-02
54266,5.32E-03,1.46E-02
54267,5.03E-03,1.42E-02
54268,4.16E-03,1.43E-02
54269,4.33E-03,1.23E-02
54270,5.39E-03,1.14E-02
54271,5.48E-03,1.16E-02
54272,5.10E-03,1.12E-02
54273,4.48E-03,1.10E-02
54274,6.10E-03,6.98E-03
54275,5.51E-03,1.02E-02
54276,4.68E-03,1.05E-02
54277,5.30E-03,1.08E-02
54278,3.90E-03,1.21E-02
54279,4.43E-03,1.20E-02
54280,5.41E-03,2.60E-02
54281,5.50E-03,2.57E-02
54282,5.46E-03,2.64E-02
54283,6.36E-03,2.89E-02
54284,5.61E-03,2.76E-02
54285,4.84E-03,2.52E-02
54286,4.82E-03,2.55E-02
54287,4.95E-03,2.50E-02
54288,4.78E-03,2.34E-02
54289,5.73E-03,2.05E-02
54290,5.81E-03,1.85E-02
54291,5.58E-03,1.61E-02
54292,5.38E-03,1.32E-02
54293,5.36E-03,1.23E-02
54294,5.76E-03,1.10E-02
54295,5.06E-03,2.17E-02
54296,4.94E-03,2.18E-02
54297,5.40E-03,8.88E-03
54298,5.36E-03,1.74E-02
54299,4.75E-03,1.03E-02
54300,4.56E-03,1.08E-02
54301,5.98E-03,7.00E-03
54302,5.56E-03,7.31E-03
54303,5.64E-03,1.48E-02
54304,6.47E-03,2.60E-02
54305,5.93E-03,2.66E-02
54306,5.69E-03,1.05E-02
54307,5.63E-03,1.07E-02
54308,5.05E-03,1.10E-02
54309,4.50E-03,1.11E-02
54310,5.42E-03,1.86E-02
54311,5.37E-03,1.84E-02
54312,5.67E-03,1.82E-02
54313,5.55E-03,1.84E-02
54314,5.85E-03,1.81E-02
54315,4.97E-03,1.32E-02
54316,5.30E-03,1.44E-02
54317,5.36E-03,1.90E-02
54318,5.31E-03,2.00E-02
54319,4.84E-03,1.50E-02
54320,5.18E-03,1.60E-02
54321,5.21E-03,1.84E-02
54322,5.10E-03,1.49E-02
54323,5.33E-03,1.45E-02
54324,5.95E-03,2.38E-02
54325,6.97E-03,2.30E-02
54326,6.86E-03,2.31E-02
54327,6.13E-03,2.39E-02
54328,5.91E-03,2.45E-02
54329,6.45E-03,2.29E-02
54330,5.32E-03,1.09E-02
54331,3.02E-03,2.84E-02
54332,4.35E-03,1.05E-02
54333,4.59E-03,1.04E-02
54334,3.02E-03,2.85E-02
54335,5.02E-03,2.87E-02
54336,5.49E-03,2.87E-02
54337,5.26E-03,2.91E-02
54338,5.32E-03,2.91E-02
54339,5.04E-03,2.95E-02
54340,4.86E-03,2.85E-02
54341,4.97E-03,2.15E-02
54342,4.81E-03,2.17E-02
54343,5.29E-03,1.52E-02
54344,5.07E-03,1.49E-02
54345,4.85E-03,1.46E-02
54346,6.72E-03,1.43E-02
54347,5.34E-03,1.72E-02
54348,6.87E-03,2.75E-02
54349,5.45E-03,1.86E-02
54350,5.44E-03,1.83E-02
54351,5.47E-03,1.84E-02
54352,4.82E-03,1.29E-02
54353,4.64E-03,1.12E-02
54354,5.24E-03,1.88E-02
54355,5.24E-03,2.01E-02
54356,5.03E-03,1.62E-02
54357,5.08E-03,1.81E-02
54358,5.23E-03,1.46E-02
54359,6.27E-03,2.39E-02
54360,6.50E-03,2.31E-02
54361,4.20E-03,1.81E-02
54362,4.85E-03,2.13E-02
54363,4.71E-03,2.15E-02
54364,5.17E-03,1.55E-02
54365,5.55E-03,1.85E-02
54366,5.63E-03,1.82E-02
54367,5.44E-03,1.84E-02
54368,4.52E-03,1.26E-02
54369,4.64E-03,1.15E-02
54370,5.08E-03,1.86E-02
54371,5.13E-03,2.02E-02
54372,4.86E-03,1.65E-02
54373,4.96E-03,1.77E-02
54374,5.07E-03,1.48E-02
54375,5.69E-03,2.88E-02
54376,6.39E-03,2.39E-02
54377,6.62E-03,2.32E-02
54378,4.72E-03,2.11E-02
54379,4.35E-03,2.13E-02
54380,5.63E-03,1.85E-02
54381,5.82E-03,1.80E-02
54382,5.38E-03,1.84E-02
54383,4.38E-03,1.23E-02
54384,4.46E-03,1.17E-02
54385,4.42E-03,8.76E-03
54386,4.12E-03,8.66E-03
54387,5.47E-03,8.43E-03
54388,4.88E-03,1.84E-02
54389,5.01E-03,2.04E-02
54390,4.70E-03,1.68E-02
54391,4.85E-03,1.75E-02
54392,4.86E-03,1.49E-02
54393,6.50E-03,2.39E-02
54394,6.77E-03,2.34E-02
54395,4.79E-03,1.01E-02
54396,4.61E-03,2.10E-02
54397,4.07E-03,2.12E-02
54398,5.82E-03,1.76E-02
54399,5.44E-03,1.70E-02
54400,5.59E-03,1.85E-02
54401,6.06E-03,1.78E-02
54402,5.39E-03,1.84E-02
54403,4.35E-03,1.20E-02
54404,4.72E-03,1.81E-02
54405,4.87E-03,2.05E-02
54406,4.59E-03,1.70E-02
54407,4.59E-03,1.72E-02
54408,4.60E-03,1.49E-02
54409,9.01E-03,2.78E-02
54410,6.61E-03,2.38E-02
54411,6.80E-03,2.35E-02
54412,5.78E-03,1.07E-02
54413,5.96E-03,1.04E-02
54414,4.61E-03,2.08E-02
54415,4.16E-03,2.11E-02
54416,5.42E-03,1.68E-02
54417,5.91E-03,1.79E-02
54418,4.72E-03,1.80E-02
54419,5.47E-03,1.03E-02
54420,5.51E-03,1.05E-02
54421,5.51E-03,1.84E-02
54422,6.10E-03,1.76E-02
54423,5.33E-03,1.84E-02
54424,4.60E-03,1.79E-02
54425,4.72E-03,2.06E-02
54426,4.45E-03,1.73E-02
54427,4.48E-03,1.69E-02
54428,4.33E-03,1.50E-02
54429,7.38E-03,2.72E-02
54430,6.64E-03,2.38E-02
54431,6.86E-03,2.36E-02
54432,4.28E-03,2.10E-02
54433,5.55E-03,1.67E-02
54434,5.43E-03,1.84E-02
54435,6.18E-03,1.74E-02
54436,5.36E-03,1.84E-02
54437,4.45E-03,1.77E-02
54438,4.42E-03,1.75E-02
54439,4.43E-03,1.66E-02
54440,4.08E-03,1.51E-02
54441,7.41E-03,2.66E-02
54442,4.30E-03,2.08E-02
54443,5.65E-03,1.64E-02
54444,6.08E-03,1.72E-02
54445,4.50E-03,1.64E-02
54446,7.16E-03,2.60E-02
54447,4.53E-03,2.07E-02
54448,5.93E-03,1.70E-02
54449,4.56E-03,1.61E-02
54450,6.84E-03,2.55E-02
54451,7.92E-03,2.79E-02
54452,4.65E-03,2.06E-02
54453,4.92E-03,1.60E-02
54454,5.74E-03,1.68E-02
54455,4.68E-03,1.58E-02
54456,3.97E-03,1.51E-02
54457,3.96E-03,1.51E-02
54458,6.37E-03,2.50E-02
54459,9.27E-03,2.84E-02
54460,5.34E-03,1.65E-02
54461,4.10E-03,1.52E-02
54462,4.34E-03,1.52E-02
54463,4.87E-03,2.04E-02
54464,5.09E-03,2.03E-02
54465,4.83E-03,1.55E-02
54466,6.32E-03,2.45E-02
54467,8.65E-03,2.89E-02
54468,4.87E-03,1.58E-02
54469,5.20E-03,1.63E-02
54470,5.30E-03,2.01E-02
54471,6.22E-03,1.57E-02
54472,6.00E-03,1.60E-02
54473,5.77E-03,1.62E-02
54474,3.85E-03,1.89E-02
54475,4.63E-03,1.13E-02
54476,4.59E-03,1.12E-02
54477,4.66E-03,1.10E-02
54478,4.69E-03,1.89E-02
54479,3.90E-03,1.89E-02
54480,4.68E-03,2.69E-02
54481,3.37E-03,1.89E-02
54482,4.36E-03,1.68E-02
54483,3.84E-03,2.67E-02
54484,5.22E-03,2.65E-02
54485,6.00E-03,7.78E-03
54486,5.53E-03,8.39E-03
54487,5.70E-03,8.10E-03
54488,5.46E-03,8.95E-03
54489,5.49E-03,8.67E-03
54490,5.48E-03,9.50E-03
54491,5.39E-03,9.23E-03
54492,5.67E-03,9.79E-03
54493,5.64E-03,1.17E-02
54494,5.56E-03,1.15E-02
54495,5.69E-03,1.20E-02
54496,5.93E-03,1.33E-02
54497,5.92E-03,1.30E-02
54498,6.04E-03,1.35E-02
54499,5.79E-03,1.87E-02
54500,5.52E-03,1.84E-02
54501,5.20E-03,1.41E-02
54502,5.43E-03,1.96E-02
54503,5.36E-03,1.52E-02
54504,5.57E-03,1.93E-02
54505,5.43E-03,1.42E-02
54506,5.58E-03,2.29E-02
54507,5.77E-03,2.39E-02
54508,5.82E-03,2.26E-02
54509,5.47E-03,1.50E-02
54510,5.32E-03,1.52E-02
54511,5.36E-03,1.51E-02
54512,5.33E-03,1.54E-02
54513,5.35E-03,1.53E-02
54514,5.35E-03,1.56E-02
54515,5.35E-03,1.55E-02
54516,5.37E-03,1.58E-02
54517,5.37E-03,1.57E-02
54518,5.36E-03,1.60E-02
54519,5.38E-03,1.59E-02
54520,5.33E-03,1.62E-02
54521,5.32E-03,1.62E-02
54522,5.29E-03,1.63E-02
54523,4.37E-03,1.68E-02
54524,4.90E-03,1.70E-02
54525,6.57E-03,1.72E-02
54526,7.24E-03,1.71E-02
54527,6.10E-03,1.74E-02
54528,6.27E-03,1.73E-02
54529,5.84E-03,1.76E-02
54530,5.95E-03,1.75E-02
54531,5.64E-03,1.78E-02
54532,5.70E-03,1.77E-02
54533,5.60E-03,1.79E-02
54534,5.60E-03,1.78E-02
54535,5.58E-03,1.80E-02
54536,5.59E-03,1.80E-02
54537,5.59E-03,1.82E-02
54538,5.64E-03,1.81E-02
54539,5.56E-03,1.83E-02
54540,5.57E-03,1.82E-02
54541,5.56E-03,1.84E-02
54542,5.57E-03,1.83E-02
54543,5.55E-03,1.85E-02
54544,5.56E-03,1.84E-02
54545,5.56E-03,1.86E-02
54546,5.52E-03,1.85E-02
54547,5.56E-03,1.87E-02
54548,5.56E-03,1.86E-02
54549,5.49E-03,1.87E-02
54550,5.34E-03,1.88E-02
54551,5.45E-03,1.88E-02
54552,4.77E-03,1.89E-02
54553,5.12E-03,1.89E-02
54554,4.49E-03,1.89E-02
54555,5.60E-03,1.89E-02
54556,5.31E-03,1.89E-02
54557,5.38E-03,1.89E-02
54558,5.55E-03,1.89E-02
54559,5.35E-03,1.89E-02
54560,5.37E-03,1.89E-02
54561,5.50E-03,1.88E-02
54562,5.43E-03,1.88E-02
54563,5.67E-03,1.88E-02
54564,5.55E-03,1.88E-02
54565,5.69E-03,1.87E-02
54566,5.67E-03,1.87E-02
54567,5.70E-03,1.86E-02
54568,5.73E-03,1.86E-02
54569,5.72E-03,1.85E-02
54570,5.71E-03,1.86E-02
54571,5.74E-03,1.84E-02
54572,5.70E-03,1.84E-02
54573,5.60E-03,1.83E-02
54574,5.68E-03,1.83E-02
54575,5.50E-03,1.81E-02
54576,5.53E-03,1.82E-02
54577,5.49E-03,1.80E-02
54578,5.51E-03,1.80E-02
54579,5.38E-03,1.78E-02
54580,5.43E-03,1.79E-02
54581,5.47E-03,1.76E-02
54582,5.40E-03,1.77E-02
54583,5.51E-03,1.74E-02
54584,5.45E-03,1.75E-02
54585,5.59E-03,1.72E-02
54586,5.52E-03,1.73E-02
54587,5.54E-03,1.71E-02
54588,5.56E-03,1.66E-02
54589,5.55E-03,1.67E-02
54590,5.66E-03,1.64E-02
54591,5.56E-03,1.65E-02
54592,5.74E-03,1.61E-02
54593,5.72E-03,1.62E-02
54594,5.65E-03,1.59E-02
54595,5.74E-03,1.60E-02
54596,5.68E-03,1.56E-02
54597,5.66E-03,1.57E-02
54598,5.64E-03,1.53E-02
54599,5.63E-03,1.54E-02
54600,5.75E-03,1.50E-02
54601,5.71E-03,1.52E-02
54602,5.81E-03,1.49E-02
54603,5.49E-03,1.39E-02
54604,5.30E-03,1.40E-02
54605,5.66E-03,1.36E-02
54606,5.66E-03,1.38E-02
54607,5.61E-03,1.33E-02
54608,5.63E-03,1.35E-02
54609,5.65E-03,1.30E-02
54610,5.62E-03,1.32E-02
54611,5.67E-03,1.27E-02
54612,5.64E-03,1.29E-02
54613,5.63E-03,1.26E-02
54614,6.15E-03,1.19E-02
54615,5.22E-03,1.13E-02
54616,5.40E-03,6.75E-03
54617,5.66E-03,6.70E-03
54618,5.27E-03,6.79E-03
54619,5.34E-03,6.77E-03
54620,5.19E-03,6.82E-03
54621,5.27E-03,6.81E-03
54622,5.24E-03,6.83E-03
54623,6.06E-03,7.10E-03
54624,6.08E-03,7.07E-03
54625,6.13E-03,7.14E-03
54626,5.81E-03,7.29E-03
54627,5.93E-03,7.21E-03
54628,5.57E-03,7.43E-03
54629,5.68E-03,7.36E-03
54630,5.68E-03,7.56E-03
54631,5.57E-03,7.50E-03
54632,5.76E-03,7.68E-03
54633,5.71E-03,7.62E-03
54634,5.88E-03,7.79E-03
54635,5.91E-03,7.74E-03
54636,5.76E-03,7.91E-03
54637,5.85E-03,7.85E-03
54638,5.68E-03,8.03E-03
54639,5.75E-03,7.97E-03
54640,5.68E-03,8.10E-03
54641,6.23E-03,1.07E-02
54642,6.22E-03,1.07E-02
54643,5.71E-03,1.06E-02
54644,6.06E-03,1.07E-02
54645,5.32E-03,1.06E-02
54646,5.05E-03,1.05E-02
54647,5.63E-03,1.04E-02
54648,5.68E-03,1.04E-02
54649,5.52E-03,1.04E-02
54650,5.34E-03,1.03E-02
54651,5.38E-03,1.03E-02
54652,5.20E-03,1.04E-02
54653,5.21E-03,1.03E-02
54654,5.03E-03,1.04E-02
54655,5.06E-03,1.04E-02
54656,4.98E-03,1.04E-02
54657,4.95E-03,1.04E-02
54658,4.89E-03,1.05E-02
54659,4.76E-03,1.07E-02
54660,5.37E-03,1.06E-02
54661,5.01E-03,1.07E-02
54662,4.83E-03,1.07E-02
54663,4.96E-03,1.08E-02
54664,5.16E-03,1.13E-02
54665,5.23E-03,1.12E-02
54666,4.81E-03,1.14E-02
54667,5.24E-03,1.19E-02
54668,4.93E-03,1.17E-02
54669,4.92E-03,1.20E-02
54670,5.17E-03,1.20E-02
54671,4.65E-03,1.21E-02
54672,5.81E-03,1.26E-02
54673,6.14E-03,1.29E-02
54674,5.32E-03,1.48E-02
54675,5.15E-03,1.44E-02
54676,5.51E-03,1.52E-02
54677,5.49E-03,1.80E-02
54678,5.50E-03,1.76E-02
54679,5.56E-03,1.88E-02
54680,5.52E-03,1.84E-02
54681,5.73E-03,1.96E-02
54682,5.62E-03,1.92E-02
54683,5.98E-03,2.05E-02
54684,5.84E-03,2.01E-02
54685,4.85E-03,2.13E-02
54686,5.57E-03,2.09E-02
54687,5.18E-03,2.21E-02
54688,5.23E-03,2.17E-02
54689,5.23E-03,2.29E-02
54690,5.23E-03,2.25E-02
54691,4.99E-03,2.36E-02
54692,5.14E-03,2.33E-02
54693,4.82E-03,2.44E-02
54694,4.80E-03,2.40E-02
54695,5.09E-03,2.48E-02
54696,5.62E-03,2.70E-02
54697,4.15E-03,2.84E-02
54698,4.50E-03,2.81E-02
54699,3.65E-03,2.87E-02
54700,4.12E-03,2.86E-02
54701,4.36E-03,2.87E-02
54702,5.13E-03,2.93E-02
54703,4.45E-03,2.83E-02
54704,5.36E-03,2.72E-02
54705,5.34E-03,2.74E-02
54706,5.15E-03,2.70E-02
54707,4.98E-03,2.61E-02
54708,4.83E-03,2.63E-02
54709,4.98E-03,2.59E-02
54710,5.48E-03,2.43E-02
54711,5.36E-03,2.45E-02
54712,6.18E-03,2.40E-02
54713,5.18E-03,2.26E-02
54714,5.34E-03,2.13E-02
54715,5.33E-03,2.16E-02
54716,5.39E-03,2.11E-02
54717,5.13E-03,1.93E-02
54718,5.40E-03,1.96E-02
54719,5.19E-03,1.91E-02
54720,5.83E-03,1.70E-02
54721,5.58E-03,1.73E-02
54722,5.70E-03,1.67E-02
54723,5.06E-03,1.52E-02
54724,5.06E-03,1.54E-02
54725,4.87E-03,1.48E-02
54726,5.02E-03,1.50E-02
54727,4.73E-03,1.43E-02
54728,4.65E-03,1.46E-02
54729,4.90E-03,1.41E-02
54730,4.58E-03,1.32E-02
54731,4.81E-03,1.29E-02
54732,4.53E-03,1.25E-02
54733,4.76E-03,1.27E-02
54734,4.32E-03,1.22E-02
54735,4.30E-03,1.24E-02
54736,4.62E-03,1.19E-02
54737,4.45E-03,1.20E-02
54738,4.68E-03,1.16E-02
54739,4.65E-03,1.18E-02
54740,4.59E-03,1.15E-02
54741,4.81E-03,1.08E-02
54742,4.76E-03,1.09E-02
54743,4.96E-03,1.05E-02
54744,4.96E-03,1.06E-02
54745,5.05E-03,1.03E-02
54746,5.02E-03,1.04E-02
54747,5.04E-03,1.00E-02
54748,5.06E-03,1.01E-02
54749,5.09E-03,9.75E-03
54750,5.04E-03,9.87E-03
54751,5.19E-03,9.51E-03
54752,5.17E-03,9.63E-03
54753,5.34E-03,9.28E-03
54754,5.26E-03,9.39E-03
54755,5.43E-03,9.07E-03
54756,5.42E-03,9.17E-03
54757,5.61E-03,8.98E-03
54758,4.88E-03,8.51E-03
54759,5.26E-03,8.11E-03
54760,5.20E-03,8.19E-03
54761,5.42E-03,7.95E-03
54762,5.36E-03,8.03E-03
54763,5.33E-03,7.81E-03
54764,5.41E-03,7.88E-03
54765,5.14E-03,7.65E-03
54766,5.25E-03,7.73E-03
54767,5.66E-03,7.54E-03
54768,5.36E-03,1.28E-02
54769,5.71E-03,1.16E-02
54770,5.79E-03,9.89E-03
54771,5.73E-03,8.75E-03
54772,5.17E-03,2.20E-02
54773,5.73E-03,1.22E-02
54774,6.40E-03,1.22E-02
54775,6.22E-03,1.44E-02
54776,5.68E-03,9.33E-03
54777,5.56E-03,1.75E-02
54778,5.56E-03,8.18E-03
54779,5.55E-03,7.90E-03
54780,5.01E-03,1.00E-02
54781,5.77E-03,1.01E-02
54782,5.74E-03,1.01E-02
54783,6.16E-03,1.53E-02
54784,5.91E-03,2.50E-02
54785,5.53E-03,9.99E-03
54786,5.39E-03,1.12E-02
54787,5.70E-03,1.24E-02
54788,5.74E-03,1.22E-02
54789,5.78E-03,1.27E-02
54790,6.35E-03,1.37E-02
54791,5.69E-03,1.86E-02
54792,5.53E-03,1.86E-02
54793,5.51E-03,1.83E-02
54794,5.61E-03,1.83E-02
54795,5.19E-03,1.38E-02
54796,5.23E-03,1.42E-02
54797,5.46E-03,1.94E-02
54798,5.38E-03,1.97E-02
54799,5.13E-03,1.52E-02
54800,5.30E-03,1.55E-02
54801,5.54E-03,1.96E-02
54802,5.46E-03,1.90E-02
54803,5.35E-03,1.45E-02
54804,5.42E-03,1.44E-02
54805,5.77E-03,2.33E-02
54806,5.72E-03,2.31E-02
54807,5.98E-03,2.40E-02
54808,5.82E-03,2.42E-02
54809,6.18E-03,2.29E-02
54810,6.16E-03,2.28E-02
54811,5.42E-03,1.66E-02
54812,4.08E-03,1.71E-02
54813,5.64E-03,1.79E-02
54814,3.86E-03,1.89E-02
54815,5.64E-03,1.70E-02
54816,6.49E-03,1.47E-02
54817,4.44E-03,1.44E-02
54818,5.28E-03,1.24E-02
54819,5.56E-03,1.17E-02
54820,5.08E-03,1.09E-02
54821,6.05E-03,6.90E-03
54822,6.42E-03,6.77E-03
54823,6.30E-03,6.84E-03
54824,4.83E-03,8.13E-03
54825,4.87E-03,1.06E-02
54826,5.44E-03,1.03E-02
54827,6.11E-03,1.02E-02
54828,6.86E-03,1.05E-02
54829,5.47E-03,1.05E-02
54830,5.28E-03,1.03E-02
54831,5.31E-03,1.03E-02
54832,5.12E-03,1.03E-02
54833,4.81E-03,1.03E-02
54834,5.67E-03,1.01E-02
54835,5.53E-03,1.02E-02
54836,5.46E-03,1.00E-02
54837,5.47E-03,1.00E-02
54838,5.17E-03,1.03E-02
54839,5.49E-03,1.03E-02
54840,5.39E-03,1.03E-02
54841,4.92E-03,1.05E-02
54842,4.87E-03,1.05E-02
54843,5.41E-03,1.09E-02
54844,5.07E-03,1.10E-02
54845,5.18E-03,1.09E-02
54846,4.90E-03,1.10E-02
54847,4.71E-03,1.12E-02
54848,4.73E-03,1.11E-02
54849,4.76E-03,1.13E-02
54850,3.87E-03,1.18E-02
54851,5.69E-03,1.35E-02
54852,5.74E-03,1.32E-02
54853,5.44E-03,1.39E-02
54854,5.63E-03,1.66E-02
54855,5.60E-03,1.62E-02
54856,5.63E-03,1.70E-02
54857,5.25E-03,2.53E-02
54858,5.47E-03,2.68E-02
54859,5.66E-03,2.78E-02
54860,5.70E-03,2.75E-02
54861,5.07E-03,2.81E-02
54862,4.98E-03,2.91E-02
54863,6.27E-03,2.90E-02
54864,5.31E-03,2.81E-02
54865,5.67E-03,2.78E-02
54866,4.53E-03,2.68E-02
54867,4.65E-03,2.70E-02
54868,4.74E-03,2.66E-02
54869,4.87E-03,2.57E-02
54870,5.12E-03,2.48E-02
54871,4.71E-03,2.36E-02
54872,4.98E-03,2.31E-02
54873,5.30E-03,2.33E-02
54874,5.12E-03,2.28E-02
54875,5.24E-03,2.21E-02
54876,5.23E-03,2.23E-02
54877,5.24E-03,2.18E-02
54878,5.59E-03,2.07E-02
54879,5.92E-03,2.01E-02
54880,5.86E-03,1.98E-02
54881,5.49E-03,1.87E-02
54882,5.52E-03,1.75E-02
54883,6.07E-03,1.63E-02
54884,4.86E-03,1.54E-02
54885,4.91E-03,1.30E-02
54886,4.69E-03,1.09E-02
54887,4.64E-03,1.10E-02
54888,4.69E-03,1.08E-02
54889,5.45E-03,8.78E-03
54890,5.46E-03,8.49E-03
54891,5.53E-03,8.59E-03
54892,5.25E-03,8.37E-03
54893,5.10E-03,8.04E-03
54894,5.10E-03,8.12E-03
54895,5.14E-03,7.96E-03
54896,5.43E-03,1.30E-02
54897,5.33E-03,1.25E-02
54898,5.32E-03,1.20E-02
54899,5.47E-03,1.18E-02
54900,5.67E-03,1.13E-02
54901,5.97E-03,1.01E-02
54902,5.63E-03,8.45E-03
54903,5.13E-03,2.17E-02
54904,5.10E-03,2.18E-02
54905,6.24E-03,1.41E-02
54906,5.58E-03,9.13E-03
54907,5.60E-03,9.65E-03
54908,5.24E-03,1.74E-02
54909,4.71E-03,1.06E-02
54910,5.44E-03,7.60E-03
54911,5.63E-03,1.44E-02
54912,5.54E-03,1.46E-02
54913,6.05E-03,1.50E-02
54914,6.29E-03,1.53E-02
54915,6.82E-03,2.62E-02
54916,3.87E-03,1.13E-02
54917,3.86E-03,1.13E-02
54918,5.71E-03,1.12E-02
54919,5.72E-03,7.74E-03
54920,5.25E-03,7.42E-03
54921,5.15E-03,1.08E-02
54922,5.56E-03,1.86E-02
54923,5.42E-03,1.85E-02
54924,5.64E-03,1.82E-02
54925,5.57E-03,1.83E-02
54926,6.16E-03,1.81E-02
54927,5.11E-03,1.34E-02
54928,5.15E-03,1.42E-02
54929,5.42E-03,1.92E-02
54930,5.36E-03,1.98E-02
54931,4.93E-03,1.52E-02
54932,5.24E-03,1.58E-02
54933,5.43E-03,1.98E-02
54934,5.33E-03,1.87E-02
54935,5.15E-03,1.48E-02
54936,5.38E-03,1.46E-02
54937,5.88E-03,2.37E-02
54938,6.14E-03,2.32E-02
54939,6.04E-03,2.40E-02
54940,5.98E-03,2.44E-02
54941,6.32E-03,2.30E-02
54942,4.88E-03,1.12E-02
54943,4.84E-03,1.09E-02
54944,4.74E-03,1.69E-02
54945,3.54E-03,1.69E-02
54946,5.55E-03,1.67E-02
54947,4.54E-03,1.22E-02
54948,5.36E-03,1.13E-02
54949,5.40E-03,1.15E-02
54950,5.51E-03,6.61E-03
54951,5.95E-03,6.68E-03
54952,5.03E-03,7.84E-03
54953,4.21E-03,7.95E-03
54954,4.47E-03,1.03E-02
54955,5.56E-03,1.00E-02
54956,5.64E-03,1.02E-02
54957,5.53E-03,1.05E-02
54958,6.04E-03,2.62E-02
54959,5.84E-03,2.58E-02
54960,5.43E-03,2.66E-02
54961,5.16E-03,2.94E-02
54962,4.99E-03,2.52E-02
54963,4.97E-03,2.55E-02
54964,5.00E-03,2.50E-02
54965,5.82E-03,2.04E-02
54966,4.04E-03,1.58E-02
54967,5.75E-03,1.32E-02
54968,5.29E-03,1.22E-02
54969,5.64E-03,1.10E-02
54970,5.05E-03,2.15E-02
54971,4.82E-03,2.16E-02
54972,5.32E-03,1.51E-02
54973,4.17E-03,1.48E-02
54974,4.00E-03,1.46E-02
54975,5.77E-03,1.44E-02
54976,5.05E-03,8.95E-03
54977,5.25E-03,1.73E-02
54978,6.28E-03,2.73E-02
54979,5.53E-03,1.85E-02
54980,5.46E-03,1.83E-02
54981,5.80E-03,1.82E-02
54982,5.51E-03,1.83E-02
54983,4.98E-03,1.31E-02
54984,4.70E-03,1.43E-02
54985,4.74E-03,1.09E-02
54986,5.32E-03,1.89E-02
54987,5.33E-03,1.99E-02
54988,4.75E-03,1.52E-02
54989,5.13E-03,1.61E-02
54990,5.19E-03,1.83E-02
54991,5.03E-03,1.52E-02
54992,5.30E-03,1.47E-02
54993,6.03E-03,2.41E-02
54994,6.32E-03,2.33E-02
54995,6.30E-03,2.33E-02
54996,6.19E-03,2.41E-02
54997,6.04E-03,2.47E-02
54998,6.42E-03,2.31E-02
54999,5.50E-03,1.88E-02
55000,5.50E-03,1.89E-02
55001,3.96E-03,1.90E-02
55002,3.20E-03,1.78E-02
55003,5.72E-03,7.00E-03
55004,5.32E-03,7.31E-03
55005,4.94E-03,2.13E-02
55006,4.84E-03,2.15E-02
55007,5.22E-03,1.53E-02
55008,5.59E-03,1.85E-02
55009,5.64E-03,1.82E-02
55010,5.49E-03,1.83E-02
55011,4.81E-03,1.27E-02
55012,4.70E-03,1.12E-02
55013,3.90E-03,8.88E-03
55014,5.19E-03,1.87E-02
55015,5.23E-03,2.01E-02
55016,4.98E-03,1.64E-02
55017,5.07E-03,1.80E-02
55018,5.22E-03,1.49E-02
55019,7.44E-03,2.93E-02
55020,5.70E-03,2.89E-02
55021,6.31E-03,2.41E-02
55022,6.60E-03,2.33E-02
55023,5.86E-03,6.70E-03
55024,4.42E-03,2.63E-02
55025,4.21E-03,2.61E-02
55026,4.83E-03,2.11E-02
55027,4.63E-03,2.13E-02
55028,6.61E-03,1.39E-02
55029,5.61E-03,1.85E-02
55030,5.80E-03,1.81E-02
55031,5.47E-03,1.83E-02
55032,4.57E-03,1.24E-02
55033,4.68E-03,1.15E-02
55034,5.05E-03,8.41E-03
55035,4.28E-03,8.66E-03
55036,5.02E-03,1.85E-02
55037,5.12E-03,2.02E-02
55038,4.81E-03,1.67E-02
55039,4.93E-03,1.77E-02
55040,5.03E-03,1.50E-02
55041,6.12E-03,2.85E-02
55042,6.38E-03,2.40E-02
55043,6.71E-03,2.34E-02
55044,7.10E-03,1.07E-02
55045,7.24E-03,1.05E-02
55046,4.91E-03,1.00E-02
55047,4.71E-03,2.09E-02
55048,4.35E-03,2.11E-02
55049,4.56E-03,1.75E-02
55050,4.62E-03,1.76E-02
55051,5.30E-03,1.71E-02
55052,4.74E-03,1.43E-02
55053,4.25E-03,1.45E-02
55054,5.06E-03,1.47E-02
55055,4.54E-03,1.46E-02
55056,4.58E-03,1.44E-02
55057,5.58E-03,1.84E-02
55058,6.00E-03,1.79E-02
55059,5.44E-03,1.83E-02
55060,4.54E-03,1.21E-02
55061,4.55E-03,1.18E-02
55062,4.83E-03,1.83E-02
55063,5.01E-03,2.03E-02
55064,4.66E-03,1.69E-02
55065,4.79E-03,1.74E-02
55066,4.79E-03,1.51E-02
55067,7.05E-03,2.80E-02
55068,6.55E-03,2.40E-02
55069,6.61E-03,2.58E-02
55070,6.78E-03,2.36E-02
55071,5.67E-03,1.07E-02
55072,5.97E-03,1.04E-02
55073,4.63E-03,2.08E-02
55074,4.20E-03,2.10E-02
55075,5.46E-03,1.69E-02
55076,5.82E-03,1.78E-02
55077,5.72E-03,1.79E-02
55078,5.44E-03,1.02E-02
55079,5.40E-03,1.05E-02
55080,5.54E-03,1.84E-02
55081,6.07E-03,1.77E-02
55082,5.41E-03,1.83E-02
55083,4.67E-03,1.81E-02
55084,4.80E-03,2.05E-02
55085,4.57E-03,1.72E-02
55086,4.64E-03,1.72E-02
55087,4.51E-03,1.52E-02
55088,7.72E-03,2.74E-02
55089,6.58E-03,2.39E-02
55090,6.78E-03,2.37E-02
55091,4.72E-03,2.06E-02
55092,4.25E-03,2.09E-02
55093,5.46E-03,1.67E-02
55094,5.13E-03,1.56E-02
55095,5.45E-03,1.84E-02
55096,6.10E-03,1.75E-02
55097,5.38E-03,1.83E-02
55098,3.93E-03,8.46E-03
55099,4.48E-03,8.24E-03
55100,4.55E-03,1.78E-02
55101,4.45E-03,1.74E-02
55102,4.50E-03,1.69E-02
55103,4.25E-03,1.52E-02
55104,7.45E-03,2.69E-02
55105,6.82E-03,2.38E-02
55106,4.61E-03,1.33E-02
55107,5.44E-03,1.32E-02
55108,4.40E-03,2.07E-02
55109,5.64E-03,1.65E-02
55110,5.42E-03,1.84E-02
55111,6.12E-03,1.73E-02
55112,4.44E-03,1.76E-02
55113,4.50E-03,1.66E-02
55114,7.23E-03,2.63E-02
55115,4.47E-03,2.06E-02
55116,6.05E-03,1.71E-02
55117,4.56E-03,1.63E-02
55118,6.97E-03,2.58E-02
55119,7.29E-03,2.77E-02
55120,4.69E-03,2.05E-02
55121,4.93E-03,1.61E-02
55122,5.73E-03,1.69E-02
55123,4.66E-03,1.60E-02
55124,4.08E-03,1.53E-02
55125,4.06E-03,1.53E-02
55126,6.53E-03,2.53E-02
55127,7.98E-03,2.81E-02
55128,5.46E-03,1.67E-02
55129,4.11E-03,1.53E-02
55130,4.27E-03,1.54E-02
55131,4.81E-03,2.03E-02
55132,5.02E-03,2.02E-02
55133,4.80E-03,1.57E-02
55134,6.38E-03,2.48E-02
55135,8.85E-03,2.86E-02
55136,4.89E-03,1.59E-02
55137,5.28E-03,1.64E-02
55138,5.22E-03,2.00E-02
55139,5.91E-03,1.58E-02
55140,5.82E-03,1.61E-02
55141,5.67E-03,1.63E-02
55142,5.55E-03,8.31E-03
55143,5.66E-03,8.03E-03
55144,5.43E-03,8.88E-03
55145,5.51E-03,8.60E-03
55146,5.49E-03,9.44E-03
55147,5.42E-03,9.16E-03
55148,5.64E-03,9.73E-03
55149,5.60E-03,1.17E-02
55150,5.52E-03,1.14E-02
55151,5.66E-03,1.19E-02
55152,5.90E-03,1.32E-02
55153,5.80E-03,1.30E-02
55154,6.03E-03,1.35E-02
55155,5.69E-03,1.86E-02
55156,5.54E-03,1.83E-02
55157,5.24E-03,1.40E-02
55158,5.42E-03,1.95E-02
55159,5.34E-03,1.54E-02
55160,5.51E-03,1.93E-02
55161,5.41E-03,1.44E-02
55162,5.74E-03,2.32E-02
55163,5.91E-03,2.41E-02
55164,6.15E-03,2.29E-02
55165,5.33E-03,1.49E-02
55166,5.78E-03,1.49E-02
55167,5.47E-03,1.52E-02
55168,5.49E-03,1.51E-02
55169,5.41E-03,1.54E-02
55170,5.39E-03,1.53E-02
55171,5.41E-03,1.56E-02
55172,5.44E-03,1.55E-02
55173,5.46E-03,1.58E-02
55174,5.41E-03,1.57E-02
55175,5.48E-03,1.60E-02
55176,5.50E-03,1.59E-02
55177,5.45E-03,1.63E-02
55178,5.47E-03,1.61E-02
55179,5.40E-03,1.65E-02
55180,5.42E-03,1.64E-02
55181,5.40E-03,1.65E-02
55182,4.87E-03,1.70E-02
55183,6.86E-03,1.72E-02
55184,6.74E-03,1.74E-02
55185,7.52E-03,1.73E-02
55186,6.11E-03,1.76E-02
55187,6.29E-03,1.75E-02
55188,5.83E-03,1.77E-02
55189,5.95E-03,1.77E-02
55190,5.67E-03,1.78E-02
55191,5.56E-03,1.80E-02
55192,5.56E-03,1.80E-02
55193,5.61E-03,1.82E-02
55194,5.57E-03,1.81E-02
55195,5.59E-03,1.83E-02
55196,5.62E-03,1.82E-02
55197,5.58E-03,1.84E-02
55198,5.63E-03,1.84E-02
55199,5.54E-03,1.85E-02
55200,5.60E-03,1.85E-02
55201,5.53E-03,1.86E-02
55202,5.52E-03,1.86E-02
55203,5.56E-03,1.87E-02
55204,5.55E-03,1.86E-02
55205,5.58E-03,1.88E-02
55206,5.56E-03,1.87E-02
55207,5.52E-03,1.88E-02
55208,5.51E-03,1.89E-02
55209,5.33E-03,1.89E-02
55210,5.48E-03,1.89E-02
55211,4.97E-03,1.89E-02
55212,5.18E-03,1.89E-02
55213,4.51E-03,1.89E-02
55214,4.74E-03,1.90E-02
55215,5.50E-03,1.90E-02
55216,5.20E-03,1.90E-02
55217,5.44E-03,1.89E-02
55218,5.51E-03,1.89E-02
55219,5.45E-03,1.89E-02
55220,5.41E-03,1.89E-02
55221,5.55E-03,1.88E-02
55222,5.49E-03,1.89E-02
55223,5.64E-03,1.88E-02
55224,5.62E-03,1.88E-02
55225,5.69E-03,1.87E-02
55226,5.64E-03,1.87E-02
55227,5.68E-03,1.86E-02
55228,5.67E-03,1.87E-02
55229,5.68E-03,1.85E-02
55230,5.69E-03,1.86E-02
55231,5.69E-03,1.84E-02
55232,5.71E-03,1.84E-02
55233,5.62E-03,1.83E-02
55234,5.66E-03,1.83E-02
55235,5.52E-03,1.81E-02
55236,5.55E-03,1.82E-02
55237,5.49E-03,1.79E-02
55238,5.54E-03,1.80E-02
55239,5.41E-03,1.78E-02
55240,5.45E-03,1.79E-02
55241,5.46E-03,1.76E-02
55242,5.47E-03,1.77E-02
55243,5.56E-03,1.74E-02
55244,5.49E-03,1.75E-02
55245,5.59E-03,1.72E-02
55246,5.55E-03,1.73E-02
55247,5.61E-03,1.71E-02
55248,5.57E-03,1.65E-02
55249,5.51E-03,1.66E-02
55250,5.64E-03,1.63E-02
55251,5.57E-03,1.64E-02
55252,5.69E-03,1.60E-02
55253,5.67E-03,1.62E-02
55254,5.64E-03,1.58E-02
55255,5.67E-03,1.59E-02
55256,5.64E-03,1.55E-02
55257,5.68E-03,1.56E-02
55258,5.69E-03,1.52E-02
55259,5.67E-03,1.54E-02
55260,5.91E-03,1.50E-02
55261,5.73E-03,1.51E-02
55262,6.49E-03,1.48E-02
55263,5.94E-03,1.44E-02
55264,5.17E-03,1.41E-02
55265,4.59E-03,1.42E-02
55266,5.52E-03,1.38E-02
55267,5.34E-03,1.39E-02
55268,5.67E-03,1.35E-02
55269,5.61E-03,1.36E-02
55270,5.62E-03,1.32E-02
55271,5.65E-03,1.34E-02
55272,5.63E-03,1.29E-02
55273,5.63E-03,1.31E-02
55274,5.77E-03,1.26E-02
55275,5.68E-03,1.28E-02
55276,5.61E-03,1.25E-02
55277,4.86E-03,1.20E-02
55278,5.35E-03,1.18E-02
55279,5.31E-03,1.11E-02
55280,5.40E-03,1.12E-02
55281,4.99E-03,1.10E-02
55282,5.15E-03,6.44E-03
55283,5.39E-03,6.45E-03
55284,4.82E-03,6.40E-03
55285,5.26E-03,6.50E-03
55286,5.31E-03,6.47E-03
55287,5.23E-03,6.53E-03
55288,5.23E-03,6.52E-03
55289,5.14E-03,6.54E-03
55290,5.95E-03,6.80E-03
55291,6.06E-03,6.76E-03
55292,6.03E-03,6.84E-03
55293,5.70E-03,7.02E-03
55294,5.80E-03,6.94E-03
55295,5.48E-03,7.15E-03
55296,5.60E-03,7.09E-03
55297,5.67E-03,7.27E-03
55298,5.54E-03,7.21E-03
55299,5.77E-03,7.39E-03
55300,5.69E-03,7.33E-03
55301,5.90E-03,7.51E-03
55302,5.90E-03,7.45E-03
55303,5.80E-03,7.62E-03
55304,5.94E-03,7.56E-03
55305,5.71E-03,7.74E-03
55306,5.76E-03,7.68E-03
55307,5.53E-03,7.79E-03
55308,5.63E-03,8.13E-03
55309,5.47E-03,1.03E-02
55310,5.17E-03,9.95E-03
55311,6.80E-03,9.96E-03
55312,6.38E-03,1.00E-02
55313,6.28E-03,1.05E-02
55314,5.49E-03,1.05E-02
55315,5.63E-03,1.07E-02
55316,5.44E-03,1.07E-02
55317,5.91E-03,1.05E-02
55318,5.71E-03,1.05E-02
55319,5.67E-03,1.04E-02
55320,5.90E-03,1.04E-02
55321,5.46E-03,1.04E-02
55322,5.05E-03,1.03E-02
55323,5.61E-03,1.02E-02
55324,5.66E-03,1.01E-02
55325,5.58E-03,1.02E-02
55326,5.35E-03,1.01E-02
55327,5.40E-03,1.01E-02
55328,5.21E-03,1.01E-02
55329,5.20E-03,1.01E-02
55330,5.09E-03,1.01E-02
55331,5.09E-03,1.01E-02
55332,5.05E-03,1.02E-02
55333,5.04E-03,1.02E-02
55334,5.05E-03,1.02E-02
55335,4.94E-03,1.04E-02
55336,5.23E-03,1.04E-02
55337,4.91E-03,1.05E-02
55338,4.88E-03,1.04E-02
55339,4.87E-03,1.05E-02
55340,5.32E-03,1.09E-02
55341,4.82E-03,1.11E-02
55342,5.08E-03,1.15E-02
55343,4.91E-03,1.14E-02
55344,4.89E-03,1.16E-02
55345,5.02E-03,1.16E-02
55346,4.72E-03,1.17E-02
55347,5.79E-03,1.28E-02
55348,5.37E-03,1.47E-02
55349,5.38E-03,1.43E-02
55350,5.54E-03,1.54E-02
55351,5.46E-03,1.50E-02
55352,5.56E-03,1.58E-02
55353,5.50E-03,1.79E-02
55354,5.56E-03,1.75E-02
55355,5.56E-03,1.87E-02
55356,5.51E-03,1.83E-02
55357,5.68E-03,1.96E-02
55358,5.63E-03,1.91E-02
55359,5.70E-03,2.04E-02
55360,5.72E-03,2.00E-02
55361,5.40E-03,2.12E-02
55362,5.54E-03,2.08E-02
55363,5.25E-03,2.21E-02
55364,5.29E-03,2.17E-02
55365,5.09E-03,2.29E-02
55366,5.16E-03,2.25E-02
55367,4.97E-03,2.37E-02
55368,5.06E-03,2.33E-02
55369,4.94E-03,2.45E-02
55370,4.94E-03,2.41E-02
55371,5.05E-03,2.49E-02
55372,5.53E-03,2.71E-02
55373,4.49E-03,2.86E-02
55374,4.64E-03,2.84E-02
55375,4.38E-03,2.89E-02
55376,4.39E-03,2.88E-02
55377,4.55E-03,2.90E-02
55378,3.92E-03,2.94E-02
55379,5.25E-03,2.92E-02
55380,4.63E-03,2.86E-02
55381,4.10E-03,2.87E-02
55382,4.93E-03,2.84E-02
55383,5.39E-03,2.73E-02
55384,5.57E-03,2.75E-02
55385,5.10E-03,2.71E-02
55386,4.95E-03,2.61E-02
55387,4.91E-03,2.64E-02
55388,4.95E-03,2.59E-02
55389,5.49E-03,2.43E-02
55390,5.29E-03,2.45E-02
55391,4.66E-03,2.38E-02
55392,5.99E-03,2.40E-02
55393,4.24E-03,2.35E-02
55394,5.20E-03,2.26E-02
55395,5.37E-03,2.12E-02
55396,5.29E-03,2.15E-02
55397,5.45E-03,2.10E-02
55398,5.38E-03,1.92E-02
55399,5.57E-03,1.95E-02
55400,5.45E-03,1.90E-02
55401,5.37E-03,1.75E-02
55402,6.08E-03,1.69E-02
55403,6.58E-03,1.72E-02
55404,5.90E-03,1.66E-02
55405,4.95E-03,1.50E-02
55406,4.93E-03,1.52E-02
55407,4.82E-03,1.46E-02
55408,4.90E-03,1.48E-02
55409,4.85E-03,1.41E-02
55410,4.78E-03,1.44E-02
55411,4.74E-03,1.40E-02
55412,4.95E-03,1.26E-02
55413,4.67E-03,1.23E-02
55414,4.71E-03,1.25E-02
55415,4.56E-03,1.20E-02
55416,4.61E-03,1.22E-02
55417,4.65E-03,1.17E-02
55418,4.54E-03,1.18E-02
55419,4.67E-03,1.14E-02
55420,4.68E-03,1.15E-02
55421,4.62E-03,1.12E-02
55422,4.86E-03,1.05E-02
55423,4.81E-03,1.06E-02
55424,5.03E-03,1.03E-02
55425,4.99E-03,1.04E-02
55426,5.04E-03,9.99E-03
55427,5.08E-03,1.01E-02
55428,5.06E-03,9.72E-03
55429,5.05E-03,9.85E-03
55430,5.11E-03,9.47E-03
55431,5.06E-03,9.59E-03
55432,5.22E-03,9.22E-03
55433,5.14E-03,9.35E-03
55434,5.32E-03,8.98E-03
55435,5.28E-03,9.10E-03
55436,5.40E-03,8.88E-03
55437,5.54E-03,8.69E-03
55438,5.10E-03,8.24E-03
55439,5.25E-03,7.82E-03
55440,5.20E-03,7.89E-03
55441,5.38E-03,7.66E-03
55442,5.32E-03,7.74E-03
55443,5.32E-03,7.51E-03
55444,5.40E-03,7.58E-03
55445,5.30E-03,7.37E-03
55446,5.28E-03,7.44E-03
55447,4.57E-03,7.25E-03
55448,4.86E-03,7.29E-03
55449,5.42E-03,1.27E-02
55450,5.58E-03,1.15E-02
55451,5.89E-03,9.59E-03
55452,5.92E-03,9.87E-03
55453,5.78E-03,9.01E-03
55454,5.81E-03,9.30E-03
55455,5.73E-03,8.73E-03
55456,5.12E-03,2.18E-02
55457,5.69E-03,1.17E-02
55458,5.20E-03,1.18E-02
55459,6.01E-03,1.18E-02
55460,6.00E-03,1.43E-02
55461,5.57E-03,9.39E-03
55462,4.65E-03,1.75E-02
55463,4.23E-03,1.05E-02
55464,5.47E-03,7.88E-03
55465,4.21E-03,9.86E-03
55466,5.45E-03,9.89E-03
55467,5.03E-03,1.47E-02
55468,6.63E-03,1.51E-02
55469,7.36E-03,2.64E-02
55470,6.98E-03,1.75E-02
55471,5.43E-03,1.16E-02
55472,5.23E-03,2.93E-02
55473,4.95E-03,2.96E-02
55474,4.64E-03,2.69E-02
55475,5.94E-03,1.10E-02
55476,4.56E-03,7.10E-03
55477,5.44E-03,9.91E-03
55478,5.38E-03,1.11E-02
55479,5.69E-03,1.24E-02
55480,5.68E-03,1.21E-02
55481,5.74E-03,1.26E-02
55482,6.22E-03,1.36E-02
55483,5.63E-03,1.85E-02
55484,5.50E-03,1.85E-02
55485,5.57E-03,1.83E-02
55486,5.60E-03,1.83E-02
55487,4.59E-03,1.80E-02
55488,5.20E-03,1.36E-02
55489,5.24E-03,1.40E-02
55490,5.45E-03,1.93E-02
55491,5.46E-03,1.96E-02
55492,5.05E-03,1.54E-02
55493,5.29E-03,1.57E-02
55494,5.48E-03,1.96E-02
55495,5.43E-03,1.90E-02
55496,5.25E-03,1.48E-02
55497,5.40E-03,1.46E-02
55498,5.84E-03,2.36E-02
55499,5.89E-03,2.33E-02
55500,5.97E-03,2.41E-02
55501,5.99E-03,2.43E-02
55502,6.27E-03,2.32E-02
55503,6.25E-03,2.30E-02
55504,6.17E-03,1.09E-02
55505,5.79E-03,1.09E-02
55506,5.34E-03,1.12E-02
55507,4.16E-03,1.15E-02
55508,4.70E-03,1.69E-02
55509,5.48E-03,1.72E-02
55510,5.43E-03,1.46E-02
55511,5.42E-03,1.23E-02
55512,5.34E-03,1.16E-02
55513,5.96E-03,6.61E-03
55514,5.01E-03,6.45E-03
55515,5.58E-03,6.60E-03
55516,5.81E-03,1.03E-02
55517,5.32E-03,1.01E-02
55518,5.35E-03,1.02E-02
55519,5.22E-03,1.01E-02
55520,4.92E-03,1.01E-02
55521,5.75E-03,9.92E-03
55522,5.55E-03,9.98E-03
55523,5.53E-03,9.80E-03
55524,5.51E-03,9.82E-03
55525,5.41E-03,1.01E-02
55526,5.04E-03,1.07E-02
55527,5.73E-03,1.05E-02
55528,4.92E-03,1.07E-02
55529,4.86E-03,1.08E-02
55530,4.85E-03,1.09E-02
55531,4.80E-03,1.14E-02
55532,5.56E-03,1.34E-02
55533,5.57E-03,1.30E-02
55534,5.49E-03,1.37E-02
55535,5.63E-03,1.65E-02
55536,5.61E-03,1.61E-02
55537,5.62E-03,1.69E-02
55538,5.15E-03,2.54E-02
55539,5.37E-03,2.70E-02
55540,6.55E-03,2.80E-02
55541,5.63E-03,2.77E-02
55542,5.55E-03,2.84E-02
55543,5.00E-03,2.94E-02
55544,4.70E-03,2.98E-02
55545,4.73E-03,2.98E-02
55546,4.73E-03,2.96E-02
55547,4.45E-03,3.00E-02
55548,3.60E-03,3.00E-02
55549,4.35E-03,2.97E-02
55550,6.13E-03,2.91E-02
55551,5.56E-03,2.81E-02
55552,5.43E-03,2.83E-02
55553,5.67E-03,2.79E-02
55554,4.68E-03,2.71E-02
55555,5.00E-03,2.57E-02
55556,5.09E-03,2.48E-02
55557,5.18E-03,2.30E-02
55558,5.03E-03,2.33E-02
55559,5.15E-03,2.28E-02
55560,5.24E-03,2.20E-02
55561,5.21E-03,2.23E-02
55562,5.29E-03,2.17E-02
55563,5.64E-03,2.06E-02
55564,5.76E-03,2.00E-02
55565,5.71E-03,1.97E-02
55566,4.59E-03,1.76E-02
55567,6.13E-03,1.62E-02
55568,3.97E-03,1.56E-02
55569,4.77E-03,1.52E-02
55570,3.95E-03,1.35E-02
55571,5.17E-03,1.28E-02
55572,4.77E-03,1.06E-02
55573,4.74E-03,1.08E-02
55574,4.78E-03,1.05E-02
55575,5.35E-03,8.19E-03
55576,5.42E-03,8.29E-03
55577,5.24E-03,8.07E-03
55578,5.15E-03,7.75E-03
55579,5.16E-03,7.85E-03
55580,5.14E-03,7.67E-03
55581,5.58E-03,1.29E-02
55582,5.29E-03,1.24E-02
55583,5.53E-03,1.12E-02
55584,6.05E-03,1.01E-02
55585,5.06E-03,2.15E-02
55586,4.98E-03,2.16E-02
55587,5.40E-03,1.43E-02
55588,5.18E-03,1.50E-02
55589,5.29E-03,9.21E-03
55590,4.71E-03,1.03E-02
55591,4.64E-03,1.03E-02
55592,5.12E-03,1.73E-02
55593,6.39E-03,2.70E-02
55594,5.39E-03,1.08E-02
55595,5.70E-03,1.40E-02
55596,5.59E-03,1.85E-02
55597,5.52E-03,1.84E-02
55598,5.74E-03,1.82E-02
55599,5.57E-03,1.83E-02
55600,4.94E-03,1.06E-02
55601,5.07E-03,1.33E-02
55602,5.06E-03,1.41E-02
55603,4.75E-03,1.07E-02
55604,5.35E-03,1.91E-02
55605,5.40E-03,1.98E-02
55606,4.85E-03,1.54E-02
55607,5.20E-03,1.60E-02
55608,5.40E-03,1.98E-02
55609,5.31E-03,1.86E-02
55610,5.15E-03,1.51E-02
55611,5.36E-03,1.48E-02
55612,5.30E-03,2.94E-02
55613,6.00E-03,2.39E-02
55614,6.18E-03,2.34E-02
55615,6.10E-03,2.42E-02
55616,6.02E-03,2.46E-02
55617,6.36E-03,2.32E-02
55618,5.82E-03,1.04E-02
55619,6.08E-03,1.05E-02
55620,5.34E-03,1.12E-02
55621,5.37E-03,1.14E-02
55622,5.42E-03,6.38E-03
55623,6.60E-03,1.03E-02
55624,5.53E-03,1.02E-02
55625,5.52E-03,9.78E-03
55626,5.52E-03,2.58E-02
55627,5.09E-03,2.67E-02
55628,4.73E-03,2.97E-02
55629,5.06E-03,2.53E-02
55630,5.03E-03,2.55E-02
55631,5.03E-03,2.50E-02
55632,5.70E-03,2.03E-02
55633,5.41E-03,1.86E-02
55634,5.30E-03,1.17E-02
55635,5.20E-03,1.19E-02
55636,6.02E-03,1.31E-02
55637,5.51E-03,1.10E-02
55638,5.31E-03,7.60E-03
55639,5.03E-03,2.13E-02
55640,4.93E-03,2.14E-02
55641,5.33E-03,9.77E-03
55642,4.39E-03,1.45E-02
55643,4.68E-03,1.44E-02
55644,5.32E-03,1.52E-02
55645,5.67E-03,1.85E-02
55646,5.66E-03,1.83E-02
55647,6.24E-03,1.81E-02
55648,5.51E-03,1.83E-02
55649,5.21E-03,1.03E-02
55650,4.95E-03,1.29E-02
55651,4.64E-03,1.41E-02
55652,4.82E-03,1.10E-02
55653,4.89E-03,9.08E-03
55654,5.29E-03,1.89E-02
55655,5.31E-03,1.99E-02
55656,4.57E-03,1.54E-02
55657,5.08E-03,1.63E-02
55658,5.18E-03,1.83E-02
55659,5.01E-03,1.54E-02
55660,5.30E-03,1.50E-02
55661,5.35E-03,2.95E-02
55662,6.19E-03,2.92E-02
55663,5.78E-03,2.90E-02
55664,6.18E-03,2.44E-02
55665,6.20E-03,2.35E-02
55666,6.12E-03,2.36E-02
55667,6.27E-03,2.42E-02
55668,6.17E-03,2.49E-02
55669,6.53E-03,2.33E-02
55670,3.25E-03,6.14E-03
55671,5.31E-03,9.94E-03
55672,4.12E-03,2.67E-02
55673,6.25E-03,1.36E-02
55674,5.64E-03,1.33E-02
55675,4.90E-03,7.31E-03
55676,4.95E-03,2.11E-02
55677,4.80E-03,2.12E-02
55678,5.92E-03,1.52E-02
55679,4.05E-03,1.00E-02
55680,6.10E-03,1.41E-02
55681,4.75E-03,2.66E-02
55682,5.65E-03,1.84E-02
55683,5.80E-03,1.81E-02
55684,5.47E-03,1.83E-02
55685,4.89E-03,1.26E-02
55686,5.12E-03,1.42E-02
55687,4.77E-03,1.13E-02
55688,4.95E-03,8.91E-03
55689,5.19E-03,1.87E-02
55690,5.17E-03,2.00E-02
55691,4.92E-03,1.65E-02
55692,5.06E-03,1.80E-02
55693,5.19E-03,1.51E-02
55694,7.54E-03,2.89E-02
55695,6.01E-03,2.86E-02
55696,6.37E-03,2.42E-02
55697,6.76E-03,2.52E-02
55698,6.62E-03,2.35E-02
55699,6.41E-03,1.07E-02
55700,6.76E-03,1.05E-02
55701,7.09E-03,1.03E-02
55702,4.68E-03,9.82E-03
55703,3.29E-03,9.71E-03
55704,4.64E-03,2.69E-02
55705,4.70E-03,2.67E-02
55706,4.78E-03,2.09E-02
55707,4.57E-03,2.11E-02
55708,5.30E-03,1.72E-02
55709,4.69E-03,1.42E-02
55710,5.70E-03,1.47E-02
55711,5.68E-03,1.45E-02
55712,5.48E-03,1.44E-02
55713,4.70E-03,6.75E-03
55714,5.66E-03,1.84E-02
55715,5.92E-03,1.80E-02
55716,5.49E-03,1.83E-02
55717,4.78E-03,1.23E-02
55718,4.74E-03,1.16E-02
55719,4.54E-03,8.67E-03
55720,4.91E-03,1.84E-02
55721,5.10E-03,2.02E-02
55722,4.76E-03,1.68E-02
55723,4.91E-03,1.77E-02
55724,4.99E-03,1.52E-02
55725,6.63E-03,2.82E-02
55726,6.42E-03,2.41E-02
55727,7.60E-03,2.55E-02
55728,6.64E-03,2.36E-02
55729,5.51E-03,1.07E-02
55730,5.69E-03,1.04E-02
55731,4.75E-03,2.07E-02
55732,4.39E-03,2.09E-02
55733,5.36E-03,1.70E-02
55734,5.65E-03,1.77E-02
55735,5.59E-03,1.78E-02
55736,5.27E-03,1.01E-02
55737,5.42E-03,1.04E-02
55738,5.59E-03,1.84E-02
55739,5.97E-03,1.78E-02
55740,5.46E-03,1.83E-02
55741,4.71E-03,1.20E-02
55742,4.44E-03,8.42E-03
55743,4.79E-03,1.82E-02
55744,4.95E-03,2.03E-02
55745,4.63E-03,1.71E-02
55746,4.76E-03,1.74E-02
55747,4.71E-03,1.53E-02
55748,7.41E-03,2.77E-02
55749,6.52E-03,2.41E-02
55750,7.40E-03,2.60E-02
55751,6.81E-03,2.38E-02
55752,4.69E-03,2.06E-02
55753,4.35E-03,2.08E-02
55754,5.50E-03,1.68E-02
55755,4.98E-03,1.57E-02
55756,5.48E-03,1.84E-02
55757,6.09E-03,1.76E-02
55758,5.43E-03,1.83E-02
55759,6.76E-03,8.01E-03
55760,4.65E-03,1.80E-02
55761,4.82E-03,2.04E-02
55762,4.55E-03,1.73E-02
55763,4.65E-03,1.72E-02
55764,4.41E-03,1.54E-02
55765,7.31E-03,2.71E-02
55766,6.66E-03,2.40E-02
55767,6.69E-03,2.39E-02
55768,3.54E-03,1.32E-02
55769,3.83E-03,1.30E-02
55770,5.27E-03,1.55E-02
55771,4.41E-03,2.06E-02
55772,5.53E-03,1.66E-02
55773,5.44E-03,1.83E-02
55774,6.06E-03,1.74E-02
55775,5.46E-03,1.83E-02
55776,4.48E-03,1.78E-02
55777,4.45E-03,1.75E-02
55778,4.51E-03,1.69E-02
55779,7.21E-03,2.66E-02
55780,4.47E-03,2.05E-02
55781,6.04E-03,1.72E-02
55782,4.58E-03,1.66E-02
55783,6.99E-03,2.61E-02
55784,6.96E-03,2.74E-02
55785,5.98E-03,1.38E-02
55786,4.71E-03,2.04E-02
55787,4.88E-03,1.62E-02
55788,5.89E-03,1.70E-02
55789,4.65E-03,1.63E-02
55790,4.19E-03,1.54E-02
55791,4.06E-03,1.55E-02
55792,6.66E-03,2.56E-02
55793,7.45E-03,2.78E-02
55794,5.67E-03,1.68E-02
55795,4.18E-03,1.55E-02
55796,4.25E-03,1.55E-02
55797,4.76E-03,2.03E-02
55798,4.96E-03,2.01E-02
55799,4.78E-03,1.60E-02
55800,6.46E-03,2.51E-02
55801,7.74E-03,2.82E-02
55802,4.94E-03,1.60E-02
55803,5.17E-03,1.66E-02
55804,5.15E-03,1.99E-02
55805,5.87E-03,1.57E-02
55806,5.85E-03,1.59E-02
55807,5.70E-03,1.62E-02
55808,5.62E-03,1.64E-02
55809,5.12E-03,7.06E-03
55810,5.46E-03,7.67E-03
55811,5.25E-03,7.38E-03
55812,5.52E-03,8.25E-03
55813,5.56E-03,7.96E-03
55814,5.43E-03,8.82E-03
55815,5.49E-03,8.53E-03
55816,5.42E-03,9.37E-03
55817,5.42E-03,9.09E-03
55818,5.40E-03,9.65E-03
55819,5.58E-03,1.16E-02
55820,5.45E-03,1.13E-02
55821,5.63E-03,1.18E-02
55822,5.88E-03,1.31E-02
55823,5.74E-03,1.29E-02
55824,5.94E-03,1.34E-02
55825,5.59E-03,1.85E-02
55826,5.58E-03,1.83E-02
55827,4.50E-03,1.80E-02
55828,4.68E-03,1.79E-02
55829,5.27E-03,1.38E-02
55830,5.45E-03,1.95E-02
55831,5.24E-03,1.55E-02
55832,5.50E-03,1.93E-02
55833,5.37E-03,1.47E-02
55834,5.84E-03,2.34E-02
55835,5.94E-03,2.42E-02
55836,6.22E-03,2.31E-02
55837,6.48E-03,1.09E-02
55838,6.11E-03,1.16E-02
55839,5.09E-03,1.16E-02
55840,5.74E-03,1.50E-02
55841,5.45E-03,1.48E-02
55842,5.46E-03,1.52E-02
55843,5.52E-03,1.51E-02
55844,5.46E-03,1.54E-02
55845,5.42E-03,1.53E-02
55846,5.46E-03,1.56E-02
55847,5.42E-03,1.55E-02
55848,5.46E-03,1.58E-02
55849,5.47E-03,1.57E-02
55850,5.55E-03,1.60E-02
55851,5.51E-03,1.59E-02
55852,5.51E-03,1.62E-02
55853,5.51E-03,1.61E-02
55854,5.55E-03,1.65E-02
55855,5.51E-03,1.63E-02
55856,5.62E-03,1.67E-02
55857,5.53E-03,1.66E-02
55858,6.36E-03,1.68E-02
55859,5.64E-03,1.68E-02
55860,4.78E-03,1.71E-02
55861,4.12E-03,1.70E-02
55862,5.00E-03,1.72E-02
55863,6.38E-03,1.76E-02
55864,7.34E-03,1.75E-02
55865,6.08E-03,1.77E-02
55866,6.19E-03,1.77E-02
55867,5.83E-03,1.79E-02
55868,5.89E-03,1.78E-02
55869,5.65E-03,1.81E-02
55870,5.70E-03,1.80E-02
55871,5.57E-03,1.82E-02
55872,5.59E-03,1.81E-02
55873,5.57E-03,1.83E-02
55874,5.54E-03,1.83E-02
55875,5.69E-03,1.84E-02
55876,5.65E-03,1.84E-02
55877,5.60E-03,1.85E-02
55878,5.67E-03,1.85E-02
55879,5.59E-03,1.86E-02
55880,5.58E-03,1.86E-02
55881,5.50E-03,1.87E-02
55882,5.57E-03,1.87E-02
55883,5.49E-03,1.88E-02
55884,5.46E-03,1.88E-02
55885,5.56E-03,1.89E-02
55886,5.54E-03,1.88E-02
55887,5.58E-03,1.89E-02
55888,5.53E-03,1.90E-02
55889,5.37E-03,1.90E-02
55890,5.50E-03,1.90E-02
55891,5.16E-03,1.90E-02
55892,5.26E-03,1.90E-02
55893,5.17E-03,1.90E-02
55894,5.11E-03,1.90E-02
55895,5.49E-03,1.90E-02
55896,5.31E-03,1.90E-02
55897,5.50E-03,1.90E-02
55898,5.49E-03,1.90E-02
55899,5.46E-03,1.89E-02
55900,5.46E-03,1.90E-02
55901,5.58E-03,1.89E-02
55902,5.56E-03,1.89E-02
55903,5.62E-03,1.88E-02
55904,5.59E-03,1.88E-02
55905,5.63E-03,1.87E-02
55906,5.64E-03,1.88E-02
55907,5.61E-03,1.86E-02
55908,5.60E-03,1.87E-02
55909,5.65E-03,1.85E-02
55910,5.63E-03,1.86E-02
55911,5.68E-03,1.84E-02
55912,5.65E-03,1.84E-02
55913,5.62E-03,1.82E-02
55914,5.68E-03,1.83E-02
55915,5.55E-03,1.81E-02
55916,5.56E-03,1.82E-02
55917,5.49E-03,1.79E-02
55918,5.53E-03,1.80E-02
55919,5.44E-03,1.77E-02
55920,5.49E-03,1.78E-02
55921,5.48E-03,1.76E-02
55922,5.48E-03,1.77E-02
55923,5.51E-03,1.74E-02
55924,5.50E-03,1.75E-02
55925,5.59E-03,1.71E-02
55926,5.51E-03,1.73E-02
55927,5.52E-03,1.69E-02
55928,5.57E-03,1.70E-02
55929,5.60E-03,1.67E-02
55930,5.52E-03,1.65E-02
55931,5.53E-03,1.66E-02
55932,5.57E-03,1.62E-02
55933,5.52E-03,1.63E-02
55934,5.65E-03,1.60E-02
55935,5.60E-03,1.61E-02
55936,5.65E-03,1.57E-02
55937,5.68E-03,1.58E-02
55938,5.64E-03,1.54E-02
55939,5.66E-03,1.55E-02
55940,5.72E-03,1.51E-02
55941,5.70E-03,1.53E-02
55942,5.89E-03,1.49E-02
55943,5.79E-03,1.50E-02
55944,4.98E-03,1.46E-02
55945,6.38E-03,1.47E-02
55946,6.00E-03,1.43E-02
55947,4.21E-03,1.44E-02
55948,5.40E-03,1.40E-02
55949,6.01E-03,1.41E-02
55950,5.58E-03,1.37E-02
55951,5.44E-03,1.38E-02
55952,5.65E-03,1.34E-02
55953,5.63E-03,1.35E-02
55954,5.64E-03,1.31E-02
55955,5.63E-03,1.32E-02
55956,5.70E-03,1.28E-02
55957,5.66E-03,1.30E-02
55958,5.91E-03,1.25E-02
55959,5.76E-03,1.27E-02
55960,6.30E-03,1.24E-02
55961,4.82E-03,1.19E-02
55962,5.20E-03,1.17E-02
55963,5.33E-03,1.10E-02
55964,5.44E-03,1.11E-02
55965,6.17E-03,1.09E-02
55966,5.84E-03,6.17E-03
55967,5.33E-03,6.15E-03
55968,5.40E-03,6.15E-03
55969,5.29E-03,6.20E-03
55970,5.33E-03,6.18E-03
55971,5.27E-03,6.24E-03
55972,5.27E-03,6.22E-03
55973,5.32E-03,6.27E-03
55974,5.59E-03,6.40E-03
55975,5.99E-03,6.49E-03
55976,5.82E-03,6.44E-03
55977,6.04E-03,6.54E-03
55978,5.53E-03,6.74E-03
55979,5.51E-03,6.68E-03
55980,5.50E-03,6.86E-03
55981,5.50E-03,6.80E-03
55982,5.64E-03,6.98E-03
55983,5.56E-03,6.92E-03
55984,5.77E-03,7.10E-03
55985,5.68E-03,7.04E-03
55986,5.94E-03,7.21E-03
55987,5.89E-03,7.16E-03
55988,5.87E-03,7.33E-03
55989,6.00E-03,7.28E-03
55990,5.73E-03,7.45E-03
55991,5.82E-03,7.39E-03
55992,5.56E-03,7.59E-03
55993,5.65E-03,7.51E-03
55994,5.96E-03,7.79E-03
55995,5.68E-03,7.70E-03
55996,5.85E-03,7.83E-03
55997,6.16E-03,9.41E-03
55998,6.28E-03,9.35E-03
55999,7.01E-03,9.61E-03
56000,7.06E-03,9.50E-03
56001,6.69E-03,9.83E-03
56002,6.67E-03,9.72E-03
56003,5.95E-03,1.02E-02
56004,6.47E-03,1.01E-02
56005,5.86E-03,1.03E-02
56006,5.75E-03,1.03E-02
56007,5.74E-03,1.03E-02
56008,5.61E-03,1.02E-02
56009,5.80E-03,1.02E-02
56010,5.50E-03,1.02E-02
56011,5.10E-03,1.01E-02
56012,5.58E-03,9.96E-03
56013,5.54E-03,9.95E-03
56014,5.56E-03,9.97E-03
56015,5.40E-03,9.86E-03
56016,5.46E-03,9.84E-03
56017,5.20E-03,9.88E-03
56018,5.26E-03,9.87E-03
56019,5.09E-03,9.90E-03
56020,5.13E-03,9.89E-03
56021,5.23E-03,9.94E-03
56022,5.14E-03,9.92E-03
56023,5.28E-03,9.99E-03
56024,5.00E-03,1.01E-02
56025,5.13E-03,1.01E-02
56026,4.85E-03,1.02E-02
56027,4.90E-03,1.02E-02
56028,4.81E-03,1.02E-02
56029,5.20E-03,1.06E-02
56030,5.38E-03,1.06E-02
56031,4.83E-03,1.08E-02
56032,5.03E-03,1.11E-02
56033,4.82E-03,1.10E-02
56034,4.86E-03,1.10E-02
56035,4.90E-03,1.13E-02
56036,4.95E-03,1.12E-02
56037,4.75E-03,1.13E-02
56038,5.19E-03,1.23E-02
56039,5.49E-03,1.26E-02
56040,5.37E-03,1.45E-02
56041,5.42E-03,1.41E-02
56042,5.51E-03,1.53E-02
56043,5.47E-03,1.49E-02
56044,5.55E-03,1.57E-02
56045,5.54E-03,1.77E-02
56046,5.61E-03,1.73E-02
56047,5.57E-03,1.86E-02
56048,5.46E-03,1.82E-02
56049,5.68E-03,1.95E-02
56050,5.60E-03,1.90E-02
56051,5.62E-03,2.03E-02
56052,5.65E-03,1.99E-02
56053,5.43E-03,2.12E-02
56054,5.49E-03,2.08E-02
56055,5.27E-03,2.20E-02
56056,5.34E-03,2.16E-02
56057,5.11E-03,2.29E-02
56058,5.22E-03,2.25E-02
56059,5.00E-03,2.37E-02
56060,5.08E-03,2.33E-02
56061,5.01E-03,2.45E-02
56062,5.00E-03,2.41E-02
56063,5.09E-03,2.49E-02
56064,5.49E-03,2.73E-02
56065,4.69E-03,2.89E-02
56066,4.88E-03,2.87E-02
56067,4.70E-03,2.92E-02
56068,4.61E-03,2.91E-02
56069,4.90E-03,2.93E-02
56070,4.66E-03,2.99E-02
56071,4.41E-03,2.99E-02
56072,5.95E-03,2.99E-02
56073,5.66E-03,2.98E-02
56074,5.69E-03,2.95E-02
56075,4.93E-03,2.99E-02
56076,5.42E-03,2.99E-02
56077,3.74E-03,2.96E-02
56078,6.62E-03,2.93E-02
56079,4.98E-03,2.95E-02
56080,4.33E-03,2.92E-02
56081,4.64E-03,2.91E-02
56082,4.84E-03,2.87E-02
56083,4.62E-03,2.90E-02
56084,5.16E-03,2.85E-02
56085,5.25E-03,2.74E-02
56086,5.48E-03,2.77E-02
56087,4.88E-03,2.73E-02
56088,4.96E-03,2.62E-02
56089,4.84E-03,2.64E-02
56090,5.01E-03,2.60E-02
56091,5.37E-03,2.43E-02
56092,5.22E-03,2.45E-02
56093,5.04E-03,2.38E-02
56094,5.22E-03,2.40E-02
56095,4.97E-03,2.35E-02
56096,5.18E-03,2.25E-02
56097,5.39E-03,2.12E-02
56098,5.35E-03,2.14E-02
56099,5.48E-03,2.09E-02
56100,5.52E-03,1.91E-02
56101,5.59E-03,1.94E-02
56102,5.39E-03,1.88E-02
56103,3.89E-03,1.78E-02
56104,6.26E-03,1.72E-02
56105,6.11E-03,1.67E-02
56106,6.85E-03,1.70E-02
56107,5.97E-03,1.65E-02
56108,4.47E-03,1.59E-02
56109,4.87E-03,1.48E-02
56110,4.88E-03,1.50E-02
56111,4.85E-03,1.44E-02
56112,4.86E-03,1.46E-02
56113,5.02E-03,1.39E-02
56114,4.86E-03,1.41E-02
56115,5.02E-03,1.37E-02
56116,5.72E-03,1.30E-02
56117,4.78E-03,1.24E-02
56118,4.65E-03,1.21E-02
56119,4.70E-03,1.23E-02
56120,4.65E-03,1.18E-02
56121,4.63E-03,1.19E-02
56122,4.69E-03,1.14E-02
56123,4.63E-03,1.16E-02
56124,4.71E-03,1.11E-02
56125,4.69E-03,1.13E-02
56126,4.70E-03,1.09E-02
56127,4.90E-03,1.02E-02
56128,4.84E-03,1.04E-02
56129,5.04E-03,9.97E-03
56130,5.01E-03,1.01E-02
56131,5.11E-03,9.71E-03
56132,5.08E-03,9.84E-03
56133,5.15E-03,9.43E-03
56134,5.16E-03,9.57E-03
56135,5.16E-03,9.18E-03
56136,5.12E-03,9.31E-03
56137,5.22E-03,8.94E-03
56138,5.14E-03,9.06E-03
56139,5.36E-03,8.69E-03
56140,5.29E-03,8.81E-03
56141,5.44E-03,8.48E-03
56142,5.42E-03,8.58E-03
56143,5.45E-03,8.39E-03
56144,5.16E-03,7.95E-03
56145,5.23E-03,7.52E-03
56146,5.19E-03,7.60E-03
56147,5.39E-03,7.36E-03
56148,5.35E-03,7.44E-03
56149,5.30E-03,7.22E-03
56150,5.34E-03,7.29E-03
56151,5.15E-03,7.08E-03
56152,5.25E-03,7.15E-03
56153,5.05E-03,6.96E-03
56154,5.11E-03,7.02E-03
56155,5.03E-03,6.77E-03
56156,4.97E-03,6.85E-03
56157,5.51E-03,1.27E-02
56158,5.42E-03,1.15E-02
56159,5.95E-03,9.57E-03
56160,6.03E-03,9.85E-03
56161,5.80E-03,9.00E-03
56162,5.83E-03,9.28E-03
56163,5.73E-03,8.71E-03
56164,5.05E-03,2.16E-02
56165,5.28E-03,1.12E-02
56166,5.04E-03,1.13E-02
56167,5.33E-03,1.13E-02
56168,5.56E-03,1.41E-02
56169,5.10E-03,1.49E-02
56170,5.42E-03,9.47E-03
56171,4.33E-03,1.03E-02
56172,5.65E-03,9.67E-03
56173,4.64E-03,1.20E-02
56174,4.94E-03,1.74E-02
56175,7.52E-03,2.66E-02
56176,5.27E-03,9.85E-03
56177,5.42E-03,1.10E-02
56178,5.73E-03,1.23E-02
56179,5.81E-03,1.20E-02
56180,5.70E-03,1.26E-02
56181,5.89E-03,1.35E-02
56182,5.66E-03,1.85E-02
56183,5.58E-03,1.84E-02
56184,5.60E-03,1.82E-02
56185,5.56E-03,1.83E-02
56186,5.03E-03,1.09E-02
56187,5.15E-03,1.35E-02
56188,5.14E-03,1.39E-02
56189,5.08E-03,1.05E-02
56190,5.42E-03,1.93E-02
56191,5.46E-03,1.96E-02
56192,5.06E-03,1.55E-02
56193,5.24E-03,1.58E-02
56194,5.43E-03,1.95E-02
56195,5.43E-03,1.89E-02
56196,5.23E-03,1.50E-02
56197,5.38E-03,1.49E-02
56198,5.96E-03,2.96E-02
56199,6.19E-03,2.95E-02
56200,5.92E-03,2.38E-02
56201,5.95E-03,2.36E-02
56202,6.03E-03,2.43E-02
56203,6.01E-03,2.45E-02
56204,6.22E-03,2.34E-02
56205,6.28E-03,2.32E-02
56206,6.22E-03,1.06E-02
56207,6.38E-03,1.13E-02
56208,5.14E-03,1.18E-02
56209,5.81E-03,1.74E-02
56210,5.31E-03,1.15E-02
56211,5.26E-03,1.13E-02
56212,5.31E-03,1.11E-02
56213,5.92E-03,6.30E-03
56214,5.54E-03,1.01E-02
56215,5.31E-03,9.94E-03
56216,5.01E-03,9.96E-03
56217,5.16E-03,9.76E-03
56218,5.56E-03,9.77E-03
56219,5.57E-03,9.58E-03
56220,5.56E-03,9.60E-03
56221,5.85E-03,9.80E-03
56222,3.87E-03,1.00E-02
56223,5.02E-03,1.04E-02
56224,4.93E-03,1.04E-02
56225,5.09E-03,1.11E-02
56226,5.47E-03,1.32E-02
56227,5.49E-03,1.28E-02
56228,5.43E-03,1.36E-02
56229,5.61E-03,1.63E-02
56230,5.59E-03,1.59E-02
56231,5.60E-03,1.67E-02
56232,5.12E-03,2.54E-02
56233,5.37E-03,2.71E-02
56234,5.27E-03,2.81E-02
56235,5.42E-03,2.79E-02
56236,4.95E-03,2.86E-02
56237,5.16E-03,2.87E-02
56238,4.44E-03,3.01E-02
56239,5.35E-03,2.97E-02
56240,4.59E-03,3.02E-02
56241,4.51E-03,3.03E-02
56242,5.38E-03,3.00E-02
56243,5.65E-03,2.82E-02
56244,5.56E-03,2.85E-02
56245,5.65E-03,2.80E-02
56246,4.73E-03,2.71E-02
56247,5.05E-03,2.58E-02
56248,5.10E-03,2.48E-02
56249,5.16E-03,2.30E-02
56250,5.15E-03,2.32E-02
56251,5.20E-03,2.28E-02
56252,5.22E-03,2.19E-02
56253,5.23E-03,2.22E-02
56254,5.24E-03,2.17E-02
56255,5.65E-03,2.05E-02
56256,5.73E-03,1.99E-02
56257,5.69E-03,1.96E-02
56258,4.72E-03,1.80E-02
56259,5.18E-03,1.75E-02
56260,4.65E-03,1.52E-02
56261,4.71E-03,1.55E-02
56262,4.77E-03,1.50E-02
56263,5.59E-03,1.26E-02
56264,4.80E-03,1.04E-02
56265,4.75E-03,1.05E-02
56266,4.84E-03,1.02E-02
56267,5.36E-03,7.88E-03
56268,5.38E-03,7.99E-03
56269,5.30E-03,7.77E-03
56270,5.22E-03,7.55E-03
56271,5.19E-03,1.22E-02
56272,5.73E-03,1.29E-02
56273,5.40E-03,1.12E-02
56274,6.18E-03,1.01E-02
56275,5.39E-03,7.87E-03
56276,5.10E-03,2.13E-02
56277,5.00E-03,2.14E-02
56278,5.21E-03,1.42E-02
56279,5.41E-03,1.51E-02
56280,5.23E-03,7.01E-03
56281,5.21E-03,6.71E-03
56282,5.51E-03,1.07E-02
56283,5.41E-03,1.39E-02
56284,5.61E-03,1.37E-02
56285,5.68E-03,1.84E-02
56286,5.62E-03,1.83E-02
56287,5.79E-03,1.81E-02
56288,5.52E-03,1.83E-02
56289,5.73E-03,1.16E-02
56290,4.59E-03,1.19E-02
56291,4.07E-03,1.20E-02
56292,3.72E-03,1.18E-02
56293,5.14E-03,1.06E-02
56294,5.08E-03,1.31E-02
56295,4.98E-03,1.39E-02
56296,4.94E-03,1.08E-02
56297,5.17E-03,9.30E-03
56298,5.32E-03,1.90E-02
56299,5.41E-03,1.97E-02
56300,4.80E-03,1.55E-02
56301,5.14E-03,1.61E-02
56302,5.34E-03,1.97E-02
56303,5.25E-03,1.86E-02
56304,5.13E-03,1.54E-02
56305,5.38E-03,1.51E-02
56306,6.11E-03,2.93E-02
56307,5.95E-03,2.91E-02
56308,6.07E-03,2.42E-02
56309,6.06E-03,2.37E-02
56310,6.14E-03,2.43E-02
56311,6.16E-03,2.48E-02
56312,6.36E-03,2.34E-02
56313,5.88E-03,1.12E-02
56314,4.56E-03,1.13E-02
56315,5.52E-03,5.88E-03
56316,6.23E-03,5.82E-03
56317,4.96E-03,6.11E-03
56318,4.80E-03,6.33E-03
56319,6.20E-03,1.00E-02
56320,5.90E-03,9.99E-03
56321,5.58E-03,9.57E-03
56322,4.75E-03,9.73E-03
56323,4.98E-03,9.51E-03
56324,4.16E-03,2.63E-02
56325,4.70E-03,2.59E-02
56326,5.22E-03,2.70E-02
56327,4.74E-03,2.84E-02
56328,5.13E-03,2.53E-02
56329,5.11E-03,2.55E-02
56330,5.06E-03,2.50E-02
56331,5.69E-03,2.02E-02
56332,4.21E-03,1.23E-02
56333,6.21E-03,1.30E-02
56334,5.20E-03,1.09E-02
56335,5.13E-03,7.58E-03
56336,4.94E-03,2.11E-02
56337,4.91E-03,2.12E-02
56338,4.59E-03,1.48E-02
56339,6.83E-03,1.50E-02
56340,5.25E-03,1.00E-02
56341,5.77E-03,1.43E-02
56342,5.22E-03,8.87E-03
56343,5.69E-03,1.84E-02
56344,5.76E-03,1.82E-02
56345,6.01E-03,1.81E-02
56346,5.47E-03,1.83E-02
56347,5.23E-03,1.23E-02
56348,5.17E-03,1.24E-02
56349,4.74E-03,1.21E-02
56350,5.01E-03,1.03E-02
56351,5.06E-03,1.28E-02
56352,5.04E-03,1.40E-02
56353,4.91E-03,1.11E-02
56354,4.94E-03,9.17E-03
56355,5.24E-03,1.88E-02
56356,5.25E-03,1.98E-02
56357,4.52E-03,1.55E-02
56358,5.02E-03,1.64E-02
56359,5.18E-03,1.83E-02
56360,4.97E-03,1.57E-02
56361,5.32E-03,1.52E-02
56362,6.87E-03,2.90E-02
56363,5.99E-03,2.87E-02
56364,6.21E-03,2.46E-02
56365,5.96E-03,2.37E-02
56366,5.94E-03,2.38E-02
56367,6.31E-03,2.43E-02
56368,6.48E-03,2.51E-02
56369,6.49E-03,2.35E-02
56370,4.11E-03,1.06E-02
56371,5.76E-03,1.05E-02
56372,6.45E-03,1.03E-02
56373,6.20E-03,1.01E-02
56374,4.55E-03,9.63E-03
56375,5.19E-03,2.68E-02
56376,4.34E-03,2.70E-02
56377,4.50E-03,2.68E-02
56378,4.81E-03,1.35E-02
56379,5.21E-03,1.33E-02
56380,4.48E-03,7.30E-03
56381,4.91E-03,2.09E-02
56382,4.77E-03,2.10E-02
56383,5.19E-03,1.72E-02
56384,4.99E-03,1.41E-02
56385,4.52E-03,8.60E-03
56386,5.53E-03,1.47E-02
56387,5.26E-03,1.46E-02
56388,2.91E-03,6.84E-03
56389,5.27E-03,6.56E-03
56390,5.70E-03,1.84E-02
56391,5.82E-03,1.80E-02
56392,5.51E-03,1.83E-02
56393,5.11E-03,1.24E-02
56394,5.13E-03,1.41E-02
56395,4.86E-03,1.14E-02
56396,5.01E-03,8.95E-03
56397,5.09E-03,1.86E-02
56398,5.20E-03,2.00E-02
56399,4.85E-03,1.67E-02
56400,5.04E-03,1.80E-02
56401,5.19E-03,1.54E-02
56402,7.68E-03,2.87E-02
56403,6.40E-03,2.83E-02
56404,6.36E-03,2.43E-02
56405,7.47E-03,2.54E-02
56406,6.54E-03,2.37E-02
56407,5.27E-03,1.12E-02
56408,4.11E-03,1.07E-02
56409,4.53E-03,1.05E-02
56410,4.84E-03,2.07E-02
56411,4.54E-03,2.08E-02
56412,5.37E-03,1.71E-02
56413,5.59E-03,1.76E-02
56414,5.61E-03,1.78E-02
56415,5.11E-03,1.03E-02
56416,5.69E-03,1.84E-02
56417,5.92E-03,1.79E-02
56418,5.53E-03,1.83E-02
56419,4.99E-03,1.21E-02
56420,4.94E-03,1.17E-02
56421,4.59E-03,8.72E-03
56422,4.91E-03,1.84E-02
56423,5.07E-03,2.01E-02
56424,4.72E-03,1.70E-02
56425,4.89E-03,1.77E-02
56426,4.92E-03,1.55E-02
56427,6.82E-03,2.79E-02
56428,6.41E-03,2.42E-02
56429,7.28E-03,2.58E-02
56430,6.64E-03,2.38E-02
56431,4.77E-03,2.06E-02
56432,4.47E-03,2.07E-02
56433,5.42E-03,1.69E-02
56434,5.01E-03,1.58E-02
56435,5.56E-03,1.83E-02
56436,6.05E-03,1.77E-02
56437,5.52E-03,1.83E-02
56438,6.70E-03,8.11E-03
56439,6.12E-03,8.46E-03
56440,4.72E-03,1.81E-02
56441,4.96E-03,2.02E-02
56442,4.62E-03,1.72E-02
56443,4.74E-03,1.74E-02
56444,4.61E-03,1.55E-02
56445,7.23E-03,2.74E-02
56446,6.51E-03,2.41E-02
56447,8.14E-03,2.62E-02
56448,6.69E-03,2.39E-02
56449,6.37E-03,1.31E-02
56450,5.60E-03,1.28E-02
56451,5.20E-03,1.56E-02
56452,5.35E-03,1.54E-02
56453,4.78E-03,2.04E-02
56454,4.45E-03,2.06E-02
56455,5.57E-03,1.67E-02
56456,5.49E-03,1.83E-02
56457,6.08E-03,1.75E-02
56458,5.44E-03,1.83E-02
56459,6.47E-03,7.78E-03
56460,6.35E-03,7.87E-03
56461,6.13E-03,8.19E-03
56462,4.58E-03,1.79E-02
56463,4.49E-03,1.75E-02
56464,4.64E-03,1.71E-02
56465,7.16E-03,2.69E-02
56466,6.63E-03,2.40E-02
56467,4.50E-03,2.04E-02
56468,5.50E-03,1.83E-02
56469,6.02E-03,1.73E-02
56470,4.47E-03,1.77E-02
56471,4.60E-03,1.68E-02
56472,7.03E-03,2.63E-02
56473,7.06E-03,2.71E-02
56474,5.88E-03,1.40E-02
56475,5.62E-03,1.37E-02
56476,4.66E-03,2.03E-02
56477,5.09E-03,1.63E-02
56478,5.93E-03,1.71E-02
56479,4.65E-03,1.66E-02
56480,4.35E-03,1.56E-02
56481,4.16E-03,1.56E-02
56482,6.78E-03,2.58E-02
56483,7.14E-03,2.75E-02
56484,5.75E-03,1.69E-02
56485,4.17E-03,1.57E-02
56486,4.24E-03,1.57E-02
56487,4.72E-03,2.02E-02
56488,4.90E-03,2.00E-02
56489,4.76E-03,1.63E-02
56490,6.45E-03,2.54E-02
56491,7.50E-03,2.79E-02
56492,5.01E-03,1.61E-02
56493,5.31E-03,1.67E-02
56494,5.09E-03,1.99E-02
56495,5.70E-03,1.56E-02
56496,5.76E-03,1.58E-02
56497,5.70E-03,1.61E-02
56498,5.63E-03,1.63E-02
56499,5.56E-03,1.65E-02
56500,5.44E-03,7.61E-03
56501,5.35E-03,7.31E-03
56502,5.53E-03,8.18E-03
56503,5.51E-03,7.89E-03
56504,5.48E-03,8.76E-03
56505,5.51E-03,8.47E-03
56506,5.40E-03,9.31E-03
56507,5.44E-03,9.04E-03
56508,5.36E-03,9.58E-03
56509,5.64E-03,1.15E-02
56510,5.55E-03,1.13E-02
56511,5.75E-03,1.18E-02
56512,5.76E-03,1.31E-02
56513,5.70E-03,1.28E-02
56514,5.80E-03,1.33E-02
56515,5.66E-03,1.85E-02
56516,5.54E-03,1.83E-02
56517,4.78E-03,1.80E-02
56518,5.68E-03,1.79E-02
56519,5.23E-03,1.12E-02
56520,5.18E-03,1.37E-02
56521,5.19E-03,1.02E-02
56522,5.45E-03,1.94E-02
56523,5.22E-03,1.57E-02
56524,5.47E-03,1.92E-02
56525,5.32E-03,1.50E-02
56526,6.44E-03,2.96E-02
56527,5.86E-03,2.37E-02
56528,5.99E-03,2.44E-02
56529,6.26E-03,2.33E-02
56530,4.53E-03,1.07E-02
56531,5.79E-03,1.05E-02
56532,4.59E-03,1.06E-02
56533,6.08E-03,1.13E-02
56534,6.30E-03,1.20E-02
56535,5.47E-03,1.19E-02
56536,6.00E-03,1.21E-02
56537,5.43E-03,1.24E-02
56538,5.61E-03,1.25E-02
56539,6.04E-03,1.49E-02
56540,6.07E-03,1.48E-02
56541,5.58E-03,1.52E-02
56542,5.63E-03,1.50E-02
56543,5.35E-03,1.54E-02
56544,5.55E-03,1.53E-02
56545,5.48E-03,1.56E-02
56546,5.46E-03,1.55E-02
56547,5.49E-03,1.58E-02
56548,5.48E-03,1.57E-02
56549,5.57E-03,1.60E-02
56550,5.55E-03,1.59E-02
56551,5.56E-03,1.62E-02
56552,5.56E-03,1.61E-02
56553,5.59E-03,1.65E-02
56554,5.59E-03,1.63E-02
56555,5.64E-03,1.67E-02
56556,5.62E-03,1.66E-02
56557,5.65E-03,1.69E-02
56558,5.62E-03,1.68E-02
56559,6.57E-03,1.71E-02
56560,5.89E-03,1.70E-02
56561,5.26E-03,1.73E-02
56562,6.11E-03,1.72E-02
56563,5.41E-03,1.73E-02
56564,6.06E-03,1.78E-02
56565,5.47E-03,1.77E-02
56566,6.03E-03,1.79E-02
56567,6.04E-03,1.78E-02
56568,5.82E-03,1.81E-02
56569,5.81E-03,1.80E-02
56570,5.63E-03,1.82E-02
56571,5.64E-03,1.81E-02
56572,5.54E-03,1.83E-02
56573,5.54E-03,1.83E-02
56574,5.59E-03,1.84E-02
56575,5.54E-03,1.84E-02
56576,5.74E-03,1.86E-02
56577,5.69E-03,1.85E-02
56578,5.63E-03,1.87E-02
56579,5.72E-03,1.86E-02
56580,5.57E-03,1.87E-02
56581,5.57E-03,1.87E-02
56582,5.48E-03,1.88E-02
56583,5.54E-03,1.88E-02
56584,5.47E-03,1.89E-02
56585,5.43E-03,1.89E-02
56586,5.55E-03,1.90E-02
56587,5.51E-03,1.89E-02
56588,5.63E-03,1.90E-02
56589,5.57E-03,1.90E-02
56590,5.60E-03,1.90E-02
56591,5.62E-03,1.90E-02
56592,5.45E-03,1.91E-02
56593,5.57E-03,1.91E-02
56594,5.39E-03,1.91E-02
56595,5.37E-03,1.91E-02
56596,5.90E-03,1.91E-02
56597,5.35E-03,1.91E-02
56598,5.64E-03,1.91E-02
56599,6.46E-03,1.91E-02
56600,5.59E-03,1.90E-02
56601,5.55E-03,1.91E-02
56602,5.50E-03,1.90E-02
56603,5.52E-03,1.90E-02
56604,5.49E-03,1.90E-02
56605,5.47E-03,1.90E-02
56606,5.61E-03,1.89E-02
56607,5.55E-03,1.89E-02
56608,5.66E-03,1.88E-02
56609,5.67E-03,1.89E-02
56610,5.67E-03,1.87E-02
56611,5.64E-03,1.88E-02
56612,5.64E-03,1.86E-02
56613,5.63E-03,1.87E-02
56614,5.63E-03,1.85E-02
56615,5.63E-03,1.86E-02
56616,5.71E-03,1.84E-02
56617,5.67E-03,1.84E-02
56618,5.58E-03,1.82E-02
56619,5.63E-03,1.83E-02
56620,5.55E-03,1.81E-02
56621,5.56E-03,1.82E-02
56622,5.54E-03,1.79E-02
56623,5.55E-03,1.80E-02
56624,5.50E-03,1.77E-02
56625,5.50E-03,1.78E-02
56626,5.53E-03,1.75E-02
56627,5.49E-03,1.76E-02
56628,5.50E-03,1.73E-02
56629,5.53E-03,1.74E-02
56630,5.58E-03,1.71E-02
56631,5.53E-03,1.72E-02
56632,5.63E-03,1.69E-02
56633,5.60E-03,1.70E-02
56634,5.58E-03,1.66E-02
56635,5.59E-03,1.67E-02
56636,5.52E-03,1.64E-02
56637,5.50E-03,1.65E-02
56638,5.58E-03,1.61E-02
56639,5.55E-03,1.63E-02
56640,5.67E-03,1.59E-02
56641,5.62E-03,1.60E-02
56642,5.66E-03,1.56E-02
56643,5.67E-03,1.57E-02
56644,5.69E-03,1.53E-02
56645,5.69E-03,1.55E-02
56646,5.69E-03,1.50E-02
56647,5.69E-03,1.52E-02
56648,5.83E-03,1.48E-02
56649,5.77E-03,1.49E-02
56650,5.42E-03,1.45E-02
56651,5.68E-03,1.46E-02
56652,5.43E-03,1.42E-02
56653,5.40E-03,1.43E-02
56654,5.60E-03,1.39E-02
56655,5.62E-03,1.40E-02
56656,5.57E-03,1.36E-02
56657,5.50E-03,1.37E-02
56658,5.64E-03,1.33E-02
56659,5.64E-03,1.34E-02
56660,5.60E-03,1.30E-02
56661,5.57E-03,1.31E-02
56662,5.70E-03,1.27E-02
56663,5.67E-03,1.28E-02
56664,5.87E-03,1.24E-02
56665,5.74E-03,1.25E-02
56666,5.66E-03,1.21E-02
56667,6.34E-03,1.23E-02
56668,5.14E-03,1.18E-02
56669,5.18E-03,1.19E-02
56670,5.32E-03,1.16E-02
56671,5.36E-03,1.09E-02
56672,5.35E-03,1.10E-02
56673,5.72E-03,1.08E-02
56674,5.39E-03,5.88E-03
56675,5.46E-03,5.88E-03
56676,5.31E-03,5.91E-03
56677,5.36E-03,5.89E-03
56678,5.30E-03,5.96E-03
56679,5.28E-03,5.93E-03
56680,5.36E-03,6.00E-03
56681,5.35E-03,5.98E-03
56682,5.58E-03,6.08E-03
56683,5.47E-03,6.04E-03
56684,5.97E-03,6.16E-03
56685,5.77E-03,6.12E-03
56686,6.12E-03,6.23E-03
56687,5.39E-03,6.45E-03
56688,5.29E-03,6.39E-03
56689,5.44E-03,6.57E-03
56690,5.42E-03,6.51E-03
56691,5.59E-03,6.68E-03
56692,5.54E-03,6.63E-03
56693,5.75E-03,6.80E-03
56694,5.71E-03,6.74E-03
56695,5.94E-03,6.92E-03
56696,5.91E-03,6.86E-03
56697,5.92E-03,7.05E-03
56698,6.04E-03,6.98E-03
56699,5.81E-03,7.17E-03
56700,5.84E-03,7.11E-03
56701,5.95E-03,7.33E-03
56702,5.83E-03,7.24E-03
56703,6.78E-03,7.47E-03
56704,6.71E-03,7.41E-03
56705,6.40E-03,7.63E-03
56706,6.30E-03,7.54E-03
56707,6.46E-03,7.71E-03
56708,6.44E-03,8.95E-03
56709,6.17E-03,9.10E-03
56710,6.34E-03,9.03E-03
56711,6.72E-03,9.27E-03
56712,6.57E-03,9.19E-03
56713,6.84E-03,9.49E-03
56714,6.73E-03,9.38E-03
56715,6.40E-03,9.66E-03
56716,6.70E-03,9.58E-03
56717,6.17E-03,9.85E-03
56718,6.39E-03,9.76E-03
56719,6.01E-03,1.00E-02
56720,6.01E-03,9.93E-03
56721,6.15E-03,1.02E-02
56722,6.00E-03,1.01E-02
56723,4.91E-03,1.04E-02
56724,5.77E-03,1.01E-02
56725,5.68E-03,1.01E-02
56726,5.67E-03,1.00E-02
56727,5.67E-03,1.01E-02
56728,5.44E-03,1.00E-02
56729,5.20E-03,9.94E-03
56730,5.57E-03,9.75E-03
56731,5.42E-03,9.75E-03
56732,5.55E-03,9.76E-03
56733,5.34E-03,9.63E-03
56734,5.47E-03,9.62E-03
56735,5.23E-03,9.65E-03
56736,5.27E-03,9.64E-03
56737,5.08E-03,9.67E-03
56738,5.14E-03,9.66E-03
56739,5.36E-03,9.70E-03
56740,5.17E-03,9.68E-03
56741,5.79E-03,9.72E-03
56742,4.97E-03,9.86E-03
56743,5.00E-03,9.83E-03
56744,4.86E-03,9.92E-03
56745,4.93E-03,9.89E-03
56746,4.72E-03,9.97E-03
56747,4.77E-03,9.94E-03
56748,4.59E-03,9.99E-03
56749,5.18E-03,1.03E-02
56750,5.29E-03,1.03E-02
56751,4.92E-03,1.05E-02
56752,4.86E-03,1.04E-02
56753,4.89E-03,1.06E-02
56754,4.92E-03,1.05E-02
56755,4.98E-03,1.08E-02
56756,4.92E-03,1.07E-02
56757,4.94E-03,1.09E-02
56758,4.98E-03,1.08E-02
56759,4.99E-03,1.10E-02
56760,5.19E-03,1.21E-02
56761,5.45E-03,1.25E-02
56762,5.35E-03,1.43E-02
56763,5.37E-03,1.39E-02
56764,5.44E-03,1.51E-02
56765,5.37E-03,1.47E-02
56766,5.52E-03,1.55E-02
56767,5.61E-03,1.76E-02
56768,5.63E-03,1.72E-02
56769,5.58E-03,1.85E-02
56770,5.50E-03,1.80E-02
56771,5.60E-03,1.93E-02
56772,5.61E-03,1.89E-02
56773,5.59E-03,2.02E-02
56774,5.56E-03,1.98E-02
56775,5.45E-03,2.11E-02
56776,5.45E-03,2.07E-02
56777,5.32E-03,2.20E-02
56778,5.34E-03,2.16E-02
56779,5.17E-03,2.29E-02
56780,5.26E-03,2.24E-02
56781,5.04E-03,2.37E-02
56782,5.10E-03,2.33E-02
56783,4.99E-03,2.46E-02
56784,4.98E-03,2.41E-02
56785,5.02E-03,2.50E-02
56786,5.47E-03,2.75E-02
56787,4.78E-03,2.92E-02
56788,4.92E-03,2.89E-02
56789,4.85E-03,2.95E-02
56790,4.76E-03,2.93E-02
56791,5.32E-03,2.97E-02
56792,4.47E-03,3.03E-02
56793,4.60E-03,3.02E-02
56794,4.54E-03,3.02E-02
56795,5.34E-03,3.02E-02
56796,5.02E-03,3.02E-02
56797,5.35E-03,3.01E-02
56798,5.28E-03,3.02E-02
56799,5.39E-03,3.01E-02
56800,4.41E-03,2.97E-02
56801,4.13E-03,2.98E-02
56802,6.83E-03,2.94E-02
56803,4.93E-03,2.96E-02
56804,5.17E-03,2.92E-02
56805,6.85E-03,2.94E-02
56806,5.14E-03,2.89E-02
56807,4.96E-03,2.91E-02
56808,5.38E-03,2.87E-02
56809,5.26E-03,2.75E-02
56810,5.32E-03,2.78E-02
56811,5.00E-03,2.73E-02
56812,5.04E-03,2.62E-02
56813,4.87E-03,2.65E-02
56814,5.06E-03,2.60E-02
56815,5.26E-03,2.43E-02
56816,5.17E-03,2.45E-02
56817,5.13E-03,2.38E-02
56818,5.24E-03,2.40E-02
56819,5.14E-03,2.35E-02
56820,5.21E-03,2.25E-02
56821,5.39E-03,2.11E-02
56822,5.30E-03,2.14E-02
56823,5.49E-03,2.08E-02
56824,5.49E-03,1.90E-02
56825,5.55E-03,1.93E-02
56826,5.36E-03,1.87E-02
56827,4.30E-03,1.77E-02
56828,6.15E-03,1.71E-02
56829,6.19E-03,1.66E-02
56830,6.44E-03,1.68E-02
56831,5.40E-03,1.60E-02
56832,5.88E-03,1.63E-02
56833,4.94E-03,1.58E-02
56834,4.83E-03,1.46E-02
56835,4.84E-03,1.48E-02
56836,4.86E-03,1.42E-02
56837,4.87E-03,1.44E-02
56838,5.08E-03,1.37E-02
56839,4.97E-03,1.39E-02
56840,5.56E-03,1.34E-02
56841,5.93E-03,1.28E-02
56842,4.49E-03,1.22E-02
56843,4.63E-03,1.18E-02
56844,4.48E-03,1.20E-02
56845,4.65E-03,1.15E-02
56846,4.63E-03,1.17E-02
56847,4.75E-03,1.12E-02
56848,4.70E-03,1.13E-02
56849,4.77E-03,1.08E-02
56850,4.76E-03,1.10E-02
56851,4.78E-03,1.07E-02
56852,4.96E-03,9.95E-03
56853,4.89E-03,1.01E-02
56854,5.09E-03,9.69E-03
56855,5.08E-03,9.82E-03
56856,5.15E-03,9.43E-03
56857,5.13E-03,9.56E-03
56858,5.17E-03,9.15E-03
56859,5.14E-03,9.29E-03
56860,5.19E-03,8.89E-03
56861,5.19E-03,9.02E-03
56862,5.22E-03,8.65E-03
56863,5.18E-03,8.77E-03
56864,5.38E-03,8.40E-03
56865,5.35E-03,8.52E-03
56866,5.43E-03,8.19E-03
56867,5.42E-03,8.29E-03
56868,5.41E-03,8.09E-03
56869,5.27E-03,7.66E-03
56870,5.21E-03,7.23E-03
56871,5.18E-03,7.31E-03
56872,5.40E-03,7.07E-03
56873,5.32E-03,7.15E-03
56874,5.33E-03,6.92E-03
56875,5.35E-03,6.99E-03
56876,5.22E-03,6.79E-03
56877,5.25E-03,6.86E-03
56878,5.13E-03,6.65E-03
56879,5.17E-03,6.73E-03
56880,5.12E-03,6.49E-03
56881,5.09E-03,6.58E-03
56882,5.25E-03,1.24E-02
56883,5.46E-03,1.26E-02
56884,4.98E-03,1.21E-02
56885,5.22E-03,1.17E-02
56886,4.97E-03,1.19E-02
56887,5.35E-03,1.14E-02
56888,5.95E-03,9.55E-03
56889,6.27E-03,9.84E-03
56890,5.78E-03,8.98E-03
56891,5.79E-03,9.26E-03
56892,5.63E-03,8.42E-03
56893,5.72E-03,8.70E-03
56894,5.44E-03,8.14E-03
56895,5.07E-03,2.14E-02
56896,5.14E-03,1.08E-02
56897,5.14E-03,1.09E-02
56898,5.11E-03,1.08E-02
56899,4.97E-03,1.42E-02
56900,5.07E-03,1.40E-02
56901,6.47E-03,9.63E-03
56902,5.71E-03,1.41E-02
56903,5.75E-03,1.49E-02
56904,5.16E-03,6.42E-03
56905,5.16E-03,9.79E-03
56906,5.51E-03,1.10E-02
56907,6.03E-03,1.22E-02
56908,6.04E-03,1.19E-02
56909,5.53E-03,1.25E-02
56910,5.65E-03,1.34E-02
56911,5.73E-03,1.84E-02
56912,5.65E-03,1.83E-02
56913,5.57E-03,1.82E-02
56914,5.46E-03,1.82E-02
56915,4.77E-03,1.15E-02
56916,5.07E-03,1.09E-02
56917,5.12E-03,1.33E-02
56918,5.14E-03,1.37E-02
56919,5.15E-03,1.05E-02
56920,5.31E-03,9.56E-03
56921,5.42E-03,1.92E-02
56922,5.42E-03,1.96E-02
56923,4.94E-03,1.57E-02
56924,5.15E-03,1.60E-02
56925,5.37E-03,1.95E-02
56926,5.38E-03,1.89E-02
56927,5.25E-03,1.53E-02
56928,5.40E-03,1.52E-02
56929,6.23E-03,2.93E-02
56930,6.10E-03,2.92E-02
56931,6.01E-03,2.41E-02
56932,6.00E-03,2.38E-02
56933,6.17E-03,2.44E-02
56934,6.14E-03,2.47E-02
56935,6.08E-03,2.36E-02
56936,6.26E-03,2.34E-02
56937,4.81E-03,1.05E-02
56938,4.14E-03,1.14E-02
56939,6.53E-03,1.19E-02
56940,6.86E-03,1.17E-02
56941,5.65E-03,1.20E-02
56942,5.75E-03,1.76E-02
56943,5.42E-03,1.14E-02
56944,5.30E-03,1.10E-02
56945,4.59E-03,5.73E-03
56946,6.50E-03,5.98E-03
56947,3.79E-03,6.03E-03
56948,5.36E-03,6.16E-03
56949,5.68E-03,9.94E-03
56950,5.14E-03,9.76E-03
56951,5.29E-03,9.64E-03
56952,5.50E-03,9.56E-03
56953,5.70E-03,9.36E-03
56954,5.61E-03,9.38E-03
56955,4.39E-03,9.60E-03
56956,4.89E-03,9.47E-03
56957,5.00E-03,9.54E-03
56958,4.90E-03,9.88E-03
56959,5.02E-03,1.00E-02
56960,4.95E-03,1.01E-02
56961,5.12E-03,1.07E-02
56962,5.33E-03,1.30E-02
56963,5.45E-03,1.26E-02
56964,5.33E-03,1.34E-02
56965,5.62E-03,1.62E-02
56966,5.54E-03,1.57E-02
56967,5.63E-03,1.66E-02
56968,4.94E-03,2.55E-02
56969,5.42E-03,2.74E-02
56970,5.37E-03,2.81E-02
56971,4.58E-03,2.90E-02
56972,4.77E-03,2.92E-02
56973,4.48E-03,2.99E-02
56974,5.87E-03,2.84E-02
56975,5.80E-03,2.86E-02
56976,5.79E-03,2.82E-02
56977,4.56E-03,2.72E-02
56978,5.15E-03,2.58E-02
56979,5.12E-03,2.48E-02
56980,5.25E-03,2.19E-02
56981,5.25E-03,2.22E-02
56982,5.30E-03,2.16E-02
56983,5.60E-03,2.05E-02
56984,5.81E-03,1.98E-02
56985,5.70E-03,1.95E-02
56986,5.62E-03,1.73E-02
56987,4.86E-03,1.51E-02
56988,4.91E-03,1.53E-02
56989,4.84E-03,1.48E-02
56990,4.36E-03,1.23E-02
56991,3.60E-03,1.21E-02
56992,4.86E-03,1.01E-02
56993,4.79E-03,1.02E-02
56994,4.89E-03,9.94E-03
56995,5.35E-03,7.59E-03
56996,5.36E-03,7.69E-03
56997,5.31E-03,7.47E-03
56998,5.27E-03,7.26E-03
56999,5.20E-03,7.17E-03
57000,5.70E-03,1.28E-02
57001,5.04E-03,1.24E-02
57002,5.28E-03,1.12E-02
57003,7.13E-03,1.01E-02
57004,5.29E-03,7.86E-03
57005,4.97E-03,2.11E-02
57006,5.00E-03,2.12E-02
57007,4.97E-03,1.05E-02
57008,5.44E-03,1.48E-02
57009,5.69E-03,1.00E-02
57010,4.77E-03,1.06E-02
57011,5.13E-03,1.06E-02
57012,5.92E-03,1.45E-02
57013,5.60E-03,1.06E-02
57014,5.22E-03,1.38E-02
57015,5.35E-03,1.36E-02
57016,5.72E-03,1.84E-02
57017,5.77E-03,1.82E-02
57018,5.64E-03,1.81E-02
57019,5.46E-03,1.82E-02
57020,4.56E-03,1.18E-02
57021,5.08E-03,1.06E-02
57022,5.13E-03,1.29E-02
57023,5.05E-03,1.38E-02
57024,5.04E-03,1.09E-02
57025,5.15E-03,9.41E-03
57026,5.32E-03,1.90E-02
57027,5.37E-03,1.97E-02
57028,4.78E-03,1.57E-02
57029,5.07E-03,1.63E-02
57030,5.29E-03,1.97E-02
57031,5.28E-03,1.86E-02
57032,5.10E-03,1.56E-02
57033,5.37E-03,1.53E-02
57034,6.51E-03,2.90E-02
57035,6.02E-03,2.89E-02
57036,6.13E-03,2.45E-02
57037,5.94E-03,2.39E-02
57038,6.19E-03,2.44E-02
57039,6.36E-03,2.49E-02
57040,6.34E-03,2.36E-02
57041,5.23E-03,1.05E-02
57042,6.61E-03,1.03E-02
57043,6.15E-03,1.01E-02
57044,6.18E-03,9.84E-03
57045,5.49E-03,9.78E-03
57046,4.70E-03,9.58E-03
57047,5.58E-03,9.35E-03
57048,4.43E-03,2.65E-02
57049,4.56E-03,2.60E-02
57050,5.11E-03,2.72E-02
57051,5.60E-03,2.86E-02
57052,3.85E-03,2.71E-02
57053,4.57E-03,2.69E-02
57054,5.21E-03,2.53E-02
57055,5.20E-03,2.56E-02
57056,5.13E-03,2.51E-02
57057,5.65E-03,2.01E-02
57058,5.39E-03,1.33E-02
57059,7.01E-03,1.30E-02
57060,5.06E-03,1.09E-02
57061,4.96E-03,7.57E-03
57062,5.00E-03,2.09E-02
57063,4.90E-03,2.10E-02
57064,4.97E-03,1.73E-02
57065,5.75E-03,1.49E-02
57066,5.18E-03,1.03E-02
57067,5.33E-03,1.40E-02
57068,6.15E-03,8.44E-03
57069,5.93E-03,8.79E-03
57070,4.96E-03,1.45E-02
57071,3.57E-03,7.02E-03
57072,3.88E-03,6.77E-03
57073,5.74E-03,1.84E-02
57074,5.79E-03,1.81E-02
57075,5.27E-03,1.80E-02
57076,5.49E-03,1.82E-02
57077,5.20E-03,1.21E-02
57078,5.24E-03,1.26E-02
57079,5.15E-03,1.39E-02
57080,4.98E-03,1.12E-02
57081,5.08E-03,9.24E-03
57082,5.19E-03,1.88E-02
57083,5.27E-03,1.98E-02
57084,4.46E-03,1.57E-02
57085,4.96E-03,1.66E-02
57086,5.16E-03,1.83E-02
57087,4.94E-03,1.60E-02
57088,5.29E-03,1.55E-02
57089,7.08E-03,2.87E-02
57090,6.26E-03,2.85E-02
57091,6.30E-03,2.49E-02
57092,5.74E-03,2.39E-02
57093,5.73E-03,2.41E-02
57094,6.27E-03,2.44E-02
57095,6.73E-03,2.52E-02
57096,6.49E-03,2.37E-02
57097,5.00E-03,1.11E-02
57098,4.97E-03,2.69E-02
57099,3.97E-03,1.07E-02
57100,4.94E-03,2.07E-02
57101,4.74E-03,2.08E-02
57102,5.31E-03,1.72E-02
57103,5.56E-03,1.77E-02
57104,3.62E-03,1.41E-02
57105,3.38E-03,1.42E-02
57106,4.66E-03,1.02E-02
57107,5.73E-03,1.83E-02
57108,5.89E-03,1.80E-02
57109,5.58E-03,1.82E-02
57110,5.86E-03,1.22E-02
57111,5.05E-03,1.40E-02
57112,4.99E-03,1.15E-02
57113,4.99E-03,9.02E-03
57114,5.04E-03,1.85E-02
57115,5.16E-03,1.99E-02
57116,4.80E-03,1.69E-02
57117,5.02E-03,1.80E-02
57118,5.17E-03,1.56E-02
57119,7.60E-03,2.84E-02
57120,6.64E-03,2.81E-02
57121,6.33E-03,2.44E-02
57122,7.13E-03,2.56E-02
57123,6.55E-03,2.39E-02
57124,4.85E-03,2.05E-02
57125,4.65E-03,2.06E-02
57126,5.47E-03,1.70E-02
57127,4.97E-03,1.59E-02
57128,5.61E-03,1.83E-02
57129,6.02E-03,1.78E-02
57130,5.52E-03,1.82E-02
57131,4.75E-03,1.44E-02
57132,5.12E-03,1.47E-02
57133,5.00E-03,1.46E-02
57134,5.25E-03,1.19E-02
57135,6.06E-03,7.96E-03
57136,6.65E-03,7.65E-03
57137,5.82E-03,7.77E-03
57138,5.62E-03,8.03E-03
57139,5.17E-03,8.81E-03
57140,4.85E-03,1.83E-02
57141,5.04E-03,2.01E-02
57142,4.67E-03,1.71E-02
57143,4.88E-03,1.77E-02
57144,4.81E-03,1.57E-02
57145,6.97E-03,2.76E-02
57146,6.46E-03,2.43E-02
57147,7.53E-03,2.60E-02
57148,6.63E-03,2.40E-02
57149,5.17E-03,1.29E-02
57150,5.18E-03,1.26E-02
57151,6.86E-03,6.15E-03
57152,5.90E-03,6.46E-03
57153,5.40E-03,1.55E-02
57154,5.62E-03,1.52E-02
57155,4.80E-03,2.04E-02
57156,4.57E-03,2.05E-02
57157,5.47E-03,1.68E-02
57158,5.08E-03,1.57E-02
57159,5.54E-03,1.83E-02
57160,6.01E-03,1.76E-02
57161,5.45E-03,1.82E-02
57162,5.85E-03,8.26E-03
57163,5.85E-03,8.50E-03
57164,4.66E-03,1.81E-02
57165,4.92E-03,2.02E-02
57166,4.58E-03,1.74E-02
57167,4.76E-03,1.74E-02
57168,7.05E-03,2.71E-02
57169,6.52E-03,2.42E-02
57170,8.13E-03,2.64E-02
57171,6.66E-03,2.41E-02
57172,4.53E-03,2.03E-02
57173,5.50E-03,1.83E-02
57174,6.03E-03,1.74E-02
57175,5.42E-03,1.82E-02
57176,4.55E-03,1.78E-02
57177,4.49E-03,1.76E-02
57178,4.65E-03,1.71E-02
57179,7.03E-03,2.66E-02
57180,7.34E-03,2.68E-02
57181,5.92E-03,1.42E-02
57182,5.70E-03,1.38E-02
57183,5.58E-03,1.35E-02
57184,4.58E-03,2.02E-02
57185,5.23E-03,1.65E-02
57186,5.96E-03,1.72E-02
57187,5.41E-03,1.28E-02
57188,4.97E-03,1.29E-02
57189,4.64E-03,1.68E-02
57190,4.49E-03,1.57E-02
57191,4.27E-03,1.58E-02
57192,6.84E-03,2.61E-02
57193,7.12E-03,2.72E-02
57194,5.84E-03,1.70E-02
57195,4.22E-03,1.58E-02
57196,4.24E-03,1.58E-02
57197,5.55E-03,1.53E-02
57198,5.31E-03,1.25E-02
57199,4.77E-03,2.01E-02
57200,4.85E-03,1.99E-02
57201,4.79E-03,1.65E-02
57202,6.53E-03,2.56E-02
57203,7.24E-03,2.76E-02
57204,5.03E-03,1.62E-02
57205,5.46E-03,1.68E-02
57206,5.03E-03,1.98E-02
57207,5.64E-03,1.57E-02
57208,5.68E-03,1.59E-02
57209,5.62E-03,1.62E-02
57210,5.57E-03,1.64E-02
57211,5.55E-03,1.66E-02
57212,5.20E-03,6.37E-03
57213,5.29E-03,6.95E-03
57214,5.28E-03,6.66E-03
57215,5.44E-03,7.54E-03
57216,5.41E-03,7.25E-03
57217,5.54E-03,8.12E-03
57218,5.50E-03,7.83E-03
57219,5.52E-03,8.70E-03
57220,5.54E-03,8.41E-03
57221,5.36E-03,9.26E-03
57222,5.48E-03,8.99E-03
57223,5.26E-03,9.53E-03
57224,5.66E-03,1.14E-02
57225,5.59E-03,1.12E-02
57226,5.71E-03,1.17E-02
57227,5.59E-03,1.30E-02
57228,5.56E-03,1.28E-02
57229,5.62E-03,1.32E-02
57230,5.69E-03,1.84E-02
57231,5.50E-03,1.82E-02
57232,5.15E-03,1.79E-02
57233,5.54E-03,1.78E-02
57234,5.07E-03,1.13E-02
57235,5.16E-03,1.35E-02
57236,5.34E-03,1.01E-02
57237,5.18E-03,1.03E-02
57238,5.38E-03,9.81E-03
57239,5.45E-03,1.94E-02
57240,5.14E-03,1.58E-02
57241,5.44E-03,1.92E-02
57242,5.35E-03,1.52E-02
57243,6.25E-03,2.93E-02
57244,5.95E-03,2.39E-02
57245,6.16E-03,2.45E-02
57246,6.17E-03,2.35E-02
57247,5.09E-03,1.08E-02
57248,4.91E-03,1.08E-02
57249,4.83E-03,1.09E-02
57250,5.08E-03,1.09E-02
57251,6.76E-03,1.10E-02
57252,5.72E-03,1.16E-02
57253,4.47E-03,1.16E-02
57254,6.15E-03,1.17E-02
57255,5.77E-03,1.23E-02
57256,5.75E-03,1.22E-02
57257,5.64E-03,1.25E-02
57258,5.70E-03,1.24E-02
57259,5.71E-03,1.27E-02
57260,5.64E-03,1.26E-02
57261,5.68E-03,1.28E-02
57262,5.57E-03,1.50E-02
57263,5.30E-03,1.49E-02
57264,5.83E-03,1.52E-02
57265,5.77E-03,1.51E-02
57266,5.64E-03,1.54E-02
57267,5.72E-03,1.53E-02
57268,5.47E-03,1.57E-02
57269,5.50E-03,1.55E-02
57270,5.44E-03,1.59E-02
57271,5.44E-03,1.58E-02
57272,5.54E-03,1.61E-02
57273,5.46E-03,1.60E-02
57274,5.61E-03,1.63E-02
57275,5.61E-03,1.62E-02
57276,5.66E-03,1.65E-02
57277,5.57E-03,1.64E-02
57278,5.65E-03,1.67E-02
57279,5.66E-03,1.66E-02
57280,5.62E-03,1.69E-02
57281,5.61E-03,1.68E-02
57282,5.71E-03,1.71E-02
57283,5.66E-03,1.70E-02
57284,5.89E-03,1.73E-02
57285,5.87E-03,1.72E-02
57286,5.67E-03,1.74E-02
57287,5.83E-03,1.73E-02
57288,5.71E-03,1.75E-02
57289,5.76E-03,1.80E-02
57290,5.31E-03,1.79E-02
57291,5.90E-03,1.81E-02
57292,5.86E-03,1.80E-02
57293,5.75E-03,1.82E-02
57294,5.81E-03,1.82E-02
57295,5.60E-03,1.84E-02
57296,5.62E-03,1.83E-02
57297,5.54E-03,1.85E-02
57298,5.51E-03,1.84E-02
57299,5.61E-03,1.86E-02
57300,5.54E-03,1.85E-02
57301,5.77E-03,1.87E-02
57302,5.71E-03,1.86E-02
57303,5.63E-03,1.88E-02
57304,5.71E-03,1.87E-02
57305,5.57E-03,1.89E-02
57306,5.56E-03,1.88E-02
57307,5.46E-03,1.89E-02
57308,5.51E-03,1.89E-02
57309,5.43E-03,1.90E-02
57310,5.38E-03,1.90E-02
57311,5.51E-03,1.91E-02
57312,5.49E-03,1.90E-02
57313,5.63E-03,1.91E-02
57314,5.59E-03,1.91E-02
57315,5.68E-03,1.91E-02
57316,5.65E-03,1.91E-02
57317,5.49E-03,1.91E-02
57318,5.60E-03,1.91E-02
57319,5.49E-03,1.92E-02
57320,5.49E-03,1.92E-02
57321,5.63E-03,1.91E-02
57322,5.49E-03,1.91E-02
57323,5.72E-03,1.91E-02
57324,5.60E-03,1.91E-02
57325,5.62E-03,1.91E-02
57326,5.65E-03,1.91E-02
57327,5.51E-03,1.91E-02
57328,5.54E-03,1.91E-02
57329,5.52E-03,1.90E-02
57330,5.47E-03,1.90E-02
57331,5.64E-03,1.89E-02
57332,5.57E-03,1.90E-02
57333,5.67E-03,1.88E-02
57334,5.65E-03,1.89E-02
57335,5.66E-03,1.88E-02
57336,5.69E-03,1.88E-02
57337,5.68E-03,1.86E-02
57338,5.61E-03,1.87E-02
57339,5.65E-03,1.85E-02
57340,5.66E-03,1.86E-02
57341,5.68E-03,1.84E-02
57342,5.68E-03,1.84E-02
57343,5.64E-03,1.82E-02
57344,5.65E-03,1.83E-02
57345,5.55E-03,1.81E-02
57346,5.58E-03,1.81E-02
57347,5.55E-03,1.79E-02
57348,5.52E-03,1.80E-02
57349,5.49E-03,1.77E-02
57350,5.51E-03,1.78E-02
57351,5.48E-03,1.75E-02
57352,5.50E-03,1.76E-02
57353,5.55E-03,1.73E-02
57354,5.50E-03,1.74E-02
57355,5.57E-03,1.70E-02
57356,5.56E-03,1.72E-02
57357,5.63E-03,1.68E-02
57358,5.57E-03,1.69E-02
57359,5.57E-03,1.66E-02
57360,5.55E-03,1.67E-02
57361,5.49E-03,1.63E-02
57362,5.49E-03,1.64E-02
57363,5.53E-03,1.61E-02
57364,5.55E-03,1.62E-02
57365,5.70E-03,1.58E-02
57366,5.59E-03,1.59E-02
57367,5.68E-03,1.55E-02
57368,5.69E-03,1.57E-02
57369,5.70E-03,1.52E-02
57370,5.72E-03,1.54E-02
57371,5.65E-03,1.50E-02
57372,5.67E-03,1.51E-02
57373,5.65E-03,1.47E-02
57374,5.67E-03,1.48E-02
57375,5.53E-03,1.44E-02
57376,5.63E-03,1.45E-02
57377,5.54E-03,1.41E-02
57378,5.47E-03,1.42E-02
57379,5.56E-03,1.38E-02
57380,5.55E-03,1.39E-02
57381,5.60E-03,1.35E-02
57382,5.55E-03,1.36E-02
57383,5.64E-03,1.32E-02
57384,5.65E-03,1.33E-02
57385,5.61E-03,1.29E-02
57386,5.62E-03,1.30E-02
57387,5.68E-03,1.26E-02
57388,5.65E-03,1.27E-02
57389,5.81E-03,1.23E-02
57390,5.74E-03,1.24E-02
57391,5.60E-03,1.20E-02
57392,5.75E-03,1.21E-02
57393,5.54E-03,1.17E-02
57394,5.66E-03,1.18E-02
57395,5.52E-03,1.15E-02
57396,5.46E-03,1.08E-02
57397,5.29E-03,1.09E-02
57398,5.48E-03,1.06E-02
57399,4.60E-03,5.50E-03
57400,5.48E-03,5.57E-03
57401,5.36E-03,5.53E-03
57402,5.41E-03,5.59E-03
57403,5.45E-03,5.59E-03
57404,5.33E-03,5.62E-03
57405,5.40E-03,5.60E-03
57406,5.32E-03,5.66E-03
57407,5.33E-03,5.64E-03
57408,5.39E-03,5.70E-03
57409,5.36E-03,5.68E-03
57410,5.48E-03,5.77E-03
57411,5.49E-03,5.73E-03
57412,5.81E-03,5.85E-03
57413,5.66E-03,5.81E-03
57414,6.66E-03,5.89E-03
57415,5.29E-03,5.88E-03
57416,4.82E-03,6.04E-03
57417,4.80E-03,6.02E-03
57418,5.20E-03,6.09E-03
57419,5.46E-03,6.28E-03
57420,5.43E-03,6.22E-03
57421,5.55E-03,6.39E-03
57422,5.55E-03,6.33E-03
57423,5.73E-03,6.51E-03
57424,5.71E-03,6.45E-03
57425,5.87E-03,6.63E-03
57426,5.90E-03,6.57E-03
57427,5.96E-03,6.75E-03
57428,5.96E-03,6.69E-03
57429,5.89E-03,6.89E-03
57430,5.90E-03,6.82E-03
57431,6.11E-03,7.03E-03
57432,5.95E-03,6.96E-03
57433,6.43E-03,7.17E-03
57434,6.37E-03,7.10E-03
57435,6.37E-03,7.33E-03
57436,6.45E-03,7.25E-03
57437,6.45E-03,7.48E-03
57438,6.44E-03,7.40E-03
57439,6.47E-03,7.57E-03
57440,4.24E-03,8.21E-03
57441,5.67E-03,8.47E-03
57442,5.41E-03,8.36E-03
57443,6.32E-03,8.62E-03
57444,6.15E-03,8.52E-03
57445,6.29E-03,8.78E-03
57446,6.31E-03,8.69E-03
57447,6.45E-03,8.94E-03
57448,6.31E-03,8.85E-03
57449,6.51E-03,9.13E-03
57450,6.51E-03,9.03E-03
57451,6.32E-03,9.32E-03
57452,6.47E-03,9.22E-03
57453,6.15E-03,9.49E-03
57454,6.27E-03,9.41E-03
57455,5.95E-03,9.67E-03
57456,6.05E-03,9.58E-03
57457,5.83E-03,9.88E-03
57458,5.97E-03,9.79E-03
57459,6.02E-03,1.01E-02
57460,6.39E-03,1.00E-02
57461,4.94E-03,1.02E-02
57462,5.75E-03,9.89E-03
57463,5.69E-03,9.92E-03
57464,5.62E-03,9.84E-03
57465,5.62E-03,9.87E-03
57466,5.47E-03,9.79E-03
57467,5.42E-03,9.82E-03
57468,5.47E-03,9.74E-03
57469,5.38E-03,9.76E-03
57470,5.39E-03,9.74E-03
57471,4.90E-03,9.63E-03
57472,5.04E-03,9.54E-03
57473,5.45E-03,9.55E-03
57474,5.32E-03,9.54E-03
57475,5.47E-03,9.55E-03
57476,5.39E-03,9.41E-03
57477,5.54E-03,9.40E-03
57478,5.23E-03,9.43E-03
57479,5.30E-03,9.42E-03
57480,5.06E-03,9.43E-03
57481,5.14E-03,9.43E-03
57482,5.19E-03,9.47E-03
57483,5.06E-03,9.45E-03
57484,4.29E-03,9.44E-03
57485,5.68E-03,9.47E-03
57486,3.77E-03,9.42E-03
57487,4.96E-03,9.59E-03
57488,4.94E-03,9.57E-03
57489,4.87E-03,9.64E-03
57490,4.91E-03,9.61E-03
57491,4.73E-03,9.69E-03
57492,4.78E-03,9.67E-03
57493,4.63E-03,9.72E-03
57494,5.14E-03,9.99E-03
57495,5.21E-03,9.94E-03
57496,4.96E-03,1.02E-02
57497,4.91E-03,1.01E-02
57498,4.94E-03,1.03E-02
57499,4.97E-03,1.02E-02
57500,5.00E-03,1.04E-02
57501,4.98E-03,1.03E-02
57502,5.03E-03,1.05E-02
57503,5.05E-03,1.05E-02
57504,5.12E-03,1.06E-02
57505,5.50E-03,1.19E-02
57506,5.56E-03,1.23E-02
57507,5.31E-03,1.41E-02
57508,5.28E-03,1.37E-02
57509,5.43E-03,1.49E-02
57510,5.36E-03,1.45E-02
57511,5.47E-03,1.53E-02
57512,5.60E-03,1.74E-02
57513,5.60E-03,1.70E-02
57514,5.62E-03,1.83E-02
57515,5.55E-03,1.79E-02
57516,5.60E-03,1.92E-02
57517,5.64E-03,1.88E-02
57518,5.58E-03,2.01E-02
57519,5.55E-03,1.97E-02
57520,5.46E-03,2.10E-02
57521,5.44E-03,2.06E-02
57522,5.35E-03,2.19E-02
57523,5.37E-03,2.15E-02
57524,5.21E-03,2.28E-02
57525,5.29E-03,2.24E-02
57526,5.09E-03,2.37E-02
57527,5.16E-03,2.33E-02
57528,5.01E-03,2.46E-02
57529,5.03E-03,2.42E-02
57530,5.01E-03,2.50E-02
57531,5.44E-03,2.77E-02
57532,4.79E-03,2.95E-02
57533,4.86E-03,2.93E-02
57534,4.87E-03,2.98E-02
57535,4.77E-03,2.96E-02
57536,4.16E-03,3.01E-02
57537,5.24E-03,3.00E-02
57538,4.75E-03,3.05E-02
57539,4.69E-03,3.05E-02
57540,4.68E-03,3.05E-02
57541,4.88E-03,3.06E-02
57542,5.10E-03,3.05E-02
57543,4.94E-03,3.05E-02
57544,5.17E-03,3.04E-02
57545,5.20E-03,3.05E-02
57546,5.07E-03,3.03E-02
57547,5.13E-03,3.03E-02
57548,4.67E-03,3.01E-02
57549,4.91E-03,3.02E-02
57550,4.60E-03,3.00E-02
57551,4.88E-03,2.96E-02
57552,4.63E-03,2.97E-02
57553,5.21E-03,2.97E-02
57554,5.46E-03,2.94E-02
57555,6.13E-03,2.96E-02
57556,5.29E-03,2.90E-02
57557,5.20E-03,2.92E-02
57558,5.56E-03,2.88E-02
57559,5.23E-03,2.76E-02
57560,5.38E-03,2.79E-02
57561,4.92E-03,2.74E-02
57562,5.27E-03,2.63E-02
57563,5.00E-03,2.65E-02
57564,5.21E-03,2.61E-02
57565,5.25E-03,2.43E-02
57566,5.12E-03,2.45E-02
57567,5.17E-03,2.38E-02
57568,5.23E-03,2.40E-02
57569,5.20E-03,2.35E-02
57570,5.29E-03,2.27E-02
57571,5.27E-03,2.24E-02
57572,5.40E-03,2.10E-02
57573,5.34E-03,2.13E-02
57574,5.49E-03,2.07E-02
57575,5.42E-03,1.89E-02
57576,5.56E-03,1.92E-02
57577,5.25E-03,1.83E-02
57578,5.37E-03,1.86E-02
57579,4.97E-03,1.78E-02
57580,5.10E-03,1.81E-02
57581,5.02E-03,1.76E-02
57582,6.44E-03,1.70E-02
57583,6.06E-03,1.64E-02
57584,6.62E-03,1.67E-02
57585,5.34E-03,1.58E-02
57586,5.56E-03,1.61E-02
57587,4.97E-03,1.56E-02
57588,4.85E-03,1.44E-02
57589,4.87E-03,1.46E-02
57590,4.87E-03,1.39E-02
57591,4.89E-03,1.42E-02
57592,5.09E-03,1.34E-02
57593,4.98E-03,1.37E-02
57594,5.36E-03,1.32E-02
57595,5.48E-03,1.25E-02
57596,4.60E-03,1.16E-02
57597,4.47E-03,1.19E-02
57598,4.55E-03,1.18E-02
57599,4.72E-03,1.13E-02
57600,4.65E-03,1.14E-02
57601,4.79E-03,1.09E-02
57602,4.79E-03,1.11E-02
57603,4.83E-03,1.06E-02
57604,4.82E-03,1.07E-02
57605,4.84E-03,1.04E-02
57606,5.01E-03,9.68E-03
57607,4.98E-03,9.81E-03
57608,5.14E-03,9.42E-03
57609,5.11E-03,9.55E-03
57610,5.19E-03,9.14E-03
57611,5.19E-03,9.28E-03
57612,5.23E-03,8.86E-03
57613,5.23E-03,9.00E-03
57614,5.21E-03,8.61E-03
57615,5.21E-03,8.73E-03
57616,5.26E-03,8.36E-03
57617,5.24E-03,8.48E-03
57618,5.39E-03,8.10E-03
57619,5.34E-03,8.23E-03
57620,5.43E-03,7.89E-03
57621,5.42E-03,7.99E-03
57622,5.37E-03,7.79E-03
57623,5.27E-03,7.36E-03
57624,5.28E-03,6.94E-03
57625,5.13E-03,7.10E-03
57626,5.19E-03,7.02E-03
57627,5.35E-03,6.78E-03
57628,5.32E-03,6.86E-03
57629,5.31E-03,6.63E-03
57630,5.32E-03,6.70E-03
57631,5.21E-03,6.50E-03
57632,5.22E-03,6.56E-03
57633,5.14E-03,6.36E-03
57634,5.18E-03,6.43E-03
57635,5.13E-03,6.21E-03
57636,5.13E-03,6.28E-03
57637,5.24E-03,6.08E-03
57638,5.20E-03,6.14E-03
57639,5.42E-03,1.26E-02
57640,3.89E-03,1.21E-02
57641,5.21E-03,1.17E-02
57642,5.12E-03,1.19E-02
57643,5.30E-03,1.14E-02
57644,5.75E-03,9.52E-03
57645,6.44E-03,9.81E-03
57646,5.75E-03,8.97E-03
57647,5.71E-03,9.25E-03
57648,5.64E-03,8.40E-03
57649,5.67E-03,8.69E-03
57650,5.41E-03,8.13E-03
57651,3.96E-03,5.59E-03
57652,4.80E-03,5.86E-03
57653,5.02E-03,2.12E-02
57654,5.11E-03,1.04E-02
57655,4.96E-03,1.05E-02
57656,3.86E-03,1.47E-02
57657,4.94E-03,1.40E-02
57658,6.28E-03,1.00E-02
57659,6.41E-03,7.70E-03
57660,3.64E-03,1.07E-02
57661,3.93E-03,7.83E-03
57662,6.52E-03,1.47E-02
57663,6.16E-03,9.93E-03
57664,4.68E-03,5.39E-03
57665,4.99E-03,9.73E-03
57666,5.73E-03,1.09E-02
57667,4.90E-03,1.22E-02
57668,3.18E-03,1.20E-02
57669,5.42E-03,1.19E-02
57670,5.14E-03,1.25E-02
57671,5.45E-03,1.34E-02
57672,5.80E-03,1.84E-02
57673,5.75E-03,1.83E-02
57674,5.50E-03,1.81E-02
57675,5.37E-03,1.82E-02
57676,4.72E-03,1.15E-02
57677,5.10E-03,1.09E-02
57678,5.18E-03,1.31E-02
57679,5.13E-03,1.36E-02
57680,5.16E-03,1.06E-02
57681,5.31E-03,9.65E-03
57682,5.35E-03,1.92E-02
57683,5.43E-03,1.95E-02
57684,4.80E-03,1.59E-02
57685,5.08E-03,1.61E-02
57686,5.32E-03,1.94E-02
57687,5.32E-03,1.88E-02
57688,5.20E-03,1.56E-02
57689,5.35E-03,1.54E-02
57690,6.32E-03,2.90E-02
57691,6.19E-03,2.89E-02
57692,6.02E-03,2.43E-02
57693,5.95E-03,2.41E-02
57694,6.19E-03,2.45E-02
57695,6.26E-03,2.48E-02
57696,5.89E-03,2.38E-02
57697,6.20E-03,2.37E-02
57698,6.06E-03,1.22E-02
57699,6.00E-03,1.21E-02
57700,5.91E-03,1.24E-02
57701,5.67E-03,1.32E-02
57702,4.79E-03,1.79E-02
57703,5.59E-03,1.13E-02
57704,4.38E-03,1.10E-02
57705,5.55E-03,1.01E-02
57706,5.09E-03,5.73E-03
57707,4.32E-03,1.09E-02
57708,5.82E-03,9.90E-03
57709,5.89E-03,9.76E-03
57710,5.50E-03,9.55E-03
57711,4.38E-03,9.38E-03
57712,5.09E-03,9.34E-03
57713,5.48E-03,9.36E-03
57714,4.91E-03,9.26E-03
57715,4.71E-03,9.22E-03
57716,4.97E-03,9.28E-03
57717,5.04E-03,9.71E-03
57718,5.07E-03,9.66E-03
57719,5.01E-03,9.75E-03
57720,5.18E-03,1.03E-02
57721,4.51E-03,1.10E-02
57722,5.18E-03,1.16E-02
57723,5.29E-03,1.32E-02
57724,5.61E-03,1.60E-02
57725,5.53E-03,1.55E-02
57726,5.65E-03,1.64E-02
57727,4.74E-03,2.56E-02
57728,5.38E-03,2.76E-02
57729,5.45E-03,2.83E-02
57730,4.80E-03,2.92E-02
57731,4.77E-03,2.95E-02
57732,4.79E-03,3.00E-02
57733,6.50E-03,2.86E-02
57734,6.41E-03,2.88E-02
57735,5.72E-03,2.83E-02
57736,4.74E-03,2.72E-02
57737,5.26E-03,2.58E-02
57738,5.15E-03,2.48E-02
57739,5.29E-03,2.18E-02
57740,5.29E-03,2.21E-02
57741,5.34E-03,2.15E-02
57742,5.53E-03,2.04E-02
57743,5.86E-03,1.97E-02
57744,5.91E-03,1.94E-02
57745,5.42E-03,1.72E-02
57746,5.29E-03,1.57E-02
57747,4.97E-03,1.49E-02
57748,4.97E-03,1.52E-02
57749,4.93E-03,1.47E-02
57750,4.93E-03,9.67E-03
57751,5.34E-03,7.18E-03
57752,5.86E-03,1.27E-02
57753,4.47E-03,1.23E-02
57754,5.29E-03,1.11E-02
57755,5.20E-03,7.85E-03
57756,5.07E-03,2.09E-02
57757,5.02E-03,2.10E-02
57758,5.28E-03,1.75E-02
57759,4.27E-03,1.74E-02
57760,4.76E-03,1.02E-02
57761,5.24E-03,1.47E-02
57762,3.69E-03,1.41E-02
57763,4.11E-03,1.02E-02
57764,5.49E-03,1.03E-02
57765,5.71E-03,1.38E-02
57766,7.20E-03,9.14E-03
57767,4.69E-03,2.66E-02
57768,4.26E-03,1.41E-02
57769,4.37E-03,7.28E-03
57770,4.36E-03,6.99E-03
57771,5.23E-03,6.31E-03
57772,5.23E-03,6.02E-03
57773,5.55E-03,1.06E-02
57774,5.20E-03,1.37E-02
57775,5.17E-03,1.35E-02
57776,5.78E-03,1.83E-02
57777,5.79E-03,1.82E-02
57778,5.49E-03,1.80E-02
57779,5.47E-03,1.82E-02
57780,5.06E-03,1.18E-02
57781,5.19E-03,1.06E-02
57782,5.22E-03,1.28E-02
57783,5.15E-03,1.36E-02
57784,5.09E-03,1.10E-02
57785,5.22E-03,9.50E-03
57786,5.28E-03,1.89E-02
57787,5.31E-03,1.96E-02
57788,4.74E-03,1.59E-02
57789,5.02E-03,1.64E-02
57790,5.23E-03,1.96E-02
57791,5.26E-03,1.85E-02
57792,5.07E-03,1.59E-02
57793,5.41E-03,1.56E-02
57794,6.77E-03,2.87E-02
57795,6.26E-03,2.86E-02
57796,6.18E-03,2.47E-02
57797,5.83E-03,2.42E-02
57798,6.24E-03,2.45E-02
57799,6.50E-03,2.51E-02
57800,6.30E-03,2.38E-02
57801,5.32E-03,9.17E-03
57802,5.75E-03,9.17E-03
57803,5.31E-03,2.74E-02
57804,5.60E-03,2.89E-02
57805,5.29E-03,2.56E-02
57806,5.34E-03,2.00E-02
57807,5.24E-03,1.09E-02
57808,4.89E-03,7.56E-03
57809,5.02E-03,2.07E-02
57810,4.92E-03,2.08E-02
57811,5.18E-03,1.72E-02
57812,6.27E-03,1.76E-02
57813,5.47E-03,1.43E-02
57814,6.75E-03,1.30E-02
57815,6.53E-03,1.32E-02
57816,4.07E-03,9.95E-03
57817,3.85E-03,1.02E-02
57818,5.79E-03,1.83E-02
57819,5.86E-03,1.80E-02
57820,5.21E-03,1.79E-02
57821,5.52E-03,1.82E-02
57822,5.85E-03,1.22E-02
57823,5.86E-03,1.24E-02
57824,5.18E-03,1.37E-02
57825,5.04E-03,1.13E-02
57826,4.54E-03,8.02E-03
57827,6.03E-03,8.28E-03
57828,5.00E-03,7.97E-03
57829,3.79E-03,7.91E-03
57830,5.18E-03,9.31E-03
57831,5.14E-03,1.87E-02
57832,5.25E-03,1.97E-02
57833,4.43E-03,1.59E-02
57834,4.83E-03,1.67E-02
57835,5.13E-03,1.82E-02
57836,4.91E-03,1.62E-02
57837,5.45E-03,1.58E-02
57838,7.17E-03,2.84E-02
57839,6.48E-03,2.82E-02
57840,6.36E-03,2.52E-02
57841,5.37E-03,2.41E-02
57842,5.40E-03,2.43E-02
57843,6.25E-03,2.45E-02
57844,6.88E-03,2.54E-02
57845,6.49E-03,2.39E-02
57846,5.08E-03,2.70E-02
57847,4.61E-03,1.97E-02
57848,4.84E-03,1.69E-02
57849,4.89E-03,1.66E-02
57850,5.63E-03,1.02E-02
57851,5.65E-03,1.04E-02
57852,3.08E-03,1.02E-02
57853,4.96E-03,2.05E-02
57854,4.83E-03,2.06E-02
57855,5.48E-03,1.71E-02
57856,4.90E-03,1.60E-02
57857,5.66E-03,1.83E-02
57858,5.93E-03,1.79E-02
57859,5.56E-03,1.82E-02
57860,5.08E-03,1.48E-02
57861,5.01E-03,1.45E-02
57862,5.39E-03,1.39E-02
57863,5.16E-03,1.16E-02
57864,5.36E-03,8.08E-03
57865,5.19E-03,9.09E-03
57866,5.00E-03,1.85E-02
57867,5.13E-03,1.99E-02
57868,4.76E-03,1.70E-02
57869,5.00E-03,1.79E-02
57870,5.04E-03,1.58E-02
57871,7.38E-03,2.81E-02
57872,6.81E-03,2.78E-02
57873,6.40E-03,2.45E-02
57874,7.17E-03,2.58E-02
57875,6.54E-03,2.41E-02
57876,5.26E-03,1.27E-02
57877,5.36E-03,1.24E-02
57878,5.35E-03,6.16E-03
57879,5.61E-03,6.43E-03
57880,5.56E-03,1.54E-02
57881,6.51E-03,1.51E-02
57882,4.89E-03,2.03E-02
57883,4.72E-03,2.04E-02
57884,5.55E-03,1.69E-02
57885,5.00E-03,1.58E-02
57886,5.55E-03,1.83E-02
57887,5.99E-03,1.77E-02
57888,5.49E-03,1.82E-02
57889,4.11E-03,1.33E-02
57890,4.35E-03,1.35E-02
57891,5.87E-03,1.20E-02
57892,5.67E-03,8.32E-03
57893,5.53E-03,8.83E-03
57894,4.72E-03,1.82E-02
57895,5.02E-03,2.00E-02
57896,4.65E-03,1.73E-02
57897,4.87E-03,1.76E-02
57898,6.93E-03,2.73E-02
57899,6.44E-03,2.44E-02
57900,7.42E-03,2.61E-02
57901,6.65E-03,2.42E-02
57902,5.28E-03,1.56E-02
57903,4.90E-03,2.02E-02
57904,4.58E-03,2.03E-02
57905,5.53E-03,1.82E-02
57906,6.04E-03,1.75E-02
57907,5.47E-03,1.82E-02
57908,4.37E-03,1.31E-02
57909,5.75E-03,8.56E-03
57910,4.64E-03,1.80E-02
57911,4.55E-03,1.75E-02
57912,4.75E-03,1.73E-02
57913,6.99E-03,2.68E-02
57914,6.51E-03,2.43E-02
57915,7.42E-03,2.65E-02
57916,6.27E-03,1.44E-02
57917,5.74E-03,1.40E-02
57918,5.54E-03,1.37E-02
57919,4.63E-03,2.01E-02
57920,5.31E-03,1.66E-02
57921,5.44E-03,1.82E-02
57922,5.98E-03,1.73E-02
57923,4.64E-03,1.29E-02
57924,4.52E-03,1.78E-02
57925,4.70E-03,1.71E-02
57926,4.65E-03,1.59E-02
57927,4.40E-03,1.59E-02
57928,6.88E-03,2.63E-02
57929,7.18E-03,2.70E-02
57930,5.88E-03,1.71E-02
57931,4.24E-03,1.60E-02
57932,4.25E-03,1.60E-02
57933,5.52E-03,1.54E-02
57934,4.83E-03,1.26E-02
57935,4.76E-03,2.00E-02
57936,4.81E-03,1.99E-02
57937,4.75E-03,1.68E-02
57938,6.60E-03,2.59E-02
57939,7.12E-03,2.74E-02
57940,5.07E-03,1.64E-02
57941,5.69E-03,1.69E-02
57942,4.97E-03,1.97E-02
57943,5.62E-03,1.58E-02
57944,5.59E-03,1.60E-02
57945,5.54E-03,1.63E-02
57946,5.51E-03,1.65E-02
57947,5.56E-03,1.67E-02
57948,4.82E-03,5.20E-03
57949,4.84E-03,5.15E-03
57950,5.35E-03,6.90E-03
57951,5.30E-03,6.61E-03
57952,5.46E-03,7.48E-03
57953,5.45E-03,7.19E-03
57954,5.60E-03,8.07E-03
57955,5.55E-03,7.78E-03
57956,5.57E-03,8.64E-03
57957,5.60E-03,8.36E-03
57958,5.45E-03,9.21E-03
57959,5.52E-03,8.93E-03
57960,5.29E-03,9.48E-03
57961,5.66E-03,1.14E-02
57962,5.70E-03,1.11E-02
57963,5.53E-03,1.16E-02
57964,5.49E-03,1.29E-02
57965,5.42E-03,1.27E-02
57966,5.49E-03,1.31E-02
57967,5.79E-03,1.83E-02
57968,5.50E-03,1.82E-02
57969,5.24E-03,1.78E-02
57970,5.50E-03,1.78E-02
57971,4.97E-03,1.12E-02
57972,5.20E-03,1.34E-02
57973,5.33E-03,1.01E-02
57974,5.24E-03,1.04E-02
57975,5.36E-03,9.89E-03
57976,5.41E-03,1.93E-02
57977,4.98E-03,1.60E-02
57978,5.34E-03,1.91E-02
57979,5.38E-03,1.55E-02
57980,6.24E-03,2.90E-02
57981,5.94E-03,2.42E-02
57982,6.22E-03,2.47E-02
57983,6.06E-03,2.37E-02
57984,4.95E-03,1.10E-02
57985,4.69E-03,1.10E-02
57986,5.17E-03,1.12E-02
57987,5.44E-03,1.11E-02
57988,5.14E-03,1.13E-02
57989,5.20E-03,1.12E-02
57990,6.92E-03,1.14E-02
57991,5.94E-03,1.14E-02
57992,5.39E-03,1.17E-02
57993,6.65E-03,1.15E-02
57994,5.56E-03,1.19E-02
57995,5.40E-03,1.18E-02
57996,5.83E-03,1.20E-02
57997,5.76E-03,1.26E-02
57998,5.78E-03,1.25E-02
57999,5.70E-03,1.28E-02
58000,5.75E-03,1.27E-02
58001,5.90E-03,1.30E-02
58002,5.78E-03,1.29E-02
58003,6.32E-03,1.31E-02
58004,5.17E-03,1.36E-02
58005,4.52E-03,1.36E-02
58006,5.23E-03,1.50E-02
58007,5.13E-03,1.49E-02
58008,5.56E-03,1.52E-02
58009,5.40E-03,1.51E-02
58010,5.72E-03,1.54E-02
58011,5.65E-03,1.53E-02
58012,5.64E-03,1.57E-02
58013,5.68E-03,1.55E-02
58014,5.49E-03,1.59E-02
58015,5.51E-03,1.58E-02
58016,5.42E-03,1.61E-02
58017,5.47E-03,1.60E-02
58018,5.53E-03,1.63E-02
58019,5.42E-03,1.62E-02
58020,5.62E-03,1.65E-02
58021,5.58E-03,1.64E-02
58022,5.62E-03,1.67E-02
58023,5.60E-03,1.66E-02
58024,5.69E-03,1.69E-02
58025,5.66E-03,1.68E-02
58026,5.65E-03,1.71E-02
58027,5.66E-03,1.70E-02
58028,5.74E-03,1.73E-02
58029,5.66E-03,1.72E-02
58030,5.81E-03,1.75E-02
58031,5.78E-03,1.74E-02
58032,5.71E-03,1.76E-02
58033,5.76E-03,1.75E-02
58034,5.71E-03,1.77E-02
58035,5.68E-03,1.81E-02
58036,5.87E-03,1.80E-02
58037,5.80E-03,1.82E-02
58038,5.75E-03,1.82E-02
58039,5.68E-03,1.84E-02
58040,5.75E-03,1.83E-02
58041,5.60E-03,1.85E-02
58042,5.61E-03,1.85E-02
58043,5.54E-03,1.86E-02
58044,5.54E-03,1.86E-02
58045,5.63E-03,1.87E-02
58046,5.56E-03,1.87E-02
58047,5.80E-03,1.88E-02
58048,5.72E-03,1.88E-02
58049,5.62E-03,1.89E-02
58050,5.69E-03,1.89E-02
58051,5.56E-03,1.90E-02
58052,5.59E-03,1.89E-02
58053,5.45E-03,1.91E-02
58054,5.50E-03,1.90E-02
58055,5.40E-03,1.91E-02
58056,5.35E-03,1.91E-02
58057,5.50E-03,1.92E-02
58058,5.50E-03,1.91E-02
58059,5.63E-03,1.92E-02
58060,5.57E-03,1.92E-02
58061,5.66E-03,1.92E-02
58062,5.65E-03,1.92E-02
58063,5.52E-03,1.92E-02
58064,5.62E-03,1.92E-02
58065,5.50E-03,1.92E-02
58066,5.54E-03,1.92E-02
58067,5.54E-03,1.92E-02
58068,5.49E-03,1.92E-02
58069,5.63E-03,1.92E-02
58070,5.62E-03,1.92E-02
58071,5.63E-03,1.91E-02
58072,5.65E-03,1.92E-02
58073,5.58E-03,1.91E-02
58074,5.61E-03,1.91E-02
58075,5.54E-03,1.90E-02
58076,5.50E-03,1.91E-02
58077,5.68E-03,1.90E-02
58078,5.63E-03,1.90E-02
58079,5.69E-03,1.89E-02
58080,5.69E-03,1.89E-02
58081,5.69E-03,1.88E-02
58082,5.73E-03,1.88E-02
58083,5.60E-03,1.86E-02
58084,5.64E-03,1.87E-02
58085,5.62E-03,1.85E-02
58086,5.63E-03,1.86E-02
58087,5.66E-03,1.84E-02
58088,5.64E-03,1.85E-02
58089,5.63E-03,1.82E-02
58090,5.63E-03,1.83E-02
58091,5.55E-03,1.80E-02
58092,5.55E-03,1.81E-02
58093,5.52E-03,1.79E-02
58094,5.54E-03,1.80E-02
58095,5.52E-03,1.77E-02
58096,5.48E-03,1.78E-02
58097,5.52E-03,1.75E-02
58098,5.53E-03,1.76E-02
58099,5.48E-03,1.72E-02
58100,5.46E-03,1.73E-02
58101,5.62E-03,1.70E-02
58102,5.52E-03,1.71E-02
58103,5.60E-03,1.67E-02
58104,5.61E-03,1.69E-02
58105,5.56E-03,1.65E-02
58106,5.56E-03,1.66E-02
58107,5.52E-03,1.63E-02
58108,5.51E-03,1.64E-02
58109,5.60E-03,1.60E-02
58110,5.56E-03,1.61E-02
58111,5.74E-03,1.57E-02
58112,5.69E-03,1.59E-02
58113,5.73E-03,1.54E-02
58114,5.73E-03,1.56E-02
58115,5.71E-03,1.52E-02
58116,5.73E-03,1.53E-02
58117,5.63E-03,1.49E-02
58118,5.68E-03,1.50E-02
58119,5.62E-03,1.46E-02
58120,5.65E-03,1.47E-02
58121,5.60E-03,1.43E-02
58122,5.62E-03,1.44E-02
58123,5.59E-03,1.40E-02
58124,5.59E-03,1.41E-02
58125,5.57E-03,1.37E-02
58126,5.57E-03,1.38E-02
58127,5.62E-03,1.34E-02
58128,5.62E-03,1.35E-02
58129,5.63E-03,1.31E-02
58130,5.66E-03,1.32E-02
58131,5.59E-03,1.28E-02
58132,5.61E-03,1.29E-02
58133,5.67E-03,1.25E-02
58134,5.63E-03,1.26E-02
58135,5.69E-03,1.22E-02
58136,5.67E-03,1.23E-02
58137,5.77E-03,1.19E-02
58138,5.74E-03,1.20E-02
58139,5.79E-03,1.16E-02
58140,5.70E-03,1.17E-02
58141,5.83E-03,1.14E-02
58142,5.61E-03,1.07E-02
58143,5.31E-03,1.08E-02
58144,6.58E-03,1.04E-02
58145,5.74E-03,1.06E-02
58146,4.40E-03,1.01E-02
58147,6.33E-03,1.03E-02
58148,5.24E-03,5.26E-03
58149,5.04E-03,5.24E-03
58150,5.38E-03,5.29E-03
58151,5.35E-03,5.28E-03
58152,5.36E-03,5.33E-03
58153,5.39E-03,5.31E-03
58154,5.32E-03,5.36E-03
58155,5.32E-03,5.35E-03
58156,5.33E-03,5.40E-03
58157,5.35E-03,5.38E-03
58158,5.47E-03,5.46E-03
58159,5.39E-03,5.42E-03
58160,5.65E-03,5.54E-03
58161,5.58E-03,5.50E-03
58162,4.54E-03,5.55E-03
58163,6.01E-03,5.55E-03
58164,5.54E-03,5.63E-03
58165,3.85E-03,5.54E-03
58166,5.20E-03,5.75E-03
58167,5.69E-03,5.70E-03
58168,5.37E-03,5.86E-03
58169,5.26E-03,5.80E-03
58170,5.46E-03,5.98E-03
58171,5.45E-03,5.92E-03
58172,5.59E-03,6.09E-03
58173,5.53E-03,6.03E-03
58174,5.71E-03,6.21E-03
58175,5.70E-03,6.15E-03
58176,5.90E-03,6.33E-03
58177,5.82E-03,6.27E-03
58178,5.95E-03,6.46E-03
58179,5.92E-03,6.40E-03
58180,5.97E-03,6.60E-03
58181,5.91E-03,6.53E-03
58182,6.11E-03,6.73E-03
58183,6.01E-03,6.66E-03
58184,6.30E-03,6.87E-03
58185,6.25E-03,6.79E-03
58186,6.41E-03,7.02E-03
58187,6.37E-03,6.95E-03
58188,6.50E-03,7.18E-03
58189,6.48E-03,7.10E-03
58190,6.65E-03,7.36E-03
58191,6.55E-03,7.27E-03
58192,5.95E-03,7.47E-03
58193,5.84E-03,8.11E-03
58194,5.60E-03,8.03E-03
58195,6.17E-03,8.27E-03
58196,6.05E-03,8.19E-03
58197,6.17E-03,8.43E-03
58198,6.17E-03,8.35E-03
58199,6.27E-03,8.60E-03
58200,6.24E-03,8.52E-03
58201,6.38E-03,8.78E-03
58202,6.38E-03,8.69E-03
58203,6.26E-03,8.96E-03
58204,6.40E-03,8.87E-03
58205,6.05E-03,9.14E-03
58206,6.17E-03,9.05E-03
58207,5.91E-03,9.33E-03
58208,6.01E-03,9.23E-03
58209,5.86E-03,9.55E-03
58210,5.86E-03,9.44E-03
58211,5.54E-03,9.74E-03
58212,5.74E-03,9.64E-03
58213,5.39E-03,1.00E-02
58214,5.18E-03,9.85E-03
58215,5.50E-03,1.02E-02
58216,5.58E-03,1.02E-02
58217,4.51E-03,1.03E-02
58218,5.43E-03,9.91E-03
58219,5.87E-03,9.91E-03
58220,5.74E-03,9.72E-03
58221,5.71E-03,9.74E-03
58222,5.59E-03,9.67E-03
58223,5.60E-03,9.69E-03
58224,5.48E-03,9.61E-03
58225,5.42E-03,9.64E-03
58226,5.53E-03,9.56E-03
58227,5.44E-03,9.59E-03
58228,5.93E-03,9.53E-03
58229,5.04E-03,9.41E-03
58230,5.34E-03,9.34E-03
58231,5.27E-03,9.33E-03
58232,5.41E-03,9.35E-03
58233,5.31E-03,9.20E-03
58234,5.45E-03,9.19E-03
58235,5.22E-03,9.20E-03
58236,5.29E-03,9.20E-03
58237,5.07E-03,9.20E-03
58238,5.16E-03,9.20E-03
58239,5.05E-03,9.22E-03
58240,5.04E-03,9.21E-03
58241,4.83E-03,9.24E-03
58242,5.04E-03,9.23E-03
58243,4.73E-03,9.23E-03
58244,4.97E-03,9.32E-03
58245,4.92E-03,9.30E-03
58246,4.86E-03,9.37E-03
58247,4.92E-03,9.34E-03
58248,4.78E-03,9.42E-03
58249,4.81E-03,9.39E-03
58250,4.79E-03,9.50E-03
58251,4.83E-03,9.46E-03
58252,4.93E-03,9.57E-03
58253,4.93E-03,9.53E-03
58254,5.01E-03,9.61E-03
58255,4.97E-03,9.83E-03
58256,4.97E-03,9.79E-03
58257,4.96E-03,9.91E-03
58258,4.93E-03,9.86E-03
58259,5.05E-03,1.00E-02
58260,5.00E-03,9.98E-03
58261,5.10E-03,1.02E-02
58262,5.08E-03,1.01E-02
58263,5.13E-03,1.02E-02
58264,4.81E-03,1.13E-02
58265,6.29E-03,1.17E-02
58266,5.56E-03,1.21E-02
58267,5.25E-03,1.39E-02
58268,5.25E-03,1.35E-02
58269,5.45E-03,1.47E-02
58270,5.34E-03,1.43E-02
58271,5.47E-03,1.51E-02
58272,5.59E-03,1.73E-02
58273,5.68E-03,1.68E-02
58274,5.65E-03,1.82E-02
58275,5.62E-03,1.77E-02
58276,5.63E-03,1.91E-02
58277,5.62E-03,1.86E-02
58278,5.55E-03,2.00E-02
58279,5.58E-03,1.95E-02
58280,5.48E-03,2.09E-02
58281,5.45E-03,2.05E-02
58282,5.32E-03,2.19E-02
58283,5.39E-03,2.14E-02
58284,5.26E-03,2.28E-02
58285,5.31E-03,2.23E-02
58286,5.18E-03,2.37E-02
58287,5.21E-03,2.33E-02
58288,5.03E-03,2.46E-02
58289,5.06E-03,2.42E-02
58290,4.91E-03,2.51E-02
58291,5.48E-03,2.80E-02
58292,4.73E-03,2.98E-02
58293,4.76E-03,2.97E-02
58294,4.80E-03,3.01E-02
58295,4.76E-03,3.00E-02
58296,4.52E-03,3.04E-02
58297,4.72E-03,3.03E-02
58298,4.42E-03,3.06E-02
58299,4.85E-03,3.09E-02
58300,4.73E-03,3.09E-02
58301,4.85E-03,3.09E-02
58302,4.82E-03,3.09E-02
58303,4.97E-03,3.08E-02
58304,4.86E-03,3.09E-02
58305,5.11E-03,3.07E-02
58306,5.06E-03,3.08E-02
58307,5.05E-03,3.06E-02
58308,5.11E-03,3.07E-02
58309,4.80E-03,3.04E-02
58310,4.94E-03,3.05E-02
58311,4.62E-03,3.02E-02
58312,4.72E-03,3.03E-02
58313,4.68E-03,3.01E-02
58314,4.78E-03,2.99E-02
58315,5.40E-03,2.96E-02
58316,5.46E-03,2.97E-02
58317,5.25E-03,2.92E-02
58318,5.23E-03,2.93E-02
58319,5.47E-03,2.90E-02
58320,5.26E-03,2.77E-02
58321,5.39E-03,2.80E-02
58322,5.05E-03,2.75E-02
58323,4.87E-03,2.71E-02
58324,5.56E-03,2.64E-02
58325,5.86E-03,2.67E-02
58326,5.33E-03,2.61E-02
58327,5.25E-03,2.43E-02
58328,5.19E-03,2.45E-02
58329,5.21E-03,2.37E-02
58330,5.22E-03,2.40E-02
58331,5.31E-03,2.32E-02
58332,5.25E-03,2.35E-02
58333,5.31E-03,2.27E-02
58334,5.34E-03,2.29E-02
58335,5.29E-03,2.24E-02
58336,5.39E-03,2.09E-02
58337,5.36E-03,2.12E-02
58338,5.45E-03,2.07E-02
58339,5.30E-03,1.88E-02
58340,5.42E-03,1.91E-02
58341,5.24E-03,1.82E-02
58342,5.27E-03,1.85E-02
58343,5.17E-03,1.77E-02
58344,5.19E-03,1.80E-02
58345,5.25E-03,1.74E-02
58346,5.75E-03,1.62E-02
58347,6.14E-03,1.64E-02
58348,5.38E-03,1.59E-02
58349,5.05E-03,1.54E-02
58350,4.88E-03,1.42E-02
58351,4.93E-03,1.44E-02
58352,4.89E-03,1.37E-02
58353,4.92E-03,1.40E-02
58354,5.05E-03,1.32E-02
58355,4.94E-03,1.35E-02
58356,5.10E-03,1.30E-02
58357,4.78E-03,1.22E-02
58358,5.02E-03,1.24E-02
58359,4.47E-03,1.17E-02
58360,4.53E-03,1.19E-02
58361,4.65E-03,1.13E-02
58362,4.63E-03,1.15E-02
58363,4.78E-03,1.10E-02
58364,4.68E-03,1.12E-02
58365,4.83E-03,1.07E-02
58366,4.85E-03,1.08E-02
58367,4.87E-03,1.03E-02
58368,4.86E-03,1.05E-02
58369,4.91E-03,1.01E-02
58370,5.09E-03,9.40E-03
58371,5.03E-03,9.53E-03
58372,5.22E-03,9.14E-03
58373,5.18E-03,9.27E-03
58374,5.26E-03,8.86E-03
58375,5.27E-03,9.00E-03
58376,5.24E-03,8.58E-03
58377,5.27E-03,8.72E-03
58378,5.28E-03,8.32E-03
58379,5.26E-03,8.44E-03
58380,5.31E-03,8.07E-03
58381,5.26E-03,8.19E-03
58382,5.42E-03,7.81E-03
58383,5.39E-03,7.94E-03
58384,5.43E-03,7.60E-03
58385,5.45E-03,7.70E-03
58386,5.39E-03,7.50E-03
58387,5.29E-03,6.97E-03
58388,5.32E-03,7.07E-03
58389,5.17E-03,6.80E-03
58390,5.23E-03,6.88E-03
58391,5.31E-03,6.64E-03
58392,5.23E-03,6.73E-03
58393,5.36E-03,6.49E-03
58394,5.31E-03,6.56E-03
58395,5.34E-03,6.34E-03
58396,5.40E-03,6.41E-03
58397,5.27E-03,6.20E-03
58398,5.26E-03,6.27E-03
58399,5.20E-03,6.06E-03
58400,5.24E-03,6.13E-03
58401,5.21E-03,5.92E-03
58402,5.18E-03,5.99E-03
58403,5.21E-03,5.79E-03
58404,5.17E-03,5.85E-03
58405,4.36E-03,1.21E-02
58406,6.13E-03,1.25E-02
58407,5.29E-03,1.16E-02
58408,5.04E-03,1.19E-02
58409,5.36E-03,1.14E-02
58410,5.49E-03,9.53E-03
58411,5.10E-03,9.81E-03
58412,5.66E-03,8.96E-03
58413,5.66E-03,9.24E-03
58414,5.54E-03,8.40E-03
58415,5.64E-03,8.67E-03
58416,5.37E-03,8.12E-03
58417,4.75E-03,5.59E-03
58418,5.07E-03,5.90E-03
58419,4.78E-03,5.09E-03
58420,4.64E-03,5.32E-03
58421,5.08E-03,2.09E-02
58422,4.25E-03,1.75E-02
58423,5.12E-03,9.99E-03
58424,5.01E-03,1.01E-02
58425,5.07E-03,1.45E-02
58426,5.14E-03,1.39E-02
58427,5.88E-03,1.04E-02
58428,6.64E-03,1.37E-02
58429,7.11E-03,9.49E-03
58430,5.19E-03,5.74E-03
58431,5.02E-03,9.70E-03
58432,5.94E-03,1.08E-02
58433,4.99E-03,1.24E-02
58434,5.22E-03,1.33E-02
58435,5.86E-03,1.83E-02
58436,5.80E-03,1.82E-02
58437,5.39E-03,1.81E-02
58438,5.39E-03,1.82E-02
58439,5.22E-03,1.78E-02
58440,4.92E-03,1.15E-02
58441,5.07E-03,1.09E-02
58442,5.06E-03,1.30E-02
58443,5.16E-03,1.34E-02
58444,5.18E-03,1.07E-02
58445,5.25E-03,9.74E-03
58446,5.35E-03,1.91E-02
58447,5.36E-03,1.94E-02
58448,4.83E-03,1.60E-02
58449,5.01E-03,1.63E-02
58450,5.30E-03,1.93E-02
58451,5.36E-03,1.88E-02
58452,5.16E-03,1.58E-02
58453,5.47E-03,1.57E-02
58454,6.65E-03,2.87E-02
58455,6.30E-03,2.87E-02
58456,6.13E-03,2.46E-02
58457,5.94E-03,2.43E-02
58458,6.22E-03,2.47E-02
58459,6.35E-03,2.49E-02
58460,5.64E-03,2.40E-02
58461,6.14E-03,2.39E-02
58462,6.62E-03,1.12E-02
58463,4.32E-03,9.95E-03
58464,6.75E-03,7.33E-03
58465,5.65E-03,7.44E-03
58466,6.53E-03,7.67E-03
58467,4.45E-03,9.69E-03
58468,6.13E-03,9.70E-03
58469,5.36E-03,9.16E-03
58470,5.56E-03,8.98E-03
58471,4.97E-03,9.01E-03
58472,4.89E-03,9.00E-03
58473,5.00E-03,9.03E-03
58474,5.19E-03,9.92E-03
58475,6.21E-03,1.06E-02
58476,6.23E-03,1.13E-02
58477,5.62E-03,1.58E-02
58478,5.54E-03,1.53E-02
58479,5.60E-03,1.62E-02
58480,4.58E-03,2.56E-02
58481,5.49E-03,2.78E-02
58482,5.66E-03,2.86E-02
58483,4.95E-03,2.96E-02
58484,4.82E-03,2.98E-02
58485,4.80E-03,3.02E-02
58486,5.60E-03,2.90E-02
58487,5.56E-03,2.83E-02
58488,5.17E-03,2.73E-02
58489,5.36E-03,2.59E-02
58490,5.40E-03,2.03E-02
58491,5.00E-03,1.71E-02
58492,5.01E-03,1.47E-02
58493,5.03E-03,1.50E-02
58494,4.98E-03,1.45E-02
58495,5.98E-03,1.27E-02
58496,5.44E-03,1.11E-02
58497,5.22E-03,7.84E-03
58498,4.72E-03,6.74E-03
58499,5.10E-03,2.07E-02
58500,5.04E-03,2.07E-02
58501,5.10E-03,1.73E-02
58502,5.80E-03,1.75E-02
58503,5.46E-03,1.46E-02
58504,6.32E-03,1.40E-02
58505,5.28E-03,1.50E-02
58506,5.34E-03,1.52E-02
58507,5.52E-03,1.34E-02
58508,5.28E-03,1.04E-02
58509,4.61E-03,9.98E-03
58510,4.67E-03,1.18E-02
58511,3.14E-03,1.19E-02
58512,5.83E-03,1.36E-02
58513,4.93E-03,1.34E-02
58514,5.78E-03,1.83E-02
58515,5.83E-03,1.81E-02
58516,5.30E-03,1.80E-02
58517,5.50E-03,1.82E-02
58518,5.60E-03,1.18E-02
58519,5.11E-03,1.27E-02
58520,5.20E-03,1.35E-02
58521,5.13E-03,1.11E-02
58522,6.81E-03,8.21E-03
58523,5.24E-03,8.03E-03
58524,5.23E-03,9.58E-03
58525,5.23E-03,1.89E-02
58526,5.31E-03,1.96E-02
58527,4.69E-03,1.60E-02
58528,4.91E-03,1.66E-02
58529,5.18E-03,1.95E-02
58530,5.24E-03,1.85E-02
58531,5.04E-03,1.61E-02
58532,5.65E-03,1.59E-02
58533,6.95E-03,2.85E-02
58534,6.44E-03,2.83E-02
58535,6.23E-03,2.50E-02
58536,5.83E-03,2.44E-02
58537,6.36E-03,2.47E-02
58538,6.58E-03,2.52E-02
58539,6.28E-03,2.40E-02
58540,4.92E-03,1.05E-02
58541,5.14E-03,1.10E-02
58542,6.50E-03,1.08E-02
58543,4.61E-03,9.63E-03
58544,4.94E-03,8.99E-03
58545,4.85E-03,2.66E-02
58546,5.42E-03,2.75E-02
58547,5.68E-03,2.92E-02
58548,4.96E-03,1.99E-02
58549,6.16E-03,1.92E-02
58550,4.63E-03,1.95E-02
58551,4.53E-03,1.68E-02
58552,5.28E-03,1.06E-02
58553,3.05E-03,1.02E-02
58554,5.06E-03,2.05E-02
58555,4.99E-03,2.05E-02
58556,5.56E-03,1.71E-02
58557,5.76E-03,1.29E-02
58558,5.65E-03,1.31E-02
58559,4.93E-03,1.61E-02
58560,5.73E-03,1.82E-02
58561,5.89E-03,1.79E-02
58562,5.24E-03,1.79E-02
58563,5.53E-03,1.82E-02
58564,5.33E-03,1.07E-02
58565,5.03E-03,1.44E-02
58566,5.13E-03,1.23E-02
58567,5.25E-03,1.36E-02
58568,5.06E-03,1.14E-02
58569,6.54E-03,8.68E-03
58570,5.26E-03,8.20E-03
58571,5.23E-03,9.37E-03
58572,5.07E-03,1.86E-02
58573,5.22E-03,1.97E-02
58574,4.40E-03,1.60E-02
58575,4.84E-03,1.69E-02
58576,5.11E-03,1.82E-02
58577,4.89E-03,1.65E-02
58578,5.42E-03,1.60E-02
58579,7.17E-03,2.82E-02
58580,6.64E-03,2.79E-02
58581,6.42E-03,2.54E-02
58582,6.33E-03,2.46E-02
58583,6.88E-03,2.56E-02
58584,4.44E-03,2.43E-02
58585,5.07E-03,2.45E-02
58586,6.48E-03,2.41E-02
58587,5.24E-03,2.51E-02
58588,5.01E-03,1.25E-02
58589,5.78E-03,1.23E-02
58590,4.79E-03,6.14E-03
58591,5.18E-03,6.41E-03
58592,4.89E-03,5.03E-03
58593,4.73E-03,4.84E-03
58594,5.75E-03,1.52E-02
58595,5.01E-03,2.03E-02
58596,4.86E-03,2.04E-02
58597,5.60E-03,1.70E-02
58598,4.86E-03,1.59E-02
58599,5.24E-03,1.23E-02
58600,5.66E-03,1.82E-02
58601,5.95E-03,1.78E-02
58602,5.52E-03,1.82E-02
58603,4.69E-03,1.43E-02
58604,5.84E-03,1.38E-02
58605,4.89E-03,1.35E-02
58606,4.94E-03,1.21E-02
58607,5.42E-03,1.37E-02
58608,5.19E-03,1.17E-02
58609,5.52E-03,8.40E-03
58610,5.40E-03,9.15E-03
58611,4.90E-03,1.84E-02
58612,5.11E-03,1.98E-02
58613,4.72E-03,1.72E-02
58614,4.99E-03,1.79E-02
58615,7.21E-03,2.78E-02
58616,6.81E-03,2.75E-02
58617,6.37E-03,2.45E-02
58618,7.11E-03,2.59E-02
58619,6.61E-03,2.42E-02
58620,5.43E-03,1.55E-02
58621,4.94E-03,2.01E-02
58622,4.75E-03,2.02E-02
58623,5.56E-03,1.82E-02
58624,6.00E-03,1.76E-02
58625,5.50E-03,1.82E-02
58626,4.54E-03,1.32E-02
58627,5.64E-03,8.63E-03
58628,5.61E-03,8.88E-03
58629,4.70E-03,1.82E-02
58630,5.00E-03,2.00E-02
58631,4.63E-03,1.74E-02
58632,4.82E-03,1.76E-02
58633,6.92E-03,2.70E-02
58634,6.43E-03,2.45E-02
58635,7.29E-03,2.63E-02
58636,6.50E-03,2.44E-02
58637,5.31E-03,2.72E-02
58638,6.20E-03,1.46E-02
58639,6.11E-03,1.42E-02
58640,5.41E-03,1.39E-02
58641,4.68E-03,2.01E-02
58642,5.35E-03,1.67E-02
58643,5.48E-03,1.82E-02
58644,6.04E-03,1.74E-02
58645,5.46E-03,1.82E-02
58646,4.78E-03,9.84E-03
58647,4.55E-03,1.29E-02
58648,4.59E-03,1.79E-02
58649,4.54E-03,1.77E-02
58650,4.76E-03,1.73E-02
58651,4.89E-03,1.60E-02
58652,4.50E-03,1.61E-02
58653,6.85E-03,2.66E-02
58654,7.13E-03,2.67E-02
58655,5.93E-03,1.72E-02
58656,4.29E-03,1.61E-02
58657,4.28E-03,1.62E-02
58658,5.55E-03,1.55E-02
58659,4.57E-03,1.26E-02
58660,4.73E-03,1.99E-02
58661,4.79E-03,1.98E-02
58662,4.77E-03,1.70E-02
58663,6.71E-03,2.61E-02
58664,7.09E-03,2.71E-02
58665,5.11E-03,1.65E-02
58666,5.77E-03,1.70E-02
58667,4.93E-03,1.96E-02
58668,5.57E-03,1.59E-02
58669,5.50E-03,1.61E-02
58670,5.49E-03,1.64E-02
58671,5.53E-03,1.66E-02
58672,5.55E-03,1.68E-02
58673,5.22E-03,5.69E-03
58674,5.29E-03,6.26E-03
58675,5.28E-03,5.98E-03
58676,5.39E-03,6.85E-03
58677,5.40E-03,6.56E-03
58678,5.54E-03,7.43E-03
58679,5.50E-03,7.14E-03
58680,5.60E-03,8.02E-03
58681,5.64E-03,7.72E-03
58682,5.56E-03,8.59E-03
58683,5.57E-03,8.30E-03
58684,5.50E-03,9.16E-03
58685,5.54E-03,8.87E-03
58686,5.41E-03,9.44E-03
58687,5.79E-03,1.13E-02
58688,6.02E-03,1.10E-02
58689,5.48E-03,1.15E-02
58690,5.47E-03,1.28E-02
58691,5.46E-03,1.26E-02
58692,5.34E-03,1.31E-02
58693,5.85E-03,1.83E-02
58694,5.41E-03,1.81E-02
58695,5.24E-03,1.77E-02
58696,4.89E-03,1.12E-02
58697,5.09E-03,1.32E-02
58698,5.34E-03,1.02E-02
58699,5.23E-03,1.05E-02
58700,5.30E-03,9.99E-03
58701,5.38E-03,1.93E-02
58702,4.95E-03,1.62E-02
58703,5.36E-03,1.91E-02
58704,5.36E-03,1.58E-02
58705,6.45E-03,2.87E-02
58706,6.05E-03,2.44E-02
58707,6.31E-03,2.48E-02
58708,5.94E-03,2.39E-02
58709,4.77E-03,1.12E-02
58710,4.78E-03,1.11E-02
58711,5.13E-03,1.14E-02
58712,4.90E-03,1.13E-02
58713,5.30E-03,1.15E-02
58714,5.24E-03,1.14E-02
58715,5.55E-03,1.16E-02
58716,5.33E-03,1.16E-02
58717,6.00E-03,1.18E-02
58718,5.86E-03,1.17E-02
58719,5.65E-03,1.20E-02
58720,5.92E-03,1.19E-02
58721,5.65E-03,1.22E-02
58722,5.54E-03,1.21E-02
58723,5.75E-03,1.24E-02
58724,5.86E-03,1.27E-02
58725,5.73E-03,1.29E-02
58726,5.79E-03,1.28E-02
58727,5.72E-03,1.31E-02
58728,5.70E-03,1.30E-02
58729,5.89E-03,1.33E-02
58730,5.79E-03,1.32E-02
58731,5.59E-03,1.36E-02
58732,6.35E-03,1.35E-02
58733,5.04E-03,1.39E-02
58734,4.81E-03,1.38E-02
58735,6.16E-03,1.41E-02
58736,5.80E-03,1.40E-02
58737,5.74E-03,1.39E-02
58738,6.39E-03,1.42E-02
58739,5.05E-03,1.45E-02
58740,5.25E-03,1.46E-02
58741,5.26E-03,1.48E-02
58742,5.22E-03,1.47E-02
58743,5.23E-03,1.50E-02
58744,5.25E-03,1.49E-02
58745,5.37E-03,1.53E-02
58746,5.28E-03,1.51E-02
58747,5.52E-03,1.55E-02
58748,5.48E-03,1.54E-02
58749,5.70E-03,1.57E-02
58750,5.66E-03,1.56E-02
58751,5.66E-03,1.59E-02
58752,5.65E-03,1.58E-02
58753,5.49E-03,1.62E-02
58754,5.52E-03,1.60E-02
58755,5.43E-03,1.64E-02
58756,5.48E-03,1.63E-02
58757,5.53E-03,1.65E-02
58758,5.49E-03,1.65E-02
58759,5.63E-03,1.67E-02
58760,5.57E-03,1.66E-02
58761,5.63E-03,1.69E-02
58762,5.64E-03,1.68E-02
58763,5.69E-03,1.71E-02
58764,5.66E-03,1.70E-02
58765,5.68E-03,1.73E-02
58766,5.69E-03,1.72E-02
58767,5.70E-03,1.75E-02
58768,5.67E-03,1.74E-02
58769,5.68E-03,1.77E-02
58770,5.73E-03,1.76E-02
58771,5.68E-03,1.78E-02
58772,5.67E-03,1.77E-02
58773,5.60E-03,1.80E-02
58774,5.65E-03,1.79E-02
58775,5.13E-03,1.81E-02
58776,5.49E-03,1.80E-02
58777,5.70E-03,1.83E-02
58778,5.53E-03,1.82E-02
58779,5.75E-03,1.84E-02
58780,5.76E-03,1.83E-02
58781,5.68E-03,1.85E-02
58782,5.72E-03,1.85E-02
58783,5.61E-03,1.87E-02
58784,5.62E-03,1.86E-02
58785,5.52E-03,1.88E-02
58786,5.52E-03,1.87E-02
58787,5.68E-03,1.89E-02
58788,5.61E-03,1.88E-02
58789,5.76E-03,1.90E-02
58790,5.71E-03,1.89E-02
58791,5.62E-03,1.90E-02
58792,5.66E-03,1.90E-02
58793,5.55E-03,1.91E-02
58794,5.61E-03,1.91E-02
58795,5.45E-03,1.92E-02
58796,5.49E-03,1.91E-02
58797,5.40E-03,1.92E-02
58798,5.37E-03,1.92E-02
58799,5.49E-03,1.93E-02
58800,5.50E-03,1.92E-02
58801,5.61E-03,1.93E-02
58802,5.53E-03,1.93E-02
58803,5.62E-03,1.93E-02
58804,5.62E-03,1.93E-02
58805,5.52E-03,1.93E-02
58806,5.58E-03,1.93E-02
58807,5.46E-03,1.93E-02
58808,5.53E-03,1.93E-02
58809,5.53E-03,1.93E-02
58810,5.45E-03,1.93E-02
58811,5.65E-03,1.92E-02
58812,5.56E-03,1.93E-02
58813,5.67E-03,1.92E-02
58814,5.67E-03,1.92E-02
58815,5.56E-03,1.91E-02
58816,5.62E-03,1.92E-02
58817,5.56E-03,1.91E-02
58818,5.55E-03,1.91E-02
58819,5.68E-03,1.90E-02
58820,5.64E-03,1.90E-02
58821,5.71E-03,1.89E-02
58822,5.65E-03,1.89E-02
58823,5.74E-03,1.88E-02
58824,5.76E-03,1.88E-02
58825,5.65E-03,1.87E-02
58826,5.71E-03,1.87E-02
58827,5.67E-03,1.85E-02
58828,5.63E-03,1.86E-02
58829,5.63E-03,1.84E-02
58830,5.67E-03,1.85E-02
58831,5.64E-03,1.82E-02
58832,5.63E-03,1.83E-02
58833,5.56E-03,1.80E-02
58834,5.58E-03,1.81E-02
58835,5.53E-03,1.78E-02
58836,5.52E-03,1.79E-02
58837,5.51E-03,1.76E-02
58838,5.53E-03,1.77E-02
58839,5.50E-03,1.74E-02
58840,5.48E-03,1.75E-02
58841,5.46E-03,1.72E-02
58842,5.47E-03,1.73E-02
58843,5.62E-03,1.69E-02
58844,5.52E-03,1.71E-02
58845,5.66E-03,1.67E-02
58846,5.62E-03,1.68E-02
58847,5.56E-03,1.64E-02
58848,5.61E-03,1.66E-02
58849,5.56E-03,1.62E-02
58850,5.49E-03,1.63E-02
58851,5.61E-03,1.59E-02
58852,5.61E-03,1.61E-02
58853,5.76E-03,1.56E-02
58854,5.67E-03,1.58E-02
58855,5.70E-03,1.54E-02
58856,5.76E-03,1.55E-02
58857,5.71E-03,1.51E-02
58858,5.68E-03,1.52E-02
58859,5.63E-03,1.48E-02
58860,5.72E-03,1.49E-02
58861,5.63E-03,1.45E-02
58862,5.63E-03,1.46E-02
58863,5.61E-03,1.42E-02
58864,5.62E-03,1.43E-02
58865,5.59E-03,1.39E-02
58866,5.62E-03,1.40E-02
58867,5.58E-03,1.36E-02
58868,5.59E-03,1.37E-02
58869,5.69E-03,1.33E-02
58870,5.61E-03,1.34E-02
58871,5.66E-03,1.30E-02
58872,5.75E-03,1.31E-02
58873,5.59E-03,1.27E-02
58874,5.60E-03,1.28E-02
58875,5.56E-03,1.24E-02
58876,5.57E-03,1.25E-02
58877,5.64E-03,1.21E-02
58878,5.58E-03,1.22E-02
58879,5.78E-03,1.18E-02
58880,5.75E-03,1.19E-02
58881,5.89E-03,1.15E-02
58882,5.83E-03,1.16E-02
58883,6.07E-03,1.13E-02
58884,5.89E-03,1.06E-02
58885,5.72E-03,1.08E-02
58886,6.09E-03,1.03E-02
58887,5.99E-03,1.04E-02
58888,4.51E-03,1.00E-02
58889,5.92E-03,1.01E-02
58890,4.87E-03,4.91E-03
58891,4.77E-03,4.88E-03
58892,5.20E-03,4.96E-03
58893,5.06E-03,4.94E-03
58894,5.33E-03,4.99E-03
58895,5.25E-03,4.98E-03
58896,5.35E-03,5.03E-03
58897,5.35E-03,5.01E-03
58898,5.31E-03,5.06E-03
58899,5.35E-03,5.05E-03
58900,5.37E-03,5.10E-03
58901,5.33E-03,5.08E-03
58902,5.39E-03,5.16E-03
58903,5.39E-03,5.12E-03
58904,5.49E-03,5.23E-03
58905,5.42E-03,5.20E-03
58906,5.05E-03,5.28E-03
58907,5.28E-03,5.23E-03
58908,5.08E-03,5.34E-03
58909,4.99E-03,5.32E-03
58910,5.35E-03,5.46E-03
58911,5.32E-03,5.39E-03
58912,5.37E-03,5.57E-03
58913,5.34E-03,5.52E-03
58914,5.51E-03,5.68E-03
58915,5.46E-03,5.63E-03
58916,5.59E-03,5.79E-03
58917,5.53E-03,5.74E-03
58918,5.69E-03,5.92E-03
58919,5.63E-03,5.85E-03
58920,5.89E-03,6.04E-03
58921,5.77E-03,5.98E-03
58922,5.89E-03,6.16E-03
58923,5.92E-03,6.10E-03
58924,5.96E-03,6.30E-03
58925,5.89E-03,6.23E-03
58926,6.04E-03,6.42E-03
58927,6.00E-03,6.36E-03
58928,6.20E-03,6.57E-03
58929,6.18E-03,6.50E-03
58930,6.34E-03,6.72E-03
58931,6.31E-03,6.64E-03
58932,6.43E-03,6.88E-03
58933,6.39E-03,6.80E-03
58934,6.55E-03,7.05E-03
58935,6.50E-03,6.97E-03
58936,6.61E-03,7.24E-03
58937,7.16E-03,7.16E-03
58938,5.92E-03,7.77E-03
58939,5.86E-03,7.70E-03
58940,6.05E-03,7.93E-03
58941,6.04E-03,7.85E-03
58942,6.08E-03,8.10E-03
58943,6.08E-03,8.01E-03
58944,6.13E-03,8.27E-03
58945,6.13E-03,8.18E-03
58946,6.20E-03,8.44E-03
58947,6.23E-03,8.35E-03
58948,6.10E-03,8.62E-03
58949,6.17E-03,8.52E-03
58950,5.91E-03,8.79E-03
58951,6.01E-03,8.70E-03
58952,5.83E-03,8.99E-03
58953,5.90E-03,8.89E-03
58954,5.69E-03,9.21E-03
58955,5.82E-03,9.10E-03
58956,5.44E-03,9.41E-03
58957,5.59E-03,9.31E-03
58958,5.40E-03,9.66E-03
58959,5.40E-03,9.54E-03
58960,5.10E-03,9.87E-03
58961,5.39E-03,9.76E-03
58962,4.33E-03,1.02E-02
58963,4.73E-03,1.00E-02
58964,4.32E-03,1.03E-02
58965,5.72E-03,9.74E-03
58966,5.75E-03,9.72E-03
58967,7.40E-03,9.58E-03
58968,5.74E-03,9.55E-03
58969,5.87E-03,9.57E-03
58970,5.55E-03,9.49E-03
58971,5.54E-03,9.52E-03
58972,5.46E-03,9.44E-03
58973,5.43E-03,9.46E-03
58974,5.51E-03,9.39E-03
58975,5.40E-03,9.41E-03
58976,5.36E-03,9.31E-03
58977,5.98E-03,9.35E-03
58978,4.74E-03,9.20E-03
58979,4.71E-03,9.24E-03
58980,5.11E-03,9.20E-03
58981,5.05E-03,9.21E-03
58982,5.37E-03,9.17E-03
58983,5.08E-03,9.19E-03
58984,5.33E-03,9.14E-03
58985,5.27E-03,9.14E-03
58986,5.37E-03,9.15E-03
58987,5.24E-03,8.99E-03
58988,5.26E-03,8.99E-03
58989,5.22E-03,8.98E-03
58990,5.24E-03,8.99E-03
58991,5.11E-03,8.97E-03
58992,5.17E-03,8.98E-03
58993,5.06E-03,8.98E-03
58994,5.09E-03,8.98E-03
58995,4.96E-03,9.00E-03
58996,5.02E-03,8.99E-03
58997,4.89E-03,9.01E-03
58998,4.95E-03,9.06E-03
58999,4.96E-03,9.04E-03
59000,4.89E-03,9.10E-03
59001,4.92E-03,9.07E-03
59002,4.84E-03,9.16E-03
59003,4.88E-03,9.13E-03
59004,4.90E-03,9.21E-03
59005,4.89E-03,9.19E-03
59006,5.01E-03,9.27E-03
59007,4.97E-03,9.24E-03
59008,5.08E-03,9.34E-03
59009,5.05E-03,9.30E-03
59010,5.03E-03,9.50E-03
59011,5.04E-03,9.46E-03
59012,5.00E-03,9.58E-03
59013,4.99E-03,9.53E-03
59014,5.09E-03,9.69E-03
59015,5.05E-03,9.63E-03
59016,5.15E-03,9.80E-03
59017,5.15E-03,9.74E-03
59018,5.20E-03,9.85E-03
59019,5.67E-03,1.09E-02
59020,5.64E-03,1.15E-02
59021,5.13E-03,1.22E-02
59022,5.29E-03,1.18E-02
59023,5.19E-03,1.29E-02
59024,5.13E-03,1.26E-02
59025,5.25E-03,1.37E-02
59026,5.18E-03,1.33E-02
59027,5.44E-03,1.45E-02
59028,5.34E-03,1.41E-02
59029,5.47E-03,1.49E-02
59030,5.60E-03,1.71E-02
59031,5.62E-03,1.66E-02
59032,5.64E-03,1.80E-02
59033,5.61E-03,1.75E-02
59034,5.65E-03,1.89E-02
59035,5.68E-03,1.84E-02
59036,5.52E-03,1.99E-02
59037,5.58E-03,1.94E-02
59038,5.46E-03,2.08E-02
59039,5.49E-03,2.04E-02
59040,5.35E-03,2.18E-02
59041,5.38E-03,2.13E-02
59042,5.30E-03,2.28E-02
59043,5.33E-03,2.23E-02
59044,5.17E-03,2.37E-02
59045,5.22E-03,2.32E-02
59046,5.11E-03,2.47E-02
59047,5.12E-03,2.42E-02
59048,5.11E-03,2.51E-02
59049,5.65E-03,2.82E-02
59050,4.74E-03,3.01E-02
59051,4.62E-03,3.00E-02
59052,4.81E-03,3.05E-02
59053,4.77E-03,3.03E-02
59054,4.70E-03,3.08E-02
59055,4.76E-03,3.06E-02
59056,4.64E-03,3.10E-02
59057,4.66E-03,3.09E-02
59058,4.77E-03,3.12E-02
59059,4.73E-03,3.11E-02
59060,4.89E-03,3.12E-02
59061,4.85E-03,3.12E-02
59062,4.91E-03,3.12E-02
59063,4.90E-03,3.12E-02
59064,4.90E-03,3.11E-02
59065,4.84E-03,3.12E-02
59066,4.97E-03,3.10E-02
59067,4.94E-03,3.11E-02
59068,4.94E-03,3.09E-02
59069,4.97E-03,3.10E-02
59070,4.84E-03,3.07E-02
59071,4.90E-03,3.08E-02
59072,4.80E-03,3.05E-02
59073,4.83E-03,3.06E-02
59074,4.86E-03,3.03E-02
59075,5.37E-03,3.01E-02
59076,5.18E-03,2.97E-02
59077,5.34E-03,2.99E-02
59078,5.07E-03,2.93E-02
59079,5.10E-03,2.95E-02
59080,5.05E-03,2.91E-02
59081,5.32E-03,2.78E-02
59082,5.41E-03,2.81E-02
59083,5.23E-03,2.75E-02
59084,6.58E-03,2.71E-02
59085,5.62E-03,2.64E-02
59086,6.29E-03,2.68E-02
59087,5.46E-03,2.61E-02
59088,5.21E-03,2.48E-02
59089,5.26E-03,2.43E-02
59090,5.24E-03,2.45E-02
59091,5.25E-03,2.37E-02
59092,5.19E-03,2.40E-02
59093,5.30E-03,2.32E-02
59094,5.24E-03,2.34E-02
59095,5.35E-03,2.26E-02
59096,5.38E-03,2.29E-02
59097,5.33E-03,2.23E-02
59098,5.37E-03,2.15E-02
59099,5.39E-03,2.09E-02
59100,5.39E-03,2.12E-02
59101,5.37E-03,2.06E-02
59102,5.17E-03,1.86E-02
59103,5.05E-03,1.89E-02
59104,5.21E-03,1.81E-02
59105,5.16E-03,1.84E-02
59106,5.16E-03,1.76E-02
59107,5.20E-03,1.78E-02
59108,5.20E-03,1.73E-02
59109,4.75E-03,1.64E-02
59110,5.28E-03,1.60E-02
59111,5.09E-03,1.61E-02
59112,5.19E-03,1.55E-02
59113,5.21E-03,1.57E-02
59114,5.08E-03,1.52E-02
59115,4.93E-03,1.40E-02
59116,5.01E-03,1.42E-02
59117,4.93E-03,1.35E-02
59118,4.95E-03,1.38E-02
59119,4.91E-03,1.30E-02
59120,4.92E-03,1.33E-02
59121,4.97E-03,1.28E-02
59122,4.99E-03,1.19E-02
59123,5.32E-03,1.22E-02
59124,4.78E-03,1.14E-02
59125,4.83E-03,1.17E-02
59126,4.76E-03,1.11E-02
59127,4.77E-03,1.13E-02
59128,4.85E-03,1.07E-02
59129,4.77E-03,1.09E-02
59130,4.91E-03,1.04E-02
59131,4.88E-03,1.06E-02
59132,4.92E-03,1.01E-02
59133,4.94E-03,1.02E-02
59134,4.96E-03,9.71E-03
59135,4.92E-03,9.88E-03
59136,5.02E-03,9.40E-03
59137,4.99E-03,9.55E-03
59138,5.14E-03,9.12E-03
59139,5.10E-03,9.26E-03
59140,5.30E-03,8.85E-03
59141,5.23E-03,8.99E-03
59142,5.29E-03,8.57E-03
59143,5.29E-03,8.72E-03
59144,5.33E-03,8.29E-03
59145,5.32E-03,8.43E-03
59146,5.31E-03,8.03E-03
59147,5.29E-03,8.16E-03
59148,5.33E-03,7.78E-03
59149,5.34E-03,7.90E-03
59150,5.41E-03,7.52E-03
59151,5.37E-03,7.65E-03
59152,5.41E-03,7.30E-03
59153,5.45E-03,7.41E-03
59154,5.37E-03,7.10E-03
59155,5.39E-03,7.20E-03
59156,5.39E-03,6.89E-03
59157,5.40E-03,7.00E-03
59158,5.28E-03,6.68E-03
59159,5.36E-03,6.78E-03
59160,5.23E-03,6.51E-03
59161,5.31E-03,6.59E-03
59162,5.33E-03,6.35E-03
59163,5.27E-03,6.43E-03
59164,5.38E-03,6.19E-03
59165,5.37E-03,6.27E-03
59166,5.39E-03,6.04E-03
59167,5.40E-03,6.12E-03
59168,5.31E-03,5.91E-03
59169,5.35E-03,5.98E-03
59170,5.28E-03,5.77E-03
59171,5.28E-03,5.84E-03
59172,5.23E-03,5.63E-03
59173,5.25E-03,5.70E-03
59174,5.20E-03,5.50E-03
59175,5.18E-03,5.56E-03
59176,5.22E-03,5.40E-03
59177,5.24E-03,5.45E-03
59178,6.06E-03,1.21E-02
59179,6.15E-03,1.24E-02
59180,5.41E-03,1.16E-02
59181,5.35E-03,1.19E-02
59182,5.43E-03,1.14E-02
59183,5.67E-03,9.52E-03
59184,4.60E-03,9.73E-03
59185,5.54E-03,8.95E-03
59186,5.51E-03,9.23E-03
59187,5.50E-03,8.39E-03
59188,5.55E-03,8.67E-03
59189,5.47E-03,8.11E-03
59190,4.40E-03,6.99E-03
59191,4.90E-03,5.59E-03
59192,4.85E-03,5.88E-03
59193,4.86E-03,5.30E-03
59194,5.12E-03,2.07E-02
59195,5.58E-03,1.74E-02
59196,5.17E-03,9.60E-03
59197,5.01E-03,9.68E-03
59198,6.26E-03,1.44E-02
59199,6.29E-03,1.38E-02
59200,5.39E-03,1.53E-02
59201,5.36E-03,1.36E-02
59202,5.11E-03,1.03E-02
59203,5.47E-03,1.01E-02
59204,5.92E-03,9.72E-03
59205,6.65E-03,1.07E-02
59206,4.95E-03,1.32E-02
59207,5.81E-03,1.82E-02
59208,5.83E-03,1.81E-02
59209,5.39E-03,1.80E-02
59210,5.41E-03,1.81E-02
59211,5.16E-03,1.77E-02
59212,4.80E-03,1.15E-02
59213,4.98E-03,1.42E-02
59214,5.04E-03,1.29E-02
59215,5.16E-03,1.33E-02
59216,5.23E-03,1.08E-02
59217,7.43E-03,8.14E-03
59218,6.03E-03,8.08E-03
59219,5.23E-03,9.83E-03
59220,5.30E-03,1.90E-02
59221,5.35E-03,1.94E-02
59222,4.78E-03,1.62E-02
59223,4.95E-03,1.65E-02
59224,5.26E-03,1.93E-02
59225,5.30E-03,1.88E-02
59226,5.18E-03,1.61E-02
59227,5.62E-03,1.60E-02
59228,6.69E-03,2.85E-02
59229,6.61E-03,2.84E-02
59230,6.14E-03,2.48E-02
59231,6.10E-03,2.45E-02
59232,6.42E-03,2.48E-02
59233,6.43E-03,2.51E-02
59234,5.50E-03,2.42E-02
59235,6.12E-03,2.41E-02
59236,6.98E-03,1.10E-02
59237,5.22E-03,8.96E-03
59238,5.01E-03,8.78E-03
59239,5.01E-03,8.77E-03
59240,5.03E-03,8.78E-03
59241,5.26E-03,9.53E-03
59242,4.53E-03,2.57E-02
59243,5.68E-03,2.80E-02
59244,6.06E-03,2.89E-02
59245,5.33E-03,3.04E-02
59246,3.59E-03,2.91E-02
59247,5.17E-03,2.84E-02
59248,5.53E-03,2.73E-02
59249,5.22E-03,2.02E-02
59250,5.13E-03,1.70E-02
59251,5.08E-03,1.45E-02
59252,5.13E-03,1.48E-02
59253,5.04E-03,1.43E-02
59254,5.78E-03,1.26E-02
59255,4.03E-03,9.98E-03
59256,5.38E-03,7.82E-03
59257,4.88E-03,6.71E-03
59258,5.11E-03,2.05E-02
59259,5.07E-03,2.05E-02
59260,5.64E-03,1.72E-02
59261,5.41E-03,1.74E-02
59262,6.29E-03,1.09E-02
59263,4.92E-03,1.11E-02
59264,4.67E-03,1.47E-02
59265,5.31E-03,1.45E-02
59266,5.47E-03,1.33E-02
59267,4.94E-03,1.63E-02
59268,5.24E-03,5.65E-03
59269,5.23E-03,5.36E-03
59270,5.79E-03,1.82E-02
59271,5.86E-03,1.80E-02
59272,5.23E-03,1.79E-02
59273,5.49E-03,1.81E-02
59274,4.98E-03,1.10E-02
59275,5.28E-03,1.07E-02
59276,5.06E-03,1.43E-02
59277,5.68E-03,1.39E-02
59278,4.66E-03,1.25E-02
59279,5.21E-03,1.34E-02
59280,5.06E-03,1.11E-02
59281,6.68E-03,8.60E-03
59282,5.29E-03,8.31E-03
59283,5.31E-03,9.65E-03
59284,5.18E-03,1.88E-02
59285,5.28E-03,1.95E-02
59286,4.66E-03,1.62E-02
59287,4.90E-03,1.68E-02
59288,5.11E-03,1.95E-02
59289,5.19E-03,1.84E-02
59290,5.01E-03,1.64E-02
59291,6.22E-03,1.62E-02
59292,7.00E-03,2.82E-02
59293,6.62E-03,2.81E-02
59294,6.27E-03,2.52E-02
59295,6.32E-03,2.48E-02
59296,6.64E-03,2.54E-02
59297,6.62E-03,2.46E-02
59298,5.04E-03,2.46E-02
59299,6.26E-03,2.42E-02
59300,6.25E-03,1.03E-02
59301,5.54E-03,1.01E-02
59302,5.55E-03,1.51E-02
59303,5.60E-03,1.55E-02
59304,3.85E-03,3.01E-02
59305,5.20E-03,3.00E-02
59306,5.01E-03,1.66E-02
59307,4.77E-03,1.24E-02
59308,3.89E-03,7.24E-03
59309,4.21E-03,7.44E-03
59310,4.52E-03,6.14E-03
59311,5.11E-03,4.99E-03
59312,4.65E-03,4.58E-03
59313,5.75E-03,1.51E-02
59314,5.13E-03,2.03E-02
59315,5.08E-03,2.03E-02
59316,5.84E-03,1.70E-02
59317,4.92E-03,1.61E-02
59318,5.08E-03,1.57E-02
59319,4.38E-03,1.23E-02
59320,5.64E-03,1.82E-02
59321,5.90E-03,1.79E-02
59322,5.23E-03,1.78E-02
59323,5.55E-03,1.81E-02
59324,4.09E-03,1.19E-02
59325,3.93E-03,1.21E-02
59326,4.79E-03,1.41E-02
59327,5.26E-03,1.36E-02
59328,5.38E-03,1.35E-02
59329,5.07E-03,1.15E-02
59330,7.12E-03,9.06E-03
59331,5.46E-03,8.50E-03
59332,5.28E-03,9.44E-03
59333,4.99E-03,1.86E-02
59334,5.19E-03,1.96E-02
59335,4.39E-03,1.62E-02
59336,4.78E-03,1.71E-02
59337,5.08E-03,1.81E-02
59338,4.87E-03,1.67E-02
59339,7.11E-03,2.79E-02
59340,6.75E-03,2.77E-02
59341,6.43E-03,2.57E-02
59342,6.36E-03,2.47E-02
59343,6.87E-03,2.57E-02
59344,6.49E-03,2.43E-02
59345,5.60E-03,1.54E-02
59346,5.07E-03,2.01E-02
59347,5.01E-03,2.01E-02
59348,7.24E-03,2.75E-02
59349,5.62E-03,1.82E-02
59350,5.95E-03,1.77E-02
59351,5.50E-03,1.81E-02
59352,4.81E-03,1.32E-02
59353,5.59E-03,1.36E-02
59354,4.83E-03,1.18E-02
59355,5.52E-03,8.72E-03
59356,5.43E-03,9.20E-03
59357,4.86E-03,1.83E-02
59358,5.10E-03,1.98E-02
59359,4.69E-03,1.73E-02
59360,4.94E-03,1.78E-02
59361,6.84E-03,2.72E-02
59362,6.40E-03,2.46E-02
59363,7.03E-03,2.61E-02
59364,6.44E-03,2.44E-02
59365,5.62E-03,2.72E-02
59366,5.59E-03,2.77E-02
59367,5.06E-03,1.28E-02
59368,4.97E-03,1.30E-02
59369,4.36E-03,1.40E-02
59370,4.31E-03,1.43E-02
59371,5.18E-03,1.40E-02
59372,5.00E-03,1.99E-02
59373,4.86E-03,2.00E-02
59374,5.48E-03,1.68E-02
59375,5.11E-03,1.50E-02
59376,5.54E-03,1.81E-02
59377,5.98E-03,1.75E-02
59378,5.49E-03,1.81E-02
59379,3.38E-03,1.01E-02
59380,4.55E-03,1.29E-02
59381,5.54E-03,8.95E-03
59382,4.64E-03,1.81E-02
59383,4.62E-03,1.76E-02
59384,4.86E-03,1.76E-02
59385,5.00E-03,1.62E-02
59386,4.66E-03,1.62E-02
59387,6.82E-03,2.68E-02
59388,6.40E-03,2.45E-02
59389,7.09E-03,2.65E-02
59390,5.47E-03,1.81E-02
59391,6.02E-03,1.73E-02
59392,4.38E-03,1.63E-02
59393,4.28E-03,1.63E-02
59394,5.54E-03,1.56E-02
59395,5.24E-03,9.53E-03
59396,3.83E-03,9.80E-03
59397,4.52E-03,1.27E-02
59398,4.57E-03,1.78E-02
59399,4.75E-03,1.98E-02
59400,4.80E-03,1.97E-02
59401,4.82E-03,1.73E-02
59402,6.72E-03,2.63E-02
59403,7.05E-03,2.69E-02
59404,5.18E-03,1.66E-02
59405,5.82E-03,1.71E-02
59406,4.89E-03,1.95E-02
59407,5.44E-03,1.60E-02
59408,5.42E-03,1.62E-02
59409,5.48E-03,1.65E-02
59410,5.49E-03,1.67E-02
59411,5.66E-03,1.69E-02
59412,5.43E-03,1.54E-02
59413,5.20E-03,1.37E-02
59414,5.37E-03,6.22E-03
59415,5.30E-03,5.93E-03
59416,5.43E-03,6.80E-03
59417,5.42E-03,6.51E-03
59418,5.59E-03,7.39E-03
59419,5.50E-03,7.09E-03
59420,5.57E-03,7.97E-03
59421,5.61E-03,7.68E-03
59422,5.57E-03,8.54E-03
59423,5.60E-03,8.25E-03
59424,5.59E-03,9.10E-03
59425,5.55E-03,8.82E-03
59426,5.63E-03,9.40E-03
59427,5.77E-03,1.12E-02
59428,6.72E-03,1.09E-02
59429,5.01E-03,1.17E-02
59430,5.48E-03,1.15E-02
59431,5.97E-03,1.23E-02
59432,4.88E-03,1.20E-02
59433,5.45E-03,1.28E-02
59434,5.67E-03,1.25E-02
59435,5.19E-03,1.30E-02
59436,5.83E-03,1.82E-02
59437,5.41E-03,1.81E-02
59438,5.37E-03,1.76E-02
59439,4.79E-03,1.12E-02
59440,5.08E-03,1.43E-02
59441,4.99E-03,1.31E-02
59442,5.20E-03,1.03E-02
59443,5.21E-03,1.06E-02
59444,7.20E-03,8.09E-03
59445,5.28E-03,1.01E-02
59446,5.34E-03,1.92E-02
59447,4.89E-03,1.63E-02
59448,5.27E-03,1.90E-02
59449,5.44E-03,1.60E-02
59450,6.65E-03,2.85E-02
59451,6.07E-03,2.47E-02
59452,6.44E-03,2.49E-02
59453,5.89E-03,2.42E-02
59454,3.47E-03,1.11E-02
59455,4.80E-03,1.11E-02
59456,6.85E-03,1.11E-02
59457,5.66E-03,1.11E-02
59458,5.75E-03,1.13E-02
59459,6.90E-03,1.11E-02
59460,5.19E-03,1.15E-02
59461,5.37E-03,1.14E-02
59462,5.21E-03,1.17E-02
59463,5.16E-03,1.16E-02
59464,5.36E-03,1.18E-02
59465,5.26E-03,1.18E-02
59466,5.58E-03,1.20E-02
59467,5.48E-03,1.19E-02
59468,5.74E-03,1.22E-02
59469,5.71E-03,1.21E-02
59470,5.70E-03,1.24E-02
59471,5.71E-03,1.23E-02
59472,5.69E-03,1.26E-02
59473,5.65E-03,1.25E-02
59474,5.76E-03,1.28E-02
59475,5.75E-03,1.27E-02
59476,5.76E-03,1.30E-02
59477,5.74E-03,1.29E-02
59478,5.62E-03,1.33E-02
59479,5.73E-03,1.31E-02
59480,5.68E-03,1.35E-02
59481,5.65E-03,1.34E-02
59482,5.84E-03,1.37E-02
59483,5.75E-03,1.36E-02
59484,5.65E-03,1.39E-02
59485,5.78E-03,1.38E-02
59486,5.52E-03,1.42E-02
59487,5.62E-03,1.40E-02
59488,5.90E-03,1.44E-02
59489,5.68E-03,1.43E-02
59490,5.82E-03,1.46E-02
59491,6.00E-03,1.45E-02
59492,5.44E-03,1.49E-02
59493,5.77E-03,1.47E-02
59494,5.43E-03,1.51E-02
59495,5.44E-03,1.50E-02
59496,5.41E-03,1.53E-02
59497,5.41E-03,1.52E-02
59498,5.47E-03,1.55E-02
59499,5.46E-03,1.54E-02
59500,5.62E-03,1.57E-02
59501,5.53E-03,1.56E-02
59502,5.69E-03,1.59E-02
59503,5.67E-03,1.58E-02
59504,5.61E-03,1.62E-02
59505,5.65E-03,1.61E-02
59506,5.48E-03,1.64E-02
59507,5.51E-03,1.63E-02
59508,5.43E-03,1.66E-02
59509,5.47E-03,1.65E-02
59510,5.51E-03,1.68E-02
59511,5.47E-03,1.67E-02
59512,5.57E-03,1.70E-02
59513,5.54E-03,1.69E-02
59514,5.66E-03,1.72E-02
59515,5.63E-03,1.71E-02
59516,5.66E-03,1.73E-02
59517,5.66E-03,1.72E-02
59518,5.65E-03,1.75E-02
59519,5.64E-03,1.74E-02
59520,5.65E-03,1.77E-02
59521,5.65E-03,1.76E-02
59522,5.65E-03,1.79E-02
59523,5.66E-03,1.78E-02
59524,5.60E-03,1.80E-02
59525,5.65E-03,1.79E-02
59526,5.52E-03,1.82E-02
59527,5.58E-03,1.81E-02
59528,5.51E-03,1.83E-02
59529,5.50E-03,1.82E-02
59530,5.67E-03,1.84E-02
59531,5.53E-03,1.84E-02
59532,5.74E-03,1.86E-02
59533,5.72E-03,1.85E-02
59534,5.66E-03,1.87E-02
59535,5.73E-03,1.86E-02
59536,5.57E-03,1.88E-02
59537,5.59E-03,1.88E-02
59538,5.60E-03,1.89E-02
59539,5.52E-03,1.89E-02
59540,5.67E-03,1.90E-02
59541,5.65E-03,1.90E-02
59542,5.71E-03,1.91E-02
59543,5.71E-03,1.91E-02
59544,5.64E-03,1.92E-02
59545,5.65E-03,1.91E-02
59546,5.55E-03,1.92E-02
59547,5.60E-03,1.92E-02
59548,5.42E-03,1.93E-02
59549,5.49E-03,1.93E-02
59550,5.44E-03,1.93E-02
59551,5.38E-03,1.93E-02
59552,5.49E-03,1.94E-02
59553,5.50E-03,1.93E-02
59554,5.56E-03,1.94E-02
59555,5.52E-03,1.94E-02
59556,5.60E-03,1.94E-02
59557,5.57E-03,1.94E-02
59558,5.52E-03,1.94E-02
59559,5.58E-03,1.94E-02
59560,5.45E-03,1.94E-02
59561,5.52E-03,1.94E-02
59562,5.48E-03,1.93E-02
59563,5.43E-03,1.94E-02
59564,5.62E-03,1.93E-02
59565,5.57E-03,1.93E-02
59566,5.71E-03,1.92E-02
59567,5.63E-03,1.93E-02
59568,5.59E-03,1.92E-02
59569,5.64E-03,1.92E-02
59570,5.58E-03,1.91E-02
59571,5.60E-03,1.91E-02
59572,5.69E-03,1.90E-02
59573,5.66E-03,1.91E-02
59574,5.76E-03,1.89E-02
59575,5.68E-03,1.90E-02
59576,5.76E-03,1.88E-02
59577,5.77E-03,1.89E-02
59578,5.69E-03,1.87E-02
59579,5.73E-03,1.87E-02
59580,5.65E-03,1.85E-02
59581,5.65E-03,1.86E-02
59582,5.69E-03,1.84E-02
59583,5.68E-03,1.85E-02
59584,5.67E-03,1.82E-02
59585,5.68E-03,1.83E-02
59586,5.51E-03,1.80E-02
59587,5.55E-03,1.81E-02
59588,5.48E-03,1.78E-02
59589,5.52E-03,1.79E-02
59590,5.45E-03,1.76E-02
59591,5.47E-03,1.77E-02
59592,5.50E-03,1.74E-02
59593,5.48E-03,1.75E-02
59594,5.50E-03,1.71E-02
59595,5.51E-03,1.73E-02
59596,5.63E-03,1.69E-02
59597,5.58E-03,1.70E-02
59598,5.62E-03,1.66E-02
59599,5.62E-03,1.68E-02
59600,5.55E-03,1.64E-02
59601,5.55E-03,1.65E-02
59602,5.55E-03,1.61E-02
59603,5.52E-03,1.62E-02
59604,5.62E-03,1.58E-02
59605,5.59E-03,1.60E-02
59606,5.76E-03,1.56E-02
59607,5.69E-03,1.57E-02
59608,5.75E-03,1.53E-02
59609,5.80E-03,1.54E-02
59610,5.69E-03,1.50E-02
59611,5.71E-03,1.51E-02
59612,5.62E-03,1.47E-02
59613,5.64E-03,1.48E-02
59614,5.65E-03,1.44E-02
59615,5.63E-03,1.45E-02
59616,5.65E-03,1.41E-02
59617,5.61E-03,1.42E-02
59618,5.60E-03,1.38E-02
59619,5.62E-03,1.39E-02
59620,5.58E-03,1.35E-02
59621,5.58E-03,1.36E-02
59622,5.69E-03,1.32E-02
59623,5.62E-03,1.33E-02
59624,5.72E-03,1.29E-02
59625,5.75E-03,1.30E-02
59626,5.63E-03,1.26E-02
59627,5.68E-03,1.27E-02
59628,5.58E-03,1.23E-02
59629,5.63E-03,1.24E-02
59630,5.65E-03,1.20E-02
59631,5.59E-03,1.21E-02
59632,5.81E-03,1.17E-02
59633,5.72E-03,1.18E-02
59634,5.99E-03,1.14E-02
59635,5.89E-03,1.15E-02
59636,6.21E-03,1.12E-02
59637,6.02E-03,1.05E-02
59638,6.44E-03,1.07E-02
59639,6.10E-03,1.02E-02
59640,6.02E-03,1.03E-02
59641,6.74E-03,9.93E-03
59642,6.10E-03,1.01E-02
59643,4.97E-03,4.62E-03
59644,4.85E-03,4.60E-03
59645,5.15E-03,4.67E-03
59646,5.08E-03,4.65E-03
59647,5.31E-03,4.70E-03
59648,5.24E-03,4.68E-03
59649,5.35E-03,4.73E-03
59650,5.38E-03,4.71E-03
59651,5.31E-03,4.76E-03
59652,5.32E-03,4.75E-03
59653,5.34E-03,4.79E-03
59654,5.32E-03,4.78E-03
59655,5.36E-03,4.86E-03
59656,5.35E-03,4.82E-03
59657,5.36E-03,4.93E-03
59658,5.36E-03,4.89E-03
59659,5.22E-03,4.99E-03
59660,5.25E-03,4.96E-03
59661,5.23E-03,5.06E-03
59662,5.19E-03,5.03E-03
59663,5.30E-03,5.16E-03
59664,5.24E-03,5.11E-03
59665,5.42E-03,5.28E-03
59666,5.38E-03,5.22E-03
59667,5.47E-03,5.39E-03
59668,5.49E-03,5.33E-03
59669,5.56E-03,5.50E-03
59670,5.51E-03,5.44E-03
59671,5.64E-03,5.62E-03
59672,5.61E-03,5.56E-03
59673,5.82E-03,5.74E-03
59674,5.74E-03,5.68E-03
59675,5.82E-03,5.86E-03
59676,5.85E-03,5.80E-03
59677,5.87E-03,5.99E-03
59678,5.84E-03,5.93E-03
59679,5.96E-03,6.13E-03
59680,5.93E-03,6.06E-03
59681,6.11E-03,6.27E-03
59682,6.10E-03,6.20E-03
59683,6.23E-03,6.41E-03
59684,6.18E-03,6.34E-03
59685,6.31E-03,6.58E-03
59686,6.27E-03,6.49E-03
59687,6.55E-03,6.75E-03
59688,6.42E-03,6.66E-03
59689,6.64E-03,6.91E-03
59690,6.61E-03,6.82E-03
59691,7.60E-03,7.28E-03
59692,7.04E-03,7.26E-03
59693,6.08E-03,7.31E-03
59694,7.43E-03,7.37E-03
59695,5.97E-03,7.45E-03
59696,6.14E-03,7.39E-03
59697,5.95E-03,7.60E-03
59698,5.97E-03,7.53E-03
59699,5.96E-03,7.77E-03
59700,5.97E-03,7.68E-03
59701,6.03E-03,7.93E-03
59702,6.02E-03,7.85E-03
59703,6.13E-03,8.10E-03
59704,6.10E-03,8.02E-03
59705,6.02E-03,8.27E-03
59706,6.07E-03,8.19E-03
59707,5.90E-03,8.46E-03
59708,5.98E-03,8.36E-03
59709,5.74E-03,8.66E-03
59710,5.81E-03,8.56E-03
59711,5.63E-03,8.87E-03
59712,5.72E-03,8.77E-03
59713,5.47E-03,9.09E-03
59714,5.55E-03,8.98E-03
59715,5.43E-03,9.31E-03
59716,5.46E-03,9.20E-03
59717,5.16E-03,9.56E-03
59718,5.31E-03,9.43E-03
59719,4.88E-03,9.88E-03
59720,4.98E-03,9.71E-03
59721,5.48E-03,1.03E-02
59722,5.04E-03,1.01E-02
59723,4.96E-03,1.08E-02
59724,5.72E-03,1.07E-02
59725,6.09E-03,9.61E-03
59726,5.57E-03,9.51E-03
59727,5.80E-03,9.56E-03
59728,5.60E-03,9.40E-03
59729,5.77E-03,9.43E-03
59730,5.51E-03,9.33E-03
59731,5.51E-03,9.36E-03
59732,5.42E-03,9.26E-03
59733,5.45E-03,9.29E-03
59734,5.41E-03,9.21E-03
59735,5.39E-03,9.23E-03
59736,4.96E-03,9.14E-03
59737,5.37E-03,9.18E-03
59738,5.07E-03,9.05E-03
59739,5.14E-03,9.10E-03
59740,5.20E-03,9.01E-03
59741,5.10E-03,9.03E-03
59742,5.32E-03,8.97E-03
59743,5.27E-03,8.99E-03
59744,5.35E-03,8.94E-03
59745,5.37E-03,8.95E-03
59746,5.33E-03,8.94E-03
59747,4.78E-03,8.77E-03
59748,4.54E-03,8.77E-03
59749,5.19E-03,8.78E-03
59750,5.16E-03,8.79E-03
59751,5.19E-03,8.76E-03
59752,5.25E-03,8.77E-03
59753,5.13E-03,8.75E-03
59754,5.17E-03,8.75E-03
59755,5.11E-03,8.75E-03
59756,5.09E-03,8.75E-03
59757,5.11E-03,8.76E-03
59758,5.13E-03,8.76E-03
59759,5.06E-03,8.77E-03
59760,5.00E-03,8.80E-03
59761,5.00E-03,8.79E-03
59762,4.91E-03,8.83E-03
59763,4.99E-03,8.81E-03
59764,4.91E-03,8.89E-03
59765,4.91E-03,8.86E-03
59766,4.93E-03,8.93E-03
59767,4.93E-03,8.91E-03
59768,5.03E-03,8.97E-03
59769,5.00E-03,8.95E-03
59770,5.08E-03,9.02E-03
59771,5.05E-03,9.00E-03
59772,5.07E-03,9.10E-03
59773,5.08E-03,9.06E-03
59774,5.06E-03,9.16E-03
59775,5.09E-03,9.13E-03
59776,5.06E-03,9.24E-03
59777,5.02E-03,9.20E-03
59778,5.16E-03,9.33E-03
59779,5.10E-03,9.29E-03
59780,5.22E-03,9.42E-03
59781,5.16E-03,9.38E-03
59782,5.26E-03,9.47E-03
59783,5.85E-03,1.06E-02
59784,4.44E-03,1.13E-02
59785,5.00E-03,1.20E-02
59786,4.91E-03,1.16E-02
59787,5.13E-03,1.27E-02
59788,5.01E-03,1.23E-02
59789,5.26E-03,1.35E-02
59790,5.14E-03,1.31E-02
59791,5.41E-03,1.43E-02
59792,5.35E-03,1.39E-02
59793,5.46E-03,1.47E-02
59794,5.61E-03,1.60E-02
59795,5.61E-03,1.69E-02
59796,5.61E-03,1.64E-02
59797,5.61E-03,1.78E-02
59798,5.63E-03,1.73E-02
59799,5.65E-03,1.87E-02
59800,5.66E-03,1.83E-02
59801,5.52E-03,1.97E-02
59802,5.62E-03,1.92E-02
59803,5.42E-03,2.07E-02
59804,5.52E-03,2.02E-02
59805,5.32E-03,2.17E-02
59806,5.37E-03,2.12E-02
59807,5.31E-03,2.27E-02
59808,5.30E-03,2.22E-02
59809,5.21E-03,2.37E-02
59810,5.29E-03,2.32E-02
59811,5.24E-03,2.47E-02
59812,5.23E-03,2.42E-02
59813,4.71E-03,2.61E-02
59814,6.00E-03,2.52E-02
59815,5.94E-03,2.85E-02
59816,4.72E-03,3.05E-02
59817,4.56E-03,3.02E-02
59818,4.86E-03,3.08E-02
59819,4.80E-03,3.07E-02
59820,4.79E-03,3.11E-02
59821,4.84E-03,3.10E-02
59822,4.78E-03,3.14E-02
59823,4.75E-03,3.13E-02
59824,4.87E-03,3.15E-02
59825,4.84E-03,3.15E-02
59826,4.97E-03,3.16E-02
59827,4.93E-03,3.15E-02
59828,4.93E-03,3.15E-02
59829,4.98E-03,3.15E-02
59830,4.86E-03,3.15E-02
59831,4.87E-03,3.15E-02
59832,4.90E-03,3.13E-02
59833,4.85E-03,3.14E-02
59834,4.87E-03,3.12E-02
59835,4.88E-03,3.13E-02
59836,4.87E-03,3.10E-02
59837,4.86E-03,3.11E-02
59838,4.94E-03,3.07E-02
59839,4.86E-03,3.08E-02
59840,5.07E-03,3.06E-02
59841,6.02E-03,3.04E-02
59842,4.99E-03,2.99E-02
59843,5.04E-03,3.01E-02
59844,4.89E-03,2.95E-02
59845,4.93E-03,2.97E-02
59846,4.63E-03,2.93E-02
59847,5.42E-03,2.79E-02
59848,5.25E-03,2.82E-02
59849,5.51E-03,2.76E-02
59850,5.68E-03,2.65E-02
59851,5.79E-03,2.68E-02
59852,5.51E-03,2.62E-02
59853,5.27E-03,2.48E-02
59854,5.29E-03,2.42E-02
59855,5.28E-03,2.45E-02
59856,5.27E-03,2.37E-02
59857,5.23E-03,2.40E-02
59858,5.30E-03,2.31E-02
59859,5.29E-03,2.34E-02
59860,5.38E-03,2.26E-02
59861,5.36E-03,2.28E-02
59862,5.37E-03,2.20E-02
59863,5.36E-03,2.23E-02
59864,5.44E-03,2.14E-02
59865,5.41E-03,2.17E-02
59866,5.44E-03,2.08E-02
59867,5.44E-03,2.11E-02
59868,5.35E-03,2.05E-02
59869,5.25E-03,1.91E-02
59870,4.74E-03,1.93E-02
59871,5.09E-03,1.85E-02
59872,5.15E-03,1.88E-02
59873,5.15E-03,1.80E-02
59874,5.11E-03,1.82E-02
59875,5.21E-03,1.74E-02
59876,5.21E-03,1.77E-02
59877,5.12E-03,1.72E-02
59878,4.59E-03,1.62E-02
59879,4.94E-03,1.58E-02
59880,4.67E-03,1.60E-02
59881,5.12E-03,1.53E-02
59882,5.03E-03,1.55E-02
59883,5.16E-03,1.50E-02
59884,4.95E-03,1.38E-02
59885,5.01E-03,1.40E-02
59886,4.96E-03,1.33E-02
59887,4.96E-03,1.36E-02
59888,4.83E-03,1.28E-02
59889,4.90E-03,1.31E-02
59890,4.69E-03,1.26E-02
59891,5.27E-03,1.17E-02
59892,6.00E-03,1.20E-02
59893,4.96E-03,1.12E-02
59894,5.04E-03,1.14E-02
59895,4.83E-03,1.08E-02
59896,4.86E-03,1.10E-02
59897,4.93E-03,1.05E-02
59898,4.85E-03,1.06E-02
59899,5.00E-03,1.01E-02
59900,4.93E-03,1.03E-02
59901,5.02E-03,9.79E-03
59902,4.98E-03,9.96E-03
59903,5.05E-03,9.44E-03
59904,5.02E-03,9.61E-03
59905,5.09E-03,9.12E-03
59906,5.06E-03,9.28E-03
59907,5.19E-03,8.84E-03
59908,5.16E-03,8.98E-03
59909,5.33E-03,8.57E-03
59910,5.24E-03,8.71E-03
59911,5.38E-03,8.29E-03
59912,5.35E-03,8.43E-03
59913,5.37E-03,8.00E-03
59914,5.38E-03,8.15E-03
59915,5.33E-03,7.74E-03
59916,5.33E-03,7.87E-03
59917,5.36E-03,7.49E-03
59918,5.34E-03,7.62E-03
59919,5.42E-03,7.23E-03
59920,5.44E-03,7.36E-03
59921,5.45E-03,7.01E-03
59922,5.44E-03,7.12E-03
59923,5.39E-03,6.81E-03
59924,5.41E-03,6.91E-03
59925,5.41E-03,6.60E-03
59926,5.40E-03,6.71E-03
59927,5.33E-03,6.39E-03
59928,5.37E-03,6.49E-03
59929,5.24E-03,6.22E-03
59930,5.31E-03,6.30E-03
59931,5.36E-03,6.06E-03
59932,5.30E-03,6.14E-03
59933,5.47E-03,5.90E-03
59934,5.38E-03,5.98E-03
59935,5.41E-03,5.75E-03
59936,5.44E-03,5.82E-03
59937,5.35E-03,5.62E-03
59938,5.39E-03,5.68E-03
59939,5.33E-03,5.48E-03
59940,5.33E-03,5.55E-03
59941,5.31E-03,5.34E-03
59942,5.33E-03,5.41E-03
59943,5.23E-03,5.21E-03
59944,5.22E-03,5.27E-03
59945,5.26E-03,5.12E-03
59946,5.22E-03,5.16E-03
59947,5.46E-03,1.21E-02
59948,5.49E-03,1.24E-02
59949,5.58E-03,1.16E-02
59950,5.62E-03,1.19E-02
59951,5.56E-03,1.14E-02
59952,5.18E-03,9.48E-03
59953,4.68E-03,9.72E-03
59954,5.52E-03,8.94E-03
59955,5.48E-03,9.22E-03
59956,5.62E-03,8.38E-03
59957,5.59E-03,8.66E-03
59958,5.58E-03,8.09E-03
59959,4.60E-03,6.98E-03
59960,4.90E-03,5.56E-03
59961,4.78E-03,5.85E-03
59962,4.98E-03,5.28E-03
59963,5.13E-03,2.05E-02
59964,5.56E-03,1.73E-02
59965,4.91E-03,9.33E-03
59966,4.10E-03,1.09E-02
59967,2.87E-03,1.11E-02
59968,3.56E-03,2.91E-02
59969,3.19E-03,1.11E-02
59970,5.22E-03,9.20E-03
59971,5.11E-03,9.26E-03
59972,7.22E-03,1.40E-02
59973,6.52E-03,1.43E-02
59974,5.26E-03,1.35E-02
59975,5.01E-03,1.64E-02
59976,5.30E-03,5.08E-03
59977,4.13E-03,1.34E-02
59978,4.75E-03,1.31E-02
59979,5.83E-03,1.82E-02
59980,5.85E-03,1.81E-02
59981,5.29E-03,1.80E-02
59982,5.39E-03,1.81E-02
59983,4.57E-03,1.16E-02
59984,4.78E-03,1.10E-02
59985,5.10E-03,1.42E-02
59986,4.79E-03,1.40E-02
59987,4.78E-03,1.27E-02
59988,4.97E-03,1.31E-02
59989,5.18E-03,1.09E-02
59990,6.67E-03,8.52E-03
59991,5.75E-03,8.39E-03
59992,5.28E-03,9.92E-03
59993,5.26E-03,1.90E-02
59994,5.31E-03,1.93E-02
59995,4.73E-03,1.64E-02
59996,4.92E-03,1.66E-02
59997,5.21E-03,1.92E-02
59998,5.28E-03,1.87E-02
59999,5.11E-03,1.63E-02
60000,6.11E-03,1.63E-02
60001,6.92E-03,2.82E-02
60002,6.63E-03,2.81E-02
60003,6.21E-03,2.51E-02
60004,6.07E-03,2.48E-02
60005,6.30E-03,2.49E-02
60006,6.49E-03,2.52E-02
60007,5.49E-03,2.45E-02
60008,6.11E-03,2.43E-02
60009,5.20E-03,8.74E-03
60010,5.09E-03,8.54E-03
60011,5.34E-03,9.14E-03
60012,4.56E-03,9.39E-03
60013,5.64E-03,1.58E-02
60014,7.59E-03,2.98E-02
60015,6.47E-03,2.93E-02
60016,5.77E-03,3.07E-02
60017,3.54E-03,2.93E-02
60018,6.43E-03,2.74E-02
60019,5.29E-03,1.68E-02
60020,5.09E-03,1.41E-02
60021,5.24E-03,1.26E-02
60022,4.86E-03,9.99E-03
60023,5.96E-03,7.79E-03
60024,4.35E-03,7.24E-03
60025,5.03E-03,6.67E-03
60026,4.72E-03,6.10E-03
60027,5.49E-03,1.50E-02
60028,5.24E-03,2.03E-02
60029,5.27E-03,2.03E-02
60030,3.63E-03,1.46E-02
60031,4.55E-03,1.47E-02
60032,6.30E-03,1.71E-02
60033,4.84E-03,1.62E-02
60034,4.91E-03,1.59E-02
60035,4.29E-03,1.24E-02
60036,4.19E-03,1.38E-02
60037,6.28E-03,9.66E-03
60038,5.70E-03,9.94E-03
60039,3.53E-03,1.35E-02
60040,5.76E-03,1.81E-02
60041,5.85E-03,1.79E-02
60042,5.20E-03,1.79E-02
60043,5.55E-03,1.81E-02
60044,3.69E-03,1.19E-02
60045,4.83E-03,1.40E-02
60046,5.13E-03,1.36E-02
60047,4.24E-03,1.24E-02
60048,5.25E-03,1.32E-02
60049,5.16E-03,1.12E-02
60050,6.38E-03,8.94E-03
60051,5.55E-03,8.59E-03
60052,5.29E-03,9.73E-03
60053,5.11E-03,1.87E-02
60054,5.25E-03,1.95E-02
60055,4.63E-03,1.64E-02
60056,4.86E-03,1.69E-02
60057,5.05E-03,1.94E-02
60058,5.18E-03,1.84E-02
60059,4.99E-03,1.67E-02
60060,6.98E-03,2.79E-02
60061,6.74E-03,2.78E-02
60062,6.31E-03,2.55E-02
60063,6.33E-03,2.49E-02
60064,6.65E-03,2.55E-02
60065,6.59E-03,2.48E-02
60066,6.46E-03,2.47E-02
60067,6.25E-03,2.44E-02
60068,4.35E-03,1.09E-02
60069,4.61E-03,1.13E-02
60070,4.74E-03,2.92E-02
60071,5.17E-03,2.01E-02
60072,5.39E-03,1.64E-02
60073,5.61E-03,1.53E-02
60074,5.21E-03,2.01E-02
60075,5.27E-03,2.01E-02
60076,4.85E-03,1.70E-02
60077,6.48E-03,2.59E-02
60078,7.18E-03,2.72E-02
60079,5.15E-03,1.44E-02
60080,6.56E-03,1.37E-02
60081,5.63E-03,1.81E-02
60082,5.89E-03,1.78E-02
60083,5.18E-03,1.78E-02
60084,5.52E-03,1.81E-02
60085,3.66E-03,1.21E-02
60086,5.06E-03,1.07E-02
60087,4.62E-03,1.39E-02
60088,4.97E-03,1.33E-02
60089,5.37E-03,1.33E-02
60090,5.43E-03,1.15E-02
60091,6.20E-03,9.35E-03
60092,5.48E-03,8.80E-03
60093,5.30E-03,9.51E-03
60094,4.92E-03,1.85E-02
60095,5.18E-03,1.96E-02
60096,4.38E-03,1.64E-02
60097,4.75E-03,1.72E-02
60098,5.05E-03,1.81E-02
60099,7.07E-03,2.76E-02
60100,6.87E-03,2.74E-02
60101,6.39E-03,2.48E-02
60102,6.81E-03,2.59E-02
60103,6.36E-03,2.45E-02
60104,5.93E-03,2.82E-02
60105,5.89E-03,2.79E-02
60106,4.16E-03,1.30E-02
60107,4.48E-03,1.28E-02
60108,3.93E-03,1.42E-02
60109,5.09E-03,1.99E-02
60110,5.02E-03,1.99E-02
60111,5.64E-03,1.69E-02
60112,5.17E-03,1.52E-02
60113,5.09E-03,1.32E-02
60114,5.21E-03,1.56E-02
60115,5.58E-03,1.81E-02
60116,5.96E-03,1.76E-02
60117,5.50E-03,1.81E-02
60118,3.31E-03,1.04E-02
60119,4.69E-03,1.30E-02
60120,3.93E-03,1.19E-02
60121,5.66E-03,1.34E-02
60122,5.50E-03,9.03E-03
60123,5.41E-03,9.27E-03
60124,4.76E-03,1.82E-02
60125,5.11E-03,1.97E-02
60126,4.68E-03,1.75E-02
60127,4.95E-03,1.78E-02
60128,5.39E-03,1.64E-02
60129,4.78E-03,1.64E-02
60130,6.77E-03,2.70E-02
60131,6.34E-03,2.47E-02
60132,6.90E-03,2.62E-02
60133,6.39E-03,2.46E-02
60134,5.52E-03,1.81E-02
60135,5.93E-03,1.74E-02
60136,5.51E-03,1.81E-02
60137,4.41E-03,1.64E-02
60138,4.30E-03,1.65E-02
60139,5.46E-03,1.58E-02
60140,3.59E-03,1.01E-02
60141,4.59E-03,1.27E-02
60142,6.00E-03,1.35E-02
60143,3.29E-03,9.65E-03
60144,2.82E-03,9.80E-03
60145,4.68E-03,1.80E-02
60146,4.84E-03,1.98E-02
60147,4.82E-03,1.96E-02
60148,4.64E-03,1.78E-02
60149,4.87E-03,1.75E-02
60150,6.69E-03,2.65E-02
60151,6.96E-03,2.66E-02
60152,5.43E-03,1.67E-02
60153,5.93E-03,1.72E-02
60154,4.88E-03,1.95E-02
60155,5.28E-03,1.61E-02
60156,5.32E-03,1.63E-02
60157,5.35E-03,1.65E-02
60158,5.64E-03,1.67E-02
60159,5.71E-03,1.69E-02
60160,5.37E-03,1.55E-02
60161,4.92E-03,1.39E-02
60162,4.13E-03,1.12E-02
60163,3.13E-03,1.09E-02
60164,5.05E-03,1.36E-02
60165,4.78E-03,1.65E-02
60166,5.31E-03,5.04E-03
60167,5.32E-03,5.60E-03
60168,5.27E-03,5.32E-03
60169,5.34E-03,6.18E-03
60170,5.34E-03,5.89E-03
60171,5.49E-03,6.76E-03
60172,5.43E-03,6.47E-03
60173,5.61E-03,7.34E-03
60174,5.52E-03,7.05E-03
60175,5.62E-03,7.93E-03
60176,5.65E-03,7.64E-03
60177,5.53E-03,8.49E-03
60178,5.62E-03,8.21E-03
60179,5.62E-03,9.06E-03
60180,5.52E-03,8.78E-03
60181,5.72E-03,9.35E-03
60182,5.76E-03,1.06E-02
60183,3.68E-03,1.04E-02
60184,5.94E-03,1.12E-02
60185,6.61E-03,1.09E-02
60186,5.45E-03,1.17E-02
60187,5.57E-03,1.14E-02
60188,6.16E-03,1.22E-02
60189,6.07E-03,1.20E-02
60190,5.35E-03,1.27E-02
60191,5.69E-03,1.25E-02
60192,5.15E-03,1.29E-02
60193,5.86E-03,1.81E-02
60194,5.35E-03,1.80E-02
60195,4.93E-03,1.76E-02
60196,5.03E-03,1.75E-02
60197,4.70E-03,1.13E-02
60198,4.94E-03,1.41E-02
60199,4.90E-03,1.29E-02
60200,5.29E-03,1.04E-02
60201,5.27E-03,1.07E-02
60202,6.21E-03,8.45E-03
60203,5.33E-03,1.02E-02
60204,5.32E-03,1.91E-02
60205,4.85E-03,1.65E-02
60206,5.30E-03,1.90E-02
60207,5.26E-03,1.63E-02
60208,6.83E-03,2.82E-02
60209,6.06E-03,2.49E-02
60210,6.38E-03,2.51E-02
60211,5.91E-03,2.44E-02
60212,4.96E-03,1.15E-02
60213,4.57E-03,1.14E-02
60214,5.96E-03,1.15E-02
60215,5.57E-03,1.15E-02
60216,5.82E-03,1.17E-02
60217,6.00E-03,1.16E-02
60218,5.43E-03,1.19E-02
60219,5.54E-03,1.18E-02
60220,5.37E-03,1.20E-02
60221,5.42E-03,1.19E-02
60222,5.42E-03,1.22E-02
60223,5.38E-03,1.21E-02
60224,5.63E-03,1.23E-02
60225,5.51E-03,1.22E-02
60226,5.68E-03,1.25E-02
60227,5.68E-03,1.24E-02
60228,5.68E-03,1.27E-02
60229,5.70E-03,1.26E-02
60230,5.72E-03,1.29E-02
60231,5.63E-03,1.28E-02
60232,5.71E-03,1.31E-02
60233,5.73E-03,1.30E-02
60234,5.69E-03,1.34E-02
60235,5.72E-03,1.33E-02
60236,5.60E-03,1.36E-02
60237,5.64E-03,1.35E-02
60238,5.62E-03,1.38E-02
60239,5.64E-03,1.37E-02
60240,5.60E-03,1.40E-02
60241,5.60E-03,1.39E-02
60242,5.65E-03,1.42E-02
60243,5.65E-03,1.41E-02
60244,5.67E-03,1.45E-02
60245,5.58E-03,1.43E-02
60246,5.77E-03,1.47E-02
60247,5.69E-03,1.46E-02
60248,5.70E-03,1.49E-02
60249,5.78E-03,1.48E-02
60250,5.53E-03,1.51E-02
60251,5.64E-03,1.50E-02
60252,5.53E-03,1.54E-02
60253,5.52E-03,1.53E-02
60254,5.49E-03,1.56E-02
60255,5.53E-03,1.55E-02
60256,5.51E-03,1.58E-02
60257,5.52E-03,1.57E-02
60258,5.67E-03,1.60E-02
60259,5.55E-03,1.59E-02
60260,5.72E-03,1.62E-02
60261,5.70E-03,1.61E-02
60262,5.60E-03,1.64E-02
60263,5.67E-03,1.63E-02
60264,5.51E-03,1.66E-02
60265,5.51E-03,1.65E-02
60266,5.42E-03,1.68E-02
60267,5.48E-03,1.67E-02
60268,5.55E-03,1.70E-02
60269,5.46E-03,1.69E-02
60270,5.59E-03,1.72E-02
60271,5.57E-03,1.71E-02
60272,5.62E-03,1.74E-02
60273,5.60E-03,1.73E-02
60274,5.69E-03,1.76E-02
60275,5.67E-03,1.75E-02
60276,5.62E-03,1.77E-02
60277,5.64E-03,1.76E-02
60278,5.63E-03,1.79E-02
60279,5.59E-03,1.78E-02
60280,5.62E-03,1.81E-02
60281,5.65E-03,1.80E-02
60282,5.54E-03,1.82E-02
60283,5.61E-03,1.81E-02
60284,5.46E-03,1.84E-02
60285,5.50E-03,1.83E-02
60286,5.54E-03,1.85E-02
60287,5.49E-03,1.84E-02
60288,5.64E-03,1.86E-02
60289,5.56E-03,1.86E-02
60290,5.73E-03,1.87E-02
60291,5.73E-03,1.87E-02
60292,5.63E-03,1.89E-02
60293,5.71E-03,1.88E-02
60294,5.60E-03,1.90E-02
60295,5.59E-03,1.89E-02
60296,5.61E-03,1.91E-02
60297,5.56E-03,1.90E-02
60298,5.65E-03,1.92E-02
60299,5.64E-03,1.91E-02
60300,5.71E-03,1.92E-02
60301,5.69E-03,1.92E-02
60302,5.61E-03,1.93E-02
60303,5.65E-03,1.93E-02
60304,5.57E-03,1.93E-02
60305,5.57E-03,1.93E-02
60306,5.42E-03,1.94E-02
60307,5.49E-03,1.94E-02
60308,5.43E-03,1.94E-02
60309,5.37E-03,1.94E-02
60310,5.52E-03,1.95E-02
60311,5.50E-03,1.94E-02
60312,5.53E-03,1.95E-02
60313,5.52E-03,1.95E-02
60314,5.60E-03,1.95E-02
60315,5.56E-03,1.95E-02
60316,5.53E-03,1.95E-02
60317,5.61E-03,1.95E-02
60318,5.49E-03,1.94E-02
60319,5.53E-03,1.94E-02
60320,5.47E-03,1.94E-02
60321,5.47E-03,1.94E-02
60322,5.63E-03,1.94E-02
60323,5.55E-03,1.94E-02
60324,5.67E-03,1.93E-02
60325,5.64E-03,1.93E-02
60326,5.62E-03,1.92E-02
60327,5.63E-03,1.93E-02
60328,5.59E-03,1.91E-02
60329,5.54E-03,1.92E-02
60330,5.68E-03,1.90E-02
60331,5.67E-03,1.91E-02
60332,5.78E-03,1.89E-02
60333,5.71E-03,1.90E-02
60334,5.79E-03,1.88E-02
60335,5.82E-03,1.89E-02
60336,5.69E-03,1.87E-02
60337,5.76E-03,1.87E-02
60338,5.65E-03,1.85E-02
60339,5.66E-03,1.86E-02
60340,5.70E-03,1.84E-02
60341,5.69E-03,1.85E-02
60342,5.65E-03,1.82E-02
60343,5.69E-03,1.83E-02
60344,5.54E-03,1.80E-02
60345,5.60E-03,1.81E-02
60346,5.45E-03,1.78E-02
60347,5.53E-03,1.79E-02
60348,5.39E-03,1.76E-02
60349,5.44E-03,1.77E-02
60350,5.49E-03,1.73E-02
60351,5.47E-03,1.75E-02
60352,5.54E-03,1.71E-02
60353,5.51E-03,1.72E-02
60354,5.63E-03,1.69E-02
60355,5.59E-03,1.70E-02
60356,5.59E-03,1.66E-02
60357,5.59E-03,1.67E-02
60358,5.57E-03,1.63E-02
60359,5.58E-03,1.65E-02
60360,5.58E-03,1.61E-02
60361,5.53E-03,1.62E-02
60362,5.60E-03,1.58E-02
60363,5.62E-03,1.59E-02
60364,5.76E-03,1.55E-02
60365,5.69E-03,1.56E-02
60366,5.74E-03,1.52E-02
60367,5.80E-03,1.53E-02
60368,5.65E-03,1.49E-02
60369,5.66E-03,1.50E-02
60370,5.67E-03,1.46E-02
60371,5.66E-03,1.47E-02
60372,5.69E-03,1.43E-02
60373,5.64E-03,1.45E-02
60374,5.65E-03,1.40E-02
60375,5.63E-03,1.42E-02
60376,5.62E-03,1.37E-02
60377,5.62E-03,1.38E-02
60378,5.61E-03,1.34E-02
60379,5.61E-03,1.35E-02
60380,5.69E-03,1.31E-02
60381,5.63E-03,1.32E-02
60382,5.66E-03,1.28E-02
60383,5.70E-03,1.29E-02
60384,5.59E-03,1.25E-02
60385,5.69E-03,1.26E-02
60386,5.57E-03,1.22E-02
60387,5.61E-03,1.23E-02
60388,5.62E-03,1.19E-02
60389,5.53E-03,1.20E-02
60390,5.81E-03,1.16E-02
60391,5.71E-03,1.17E-02
60392,5.98E-03,1.13E-02
60393,5.86E-03,1.14E-02
60394,6.33E-03,1.09E-02
60395,6.14E-03,1.11E-02
60396,6.53E-03,1.08E-02
60397,5.90E-03,1.04E-02
60398,6.36E-03,1.05E-02
60399,6.08E-03,1.01E-02
60400,6.01E-03,1.02E-02
60401,7.31E-03,9.80E-03
60402,6.36E-03,9.96E-03
60403,4.95E-03,4.30E-03
60404,4.92E-03,4.29E-03
60405,5.04E-03,4.33E-03
60406,4.97E-03,4.31E-03
60407,5.18E-03,4.37E-03
60408,5.12E-03,4.35E-03
60409,5.35E-03,4.40E-03
60410,5.27E-03,4.39E-03
60411,5.35E-03,4.44E-03
60412,5.37E-03,4.42E-03
60413,5.32E-03,4.47E-03
60414,5.35E-03,4.46E-03
60415,5.32E-03,4.50E-03
60416,5.28E-03,4.48E-03
60417,5.28E-03,4.56E-03
60418,5.31E-03,4.52E-03
60419,5.35E-03,4.64E-03
60420,5.32E-03,4.60E-03
60421,5.32E-03,4.70E-03
60422,5.30E-03,4.67E-03
60423,5.31E-03,4.78E-03
60424,5.30E-03,4.73E-03
60425,5.33E-03,4.87E-03
60426,5.26E-03,4.82E-03
60427,5.47E-03,4.98E-03
60428,5.40E-03,4.92E-03
60429,5.51E-03,5.09E-03
60430,5.45E-03,5.04E-03
60431,5.54E-03,5.20E-03
60432,5.56E-03,5.14E-03
60433,5.64E-03,5.32E-03
60434,5.59E-03,5.26E-03
60435,5.78E-03,5.44E-03
60436,5.69E-03,5.39E-03
60437,5.84E-03,5.57E-03
60438,5.83E-03,5.50E-03
60439,5.81E-03,5.70E-03
60440,5.79E-03,5.63E-03
60441,5.91E-03,5.83E-03
60442,5.86E-03,5.76E-03
60443,6.08E-03,5.97E-03
60444,6.03E-03,5.90E-03
60445,6.16E-03,6.11E-03
60446,6.09E-03,6.04E-03
60447,6.22E-03,6.27E-03
60448,6.18E-03,6.19E-03
60449,6.40E-03,6.43E-03
60450,6.33E-03,6.35E-03
60451,6.51E-03,6.60E-03
60452,6.51E-03,6.51E-03
60453,6.63E-03,6.80E-03
60454,6.55E-03,6.70E-03
60455,6.93E-03,6.94E-03
60456,6.77E-03,6.88E-03
60457,6.24E-03,7.01E-03
60458,6.59E-03,7.00E-03
60459,6.09E-03,7.14E-03
60460,6.14E-03,7.07E-03
60461,5.95E-03,7.28E-03
60462,6.01E-03,7.21E-03
60463,5.85E-03,7.44E-03
60464,5.88E-03,7.36E-03
60465,5.95E-03,7.61E-03
60466,5.94E-03,7.53E-03
60467,6.05E-03,7.77E-03
60468,6.03E-03,7.69E-03
60469,5.93E-03,7.94E-03
60470,5.97E-03,7.85E-03
60471,5.82E-03,8.13E-03
60472,5.84E-03,8.03E-03
60473,5.73E-03,8.33E-03
60474,5.76E-03,8.23E-03
60475,5.55E-03,8.55E-03
60476,5.68E-03,8.44E-03
60477,5.47E-03,8.76E-03
60478,5.51E-03,8.66E-03
60479,5.44E-03,8.98E-03
60480,5.43E-03,8.87E-03
60481,5.27E-03,9.26E-03
60482,5.33E-03,9.11E-03
60483,5.18E-03,9.57E-03
60484,5.18E-03,9.41E-03
60485,5.68E-03,9.93E-03
60486,5.31E-03,9.75E-03
60487,6.09E-03,1.02E-02
60488,6.07E-03,1.01E-02
60489,5.28E-03,1.05E-02
60490,5.81E-03,1.04E-02
60491,5.35E-03,1.07E-02
60492,5.05E-03,9.45E-03
60493,5.69E-03,9.40E-03
60494,5.69E-03,9.46E-03
60495,5.54E-03,9.36E-03
60496,5.42E-03,9.23E-03
60497,5.34E-03,9.27E-03
60498,5.48E-03,9.16E-03
60499,5.49E-03,9.20E-03
60500,5.36E-03,9.09E-03
60501,5.44E-03,9.13E-03
60502,5.28E-03,9.03E-03
60503,5.26E-03,9.06E-03
60504,5.26E-03,8.96E-03
60505,5.24E-03,9.00E-03
60506,5.17E-03,8.89E-03
60507,5.18E-03,8.93E-03
60508,5.23E-03,8.84E-03
60509,5.19E-03,8.86E-03
60510,5.30E-03,8.78E-03
60511,5.31E-03,8.81E-03
60512,5.44E-03,8.74E-03
60513,5.39E-03,8.76E-03
60514,5.42E-03,8.73E-03
60515,3.45E-03,8.57E-03
60516,4.80E-03,8.57E-03
60517,4.43E-03,8.58E-03
60518,5.18E-03,8.57E-03
60519,5.04E-03,8.57E-03
60520,5.23E-03,8.54E-03
60521,5.25E-03,8.56E-03
60522,5.16E-03,8.53E-03
60523,5.19E-03,8.53E-03
60524,5.16E-03,8.53E-03
60525,5.12E-03,8.53E-03
60526,5.19E-03,8.53E-03
60527,5.19E-03,8.53E-03
60528,5.15E-03,8.53E-03
60529,5.04E-03,8.54E-03
60530,5.07E-03,8.54E-03
60531,4.97E-03,8.57E-03
60532,4.98E-03,8.55E-03
60533,4.98E-03,8.61E-03
60534,4.96E-03,8.59E-03
60535,5.02E-03,8.65E-03
60536,4.97E-03,8.63E-03
60537,5.08E-03,8.68E-03
60538,5.03E-03,8.66E-03
60539,5.09E-03,8.72E-03
60540,5.09E-03,8.70E-03
60541,5.05E-03,8.78E-03
60542,5.07E-03,8.74E-03
60543,5.09E-03,8.84E-03
60544,5.11E-03,8.81E-03
60545,5.12E-03,8.91E-03
60546,5.10E-03,8.87E-03
60547,5.15E-03,8.98E-03
60548,5.15E-03,8.94E-03
60549,5.29E-03,9.06E-03
60550,5.24E-03,9.02E-03
60551,5.32E-03,9.09E-03
60552,5.94E-03,9.95E-03
60553,5.78E-03,9.84E-03
60554,5.42E-03,1.02E-02
60555,4.89E-03,1.17E-02
60556,4.66E-03,1.14E-02
60557,5.10E-03,1.24E-02
60558,4.95E-03,1.21E-02
60559,5.25E-03,1.32E-02
60560,5.18E-03,1.28E-02
60561,5.43E-03,1.40E-02
60562,5.37E-03,1.36E-02
60563,5.50E-03,1.44E-02
60564,5.58E-03,1.67E-02
60565,5.62E-03,1.62E-02
60566,5.59E-03,1.76E-02
60567,5.61E-03,1.71E-02
60568,5.59E-03,1.86E-02
60569,5.60E-03,1.81E-02
60570,5.53E-03,1.96E-02
60571,5.58E-03,1.90E-02
60572,5.41E-03,2.06E-02
60573,5.48E-03,2.01E-02
60574,5.36E-03,2.16E-02
60575,5.39E-03,2.11E-02
60576,5.31E-03,2.27E-02
60577,5.37E-03,2.21E-02
60578,5.20E-03,2.37E-02
60579,5.28E-03,2.32E-02
60580,5.48E-03,2.48E-02
60581,5.27E-03,2.43E-02
60582,5.91E-03,2.53E-02
60583,6.32E-03,2.88E-02
60584,4.91E-03,3.09E-02
60585,4.75E-03,3.07E-02
60586,4.95E-03,3.12E-02
60587,4.94E-03,3.11E-02
60588,4.88E-03,3.15E-02
60589,4.90E-03,3.14E-02
60590,4.89E-03,3.17E-02
60591,4.85E-03,3.16E-02
60592,4.97E-03,3.19E-02
60593,4.94E-03,3.18E-02
60594,5.01E-03,3.19E-02
60595,4.99E-03,3.19E-02
60596,4.99E-03,3.19E-02
60597,5.01E-03,3.19E-02
60598,4.91E-03,3.18E-02
60599,4.98E-03,3.18E-02
60600,4.88E-03,3.16E-02
60601,4.88E-03,3.17E-02
60602,4.85E-03,3.15E-02
60603,4.86E-03,3.16E-02
60604,4.87E-03,3.12E-02
60605,4.86E-03,3.13E-02
60606,4.97E-03,3.10E-02
60607,4.89E-03,3.11E-02
60608,5.21E-03,3.08E-02
60609,4.34E-03,3.06E-02
60610,4.74E-03,3.01E-02
60611,4.54E-03,3.03E-02
60612,4.79E-03,2.97E-02
60613,4.85E-03,2.99E-02
60614,4.47E-03,2.95E-02
60615,4.83E-03,2.85E-02
60616,5.33E-03,2.80E-02
60617,5.12E-03,2.83E-02
60618,5.91E-03,2.77E-02
60619,5.56E-03,2.65E-02
60620,5.43E-03,2.68E-02
60621,5.48E-03,2.59E-02
60622,5.52E-03,2.62E-02
60623,5.36E-03,2.54E-02
60624,5.44E-03,2.57E-02
60625,5.29E-03,2.48E-02
60626,5.35E-03,2.51E-02
60627,5.30E-03,2.42E-02
60628,5.29E-03,2.45E-02
60629,5.27E-03,2.36E-02
60630,5.26E-03,2.39E-02
60631,5.34E-03,2.31E-02
60632,5.31E-03,2.34E-02
60633,5.39E-03,2.25E-02
60634,5.37E-03,2.28E-02
60635,5.40E-03,2.19E-02
60636,5.40E-03,2.22E-02
60637,5.48E-03,2.13E-02
60638,5.46E-03,2.16E-02
60639,5.56E-03,2.07E-02
60640,5.50E-03,2.10E-02
60641,5.41E-03,2.04E-02
60642,4.29E-03,1.95E-02
60643,4.93E-03,1.89E-02
60644,4.72E-03,1.92E-02
60645,5.10E-03,1.84E-02
60646,5.05E-03,1.87E-02
60647,5.19E-03,1.78E-02
60648,5.13E-03,1.81E-02
60649,5.29E-03,1.73E-02
60650,5.22E-03,1.75E-02
60651,5.37E-03,1.70E-02
60652,3.58E-03,1.60E-02
60653,4.81E-03,1.56E-02
60654,4.45E-03,1.58E-02
60655,5.11E-03,1.51E-02
60656,4.99E-03,1.54E-02
60657,5.10E-03,1.49E-02
60658,5.08E-03,1.36E-02
60659,5.09E-03,1.38E-02
60660,4.95E-03,1.31E-02
60661,5.00E-03,1.33E-02
60662,4.79E-03,1.26E-02
60663,4.86E-03,1.29E-02
60664,4.79E-03,1.22E-02
60665,4.62E-03,1.24E-02
60666,5.36E-03,1.14E-02
60667,5.92E-03,1.17E-02
60668,5.08E-03,1.10E-02
60669,5.20E-03,1.12E-02
60670,4.95E-03,1.06E-02
60671,4.97E-03,1.08E-02
60672,5.00E-03,1.02E-02
60673,4.90E-03,1.04E-02
60674,5.07E-03,9.86E-03
60675,5.01E-03,1.00E-02
60676,5.07E-03,9.52E-03
60677,5.04E-03,9.69E-03
60678,5.09E-03,9.17E-03
60679,5.06E-03,9.35E-03
60680,5.15E-03,8.85E-03
60681,5.13E-03,9.01E-03
60682,5.23E-03,8.57E-03
60683,5.16E-03,8.71E-03
60684,5.36E-03,8.29E-03
60685,5.27E-03,8.43E-03
60686,5.40E-03,8.01E-03
60687,5.38E-03,8.15E-03
60688,5.39E-03,7.72E-03
60689,5.39E-03,7.86E-03
60690,5.39E-03,7.45E-03
60691,5.35E-03,7.58E-03
60692,5.40E-03,7.20E-03
60693,5.43E-03,7.33E-03
60694,5.44E-03,6.95E-03
60695,5.45E-03,7.07E-03
60696,5.47E-03,6.72E-03
60697,5.45E-03,6.83E-03
60698,5.43E-03,6.52E-03
60699,5.44E-03,6.62E-03
60700,5.47E-03,6.31E-03
60701,5.44E-03,6.42E-03
60702,5.42E-03,6.10E-03
60703,5.43E-03,6.20E-03
60704,5.32E-03,5.93E-03
60705,5.34E-03,6.01E-03
60706,5.35E-03,5.76E-03
60707,5.34E-03,5.84E-03
60708,5.49E-03,5.60E-03
60709,5.39E-03,5.68E-03
60710,5.43E-03,5.45E-03
60711,5.44E-03,5.53E-03
60712,5.44E-03,5.32E-03
60713,5.41E-03,5.39E-03
60714,5.34E-03,5.19E-03
60715,5.38E-03,5.26E-03
60716,5.32E-03,5.05E-03
60717,5.31E-03,5.12E-03
60718,5.27E-03,4.93E-03
60719,5.25E-03,4.99E-03
60720,5.32E-03,4.83E-03
60721,5.26E-03,4.87E-03
60722,5.32E-03,4.75E-03
60723,5.30E-03,4.79E-03
60724,5.67E-03,1.21E-02
60725,5.50E-03,1.24E-02
60726,5.64E-03,1.16E-02
60727,5.60E-03,1.19E-02
60728,5.67E-03,1.11E-02
60729,5.68E-03,1.13E-02
60730,5.20E-03,9.47E-03
60731,5.05E-03,9.72E-03
60732,5.53E-03,8.94E-03
60733,5.42E-03,9.21E-03
60734,5.66E-03,8.38E-03
60735,5.58E-03,8.66E-03
60736,5.76E-03,8.09E-03
60737,5.44E-03,6.94E-03
60738,5.00E-03,5.54E-03
60739,4.88E-03,5.82E-03
60740,5.31E-03,4.97E-03
60741,5.12E-03,5.26E-03
60742,5.58E-03,4.36E-03
60743,5.74E-03,4.66E-03
60744,5.32E-03,2.03E-02
60745,4.89E-03,1.49E-02
60746,4.83E-03,1.48E-02
60747,5.06E-03,1.74E-02
60748,6.02E-03,1.72E-02
60749,4.86E-03,1.63E-02
60750,4.84E-03,1.60E-02
60751,4.32E-03,1.24E-02
60752,4.51E-03,1.35E-02
60753,4.64E-03,1.31E-02
60754,5.74E-03,1.81E-02
60755,5.83E-03,1.80E-02
60756,5.24E-03,1.79E-02
60757,5.41E-03,1.80E-02
60758,4.39E-03,1.16E-02
60759,4.97E-03,1.39E-02
60760,5.06E-03,1.37E-02
60761,4.54E-03,1.26E-02
60762,4.92E-03,1.30E-02
60763,5.12E-03,1.10E-02
60764,6.07E-03,8.84E-03
60765,5.69E-03,8.68E-03
60766,5.26E-03,1.00E-02
60767,5.21E-03,1.89E-02
60768,5.27E-03,1.93E-02
60769,4.70E-03,1.65E-02
60770,4.87E-03,1.68E-02
60771,5.11E-03,1.91E-02
60772,5.24E-03,1.87E-02
60773,5.06E-03,1.66E-02
60774,6.82E-03,2.80E-02
60775,6.76E-03,2.79E-02
60776,6.17E-03,2.53E-02
60777,6.14E-03,2.49E-02
60778,6.34E-03,2.50E-02
60779,6.51E-03,2.54E-02
60780,5.67E-03,2.46E-02
60781,6.07E-03,2.45E-02
60782,7.07E-03,9.64E-03
60783,4.54E-03,9.10E-03
60784,5.78E-03,8.52E-03
60785,5.34E-03,8.80E-03
60786,5.44E-03,8.75E-03
60787,5.25E-03,8.85E-03
60788,7.31E-03,2.96E-02
60789,5.12E-03,2.94E-02
60790,4.93E-03,2.73E-02
60791,5.12E-03,2.01E-02
60792,5.98E-03,1.66E-02
60793,5.67E-03,7.24E-03
60794,5.37E-03,2.00E-02
60795,5.49E-03,2.01E-02
60796,4.86E-03,1.72E-02
60797,6.58E-03,2.61E-02
60798,7.11E-03,2.70E-02
60799,6.57E-03,1.41E-02
60800,4.15E-03,1.44E-02
60801,5.32E-03,5.00E-03
60802,5.39E-03,4.71E-03
60803,4.01E-03,1.35E-02
60804,6.38E-03,1.39E-02
60805,5.71E-03,1.81E-02
60806,5.87E-03,1.78E-02
60807,5.16E-03,1.78E-02
60808,5.51E-03,1.80E-02
60809,4.46E-03,1.19E-02
60810,4.75E-03,1.10E-02
60811,4.76E-03,1.08E-02
60812,4.73E-03,1.37E-02
60813,5.04E-03,1.34E-02
60814,3.75E-03,1.23E-02
60815,5.11E-03,1.31E-02
60816,4.93E-03,1.13E-02
60817,5.88E-03,9.23E-03
60818,5.52E-03,8.89E-03
60819,5.28E-03,9.80E-03
60820,4.97E-03,1.87E-02
60821,5.22E-03,1.94E-02
60822,4.57E-03,1.65E-02
60823,4.75E-03,1.71E-02
60824,5.02E-03,1.93E-02
60825,5.14E-03,1.83E-02
60826,4.96E-03,1.69E-02
60827,7.01E-03,2.77E-02
60828,6.79E-03,2.75E-02
60829,6.36E-03,2.57E-02
60830,6.28E-03,2.50E-02
60831,6.58E-03,2.57E-02
60832,5.83E-03,2.50E-02
60833,5.59E-03,2.49E-02
60834,6.24E-03,2.46E-02
60835,3.69E-03,8.46E-03
60836,6.20E-03,2.74E-02
60837,6.15E-03,2.85E-02
60838,5.85E-03,2.80E-02
60839,3.71E-03,2.92E-02
60840,3.96E-03,1.62E-02
60841,4.95E-03,1.26E-02
60842,5.47E-03,4.37E-03
60843,5.00E-03,4.04E-03
60844,5.38E-03,4.06E-03
60845,3.60E-03,1.43E-02
60846,5.23E-03,1.98E-02
60847,5.35E-03,1.99E-02
60848,5.66E-03,1.70E-02
60849,5.25E-03,1.53E-02
60850,5.20E-03,1.34E-02
60851,3.90E-03,1.21E-02
60852,4.59E-03,1.36E-02
60853,5.19E-03,1.58E-02
60854,5.21E-03,1.55E-02
60855,5.60E-03,1.81E-02
60856,5.92E-03,1.77E-02
60857,5.03E-03,1.77E-02
60858,5.49E-03,1.80E-02
60859,4.44E-03,1.06E-02
60860,4.86E-03,1.30E-02
60861,3.68E-03,1.20E-02
60862,5.39E-03,1.32E-02
60863,4.27E-03,1.17E-02
60864,4.70E-03,9.60E-03
60865,5.50E-03,9.11E-03
60866,5.39E-03,9.58E-03
60867,4.89E-03,1.84E-02
60868,5.17E-03,1.95E-02
60869,4.37E-03,1.65E-02
60870,4.73E-03,1.74E-02
60871,5.03E-03,1.81E-02
60872,4.67E-03,1.65E-02
60873,4.55E-03,1.66E-02
60874,4.56E-03,1.65E-02
60875,6.99E-03,2.73E-02
60876,6.85E-03,2.72E-02
60877,6.30E-03,2.49E-02
60878,6.72E-03,2.60E-02
60879,6.31E-03,2.47E-02
60880,5.57E-03,1.80E-02
60881,5.93E-03,1.75E-02
60882,5.53E-03,1.80E-02
60883,4.37E-03,1.66E-02
60884,4.31E-03,1.67E-02
60885,5.37E-03,1.59E-02
60886,3.77E-03,1.04E-02
60887,4.63E-03,1.27E-02
60888,3.61E-03,1.18E-02
60889,5.52E-03,1.33E-02
60890,3.25E-03,9.87E-03
60891,5.38E-03,9.34E-03
60892,4.76E-03,1.82E-02
60893,5.14E-03,1.97E-02
60894,4.95E-03,1.97E-02
60895,4.86E-03,1.96E-02
60896,4.68E-03,1.77E-02
60897,4.94E-03,1.78E-02
60898,6.81E-03,2.67E-02
60899,6.34E-03,2.48E-02
60900,6.78E-03,2.64E-02
60901,4.44E-03,1.31E-02
60902,5.37E-03,1.68E-02
60903,5.52E-03,1.80E-02
60904,5.90E-03,1.73E-02
60905,4.87E-03,1.94E-02
60906,5.11E-03,1.62E-02
60907,5.15E-03,1.64E-02
60908,5.36E-03,1.66E-02
60909,5.81E-03,1.68E-02
60910,5.97E-03,1.70E-02
60911,5.35E-03,1.56E-02
60912,5.07E-03,1.50E-02
60913,5.46E-03,1.40E-02
60914,5.01E-03,1.38E-02
60915,4.98E-03,1.66E-02
60916,5.15E-03,1.64E-02
60917,4.75E-03,1.61E-02
60918,3.24E-03,1.01E-02
60919,4.53E-03,1.24E-02
60920,4.93E-03,1.33E-02
60921,4.68E-03,1.79E-02
60922,5.33E-03,5.56E-03
60923,5.31E-03,5.28E-03
60924,5.38E-03,6.13E-03
60925,5.32E-03,5.85E-03
60926,5.53E-03,6.72E-03
60927,5.46E-03,6.42E-03
60928,5.56E-03,7.30E-03
60929,5.54E-03,7.01E-03
60930,5.54E-03,7.89E-03
60931,5.57E-03,7.60E-03
60932,5.54E-03,8.45E-03
60933,5.58E-03,8.17E-03
60934,5.60E-03,9.02E-03
60935,5.53E-03,8.74E-03
60936,5.64E-03,9.58E-03
60937,5.69E-03,9.31E-03
60938,5.24E-03,9.82E-03
60939,5.27E-03,1.07E-02
60940,4.66E-03,1.04E-02
60941,5.83E-03,1.11E-02
60942,5.67E-03,1.09E-02
60943,5.70E-03,1.17E-02
60944,5.65E-03,1.14E-02
60945,5.82E-03,1.22E-02
60946,5.75E-03,1.19E-02
60947,5.51E-03,1.27E-02
60948,5.73E-03,1.24E-02
60949,5.38E-03,1.29E-02
60950,5.82E-03,1.80E-02
60951,5.36E-03,1.80E-02
60952,4.42E-03,1.75E-02
60953,4.70E-03,1.75E-02
60954,4.58E-03,1.13E-02
60955,4.97E-03,1.38E-02
60956,4.83E-03,1.28E-02
60957,5.29E-03,1.05E-02
60958,5.24E-03,1.08E-02
60959,5.89E-03,8.77E-03
60960,5.35E-03,1.03E-02
60961,5.23E-03,1.91E-02
60962,4.82E-03,1.67E-02
60963,5.19E-03,1.89E-02
60964,5.10E-03,1.65E-02
60965,6.81E-03,2.79E-02
60966,6.20E-03,2.51E-02
60967,6.45E-03,2.52E-02
60968,5.84E-03,2.45E-02
60969,3.77E-03,1.16E-02
60970,6.70E-03,1.15E-02
60971,5.36E-03,1.15E-02
60972,5.37E-03,1.16E-02
60973,6.45E-03,1.15E-02
60974,5.28E-03,1.18E-02
60975,5.23E-03,1.17E-02
60976,5.71E-03,1.19E-02
60977,5.51E-03,1.18E-02
60978,5.73E-03,1.20E-02
60979,5.77E-03,1.20E-02
60980,5.53E-03,1.22E-02
60981,5.62E-03,1.21E-02
60982,5.48E-03,1.24E-02
60983,5.51E-03,1.23E-02
60984,5.53E-03,1.25E-02
60985,5.48E-03,1.24E-02
60986,5.62E-03,1.27E-02
60987,5.55E-03,1.26E-02
60988,5.63E-03,1.29E-02
60989,5.66E-03,1.28E-02
60990,5.63E-03,1.31E-02
60991,5.64E-03,1.30E-02
60992,5.67E-03,1.33E-02
60993,5.62E-03,1.32E-02
60994,5.66E-03,1.35E-02
60995,5.67E-03,1.34E-02
60996,5.59E-03,1.37E-02
60997,5.65E-03,1.36E-02
60998,5.52E-03,1.39E-02
60999,5.56E-03,1.38E-02
61000,5.58E-03,1.41E-02
61001,5.53E-03,1.40E-02
61002,5.58E-03,1.43E-02
61003,5.60E-03,1.42E-02
61004,5.62E-03,1.45E-02
61005,5.63E-03,1.44E-02
61006,5.68E-03,1.48E-02
61007,5.61E-03,1.46E-02
61008,5.73E-03,1.50E-02
61009,5.67E-03,1.49E-02
61010,5.72E-03,1.52E-02
61011,5.73E-03,1.51E-02
61012,5.60E-03,1.54E-02
61013,5.64E-03,1.53E-02
61014,5.58E-03,1.56E-02
61015,5.61E-03,1.55E-02
61016,5.56E-03,1.59E-02
61017,5.55E-03,1.57E-02
61018,5.55E-03,1.61E-02
61019,5.53E-03,1.60E-02
61020,5.71E-03,1.63E-02
61021,5.60E-03,1.62E-02
61022,5.73E-03,1.65E-02
61023,5.77E-03,1.64E-02
61024,5.57E-03,1.67E-02
61025,5.68E-03,1.66E-02
61026,5.44E-03,1.69E-02
61027,5.47E-03,1.68E-02
61028,5.49E-03,1.71E-02
61029,5.46E-03,1.70E-02
61030,5.56E-03,1.73E-02
61031,5.48E-03,1.72E-02
61032,5.64E-03,1.74E-02
61033,5.58E-03,1.73E-02
61034,5.63E-03,1.76E-02
61035,5.65E-03,1.75E-02
61036,5.64E-03,1.78E-02
61037,5.64E-03,1.77E-02
61038,5.64E-03,1.79E-02
61039,5.66E-03,1.79E-02
61040,5.60E-03,1.81E-02
61041,5.62E-03,1.80E-02
61042,5.65E-03,1.83E-02
61043,5.67E-03,1.82E-02
61044,5.55E-03,1.84E-02
61045,5.60E-03,1.83E-02
61046,5.44E-03,1.86E-02
61047,5.47E-03,1.85E-02
61048,5.55E-03,1.87E-02
61049,5.52E-03,1.86E-02
61050,5.65E-03,1.88E-02
61051,5.58E-03,1.88E-02
61052,5.71E-03,1.89E-02
61053,5.70E-03,1.89E-02
61054,5.58E-03,1.90E-02
61055,5.66E-03,1.90E-02
61056,5.57E-03,1.91E-02
61057,5.56E-03,1.91E-02
61058,5.59E-03,1.92E-02
61059,5.55E-03,1.92E-02
61060,5.64E-03,1.93E-02
61061,5.63E-03,1.93E-02
61062,5.72E-03,1.94E-02
61063,5.65E-03,1.93E-02
61064,5.65E-03,1.94E-02
61065,5.70E-03,1.94E-02
61066,5.55E-03,1.95E-02
61067,5.58E-03,1.94E-02
61068,5.46E-03,1.95E-02
61069,5.50E-03,1.95E-02
61070,5.42E-03,1.95E-02
61071,5.39E-03,1.95E-02
61072,5.51E-03,1.96E-02
61073,5.48E-03,1.95E-02
61074,5.62E-03,1.96E-02
61075,5.58E-03,1.96E-02
61076,5.58E-03,1.95E-02
61077,5.61E-03,1.96E-02
61078,5.56E-03,1.95E-02
61079,5.58E-03,1.95E-02
61080,5.48E-03,1.95E-02
61081,5.50E-03,1.95E-02
61082,5.46E-03,1.95E-02
61083,5.46E-03,1.95E-02
61084,5.60E-03,1.94E-02
61085,5.52E-03,1.94E-02
61086,5.58E-03,1.93E-02
61087,5.60E-03,1.94E-02
61088,5.62E-03,1.93E-02
61089,5.60E-03,1.93E-02
61090,5.60E-03,1.92E-02
61091,5.54E-03,1.92E-02
61092,5.72E-03,1.91E-02
61093,5.69E-03,1.91E-02
61094,5.81E-03,1.90E-02
61095,5.72E-03,1.90E-02
61096,5.81E-03,1.88E-02
61097,5.84E-03,1.89E-02
61098,5.70E-03,1.87E-02
61099,5.78E-03,1.88E-02
61100,5.66E-03,1.85E-02
61101,5.66E-03,1.86E-02
61102,5.70E-03,1.84E-02
61103,5.70E-03,1.85E-02
61104,5.62E-03,1.82E-02
61105,5.64E-03,1.83E-02
61106,5.50E-03,1.80E-02
61107,5.61E-03,1.81E-02
61108,5.42E-03,1.78E-02
61109,5.50E-03,1.79E-02
61110,5.46E-03,1.75E-02
61111,5.46E-03,1.77E-02
61112,5.48E-03,1.73E-02
61113,5.50E-03,1.74E-02
61114,5.54E-03,1.71E-02
61115,5.53E-03,1.72E-02
61116,5.64E-03,1.68E-02
61117,5.58E-03,1.69E-02
61118,5.60E-03,1.65E-02
61119,5.58E-03,1.67E-02
61120,5.55E-03,1.63E-02
61121,5.58E-03,1.64E-02
61122,5.55E-03,1.60E-02
61123,5.53E-03,1.61E-02
61124,5.64E-03,1.57E-02
61125,5.58E-03,1.58E-02
61126,5.77E-03,1.54E-02
61127,5.72E-03,1.56E-02
61128,5.68E-03,1.51E-02
61129,5.71E-03,1.53E-02
61130,5.58E-03,1.48E-02
61131,5.63E-03,1.50E-02
61132,5.66E-03,1.45E-02
61133,5.63E-03,1.47E-02
61134,5.61E-03,1.42E-02
61135,5.62E-03,1.44E-02
61136,5.61E-03,1.39E-02
61137,5.63E-03,1.41E-02
61138,5.54E-03,1.36E-02
61139,5.60E-03,1.38E-02
61140,5.63E-03,1.33E-02
61141,5.55E-03,1.34E-02
61142,5.69E-03,1.30E-02
61143,5.63E-03,1.31E-02
61144,5.71E-03,1.27E-02
61145,5.72E-03,1.28E-02
61146,5.61E-03,1.24E-02
61147,5.68E-03,1.25E-02
61148,5.54E-03,1.21E-02
61149,5.61E-03,1.22E-02
61150,5.59E-03,1.18E-02
61151,5.53E-03,1.19E-02
61152,5.77E-03,1.15E-02
61153,5.68E-03,1.16E-02
61154,5.90E-03,1.12E-02
61155,5.80E-03,1.13E-02
61156,5.98E-03,1.09E-02
61157,5.97E-03,1.10E-02
61158,4.80E-03,1.06E-02
61159,5.84E-03,1.07E-02
61160,5.81E-03,1.03E-02
61161,5.13E-03,1.04E-02
61162,6.04E-03,1.00E-02
61163,5.93E-03,1.01E-02
61164,6.33E-03,9.69E-03
61165,6.28E-03,9.85E-03
61166,5.52E-03,9.57E-03
61167,4.97E-03,4.03E-03
61168,4.69E-03,4.06E-03
61169,5.03E-03,4.01E-03
61170,4.91E-03,4.00E-03
61171,5.13E-03,4.04E-03
61172,5.04E-03,4.02E-03
61173,5.25E-03,4.08E-03
61174,5.23E-03,4.06E-03
61175,5.39E-03,4.11E-03
61176,5.36E-03,4.09E-03
61177,5.40E-03,4.14E-03
61178,5.37E-03,4.12E-03
61179,5.36E-03,4.17E-03
61180,5.37E-03,4.16E-03
61181,5.30E-03,4.20E-03
61182,5.30E-03,4.18E-03
61183,5.35E-03,4.26E-03
61184,5.32E-03,4.23E-03
61185,5.32E-03,4.34E-03
61186,5.33E-03,4.30E-03
61187,5.32E-03,4.41E-03
61188,5.31E-03,4.38E-03
61189,5.36E-03,4.48E-03
61190,5.34E-03,4.44E-03
61191,5.33E-03,4.57E-03
61192,5.29E-03,4.53E-03
61193,5.50E-03,4.68E-03
61194,5.42E-03,4.63E-03
61195,5.49E-03,4.79E-03
61196,5.53E-03,4.74E-03
61197,5.53E-03,4.90E-03
61198,5.49E-03,4.84E-03
61199,5.65E-03,5.03E-03
61200,5.60E-03,4.97E-03
61201,5.75E-03,5.14E-03
61202,5.67E-03,5.09E-03
61203,5.79E-03,5.26E-03
61204,5.80E-03,5.20E-03
61205,5.77E-03,5.40E-03
61206,5.73E-03,5.33E-03
61207,5.86E-03,5.52E-03
61208,5.82E-03,5.46E-03
61209,5.98E-03,5.67E-03
61210,5.93E-03,5.60E-03
61211,6.08E-03,5.81E-03
61212,6.03E-03,5.74E-03
61213,6.12E-03,5.97E-03
61214,6.08E-03,5.89E-03
61215,6.25E-03,6.12E-03
61216,6.15E-03,6.04E-03
61217,6.35E-03,6.28E-03
61218,6.33E-03,6.20E-03
61219,6.49E-03,6.45E-03
61220,6.38E-03,6.37E-03
61221,6.55E-03,6.60E-03
61222,6.54E-03,6.53E-03
61223,6.24E-03,6.70E-03
61224,6.41E-03,6.64E-03
61225,6.06E-03,6.82E-03
61226,6.16E-03,6.75E-03
61227,5.92E-03,6.97E-03
61228,5.98E-03,6.89E-03
61229,5.85E-03,7.12E-03
61230,5.85E-03,7.04E-03
61231,5.89E-03,7.29E-03
61232,5.86E-03,7.21E-03
61233,5.92E-03,7.44E-03
61234,5.93E-03,7.36E-03
61235,5.88E-03,7.61E-03
61236,5.88E-03,7.52E-03
61237,5.77E-03,7.80E-03
61238,5.81E-03,7.71E-03
61239,5.69E-03,8.00E-03
61240,5.74E-03,7.90E-03
61241,5.56E-03,8.22E-03
61242,5.61E-03,8.11E-03
61243,5.45E-03,8.43E-03
61244,5.51E-03,8.33E-03
61245,5.45E-03,8.66E-03
61246,5.46E-03,8.54E-03
61247,5.37E-03,8.94E-03
61248,5.41E-03,8.80E-03
61249,5.37E-03,9.25E-03
61250,5.34E-03,9.09E-03
61251,5.70E-03,9.58E-03
61252,5.49E-03,9.41E-03
61253,5.81E-03,9.89E-03
61254,5.83E-03,9.74E-03
61255,5.61E-03,1.02E-02
61256,5.72E-03,1.01E-02
61257,5.64E-03,1.06E-02
61258,5.41E-03,1.04E-02
61259,3.85E-03,1.13E-02
61260,5.57E-03,1.12E-02
61261,5.98E-03,9.43E-03
61262,4.32E-03,9.28E-03
61263,4.89E-03,9.36E-03
61264,5.63E-03,9.24E-03
61265,5.45E-03,9.26E-03
61266,5.94E-03,9.23E-03
61267,5.45E-03,9.06E-03
61268,5.43E-03,9.08E-03
61269,5.44E-03,9.00E-03
61270,5.45E-03,9.03E-03
61271,5.31E-03,8.93E-03
61272,5.39E-03,8.96E-03
61273,5.28E-03,8.86E-03
61274,5.24E-03,8.90E-03
61275,5.34E-03,8.79E-03
61276,5.27E-03,8.83E-03
61277,5.33E-03,8.72E-03
61278,5.34E-03,8.76E-03
61279,5.29E-03,8.66E-03
61280,5.32E-03,8.69E-03
61281,5.32E-03,8.60E-03
61282,5.36E-03,8.63E-03
61283,5.44E-03,8.55E-03
61284,5.41E-03,8.57E-03
61285,5.51E-03,8.53E-03
61286,3.97E-03,8.40E-03
61287,4.81E-03,8.38E-03
61288,4.54E-03,8.38E-03
61289,5.15E-03,8.36E-03
61290,5.02E-03,8.37E-03
61291,5.24E-03,8.33E-03
61292,5.20E-03,8.35E-03
61293,5.20E-03,8.31E-03
61294,5.21E-03,8.32E-03
61295,5.23E-03,8.30E-03
61296,5.17E-03,8.31E-03
61297,5.36E-03,8.29E-03
61298,5.25E-03,8.30E-03
61299,5.29E-03,8.30E-03
61300,5.33E-03,8.30E-03
61301,5.22E-03,8.30E-03
61302,5.26E-03,8.30E-03
61303,5.07E-03,8.30E-03
61304,5.14E-03,8.30E-03
61305,5.03E-03,8.32E-03
61306,5.03E-03,8.30E-03
61307,5.01E-03,8.34E-03
61308,5.00E-03,8.33E-03
61309,5.06E-03,8.37E-03
61310,5.02E-03,8.36E-03
61311,5.08E-03,8.39E-03
61312,5.07E-03,8.37E-03
61313,5.07E-03,8.42E-03
61314,5.09E-03,8.40E-03
61315,5.08E-03,8.46E-03
61316,5.10E-03,8.44E-03
61317,5.11E-03,8.51E-03
61318,5.10E-03,8.49E-03
61319,5.16E-03,8.57E-03
61320,5.13E-03,8.54E-03
61321,5.21E-03,8.63E-03
61322,5.23E-03,8.60E-03
61323,5.34E-03,8.69E-03
61324,5.33E-03,8.66E-03
61325,5.44E-03,8.72E-03
61326,4.65E-03,8.98E-03
61327,4.89E-03,8.92E-03
61328,4.40E-03,9.31E-03
61329,4.43E-03,9.12E-03
61330,5.15E-03,9.59E-03
61331,4.02E-03,9.31E-03
61332,4.88E-03,9.42E-03
61333,4.45E-03,9.94E-03
61334,4.67E-03,9.79E-03
61335,3.48E-03,1.03E-02
61336,4.03E-03,1.01E-02
61337,4.20E-03,1.09E-02
61338,4.00E-03,1.06E-02
61339,4.77E-03,1.15E-02
61340,4.57E-03,1.12E-02
61341,5.05E-03,1.22E-02
61342,4.97E-03,1.18E-02
61343,5.28E-03,1.29E-02
61344,5.18E-03,1.25E-02
61345,5.42E-03,1.38E-02
61346,5.37E-03,1.33E-02
61347,5.56E-03,1.46E-02
61348,5.51E-03,1.42E-02
61349,5.59E-03,1.55E-02
61350,5.60E-03,1.51E-02
61351,5.52E-03,1.64E-02
61352,5.53E-03,1.60E-02
61353,5.54E-03,1.74E-02
61354,5.49E-03,1.69E-02
61355,5.56E-03,1.83E-02
61356,5.56E-03,1.79E-02
61357,5.55E-03,1.94E-02
61358,5.58E-03,1.89E-02
61359,5.46E-03,2.04E-02
61360,5.47E-03,1.99E-02
61361,5.37E-03,2.15E-02
61362,5.45E-03,2.10E-02
61363,5.31E-03,2.26E-02
61364,5.34E-03,2.20E-02
61365,5.23E-03,2.37E-02
61366,5.30E-03,2.32E-02
61367,5.35E-03,2.48E-02
61368,5.26E-03,2.43E-02
61369,5.25E-03,2.54E-02
61370,6.53E-03,2.90E-02
61371,5.10E-03,3.13E-02
61372,5.09E-03,3.10E-02
61373,5.02E-03,3.16E-02
61374,5.05E-03,3.15E-02
61375,4.94E-03,3.19E-02
61376,4.95E-03,3.18E-02
61377,4.98E-03,3.21E-02
61378,4.95E-03,3.20E-02
61379,5.05E-03,3.22E-02
61380,5.01E-03,3.22E-02
61381,5.08E-03,3.23E-02
61382,5.04E-03,3.23E-02
61383,5.04E-03,3.22E-02
61384,5.06E-03,3.23E-02
61385,4.97E-03,3.21E-02
61386,5.03E-03,3.22E-02
61387,4.92E-03,3.19E-02
61388,4.94E-03,3.20E-02
61389,4.90E-03,3.17E-02
61390,4.91E-03,3.19E-02
61391,4.90E-03,3.15E-02
61392,4.94E-03,3.16E-02
61393,4.91E-03,3.12E-02
61394,4.95E-03,3.14E-02
61395,5.17E-03,3.10E-02
61396,3.96E-03,3.07E-02
61397,4.81E-03,3.03E-02
61398,4.85E-03,3.06E-02
61399,4.84E-03,2.99E-02
61400,4.85E-03,3.01E-02
61401,4.76E-03,2.98E-02
61402,4.71E-03,2.86E-02
61403,5.24E-03,2.81E-02
61404,5.03E-03,2.84E-02
61405,4.40E-03,2.76E-02
61406,5.44E-03,2.78E-02
61407,5.14E-03,2.71E-02
61408,4.31E-03,2.73E-02
61409,5.50E-03,2.66E-02
61410,5.59E-03,2.69E-02
61411,5.47E-03,2.60E-02
61412,5.51E-03,2.63E-02
61413,5.37E-03,2.54E-02
61414,5.43E-03,2.57E-02
61415,5.36E-03,2.48E-02
61416,5.37E-03,2.51E-02
61417,5.31E-03,2.42E-02
61418,5.38E-03,2.45E-02
61419,5.31E-03,2.36E-02
61420,5.31E-03,2.39E-02
61421,5.35E-03,2.30E-02
61422,5.31E-03,2.33E-02
61423,5.38E-03,2.24E-02
61424,5.41E-03,2.27E-02
61425,5.44E-03,2.18E-02
61426,5.41E-03,2.21E-02
61427,5.51E-03,2.12E-02
61428,5.48E-03,2.15E-02
61429,5.66E-03,2.06E-02
61430,5.55E-03,2.09E-02
61431,6.01E-03,2.03E-02
61432,4.35E-03,1.94E-02
61433,4.89E-03,1.88E-02
61434,4.70E-03,1.91E-02
61435,5.09E-03,1.83E-02
61436,5.04E-03,1.85E-02
61437,5.19E-03,1.77E-02
61438,5.18E-03,1.80E-02
61439,5.38E-03,1.71E-02
61440,5.27E-03,1.74E-02
61441,5.49E-03,1.69E-02
61442,3.87E-03,1.59E-02
61443,4.78E-03,1.54E-02
61444,4.54E-03,1.57E-02
61445,5.08E-03,1.49E-02
61446,4.98E-03,1.52E-02
61447,5.14E-03,1.44E-02
61448,5.16E-03,1.47E-02
61449,5.15E-03,1.39E-02
61450,5.15E-03,1.41E-02
61451,5.12E-03,1.34E-02
61452,5.11E-03,1.36E-02
61453,5.02E-03,1.29E-02
61454,5.13E-03,1.31E-02
61455,4.86E-03,1.24E-02
61456,4.92E-03,1.27E-02
61457,4.68E-03,1.20E-02
61458,4.84E-03,1.22E-02
61459,4.85E-03,1.15E-02
61460,4.77E-03,1.18E-02
61461,5.32E-03,1.11E-02
61462,5.19E-03,1.13E-02
61463,5.14E-03,1.07E-02
61464,5.21E-03,1.09E-02
61465,5.04E-03,1.03E-02
61466,5.05E-03,1.05E-02
61467,5.07E-03,9.94E-03
61468,4.99E-03,1.01E-02
61469,5.12E-03,9.59E-03
61470,5.06E-03,9.76E-03
61471,5.13E-03,9.25E-03
61472,5.10E-03,9.42E-03
61473,5.14E-03,8.90E-03
61474,5.12E-03,9.08E-03
61475,5.17E-03,8.58E-03
61476,5.16E-03,8.74E-03
61477,5.28E-03,8.29E-03
61478,5.25E-03,8.43E-03
61479,5.44E-03,8.00E-03
61480,5.32E-03,8.15E-03
61481,5.43E-03,7.72E-03
61482,5.44E-03,7.86E-03
61483,5.41E-03,7.44E-03
61484,5.42E-03,7.58E-03
61485,5.41E-03,7.17E-03
61486,5.38E-03,7.30E-03
61487,5.44E-03,6.92E-03
61488,5.43E-03,7.04E-03
61489,5.44E-03,6.67E-03
61490,5.50E-03,6.79E-03
61491,5.44E-03,6.43E-03
61492,5.44E-03,6.55E-03
61493,5.44E-03,6.23E-03
61494,5.42E-03,6.33E-03
61495,5.50E-03,6.02E-03
61496,5.48E-03,6.13E-03
61497,5.46E-03,5.82E-03
61498,5.48E-03,5.92E-03
61499,5.37E-03,5.64E-03
61500,5.36E-03,5.72E-03
61501,5.45E-03,5.47E-03
61502,5.38E-03,5.55E-03
61503,5.44E-03,5.31E-03
61504,5.48E-03,5.39E-03
61505,5.47E-03,5.16E-03
61506,5.41E-03,5.23E-03
61507,5.48E-03,5.03E-03
61508,5.46E-03,5.09E-03
61509,5.40E-03,4.90E-03
61510,5.41E-03,4.97E-03
61511,5.39E-03,4.77E-03
61512,5.42E-03,4.84E-03
61513,5.37E-03,4.64E-03
61514,5.35E-03,4.70E-03
61515,5.32E-03,4.54E-03
61516,5.33E-03,4.59E-03
61517,5.39E-03,4.46E-03
61518,5.33E-03,4.51E-03
61519,5.42E-03,1.21E-02
61520,5.27E-03,1.23E-02
61521,5.66E-03,1.16E-02
61522,5.63E-03,1.18E-02
61523,5.71E-03,1.11E-02
61524,5.65E-03,1.13E-02
61525,6.68E-03,1.06E-02
61526,6.06E-03,1.08E-02
61527,5.58E-03,1.00E-02
61528,6.48E-03,1.03E-02
61529,5.32E-03,9.47E-03
61530,5.31E-03,9.73E-03
61531,5.53E-03,8.94E-03
61532,5.44E-03,9.21E-03
61533,5.65E-03,8.38E-03
61534,5.61E-03,8.66E-03
61535,5.79E-03,8.10E-03
61536,5.40E-03,6.64E-03
61537,5.91E-03,6.92E-03
61538,4.82E-03,6.07E-03
61539,4.80E-03,6.34E-03
61540,5.14E-03,5.53E-03
61541,5.02E-03,5.81E-03
61542,5.39E-03,4.95E-03
61543,5.26E-03,5.25E-03
61544,5.49E-03,4.66E-03
61545,5.69E-03,2.00E-02
61546,4.90E-03,1.75E-02
61547,6.55E-03,2.63E-02
61548,6.99E-03,2.67E-02
61549,3.88E-03,1.45E-02
61550,5.41E-03,4.42E-03
61551,5.89E-03,1.37E-02
61552,5.73E-03,1.80E-02
61553,5.85E-03,1.79E-02
61554,5.27E-03,1.79E-02
61555,5.46E-03,1.80E-02
61556,4.36E-03,1.16E-02
61557,4.60E-03,1.11E-02
61558,4.88E-03,1.36E-02
61559,5.00E-03,1.34E-02
61560,4.30E-03,1.24E-02
61561,4.85E-03,1.28E-02
61562,4.96E-03,1.11E-02
61563,5.85E-03,9.14E-03
61564,5.61E-03,8.98E-03
61565,5.38E-03,1.01E-02
61566,5.12E-03,1.88E-02
61567,5.24E-03,1.92E-02
61568,4.70E-03,1.67E-02
61569,4.74E-03,1.70E-02
61570,5.06E-03,1.91E-02
61571,5.18E-03,1.86E-02
61572,5.08E-03,1.69E-02
61573,7.05E-03,2.77E-02
61574,6.78E-03,2.76E-02
61575,6.29E-03,2.55E-02
61576,6.11E-03,2.51E-02
61577,6.35E-03,2.51E-02
61578,6.45E-03,2.55E-02
61579,5.62E-03,2.48E-02
61580,6.16E-03,2.46E-02
61581,4.00E-03,1.15E-02
61582,6.02E-03,9.38E-03
61583,5.19E-03,9.25E-03
61584,5.19E-03,8.25E-03
61585,5.54E-03,8.41E-03
61586,5.62E-03,8.37E-03
61587,5.43E-03,8.46E-03
61588,3.32E-03,8.93E-03
61589,4.62E-03,2.66E-02
61590,6.65E-03,2.87E-02
61591,5.68E-03,3.10E-02
61592,5.34E-03,1.61E-02
61593,6.14E-03,1.64E-02
61594,5.06E-03,1.57E-02
61595,5.49E-03,4.74E-03
61596,4.80E-03,1.25E-02
61597,5.11E-03,3.75E-03
61598,5.24E-03,3.75E-03
61599,4.53E-03,1.45E-02
61600,5.42E-03,1.98E-02
61601,6.32E-03,1.98E-02
61602,6.33E-03,1.41E-02
61603,4.85E-03,1.43E-02
61604,5.85E-03,1.71E-02
61605,5.30E-03,1.54E-02
61606,5.08E-03,1.35E-02
61607,4.31E-03,1.22E-02
61608,4.57E-03,1.34E-02
61609,5.45E-03,1.57E-02
61610,5.29E-03,1.54E-02
61611,6.21E-03,1.38E-02
61612,5.64E-03,1.80E-02
61613,5.87E-03,1.78E-02
61614,5.12E-03,1.77E-02
61615,5.49E-03,1.80E-02
61616,4.35E-03,1.19E-02
61617,4.49E-03,1.08E-02
61618,4.81E-03,1.35E-02
61619,4.91E-03,1.31E-02
61620,3.86E-03,1.22E-02
61621,5.17E-03,1.29E-02
61622,4.49E-03,1.14E-02
61623,5.28E-03,9.51E-03
61624,5.48E-03,9.19E-03
61625,5.39E-03,9.87E-03
61626,4.99E-03,1.86E-02
61627,5.21E-03,1.93E-02
61628,4.49E-03,1.67E-02
61629,4.76E-03,1.73E-02
61630,4.98E-03,1.92E-02
61631,5.10E-03,1.83E-02
61632,4.94E-03,1.72E-02
61633,4.21E-03,1.68E-02
61634,4.02E-03,1.67E-02
61635,6.98E-03,2.74E-02
61636,6.73E-03,2.73E-02
61637,6.36E-03,2.59E-02
61638,3.99E-03,2.51E-02
61639,5.55E-03,2.52E-02
61640,6.25E-03,2.51E-02
61641,6.54E-03,2.58E-02
61642,6.23E-03,2.47E-02
61643,6.93E-03,2.71E-02
61644,5.89E-03,1.40E-02
61645,5.56E-03,1.80E-02
61646,5.91E-03,1.76E-02
61647,4.85E-03,1.76E-02
61648,5.49E-03,1.80E-02
61649,4.17E-03,1.67E-02
61650,4.27E-03,1.68E-02
61651,5.31E-03,1.60E-02
61652,4.09E-03,1.06E-02
61653,4.79E-03,1.28E-02
61654,3.77E-03,1.19E-02
61655,5.30E-03,1.30E-02
61656,3.14E-03,1.17E-02
61657,4.30E-03,9.85E-03
61658,5.36E-03,9.42E-03
61659,5.37E-03,9.65E-03
61660,4.86E-03,1.83E-02
61661,5.20E-03,1.95E-02
61662,5.23E-03,1.96E-02
61663,5.10E-03,1.97E-02
61664,4.90E-03,1.95E-02
61665,4.34E-03,1.67E-02
61666,4.72E-03,1.75E-02
61667,5.01E-03,1.80E-02
61668,6.74E-03,2.69E-02
61669,6.23E-03,2.50E-02
61670,6.65E-03,2.61E-02
61671,6.28E-03,2.48E-02
61672,5.46E-03,1.33E-02
61673,3.41E-03,1.30E-02
61674,5.46E-03,1.69E-02
61675,5.55E-03,1.80E-02
61676,5.90E-03,1.74E-02
61677,5.53E-03,1.80E-02
61678,4.86E-03,1.93E-02
61679,4.94E-03,1.63E-02
61680,4.85E-03,1.65E-02
61681,5.88E-03,1.67E-02
61682,4.84E-03,1.69E-02
61683,5.38E-03,1.57E-02
61684,5.19E-03,1.51E-02
61685,4.97E-03,1.42E-02
61686,4.40E-03,1.39E-02
61687,5.09E-03,1.59E-02
61688,5.25E-03,1.67E-02
61689,4.40E-03,1.65E-02
61690,4.77E-03,1.62E-02
61691,3.77E-03,1.04E-02
61692,4.69E-03,1.25E-02
61693,5.24E-03,1.31E-02
61694,4.15E-03,1.01E-02
61695,4.74E-03,1.81E-02
61696,4.70E-03,1.78E-02
61697,4.94E-03,1.77E-02
61698,6.68E-03,2.65E-02
61699,6.82E-03,2.65E-02
61700,6.65E-03,9.21E-03
61701,3.78E-03,9.24E-03
61702,4.33E-03,1.46E-02
61703,4.64E-03,1.48E-02
61704,4.56E-03,1.73E-02
61705,5.41E-03,4.38E-03
61706,5.39E-03,4.96E-03
61707,5.43E-03,4.67E-03
61708,5.34E-03,5.52E-03
61709,5.34E-03,5.24E-03
61710,5.42E-03,6.10E-03
61711,5.38E-03,5.81E-03
61712,5.48E-03,6.68E-03
61713,5.44E-03,6.39E-03
61714,5.53E-03,7.27E-03
61715,5.53E-03,6.97E-03
61716,5.48E-03,7.85E-03
61717,5.49E-03,7.56E-03
61718,5.53E-03,8.42E-03
61719,5.52E-03,8.13E-03
61720,5.54E-03,8.98E-03
61721,5.49E-03,8.70E-03
61722,5.46E-03,9.51E-03
61723,5.55E-03,9.25E-03
61724,5.30E-03,1.01E-02
61725,5.34E-03,9.77E-03
61726,5.34E-03,1.06E-02
61727,5.14E-03,1.04E-02
61728,5.62E-03,1.11E-02
61729,5.44E-03,1.09E-02
61730,5.63E-03,1.16E-02
61731,5.63E-03,1.14E-02
61732,5.73E-03,1.21E-02
61733,5.69E-03,1.19E-02
61734,5.66E-03,1.26E-02
61735,5.74E-03,1.24E-02
61736,5.74E-03,1.31E-02
61737,5.70E-03,1.28E-02
61738,5.62E-03,1.34E-02
61739,5.82E-03,1.80E-02
61740,5.41E-03,1.79E-02
61741,3.95E-03,1.75E-02
61742,4.10E-03,1.74E-02
61743,4.53E-03,1.13E-02
61744,4.98E-03,1.35E-02
61745,4.57E-03,1.26E-02
61746,5.35E-03,1.06E-02
61747,5.15E-03,1.09E-02
61748,5.76E-03,9.06E-03
61749,5.40E-03,1.04E-02
61750,5.19E-03,1.90E-02
61751,4.77E-03,1.68E-02
61752,5.11E-03,1.88E-02
61753,4.93E-03,1.68E-02
61754,6.95E-03,2.77E-02
61755,6.08E-03,2.53E-02
61756,6.46E-03,2.53E-02
61757,5.97E-03,2.47E-02
61758,7.03E-03,1.17E-02
61759,5.07E-03,1.18E-02
61760,5.63E-03,1.17E-02
61761,5.79E-03,1.19E-02
61762,5.35E-03,1.19E-02
61763,5.69E-03,1.20E-02
61764,5.83E-03,1.19E-02
61765,5.46E-03,1.21E-02
61766,5.46E-03,1.21E-02
61767,5.62E-03,1.23E-02
61768,5.55E-03,1.22E-02
61769,5.66E-03,1.24E-02
61770,5.66E-03,1.23E-02
61771,5.60E-03,1.26E-02
61772,5.63E-03,1.25E-02
61773,5.53E-03,1.27E-02
61774,5.55E-03,1.26E-02
61775,5.51E-03,1.29E-02
61776,5.50E-03,1.28E-02
61777,5.61E-03,1.30E-02
61778,5.56E-03,1.29E-02
61779,5.63E-03,1.32E-02
61780,5.66E-03,1.31E-02
61781,5.59E-03,1.34E-02
61782,5.60E-03,1.33E-02
61783,5.64E-03,1.36E-02
61784,5.58E-03,1.35E-02
61785,5.61E-03,1.38E-02
61786,5.62E-03,1.37E-02
61787,5.54E-03,1.40E-02
61788,5.63E-03,1.39E-02
61789,5.49E-03,1.42E-02
61790,5.54E-03,1.41E-02
61791,5.52E-03,1.44E-02
61792,5.49E-03,1.43E-02
61793,5.60E-03,1.46E-02
61794,5.55E-03,1.45E-02
61795,5.64E-03,1.49E-02
61796,5.64E-03,1.47E-02
61797,5.64E-03,1.51E-02
61798,5.63E-03,1.50E-02
61799,5.62E-03,1.53E-02
61800,5.60E-03,1.52E-02
61801,5.63E-03,1.55E-02
61802,5.65E-03,1.54E-02
61803,5.60E-03,1.57E-02
61804,5.65E-03,1.56E-02
61805,5.57E-03,1.59E-02
61806,5.60E-03,1.58E-02
61807,5.58E-03,1.61E-02
61808,5.55E-03,1.60E-02
61809,5.58E-03,1.63E-02
61810,5.58E-03,1.62E-02
61811,5.66E-03,1.65E-02
61812,5.61E-03,1.64E-02
61813,5.66E-03,1.67E-02
61814,5.67E-03,1.66E-02
61815,5.56E-03,1.69E-02
61816,5.63E-03,1.68E-02
61817,5.45E-03,1.71E-02
61818,5.51E-03,1.70E-02
61819,5.46E-03,1.73E-02
61820,5.44E-03,1.72E-02
61821,5.55E-03,1.75E-02
61822,5.48E-03,1.74E-02
61823,5.60E-03,1.77E-02
61824,5.56E-03,1.76E-02
61825,5.67E-03,1.79E-02
61826,5.63E-03,1.78E-02
61827,5.63E-03,1.80E-02
61828,5.65E-03,1.79E-02
61829,5.61E-03,1.82E-02
61830,5.62E-03,1.81E-02
61831,5.59E-03,1.83E-02
61832,5.60E-03,1.83E-02
61833,5.63E-03,1.85E-02
61834,5.64E-03,1.84E-02
61835,5.53E-03,1.86E-02
61836,5.58E-03,1.86E-02
61837,5.46E-03,1.88E-02
61838,5.45E-03,1.87E-02
61839,5.52E-03,1.89E-02
61840,5.51E-03,1.88E-02
61841,5.61E-03,1.90E-02
61842,5.59E-03,1.89E-02
61843,5.71E-03,1.91E-02
61844,5.66E-03,1.91E-02
61845,5.62E-03,1.92E-02
61846,5.65E-03,1.92E-02
61847,5.56E-03,1.93E-02
61848,5.58E-03,1.93E-02
61849,5.59E-03,1.94E-02
61850,5.56E-03,1.93E-02
61851,5.61E-03,1.94E-02
61852,5.63E-03,1.94E-02
61853,5.65E-03,1.95E-02
61854,5.64E-03,1.95E-02
61855,5.63E-03,1.95E-02
61856,5.67E-03,1.95E-02
61857,5.56E-03,1.96E-02
61858,5.61E-03,1.96E-02
61859,5.51E-03,1.96E-02
61860,5.53E-03,1.96E-02
61861,5.42E-03,1.96E-02
61862,5.43E-03,1.96E-02
61863,5.55E-03,1.97E-02
61864,5.51E-03,1.97E-02
61865,5.61E-03,1.97E-02
61866,5.59E-03,1.97E-02
61867,5.64E-03,1.96E-02
61868,5.63E-03,1.96E-02
61869,5.57E-03,1.96E-02
61870,5.58E-03,1.96E-02
61871,5.48E-03,1.96E-02
61872,5.53E-03,1.96E-02
61873,5.50E-03,1.95E-02
61874,5.45E-03,1.96E-02
61875,5.51E-03,1.95E-02
61876,5.55E-03,1.95E-02
61877,5.62E-03,1.94E-02
61878,5.60E-03,1.94E-02
61879,5.57E-03,1.93E-02
61880,5.59E-03,1.94E-02
61881,5.61E-03,1.92E-02
61882,5.58E-03,1.93E-02
61883,5.69E-03,1.91E-02
61884,5.66E-03,1.92E-02
61885,5.78E-03,1.90E-02
61886,5.73E-03,1.90E-02
61887,5.80E-03,1.89E-02
61888,5.81E-03,1.89E-02
61889,5.73E-03,1.87E-02
61890,5.77E-03,1.88E-02
61891,5.69E-03,1.85E-02
61892,5.70E-03,1.86E-02
61893,5.67E-03,1.84E-02
61894,5.71E-03,1.85E-02
61895,5.65E-03,1.82E-02
61896,5.66E-03,1.83E-02
61897,5.48E-03,1.80E-02
61898,5.57E-03,1.81E-02
61899,5.47E-03,1.77E-02
61900,5.50E-03,1.79E-02
61901,5.46E-03,1.75E-02
61902,5.46E-03,1.76E-02
61903,5.50E-03,1.73E-02
61904,5.51E-03,1.74E-02
61905,5.56E-03,1.70E-02
61906,5.52E-03,1.72E-02
61907,5.63E-03,1.68E-02
61908,5.58E-03,1.69E-02
61909,5.56E-03,1.65E-02
61910,5.55E-03,1.66E-02
61911,5.56E-03,1.62E-02
61912,5.59E-03,1.63E-02
61913,5.61E-03,1.59E-02
61914,5.61E-03,1.61E-02
61915,5.67E-03,1.56E-02
61916,5.68E-03,1.58E-02
61917,5.77E-03,1.53E-02
61918,5.66E-03,1.55E-02
61919,5.66E-03,1.50E-02
61920,5.69E-03,1.52E-02
61921,5.60E-03,1.47E-02
61922,5.65E-03,1.49E-02
61923,5.67E-03,1.44E-02
61924,5.63E-03,1.46E-02
61925,5.64E-03,1.41E-02
61926,5.66E-03,1.43E-02
61927,5.60E-03,1.38E-02
61928,5.67E-03,1.40E-02
61929,5.58E-03,1.35E-02
61930,5.58E-03,1.37E-02
61931,5.57E-03,1.32E-02
61932,5.55E-03,1.34E-02
61933,5.65E-03,1.29E-02
61934,5.62E-03,1.30E-02
61935,5.66E-03,1.26E-02
61936,5.65E-03,1.27E-02
61937,5.63E-03,1.23E-02
61938,5.66E-03,1.24E-02
61939,5.57E-03,1.20E-02
61940,5.61E-03,1.21E-02
61941,5.60E-03,1.17E-02
61942,5.58E-03,1.18E-02
61943,5.69E-03,1.14E-02
61944,5.62E-03,1.15E-02
61945,5.77E-03,1.11E-02
61946,5.75E-03,1.12E-02
61947,5.76E-03,1.08E-02
61948,5.83E-03,1.09E-02
61949,5.44E-03,1.05E-02
61950,5.58E-03,1.06E-02
61951,5.61E-03,1.02E-02
61952,5.43E-03,1.03E-02
61953,5.88E-03,9.90E-03
61954,5.79E-03,1.00E-02
61955,5.75E-03,9.61E-03
61956,5.85E-03,9.75E-03
61957,5.78E-03,9.49E-03
61958,5.14E-03,3.74E-03
61959,5.09E-03,3.75E-03
61960,5.07E-03,3.73E-03
61961,5.11E-03,3.73E-03
61962,5.22E-03,3.75E-03
61963,5.16E-03,3.74E-03
61964,5.36E-03,3.78E-03
61965,5.29E-03,3.76E-03
61966,5.50E-03,3.81E-03
61967,5.42E-03,3.79E-03
61968,5.45E-03,3.85E-03
61969,5.45E-03,3.83E-03
61970,5.36E-03,3.87E-03
61971,5.41E-03,3.86E-03
61972,5.37E-03,3.90E-03
61973,5.35E-03,3.89E-03
61974,5.36E-03,3.97E-03
61975,5.37E-03,3.93E-03
61976,5.34E-03,4.05E-03
61977,5.35E-03,4.01E-03
61978,5.40E-03,4.11E-03
61979,5.36E-03,4.08E-03
61980,5.36E-03,4.18E-03
61981,5.40E-03,4.14E-03
61982,5.36E-03,4.28E-03
61983,5.33E-03,4.23E-03
61984,5.48E-03,4.38E-03
61985,5.44E-03,4.33E-03
61986,5.56E-03,4.49E-03
61987,5.52E-03,4.44E-03
61988,5.56E-03,4.61E-03
61989,5.56E-03,4.54E-03
61990,5.61E-03,4.73E-03
61991,5.58E-03,4.67E-03
61992,5.71E-03,4.84E-03
61993,5.65E-03,4.79E-03
61994,5.83E-03,4.96E-03
61995,5.81E-03,4.90E-03
61996,5.77E-03,5.09E-03
61997,5.75E-03,5.03E-03
61998,5.84E-03,5.23E-03
61999,5.81E-03,5.16E-03
62000,5.93E-03,5.37E-03
62001,5.90E-03,5.30E-03
62002,5.99E-03,5.51E-03
62003,5.98E-03,5.44E-03
62004,6.05E-03,5.66E-03
62005,6.00E-03,5.58E-03
62006,6.18E-03,5.81E-03
62007,6.10E-03,5.74E-03
62008,6.27E-03,5.96E-03
62009,6.23E-03,5.89E-03
62010,6.34E-03,6.12E-03
62011,6.32E-03,6.04E-03
62012,6.40E-03,6.26E-03
62013,6.31E-03,6.19E-03
62014,6.21E-03,6.38E-03
62015,6.30E-03,6.32E-03
62016,6.03E-03,6.51E-03
62017,6.15E-03,6.44E-03
62018,5.92E-03,6.65E-03
62019,5.94E-03,6.58E-03
62020,5.85E-03,6.81E-03
62021,5.85E-03,6.72E-03
62022,5.93E-03,6.97E-03
62023,5.87E-03,6.89E-03
62024,5.87E-03,7.12E-03
62025,5.92E-03,7.04E-03
62026,5.84E-03,7.29E-03
62027,5.86E-03,7.20E-03
62028,5.71E-03,7.48E-03
62029,5.74E-03,7.38E-03
62030,5.66E-03,7.68E-03
62031,5.68E-03,7.58E-03
62032,5.61E-03,7.90E-03
62033,5.64E-03,7.78E-03
62034,5.47E-03,8.11E-03
62035,5.52E-03,8.00E-03
62036,5.45E-03,8.34E-03
62037,5.48E-03,8.22E-03
62038,5.47E-03,8.62E-03
62039,5.45E-03,8.48E-03
62040,5.48E-03,8.92E-03
62041,5.50E-03,8.77E-03
62042,5.63E-03,9.24E-03
62043,5.58E-03,9.08E-03
62044,5.73E-03,9.57E-03
62045,5.67E-03,9.41E-03
62046,5.64E-03,9.90E-03
62047,5.71E-03,9.73E-03
62048,5.57E-03,1.03E-02
62049,5.60E-03,1.01E-02
62050,5.87E-03,1.06E-02
62051,5.76E-03,1.04E-02
62052,5.48E-03,1.10E-02
62053,5.45E-03,1.08E-02
62054,5.81E-03,1.12E-02
62055,5.32E-03,1.17E-02
62056,5.42E-03,9.14E-03
62057,5.17E-03,9.22E-03
62058,5.60E-03,9.08E-03
62059,5.33E-03,9.10E-03
62060,5.70E-03,9.04E-03
62061,5.84E-03,9.07E-03
62062,5.46E-03,8.96E-03
62063,5.54E-03,9.02E-03
62064,5.44E-03,8.90E-03
62065,5.28E-03,8.92E-03
62066,5.39E-03,8.83E-03
62067,5.45E-03,8.87E-03
62068,5.36E-03,8.77E-03
62069,5.37E-03,8.80E-03
62070,5.31E-03,8.70E-03
62071,5.30E-03,8.73E-03
62072,5.32E-03,8.63E-03
62073,5.29E-03,8.67E-03
62074,5.35E-03,8.55E-03
62075,5.35E-03,8.59E-03
62076,5.30E-03,8.49E-03
62077,5.36E-03,8.52E-03
62078,5.36E-03,8.42E-03
62079,5.37E-03,8.46E-03
62080,5.47E-03,8.37E-03
62081,5.44E-03,8.39E-03
62082,5.61E-03,8.35E-03
62083,4.95E-03,8.19E-03
62084,4.87E-03,8.20E-03
62085,5.17E-03,8.16E-03
62086,5.06E-03,8.18E-03
62087,5.28E-03,8.13E-03
62088,5.25E-03,8.14E-03
62089,5.21E-03,8.10E-03
62090,5.21E-03,8.11E-03
62091,5.27E-03,8.08E-03
62092,5.20E-03,8.09E-03
62093,5.35E-03,8.07E-03
62094,5.28E-03,8.07E-03
62095,5.38E-03,8.06E-03
62096,5.37E-03,8.06E-03
62097,5.34E-03,8.06E-03
62098,5.38E-03,8.06E-03
62099,5.16E-03,8.05E-03
62100,5.20E-03,8.06E-03
62101,5.06E-03,8.06E-03
62102,5.12E-03,8.06E-03
62103,5.09E-03,8.08E-03
62104,5.06E-03,8.07E-03
62105,5.09E-03,8.09E-03
62106,5.07E-03,8.08E-03
62107,5.06E-03,8.10E-03
62108,5.07E-03,8.09E-03
62109,5.10E-03,8.12E-03
62110,5.11E-03,8.11E-03
62111,5.14E-03,8.15E-03
62112,5.14E-03,8.13E-03
62113,5.14E-03,8.19E-03
62114,5.11E-03,8.17E-03
62115,5.20E-03,8.24E-03
62116,5.16E-03,8.22E-03
62117,5.28E-03,8.29E-03
62118,5.29E-03,8.26E-03
62119,5.42E-03,8.32E-03
62120,5.34E-03,8.31E-03
62121,5.59E-03,8.34E-03
62122,4.86E-03,8.63E-03
62123,5.02E-03,8.53E-03
62124,4.62E-03,8.86E-03
62125,4.69E-03,8.75E-03
62126,4.36E-03,8.90E-03
62127,4.32E-03,9.55E-03
62128,4.24E-03,9.39E-03
62129,4.02E-03,1.00E-02
62130,4.11E-03,9.76E-03
62131,4.43E-03,1.06E-02
62132,4.34E-03,1.03E-02
62133,4.75E-03,1.12E-02
62134,4.62E-03,1.09E-02
62135,5.06E-03,1.19E-02
62136,5.01E-03,1.15E-02
62137,5.24E-03,1.26E-02
62138,5.17E-03,1.22E-02
62139,5.46E-03,1.35E-02
62140,5.42E-03,1.30E-02
62141,5.51E-03,1.43E-02
62142,5.51E-03,1.39E-02
62143,5.53E-03,1.53E-02
62144,5.55E-03,1.48E-02
62145,5.49E-03,1.62E-02
62146,5.50E-03,1.57E-02
62147,5.49E-03,1.71E-02
62148,5.47E-03,1.67E-02
62149,5.57E-03,1.81E-02
62150,5.52E-03,1.76E-02
62151,5.52E-03,1.92E-02
62152,5.53E-03,1.86E-02
62153,5.44E-03,2.03E-02
62154,5.48E-03,1.97E-02
62155,5.39E-03,2.14E-02
62156,5.43E-03,2.08E-02
62157,5.32E-03,2.25E-02
62158,5.37E-03,2.19E-02
62159,5.27E-03,2.37E-02
62160,5.30E-03,2.31E-02
62161,5.24E-03,2.49E-02
62162,5.23E-03,2.43E-02
62163,5.16E-03,2.60E-02
62164,5.24E-03,2.54E-02
62165,4.67E-03,2.71E-02
62166,4.17E-03,2.65E-02
62167,5.52E-03,2.82E-02
62168,6.14E-03,2.76E-02
62169,4.95E-03,2.87E-02
62170,6.83E-03,2.93E-02
62171,5.26E-03,3.17E-02
62172,5.43E-03,3.14E-02
62173,5.10E-03,3.21E-02
62174,5.13E-03,3.19E-02
62175,5.02E-03,3.24E-02
62176,5.07E-03,3.22E-02
62177,5.05E-03,3.25E-02
62178,5.01E-03,3.25E-02
62179,5.08E-03,3.26E-02
62180,5.09E-03,3.26E-02
62181,5.14E-03,3.26E-02
62182,5.11E-03,3.27E-02
62183,5.05E-03,3.26E-02
62184,5.09E-03,3.26E-02
62185,5.02E-03,3.24E-02
62186,5.03E-03,3.25E-02
62187,5.00E-03,3.23E-02
62188,5.02E-03,3.23E-02
62189,5.01E-03,3.20E-02
62190,4.97E-03,3.22E-02
62191,4.94E-03,3.18E-02
62192,5.02E-03,3.19E-02
62193,4.98E-03,3.15E-02
62194,4.94E-03,3.16E-02
62195,4.84E-03,3.11E-02
62196,5.01E-03,3.13E-02
62197,4.58E-03,3.09E-02
62198,4.55E-03,3.10E-02
62199,4.83E-03,3.05E-02
62200,4.69E-03,3.07E-02
62201,4.98E-03,3.01E-02
62202,4.91E-03,3.03E-02
62203,5.56E-03,2.96E-02
62204,5.06E-03,2.99E-02
62205,4.81E-03,2.91E-02
62206,5.36E-03,2.93E-02
62207,4.77E-03,2.87E-02
62208,4.53E-03,2.90E-02
62209,5.06E-03,2.82E-02
62210,4.99E-03,2.85E-02
62211,4.76E-03,2.77E-02
62212,4.99E-03,2.80E-02
62213,5.11E-03,2.71E-02
62214,4.85E-03,2.74E-02
62215,5.43E-03,2.66E-02
62216,5.33E-03,2.69E-02
62217,5.43E-03,2.60E-02
62218,5.45E-03,2.63E-02
62219,5.40E-03,2.54E-02
62220,5.43E-03,2.57E-02
62221,5.36E-03,2.48E-02
62222,5.41E-03,2.51E-02
62223,5.37E-03,2.42E-02
62224,5.39E-03,2.45E-02
62225,5.32E-03,2.36E-02
62226,5.29E-03,2.39E-02
62227,5.40E-03,2.30E-02
62228,5.39E-03,2.33E-02
62229,5.44E-03,2.24E-02
62230,5.40E-03,2.27E-02
62231,5.44E-03,2.18E-02
62232,5.44E-03,2.21E-02
62233,5.53E-03,2.11E-02
62234,5.52E-03,2.14E-02
62235,5.68E-03,2.05E-02
62236,5.56E-03,2.08E-02
62237,5.39E-03,1.99E-02
62238,6.06E-03,2.02E-02
62239,4.72E-03,1.92E-02
62240,4.83E-03,1.95E-02
62241,4.96E-03,1.87E-02
62242,4.88E-03,1.90E-02
62243,5.13E-03,1.81E-02
62244,5.10E-03,1.84E-02
62245,5.26E-03,1.75E-02
62246,5.17E-03,1.78E-02
62247,5.46E-03,1.70E-02
62248,5.36E-03,1.72E-02
62249,5.62E-03,1.67E-02
62250,4.91E-03,1.53E-02
62251,4.81E-03,1.55E-02
62252,5.09E-03,1.47E-02
62253,5.03E-03,1.50E-02
62254,5.16E-03,1.42E-02
62255,5.16E-03,1.45E-02
62256,5.12E-03,1.37E-02
62257,5.11E-03,1.39E-02
62258,5.11E-03,1.32E-02
62259,5.15E-03,1.34E-02
62260,5.08E-03,1.27E-02
62261,5.15E-03,1.29E-02
62262,4.95E-03,1.22E-02
62263,5.03E-03,1.24E-02
62264,4.94E-03,1.18E-02
62265,4.92E-03,1.20E-02
62266,4.99E-03,1.13E-02
62267,4.95E-03,1.15E-02
62268,5.16E-03,1.09E-02
62269,5.08E-03,1.11E-02
62270,5.18E-03,1.05E-02
62271,5.21E-03,1.07E-02
62272,5.08E-03,1.01E-02
62273,5.12E-03,1.03E-02
62274,5.12E-03,9.68E-03
62275,5.07E-03,9.87E-03
62276,5.18E-03,9.32E-03
62277,5.11E-03,9.50E-03
62278,5.20E-03,8.98E-03
62279,5.18E-03,9.15E-03
62280,5.23E-03,8.64E-03
62281,5.20E-03,8.81E-03
62282,5.26E-03,8.31E-03
62283,5.25E-03,8.47E-03
62284,5.33E-03,8.01E-03
62285,5.27E-03,8.16E-03
62286,5.45E-03,7.72E-03
62287,5.36E-03,7.87E-03
62288,5.50E-03,7.44E-03
62289,5.50E-03,7.58E-03
62290,5.43E-03,7.16E-03
62291,5.44E-03,7.30E-03
62292,5.38E-03,6.88E-03
62293,5.41E-03,7.02E-03
62294,5.42E-03,6.63E-03
62295,5.40E-03,6.76E-03
62296,5.40E-03,6.39E-03
62297,5.42E-03,6.51E-03
62298,5.41E-03,6.15E-03
62299,5.41E-03,6.27E-03
62300,5.46E-03,5.95E-03
62301,5.43E-03,6.05E-03
62302,5.52E-03,5.74E-03
62303,5.49E-03,5.84E-03
62304,5.48E-03,5.53E-03
62305,5.55E-03,5.63E-03
62306,5.44E-03,5.35E-03
62307,5.42E-03,5.44E-03
62308,5.41E-03,5.18E-03
62309,5.41E-03,5.27E-03
62310,5.44E-03,5.02E-03
62311,5.43E-03,5.10E-03
62312,5.49E-03,4.87E-03
62313,5.45E-03,4.94E-03
62314,5.50E-03,4.80E-03
62315,5.45E-03,4.61E-03
62316,5.46E-03,4.68E-03
62317,5.40E-03,4.48E-03
62318,5.40E-03,4.55E-03
62319,5.38E-03,4.35E-03
62320,5.41E-03,4.41E-03
62321,5.41E-03,4.26E-03
62322,5.38E-03,4.30E-03
62323,5.40E-03,4.18E-03
62324,5.41E-03,4.22E-03
62325,5.49E-03,4.09E-03
62326,5.46E-03,4.13E-03
62327,5.30E-03,1.21E-02
62328,5.17E-03,1.23E-02
62329,5.59E-03,1.16E-02
62330,5.50E-03,1.18E-02
62331,5.73E-03,1.11E-02
62332,5.61E-03,1.13E-02
62333,5.86E-03,1.06E-02
62334,5.82E-03,1.08E-02
62335,5.72E-03,1.00E-02
62336,5.85E-03,1.03E-02
62337,5.45E-03,9.47E-03
62338,5.50E-03,9.74E-03
62339,5.47E-03,8.94E-03
62340,5.39E-03,9.21E-03
62341,5.64E-03,8.38E-03
62342,5.55E-03,8.66E-03
62343,5.66E-03,7.83E-03
62344,5.67E-03,8.10E-03
62345,5.75E-03,7.25E-03
62346,5.65E-03,7.55E-03
62347,5.35E-03,6.67E-03
62348,5.59E-03,6.95E-03
62349,5.08E-03,6.07E-03
62350,5.15E-03,6.37E-03
62351,5.26E-03,5.52E-03
62352,5.15E-03,5.80E-03
62353,5.37E-03,4.95E-03
62354,5.33E-03,5.24E-03
62355,5.42E-03,4.36E-03
62356,5.43E-03,4.66E-03
62357,5.35E-03,3.75E-03
62358,5.36E-03,4.06E-03
62359,4.34E-03,1.48E-02
62360,4.51E-03,1.46E-02
62361,6.40E-03,1.98E-02
62362,5.75E-03,1.72E-02
62363,5.29E-03,1.55E-02
62364,4.39E-03,1.37E-02
62365,4.49E-03,1.22E-02
62366,4.87E-03,1.31E-02
62367,5.22E-03,2.50E-02
62368,5.37E-03,1.56E-02
62369,6.25E-03,1.36E-02
62370,5.73E-03,1.80E-02
62371,5.84E-03,1.78E-02
62372,5.27E-03,1.78E-02
62373,5.48E-03,1.79E-02
62374,4.48E-03,1.16E-02
62375,4.54E-03,1.11E-02
62376,4.89E-03,1.34E-02
62377,4.95E-03,1.32E-02
62378,4.34E-03,1.23E-02
62379,4.99E-03,1.27E-02
62380,4.79E-03,1.12E-02
62381,5.53E-03,9.43E-03
62382,5.48E-03,9.27E-03
62383,5.35E-03,1.02E-02
62384,5.09E-03,1.88E-02
62385,5.21E-03,1.91E-02
62386,4.67E-03,1.69E-02
62387,4.76E-03,1.71E-02
62388,5.06E-03,1.90E-02
62389,5.16E-03,1.85E-02
62390,5.02E-03,1.71E-02
62391,4.84E-03,1.69E-02
62392,6.90E-03,2.75E-02
62393,6.77E-03,2.74E-02
62394,6.24E-03,2.57E-02
62395,5.85E-03,2.53E-02
62396,6.26E-03,2.52E-02
62397,6.43E-03,2.56E-02
62398,6.29E-03,2.48E-02
62399,5.86E-03,7.98E-03
62400,5.59E-03,8.08E-03
62401,5.66E-03,3.15E-02
62402,5.26E-03,1.56E-02
62403,4.85E-03,1.25E-02
62404,4.02E-03,1.44E-02
62405,4.92E-03,1.74E-02
62406,6.35E-03,2.61E-02
62407,6.77E-03,2.68E-02
62408,4.72E-03,1.32E-02
62409,4.31E-03,1.19E-02
62410,5.47E-03,4.34E-03
62411,5.51E-03,4.05E-03
62412,6.18E-03,1.38E-02
62413,5.64E-03,1.79E-02
62414,5.85E-03,1.77E-02
62415,5.18E-03,1.77E-02
62416,5.50E-03,1.79E-02
62417,3.89E-03,1.69E-02
62418,4.16E-03,1.69E-02
62419,5.09E-03,1.75E-02
62420,5.14E-03,1.61E-02
62421,4.38E-03,1.09E-02
62422,4.92E-03,1.28E-02
62423,4.07E-03,1.20E-02
62424,5.01E-03,1.28E-02
62425,4.14E-03,1.15E-02
62426,4.76E-03,9.79E-03
62427,5.40E-03,9.50E-03
62428,5.33E-03,9.95E-03
62429,4.95E-03,1.85E-02
62430,5.21E-03,1.93E-02
62431,5.50E-03,1.96E-02
62432,5.59E-03,1.97E-02
62433,4.95E-03,1.95E-02
62434,4.45E-03,1.69E-02
62435,4.74E-03,1.74E-02
62436,4.94E-03,1.92E-02
62437,5.07E-03,1.82E-02
62438,6.91E-03,2.72E-02
62439,6.65E-03,2.70E-02
62440,5.57E-03,2.52E-02
62441,5.69E-03,2.54E-02
62442,6.17E-03,2.51E-02
62443,6.40E-03,2.59E-02
62444,6.20E-03,2.49E-02
62445,5.25E-03,1.16E-02
62446,5.31E-03,1.20E-02
62447,5.14E-03,1.31E-02
62448,5.64E-03,1.70E-02
62449,4.34E-03,1.46E-02
62450,5.56E-03,1.79E-02
62451,5.90E-03,1.75E-02
62452,5.54E-03,1.79E-02
62453,4.84E-03,1.93E-02
62454,5.58E-03,1.07E-02
62455,4.48E-03,1.64E-02
62456,4.98E-03,1.66E-02
62457,5.26E-03,1.68E-02
62458,5.34E-03,1.59E-02
62459,5.22E-03,1.52E-02
62460,4.94E-03,1.49E-02
62461,5.68E-03,1.34E-02
62462,3.77E-03,1.42E-02
62463,3.26E-03,1.41E-02
62464,5.22E-03,1.53E-02
62465,4.11E-03,1.49E-02
62466,4.83E-03,1.60E-02
62467,5.11E-03,1.69E-02
62468,4.28E-03,1.67E-02
62469,5.04E-03,1.63E-02
62470,4.20E-03,1.07E-02
62471,4.81E-03,1.25E-02
62472,3.80E-03,1.17E-02
62473,5.18E-03,1.28E-02
62474,4.36E-03,1.01E-02
62475,5.35E-03,9.72E-03
62476,4.84E-03,1.83E-02
62477,5.27E-03,1.94E-02
62478,4.32E-03,1.69E-02
62479,4.73E-03,1.77E-02
62480,5.00E-03,1.80E-02
62481,6.51E-03,2.67E-02
62482,6.13E-03,2.50E-02
62483,6.55E-03,2.63E-02
62484,5.30E-03,9.23E-03
62485,5.57E-03,9.12E-03
62486,5.30E-03,3.76E-03
62487,5.33E-03,3.45E-03
62488,5.33E-03,3.46E-03
62489,5.55E-03,1.79E-02
62490,5.82E-03,1.73E-02
62491,5.29E-03,1.56E-02
62492,3.78E-03,1.39E-02
62493,3.63E-03,1.47E-02
62494,4.23E-03,1.04E-02
62495,3.98E-03,8.56E-03
62496,4.64E-03,1.22E-02
62497,4.98E-03,1.29E-02
62498,4.75E-03,1.80E-02
62499,5.46E-03,4.92E-03
62500,5.44E-03,4.63E-03
62501,5.37E-03,5.48E-03
62502,5.38E-03,5.20E-03
62503,5.41E-03,6.06E-03
62504,5.40E-03,5.77E-03
62505,5.44E-03,6.64E-03
62506,5.44E-03,6.35E-03
62507,5.50E-03,7.23E-03
62508,5.48E-03,6.94E-03
62509,5.46E-03,7.81E-03
62510,5.46E-03,7.52E-03
62511,5.48E-03,8.38E-03
62512,5.47E-03,8.09E-03
62513,5.50E-03,8.94E-03
62514,5.46E-03,8.66E-03
62515,5.42E-03,9.47E-03
62516,5.50E-03,9.21E-03
62517,5.38E-03,1.00E-02
62518,5.39E-03,9.74E-03
62519,5.37E-03,1.06E-02
62520,5.40E-03,1.03E-02
62521,5.51E-03,1.11E-02
62522,5.40E-03,1.08E-02
62523,5.60E-03,1.16E-02
62524,5.59E-03,1.13E-02
62525,5.67E-03,1.21E-02
62526,5.65E-03,1.18E-02
62527,5.74E-03,1.26E-02
62528,5.79E-03,1.23E-02
62529,6.63E-03,1.31E-02
62530,5.94E-03,1.28E-02
62531,6.74E-03,1.33E-02
62532,5.81E-03,1.79E-02
62533,5.37E-03,1.79E-02
62534,2.96E-03,1.74E-02
62535,3.71E-03,1.73E-02
62536,3.67E-03,1.70E-02
62537,4.50E-03,1.14E-02
62538,4.96E-03,1.33E-02
62539,4.60E-03,1.25E-02
62540,5.02E-03,1.10E-02
62541,5.56E-03,9.35E-03
62542,5.68E-03,1.04E-02
62543,5.18E-03,1.89E-02
62544,4.73E-03,1.70E-02
62545,5.11E-03,1.88E-02
62546,5.27E-03,1.71E-02
62547,6.80E-03,2.74E-02
62548,6.06E-03,2.55E-02
62549,6.33E-03,2.54E-02
62550,6.81E-03,2.49E-02
62551,5.74E-03,1.21E-02
62552,5.10E-03,1.21E-02
62553,5.55E-03,1.22E-02
62554,5.75E-03,1.21E-02
62555,5.57E-03,1.23E-02
62556,5.50E-03,1.22E-02
62557,5.63E-03,1.24E-02
62558,5.65E-03,1.23E-02
62559,5.50E-03,1.25E-02
62560,5.57E-03,1.24E-02
62561,5.59E-03,1.26E-02
62562,5.55E-03,1.25E-02
62563,5.59E-03,1.28E-02
62564,5.65E-03,1.27E-02
62565,5.56E-03,1.29E-02
62566,5.56E-03,1.28E-02
62567,5.53E-03,1.31E-02
62568,5.54E-03,1.30E-02
62569,5.54E-03,1.32E-02
62570,5.54E-03,1.31E-02
62571,5.58E-03,1.34E-02
62572,5.55E-03,1.33E-02
62573,5.63E-03,1.36E-02
62574,5.64E-03,1.35E-02
62575,5.56E-03,1.38E-02
62576,5.60E-03,1.37E-02
62577,5.58E-03,1.40E-02
62578,5.55E-03,1.39E-02
62579,5.63E-03,1.42E-02
62580,5.61E-03,1.41E-02
62581,5.53E-03,1.44E-02
62582,5.57E-03,1.43E-02
62583,5.49E-03,1.46E-02
62584,5.51E-03,1.45E-02
62585,5.53E-03,1.48E-02
62586,5.51E-03,1.47E-02
62587,5.61E-03,1.50E-02
62588,5.58E-03,1.49E-02
62589,5.63E-03,1.52E-02
62590,5.65E-03,1.51E-02
62591,5.63E-03,1.54E-02
62592,5.63E-03,1.53E-02
62593,5.58E-03,1.56E-02
62594,5.56E-03,1.55E-02
62595,5.59E-03,1.58E-02
62596,5.60E-03,1.57E-02
62597,5.57E-03,1.60E-02
62598,5.62E-03,1.59E-02
62599,5.52E-03,1.62E-02
62600,5.53E-03,1.61E-02
62601,5.50E-03,1.64E-02
62602,5.52E-03,1.63E-02
62603,5.56E-03,1.66E-02
62604,5.50E-03,1.65E-02
62605,5.67E-03,1.68E-02
62606,5.62E-03,1.67E-02
62607,5.69E-03,1.70E-02
62608,5.70E-03,1.69E-02
62609,5.58E-03,1.72E-02
62610,5.63E-03,1.71E-02
62611,5.49E-03,1.74E-02
62612,5.51E-03,1.73E-02
62613,5.42E-03,1.76E-02
62614,5.44E-03,1.75E-02
62615,5.52E-03,1.78E-02
62616,5.48E-03,1.77E-02
62617,5.64E-03,1.79E-02
62618,5.58E-03,1.78E-02
62619,5.66E-03,1.81E-02
62620,5.64E-03,1.80E-02
62621,5.64E-03,1.83E-02
62622,5.67E-03,1.82E-02
62623,5.62E-03,1.84E-02
62624,5.62E-03,1.83E-02
62625,5.58E-03,1.86E-02
62626,5.60E-03,1.85E-02
62627,5.61E-03,1.87E-02
62628,5.63E-03,1.86E-02
62629,5.56E-03,1.88E-02
62630,5.57E-03,1.88E-02
62631,5.50E-03,1.90E-02
62632,5.51E-03,1.89E-02
62633,5.51E-03,1.91E-02
62634,5.51E-03,1.90E-02
62635,5.55E-03,1.92E-02
62636,5.51E-03,1.91E-02
62637,5.65E-03,1.93E-02
62638,5.63E-03,1.92E-02
62639,5.56E-03,1.94E-02
62640,5.61E-03,1.93E-02
62641,5.56E-03,1.95E-02
62642,5.57E-03,1.94E-02
62643,5.55E-03,1.95E-02
62644,5.55E-03,1.95E-02
62645,5.56E-03,1.96E-02
62646,5.62E-03,1.96E-02
62647,5.61E-03,1.96E-02
62648,5.60E-03,1.96E-02
62649,5.70E-03,1.97E-02
62650,5.68E-03,1.97E-02
62651,5.65E-03,1.97E-02
62652,5.66E-03,1.97E-02
62653,5.53E-03,1.97E-02
62654,5.61E-03,1.97E-02
62655,5.47E-03,1.98E-02
62656,5.49E-03,1.98E-02
62657,5.53E-03,1.98E-02
62658,5.48E-03,1.98E-02
62659,5.63E-03,1.97E-02
62660,5.56E-03,1.98E-02
62661,5.65E-03,1.97E-02
62662,5.66E-03,1.97E-02
62663,5.55E-03,1.97E-02
62664,5.58E-03,1.97E-02
62665,5.53E-03,1.96E-02
62666,5.52E-03,1.97E-02
62667,5.51E-03,1.96E-02
62668,5.53E-03,1.96E-02
62669,5.52E-03,1.95E-02
62670,5.51E-03,1.96E-02
62671,5.58E-03,1.94E-02
62672,5.61E-03,1.95E-02
62673,5.56E-03,1.94E-02
62674,5.54E-03,1.94E-02
62675,5.60E-03,1.93E-02
62676,5.55E-03,1.93E-02
62677,5.74E-03,1.91E-02
62678,5.69E-03,1.92E-02
62679,5.80E-03,1.90E-02
62680,5.74E-03,1.91E-02
62681,5.80E-03,1.89E-02
62682,5.84E-03,1.89E-02
62683,5.72E-03,1.87E-02
62684,5.79E-03,1.88E-02
62685,5.63E-03,1.85E-02
62686,5.70E-03,1.86E-02
62687,5.61E-03,1.84E-02
62688,5.64E-03,1.85E-02
62689,5.53E-03,1.82E-02
62690,5.56E-03,1.83E-02
62691,5.48E-03,1.80E-02
62692,5.53E-03,1.81E-02
62693,5.50E-03,1.77E-02
62694,5.49E-03,1.78E-02
62695,5.44E-03,1.75E-02
62696,5.47E-03,1.76E-02
62697,5.51E-03,1.72E-02
62698,5.47E-03,1.74E-02
62699,5.61E-03,1.70E-02
62700,5.56E-03,1.71E-02
62701,5.61E-03,1.67E-02
62702,5.57E-03,1.68E-02
62703,5.55E-03,1.64E-02
62704,5.55E-03,1.66E-02
62705,5.56E-03,1.61E-02
62706,5.59E-03,1.63E-02
62707,5.63E-03,1.59E-02
62708,5.59E-03,1.60E-02
62709,5.72E-03,1.56E-02
62710,5.70E-03,1.57E-02
62711,5.72E-03,1.52E-02
62712,5.78E-03,1.54E-02
62713,5.62E-03,1.49E-02
62714,5.67E-03,1.51E-02
62715,5.67E-03,1.46E-02
62716,5.64E-03,1.48E-02
62717,5.67E-03,1.43E-02
62718,5.65E-03,1.45E-02
62719,5.62E-03,1.40E-02
62720,5.63E-03,1.42E-02
62721,5.57E-03,1.37E-02
62722,5.61E-03,1.39E-02
62723,5.56E-03,1.34E-02
62724,5.54E-03,1.36E-02
62725,5.57E-03,1.31E-02
62726,5.56E-03,1.33E-02
62727,5.61E-03,1.28E-02
62728,5.63E-03,1.29E-02
62729,5.63E-03,1.25E-02
62730,5.60E-03,1.26E-02
62731,5.61E-03,1.22E-02
62732,5.64E-03,1.23E-02
62733,5.59E-03,1.19E-02
62734,5.59E-03,1.20E-02
62735,5.62E-03,1.16E-02
62736,5.57E-03,1.17E-02
62737,5.58E-03,1.13E-02
62738,5.65E-03,1.14E-02
62739,5.66E-03,1.10E-02
62740,5.65E-03,1.11E-02
62741,5.62E-03,1.07E-02
62742,5.69E-03,1.08E-02
62743,5.53E-03,1.04E-02
62744,5.63E-03,1.05E-02
62745,5.59E-03,1.01E-02
62746,5.59E-03,1.02E-02
62747,5.73E-03,9.80E-03
62748,5.69E-03,9.95E-03
62749,5.78E-03,9.52E-03
62750,5.73E-03,9.66E-03
62751,5.50E-03,9.39E-03
62752,5.19E-03,3.45E-03
62753,5.28E-03,3.45E-03
62754,5.17E-03,3.44E-03
62755,5.24E-03,3.45E-03
62756,5.22E-03,3.45E-03
62757,5.19E-03,3.45E-03
62758,5.31E-03,3.46E-03
62759,5.32E-03,3.45E-03
62760,5.48E-03,3.48E-03
62761,5.40E-03,3.47E-03
62762,5.53E-03,3.51E-03
62763,5.43E-03,3.50E-03
62764,5.48E-03,3.55E-03
62765,5.49E-03,3.53E-03
62766,5.39E-03,3.58E-03
62767,5.44E-03,3.56E-03
62768,5.41E-03,3.61E-03
62769,5.38E-03,3.59E-03
62770,5.35E-03,3.67E-03
62771,5.38E-03,3.63E-03
62772,5.41E-03,3.75E-03
62773,5.42E-03,3.71E-03
62774,5.37E-03,3.81E-03
62775,5.40E-03,3.78E-03
62776,5.33E-03,3.89E-03
62777,5.34E-03,3.85E-03
62778,5.38E-03,3.99E-03
62779,5.32E-03,3.94E-03
62780,5.49E-03,4.08E-03
62781,5.45E-03,4.04E-03
62782,5.58E-03,4.19E-03
62783,5.54E-03,4.13E-03
62784,5.55E-03,4.30E-03
62785,5.54E-03,4.24E-03
62786,5.62E-03,4.43E-03
62787,5.60E-03,4.37E-03
62788,5.74E-03,4.54E-03
62789,5.69E-03,4.48E-03
62790,5.75E-03,4.66E-03
62791,5.78E-03,4.59E-03
62792,5.79E-03,4.79E-03
62793,5.71E-03,4.72E-03
62794,5.79E-03,4.93E-03
62795,5.81E-03,4.86E-03
62796,5.86E-03,5.07E-03
62797,5.87E-03,5.00E-03
62798,5.95E-03,5.21E-03
62799,5.89E-03,5.14E-03
62800,5.96E-03,5.35E-03
62801,5.92E-03,5.28E-03
62802,6.04E-03,5.50E-03
62803,6.01E-03,5.43E-03
62804,6.12E-03,5.64E-03
62805,6.09E-03,5.57E-03
62806,6.17E-03,5.79E-03
62807,6.16E-03,5.72E-03
62808,6.14E-03,5.93E-03
62809,6.13E-03,5.86E-03
62810,6.09E-03,6.06E-03
62811,6.16E-03,5.99E-03
62812,5.93E-03,6.19E-03
62813,6.00E-03,6.12E-03
62814,5.92E-03,6.33E-03
62815,5.89E-03,6.26E-03
62816,5.90E-03,6.49E-03
62817,5.85E-03,6.41E-03
62818,5.82E-03,6.64E-03
62819,5.87E-03,6.56E-03
62820,5.85E-03,6.80E-03
62821,5.83E-03,6.72E-03
62822,5.77E-03,6.97E-03
62823,5.78E-03,6.88E-03
62824,5.71E-03,7.15E-03
62825,5.75E-03,7.06E-03
62826,5.70E-03,7.35E-03
62827,5.70E-03,7.25E-03
62828,5.63E-03,7.57E-03
62829,5.64E-03,7.46E-03
62830,5.51E-03,7.79E-03
62831,5.56E-03,7.68E-03
62832,5.45E-03,8.03E-03
62833,5.48E-03,7.91E-03
62834,5.46E-03,8.30E-03
62835,5.45E-03,8.16E-03
62836,5.54E-03,8.60E-03
62837,5.55E-03,8.45E-03
62838,5.62E-03,8.92E-03
62839,5.63E-03,8.76E-03
62840,5.68E-03,9.25E-03
62841,5.66E-03,9.09E-03
62842,5.66E-03,9.58E-03
62843,5.69E-03,9.42E-03
62844,5.66E-03,9.93E-03
62845,5.63E-03,9.76E-03
62846,5.63E-03,1.03E-02
62847,5.69E-03,1.01E-02
62848,5.55E-03,1.07E-02
62849,5.65E-03,1.05E-02
62850,6.16E-03,1.11E-02
62851,5.36E-03,1.09E-02
62852,5.48E-03,1.13E-02
62853,5.48E-03,9.00E-03
62854,5.30E-03,9.04E-03
62855,5.57E-03,8.92E-03
62856,5.52E-03,8.95E-03
62857,5.60E-03,8.88E-03
62858,5.59E-03,8.90E-03
62859,5.46E-03,8.82E-03
62860,5.49E-03,8.85E-03
62861,5.39E-03,8.74E-03
62862,5.44E-03,8.78E-03
62863,5.43E-03,8.68E-03
62864,5.46E-03,8.71E-03
62865,5.38E-03,8.61E-03
62866,5.40E-03,8.65E-03
62867,5.35E-03,8.54E-03
62868,5.31E-03,8.58E-03
62869,5.35E-03,8.46E-03
62870,5.34E-03,8.50E-03
62871,5.37E-03,8.39E-03
62872,5.38E-03,8.43E-03
62873,5.34E-03,8.32E-03
62874,5.36E-03,8.35E-03
62875,5.41E-03,8.25E-03
62876,5.39E-03,8.29E-03
62877,5.52E-03,8.19E-03
62878,5.46E-03,8.22E-03
62879,5.54E-03,8.14E-03
62880,5.61E-03,8.17E-03
62881,5.24E-03,8.08E-03
62882,5.40E-03,8.11E-03
62883,5.13E-03,8.01E-03
62884,5.16E-03,8.04E-03
62885,5.24E-03,7.97E-03
62886,5.17E-03,7.99E-03
62887,5.25E-03,7.93E-03
62888,5.28E-03,7.95E-03
62889,5.26E-03,7.89E-03
62890,5.27E-03,7.91E-03
62891,5.33E-03,7.87E-03
62892,5.26E-03,7.88E-03
62893,5.39E-03,7.84E-03
62894,5.32E-03,7.86E-03
62895,5.43E-03,7.83E-03
62896,5.40E-03,7.83E-03
62897,5.35E-03,7.82E-03
62898,5.41E-03,7.82E-03
62899,5.23E-03,7.81E-03
62900,5.26E-03,7.82E-03
62901,5.12E-03,7.81E-03
62902,5.15E-03,7.81E-03
62903,5.16E-03,7.82E-03
62904,5.15E-03,7.81E-03
62905,5.15E-03,7.82E-03
62906,5.15E-03,7.82E-03
62907,5.12E-03,7.82E-03
62908,5.14E-03,7.82E-03
62909,5.09E-03,7.83E-03
62910,5.12E-03,7.82E-03
62911,5.14E-03,7.85E-03
62912,5.12E-03,7.84E-03
62913,5.16E-03,7.88E-03
62914,5.19E-03,7.86E-03
62915,5.25E-03,7.91E-03
62916,5.18E-03,7.89E-03
62917,5.32E-03,7.95E-03
62918,5.33E-03,7.93E-03
62919,5.46E-03,7.97E-03
62920,5.41E-03,7.96E-03
62921,5.70E-03,7.97E-03
62922,5.05E-03,8.25E-03
62923,5.19E-03,8.16E-03
62924,4.63E-03,8.40E-03
62925,4.73E-03,8.33E-03
62926,4.26E-03,8.46E-03
62927,4.28E-03,9.19E-03
62928,4.00E-03,8.87E-03
62929,4.21E-03,9.01E-03
62930,4.32E-03,9.64E-03
62931,4.29E-03,9.39E-03
62932,4.57E-03,1.02E-02
62933,4.48E-03,9.90E-03
62934,4.83E-03,1.08E-02
62935,4.70E-03,1.05E-02
62936,5.07E-03,1.15E-02
62937,5.02E-03,1.12E-02
62938,5.26E-03,1.23E-02
62939,5.23E-03,1.19E-02
62940,5.42E-03,1.32E-02
62941,5.37E-03,1.27E-02
62942,5.51E-03,1.41E-02
62943,5.50E-03,1.36E-02
62944,5.47E-03,1.50E-02
62945,5.51E-03,1.45E-02
62946,5.45E-03,1.59E-02
62947,5.48E-03,1.54E-02
62948,5.47E-03,1.69E-02
62949,5.46E-03,1.64E-02
62950,5.51E-03,1.79E-02
62951,5.48E-03,1.74E-02
62952,5.56E-03,1.90E-02
62953,5.54E-03,1.84E-02
62954,5.45E-03,2.01E-02
62955,5.48E-03,1.95E-02
62956,5.43E-03,2.13E-02
62957,5.46E-03,2.07E-02
62958,5.40E-03,2.25E-02
62959,5.41E-03,2.18E-02
62960,5.26E-03,2.37E-02
62961,5.31E-03,2.31E-02
62962,5.24E-03,2.49E-02
62963,5.23E-03,2.43E-02
62964,4.93E-03,2.61E-02
62965,5.18E-03,2.55E-02
62966,4.79E-03,2.73E-02
62967,4.82E-03,2.66E-02
62968,5.15E-03,2.84E-02
62969,5.10E-03,2.78E-02
62970,4.48E-03,2.94E-02
62971,4.20E-03,2.89E-02
62972,5.27E-03,3.02E-02
62973,6.20E-03,2.98E-02
62974,3.98E-03,3.05E-02
62975,5.36E-03,3.21E-02
62976,5.46E-03,3.18E-02
62977,5.18E-03,3.25E-02
62978,5.23E-03,3.24E-02
62979,5.12E-03,3.28E-02
62980,5.11E-03,3.27E-02
62981,5.13E-03,3.30E-02
62982,5.13E-03,3.29E-02
62983,5.16E-03,3.30E-02
62984,5.16E-03,3.30E-02
62985,5.16E-03,3.30E-02
62986,5.15E-03,3.30E-02
62987,5.13E-03,3.29E-02
62988,5.13E-03,3.30E-02
62989,5.05E-03,3.28E-02
62990,5.09E-03,3.29E-02
62991,5.06E-03,3.26E-02
62992,5.04E-03,3.27E-02
62993,5.07E-03,3.23E-02
62994,5.06E-03,3.25E-02
62995,5.02E-03,3.21E-02
62996,5.04E-03,3.22E-02
62997,5.01E-03,3.17E-02
62998,5.00E-03,3.19E-02
62999,4.90E-03,3.14E-02
63000,4.94E-03,3.16E-02
63001,4.80E-03,3.11E-02
63002,4.81E-03,3.12E-02
63003,4.86E-03,3.07E-02
63004,4.78E-03,3.09E-02
63005,5.05E-03,3.03E-02
63006,4.98E-03,3.05E-02
63007,5.20E-03,2.98E-02
63008,5.18E-03,3.00E-02
63009,5.03E-03,2.93E-02
63010,5.18E-03,2.96E-02
63011,4.90E-03,2.88E-02
63012,4.92E-03,2.91E-02
63013,5.00E-03,2.83E-02
63014,4.99E-03,2.86E-02
63015,5.02E-03,2.78E-02
63016,4.99E-03,2.80E-02
63017,5.20E-03,2.72E-02
63018,5.09E-03,2.75E-02
63019,5.44E-03,2.66E-02
63020,5.34E-03,2.69E-02
63021,5.43E-03,2.60E-02
63022,5.48E-03,2.63E-02
63023,5.40E-03,2.54E-02
63024,5.46E-03,2.57E-02
63025,5.42E-03,2.48E-02
63026,5.39E-03,2.51E-02
63027,5.41E-03,2.42E-02
63028,5.40E-03,2.45E-02
63029,5.34E-03,2.35E-02
63030,5.39E-03,2.38E-02
63031,5.40E-03,2.29E-02
63032,5.37E-03,2.32E-02
63033,5.50E-03,2.23E-02
63034,5.45E-03,2.26E-02
63035,5.49E-03,2.17E-02
63036,5.46E-03,2.20E-02
63037,5.51E-03,2.10E-02
63038,5.48E-03,2.13E-02
63039,5.60E-03,2.04E-02
63040,5.54E-03,2.07E-02
63041,5.25E-03,1.98E-02
63042,5.53E-03,2.01E-02
63043,5.06E-03,1.91E-02
63044,5.17E-03,1.94E-02
63045,5.08E-03,1.86E-02
63046,5.05E-03,1.89E-02
63047,5.24E-03,1.80E-02
63048,5.15E-03,1.83E-02
63049,5.34E-03,1.74E-02
63050,5.30E-03,1.77E-02
63051,5.48E-03,1.68E-02
63052,5.40E-03,1.71E-02
63053,5.64E-03,1.65E-02
63054,5.09E-03,1.51E-02
63055,5.16E-03,1.53E-02
63056,5.17E-03,1.45E-02
63057,5.09E-03,1.48E-02
63058,5.20E-03,1.40E-02
63059,5.16E-03,1.43E-02
63060,5.12E-03,1.35E-02
63061,5.18E-03,1.37E-02
63062,5.16E-03,1.30E-02
63063,5.14E-03,1.32E-02
63064,5.17E-03,1.25E-02
63065,5.15E-03,1.27E-02
63066,5.10E-03,1.20E-02
63067,5.16E-03,1.22E-02
63068,5.02E-03,1.15E-02
63069,5.05E-03,1.18E-02
63070,5.09E-03,1.11E-02
63071,5.06E-03,1.13E-02
63072,5.14E-03,1.06E-02
63073,5.11E-03,1.08E-02
63074,5.13E-03,1.02E-02
63075,5.17E-03,1.04E-02
63076,5.12E-03,9.81E-03
63077,5.16E-03,1.00E-02
63078,5.14E-03,9.43E-03
63079,5.14E-03,9.61E-03
63080,5.19E-03,9.06E-03
63081,5.16E-03,9.24E-03
63082,5.24E-03,8.72E-03
63083,5.23E-03,8.89E-03
63084,5.26E-03,8.37E-03
63085,5.23E-03,8.54E-03
63086,5.27E-03,8.04E-03
63087,5.27E-03,8.20E-03
63088,5.37E-03,7.74E-03
63089,5.29E-03,7.89E-03
63090,5.51E-03,7.44E-03
63091,5.44E-03,7.59E-03
63092,5.44E-03,7.16E-03
63093,5.48E-03,7.30E-03
63094,5.44E-03,6.88E-03
63095,5.49E-03,7.02E-03
63096,5.41E-03,6.61E-03
63097,5.39E-03,6.74E-03
63098,5.42E-03,6.35E-03
63099,5.46E-03,6.48E-03
63100,5.43E-03,6.11E-03
63101,5.43E-03,6.24E-03
63102,5.44E-03,5.88E-03
63103,5.45E-03,5.99E-03
63104,5.49E-03,5.67E-03
63105,5.42E-03,5.77E-03
63106,5.54E-03,5.46E-03
63107,5.53E-03,5.56E-03
63108,5.48E-03,5.25E-03
63109,5.55E-03,5.35E-03
63110,5.45E-03,5.07E-03
63111,5.47E-03,5.16E-03
63112,5.42E-03,4.90E-03
63113,5.42E-03,4.98E-03
63114,5.41E-03,4.73E-03
63115,5.40E-03,4.81E-03
63116,5.48E-03,4.58E-03
63117,5.43E-03,4.66E-03
63118,5.50E-03,4.45E-03
63119,5.52E-03,4.51E-03
63120,5.53E-03,4.32E-03
63121,5.53E-03,4.39E-03
63122,5.47E-03,4.20E-03
63123,5.51E-03,4.26E-03
63124,5.44E-03,4.07E-03
63125,5.46E-03,4.13E-03
63126,5.40E-03,3.97E-03
63127,5.41E-03,4.02E-03
63128,5.47E-03,3.89E-03
63129,5.43E-03,3.93E-03
63130,5.50E-03,3.80E-03
63131,5.51E-03,3.84E-03
63132,5.27E-03,1.21E-02
63133,5.14E-03,1.23E-02
63134,5.51E-03,1.16E-02
63135,5.45E-03,1.18E-02
63136,5.64E-03,1.11E-02
63137,5.59E-03,1.13E-02
63138,5.78E-03,1.06E-02
63139,5.70E-03,1.08E-02
63140,5.64E-03,1.00E-02
63141,5.72E-03,1.03E-02
63142,5.46E-03,9.48E-03
63143,5.56E-03,9.75E-03
63144,5.47E-03,8.94E-03
63145,5.43E-03,9.21E-03
63146,5.59E-03,8.38E-03
63147,5.50E-03,8.66E-03
63148,5.63E-03,7.83E-03
63149,5.62E-03,8.10E-03
63150,5.54E-03,7.26E-03
63151,5.56E-03,7.54E-03
63152,5.39E-03,6.67E-03
63153,5.49E-03,6.97E-03
63154,5.25E-03,6.09E-03
63155,5.28E-03,6.38E-03
63156,5.34E-03,5.52E-03
63157,5.31E-03,5.80E-03
63158,5.39E-03,4.95E-03
63159,5.38E-03,5.24E-03
63160,5.40E-03,4.36E-03
63161,5.38E-03,4.66E-03
63162,5.39E-03,4.06E-03
63163,3.84E-03,1.46E-02
63164,4.97E-03,1.77E-02
63165,6.41E-03,2.63E-02
63166,6.54E-03,2.66E-02
63167,4.86E-03,1.30E-02
63168,4.45E-03,1.19E-02
63169,5.57E-03,3.76E-03
63170,6.28E-03,1.35E-02
63171,5.70E-03,1.79E-02
63172,5.77E-03,1.78E-02
63173,5.30E-03,1.77E-02
63174,5.52E-03,1.78E-02
63175,3.62E-03,1.71E-02
63176,4.27E-03,1.75E-02
63177,4.81E-03,1.62E-02
63178,4.48E-03,1.16E-02
63179,4.45E-03,1.11E-02
63180,4.87E-03,1.31E-02
63181,5.00E-03,1.29E-02
63182,4.34E-03,1.22E-02
63183,4.81E-03,1.25E-02
63184,4.52E-03,1.13E-02
63185,5.11E-03,9.73E-03
63186,5.44E-03,9.58E-03
63187,5.22E-03,1.03E-02
63188,5.01E-03,1.87E-02
63189,5.18E-03,1.91E-02
63190,6.18E-03,1.96E-02
63191,4.56E-03,1.70E-02
63192,4.73E-03,1.73E-02
63193,5.01E-03,1.89E-02
63194,5.07E-03,1.85E-02
63195,5.00E-03,1.74E-02
63196,6.90E-03,2.72E-02
63197,6.65E-03,2.71E-02
63198,6.14E-03,2.59E-02
63199,5.79E-03,2.55E-02
63200,6.21E-03,2.53E-02
63201,6.29E-03,2.57E-02
63202,6.18E-03,2.50E-02
63203,6.10E-03,7.58E-03
63204,4.75E-03,1.29E-02
63205,5.66E-03,1.71E-02
63206,6.77E-03,2.69E-02
63207,5.91E-03,1.39E-02
63208,4.33E-03,1.45E-02
63209,5.63E-03,1.79E-02
63210,5.83E-03,1.76E-02
63211,5.25E-03,1.76E-02
63212,5.51E-03,1.78E-02
63213,4.69E-03,1.92E-02
63214,4.77E-03,1.66E-02
63215,5.21E-03,1.60E-02
63216,5.15E-03,1.54E-02
63217,5.17E-03,1.50E-02
63218,4.28E-03,1.36E-02
63219,3.79E-03,1.44E-02
63220,3.15E-03,1.42E-02
63221,4.87E-03,1.55E-02
63222,3.19E-03,1.52E-02
63223,3.27E-03,1.53E-02
63224,3.62E-03,1.51E-02
63225,4.51E-03,1.61E-02
63226,4.54E-03,1.68E-02
63227,2.82E-03,1.65E-02
63228,2.46E-03,1.66E-02
63229,4.10E-03,1.64E-02
63230,4.39E-03,1.09E-02
63231,4.93E-03,1.26E-02
63232,4.10E-03,1.19E-02
63233,4.97E-03,1.26E-02
63234,4.10E-03,1.16E-02
63235,4.80E-03,1.01E-02
63236,5.35E-03,9.80E-03
63237,5.27E-03,1.00E-02
63238,4.94E-03,1.84E-02
63239,5.23E-03,1.92E-02
63240,5.38E-03,1.94E-02
63241,4.43E-03,1.70E-02
63242,4.75E-03,1.76E-02
63243,4.28E-03,1.70E-02
63244,4.91E-03,1.91E-02
63245,5.04E-03,1.82E-02
63246,6.58E-03,2.68E-02
63247,6.69E-03,2.53E-02
63248,5.77E-03,2.55E-02
63249,5.97E-03,2.52E-02
63250,6.22E-03,2.60E-02
63251,6.01E-03,2.51E-02
63252,4.79E-03,9.17E-03
63253,5.59E-03,8.95E-03
63254,5.34E-03,3.77E-03
63255,5.35E-03,3.47E-03
63256,5.30E-03,3.16E-03
63257,5.34E-03,3.17E-03
63258,5.60E-03,1.79E-02
63259,5.87E-03,1.74E-02
63260,5.57E-03,1.78E-02
63261,5.39E-03,1.57E-02
63262,4.89E-03,1.47E-02
63263,3.78E-03,1.40E-02
63264,3.84E-03,1.49E-02
63265,5.42E-03,1.70E-02
63266,4.39E-03,1.07E-02
63267,4.78E-03,1.22E-02
63268,5.01E-03,1.27E-02
63269,4.84E-03,1.82E-02
63270,4.78E-03,1.79E-02
63271,5.00E-03,1.79E-02
63272,6.28E-03,2.64E-02
63273,6.28E-03,2.64E-02
63274,4.95E-03,1.27E-02
63275,4.58E-03,1.19E-02
63276,4.52E-03,1.04E-02
63277,5.59E-03,3.71E-03
63278,5.55E-03,4.29E-03
63279,5.57E-03,4.00E-03
63280,5.46E-03,4.88E-03
63281,5.47E-03,4.58E-03
63282,5.41E-03,5.45E-03
63283,5.43E-03,5.16E-03
63284,5.43E-03,6.03E-03
63285,5.43E-03,5.74E-03
63286,5.43E-03,6.61E-03
63287,5.44E-03,6.32E-03
63288,5.47E-03,7.20E-03
63289,5.45E-03,6.90E-03
63290,5.47E-03,7.77E-03
63291,5.46E-03,7.49E-03
63292,5.46E-03,8.34E-03
63293,5.47E-03,8.06E-03
63294,5.51E-03,8.90E-03
63295,5.50E-03,8.62E-03
63296,5.47E-03,9.44E-03
63297,5.51E-03,9.17E-03
63298,5.47E-03,9.98E-03
63299,5.47E-03,9.71E-03
63300,5.46E-03,1.05E-02
63301,5.43E-03,1.03E-02
63302,5.51E-03,1.10E-02
63303,5.45E-03,1.08E-02
63304,5.59E-03,1.15E-02
63305,5.59E-03,1.13E-02
63306,5.72E-03,1.20E-02
63307,5.67E-03,1.18E-02
63308,5.88E-03,1.25E-02
63309,5.82E-03,1.23E-02
63310,6.27E-03,1.30E-02
63311,6.08E-03,1.28E-02
63312,6.25E-03,1.33E-02
63313,5.69E-03,1.78E-02
63314,5.41E-03,1.78E-02
63315,4.03E-03,1.73E-02
63316,3.53E-03,1.73E-02
63317,3.43E-03,1.74E-02
63318,4.33E-03,1.63E-02
63319,4.51E-03,1.14E-02
63320,4.94E-03,1.30E-02
63321,4.57E-03,1.23E-02
63322,4.88E-03,1.10E-02
63323,5.32E-03,9.65E-03
63324,5.42E-03,1.06E-02
63325,5.14E-03,1.89E-02
63326,5.46E-03,1.95E-02
63327,4.65E-03,1.72E-02
63328,5.02E-03,1.87E-02
63329,5.31E-03,1.73E-02
63330,6.78E-03,2.72E-02
63331,5.96E-03,2.57E-02
63332,6.21E-03,2.55E-02
63333,6.61E-03,2.51E-02
63334,4.80E-03,1.24E-02
63335,3.76E-03,1.20E-02
63336,5.71E-03,1.22E-02
63337,6.84E-03,1.22E-02
63338,5.57E-03,1.23E-02
63339,5.59E-03,1.23E-02
63340,6.67E-03,1.22E-02
63341,5.60E-03,1.25E-02
63342,5.50E-03,1.24E-02
63343,5.62E-03,1.25E-02
63344,5.62E-03,1.25E-02
63345,5.58E-03,1.26E-02
63346,5.56E-03,1.26E-02
63347,5.60E-03,1.27E-02
63348,5.57E-03,1.27E-02
63349,5.55E-03,1.28E-02
63350,5.57E-03,1.28E-02
63351,5.55E-03,1.30E-02
63352,5.56E-03,1.29E-02
63353,5.58E-03,1.31E-02
63354,5.64E-03,1.30E-02
63355,5.52E-03,1.33E-02
63356,5.51E-03,1.32E-02
63357,5.52E-03,1.34E-02
63358,5.52E-03,1.33E-02
63359,5.55E-03,1.36E-02
63360,5.51E-03,1.35E-02
63361,5.55E-03,1.37E-02
63362,5.56E-03,1.37E-02
63363,5.58E-03,1.39E-02
63364,5.56E-03,1.38E-02
63365,5.57E-03,1.41E-02
63366,5.60E-03,1.40E-02
63367,5.50E-03,1.43E-02
63368,5.56E-03,1.42E-02
63369,5.50E-03,1.45E-02
63370,5.53E-03,1.44E-02
63371,5.52E-03,1.47E-02
63372,5.48E-03,1.46E-02
63373,5.53E-03,1.49E-02
63374,5.52E-03,1.48E-02
63375,5.56E-03,1.51E-02
63376,5.52E-03,1.50E-02
63377,5.60E-03,1.53E-02
63378,5.59E-03,1.52E-02
63379,5.58E-03,1.55E-02
63380,5.65E-03,1.54E-02
63381,5.55E-03,1.57E-02
63382,5.53E-03,1.56E-02
63383,5.58E-03,1.59E-02
63384,5.54E-03,1.58E-02
63385,5.56E-03,1.61E-02
63386,5.56E-03,1.60E-02
63387,5.57E-03,1.63E-02
63388,5.54E-03,1.62E-02
63389,5.53E-03,1.65E-02
63390,5.57E-03,1.64E-02
63391,5.53E-03,1.67E-02
63392,5.53E-03,1.66E-02
63393,5.55E-03,1.69E-02
63394,5.53E-03,1.68E-02
63395,5.65E-03,1.71E-02
63396,5.59E-03,1.70E-02
63397,5.65E-03,1.73E-02
63398,5.66E-03,1.72E-02
63399,5.62E-03,1.75E-02
63400,5.64E-03,1.74E-02
63401,5.51E-03,1.77E-02
63402,5.55E-03,1.76E-02
63403,5.48E-03,1.78E-02
63404,5.49E-03,1.78E-02
63405,5.56E-03,1.80E-02
63406,5.52E-03,1.79E-02
63407,5.62E-03,1.82E-02
63408,5.62E-03,1.81E-02
63409,5.61E-03,1.83E-02
63410,5.60E-03,1.83E-02
63411,5.67E-03,1.85E-02
63412,5.67E-03,1.84E-02
63413,5.61E-03,1.86E-02
63414,5.64E-03,1.86E-02
63415,5.60E-03,1.88E-02
63416,5.59E-03,1.87E-02
63417,5.61E-03,1.89E-02
63418,5.59E-03,1.88E-02
63419,5.56E-03,1.90E-02
63420,5.57E-03,1.90E-02
63421,5.50E-03,1.92E-02
63422,5.53E-03,1.91E-02
63423,5.51E-03,1.93E-02
63424,5.51E-03,1.92E-02
63425,5.58E-03,1.94E-02
63426,5.51E-03,1.93E-02
63427,5.62E-03,1.95E-02
63428,5.60E-03,1.94E-02
63429,5.61E-03,1.96E-02
63430,5.63E-03,1.95E-02
63431,5.61E-03,1.96E-02
63432,5.60E-03,1.96E-02
63433,5.57E-03,1.97E-02
63434,5.57E-03,1.97E-02
63435,5.56E-03,1.98E-02
63436,5.58E-03,1.97E-02
63437,5.62E-03,1.98E-02
63438,5.60E-03,1.98E-02
63439,5.68E-03,1.98E-02
63440,5.65E-03,1.98E-02
63441,5.66E-03,1.98E-02
63442,5.68E-03,1.98E-02
63443,5.58E-03,1.99E-02
63444,5.60E-03,1.99E-02
63445,5.48E-03,1.99E-02
63446,5.50E-03,1.99E-02
63447,5.62E-03,1.99E-02
63448,5.54E-03,1.99E-02
63449,5.60E-03,1.98E-02
63450,5.59E-03,1.99E-02
63451,5.60E-03,1.98E-02
63452,5.60E-03,1.98E-02
63453,5.52E-03,1.98E-02
63454,5.56E-03,1.98E-02
63455,5.50E-03,1.97E-02
63456,5.51E-03,1.97E-02
63457,5.56E-03,1.97E-02
63458,5.50E-03,1.97E-02
63459,5.60E-03,1.96E-02
63460,5.60E-03,1.96E-02
63461,5.60E-03,1.95E-02
63462,5.65E-03,1.95E-02
63463,5.57E-03,1.94E-02
63464,5.53E-03,1.95E-02
63465,5.59E-03,1.93E-02
63466,5.59E-03,1.93E-02
63467,5.73E-03,1.92E-02
63468,5.64E-03,1.92E-02
63469,5.79E-03,1.90E-02
63470,5.76E-03,1.91E-02
63471,5.74E-03,1.89E-02
63472,5.75E-03,1.90E-02
63473,5.72E-03,1.87E-02
63474,5.72E-03,1.88E-02
63475,5.64E-03,1.85E-02
63476,5.69E-03,1.86E-02
63477,5.57E-03,1.84E-02
63478,5.58E-03,1.85E-02
63479,5.49E-03,1.82E-02
63480,5.55E-03,1.83E-02
63481,5.55E-03,1.79E-02
63482,5.54E-03,1.80E-02
63483,5.50E-03,1.77E-02
63484,5.55E-03,1.78E-02
63485,5.54E-03,1.75E-02
63486,5.55E-03,1.76E-02
63487,5.52E-03,1.72E-02
63488,5.51E-03,1.73E-02
63489,5.55E-03,1.69E-02
63490,5.54E-03,1.71E-02
63491,5.57E-03,1.67E-02
63492,5.56E-03,1.68E-02
63493,5.58E-03,1.64E-02
63494,5.56E-03,1.65E-02
63495,5.57E-03,1.61E-02
63496,5.57E-03,1.62E-02
63497,5.69E-03,1.58E-02
63498,5.65E-03,1.59E-02
63499,5.70E-03,1.55E-02
63500,5.72E-03,1.56E-02
63501,5.69E-03,1.52E-02
63502,5.75E-03,1.53E-02
63503,5.68E-03,1.49E-02
63504,5.68E-03,1.50E-02
63505,5.65E-03,1.45E-02
63506,5.65E-03,1.47E-02
63507,5.62E-03,1.42E-02
63508,5.65E-03,1.44E-02
63509,5.58E-03,1.39E-02
63510,5.58E-03,1.41E-02
63511,5.57E-03,1.36E-02
63512,5.58E-03,1.38E-02
63513,5.57E-03,1.33E-02
63514,5.56E-03,1.35E-02
63515,5.57E-03,1.30E-02
63516,5.53E-03,1.32E-02
63517,5.60E-03,1.27E-02
63518,5.63E-03,1.29E-02
63519,5.67E-03,1.24E-02
63520,5.65E-03,1.25E-02
63521,5.70E-03,1.21E-02
63522,5.66E-03,1.22E-02
63523,5.67E-03,1.18E-02
63524,5.69E-03,1.19E-02
63525,5.65E-03,1.15E-02
63526,5.62E-03,1.16E-02
63527,5.58E-03,1.12E-02
63528,5.63E-03,1.13E-02
63529,5.58E-03,1.09E-02
63530,5.56E-03,1.10E-02
63531,5.58E-03,1.06E-02
63532,5.61E-03,1.07E-02
63533,5.56E-03,1.03E-02
63534,5.58E-03,1.04E-02
63535,5.59E-03,1.00E-02
63536,5.59E-03,1.01E-02
63537,5.68E-03,9.71E-03
63538,5.65E-03,9.85E-03
63539,5.60E-03,9.43E-03
63540,5.65E-03,9.57E-03
63541,5.48E-03,9.29E-03
63542,5.28E-03,3.15E-03
63543,5.30E-03,3.16E-03
63544,5.27E-03,3.15E-03
63545,5.31E-03,3.15E-03
63546,5.31E-03,3.16E-03
63547,5.29E-03,3.16E-03
63548,5.42E-03,3.17E-03
63549,5.40E-03,3.16E-03
63550,5.54E-03,3.19E-03
63551,5.52E-03,3.18E-03
63552,5.52E-03,3.21E-03
63553,5.50E-03,3.20E-03
63554,5.49E-03,3.25E-03
63555,5.51E-03,3.23E-03
63556,5.45E-03,3.28E-03
63557,5.47E-03,3.26E-03
63558,5.36E-03,3.31E-03
63559,5.40E-03,3.29E-03
63560,5.41E-03,3.37E-03
63561,5.40E-03,3.34E-03
63562,5.47E-03,3.44E-03
63563,5.47E-03,3.41E-03
63564,5.39E-03,3.52E-03
63565,5.43E-03,3.48E-03
63566,5.37E-03,3.59E-03
63567,5.39E-03,3.55E-03
63568,5.41E-03,3.69E-03
63569,5.39E-03,3.64E-03
63570,5.47E-03,3.78E-03
63571,5.46E-03,3.74E-03
63572,5.53E-03,3.89E-03
63573,5.53E-03,3.83E-03
63574,5.53E-03,4.00E-03
63575,5.52E-03,3.94E-03
63576,5.61E-03,4.12E-03
63577,5.57E-03,4.06E-03
63578,5.67E-03,4.23E-03
63579,5.72E-03,4.18E-03
63580,5.72E-03,4.35E-03
63581,5.72E-03,4.29E-03
63582,5.75E-03,4.49E-03
63583,5.70E-03,4.42E-03
63584,5.81E-03,4.62E-03
63585,5.79E-03,4.55E-03
63586,5.85E-03,4.77E-03
63587,5.83E-03,4.70E-03
63588,5.87E-03,4.90E-03
63589,5.88E-03,4.84E-03
63590,5.90E-03,5.05E-03
63591,5.91E-03,4.97E-03
63592,5.95E-03,5.19E-03
63593,5.94E-03,5.12E-03
63594,6.01E-03,5.33E-03
63595,5.98E-03,5.26E-03
63596,6.04E-03,5.47E-03
63597,6.04E-03,5.40E-03
63598,6.03E-03,5.61E-03
63599,6.06E-03,5.54E-03
63600,5.93E-03,5.74E-03
63601,6.03E-03,5.67E-03
63602,5.81E-03,5.87E-03
63603,5.89E-03,5.81E-03
63604,5.85E-03,6.02E-03
63605,5.82E-03,5.94E-03
63606,5.88E-03,6.17E-03
63607,5.86E-03,6.09E-03
63608,5.87E-03,6.32E-03
63609,5.86E-03,6.25E-03
63610,5.80E-03,6.48E-03
63611,5.78E-03,6.40E-03
63612,5.76E-03,6.65E-03
63613,5.76E-03,6.56E-03
63614,5.73E-03,6.84E-03
63615,5.71E-03,6.74E-03
63616,5.71E-03,7.03E-03
63617,5.65E-03,6.93E-03
63618,5.58E-03,7.25E-03
63619,5.64E-03,7.14E-03
63620,5.54E-03,7.48E-03
63621,5.57E-03,7.37E-03
63622,5.48E-03,7.72E-03
63623,5.46E-03,7.59E-03
63624,5.47E-03,7.99E-03
63625,5.46E-03,7.85E-03
63626,5.58E-03,8.28E-03
63627,5.58E-03,8.13E-03
63628,5.63E-03,8.61E-03
63629,5.63E-03,8.44E-03
63630,5.65E-03,8.94E-03
63631,5.67E-03,8.78E-03
63632,5.64E-03,9.27E-03
63633,5.65E-03,9.10E-03
63634,5.66E-03,9.63E-03
63635,5.65E-03,9.44E-03
63636,5.63E-03,1.00E-02
63637,5.63E-03,9.82E-03
63638,5.57E-03,1.04E-02
63639,5.64E-03,1.02E-02
63640,5.73E-03,1.08E-02
63641,5.74E-03,1.06E-02
63642,6.03E-03,1.13E-02
63643,5.83E-03,1.10E-02
63644,5.69E-03,1.19E-02
63645,5.41E-03,8.84E-03
63646,5.42E-03,8.89E-03
63647,5.53E-03,8.77E-03
63648,5.47E-03,8.80E-03
63649,5.55E-03,8.72E-03
63650,5.56E-03,8.75E-03
63651,5.52E-03,8.66E-03
63652,5.53E-03,8.69E-03
63653,5.42E-03,8.60E-03
63654,5.45E-03,8.63E-03
63655,5.45E-03,8.53E-03
63656,5.50E-03,8.56E-03
63657,5.43E-03,8.46E-03
63658,5.42E-03,8.50E-03
63659,5.35E-03,8.39E-03
63660,5.35E-03,8.42E-03
63661,5.38E-03,8.31E-03
63662,5.37E-03,8.35E-03
63663,5.34E-03,8.23E-03
63664,5.36E-03,8.27E-03
63665,5.36E-03,8.16E-03
63666,5.32E-03,8.19E-03
63667,5.43E-03,8.09E-03
63668,5.40E-03,8.12E-03
63669,5.48E-03,8.02E-03
63670,5.47E-03,8.05E-03
63671,5.45E-03,7.96E-03
63672,5.50E-03,7.99E-03
63673,5.35E-03,7.90E-03
63674,5.34E-03,7.93E-03
63675,5.29E-03,7.84E-03
63676,5.28E-03,7.87E-03
63677,5.34E-03,7.78E-03
63678,5.34E-03,7.81E-03
63679,5.25E-03,7.73E-03
63680,5.31E-03,7.76E-03
63681,5.26E-03,7.69E-03
63682,5.25E-03,7.71E-03
63683,5.34E-03,7.66E-03
63684,5.30E-03,7.68E-03
63685,5.41E-03,7.63E-03
63686,5.37E-03,7.64E-03
63687,5.41E-03,7.60E-03
63688,5.40E-03,7.61E-03
63689,5.39E-03,7.59E-03
63690,5.40E-03,7.59E-03
63691,5.29E-03,7.58E-03
63692,5.32E-03,7.58E-03
63693,5.20E-03,7.57E-03
63694,5.22E-03,7.57E-03
63695,5.22E-03,7.56E-03
63696,5.23E-03,7.56E-03
63697,5.16E-03,7.55E-03
63698,5.19E-03,7.56E-03
63699,5.20E-03,7.54E-03
63700,5.21E-03,7.54E-03
63701,5.21E-03,7.54E-03
63702,5.22E-03,7.54E-03
63703,5.18E-03,7.55E-03
63704,5.17E-03,7.54E-03
63705,5.21E-03,7.56E-03
63706,5.19E-03,7.56E-03
63707,5.30E-03,7.58E-03
63708,5.20E-03,7.57E-03
63709,5.37E-03,7.60E-03
63710,5.35E-03,7.59E-03
63711,5.44E-03,7.62E-03
63712,5.43E-03,7.61E-03
63713,5.65E-03,7.62E-03
63714,5.16E-03,7.86E-03
63715,5.28E-03,7.79E-03
63716,4.71E-03,7.98E-03
63717,4.89E-03,7.92E-03
63718,4.44E-03,8.06E-03
63719,4.28E-03,8.45E-03
63720,4.36E-03,8.79E-03
63721,4.35E-03,8.61E-03
63722,4.52E-03,9.23E-03
63723,4.46E-03,9.00E-03
63724,4.69E-03,9.80E-03
63725,4.65E-03,9.50E-03
63726,4.93E-03,1.05E-02
63727,4.84E-03,1.01E-02
63728,5.13E-03,1.12E-02
63729,5.08E-03,1.08E-02
63730,5.36E-03,1.20E-02
63731,5.26E-03,1.16E-02
63732,5.43E-03,1.29E-02
63733,5.43E-03,1.24E-02
63734,5.49E-03,1.37E-02
63735,5.49E-03,1.33E-02
63736,5.51E-03,1.47E-02
63737,5.47E-03,1.42E-02
63738,5.51E-03,1.56E-02
63739,5.50E-03,1.51E-02
63740,5.47E-03,1.66E-02
63741,5.51E-03,1.61E-02
63742,5.56E-03,1.77E-02
63743,5.51E-03,1.71E-02
63744,5.52E-03,1.88E-02
63745,5.52E-03,1.82E-02
63746,5.51E-03,1.99E-02
63747,5.48E-03,1.93E-02
63748,5.42E-03,2.11E-02
63749,5.47E-03,2.05E-02
63750,5.36E-03,2.24E-02
63751,5.38E-03,2.18E-02
63752,5.27E-03,2.37E-02
63753,5.30E-03,2.30E-02
63754,5.27E-03,2.49E-02
63755,5.24E-03,2.43E-02
63756,5.03E-03,2.62E-02
63757,5.19E-03,2.56E-02
63758,5.01E-03,2.74E-02
63759,4.99E-03,2.68E-02
63760,4.92E-03,2.86E-02
63761,4.99E-03,2.81E-02
63762,4.68E-03,2.97E-02
63763,5.04E-03,2.91E-02
63764,5.06E-03,3.05E-02
63765,5.10E-03,3.02E-02
63766,4.87E-03,3.13E-02
63767,4.81E-03,3.09E-02
63768,5.34E-03,3.21E-02
63769,5.09E-03,3.18E-02
63770,5.38E-03,3.26E-02
63771,5.43E-03,3.23E-02
63772,5.27E-03,3.30E-02
63773,5.27E-03,3.28E-02
63774,5.22E-03,3.33E-02
63775,5.21E-03,3.32E-02
63776,5.23E-03,3.34E-02
63777,5.21E-03,3.34E-02
63778,5.24E-03,3.35E-02
63779,5.26E-03,3.35E-02
63780,5.23E-03,3.34E-02
63781,5.22E-03,3.35E-02
63782,5.20E-03,3.33E-02
63783,5.19E-03,3.34E-02
63784,5.18E-03,3.31E-02
63785,5.15E-03,3.32E-02
63786,5.13E-03,3.29E-02
63787,5.14E-03,3.30E-02
63788,5.16E-03,3.27E-02
63789,5.14E-03,3.28E-02
63790,5.10E-03,3.24E-02
63791,5.12E-03,3.25E-02
63792,5.10E-03,3.20E-02
63793,5.10E-03,3.22E-02
63794,5.04E-03,3.17E-02
63795,5.04E-03,3.19E-02
63796,4.96E-03,3.13E-02
63797,4.99E-03,3.15E-02
63798,4.98E-03,3.09E-02
63799,4.92E-03,3.11E-02
63800,5.12E-03,3.05E-02
63801,5.05E-03,3.07E-02
63802,5.15E-03,3.00E-02
63803,5.17E-03,3.02E-02
63804,5.11E-03,2.95E-02
63805,5.16E-03,2.97E-02
63806,5.01E-03,2.89E-02
63807,5.09E-03,2.92E-02
63808,5.08E-03,2.84E-02
63809,5.04E-03,2.87E-02
63810,5.13E-03,2.78E-02
63811,5.09E-03,2.81E-02
63812,5.26E-03,2.72E-02
63813,5.19E-03,2.75E-02
63814,5.41E-03,2.67E-02
63815,5.32E-03,2.70E-02
63816,5.46E-03,2.60E-02
63817,5.45E-03,2.64E-02
63818,5.46E-03,2.54E-02
63819,5.46E-03,2.57E-02
63820,5.45E-03,2.48E-02
63821,5.44E-03,2.51E-02
63822,5.43E-03,2.41E-02
63823,5.44E-03,2.44E-02
63824,5.35E-03,2.35E-02
63825,5.40E-03,2.38E-02
63826,5.41E-03,2.28E-02
63827,5.36E-03,2.32E-02
63828,5.49E-03,2.22E-02
63829,5.49E-03,2.25E-02
63830,5.50E-03,2.16E-02
63831,5.46E-03,2.19E-02
63832,5.48E-03,2.09E-02
63833,5.50E-03,2.13E-02
63834,5.45E-03,2.03E-02
63835,5.46E-03,2.06E-02
63836,5.31E-03,1.97E-02
63837,5.38E-03,2.00E-02
63838,5.19E-03,1.90E-02
63839,5.26E-03,1.93E-02
63840,5.17E-03,1.84E-02
63841,5.19E-03,1.87E-02
63842,5.32E-03,1.78E-02
63843,5.23E-03,1.81E-02
63844,5.40E-03,1.72E-02
63845,5.32E-03,1.75E-02
63846,5.49E-03,1.66E-02
63847,5.44E-03,1.69E-02
63848,5.47E-03,1.60E-02
63849,5.46E-03,1.63E-02
63850,5.36E-03,1.55E-02
63851,5.45E-03,1.58E-02
63852,5.24E-03,1.49E-02
63853,5.28E-03,1.52E-02
63854,5.23E-03,1.44E-02
63855,5.18E-03,1.46E-02
63856,5.20E-03,1.38E-02
63857,5.23E-03,1.41E-02
63858,5.20E-03,1.33E-02
63859,5.22E-03,1.35E-02
63860,5.21E-03,1.28E-02
63861,5.18E-03,1.30E-02
63862,5.23E-03,1.23E-02
63863,5.16E-03,1.25E-02
63864,5.18E-03,1.18E-02
63865,5.19E-03,1.20E-02
63866,5.15E-03,1.13E-02
63867,5.22E-03,1.15E-02
63868,5.20E-03,1.08E-02
63869,5.18E-03,1.11E-02
63870,5.15E-03,1.04E-02
63871,5.20E-03,1.06E-02
63872,5.16E-03,9.96E-03
63873,5.17E-03,1.02E-02
63874,5.15E-03,9.56E-03
63875,5.23E-03,9.76E-03
63876,5.21E-03,9.17E-03
63877,5.21E-03,9.36E-03
63878,5.21E-03,8.80E-03
63879,5.19E-03,8.98E-03
63880,5.29E-03,8.45E-03
63881,5.30E-03,8.63E-03
63882,5.28E-03,8.11E-03
63883,5.33E-03,8.28E-03
63884,5.32E-03,7.77E-03
63885,5.31E-03,7.94E-03
63886,5.43E-03,7.47E-03
63887,5.34E-03,7.62E-03
63888,5.45E-03,7.17E-03
63889,5.48E-03,7.32E-03
63890,5.46E-03,6.88E-03
63891,5.49E-03,7.03E-03
63892,5.42E-03,6.61E-03
63893,5.46E-03,6.74E-03
63894,5.48E-03,6.34E-03
63895,5.45E-03,6.47E-03
63896,5.43E-03,6.08E-03
63897,5.45E-03,6.21E-03
63898,5.46E-03,5.84E-03
63899,5.46E-03,5.96E-03
63900,5.42E-03,5.61E-03
63901,5.41E-03,5.72E-03
63902,5.43E-03,5.39E-03
63903,5.44E-03,5.49E-03
63904,5.59E-03,5.18E-03
63905,5.55E-03,5.29E-03
63906,5.54E-03,4.98E-03
63907,5.57E-03,5.08E-03
63908,5.44E-03,4.79E-03
63909,5.50E-03,4.89E-03
63910,5.46E-03,4.62E-03
63911,5.44E-03,4.71E-03
63912,5.44E-03,4.45E-03
63913,5.41E-03,4.54E-03
63914,5.44E-03,4.31E-03
63915,5.44E-03,4.38E-03
63916,5.56E-03,4.17E-03
63917,5.52E-03,4.23E-03
63918,5.58E-03,4.04E-03
63919,5.59E-03,4.10E-03
63920,5.57E-03,3.91E-03
63921,5.57E-03,3.98E-03
63922,5.50E-03,3.79E-03
63923,5.52E-03,3.85E-03
63924,5.46E-03,3.69E-03
63925,5.49E-03,3.73E-03
63926,5.44E-03,3.60E-03
63927,5.44E-03,3.65E-03
63928,5.56E-03,3.51E-03
63929,5.54E-03,3.56E-03
63930,5.62E-03,3.43E-03
63931,5.60E-03,3.47E-03
63932,4.96E-03,1.25E-02
63933,4.86E-03,1.27E-02
63934,5.27E-03,1.21E-02
63935,5.21E-03,1.23E-02
63936,5.50E-03,1.16E-02
63937,5.43E-03,1.18E-02
63938,5.59E-03,1.11E-02
63939,5.55E-03,1.13E-02
63940,5.65E-03,1.06E-02
63941,5.63E-03,1.08E-02
63942,5.62E-03,1.00E-02
63943,5.62E-03,1.03E-02
63944,5.46E-03,9.49E-03
63945,5.56E-03,9.76E-03
63946,5.43E-03,8.94E-03
63947,5.46E-03,9.21E-03
63948,5.51E-03,8.39E-03
63949,5.45E-03,8.67E-03
63950,5.51E-03,7.83E-03
63951,5.54E-03,8.11E-03
63952,5.51E-03,7.26E-03
63953,5.49E-03,7.55E-03
63954,5.36E-03,6.68E-03
63955,5.45E-03,6.97E-03
63956,5.28E-03,6.10E-03
63957,5.35E-03,6.39E-03
63958,5.34E-03,5.52E-03
63959,5.28E-03,5.81E-03
63960,5.44E-03,4.95E-03
63961,5.42E-03,5.24E-03
63962,5.45E-03,4.37E-03
63963,5.49E-03,4.66E-03
63964,5.40E-03,4.07E-03
63965,5.67E-03,1.72E-02
63966,6.49E-03,2.67E-02
63967,6.16E-03,1.37E-02
63968,4.64E-03,1.43E-02
63969,5.62E-03,1.78E-02
63970,5.74E-03,1.77E-02
63971,5.40E-03,1.77E-02
63972,5.51E-03,1.78E-02
63973,4.04E-03,1.66E-02
63974,4.95E-03,1.61E-02
63975,4.20E-03,1.63E-02
63976,5.08E-03,1.55E-02
63977,5.24E-03,1.51E-02
63978,3.47E-03,1.38E-02
63979,3.53E-03,1.45E-02
63980,3.72E-03,1.43E-02
63981,3.92E-03,1.53E-02
63982,3.37E-03,1.67E-02
63983,4.54E-03,1.17E-02
63984,4.54E-03,1.12E-02
63985,4.90E-03,1.28E-02
63986,4.97E-03,1.26E-02
63987,4.34E-03,1.20E-02
63988,4.88E-03,1.24E-02
63989,4.44E-03,1.14E-02
63990,5.06E-03,1.00E-02
63991,5.34E-03,9.88E-03
63992,5.16E-03,1.03E-02
63993,5.00E-03,1.86E-02
63994,5.17E-03,1.90E-02
63995,5.18E-03,1.93E-02
63996,4.52E-03,1.72E-02
63997,4.74E-03,1.75E-02
63998,4.24E-03,1.72E-02
63999,4.96E-03,1.89E-02
64000,5.07E-03,1.84E-02
64001,4.97E-03,1.76E-02
64002,6.62E-03,2.70E-02
64003,6.50E-03,2.69E-02
64004,6.10E-03,2.60E-02
64005,5.72E-03,2.57E-02
64006,5.95E-03,2.54E-02
64007,6.09E-03,2.58E-02
64008,5.88E-03,2.52E-02
64009,5.35E-03,3.18E-03
64010,5.60E-03,1.78E-02
64011,5.70E-03,1.75E-02
64012,5.66E-03,1.75E-02
64013,5.57E-03,1.78E-02
64014,5.41E-03,1.58E-02
64015,5.30E-03,1.48E-02
64016,4.32E-03,1.41E-02
64017,4.51E-03,1.50E-02
64018,4.34E-03,1.62E-02
64019,5.80E-03,1.71E-02
64020,4.78E-03,1.69E-02
64021,4.45E-03,1.09E-02
64022,4.89E-03,1.23E-02
64023,4.29E-03,1.17E-02
64024,4.94E-03,1.24E-02
64025,5.27E-03,1.01E-02
64026,4.97E-03,1.83E-02
64027,5.21E-03,1.91E-02
64028,4.38E-03,1.72E-02
64029,4.81E-03,1.78E-02
64030,4.84E-03,1.90E-02
64031,5.04E-03,1.81E-02
64032,6.26E-03,2.66E-02
64033,5.65E-03,2.55E-02
64034,5.50E-03,2.56E-02
64035,5.78E-03,2.53E-02
64036,6.01E-03,2.62E-02
64037,5.58E-03,3.68E-03
64038,5.59E-03,3.39E-03
64039,5.03E-03,1.25E-02
64040,4.75E-03,1.20E-02
64041,4.57E-03,1.07E-02
64042,5.54E-03,1.30E-02
64043,5.74E-03,7.27E-03
64044,5.59E-03,1.78E-02
64045,5.73E-03,1.73E-02
64046,6.16E-03,2.65E-02
64047,4.97E-03,1.46E-02
64048,5.54E-03,4.25E-03
64049,5.57E-03,3.96E-03
64050,5.52E-03,4.83E-03
64051,5.54E-03,4.54E-03
64052,5.44E-03,5.42E-03
64053,5.48E-03,5.12E-03
64054,5.44E-03,6.00E-03
64055,5.46E-03,5.71E-03
64056,5.48E-03,6.58E-03
64057,5.47E-03,6.29E-03
64058,5.47E-03,7.16E-03
64059,5.47E-03,6.87E-03
64060,5.50E-03,7.74E-03
64061,5.47E-03,7.45E-03
64062,5.54E-03,8.30E-03
64063,5.52E-03,8.02E-03
64064,5.52E-03,8.86E-03
64065,5.52E-03,8.59E-03
64066,5.52E-03,9.40E-03
64067,5.51E-03,9.13E-03
64068,5.45E-03,9.95E-03
64069,5.50E-03,9.68E-03
64070,5.53E-03,1.05E-02
64071,5.49E-03,1.02E-02
64072,5.56E-03,1.10E-02
64073,5.52E-03,1.07E-02
64074,5.62E-03,1.15E-02
64075,5.60E-03,1.13E-02
64076,5.72E-03,1.20E-02
64077,5.68E-03,1.17E-02
64078,5.92E-03,1.25E-02
64079,5.81E-03,1.22E-02
64080,6.12E-03,1.30E-02
64081,5.99E-03,1.27E-02
64082,6.12E-03,1.34E-02
64083,6.14E-03,1.32E-02
64084,5.67E-03,1.78E-02
64085,5.42E-03,1.77E-02
64086,4.47E-03,1.75E-02
64087,4.05E-03,1.74E-02
64088,3.34E-03,1.92E-02
64089,4.20E-03,1.08E-02
64090,4.23E-03,1.10E-02
64091,3.96E-03,1.73E-02
64092,3.47E-03,1.72E-02
64093,3.76E-03,1.65E-02
64094,4.46E-03,1.62E-02
64095,4.68E-03,1.54E-02
64096,5.02E-03,1.52E-02
64097,3.19E-03,1.39E-02
64098,3.63E-03,1.45E-02
64099,4.25E-03,1.68E-02
64100,4.57E-03,1.14E-02
64101,4.94E-03,1.27E-02
64102,4.67E-03,1.22E-02
64103,4.53E-03,1.12E-02
64104,5.25E-03,9.95E-03
64105,4.67E-03,1.06E-02
64106,5.12E-03,1.88E-02
64107,4.51E-03,1.92E-02
64108,4.63E-03,1.74E-02
64109,4.06E-03,1.73E-02
64110,5.01E-03,1.86E-02
64111,4.76E-03,1.75E-02
64112,6.52E-03,2.70E-02
64113,5.89E-03,2.59E-02
64114,5.94E-03,2.56E-02
64115,5.55E-03,2.53E-02
64116,6.17E-03,1.26E-02
64117,2.76E-03,1.29E-02
64118,3.74E-03,1.27E-02
64119,5.68E-03,1.26E-02
64120,5.98E-03,1.26E-02
64121,6.02E-03,1.27E-02
64122,5.77E-03,1.27E-02
64123,5.87E-03,1.27E-02
64124,6.05E-03,1.27E-02
64125,5.65E-03,1.28E-02
64126,5.68E-03,1.28E-02
64127,5.61E-03,1.29E-02
64128,5.59E-03,1.29E-02
64129,5.59E-03,1.30E-02
64130,5.58E-03,1.29E-02
64131,5.61E-03,1.31E-02
64132,5.58E-03,1.30E-02
64133,5.59E-03,1.32E-02
64134,5.56E-03,1.32E-02
64135,5.60E-03,1.33E-02
64136,5.58E-03,1.33E-02
64137,5.57E-03,1.35E-02
64138,5.61E-03,1.34E-02
64139,5.53E-03,1.36E-02
64140,5.54E-03,1.35E-02
64141,5.51E-03,1.38E-02
64142,5.55E-03,1.37E-02
64143,5.52E-03,1.39E-02
64144,5.49E-03,1.39E-02
64145,5.52E-03,1.41E-02
64146,5.45E-03,1.40E-02
64147,5.59E-03,1.43E-02
64148,5.56E-03,1.42E-02
64149,5.53E-03,1.45E-02
64150,5.55E-03,1.44E-02
64151,5.49E-03,1.46E-02
64152,5.52E-03,1.45E-02
64153,5.52E-03,1.48E-02
64154,5.54E-03,1.47E-02
64155,5.52E-03,1.50E-02
64156,5.50E-03,1.49E-02
64157,5.57E-03,1.52E-02
64158,5.54E-03,1.51E-02
64159,5.56E-03,1.54E-02
64160,5.59E-03,1.53E-02
64161,5.57E-03,1.56E-02
64162,5.54E-03,1.55E-02
64163,5.57E-03,1.58E-02
64164,5.58E-03,1.57E-02
64165,5.53E-03,1.60E-02
64166,5.56E-03,1.59E-02
64167,5.53E-03,1.62E-02
64168,5.53E-03,1.61E-02
64169,5.61E-03,1.64E-02
64170,5.57E-03,1.63E-02
64171,5.59E-03,1.66E-02
64172,5.58E-03,1.65E-02
64173,5.55E-03,1.68E-02
64174,5.60E-03,1.67E-02
64175,5.50E-03,1.70E-02
64176,5.54E-03,1.69E-02
64177,5.53E-03,1.72E-02
64178,5.51E-03,1.71E-02
64179,5.62E-03,1.74E-02
64180,5.56E-03,1.73E-02
64181,5.63E-03,1.76E-02
64182,5.63E-03,1.75E-02
64183,5.63E-03,1.78E-02
64184,5.65E-03,1.77E-02
64185,5.59E-03,1.79E-02
64186,5.59E-03,1.78E-02
64187,5.53E-03,1.81E-02
64188,5.54E-03,1.80E-02
64189,5.60E-03,1.83E-02
64190,5.55E-03,1.82E-02
64191,5.62E-03,1.84E-02
64192,5.62E-03,1.83E-02
64193,5.60E-03,1.86E-02
64194,5.60E-03,1.85E-02
64195,5.62E-03,1.87E-02
64196,5.60E-03,1.87E-02
64197,5.65E-03,1.89E-02
64198,5.67E-03,1.88E-02
64199,5.60E-03,1.90E-02
64200,5.64E-03,1.89E-02
64201,5.56E-03,1.91E-02
64202,5.56E-03,1.91E-02
64203,5.63E-03,1.93E-02
64204,5.57E-03,1.92E-02
64205,5.58E-03,1.94E-02
64206,5.62E-03,1.93E-02
64207,5.58E-03,1.95E-02
64208,5.55E-03,1.94E-02
64209,5.62E-03,1.96E-02
64210,5.61E-03,1.95E-02
64211,5.57E-03,1.97E-02
64212,5.57E-03,1.96E-02
64213,5.56E-03,1.97E-02
64214,5.58E-03,1.97E-02
64215,5.61E-03,1.98E-02
64216,5.55E-03,1.98E-02
64217,5.56E-03,1.99E-02
64218,5.58E-03,1.98E-02
64219,5.62E-03,1.99E-02
64220,5.61E-03,1.99E-02
64221,5.63E-03,1.99E-02
64222,5.62E-03,1.99E-02
64223,5.71E-03,2.00E-02
64224,5.68E-03,2.00E-02
64225,5.73E-03,2.00E-02
64226,5.70E-03,2.00E-02
64227,5.64E-03,2.00E-02
64228,5.65E-03,2.00E-02
64229,5.53E-03,2.00E-02
64230,5.55E-03,2.00E-02
64231,5.61E-03,2.00E-02
64232,5.56E-03,2.00E-02
64233,5.59E-03,1.99E-02
64234,5.62E-03,2.00E-02
64235,5.57E-03,1.99E-02
64236,5.56E-03,1.99E-02
64237,5.58E-03,1.99E-02
64238,5.59E-03,1.99E-02
64239,5.51E-03,1.98E-02
64240,5.55E-03,1.98E-02
64241,5.63E-03,1.97E-02
64242,5.53E-03,1.98E-02
64243,5.66E-03,1.96E-02
64244,5.62E-03,1.97E-02
64245,5.61E-03,1.95E-02
64246,5.64E-03,1.96E-02
64247,5.54E-03,1.94E-02
64248,5.57E-03,1.95E-02
64249,5.60E-03,1.93E-02
64250,5.56E-03,1.94E-02
64251,5.71E-03,1.92E-02
64252,5.70E-03,1.93E-02
64253,5.77E-03,1.91E-02
64254,5.71E-03,1.91E-02
64255,5.71E-03,1.89E-02
64256,5.75E-03,1.90E-02
64257,5.68E-03,1.87E-02
64258,5.69E-03,1.88E-02
64259,5.59E-03,1.86E-02
64260,5.61E-03,1.86E-02
64261,5.54E-03,1.84E-02
64262,5.52E-03,1.85E-02
64263,5.53E-03,1.81E-02
64264,5.56E-03,1.83E-02
64265,5.55E-03,1.79E-02
64266,5.53E-03,1.80E-02
64267,5.60E-03,1.77E-02
64268,5.61E-03,1.78E-02
64269,5.59E-03,1.74E-02
64270,5.60E-03,1.76E-02
64271,5.53E-03,1.72E-02
64272,5.52E-03,1.73E-02
64273,5.53E-03,1.69E-02
64274,5.52E-03,1.70E-02
64275,5.54E-03,1.66E-02
64276,5.54E-03,1.68E-02
64277,5.56E-03,1.63E-02
64278,5.53E-03,1.65E-02
64279,5.57E-03,1.60E-02
64280,5.58E-03,1.62E-02
64281,5.64E-03,1.57E-02
64282,5.59E-03,1.59E-02
64283,5.70E-03,1.54E-02
64284,5.71E-03,1.56E-02
64285,5.66E-03,1.51E-02
64286,5.70E-03,1.52E-02
64287,5.62E-03,1.48E-02
64288,5.63E-03,1.49E-02
64289,5.66E-03,1.45E-02
64290,5.65E-03,1.46E-02
64291,5.64E-03,1.41E-02
64292,5.68E-03,1.43E-02
64293,5.59E-03,1.38E-02
64294,5.63E-03,1.40E-02
64295,5.59E-03,1.35E-02
64296,5.59E-03,1.37E-02
64297,5.58E-03,1.32E-02
64298,5.59E-03,1.34E-02
64299,5.59E-03,1.29E-02
64300,5.63E-03,1.31E-02
64301,5.56E-03,1.26E-02
64302,5.55E-03,1.28E-02
64303,5.65E-03,1.23E-02
64304,5.60E-03,1.24E-02
64305,5.67E-03,1.20E-02
64306,5.65E-03,1.21E-02
64307,5.69E-03,1.17E-02
64308,5.71E-03,1.18E-02
64309,5.62E-03,1.14E-02
64310,5.62E-03,1.15E-02
64311,5.57E-03,1.11E-02
64312,5.64E-03,1.12E-02
64313,5.56E-03,1.08E-02
64314,5.56E-03,1.09E-02
64315,5.59E-03,1.05E-02
64316,5.58E-03,1.06E-02
64317,5.64E-03,1.02E-02
64318,5.59E-03,1.03E-02
64319,5.69E-03,9.90E-03
64320,5.64E-03,1.01E-02
64321,5.63E-03,9.62E-03
64322,5.67E-03,9.76E-03
64323,5.41E-03,9.34E-03
64324,5.55E-03,9.48E-03
64325,4.52E-03,9.07E-03
64326,5.14E-03,9.20E-03
64327,3.67E-03,8.96E-03
64328,5.32E-03,2.89E-03
64329,5.32E-03,2.87E-03
64330,5.38E-03,2.88E-03
64331,5.35E-03,2.87E-03
64332,5.32E-03,2.87E-03
64333,5.36E-03,2.86E-03
64334,5.40E-03,2.86E-03
64335,5.41E-03,2.87E-03
64336,5.38E-03,2.87E-03
64337,5.50E-03,2.88E-03
64338,5.46E-03,2.87E-03
64339,5.54E-03,2.89E-03
64340,5.56E-03,2.88E-03
64341,5.51E-03,2.91E-03
64342,5.55E-03,2.90E-03
64343,5.53E-03,2.95E-03
64344,5.55E-03,2.93E-03
64345,5.49E-03,2.98E-03
64346,5.54E-03,2.96E-03
64347,5.46E-03,3.02E-03
64348,5.46E-03,3.00E-03
64349,5.51E-03,3.07E-03
64350,5.48E-03,3.04E-03
64351,5.52E-03,3.14E-03
64352,5.53E-03,3.11E-03
64353,5.45E-03,3.22E-03
64354,5.54E-03,3.18E-03
64355,5.40E-03,3.30E-03
64356,5.43E-03,3.25E-03
64357,5.44E-03,3.39E-03
64358,5.42E-03,3.34E-03
64359,5.53E-03,3.48E-03
64360,5.49E-03,3.44E-03
64361,5.52E-03,3.58E-03
64362,5.55E-03,3.53E-03
64363,5.62E-03,3.70E-03
64364,5.57E-03,3.64E-03
64365,5.63E-03,3.81E-03
64366,5.62E-03,3.76E-03
64367,5.73E-03,3.93E-03
64368,5.71E-03,3.87E-03
64369,5.71E-03,4.05E-03
64370,5.71E-03,3.99E-03
64371,5.71E-03,4.19E-03
64372,5.69E-03,4.12E-03
64373,5.72E-03,4.32E-03
64374,5.71E-03,4.25E-03
64375,5.83E-03,4.46E-03
64376,5.82E-03,4.39E-03
64377,5.80E-03,4.60E-03
64378,5.85E-03,4.53E-03
64379,5.88E-03,4.74E-03
64380,5.87E-03,4.67E-03
64381,5.94E-03,4.88E-03
64382,5.94E-03,4.81E-03
64383,5.90E-03,5.02E-03
64384,5.89E-03,4.95E-03
64385,5.90E-03,5.16E-03
64386,5.93E-03,5.09E-03
64387,5.95E-03,5.29E-03
64388,5.96E-03,5.22E-03
64389,5.86E-03,5.43E-03
64390,5.93E-03,5.36E-03
64391,5.83E-03,5.56E-03
64392,5.86E-03,5.49E-03
64393,5.82E-03,5.70E-03
64394,5.85E-03,5.63E-03
64395,5.81E-03,5.85E-03
64396,5.80E-03,5.78E-03
64397,5.83E-03,6.01E-03
64398,5.82E-03,5.93E-03
64399,5.75E-03,6.16E-03
64400,5.80E-03,6.08E-03
64401,5.71E-03,6.34E-03
64402,5.71E-03,6.25E-03
64403,5.68E-03,6.52E-03
64404,5.66E-03,6.43E-03
64405,5.70E-03,6.72E-03
64406,5.66E-03,6.62E-03
64407,5.60E-03,6.94E-03
64408,5.66E-03,6.83E-03
64409,5.52E-03,7.16E-03
64410,5.58E-03,7.05E-03
64411,5.46E-03,7.41E-03
64412,5.46E-03,7.28E-03
64413,5.45E-03,7.68E-03
64414,5.43E-03,7.54E-03
64415,5.61E-03,7.98E-03
64416,5.56E-03,7.83E-03
64417,5.64E-03,8.30E-03
64418,5.62E-03,8.14E-03
64419,5.63E-03,8.63E-03
64420,5.67E-03,8.47E-03
64421,5.56E-03,8.97E-03
64422,5.60E-03,8.80E-03
64423,5.61E-03,9.33E-03
64424,5.61E-03,9.15E-03
64425,5.63E-03,9.72E-03
64426,5.63E-03,9.53E-03
64427,5.68E-03,1.01E-02
64428,5.65E-03,9.91E-03
64429,5.80E-03,1.05E-02
64430,5.72E-03,1.03E-02
64431,6.15E-03,1.10E-02
64432,5.90E-03,1.08E-02
64433,6.11E-03,1.14E-02
64434,6.29E-03,1.12E-02
64435,5.15E-03,1.18E-02
64436,5.50E-03,1.16E-02
64437,6.88E-03,1.23E-02
64438,6.81E-03,1.20E-02
64439,4.57E-03,1.26E-02
64440,6.15E-03,1.25E-02
64441,5.33E-03,8.76E-03
64442,5.39E-03,8.69E-03
64443,5.39E-03,8.72E-03
64444,5.48E-03,8.62E-03
64445,5.42E-03,8.65E-03
64446,5.51E-03,8.57E-03
64447,5.50E-03,8.60E-03
64448,5.46E-03,8.51E-03
64449,5.48E-03,8.54E-03
64450,5.47E-03,8.45E-03
64451,5.45E-03,8.49E-03
64452,5.50E-03,8.38E-03
64453,5.52E-03,8.42E-03
64454,5.43E-03,8.31E-03
64455,5.44E-03,8.35E-03
64456,5.35E-03,8.24E-03
64457,5.37E-03,8.28E-03
64458,5.38E-03,8.16E-03
64459,5.36E-03,8.20E-03
64460,5.35E-03,8.07E-03
64461,5.35E-03,8.11E-03
64462,5.38E-03,8.00E-03
64463,5.37E-03,8.04E-03
64464,5.45E-03,7.92E-03
64465,5.43E-03,7.96E-03
64466,5.41E-03,7.85E-03
64467,5.43E-03,7.89E-03
64468,5.35E-03,7.79E-03
64469,5.37E-03,7.82E-03
64470,5.31E-03,7.73E-03
64471,5.32E-03,7.76E-03
64472,5.39E-03,7.67E-03
64473,5.35E-03,7.70E-03
64474,5.40E-03,7.60E-03
64475,5.44E-03,7.63E-03
64476,5.32E-03,7.55E-03
64477,5.38E-03,7.58E-03
64478,5.30E-03,7.50E-03
64479,5.26E-03,7.52E-03
64480,5.36E-03,7.46E-03
64481,5.34E-03,7.48E-03
64482,5.43E-03,7.42E-03
64483,5.39E-03,7.44E-03
64484,5.43E-03,7.39E-03
64485,5.39E-03,7.40E-03
64486,5.40E-03,7.36E-03
64487,5.42E-03,7.37E-03
64488,5.39E-03,7.34E-03
64489,5.39E-03,7.35E-03
64490,5.34E-03,7.33E-03
64491,5.32E-03,7.33E-03
64492,5.33E-03,7.31E-03
64493,5.37E-03,7.32E-03
64494,5.25E-03,7.29E-03
64495,5.32E-03,7.30E-03
64496,5.23E-03,7.27E-03
64497,5.28E-03,7.28E-03
64498,5.25E-03,7.25E-03
64499,5.26E-03,7.26E-03
64500,5.25E-03,7.25E-03
64501,5.22E-03,7.25E-03
64502,5.29E-03,7.25E-03
64503,5.25E-03,7.25E-03
64504,5.32E-03,7.25E-03
64505,5.30E-03,7.25E-03
64506,5.43E-03,7.26E-03
64507,5.38E-03,7.26E-03
64508,5.41E-03,7.27E-03
64509,5.40E-03,7.27E-03
64510,5.59E-03,7.23E-03
64511,5.41E-03,7.27E-03
64512,5.18E-03,7.46E-03
64513,5.33E-03,7.41E-03
64514,4.87E-03,7.58E-03
64515,5.01E-03,7.51E-03
64516,4.57E-03,7.75E-03
64517,4.71E-03,7.66E-03
64518,4.49E-03,8.01E-03
64519,4.49E-03,7.87E-03
64520,4.55E-03,8.37E-03
64521,4.51E-03,8.18E-03
64522,4.72E-03,8.82E-03
64523,4.63E-03,8.58E-03
64524,4.83E-03,9.39E-03
64525,4.81E-03,9.09E-03
64526,5.03E-03,1.01E-02
64527,4.98E-03,9.71E-03
64528,5.21E-03,1.08E-02
64529,5.17E-03,1.04E-02
64530,5.37E-03,1.16E-02
64531,5.32E-03,1.12E-02
64532,5.44E-03,1.25E-02
64533,5.44E-03,1.21E-02
64534,5.51E-03,1.34E-02
64535,5.49E-03,1.30E-02
64536,5.50E-03,1.43E-02
64537,5.47E-03,1.39E-02
64538,5.53E-03,1.53E-02
64539,5.54E-03,1.48E-02
64540,5.55E-03,1.63E-02
64541,5.53E-03,1.58E-02
64542,5.51E-03,1.74E-02
64543,5.51E-03,1.69E-02
64544,5.51E-03,1.85E-02
64545,5.51E-03,1.80E-02
64546,5.52E-03,1.97E-02
64547,5.51E-03,1.91E-02
64548,5.44E-03,2.10E-02
64549,5.49E-03,2.04E-02
64550,5.39E-03,2.23E-02
64551,5.42E-03,2.16E-02
64552,5.35E-03,2.36E-02
64553,5.31E-03,2.30E-02
64554,5.32E-03,2.50E-02
64555,5.35E-03,2.43E-02
64556,5.18E-03,2.63E-02
64557,5.26E-03,2.57E-02
64558,5.07E-03,2.76E-02
64559,5.13E-03,2.70E-02
64560,5.03E-03,2.88E-02
64561,5.04E-03,2.83E-02
64562,5.07E-03,3.00E-02
64563,4.99E-03,2.94E-02
64564,5.09E-03,3.10E-02
64565,5.06E-03,3.05E-02
64566,5.09E-03,3.18E-02
64567,5.04E-03,3.14E-02
64568,5.28E-03,3.26E-02
64569,5.17E-03,3.22E-02
64570,5.32E-03,3.31E-02
64571,5.36E-03,3.29E-02
64572,5.30E-03,3.35E-02
64573,5.31E-03,3.34E-02
64574,5.30E-03,3.38E-02
64575,5.29E-03,3.37E-02
64576,5.26E-03,3.39E-02
64577,5.26E-03,3.39E-02
64578,5.29E-03,3.39E-02
64579,5.32E-03,3.39E-02
64580,5.28E-03,3.38E-02
64581,5.27E-03,3.39E-02
64582,5.26E-03,3.37E-02
64583,5.25E-03,3.38E-02
64584,5.21E-03,3.35E-02
64585,5.22E-03,3.36E-02
64586,5.22E-03,3.32E-02
64587,5.21E-03,3.34E-02
64588,5.19E-03,3.30E-02
64589,5.20E-03,3.31E-02
64590,5.17E-03,3.27E-02
64591,5.21E-03,3.28E-02
64592,5.15E-03,3.23E-02
64593,5.17E-03,3.25E-02
64594,5.13E-03,3.19E-02
64595,5.15E-03,3.21E-02
64596,5.10E-03,3.16E-02
64597,5.12E-03,3.18E-02
64598,5.08E-03,3.11E-02
64599,5.11E-03,3.14E-02
64600,5.16E-03,3.07E-02
64601,5.09E-03,3.09E-02
64602,5.18E-03,3.02E-02
64603,5.21E-03,3.04E-02
64604,5.15E-03,2.96E-02
64605,5.14E-03,2.99E-02
64606,5.14E-03,2.91E-02
64607,5.17E-03,2.93E-02
64608,5.24E-03,2.85E-02
64609,5.22E-03,2.88E-02
64610,5.22E-03,2.79E-02
64611,5.24E-03,2.82E-02
64612,5.35E-03,2.73E-02
64613,5.31E-03,2.76E-02
64614,5.40E-03,2.67E-02
64615,5.40E-03,2.70E-02
64616,5.43E-03,2.60E-02
64617,5.45E-03,2.64E-02
64618,5.46E-03,2.54E-02
64619,5.40E-03,2.57E-02
64620,5.51E-03,2.47E-02
64621,5.48E-03,2.51E-02
64622,5.51E-03,2.41E-02
64623,5.49E-03,2.44E-02
64624,5.41E-03,2.34E-02
64625,5.45E-03,2.38E-02
64626,5.44E-03,2.28E-02
64627,5.44E-03,2.31E-02
64628,5.48E-03,2.21E-02
64629,5.48E-03,2.25E-02
64630,5.44E-03,2.15E-02
64631,5.49E-03,2.18E-02
64632,5.44E-03,2.08E-02
64633,5.41E-03,2.12E-02
64634,5.40E-03,2.02E-02
64635,5.42E-03,2.05E-02
64636,5.40E-03,1.95E-02
64637,5.39E-03,1.99E-02
64638,5.32E-03,1.89E-02
64639,5.34E-03,1.92E-02
64640,5.31E-03,1.83E-02
64641,5.32E-03,1.86E-02
64642,5.39E-03,1.77E-02
64643,5.38E-03,1.80E-02
64644,5.39E-03,1.71E-02
64645,5.38E-03,1.74E-02
64646,5.50E-03,1.65E-02
64647,5.42E-03,1.68E-02
64648,5.50E-03,1.59E-02
64649,5.50E-03,1.62E-02
64650,5.45E-03,1.53E-02
64651,5.49E-03,1.56E-02
64652,5.29E-03,1.47E-02
64653,5.35E-03,1.50E-02
64654,5.29E-03,1.42E-02
64655,5.25E-03,1.44E-02
64656,5.26E-03,1.36E-02
64657,5.31E-03,1.39E-02
64658,5.27E-03,1.31E-02
64659,5.27E-03,1.33E-02
64660,5.24E-03,1.25E-02
64661,5.25E-03,1.28E-02
64662,5.31E-03,1.20E-02
64663,5.25E-03,1.23E-02
64664,5.25E-03,1.15E-02
64665,5.30E-03,1.18E-02
64666,5.26E-03,1.11E-02
64667,5.29E-03,1.13E-02
64668,5.26E-03,1.06E-02
64669,5.25E-03,1.08E-02
64670,5.24E-03,1.01E-02
64671,5.27E-03,1.04E-02
64672,5.23E-03,9.72E-03
64673,5.24E-03,9.93E-03
64674,5.21E-03,9.31E-03
64675,5.23E-03,9.51E-03
64676,5.25E-03,8.92E-03
64677,5.25E-03,9.11E-03
64678,5.29E-03,8.54E-03
64679,5.29E-03,8.73E-03
64680,5.35E-03,8.19E-03
64681,5.35E-03,8.37E-03
64682,5.39E-03,7.84E-03
64683,5.41E-03,8.02E-03
64684,5.37E-03,7.51E-03
64685,5.41E-03,7.67E-03
64686,5.47E-03,7.20E-03
64687,5.38E-03,7.35E-03
64688,5.47E-03,6.91E-03
64689,5.48E-03,7.05E-03
64690,5.50E-03,6.62E-03
64691,5.46E-03,6.76E-03
64692,5.47E-03,6.34E-03
64693,5.51E-03,6.48E-03
64694,5.47E-03,6.07E-03
64695,5.51E-03,6.21E-03
64696,5.47E-03,5.82E-03
64697,5.44E-03,5.95E-03
64698,5.45E-03,5.57E-03
64699,5.46E-03,5.69E-03
64700,5.49E-03,5.34E-03
64701,5.44E-03,5.46E-03
64702,5.45E-03,5.12E-03
64703,5.46E-03,5.23E-03
64704,5.53E-03,4.91E-03
64705,5.56E-03,5.02E-03
64706,5.60E-03,4.72E-03
64707,5.54E-03,4.81E-03
64708,5.50E-03,4.52E-03
64709,5.53E-03,4.62E-03
64710,5.51E-03,4.35E-03
64711,5.48E-03,4.44E-03
64712,5.42E-03,4.18E-03
64713,5.43E-03,4.27E-03
64714,5.42E-03,4.03E-03
64715,5.44E-03,4.11E-03
64716,5.52E-03,3.89E-03
64717,5.49E-03,3.96E-03
64718,5.60E-03,3.76E-03
64719,5.57E-03,3.82E-03
64720,5.61E-03,3.63E-03
64721,5.63E-03,3.70E-03
64722,5.49E-03,3.51E-03
64723,5.54E-03,3.57E-03
64724,5.47E-03,3.41E-03
64725,5.46E-03,3.46E-03
64726,5.48E-03,3.32E-03
64727,5.51E-03,3.37E-03
64728,5.51E-03,3.23E-03
64729,5.54E-03,3.28E-03
64730,5.58E-03,3.15E-03
64731,5.51E-03,3.19E-03
64732,5.16E-03,1.25E-02
64733,5.23E-03,1.27E-02
64734,5.30E-03,1.21E-02
64735,5.26E-03,1.23E-02
64736,5.43E-03,1.16E-02
64737,5.40E-03,1.18E-02
64738,5.51E-03,1.11E-02
64739,5.45E-03,1.13E-02
64740,5.52E-03,1.06E-02
64741,5.52E-03,1.08E-02
64742,5.54E-03,1.00E-02
64743,5.52E-03,1.03E-02
64744,5.45E-03,9.49E-03
64745,5.48E-03,9.76E-03
64746,5.45E-03,8.95E-03
64747,5.42E-03,9.22E-03
64748,5.48E-03,8.40E-03
64749,5.47E-03,8.67E-03
64750,5.43E-03,7.83E-03
64751,5.47E-03,8.12E-03
64752,5.44E-03,7.27E-03
64753,5.45E-03,7.55E-03
64754,5.37E-03,6.69E-03
64755,5.38E-03,6.98E-03
64756,5.31E-03,6.11E-03
64757,5.32E-03,6.40E-03
64758,5.35E-03,5.53E-03
64759,5.31E-03,5.82E-03
64760,5.40E-03,4.96E-03
64761,5.35E-03,5.24E-03
64762,5.49E-03,4.37E-03
64763,5.46E-03,4.67E-03
64764,5.39E-03,3.78E-03
64765,5.44E-03,4.08E-03
64766,5.34E-03,3.19E-03
64767,5.35E-03,3.49E-03
64768,3.31E-03,1.38E-02
64769,4.88E-03,1.81E-02
64770,5.53E-03,1.77E-02
64771,5.61E-03,1.76E-02
64772,5.40E-03,1.76E-02
64773,5.54E-03,1.77E-02
64774,4.22E-03,1.68E-02
64775,5.19E-03,1.60E-02
64776,5.47E-03,1.50E-02
64777,5.37E-03,1.74E-02
64778,3.30E-03,1.39E-02
64779,4.82E-03,1.43E-02
64780,4.66E-03,1.51E-02
64781,3.43E-03,1.62E-02
64782,4.51E-03,1.63E-02
64783,6.20E-03,1.70E-02
64784,4.61E-03,1.17E-02
64785,4.58E-03,1.12E-02
64786,4.95E-03,1.26E-02
64787,4.93E-03,1.24E-02
64788,4.38E-03,1.18E-02
64789,4.90E-03,1.22E-02
64790,4.46E-03,1.15E-02
64791,5.27E-03,1.02E-02
64792,5.15E-03,1.04E-02
64793,4.56E-03,1.12E-02
64794,4.95E-03,1.09E-02
64795,5.02E-03,1.85E-02
64796,5.17E-03,1.89E-02
64797,5.11E-03,1.90E-02
64798,4.55E-03,1.74E-02
64799,4.79E-03,1.77E-02
64800,4.41E-03,1.74E-02
64801,4.92E-03,1.88E-02
64802,5.01E-03,1.84E-02
64803,4.97E-03,1.78E-02
64804,4.50E-03,1.76E-02
64805,4.73E-03,1.77E-02
64806,4.26E-03,1.90E-02
64807,4.13E-03,1.89E-02
64808,4.70E-03,1.90E-02
64809,6.44E-03,2.67E-02
64810,6.24E-03,2.67E-02
64811,6.04E-03,2.62E-02
64812,5.50E-03,2.58E-02
64813,5.70E-03,2.55E-02
64814,5.87E-03,2.59E-02
64815,5.47E-03,2.54E-02
64816,5.59E-03,3.11E-03
64817,5.65E-03,3.64E-03
64818,5.64E-03,3.36E-03
64819,5.68E-03,1.72E-02
64820,5.19E-03,1.56E-02
64821,5.18E-03,8.79E-03
64822,5.05E-03,1.23E-02
64823,4.92E-03,1.20E-02
64824,4.69E-03,1.09E-02
64825,4.80E-03,1.03E-02
64826,3.09E-03,7.11E-03
64827,5.55E-03,1.77E-02
64828,5.54E-03,1.74E-02
64829,5.61E-03,1.77E-02
64830,5.33E-03,2.90E-03
64831,5.77E-03,2.62E-02
64832,4.86E-03,2.56E-02
64833,4.79E-03,2.58E-02
64834,5.44E-03,1.46E-02
64835,5.36E-03,1.44E-02
64836,5.01E-03,1.83E-02
64837,6.24E-03,1.38E-02
64838,5.59E-03,4.22E-03
64839,5.64E-03,3.93E-03
64840,5.55E-03,4.80E-03
64841,5.61E-03,4.51E-03
64842,5.49E-03,5.38E-03
64843,5.51E-03,5.09E-03
64844,5.51E-03,5.97E-03
64845,5.50E-03,5.68E-03
64846,5.54E-03,6.55E-03
64847,5.53E-03,6.26E-03
64848,5.52E-03,7.13E-03
64849,5.54E-03,6.84E-03
64850,5.53E-03,7.71E-03
64851,5.52E-03,7.42E-03
64852,5.51E-03,8.27E-03
64853,5.48E-03,7.99E-03
64854,5.47E-03,8.83E-03
64855,5.48E-03,8.55E-03
64856,5.49E-03,9.38E-03
64857,5.46E-03,9.11E-03
64858,5.49E-03,9.92E-03
64859,5.52E-03,9.65E-03
64860,5.54E-03,1.05E-02
64861,5.55E-03,1.02E-02
64862,5.55E-03,1.10E-02
64863,5.52E-03,1.07E-02
64864,5.68E-03,1.15E-02
64865,5.60E-03,1.12E-02
64866,5.73E-03,1.20E-02
64867,5.68E-03,1.17E-02
64868,5.87E-03,1.24E-02
64869,5.81E-03,1.22E-02
64870,5.93E-03,1.29E-02
64871,5.87E-03,1.27E-02
64872,5.94E-03,1.34E-02
64873,5.96E-03,1.32E-02
64874,5.56E-03,1.77E-02
64875,5.47E-03,1.77E-02
64876,3.88E-03,1.70E-02
64877,3.49E-03,1.72E-02
64878,3.55E-03,1.71E-02
64879,4.00E-03,1.65E-02
64880,3.76E-03,1.66E-02
64881,4.50E-03,1.62E-02
64882,4.08E-03,1.64E-02
64883,4.83E-03,1.61E-02
64884,4.95E-03,1.51E-02
64885,3.76E-03,1.41E-02
64886,4.19E-03,1.47E-02
64887,4.14E-03,1.45E-02
64888,5.05E-03,1.49E-02
64889,3.99E-03,1.53E-02
64890,3.52E-03,1.61E-02
64891,4.62E-03,1.60E-02
64892,3.97E-03,1.64E-02
64893,3.94E-03,1.63E-02
64894,5.31E-03,1.68E-02
64895,4.66E-03,1.14E-02
64896,4.98E-03,1.25E-02
64897,4.63E-03,1.20E-02
64898,4.52E-03,1.13E-02
64899,5.03E-03,1.03E-02
64900,5.20E-03,1.02E-02
64901,4.95E-03,1.07E-02
64902,5.10E-03,1.87E-02
64903,4.53E-03,1.90E-02
64904,4.73E-03,1.75E-02
64905,4.44E-03,1.75E-02
64906,4.94E-03,1.86E-02
64907,4.91E-03,1.78E-02
64908,4.41E-03,1.89E-02
64909,6.34E-03,2.67E-02
64910,5.74E-03,2.60E-02
64911,5.71E-03,2.57E-02
64912,5.05E-03,2.55E-02
64913,5.59E-03,3.08E-03
64914,5.99E-03,2.65E-02
64915,5.56E-03,1.73E-02
64916,4.49E-03,1.55E-02
64917,4.59E-03,1.17E-02
64918,5.00E-03,1.20E-02
64919,5.06E-03,1.23E-02
64920,4.97E-03,1.21E-02
64921,4.78E-03,1.17E-02
64922,4.87E-03,1.12E-02
64923,4.86E-03,1.06E-02
64924,4.93E-03,1.13E-02
64925,5.31E-03,1.11E-02
64926,5.24E-03,1.05E-02
64927,5.20E-03,1.84E-02
64928,4.87E-03,1.87E-02
64929,4.91E-03,1.87E-02
64930,5.08E-03,1.88E-02
64931,4.64E-03,1.76E-02
64932,4.99E-03,1.79E-02
64933,5.16E-03,1.79E-02
64934,5.07E-03,1.81E-02
64935,4.88E-03,1.87E-02
64936,5.65E-03,1.45E-02
64937,5.09E-03,2.59E-02
64938,5.95E-03,2.63E-02
64939,5.42E-03,2.60E-02
64940,5.27E-03,2.56E-02
64941,4.49E-03,1.31E-02
64942,5.37E-03,1.31E-02
64943,4.98E-03,1.30E-02
64944,5.28E-03,1.31E-02
64945,5.63E-03,1.30E-02
64946,5.72E-03,1.30E-02
64947,5.82E-03,1.30E-02
64948,5.85E-03,1.30E-02
64949,5.86E-03,1.31E-02
64950,5.82E-03,1.31E-02
64951,5.75E-03,1.31E-02
64952,5.69E-03,1.32E-02
64953,5.63E-03,1.32E-02
64954,5.58E-03,1.33E-02
64955,5.56E-03,1.33E-02
64956,5.56E-03,1.34E-02
64957,5.62E-03,1.34E-02
64958,5.61E-03,1.35E-02
64959,5.56E-03,1.35E-02
64960,5.61E-03,1.36E-02
64961,5.61E-03,1.36E-02
64962,5.58E-03,1.37E-02
64963,5.56E-03,1.38E-02
64964,5.58E-03,1.38E-02
64965,5.59E-03,1.39E-02
64966,5.55E-03,1.40E-02
64967,5.55E-03,1.41E-02
64968,5.54E-03,1.41E-02
64969,5.54E-03,1.42E-02
64970,5.49E-03,1.43E-02
64971,5.50E-03,1.44E-02
64972,5.57E-03,1.45E-02
64973,5.57E-03,1.45E-02
64974,5.57E-03,1.46E-02
64975,5.58E-03,1.47E-02
64976,5.58E-03,1.48E-02
64977,5.58E-03,1.49E-02
64978,5.55E-03,1.50E-02
64979,5.52E-03,1.51E-02
64980,5.52E-03,1.52E-02
64981,5.54E-03,1.53E-02
64982,5.58E-03,1.54E-02
64983,5.58E-03,1.55E-02
64984,5.59E-03,1.55E-02
64985,5.61E-03,1.56E-02
64986,5.61E-03,1.57E-02
64987,5.56E-03,1.58E-02
64988,5.55E-03,1.59E-02
64989,5.56E-03,1.60E-02
64990,5.54E-03,1.61E-02
64991,5.57E-03,1.62E-02
64992,5.56E-03,1.63E-02
64993,5.54E-03,1.64E-02
64994,5.56E-03,1.65E-02
64995,5.57E-03,1.66E-02
64996,5.61E-03,1.67E-02
64997,5.64E-03,1.68E-02
64998,5.61E-03,1.69E-02
64999,5.64E-03,1.70E-02
65000,5.57E-03,1.71E-02
65001,5.55E-03,1.72E-02
65002,5.54E-03,1.73E-02
65003,5.57E-03,1.74E-02
65004,5.58E-03,1.75E-02
65005,5.58E-03,1.76E-02
65006,5.56E-03,1.77E-02
65007,5.57E-03,1.78E-02
65008,5.61E-03,1.79E-02
65009,5.66E-03,1.79E-02
65010,5.68E-03,1.80E-02
65011,5.61E-03,1.81E-02
65012,5.62E-03,1.82E-02
65013,5.60E-03,1.83E-02
65014,5.55E-03,1.84E-02
65015,5.59E-03,1.84E-02
65016,5.61E-03,1.85E-02
65017,5.62E-03,1.86E-02
65018,5.63E-03,1.87E-02
65019,5.58E-03,1.88E-02
65020,5.59E-03,1.88E-02
65021,5.61E-03,1.89E-02
65022,5.61E-03,1.90E-02
65023,5.68E-03,1.90E-02
65024,5.62E-03,1.91E-02
65025,5.64E-03,1.92E-02
65026,5.56E-03,1.92E-02
65027,5.59E-03,1.93E-02
65028,5.58E-03,1.94E-02
65029,5.63E-03,1.94E-02
65030,5.63E-03,1.95E-02
65031,5.62E-03,1.95E-02
65032,5.62E-03,1.96E-02
65033,5.62E-03,1.96E-02
65034,5.62E-03,1.97E-02
65035,5.61E-03,1.97E-02
65036,5.61E-03,1.98E-02
65037,5.60E-03,1.98E-02
65038,5.59E-03,1.98E-02
65039,5.61E-03,1.99E-02
65040,5.59E-03,1.99E-02
65041,5.60E-03,2.00E-02
65042,5.57E-03,2.00E-02
65043,5.62E-03,2.00E-02
65044,5.67E-03,2.00E-02
65045,5.66E-03,2.01E-02
65046,5.67E-03,2.01E-02
65047,5.67E-03,2.01E-02
65048,5.68E-03,2.01E-02
65049,5.67E-03,2.01E-02
65050,5.70E-03,2.01E-02
65051,5.73E-03,2.01E-02
65052,5.75E-03,2.01E-02
65053,5.68E-03,2.01E-02
65054,5.65E-03,2.01E-02
65055,5.56E-03,2.01E-02
65056,5.56E-03,2.01E-02
65057,5.60E-03,2.01E-02
65058,5.61E-03,2.01E-02
65059,5.60E-03,2.01E-02
65060,5.61E-03,2.00E-02
65061,5.61E-03,2.00E-02
65062,5.61E-03,2.00E-02
65063,5.61E-03,2.00E-02
65064,5.60E-03,1.99E-02
65065,5.59E-03,1.99E-02
65066,5.58E-03,1.99E-02
65067,5.57E-03,1.98E-02
65068,5.63E-03,1.98E-02
65069,5.67E-03,1.97E-02
65070,5.71E-03,1.97E-02
65071,5.62E-03,1.97E-02
65072,5.60E-03,1.96E-02
65073,5.61E-03,1.95E-02
65074,5.62E-03,1.95E-02
65075,5.58E-03,1.94E-02
65076,5.58E-03,1.94E-02
65077,5.64E-03,1.93E-02
65078,5.67E-03,1.92E-02
65079,5.65E-03,1.92E-02
65080,5.68E-03,1.91E-02
65081,5.67E-03,1.90E-02
65082,5.69E-03,1.89E-02
65083,5.67E-03,1.88E-02
65084,5.65E-03,1.87E-02
65085,5.59E-03,1.87E-02
65086,5.57E-03,1.86E-02
65087,5.57E-03,1.85E-02
65088,5.61E-03,1.84E-02
65089,5.61E-03,1.83E-02
65090,5.61E-03,1.81E-02
65091,5.61E-03,1.80E-02
65092,5.61E-03,1.79E-02
65093,5.62E-03,1.78E-02
65094,5.57E-03,1.77E-02
65095,5.59E-03,1.75E-02
65096,5.56E-03,1.74E-02
65097,5.57E-03,1.73E-02
65098,5.61E-03,1.71E-02
65099,5.61E-03,1.70E-02
65100,5.60E-03,1.69E-02
65101,5.57E-03,1.67E-02
65102,5.55E-03,1.66E-02
65103,5.57E-03,1.64E-02
65104,5.55E-03,1.63E-02
65105,5.58E-03,1.61E-02
65106,5.60E-03,1.60E-02
65107,5.61E-03,1.58E-02
65108,5.65E-03,1.56E-02
65109,5.69E-03,1.55E-02
65110,5.67E-03,1.53E-02
65111,5.65E-03,1.52E-02
65112,5.60E-03,1.50E-02
65113,5.59E-03,1.49E-02
65114,5.61E-03,1.47E-02
65115,5.65E-03,1.45E-02
65116,5.66E-03,1.44E-02
65117,5.67E-03,1.42E-02
65118,5.69E-03,1.41E-02
65119,5.66E-03,1.39E-02
65120,5.66E-03,1.37E-02
65121,5.65E-03,1.36E-02
65122,5.62E-03,1.34E-02
65123,5.61E-03,1.33E-02
65124,5.62E-03,1.31E-02
65125,5.67E-03,1.30E-02
65126,5.64E-03,1.28E-02
65127,5.61E-03,1.27E-02
65128,5.57E-03,1.25E-02
65129,5.63E-03,1.24E-02
65130,5.68E-03,1.22E-02
65131,5.67E-03,1.20E-02
65132,5.75E-03,1.19E-02
65133,5.75E-03,1.17E-02
65134,5.70E-03,1.16E-02
65135,5.66E-03,1.14E-02
65136,5.60E-03,1.13E-02
65137,5.63E-03,1.11E-02
65138,5.59E-03,1.10E-02
65139,5.59E-03,1.08E-02
65140,5.62E-03,1.07E-02
65141,5.62E-03,1.05E-02
65142,5.60E-03,1.04E-02
65143,5.61E-03,1.02E-02
65144,5.63E-03,1.01E-02
65145,5.68E-03,9.96E-03
65146,5.72E-03,9.81E-03
65147,5.69E-03,9.67E-03
65148,5.61E-03,9.53E-03
65149,5.48E-03,9.39E-03
65150,5.35E-03,9.25E-03
65151,5.10E-03,9.12E-03
65152,4.75E-03,8.99E-03
65153,4.56E-03,8.88E-03
65154,5.19E-03,8.75E-03
65155,4.29E-03,1.51E-02
65156,6.20E-03,1.48E-02
65157,5.38E-03,2.62E-03
65158,5.35E-03,2.61E-03
65159,5.37E-03,2.60E-03
65160,5.35E-03,2.59E-03
65161,5.40E-03,2.58E-03
65162,5.43E-03,2.58E-03
65163,5.49E-03,2.57E-03
65164,5.47E-03,2.57E-03
65165,5.48E-03,2.58E-03
65166,5.51E-03,2.58E-03
65167,5.54E-03,2.58E-03
65168,5.57E-03,2.59E-03
65169,5.61E-03,2.59E-03
65170,5.57E-03,2.60E-03
65171,5.54E-03,2.61E-03
65172,5.51E-03,2.62E-03
65173,5.56E-03,2.63E-03
65174,5.55E-03,2.65E-03
65175,5.55E-03,2.66E-03
65176,5.49E-03,2.68E-03
65177,5.47E-03,2.70E-03
65178,5.48E-03,2.72E-03
65179,5.49E-03,2.75E-03
65180,5.53E-03,2.77E-03
65181,5.58E-03,2.81E-03
65182,5.58E-03,2.84E-03
65183,5.57E-03,2.88E-03
65184,5.49E-03,2.92E-03
65185,5.50E-03,2.95E-03
65186,5.44E-03,3.00E-03
65187,5.51E-03,3.04E-03
65188,5.53E-03,3.08E-03
65189,5.59E-03,3.13E-03
65190,5.58E-03,3.18E-03
65191,5.56E-03,3.23E-03
65192,5.59E-03,3.28E-03
65193,5.63E-03,3.34E-03
65194,5.63E-03,3.39E-03
65195,5.62E-03,3.45E-03
65196,5.66E-03,3.51E-03
65197,5.66E-03,3.56E-03
65198,5.69E-03,3.63E-03
65199,5.69E-03,3.69E-03
65200,5.73E-03,3.75E-03
65201,5.70E-03,3.82E-03
65202,5.69E-03,3.88E-03
65203,5.74E-03,3.94E-03
65204,5.74E-03,4.01E-03
65205,5.79E-03,4.08E-03
65206,5.77E-03,4.15E-03
65207,5.82E-03,4.22E-03
65208,5.80E-03,4.29E-03
65209,5.81E-03,4.36E-03
65210,5.82E-03,4.43E-03
65211,5.85E-03,4.50E-03
65212,5.86E-03,4.57E-03
65213,5.84E-03,4.64E-03
65214,5.85E-03,4.71E-03
65215,5.86E-03,4.78E-03
65216,5.84E-03,4.84E-03
65217,5.86E-03,4.91E-03
65218,5.84E-03,4.98E-03
65219,5.81E-03,5.04E-03
65220,5.81E-03,5.11E-03
65221,5.80E-03,5.18E-03
65222,5.79E-03,5.25E-03
65223,5.81E-03,5.32E-03
65224,5.78E-03,5.39E-03
65225,5.77E-03,5.46E-03
65226,5.77E-03,5.54E-03
65227,5.81E-03,5.61E-03
65228,5.80E-03,5.69E-03
65229,5.77E-03,5.77E-03
65230,5.70E-03,5.85E-03
65231,5.69E-03,5.94E-03
65232,5.68E-03,6.03E-03
65233,5.67E-03,6.12E-03
65234,5.67E-03,6.21E-03
65235,5.66E-03,6.31E-03
65236,5.66E-03,6.42E-03
65237,5.63E-03,6.52E-03
65238,5.63E-03,6.63E-03
65239,5.58E-03,6.75E-03
65240,5.49E-03,6.86E-03
65241,5.47E-03,6.98E-03
65242,5.49E-03,7.11E-03
65243,5.48E-03,7.25E-03
65244,5.52E-03,7.39E-03
65245,5.57E-03,7.53E-03
65246,5.64E-03,7.69E-03
65247,5.65E-03,7.84E-03
65248,5.67E-03,8.01E-03
65249,5.68E-03,8.17E-03
65250,5.62E-03,8.34E-03
65251,5.58E-03,8.51E-03
65252,5.59E-03,8.68E-03
65253,5.56E-03,8.86E-03
65254,5.59E-03,9.05E-03
65255,5.63E-03,9.24E-03
65256,5.63E-03,9.43E-03
65257,5.67E-03,9.63E-03
65258,5.71E-03,9.83E-03
65259,5.75E-03,1.00E-02
65260,5.87E-03,1.02E-02
65261,5.89E-03,1.05E-02
65262,5.97E-03,1.07E-02
65263,6.00E-03,1.09E-02
65264,5.94E-03,1.11E-02
65265,5.79E-03,1.13E-02
65266,5.95E-03,1.15E-02
65267,6.09E-03,1.17E-02
65268,6.16E-03,1.19E-02
65269,5.72E-03,1.21E-02
65270,5.13E-03,1.23E-02
65271,3.28E-03,1.28E-02
65272,6.02E-03,1.57E-02
65273,5.98E-03,1.59E-02
65274,5.74E-03,1.77E-02
65275,5.23E-03,1.75E-02
65276,5.41E-03,1.75E-02
65277,5.47E-03,1.77E-02
65278,5.28E-03,8.62E-03
65279,5.29E-03,8.59E-03
65280,5.38E-03,8.56E-03
65281,5.42E-03,8.53E-03
65282,5.43E-03,8.50E-03
65283,5.44E-03,8.48E-03
65284,5.46E-03,8.45E-03
65285,5.46E-03,8.43E-03
65286,5.47E-03,8.40E-03
65287,5.48E-03,8.37E-03
65288,5.49E-03,8.34E-03
65289,5.51E-03,8.31E-03
65290,5.49E-03,8.28E-03
65291,5.45E-03,8.24E-03
65292,5.47E-03,8.21E-03
65293,5.43E-03,8.17E-03
65294,5.45E-03,8.13E-03
65295,5.42E-03,8.09E-03
65296,5.42E-03,8.05E-03
65297,5.38E-03,8.01E-03
65298,5.40E-03,7.96E-03
65299,5.37E-03,7.92E-03
65300,5.39E-03,7.88E-03
65301,5.46E-03,7.84E-03
65302,5.52E-03,7.81E-03
65303,5.53E-03,7.77E-03
65304,5.46E-03,7.73E-03
65305,5.46E-03,7.69E-03
65306,5.38E-03,7.66E-03
65307,5.36E-03,7.62E-03
65308,5.37E-03,7.59E-03
65309,5.37E-03,7.56E-03
65310,5.38E-03,7.53E-03
65311,5.43E-03,7.50E-03
65312,5.48E-03,7.46E-03
65313,5.46E-03,7.43E-03
65314,5.43E-03,7.40E-03
65315,5.38E-03,7.37E-03
65316,5.35E-03,7.34E-03
65317,5.36E-03,7.31E-03
65318,5.36E-03,7.29E-03
65319,5.42E-03,7.26E-03
65320,5.44E-03,7.24E-03
65321,5.42E-03,7.22E-03
65322,5.43E-03,7.20E-03
65323,5.43E-03,7.18E-03
65324,5.39E-03,7.16E-03
65325,5.39E-03,7.14E-03
65326,5.45E-03,7.13E-03
65327,5.44E-03,7.12E-03
65328,5.39E-03,7.10E-03
65329,5.39E-03,7.09E-03
65330,5.44E-03,7.07E-03
65331,5.40E-03,7.06E-03
65332,5.39E-03,7.04E-03
65333,5.38E-03,7.03E-03
65334,5.41E-03,7.01E-03
65335,5.38E-03,7.00E-03
65336,5.36E-03,6.98E-03
65337,5.33E-03,6.97E-03
65338,5.34E-03,6.96E-03
65339,5.36E-03,6.95E-03
65340,5.38E-03,6.94E-03
65341,5.34E-03,6.93E-03
65342,5.37E-03,6.93E-03
65343,5.36E-03,6.93E-03
65344,5.40E-03,6.92E-03
65345,5.41E-03,6.92E-03
65346,5.39E-03,6.92E-03
65347,5.35E-03,6.91E-03
65348,5.26E-03,6.90E-03
65349,4.71E-03,6.86E-03
65350,3.55E-03,6.88E-03
65351,2.81E-03,6.88E-03
65352,5.54E-03,6.96E-03
65353,5.35E-03,6.98E-03
65354,5.39E-03,7.02E-03
65355,5.20E-03,7.06E-03
65356,5.17E-03,7.10E-03
65357,5.05E-03,7.16E-03
65358,4.93E-03,7.23E-03
65359,4.85E-03,7.32E-03
65360,4.80E-03,7.43E-03
65361,4.76E-03,7.57E-03
65362,4.76E-03,7.74E-03
65363,4.77E-03,7.93E-03
65364,4.83E-03,8.14E-03
65365,4.89E-03,8.39E-03
65366,4.94E-03,8.65E-03
65367,5.01E-03,8.95E-03
65368,5.08E-03,9.28E-03
65369,5.18E-03,9.64E-03
65370,5.24E-03,1.00E-02
65371,5.28E-03,1.04E-02
65372,5.41E-03,1.08E-02
65373,5.45E-03,1.13E-02
65374,5.51E-03,1.17E-02
65375,5.50E-03,1.21E-02
65376,5.48E-03,1.26E-02
65377,5.48E-03,1.31E-02
65378,5.51E-03,1.35E-02
65379,5.55E-03,1.40E-02
65380,5.55E-03,1.45E-02
65381,5.56E-03,1.50E-02
65382,5.56E-03,1.55E-02
65383,5.56E-03,1.60E-02
65384,5.55E-03,1.66E-02
65385,5.55E-03,1.71E-02
65386,5.54E-03,1.77E-02
65387,5.52E-03,1.83E-02
65388,5.50E-03,1.89E-02
65389,5.47E-03,1.96E-02
65390,5.46E-03,2.02E-02
65391,5.43E-03,2.09E-02
65392,5.43E-03,2.15E-02
65393,5.40E-03,2.22E-02
65394,5.37E-03,2.29E-02
65395,5.40E-03,2.36E-02
65396,5.41E-03,2.43E-02
65397,5.36E-03,2.50E-02
65398,5.31E-03,2.58E-02
65399,5.28E-03,2.65E-02
65400,5.24E-03,2.72E-02
65401,5.20E-03,2.78E-02
65402,5.18E-03,2.85E-02
65403,5.15E-03,2.91E-02
65404,5.13E-03,2.98E-02
65405,5.14E-03,3.03E-02
65406,5.14E-03,3.09E-02
65407,5.15E-03,3.14E-02
65408,5.16E-03,3.19E-02
65409,5.21E-03,3.23E-02
65410,5.29E-03,3.28E-02
65411,5.31E-03,3.31E-02
65412,5.34E-03,3.35E-02
65413,5.35E-03,3.37E-02
65414,5.33E-03,3.39E-02
65415,5.36E-03,3.41E-02
65416,5.34E-03,3.42E-02
65417,5.40E-03,3.43E-02
65418,5.35E-03,3.44E-02
65419,5.34E-03,3.44E-02
65420,5.37E-03,3.44E-02
65421,5.37E-03,3.44E-02
65422,5.36E-03,3.43E-02
65423,5.36E-03,3.43E-02
65424,5.32E-03,3.42E-02
65425,5.33E-03,3.41E-02
65426,5.36E-03,3.40E-02
65427,5.37E-03,3.38E-02
65428,5.34E-03,3.37E-02
65429,5.32E-03,3.36E-02
65430,5.30E-03,3.34E-02
65431,5.27E-03,3.33E-02
65432,5.24E-03,3.31E-02
65433,5.24E-03,3.30E-02
65434,5.28E-03,3.28E-02
65435,5.26E-03,3.26E-02
65436,5.28E-03,3.24E-02
65437,5.27E-03,3.22E-02
65438,5.27E-03,3.20E-02
65439,5.20E-03,3.18E-02
65440,5.21E-03,3.16E-02
65441,5.21E-03,3.14E-02
65442,5.20E-03,3.11E-02
65443,5.21E-03,3.09E-02
65444,5.22E-03,3.06E-02
65445,5.21E-03,3.03E-02
65446,5.23E-03,3.01E-02
65447,5.27E-03,2.98E-02
65448,5.26E-03,2.95E-02
65449,5.28E-03,2.92E-02
65450,5.31E-03,2.89E-02
65451,5.33E-03,2.86E-02
65452,5.36E-03,2.83E-02
65453,5.34E-03,2.80E-02
65454,5.41E-03,2.77E-02
65455,5.44E-03,2.73E-02
65456,5.43E-03,2.70E-02
65457,5.46E-03,2.67E-02
65458,5.51E-03,2.64E-02
65459,5.48E-03,2.60E-02
65460,5.42E-03,2.57E-02
65461,5.49E-03,2.54E-02
65462,5.49E-03,2.51E-02
65463,5.55E-03,2.47E-02
65464,5.57E-03,2.44E-02
65465,5.54E-03,2.40E-02
65466,5.48E-03,2.37E-02
65467,5.43E-03,2.34E-02
65468,5.46E-03,2.30E-02
65469,5.41E-03,2.27E-02
65470,5.43E-03,2.24E-02
65471,5.47E-03,2.20E-02
65472,5.44E-03,2.17E-02
65473,5.45E-03,2.14E-02
65474,5.44E-03,2.11E-02
65475,5.42E-03,2.07E-02
65476,5.44E-03,2.04E-02
65477,5.45E-03,2.01E-02
65478,5.41E-03,1.97E-02
65479,5.43E-03,1.94E-02
65480,5.42E-03,1.91E-02
65481,5.40E-03,1.88E-02
65482,5.43E-03,1.85E-02
65483,5.42E-03,1.81E-02
65484,5.42E-03,1.78E-02
65485,5.45E-03,1.75E-02
65486,5.46E-03,1.72E-02
65487,5.44E-03,1.69E-02
65488,5.46E-03,1.66E-02
65489,5.51E-03,1.63E-02
65490,5.54E-03,1.60E-02
65491,5.55E-03,1.57E-02
65492,5.52E-03,1.54E-02
65493,5.48E-03,1.51E-02
65494,5.42E-03,1.48E-02
65495,5.43E-03,1.45E-02
65496,5.39E-03,1.42E-02
65497,5.37E-03,1.39E-02
65498,5.37E-03,1.37E-02
65499,5.33E-03,1.34E-02
65500,5.33E-03,1.31E-02
65501,5.30E-03,1.29E-02
65502,5.33E-03,1.26E-02
65503,5.32E-03,1.23E-02
65504,5.34E-03,1.21E-02
65505,5.36E-03,1.18E-02
65506,5.36E-03,1.16E-02
65507,5.37E-03,1.13E-02
65508,5.39E-03,1.11E-02
65509,5.34E-03,1.08E-02
65510,5.31E-03,1.06E-02
65511,5.32E-03,1.03E-02
65512,5.33E-03,1.01E-02
65513,5.31E-03,9.90E-03
65514,5.30E-03,9.68E-03
65515,5.34E-03,9.47E-03
65516,5.31E-03,9.26E-03
65517,5.35E-03,9.06E-03
65518,5.36E-03,8.86E-03
65519,5.35E-03,8.67E-03
65520,5.36E-03,8.48E-03
65521,5.35E-03,8.29E-03
65522,5.39E-03,8.11E-03
65523,5.44E-03,7.93E-03
65524,5.47E-03,7.76E-03
65525,5.40E-03,7.58E-03
65526,5.43E-03,7.41E-03
65527,5.42E-03,7.25E-03
65528,5.43E-03,7.09E-03
65529,5.48E-03,6.94E-03
65530,5.51E-03,6.79E-03
65531,5.54E-03,6.64E-03
65532,5.53E-03,6.50E-03
65533,5.54E-03,6.36E-03
65534,5.53E-03,6.22E-03
65535,5.53E-03,6.08E-03
65536,5.53E-03,5.95E-03
65537,5.53E-03,5.81E-03
65538,5.53E-03,5.69E-03
65539,5.54E-03,5.56E-03
65540,5.50E-03,5.43E-03
65541,5.49E-03,5.31E-03
65542,5.53E-03,5.20E-03
65543,5.51E-03,5.08E-03
65544,5.48E-03,4.97E-03
65545,5.54E-03,4.86E-03
65546,5.54E-03,4.76E-03
65547,5.55E-03,4.65E-03
65548,5.57E-03,4.55E-03
65549,5.59E-03,4.45E-03
65550,5.57E-03,4.36E-03
65551,5.52E-03,4.26E-03
65552,5.52E-03,4.17E-03
65553,5.52E-03,4.09E-03
65554,5.51E-03,4.00E-03
65555,5.44E-03,3.92E-03
65556,5.46E-03,3.84E-03
65557,5.47E-03,3.77E-03
65558,5.52E-03,3.70E-03
65559,5.51E-03,3.62E-03
65560,5.55E-03,3.56E-03
65561,5.54E-03,3.49E-03
65562,5.60E-03,3.43E-03
65563,5.59E-03,3.36E-03
65564,5.54E-03,3.30E-03
65565,5.52E-03,3.25E-03
65566,5.50E-03,3.19E-03
65567,5.50E-03,3.14E-03
65568,5.53E-03,3.09E-03
65569,5.55E-03,3.05E-03
65570,5.55E-03,3.00E-03
65571,5.50E-03,2.96E-03
65572,5.49E-03,2.92E-03
65573,5.54E-03,2.88E-03
65574,5.57E-03,2.84E-03
65575,5.00E-03,1.32E-02
65576,5.46E-03,1.30E-02
65577,5.31E-03,1.28E-02
65578,5.30E-03,1.25E-02
65579,5.29E-03,1.23E-02
65580,5.35E-03,1.21E-02
65581,5.41E-03,1.18E-02
65582,5.39E-03,1.16E-02
65583,5.40E-03,1.13E-02
65584,5.40E-03,1.11E-02
65585,5.38E-03,1.08E-02
65586,5.40E-03,1.06E-02
65587,5.39E-03,1.03E-02
65588,5.40E-03,1.00E-02
65589,5.42E-03,9.77E-03
65590,5.44E-03,9.50E-03
65591,5.44E-03,9.23E-03
65592,5.39E-03,8.96E-03
65593,5.38E-03,8.68E-03
65594,5.43E-03,8.41E-03
65595,5.44E-03,8.12E-03
65596,5.40E-03,7.84E-03
65597,5.43E-03,7.56E-03
65598,5.43E-03,7.27E-03
65599,5.35E-03,6.98E-03
65600,5.31E-03,6.70E-03
65601,5.30E-03,6.41E-03
65602,5.30E-03,6.12E-03
65603,5.27E-03,5.83E-03
65604,5.27E-03,5.54E-03
65605,5.29E-03,5.25E-03
65606,5.38E-03,4.96E-03
65607,5.40E-03,4.67E-03
65608,5.41E-03,4.38E-03
65609,5.41E-03,4.09E-03
65610,5.40E-03,3.80E-03
65611,5.37E-03,3.50E-03
65612,5.33E-03,3.21E-03
65613,5.33E-03,2.92E-03
65614,4.92E-03,1.80E-02
65615,5.20E-03,1.82E-02
65616,5.51E-03,1.77E-02
65617,6.10E-03,1.71E-02
65618,6.66E-03,1.41E-02
65619,5.24E-03,1.74E-02
65620,5.56E-03,2.63E-02
65621,5.35E-03,2.64E-03
65622,5.57E-03,2.81E-03
65623,5.45E-03,2.35E-03
65624,5.43E-03,2.33E-03
65625,5.43E-03,2.32E-03
65626,5.45E-03,2.32E-03
65627,5.47E-03,2.31E-03
65628,5.48E-03,2.30E-03
65629,5.55E-03,2.29E-03
65630,5.54E-03,2.29E-03
65631,5.51E-03,2.29E-03
65632,5.51E-03,2.29E-03
65633,5.55E-03,2.29E-03
65634,5.56E-03,2.30E-03
65635,5.63E-03,2.30E-03
65636,5.62E-03,2.31E-03
65637,5.60E-03,2.31E-03
65638,5.57E-03,2.33E-03
65639,5.58E-03,2.34E-03
65640,5.54E-03,2.35E-03
65641,5.53E-03,2.37E-03
65642,5.50E-03,2.39E-03
65643,5.54E-03,2.41E-03
65644,5.52E-03,2.43E-03
65645,5.55E-03,2.45E-03
65646,5.58E-03,2.48E-03
65647,5.62E-03,2.51E-03
65648,5.62E-03,2.54E-03
65649,5.60E-03,2.58E-03
65650,5.53E-03,2.62E-03
65651,5.52E-03,2.65E-03
65652,5.50E-03,2.69E-03
65653,5.55E-03,2.73E-03
65654,5.56E-03,2.78E-03
65655,5.58E-03,2.83E-03
65656,5.60E-03,2.87E-03
65657,5.61E-03,2.92E-03
65658,5.62E-03,2.98E-03
65659,5.64E-03,3.03E-03
65660,5.66E-03,3.08E-03
65661,5.65E-03,3.14E-03
65662,5.61E-03,3.20E-03
65663,5.62E-03,3.26E-03
65664,5.68E-03,3.32E-03
65665,5.69E-03,3.38E-03
65666,5.69E-03,3.44E-03
65667,5.68E-03,3.51E-03
65668,5.67E-03,3.57E-03
65669,5.70E-03,3.63E-03
65670,5.70E-03,3.70E-03
65671,5.71E-03,3.77E-03
65672,5.74E-03,3.84E-03
65673,5.76E-03,3.91E-03
65674,5.76E-03,3.98E-03
65675,5.77E-03,4.05E-03
65676,5.78E-03,4.12E-03
65677,5.79E-03,4.19E-03
65678,5.79E-03,4.26E-03
65679,5.80E-03,4.33E-03
65680,5.80E-03,4.40E-03
65681,5.80E-03,4.47E-03
65682,5.80E-03,4.53E-03
65683,5.79E-03,4.60E-03
65684,5.79E-03,4.67E-03
65685,5.78E-03,4.73E-03
65686,5.77E-03,4.80E-03
65687,5.76E-03,4.87E-03
65688,5.76E-03,4.94E-03
65689,5.75E-03,5.01E-03
65690,5.74E-03,5.08E-03
65691,5.74E-03,5.15E-03
65692,5.73E-03,5.23E-03
65693,5.69E-03,5.31E-03
65694,5.71E-03,5.38E-03
65695,5.70E-03,5.46E-03
65696,5.69E-03,5.55E-03
65697,5.68E-03,5.63E-03
65698,5.67E-03,5.72E-03
65699,5.66E-03,5.81E-03
65700,5.65E-03,5.91E-03
65701,5.65E-03,6.01E-03
65702,5.64E-03,6.12E-03
65703,5.61E-03,6.22E-03
65704,5.59E-03,6.33E-03
65705,5.54E-03,6.45E-03
65706,5.53E-03,6.57E-03
65707,5.49E-03,6.69E-03
65708,5.51E-03,6.82E-03
65709,5.54E-03,6.96E-03
65710,5.60E-03,7.10E-03
65711,5.60E-03,7.25E-03
65712,5.65E-03,7.40E-03
65713,5.65E-03,7.56E-03
65714,5.62E-03,7.72E-03
65715,5.62E-03,7.88E-03
65716,5.65E-03,8.05E-03
65717,5.60E-03,8.23E-03
65718,5.53E-03,8.40E-03
65719,5.54E-03,8.58E-03
65720,5.59E-03,8.77E-03
65721,5.63E-03,8.96E-03
65722,5.63E-03,9.15E-03
65723,5.68E-03,9.35E-03
65724,5.71E-03,9.55E-03
65725,5.76E-03,9.75E-03
65726,5.83E-03,9.96E-03
65727,5.86E-03,1.02E-02
65728,5.91E-03,1.04E-02
65729,5.88E-03,1.06E-02
65730,5.88E-03,1.08E-02
65731,5.89E-03,1.10E-02
65732,5.92E-03,1.12E-02
65733,5.94E-03,1.14E-02
65734,5.86E-03,1.16E-02
65735,5.68E-03,1.19E-02
65736,5.33E-03,1.21E-02
65737,5.06E-03,1.22E-02
65738,4.39E-03,1.27E-02
65739,4.75E-03,1.25E-02
65740,5.64E-03,3.05E-03
65741,5.67E-03,3.33E-03
65742,5.69E-03,3.61E-03
65743,5.65E-03,3.90E-03
65744,5.64E-03,4.19E-03
65745,5.63E-03,4.48E-03
65746,5.58E-03,4.77E-03
65747,5.59E-03,5.06E-03
65748,5.54E-03,5.36E-03
65749,5.54E-03,5.65E-03
65750,5.57E-03,5.94E-03
65751,5.60E-03,6.23E-03
65752,5.58E-03,6.52E-03
65753,5.54E-03,6.81E-03
65754,5.56E-03,7.11E-03
65755,5.56E-03,7.39E-03
65756,5.53E-03,7.68E-03
65757,5.51E-03,7.97E-03
65758,5.52E-03,8.25E-03
65759,5.52E-03,8.53E-03
65760,5.53E-03,8.80E-03
65761,5.49E-03,9.08E-03
65762,5.50E-03,9.35E-03
65763,5.52E-03,9.62E-03
65764,5.55E-03,9.89E-03
65765,5.57E-03,1.02E-02
65766,5.54E-03,1.04E-02
65767,5.54E-03,1.07E-02
65768,5.59E-03,1.09E-02
65769,5.61E-03,1.12E-02
65770,5.66E-03,1.14E-02
65771,5.73E-03,1.17E-02
65772,5.71E-03,1.19E-02
65773,5.74E-03,1.22E-02
65774,5.79E-03,1.24E-02
65775,5.84E-03,1.26E-02
65776,5.86E-03,1.29E-02
65777,5.90E-03,1.31E-02
65778,5.85E-03,1.33E-02
65779,5.56E-03,1.35E-02
65780,5.44E-03,1.76E-02
65781,5.49E-03,1.76E-02
65782,3.62E-03,1.72E-02
65783,3.79E-03,1.71E-02
65784,4.07E-03,1.67E-02
65785,4.10E-03,1.69E-02
65786,4.14E-03,1.65E-02
65787,4.14E-03,1.66E-02
65788,4.58E-03,1.62E-02
65789,4.34E-03,1.63E-02
65790,4.96E-03,1.60E-02
65791,5.41E-03,1.56E-02
65792,5.53E-03,1.50E-02
65793,5.52E-03,8.67E-03
65794,4.64E-03,2.56E-02
65795,5.14E-03,2.58E-02
65796,5.59E-03,2.61E-02
65797,5.91E-03,2.65E-02
65798,5.88E-03,1.46E-02
65799,5.87E-03,2.64E-02
65800,4.83E-03,1.87E-02
65801,5.16E-03,1.80E-02
65802,5.01E-03,1.85E-02
65803,5.08E-03,1.83E-02
65804,4.79E-03,1.77E-02
65805,4.85E-03,1.77E-02
65806,4.92E-03,1.78E-02
65807,5.12E-03,1.88E-02
65808,5.28E-03,1.86E-02
65809,5.26E-03,1.08E-02
65810,5.13E-03,1.06E-02
65811,5.24E-03,1.05E-02
65812,4.81E-03,1.15E-02
65813,4.84E-03,1.18E-02
65814,5.03E-03,1.22E-02
65815,4.84E-03,1.15E-02
65816,5.18E-03,1.84E-02
65817,5.93E-03,1.28E-02
65818,5.63E-03,2.77E-03
65819,5.43E-03,2.36E-03
65820,5.08E-03,1.09E-02
65821,4.99E-03,1.18E-02
65822,5.25E-03,1.21E-02
65823,4.93E-03,2.61E-02
65824,5.39E-03,1.42E-02
65825,5.13E-03,1.44E-02
65826,5.27E-03,1.18E-02
65827,5.25E-03,1.19E-02
65828,5.21E-03,1.12E-02
65829,5.11E-03,1.33E-02
65830,4.94E-03,1.33E-02
65831,4.54E-03,1.34E-02
65832,5.17E-03,1.34E-02
65833,5.25E-03,1.34E-02
65834,5.40E-03,1.34E-02
65835,5.40E-03,1.34E-02
65836,5.48E-03,1.34E-02
65837,5.64E-03,1.34E-02
65838,5.68E-03,1.34E-02
65839,5.74E-03,1.34E-02
65840,5.80E-03,1.34E-02
65841,5.77E-03,1.35E-02
65842,5.69E-03,1.35E-02
65843,5.67E-03,1.35E-02
65844,5.62E-03,1.36E-02
65845,5.56E-03,1.36E-02
65846,5.60E-03,1.37E-02
65847,5.59E-03,1.37E-02
65848,5.60E-03,1.38E-02
65849,5.65E-03,1.38E-02
65850,5.66E-03,1.39E-02
65851,5.63E-03,1.39E-02
65852,5.57E-03,1.40E-02
65853,5.57E-03,1.41E-02
65854,5.58E-03,1.41E-02
65855,5.59E-03,1.42E-02
65856,5.59E-03,1.43E-02
65857,5.61E-03,1.43E-02
65858,5.59E-03,1.44E-02
65859,5.60E-03,1.45E-02
65860,5.58E-03,1.46E-02
65861,5.54E-03,1.46E-02
65862,5.59E-03,1.47E-02
65863,5.59E-03,1.48E-02
65864,5.59E-03,1.49E-02
65865,5.59E-03,1.50E-02
65866,5.59E-03,1.51E-02
65867,5.59E-03,1.51E-02
65868,5.59E-03,1.52E-02
65869,5.59E-03,1.53E-02
65870,5.59E-03,1.54E-02
65871,5.59E-03,1.55E-02
65872,5.59E-03,1.56E-02
65873,5.59E-03,1.57E-02
65874,5.59E-03,1.58E-02
65875,5.59E-03,1.59E-02
65876,5.62E-03,1.60E-02
65877,5.62E-03,1.61E-02
65878,5.61E-03,1.62E-02
65879,5.61E-03,1.63E-02
65880,5.60E-03,1.64E-02
65881,5.60E-03,1.65E-02
65882,5.59E-03,1.66E-02
65883,5.57E-03,1.67E-02
65884,5.55E-03,1.68E-02
65885,5.57E-03,1.69E-02
65886,5.59E-03,1.69E-02
65887,5.62E-03,1.70E-02
65888,5.66E-03,1.71E-02
65889,5.64E-03,1.72E-02
65890,5.67E-03,1.73E-02
65891,5.64E-03,1.74E-02
65892,5.63E-03,1.75E-02
65893,5.57E-03,1.76E-02
65894,5.62E-03,1.77E-02
65895,5.62E-03,1.78E-02
65896,5.62E-03,1.79E-02
65897,5.62E-03,1.80E-02
65898,5.63E-03,1.81E-02
65899,5.63E-03,1.81E-02
65900,5.64E-03,1.82E-02
65901,5.66E-03,1.83E-02
65902,5.65E-03,1.84E-02
65903,5.65E-03,1.85E-02
65904,5.61E-03,1.86E-02
65905,5.58E-03,1.86E-02
65906,5.57E-03,1.87E-02
65907,5.60E-03,1.88E-02
65908,5.61E-03,1.89E-02
65909,5.62E-03,1.89E-02
65910,5.62E-03,1.90E-02
65911,5.63E-03,1.91E-02
65912,5.63E-03,1.92E-02
65913,5.65E-03,1.92E-02
65914,5.67E-03,1.93E-02
65915,5.65E-03,1.93E-02
65916,5.64E-03,1.94E-02
65917,5.59E-03,1.95E-02
65918,5.63E-03,1.95E-02
65919,5.61E-03,1.96E-02
65920,5.63E-03,1.96E-02
65921,5.63E-03,1.97E-02
65922,5.62E-03,1.97E-02
65923,5.62E-03,1.98E-02
65924,5.62E-03,1.98E-02
65925,5.62E-03,1.99E-02
65926,5.62E-03,1.99E-02
65927,5.61E-03,2.00E-02
65928,5.61E-03,2.00E-02
65929,5.60E-03,2.00E-02
65930,5.58E-03,2.01E-02
65931,5.55E-03,2.01E-02
65932,5.58E-03,2.01E-02
65933,5.57E-03,2.02E-02
65934,5.63E-03,2.02E-02
65935,5.64E-03,2.02E-02
65936,5.65E-03,2.02E-02
65937,5.66E-03,2.02E-02
65938,5.68E-03,2.02E-02
65939,5.70E-03,2.03E-02
65940,5.69E-03,2.03E-02
65941,5.72E-03,2.03E-02
65942,5.73E-03,2.03E-02
65943,5.71E-03,2.03E-02
65944,5.67E-03,2.03E-02
65945,5.62E-03,2.03E-02
65946,5.62E-03,2.02E-02
65947,5.56E-03,2.02E-02
65948,5.57E-03,2.02E-02
65949,5.60E-03,2.02E-02
65950,5.62E-03,2.02E-02
65951,5.61E-03,2.01E-02
65952,5.61E-03,2.01E-02
65953,5.61E-03,2.01E-02
65954,5.61E-03,2.01E-02
65955,5.61E-03,2.00E-02
65956,5.61E-03,2.00E-02
65957,5.59E-03,1.99E-02
65958,5.57E-03,1.99E-02
65959,5.57E-03,1.99E-02
65960,5.59E-03,1.98E-02
65961,5.64E-03,1.98E-02
65962,5.64E-03,1.97E-02
65963,5.65E-03,1.97E-02
65964,5.63E-03,1.96E-02
65965,5.64E-03,1.95E-02
65966,5.62E-03,1.95E-02
65967,5.59E-03,1.94E-02
65968,5.62E-03,1.93E-02
65969,5.60E-03,1.93E-02
65970,5.61E-03,1.92E-02
65971,5.62E-03,1.91E-02
65972,5.63E-03,1.90E-02
65973,5.64E-03,1.89E-02
65974,5.68E-03,1.89E-02
65975,5.66E-03,1.88E-02
65976,5.62E-03,1.87E-02
65977,5.58E-03,1.86E-02
65978,5.61E-03,1.85E-02
65979,5.61E-03,1.84E-02
65980,5.61E-03,1.82E-02
65981,5.61E-03,1.81E-02
65982,5.61E-03,1.80E-02
65983,5.60E-03,1.79E-02
65984,5.58E-03,1.78E-02
65985,5.55E-03,1.76E-02
65986,5.56E-03,1.75E-02
65987,5.56E-03,1.74E-02
65988,5.62E-03,1.72E-02
65989,5.62E-03,1.71E-02
65990,5.61E-03,1.70E-02
65991,5.61E-03,1.68E-02
65992,5.61E-03,1.67E-02
65993,5.60E-03,1.65E-02
65994,5.58E-03,1.64E-02
65995,5.52E-03,1.62E-02
65996,5.57E-03,1.61E-02
65997,5.59E-03,1.59E-02
65998,5.61E-03,1.57E-02
65999,5.63E-03,1.56E-02
66000,5.62E-03,1.54E-02
66001,5.58E-03,1.53E-02
66002,5.54E-03,1.51E-02
66003,5.54E-03,1.49E-02
66004,5.57E-03,1.48E-02
66005,5.58E-03,1.46E-02
66006,5.57E-03,1.44E-02
66007,5.57E-03,1.43E-02
66008,5.58E-03,1.41E-02
66009,5.62E-03,1.40E-02
66010,5.63E-03,1.38E-02
66011,5.64E-03,1.36E-02
66012,5.63E-03,1.35E-02
66013,5.66E-03,1.33E-02
66014,5.70E-03,1.32E-02
66015,5.69E-03,1.30E-02
66016,5.66E-03,1.29E-02
66017,5.63E-03,1.27E-02
66018,5.63E-03,1.26E-02
66019,5.65E-03,1.24E-02
66020,5.66E-03,1.22E-02
66021,5.68E-03,1.21E-02
66022,5.68E-03,1.19E-02
66023,5.72E-03,1.18E-02
66024,5.75E-03,1.16E-02
66025,5.72E-03,1.15E-02
66026,5.69E-03,1.13E-02
66027,5.64E-03,1.12E-02
66028,5.63E-03,1.10E-02
66029,5.60E-03,1.09E-02
66030,5.62E-03,1.07E-02
66031,5.60E-03,1.06E-02
66032,5.61E-03,1.04E-02
66033,5.63E-03,1.03E-02
66034,5.65E-03,1.02E-02
66035,5.66E-03,1.00E-02
66036,5.67E-03,9.87E-03
66037,5.69E-03,9.72E-03
66038,5.69E-03,9.58E-03
66039,5.58E-03,9.44E-03
66040,5.46E-03,9.30E-03
66041,5.34E-03,9.16E-03
66042,5.15E-03,9.03E-03
66043,5.00E-03,8.91E-03
66044,4.96E-03,8.78E-03
66045,5.26E-03,8.43E-03
66046,5.33E-03,8.40E-03
66047,5.40E-03,8.38E-03
66048,5.44E-03,8.35E-03
66049,5.44E-03,8.33E-03
66050,5.47E-03,8.31E-03
66051,5.49E-03,8.29E-03
66052,5.50E-03,8.26E-03
66053,5.50E-03,8.24E-03
66054,5.51E-03,8.21E-03
66055,5.52E-03,8.18E-03
66056,5.52E-03,8.14E-03
66057,5.49E-03,8.11E-03
66058,5.51E-03,8.07E-03
66059,5.49E-03,8.03E-03
66060,5.50E-03,7.99E-03
66061,5.48E-03,7.95E-03
66062,5.48E-03,7.90E-03
66063,5.44E-03,7.86E-03
66064,5.42E-03,7.82E-03
66065,5.43E-03,7.77E-03
66066,5.46E-03,7.73E-03
66067,5.52E-03,7.69E-03
66068,5.55E-03,7.65E-03
66069,5.59E-03,7.61E-03
66070,5.51E-03,7.57E-03
66071,5.49E-03,7.54E-03
66072,5.49E-03,7.50E-03
66073,5.42E-03,7.47E-03
66074,5.42E-03,7.43E-03
66075,5.42E-03,7.40E-03
66076,5.48E-03,7.37E-03
66077,5.51E-03,7.33E-03
66078,5.53E-03,7.30E-03
66079,5.51E-03,7.26E-03
66080,5.49E-03,7.23E-03
66081,5.45E-03,7.19E-03
66082,5.41E-03,7.16E-03
66083,5.45E-03,7.13E-03
66084,5.45E-03,7.10E-03
66085,5.50E-03,7.07E-03
66086,5.49E-03,7.05E-03
66087,5.46E-03,7.02E-03
66088,5.49E-03,7.00E-03
66089,5.43E-03,6.98E-03
66090,5.45E-03,6.95E-03
66091,5.43E-03,6.93E-03
66092,5.45E-03,6.91E-03
66093,5.45E-03,6.90E-03
66094,5.46E-03,6.88E-03
66095,5.47E-03,6.85E-03
66096,5.48E-03,6.83E-03
66097,5.49E-03,6.81E-03
66098,5.46E-03,6.79E-03
66099,5.46E-03,6.77E-03
66100,5.47E-03,6.75E-03
66101,5.45E-03,6.72E-03
66102,5.45E-03,6.70E-03
66103,5.44E-03,6.68E-03
66104,5.44E-03,6.67E-03
66105,5.44E-03,6.65E-03
66106,5.43E-03,6.64E-03
66107,5.43E-03,6.62E-03
66108,5.42E-03,6.61E-03
66109,5.41E-03,6.60E-03
66110,5.43E-03,6.59E-03
66111,5.42E-03,6.58E-03
66112,5.43E-03,6.57E-03
66113,5.36E-03,6.56E-03
66114,5.24E-03,6.54E-03
66115,4.96E-03,6.52E-03
66116,5.21E-03,6.57E-03
66117,4.72E-03,6.57E-03
66118,4.84E-03,6.54E-03
66119,5.32E-03,6.58E-03
66120,5.36E-03,6.60E-03
66121,5.28E-03,6.64E-03
66122,5.27E-03,6.68E-03
66123,5.18E-03,6.73E-03
66124,5.11E-03,6.80E-03
66125,5.07E-03,6.88E-03
66126,5.01E-03,6.99E-03
66127,5.00E-03,7.12E-03
66128,5.03E-03,7.28E-03
66129,5.00E-03,7.47E-03
66130,5.02E-03,7.69E-03
66131,5.06E-03,7.93E-03
66132,5.10E-03,8.20E-03
66133,5.18E-03,8.50E-03
66134,5.23E-03,8.83E-03
66135,5.31E-03,9.19E-03
66136,5.37E-03,9.58E-03
66137,5.41E-03,9.99E-03
66138,5.48E-03,1.04E-02
66139,5.54E-03,1.08E-02
66140,5.53E-03,1.13E-02
66141,5.54E-03,1.17E-02
66142,5.55E-03,1.22E-02
66143,5.56E-03,1.27E-02
66144,5.57E-03,1.31E-02
66145,5.57E-03,1.36E-02
66146,5.57E-03,1.41E-02
66147,5.57E-03,1.46E-02
66148,5.57E-03,1.52E-02
66149,5.58E-03,1.57E-02
66150,5.58E-03,1.63E-02
66151,5.57E-03,1.69E-02
66152,5.57E-03,1.75E-02
66153,5.56E-03,1.81E-02
66154,5.54E-03,1.88E-02
66155,5.52E-03,1.94E-02
66156,5.52E-03,2.01E-02
66157,5.47E-03,2.07E-02
66158,5.44E-03,2.14E-02
66159,5.48E-03,2.22E-02
66160,5.45E-03,2.29E-02
66161,5.46E-03,2.36E-02
66162,5.45E-03,2.44E-02
66163,5.43E-03,2.51E-02
66164,5.41E-03,2.59E-02
66165,5.37E-03,2.66E-02
66166,5.32E-03,2.74E-02
66167,5.30E-03,2.81E-02
66168,5.28E-03,2.88E-02
66169,5.30E-03,2.95E-02
66170,5.30E-03,3.01E-02
66171,5.28E-03,3.07E-02
66172,5.26E-03,3.13E-02
66173,5.26E-03,3.19E-02
66174,5.28E-03,3.24E-02
66175,5.26E-03,3.29E-02
66176,5.34E-03,3.33E-02
66177,5.36E-03,3.37E-02
66178,5.39E-03,3.40E-02
66179,5.40E-03,3.43E-02
66180,5.38E-03,3.45E-02
66181,5.45E-03,3.47E-02
66182,5.47E-03,3.48E-02
66183,5.48E-03,3.49E-02
66184,5.42E-03,3.49E-02
66185,5.42E-03,3.49E-02
66186,5.42E-03,3.49E-02
66187,5.46E-03,3.49E-02
66188,5.43E-03,3.48E-02
66189,5.44E-03,3.47E-02
66190,5.45E-03,3.46E-02
66191,5.47E-03,3.45E-02
66192,5.47E-03,3.44E-02
66193,5.46E-03,3.42E-02
66194,5.43E-03,3.41E-02
66195,5.43E-03,3.39E-02
66196,5.42E-03,3.38E-02
66197,5.39E-03,3.36E-02
66198,5.42E-03,3.35E-02
66199,5.42E-03,3.33E-02
66200,5.44E-03,3.31E-02
66201,5.40E-03,3.29E-02
66202,5.37E-03,3.27E-02
66203,5.37E-03,3.25E-02
66204,5.35E-03,3.23E-02
66205,5.33E-03,3.21E-02
66206,5.33E-03,3.18E-02
66207,5.34E-03,3.16E-02
66208,5.32E-03,3.13E-02
66209,5.33E-03,3.11E-02
66210,5.34E-03,3.08E-02
66211,5.35E-03,3.05E-02
66212,5.35E-03,3.02E-02
66213,5.36E-03,2.99E-02
66214,5.37E-03,2.96E-02
66215,5.38E-03,2.93E-02
66216,5.39E-03,2.90E-02
66217,5.40E-03,2.87E-02
66218,5.47E-03,2.84E-02
66219,5.52E-03,2.80E-02
66220,5.53E-03,2.77E-02
66221,5.54E-03,2.74E-02
66222,5.55E-03,2.71E-02
66223,5.56E-03,2.67E-02
66224,5.55E-03,2.64E-02
66225,5.52E-03,2.60E-02
66226,5.50E-03,2.57E-02
66227,5.54E-03,2.54E-02
66228,5.49E-03,2.50E-02
66229,5.60E-03,2.47E-02
66230,5.63E-03,2.43E-02
66231,5.55E-03,2.40E-02
66232,5.51E-03,2.37E-02
66233,5.53E-03,2.33E-02
66234,5.52E-03,2.30E-02
66235,5.47E-03,2.26E-02
66236,5.45E-03,2.23E-02
66237,5.47E-03,2.20E-02
66238,5.48E-03,2.16E-02
66239,5.48E-03,2.13E-02
66240,5.49E-03,2.09E-02
66241,5.50E-03,2.06E-02
66242,5.51E-03,2.03E-02
66243,5.51E-03,1.99E-02
66244,5.53E-03,1.96E-02
66245,5.53E-03,1.93E-02
66246,5.52E-03,1.90E-02
66247,5.51E-03,1.86E-02
66248,5.50E-03,1.83E-02
66249,5.49E-03,1.80E-02
66250,5.46E-03,1.77E-02
66251,5.46E-03,1.74E-02
66252,5.50E-03,1.70E-02
66253,5.52E-03,1.67E-02
66254,5.52E-03,1.64E-02
66255,5.53E-03,1.61E-02
66256,5.59E-03,1.58E-02
66257,5.61E-03,1.55E-02
66258,5.57E-03,1.52E-02
66259,5.59E-03,1.49E-02
66260,5.50E-03,1.46E-02
66261,5.47E-03,1.43E-02
66262,5.49E-03,1.40E-02
66263,5.45E-03,1.37E-02
66264,5.45E-03,1.35E-02
66265,5.43E-03,1.32E-02
66266,5.39E-03,1.29E-02
66267,5.35E-03,1.26E-02
66268,5.41E-03,1.24E-02
66269,5.42E-03,1.21E-02
66270,5.46E-03,1.19E-02
66271,5.46E-03,1.16E-02
66272,5.51E-03,1.13E-02
66273,5.49E-03,1.11E-02
66274,5.45E-03,1.08E-02
66275,5.43E-03,1.06E-02
66276,5.42E-03,1.03E-02
66277,5.40E-03,1.01E-02
66278,5.39E-03,9.88E-03
66279,5.38E-03,9.66E-03
66280,5.37E-03,9.44E-03
66281,5.37E-03,9.22E-03
66282,5.37E-03,9.01E-03
66283,5.43E-03,8.81E-03
66284,5.43E-03,8.61E-03
66285,5.44E-03,8.41E-03
66286,5.44E-03,8.22E-03
66287,5.44E-03,8.04E-03
66288,5.44E-03,7.86E-03
66289,5.44E-03,7.68E-03
66290,5.43E-03,7.50E-03
66291,5.41E-03,7.33E-03
66292,5.46E-03,7.16E-03
66293,5.46E-03,7.00E-03
66294,5.49E-03,6.84E-03
66295,5.50E-03,6.68E-03
66296,5.54E-03,6.53E-03
66297,5.53E-03,6.39E-03
66298,5.56E-03,6.24E-03
66299,5.57E-03,6.10E-03
66300,5.56E-03,5.96E-03
66301,5.55E-03,5.83E-03
66302,5.55E-03,5.69E-03
66303,5.55E-03,5.56E-03
66304,5.55E-03,5.43E-03
66305,5.55E-03,5.31E-03
66306,5.55E-03,5.18E-03
66307,5.55E-03,5.06E-03
66308,5.55E-03,4.95E-03
66309,5.55E-03,4.83E-03
66310,5.55E-03,4.72E-03
66311,5.55E-03,4.61E-03
66312,5.55E-03,4.50E-03
66313,5.55E-03,4.40E-03
66314,5.55E-03,4.30E-03
66315,5.56E-03,4.20E-03
66316,5.56E-03,4.11E-03
66317,5.57E-03,4.01E-03
66318,5.59E-03,3.92E-03
66319,5.55E-03,3.84E-03
66320,5.54E-03,3.75E-03
66321,5.50E-03,3.67E-03
66322,5.55E-03,3.59E-03
66323,5.55E-03,3.51E-03
66324,5.55E-03,3.44E-03
66325,5.52E-03,3.37E-03
66326,5.54E-03,3.30E-03
66327,5.54E-03,3.23E-03
66328,5.58E-03,3.17E-03
66329,5.59E-03,3.11E-03
66330,5.55E-03,3.05E-03
66331,5.53E-03,2.99E-03
66332,5.49E-03,2.93E-03
66333,5.55E-03,2.88E-03
66334,5.55E-03,2.83E-03
66335,5.55E-03,2.79E-03
66336,5.55E-03,2.74E-03
66337,5.54E-03,2.70E-03
66338,5.54E-03,2.66E-03
66339,5.52E-03,2.62E-03
66340,5.53E-03,2.58E-03
66341,5.56E-03,2.54E-03
66342,5.79E-03,1.71E-02
66343,5.91E-03,1.69E-02
66344,4.77E-03,1.67E-02
66345,4.88E-03,1.66E-02
66346,5.38E-03,1.65E-02
66347,5.26E-03,1.63E-02
66348,4.77E-03,1.62E-02
66349,5.22E-03,1.60E-02
66350,6.44E-03,1.58E-02
66351,6.35E-03,1.57E-02
66352,5.28E-03,1.55E-02
66353,5.04E-03,1.53E-02
66354,5.64E-03,1.51E-02
66355,5.50E-03,1.49E-02
66356,4.87E-03,1.47E-02
66357,4.79E-03,1.46E-02
66358,5.54E-03,1.44E-02
66359,4.98E-03,1.42E-02
66360,4.41E-03,1.40E-02
66361,4.71E-03,1.34E-02
66362,5.05E-03,1.32E-02
66363,5.22E-03,1.30E-02
66364,5.31E-03,1.28E-02
66365,5.33E-03,1.25E-02
66366,5.34E-03,1.23E-02
66367,5.33E-03,1.21E-02
66368,5.33E-03,1.18E-02
66369,5.33E-03,1.16E-02
66370,5.33E-03,1.13E-02
66371,5.33E-03,1.11E-02
66372,5.34E-03,1.08E-02
66373,5.35E-03,1.06E-02
66374,5.36E-03,1.03E-02
66375,5.38E-03,1.01E-02
66376,5.42E-03,9.78E-03
66377,5.41E-03,9.52E-03
66378,5.41E-03,9.25E-03
66379,5.40E-03,8.97E-03
66380,5.43E-03,8.70E-03
66381,5.42E-03,8.42E-03
66382,5.44E-03,8.14E-03
66383,5.43E-03,7.85E-03
66384,5.39E-03,7.57E-03
66385,5.39E-03,7.28E-03
66386,5.36E-03,7.00E-03
66387,5.35E-03,6.71E-03
66388,5.35E-03,6.42E-03
66389,5.35E-03,6.13E-03
66390,5.35E-03,5.84E-03
66391,5.34E-03,5.55E-03
66392,5.34E-03,5.26E-03
66393,5.36E-03,4.97E-03
66394,5.37E-03,4.68E-03
66395,5.40E-03,4.39E-03
66396,5.40E-03,4.10E-03
66397,5.37E-03,3.81E-03
66398,5.36E-03,3.51E-03
66399,5.34E-03,3.22E-03
66400,5.33E-03,2.93E-03
66401,5.37E-03,2.65E-03
66402,4.44E-03,1.51E-02
66403,4.23E-03,1.55E-02
66404,5.90E-03,1.58E-02
66405,4.62E-03,1.61E-02
66406,4.26E-03,1.64E-02
66407,4.14E-03,1.67E-02
66408,4.00E-03,1.70E-02
66409,3.93E-03,1.72E-02
66410,5.40E-03,1.74E-02
66411,5.74E-03,1.76E-02
66412,5.44E-03,1.76E-02
66413,5.12E-03,1.75E-02
66414,5.45E-03,2.38E-03
66415,5.62E-03,2.51E-03
66416,6.09E-03,1.39E-02
66417,5.95E-03,1.25E-02
66418,5.15E-03,8.65E-03
66419,5.35E-03,1.46E-02
66420,5.11E-03,1.15E-02
66421,5.33E-03,1.19E-02
66422,5.15E-03,1.17E-02
66423,5.46E-03,1.08E-02
66424,5.34E-03,1.09E-02
66425,5.30E-03,1.85E-02
66426,5.24E-03,1.80E-02
66427,5.10E-03,1.79E-02
66428,5.33E-03,1.83E-02
66429,5.20E-03,1.85E-02
66430,5.35E-03,2.62E-02
66431,5.26E-03,2.63E-02
66432,4.52E-03,2.59E-02
66433,5.39E-03,2.67E-03
66434,5.39E-03,2.95E-03
66435,5.35E-03,3.23E-03
66436,5.35E-03,3.52E-03
66437,5.35E-03,3.82E-03
66438,5.35E-03,4.11E-03
66439,5.35E-03,4.40E-03
66440,5.35E-03,4.69E-03
66441,5.38E-03,4.98E-03
66442,5.34E-03,5.27E-03
66443,5.34E-03,5.56E-03
66444,5.36E-03,5.85E-03
66445,5.39E-03,6.14E-03
66446,5.42E-03,6.43E-03
66447,5.39E-03,6.72E-03
66448,5.40E-03,7.01E-03
66449,5.43E-03,7.30E-03
66450,5.44E-03,7.59E-03
66451,5.45E-03,7.87E-03
66452,5.45E-03,8.15E-03
66453,5.45E-03,8.43E-03
66454,5.43E-03,8.71E-03
66455,5.44E-03,8.99E-03
66456,5.45E-03,9.26E-03
66457,5.42E-03,9.53E-03
66458,5.40E-03,9.80E-03
66459,5.39E-03,1.01E-02
66460,5.39E-03,1.03E-02
66461,5.40E-03,1.06E-02
66462,5.40E-03,1.08E-02
66463,5.39E-03,1.11E-02
66464,5.39E-03,1.14E-02
66465,5.40E-03,1.16E-02
66466,5.40E-03,1.18E-02
66467,5.41E-03,1.21E-02
66468,5.42E-03,1.23E-02
66469,5.39E-03,1.25E-02
66470,5.31E-03,1.28E-02
66471,5.23E-03,1.30E-02
66472,5.05E-03,1.32E-02
66473,4.90E-03,1.34E-02
66474,4.66E-03,1.36E-02
66475,4.64E-03,1.38E-02
66476,4.74E-03,1.40E-02
66477,4.93E-03,1.43E-02
66478,5.03E-03,1.44E-02
66479,5.09E-03,1.46E-02
66480,5.13E-03,1.48E-02
66481,5.27E-03,1.50E-02
66482,5.34E-03,1.52E-02
66483,5.42E-03,1.54E-02
66484,5.58E-03,1.56E-02
66485,5.74E-03,1.57E-02
66486,5.58E-03,1.59E-02
66487,5.30E-03,1.60E-02
66488,5.23E-03,1.62E-02
66489,5.12E-03,1.63E-02
66490,5.15E-03,1.65E-02
66491,5.10E-03,1.66E-02
66492,5.13E-03,1.68E-02
66493,5.14E-03,1.69E-02
66494,4.86E-03,1.70E-02
66495,5.21E-03,8.69E-03
66496,5.17E-03,8.82E-03
66497,5.26E-03,8.95E-03
66498,5.41E-03,9.07E-03
66499,5.50E-03,9.21E-03
66500,5.55E-03,9.35E-03
66501,5.59E-03,9.49E-03
66502,5.59E-03,9.63E-03
66503,5.59E-03,9.78E-03
66504,5.59E-03,9.92E-03
66505,5.58E-03,1.01E-02
66506,5.57E-03,1.02E-02
66507,5.57E-03,1.04E-02
66508,5.59E-03,1.05E-02
66509,5.61E-03,1.06E-02
66510,5.61E-03,1.08E-02
66511,5.66E-03,1.09E-02
66512,5.67E-03,1.11E-02
66513,5.68E-03,1.12E-02
66514,5.69E-03,1.14E-02
66515,5.75E-03,1.15E-02
66516,5.72E-03,1.17E-02
66517,5.68E-03,1.18E-02
66518,5.66E-03,1.20E-02
66519,5.61E-03,1.21E-02
66520,5.61E-03,1.23E-02
66521,5.61E-03,1.25E-02
66522,5.61E-03,1.26E-02
66523,5.61E-03,1.28E-02
66524,5.61E-03,1.29E-02
66525,5.61E-03,1.31E-02
66526,5.60E-03,1.32E-02
66527,5.59E-03,1.34E-02
66528,5.57E-03,1.36E-02
66529,5.58E-03,1.37E-02
66530,5.58E-03,1.39E-02
66531,5.55E-03,1.40E-02
66532,5.53E-03,1.42E-02
66533,5.53E-03,1.44E-02
66534,5.51E-03,1.45E-02
66535,5.51E-03,1.47E-02
66536,5.49E-03,1.49E-02
66537,5.56E-03,1.50E-02
66538,5.62E-03,1.52E-02
66539,5.62E-03,1.53E-02
66540,5.63E-03,1.55E-02
66541,5.63E-03,1.57E-02
66542,5.61E-03,1.58E-02
66543,5.57E-03,1.60E-02
66544,5.58E-03,1.62E-02
66545,5.62E-03,1.63E-02
66546,5.62E-03,1.65E-02
66547,5.62E-03,1.66E-02
66548,5.62E-03,1.68E-02
66549,5.62E-03,1.69E-02
66550,5.62E-03,1.71E-02
66551,5.62E-03,1.72E-02
66552,5.62E-03,1.74E-02
66553,5.62E-03,1.75E-02
66554,5.62E-03,1.76E-02
66555,5.62E-03,1.78E-02
66556,5.62E-03,1.79E-02
66557,5.62E-03,1.80E-02
66558,5.61E-03,1.81E-02
66559,5.61E-03,1.82E-02
66560,5.61E-03,1.84E-02
66561,5.60E-03,1.85E-02
66562,5.58E-03,1.86E-02
66563,5.60E-03,1.87E-02
66564,5.64E-03,1.88E-02
66565,5.67E-03,1.89E-02
66566,5.62E-03,1.90E-02
66567,5.61E-03,1.90E-02
66568,5.61E-03,1.91E-02
66569,5.61E-03,1.92E-02
66570,5.60E-03,1.93E-02
66571,5.62E-03,1.94E-02
66572,5.59E-03,1.94E-02
66573,5.64E-03,1.95E-02
66574,5.68E-03,1.96E-02
66575,5.66E-03,1.96E-02
66576,5.64E-03,1.97E-02
66577,5.63E-03,1.98E-02
66578,5.57E-03,1.98E-02
66579,5.57E-03,1.99E-02
66580,5.61E-03,1.99E-02
66581,5.61E-03,2.00E-02
66582,5.62E-03,2.00E-02
66583,5.62E-03,2.01E-02
66584,5.62E-03,2.01E-02
66585,5.63E-03,2.01E-02
66586,5.64E-03,2.02E-02
66587,5.66E-03,2.02E-02
66588,5.67E-03,2.03E-02
66589,5.67E-03,2.03E-02
66590,5.65E-03,2.03E-02
66591,5.66E-03,2.03E-02
66592,5.56E-03,2.04E-02
66593,5.64E-03,2.04E-02
66594,5.65E-03,2.04E-02
66595,5.68E-03,2.04E-02
66596,5.71E-03,2.04E-02
66597,5.71E-03,2.04E-02
66598,5.68E-03,2.04E-02
66599,5.67E-03,2.04E-02
66600,5.65E-03,2.04E-02
66601,5.61E-03,2.04E-02
66602,5.61E-03,2.04E-02
66603,5.61E-03,2.04E-02
66604,5.61E-03,2.04E-02
66605,5.61E-03,2.04E-02
66606,5.61E-03,2.03E-02
66607,5.61E-03,2.03E-02
66608,5.58E-03,2.03E-02
66609,5.62E-03,2.03E-02
66610,5.62E-03,2.02E-02
66611,5.62E-03,2.02E-02
66612,5.62E-03,2.02E-02
66613,5.62E-03,2.01E-02
66614,5.62E-03,2.01E-02
66615,5.62E-03,2.01E-02
66616,5.62E-03,2.00E-02
66617,5.63E-03,2.00E-02
66618,5.65E-03,1.99E-02
66619,5.65E-03,1.99E-02
66620,5.64E-03,1.98E-02
66621,5.64E-03,1.98E-02
66622,5.61E-03,1.97E-02
66623,5.64E-03,1.96E-02
66624,5.66E-03,1.96E-02
66625,5.61E-03,1.95E-02
66626,5.61E-03,1.95E-02
66627,5.61E-03,1.94E-02
66628,5.61E-03,1.93E-02
66629,5.61E-03,1.93E-02
66630,5.61E-03,1.92E-02
66631,5.61E-03,1.91E-02
66632,5.60E-03,1.91E-02
66633,5.59E-03,1.90E-02
66634,5.62E-03,1.89E-02
66635,5.57E-03,1.88E-02
66636,5.65E-03,1.88E-02
66637,5.63E-03,1.87E-02
66638,5.64E-03,1.86E-02
66639,5.63E-03,1.85E-02
66640,5.62E-03,1.84E-02
66641,5.62E-03,1.84E-02
66642,5.62E-03,1.83E-02
66643,5.62E-03,1.82E-02
66644,5.62E-03,1.81E-02
66645,5.62E-03,1.80E-02
66646,5.62E-03,1.79E-02
66647,5.62E-03,1.78E-02
66648,5.62E-03,1.77E-02
66649,5.62E-03,1.76E-02
66650,5.62E-03,1.75E-02
66651,5.62E-03,1.75E-02
66652,5.59E-03,1.74E-02
66653,5.56E-03,1.73E-02
66654,5.57E-03,1.72E-02
66655,5.58E-03,1.71E-02
66656,5.62E-03,1.70E-02
66657,5.62E-03,1.69E-02
66658,5.62E-03,1.68E-02
66659,5.61E-03,1.67E-02
66660,5.61E-03,1.66E-02
66661,5.59E-03,1.65E-02
66662,5.56E-03,1.64E-02
66663,5.61E-03,1.63E-02
66664,5.65E-03,1.62E-02
66665,5.64E-03,1.61E-02
66666,5.63E-03,1.60E-02
66667,5.63E-03,1.60E-02
66668,5.63E-03,1.59E-02
66669,5.63E-03,1.58E-02
66670,5.63E-03,1.57E-02
66671,5.63E-03,1.56E-02
66672,5.63E-03,1.55E-02
66673,5.63E-03,1.54E-02
66674,5.63E-03,1.53E-02
66675,5.63E-03,1.52E-02
66676,5.63E-03,1.52E-02
66677,5.63E-03,1.51E-02
66678,5.63E-03,1.50E-02
66679,5.63E-03,1.49E-02
66680,5.63E-03,1.49E-02
66681,5.63E-03,1.48E-02
66682,5.63E-03,1.47E-02
66683,5.63E-03,1.46E-02
66684,5.64E-03,1.46E-02
66685,5.64E-03,1.45E-02
66686,5.64E-03,1.44E-02
66687,5.64E-03,1.44E-02
66688,5.64E-03,1.43E-02
66689,5.60E-03,1.42E-02
66690,5.61E-03,1.42E-02
66691,5.65E-03,1.41E-02
66692,5.64E-03,1.41E-02
66693,5.61E-03,1.40E-02
66694,5.60E-03,1.40E-02
66695,5.61E-03,1.39E-02
66696,5.66E-03,1.39E-02
66697,5.69E-03,1.39E-02
66698,5.71E-03,1.38E-02
66699,5.69E-03,1.38E-02
66700,5.69E-03,1.38E-02
66701,5.63E-03,1.38E-02
66702,5.58E-03,1.38E-02
66703,5.54E-03,1.37E-02
66704,5.43E-03,1.37E-02
66705,5.31E-03,1.37E-02
66706,5.25E-03,1.37E-02
66707,5.16E-03,1.37E-02
66708,5.18E-03,1.37E-02
66709,5.15E-03,1.36E-02
66710,5.47E-03,1.37E-02
66711,5.61E-03,1.37E-02
66712,5.39E-03,1.37E-02
66713,4.85E-03,1.38E-02
66714,4.12E-03,1.38E-02
66715,3.75E-03,1.38E-02
66716,3.63E-03,1.44E-02
66717,5.50E-03,1.49E-02
66718,3.99E-03,1.53E-02
66719,5.33E-03,1.56E-02
66720,5.00E-03,1.60E-02
66721,4.41E-03,1.63E-02
66722,4.21E-03,1.66E-02
66723,4.12E-03,1.68E-02
66724,3.93E-03,1.71E-02
66725,4.82E-03,1.73E-02
66726,5.87E-03,1.75E-02
66727,5.13E-03,1.75E-02
66728,5.58E-03,2.29E-03
66729,5.60E-03,2.32E-03
66730,5.60E-03,2.36E-03
66731,5.59E-03,2.40E-03
66732,5.58E-03,2.45E-03
66733,5.58E-03,2.49E-03
66734,5.58E-03,2.54E-03
66735,5.58E-03,2.59E-03
66736,5.58E-03,2.64E-03
66737,5.58E-03,2.69E-03
66738,5.58E-03,2.74E-03
66739,5.58E-03,2.80E-03
66740,5.61E-03,2.86E-03
66741,5.57E-03,2.93E-03
66742,5.57E-03,2.99E-03
66743,5.57E-03,3.06E-03
66744,5.55E-03,3.13E-03
66745,5.58E-03,3.20E-03
66746,5.58E-03,3.27E-03
66747,5.58E-03,3.35E-03
66748,5.58E-03,3.43E-03
66749,5.58E-03,3.51E-03
66750,5.58E-03,3.60E-03
66751,5.58E-03,3.68E-03
66752,5.58E-03,3.77E-03
66753,5.58E-03,3.87E-03
66754,5.58E-03,3.96E-03
66755,5.58E-03,4.06E-03
66756,5.58E-03,4.16E-03
66757,5.58E-03,4.26E-03
66758,5.58E-03,4.37E-03
66759,5.58E-03,4.48E-03
66760,5.58E-03,4.59E-03
66761,5.58E-03,4.70E-03
66762,5.58E-03,4.82E-03
66763,5.58E-03,4.94E-03
66764,5.58E-03,5.06E-03
66765,5.57E-03,5.19E-03
66766,5.57E-03,5.32E-03
66767,5.57E-03,5.45E-03
66768,5.56E-03,5.58E-03
66769,5.55E-03,5.72E-03
66770,5.52E-03,5.86E-03
66771,5.53E-03,6.00E-03
66772,5.54E-03,6.14E-03
66773,5.52E-03,6.29E-03
66774,5.49E-03,6.44E-03
66775,5.48E-03,6.59E-03
66776,5.45E-03,6.75E-03
66777,5.44E-03,6.92E-03
66778,5.44E-03,7.09E-03
66779,5.47E-03,7.26E-03
66780,5.49E-03,7.43E-03
66781,5.50E-03,7.61E-03
66782,5.50E-03,7.79E-03
66783,5.50E-03,7.98E-03
66784,5.50E-03,8.17E-03
66785,5.49E-03,8.36E-03
66786,5.50E-03,8.56E-03
66787,5.48E-03,8.77E-03
66788,5.41E-03,8.98E-03
66789,5.45E-03,9.20E-03
66790,5.47E-03,9.42E-03
66791,5.48E-03,9.64E-03
66792,5.49E-03,9.87E-03
66793,5.50E-03,1.01E-02
66794,5.51E-03,1.04E-02
66795,5.53E-03,1.06E-02
66796,5.57E-03,1.09E-02
66797,5.62E-03,1.11E-02
66798,5.55E-03,1.14E-02
66799,5.53E-03,1.16E-02
66800,5.51E-03,1.19E-02
66801,5.50E-03,1.22E-02
66802,5.49E-03,1.24E-02
66803,5.50E-03,1.27E-02
66804,5.50E-03,1.30E-02
66805,5.52E-03,1.33E-02
66806,5.51E-03,1.35E-02
66807,5.58E-03,1.38E-02
66808,5.57E-03,1.41E-02
66809,5.58E-03,1.44E-02
66810,5.60E-03,1.47E-02
66811,5.60E-03,1.50E-02
66812,5.59E-03,1.53E-02
66813,5.59E-03,1.56E-02
66814,5.57E-03,1.59E-02
66815,5.56E-03,1.62E-02
66816,5.54E-03,1.66E-02
66817,5.51E-03,1.69E-02
66818,5.49E-03,1.72E-02
66819,5.50E-03,1.75E-02
66820,5.52E-03,1.78E-02
66821,5.54E-03,1.82E-02
66822,5.55E-03,1.85E-02
66823,5.56E-03,1.88E-02
66824,5.56E-03,1.91E-02
66825,5.58E-03,1.95E-02
66826,5.58E-03,1.98E-02
66827,5.57E-03,2.02E-02
66828,5.57E-03,2.05E-02
66829,5.55E-03,2.08E-02
66830,5.54E-03,2.12E-02
66831,5.54E-03,2.15E-02
66832,5.49E-03,2.19E-02
66833,5.49E-03,2.22E-02
66834,5.50E-03,2.26E-02
66835,5.54E-03,2.29E-02
66836,5.56E-03,2.33E-02
66837,5.55E-03,2.36E-02
66838,5.61E-03,2.40E-02
66839,5.64E-03,2.43E-02
66840,5.63E-03,2.47E-02
66841,5.60E-03,2.50E-02
66842,5.59E-03,2.54E-02
66843,5.59E-03,2.57E-02
66844,5.56E-03,2.61E-02
66845,5.58E-03,2.64E-02
66846,5.59E-03,2.68E-02
66847,5.62E-03,2.71E-02
66848,5.57E-03,2.74E-02
66849,5.57E-03,2.78E-02
66850,5.53E-03,2.81E-02
66851,5.51E-03,2.85E-02
66852,5.49E-03,2.88E-02
66853,5.48E-03,2.91E-02
66854,5.47E-03,2.94E-02
66855,5.46E-03,2.98E-02
66856,5.45E-03,3.01E-02
66857,5.45E-03,3.04E-02
66858,5.44E-03,3.07E-02
66859,5.44E-03,3.10E-02
66860,5.47E-03,3.13E-02
66861,5.44E-03,3.16E-02
66862,5.44E-03,3.18E-02
66863,5.44E-03,3.21E-02
66864,5.44E-03,3.23E-02
66865,5.45E-03,3.26E-02
66866,5.48E-03,3.28E-02
66867,5.50E-03,3.30E-02
66868,5.51E-03,3.32E-02
66869,5.52E-03,3.34E-02
66870,5.50E-03,3.36E-02
66871,5.50E-03,3.38E-02
66872,5.46E-03,3.40E-02
66873,5.50E-03,3.42E-02
66874,5.50E-03,3.43E-02
66875,5.50E-03,3.45E-02
66876,5.51E-03,3.46E-02
66877,5.54E-03,3.48E-02
66878,5.53E-03,3.49E-02
66879,5.54E-03,3.50E-02
66880,5.53E-03,3.52E-02
66881,5.51E-03,3.53E-02
66882,5.51E-03,3.54E-02
66883,5.46E-03,3.54E-02
66884,5.47E-03,3.55E-02
66885,5.49E-03,3.55E-02
66886,5.49E-03,3.55E-02
66887,5.49E-03,3.54E-02
66888,5.48E-03,3.53E-02
66889,5.45E-03,3.52E-02
66890,5.46E-03,3.50E-02
66891,5.44E-03,3.47E-02
66892,5.41E-03,3.43E-02
66893,5.41E-03,3.39E-02
66894,5.40E-03,3.35E-02
66895,5.40E-03,3.29E-02
66896,5.39E-03,3.24E-02
66897,5.39E-03,3.18E-02
66898,5.40E-03,3.11E-02
66899,5.41E-03,3.05E-02
66900,5.42E-03,2.98E-02
66901,5.43E-03,2.91E-02
66902,5.44E-03,2.83E-02
66903,5.46E-03,2.76E-02
66904,5.47E-03,2.68E-02
66905,5.49E-03,2.60E-02
66906,5.49E-03,2.52E-02
66907,5.50E-03,2.44E-02
66908,5.49E-03,2.36E-02
66909,5.50E-03,2.29E-02
66910,5.51E-03,2.21E-02
66911,5.50E-03,2.13E-02
66912,5.51E-03,2.06E-02
66913,5.51E-03,1.99E-02
66914,5.56E-03,1.92E-02
66915,5.60E-03,1.86E-02
66916,5.60E-03,1.79E-02
66917,5.60E-03,1.73E-02
66918,5.60E-03,1.66E-02
66919,5.60E-03,1.60E-02
66920,5.60E-03,1.54E-02
66921,5.61E-03,1.48E-02
66922,5.61E-03,1.43E-02
66923,5.61E-03,1.37E-02
66924,5.61E-03,1.32E-02
66925,5.60E-03,1.27E-02
66926,5.60E-03,1.22E-02
66927,5.59E-03,1.17E-02
66928,5.58E-03,1.13E-02
66929,5.55E-03,1.08E-02
66930,5.54E-03,1.04E-02
66931,5.51E-03,9.95E-03
66932,5.50E-03,9.52E-03
66933,5.48E-03,9.10E-03
66934,5.42E-03,8.71E-03
66935,5.42E-03,8.36E-03
66936,5.37E-03,8.02E-03
66937,5.33E-03,7.72E-03
66938,5.30E-03,7.45E-03
66939,5.29E-03,7.21E-03
66940,5.24E-03,6.99E-03
66941,5.27E-03,6.81E-03
66942,5.23E-03,6.66E-03
66943,5.24E-03,6.53E-03
66944,5.29E-03,6.43E-03
66945,5.33E-03,6.35E-03
66946,5.35E-03,6.29E-03
66947,5.39E-03,6.25E-03
66948,5.42E-03,6.22E-03
66949,5.41E-03,6.19E-03
66950,5.31E-03,6.17E-03
66951,5.19E-03,6.18E-03
66952,5.14E-03,6.19E-03
66953,5.17E-03,6.19E-03
66954,5.27E-03,6.20E-03
66955,5.32E-03,6.20E-03
66956,5.41E-03,6.21E-03
66957,5.50E-03,6.23E-03
66958,5.47E-03,6.24E-03
66959,5.48E-03,6.26E-03
66960,5.49E-03,6.28E-03
66961,5.50E-03,6.30E-03
66962,5.50E-03,6.32E-03
66963,5.50E-03,6.34E-03
66964,5.51E-03,6.36E-03
66965,5.51E-03,6.38E-03
66966,5.52E-03,6.40E-03
66967,5.52E-03,6.43E-03
66968,5.53E-03,6.46E-03
66969,5.56E-03,6.49E-03
66970,5.57E-03,6.52E-03
66971,5.56E-03,6.54E-03
66972,5.56E-03,6.57E-03
66973,5.55E-03,6.60E-03
66974,5.54E-03,6.63E-03
66975,5.52E-03,6.66E-03
66976,5.51E-03,6.68E-03
66977,5.48E-03,6.71E-03
66978,5.45E-03,6.73E-03
66979,5.45E-03,6.76E-03
66980,5.46E-03,6.78E-03
66981,5.54E-03,6.81E-03
66982,5.54E-03,6.84E-03
66983,5.52E-03,6.86E-03
66984,5.51E-03,6.89E-03
66985,5.50E-03,6.92E-03
66986,5.51E-03,6.96E-03
66987,5.50E-03,6.99E-03
66988,5.55E-03,7.03E-03
66989,5.53E-03,7.06E-03
66990,5.56E-03,7.10E-03
66991,5.62E-03,7.14E-03
66992,5.57E-03,7.18E-03
66993,5.57E-03,7.21E-03
66994,5.49E-03,7.25E-03
66995,5.53E-03,7.28E-03
66996,5.50E-03,7.32E-03
66997,5.51E-03,7.35E-03
66998,5.52E-03,7.39E-03
66999,5.57E-03,7.43E-03
67000,5.59E-03,7.47E-03
67001,5.60E-03,7.50E-03
67002,5.57E-03,7.54E-03
67003,5.48E-03,7.59E-03
67004,5.50E-03,7.63E-03
67005,5.51E-03,7.67E-03
67006,5.52E-03,7.72E-03
67007,5.52E-03,7.76E-03
67008,5.51E-03,7.81E-03
67009,5.52E-03,7.85E-03
67010,5.57E-03,7.89E-03
67011,5.54E-03,7.94E-03
67012,5.56E-03,7.97E-03
67013,5.56E-03,8.01E-03
67014,5.55E-03,8.05E-03
67015,5.55E-03,8.08E-03
67016,5.54E-03,8.10E-03
67017,5.54E-03,8.13E-03
67018,5.53E-03,8.15E-03
67019,5.52E-03,8.17E-03
67020,5.46E-03,8.20E-03
67021,5.46E-03,8.21E-03
67022,5.40E-03,8.23E-03
67023,5.32E-03,8.25E-03
67024,5.27E-03,8.27E-03
67025,5.40E-03,2.40E-03
67026,5.61E-03,2.25E-03
67027,4.94E-03,8.30E-03
67028,4.80E-03,1.32E-02
67029,6.34E-03,1.30E-02
67030,6.50E-03,1.27E-02
67031,5.84E-03,1.35E-02
67032,5.75E-03,1.33E-02
67033,5.79E-03,1.31E-02
67034,5.78E-03,1.28E-02
67035,5.76E-03,1.26E-02
67036,5.71E-03,1.24E-02
67037,5.72E-03,1.21E-02
67038,5.73E-03,1.19E-02
67039,5.74E-03,1.17E-02
67040,5.71E-03,1.14E-02
67041,5.67E-03,1.12E-02
67042,5.63E-03,1.09E-02
67043,5.62E-03,1.07E-02
67044,5.61E-03,1.04E-02
67045,5.60E-03,1.01E-02
67046,5.60E-03,9.86E-03
67047,5.59E-03,9.59E-03
67048,5.56E-03,9.32E-03
67049,5.56E-03,9.05E-03
67050,5.58E-03,8.78E-03
67051,5.58E-03,8.50E-03
67052,5.61E-03,8.22E-03
67053,5.60E-03,7.94E-03
67054,5.59E-03,7.65E-03
67055,5.57E-03,7.37E-03
67056,5.58E-03,7.08E-03
67057,5.59E-03,6.79E-03
67058,5.60E-03,6.50E-03
67059,5.60E-03,6.21E-03
67060,5.60E-03,5.92E-03
67061,5.60E-03,5.62E-03
67062,5.60E-03,5.33E-03
67063,5.61E-03,5.04E-03
67064,5.63E-03,4.74E-03
67065,5.69E-03,4.45E-03
67066,5.69E-03,4.16E-03
67067,5.71E-03,3.87E-03
67068,5.70E-03,3.58E-03
67069,5.68E-03,3.30E-03
67070,5.69E-03,3.02E-03
67071,5.67E-03,2.74E-03
67072,5.65E-03,2.48E-03
67073,5.44E-03,1.22E-02
67074,5.33E-03,1.20E-02
67075,5.49E-03,1.18E-02
67076,5.64E-03,1.16E-02
67077,5.77E-03,1.14E-02
67078,5.81E-03,1.12E-02
67079,5.81E-03,1.10E-02
67080,5.78E-03,1.07E-02
67081,5.82E-03,1.05E-02
67082,5.80E-03,1.03E-02
67083,5.82E-03,1.01E-02
67084,5.81E-03,9.89E-03
67085,5.77E-03,9.68E-03
67086,5.75E-03,9.48E-03
67087,5.70E-03,9.28E-03
67088,5.67E-03,9.08E-03
67089,5.63E-03,8.88E-03
67090,5.63E-03,8.69E-03
67091,5.57E-03,8.50E-03
67092,5.58E-03,8.32E-03
67093,5.63E-03,8.13E-03
67094,5.63E-03,7.96E-03
67095,5.66E-03,7.78E-03
67096,5.65E-03,7.61E-03
67097,5.64E-03,7.44E-03
67098,5.60E-03,7.28E-03
67099,5.56E-03,7.12E-03
67100,5.56E-03,6.97E-03
67101,5.56E-03,6.82E-03
67102,5.56E-03,6.68E-03
67103,5.57E-03,6.54E-03
67104,5.58E-03,6.41E-03
67105,5.59E-03,6.28E-03
67106,5.60E-03,6.16E-03
67107,5.61E-03,6.05E-03
67108,5.61E-03,5.93E-03
67109,5.62E-03,5.82E-03
67110,5.63E-03,5.72E-03
67111,5.64E-03,5.62E-03
67112,5.65E-03,5.52E-03
67113,5.66E-03,5.43E-03
67114,5.66E-03,5.34E-03
67115,5.67E-03,5.25E-03
67116,5.68E-03,5.17E-03
67117,5.69E-03,5.08E-03
67118,5.66E-03,5.00E-03
67119,5.69E-03,4.93E-03
67120,5.69E-03,4.85E-03
67121,5.70E-03,4.78E-03
67122,5.70E-03,4.71E-03
67123,5.70E-03,4.64E-03
67124,5.71E-03,4.57E-03
67125,5.71E-03,4.50E-03
67126,5.72E-03,4.43E-03
67127,5.72E-03,4.36E-03
67128,5.72E-03,4.30E-03
67129,5.73E-03,4.23E-03
67130,5.73E-03,4.16E-03
67131,5.73E-03,4.09E-03
67132,5.73E-03,4.02E-03
67133,5.73E-03,3.95E-03
67134,5.72E-03,3.88E-03
67135,5.72E-03,3.81E-03
67136,5.71E-03,3.74E-03
67137,5.71E-03,3.67E-03
67138,5.70E-03,3.60E-03
67139,5.72E-03,3.53E-03
67140,5.68E-03,3.46E-03
67141,5.67E-03,3.39E-03
67142,5.66E-03,3.33E-03
67143,5.61E-03,3.26E-03
67144,5.66E-03,3.20E-03
67145,5.69E-03,3.14E-03
67146,5.72E-03,3.07E-03
67147,5.69E-03,3.01E-03
67148,5.69E-03,2.95E-03
67149,5.67E-03,2.89E-03
67150,5.63E-03,2.83E-03
67151,5.61E-03,2.78E-03
67152,5.61E-03,2.72E-03
67153,5.60E-03,2.67E-03
67154,5.60E-03,2.62E-03
67155,5.59E-03,2.57E-03
67156,5.58E-03,2.52E-03
67157,5.56E-03,2.48E-03
67158,5.54E-03,2.43E-03
67159,5.56E-03,2.39E-03
67160,5.54E-03,2.35E-03
67161,5.56E-03,2.32E-03
67162,5.59E-03,2.28E-03
67163,5.64E-03,2.24E-03
67164,5.61E-03,2.21E-03
67165,5.56E-03,2.18E-03
67166,5.54E-03,2.16E-03
67167,5.53E-03,2.13E-03
67168,5.55E-03,2.11E-03
67169,5.55E-03,2.09E-03
67170,5.60E-03,2.08E-03
67171,5.62E-03,2.06E-03
67172,5.63E-03,2.05E-03
67173,5.59E-03,2.04E-03
67174,5.63E-03,2.03E-03
67175,5.67E-03,2.02E-03
67176,5.65E-03,2.02E-03
67177,5.64E-03,2.02E-03
67178,5.62E-03,2.01E-03
67179,5.54E-03,2.01E-03
67180,5.53E-03,2.01E-03
67181,5.53E-03,2.01E-03
67182,5.53E-03,2.02E-03
67183,5.58E-03,2.03E-03
67184,5.54E-03,2.04E-03
67185,5.55E-03,2.05E-03
67186,5.57E-03,2.06E-03
67187,5.52E-03,2.07E-03
67188,5.52E-03,2.08E-03
67189,5.50E-03,2.10E-03
67190,5.51E-03,2.12E-03
67191,5.08E-03,8.56E-03
67192,5.47E-03,2.14E-03
67193,5.63E-03,2.22E-03
67194,5.24E-03,1.38E-02
67195,4.98E-03,1.75E-02
67196,3.99E-03,1.24E-02
67197,5.26E-03,8.33E-03
67198,5.05E-03,1.75E-02
67199,5.32E-03,1.74E-02
67200,5.92E-03,1.73E-02
67201,4.42E-03,1.72E-02
67202,4.10E-03,1.71E-02
67203,4.09E-03,1.70E-02
67204,4.14E-03,1.68E-02
67205,4.18E-03,1.67E-02
67206,4.21E-03,1.66E-02
67207,4.29E-03,1.64E-02
67208,4.42E-03,1.63E-02
67209,4.65E-03,1.61E-02
67210,5.03E-03,1.59E-02
67211,5.17E-03,1.58E-02
67212,4.94E-03,1.56E-02
67213,4.48E-03,1.54E-02
67214,4.18E-03,1.52E-02
67215,4.44E-03,1.50E-02
67216,4.69E-03,1.49E-02
67217,4.35E-03,1.47E-02
67218,3.25E-03,1.45E-02
67219,3.75E-03,1.43E-02
67220,4.93E-03,1.39E-02
67221,4.29E-03,1.37E-02
67222,5.39E-03,1.35E-02
67223,5.67E-03,1.33E-02
67224,5.73E-03,1.30E-02
67225,5.75E-03,1.28E-02
67226,5.73E-03,1.26E-02
67227,5.71E-03,1.23E-02
67228,5.71E-03,1.21E-02
67229,5.72E-03,1.19E-02
67230,5.72E-03,1.16E-02
67231,5.71E-03,1.14E-02
67232,5.70E-03,1.11E-02
67233,5.70E-03,1.09E-02
67234,5.69E-03,1.06E-02
67235,5.69E-03,1.04E-02
67236,5.68E-03,1.01E-02
67237,5.68E-03,9.84E-03
67238,5.66E-03,9.57E-03
67239,5.63E-03,9.30E-03
67240,5.62E-03,9.03E-03
67241,5.61E-03,8.75E-03
67242,5.61E-03,8.47E-03
67243,5.61E-03,8.19E-03
67244,5.60E-03,7.91E-03
67245,5.61E-03,7.63E-03
67246,5.63E-03,7.34E-03
67247,5.65E-03,7.05E-03
67248,5.66E-03,6.76E-03
67249,5.66E-03,6.47E-03
67250,5.66E-03,6.18E-03
67251,5.66E-03,5.89E-03
67252,5.66E-03,5.60E-03
67253,5.66E-03,5.30E-03
67254,5.67E-03,5.01E-03
67255,5.67E-03,4.72E-03
67256,5.69E-03,4.42E-03
67257,5.73E-03,4.13E-03
67258,5.77E-03,3.84E-03
67259,5.77E-03,3.56E-03
67260,5.74E-03,3.27E-03
67261,5.69E-03,2.99E-03
67262,5.67E-03,2.71E-03
67263,5.65E-03,2.45E-03
67264,5.62E-03,2.19E-03
67265,5.55E-03,1.90E-03
67266,5.56E-03,1.88E-03
67267,5.57E-03,1.85E-03
67268,5.61E-03,1.84E-03
67269,5.65E-03,1.82E-03
67270,5.66E-03,1.80E-03
67271,5.64E-03,1.79E-03
67272,5.64E-03,1.77E-03
67273,5.64E-03,1.76E-03
67274,5.60E-03,1.76E-03
67275,5.60E-03,1.75E-03
67276,5.60E-03,1.74E-03
67277,5.60E-03,1.74E-03
67278,5.64E-03,1.74E-03
67279,5.66E-03,1.74E-03
67280,5.67E-03,1.74E-03
67281,5.65E-03,1.75E-03
67282,5.60E-03,1.75E-03
67283,5.60E-03,1.76E-03
67284,5.60E-03,1.77E-03
67285,5.60E-03,1.78E-03
67286,5.59E-03,1.79E-03
67287,5.59E-03,1.81E-03
67288,5.57E-03,1.83E-03
67289,5.54E-03,1.85E-03
67290,5.53E-03,1.87E-03
67291,5.52E-03,1.89E-03
67292,5.56E-03,1.92E-03
67293,5.59E-03,1.95E-03
67294,5.60E-03,1.98E-03
67295,5.60E-03,2.02E-03
67296,5.58E-03,2.05E-03
67297,5.57E-03,2.09E-03
67298,5.56E-03,2.13E-03
67299,5.61E-03,2.17E-03
67300,5.62E-03,2.22E-03
67301,5.62E-03,2.27E-03
67302,5.62E-03,2.32E-03
67303,5.62E-03,2.37E-03
67304,5.62E-03,2.42E-03
67305,5.63E-03,2.47E-03
67306,5.64E-03,2.53E-03
67307,5.66E-03,2.58E-03
67308,5.67E-03,2.64E-03
67309,5.66E-03,2.71E-03
67310,5.67E-03,2.77E-03
67311,5.64E-03,2.83E-03
67312,5.64E-03,2.89E-03
67313,5.60E-03,2.96E-03
67314,5.60E-03,3.02E-03
67315,5.59E-03,3.09E-03
67316,5.61E-03,3.16E-03
67317,5.66E-03,3.23E-03
67318,5.66E-03,3.30E-03
67319,5.66E-03,3.37E-03
67320,5.66E-03,3.44E-03
67321,5.67E-03,3.51E-03
67322,5.67E-03,3.58E-03
67323,5.67E-03,3.65E-03
67324,5.67E-03,3.72E-03
67325,5.67E-03,3.79E-03
67326,5.66E-03,3.86E-03
67327,5.66E-03,3.93E-03
67328,5.66E-03,3.99E-03
67329,5.65E-03,4.06E-03
67330,5.65E-03,4.13E-03
67331,5.65E-03,4.20E-03
67332,5.65E-03,4.27E-03
67333,5.65E-03,4.34E-03
67334,5.65E-03,4.41E-03
67335,5.65E-03,4.48E-03
67336,5.64E-03,4.56E-03
67337,5.64E-03,4.63E-03
67338,5.64E-03,4.71E-03
67339,5.64E-03,4.79E-03
67340,5.63E-03,4.88E-03
67341,5.63E-03,4.96E-03
67342,5.63E-03,5.05E-03
67343,5.62E-03,5.14E-03
67344,5.62E-03,5.24E-03
67345,5.62E-03,5.33E-03
67346,5.62E-03,5.44E-03
67347,5.62E-03,5.54E-03
67348,5.61E-03,5.65E-03
67349,5.61E-03,5.77E-03
67350,5.60E-03,5.89E-03
67351,5.60E-03,6.01E-03
67352,5.61E-03,6.14E-03
67353,5.61E-03,6.27E-03
67354,5.61E-03,6.41E-03
67355,5.61E-03,6.56E-03
67356,5.61E-03,6.71E-03
67357,5.61E-03,6.86E-03
67358,5.62E-03,7.02E-03
67359,5.62E-03,7.18E-03
67360,5.63E-03,7.35E-03
67361,5.65E-03,7.52E-03
67362,5.61E-03,7.69E-03
67363,5.62E-03,7.87E-03
67364,5.57E-03,8.06E-03
67365,5.61E-03,8.24E-03
67366,5.62E-03,8.43E-03
67367,5.59E-03,8.62E-03
67368,5.60E-03,8.82E-03
67369,5.63E-03,9.02E-03
67370,5.67E-03,9.22E-03
67371,5.67E-03,9.42E-03
67372,5.72E-03,9.63E-03
67373,5.74E-03,9.84E-03
67374,5.73E-03,1.01E-02
67375,5.74E-03,1.03E-02
67376,5.76E-03,1.05E-02
67377,5.78E-03,1.07E-02
67378,5.79E-03,1.09E-02
67379,5.75E-03,1.11E-02
67380,5.62E-03,1.13E-02
67381,5.55E-03,1.16E-02
67382,5.52E-03,1.18E-02
67383,5.67E-03,1.20E-02
67384,4.23E-03,1.22E-02
67385,3.60E-03,1.24E-02
67386,6.21E-03,1.26E-02
67387,5.54E-03,1.28E-02
67388,4.88E-03,1.30E-02
67389,4.05E-03,1.33E-02
67390,3.72E-03,1.35E-02
67391,4.24E-03,1.37E-02
67392,5.08E-03,1.39E-02
67393,5.07E-03,1.43E-02
67394,6.32E-03,1.41E-02
67395,4.57E-03,1.41E-02
67396,4.21E-03,1.40E-02
67397,4.43E-03,1.40E-02
67398,4.93E-03,1.41E-02
67399,5.37E-03,1.41E-02
67400,5.59E-03,1.40E-02
67401,5.49E-03,1.40E-02
67402,5.30E-03,1.40E-02
67403,5.19E-03,1.40E-02
67404,5.23E-03,1.40E-02
67405,5.34E-03,1.40E-02
67406,5.46E-03,1.40E-02
67407,5.52E-03,1.41E-02
67408,5.55E-03,1.41E-02
67409,5.57E-03,1.41E-02
67410,5.60E-03,1.41E-02
67411,5.60E-03,1.41E-02
67412,5.60E-03,1.42E-02
67413,5.60E-03,1.42E-02
67414,5.60E-03,1.42E-02
67415,5.65E-03,1.43E-02
67416,5.66E-03,1.43E-02
67417,5.63E-03,1.44E-02
67418,5.61E-03,1.44E-02
67419,5.61E-03,1.45E-02
67420,5.61E-03,1.45E-02
67421,5.61E-03,1.46E-02
67422,5.61E-03,1.46E-02
67423,5.61E-03,1.47E-02
67424,5.61E-03,1.47E-02
67425,5.61E-03,1.48E-02
67426,5.61E-03,1.49E-02
67427,5.61E-03,1.49E-02
67428,5.61E-03,1.50E-02
67429,5.61E-03,1.51E-02
67430,5.61E-03,1.51E-02
67431,5.61E-03,1.52E-02
67432,5.61E-03,1.53E-02
67433,5.61E-03,1.54E-02
67434,5.61E-03,1.54E-02
67435,5.61E-03,1.55E-02
67436,5.61E-03,1.56E-02
67437,5.61E-03,1.57E-02
67438,5.61E-03,1.58E-02
67439,5.61E-03,1.59E-02
67440,5.61E-03,1.59E-02
67441,5.61E-03,1.60E-02
67442,5.61E-03,1.61E-02
67443,5.61E-03,1.62E-02
67444,5.61E-03,1.63E-02
67445,5.60E-03,1.64E-02
67446,5.59E-03,1.65E-02
67447,5.56E-03,1.66E-02
67448,5.56E-03,1.67E-02
67449,5.60E-03,1.68E-02
67450,5.61E-03,1.68E-02
67451,5.61E-03,1.69E-02
67452,5.61E-03,1.70E-02
67453,5.61E-03,1.71E-02
67454,5.62E-03,1.72E-02
67455,5.62E-03,1.73E-02
67456,5.62E-03,1.74E-02
67457,5.62E-03,1.75E-02
67458,5.62E-03,1.76E-02
67459,5.62E-03,1.77E-02
67460,5.62E-03,1.78E-02
67461,5.62E-03,1.79E-02
67462,5.62E-03,1.80E-02
67463,5.62E-03,1.80E-02
67464,5.62E-03,1.81E-02
67465,5.62E-03,1.82E-02
67466,5.62E-03,1.83E-02
67467,5.62E-03,1.84E-02
67468,5.62E-03,1.85E-02
67469,5.62E-03,1.86E-02
67470,5.62E-03,1.86E-02
67471,5.62E-03,1.87E-02
67472,5.63E-03,1.88E-02
67473,5.64E-03,1.89E-02
67474,5.62E-03,1.90E-02
67475,5.64E-03,1.90E-02
67476,5.59E-03,1.91E-02
67477,5.62E-03,1.92E-02
67478,5.62E-03,1.93E-02
67479,5.62E-03,1.93E-02
67480,5.62E-03,1.94E-02
67481,5.62E-03,1.95E-02
67482,5.62E-03,1.95E-02
67483,5.62E-03,1.96E-02
67484,5.62E-03,1.97E-02
67485,5.62E-03,1.97E-02
67486,5.62E-03,1.98E-02
67487,5.62E-03,1.98E-02
67488,5.62E-03,1.99E-02
67489,5.62E-03,1.99E-02
67490,5.62E-03,2.00E-02
67491,5.62E-03,2.00E-02
67492,5.62E-03,2.01E-02
67493,5.62E-03,2.01E-02
67494,5.62E-03,2.02E-02
67495,5.62E-03,2.02E-02
67496,5.62E-03,2.03E-02
67497,5.62E-03,2.03E-02
67498,5.62E-03,2.03E-02
67499,5.62E-03,2.04E-02
67500,5.62E-03,2.04E-02
67501,5.62E-03,2.04E-02
67502,5.62E-03,2.05E-02
67503,5.62E-03,2.05E-02
67504,5.62E-03,2.05E-02
67505,5.62E-03,2.05E-02
67506,5.62E-03,2.05E-02
67507,5.63E-03,2.06E-02
67508,5.64E-03,2.06E-02
67509,5.66E-03,2.06E-02
67510,5.69E-03,2.06E-02
67511,5.70E-03,2.06E-02
67512,5.70E-03,2.06E-02
67513,5.71E-03,2.06E-02
67514,5.71E-03,2.06E-02
67515,5.71E-03,2.05E-02
67516,5.68E-03,2.05E-02
67517,5.68E-03,2.05E-02
67518,5.64E-03,2.05E-02
67519,5.62E-03,2.05E-02
67520,5.69E-03,2.05E-02
67521,5.69E-03,2.04E-02
67522,5.72E-03,2.04E-02
67523,5.65E-03,2.04E-02
67524,5.62E-03,2.03E-02
67525,5.62E-03,2.03E-02
67526,5.62E-03,2.02E-02
67527,5.62E-03,2.02E-02
67528,5.62E-03,2.01E-02
67529,5.62E-03,2.01E-02
67530,5.62E-03,2.00E-02
67531,5.63E-03,2.00E-02
67532,5.64E-03,1.99E-02
67533,5.66E-03,1.99E-02
67534,5.67E-03,1.98E-02
67535,5.67E-03,1.98E-02
67536,5.65E-03,1.97E-02
67537,5.62E-03,1.96E-02
67538,5.62E-03,1.96E-02
67539,5.62E-03,1.95E-02
67540,5.62E-03,1.94E-02
67541,5.62E-03,1.93E-02
67542,5.62E-03,1.92E-02
67543,5.62E-03,1.92E-02
67544,5.62E-03,1.91E-02
67545,5.62E-03,1.90E-02
67546,5.62E-03,1.89E-02
67547,5.62E-03,1.88E-02
67548,5.62E-03,1.87E-02
67549,5.62E-03,1.86E-02
67550,5.62E-03,1.85E-02
67551,5.62E-03,1.84E-02
67552,5.62E-03,1.82E-02
67553,5.62E-03,1.81E-02
67554,5.62E-03,1.80E-02
67555,5.62E-03,1.79E-02
67556,5.62E-03,1.77E-02
67557,5.62E-03,1.76E-02
67558,5.62E-03,1.75E-02
67559,5.62E-03,1.73E-02
67560,5.62E-03,1.72E-02
67561,5.62E-03,1.70E-02
67562,5.62E-03,1.69E-02
67563,5.62E-03,1.67E-02
67564,5.62E-03,1.66E-02
67565,5.62E-03,1.64E-02
67566,5.62E-03,1.63E-02
67567,5.62E-03,1.61E-02
67568,5.62E-03,1.59E-02
67569,5.62E-03,1.58E-02
67570,5.62E-03,1.56E-02
67571,5.62E-03,1.54E-02
67572,5.62E-03,1.53E-02
67573,5.62E-03,1.51E-02
67574,5.62E-03,1.49E-02
67575,5.56E-03,1.48E-02
67576,5.52E-03,1.46E-02
67577,5.50E-03,1.44E-02
67578,5.50E-03,1.43E-02
67579,5.50E-03,1.41E-02
67580,5.52E-03,1.39E-02
67581,5.54E-03,1.38E-02
67582,5.58E-03,1.36E-02
67583,5.62E-03,1.35E-02
67584,5.62E-03,1.33E-02
67585,5.62E-03,1.31E-02
67586,5.62E-03,1.30E-02
67587,5.62E-03,1.28E-02
67588,5.62E-03,1.27E-02
67589,5.62E-03,1.25E-02
67590,5.62E-03,1.24E-02
67591,5.62E-03,1.22E-02
67592,5.63E-03,1.20E-02
67593,5.64E-03,1.19E-02
67594,5.68E-03,1.17E-02
67595,5.70E-03,1.16E-02
67596,5.74E-03,1.14E-02
67597,5.72E-03,1.13E-02
67598,5.72E-03,1.11E-02
67599,5.68E-03,1.10E-02
67600,5.63E-03,1.08E-02
67601,5.62E-03,1.07E-02
67602,5.62E-03,1.06E-02
67603,5.57E-03,1.04E-02
67604,5.57E-03,1.03E-02
67605,5.62E-03,1.01E-02
67606,5.63E-03,9.97E-03
67607,5.63E-03,9.83E-03
67608,5.63E-03,9.68E-03
67609,5.63E-03,9.55E-03
67610,5.64E-03,9.41E-03
67611,5.60E-03,9.26E-03
67612,5.54E-03,9.12E-03
67613,5.49E-03,8.99E-03
67614,5.42E-03,8.86E-03
67615,5.37E-03,8.73E-03
67616,5.31E-03,8.60E-03
67617,5.18E-03,8.50E-03
67618,5.70E-03,8.40E-03
67619,5.68E-03,8.26E-03
67620,5.14E-03,8.18E-03
67621,5.30E-03,8.16E-03
67622,5.34E-03,8.13E-03
67623,5.39E-03,8.11E-03
67624,5.46E-03,8.10E-03
67625,5.52E-03,8.08E-03
67626,5.53E-03,8.06E-03
67627,5.58E-03,8.04E-03
67628,5.58E-03,8.02E-03
67629,5.58E-03,8.00E-03
67630,5.58E-03,7.98E-03
67631,5.58E-03,7.95E-03
67632,5.59E-03,7.92E-03
67633,5.59E-03,7.89E-03
67634,5.59E-03,7.85E-03
67635,5.57E-03,7.81E-03
67636,5.57E-03,7.76E-03
67637,5.56E-03,7.72E-03
67638,5.55E-03,7.67E-03
67639,5.57E-03,7.62E-03
67640,5.58E-03,7.58E-03
67641,5.57E-03,7.53E-03
67642,5.56E-03,7.48E-03
67643,5.54E-03,7.44E-03
67644,5.57E-03,7.40E-03
67645,5.63E-03,7.36E-03
67646,5.59E-03,7.32E-03
67647,5.59E-03,7.28E-03
67648,5.59E-03,7.25E-03
67649,5.59E-03,7.21E-03
67650,5.59E-03,7.18E-03
67651,5.61E-03,7.14E-03
67652,5.55E-03,7.10E-03
67653,5.60E-03,7.07E-03
67654,5.62E-03,7.03E-03
67655,5.61E-03,6.99E-03
67656,5.58E-03,6.95E-03
67657,5.58E-03,6.91E-03
67658,5.61E-03,6.87E-03
67659,5.58E-03,6.83E-03
67660,5.60E-03,6.79E-03
67661,5.60E-03,6.76E-03
67662,5.58E-03,6.72E-03
67663,5.58E-03,6.69E-03
67664,5.58E-03,6.66E-03
67665,5.61E-03,6.63E-03
67666,5.58E-03,6.60E-03
67667,5.58E-03,6.57E-03
67668,5.58E-03,6.54E-03
67669,5.58E-03,6.51E-03
67670,5.58E-03,6.48E-03
67671,5.58E-03,6.45E-03
67672,5.58E-03,6.41E-03
67673,5.59E-03,6.38E-03
67674,5.61E-03,6.34E-03
67675,5.65E-03,6.31E-03
67676,5.65E-03,6.27E-03
67677,5.66E-03,6.23E-03
67678,5.65E-03,6.20E-03
67679,5.61E-03,6.16E-03
67680,5.59E-03,6.13E-03
67681,5.58E-03,6.10E-03
67682,5.57E-03,6.07E-03
67683,5.57E-03,6.04E-03
67684,5.56E-03,6.02E-03
67685,5.56E-03,5.99E-03
67686,5.56E-03,5.97E-03
67687,5.56E-03,5.94E-03
67688,5.56E-03,5.92E-03
67689,5.55E-03,5.90E-03
67690,5.50E-03,5.88E-03
67691,5.46E-03,5.86E-03
67692,5.40E-03,5.85E-03
67693,5.37E-03,5.83E-03
67694,5.34E-03,5.82E-03
67695,5.40E-03,5.81E-03
67696,5.47E-03,5.79E-03
67697,5.52E-03,5.79E-03
67698,5.54E-03,5.80E-03
67699,5.53E-03,5.82E-03
67700,5.51E-03,5.85E-03
67701,5.51E-03,5.91E-03
67702,5.47E-03,5.97E-03
67703,5.47E-03,6.07E-03
67704,5.45E-03,6.19E-03
67705,5.49E-03,6.33E-03
67706,5.46E-03,6.50E-03
67707,5.51E-03,6.70E-03
67708,5.54E-03,6.94E-03
67709,5.56E-03,7.21E-03
67710,5.57E-03,7.51E-03
67711,5.56E-03,7.84E-03
67712,5.55E-03,8.21E-03
67713,5.52E-03,8.59E-03
67714,5.52E-03,9.00E-03
67715,5.52E-03,9.44E-03
67716,5.55E-03,9.90E-03
67717,5.60E-03,1.04E-02
67718,5.60E-03,1.08E-02
67719,5.60E-03,1.13E-02
67720,5.60E-03,1.17E-02
67721,5.60E-03,1.22E-02
67722,5.61E-03,1.28E-02
67723,5.61E-03,1.33E-02
67724,5.61E-03,1.39E-02
67725,5.61E-03,1.45E-02
67726,5.61E-03,1.51E-02
67727,5.61E-03,1.57E-02
67728,5.61E-03,1.64E-02
67729,5.61E-03,1.70E-02
67730,5.61E-03,1.77E-02
67731,5.60E-03,1.84E-02
67732,5.60E-03,1.91E-02
67733,5.60E-03,1.98E-02
67734,5.58E-03,2.05E-02
67735,5.54E-03,2.13E-02
67736,5.55E-03,2.21E-02
67737,5.56E-03,2.28E-02
67738,5.53E-03,2.36E-02
67739,5.56E-03,2.44E-02
67740,5.57E-03,2.52E-02
67741,5.57E-03,2.61E-02
67742,5.57E-03,2.69E-02
67743,5.57E-03,2.77E-02
67744,5.56E-03,2.86E-02
67745,5.55E-03,2.94E-02
67746,5.55E-03,3.01E-02
67747,5.54E-03,3.08E-02
67748,5.54E-03,3.15E-02
67749,5.54E-03,3.22E-02
67750,5.53E-03,3.28E-02
67751,5.53E-03,3.35E-02
67752,5.54E-03,3.40E-02
67753,5.54E-03,3.46E-02
67754,5.54E-03,3.50E-02
67755,5.55E-03,3.54E-02
67756,5.55E-03,3.56E-02
67757,5.55E-03,3.58E-02
67758,5.56E-03,3.60E-02
67759,5.56E-03,3.61E-02
67760,5.56E-03,3.61E-02
67761,5.56E-03,3.61E-02
67762,5.54E-03,3.61E-02
67763,5.57E-03,3.60E-02
67764,5.57E-03,3.59E-02
67765,5.57E-03,3.58E-02
67766,5.57E-03,3.56E-02
67767,5.57E-03,3.55E-02
67768,5.57E-03,3.53E-02
67769,5.60E-03,3.52E-02
67770,5.57E-03,3.50E-02
67771,5.57E-03,3.49E-02
67772,5.57E-03,3.47E-02
67773,5.57E-03,3.45E-02
67774,5.57E-03,3.44E-02
67775,5.56E-03,3.42E-02
67776,5.56E-03,3.40E-02
67777,5.56E-03,3.38E-02
67778,5.56E-03,3.36E-02
67779,5.55E-03,3.33E-02
67780,5.55E-03,3.31E-02
67781,5.55E-03,3.29E-02
67782,5.55E-03,3.26E-02
67783,5.55E-03,3.24E-02
67784,5.55E-03,3.21E-02
67785,5.55E-03,3.18E-02
67786,5.55E-03,3.15E-02
67787,5.55E-03,3.12E-02
67788,5.55E-03,3.09E-02
67789,5.55E-03,3.06E-02
67790,5.55E-03,3.03E-02
67791,5.55E-03,2.99E-02
67792,5.55E-03,2.96E-02
67793,5.56E-03,2.92E-02
67794,5.56E-03,2.89E-02
67795,5.56E-03,2.86E-02
67796,5.56E-03,2.82E-02
67797,5.62E-03,2.79E-02
67798,5.67E-03,2.75E-02
67799,5.72E-03,2.71E-02
67800,5.71E-03,2.68E-02
67801,5.68E-03,2.64E-02
67802,5.60E-03,2.61E-02
67803,5.60E-03,2.57E-02
67804,5.62E-03,2.54E-02
67805,5.65E-03,2.50E-02
67806,5.65E-03,2.46E-02
67807,5.63E-03,2.43E-02
67808,5.59E-03,2.39E-02
67809,5.59E-03,2.36E-02
67810,5.59E-03,2.32E-02
67811,5.59E-03,2.28E-02
67812,5.59E-03,2.25E-02
67813,5.59E-03,2.21E-02
67814,5.59E-03,2.18E-02
67815,5.59E-03,2.14E-02
67816,5.64E-03,2.11E-02
67817,5.65E-03,2.07E-02
67818,5.67E-03,2.04E-02
67819,5.67E-03,2.00E-02
67820,5.63E-03,1.97E-02
67821,5.59E-03,1.94E-02
67822,5.59E-03,1.90E-02
67823,5.59E-03,1.87E-02
67824,5.59E-03,1.84E-02
67825,5.59E-03,1.80E-02
67826,5.59E-03,1.77E-02
67827,5.59E-03,1.74E-02
67828,5.59E-03,1.70E-02
67829,5.59E-03,1.67E-02
67830,5.59E-03,1.64E-02
67831,5.60E-03,1.61E-02
67832,5.61E-03,1.58E-02
67833,5.63E-03,1.54E-02
67834,5.67E-03,1.51E-02
67835,5.68E-03,1.48E-02
67836,5.67E-03,1.45E-02
67837,5.68E-03,1.42E-02
67838,5.67E-03,1.39E-02
67839,5.65E-03,1.36E-02
67840,5.62E-03,1.33E-02
67841,5.60E-03,1.31E-02
67842,5.59E-03,1.28E-02
67843,5.58E-03,1.25E-02
67844,5.57E-03,1.22E-02
67845,5.59E-03,1.19E-02
67846,5.61E-03,1.17E-02
67847,5.63E-03,1.14E-02
67848,5.67E-03,1.11E-02
67849,5.72E-03,1.09E-02
67850,5.66E-03,1.06E-02
67851,5.62E-03,1.04E-02
67852,5.59E-03,1.01E-02
67853,5.58E-03,9.89E-03
67854,5.57E-03,9.65E-03
67855,5.57E-03,9.42E-03
67856,5.56E-03,9.19E-03
67857,5.56E-03,8.97E-03
67858,5.52E-03,8.75E-03
67859,5.51E-03,8.54E-03
67860,5.49E-03,8.33E-03
67861,5.52E-03,8.13E-03
67862,5.54E-03,7.93E-03
67863,5.55E-03,7.74E-03
67864,5.56E-03,7.55E-03
67865,5.56E-03,7.37E-03
67866,5.56E-03,7.19E-03
67867,5.56E-03,7.02E-03
67868,5.51E-03,6.85E-03
67869,5.46E-03,6.68E-03
67870,5.45E-03,6.52E-03
67871,5.47E-03,6.36E-03
67872,5.47E-03,6.21E-03
67873,5.48E-03,6.05E-03
67874,5.51E-03,5.91E-03
67875,5.55E-03,5.76E-03
67876,5.60E-03,5.62E-03
67877,5.60E-03,5.48E-03
67878,5.60E-03,5.35E-03
67879,5.60E-03,5.21E-03
67880,5.60E-03,5.08E-03
67881,5.60E-03,4.96E-03
67882,5.60E-03,4.83E-03
67883,5.60E-03,4.71E-03
67884,5.60E-03,4.59E-03
67885,5.60E-03,4.47E-03
67886,5.60E-03,4.36E-03
67887,5.60E-03,4.25E-03
67888,5.60E-03,4.14E-03
67889,5.60E-03,4.03E-03
67890,5.60E-03,3.93E-03
67891,5.60E-03,3.83E-03
67892,5.60E-03,3.73E-03
67893,5.60E-03,3.64E-03
67894,5.60E-03,3.55E-03
67895,5.60E-03,3.46E-03
67896,5.60E-03,3.37E-03
67897,5.60E-03,3.29E-03
67898,5.60E-03,3.21E-03
67899,5.60E-03,3.13E-03
67900,5.60E-03,3.05E-03
67901,5.60E-03,2.97E-03
67902,5.60E-03,2.90E-03
67903,5.60E-03,2.83E-03
67904,5.60E-03,2.76E-03
67905,5.60E-03,2.70E-03
67906,5.60E-03,2.63E-03
67907,5.60E-03,2.57E-03
67908,5.60E-03,2.52E-03
67909,5.60E-03,2.46E-03
67910,5.60E-03,2.41E-03
67911,5.60E-03,2.35E-03
67912,5.60E-03,2.30E-03
67913,5.60E-03,2.26E-03
67914,5.59E-03,2.21E-03
67915,5.59E-03,2.17E-03
67916,5.58E-03,2.13E-03
67917,5.55E-03,2.09E-03
67918,5.54E-03,2.05E-03
67919,5.55E-03,2.02E-03
67920,5.58E-03,1.98E-03
67921,5.57E-03,1.95E-03
67922,3.54E-03,1.73E-02
67923,4.12E-03,1.72E-02
67924,4.73E-03,1.71E-02
67925,5.00E-03,1.69E-02
67926,5.01E-03,1.68E-02
67927,5.09E-03,1.67E-02
67928,5.11E-03,1.65E-02
67929,5.17E-03,1.64E-02
67930,5.26E-03,1.62E-02
67931,5.35E-03,1.61E-02
67932,5.54E-03,1.59E-02
67933,5.63E-03,1.58E-02
67934,5.57E-03,1.56E-02
67935,5.42E-03,1.54E-02
67936,5.30E-03,1.52E-02
67937,5.22E-03,1.50E-02
67938,5.15E-03,1.48E-02
67939,5.11E-03,1.47E-02
67940,5.05E-03,1.45E-02
67941,4.97E-03,1.43E-02
67942,4.88E-03,1.41E-02
67943,4.83E-03,1.38E-02
67944,4.88E-03,1.36E-02
67945,5.10E-03,1.34E-02
67946,5.14E-03,1.32E-02
67947,5.27E-03,1.30E-02
67948,5.33E-03,1.28E-02
67949,5.40E-03,1.26E-02
67950,5.41E-03,1.23E-02
67951,5.40E-03,1.21E-02
67952,5.39E-03,1.19E-02
67953,5.39E-03,1.16E-02
67954,5.39E-03,1.14E-02
67955,5.39E-03,1.11E-02
67956,5.39E-03,1.09E-02
67957,5.40E-03,1.06E-02
67958,5.43E-03,1.03E-02
67959,5.47E-03,1.01E-02
67960,5.48E-03,9.82E-03
67961,5.49E-03,9.55E-03
67962,5.48E-03,9.28E-03
67963,5.48E-03,9.00E-03
67964,5.48E-03,8.73E-03
67965,5.47E-03,8.45E-03
67966,5.48E-03,8.17E-03
67967,5.47E-03,7.89E-03
67968,5.49E-03,7.60E-03
67969,5.50E-03,7.32E-03
67970,5.49E-03,7.03E-03
67971,5.45E-03,6.74E-03
67972,5.42E-03,6.45E-03
67973,5.45E-03,6.16E-03
67974,5.47E-03,5.87E-03
67975,5.46E-03,5.57E-03
67976,5.45E-03,5.28E-03
67977,5.42E-03,4.99E-03
67978,5.40E-03,4.70E-03
67979,5.38E-03,4.41E-03
67980,5.38E-03,4.12E-03
67981,5.36E-03,3.82E-03
67982,5.38E-03,3.53E-03
67983,5.37E-03,3.25E-03
67984,5.39E-03,2.97E-03
67985,5.37E-03,2.69E-03
67986,5.37E-03,2.42E-03
67987,5.38E-03,2.16E-03
67988,5.49E-03,1.92E-03
67989,4.81E-03,1.74E-02
67990,4.35E-03,8.53E-03
67991,3.84E-03,8.38E-03
67992,3.93E-03,8.46E-03
67993,4.73E-03,2.61E-02
67994,4.90E-03,2.60E-02
67995,6.03E-03,1.85E-02
67996,6.05E-03,1.82E-02
67997,6.00E-03,1.81E-02
67998,6.10E-03,1.83E-02
67999,5.95E-03,1.85E-02
68000,6.18E-03,1.12E-02
68001,6.15E-03,1.12E-02
68002,6.01E-03,1.14E-02
68003,6.14E-03,1.17E-02
68004,6.20E-03,1.15E-02
68039,4.71E-03,8.93E-03
68040,4.66E-03,1.33E-02
68041,6.99E-03,5.03E-03
68042,6.81E-03,5.26E-03
68043,5.81E-03,5.26E-03
68044,3.06E-03,7.64E-03
68045,4.58E-03,7.59E-03
68046,3.76E-03,7.52E-03
68047,2.33E-03,7.58E-03
68048,3.31E-03,7.68E-03
68049,6.35E-03,8.99E-03
68050,5.53E-03,8.95E-03
68051,3.66E-03,5.32E-03
68052,5.01E-03,5.22E-03
68053,4.46E-03,5.45E-03
68054,3.24E-03,5.49E-03
68055,3.52E-03,5.48E-03
68056,3.83E-03,7.47E-03
68057,3.69E-03,7.58E-03
68058,3.86E-03,7.69E-03
68059,5.72E-03,8.96E-03
68060,5.08E-03,8.93E-03
68061,4.49E-03,9.46E-03
68062,3.04E-03,9.52E-03
68063,4.22E-03,1.10E-02
68064,6.44E-03,1.09E-02
68065,6.47E-03,1.10E-02
68066,6.46E-03,9.52E-03
68067,7.56E-03,9.45E-03
68068,7.70E-03,9.38E-03
68069,7.77E-03,9.49E-03
68070,7.73E-03,9.35E-03
68071,7.04E-03,9.28E-03
68072,6.57E-03,9.41E-03
68073,5.72E-03,2.53E-02
68074,6.37E-03,2.53E-02
68075,5.53E-03,2.53E-02
68076,3.40E-03,7.50E-03
68077,4.52E-03,7.44E-03
68078,4.57E-03,7.56E-03
68079,3.52E-03,7.58E-03
68080,3.48E-03,7.59E-03
68081,2.91E-03,2.69E-02
68082,4.06E-03,2.71E-02
68083,3.89E-03,2.62E-02
68084,2.78E-03,2.61E-02
68085,2.78E-03,2.59E-02
68086,2.07E-03,1.46E-04
68087,2.83E-03,1.05E-04
68088,2.93E-03,1.01E-04
68089,1.98E-03,1.36E-04
68090,2.08E-03,1.80E-04
68091,5.52E-03,9.73E-03
68092,4.90E-03,9.66E-03
68093,4.24E-03,8.62E-03
68094,4.19E-03,8.58E-03
68095,5.71E-03,1.07E-02
68096,4.25E-03,1.07E-02
68097,5.10E-03,1.70E-02
68098,3.60E-03,1.68E-02
68099,4.61E-03,8.56E-03
68100,2.76E-03,8.52E-03
68101,4.35E-03,8.48E-03
68102,4.96E-03,8.52E-03
68103,6.58E-03,1.10E-02
68104,6.93E-03,1.12E-02
68105,6.27E-03,1.12E-02
68106,2.74E-03,9.56E-03
68107,6.84E-03,1.04E-02
68108,4.87E-03,1.05E-02
68109,5.95E-03,1.06E-02
68110,6.42E-03,1.03E-02
68111,5.76E-03,1.03E-02
68112,6.16E-03,1.02E-02
68113,5.51E-03,8.68E-03
68114,4.38E-03,8.73E-03
68115,4.60E-03,8.71E-03
68116,4.97E-03,8.68E-03
68117,5.86E-03,8.29E-03
68118,4.95E-03,8.32E-03
68119,3.78E-03,8.37E-03
68120,4.66E-03,8.37E-03
68121,5.99E-03,8.19E-03
68122,5.46E-03,8.29E-03
68123,7.07E-03,1.63E-02
68124,6.93E-03,1.61E-02
68125,3.84E-03,1.10E-02
68126,6.05E-03,8.21E-03
68127,6.33E-03,8.22E-03
68128,7.05E-03,9.02E-03
68129,5.19E-03,8.96E-03
68130,4.79E-03,8.94E-03
68131,5.37E-03,8.46E-03
68132,7.10E-03,8.44E-03
68133,5.52E-03,8.56E-03
68134,5.00E-03,8.58E-03
68135,4.74E-03,8.82E-03
68136,4.12E-03,8.83E-03
68137,4.07E-03,8.80E-03
68138,6.65E-03,8.86E-03
68139,6.03E-03,8.82E-03
68140,6.28E-03,2.09E-02
68141,6.19E-03,2.09E-02
68142,6.02E-03,2.04E-02
68143,5.87E-03,7.80E-03
68144,6.21E-03,7.76E-03
68145,5.88E-03,7.85E-03
68146,6.26E-03,7.08E-03
68147,7.26E-03,2.43E-02
68148,6.39E-03,2.46E-02
68149,6.02E-03,2.31E-02
68150,6.30E-03,7.77E-03
68151,6.14E-03,7.85E-03
68152,4.80E-03,7.95E-03
68153,3.80E-03,1.03E-02
68154,4.73E-03,1.03E-02
68155,4.70E-03,1.03E-02
68156,3.29E-03,8.37E-03
68157,3.68E-03,8.43E-03
68158,3.24E-03,8.40E-03
68159,3.89E-03,1.14E-02
68160,4.05E-03,1.13E-02
68161,3.91E-03,1.13E-02
68162,2.78E-03,1.55E-02
68163,2.86E-03,1.55E-02
68164,2.87E-03,1.56E-02
68165,3.36E-03,1.37E-02
68166,3.27E-03,1.36E-02
68167,3.46E-03,1.37E-02
68168,4.25E-03,1.35E-02
68169,4.10E-03,1.36E-02
68170,3.58E-03,1.91E-02
68171,3.50E-03,1.93E-02
68172,3.47E-03,1.96E-02
68173,3.01E-03,6.54E-03
68174,2.96E-03,6.56E-03
68175,3.06E-03,6.65E-03
68176,6.23E-03,1.30E-02
68177,6.08E-03,1.30E-02
68178,5.08E-03,1.31E-02
68179,6.31E-03,1.31E-02
68180,3.57E-03,9.82E-03
68181,4.89E-03,9.69E-03
68182,3.94E-03,9.70E-03
68183,3.69E-03,2.47E-02
68184,3.65E-03,2.51E-02
68185,4.13E-03,2.49E-02
68186,4.33E-03,8.62E-03
68187,4.36E-03,8.56E-03
68188,3.53E-03,1.06E-02
68189,4.31E-03,5.65E-03
68190,4.32E-03,5.65E-03
68191,4.31E-03,1.36E-02
68192,4.58E-03,1.35E-02
68193,3.44E-03,8.62E-03
68194,3.76E-03,8.62E-03
68195,3.97E-03,8.84E-03
68196,3.55E-03,1.69E-02
68197,5.70E-03,1.73E-02
68198,4.27E-03,8.58E-03
68199,4.42E-03,8.62E-03
68200,4.94E-03,1.35E-02
68201,4.85E-03,1.36E-02
68202,6.50E-03,1.53E-02
68203,6.26E-03,1.55E-02
68204,5.62E-03,1.53E-02
68205,5.73E-03,8.65E-03
68206,6.10E-03,8.61E-03
68207,4.96E-03,8.69E-03
68208,8.06E-03,8.60E-03
68209,6.73E-03,8.64E-03
68210,5.26E-03,8.56E-03
68211,5.52E-03,9.55E-03
68212,5.92E-03,9.59E-03
68213,4.49E-03,7.78E-03
68214,5.12E-03,7.87E-03
68215,5.07E-03,8.00E-03
68216,4.91E-03,7.90E-03
68217,5.63E-03,1.51E-02
68218,7.13E-03,1.51E-02
68219,8.71E-03,1.54E-02
68220,6.72E-03,9.08E-03
68221,6.59E-03,9.20E-03
68222,6.48E-03,9.14E-03
68223,5.26E-03,1.37E-02
68224,5.50E-03,1.39E-02
68225,5.77E-03,1.42E-02
68226,6.23E-03,1.40E-02
68227,5.49E-03,7.49E-03
68228,5.62E-03,7.43E-03
68229,5.94E-03,7.29E-03
68230,5.97E-03,7.24E-03
68231,7.88E-03,9.55E-03
68232,6.34E-03,9.64E-03
68233,5.86E-03,9.61E-03
68234,4.59E-03,9.74E-03
68235,5.48E-03,3.98E-03
68236,5.66E-03,3.89E-03
68237,5.67E-03,1.02E-02
68238,5.62E-03,1.02E-02
68239,5.63E-03,8.67E-03
68240,5.78E-03,8.68E-03
68241,5.80E-03,8.99E-03
68242,5.26E-03,9.08E-03
68243,6.68E-03,1.22E-02
68244,6.23E-03,1.23E-02
68245,6.09E-03,1.25E-02
68246,5.93E-03,1.26E-02
68247,5.08E-03,1.35E-02
68248,5.20E-03,1.36E-02
68249,5.68E-03,8.76E-03
68250,5.11E-03,8.75E-03
68251,5.01E-03,8.75E-03
68252,4.64E-03,8.79E-03
68253,4.65E-03,8.80E-03
68254,5.29E-03,1.31E-02
68255,5.49E-03,1.30E-02
68256,6.34E-03,1.03E-02
68257,6.48E-03,1.04E-02
68258,6.18E-03,8.67E-03
68259,6.94E-03,8.70E-03
68260,4.83E-03,1.51E-02
68261,5.75E-03,1.50E-02
68262,5.64E-03,1.41E-02
68263,4.21E-03,1.40E-02
68264,5.98E-03,1.00E-02
68265,6.13E-03,1.01E-02
68266,4.32E-03,8.83E-03
68267,4.12E-03,8.87E-03
68268,5.71E-03,9.34E-03
68269,5.73E-03,9.42E-03
68270,5.65E-03,1.20E-02
68271,5.59E-03,1.22E-02
68272,4.40E-03,8.12E-03
68273,4.23E-03,8.11E-03
68274,3.96E-03,8.01E-03
68275,4.30E-03,8.03E-03
68276,5.22E-03,8.93E-03
68277,5.30E-03,8.91E-03
68278,5.90E-03,1.27E-02
68279,5.74E-03,1.25E-02
68280,4.71E-03,8.74E-03
68281,4.71E-03,8.72E-03
68282,4.72E-03,7.75E-03
68283,5.86E-03,8.88E-03
68284,5.88E-03,8.79E-03
68285,5.19E-03,7.62E-03
68286,4.92E-03,7.64E-03
68287,4.90E-03,7.39E-03
68288,5.50E-03,7.33E-03
68289,5.39E-03,7.88E-03
68290,5.44E-03,7.59E-03
68291,5.47E-03,8.17E-03
68292,4.87E-03,8.18E-03
68293,5.76E-03,8.17E-03
68294,2.66E-03,8.48E-03
68295,2.70E-03,8.52E-03
68296,3.71E-03,8.52E-03
68297,3.77E-03,8.47E-03
68298,4.14E-03,8.51E-03
68299,5.38E-03,8.51E-03
68300,4.18E-03,6.71E-03
68301,4.02E-03,6.56E-03
68302,4.50E-03,8.53E-03
68303,3.85E-03,8.49E-03
68304,3.16E-03,8.45E-03
68305,2.82E-03,8.45E-03
68306,3.65E-03,1.25E-03
68307,5.72E-03,1.09E-03
68308,6.12E-03,9.70E-04
68309,4.90E-03,6.83E-03
68310,4.82E-03,6.79E-03
68311,4.72E-03,1.32E-02
68312,4.19E-03,1.33E-02
68313,3.65E-03,1.32E-02
68314,4.65E-03,1.31E-02
68315,2.39E-03,8.79E-03
68316,3.46E-03,8.81E-03
68317,3.55E-03,8.79E-03
68318,3.22E-03,1.13E-02
68319,4.64E-03,1.14E-02
68320,2.11E-03,2.19E-02
68321,2.54E-03,2.20E-02
68322,2.97E-03,2.17E-02
68323,2.46E-03,8.74E-03
68324,3.20E-03,8.72E-03
68325,3.11E-03,8.75E-03
68326,4.92E-03,2.17E-03
68327,4.92E-03,4.45E-03
68328,4.92E-03,8.95E-03
68329,4.63E-03,8.65E-03
68330,4.54E-03,8.59E-03
68331,4.56E-03,8.69E-03
68332,4.27E-03,8.67E-03
68333,3.96E-03,8.54E-03
68334,4.88E-03,8.66E-03
68335,4.95E-03,8.61E-03
68336,4.46E-03,8.51E-03
68337,5.19E-03,8.67E-03
68338,4.93E-03,8.71E-03
68339,5.27E-03,8.72E-03
68340,6.27E-03,1.04E-02
68341,6.52E-03,1.05E-02
68342,5.96E-03,1.06E-02
68343,5.85E-03,1.06E-02
68344,6.33E-03,1.03E-02
68345,6.66E-03,1.04E-02
68346,5.68E-03,1.02E-02
68347,5.74E-03,1.02E-02
68348,5.49E-03,1.03E-02
68349,3.90E-03,8.53E-03
68350,4.49E-03,8.64E-03
68351,5.90E-03,1.02E-02
68352,4.96E-03,8.74E-03
68353,5.42E-03,8.72E-03
68354,5.35E-03,8.67E-03
68355,4.48E-03,8.47E-03
68356,5.23E-03,8.62E-03
68357,5.41E-03,8.55E-03
68358,4.47E-03,1.01E-02
68359,5.19E-03,1.01E-02
68360,5.15E-03,1.02E-02
68361,4.26E-03,8.47E-03
68362,5.43E-03,1.13E-02
68363,5.69E-03,1.11E-02
68364,5.69E-03,1.10E-02
68365,4.91E-03,1.09E-02
68366,4.23E-03,1.08E-02
68367,5.10E-03,1.08E-02
68368,4.19E-03,8.50E-03
68369,4.39E-03,8.54E-03
68370,4.64E-03,8.63E-03
68371,5.55E-03,8.69E-03
68372,5.51E-03,1.03E-02
68373,6.36E-03,1.05E-02
68374,5.93E-03,1.04E-02
68375,4.53E-03,1.07E-02
68376,5.96E-03,1.06E-02
68377,5.35E-03,1.09E-02
68378,4.36E-03,8.43E-03
68379,5.47E-03,8.72E-03
68380,5.87E-03,8.76E-03
68381,4.52E-03,1.02E-02
68382,4.37E-03,1.01E-02
68383,6.13E-03,1.14E-02
68384,5.73E-03,1.01E-02
68385,5.15E-03,8.72E-03
68386,4.69E-03,1.10E-02
68387,4.93E-03,1.19E-02
68388,4.76E-03,1.20E-02
68389,3.48E-03,1.20E-02
68390,5.00E-03,1.19E-02
68391,4.99E-03,8.74E-03
68392,4.23E-03,8.76E-03
68393,4.63E-03,8.77E-03
68394,5.08E-03,8.75E-03
68395,5.81E-03,1.00E-02
68396,5.29E-03,1.00E-02
68397,5.83E-03,8.79E-03
68398,5.72E-03,8.79E-03
68399,6.29E-03,8.81E-03
68400,5.51E-03,8.79E-03
68401,6.04E-03,8.79E-03
68402,5.48E-03,1.11E-02
68403,5.55E-03,8.72E-03
68404,5.86E-03,1.06E-02
68405,6.25E-03,1.05E-02
68406,4.68E-03,8.62E-03
68407,5.39E-03,8.69E-03
68408,5.91E-03,8.64E-03
68409,5.11E-03,1.36E-02
68410,5.29E-03,1.37E-02
68411,5.59E-03,8.68E-03
68412,5.43E-03,9.91E-03
68413,4.52E-03,8.81E-03
68414,4.64E-03,8.81E-03
68415,4.14E-03,8.52E-03
68416,4.45E-03,8.46E-03
68417,5.02E-03,8.42E-03
68418,5.33E-03,8.63E-03
68419,6.12E-03,8.81E-03
68420,5.16E-03,8.57E-03
68421,5.88E-03,8.80E-03
68422,5.04E-03,8.50E-03
68423,4.64E-03,9.82E-03
68424,4.76E-03,9.81E-03
68425,5.03E-03,9.75E-03
68426,5.13E-03,1.34E-02
68427,4.89E-03,1.35E-02
68428,5.54E-03,8.77E-03
68429,4.97E-03,1.34E-02
68430,5.06E-03,1.34E-02
68431,4.97E-03,1.02E-02
68432,4.81E-03,1.01E-02
68433,5.20E-03,1.21E-02
68434,5.67E-03,1.17E-02
68435,5.90E-03,1.16E-02
68436,6.06E-03,1.14E-02
68437,6.26E-03,1.13E-02
68438,5.56E-03,1.09E-02
68439,5.57E-03,1.08E-02
68440,6.02E-03,9.96E-03
68441,5.72E-03,9.88E-03
68442,5.77E-03,1.01E-02
68443,5.04E-03,8.78E-03
68444,4.67E-03,8.71E-03
68445,5.84E-03,8.71E-03
68446,6.35E-03,1.05E-02
68447,6.90E-03,1.04E-02
68448,6.30E-03,1.08E-02
68449,6.09E-03,1.06E-02
68450,5.54E-03,1.09E-02
68451,5.84E-03,1.16E-02
68452,6.46E-03,1.15E-02
68453,5.62E-03,1.18E-02
68454,5.79E-03,1.27E-02
68455,5.59E-03,1.28E-02
68456,5.14E-03,1.32E-02
68457,5.26E-03,8.76E-03
68458,5.11E-03,9.70E-03
68459,5.35E-03,1.02E-02
68460,5.12E-03,1.01E-02
68461,5.94E-03,1.01E-02
68462,5.23E-03,1.01E-02
68463,4.99E-03,1.33E-02
68464,5.90E-03,1.15E-02
68465,5.68E-03,1.17E-02
68466,5.29E-03,9.79E-03
68467,6.46E-03,1.02E-02
68468,6.00E-03,1.01E-02
68469,5.58E-03,8.79E-03
68470,3.29E-03,8.77E-03
68471,4.52E-03,8.79E-03
68472,4.95E-03,8.78E-03
68473,5.02E-03,8.78E-03
68474,6.33E-03,8.76E-03
68475,3.68E-03,8.57E-03
68476,5.86E-03,1.01E-02
68477,6.31E-03,1.02E-02
68478,5.84E-03,1.10E-02
68479,6.03E-03,1.25E-02
68480,6.10E-03,1.24E-02
68481,5.90E-03,1.27E-02
68482,5.63E-03,1.29E-02
68483,5.47E-03,1.30E-02
68484,5.15E-03,1.33E-02
68485,5.52E-03,8.73E-03
68486,6.22E-03,8.78E-03
68487,6.20E-03,8.76E-03
68488,5.60E-03,8.79E-03
68489,5.35E-03,8.78E-03
68490,5.68E-03,1.00E-02
68491,3.35E-03,8.54E-03
68492,5.22E-03,8.60E-03
68493,5.61E-03,8.63E-03
68494,4.43E-03,8.66E-03
68495,4.75E-03,8.73E-03
68496,5.73E-03,8.59E-03
68497,5.23E-03,1.38E-02
68498,5.04E-03,1.37E-02
68499,6.26E-03,1.06E-02
68500,7.01E-03,1.05E-02
68501,5.40E-03,8.80E-03
68502,5.73E-03,1.14E-02
68503,5.50E-03,1.13E-02
68504,5.27E-03,1.36E-02
68505,5.07E-03,1.35E-02
68506,5.41E-03,1.38E-02
68507,5.73E-03,8.69E-03
68508,4.68E-03,9.85E-03
68509,5.14E-03,1.00E-02
68510,5.33E-03,9.97E-03
68511,4.76E-03,8.81E-03
68512,5.01E-03,8.82E-03
68513,4.03E-03,8.44E-03
68514,5.14E-03,8.36E-03
68515,5.42E-03,8.35E-03
68516,4.65E-03,1.34E-02
68517,5.44E-03,1.38E-02
68518,5.63E-03,8.64E-03
68519,4.95E-03,9.76E-03
68520,5.21E-03,8.81E-03
68521,4.90E-03,8.53E-03
68522,4.13E-03,8.48E-03
68523,5.26E-03,8.59E-03
68524,5.05E-03,9.69E-03
68525,5.70E-03,8.81E-03
68526,5.84E-03,8.79E-03
68527,6.01E-03,1.14E-02
68528,5.03E-03,1.19E-02
68529,5.25E-03,9.95E-03
68530,4.89E-03,1.20E-02
68531,5.37E-03,1.22E-02
68532,4.61E-03,9.59E-03
68533,4.70E-03,8.78E-03
68534,4.45E-03,8.42E-03
68535,4.71E-03,8.78E-03
68536,4.96E-03,8.78E-03
68537,4.23E-03,8.34E-03
68538,4.11E-03,8.32E-03
68539,4.27E-03,8.79E-03
68540,4.45E-03,8.27E-03
68541,4.81E-03,8.26E-03
68542,4.10E-03,8.40E-03
68543,4.44E-03,8.80E-03
68544,4.96E-03,8.82E-03
68545,4.66E-03,8.76E-03
68546,4.31E-03,9.63E-03
68547,4.97E-03,1.01E-02
68548,5.18E-03,8.55E-03
68549,3.30E-03,8.50E-03
68550,5.29E-03,1.30E-02
68551,5.10E-03,1.32E-02
68552,5.63E-03,1.28E-02
68553,5.50E-03,1.29E-02
68554,5.97E-03,1.25E-02
68555,5.79E-03,1.27E-02
68556,6.32E-03,1.23E-02
68557,6.18E-03,1.24E-02
68558,6.55E-03,1.20E-02
68559,6.93E-03,1.21E-02
68560,5.65E-03,1.18E-02
68561,6.27E-03,1.11E-02
68562,6.28E-03,1.13E-02
68563,5.67E-03,1.09E-02
68564,6.08E-03,1.10E-02
68565,5.24E-03,1.07E-02
68566,5.73E-03,9.93E-03
68567,5.39E-03,9.86E-03
68568,5.80E-03,1.00E-02
68569,3.93E-03,8.85E-03
68570,4.59E-03,8.81E-03
68571,5.12E-03,8.80E-03
68572,5.03E-03,8.79E-03
68573,5.01E-03,8.79E-03
68574,4.87E-03,8.78E-03
68575,6.23E-03,8.74E-03
68576,6.42E-03,8.76E-03
68577,6.21E-03,8.72E-03
68578,7.10E-03,8.72E-03
68579,4.52E-03,8.75E-03
68580,3.24E-03,9.90E-03
68581,3.27E-03,9.89E-03
68582,4.45E-03,9.93E-03
68583,7.09E-03,1.03E-02
68584,5.97E-03,1.02E-02
68585,6.70E-03,1.05E-02
68586,7.70E-03,1.04E-02
68587,6.08E-03,1.08E-02
68588,6.46E-03,1.06E-02
68589,6.07E-03,1.09E-02
68590,5.87E-03,1.17E-02
68591,6.21E-03,1.15E-02
68592,5.49E-03,1.18E-02
68593,5.88E-03,1.23E-02
68594,5.77E-03,1.28E-02
68595,5.31E-03,1.32E-02
68596,5.21E-03,1.39E-02
68597,5.41E-03,1.40E-02
68598,5.65E-03,8.74E-03
68599,6.60E-03,1.04E-02
68600,6.25E-03,1.02E-02
68601,6.41E-03,1.03E-02
68602,4.84E-03,8.78E-03
68603,5.18E-03,9.98E-03
68604,5.23E-03,1.00E-02
68605,6.83E-03,1.42E-02
68606,5.04E-03,1.37E-02
68607,4.64E-03,1.32E-02
68608,5.88E-03,1.15E-02
68609,5.82E-03,1.16E-02
68610,6.02E-03,1.14E-02
68611,5.09E-03,9.76E-03
68612,6.08E-03,1.01E-02
68613,5.53E-03,8.78E-03
68614,4.75E-03,8.80E-03
68615,3.90E-03,8.78E-03
68616,4.41E-03,8.81E-03
68617,5.33E-03,8.82E-03
68618,5.64E-03,1.01E-02
68619,5.35E-03,1.00E-02
68620,5.98E-03,1.02E-02
68621,5.93E-03,1.12E-02
68622,5.89E-03,1.10E-02
68623,5.34E-03,1.21E-02
68624,5.34E-03,1.19E-02
68625,5.42E-03,1.22E-02
68626,5.92E-03,1.26E-02
68627,5.89E-03,1.25E-02
68628,5.86E-03,1.27E-02
68629,5.70E-03,1.30E-02
68630,5.45E-03,1.31E-02
68631,5.05E-03,1.33E-02
68632,5.60E-03,1.40E-02
68633,5.93E-03,8.70E-03
68634,6.00E-03,8.76E-03
68635,6.09E-03,8.73E-03
68636,5.06E-03,8.52E-03
68637,5.20E-03,9.88E-03
68638,5.24E-03,9.96E-03
68639,5.03E-03,8.83E-03
68640,4.44E-03,8.33E-03
68641,5.05E-03,8.26E-03
68642,5.19E-03,1.35E-02
68643,3.56E-03,8.81E-03
68644,4.51E-03,8.83E-03
68645,4.46E-03,8.85E-03
68646,5.81E-03,1.39E-02
68647,6.02E-03,8.65E-03
68648,4.99E-03,9.78E-03
68649,5.47E-03,9.90E-03
68650,5.18E-03,8.82E-03
68651,5.15E-03,8.42E-03
68652,4.87E-03,8.39E-03
68653,3.36E-03,9.63E-03
68654,2.70E-03,9.53E-03
68655,3.40E-03,8.76E-03
68656,5.10E-03,1.15E-02
68657,5.11E-03,1.36E-02
68658,6.21E-03,1.38E-02
68659,4.80E-03,8.19E-03
68660,4.49E-03,8.21E-03
68661,5.33E-03,8.60E-03
68662,5.21E-03,9.70E-03
68663,5.12E-03,9.85E-03
68664,4.18E-03,9.85E-03
68665,5.56E-03,8.81E-03
68666,4.36E-03,8.35E-03
68667,5.90E-03,9.61E-03
68668,4.53E-03,9.79E-03
68669,5.34E-03,9.20E-03
68670,5.31E-03,9.15E-03
68671,3.85E-03,9.21E-03
68672,4.83E-03,9.17E-03
68673,5.60E-03,8.81E-03
68674,3.94E-03,9.55E-03
68675,5.04E-03,8.76E-03
68676,3.27E-03,8.74E-03
68677,5.83E-03,8.78E-03
68678,4.42E-03,9.25E-03
68679,3.99E-03,9.21E-03
68680,4.58E-03,8.78E-03
68681,5.12E-03,1.00E-02
68682,5.20E-03,8.86E-03
68683,5.35E-03,8.84E-03
68684,6.02E-03,8.57E-03
68685,5.76E-03,8.50E-03
68686,5.93E-03,8.55E-03
68687,5.44E-03,8.46E-03
68688,4.00E-03,8.44E-03
68689,5.71E-03,1.46E-02
68690,5.32E-03,1.48E-02
68691,5.41E-03,1.45E-02
68692,4.44E-03,1.47E-02
68693,5.85E-03,1.43E-02
68694,4.05E-03,1.40E-02
68695,4.01E-03,1.38E-02
68696,5.33E-03,1.30E-02
68697,5.15E-03,1.31E-02
68698,5.66E-03,1.27E-02
68699,5.50E-03,1.28E-02
68700,5.91E-03,1.25E-02
68701,5.79E-03,1.26E-02
68702,6.20E-03,1.22E-02
68703,6.11E-03,1.23E-02
68704,6.22E-03,1.19E-02
68705,6.33E-03,1.20E-02
68706,6.01E-03,1.18E-02
68707,6.09E-03,1.11E-02
68708,6.10E-03,1.12E-02
68709,5.86E-03,1.08E-02
68710,6.07E-03,1.10E-02
68711,4.47E-03,1.07E-02
68712,5.61E-03,9.91E-03
68713,5.28E-03,9.83E-03
68714,5.81E-03,9.99E-03
68715,5.50E-03,8.78E-03
68716,5.61E-03,9.26E-03
68717,6.00E-03,9.29E-03
68718,6.51E-03,9.35E-03
68719,5.62E-03,9.38E-03
68720,5.39E-03,9.43E-03
68721,5.55E-03,9.51E-03
68722,5.20E-03,9.48E-03
68723,3.41E-03,8.83E-03
68724,4.27E-03,8.83E-03
68725,4.73E-03,8.81E-03
68726,5.27E-03,8.80E-03
68727,5.31E-03,8.79E-03
68728,5.41E-03,8.80E-03
68729,5.18E-03,8.81E-03
68730,4.92E-03,8.82E-03
68731,6.06E-03,8.81E-03
68732,6.00E-03,8.82E-03
68733,6.49E-03,8.80E-03
68734,6.27E-03,8.80E-03
68735,5.90E-03,8.81E-03
68736,6.32E-03,8.81E-03
68737,6.77E-03,8.80E-03
68738,5.88E-03,8.81E-03
68739,5.34E-03,9.80E-03
68740,4.63E-03,9.90E-03
68741,4.76E-03,9.86E-03
68742,5.18E-03,9.97E-03
68743,6.57E-03,1.04E-02
68744,6.33E-03,1.03E-02
68745,6.81E-03,1.06E-02
68746,6.78E-03,1.04E-02
68747,6.27E-03,1.08E-02
68748,6.47E-03,1.07E-02
68749,6.01E-03,1.09E-02
68750,5.66E-03,1.17E-02
68751,5.63E-03,1.16E-02
68752,5.48E-03,1.18E-02
68753,5.83E-03,1.23E-02
68754,5.79E-03,1.28E-02
68755,5.24E-03,1.32E-02
68756,6.50E-03,1.43E-02
68757,6.17E-03,1.42E-02
68758,5.97E-03,1.44E-02
68759,6.10E-03,8.72E-03
68760,3.59E-03,9.76E-03
68761,4.25E-03,9.74E-03
68762,3.35E-03,9.71E-03
68763,5.94E-03,1.14E-02
68764,5.99E-03,1.13E-02
68765,5.46E-03,9.46E-03
68766,4.87E-03,8.45E-03
68767,5.19E-03,9.90E-03
68768,5.37E-03,9.95E-03
68769,5.54E-03,8.86E-03
68770,5.56E-03,8.24E-03
68771,4.02E-03,1.38E-02
68772,4.91E-03,1.36E-02
68773,5.18E-03,1.33E-02
68774,4.08E-03,9.49E-03
68775,3.53E-03,9.67E-03
68776,5.75E-03,1.31E-02
68777,5.95E-03,1.16E-02
68778,4.74E-03,9.73E-03
68779,5.60E-03,9.40E-03
68780,4.93E-03,1.35E-02
68781,5.70E-03,1.49E-02
68782,5.94E-03,1.49E-02
68783,5.74E-03,1.51E-02
68784,4.73E-03,8.83E-03
68785,4.25E-03,8.85E-03
68786,6.47E-03,8.86E-03
68787,5.66E-03,1.01E-02
68788,5.43E-03,1.01E-02
68789,5.83E-03,1.02E-02
68790,5.44E-03,1.12E-02
68791,5.66E-03,1.11E-02
68792,5.47E-03,1.21E-02
68793,5.48E-03,1.20E-02
68794,5.59E-03,1.22E-02
68795,5.89E-03,1.26E-02
68796,5.86E-03,1.25E-02
68797,5.89E-03,1.27E-02
68798,5.78E-03,1.30E-02
68799,5.62E-03,1.31E-02
68800,6.05E-03,1.41E-02
68801,5.77E-03,1.47E-02
68802,5.91E-03,1.47E-02
68803,6.10E-03,1.49E-02
68804,6.12E-03,1.51E-02
68805,4.49E-03,1.55E-02
68806,5.92E-03,9.17E-03
68807,5.78E-03,9.12E-03
68808,6.34E-03,8.67E-03
68809,5.14E-03,8.53E-03
68810,5.12E-03,9.81E-03
68811,5.22E-03,9.89E-03
68812,5.44E-03,8.84E-03
68813,5.49E-03,8.32E-03
68814,5.76E-03,8.15E-03
68815,5.78E-03,1.51E-02
68816,4.63E-03,1.34E-02
68817,6.29E-03,1.02E-02
68818,6.60E-03,9.31E-03
68819,4.68E-03,8.85E-03
68820,5.30E-03,1.15E-02
68821,6.57E-03,1.39E-02
68822,6.15E-03,8.61E-03
68823,5.12E-03,9.72E-03
68824,4.69E-03,9.84E-03
68825,5.44E-03,8.83E-03
68826,5.95E-03,9.22E-03
68827,7.01E-03,8.79E-03
68828,4.50E-03,8.28E-03
68829,5.37E-03,9.63E-03
68830,4.66E-03,9.79E-03
68831,5.54E-03,9.10E-03
68832,5.42E-03,9.12E-03
68833,5.49E-03,8.82E-03
68834,5.11E-03,8.89E-03
68835,5.62E-03,8.88E-03
68836,5.58E-03,8.92E-03
68837,3.44E-03,9.65E-03
68838,4.53E-03,9.56E-03
68839,4.40E-03,9.49E-03
68840,4.78E-03,8.77E-03
68841,4.31E-03,8.73E-03
68842,6.09E-03,8.59E-03
68843,5.84E-03,8.44E-03
68844,5.83E-03,8.45E-03
68845,5.57E-03,8.80E-03
68846,5.56E-03,9.54E-03
68847,4.37E-03,9.75E-03
68848,5.19E-03,9.18E-03
68849,6.22E-03,8.71E-03
68850,5.99E-03,8.73E-03
68851,5.40E-03,8.73E-03
68852,6.36E-03,8.78E-03
68853,5.02E-03,9.24E-03
68854,5.58E-03,9.33E-03
68855,4.72E-03,9.66E-03
68856,4.35E-03,9.64E-03
68857,5.88E-03,1.14E-02
68858,5.91E-03,1.12E-02
68859,5.39E-03,9.40E-03
68860,4.75E-03,8.38E-03
68861,5.27E-03,9.93E-03
68862,5.66E-03,8.88E-03
68863,5.72E-03,8.40E-03
68864,5.82E-03,8.42E-03
68865,5.63E-03,8.36E-03
68866,5.23E-03,8.26E-03
68867,5.44E-03,1.44E-02
68868,5.22E-03,1.46E-02
68869,5.63E-03,1.43E-02
68870,4.96E-03,1.37E-02
68871,5.38E-03,1.29E-02
68872,5.39E-03,1.30E-02
68873,5.65E-03,1.26E-02
68874,5.50E-03,1.27E-02
68875,5.86E-03,1.24E-02
68876,5.76E-03,1.25E-02
68877,6.10E-03,1.21E-02
68878,5.98E-03,1.22E-02
68879,6.07E-03,1.18E-02
68880,6.16E-03,1.20E-02
68881,5.99E-03,1.17E-02
68882,6.04E-03,1.10E-02
68883,6.00E-03,1.12E-02
68884,6.20E-03,1.08E-02
68885,6.04E-03,1.09E-02
68886,6.12E-03,1.07E-02
68887,5.50E-03,9.87E-03
68888,5.29E-03,9.80E-03
68889,5.81E-03,9.95E-03
68890,5.07E-03,9.45E-03
68891,4.22E-03,8.85E-03
68892,4.70E-03,1.36E-02
68893,4.65E-03,1.34E-02
68894,3.93E-03,1.35E-02
68895,5.57E-03,1.52E-02
68896,4.55E-03,8.89E-03
68897,4.50E-03,8.92E-03
68898,4.63E-03,8.81E-03
68899,4.43E-03,8.80E-03
68900,4.45E-03,8.80E-03
68901,4.49E-03,8.79E-03
68902,5.53E-03,8.79E-03
68903,5.56E-03,8.78E-03
68904,5.41E-03,8.81E-03
68905,5.36E-03,8.81E-03
68906,5.37E-03,8.80E-03
68907,6.07E-03,8.86E-03
68908,6.02E-03,8.86E-03
68909,6.16E-03,8.87E-03
68910,6.19E-03,8.86E-03
68911,6.05E-03,8.88E-03
68912,6.16E-03,8.88E-03
68913,5.82E-03,8.89E-03
68914,5.77E-03,8.89E-03
68915,4.46E-03,9.60E-03
68916,5.19E-03,9.69E-03
68917,5.73E-03,9.62E-03
68918,5.66E-03,9.83E-03
68919,5.62E-03,9.76E-03
68920,5.09E-03,9.94E-03
68921,5.18E-03,9.88E-03
68922,5.20E-03,1.00E-02
68923,6.35E-03,1.04E-02
68924,6.26E-03,1.03E-02
68925,6.58E-03,1.06E-02
68926,6.54E-03,1.05E-02
68927,6.33E-03,1.08E-02
68928,6.48E-03,1.07E-02
68929,6.07E-03,1.09E-02
68930,5.59E-03,1.17E-02
68931,5.42E-03,1.16E-02
68932,5.52E-03,1.18E-02
68933,5.70E-03,1.24E-02
68934,5.88E-03,1.29E-02
68935,5.11E-03,1.32E-02
68936,6.22E-03,1.44E-02
68937,6.12E-03,1.42E-02
68938,6.04E-03,1.45E-02
68939,5.80E-03,1.53E-02
68940,5.84E-03,9.06E-03
68941,5.94E-03,9.03E-03
68942,5.82E-03,9.08E-03
68943,6.33E-03,8.69E-03
68944,4.95E-03,8.48E-03
68945,5.25E-03,9.83E-03
68946,5.20E-03,9.88E-03
68947,4.90E-03,8.91E-03
68948,5.30E-03,8.86E-03
68949,6.60E-03,8.13E-03
68950,4.67E-03,1.53E-02
68951,5.75E-03,1.48E-02
68952,5.67E-03,1.46E-02
68953,5.38E-03,1.35E-02
68954,5.77E-03,1.30E-02
68955,5.85E-03,1.15E-02
68956,6.15E-03,1.02E-02
68957,5.98E-03,9.36E-03
68958,5.08E-03,8.83E-03
68959,6.09E-03,8.86E-03
68960,6.57E-03,8.87E-03
68961,5.69E-03,8.97E-03
68962,5.70E-03,1.02E-02
68963,5.44E-03,1.01E-02
68964,5.82E-03,1.02E-02
68965,4.04E-03,1.12E-02
68966,5.69E-03,1.11E-02
68967,5.54E-03,1.21E-02
68968,5.56E-03,1.20E-02
68969,5.64E-03,1.23E-02
68970,5.90E-03,1.26E-02
68971,5.78E-03,1.25E-02
68972,5.90E-03,1.28E-02
68973,5.92E-03,1.30E-02
68974,5.87E-03,1.32E-02
68975,4.34E-03,1.34E-02
68976,6.06E-03,1.41E-02
68977,5.77E-03,1.48E-02
68978,5.76E-03,1.53E-02
68979,5.96E-03,9.13E-03
68980,6.01E-03,9.09E-03
68981,4.75E-03,8.07E-03
68982,7.58E-03,8.62E-03
68983,5.25E-03,8.55E-03
68984,5.19E-03,9.74E-03
68985,5.08E-03,9.82E-03
68986,6.42E-03,9.02E-03
68987,5.41E-03,8.85E-03
68988,4.39E-03,1.58E-02
68989,4.14E-03,1.56E-02
68990,5.46E-03,1.59E-02
68991,5.46E-03,1.50E-02
68992,6.06E-03,9.27E-03
68993,5.21E-03,8.85E-03
68994,6.18E-03,8.89E-03
68995,5.30E-03,1.15E-02
68996,6.47E-03,1.40E-02
68997,6.36E-03,8.71E-03
68998,4.54E-03,8.21E-03
68999,4.17E-03,1.35E-02
69000,5.32E-03,1.37E-02
69001,5.30E-03,9.65E-03
69002,4.78E-03,9.77E-03
69003,5.69E-03,9.08E-03
69004,5.45E-03,8.83E-03
69005,4.67E-03,9.70E-03
69006,5.10E-03,9.59E-03
69007,5.73E-03,9.48E-03
69008,5.09E-03,9.44E-03
69009,6.02E-03,9.18E-03
69010,4.67E-03,8.75E-03
69011,5.75E-03,8.46E-03
69012,5.93E-03,8.59E-03
69013,5.40E-03,8.82E-03
69014,5.50E-03,9.56E-03
69015,4.70E-03,9.72E-03
69016,5.36E-03,9.14E-03
69017,5.68E-03,8.76E-03
69018,6.01E-03,9.53E-03
69019,5.69E-03,8.67E-03
69020,5.58E-03,8.76E-03
69021,5.56E-03,8.31E-03
69022,5.56E-03,8.30E-03
69023,5.72E-03,8.45E-03
69024,4.69E-03,9.69E-03
69025,5.52E-03,9.48E-03
69026,5.07E-03,9.20E-03
69027,4.64E-03,9.56E-03
69028,5.32E-03,9.27E-03
69029,4.49E-03,9.58E-03
69030,5.68E-03,1.13E-02
69031,5.86E-03,1.12E-02
69032,5.39E-03,9.35E-03
69033,4.68E-03,8.30E-03
69034,4.83E-03,8.41E-03
69035,5.32E-03,9.86E-03
69036,5.31E-03,8.89E-03
69037,5.70E-03,8.31E-03
69038,5.63E-03,8.32E-03
69039,5.75E-03,8.27E-03
69040,5.74E-03,8.29E-03
69041,5.78E-03,8.21E-03
69042,5.74E-03,8.24E-03
69043,6.77E-03,8.20E-03
69044,6.96E-03,8.17E-03
69045,3.68E-03,1.54E-02
69046,5.47E-03,1.43E-02
69047,5.56E-03,1.45E-02
69048,5.20E-03,1.40E-02
69049,5.41E-03,1.41E-02
69050,4.97E-03,1.37E-02
69051,4.93E-03,1.39E-02
69052,5.37E-03,1.36E-02
69053,5.48E-03,1.28E-02
69054,5.39E-03,1.29E-02
69055,5.64E-03,1.25E-02
69056,5.53E-03,1.26E-02
69057,5.85E-03,1.23E-02
69058,5.70E-03,1.24E-02
69059,5.94E-03,1.20E-02
69060,5.92E-03,1.22E-02
69061,5.97E-03,1.18E-02
69062,6.03E-03,1.19E-02
69063,5.91E-03,1.16E-02
69064,6.06E-03,1.10E-02
69065,6.01E-03,1.11E-02
69066,6.12E-03,1.07E-02
69067,6.07E-03,1.09E-02
69068,5.77E-03,1.05E-02
69069,5.96E-03,1.06E-02
69070,5.28E-03,1.04E-02
69071,5.96E-03,9.99E-03
69072,6.03E-03,1.01E-02
69073,5.32E-03,9.76E-03
69074,4.41E-03,8.82E-03
69075,4.48E-03,8.80E-03
69076,4.53E-03,8.78E-03
69077,5.57E-03,9.83E-03
69078,5.78E-03,9.91E-03
69079,5.37E-03,9.42E-03
69080,6.98E-03,9.00E-03
69081,4.64E-03,8.86E-03
69082,4.88E-03,8.90E-03
69083,4.50E-03,8.84E-03
69084,4.70E-03,8.76E-03
69085,4.67E-03,8.77E-03
69086,4.67E-03,8.76E-03
69087,5.73E-03,8.78E-03
69088,6.37E-03,8.77E-03
69089,5.52E-03,8.81E-03
69090,5.64E-03,8.80E-03
69091,5.56E-03,8.81E-03
69092,6.14E-03,8.90E-03
69093,6.19E-03,8.89E-03
69094,6.05E-03,8.92E-03
69095,6.14E-03,8.91E-03
69096,5.93E-03,8.95E-03
69097,6.00E-03,8.93E-03
69098,5.79E-03,8.96E-03
69099,5.89E-03,9.58E-03
69100,5.75E-03,9.73E-03
69101,5.98E-03,9.65E-03
69102,5.46E-03,9.86E-03
69103,5.53E-03,9.80E-03
69104,5.29E-03,9.98E-03
69105,5.35E-03,9.92E-03
69106,5.31E-03,1.00E-02
69107,6.23E-03,1.04E-02
69108,6.15E-03,1.03E-02
69109,6.47E-03,1.06E-02
69110,6.37E-03,1.05E-02
69111,6.45E-03,1.08E-02
69112,6.45E-03,1.07E-02
69113,6.26E-03,1.10E-02
69114,5.58E-03,1.17E-02
69115,5.55E-03,1.16E-02
69116,5.57E-03,1.19E-02
69117,5.68E-03,1.24E-02
69118,5.92E-03,1.29E-02
69119,5.93E-03,1.33E-02
69120,6.17E-03,1.45E-02
69121,6.13E-03,1.43E-02
69122,5.99E-03,1.46E-02
69123,4.92E-03,1.55E-02
69124,5.41E-03,1.54E-02
69125,4.77E-03,1.57E-02
69126,6.71E-03,9.04E-03
69127,5.02E-03,8.01E-03
69128,4.15E-03,7.99E-03
69129,6.72E-03,8.67E-03
69130,7.24E-03,8.64E-03
69131,5.16E-03,8.50E-03
69132,5.23E-03,9.76E-03
69133,5.14E-03,9.81E-03
69134,5.23E-03,8.93E-03
69135,6.06E-03,8.97E-03
69136,5.43E-03,8.87E-03
69137,6.82E-03,8.04E-03
69138,5.03E-03,1.51E-02
69139,5.69E-03,1.47E-02
69140,5.67E-03,1.45E-02
69141,5.29E-03,1.31E-02
69142,5.71E-03,1.14E-02
69143,6.03E-03,9.33E-03
69144,4.64E-03,8.76E-03
69145,4.62E-03,8.78E-03
69146,4.66E-03,8.75E-03
69147,5.32E-03,8.84E-03
69148,5.73E-03,8.88E-03
69149,5.97E-03,8.89E-03
69150,5.73E-03,8.98E-03
69151,5.63E-03,1.02E-02
69152,5.55E-03,1.01E-02
69153,5.79E-03,1.03E-02
69154,4.86E-03,1.13E-02
69155,5.68E-03,1.23E-02
69156,5.94E-03,1.28E-02
69157,5.95E-03,1.30E-02
69158,5.81E-03,1.32E-02
69159,5.54E-03,1.39E-02
69160,6.17E-03,1.42E-02
69161,5.99E-03,1.49E-02
69162,5.60E-03,1.54E-02
69163,6.44E-03,8.82E-03
69164,4.18E-03,8.14E-03
69165,5.75E-03,8.57E-03
69166,5.32E-03,9.67E-03
69167,4.91E-03,9.76E-03
69168,5.89E-03,9.04E-03
69169,5.49E-03,8.85E-03
69170,4.43E-03,8.93E-03
69171,4.85E-03,8.94E-03
69172,5.41E-03,8.17E-03
69173,5.38E-03,8.15E-03
69174,5.82E-03,9.50E-03
69175,5.54E-03,1.48E-02
69176,5.30E-03,9.64E-03
69177,6.75E-03,9.42E-03
69178,6.09E-03,9.24E-03
69179,5.92E-03,9.09E-03
69180,6.07E-03,9.04E-03
69181,4.75E-03,8.71E-03
69182,5.55E-03,8.86E-03
69183,4.99E-03,1.66E-02
69184,5.36E-03,1.67E-02
69185,6.24E-03,8.72E-03
69186,5.40E-03,8.83E-03
69187,5.67E-03,8.91E-03
69188,4.77E-03,8.95E-03
69189,4.67E-03,8.84E-03
69190,5.42E-03,9.59E-03
69191,4.78E-03,9.70E-03
69192,5.61E-03,9.10E-03
69193,6.00E-03,8.70E-03
69194,5.38E-03,8.78E-03
69195,5.58E-03,9.45E-03
69196,6.01E-03,9.14E-03
69197,5.31E-03,8.64E-03
69198,5.17E-03,8.64E-03
69199,5.29E-03,8.69E-03
69200,5.49E-03,1.35E-02
69201,5.99E-03,8.60E-03
69202,4.41E-03,9.62E-03
69203,5.49E-03,9.50E-03
69204,5.40E-03,9.16E-03
69205,4.83E-03,9.47E-03
69206,5.43E-03,9.42E-03
69207,4.69E-03,9.66E-03
69208,5.21E-03,9.22E-03
69209,4.67E-03,9.52E-03
69210,5.32E-03,1.12E-02
69211,5.69E-03,1.11E-02
69212,4.10E-03,1.11E-02
69213,5.75E-03,8.44E-03
69214,5.69E-03,8.29E-03
69215,5.33E-03,9.30E-03
69216,4.71E-03,8.23E-03
69217,4.78E-03,8.33E-03
69218,4.98E-03,8.43E-03
69219,5.28E-03,9.78E-03
69220,5.05E-03,8.95E-03
69221,5.29E-03,8.90E-03
69222,5.47E-03,8.17E-03
69223,5.45E-03,8.17E-03
69224,5.72E-03,8.14E-03
69225,5.60E-03,8.16E-03
69226,6.00E-03,8.10E-03
69227,5.88E-03,8.12E-03
69228,6.51E-03,8.07E-03
69229,6.28E-03,8.09E-03
69230,6.65E-03,8.06E-03
69231,6.83E-03,1.61E-02
69232,5.78E-03,1.63E-02
69233,5.02E-03,1.55E-02
69234,6.40E-03,1.58E-02
69235,4.95E-03,1.53E-02
69236,5.50E-03,1.42E-02
69237,5.54E-03,1.43E-02
69238,5.24E-03,1.39E-02
69239,5.32E-03,1.40E-02
69240,5.13E-03,1.36E-02
69241,5.10E-03,1.38E-02
69242,4.08E-03,1.33E-02
69243,5.43E-03,1.35E-02
69244,5.50E-03,1.29E-02
69245,5.06E-03,1.30E-02
69246,5.44E-03,1.27E-02
69247,5.43E-03,1.28E-02
69248,5.60E-03,1.24E-02
69249,5.55E-03,1.25E-02
69250,5.76E-03,1.22E-02
69251,5.67E-03,1.23E-02
69252,5.86E-03,1.19E-02
69253,5.87E-03,1.21E-02
69254,5.86E-03,1.17E-02
69255,5.89E-03,1.18E-02
69256,5.76E-03,1.16E-02
69257,6.11E-03,1.09E-02
69258,6.01E-03,1.11E-02
69259,6.03E-03,1.07E-02
69260,6.04E-03,1.08E-02
69261,5.81E-03,1.05E-02
69262,5.83E-03,1.06E-02
69263,5.84E-03,1.03E-02
69264,5.67E-03,1.04E-02
69265,5.89E-03,1.01E-02
69266,5.74E-03,1.02E-02
69267,5.96E-03,9.93E-03
69268,5.91E-03,1.00E-02
69269,5.73E-03,9.78E-03
69270,5.76E-03,9.85E-03
69271,5.47E-03,9.71E-03
69272,5.76E-03,9.39E-03
69273,4.98E-03,8.89E-03
69274,4.79E-03,8.92E-03
69275,4.75E-03,8.83E-03
69276,4.85E-03,8.86E-03
69277,4.66E-03,8.81E-03
69278,4.80E-03,8.72E-03
69279,4.70E-03,8.73E-03
69280,4.77E-03,8.72E-03
69281,4.32E-03,8.75E-03
69282,5.80E-03,8.77E-03
69283,6.13E-03,8.75E-03
69284,5.57E-03,8.80E-03
69285,5.63E-03,8.78E-03
69286,5.48E-03,8.82E-03
69287,5.97E-03,8.93E-03
69288,6.06E-03,8.91E-03
69289,6.03E-03,8.96E-03
69290,5.99E-03,8.95E-03
69291,5.85E-03,9.01E-03
69292,5.96E-03,8.98E-03
69293,5.64E-03,9.05E-03
69294,5.73E-03,9.03E-03
69295,5.34E-03,9.06E-03
69296,5.39E-03,9.03E-03
69297,5.51E-03,9.12E-03
69298,5.59E-03,9.29E-03
69299,5.57E-03,9.21E-03
69300,5.73E-03,9.46E-03
69301,5.66E-03,9.38E-03
69302,5.85E-03,9.62E-03
69303,5.81E-03,9.54E-03
69304,5.70E-03,9.77E-03
69305,5.78E-03,9.70E-03
69306,5.44E-03,9.90E-03
69307,5.57E-03,9.83E-03
69308,5.34E-03,1.00E-02
69309,5.32E-03,9.96E-03
69310,5.36E-03,1.01E-02
69311,6.12E-03,1.04E-02
69312,5.98E-03,1.03E-02
69313,6.42E-03,1.06E-02
69314,6.33E-03,1.05E-02
69315,6.51E-03,1.09E-02
69316,6.44E-03,1.07E-02
69317,6.71E-03,1.11E-02
69318,6.49E-03,1.10E-02
69319,5.82E-03,1.15E-02
69320,6.23E-03,1.13E-02
69321,5.78E-03,1.18E-02
69322,5.76E-03,1.16E-02
69323,5.73E-03,1.19E-02
69324,5.69E-03,1.24E-02
69325,5.98E-03,1.29E-02
69326,6.01E-03,1.33E-02
69327,6.12E-03,1.45E-02
69328,6.20E-03,1.44E-02
69329,6.11E-03,1.47E-02
69330,5.40E-03,1.57E-02
69331,5.73E-03,1.55E-02
69332,5.90E-03,1.60E-02
69333,5.35E-03,1.58E-02
69334,6.09E-03,1.65E-02
69335,6.27E-03,8.91E-03
69336,4.57E-03,8.05E-03
69337,5.39E-03,8.52E-03
69338,5.32E-03,9.69E-03
69339,5.13E-03,9.74E-03
69340,5.53E-03,8.94E-03
69341,5.86E-03,9.00E-03
69342,5.56E-03,8.87E-03
69343,4.95E-03,8.93E-03
69344,5.13E-03,7.99E-03
69345,5.23E-03,8.01E-03
69346,5.76E-03,7.92E-03
69347,6.19E-03,7.93E-03
69348,5.54E-03,9.00E-03
69349,5.36E-03,1.50E-02
69350,5.73E-03,1.45E-02
69351,5.72E-03,1.44E-02
69352,5.55E-03,1.14E-02
69353,6.18E-03,9.30E-03
69354,6.42E-03,9.00E-03
69355,4.72E-03,8.71E-03
69356,4.94E-03,8.68E-03
69357,5.42E-03,8.84E-03
69358,5.59E-03,8.89E-03
69359,5.74E-03,8.91E-03
69360,5.54E-03,1.02E-02
69361,6.08E-03,1.30E-02
69362,5.81E-03,1.32E-02
69363,5.66E-03,1.41E-02
69364,5.07E-03,1.40E-02
69365,6.16E-03,1.42E-02
69366,6.09E-03,1.62E-02
69367,5.87E-03,1.69E-02
69368,5.85E-03,1.72E-02
69369,6.22E-03,8.83E-03
69370,5.31E-03,8.13E-03
69371,5.06E-03,7.96E-03
69372,5.13E-03,7.90E-03
69373,7.34E-03,8.58E-03
69374,5.59E-03,8.85E-03
69375,5.02E-03,8.76E-03
69376,5.97E-03,8.78E-03
69377,5.36E-03,9.61E-03
69378,4.91E-03,9.69E-03
69379,5.78E-03,9.06E-03
69380,5.60E-03,8.73E-03
69381,5.10E-03,8.81E-03
69382,5.65E-03,9.38E-03
69383,5.70E-03,1.47E-02
69384,5.04E-03,1.12E-02
69385,6.22E-03,9.20E-03
69386,5.11E-03,8.63E-03
69387,5.02E-03,8.65E-03
69388,3.88E-03,8.71E-03
69389,5.27E-03,8.86E-03
69390,5.12E-03,8.09E-03
69391,5.27E-03,8.19E-03
69392,5.79E-03,1.03E-02
69393,5.68E-03,1.20E-02
69394,5.62E-03,1.22E-02
69395,5.07E-03,1.34E-02
69396,6.16E-03,8.74E-03
69397,4.61E-03,9.55E-03
69398,5.43E-03,9.52E-03
69399,5.62E-03,9.12E-03
69400,5.92E-03,8.68E-03
69401,5.39E-03,9.42E-03
69402,6.32E-03,1.51E-02
69403,6.06E-03,8.60E-03
69404,5.38E-03,9.37E-03
69405,4.80E-03,9.64E-03
69406,4.67E-03,9.60E-03
69407,5.42E-03,9.44E-03
69408,5.34E-03,9.18E-03
69409,4.98E-03,9.44E-03
69410,6.09E-03,9.09E-03
69411,5.49E-03,9.03E-03
69412,5.66E-03,8.27E-03
69413,6.00E-03,8.42E-03
69414,5.32E-03,9.24E-03
69415,4.83E-03,8.26E-03
69416,4.87E-03,8.36E-03
69417,5.08E-03,8.45E-03
69418,5.24E-03,9.72E-03
69419,5.81E-03,8.97E-03
69420,5.45E-03,8.89E-03
69421,5.49E-03,8.03E-03
69422,5.36E-03,8.03E-03
69423,5.69E-03,8.01E-03
69424,5.65E-03,8.03E-03
69425,6.00E-03,7.99E-03
69426,5.83E-03,8.00E-03
69427,6.33E-03,7.96E-03
69428,6.18E-03,7.97E-03
69429,6.48E-03,7.94E-03
69430,4.40E-03,7.24E-03
69431,3.40E-03,7.32E-03
69432,5.08E-03,7.09E-03
69433,4.25E-03,7.21E-03
69434,4.05E-03,7.39E-03
69435,5.56E-03,8.07E-03
69436,5.33E-03,7.97E-03
69437,4.72E-03,8.28E-03
69438,4.53E-03,8.37E-03
69439,5.32E-03,8.34E-03
69440,6.35E-03,8.19E-03
69441,5.59E-03,8.66E-03
69442,4.88E-03,8.43E-03
69443,5.74E-03,8.54E-03
69444,5.59E-03,9.17E-03
69445,5.51E-03,9.09E-03
69446,5.67E-03,9.26E-03
69447,5.01E-03,1.64E-02
69448,3.67E-03,1.66E-02
69449,5.86E-03,1.59E-02
69450,5.54E-03,1.61E-02
69451,5.49E-03,1.54E-02
69452,5.73E-03,1.57E-02
69453,5.30E-03,1.52E-02
69454,5.48E-03,1.40E-02
69455,5.58E-03,1.42E-02
69456,5.26E-03,1.38E-02
69457,5.30E-03,1.39E-02
69458,5.14E-03,1.35E-02
69459,5.10E-03,1.36E-02
69460,4.59E-03,1.32E-02
69461,4.84E-03,1.34E-02
69462,4.70E-03,1.30E-02
69463,4.63E-03,1.31E-02
69464,5.23E-03,1.28E-02
69465,5.06E-03,1.29E-02
69466,5.44E-03,1.25E-02
69467,5.35E-03,1.27E-02
69468,5.61E-03,1.23E-02
69469,5.53E-03,1.24E-02
69470,5.71E-03,1.21E-02
69471,5.64E-03,1.22E-02
69472,5.81E-03,1.18E-02
69473,5.78E-03,1.20E-02
69474,5.73E-03,1.16E-02
69475,5.83E-03,1.17E-02
69476,5.62E-03,1.15E-02
69477,6.08E-03,1.09E-02
69478,5.93E-03,1.06E-02
69479,5.95E-03,1.07E-02
69480,5.82E-03,1.04E-02
69481,5.80E-03,1.05E-02
69482,5.71E-03,1.02E-02
69483,5.62E-03,1.03E-02
69484,5.84E-03,1.00E-02
69485,5.69E-03,1.01E-02
69486,5.88E-03,9.87E-03
69487,5.74E-03,9.94E-03
69488,5.84E-03,9.72E-03
69489,5.76E-03,9.79E-03
69490,5.88E-03,9.58E-03
69491,5.83E-03,9.65E-03
69492,6.29E-03,9.36E-03
69493,4.22E-03,8.92E-03
69494,4.96E-03,8.95E-03
69495,4.78E-03,8.84E-03
69496,4.81E-03,8.88E-03
69497,4.83E-03,8.79E-03
69498,4.87E-03,8.81E-03
69499,4.71E-03,8.76E-03
69500,4.90E-03,8.68E-03
69501,4.79E-03,8.69E-03
69502,4.93E-03,8.68E-03
69503,3.69E-03,8.75E-03
69504,5.54E-03,8.75E-03
69505,4.68E-03,8.73E-03
69506,5.50E-03,8.79E-03
69507,5.60E-03,8.77E-03
69508,5.44E-03,8.81E-03
69509,5.88E-03,8.95E-03
69510,5.79E-03,8.93E-03
69511,5.96E-03,9.00E-03
69512,5.95E-03,8.98E-03
69513,5.77E-03,9.06E-03
69514,5.92E-03,9.03E-03
69515,5.47E-03,9.11E-03
69516,5.62E-03,9.09E-03
69517,5.29E-03,9.17E-03
69518,5.25E-03,9.14E-03
69519,4.83E-03,9.11E-03
69520,6.65E-03,9.05E-03
69521,4.87E-03,9.21E-03
69522,4.21E-03,9.18E-03
69523,4.28E-03,7.46E-03
69524,4.36E-03,7.34E-03
69525,4.32E-03,7.70E-03
69526,4.24E-03,7.58E-03
69527,4.53E-03,7.81E-03
69528,5.50E-03,8.56E-03
69529,4.94E-03,8.47E-03
69530,5.14E-03,8.76E-03
69531,5.36E-03,8.66E-03
69532,5.20E-03,8.97E-03
69533,5.11E-03,8.86E-03
69534,5.48E-03,9.15E-03
69535,5.33E-03,9.07E-03
69536,5.61E-03,9.33E-03
69537,5.53E-03,9.24E-03
69538,5.82E-03,9.51E-03
69539,5.71E-03,9.42E-03
69540,5.77E-03,9.67E-03
69541,5.84E-03,9.59E-03
69542,5.62E-03,9.81E-03
69543,5.72E-03,9.74E-03
69544,5.44E-03,9.94E-03
69545,5.53E-03,9.88E-03
69546,5.37E-03,1.01E-02
69547,5.37E-03,1.00E-02
69548,5.37E-03,1.01E-02
69549,6.10E-03,1.04E-02
69550,5.90E-03,1.03E-02
69551,6.33E-03,1.06E-02
69552,6.28E-03,1.05E-02
69553,6.48E-03,1.09E-02
69554,6.37E-03,1.07E-02
69555,7.33E-03,1.12E-02
69556,6.64E-03,1.10E-02
69557,6.29E-03,1.15E-02
69558,7.15E-03,1.13E-02
69559,5.81E-03,1.18E-02
69560,5.98E-03,1.16E-02
69561,5.75E-03,1.19E-02
69562,5.67E-03,1.23E-02
69563,5.76E-03,1.25E-02
69564,5.69E-03,1.24E-02
69565,5.91E-03,1.28E-02
69566,5.85E-03,1.27E-02
69567,6.09E-03,1.29E-02
69568,5.54E-03,1.33E-02
69569,6.06E-03,1.31E-02
69570,4.56E-03,1.38E-02
69571,6.09E-03,1.46E-02
69572,6.06E-03,1.44E-02
69573,6.25E-03,1.48E-02
69574,5.88E-03,1.59E-02
69575,6.04E-03,1.57E-02
69576,5.86E-03,1.60E-02
69577,6.41E-03,1.65E-02
69578,6.39E-03,1.64E-02
69579,6.15E-03,1.67E-02
69580,6.69E-03,1.76E-02
69581,5.17E-03,1.83E-02
69582,6.50E-03,1.79E-02
69583,4.43E-03,1.88E-02
69584,6.32E-03,8.94E-03
69585,5.17E-03,8.11E-03
69586,5.01E-03,8.07E-03
69587,4.37E-03,7.87E-03
69588,4.97E-03,7.92E-03
69589,3.05E-03,7.97E-03
69590,4.74E-03,7.93E-03
69591,4.88E-03,8.14E-03
69592,5.71E-03,8.53E-03
69593,5.10E-03,8.83E-03
69594,5.95E-03,8.84E-03
69595,5.34E-03,9.63E-03
69596,5.10E-03,9.67E-03
69597,6.56E-03,8.96E-03
69598,5.90E-03,9.02E-03
69599,5.85E-03,8.86E-03
69600,5.28E-03,8.76E-03
69601,5.58E-03,1.41E-02
69602,7.19E-03,8.56E-03
69603,4.99E-03,7.82E-03
69604,5.09E-03,7.86E-03
69605,6.89E-03,7.79E-03
69606,6.21E-03,7.82E-03
69607,5.41E-03,7.84E-03
69608,7.03E-03,8.33E-03
69609,5.84E-03,8.43E-03
69610,6.06E-03,8.88E-03
69611,6.15E-03,8.80E-03
69612,5.62E-03,8.98E-03
69613,5.66E-03,9.30E-03
69614,5.53E-03,1.49E-02
69615,5.89E-03,1.44E-02
69616,5.79E-03,1.42E-02
69617,5.42E-03,1.13E-02
69618,6.45E-03,9.26E-03
69619,5.23E-03,8.64E-03
69620,4.64E-03,8.67E-03
69621,5.01E-03,8.59E-03
69622,4.83E-03,8.60E-03
69623,5.40E-03,8.83E-03
69624,5.15E-03,9.28E-03
69625,6.21E-03,9.19E-03
69626,5.22E-03,9.31E-03
69627,4.65E-03,6.98E-03
69628,5.30E-03,6.85E-03
69629,4.79E-03,8.28E-03
69630,5.63E-03,1.22E-02
69631,5.72E-03,1.20E-02
69632,5.63E-03,1.23E-02
69633,6.54E-03,1.30E-02
69634,5.05E-03,1.34E-02
69635,5.19E-03,1.39E-02
69636,5.80E-03,1.43E-02
69637,6.65E-03,9.07E-03
69638,6.19E-03,8.86E-03
69639,4.68E-03,9.48E-03
69640,5.38E-03,9.54E-03
69641,4.91E-03,9.62E-03
69642,5.78E-03,9.08E-03
69643,5.40E-03,8.71E-03
69644,5.03E-03,7.78E-03
69645,5.52E-03,9.34E-03
69646,5.02E-03,1.86E-02
69647,4.88E-03,1.90E-02
69648,5.75E-03,1.45E-02
69649,5.55E-03,8.59E-03
69650,5.49E-03,8.92E-03
69651,5.31E-03,8.90E-03
69652,4.73E-03,7.98E-03
69653,6.03E-03,8.75E-03
69654,5.36E-03,9.31E-03
69655,4.71E-03,9.53E-03
69656,5.38E-03,9.46E-03
69657,4.84E-03,9.57E-03
69658,5.52E-03,9.13E-03
69659,5.21E-03,9.38E-03
69660,5.05E-03,1.11E-02
69661,5.64E-03,8.99E-03
69662,5.98E-03,8.60E-03
69663,5.81E-03,7.80E-03
69664,3.00E-03,7.98E-03
69665,5.39E-03,9.38E-03
69666,5.36E-03,9.19E-03
69667,4.92E-03,8.29E-03
69668,4.79E-03,8.39E-03
69669,4.99E-03,8.46E-03
69670,4.88E-03,8.88E-03
69671,5.25E-03,9.65E-03
69672,6.09E-03,8.99E-03
69673,6.99E-03,8.94E-03
69674,6.13E-03,8.89E-03
69675,4.85E-03,8.80E-03
69676,5.39E-03,7.89E-03
69677,5.22E-03,7.88E-03
69678,5.69E-03,7.88E-03
69679,5.61E-03,7.88E-03
69680,6.01E-03,7.86E-03
69681,5.86E-03,7.87E-03
69682,6.26E-03,7.84E-03
69683,6.20E-03,7.85E-03
69684,6.26E-03,7.83E-03
69685,4.53E-03,7.12E-03
69686,4.44E-03,7.01E-03
69687,4.23E-03,7.36E-03
69688,4.35E-03,7.22E-03
69689,4.09E-03,7.45E-03
69690,6.00E-03,8.07E-03
69691,5.98E-03,7.94E-03
69692,7.01E-03,8.20E-03
69693,5.85E-03,8.54E-03
69694,5.63E-03,9.15E-03
69695,5.61E-03,9.06E-03
69696,5.66E-03,9.23E-03
69697,6.46E-03,1.77E-02
69698,5.46E-03,1.81E-02
69699,4.74E-03,1.69E-02
69700,6.02E-03,1.73E-02
69701,5.03E-03,1.62E-02
69702,4.86E-03,1.65E-02
69703,5.52E-03,1.57E-02
69704,5.38E-03,1.60E-02
69705,5.52E-03,1.53E-02
69706,5.50E-03,1.55E-02
69707,5.52E-03,1.51E-02
69708,5.45E-03,1.39E-02
69709,5.60E-03,1.41E-02
69710,5.28E-03,1.36E-02
69711,5.25E-03,1.38E-02
69712,5.09E-03,1.33E-02
69713,5.11E-03,1.35E-02
69714,4.84E-03,1.31E-02
69715,4.98E-03,1.32E-02
69716,4.90E-03,1.28E-02
69717,4.83E-03,1.30E-02
69718,5.24E-03,1.26E-02
69719,5.07E-03,1.27E-02
69720,5.45E-03,1.24E-02
69721,5.34E-03,1.25E-02
69722,5.57E-03,1.22E-02
69723,5.50E-03,1.23E-02
69724,5.70E-03,1.20E-02
69725,5.62E-03,1.21E-02
69726,5.78E-03,1.17E-02
69727,5.76E-03,1.19E-02
69728,5.70E-03,1.15E-02
69729,5.80E-03,1.16E-02
69730,5.54E-03,1.14E-02
69731,5.95E-03,1.08E-02
69732,5.84E-03,1.06E-02
69733,5.85E-03,1.07E-02
69734,5.76E-03,1.03E-02
69735,5.75E-03,1.04E-02
69736,5.73E-03,1.01E-02
69737,5.60E-03,1.02E-02
69738,5.75E-03,9.96E-03
69739,5.69E-03,1.00E-02
69740,5.81E-03,9.80E-03
69741,5.68E-03,9.88E-03
69742,5.84E-03,9.66E-03
69743,5.80E-03,9.73E-03
69744,6.32E-03,9.52E-03
69745,5.97E-03,9.59E-03
69746,6.75E-03,9.32E-03
69747,5.41E-03,8.95E-03
69748,5.11E-03,8.92E-03
69749,4.89E-03,8.80E-03
69750,4.75E-03,8.83E-03
69751,4.87E-03,8.74E-03
69752,4.85E-03,8.77E-03
69753,4.85E-03,8.69E-03
69754,4.81E-03,8.72E-03
69755,4.82E-03,8.66E-03
69756,4.82E-03,8.67E-03
69757,4.96E-03,8.64E-03
69758,4.90E-03,8.64E-03
69759,5.08E-03,8.64E-03
69760,4.87E-03,8.70E-03
69761,5.64E-03,8.63E-03
69762,4.81E-03,8.61E-03
69763,5.37E-03,8.73E-03
69764,5.08E-03,8.71E-03
69765,5.52E-03,8.78E-03
69766,5.58E-03,8.76E-03
69767,5.50E-03,8.80E-03
69768,5.88E-03,8.97E-03
69769,5.71E-03,8.94E-03
69770,5.87E-03,9.03E-03
69771,5.90E-03,9.00E-03
69772,5.69E-03,9.10E-03
69773,5.78E-03,9.07E-03
69774,5.44E-03,9.17E-03
69775,5.54E-03,9.13E-03
69776,5.02E-03,9.24E-03
69777,5.27E-03,9.20E-03
69778,5.04E-03,9.25E-03
69779,5.26E-03,9.18E-03
69780,4.67E-03,9.32E-03
69781,5.55E-03,6.72E-03
69782,5.43E-03,6.67E-03
69783,5.31E-03,6.95E-03
69784,5.31E-03,6.80E-03
69785,5.86E-03,7.19E-03
69786,5.41E-03,7.09E-03
69787,4.73E-03,7.47E-03
69788,4.93E-03,7.33E-03
69789,4.67E-03,7.72E-03
69790,4.65E-03,7.60E-03
69791,4.90E-03,7.94E-03
69792,4.77E-03,7.84E-03
69793,5.02E-03,8.12E-03
69794,4.93E-03,8.03E-03
69795,5.06E-03,8.40E-03
69796,4.78E-03,8.32E-03
69797,4.94E-03,8.21E-03
69798,5.26E-03,8.59E-03
69799,5.10E-03,8.50E-03
69800,5.23E-03,8.78E-03
69801,5.28E-03,8.68E-03
69802,5.30E-03,9.00E-03
69803,5.28E-03,8.89E-03
69804,5.45E-03,9.19E-03
69805,5.35E-03,9.10E-03
69806,5.63E-03,9.37E-03
69807,5.54E-03,9.28E-03
69808,5.83E-03,9.55E-03
69809,5.72E-03,9.46E-03
69810,5.73E-03,9.72E-03
69811,5.78E-03,9.64E-03
69812,5.60E-03,9.86E-03
69813,5.72E-03,9.79E-03
69814,5.41E-03,9.99E-03
69815,5.51E-03,9.93E-03
69816,5.40E-03,1.01E-02
69817,5.37E-03,1.00E-02
69818,5.50E-03,1.02E-02
69819,5.40E-03,1.01E-02
69820,5.79E-03,1.03E-02
69821,6.06E-03,1.04E-02
69822,5.83E-03,1.04E-02
69823,6.21E-03,1.06E-02
69824,6.15E-03,1.05E-02
69825,6.42E-03,1.09E-02
69826,6.34E-03,1.07E-02
69827,6.70E-03,1.12E-02
69828,6.58E-03,1.10E-02
69829,6.35E-03,1.15E-02
69830,6.61E-03,1.13E-02
69831,5.87E-03,1.18E-02
69832,6.06E-03,1.16E-02
69833,5.82E-03,1.19E-02
69834,5.74E-03,1.25E-02
69835,5.68E-03,1.24E-02
69836,5.89E-03,1.28E-02
69837,5.81E-03,1.26E-02
69838,6.09E-03,1.29E-02
69839,4.98E-03,1.33E-02
69840,4.92E-03,1.38E-02
69841,5.94E-03,1.46E-02
69842,5.92E-03,1.44E-02
69843,6.05E-03,1.49E-02
69844,6.27E-03,1.56E-02
69845,6.12E-03,1.60E-02
69846,6.04E-03,1.58E-02
69847,6.26E-03,1.64E-02
69848,6.10E-03,1.62E-02
69849,6.27E-03,1.67E-02
69850,6.34E-03,1.66E-02
69851,6.08E-03,1.72E-02
69852,6.15E-03,1.69E-02
69853,6.04E-03,1.78E-02
69854,6.06E-03,1.75E-02
69855,5.28E-03,1.86E-02
69856,5.83E-03,1.82E-02
69857,4.67E-03,1.90E-02
69858,6.30E-03,8.96E-03
69859,4.50E-03,8.52E-03
69860,4.91E-03,9.42E-03
69861,5.35E-03,9.56E-03
69862,5.06E-03,9.60E-03
69863,4.96E-03,6.58E-03
69864,5.66E-03,6.52E-03
69865,5.20E-03,6.44E-03
69866,7.03E-03,8.98E-03
69867,6.00E-03,9.04E-03
69868,6.54E-03,8.86E-03
69869,5.20E-03,8.74E-03
69870,5.01E-03,7.74E-03
69871,4.26E-03,6.65E-03
69872,5.62E-03,7.73E-03
69873,7.19E-03,8.32E-03
69874,5.70E-03,8.96E-03
69875,5.60E-03,9.27E-03
69876,5.43E-03,1.96E-02
69877,5.60E-03,1.47E-02
69878,6.28E-03,1.42E-02
69879,6.20E-03,1.41E-02
69880,5.34E-03,1.12E-02
69881,4.91E-03,8.69E-03
69882,5.55E-03,8.59E-03
69883,5.80E-03,8.65E-03
69884,4.86E-03,8.86E-03
69885,5.54E-03,8.82E-03
69886,5.25E-03,9.37E-03
69887,5.16E-03,9.41E-03
69888,5.01E-03,8.43E-03
69889,4.51E-03,8.56E-03
69890,4.55E-03,8.55E-03
69891,6.06E-03,8.43E-03
69892,5.89E-03,8.03E-03
69893,4.55E-03,7.77E-03
69894,5.20E-03,7.79E-03
69895,5.72E-03,1.20E-02
69896,5.61E-03,1.22E-02
69897,6.18E-03,9.10E-03
69898,6.18E-03,8.89E-03
69899,5.58E-03,9.26E-03
69900,5.37E-03,9.26E-03
69901,4.82E-03,9.46E-03
69902,5.35E-03,9.48E-03
69903,4.95E-03,9.55E-03
69904,5.75E-03,9.09E-03
69905,4.95E-03,7.71E-03
69906,4.91E-03,7.65E-03
69907,5.40E-03,9.31E-03
69908,5.81E-03,1.44E-02
69909,4.35E-03,1.09E-02
69910,4.68E-03,1.09E-02
69911,5.45E-03,8.92E-03
69912,4.60E-03,8.91E-03
69913,6.64E-03,1.30E-02
69914,6.09E-03,8.77E-03
69915,3.85E-03,7.93E-03
69916,4.19E-03,8.06E-03
69917,6.00E-03,7.71E-03
69918,5.84E-03,7.69E-03
69919,5.33E-03,9.33E-03
69920,5.34E-03,9.40E-03
69921,4.87E-03,9.51E-03
69922,5.45E-03,9.15E-03
69923,5.17E-03,8.17E-03
69924,4.73E-03,8.33E-03
69925,4.71E-03,8.41E-03
69926,4.08E-03,8.46E-03
69927,5.19E-03,9.35E-03
69928,5.22E-03,9.58E-03
69929,6.42E-03,6.37E-03
69930,5.97E-03,6.23E-03
69931,5.00E-03,5.84E-03
69932,5.29E-03,5.84E-03
69933,5.52E-03,5.98E-03
69934,5.32E-03,6.08E-03
69935,6.23E-03,9.01E-03
69936,6.58E-03,8.94E-03
69937,6.73E-03,8.90E-03
69938,4.78E-03,8.77E-03
69939,5.25E-03,7.73E-03
69940,5.33E-03,7.73E-03
69941,5.19E-03,7.72E-03
69942,5.69E-03,7.73E-03
69943,5.51E-03,7.73E-03
69944,6.01E-03,7.73E-03
69945,5.86E-03,7.73E-03
69946,6.15E-03,7.71E-03
69947,6.12E-03,7.72E-03
69948,6.14E-03,7.71E-03
69949,5.07E-03,6.95E-03
69950,5.23E-03,6.80E-03
69951,4.62E-03,7.16E-03
69952,4.36E-03,7.05E-03
69953,4.76E-03,7.40E-03
69954,4.71E-03,7.27E-03
69955,4.62E-03,7.51E-03
69956,6.27E-03,8.07E-03
69957,6.79E-03,7.82E-03
69958,6.38E-03,7.95E-03
69959,6.81E-03,8.20E-03
69960,5.85E-03,8.70E-03
69961,5.61E-03,9.12E-03
69962,5.63E-03,9.04E-03
69963,5.63E-03,9.20E-03
69964,3.92E-03,2.02E-02
69965,6.10E-03,1.93E-02
69966,5.42E-03,1.98E-02
69967,5.40E-03,1.84E-02
69968,5.76E-03,1.88E-02
69969,5.74E-03,1.75E-02
69970,5.61E-03,1.79E-02
69971,5.39E-03,1.68E-02
69972,5.47E-03,1.72E-02
69973,5.26E-03,1.61E-02
69974,5.44E-03,1.64E-02
69975,5.40E-03,1.56E-02
69976,5.39E-03,1.58E-02
69977,5.53E-03,1.51E-02
69978,5.48E-03,1.53E-02
69979,5.57E-03,1.49E-02
69980,5.31E-03,1.38E-02
69981,5.32E-03,1.39E-02
69982,5.27E-03,1.35E-02
69983,5.26E-03,1.36E-02
69984,5.14E-03,1.32E-02
69985,5.13E-03,1.33E-02
69986,4.99E-03,1.30E-02
69987,5.06E-03,1.31E-02
69988,5.04E-03,1.27E-02
69989,4.97E-03,1.28E-02
69990,5.23E-03,1.25E-02
69991,5.14E-03,1.26E-02
69992,5.44E-03,1.23E-02
69993,5.35E-03,1.24E-02
69994,5.59E-03,1.21E-02
69995,5.52E-03,1.22E-02
69996,5.65E-03,1.18E-02
69997,5.60E-03,1.20E-02
69998,5.76E-03,1.16E-02
69999,5.68E-03,1.17E-02
70000,5.70E-03,1.14E-02
70001,5.76E-03,1.15E-02
70002,5.53E-03,1.13E-02
70003,5.74E-03,1.07E-02
70004,5.20E-03,1.08E-02
70005,5.78E-03,1.05E-02
70006,5.73E-03,1.06E-02
70007,5.71E-03,1.03E-02
70008,5.69E-03,1.04E-02
70009,5.64E-03,1.01E-02
70010,5.57E-03,1.02E-02
70011,5.61E-03,9.89E-03
70012,5.54E-03,9.98E-03
70013,5.68E-03,9.74E-03
70014,5.58E-03,9.81E-03
70015,5.87E-03,9.60E-03
70016,5.76E-03,9.67E-03
70017,6.45E-03,9.45E-03
70018,6.20E-03,9.52E-03
70019,6.95E-03,9.32E-03
70020,6.75E-03,9.38E-03
70021,6.86E-03,9.26E-03
70022,5.32E-03,8.90E-03
70023,5.07E-03,8.82E-03
70024,5.07E-03,8.86E-03
70025,4.96E-03,8.75E-03
70026,4.95E-03,8.79E-03
70027,4.89E-03,8.72E-03
70028,4.93E-03,8.64E-03
70029,4.88E-03,8.66E-03
70030,4.93E-03,8.60E-03
70031,4.90E-03,8.62E-03
70032,4.99E-03,8.58E-03
70033,4.94E-03,8.59E-03
70034,5.06E-03,8.58E-03
70035,4.84E-03,8.58E-03
70036,4.45E-03,8.57E-03
70037,5.48E-03,8.71E-03
70038,5.35E-03,8.68E-03
70039,5.63E-03,8.77E-03
70040,5.62E-03,8.74E-03
70041,5.69E-03,8.79E-03
70042,5.77E-03,8.99E-03
70043,5.65E-03,8.95E-03
70044,5.83E-03,9.06E-03
70045,5.81E-03,9.02E-03
70046,5.67E-03,9.13E-03
70047,5.70E-03,9.10E-03
70048,5.41E-03,9.21E-03
70049,5.50E-03,9.17E-03
70050,5.19E-03,9.29E-03
70051,5.26E-03,9.25E-03
70052,5.16E-03,9.33E-03
70053,5.13E-03,9.40E-03
70054,4.74E-03,9.41E-03
70055,5.45E-03,6.32E-03
70056,5.62E-03,6.18E-03
70057,5.50E-03,6.62E-03
70058,5.67E-03,6.47E-03
70059,5.49E-03,6.92E-03
70060,5.42E-03,6.77E-03
70061,5.62E-03,7.20E-03
70062,5.63E-03,7.07E-03
70063,5.10E-03,7.49E-03
70064,5.42E-03,7.34E-03
70065,4.84E-03,7.76E-03
70066,4.93E-03,7.63E-03
70067,4.88E-03,7.98E-03
70068,4.84E-03,7.87E-03
70069,4.91E-03,8.17E-03
70070,4.90E-03,8.07E-03
70071,4.60E-03,8.35E-03
70072,4.69E-03,8.25E-03
70073,5.29E-03,8.62E-03
70074,5.19E-03,8.53E-03
70075,5.37E-03,8.82E-03
70076,5.31E-03,8.72E-03
70077,5.42E-03,9.03E-03
70078,5.43E-03,8.92E-03
70079,5.49E-03,9.23E-03
70080,5.48E-03,9.13E-03
70081,5.64E-03,9.42E-03
70082,5.55E-03,9.32E-03
70083,5.78E-03,9.60E-03
70084,5.70E-03,9.51E-03
70085,5.72E-03,9.77E-03
70086,5.74E-03,9.69E-03
70087,5.59E-03,9.92E-03
70088,5.65E-03,9.85E-03
70089,5.38E-03,1.00E-02
70090,5.46E-03,9.98E-03
70091,5.41E-03,1.01E-02
70092,5.35E-03,1.01E-02
70093,5.48E-03,1.02E-02
70094,5.46E-03,1.02E-02
70095,5.71E-03,1.03E-02
70096,5.65E-03,1.03E-02
70097,6.03E-03,1.05E-02
70098,5.90E-03,1.04E-02
70099,6.14E-03,1.06E-02
70100,6.13E-03,1.05E-02
70101,6.34E-03,1.09E-02
70102,6.29E-03,1.08E-02
70103,6.47E-03,1.12E-02
70104,6.46E-03,1.10E-02
70105,6.30E-03,1.15E-02
70106,6.40E-03,1.13E-02
70107,5.93E-03,1.18E-02
70108,6.07E-03,1.16E-02
70109,5.82E-03,1.19E-02
70110,4.24E-03,8.55E-03
70111,4.65E-03,8.52E-03
70112,5.97E-03,8.60E-03
70113,5.67E-03,1.25E-02
70114,5.44E-03,8.05E-03
70115,5.31E-03,7.81E-03
70116,5.59E-03,1.23E-02
70117,5.64E-03,1.24E-02
70118,5.75E-03,1.27E-02
70119,5.75E-03,1.26E-02
70120,5.83E-03,1.28E-02
70121,5.19E-03,1.33E-02
70122,5.13E-03,1.32E-02
70123,5.05E-03,1.36E-02
70124,5.09E-03,1.34E-02
70125,5.30E-03,1.39E-02
70126,5.15E-03,1.37E-02
70127,5.63E-03,1.43E-02
70128,5.49E-03,1.41E-02
70129,5.74E-03,1.47E-02
70130,5.75E-03,1.44E-02
70131,5.69E-03,1.49E-02
70132,6.18E-03,1.57E-02
70133,6.13E-03,1.62E-02
70134,6.06E-03,1.60E-02
70135,6.23E-03,1.67E-02
70136,6.15E-03,1.65E-02
70137,6.28E-03,1.70E-02
70138,6.36E-03,1.68E-02
70139,6.11E-03,1.74E-02
70140,6.21E-03,1.72E-02
70141,5.84E-03,1.81E-02
70142,6.00E-03,1.77E-02
70143,5.29E-03,1.89E-02
70144,5.63E-03,1.85E-02
70145,4.40E-03,1.96E-02
70146,4.75E-03,1.93E-02
70147,5.57E-03,2.01E-02
70148,4.53E-03,2.00E-02
70149,3.95E-03,2.05E-02
70150,5.57E-03,2.03E-02
70151,6.29E-03,9.01E-03
70152,5.59E-03,1.52E-02
70153,7.09E-03,1.55E-02
70154,5.36E-03,9.21E-03
70155,4.99E-03,9.40E-03
70156,5.33E-03,9.50E-03
70157,5.12E-03,9.54E-03
70158,4.77E-03,6.42E-03
70159,5.52E-03,6.29E-03
70160,6.52E-03,8.98E-03
70161,6.01E-03,9.05E-03
70162,4.87E-03,8.72E-03
70163,5.26E-03,8.79E-03
70164,5.26E-03,7.84E-03
70165,4.65E-03,7.59E-03
70166,5.24E-03,7.57E-03
70167,4.47E-03,6.75E-03
70168,5.64E-03,7.68E-03
70169,5.43E-03,9.24E-03
70170,5.49E-03,9.10E-03
70171,5.66E-03,1.46E-02
70172,4.78E-03,1.10E-02
70173,5.36E-03,1.11E-02
70174,5.90E-03,8.59E-03
70175,5.11E-03,8.85E-03
70176,5.32E-03,9.43E-03
70177,5.49E-03,9.48E-03
70178,4.86E-03,8.48E-03
70179,4.84E-03,1.50E-02
70180,3.96E-03,2.06E-02
70181,5.38E-03,1.98E-02
70182,6.09E-03,9.18E-03
70183,6.21E-03,8.92E-03
70184,4.31E-03,8.00E-03
70185,6.00E-03,8.41E-03
70186,4.94E-03,7.63E-03
70187,5.90E-03,7.70E-03
70188,5.33E-03,9.28E-03
70189,5.29E-03,9.42E-03
70190,4.97E-03,9.49E-03
70191,4.42E-03,6.43E-03
70192,5.75E-03,9.10E-03
70193,4.88E-03,8.22E-03
70194,4.10E-03,8.36E-03
70195,5.20E-03,8.40E-03
70196,4.83E-03,7.54E-03
70197,3.97E-03,7.51E-03
70198,5.32E-03,9.29E-03
70199,4.53E-03,1.39E-02
70200,4.71E-03,1.39E-02
70201,4.71E-03,1.08E-02
70202,3.75E-03,1.08E-02
70203,3.07E-03,8.48E-03
70204,6.11E-03,9.47E-03
70205,7.30E-03,9.48E-03
70206,4.93E-03,9.44E-03
70207,6.32E-03,8.78E-03
70208,5.20E-03,8.06E-03
70209,5.62E-03,7.86E-03
70210,5.10E-03,7.90E-03
70211,4.75E-03,7.91E-03
70212,4.39E-03,8.17E-03
70213,5.66E-03,8.24E-03
70214,4.53E-03,8.44E-03
70215,5.32E-03,9.35E-03
70216,4.06E-03,8.11E-03
70217,5.47E-03,9.16E-03
70218,5.10E-03,9.33E-03
70219,6.16E-03,8.46E-03
70220,5.18E-03,9.52E-03
70221,4.56E-03,5.98E-03
70222,4.82E-03,5.66E-03
70223,4.53E-03,5.81E-03
70224,4.51E-03,6.14E-03
70225,6.33E-03,9.02E-03
70226,6.49E-03,8.94E-03
70227,6.77E-03,8.90E-03
70228,5.20E-03,8.74E-03
70229,5.56E-03,8.67E-03
70230,3.87E-03,7.85E-03
70231,4.50E-03,7.71E-03
70232,5.55E-03,7.88E-03
70233,5.80E-03,7.60E-03
70234,5.60E-03,7.57E-03
70235,5.30E-03,7.56E-03
70236,5.89E-03,7.59E-03
70237,5.21E-03,7.55E-03
70238,5.27E-03,7.55E-03
70239,5.45E-03,7.55E-03
70240,5.32E-03,7.56E-03
70241,5.15E-03,7.55E-03
70242,5.67E-03,7.58E-03
70243,5.54E-03,7.57E-03
70244,5.96E-03,7.58E-03
70245,5.86E-03,7.58E-03
70246,6.06E-03,7.58E-03
70247,6.03E-03,7.58E-03
70248,5.73E-03,7.58E-03
70249,4.79E-03,7.58E-03
70250,5.92E-03,7.58E-03
70251,4.71E-03,6.97E-03
70252,4.73E-03,6.86E-03
70253,4.83E-03,7.21E-03
70254,4.89E-03,7.10E-03
70255,5.07E-03,7.45E-03
70256,4.91E-03,7.33E-03
70257,5.32E-03,7.57E-03
70258,6.27E-03,8.09E-03
70259,7.32E-03,7.83E-03
70260,6.42E-03,7.96E-03
70261,6.76E-03,8.32E-03
70262,6.35E-03,8.20E-03
70263,5.22E-03,8.41E-03
70264,5.86E-03,8.61E-03
70265,4.91E-03,8.51E-03
70266,5.68E-03,8.79E-03
70267,5.60E-03,8.70E-03
70268,5.57E-03,8.95E-03
70269,5.71E-03,8.87E-03
70270,5.50E-03,9.03E-03
70271,5.48E-03,9.17E-03
70272,5.29E-03,1.90E-02
70273,5.39E-03,1.94E-02
70274,5.60E-03,1.81E-02
70275,5.69E-03,1.86E-02
70276,5.58E-03,1.73E-02
70277,5.59E-03,1.77E-02
70278,5.51E-03,1.66E-02
70279,5.55E-03,1.70E-02
70280,5.39E-03,1.59E-02
70281,5.45E-03,1.63E-02
70282,5.42E-03,1.54E-02
70283,5.40E-03,1.57E-02
70284,5.49E-03,1.50E-02
70285,5.49E-03,1.52E-02
70286,5.54E-03,1.47E-02
70287,5.23E-03,1.36E-02
70288,4.89E-03,1.38E-02
70289,5.25E-03,1.33E-02
70290,5.32E-03,1.35E-02
70291,5.21E-03,1.30E-02
70292,5.18E-03,1.32E-02
70293,5.12E-03,1.28E-02
70294,5.15E-03,1.29E-02
70295,5.14E-03,1.26E-02
70296,5.11E-03,1.27E-02
70297,5.32E-03,1.24E-02
70298,5.21E-03,1.25E-02
70299,5.41E-03,1.21E-02
70300,5.37E-03,1.23E-02
70301,5.57E-03,1.19E-02
70302,5.47E-03,1.20E-02
70303,5.64E-03,1.17E-02
70304,5.58E-03,1.18E-02
70305,5.77E-03,1.15E-02
70306,5.70E-03,1.16E-02
70307,5.79E-03,1.13E-02
70308,5.83E-03,1.14E-02
70309,5.72E-03,1.12E-02
70310,5.48E-03,1.06E-02
70311,5.13E-03,1.07E-02
70312,5.70E-03,1.04E-02
70313,5.64E-03,1.05E-02
70314,5.67E-03,1.02E-02
70315,5.64E-03,1.03E-02
70316,5.58E-03,1.00E-02
70317,5.55E-03,1.01E-02
70318,5.55E-03,9.82E-03
70319,5.48E-03,9.91E-03
70320,5.61E-03,9.67E-03
70321,5.54E-03,9.75E-03
70322,5.83E-03,9.53E-03
70323,5.76E-03,9.60E-03
70324,6.37E-03,9.39E-03
70325,6.21E-03,9.46E-03
70326,6.73E-03,9.26E-03
70327,6.59E-03,9.32E-03
70328,6.72E-03,9.14E-03
70329,6.70E-03,9.20E-03
70330,4.92E-03,8.85E-03
70331,4.59E-03,8.90E-03
70332,5.14E-03,8.77E-03
70333,5.07E-03,8.81E-03
70334,5.05E-03,8.70E-03
70335,5.01E-03,8.73E-03
70336,5.00E-03,8.63E-03
70337,5.01E-03,8.66E-03
70338,4.99E-03,8.58E-03
70339,5.00E-03,8.61E-03
70340,5.02E-03,8.54E-03
70341,4.98E-03,8.56E-03
70342,5.01E-03,8.52E-03
70343,5.01E-03,8.53E-03
70344,5.08E-03,8.51E-03
70345,3.51E-03,8.51E-03
70346,4.35E-03,8.52E-03
70347,5.50E-03,8.68E-03
70348,5.44E-03,8.64E-03
70349,5.67E-03,8.75E-03
70350,5.69E-03,8.71E-03
70351,6.56E-03,8.82E-03
70352,5.99E-03,8.78E-03
70353,5.64E-03,8.92E-03
70354,5.32E-03,8.89E-03
70355,5.81E-03,8.99E-03
70356,5.79E-03,8.95E-03
70357,5.79E-03,9.07E-03
70358,5.76E-03,9.03E-03
70359,5.62E-03,9.16E-03
70360,5.63E-03,9.12E-03
70361,5.43E-03,9.25E-03
70362,5.45E-03,9.21E-03
70363,5.24E-03,9.34E-03
70364,5.35E-03,9.30E-03
70365,5.24E-03,9.38E-03
70366,5.67E-03,9.47E-03
70367,4.22E-03,8.42E-03
70368,4.86E-03,5.48E-03
70369,6.81E-03,4.89E-03
70370,5.77E-03,4.66E-03
70371,6.35E-03,5.06E-03
70372,4.60E-03,5.64E-03
70373,5.06E-03,5.96E-03
70374,5.01E-03,5.81E-03
70375,5.40E-03,6.28E-03
70376,5.28E-03,6.12E-03
70377,5.46E-03,6.60E-03
70378,5.47E-03,6.44E-03
70379,5.54E-03,6.91E-03
70380,5.49E-03,6.75E-03
70381,5.89E-03,7.23E-03
70382,5.77E-03,7.07E-03
70383,5.48E-03,7.53E-03
70384,5.77E-03,7.37E-03
70385,5.03E-03,7.80E-03
70386,5.17E-03,7.67E-03
70387,4.96E-03,8.03E-03
70388,4.98E-03,7.92E-03
70389,4.92E-03,8.22E-03
70390,4.93E-03,8.13E-03
70391,3.87E-03,8.40E-03
70392,4.79E-03,8.32E-03
70393,5.45E-03,8.66E-03
70394,5.21E-03,8.56E-03
70395,5.42E-03,8.86E-03
70396,5.42E-03,8.76E-03
70397,5.48E-03,9.06E-03
70398,5.43E-03,8.96E-03
70399,5.50E-03,9.27E-03
70400,5.49E-03,9.17E-03
70401,5.62E-03,9.47E-03
70402,5.55E-03,9.37E-03
70403,5.72E-03,9.66E-03
70404,5.70E-03,9.56E-03
70405,5.68E-03,9.83E-03
70406,5.68E-03,9.75E-03
70407,5.53E-03,9.98E-03
70408,5.57E-03,9.91E-03
70409,5.38E-03,1.01E-02
70410,5.42E-03,1.00E-02
70411,5.44E-03,1.02E-02
70412,5.35E-03,1.01E-02
70413,5.51E-03,1.03E-02
70414,5.46E-03,1.02E-02
70415,5.79E-03,1.04E-02
70416,5.62E-03,1.03E-02
70417,5.90E-03,1.05E-02
70418,5.89E-03,1.04E-02
70419,6.07E-03,1.06E-02
70420,6.00E-03,1.06E-02
70421,6.19E-03,1.09E-02
70422,6.15E-03,1.08E-02
70423,6.36E-03,1.12E-02
70424,6.29E-03,1.10E-02
70425,6.18E-03,1.15E-02
70426,6.28E-03,1.13E-02
70427,5.89E-03,1.18E-02
70428,6.04E-03,1.16E-02
70429,5.66E-03,1.20E-02
70430,5.81E-03,1.19E-02
70431,5.55E-03,1.23E-02
70432,5.61E-03,1.21E-02
70433,5.56E-03,1.25E-02
70434,5.51E-03,1.24E-02
70435,5.64E-03,1.27E-02
70436,5.63E-03,1.26E-02
70437,5.74E-03,1.29E-02
70438,5.60E-03,1.28E-02
70439,5.25E-03,1.32E-02
70440,5.23E-03,1.35E-02
70441,5.25E-03,1.34E-02
70442,5.39E-03,1.39E-02
70443,5.26E-03,1.37E-02
70444,5.55E-03,1.42E-02
70445,5.48E-03,1.40E-02
70446,5.61E-03,1.46E-02
70447,5.66E-03,1.44E-02
70448,5.49E-03,1.48E-02
70449,5.97E-03,1.58E-02
70450,6.05E-03,1.64E-02
70451,5.89E-03,1.61E-02
70452,6.48E-03,1.69E-02
70453,6.32E-03,1.67E-02
70454,6.38E-03,1.73E-02
70455,6.54E-03,1.71E-02
70456,6.02E-03,1.77E-02
70457,6.14E-03,1.75E-02
70458,5.71E-03,1.84E-02
70459,5.91E-03,1.80E-02
70460,5.29E-03,1.92E-02
70461,5.51E-03,1.88E-02
70462,4.84E-03,2.00E-02
70463,5.00E-03,1.96E-02
70464,5.10E-03,2.07E-02
70465,4.97E-03,2.04E-02
70466,4.91E-03,2.10E-02
70467,5.07E-03,2.09E-02
70468,5.10E-03,2.10E-02
70469,6.39E-03,9.06E-03
70470,4.00E-03,7.90E-03
70471,5.60E-03,1.54E-02
70472,5.80E-03,1.56E-02
70473,5.60E-03,7.89E-03
70474,5.94E-03,8.60E-03
70475,5.19E-03,7.51E-03
70476,5.56E-03,7.58E-03
70477,5.39E-03,9.23E-03
70478,5.25E-03,9.44E-03
70479,5.09E-03,9.47E-03
70480,4.85E-03,6.31E-03
70481,6.40E-03,8.98E-03
70482,6.04E-03,9.06E-03
70483,4.90E-03,8.25E-03
70484,5.15E-03,8.34E-03
70485,4.44E-03,7.46E-03
70486,4.25E-03,6.82E-03
70487,6.64E-03,7.73E-03
70488,5.36E-03,9.22E-03
70489,4.04E-03,2.16E-02
70490,5.45E-03,2.13E-02
70491,5.64E-03,1.44E-02
70492,4.04E-03,1.37E-02
70493,4.53E-03,1.09E-02
70494,3.97E-03,8.44E-03
70495,5.15E-03,8.55E-03
70496,6.01E-03,9.61E-03
70497,7.23E-03,9.59E-03
70498,5.42E-03,9.48E-03
70499,5.92E-03,9.53E-03
70500,5.06E-03,9.38E-03
70501,4.49E-03,8.50E-03
70502,5.63E-03,1.50E-02
70503,5.54E-03,2.14E-02
70504,6.48E-03,8.95E-03
70505,5.25E-03,8.06E-03
70506,5.64E-03,8.16E-03
70507,5.82E-03,8.42E-03
70508,6.09E-03,8.68E-03
70509,5.96E-03,9.06E-03
70510,5.31E-03,9.29E-03
70511,3.28E-03,8.03E-03
70512,7.30E-03,9.51E-03
70513,5.31E-03,9.36E-03
70514,5.02E-03,9.43E-03
70515,5.70E-03,9.12E-03
70516,4.57E-03,8.16E-03
70517,5.21E-03,9.27E-03
70518,4.19E-03,2.16E-02
70519,3.46E-03,2.23E-02
70520,6.30E-03,8.79E-03
70521,5.45E-03,8.25E-03
70522,6.74E-03,8.47E-03
70523,5.41E-03,7.38E-03
70524,5.40E-03,9.18E-03
70525,5.19E-03,9.46E-03
70526,4.99E-03,3.79E-03
70527,4.72E-03,4.38E-03
70528,6.16E-03,4.19E-03
70529,6.28E-03,4.79E-03
70530,4.71E-03,4.59E-03
70531,5.17E-03,5.68E-03
70532,5.63E-03,5.49E-03
70533,5.12E-03,6.02E-03
70534,4.99E-03,5.84E-03
70535,5.02E-03,6.18E-03
70536,6.26E-03,9.02E-03
70537,5.91E-03,8.86E-03
70538,5.91E-03,8.94E-03
70539,6.10E-03,8.90E-03
70540,5.53E-03,8.77E-03
70541,5.68E-03,8.82E-03
70542,5.33E-03,8.72E-03
70543,5.81E-03,8.57E-03
70544,5.87E-03,8.62E-03
70545,5.26E-03,8.48E-03
70546,5.33E-03,8.53E-03
70547,5.41E-03,8.42E-03
70548,4.27E-03,8.29E-03
70549,5.60E-03,7.31E-03
70550,6.56E-03,7.36E-03
70551,5.83E-03,7.32E-03
70552,5.65E-03,7.33E-03
70553,6.33E-03,7.37E-03
70554,5.41E-03,7.33E-03
70555,5.46E-03,7.33E-03
70556,6.14E-03,7.38E-03
70557,5.64E-03,7.34E-03
70558,5.03E-03,7.34E-03
70559,4.43E-03,7.35E-03
70560,5.42E-03,7.39E-03
70561,5.27E-03,7.37E-03
70562,5.65E-03,7.42E-03
70563,5.60E-03,7.41E-03
70564,5.91E-03,7.44E-03
70565,5.79E-03,7.43E-03
70566,5.92E-03,7.44E-03
70567,6.01E-03,7.44E-03
70568,5.66E-03,7.45E-03
70569,5.90E-03,7.47E-03
70570,5.84E-03,7.45E-03
70571,4.69E-03,7.03E-03
70572,4.58E-03,6.92E-03
70573,4.93E-03,7.27E-03
70574,4.89E-03,7.15E-03
70575,5.21E-03,7.50E-03
70576,5.09E-03,7.39E-03
70577,5.93E-03,7.62E-03
70578,6.05E-03,8.10E-03
70579,6.18E-03,7.87E-03
70580,6.14E-03,7.99E-03
70581,5.59E-03,8.31E-03
70582,5.94E-03,8.21E-03
70583,4.77E-03,8.48E-03
70584,4.67E-03,8.39E-03
70585,5.41E-03,8.63E-03
70586,4.63E-03,8.56E-03
70587,5.58E-03,8.79E-03
70588,5.57E-03,8.71E-03
70589,5.54E-03,8.95E-03
70590,5.59E-03,8.87E-03
70591,5.46E-03,9.09E-03
70592,5.52E-03,9.02E-03
70593,5.41E-03,9.15E-03
70594,6.32E-03,2.03E-02
70595,5.85E-03,2.08E-02
70596,5.82E-03,1.95E-02
70597,6.81E-03,2.00E-02
70598,5.55E-03,1.87E-02
70599,5.46E-03,1.91E-02
70600,5.62E-03,1.79E-02
70601,5.55E-03,1.83E-02
70602,5.60E-03,1.71E-02
70603,5.57E-03,1.75E-02
70604,5.51E-03,1.64E-02
70605,5.61E-03,1.68E-02
70606,5.45E-03,1.58E-02
70607,5.51E-03,1.61E-02
70608,5.45E-03,1.53E-02
70609,5.41E-03,1.55E-02
70610,5.48E-03,1.48E-02
70611,5.47E-03,1.50E-02
70612,5.54E-03,1.46E-02
70613,5.28E-03,1.34E-02
70614,5.12E-03,1.36E-02
70615,5.26E-03,1.31E-02
70616,5.29E-03,1.33E-02
70617,5.25E-03,1.29E-02
70618,5.22E-03,1.30E-02
70619,5.18E-03,1.26E-02
70620,5.18E-03,1.28E-02
70621,5.25E-03,1.24E-02
70622,5.20E-03,1.25E-02
70623,5.35E-03,1.22E-02
70624,5.29E-03,1.23E-02
70625,5.46E-03,1.20E-02
70626,5.41E-03,1.21E-02
70627,5.53E-03,1.18E-02
70628,5.50E-03,1.19E-02
70629,5.67E-03,1.16E-02
70630,5.59E-03,1.17E-02
70631,5.76E-03,1.14E-02
70632,5.72E-03,1.15E-02
70633,5.84E-03,1.12E-02
70634,5.83E-03,1.13E-02
70635,6.14E-03,1.10E-02
70636,5.83E-03,1.11E-02
70637,4.96E-03,1.07E-02
70638,4.51E-03,1.08E-02
70639,5.43E-03,1.05E-02
70640,5.20E-03,1.06E-02
70641,5.63E-03,1.03E-02
70642,5.57E-03,1.04E-02
70643,5.60E-03,1.01E-02
70644,5.62E-03,1.02E-02
70645,5.57E-03,9.92E-03
70646,5.53E-03,1.00E-02
70647,5.53E-03,9.75E-03
70648,5.49E-03,9.83E-03
70649,5.61E-03,9.60E-03
70650,5.54E-03,9.67E-03
70651,5.77E-03,9.46E-03
70652,5.75E-03,9.53E-03
70653,6.19E-03,9.32E-03
70654,6.10E-03,9.39E-03
70655,6.49E-03,9.19E-03
70656,6.43E-03,9.26E-03
70657,6.61E-03,9.07E-03
70658,6.52E-03,9.13E-03
70659,7.09E-03,8.95E-03
70660,6.71E-03,9.01E-03
70661,5.33E-03,8.81E-03
70662,6.49E-03,8.88E-03
70663,5.25E-03,8.71E-03
70664,5.19E-03,8.76E-03
70665,5.10E-03,8.63E-03
70666,5.09E-03,8.67E-03
70667,5.08E-03,8.57E-03
70668,5.07E-03,8.60E-03
70669,5.09E-03,8.52E-03
70670,5.08E-03,8.55E-03
70671,5.08E-03,8.48E-03
70672,5.07E-03,8.50E-03
70673,5.03E-03,8.45E-03
70674,5.06E-03,8.46E-03
70675,4.83E-03,8.42E-03
70676,5.06E-03,8.44E-03
70677,4.33E-03,8.44E-03
70678,4.50E-03,8.42E-03
70679,4.28E-03,8.43E-03
70680,3.74E-03,8.45E-03
70681,5.42E-03,8.64E-03
70682,5.40E-03,8.59E-03
70683,5.75E-03,8.72E-03
70684,5.74E-03,8.68E-03
70685,6.83E-03,8.80E-03
70686,6.17E-03,8.76E-03
70687,6.01E-03,8.91E-03
70688,6.81E-03,8.85E-03
70689,5.85E-03,8.99E-03
70690,5.90E-03,8.95E-03
70691,5.74E-03,9.08E-03
70692,5.78E-03,9.04E-03
70693,5.53E-03,9.18E-03
70694,5.61E-03,9.13E-03
70695,5.36E-03,9.28E-03
70696,5.40E-03,9.23E-03
70697,5.30E-03,9.38E-03
70698,5.31E-03,9.33E-03
70699,5.32E-03,9.43E-03
70700,6.91E-03,9.58E-03
70701,6.30E-03,9.55E-03
70702,5.20E-03,9.32E-03
70703,4.65E-03,9.70E-03
70704,4.07E-03,8.65E-03
70705,4.44E-03,8.18E-03
70706,4.20E-03,8.41E-03
70707,4.57E-03,7.66E-03
70708,4.45E-03,7.93E-03
70709,4.77E-03,7.37E-03
70710,4.86E-03,3.04E-03
70711,5.48E-03,3.49E-03
70712,5.79E-03,3.26E-03
70713,5.18E-03,3.69E-03
70714,6.39E-03,4.31E-03
70715,6.24E-03,4.12E-03
70716,5.70E-03,4.75E-03
70717,5.86E-03,4.55E-03
70718,5.17E-03,5.16E-03
70719,5.30E-03,4.92E-03
70720,4.94E-03,5.59E-03
70721,4.94E-03,5.39E-03
70722,5.14E-03,5.93E-03
70723,5.04E-03,5.76E-03
70724,5.31E-03,6.26E-03
70725,5.26E-03,6.10E-03
70726,5.41E-03,6.59E-03
70727,5.37E-03,6.42E-03
70728,5.52E-03,6.90E-03
70729,5.48E-03,6.75E-03
70730,6.55E-03,7.27E-03
70731,5.80E-03,7.07E-03
70732,5.64E-03,7.59E-03
70733,6.50E-03,7.43E-03
70734,5.20E-03,7.87E-03
70735,5.37E-03,7.74E-03
70736,5.05E-03,8.09E-03
70737,5.10E-03,7.99E-03
70738,5.00E-03,8.29E-03
70739,5.02E-03,8.19E-03
70740,4.37E-03,8.48E-03
70741,4.69E-03,8.39E-03
70742,5.66E-03,8.70E-03
70743,5.99E-03,8.59E-03
70744,5.51E-03,8.90E-03
70745,5.53E-03,8.80E-03
70746,5.59E-03,9.11E-03
70747,5.54E-03,9.01E-03
70748,5.55E-03,9.31E-03
70749,5.60E-03,9.21E-03
70750,5.56E-03,9.51E-03
70751,5.51E-03,9.41E-03
70752,5.65E-03,9.71E-03
70753,5.66E-03,9.61E-03
70754,5.60E-03,9.89E-03
70755,5.63E-03,9.81E-03
70756,5.45E-03,1.00E-02
70757,5.48E-03,9.97E-03
70758,5.34E-03,1.02E-02
70759,5.41E-03,1.01E-02
70760,5.45E-03,1.02E-02
70761,5.33E-03,1.02E-02
70762,5.53E-03,1.03E-02
70763,5.46E-03,1.03E-02
70764,5.79E-03,1.04E-02
70765,5.62E-03,1.03E-02
70766,5.88E-03,1.05E-02
70767,5.81E-03,1.04E-02
70768,6.01E-03,1.07E-02
70769,5.95E-03,1.06E-02
70770,6.11E-03,1.09E-02
70771,6.07E-03,1.08E-02
70772,6.22E-03,1.12E-02
70773,6.22E-03,1.10E-02
70774,6.04E-03,1.15E-02
70775,6.15E-03,1.13E-02
70776,5.81E-03,1.17E-02
70777,6.00E-03,1.16E-02
70778,5.62E-03,1.20E-02
70779,5.80E-03,1.19E-02
70780,5.52E-03,1.22E-02
70781,5.58E-03,1.21E-02
70782,5.54E-03,1.24E-02
70783,5.45E-03,1.23E-02
70784,5.53E-03,1.26E-02
70785,5.54E-03,1.25E-02
70786,5.07E-03,1.28E-02
70787,5.40E-03,1.27E-02
70788,4.45E-03,1.29E-02
70789,5.45E-03,1.32E-02
70790,5.29E-03,1.34E-02
70791,5.36E-03,1.33E-02
70792,5.41E-03,1.38E-02
70793,5.30E-03,1.36E-02
70794,5.50E-03,1.41E-02
70795,5.43E-03,1.40E-02
70796,5.53E-03,1.46E-02
70797,5.58E-03,1.43E-02
70798,5.40E-03,1.48E-02
70799,5.67E-03,1.59E-02
70800,5.81E-03,1.66E-02
70801,5.74E-03,1.62E-02
70802,7.01E-03,1.73E-02
70803,6.31E-03,1.69E-02
70804,6.35E-03,1.76E-02
70805,7.09E-03,1.74E-02
70806,5.92E-03,1.81E-02
70807,6.07E-03,1.78E-02
70808,5.67E-03,1.87E-02
70809,5.81E-03,1.83E-02
70810,5.36E-03,1.96E-02
70811,5.50E-03,1.91E-02
70812,5.12E-03,2.05E-02
70813,5.19E-03,2.00E-02
70814,5.10E-03,2.11E-02
70815,5.08E-03,2.08E-02
70816,5.18E-03,2.15E-02
70817,5.18E-03,2.13E-02
70818,5.66E-03,2.17E-02
70819,5.45E-03,2.16E-02
70820,5.33E-03,2.17E-02
70821,6.69E-03,9.13E-03
70822,5.40E-03,8.10E-03
70823,5.36E-03,1.53E-02
70824,5.63E-03,1.56E-02
70825,5.93E-03,8.60E-03
70826,6.58E-03,9.19E-03
70827,7.20E-03,8.90E-03
70828,5.32E-03,9.24E-03
70829,4.69E-03,7.95E-03
70830,5.24E-03,9.38E-03
70831,5.10E-03,9.41E-03
70832,4.39E-03,6.61E-03
70833,4.55E-03,6.47E-03
70834,4.84E-03,6.35E-03
70835,6.57E-03,8.97E-03
70836,5.93E-03,9.07E-03
70837,5.09E-03,8.94E-03
70838,5.55E-03,8.16E-03
70839,5.95E-03,7.04E-03
70840,6.83E-03,7.77E-03
70841,5.23E-03,7.93E-03
70842,5.38E-03,9.20E-03
70843,3.50E-03,2.26E-02
70844,3.07E-03,2.19E-02
70845,5.23E-03,9.69E-03
70846,4.94E-03,8.96E-03
70847,5.34E-03,1.50E-02
70848,3.76E-03,2.21E-02
70849,6.48E-03,8.98E-03
70850,5.43E-03,8.28E-03
70851,5.82E-03,8.40E-03
70852,5.56E-03,7.63E-03
70853,5.12E-03,9.36E-03
70854,5.65E-03,8.44E-03
70855,5.48E-03,9.37E-03
70856,5.32E-03,9.31E-03
70857,5.55E-03,9.13E-03
70858,4.38E-03,8.07E-03
70859,5.28E-03,9.25E-03
70860,4.97E-03,9.55E-03
70861,4.07E-03,9.57E-03
70862,3.37E-03,2.28E-02
70863,4.06E-03,2.35E-02
70864,3.63E-03,9.73E-03
70865,3.69E-03,9.83E-03
70866,5.87E-03,9.79E-03
70867,6.03E-03,8.80E-03
70868,7.33E-03,8.74E-03
70869,5.54E-03,2.40E-03
70870,6.38E-03,2.75E-03
70871,5.90E-03,2.50E-03
70872,5.33E-03,9.19E-03
70873,5.23E-03,7.87E-03
70874,4.45E-03,6.87E-03
70875,4.40E-03,6.75E-03
70876,5.19E-03,9.40E-03
70877,4.24E-03,3.22E-03
70878,4.85E-03,2.97E-03
70879,5.69E-03,3.66E-03
70880,5.84E-03,3.42E-03
70881,5.38E-03,4.07E-03
70882,4.90E-03,3.87E-03
70883,4.93E-03,4.43E-03
70884,5.31E-03,4.26E-03
70885,5.88E-03,4.89E-03
70886,6.02E-03,4.68E-03
70887,5.96E-03,5.30E-03
70888,6.03E-03,5.11E-03
70889,5.41E-03,5.70E-03
70890,5.65E-03,5.51E-03
70891,5.11E-03,6.05E-03
70892,5.14E-03,5.88E-03
70893,5.03E-03,6.21E-03
70894,6.62E-03,9.02E-03
70895,5.65E-03,8.84E-03
70896,5.64E-03,8.89E-03
70897,5.51E-03,8.75E-03
70898,5.54E-03,8.80E-03
70899,6.24E-03,8.65E-03
70900,5.57E-03,8.70E-03
70901,5.65E-03,8.54E-03
70902,6.13E-03,8.59E-03
70903,5.48E-03,8.43E-03
70904,5.42E-03,8.49E-03
70905,5.58E-03,8.30E-03
70906,5.81E-03,8.37E-03
70907,5.98E-03,8.22E-03
70908,5.80E-03,7.03E-03
70909,5.76E-03,7.01E-03
70910,6.08E-03,7.06E-03
70911,5.95E-03,7.05E-03
70912,5.73E-03,7.10E-03
70913,5.93E-03,7.09E-03
70914,5.54E-03,7.11E-03
70915,5.58E-03,7.10E-03
70916,6.33E-03,7.18E-03
70917,5.82E-03,7.14E-03
70918,5.32E-03,7.16E-03
70919,5.86E-03,7.18E-03
70920,5.51E-03,7.21E-03
70921,5.44E-03,7.18E-03
70922,5.61E-03,7.25E-03
70923,5.54E-03,7.23E-03
70924,5.84E-03,7.29E-03
70925,5.68E-03,7.27E-03
70926,5.84E-03,7.30E-03
70927,5.89E-03,7.30E-03
70928,5.78E-03,7.32E-03
70929,5.72E-03,7.34E-03
70930,5.81E-03,7.31E-03
70931,4.71E-03,7.09E-03
70932,4.61E-03,6.98E-03
70933,5.01E-03,7.32E-03
70934,4.95E-03,7.21E-03
70935,5.45E-03,7.55E-03
70936,5.18E-03,7.44E-03
70937,6.46E-03,7.67E-03
70938,5.71E-03,8.13E-03
70939,5.66E-03,8.03E-03
70940,5.36E-03,8.31E-03
70941,5.61E-03,8.23E-03
70942,5.15E-03,8.49E-03
70943,5.08E-03,8.39E-03
70944,5.32E-03,8.65E-03
70945,5.18E-03,8.58E-03
70946,5.47E-03,8.80E-03
70947,5.46E-03,8.72E-03
70948,5.45E-03,8.94E-03
70949,5.47E-03,8.87E-03
70950,5.40E-03,9.08E-03
70951,5.42E-03,9.01E-03
70952,5.41E-03,9.14E-03
70953,3.98E-03,2.20E-02
70954,4.94E-03,2.33E-02
70955,4.10E-03,2.14E-02
70956,5.05E-03,2.22E-02
70957,5.88E-03,2.07E-02
70958,5.21E-03,2.10E-02
70959,5.91E-03,1.99E-02
70960,5.79E-03,2.04E-02
70961,5.54E-03,1.92E-02
70962,5.68E-03,1.95E-02
70963,5.55E-03,1.84E-02
70964,5.57E-03,1.88E-02
70965,5.58E-03,1.76E-02
70966,5.53E-03,1.80E-02
70967,5.62E-03,1.69E-02
70968,5.58E-03,1.73E-02
70969,5.51E-03,1.62E-02
70970,5.56E-03,1.65E-02
70971,5.49E-03,1.56E-02
70972,5.50E-03,1.59E-02
70973,5.45E-03,1.51E-02
70974,5.43E-03,1.53E-02
70975,5.49E-03,1.46E-02
70976,5.45E-03,1.49E-02
70977,5.55E-03,1.42E-02
70978,5.51E-03,1.44E-02
70979,5.68E-03,1.41E-02
70980,5.09E-03,1.35E-02
70981,5.23E-03,1.32E-02
70982,4.98E-03,1.34E-02
70983,5.32E-03,1.30E-02
70984,5.29E-03,1.31E-02
70985,5.29E-03,1.27E-02
70986,5.30E-03,1.28E-02
70987,5.22E-03,1.25E-02
70988,5.27E-03,1.26E-02
70989,5.32E-03,1.23E-02
70990,5.22E-03,1.24E-02
70991,5.32E-03,1.21E-02
70992,5.33E-03,1.22E-02
70993,5.43E-03,1.19E-02
70994,5.36E-03,1.20E-02
70995,5.51E-03,1.17E-02
70996,5.51E-03,1.18E-02
70997,5.68E-03,1.15E-02
70998,5.61E-03,1.16E-02
70999,5.72E-03,1.13E-02
71000,5.69E-03,1.14E-02
71001,5.85E-03,1.10E-02
71002,5.81E-03,1.12E-02
71003,6.42E-03,1.08E-02
71004,6.01E-03,1.09E-02
71005,5.26E-03,1.06E-02
71006,6.07E-03,1.07E-02
71007,5.46E-03,1.04E-02
71008,5.40E-03,1.05E-02
71009,5.62E-03,1.02E-02
71010,5.58E-03,1.03E-02
71011,5.58E-03,1.00E-02
71012,5.65E-03,1.01E-02
71013,5.55E-03,9.84E-03
71014,5.56E-03,9.93E-03
71015,5.51E-03,9.67E-03
71016,5.56E-03,9.75E-03
71017,5.57E-03,9.52E-03
71018,5.46E-03,9.59E-03
71019,5.78E-03,9.38E-03
71020,5.68E-03,9.45E-03
71021,6.00E-03,9.25E-03
71022,5.94E-03,9.31E-03
71023,6.32E-03,9.13E-03
71024,6.22E-03,9.19E-03
71025,6.47E-03,9.01E-03
71026,6.36E-03,9.07E-03
71027,6.34E-03,8.88E-03
71028,6.43E-03,8.94E-03
71029,5.63E-03,8.76E-03
71030,6.05E-03,8.82E-03
71031,5.27E-03,8.65E-03
71032,5.34E-03,8.70E-03
71033,5.13E-03,8.57E-03
71034,5.13E-03,8.61E-03
71035,5.13E-03,8.51E-03
71036,5.08E-03,8.53E-03
71037,5.19E-03,8.45E-03
71038,5.14E-03,8.48E-03
71039,5.13E-03,8.41E-03
71040,5.11E-03,8.43E-03
71041,5.09E-03,8.38E-03
71042,5.14E-03,8.39E-03
71043,4.91E-03,8.35E-03
71044,5.02E-03,8.36E-03
71045,4.60E-03,8.35E-03
71046,4.69E-03,8.35E-03
71047,4.18E-03,8.35E-03
71048,4.27E-03,8.35E-03
71049,4.05E-03,8.39E-03
71050,4.35E-03,8.40E-03
71051,4.46E-03,8.44E-03
71052,4.34E-03,8.41E-03
71053,5.06E-03,8.51E-03
71054,4.67E-03,8.47E-03
71055,5.45E-03,8.59E-03
71056,5.29E-03,8.55E-03
71057,5.85E-03,8.69E-03
71058,5.74E-03,8.64E-03
71059,6.37E-03,8.79E-03
71060,6.10E-03,8.73E-03
71061,6.11E-03,8.88E-03
71062,6.36E-03,8.83E-03
71063,5.81E-03,8.99E-03
71064,5.90E-03,8.94E-03
71065,5.66E-03,9.09E-03
71066,5.73E-03,9.04E-03
71067,5.49E-03,9.19E-03
71068,5.59E-03,9.14E-03
71069,5.35E-03,9.30E-03
71070,5.44E-03,9.25E-03
71071,5.32E-03,9.41E-03
71072,5.31E-03,9.36E-03
71073,5.40E-03,9.52E-03
71074,5.30E-03,9.47E-03
71075,5.59E-03,9.57E-03
71076,5.49E-03,9.63E-03
71077,5.12E-03,9.86E-03
71078,4.37E-03,9.84E-03
71079,4.05E-03,9.84E-03
71080,4.29E-03,9.48E-03
71081,5.48E-03,9.25E-03
71082,4.42E-03,8.74E-03
71083,4.49E-03,8.21E-03
71084,4.36E-03,8.46E-03
71085,4.43E-03,7.70E-03
71086,4.39E-03,7.96E-03
71087,4.31E-03,7.44E-03
71088,6.47E-03,2.88E-03
71089,6.35E-03,2.65E-03
71090,5.32E-03,3.35E-03
71091,5.65E-03,3.13E-03
71092,5.74E-03,3.81E-03
71093,5.74E-03,3.58E-03
71094,5.93E-03,4.21E-03
71095,5.87E-03,4.01E-03
71096,5.54E-03,4.66E-03
71097,5.77E-03,4.44E-03
71098,5.28E-03,5.11E-03
71099,5.41E-03,4.88E-03
71100,5.13E-03,5.52E-03
71101,5.16E-03,5.32E-03
71102,5.19E-03,5.89E-03
71103,5.15E-03,5.71E-03
71104,5.29E-03,6.25E-03
71105,5.27E-03,6.08E-03
71106,5.38E-03,6.60E-03
71107,5.30E-03,6.42E-03
71108,5.44E-03,6.92E-03
71109,5.44E-03,6.77E-03
71110,5.99E-03,7.28E-03
71111,5.51E-03,7.09E-03
71112,4.59E-03,7.44E-03
71113,5.55E-03,7.68E-03
71114,5.96E-03,7.52E-03
71115,5.28E-03,7.95E-03
71116,5.37E-03,7.83E-03
71117,5.17E-03,8.16E-03
71118,5.20E-03,8.06E-03
71119,5.17E-03,8.36E-03
71120,5.17E-03,8.26E-03
71121,6.01E-03,8.54E-03
71122,5.16E-03,8.45E-03
71123,5.75E-03,8.75E-03
71124,6.29E-03,8.64E-03
71125,5.56E-03,8.96E-03
71126,5.62E-03,8.85E-03
71127,5.60E-03,9.16E-03
71128,5.55E-03,9.06E-03
71129,5.55E-03,9.36E-03
71130,5.59E-03,9.26E-03
71131,5.56E-03,9.56E-03
71132,5.54E-03,9.46E-03
71133,5.56E-03,9.77E-03
71134,5.58E-03,9.67E-03
71135,5.55E-03,9.96E-03
71136,5.57E-03,9.86E-03
71137,5.43E-03,1.01E-02
71138,5.48E-03,1.00E-02
71139,5.36E-03,1.02E-02
71140,5.39E-03,1.02E-02
71141,5.46E-03,1.03E-02
71142,5.39E-03,1.03E-02
71143,5.54E-03,1.04E-02
71144,5.47E-03,1.03E-02
71145,5.76E-03,1.04E-02
71146,5.63E-03,1.04E-02
71147,5.85E-03,1.05E-02
71148,5.79E-03,1.05E-02
71149,5.95E-03,1.07E-02
71150,5.90E-03,1.06E-02
71151,6.05E-03,1.09E-02
71152,6.00E-03,1.08E-02
71153,6.10E-03,1.12E-02
71154,6.12E-03,1.10E-02
71155,5.97E-03,1.15E-02
71156,6.06E-03,1.13E-02
71157,5.78E-03,1.17E-02
71158,5.88E-03,1.16E-02
71159,5.61E-03,1.20E-02
71160,5.71E-03,1.19E-02
71161,5.47E-03,1.22E-02
71162,5.53E-03,1.21E-02
71163,5.45E-03,1.24E-02
71164,5.38E-03,1.23E-02
71165,5.46E-03,1.25E-02
71166,5.49E-03,1.24E-02
71167,5.35E-03,1.27E-02
71168,5.40E-03,1.26E-02
71169,4.46E-03,1.28E-02
71170,4.08E-03,1.27E-02
71171,5.55E-03,1.31E-02
71172,5.97E-03,1.30E-02
71173,5.40E-03,1.33E-02
71174,5.44E-03,1.32E-02
71175,5.45E-03,1.37E-02
71176,5.36E-03,1.35E-02
71177,5.54E-03,1.41E-02
71178,5.45E-03,1.39E-02
71179,5.52E-03,1.45E-02
71180,5.52E-03,1.43E-02
71181,5.51E-03,1.47E-02
71182,5.55E-03,1.59E-02
71183,5.45E-03,1.67E-02
71184,5.51E-03,1.63E-02
71185,6.34E-03,1.75E-02
71186,5.74E-03,1.70E-02
71187,4.83E-03,1.78E-02
71188,6.10E-03,1.81E-02
71189,6.49E-03,1.78E-02
71190,5.87E-03,1.85E-02
71191,5.98E-03,1.83E-02
71192,5.63E-03,1.92E-02
71193,5.82E-03,1.88E-02
71194,5.39E-03,2.00E-02
71195,5.51E-03,1.96E-02
71196,5.21E-03,2.08E-02
71197,5.28E-03,2.04E-02
71198,5.21E-03,2.14E-02
71199,5.21E-03,2.12E-02
71200,5.33E-03,2.19E-02
71201,5.26E-03,2.16E-02
71202,5.47E-03,2.22E-02
71203,5.48E-03,2.21E-02
71204,5.79E-03,2.23E-02
71205,5.76E-03,2.23E-02
71206,4.15E-03,2.24E-02
71207,4.66E-03,2.29E-02
71208,6.64E-03,9.15E-03
71209,5.50E-03,8.33E-03
71210,5.51E-03,1.52E-02
71211,5.50E-03,1.56E-02
71212,5.16E-03,9.30E-03
71213,5.78E-03,8.61E-03
71214,7.25E-03,9.21E-03
71215,5.24E-03,9.32E-03
71216,5.14E-03,9.35E-03
71217,4.83E-03,8.97E-03
71218,5.81E-03,9.08E-03
71219,4.60E-03,8.09E-03
71220,5.04E-03,7.83E-03
71221,5.37E-03,9.19E-03
71222,4.76E-03,9.58E-03
71223,5.46E-03,9.09E-03
71224,5.49E-03,1.49E-02
71225,6.71E-03,9.74E-03
71226,5.64E-03,9.94E-03
71227,5.72E-03,9.91E-03
71228,5.81E-03,9.73E-03
71229,7.68E-03,9.39E-03
71230,6.13E-03,9.00E-03
71231,5.56E-03,8.47E-03
71232,6.22E-03,8.62E-03
71233,6.40E-03,2.26E-03
71234,6.27E-03,2.01E-03
71235,5.49E-03,1.78E-03
71236,4.75E-03,1.59E-03
71237,3.52E-03,1.43E-03
71238,3.88E-03,1.32E-03
71239,6.79E-03,6.71E-03
71240,6.74E-03,6.72E-03
71241,5.31E-03,9.25E-03
71242,5.39E-03,9.14E-03
71243,5.16E-03,7.68E-03
71244,5.31E-03,7.79E-03
71245,5.24E-03,9.24E-03
71246,4.72E-03,2.44E-02
71247,4.69E-03,2.51E-02
71248,6.77E-03,9.58E-03
71249,5.70E-03,8.80E-03
71250,6.36E-03,9.02E-03
71251,4.63E-03,6.67E-03
71252,4.94E-03,6.39E-03
71253,4.67E-03,6.53E-03
71254,4.59E-03,6.92E-03
71255,4.57E-03,6.80E-03
71256,5.20E-03,9.34E-03
71257,5.52E-03,1.91E-03
71258,5.56E-03,1.51E-03
71259,5.13E-03,1.71E-03
71260,5.86E-03,2.35E-03
71261,5.83E-03,2.14E-03
71262,5.66E-03,2.82E-03
71263,5.97E-03,2.59E-03
71264,5.23E-03,3.30E-03
71265,5.32E-03,3.03E-03
71266,5.38E-03,3.73E-03
71267,5.31E-03,3.53E-03
71268,5.29E-03,4.15E-03
71269,5.40E-03,3.95E-03
71270,5.25E-03,4.53E-03
71271,5.33E-03,4.34E-03
71272,5.86E-03,4.97E-03
71273,5.74E-03,4.76E-03
71274,5.79E-03,5.36E-03
71275,5.79E-03,5.17E-03
71276,5.56E-03,5.75E-03
71277,5.60E-03,5.55E-03
71278,5.17E-03,6.10E-03
71279,5.31E-03,5.93E-03
71280,5.02E-03,6.25E-03
71281,4.87E-03,8.98E-03
71282,6.32E-03,9.03E-03
71283,5.34E-03,8.92E-03
71284,4.54E-03,8.96E-03
71285,5.47E-03,8.83E-03
71286,5.45E-03,8.88E-03
71287,5.58E-03,8.73E-03
71288,5.49E-03,8.78E-03
71289,5.68E-03,8.62E-03
71290,5.59E-03,8.67E-03
71291,5.64E-03,8.51E-03
71292,5.57E-03,8.56E-03
71293,5.44E-03,8.39E-03
71294,5.43E-03,8.45E-03
71295,5.35E-03,8.25E-03
71296,5.37E-03,8.32E-03
71297,4.34E-03,8.06E-03
71298,5.92E-03,8.15E-03
71299,4.36E-03,8.00E-03
71300,5.96E-03,6.73E-03
71301,6.07E-03,6.71E-03
71302,5.91E-03,6.78E-03
71303,5.96E-03,6.75E-03
71304,5.71E-03,6.84E-03
71305,5.79E-03,6.81E-03
71306,5.66E-03,6.89E-03
71307,5.65E-03,6.86E-03
71308,5.80E-03,6.94E-03
71309,5.73E-03,6.92E-03
71310,5.55E-03,6.98E-03
71311,5.69E-03,6.97E-03
71312,5.52E-03,7.03E-03
71313,5.53E-03,7.00E-03
71314,5.59E-03,7.09E-03
71315,5.54E-03,7.06E-03
71316,5.70E-03,7.13E-03
71317,5.64E-03,7.11E-03
71318,5.81E-03,7.16E-03
71319,5.72E-03,7.14E-03
71320,5.77E-03,7.19E-03
71321,5.86E-03,7.21E-03
71322,5.81E-03,7.17E-03
71323,4.77E-03,7.15E-03
71324,4.72E-03,7.04E-03
71325,5.04E-03,7.38E-03
71326,4.99E-03,7.27E-03
71327,5.51E-03,7.60E-03
71328,5.17E-03,7.49E-03
71329,4.73E-03,7.82E-03
71330,5.93E-03,7.72E-03
71331,5.35E-03,7.99E-03
71332,4.43E-03,7.91E-03
71333,5.54E-03,8.17E-03
71334,5.43E-03,8.08E-03
71335,5.35E-03,8.33E-03
71336,5.43E-03,8.25E-03
71337,5.14E-03,8.50E-03
71338,5.19E-03,8.42E-03
71339,5.30E-03,8.67E-03
71340,5.22E-03,8.59E-03
71341,5.37E-03,8.81E-03
71342,5.38E-03,8.74E-03
71343,5.32E-03,8.94E-03
71344,5.35E-03,8.88E-03
71345,5.37E-03,9.07E-03
71346,5.39E-03,9.01E-03
71347,5.41E-03,9.13E-03
71348,6.02E-03,2.35E-02
71349,5.36E-03,2.40E-02
71350,4.88E-03,2.22E-02
71351,5.82E-03,2.28E-02
71352,5.86E-03,2.10E-02
71353,5.21E-03,2.15E-02
71354,5.56E-03,2.02E-02
71355,5.38E-03,2.06E-02
71356,5.68E-03,1.95E-02
71357,5.69E-03,1.99E-02
71358,5.60E-03,1.88E-02
71359,5.66E-03,1.92E-02
71360,5.54E-03,1.81E-02
71361,5.57E-03,1.84E-02
71362,5.58E-03,1.73E-02
71363,5.54E-03,1.77E-02
71364,5.56E-03,1.67E-02
71365,5.55E-03,1.70E-02
71366,5.52E-03,1.60E-02
71367,5.53E-03,1.63E-02
71368,5.52E-03,1.54E-02
71369,5.54E-03,1.57E-02
71370,5.42E-03,1.49E-02
71371,5.47E-03,1.52E-02
71372,5.46E-03,1.45E-02
71373,5.42E-03,1.47E-02
71374,5.52E-03,1.41E-02
71375,5.48E-03,1.42E-02
71376,5.46E-03,1.37E-02
71377,5.54E-03,1.39E-02
71378,5.21E-03,1.34E-02
71379,5.36E-03,1.35E-02
71380,5.24E-03,1.31E-02
71381,5.16E-03,1.32E-02
71382,5.31E-03,1.28E-02
71383,5.30E-03,1.29E-02
71384,5.31E-03,1.25E-02
71385,5.33E-03,1.27E-02
71386,5.28E-03,1.23E-02
71387,5.28E-03,1.24E-02
71388,5.29E-03,1.21E-02
71389,5.29E-03,1.22E-02
71390,5.36E-03,1.19E-02
71391,5.35E-03,1.20E-02
71392,5.42E-03,1.17E-02
71393,5.39E-03,1.18E-02
71394,5.50E-03,1.15E-02
71395,5.46E-03,1.16E-02
71396,5.61E-03,1.13E-02
71397,5.59E-03,1.14E-02
71398,5.72E-03,1.11E-02
71399,5.63E-03,1.12E-02
71400,5.80E-03,1.09E-02
71401,5.78E-03,1.10E-02
71402,5.79E-03,1.07E-02
71403,5.86E-03,1.08E-02
71404,5.57E-03,1.05E-02
71405,5.80E-03,1.06E-02
71406,5.52E-03,1.03E-02
71407,5.49E-03,1.04E-02
71408,5.65E-03,1.01E-02
71409,5.61E-03,1.02E-02
71410,5.59E-03,9.93E-03
71411,5.64E-03,1.00E-02
71412,5.56E-03,9.75E-03
71413,5.56E-03,9.84E-03
71414,5.44E-03,9.58E-03
71415,5.50E-03,9.66E-03
71416,5.57E-03,9.44E-03
71417,5.44E-03,9.51E-03
71418,5.78E-03,9.30E-03
71419,5.64E-03,9.36E-03
71420,5.97E-03,9.17E-03
71421,5.86E-03,9.23E-03
71422,6.16E-03,9.05E-03
71423,6.08E-03,9.11E-03
71424,6.22E-03,8.94E-03
71425,6.19E-03,9.00E-03
71426,6.05E-03,8.81E-03
71427,6.09E-03,8.87E-03
71428,5.66E-03,8.69E-03
71429,5.87E-03,8.75E-03
71430,5.35E-03,8.58E-03
71431,5.47E-03,8.64E-03
71432,5.20E-03,8.50E-03
71433,5.25E-03,8.54E-03
71434,5.21E-03,8.43E-03
71435,5.16E-03,8.46E-03
71436,5.25E-03,8.38E-03
71437,5.23E-03,8.40E-03
71438,5.23E-03,8.33E-03
71439,5.21E-03,8.35E-03
71440,5.18E-03,8.30E-03
71441,5.24E-03,8.31E-03
71442,4.96E-03,8.28E-03
71443,5.07E-03,8.28E-03
71444,4.71E-03,8.26E-03
71445,4.86E-03,8.27E-03
71446,4.58E-03,8.29E-03
71447,4.62E-03,8.27E-03
71448,4.52E-03,8.33E-03
71449,4.46E-03,8.31E-03
71450,4.72E-03,8.37E-03
71451,4.56E-03,8.35E-03
71452,5.09E-03,8.45E-03
71453,4.88E-03,8.41E-03
71454,5.48E-03,8.54E-03
71455,5.32E-03,8.50E-03
71456,5.83E-03,8.64E-03
71457,5.67E-03,8.59E-03
71458,6.09E-03,8.75E-03
71459,5.99E-03,8.70E-03
71460,6.01E-03,8.86E-03
71461,6.09E-03,8.81E-03
71462,5.80E-03,8.97E-03
71463,5.90E-03,8.92E-03
71464,5.63E-03,9.08E-03
71465,5.70E-03,9.03E-03
71466,5.47E-03,9.20E-03
71467,5.57E-03,9.14E-03
71468,5.39E-03,9.32E-03
71469,5.42E-03,9.26E-03
71470,5.35E-03,9.44E-03
71471,5.36E-03,9.38E-03
71472,5.34E-03,9.56E-03
71473,5.32E-03,9.50E-03
71474,4.45E-03,9.67E-03
71475,5.40E-03,9.62E-03
71476,4.78E-03,9.78E-03
71477,4.58E-03,9.75E-03
71478,4.44E-03,9.87E-03
71479,4.53E-03,9.80E-03
71480,4.63E-03,9.96E-03
71481,4.53E-03,9.93E-03
71482,4.77E-03,9.95E-03
71483,4.65E-03,9.94E-03
71484,5.25E-03,9.96E-03
71485,5.57E-03,9.90E-03
71486,6.11E-03,9.68E-03
71487,4.68E-03,9.82E-03
71488,5.21E-03,9.88E-03
71489,4.13E-03,9.79E-03
71490,4.78E-03,9.80E-03
71491,3.45E-03,9.57E-03
71492,3.09E-03,9.71E-03
71493,5.12E-03,9.37E-03
71494,4.26E-03,8.85E-03
71495,4.66E-03,8.28E-03
71496,4.42E-03,8.56E-03
71497,4.77E-03,7.72E-03
71498,4.70E-03,8.00E-03
71499,5.77E-03,7.02E-03
71500,5.12E-03,7.39E-03
71501,5.40E-03,1.62E-03
71502,4.91E-03,1.46E-03
71503,4.65E-03,1.95E-03
71504,6.06E-03,1.81E-03
71505,5.40E-03,2.28E-03
71506,4.43E-03,2.08E-03
71507,5.78E-03,2.73E-03
71508,5.75E-03,2.51E-03
71509,5.60E-03,3.23E-03
71510,5.76E-03,2.98E-03
71511,5.76E-03,3.73E-03
71512,5.81E-03,3.49E-03
71513,5.72E-03,4.14E-03
71514,5.77E-03,3.94E-03
71515,5.52E-03,4.62E-03
71516,5.62E-03,4.37E-03
71517,5.33E-03,5.06E-03
71518,5.43E-03,4.86E-03
71519,5.22E-03,5.45E-03
71520,5.25E-03,5.25E-03
71521,5.35E-03,5.85E-03
71522,5.27E-03,5.66E-03
71523,5.33E-03,6.25E-03
71524,5.35E-03,6.04E-03
71525,5.35E-03,6.62E-03
71526,5.32E-03,6.44E-03
71527,5.32E-03,6.99E-03
71528,5.37E-03,6.81E-03
71529,4.85E-03,7.26E-03
71530,5.26E-03,7.14E-03
71531,3.78E-03,7.59E-03
71532,3.64E-03,7.39E-03
71533,5.33E-03,7.81E-03
71534,4.93E-03,7.71E-03
71535,5.32E-03,8.04E-03
71536,5.35E-03,7.93E-03
71537,5.26E-03,8.25E-03
71538,5.33E-03,8.15E-03
71539,5.33E-03,8.43E-03
71540,5.26E-03,8.34E-03
71541,5.70E-03,8.62E-03
71542,5.49E-03,8.52E-03
71543,5.70E-03,8.82E-03
71544,5.80E-03,8.72E-03
71545,5.58E-03,9.02E-03
71546,5.61E-03,8.92E-03
71547,5.61E-03,9.22E-03
71548,5.59E-03,9.12E-03
71549,5.54E-03,9.41E-03
71550,5.56E-03,9.32E-03
71551,5.51E-03,9.61E-03
71552,5.54E-03,9.51E-03
71553,5.55E-03,9.82E-03
71554,5.52E-03,9.72E-03
71555,5.47E-03,1.00E-02
71556,5.54E-03,9.92E-03
71557,5.42E-03,1.02E-02
71558,5.46E-03,1.01E-02
71559,5.37E-03,1.03E-02
71560,5.44E-03,1.03E-02
71561,5.45E-03,1.04E-02
71562,5.40E-03,1.04E-02
71563,5.55E-03,1.04E-02
71564,5.51E-03,1.04E-02
71565,5.75E-03,1.05E-02
71566,5.64E-03,1.04E-02
71567,5.83E-03,1.05E-02
71568,5.78E-03,1.05E-02
71569,5.88E-03,1.07E-02
71570,5.86E-03,1.06E-02
71571,5.98E-03,1.09E-02
71572,5.93E-03,1.08E-02
71573,5.97E-03,1.12E-02
71574,6.04E-03,1.10E-02
71575,5.89E-03,1.14E-02
71576,5.91E-03,1.13E-02
71577,5.70E-03,1.17E-02
71578,5.80E-03,1.16E-02
71579,5.57E-03,1.19E-02
71580,5.64E-03,1.18E-02
71581,5.44E-03,1.21E-02
71582,5.49E-03,1.20E-02
71583,5.41E-03,1.23E-02
71584,5.35E-03,1.22E-02
71585,5.44E-03,1.24E-02
71586,5.46E-03,1.23E-02
71587,5.15E-03,1.25E-02
71588,5.37E-03,1.25E-02
71589,4.90E-03,1.27E-02
71590,5.13E-03,1.26E-02
71591,5.45E-03,1.29E-02
71592,5.21E-03,1.28E-02
71593,5.41E-03,1.32E-02
71594,5.44E-03,1.31E-02
71595,5.41E-03,1.36E-02
71596,5.39E-03,1.34E-02
71597,5.54E-03,1.39E-02
71598,5.48E-03,1.37E-02
71599,5.59E-03,1.44E-02
71600,5.57E-03,1.41E-02
71601,5.53E-03,1.46E-02
71602,5.32E-03,1.59E-02
71603,5.36E-03,1.67E-02
71604,5.32E-03,1.63E-02
71605,5.04E-03,1.74E-02
71606,5.30E-03,1.71E-02
71607,4.20E-03,1.83E-02
71608,3.75E-03,1.76E-02
71609,5.73E-03,1.87E-02
71610,5.32E-03,1.85E-02
71611,5.76E-03,1.93E-02
71612,5.80E-03,1.90E-02
71613,5.59E-03,1.98E-02
71614,5.74E-03,1.96E-02
71615,5.42E-03,2.05E-02
71616,5.49E-03,2.02E-02
71617,5.26E-03,2.11E-02
71618,5.31E-03,2.08E-02
71619,5.30E-03,2.15E-02
71620,5.28E-03,2.13E-02
71621,5.43E-03,2.20E-02
71622,5.35E-03,2.17E-02
71623,5.59E-03,2.27E-02
71624,5.51E-03,2.23E-02
71625,6.25E-03,2.32E-02
71626,5.88E-03,2.30E-02
71627,4.55E-03,2.37E-02
71628,5.66E-03,2.34E-02
71629,5.91E-03,2.43E-02
71630,5.59E-03,2.38E-02
71631,5.34E-03,2.49E-02
71632,5.42E-03,9.71E-03
71633,6.73E-03,9.21E-03
71634,5.66E-03,8.53E-03
71635,5.57E-03,1.51E-02
71636,5.55E-03,1.55E-02
71637,5.67E-03,7.34E-03
71638,5.70E-03,1.29E-03
71639,6.92E-03,9.49E-03
71640,6.09E-03,6.67E-03
71641,5.23E-03,9.26E-03
71642,5.20E-03,9.29E-03
71643,5.47E-03,9.09E-03
71644,4.95E-03,7.70E-03
71645,4.86E-03,7.54E-03
71646,5.40E-03,9.18E-03
71647,4.23E-03,9.10E-03
71648,5.64E-03,1.48E-02
71649,5.89E-03,9.58E-03
71650,7.03E-03,9.41E-03
71651,5.66E-03,9.01E-03
71652,5.55E-03,8.64E-03
71653,5.52E-03,8.82E-03
71654,6.03E-03,1.13E-03
71655,5.04E-03,9.79E-04
71656,4.78E-03,8.65E-04
71657,4.33E-03,9.76E-04
71658,4.79E-03,8.31E-04
71659,6.18E-03,6.35E-03
71660,6.28E-03,6.32E-03
71661,6.03E-03,9.24E-03
71662,5.70E-03,7.00E-03
71663,5.83E-03,6.62E-03
71664,6.29E-03,7.10E-03
71665,7.38E-03,7.14E-03
71666,5.18E-03,9.20E-03
71667,4.76E-03,6.73E-03
71668,5.01E-03,6.45E-03
71669,4.83E-03,6.59E-03
71670,4.71E-03,6.98E-03
71671,4.71E-03,6.86E-03
71672,5.26E-03,9.28E-03
71673,5.43E-03,1.25E-03
71674,5.10E-03,1.11E-03
71675,5.53E-03,1.59E-03
71676,5.48E-03,1.40E-03
71677,5.60E-03,2.01E-03
71678,5.47E-03,1.80E-03
71679,5.75E-03,2.45E-03
71680,5.69E-03,2.23E-03
71681,5.65E-03,2.89E-03
71682,5.70E-03,2.67E-03
71683,5.41E-03,3.37E-03
71684,5.52E-03,3.13E-03
71685,5.39E-03,3.81E-03
71686,5.42E-03,3.60E-03
71687,5.38E-03,4.23E-03
71688,5.37E-03,4.02E-03
71689,5.48E-03,4.64E-03
71690,5.40E-03,4.43E-03
71691,5.72E-03,5.05E-03
71692,5.59E-03,4.84E-03
71693,5.72E-03,5.43E-03
71694,5.72E-03,5.24E-03
71695,5.54E-03,5.80E-03
71696,5.63E-03,5.62E-03
71697,5.29E-03,6.14E-03
71698,5.41E-03,5.98E-03
71699,5.09E-03,6.30E-03
71700,4.85E-03,9.00E-03
71701,5.31E-03,9.04E-03
71702,5.14E-03,8.91E-03
71703,4.99E-03,8.95E-03
71704,5.36E-03,8.81E-03
71705,5.33E-03,8.86E-03
71706,5.46E-03,8.71E-03
71707,5.42E-03,8.76E-03
71708,5.53E-03,8.59E-03
71709,5.47E-03,8.65E-03
71710,5.50E-03,8.47E-03
71711,5.50E-03,8.53E-03
71712,5.41E-03,8.34E-03
71713,5.39E-03,8.41E-03
71714,5.43E-03,8.19E-03
71715,5.34E-03,8.27E-03
71716,4.62E-03,8.02E-03
71717,5.20E-03,8.10E-03
71718,6.54E-03,7.91E-03
71719,4.96E-03,7.67E-03
71720,4.88E-03,7.41E-03
71721,5.95E-03,6.42E-03
71722,6.12E-03,6.39E-03
71723,5.83E-03,6.49E-03
71724,5.91E-03,6.45E-03
71725,5.67E-03,6.57E-03
71726,5.78E-03,6.53E-03
71727,5.62E-03,6.65E-03
71728,5.62E-03,6.61E-03
71729,5.65E-03,6.72E-03
71730,5.61E-03,6.68E-03
71731,5.60E-03,6.79E-03
71732,5.61E-03,6.75E-03
71733,5.56E-03,6.85E-03
71734,5.56E-03,6.81E-03
71735,5.59E-03,6.91E-03
71736,5.59E-03,6.88E-03
71737,5.66E-03,6.97E-03
71738,5.64E-03,6.94E-03
71739,5.72E-03,7.01E-03
71740,5.67E-03,6.99E-03
71741,5.84E-03,7.05E-03
71742,5.98E-03,7.07E-03
71743,5.77E-03,7.03E-03
71744,4.83E-03,7.21E-03
71745,4.80E-03,7.10E-03
71746,5.08E-03,7.44E-03
71747,4.98E-03,7.33E-03
71748,5.30E-03,7.66E-03
71749,5.18E-03,7.55E-03
71750,4.88E-03,7.84E-03
71751,5.12E-03,7.75E-03
71752,5.12E-03,8.04E-03
71753,4.90E-03,7.96E-03
71754,5.36E-03,8.20E-03
71755,5.27E-03,8.12E-03
71756,5.31E-03,8.37E-03
71757,5.35E-03,8.28E-03
71758,5.21E-03,8.52E-03
71759,5.23E-03,8.45E-03
71760,5.23E-03,8.68E-03
71761,5.19E-03,8.60E-03
71762,5.29E-03,8.82E-03
71763,5.26E-03,8.75E-03
71764,5.32E-03,8.94E-03
71765,5.35E-03,8.88E-03
71766,5.35E-03,9.06E-03
71767,5.36E-03,9.01E-03
71768,5.44E-03,9.12E-03
71769,5.47E-03,2.47E-02
71770,5.46E-03,2.50E-02
71771,4.92E-03,2.38E-02
71772,4.77E-03,2.43E-02
71773,5.53E-03,2.28E-02
71774,5.28E-03,2.33E-02
71775,5.45E-03,2.17E-02
71776,5.53E-03,2.23E-02
71777,5.44E-03,2.06E-02
71778,5.39E-03,2.11E-02
71779,5.56E-03,1.98E-02
71780,5.56E-03,2.02E-02
71781,5.61E-03,1.91E-02
71782,5.61E-03,1.95E-02
71783,5.56E-03,1.84E-02
71784,5.61E-03,1.88E-02
71785,5.53E-03,1.77E-02
71786,5.54E-03,1.81E-02
71787,5.61E-03,1.71E-02
71788,5.55E-03,1.74E-02
71789,5.56E-03,1.64E-02
71790,5.56E-03,1.67E-02
71791,5.55E-03,1.58E-02
71792,5.53E-03,1.61E-02
71793,5.49E-03,1.52E-02
71794,5.53E-03,1.55E-02
71795,5.45E-03,1.47E-02
71796,5.51E-03,1.50E-02
71797,5.42E-03,1.43E-02
71798,5.43E-03,1.45E-02
71799,5.50E-03,1.39E-02
71800,5.43E-03,1.41E-02
71801,5.46E-03,1.35E-02
71802,5.48E-03,1.37E-02
71803,5.31E-03,1.32E-02
71804,5.43E-03,1.33E-02
71805,5.28E-03,1.29E-02
71806,5.27E-03,1.30E-02
71807,5.35E-03,1.26E-02
71808,5.34E-03,1.28E-02
71809,5.34E-03,1.24E-02
71810,5.38E-03,1.25E-02
71811,5.35E-03,1.21E-02
71812,5.34E-03,1.22E-02
71813,5.30E-03,1.19E-02
71814,5.30E-03,1.20E-02
71815,5.35E-03,1.17E-02
71816,5.33E-03,1.18E-02
71817,5.43E-03,1.15E-02
71818,5.38E-03,1.16E-02
71819,5.47E-03,1.13E-02
71820,5.43E-03,1.14E-02
71821,5.59E-03,1.12E-02
71822,5.58E-03,1.13E-02
71823,5.63E-03,1.10E-02
71824,5.63E-03,1.11E-02
71825,5.72E-03,1.08E-02
71826,5.72E-03,1.09E-02
71827,5.73E-03,1.06E-02
71828,5.75E-03,1.07E-02
71829,5.61E-03,1.04E-02
71830,5.66E-03,1.05E-02
71831,5.55E-03,1.02E-02
71832,5.55E-03,1.03E-02
71833,5.66E-03,1.00E-02
71834,5.65E-03,1.01E-02
71835,5.65E-03,9.84E-03
71836,5.63E-03,9.93E-03
71837,5.50E-03,9.66E-03
71838,5.58E-03,9.75E-03
71839,5.49E-03,9.49E-03
71840,5.48E-03,9.57E-03
71841,5.55E-03,9.34E-03
71842,5.42E-03,9.42E-03
71843,5.74E-03,9.21E-03
71844,5.69E-03,9.28E-03
71845,5.91E-03,9.09E-03
71846,5.79E-03,9.15E-03
71847,5.99E-03,8.98E-03
71848,5.94E-03,9.03E-03
71849,5.94E-03,8.86E-03
71850,5.99E-03,8.92E-03
71851,5.79E-03,8.74E-03
71852,5.86E-03,8.81E-03
71853,5.54E-03,8.62E-03
71854,5.68E-03,8.68E-03
71855,5.33E-03,8.51E-03
71856,5.47E-03,8.56E-03
71857,5.25E-03,8.42E-03
71858,5.27E-03,8.46E-03
71859,5.26E-03,8.35E-03
71860,5.26E-03,8.38E-03
71861,5.32E-03,8.29E-03
71862,5.31E-03,8.32E-03
71863,5.39E-03,8.25E-03
71864,5.34E-03,8.27E-03
71865,5.27E-03,8.21E-03
71866,5.35E-03,8.23E-03
71867,5.10E-03,8.19E-03
71868,5.22E-03,8.20E-03
71869,4.93E-03,8.18E-03
71870,5.02E-03,8.18E-03
71871,4.82E-03,8.21E-03
71872,4.86E-03,8.19E-03
71873,4.80E-03,8.25E-03
71874,4.77E-03,8.22E-03
71875,4.96E-03,8.30E-03
71876,4.85E-03,8.27E-03
71877,5.23E-03,8.39E-03
71878,5.11E-03,8.34E-03
71879,5.54E-03,8.49E-03
71880,5.37E-03,8.44E-03
71881,5.80E-03,8.60E-03
71882,5.65E-03,8.54E-03
71883,5.94E-03,8.71E-03
71884,5.90E-03,8.66E-03
71885,5.90E-03,8.83E-03
71886,5.96E-03,8.77E-03
71887,5.79E-03,8.95E-03
71888,5.82E-03,8.89E-03
71889,5.60E-03,9.08E-03
71890,5.67E-03,9.01E-03
71891,5.47E-03,9.20E-03
71892,5.49E-03,9.14E-03
71893,5.39E-03,9.33E-03
71894,5.40E-03,9.27E-03
71895,5.37E-03,9.47E-03
71896,5.38E-03,9.40E-03
71897,5.34E-03,9.60E-03
71898,5.37E-03,9.54E-03
71899,4.90E-03,9.74E-03
71900,5.29E-03,9.67E-03
71901,4.85E-03,9.85E-03
71902,4.85E-03,9.80E-03
71903,4.77E-03,9.96E-03
71904,4.79E-03,9.90E-03
71905,4.79E-03,1.01E-02
71906,4.78E-03,1.00E-02
71907,5.10E-03,1.01E-02
71908,4.98E-03,1.01E-02
71909,5.47E-03,1.01E-02
71910,5.29E-03,1.01E-02
71911,5.38E-03,1.01E-02
71912,5.54E-03,1.01E-02
71913,4.66E-03,1.01E-02
71914,5.10E-03,1.01E-02
71915,4.38E-03,9.97E-03
71916,4.65E-03,1.00E-02
71917,4.50E-03,9.69E-03
71918,4.30E-03,9.87E-03
71919,3.87E-03,9.40E-03
71920,4.74E-03,9.51E-03
71921,4.55E-03,8.97E-03
71922,3.62E-03,9.20E-03
71923,4.85E-03,8.36E-03
71924,4.80E-03,8.67E-03
71925,5.14E-03,7.72E-03
71926,4.95E-03,8.05E-03
71927,5.36E-03,7.36E-03
71928,6.01E-03,7.39E-04
71929,5.39E-03,6.35E-04
71930,5.58E-03,8.48E-04
71931,4.88E-03,1.19E-03
71932,5.28E-03,1.43E-03
71933,4.95E-03,1.30E-03
71934,4.75E-03,1.72E-03
71935,5.19E-03,1.56E-03
71936,5.32E-03,2.13E-03
71937,5.19E-03,1.93E-03
71938,5.67E-03,2.58E-03
71939,5.59E-03,2.34E-03
71940,5.69E-03,3.12E-03
71941,5.67E-03,2.84E-03
71942,5.66E-03,3.69E-03
71943,5.64E-03,3.41E-03
71944,5.61E-03,4.14E-03
71945,5.61E-03,3.93E-03
71946,5.49E-03,4.62E-03
71947,5.54E-03,4.37E-03
71948,5.41E-03,4.99E-03
71949,5.45E-03,4.83E-03
71950,5.32E-03,5.37E-03
71951,5.34E-03,5.15E-03
71952,5.41E-03,5.81E-03
71953,5.35E-03,5.62E-03
71954,5.38E-03,6.26E-03
71955,5.40E-03,6.00E-03
71956,5.38E-03,6.66E-03
71957,5.37E-03,6.49E-03
71958,5.31E-03,7.11E-03
71959,5.37E-03,6.86E-03
71960,4.75E-03,7.32E-03
71961,5.16E-03,7.27E-03
71962,4.59E-03,7.74E-03
71963,4.37E-03,7.47E-03
71964,5.17E-03,7.95E-03
71965,4.90E-03,7.88E-03
71966,5.32E-03,8.13E-03
71967,5.34E-03,8.03E-03
71968,5.37E-03,8.34E-03
71969,5.37E-03,8.24E-03
71970,5.45E-03,8.52E-03
71971,5.36E-03,8.44E-03
71972,5.61E-03,8.70E-03
71973,5.55E-03,8.61E-03
71974,5.64E-03,8.90E-03
71975,5.63E-03,8.80E-03
71976,5.59E-03,9.10E-03
71977,5.62E-03,9.00E-03
71978,5.58E-03,9.28E-03
71979,5.62E-03,9.19E-03
71980,5.56E-03,9.47E-03
71981,5.58E-03,9.37E-03
71982,5.51E-03,9.66E-03
71983,5.53E-03,9.56E-03
71984,5.51E-03,9.87E-03
71985,5.51E-03,9.76E-03
71986,5.45E-03,1.01E-02
71987,5.46E-03,9.98E-03
71988,5.42E-03,1.03E-02
71989,5.45E-03,1.02E-02
71990,5.33E-03,1.04E-02
71991,5.41E-03,1.03E-02
71992,5.44E-03,1.05E-02
71993,5.39E-03,1.04E-02
71994,5.59E-03,1.05E-02
71995,5.54E-03,1.05E-02
71996,5.71E-03,1.05E-02
71997,5.63E-03,1.05E-02
71998,5.80E-03,1.06E-02
71999,5.76E-03,1.05E-02
72000,5.86E-03,1.07E-02
72001,5.81E-03,1.06E-02
72002,5.91E-03,1.09E-02
72003,5.92E-03,1.08E-02
72004,5.85E-03,1.12E-02
72005,5.91E-03,1.10E-02
72006,5.76E-03,1.14E-02
72007,5.83E-03,1.13E-02
72008,5.69E-03,1.17E-02
72009,5.73E-03,1.16E-02
72010,5.54E-03,1.19E-02
72011,5.57E-03,1.18E-02
72012,5.39E-03,1.20E-02
72013,5.46E-03,1.20E-02
72014,5.38E-03,1.22E-02
72015,5.31E-03,1.21E-02
72016,5.44E-03,1.23E-02
72017,5.46E-03,1.22E-02
72018,5.30E-03,1.24E-02
72019,5.39E-03,1.23E-02
72020,5.20E-03,1.26E-02
72021,5.28E-03,1.25E-02
72022,5.34E-03,1.28E-02
72023,5.29E-03,1.27E-02
72024,5.46E-03,1.31E-02
72025,5.45E-03,1.29E-02
72026,5.44E-03,1.34E-02
72027,5.45E-03,1.32E-02
72028,5.53E-03,1.38E-02
72029,5.51E-03,1.36E-02
72030,5.61E-03,1.42E-02
72031,5.58E-03,1.40E-02
72032,5.67E-03,1.45E-02
72033,5.01E-03,1.58E-02
72034,5.24E-03,1.66E-02
72035,5.14E-03,1.62E-02
72036,4.88E-03,1.73E-02
72037,5.17E-03,1.70E-02
72038,4.83E-03,1.85E-02
72039,4.66E-03,1.78E-02
72040,5.50E-03,1.96E-02
72041,5.19E-03,1.91E-02
72042,5.67E-03,2.04E-02
72043,5.61E-03,2.00E-02
72044,5.58E-03,2.09E-02
72045,5.65E-03,2.07E-02
72046,5.36E-03,2.11E-02
72047,5.48E-03,2.10E-02
72048,5.35E-03,2.10E-02
72049,5.32E-03,2.10E-02
72050,5.38E-03,2.11E-02
72051,5.35E-03,2.10E-02
72052,5.50E-03,2.18E-02
72053,5.43E-03,2.14E-02
72054,5.68E-03,2.30E-02
72055,5.60E-03,2.24E-02
72056,5.81E-03,2.43E-02
72057,5.81E-03,2.36E-02
72058,6.35E-03,2.50E-02
72059,5.71E-03,2.47E-02
72060,5.76E-03,2.57E-02
72061,6.31E-03,2.52E-02
72062,5.84E-03,2.58E-02
72063,5.83E-03,2.59E-02
72064,5.02E-03,2.57E-02
72065,5.44E-03,2.58E-02
72066,5.90E-03,2.52E-02
72067,5.12E-03,2.55E-02
72068,5.87E-03,2.53E-02
72069,6.30E-03,9.60E-03
72070,6.21E-03,9.24E-03
72071,5.19E-03,8.70E-03
72072,6.09E-03,7.06E-04
72073,4.14E-03,5.39E-04
72074,6.12E-03,6.29E-03
72075,4.83E-03,1.54E-02
72076,6.40E-03,9.41E-03
72077,5.53E-03,8.81E-03
72078,5.33E-03,9.03E-03
72079,5.09E-03,9.00E-03
72080,5.90E-03,9.41E-03
72081,5.62E-03,1.50E-02
72082,5.89E-03,6.23E-03
72083,6.87E-03,7.21E-03
72084,5.07E-03,9.15E-03
72085,5.78E-03,5.65E-04
72086,5.37E-03,9.23E-03
72087,5.25E-03,9.21E-03
72088,4.29E-03,2.54E-02
72089,5.41E-03,8.85E-03
72090,5.65E-03,9.25E-03
72091,6.62E-03,9.39E-03
72092,5.80E-03,2.54E-02
72093,5.41E-03,2.59E-02
72094,5.64E-03,2.56E-02
72095,5.50E-03,2.66E-02
72096,5.38E-03,2.62E-02
72097,5.71E-03,2.75E-02
72098,5.62E-03,2.70E-02
72099,5.85E-03,2.76E-02
72100,5.78E-03,2.77E-02
72101,5.82E-03,2.64E-02
72102,5.84E-03,2.73E-02
72103,5.76E-03,2.42E-02
72104,5.73E-03,2.54E-02
72105,5.68E-03,2.21E-02
72106,5.68E-03,2.31E-02
72107,5.53E-03,2.06E-02
72108,5.55E-03,2.13E-02
72109,5.42E-03,2.02E-02
72110,5.45E-03,2.02E-02
72111,5.33E-03,2.11E-02
72112,5.40E-03,2.05E-02
72113,5.40E-03,2.23E-02
72114,5.33E-03,2.18E-02
72115,5.47E-03,2.24E-02
72116,5.43E-03,2.25E-02
72117,5.51E-03,2.14E-02
72118,5.56E-03,2.20E-02
72119,5.35E-03,1.96E-02
72120,5.55E-03,2.05E-02
72121,5.05E-03,1.79E-02
72122,5.13E-03,1.87E-02
72123,5.16E-03,1.68E-02
72124,5.14E-03,1.72E-02
72125,5.11E-03,1.60E-02
72126,5.21E-03,1.64E-02
72127,5.66E-03,1.44E-02
72128,6.01E-03,1.47E-02
72129,5.59E-03,1.39E-02
72130,5.63E-03,1.41E-02
72131,5.54E-03,1.34E-02
72132,5.57E-03,1.36E-02
72133,5.46E-03,1.31E-02
72134,5.48E-03,1.33E-02
72135,5.39E-03,1.27E-02
72136,5.45E-03,1.29E-02
72137,5.33E-03,1.25E-02
72138,5.35E-03,1.26E-02
72139,5.37E-03,1.23E-02
72140,5.32E-03,1.24E-02
72141,5.42E-03,1.22E-02
72142,5.40E-03,1.22E-02
72143,5.42E-03,1.21E-02
72144,5.46E-03,1.21E-02
72145,5.39E-03,1.20E-02
72146,5.39E-03,1.21E-02
72147,5.44E-03,1.19E-02
72148,5.37E-03,1.19E-02
72149,5.54E-03,1.17E-02
72150,5.51E-03,1.18E-02
72151,5.65E-03,1.15E-02
72152,5.61E-03,1.16E-02
72153,5.70E-03,1.13E-02
72154,5.69E-03,1.14E-02
72155,5.78E-03,1.10E-02
72156,5.71E-03,1.12E-02
72157,5.78E-03,1.08E-02
72158,5.78E-03,1.09E-02
72159,5.81E-03,1.06E-02
72160,5.81E-03,1.07E-02
72161,5.75E-03,1.06E-02
72162,5.78E-03,1.06E-02
72163,5.63E-03,1.06E-02
72164,5.71E-03,1.05E-02
72165,5.49E-03,1.06E-02
72166,5.58E-03,1.06E-02
72167,5.39E-03,1.05E-02
72168,5.45E-03,1.06E-02
72169,5.36E-03,1.04E-02
72170,5.34E-03,1.05E-02
72171,5.44E-03,1.02E-02
72172,5.38E-03,1.03E-02
72173,5.40E-03,1.00E-02
72174,5.42E-03,1.01E-02
72175,5.52E-03,9.80E-03
72176,5.47E-03,9.92E-03
72177,5.53E-03,9.60E-03
72178,5.48E-03,9.70E-03
72179,5.56E-03,9.43E-03
72180,5.56E-03,9.52E-03
72181,5.57E-03,9.27E-03
72182,5.55E-03,9.35E-03
72183,5.60E-03,9.09E-03
72184,5.56E-03,9.19E-03
72185,5.60E-03,8.89E-03
72186,5.62E-03,8.99E-03
72187,5.57E-03,8.71E-03
72188,5.56E-03,8.79E-03
72189,5.45E-03,8.56E-03
72190,5.50E-03,8.64E-03
72191,5.42E-03,8.34E-03
72192,5.45E-03,8.45E-03
72193,5.35E-03,8.09E-03
72194,5.37E-03,8.22E-03
72195,5.23E-03,7.93E-03
72196,5.26E-03,8.01E-03
72197,4.62E-03,7.75E-03
72198,5.03E-03,7.85E-03
72199,5.21E-03,7.42E-03
72200,5.05E-03,7.63E-03
72201,5.39E-03,6.98E-03
72202,5.32E-03,7.22E-03
72203,5.45E-03,6.50E-03
72204,5.44E-03,6.73E-03
72205,5.39E-03,6.02E-03
72206,5.40E-03,6.26E-03
72207,5.45E-03,5.54E-03
72208,5.41E-03,5.77E-03
72209,5.42E-03,5.07E-03
72210,5.43E-03,5.30E-03
72211,5.48E-03,4.68E-03
72212,5.47E-03,4.85E-03
72213,5.44E-03,4.50E-03
72214,5.43E-03,4.59E-03
72215,5.47E-03,4.02E-03
72216,5.44E-03,4.32E-03
72217,5.59E-03,3.32E-03
72218,5.58E-03,3.67E-03
72219,5.65E-03,2.69E-03
72220,5.62E-03,2.99E-03
72221,5.50E-03,2.17E-03
72222,5.63E-03,2.42E-03
72223,5.24E-03,1.71E-03
72224,5.41E-03,1.94E-03
72225,5.18E-03,1.36E-03
72226,5.25E-03,1.52E-03
72227,5.15E-03,1.14E-03
72228,5.17E-03,1.25E-03
72229,5.53E-03,9.06E-04
72230,5.29E-03,1.03E-03
72231,5.79E-03,6.97E-04
72232,5.65E-03,7.98E-04
72233,4.88E-03,5.18E-04
72234,5.52E-03,5.88E-04
72235,4.16E-03,4.38E-04
72236,4.05E-03,4.69E-04
72237,5.55E-03,7.36E-03
72238,5.80E-03,6.58E-03
72239,5.74E-03,6.97E-03
72240,5.20E-03,8.10E-03
72241,5.41E-03,7.73E-03
72242,4.95E-03,8.77E-03
72243,5.09E-03,8.44E-03
72244,4.68E-03,9.33E-03
72245,4.72E-03,9.04E-03
72246,4.69E-03,9.78E-03
72247,4.43E-03,9.58E-03
72248,4.73E-03,1.01E-02
72249,4.81E-03,9.93E-03
72250,4.85E-03,1.02E-02
72251,4.77E-03,1.02E-02
72252,5.19E-03,1.03E-02
72253,5.00E-03,1.03E-02
72254,5.49E-03,1.03E-02
72255,5.38E-03,1.03E-02
72256,5.39E-03,1.03E-02
72257,5.45E-03,1.03E-02
72258,5.15E-03,1.02E-02
72259,5.23E-03,1.02E-02
72260,5.03E-03,1.01E-02
72261,5.08E-03,1.02E-02
72262,5.03E-03,9.99E-03
72263,5.02E-03,1.00E-02
72264,5.10E-03,9.85E-03
72265,5.07E-03,9.92E-03
72266,5.32E-03,9.71E-03
72267,5.19E-03,9.78E-03
72268,5.44E-03,9.56E-03
72269,5.38E-03,9.64E-03
72270,5.35E-03,9.41E-03
72271,5.40E-03,9.49E-03
72272,5.39E-03,9.27E-03
72273,5.37E-03,9.34E-03
72274,5.48E-03,9.13E-03
72275,5.42E-03,9.20E-03
72276,5.61E-03,9.00E-03
72277,5.57E-03,9.06E-03
72278,5.72E-03,8.86E-03
72279,5.66E-03,8.93E-03
72280,5.85E-03,8.74E-03
72281,5.79E-03,8.80E-03
72282,5.82E-03,8.61E-03
72283,5.84E-03,8.67E-03
72284,5.63E-03,8.49E-03
72285,5.76E-03,8.55E-03
72286,5.47E-03,8.37E-03
72287,5.59E-03,8.43E-03
72288,5.33E-03,8.27E-03
72289,5.41E-03,8.32E-03
72290,5.18E-03,8.19E-03
72291,5.27E-03,8.23E-03
72292,5.06E-03,8.14E-03
72293,5.12E-03,8.16E-03
72294,5.13E-03,8.11E-03
72295,5.09E-03,8.12E-03
72296,5.24E-03,8.10E-03
72297,5.12E-03,8.10E-03
72298,5.30E-03,8.11E-03
72299,5.23E-03,8.10E-03
72300,5.43E-03,8.14E-03
72301,5.37E-03,8.12E-03
72302,5.45E-03,8.18E-03
72303,5.47E-03,8.16E-03
72304,5.42E-03,8.23E-03
72305,5.44E-03,8.20E-03
72306,5.34E-03,8.30E-03
72307,5.39E-03,8.26E-03
72308,5.38E-03,8.38E-03
72309,5.32E-03,8.34E-03
72310,5.44E-03,8.49E-03
72311,5.41E-03,8.43E-03
72312,5.46E-03,8.61E-03
72313,5.42E-03,8.55E-03
72314,5.59E-03,8.73E-03
72315,5.49E-03,8.67E-03
72316,5.82E-03,8.84E-03
72317,5.72E-03,8.79E-03
72318,5.89E-03,8.94E-03
72319,5.91E-03,8.89E-03
72320,5.80E-03,9.05E-03
72321,5.85E-03,8.99E-03
72322,5.67E-03,9.18E-03
72323,5.72E-03,9.11E-03
72324,5.49E-03,9.32E-03
72325,5.55E-03,9.25E-03
72326,5.51E-03,9.47E-03
72327,5.53E-03,9.39E-03
72328,5.56E-03,9.64E-03
72329,5.51E-03,9.56E-03
72330,5.61E-03,9.82E-03
72331,5.61E-03,9.73E-03
72332,5.63E-03,1.00E-02
72333,5.64E-03,9.92E-03
72334,5.56E-03,1.02E-02
72335,5.54E-03,1.01E-02
72336,5.63E-03,1.04E-02
72337,5.60E-03,1.03E-02
72338,5.71E-03,1.06E-02
72339,5.69E-03,1.05E-02
72340,5.62E-03,1.07E-02
72341,5.66E-03,1.07E-02
72342,5.60E-03,1.09E-02
72343,5.59E-03,1.08E-02
72344,5.54E-03,1.11E-02
72345,5.54E-03,1.10E-02
72346,5.45E-03,1.13E-02
72347,5.47E-03,1.12E-02
72348,5.35E-03,1.14E-02
72349,5.43E-03,1.14E-02
72350,5.32E-03,1.16E-02
72351,5.32E-03,1.15E-02
72352,5.29E-03,1.18E-02
72353,5.35E-03,1.17E-02
72354,5.37E-03,1.21E-02
72355,5.35E-03,1.19E-02
72356,5.43E-03,1.23E-02
72357,5.38E-03,1.22E-02
72358,5.40E-03,1.26E-02
72359,5.45E-03,1.24E-02
72360,5.36E-03,1.28E-02
72361,5.35E-03,1.27E-02
72362,5.43E-03,1.32E-02
72363,5.37E-03,1.30E-02
72364,5.50E-03,1.35E-02
72365,5.50E-03,1.33E-02
72366,5.49E-03,1.39E-02
72367,5.53E-03,1.37E-02
72368,5.46E-03,1.43E-02
72369,5.45E-03,1.41E-02
72370,5.52E-03,1.48E-02
72371,5.47E-03,1.45E-02
72372,5.54E-03,1.53E-02
72373,5.55E-03,1.50E-02
72374,5.48E-03,1.59E-02
72375,5.55E-03,1.56E-02
72376,5.57E-03,1.65E-02
72377,5.55E-03,1.62E-02
72378,5.50E-03,1.71E-02
72379,5.57E-03,1.68E-02
72380,5.49E-03,1.78E-02
72381,5.45E-03,1.74E-02
72382,5.52E-03,1.84E-02
72383,5.50E-03,1.81E-02
72384,5.52E-03,1.91E-02
72385,5.55E-03,1.87E-02
72386,5.54E-03,1.98E-02
72387,5.53E-03,1.94E-02
72388,5.53E-03,2.07E-02
72389,5.52E-03,2.02E-02
72390,5.55E-03,2.17E-02
72391,5.52E-03,2.12E-02
72392,5.32E-03,2.28E-02
72393,5.50E-03,2.22E-02
72394,5.14E-03,2.38E-02
72395,5.16E-03,2.33E-02
72396,4.65E-03,2.46E-02
72397,5.12E-03,2.42E-02
72398,5.68E-03,2.53E-02
72399,4.72E-03,2.50E-02
72400,4.22E-03,2.58E-02
72401,5.57E-03,2.56E-02
72402,5.53E-03,9.12E-03
72403,5.36E-03,9.01E-03
72404,5.39E-03,9.06E-03
72405,5.27E-03,8.89E-03
72406,5.31E-03,8.95E-03
72407,5.22E-03,8.76E-03
72408,5.27E-03,8.82E-03
72409,5.17E-03,8.62E-03
72410,5.19E-03,8.69E-03
72411,5.21E-03,8.48E-03
72412,5.17E-03,8.55E-03
72413,5.30E-03,8.32E-03
72414,5.29E-03,8.40E-03
72415,5.21E-03,8.17E-03
72416,5.26E-03,8.25E-03
72417,4.98E-03,7.99E-03
72418,5.11E-03,8.08E-03
72419,5.05E-03,7.80E-03
72420,5.02E-03,7.89E-03
72421,5.11E-03,7.61E-03
72422,5.14E-03,7.71E-03
72423,4.97E-03,7.39E-03
72424,5.06E-03,7.51E-03
72425,4.86E-03,7.16E-03
72426,4.92E-03,7.28E-03
72427,5.67E-03,6.89E-03
72428,5.91E-03,6.94E-03
72429,5.74E-03,6.91E-03
72430,5.62E-03,6.82E-03
72431,5.66E-03,6.86E-03
72432,5.60E-03,6.77E-03
72433,5.63E-03,6.79E-03
72434,5.54E-03,6.70E-03
72435,5.53E-03,6.73E-03
72436,5.52E-03,6.62E-03
72437,5.53E-03,6.66E-03
72438,5.54E-03,6.53E-03
72439,5.53E-03,6.58E-03
72440,5.50E-03,6.45E-03
72441,5.54E-03,6.49E-03
72442,5.58E-03,6.35E-03
72443,5.53E-03,6.40E-03
72444,5.69E-03,6.25E-03
72445,5.63E-03,6.30E-03
72446,5.83E-03,6.15E-03
72447,5.73E-03,6.20E-03
72448,5.98E-03,6.04E-03
72449,5.95E-03,6.10E-03
72450,6.02E-03,5.94E-03
72451,6.02E-03,5.99E-03
72452,4.77E-03,1.56E-02
72453,4.81E-03,7.04E-03
72454,6.31E-03,6.97E-03
72455,5.82E-03,6.17E-03
72456,5.90E-03,5.83E-03
72457,5.99E-03,5.89E-03
72458,5.23E-03,7.33E-03
72459,5.13E-03,7.65E-03
72460,6.49E-03,7.85E-03
72461,6.50E-03,7.74E-03
72462,5.27E-03,8.06E-03
72463,5.55E-03,7.96E-03
72464,5.33E-03,8.22E-03
72465,5.33E-03,8.14E-03
72466,5.37E-03,8.37E-03
72467,5.35E-03,8.29E-03
72468,5.38E-03,8.50E-03
72469,5.38E-03,8.43E-03
72470,5.39E-03,8.62E-03
72471,5.38E-03,8.56E-03
72472,5.37E-03,8.74E-03
72473,5.38E-03,8.68E-03
72474,5.26E-03,8.85E-03
72475,5.33E-03,8.80E-03
72476,5.04E-03,8.95E-03
72477,5.15E-03,8.90E-03
72478,5.00E-03,9.05E-03
72479,5.03E-03,9.00E-03
72480,5.02E-03,9.10E-03
72481,5.19E-03,6.36E-03
72482,5.42E-03,6.04E-03
72483,5.32E-03,6.20E-03
72484,5.67E-03,5.69E-03
72485,5.53E-03,5.87E-03
72486,5.66E-03,5.31E-03
72487,5.66E-03,5.50E-03
72488,5.61E-03,4.92E-03
72489,5.61E-03,5.12E-03
72490,5.48E-03,4.51E-03
72491,5.50E-03,4.72E-03
72492,5.46E-03,4.09E-03
72493,5.43E-03,4.30E-03
72494,5.47E-03,3.66E-03
72495,5.46E-03,3.88E-03
72496,5.52E-03,3.20E-03
72497,5.46E-03,3.43E-03
72498,5.63E-03,2.74E-03
72499,5.62E-03,2.97E-03
72500,5.61E-03,2.31E-03
72501,5.65E-03,2.53E-03
72502,5.52E-03,1.89E-03
72503,5.59E-03,2.10E-03
72504,5.47E-03,1.50E-03
72505,5.53E-03,1.68E-03
72506,5.13E-03,1.18E-03
72507,5.34E-03,1.33E-03
72508,5.29E-03,8.71E-04
72509,5.08E-03,1.03E-03
72510,6.03E-03,4.18E-04
72511,6.74E-03,6.20E-04
72512,5.68E-03,7.50E-04
72513,6.31E-03,3.64E-04
72514,6.42E-03,5.00E-04
72515,5.88E-03,3.33E-04
72516,3.48E-03,2.20E-04
72517,5.39E-03,2.58E-04
72518,5.48E-03,9.17E-03
72519,5.32E-03,9.22E-03
72520,4.00E-03,1.53E-02
72521,4.79E-03,6.92E-03
72522,5.05E-03,6.51E-03
72523,4.72E-03,9.16E-03
72524,7.30E-03,6.99E-03
72525,5.78E-03,5.76E-03
72526,3.72E-03,1.49E-02
72527,4.95E-03,6.65E-03
72528,5.82E-03,9.16E-03
72529,3.38E-03,1.02E-04
72530,2.76E-03,1.51E-04
72531,2.49E-03,2.25E-04
72532,3.66E-03,2.79E-04
72533,5.72E-03,3.73E-04
72534,6.13E-03,4.67E-04
72535,5.42E-03,5.91E-04
72536,5.93E-03,6.93E-04
72537,5.76E-03,8.05E-04
72538,5.42E-03,9.37E-04
72539,5.25E-03,1.08E-03
72540,5.27E-03,1.24E-03
72541,5.36E-03,1.40E-03
72542,5.46E-03,1.57E-03
72543,5.51E-03,1.76E-03
72544,5.53E-03,1.96E-03
72545,5.57E-03,2.17E-03
72546,5.56E-03,2.38E-03
72547,5.57E-03,2.59E-03
72548,5.58E-03,2.82E-03
72549,5.57E-03,3.04E-03
72550,5.56E-03,3.27E-03
72551,5.54E-03,3.50E-03
72552,5.50E-03,3.73E-03
72553,5.50E-03,3.95E-03
72554,5.50E-03,4.16E-03
72555,5.47E-03,4.38E-03
72556,5.50E-03,4.59E-03
72557,5.52E-03,4.80E-03
72558,5.56E-03,5.00E-03
72559,5.57E-03,5.19E-03
72560,5.59E-03,5.38E-03
72561,5.63E-03,5.57E-03
72562,5.63E-03,5.75E-03
72563,5.54E-03,5.93E-03
72564,5.50E-03,6.10E-03
72565,5.43E-03,6.26E-03
72566,5.28E-03,6.41E-03
72567,5.11E-03,6.56E-03
72568,4.99E-03,6.70E-03
72569,4.43E-03,9.10E-03
72570,4.87E-03,9.05E-03
72571,5.00E-03,9.01E-03
72572,5.08E-03,8.95E-03
72573,5.16E-03,8.90E-03
72574,5.25E-03,8.84E-03
72575,5.30E-03,8.78E-03
72576,5.32E-03,8.72E-03
72577,5.32E-03,8.66E-03
72578,5.32E-03,8.60E-03
72579,5.32E-03,8.53E-03
72580,5.32E-03,8.47E-03
72581,5.32E-03,8.40E-03
72582,5.31E-03,8.33E-03
72583,5.29E-03,8.25E-03
72584,5.26E-03,8.17E-03
72585,5.25E-03,8.09E-03
72586,5.33E-03,8.00E-03
72587,5.65E-03,7.90E-03
72588,5.88E-03,7.81E-03
72589,5.82E-03,7.71E-03
72590,5.32E-03,7.62E-03
72591,4.86E-03,7.51E-03
72592,4.82E-03,7.40E-03
72593,5.46E-03,7.28E-03
72594,7.23E-03,7.14E-03
72595,7.51E-03,6.99E-03
72596,5.77E-03,5.36E-03
72597,5.89E-03,5.43E-03
72598,5.93E-03,5.50E-03
72599,5.91E-03,5.56E-03
72600,5.90E-03,5.63E-03
72601,5.85E-03,5.70E-03
72602,5.79E-03,5.77E-03
72603,5.71E-03,5.84E-03
72604,5.71E-03,5.90E-03
72605,5.65E-03,5.97E-03
72606,5.56E-03,6.03E-03
72607,5.50E-03,6.09E-03
72608,5.50E-03,6.15E-03
72609,5.46E-03,6.21E-03
72610,5.44E-03,6.26E-03
72611,5.45E-03,6.32E-03
72612,5.42E-03,6.37E-03
72613,5.44E-03,6.42E-03
72614,5.47E-03,6.47E-03
72615,5.51E-03,6.51E-03
72616,5.55E-03,6.55E-03
72617,5.57E-03,6.58E-03
72618,5.53E-03,6.62E-03
72619,5.53E-03,6.65E-03
72620,5.54E-03,6.69E-03
72621,5.54E-03,6.73E-03
72622,5.60E-03,6.77E-03
72623,5.70E-03,6.80E-03
72624,5.98E-03,6.82E-03
72625,6.10E-03,6.83E-03
72626,5.67E-03,6.84E-03
72627,4.90E-03,6.97E-03
72628,4.92E-03,7.09E-03
72629,4.95E-03,7.22E-03
72630,4.95E-03,7.34E-03
72631,4.96E-03,7.46E-03
72632,4.99E-03,7.57E-03
72633,5.01E-03,7.67E-03
72634,5.02E-03,7.76E-03
72635,5.01E-03,7.85E-03
72636,5.00E-03,7.95E-03
72637,4.98E-03,8.04E-03
72638,5.05E-03,8.13E-03
72639,5.14E-03,8.21E-03
72640,5.21E-03,8.29E-03
72641,5.24E-03,8.36E-03
72642,5.22E-03,8.43E-03
72643,5.19E-03,8.51E-03
72644,5.18E-03,8.57E-03
72645,5.14E-03,8.64E-03
72646,5.12E-03,8.71E-03
72647,5.12E-03,8.77E-03
72648,5.17E-03,8.83E-03
72649,5.20E-03,8.89E-03
72650,5.24E-03,8.95E-03
72651,5.35E-03,9.01E-03
72652,5.46E-03,9.06E-03
72653,5.88E-03,9.11E-03
72654,4.65E-03,2.57E-02
72655,5.39E-03,2.54E-02
72656,5.53E-03,2.50E-02
72657,5.24E-03,2.46E-02
72658,5.06E-03,2.42E-02
72659,5.11E-03,2.38E-02
72660,5.27E-03,2.33E-02
72661,5.37E-03,2.28E-02
72662,5.46E-03,2.23E-02
72663,5.55E-03,2.17E-02
72664,5.56E-03,2.12E-02
72665,5.55E-03,2.07E-02
72666,5.55E-03,2.02E-02
72667,5.52E-03,1.98E-02
72668,5.54E-03,1.94E-02
72669,5.58E-03,1.91E-02
72670,5.55E-03,1.87E-02
72671,5.49E-03,1.84E-02
72672,5.43E-03,1.80E-02
72673,5.44E-03,1.77E-02
72674,5.45E-03,1.74E-02
72675,5.47E-03,1.71E-02
72676,5.49E-03,1.68E-02
72677,5.53E-03,1.65E-02
72678,5.56E-03,1.62E-02
72679,5.53E-03,1.59E-02
72680,5.50E-03,1.56E-02
72681,5.56E-03,1.53E-02
72682,5.58E-03,1.50E-02
72683,5.61E-03,1.48E-02
72684,5.59E-03,1.45E-02
72685,5.59E-03,1.43E-02
72686,5.51E-03,1.41E-02
72687,5.45E-03,1.39E-02
72688,5.50E-03,1.37E-02
72689,5.55E-03,1.35E-02
72690,5.53E-03,1.33E-02
72691,5.52E-03,1.31E-02
72692,5.49E-03,1.29E-02
72693,5.46E-03,1.28E-02
72694,5.46E-03,1.26E-02
72695,5.46E-03,1.25E-02
72696,5.48E-03,1.23E-02
72697,5.48E-03,1.22E-02
72698,5.46E-03,1.21E-02
72699,5.43E-03,1.20E-02
72700,5.35E-03,1.19E-02
72701,5.37E-03,1.17E-02
72702,5.36E-03,1.16E-02
72703,5.40E-03,1.15E-02
72704,5.43E-03,1.14E-02
72705,5.41E-03,1.14E-02
72706,5.36E-03,1.13E-02
72707,5.38E-03,1.12E-02
72708,5.44E-03,1.11E-02
72709,5.47E-03,1.10E-02
72710,5.52E-03,1.09E-02
72711,5.56E-03,1.08E-02
72712,5.53E-03,1.08E-02
72713,5.48E-03,1.07E-02
72714,5.49E-03,1.06E-02
72715,5.59E-03,1.05E-02
72716,5.62E-03,1.04E-02
72717,5.63E-03,1.03E-02
72718,5.62E-03,1.02E-02
72719,5.58E-03,1.02E-02
72720,5.54E-03,1.01E-02
72721,5.52E-03,9.98E-03
72722,5.56E-03,9.89E-03
72723,5.56E-03,9.80E-03
72724,5.57E-03,9.71E-03
72725,5.55E-03,9.62E-03
72726,5.53E-03,9.53E-03
72727,5.52E-03,9.45E-03
72728,5.50E-03,9.36E-03
72729,5.54E-03,9.28E-03
72730,5.58E-03,9.21E-03
72731,5.62E-03,9.13E-03
72732,5.71E-03,9.07E-03
72733,5.71E-03,9.00E-03
72734,5.80E-03,8.94E-03
72735,5.82E-03,8.89E-03
72736,5.84E-03,8.84E-03
72737,5.86E-03,8.79E-03
72738,5.74E-03,8.75E-03
72739,5.52E-03,8.70E-03
72740,5.29E-03,8.65E-03
72741,5.11E-03,8.60E-03
72742,5.16E-03,8.53E-03
72743,5.35E-03,8.47E-03
72744,5.50E-03,8.40E-03
72745,5.53E-03,8.34E-03
72746,5.49E-03,8.29E-03
72747,5.47E-03,8.24E-03
72748,5.47E-03,8.20E-03
72749,5.51E-03,8.16E-03
72750,5.48E-03,8.13E-03
72751,5.53E-03,8.10E-03
72752,5.53E-03,8.08E-03
72753,5.52E-03,8.06E-03
72754,5.51E-03,8.04E-03
72755,5.50E-03,8.02E-03
72756,5.44E-03,8.01E-03
72757,5.37E-03,8.00E-03
72758,5.37E-03,8.00E-03
72759,5.30E-03,8.01E-03
72760,5.35E-03,8.01E-03
72761,5.40E-03,8.03E-03
72762,5.44E-03,8.05E-03
72763,5.49E-03,8.07E-03
72764,5.52E-03,8.11E-03
72765,5.59E-03,8.15E-03
72766,5.59E-03,8.19E-03
72767,5.64E-03,8.25E-03
72768,5.60E-03,8.31E-03
72769,5.61E-03,8.37E-03
72770,5.64E-03,8.43E-03
72771,5.72E-03,8.50E-03
72772,5.77E-03,8.56E-03
72773,5.78E-03,8.63E-03
72774,5.76E-03,8.70E-03
72775,5.73E-03,8.77E-03
72776,5.67E-03,8.84E-03
72777,5.55E-03,8.91E-03
72778,5.51E-03,8.98E-03
72779,5.48E-03,9.05E-03
72780,5.45E-03,9.12E-03
72781,5.42E-03,9.20E-03
72782,5.41E-03,9.27E-03
72783,5.41E-03,9.35E-03
72784,5.44E-03,9.43E-03
72785,5.49E-03,9.51E-03
72786,5.52E-03,9.60E-03
72787,5.48E-03,9.68E-03
72788,5.46E-03,9.76E-03
72789,5.39E-03,9.84E-03
72790,5.31E-03,9.92E-03
72791,5.26E-03,9.99E-03
72792,5.23E-03,1.01E-02
72793,5.14E-03,1.01E-02
72794,5.15E-03,1.02E-02
72795,5.22E-03,1.03E-02
72796,5.31E-03,1.03E-02
72797,5.39E-03,1.04E-02
72798,5.46E-03,1.04E-02
72799,5.49E-03,1.05E-02
72800,5.50E-03,1.05E-02
72801,5.44E-03,1.05E-02
72802,5.33E-03,1.05E-02
72803,5.20E-03,1.05E-02
72804,5.10E-03,1.05E-02
72805,5.08E-03,1.04E-02
72806,5.11E-03,1.03E-02
72807,5.09E-03,1.02E-02
72808,5.02E-03,1.00E-02
72809,5.00E-03,9.77E-03
72810,4.98E-03,9.49E-03
72811,5.09E-03,9.19E-03
72812,5.18E-03,8.87E-03
72813,5.33E-03,8.52E-03
72814,5.44E-03,8.15E-03
72815,5.58E-03,7.77E-03
72816,5.75E-03,7.36E-03
72817,5.85E-03,6.95E-03
72818,5.88E-03,6.53E-03
72819,5.83E-03,6.11E-03
72820,5.73E-03,5.69E-03
72821,5.63E-03,5.27E-03
72822,3.82E-03,1.32E-04
72823,4.89E-03,1.41E-04
72824,5.73E-03,1.77E-04
72825,5.90E-03,2.10E-04
72826,5.51E-03,2.57E-04
72827,4.98E-03,3.19E-04
72828,4.76E-03,3.54E-04
72829,5.20E-03,3.69E-04
72830,5.84E-03,4.22E-04
72831,5.63E-03,5.33E-04
72832,5.44E-03,6.57E-04
72833,5.49E-03,7.25E-04
72834,5.49E-03,8.23E-04
72835,5.15E-03,9.98E-04
72836,5.13E-03,1.11E-03
72837,5.37E-03,1.14E-03
72838,5.47E-03,1.26E-03
72839,5.45E-03,1.47E-03
72840,5.49E-03,1.72E-03
72841,5.56E-03,1.99E-03
72842,5.61E-03,2.26E-03
72843,5.59E-03,2.55E-03
72844,5.57E-03,2.88E-03
72845,5.57E-03,3.24E-03
72846,5.51E-03,3.66E-03
72847,5.36E-03,4.20E-03
72848,5.06E-03,4.75E-03
72849,5.02E-03,4.84E-03
72850,5.45E-03,4.47E-03
72851,5.69E-03,4.27E-03
72852,5.60E-03,4.57E-03
72853,5.34E-03,5.16E-03
72854,5.40E-03,5.29E-03
72855,5.60E-03,5.25E-03
72856,5.37E-03,5.74E-03
72857,5.27E-03,6.27E-03
72858,5.48E-03,6.20E-03
72859,5.62E-03,6.29E-03
72860,5.42E-03,6.95E-03
72861,5.36E-03,7.31E-03
72862,5.57E-03,7.11E-03
72863,5.51E-03,7.43E-03
72864,5.20E-03,8.30E-03
72865,5.43E-03,8.46E-03
72866,5.80E-03,7.82E-03
72867,5.39E-03,7.68E-03
72868,5.37E-03,7.93E-03
72869,5.43E-03,8.13E-03
72870,5.47E-03,8.35E-03
72871,5.48E-03,8.45E-03
72872,5.48E-03,8.56E-03
72873,5.50E-03,8.70E-03
72874,5.51E-03,8.77E-03
72875,5.56E-03,8.84E-03
72876,5.55E-03,8.88E-03
72877,5.57E-03,8.98E-03
72878,5.58E-03,9.07E-03
72879,5.55E-03,9.18E-03
72880,5.52E-03,9.29E-03
72881,5.51E-03,9.36E-03
72882,5.49E-03,9.42E-03
72883,5.48E-03,9.48E-03
72884,5.47E-03,9.55E-03
72885,5.49E-03,9.63E-03
72886,5.47E-03,9.73E-03
72887,5.45E-03,9.84E-03
72888,5.39E-03,9.95E-03
72889,5.39E-03,1.01E-02
72890,5.36E-03,1.02E-02
72891,5.39E-03,1.03E-02
72892,5.40E-03,1.04E-02
72893,5.39E-03,1.05E-02
72894,5.32E-03,1.06E-02
72895,5.34E-03,1.06E-02
72896,5.42E-03,1.07E-02
72897,5.54E-03,1.07E-02
72898,5.56E-03,1.07E-02
72899,5.65E-03,1.06E-02
72900,5.70E-03,1.06E-02
72901,5.70E-03,1.06E-02
72902,5.75E-03,1.06E-02
72903,5.77E-03,1.07E-02
72904,5.78E-03,1.08E-02
72905,5.76E-03,1.09E-02
72906,5.69E-03,1.10E-02
72907,5.62E-03,1.11E-02
72908,5.54E-03,1.12E-02
72909,5.59E-03,1.13E-02
72910,5.57E-03,1.14E-02
72911,5.55E-03,1.15E-02
72912,5.51E-03,1.16E-02
72913,5.48E-03,1.16E-02
72914,5.44E-03,1.17E-02
72915,5.39E-03,1.18E-02
72916,5.34E-03,1.18E-02
72917,5.34E-03,1.19E-02
72918,5.36E-03,1.19E-02
72919,5.40E-03,1.20E-02
72920,5.50E-03,1.20E-02
72921,5.50E-03,1.20E-02
72922,5.50E-03,1.20E-02
72923,5.48E-03,1.21E-02
72924,5.40E-03,1.22E-02
72925,5.36E-03,1.23E-02
72926,5.38E-03,1.24E-02
72927,5.40E-03,1.26E-02
72928,5.42E-03,1.27E-02
72929,5.47E-03,1.29E-02
72930,5.54E-03,1.31E-02
72931,5.59E-03,1.33E-02
72932,5.58E-03,1.35E-02
72933,5.59E-03,1.37E-02
72934,5.64E-03,1.40E-02
72935,5.69E-03,1.42E-02
72936,5.64E-03,1.45E-02
72937,3.80E-03,1.47E-02
72938,2.37E-03,1.49E-02
72939,3.16E-03,1.52E-02
72940,5.17E-03,1.55E-02
72941,5.20E-03,1.57E-02
72942,5.26E-03,1.61E-02
72943,5.25E-03,1.65E-02
72944,5.25E-03,1.70E-02
72945,5.30E-03,1.78E-02
72946,5.81E-03,1.88E-02
72947,5.97E-03,2.02E-02
72948,5.56E-03,2.16E-02
72949,5.48E-03,2.31E-02
72950,5.44E-03,2.42E-02
72951,5.36E-03,2.48E-02
72952,5.31E-03,2.48E-02
72953,5.28E-03,2.41E-02
72954,5.28E-03,2.26E-02
72955,5.32E-03,2.09E-02
72956,5.42E-03,1.94E-02
72957,5.52E-03,1.86E-02
72958,5.55E-03,1.88E-02
72959,5.59E-03,1.96E-02
72960,5.62E-03,2.06E-02
72961,5.71E-03,2.17E-02
72962,5.70E-03,2.31E-02
72963,5.77E-03,2.47E-02
72964,5.79E-03,2.66E-02
72965,5.68E-03,2.87E-02
72966,5.57E-03,3.06E-02
72967,5.56E-03,3.14E-02
72968,5.56E-03,3.04E-02
72969,5.64E-03,2.90E-02
72970,5.55E-03,2.80E-02
72971,5.46E-03,2.73E-02
72972,5.44E-03,2.67E-02
72973,5.48E-03,2.62E-02
72974,5.66E-03,2.58E-02
72975,5.84E-03,2.53E-02
72976,5.60E-03,2.48E-02
72977,4.99E-03,2.44E-02
72978,4.35E-03,2.46E-02
72979,3.60E-03,2.60E-02
72980,3.71E-03,2.79E-02
72981,4.08E-03,2.89E-02
72982,5.87E-03,9.18E-03
72983,5.54E-03,9.24E-03
72984,5.44E-03,9.03E-03
72987,2.66E-03,3.66E-03
72988,4.07E-03,3.85E-03
72989,3.77E-03,3.67E-03
72990,2.58E-03,3.55E-03
72991,2.96E-03,3.46E-03
72992,5.63E-03,5.50E-04
72993,5.06E-03,5.90E-04
72994,3.25E-03,6.34E-04
72995,4.44E-03,6.66E-04
72996,4.43E-03,6.95E-04
72997,3.54E-03,6.56E-04
72998,3.39E-03,6.03E-04
72999,4.85E-03,7.05E-04
73000,4.50E-03,6.53E-04
73001,4.56E-03,5.88E-04
73002,4.03E-03,3.53E-03
73003,3.77E-03,3.38E-03
73004,3.81E-03,3.26E-03
73005,4.20E-03,3.33E-04
73006,5.61E-03,3.67E-04
73007,4.45E-03,4.71E-04
73008,3.29E-03,4.05E-04
73009,3.40E-03,3.23E-04
73010,7.09E-03,1.09E-03
73011,7.87E-03,1.00E-03
73012,6.55E-03,9.95E-04
73013,5.22E-03,1.08E-03
73014,5.25E-03,1.37E-03
73015,4.96E-03,1.25E-03
73016,6.17E-03,3.17E-04
73017,6.66E-03,3.54E-04
73018,6.41E-03,3.95E-04
73019,6.58E-03,2.42E-04
73020,2.91E-03,3.67E-04
73021,4.01E-03,3.87E-04
73022,3.80E-03,3.01E-04
73023,2.98E-03,2.99E-04
73024,3.08E-03,3.10E-04
73025,2.88E-03,6.60E-03
73026,3.58E-03,6.70E-03
73027,3.93E-03,6.68E-03
73028,3.04E-03,6.57E-03
73029,2.94E-03,6.50E-03
73030,3.19E-03,7.28E-04
73031,3.85E-03,7.61E-04
73032,6.12E-03,4.45E-03
73033,5.73E-03,4.24E-03
73034,5.49E-03,4.16E-03
73035,5.73E-03,4.38E-03
73036,6.46E-03,8.97E-04
73037,5.19E-03,9.60E-04
73038,4.90E-03,1.00E-03
73039,4.87E-03,1.71E-03
73040,4.37E-03,1.53E-03
73041,4.14E-03,1.70E-03
73042,4.64E-03,1.90E-03
73043,5.63E-03,5.58E-03
73044,5.81E-03,5.40E-03
73045,5.23E-03,5.34E-03
73046,5.16E-03,5.51E-03
73047,4.09E-03,2.11E-04
73048,3.21E-03,2.29E-04
73049,3.68E-03,2.35E-04
73050,4.73E-03,6.35E-04
73051,4.99E-03,6.12E-04
73052,3.84E-03,1.66E-03
73053,4.17E-03,1.69E-03
73054,4.63E-03,1.51E-03
73055,3.12E-03,9.20E-05
73056,2.96E-03,1.08E-04
73057,2.84E-03,7.22E-05
73058,3.88E-03,5.03E-03
73059,3.81E-03,5.21E-03
73060,3.85E-03,5.16E-03
73061,5.11E-03,7.32E-04
73062,5.00E-03,7.14E-04
73063,5.01E-03,6.94E-04
73064,5.49E-03,7.74E-04
73065,6.13E-03,7.85E-04
73066,4.26E-03,8.01E-04
73067,6.08E-03,7.49E-04
73068,4.66E-03,3.95E-03
73069,5.42E-03,3.95E-03
73070,5.47E-03,4.18E-03
73071,5.36E-03,3.91E-03
73072,5.36E-03,1.78E-03
73073,5.16E-03,1.98E-03
73074,6.57E-03,7.57E-04
73075,5.33E-03,7.12E-04
73076,4.77E-03,1.07E-03
73077,4.89E-03,1.09E-03
73078,4.89E-03,1.19E-03
73079,4.92E-03,1.12E-03
73080,5.92E-03,1.02E-03
73081,5.19E-03,6.55E-04
73082,4.41E-03,6.07E-04
73083,4.81E-03,6.56E-04
73084,7.38E-03,1.54E-04
73085,5.23E-03,1.49E-04
73086,3.33E-03,1.39E-03
73087,5.65E-03,8.32E-04
73088,5.01E-03,1.15E-03
73089,4.37E-03,1.07E-03
73090,4.96E-03,8.35E-04
73091,5.99E-03,8.79E-04
73092,4.65E-03,1.17E-03
73093,4.19E-03,1.25E-03
73094,5.29E-03,1.08E-03
73095,5.28E-03,1.19E-03
73096,6.04E-03,9.34E-04
73097,5.10E-03,1.02E-03
73098,4.90E-03,1.26E-03
73099,4.95E-03,1.29E-03
73100,6.56E-03,8.43E-04
73101,4.61E-03,7.85E-04
73102,5.67E-03,8.25E-04
73103,5.57E-03,9.01E-04
73104,5.83E-03,8.30E-04
73105,6.00E-03,8.85E-04
73106,4.05E-03,8.87E-04
73107,5.41E-03,9.75E-04
73108,4.60E-03,1.34E-03
73109,4.53E-03,9.45E-04
73110,4.10E-03,1.20E-03
73111,2.55E-03,1.33E-03
73112,5.71E-03,1.10E-03
73113,5.78E-03,1.23E-03
73114,5.42E-03,1.32E-03
73115,5.42E-03,7.67E-04
73116,5.11E-03,1.39E-03
73117,4.85E-03,1.44E-03
73118,2.90E-03,1.52E-03
73119,4.56E-03,9.24E-04
73120,6.16E-03,8.53E-04
73121,6.01E-03,8.84E-04
73122,6.10E-03,7.94E-04
73123,6.39E-03,8.27E-04
73124,5.70E-03,7.24E-04
73125,6.16E-03,7.67E-04
73126,5.54E-03,9.04E-04
73127,5.46E-03,8.29E-04
73128,5.55E-03,9.94E-04
73129,3.88E-03,1.41E-03
73130,4.42E-03,1.52E-03
73131,5.21E-03,2.16E-03
73132,4.75E-03,2.31E-03
73133,4.58E-03,2.05E-03
73134,5.26E-03,7.56E-04
73135,5.73E-03,1.36E-03
73136,5.52E-03,1.48E-03
73137,5.68E-03,6.67E-04
73138,5.03E-03,1.55E-03
73139,4.70E-03,1.63E-03
73140,5.02E-03,5.89E-04
73141,5.84E-03,2.66E-03
73142,4.50E-03,2.46E-03
73143,3.76E-03,2.77E-03
73144,4.27E-03,1.63E-03
73145,4.20E-03,1.84E-03
73146,4.14E-03,4.02E-03
73147,6.62E-03,4.36E-03
73148,4.38E-03,4.19E-03
73149,3.44E-03,2.76E-03
73150,3.78E-03,2.99E-03
73151,6.43E-03,7.37E-04
73152,4.28E-03,7.39E-04
73153,5.17E-03,1.55E-03
73154,6.93E-03,9.26E-04
73155,6.33E-03,8.64E-04
73156,6.18E-03,8.91E-04
73157,6.52E-03,8.21E-04
73158,6.33E-03,8.43E-04
73159,6.90E-03,7.87E-04
73160,5.47E-03,9.07E-04
73161,5.42E-03,8.26E-04
73162,5.92E-03,1.11E-03
73163,5.66E-03,1.00E-03
73164,6.22E-03,1.40E-03
73165,6.58E-03,1.25E-03
73166,5.37E-03,2.10E-03
73167,5.49E-03,2.30E-03
73168,5.50E-03,2.50E-03
73169,4.96E-03,1.89E-03
73170,5.65E-03,4.55E-03
73171,4.47E-03,1.73E-03
73172,4.58E-03,2.20E-03
73173,5.89E-03,1.55E-03
73174,5.08E-03,3.64E-03
73175,4.69E-03,3.66E-03
73176,5.13E-03,6.80E-04
73177,5.48E-03,1.66E-03
73178,5.53E-03,7.71E-04
73179,5.06E-03,4.44E-03
73180,4.70E-03,4.08E-03
73181,4.85E-03,4.32E-03
73182,4.67E-03,2.59E-03
73183,5.37E-03,1.65E-03
73184,4.33E-03,3.86E-03
73185,4.49E-03,3.14E-03
73186,4.89E-03,3.40E-03
73187,4.98E-03,3.55E-03
73188,4.85E-03,3.27E-03
73189,4.47E-03,2.88E-03
73190,4.99E-03,1.74E-03
73191,5.63E-03,5.98E-04
73192,4.78E-03,5.27E-04
73193,4.88E-03,5.23E-04
73194,4.50E-03,1.82E-03
73195,4.83E-03,2.02E-03
73196,4.82E-03,1.80E-03
73197,5.62E-03,4.67E-03
73198,4.95E-03,3.38E-03
73199,5.24E-03,3.60E-03
73200,5.08E-03,3.35E-03
73201,2.76E-03,4.71E-03
73202,4.92E-03,1.99E-03
73203,4.46E-03,1.96E-03
73204,5.54E-03,1.62E-03
73205,4.02E-03,3.68E-03
73206,3.51E-03,6.93E-04
73207,5.20E-03,5.47E-04
73208,7.10E-03,1.22E-03
73209,5.94E-03,1.43E-03
73210,6.95E-03,9.34E-04
73211,6.44E-03,8.80E-04
73212,6.60E-03,8.98E-04
73213,6.59E-03,8.44E-04
73214,6.43E-03,8.63E-04
73215,7.17E-03,8.15E-04
73216,5.18E-03,7.41E-04
73217,5.02E-03,6.73E-04
73218,5.46E-03,9.03E-04
73219,5.30E-03,8.17E-04
73220,5.98E-03,1.13E-03
73221,5.69E-03,1.00E-03
73222,5.90E-03,1.44E-03
73223,6.66E-03,1.27E-03
73224,4.89E-03,1.63E-03
73225,5.50E-03,4.10E-03
73226,5.30E-03,3.86E-03
73227,5.13E-03,4.70E-03
73228,5.74E-03,4.58E-03
73229,6.16E-03,3.04E-03
73230,5.39E-03,3.22E-03
73231,5.78E-03,2.65E-03
73232,5.77E-03,2.81E-03
73233,6.09E-03,2.30E-03
73234,5.83E-03,2.47E-03
73235,4.01E-03,4.85E-03
73236,4.70E-03,3.95E-03
73237,4.93E-03,4.19E-03
73238,4.70E-03,1.84E-03
73239,4.63E-03,2.32E-03
73240,4.95E-03,1.84E-03
73241,6.07E-03,1.77E-03
73242,4.52E-03,3.40E-03
73243,5.06E-03,3.68E-03
73244,4.95E-03,3.41E-03
73245,4.52E-03,2.65E-03
73246,5.04E-03,3.10E-03
73247,4.88E-03,3.12E-03
73248,5.03E-03,2.20E-03
73249,5.02E-03,2.22E-03
73250,5.29E-03,1.84E-03
73251,4.46E-03,3.72E-03
73252,5.65E-03,4.33E-03
73253,6.35E-03,4.61E-03
73254,4.74E-03,3.00E-03
73255,6.48E-03,1.62E-03
73256,6.71E-03,2.08E-03
73257,5.03E-03,5.81E-04
73258,4.95E-03,5.14E-04
73259,5.21E-03,6.13E-04
73260,5.53E-03,5.14E-04
73261,5.44E-03,4.65E-04
73262,5.36E-03,4.50E-04
73263,3.88E-03,7.08E-04
73264,3.87E-03,6.75E-04
73265,2.80E-03,4.90E-03
73266,5.72E-03,4.90E-03
73267,5.10E-03,3.81E-03
73268,4.98E-03,4.07E-03
73269,5.04E-03,3.94E-03
73270,4.60E-03,2.07E-03
73271,5.03E-03,2.86E-03
73272,5.10E-03,2.41E-03
73273,5.07E-03,2.64E-03
73274,5.74E-03,1.85E-03
73275,3.97E-03,3.41E-03
73276,4.25E-03,6.42E-04
73277,5.65E-03,4.80E-04
73278,6.25E-03,4.81E-04
73279,7.86E-03,1.12E-03
73280,6.73E-03,1.36E-03
73281,7.09E-03,9.39E-04
73282,8.07E-03,1.00E-03
73283,6.49E-03,8.93E-04
73284,6.59E-03,9.07E-04
73285,6.47E-03,8.68E-04
73286,6.44E-03,8.82E-04
73287,5.98E-03,8.15E-04
73288,6.39E-03,8.49E-04
73289,5.18E-03,7.20E-04
73290,5.02E-03,6.47E-04
73291,5.41E-03,8.92E-04
73292,5.28E-03,8.01E-04
73293,5.76E-03,1.12E-03
73294,5.63E-03,9.98E-04
73295,5.56E-03,1.41E-03
73296,5.73E-03,1.26E-03
73297,5.09E-03,1.78E-03
73298,5.32E-03,1.59E-03
73299,5.09E-03,2.17E-03
73300,5.08E-03,1.97E-03
73301,5.18E-03,2.60E-03
73302,5.11E-03,2.38E-03
73303,5.21E-03,3.07E-03
73304,5.18E-03,2.83E-03
73305,5.30E-03,3.56E-03
73306,5.20E-03,3.31E-03
73307,5.44E-03,4.04E-03
73308,5.34E-03,3.80E-03
73309,4.05E-03,5.11E-03
73310,4.99E-03,4.91E-03
73311,4.83E-03,5.01E-03
73312,5.19E-03,4.70E-03
73313,5.15E-03,4.81E-03
73314,5.04E-03,4.46E-03
73315,5.09E-03,4.58E-03
73316,5.07E-03,4.21E-03
73317,5.04E-03,4.33E-03
73318,5.13E-03,3.96E-03
73319,5.11E-03,4.09E-03
73320,5.32E-03,3.68E-03
73321,5.18E-03,3.83E-03
73322,5.67E-03,3.37E-03
73323,5.58E-03,3.52E-03
73324,5.80E-03,3.02E-03
73325,5.81E-03,3.20E-03
73326,6.09E-03,2.67E-03
73327,5.89E-03,2.86E-03
73328,4.99E-03,3.54E-03
73329,4.83E-03,3.81E-03
73330,4.91E-03,1.95E-03
73331,4.75E-03,2.43E-03
73332,4.96E-03,2.89E-03
73333,5.03E-03,2.44E-03
73334,5.71E-03,1.96E-03
73335,5.08E-03,2.03E-03
73336,4.59E-03,3.15E-03
73337,5.47E-03,4.27E-03
73338,5.57E-03,4.55E-03
73339,5.67E-03,7.63E-04
73340,4.82E-03,2.76E-03
73341,4.62E-03,5.22E-03
73342,6.23E-03,2.48E-03
73343,5.45E-03,4.84E-03
73344,5.29E-03,5.01E-03
73345,4.50E-03,4.57E-04
73346,5.15E-03,4.29E-04
73347,4.55E-03,5.40E-04
73348,4.35E-03,4.88E-04
73349,4.92E-03,3.68E-03
73350,4.77E-03,2.19E-03
73351,5.01E-03,2.67E-03
73352,4.39E-03,2.12E-03
73353,5.74E-03,2.05E-03
73354,4.18E-03,3.19E-03
73355,3.99E-03,5.77E-04
73356,5.43E-03,4.49E-03
73357,5.20E-03,7.14E-04
73358,5.09E-03,2.07E-03
73359,4.86E-03,2.54E-03
73360,4.69E-03,3.57E-03
73361,4.45E-03,3.06E-03
73362,4.57E-03,3.17E-03
73363,3.94E-03,2.29E-03
73364,3.88E-03,2.32E-03
73365,5.05E-03,2.25E-03
73366,4.74E-03,2.92E-03
73367,4.86E-03,5.31E-04
73368,5.21E-03,5.82E-04
73369,3.88E-03,3.94E-04
73370,3.58E-03,3.40E-04
73371,3.50E-03,3.23E-04
73372,4.72E-03,2.75E-04
73373,5.02E-03,4.19E-04
73374,5.85E-03,3.42E-04
73375,5.40E-03,3.51E-04
73376,5.37E-03,3.69E-04
73377,5.45E-03,3.85E-04
73378,5.44E-03,3.90E-04
73379,4.78E-03,3.94E-04
73380,5.22E-03,4.76E-03
73381,5.07E-03,3.93E-04
73382,5.88E-03,4.74E-04
73383,6.23E-03,2.30E-03
73384,6.89E-03,1.86E-03
73385,6.93E-03,1.56E-03
73386,6.70E-03,1.29E-03
73387,6.69E-03,1.10E-03
73388,6.70E-03,9.98E-04
73389,6.59E-03,9.34E-04
73390,6.43E-03,9.10E-04
73391,6.34E-03,9.00E-04
73392,6.30E-03,8.96E-04
73393,6.24E-03,8.89E-04
73394,6.21E-03,8.74E-04
73395,6.46E-03,8.48E-04
73396,6.09E-03,8.09E-04
73397,5.66E-03,7.73E-04
73398,5.02E-03,5.68E-03
73399,3.66E-03,5.73E-03
73400,4.98E-03,5.95E-03
73401,5.48E-03,5.87E-03
73402,3.89E-03,5.87E-03
73403,4.00E-03,4.19E-04
73404,4.65E-03,4.75E-04
73405,4.97E-03,5.39E-04
73406,5.09E-03,6.12E-04
73407,5.19E-03,6.89E-04
73408,5.29E-03,7.75E-04
73409,5.40E-03,8.71E-04
73410,5.56E-03,9.79E-04
73411,5.61E-03,1.10E-03
73412,5.60E-03,1.24E-03
73413,5.51E-03,1.39E-03
73414,5.39E-03,1.56E-03
73415,5.26E-03,1.75E-03
73416,5.20E-03,1.94E-03
73417,5.19E-03,2.14E-03
73418,5.21E-03,2.35E-03
73419,5.23E-03,2.57E-03
73420,5.25E-03,2.79E-03
73421,5.30E-03,3.03E-03
73422,5.29E-03,3.27E-03
73423,5.34E-03,3.51E-03
73424,5.36E-03,3.75E-03
73425,5.41E-03,3.98E-03
73426,5.38E-03,4.21E-03
73427,4.74E-03,5.27E-03
73428,4.90E-03,5.51E-03
73429,4.81E-03,5.44E-03
73430,4.90E-03,5.32E-03
73431,5.01E-03,5.23E-03
73432,5.09E-03,5.14E-03
73433,5.18E-03,5.05E-03
73434,5.21E-03,4.95E-03
73435,5.20E-03,4.84E-03
73436,5.16E-03,4.73E-03
73437,5.17E-03,4.61E-03
73438,5.21E-03,4.50E-03
73439,5.24E-03,4.38E-03
73440,5.26E-03,4.26E-03
73441,5.31E-03,4.13E-03
73442,5.42E-03,4.00E-03
73443,5.51E-03,3.87E-03
73444,5.65E-03,3.73E-03
73445,5.75E-03,3.59E-03
73446,5.82E-03,3.44E-03
73447,5.86E-03,3.28E-03
73448,5.94E-03,3.11E-03
73449,6.01E-03,2.93E-03
73450,5.23E-03,5.27E-03
73451,5.25E-03,5.45E-03
73452,5.83E-03,5.62E-03
73453,5.08E-03,5.81E-03
73454,3.24E-03,6.07E-03
73455,3.34E-03,5.97E-03
73456,4.94E-03,3.14E-03
73457,5.00E-03,3.28E-03
73458,3.30E-03,6.10E-03
73459,6.02E-03,2.74E-03
73460,5.38E-03,3.44E-04
73461,5.36E-03,4.42E-03
73462,3.83E-03,4.81E-04
73463,4.07E-03,2.65E-04
73464,5.88E-03,3.42E-03
73465,5.91E-03,3.58E-03
73466,5.85E-03,3.73E-03
73467,5.79E-03,3.87E-03
73468,5.72E-03,4.00E-03
73469,5.61E-03,4.12E-03
73470,5.50E-03,4.24E-03
73471,5.48E-03,4.35E-03
73472,5.43E-03,4.47E-03
73473,5.37E-03,4.58E-03
73474,5.36E-03,4.69E-03
73475,5.36E-03,4.80E-03
73476,5.32E-03,4.90E-03
73477,5.31E-03,5.01E-03
73478,5.31E-03,5.12E-03
73479,5.31E-03,5.21E-03
73480,5.23E-03,5.30E-03
73481,5.18E-03,5.39E-03
73482,5.10E-03,5.48E-03
73483,5.07E-03,5.56E-03
73484,5.03E-03,5.64E-03
73485,5.09E-03,5.72E-03
73486,5.05E-03,5.55E-03
73487,5.25E-03,5.78E-03
73488,5.48E-03,5.84E-03
73489,3.78E-03,5.82E-03
73490,5.60E-03,5.70E-03
73491,5.10E-03,5.90E-03
73492,4.77E-03,5.96E-03
73493,4.69E-03,6.03E-03
73494,4.78E-03,6.11E-03
73495,4.65E-03,6.16E-03
73496,5.11E-03,2.88E-03
73497,6.11E-03,2.10E-03
73498,6.32E-03,1.73E-03
73499,6.33E-03,1.46E-03
73500,6.36E-03,1.23E-03
73501,6.32E-03,1.08E-03
73502,6.26E-03,9.79E-04
73503,6.18E-03,9.21E-04
73504,6.12E-03,9.02E-04
73505,6.13E-03,9.00E-04
73506,6.06E-03,9.01E-04
73507,6.04E-03,8.99E-04
73508,6.09E-03,8.92E-04
73509,6.15E-03,8.81E-04
73510,5.91E-03,8.62E-04
73511,5.65E-03,8.40E-04
73512,5.51E-03,7.28E-04
73513,5.42E-03,8.11E-04
73514,5.32E-03,7.73E-04
73515,5.35E-03,7.23E-04
73516,5.38E-03,5.51E-04
73517,5.52E-03,6.62E-04
73518,5.82E-03,5.91E-04
73519,5.62E-03,5.33E-04
73520,5.74E-03,4.80E-04
73521,5.83E-03,3.28E-04
73522,5.88E-03,2.90E-04
73523,5.69E-03,4.24E-04
73524,4.69E-03,5.34E-03
73525,6.38E-03,5.61E-03
73526,5.25E-03,4.64E-03
73527,5.31E-03,4.85E-03
73528,5.19E-03,5.07E-03
73529,5.22E-03,4.70E-03
73530,4.24E-03,4.99E-04
73531,4.73E-03,4.20E-04
73532,4.36E-03,5.91E-03
73533,4.80E-03,5.74E-03
73534,5.18E-03,5.57E-03
73535,5.28E-03,5.39E-03
73536,5.25E-03,5.20E-03
73537,5.21E-03,5.00E-03
73538,5.32E-03,4.79E-03
73539,5.28E-03,4.58E-03
73540,5.33E-03,4.36E-03
73541,5.36E-03,4.14E-03
73542,5.41E-03,3.92E-03
73543,5.40E-03,3.69E-03
73544,5.40E-03,3.45E-03
73545,5.34E-03,3.22E-03
73546,5.35E-03,2.98E-03
73547,5.35E-03,2.75E-03
73548,5.33E-03,2.53E-03
73549,5.31E-03,2.31E-03
73550,5.31E-03,2.11E-03
73551,5.31E-03,1.91E-03
73552,5.35E-03,1.71E-03
73553,5.43E-03,1.53E-03
73554,5.48E-03,1.37E-03
73555,5.54E-03,1.22E-03
73556,5.53E-03,1.08E-03
73557,5.48E-03,9.51E-04
73558,5.41E-03,8.40E-04
73559,5.34E-03,7.40E-04
73560,5.25E-03,6.49E-04
73561,5.08E-03,5.63E-04
73562,4.85E-03,4.87E-04
73563,4.51E-03,4.16E-04
73564,3.94E-03,3.57E-04
73565,4.51E-03,3.01E-04
73566,4.96E-03,3.00E-04
73567,5.20E-03,2.93E-04
73568,5.29E-03,2.83E-04
73569,5.37E-03,2.74E-04
73570,5.86E-03,2.55E-04
73571,4.17E-03,2.24E-04
73572,3.61E-03,2.05E-04
73573,4.45E-03,2.60E-04
73574,6.49E-03,2.31E-04
73575,5.19E-03,2.06E-04
73576,4.85E-03,1.89E-04
73577,4.39E-03,1.96E-04
73578,4.45E-03,1.88E-04
73579,4.65E-03,1.85E-04
73580,5.01E-03,4.65E-04
73581,5.36E-03,6.49E-04
73582,5.39E-03,6.17E-04
73583,5.40E-03,6.76E-04
73584,4.68E-03,2.96E-03
73585,4.97E-03,2.30E-03
73586,4.92E-03,2.70E-03
73587,5.01E-03,2.48E-03
73588,4.93E-03,2.20E-03
73589,4.92E-03,2.31E-03
73590,4.60E-03,3.36E-03
73591,4.89E-03,3.43E-03
73592,4.36E-03,6.08E-03
73593,5.87E-03,3.23E-03
73594,5.90E-03,2.52E-03
73595,4.34E-03,6.21E-03
73596,4.44E-03,6.23E-03
73597,5.71E-03,2.33E-04
73598,4.59E-03,2.76E-04
73599,5.06E-03,2.64E-03
73600,4.94E-03,3.52E-04
73601,4.87E-03,2.07E-04
73602,6.40E-03,2.47E-04
73603,5.12E-03,6.24E-03
73604,5.80E-03,3.02E-03
73605,5.02E-03,3.19E-03
73606,5.17E-03,3.04E-03
73607,4.94E-03,2.43E-03
73608,4.93E-03,2.53E-03
73609,4.99E-03,2.74E-03
73610,5.48E-03,5.91E-04
73611,5.31E-03,5.31E-04
73612,4.65E-03,2.57E-04
73613,4.67E-03,2.69E-04
73614,4.83E-03,4.21E-04
73615,5.17E-03,4.91E-03
73616,5.24E-03,5.13E-03
73617,5.84E-03,5.41E-03
73618,3.76E-03,1.81E-04
73619,4.93E-03,2.27E-04
73620,5.23E-03,5.34E-04
73621,5.36E-03,6.09E-04
73622,5.48E-03,6.83E-04
73623,5.42E-03,7.55E-04
73624,5.31E-03,8.17E-04
73625,5.23E-03,8.67E-04
73626,5.25E-03,8.98E-04
73627,5.38E-03,9.13E-04
73628,5.52E-03,9.18E-04
73629,5.69E-03,9.18E-04
73630,5.87E-03,9.13E-04
73631,5.94E-03,9.07E-04
73632,5.87E-03,8.99E-04
73633,5.85E-03,8.93E-04
73634,5.87E-03,8.89E-04
73635,5.83E-03,8.89E-04
73636,5.81E-03,9.00E-04
73637,5.88E-03,9.37E-04
73638,5.94E-03,1.01E-03
73639,5.99E-03,1.13E-03
73640,6.01E-03,1.31E-03
73641,6.02E-03,1.55E-03
73642,5.72E-03,2.29E-03
73643,5.90E-03,1.87E-03
73644,3.87E-03,1.58E-04
73645,5.56E-03,2.01E-04
73646,5.69E-03,2.64E-04
73647,4.78E-03,1.18E-04
73648,4.53E-03,2.09E-04
73649,5.46E-03,6.20E-03
73650,4.72E-03,6.35E-03
73651,5.60E-03,2.81E-03
73652,5.81E-03,3.94E-03
73653,5.71E-03,3.59E-03
73654,5.76E-03,3.78E-03
73655,5.77E-03,4.20E-03
73656,5.82E-03,4.08E-03
73657,5.66E-03,4.41E-03
73658,5.71E-03,4.31E-03
73659,5.53E-03,4.62E-03
73660,5.62E-03,4.52E-03
73661,5.51E-03,4.82E-03
73662,5.53E-03,4.72E-03
73663,5.54E-03,5.01E-03
73664,5.52E-03,4.91E-03
73665,5.46E-03,5.21E-03
73666,5.49E-03,5.11E-03
73667,5.40E-03,5.40E-03
73668,5.41E-03,5.30E-03
73669,5.32E-03,5.56E-03
73670,5.38E-03,5.48E-03
73671,5.24E-03,5.72E-03
73672,5.30E-03,5.64E-03
73673,5.20E-03,5.87E-03
73674,5.24E-03,5.80E-03
73675,5.30E-03,6.00E-03
73676,5.25E-03,5.93E-03
73677,5.18E-03,6.11E-03
73678,5.30E-03,6.06E-03
73679,4.88E-03,6.22E-03
73680,4.99E-03,6.16E-03
73681,4.78E-03,6.33E-03
73682,4.82E-03,6.28E-03
73683,4.93E-03,6.39E-03
73684,4.79E-03,6.36E-03
73685,4.83E-03,6.47E-03
73686,5.57E-03,6.41E-03
73687,4.77E-03,5.86E-03
73688,4.84E-03,6.04E-03
73689,5.08E-03,5.51E-03
73690,4.90E-03,5.69E-03
73691,5.28E-03,5.13E-03
73692,5.18E-03,5.33E-03
73693,5.31E-03,4.73E-03
73694,5.23E-03,4.93E-03
73695,5.38E-03,4.30E-03
73696,5.29E-03,4.52E-03
73697,5.41E-03,3.85E-03
73698,5.42E-03,4.08E-03
73699,5.46E-03,3.39E-03
73700,5.44E-03,3.62E-03
73701,5.46E-03,2.93E-03
73702,5.46E-03,3.16E-03
73703,5.43E-03,2.49E-03
73704,5.44E-03,2.71E-03
73705,5.45E-03,2.06E-03
73706,5.45E-03,2.27E-03
73707,5.47E-03,1.68E-03
73708,5.45E-03,1.87E-03
73709,5.56E-03,1.33E-03
73710,5.52E-03,1.50E-03
73711,5.58E-03,1.04E-03
73712,5.55E-03,1.18E-03
73713,5.51E-03,7.98E-04
73714,5.57E-03,9.14E-04
73715,5.29E-03,6.00E-04
73716,5.41E-03,6.93E-04
73717,4.96E-03,4.21E-04
73718,5.17E-03,5.06E-04
73719,4.42E-03,2.78E-04
73720,4.72E-03,3.42E-04
73721,5.11E-03,2.02E-04
73722,4.85E-03,2.08E-04
73723,5.40E-03,1.85E-04
73724,5.24E-03,1.95E-04
73725,4.65E-03,1.55E-04
73726,5.08E-03,1.67E-04
73727,4.40E-03,1.28E-04
73728,4.41E-03,1.46E-04
73729,4.75E-03,1.19E-04
73730,4.66E-03,1.20E-04
73731,5.55E-03,1.42E-04
73732,5.03E-03,1.21E-04
73733,5.34E-03,1.31E-04
73734,5.28E-03,1.46E-04
73735,5.56E-03,1.46E-04
73736,3.64E-03,1.30E-04
73737,4.76E-03,1.36E-04
73738,3.49E-03,1.31E-04
73739,6.30E-03,1.43E-04
73740,5.53E-03,3.39E-03
73741,3.36E-03,5.32E-05
73742,3.75E-03,7.00E-05
73743,4.70E-03,8.88E-05
73744,5.85E-03,9.87E-05
73745,6.29E-03,9.57E-05
73746,6.30E-03,9.21E-05
73747,5.20E-03,9.27E-05
73748,5.12E-03,9.69E-05
73749,4.80E-03,1.06E-04
73750,5.13E-03,1.11E-04
73751,5.23E-03,1.11E-04
73752,5.13E-03,1.09E-04
73753,5.19E-03,9.87E-05
73754,5.41E-03,8.51E-05
73755,5.14E-03,7.59E-05
73756,4.75E-03,7.59E-05
73757,4.58E-03,7.97E-05
73758,4.60E-03,8.71E-05
73759,4.78E-03,9.65E-05
73760,5.02E-03,1.02E-04
73761,5.22E-03,1.09E-04
73762,5.27E-03,1.18E-04
73763,5.19E-03,1.24E-04
73764,5.00E-03,1.28E-04
73765,4.65E-03,1.29E-04
73766,4.54E-03,1.27E-04
73767,4.89E-03,1.20E-04
73768,5.53E-03,1.46E-04
73769,4.78E-03,1.93E-04
73770,4.92E-03,2.66E-04
73771,5.10E-03,3.39E-04
73772,5.26E-03,4.52E-04
73773,5.39E-03,5.37E-04
73774,5.47E-03,6.40E-04
73775,5.52E-03,7.51E-04
73776,5.57E-03,8.65E-04
73777,5.59E-03,9.94E-04
73778,5.62E-03,1.13E-03
73779,5.58E-03,1.29E-03
73780,5.55E-03,1.45E-03
73781,5.55E-03,1.63E-03
73782,5.53E-03,1.82E-03
73783,5.50E-03,2.02E-03
73784,5.49E-03,2.22E-03
73785,5.50E-03,2.43E-03
73786,5.50E-03,2.65E-03
73787,5.52E-03,2.88E-03
73788,5.53E-03,3.11E-03
73789,5.52E-03,3.33E-03
73790,5.50E-03,3.56E-03
73791,5.48E-03,3.79E-03
73792,5.45E-03,4.01E-03
73793,5.43E-03,4.23E-03
73794,5.42E-03,4.45E-03
73795,5.37E-03,4.66E-03
73796,5.29E-03,4.87E-03
73797,5.27E-03,5.07E-03
73798,5.20E-03,5.26E-03
73799,5.09E-03,5.45E-03
73800,4.94E-03,5.63E-03
73801,4.92E-03,5.81E-03
73802,4.98E-03,5.99E-03
73803,4.88E-03,6.16E-03
73804,4.35E-03,6.31E-03
73805,3.58E-03,6.46E-03
73806,3.52E-03,6.59E-03
73807,3.85E-03,6.72E-03
73808,4.60E-03,6.65E-03
73809,5.09E-03,6.60E-03
73810,5.13E-03,6.56E-03
73811,4.97E-03,6.52E-03
73812,4.95E-03,6.49E-03
73813,5.03E-03,6.45E-03
73814,5.13E-03,6.40E-03
73815,5.22E-03,6.35E-03
73816,5.32E-03,6.31E-03
73817,5.38E-03,6.27E-03
73818,5.41E-03,6.21E-03
73819,5.34E-03,6.16E-03
73820,5.31E-03,6.10E-03
73821,5.32E-03,6.03E-03
73822,5.35E-03,5.97E-03
73823,5.41E-03,5.90E-03
73824,5.43E-03,5.83E-03
73825,5.44E-03,5.75E-03
73826,5.45E-03,5.68E-03
73827,5.45E-03,5.60E-03
73828,5.51E-03,5.52E-03
73829,5.52E-03,5.44E-03
73830,5.54E-03,5.35E-03
73831,5.56E-03,5.27E-03
73832,5.52E-03,5.19E-03
73833,5.51E-03,5.10E-03
73834,5.49E-03,5.02E-03
73835,5.55E-03,4.94E-03
73836,5.59E-03,4.85E-03
73837,5.66E-03,4.76E-03
73838,5.71E-03,4.68E-03
73839,5.72E-03,4.58E-03
73840,5.74E-03,4.48E-03
73841,5.70E-03,4.35E-03
73842,5.64E-03,4.22E-03
73843,5.56E-03,4.05E-03
73844,5.49E-03,3.87E-03
73845,5.42E-03,3.22E-03
73846,5.24E-03,2.70E-03
73847,5.31E-03,2.11E-03
73848,5.78E-03,1.57E-03
73849,5.91E-03,1.26E-03
73850,5.66E-03,1.13E-03
73851,5.60E-03,1.01E-03
73852,5.66E-03,8.98E-04
73853,5.55E-03,8.67E-04
73854,5.41E-03,8.79E-04
73855,5.48E-03,8.76E-04
73856,5.59E-03,8.67E-04
73857,5.68E-03,8.74E-04
73858,5.72E-03,8.93E-04
73859,5.77E-03,9.20E-04
73860,5.72E-03,9.53E-04
73861,5.52E-03,9.86E-04
73862,5.40E-03,1.02E-03
73863,5.24E-03,1.04E-03
73864,5.13E-03,1.06E-03
73865,5.05E-03,1.07E-03
73866,5.09E-03,1.03E-03
73867,5.23E-03,9.46E-04
73868,5.25E-03,8.58E-04
73869,5.15E-03,7.62E-04
73870,5.05E-03,6.52E-04
73871,4.45E-03,5.36E-04
73872,3.16E-03,4.56E-04
73873,3.35E-03,3.75E-04
73874,5.17E-03,3.11E-04
73875,5.19E-03,2.50E-04
73876,4.38E-03,1.78E-04
73877,3.67E-03,1.13E-04
73878,4.08E-03,6.14E-05
73879,4.17E-03,3.86E-05
73880,4.99E-03,5.19E-03
73881,4.82E-03,4.97E-03
73882,5.71E-03,4.46E-04
73883,5.67E-03,3.58E-04
73884,5.14E-03,3.42E-04
73885,5.68E-03,4.37E-04
73886,6.13E-03,5.01E-04
73887,5.62E-03,2.82E-03
73888,5.56E-03,2.56E-03
73889,5.43E-03,2.54E-03
73890,5.80E-03,2.78E-03
73891,5.71E-03,2.97E-03
73904,6.62E-03,6.83E-02
73905,5.85E-03,6.79E-02
73906,6.03E-03,0.10372
73907,7.12E-03,0.12243
73908,6.84E-03,0.10412
73909,2.94E-03,7.63E-02
73910,3.80E-03,7.52E-02
73911,3.35E-03,7.29E-02
73912,2.67E-03,7.42E-02
73913,2.91E-03,7.62E-02
73914,3.27E-03,9.55E-02
73915,4.59E-03,0.11363
73916,4.28E-03,0.12575
73917,3.15E-03,0.10418
73918,3.29E-03,8.94E-02
73919,4.38E-03,0.13007
73920,3.92E-03,0.1045
73921,4.07E-03,8.30E-02
73922,4.68E-03,0.12944
73923,4.60E-03,0.10268
73924,4.60E-03,7.95E-02
73925,2.91E-03,6.79E-02
73926,5.79E-03,6.74E-02
73927,4.11E-03,6.68E-02
73928,2.54E-03,6.79E-02
73929,2.72E-03,6.89E-02
73930,4.19E-03,6.59E-02
73931,3.30E-03,6.78E-02
73932,3.34E-03,6.98E-02
73933,3.56E-03,7.13E-02
73934,3.30E-03,7.30E-02
73935,3.88E-03,7.53E-02
73936,4.89E-03,9.28E-02
73937,4.77E-03,9.30E-02
73938,7.21E-03,8.27E-02
73939,5.78E-03,8.77E-02
73940,6.15E-03,8.47E-02
73941,6.00E-03,6.55E-02
73942,6.14E-03,6.54E-02
73943,5.35E-03,6.79E-02
73944,3.43E-03,9.65E-02
73945,3.72E-03,9.19E-02
73946,4.76E-03,9.99E-02
73947,4.99E-03,0.10057
73948,5.15E-03,7.74E-02
73949,3.37E-03,6.77E-02
73950,3.21E-03,6.86E-02
73951,3.69E-03,6.84E-02
73952,4.04E-03,7.90E-02
73953,5.16E-03,7.85E-02
73954,4.07E-03,8.36E-02
73955,5.09E-03,9.00E-02
73956,5.38E-03,9.20E-02
73957,5.92E-03,7.22E-02
73958,5.82E-03,7.10E-02
73959,4.71E-03,0.17121
73960,5.25E-03,0.1564
73961,3.52E-03,8.96E-02
73962,5.56E-03,8.38E-02
73963,3.65E-03,7.01E-02
73964,4.06E-03,6.86E-02
73965,5.41E-03,6.80E-02
73966,3.27E-03,6.96E-02
73967,4.82E-03,6.91E-02
73968,5.17E-03,6.78E-02
73969,5.26E-03,6.80E-02
73970,5.19E-03,6.83E-02
73971,5.17E-03,6.86E-02
73972,5.20E-03,6.92E-02
73973,5.16E-03,6.91E-02
73974,5.16E-03,6.89E-02
73975,5.10E-03,6.93E-02
73976,4.99E-03,6.92E-02
73977,4.91E-03,8.34E-02
73978,5.19E-03,8.37E-02
73979,5.33E-03,8.75E-02
73980,4.79E-03,9.10E-02
73981,5.38E-03,8.66E-02
73982,5.25E-03,9.14E-02
73983,6.42E-03,7.29E-02
73984,6.48E-03,7.77E-02
73985,6.04E-03,6.97E-02
73986,5.66E-03,6.87E-02
73987,5.74E-03,6.85E-02
73988,5.76E-03,6.91E-02
73989,5.77E-03,7.00E-02
73990,5.69E-03,7.19E-02
73991,5.10E-03,7.45E-02
73992,4.82E-03,7.48E-02
73993,5.20E-03,7.38E-02
73994,5.09E-03,7.41E-02
73995,5.12E-03,7.28E-02
73996,5.18E-03,7.33E-02
73997,5.14E-03,7.15E-02
73998,5.12E-03,7.21E-02
73999,5.22E-03,7.04E-02
74000,5.17E-03,7.09E-02
74001,4.90E-03,7.04E-02
74002,4.33E-03,6.99E-02
74003,4.44E-03,6.72E-02
74004,4.22E-03,6.96E-02
74005,5.25E-03,6.78E-02
74006,5.56E-03,6.72E-02
74007,5.36E-03,6.68E-02
74008,4.67E-03,6.62E-02
74009,5.66E-03,9.27E-02
74010,6.79E-03,7.96E-02
74011,6.73E-03,8.46E-02
74012,5.36E-03,7.78E-02
74013,4.86E-03,9.55E-02
74014,5.69E-03,9.12E-02
74015,5.57E-03,8.16E-02
74016,5.21E-03,9.79E-02
74017,4.83E-03,9.85E-02
74018,4.19E-03,7.13E-02
74019,4.24E-03,7.14E-02
74020,5.27E-03,8.72E-02
74021,6.00E-03,6.47E-02
74022,5.50E-03,6.39E-02
74023,5.31E-03,6.42E-02
74024,5.60E-03,6.47E-02
74025,5.36E-03,6.46E-02
74026,5.32E-03,6.44E-02
74027,5.38E-03,6.51E-02
74028,5.33E-03,6.50E-02
74029,5.36E-03,6.50E-02
74030,5.49E-03,6.51E-02
74031,5.27E-03,6.50E-02
74032,5.33E-03,6.50E-02
74033,5.24E-03,6.48E-02
74034,5.26E-03,6.49E-02
74035,5.19E-03,6.43E-02
74036,5.24E-03,6.46E-02
74037,4.98E-03,6.35E-02
74038,5.16E-03,6.40E-02
74039,5.97E-03,6.42E-02
74040,5.60E-03,6.61E-02
74041,5.77E-03,6.27E-02
74042,5.77E-03,6.34E-02
74043,5.67E-03,6.16E-02
74044,5.68E-03,6.20E-02
74045,5.16E-03,6.17E-02
74046,5.63E-03,6.18E-02
74047,5.50E-03,6.61E-02
74048,5.26E-03,6.59E-02
74049,7.32E-03,7.37E-02
74050,6.28E-03,6.99E-02
74051,5.93E-03,7.51E-02
74052,7.38E-03,7.55E-02
74053,4.99E-03,7.54E-02
74054,5.28E-03,7.52E-02
74055,5.48E-03,7.90E-02
74056,5.18E-03,9.54E-02
74057,5.17E-03,9.44E-02
74058,5.21E-03,9.69E-02
74059,6.36E-03,8.96E-02
74060,5.82E-03,7.52E-02
74061,6.23E-03,7.68E-02
74062,5.74E-03,7.68E-02
74063,5.75E-03,7.57E-02
74064,5.76E-03,7.89E-02
74065,5.71E-03,7.80E-02
74066,5.51E-03,7.88E-02
74067,5.68E-03,7.96E-02
74068,5.23E-03,7.94E-02
74069,5.33E-03,7.94E-02
74070,5.23E-03,7.80E-02
74071,5.19E-03,7.87E-02
74072,5.18E-03,7.65E-02
74073,5.20E-03,7.73E-02
74074,5.16E-03,7.45E-02
74075,5.17E-03,7.55E-02
74076,5.00E-03,7.28E-02
74077,5.13E-03,7.35E-02
74078,5.95E-03,9.26E-02
74079,5.86E-03,8.16E-02
74080,4.74E-03,9.84E-02
74081,4.35E-03,7.17E-02
74082,4.67E-03,7.23E-02
74083,4.99E-03,7.00E-02
74084,4.21E-03,7.13E-02
74085,5.34E-03,6.88E-02
74086,5.57E-03,6.96E-02
74087,5.32E-03,6.67E-02
74088,4.66E-03,6.83E-02
74089,5.33E-03,6.66E-02
74090,6.23E-03,6.44E-02
74091,5.76E-03,6.43E-02
74092,4.93E-03,6.44E-02
74093,5.44E-03,6.42E-02
74094,5.11E-03,9.29E-02
74095,5.52E-03,8.47E-02
74096,6.64E-03,9.78E-02
74097,5.96E-03,9.07E-02
74098,4.59E-03,7.27E-02
74099,4.68E-03,7.29E-02
74100,4.57E-03,7.25E-02
74101,4.95E-03,6.68E-02
74102,5.58E-03,6.61E-02
74103,5.51E-03,6.40E-02
74104,5.25E-03,6.20E-02
74105,4.80E-03,6.25E-02
74106,5.74E-03,6.16E-02
74107,5.58E-03,6.18E-02
74108,5.74E-03,6.18E-02
74109,5.77E-03,6.20E-02
74110,5.46E-03,6.20E-02
74111,5.53E-03,6.21E-02
74112,5.40E-03,6.21E-02
74113,5.41E-03,6.20E-02
74114,5.61E-03,6.24E-02
74115,5.49E-03,6.22E-02
74116,5.70E-03,6.21E-02
74117,5.71E-03,6.24E-02
74118,5.46E-03,6.17E-02
74119,5.59E-03,6.20E-02
74120,5.35E-03,6.11E-02
74121,5.39E-03,6.14E-02
74122,5.34E-03,6.04E-02
74123,5.31E-03,6.08E-02
74124,5.28E-03,5.94E-02
74125,5.30E-03,5.99E-02
74126,5.65E-03,5.89E-02
74127,5.33E-03,5.89E-02
74128,5.70E-03,5.73E-02
74129,5.66E-03,5.92E-02
74130,5.76E-03,5.57E-02
74131,5.76E-03,5.65E-02
74132,5.64E-03,5.49E-02
74133,5.69E-03,5.52E-02
74134,5.47E-03,5.60E-02
74135,5.52E-03,5.48E-02
74136,5.75E-03,5.95E-02
74137,5.58E-03,5.81E-02
74138,6.02E-03,6.34E-02
74139,5.95E-03,6.17E-02
74140,5.74E-03,6.65E-02
74141,5.96E-03,6.52E-02
74142,5.52E-03,6.84E-02
74143,5.53E-03,6.71E-02
74144,5.54E-03,6.97E-02
74145,5.34E-03,6.97E-02
74146,5.80E-03,7.13E-02
74147,5.64E-03,7.14E-02
74148,4.87E-03,9.06E-02
74149,6.23E-03,8.89E-02
74150,6.22E-03,7.44E-02
74151,6.58E-03,7.37E-02
74152,5.21E-03,8.71E-02
74153,4.94E-03,7.96E-02
74154,4.58E-03,7.42E-02
74155,6.25E-03,8.36E-02
74156,5.44E-03,8.70E-02
74157,5.32E-03,0.10602
74158,6.54E-03,0.10162
74159,6.35E-03,0.10223
74160,5.04E-03,0.10196
74161,5.53E-03,0.10331
74162,5.47E-03,0.10153
74163,5.58E-03,0.10118
74164,5.31E-03,9.96E-02
74165,5.40E-03,9.99E-02
74166,5.21E-03,9.93E-02
74167,5.22E-03,1.00E-01
74168,5.29E-03,9.96E-02
74169,5.24E-03,9.94E-02
74170,5.27E-03,0.10083
74171,5.41E-03,0.10026
74172,6.47E-03,9.39E-02
74173,5.79E-03,8.26E-02
74174,5.32E-03,8.37E-02
74175,5.76E-03,8.57E-02
74176,5.79E-03,8.41E-02
74177,5.67E-03,8.73E-02
74178,5.69E-03,8.68E-02
74179,5.52E-03,8.63E-02
74180,5.58E-03,8.69E-02
74181,5.32E-03,8.42E-02
74182,5.40E-03,8.51E-02
74183,5.28E-03,8.21E-02
74184,5.27E-03,8.32E-02
74185,5.24E-03,8.00E-02
74186,5.22E-03,8.11E-02
74187,5.14E-03,7.72E-02
74188,5.16E-03,7.87E-02
74189,5.00E-03,7.45E-02
74190,5.09E-03,7.58E-02
74191,4.84E-03,7.35E-02
74192,4.92E-03,7.13E-02
74193,4.72E-03,7.21E-02
74194,5.20E-03,7.02E-02
74195,5.21E-03,7.10E-02
74196,5.12E-03,6.87E-02
74197,5.26E-03,6.94E-02
74198,6.02E-03,6.75E-02
74199,5.21E-03,6.89E-02
74200,5.69E-03,6.73E-02
74201,6.22E-03,6.77E-02
74202,5.39E-03,6.68E-02
74203,4.46E-03,6.87E-02
74204,5.99E-03,6.46E-02
74205,5.65E-03,6.77E-02
74206,3.98E-03,0.10712
74207,4.71E-03,9.11E-02
74208,5.12E-03,6.59E-02
74209,7.69E-03,9.97E-02
74210,5.24E-03,9.54E-02
74211,4.88E-03,7.37E-02
74212,4.83E-03,7.33E-02
74213,5.34E-03,6.90E-02
74214,5.27E-03,6.89E-02
74215,4.56E-03,0.10264
74216,5.80E-03,0.10011
74217,4.95E-03,0.12374
74218,5.13E-03,0.12719
74219,5.86E-03,7.62E-02
74220,5.20E-03,6.78E-02
74221,5.49E-03,6.88E-02
74222,6.60E-03,6.69E-02
74223,5.74E-03,6.74E-02
74224,5.19E-03,6.55E-02
74225,6.28E-03,6.63E-02
74226,5.23E-03,6.36E-02
74227,5.00E-03,6.44E-02
74228,5.30E-03,6.19E-02
74229,5.36E-03,6.23E-02
74230,5.35E-03,6.00E-02
74231,5.53E-03,6.08E-02
74232,5.66E-03,5.93E-02
74233,5.52E-03,5.95E-02
74234,5.63E-03,5.94E-02
74235,5.69E-03,5.92E-02
74236,5.54E-03,5.94E-02
74237,5.62E-03,5.93E-02
74238,5.49E-03,5.93E-02
74239,5.52E-03,5.94E-02
74240,5.60E-03,5.92E-02
74241,5.52E-03,5.93E-02
74242,5.66E-03,5.88E-02
74243,5.62E-03,5.91E-02
74244,5.51E-03,5.81E-02
74245,5.56E-03,5.85E-02
74246,5.42E-03,5.71E-02
74247,5.44E-03,5.76E-02
74248,5.37E-03,5.59E-02
74249,5.37E-03,5.65E-02
74250,5.40E-03,5.45E-02
74251,5.37E-03,5.52E-02
74252,5.57E-03,5.33E-02
74253,5.48E-03,5.39E-02
74254,5.70E-03,5.13E-02
74255,5.66E-03,5.23E-02
74256,5.74E-03,4.91E-02
74257,5.75E-03,5.00E-02
74258,5.65E-03,4.83E-02
74259,5.70E-03,4.86E-02
74260,5.56E-03,4.93E-02
74261,5.60E-03,4.85E-02
74262,5.75E-03,5.21E-02
74263,5.66E-03,5.03E-02
74264,5.80E-03,5.49E-02
74265,5.77E-03,5.35E-02
74266,5.76E-03,5.75E-02
74267,5.82E-03,5.63E-02
74268,5.59E-03,5.96E-02
74269,5.64E-03,5.87E-02
74270,5.55E-03,6.06E-02
74271,5.53E-03,6.00E-02
74272,5.84E-03,6.11E-02
74273,5.65E-03,6.04E-02
74274,5.63E-03,6.02E-02
74275,5.84E-03,6.06E-02
74276,5.32E-03,6.56E-02
74277,5.57E-03,6.25E-02
74278,5.61E-03,6.96E-02
74279,5.52E-03,6.63E-02
74280,5.97E-03,7.31E-02
74281,5.20E-03,0.12398
74282,5.08E-03,0.12391
74283,5.73E-03,0.11945
74284,5.53E-03,0.12188
74285,5.50E-03,0.1141
74286,5.62E-03,0.11635
74287,5.46E-03,0.10917
74288,5.44E-03,0.11185
74289,5.33E-03,0.10484
74290,5.41E-03,0.10735
74291,5.23E-03,0.10131
74292,5.31E-03,0.10308
74293,5.37E-03,9.82E-02
74294,5.26E-03,9.96E-02
74295,6.18E-03,9.82E-02
74296,5.99E-03,9.70E-02
74297,4.95E-03,9.93E-02
74298,7.86E-03,9.92E-02
74299,5.87E-03,9.30E-02
74300,5.15E-03,9.18E-02
74301,5.76E-03,9.64E-02
74302,5.76E-03,9.51E-02
74303,5.67E-03,9.61E-02
74304,5.69E-03,9.67E-02
74305,5.55E-03,9.32E-02
74306,5.57E-03,9.48E-02
74307,5.41E-03,8.94E-02
74308,5.48E-03,9.13E-02
74309,5.36E-03,8.61E-02
74310,5.36E-03,8.77E-02
74311,5.28E-03,8.32E-02
74312,5.31E-03,8.46E-02
74313,5.18E-03,7.97E-02
74314,5.19E-03,8.16E-02
74315,5.09E-03,7.57E-02
74316,5.12E-03,7.77E-02
74317,4.97E-03,7.44E-02
74318,5.06E-03,7.19E-02
74319,4.87E-03,7.29E-02
74320,4.92E-03,7.25E-02
74321,5.24E-03,7.07E-02
74322,5.19E-03,7.12E-02
74323,5.31E-03,7.06E-02
74324,5.27E-03,7.05E-02
74325,5.68E-03,7.05E-02
74326,5.50E-03,7.04E-02
74327,5.64E-03,7.09E-02
74328,5.75E-03,7.11E-02
74329,5.46E-03,7.01E-02
74330,4.18E-03,7.12E-02
74331,5.04E-03,7.07E-02
74332,4.63E-03,7.13E-02
74333,4.53E-03,6.80E-02
74334,4.11E-03,6.97E-02
74335,5.76E-03,6.88E-02
74336,5.08E-03,0.1271
74337,5.10E-03,0.15545
74338,4.98E-03,0.1573
74339,5.33E-03,6.90E-02
74340,5.68E-03,6.88E-02
74341,5.01E-03,6.62E-02
74342,5.27E-03,6.65E-02
74343,4.40E-03,9.65E-02
74344,5.81E-03,6.51E-02
74345,5.56E-03,6.58E-02
74346,5.56E-03,6.35E-02
74347,5.82E-03,6.44E-02
74348,5.35E-03,6.14E-02
74349,5.37E-03,6.25E-02
74350,5.36E-03,5.94E-02
74351,5.39E-03,6.05E-02
74352,5.49E-03,5.79E-02
74353,5.46E-03,5.87E-02
74354,5.61E-03,5.70E-02
74355,5.55E-03,5.74E-02
74356,5.61E-03,5.67E-02
74357,5.63E-03,5.67E-02
74358,5.55E-03,5.66E-02
74359,5.58E-03,5.66E-02
74360,5.59E-03,5.63E-02
74361,5.55E-03,5.65E-02
74362,5.60E-03,5.59E-02
74363,5.54E-03,5.61E-02
74364,5.65E-03,5.53E-02
74365,5.59E-03,5.56E-02
74366,5.58E-03,5.42E-02
74367,5.62E-03,5.48E-02
74368,5.50E-03,5.29E-02
74369,5.54E-03,5.36E-02
74370,5.47E-03,5.13E-02
74371,5.47E-03,5.22E-02
74372,5.52E-03,4.96E-02
74373,5.47E-03,5.05E-02
74374,5.61E-03,4.75E-02
74375,5.57E-03,4.86E-02
74376,5.74E-03,4.51E-02
74377,5.71E-03,4.63E-02
74378,5.74E-03,4.28E-02
74379,5.79E-03,4.38E-02
74380,5.69E-03,4.19E-02
74381,5.72E-03,4.22E-02
74382,5.59E-03,4.23E-02
74383,5.63E-03,4.20E-02
74384,5.66E-03,4.43E-02
74385,5.61E-03,4.31E-02
74386,5.74E-03,4.67E-02
74387,5.71E-03,4.56E-02
74388,5.69E-03,4.86E-02
74389,5.72E-03,4.77E-02
74390,5.59E-03,5.01E-02
74391,5.61E-03,4.95E-02
74392,5.63E-03,5.03E-02
74393,5.60E-03,5.04E-02
74394,5.70E-03,4.95E-02
74395,5.66E-03,5.00E-02
74396,5.68E-03,4.87E-02
74397,5.73E-03,4.88E-02
74398,5.50E-03,5.01E-02
74399,5.61E-03,4.92E-02
74400,5.64E-03,5.34E-02
74401,5.52E-03,5.15E-02
74402,5.40E-03,5.66E-02
74403,5.59E-03,5.48E-02
74404,4.80E-03,6.54E-02
74405,5.09E-03,6.05E-02
74406,5.20E-03,0.14844
74407,5.14E-03,0.15197
74408,5.35E-03,0.142
74409,5.35E-03,0.14477
74410,5.55E-03,0.13514
74411,5.45E-03,0.13896
74412,5.54E-03,0.12663
74413,5.55E-03,0.13076
74414,5.46E-03,0.11818
74415,5.50E-03,0.12247
74416,5.34E-03,0.11008
74417,5.43E-03,0.11406
74418,5.26E-03,0.10201
74419,5.34E-03,0.10595
74420,5.26E-03,9.46E-02
74421,5.23E-03,9.81E-02
74422,5.55E-03,9.02E-02
74423,6.49E-03,0.10172
74424,6.35E-03,0.10068
74425,5.85E-03,0.10839
74426,6.15E-03,0.10432
74427,5.75E-03,0.10881
74428,5.76E-03,0.10899
74429,5.66E-03,0.10517
74430,5.69E-03,0.10734
74431,5.57E-03,0.10027
74432,5.58E-03,0.10278
74433,5.50E-03,9.51E-02
74434,5.54E-03,9.77E-02
74435,5.39E-03,9.01E-02
74436,5.45E-03,9.25E-02
74437,5.32E-03,8.57E-02
74438,5.36E-03,8.77E-02
74439,5.30E-03,8.18E-02
74440,5.27E-03,8.37E-02
74441,5.15E-03,7.73E-02
74442,5.22E-03,7.95E-02
74443,5.08E-03,7.43E-02
74444,5.09E-03,7.57E-02
74445,5.05E-03,7.19E-02
74446,5.09E-03,7.30E-02
74447,5.22E-03,7.11E-02
74448,5.09E-03,7.13E-02
74449,5.31E-03,7.05E-02
74450,5.28E-03,7.06E-02
74451,5.41E-03,7.24E-02
74452,5.36E-03,7.15E-02
74453,5.66E-03,7.28E-02
74454,5.52E-03,7.23E-02
74455,5.59E-03,7.50E-02
74456,5.65E-03,7.41E-02
74457,5.33E-03,7.29E-02
74458,5.46E-03,7.43E-02
74459,5.01E-03,7.34E-02
74460,5.24E-03,7.29E-02
74461,4.72E-03,7.19E-02
74462,4.83E-03,7.32E-02
74463,5.17E-03,6.84E-02
74464,4.80E-03,7.01E-02
74465,5.72E-03,6.91E-02
74466,5.46E-03,6.83E-02
74467,5.77E-03,6.93E-02
74468,4.84E-03,0.15697
74469,4.47E-03,7.28E-02
74470,5.63E-03,6.75E-02
74471,6.33E-03,6.96E-02
74472,4.90E-03,0.15248
74473,4.37E-03,8.22E-02
74474,5.84E-03,6.84E-02
74475,6.16E-03,7.03E-02
74476,5.43E-03,0.14438
74477,4.66E-03,9.04E-02
74478,5.11E-03,6.95E-02
74479,4.61E-03,7.06E-02
74480,5.26E-03,7.14E-02
74481,6.75E-03,0.13254
74482,3.97E-03,7.19E-02
74483,4.34E-03,7.40E-02
74484,4.71E-03,7.27E-02
74485,6.92E-03,0.13623
74486,5.93E-03,0.14468
74487,4.97E-03,0.17251
74488,4.12E-03,0.16462
74489,3.63E-03,0.18063
74490,4.00E-03,6.99E-02
74491,4.95E-03,6.76E-02
74492,4.49E-03,6.87E-02
74493,4.85E-03,6.59E-02
74494,5.14E-03,6.67E-02
74495,5.30E-03,6.45E-02
74496,4.99E-03,6.51E-02
74497,5.62E-03,6.31E-02
74498,5.47E-03,6.38E-02
74499,5.56E-03,6.13E-02
74500,5.64E-03,6.22E-02
74501,5.41E-03,5.93E-02
74502,5.47E-03,6.03E-02
74503,5.46E-03,5.73E-02
74504,5.43E-03,5.83E-02
74505,5.53E-03,5.57E-02
74506,5.49E-03,5.64E-02
74507,5.60E-03,5.46E-02
74508,5.56E-03,5.51E-02
74509,5.62E-03,5.39E-02
74510,5.62E-03,5.42E-02
74511,5.65E-03,5.36E-02
74512,5.63E-03,5.37E-02
74513,5.61E-03,5.31E-02
74514,5.58E-03,5.34E-02
74515,5.66E-03,5.25E-02
74516,5.61E-03,5.28E-02
74517,5.66E-03,5.15E-02
74518,5.65E-03,5.20E-02
74519,5.63E-03,5.02E-02
74520,5.64E-03,5.09E-02
74521,5.55E-03,4.86E-02
74522,5.62E-03,4.94E-02
74523,5.56E-03,4.66E-02
74524,5.54E-03,4.76E-02
74525,5.60E-03,4.44E-02
74526,5.57E-03,4.56E-02
74527,5.67E-03,4.18E-02
74528,5.63E-03,4.32E-02
74529,5.70E-03,3.91E-02
74530,5.70E-03,4.05E-02
74531,5.69E-03,3.68E-02
74532,5.75E-03,3.78E-02
74533,5.67E-03,3.56E-02
74534,5.68E-03,3.60E-02
74535,5.63E-03,3.56E-02
74536,5.64E-03,3.54E-02
74537,5.61E-03,3.69E-02
74538,5.61E-03,3.61E-02
74539,5.63E-03,3.87E-02
74540,5.63E-03,3.78E-02
74541,5.59E-03,3.99E-02
74542,5.61E-03,3.94E-02
74543,5.61E-03,4.07E-02
74544,5.58E-03,4.04E-02
74545,5.71E-03,4.03E-02
74546,5.67E-03,4.06E-02
74547,5.72E-03,3.89E-02
74548,5.70E-03,3.97E-02
74549,5.63E-03,3.77E-02
74550,5.72E-03,3.82E-02
74551,5.60E-03,3.78E-02
74552,5.65E-03,3.74E-02
74553,5.57E-03,4.06E-02
74554,5.56E-03,3.92E-02
74555,5.34E-03,4.72E-02
74556,5.49E-03,4.30E-02
74557,4.93E-03,6.14E-02
74558,5.13E-03,5.34E-02
74559,4.96E-03,8.12E-02
74560,4.84E-03,7.11E-02
74561,5.43E-03,9.23E-02
74562,6.05E-03,0.14245
74563,4.99E-03,0.20274
74564,5.46E-03,0.16964
74565,6.01E-03,0.17745
74566,5.70E-03,0.17441
74567,5.48E-03,0.1831
74568,5.80E-03,0.1789
74569,5.08E-03,0.18788
74570,5.20E-03,0.18673
74571,5.13E-03,0.18315
74572,5.06E-03,0.18672
74573,5.32E-03,0.17277
74574,5.22E-03,0.17811
74575,5.48E-03,0.16132
74576,5.39E-03,0.16722
74577,5.55E-03,0.15068
74578,5.47E-03,0.15599
74579,5.56E-03,0.13961
74580,5.57E-03,0.14529
74581,5.48E-03,0.12777
74582,5.49E-03,0.13377
74583,5.39E-03,0.11558
74584,5.44E-03,0.12171
74585,5.31E-03,0.10267
74586,5.38E-03,0.10924
74587,5.13E-03,8.91E-02
74588,5.30E-03,9.60E-02
74589,3.68E-03,7.60E-02
74590,4.95E-03,8.24E-02
74591,4.26E-03,7.27E-02
74592,3.61E-03,7.10E-02
74593,4.68E-03,8.89E-02
74594,4.02E-03,7.78E-02
74595,7.02E-03,0.11884
74596,5.46E-03,0.10481
74597,5.68E-03,0.12757
74598,6.73E-03,0.12455
74599,5.70E-03,0.12245
74600,5.69E-03,0.12618
74601,5.67E-03,0.1142
74602,5.70E-03,0.11824
74603,5.65E-03,0.10742
74604,5.69E-03,0.11062
74605,5.56E-03,0.10138
74606,5.59E-03,0.10445
74607,5.49E-03,9.44E-02
74608,5.52E-03,9.80E-02
74609,5.42E-03,8.72E-02
74610,5.43E-03,9.07E-02
74611,5.43E-03,8.25E-02
74612,5.41E-03,8.43E-02
74613,5.26E-03,8.03E-02
74614,5.36E-03,8.14E-02
74615,5.20E-03,7.52E-02
74616,5.19E-03,7.83E-02
74617,5.24E-03,6.88E-02
74618,5.25E-03,7.16E-02
74619,5.37E-03,6.78E-02
74620,5.35E-03,6.73E-02
74621,5.39E-03,7.11E-02
74622,5.37E-03,6.93E-02
74623,5.50E-03,7.39E-02
74624,5.44E-03,7.26E-02
74625,5.63E-03,7.55E-02
74626,5.53E-03,7.48E-02
74627,5.62E-03,7.75E-02
74628,5.65E-03,7.63E-02
74629,5.27E-03,8.12E-02
74630,5.44E-03,7.94E-02
74631,5.09E-03,7.60E-02
74632,5.11E-03,8.01E-02
74633,5.06E-03,6.99E-02
74634,5.04E-03,7.20E-02
74635,5.21E-03,7.05E-02
74636,5.11E-03,6.99E-02
74637,5.60E-03,6.85E-02
74638,5.44E-03,6.98E-02
74639,5.75E-03,6.77E-02
74640,5.68E-03,6.76E-02
74641,5.87E-03,7.08E-02
74642,5.78E-03,6.90E-02
74643,5.35E-03,7.36E-02
74644,5.78E-03,7.22E-02
74645,4.46E-03,7.64E-02
74646,4.86E-03,7.50E-02
74647,3.87E-03,7.85E-02
74648,4.06E-03,7.76E-02
74649,3.10E-03,0.15338
74650,4.69E-03,0.25067
74651,3.29E-03,0.15847
74652,5.13E-03,0.31927
74653,5.90E-03,7.88E-02
74654,6.02E-03,7.62E-02
74655,4.24E-03,7.36E-02
74656,3.69E-03,7.15E-02
74657,3.74E-03,6.98E-02
74658,4.07E-03,6.83E-02
74659,4.49E-03,6.69E-02
74660,4.84E-03,6.58E-02
74661,5.00E-03,6.49E-02
74662,5.00E-03,6.40E-02
74663,5.06E-03,6.33E-02
74664,5.22E-03,6.25E-02
74665,5.45E-03,6.18E-02
74666,5.54E-03,6.09E-02
74667,5.58E-03,6.00E-02
74668,5.58E-03,5.90E-02
74669,5.53E-03,5.80E-02
74670,5.49E-03,5.70E-02
74671,5.49E-03,5.60E-02
74672,5.54E-03,5.50E-02
74673,5.55E-03,5.41E-02
74674,5.55E-03,5.33E-02
74675,5.56E-03,5.26E-02
74676,5.56E-03,5.21E-02
74677,5.57E-03,5.16E-02
74678,5.57E-03,5.12E-02
74679,5.58E-03,5.08E-02
74680,5.58E-03,5.05E-02
74681,5.59E-03,5.02E-02
74682,5.59E-03,4.98E-02
74683,5.60E-03,4.94E-02
74684,5.60E-03,4.89E-02
74685,5.61E-03,4.83E-02
74686,5.61E-03,4.76E-02
74687,5.61E-03,4.69E-02
74688,5.61E-03,4.61E-02
74689,5.59E-03,4.51E-02
74690,5.58E-03,4.41E-02
74691,5.64E-03,4.30E-02
74692,5.65E-03,4.18E-02
74693,5.64E-03,4.05E-02
74694,5.69E-03,3.92E-02
74695,5.74E-03,3.77E-02
74696,5.73E-03,3.62E-02
74697,5.72E-03,3.47E-02
74698,5.72E-03,3.33E-02
74699,5.69E-03,3.20E-02
74700,5.65E-03,3.08E-02
74701,5.65E-03,2.99E-02
74702,5.65E-03,2.93E-02
74703,5.61E-03,2.90E-02
74704,5.57E-03,2.90E-02
74705,5.58E-03,2.93E-02
74706,5.58E-03,2.98E-02
74707,5.59E-03,3.04E-02
74708,5.58E-03,3.11E-02
74709,5.57E-03,3.15E-02
74710,5.54E-03,3.19E-02
74711,5.59E-03,3.20E-02
74712,5.63E-03,3.20E-02
74713,5.68E-03,3.18E-02
74714,5.71E-03,3.14E-02
74715,5.72E-03,3.09E-02
74716,5.68E-03,3.04E-02
74717,5.65E-03,3.00E-02
74718,5.58E-03,2.98E-02
74719,5.55E-03,3.02E-02
74720,5.59E-03,3.16E-02
74721,5.60E-03,3.39E-02
74722,5.61E-03,3.74E-02
74723,5.53E-03,4.24E-02
74724,5.37E-03,4.89E-02
74725,5.21E-03,5.68E-02
74726,5.01E-03,6.60E-02
74727,4.96E-03,7.61E-02
74728,5.17E-03,8.76E-02
74729,5.78E-03,0.10081
74730,6.40E-03,0.11781
74731,6.59E-03,0.1397
74732,6.32E-03,0.16637
74733,5.73E-03,0.19989
74734,5.29E-03,0.24441
74735,5.30E-03,0.30408
74736,5.95E-03,0.43414
74737,4.48E-03,0.64036
74738,3.40E-03,1.0261
74739,4.71E-03,0.63221
74740,6.21E-03,0.25152
74741,4.67E-03,0.14361
74742,4.28E-03,0.16669
74743,4.58E-03,0.18797
74744,5.13E-03,0.20694
74745,5.59E-03,0.21911
74746,5.81E-03,0.22494
74747,5.76E-03,0.229
74748,5.54E-03,0.23017
74749,5.33E-03,0.22781
74750,5.21E-03,0.22335
74751,5.17E-03,0.21792
74752,5.22E-03,0.21187
74753,5.29E-03,0.20516
74754,5.38E-03,0.19744
74755,5.47E-03,0.1893
74756,5.51E-03,0.18138
74757,5.53E-03,0.17378
74758,5.54E-03,0.16681
74759,5.53E-03,0.16008
74760,5.54E-03,0.1532
74761,5.53E-03,0.14595
74762,5.52E-03,0.13839
74763,5.53E-03,0.13046
74764,5.50E-03,0.12215
74765,5.47E-03,0.11348
74766,5.42E-03,0.10427
74767,5.39E-03,9.45E-02
74768,5.26E-03,8.45E-02
74769,4.92E-03,7.48E-02
74770,4.61E-03,6.50E-02
74771,5.83E-03,5.40E-02
74772,6.79E-03,4.93E-02
74773,6.91E-03,5.55E-02
74774,5.89E-03,7.64E-02
74775,4.80E-03,0.11625
74776,4.83E-03,0.1537
74777,5.33E-03,0.16088
74778,5.59E-03,0.15431
74779,5.60E-03,0.1464
74780,5.67E-03,0.13715
74781,5.72E-03,0.12905
74782,5.72E-03,0.12291
74783,5.73E-03,0.11802
74784,5.70E-03,0.1146
74785,5.64E-03,0.11188
74786,5.56E-03,0.10858
74787,5.50E-03,0.10443
74788,5.50E-03,9.95E-02
74789,5.49E-03,9.39E-02
74790,5.52E-03,8.80E-02
74791,5.60E-03,8.31E-02
74792,5.67E-03,8.07E-02
74793,5.49E-03,8.32E-02
74794,5.28E-03,8.60E-02
74795,5.29E-03,8.31E-02
74796,5.34E-03,7.67E-02
74797,5.42E-03,6.95E-02
74798,5.52E-03,6.37E-02
74799,5.64E-03,6.05E-02
74800,5.81E-03,6.08E-02
74801,5.56E-03,6.74E-02
74802,5.32E-03,7.50E-02
74803,5.53E-03,7.39E-02
74804,5.71E-03,7.30E-02
74805,5.51E-03,7.86E-02
74806,5.50E-03,8.11E-02
74807,5.79E-03,7.60E-02
74808,5.86E-03,7.57E-02
74809,5.44E-03,8.48E-02
74810,4.95E-03,9.59E-02
74811,4.85E-03,9.27E-02
74812,5.18E-03,7.81E-02
74813,5.73E-03,6.59E-02
74814,5.86E-03,6.25E-02
74815,5.31E-03,6.87E-02
74816,5.05E-03,7.65E-02
74817,5.26E-03,7.39E-02
74818,5.82E-03,6.55E-02
74819,6.03E-03,6.23E-02
74820,5.86E-03,6.50E-02
74821,5.81E-03,6.89E-02
74822,5.82E-03,7.20E-02
74823,5.70E-03,7.44E-02
74824,5.42E-03,7.61E-02
74825,5.00E-03,7.75E-02
74826,4.60E-03,7.86E-02
74827,4.28E-03,7.96E-02
74828,4.21E-03,8.07E-02
74829,4.83E-03,8.22E-02
74830,6.37E-03,8.36E-02
74831,6.62E-03,8.47E-02
74832,7.40E-03,8.41E-02
74833,6.61E-03,8.60E-02
74834,4.34E-03,8.54E-02
74835,2.71E-03,7.32E-02
74848,5.61E-03,1.03E-02
74849,4.95E-03,1.08E-02
74850,4.98E-03,1.15E-02
74851,6.10E-03,1.14E-02
74852,6.04E-03,1.14E-02
74853,5.69E-03,1.14E-02
74854,2.74E-03,1.15E-02
74855,3.51E-03,1.50E-02
74856,4.30E-03,1.49E-02
74857,6.16E-03,9.98E-03
74858,6.25E-03,1.05E-02
74859,6.69E-03,9.97E-03
74860,4.12E-03,1.13E-02
74861,5.80E-03,1.13E-02
74862,4.95E-03,1.47E-02
74863,4.36E-03,1.44E-02
74864,5.78E-03,9.37E-03
74865,4.49E-03,8.89E-03
74866,7.00E-03,1.13E-02
74867,6.06E-03,1.13E-02
74868,3.79E-03,1.40E-02
74869,4.42E-03,1.42E-02
74870,4.59E-03,1.40E-02
74871,4.62E-03,1.38E-02
74872,2.85E-03,1.50E-02
74873,2.07E-03,1.49E-02
74874,4.77E-03,1.45E-02
74875,4.81E-03,1.10E-02
74876,4.90E-03,1.08E-02
74877,4.85E-03,1.07E-02
74878,4.96E-03,1.10E-02
74879,4.43E-03,1.13E-02
74880,4.52E-03,1.12E-02
74881,4.65E-03,1.01E-02
74882,5.04E-03,1.12E-02
74883,5.35E-03,9.55E-03
74884,5.84E-03,9.62E-03
74885,4.50E-03,9.60E-03
74886,2.54E-03,1.17E-02
74887,2.57E-03,1.15E-02
74888,6.33E-03,1.12E-02
74889,5.75E-03,1.10E-02
74890,3.87E-03,1.14E-02
74891,5.54E-03,1.09E-02
74892,4.50E-03,1.10E-02
74893,7.55E-03,1.08E-02
74894,5.28E-03,1.13E-02
74895,3.77E-03,1.14E-02
74896,5.76E-03,1.11E-02
74897,4.46E-03,1.12E-02
74898,6.13E-03,1.13E-02
74899,3.77E-03,1.17E-02
74900,4.81E-03,1.15E-02
74901,5.88E-03,1.11E-02
74902,3.38E-03,1.18E-02
74903,3.46E-03,1.15E-02
74904,4.06E-03,1.15E-02
74905,5.82E-03,1.13E-02
74906,6.56E-03,1.06E-02
74907,5.98E-03,1.08E-02
74908,5.70E-03,1.05E-02
74909,5.63E-03,1.10E-02
74910,5.50E-03,1.07E-02
74911,5.90E-03,1.08E-02
74912,5.97E-03,1.07E-02
74913,5.29E-03,1.07E-02
74914,5.08E-03,1.06E-02
74915,4.34E-03,1.06E-02
74916,5.38E-03,1.10E-02
74917,5.45E-03,1.11E-02
74918,5.19E-03,1.11E-02
74919,5.60E-03,1.11E-02
74920,5.65E-03,1.11E-02
74921,5.26E-03,1.12E-02
74922,5.58E-03,1.12E-02
74923,3.95E-03,1.12E-02
74924,5.07E-03,1.12E-02
74925,6.42E-03,1.13E-02
74926,6.27E-03,1.14E-02
74927,6.75E-03,1.14E-02
74928,5.18E-03,1.13E-02
74929,5.19E-03,1.14E-02
74930,4.14E-03,1.12E-02
74931,4.74E-03,1.10E-02
74932,4.69E-03,1.11E-02
74933,4.51E-03,1.11E-02
74934,4.87E-03,1.09E-02
74935,4.91E-03,1.09E-02
74936,4.91E-03,1.10E-02
74937,5.31E-03,1.05E-02
74938,5.02E-03,1.07E-02
74939,5.05E-03,1.07E-02
74940,6.19E-03,1.01E-02
74941,5.40E-03,1.04E-02
74942,5.76E-03,1.01E-02
74943,5.49E-03,1.00E-02
74944,6.28E-03,1.00E-02
74945,4.14E-03,1.07E-02
74946,5.68E-03,1.10E-02
74947,5.29E-03,1.13E-02
74948,4.83E-03,1.08E-02
74949,4.88E-03,1.05E-02
74950,5.49E-03,9.99E-03
74951,5.11E-03,9.89E-03
74952,5.62E-03,9.92E-03
74953,5.33E-03,9.83E-03
74954,6.27E-03,9.96E-03
74955,6.21E-03,9.81E-03
74956,5.63E-03,9.68E-03
74957,4.07E-03,9.69E-03
74958,5.09E-03,9.64E-03
74959,5.10E-03,1.14E-02
74960,4.86E-03,1.11E-02
74961,6.51E-03,1.18E-02
74962,5.91E-03,1.16E-02
74963,6.37E-03,1.20E-02
74964,6.37E-03,1.20E-02
74965,6.19E-03,1.19E-02
74966,6.93E-03,1.19E-02
74967,4.37E-03,1.17E-02
74968,4.82E-03,1.19E-02
74969,4.87E-03,1.12E-02
74970,4.84E-03,1.15E-02
74971,5.78E-03,1.09E-02
74972,5.37E-03,1.11E-02
74973,6.65E-03,1.04E-02
74974,5.94E-03,1.07E-02
74975,3.72E-03,1.01E-02
74976,5.17E-03,1.03E-02
74977,5.47E-03,1.01E-02
74978,4.91E-03,9.99E-03
74979,5.33E-03,1.00E-02
74980,5.89E-03,1.00E-02
74981,4.22E-03,1.01E-02
74982,5.07E-03,1.00E-02
74983,3.96E-03,1.04E-02
74984,5.18E-03,1.15E-02
74985,4.56E-03,1.16E-02
74986,5.18E-03,1.14E-02
74987,4.45E-03,1.15E-02
74988,6.16E-03,1.13E-02
74989,5.85E-03,1.12E-02
74990,5.45E-03,1.14E-02
74991,5.53E-03,1.13E-02
74992,5.43E-03,1.14E-02
74993,5.52E-03,1.14E-02
74994,5.13E-03,1.13E-02
74995,5.41E-03,1.14E-02
74996,4.85E-03,1.13E-02
74997,4.91E-03,1.13E-02
74998,5.02E-03,1.13E-02
74999,5.39E-03,1.13E-02
75000,3.99E-03,1.14E-02
75001,6.00E-03,1.11E-02
75002,5.68E-03,1.13E-02
75003,6.24E-03,1.10E-02
75004,5.94E-03,1.11E-02
75005,6.18E-03,1.10E-02
75006,6.26E-03,1.10E-02
75007,5.51E-03,1.11E-02
75008,5.90E-03,1.10E-02
75009,5.03E-03,1.09E-02
75010,5.21E-03,1.10E-02
75011,5.05E-03,1.08E-02
75012,5.01E-03,1.09E-02
75013,5.25E-03,1.06E-02
75014,5.08E-03,1.07E-02
75015,4.87E-03,1.03E-02
75016,4.80E-03,1.04E-02
75017,5.57E-03,1.01E-02
75018,4.97E-03,1.02E-02
75019,5.78E-03,9.95E-03
75020,5.65E-03,1.00E-02
75021,5.58E-03,9.62E-03
75022,5.79E-03,9.80E-03
75023,4.71E-03,9.54E-03
75024,5.26E-03,9.51E-03
75025,5.66E-03,1.17E-02
75026,5.00E-03,1.02E-02
75027,6.69E-03,1.18E-02
75028,5.77E-03,1.21E-02
75029,5.57E-03,1.22E-02
75030,4.95E-03,1.04E-02
75031,4.38E-03,1.00E-02
75032,5.47E-03,9.63E-03
75033,5.75E-03,9.91E-03
75034,5.31E-03,9.49E-03
75035,4.71E-03,9.38E-03
75036,5.60E-03,1.00E-02
75037,6.45E-03,9.75E-03
75038,4.96E-03,9.99E-03
75039,4.99E-03,1.02E-02
75040,5.17E-03,9.29E-03
75041,4.75E-03,9.55E-03
75042,4.08E-03,9.37E-03
75043,4.39E-03,9.18E-03
75044,4.81E-03,9.16E-03
75045,5.34E-03,1.16E-02
75046,5.18E-03,1.09E-02
75047,5.79E-03,1.26E-02
75048,5.61E-03,1.22E-02
75049,6.09E-03,1.31E-02
75050,6.00E-03,1.29E-02
75051,5.64E-03,1.29E-02
75052,6.16E-03,1.32E-02
75053,5.06E-03,1.14E-02
75054,5.21E-03,1.23E-02
75055,5.17E-03,1.06E-02
75056,5.05E-03,1.08E-02
75057,5.67E-03,1.08E-02
75058,5.52E-03,1.06E-02
75059,5.62E-03,1.07E-02
75060,5.72E-03,1.08E-02
75061,4.90E-03,9.51E-03
75062,5.36E-03,1.03E-02
75063,5.45E-03,8.99E-03
75064,5.06E-03,9.06E-03
75065,5.42E-03,9.20E-03
75066,5.51E-03,9.02E-03
75067,4.86E-03,9.78E-03
75068,5.08E-03,9.44E-03
75069,4.93E-03,1.05E-02
75070,4.94E-03,1.02E-02
75071,6.37E-03,1.14E-02
75072,5.14E-03,1.12E-02
75073,5.58E-03,1.18E-02
75074,6.65E-03,1.16E-02
75075,5.47E-03,1.22E-02
75076,4.71E-03,1.19E-02
75077,6.93E-03,1.24E-02
75078,6.11E-03,1.27E-02
75079,5.95E-03,1.30E-02
75080,5.33E-03,1.35E-02
75081,4.77E-03,1.34E-02
75082,4.51E-03,1.37E-02
75083,6.05E-03,1.29E-02
75084,5.11E-03,1.31E-02
75085,6.76E-03,1.24E-02
75086,6.82E-03,1.26E-02
75087,5.93E-03,1.21E-02
75088,6.12E-03,1.23E-02
75089,5.39E-03,1.18E-02
75090,5.72E-03,1.20E-02
75091,5.22E-03,1.16E-02
75092,5.09E-03,1.17E-02
75093,5.68E-03,1.16E-02
75094,5.48E-03,1.16E-02
75095,5.49E-03,1.16E-02
75096,5.60E-03,1.16E-02
75097,5.45E-03,1.16E-02
75098,5.45E-03,1.16E-02
75099,5.28E-03,1.15E-02
75100,5.37E-03,1.16E-02
75101,5.14E-03,1.14E-02
75102,5.10E-03,1.15E-02
75103,5.37E-03,1.14E-02
75104,5.22E-03,1.14E-02
75105,5.02E-03,1.13E-02
75106,5.24E-03,1.14E-02
75107,5.32E-03,1.12E-02
75108,5.42E-03,1.13E-02
75109,5.83E-03,1.10E-02
75110,5.66E-03,1.11E-02
75111,5.98E-03,1.08E-02
75112,5.95E-03,1.09E-02
75113,5.94E-03,1.08E-02
75114,6.01E-03,1.08E-02
75115,5.51E-03,1.09E-02
75116,5.79E-03,1.08E-02
75117,5.18E-03,1.09E-02
75118,5.33E-03,1.09E-02
75119,5.08E-03,1.08E-02
75120,5.10E-03,1.08E-02
75121,5.10E-03,1.06E-02
75122,5.09E-03,1.07E-02
75123,5.15E-03,1.03E-02
75124,5.06E-03,1.05E-02
75125,5.45E-03,1.01E-02
75126,5.31E-03,1.02E-02
75127,5.69E-03,9.90E-03
75128,5.62E-03,1.00E-02
75129,5.65E-03,9.63E-03
75130,5.66E-03,9.77E-03
75131,6.32E-03,9.52E-03
75132,5.59E-03,9.53E-03
75133,5.39E-03,9.56E-03
75134,6.22E-03,9.60E-03
75135,4.85E-03,9.29E-03
75136,5.07E-03,9.33E-03
75137,5.10E-03,9.43E-03
75138,5.94E-03,9.36E-03
75139,5.05E-03,9.18E-03
75140,4.39E-03,9.83E-03
75141,4.38E-03,9.70E-03
75142,6.60E-03,9.33E-03
75143,5.64E-03,9.98E-03
75144,5.39E-03,9.25E-03
75145,5.53E-03,8.59E-03
75146,5.76E-03,8.59E-03
75147,5.65E-03,9.44E-03
75148,5.27E-03,1.08E-02
75149,4.86E-03,1.13E-02
75150,5.02E-03,1.05E-02
75151,5.14E-03,9.47E-03
75152,5.34E-03,8.62E-03
75153,5.93E-03,8.20E-03
75154,7.37E-03,8.64E-03
75155,6.75E-03,9.63E-03
75156,6.06E-03,1.03E-02
75157,6.55E-03,9.29E-03
75158,6.06E-03,9.74E-03
75159,5.72E-03,9.22E-03
75160,5.88E-03,9.01E-03
75161,5.08E-03,9.10E-03
75162,5.25E-03,9.21E-03
75163,3.21E-03,9.20E-03
75164,4.44E-03,9.20E-03
75165,5.84E-03,9.68E-03
75166,5.34E-03,1.07E-02
75167,5.29E-03,1.20E-02
75168,5.39E-03,1.30E-02
75169,5.59E-03,1.36E-02
75170,5.75E-03,1.40E-02
75171,5.68E-03,1.47E-02
75172,5.30E-03,1.54E-02
75173,5.01E-03,1.46E-02
75174,5.25E-03,1.28E-02
75175,5.32E-03,1.10E-02
75176,5.69E-03,9.67E-03
75177,5.80E-03,9.36E-03
75178,5.66E-03,9.92E-03
75179,5.62E-03,1.07E-02
75180,5.42E-03,1.15E-02
75181,5.09E-03,1.17E-02
75182,4.95E-03,1.06E-02
75183,5.35E-03,8.69E-03
75184,5.61E-03,7.65E-03
75185,5.69E-03,7.51E-03
75186,5.65E-03,7.84E-03
75187,5.49E-03,8.34E-03
75188,5.29E-03,8.91E-03
75189,5.11E-03,9.46E-03
75190,5.04E-03,9.95E-03
75191,5.00E-03,1.03E-02
75192,5.02E-03,1.07E-02
75193,5.03E-03,1.10E-02
75194,5.35E-03,1.12E-02
75195,5.77E-03,1.14E-02
75196,5.97E-03,1.15E-02
75197,5.77E-03,1.15E-02
75198,5.62E-03,1.17E-02
75199,5.88E-03,1.20E-02
75200,6.23E-03,1.22E-02
75201,6.38E-03,1.25E-02
75202,6.27E-03,1.30E-02
75203,5.59E-03,1.32E-02
75204,4.55E-03,1.36E-02
75205,3.61E-03,1.39E-02
75206,3.51E-03,1.42E-02
75207,3.87E-03,1.47E-02
75208,4.82E-03,1.49E-02
75209,3.34E-03,1.52E-02
75210,2.97E-03,1.49E-02
75211,3.69E-03,1.53E-02
75212,6.85E-03,1.60E-02
75213,6.12E-03,1.56E-02
75214,4.06E-03,1.54E-02
75215,3.86E-03,1.53E-02
75216,1.89E-03,1.51E-02
75217,5.44E-03,1.43E-02
75218,4.68E-03,1.41E-02
75219,4.72E-03,1.39E-02
75220,4.92E-03,1.36E-02
75221,5.36E-03,1.33E-02
75222,5.79E-03,1.31E-02
75223,6.15E-03,1.29E-02
75224,6.27E-03,1.27E-02
75225,6.11E-03,1.25E-02
75226,5.87E-03,1.24E-02
75227,5.66E-03,1.22E-02
75228,5.42E-03,1.20E-02
75229,5.28E-03,1.19E-02
75230,5.30E-03,1.19E-02
75231,5.45E-03,1.18E-02
75232,5.53E-03,1.18E-02
75233,5.54E-03,1.18E-02
75234,5.52E-03,1.18E-02
75235,5.51E-03,1.18E-02
75236,5.44E-03,1.17E-02
75237,5.35E-03,1.17E-02
75238,5.29E-03,1.17E-02
75239,5.28E-03,1.16E-02
75240,5.36E-03,1.16E-02
75241,5.44E-03,1.15E-02
75242,5.49E-03,1.14E-02
75243,5.46E-03,1.14E-02
75244,5.37E-03,1.13E-02
75245,5.43E-03,1.12E-02
75246,5.57E-03,1.11E-02
75247,5.66E-03,1.10E-02
75248,5.78E-03,1.09E-02
75249,5.90E-03,1.08E-02
75250,5.98E-03,1.07E-02
75251,5.98E-03,1.07E-02
75252,5.87E-03,1.07E-02
75253,5.71E-03,1.07E-02
75254,5.54E-03,1.07E-02
75255,5.42E-03,1.08E-02
75256,5.30E-03,1.08E-02
75257,5.16E-03,1.07E-02
75258,5.14E-03,1.07E-02
75259,5.13E-03,1.06E-02
75260,5.12E-03,1.05E-02
75261,5.16E-03,1.04E-02
75262,5.24E-03,1.03E-02
75263,5.35E-03,1.02E-02
75264,5.50E-03,1.01E-02
75265,5.60E-03,9.99E-03
75266,5.65E-03,9.86E-03
75267,5.65E-03,9.75E-03
75268,5.62E-03,9.64E-03
75269,5.79E-03,9.56E-03
75270,5.96E-03,9.50E-03
75271,5.89E-03,9.49E-03
75272,5.63E-03,9.46E-03
75273,5.35E-03,9.39E-03
75274,5.25E-03,9.26E-03
75275,4.96E-03,9.12E-03
75276,6.39E-03,9.06E-03
75277,7.00E-03,9.03E-03
75278,6.29E-03,9.05E-03
75279,5.75E-03,8.92E-03
75280,4.13E-03,8.78E-03
75281,4.57E-03,8.70E-03
75282,5.73E-03,8.73E-03
75283,5.82E-03,8.57E-03
75284,3.91E-03,8.26E-03
75285,4.71E-03,8.45E-03
75286,5.21E-03,8.52E-03
75287,6.37E-03,8.36E-03
75288,5.09E-03,7.58E-03
75289,3.45E-03,7.16E-03
75290,4.96E-03,1.68E-02
75291,3.00E-03,1.78E-02
75292,2.04E-03,9.30E-03
75293,2.58E-03,8.91E-03
14359,1.59E-03,1.35E-02
14360,2.83E-03,1.22E-02
14361,2.67E-03,1.17E-02
14362,2.21E-03,1.19E-02
14363,1.94E-03,1.10E-02
14364,1.82E-03,1.35E-02
14365,3.06E-03,1.94E-02
14366,2.31E-03,6.30E-03
14367,2.30E-03,7.87E-03
14368,1.88E-03,6.30E-03
14369,3.33E-03,6.50E-03
14370,2.81E-03,8.82E-03
14371,2.25E-03,1.51E-02
14372,3.26E-03,1.00E-02
14373,3.83E-03,8.40E-03
14374,2.74E-03,9.11E-03
14375,3.39E-03,7.04E-03
14376,3.78E-03,6.79E-03
14377,2.84E-03,2.80E-03
14378,3.06E-03,6.61E-03
21975,1.69E-03,8.18E-03
21976,2.27E-03,0.43729
21977,2.27E-03,3.87E-02
21978,1.66E-03,7.01E-03
21979,2.30E-03,2.93E-02
21980,1.61E-03,3.00E-03
21981,2.79E-03,5.80E-03
21982,3.04E-03,0.18242
21983,1.97E-03,0.16974
21984,2.35E-03,5.27E-03
21985,2.37E-03,4.45E-03
21986,3.30E-03,3.84E-03
21987,2.47E-03,6.18E-03
21988,1.75E-03,6.17E-03
21989,2.43E-03,6.28E-03
21990,1.93E-03,1.95E-03
21991,2.12E-03,0.11859
21992,2.35E-03,1.19E-02
21993,1.92E-03,4.50E-02
21994,2.39E-03,2.88E-02
21995,3.29E-03,1.37E-02
21996,1.99E-03,3.69E-02
21997,2.42E-03,1.90E-02
21998,2.93E-03,9.99E-02
21999,2.41E-03,1.40E-02
22000,1.87E-03,0.10183
22001,3.58E-03,8.87E-02
22002,1.97E-03,7.56E-02
22003,3.51E-03,1.05E-02
22004,2.35E-03,7.40E-02
22005,3.07E-03,7.98E-02
22006,2.57E-03,2.95E-02
22007,2.09E-03,5.48E-02
22008,2.45E-03,3.75E-03
22009,1.70E-03,3.06E-02
22010,2.67E-03,2.49E-02
22011,1.81E-03,4.59E-03
22012,2.66E-03,4.55E-03
22013,1.97E-03,4.91E-03
22014,2.40E-03,4.03E-02
22015,2.20E-03,4.50E-02
22016,2.88E-03,5.91E-03
22017,3.15E-03,8.57E-03
22018,2.47E-03,4.98E-02
22019,2.46E-03,5.03E-02
22020,2.99E-03,1.46E-02
22021,3.05E-03,1.53E-02
22022,2.47E-03,4.65E-02
22023,2.75E-03,5.12E-02
22024,2.48E-03,8.18E-03
22025,2.56E-03,9.62E-03
22026,2.59E-03,2.77E-02
22027,2.44E-03,1.04E-02
22028,2.72E-03,1.08E-02
22029,2.43E-03,8.44E-03
22030,2.88E-03,3.87E-02
22031,2.39E-03,1.56E-02
22032,2.97E-03,8.61E-03
22033,2.37E-03,3.87E-02
22034,2.92E-03,1.10E-02
22035,2.54E-03,7.78E-03
22036,3.34E-03,8.90E-03
22037,2.48E-03,3.63E-02
22038,2.79E-03,8.86E-03
22039,2.47E-03,7.85E-03
22040,2.56E-03,8.02E-03
22041,1.43E-03,1.31E-02
22042,3.05E-03,1.08E-02
22043,3.61E-03,1.68E-02
22044,1.82E-03,8.78E-03
22045,2.35E-03,9.40E-03
22046,1.42E-03,0.14917
22047,2.56E-03,4.45E-02
22048,2.30E-03,1.47E-02
22049,2.45E-03,8.02E-03
22050,2.52E-03,1.56E-02
22051,2.63E-03,3.37E-02
22052,2.93E-03,9.52E-03
22053,2.51E-03,2.52E-02
22054,2.71E-03,8.36E-03
22055,2.74E-03,1.68E-02
22056,3.26E-03,3.13E-02
43657,7.13E-04,8.61E-03
43658,6.56E-04,8.40E-03
43660,1.63E-03,1.31E-02
43661,3.00E-03,1.37E-02
43662,1.43E-03,1.39E-02
43663,2.14E-03,1.68E-02
43664,2.27E-03,1.18E-02
43665,3.59E-03,1.14E-02
43666,2.37E-03,9.48E-03
43667,2.22E-03,1.07E-02
43668,2.33E-03,1.36E-02
43669,2.66E-03,9.56E-03
43670,2.52E-03,1.46E-02
43671,2.83E-03,1.08E-02
43672,2.54E-03,7.39E-03
43673,2.80E-03,6.58E-03
43674,2.58E-03,1.76E-02
43675,2.55E-03,1.07E-02
43676,2.41E-03,9.75E-03
43677,1.52E-03,2.16E-02
43678,2.43E-03,2.01E-02
43679,2.46E-03,1.06E-02
43680,3.08E-03,1.32E-02
43681,2.14E-03,2.12E-02
43682,2.93E-03,2.41E-02
43683,2.26E-03,1.65E-02
43684,2.09E-03,2.26E-02
43685,2.81E-03,1.39E-02
43686,2.78E-03,1.45E-02
43687,3.01E-03,2.42E-02
43688,3.51E-03,1.52E-02
43689,2.64E-03,1.66E-02
43690,2.40E-03,1.31E-02
43691,2.12E-03,1.30E-02
43692,3.24E-03,1.29E-02
43693,3.03E-03,1.43E-02
43694,2.42E-03,1.45E-02
43695,2.55E-03,1.56E-02
43696,2.44E-03,1.39E-02
43697,3.16E-03,1.24E-02
43698,1.73E-03,1.58E-02
43699,2.65E-03,1.81E-02
43700,2.35E-03,1.65E-02
43701,3.26E-03,1.81E-02
43702,2.51E-03,1.73E-02
43703,2.46E-03,1.82E-02
43704,2.52E-03,1.98E-02
43705,8.45E-04,1.43E-02
43706,8.45E-04,1.43E-02
43707,2.19E-03,1.07E-02
43708,2.02E-03,2.73E-02
43709,2.37E-03,1.34E-02
43710,3.87E-03,7.57E-03
43711,2.73E-03,2.94E-02
43712,2.43E-03,1.83E-02
43713,2.77E-03,1.16E-02
43714,2.48E-03,1.86E-02
43715,3.38E-03,2.11E-02
43716,3.47E-03,1.18E-02
43717,3.02E-03,1.41E-02
68005,1.54E-03,2.62E-04
68006,2.82E-03,4.04E-04
68007,2.09E-03,2.52E-02
68008,2.06E-03,9.65E-03
68009,2.10E-03,2.25E-02
68010,2.57E-03,3.55E-03
68011,2.75E-03,2.12E-02
68012,2.00E-03,8.46E-03
68013,2.46E-03,8.67E-03
68014,2.54E-03,5.90E-03
68015,2.11E-03,9.32E-03
68016,2.49E-03,6.88E-03
68017,3.07E-03,1.31E-02
68018,2.52E-03,8.09E-03
68019,2.57E-03,8.86E-03
68020,2.87E-03,9.57E-03
68021,2.20E-03,1.48E-02
68022,2.27E-03,8.87E-03
68023,1.93E-03,1.53E-02
68024,3.36E-03,1.40E-02
68025,2.60E-03,1.00E-02
68026,2.59E-03,9.89E-03
68027,2.38E-03,8.81E-03
68028,2.21E-03,8.80E-03
68029,2.76E-03,8.74E-03
68030,2.06E-03,1.09E-02
68031,2.85E-03,1.14E-02
68032,2.49E-03,1.02E-02
68033,2.73E-03,1.04E-02
68034,1.71E-03,8.51E-03
68035,2.99E-03,7.22E-03
68036,1.98E-03,9.59E-03
68037,2.62E-03,1.32E-02
68038,2.56E-03,8.96E-03
72985,2.37E-03,1.70E-03
72986,2.71E-03,7.70E-04
73892,1.03E-03,6.12E-02
73893,2.42E-03,8.02E-02
73894,1.85E-03,6.72E-02
73895,2.63E-03,6.50E-02
73896,2.69E-03,6.63E-02
73897,2.43E-03,8.96E-02
73898,2.20E-03,6.62E-02
73899,2.43E-03,6.90E-02
73900,2.84E-03,6.91E-02
73901,2.53E-03,8.75E-02
73902,2.59E-03,8.32E-02
73903,2.62E-03,6.93E-02
74836,1.22E-03,7.78E-03
74837,1.00E-03,1.89E-02
74838,3.09E-03,9.10E-03
74839,1.62E-03,1.42E-02
74840,2.76E-03,1.34E-02
74841,1.86E-03,1.16E-02
74842,2.54E-03,1.06E-02
74843,3.23E-03,1.10E-02
74844,1.80E-03,1.15E-02
74845,1.67E-03,1.16E-02
74846,1.83E-03,1.05E-02
74847,2.72E-03,1.02E-02
75306,1.53E-02,2.40E-02
75307,1.53E-02,1.80E-02
75308,1.53E-02,1.22E-02
75309,1.53E-02,8.78E-03
75310,1.53E-02,5.57E-03
75311,1.53E-02,2.42E-02
75312,1.53E-02,2.11E-02
75313,1.53E-02,1.80E-02
75314,1.53E-02,1.51E-02
75315,1.53E-02,1.19E-02
75316,1.53E-02,8.79E-03
75317,1.53E-02,5.57E-03
75318,1.53E-02,2.41E-02
75319,1.53E-02,2.11E-02
75320,1.53E-02,1.80E-02
75321,1.53E-02,1.50E-02
75322,1.53E-02,1.19E-02
75323,1.53E-02,8.77E-03
75324,1.53E-02,5.60E-03
75325,1.53E-02,2.40E-02
75326,1.53E-02,2.10E-02
75327,1.53E-02,1.80E-02
75328,1.53E-02,1.50E-02
75329,1.53E-02,1.19E-02
75330,1.53E-02,8.78E-03
75331,1.53E-02,5.62E-03
75332,1.53E-02,2.39E-02
75333,1.53E-02,2.10E-02
75334,1.53E-02,1.80E-02
75335,1.53E-02,1.50E-02
75336,1.53E-02,1.19E-02
75337,1.53E-02,8.79E-03
75338,1.53E-02,5.65E-03
75339,1.53E-02,2.39E-02
75340,1.53E-02,2.09E-02
75341,1.53E-02,1.79E-02
75342,1.53E-02,1.49E-02
75343,1.53E-02,1.19E-02
75344,1.53E-02,8.80E-03
75345,1.53E-02,5.68E-03
75346,1.53E-02,2.38E-02
75347,1.53E-02,2.09E-02
75348,1.53E-02,1.79E-02
75349,1.53E-02,1.49E-02
75350,1.53E-02,1.19E-02
75351,1.53E-02,8.81E-03
75352,1.53E-02,5.71E-03
75353,1.53E-02,2.37E-02
75354,1.53E-02,2.08E-02
75355,1.53E-02,1.79E-02
75356,1.53E-02,1.49E-02
75357,1.53E-02,1.19E-02
75358,1.53E-02,8.83E-03
75359,1.53E-02,5.74E-03
75360,1.53E-02,2.37E-02
75361,1.53E-02,2.08E-02
75362,1.53E-02,1.78E-02
75363,1.53E-02,1.49E-02
75364,1.53E-02,1.19E-02
75365,1.53E-02,8.85E-03
75366,1.53E-02,5.78E-03
75367,1.53E-02,2.36E-02
75368,1.53E-02,2.07E-02
75369,1.53E-02,1.78E-02
75370,1.53E-02,1.49E-02
75371,1.53E-02,1.19E-02
75372,1.53E-02,8.87E-03
75373,1.53E-02,5.82E-03
75374,1.53E-02,2.36E-02
75375,1.53E-02,2.07E-02
75376,1.53E-02,1.78E-02
75377,1.53E-02,1.49E-02
75378,1.53E-02,1.19E-02
75379,1.53E-02,8.89E-03
75380,1.53E-02,5.86E-03
75381,1.53E-02,2.35E-02
75382,1.53E-02,2.07E-02
75383,1.53E-02,1.78E-02
75384,1.53E-02,1.49E-02
75385,1.53E-02,1.19E-02
75386,1.53E-02,8.92E-03
75387,1.53E-02,5.90E-03
75388,1.53E-02,2.35E-02
75389,1.53E-02,2.06E-02
75390,1.53E-02,1.78E-02
75391,1.53E-02,1.49E-02
75392,1.53E-02,1.19E-02
75393,1.53E-02,8.94E-03
75394,1.53E-02,5.95E-03
75395,1.53E-02,2.34E-02
75396,1.53E-02,2.06E-02
75397,1.53E-02,1.77E-02
75398,1.53E-02,1.49E-02
75399,1.53E-02,1.19E-02
75400,1.53E-02,8.98E-03
75401,1.53E-02,5.99E-03
75402,1.53E-02,2.34E-02
75403,1.53E-02,2.06E-02
75404,1.53E-02,1.77E-02
75405,1.53E-02,1.49E-02
75406,1.53E-02,1.19E-02
75407,1.53E-02,9.01E-03
75408,1.53E-02,6.04E-03
75409,1.52E-02,2.33E-02
75410,1.52E-02,2.05E-02
75411,1.52E-02,1.77E-02
75412,1.52E-02,1.49E-02
75413,1.52E-02,1.20E-02
75414,1.53E-02,9.05E-03
75415,1.53E-02,6.10E-03
75416,1.52E-02,2.33E-02
75417,1.52E-02,2.05E-02
75418,1.52E-02,1.77E-02
75419,1.52E-02,1.49E-02
75420,1.52E-02,1.20E-02
75421,1.52E-02,9.09E-03
75422,1.52E-02,6.15E-03
75423,1.52E-02,2.32E-02
75424,1.52E-02,2.05E-02
75425,1.52E-02,1.77E-02
75426,1.52E-02,1.49E-02
75427,1.52E-02,1.20E-02
75428,1.52E-02,9.13E-03
75429,1.52E-02,6.21E-03
75430,1.52E-02,2.32E-02
75431,1.52E-02,2.05E-02
75432,1.52E-02,1.77E-02
75433,1.52E-02,1.49E-02
75434,1.52E-02,1.21E-02
75435,1.52E-02,9.17E-03
75436,1.52E-02,6.27E-03
75437,1.52E-02,2.31E-02
75438,1.52E-02,2.04E-02
75439,1.52E-02,1.77E-02
75440,1.52E-02,1.49E-02
75441,1.52E-02,1.21E-02
75442,1.52E-02,9.22E-03
75443,1.52E-02,6.34E-03
75444,1.52E-02,2.31E-02
75445,1.52E-02,2.04E-02
75446,1.52E-02,1.77E-02
75447,1.52E-02,1.49E-02
75448,1.52E-02,1.21E-02
75449,1.52E-02,9.28E-03
75450,1.52E-02,6.40E-03
75451,1.52E-02,2.31E-02
75452,1.52E-02,2.04E-02
75453,1.52E-02,1.77E-02
75454,1.52E-02,1.50E-02
75455,1.52E-02,1.22E-02
75456,1.52E-02,9.33E-03
75457,1.52E-02,6.47E-03
75458,1.51E-02,2.30E-02
75459,1.51E-02,2.04E-02
75460,1.51E-02,1.77E-02
75461,1.51E-02,1.50E-02
75462,1.51E-02,1.22E-02
75463,1.52E-02,9.39E-03
75464,1.52E-02,6.54E-03
75465,1.51E-02,2.30E-02
75466,1.51E-02,2.04E-02
75467,1.51E-02,1.77E-02
75468,1.51E-02,1.50E-02
75469,1.51E-02,1.23E-02
75470,1.51E-02,9.45E-03
75471,1.51E-02,6.62E-03
75472,1.51E-02,2.30E-02
75473,1.51E-02,2.04E-02
75474,1.51E-02,1.78E-02
75475,1.51E-02,1.51E-02
75476,1.51E-02,1.23E-02
75477,1.51E-02,9.52E-03
75478,1.51E-02,6.69E-03
75479,1.51E-02,2.29E-02
75480,1.51E-02,2.04E-02
75481,1.51E-02,1.78E-02
75482,1.51E-02,1.51E-02
75483,1.51E-02,1.24E-02
75484,1.51E-02,9.59E-03
75485,1.51E-02,6.77E-03
75486,1.51E-02,2.29E-02
75487,1.51E-02,2.04E-02
75488,1.51E-02,1.78E-02
75489,1.51E-02,1.52E-02
75490,1.51E-02,1.24E-02
75491,1.51E-02,9.67E-03
75492,1.51E-02,6.86E-03
75493,1.50E-02,2.29E-02
75494,1.50E-02,2.04E-02
75495,1.50E-02,1.78E-02
75496,1.50E-02,1.52E-02
75497,1.50E-02,1.25E-02
75498,1.50E-02,9.75E-03
75499,1.50E-02,6.95E-03
75500,1.50E-02,2.29E-02
75501,1.50E-02,2.04E-02
75502,1.50E-02,1.79E-02
75503,1.50E-02,1.53E-02
75504,1.50E-02,1.26E-02
75505,1.50E-02,9.84E-03
75506,1.50E-02,7.04E-03
75507,1.50E-02,2.29E-02
75508,1.50E-02,2.04E-02
75509,1.50E-02,1.79E-02
75510,1.50E-02,1.53E-02
75511,1.50E-02,1.27E-02
75512,1.50E-02,9.94E-03
75513,1.50E-02,7.14E-03
75514,1.49E-02,2.29E-02
75515,1.49E-02,2.04E-02
75516,1.49E-02,1.80E-02
75517,1.49E-02,1.54E-02
75518,1.49E-02,1.28E-02
75519,1.49E-02,1.00E-02
75520,1.49E-02,7.25E-03
75521,1.49E-02,2.29E-02
75522,1.49E-02,2.05E-02
75523,1.49E-02,1.80E-02
75524,1.49E-02,1.55E-02
75525,1.49E-02,1.29E-02
75526,1.49E-02,1.02E-02
75527,1.49E-02,7.36E-03
75528,1.48E-02,2.29E-02
75529,1.48E-02,2.05E-02
75530,1.48E-02,1.81E-02
75531,1.48E-02,1.56E-02
75532,1.48E-02,1.30E-02
75533,1.48E-02,1.03E-02
75534,1.48E-02,7.49E-03
75535,1.48E-02,2.29E-02
75536,1.48E-02,2.05E-02
75537,1.48E-02,1.81E-02
75538,1.48E-02,1.57E-02
75539,1.48E-02,1.31E-02
75540,1.48E-02,1.04E-02
75541,1.47E-02,7.64E-03
75542,1.47E-02,2.29E-02
75543,1.47E-02,2.06E-02
75544,1.47E-02,1.82E-02
75545,1.47E-02,1.58E-02
75546,1.47E-02,1.32E-02
75547,1.47E-02,1.06E-02
75548,1.47E-02,7.83E-03
75549,1.46E-02,2.29E-02
75550,1.46E-02,2.06E-02
75551,1.46E-02,1.83E-02
75552,1.46E-02,1.59E-02
75553,1.46E-02,1.34E-02
75554,1.46E-02,1.08E-02
75555,1.46E-02,8.05E-03
75556,1.45E-02,2.29E-02
75557,1.45E-02,2.07E-02
75558,1.45E-02,1.84E-02
75559,1.45E-02,1.60E-02
75560,1.45E-02,1.35E-02
75561,1.45E-02,1.10E-02
75562,1.45E-02,8.31E-03
75563,1.44E-02,2.29E-02
75564,1.44E-02,2.07E-02
75565,1.44E-02,1.85E-02
75566,1.44E-02,1.61E-02
75567,1.44E-02,1.37E-02
75568,1.44E-02,1.12E-02
75569,1.44E-02,8.59E-03
75570,1.44E-02,2.30E-02
75571,1.43E-02,2.08E-02
75572,1.43E-02,1.86E-02
75573,1.43E-02,1.62E-02
75574,1.43E-02,1.39E-02
75575,1.43E-02,1.14E-02
75576,1.43E-02,8.89E-03
75577,1.43E-02,2.30E-02
75578,1.43E-02,2.09E-02
75579,1.42E-02,1.87E-02
75580,1.42E-02,1.64E-02
75581,1.42E-02,1.40E-02
75582,1.42E-02,1.16E-02
75583,1.42E-02,9.18E-03
75584,1.42E-02,2.30E-02
75585,1.42E-02,2.09E-02
75586,1.42E-02,1.87E-02
75587,1.41E-02,1.65E-02
75588,1.41E-02,1.42E-02
75589,1.41E-02,1.18E-02
75590,1.41E-02,9.47E-03
75591,1.41E-02,2.31E-02
75592,1.41E-02,2.10E-02
75593,1.41E-02,1.88E-02
75594,1.40E-02,1.66E-02
75595,1.40E-02,1.44E-02
75596,1.40E-02,1.21E-02
75597,1.40E-02,9.75E-03
75598,1.40E-02,2.31E-02
75599,1.40E-02,2.11E-02
75600,1.40E-02,1.90E-02
75601,1.40E-02,1.68E-02
75602,1.39E-02,1.45E-02
75603,1.39E-02,1.23E-02
75604,1.39E-02,1.00E-02
75605,1.39E-02,2.31E-02
75606,1.39E-02,2.11E-02
75607,1.39E-02,1.91E-02
75608,1.39E-02,1.69E-02
75609,1.39E-02,1.47E-02
75610,1.39E-02,1.25E-02
75611,1.38E-02,1.03E-02
75612,1.38E-02,2.32E-02
75613,1.38E-02,2.12E-02
75614,1.38E-02,1.92E-02
75615,1.38E-02,1.71E-02
75616,1.38E-02,1.49E-02
75617,1.38E-02,1.27E-02
75618,1.38E-02,1.06E-02
75619,1.37E-02,2.32E-02
75620,1.37E-02,2.13E-02
75621,1.37E-02,1.93E-02
75622,1.37E-02,1.72E-02
75623,1.37E-02,1.51E-02
75624,1.37E-02,1.30E-02
75625,1.37E-02,1.09E-02
75626,1.36E-02,2.33E-02
75627,1.36E-02,2.14E-02
75628,1.36E-02,1.94E-02
75629,1.36E-02,1.74E-02
75630,1.36E-02,1.53E-02
75631,1.36E-02,1.32E-02
75632,1.36E-02,1.11E-02
75633,1.36E-02,2.33E-02
75634,1.35E-02,2.15E-02
75635,1.35E-02,1.95E-02
75636,1.35E-02,1.75E-02
75637,1.35E-02,1.55E-02
75638,1.35E-02,1.34E-02
75639,1.35E-02,1.14E-02
75640,1.35E-02,2.34E-02
75641,1.35E-02,2.16E-02
75642,1.34E-02,1.97E-02
75643,1.34E-02,1.77E-02
75644,1.34E-02,1.57E-02
75645,1.34E-02,1.37E-02
75646,1.34E-02,1.17E-02
75647,1.34E-02,2.35E-02
75648,1.34E-02,2.17E-02
75649,1.34E-02,1.98E-02
75650,1.33E-02,1.79E-02
75651,1.33E-02,1.59E-02
75652,1.33E-02,1.39E-02
75653,1.33E-02,1.19E-02
75654,1.33E-02,2.35E-02
75655,1.33E-02,2.18E-02
75656,1.33E-02,1.99E-02
75657,1.33E-02,1.80E-02
75658,1.33E-02,1.61E-02
75659,1.32E-02,1.41E-02
75660,1.32E-02,1.22E-02
75661,1.32E-02,2.36E-02
75662,1.32E-02,2.19E-02
75663,1.32E-02,2.01E-02
75664,1.32E-02,1.82E-02
75665,1.32E-02,1.63E-02
75666,1.32E-02,1.43E-02
75667,1.31E-02,1.24E-02
75668,1.31E-02,2.37E-02
75669,1.31E-02,2.20E-02
75670,1.31E-02,2.02E-02
75671,1.31E-02,1.84E-02
75672,1.31E-02,1.65E-02
75673,1.31E-02,1.46E-02
75674,1.31E-02,1.27E-02
75675,1.30E-02,2.38E-02
75676,1.30E-02,2.21E-02
75677,1.30E-02,2.04E-02
75678,1.30E-02,1.86E-02
75679,1.30E-02,1.67E-02
75680,1.30E-02,1.48E-02
75681,1.30E-02,1.29E-02
75682,1.29E-02,2.38E-02
75683,1.29E-02,2.22E-02
75684,1.29E-02,2.05E-02
75685,1.29E-02,1.88E-02
75686,1.29E-02,1.69E-02
75687,1.29E-02,1.51E-02
75688,1.29E-02,1.32E-02
75689,1.29E-02,2.39E-02
75690,1.28E-02,2.23E-02
75691,1.28E-02,2.07E-02
75692,1.28E-02,1.90E-02
75693,1.28E-02,1.72E-02
75694,1.28E-02,1.53E-02
75695,1.28E-02,1.34E-02
75696,1.28E-02,2.40E-02
75697,1.27E-02,2.25E-02
75698,1.27E-02,2.09E-02
75699,1.27E-02,1.92E-02
75700,1.27E-02,1.74E-02
75701,1.27E-02,1.56E-02
75702,1.27E-02,1.37E-02
75703,1.27E-02,2.41E-02
75704,1.26E-02,2.26E-02
75705,1.26E-02,2.10E-02
75706,1.26E-02,1.94E-02
75707,1.26E-02,1.76E-02
75708,1.26E-02,1.58E-02
75709,1.26E-02,1.40E-02
75710,1.26E-02,2.42E-02
75711,1.25E-02,2.27E-02
75712,1.25E-02,2.12E-02
75713,1.25E-02,1.96E-02
75714,1.25E-02,1.79E-02
75715,1.25E-02,1.61E-02
75716,1.25E-02,1.43E-02
75717,1.25E-02,2.43E-02
75718,1.24E-02,2.29E-02
75719,1.24E-02,2.14E-02
75720,1.24E-02,1.98E-02
75721,1.24E-02,1.81E-02
75722,1.24E-02,1.64E-02
75723,1.24E-02,1.46E-02
75724,1.24E-02,2.44E-02
75725,1.23E-02,2.30E-02
75726,1.23E-02,2.16E-02
75727,1.23E-02,2.01E-02
75728,1.23E-02,1.84E-02
75729,1.23E-02,1.67E-02
75730,1.23E-02,1.49E-02
75731,1.22E-02,2.44E-02
75732,1.22E-02,2.32E-02
75733,1.22E-02,2.18E-02
75734,1.22E-02,2.03E-02
75735,1.22E-02,1.87E-02
75736,1.22E-02,1.70E-02
75737,1.21E-02,1.52E-02
75738,1.21E-02,2.45E-02
75739,1.21E-02,2.33E-02
75740,1.21E-02,2.20E-02
75741,1.21E-02,2.06E-02
75742,1.21E-02,1.90E-02
75743,1.20E-02,1.73E-02
75744,1.20E-02,1.55E-02
75745,1.20E-02,2.46E-02
75746,1.20E-02,2.34E-02
75747,1.20E-02,2.22E-02
75748,1.20E-02,2.08E-02
75749,1.19E-02,1.93E-02
75750,1.19E-02,1.76E-02
75751,1.19E-02,1.59E-02
75752,1.19E-02,2.47E-02
75753,1.19E-02,2.36E-02
75754,1.19E-02,2.24E-02
75755,1.18E-02,2.11E-02
75756,1.18E-02,1.96E-02
75757,1.18E-02,1.80E-02
75758,1.18E-02,1.62E-02
75759,1.18E-02,2.47E-02
75760,1.18E-02,2.37E-02
75761,1.17E-02,2.26E-02
75762,1.17E-02,2.14E-02
75763,1.17E-02,2.00E-02
75764,1.17E-02,1.84E-02
75765,1.16E-02,1.66E-02
75766,1.17E-02,2.48E-02
75767,1.16E-02,2.38E-02
75768,1.16E-02,2.28E-02
75769,1.16E-02,2.17E-02
75770,1.16E-02,2.04E-02
75771,1.15E-02,1.88E-02
75772,1.15E-02,1.70E-02
75773,1.15E-02,2.48E-02
75774,1.15E-02,2.39E-02
75775,1.15E-02,2.30E-02
75776,1.14E-02,2.20E-02
75777,1.14E-02,2.08E-02
75778,1.14E-02,1.93E-02
75779,1.14E-02,1.75E-02
75780,1.14E-02,2.49E-02
75781,1.13E-02,2.40E-02
75782,1.13E-02,2.31E-02
75783,1.13E-02,2.22E-02
75784,1.12E-02,2.12E-02
75785,1.12E-02,1.98E-02
75786,1.12E-02,1.81E-02
75787,1.12E-02,2.49E-02
75788,1.12E-02,2.41E-02
75789,1.12E-02,2.33E-02
75790,1.11E-02,2.25E-02
75791,1.11E-02,2.16E-02
75792,1.10E-02,2.04E-02
75793,1.10E-02,1.87E-02
75794,1.11E-02,2.50E-02
75795,1.10E-02,2.41E-02
75796,1.10E-02,2.33E-02
75797,1.09E-02,2.27E-02
75798,1.09E-02,2.20E-02
75799,1.09E-02,2.10E-02
75800,1.08E-02,1.95E-02
75801,1.09E-02,2.50E-02
75802,1.08E-02,2.42E-02
75803,1.08E-02,2.34E-02
75804,1.08E-02,2.28E-02
75805,1.07E-02,2.24E-02
75806,1.07E-02,2.17E-02
75807,1.06E-02,2.05E-02
75808,1.07E-02,2.51E-02
75809,1.06E-02,2.42E-02
75810,1.06E-02,2.35E-02
75811,1.06E-02,2.29E-02
75812,1.05E-02,2.26E-02
75813,1.05E-02,2.24E-02
75814,1.04E-02,2.17E-02
75815,1.05E-02,2.51E-02
75816,1.04E-02,2.43E-02
75817,1.04E-02,2.36E-02
75818,1.03E-02,2.29E-02
75819,1.03E-02,2.28E-02
75820,1.02E-02,2.31E-02
75821,1.02E-02,2.34E-02
75822,1.03E-02,2.52E-02
75823,1.02E-02,2.45E-02
75824,1.02E-02,2.37E-02
75825,1.01E-02,2.30E-02
75826,1.01E-02,2.28E-02
75827,1.00E-02,2.35E-02
75828,9.96E-03,2.54E-02
75829,1.01E-02,2.53E-02
75830,1.01E-02,2.46E-02
75831,1.01E-02,2.39E-02
75832,1.01E-02,2.32E-02
75833,1.00E-02,2.28E-02
75834,9.99E-03,2.36E-02
75835,9.96E-03,2.73E-02
75836,1.01E-02,2.55E-02
75837,1.01E-02,2.48E-02
75838,1.01E-02,2.41E-02
75839,1.01E-02,2.35E-02
75840,1.01E-02,2.31E-02
75841,1.01E-02,2.36E-02
75842,1.00E-02,2.77E-02
75843,1.02E-02,2.56E-02
75844,1.01E-02,2.50E-02
75845,1.01E-02,2.44E-02
75846,1.01E-02,2.38E-02
75847,1.00E-02,2.36E-02
75848,1.00E-02,2.40E-02
75849,9.98E-03,2.54E-02
75850,1.03E-02,2.58E-02
75851,1.03E-02,2.52E-02
75852,1.03E-02,2.46E-02
75853,1.03E-02,2.42E-02
75854,1.03E-02,2.41E-02
75855,1.03E-02,2.41E-02
75856,1.02E-02,2.28E-02
75857,1.03E-02,2.59E-02
75858,1.03E-02,2.54E-02
75859,1.03E-02,2.49E-02
75860,1.03E-02,2.45E-02
75861,1.03E-02,2.44E-02
75862,1.04E-02,2.38E-02
75863,1.04E-02,2.19E-02
75864,1.03E-02,2.61E-02
75865,1.03E-02,2.56E-02
75866,1.03E-02,2.51E-02
75867,1.03E-02,2.48E-02
75868,1.03E-02,2.45E-02
75869,1.03E-02,2.35E-02
75870,1.03E-02,2.17E-02
75871,1.03E-02,2.63E-02
75872,1.03E-02,2.58E-02
75873,1.03E-02,2.54E-02
75874,1.03E-02,2.50E-02
75875,1.03E-02,2.45E-02
75876,1.03E-02,2.35E-02
75877,1.03E-02,2.18E-02
75878,1.03E-02,2.64E-02
75879,1.02E-02,2.60E-02
75880,1.02E-02,2.56E-02
75881,1.02E-02,2.52E-02
75882,1.02E-02,2.45E-02
75883,1.02E-02,2.35E-02
75884,1.02E-02,2.21E-02
75885,1.02E-02,2.66E-02
75886,1.02E-02,2.62E-02
75887,1.02E-02,2.58E-02
75888,1.02E-02,2.53E-02
75889,1.02E-02,2.46E-02
75890,1.02E-02,2.36E-02
75891,1.02E-02,2.23E-02
75892,1.01E-02,2.68E-02
75893,1.01E-02,2.64E-02
75894,1.01E-02,2.59E-02
75895,1.01E-02,2.54E-02
75896,1.01E-02,2.47E-02
75897,1.01E-02,2.37E-02
75898,1.01E-02,2.26E-02
75899,1.01E-02,2.69E-02
75900,1.01E-02,2.65E-02
75901,1.01E-02,2.61E-02
75902,1.01E-02,2.55E-02
75903,1.00E-02,2.48E-02
75904,1.00E-02,2.39E-02
75905,1.00E-02,2.29E-02
75906,1.00E-02,2.70E-02
75907,1.00E-02,2.67E-02
75908,9.99E-03,2.62E-02
75909,9.99E-03,2.57E-02
75910,9.98E-03,2.50E-02
75911,9.97E-03,2.42E-02
75912,9.96E-03,2.33E-02
75913,9.94E-03,2.72E-02
75914,9.93E-03,2.68E-02
75915,9.92E-03,2.63E-02
75916,9.91E-03,2.58E-02
75917,9.91E-03,2.52E-02
75918,9.90E-03,2.44E-02
75919,9.89E-03,2.36E-02
75920,9.87E-03,2.73E-02
75921,9.86E-03,2.69E-02
75922,9.85E-03,2.65E-02
75923,9.84E-03,2.60E-02
75924,9.83E-03,2.54E-02
75925,9.82E-03,2.47E-02
75926,9.81E-03,2.39E-02
75927,9.80E-03,2.74E-02
75928,9.79E-03,2.71E-02
75929,9.78E-03,2.67E-02
75930,9.77E-03,2.62E-02
75931,9.76E-03,2.56E-02
75932,9.75E-03,2.49E-02
75933,9.74E-03,2.42E-02
75934,9.72E-03,2.75E-02
75935,9.71E-03,2.72E-02
75936,9.70E-03,2.68E-02
75937,9.69E-03,2.64E-02
75938,9.68E-03,2.58E-02
75939,9.67E-03,2.52E-02
75940,9.66E-03,2.46E-02
75941,9.64E-03,2.76E-02
75942,9.63E-03,2.73E-02
75943,9.62E-03,2.70E-02
75944,9.61E-03,2.66E-02
75945,9.60E-03,2.61E-02
75946,9.59E-03,2.55E-02
75947,9.58E-03,2.49E-02
75948,9.57E-03,2.77E-02
75949,9.56E-03,2.75E-02
75950,9.55E-03,2.72E-02
75951,9.54E-03,2.68E-02
75952,9.53E-03,2.64E-02
75953,9.52E-03,2.58E-02
75954,9.51E-03,2.53E-02
75955,9.49E-03,2.78E-02
75956,9.48E-03,2.76E-02
75957,9.47E-03,2.74E-02
75958,9.46E-03,2.71E-02
75959,9.45E-03,2.67E-02
75960,9.44E-03,2.62E-02
75961,9.42E-03,2.56E-02
75962,9.41E-03,2.80E-02
75963,9.40E-03,2.78E-02
75964,9.39E-03,2.76E-02
75965,9.38E-03,2.73E-02
75966,9.36E-03,2.70E-02
75967,9.35E-03,2.65E-02
75968,9.34E-03,2.60E-02
75969,9.33E-03,2.81E-02
75970,9.31E-03,2.79E-02
75971,9.30E-03,2.78E-02
75972,9.29E-03,2.76E-02
75973,9.28E-03,2.73E-02
75974,9.27E-03,2.69E-02
75975,9.26E-03,2.64E-02
75976,9.24E-03,2.82E-02
75977,9.23E-03,2.81E-02
75978,9.22E-03,2.80E-02
75979,9.21E-03,2.78E-02
75980,9.20E-03,2.76E-02
75981,9.18E-03,2.72E-02
75982,9.17E-03,2.68E-02
75983,9.16E-03,2.82E-02
75984,9.14E-03,2.82E-02
75985,9.13E-03,2.82E-02
75986,9.12E-03,2.81E-02
75987,9.11E-03,2.79E-02
75988,9.09E-03,2.76E-02
75989,9.08E-03,2.72E-02
75990,9.07E-03,2.83E-02
75991,9.06E-03,2.83E-02
75992,9.04E-03,2.83E-02
75993,9.03E-03,2.83E-02
75994,9.02E-03,2.83E-02
75995,9.00E-03,2.81E-02
75996,8.99E-03,2.77E-02
75997,8.98E-03,2.84E-02
75998,8.96E-03,2.85E-02
75999,8.95E-03,2.85E-02
76000,8.94E-03,2.86E-02
76001,8.92E-03,2.86E-02
76002,8.91E-03,2.85E-02
76003,8.90E-03,2.83E-02
76004,8.89E-03,2.85E-02
76005,8.87E-03,2.86E-02
76006,8.86E-03,2.87E-02
76007,8.84E-03,2.88E-02
76008,8.83E-03,2.90E-02
76009,8.81E-03,2.90E-02
76010,8.80E-03,2.89E-02
76011,8.79E-03,2.86E-02
76012,8.78E-03,2.87E-02
76013,8.76E-03,2.88E-02
76014,8.75E-03,2.90E-02
76015,8.73E-03,2.93E-02
76016,8.72E-03,2.95E-02
76017,8.70E-03,2.97E-02
76018,8.69E-03,2.86E-02
76019,8.68E-03,2.88E-02
76020,8.66E-03,2.89E-02
76021,8.65E-03,2.92E-02
76022,8.63E-03,2.96E-02
76023,8.62E-03,3.00E-02
76024,8.60E-03,3.06E-02
76025,8.60E-03,2.87E-02
76026,8.59E-03,2.89E-02
76027,8.58E-03,2.91E-02
76028,8.56E-03,2.94E-02
76029,8.55E-03,2.98E-02
76030,8.54E-03,3.05E-02
76031,8.53E-03,3.15E-02
76032,8.53E-03,2.88E-02
76033,8.52E-03,2.89E-02
76034,8.51E-03,2.92E-02
76035,8.50E-03,2.96E-02
76036,8.49E-03,3.01E-02
76037,8.49E-03,3.09E-02
76038,8.48E-03,3.21E-02
76039,8.47E-03,2.88E-02
76040,8.46E-03,2.90E-02
76041,8.45E-03,2.93E-02
76042,8.45E-03,2.97E-02
76043,8.44E-03,3.03E-02
76044,8.44E-03,3.13E-02
76045,8.43E-03,3.25E-02
76046,8.42E-03,2.89E-02
76047,8.41E-03,2.91E-02
76048,8.41E-03,2.95E-02
76049,8.40E-03,2.99E-02
76050,8.40E-03,3.06E-02
76051,8.40E-03,3.16E-02
76052,8.39E-03,3.28E-02
76053,8.38E-03,2.90E-02
76054,8.37E-03,2.92E-02
76055,8.37E-03,2.96E-02
76056,8.37E-03,3.01E-02
76057,8.36E-03,3.08E-02
76058,8.36E-03,3.18E-02
76059,8.36E-03,3.31E-02
76060,8.34E-03,2.91E-02
76061,8.34E-03,2.93E-02
76062,8.34E-03,2.97E-02
76063,8.34E-03,3.02E-02
76064,8.34E-03,3.10E-02
76065,8.34E-03,3.20E-02
76066,8.33E-03,3.32E-02
76067,8.32E-03,2.92E-02
76068,8.32E-03,2.95E-02
76069,8.32E-03,2.98E-02
76070,8.32E-03,3.04E-02
76071,8.32E-03,3.11E-02
76072,8.32E-03,3.21E-02
76073,8.32E-03,3.33E-02
76074,8.30E-03,2.93E-02
76075,8.30E-03,2.96E-02
76076,8.30E-03,2.99E-02
76077,8.30E-03,3.05E-02
76078,8.30E-03,3.12E-02
76079,8.31E-03,3.21E-02
76080,8.31E-03,3.33E-02
76081,8.30E-03,2.93E-02
76082,8.30E-03,2.97E-02
76083,8.30E-03,3.01E-02
76084,8.30E-03,3.06E-02
76085,8.30E-03,3.12E-02
76086,8.30E-03,3.21E-02
76087,8.30E-03,3.32E-02
76088,8.30E-03,2.94E-02
76089,8.30E-03,2.98E-02
76090,8.30E-03,3.01E-02
76091,8.30E-03,3.06E-02
76092,8.30E-03,3.13E-02
76093,8.30E-03,3.21E-02
76094,8.30E-03,3.31E-02
76095,8.30E-03,2.95E-02
76096,8.30E-03,2.98E-02
76097,8.30E-03,3.02E-02
76098,8.31E-03,3.07E-02
76099,8.31E-03,3.13E-02
76100,8.31E-03,3.20E-02
76101,8.31E-03,3.29E-02
76102,8.31E-03,2.96E-02
76103,8.31E-03,2.99E-02
76104,8.32E-03,3.03E-02
76105,8.32E-03,3.08E-02
76106,8.32E-03,3.13E-02
76107,8.32E-03,3.19E-02
76108,8.32E-03,3.26E-02
76109,8.33E-03,2.97E-02
76110,8.33E-03,3.00E-02
76111,8.33E-03,3.04E-02
76112,8.33E-03,3.08E-02
76113,8.34E-03,3.13E-02
76114,8.34E-03,3.18E-02
76115,8.34E-03,3.23E-02
76116,8.35E-03,2.98E-02
76117,8.35E-03,3.01E-02
76118,8.35E-03,3.04E-02
76119,8.35E-03,3.08E-02
76120,8.36E-03,3.12E-02
76121,8.36E-03,3.17E-02
76122,8.36E-03,3.20E-02
76123,8.36E-03,2.98E-02
76124,8.37E-03,3.01E-02
76125,8.37E-03,3.05E-02
76126,8.37E-03,3.08E-02
76127,8.37E-03,3.12E-02
76128,8.37E-03,3.15E-02
76129,8.38E-03,3.18E-02
76130,8.38E-03,2.99E-02
76131,8.38E-03,3.02E-02
76132,8.38E-03,3.05E-02
76133,8.39E-03,3.08E-02
76134,8.39E-03,3.12E-02
76135,8.39E-03,3.14E-02
76136,8.39E-03,3.16E-02
76137,8.39E-03,2.99E-02
76138,8.40E-03,3.02E-02
76139,8.40E-03,3.05E-02
76140,8.40E-03,3.08E-02
76141,8.40E-03,3.11E-02
76142,8.40E-03,3.13E-02
76143,8.41E-03,3.15E-02
76144,8.41E-03,2.99E-02
76145,8.41E-03,3.02E-02
76146,8.41E-03,3.05E-02
76147,8.41E-03,3.08E-02
76148,8.42E-03,3.11E-02
76149,8.42E-03,3.13E-02
76150,8.42E-03,3.14E-02
76151,8.42E-03,3.00E-02
76152,8.42E-03,3.03E-02
76153,8.42E-03,3.05E-02
76154,8.42E-03,3.08E-02
76155,8.43E-03,3.10E-02
76156,8.43E-03,3.12E-02
76157,8.43E-03,3.13E-02
76158,8.43E-03,3.00E-02
76159,8.43E-03,3.03E-02
76160,8.43E-03,3.05E-02
76161,8.44E-03,3.08E-02
76162,8.44E-03,3.10E-02
76163,8.44E-03,3.11E-02
76164,8.44E-03,3.12E-02
76165,8.44E-03,3.00E-02
76166,8.44E-03,3.03E-02
76167,8.44E-03,3.05E-02
76168,8.45E-03,3.08E-02
76169,8.45E-03,3.10E-02
76170,8.45E-03,3.11E-02
76171,8.45E-03,3.12E-02
76172,8.45E-03,3.00E-02
76173,8.45E-03,3.03E-02
76174,8.45E-03,3.05E-02
76175,8.45E-03,3.08E-02
76176,8.46E-03,3.10E-02
76177,8.46E-03,3.11E-02
76178,8.46E-03,3.12E-02
76179,8.46E-03,3.00E-02
76180,8.46E-03,3.03E-02
76181,8.46E-03,3.05E-02
76182,8.46E-03,3.08E-02
76183,8.46E-03,3.09E-02
76184,8.46E-03,3.11E-02
76185,8.47E-03,3.12E-02
76186,8.46E-03,3.00E-02
76187,8.46E-03,3.03E-02
76188,8.47E-03,3.05E-02
76189,8.47E-03,3.08E-02
76190,8.47E-03,3.09E-02
76191,8.47E-03,3.11E-02
76192,8.47E-03,3.12E-02
76193,8.47E-03,3.00E-02
76194,8.47E-03,3.03E-02
76195,8.47E-03,3.05E-02
76196,8.47E-03,3.08E-02
76197,8.47E-03,3.09E-02
76198,8.48E-03,3.11E-02
76199,8.48E-03,3.12E-02
76200,8.47E-03,3.00E-02
76201,8.47E-03,3.03E-02
76202,8.48E-03,3.05E-02
76203,8.48E-03,3.08E-02
76204,8.48E-03,3.10E-02
76205,8.48E-03,3.11E-02
76206,8.48E-03,3.12E-02
76207,8.48E-03,3.00E-02
76208,8.48E-03,3.03E-02
76209,8.48E-03,3.05E-02
76210,8.48E-03,3.08E-02
76211,8.48E-03,3.10E-02
76212,8.48E-03,3.11E-02
76213,8.48E-03,3.13E-02
76214,8.48E-03,3.00E-02
76215,8.48E-03,3.03E-02
76216,8.48E-03,3.05E-02
76217,8.48E-03,3.08E-02
76218,8.48E-03,3.10E-02
76219,8.49E-03,3.12E-02
76220,8.49E-03,3.13E-02
76221,8.48E-03,3.00E-02
76222,8.48E-03,3.03E-02
76223,8.48E-03,3.05E-02
76224,8.49E-03,3.08E-02
76225,8.49E-03,3.10E-02
76226,8.49E-03,3.12E-02
76227,8.49E-03,3.14E-02
76228,8.48E-03,3.00E-02
76229,8.48E-03,3.03E-02
76230,8.49E-03,3.05E-02
76231,8.49E-03,3.08E-02
76232,8.49E-03,3.10E-02
76233,8.49E-03,3.12E-02
76234,8.49E-03,3.14E-02
76235,8.48E-03,3.00E-02
76236,8.49E-03,3.03E-02
76237,8.49E-03,3.06E-02
76238,8.49E-03,3.08E-02
76239,8.49E-03,3.11E-02
76240,8.49E-03,3.13E-02
76241,8.49E-03,3.15E-02
76242,8.48E-03,3.00E-02
76243,8.49E-03,3.03E-02
76244,8.49E-03,3.06E-02
76245,8.49E-03,3.08E-02
76246,8.49E-03,3.11E-02
76247,8.49E-03,3.13E-02
76248,8.49E-03,3.16E-02
76249,8.48E-03,3.00E-02
76250,8.49E-03,3.03E-02
76251,8.49E-03,3.06E-02
76252,8.49E-03,3.09E-02
76253,8.49E-03,3.11E-02
76254,8.49E-03,3.14E-02
76255,8.49E-03,3.16E-02
76256,8.49E-03,2.99E-02
76257,8.49E-03,3.03E-02
76258,8.49E-03,3.06E-02
76259,8.49E-03,3.09E-02
76260,8.49E-03,3.12E-02
76261,8.49E-03,3.14E-02
76262,8.49E-03,3.17E-02
76263,8.49E-03,2.99E-02
76264,8.49E-03,3.02E-02
76265,8.49E-03,3.06E-02
76266,8.49E-03,3.09E-02
76267,8.49E-03,3.12E-02
76268,8.49E-03,3.15E-02
76269,8.49E-03,3.18E-02
76270,8.48E-03,2.99E-02
76271,8.49E-03,3.02E-02
76272,8.49E-03,3.06E-02
76273,8.49E-03,3.09E-02
76274,8.49E-03,3.12E-02
76275,8.49E-03,3.16E-02
76276,8.49E-03,3.19E-02
76277,8.48E-03,2.99E-02
76278,8.49E-03,3.02E-02
76279,8.49E-03,3.06E-02
76280,8.49E-03,3.09E-02
76281,8.49E-03,3.13E-02
76282,8.49E-03,3.16E-02
76283,8.49E-03,3.20E-02
76284,8.48E-03,2.98E-02
76285,8.49E-03,3.02E-02
76286,8.49E-03,3.06E-02
76287,8.49E-03,3.10E-02
76288,8.49E-03,3.13E-02
76289,8.49E-03,3.17E-02
76290,8.49E-03,3.20E-02
76291,8.48E-03,2.98E-02
76292,8.49E-03,3.02E-02
76293,8.49E-03,3.06E-02
76294,8.49E-03,3.10E-02
76295,8.49E-03,3.14E-02
76296,8.49E-03,3.18E-02
76297,8.49E-03,3.21E-02
76298,8.48E-03,2.98E-02
76299,8.49E-03,3.02E-02
76300,8.49E-03,3.06E-02
76301,8.49E-03,3.10E-02
76302,8.49E-03,3.14E-02
76303,8.49E-03,3.18E-02
76304,8.49E-03,3.23E-02
76305,8.48E-03,2.97E-02
76306,8.49E-03,3.01E-02
76307,8.49E-03,3.05E-02
76308,8.49E-03,3.10E-02
76309,8.49E-03,3.14E-02
76310,8.49E-03,3.19E-02
76311,8.49E-03,3.24E-02
76312,8.49E-03,2.97E-02
76313,8.49E-03,3.01E-02
76314,8.49E-03,3.05E-02
76315,8.49E-03,3.10E-02
76316,8.49E-03,3.15E-02
76317,8.49E-03,3.20E-02
76318,8.49E-03,3.25E-02
76319,8.49E-03,2.97E-02
76320,8.49E-03,3.01E-02
76321,8.49E-03,3.05E-02
76322,8.49E-03,3.10E-02
76323,8.49E-03,3.15E-02
76324,8.50E-03,3.20E-02
76325,8.50E-03,3.26E-02
76326,8.49E-03,2.96E-02
76327,8.49E-03,3.00E-02
76328,8.50E-03,3.05E-02
76329,8.50E-03,3.10E-02
76330,8.50E-03,3.15E-02
76331,8.50E-03,3.21E-02
76332,8.50E-03,3.27E-02
76333,8.50E-03,2.95E-02
76334,8.50E-03,3.00E-02
76335,8.50E-03,3.04E-02
76336,8.50E-03,3.09E-02
76337,8.50E-03,3.15E-02
76338,8.51E-03,3.21E-02
76339,8.51E-03,3.28E-02
76340,8.51E-03,2.95E-02
76341,8.51E-03,2.99E-02
76342,8.51E-03,3.04E-02
76343,8.51E-03,3.09E-02
76344,8.51E-03,3.15E-02
76345,8.52E-03,3.22E-02
76346,8.52E-03,3.29E-02
76347,8.52E-03,2.94E-02
76348,8.52E-03,2.99E-02
76349,8.52E-03,3.03E-02
76350,8.52E-03,3.09E-02
76351,8.52E-03,3.15E-02
76352,8.53E-03,3.22E-02
76353,8.53E-03,3.30E-02
76354,8.53E-03,2.94E-02
76355,8.53E-03,2.98E-02
76356,8.53E-03,3.03E-02
76357,8.54E-03,3.08E-02
76358,8.54E-03,3.15E-02
76359,8.54E-03,3.22E-02
76360,8.54E-03,3.30E-02
76361,8.54E-03,2.93E-02
76362,8.55E-03,2.97E-02
76363,8.55E-03,3.02E-02
76364,8.55E-03,3.07E-02
76365,8.55E-03,3.14E-02
76366,8.56E-03,3.22E-02
76367,8.56E-03,3.30E-02
76368,8.56E-03,2.93E-02
76369,8.57E-03,2.97E-02
76370,8.57E-03,3.01E-02
76371,8.57E-03,3.07E-02
76372,8.57E-03,3.13E-02
76373,8.57E-03,3.21E-02
76374,8.58E-03,3.31E-02
76375,8.59E-03,2.92E-02
76376,8.59E-03,2.96E-02
76377,8.59E-03,3.00E-02
76378,8.59E-03,3.06E-02
76379,8.60E-03,3.12E-02
76380,8.60E-03,3.21E-02
76381,8.60E-03,3.31E-02
76382,8.61E-03,2.91E-02
76383,8.61E-03,2.95E-02
76384,8.62E-03,3.00E-02
76385,8.62E-03,3.05E-02
76386,8.62E-03,3.11E-02
76387,8.62E-03,3.20E-02
76388,8.63E-03,3.30E-02
76389,8.65E-03,2.91E-02
76390,8.65E-03,2.95E-02
76391,8.65E-03,2.99E-02
76392,8.65E-03,3.04E-02
76393,8.66E-03,3.10E-02
76394,8.66E-03,3.18E-02
76395,8.66E-03,3.29E-02
76396,8.69E-03,2.91E-02
76397,8.69E-03,2.94E-02
76398,8.69E-03,2.98E-02
76399,8.69E-03,3.03E-02
76400,8.70E-03,3.09E-02
76401,8.70E-03,3.16E-02
76402,8.70E-03,3.27E-02
76403,8.74E-03,2.90E-02
76404,8.74E-03,2.94E-02
76405,8.74E-03,2.97E-02
76406,8.74E-03,3.02E-02
76407,8.74E-03,3.07E-02
76408,8.75E-03,3.14E-02
76409,8.75E-03,3.23E-02
76410,8.79E-03,2.90E-02
76411,8.79E-03,2.93E-02
76412,8.79E-03,2.97E-02
76413,8.80E-03,3.01E-02
76414,8.80E-03,3.06E-02
76415,8.80E-03,3.11E-02
76416,8.80E-03,3.18E-02
76417,8.85E-03,2.90E-02
76418,8.85E-03,2.93E-02
76419,8.85E-03,2.96E-02
76420,8.85E-03,3.00E-02
76421,8.85E-03,3.04E-02
76422,8.86E-03,3.09E-02
76423,8.86E-03,3.14E-02
76424,8.90E-03,2.89E-02
76425,8.90E-03,2.92E-02
76426,8.91E-03,2.95E-02
76427,8.91E-03,2.99E-02
76428,8.91E-03,3.02E-02
76429,8.91E-03,3.06E-02
76430,8.91E-03,3.09E-02
76431,8.96E-03,2.89E-02
76432,8.96E-03,2.92E-02
76433,8.96E-03,2.95E-02
76434,8.96E-03,2.98E-02
76435,8.97E-03,3.00E-02
76436,8.97E-03,3.03E-02
76437,8.97E-03,3.06E-02
76438,9.01E-03,2.89E-02
76439,9.01E-03,2.91E-02
76440,9.02E-03,2.94E-02
76441,9.02E-03,2.96E-02
76442,9.02E-03,2.99E-02
76443,9.02E-03,3.00E-02
76444,9.02E-03,3.02E-02
76445,9.07E-03,2.88E-02
76446,9.07E-03,2.91E-02
76447,9.07E-03,2.93E-02
76448,9.07E-03,2.95E-02
76449,9.07E-03,2.97E-02
76450,9.08E-03,2.98E-02
76451,9.08E-03,2.98E-02
76452,9.12E-03,2.88E-02
76453,9.12E-03,2.91E-02
76454,9.12E-03,2.93E-02
76455,9.13E-03,2.94E-02
76456,9.13E-03,2.95E-02
76457,9.13E-03,2.95E-02
76458,9.13E-03,2.94E-02
76459,9.17E-03,2.88E-02
76460,9.17E-03,2.90E-02
76461,9.18E-03,2.92E-02
76462,9.18E-03,2.93E-02
76463,9.18E-03,2.94E-02
76464,9.18E-03,2.92E-02
76465,9.18E-03,2.91E-02
76466,9.22E-03,2.87E-02
76467,9.23E-03,2.90E-02
76468,9.23E-03,2.91E-02
76469,9.23E-03,2.93E-02
76470,9.23E-03,2.92E-02
76471,9.23E-03,2.90E-02
76472,9.24E-03,2.86E-02
76473,9.27E-03,2.87E-02
76474,9.28E-03,2.89E-02
76475,9.29E-03,2.91E-02
76476,9.30E-03,2.92E-02
76477,9.31E-03,2.91E-02
76478,9.32E-03,2.89E-02
76479,9.34E-03,2.83E-02
76480,9.30E-03,2.86E-02
76481,9.31E-03,2.88E-02
76482,9.32E-03,2.90E-02
76483,9.34E-03,2.91E-02
76484,9.35E-03,2.90E-02
76485,9.36E-03,2.87E-02
76486,9.37E-03,2.81E-02
76487,9.32E-03,2.86E-02
76488,9.33E-03,2.88E-02
76489,9.34E-03,2.89E-02
76490,9.36E-03,2.90E-02
76491,9.37E-03,2.89E-02
76492,9.38E-03,2.86E-02
76493,9.39E-03,2.82E-02
76494,9.34E-03,2.85E-02
76495,9.35E-03,2.87E-02
76496,9.36E-03,2.88E-02
76497,9.37E-03,2.89E-02
76498,9.38E-03,2.88E-02
76499,9.39E-03,2.86E-02
76500,9.40E-03,2.82E-02
76501,9.35E-03,2.84E-02
76502,9.36E-03,2.86E-02
76503,9.37E-03,2.88E-02
76504,9.38E-03,2.88E-02
76505,9.39E-03,2.88E-02
76506,9.40E-03,2.86E-02
76507,9.41E-03,2.83E-02
76508,9.35E-03,2.84E-02
76509,9.36E-03,2.86E-02
76510,9.37E-03,2.87E-02
76511,9.38E-03,2.87E-02
76512,9.39E-03,2.87E-02
76513,9.40E-03,2.86E-02
76514,9.41E-03,2.84E-02
76515,9.36E-03,2.83E-02
76516,9.37E-03,2.85E-02
76517,9.38E-03,2.86E-02
76518,9.39E-03,2.87E-02
76519,9.40E-03,2.87E-02
76520,9.40E-03,2.86E-02
76521,9.41E-03,2.85E-02
76522,9.36E-03,2.83E-02
76523,9.37E-03,2.84E-02
76524,9.38E-03,2.86E-02
76525,9.39E-03,2.86E-02
76526,9.40E-03,2.87E-02
76527,9.41E-03,2.86E-02
76528,9.42E-03,2.86E-02
76529,9.36E-03,2.82E-02
76530,9.37E-03,2.84E-02
76531,9.38E-03,2.85E-02
76532,9.39E-03,2.86E-02
76533,9.40E-03,2.86E-02
76534,9.40E-03,2.87E-02
76535,9.41E-03,2.87E-02
76536,9.36E-03,2.81E-02
76537,9.37E-03,2.83E-02
76538,9.37E-03,2.85E-02
76539,9.38E-03,2.86E-02
76540,9.39E-03,2.86E-02
76541,9.40E-03,2.87E-02
76542,9.41E-03,2.88E-02
76543,9.35E-03,2.81E-02
76544,9.36E-03,2.83E-02
76545,9.37E-03,2.84E-02
76546,9.38E-03,2.85E-02
76547,9.39E-03,2.86E-02
76548,9.40E-03,2.87E-02
76549,9.41E-03,2.88E-02
76550,9.35E-03,2.80E-02
76551,9.36E-03,2.82E-02
76552,9.37E-03,2.84E-02
76553,9.38E-03,2.85E-02
76554,9.39E-03,2.86E-02
76555,9.39E-03,2.88E-02
76556,9.40E-03,2.89E-02
76557,9.34E-03,2.80E-02
76558,9.35E-03,2.82E-02
76559,9.36E-03,2.84E-02
76560,9.37E-03,2.85E-02
76561,9.38E-03,2.87E-02
76562,9.39E-03,2.88E-02
76563,9.40E-03,2.90E-02
76564,9.34E-03,2.80E-02
76565,9.35E-03,2.81E-02
76566,9.36E-03,2.83E-02
76567,9.36E-03,2.85E-02
76568,9.37E-03,2.87E-02
76569,9.38E-03,2.88E-02
76570,9.39E-03,2.90E-02
76571,9.33E-03,2.79E-02
76572,9.34E-03,2.81E-02
76573,9.35E-03,2.83E-02
76574,9.36E-03,2.85E-02
76575,9.37E-03,2.87E-02
76576,9.38E-03,2.89E-02
76577,9.38E-03,2.91E-02
76578,9.32E-03,2.79E-02
76579,9.33E-03,2.81E-02
76580,9.34E-03,2.83E-02
76581,9.35E-03,2.85E-02
76582,9.36E-03,2.87E-02
76583,9.37E-03,2.89E-02
76584,9.38E-03,2.91E-02
76585,9.31E-03,2.79E-02
76586,9.32E-03,2.81E-02
76587,9.33E-03,2.83E-02
76588,9.34E-03,2.85E-02
76589,9.35E-03,2.87E-02
76590,9.36E-03,2.89E-02
76591,9.37E-03,2.92E-02
76592,9.31E-03,2.78E-02
76593,9.32E-03,2.80E-02
76594,9.32E-03,2.83E-02
76595,9.33E-03,2.85E-02
76596,9.34E-03,2.87E-02
76597,9.35E-03,2.89E-02
76598,9.36E-03,2.92E-02
76599,9.30E-03,2.78E-02
76600,9.31E-03,2.80E-02
76601,9.31E-03,2.83E-02
76602,9.32E-03,2.85E-02
76603,9.33E-03,2.87E-02
76604,9.34E-03,2.90E-02
76605,9.35E-03,2.92E-02
76606,9.29E-03,2.78E-02
76607,9.30E-03,2.80E-02
76608,9.31E-03,2.82E-02
76609,9.31E-03,2.85E-02
76610,9.32E-03,2.87E-02
76611,9.33E-03,2.90E-02
76612,9.34E-03,2.92E-02
76613,9.28E-03,2.78E-02
76614,9.29E-03,2.80E-02
76615,9.30E-03,2.82E-02
76616,9.30E-03,2.85E-02
76617,9.31E-03,2.87E-02
76618,9.32E-03,2.90E-02
76619,9.33E-03,2.93E-02
76620,9.27E-03,2.77E-02
76621,9.28E-03,2.80E-02
76622,9.29E-03,2.82E-02
76623,9.29E-03,2.85E-02
76624,9.30E-03,2.87E-02
76625,9.31E-03,2.90E-02
76626,9.32E-03,2.93E-02
76627,9.26E-03,2.77E-02
76628,9.27E-03,2.80E-02
76629,9.28E-03,2.82E-02
76630,9.28E-03,2.85E-02
76631,9.29E-03,2.87E-02
76632,9.30E-03,2.90E-02
76633,9.31E-03,2.93E-02
76634,9.25E-03,2.77E-02
76635,9.26E-03,2.80E-02
76636,9.26E-03,2.82E-02
76637,9.27E-03,2.85E-02
76638,9.28E-03,2.87E-02
76639,9.29E-03,2.90E-02
76640,9.30E-03,2.93E-02
76641,9.24E-03,2.77E-02
76642,9.25E-03,2.79E-02
76643,9.25E-03,2.82E-02
76644,9.26E-03,2.85E-02
76645,9.27E-03,2.87E-02
76646,9.28E-03,2.90E-02
76647,9.29E-03,2.93E-02
76648,9.23E-03,2.77E-02
76649,9.23E-03,2.79E-02
76650,9.24E-03,2.82E-02
76651,9.25E-03,2.85E-02
76652,9.26E-03,2.87E-02
76653,9.27E-03,2.90E-02
76654,9.28E-03,2.93E-02
76655,9.21E-03,2.77E-02
76656,9.22E-03,2.79E-02
76657,9.23E-03,2.82E-02
76658,9.24E-03,2.85E-02
76659,9.25E-03,2.87E-02
76660,9.26E-03,2.90E-02
76661,9.27E-03,2.93E-02
76662,9.20E-03,2.77E-02
76663,9.21E-03,2.79E-02
76664,9.22E-03,2.82E-02
76665,9.23E-03,2.85E-02
76666,9.24E-03,2.87E-02
76667,9.24E-03,2.90E-02
76668,9.25E-03,2.93E-02
76669,9.19E-03,2.77E-02
76670,9.20E-03,2.79E-02
76671,9.21E-03,2.82E-02
76672,9.21E-03,2.84E-02
76673,9.22E-03,2.87E-02
76674,9.23E-03,2.90E-02
76675,9.24E-03,2.93E-02
76676,9.18E-03,2.76E-02
76677,9.18E-03,2.79E-02
76678,9.19E-03,2.82E-02
76679,9.20E-03,2.84E-02
76680,9.21E-03,2.87E-02
76681,9.22E-03,2.90E-02
76682,9.23E-03,2.93E-02
76683,9.16E-03,2.76E-02
76684,9.17E-03,2.79E-02
76685,9.18E-03,2.82E-02
76686,9.19E-03,2.84E-02
76687,9.20E-03,2.87E-02
76688,9.21E-03,2.90E-02
76689,9.21E-03,2.93E-02
76690,9.15E-03,2.76E-02
76691,9.16E-03,2.79E-02
76692,9.17E-03,2.82E-02
76693,9.18E-03,2.84E-02
76694,9.18E-03,2.87E-02
76695,9.19E-03,2.90E-02
76696,9.20E-03,2.93E-02
76697,9.14E-03,2.76E-02
76698,9.14E-03,2.79E-02
76699,9.15E-03,2.82E-02
76700,9.16E-03,2.84E-02
76701,9.17E-03,2.87E-02
76702,9.18E-03,2.90E-02
76703,9.19E-03,2.92E-02
76704,9.12E-03,2.76E-02
76705,9.13E-03,2.79E-02
76706,9.14E-03,2.81E-02
76707,9.15E-03,2.84E-02
76708,9.15E-03,2.87E-02
76709,9.16E-03,2.89E-02
76710,9.17E-03,2.92E-02
76711,9.11E-03,2.76E-02
76712,9.11E-03,2.79E-02
76713,9.12E-03,2.81E-02
76714,9.13E-03,2.84E-02
76715,9.14E-03,2.87E-02
76716,9.15E-03,2.89E-02
76717,9.16E-03,2.92E-02
76718,9.09E-03,2.76E-02
76719,9.10E-03,2.79E-02
76720,9.11E-03,2.81E-02
76721,9.12E-03,2.84E-02
76722,9.12E-03,2.87E-02
76723,9.13E-03,2.89E-02
76724,9.14E-03,2.92E-02
76725,9.07E-03,2.76E-02
76726,9.08E-03,2.79E-02
76727,9.09E-03,2.81E-02
76728,9.10E-03,2.84E-02
76729,9.11E-03,2.87E-02
76730,9.12E-03,2.89E-02
76731,9.13E-03,2.92E-02
76732,9.06E-03,2.76E-02
76733,9.07E-03,2.79E-02
76734,9.08E-03,2.81E-02
76735,9.08E-03,2.84E-02
76736,9.09E-03,2.86E-02
76737,9.10E-03,2.89E-02
76738,9.11E-03,2.92E-02
76739,9.04E-03,2.76E-02
76740,9.05E-03,2.79E-02
76741,9.06E-03,2.81E-02
76742,9.07E-03,2.84E-02
76743,9.07E-03,2.86E-02
76744,9.08E-03,2.89E-02
76745,9.09E-03,2.91E-02
76746,9.02E-03,2.76E-02
76747,9.03E-03,2.79E-02
76748,9.04E-03,2.81E-02
76749,9.05E-03,2.84E-02
76750,9.06E-03,2.86E-02
76751,9.07E-03,2.89E-02
76752,9.07E-03,2.91E-02
76753,9.01E-03,2.76E-02
76754,9.01E-03,2.79E-02
76755,9.02E-03,2.81E-02
76756,9.03E-03,2.84E-02
76757,9.04E-03,2.86E-02
76758,9.05E-03,2.89E-02
76759,9.06E-03,2.91E-02
76760,8.99E-03,2.76E-02
76761,9.00E-03,2.79E-02
76762,9.00E-03,2.81E-02
76763,9.01E-03,2.84E-02
76764,9.02E-03,2.86E-02
76765,9.03E-03,2.88E-02
76766,9.04E-03,2.91E-02
76767,8.97E-03,2.76E-02
76768,8.98E-03,2.79E-02
76769,8.98E-03,2.81E-02
76770,8.99E-03,2.84E-02
76771,9.00E-03,2.86E-02
76772,9.01E-03,2.88E-02
76773,9.02E-03,2.90E-02
76774,8.95E-03,2.77E-02
76775,8.96E-03,2.79E-02
76776,8.96E-03,2.82E-02
76777,8.97E-03,2.84E-02
76778,8.98E-03,2.86E-02
76779,8.99E-03,2.88E-02
76780,9.00E-03,2.90E-02
76781,8.93E-03,2.77E-02
76782,8.94E-03,2.79E-02
76783,8.94E-03,2.82E-02
76784,8.95E-03,2.84E-02
76785,8.96E-03,2.86E-02
76786,8.97E-03,2.88E-02
76787,8.98E-03,2.90E-02
76788,8.91E-03,2.77E-02
76789,8.91E-03,2.79E-02
76790,8.92E-03,2.82E-02
76791,8.93E-03,2.84E-02
76792,8.94E-03,2.86E-02
76793,8.95E-03,2.88E-02
76794,8.96E-03,2.90E-02
76795,8.89E-03,2.77E-02
76796,8.89E-03,2.80E-02
76797,8.90E-03,2.82E-02
76798,8.91E-03,2.84E-02
76799,8.92E-03,2.86E-02
76800,8.93E-03,2.88E-02
76801,8.93E-03,2.89E-02
76802,8.86E-03,2.77E-02
76803,8.87E-03,2.80E-02
76804,8.88E-03,2.82E-02
76805,8.89E-03,2.84E-02
76806,8.89E-03,2.86E-02
76807,8.90E-03,2.87E-02
76808,8.91E-03,2.89E-02
76809,8.84E-03,2.78E-02
76810,8.85E-03,2.80E-02
76811,8.85E-03,2.83E-02
76812,8.86E-03,2.85E-02
76813,8.87E-03,2.86E-02
76814,8.88E-03,2.87E-02
76815,8.89E-03,2.88E-02
76816,8.81E-03,2.78E-02
76817,8.82E-03,2.81E-02
76818,8.83E-03,2.83E-02
76819,8.84E-03,2.85E-02
76820,8.84E-03,2.86E-02
76821,8.85E-03,2.87E-02
76822,8.86E-03,2.88E-02
76823,8.79E-03,2.78E-02
76824,8.80E-03,2.81E-02
76825,8.80E-03,2.83E-02
76826,8.81E-03,2.86E-02
76827,8.82E-03,2.87E-02
76828,8.83E-03,2.87E-02
76829,8.83E-03,2.87E-02
76830,8.76E-03,2.78E-02
76831,8.77E-03,2.81E-02
76832,8.77E-03,2.84E-02
76833,8.78E-03,2.86E-02
76834,8.79E-03,2.87E-02
76835,8.80E-03,2.87E-02
76836,8.80E-03,2.87E-02
76837,8.73E-03,2.78E-02
76838,8.74E-03,2.81E-02
76839,8.74E-03,2.84E-02
76840,8.75E-03,2.87E-02
76841,8.76E-03,2.88E-02
76842,8.76E-03,2.88E-02
76843,8.77E-03,2.86E-02
76844,8.69E-03,2.78E-02
76845,8.70E-03,2.81E-02
76846,8.71E-03,2.85E-02
76847,8.72E-03,2.88E-02
76848,8.72E-03,2.89E-02
76849,8.73E-03,2.89E-02
76850,8.74E-03,2.86E-02
76851,8.66E-03,2.77E-02
76852,8.66E-03,2.81E-02
76853,8.67E-03,2.84E-02
76854,8.68E-03,2.88E-02
76855,8.68E-03,2.91E-02
76856,8.69E-03,2.90E-02
76857,8.70E-03,2.86E-02
76858,8.61E-03,2.77E-02
76859,8.62E-03,2.80E-02
76860,8.62E-03,2.84E-02
76861,8.63E-03,2.88E-02
76862,8.64E-03,2.92E-02
76863,8.64E-03,2.92E-02
76864,8.65E-03,2.86E-02
76865,8.56E-03,2.77E-02
76866,8.56E-03,2.80E-02
76867,8.57E-03,2.83E-02
76868,8.57E-03,2.87E-02
76869,8.58E-03,2.94E-02
76870,8.58E-03,2.96E-02
76871,8.58E-03,2.88E-02
76872,8.48E-03,2.77E-02
76873,8.48E-03,2.80E-02
76874,8.47E-03,2.82E-02
76875,8.47E-03,2.85E-02
76876,8.47E-03,2.92E-02
76877,8.47E-03,3.02E-02
76878,8.47E-03,2.95E-02
76879,8.24E-03,2.78E-02
76880,8.14E-03,2.80E-02
76881,8.03E-03,2.82E-02
76882,7.92E-03,2.84E-02
76883,7.82E-03,2.87E-02
76884,7.71E-03,2.99E-02
76885,7.61E-03,3.34E-02
76886,8.19E-03,2.78E-02
76887,8.19E-03,2.81E-02
76888,8.19E-03,2.83E-02
76889,8.18E-03,2.84E-02
76890,8.18E-03,2.86E-02
76891,8.18E-03,2.96E-02
76892,8.17E-03,3.52E-02
76893,8.31E-03,2.79E-02
76894,8.30E-03,2.82E-02
76895,8.29E-03,2.84E-02
76896,8.28E-03,2.86E-02
76897,8.27E-03,2.90E-02
76898,8.26E-03,3.01E-02
76899,8.25E-03,3.14E-02
76900,8.41E-03,2.80E-02
76901,8.41E-03,2.83E-02
76902,8.42E-03,2.86E-02
76903,8.43E-03,2.89E-02
76904,8.43E-03,2.95E-02
76905,8.44E-03,2.98E-02
76906,8.45E-03,2.86E-02
76907,8.43E-03,2.80E-02
76908,8.44E-03,2.84E-02
76909,8.45E-03,2.87E-02
76910,8.45E-03,2.92E-02
76911,8.46E-03,2.95E-02
76912,8.47E-03,2.93E-02
76913,8.48E-03,2.78E-02
76914,8.41E-03,2.81E-02
76915,8.42E-03,2.85E-02
76916,8.43E-03,2.89E-02
76917,8.44E-03,2.93E-02
76918,8.44E-03,2.95E-02
76919,8.45E-03,2.90E-02
76920,8.46E-03,2.77E-02
76921,8.38E-03,2.82E-02
76922,8.39E-03,2.86E-02
76923,8.39E-03,2.90E-02
76924,8.40E-03,2.94E-02
76925,8.40E-03,2.94E-02
76926,8.41E-03,2.89E-02
76927,8.42E-03,2.79E-02
76928,8.33E-03,2.82E-02
76929,8.34E-03,2.87E-02
76930,8.34E-03,2.91E-02
76931,8.35E-03,2.94E-02
76932,8.35E-03,2.93E-02
76933,8.36E-03,2.89E-02
76934,8.36E-03,2.82E-02
76935,8.28E-03,2.83E-02
76936,8.28E-03,2.87E-02
76937,8.29E-03,2.91E-02
76938,8.29E-03,2.94E-02
76939,8.30E-03,2.94E-02
76940,8.30E-03,2.91E-02
76941,8.30E-03,2.85E-02
76942,8.22E-03,2.83E-02
76943,8.22E-03,2.87E-02
76944,8.23E-03,2.91E-02
76945,8.23E-03,2.94E-02
76946,8.23E-03,2.95E-02
76947,8.23E-03,2.93E-02
76948,8.24E-03,2.90E-02
76949,8.15E-03,2.83E-02
76950,8.16E-03,2.87E-02
76951,8.16E-03,2.91E-02
76952,8.16E-03,2.94E-02
76953,8.16E-03,2.96E-02
76954,8.16E-03,2.96E-02
76955,8.17E-03,2.94E-02
76956,8.08E-03,2.83E-02
76957,8.08E-03,2.87E-02
76958,8.09E-03,2.91E-02
76959,8.09E-03,2.95E-02
76960,8.09E-03,2.98E-02
76961,8.09E-03,2.99E-02
76962,8.09E-03,3.00E-02
76963,8.01E-03,2.82E-02
76964,8.01E-03,2.87E-02
76965,8.01E-03,2.91E-02
76966,8.02E-03,2.96E-02
76967,8.02E-03,2.99E-02
76968,8.02E-03,3.03E-02
76969,8.02E-03,3.06E-02
76970,7.94E-03,2.82E-02
76971,7.94E-03,2.87E-02
76972,7.94E-03,2.92E-02
76973,7.94E-03,2.96E-02
76974,7.95E-03,3.01E-02
76975,7.95E-03,3.06E-02
76976,7.95E-03,3.12E-02
76977,7.87E-03,2.81E-02
76978,7.87E-03,2.86E-02
76979,7.88E-03,2.92E-02
76980,7.88E-03,2.97E-02
76981,7.88E-03,3.03E-02
76982,7.88E-03,3.10E-02
76983,7.89E-03,3.17E-02
76984,7.81E-03,2.81E-02
76985,7.81E-03,2.86E-02
76986,7.82E-03,2.92E-02
76987,7.82E-03,2.98E-02
76988,7.82E-03,3.05E-02
76989,7.83E-03,3.13E-02
76990,7.83E-03,3.22E-02
76991,7.75E-03,2.81E-02
76992,7.76E-03,2.86E-02
76993,7.76E-03,2.92E-02
76994,7.76E-03,2.99E-02
76995,7.77E-03,3.07E-02
76996,7.77E-03,3.16E-02
76997,7.78E-03,3.26E-02
76998,7.70E-03,2.80E-02
76999,7.71E-03,2.86E-02
77000,7.71E-03,2.92E-02
77001,7.72E-03,3.00E-02
77002,7.72E-03,3.08E-02
77003,7.73E-03,3.18E-02
77004,7.73E-03,3.30E-02
77005,7.66E-03,2.80E-02
77006,7.66E-03,2.85E-02
77007,7.67E-03,2.92E-02
77008,7.67E-03,3.00E-02
77009,7.68E-03,3.10E-02
77010,7.69E-03,3.21E-02
77011,7.69E-03,3.34E-02
77012,7.62E-03,2.79E-02
77013,7.63E-03,2.85E-02
77014,7.63E-03,2.92E-02
77015,7.64E-03,3.00E-02
77016,7.65E-03,3.10E-02
77017,7.65E-03,3.22E-02
77018,7.66E-03,3.36E-02
77019,7.59E-03,2.79E-02
77020,7.60E-03,2.85E-02
77021,7.61E-03,2.92E-02
77022,7.61E-03,3.01E-02
77023,7.62E-03,3.11E-02
77024,7.63E-03,3.24E-02
77025,7.63E-03,3.38E-02
77026,7.57E-03,2.78E-02
77027,7.58E-03,2.84E-02
77028,7.59E-03,2.92E-02
77029,7.59E-03,3.00E-02
77030,7.60E-03,3.11E-02
77031,7.61E-03,3.24E-02
77032,7.61E-03,3.40E-02
77033,7.56E-03,2.78E-02
77034,7.57E-03,2.84E-02
77035,7.58E-03,2.91E-02
77036,7.58E-03,3.00E-02
77037,7.59E-03,3.11E-02
77038,7.60E-03,3.24E-02
77039,7.61E-03,3.41E-02
77040,7.56E-03,2.78E-02
77041,7.57E-03,2.84E-02
77042,7.57E-03,2.91E-02
77043,7.58E-03,2.99E-02
77044,7.59E-03,3.10E-02
77045,7.60E-03,3.24E-02
77046,7.61E-03,3.40E-02
77047,7.57E-03,2.77E-02
77048,7.58E-03,2.83E-02
77049,7.59E-03,2.90E-02
77050,7.59E-03,2.99E-02
77051,7.60E-03,3.09E-02
77052,7.61E-03,3.22E-02
77053,7.62E-03,3.39E-02
77054,7.59E-03,2.77E-02
77055,7.60E-03,2.83E-02
77056,7.61E-03,2.90E-02
77057,7.62E-03,2.98E-02
77058,7.62E-03,3.08E-02
77059,7.63E-03,3.20E-02
77060,7.64E-03,3.35E-02
77061,7.63E-03,2.77E-02
77062,7.63E-03,2.82E-02
77063,7.64E-03,2.89E-02
77064,7.65E-03,2.97E-02
77065,7.66E-03,3.06E-02
77066,7.66E-03,3.17E-02
77067,7.67E-03,3.30E-02
77068,7.67E-03,2.76E-02
77069,7.68E-03,2.82E-02
77070,7.68E-03,2.88E-02
77071,7.69E-03,2.96E-02
77072,7.70E-03,3.04E-02
77073,7.70E-03,3.14E-02
77074,7.71E-03,3.25E-02
77075,7.72E-03,2.76E-02
77076,7.72E-03,2.81E-02
77077,7.73E-03,2.87E-02
77078,7.73E-03,2.94E-02
77079,7.74E-03,3.02E-02
77080,7.75E-03,3.11E-02
77081,7.75E-03,3.20E-02
77082,7.76E-03,2.75E-02
77083,7.77E-03,2.80E-02
77084,7.78E-03,2.86E-02
77085,7.78E-03,2.93E-02
77086,7.79E-03,3.00E-02
77087,7.79E-03,3.07E-02
77088,7.80E-03,3.15E-02
77089,7.82E-03,2.75E-02
77090,7.82E-03,2.80E-02
77091,7.83E-03,2.85E-02
77092,7.83E-03,2.91E-02
77093,7.84E-03,2.97E-02
77094,7.85E-03,3.04E-02
77095,7.85E-03,3.10E-02
77096,7.87E-03,2.74E-02
77097,7.88E-03,2.79E-02
77098,7.88E-03,2.84E-02
77099,7.89E-03,2.89E-02
77100,7.89E-03,2.94E-02
77101,7.90E-03,3.00E-02
77102,7.91E-03,3.06E-02
77103,7.93E-03,2.74E-02
77104,7.93E-03,2.78E-02
77105,7.94E-03,2.82E-02
77106,7.95E-03,2.87E-02
77107,7.95E-03,2.91E-02
77108,7.96E-03,2.96E-02
77109,7.96E-03,3.01E-02
77110,7.99E-03,2.73E-02
77111,7.99E-03,2.77E-02
77112,8.00E-03,2.81E-02
77113,8.00E-03,2.85E-02
77114,8.01E-03,2.89E-02
77115,8.01E-03,2.92E-02
77116,8.02E-03,2.97E-02
77117,8.05E-03,2.72E-02
77118,8.06E-03,2.76E-02
77119,8.06E-03,2.80E-02
77120,8.06E-03,2.83E-02
77121,8.07E-03,2.86E-02
77122,8.07E-03,2.89E-02
77123,8.08E-03,2.92E-02
77124,8.12E-03,2.71E-02
77125,8.12E-03,2.75E-02
77126,8.13E-03,2.78E-02
77127,8.13E-03,2.81E-02
77128,8.13E-03,2.83E-02
77129,8.14E-03,2.85E-02
77130,8.14E-03,2.86E-02
77131,8.18E-03,2.71E-02
77132,8.19E-03,2.74E-02
77133,8.19E-03,2.77E-02
77134,8.20E-03,2.79E-02
77135,8.20E-03,2.81E-02
77136,8.21E-03,2.81E-02
77137,8.21E-03,2.80E-02
77138,8.24E-03,2.70E-02
77139,8.25E-03,2.73E-02
77140,8.25E-03,2.75E-02
77141,8.26E-03,2.77E-02
77142,8.26E-03,2.79E-02
77143,8.27E-03,2.78E-02
77144,8.27E-03,2.76E-02
77145,8.29E-03,2.69E-02
77146,8.30E-03,2.71E-02
77147,8.31E-03,2.74E-02
77148,8.31E-03,2.76E-02
77149,8.32E-03,2.76E-02
77150,8.33E-03,2.76E-02
77151,8.33E-03,2.73E-02
77152,8.34E-03,2.68E-02
77153,8.34E-03,2.70E-02
77154,8.35E-03,2.72E-02
77155,8.36E-03,2.74E-02
77156,8.37E-03,2.74E-02
77157,8.37E-03,2.73E-02
77158,8.38E-03,2.71E-02
77159,8.38E-03,2.67E-02
77160,8.38E-03,2.69E-02
77161,8.39E-03,2.71E-02
77162,8.40E-03,2.72E-02
77163,8.41E-03,2.72E-02
77164,8.41E-03,2.71E-02
77165,8.42E-03,2.69E-02
77166,8.41E-03,2.65E-02
77167,8.42E-03,2.67E-02
77168,8.43E-03,2.69E-02
77169,8.43E-03,2.70E-02
77170,8.44E-03,2.71E-02
77171,8.45E-03,2.70E-02
77172,8.46E-03,2.68E-02
77173,8.44E-03,2.64E-02
77174,8.45E-03,2.66E-02
77175,8.46E-03,2.68E-02
77176,8.47E-03,2.69E-02
77177,8.47E-03,2.69E-02
77178,8.48E-03,2.68E-02
77179,8.49E-03,2.67E-02
77180,8.47E-03,2.63E-02
77181,8.48E-03,2.65E-02
77182,8.49E-03,2.66E-02
77183,8.50E-03,2.67E-02
77184,8.50E-03,2.67E-02
77185,8.51E-03,2.67E-02
77186,8.52E-03,2.67E-02
77187,8.50E-03,2.62E-02
77188,8.51E-03,2.63E-02
77189,8.51E-03,2.65E-02
77190,8.52E-03,2.65E-02
77191,8.53E-03,2.66E-02
77192,8.54E-03,2.66E-02
77193,8.55E-03,2.66E-02
77194,8.52E-03,2.61E-02
77195,8.53E-03,2.62E-02
77196,8.54E-03,2.63E-02
77197,8.55E-03,2.64E-02
77198,8.55E-03,2.65E-02
77199,8.56E-03,2.65E-02
77200,8.57E-03,2.66E-02
77201,8.54E-03,2.60E-02
77202,8.55E-03,2.61E-02
77203,8.56E-03,2.62E-02
77204,8.57E-03,2.63E-02
77205,8.58E-03,2.63E-02
77206,8.58E-03,2.65E-02
77207,8.59E-03,2.66E-02
77208,8.56E-03,2.59E-02
77209,8.57E-03,2.59E-02
77210,8.58E-03,2.60E-02
77211,8.59E-03,2.61E-02
77212,8.60E-03,2.62E-02
77213,8.60E-03,2.64E-02
77214,8.61E-03,2.65E-02
77215,8.58E-03,2.58E-02
77216,8.59E-03,2.58E-02
77217,8.60E-03,2.59E-02
77218,8.61E-03,2.59E-02
77219,8.62E-03,2.61E-02
77220,8.63E-03,2.63E-02
77221,8.63E-03,2.65E-02
77222,8.61E-03,2.57E-02
77223,8.61E-03,2.57E-02
77224,8.62E-03,2.57E-02
77225,8.63E-03,2.58E-02
77226,8.64E-03,2.59E-02
77227,8.65E-03,2.62E-02
77228,8.65E-03,2.65E-02
77229,8.63E-03,2.56E-02
77230,8.64E-03,2.56E-02
77231,8.64E-03,2.56E-02
77232,8.65E-03,2.56E-02
77233,8.66E-03,2.58E-02
77234,8.67E-03,2.60E-02
77235,8.68E-03,2.64E-02
77236,8.65E-03,2.56E-02
77237,8.66E-03,2.56E-02
77238,8.67E-03,2.55E-02
77239,8.68E-03,2.55E-02
77240,8.68E-03,2.56E-02
77241,8.69E-03,2.58E-02
77242,8.70E-03,2.63E-02
77243,8.68E-03,2.56E-02
77244,8.69E-03,2.55E-02
77245,8.69E-03,2.54E-02
77246,8.70E-03,2.53E-02
77247,8.71E-03,2.54E-02
77248,8.72E-03,2.56E-02
77249,8.73E-03,2.62E-02
77250,8.71E-03,2.56E-02
77251,8.72E-03,2.55E-02
77252,8.73E-03,2.53E-02
77253,8.74E-03,2.52E-02
77254,8.74E-03,2.51E-02
77255,8.75E-03,2.54E-02
77256,8.76E-03,2.59E-02
77257,8.76E-03,2.56E-02
77258,8.76E-03,2.55E-02
77259,8.77E-03,2.53E-02
77260,8.77E-03,2.51E-02
77261,8.78E-03,2.49E-02
77262,8.79E-03,2.50E-02
77263,8.79E-03,2.56E-02
77264,8.81E-03,2.57E-02
77265,8.81E-03,2.56E-02
77266,8.82E-03,2.54E-02
77267,8.82E-03,2.50E-02
77268,8.83E-03,2.47E-02
77269,8.83E-03,2.46E-02
77270,8.84E-03,2.50E-02
77271,8.87E-03,2.57E-02
77272,8.87E-03,2.57E-02
77273,8.87E-03,2.54E-02
77274,8.88E-03,2.50E-02
77275,8.88E-03,2.45E-02
77276,8.88E-03,2.41E-02
77277,8.88E-03,2.42E-02
77278,8.96E-03,2.58E-02
77279,8.96E-03,2.58E-02
77280,8.95E-03,2.55E-02
77281,8.94E-03,2.51E-02
77282,8.93E-03,2.44E-02
77283,8.92E-03,2.35E-02
77284,8.92E-03,2.28E-02
77285,9.09E-03,2.59E-02
77286,9.08E-03,2.58E-02
77287,9.06E-03,2.56E-02
77288,9.04E-03,2.52E-02
77289,9.03E-03,2.44E-02
77290,9.01E-03,2.30E-02
77291,8.99E-03,2.08E-02
77292,9.20E-03,2.60E-02
77293,9.21E-03,2.59E-02
77294,9.21E-03,2.57E-02
77295,9.21E-03,2.53E-02
77296,9.22E-03,2.44E-02
77297,9.22E-03,2.25E-02
77298,9.22E-03,1.93E-02
77299,9.22E-03,2.60E-02
77300,9.22E-03,2.60E-02
77301,9.23E-03,2.58E-02
77302,9.24E-03,2.54E-02
77303,9.25E-03,2.43E-02
77304,9.26E-03,2.23E-02
77305,9.27E-03,1.90E-02
77306,9.17E-03,2.60E-02
77307,9.17E-03,2.61E-02
77308,9.18E-03,2.59E-02
77309,9.18E-03,2.54E-02
77310,9.19E-03,2.43E-02
77311,9.19E-03,2.23E-02
77312,9.19E-03,1.93E-02
77313,9.08E-03,2.60E-02
77314,9.08E-03,2.61E-02
77315,9.08E-03,2.60E-02
77316,9.08E-03,2.55E-02
77317,9.08E-03,2.44E-02
77318,9.08E-03,2.25E-02
77319,9.08E-03,1.99E-02
77320,8.96E-03,2.60E-02
77321,8.96E-03,2.61E-02
77322,8.96E-03,2.60E-02
77323,8.95E-03,2.56E-02
77324,8.95E-03,2.46E-02
77325,8.94E-03,2.29E-02
77326,8.94E-03,2.07E-02
77327,8.84E-03,2.59E-02
77328,8.83E-03,2.60E-02
77329,8.82E-03,2.60E-02
77330,8.81E-03,2.57E-02
77331,8.80E-03,2.49E-02
77332,8.80E-03,2.35E-02
77333,8.79E-03,2.16E-02
77334,8.69E-03,2.58E-02
77335,8.68E-03,2.60E-02
77336,8.67E-03,2.60E-02
77337,8.66E-03,2.58E-02
77338,8.65E-03,2.52E-02
77339,8.64E-03,2.41E-02
77340,8.63E-03,2.26E-02
77341,8.54E-03,2.57E-02
77342,8.53E-03,2.59E-02
77343,8.51E-03,2.59E-02
77344,8.50E-03,2.59E-02
77345,8.48E-03,2.57E-02
77346,8.47E-03,2.49E-02
77347,8.45E-03,2.36E-02
77348,8.37E-03,2.56E-02
77349,8.34E-03,2.58E-02
77350,8.32E-03,2.59E-02
77351,8.29E-03,2.60E-02
77352,8.27E-03,2.61E-02
77353,8.24E-03,2.59E-02
77354,8.22E-03,2.51E-02
77355,8.16E-03,2.56E-02
77356,8.12E-03,2.57E-02
77357,8.09E-03,2.58E-02
77358,8.05E-03,2.60E-02
77359,8.01E-03,2.63E-02
77360,7.98E-03,2.68E-02
77361,7.94E-03,2.73E-02
77362,7.97E-03,2.55E-02
77363,7.94E-03,2.56E-02
77364,7.92E-03,2.58E-02
77365,7.89E-03,2.61E-02
77366,7.87E-03,2.65E-02
77367,7.84E-03,2.76E-02
77368,7.81E-03,2.98E-02
77369,7.84E-03,2.54E-02
77370,7.83E-03,2.56E-02
77371,7.83E-03,2.58E-02
77372,7.83E-03,2.62E-02
77373,7.82E-03,2.68E-02
77374,7.82E-03,2.82E-02
77375,7.82E-03,3.12E-02
77376,7.76E-03,2.54E-02
77377,7.77E-03,2.57E-02
77378,7.77E-03,2.59E-02
77379,7.78E-03,2.64E-02
77380,7.78E-03,2.72E-02
77381,7.78E-03,2.87E-02
77382,7.79E-03,3.13E-02
77383,7.71E-03,2.55E-02
77384,7.72E-03,2.57E-02
77385,7.72E-03,2.61E-02
77386,7.73E-03,2.66E-02
77387,7.73E-03,2.76E-02
77388,7.74E-03,2.90E-02
77389,7.75E-03,3.10E-02
77390,7.67E-03,2.55E-02
77391,7.68E-03,2.58E-02
77392,7.68E-03,2.63E-02
77393,7.69E-03,2.69E-02
77394,7.70E-03,2.79E-02
77395,7.70E-03,2.91E-02
77396,7.71E-03,3.06E-02
77397,7.64E-03,2.56E-02
77398,7.64E-03,2.59E-02
77399,7.65E-03,2.64E-02
77400,7.66E-03,2.71E-02
77401,7.66E-03,2.80E-02
77402,7.67E-03,2.91E-02
77403,7.68E-03,3.04E-02
77404,7.61E-03,2.57E-02
77405,7.61E-03,2.61E-02
77406,7.62E-03,2.66E-02
77407,7.63E-03,2.73E-02
77408,7.63E-03,2.81E-02
77409,7.64E-03,2.91E-02
77410,7.65E-03,3.01E-02
77411,7.58E-03,2.58E-02
77412,7.59E-03,2.62E-02
77413,7.59E-03,2.67E-02
77414,7.60E-03,2.74E-02
77415,7.61E-03,2.82E-02
77416,7.62E-03,2.90E-02
77417,7.62E-03,2.99E-02
77418,7.56E-03,2.59E-02
77419,7.57E-03,2.63E-02
77420,7.57E-03,2.69E-02
77421,7.58E-03,2.75E-02
77422,7.59E-03,2.82E-02
77423,7.59E-03,2.89E-02
77424,7.60E-03,2.97E-02
77425,7.54E-03,2.59E-02
77426,7.54E-03,2.64E-02
77427,7.55E-03,2.69E-02
77428,7.56E-03,2.75E-02
77429,7.57E-03,2.82E-02
77430,7.57E-03,2.88E-02
77431,7.58E-03,2.95E-02
77432,7.52E-03,2.60E-02
77433,7.53E-03,2.65E-02
77434,7.53E-03,2.70E-02
77435,7.54E-03,2.75E-02
77436,7.55E-03,2.81E-02
77437,7.56E-03,2.87E-02
77438,7.56E-03,2.93E-02
77439,7.50E-03,2.61E-02
77440,7.51E-03,2.65E-02
77441,7.52E-03,2.70E-02
77442,7.52E-03,2.75E-02
77443,7.53E-03,2.81E-02
77444,7.54E-03,2.86E-02
77445,7.55E-03,2.92E-02
77446,7.49E-03,2.61E-02
77447,7.49E-03,2.66E-02
77448,7.50E-03,2.70E-02
77449,7.51E-03,2.75E-02
77450,7.52E-03,2.80E-02
77451,7.52E-03,2.85E-02
77452,7.53E-03,2.91E-02
77453,7.47E-03,2.62E-02
77454,7.48E-03,2.66E-02
77455,7.49E-03,2.70E-02
77456,7.49E-03,2.75E-02
77457,7.50E-03,2.80E-02
77458,7.51E-03,2.85E-02
77459,7.52E-03,2.89E-02
77460,7.46E-03,2.62E-02
77461,7.47E-03,2.66E-02
77462,7.47E-03,2.70E-02
77463,7.48E-03,2.75E-02
77464,7.49E-03,2.79E-02
77465,7.50E-03,2.84E-02
77466,7.50E-03,2.88E-02
77467,7.44E-03,2.62E-02
77468,7.45E-03,2.66E-02
77469,7.46E-03,2.70E-02
77470,7.47E-03,2.74E-02
77471,7.47E-03,2.79E-02
77472,7.48E-03,2.83E-02
77473,7.49E-03,2.87E-02
77474,7.43E-03,2.62E-02
77475,7.44E-03,2.66E-02
77476,7.45E-03,2.70E-02
77477,7.46E-03,2.74E-02
77478,7.46E-03,2.78E-02
77479,7.47E-03,2.82E-02
77480,7.48E-03,2.86E-02
77481,7.42E-03,2.62E-02
77482,7.43E-03,2.66E-02
77483,7.44E-03,2.70E-02
77484,7.44E-03,2.74E-02
77485,7.45E-03,2.77E-02
77486,7.46E-03,2.81E-02
77487,7.47E-03,2.85E-02
77488,7.41E-03,2.62E-02
77489,7.42E-03,2.66E-02
77490,7.43E-03,2.69E-02
77491,7.43E-03,2.73E-02
77492,7.44E-03,2.77E-02
77493,7.45E-03,2.81E-02
77494,7.46E-03,2.84E-02
77495,7.40E-03,2.62E-02
77496,7.41E-03,2.65E-02
77497,7.42E-03,2.69E-02
77498,7.42E-03,2.73E-02
77499,7.43E-03,2.76E-02
77500,7.44E-03,2.80E-02
77501,7.45E-03,2.84E-02
77502,7.39E-03,2.62E-02
77503,7.40E-03,2.65E-02
77504,7.41E-03,2.69E-02
77505,7.41E-03,2.72E-02
77506,7.42E-03,2.76E-02
77507,7.43E-03,2.79E-02
77508,7.44E-03,2.83E-02
77509,7.38E-03,2.61E-02
77510,7.39E-03,2.65E-02
77511,7.40E-03,2.68E-02
77512,7.41E-03,2.72E-02
77513,7.41E-03,2.75E-02
77514,7.42E-03,2.79E-02
77515,7.43E-03,2.82E-02
77516,7.37E-03,2.61E-02
77517,7.38E-03,2.65E-02
77518,7.39E-03,2.68E-02
77519,7.40E-03,2.71E-02
77520,7.40E-03,2.75E-02
77521,7.41E-03,2.78E-02
77522,7.42E-03,2.81E-02
77523,7.37E-03,2.61E-02
77524,7.37E-03,2.64E-02
77525,7.38E-03,2.68E-02
77526,7.39E-03,2.71E-02
77527,7.40E-03,2.74E-02
77528,7.40E-03,2.77E-02
77529,7.41E-03,2.80E-02
77530,7.36E-03,2.61E-02
77531,7.37E-03,2.64E-02
77532,7.37E-03,2.67E-02
77533,7.38E-03,2.70E-02
77534,7.39E-03,2.73E-02
77535,7.40E-03,2.77E-02
77536,7.40E-03,2.80E-02
77537,7.35E-03,2.61E-02
77538,7.36E-03,2.64E-02
77539,7.37E-03,2.67E-02
77540,7.37E-03,2.70E-02
77541,7.38E-03,2.73E-02
77542,7.39E-03,2.76E-02
77543,7.40E-03,2.79E-02
77544,7.34E-03,2.60E-02
77545,7.35E-03,2.63E-02
77546,7.36E-03,2.66E-02
77547,7.37E-03,2.69E-02
77548,7.37E-03,2.72E-02
77549,7.38E-03,2.75E-02
77550,7.39E-03,2.78E-02
77551,7.34E-03,2.60E-02
77552,7.34E-03,2.63E-02
77553,7.35E-03,2.66E-02
77554,7.36E-03,2.69E-02
77555,7.37E-03,2.72E-02
77556,7.37E-03,2.75E-02
77557,7.38E-03,2.78E-02
77558,7.33E-03,2.60E-02
77559,7.34E-03,2.63E-02
77560,7.34E-03,2.66E-02
77561,7.35E-03,2.68E-02
77562,7.36E-03,2.71E-02
77563,7.37E-03,2.74E-02
77564,7.37E-03,2.77E-02
77565,7.32E-03,2.59E-02
77566,7.33E-03,2.62E-02
77567,7.34E-03,2.65E-02
77568,7.34E-03,2.68E-02
77569,7.35E-03,2.71E-02
77570,7.36E-03,2.74E-02
77571,7.37E-03,2.76E-02
77572,7.31E-03,2.59E-02
77573,7.32E-03,2.62E-02
77574,7.33E-03,2.65E-02
77575,7.34E-03,2.67E-02
77576,7.34E-03,2.70E-02
77577,7.35E-03,2.73E-02
77578,7.36E-03,2.76E-02
77579,7.31E-03,2.59E-02
77580,7.31E-03,2.61E-02
77581,7.32E-03,2.64E-02
77582,7.33E-03,2.67E-02
77583,7.34E-03,2.70E-02
77584,7.34E-03,2.72E-02
77585,7.35E-03,2.75E-02
77586,7.30E-03,2.58E-02
77587,7.31E-03,2.61E-02
77588,7.31E-03,2.64E-02
77589,7.32E-03,2.67E-02
77590,7.33E-03,2.69E-02
77591,7.34E-03,2.72E-02
77592,7.34E-03,2.75E-02
77593,7.29E-03,2.58E-02
77594,7.30E-03,2.61E-02
77595,7.31E-03,2.63E-02
77596,7.32E-03,2.66E-02
77597,7.32E-03,2.69E-02
77598,7.33E-03,2.71E-02
77599,7.34E-03,2.74E-02
77600,7.29E-03,2.58E-02
77601,7.29E-03,2.60E-02
77602,7.30E-03,2.63E-02
77603,7.31E-03,2.66E-02
77604,7.32E-03,2.68E-02
77605,7.32E-03,2.71E-02
77606,7.33E-03,2.74E-02
77607,7.28E-03,2.57E-02
77608,7.29E-03,2.60E-02
77609,7.29E-03,2.63E-02
77610,7.30E-03,2.65E-02
77611,7.31E-03,2.68E-02
77612,7.32E-03,2.70E-02
77613,7.32E-03,2.73E-02
77614,7.27E-03,2.57E-02
77615,7.28E-03,2.60E-02
77616,7.29E-03,2.62E-02
77617,7.29E-03,2.65E-02
77618,7.30E-03,2.67E-02
77619,7.31E-03,2.70E-02
77620,7.32E-03,2.73E-02
77621,7.27E-03,2.57E-02
77622,7.27E-03,2.59E-02
77623,7.28E-03,2.62E-02
77624,7.29E-03,2.64E-02
77625,7.30E-03,2.67E-02
77626,7.30E-03,2.69E-02
77627,7.31E-03,2.72E-02
77628,7.26E-03,2.56E-02
77629,7.27E-03,2.59E-02
77630,7.27E-03,2.61E-02
77631,7.28E-03,2.64E-02
77632,7.29E-03,2.66E-02
77633,7.30E-03,2.69E-02
77634,7.30E-03,2.71E-02
77635,7.25E-03,2.56E-02
77636,7.26E-03,2.58E-02
77637,7.27E-03,2.61E-02
77638,7.28E-03,2.63E-02
77639,7.28E-03,2.66E-02
77640,7.29E-03,2.68E-02
77641,7.30E-03,2.71E-02
77642,7.25E-03,2.55E-02
77643,7.25E-03,2.58E-02
77644,7.26E-03,2.60E-02
77645,7.27E-03,2.63E-02
77646,7.28E-03,2.65E-02
77647,7.28E-03,2.68E-02
77648,7.29E-03,2.70E-02
77649,7.24E-03,2.55E-02
77650,7.25E-03,2.57E-02
77651,7.26E-03,2.60E-02
77652,7.26E-03,2.62E-02
77653,7.27E-03,2.65E-02
77654,7.28E-03,2.67E-02
77655,7.29E-03,2.70E-02
77656,7.23E-03,2.55E-02
77657,7.24E-03,2.57E-02
77658,7.25E-03,2.59E-02
77659,7.26E-03,2.62E-02
77660,7.26E-03,2.64E-02
77661,7.27E-03,2.67E-02
77662,7.28E-03,2.69E-02
77663,7.23E-03,2.54E-02
77664,7.24E-03,2.57E-02
77665,7.24E-03,2.59E-02
77666,7.25E-03,2.61E-02
77667,7.26E-03,2.64E-02
77668,7.27E-03,2.66E-02
77669,7.27E-03,2.69E-02
77670,7.22E-03,2.54E-02
77671,7.23E-03,2.56E-02
77672,7.24E-03,2.59E-02
77673,7.25E-03,2.61E-02
77674,7.25E-03,2.63E-02
77675,7.26E-03,2.66E-02
77676,7.27E-03,2.68E-02
77677,7.22E-03,2.54E-02
77678,7.22E-03,2.56E-02
77679,7.23E-03,2.58E-02
77680,7.24E-03,2.60E-02
77681,7.25E-03,2.63E-02
77682,7.25E-03,2.65E-02
77683,7.26E-03,2.68E-02
77684,7.21E-03,2.53E-02
77685,7.22E-03,2.55E-02
77686,7.23E-03,2.58E-02
77687,7.23E-03,2.60E-02
77688,7.24E-03,2.62E-02
77689,7.25E-03,2.64E-02
77690,7.26E-03,2.67E-02
77691,7.21E-03,2.53E-02
77692,7.21E-03,2.55E-02
77693,7.22E-03,2.57E-02
77694,7.23E-03,2.59E-02
77695,7.24E-03,2.62E-02
77696,7.24E-03,2.64E-02
77697,7.25E-03,2.66E-02
77698,7.20E-03,2.52E-02
77699,7.21E-03,2.55E-02
77700,7.22E-03,2.57E-02
77701,7.22E-03,2.59E-02
77702,7.23E-03,2.61E-02
77703,7.24E-03,2.63E-02
77704,7.25E-03,2.66E-02
77705,7.19E-03,2.52E-02
77706,7.20E-03,2.54E-02
77707,7.21E-03,2.56E-02
77708,7.22E-03,2.58E-02
77709,7.22E-03,2.60E-02
77710,7.23E-03,2.63E-02
77711,7.24E-03,2.65E-02
77712,7.19E-03,2.52E-02
77713,7.20E-03,2.54E-02
77714,7.20E-03,2.56E-02
77715,7.21E-03,2.58E-02
77716,7.22E-03,2.60E-02
77717,7.23E-03,2.62E-02
77718,7.23E-03,2.64E-02
77719,7.18E-03,2.51E-02
77720,7.19E-03,2.53E-02
77721,7.20E-03,2.55E-02
77722,7.21E-03,2.57E-02
77723,7.21E-03,2.59E-02
77724,7.22E-03,2.61E-02
77725,7.23E-03,2.63E-02
77726,7.18E-03,2.51E-02
77727,7.19E-03,2.53E-02
77728,7.19E-03,2.55E-02
77729,7.20E-03,2.56E-02
77730,7.21E-03,2.58E-02
77731,7.22E-03,2.60E-02
77732,7.22E-03,2.63E-02
77733,7.17E-03,2.51E-02
77734,7.18E-03,2.52E-02
77735,7.19E-03,2.54E-02
77736,7.20E-03,2.56E-02
77737,7.20E-03,2.58E-02
77738,7.21E-03,2.60E-02
77739,7.22E-03,2.62E-02
77740,7.17E-03,2.51E-02
77741,7.18E-03,2.52E-02
77742,7.18E-03,2.54E-02
77743,7.19E-03,2.55E-02
77744,7.20E-03,2.57E-02
77745,7.21E-03,2.59E-02
77746,7.21E-03,2.61E-02
77747,7.16E-03,2.50E-02
77748,7.17E-03,2.52E-02
77749,7.18E-03,2.53E-02
77750,7.19E-03,2.55E-02
77751,7.19E-03,2.56E-02
77752,7.20E-03,2.58E-02
77753,7.21E-03,2.60E-02
77754,7.16E-03,2.50E-02
77755,7.17E-03,2.51E-02
77756,7.17E-03,2.53E-02
77757,7.18E-03,2.54E-02
77758,7.19E-03,2.55E-02
77759,7.20E-03,2.57E-02
77760,7.20E-03,2.59E-02
77761,7.15E-03,2.50E-02
77762,7.16E-03,2.51E-02
77763,7.17E-03,2.52E-02
77764,7.18E-03,2.54E-02
77765,7.18E-03,2.55E-02
77766,7.19E-03,2.56E-02
77767,7.20E-03,2.58E-02
77768,7.15E-03,2.50E-02
77769,7.15E-03,2.51E-02
77770,7.16E-03,2.52E-02
77771,7.17E-03,2.53E-02
77772,7.18E-03,2.54E-02
77773,7.18E-03,2.55E-02
77774,7.19E-03,2.56E-02
77775,7.14E-03,2.50E-02
77776,7.15E-03,2.51E-02
77777,7.16E-03,2.52E-02
77778,7.16E-03,2.52E-02
77779,7.17E-03,2.53E-02
77780,7.18E-03,2.54E-02
77781,7.19E-03,2.55E-02
77782,7.14E-03,2.50E-02
77783,7.14E-03,2.51E-02
77784,7.15E-03,2.51E-02
77785,7.16E-03,2.52E-02
77786,7.17E-03,2.52E-02
77787,7.17E-03,2.53E-02
77788,7.18E-03,2.53E-02
77789,7.13E-03,2.50E-02
77790,7.14E-03,2.51E-02
77791,7.14E-03,2.51E-02
77792,7.15E-03,2.52E-02
77793,7.16E-03,2.52E-02
77794,7.17E-03,2.52E-02
77795,7.17E-03,2.51E-02
77796,7.12E-03,2.50E-02
77797,7.13E-03,2.51E-02
77798,7.13E-03,2.51E-02
77799,7.14E-03,2.51E-02
77800,7.15E-03,2.51E-02
77801,7.16E-03,2.51E-02
77802,7.17E-03,2.50E-02
77803,7.11E-03,2.50E-02
77804,7.12E-03,2.51E-02
77805,7.12E-03,2.51E-02
77806,7.13E-03,2.51E-02
77807,7.14E-03,2.50E-02
77808,7.15E-03,2.50E-02
77809,7.15E-03,2.49E-02
77810,7.09E-03,2.50E-02
77811,7.10E-03,2.51E-02
77812,7.11E-03,2.51E-02
77813,7.12E-03,2.51E-02
77814,7.12E-03,2.50E-02
77815,7.13E-03,2.49E-02
77816,7.14E-03,2.47E-02
77817,7.08E-03,2.51E-02
77818,7.08E-03,2.51E-02
77819,7.09E-03,2.51E-02
77820,7.10E-03,2.51E-02
77821,7.11E-03,2.49E-02
77822,7.12E-03,2.48E-02
77823,7.12E-03,2.46E-02
77824,7.06E-03,2.51E-02
77825,7.06E-03,2.52E-02
77826,7.07E-03,2.52E-02
77827,7.08E-03,2.51E-02
77828,7.09E-03,2.49E-02
77829,7.10E-03,2.47E-02
77830,7.10E-03,2.44E-02
77831,7.03E-03,2.51E-02
77832,7.04E-03,2.52E-02
77833,7.05E-03,2.53E-02
77834,7.06E-03,2.52E-02
77835,7.07E-03,2.49E-02
77836,7.07E-03,2.46E-02
77837,7.08E-03,2.43E-02
77838,7.01E-03,2.51E-02
77839,7.02E-03,2.53E-02
77840,7.02E-03,2.53E-02
77841,7.03E-03,2.53E-02
77842,7.04E-03,2.50E-02
77843,7.05E-03,2.46E-02
77844,7.06E-03,2.41E-02
77845,6.98E-03,2.52E-02
77846,6.98E-03,2.53E-02
77847,6.99E-03,2.54E-02
77848,7.00E-03,2.54E-02
77849,7.01E-03,2.51E-02
77850,7.02E-03,2.46E-02
77851,7.03E-03,2.39E-02
77852,6.94E-03,2.51E-02
77853,6.94E-03,2.53E-02
77854,6.95E-03,2.55E-02
77855,6.96E-03,2.55E-02
77856,6.97E-03,2.53E-02
77857,6.98E-03,2.47E-02
77858,6.99E-03,2.37E-02
77859,6.88E-03,2.51E-02
77860,6.89E-03,2.53E-02
77861,6.90E-03,2.55E-02
77862,6.90E-03,2.56E-02
77863,6.91E-03,2.56E-02
77864,6.92E-03,2.50E-02
77865,6.93E-03,2.36E-02
77866,6.77E-03,2.51E-02
77867,6.77E-03,2.53E-02
77868,6.76E-03,2.55E-02
77869,6.76E-03,2.57E-02
77870,6.75E-03,2.58E-02
77871,6.75E-03,2.56E-02
77872,6.74E-03,2.45E-02
77873,6.62E-03,2.50E-02
77874,6.61E-03,2.52E-02
77875,6.59E-03,2.54E-02
77876,6.58E-03,2.56E-02
77877,6.57E-03,2.58E-02
77878,6.56E-03,2.61E-02
77879,6.55E-03,2.68E-02
77880,6.50E-03,2.50E-02
77881,6.51E-03,2.52E-02
77882,6.51E-03,2.54E-02
77883,6.52E-03,2.56E-02
77884,6.53E-03,2.59E-02
77885,6.53E-03,2.67E-02
77886,6.54E-03,2.84E-02
77887,6.44E-03,2.50E-02
77888,6.45E-03,2.52E-02
77889,6.45E-03,2.54E-02
77890,6.46E-03,2.57E-02
77891,6.47E-03,2.62E-02
77892,6.48E-03,2.71E-02
77893,6.48E-03,2.86E-02
77894,6.39E-03,2.50E-02
77895,6.40E-03,2.52E-02
77896,6.41E-03,2.54E-02
77897,6.41E-03,2.58E-02
77898,6.42E-03,2.64E-02
77899,6.43E-03,2.73E-02
77900,6.44E-03,2.85E-02
77901,6.35E-03,2.50E-02
77902,6.36E-03,2.52E-02
77903,6.37E-03,2.55E-02
77904,6.38E-03,2.60E-02
77905,6.38E-03,2.66E-02
77906,6.39E-03,2.74E-02
77907,6.40E-03,2.83E-02
77908,6.32E-03,2.50E-02
77909,6.33E-03,2.53E-02
77910,6.34E-03,2.56E-02
77911,6.34E-03,2.61E-02
77912,6.35E-03,2.67E-02
77913,6.36E-03,2.74E-02
77914,6.37E-03,2.82E-02
77915,6.29E-03,2.50E-02
77916,6.30E-03,2.54E-02
77917,6.31E-03,2.57E-02
77918,6.32E-03,2.62E-02
77919,6.32E-03,2.67E-02
77920,6.33E-03,2.74E-02
77921,6.34E-03,2.80E-02
77922,6.27E-03,2.51E-02
77923,6.28E-03,2.54E-02
77924,6.28E-03,2.58E-02
77925,6.29E-03,2.62E-02
77926,6.30E-03,2.67E-02
77927,6.31E-03,2.73E-02
77928,6.31E-03,2.78E-02
77929,6.25E-03,2.51E-02
77930,6.25E-03,2.55E-02
77931,6.26E-03,2.58E-02
77932,6.27E-03,2.63E-02
77933,6.28E-03,2.67E-02
77934,6.28E-03,2.72E-02
77935,6.29E-03,2.77E-02
77936,6.23E-03,2.52E-02
77937,6.23E-03,2.55E-02
77938,6.24E-03,2.59E-02
77939,6.25E-03,2.63E-02
77940,6.26E-03,2.67E-02
77941,6.26E-03,2.71E-02
77942,6.27E-03,2.76E-02
77943,6.21E-03,2.52E-02
77944,6.21E-03,2.55E-02
77945,6.22E-03,2.59E-02
77946,6.23E-03,2.62E-02
77947,6.24E-03,2.66E-02
77948,6.24E-03,2.70E-02
77949,6.25E-03,2.74E-02
77950,6.19E-03,2.52E-02
77951,6.20E-03,2.55E-02
77952,6.20E-03,2.59E-02
77953,6.21E-03,2.62E-02
77954,6.22E-03,2.66E-02
77955,6.23E-03,2.69E-02
77956,6.23E-03,2.73E-02
77957,6.17E-03,2.52E-02
77958,6.18E-03,2.55E-02
77959,6.19E-03,2.58E-02
77960,6.20E-03,2.62E-02
77961,6.20E-03,2.65E-02
77962,6.21E-03,2.69E-02
77963,6.22E-03,2.72E-02
77964,6.16E-03,2.52E-02
77965,6.17E-03,2.55E-02
77966,6.17E-03,2.58E-02
77967,6.18E-03,2.61E-02
77968,6.19E-03,2.64E-02
77969,6.19E-03,2.68E-02
77970,6.20E-03,2.71E-02
77971,6.14E-03,2.52E-02
77972,6.15E-03,2.55E-02
77973,6.16E-03,2.58E-02
77974,6.17E-03,2.61E-02
77975,6.17E-03,2.64E-02
77976,6.18E-03,2.67E-02
77977,6.19E-03,2.70E-02
77978,6.13E-03,2.52E-02
77979,6.14E-03,2.54E-02
77980,6.15E-03,2.57E-02
77981,6.15E-03,2.60E-02
77982,6.16E-03,2.63E-02
77983,6.17E-03,2.66E-02
77984,6.17E-03,2.69E-02
77985,6.12E-03,2.52E-02
77986,6.13E-03,2.54E-02
77987,6.13E-03,2.57E-02
77988,6.14E-03,2.59E-02
77989,6.15E-03,2.62E-02
77990,6.15E-03,2.65E-02
77991,6.16E-03,2.67E-02
77992,6.11E-03,2.51E-02
77993,6.12E-03,2.54E-02
77994,6.12E-03,2.56E-02
77995,6.13E-03,2.59E-02
77996,6.14E-03,2.61E-02
77997,6.14E-03,2.64E-02
77998,6.15E-03,2.66E-02
77999,6.10E-03,2.51E-02
78000,6.10E-03,2.53E-02
78001,6.11E-03,2.56E-02
78002,6.12E-03,2.58E-02
78003,6.13E-03,2.60E-02
78004,6.13E-03,2.63E-02
78005,6.14E-03,2.65E-02
78006,6.09E-03,2.51E-02
78007,6.09E-03,2.53E-02
78008,6.10E-03,2.55E-02
78009,6.11E-03,2.57E-02
78010,6.11E-03,2.59E-02
78011,6.12E-03,2.62E-02
78012,6.13E-03,2.64E-02
78013,6.08E-03,2.50E-02
78014,6.08E-03,2.53E-02
78015,6.09E-03,2.55E-02
78016,6.10E-03,2.57E-02
78017,6.10E-03,2.59E-02
78018,6.11E-03,2.61E-02
78019,6.12E-03,2.63E-02
78020,6.07E-03,2.50E-02
78021,6.07E-03,2.52E-02
78022,6.08E-03,2.54E-02
78023,6.09E-03,2.56E-02
78024,6.09E-03,2.58E-02
78025,6.10E-03,2.60E-02
78026,6.11E-03,2.61E-02
78027,6.06E-03,2.50E-02
78028,6.06E-03,2.52E-02
78029,6.07E-03,2.53E-02
78030,6.08E-03,2.55E-02
78031,6.08E-03,2.57E-02
78032,6.09E-03,2.59E-02
78033,6.10E-03,2.60E-02
78034,6.05E-03,2.49E-02
78035,6.05E-03,2.51E-02
78036,6.06E-03,2.53E-02
78037,6.07E-03,2.55E-02
78038,6.07E-03,2.56E-02
78039,6.08E-03,2.58E-02
78040,6.09E-03,2.59E-02
78041,6.04E-03,2.49E-02
78042,6.04E-03,2.51E-02
78043,6.05E-03,2.52E-02
78044,6.06E-03,2.54E-02
78045,6.06E-03,2.55E-02
78046,6.07E-03,2.57E-02
78047,6.08E-03,2.58E-02
78048,6.02E-03,2.49E-02
78049,6.03E-03,2.50E-02
78050,6.04E-03,2.52E-02
78051,6.04E-03,2.53E-02
78052,6.05E-03,2.55E-02
78053,6.06E-03,2.56E-02
78054,6.07E-03,2.57E-02
78055,6.01E-03,2.48E-02
78056,6.02E-03,2.50E-02
78057,6.02E-03,2.51E-02
78058,6.03E-03,2.53E-02
78059,6.04E-03,2.54E-02
78060,6.05E-03,2.55E-02
78061,6.05E-03,2.56E-02
78062,6.00E-03,2.48E-02
78063,6.00E-03,2.49E-02
78064,6.01E-03,2.51E-02
78065,6.02E-03,2.52E-02
78066,6.03E-03,2.53E-02
78067,6.03E-03,2.54E-02
78068,6.04E-03,2.55E-02
78069,5.98E-03,2.48E-02
78070,5.99E-03,2.49E-02
78071,6.00E-03,2.50E-02
78072,6.00E-03,2.51E-02
78073,6.01E-03,2.52E-02
78074,6.02E-03,2.53E-02
78075,6.03E-03,2.54E-02
78076,5.97E-03,2.47E-02
78077,5.97E-03,2.49E-02
78078,5.98E-03,2.50E-02
78079,5.99E-03,2.51E-02
78080,6.00E-03,2.52E-02
78081,6.00E-03,2.52E-02
78082,6.01E-03,2.53E-02
78083,5.95E-03,2.47E-02
78084,5.96E-03,2.48E-02
78085,5.96E-03,2.49E-02
78086,5.97E-03,2.50E-02
78087,5.98E-03,2.51E-02
78088,5.99E-03,2.52E-02
78089,5.99E-03,2.52E-02
78090,5.93E-03,2.47E-02
78091,5.94E-03,2.48E-02
78092,5.95E-03,2.49E-02
78093,5.95E-03,2.50E-02
78094,5.96E-03,2.50E-02
78095,5.97E-03,2.51E-02
78096,5.98E-03,2.52E-02
78097,5.91E-03,2.47E-02
78098,5.92E-03,2.48E-02
78099,5.93E-03,2.48E-02
78100,5.94E-03,2.49E-02
78101,5.94E-03,2.50E-02
78102,5.95E-03,2.50E-02
78103,5.96E-03,2.51E-02
78104,5.89E-03,2.46E-02
78105,5.90E-03,2.47E-02
78106,5.91E-03,2.48E-02
78107,5.92E-03,2.49E-02
78108,5.92E-03,2.49E-02
78109,5.93E-03,2.50E-02
78110,5.94E-03,2.50E-02
78111,5.87E-03,2.46E-02
78112,5.88E-03,2.47E-02
78113,5.89E-03,2.48E-02
78114,5.89E-03,2.48E-02
78115,5.90E-03,2.49E-02
78116,5.91E-03,2.49E-02
78117,5.92E-03,2.49E-02
78118,5.85E-03,2.46E-02
78119,5.86E-03,2.47E-02
78120,5.86E-03,2.48E-02
78121,5.87E-03,2.48E-02
78122,5.88E-03,2.48E-02
78123,5.89E-03,2.49E-02
78124,5.90E-03,2.49E-02
78125,5.82E-03,2.46E-02
78126,5.83E-03,2.47E-02
78127,5.84E-03,2.47E-02
78128,5.85E-03,2.48E-02
78129,5.86E-03,2.48E-02
78130,5.86E-03,2.48E-02
78131,5.87E-03,2.48E-02
78132,5.80E-03,2.46E-02
78133,5.81E-03,2.47E-02
78134,5.81E-03,2.47E-02
78135,5.82E-03,2.48E-02
78136,5.83E-03,2.48E-02
78137,5.84E-03,2.48E-02
78138,5.85E-03,2.47E-02
78139,5.77E-03,2.46E-02
78140,5.78E-03,2.47E-02
78141,5.79E-03,2.47E-02
78142,5.79E-03,2.47E-02
78143,5.80E-03,2.47E-02
78144,5.81E-03,2.47E-02
78145,5.82E-03,2.47E-02
78146,5.74E-03,2.46E-02
78147,5.75E-03,2.47E-02
78148,5.76E-03,2.47E-02
78149,5.76E-03,2.47E-02
78150,5.77E-03,2.47E-02
78151,5.78E-03,2.47E-02
78152,5.79E-03,2.46E-02
78153,5.71E-03,2.46E-02
78154,5.72E-03,2.47E-02
78155,5.72E-03,2.47E-02
78156,5.73E-03,2.47E-02
78157,5.74E-03,2.47E-02
78158,5.75E-03,2.47E-02
78159,5.76E-03,2.46E-02
78160,5.67E-03,2.46E-02
78161,5.68E-03,2.47E-02
78162,5.69E-03,2.47E-02
78163,5.70E-03,2.48E-02
78164,5.71E-03,2.47E-02
78165,5.71E-03,2.46E-02
78166,5.72E-03,2.46E-02
78167,5.63E-03,2.47E-02
78168,5.64E-03,2.47E-02
78169,5.65E-03,2.48E-02
78170,5.66E-03,2.48E-02
78171,5.67E-03,2.47E-02
78172,5.68E-03,2.47E-02
78173,5.68E-03,2.45E-02
78174,5.59E-03,2.47E-02
78175,5.60E-03,2.48E-02
78176,5.61E-03,2.48E-02
78177,5.62E-03,2.48E-02
78178,5.63E-03,2.48E-02
78179,5.64E-03,2.47E-02
78180,5.64E-03,2.45E-02
78181,5.55E-03,2.47E-02
78182,5.55E-03,2.48E-02
78183,5.56E-03,2.49E-02
78184,5.57E-03,2.49E-02
78185,5.58E-03,2.48E-02
78186,5.59E-03,2.47E-02
78187,5.60E-03,2.45E-02
78188,5.50E-03,2.47E-02
78189,5.50E-03,2.49E-02
78190,5.51E-03,2.49E-02
78191,5.52E-03,2.50E-02
78192,5.53E-03,2.49E-02
78193,5.54E-03,2.48E-02
78194,5.55E-03,2.46E-02
78195,5.44E-03,2.48E-02
78196,5.45E-03,2.49E-02
78197,5.46E-03,2.50E-02
78198,5.47E-03,2.51E-02
78199,5.48E-03,2.51E-02
78200,5.49E-03,2.50E-02
78201,5.49E-03,2.48E-02
78202,5.37E-03,2.48E-02
78203,5.38E-03,2.49E-02
78204,5.39E-03,2.51E-02
78205,5.40E-03,2.52E-02
78206,5.41E-03,2.52E-02
78207,5.42E-03,2.52E-02
78208,5.43E-03,2.50E-02
78209,5.30E-03,2.48E-02
78210,5.31E-03,2.49E-02
78211,5.32E-03,2.51E-02
78212,5.33E-03,2.52E-02
78213,5.34E-03,2.54E-02
78214,5.35E-03,2.54E-02
78215,5.36E-03,2.55E-02
78216,5.23E-03,2.48E-02
78217,5.24E-03,2.50E-02
78218,5.25E-03,2.51E-02
78219,5.26E-03,2.53E-02
78220,5.27E-03,2.55E-02
78221,5.28E-03,2.57E-02
78222,5.29E-03,2.60E-02
78223,5.16E-03,2.48E-02
78224,5.17E-03,2.50E-02
78225,5.17E-03,2.52E-02
78226,5.18E-03,2.54E-02
78227,5.19E-03,2.57E-02
78228,5.20E-03,2.60E-02
78229,5.21E-03,2.65E-02
78230,5.09E-03,2.48E-02
78231,5.10E-03,2.50E-02
78232,5.11E-03,2.52E-02
78233,5.12E-03,2.55E-02
78234,5.13E-03,2.59E-02
78235,5.14E-03,2.63E-02
78236,5.14E-03,2.68E-02
78237,5.03E-03,2.48E-02
78238,5.04E-03,2.50E-02
78239,5.05E-03,2.53E-02
78240,5.06E-03,2.56E-02
78241,5.07E-03,2.60E-02
78242,5.07E-03,2.65E-02
78243,5.08E-03,2.71E-02
78244,4.98E-03,2.48E-02
78245,4.98E-03,2.51E-02
78246,4.99E-03,2.54E-02
78247,5.00E-03,2.57E-02
78248,5.01E-03,2.61E-02
78249,5.02E-03,2.67E-02
78250,5.03E-03,2.73E-02
78251,4.93E-03,2.48E-02
78252,4.94E-03,2.51E-02
78253,4.95E-03,2.54E-02
78254,4.95E-03,2.58E-02
78255,4.96E-03,2.62E-02
78256,4.97E-03,2.68E-02
78257,4.98E-03,2.74E-02
78258,4.89E-03,2.48E-02
78259,4.90E-03,2.51E-02
78260,4.90E-03,2.54E-02
78261,4.91E-03,2.58E-02
78262,4.92E-03,2.63E-02
78263,4.93E-03,2.68E-02
78264,4.94E-03,2.74E-02
78265,4.85E-03,2.48E-02
78266,4.86E-03,2.51E-02
78267,4.87E-03,2.54E-02
78268,4.88E-03,2.58E-02
78269,4.88E-03,2.63E-02
78270,4.89E-03,2.68E-02
78271,4.90E-03,2.73E-02
78272,4.82E-03,2.48E-02
78273,4.83E-03,2.51E-02
78274,4.84E-03,2.54E-02
78275,4.85E-03,2.58E-02
78276,4.85E-03,2.62E-02
78277,4.86E-03,2.67E-02
78278,4.87E-03,2.73E-02
78279,4.80E-03,2.48E-02
78280,4.81E-03,2.51E-02
78281,4.81E-03,2.54E-02
78282,4.82E-03,2.58E-02
78283,4.83E-03,2.62E-02
78284,4.83E-03,2.66E-02
78285,4.84E-03,2.72E-02
78286,4.78E-03,2.48E-02
78287,4.79E-03,2.51E-02
78288,4.79E-03,2.53E-02
78289,4.80E-03,2.57E-02
78290,4.81E-03,2.61E-02
78291,4.81E-03,2.65E-02
78292,4.82E-03,2.70E-02
78293,4.76E-03,2.48E-02
78294,4.77E-03,2.50E-02
78295,4.78E-03,2.53E-02
78296,4.78E-03,2.56E-02
78297,4.79E-03,2.59E-02
78298,4.80E-03,2.63E-02
78299,4.80E-03,2.68E-02
78300,4.75E-03,2.47E-02
78301,4.76E-03,2.49E-02
78302,4.77E-03,2.52E-02
78303,4.77E-03,2.54E-02
78304,4.78E-03,2.58E-02
78305,4.78E-03,2.61E-02
78306,4.79E-03,2.66E-02
78307,4.75E-03,2.47E-02
78308,4.75E-03,2.49E-02
78309,4.76E-03,2.51E-02
78310,4.76E-03,2.53E-02
78311,4.77E-03,2.56E-02
78312,4.77E-03,2.59E-02
78313,4.78E-03,2.63E-02
78314,4.75E-03,2.46E-02
78315,4.75E-03,2.48E-02
78316,4.76E-03,2.49E-02
78317,4.76E-03,2.51E-02
78318,4.77E-03,2.54E-02
78319,4.77E-03,2.56E-02
78320,4.78E-03,2.59E-02
78321,4.75E-03,2.46E-02
78322,4.75E-03,2.47E-02
78323,4.76E-03,2.48E-02
78324,4.76E-03,2.49E-02
78325,4.77E-03,2.51E-02
78326,4.77E-03,2.53E-02
78327,4.77E-03,2.56E-02
78328,4.75E-03,2.45E-02
78329,4.76E-03,2.46E-02
78330,4.76E-03,2.47E-02
78331,4.77E-03,2.47E-02
78332,4.77E-03,2.48E-02
78333,4.77E-03,2.50E-02
78334,4.78E-03,2.51E-02
78335,4.76E-03,2.45E-02
78336,4.76E-03,2.45E-02
78337,4.77E-03,2.45E-02
78338,4.77E-03,2.45E-02
78339,4.78E-03,2.45E-02
78340,4.78E-03,2.46E-02
78341,4.78E-03,2.47E-02
78342,4.77E-03,2.44E-02
78343,4.77E-03,2.44E-02
78344,4.78E-03,2.44E-02
78345,4.78E-03,2.43E-02
78346,4.78E-03,2.42E-02
78347,4.79E-03,2.42E-02
78348,4.79E-03,2.41E-02
78349,4.78E-03,2.44E-02
78350,4.78E-03,2.43E-02
78351,4.79E-03,2.42E-02
78352,4.79E-03,2.41E-02
78353,4.79E-03,2.39E-02
78354,4.80E-03,2.38E-02
78355,4.80E-03,2.36E-02
78356,4.79E-03,2.44E-02
78357,4.79E-03,2.43E-02
78358,4.79E-03,2.41E-02
78359,4.80E-03,2.39E-02
78360,4.80E-03,2.36E-02
78361,4.81E-03,2.33E-02
78362,4.81E-03,2.30E-02
78363,4.79E-03,2.44E-02
78364,4.79E-03,2.42E-02
78365,4.80E-03,2.40E-02
78366,4.80E-03,2.37E-02
78367,4.81E-03,2.33E-02
78368,4.81E-03,2.29E-02
78369,4.82E-03,2.25E-02
78370,4.78E-03,2.44E-02
78371,4.79E-03,2.42E-02
78372,4.79E-03,2.39E-02
78373,4.80E-03,2.35E-02
78374,4.80E-03,2.31E-02
78375,4.81E-03,2.25E-02
78376,4.82E-03,2.20E-02
78377,4.77E-03,2.45E-02
78378,4.78E-03,2.43E-02
78379,4.79E-03,2.39E-02
78380,4.79E-03,2.34E-02
78381,4.80E-03,2.28E-02
78382,4.80E-03,2.22E-02
78383,4.81E-03,2.15E-02
78384,4.76E-03,2.46E-02
78385,4.76E-03,2.44E-02
78386,4.77E-03,2.40E-02
78387,4.78E-03,2.34E-02
78388,4.79E-03,2.27E-02
78389,4.79E-03,2.18E-02
78390,4.80E-03,2.08E-02
78391,4.73E-03,2.47E-02
78392,4.74E-03,2.45E-02
78393,4.75E-03,2.41E-02
78394,4.75E-03,2.35E-02
78395,4.76E-03,2.26E-02
78396,4.77E-03,2.15E-02
78397,4.78E-03,2.02E-02
78398,4.69E-03,2.48E-02
78399,4.70E-03,2.46E-02
78400,4.71E-03,2.43E-02
78401,4.72E-03,2.37E-02
78402,4.73E-03,2.28E-02
78403,4.74E-03,2.13E-02
78404,4.75E-03,1.95E-02
78405,4.60E-03,2.49E-02
78406,4.61E-03,2.47E-02
78407,4.62E-03,2.45E-02
78408,4.63E-03,2.40E-02
78409,4.65E-03,2.31E-02
78410,4.66E-03,2.16E-02
78411,4.67E-03,1.93E-02
78412,4.41E-03,2.49E-02
78413,4.41E-03,2.48E-02
78414,4.41E-03,2.46E-02
78415,4.41E-03,2.43E-02
78416,4.41E-03,2.37E-02
78417,4.41E-03,2.27E-02
78418,4.41E-03,2.13E-02
78419,4.19E-03,2.50E-02
78420,4.20E-03,2.49E-02
78421,4.20E-03,2.48E-02
78422,4.21E-03,2.46E-02
78423,4.22E-03,2.43E-02
78424,4.23E-03,2.42E-02
78425,4.23E-03,2.45E-02
78426,4.01E-03,2.50E-02
78427,4.02E-03,2.50E-02
78428,4.03E-03,2.50E-02
78429,4.05E-03,2.50E-02
78430,4.06E-03,2.51E-02
78431,4.07E-03,2.55E-02
78432,4.08E-03,2.63E-02
78433,3.87E-03,2.51E-02
78434,3.88E-03,2.52E-02
78435,3.89E-03,2.53E-02
78436,3.90E-03,2.55E-02
78437,3.91E-03,2.59E-02
78438,3.92E-03,2.65E-02
78439,3.94E-03,2.73E-02
78440,3.74E-03,2.53E-02
78441,3.75E-03,2.55E-02
78442,3.76E-03,2.58E-02
78443,3.78E-03,2.61E-02
78444,3.79E-03,2.66E-02
78445,3.80E-03,2.73E-02
78446,3.81E-03,2.80E-02
78447,3.63E-03,2.55E-02
78448,3.64E-03,2.58E-02
78449,3.65E-03,2.62E-02
78450,3.66E-03,2.66E-02
78451,3.67E-03,2.72E-02
78452,3.68E-03,2.78E-02
78453,3.69E-03,2.85E-02
78454,3.52E-03,2.58E-02
78455,3.53E-03,2.61E-02
78456,3.54E-03,2.66E-02
78457,3.55E-03,2.71E-02
78458,3.56E-03,2.77E-02
78459,3.57E-03,2.84E-02
78460,3.58E-03,2.91E-02
78461,3.42E-03,2.60E-02
78462,3.43E-03,2.64E-02
78463,3.45E-03,2.69E-02
78464,3.46E-03,2.75E-02
78465,3.47E-03,2.81E-02
78466,3.48E-03,2.88E-02
78467,3.49E-03,2.96E-02
78468,3.34E-03,2.63E-02
78469,3.35E-03,2.67E-02
78470,3.36E-03,2.72E-02
78471,3.37E-03,2.78E-02
78472,3.38E-03,2.84E-02
78473,3.39E-03,2.91E-02
78474,3.40E-03,2.99E-02
78475,3.27E-03,2.65E-02
78476,3.28E-03,2.69E-02
78477,3.29E-03,2.74E-02
78478,3.29E-03,2.80E-02
78479,3.30E-03,2.86E-02
78480,3.31E-03,2.93E-02
78481,3.32E-03,3.01E-02
78482,3.21E-03,2.67E-02
78483,3.22E-03,2.71E-02
78484,3.22E-03,2.76E-02
78485,3.23E-03,2.82E-02
78486,3.24E-03,2.88E-02
78487,3.25E-03,2.95E-02
78488,3.26E-03,3.02E-02
78489,3.16E-03,2.68E-02
78490,3.16E-03,2.73E-02
78491,3.17E-03,2.78E-02
78492,3.18E-03,2.83E-02
78493,3.19E-03,2.89E-02
78494,3.19E-03,2.95E-02
78495,3.20E-03,3.02E-02
78496,3.11E-03,2.69E-02
78497,3.12E-03,2.74E-02
78498,3.13E-03,2.78E-02
78499,3.14E-03,2.83E-02
78500,3.14E-03,2.89E-02
78501,3.15E-03,2.95E-02
78502,3.16E-03,3.01E-02
78503,3.08E-03,2.70E-02
78504,3.09E-03,2.74E-02
78505,3.09E-03,2.79E-02
78506,3.10E-03,2.83E-02
78507,3.11E-03,2.88E-02
78508,3.11E-03,2.94E-02
78509,3.12E-03,2.99E-02
78510,3.06E-03,2.70E-02
78511,3.06E-03,2.74E-02
78512,3.07E-03,2.78E-02
78513,3.07E-03,2.83E-02
78514,3.08E-03,2.87E-02
78515,3.08E-03,2.92E-02
78516,3.09E-03,2.98E-02
78517,3.04E-03,2.70E-02
78518,3.05E-03,2.74E-02
78519,3.05E-03,2.78E-02
78520,3.05E-03,2.82E-02
78521,3.06E-03,2.86E-02
78522,3.06E-03,2.91E-02
78523,3.07E-03,2.95E-02
78524,3.03E-03,2.70E-02
78525,3.03E-03,2.73E-02
78526,3.04E-03,2.77E-02
78527,3.04E-03,2.80E-02
78528,3.05E-03,2.84E-02
78529,3.05E-03,2.88E-02
78530,3.05E-03,2.93E-02
78531,3.02E-03,2.69E-02
78532,3.03E-03,2.72E-02
78533,3.03E-03,2.75E-02
78534,3.03E-03,2.79E-02
78535,3.04E-03,2.82E-02
78536,3.04E-03,2.86E-02
78537,3.04E-03,2.90E-02
78538,3.03E-03,2.68E-02
78539,3.03E-03,2.71E-02
78540,3.03E-03,2.74E-02
78541,3.03E-03,2.77E-02
78542,3.04E-03,2.80E-02
78543,3.04E-03,2.84E-02
78544,3.04E-03,2.87E-02
78545,3.03E-03,2.67E-02
78546,3.03E-03,2.69E-02
78547,3.03E-03,2.72E-02
78548,3.04E-03,2.75E-02
78549,3.04E-03,2.78E-02
78550,3.04E-03,2.81E-02
78551,3.04E-03,2.84E-02
78552,3.04E-03,2.65E-02
78553,3.04E-03,2.68E-02
78554,3.04E-03,2.70E-02
78555,3.04E-03,2.73E-02
78556,3.04E-03,2.76E-02
78557,3.05E-03,2.78E-02
78558,3.05E-03,2.81E-02
78559,3.05E-03,2.63E-02
78560,3.05E-03,2.66E-02
78561,3.05E-03,2.68E-02
78562,3.05E-03,2.71E-02
78563,3.06E-03,2.73E-02
78564,3.06E-03,2.76E-02
78565,3.06E-03,2.78E-02
78566,3.06E-03,2.61E-02
78567,3.07E-03,2.64E-02
78568,3.07E-03,2.66E-02
78569,3.07E-03,2.68E-02
78570,3.07E-03,2.71E-02
78571,3.07E-03,2.73E-02
78572,3.07E-03,2.76E-02
78573,3.08E-03,2.59E-02
78574,3.08E-03,2.61E-02
78575,3.08E-03,2.64E-02
78576,3.08E-03,2.66E-02
78577,3.09E-03,2.68E-02
78578,3.09E-03,2.71E-02
78579,3.09E-03,2.73E-02
78580,3.10E-03,2.57E-02
78581,3.10E-03,2.59E-02
78582,3.10E-03,2.61E-02
78583,3.10E-03,2.63E-02
78584,3.10E-03,2.66E-02
78585,3.10E-03,2.68E-02
78586,3.10E-03,2.71E-02
78587,3.13E-03,2.54E-02
78588,3.13E-03,2.56E-02
78589,3.13E-03,2.58E-02
78590,3.13E-03,2.61E-02
78591,3.13E-03,2.63E-02
78592,3.13E-03,2.66E-02
78593,3.13E-03,2.68E-02
78594,3.16E-03,2.52E-02
78595,3.16E-03,2.53E-02
78596,3.15E-03,2.55E-02
78597,3.15E-03,2.57E-02
78598,3.15E-03,2.60E-02
78599,3.15E-03,2.63E-02
78600,3.15E-03,2.66E-02
78601,3.19E-03,2.48E-02
78602,3.19E-03,2.50E-02
78603,3.19E-03,2.52E-02
78604,3.18E-03,2.54E-02
78605,3.18E-03,2.57E-02
78606,3.18E-03,2.60E-02
78607,3.18E-03,2.63E-02
78608,3.23E-03,2.45E-02
78609,3.22E-03,2.46E-02
78610,3.22E-03,2.48E-02
78611,3.22E-03,2.50E-02
78612,3.22E-03,2.53E-02
78613,3.21E-03,2.56E-02
78614,3.21E-03,2.60E-02
78615,3.27E-03,2.42E-02
78616,3.27E-03,2.42E-02
78617,3.26E-03,2.43E-02
78618,3.26E-03,2.45E-02
78619,3.26E-03,2.48E-02
78620,3.25E-03,2.52E-02
78621,3.25E-03,2.57E-02
78622,3.33E-03,2.38E-02
78623,3.33E-03,2.38E-02
78624,3.32E-03,2.38E-02
78625,3.31E-03,2.39E-02
78626,3.30E-03,2.41E-02
78627,3.30E-03,2.46E-02
78628,3.29E-03,2.52E-02
78629,3.42E-03,2.36E-02
78630,3.40E-03,2.34E-02
78631,3.39E-03,2.32E-02
78632,3.37E-03,2.32E-02
78633,3.36E-03,2.33E-02
78634,3.35E-03,2.36E-02
78635,3.33E-03,2.42E-02
78636,3.53E-03,2.34E-02
78637,3.51E-03,2.31E-02
78638,3.49E-03,2.28E-02
78639,3.46E-03,2.24E-02
78640,3.44E-03,2.22E-02
78641,3.41E-03,2.22E-02
78642,3.39E-03,2.23E-02
78643,3.69E-03,2.33E-02
78644,3.66E-03,2.29E-02
78645,3.63E-03,2.23E-02
78646,3.60E-03,2.17E-02
78647,3.56E-03,2.10E-02
78648,3.53E-03,2.03E-02
78649,3.50E-03,1.97E-02
78650,3.88E-03,2.33E-02
78651,3.84E-03,2.28E-02
78652,3.80E-03,2.20E-02
78653,3.77E-03,2.10E-02
78654,3.73E-03,1.97E-02
78655,3.69E-03,1.82E-02
78656,3.65E-03,1.67E-02
78657,4.08E-03,2.34E-02
78658,4.04E-03,2.27E-02
78659,3.99E-03,2.17E-02
78660,3.95E-03,2.03E-02
78661,3.91E-03,1.84E-02
78662,3.87E-03,1.61E-02
78663,3.83E-03,1.35E-02
78664,4.27E-03,2.34E-02
78665,4.24E-03,2.27E-02
78666,4.21E-03,2.15E-02
78667,4.18E-03,1.98E-02
78668,4.15E-03,1.73E-02
78669,4.12E-03,1.42E-02
78670,4.09E-03,1.06E-02
78671,4.34E-03,2.35E-02
78672,4.35E-03,2.27E-02
78673,4.35E-03,2.14E-02
78674,4.36E-03,1.96E-02
78675,4.36E-03,1.69E-02
78676,4.37E-03,1.33E-02
78677,4.37E-03,9.15E-03
78678,4.16E-03,2.35E-02
78679,4.15E-03,2.28E-02
78680,4.13E-03,2.16E-02
78681,4.12E-03,1.99E-02
78682,4.11E-03,1.75E-02
78683,4.10E-03,1.42E-02
78684,4.08E-03,1.04E-02
78685,3.80E-03,2.35E-02
78686,3.78E-03,2.29E-02
78687,3.75E-03,2.20E-02
78688,3.73E-03,2.07E-02
78689,3.70E-03,1.90E-02
78690,3.67E-03,1.68E-02
78691,3.65E-03,1.42E-02
78692,3.43E-03,2.35E-02
78693,3.41E-03,2.30E-02
78694,3.38E-03,2.24E-02
78695,3.36E-03,2.17E-02
78696,3.34E-03,2.08E-02
78697,3.32E-03,2.01E-02
78698,3.29E-03,1.96E-02
78699,3.13E-03,2.35E-02
78700,3.13E-03,2.32E-02
78701,3.13E-03,2.29E-02
78702,3.13E-03,2.27E-02
78703,3.12E-03,2.26E-02
78704,3.12E-03,2.31E-02
78705,3.12E-03,2.42E-02
78706,2.93E-03,2.38E-02
78707,2.93E-03,2.37E-02
78708,2.94E-03,2.37E-02
78709,2.94E-03,2.38E-02
78710,2.95E-03,2.43E-02
78711,2.95E-03,2.51E-02
78712,2.96E-03,2.62E-02
78713,2.78E-03,2.42E-02
78714,2.78E-03,2.44E-02
78715,2.79E-03,2.46E-02
78716,2.79E-03,2.50E-02
78717,2.80E-03,2.55E-02
78718,2.80E-03,2.62E-02
78719,2.81E-03,2.71E-02
78720,2.64E-03,2.48E-02
78721,2.65E-03,2.51E-02
78722,2.66E-03,2.55E-02
78723,2.66E-03,2.59E-02
78724,2.67E-03,2.65E-02
78725,2.67E-03,2.70E-02
78726,2.68E-03,2.77E-02
78727,2.52E-03,2.55E-02
78728,2.53E-03,2.59E-02
78729,2.54E-03,2.63E-02
78730,2.54E-03,2.67E-02
78731,2.55E-03,2.72E-02
78732,2.55E-03,2.77E-02
78733,2.56E-03,2.82E-02
78734,2.41E-03,2.61E-02
78735,2.42E-03,2.65E-02
78736,2.43E-03,2.69E-02
78737,2.43E-03,2.74E-02
78738,2.44E-03,2.79E-02
78739,2.44E-03,2.84E-02
78740,2.45E-03,2.89E-02
78741,2.31E-03,2.66E-02
78742,2.32E-03,2.71E-02
78743,2.32E-03,2.76E-02
78744,2.33E-03,2.81E-02
78745,2.33E-03,2.86E-02
78746,2.34E-03,2.91E-02
78747,2.35E-03,2.96E-02
78748,2.22E-03,2.71E-02
78749,2.22E-03,2.76E-02
78750,2.23E-03,2.81E-02
78751,2.23E-03,2.87E-02
78752,2.24E-03,2.92E-02
78753,2.25E-03,2.98E-02
78754,2.25E-03,3.04E-02
78755,2.13E-03,2.75E-02
78756,2.14E-03,2.80E-02
78757,2.14E-03,2.86E-02
78758,2.15E-03,2.93E-02
78759,2.16E-03,2.99E-02
78760,2.16E-03,3.06E-02
78761,2.17E-03,3.13E-02
78762,2.06E-03,2.77E-02
78763,2.07E-03,2.83E-02
78764,2.07E-03,2.90E-02
78765,2.08E-03,2.98E-02
78766,2.08E-03,3.06E-02
78767,2.09E-03,3.14E-02
78768,2.09E-03,3.23E-02
78769,2.01E-03,2.78E-02
78770,2.01E-03,2.85E-02
78771,2.02E-03,2.93E-02
78772,2.02E-03,3.02E-02
78773,2.03E-03,3.11E-02
78774,2.03E-03,3.22E-02
78775,2.04E-03,3.33E-02
78776,1.98E-03,2.77E-02
78777,1.98E-03,2.84E-02
78778,1.99E-03,2.92E-02
78779,1.99E-03,3.03E-02
78780,1.99E-03,3.15E-02
78781,1.99E-03,3.28E-02
78782,2.00E-03,3.42E-02
78783,1.99E-03,2.73E-02
78784,1.99E-03,2.80E-02
78785,1.99E-03,2.89E-02
78786,1.99E-03,3.00E-02
78787,1.99E-03,3.13E-02
78788,1.99E-03,3.30E-02
78789,1.99E-03,3.48E-02
78790,2.05E-03,2.68E-02
78791,2.04E-03,2.74E-02
78792,2.04E-03,2.81E-02
78793,2.03E-03,2.91E-02
78794,2.02E-03,3.04E-02
78795,2.01E-03,3.20E-02
78796,2.00E-03,3.40E-02
78797,2.19E-03,2.61E-02
78798,2.17E-03,2.66E-02
78799,2.16E-03,2.71E-02
78800,2.14E-03,2.78E-02
78801,2.12E-03,2.87E-02
78802,2.10E-03,2.97E-02
78803,2.09E-03,3.08E-02
78804,2.39E-03,2.55E-02
78805,2.36E-03,2.56E-02
78806,2.34E-03,2.58E-02
78807,2.32E-03,2.59E-02
78808,2.29E-03,2.62E-02
78809,2.27E-03,2.65E-02
78810,2.25E-03,2.70E-02
78811,2.63E-03,2.49E-02
78812,2.59E-03,2.47E-02
78813,2.56E-03,2.44E-02
78814,2.52E-03,2.39E-02
78815,2.48E-03,2.34E-02
78816,2.45E-03,2.30E-02
78817,2.41E-03,2.27E-02
78818,2.94E-03,2.45E-02
78819,2.88E-03,2.40E-02
78820,2.82E-03,2.32E-02
78821,2.76E-03,2.21E-02
78822,2.70E-03,2.06E-02
78823,2.64E-03,1.89E-02
78824,2.58E-03,1.71E-02
78825,3.33E-03,2.41E-02
78826,3.23E-03,2.33E-02
78827,3.13E-03,2.21E-02
78828,3.03E-03,2.03E-02
78829,2.93E-03,1.78E-02
78830,2.82E-03,1.44E-02
78831,2.72E-03,1.04E-02
78832,3.63E-03,2.38E-02
78833,3.61E-03,2.29E-02
78834,3.59E-03,2.14E-02
78835,3.57E-03,1.92E-02
78836,3.55E-03,1.61E-02
78837,3.53E-03,1.21E-02
78838,3.51E-03,7.47E-03
78839,3.50E-03,2.35E-02
78840,3.46E-03,2.27E-02
78841,3.42E-03,2.13E-02
78842,3.39E-03,1.94E-02
78843,3.35E-03,1.67E-02
78844,3.32E-03,1.35E-02
78845,3.28E-03,9.78E-03
78846,3.23E-03,2.33E-02
78847,3.20E-03,2.26E-02
78848,3.18E-03,2.15E-02
78849,3.16E-03,2.01E-02
78850,3.13E-03,1.84E-02
78851,3.11E-03,1.64E-02
78852,3.09E-03,1.45E-02
78853,3.01E-03,2.32E-02
78854,3.00E-03,2.27E-02
78855,2.98E-03,2.19E-02
78856,2.97E-03,2.10E-02
78857,2.95E-03,2.00E-02
78858,2.94E-03,1.91E-02
78859,2.93E-03,1.82E-02
78860,2.83E-03,2.32E-02
78861,2.82E-03,2.29E-02
78862,2.81E-03,2.25E-02
78863,2.80E-03,2.21E-02
78864,2.79E-03,2.17E-02
78865,2.78E-03,2.13E-02
78866,2.77E-03,2.11E-02
78867,2.67E-03,2.34E-02
78868,2.66E-03,2.33E-02
78869,2.66E-03,2.32E-02
78870,2.65E-03,2.32E-02
78871,2.64E-03,2.32E-02
78872,2.64E-03,2.33E-02
78873,2.63E-03,2.35E-02
78874,2.54E-03,2.36E-02
78875,2.53E-03,2.37E-02
78876,2.53E-03,2.39E-02
78877,2.52E-03,2.42E-02
78878,2.52E-03,2.46E-02
78879,2.51E-03,2.50E-02
78880,2.51E-03,2.56E-02
78881,2.42E-03,2.38E-02
78882,2.42E-03,2.41E-02
78883,2.42E-03,2.46E-02
78884,2.42E-03,2.51E-02
78885,2.41E-03,2.58E-02
78886,2.41E-03,2.66E-02
78887,2.41E-03,2.75E-02
78888,2.34E-03,2.40E-02
78889,2.34E-03,2.44E-02
78890,2.34E-03,2.50E-02
78891,2.34E-03,2.57E-02
78892,2.34E-03,2.66E-02
78893,2.34E-03,2.77E-02
78894,2.34E-03,2.89E-02
78895,2.30E-03,2.41E-02
78896,2.30E-03,2.45E-02
78897,2.31E-03,2.51E-02
78898,2.31E-03,2.59E-02
78899,2.31E-03,2.69E-02
78900,2.31E-03,2.82E-02
78901,2.31E-03,2.96E-02
78902,2.31E-03,2.42E-02
78903,2.31E-03,2.46E-02
78904,2.31E-03,2.51E-02
78905,2.32E-03,2.58E-02
78906,2.32E-03,2.67E-02
78907,2.32E-03,2.78E-02
78908,2.32E-03,2.92E-02
78909,2.37E-03,2.42E-02
78910,2.37E-03,2.45E-02
78911,2.37E-03,2.49E-02
78912,2.37E-03,2.53E-02
78913,2.37E-03,2.59E-02
78914,2.38E-03,2.66E-02
78915,2.38E-03,2.74E-02
78916,2.45E-03,2.41E-02
78917,2.45E-03,2.44E-02
78918,2.46E-03,2.46E-02
78919,2.46E-03,2.48E-02
78920,2.46E-03,2.50E-02
78921,2.46E-03,2.50E-02
78922,2.46E-03,2.49E-02
78923,2.52E-03,2.40E-02
78924,2.53E-03,2.41E-02
78925,2.53E-03,2.42E-02
78926,2.53E-03,2.42E-02
78927,2.54E-03,2.41E-02
78928,2.54E-03,2.39E-02
78929,2.54E-03,2.35E-02
78930,2.57E-03,2.38E-02
78931,2.57E-03,2.38E-02
78932,2.58E-03,2.38E-02
78933,2.58E-03,2.38E-02
78934,2.58E-03,2.36E-02
78935,2.58E-03,2.34E-02
78936,2.59E-03,2.31E-02
78937,2.60E-03,2.36E-02
78938,2.60E-03,2.36E-02
78939,2.61E-03,2.35E-02
78940,2.61E-03,2.34E-02
78941,2.61E-03,2.33E-02
78942,2.62E-03,2.31E-02
78943,2.62E-03,2.29E-02
78944,2.63E-03,2.33E-02
78945,2.63E-03,2.33E-02
78946,2.63E-03,2.33E-02
78947,2.63E-03,2.32E-02
78948,2.64E-03,2.31E-02
78949,2.64E-03,2.29E-02
78950,2.64E-03,2.28E-02
78951,2.64E-03,2.32E-02
78952,2.65E-03,2.31E-02
78953,2.65E-03,2.31E-02
78954,2.65E-03,2.30E-02
78955,2.66E-03,2.29E-02
78956,2.66E-03,2.28E-02
78957,2.66E-03,2.27E-02
78958,2.66E-03,2.30E-02
78959,2.66E-03,2.30E-02
78960,2.66E-03,2.30E-02
78961,2.67E-03,2.29E-02
78962,2.67E-03,2.28E-02
78963,2.67E-03,2.28E-02
78964,2.68E-03,2.27E-02
78965,2.67E-03,2.29E-02
78966,2.67E-03,2.29E-02
78967,2.67E-03,2.29E-02
78968,2.68E-03,2.28E-02
78969,2.68E-03,2.28E-02
78970,2.68E-03,2.27E-02
78971,2.69E-03,2.26E-02
78972,2.68E-03,2.28E-02
78973,2.68E-03,2.27E-02
78974,2.69E-03,2.27E-02
78975,2.69E-03,2.27E-02
78976,2.69E-03,2.27E-02
78977,2.69E-03,2.26E-02
78978,2.68E-03,2.27E-02
78979,2.69E-03,2.27E-02
78980,2.69E-03,2.27E-02
78981,2.69E-03,2.27E-02
78982,2.70E-03,2.27E-02
78983,2.70E-03,2.26E-02
78984,2.70E-03,2.26E-02
78985,2.69E-03,2.26E-02
78986,2.70E-03,2.26E-02
78987,2.70E-03,2.26E-02
78988,2.70E-03,2.26E-02
78989,2.70E-03,2.26E-02
78990,2.71E-03,2.26E-02
78991,2.69E-03,2.26E-02
78992,2.70E-03,2.26E-02
78993,2.70E-03,2.26E-02
78994,2.70E-03,2.26E-02
78995,2.70E-03,2.26E-02
78996,2.71E-03,2.26E-02
78997,2.71E-03,2.26E-02
78998,2.69E-03,2.25E-02
78999,2.70E-03,2.25E-02
79000,2.70E-03,2.25E-02
79001,2.70E-03,2.26E-02
79002,2.71E-03,2.26E-02
79003,2.71E-03,2.26E-02
79004,2.71E-03,2.26E-02
79005,2.70E-03,2.25E-02
79006,2.70E-03,2.25E-02
79007,2.70E-03,2.25E-02
79008,2.70E-03,2.25E-02
79009,2.71E-03,2.25E-02
79010,2.71E-03,2.26E-02
79011,2.71E-03,2.26E-02
79012,2.70E-03,2.24E-02
79013,2.70E-03,2.24E-02
79014,2.70E-03,2.25E-02
79015,2.70E-03,2.25E-02
79016,2.71E-03,2.25E-02
79017,2.71E-03,2.26E-02
79018,2.71E-03,2.26E-02
79019,2.70E-03,2.24E-02
79020,2.70E-03,2.24E-02
79021,2.70E-03,2.24E-02
79022,2.70E-03,2.25E-02
79023,2.71E-03,2.25E-02
79024,2.71E-03,2.25E-02
79025,2.71E-03,2.26E-02
79026,2.69E-03,2.23E-02
79027,2.70E-03,2.24E-02
79028,2.70E-03,2.24E-02
79029,2.70E-03,2.24E-02
79030,2.71E-03,2.25E-02
79031,2.71E-03,2.25E-02
79032,2.71E-03,2.26E-02
79033,2.69E-03,2.23E-02
79034,2.70E-03,2.23E-02
79035,2.70E-03,2.24E-02
79036,2.70E-03,2.24E-02
79037,2.70E-03,2.25E-02
79038,2.71E-03,2.25E-02
79039,2.71E-03,2.25E-02
79040,2.69E-03,2.23E-02
79041,2.69E-03,2.23E-02
79042,2.70E-03,2.24E-02
79043,2.70E-03,2.24E-02
79044,2.70E-03,2.25E-02
79045,2.71E-03,2.25E-02
79046,2.71E-03,2.25E-02
79047,2.69E-03,2.22E-02
79048,2.69E-03,2.23E-02
79049,2.69E-03,2.23E-02
79050,2.70E-03,2.24E-02
79051,2.70E-03,2.24E-02
79052,2.70E-03,2.25E-02
79053,2.71E-03,2.25E-02
79054,2.69E-03,2.22E-02
79055,2.69E-03,2.23E-02
79056,2.69E-03,2.23E-02
79057,2.69E-03,2.24E-02
79058,2.70E-03,2.24E-02
79059,2.70E-03,2.25E-02
79060,2.70E-03,2.25E-02
75294,3.83E-03,1.47E-02
75295,7.66E-03,2.20E-02
75296,1.34E-03,2.26E-02
75297,3.83E-03,2.01E-02
75298,6.70E-04,2.28E-02
75299,3.83E-03,1.41E-02
75300,1.34E-03,2.28E-02
75301,6.70E-04,2.28E-02
75302,7.67E-03,1.59E-02
75303,3.83E-03,2.08E-02
75304,6.73E-04,2.26E-02
75305,6.73E-04,2.26E-02
79077,4.64E-03,2.19E-02
79078,5.74E-03,1.18E-02
79079,6.04E-03,1.14E-02
79080,5.48E-03,1.30E-02
79081,4.52E-03,1.27E-02
79082,4.78E-03,1.39E-02
79083,4.67E-03,1.35E-02
79084,4.59E-03,3.94E-02
79085,5.63E-03,3.82E-02
79086,3.78E-03,4.09E-02
79087,2.40E-03,4.10E-02
79088,2.61E-03,4.03E-02
79089,6.25E-03,3.14E-02
79090,6.24E-03,2.72E-02
79091,5.17E-03,1.99E-02
79092,6.07E-03,2.08E-02
79093,5.35E-03,2.14E-02
79094,6.34E-03,2.48E-02
79095,6.70E-03,1.49E-02
79096,6.65E-03,1.54E-02
79097,7.24E-03,5.83E-03
79098,6.90E-03,6.42E-03
79099,3.69E-03,2.40E-02
79100,3.87E-03,1.94E-02
79101,4.35E-03,2.30E-02
79102,4.91E-03,3.01E-02
79103,5.13E-03,2.96E-02
79104,5.05E-03,2.96E-02
79105,5.19E-03,2.96E-02
79106,5.15E-03,2.95E-02
79107,5.02E-03,2.92E-02
79108,4.81E-03,2.87E-02
79109,4.93E-03,3.22E-02
79110,5.14E-03,3.24E-02
79111,4.74E-03,3.20E-02
79112,4.05E-03,2.82E-02
79113,5.24E-03,2.70E-02
79114,5.19E-03,2.66E-02
79115,4.86E-03,2.91E-02
79116,4.74E-03,2.91E-02
79117,5.59E-03,2.75E-02
79118,5.84E-03,2.77E-02
79119,5.55E-03,2.76E-02
79120,6.50E-03,2.82E-02
79121,5.94E-03,2.79E-02
79122,5.43E-03,2.76E-02
79123,6.31E-03,2.81E-02
79124,5.29E-03,2.73E-02
79125,5.52E-03,3.23E-02
79126,4.48E-03,3.20E-02
79127,5.50E-03,3.22E-02
79128,5.29E-03,3.25E-02
79129,6.40E-03,3.03E-02
79130,4.89E-03,3.11E-02
79131,5.52E-03,2.96E-02
79132,5.82E-03,2.98E-02
79133,5.11E-03,2.95E-02
79134,4.48E-03,3.11E-02
79135,5.31E-03,2.73E-02
79136,5.11E-03,2.89E-02
79137,5.06E-03,2.62E-02
79138,4.88E-03,2.57E-02
79139,4.87E-03,2.55E-02
79140,4.36E-03,2.91E-02
79141,4.56E-03,2.53E-02
79142,4.89E-03,2.71E-02
79143,4.60E-03,2.87E-02
79144,5.73E-03,2.94E-02
79145,5.05E-03,2.48E-02
79146,4.52E-03,2.69E-02
79147,4.94E-03,2.81E-02
79148,5.39E-03,2.91E-02
79149,5.31E-03,2.47E-02
79150,4.85E-03,2.70E-02
79151,6.40E-03,2.71E-02
79152,5.25E-03,2.86E-02
79153,5.17E-03,2.41E-02
79154,5.95E-03,2.69E-02
79155,5.78E-03,2.67E-02
79156,5.55E-03,2.65E-02
79157,5.37E-03,2.63E-02
79158,5.13E-03,2.61E-02
79159,4.78E-03,2.60E-02
79160,5.03E-03,2.34E-02
79161,5.09E-03,2.80E-02
79162,4.74E-03,2.25E-02
79163,4.84E-03,2.74E-02
79164,3.88E-03,2.20E-02
79165,4.06E-03,2.61E-02
79166,3.38E-03,2.34E-02
79167,5.09E-03,2.31E-02
79168,4.25E-03,2.26E-02
79169,6.06E-03,2.86E-02
79170,5.80E-03,2.82E-02
79171,6.54E-03,2.44E-02
79172,4.94E-03,2.55E-02
79173,5.59E-03,2.58E-02
79174,5.60E-03,2.49E-02
79175,5.35E-03,2.47E-02
79176,5.91E-03,2.53E-02
79177,6.12E-03,2.51E-02
79178,5.14E-03,2.49E-02
79179,4.79E-03,2.49E-02
79180,5.52E-03,2.51E-02
79181,5.33E-03,2.50E-02
79182,5.78E-03,2.52E-02
79183,5.64E-03,2.51E-02
79184,5.15E-03,2.52E-02
79185,5.49E-03,2.51E-02
79186,5.15E-03,2.55E-02
79187,5.22E-03,2.53E-02
79188,6.01E-03,2.61E-02
79189,5.43E-03,2.58E-02
79190,5.85E-03,2.61E-02
79191,6.27E-03,2.61E-02
79192,5.91E-03,2.61E-02
79193,5.90E-03,2.62E-02
79194,5.65E-03,2.57E-02
79195,5.79E-03,2.60E-02
79196,5.34E-03,2.45E-02
79197,5.40E-03,2.51E-02
79198,5.14E-03,2.33E-02
79199,5.25E-03,2.39E-02
79200,4.95E-03,2.22E-02
79201,5.03E-03,2.27E-02
79202,5.06E-03,2.10E-02
79203,5.01E-03,2.16E-02
79204,5.14E-03,1.97E-02
79205,5.16E-03,2.03E-02
79206,4.85E-03,1.79E-02
79207,5.07E-03,1.88E-02
79208,4.29E-03,1.72E-02
79209,5.10E-03,1.79E-02
79210,4.32E-03,1.55E-02
79211,4.53E-03,1.59E-02
79212,4.33E-03,1.72E-02
79213,5.22E-03,2.56E-02
79214,5.43E-03,2.97E-02
79215,4.64E-03,2.88E-02
79216,5.12E-03,3.19E-02
79217,5.62E-03,3.07E-02
79218,5.31E-03,3.30E-02
79219,5.22E-03,3.26E-02
79220,6.01E-03,3.36E-02
79221,5.47E-03,3.33E-02
79222,5.09E-03,3.48E-02
79223,5.88E-03,3.41E-02
79224,5.12E-03,3.52E-02
79225,5.10E-03,3.51E-02
79226,6.14E-03,3.55E-02
79227,5.41E-03,3.39E-02
79228,5.91E-03,3.52E-02
79229,5.36E-03,3.53E-02
79230,5.58E-03,3.24E-02
79231,5.43E-03,3.29E-02
79232,5.46E-03,3.15E-02
79233,5.70E-03,3.18E-02
79234,5.32E-03,3.07E-02
79235,5.32E-03,3.11E-02
79236,5.14E-03,3.04E-02
79237,5.30E-03,3.06E-02
79238,6.34E-03,2.94E-02
79239,5.42E-03,3.00E-02
79240,6.70E-03,2.89E-02
79241,5.29E-03,2.73E-02
79242,5.64E-03,2.79E-02
79243,5.44E-03,2.76E-02
79244,5.51E-03,2.63E-02
79245,4.94E-03,2.70E-02
79246,6.11E-03,2.60E-02
79247,6.16E-03,2.40E-02
79248,6.01E-03,2.37E-02
79249,5.91E-03,2.32E-02
79250,5.79E-03,2.27E-02
79251,5.77E-03,2.22E-02
79252,5.66E-03,2.17E-02
79253,5.58E-03,2.11E-02
79254,5.56E-03,2.05E-02
79255,5.43E-03,1.99E-02
79256,5.36E-03,1.94E-02
79257,5.30E-03,1.88E-02
79258,5.11E-03,1.78E-02
79259,5.20E-03,1.83E-02
79260,4.99E-03,1.73E-02
79261,4.79E-03,1.69E-02
79262,3.55E-03,1.63E-02
79263,3.84E-03,1.57E-02
79264,5.91E-03,1.50E-02
79265,5.48E-03,1.17E-02
79266,5.02E-03,1.22E-02
79267,4.83E-03,1.55E-02
79268,4.37E-03,1.52E-02
79269,5.15E-03,1.66E-02
79270,5.05E-03,1.61E-02
79271,5.33E-03,1.77E-02
79272,5.25E-03,1.71E-02
79273,5.45E-03,1.88E-02
79274,5.36E-03,1.82E-02
79275,5.58E-03,2.00E-02
79276,5.57E-03,1.94E-02
79277,5.74E-03,2.13E-02
79278,5.70E-03,2.07E-02
79279,5.83E-03,2.25E-02
79280,5.76E-03,2.19E-02
79281,6.00E-03,2.34E-02
79282,5.96E-03,2.30E-02
79283,5.92E-03,2.41E-02
79284,6.06E-03,2.38E-02
79285,5.64E-03,2.43E-02
79286,5.79E-03,2.43E-02
79287,5.55E-03,2.43E-02
79288,5.68E-03,2.43E-02
79289,5.30E-03,2.39E-02
79290,5.40E-03,2.41E-02
79291,5.45E-03,2.36E-02
79292,5.36E-03,2.37E-02
79293,5.58E-03,2.33E-02
79294,5.58E-03,2.35E-02
79295,5.27E-03,2.32E-02
79296,5.45E-03,2.32E-02
79297,5.40E-03,2.37E-02
79298,5.29E-03,2.34E-02
79299,5.77E-03,2.45E-02
79300,5.51E-03,2.41E-02
79301,5.83E-03,2.48E-02
79302,5.93E-03,2.46E-02
79303,5.72E-03,2.46E-02
79304,5.78E-03,2.48E-02
79305,5.62E-03,2.36E-02
79306,5.65E-03,2.42E-02
79307,5.39E-03,2.20E-02
79308,5.49E-03,2.29E-02
79309,5.21E-03,2.04E-02
79310,5.30E-03,2.12E-02
79311,5.13E-03,1.88E-02
79312,5.13E-03,1.96E-02
79313,5.13E-03,1.73E-02
79314,5.10E-03,1.80E-02
79315,5.14E-03,1.54E-02
79316,5.15E-03,1.64E-02
79317,5.10E-03,1.36E-02
79318,5.10E-03,1.44E-02
79319,4.88E-03,1.16E-02
79320,5.09E-03,1.27E-02
79321,4.81E-03,1.00E-02
79322,4.76E-03,1.05E-02
79323,5.08E-03,1.11E-02
79324,5.07E-03,1.09E-02
79325,5.46E-03,1.11E-02
79326,5.06E-03,1.43E-02
79327,5.72E-03,1.80E-02
79328,5.60E-03,2.67E-02
79329,5.23E-03,2.63E-02
79330,6.37E-03,1.81E-02
79331,4.75E-03,2.80E-02
79332,6.37E-03,2.42E-02
79333,5.40E-03,3.10E-02
79334,4.56E-03,3.12E-02
79335,6.75E-03,3.14E-02
79336,6.44E-03,3.03E-02
79337,5.45E-03,3.54E-02
79338,5.54E-03,3.37E-02
79339,5.36E-03,3.65E-02
79340,5.43E-03,3.61E-02
79341,5.38E-03,3.74E-02
79342,5.34E-03,3.71E-02
79343,5.54E-03,3.78E-02
79344,5.47E-03,3.75E-02
79345,5.31E-03,3.78E-02
79346,5.52E-03,3.78E-02
79347,5.12E-03,3.80E-02
79348,5.18E-03,3.80E-02
79349,5.39E-03,3.59E-02
79350,6.11E-03,3.75E-02
79351,5.08E-03,3.78E-02
79352,5.51E-03,3.44E-02
79353,5.40E-03,3.50E-02
79354,5.54E-03,3.34E-02
79355,5.55E-03,3.39E-02
79356,5.41E-03,3.25E-02
79357,5.48E-03,3.29E-02
79358,5.40E-03,3.18E-02
79359,5.38E-03,3.21E-02
79360,5.84E-03,3.09E-02
79361,5.66E-03,3.14E-02
79362,5.95E-03,3.01E-02
79363,5.97E-03,3.06E-02
79364,5.69E-03,2.92E-02
79365,5.82E-03,2.96E-02
79366,5.42E-03,2.84E-02
79367,5.48E-03,2.88E-02
79368,5.55E-03,2.73E-02
79369,5.57E-03,2.79E-02
79370,5.63E-03,2.71E-02
79371,6.20E-03,2.49E-02
79372,5.91E-03,2.57E-02
79373,6.52E-03,2.53E-02
79374,5.88E-03,2.41E-02
79375,6.03E-03,2.45E-02
79376,5.72E-03,2.32E-02
79377,5.78E-03,2.36E-02
79378,5.61E-03,2.21E-02
79379,5.67E-03,2.27E-02
79380,5.45E-03,2.11E-02
79381,5.53E-03,2.16E-02
79382,5.27E-03,2.00E-02
79383,5.38E-03,2.05E-02
79384,5.10E-03,1.89E-02
79385,5.18E-03,1.94E-02
79386,4.86E-03,1.80E-02
79387,5.09E-03,1.84E-02
79388,5.34E-03,1.64E-02
79389,5.32E-03,1.73E-02
79390,5.37E-03,1.61E-02
79391,6.22E-03,1.44E-02
79392,5.94E-03,1.40E-02
79393,5.72E-03,1.37E-02
79394,5.65E-03,1.35E-02
79395,5.67E-03,1.22E-02
79396,4.58E-03,1.18E-02
79397,5.88E-03,1.25E-02
79398,6.12E-03,1.23E-02
79399,6.24E-03,1.30E-02
79400,6.04E-03,1.28E-02
79401,5.32E-03,1.34E-02
79402,6.76E-03,1.33E-02
79403,5.82E-03,1.38E-02
79404,4.53E-03,1.34E-02
79405,5.16E-03,1.44E-02
79406,5.84E-03,1.41E-02
79407,5.21E-03,1.54E-02
79408,5.15E-03,1.49E-02
79409,5.33E-03,1.65E-02
79410,5.25E-03,1.60E-02
79411,5.51E-03,1.76E-02
79412,5.41E-03,1.70E-02
79413,5.59E-03,1.89E-02
79414,5.55E-03,1.82E-02
79415,5.70E-03,2.04E-02
79416,5.70E-03,1.97E-02
79417,5.77E-03,2.19E-02
79418,5.77E-03,2.12E-02
79419,5.84E-03,2.31E-02
79420,5.85E-03,2.25E-02
79421,5.79E-03,2.37E-02
79422,5.80E-03,2.35E-02
79423,5.64E-03,2.38E-02
79424,5.70E-03,2.39E-02
79425,5.51E-03,2.35E-02
79426,5.57E-03,2.37E-02
79427,5.43E-03,2.29E-02
79428,5.47E-03,2.32E-02
79429,5.47E-03,2.21E-02
79430,5.43E-03,2.25E-02
79431,5.56E-03,2.15E-02
79432,5.57E-03,2.18E-02
79433,5.48E-03,2.11E-02
79434,5.50E-03,2.12E-02
79435,5.51E-03,2.15E-02
79436,5.47E-03,2.11E-02
79437,5.69E-03,2.30E-02
79438,5.58E-03,2.21E-02
79439,5.65E-03,2.42E-02
79440,5.66E-03,2.37E-02
79441,5.63E-03,2.36E-02
79442,5.61E-03,2.41E-02
79443,5.57E-03,2.17E-02
79444,5.59E-03,2.27E-02
79445,5.46E-03,1.95E-02
79446,5.52E-03,2.06E-02
79447,5.31E-03,1.74E-02
79448,5.36E-03,1.84E-02
79449,5.29E-03,1.55E-02
79450,5.31E-03,1.64E-02
79451,5.26E-03,1.37E-02
79452,5.26E-03,1.46E-02
79453,5.23E-03,1.14E-02
79454,5.23E-03,1.26E-02
79455,5.25E-03,8.98E-03
79456,5.23E-03,1.02E-02
79457,5.16E-03,6.61E-03
79458,5.20E-03,7.67E-03
79459,5.18E-03,5.13E-03
79460,5.16E-03,5.69E-03
79461,5.39E-03,5.00E-03
79462,5.28E-03,4.84E-03
79463,5.62E-03,6.52E-03
79464,5.53E-03,5.51E-03
79465,6.86E-03,1.01E-02
79466,5.91E-03,7.68E-03
79467,5.87E-03,1.67E-02
79468,6.71E-03,1.22E-02
79469,5.57E-03,1.10E-02
79470,5.28E-03,1.06E-02
79471,5.03E-03,1.02E-02
79472,4.70E-03,9.84E-03
79473,6.05E-03,1.94E-02
79474,6.49E-03,2.31E-02
79475,5.70E-03,3.02E-02
79476,5.51E-03,2.05E-02
79477,5.88E-03,2.71E-02
79478,6.45E-03,2.19E-02
79479,5.32E-03,3.24E-02
79480,4.56E-03,3.28E-02
79481,5.38E-03,3.54E-02
79482,5.91E-03,3.34E-02
79483,5.57E-03,3.91E-02
79484,5.22E-03,3.80E-02
79485,5.94E-03,3.94E-02
79486,5.88E-03,3.93E-02
79487,5.53E-03,4.08E-02
79488,5.83E-03,3.98E-02
79489,5.45E-03,4.15E-02
79490,5.48E-03,4.14E-02
79491,5.43E-03,4.18E-02
79492,5.44E-03,4.16E-02
79493,5.48E-03,4.17E-02
79494,5.48E-03,4.18E-02
79495,5.35E-03,4.12E-02
79496,5.47E-03,4.14E-02
79497,5.09E-03,4.09E-02
79498,5.24E-03,4.10E-02
79499,5.16E-03,3.81E-02
79500,4.27E-03,3.93E-02
79501,4.89E-03,4.07E-02
79502,5.51E-03,3.65E-02
79503,5.39E-03,3.72E-02
79504,5.54E-03,3.53E-02
79505,5.55E-03,3.59E-02
79506,5.48E-03,3.42E-02
79507,5.50E-03,3.47E-02
79508,5.54E-03,3.33E-02
79509,5.51E-03,3.37E-02
79510,5.71E-03,3.26E-02
79511,5.63E-03,3.30E-02
79512,5.76E-03,3.15E-02
79513,5.80E-03,3.20E-02
79514,5.68E-03,3.05E-02
79515,5.73E-03,3.10E-02
79516,5.54E-03,2.95E-02
79517,5.56E-03,3.00E-02
79518,5.59E-03,2.85E-02
79519,5.53E-03,2.90E-02
79520,5.61E-03,2.76E-02
79521,5.60E-03,2.81E-02
79522,5.80E-03,2.66E-02
79523,5.81E-03,2.71E-02
79524,6.07E-03,2.58E-02
79525,6.01E-03,2.62E-02
79526,5.87E-03,2.50E-02
79527,6.00E-03,2.54E-02
79528,5.71E-03,2.41E-02
79529,5.79E-03,2.46E-02
79530,5.59E-03,2.32E-02
79531,5.66E-03,2.37E-02
79532,5.46E-03,2.21E-02
79533,5.50E-03,2.27E-02
79534,5.30E-03,2.11E-02
79535,5.38E-03,2.16E-02
79536,5.22E-03,2.00E-02
79537,5.27E-03,2.05E-02
79538,5.21E-03,1.90E-02
79539,5.16E-03,1.95E-02
79540,5.50E-03,1.77E-02
79541,5.33E-03,1.83E-02
79542,5.98E-03,1.67E-02
79543,5.77E-03,1.72E-02
79544,6.07E-03,1.58E-02
79545,6.11E-03,1.63E-02
79546,5.80E-03,1.49E-02
79547,5.90E-03,1.53E-02
79548,4.96E-03,1.41E-02
79549,5.22E-03,1.47E-02
79550,6.12E-03,1.24E-02
79551,5.68E-03,1.28E-02
79552,5.35E-03,1.16E-02
79553,5.61E-03,1.20E-02
79554,4.70E-03,1.07E-02
79555,5.17E-03,1.12E-02
79556,5.90E-03,1.02E-02
79557,6.44E-03,9.53E-03
79558,6.01E-03,9.03E-03
79559,5.65E-03,8.63E-03
79560,5.24E-03,8.28E-03
79561,4.52E-03,7.66E-03
79562,4.95E-03,7.95E-03
79563,4.12E-03,7.41E-03
79564,3.86E-03,5.98E-03
79565,5.20E-03,6.08E-03
79566,4.88E-03,6.65E-03
79567,3.90E-03,6.52E-03
79568,4.52E-03,6.71E-03
79569,4.91E-03,6.93E-03
79570,5.24E-03,7.21E-03
79571,5.64E-03,7.50E-03
79572,6.07E-03,7.79E-03
79573,6.48E-03,8.13E-03
79574,6.08E-03,8.59E-03
79575,4.52E-03,8.89E-03
79576,4.98E-03,9.27E-03
79577,5.24E-03,9.69E-03
79578,5.53E-03,1.01E-02
79579,5.58E-03,1.04E-02
79580,5.34E-03,1.08E-02
79581,5.33E-03,1.11E-02
79582,5.37E-03,1.11E-02
79583,5.72E-03,1.12E-02
79584,5.88E-03,1.13E-02
79585,6.01E-03,1.15E-02
79586,6.30E-03,1.16E-02
79587,6.16E-03,1.17E-02
79588,5.75E-03,1.20E-02
79589,5.46E-03,1.23E-02
79590,5.43E-03,1.24E-02
79591,5.54E-03,1.26E-02
79592,5.39E-03,1.31E-02
79593,5.23E-03,1.37E-02
79594,5.27E-03,1.43E-02
79595,5.34E-03,1.49E-02
79596,5.40E-03,1.54E-02
79597,5.46E-03,1.59E-02
79598,5.54E-03,1.64E-02
79599,5.57E-03,1.70E-02
79600,5.64E-03,1.77E-02
79601,5.66E-03,1.87E-02
79602,5.66E-03,1.97E-02
79603,5.69E-03,2.06E-02
79604,5.69E-03,2.15E-02
79605,5.69E-03,2.23E-02
79606,5.71E-03,2.30E-02
79607,5.70E-03,2.34E-02
79608,5.67E-03,2.36E-02
79609,5.65E-03,2.36E-02
79610,5.61E-03,2.35E-02
79611,5.55E-03,2.33E-02
79612,5.48E-03,2.29E-02
79613,5.47E-03,2.24E-02
79614,5.47E-03,2.18E-02
79615,5.49E-03,2.13E-02
79616,5.49E-03,2.07E-02
79617,5.54E-03,2.02E-02
79618,5.57E-03,1.97E-02
79619,5.57E-03,1.92E-02
79620,5.60E-03,1.87E-02
79621,5.61E-03,1.86E-02
79622,5.66E-03,1.89E-02
79623,5.72E-03,1.96E-02
79624,5.70E-03,2.13E-02
79625,5.50E-03,2.36E-02
79626,5.44E-03,2.47E-02
79627,5.49E-03,2.40E-02
79628,5.54E-03,2.29E-02
79629,5.57E-03,2.15E-02
79630,5.56E-03,1.99E-02
79631,5.53E-03,1.84E-02
79632,5.49E-03,1.70E-02
79633,5.47E-03,1.57E-02
79634,5.49E-03,1.44E-02
79635,5.46E-03,1.32E-02
79636,5.41E-03,1.22E-02
79637,5.35E-03,1.13E-02
79638,5.29E-03,1.04E-02
79639,5.30E-03,9.15E-03
79640,5.30E-03,7.72E-03
79641,5.31E-03,6.17E-03
79642,5.33E-03,4.68E-03
79643,5.37E-03,3.53E-03
79644,5.44E-03,2.82E-03
79645,5.54E-03,2.66E-03
79646,5.55E-03,3.14E-03
79647,5.51E-03,4.45E-03
79648,5.50E-03,6.11E-03
79649,5.60E-03,8.01E-03
79650,5.75E-03,1.02E-02
79651,6.06E-03,1.33E-02
79652,6.15E-03,1.78E-02
79653,6.33E-03,2.17E-02
79654,6.54E-03,2.68E-02
79655,6.21E-03,3.52E-02
79656,5.95E-03,4.30E-02
79657,5.49E-03,4.78E-02
79658,6.78E-03,4.89E-02
79659,7.17E-03,5.56E-02
79660,5.64E-03,4.02E-02
79661,6.03E-03,5.98E-02
79662,4.88E-03,5.39E-02
79663,4.36E-03,5.70E-02
79664,4.52E-03,6.92E-02
79665,4.68E-03,8.60E-02
79666,3.76E-03,8.90E-02
79667,4.02E-03,5.34E-02
79668,5.60E-03,6.60E-02
79669,4.41E-03,6.58E-02
79670,3.77E-03,5.62E-02
79671,6.03E-03,4.28E-02
79672,6.54E-03,3.54E-02
79673,5.75E-03,2.53E-02
79674,5.92E-03,2.24E-02
79675,5.94E-03,2.40E-02
79676,5.97E-03,2.81E-02
79677,5.80E-03,3.40E-02
79678,5.51E-03,3.77E-02
79679,5.28E-03,4.12E-02
79680,5.15E-03,4.26E-02
79681,5.50E-03,4.49E-02
79682,5.50E-03,4.55E-02
79683,5.41E-03,4.60E-02
79684,5.54E-03,4.70E-02
79685,5.73E-03,4.72E-02
79686,5.81E-03,4.70E-02
79687,5.72E-03,4.66E-02
79688,5.59E-03,4.68E-02
79689,5.48E-03,4.69E-02
79690,5.44E-03,4.67E-02
79691,5.45E-03,4.61E-02
79692,5.46E-03,4.62E-02
79693,5.51E-03,4.63E-02
79694,5.51E-03,4.54E-02
79695,5.49E-03,4.46E-02
79696,5.43E-03,4.45E-02
79697,5.32E-03,4.42E-02
79698,5.20E-03,4.39E-02
79699,4.85E-03,4.36E-02
79700,4.19E-03,4.33E-02
79701,2.72E-03,4.24E-02
79702,2.79E-03,4.18E-02
79703,4.31E-03,4.09E-02
79704,5.07E-03,4.03E-02
79705,5.43E-03,3.94E-02
79706,5.54E-03,3.85E-02
79707,5.60E-03,3.80E-02
79708,5.60E-03,3.71E-02
79709,5.60E-03,3.65E-02
79710,5.60E-03,3.59E-02
79711,5.57E-03,3.53E-02
79712,5.57E-03,3.48E-02
79713,5.62E-03,3.46E-02
79714,5.67E-03,3.42E-02
79715,5.74E-03,3.34E-02
79716,5.74E-03,3.27E-02
79717,5.68E-03,3.22E-02
79718,5.64E-03,3.17E-02
79719,5.64E-03,3.12E-02
79720,5.59E-03,3.07E-02
79721,5.59E-03,3.02E-02
79722,5.61E-03,2.97E-02
79723,5.60E-03,2.91E-02
79724,5.64E-03,2.87E-02
79725,5.71E-03,2.82E-02
79726,5.90E-03,2.77E-02
79727,6.00E-03,2.72E-02
79728,6.00E-03,2.68E-02
79729,5.94E-03,2.64E-02
79730,5.82E-03,2.60E-02
79731,5.74E-03,2.56E-02
79732,5.68E-03,2.51E-02
79733,5.64E-03,2.46E-02
79734,5.60E-03,2.42E-02
79735,5.57E-03,2.37E-02
79736,5.51E-03,2.32E-02
79737,5.45E-03,2.26E-02
79738,5.37E-03,2.21E-02
79739,5.28E-03,2.16E-02
79740,5.24E-03,2.11E-02
79741,5.25E-03,2.06E-02
79742,5.29E-03,2.00E-02
79743,5.40E-03,1.95E-02
79744,5.55E-03,1.90E-02
79745,5.76E-03,1.84E-02
79746,5.93E-03,1.80E-02
79747,6.02E-03,1.75E-02
79748,6.03E-03,1.70E-02
79749,5.91E-03,1.66E-02
79750,5.67E-03,1.61E-02
79751,5.40E-03,1.56E-02
79752,5.13E-03,1.51E-02
79753,4.98E-03,1.47E-02
79754,5.21E-03,1.43E-02
79755,5.52E-03,1.38E-02
79756,5.79E-03,1.34E-02
79757,5.71E-03,1.30E-02
79758,5.45E-03,1.25E-02
79759,5.25E-03,1.21E-02
79760,5.31E-03,1.16E-02
79761,5.88E-03,1.11E-02
79762,6.10E-03,1.06E-02
79763,5.95E-03,1.02E-02
79764,5.66E-03,9.70E-03
79765,5.29E-03,9.28E-03
79766,4.97E-03,8.89E-03
79767,4.57E-03,8.52E-03
79768,4.22E-03,8.16E-03
79769,5.32E-03,7.61E-03
79770,6.41E-03,7.23E-03
79771,5.67E-03,6.85E-03
79772,6.07E-03,5.54E-03
79773,4.89E-03,5.30E-03
79774,3.69E-03,5.19E-03
79775,1.86E-03,5.16E-03
79776,1.24E-03,5.09E-03
79792,5.34E-03,2.61E-02
79793,5.91E-03,2.74E-02
79794,5.81E-03,2.72E-02
79795,5.54E-03,2.86E-02
79796,5.49E-03,2.84E-02
79797,4.26E-03,7.18E-03
79798,5.83E-03,7.47E-03
79799,4.90E-03,6.04E-03
79800,3.55E-03,6.33E-03
79801,3.06E-03,6.44E-03
79802,6.56E-03,2.59E-02
79803,6.26E-03,2.70E-02
79804,6.53E-03,2.72E-02
79805,6.45E-03,2.87E-02
79806,6.28E-03,2.98E-02
79807,6.52E-03,3.00E-02
79808,3.43E-03,5.39E-03
79809,3.63E-03,5.58E-03
79810,5.28E-03,1.66E-02
79811,5.31E-03,1.68E-02
79812,4.26E-03,1.66E-02
79813,5.19E-03,1.64E-02
79814,7.13E-03,3.58E-02
79815,8.25E-03,3.66E-02
79816,6.80E-03,3.68E-02
79817,5.57E-03,2.26E-02
79818,3.35E-03,2.32E-02
79819,3.46E-03,2.27E-02
79820,4.61E-03,2.19E-02
79821,3.24E-03,3.47E-02
79822,3.29E-03,3.37E-02
79823,3.89E-03,3.44E-02
79824,4.10E-03,6.73E-03
79825,5.12E-03,7.29E-03
79826,4.43E-03,6.07E-03
79827,3.29E-03,6.01E-03
79828,5.25E-03,1.55E-02
79829,5.44E-03,1.57E-02
79830,5.48E-03,1.58E-02
79831,5.57E-03,1.58E-02
79832,5.55E-03,1.59E-02
79833,5.88E-03,1.46E-02
79834,5.44E-03,1.44E-02
79835,5.64E-03,1.60E-02
79836,5.07E-03,1.77E-02
79837,4.62E-03,1.77E-02
79838,5.30E-03,1.47E-02
79839,4.44E-03,1.37E-02
79840,3.92E-03,1.33E-02
79841,4.53E-03,1.53E-02
79842,4.18E-03,1.55E-02
79843,5.55E-03,1.69E-02
79844,5.52E-03,1.68E-02
79845,5.62E-03,1.71E-02
79846,5.57E-03,1.70E-02
79847,5.51E-03,1.61E-02
79848,5.58E-03,1.74E-02
79849,5.64E-03,1.72E-02
79850,5.41E-03,1.75E-02
79851,5.11E-03,1.82E-02
79852,5.67E-03,1.79E-02
79853,4.84E-03,1.72E-02
79854,6.24E-03,1.76E-02
79855,5.50E-03,1.62E-02
79856,4.88E-03,1.43E-02
79857,5.29E-03,1.45E-02
79858,5.17E-03,1.43E-02
79859,5.30E-03,1.46E-02
79860,4.88E-03,1.42E-02
79861,5.24E-03,1.51E-02
79862,6.29E-03,1.63E-02
79863,5.87E-03,1.46E-02
79864,3.94E-03,1.26E-02
79865,5.07E-03,1.36E-02
79866,5.36E-03,1.41E-02
79867,5.56E-03,1.79E-02
79868,6.36E-03,1.75E-02
79869,5.94E-03,1.77E-02
79870,5.58E-03,1.81E-02
79871,5.60E-03,1.80E-02
79872,5.62E-03,1.83E-02
79873,5.59E-03,1.82E-02
79874,5.61E-03,1.86E-02
79875,5.68E-03,1.85E-02
79876,5.47E-03,1.88E-02
79877,5.46E-03,1.87E-02
79878,6.42E-03,1.88E-02
79879,6.26E-03,1.88E-02
79880,5.18E-03,1.94E-02
79881,5.70E-03,1.91E-02
79882,5.95E-03,1.94E-02
79883,5.80E-03,1.91E-02
79884,4.87E-03,2.02E-02
79885,5.22E-03,2.00E-02
79886,5.57E-03,1.97E-02
79887,4.67E-03,2.14E-02
79888,4.95E-03,2.10E-02
79889,5.16E-03,2.07E-02
79890,5.38E-03,2.04E-02
79891,5.75E-03,2.01E-02
79892,4.92E-03,1.91E-02
79893,5.56E-03,1.99E-02
79894,5.60E-03,1.85E-02
79895,5.28E-03,1.88E-02
79896,5.99E-03,1.78E-02
79897,6.12E-03,1.81E-02
79898,5.60E-03,1.68E-02
79899,5.17E-03,1.70E-02
79900,5.26E-03,1.62E-02
79901,5.53E-03,1.64E-02
79902,5.27E-03,1.52E-02
79903,5.15E-03,1.57E-02
79904,5.63E-03,1.49E-02
79905,5.09E-03,1.31E-02
79906,5.25E-03,1.33E-02
79907,5.22E-03,1.32E-02
79908,5.13E-03,1.29E-02
79909,5.14E-03,1.30E-02
79910,5.25E-03,1.35E-02
79911,5.39E-03,1.40E-02
79912,5.29E-03,1.28E-02
79913,5.67E-03,1.51E-02
79914,5.62E-03,2.26E-02
79915,5.91E-03,1.25E-02
79916,5.69E-03,1.32E-02
79917,4.94E-03,1.24E-02
79918,5.94E-03,1.88E-02
79919,5.97E-03,1.74E-02
79920,5.94E-03,1.86E-02
79921,5.22E-03,1.27E-02
79922,5.49E-03,1.39E-02
79923,5.32E-03,1.17E-02
79924,5.90E-03,1.63E-02
79925,5.72E-03,1.90E-02
79926,5.90E-03,1.89E-02
79927,5.61E-03,1.93E-02
79928,5.67E-03,1.92E-02
79929,5.61E-03,1.95E-02
79930,5.63E-03,1.94E-02
79931,5.57E-03,1.97E-02
79932,5.66E-03,1.96E-02
79933,5.65E-03,1.99E-02
79934,5.55E-03,1.98E-02
79935,5.83E-03,2.02E-02
79936,5.77E-03,2.00E-02
79937,5.62E-03,2.03E-02
79938,5.61E-03,2.03E-02
79939,5.62E-03,2.07E-02
79940,5.61E-03,2.04E-02
79941,5.24E-03,2.11E-02
79942,5.52E-03,2.08E-02
79943,5.55E-03,2.10E-02
79944,4.79E-03,2.14E-02
79945,5.39E-03,2.16E-02
79946,5.76E-03,2.14E-02
79947,4.91E-03,2.21E-02
79948,5.17E-03,2.18E-02
79949,4.47E-03,2.23E-02
79950,5.04E-03,2.31E-02
79951,5.38E-03,2.16E-02
79952,5.59E-03,2.20E-02
79953,4.99E-03,2.05E-02
79954,5.15E-03,2.10E-02
79955,5.18E-03,1.97E-02
79956,5.05E-03,2.00E-02
79957,5.41E-03,1.89E-02
79958,5.32E-03,1.93E-02
79959,5.45E-03,1.82E-02
79960,5.29E-03,1.87E-02
79961,5.58E-03,1.73E-02
79962,5.42E-03,1.77E-02
79963,5.29E-03,1.66E-02
79964,5.62E-03,1.69E-02
79965,5.49E-03,1.57E-02
79966,5.53E-03,1.61E-02
79967,5.35E-03,1.50E-02
79968,5.47E-03,1.54E-02
79969,5.42E-03,1.41E-02
79970,5.35E-03,1.46E-02
79971,5.56E-03,1.37E-02
79972,5.22E-03,1.19E-02
79973,5.31E-03,1.21E-02
79974,5.26E-03,1.20E-02
79975,5.18E-03,1.17E-02
79976,5.20E-03,1.18E-02
79977,5.11E-03,1.15E-02
79978,5.16E-03,1.16E-02
79979,5.11E-03,1.27E-02
79980,4.58E-03,1.15E-02
79981,5.21E-03,1.23E-02
79982,5.98E-03,1.85E-02
79983,5.94E-03,1.73E-02
79984,5.65E-03,1.50E-02
79985,4.62E-03,2.31E-02
79986,4.49E-03,1.13E-02
79987,5.40E-03,1.19E-02
79988,5.15E-03,1.13E-02
79989,5.70E-03,1.21E-02
79990,5.64E-03,1.37E-02
79991,5.30E-03,1.07E-02
79992,5.88E-03,1.97E-02
79993,5.95E-03,1.84E-02
79994,5.91E-03,1.96E-02
79995,6.67E-03,1.09E-02
79996,4.82E-03,1.09E-02
79997,4.69E-03,1.20E-02
79998,5.86E-03,1.61E-02
79999,5.80E-03,1.99E-02
80000,5.82E-03,1.98E-02
80001,5.72E-03,2.02E-02
80002,5.79E-03,2.01E-02
80003,5.63E-03,2.04E-02
80004,5.69E-03,2.03E-02
80005,5.61E-03,2.06E-02
80006,5.60E-03,2.05E-02
80007,5.63E-03,2.08E-02
80008,5.65E-03,2.07E-02
80009,5.61E-03,2.11E-02
80010,5.59E-03,2.09E-02
80011,5.68E-03,2.13E-02
80012,5.69E-03,2.12E-02
80013,5.66E-03,2.15E-02
80014,5.67E-03,2.14E-02
80015,5.59E-03,2.18E-02
80016,5.60E-03,2.17E-02
80017,5.30E-03,2.22E-02
80018,5.47E-03,2.20E-02
80019,5.39E-03,2.23E-02
80020,5.34E-03,2.22E-02
80021,5.33E-03,2.27E-02
80022,5.43E-03,2.26E-02
80023,4.91E-03,2.32E-02
80024,5.14E-03,2.29E-02
80025,3.76E-03,2.35E-02
80026,4.61E-03,2.34E-02
80027,6.02E-03,2.32E-02
80028,4.86E-03,2.38E-02
80029,5.19E-03,2.37E-02
80030,5.99E-03,2.41E-02
80031,4.76E-03,2.43E-02
80032,4.90E-03,2.45E-02
80033,6.13E-03,2.42E-02
80034,5.66E-03,2.42E-02
80035,6.39E-03,2.54E-02
80036,5.80E-03,2.47E-02
80037,5.99E-03,2.30E-02
80038,5.07E-03,2.35E-02
80039,4.32E-03,2.20E-02
80040,4.72E-03,2.25E-02
80041,5.90E-03,2.15E-02
80042,5.73E-03,2.17E-02
80043,5.41E-03,2.04E-02
80044,5.46E-03,2.09E-02
80045,5.26E-03,1.95E-02
80046,5.32E-03,2.00E-02
80047,5.30E-03,1.86E-02
80048,5.25E-03,1.90E-02
80049,5.42E-03,1.79E-02
80050,5.37E-03,1.82E-02
80051,5.58E-03,1.71E-02
80052,5.49E-03,1.75E-02
80053,5.54E-03,1.62E-02
80054,5.51E-03,1.67E-02
80055,5.47E-03,1.54E-02
80056,5.52E-03,1.58E-02
80057,5.53E-03,1.46E-02
80058,5.48E-03,1.50E-02
80059,5.43E-03,1.38E-02
80060,5.46E-03,1.42E-02
80061,5.49E-03,1.30E-02
80062,5.40E-03,1.34E-02
80063,5.54E-03,1.25E-02
80064,5.31E-03,1.08E-02
80065,5.43E-03,1.10E-02
80066,5.36E-03,1.08E-02
80067,5.19E-03,1.06E-02
80068,5.27E-03,1.07E-02
80069,5.11E-03,1.04E-02
80070,5.16E-03,1.05E-02
80071,5.41E-03,1.07E-02
80072,4.53E-03,1.02E-02
80073,5.75E-03,1.07E-02
80074,5.36E-03,1.11E-02
80075,5.96E-03,1.21E-02
80076,9.25E-03,8.69E-03
80077,5.94E-03,1.72E-02
80078,5.78E-03,1.48E-02
80079,5.70E-03,2.59E-02
80080,5.23E-03,1.02E-02
80081,5.60E-03,1.08E-02
80082,6.04E-03,9.56E-03
80083,5.71E-03,1.02E-02
80084,5.88E-03,1.34E-02
80085,5.18E-03,9.52E-03
80086,6.00E-03,1.83E-02
80087,5.84E-03,1.96E-02
80088,5.81E-03,2.09E-02
80089,5.83E-03,2.08E-02
80090,5.95E-03,1.60E-02
80091,5.78E-03,2.11E-02
80092,5.83E-03,2.10E-02
80093,5.70E-03,2.13E-02
80094,5.75E-03,2.12E-02
80095,5.59E-03,2.15E-02
80096,5.64E-03,2.14E-02
80097,5.58E-03,2.17E-02
80098,5.61E-03,2.16E-02
80099,5.58E-03,2.20E-02
80100,5.59E-03,2.18E-02
80101,5.63E-03,2.22E-02
80102,5.61E-03,2.21E-02
80103,5.61E-03,2.24E-02
80104,5.62E-03,2.23E-02
80105,5.62E-03,2.27E-02
80106,5.59E-03,2.26E-02
80107,5.56E-03,2.29E-02
80108,5.58E-03,2.28E-02
80109,5.48E-03,2.32E-02
80110,5.56E-03,2.31E-02
80111,5.47E-03,2.35E-02
80112,5.42E-03,2.33E-02
80113,5.33E-03,2.39E-02
80114,5.42E-03,2.37E-02
80115,5.08E-03,2.42E-02
80116,5.21E-03,2.40E-02
80117,5.44E-03,2.43E-02
80118,4.94E-03,2.44E-02
80119,6.07E-03,2.45E-02
80120,5.78E-03,2.42E-02
80121,5.22E-03,2.49E-02
80122,5.53E-03,2.47E-02
80123,5.52E-03,2.54E-02
80124,5.33E-03,2.51E-02
80125,4.82E-03,2.58E-02
80126,5.65E-03,2.55E-02
80127,5.52E-03,2.55E-02
80128,6.03E-03,2.64E-02
80129,5.69E-03,2.68E-02
80130,5.13E-03,2.72E-02
80131,6.33E-03,2.82E-02
80132,5.56E-03,2.76E-02
80133,5.97E-03,2.52E-02
80134,5.92E-03,2.57E-02
80135,5.84E-03,2.43E-02
80136,6.00E-03,2.47E-02
80137,5.54E-03,2.32E-02
80138,5.78E-03,2.36E-02
80139,5.35E-03,2.20E-02
80140,5.61E-03,2.26E-02
80141,5.24E-03,2.11E-02
80142,5.25E-03,2.17E-02
80143,5.70E-03,2.02E-02
80144,5.42E-03,2.05E-02
80145,5.44E-03,1.93E-02
80146,5.52E-03,1.98E-02
80147,5.32E-03,1.84E-02
80148,5.35E-03,1.89E-02
80149,5.34E-03,1.76E-02
80150,5.30E-03,1.80E-02
80151,5.45E-03,1.68E-02
80152,5.40E-03,1.72E-02
80153,5.62E-03,1.59E-02
80154,5.51E-03,1.64E-02
80155,5.51E-03,1.51E-02
80156,5.54E-03,1.55E-02
80157,5.48E-03,1.42E-02
80158,5.50E-03,1.46E-02
80159,5.48E-03,1.34E-02
80160,5.51E-03,1.38E-02
80161,5.45E-03,1.26E-02
80162,5.45E-03,1.30E-02
80163,5.45E-03,1.18E-02
80164,5.41E-03,1.22E-02
80165,5.45E-03,1.13E-02
80166,5.36E-03,9.58E-03
80167,5.63E-03,9.76E-03
80168,5.46E-03,9.67E-03
80169,5.27E-03,9.43E-03
80170,5.35E-03,9.50E-03
80171,5.20E-03,9.29E-03
80172,5.26E-03,9.36E-03
80173,5.14E-03,9.49E-03
80174,5.26E-03,9.36E-03
80175,5.55E-03,9.40E-03
80176,5.66E-03,9.96E-03
80177,6.08E-03,1.71E-02
80178,6.03E-03,1.47E-02
80179,5.21E-03,2.87E-02
80180,6.11E-03,8.30E-03
80181,6.11E-03,8.98E-03
80182,6.08E-03,1.34E-02
80183,5.36E-03,9.61E-03
80184,5.16E-03,9.06E-03
80185,5.71E-03,1.95E-02
80186,5.79E-03,1.83E-02
80187,5.77E-03,2.21E-02
80188,5.77E-03,2.20E-02
80189,5.83E-03,2.07E-02
80190,1.07E-02,1.22E-02
80191,6.17E-03,1.59E-02
80192,5.72E-03,2.23E-02
80193,5.76E-03,2.22E-02
80194,5.62E-03,2.25E-02
80195,5.67E-03,2.24E-02
80196,5.58E-03,2.27E-02
80197,5.62E-03,2.26E-02
80198,5.59E-03,2.29E-02
80199,5.60E-03,2.28E-02
80200,5.58E-03,2.31E-02
80201,5.61E-03,2.30E-02
80202,5.57E-03,2.33E-02
80203,5.61E-03,2.32E-02
80204,5.55E-03,2.36E-02
80205,5.56E-03,2.35E-02
80206,5.60E-03,2.38E-02
80207,5.59E-03,2.37E-02
80208,5.59E-03,2.41E-02
80209,5.58E-03,2.40E-02
80210,5.53E-03,2.43E-02
80211,5.55E-03,2.42E-02
80212,5.56E-03,2.46E-02
80213,5.52E-03,2.45E-02
80214,5.45E-03,2.50E-02
80215,5.55E-03,2.48E-02
80216,5.27E-03,2.53E-02
80217,5.33E-03,2.51E-02
80218,5.46E-03,2.54E-02
80219,5.33E-03,2.54E-02
80220,5.66E-03,2.57E-02
80221,5.59E-03,2.56E-02
80222,5.49E-03,2.60E-02
80223,5.60E-03,2.58E-02
80224,5.49E-03,2.65E-02
80225,5.44E-03,2.62E-02
80226,5.58E-03,2.67E-02
80227,5.42E-03,2.67E-02
80228,5.30E-03,2.72E-02
80229,5.53E-03,2.68E-02
80230,5.71E-03,2.79E-02
80231,6.06E-03,2.76E-02
80232,5.61E-03,2.82E-02
80233,6.03E-03,2.92E-02
80234,5.78E-03,2.95E-02
80235,5.50E-03,2.99E-02
80236,5.21E-03,3.02E-02
80237,3.77E-03,2.96E-02
80238,4.10E-03,3.06E-02
80239,4.68E-03,2.94E-02
80240,4.85E-03,3.04E-02
80241,5.46E-03,2.88E-02
80242,5.18E-03,2.91E-02
80243,5.85E-03,2.80E-02
80244,5.69E-03,2.84E-02
80245,5.87E-03,2.71E-02
80246,5.90E-03,2.75E-02
80247,6.33E-03,2.62E-02
80248,6.17E-03,2.66E-02
80249,5.72E-03,2.50E-02
80250,6.25E-03,2.57E-02
80251,5.87E-03,2.41E-02
80252,5.82E-03,2.45E-02
80253,5.81E-03,2.31E-02
80254,5.83E-03,2.36E-02
80255,5.66E-03,2.20E-02
80256,5.74E-03,2.26E-02
80257,5.47E-03,2.10E-02
80258,5.55E-03,2.15E-02
80259,5.39E-03,2.00E-02
80260,5.36E-03,2.05E-02
80261,5.57E-03,1.91E-02
80262,5.45E-03,1.95E-02
80263,5.49E-03,1.82E-02
80264,5.53E-03,1.86E-02
80265,5.42E-03,1.73E-02
80266,5.43E-03,1.77E-02
80267,5.42E-03,1.65E-02
80268,5.39E-03,1.69E-02
80269,5.51E-03,1.56E-02
80270,5.45E-03,1.61E-02
80271,5.60E-03,1.48E-02
80272,5.52E-03,1.52E-02
80273,5.52E-03,1.39E-02
80274,5.56E-03,1.44E-02
80275,5.52E-03,1.30E-02
80276,5.53E-03,1.35E-02
80277,5.51E-03,1.22E-02
80278,5.51E-03,1.26E-02
80279,5.48E-03,1.14E-02
80280,5.47E-03,1.19E-02
80281,5.38E-03,1.06E-02
80282,5.40E-03,1.10E-02
80283,5.37E-03,1.01E-02
80284,5.45E-03,8.41E-03
80285,5.69E-03,8.61E-03
80286,5.55E-03,8.50E-03
80287,5.33E-03,8.28E-03
80288,5.39E-03,8.34E-03
80289,5.34E-03,8.21E-03
80290,5.31E-03,8.22E-03
80291,5.41E-03,8.26E-03
80292,5.42E-03,8.26E-03
80293,5.49E-03,8.36E-03
80294,6.29E-03,8.74E-03
80295,6.69E-03,1.29E-02
80296,5.27E-03,8.48E-03
80297,4.89E-03,1.95E-02
80298,5.26E-03,1.83E-02
80299,6.25E-03,1.71E-02
80300,6.52E-03,1.45E-02
80301,5.69E-03,6.93E-03
80302,5.75E-03,2.19E-02
80303,5.77E-03,2.07E-02
80304,4.64E-03,3.04E-02
80305,5.09E-03,7.40E-03
80306,5.56E-03,7.86E-03
80307,6.61E-03,1.92E-02
80308,1.09E-02,1.80E-02
80309,6.61E-03,1.58E-02
80310,6.75E-03,1.74E-02
80311,5.76E-03,2.17E-02
80312,5.70E-03,2.32E-02
80313,5.71E-03,2.30E-02
80314,5.72E-03,2.31E-02
80315,5.67E-03,2.34E-02
80316,5.70E-03,2.33E-02
80317,5.58E-03,2.36E-02
80318,5.63E-03,2.35E-02
80319,5.58E-03,2.38E-02
80320,5.61E-03,2.37E-02
80321,5.59E-03,2.40E-02
80322,5.60E-03,2.39E-02
80323,5.57E-03,2.42E-02
80324,5.61E-03,2.41E-02
80325,5.57E-03,2.45E-02
80326,5.60E-03,2.43E-02
80327,5.57E-03,2.47E-02
80328,5.60E-03,2.46E-02
80329,5.56E-03,2.50E-02
80330,5.60E-03,2.48E-02
80331,5.55E-03,2.52E-02
80332,5.55E-03,2.51E-02
80333,5.56E-03,2.55E-02
80334,5.55E-03,2.53E-02
80335,5.61E-03,2.58E-02
80336,5.59E-03,2.56E-02
80337,5.50E-03,2.61E-02
80338,5.56E-03,2.59E-02
80339,5.42E-03,2.63E-02
80340,5.46E-03,2.62E-02
80341,5.49E-03,2.66E-02
80342,5.44E-03,2.64E-02
80343,5.59E-03,2.69E-02
80344,5.57E-03,2.67E-02
80345,5.55E-03,2.72E-02
80346,5.59E-03,2.70E-02
80347,5.56E-03,2.75E-02
80348,5.55E-03,2.74E-02
80349,5.57E-03,2.79E-02
80350,5.61E-03,2.77E-02
80351,5.71E-03,2.82E-02
80352,5.57E-03,2.81E-02
80353,6.03E-03,2.85E-02
80354,5.85E-03,2.83E-02
80355,5.74E-03,2.90E-02
80356,5.93E-03,2.87E-02
80357,5.53E-03,2.95E-02
80358,5.60E-03,2.92E-02
80359,5.05E-03,2.99E-02
80360,5.43E-03,2.97E-02
80361,5.79E-03,3.06E-02
80362,6.08E-03,3.03E-02
80363,5.30E-03,3.12E-02
80364,5.52E-03,3.10E-02
80365,5.20E-03,3.15E-02
80366,5.13E-03,3.15E-02
80367,6.19E-03,3.14E-02
80368,6.77E-03,3.15E-02
80369,6.10E-03,3.19E-02
80370,5.74E-03,3.23E-02
80371,4.75E-03,3.32E-02
80372,5.39E-03,3.27E-02
80373,5.73E-03,3.29E-02
80374,4.82E-03,3.38E-02
80375,6.08E-03,3.33E-02
80376,5.53E-03,3.15E-02
80377,5.43E-03,3.20E-02
80378,6.14E-03,3.07E-02
80379,5.77E-03,3.11E-02
80380,5.92E-03,2.97E-02
80381,6.75E-03,3.02E-02
80382,4.99E-03,2.84E-02
80383,5.06E-03,2.89E-02
80384,5.40E-03,2.77E-02
80385,5.20E-03,2.80E-02
80386,5.75E-03,2.68E-02
80387,5.60E-03,2.73E-02
80388,5.66E-03,2.59E-02
80389,5.75E-03,2.64E-02
80390,5.91E-03,2.50E-02
80391,5.70E-03,2.55E-02
80392,5.95E-03,2.40E-02
80393,5.91E-03,2.46E-02
80394,5.80E-03,2.29E-02
80395,5.78E-03,2.34E-02
80396,5.78E-03,2.19E-02
80397,5.81E-03,2.24E-02
80398,5.64E-03,2.09E-02
80399,5.74E-03,2.14E-02
80400,5.50E-03,1.99E-02
80401,5.55E-03,2.04E-02
80402,5.49E-03,1.89E-02
80403,5.48E-03,1.94E-02
80404,5.59E-03,1.80E-02
80405,5.52E-03,1.84E-02
80406,5.57E-03,1.71E-02
80407,5.55E-03,1.75E-02
80408,5.52E-03,1.62E-02
80409,5.50E-03,1.66E-02
80410,5.52E-03,1.54E-02
80411,5.48E-03,1.58E-02
80412,5.57E-03,1.45E-02
80413,5.51E-03,1.49E-02
80414,5.63E-03,1.36E-02
80415,5.54E-03,1.41E-02
80416,5.54E-03,1.28E-02
80417,5.59E-03,1.32E-02
80418,5.56E-03,1.19E-02
80419,5.53E-03,1.23E-02
80420,5.54E-03,1.11E-02
80421,5.52E-03,1.14E-02
80422,5.50E-03,1.02E-02
80423,5.50E-03,1.06E-02
80424,5.33E-03,9.43E-03
80425,5.40E-03,9.86E-03
80426,5.14E-03,8.53E-03
80427,5.22E-03,9.02E-03
80428,5.51E-03,7.23E-03
80429,5.62E-03,7.40E-03
80430,5.56E-03,7.31E-03
80431,5.41E-03,7.10E-03
80432,5.45E-03,7.15E-03
80433,5.41E-03,7.07E-03
80434,5.41E-03,7.07E-03
80435,5.48E-03,7.10E-03
80436,5.47E-03,7.07E-03
80437,5.46E-03,7.16E-03
80438,5.46E-03,7.87E-03
80439,5.61E-03,2.29E-02
80440,6.38E-03,2.06E-02
80441,7.53E-03,1.42E-02
80442,4.95E-03,2.28E-02
80443,6.23E-03,2.17E-02
80444,7.55E-03,1.60E-02
80445,5.65E-03,2.42E-02
80446,5.16E-03,2.41E-02
80447,5.61E-03,2.41E-02
80448,5.66E-03,2.43E-02
80449,5.66E-03,2.42E-02
80450,5.59E-03,2.45E-02
80451,5.62E-03,2.44E-02
80452,5.59E-03,2.47E-02
80453,5.60E-03,2.46E-02
80454,5.59E-03,2.49E-02
80455,5.60E-03,2.48E-02
80456,5.62E-03,2.51E-02
80457,5.62E-03,2.50E-02
80458,5.58E-03,2.53E-02
80459,5.60E-03,2.52E-02
80460,5.58E-03,2.56E-02
80461,5.59E-03,2.55E-02
80462,5.58E-03,2.58E-02
80463,5.59E-03,2.57E-02
80464,5.57E-03,2.61E-02
80465,5.59E-03,2.60E-02
80466,5.57E-03,2.64E-02
80467,5.59E-03,2.62E-02
80468,5.58E-03,2.66E-02
80469,5.59E-03,2.65E-02
80470,5.59E-03,2.69E-02
80471,5.59E-03,2.68E-02
80472,5.58E-03,2.72E-02
80473,5.59E-03,2.70E-02
80474,5.55E-03,2.74E-02
80475,5.57E-03,2.73E-02
80476,5.49E-03,2.77E-02
80477,5.55E-03,2.76E-02
80478,5.55E-03,2.80E-02
80479,5.56E-03,2.79E-02
80480,5.55E-03,2.83E-02
80481,5.57E-03,2.82E-02
80482,5.55E-03,2.87E-02
80483,5.58E-03,2.85E-02
80484,5.58E-03,2.90E-02
80485,5.60E-03,2.88E-02
80486,5.69E-03,2.93E-02
80487,5.62E-03,2.92E-02
80488,5.80E-03,2.97E-02
80489,5.77E-03,2.95E-02
80490,5.69E-03,3.01E-02
80491,5.81E-03,2.99E-02
80492,5.53E-03,3.06E-02
80493,5.58E-03,3.04E-02
80494,5.62E-03,3.09E-02
80495,5.49E-03,3.08E-02
80496,5.96E-03,3.13E-02
80497,5.80E-03,3.11E-02
80498,5.80E-03,3.18E-02
80499,5.96E-03,3.15E-02
80500,5.42E-03,3.23E-02
80501,5.57E-03,3.20E-02
80502,5.61E-03,3.26E-02
80503,5.39E-03,3.25E-02
80504,6.10E-03,3.30E-02
80505,5.93E-03,3.28E-02
80506,5.69E-03,3.35E-02
80507,6.01E-03,3.32E-02
80508,4.87E-03,3.44E-02
80509,5.32E-03,3.39E-02
80510,5.69E-03,3.47E-02
80511,5.51E-03,3.42E-02
80512,4.99E-03,3.55E-02
80513,5.04E-03,3.50E-02
80514,5.52E-03,3.55E-02
80515,6.07E-03,3.58E-02
80516,5.39E-03,3.62E-02
80517,5.35E-03,3.67E-02
80518,4.75E-03,3.57E-02
80519,5.19E-03,3.73E-02
80520,5.36E-03,3.49E-02
80521,5.08E-03,3.56E-02
80522,5.27E-03,3.37E-02
80523,6.00E-03,3.43E-02
80524,4.88E-03,3.25E-02
80525,4.06E-03,3.26E-02
80526,5.63E-03,3.15E-02
80527,5.73E-03,3.19E-02
80528,5.65E-03,3.04E-02
80529,5.60E-03,3.09E-02
80530,5.95E-03,2.94E-02
80531,5.78E-03,2.99E-02
80532,5.68E-03,2.86E-02
80533,5.90E-03,2.90E-02
80534,5.25E-03,2.75E-02
80535,5.45E-03,2.80E-02
80536,5.43E-03,2.66E-02
80537,5.30E-03,2.70E-02
80538,5.66E-03,2.58E-02
80539,5.56E-03,2.62E-02
80540,5.72E-03,2.48E-02
80541,5.69E-03,2.53E-02
80542,5.85E-03,2.38E-02
80543,5.76E-03,2.43E-02
80544,5.83E-03,2.28E-02
80545,5.84E-03,2.33E-02
80546,5.79E-03,2.18E-02
80547,5.83E-03,2.23E-02
80548,5.72E-03,2.08E-02
80549,5.74E-03,2.13E-02
80550,5.64E-03,1.98E-02
80551,5.69E-03,2.03E-02
80552,5.57E-03,1.88E-02
80553,5.59E-03,1.93E-02
80554,5.60E-03,1.78E-02
80555,5.62E-03,1.83E-02
80556,5.63E-03,1.68E-02
80557,5.61E-03,1.73E-02
80558,5.61E-03,1.59E-02
80559,5.58E-03,1.64E-02
80560,5.60E-03,1.51E-02
80561,5.57E-03,1.55E-02
80562,5.59E-03,1.42E-02
80563,5.57E-03,1.47E-02
80564,5.60E-03,1.33E-02
80565,5.57E-03,1.38E-02
80566,5.60E-03,1.25E-02
80567,5.57E-03,1.29E-02
80568,5.59E-03,1.16E-02
80569,5.61E-03,1.20E-02
80570,5.60E-03,1.07E-02
80571,5.57E-03,1.11E-02
80572,5.59E-03,9.83E-03
80573,5.61E-03,1.02E-02
80574,5.54E-03,9.05E-03
80575,5.53E-03,9.44E-03
80576,5.34E-03,8.23E-03
80577,5.44E-03,8.63E-03
80578,4.86E-03,7.39E-03
80579,5.15E-03,7.82E-03
80580,5.52E-03,5.99E-03
80581,5.37E-03,6.08E-03
80582,5.51E-03,6.04E-03
80583,5.44E-03,5.90E-03
80584,5.47E-03,5.94E-03
80585,5.47E-03,5.88E-03
80586,5.49E-03,5.89E-03
80587,5.54E-03,5.89E-03
80588,5.56E-03,5.88E-03
80589,5.05E-03,5.82E-03
80590,5.53E-03,5.88E-03
80591,3.97E-03,6.84E-03
80592,6.66E-03,2.32E-02
80593,6.67E-03,2.51E-02
80594,7.63E-03,2.02E-02
80595,7.39E-03,2.19E-02
80596,7.62E-03,1.41E-02
80597,7.61E-03,1.59E-02
80598,5.72E-03,2.53E-02
80599,5.63E-03,2.53E-02
80600,5.57E-03,2.53E-02
80601,5.60E-03,2.54E-02
80602,5.60E-03,2.55E-02
80603,5.60E-03,2.56E-02
80604,5.60E-03,2.57E-02
80605,5.60E-03,2.58E-02
80606,5.60E-03,2.59E-02
80607,5.60E-03,2.60E-02
80608,5.60E-03,2.61E-02
80609,5.61E-03,2.62E-02
80610,5.61E-03,2.63E-02
80611,5.61E-03,2.65E-02
80612,5.61E-03,2.66E-02
80613,5.61E-03,2.67E-02
80614,5.61E-03,2.68E-02
80615,5.62E-03,2.70E-02
80616,5.62E-03,2.71E-02
80617,5.62E-03,2.72E-02
80618,5.62E-03,2.74E-02
80619,5.62E-03,2.75E-02
80620,5.62E-03,2.76E-02
80621,5.62E-03,2.78E-02
80622,5.62E-03,2.79E-02
80623,5.62E-03,2.80E-02
80624,5.62E-03,2.82E-02
80625,5.61E-03,2.83E-02
80626,5.57E-03,2.84E-02
80627,5.53E-03,2.86E-02
80628,5.51E-03,2.87E-02
80629,5.50E-03,2.89E-02
80630,5.57E-03,2.90E-02
80631,5.58E-03,2.92E-02
80632,5.57E-03,2.93E-02
80633,5.55E-03,2.95E-02
80634,5.55E-03,2.96E-02
80635,5.56E-03,2.98E-02
80636,5.59E-03,2.99E-02
80637,5.61E-03,3.01E-02
80638,5.62E-03,3.03E-02
80639,5.65E-03,3.05E-02
80640,5.72E-03,3.07E-02
80641,5.74E-03,3.08E-02
80642,5.73E-03,3.10E-02
80643,5.68E-03,3.12E-02
80644,5.66E-03,3.14E-02
80645,5.58E-03,3.17E-02
80646,5.58E-03,3.19E-02
80647,5.65E-03,3.20E-02
80648,5.80E-03,3.23E-02
80649,5.89E-03,3.25E-02
80650,5.85E-03,3.27E-02
80651,5.72E-03,3.29E-02
80652,5.56E-03,3.31E-02
80653,5.51E-03,3.33E-02
80654,5.53E-03,3.36E-02
80655,5.66E-03,3.38E-02
80656,5.84E-03,3.41E-02
80657,5.96E-03,3.43E-02
80658,5.94E-03,3.45E-02
80659,5.75E-03,3.48E-02
80660,5.46E-03,3.51E-02
80661,5.40E-03,3.54E-02
80662,5.41E-03,3.56E-02
80663,5.43E-03,3.60E-02
80664,5.33E-03,3.63E-02
80665,5.37E-03,3.66E-02
80666,5.57E-03,3.70E-02
80667,5.73E-03,3.74E-02
80668,5.97E-03,3.76E-02
80669,6.02E-03,3.80E-02
80670,4.69E-03,3.81E-02
80671,4.83E-03,3.83E-02
80672,7.95E-03,3.85E-02
80673,8.30E-03,3.87E-02
80674,6.80E-03,3.92E-02
80675,5.96E-03,3.96E-02
80676,5.20E-03,4.01E-02
80677,4.13E-03,4.05E-02
80678,2.08E-03,4.24E-02
80679,3.47E-03,4.20E-02
80680,4.86E-03,4.14E-02
80681,6.24E-03,4.08E-02
80682,6.09E-03,3.99E-02
80683,4.96E-03,3.89E-02
80684,5.30E-03,3.83E-02
80685,5.97E-03,3.77E-02
80686,6.84E-03,3.72E-02
80687,3.48E-03,3.53E-02
80688,4.08E-03,3.47E-02
80689,5.34E-03,3.40E-02
80690,5.41E-03,3.36E-02
80691,5.41E-03,3.30E-02
80692,5.08E-03,3.25E-02
80693,4.94E-03,3.19E-02
80694,4.99E-03,3.14E-02
80695,5.37E-03,3.07E-02
80696,5.57E-03,3.03E-02
80697,5.59E-03,2.98E-02
80698,5.64E-03,2.93E-02
80699,5.70E-03,2.88E-02
80700,5.77E-03,2.83E-02
80701,5.78E-03,2.79E-02
80702,5.64E-03,2.75E-02
80703,5.48E-03,2.70E-02
80704,5.37E-03,2.66E-02
80705,5.39E-03,2.61E-02
80706,5.48E-03,2.56E-02
80707,5.59E-03,2.52E-02
80708,5.62E-03,2.47E-02
80709,5.64E-03,2.42E-02
80710,5.65E-03,2.37E-02
80711,5.70E-03,2.32E-02
80712,5.74E-03,2.27E-02
80713,5.77E-03,2.22E-02
80714,5.79E-03,2.17E-02
80715,5.75E-03,2.11E-02
80716,5.69E-03,2.06E-02
80717,5.65E-03,2.01E-02
80718,5.66E-03,1.96E-02
80719,5.64E-03,1.91E-02
80720,5.63E-03,1.87E-02
80721,5.62E-03,1.82E-02
80722,5.60E-03,1.77E-02
80723,5.62E-03,1.72E-02
80724,5.62E-03,1.67E-02
80725,5.61E-03,1.62E-02
80726,5.59E-03,1.57E-02
80727,5.55E-03,1.52E-02
80728,5.55E-03,1.48E-02
80729,5.56E-03,1.44E-02
80730,5.56E-03,1.40E-02
80731,5.56E-03,1.35E-02
80732,5.56E-03,1.31E-02
80733,5.56E-03,1.26E-02
80734,5.56E-03,1.22E-02
80735,5.56E-03,1.17E-02
80736,5.56E-03,1.13E-02
80737,5.56E-03,1.08E-02
80738,5.56E-03,1.04E-02
80739,5.56E-03,9.94E-03
80740,5.56E-03,9.52E-03
80741,5.55E-03,9.04E-03
80742,5.55E-03,8.52E-03
80743,5.53E-03,8.32E-03
80744,5.51E-03,7.89E-03
80745,5.45E-03,7.33E-03
80746,5.39E-03,7.05E-03
80747,5.21E-03,6.57E-03
80748,4.62E-03,6.09E-03
80749,3.46E-03,5.80E-03
80750,4.88E-03,5.21E-03
80751,4.91E-03,4.94E-03
80752,5.28E-03,4.77E-03
80753,5.49E-03,4.73E-03
80754,5.49E-03,4.72E-03
80755,5.45E-03,4.71E-03
80756,5.44E-03,4.69E-03
80757,5.48E-03,4.68E-03
80758,5.51E-03,4.67E-03
80759,5.59E-03,4.66E-03
80760,5.61E-03,4.67E-03
80761,5.63E-03,4.70E-03
80762,6.47E-03,4.80E-03
80763,1.13E-02,2.45E-02
80764,1.06E-02,5.28E-03
79061,3.11E-04,4.66E-03
79062,3.11E-04,4.82E-03
79063,1.71E-03,5.98E-03
79064,2.22E-03,7.06E-03
79065,2.73E-03,9.26E-03
79066,2.37E-03,2.76E-02
79067,1.76E-03,2.06E-02
79068,2.66E-03,2.57E-02
79069,2.74E-03,2.83E-02
79070,7.57E-04,3.16E-02
79071,7.57E-04,3.27E-02
79072,2.64E-03,2.51E-02
79073,3.07E-03,3.53E-02
79074,2.61E-03,1.35E-02
79075,2.73E-03,1.21E-02
79076,2.04E-03,2.26E-02
79777,3.47E-04,4.33E-02
79778,3.47E-04,4.29E-02
79779,1.74E-03,4.12E-02
79780,2.17E-03,3.30E-02
79781,2.12E-03,3.37E-02
79782,3.01E-03,2.91E-02
79783,3.02E-03,2.63E-02
79784,2.68E-03,2.50E-02
79785,3.74E-03,1.04E-02
79786,2.41E-03,1.14E-02
79787,2.54E-03,2.32E-02
79788,2.67E-03,2.05E-02
79789,2.78E-03,1.85E-02
79790,2.36E-03,1.61E-02
79791,2.78E-03,2.66E-02
80771,6.39E-03,2.20E-02
80772,6.39E-03,2.20E-02
80773,6.39E-03,2.19E-02
80774,6.39E-03,2.18E-02
80775,6.39E-03,2.18E-02
80776,6.39E-03,2.17E-02
80777,6.39E-03,2.16E-02
80778,6.39E-03,2.14E-02
80779,6.39E-03,2.13E-02
80780,6.39E-03,2.11E-02
80781,6.39E-03,2.10E-02
80782,6.39E-03,2.08E-02
80783,6.39E-03,2.07E-02
80784,6.39E-03,2.07E-02
80785,6.39E-03,2.06E-02
80786,6.39E-03,2.06E-02
80787,6.39E-03,2.05E-02
80788,6.39E-03,2.04E-02
80789,6.39E-03,2.03E-02
80790,6.39E-03,2.03E-02
80791,6.39E-03,2.02E-02
80792,6.39E-03,2.02E-02
80793,6.39E-03,2.03E-02
80794,6.39E-03,2.03E-02
80795,6.39E-03,2.03E-02
80796,6.39E-03,2.04E-02
80797,6.39E-03,2.04E-02
80798,6.39E-03,2.05E-02
80799,6.39E-03,2.06E-02
80800,6.39E-03,2.07E-02
80801,6.39E-03,2.08E-02
80802,6.39E-03,2.11E-02
80803,6.39E-03,2.13E-02
80804,6.39E-03,2.15E-02
80805,6.39E-03,2.16E-02
80806,6.39E-03,2.17E-02
80807,6.39E-03,2.20E-02
80808,6.39E-03,2.24E-02
80809,6.39E-03,2.29E-02
80810,6.39E-03,2.35E-02
80811,6.39E-03,2.39E-02
80812,6.39E-03,2.43E-02
80813,6.39E-03,2.46E-02
80814,6.39E-03,2.46E-02
80815,6.39E-03,2.43E-02
80816,6.39E-03,2.36E-02
80817,6.39E-03,2.29E-02
80818,6.39E-03,2.24E-02
80819,6.39E-03,2.19E-02
80820,6.39E-03,2.15E-02
80821,6.39E-03,2.12E-02
80822,6.39E-03,2.08E-02
80823,6.39E-03,2.04E-02
80824,6.39E-03,2.01E-02
80825,6.39E-03,1.97E-02
80826,6.39E-03,1.95E-02
80827,6.39E-03,1.93E-02
80828,6.39E-03,1.91E-02
80829,6.39E-03,1.89E-02
80830,6.39E-03,1.87E-02
80831,6.39E-03,1.84E-02
80832,6.39E-03,1.81E-02
80833,6.39E-03,1.78E-02
80834,6.39E-03,1.75E-02
80835,6.39E-03,1.72E-02
80836,6.39E-03,1.71E-02
80837,6.39E-03,1.70E-02
80838,6.39E-03,1.70E-02
80839,6.39E-03,1.69E-02
80840,6.39E-03,1.68E-02
80841,6.39E-03,1.67E-02
80842,6.39E-03,1.65E-02
80843,6.39E-03,1.62E-02
80844,6.39E-03,1.60E-02
80845,6.39E-03,1.57E-02
80846,6.39E-03,1.55E-02
80847,6.39E-03,1.53E-02
80848,6.39E-03,1.52E-02
80849,6.39E-03,1.51E-02
80850,6.39E-03,1.50E-02
80851,6.39E-03,1.50E-02
80852,6.39E-03,1.49E-02
80853,6.39E-03,1.48E-02
80854,6.39E-03,1.46E-02
80855,6.39E-03,1.44E-02
80856,6.39E-03,1.42E-02
80857,6.39E-03,1.39E-02
80858,6.39E-03,1.37E-02
80859,6.39E-03,1.34E-02
80860,6.39E-03,1.32E-02
80861,6.39E-03,1.31E-02
80862,6.39E-03,1.30E-02
80863,6.39E-03,1.29E-02
80864,6.39E-03,1.29E-02
80865,6.39E-03,1.29E-02
80866,6.39E-03,1.29E-02
80867,6.39E-03,1.27E-02
80868,6.39E-03,1.26E-02
80869,6.39E-03,1.23E-02
80870,6.39E-03,1.21E-02
80871,6.39E-03,1.18E-02
80872,6.39E-03,1.16E-02
80873,6.39E-03,1.14E-02
80874,6.39E-03,1.12E-02
80875,6.39E-03,1.11E-02
80876,6.39E-03,1.10E-02
80877,6.39E-03,1.09E-02
80878,6.39E-03,1.08E-02
80879,6.39E-03,1.08E-02
80880,6.39E-03,1.07E-02
80881,6.39E-03,1.07E-02
80882,6.39E-03,1.07E-02
80883,6.39E-03,1.06E-02
80884,6.39E-03,1.06E-02
80885,6.39E-03,1.07E-02
80886,6.39E-03,1.07E-02
80887,6.39E-03,1.07E-02
80888,6.39E-03,1.08E-02
80889,6.39E-03,1.08E-02
80890,6.39E-03,1.09E-02
80891,6.39E-03,1.10E-02
80892,6.39E-03,1.11E-02
80893,6.39E-03,1.12E-02
80894,6.39E-03,1.13E-02
80895,6.39E-03,1.14E-02
80896,6.39E-03,1.16E-02
80897,6.39E-03,1.17E-02
80898,6.39E-03,1.19E-02
80899,6.39E-03,1.20E-02
80900,6.39E-03,1.22E-02
80901,6.39E-03,1.24E-02
80902,6.39E-03,1.25E-02
80903,6.39E-03,1.27E-02
80904,6.39E-03,1.29E-02
80905,6.39E-03,1.31E-02
80906,6.39E-03,1.32E-02
80907,6.39E-03,2.19E-02
80908,6.39E-03,2.18E-02
80909,6.39E-03,2.17E-02
80910,6.39E-03,2.17E-02
80911,6.39E-03,2.16E-02
80912,6.39E-03,2.15E-02
80913,6.39E-03,2.14E-02
80914,6.39E-03,2.13E-02
80915,6.39E-03,2.11E-02
80916,6.39E-03,2.10E-02
80917,6.39E-03,2.09E-02
80918,6.39E-03,2.09E-02
80919,6.39E-03,2.08E-02
80920,6.39E-03,2.08E-02
80921,6.39E-03,2.08E-02
80922,6.39E-03,2.08E-02
80923,6.39E-03,2.07E-02
80924,6.39E-03,2.07E-02
80925,6.39E-03,2.06E-02
80926,6.39E-03,2.05E-02
80927,6.39E-03,2.05E-02
80928,6.39E-03,2.04E-02
80929,6.39E-03,2.04E-02
80930,6.39E-03,2.04E-02
80931,6.39E-03,2.04E-02
80932,6.39E-03,2.04E-02
80933,6.39E-03,2.04E-02
80934,6.39E-03,2.05E-02
80935,6.39E-03,2.06E-02
80936,6.39E-03,2.08E-02
80937,6.39E-03,2.10E-02
80938,6.39E-03,2.12E-02
80939,6.39E-03,2.14E-02
80940,6.39E-03,2.16E-02
80941,6.39E-03,2.17E-02
80942,6.39E-03,2.18E-02
80943,6.39E-03,2.19E-02
80944,6.39E-03,2.20E-02
80945,6.39E-03,2.22E-02
80946,6.39E-03,2.23E-02
80947,6.39E-03,2.25E-02
80948,6.39E-03,2.26E-02
80949,6.39E-03,2.28E-02
80950,6.39E-03,2.29E-02
80951,6.39E-03,2.29E-02
80952,6.39E-03,2.27E-02
80953,6.39E-03,2.24E-02
80954,6.39E-03,2.20E-02
80955,6.39E-03,2.16E-02
80956,6.39E-03,2.12E-02
80957,6.39E-03,2.09E-02
80958,6.39E-03,2.05E-02
80959,6.39E-03,2.01E-02
80960,6.39E-03,1.98E-02
80961,6.39E-03,1.96E-02
80962,6.39E-03,1.94E-02
80963,6.39E-03,1.92E-02
80964,6.39E-03,1.91E-02
80965,6.39E-03,1.90E-02
80966,6.39E-03,1.88E-02
80967,6.39E-03,1.86E-02
80968,6.39E-03,1.83E-02
80969,6.39E-03,1.80E-02
80970,6.39E-03,1.77E-02
80971,6.39E-03,1.74E-02
80972,6.39E-03,1.72E-02
80973,6.39E-03,1.70E-02
80974,6.39E-03,1.69E-02
80975,6.39E-03,1.68E-02
80976,6.39E-03,1.67E-02
80977,6.39E-03,1.66E-02
80978,6.39E-03,1.64E-02
80979,6.39E-03,1.62E-02
80980,6.39E-03,1.60E-02
80981,6.39E-03,1.58E-02
80982,6.39E-03,1.56E-02
80983,6.39E-03,1.55E-02
80984,6.39E-03,1.54E-02
80985,6.39E-03,1.53E-02
80986,6.39E-03,1.52E-02
80987,6.39E-03,1.51E-02
80988,6.39E-03,1.50E-02
80989,6.39E-03,1.49E-02
80990,6.39E-03,1.48E-02
80991,6.39E-03,1.46E-02
80992,6.39E-03,1.44E-02
80993,6.39E-03,1.42E-02
80994,6.39E-03,1.39E-02
80995,6.39E-03,1.37E-02
80996,6.39E-03,1.35E-02
80997,6.39E-03,1.33E-02
80998,6.39E-03,1.32E-02
80999,6.39E-03,1.31E-02
81000,6.39E-03,1.31E-02
81001,6.39E-03,1.30E-02
81002,6.39E-03,1.29E-02
81003,6.39E-03,1.28E-02
81004,6.39E-03,1.27E-02
81005,6.39E-03,1.25E-02
81006,6.39E-03,1.23E-02
81007,6.39E-03,1.20E-02
81008,6.39E-03,1.18E-02
81009,6.39E-03,1.16E-02
81010,6.39E-03,1.15E-02
81011,6.39E-03,1.14E-02
81012,6.39E-03,1.13E-02
81013,6.39E-03,1.12E-02
81014,6.39E-03,1.12E-02
81015,6.39E-03,1.12E-02
81016,6.39E-03,1.12E-02
81017,6.39E-03,1.12E-02
81018,6.39E-03,1.12E-02
81019,6.39E-03,1.12E-02
81020,6.39E-03,1.12E-02
81021,6.39E-03,1.12E-02
81022,6.39E-03,1.13E-02
81023,6.39E-03,1.13E-02
81024,6.39E-03,1.14E-02
81025,6.39E-03,1.15E-02
81026,6.39E-03,1.16E-02
81027,6.39E-03,1.17E-02
81028,6.39E-03,1.18E-02
81029,6.39E-03,1.19E-02
81030,6.39E-03,1.20E-02
81031,6.39E-03,1.21E-02
81032,6.39E-03,1.22E-02
81033,6.39E-03,1.24E-02
81034,6.39E-03,1.25E-02
81035,6.39E-03,1.27E-02
81036,6.39E-03,1.28E-02
81037,6.39E-03,1.30E-02
81038,6.39E-03,1.31E-02
81039,6.39E-03,1.33E-02
81040,6.39E-03,1.35E-02
81041,6.39E-03,1.36E-02
81042,6.39E-03,1.38E-02
81043,6.39E-03,2.17E-02
81044,6.39E-03,2.16E-02
81045,6.39E-03,2.15E-02
81046,6.39E-03,2.14E-02
81047,6.39E-03,2.13E-02
81048,6.39E-03,2.12E-02
81049,6.39E-03,2.11E-02
81050,6.39E-03,2.11E-02
81051,6.39E-03,2.10E-02
81052,6.39E-03,2.09E-02
81053,6.39E-03,2.09E-02
81054,6.39E-03,2.09E-02
81055,6.39E-03,2.09E-02
81056,6.39E-03,2.09E-02
81057,6.39E-03,2.09E-02
81058,6.39E-03,2.09E-02
81059,6.39E-03,2.08E-02
81060,6.39E-03,2.08E-02
81061,6.39E-03,2.07E-02
81062,6.39E-03,2.06E-02
81063,6.39E-03,2.06E-02
81064,6.39E-03,2.05E-02
81065,6.39E-03,2.05E-02
81066,6.39E-03,2.05E-02
81067,6.39E-03,2.05E-02
81068,6.39E-03,2.05E-02
81069,6.39E-03,2.06E-02
81070,6.39E-03,2.07E-02
81071,6.39E-03,2.08E-02
81072,6.39E-03,2.10E-02
81073,6.39E-03,2.12E-02
81074,6.39E-03,2.14E-02
81075,6.39E-03,2.15E-02
81076,6.39E-03,2.16E-02
81077,6.39E-03,2.17E-02
81078,6.39E-03,2.17E-02
81079,6.39E-03,2.16E-02
81080,6.39E-03,2.16E-02
81081,6.39E-03,2.15E-02
81082,6.39E-03,2.15E-02
81083,6.39E-03,2.16E-02
81084,6.39E-03,2.16E-02
81085,6.39E-03,2.17E-02
81086,6.39E-03,2.18E-02
81087,6.39E-03,2.18E-02
81088,6.39E-03,2.17E-02
81089,6.39E-03,2.15E-02
81090,6.39E-03,2.12E-02
81091,6.39E-03,2.09E-02
81092,6.39E-03,2.06E-02
81093,6.39E-03,2.02E-02
81094,6.39E-03,2.00E-02
81095,6.39E-03,1.97E-02
81096,6.39E-03,1.95E-02
81097,6.39E-03,1.93E-02
81098,6.39E-03,1.92E-02
81099,6.39E-03,1.91E-02
81100,6.39E-03,1.90E-02
81101,6.39E-03,1.88E-02
81102,6.39E-03,1.86E-02
81103,6.39E-03,1.84E-02
81104,6.39E-03,1.81E-02
81105,6.39E-03,1.78E-02
81106,6.39E-03,1.76E-02
81107,6.39E-03,1.73E-02
81108,6.39E-03,1.71E-02
81109,6.39E-03,1.69E-02
81110,6.39E-03,1.68E-02
81111,6.39E-03,1.67E-02
81112,6.39E-03,1.65E-02
81113,6.39E-03,1.64E-02
81114,6.39E-03,1.62E-02
81115,6.39E-03,1.60E-02
81116,6.39E-03,1.59E-02
81117,6.39E-03,1.57E-02
81118,6.39E-03,1.56E-02
81119,6.39E-03,1.55E-02
81120,6.39E-03,1.54E-02
81121,6.39E-03,1.53E-02
81122,6.39E-03,1.52E-02
81123,6.39E-03,1.51E-02
81124,6.39E-03,1.50E-02
81125,6.39E-03,1.49E-02
81126,6.39E-03,1.47E-02
81127,6.39E-03,1.45E-02
81128,6.39E-03,1.43E-02
81129,6.39E-03,1.41E-02
81130,6.39E-03,1.39E-02
81131,6.39E-03,1.37E-02
81132,6.39E-03,1.36E-02
81133,6.39E-03,1.34E-02
81134,6.39E-03,1.33E-02
81135,6.39E-03,1.32E-02
81136,6.39E-03,1.31E-02
81137,6.39E-03,1.30E-02
81138,6.39E-03,1.29E-02
81139,6.39E-03,1.28E-02
81140,6.39E-03,1.26E-02
81141,6.39E-03,1.25E-02
81142,6.39E-03,1.23E-02
81143,6.39E-03,1.21E-02
81144,6.39E-03,1.19E-02
81145,6.39E-03,1.18E-02
81146,6.39E-03,1.17E-02
81147,6.39E-03,1.16E-02
81148,6.39E-03,1.16E-02
81149,6.39E-03,1.16E-02
81150,6.39E-03,1.16E-02
81151,6.39E-03,1.16E-02
81152,6.39E-03,1.16E-02
81153,6.39E-03,1.17E-02
81154,6.39E-03,1.17E-02
81155,6.39E-03,1.18E-02
81156,6.39E-03,1.18E-02
81157,6.39E-03,1.19E-02
81158,6.39E-03,1.19E-02
81159,6.39E-03,1.20E-02
81160,6.39E-03,1.21E-02
81161,6.39E-03,1.22E-02
81162,6.39E-03,1.23E-02
81163,6.39E-03,1.24E-02
81164,6.39E-03,1.25E-02
81165,6.39E-03,1.26E-02
81166,6.39E-03,1.27E-02
81167,6.39E-03,1.28E-02
81168,6.39E-03,1.30E-02
81169,6.39E-03,1.31E-02
81170,6.39E-03,1.32E-02
81171,6.39E-03,1.34E-02
81172,6.39E-03,1.35E-02
81173,6.39E-03,1.37E-02
81174,6.39E-03,1.38E-02
81175,6.39E-03,1.40E-02
81176,6.39E-03,1.41E-02
81177,6.39E-03,1.43E-02
81178,6.39E-03,2.16E-02
81179,6.39E-03,2.15E-02
81180,6.39E-03,2.14E-02
81181,6.39E-03,2.14E-02
81182,6.39E-03,2.13E-02
81183,6.39E-03,2.12E-02
81184,6.39E-03,2.11E-02
81185,6.39E-03,2.11E-02
81186,6.39E-03,2.10E-02
81187,6.39E-03,2.10E-02
81188,6.39E-03,2.09E-02
81189,6.39E-03,2.09E-02
81190,6.39E-03,2.09E-02
81191,6.39E-03,2.09E-02
81192,6.39E-03,2.09E-02
81193,6.39E-03,2.09E-02
81194,6.39E-03,2.09E-02
81195,6.39E-03,2.09E-02
81196,6.39E-03,2.08E-02
81197,6.39E-03,2.08E-02
81198,6.39E-03,2.07E-02
81199,6.39E-03,2.07E-02
81200,6.39E-03,2.06E-02
81201,6.39E-03,2.06E-02
81202,6.39E-03,2.05E-02
81203,6.39E-03,2.05E-02
81204,6.39E-03,2.06E-02
81205,6.39E-03,2.06E-02
81206,6.39E-03,2.07E-02
81207,6.39E-03,2.08E-02
81208,6.39E-03,2.10E-02
81209,6.39E-03,2.11E-02
81210,6.39E-03,2.13E-02
81211,6.39E-03,2.13E-02
81212,6.39E-03,2.14E-02
81213,6.39E-03,2.14E-02
81214,6.39E-03,2.13E-02
81215,6.39E-03,2.12E-02
81216,6.39E-03,2.11E-02
81217,6.39E-03,2.10E-02
81218,6.39E-03,2.09E-02
81219,6.39E-03,2.08E-02
81220,6.39E-03,2.09E-02
81221,6.39E-03,2.09E-02
81222,6.39E-03,2.10E-02
81223,6.39E-03,2.10E-02
81224,6.39E-03,2.10E-02
81225,6.39E-03,2.09E-02
81226,6.39E-03,2.08E-02
81227,6.39E-03,2.05E-02
81228,6.39E-03,2.03E-02
81229,6.39E-03,2.00E-02
81230,6.39E-03,1.98E-02
81231,6.39E-03,1.96E-02
81232,6.39E-03,1.94E-02
81233,6.39E-03,1.93E-02
81234,6.39E-03,1.91E-02
81235,6.39E-03,1.90E-02
81236,6.39E-03,1.89E-02
81237,6.39E-03,1.88E-02
81238,6.39E-03,1.86E-02
81239,6.39E-03,1.84E-02
81240,6.39E-03,1.82E-02
81241,6.39E-03,1.79E-02
81242,6.39E-03,1.77E-02
81243,6.39E-03,1.74E-02
81244,6.39E-03,1.72E-02
81245,6.39E-03,1.70E-02
81246,6.39E-03,1.68E-02
81247,6.39E-03,1.67E-02
81248,6.39E-03,1.65E-02
81249,6.39E-03,1.64E-02
81250,6.39E-03,1.62E-02
81251,6.39E-03,1.61E-02
81252,6.39E-03,1.60E-02
81253,6.39E-03,1.58E-02
81254,6.39E-03,1.57E-02
81255,6.39E-03,1.56E-02
81256,6.39E-03,1.55E-02
81257,6.39E-03,1.54E-02
81258,6.39E-03,1.53E-02
81259,6.39E-03,1.52E-02
81260,6.39E-03,1.51E-02
81261,6.39E-03,1.50E-02
81262,6.39E-03,1.49E-02
81263,6.39E-03,1.47E-02
81264,6.39E-03,1.45E-02
81265,6.39E-03,1.43E-02
81266,6.39E-03,1.41E-02
81267,6.39E-03,1.40E-02
81268,6.39E-03,1.38E-02
81269,6.39E-03,1.37E-02
81270,6.39E-03,1.36E-02
81271,6.39E-03,1.34E-02
81272,6.39E-03,1.33E-02
81273,6.39E-03,1.32E-02
81274,6.39E-03,1.31E-02
81275,6.39E-03,1.30E-02
81276,6.39E-03,1.28E-02
81277,6.39E-03,1.27E-02
81278,6.39E-03,1.25E-02
81279,6.39E-03,1.24E-02
81280,6.39E-03,1.23E-02
81281,6.39E-03,1.22E-02
81282,6.39E-03,1.21E-02
81283,6.39E-03,1.20E-02
81284,6.39E-03,1.20E-02
81285,6.39E-03,1.20E-02
81286,6.39E-03,1.20E-02
81287,6.39E-03,1.20E-02
81288,6.39E-03,1.21E-02
81289,6.39E-03,1.21E-02
81290,6.39E-03,1.22E-02
81291,6.39E-03,1.23E-02
81292,6.39E-03,1.23E-02
81293,6.39E-03,1.24E-02
81294,6.39E-03,1.25E-02
81295,6.39E-03,1.26E-02
81296,6.39E-03,1.27E-02
81297,6.39E-03,1.28E-02
81298,6.39E-03,1.29E-02
81299,6.39E-03,1.30E-02
81300,6.39E-03,1.31E-02
81301,6.39E-03,1.32E-02
81302,6.39E-03,1.33E-02
81303,6.39E-03,1.34E-02
81304,6.39E-03,1.35E-02
81305,6.39E-03,1.37E-02
81306,6.39E-03,1.38E-02
81307,6.39E-03,1.39E-02
81308,6.39E-03,1.41E-02
81309,6.39E-03,1.42E-02
81310,6.39E-03,1.43E-02
81311,6.39E-03,1.45E-02
81312,6.39E-03,1.46E-02
81313,6.39E-03,1.47E-02
81314,6.39E-03,2.15E-02
81315,6.39E-03,2.14E-02
81316,6.39E-03,2.13E-02
81317,6.39E-03,2.13E-02
81318,6.39E-03,2.12E-02
81319,6.39E-03,2.11E-02
81320,6.39E-03,2.11E-02
81321,6.39E-03,2.10E-02
81322,6.39E-03,2.10E-02
81323,6.39E-03,2.09E-02
81324,6.39E-03,2.09E-02
81325,6.39E-03,2.09E-02
81326,6.39E-03,2.09E-02
81327,6.39E-03,2.09E-02
81328,6.39E-03,2.09E-02
81329,6.39E-03,2.09E-02
81330,6.39E-03,2.09E-02
81331,6.39E-03,2.09E-02
81332,6.39E-03,2.09E-02
81333,6.39E-03,2.08E-02
81334,6.39E-03,2.08E-02
81335,6.39E-03,2.07E-02
81336,6.39E-03,2.07E-02
81337,6.39E-03,2.06E-02
81338,6.39E-03,2.06E-02
81339,6.39E-03,2.06E-02
81340,6.39E-03,2.06E-02
81341,6.39E-03,2.07E-02
81342,6.39E-03,2.07E-02
81343,6.39E-03,2.08E-02
81344,6.39E-03,2.09E-02
81345,6.39E-03,2.10E-02
81346,6.39E-03,2.11E-02
81347,6.39E-03,2.11E-02
81348,6.39E-03,2.11E-02
81349,6.39E-03,2.11E-02
81350,6.39E-03,2.10E-02
81351,6.39E-03,2.08E-02
81352,6.39E-03,2.07E-02
81353,6.39E-03,2.06E-02
81354,6.39E-03,2.04E-02
81355,6.39E-03,2.04E-02
81356,6.39E-03,2.03E-02
81357,6.39E-03,2.04E-02
81358,6.39E-03,2.04E-02
81359,6.39E-03,2.04E-02
81360,6.39E-03,2.05E-02
81361,6.39E-03,2.04E-02
81362,6.39E-03,2.03E-02
81363,6.39E-03,2.02E-02
81364,6.39E-03,2.00E-02
81365,6.39E-03,1.98E-02
81366,6.39E-03,1.96E-02
81367,6.39E-03,1.95E-02
81368,6.39E-03,1.93E-02
81369,6.39E-03,1.92E-02
81370,6.39E-03,1.91E-02
81371,6.39E-03,1.90E-02
81372,6.39E-03,1.88E-02
81373,6.39E-03,1.87E-02
81374,6.39E-03,1.85E-02
81375,6.39E-03,1.84E-02
81376,6.39E-03,1.82E-02
81377,6.39E-03,1.79E-02
81378,6.39E-03,1.77E-02
81379,6.39E-03,1.75E-02
81380,6.39E-03,1.73E-02
81381,6.39E-03,1.71E-02
81382,6.39E-03,1.69E-02
81383,6.39E-03,1.67E-02
81384,6.39E-03,1.66E-02
81385,6.39E-03,1.64E-02
81386,6.39E-03,1.63E-02
81387,6.39E-03,1.62E-02
81388,6.39E-03,1.61E-02
81389,6.39E-03,1.59E-02
81390,6.39E-03,1.58E-02
81391,6.39E-03,1.57E-02
81392,6.39E-03,1.56E-02
81393,6.39E-03,1.56E-02
81394,6.39E-03,1.55E-02
81395,6.39E-03,1.54E-02
81396,6.39E-03,1.53E-02
81397,6.39E-03,1.51E-02
81398,6.39E-03,1.50E-02
81399,6.39E-03,1.48E-02
81400,6.39E-03,1.47E-02
81401,6.39E-03,1.45E-02
81402,6.39E-03,1.44E-02
81403,6.39E-03,1.42E-02
81404,6.39E-03,1.40E-02
81405,6.39E-03,1.39E-02
81406,6.39E-03,1.38E-02
81407,6.39E-03,1.36E-02
81408,6.39E-03,1.35E-02
81409,6.39E-03,1.34E-02
81410,6.39E-03,1.33E-02
81411,6.39E-03,1.32E-02
81412,6.39E-03,1.31E-02
81413,6.39E-03,1.29E-02
81414,6.39E-03,1.28E-02
81415,6.39E-03,1.27E-02
81416,6.39E-03,1.26E-02
81417,6.39E-03,1.25E-02
81418,6.39E-03,1.25E-02
81419,6.39E-03,1.24E-02
81420,6.39E-03,1.24E-02
81421,6.39E-03,1.24E-02
81422,6.39E-03,1.24E-02
81423,6.39E-03,1.25E-02
81424,6.39E-03,1.25E-02
81425,6.39E-03,1.26E-02
81426,6.39E-03,1.27E-02
81427,6.39E-03,1.28E-02
81428,6.39E-03,1.28E-02
81429,6.39E-03,1.29E-02
81430,6.39E-03,1.30E-02
81431,6.39E-03,1.31E-02
81432,6.39E-03,1.32E-02
81433,6.39E-03,1.33E-02
81434,6.39E-03,1.34E-02
81435,6.39E-03,1.35E-02
81436,6.39E-03,1.36E-02
81437,6.39E-03,1.37E-02
81438,6.39E-03,1.38E-02
81439,6.39E-03,1.40E-02
81440,6.39E-03,1.41E-02
81441,6.39E-03,1.42E-02
81442,6.39E-03,1.43E-02
81443,6.39E-03,1.44E-02
81444,6.39E-03,1.46E-02
81445,6.39E-03,1.47E-02
81446,6.39E-03,1.48E-02
81447,6.39E-03,1.49E-02
81448,6.39E-03,1.51E-02
81449,6.39E-03,1.52E-02
81450,6.39E-03,2.14E-02
81451,6.39E-03,2.13E-02
81452,6.39E-03,2.12E-02
81453,6.39E-03,2.12E-02
81454,6.39E-03,2.11E-02
81455,6.39E-03,2.10E-02
81456,6.39E-03,2.10E-02
81457,6.39E-03,2.10E-02
81458,6.39E-03,2.09E-02
81459,6.39E-03,2.09E-02
81460,6.39E-03,2.09E-02
81461,6.39E-03,2.09E-02
81462,6.39E-03,2.09E-02
81463,6.39E-03,2.09E-02
81464,6.39E-03,2.09E-02
81465,6.39E-03,2.09E-02
81466,6.39E-03,2.09E-02
81467,6.39E-03,2.09E-02
81468,6.39E-03,2.09E-02
81469,6.39E-03,2.08E-02
81470,6.39E-03,2.08E-02
81471,6.39E-03,2.07E-02
81472,6.39E-03,2.07E-02
81473,6.39E-03,2.06E-02
81474,6.39E-03,2.06E-02
81475,6.39E-03,2.06E-02
81476,6.39E-03,2.06E-02
81477,6.39E-03,2.06E-02
81478,6.39E-03,2.07E-02
81479,6.39E-03,2.07E-02
81480,6.39E-03,2.08E-02
81481,6.39E-03,2.08E-02
81482,6.39E-03,2.09E-02
81483,6.39E-03,2.09E-02
81484,6.39E-03,2.08E-02
81485,6.39E-03,2.07E-02
81486,6.39E-03,2.06E-02
81487,6.39E-03,2.05E-02
81488,6.39E-03,2.04E-02
81489,6.39E-03,2.02E-02
81490,6.39E-03,2.01E-02
81491,6.39E-03,2.00E-02
81492,6.39E-03,2.00E-02
81493,6.39E-03,2.00E-02
81494,6.39E-03,2.00E-02
81495,6.39E-03,2.00E-02
81496,6.39E-03,2.00E-02
81497,6.39E-03,2.00E-02
81498,6.39E-03,1.99E-02
81499,6.39E-03,1.98E-02
81500,6.39E-03,1.97E-02
81501,6.39E-03,1.96E-02
81502,6.39E-03,1.95E-02
81503,6.39E-03,1.93E-02
81504,6.39E-03,1.92E-02
81505,6.39E-03,1.91E-02
81506,6.39E-03,1.90E-02
81507,6.39E-03,1.89E-02
81508,6.39E-03,1.88E-02
81509,6.39E-03,1.86E-02
81510,6.39E-03,1.85E-02
81511,6.39E-03,1.83E-02
81512,6.39E-03,1.81E-02
81513,6.39E-03,1.79E-02
81514,6.39E-03,1.77E-02
81515,6.39E-03,1.75E-02
81516,6.39E-03,1.73E-02
81517,6.39E-03,1.71E-02
81518,6.39E-03,1.70E-02
81519,6.39E-03,1.68E-02
81520,6.39E-03,1.66E-02
81521,6.39E-03,1.65E-02
81522,6.39E-03,1.64E-02
81523,6.39E-03,1.63E-02
81524,6.39E-03,1.62E-02
81525,6.39E-03,1.61E-02
81526,6.39E-03,1.60E-02
81527,6.39E-03,1.59E-02
81528,6.39E-03,1.58E-02
81529,6.39E-03,1.57E-02
81530,6.39E-03,1.56E-02
81531,6.39E-03,1.55E-02
81532,6.39E-03,1.54E-02
81533,6.39E-03,1.53E-02
81534,6.39E-03,1.51E-02
81535,6.39E-03,1.50E-02
81536,6.39E-03,1.48E-02
81537,6.39E-03,1.47E-02
81538,6.39E-03,1.45E-02
81539,6.39E-03,1.44E-02
81540,6.39E-03,1.43E-02
81541,6.39E-03,1.41E-02
81542,6.39E-03,1.40E-02
81543,6.39E-03,1.39E-02
81544,6.39E-03,1.38E-02
81545,6.39E-03,1.36E-02
81546,6.39E-03,1.35E-02
81547,6.39E-03,1.34E-02
81548,6.39E-03,1.33E-02
81549,6.39E-03,1.32E-02
81550,6.39E-03,1.31E-02
81551,6.39E-03,1.30E-02
81552,6.39E-03,1.30E-02
81553,6.39E-03,1.29E-02
81554,6.39E-03,1.29E-02
81555,6.39E-03,1.28E-02
81556,6.39E-03,1.28E-02
81557,6.39E-03,1.28E-02
81558,6.39E-03,1.29E-02
81559,6.39E-03,1.29E-02
81560,6.39E-03,1.30E-02
81561,6.39E-03,1.31E-02
81562,6.39E-03,1.31E-02
81563,6.39E-03,1.32E-02
81564,6.39E-03,1.33E-02
81565,6.39E-03,1.34E-02
81566,6.39E-03,1.35E-02
81567,6.39E-03,1.36E-02
81568,6.39E-03,1.37E-02
81569,6.39E-03,1.38E-02
81570,6.39E-03,1.39E-02
81571,6.39E-03,1.40E-02
81572,6.39E-03,1.41E-02
81573,6.39E-03,1.42E-02
81574,6.39E-03,1.43E-02
81575,6.39E-03,1.45E-02
81576,6.39E-03,1.46E-02
81577,6.39E-03,1.47E-02
81578,6.39E-03,1.48E-02
81579,6.39E-03,1.49E-02
81580,6.39E-03,1.50E-02
81581,6.39E-03,1.52E-02
81582,6.39E-03,1.53E-02
81583,6.39E-03,1.54E-02
81584,6.39E-03,1.55E-02
81585,6.39E-03,1.56E-02
81586,6.39E-03,2.13E-02
81587,6.39E-03,2.12E-02
81588,6.39E-03,2.11E-02
81589,6.39E-03,2.11E-02
81590,6.39E-03,2.10E-02
81591,6.39E-03,2.10E-02
81592,6.39E-03,2.09E-02
81593,6.39E-03,2.09E-02
81594,6.39E-03,2.09E-02
81595,6.39E-03,2.09E-02
81596,6.39E-03,2.09E-02
81597,6.39E-03,2.09E-02
81598,6.39E-03,2.09E-02
81599,6.39E-03,2.09E-02
81600,6.39E-03,2.09E-02
81601,6.39E-03,2.09E-02
81602,6.39E-03,2.09E-02
81603,6.39E-03,2.08E-02
81604,6.39E-03,2.08E-02
81605,6.39E-03,2.08E-02
81606,6.39E-03,2.08E-02
81607,6.39E-03,2.07E-02
81608,6.39E-03,2.07E-02
81609,6.39E-03,2.06E-02
81610,6.39E-03,2.06E-02
81611,6.39E-03,2.06E-02
81612,6.39E-03,2.06E-02
81613,6.39E-03,2.06E-02
81614,6.39E-03,2.06E-02
81615,6.39E-03,2.06E-02
81616,6.39E-03,2.06E-02
81617,6.39E-03,2.07E-02
81618,6.39E-03,2.06E-02
81619,6.39E-03,2.06E-02
81620,6.39E-03,2.05E-02
81621,6.39E-03,2.04E-02
81622,6.39E-03,2.03E-02
81623,6.39E-03,2.02E-02
81624,6.39E-03,2.01E-02
81625,6.39E-03,1.99E-02
81626,6.39E-03,1.98E-02
81627,6.39E-03,1.98E-02
81628,6.39E-03,1.97E-02
81629,6.39E-03,1.97E-02
81630,6.39E-03,1.96E-02
81631,6.39E-03,1.96E-02
81632,6.39E-03,1.96E-02
81633,6.39E-03,1.96E-02
81634,6.39E-03,1.96E-02
81635,6.39E-03,1.95E-02
81636,6.39E-03,1.95E-02
81637,6.39E-03,1.94E-02
81638,6.39E-03,1.93E-02
81639,6.39E-03,1.92E-02
81640,6.39E-03,1.91E-02
81641,6.39E-03,1.90E-02
81642,6.39E-03,1.89E-02
81643,6.39E-03,1.88E-02
81644,6.39E-03,1.87E-02
81645,6.39E-03,1.85E-02
81646,6.39E-03,1.84E-02
81647,6.39E-03,1.83E-02
81648,6.39E-03,1.81E-02
81649,6.39E-03,1.79E-02
81650,6.39E-03,1.77E-02
81651,6.39E-03,1.76E-02
81652,6.39E-03,1.74E-02
81653,6.39E-03,1.72E-02
81654,6.39E-03,1.70E-02
81655,6.39E-03,1.69E-02
81656,6.39E-03,1.67E-02
81657,6.39E-03,1.66E-02
81658,6.39E-03,1.65E-02
81659,6.39E-03,1.64E-02
81660,6.39E-03,1.63E-02
81661,6.39E-03,1.62E-02
81662,6.39E-03,1.61E-02
81663,6.39E-03,1.60E-02
81664,6.39E-03,1.59E-02
81665,6.39E-03,1.58E-02
81666,6.39E-03,1.57E-02
81667,6.39E-03,1.56E-02
81668,6.39E-03,1.55E-02
81669,6.39E-03,1.54E-02
81670,6.39E-03,1.53E-02
81671,6.39E-03,1.51E-02
81672,6.39E-03,1.50E-02
81673,6.39E-03,1.49E-02
81674,6.39E-03,1.47E-02
81675,6.39E-03,1.46E-02
81676,6.39E-03,1.45E-02
81677,6.39E-03,1.43E-02
81678,6.39E-03,1.42E-02
81679,6.39E-03,1.41E-02
81680,6.39E-03,1.40E-02
81681,6.39E-03,1.39E-02
81682,6.39E-03,1.38E-02
81683,6.39E-03,1.37E-02
81684,6.39E-03,1.36E-02
81685,6.39E-03,1.35E-02
81686,6.39E-03,1.34E-02
81687,6.39E-03,1.34E-02
81688,6.39E-03,1.33E-02
81689,6.39E-03,1.33E-02
81690,6.39E-03,1.32E-02
81691,6.39E-03,1.32E-02
81692,6.39E-03,1.32E-02
81693,6.39E-03,1.33E-02
81694,6.39E-03,1.33E-02
81695,6.39E-03,1.34E-02
81696,6.39E-03,1.34E-02
81697,6.39E-03,1.35E-02
81698,6.39E-03,1.36E-02
81699,6.39E-03,1.37E-02
81700,6.39E-03,1.38E-02
81701,6.39E-03,1.39E-02
81702,6.39E-03,1.40E-02
81703,6.39E-03,1.41E-02
81704,6.39E-03,1.42E-02
81705,6.39E-03,1.43E-02
81706,6.39E-03,1.44E-02
81707,6.39E-03,1.45E-02
81708,6.39E-03,1.46E-02
81709,6.39E-03,1.47E-02
81710,6.39E-03,1.48E-02
81711,6.39E-03,1.49E-02
81712,6.39E-03,1.50E-02
81713,6.39E-03,1.52E-02
81714,6.39E-03,1.53E-02
81715,6.39E-03,1.54E-02
81716,6.39E-03,1.55E-02
81717,6.39E-03,1.56E-02
81718,6.39E-03,1.57E-02
81719,6.39E-03,1.58E-02
81720,6.39E-03,1.59E-02
81721,6.39E-03,1.60E-02
81722,6.39E-03,2.12E-02
81723,6.39E-03,2.11E-02
81724,6.39E-03,2.10E-02
81725,6.39E-03,2.10E-02
81726,6.39E-03,2.09E-02
81727,6.39E-03,2.09E-02
81728,6.39E-03,2.09E-02
81729,6.39E-03,2.08E-02
81730,6.39E-03,2.08E-02
81731,6.39E-03,2.08E-02
81732,6.39E-03,2.08E-02
81733,6.39E-03,2.08E-02
81734,6.39E-03,2.08E-02
81735,6.39E-03,2.08E-02
81736,6.39E-03,2.08E-02
81737,6.39E-03,2.08E-02
81738,6.39E-03,2.08E-02
81739,6.39E-03,2.08E-02
81740,6.39E-03,2.08E-02
81741,6.39E-03,2.07E-02
81742,6.39E-03,2.07E-02
81743,6.39E-03,2.07E-02
81744,6.39E-03,2.06E-02
81745,6.39E-03,2.06E-02
81746,6.39E-03,2.06E-02
81747,6.39E-03,2.05E-02
81748,6.39E-03,2.05E-02
81749,6.39E-03,2.05E-02
81750,6.39E-03,2.05E-02
81751,6.39E-03,2.05E-02
81752,6.39E-03,2.05E-02
81753,6.39E-03,2.05E-02
81754,6.39E-03,2.04E-02
81755,6.39E-03,2.04E-02
81756,6.39E-03,2.03E-02
81757,6.39E-03,2.02E-02
81758,6.39E-03,2.01E-02
81759,6.39E-03,2.00E-02
81760,6.39E-03,1.98E-02
81761,6.39E-03,1.97E-02
81762,6.39E-03,1.96E-02
81763,6.39E-03,1.95E-02
81764,6.39E-03,1.95E-02
81765,6.39E-03,1.94E-02
81766,6.39E-03,1.94E-02
81767,6.39E-03,1.94E-02
81768,6.39E-03,1.94E-02
81769,6.39E-03,1.93E-02
81770,6.39E-03,1.93E-02
81771,6.39E-03,1.93E-02
81772,6.39E-03,1.92E-02
81773,6.39E-03,1.92E-02
81774,6.39E-03,1.91E-02
81775,6.39E-03,1.90E-02
81776,6.39E-03,1.90E-02
81777,6.39E-03,1.89E-02
81778,6.39E-03,1.88E-02
81779,6.39E-03,1.87E-02
81780,6.39E-03,1.86E-02
81781,6.39E-03,1.85E-02
81782,6.39E-03,1.83E-02
81783,6.39E-03,1.82E-02
81784,6.39E-03,1.81E-02
81785,6.39E-03,1.79E-02
81786,6.39E-03,1.77E-02
81787,6.39E-03,1.76E-02
81788,6.39E-03,1.74E-02
81789,6.39E-03,1.72E-02
81790,6.39E-03,1.71E-02
81791,6.39E-03,1.70E-02
81792,6.39E-03,1.68E-02
81793,6.39E-03,1.67E-02
81794,6.39E-03,1.66E-02
81795,6.39E-03,1.65E-02
81796,6.39E-03,1.64E-02
81797,6.39E-03,1.63E-02
81798,6.39E-03,1.62E-02
81799,6.39E-03,1.61E-02
81800,6.39E-03,1.60E-02
81801,6.39E-03,1.59E-02
81802,6.39E-03,1.58E-02
81803,6.39E-03,1.57E-02
81804,6.39E-03,1.56E-02
81805,6.39E-03,1.55E-02
81806,6.39E-03,1.54E-02
81807,6.39E-03,1.53E-02
81808,6.39E-03,1.52E-02
81809,6.39E-03,1.51E-02
81810,6.39E-03,1.49E-02
81811,6.39E-03,1.48E-02
81812,6.39E-03,1.47E-02
81813,6.39E-03,1.46E-02
81814,6.39E-03,1.45E-02
81815,6.39E-03,1.43E-02
81816,6.39E-03,1.42E-02
81817,6.39E-03,1.41E-02
81818,6.39E-03,1.41E-02
81819,6.39E-03,1.40E-02
81820,6.39E-03,1.39E-02
81821,6.39E-03,1.38E-02
81822,6.39E-03,1.38E-02
81823,6.39E-03,1.37E-02
81824,6.39E-03,1.37E-02
81825,6.39E-03,1.36E-02
81826,6.39E-03,1.36E-02
81827,6.39E-03,1.36E-02
81828,6.39E-03,1.36E-02
81829,6.39E-03,1.37E-02
81830,6.39E-03,1.37E-02
81831,6.39E-03,1.38E-02
81832,6.39E-03,1.38E-02
81833,6.39E-03,1.39E-02
81834,6.39E-03,1.40E-02
81835,6.39E-03,1.41E-02
81836,6.39E-03,1.42E-02
81837,6.39E-03,1.43E-02
81838,6.39E-03,1.44E-02
81839,6.39E-03,1.45E-02
81840,6.39E-03,1.46E-02
81841,6.39E-03,1.47E-02
81842,6.39E-03,1.48E-02
81843,6.39E-03,1.49E-02
81844,6.39E-03,1.51E-02
81845,6.39E-03,1.52E-02
81846,6.39E-03,1.53E-02
81847,6.39E-03,1.54E-02
81848,6.39E-03,1.55E-02
81849,6.39E-03,1.56E-02
81850,6.39E-03,1.57E-02
81851,6.39E-03,1.58E-02
81852,6.39E-03,1.59E-02
81853,6.39E-03,1.60E-02
81854,6.39E-03,1.62E-02
81855,6.39E-03,1.63E-02
81856,6.39E-03,1.64E-02
81857,6.39E-03,1.65E-02
81858,6.39E-03,2.11E-02
81859,6.39E-03,2.10E-02
81860,6.39E-03,2.10E-02
81861,6.39E-03,2.09E-02
81862,6.39E-03,2.09E-02
81863,6.39E-03,2.08E-02
81864,6.39E-03,2.08E-02
81865,6.39E-03,2.08E-02
81866,6.39E-03,2.08E-02
81867,6.39E-03,2.08E-02
81868,6.39E-03,2.08E-02
81869,6.39E-03,2.08E-02
81870,6.39E-03,2.08E-02
81871,6.39E-03,2.08E-02
81872,6.39E-03,2.08E-02
81873,6.39E-03,2.07E-02
81874,6.39E-03,2.07E-02
81875,6.39E-03,2.07E-02
81876,6.39E-03,2.07E-02
81877,6.39E-03,2.07E-02
81878,6.39E-03,2.06E-02
81879,6.39E-03,2.06E-02
81880,6.39E-03,2.06E-02
81881,6.39E-03,2.05E-02
81882,6.39E-03,2.05E-02
81883,6.39E-03,2.05E-02
81884,6.39E-03,2.05E-02
81885,6.39E-03,2.04E-02
81886,6.39E-03,2.04E-02
81887,6.39E-03,2.04E-02
81888,6.39E-03,2.03E-02
81889,6.39E-03,2.03E-02
81890,6.39E-03,2.02E-02
81891,6.39E-03,2.02E-02
81892,6.39E-03,2.01E-02
81893,6.39E-03,2.00E-02
81894,6.39E-03,1.99E-02
81895,6.39E-03,1.97E-02
81896,6.39E-03,1.96E-02
81897,6.39E-03,1.95E-02
81898,6.39E-03,1.94E-02
81899,6.39E-03,1.93E-02
81900,6.39E-03,1.93E-02
81901,6.39E-03,1.92E-02
81902,6.39E-03,1.92E-02
81903,6.39E-03,1.92E-02
81904,6.39E-03,1.91E-02
81905,6.39E-03,1.91E-02
81906,6.39E-03,1.91E-02
81907,6.39E-03,1.91E-02
81908,6.39E-03,1.90E-02
81909,6.39E-03,1.90E-02
81910,6.39E-03,1.89E-02
81911,6.39E-03,1.89E-02
81912,6.39E-03,1.88E-02
81913,6.39E-03,1.88E-02
81914,6.39E-03,1.87E-02
81915,6.39E-03,1.86E-02
81916,6.39E-03,1.85E-02
81917,6.39E-03,1.84E-02
81918,6.39E-03,1.83E-02
81919,6.39E-03,1.82E-02
81920,6.39E-03,1.80E-02
81921,6.39E-03,1.79E-02
81922,6.39E-03,1.77E-02
81923,6.39E-03,1.76E-02
81924,6.39E-03,1.74E-02
81925,6.39E-03,1.73E-02
81926,6.39E-03,1.72E-02
81927,6.39E-03,1.70E-02
81928,6.39E-03,1.69E-02
81929,6.39E-03,1.68E-02
81930,6.39E-03,1.67E-02
81931,6.39E-03,1.66E-02
81932,6.39E-03,1.65E-02
81933,6.39E-03,1.64E-02
81934,6.39E-03,1.63E-02
81935,6.39E-03,1.62E-02
81936,6.39E-03,1.61E-02
81937,6.39E-03,1.60E-02
81938,6.39E-03,1.59E-02
81939,6.39E-03,1.58E-02
81940,6.39E-03,1.58E-02
81941,6.39E-03,1.57E-02
81942,6.39E-03,1.56E-02
81943,6.39E-03,1.54E-02
81944,6.39E-03,1.53E-02
81945,6.39E-03,1.52E-02
81946,6.39E-03,1.51E-02
81947,6.39E-03,1.50E-02
81948,6.39E-03,1.49E-02
81949,6.39E-03,1.48E-02
81950,6.39E-03,1.47E-02
81951,6.39E-03,1.46E-02
81952,6.39E-03,1.45E-02
81953,6.39E-03,1.44E-02
81954,6.39E-03,1.43E-02
81955,6.39E-03,1.43E-02
81956,6.39E-03,1.42E-02
81957,6.39E-03,1.41E-02
81958,6.39E-03,1.41E-02
81959,6.39E-03,1.40E-02
81960,6.39E-03,1.40E-02
81961,6.39E-03,1.40E-02
81962,6.39E-03,1.40E-02
81963,6.39E-03,1.40E-02
81964,6.39E-03,1.40E-02
81965,6.39E-03,1.41E-02
81966,6.39E-03,1.41E-02
81967,6.39E-03,1.42E-02
81968,6.39E-03,1.42E-02
81969,6.39E-03,1.43E-02
81970,6.39E-03,1.44E-02
81971,6.39E-03,1.45E-02
81972,6.39E-03,1.46E-02
81973,6.39E-03,1.47E-02
81974,6.39E-03,1.48E-02
81975,6.39E-03,1.49E-02
81976,6.39E-03,1.50E-02
81977,6.39E-03,1.51E-02
81978,6.39E-03,1.53E-02
81979,6.39E-03,1.54E-02
81980,6.39E-03,1.55E-02
81981,6.39E-03,1.56E-02
81982,6.39E-03,1.57E-02
81983,6.39E-03,1.58E-02
81984,6.39E-03,1.59E-02
81985,6.39E-03,1.60E-02
81986,6.39E-03,1.61E-02
81987,6.39E-03,1.62E-02
81988,6.39E-03,1.64E-02
81989,6.39E-03,1.65E-02
81990,6.39E-03,1.66E-02
81991,6.39E-03,1.67E-02
81992,6.39E-03,1.68E-02
81993,6.39E-03,1.69E-02
81994,6.39E-03,2.10E-02
81995,6.39E-03,2.09E-02
81996,6.39E-03,2.09E-02
81997,6.39E-03,2.08E-02
81998,6.39E-03,2.08E-02
81999,6.39E-03,2.08E-02
82000,6.39E-03,2.07E-02
82001,6.39E-03,2.07E-02
82002,6.39E-03,2.07E-02
82003,6.39E-03,2.07E-02
82004,6.39E-03,2.07E-02
82005,6.39E-03,2.07E-02
82006,6.39E-03,2.07E-02
82007,6.39E-03,2.07E-02
82008,6.39E-03,2.07E-02
82009,6.39E-03,2.07E-02
82010,6.39E-03,2.07E-02
82011,6.39E-03,2.06E-02
82012,6.39E-03,2.06E-02
82013,6.39E-03,2.06E-02
82014,6.39E-03,2.06E-02
82015,6.39E-03,2.05E-02
82016,6.39E-03,2.05E-02
82017,6.39E-03,2.05E-02
82018,6.39E-03,2.04E-02
82019,6.39E-03,2.04E-02
82020,6.39E-03,2.04E-02
82021,6.39E-03,2.03E-02
82022,6.39E-03,2.03E-02
82023,6.39E-03,2.02E-02
82024,6.39E-03,2.02E-02
82025,6.39E-03,2.01E-02
82026,6.39E-03,2.00E-02
82027,6.39E-03,2.00E-02
82028,6.39E-03,1.99E-02
82029,6.39E-03,1.98E-02
82030,6.39E-03,1.97E-02
82031,6.39E-03,1.96E-02
82032,6.39E-03,1.94E-02
82033,6.39E-03,1.93E-02
82034,6.39E-03,1.93E-02
82035,6.39E-03,1.92E-02
82036,6.39E-03,1.91E-02
82037,6.39E-03,1.91E-02
82038,6.39E-03,1.90E-02
82039,6.39E-03,1.90E-02
82040,6.39E-03,1.90E-02
82041,6.39E-03,1.89E-02
82042,6.39E-03,1.89E-02
82043,6.39E-03,1.89E-02
82044,6.39E-03,1.89E-02
82045,6.39E-03,1.88E-02
82046,6.39E-03,1.88E-02
82047,6.39E-03,1.88E-02
82048,6.39E-03,1.87E-02
82049,6.39E-03,1.86E-02
82050,6.39E-03,1.86E-02
82051,6.39E-03,1.85E-02
82052,6.39E-03,1.84E-02
82053,6.39E-03,1.83E-02
82054,6.39E-03,1.82E-02
82055,6.39E-03,1.81E-02
82056,6.39E-03,1.80E-02
82057,6.39E-03,1.79E-02
82058,6.39E-03,1.77E-02
82059,6.39E-03,1.76E-02
82060,6.39E-03,1.75E-02
82061,6.39E-03,1.73E-02
82062,6.39E-03,1.72E-02
82063,6.39E-03,1.71E-02
82064,6.39E-03,1.70E-02
82065,6.39E-03,1.69E-02
82066,6.39E-03,1.68E-02
82067,6.39E-03,1.67E-02
82068,6.39E-03,1.66E-02
82069,6.39E-03,1.65E-02
82070,6.39E-03,1.64E-02
82071,6.39E-03,1.63E-02
82072,6.39E-03,1.62E-02
82073,6.39E-03,1.61E-02
82074,6.39E-03,1.61E-02
82075,6.39E-03,1.60E-02
82076,6.39E-03,1.59E-02
82077,6.39E-03,1.58E-02
82078,6.39E-03,1.57E-02
82079,6.39E-03,1.56E-02
82080,6.39E-03,1.55E-02
82081,6.39E-03,1.54E-02
82082,6.39E-03,1.53E-02
82083,6.39E-03,1.52E-02
82084,6.39E-03,1.51E-02
82085,6.39E-03,1.50E-02
82086,6.39E-03,1.49E-02
82087,6.39E-03,1.48E-02
82088,6.39E-03,1.47E-02
82089,6.39E-03,1.47E-02
82090,6.39E-03,1.46E-02
82091,6.39E-03,1.45E-02
82092,6.39E-03,1.45E-02
82093,6.39E-03,1.44E-02
82094,6.39E-03,1.44E-02
82095,6.39E-03,1.44E-02
82096,6.39E-03,1.43E-02
82097,6.39E-03,1.43E-02
82098,6.39E-03,1.44E-02
82099,6.39E-03,1.44E-02
82100,6.39E-03,1.44E-02
82101,6.39E-03,1.44E-02
82102,6.39E-03,1.45E-02
82103,6.39E-03,1.46E-02
82104,6.39E-03,1.46E-02
82105,6.39E-03,1.47E-02
82106,6.39E-03,1.48E-02
82107,6.39E-03,1.49E-02
82108,6.39E-03,1.50E-02
82109,6.39E-03,1.51E-02
82110,6.39E-03,1.52E-02
82111,6.39E-03,1.53E-02
82112,6.39E-03,1.54E-02
82113,6.39E-03,1.55E-02
82114,6.39E-03,1.57E-02
82115,6.39E-03,1.58E-02
82116,6.39E-03,1.59E-02
82117,6.39E-03,1.60E-02
82118,6.39E-03,1.61E-02
82119,6.39E-03,1.62E-02
82120,6.39E-03,1.63E-02
82121,6.39E-03,1.64E-02
82122,6.39E-03,1.65E-02
82123,6.39E-03,1.66E-02
82124,6.39E-03,1.67E-02
82125,6.39E-03,1.68E-02
82126,6.39E-03,1.69E-02
82127,6.39E-03,1.70E-02
82128,6.39E-03,1.71E-02
82129,6.39E-03,1.72E-02
82130,6.39E-03,2.09E-02
82131,6.39E-03,2.08E-02
82132,6.39E-03,2.08E-02
82133,6.39E-03,2.08E-02
82134,6.39E-03,2.07E-02
82135,6.39E-03,2.07E-02
82136,6.39E-03,2.07E-02
82137,6.39E-03,2.07E-02
82138,6.39E-03,2.06E-02
82139,6.39E-03,2.06E-02
82140,6.39E-03,2.06E-02
82141,6.39E-03,2.06E-02
82142,6.39E-03,2.06E-02
82143,6.39E-03,2.06E-02
82144,6.39E-03,2.06E-02
82145,6.39E-03,2.06E-02
82146,6.39E-03,2.06E-02
82147,6.39E-03,2.06E-02
82148,6.39E-03,2.05E-02
82149,6.39E-03,2.05E-02
82150,6.39E-03,2.05E-02
82151,6.39E-03,2.04E-02
82152,6.39E-03,2.04E-02
82153,6.39E-03,2.04E-02
82154,6.39E-03,2.03E-02
82155,6.39E-03,2.03E-02
82156,6.39E-03,2.02E-02
82157,6.39E-03,2.02E-02
82158,6.39E-03,2.01E-02
82159,6.39E-03,2.01E-02
82160,6.39E-03,2.00E-02
82161,6.39E-03,2.00E-02
82162,6.39E-03,1.99E-02
82163,6.39E-03,1.98E-02
82164,6.39E-03,1.97E-02
82165,6.39E-03,1.96E-02
82166,6.39E-03,1.95E-02
82167,6.39E-03,1.94E-02
82168,6.39E-03,1.93E-02
82169,6.39E-03,1.92E-02
82170,6.39E-03,1.91E-02
82171,6.39E-03,1.90E-02
82172,6.39E-03,1.90E-02
82173,6.39E-03,1.89E-02
82174,6.39E-03,1.89E-02
82175,6.39E-03,1.88E-02
82176,6.39E-03,1.88E-02
82177,6.39E-03,1.88E-02
82178,6.39E-03,1.88E-02
82179,6.39E-03,1.87E-02
82180,6.39E-03,1.87E-02
82181,6.39E-03,1.87E-02
82182,6.39E-03,1.87E-02
82183,6.39E-03,1.86E-02
82184,6.39E-03,1.86E-02
82185,6.39E-03,1.85E-02
82186,6.39E-03,1.85E-02
82187,6.39E-03,1.84E-02
82188,6.39E-03,1.83E-02
82189,6.39E-03,1.82E-02
82190,6.39E-03,1.82E-02
82191,6.39E-03,1.81E-02
82192,6.39E-03,1.80E-02
82193,6.39E-03,1.78E-02
82194,6.39E-03,1.77E-02
82195,6.39E-03,1.76E-02
82196,6.39E-03,1.75E-02
82197,6.39E-03,1.74E-02
82198,6.39E-03,1.73E-02
82199,6.39E-03,1.72E-02
82200,6.39E-03,1.71E-02
82201,6.39E-03,1.70E-02
82202,6.39E-03,1.69E-02
82203,6.39E-03,1.68E-02
82204,6.39E-03,1.67E-02
82205,6.39E-03,1.66E-02
82206,6.39E-03,1.65E-02
82207,6.39E-03,1.64E-02
82208,6.39E-03,1.63E-02
82209,6.39E-03,1.63E-02
82210,6.39E-03,1.62E-02
82211,6.39E-03,1.61E-02
82212,6.39E-03,1.60E-02
82213,6.39E-03,1.59E-02
82214,6.39E-03,1.59E-02
82215,6.39E-03,1.58E-02
82216,6.39E-03,1.57E-02
82217,6.39E-03,1.56E-02
82218,6.39E-03,1.55E-02
82219,6.39E-03,1.54E-02
82220,6.39E-03,1.53E-02
82221,6.39E-03,1.52E-02
82222,6.39E-03,1.51E-02
82223,6.39E-03,1.51E-02
82224,6.39E-03,1.50E-02
82225,6.39E-03,1.49E-02
82226,6.39E-03,1.49E-02
82227,6.39E-03,1.48E-02
82228,6.39E-03,1.48E-02
82229,6.39E-03,1.47E-02
82230,6.39E-03,1.47E-02
82231,6.39E-03,1.47E-02
82232,6.39E-03,1.47E-02
82233,6.39E-03,1.47E-02
82234,6.39E-03,1.47E-02
82235,6.39E-03,1.47E-02
82236,6.39E-03,1.48E-02
82237,6.39E-03,1.48E-02
82238,6.39E-03,1.49E-02
82239,6.39E-03,1.49E-02
82240,6.39E-03,1.50E-02
82241,6.39E-03,1.51E-02
82242,6.39E-03,1.52E-02
82243,6.39E-03,1.53E-02
82244,6.39E-03,1.54E-02
82245,6.39E-03,1.55E-02
82246,6.39E-03,1.56E-02
82247,6.39E-03,1.57E-02
82248,6.39E-03,1.58E-02
82249,6.39E-03,1.59E-02
82250,6.39E-03,1.60E-02
82251,6.39E-03,1.62E-02
82252,6.39E-03,1.63E-02
82253,6.39E-03,1.64E-02
82254,6.39E-03,1.65E-02
82255,6.39E-03,1.66E-02
82256,6.39E-03,1.67E-02
82257,6.39E-03,1.68E-02
82258,6.39E-03,1.69E-02
82259,6.39E-03,1.70E-02
82260,6.39E-03,1.71E-02
82261,6.39E-03,1.72E-02
82262,6.39E-03,1.73E-02
82263,6.39E-03,1.74E-02
82264,6.39E-03,1.75E-02
82265,6.39E-03,1.76E-02
82266,6.39E-03,2.08E-02
82267,6.39E-03,2.07E-02
82268,6.39E-03,2.07E-02
82269,6.39E-03,2.07E-02
82270,6.39E-03,2.06E-02
82271,6.39E-03,2.06E-02
82272,6.39E-03,2.06E-02
82273,6.39E-03,2.06E-02
82274,6.39E-03,2.06E-02
82275,6.39E-03,2.06E-02
82276,6.39E-03,2.05E-02
82277,6.39E-03,2.05E-02
82278,6.39E-03,2.05E-02
82279,6.39E-03,2.05E-02
82280,6.39E-03,2.05E-02
82281,6.39E-03,2.05E-02
82282,6.39E-03,2.05E-02
82283,6.39E-03,2.05E-02
82284,6.39E-03,2.04E-02
82285,6.39E-03,2.04E-02
82286,6.39E-03,2.04E-02
82287,6.39E-03,2.03E-02
82288,6.39E-03,2.03E-02
82289,6.39E-03,2.03E-02
82290,6.39E-03,2.02E-02
82291,6.39E-03,2.02E-02
82292,6.39E-03,2.01E-02
82293,6.39E-03,2.01E-02
82294,6.39E-03,2.00E-02
82295,6.39E-03,2.00E-02
82296,6.39E-03,1.99E-02
82297,6.39E-03,1.98E-02
82298,6.39E-03,1.97E-02
82299,6.39E-03,1.96E-02
82300,6.39E-03,1.95E-02
82301,6.39E-03,1.94E-02
82302,6.39E-03,1.93E-02
82303,6.39E-03,1.92E-02
82304,6.39E-03,1.92E-02
82305,6.39E-03,1.91E-02
82306,6.39E-03,1.90E-02
82307,6.39E-03,1.89E-02
82308,6.39E-03,1.88E-02
82309,6.39E-03,1.88E-02
82310,6.39E-03,1.87E-02
82311,6.39E-03,1.87E-02
82312,6.39E-03,1.87E-02
82313,6.39E-03,1.87E-02
82314,6.39E-03,1.86E-02
82315,6.39E-03,1.86E-02
82316,6.39E-03,1.86E-02
82317,6.39E-03,1.86E-02
82318,6.39E-03,1.86E-02
82319,6.39E-03,1.85E-02
82320,6.39E-03,1.85E-02
82321,6.39E-03,1.84E-02
82322,6.39E-03,1.84E-02
82323,6.39E-03,1.83E-02
82324,6.39E-03,1.83E-02
82325,6.39E-03,1.82E-02
82326,6.39E-03,1.81E-02
82327,6.39E-03,1.80E-02
82328,6.39E-03,1.79E-02
82329,6.39E-03,1.78E-02
82330,6.39E-03,1.77E-02
82331,6.39E-03,1.76E-02
82332,6.39E-03,1.75E-02
82333,6.39E-03,1.74E-02
82334,6.39E-03,1.73E-02
82335,6.39E-03,1.72E-02
82336,6.39E-03,1.71E-02
82337,6.39E-03,1.70E-02
82338,6.39E-03,1.69E-02
82339,6.39E-03,1.69E-02
82340,6.39E-03,1.68E-02
82341,6.39E-03,1.67E-02
82342,6.39E-03,1.66E-02
82343,6.39E-03,1.65E-02
82344,6.39E-03,1.65E-02
82345,6.39E-03,1.64E-02
82346,6.39E-03,1.63E-02
82347,6.39E-03,1.62E-02
82348,6.39E-03,1.62E-02
82349,6.39E-03,1.61E-02
82350,6.39E-03,1.60E-02
82351,6.39E-03,1.59E-02
82352,6.39E-03,1.58E-02
82353,6.39E-03,1.58E-02
82354,6.39E-03,1.57E-02
82355,6.39E-03,1.56E-02
82356,6.39E-03,1.55E-02
82357,6.39E-03,1.55E-02
82358,6.39E-03,1.54E-02
82359,6.39E-03,1.53E-02
82360,6.39E-03,1.52E-02
82361,6.39E-03,1.52E-02
82362,6.39E-03,1.51E-02
82363,6.39E-03,1.51E-02
82364,6.39E-03,1.51E-02
82365,6.39E-03,1.50E-02
82366,6.39E-03,1.50E-02
82367,6.39E-03,1.50E-02
82368,6.39E-03,1.50E-02
82369,6.39E-03,1.50E-02
82370,6.39E-03,1.50E-02
82371,6.39E-03,1.51E-02
82372,6.39E-03,1.51E-02
82373,6.39E-03,1.52E-02
82374,6.39E-03,1.52E-02
82375,6.39E-03,1.53E-02
82376,6.39E-03,1.54E-02
82377,6.39E-03,1.55E-02
82378,6.39E-03,1.56E-02
82379,6.39E-03,1.57E-02
82380,6.39E-03,1.58E-02
82381,6.39E-03,1.59E-02
82382,6.39E-03,1.60E-02
82383,6.39E-03,1.61E-02
82384,6.39E-03,1.62E-02
82385,6.39E-03,1.63E-02
82386,6.39E-03,1.64E-02
82387,6.39E-03,1.65E-02
82388,6.39E-03,1.66E-02
82389,6.39E-03,1.67E-02
82390,6.39E-03,1.69E-02
82391,6.39E-03,1.70E-02
82392,6.39E-03,1.71E-02
82393,6.39E-03,1.72E-02
82394,6.39E-03,1.73E-02
82395,6.39E-03,1.74E-02
82396,6.39E-03,1.75E-02
82397,6.39E-03,1.76E-02
82398,6.39E-03,1.77E-02
82399,6.39E-03,1.78E-02
82400,6.39E-03,1.79E-02
82401,6.39E-03,1.80E-02
82402,6.39E-03,2.07E-02
82403,6.39E-03,2.06E-02
82404,6.39E-03,2.06E-02
82405,6.39E-03,2.06E-02
82406,6.39E-03,2.06E-02
82407,6.39E-03,2.05E-02
82408,6.39E-03,2.05E-02
82409,6.39E-03,2.05E-02
82410,6.39E-03,2.05E-02
82411,6.39E-03,2.05E-02
82412,6.39E-03,2.05E-02
82413,6.39E-03,2.04E-02
82414,6.39E-03,2.04E-02
82415,6.39E-03,2.04E-02
82416,6.39E-03,2.04E-02
82417,6.39E-03,2.04E-02
82418,6.39E-03,2.04E-02
82419,6.39E-03,2.04E-02
82420,6.39E-03,2.03E-02
82421,6.39E-03,2.03E-02
82422,6.39E-03,2.03E-02
82423,6.39E-03,2.02E-02
82424,6.39E-03,2.02E-02
82425,6.39E-03,2.02E-02
82426,6.39E-03,2.01E-02
82427,6.39E-03,2.01E-02
82428,6.39E-03,2.00E-02
82429,6.39E-03,1.99E-02
82430,6.39E-03,1.99E-02
82431,6.39E-03,1.98E-02
82432,6.39E-03,1.97E-02
82433,6.39E-03,1.97E-02
82434,6.39E-03,1.96E-02
82435,6.39E-03,1.95E-02
82436,6.39E-03,1.94E-02
82437,6.39E-03,1.93E-02
82438,6.39E-03,1.92E-02
82439,6.39E-03,1.91E-02
82440,6.39E-03,1.90E-02
82441,6.39E-03,1.89E-02
82442,6.39E-03,1.89E-02
82443,6.39E-03,1.88E-02
82444,6.39E-03,1.87E-02
82445,6.39E-03,1.87E-02
82446,6.39E-03,1.86E-02
82447,6.39E-03,1.86E-02
82448,6.39E-03,1.86E-02
82449,6.39E-03,1.86E-02
82450,6.39E-03,1.85E-02
82451,6.39E-03,1.85E-02
82452,6.39E-03,1.85E-02
82453,6.39E-03,1.85E-02
82454,6.39E-03,1.85E-02
82455,6.39E-03,1.84E-02
82456,6.39E-03,1.84E-02
82457,6.39E-03,1.84E-02
82458,6.39E-03,1.83E-02
82459,6.39E-03,1.83E-02
82460,6.39E-03,1.82E-02
82461,6.39E-03,1.81E-02
82462,6.39E-03,1.81E-02
82463,6.39E-03,1.80E-02
82464,6.39E-03,1.79E-02
82465,6.39E-03,1.78E-02
82466,6.39E-03,1.77E-02
82467,6.39E-03,1.76E-02
82468,6.39E-03,1.76E-02
82469,6.39E-03,1.75E-02
82470,6.39E-03,1.74E-02
82471,6.39E-03,1.73E-02
82472,6.39E-03,1.72E-02
82473,6.39E-03,1.71E-02
82474,6.39E-03,1.70E-02
82475,6.39E-03,1.69E-02
82476,6.39E-03,1.69E-02
82477,6.39E-03,1.68E-02
82478,6.39E-03,1.67E-02
82479,6.39E-03,1.67E-02
82480,6.39E-03,1.66E-02
82481,6.39E-03,1.65E-02
82482,6.39E-03,1.64E-02
82483,6.39E-03,1.64E-02
82484,6.39E-03,1.63E-02
82485,6.39E-03,1.62E-02
82486,6.39E-03,1.62E-02
82487,6.39E-03,1.61E-02
82488,6.39E-03,1.60E-02
82489,6.39E-03,1.59E-02
82490,6.39E-03,1.59E-02
82491,6.39E-03,1.58E-02
82492,6.39E-03,1.57E-02
82493,6.39E-03,1.57E-02
82494,6.39E-03,1.56E-02
82495,6.39E-03,1.55E-02
82496,6.39E-03,1.55E-02
82497,6.39E-03,1.55E-02
82498,6.39E-03,1.54E-02
82499,6.39E-03,1.54E-02
82500,6.39E-03,1.54E-02
82501,6.39E-03,1.53E-02
82502,6.39E-03,1.53E-02
82503,6.39E-03,1.53E-02
82504,6.39E-03,1.53E-02
82505,6.39E-03,1.54E-02
82506,6.39E-03,1.54E-02
82507,6.39E-03,1.54E-02
82508,6.39E-03,1.55E-02
82509,6.39E-03,1.55E-02
82510,6.39E-03,1.56E-02
82511,6.39E-03,1.57E-02
82512,6.39E-03,1.57E-02
82513,6.39E-03,1.58E-02
82514,6.39E-03,1.59E-02
82515,6.39E-03,1.60E-02
82516,6.39E-03,1.61E-02
82517,6.39E-03,1.62E-02
82518,6.39E-03,1.63E-02
82519,6.39E-03,1.64E-02
82520,6.39E-03,1.65E-02
82521,6.39E-03,1.66E-02
82522,6.39E-03,1.68E-02
82523,6.39E-03,1.69E-02
82524,6.39E-03,1.70E-02
82525,6.39E-03,1.71E-02
82526,6.39E-03,1.72E-02
82527,6.39E-03,1.73E-02
82528,6.39E-03,1.74E-02
82529,6.39E-03,1.75E-02
82530,6.39E-03,1.76E-02
82531,6.39E-03,1.77E-02
82532,6.39E-03,1.78E-02
82533,6.39E-03,1.79E-02
82534,6.39E-03,1.80E-02
82535,6.39E-03,1.81E-02
82536,6.39E-03,1.82E-02
82537,6.39E-03,1.83E-02
82538,6.39E-03,2.06E-02
82539,6.39E-03,2.05E-02
82540,6.39E-03,2.05E-02
82541,6.39E-03,2.05E-02
82542,6.39E-03,2.05E-02
82543,6.39E-03,2.04E-02
82544,6.39E-03,2.04E-02
82545,6.39E-03,2.04E-02
82546,6.39E-03,2.04E-02
82547,6.39E-03,2.04E-02
82548,6.39E-03,2.04E-02
82549,6.39E-03,2.04E-02
82550,6.39E-03,2.03E-02
82551,6.39E-03,2.03E-02
82552,6.39E-03,2.03E-02
82553,6.39E-03,2.03E-02
82554,6.39E-03,2.03E-02
82555,6.39E-03,2.03E-02
82556,6.39E-03,2.02E-02
82557,6.39E-03,2.02E-02
82558,6.39E-03,2.02E-02
82559,6.39E-03,2.01E-02
82560,6.39E-03,2.01E-02
82561,6.39E-03,2.00E-02
82562,6.39E-03,2.00E-02
82563,6.39E-03,1.99E-02
82564,6.39E-03,1.99E-02
82565,6.39E-03,1.98E-02
82566,6.39E-03,1.98E-02
82567,6.39E-03,1.97E-02
82568,6.39E-03,1.96E-02
82569,6.39E-03,1.95E-02
82570,6.39E-03,1.94E-02
82571,6.39E-03,1.94E-02
82572,6.39E-03,1.93E-02
82573,6.39E-03,1.92E-02
82574,6.39E-03,1.91E-02
82575,6.39E-03,1.90E-02
82576,6.39E-03,1.89E-02
82577,6.39E-03,1.88E-02
82578,6.39E-03,1.88E-02
82579,6.39E-03,1.87E-02
82580,6.39E-03,1.86E-02
82581,6.39E-03,1.86E-02
82582,6.39E-03,1.86E-02
82583,6.39E-03,1.85E-02
82584,6.39E-03,1.85E-02
82585,6.39E-03,1.85E-02
82586,6.39E-03,1.84E-02
82587,6.39E-03,1.84E-02
82588,6.39E-03,1.84E-02
82589,6.39E-03,1.84E-02
82590,6.39E-03,1.84E-02
82591,6.39E-03,1.83E-02
82592,6.39E-03,1.83E-02
82593,6.39E-03,1.83E-02
82594,6.39E-03,1.82E-02
82595,6.39E-03,1.82E-02
82596,6.39E-03,1.81E-02
82597,6.39E-03,1.81E-02
82598,6.39E-03,1.80E-02
82599,6.39E-03,1.80E-02
82600,6.39E-03,1.79E-02
82601,6.39E-03,1.78E-02
82602,6.39E-03,1.77E-02
82603,6.39E-03,1.77E-02
82604,6.39E-03,1.76E-02
82605,6.39E-03,1.75E-02
82606,6.39E-03,1.74E-02
82607,6.39E-03,1.73E-02
82608,6.39E-03,1.73E-02
82609,6.39E-03,1.72E-02
82610,6.39E-03,1.71E-02
82611,6.39E-03,1.70E-02
82612,6.39E-03,1.70E-02
82613,6.39E-03,1.69E-02
82614,6.39E-03,1.68E-02
82615,6.39E-03,1.68E-02
82616,6.39E-03,1.67E-02
82617,6.39E-03,1.66E-02
82618,6.39E-03,1.66E-02
82619,6.39E-03,1.65E-02
82620,6.39E-03,1.64E-02
82621,6.39E-03,1.64E-02
82622,6.39E-03,1.63E-02
82623,6.39E-03,1.62E-02
82624,6.39E-03,1.62E-02
82625,6.39E-03,1.61E-02
82626,6.39E-03,1.61E-02
82627,6.39E-03,1.60E-02
82628,6.39E-03,1.59E-02
82629,6.39E-03,1.59E-02
82630,6.39E-03,1.58E-02
82631,6.39E-03,1.58E-02
82632,6.39E-03,1.57E-02
82633,6.39E-03,1.57E-02
82634,6.39E-03,1.57E-02
82635,6.39E-03,1.56E-02
82636,6.39E-03,1.56E-02
82637,6.39E-03,1.56E-02
82638,6.39E-03,1.56E-02
82639,6.39E-03,1.56E-02
82640,6.39E-03,1.56E-02
82641,6.39E-03,1.57E-02
82642,6.39E-03,1.57E-02
82643,6.39E-03,1.57E-02
82644,6.39E-03,1.58E-02
82645,6.39E-03,1.59E-02
82646,6.39E-03,1.59E-02
82647,6.39E-03,1.60E-02
82648,6.39E-03,1.61E-02
82649,6.39E-03,1.62E-02
82650,6.39E-03,1.63E-02
82651,6.39E-03,1.63E-02
82652,6.39E-03,1.64E-02
82653,6.39E-03,1.66E-02
82654,6.39E-03,1.67E-02
82655,6.39E-03,1.68E-02
82656,6.39E-03,1.69E-02
82657,6.39E-03,1.70E-02
82658,6.39E-03,1.71E-02
82659,6.39E-03,1.72E-02
82660,6.39E-03,1.73E-02
82661,6.39E-03,1.74E-02
82662,6.39E-03,1.75E-02
82663,6.39E-03,1.76E-02
82664,6.39E-03,1.77E-02
82665,6.39E-03,1.79E-02
82666,6.39E-03,1.80E-02
82667,6.39E-03,1.81E-02
82668,6.39E-03,1.82E-02
82669,6.39E-03,1.83E-02
82670,6.39E-03,1.83E-02
82671,6.39E-03,1.84E-02
82672,6.39E-03,1.85E-02
82673,6.39E-03,1.86E-02
82674,6.39E-03,2.05E-02
82675,6.39E-03,2.04E-02
82676,6.39E-03,2.04E-02
82677,6.39E-03,2.04E-02
82678,6.39E-03,2.04E-02
82679,6.39E-03,2.03E-02
82680,6.39E-03,2.03E-02
82681,6.39E-03,2.03E-02
82682,6.39E-03,2.03E-02
82683,6.39E-03,2.03E-02
82684,6.39E-03,2.03E-02
82685,6.39E-03,2.03E-02
82686,6.39E-03,2.02E-02
82687,6.39E-03,2.02E-02
82688,6.39E-03,2.02E-02
82689,6.39E-03,2.02E-02
82690,6.39E-03,2.02E-02
82691,6.39E-03,2.01E-02
82692,6.39E-03,2.01E-02
82693,6.39E-03,2.01E-02
82694,6.39E-03,2.01E-02
82695,6.39E-03,2.00E-02
82696,6.39E-03,2.00E-02
82697,6.39E-03,1.99E-02
82698,6.39E-03,1.99E-02
82699,6.39E-03,1.98E-02
82700,6.39E-03,1.98E-02
82701,6.39E-03,1.97E-02
82702,6.39E-03,1.96E-02
82703,6.39E-03,1.96E-02
82704,6.39E-03,1.95E-02
82705,6.39E-03,1.94E-02
82706,6.39E-03,1.93E-02
82707,6.39E-03,1.92E-02
82708,6.39E-03,1.92E-02
82709,6.39E-03,1.91E-02
82710,6.39E-03,1.90E-02
82711,6.39E-03,1.89E-02
82712,6.39E-03,1.88E-02
82713,6.39E-03,1.88E-02
82714,6.39E-03,1.87E-02
82715,6.39E-03,1.86E-02
82716,6.39E-03,1.86E-02
82717,6.39E-03,1.85E-02
82718,6.39E-03,1.85E-02
82719,6.39E-03,1.84E-02
82720,6.39E-03,1.84E-02
82721,6.39E-03,1.84E-02
82722,6.39E-03,1.84E-02
82723,6.39E-03,1.83E-02
82724,6.39E-03,1.83E-02
82725,6.39E-03,1.83E-02
82726,6.39E-03,1.83E-02
82727,6.39E-03,1.83E-02
82728,6.39E-03,1.82E-02
82729,6.39E-03,1.82E-02
82730,6.39E-03,1.82E-02
82731,6.39E-03,1.81E-02
82732,6.39E-03,1.81E-02
82733,6.39E-03,1.81E-02
82734,6.39E-03,1.80E-02
82735,6.39E-03,1.79E-02
82736,6.39E-03,1.79E-02
82737,6.39E-03,1.78E-02
82738,6.39E-03,1.77E-02
82739,6.39E-03,1.77E-02
82740,6.39E-03,1.76E-02
82741,6.39E-03,1.75E-02
82742,6.39E-03,1.75E-02
82743,6.39E-03,1.74E-02
82744,6.39E-03,1.73E-02
82745,6.39E-03,1.73E-02
82746,6.39E-03,1.72E-02
82747,6.39E-03,1.71E-02
82748,6.39E-03,1.71E-02
82749,6.39E-03,1.70E-02
82750,6.39E-03,1.69E-02
82751,6.39E-03,1.69E-02
82752,6.39E-03,1.68E-02
82753,6.39E-03,1.68E-02
82754,6.39E-03,1.67E-02
82755,6.39E-03,1.66E-02
82756,6.39E-03,1.66E-02
82757,6.39E-03,1.65E-02
82758,6.39E-03,1.65E-02
82759,6.39E-03,1.64E-02
82760,6.39E-03,1.64E-02
82761,6.39E-03,1.63E-02
82762,6.39E-03,1.62E-02
82763,6.39E-03,1.62E-02
82764,6.39E-03,1.61E-02
82765,6.39E-03,1.61E-02
82766,6.39E-03,1.61E-02
82767,6.39E-03,1.60E-02
82768,6.39E-03,1.60E-02
82769,6.39E-03,1.60E-02
82770,6.39E-03,1.59E-02
82771,6.39E-03,1.59E-02
82772,6.39E-03,1.59E-02
82773,6.39E-03,1.59E-02
82774,6.39E-03,1.59E-02
82775,6.39E-03,1.59E-02
82776,6.39E-03,1.59E-02
82777,6.39E-03,1.60E-02
82778,6.39E-03,1.60E-02
82779,6.39E-03,1.61E-02
82780,6.39E-03,1.61E-02
82781,6.39E-03,1.62E-02
82782,6.39E-03,1.62E-02
82783,6.39E-03,1.63E-02
82784,6.39E-03,1.64E-02
82785,6.39E-03,1.65E-02
82786,6.39E-03,1.66E-02
82787,6.39E-03,1.67E-02
82788,6.39E-03,1.68E-02
82789,6.39E-03,1.69E-02
82790,6.39E-03,1.70E-02
82791,6.39E-03,1.71E-02
82792,6.39E-03,1.72E-02
82793,6.39E-03,1.73E-02
82794,6.39E-03,1.74E-02
82795,6.39E-03,1.75E-02
82796,6.39E-03,1.76E-02
82797,6.39E-03,1.77E-02
82798,6.39E-03,1.79E-02
82799,6.39E-03,1.80E-02
82800,6.39E-03,1.81E-02
82801,6.39E-03,1.82E-02
82802,6.39E-03,1.83E-02
82803,6.39E-03,1.84E-02
82804,6.39E-03,1.85E-02
82805,6.39E-03,1.86E-02
82806,6.39E-03,1.87E-02
82807,6.39E-03,1.88E-02
82808,6.39E-03,1.88E-02
82809,6.39E-03,1.89E-02
82810,6.39E-03,2.04E-02
82811,6.39E-03,2.03E-02
82812,6.39E-03,2.03E-02
82813,6.39E-03,2.03E-02
82814,6.39E-03,2.03E-02
82815,6.39E-03,2.02E-02
82816,6.39E-03,2.02E-02
82817,6.39E-03,2.02E-02
82818,6.39E-03,2.02E-02
82819,6.39E-03,2.02E-02
82820,6.39E-03,2.02E-02
82821,6.39E-03,2.02E-02
82822,6.39E-03,2.01E-02
82823,6.39E-03,2.01E-02
82824,6.39E-03,2.01E-02
82825,6.39E-03,2.01E-02
82826,6.39E-03,2.01E-02
82827,6.39E-03,2.00E-02
82828,6.39E-03,2.00E-02
82829,6.39E-03,2.00E-02
82830,6.39E-03,1.99E-02
82831,6.39E-03,1.99E-02
82832,6.39E-03,1.99E-02
82833,6.39E-03,1.98E-02
82834,6.39E-03,1.98E-02
82835,6.39E-03,1.97E-02
82836,6.39E-03,1.96E-02
82837,6.39E-03,1.96E-02
82838,6.39E-03,1.95E-02
82839,6.39E-03,1.94E-02
82840,6.39E-03,1.94E-02
82841,6.39E-03,1.93E-02
82842,6.39E-03,1.92E-02
82843,6.39E-03,1.91E-02
82844,6.39E-03,1.91E-02
82845,6.39E-03,1.90E-02
82846,6.39E-03,1.89E-02
82847,6.39E-03,1.88E-02
82848,6.39E-03,1.87E-02
82849,6.39E-03,1.87E-02
82850,6.39E-03,1.86E-02
82851,6.39E-03,1.85E-02
82852,6.39E-03,1.85E-02
82853,6.39E-03,1.84E-02
82854,6.39E-03,1.84E-02
82855,6.39E-03,1.84E-02
82856,6.39E-03,1.83E-02
82857,6.39E-03,1.83E-02
82858,6.39E-03,1.83E-02
82859,6.39E-03,1.83E-02
82860,6.39E-03,1.83E-02
82861,6.39E-03,1.82E-02
82862,6.39E-03,1.82E-02
82863,6.39E-03,1.82E-02
82864,6.39E-03,1.82E-02
82865,6.39E-03,1.82E-02
82866,6.39E-03,1.81E-02
82867,6.39E-03,1.81E-02
82868,6.39E-03,1.81E-02
82869,6.39E-03,1.80E-02
82870,6.39E-03,1.80E-02
82871,6.39E-03,1.79E-02
82872,6.39E-03,1.79E-02
82873,6.39E-03,1.78E-02
82874,6.39E-03,1.78E-02
82875,6.39E-03,1.77E-02
82876,6.39E-03,1.76E-02
82877,6.39E-03,1.76E-02
82878,6.39E-03,1.75E-02
82879,6.39E-03,1.74E-02
82880,6.39E-03,1.74E-02
82881,6.39E-03,1.73E-02
82882,6.39E-03,1.73E-02
82883,6.39E-03,1.72E-02
82884,6.39E-03,1.71E-02
82885,6.39E-03,1.71E-02
82886,6.39E-03,1.70E-02
82887,6.39E-03,1.70E-02
82888,6.39E-03,1.69E-02
82889,6.39E-03,1.69E-02
82890,6.39E-03,1.68E-02
82891,6.39E-03,1.68E-02
82892,6.39E-03,1.67E-02
82893,6.39E-03,1.67E-02
82894,6.39E-03,1.66E-02
82895,6.39E-03,1.66E-02
82896,6.39E-03,1.65E-02
82897,6.39E-03,1.65E-02
82898,6.39E-03,1.64E-02
82899,6.39E-03,1.64E-02
82900,6.39E-03,1.63E-02
82901,6.39E-03,1.63E-02
82902,6.39E-03,1.63E-02
82903,6.39E-03,1.62E-02
82904,6.39E-03,1.62E-02
82905,6.39E-03,1.62E-02
82906,6.39E-03,1.62E-02
82907,6.39E-03,1.62E-02
82908,6.39E-03,1.62E-02
82909,6.39E-03,1.62E-02
82910,6.39E-03,1.62E-02
82911,6.39E-03,1.62E-02
82912,6.39E-03,1.62E-02
82913,6.39E-03,1.63E-02
82914,6.39E-03,1.63E-02
82915,6.39E-03,1.64E-02
82916,6.39E-03,1.64E-02
82917,6.39E-03,1.65E-02
82918,6.39E-03,1.65E-02
82919,6.39E-03,1.66E-02
82920,6.39E-03,1.67E-02
82921,6.39E-03,1.68E-02
82922,6.39E-03,1.69E-02
82923,6.39E-03,1.70E-02
82924,6.39E-03,1.71E-02
82925,6.39E-03,1.72E-02
82926,6.39E-03,1.73E-02
82927,6.39E-03,1.74E-02
82928,6.39E-03,1.75E-02
82929,6.39E-03,1.76E-02
82930,6.39E-03,1.77E-02
82931,6.39E-03,1.78E-02
82932,6.39E-03,1.79E-02
82933,6.39E-03,1.80E-02
82934,6.39E-03,1.82E-02
82935,6.39E-03,1.83E-02
82936,6.39E-03,1.84E-02
82937,6.39E-03,1.85E-02
82938,6.39E-03,1.86E-02
82939,6.39E-03,1.87E-02
82940,6.39E-03,1.88E-02
82941,6.39E-03,1.89E-02
82942,6.39E-03,1.90E-02
82943,6.39E-03,1.91E-02
82944,6.39E-03,1.91E-02
82945,6.39E-03,1.92E-02
82946,6.39E-03,2.02E-02
82947,6.39E-03,2.02E-02
82948,6.39E-03,2.02E-02
82949,6.39E-03,2.02E-02
82950,6.39E-03,2.02E-02
82951,6.39E-03,2.01E-02
82952,6.39E-03,2.01E-02
82953,6.39E-03,2.01E-02
82954,6.39E-03,2.01E-02
82955,6.39E-03,2.01E-02
82956,6.39E-03,2.01E-02
82957,6.39E-03,2.00E-02
82958,6.39E-03,2.00E-02
82959,6.39E-03,2.00E-02
82960,6.39E-03,2.00E-02
82961,6.39E-03,2.00E-02
82962,6.39E-03,1.99E-02
82963,6.39E-03,1.99E-02
82964,6.39E-03,1.99E-02
82965,6.39E-03,1.99E-02
82966,6.39E-03,1.98E-02
82967,6.39E-03,1.98E-02
82968,6.39E-03,1.97E-02
82969,6.39E-03,1.97E-02
82970,6.39E-03,1.96E-02
82971,6.39E-03,1.96E-02
82972,6.39E-03,1.95E-02
82973,6.39E-03,1.95E-02
82974,6.39E-03,1.94E-02
82975,6.39E-03,1.93E-02
82976,6.39E-03,1.93E-02
82977,6.39E-03,1.92E-02
82978,6.39E-03,1.91E-02
82979,6.39E-03,1.90E-02
82980,6.39E-03,1.90E-02
82981,6.39E-03,1.89E-02
82982,6.39E-03,1.88E-02
82983,6.39E-03,1.87E-02
82984,6.39E-03,1.87E-02
82985,6.39E-03,1.86E-02
82986,6.39E-03,1.85E-02
82987,6.39E-03,1.85E-02
82988,6.39E-03,1.84E-02
82989,6.39E-03,1.84E-02
82990,6.39E-03,1.83E-02
82991,6.39E-03,1.83E-02
82992,6.39E-03,1.83E-02
82993,6.39E-03,1.83E-02
82994,6.39E-03,1.82E-02
82995,6.39E-03,1.82E-02
82996,6.39E-03,1.82E-02
82997,6.39E-03,1.82E-02
82998,6.39E-03,1.82E-02
82999,6.39E-03,1.81E-02
83000,6.39E-03,1.81E-02
83001,6.39E-03,1.81E-02
83002,6.39E-03,1.81E-02
83003,6.39E-03,1.81E-02
83004,6.39E-03,1.80E-02
83005,6.39E-03,1.80E-02
83006,6.39E-03,1.80E-02
83007,6.39E-03,1.79E-02
83008,6.39E-03,1.79E-02
83009,6.39E-03,1.78E-02
83010,6.39E-03,1.78E-02
83011,6.39E-03,1.77E-02
83012,6.39E-03,1.77E-02
83013,6.39E-03,1.76E-02
83014,6.39E-03,1.76E-02
83015,6.39E-03,1.75E-02
83016,6.39E-03,1.74E-02
83017,6.39E-03,1.74E-02
83018,6.39E-03,1.73E-02
83019,6.39E-03,1.73E-02
83020,6.39E-03,1.72E-02
83021,6.39E-03,1.72E-02
83022,6.39E-03,1.71E-02
83023,6.39E-03,1.71E-02
83024,6.39E-03,1.70E-02
83025,6.39E-03,1.70E-02
83026,6.39E-03,1.69E-02
83027,6.39E-03,1.69E-02
83028,6.39E-03,1.69E-02
83029,6.39E-03,1.68E-02
83030,6.39E-03,1.68E-02
83031,6.39E-03,1.67E-02
83032,6.39E-03,1.67E-02
83033,6.39E-03,1.66E-02
83034,6.39E-03,1.66E-02
83035,6.39E-03,1.66E-02
83036,6.39E-03,1.65E-02
83037,6.39E-03,1.65E-02
83038,6.39E-03,1.65E-02
83039,6.39E-03,1.65E-02
83040,6.39E-03,1.64E-02
83041,6.39E-03,1.64E-02
83042,6.39E-03,1.64E-02
83043,6.39E-03,1.64E-02
83044,6.39E-03,1.64E-02
83045,6.39E-03,1.64E-02
83046,6.39E-03,1.65E-02
83047,6.39E-03,1.65E-02
83048,6.39E-03,1.65E-02
83049,6.39E-03,1.66E-02
83050,6.39E-03,1.66E-02
83051,6.39E-03,1.66E-02
83052,6.39E-03,1.67E-02
83053,6.39E-03,1.68E-02
83054,6.39E-03,1.68E-02
83055,6.39E-03,1.69E-02
83056,6.39E-03,1.70E-02
83057,6.39E-03,1.71E-02
83058,6.39E-03,1.72E-02
83059,6.39E-03,1.73E-02
83060,6.39E-03,1.74E-02
83061,6.39E-03,1.75E-02
83062,6.39E-03,1.76E-02
83063,6.39E-03,1.77E-02
83064,6.39E-03,1.78E-02
83065,6.39E-03,1.79E-02
83066,6.39E-03,1.80E-02
83067,6.39E-03,1.81E-02
83068,6.39E-03,1.82E-02
83069,6.39E-03,1.83E-02
83070,6.39E-03,1.84E-02
83071,6.39E-03,1.86E-02
83072,6.39E-03,1.87E-02
83073,6.39E-03,1.88E-02
83074,6.39E-03,1.89E-02
83075,6.39E-03,1.90E-02
83076,6.39E-03,1.91E-02
83077,6.39E-03,1.92E-02
83078,6.39E-03,1.93E-02
83079,6.39E-03,1.93E-02
83080,6.39E-03,1.94E-02
83081,6.39E-03,1.95E-02
83082,6.39E-03,2.01E-02
83083,6.39E-03,2.01E-02
83084,6.39E-03,2.01E-02
83085,6.39E-03,2.01E-02
83086,6.39E-03,2.01E-02
83087,6.39E-03,2.00E-02
83088,6.39E-03,2.00E-02
83089,6.39E-03,2.00E-02
83090,6.39E-03,2.00E-02
83091,6.39E-03,2.00E-02
83092,6.39E-03,2.00E-02
83093,6.39E-03,1.99E-02
83094,6.39E-03,1.99E-02
83095,6.39E-03,1.99E-02
83096,6.39E-03,1.99E-02
83097,6.39E-03,1.99E-02
83098,6.39E-03,1.98E-02
83099,6.39E-03,1.98E-02
83100,6.39E-03,1.98E-02
83101,6.39E-03,1.97E-02
83102,6.39E-03,1.97E-02
83103,6.39E-03,1.97E-02
83104,6.39E-03,1.96E-02
83105,6.39E-03,1.96E-02
83106,6.39E-03,1.95E-02
83107,6.39E-03,1.95E-02
83108,6.39E-03,1.94E-02
83109,6.39E-03,1.93E-02
83110,6.39E-03,1.93E-02
83111,6.39E-03,1.92E-02
83112,6.39E-03,1.91E-02
83113,6.39E-03,1.91E-02
83114,6.39E-03,1.90E-02
83115,6.39E-03,1.89E-02
83116,6.39E-03,1.89E-02
83117,6.39E-03,1.88E-02
83118,6.39E-03,1.87E-02
83119,6.39E-03,1.86E-02
83120,6.39E-03,1.86E-02
83121,6.39E-03,1.85E-02
83122,6.39E-03,1.85E-02
83123,6.39E-03,1.84E-02
83124,6.39E-03,1.84E-02
83125,6.39E-03,1.83E-02
83126,6.39E-03,1.83E-02
83127,6.39E-03,1.83E-02
83128,6.39E-03,1.82E-02
83129,6.39E-03,1.82E-02
83130,6.39E-03,1.82E-02
83131,6.39E-03,1.82E-02
83132,6.39E-03,1.82E-02
83133,6.39E-03,1.81E-02
83134,6.39E-03,1.81E-02
83135,6.39E-03,1.81E-02
83136,6.39E-03,1.81E-02
83137,6.39E-03,1.81E-02
83138,6.39E-03,1.80E-02
83139,6.39E-03,1.80E-02
83140,6.39E-03,1.80E-02
83141,6.39E-03,1.80E-02
83142,6.39E-03,1.79E-02
83143,6.39E-03,1.79E-02
83144,6.39E-03,1.79E-02
83145,6.39E-03,1.78E-02
83146,6.39E-03,1.78E-02
83147,6.39E-03,1.77E-02
83148,6.39E-03,1.77E-02
83149,6.39E-03,1.76E-02
83150,6.39E-03,1.76E-02
83151,6.39E-03,1.75E-02
83152,6.39E-03,1.75E-02
83153,6.39E-03,1.75E-02
83154,6.39E-03,1.74E-02
83155,6.39E-03,1.74E-02
83156,6.39E-03,1.73E-02
83157,6.39E-03,1.73E-02
83158,6.39E-03,1.72E-02
83159,6.39E-03,1.72E-02
83160,6.39E-03,1.71E-02
83161,6.39E-03,1.71E-02
83162,6.39E-03,1.71E-02
83163,6.39E-03,1.70E-02
83164,6.39E-03,1.70E-02
83165,6.39E-03,1.69E-02
83166,6.39E-03,1.69E-02
83167,6.39E-03,1.69E-02
83168,6.39E-03,1.68E-02
83169,6.39E-03,1.68E-02
83170,6.39E-03,1.68E-02
83171,6.39E-03,1.68E-02
83172,6.39E-03,1.67E-02
83173,6.39E-03,1.67E-02
83174,6.39E-03,1.67E-02
83175,6.39E-03,1.67E-02
83176,6.39E-03,1.67E-02
83177,6.39E-03,1.67E-02
83178,6.39E-03,1.67E-02
83179,6.39E-03,1.67E-02
83180,6.39E-03,1.67E-02
83181,6.39E-03,1.67E-02
83182,6.39E-03,1.67E-02
83183,6.39E-03,1.67E-02
83184,6.39E-03,1.68E-02
83185,6.39E-03,1.68E-02
83186,6.39E-03,1.69E-02
83187,6.39E-03,1.69E-02
83188,6.39E-03,1.70E-02
83189,6.39E-03,1.71E-02
83190,6.39E-03,1.71E-02
83191,6.39E-03,1.72E-02
83192,6.39E-03,1.73E-02
83193,6.39E-03,1.74E-02
83194,6.39E-03,1.75E-02
83195,6.39E-03,1.76E-02
83196,6.39E-03,1.77E-02
83197,6.39E-03,1.78E-02
83198,6.39E-03,1.79E-02
83199,6.39E-03,1.80E-02
83200,6.39E-03,1.81E-02
83201,6.39E-03,1.82E-02
83202,6.39E-03,1.83E-02
83203,6.39E-03,1.84E-02
83204,6.39E-03,1.85E-02
83205,6.39E-03,1.86E-02
83206,6.39E-03,1.87E-02
83207,6.39E-03,1.88E-02
83208,6.39E-03,1.89E-02
83209,6.39E-03,1.90E-02
83210,6.39E-03,1.91E-02
83211,6.39E-03,1.92E-02
83212,6.39E-03,1.93E-02
83213,6.39E-03,1.94E-02
83214,6.39E-03,1.95E-02
83215,6.39E-03,1.96E-02
83216,6.39E-03,1.97E-02
83217,6.39E-03,1.98E-02
83218,6.39E-03,2.00E-02
83219,6.39E-03,2.00E-02
83220,6.39E-03,2.00E-02
83221,6.39E-03,2.00E-02
83222,6.39E-03,1.99E-02
83223,6.39E-03,1.99E-02
83224,6.39E-03,1.99E-02
83225,6.39E-03,1.99E-02
83226,6.39E-03,1.99E-02
83227,6.39E-03,1.99E-02
83228,6.39E-03,1.98E-02
83229,6.39E-03,1.98E-02
83230,6.39E-03,1.98E-02
83231,6.39E-03,1.98E-02
83232,6.39E-03,1.98E-02
83233,6.39E-03,1.97E-02
83234,6.39E-03,1.97E-02
83235,6.39E-03,1.97E-02
83236,6.39E-03,1.97E-02
83237,6.39E-03,1.96E-02
83238,6.39E-03,1.96E-02
83239,6.39E-03,1.95E-02
83240,6.39E-03,1.95E-02
83241,6.39E-03,1.95E-02
83242,6.39E-03,1.94E-02
83243,6.39E-03,1.94E-02
83244,6.39E-03,1.93E-02
83245,6.39E-03,1.92E-02
83246,6.39E-03,1.92E-02
83247,6.39E-03,1.91E-02
83248,6.39E-03,1.90E-02
83249,6.39E-03,1.90E-02
83250,6.39E-03,1.89E-02
83251,6.39E-03,1.88E-02
83252,6.39E-03,1.88E-02
83253,6.39E-03,1.87E-02
83254,6.39E-03,1.86E-02
83255,6.39E-03,1.86E-02
83256,6.39E-03,1.85E-02
83257,6.39E-03,1.85E-02
83258,6.39E-03,1.84E-02
83259,6.39E-03,1.84E-02
83260,6.39E-03,1.83E-02
83261,6.39E-03,1.83E-02
83262,6.39E-03,1.82E-02
83263,6.39E-03,1.82E-02
83264,6.39E-03,1.82E-02
83265,6.39E-03,1.82E-02
83266,6.39E-03,1.81E-02
83267,6.39E-03,1.81E-02
83268,6.39E-03,1.81E-02
83269,6.39E-03,1.81E-02
83270,6.39E-03,1.81E-02
83271,6.39E-03,1.81E-02
83272,6.39E-03,1.81E-02
83273,6.39E-03,1.80E-02
83274,6.39E-03,1.80E-02
83275,6.39E-03,1.80E-02
83276,6.39E-03,1.80E-02
83277,6.39E-03,1.80E-02
83278,6.39E-03,1.79E-02
83279,6.39E-03,1.79E-02
83280,6.39E-03,1.79E-02
83281,6.39E-03,1.78E-02
83282,6.39E-03,1.78E-02
83283,6.39E-03,1.78E-02
83284,6.39E-03,1.77E-02
83285,6.39E-03,1.77E-02
83286,6.39E-03,1.76E-02
83287,6.39E-03,1.76E-02
83288,6.39E-03,1.76E-02
83289,6.39E-03,1.75E-02
83290,6.39E-03,1.75E-02
83291,6.39E-03,1.74E-02
83292,6.39E-03,1.74E-02
83293,6.39E-03,1.74E-02
83294,6.39E-03,1.73E-02
83295,6.39E-03,1.73E-02
83296,6.39E-03,1.73E-02
83297,6.39E-03,1.72E-02
83298,6.39E-03,1.72E-02
83299,6.39E-03,1.71E-02
83300,6.39E-03,1.71E-02
83301,6.39E-03,1.71E-02
83302,6.39E-03,1.71E-02
83303,6.39E-03,1.70E-02
83304,6.39E-03,1.70E-02
83305,6.39E-03,1.70E-02
83306,6.39E-03,1.70E-02
83307,6.39E-03,1.69E-02
83308,6.39E-03,1.69E-02
83309,6.39E-03,1.69E-02
83310,6.39E-03,1.69E-02
83311,6.39E-03,1.69E-02
83312,6.39E-03,1.69E-02
83313,6.39E-03,1.69E-02
83314,6.39E-03,1.69E-02
83315,6.39E-03,1.69E-02
83316,6.39E-03,1.69E-02
83317,6.39E-03,1.69E-02
83318,6.39E-03,1.70E-02
83319,6.39E-03,1.70E-02
83320,6.39E-03,1.70E-02
83321,6.39E-03,1.71E-02
83322,6.39E-03,1.71E-02
83323,6.39E-03,1.72E-02
83324,6.39E-03,1.73E-02
83325,6.39E-03,1.73E-02
83326,6.39E-03,1.74E-02
83327,6.39E-03,1.75E-02
83328,6.39E-03,1.76E-02
83329,6.39E-03,1.77E-02
83330,6.39E-03,1.77E-02
83331,6.39E-03,1.78E-02
83332,6.39E-03,1.79E-02
83333,6.39E-03,1.80E-02
83334,6.39E-03,1.81E-02
83335,6.39E-03,1.82E-02
83336,6.39E-03,1.84E-02
83337,6.39E-03,1.85E-02
83338,6.39E-03,1.86E-02
83339,6.39E-03,1.87E-02
83340,6.39E-03,1.88E-02
83341,6.39E-03,1.89E-02
83342,6.39E-03,1.90E-02
83343,6.39E-03,1.91E-02
83344,6.39E-03,1.92E-02
83345,6.39E-03,1.93E-02
83346,6.39E-03,1.94E-02
83347,6.39E-03,1.95E-02
83348,6.39E-03,1.96E-02
83349,6.39E-03,1.97E-02
83350,6.39E-03,1.98E-02
83351,6.39E-03,1.99E-02
83352,6.39E-03,2.00E-02
83353,6.39E-03,2.01E-02
83354,6.39E-03,1.99E-02
83355,6.39E-03,1.99E-02
83356,6.39E-03,1.99E-02
83357,6.39E-03,1.99E-02
83358,6.39E-03,1.98E-02
83359,6.39E-03,1.98E-02
83360,6.39E-03,1.98E-02
83361,6.39E-03,1.98E-02
83362,6.39E-03,1.98E-02
83363,6.39E-03,1.98E-02
83364,6.39E-03,1.97E-02
83365,6.39E-03,1.97E-02
83366,6.39E-03,1.97E-02
83367,6.39E-03,1.97E-02
83368,6.39E-03,1.97E-02
83369,6.39E-03,1.96E-02
83370,6.39E-03,1.96E-02
83371,6.39E-03,1.96E-02
83372,6.39E-03,1.95E-02
83373,6.39E-03,1.95E-02
83374,6.39E-03,1.95E-02
83375,6.39E-03,1.94E-02
83376,6.39E-03,1.94E-02
83377,6.39E-03,1.93E-02
83378,6.39E-03,1.93E-02
83379,6.39E-03,1.92E-02
83380,6.39E-03,1.92E-02
83381,6.39E-03,1.91E-02
83382,6.39E-03,1.91E-02
83383,6.39E-03,1.90E-02
83384,6.39E-03,1.89E-02
83385,6.39E-03,1.89E-02
83386,6.39E-03,1.88E-02
83387,6.39E-03,1.88E-02
83388,6.39E-03,1.87E-02
83389,6.39E-03,1.86E-02
83390,6.39E-03,1.86E-02
83391,6.39E-03,1.85E-02
83392,6.39E-03,1.85E-02
83393,6.39E-03,1.84E-02
83394,6.39E-03,1.84E-02
83395,6.39E-03,1.83E-02
83396,6.39E-03,1.83E-02
83397,6.39E-03,1.82E-02
83398,6.39E-03,1.82E-02
83399,6.39E-03,1.82E-02
83400,6.39E-03,1.81E-02
83401,6.39E-03,1.81E-02
83402,6.39E-03,1.81E-02
83403,6.39E-03,1.81E-02
83404,6.39E-03,1.81E-02
83405,6.39E-03,1.81E-02
83406,6.39E-03,1.80E-02
83407,6.39E-03,1.80E-02
83408,6.39E-03,1.80E-02
83409,6.39E-03,1.80E-02
83410,6.39E-03,1.80E-02
83411,6.39E-03,1.80E-02
83412,6.39E-03,1.80E-02
83413,6.39E-03,1.79E-02
83414,6.39E-03,1.79E-02
83415,6.39E-03,1.79E-02
83416,6.39E-03,1.79E-02
83417,6.39E-03,1.78E-02
83418,6.39E-03,1.78E-02
83419,6.39E-03,1.78E-02
83420,6.39E-03,1.77E-02
83421,6.39E-03,1.77E-02
83422,6.39E-03,1.77E-02
83423,6.39E-03,1.76E-02
83424,6.39E-03,1.76E-02
83425,6.39E-03,1.76E-02
83426,6.39E-03,1.75E-02
83427,6.39E-03,1.75E-02
83428,6.39E-03,1.75E-02
83429,6.39E-03,1.74E-02
83430,6.39E-03,1.74E-02
83431,6.39E-03,1.74E-02
83432,6.39E-03,1.74E-02
83433,6.39E-03,1.73E-02
83434,6.39E-03,1.73E-02
83435,6.39E-03,1.73E-02
83436,6.39E-03,1.72E-02
83437,6.39E-03,1.72E-02
83438,6.39E-03,1.72E-02
83439,6.39E-03,1.72E-02
83440,6.39E-03,1.72E-02
83441,6.39E-03,1.71E-02
83442,6.39E-03,1.71E-02
83443,6.39E-03,1.71E-02
83444,6.39E-03,1.71E-02
83445,6.39E-03,1.71E-02
83446,6.39E-03,1.71E-02
83447,6.39E-03,1.71E-02
83448,6.39E-03,1.71E-02
83449,6.39E-03,1.71E-02
83450,6.39E-03,1.71E-02
83451,6.39E-03,1.71E-02
83452,6.39E-03,1.71E-02
83453,6.39E-03,1.72E-02
83454,6.39E-03,1.72E-02
83455,6.39E-03,1.72E-02
83456,6.39E-03,1.73E-02
83457,6.39E-03,1.73E-02
83458,6.39E-03,1.74E-02
83459,6.39E-03,1.74E-02
83460,6.39E-03,1.75E-02
83461,6.39E-03,1.76E-02
83462,6.39E-03,1.77E-02
83463,6.39E-03,1.77E-02
83464,6.39E-03,1.78E-02
83465,6.39E-03,1.79E-02
83466,6.39E-03,1.80E-02
83467,6.39E-03,1.81E-02
83468,6.39E-03,1.82E-02
83469,6.39E-03,1.83E-02
83470,6.39E-03,1.84E-02
83471,6.39E-03,1.85E-02
83472,6.39E-03,1.86E-02
83473,6.39E-03,1.87E-02
83474,6.39E-03,1.88E-02
83475,6.39E-03,1.89E-02
83476,6.39E-03,1.90E-02
83477,6.39E-03,1.91E-02
83478,6.39E-03,1.92E-02
83479,6.39E-03,1.94E-02
83480,6.39E-03,1.95E-02
83481,6.39E-03,1.96E-02
83482,6.39E-03,1.97E-02
83483,6.39E-03,1.98E-02
83484,6.39E-03,1.99E-02
83485,6.39E-03,2.00E-02
83486,6.39E-03,2.01E-02
83487,6.39E-03,2.02E-02
83488,6.39E-03,2.02E-02
83489,6.39E-03,2.03E-02
83490,6.39E-03,1.98E-02
83491,6.39E-03,1.98E-02
83492,6.39E-03,1.98E-02
83493,6.39E-03,1.97E-02
83494,6.39E-03,1.97E-02
83495,6.39E-03,1.97E-02
83496,6.39E-03,1.97E-02
83497,6.39E-03,1.97E-02
83498,6.39E-03,1.97E-02
83499,6.39E-03,1.96E-02
83500,6.39E-03,1.96E-02
83501,6.39E-03,1.96E-02
83502,6.39E-03,1.96E-02
83503,6.39E-03,1.96E-02
83504,6.39E-03,1.95E-02
83505,6.39E-03,1.95E-02
83506,6.39E-03,1.95E-02
83507,6.39E-03,1.95E-02
83508,6.39E-03,1.94E-02
83509,6.39E-03,1.94E-02
83510,6.39E-03,1.94E-02
83511,6.39E-03,1.93E-02
83512,6.39E-03,1.93E-02
83513,6.39E-03,1.92E-02
83514,6.39E-03,1.92E-02
83515,6.39E-03,1.91E-02
83516,6.39E-03,1.91E-02
83517,6.39E-03,1.90E-02
83518,6.39E-03,1.90E-02
83519,6.39E-03,1.89E-02
83520,6.39E-03,1.89E-02
83521,6.39E-03,1.88E-02
83522,6.39E-03,1.87E-02
83523,6.39E-03,1.87E-02
83524,6.39E-03,1.86E-02
83525,6.39E-03,1.86E-02
83526,6.39E-03,1.85E-02
83527,6.39E-03,1.84E-02
83528,6.39E-03,1.84E-02
83529,6.39E-03,1.83E-02
83530,6.39E-03,1.83E-02
83531,6.39E-03,1.83E-02
83532,6.39E-03,1.82E-02
83533,6.39E-03,1.82E-02
83534,6.39E-03,1.82E-02
83535,6.39E-03,1.81E-02
83536,6.39E-03,1.81E-02
83537,6.39E-03,1.81E-02
83538,6.39E-03,1.81E-02
83539,6.39E-03,1.81E-02
83540,6.39E-03,1.80E-02
83541,6.39E-03,1.80E-02
83542,6.39E-03,1.80E-02
83543,6.39E-03,1.80E-02
83544,6.39E-03,1.80E-02
83545,6.39E-03,1.80E-02
83546,6.39E-03,1.80E-02
83547,6.39E-03,1.80E-02
83548,6.39E-03,1.79E-02
83549,6.39E-03,1.79E-02
83550,6.39E-03,1.79E-02
83551,6.39E-03,1.79E-02
83552,6.39E-03,1.79E-02
83553,6.39E-03,1.79E-02
83554,6.39E-03,1.78E-02
83555,6.39E-03,1.78E-02
83556,6.39E-03,1.78E-02
83557,6.39E-03,1.78E-02
83558,6.39E-03,1.77E-02
83559,6.39E-03,1.77E-02
83560,6.39E-03,1.77E-02
83561,6.39E-03,1.76E-02
83562,6.39E-03,1.76E-02
83563,6.39E-03,1.76E-02
83564,6.39E-03,1.76E-02
83565,6.39E-03,1.75E-02
83566,6.39E-03,1.75E-02
83567,6.39E-03,1.75E-02
83568,6.39E-03,1.75E-02
83569,6.39E-03,1.74E-02
83570,6.39E-03,1.74E-02
83571,6.39E-03,1.74E-02
83572,6.39E-03,1.74E-02
83573,6.39E-03,1.73E-02
83574,6.39E-03,1.73E-02
83575,6.39E-03,1.73E-02
83576,6.39E-03,1.73E-02
83577,6.39E-03,1.73E-02
83578,6.39E-03,1.73E-02
83579,6.39E-03,1.73E-02
83580,6.39E-03,1.73E-02
83581,6.39E-03,1.73E-02
83582,6.39E-03,1.73E-02
83583,6.39E-03,1.73E-02
83584,6.39E-03,1.73E-02
83585,6.39E-03,1.73E-02
83586,6.39E-03,1.73E-02
83587,6.39E-03,1.73E-02
83588,6.39E-03,1.74E-02
83589,6.39E-03,1.74E-02
83590,6.39E-03,1.74E-02
83591,6.39E-03,1.75E-02
83592,6.39E-03,1.75E-02
83593,6.39E-03,1.76E-02
83594,6.39E-03,1.76E-02
83595,6.39E-03,1.77E-02
83596,6.39E-03,1.78E-02
83597,6.39E-03,1.78E-02
83598,6.39E-03,1.79E-02
83599,6.39E-03,1.80E-02
83600,6.39E-03,1.81E-02
83601,6.39E-03,1.82E-02
83602,6.39E-03,1.83E-02
83603,6.39E-03,1.83E-02
83604,6.39E-03,1.84E-02
83605,6.39E-03,1.85E-02
83606,6.39E-03,1.86E-02
83607,6.39E-03,1.88E-02
83608,6.39E-03,1.89E-02
83609,6.39E-03,1.90E-02
83610,6.39E-03,1.91E-02
83611,6.39E-03,1.92E-02
83612,6.39E-03,1.93E-02
83613,6.39E-03,1.94E-02
83614,6.39E-03,1.95E-02
83615,6.39E-03,1.96E-02
83616,6.39E-03,1.97E-02
83617,6.39E-03,1.98E-02
83618,6.39E-03,1.99E-02
83619,6.39E-03,2.00E-02
83620,6.39E-03,2.01E-02
83621,6.39E-03,2.02E-02
83622,6.39E-03,2.03E-02
83623,6.39E-03,2.04E-02
83624,6.39E-03,2.05E-02
83625,6.39E-03,2.06E-02
83626,6.39E-03,1.97E-02
83627,6.39E-03,1.97E-02
83628,6.39E-03,1.96E-02
83629,6.39E-03,1.96E-02
83630,6.39E-03,1.96E-02
83631,6.39E-03,1.96E-02
83632,6.39E-03,1.96E-02
83633,6.39E-03,1.96E-02
83634,6.39E-03,1.95E-02
83635,6.39E-03,1.95E-02
83636,6.39E-03,1.95E-02
83637,6.39E-03,1.95E-02
83638,6.39E-03,1.95E-02
83639,6.39E-03,1.95E-02
83640,6.39E-03,1.94E-02
83641,6.39E-03,1.94E-02
83642,6.39E-03,1.94E-02
83643,6.39E-03,1.93E-02
83644,6.39E-03,1.93E-02
83645,6.39E-03,1.93E-02
83646,6.39E-03,1.92E-02
83647,6.39E-03,1.92E-02
83648,6.39E-03,1.92E-02
83649,6.39E-03,1.91E-02
83650,6.39E-03,1.91E-02
83651,6.39E-03,1.90E-02
83652,6.39E-03,1.90E-02
83653,6.39E-03,1.89E-02
83654,6.39E-03,1.89E-02
83655,6.39E-03,1.88E-02
83656,6.39E-03,1.88E-02
83657,6.39E-03,1.87E-02
83658,6.39E-03,1.87E-02
83659,6.39E-03,1.86E-02
83660,6.39E-03,1.85E-02
83661,6.39E-03,1.85E-02
83662,6.39E-03,1.84E-02
83663,6.39E-03,1.84E-02
83664,6.39E-03,1.83E-02
83665,6.39E-03,1.83E-02
83666,6.39E-03,1.82E-02
83667,6.39E-03,1.82E-02
83668,6.39E-03,1.82E-02
83669,6.39E-03,1.81E-02
83670,6.39E-03,1.81E-02
83671,6.39E-03,1.81E-02
83672,6.39E-03,1.81E-02
83673,6.39E-03,1.81E-02
83674,6.39E-03,1.80E-02
83675,6.39E-03,1.80E-02
83676,6.39E-03,1.80E-02
83677,6.39E-03,1.80E-02
83678,6.39E-03,1.80E-02
83679,6.39E-03,1.80E-02
83680,6.39E-03,1.80E-02
83681,6.39E-03,1.80E-02
83682,6.39E-03,1.80E-02
83683,6.39E-03,1.79E-02
83684,6.39E-03,1.79E-02
83685,6.39E-03,1.79E-02
83686,6.39E-03,1.79E-02
83687,6.39E-03,1.79E-02
83688,6.39E-03,1.79E-02
83689,6.39E-03,1.79E-02
83690,6.39E-03,1.78E-02
83691,6.39E-03,1.78E-02
83692,6.39E-03,1.78E-02
83693,6.39E-03,1.78E-02
83694,6.39E-03,1.78E-02
83695,6.39E-03,1.77E-02
83696,6.39E-03,1.77E-02
83697,6.39E-03,1.77E-02
83698,6.39E-03,1.77E-02
83699,6.39E-03,1.77E-02
83700,6.39E-03,1.76E-02
83701,6.39E-03,1.76E-02
83702,6.39E-03,1.76E-02
83703,6.39E-03,1.76E-02
83704,6.39E-03,1.76E-02
83705,6.39E-03,1.75E-02
83706,6.39E-03,1.75E-02
83707,6.39E-03,1.75E-02
83708,6.39E-03,1.75E-02
83709,6.39E-03,1.75E-02
83710,6.39E-03,1.75E-02
83711,6.39E-03,1.75E-02
83712,6.39E-03,1.74E-02
83713,6.39E-03,1.74E-02
83714,6.39E-03,1.74E-02
83715,6.39E-03,1.74E-02
83716,6.39E-03,1.74E-02
83717,6.39E-03,1.74E-02
83718,6.39E-03,1.74E-02
83719,6.39E-03,1.75E-02
83720,6.39E-03,1.75E-02
83721,6.39E-03,1.75E-02
83722,6.39E-03,1.75E-02
83723,6.39E-03,1.75E-02
83724,6.39E-03,1.76E-02
83725,6.39E-03,1.76E-02
83726,6.39E-03,1.76E-02
83727,6.39E-03,1.77E-02
83728,6.39E-03,1.77E-02
83729,6.39E-03,1.78E-02
83730,6.39E-03,1.79E-02
83731,6.39E-03,1.79E-02
83732,6.39E-03,1.80E-02
83733,6.39E-03,1.81E-02
83734,6.39E-03,1.81E-02
83735,6.39E-03,1.82E-02
83736,6.39E-03,1.83E-02
83737,6.39E-03,1.84E-02
83738,6.39E-03,1.85E-02
83739,6.39E-03,1.86E-02
83740,6.39E-03,1.87E-02
83741,6.39E-03,1.88E-02
83742,6.39E-03,1.89E-02
83743,6.39E-03,1.90E-02
83744,6.39E-03,1.91E-02
83745,6.39E-03,1.92E-02
83746,6.39E-03,1.93E-02
83747,6.39E-03,1.94E-02
83748,6.39E-03,1.95E-02
83749,6.39E-03,1.96E-02
83750,6.39E-03,1.97E-02
83751,6.39E-03,1.98E-02
83752,6.39E-03,1.99E-02
83753,6.39E-03,2.00E-02
83754,6.39E-03,2.01E-02
83755,6.39E-03,2.02E-02
83756,6.39E-03,2.03E-02
83757,6.39E-03,2.04E-02
83758,6.39E-03,2.05E-02
83759,6.39E-03,2.06E-02
83760,6.39E-03,2.07E-02
83761,6.39E-03,2.08E-02
83762,6.39E-03,1.95E-02
83763,6.39E-03,1.95E-02
83764,6.39E-03,1.95E-02
83765,6.39E-03,1.95E-02
83766,6.39E-03,1.95E-02
83767,6.39E-03,1.95E-02
83768,6.39E-03,1.95E-02
83769,6.39E-03,1.94E-02
83770,6.39E-03,1.94E-02
83771,6.39E-03,1.94E-02
83772,6.39E-03,1.94E-02
83773,6.39E-03,1.94E-02
83774,6.39E-03,1.94E-02
83775,6.39E-03,1.93E-02
83776,6.39E-03,1.93E-02
83777,6.39E-03,1.93E-02
83778,6.39E-03,1.93E-02
83779,6.39E-03,1.92E-02
83780,6.39E-03,1.92E-02
83781,6.39E-03,1.92E-02
83782,6.39E-03,1.91E-02
83783,6.39E-03,1.91E-02
83784,6.39E-03,1.91E-02
83785,6.39E-03,1.90E-02
83786,6.39E-03,1.90E-02
83787,6.39E-03,1.89E-02
83788,6.39E-03,1.89E-02
83789,6.39E-03,1.88E-02
83790,6.39E-03,1.88E-02
83791,6.39E-03,1.87E-02
83792,6.39E-03,1.87E-02
83793,6.39E-03,1.86E-02
83794,6.39E-03,1.86E-02
83795,6.39E-03,1.85E-02
83796,6.39E-03,1.85E-02
83797,6.39E-03,1.84E-02
83798,6.39E-03,1.84E-02
83799,6.39E-03,1.83E-02
83800,6.39E-03,1.83E-02
83801,6.39E-03,1.82E-02
83802,6.39E-03,1.82E-02
83803,6.39E-03,1.82E-02
83804,6.39E-03,1.81E-02
83805,6.39E-03,1.81E-02
83806,6.39E-03,1.81E-02
83807,6.39E-03,1.81E-02
83808,6.39E-03,1.80E-02
83809,6.39E-03,1.80E-02
83810,6.39E-03,1.80E-02
83811,6.39E-03,1.80E-02
83812,6.39E-03,1.80E-02
83813,6.39E-03,1.80E-02
83814,6.39E-03,1.80E-02
83815,6.39E-03,1.80E-02
83816,6.39E-03,1.80E-02
83817,6.39E-03,1.80E-02
83818,6.39E-03,1.79E-02
83819,6.39E-03,1.79E-02
83820,6.39E-03,1.79E-02
83821,6.39E-03,1.79E-02
83822,6.39E-03,1.79E-02
83823,6.39E-03,1.79E-02
83824,6.39E-03,1.79E-02
83825,6.39E-03,1.79E-02
83826,6.39E-03,1.79E-02
83827,6.39E-03,1.79E-02
83828,6.39E-03,1.78E-02
83829,6.39E-03,1.78E-02
83830,6.39E-03,1.78E-02
83831,6.39E-03,1.78E-02
83832,6.39E-03,1.78E-02
83833,6.39E-03,1.78E-02
83834,6.39E-03,1.77E-02
83835,6.39E-03,1.77E-02
83836,6.39E-03,1.77E-02
83837,6.39E-03,1.77E-02
83838,6.39E-03,1.77E-02
83839,6.39E-03,1.77E-02
83840,6.39E-03,1.76E-02
83841,6.39E-03,1.76E-02
83842,6.39E-03,1.76E-02
83843,6.39E-03,1.76E-02
83844,6.39E-03,1.76E-02
83845,6.39E-03,1.76E-02
83846,6.39E-03,1.76E-02
83847,6.39E-03,1.76E-02
83848,6.39E-03,1.76E-02
83849,6.39E-03,1.76E-02
83850,6.39E-03,1.76E-02
83851,6.39E-03,1.76E-02
83852,6.39E-03,1.76E-02
83853,6.39E-03,1.76E-02
83854,6.39E-03,1.76E-02
83855,6.39E-03,1.76E-02
83856,6.39E-03,1.77E-02
83857,6.39E-03,1.77E-02
83858,6.39E-03,1.77E-02
83859,6.39E-03,1.77E-02
83860,6.39E-03,1.78E-02
83861,6.39E-03,1.78E-02
83862,6.39E-03,1.79E-02
83863,6.39E-03,1.79E-02
83864,6.39E-03,1.80E-02
83865,6.39E-03,1.80E-02
83866,6.39E-03,1.81E-02
83867,6.39E-03,1.81E-02
83868,6.39E-03,1.82E-02
83869,6.39E-03,1.83E-02
83870,6.39E-03,1.84E-02
83871,6.39E-03,1.84E-02
83872,6.39E-03,1.85E-02
83873,6.39E-03,1.86E-02
83874,6.39E-03,1.87E-02
83875,6.39E-03,1.88E-02
83876,6.39E-03,1.89E-02
83877,6.39E-03,1.90E-02
83878,6.39E-03,1.91E-02
83879,6.39E-03,1.92E-02
83880,6.39E-03,1.93E-02
83881,6.39E-03,1.94E-02
83882,6.39E-03,1.95E-02
83883,6.39E-03,1.96E-02
83884,6.39E-03,1.97E-02
83885,6.39E-03,1.98E-02
83886,6.39E-03,2.00E-02
83887,6.39E-03,2.01E-02
83888,6.39E-03,2.02E-02
83889,6.39E-03,2.03E-02
83890,6.39E-03,2.04E-02
83891,6.39E-03,2.05E-02
83892,6.39E-03,2.06E-02
83893,6.39E-03,2.07E-02
83894,6.39E-03,2.08E-02
83895,6.39E-03,2.09E-02
83896,6.39E-03,2.10E-02
83897,6.39E-03,2.10E-02
83898,6.39E-03,1.94E-02
83899,6.39E-03,1.94E-02
83900,6.39E-03,1.94E-02
83901,6.39E-03,1.94E-02
83902,6.39E-03,1.94E-02
83903,6.39E-03,1.94E-02
83904,6.39E-03,1.93E-02
83905,6.39E-03,1.93E-02
83906,6.39E-03,1.93E-02
83907,6.39E-03,1.93E-02
83908,6.39E-03,1.93E-02
83909,6.39E-03,1.93E-02
83910,6.39E-03,1.92E-02
83911,6.39E-03,1.92E-02
83912,6.39E-03,1.92E-02
83913,6.39E-03,1.92E-02
83914,6.39E-03,1.92E-02
83915,6.39E-03,1.91E-02
83916,6.39E-03,1.91E-02
83917,6.39E-03,1.91E-02
83918,6.39E-03,1.90E-02
83919,6.39E-03,1.90E-02
83920,6.39E-03,1.90E-02
83921,6.39E-03,1.89E-02
83922,6.39E-03,1.89E-02
83923,6.39E-03,1.88E-02
83924,6.39E-03,1.88E-02
83925,6.39E-03,1.87E-02
83926,6.39E-03,1.87E-02
83927,6.39E-03,1.86E-02
83928,6.39E-03,1.86E-02
83929,6.39E-03,1.85E-02
83930,6.39E-03,1.85E-02
83931,6.39E-03,1.85E-02
83932,6.39E-03,1.84E-02
83933,6.39E-03,1.84E-02
83934,6.39E-03,1.83E-02
83935,6.39E-03,1.83E-02
83936,6.39E-03,1.82E-02
83937,6.39E-03,1.82E-02
83938,6.39E-03,1.82E-02
83939,6.39E-03,1.81E-02
83940,6.39E-03,1.81E-02
83941,6.39E-03,1.81E-02
83942,6.39E-03,1.80E-02
83943,6.39E-03,1.80E-02
83944,6.39E-03,1.80E-02
83945,6.39E-03,1.80E-02
83946,6.39E-03,1.80E-02
83947,6.39E-03,1.80E-02
83948,6.39E-03,1.80E-02
83949,6.39E-03,1.80E-02
83950,6.39E-03,1.80E-02
83951,6.39E-03,1.79E-02
83952,6.39E-03,1.79E-02
83953,6.39E-03,1.79E-02
83954,6.39E-03,1.79E-02
83955,6.39E-03,1.79E-02
83956,6.39E-03,1.79E-02
83957,6.39E-03,1.79E-02
83958,6.39E-03,1.79E-02
83959,6.39E-03,1.79E-02
83960,6.39E-03,1.79E-02
83961,6.39E-03,1.79E-02
83962,6.39E-03,1.79E-02
83963,6.39E-03,1.79E-02
83964,6.39E-03,1.79E-02
83965,6.39E-03,1.79E-02
83966,6.39E-03,1.78E-02
83967,6.39E-03,1.78E-02
83968,6.39E-03,1.78E-02
83969,6.39E-03,1.78E-02
83970,6.39E-03,1.78E-02
83971,6.39E-03,1.78E-02
83972,6.39E-03,1.78E-02
83973,6.39E-03,1.78E-02
83974,6.39E-03,1.78E-02
83975,6.39E-03,1.77E-02
83976,6.39E-03,1.77E-02
83977,6.39E-03,1.77E-02
83978,6.39E-03,1.77E-02
83979,6.39E-03,1.77E-02
83980,6.39E-03,1.77E-02
83981,6.39E-03,1.77E-02
83982,6.39E-03,1.77E-02
83983,6.39E-03,1.77E-02
83984,6.39E-03,1.77E-02
83985,6.39E-03,1.77E-02
83986,6.39E-03,1.77E-02
83987,6.39E-03,1.77E-02
83988,6.39E-03,1.77E-02
83989,6.39E-03,1.78E-02
83990,6.39E-03,1.78E-02
83991,6.39E-03,1.78E-02
83992,6.39E-03,1.78E-02
83993,6.39E-03,1.79E-02
83994,6.39E-03,1.79E-02
83995,6.39E-03,1.79E-02
83996,6.39E-03,1.80E-02
83997,6.39E-03,1.80E-02
83998,6.39E-03,1.81E-02
83999,6.39E-03,1.81E-02
84000,6.39E-03,1.82E-02
84001,6.39E-03,1.82E-02
84002,6.39E-03,1.83E-02
84003,6.39E-03,1.84E-02
84004,6.39E-03,1.84E-02
84005,6.39E-03,1.85E-02
84006,6.39E-03,1.86E-02
84007,6.39E-03,1.87E-02
84008,6.39E-03,1.88E-02
84009,6.39E-03,1.88E-02
84010,6.39E-03,1.89E-02
84011,6.39E-03,1.90E-02
84012,6.39E-03,1.91E-02
84013,6.39E-03,1.92E-02
84014,6.39E-03,1.93E-02
84015,6.39E-03,1.94E-02
84016,6.39E-03,1.95E-02
84017,6.39E-03,1.96E-02
84018,6.39E-03,1.97E-02
84019,6.39E-03,1.99E-02
84020,6.39E-03,2.00E-02
84021,6.39E-03,2.01E-02
84022,6.39E-03,2.02E-02
84023,6.39E-03,2.03E-02
84024,6.39E-03,2.04E-02
84025,6.39E-03,2.05E-02
84026,6.39E-03,2.06E-02
84027,6.39E-03,2.07E-02
84028,6.39E-03,2.08E-02
84029,6.39E-03,2.09E-02
84030,6.39E-03,2.10E-02
84031,6.39E-03,2.11E-02
84032,6.39E-03,2.12E-02
84033,6.39E-03,2.13E-02
84034,6.39E-03,1.93E-02
84035,6.39E-03,1.93E-02
84036,6.39E-03,1.93E-02
84037,6.39E-03,1.93E-02
84038,6.39E-03,1.93E-02
84039,6.39E-03,1.92E-02
84040,6.39E-03,1.92E-02
84041,6.39E-03,1.92E-02
84042,6.39E-03,1.92E-02
84043,6.39E-03,1.92E-02
84044,6.39E-03,1.92E-02
84045,6.39E-03,1.91E-02
84046,6.39E-03,1.91E-02
84047,6.39E-03,1.91E-02
84048,6.39E-03,1.91E-02
84049,6.39E-03,1.91E-02
84050,6.39E-03,1.90E-02
84051,6.39E-03,1.90E-02
84052,6.39E-03,1.90E-02
84053,6.39E-03,1.90E-02
84054,6.39E-03,1.89E-02
84055,6.39E-03,1.89E-02
84056,6.39E-03,1.89E-02
84057,6.39E-03,1.88E-02
84058,6.39E-03,1.88E-02
84059,6.39E-03,1.87E-02
84060,6.39E-03,1.87E-02
84061,6.39E-03,1.87E-02
84062,6.39E-03,1.86E-02
84063,6.39E-03,1.86E-02
84064,6.39E-03,1.85E-02
84065,6.39E-03,1.85E-02
84066,6.39E-03,1.84E-02
84067,6.39E-03,1.84E-02
84068,6.39E-03,1.83E-02
84069,6.39E-03,1.83E-02
84070,6.39E-03,1.83E-02
84071,6.39E-03,1.82E-02
84072,6.39E-03,1.82E-02
84073,6.39E-03,1.81E-02
84074,6.39E-03,1.81E-02
84075,6.39E-03,1.81E-02
84076,6.39E-03,1.81E-02
84077,6.39E-03,1.80E-02
84078,6.39E-03,1.80E-02
84079,6.39E-03,1.80E-02
84080,6.39E-03,1.80E-02
84081,6.39E-03,1.80E-02
84082,6.39E-03,1.80E-02
84083,6.39E-03,1.80E-02
84084,6.39E-03,1.79E-02
84085,6.39E-03,1.79E-02
84086,6.39E-03,1.79E-02
84087,6.39E-03,1.79E-02
84088,6.39E-03,1.79E-02
84089,6.39E-03,1.79E-02
84090,6.39E-03,1.79E-02
84091,6.39E-03,1.79E-02
84092,6.39E-03,1.79E-02
84093,6.39E-03,1.79E-02
84094,6.39E-03,1.79E-02
84095,6.39E-03,1.79E-02
84096,6.39E-03,1.79E-02
84097,6.39E-03,1.79E-02
84098,6.39E-03,1.79E-02
84099,6.39E-03,1.79E-02
84100,6.39E-03,1.79E-02
84101,6.39E-03,1.79E-02
84102,6.39E-03,1.79E-02
84103,6.39E-03,1.79E-02
84104,6.39E-03,1.79E-02
84105,6.39E-03,1.79E-02
84106,6.39E-03,1.79E-02
84107,6.39E-03,1.79E-02
84108,6.39E-03,1.78E-02
84109,6.39E-03,1.78E-02
84110,6.39E-03,1.78E-02
84111,6.39E-03,1.78E-02
84112,6.39E-03,1.78E-02
84113,6.39E-03,1.78E-02
84114,6.39E-03,1.78E-02
84115,6.39E-03,1.78E-02
84116,6.39E-03,1.78E-02
84117,6.39E-03,1.78E-02
84118,6.39E-03,1.78E-02
84119,6.39E-03,1.78E-02
84120,6.39E-03,1.78E-02
84121,6.39E-03,1.79E-02
84122,6.39E-03,1.79E-02
84123,6.39E-03,1.79E-02
84124,6.39E-03,1.79E-02
84125,6.39E-03,1.79E-02
84126,6.39E-03,1.79E-02
84127,6.39E-03,1.80E-02
84128,6.39E-03,1.80E-02
84129,6.39E-03,1.80E-02
84130,6.39E-03,1.81E-02
84131,6.39E-03,1.81E-02
84132,6.39E-03,1.81E-02
84133,6.39E-03,1.82E-02
84134,6.39E-03,1.82E-02
84135,6.39E-03,1.83E-02
84136,6.39E-03,1.84E-02
84137,6.39E-03,1.84E-02
84138,6.39E-03,1.85E-02
84139,6.39E-03,1.86E-02
84140,6.39E-03,1.86E-02
84141,6.39E-03,1.87E-02
84142,6.39E-03,1.88E-02
84143,6.39E-03,1.89E-02
84144,6.39E-03,1.90E-02
84145,6.39E-03,1.90E-02
84146,6.39E-03,1.91E-02
84147,6.39E-03,1.92E-02
84148,6.39E-03,1.93E-02
84149,6.39E-03,1.94E-02
84150,6.39E-03,1.95E-02
84151,6.39E-03,1.96E-02
84152,6.39E-03,1.97E-02
84153,6.39E-03,1.98E-02
84154,6.39E-03,2.00E-02
84155,6.39E-03,2.01E-02
84156,6.39E-03,2.02E-02
84157,6.39E-03,2.03E-02
84158,6.39E-03,2.04E-02
84159,6.39E-03,2.05E-02
84160,6.39E-03,2.06E-02
84161,6.39E-03,2.07E-02
84162,6.39E-03,2.08E-02
84163,6.39E-03,2.09E-02
84164,6.39E-03,2.10E-02
84165,6.39E-03,2.11E-02
84166,6.39E-03,2.12E-02
84167,6.39E-03,2.13E-02
84168,6.39E-03,2.14E-02
84169,6.39E-03,2.15E-02
84170,6.39E-03,1.92E-02
84171,6.39E-03,1.92E-02
84172,6.39E-03,1.92E-02
84173,6.39E-03,1.91E-02
84174,6.39E-03,1.91E-02
84175,6.39E-03,1.91E-02
84176,6.39E-03,1.91E-02
84177,6.39E-03,1.91E-02
84178,6.39E-03,1.91E-02
84179,6.39E-03,1.91E-02
84180,6.39E-03,1.90E-02
84181,6.39E-03,1.90E-02
84182,6.39E-03,1.90E-02
84183,6.39E-03,1.90E-02
84184,6.39E-03,1.90E-02
84185,6.39E-03,1.90E-02
84186,6.39E-03,1.89E-02
84187,6.39E-03,1.89E-02
84188,6.39E-03,1.89E-02
84189,6.39E-03,1.88E-02
84190,6.39E-03,1.88E-02
84191,6.39E-03,1.88E-02
84192,6.39E-03,1.88E-02
84193,6.39E-03,1.87E-02
84194,6.39E-03,1.87E-02
84195,6.39E-03,1.86E-02
84196,6.39E-03,1.86E-02
84197,6.39E-03,1.86E-02
84198,6.39E-03,1.85E-02
84199,6.39E-03,1.85E-02
84200,6.39E-03,1.84E-02
84201,6.39E-03,1.84E-02
84202,6.39E-03,1.84E-02
84203,6.39E-03,1.83E-02
84204,6.39E-03,1.83E-02
84205,6.39E-03,1.82E-02
84206,6.39E-03,1.82E-02
84207,6.39E-03,1.82E-02
84208,6.39E-03,1.81E-02
84209,6.39E-03,1.81E-02
84210,6.39E-03,1.81E-02
84211,6.39E-03,1.80E-02
84212,6.39E-03,1.80E-02
84213,6.39E-03,1.80E-02
84214,6.39E-03,1.80E-02
84215,6.39E-03,1.80E-02
84216,6.39E-03,1.80E-02
84217,6.39E-03,1.79E-02
84218,6.39E-03,1.79E-02
84219,6.39E-03,1.79E-02
84220,6.39E-03,1.79E-02
84221,6.39E-03,1.79E-02
84222,6.39E-03,1.79E-02
84223,6.39E-03,1.79E-02
84224,6.39E-03,1.79E-02
84225,6.39E-03,1.79E-02
84226,6.39E-03,1.79E-02
84227,6.39E-03,1.79E-02
84228,6.39E-03,1.79E-02
84229,6.39E-03,1.79E-02
84230,6.39E-03,1.79E-02
84231,6.39E-03,1.79E-02
84232,6.39E-03,1.79E-02
84233,6.39E-03,1.79E-02
84234,6.39E-03,1.79E-02
84235,6.39E-03,1.79E-02
84236,6.39E-03,1.79E-02
84237,6.39E-03,1.79E-02
84238,6.39E-03,1.79E-02
84239,6.39E-03,1.79E-02
84240,6.39E-03,1.79E-02
84241,6.39E-03,1.79E-02
84242,6.39E-03,1.79E-02
84243,6.39E-03,1.79E-02
84244,6.39E-03,1.79E-02
84245,6.39E-03,1.79E-02
84246,6.39E-03,1.79E-02
84247,6.39E-03,1.79E-02
84248,6.39E-03,1.79E-02
84249,6.39E-03,1.79E-02
84250,6.39E-03,1.79E-02
84251,6.39E-03,1.79E-02
84252,6.39E-03,1.79E-02
84253,6.39E-03,1.79E-02
84254,6.39E-03,1.79E-02
84255,6.39E-03,1.80E-02
84256,6.39E-03,1.80E-02
84257,6.39E-03,1.80E-02
84258,6.39E-03,1.80E-02
84259,6.39E-03,1.80E-02
84260,6.39E-03,1.80E-02
84261,6.39E-03,1.81E-02
84262,6.39E-03,1.81E-02
84263,6.39E-03,1.81E-02
84264,6.39E-03,1.82E-02
84265,6.39E-03,1.82E-02
84266,6.39E-03,1.82E-02
84267,6.39E-03,1.83E-02
84268,6.39E-03,1.83E-02
84269,6.39E-03,1.84E-02
84270,6.39E-03,1.84E-02
84271,6.39E-03,1.85E-02
84272,6.39E-03,1.85E-02
84273,6.39E-03,1.86E-02
84274,6.39E-03,1.87E-02
84275,6.39E-03,1.87E-02
84276,6.39E-03,1.88E-02
84277,6.39E-03,1.89E-02
84278,6.39E-03,1.90E-02
84279,6.39E-03,1.91E-02
84280,6.39E-03,1.92E-02
84281,6.39E-03,1.92E-02
84282,6.39E-03,1.93E-02
84283,6.39E-03,1.94E-02
84284,6.39E-03,1.95E-02
84285,6.39E-03,1.96E-02
84286,6.39E-03,1.97E-02
84287,6.39E-03,1.98E-02
84288,6.39E-03,1.99E-02
84289,6.39E-03,2.00E-02
84290,6.39E-03,2.01E-02
84291,6.39E-03,2.03E-02
84292,6.39E-03,2.04E-02
84293,6.39E-03,2.05E-02
84294,6.39E-03,2.06E-02
84295,6.39E-03,2.07E-02
84296,6.39E-03,2.08E-02
84297,6.39E-03,2.09E-02
84298,6.39E-03,2.10E-02
84299,6.39E-03,2.11E-02
84300,6.39E-03,2.12E-02
84301,6.39E-03,2.13E-02
84302,6.39E-03,2.14E-02
84303,6.39E-03,2.15E-02
84304,6.39E-03,2.16E-02
84305,6.39E-03,2.17E-02
84306,6.39E-03,1.91E-02
84307,6.39E-03,1.90E-02
84308,6.39E-03,1.90E-02
84309,6.39E-03,1.90E-02
84310,6.39E-03,1.90E-02
84311,6.39E-03,1.90E-02
84312,6.39E-03,1.90E-02
84313,6.39E-03,1.90E-02
84314,6.39E-03,1.90E-02
84315,6.39E-03,1.89E-02
84316,6.39E-03,1.89E-02
84317,6.39E-03,1.89E-02
84318,6.39E-03,1.89E-02
84319,6.39E-03,1.89E-02
84320,6.39E-03,1.89E-02
84321,6.39E-03,1.88E-02
84322,6.39E-03,1.88E-02
84323,6.39E-03,1.88E-02
84324,6.39E-03,1.88E-02
84325,6.39E-03,1.87E-02
84326,6.39E-03,1.87E-02
84327,6.39E-03,1.87E-02
84328,6.39E-03,1.87E-02
84329,6.39E-03,1.86E-02
84330,6.39E-03,1.86E-02
84331,6.39E-03,1.85E-02
84332,6.39E-03,1.85E-02
84333,6.39E-03,1.85E-02
84334,6.39E-03,1.84E-02
84335,6.39E-03,1.84E-02
84336,6.39E-03,1.84E-02
84337,6.39E-03,1.83E-02
84338,6.39E-03,1.83E-02
84339,6.39E-03,1.83E-02
84340,6.39E-03,1.82E-02
84341,6.39E-03,1.82E-02
84342,6.39E-03,1.81E-02
84343,6.39E-03,1.81E-02
84344,6.39E-03,1.81E-02
84345,6.39E-03,1.81E-02
84346,6.39E-03,1.80E-02
84347,6.39E-03,1.80E-02
84348,6.39E-03,1.80E-02
84349,6.39E-03,1.80E-02
84350,6.39E-03,1.80E-02
84351,6.39E-03,1.79E-02
84352,6.39E-03,1.79E-02
84353,6.39E-03,1.79E-02
84354,6.39E-03,1.79E-02
84355,6.39E-03,1.79E-02
84356,6.39E-03,1.79E-02
84357,6.39E-03,1.79E-02
84358,6.39E-03,1.79E-02
84359,6.39E-03,1.79E-02
84360,6.39E-03,1.79E-02
84361,6.39E-03,1.79E-02
84362,6.39E-03,1.79E-02
84363,6.39E-03,1.79E-02
84364,6.39E-03,1.79E-02
84365,6.39E-03,1.79E-02
84366,6.39E-03,1.79E-02
84367,6.39E-03,1.79E-02
84368,6.39E-03,1.79E-02
84369,6.39E-03,1.79E-02
84370,6.39E-03,1.79E-02
84371,6.39E-03,1.80E-02
84372,6.39E-03,1.80E-02
84373,6.39E-03,1.80E-02
84374,6.39E-03,1.80E-02
84375,6.39E-03,1.80E-02
84376,6.39E-03,1.80E-02
84377,6.39E-03,1.80E-02
84378,6.39E-03,1.80E-02
84379,6.39E-03,1.80E-02
84380,6.39E-03,1.80E-02
84381,6.39E-03,1.80E-02
84382,6.39E-03,1.80E-02
84383,6.39E-03,1.80E-02
84384,6.39E-03,1.80E-02
84385,6.39E-03,1.80E-02
84386,6.39E-03,1.80E-02
84387,6.39E-03,1.80E-02
84388,6.39E-03,1.80E-02
84389,6.39E-03,1.80E-02
84390,6.39E-03,1.81E-02
84391,6.39E-03,1.81E-02
84392,6.39E-03,1.81E-02
84393,6.39E-03,1.81E-02
84394,6.39E-03,1.81E-02
84395,6.39E-03,1.81E-02
84396,6.39E-03,1.82E-02
84397,6.39E-03,1.82E-02
84398,6.39E-03,1.82E-02
84399,6.39E-03,1.83E-02
84400,6.39E-03,1.83E-02
84401,6.39E-03,1.83E-02
84402,6.39E-03,1.84E-02
84403,6.39E-03,1.84E-02
84404,6.39E-03,1.85E-02
84405,6.39E-03,1.85E-02
84406,6.39E-03,1.86E-02
84407,6.39E-03,1.86E-02
84408,6.39E-03,1.87E-02
84409,6.39E-03,1.88E-02
84410,6.39E-03,1.88E-02
84411,6.39E-03,1.89E-02
84412,6.39E-03,1.90E-02
84413,6.39E-03,1.91E-02
84414,6.39E-03,1.92E-02
84415,6.39E-03,1.92E-02
84416,6.39E-03,1.93E-02
84417,6.39E-03,1.94E-02
84418,6.39E-03,1.95E-02
84419,6.39E-03,1.96E-02
84420,6.39E-03,1.97E-02
84421,6.39E-03,1.98E-02
84422,6.39E-03,1.99E-02
84423,6.39E-03,2.00E-02
84424,6.39E-03,2.01E-02
84425,6.39E-03,2.02E-02
84426,6.39E-03,2.03E-02
84427,6.39E-03,2.04E-02
84428,6.39E-03,2.05E-02
84429,6.39E-03,2.07E-02
84430,6.39E-03,2.08E-02
84431,6.39E-03,2.09E-02
84432,6.39E-03,2.10E-02
84433,6.39E-03,2.11E-02
84434,6.39E-03,2.12E-02
84435,6.39E-03,2.13E-02
84436,6.39E-03,2.14E-02
84437,6.39E-03,2.15E-02
84438,6.39E-03,2.16E-02
84439,6.39E-03,2.17E-02
84440,6.39E-03,2.18E-02
84441,6.39E-03,2.19E-02
84442,6.39E-03,1.89E-02
84443,6.39E-03,1.89E-02
84444,6.39E-03,1.89E-02
84445,6.39E-03,1.89E-02
84446,6.39E-03,1.89E-02
84447,6.39E-03,1.89E-02
84448,6.39E-03,1.89E-02
84449,6.39E-03,1.89E-02
84450,6.39E-03,1.88E-02
84451,6.39E-03,1.88E-02
84452,6.39E-03,1.88E-02
84453,6.39E-03,1.88E-02
84454,6.39E-03,1.88E-02
84455,6.39E-03,1.88E-02
84456,6.39E-03,1.87E-02
84457,6.39E-03,1.87E-02
84458,6.39E-03,1.87E-02
84459,6.39E-03,1.87E-02
84460,6.39E-03,1.87E-02
84461,6.39E-03,1.86E-02
84462,6.39E-03,1.86E-02
84463,6.39E-03,1.86E-02
84464,6.39E-03,1.86E-02
84465,6.39E-03,1.85E-02
84466,6.39E-03,1.85E-02
84467,6.39E-03,1.85E-02
84468,6.39E-03,1.84E-02
84469,6.39E-03,1.84E-02
84470,6.39E-03,1.84E-02
84471,6.39E-03,1.83E-02
84472,6.39E-03,1.83E-02
84473,6.39E-03,1.83E-02
84474,6.39E-03,1.82E-02
84475,6.39E-03,1.82E-02
84476,6.39E-03,1.82E-02
84477,6.39E-03,1.81E-02
84478,6.39E-03,1.81E-02
84479,6.39E-03,1.81E-02
84480,6.39E-03,1.80E-02
84481,6.39E-03,1.80E-02
84482,6.39E-03,1.80E-02
84483,6.39E-03,1.80E-02
84484,6.39E-03,1.80E-02
84485,6.39E-03,1.79E-02
84486,6.39E-03,1.79E-02
84487,6.39E-03,1.79E-02
84488,6.39E-03,1.79E-02
84489,6.39E-03,1.79E-02
84490,6.39E-03,1.79E-02
84491,6.39E-03,1.79E-02
84492,6.39E-03,1.79E-02
84493,6.39E-03,1.79E-02
84494,6.39E-03,1.79E-02
84495,6.39E-03,1.79E-02
84496,6.39E-03,1.79E-02
84497,6.39E-03,1.79E-02
84498,6.39E-03,1.79E-02
84499,6.39E-03,1.79E-02
84500,6.39E-03,1.79E-02
84501,6.39E-03,1.79E-02
84502,6.39E-03,1.79E-02
84503,6.39E-03,1.80E-02
84504,6.39E-03,1.80E-02
84505,6.39E-03,1.80E-02
84506,6.39E-03,1.80E-02
84507,6.39E-03,1.80E-02
84508,6.39E-03,1.80E-02
84509,6.39E-03,1.80E-02
84510,6.39E-03,1.80E-02
84511,6.39E-03,1.80E-02
84512,6.39E-03,1.80E-02
84513,6.39E-03,1.80E-02
84514,6.39E-03,1.80E-02
84515,6.39E-03,1.80E-02
84516,6.39E-03,1.80E-02
84517,6.39E-03,1.80E-02
84518,6.39E-03,1.81E-02
84519,6.39E-03,1.81E-02
84520,6.39E-03,1.81E-02
84521,6.39E-03,1.81E-02
84522,6.39E-03,1.81E-02
84523,6.39E-03,1.81E-02
84524,6.39E-03,1.81E-02
84525,6.39E-03,1.81E-02
84526,6.39E-03,1.82E-02
84527,6.39E-03,1.82E-02
84528,6.39E-03,1.82E-02
84529,6.39E-03,1.82E-02
84530,6.39E-03,1.82E-02
84531,6.39E-03,1.83E-02
84532,6.39E-03,1.83E-02
84533,6.39E-03,1.83E-02
84534,6.39E-03,1.84E-02
84535,6.39E-03,1.84E-02
84536,6.39E-03,1.84E-02
84537,6.39E-03,1.85E-02
84538,6.39E-03,1.85E-02
84539,6.39E-03,1.86E-02
84540,6.39E-03,1.86E-02
84541,6.39E-03,1.87E-02
84542,6.39E-03,1.87E-02
84543,6.39E-03,1.88E-02
84544,6.39E-03,1.89E-02
84545,6.39E-03,1.89E-02
84546,6.39E-03,1.90E-02
84547,6.39E-03,1.91E-02
84548,6.39E-03,1.92E-02
84549,6.39E-03,1.93E-02
84550,6.39E-03,1.93E-02
84551,6.39E-03,1.94E-02
84552,6.39E-03,1.95E-02
84553,6.39E-03,1.96E-02
84554,6.39E-03,1.97E-02
84555,6.39E-03,1.98E-02
84556,6.39E-03,1.99E-02
84557,6.39E-03,2.00E-02
84558,6.39E-03,2.01E-02
84559,6.39E-03,2.02E-02
84560,6.39E-03,2.03E-02
84561,6.39E-03,2.04E-02
84562,6.39E-03,2.05E-02
84563,6.39E-03,2.06E-02
84564,6.39E-03,2.07E-02
84565,6.39E-03,2.08E-02
84566,6.39E-03,2.09E-02
84567,6.39E-03,2.11E-02
84568,6.39E-03,2.12E-02
84569,6.39E-03,2.13E-02
84570,6.39E-03,2.14E-02
84571,6.39E-03,2.15E-02
84572,6.39E-03,2.16E-02
84573,6.39E-03,2.17E-02
84574,6.39E-03,2.18E-02
84575,6.39E-03,2.19E-02
84576,6.39E-03,2.20E-02
84577,6.39E-03,2.21E-02
84578,6.39E-03,1.88E-02
84579,6.39E-03,1.88E-02
84580,6.39E-03,1.88E-02
84581,6.39E-03,1.88E-02
84582,6.39E-03,1.88E-02
84583,6.39E-03,1.88E-02
84584,6.39E-03,1.87E-02
84585,6.39E-03,1.87E-02
84586,6.39E-03,1.87E-02
84587,6.39E-03,1.87E-02
84588,6.39E-03,1.87E-02
84589,6.39E-03,1.87E-02
84590,6.39E-03,1.87E-02
84591,6.39E-03,1.87E-02
84592,6.39E-03,1.86E-02
84593,6.39E-03,1.86E-02
84594,6.39E-03,1.86E-02
84595,6.39E-03,1.86E-02
84596,6.39E-03,1.86E-02
84597,6.39E-03,1.85E-02
84598,6.39E-03,1.85E-02
84599,6.39E-03,1.85E-02
84600,6.39E-03,1.85E-02
84601,6.39E-03,1.84E-02
84602,6.39E-03,1.84E-02
84603,6.39E-03,1.84E-02
84604,6.39E-03,1.83E-02
84605,6.39E-03,1.83E-02
84606,6.39E-03,1.83E-02
84607,6.39E-03,1.82E-02
84608,6.39E-03,1.82E-02
84609,6.39E-03,1.82E-02
84610,6.39E-03,1.82E-02
84611,6.39E-03,1.81E-02
84612,6.39E-03,1.81E-02
84613,6.39E-03,1.81E-02
84614,6.39E-03,1.80E-02
84615,6.39E-03,1.80E-02
84616,6.39E-03,1.80E-02
84617,6.39E-03,1.80E-02
84618,6.39E-03,1.80E-02
84619,6.39E-03,1.79E-02
84620,6.39E-03,1.79E-02
84621,6.39E-03,1.79E-02
84622,6.39E-03,1.79E-02
84623,6.39E-03,1.79E-02
84624,6.39E-03,1.79E-02
84625,6.39E-03,1.79E-02
84626,6.39E-03,1.79E-02
84627,6.39E-03,1.79E-02
84628,6.39E-03,1.79E-02
84629,6.39E-03,1.79E-02
84630,6.39E-03,1.79E-02
84631,6.39E-03,1.79E-02
84632,6.39E-03,1.79E-02
84633,6.39E-03,1.79E-02
84634,6.39E-03,1.79E-02
84635,6.39E-03,1.79E-02
84636,6.39E-03,1.79E-02
84637,6.39E-03,1.79E-02
84638,6.39E-03,1.80E-02
84639,6.39E-03,1.80E-02
84640,6.39E-03,1.80E-02
84641,6.39E-03,1.80E-02
84642,6.39E-03,1.80E-02
84643,6.39E-03,1.80E-02
84644,6.39E-03,1.80E-02
84645,6.39E-03,1.80E-02
84646,6.39E-03,1.80E-02
84647,6.39E-03,1.80E-02
84648,6.39E-03,1.80E-02
84649,6.39E-03,1.81E-02
84650,6.39E-03,1.81E-02
84651,6.39E-03,1.81E-02
84652,6.39E-03,1.81E-02
84653,6.39E-03,1.81E-02
84654,6.39E-03,1.81E-02
84655,6.39E-03,1.81E-02
84656,6.39E-03,1.81E-02
84657,6.39E-03,1.82E-02
84658,6.39E-03,1.82E-02
84659,6.39E-03,1.82E-02
84660,6.39E-03,1.82E-02
84661,6.39E-03,1.82E-02
84662,6.39E-03,1.83E-02
84663,6.39E-03,1.83E-02
84664,6.39E-03,1.83E-02
84665,6.39E-03,1.83E-02
84666,6.39E-03,1.84E-02
84667,6.39E-03,1.84E-02
84668,6.39E-03,1.84E-02
84669,6.39E-03,1.85E-02
84670,6.39E-03,1.85E-02
84671,6.39E-03,1.85E-02
84672,6.39E-03,1.86E-02
84673,6.39E-03,1.86E-02
84674,6.39E-03,1.87E-02
84675,6.39E-03,1.87E-02
84676,6.39E-03,1.88E-02
84677,6.39E-03,1.88E-02
84678,6.39E-03,1.89E-02
84679,6.39E-03,1.90E-02
84680,6.39E-03,1.90E-02
84681,6.39E-03,1.91E-02
84682,6.39E-03,1.92E-02
84683,6.39E-03,1.93E-02
84684,6.39E-03,1.93E-02
84685,6.39E-03,1.94E-02
84686,6.39E-03,1.95E-02
84687,6.39E-03,1.96E-02
84688,6.39E-03,1.97E-02
84689,6.39E-03,1.98E-02
84690,6.39E-03,1.99E-02
84691,6.39E-03,2.00E-02
84692,6.39E-03,2.01E-02
84693,6.39E-03,2.02E-02
84694,6.39E-03,2.03E-02
84695,6.39E-03,2.04E-02
84696,6.39E-03,2.05E-02
84697,6.39E-03,2.06E-02
84698,6.39E-03,2.07E-02
84699,6.39E-03,2.08E-02
84700,6.39E-03,2.09E-02
84701,6.39E-03,2.10E-02
84702,6.39E-03,2.11E-02
84703,6.39E-03,2.12E-02
84704,6.39E-03,2.13E-02
84705,6.39E-03,2.14E-02
84706,6.39E-03,2.15E-02
84707,6.39E-03,2.17E-02
84708,6.39E-03,2.18E-02
84709,6.39E-03,2.19E-02
84710,6.39E-03,2.20E-02
84711,6.39E-03,2.21E-02
84712,6.39E-03,2.22E-02
84713,6.39E-03,2.23E-02
84714,6.39E-03,1.87E-02
84715,6.39E-03,1.87E-02
84716,6.39E-03,1.87E-02
84717,6.39E-03,1.87E-02
84718,6.39E-03,1.86E-02
84719,6.39E-03,1.86E-02
84720,6.39E-03,1.86E-02
84721,6.39E-03,1.86E-02
84722,6.39E-03,1.86E-02
84723,6.39E-03,1.86E-02
84724,6.39E-03,1.86E-02
84725,6.39E-03,1.86E-02
84726,6.39E-03,1.86E-02
84727,6.39E-03,1.85E-02
84728,6.39E-03,1.85E-02
84729,6.39E-03,1.85E-02
84730,6.39E-03,1.85E-02
84731,6.39E-03,1.85E-02
84732,6.39E-03,1.85E-02
84733,6.39E-03,1.84E-02
84734,6.39E-03,1.84E-02
84735,6.39E-03,1.84E-02
84736,6.39E-03,1.84E-02
84737,6.39E-03,1.83E-02
84738,6.39E-03,1.83E-02
84739,6.39E-03,1.83E-02
84740,6.39E-03,1.83E-02
84741,6.39E-03,1.82E-02
84742,6.39E-03,1.82E-02
84743,6.39E-03,1.82E-02
84744,6.39E-03,1.81E-02
84745,6.39E-03,1.81E-02
84746,6.39E-03,1.81E-02
84747,6.39E-03,1.81E-02
84748,6.39E-03,1.80E-02
84749,6.39E-03,1.80E-02
84750,6.39E-03,1.80E-02
84751,6.39E-03,1.80E-02
84752,6.39E-03,1.80E-02
84753,6.39E-03,1.79E-02
84754,6.39E-03,1.79E-02
84755,6.39E-03,1.79E-02
84756,6.39E-03,1.79E-02
84757,6.39E-03,1.79E-02
84758,6.39E-03,1.79E-02
84759,6.39E-03,1.79E-02
84760,6.39E-03,1.79E-02
84761,6.39E-03,1.79E-02
84762,6.39E-03,1.79E-02
84763,6.39E-03,1.79E-02
84764,6.39E-03,1.79E-02
84765,6.39E-03,1.79E-02
84766,6.39E-03,1.79E-02
84767,6.39E-03,1.79E-02
84768,6.39E-03,1.79E-02
84769,6.39E-03,1.79E-02
84770,6.39E-03,1.79E-02
84771,6.39E-03,1.79E-02
84772,6.39E-03,1.79E-02
84773,6.39E-03,1.79E-02
84774,6.39E-03,1.80E-02
84775,6.39E-03,1.80E-02
84776,6.39E-03,1.80E-02
84777,6.39E-03,1.80E-02
84778,6.39E-03,1.80E-02
84779,6.39E-03,1.80E-02
84780,6.39E-03,1.80E-02
84781,6.39E-03,1.80E-02
84782,6.39E-03,1.81E-02
84783,6.39E-03,1.81E-02
84784,6.39E-03,1.81E-02
84785,6.39E-03,1.81E-02
84786,6.39E-03,1.81E-02
84787,6.39E-03,1.81E-02
84788,6.39E-03,1.81E-02
84789,6.39E-03,1.82E-02
84790,6.39E-03,1.82E-02
84791,6.39E-03,1.82E-02
84792,6.39E-03,1.82E-02
84793,6.39E-03,1.82E-02
84794,6.39E-03,1.83E-02
84795,6.39E-03,1.83E-02
84796,6.39E-03,1.83E-02
84797,6.39E-03,1.83E-02
84798,6.39E-03,1.83E-02
84799,6.39E-03,1.84E-02
84800,6.39E-03,1.84E-02
84801,6.39E-03,1.84E-02
84802,6.39E-03,1.85E-02
84803,6.39E-03,1.85E-02
84804,6.39E-03,1.85E-02
84805,6.39E-03,1.86E-02
84806,6.39E-03,1.86E-02
84807,6.39E-03,1.87E-02
84808,6.39E-03,1.87E-02
84809,6.39E-03,1.88E-02
84810,6.39E-03,1.88E-02
84811,6.39E-03,1.89E-02
84812,6.39E-03,1.89E-02
84813,6.39E-03,1.90E-02
84814,6.39E-03,1.90E-02
84815,6.39E-03,1.91E-02
84816,6.39E-03,1.92E-02
84817,6.39E-03,1.93E-02
84818,6.39E-03,1.93E-02
84819,6.39E-03,1.94E-02
84820,6.39E-03,1.95E-02
84821,6.39E-03,1.96E-02
84822,6.39E-03,1.97E-02
84823,6.39E-03,1.97E-02
84824,6.39E-03,1.98E-02
84825,6.39E-03,1.99E-02
84826,6.39E-03,2.00E-02
84827,6.39E-03,2.01E-02
84828,6.39E-03,2.02E-02
84829,6.39E-03,2.03E-02
84830,6.39E-03,2.04E-02
84831,6.39E-03,2.05E-02
84832,6.39E-03,2.06E-02
84833,6.39E-03,2.07E-02
84834,6.39E-03,2.08E-02
84835,6.39E-03,2.10E-02
84836,6.39E-03,2.11E-02
84837,6.39E-03,2.12E-02
84838,6.39E-03,2.13E-02
84839,6.39E-03,2.14E-02
84840,6.39E-03,2.15E-02
84841,6.39E-03,2.16E-02
84842,6.39E-03,2.17E-02
84843,6.39E-03,2.18E-02
84844,6.39E-03,2.19E-02
84845,6.39E-03,2.20E-02
84846,6.39E-03,2.21E-02
84847,6.39E-03,2.22E-02
84848,6.39E-03,2.23E-02
84849,6.39E-03,2.24E-02
84850,6.39E-03,1.85E-02
84851,6.39E-03,1.85E-02
84852,6.39E-03,1.85E-02
84853,6.39E-03,1.85E-02
84854,6.39E-03,1.85E-02
84855,6.39E-03,1.85E-02
84856,6.39E-03,1.85E-02
84857,6.39E-03,1.85E-02
84858,6.39E-03,1.85E-02
84859,6.39E-03,1.85E-02
84860,6.39E-03,1.85E-02
84861,6.39E-03,1.85E-02
84862,6.39E-03,1.84E-02
84863,6.39E-03,1.84E-02
84864,6.39E-03,1.84E-02
84865,6.39E-03,1.84E-02
84866,6.39E-03,1.84E-02
84867,6.39E-03,1.84E-02
84868,6.39E-03,1.83E-02
84869,6.39E-03,1.83E-02
84870,6.39E-03,1.83E-02
84871,6.39E-03,1.83E-02
84872,6.39E-03,1.83E-02
84873,6.39E-03,1.82E-02
84874,6.39E-03,1.82E-02
84875,6.39E-03,1.82E-02
84876,6.39E-03,1.82E-02
84877,6.39E-03,1.81E-02
84878,6.39E-03,1.81E-02
84879,6.39E-03,1.81E-02
84880,6.39E-03,1.81E-02
84881,6.39E-03,1.80E-02
84882,6.39E-03,1.80E-02
84883,6.39E-03,1.80E-02
84884,6.39E-03,1.80E-02
84885,6.39E-03,1.80E-02
84886,6.39E-03,1.79E-02
84887,6.39E-03,1.79E-02
84888,6.39E-03,1.79E-02
84889,6.39E-03,1.79E-02
84890,6.39E-03,1.79E-02
84891,6.39E-03,1.79E-02
84892,6.39E-03,1.79E-02
84893,6.39E-03,1.79E-02
84894,6.39E-03,1.78E-02
84895,6.39E-03,1.78E-02
84896,6.39E-03,1.78E-02
84897,6.39E-03,1.78E-02
84898,6.39E-03,1.78E-02
84899,6.39E-03,1.78E-02
84900,6.39E-03,1.79E-02
84901,6.39E-03,1.79E-02
84902,6.39E-03,1.79E-02
84903,6.39E-03,1.79E-02
84904,6.39E-03,1.79E-02
84905,6.39E-03,1.79E-02
84906,6.39E-03,1.79E-02
84907,6.39E-03,1.79E-02
84908,6.39E-03,1.79E-02
84909,6.39E-03,1.80E-02
84910,6.39E-03,1.80E-02
84911,6.39E-03,1.80E-02
84912,6.39E-03,1.80E-02
84913,6.39E-03,1.80E-02
84914,6.39E-03,1.80E-02
84915,6.39E-03,1.80E-02
84916,6.39E-03,1.81E-02
84917,6.39E-03,1.81E-02
84918,6.39E-03,1.81E-02
84919,6.39E-03,1.81E-02
84920,6.39E-03,1.81E-02
84921,6.39E-03,1.81E-02
84922,6.39E-03,1.82E-02
84923,6.39E-03,1.82E-02
84924,6.39E-03,1.82E-02
84925,6.39E-03,1.82E-02
84926,6.39E-03,1.82E-02
84927,6.39E-03,1.83E-02
84928,6.39E-03,1.83E-02
84929,6.39E-03,1.83E-02
84930,6.39E-03,1.83E-02
84931,6.39E-03,1.84E-02
84932,6.39E-03,1.84E-02
84933,6.39E-03,1.84E-02
84934,6.39E-03,1.84E-02
84935,6.39E-03,1.85E-02
84936,6.39E-03,1.85E-02
84937,6.39E-03,1.85E-02
84938,6.39E-03,1.86E-02
84939,6.39E-03,1.86E-02
84940,6.39E-03,1.86E-02
84941,6.39E-03,1.87E-02
84942,6.39E-03,1.87E-02
84943,6.39E-03,1.88E-02
84944,6.39E-03,1.88E-02
84945,6.39E-03,1.89E-02
84946,6.39E-03,1.89E-02
84947,6.39E-03,1.90E-02
84948,6.39E-03,1.91E-02
84949,6.39E-03,1.91E-02
84950,6.39E-03,1.92E-02
84951,6.39E-03,1.92E-02
84952,6.39E-03,1.93E-02
84953,6.39E-03,1.94E-02
84954,6.39E-03,1.95E-02
84955,6.39E-03,1.96E-02
84956,6.39E-03,1.96E-02
84957,6.39E-03,1.97E-02
84958,6.39E-03,1.98E-02
84959,6.39E-03,1.99E-02
84960,6.39E-03,2.00E-02
84961,6.39E-03,2.01E-02
84962,6.39E-03,2.02E-02
84963,6.39E-03,2.03E-02
84964,6.39E-03,2.04E-02
84965,6.39E-03,2.05E-02
84966,6.39E-03,2.06E-02
84967,6.39E-03,2.07E-02
84968,6.39E-03,2.08E-02
84969,6.39E-03,2.09E-02
84970,6.39E-03,2.10E-02
84971,6.39E-03,2.11E-02
84972,6.39E-03,2.12E-02
84973,6.39E-03,2.13E-02
84974,6.39E-03,2.14E-02
84975,6.39E-03,2.15E-02
84976,6.39E-03,2.17E-02
84977,6.39E-03,2.18E-02
84978,6.39E-03,2.19E-02
84979,6.39E-03,2.20E-02
84980,6.39E-03,2.21E-02
84981,6.39E-03,2.22E-02
84982,6.39E-03,2.23E-02
84983,6.39E-03,2.24E-02
84984,6.39E-03,2.25E-02
84985,6.39E-03,2.26E-02
84986,6.39E-03,1.84E-02
84987,6.39E-03,1.84E-02
84988,6.39E-03,1.84E-02
84989,6.39E-03,1.84E-02
84990,6.39E-03,1.84E-02
84991,6.39E-03,1.84E-02
84992,6.39E-03,1.84E-02
84993,6.39E-03,1.84E-02
84994,6.39E-03,1.84E-02
84995,6.39E-03,1.84E-02
84996,6.39E-03,1.84E-02
84997,6.39E-03,1.83E-02
84998,6.39E-03,1.83E-02
84999,6.39E-03,1.83E-02
85000,6.39E-03,1.83E-02
85001,6.39E-03,1.83E-02
85002,6.39E-03,1.83E-02
85003,6.39E-03,1.83E-02
85004,6.39E-03,1.82E-02
85005,6.39E-03,1.82E-02
85006,6.39E-03,1.82E-02
85007,6.39E-03,1.82E-02
85008,6.39E-03,1.82E-02
85009,6.39E-03,1.82E-02
85010,6.39E-03,1.81E-02
85011,6.39E-03,1.81E-02
85012,6.39E-03,1.81E-02
85013,6.39E-03,1.81E-02
85014,6.39E-03,1.80E-02
85015,6.39E-03,1.80E-02
85016,6.39E-03,1.80E-02
85017,6.39E-03,1.80E-02
85018,6.39E-03,1.80E-02
85019,6.39E-03,1.79E-02
85020,6.39E-03,1.79E-02
85021,6.39E-03,1.79E-02
85022,6.39E-03,1.79E-02
85023,6.39E-03,1.79E-02
85024,6.39E-03,1.79E-02
85025,6.39E-03,1.79E-02
85026,6.39E-03,1.78E-02
85027,6.39E-03,1.78E-02
85028,6.39E-03,1.78E-02
85029,6.39E-03,1.78E-02
85030,6.39E-03,1.78E-02
85031,6.39E-03,1.78E-02
85032,6.39E-03,1.78E-02
85033,6.39E-03,1.78E-02
85034,6.39E-03,1.78E-02
85035,6.39E-03,1.78E-02
85036,6.39E-03,1.78E-02
85037,6.39E-03,1.78E-02
85038,6.39E-03,1.79E-02
85039,6.39E-03,1.79E-02
85040,6.39E-03,1.79E-02
85041,6.39E-03,1.79E-02
85042,6.39E-03,1.79E-02
85043,6.39E-03,1.79E-02
85044,6.39E-03,1.79E-02
85045,6.39E-03,1.80E-02
85046,6.39E-03,1.80E-02
85047,6.39E-03,1.80E-02
85048,6.39E-03,1.80E-02
85049,6.39E-03,1.80E-02
85050,6.39E-03,1.80E-02
85051,6.39E-03,1.81E-02
85052,6.39E-03,1.81E-02
85053,6.39E-03,1.81E-02
85054,6.39E-03,1.81E-02
85055,6.39E-03,1.81E-02
85056,6.39E-03,1.82E-02
85057,6.39E-03,1.82E-02
85058,6.39E-03,1.82E-02
85059,6.39E-03,1.82E-02
85060,6.39E-03,1.82E-02
85061,6.39E-03,1.83E-02
85062,6.39E-03,1.83E-02
85063,6.39E-03,1.83E-02
85064,6.39E-03,1.83E-02
85065,6.39E-03,1.84E-02
85066,6.39E-03,1.84E-02
85067,6.39E-03,1.84E-02
85068,6.39E-03,1.85E-02
85069,6.39E-03,1.85E-02
85070,6.39E-03,1.85E-02
85071,6.39E-03,1.86E-02
85072,6.39E-03,1.86E-02
85073,6.39E-03,1.86E-02
85074,6.39E-03,1.87E-02
85075,6.39E-03,1.87E-02
85076,6.39E-03,1.87E-02
85077,6.39E-03,1.88E-02
85078,6.39E-03,1.88E-02
85079,6.39E-03,1.89E-02
85080,6.39E-03,1.89E-02
85081,6.39E-03,1.90E-02
85082,6.39E-03,1.91E-02
85083,6.39E-03,1.91E-02
85084,6.39E-03,1.92E-02
85085,6.39E-03,1.92E-02
85086,6.39E-03,1.93E-02
85087,6.39E-03,1.94E-02
85088,6.39E-03,1.95E-02
85089,6.39E-03,1.95E-02
85090,6.39E-03,1.96E-02
85091,6.39E-03,1.97E-02
85092,6.39E-03,1.98E-02
85093,6.39E-03,1.99E-02
85094,6.39E-03,1.99E-02
85095,6.39E-03,2.00E-02
85096,6.39E-03,2.01E-02
85097,6.39E-03,2.02E-02
85098,6.39E-03,2.03E-02
85099,6.39E-03,2.04E-02
85100,6.39E-03,2.05E-02
85101,6.39E-03,2.06E-02
85102,6.39E-03,2.07E-02
85103,6.39E-03,2.08E-02
85104,6.39E-03,2.09E-02
85105,6.39E-03,2.10E-02
85106,6.39E-03,2.12E-02
85107,6.39E-03,2.13E-02
85108,6.39E-03,2.14E-02
85109,6.39E-03,2.15E-02
85110,6.39E-03,2.16E-02
85111,6.39E-03,2.17E-02
85112,6.39E-03,2.18E-02
85113,6.39E-03,2.19E-02
85114,6.39E-03,2.20E-02
85115,6.39E-03,2.21E-02
85116,6.39E-03,2.22E-02
85117,6.39E-03,2.24E-02
85118,6.39E-03,2.25E-02
85119,6.39E-03,2.26E-02
85120,6.39E-03,2.27E-02
85121,6.39E-03,2.28E-02
85122,6.39E-03,1.83E-02
85123,6.39E-03,1.83E-02
85124,6.39E-03,1.83E-02
85125,6.39E-03,1.83E-02
85126,6.39E-03,1.83E-02
85127,6.39E-03,1.83E-02
85128,6.39E-03,1.83E-02
85129,6.39E-03,1.83E-02
85130,6.39E-03,1.83E-02
85131,6.39E-03,1.82E-02
85132,6.39E-03,1.82E-02
85133,6.39E-03,1.82E-02
85134,6.39E-03,1.82E-02
85135,6.39E-03,1.82E-02
85136,6.39E-03,1.82E-02
85137,6.39E-03,1.82E-02
85138,6.39E-03,1.82E-02
85139,6.39E-03,1.82E-02
85140,6.39E-03,1.81E-02
85141,6.39E-03,1.81E-02
85142,6.39E-03,1.81E-02
85143,6.39E-03,1.81E-02
85144,6.39E-03,1.81E-02
85145,6.39E-03,1.81E-02
85146,6.39E-03,1.80E-02
85147,6.39E-03,1.80E-02
85148,6.39E-03,1.80E-02
85149,6.39E-03,1.80E-02
85150,6.39E-03,1.80E-02
85151,6.39E-03,1.80E-02
85152,6.39E-03,1.79E-02
85153,6.39E-03,1.79E-02
85154,6.39E-03,1.79E-02
85155,6.39E-03,1.79E-02
85156,6.39E-03,1.79E-02
85157,6.39E-03,1.79E-02
85158,6.39E-03,1.78E-02
85159,6.39E-03,1.78E-02
85160,6.39E-03,1.78E-02
85161,6.39E-03,1.78E-02
85162,6.39E-03,1.78E-02
85163,6.39E-03,1.78E-02
85164,6.39E-03,1.78E-02
85165,6.39E-03,1.78E-02
85166,6.39E-03,1.78E-02
85167,6.39E-03,1.78E-02
85168,6.39E-03,1.78E-02
85169,6.39E-03,1.78E-02
85170,6.39E-03,1.78E-02
85171,6.39E-03,1.78E-02
85172,6.39E-03,1.78E-02
85173,6.39E-03,1.78E-02
85174,6.39E-03,1.78E-02
85175,6.39E-03,1.79E-02
85176,6.39E-03,1.79E-02
85177,6.39E-03,1.79E-02
85178,6.39E-03,1.79E-02
85179,6.39E-03,1.79E-02
85180,6.39E-03,1.79E-02
85181,6.39E-03,1.80E-02
85182,6.39E-03,1.80E-02
85183,6.39E-03,1.80E-02
85184,6.39E-03,1.80E-02
85185,6.39E-03,1.80E-02
85186,6.39E-03,1.81E-02
85187,6.39E-03,1.81E-02
85188,6.39E-03,1.81E-02
85189,6.39E-03,1.81E-02
85190,6.39E-03,1.81E-02
85191,6.39E-03,1.82E-02
85192,6.39E-03,1.82E-02
85193,6.39E-03,1.82E-02
85194,6.39E-03,1.82E-02
85195,6.39E-03,1.83E-02
85196,6.39E-03,1.83E-02
85197,6.39E-03,1.83E-02
85198,6.39E-03,1.83E-02
85199,6.39E-03,1.84E-02
85200,6.39E-03,1.84E-02
85201,6.39E-03,1.84E-02
85202,6.39E-03,1.85E-02
85203,6.39E-03,1.85E-02
85204,6.39E-03,1.85E-02
85205,6.39E-03,1.86E-02
85206,6.39E-03,1.86E-02
85207,6.39E-03,1.86E-02
85208,6.39E-03,1.87E-02
85209,6.39E-03,1.87E-02
85210,6.39E-03,1.88E-02
85211,6.39E-03,1.88E-02
85212,6.39E-03,1.88E-02
85213,6.39E-03,1.89E-02
85214,6.39E-03,1.89E-02
85215,6.39E-03,1.90E-02
85216,6.39E-03,1.90E-02
85217,6.39E-03,1.91E-02
85218,6.39E-03,1.92E-02
85219,6.39E-03,1.92E-02
85220,6.39E-03,1.93E-02
85221,6.39E-03,1.94E-02
85222,6.39E-03,1.94E-02
85223,6.39E-03,1.95E-02
85224,6.39E-03,1.96E-02
85225,6.39E-03,1.97E-02
85226,6.39E-03,1.97E-02
85227,6.39E-03,1.98E-02
85228,6.39E-03,1.99E-02
85229,6.39E-03,2.00E-02
85230,6.39E-03,2.01E-02
85231,6.39E-03,2.02E-02
85232,6.39E-03,2.03E-02
85233,6.39E-03,2.04E-02
85234,6.39E-03,2.05E-02
85235,6.39E-03,2.06E-02
85236,6.39E-03,2.07E-02
85237,6.39E-03,2.08E-02
85238,6.39E-03,2.09E-02
85239,6.39E-03,2.10E-02
85240,6.39E-03,2.11E-02
85241,6.39E-03,2.12E-02
85242,6.39E-03,2.13E-02
85243,6.39E-03,2.14E-02
85244,6.39E-03,2.15E-02
85245,6.39E-03,2.16E-02
85246,6.39E-03,2.17E-02
85247,6.39E-03,2.18E-02
85248,6.39E-03,2.20E-02
85249,6.39E-03,2.21E-02
85250,6.39E-03,2.22E-02
85251,6.39E-03,2.23E-02
85252,6.39E-03,2.24E-02
85253,6.39E-03,2.25E-02
85254,6.39E-03,2.26E-02
85255,6.39E-03,2.27E-02
85256,6.39E-03,2.28E-02
85257,6.39E-03,2.29E-02
85258,6.39E-03,1.82E-02
85259,6.39E-03,1.82E-02
85260,6.39E-03,1.82E-02
85261,6.39E-03,1.82E-02
85262,6.39E-03,1.82E-02
85263,6.39E-03,1.81E-02
85264,6.39E-03,1.81E-02
85265,6.39E-03,1.81E-02
85266,6.39E-03,1.81E-02
85267,6.39E-03,1.81E-02
85268,6.39E-03,1.81E-02
85269,6.39E-03,1.81E-02
85270,6.39E-03,1.81E-02
85271,6.39E-03,1.81E-02
85272,6.39E-03,1.81E-02
85273,6.39E-03,1.81E-02
85274,6.39E-03,1.81E-02
85275,6.39E-03,1.81E-02
85276,6.39E-03,1.80E-02
85277,6.39E-03,1.80E-02
85278,6.39E-03,1.80E-02
85279,6.39E-03,1.80E-02
85280,6.39E-03,1.80E-02
85281,6.39E-03,1.80E-02
85282,6.39E-03,1.80E-02
85283,6.39E-03,1.79E-02
85284,6.39E-03,1.79E-02
85285,6.39E-03,1.79E-02
85286,6.39E-03,1.79E-02
85287,6.39E-03,1.79E-02
85288,6.39E-03,1.79E-02
85289,6.39E-03,1.78E-02
85290,6.39E-03,1.78E-02
85291,6.39E-03,1.78E-02
85292,6.39E-03,1.78E-02
85293,6.39E-03,1.78E-02
85294,6.39E-03,1.78E-02
85295,6.39E-03,1.78E-02
85296,6.39E-03,1.78E-02
85297,6.39E-03,1.78E-02
85298,6.39E-03,1.78E-02
85299,6.39E-03,1.78E-02
85300,6.39E-03,1.78E-02
85301,6.39E-03,1.78E-02
85302,6.39E-03,1.78E-02
85303,6.39E-03,1.78E-02
85304,6.39E-03,1.78E-02
85305,6.39E-03,1.78E-02
85306,6.39E-03,1.78E-02
85307,6.39E-03,1.78E-02
85308,6.39E-03,1.78E-02
85309,6.39E-03,1.78E-02
85310,6.39E-03,1.78E-02
85311,6.39E-03,1.78E-02
85312,6.39E-03,1.79E-02
85313,6.39E-03,1.79E-02
85314,6.39E-03,1.79E-02
85315,6.39E-03,1.79E-02
85316,6.39E-03,1.79E-02
85317,6.39E-03,1.80E-02
85318,6.39E-03,1.80E-02
85319,6.39E-03,1.80E-02
85320,6.39E-03,1.80E-02
85321,6.39E-03,1.81E-02
85322,6.39E-03,1.81E-02
85323,6.39E-03,1.81E-02
85324,6.39E-03,1.81E-02
85325,6.39E-03,1.81E-02
85326,6.39E-03,1.82E-02
85327,6.39E-03,1.82E-02
85328,6.39E-03,1.82E-02
85329,6.39E-03,1.83E-02
85330,6.39E-03,1.83E-02
85331,6.39E-03,1.83E-02
85332,6.39E-03,1.83E-02
85333,6.39E-03,1.84E-02
85334,6.39E-03,1.84E-02
85335,6.39E-03,1.84E-02
85336,6.39E-03,1.85E-02
85337,6.39E-03,1.85E-02
85338,6.39E-03,1.85E-02
85339,6.39E-03,1.86E-02
85340,6.39E-03,1.86E-02
85341,6.39E-03,1.86E-02
85342,6.39E-03,1.87E-02
85343,6.39E-03,1.87E-02
85344,6.39E-03,1.88E-02
85345,6.39E-03,1.88E-02
85346,6.39E-03,1.88E-02
85347,6.39E-03,1.89E-02
85348,6.39E-03,1.89E-02
85349,6.39E-03,1.90E-02
85350,6.39E-03,1.90E-02
85351,6.39E-03,1.91E-02
85352,6.39E-03,1.91E-02
85353,6.39E-03,1.92E-02
85354,6.39E-03,1.93E-02
85355,6.39E-03,1.93E-02
85356,6.39E-03,1.94E-02
85357,6.39E-03,1.95E-02
85358,6.39E-03,1.95E-02
85359,6.39E-03,1.96E-02
85360,6.39E-03,1.97E-02
85361,6.39E-03,1.98E-02
85362,6.39E-03,1.98E-02
85363,6.39E-03,1.99E-02
85364,6.39E-03,2.00E-02
85365,6.39E-03,2.01E-02
85366,6.39E-03,2.02E-02
85367,6.39E-03,2.03E-02
85368,6.39E-03,2.04E-02
85369,6.39E-03,2.05E-02
85370,6.39E-03,2.06E-02
85371,6.39E-03,2.07E-02
85372,6.39E-03,2.08E-02
85373,6.39E-03,2.09E-02
85374,6.39E-03,2.10E-02
85375,6.39E-03,2.11E-02
85376,6.39E-03,2.12E-02
85377,6.39E-03,2.13E-02
85378,6.39E-03,2.14E-02
85379,6.39E-03,2.15E-02
85380,6.39E-03,2.16E-02
85381,6.39E-03,2.18E-02
85382,6.39E-03,2.19E-02
85383,6.39E-03,2.20E-02
85384,6.39E-03,2.21E-02
85385,6.39E-03,2.22E-02
85386,6.39E-03,2.23E-02
85387,6.39E-03,2.24E-02
85388,6.39E-03,2.25E-02
85389,6.39E-03,2.27E-02
85390,6.39E-03,2.28E-02
85391,6.39E-03,2.29E-02
85392,6.39E-03,2.30E-02
85393,6.39E-03,2.31E-02
85394,6.39E-03,1.80E-02
85395,6.39E-03,1.80E-02
85396,6.39E-03,1.80E-02
85397,6.39E-03,1.80E-02
85398,6.39E-03,1.80E-02
85399,6.39E-03,1.80E-02
85400,6.39E-03,1.80E-02
85401,6.39E-03,1.80E-02
85402,6.39E-03,1.80E-02
85403,6.39E-03,1.80E-02
85404,6.39E-03,1.80E-02
85405,6.39E-03,1.80E-02
85406,6.39E-03,1.80E-02
85407,6.39E-03,1.80E-02
85408,6.39E-03,1.80E-02
85409,6.39E-03,1.80E-02
85410,6.39E-03,1.80E-02
85411,6.39E-03,1.79E-02
85412,6.39E-03,1.79E-02
85413,6.39E-03,1.79E-02
85414,6.39E-03,1.79E-02
85415,6.39E-03,1.79E-02
85416,6.39E-03,1.79E-02
85417,6.39E-03,1.79E-02
85418,6.39E-03,1.79E-02
85419,6.39E-03,1.79E-02
85420,6.39E-03,1.78E-02
85421,6.39E-03,1.78E-02
85422,6.39E-03,1.78E-02
85423,6.39E-03,1.78E-02
85424,6.39E-03,1.78E-02
85425,6.39E-03,1.78E-02
85426,6.39E-03,1.78E-02
85427,6.39E-03,1.78E-02
85428,6.39E-03,1.78E-02
85429,6.39E-03,1.77E-02
85430,6.39E-03,1.77E-02
85431,6.39E-03,1.77E-02
85432,6.39E-03,1.77E-02
85433,6.39E-03,1.77E-02
85434,6.39E-03,1.77E-02
85435,6.39E-03,1.77E-02
85436,6.39E-03,1.77E-02
85437,6.39E-03,1.77E-02
85438,6.39E-03,1.77E-02
85439,6.39E-03,1.77E-02
85440,6.39E-03,1.77E-02
85441,6.39E-03,1.78E-02
85442,6.39E-03,1.78E-02
85443,6.39E-03,1.78E-02
85444,6.39E-03,1.78E-02
85445,6.39E-03,1.78E-02
85446,6.39E-03,1.78E-02
85447,6.39E-03,1.78E-02
85448,6.39E-03,1.79E-02
85449,6.39E-03,1.79E-02
85450,6.39E-03,1.79E-02
85451,6.39E-03,1.79E-02
85452,6.39E-03,1.79E-02
85453,6.39E-03,1.80E-02
85454,6.39E-03,1.80E-02
85455,6.39E-03,1.80E-02
85456,6.39E-03,1.80E-02
85457,6.39E-03,1.81E-02
85458,6.39E-03,1.81E-02
85459,6.39E-03,1.81E-02
85460,6.39E-03,1.81E-02
85461,6.39E-03,1.82E-02
85462,6.39E-03,1.82E-02
85463,6.39E-03,1.82E-02
85464,6.39E-03,1.83E-02
85465,6.39E-03,1.83E-02
85466,6.39E-03,1.83E-02
85467,6.39E-03,1.83E-02
85468,6.39E-03,1.84E-02
85469,6.39E-03,1.84E-02
85470,6.39E-03,1.84E-02
85471,6.39E-03,1.85E-02
85472,6.39E-03,1.85E-02
85473,6.39E-03,1.85E-02
85474,6.39E-03,1.86E-02
85475,6.39E-03,1.86E-02
85476,6.39E-03,1.87E-02
85477,6.39E-03,1.87E-02
85478,6.39E-03,1.87E-02
85479,6.39E-03,1.88E-02
85480,6.39E-03,1.88E-02
85481,6.39E-03,1.89E-02
85482,6.39E-03,1.89E-02
85483,6.39E-03,1.90E-02
85484,6.39E-03,1.90E-02
85485,6.39E-03,1.91E-02
85486,6.39E-03,1.91E-02
85487,6.39E-03,1.92E-02
85488,6.39E-03,1.92E-02
85489,6.39E-03,1.93E-02
85490,6.39E-03,1.94E-02
85491,6.39E-03,1.94E-02
85492,6.39E-03,1.95E-02
85493,6.39E-03,1.96E-02
85494,6.39E-03,1.96E-02
85495,6.39E-03,1.97E-02
85496,6.39E-03,1.98E-02
85497,6.39E-03,1.99E-02
85498,6.39E-03,2.00E-02
85499,6.39E-03,2.00E-02
85500,6.39E-03,2.01E-02
85501,6.39E-03,2.02E-02
85502,6.39E-03,2.03E-02
85503,6.39E-03,2.04E-02
85504,6.39E-03,2.05E-02
85505,6.39E-03,2.06E-02
85506,6.39E-03,2.07E-02
85507,6.39E-03,2.08E-02
85508,6.39E-03,2.09E-02
85509,6.39E-03,2.10E-02
85510,6.39E-03,2.11E-02
85511,6.39E-03,2.12E-02
85512,6.39E-03,2.13E-02
85513,6.39E-03,2.14E-02
85514,6.39E-03,2.16E-02
85515,6.39E-03,2.17E-02
85516,6.39E-03,2.18E-02
85517,6.39E-03,2.19E-02
85518,6.39E-03,2.20E-02
85519,6.39E-03,2.21E-02
85520,6.39E-03,2.22E-02
85521,6.39E-03,2.23E-02
85522,6.39E-03,2.25E-02
85523,6.39E-03,2.26E-02
85524,6.39E-03,2.27E-02
85525,6.39E-03,2.28E-02
85526,6.39E-03,2.29E-02
85527,6.39E-03,2.30E-02
85528,6.39E-03,2.31E-02
85529,6.39E-03,2.32E-02
85530,6.39E-03,1.79E-02
85531,6.39E-03,1.79E-02
85532,6.39E-03,1.79E-02
85533,6.39E-03,1.79E-02
85534,6.39E-03,1.79E-02
85535,6.39E-03,1.79E-02
85536,6.39E-03,1.79E-02
85537,6.39E-03,1.79E-02
85538,6.39E-03,1.79E-02
85539,6.39E-03,1.79E-02
85540,6.39E-03,1.79E-02
85541,6.39E-03,1.79E-02
85542,6.39E-03,1.79E-02
85543,6.39E-03,1.79E-02
85544,6.39E-03,1.79E-02
85545,6.39E-03,1.79E-02
85546,6.39E-03,1.79E-02
85547,6.39E-03,1.78E-02
85548,6.39E-03,1.78E-02
85549,6.39E-03,1.78E-02
85550,6.39E-03,1.78E-02
85551,6.39E-03,1.78E-02
85552,6.39E-03,1.78E-02
85553,6.39E-03,1.78E-02
85554,6.39E-03,1.78E-02
85555,6.39E-03,1.78E-02
85556,6.39E-03,1.78E-02
85557,6.39E-03,1.78E-02
85558,6.39E-03,1.77E-02
85559,6.39E-03,1.77E-02
85560,6.39E-03,1.77E-02
85561,6.39E-03,1.77E-02
85562,6.39E-03,1.77E-02
85563,6.39E-03,1.77E-02
85564,6.39E-03,1.77E-02
85565,6.39E-03,1.77E-02
85566,6.39E-03,1.77E-02
85567,6.39E-03,1.77E-02
85568,6.39E-03,1.77E-02
85569,6.39E-03,1.77E-02
85570,6.39E-03,1.77E-02
85571,6.39E-03,1.77E-02
85572,6.39E-03,1.77E-02
85573,6.39E-03,1.77E-02
85574,6.39E-03,1.77E-02
85575,6.39E-03,1.77E-02
85576,6.39E-03,1.77E-02
85577,6.39E-03,1.77E-02
85578,6.39E-03,1.77E-02
85579,6.39E-03,1.78E-02
85580,6.39E-03,1.78E-02
85581,6.39E-03,1.78E-02
85582,6.39E-03,1.78E-02
85583,6.39E-03,1.78E-02
85584,6.39E-03,1.78E-02
85585,6.39E-03,1.79E-02
85586,6.39E-03,1.79E-02
85587,6.39E-03,1.79E-02
85588,6.39E-03,1.79E-02
85589,6.39E-03,1.80E-02
85590,6.39E-03,1.80E-02
85591,6.39E-03,1.80E-02
85592,6.39E-03,1.80E-02
85593,6.39E-03,1.81E-02
85594,6.39E-03,1.81E-02
85595,6.39E-03,1.81E-02
85596,6.39E-03,1.82E-02
85597,6.39E-03,1.82E-02
85598,6.39E-03,1.82E-02
85599,6.39E-03,1.82E-02
85600,6.39E-03,1.83E-02
85601,6.39E-03,1.83E-02
85602,6.39E-03,1.83E-02
85603,6.39E-03,1.84E-02
85604,6.39E-03,1.84E-02
85605,6.39E-03,1.84E-02
85606,6.39E-03,1.85E-02
85607,6.39E-03,1.85E-02
85608,6.39E-03,1.86E-02
85609,6.39E-03,1.86E-02
85610,6.39E-03,1.86E-02
85611,6.39E-03,1.87E-02
85612,6.39E-03,1.87E-02
85613,6.39E-03,1.88E-02
85614,6.39E-03,1.88E-02
85615,6.39E-03,1.88E-02
85616,6.39E-03,1.89E-02
85617,6.39E-03,1.89E-02
85618,6.39E-03,1.90E-02
85619,6.39E-03,1.90E-02
85620,6.39E-03,1.91E-02
85621,6.39E-03,1.92E-02
85622,6.39E-03,1.92E-02
85623,6.39E-03,1.93E-02
85624,6.39E-03,1.93E-02
85625,6.39E-03,1.94E-02
85626,6.39E-03,1.95E-02
85627,6.39E-03,1.95E-02
85628,6.39E-03,1.96E-02
85629,6.39E-03,1.97E-02
85630,6.39E-03,1.97E-02
85631,6.39E-03,1.98E-02
85632,6.39E-03,1.99E-02
85633,6.39E-03,2.00E-02
85634,6.39E-03,2.01E-02
85635,6.39E-03,2.01E-02
85636,6.39E-03,2.02E-02
85637,6.39E-03,2.03E-02
85638,6.39E-03,2.04E-02
85639,6.39E-03,2.05E-02
85640,6.39E-03,2.06E-02
85641,6.39E-03,2.07E-02
85642,6.39E-03,2.08E-02
85643,6.39E-03,2.09E-02
85644,6.39E-03,2.10E-02
85645,6.39E-03,2.11E-02
85646,6.39E-03,2.12E-02
85647,6.39E-03,2.13E-02
85648,6.39E-03,2.15E-02
85649,6.39E-03,2.16E-02
85650,6.39E-03,2.17E-02
85651,6.39E-03,2.18E-02
85652,6.39E-03,2.19E-02
85653,6.39E-03,2.20E-02
85654,6.39E-03,2.21E-02
85655,6.39E-03,2.22E-02
85656,6.39E-03,2.24E-02
85657,6.39E-03,2.25E-02
85658,6.39E-03,2.26E-02
85659,6.39E-03,2.27E-02
85660,6.39E-03,2.28E-02
85661,6.39E-03,2.29E-02
85662,6.39E-03,2.30E-02
85663,6.39E-03,2.32E-02
85664,6.39E-03,2.33E-02
85665,6.39E-03,2.34E-02
85666,6.39E-03,1.78E-02
85667,6.39E-03,1.78E-02
85668,6.39E-03,1.78E-02
85669,6.39E-03,1.78E-02
85670,6.39E-03,1.78E-02
85671,6.39E-03,1.78E-02
85672,6.39E-03,1.78E-02
85673,6.39E-03,1.78E-02
85674,6.39E-03,1.78E-02
85675,6.39E-03,1.78E-02
85676,6.39E-03,1.78E-02
85677,6.39E-03,1.78E-02
85678,6.39E-03,1.78E-02
85679,6.39E-03,1.78E-02
85680,6.39E-03,1.78E-02
85681,6.39E-03,1.78E-02
85682,6.39E-03,1.77E-02
85683,6.39E-03,1.77E-02
85684,6.39E-03,1.77E-02
85685,6.39E-03,1.77E-02
85686,6.39E-03,1.77E-02
85687,6.39E-03,1.77E-02
85688,6.39E-03,1.77E-02
85689,6.39E-03,1.77E-02
85690,6.39E-03,1.77E-02
85691,6.39E-03,1.77E-02
85692,6.39E-03,1.77E-02
85693,6.39E-03,1.77E-02
85694,6.39E-03,1.77E-02
85695,6.39E-03,1.77E-02
85696,6.39E-03,1.77E-02
85697,6.39E-03,1.76E-02
85698,6.39E-03,1.76E-02
85699,6.39E-03,1.76E-02
85700,6.39E-03,1.76E-02
85701,6.39E-03,1.76E-02
85702,6.39E-03,1.76E-02
85703,6.39E-03,1.76E-02
85704,6.39E-03,1.76E-02
85705,6.39E-03,1.76E-02
85706,6.39E-03,1.76E-02
85707,6.39E-03,1.76E-02
85708,6.39E-03,1.76E-02
85709,6.39E-03,1.77E-02
85710,6.39E-03,1.77E-02
85711,6.39E-03,1.77E-02
85712,6.39E-03,1.77E-02
85713,6.39E-03,1.77E-02
85714,6.39E-03,1.77E-02
85715,6.39E-03,1.77E-02
85716,6.39E-03,1.78E-02
85717,6.39E-03,1.78E-02
85718,6.39E-03,1.78E-02
85719,6.39E-03,1.78E-02
85720,6.39E-03,1.78E-02
85721,6.39E-03,1.79E-02
85722,6.39E-03,1.79E-02
85723,6.39E-03,1.79E-02
85724,6.39E-03,1.79E-02
85725,6.39E-03,1.80E-02
85726,6.39E-03,1.80E-02
85727,6.39E-03,1.80E-02
85728,6.39E-03,1.80E-02
85729,6.39E-03,1.81E-02
85730,6.39E-03,1.81E-02
85731,6.39E-03,1.81E-02
85732,6.39E-03,1.82E-02
85733,6.39E-03,1.82E-02
85734,6.39E-03,1.82E-02
85735,6.39E-03,1.83E-02
85736,6.39E-03,1.83E-02
85737,6.39E-03,1.83E-02
85738,6.39E-03,1.84E-02
85739,6.39E-03,1.84E-02
85740,6.39E-03,1.84E-02
85741,6.39E-03,1.85E-02
85742,6.39E-03,1.85E-02
85743,6.39E-03,1.86E-02
85744,6.39E-03,1.86E-02
85745,6.39E-03,1.86E-02
85746,6.39E-03,1.87E-02
85747,6.39E-03,1.87E-02
85748,6.39E-03,1.88E-02
85749,6.39E-03,1.88E-02
85750,6.39E-03,1.89E-02
85751,6.39E-03,1.89E-02
85752,6.39E-03,1.90E-02
85753,6.39E-03,1.90E-02
85754,6.39E-03,1.91E-02
85755,6.39E-03,1.91E-02
85756,6.39E-03,1.92E-02
85757,6.39E-03,1.92E-02
85758,6.39E-03,1.93E-02
85759,6.39E-03,1.93E-02
85760,6.39E-03,1.94E-02
85761,6.39E-03,1.95E-02
85762,6.39E-03,1.95E-02
85763,6.39E-03,1.96E-02
85764,6.39E-03,1.97E-02
85765,6.39E-03,1.98E-02
85766,6.39E-03,1.98E-02
85767,6.39E-03,1.99E-02
85768,6.39E-03,2.00E-02
85769,6.39E-03,2.01E-02
85770,6.39E-03,2.02E-02
85771,6.39E-03,2.02E-02
85772,6.39E-03,2.03E-02
85773,6.39E-03,2.04E-02
85774,6.39E-03,2.05E-02
85775,6.39E-03,2.06E-02
85776,6.39E-03,2.07E-02
85777,6.39E-03,2.08E-02
85778,6.39E-03,2.09E-02
85779,6.39E-03,2.10E-02
85780,6.39E-03,2.11E-02
85781,6.39E-03,2.12E-02
85782,6.39E-03,2.13E-02
85783,6.39E-03,2.15E-02
85784,6.39E-03,2.16E-02
85785,6.39E-03,2.17E-02
85786,6.39E-03,2.18E-02
85787,6.39E-03,2.19E-02
85788,6.39E-03,2.20E-02
85789,6.39E-03,2.21E-02
85790,6.39E-03,2.22E-02
85791,6.39E-03,2.24E-02
85792,6.39E-03,2.25E-02
85793,6.39E-03,2.26E-02
85794,6.39E-03,2.27E-02
85795,6.39E-03,2.28E-02
85796,6.39E-03,2.29E-02
85797,6.39E-03,2.31E-02
85798,6.39E-03,2.32E-02
85799,6.39E-03,2.33E-02
85800,6.39E-03,2.34E-02
85801,6.39E-03,2.35E-02
85802,6.39E-03,1.76E-02
85803,6.39E-03,1.77E-02
85804,6.39E-03,1.77E-02
85805,6.39E-03,1.77E-02
85806,6.39E-03,1.77E-02
85807,6.39E-03,1.77E-02
85808,6.39E-03,1.77E-02
85809,6.39E-03,1.77E-02
85810,6.39E-03,1.77E-02
85811,6.39E-03,1.77E-02
85812,6.39E-03,1.77E-02
85813,6.39E-03,1.77E-02
85814,6.39E-03,1.77E-02
85815,6.39E-03,1.77E-02
85816,6.39E-03,1.76E-02
85817,6.39E-03,1.76E-02
85818,6.39E-03,1.76E-02
85819,6.39E-03,1.76E-02
85820,6.39E-03,1.76E-02
85821,6.39E-03,1.76E-02
85822,6.39E-03,1.76E-02
85823,6.39E-03,1.76E-02
85824,6.39E-03,1.76E-02
85825,6.39E-03,1.76E-02
85826,6.39E-03,1.76E-02
85827,6.39E-03,1.76E-02
85828,6.39E-03,1.76E-02
85829,6.39E-03,1.76E-02
85830,6.39E-03,1.76E-02
85831,6.39E-03,1.76E-02
85832,6.39E-03,1.76E-02
85833,6.39E-03,1.76E-02
85834,6.39E-03,1.76E-02
85835,6.39E-03,1.76E-02
85836,6.39E-03,1.76E-02
85837,6.39E-03,1.76E-02
85838,6.39E-03,1.76E-02
85839,6.39E-03,1.76E-02
85840,6.39E-03,1.76E-02
85841,6.39E-03,1.76E-02
85842,6.39E-03,1.76E-02
85843,6.39E-03,1.76E-02
85844,6.39E-03,1.76E-02
85845,6.39E-03,1.76E-02
85846,6.39E-03,1.76E-02
85847,6.39E-03,1.76E-02
85848,6.39E-03,1.77E-02
85849,6.39E-03,1.77E-02
85850,6.39E-03,1.77E-02
85851,6.39E-03,1.77E-02
85852,6.39E-03,1.77E-02
85853,6.39E-03,1.78E-02
85854,6.39E-03,1.78E-02
85855,6.39E-03,1.78E-02
85856,6.39E-03,1.78E-02
85857,6.39E-03,1.78E-02
85858,6.39E-03,1.79E-02
85859,6.39E-03,1.79E-02
85860,6.39E-03,1.79E-02
85861,6.39E-03,1.80E-02
85862,6.39E-03,1.80E-02
85863,6.39E-03,1.80E-02
85864,6.39E-03,1.80E-02
85865,6.39E-03,1.81E-02
85866,6.39E-03,1.81E-02
85867,6.39E-03,1.81E-02
85868,6.39E-03,1.82E-02
85869,6.39E-03,1.82E-02
85870,6.39E-03,1.82E-02
85871,6.39E-03,1.83E-02
85872,6.39E-03,1.83E-02
85873,6.39E-03,1.84E-02
85874,6.39E-03,1.84E-02
85875,6.39E-03,1.84E-02
85876,6.39E-03,1.85E-02
85877,6.39E-03,1.85E-02
85878,6.39E-03,1.86E-02
85879,6.39E-03,1.86E-02
85880,6.39E-03,1.86E-02
85881,6.39E-03,1.87E-02
85882,6.39E-03,1.87E-02
85883,6.39E-03,1.88E-02
85884,6.39E-03,1.88E-02
85885,6.39E-03,1.89E-02
85886,6.39E-03,1.89E-02
85887,6.39E-03,1.90E-02
85888,6.39E-03,1.90E-02
85889,6.39E-03,1.91E-02
85890,6.39E-03,1.91E-02
85891,6.39E-03,1.92E-02
85892,6.39E-03,1.92E-02
85893,6.39E-03,1.93E-02
85894,6.39E-03,1.94E-02
85895,6.39E-03,1.94E-02
85896,6.39E-03,1.95E-02
85897,6.39E-03,1.95E-02
85898,6.39E-03,1.96E-02
85899,6.39E-03,1.97E-02
85900,6.39E-03,1.98E-02
85901,6.39E-03,1.98E-02
85902,6.39E-03,1.99E-02
85903,6.39E-03,2.00E-02
85904,6.39E-03,2.01E-02
85905,6.39E-03,2.02E-02
85906,6.39E-03,2.02E-02
85907,6.39E-03,2.03E-02
85908,6.39E-03,2.04E-02
85909,6.39E-03,2.05E-02
85910,6.39E-03,2.06E-02
85911,6.39E-03,2.07E-02
85912,6.39E-03,2.08E-02
85913,6.39E-03,2.09E-02
85914,6.39E-03,2.10E-02
85915,6.39E-03,2.11E-02
85916,6.39E-03,2.12E-02
85917,6.39E-03,2.13E-02
85918,6.39E-03,2.14E-02
85919,6.39E-03,2.16E-02
85920,6.39E-03,2.17E-02
85921,6.39E-03,2.18E-02
85922,6.39E-03,2.19E-02
85923,6.39E-03,2.20E-02
85924,6.39E-03,2.21E-02
85925,6.39E-03,2.22E-02
85926,6.39E-03,2.24E-02
85927,6.39E-03,2.25E-02
85928,6.39E-03,2.26E-02
85929,6.39E-03,2.27E-02
85930,6.39E-03,2.28E-02
85931,6.39E-03,2.29E-02
85932,6.39E-03,2.31E-02
85933,6.39E-03,2.32E-02
85934,6.39E-03,2.33E-02
85935,6.39E-03,2.34E-02
85936,6.39E-03,2.35E-02
85937,6.39E-03,2.36E-02
85938,6.39E-03,1.75E-02
85939,6.39E-03,1.75E-02
85940,6.39E-03,1.75E-02
85941,6.39E-03,1.75E-02
85942,6.39E-03,1.75E-02
85943,6.39E-03,1.75E-02
85944,6.39E-03,1.75E-02
85945,6.39E-03,1.75E-02
85946,6.39E-03,1.75E-02
85947,6.39E-03,1.75E-02
85948,6.39E-03,1.75E-02
85949,6.39E-03,1.75E-02
85950,6.39E-03,1.75E-02
85951,6.39E-03,1.75E-02
85952,6.39E-03,1.75E-02
85953,6.39E-03,1.75E-02
85954,6.39E-03,1.75E-02
85955,6.39E-03,1.75E-02
85956,6.39E-03,1.75E-02
85957,6.39E-03,1.75E-02
85958,6.39E-03,1.75E-02
85959,6.39E-03,1.75E-02
85960,6.39E-03,1.75E-02
85961,6.39E-03,1.75E-02
85962,6.39E-03,1.75E-02
85963,6.39E-03,1.75E-02
85964,6.39E-03,1.75E-02
85965,6.39E-03,1.75E-02
85966,6.39E-03,1.75E-02
85967,6.39E-03,1.75E-02
85968,6.39E-03,1.75E-02
85969,6.39E-03,1.75E-02
85970,6.39E-03,1.75E-02
85971,6.39E-03,1.75E-02
85972,6.39E-03,1.75E-02
85973,6.39E-03,1.75E-02
85974,6.39E-03,1.75E-02
85975,6.39E-03,1.75E-02
85976,6.39E-03,1.75E-02
85977,6.39E-03,1.75E-02
85978,6.39E-03,1.75E-02
85979,6.39E-03,1.76E-02
85980,6.39E-03,1.76E-02
85981,6.39E-03,1.76E-02
85982,6.39E-03,1.76E-02
85983,6.39E-03,1.76E-02
85984,6.39E-03,1.76E-02
85985,6.39E-03,1.76E-02
85986,6.39E-03,1.77E-02
85987,6.39E-03,1.77E-02
85988,6.39E-03,1.77E-02
85989,6.39E-03,1.77E-02
85990,6.39E-03,1.78E-02
85991,6.39E-03,1.78E-02
85992,6.39E-03,1.78E-02
85993,6.39E-03,1.78E-02
85994,6.39E-03,1.79E-02
85995,6.39E-03,1.79E-02
85996,6.39E-03,1.79E-02
85997,6.39E-03,1.80E-02
85998,6.39E-03,1.80E-02
85999,6.39E-03,1.80E-02
86000,6.39E-03,1.80E-02
86001,6.39E-03,1.81E-02
86002,6.39E-03,1.81E-02
86003,6.39E-03,1.82E-02
86004,6.39E-03,1.82E-02
86005,6.39E-03,1.82E-02
86006,6.39E-03,1.83E-02
86007,6.39E-03,1.83E-02
86008,6.39E-03,1.83E-02
86009,6.39E-03,1.84E-02
86010,6.39E-03,1.84E-02
86011,6.39E-03,1.85E-02
86012,6.39E-03,1.85E-02
86013,6.39E-03,1.85E-02
86014,6.39E-03,1.86E-02
86015,6.39E-03,1.86E-02
86016,6.39E-03,1.87E-02
86017,6.39E-03,1.87E-02
86018,6.39E-03,1.88E-02
86019,6.39E-03,1.88E-02
86020,6.39E-03,1.89E-02
86021,6.39E-03,1.89E-02
86022,6.39E-03,1.90E-02
86023,6.39E-03,1.90E-02
86024,6.39E-03,1.91E-02
86025,6.39E-03,1.91E-02
86026,6.39E-03,1.92E-02
86027,6.39E-03,1.92E-02
86028,6.39E-03,1.93E-02
86029,6.39E-03,1.94E-02
86030,6.39E-03,1.94E-02
86031,6.39E-03,1.95E-02
86032,6.39E-03,1.95E-02
86033,6.39E-03,1.96E-02
86034,6.39E-03,1.97E-02
86035,6.39E-03,1.98E-02
86036,6.39E-03,1.98E-02
86037,6.39E-03,1.99E-02
86038,6.39E-03,2.00E-02
86039,6.39E-03,2.01E-02
86040,6.39E-03,2.02E-02
86041,6.39E-03,2.02E-02
86042,6.39E-03,2.03E-02
86043,6.39E-03,2.04E-02
86044,6.39E-03,2.05E-02
86045,6.39E-03,2.06E-02
86046,6.39E-03,2.07E-02
86047,6.39E-03,2.08E-02
86048,6.39E-03,2.09E-02
86049,6.39E-03,2.10E-02
86050,6.39E-03,2.11E-02
86051,6.39E-03,2.12E-02
86052,6.39E-03,2.13E-02
86053,6.39E-03,2.14E-02
86054,6.39E-03,2.15E-02
86055,6.39E-03,2.17E-02
86056,6.39E-03,2.18E-02
86057,6.39E-03,2.19E-02
86058,6.39E-03,2.20E-02
86059,6.39E-03,2.21E-02
86060,6.39E-03,2.22E-02
86061,6.39E-03,2.23E-02
86062,6.39E-03,2.25E-02
86063,6.39E-03,2.26E-02
86064,6.39E-03,2.27E-02
86065,6.39E-03,2.28E-02
86066,6.39E-03,2.29E-02
86067,6.39E-03,2.31E-02
86068,6.39E-03,2.32E-02
86069,6.39E-03,2.33E-02
86070,6.39E-03,2.34E-02
86071,6.39E-03,2.35E-02
86072,6.39E-03,2.37E-02
86073,6.39E-03,2.38E-02
86074,6.39E-03,1.74E-02
86075,6.39E-03,1.74E-02
86076,6.39E-03,1.74E-02
86077,6.39E-03,1.74E-02
86078,6.39E-03,1.74E-02
86079,6.39E-03,1.74E-02
86080,6.39E-03,1.74E-02
86081,6.39E-03,1.74E-02
86082,6.39E-03,1.74E-02
86083,6.39E-03,1.74E-02
86084,6.39E-03,1.74E-02
86085,6.39E-03,1.74E-02
86086,6.39E-03,1.74E-02
86087,6.39E-03,1.74E-02
86088,6.39E-03,1.74E-02
86089,6.39E-03,1.74E-02
86090,6.39E-03,1.74E-02
86091,6.39E-03,1.74E-02
86092,6.39E-03,1.74E-02
86093,6.39E-03,1.74E-02
86094,6.39E-03,1.74E-02
86095,6.39E-03,1.74E-02
86096,6.39E-03,1.74E-02
86097,6.39E-03,1.74E-02
86098,6.39E-03,1.74E-02
86099,6.39E-03,1.74E-02
86100,6.39E-03,1.74E-02
86101,6.39E-03,1.74E-02
86102,6.39E-03,1.74E-02
86103,6.39E-03,1.74E-02
86104,6.39E-03,1.74E-02
86105,6.39E-03,1.74E-02
86106,6.39E-03,1.74E-02
86107,6.39E-03,1.74E-02
86108,6.39E-03,1.75E-02
86109,6.39E-03,1.75E-02
86110,6.39E-03,1.75E-02
86111,6.39E-03,1.75E-02
86112,6.39E-03,1.75E-02
86113,6.39E-03,1.75E-02
86114,6.39E-03,1.75E-02
86115,6.39E-03,1.75E-02
86116,6.39E-03,1.75E-02
86117,6.39E-03,1.75E-02
86118,6.39E-03,1.76E-02
86119,6.39E-03,1.76E-02
86120,6.39E-03,1.76E-02
86121,6.39E-03,1.76E-02
86122,6.39E-03,1.76E-02
86123,6.39E-03,1.77E-02
86124,6.39E-03,1.77E-02
86125,6.39E-03,1.77E-02
86126,6.39E-03,1.77E-02
86127,6.39E-03,1.78E-02
86128,6.39E-03,1.78E-02
86129,6.39E-03,1.78E-02
86130,6.39E-03,1.78E-02
86131,6.39E-03,1.79E-02
86132,6.39E-03,1.79E-02
86133,6.39E-03,1.79E-02
86134,6.39E-03,1.80E-02
86135,6.39E-03,1.80E-02
86136,6.39E-03,1.80E-02
86137,6.39E-03,1.81E-02
86138,6.39E-03,1.81E-02
86139,6.39E-03,1.82E-02
86140,6.39E-03,1.82E-02
86141,6.39E-03,1.82E-02
86142,6.39E-03,1.83E-02
86143,6.39E-03,1.83E-02
86144,6.39E-03,1.84E-02
86145,6.39E-03,1.84E-02
86146,6.39E-03,1.84E-02
86147,6.39E-03,1.85E-02
86148,6.39E-03,1.85E-02
86149,6.39E-03,1.86E-02
86150,6.39E-03,1.86E-02
86151,6.39E-03,1.87E-02
86152,6.39E-03,1.87E-02
86153,6.39E-03,1.87E-02
86154,6.39E-03,1.88E-02
86155,6.39E-03,1.88E-02
86156,6.39E-03,1.89E-02
86157,6.39E-03,1.89E-02
86158,6.39E-03,1.90E-02
86159,6.39E-03,1.91E-02
86160,6.39E-03,1.91E-02
86161,6.39E-03,1.92E-02
86162,6.39E-03,1.92E-02
86163,6.39E-03,1.93E-02
86164,6.39E-03,1.93E-02
86165,6.39E-03,1.94E-02
86166,6.39E-03,1.95E-02
86167,6.39E-03,1.95E-02
86168,6.39E-03,1.96E-02
86169,6.39E-03,1.97E-02
86170,6.39E-03,1.98E-02
86171,6.39E-03,1.98E-02
86172,6.39E-03,1.99E-02
86173,6.39E-03,2.00E-02
86174,6.39E-03,2.01E-02
86175,6.39E-03,2.01E-02
86176,6.39E-03,2.02E-02
86177,6.39E-03,2.03E-02
86178,6.39E-03,2.04E-02
86179,6.39E-03,2.05E-02
86180,6.39E-03,2.06E-02
86181,6.39E-03,2.07E-02
86182,6.39E-03,2.08E-02
86183,6.39E-03,2.09E-02
86184,6.39E-03,2.10E-02
86185,6.39E-03,2.11E-02
86186,6.39E-03,2.12E-02
86187,6.39E-03,2.13E-02
86188,6.39E-03,2.14E-02
86189,6.39E-03,2.15E-02
86190,6.39E-03,2.16E-02
86191,6.39E-03,2.17E-02
86192,6.39E-03,2.19E-02
86193,6.39E-03,2.20E-02
86194,6.39E-03,2.21E-02
86195,6.39E-03,2.22E-02
86196,6.39E-03,2.23E-02
86197,6.39E-03,2.24E-02
86198,6.39E-03,2.26E-02
86199,6.39E-03,2.27E-02
86200,6.39E-03,2.28E-02
86201,6.39E-03,2.29E-02
86202,6.39E-03,2.31E-02
86203,6.39E-03,2.32E-02
86204,6.39E-03,2.33E-02
86205,6.39E-03,2.34E-02
86206,6.39E-03,2.35E-02
86207,6.39E-03,2.37E-02
86208,6.39E-03,2.38E-02
86209,6.39E-03,2.39E-02
86210,6.39E-03,1.73E-02
86211,6.39E-03,1.73E-02
86212,6.39E-03,1.73E-02
86213,6.39E-03,1.73E-02
86214,6.39E-03,1.73E-02
86215,6.39E-03,1.73E-02
86216,6.39E-03,1.73E-02
86217,6.39E-03,1.73E-02
86218,6.39E-03,1.73E-02
86219,6.39E-03,1.73E-02
86220,6.39E-03,1.73E-02
86221,6.39E-03,1.73E-02
86222,6.39E-03,1.73E-02
86223,6.39E-03,1.73E-02
86224,6.39E-03,1.73E-02
86225,6.39E-03,1.73E-02
86226,6.39E-03,1.73E-02
86227,6.39E-03,1.73E-02
86228,6.39E-03,1.73E-02
86229,6.39E-03,1.73E-02
86230,6.39E-03,1.73E-02
86231,6.39E-03,1.73E-02
86232,6.39E-03,1.73E-02
86233,6.39E-03,1.73E-02
86234,6.39E-03,1.73E-02
86235,6.39E-03,1.73E-02
86236,6.39E-03,1.73E-02
86237,6.39E-03,1.74E-02
86238,6.39E-03,1.74E-02
86239,6.39E-03,1.74E-02
86240,6.39E-03,1.74E-02
86241,6.39E-03,1.74E-02
86242,6.39E-03,1.74E-02
86243,6.39E-03,1.74E-02
86244,6.39E-03,1.74E-02
86245,6.39E-03,1.74E-02
86246,6.39E-03,1.74E-02
86247,6.39E-03,1.74E-02
86248,6.39E-03,1.74E-02
86249,6.39E-03,1.74E-02
86250,6.39E-03,1.75E-02
86251,6.39E-03,1.75E-02
86252,6.39E-03,1.75E-02
86253,6.39E-03,1.75E-02
86254,6.39E-03,1.75E-02
86255,6.39E-03,1.75E-02
86256,6.39E-03,1.76E-02
86257,6.39E-03,1.76E-02
86258,6.39E-03,1.76E-02
86259,6.39E-03,1.76E-02
86260,6.39E-03,1.77E-02
86261,6.39E-03,1.77E-02
86262,6.39E-03,1.77E-02
86263,6.39E-03,1.77E-02
86264,6.39E-03,1.78E-02
86265,6.39E-03,1.78E-02
86266,6.39E-03,1.78E-02
86267,6.39E-03,1.79E-02
86268,6.39E-03,1.79E-02
86269,6.39E-03,1.79E-02
86270,6.39E-03,1.80E-02
86271,6.39E-03,1.80E-02
86272,6.39E-03,1.80E-02
86273,6.39E-03,1.81E-02
86274,6.39E-03,1.81E-02
86275,6.39E-03,1.82E-02
86276,6.39E-03,1.82E-02
86277,6.39E-03,1.82E-02
86278,6.39E-03,1.83E-02
86279,6.39E-03,1.83E-02
86280,6.39E-03,1.84E-02
86281,6.39E-03,1.84E-02
86282,6.39E-03,1.84E-02
86283,6.39E-03,1.85E-02
86284,6.39E-03,1.85E-02
86285,6.39E-03,1.86E-02
86286,6.39E-03,1.86E-02
86287,6.39E-03,1.87E-02
86288,6.39E-03,1.87E-02
86289,6.39E-03,1.88E-02
86290,6.39E-03,1.88E-02
86291,6.39E-03,1.89E-02
86292,6.39E-03,1.89E-02
86293,6.39E-03,1.90E-02
86294,6.39E-03,1.90E-02
86295,6.39E-03,1.91E-02
86296,6.39E-03,1.92E-02
86297,6.39E-03,1.92E-02
86298,6.39E-03,1.93E-02
86299,6.39E-03,1.93E-02
86300,6.39E-03,1.94E-02
86301,6.39E-03,1.95E-02
86302,6.39E-03,1.95E-02
86303,6.39E-03,1.96E-02
86304,6.39E-03,1.97E-02
86305,6.39E-03,1.97E-02
86306,6.39E-03,1.98E-02
86307,6.39E-03,1.99E-02
86308,6.39E-03,2.00E-02
86309,6.39E-03,2.00E-02
86310,6.39E-03,2.01E-02
86311,6.39E-03,2.02E-02
86312,6.39E-03,2.03E-02
86313,6.39E-03,2.04E-02
86314,6.39E-03,2.05E-02
86315,6.39E-03,2.06E-02
86316,6.39E-03,2.07E-02
86317,6.39E-03,2.08E-02
86318,6.39E-03,2.09E-02
86319,6.39E-03,2.10E-02
86320,6.39E-03,2.11E-02
86321,6.39E-03,2.12E-02
86322,6.39E-03,2.13E-02
86323,6.39E-03,2.14E-02
86324,6.39E-03,2.15E-02
86325,6.39E-03,2.16E-02
86326,6.39E-03,2.17E-02
86327,6.39E-03,2.18E-02
86328,6.39E-03,2.19E-02
86329,6.39E-03,2.21E-02
86330,6.39E-03,2.22E-02
86331,6.39E-03,2.23E-02
86332,6.39E-03,2.24E-02
86333,6.39E-03,2.25E-02
86334,6.39E-03,2.27E-02
86335,6.39E-03,2.28E-02
86336,6.39E-03,2.29E-02
86337,6.39E-03,2.30E-02
86338,6.39E-03,2.32E-02
86339,6.39E-03,2.33E-02
86340,6.39E-03,2.34E-02
86341,6.39E-03,2.35E-02
86342,6.39E-03,2.36E-02
86343,6.39E-03,2.38E-02
86344,6.39E-03,2.39E-02
86345,6.39E-03,2.40E-02
86346,6.39E-03,1.71E-02
86347,6.39E-03,1.71E-02
86348,6.39E-03,1.71E-02
86349,6.39E-03,1.71E-02
86350,6.39E-03,1.72E-02
86351,6.39E-03,1.72E-02
86352,6.39E-03,1.72E-02
86353,6.39E-03,1.72E-02
86354,6.39E-03,1.72E-02
86355,6.39E-03,1.72E-02
86356,6.39E-03,1.72E-02
86357,6.39E-03,1.72E-02
86358,6.39E-03,1.72E-02
86359,6.39E-03,1.72E-02
86360,6.39E-03,1.72E-02
86361,6.39E-03,1.72E-02
86362,6.39E-03,1.72E-02
86363,6.39E-03,1.72E-02
86364,6.39E-03,1.72E-02
86365,6.39E-03,1.72E-02
86366,6.39E-03,1.72E-02
86367,6.39E-03,1.72E-02
86368,6.39E-03,1.72E-02
86369,6.39E-03,1.72E-02
86370,6.39E-03,1.73E-02
86371,6.39E-03,1.73E-02
86372,6.39E-03,1.73E-02
86373,6.39E-03,1.73E-02
86374,6.39E-03,1.73E-02
86375,6.39E-03,1.73E-02
86376,6.39E-03,1.73E-02
86377,6.39E-03,1.73E-02
86378,6.39E-03,1.73E-02
86379,6.39E-03,1.73E-02
86380,6.39E-03,1.73E-02
86381,6.39E-03,1.73E-02
86382,6.39E-03,1.73E-02
86383,6.39E-03,1.74E-02
86384,6.39E-03,1.74E-02
86385,6.39E-03,1.74E-02
86386,6.39E-03,1.74E-02
86387,6.39E-03,1.74E-02
86388,6.39E-03,1.74E-02
86389,6.39E-03,1.75E-02
86390,6.39E-03,1.75E-02
86391,6.39E-03,1.75E-02
86392,6.39E-03,1.75E-02
86393,6.39E-03,1.75E-02
86394,6.39E-03,1.76E-02
86395,6.39E-03,1.76E-02
86396,6.39E-03,1.76E-02
86397,6.39E-03,1.77E-02
86398,6.39E-03,1.77E-02
86399,6.39E-03,1.77E-02
86400,6.39E-03,1.77E-02
86401,6.39E-03,1.78E-02
86402,6.39E-03,1.78E-02
86403,6.39E-03,1.78E-02
86404,6.39E-03,1.79E-02
86405,6.39E-03,1.79E-02
86406,6.39E-03,1.80E-02
86407,6.39E-03,1.80E-02
86408,6.39E-03,1.80E-02
86409,6.39E-03,1.81E-02
86410,6.39E-03,1.81E-02
86411,6.39E-03,1.82E-02
86412,6.39E-03,1.82E-02
86413,6.39E-03,1.82E-02
86414,6.39E-03,1.83E-02
86415,6.39E-03,1.83E-02
86416,6.39E-03,1.84E-02
86417,6.39E-03,1.84E-02
86418,6.39E-03,1.85E-02
86419,6.39E-03,1.85E-02
86420,6.39E-03,1.86E-02
86421,6.39E-03,1.86E-02
86422,6.39E-03,1.86E-02
86423,6.39E-03,1.87E-02
86424,6.39E-03,1.87E-02
86425,6.39E-03,1.88E-02
86426,6.39E-03,1.89E-02
86427,6.39E-03,1.89E-02
86428,6.39E-03,1.90E-02
86429,6.39E-03,1.90E-02
86430,6.39E-03,1.91E-02
86431,6.39E-03,1.91E-02
86432,6.39E-03,1.92E-02
86433,6.39E-03,1.93E-02
86434,6.39E-03,1.93E-02
86435,6.39E-03,1.94E-02
86436,6.39E-03,1.94E-02
86437,6.39E-03,1.95E-02
86438,6.39E-03,1.96E-02
86439,6.39E-03,1.96E-02
86440,6.39E-03,1.97E-02
86441,6.39E-03,1.98E-02
86442,6.39E-03,1.99E-02
86443,6.39E-03,1.99E-02
86444,6.39E-03,2.00E-02
86445,6.39E-03,2.01E-02
86446,6.39E-03,2.02E-02
86447,6.39E-03,2.03E-02
86448,6.39E-03,2.04E-02
86449,6.39E-03,2.04E-02
86450,6.39E-03,2.05E-02
86451,6.39E-03,2.06E-02
86452,6.39E-03,2.07E-02
86453,6.39E-03,2.08E-02
86454,6.39E-03,2.09E-02
86455,6.39E-03,2.10E-02
86456,6.39E-03,2.11E-02
86457,6.39E-03,2.12E-02
86458,6.39E-03,2.13E-02
86459,6.39E-03,2.15E-02
86460,6.39E-03,2.16E-02
86461,6.39E-03,2.17E-02
86462,6.39E-03,2.18E-02
86463,6.39E-03,2.19E-02
86464,6.39E-03,2.20E-02
86465,6.39E-03,2.21E-02
86466,6.39E-03,2.23E-02
86467,6.39E-03,2.24E-02
86468,6.39E-03,2.25E-02
86469,6.39E-03,2.26E-02
86470,6.39E-03,2.28E-02
86471,6.39E-03,2.29E-02
86472,6.39E-03,2.30E-02
86473,6.39E-03,2.31E-02
86474,6.39E-03,2.33E-02
86475,6.39E-03,2.34E-02
86476,6.39E-03,2.35E-02
86477,6.39E-03,2.36E-02
86478,6.39E-03,2.38E-02
86479,6.39E-03,2.39E-02
86480,6.39E-03,2.40E-02
86481,6.39E-03,2.41E-02
86482,6.39E-03,1.70E-02
86483,6.39E-03,1.70E-02
86484,6.39E-03,1.70E-02
86485,6.39E-03,1.70E-02
86486,6.39E-03,1.70E-02
86487,6.39E-03,1.70E-02
86488,6.39E-03,1.70E-02
86489,6.39E-03,1.71E-02
86490,6.39E-03,1.71E-02
86491,6.39E-03,1.71E-02
86492,6.39E-03,1.71E-02
86493,6.39E-03,1.71E-02
86494,6.39E-03,1.71E-02
86495,6.39E-03,1.71E-02
86496,6.39E-03,1.71E-02
86497,6.39E-03,1.71E-02
86498,6.39E-03,1.71E-02
86499,6.39E-03,1.71E-02
86500,6.39E-03,1.71E-02
86501,6.39E-03,1.71E-02
86502,6.39E-03,1.71E-02
86503,6.39E-03,1.71E-02
86504,6.39E-03,1.72E-02
86505,6.39E-03,1.72E-02
86506,6.39E-03,1.72E-02
86507,6.39E-03,1.72E-02
86508,6.39E-03,1.72E-02
86509,6.39E-03,1.72E-02
86510,6.39E-03,1.72E-02
86511,6.39E-03,1.72E-02
86512,6.39E-03,1.72E-02
86513,6.39E-03,1.72E-02
86514,6.39E-03,1.72E-02
86515,6.39E-03,1.72E-02
86516,6.39E-03,1.73E-02
86517,6.39E-03,1.73E-02
86518,6.39E-03,1.73E-02
86519,6.39E-03,1.73E-02
86520,6.39E-03,1.73E-02
86521,6.39E-03,1.73E-02
86522,6.39E-03,1.74E-02
86523,6.39E-03,1.74E-02
86524,6.39E-03,1.74E-02
86525,6.39E-03,1.74E-02
86526,6.39E-03,1.74E-02
86527,6.39E-03,1.75E-02
86528,6.39E-03,1.75E-02
86529,6.39E-03,1.75E-02
86530,6.39E-03,1.75E-02
86531,6.39E-03,1.76E-02
86532,6.39E-03,1.76E-02
86533,6.39E-03,1.76E-02
86534,6.39E-03,1.77E-02
86535,6.39E-03,1.77E-02
86536,6.39E-03,1.77E-02
86537,6.39E-03,1.78E-02
86538,6.39E-03,1.78E-02
86539,6.39E-03,1.78E-02
86540,6.39E-03,1.79E-02
86541,6.39E-03,1.79E-02
86542,6.39E-03,1.79E-02
86543,6.39E-03,1.80E-02
86544,6.39E-03,1.80E-02
86545,6.39E-03,1.81E-02
86546,6.39E-03,1.81E-02
86547,6.39E-03,1.81E-02
86548,6.39E-03,1.82E-02
86549,6.39E-03,1.82E-02
86550,6.39E-03,1.83E-02
86551,6.39E-03,1.83E-02
86552,6.39E-03,1.84E-02
86553,6.39E-03,1.84E-02
86554,6.39E-03,1.85E-02
86555,6.39E-03,1.85E-02
86556,6.39E-03,1.86E-02
86557,6.39E-03,1.86E-02
86558,6.39E-03,1.87E-02
86559,6.39E-03,1.87E-02
86560,6.39E-03,1.88E-02
86561,6.39E-03,1.88E-02
86562,6.39E-03,1.89E-02
86563,6.39E-03,1.89E-02
86564,6.39E-03,1.90E-02
86565,6.39E-03,1.90E-02
86566,6.39E-03,1.91E-02
86567,6.39E-03,1.92E-02
86568,6.39E-03,1.92E-02
86569,6.39E-03,1.93E-02
86570,6.39E-03,1.93E-02
86571,6.39E-03,1.94E-02
86572,6.39E-03,1.95E-02
86573,6.39E-03,1.95E-02
86574,6.39E-03,1.96E-02
86575,6.39E-03,1.97E-02
86576,6.39E-03,1.98E-02
86577,6.39E-03,1.98E-02
86578,6.39E-03,1.99E-02
86579,6.39E-03,2.00E-02
86580,6.39E-03,2.01E-02
86581,6.39E-03,2.02E-02
86582,6.39E-03,2.02E-02
86583,6.39E-03,2.03E-02
86584,6.39E-03,2.04E-02
86585,6.39E-03,2.05E-02
86586,6.39E-03,2.06E-02
86587,6.39E-03,2.07E-02
86588,6.39E-03,2.08E-02
86589,6.39E-03,2.09E-02
86590,6.39E-03,2.10E-02
86591,6.39E-03,2.11E-02
86592,6.39E-03,2.12E-02
86593,6.39E-03,2.13E-02
86594,6.39E-03,2.14E-02
86595,6.39E-03,2.15E-02
86596,6.39E-03,2.16E-02
86597,6.39E-03,2.18E-02
86598,6.39E-03,2.19E-02
86599,6.39E-03,2.20E-02
86600,6.39E-03,2.21E-02
86601,6.39E-03,2.22E-02
86602,6.39E-03,2.23E-02
86603,6.39E-03,2.25E-02
86604,6.39E-03,2.26E-02
86605,6.39E-03,2.27E-02
86606,6.39E-03,2.28E-02
86607,6.39E-03,2.30E-02
86608,6.39E-03,2.31E-02
86609,6.39E-03,2.32E-02
86610,6.39E-03,2.33E-02
86611,6.39E-03,2.35E-02
86612,6.39E-03,2.36E-02
86613,6.39E-03,2.37E-02
86614,6.39E-03,2.39E-02
86615,6.39E-03,2.40E-02
86616,6.39E-03,2.41E-02
86617,6.39E-03,2.42E-02
86618,6.39E-03,1.69E-02
86619,6.39E-03,1.69E-02
86620,6.39E-03,1.69E-02
86621,6.39E-03,1.69E-02
86622,6.39E-03,1.69E-02
86623,6.39E-03,1.69E-02
86624,6.39E-03,1.69E-02
86625,6.39E-03,1.69E-02
86626,6.39E-03,1.69E-02
86627,6.39E-03,1.69E-02
86628,6.39E-03,1.70E-02
86629,6.39E-03,1.70E-02
86630,6.39E-03,1.70E-02
86631,6.39E-03,1.70E-02
86632,6.39E-03,1.70E-02
86633,6.39E-03,1.70E-02
86634,6.39E-03,1.70E-02
86635,6.39E-03,1.70E-02
86636,6.39E-03,1.70E-02
86637,6.39E-03,1.70E-02
86638,6.39E-03,1.70E-02
86639,6.39E-03,1.70E-02
86640,6.39E-03,1.71E-02
86641,6.39E-03,1.71E-02
86642,6.39E-03,1.71E-02
86643,6.39E-03,1.71E-02
86644,6.39E-03,1.71E-02
86645,6.39E-03,1.71E-02
86646,6.39E-03,1.71E-02
86647,6.39E-03,1.71E-02
86648,6.39E-03,1.71E-02
86649,6.39E-03,1.71E-02
86650,6.39E-03,1.72E-02
86651,6.39E-03,1.72E-02
86652,6.39E-03,1.72E-02
86653,6.39E-03,1.72E-02
86654,6.39E-03,1.72E-02
86655,6.39E-03,1.72E-02
86656,6.39E-03,1.73E-02
86657,6.39E-03,1.73E-02
86658,6.39E-03,1.73E-02
86659,6.39E-03,1.73E-02
86660,6.39E-03,1.73E-02
86661,6.39E-03,1.74E-02
86662,6.39E-03,1.74E-02
86663,6.39E-03,1.74E-02
86664,6.39E-03,1.74E-02
86665,6.39E-03,1.75E-02
86666,6.39E-03,1.75E-02
86667,6.39E-03,1.75E-02
86668,6.39E-03,1.76E-02
86669,6.39E-03,1.76E-02
86670,6.39E-03,1.76E-02
86671,6.39E-03,1.77E-02
86672,6.39E-03,1.77E-02
86673,6.39E-03,1.77E-02
86674,6.39E-03,1.78E-02
86675,6.39E-03,1.78E-02
86676,6.39E-03,1.78E-02
86677,6.39E-03,1.79E-02
86678,6.39E-03,1.79E-02
86679,6.39E-03,1.80E-02
86680,6.39E-03,1.80E-02
86681,6.39E-03,1.81E-02
86682,6.39E-03,1.81E-02
86683,6.39E-03,1.81E-02
86684,6.39E-03,1.82E-02
86685,6.39E-03,1.82E-02
86686,6.39E-03,1.83E-02
86687,6.39E-03,1.83E-02
86688,6.39E-03,1.84E-02
86689,6.39E-03,1.84E-02
86690,6.39E-03,1.85E-02
86691,6.39E-03,1.85E-02
86692,6.39E-03,1.86E-02
86693,6.39E-03,1.86E-02
86694,6.39E-03,1.87E-02
86695,6.39E-03,1.87E-02
86696,6.39E-03,1.88E-02
86697,6.39E-03,1.88E-02
86698,6.39E-03,1.89E-02
86699,6.39E-03,1.89E-02
86700,6.39E-03,1.90E-02
86701,6.39E-03,1.91E-02
86702,6.39E-03,1.91E-02
86703,6.39E-03,1.92E-02
86704,6.39E-03,1.93E-02
86705,6.39E-03,1.93E-02
86706,6.39E-03,1.94E-02
86707,6.39E-03,1.94E-02
86708,6.39E-03,1.95E-02
86709,6.39E-03,1.96E-02
86710,6.39E-03,1.97E-02
86711,6.39E-03,1.97E-02
86712,6.39E-03,1.98E-02
86713,6.39E-03,1.99E-02
86714,6.39E-03,2.00E-02
86715,6.39E-03,2.00E-02
86716,6.39E-03,2.01E-02
86717,6.39E-03,2.02E-02
86718,6.39E-03,2.03E-02
86719,6.39E-03,2.04E-02
86720,6.39E-03,2.05E-02
86721,6.39E-03,2.06E-02
86722,6.39E-03,2.06E-02
86723,6.39E-03,2.07E-02
86724,6.39E-03,2.08E-02
86725,6.39E-03,2.09E-02
86726,6.39E-03,2.10E-02
86727,6.39E-03,2.11E-02
86728,6.39E-03,2.13E-02
86729,6.39E-03,2.14E-02
86730,6.39E-03,2.15E-02
86731,6.39E-03,2.16E-02
86732,6.39E-03,2.17E-02
86733,6.39E-03,2.18E-02
86734,6.39E-03,2.19E-02
86735,6.39E-03,2.21E-02
86736,6.39E-03,2.22E-02
86737,6.39E-03,2.23E-02
86738,6.39E-03,2.24E-02
86739,6.39E-03,2.25E-02
86740,6.39E-03,2.27E-02
86741,6.39E-03,2.28E-02
86742,6.39E-03,2.29E-02
86743,6.39E-03,2.31E-02
86744,6.39E-03,2.32E-02
86745,6.39E-03,2.33E-02
86746,6.39E-03,2.34E-02
86747,6.39E-03,2.36E-02
86748,6.39E-03,2.37E-02
86749,6.39E-03,2.38E-02
86750,6.39E-03,2.40E-02
86751,6.39E-03,2.41E-02
86752,6.39E-03,2.42E-02
86753,6.39E-03,2.43E-02
86754,6.39E-03,1.67E-02
86755,6.39E-03,1.67E-02
86756,6.39E-03,1.68E-02
86757,6.39E-03,1.68E-02
86758,6.39E-03,1.68E-02
86759,6.39E-03,1.68E-02
86760,6.39E-03,1.68E-02
86761,6.39E-03,1.68E-02
86762,6.39E-03,1.68E-02
86763,6.39E-03,1.68E-02
86764,6.39E-03,1.68E-02
86765,6.39E-03,1.68E-02
86766,6.39E-03,1.69E-02
86767,6.39E-03,1.69E-02
86768,6.39E-03,1.69E-02
86769,6.39E-03,1.69E-02
86770,6.39E-03,1.69E-02
86771,6.39E-03,1.69E-02
86772,6.39E-03,1.69E-02
86773,6.39E-03,1.69E-02
86774,6.39E-03,1.69E-02
86775,6.39E-03,1.69E-02
86776,6.39E-03,1.70E-02
86777,6.39E-03,1.70E-02
86778,6.39E-03,1.70E-02
86779,6.39E-03,1.70E-02
86780,6.39E-03,1.70E-02
86781,6.39E-03,1.70E-02
86782,6.39E-03,1.70E-02
86783,6.39E-03,1.70E-02
86784,6.39E-03,1.71E-02
86785,6.39E-03,1.71E-02
86786,6.39E-03,1.71E-02
86787,6.39E-03,1.71E-02
86788,6.39E-03,1.71E-02
86789,6.39E-03,1.71E-02
86790,6.39E-03,1.72E-02
86791,6.39E-03,1.72E-02
86792,6.39E-03,1.72E-02
86793,6.39E-03,1.72E-02
86794,6.39E-03,1.72E-02
86795,6.39E-03,1.73E-02
86796,6.39E-03,1.73E-02
86797,6.39E-03,1.73E-02
86798,6.39E-03,1.73E-02
86799,6.39E-03,1.74E-02
86800,6.39E-03,1.74E-02
86801,6.39E-03,1.74E-02
86802,6.39E-03,1.75E-02
86803,6.39E-03,1.75E-02
86804,6.39E-03,1.75E-02
86805,6.39E-03,1.76E-02
86806,6.39E-03,1.76E-02
86807,6.39E-03,1.76E-02
86808,6.39E-03,1.77E-02
86809,6.39E-03,1.77E-02
86810,6.39E-03,1.77E-02
86811,6.39E-03,1.78E-02
86812,6.39E-03,1.78E-02
86813,6.39E-03,1.79E-02
86814,6.39E-03,1.79E-02
86815,6.39E-03,1.79E-02
86816,6.39E-03,1.80E-02
86817,6.39E-03,1.80E-02
86818,6.39E-03,1.81E-02
86819,6.39E-03,1.81E-02
86820,6.39E-03,1.82E-02
86821,6.39E-03,1.82E-02
86822,6.39E-03,1.83E-02
86823,6.39E-03,1.83E-02
86824,6.39E-03,1.84E-02
86825,6.39E-03,1.84E-02
86826,6.39E-03,1.85E-02
86827,6.39E-03,1.85E-02
86828,6.39E-03,1.86E-02
86829,6.39E-03,1.86E-02
86830,6.39E-03,1.87E-02
86831,6.39E-03,1.87E-02
86832,6.39E-03,1.88E-02
86833,6.39E-03,1.88E-02
86834,6.39E-03,1.89E-02
86835,6.39E-03,1.90E-02
86836,6.39E-03,1.90E-02
86837,6.39E-03,1.91E-02
86838,6.39E-03,1.91E-02
86839,6.39E-03,1.92E-02
86840,6.39E-03,1.93E-02
86841,6.39E-03,1.93E-02
86842,6.39E-03,1.94E-02
86843,6.39E-03,1.95E-02
86844,6.39E-03,1.95E-02
86845,6.39E-03,1.96E-02
86846,6.39E-03,1.97E-02
86847,6.39E-03,1.98E-02
86848,6.39E-03,1.98E-02
86849,6.39E-03,1.99E-02
86850,6.39E-03,2.00E-02
86851,6.39E-03,2.01E-02
86852,6.39E-03,2.02E-02
86853,6.39E-03,2.02E-02
86854,6.39E-03,2.03E-02
86855,6.39E-03,2.04E-02
86856,6.39E-03,2.05E-02
86857,6.39E-03,2.06E-02
86858,6.39E-03,2.07E-02
86859,6.39E-03,2.08E-02
86860,6.39E-03,2.09E-02
86861,6.39E-03,2.10E-02
86862,6.39E-03,2.11E-02
86863,6.39E-03,2.12E-02
86864,6.39E-03,2.13E-02
86865,6.39E-03,2.14E-02
86866,6.39E-03,2.15E-02
86867,6.39E-03,2.16E-02
86868,6.39E-03,2.18E-02
86869,6.39E-03,2.19E-02
86870,6.39E-03,2.20E-02
86871,6.39E-03,2.21E-02
86872,6.39E-03,2.22E-02
86873,6.39E-03,2.24E-02
86874,6.39E-03,2.25E-02
86875,6.39E-03,2.26E-02
86876,6.39E-03,2.27E-02
86877,6.39E-03,2.29E-02
86878,6.39E-03,2.30E-02
86879,6.39E-03,2.31E-02
86880,6.39E-03,2.33E-02
86881,6.39E-03,2.34E-02
86882,6.39E-03,2.35E-02
86883,6.39E-03,2.37E-02
86884,6.39E-03,2.38E-02
86885,6.39E-03,2.39E-02
86886,6.39E-03,2.41E-02
86887,6.39E-03,2.42E-02
86888,6.39E-03,2.43E-02
86889,6.39E-03,2.45E-02
86890,6.39E-03,1.66E-02
86891,6.39E-03,1.66E-02
86892,6.39E-03,1.66E-02
86893,6.39E-03,1.66E-02
86894,6.39E-03,1.66E-02
86895,6.39E-03,1.67E-02
86896,6.39E-03,1.67E-02
86897,6.39E-03,1.67E-02
86898,6.39E-03,1.67E-02
86899,6.39E-03,1.67E-02
86900,6.39E-03,1.67E-02
86901,6.39E-03,1.67E-02
86902,6.39E-03,1.67E-02
86903,6.39E-03,1.68E-02
86904,6.39E-03,1.68E-02
86905,6.39E-03,1.68E-02
86906,6.39E-03,1.68E-02
86907,6.39E-03,1.68E-02
86908,6.39E-03,1.68E-02
86909,6.39E-03,1.68E-02
86910,6.39E-03,1.68E-02
86911,6.39E-03,1.68E-02
86912,6.39E-03,1.69E-02
86913,6.39E-03,1.69E-02
86914,6.39E-03,1.69E-02
86915,6.39E-03,1.69E-02
86916,6.39E-03,1.69E-02
86917,6.39E-03,1.69E-02
86918,6.39E-03,1.69E-02
86919,6.39E-03,1.70E-02
86920,6.39E-03,1.70E-02
86921,6.39E-03,1.70E-02
86922,6.39E-03,1.70E-02
86923,6.39E-03,1.70E-02
86924,6.39E-03,1.71E-02
86925,6.39E-03,1.71E-02
86926,6.39E-03,1.71E-02
86927,6.39E-03,1.71E-02
86928,6.39E-03,1.71E-02
86929,6.39E-03,1.72E-02
86930,6.39E-03,1.72E-02
86931,6.39E-03,1.72E-02
86932,6.39E-03,1.72E-02
86933,6.39E-03,1.73E-02
86934,6.39E-03,1.73E-02
86935,6.39E-03,1.73E-02
86936,6.39E-03,1.74E-02
86937,6.39E-03,1.74E-02
86938,6.39E-03,1.74E-02
86939,6.39E-03,1.75E-02
86940,6.39E-03,1.75E-02
86941,6.39E-03,1.75E-02
86942,6.39E-03,1.76E-02
86943,6.39E-03,1.76E-02
86944,6.39E-03,1.76E-02
86945,6.39E-03,1.77E-02
86946,6.39E-03,1.77E-02
86947,6.39E-03,1.78E-02
86948,6.39E-03,1.78E-02
86949,6.39E-03,1.78E-02
86950,6.39E-03,1.79E-02
86951,6.39E-03,1.79E-02
86952,6.39E-03,1.80E-02
86953,6.39E-03,1.80E-02
86954,6.39E-03,1.81E-02
86955,6.39E-03,1.81E-02
86956,6.39E-03,1.82E-02
86957,6.39E-03,1.82E-02
86958,6.39E-03,1.83E-02
86959,6.39E-03,1.83E-02
86960,6.39E-03,1.84E-02
86961,6.39E-03,1.84E-02
86962,6.39E-03,1.85E-02
86963,6.39E-03,1.85E-02
86964,6.39E-03,1.86E-02
86965,6.39E-03,1.86E-02
86966,6.39E-03,1.87E-02
86967,6.39E-03,1.87E-02
86968,6.39E-03,1.88E-02
86969,6.39E-03,1.89E-02
86970,6.39E-03,1.89E-02
86971,6.39E-03,1.90E-02
86972,6.39E-03,1.90E-02
86973,6.39E-03,1.91E-02
86974,6.39E-03,1.92E-02
86975,6.39E-03,1.92E-02
86976,6.39E-03,1.93E-02
86977,6.39E-03,1.94E-02
86978,6.39E-03,1.94E-02
86979,6.39E-03,1.95E-02
86980,6.39E-03,1.96E-02
86981,6.39E-03,1.96E-02
86982,6.39E-03,1.97E-02
86983,6.39E-03,1.98E-02
86984,6.39E-03,1.99E-02
86985,6.39E-03,1.99E-02
86986,6.39E-03,2.00E-02
86987,6.39E-03,2.01E-02
86988,6.39E-03,2.02E-02
86989,6.39E-03,2.03E-02
86990,6.39E-03,2.04E-02
86991,6.39E-03,2.05E-02
86992,6.39E-03,2.05E-02
86993,6.39E-03,2.06E-02
86994,6.39E-03,2.07E-02
86995,6.39E-03,2.08E-02
86996,6.39E-03,2.09E-02
86997,6.39E-03,2.10E-02
86998,6.39E-03,2.11E-02
86999,6.39E-03,2.12E-02
87000,6.39E-03,2.14E-02
87001,6.39E-03,2.15E-02
87002,6.39E-03,2.16E-02
87003,6.39E-03,2.17E-02
87004,6.39E-03,2.18E-02
87005,6.39E-03,2.19E-02
87006,6.39E-03,2.21E-02
87007,6.39E-03,2.22E-02
87008,6.39E-03,2.23E-02
87009,6.39E-03,2.24E-02
87010,6.39E-03,2.26E-02
87011,6.39E-03,2.27E-02
87012,6.39E-03,2.28E-02
87013,6.39E-03,2.29E-02
87014,6.39E-03,2.31E-02
87015,6.39E-03,2.32E-02
87016,6.39E-03,2.33E-02
87017,6.39E-03,2.35E-02
87018,6.39E-03,2.36E-02
87019,6.39E-03,2.37E-02
87020,6.39E-03,2.39E-02
87021,6.39E-03,2.40E-02
87022,6.39E-03,2.41E-02
87023,6.39E-03,2.43E-02
87024,6.39E-03,2.44E-02
87025,6.39E-03,2.46E-02
87026,6.39E-03,1.65E-02
87027,6.39E-03,1.65E-02
87028,6.39E-03,1.65E-02
87029,6.39E-03,1.65E-02
87030,6.39E-03,1.65E-02
87031,6.39E-03,1.65E-02
87032,6.39E-03,1.65E-02
87033,6.39E-03,1.66E-02
87034,6.39E-03,1.66E-02
87035,6.39E-03,1.66E-02
87036,6.39E-03,1.66E-02
87037,6.39E-03,1.66E-02
87038,6.39E-03,1.66E-02
87039,6.39E-03,1.66E-02
87040,6.39E-03,1.67E-02
87041,6.39E-03,1.67E-02
87042,6.39E-03,1.67E-02
87043,6.39E-03,1.67E-02
87044,6.39E-03,1.67E-02
87045,6.39E-03,1.67E-02
87046,6.39E-03,1.67E-02
87047,6.39E-03,1.67E-02
87048,6.39E-03,1.68E-02
87049,6.39E-03,1.68E-02
87050,6.39E-03,1.68E-02
87051,6.39E-03,1.68E-02
87052,6.39E-03,1.68E-02
87053,6.39E-03,1.68E-02
87054,6.39E-03,1.69E-02
87055,6.39E-03,1.69E-02
87056,6.39E-03,1.69E-02
87057,6.39E-03,1.69E-02
87058,6.39E-03,1.69E-02
87059,6.39E-03,1.70E-02
87060,6.39E-03,1.70E-02
87061,6.39E-03,1.70E-02
87062,6.39E-03,1.70E-02
87063,6.39E-03,1.70E-02
87064,6.39E-03,1.71E-02
87065,6.39E-03,1.71E-02
87066,6.39E-03,1.71E-02
87067,6.39E-03,1.72E-02
87068,6.39E-03,1.72E-02
87069,6.39E-03,1.72E-02
87070,6.39E-03,1.72E-02
87071,6.39E-03,1.73E-02
87072,6.39E-03,1.73E-02
87073,6.39E-03,1.73E-02
87074,6.39E-03,1.74E-02
87075,6.39E-03,1.74E-02
87076,6.39E-03,1.74E-02
87077,6.39E-03,1.75E-02
87078,6.39E-03,1.75E-02
87079,6.39E-03,1.76E-02
87080,6.39E-03,1.76E-02
87081,6.39E-03,1.76E-02
87082,6.39E-03,1.77E-02
87083,6.39E-03,1.77E-02
87084,6.39E-03,1.78E-02
87085,6.39E-03,1.78E-02
87086,6.39E-03,1.79E-02
87087,6.39E-03,1.79E-02
87088,6.39E-03,1.80E-02
87089,6.39E-03,1.80E-02
87090,6.39E-03,1.80E-02
87091,6.39E-03,1.81E-02
87092,6.39E-03,1.81E-02
87093,6.39E-03,1.82E-02
87094,6.39E-03,1.82E-02
87095,6.39E-03,1.83E-02
87096,6.39E-03,1.84E-02
87097,6.39E-03,1.84E-02
87098,6.39E-03,1.85E-02
87099,6.39E-03,1.85E-02
87100,6.39E-03,1.86E-02
87101,6.39E-03,1.86E-02
87102,6.39E-03,1.87E-02
87103,6.39E-03,1.87E-02
87104,6.39E-03,1.88E-02
87105,6.39E-03,1.89E-02
87106,6.39E-03,1.89E-02
87107,6.39E-03,1.90E-02
87108,6.39E-03,1.90E-02
87109,6.39E-03,1.91E-02
87110,6.39E-03,1.92E-02
87111,6.39E-03,1.92E-02
87112,6.39E-03,1.93E-02
87113,6.39E-03,1.94E-02
87114,6.39E-03,1.94E-02
87115,6.39E-03,1.95E-02
87116,6.39E-03,1.96E-02
87117,6.39E-03,1.97E-02
87118,6.39E-03,1.97E-02
87119,6.39E-03,1.98E-02
87120,6.39E-03,1.99E-02
87121,6.39E-03,2.00E-02
87122,6.39E-03,2.00E-02
87123,6.39E-03,2.01E-02
87124,6.39E-03,2.02E-02
87125,6.39E-03,2.03E-02
87126,6.39E-03,2.04E-02
87127,6.39E-03,2.05E-02
87128,6.39E-03,2.06E-02
87129,6.39E-03,2.07E-02
87130,6.39E-03,2.08E-02
87131,6.39E-03,2.09E-02
87132,6.39E-03,2.10E-02
87133,6.39E-03,2.11E-02
87134,6.39E-03,2.12E-02
87135,6.39E-03,2.13E-02
87136,6.39E-03,2.14E-02
87137,6.39E-03,2.15E-02
87138,6.39E-03,2.16E-02
87139,6.39E-03,2.17E-02
87140,6.39E-03,2.19E-02
87141,6.39E-03,2.20E-02
87142,6.39E-03,2.21E-02
87143,6.39E-03,2.22E-02
87144,6.39E-03,2.24E-02
87145,6.39E-03,2.25E-02
87146,6.39E-03,2.26E-02
87147,6.39E-03,2.27E-02
87148,6.39E-03,2.29E-02
87149,6.39E-03,2.30E-02
87150,6.39E-03,2.31E-02
87151,6.39E-03,2.33E-02
87152,6.39E-03,2.34E-02
87153,6.39E-03,2.36E-02
87154,6.39E-03,2.37E-02
87155,6.39E-03,2.38E-02
87156,6.39E-03,2.40E-02
87157,6.39E-03,2.41E-02
87158,6.39E-03,2.42E-02
87159,6.39E-03,2.44E-02
87160,6.39E-03,2.45E-02
87161,6.39E-03,2.46E-02
87162,6.39E-03,1.63E-02
87163,6.39E-03,1.64E-02
87164,6.39E-03,1.64E-02
87165,6.39E-03,1.64E-02
87166,6.39E-03,1.64E-02
87167,6.39E-03,1.64E-02
87168,6.39E-03,1.64E-02
87169,6.39E-03,1.64E-02
87170,6.39E-03,1.65E-02
87171,6.39E-03,1.65E-02
87172,6.39E-03,1.65E-02
87173,6.39E-03,1.65E-02
87174,6.39E-03,1.65E-02
87175,6.39E-03,1.65E-02
87176,6.39E-03,1.65E-02
87177,6.39E-03,1.66E-02
87178,6.39E-03,1.66E-02
87179,6.39E-03,1.66E-02
87180,6.39E-03,1.66E-02
87181,6.39E-03,1.66E-02
87182,6.39E-03,1.66E-02
87183,6.39E-03,1.66E-02
87184,6.39E-03,1.67E-02
87185,6.39E-03,1.67E-02
87186,6.39E-03,1.67E-02
87187,6.39E-03,1.67E-02
87188,6.39E-03,1.67E-02
87189,6.39E-03,1.68E-02
87190,6.39E-03,1.68E-02
87191,6.39E-03,1.68E-02
87192,6.39E-03,1.68E-02
87193,6.39E-03,1.68E-02
87194,6.39E-03,1.69E-02
87195,6.39E-03,1.69E-02
87196,6.39E-03,1.69E-02
87197,6.39E-03,1.69E-02
87198,6.39E-03,1.70E-02
87199,6.39E-03,1.70E-02
87200,6.39E-03,1.70E-02
87201,6.39E-03,1.70E-02
87202,6.39E-03,1.71E-02
87203,6.39E-03,1.71E-02
87204,6.39E-03,1.71E-02
87205,6.39E-03,1.72E-02
87206,6.39E-03,1.72E-02
87207,6.39E-03,1.72E-02
87208,6.39E-03,1.73E-02
87209,6.39E-03,1.73E-02
87210,6.39E-03,1.73E-02
87211,6.39E-03,1.74E-02
87212,6.39E-03,1.74E-02
87213,6.39E-03,1.74E-02
87214,6.39E-03,1.75E-02
87215,6.39E-03,1.75E-02
87216,6.39E-03,1.76E-02
87217,6.39E-03,1.76E-02
87218,6.39E-03,1.76E-02
87219,6.39E-03,1.77E-02
87220,6.39E-03,1.77E-02
87221,6.39E-03,1.78E-02
87222,6.39E-03,1.78E-02
87223,6.39E-03,1.79E-02
87224,6.39E-03,1.79E-02
87225,6.39E-03,1.80E-02
87226,6.39E-03,1.80E-02
87227,6.39E-03,1.81E-02
87228,6.39E-03,1.81E-02
87229,6.39E-03,1.82E-02
87230,6.39E-03,1.82E-02
87231,6.39E-03,1.83E-02
87232,6.39E-03,1.83E-02
87233,6.39E-03,1.84E-02
87234,6.39E-03,1.85E-02
87235,6.39E-03,1.85E-02
87236,6.39E-03,1.86E-02
87237,6.39E-03,1.86E-02
87238,6.39E-03,1.87E-02
87239,6.39E-03,1.87E-02
87240,6.39E-03,1.88E-02
87241,6.39E-03,1.89E-02
87242,6.39E-03,1.89E-02
87243,6.39E-03,1.90E-02
87244,6.39E-03,1.91E-02
87245,6.39E-03,1.91E-02
87246,6.39E-03,1.92E-02
87247,6.39E-03,1.93E-02
87248,6.39E-03,1.93E-02
87249,6.39E-03,1.94E-02
87250,6.39E-03,1.95E-02
87251,6.39E-03,1.95E-02
87252,6.39E-03,1.96E-02
87253,6.39E-03,1.97E-02
87254,6.39E-03,1.98E-02
87255,6.39E-03,1.98E-02
87256,6.39E-03,1.99E-02
87257,6.39E-03,2.00E-02
87258,6.39E-03,2.01E-02
87259,6.39E-03,2.02E-02
87260,6.39E-03,2.02E-02
87261,6.39E-03,2.03E-02
87262,6.39E-03,2.04E-02
87263,6.39E-03,2.05E-02
87264,6.39E-03,2.06E-02
87265,6.39E-03,2.07E-02
87266,6.39E-03,2.08E-02
87267,6.39E-03,2.09E-02
87268,6.39E-03,2.10E-02
87269,6.39E-03,2.11E-02
87270,6.39E-03,2.12E-02
87271,6.39E-03,2.13E-02
87272,6.39E-03,2.14E-02
87273,6.39E-03,2.16E-02
87274,6.39E-03,2.17E-02
87275,6.39E-03,2.18E-02
87276,6.39E-03,2.19E-02
87277,6.39E-03,2.20E-02
87278,6.39E-03,2.22E-02
87279,6.39E-03,2.23E-02
87280,6.39E-03,2.24E-02
87281,6.39E-03,2.25E-02
87282,6.39E-03,2.27E-02
87283,6.39E-03,2.28E-02
87284,6.39E-03,2.29E-02
87285,6.39E-03,2.31E-02
87286,6.39E-03,2.32E-02
87287,6.39E-03,2.33E-02
87288,6.39E-03,2.35E-02
87289,6.39E-03,2.36E-02
87290,6.39E-03,2.38E-02
87291,6.39E-03,2.39E-02
87292,6.39E-03,2.40E-02
87293,6.39E-03,2.42E-02
87294,6.39E-03,2.43E-02
87295,6.39E-03,2.45E-02
87296,6.39E-03,2.46E-02
87297,6.39E-03,2.47E-02
87298,6.39E-03,1.62E-02
87299,6.39E-03,1.62E-02
87300,6.39E-03,1.62E-02
87301,6.39E-03,1.62E-02
87302,6.39E-03,1.63E-02
87303,6.39E-03,1.63E-02
87304,6.39E-03,1.63E-02
87305,6.39E-03,1.63E-02
87306,6.39E-03,1.63E-02
87307,6.39E-03,1.63E-02
87308,6.39E-03,1.64E-02
87309,6.39E-03,1.64E-02
87310,6.39E-03,1.64E-02
87311,6.39E-03,1.64E-02
87312,6.39E-03,1.64E-02
87313,6.39E-03,1.64E-02
87314,6.39E-03,1.65E-02
87315,6.39E-03,1.65E-02
87316,6.39E-03,1.65E-02
87317,6.39E-03,1.65E-02
87318,6.39E-03,1.65E-02
87319,6.39E-03,1.65E-02
87320,6.39E-03,1.66E-02
87321,6.39E-03,1.66E-02
87322,6.39E-03,1.66E-02
87323,6.39E-03,1.66E-02
87324,6.39E-03,1.66E-02
87325,6.39E-03,1.67E-02
87326,6.39E-03,1.67E-02
87327,6.39E-03,1.67E-02
87328,6.39E-03,1.67E-02
87329,6.39E-03,1.68E-02
87330,6.39E-03,1.68E-02
87331,6.39E-03,1.68E-02
87332,6.39E-03,1.68E-02
87333,6.39E-03,1.69E-02
87334,6.39E-03,1.69E-02
87335,6.39E-03,1.69E-02
87336,6.39E-03,1.69E-02
87337,6.39E-03,1.70E-02
87338,6.39E-03,1.70E-02
87339,6.39E-03,1.70E-02
87340,6.39E-03,1.71E-02
87341,6.39E-03,1.71E-02
87342,6.39E-03,1.71E-02
87343,6.39E-03,1.72E-02
87344,6.39E-03,1.72E-02
87345,6.39E-03,1.72E-02
87346,6.39E-03,1.73E-02
87347,6.39E-03,1.73E-02
87348,6.39E-03,1.74E-02
87349,6.39E-03,1.74E-02
87350,6.39E-03,1.74E-02
87351,6.39E-03,1.75E-02
87352,6.39E-03,1.75E-02
87353,6.39E-03,1.76E-02
87354,6.39E-03,1.76E-02
87355,6.39E-03,1.77E-02
87356,6.39E-03,1.77E-02
87357,6.39E-03,1.78E-02
87358,6.39E-03,1.78E-02
87359,6.39E-03,1.78E-02
87360,6.39E-03,1.79E-02
87361,6.39E-03,1.79E-02
87362,6.39E-03,1.80E-02
87363,6.39E-03,1.81E-02
87364,6.39E-03,1.81E-02
87365,6.39E-03,1.82E-02
87366,6.39E-03,1.82E-02
87367,6.39E-03,1.83E-02
87368,6.39E-03,1.83E-02
87369,6.39E-03,1.84E-02
87370,6.39E-03,1.84E-02
87371,6.39E-03,1.85E-02
87372,6.39E-03,1.86E-02
87373,6.39E-03,1.86E-02
87374,6.39E-03,1.87E-02
87375,6.39E-03,1.87E-02
87376,6.39E-03,1.88E-02
87377,6.39E-03,1.89E-02
87378,6.39E-03,1.89E-02
87379,6.39E-03,1.90E-02
87380,6.39E-03,1.91E-02
87381,6.39E-03,1.91E-02
87382,6.39E-03,1.92E-02
87383,6.39E-03,1.93E-02
87384,6.39E-03,1.93E-02
87385,6.39E-03,1.94E-02
87386,6.39E-03,1.95E-02
87387,6.39E-03,1.95E-02
87388,6.39E-03,1.96E-02
87389,6.39E-03,1.97E-02
87390,6.39E-03,1.98E-02
87391,6.39E-03,1.98E-02
87392,6.39E-03,1.99E-02
87393,6.39E-03,2.00E-02
87394,6.39E-03,2.01E-02
87395,6.39E-03,2.02E-02
87396,6.39E-03,2.03E-02
87397,6.39E-03,2.04E-02
87398,6.39E-03,2.04E-02
87399,6.39E-03,2.05E-02
87400,6.39E-03,2.06E-02
87401,6.39E-03,2.07E-02
87402,6.39E-03,2.08E-02
87403,6.39E-03,2.09E-02
87404,6.39E-03,2.10E-02
87405,6.39E-03,2.11E-02
87406,6.39E-03,2.13E-02
87407,6.39E-03,2.14E-02
87408,6.39E-03,2.15E-02
87409,6.39E-03,2.16E-02
87410,6.39E-03,2.17E-02
87411,6.39E-03,2.18E-02
87412,6.39E-03,2.20E-02
87413,6.39E-03,2.21E-02
87414,6.39E-03,2.22E-02
87415,6.39E-03,2.23E-02
87416,6.39E-03,2.25E-02
87417,6.39E-03,2.26E-02
87418,6.39E-03,2.27E-02
87419,6.39E-03,2.29E-02
87420,6.39E-03,2.30E-02
87421,6.39E-03,2.31E-02
87422,6.39E-03,2.33E-02
87423,6.39E-03,2.34E-02
87424,6.39E-03,2.36E-02
87425,6.39E-03,2.37E-02
87426,6.39E-03,2.38E-02
87427,6.39E-03,2.40E-02
87428,6.39E-03,2.41E-02
87429,6.39E-03,2.43E-02
87430,6.39E-03,2.44E-02
87431,6.39E-03,2.45E-02
87432,6.39E-03,2.47E-02
87433,6.39E-03,2.48E-02
87434,6.39E-03,1.61E-02
87435,6.39E-03,1.61E-02
87436,6.39E-03,1.61E-02
87437,6.39E-03,1.61E-02
87438,6.39E-03,1.61E-02
87439,6.39E-03,1.62E-02
87440,6.39E-03,1.62E-02
87441,6.39E-03,1.62E-02
87442,6.39E-03,1.62E-02
87443,6.39E-03,1.62E-02
87444,6.39E-03,1.62E-02
87445,6.39E-03,1.63E-02
87446,6.39E-03,1.63E-02
87447,6.39E-03,1.63E-02
87448,6.39E-03,1.63E-02
87449,6.39E-03,1.63E-02
87450,6.39E-03,1.63E-02
87451,6.39E-03,1.64E-02
87452,6.39E-03,1.64E-02
87453,6.39E-03,1.64E-02
87454,6.39E-03,1.64E-02
87455,6.39E-03,1.64E-02
87456,6.39E-03,1.65E-02
87457,6.39E-03,1.65E-02
87458,6.39E-03,1.65E-02
87459,6.39E-03,1.65E-02
87460,6.39E-03,1.65E-02
87461,6.39E-03,1.66E-02
87462,6.39E-03,1.66E-02
87463,6.39E-03,1.66E-02
87464,6.39E-03,1.66E-02
87465,6.39E-03,1.67E-02
87466,6.39E-03,1.67E-02
87467,6.39E-03,1.67E-02
87468,6.39E-03,1.68E-02
87469,6.39E-03,1.68E-02
87470,6.39E-03,1.68E-02
87471,6.39E-03,1.68E-02
87472,6.39E-03,1.69E-02
87473,6.39E-03,1.69E-02
87474,6.39E-03,1.69E-02
87475,6.39E-03,1.70E-02
87476,6.39E-03,1.70E-02
87477,6.39E-03,1.70E-02
87478,6.39E-03,1.71E-02
87479,6.39E-03,1.71E-02
87480,6.39E-03,1.71E-02
87481,6.39E-03,1.72E-02
87482,6.39E-03,1.72E-02
87483,6.39E-03,1.73E-02
87484,6.39E-03,1.73E-02
87485,6.39E-03,1.73E-02
87486,6.39E-03,1.74E-02
87487,6.39E-03,1.74E-02
87488,6.39E-03,1.75E-02
87489,6.39E-03,1.75E-02
87490,6.39E-03,1.76E-02
87491,6.39E-03,1.76E-02
87492,6.39E-03,1.77E-02
87493,6.39E-03,1.77E-02
87494,6.39E-03,1.78E-02
87495,6.39E-03,1.78E-02
87496,6.39E-03,1.79E-02
87497,6.39E-03,1.79E-02
87498,6.39E-03,1.80E-02
87499,6.39E-03,1.80E-02
87500,6.39E-03,1.81E-02
87501,6.39E-03,1.81E-02
87502,6.39E-03,1.82E-02
87503,6.39E-03,1.82E-02
87504,6.39E-03,1.83E-02
87505,6.39E-03,1.84E-02
87506,6.39E-03,1.84E-02
87507,6.39E-03,1.85E-02
87508,6.39E-03,1.85E-02
87509,6.39E-03,1.86E-02
87510,6.39E-03,1.87E-02
87511,6.39E-03,1.87E-02
87512,6.39E-03,1.88E-02
87513,6.39E-03,1.89E-02
87514,6.39E-03,1.89E-02
87515,6.39E-03,1.90E-02
87516,6.39E-03,1.91E-02
87517,6.39E-03,1.91E-02
87518,6.39E-03,1.92E-02
87519,6.39E-03,1.93E-02
87520,6.39E-03,1.93E-02
87521,6.39E-03,1.94E-02
87522,6.39E-03,1.95E-02
87523,6.39E-03,1.95E-02
87524,6.39E-03,1.96E-02
87525,6.39E-03,1.97E-02
87526,6.39E-03,1.98E-02
87527,6.39E-03,1.99E-02
87528,6.39E-03,1.99E-02
87529,6.39E-03,2.00E-02
87530,6.39E-03,2.01E-02
87531,6.39E-03,2.02E-02
87532,6.39E-03,2.03E-02
87533,6.39E-03,2.04E-02
87534,6.39E-03,2.05E-02
87535,6.39E-03,2.06E-02
87536,6.39E-03,2.07E-02
87537,6.39E-03,2.08E-02
87538,6.39E-03,2.09E-02
87539,6.39E-03,2.10E-02
87540,6.39E-03,2.11E-02
87541,6.39E-03,2.12E-02
87542,6.39E-03,2.13E-02
87543,6.39E-03,2.14E-02
87544,6.39E-03,2.15E-02
87545,6.39E-03,2.16E-02
87546,6.39E-03,2.17E-02
87547,6.39E-03,2.19E-02
87548,6.39E-03,2.20E-02
87549,6.39E-03,2.21E-02
87550,6.39E-03,2.22E-02
87551,6.39E-03,2.24E-02
87552,6.39E-03,2.25E-02
87553,6.39E-03,2.26E-02
87554,6.39E-03,2.28E-02
87555,6.39E-03,2.29E-02
87556,6.39E-03,2.30E-02
87557,6.39E-03,2.32E-02
87558,6.39E-03,2.33E-02
87559,6.39E-03,2.35E-02
87560,6.39E-03,2.36E-02
87561,6.39E-03,2.38E-02
87562,6.39E-03,2.39E-02
87563,6.39E-03,2.40E-02
87564,6.39E-03,2.42E-02
87565,6.39E-03,2.43E-02
87566,6.39E-03,2.45E-02
87567,6.39E-03,2.46E-02
87568,6.39E-03,2.48E-02
87569,6.39E-03,2.49E-02
87570,6.39E-03,1.59E-02
87571,6.39E-03,1.60E-02
87572,6.39E-03,1.60E-02
87573,6.39E-03,1.60E-02
87574,6.39E-03,1.60E-02
87575,6.39E-03,1.60E-02
87576,6.39E-03,1.60E-02
87577,6.39E-03,1.61E-02
87578,6.39E-03,1.61E-02
87579,6.39E-03,1.61E-02
87580,6.39E-03,1.61E-02
87581,6.39E-03,1.61E-02
87582,6.39E-03,1.62E-02
87583,6.39E-03,1.62E-02
87584,6.39E-03,1.62E-02
87585,6.39E-03,1.62E-02
87586,6.39E-03,1.62E-02
87587,6.39E-03,1.63E-02
87588,6.39E-03,1.63E-02
87589,6.39E-03,1.63E-02
87590,6.39E-03,1.63E-02
87591,6.39E-03,1.63E-02
87592,6.39E-03,1.64E-02
87593,6.39E-03,1.64E-02
87594,6.39E-03,1.64E-02
87595,6.39E-03,1.64E-02
87596,6.39E-03,1.65E-02
87597,6.39E-03,1.65E-02
87598,6.39E-03,1.65E-02
87599,6.39E-03,1.65E-02
87600,6.39E-03,1.66E-02
87601,6.39E-03,1.66E-02
87602,6.39E-03,1.66E-02
87603,6.39E-03,1.66E-02
87604,6.39E-03,1.67E-02
87605,6.39E-03,1.67E-02
87606,6.39E-03,1.67E-02
87607,6.39E-03,1.68E-02
87608,6.39E-03,1.68E-02
87609,6.39E-03,1.68E-02
87610,6.39E-03,1.69E-02
87611,6.39E-03,1.69E-02
87612,6.39E-03,1.69E-02
87613,6.39E-03,1.70E-02
87614,6.39E-03,1.70E-02
87615,6.39E-03,1.70E-02
87616,6.39E-03,1.71E-02
87617,6.39E-03,1.71E-02
87618,6.39E-03,1.72E-02
87619,6.39E-03,1.72E-02
87620,6.39E-03,1.73E-02
87621,6.39E-03,1.73E-02
87622,6.39E-03,1.73E-02
87623,6.39E-03,1.74E-02
87624,6.39E-03,1.74E-02
87625,6.39E-03,1.75E-02
87626,6.39E-03,1.75E-02
87627,6.39E-03,1.76E-02
87628,6.39E-03,1.76E-02
87629,6.39E-03,1.77E-02
87630,6.39E-03,1.77E-02
87631,6.39E-03,1.78E-02
87632,6.39E-03,1.78E-02
87633,6.39E-03,1.79E-02
87634,6.39E-03,1.79E-02
87635,6.39E-03,1.80E-02
87636,6.39E-03,1.80E-02
87637,6.39E-03,1.81E-02
87638,6.39E-03,1.82E-02
87639,6.39E-03,1.82E-02
87640,6.39E-03,1.83E-02
87641,6.39E-03,1.83E-02
87642,6.39E-03,1.84E-02
87643,6.39E-03,1.85E-02
87644,6.39E-03,1.85E-02
87645,6.39E-03,1.86E-02
87646,6.39E-03,1.87E-02
87647,6.39E-03,1.87E-02
87648,6.39E-03,1.88E-02
87649,6.39E-03,1.88E-02
87650,6.39E-03,1.89E-02
87651,6.39E-03,1.90E-02
87652,6.39E-03,1.90E-02
87653,6.39E-03,1.91E-02
87654,6.39E-03,1.92E-02
87655,6.39E-03,1.93E-02
87656,6.39E-03,1.93E-02
87657,6.39E-03,1.94E-02
87658,6.39E-03,1.95E-02
87659,6.39E-03,1.95E-02
87660,6.39E-03,1.96E-02
87661,6.39E-03,1.97E-02
87662,6.39E-03,1.98E-02
87663,6.39E-03,1.99E-02
87664,6.39E-03,1.99E-02
87665,6.39E-03,2.00E-02
87666,6.39E-03,2.01E-02
87667,6.39E-03,2.02E-02
87668,6.39E-03,2.03E-02
87669,6.39E-03,2.04E-02
87670,6.39E-03,2.05E-02
87671,6.39E-03,2.06E-02
87672,6.39E-03,2.07E-02
87673,6.39E-03,2.08E-02
87674,6.39E-03,2.09E-02
87675,6.39E-03,2.10E-02
87676,6.39E-03,2.11E-02
87677,6.39E-03,2.12E-02
87678,6.39E-03,2.13E-02
87679,6.39E-03,2.14E-02
87680,6.39E-03,2.15E-02
87681,6.39E-03,2.17E-02
87682,6.39E-03,2.18E-02
87683,6.39E-03,2.19E-02
87684,6.39E-03,2.20E-02
87685,6.39E-03,2.22E-02
87686,6.39E-03,2.23E-02
87687,6.39E-03,2.24E-02
87688,6.39E-03,2.25E-02
87689,6.39E-03,2.27E-02
87690,6.39E-03,2.28E-02
87691,6.39E-03,2.30E-02
87692,6.39E-03,2.31E-02
87693,6.39E-03,2.32E-02
87694,6.39E-03,2.34E-02
87695,6.39E-03,2.35E-02
87696,6.39E-03,2.37E-02
87697,6.39E-03,2.38E-02
87698,6.39E-03,2.40E-02
87699,6.39E-03,2.41E-02
87700,6.39E-03,2.43E-02
87701,6.39E-03,2.44E-02
87702,6.39E-03,2.46E-02
87703,6.39E-03,2.47E-02
87704,6.39E-03,2.49E-02
87705,6.39E-03,2.50E-02
87706,6.39E-03,1.58E-02
87707,6.39E-03,1.58E-02
87708,6.39E-03,1.58E-02
87709,6.39E-03,1.59E-02
87710,6.39E-03,1.59E-02
87711,6.39E-03,1.59E-02
87712,6.39E-03,1.59E-02
87713,6.39E-03,1.59E-02
87714,6.39E-03,1.60E-02
87715,6.39E-03,1.60E-02
87716,6.39E-03,1.60E-02
87717,6.39E-03,1.60E-02
87718,6.39E-03,1.60E-02
87719,6.39E-03,1.61E-02
87720,6.39E-03,1.61E-02
87721,6.39E-03,1.61E-02
87722,6.39E-03,1.61E-02
87723,6.39E-03,1.61E-02
87724,6.39E-03,1.62E-02
87725,6.39E-03,1.62E-02
87726,6.39E-03,1.62E-02
87727,6.39E-03,1.62E-02
87728,6.39E-03,1.63E-02
87729,6.39E-03,1.63E-02
87730,6.39E-03,1.63E-02
87731,6.39E-03,1.63E-02
87732,6.39E-03,1.64E-02
87733,6.39E-03,1.64E-02
87734,6.39E-03,1.64E-02
87735,6.39E-03,1.64E-02
87736,6.39E-03,1.65E-02
87737,6.39E-03,1.65E-02
87738,6.39E-03,1.65E-02
87739,6.39E-03,1.66E-02
87740,6.39E-03,1.66E-02
87741,6.39E-03,1.66E-02
87742,6.39E-03,1.67E-02
87743,6.39E-03,1.67E-02
87744,6.39E-03,1.67E-02
87745,6.39E-03,1.68E-02
87746,6.39E-03,1.68E-02
87747,6.39E-03,1.68E-02
87748,6.39E-03,1.69E-02
87749,6.39E-03,1.69E-02
87750,6.39E-03,1.69E-02
87751,6.39E-03,1.70E-02
87752,6.39E-03,1.70E-02
87753,6.39E-03,1.71E-02
87754,6.39E-03,1.71E-02
87755,6.39E-03,1.72E-02
87756,6.39E-03,1.72E-02
87757,6.39E-03,1.72E-02
87758,6.39E-03,1.73E-02
87759,6.39E-03,1.73E-02
87760,6.39E-03,1.74E-02
87761,6.39E-03,1.74E-02
87762,6.39E-03,1.75E-02
87763,6.39E-03,1.75E-02
87764,6.39E-03,1.76E-02
87765,6.39E-03,1.76E-02
87766,6.39E-03,1.77E-02
87767,6.39E-03,1.77E-02
87768,6.39E-03,1.78E-02
87769,6.39E-03,1.78E-02
87770,6.39E-03,1.79E-02
87771,6.39E-03,1.80E-02
87772,6.39E-03,1.80E-02
87773,6.39E-03,1.81E-02
87774,6.39E-03,1.81E-02
87775,6.39E-03,1.82E-02
87776,6.39E-03,1.83E-02
87777,6.39E-03,1.83E-02
87778,6.39E-03,1.84E-02
87779,6.39E-03,1.84E-02
87780,6.39E-03,1.85E-02
87781,6.39E-03,1.86E-02
87782,6.39E-03,1.86E-02
87783,6.39E-03,1.87E-02
87784,6.39E-03,1.88E-02
87785,6.39E-03,1.88E-02
87786,6.39E-03,1.89E-02
87787,6.39E-03,1.90E-02
87788,6.39E-03,1.90E-02
87789,6.39E-03,1.91E-02
87790,6.39E-03,1.92E-02
87791,6.39E-03,1.93E-02
87792,6.39E-03,1.93E-02
87793,6.39E-03,1.94E-02
87794,6.39E-03,1.95E-02
87795,6.39E-03,1.95E-02
87796,6.39E-03,1.96E-02
87797,6.39E-03,1.97E-02
87798,6.39E-03,1.98E-02
87799,6.39E-03,1.99E-02
87800,6.39E-03,1.99E-02
87801,6.39E-03,2.00E-02
87802,6.39E-03,2.01E-02
87803,6.39E-03,2.02E-02
87804,6.39E-03,2.03E-02
87805,6.39E-03,2.04E-02
87806,6.39E-03,2.05E-02
87807,6.39E-03,2.06E-02
87808,6.39E-03,2.07E-02
87809,6.39E-03,2.08E-02
87810,6.39E-03,2.09E-02
87811,6.39E-03,2.10E-02
87812,6.39E-03,2.11E-02
87813,6.39E-03,2.12E-02
87814,6.39E-03,2.13E-02
87815,6.39E-03,2.14E-02
87816,6.39E-03,2.16E-02
87817,6.39E-03,2.17E-02
87818,6.39E-03,2.18E-02
87819,6.39E-03,2.19E-02
87820,6.39E-03,2.21E-02
87821,6.39E-03,2.22E-02
87822,6.39E-03,2.23E-02
87823,6.39E-03,2.24E-02
87824,6.39E-03,2.26E-02
87825,6.39E-03,2.27E-02
87826,6.39E-03,2.29E-02
87827,6.39E-03,2.30E-02
87828,6.39E-03,2.31E-02
87829,6.39E-03,2.33E-02
87830,6.39E-03,2.34E-02
87831,6.39E-03,2.36E-02
87832,6.39E-03,2.37E-02
87833,6.39E-03,2.39E-02
87834,6.39E-03,2.40E-02
87835,6.39E-03,2.42E-02
87836,6.39E-03,2.43E-02
87837,6.39E-03,2.45E-02
87838,6.39E-03,2.46E-02
87839,6.39E-03,2.48E-02
87840,6.39E-03,2.49E-02
87841,6.39E-03,2.51E-02
87842,6.39E-03,1.57E-02
87843,6.39E-03,1.57E-02
87844,6.39E-03,1.57E-02
87845,6.39E-03,1.57E-02
87846,6.39E-03,1.57E-02
87847,6.39E-03,1.58E-02
87848,6.39E-03,1.58E-02
87849,6.39E-03,1.58E-02
87850,6.39E-03,1.58E-02
87851,6.39E-03,1.58E-02
87852,6.39E-03,1.59E-02
87853,6.39E-03,1.59E-02
87854,6.39E-03,1.59E-02
87855,6.39E-03,1.59E-02
87856,6.39E-03,1.60E-02
87857,6.39E-03,1.60E-02
87858,6.39E-03,1.60E-02
87859,6.39E-03,1.60E-02
87860,6.39E-03,1.60E-02
87861,6.39E-03,1.61E-02
87862,6.39E-03,1.61E-02
87863,6.39E-03,1.61E-02
87864,6.39E-03,1.61E-02
87865,6.39E-03,1.62E-02
87866,6.39E-03,1.62E-02
87867,6.39E-03,1.62E-02
87868,6.39E-03,1.63E-02
87869,6.39E-03,1.63E-02
87870,6.39E-03,1.63E-02
87871,6.39E-03,1.63E-02
87872,6.39E-03,1.64E-02
87873,6.39E-03,1.64E-02
87874,6.39E-03,1.64E-02
87875,6.39E-03,1.65E-02
87876,6.39E-03,1.65E-02
87877,6.39E-03,1.65E-02
87878,6.39E-03,1.66E-02
87879,6.39E-03,1.66E-02
87880,6.39E-03,1.66E-02
87881,6.39E-03,1.67E-02
87882,6.39E-03,1.67E-02
87883,6.39E-03,1.68E-02
87884,6.39E-03,1.68E-02
87885,6.39E-03,1.68E-02
87886,6.39E-03,1.69E-02
87887,6.39E-03,1.69E-02
87888,6.39E-03,1.70E-02
87889,6.39E-03,1.70E-02
87890,6.39E-03,1.70E-02
87891,6.39E-03,1.71E-02
87892,6.39E-03,1.71E-02
87893,6.39E-03,1.72E-02
87894,6.39E-03,1.72E-02
87895,6.39E-03,1.73E-02
87896,6.39E-03,1.73E-02
87897,6.39E-03,1.74E-02
87898,6.39E-03,1.74E-02
87899,6.39E-03,1.75E-02
87900,6.39E-03,1.75E-02
87901,6.39E-03,1.76E-02
87902,6.39E-03,1.76E-02
87903,6.39E-03,1.77E-02
87904,6.39E-03,1.78E-02
87905,6.39E-03,1.78E-02
87906,6.39E-03,1.79E-02
87907,6.39E-03,1.79E-02
87908,6.39E-03,1.80E-02
87909,6.39E-03,1.80E-02
87910,6.39E-03,1.81E-02
87911,6.39E-03,1.82E-02
87912,6.39E-03,1.82E-02
87913,6.39E-03,1.83E-02
87914,6.39E-03,1.84E-02
87915,6.39E-03,1.84E-02
87916,6.39E-03,1.85E-02
87917,6.39E-03,1.85E-02
87918,6.39E-03,1.86E-02
87919,6.39E-03,1.87E-02
87920,6.39E-03,1.87E-02
87921,6.39E-03,1.88E-02
87922,6.39E-03,1.89E-02
87923,6.39E-03,1.90E-02
87924,6.39E-03,1.90E-02
87925,6.39E-03,1.91E-02
87926,6.39E-03,1.92E-02
87927,6.39E-03,1.92E-02
87928,6.39E-03,1.93E-02
87929,6.39E-03,1.94E-02
87930,6.39E-03,1.95E-02
87931,6.39E-03,1.95E-02
87932,6.39E-03,1.96E-02
87933,6.39E-03,1.97E-02
87934,6.39E-03,1.98E-02
87935,6.39E-03,1.99E-02
87936,6.39E-03,1.99E-02
87937,6.39E-03,2.00E-02
87938,6.39E-03,2.01E-02
87939,6.39E-03,2.02E-02
87940,6.39E-03,2.03E-02
87941,6.39E-03,2.04E-02
87942,6.39E-03,2.05E-02
87943,6.39E-03,2.06E-02
87944,6.39E-03,2.07E-02
87945,6.39E-03,2.08E-02
87946,6.39E-03,2.09E-02
87947,6.39E-03,2.10E-02
87948,6.39E-03,2.11E-02
87949,6.39E-03,2.12E-02
87950,6.39E-03,2.13E-02
87951,6.39E-03,2.15E-02
87952,6.39E-03,2.16E-02
87953,6.39E-03,2.17E-02
87954,6.39E-03,2.18E-02
87955,6.39E-03,2.20E-02
87956,6.39E-03,2.21E-02
87957,6.39E-03,2.22E-02
87958,6.39E-03,2.23E-02
87959,6.39E-03,2.25E-02
87960,6.39E-03,2.26E-02
87961,6.39E-03,2.28E-02
87962,6.39E-03,2.29E-02
87963,6.39E-03,2.30E-02
87964,6.39E-03,2.32E-02
87965,6.39E-03,2.33E-02
87966,6.39E-03,2.35E-02
87967,6.39E-03,2.36E-02
87968,6.39E-03,2.38E-02
87969,6.39E-03,2.39E-02
87970,6.39E-03,2.41E-02
87971,6.39E-03,2.42E-02
87972,6.39E-03,2.44E-02
87973,6.39E-03,2.45E-02
87974,6.39E-03,2.47E-02
87975,6.39E-03,2.48E-02
87976,6.39E-03,2.50E-02
87977,6.39E-03,2.52E-02
87978,6.39E-03,1.55E-02
87979,6.39E-03,1.55E-02
87980,6.39E-03,1.56E-02
87981,6.39E-03,1.56E-02
87982,6.39E-03,1.56E-02
87983,6.39E-03,1.56E-02
87984,6.39E-03,1.57E-02
87985,6.39E-03,1.57E-02
87986,6.39E-03,1.57E-02
87987,6.39E-03,1.57E-02
87988,6.39E-03,1.57E-02
87989,6.39E-03,1.58E-02
87990,6.39E-03,1.58E-02
87991,6.39E-03,1.58E-02
87992,6.39E-03,1.58E-02
87993,6.39E-03,1.59E-02
87994,6.39E-03,1.59E-02
87995,6.39E-03,1.59E-02
87996,6.39E-03,1.59E-02
87997,6.39E-03,1.60E-02
87998,6.39E-03,1.60E-02
87999,6.39E-03,1.60E-02
88000,6.39E-03,1.60E-02
88001,6.39E-03,1.61E-02
88002,6.39E-03,1.61E-02
88003,6.39E-03,1.61E-02
88004,6.39E-03,1.62E-02
88005,6.39E-03,1.62E-02
88006,6.39E-03,1.62E-02
88007,6.39E-03,1.62E-02
88008,6.39E-03,1.63E-02
88009,6.39E-03,1.63E-02
88010,6.39E-03,1.63E-02
88011,6.39E-03,1.64E-02
88012,6.39E-03,1.64E-02
88013,6.39E-03,1.65E-02
88014,6.39E-03,1.65E-02
88015,6.39E-03,1.65E-02
88016,6.39E-03,1.66E-02
88017,6.39E-03,1.66E-02
88018,6.39E-03,1.66E-02
88019,6.39E-03,1.67E-02
88020,6.39E-03,1.67E-02
88021,6.39E-03,1.68E-02
88022,6.39E-03,1.68E-02
88023,6.39E-03,1.69E-02
88024,6.39E-03,1.69E-02
88025,6.39E-03,1.69E-02
88026,6.39E-03,1.70E-02
88027,6.39E-03,1.70E-02
88028,6.39E-03,1.71E-02
88029,6.39E-03,1.71E-02
88030,6.39E-03,1.72E-02
88031,6.39E-03,1.72E-02
88032,6.39E-03,1.73E-02
88033,6.39E-03,1.73E-02
88034,6.39E-03,1.74E-02
88035,6.39E-03,1.74E-02
88036,6.39E-03,1.75E-02
88037,6.39E-03,1.75E-02
88038,6.39E-03,1.76E-02
88039,6.39E-03,1.76E-02
88040,6.39E-03,1.77E-02
88041,6.39E-03,1.78E-02
88042,6.39E-03,1.78E-02
88043,6.39E-03,1.79E-02
88044,6.39E-03,1.79E-02
88045,6.39E-03,1.80E-02
88046,6.39E-03,1.81E-02
88047,6.39E-03,1.81E-02
88048,6.39E-03,1.82E-02
88049,6.39E-03,1.83E-02
88050,6.39E-03,1.83E-02
88051,6.39E-03,1.84E-02
88052,6.39E-03,1.85E-02
88053,6.39E-03,1.85E-02
88054,6.39E-03,1.86E-02
88055,6.39E-03,1.87E-02
88056,6.39E-03,1.87E-02
88057,6.39E-03,1.88E-02
88058,6.39E-03,1.89E-02
88059,6.39E-03,1.89E-02
88060,6.39E-03,1.90E-02
88061,6.39E-03,1.91E-02
88062,6.39E-03,1.92E-02
88063,6.39E-03,1.92E-02
88064,6.39E-03,1.93E-02
88065,6.39E-03,1.94E-02
88066,6.39E-03,1.95E-02
88067,6.39E-03,1.95E-02
88068,6.39E-03,1.96E-02
88069,6.39E-03,1.97E-02
88070,6.39E-03,1.98E-02
88071,6.39E-03,1.99E-02
88072,6.39E-03,1.99E-02
88073,6.39E-03,2.00E-02
88074,6.39E-03,2.01E-02
88075,6.39E-03,2.02E-02
88076,6.39E-03,2.03E-02
88077,6.39E-03,2.04E-02
88078,6.39E-03,2.05E-02
88079,6.39E-03,2.06E-02
88080,6.39E-03,2.07E-02
88081,6.39E-03,2.08E-02
88082,6.39E-03,2.09E-02
88083,6.39E-03,2.10E-02
88084,6.39E-03,2.11E-02
88085,6.39E-03,2.12E-02
88086,6.39E-03,2.14E-02
88087,6.39E-03,2.15E-02
88088,6.39E-03,2.16E-02
88089,6.39E-03,2.17E-02
88090,6.39E-03,2.18E-02
88091,6.39E-03,2.20E-02
88092,6.39E-03,2.21E-02
88093,6.39E-03,2.22E-02
88094,6.39E-03,2.24E-02
88095,6.39E-03,2.25E-02
88096,6.39E-03,2.26E-02
88097,6.39E-03,2.28E-02
88098,6.39E-03,2.29E-02
88099,6.39E-03,2.31E-02
88100,6.39E-03,2.32E-02
88101,6.39E-03,2.34E-02
88102,6.39E-03,2.35E-02
88103,6.39E-03,2.37E-02
88104,6.39E-03,2.38E-02
88105,6.39E-03,2.40E-02
88106,6.39E-03,2.41E-02
88107,6.39E-03,2.43E-02
88108,6.39E-03,2.44E-02
88109,6.39E-03,2.46E-02
88110,6.39E-03,2.48E-02
88111,6.39E-03,2.49E-02
88112,6.39E-03,2.51E-02
88113,6.39E-03,2.52E-02
88114,6.39E-03,1.54E-02
88115,6.39E-03,1.54E-02
88116,6.39E-03,1.54E-02
88117,6.39E-03,1.55E-02
88118,6.39E-03,1.55E-02
88119,6.39E-03,1.55E-02
88120,6.39E-03,1.55E-02
88121,6.39E-03,1.55E-02
88122,6.39E-03,1.56E-02
88123,6.39E-03,1.56E-02
88124,6.39E-03,1.56E-02
88125,6.39E-03,1.56E-02
88126,6.39E-03,1.57E-02
88127,6.39E-03,1.57E-02
88128,6.39E-03,1.57E-02
88129,6.39E-03,1.57E-02
88130,6.39E-03,1.58E-02
88131,6.39E-03,1.58E-02
88132,6.39E-03,1.58E-02
88133,6.39E-03,1.58E-02
88134,6.39E-03,1.59E-02
88135,6.39E-03,1.59E-02
88136,6.39E-03,1.59E-02
88137,6.39E-03,1.60E-02
88138,6.39E-03,1.60E-02
88139,6.39E-03,1.60E-02
88140,6.39E-03,1.61E-02
88141,6.39E-03,1.61E-02
88142,6.39E-03,1.61E-02
88143,6.39E-03,1.62E-02
88144,6.39E-03,1.62E-02
88145,6.39E-03,1.62E-02
88146,6.39E-03,1.63E-02
88147,6.39E-03,1.63E-02
88148,6.39E-03,1.63E-02
88149,6.39E-03,1.64E-02
88150,6.39E-03,1.64E-02
88151,6.39E-03,1.64E-02
88152,6.39E-03,1.65E-02
88153,6.39E-03,1.65E-02
88154,6.39E-03,1.66E-02
88155,6.39E-03,1.66E-02
88156,6.39E-03,1.66E-02
88157,6.39E-03,1.67E-02
88158,6.39E-03,1.67E-02
88159,6.39E-03,1.68E-02
88160,6.39E-03,1.68E-02
88161,6.39E-03,1.69E-02
88162,6.39E-03,1.69E-02
88163,6.39E-03,1.70E-02
88164,6.39E-03,1.70E-02
88165,6.39E-03,1.71E-02
88166,6.39E-03,1.71E-02
88167,6.39E-03,1.72E-02
88168,6.39E-03,1.72E-02
88169,6.39E-03,1.73E-02
88170,6.39E-03,1.73E-02
88171,6.39E-03,1.74E-02
88172,6.39E-03,1.74E-02
88173,6.39E-03,1.75E-02
88174,6.39E-03,1.75E-02
88175,6.39E-03,1.76E-02
88176,6.39E-03,1.77E-02
88177,6.39E-03,1.77E-02
88178,6.39E-03,1.78E-02
88179,6.39E-03,1.78E-02
88180,6.39E-03,1.79E-02
88181,6.39E-03,1.80E-02
88182,6.39E-03,1.80E-02
88183,6.39E-03,1.81E-02
88184,6.39E-03,1.82E-02
88185,6.39E-03,1.82E-02
88186,6.39E-03,1.83E-02
88187,6.39E-03,1.84E-02
88188,6.39E-03,1.84E-02
88189,6.39E-03,1.85E-02
88190,6.39E-03,1.86E-02
88191,6.39E-03,1.86E-02
88192,6.39E-03,1.87E-02
88193,6.39E-03,1.88E-02
88194,6.39E-03,1.88E-02
88195,6.39E-03,1.89E-02
88196,6.39E-03,1.90E-02
88197,6.39E-03,1.91E-02
88198,6.39E-03,1.91E-02
88199,6.39E-03,1.92E-02
88200,6.39E-03,1.93E-02
88201,6.39E-03,1.94E-02
88202,6.39E-03,1.94E-02
88203,6.39E-03,1.95E-02
88204,6.39E-03,1.96E-02
88205,6.39E-03,1.97E-02
88206,6.39E-03,1.98E-02
88207,6.39E-03,1.99E-02
88208,6.39E-03,1.99E-02
88209,6.39E-03,2.00E-02
88210,6.39E-03,2.01E-02
88211,6.39E-03,2.02E-02
88212,6.39E-03,2.03E-02
88213,6.39E-03,2.04E-02
88214,6.39E-03,2.05E-02
88215,6.39E-03,2.06E-02
88216,6.39E-03,2.07E-02
88217,6.39E-03,2.08E-02
88218,6.39E-03,2.09E-02
88219,6.39E-03,2.10E-02
88220,6.39E-03,2.11E-02
88221,6.39E-03,2.12E-02
88222,6.39E-03,2.14E-02
88223,6.39E-03,2.15E-02
88224,6.39E-03,2.16E-02
88225,6.39E-03,2.17E-02
88226,6.39E-03,2.19E-02
88227,6.39E-03,2.20E-02
88228,6.39E-03,2.21E-02
88229,6.39E-03,2.23E-02
88230,6.39E-03,2.24E-02
88231,6.39E-03,2.25E-02
88232,6.39E-03,2.27E-02
88233,6.39E-03,2.28E-02
88234,6.39E-03,2.30E-02
88235,6.39E-03,2.31E-02
88236,6.39E-03,2.33E-02
88237,6.39E-03,2.34E-02
88238,6.39E-03,2.36E-02
88239,6.39E-03,2.37E-02
88240,6.39E-03,2.39E-02
88241,6.39E-03,2.40E-02
88242,6.39E-03,2.42E-02
88243,6.39E-03,2.43E-02
88244,6.39E-03,2.45E-02
88245,6.39E-03,2.47E-02
88246,6.39E-03,2.48E-02
88247,6.39E-03,2.50E-02
88248,6.39E-03,2.51E-02
88249,6.39E-03,2.53E-02
88250,6.39E-03,1.53E-02
88251,6.39E-03,1.53E-02
88252,6.39E-03,1.53E-02
88253,6.39E-03,1.53E-02
88254,6.39E-03,1.53E-02
88255,6.39E-03,1.54E-02
88256,6.39E-03,1.54E-02
88257,6.39E-03,1.54E-02
88258,6.39E-03,1.54E-02
88259,6.39E-03,1.55E-02
88260,6.39E-03,1.55E-02
88261,6.39E-03,1.55E-02
88262,6.39E-03,1.55E-02
88263,6.39E-03,1.56E-02
88264,6.39E-03,1.56E-02
88265,6.39E-03,1.56E-02
88266,6.39E-03,1.56E-02
88267,6.39E-03,1.57E-02
88268,6.39E-03,1.57E-02
88269,6.39E-03,1.57E-02
88270,6.39E-03,1.58E-02
88271,6.39E-03,1.58E-02
88272,6.39E-03,1.58E-02
88273,6.39E-03,1.59E-02
88274,6.39E-03,1.59E-02
88275,6.39E-03,1.59E-02
88276,6.39E-03,1.59E-02
88277,6.39E-03,1.60E-02
88278,6.39E-03,1.60E-02
88279,6.39E-03,1.61E-02
88280,6.39E-03,1.61E-02
88281,6.39E-03,1.61E-02
88282,6.39E-03,1.62E-02
88283,6.39E-03,1.62E-02
88284,6.39E-03,1.62E-02
88285,6.39E-03,1.63E-02
88286,6.39E-03,1.63E-02
88287,6.39E-03,1.64E-02
88288,6.39E-03,1.64E-02
88289,6.39E-03,1.64E-02
88290,6.39E-03,1.65E-02
88291,6.39E-03,1.65E-02
88292,6.39E-03,1.66E-02
88293,6.39E-03,1.66E-02
88294,6.39E-03,1.67E-02
88295,6.39E-03,1.67E-02
88296,6.39E-03,1.68E-02
88297,6.39E-03,1.68E-02
88298,6.39E-03,1.68E-02
88299,6.39E-03,1.69E-02
88300,6.39E-03,1.69E-02
88301,6.39E-03,1.70E-02
88302,6.39E-03,1.70E-02
88303,6.39E-03,1.71E-02
88304,6.39E-03,1.72E-02
88305,6.39E-03,1.72E-02
88306,6.39E-03,1.73E-02
88307,6.39E-03,1.73E-02
88308,6.39E-03,1.74E-02
88309,6.39E-03,1.74E-02
88310,6.39E-03,1.75E-02
88311,6.39E-03,1.75E-02
88312,6.39E-03,1.76E-02
88313,6.39E-03,1.77E-02
88314,6.39E-03,1.77E-02
88315,6.39E-03,1.78E-02
88316,6.39E-03,1.79E-02
88317,6.39E-03,1.79E-02
88318,6.39E-03,1.80E-02
88319,6.39E-03,1.80E-02
88320,6.39E-03,1.81E-02
88321,6.39E-03,1.82E-02
88322,6.39E-03,1.82E-02
88323,6.39E-03,1.83E-02
88324,6.39E-03,1.84E-02
88325,6.39E-03,1.85E-02
88326,6.39E-03,1.85E-02
88327,6.39E-03,1.86E-02
88328,6.39E-03,1.87E-02
88329,6.39E-03,1.87E-02
88330,6.39E-03,1.88E-02
88331,6.39E-03,1.89E-02
88332,6.39E-03,1.90E-02
88333,6.39E-03,1.90E-02
88334,6.39E-03,1.91E-02
88335,6.39E-03,1.92E-02
88336,6.39E-03,1.93E-02
88337,6.39E-03,1.94E-02
88338,6.39E-03,1.94E-02
88339,6.39E-03,1.95E-02
88340,6.39E-03,1.96E-02
88341,6.39E-03,1.97E-02
88342,6.39E-03,1.98E-02
88343,6.39E-03,1.98E-02
88344,6.39E-03,1.99E-02
88345,6.39E-03,2.00E-02
88346,6.39E-03,2.01E-02
88347,6.39E-03,2.02E-02
88348,6.39E-03,2.03E-02
88349,6.39E-03,2.04E-02
88350,6.39E-03,2.05E-02
88351,6.39E-03,2.06E-02
88352,6.39E-03,2.07E-02
88353,6.39E-03,2.08E-02
88354,6.39E-03,2.09E-02
88355,6.39E-03,2.10E-02
88356,6.39E-03,2.11E-02
88357,6.39E-03,2.12E-02
88358,6.39E-03,2.14E-02
88359,6.39E-03,2.15E-02
88360,6.39E-03,2.16E-02
88361,6.39E-03,2.17E-02
88362,6.39E-03,2.19E-02
88363,6.39E-03,2.20E-02
88364,6.39E-03,2.21E-02
88365,6.39E-03,2.23E-02
88366,6.39E-03,2.24E-02
88367,6.39E-03,2.26E-02
88368,6.39E-03,2.27E-02
88369,6.39E-03,2.28E-02
88370,6.39E-03,2.30E-02
88371,6.39E-03,2.31E-02
88372,6.39E-03,2.33E-02
88373,6.39E-03,2.34E-02
88374,6.39E-03,2.36E-02
88375,6.39E-03,2.38E-02
88376,6.39E-03,2.39E-02
88377,6.39E-03,2.41E-02
88378,6.39E-03,2.42E-02
88379,6.39E-03,2.44E-02
88380,6.39E-03,2.45E-02
88381,6.39E-03,2.47E-02
88382,6.39E-03,2.49E-02
88383,6.39E-03,2.50E-02
88384,6.39E-03,2.52E-02
88385,6.39E-03,2.54E-02
88386,6.39E-03,1.51E-02
88387,6.39E-03,1.51E-02
88388,6.39E-03,1.52E-02
88389,6.39E-03,1.52E-02
88390,6.39E-03,1.52E-02
88391,6.39E-03,1.52E-02
88392,6.39E-03,1.53E-02
88393,6.39E-03,1.53E-02
88394,6.39E-03,1.53E-02
88395,6.39E-03,1.53E-02
88396,6.39E-03,1.54E-02
88397,6.39E-03,1.54E-02
88398,6.39E-03,1.54E-02
88399,6.39E-03,1.54E-02
88400,6.39E-03,1.55E-02
88401,6.39E-03,1.55E-02
88402,6.39E-03,1.55E-02
88403,6.39E-03,1.56E-02
88404,6.39E-03,1.56E-02
88405,6.39E-03,1.56E-02
88406,6.39E-03,1.56E-02
88407,6.39E-03,1.57E-02
88408,6.39E-03,1.57E-02
88409,6.39E-03,1.57E-02
88410,6.39E-03,1.58E-02
88411,6.39E-03,1.58E-02
88412,6.39E-03,1.58E-02
88413,6.39E-03,1.59E-02
88414,6.39E-03,1.59E-02
88415,6.39E-03,1.59E-02
88416,6.39E-03,1.60E-02
88417,6.39E-03,1.60E-02
88418,6.39E-03,1.61E-02
88419,6.39E-03,1.61E-02
88420,6.39E-03,1.61E-02
88421,6.39E-03,1.62E-02
88422,6.39E-03,1.62E-02
88423,6.39E-03,1.63E-02
88424,6.39E-03,1.63E-02
88425,6.39E-03,1.64E-02
88426,6.39E-03,1.64E-02
88427,6.39E-03,1.64E-02
88428,6.39E-03,1.65E-02
88429,6.39E-03,1.65E-02
88430,6.39E-03,1.66E-02
88431,6.39E-03,1.66E-02
88432,6.39E-03,1.67E-02
88433,6.39E-03,1.67E-02
88434,6.39E-03,1.68E-02
88435,6.39E-03,1.68E-02
88436,6.39E-03,1.69E-02
88437,6.39E-03,1.69E-02
88438,6.39E-03,1.70E-02
88439,6.39E-03,1.70E-02
88440,6.39E-03,1.71E-02
88441,6.39E-03,1.71E-02
88442,6.39E-03,1.72E-02
88443,6.39E-03,1.73E-02
88444,6.39E-03,1.73E-02
88445,6.39E-03,1.74E-02
88446,6.39E-03,1.74E-02
88447,6.39E-03,1.75E-02
88448,6.39E-03,1.75E-02
88449,6.39E-03,1.76E-02
88450,6.39E-03,1.77E-02
88451,6.39E-03,1.77E-02
88452,6.39E-03,1.78E-02
88453,6.39E-03,1.79E-02
88454,6.39E-03,1.79E-02
88455,6.39E-03,1.80E-02
88456,6.39E-03,1.81E-02
88457,6.39E-03,1.81E-02
88458,6.39E-03,1.82E-02
88459,6.39E-03,1.83E-02
88460,6.39E-03,1.83E-02
88461,6.39E-03,1.84E-02
88462,6.39E-03,1.85E-02
88463,6.39E-03,1.86E-02
88464,6.39E-03,1.86E-02
88465,6.39E-03,1.87E-02
88466,6.39E-03,1.88E-02
88467,6.39E-03,1.89E-02
88468,6.39E-03,1.89E-02
88469,6.39E-03,1.90E-02
88470,6.39E-03,1.91E-02
88471,6.39E-03,1.92E-02
88472,6.39E-03,1.93E-02
88473,6.39E-03,1.93E-02
88474,6.39E-03,1.94E-02
88475,6.39E-03,1.95E-02
88476,6.39E-03,1.96E-02
88477,6.39E-03,1.97E-02
88478,6.39E-03,1.97E-02
88479,6.39E-03,1.98E-02
88480,6.39E-03,1.99E-02
88481,6.39E-03,2.00E-02
88482,6.39E-03,2.01E-02
88483,6.39E-03,2.02E-02
88484,6.39E-03,2.03E-02
88485,6.39E-03,2.04E-02
88486,6.39E-03,2.05E-02
88487,6.39E-03,2.06E-02
88488,6.39E-03,2.07E-02
88489,6.39E-03,2.08E-02
88490,6.39E-03,2.09E-02
88491,6.39E-03,2.10E-02
88492,6.39E-03,2.11E-02
88493,6.39E-03,2.12E-02
88494,6.39E-03,2.14E-02
88495,6.39E-03,2.15E-02
88496,6.39E-03,2.16E-02
88497,6.39E-03,2.18E-02
88498,6.39E-03,2.19E-02
88499,6.39E-03,2.20E-02
88500,6.39E-03,2.22E-02
88501,6.39E-03,2.23E-02
88502,6.39E-03,2.24E-02
88503,6.39E-03,2.26E-02
88504,6.39E-03,2.27E-02
88505,6.39E-03,2.29E-02
88506,6.39E-03,2.30E-02
88507,6.39E-03,2.32E-02
88508,6.39E-03,2.33E-02
88509,6.39E-03,2.35E-02
88510,6.39E-03,2.36E-02
88511,6.39E-03,2.38E-02
88512,6.39E-03,2.39E-02
88513,6.39E-03,2.41E-02
88514,6.39E-03,2.43E-02
88515,6.39E-03,2.44E-02
88516,6.39E-03,2.46E-02
88517,6.39E-03,2.48E-02
88518,6.39E-03,2.49E-02
88519,6.39E-03,2.51E-02
88520,6.39E-03,2.53E-02
88521,6.39E-03,2.54E-02
88522,6.39E-03,1.50E-02
88523,6.39E-03,1.50E-02
88524,6.39E-03,1.50E-02
88525,6.39E-03,1.50E-02
88526,6.39E-03,1.51E-02
88527,6.39E-03,1.51E-02
88528,6.39E-03,1.51E-02
88529,6.39E-03,1.52E-02
88530,6.39E-03,1.52E-02
88531,6.39E-03,1.52E-02
88532,6.39E-03,1.52E-02
88533,6.39E-03,1.53E-02
88534,6.39E-03,1.53E-02
88535,6.39E-03,1.53E-02
88536,6.39E-03,1.53E-02
88537,6.39E-03,1.54E-02
88538,6.39E-03,1.54E-02
88539,6.39E-03,1.54E-02
88540,6.39E-03,1.55E-02
88541,6.39E-03,1.55E-02
88542,6.39E-03,1.55E-02
88543,6.39E-03,1.56E-02
88544,6.39E-03,1.56E-02
88545,6.39E-03,1.56E-02
88546,6.39E-03,1.57E-02
88547,6.39E-03,1.57E-02
88548,6.39E-03,1.57E-02
88549,6.39E-03,1.58E-02
88550,6.39E-03,1.58E-02
88551,6.39E-03,1.58E-02
88552,6.39E-03,1.59E-02
88553,6.39E-03,1.59E-02
88554,6.39E-03,1.60E-02
88555,6.39E-03,1.60E-02
88556,6.39E-03,1.60E-02
88557,6.39E-03,1.61E-02
88558,6.39E-03,1.61E-02
88559,6.39E-03,1.62E-02
88560,6.39E-03,1.62E-02
88561,6.39E-03,1.63E-02
88562,6.39E-03,1.63E-02
88563,6.39E-03,1.64E-02
88564,6.39E-03,1.64E-02
88565,6.39E-03,1.65E-02
88566,6.39E-03,1.65E-02
88567,6.39E-03,1.65E-02
88568,6.39E-03,1.66E-02
88569,6.39E-03,1.66E-02
88570,6.39E-03,1.67E-02
88571,6.39E-03,1.68E-02
88572,6.39E-03,1.68E-02
88573,6.39E-03,1.69E-02
88574,6.39E-03,1.69E-02
88575,6.39E-03,1.70E-02
88576,6.39E-03,1.70E-02
88577,6.39E-03,1.71E-02
88578,6.39E-03,1.71E-02
88579,6.39E-03,1.72E-02
88580,6.39E-03,1.72E-02
88581,6.39E-03,1.73E-02
88582,6.39E-03,1.74E-02
88583,6.39E-03,1.74E-02
88584,6.39E-03,1.75E-02
88585,6.39E-03,1.76E-02
88586,6.39E-03,1.76E-02
88587,6.39E-03,1.77E-02
88588,6.39E-03,1.77E-02
88589,6.39E-03,1.78E-02
88590,6.39E-03,1.79E-02
88591,6.39E-03,1.79E-02
88592,6.39E-03,1.80E-02
88593,6.39E-03,1.81E-02
88594,6.39E-03,1.82E-02
88595,6.39E-03,1.82E-02
88596,6.39E-03,1.83E-02
88597,6.39E-03,1.84E-02
88598,6.39E-03,1.85E-02
88599,6.39E-03,1.85E-02
88600,6.39E-03,1.86E-02
88601,6.39E-03,1.87E-02
88602,6.39E-03,1.88E-02
88603,6.39E-03,1.88E-02
88604,6.39E-03,1.89E-02
88605,6.39E-03,1.90E-02
88606,6.39E-03,1.91E-02
88607,6.39E-03,1.91E-02
88608,6.39E-03,1.92E-02
88609,6.39E-03,1.93E-02
88610,6.39E-03,1.94E-02
88611,6.39E-03,1.95E-02
88612,6.39E-03,1.96E-02
88613,6.39E-03,1.96E-02
88614,6.39E-03,1.97E-02
88615,6.39E-03,1.98E-02
88616,6.39E-03,1.99E-02
88617,6.39E-03,2.00E-02
88618,6.39E-03,2.01E-02
88619,6.39E-03,2.02E-02
88620,6.39E-03,2.03E-02
88621,6.39E-03,2.04E-02
88622,6.39E-03,2.05E-02
88623,6.39E-03,2.06E-02
88624,6.39E-03,2.07E-02
88625,6.39E-03,2.08E-02
88626,6.39E-03,2.09E-02
88627,6.39E-03,2.10E-02
88628,6.39E-03,2.11E-02
88629,6.39E-03,2.12E-02
88630,6.39E-03,2.14E-02
88631,6.39E-03,2.15E-02
88632,6.39E-03,2.16E-02
88633,6.39E-03,2.18E-02
88634,6.39E-03,2.19E-02
88635,6.39E-03,2.20E-02
88636,6.39E-03,2.22E-02
88637,6.39E-03,2.23E-02
88638,6.39E-03,2.25E-02
88639,6.39E-03,2.26E-02
88640,6.39E-03,2.27E-02
88641,6.39E-03,2.29E-02
88642,6.39E-03,2.30E-02
88643,6.39E-03,2.32E-02
88644,6.39E-03,2.34E-02
88645,6.39E-03,2.35E-02
88646,6.39E-03,2.37E-02
88647,6.39E-03,2.38E-02
88648,6.39E-03,2.40E-02
88649,6.39E-03,2.41E-02
88650,6.39E-03,2.43E-02
88651,6.39E-03,2.45E-02
88652,6.39E-03,2.46E-02
88653,6.39E-03,2.48E-02
88654,6.39E-03,2.50E-02
88655,6.39E-03,2.51E-02
88656,6.39E-03,2.53E-02
88657,6.39E-03,2.55E-02
88658,6.39E-03,1.48E-02
88659,6.39E-03,1.49E-02
88660,6.39E-03,1.49E-02
88661,6.39E-03,1.49E-02
88662,6.39E-03,1.49E-02
88663,6.39E-03,1.50E-02
88664,6.39E-03,1.50E-02
88665,6.39E-03,1.50E-02
88666,6.39E-03,1.50E-02
88667,6.39E-03,1.51E-02
88668,6.39E-03,1.51E-02
88669,6.39E-03,1.51E-02
88670,6.39E-03,1.52E-02
88671,6.39E-03,1.52E-02
88672,6.39E-03,1.52E-02
88673,6.39E-03,1.52E-02
88674,6.39E-03,1.53E-02
88675,6.39E-03,1.53E-02
88676,6.39E-03,1.53E-02
88677,6.39E-03,1.54E-02
88678,6.39E-03,1.54E-02
88679,6.39E-03,1.54E-02
88680,6.39E-03,1.55E-02
88681,6.39E-03,1.55E-02
88682,6.39E-03,1.55E-02
88683,6.39E-03,1.56E-02
88684,6.39E-03,1.56E-02
88685,6.39E-03,1.57E-02
88686,6.39E-03,1.57E-02
88687,6.39E-03,1.57E-02
88688,6.39E-03,1.58E-02
88689,6.39E-03,1.58E-02
88690,6.39E-03,1.59E-02
88691,6.39E-03,1.59E-02
88692,6.39E-03,1.59E-02
88693,6.39E-03,1.60E-02
88694,6.39E-03,1.60E-02
88695,6.39E-03,1.61E-02
88696,6.39E-03,1.61E-02
88697,6.39E-03,1.62E-02
88698,6.39E-03,1.62E-02
88699,6.39E-03,1.63E-02
88700,6.39E-03,1.63E-02
88701,6.39E-03,1.64E-02
88702,6.39E-03,1.64E-02
88703,6.39E-03,1.65E-02
88704,6.39E-03,1.65E-02
88705,6.39E-03,1.66E-02
88706,6.39E-03,1.66E-02
88707,6.39E-03,1.67E-02
88708,6.39E-03,1.67E-02
88709,6.39E-03,1.68E-02
88710,6.39E-03,1.68E-02
88711,6.39E-03,1.69E-02
88712,6.39E-03,1.69E-02
88713,6.39E-03,1.70E-02
88714,6.39E-03,1.71E-02
88715,6.39E-03,1.71E-02
88716,6.39E-03,1.72E-02
88717,6.39E-03,1.72E-02
88718,6.39E-03,1.73E-02
88719,6.39E-03,1.74E-02
88720,6.39E-03,1.74E-02
88721,6.39E-03,1.75E-02
88722,6.39E-03,1.76E-02
88723,6.39E-03,1.76E-02
88724,6.39E-03,1.77E-02
88725,6.39E-03,1.78E-02
88726,6.39E-03,1.78E-02
88727,6.39E-03,1.79E-02
88728,6.39E-03,1.80E-02
88729,6.39E-03,1.80E-02
88730,6.39E-03,1.81E-02
88731,6.39E-03,1.82E-02
88732,6.39E-03,1.83E-02
88733,6.39E-03,1.83E-02
88734,6.39E-03,1.84E-02
88735,6.39E-03,1.85E-02
88736,6.39E-03,1.86E-02
88737,6.39E-03,1.86E-02
88738,6.39E-03,1.87E-02
88739,6.39E-03,1.88E-02
88740,6.39E-03,1.89E-02
88741,6.39E-03,1.90E-02
88742,6.39E-03,1.90E-02
88743,6.39E-03,1.91E-02
88744,6.39E-03,1.92E-02
88745,6.39E-03,1.93E-02
88746,6.39E-03,1.94E-02
88747,6.39E-03,1.95E-02
88748,6.39E-03,1.95E-02
88749,6.39E-03,1.96E-02
88750,6.39E-03,1.97E-02
88751,6.39E-03,1.98E-02
88752,6.39E-03,1.99E-02
88753,6.39E-03,2.00E-02
88754,6.39E-03,2.01E-02
88755,6.39E-03,2.02E-02
88756,6.39E-03,2.03E-02
88757,6.39E-03,2.04E-02
88758,6.39E-03,2.05E-02
88759,6.39E-03,2.06E-02
88760,6.39E-03,2.07E-02
88761,6.39E-03,2.08E-02
88762,6.39E-03,2.09E-02
88763,6.39E-03,2.10E-02
88764,6.39E-03,2.11E-02
88765,6.39E-03,2.12E-02
88766,6.39E-03,2.14E-02
88767,6.39E-03,2.15E-02
88768,6.39E-03,2.16E-02
88769,6.39E-03,2.18E-02
88770,6.39E-03,2.19E-02
88771,6.39E-03,2.20E-02
88772,6.39E-03,2.22E-02
88773,6.39E-03,2.23E-02
88774,6.39E-03,2.25E-02
88775,6.39E-03,2.26E-02
88776,6.39E-03,2.28E-02
88777,6.39E-03,2.29E-02
88778,6.39E-03,2.31E-02
88779,6.39E-03,2.32E-02
88780,6.39E-03,2.34E-02
88781,6.39E-03,2.35E-02
88782,6.39E-03,2.37E-02
88783,6.39E-03,2.38E-02
88784,6.39E-03,2.40E-02
88785,6.39E-03,2.42E-02
88786,6.39E-03,2.43E-02
88787,6.39E-03,2.45E-02
88788,6.39E-03,2.47E-02
88789,6.39E-03,2.48E-02
88790,6.39E-03,2.50E-02
88791,6.39E-03,2.52E-02
88792,6.39E-03,2.53E-02
88793,6.39E-03,2.55E-02
88794,6.39E-03,1.47E-02
88795,6.39E-03,1.47E-02
88796,6.39E-03,1.47E-02
88797,6.39E-03,1.48E-02
88798,6.39E-03,1.48E-02
88799,6.39E-03,1.48E-02
88800,6.39E-03,1.49E-02
88801,6.39E-03,1.49E-02
88802,6.39E-03,1.49E-02
88803,6.39E-03,1.49E-02
88804,6.39E-03,1.50E-02
88805,6.39E-03,1.50E-02
88806,6.39E-03,1.50E-02
88807,6.39E-03,1.51E-02
88808,6.39E-03,1.51E-02
88809,6.39E-03,1.51E-02
88810,6.39E-03,1.52E-02
88811,6.39E-03,1.52E-02
88812,6.39E-03,1.52E-02
88813,6.39E-03,1.53E-02
88814,6.39E-03,1.53E-02
88815,6.39E-03,1.53E-02
88816,6.39E-03,1.54E-02
88817,6.39E-03,1.54E-02
88818,6.39E-03,1.54E-02
88819,6.39E-03,1.55E-02
88820,6.39E-03,1.55E-02
88821,6.39E-03,1.55E-02
88822,6.39E-03,1.56E-02
88823,6.39E-03,1.56E-02
88824,6.39E-03,1.57E-02
88825,6.39E-03,1.57E-02
88826,6.39E-03,1.58E-02
88827,6.39E-03,1.58E-02
88828,6.39E-03,1.58E-02
88829,6.39E-03,1.59E-02
88830,6.39E-03,1.59E-02
88831,6.39E-03,1.60E-02
88832,6.39E-03,1.60E-02
88833,6.39E-03,1.61E-02
88834,6.39E-03,1.61E-02
88835,6.39E-03,1.62E-02
88836,6.39E-03,1.62E-02
88837,6.39E-03,1.63E-02
88838,6.39E-03,1.63E-02
88839,6.39E-03,1.64E-02
88840,6.39E-03,1.64E-02
88841,6.39E-03,1.65E-02
88842,6.39E-03,1.65E-02
88843,6.39E-03,1.66E-02
88844,6.39E-03,1.66E-02
88845,6.39E-03,1.67E-02
88846,6.39E-03,1.68E-02
88847,6.39E-03,1.68E-02
88848,6.39E-03,1.69E-02
88849,6.39E-03,1.69E-02
88850,6.39E-03,1.70E-02
88851,6.39E-03,1.70E-02
88852,6.39E-03,1.71E-02
88853,6.39E-03,1.72E-02
88854,6.39E-03,1.72E-02
88855,6.39E-03,1.73E-02
88856,6.39E-03,1.74E-02
88857,6.39E-03,1.74E-02
88858,6.39E-03,1.75E-02
88859,6.39E-03,1.76E-02
88860,6.39E-03,1.76E-02
88861,6.39E-03,1.77E-02
88862,6.39E-03,1.78E-02
88863,6.39E-03,1.78E-02
88864,6.39E-03,1.79E-02
88865,6.39E-03,1.80E-02
88866,6.39E-03,1.81E-02
88867,6.39E-03,1.81E-02
88868,6.39E-03,1.82E-02
88869,6.39E-03,1.83E-02
88870,6.39E-03,1.84E-02
88871,6.39E-03,1.84E-02
88872,6.39E-03,1.85E-02
88873,6.39E-03,1.86E-02
88874,6.39E-03,1.87E-02
88875,6.39E-03,1.88E-02
88876,6.39E-03,1.88E-02
88877,6.39E-03,1.89E-02
88878,6.39E-03,1.90E-02
88879,6.39E-03,1.91E-02
88880,6.39E-03,1.92E-02
88881,6.39E-03,1.93E-02
88882,6.39E-03,1.93E-02
88883,6.39E-03,1.94E-02
88884,6.39E-03,1.95E-02
88885,6.39E-03,1.96E-02
88886,6.39E-03,1.97E-02
88887,6.39E-03,1.98E-02
88888,6.39E-03,1.99E-02
88889,6.39E-03,2.00E-02
88890,6.39E-03,2.00E-02
88891,6.39E-03,2.01E-02
88892,6.39E-03,2.02E-02
88893,6.39E-03,2.03E-02
88894,6.39E-03,2.04E-02
88895,6.39E-03,2.05E-02
88896,6.39E-03,2.07E-02
88897,6.39E-03,2.08E-02
88898,6.39E-03,2.09E-02
88899,6.39E-03,2.10E-02
88900,6.39E-03,2.11E-02
88901,6.39E-03,2.12E-02
88902,6.39E-03,2.14E-02
88903,6.39E-03,2.15E-02
88904,6.39E-03,2.16E-02
88905,6.39E-03,2.18E-02
88906,6.39E-03,2.19E-02
88907,6.39E-03,2.20E-02
88908,6.39E-03,2.22E-02
88909,6.39E-03,2.23E-02
88910,6.39E-03,2.25E-02
88911,6.39E-03,2.26E-02
88912,6.39E-03,2.28E-02
88913,6.39E-03,2.29E-02
88914,6.39E-03,2.31E-02
88915,6.39E-03,2.32E-02
88916,6.39E-03,2.34E-02
88917,6.39E-03,2.36E-02
88918,6.39E-03,2.37E-02
88919,6.39E-03,2.39E-02
88920,6.39E-03,2.40E-02
88921,6.39E-03,2.42E-02
88922,6.39E-03,2.44E-02
88923,6.39E-03,2.45E-02
88924,6.39E-03,2.47E-02
88925,6.39E-03,2.49E-02
88926,6.39E-03,2.50E-02
88927,6.39E-03,2.52E-02
88928,6.39E-03,2.54E-02
88929,6.39E-03,2.56E-02
88930,6.39E-03,1.46E-02
88931,6.39E-03,1.46E-02
88932,6.39E-03,1.46E-02
88933,6.39E-03,1.46E-02
88934,6.39E-03,1.47E-02
88935,6.39E-03,1.47E-02
88936,6.39E-03,1.47E-02
88937,6.39E-03,1.47E-02
88938,6.39E-03,1.48E-02
88939,6.39E-03,1.48E-02
88940,6.39E-03,1.48E-02
88941,6.39E-03,1.49E-02
88942,6.39E-03,1.49E-02
88943,6.39E-03,1.49E-02
88944,6.39E-03,1.50E-02
88945,6.39E-03,1.50E-02
88946,6.39E-03,1.50E-02
88947,6.39E-03,1.51E-02
88948,6.39E-03,1.51E-02
88949,6.39E-03,1.51E-02
88950,6.39E-03,1.52E-02
88951,6.39E-03,1.52E-02
88952,6.39E-03,1.52E-02
88953,6.39E-03,1.53E-02
88954,6.39E-03,1.53E-02
88955,6.39E-03,1.54E-02
88956,6.39E-03,1.54E-02
88957,6.39E-03,1.54E-02
88958,6.39E-03,1.55E-02
88959,6.39E-03,1.55E-02
88960,6.39E-03,1.56E-02
88961,6.39E-03,1.56E-02
88962,6.39E-03,1.56E-02
88963,6.39E-03,1.57E-02
88964,6.39E-03,1.57E-02
88965,6.39E-03,1.58E-02
88966,6.39E-03,1.58E-02
88967,6.39E-03,1.59E-02
88968,6.39E-03,1.59E-02
88969,6.39E-03,1.60E-02
88970,6.39E-03,1.60E-02
88971,6.39E-03,1.61E-02
88972,6.39E-03,1.61E-02
88973,6.39E-03,1.62E-02
88974,6.39E-03,1.62E-02
88975,6.39E-03,1.63E-02
88976,6.39E-03,1.63E-02
88977,6.39E-03,1.64E-02
88978,6.39E-03,1.65E-02
88979,6.39E-03,1.65E-02
88980,6.39E-03,1.66E-02
88981,6.39E-03,1.66E-02
88982,6.39E-03,1.67E-02
88983,6.39E-03,1.67E-02
88984,6.39E-03,1.68E-02
88985,6.39E-03,1.69E-02
88986,6.39E-03,1.69E-02
88987,6.39E-03,1.70E-02
88988,6.39E-03,1.70E-02
88989,6.39E-03,1.71E-02
88990,6.39E-03,1.72E-02
88991,6.39E-03,1.72E-02
88992,6.39E-03,1.73E-02
88993,6.39E-03,1.74E-02
88994,6.39E-03,1.74E-02
88995,6.39E-03,1.75E-02
88996,6.39E-03,1.76E-02
88997,6.39E-03,1.76E-02
88998,6.39E-03,1.77E-02
88999,6.39E-03,1.78E-02
89000,6.39E-03,1.79E-02
89001,6.39E-03,1.79E-02
89002,6.39E-03,1.80E-02
89003,6.39E-03,1.81E-02
89004,6.39E-03,1.82E-02
89005,6.39E-03,1.82E-02
89006,6.39E-03,1.83E-02
89007,6.39E-03,1.84E-02
89008,6.39E-03,1.85E-02
89009,6.39E-03,1.86E-02
89010,6.39E-03,1.86E-02
89011,6.39E-03,1.87E-02
89012,6.39E-03,1.88E-02
89013,6.39E-03,1.89E-02
89014,6.39E-03,1.90E-02
89015,6.39E-03,1.91E-02
89016,6.39E-03,1.91E-02
89017,6.39E-03,1.92E-02
89018,6.39E-03,1.93E-02
89019,6.39E-03,1.94E-02
89020,6.39E-03,1.95E-02
89021,6.39E-03,1.96E-02
89022,6.39E-03,1.97E-02
89023,6.39E-03,1.98E-02
89024,6.39E-03,1.98E-02
89025,6.39E-03,1.99E-02
89026,6.39E-03,2.00E-02
89027,6.39E-03,2.01E-02
89028,6.39E-03,2.02E-02
89029,6.39E-03,2.03E-02
89030,6.39E-03,2.04E-02
89031,6.39E-03,2.05E-02
89032,6.39E-03,2.06E-02
89033,6.39E-03,2.08E-02
89034,6.39E-03,2.09E-02
89035,6.39E-03,2.10E-02
89036,6.39E-03,2.11E-02
89037,6.39E-03,2.12E-02
89038,6.39E-03,2.14E-02
89039,6.39E-03,2.15E-02
89040,6.39E-03,2.16E-02
89041,6.39E-03,2.18E-02
89042,6.39E-03,2.19E-02
89043,6.39E-03,2.21E-02
89044,6.39E-03,2.22E-02
89045,6.39E-03,2.23E-02
89046,6.39E-03,2.25E-02
89047,6.39E-03,2.26E-02
89048,6.39E-03,2.28E-02
89049,6.39E-03,2.29E-02
89050,6.39E-03,2.31E-02
89051,6.39E-03,2.33E-02
89052,6.39E-03,2.34E-02
89053,6.39E-03,2.36E-02
89054,6.39E-03,2.37E-02
89055,6.39E-03,2.39E-02
89056,6.39E-03,2.41E-02
89057,6.39E-03,2.42E-02
89058,6.39E-03,2.44E-02
89059,6.39E-03,2.46E-02
89060,6.39E-03,2.47E-02
89061,6.39E-03,2.49E-02
89062,6.39E-03,2.51E-02
89063,6.39E-03,2.52E-02
89064,6.39E-03,2.54E-02
89065,6.39E-03,2.56E-02
89066,6.39E-03,1.44E-02
89067,6.39E-03,1.44E-02
89068,6.39E-03,1.45E-02
89069,6.39E-03,1.45E-02
89070,6.39E-03,1.45E-02
89071,6.39E-03,1.45E-02
89072,6.39E-03,1.46E-02
89073,6.39E-03,1.46E-02
89074,6.39E-03,1.46E-02
89075,6.39E-03,1.47E-02
89076,6.39E-03,1.47E-02
89077,6.39E-03,1.47E-02
89078,6.39E-03,1.48E-02
89079,6.39E-03,1.48E-02
89080,6.39E-03,1.48E-02
89081,6.39E-03,1.49E-02
89082,6.39E-03,1.49E-02
89083,6.39E-03,1.49E-02
89084,6.39E-03,1.50E-02
89085,6.39E-03,1.50E-02
89086,6.39E-03,1.50E-02
89087,6.39E-03,1.51E-02
89088,6.39E-03,1.51E-02
89089,6.39E-03,1.52E-02
89090,6.39E-03,1.52E-02
89091,6.39E-03,1.52E-02
89092,6.39E-03,1.53E-02
89093,6.39E-03,1.53E-02
89094,6.39E-03,1.54E-02
89095,6.39E-03,1.54E-02
89096,6.39E-03,1.54E-02
89097,6.39E-03,1.55E-02
89098,6.39E-03,1.55E-02
89099,6.39E-03,1.56E-02
89100,6.39E-03,1.56E-02
89101,6.39E-03,1.57E-02
89102,6.39E-03,1.57E-02
89103,6.39E-03,1.58E-02
89104,6.39E-03,1.58E-02
89105,6.39E-03,1.59E-02
89106,6.39E-03,1.59E-02
89107,6.39E-03,1.60E-02
89108,6.39E-03,1.60E-02
89109,6.39E-03,1.61E-02
89110,6.39E-03,1.61E-02
89111,6.39E-03,1.62E-02
89112,6.39E-03,1.63E-02
89113,6.39E-03,1.63E-02
89114,6.39E-03,1.64E-02
89115,6.39E-03,1.64E-02
89116,6.39E-03,1.65E-02
89117,6.39E-03,1.65E-02
89118,6.39E-03,1.66E-02
89119,6.39E-03,1.67E-02
89120,6.39E-03,1.67E-02
89121,6.39E-03,1.68E-02
89122,6.39E-03,1.68E-02
89123,6.39E-03,1.69E-02
89124,6.39E-03,1.70E-02
89125,6.39E-03,1.70E-02
89126,6.39E-03,1.71E-02
89127,6.39E-03,1.71E-02
89128,6.39E-03,1.72E-02
89129,6.39E-03,1.73E-02
89130,6.39E-03,1.73E-02
89131,6.39E-03,1.74E-02
89132,6.39E-03,1.75E-02
89133,6.39E-03,1.76E-02
89134,6.39E-03,1.76E-02
89135,6.39E-03,1.77E-02
89136,6.39E-03,1.78E-02
89137,6.39E-03,1.79E-02
89138,6.39E-03,1.79E-02
89139,6.39E-03,1.80E-02
89140,6.39E-03,1.81E-02
89141,6.39E-03,1.82E-02
89142,6.39E-03,1.83E-02
89143,6.39E-03,1.84E-02
89144,6.39E-03,1.84E-02
89145,6.39E-03,1.85E-02
89146,6.39E-03,1.86E-02
89147,6.39E-03,1.87E-02
89148,6.39E-03,1.88E-02
89149,6.39E-03,1.89E-02
89150,6.39E-03,1.89E-02
89151,6.39E-03,1.90E-02
89152,6.39E-03,1.91E-02
89153,6.39E-03,1.92E-02
89154,6.39E-03,1.93E-02
89155,6.39E-03,1.94E-02
89156,6.39E-03,1.95E-02
89157,6.39E-03,1.95E-02
89158,6.39E-03,1.96E-02
89159,6.39E-03,1.97E-02
89160,6.39E-03,1.98E-02
89161,6.39E-03,1.99E-02
89162,6.39E-03,2.00E-02
89163,6.39E-03,2.01E-02
89164,6.39E-03,2.02E-02
89165,6.39E-03,2.03E-02
89166,6.39E-03,2.04E-02
89167,6.39E-03,2.05E-02
89168,6.39E-03,2.06E-02
89169,6.39E-03,2.07E-02
89170,6.39E-03,2.09E-02
89171,6.39E-03,2.10E-02
89172,6.39E-03,2.11E-02
89173,6.39E-03,2.12E-02
89174,6.39E-03,2.14E-02
89175,6.39E-03,2.15E-02
89176,6.39E-03,2.16E-02
89177,6.39E-03,2.18E-02
89178,6.39E-03,2.19E-02
89179,6.39E-03,2.21E-02
89180,6.39E-03,2.22E-02
89181,6.39E-03,2.24E-02
89182,6.39E-03,2.25E-02
89183,6.39E-03,2.27E-02
89184,6.39E-03,2.28E-02
89185,6.39E-03,2.30E-02
89186,6.39E-03,2.31E-02
89187,6.39E-03,2.33E-02
89188,6.39E-03,2.34E-02
89189,6.39E-03,2.36E-02
89190,6.39E-03,2.38E-02
89191,6.39E-03,2.39E-02
89192,6.39E-03,2.41E-02
89193,6.39E-03,2.42E-02
89194,6.39E-03,2.44E-02
89195,6.39E-03,2.46E-02
89196,6.39E-03,2.47E-02
89197,6.39E-03,2.49E-02
89198,6.39E-03,2.51E-02
89199,6.39E-03,2.53E-02
89200,6.39E-03,2.54E-02
89201,6.39E-03,2.56E-02
89202,6.39E-03,1.43E-02
89203,6.39E-03,1.43E-02
89204,6.39E-03,1.43E-02
89205,6.39E-03,1.44E-02
89206,6.39E-03,1.44E-02
89207,6.39E-03,1.44E-02
89208,6.39E-03,1.44E-02
89209,6.39E-03,1.45E-02
89210,6.39E-03,1.45E-02
89211,6.39E-03,1.45E-02
89212,6.39E-03,1.46E-02
89213,6.39E-03,1.46E-02
89214,6.39E-03,1.46E-02
89215,6.39E-03,1.47E-02
89216,6.39E-03,1.47E-02
89217,6.39E-03,1.47E-02
89218,6.39E-03,1.48E-02
89219,6.39E-03,1.48E-02
89220,6.39E-03,1.48E-02
89221,6.39E-03,1.49E-02
89222,6.39E-03,1.49E-02
89223,6.39E-03,1.50E-02
89224,6.39E-03,1.50E-02
89225,6.39E-03,1.50E-02
89226,6.39E-03,1.51E-02
89227,6.39E-03,1.51E-02
89228,6.39E-03,1.52E-02
89229,6.39E-03,1.52E-02
89230,6.39E-03,1.52E-02
89231,6.39E-03,1.53E-02
89232,6.39E-03,1.53E-02
89233,6.39E-03,1.54E-02
89234,6.39E-03,1.54E-02
89235,6.39E-03,1.55E-02
89236,6.39E-03,1.55E-02
89237,6.39E-03,1.56E-02
89238,6.39E-03,1.56E-02
89239,6.39E-03,1.57E-02
89240,6.39E-03,1.57E-02
89241,6.39E-03,1.58E-02
89242,6.39E-03,1.58E-02
89243,6.39E-03,1.59E-02
89244,6.39E-03,1.59E-02
89245,6.39E-03,1.60E-02
89246,6.39E-03,1.60E-02
89247,6.39E-03,1.61E-02
89248,6.39E-03,1.62E-02
89249,6.39E-03,1.62E-02
89250,6.39E-03,1.63E-02
89251,6.39E-03,1.63E-02
89252,6.39E-03,1.64E-02
89253,6.39E-03,1.64E-02
89254,6.39E-03,1.65E-02
89255,6.39E-03,1.66E-02
89256,6.39E-03,1.66E-02
89257,6.39E-03,1.67E-02
89258,6.39E-03,1.67E-02
89259,6.39E-03,1.68E-02
89260,6.39E-03,1.69E-02
89261,6.39E-03,1.69E-02
89262,6.39E-03,1.70E-02
89263,6.39E-03,1.71E-02
89264,6.39E-03,1.71E-02
89265,6.39E-03,1.72E-02
89266,6.39E-03,1.73E-02
89267,6.39E-03,1.73E-02
89268,6.39E-03,1.74E-02
89269,6.39E-03,1.75E-02
89270,6.39E-03,1.76E-02
89271,6.39E-03,1.76E-02
89272,6.39E-03,1.77E-02
89273,6.39E-03,1.78E-02
89274,6.39E-03,1.79E-02
89275,6.39E-03,1.80E-02
89276,6.39E-03,1.80E-02
89277,6.39E-03,1.81E-02
89278,6.39E-03,1.82E-02
89279,6.39E-03,1.83E-02
89280,6.39E-03,1.84E-02
89281,6.39E-03,1.85E-02
89282,6.39E-03,1.86E-02
89283,6.39E-03,1.86E-02
89284,6.39E-03,1.87E-02
89285,6.39E-03,1.88E-02
89286,6.39E-03,1.89E-02
89287,6.39E-03,1.90E-02
89288,6.39E-03,1.91E-02
89289,6.39E-03,1.92E-02
89290,6.39E-03,1.93E-02
89291,6.39E-03,1.93E-02
89292,6.39E-03,1.94E-02
89293,6.39E-03,1.95E-02
89294,6.39E-03,1.96E-02
89295,6.39E-03,1.97E-02
89296,6.39E-03,1.98E-02
89297,6.39E-03,1.99E-02
89298,6.39E-03,2.00E-02
89299,6.39E-03,2.01E-02
89300,6.39E-03,2.02E-02
89301,6.39E-03,2.03E-02
89302,6.39E-03,2.04E-02
89303,6.39E-03,2.05E-02
89304,6.39E-03,2.06E-02
89305,6.39E-03,2.07E-02
89306,6.39E-03,2.08E-02
89307,6.39E-03,2.10E-02
89308,6.39E-03,2.11E-02
89309,6.39E-03,2.12E-02
89310,6.39E-03,2.14E-02
89311,6.39E-03,2.15E-02
89312,6.39E-03,2.16E-02
89313,6.39E-03,2.18E-02
89314,6.39E-03,2.19E-02
89315,6.39E-03,2.21E-02
89316,6.39E-03,2.22E-02
89317,6.39E-03,2.24E-02
89318,6.39E-03,2.25E-02
89319,6.39E-03,2.27E-02
89320,6.39E-03,2.28E-02
89321,6.39E-03,2.30E-02
89322,6.39E-03,2.31E-02
89323,6.39E-03,2.33E-02
89324,6.39E-03,2.35E-02
89325,6.39E-03,2.36E-02
89326,6.39E-03,2.38E-02
89327,6.39E-03,2.39E-02
89328,6.39E-03,2.41E-02
89329,6.39E-03,2.43E-02
89330,6.39E-03,2.44E-02
89331,6.39E-03,2.46E-02
89332,6.39E-03,2.48E-02
89333,6.39E-03,2.49E-02
89334,6.39E-03,2.51E-02
89335,6.39E-03,2.53E-02
89336,6.39E-03,2.55E-02
89337,6.39E-03,2.56E-02
89338,6.39E-03,1.41E-02
89339,6.39E-03,1.42E-02
89340,6.39E-03,1.42E-02
89341,6.39E-03,1.42E-02
89342,6.39E-03,1.42E-02
89343,6.39E-03,1.43E-02
89344,6.39E-03,1.43E-02
89345,6.39E-03,1.43E-02
89346,6.39E-03,1.44E-02
89347,6.39E-03,1.44E-02
89348,6.39E-03,1.44E-02
89349,6.39E-03,1.45E-02
89350,6.39E-03,1.45E-02
89351,6.39E-03,1.45E-02
89352,6.39E-03,1.46E-02
89353,6.39E-03,1.46E-02
89354,6.39E-03,1.46E-02
89355,6.39E-03,1.47E-02
89356,6.39E-03,1.47E-02
89357,6.39E-03,1.47E-02
89358,6.39E-03,1.48E-02
89359,6.39E-03,1.48E-02
89360,6.39E-03,1.49E-02
89361,6.39E-03,1.49E-02
89362,6.39E-03,1.49E-02
89363,6.39E-03,1.50E-02
89364,6.39E-03,1.50E-02
89365,6.39E-03,1.51E-02
89366,6.39E-03,1.51E-02
89367,6.39E-03,1.52E-02
89368,6.39E-03,1.52E-02
89369,6.39E-03,1.53E-02
89370,6.39E-03,1.53E-02
89371,6.39E-03,1.54E-02
89372,6.39E-03,1.54E-02
89373,6.39E-03,1.55E-02
89374,6.39E-03,1.55E-02
89375,6.39E-03,1.56E-02
89376,6.39E-03,1.56E-02
89377,6.39E-03,1.57E-02
89378,6.39E-03,1.57E-02
89379,6.39E-03,1.58E-02
89380,6.39E-03,1.58E-02
89381,6.39E-03,1.59E-02
89382,6.39E-03,1.59E-02
89383,6.39E-03,1.60E-02
89384,6.39E-03,1.61E-02
89385,6.39E-03,1.61E-02
89386,6.39E-03,1.62E-02
89387,6.39E-03,1.62E-02
89388,6.39E-03,1.63E-02
89389,6.39E-03,1.64E-02
89390,6.39E-03,1.64E-02
89391,6.39E-03,1.65E-02
89392,6.39E-03,1.65E-02
89393,6.39E-03,1.66E-02
89394,6.39E-03,1.67E-02
89395,6.39E-03,1.67E-02
89396,6.39E-03,1.68E-02
89397,6.39E-03,1.68E-02
89398,6.39E-03,1.69E-02
89399,6.39E-03,1.70E-02
89400,6.39E-03,1.70E-02
89401,6.39E-03,1.71E-02
89402,6.39E-03,1.72E-02
89403,6.39E-03,1.73E-02
89404,6.39E-03,1.73E-02
89405,6.39E-03,1.74E-02
89406,6.39E-03,1.75E-02
89407,6.39E-03,1.76E-02
89408,6.39E-03,1.76E-02
89409,6.39E-03,1.77E-02
89410,6.39E-03,1.78E-02
89411,6.39E-03,1.79E-02
89412,6.39E-03,1.80E-02
89413,6.39E-03,1.81E-02
89414,6.39E-03,1.82E-02
89415,6.39E-03,1.82E-02
89416,6.39E-03,1.83E-02
89417,6.39E-03,1.84E-02
89418,6.39E-03,1.85E-02
89419,6.39E-03,1.86E-02
89420,6.39E-03,1.87E-02
89421,6.39E-03,1.88E-02
89422,6.39E-03,1.89E-02
89423,6.39E-03,1.90E-02
89424,6.39E-03,1.90E-02
89425,6.39E-03,1.91E-02
89426,6.39E-03,1.92E-02
89427,6.39E-03,1.93E-02
89428,6.39E-03,1.94E-02
89429,6.39E-03,1.95E-02
89430,6.39E-03,1.96E-02
89431,6.39E-03,1.97E-02
89432,6.39E-03,1.98E-02
89433,6.39E-03,1.99E-02
89434,6.39E-03,2.00E-02
89435,6.39E-03,2.01E-02
89436,6.39E-03,2.02E-02
89437,6.39E-03,2.03E-02
89438,6.39E-03,2.04E-02
89439,6.39E-03,2.05E-02
89440,6.39E-03,2.06E-02
89441,6.39E-03,2.07E-02
89442,6.39E-03,2.08E-02
89443,6.39E-03,2.10E-02
89444,6.39E-03,2.11E-02
89445,6.39E-03,2.12E-02
89446,6.39E-03,2.14E-02
89447,6.39E-03,2.15E-02
89448,6.39E-03,2.16E-02
89449,6.39E-03,2.18E-02
89450,6.39E-03,2.19E-02
89451,6.39E-03,2.21E-02
89452,6.39E-03,2.22E-02
89453,6.39E-03,2.24E-02
89454,6.39E-03,2.25E-02
89455,6.39E-03,2.27E-02
89456,6.39E-03,2.28E-02
89457,6.39E-03,2.30E-02
89458,6.39E-03,2.32E-02
89459,6.39E-03,2.33E-02
89460,6.39E-03,2.35E-02
89461,6.39E-03,2.36E-02
89462,6.39E-03,2.38E-02
89463,6.39E-03,2.40E-02
89464,6.39E-03,2.41E-02
89465,6.39E-03,2.43E-02
89466,6.39E-03,2.44E-02
89467,6.39E-03,2.46E-02
89468,6.39E-03,2.48E-02
89469,6.39E-03,2.49E-02
89470,6.39E-03,2.51E-02
89471,6.39E-03,2.53E-02
89472,6.39E-03,2.55E-02
89473,6.39E-03,2.56E-02
89474,6.39E-03,1.40E-02
89475,6.39E-03,1.40E-02
89476,6.39E-03,1.40E-02
89477,6.39E-03,1.41E-02
89478,6.39E-03,1.41E-02
89479,6.39E-03,1.41E-02
89480,6.39E-03,1.42E-02
89481,6.39E-03,1.42E-02
89482,6.39E-03,1.42E-02
89483,6.39E-03,1.43E-02
89484,6.39E-03,1.43E-02
89485,6.39E-03,1.43E-02
89486,6.39E-03,1.44E-02
89487,6.39E-03,1.44E-02
89488,6.39E-03,1.44E-02
89489,6.39E-03,1.45E-02
89490,6.39E-03,1.45E-02
89491,6.39E-03,1.45E-02
89492,6.39E-03,1.46E-02
89493,6.39E-03,1.46E-02
89494,6.39E-03,1.47E-02
89495,6.39E-03,1.47E-02
89496,6.39E-03,1.47E-02
89497,6.39E-03,1.48E-02
89498,6.39E-03,1.48E-02
89499,6.39E-03,1.49E-02
89500,6.39E-03,1.49E-02
89501,6.39E-03,1.49E-02
89502,6.39E-03,1.50E-02
89503,6.39E-03,1.50E-02
89504,6.39E-03,1.51E-02
89505,6.39E-03,1.51E-02
89506,6.39E-03,1.52E-02
89507,6.39E-03,1.52E-02
89508,6.39E-03,1.53E-02
89509,6.39E-03,1.53E-02
89510,6.39E-03,1.54E-02
89511,6.39E-03,1.54E-02
89512,6.39E-03,1.55E-02
89513,6.39E-03,1.56E-02
89514,6.39E-03,1.56E-02
89515,6.39E-03,1.57E-02
89516,6.39E-03,1.57E-02
89517,6.39E-03,1.58E-02
89518,6.39E-03,1.58E-02
89519,6.39E-03,1.59E-02
89520,6.39E-03,1.60E-02
89521,6.39E-03,1.60E-02
89522,6.39E-03,1.61E-02
89523,6.39E-03,1.61E-02
89524,6.39E-03,1.62E-02
89525,6.39E-03,1.63E-02
89526,6.39E-03,1.63E-02
89527,6.39E-03,1.64E-02
89528,6.39E-03,1.64E-02
89529,6.39E-03,1.65E-02
89530,6.39E-03,1.66E-02
89531,6.39E-03,1.66E-02
89532,6.39E-03,1.67E-02
89533,6.39E-03,1.68E-02
89534,6.39E-03,1.68E-02
89535,6.39E-03,1.69E-02
89536,6.39E-03,1.70E-02
89537,6.39E-03,1.70E-02
89538,6.39E-03,1.71E-02
89539,6.39E-03,1.72E-02
89540,6.39E-03,1.73E-02
89541,6.39E-03,1.73E-02
89542,6.39E-03,1.74E-02
89543,6.39E-03,1.75E-02
89544,6.39E-03,1.76E-02
89545,6.39E-03,1.77E-02
89546,6.39E-03,1.77E-02
89547,6.39E-03,1.78E-02
89548,6.39E-03,1.79E-02
89549,6.39E-03,1.80E-02
89550,6.39E-03,1.81E-02
89551,6.39E-03,1.82E-02
89552,6.39E-03,1.83E-02
89553,6.39E-03,1.84E-02
89554,6.39E-03,1.85E-02
89555,6.39E-03,1.86E-02
89556,6.39E-03,1.86E-02
89557,6.39E-03,1.87E-02
89558,6.39E-03,1.88E-02
89559,6.39E-03,1.89E-02
89560,6.39E-03,1.90E-02
89561,6.39E-03,1.91E-02
89562,6.39E-03,1.92E-02
89563,6.39E-03,1.93E-02
89564,6.39E-03,1.94E-02
89565,6.39E-03,1.95E-02
89566,6.39E-03,1.96E-02
89567,6.39E-03,1.97E-02
89568,6.39E-03,1.97E-02
89569,6.39E-03,1.98E-02
89570,6.39E-03,1.99E-02
89571,6.39E-03,2.00E-02
89572,6.39E-03,2.01E-02
89573,6.39E-03,2.02E-02
89574,6.39E-03,2.04E-02
89575,6.39E-03,2.05E-02
89576,6.39E-03,2.06E-02
89577,6.39E-03,2.07E-02
89578,6.39E-03,2.08E-02
89579,6.39E-03,2.10E-02
89580,6.39E-03,2.11E-02
89581,6.39E-03,2.12E-02
89582,6.39E-03,2.14E-02
89583,6.39E-03,2.15E-02
89584,6.39E-03,2.16E-02
89585,6.39E-03,2.18E-02
89586,6.39E-03,2.19E-02
89587,6.39E-03,2.21E-02
89588,6.39E-03,2.22E-02
89589,6.39E-03,2.24E-02
89590,6.39E-03,2.25E-02
89591,6.39E-03,2.27E-02
89592,6.39E-03,2.29E-02
89593,6.39E-03,2.30E-02
89594,6.39E-03,2.32E-02
89595,6.39E-03,2.33E-02
89596,6.39E-03,2.35E-02
89597,6.39E-03,2.36E-02
89598,6.39E-03,2.38E-02
89599,6.39E-03,2.40E-02
89600,6.39E-03,2.41E-02
89601,6.39E-03,2.43E-02
89602,6.39E-03,2.45E-02
89603,6.39E-03,2.46E-02
89604,6.39E-03,2.48E-02
89605,6.39E-03,2.50E-02
89606,6.39E-03,2.51E-02
89607,6.39E-03,2.53E-02
89608,6.39E-03,2.55E-02
89609,6.39E-03,2.56E-02
89610,6.39E-03,1.38E-02
89611,6.39E-03,1.39E-02
89612,6.39E-03,1.39E-02
89613,6.39E-03,1.39E-02
89614,6.39E-03,1.40E-02
89615,6.39E-03,1.40E-02
89616,6.39E-03,1.40E-02
89617,6.39E-03,1.41E-02
89618,6.39E-03,1.41E-02
89619,6.39E-03,1.41E-02
89620,6.39E-03,1.42E-02
89621,6.39E-03,1.42E-02
89622,6.39E-03,1.42E-02
89623,6.39E-03,1.43E-02
89624,6.39E-03,1.43E-02
89625,6.39E-03,1.43E-02
89626,6.39E-03,1.44E-02
89627,6.39E-03,1.44E-02
89628,6.39E-03,1.44E-02
89629,6.39E-03,1.45E-02
89630,6.39E-03,1.45E-02
89631,6.39E-03,1.46E-02
89632,6.39E-03,1.46E-02
89633,6.39E-03,1.46E-02
89634,6.39E-03,1.47E-02
89635,6.39E-03,1.47E-02
89636,6.39E-03,1.48E-02
89637,6.39E-03,1.48E-02
89638,6.39E-03,1.49E-02
89639,6.39E-03,1.49E-02
89640,6.39E-03,1.50E-02
89641,6.39E-03,1.50E-02
89642,6.39E-03,1.51E-02
89643,6.39E-03,1.51E-02
89644,6.39E-03,1.52E-02
89645,6.39E-03,1.52E-02
89646,6.39E-03,1.53E-02
89647,6.39E-03,1.53E-02
89648,6.39E-03,1.54E-02
89649,6.39E-03,1.54E-02
89650,6.39E-03,1.55E-02
89651,6.39E-03,1.56E-02
89652,6.39E-03,1.56E-02
89653,6.39E-03,1.57E-02
89654,6.39E-03,1.57E-02
89655,6.39E-03,1.58E-02
89656,6.39E-03,1.59E-02
89657,6.39E-03,1.59E-02
89658,6.39E-03,1.60E-02
89659,6.39E-03,1.60E-02
89660,6.39E-03,1.61E-02
89661,6.39E-03,1.62E-02
89662,6.39E-03,1.62E-02
89663,6.39E-03,1.63E-02
89664,6.39E-03,1.63E-02
89665,6.39E-03,1.64E-02
89666,6.39E-03,1.65E-02
89667,6.39E-03,1.65E-02
89668,6.39E-03,1.66E-02
89669,6.39E-03,1.67E-02
89670,6.39E-03,1.67E-02
89671,6.39E-03,1.68E-02
89672,6.39E-03,1.69E-02
89673,6.39E-03,1.69E-02
89674,6.39E-03,1.70E-02
89675,6.39E-03,1.71E-02
89676,6.39E-03,1.72E-02
89677,6.39E-03,1.72E-02
89678,6.39E-03,1.73E-02
89679,6.39E-03,1.74E-02
89680,6.39E-03,1.75E-02
89681,6.39E-03,1.76E-02
89682,6.39E-03,1.77E-02
89683,6.39E-03,1.78E-02
89684,6.39E-03,1.78E-02
89685,6.39E-03,1.79E-02
89686,6.39E-03,1.80E-02
89687,6.39E-03,1.81E-02
89688,6.39E-03,1.82E-02
89689,6.39E-03,1.83E-02
89690,6.39E-03,1.84E-02
89691,6.39E-03,1.85E-02
89692,6.39E-03,1.86E-02
89693,6.39E-03,1.87E-02
89694,6.39E-03,1.88E-02
89695,6.39E-03,1.89E-02
89696,6.39E-03,1.90E-02
89697,6.39E-03,1.91E-02
89698,6.39E-03,1.92E-02
89699,6.39E-03,1.93E-02
89700,6.39E-03,1.93E-02
89701,6.39E-03,1.94E-02
89702,6.39E-03,1.95E-02
89703,6.39E-03,1.96E-02
89704,6.39E-03,1.97E-02
89705,6.39E-03,1.98E-02
89706,6.39E-03,1.99E-02
89707,6.39E-03,2.00E-02
89708,6.39E-03,2.01E-02
89709,6.39E-03,2.02E-02
89710,6.39E-03,2.03E-02
89711,6.39E-03,2.05E-02
89712,6.39E-03,2.06E-02
89713,6.39E-03,2.07E-02
89714,6.39E-03,2.08E-02
89715,6.39E-03,2.09E-02
89716,6.39E-03,2.11E-02
89717,6.39E-03,2.12E-02
89718,6.39E-03,2.14E-02
89719,6.39E-03,2.15E-02
89720,6.39E-03,2.16E-02
89721,6.39E-03,2.18E-02
89722,6.39E-03,2.19E-02
89723,6.39E-03,2.21E-02
89724,6.39E-03,2.22E-02
89725,6.39E-03,2.24E-02
89726,6.39E-03,2.26E-02
89727,6.39E-03,2.27E-02
89728,6.39E-03,2.29E-02
89729,6.39E-03,2.30E-02
89730,6.39E-03,2.32E-02
89731,6.39E-03,2.33E-02
89732,6.39E-03,2.35E-02
89733,6.39E-03,2.37E-02
89734,6.39E-03,2.38E-02
89735,6.39E-03,2.40E-02
89736,6.39E-03,2.41E-02
89737,6.39E-03,2.43E-02
89738,6.39E-03,2.45E-02
89739,6.39E-03,2.46E-02
89740,6.39E-03,2.48E-02
89741,6.39E-03,2.50E-02
89742,6.39E-03,2.51E-02
89743,6.39E-03,2.53E-02
89744,6.39E-03,2.55E-02
89745,6.39E-03,2.56E-02
89746,6.39E-03,1.37E-02
89747,6.39E-03,1.37E-02
89748,6.39E-03,1.38E-02
89749,6.39E-03,1.38E-02
89750,6.39E-03,1.38E-02
89751,6.39E-03,1.38E-02
89752,6.39E-03,1.39E-02
89753,6.39E-03,1.39E-02
89754,6.39E-03,1.39E-02
89755,6.39E-03,1.40E-02
89756,6.39E-03,1.40E-02
89757,6.39E-03,1.40E-02
89758,6.39E-03,1.41E-02
89759,6.39E-03,1.41E-02
89760,6.39E-03,1.42E-02
89761,6.39E-03,1.42E-02
89762,6.39E-03,1.42E-02
89763,6.39E-03,1.43E-02
89764,6.39E-03,1.43E-02
89765,6.39E-03,1.43E-02
89766,6.39E-03,1.44E-02
89767,6.39E-03,1.44E-02
89768,6.39E-03,1.45E-02
89769,6.39E-03,1.45E-02
89770,6.39E-03,1.46E-02
89771,6.39E-03,1.46E-02
89772,6.39E-03,1.46E-02
89773,6.39E-03,1.47E-02
89774,6.39E-03,1.47E-02
89775,6.39E-03,1.48E-02
89776,6.39E-03,1.48E-02
89777,6.39E-03,1.49E-02
89778,6.39E-03,1.49E-02
89779,6.39E-03,1.50E-02
89780,6.39E-03,1.50E-02
89781,6.39E-03,1.51E-02
89782,6.39E-03,1.52E-02
89783,6.39E-03,1.52E-02
89784,6.39E-03,1.53E-02
89785,6.39E-03,1.53E-02
89786,6.39E-03,1.54E-02
89787,6.39E-03,1.54E-02
89788,6.39E-03,1.55E-02
89789,6.39E-03,1.56E-02
89790,6.39E-03,1.56E-02
89791,6.39E-03,1.57E-02
89792,6.39E-03,1.57E-02
89793,6.39E-03,1.58E-02
89794,6.39E-03,1.59E-02
89795,6.39E-03,1.59E-02
89796,6.39E-03,1.60E-02
89797,6.39E-03,1.61E-02
89798,6.39E-03,1.61E-02
89799,6.39E-03,1.62E-02
89800,6.39E-03,1.62E-02
89801,6.39E-03,1.63E-02
89802,6.39E-03,1.64E-02
89803,6.39E-03,1.64E-02
89804,6.39E-03,1.65E-02
89805,6.39E-03,1.66E-02
89806,6.39E-03,1.66E-02
89807,6.39E-03,1.67E-02
89808,6.39E-03,1.68E-02
89809,6.39E-03,1.68E-02
89810,6.39E-03,1.69E-02
89811,6.39E-03,1.70E-02
89812,6.39E-03,1.71E-02
89813,6.39E-03,1.72E-02
89814,6.39E-03,1.72E-02
89815,6.39E-03,1.73E-02
89816,6.39E-03,1.74E-02
89817,6.39E-03,1.75E-02
89818,6.39E-03,1.76E-02
89819,6.39E-03,1.77E-02
89820,6.39E-03,1.78E-02
89821,6.39E-03,1.79E-02
89822,6.39E-03,1.80E-02
89823,6.39E-03,1.81E-02
89824,6.39E-03,1.82E-02
89825,6.39E-03,1.83E-02
89826,6.39E-03,1.84E-02
89827,6.39E-03,1.85E-02
89828,6.39E-03,1.86E-02
89829,6.39E-03,1.87E-02
89830,6.39E-03,1.87E-02
89831,6.39E-03,1.88E-02
89832,6.39E-03,1.89E-02
89833,6.39E-03,1.90E-02
89834,6.39E-03,1.91E-02
89835,6.39E-03,1.92E-02
89836,6.39E-03,1.93E-02
89837,6.39E-03,1.94E-02
89838,6.39E-03,1.95E-02
89839,6.39E-03,1.96E-02
89840,6.39E-03,1.97E-02
89841,6.39E-03,1.98E-02
89842,6.39E-03,1.99E-02
89843,6.39E-03,2.00E-02
89844,6.39E-03,2.01E-02
89845,6.39E-03,2.02E-02
89846,6.39E-03,2.03E-02
89847,6.39E-03,2.04E-02
89848,6.39E-03,2.06E-02
89849,6.39E-03,2.07E-02
89850,6.39E-03,2.08E-02
89851,6.39E-03,2.09E-02
89852,6.39E-03,2.11E-02
89853,6.39E-03,2.12E-02
89854,6.39E-03,2.14E-02
89855,6.39E-03,2.15E-02
89856,6.39E-03,2.16E-02
89857,6.39E-03,2.18E-02
89858,6.39E-03,2.19E-02
89859,6.39E-03,2.21E-02
89860,6.39E-03,2.23E-02
89861,6.39E-03,2.24E-02
89862,6.39E-03,2.26E-02
89863,6.39E-03,2.27E-02
89864,6.39E-03,2.29E-02
89865,6.39E-03,2.30E-02
89866,6.39E-03,2.32E-02
89867,6.39E-03,2.34E-02
89868,6.39E-03,2.35E-02
89869,6.39E-03,2.37E-02
89870,6.39E-03,2.38E-02
89871,6.39E-03,2.40E-02
89872,6.39E-03,2.42E-02
89873,6.39E-03,2.43E-02
89874,6.39E-03,2.45E-02
89875,6.39E-03,2.46E-02
89876,6.39E-03,2.48E-02
89877,6.39E-03,2.49E-02
89878,6.39E-03,2.51E-02
89879,6.39E-03,2.53E-02
89880,6.39E-03,2.54E-02
89881,6.39E-03,2.56E-02
89882,6.39E-03,1.35E-02
89883,6.39E-03,1.36E-02
89884,6.39E-03,1.36E-02
89885,6.39E-03,1.36E-02
89886,6.39E-03,1.37E-02
89887,6.39E-03,1.37E-02
89888,6.39E-03,1.37E-02
89889,6.39E-03,1.38E-02
89890,6.39E-03,1.38E-02
89891,6.39E-03,1.38E-02
89892,6.39E-03,1.39E-02
89893,6.39E-03,1.39E-02
89894,6.39E-03,1.39E-02
89895,6.39E-03,1.40E-02
89896,6.39E-03,1.40E-02
89897,6.39E-03,1.41E-02
89898,6.39E-03,1.41E-02
89899,6.39E-03,1.41E-02
89900,6.39E-03,1.42E-02
89901,6.39E-03,1.42E-02
89902,6.39E-03,1.43E-02
89903,6.39E-03,1.43E-02
89904,6.39E-03,1.43E-02
89905,6.39E-03,1.44E-02
89906,6.39E-03,1.44E-02
89907,6.39E-03,1.45E-02
89908,6.39E-03,1.45E-02
89909,6.39E-03,1.46E-02
89910,6.39E-03,1.46E-02
89911,6.39E-03,1.47E-02
89912,6.39E-03,1.47E-02
89913,6.39E-03,1.48E-02
89914,6.39E-03,1.48E-02
89915,6.39E-03,1.49E-02
89916,6.39E-03,1.49E-02
89917,6.39E-03,1.50E-02
89918,6.39E-03,1.50E-02
89919,6.39E-03,1.51E-02
89920,6.39E-03,1.51E-02
89921,6.39E-03,1.52E-02
89922,6.39E-03,1.53E-02
89923,6.39E-03,1.53E-02
89924,6.39E-03,1.54E-02
89925,6.39E-03,1.54E-02
89926,6.39E-03,1.55E-02
89927,6.39E-03,1.56E-02
89928,6.39E-03,1.56E-02
89929,6.39E-03,1.57E-02
89930,6.39E-03,1.58E-02
89931,6.39E-03,1.58E-02
89932,6.39E-03,1.59E-02
89933,6.39E-03,1.59E-02
89934,6.39E-03,1.60E-02
89935,6.39E-03,1.61E-02
89936,6.39E-03,1.61E-02
89937,6.39E-03,1.62E-02
89938,6.39E-03,1.63E-02
89939,6.39E-03,1.63E-02
89940,6.39E-03,1.64E-02
89941,6.39E-03,1.65E-02
89942,6.39E-03,1.65E-02
89943,6.39E-03,1.66E-02
89944,6.39E-03,1.67E-02
89945,6.39E-03,1.67E-02
89946,6.39E-03,1.68E-02
89947,6.39E-03,1.69E-02
89948,6.39E-03,1.70E-02
89949,6.39E-03,1.71E-02
89950,6.39E-03,1.71E-02
89951,6.39E-03,1.72E-02
89952,6.39E-03,1.73E-02
89953,6.39E-03,1.74E-02
89954,6.39E-03,1.75E-02
89955,6.39E-03,1.76E-02
89956,6.39E-03,1.77E-02
89957,6.39E-03,1.78E-02
89958,6.39E-03,1.79E-02
89959,6.39E-03,1.80E-02
89960,6.39E-03,1.81E-02
89961,6.39E-03,1.82E-02
89962,6.39E-03,1.83E-02
89963,6.39E-03,1.84E-02
89964,6.39E-03,1.85E-02
89965,6.39E-03,1.86E-02
89966,6.39E-03,1.87E-02
89967,6.39E-03,1.88E-02
89968,6.39E-03,1.89E-02
89969,6.39E-03,1.90E-02
89970,6.39E-03,1.91E-02
89971,6.39E-03,1.92E-02
89972,6.39E-03,1.93E-02
89973,6.39E-03,1.94E-02
89974,6.39E-03,1.95E-02
89975,6.39E-03,1.96E-02
89976,6.39E-03,1.97E-02
89977,6.39E-03,1.98E-02
89978,6.39E-03,1.99E-02
89979,6.39E-03,2.00E-02
89980,6.39E-03,2.01E-02
89981,6.39E-03,2.02E-02
89982,6.39E-03,2.03E-02
89983,6.39E-03,2.04E-02
89984,6.39E-03,2.05E-02
89985,6.39E-03,2.07E-02
89986,6.39E-03,2.08E-02
89987,6.39E-03,2.09E-02
89988,6.39E-03,2.11E-02
89989,6.39E-03,2.12E-02
89990,6.39E-03,2.14E-02
89991,6.39E-03,2.15E-02
89992,6.39E-03,2.17E-02
89993,6.39E-03,2.18E-02
89994,6.39E-03,2.20E-02
89995,6.39E-03,2.21E-02
89996,6.39E-03,2.23E-02
89997,6.39E-03,2.24E-02
89998,6.39E-03,2.26E-02
89999,6.39E-03,2.28E-02
90000,6.39E-03,2.29E-02
90001,6.39E-03,2.31E-02
90002,6.39E-03,2.32E-02
90003,6.39E-03,2.34E-02
90004,6.39E-03,2.35E-02
90005,6.39E-03,2.37E-02
90006,6.39E-03,2.38E-02
90007,6.39E-03,2.40E-02
90008,6.39E-03,2.42E-02
90009,6.39E-03,2.43E-02
90010,6.39E-03,2.45E-02
90011,6.39E-03,2.46E-02
90012,6.39E-03,2.48E-02
90013,6.39E-03,2.49E-02
90014,6.39E-03,2.51E-02
90015,6.39E-03,2.52E-02
90016,6.39E-03,2.54E-02
90017,6.39E-03,2.56E-02
90018,6.39E-03,1.34E-02
90019,6.39E-03,1.35E-02
90020,6.39E-03,1.35E-02
90021,6.39E-03,1.35E-02
90022,6.39E-03,1.36E-02
90023,6.39E-03,1.36E-02
90024,6.39E-03,1.36E-02
90025,6.39E-03,1.37E-02
90026,6.39E-03,1.37E-02
90027,6.39E-03,1.37E-02
90028,6.39E-03,1.38E-02
90029,6.39E-03,1.38E-02
90030,6.39E-03,1.38E-02
90031,6.39E-03,1.39E-02
90032,6.39E-03,1.39E-02
90033,6.39E-03,1.40E-02
90034,6.39E-03,1.40E-02
90035,6.39E-03,1.40E-02
90036,6.39E-03,1.41E-02
90037,6.39E-03,1.41E-02
90038,6.39E-03,1.42E-02
90039,6.39E-03,1.42E-02
90040,6.39E-03,1.42E-02
90041,6.39E-03,1.43E-02
90042,6.39E-03,1.43E-02
90043,6.39E-03,1.44E-02
90044,6.39E-03,1.44E-02
90045,6.39E-03,1.45E-02
90046,6.39E-03,1.45E-02
90047,6.39E-03,1.46E-02
90048,6.39E-03,1.46E-02
90049,6.39E-03,1.47E-02
90050,6.39E-03,1.47E-02
90051,6.39E-03,1.48E-02
90052,6.39E-03,1.48E-02
90053,6.39E-03,1.49E-02
90054,6.39E-03,1.50E-02
90055,6.39E-03,1.50E-02
90056,6.39E-03,1.51E-02
90057,6.39E-03,1.51E-02
90058,6.39E-03,1.52E-02
90059,6.39E-03,1.53E-02
90060,6.39E-03,1.53E-02
90061,6.39E-03,1.54E-02
90062,6.39E-03,1.55E-02
90063,6.39E-03,1.55E-02
90064,6.39E-03,1.56E-02
90065,6.39E-03,1.56E-02
90066,6.39E-03,1.57E-02
90067,6.39E-03,1.58E-02
90068,6.39E-03,1.58E-02
90069,6.39E-03,1.59E-02
90070,6.39E-03,1.60E-02
90071,6.39E-03,1.60E-02
90072,6.39E-03,1.61E-02
90073,6.39E-03,1.61E-02
90074,6.39E-03,1.62E-02
90075,6.39E-03,1.63E-02
90076,6.39E-03,1.63E-02
90077,6.39E-03,1.64E-02
90078,6.39E-03,1.65E-02
90079,6.39E-03,1.66E-02
90080,6.39E-03,1.66E-02
90081,6.39E-03,1.67E-02
90082,6.39E-03,1.68E-02
90083,6.39E-03,1.69E-02
90084,6.39E-03,1.70E-02
90085,6.39E-03,1.70E-02
90086,6.39E-03,1.71E-02
90087,6.39E-03,1.72E-02
90088,6.39E-03,1.73E-02
90089,6.39E-03,1.74E-02
90090,6.39E-03,1.75E-02
90091,6.39E-03,1.76E-02
90092,6.39E-03,1.77E-02
90093,6.39E-03,1.78E-02
90094,6.39E-03,1.79E-02
90095,6.39E-03,1.80E-02
90096,6.39E-03,1.81E-02
90097,6.39E-03,1.82E-02
90098,6.39E-03,1.83E-02
90099,6.39E-03,1.85E-02
90100,6.39E-03,1.86E-02
90101,6.39E-03,1.87E-02
90102,6.39E-03,1.88E-02
90103,6.39E-03,1.89E-02
90104,6.39E-03,1.90E-02
90105,6.39E-03,1.91E-02
90106,6.39E-03,1.92E-02
90107,6.39E-03,1.93E-02
90108,6.39E-03,1.94E-02
90109,6.39E-03,1.95E-02
90110,6.39E-03,1.96E-02
90111,6.39E-03,1.97E-02
90112,6.39E-03,1.98E-02
90113,6.39E-03,1.99E-02
90114,6.39E-03,2.00E-02
90115,6.39E-03,2.01E-02
90116,6.39E-03,2.02E-02
90117,6.39E-03,2.03E-02
90118,6.39E-03,2.04E-02
90119,6.39E-03,2.05E-02
90120,6.39E-03,2.07E-02
90121,6.39E-03,2.08E-02
90122,6.39E-03,2.09E-02
90123,6.39E-03,2.11E-02
90124,6.39E-03,2.12E-02
90125,6.39E-03,2.14E-02
90126,6.39E-03,2.15E-02
90127,6.39E-03,2.17E-02
90128,6.39E-03,2.18E-02
90129,6.39E-03,2.20E-02
90130,6.39E-03,2.21E-02
90131,6.39E-03,2.23E-02
90132,6.39E-03,2.25E-02
90133,6.39E-03,2.26E-02
90134,6.39E-03,2.28E-02
90135,6.39E-03,2.29E-02
90136,6.39E-03,2.31E-02
90137,6.39E-03,2.32E-02
90138,6.39E-03,2.34E-02
90139,6.39E-03,2.36E-02
90140,6.39E-03,2.37E-02
90141,6.39E-03,2.39E-02
90142,6.39E-03,2.40E-02
90143,6.39E-03,2.42E-02
90144,6.39E-03,2.43E-02
90145,6.39E-03,2.45E-02
90146,6.39E-03,2.46E-02
90147,6.39E-03,2.48E-02
90148,6.39E-03,2.49E-02
90149,6.39E-03,2.51E-02
90150,6.39E-03,2.52E-02
90151,6.39E-03,2.54E-02
90152,6.39E-03,2.55E-02
80765,1.60E-03,2.17E-02
80766,1.60E-03,1.34E-02
80767,1.60E-03,1.35E-02
80768,1.60E-03,2.17E-02
80769,3.20E-03,2.18E-02
80770,3.20E-03,1.34E-02
90191,4.56E-03,2.38E-02
90192,6.17E-03,2.11E-02
90193,4.64E-03,2.22E-02
90194,4.64E-03,2.37E-02
90195,3.88E-03,2.30E-02
90196,6.54E-03,2.32E-02
90197,6.43E-03,2.42E-02
90198,6.73E-03,2.43E-02
90199,6.17E-03,2.45E-02
90200,6.02E-03,2.45E-02
90201,4.77E-03,2.24E-02
90202,4.67E-03,2.25E-02
90203,4.25E-03,2.28E-02
90204,4.32E-03,2.28E-02
90205,5.03E-03,2.04E-02
90206,5.67E-03,2.05E-02
90207,5.37E-03,2.09E-02
90208,4.55E-03,2.08E-02
90209,6.17E-03,2.40E-02
90210,6.23E-03,2.36E-02
90211,6.30E-03,2.36E-02
90212,6.31E-03,2.14E-02
90213,6.43E-03,2.13E-02
90214,6.25E-03,2.14E-02
90215,6.52E-03,2.16E-02
90216,1.87E-03,8.43E-03
90217,2.48E-03,8.46E-03
90218,2.80E-03,8.55E-03
90219,1.97E-03,8.50E-03
90220,1.69E-03,8.43E-03
90221,5.59E-03,2.34E-02
90222,6.92E-03,2.30E-02
90223,6.06E-03,2.30E-02
90224,5.86E-03,2.33E-02
90225,4.86E-03,2.45E-02
90226,5.28E-03,2.41E-02
90227,4.94E-03,2.45E-02
90228,5.36E-03,2.15E-02
90229,6.26E-03,2.14E-02
90230,4.70E-03,2.21E-02
90231,5.23E-03,2.30E-02
90232,4.14E-03,2.29E-02
90233,8.04E-03,2.41E-02
90234,8.44E-03,2.42E-02
90235,5.44E-03,1.88E-02
90236,5.31E-03,1.91E-02
90237,3.42E-03,2.20E-02
90238,5.55E-03,2.23E-02
90239,6.07E-03,2.46E-02
90240,6.16E-03,2.44E-02
90241,5.87E-03,2.49E-02
90242,5.82E-03,2.47E-02
90243,5.57E-03,2.20E-02
90244,5.92E-03,2.21E-02
90245,4.77E-03,2.16E-02
90246,4.43E-03,2.16E-02
90247,5.12E-03,2.20E-02
90248,5.50E-03,2.21E-02
90249,6.76E-03,2.41E-02
90250,6.68E-03,2.40E-02
90251,6.00E-03,2.36E-02
90252,6.40E-03,2.37E-02
90253,5.80E-03,2.37E-02
90254,7.14E-03,2.39E-02
90255,3.60E-03,2.26E-02
90256,4.26E-03,2.25E-02
90257,6.60E-03,1.14E-02
90258,7.07E-03,1.14E-02
90259,6.03E-03,1.12E-02
90260,6.25E-03,2.63E-02
90261,4.76E-03,2.62E-02
90262,4.71E-03,2.60E-02
90263,5.65E-03,2.40E-02
90264,6.68E-03,2.42E-02
90265,5.79E-03,2.44E-02
90266,6.69E-03,1.62E-02
90267,6.51E-03,1.61E-02
90268,3.98E-03,2.68E-02
90269,5.89E-03,2.68E-02
90270,6.43E-03,9.16E-03
90271,6.19E-03,9.20E-03
90272,3.37E-03,2.27E-02
90273,4.73E-03,2.26E-02
90274,4.11E-03,2.31E-02
90275,3.87E-03,2.32E-02
90276,5.20E-03,1.90E-02
90277,4.98E-03,1.93E-02
90278,3.75E-03,1.82E-02
90279,3.69E-03,1.81E-02
90280,3.66E-03,1.80E-02
90281,5.31E-03,2.71E-02
90282,4.54E-03,2.72E-02
90283,3.68E-03,2.73E-02
90284,4.38E-03,2.72E-02
90285,3.85E-03,2.68E-02
90286,3.91E-03,2.66E-02
90287,3.85E-03,2.66E-02
90288,3.68E-03,2.40E-02
90289,3.92E-03,2.43E-02
90290,4.13E-03,2.41E-02
90291,3.25E-03,2.78E-02
90292,2.85E-03,2.79E-02
90293,3.12E-03,2.80E-02
90294,6.15E-03,2.51E-02
90295,5.96E-03,2.51E-02
90296,4.19E-03,2.37E-02
90297,4.94E-03,2.35E-02
90298,4.95E-03,2.36E-02
90299,5.86E-03,2.52E-02
90300,3.46E-03,2.00E-02
90301,4.90E-03,2.02E-02
90302,4.49E-03,2.01E-02
90303,6.55E-03,2.12E-02
90304,4.65E-03,2.57E-02
90305,5.77E-03,2.57E-02
90306,5.89E-03,2.67E-02
90307,5.82E-03,2.71E-02
90308,6.21E-03,2.20E-02
90309,6.39E-03,2.20E-02
90310,3.69E-03,2.16E-02
90311,4.35E-03,2.18E-02
90312,6.26E-03,2.35E-02
90313,6.03E-03,2.35E-02
90314,5.08E-03,2.22E-02
90315,5.05E-03,2.21E-02
90316,5.10E-03,2.25E-02
90317,3.90E-03,2.25E-02
90318,5.66E-03,2.20E-02
90319,6.12E-03,2.24E-02
90320,5.94E-03,2.39E-02
90321,5.56E-03,2.41E-02
90322,5.95E-03,2.40E-02
90323,5.97E-03,2.39E-02
90324,5.64E-03,2.43E-02
90325,5.61E-03,2.40E-02
90326,5.78E-03,2.08E-02
90327,5.71E-03,2.09E-02
90328,5.28E-03,1.86E-02
90329,5.66E-03,1.84E-02
90330,6.25E-03,1.87E-02
90331,4.60E-03,2.21E-02
90332,4.44E-03,2.22E-02
90333,5.37E-03,2.31E-02
90334,5.37E-03,2.31E-02
90335,4.58E-03,1.84E-02
90336,5.75E-03,2.30E-02
90337,5.83E-03,2.30E-02
90338,5.26E-03,2.31E-02
90339,5.54E-03,2.29E-02
90340,3.88E-03,2.27E-02
90341,5.70E-03,2.01E-02
90342,5.74E-03,2.01E-02
90343,5.71E-03,1.84E-02
90344,5.67E-03,1.84E-02
90345,4.36E-03,2.25E-02
90346,4.40E-03,2.24E-02
90347,5.60E-03,2.23E-02
90348,5.62E-03,2.22E-02
90349,5.82E-03,1.95E-02
90350,5.84E-03,1.96E-02
90351,5.57E-03,2.38E-02
90352,4.71E-03,2.37E-02
90353,4.00E-03,2.35E-02
90354,5.90E-03,1.94E-02
90355,5.81E-03,1.95E-02
90356,4.15E-03,2.33E-02
90357,4.48E-03,2.34E-02
90358,5.83E-03,1.14E-02
90359,5.81E-03,1.15E-02
90360,5.33E-03,2.20E-02
90361,5.67E-03,2.19E-02
90362,4.18E-03,9.86E-03
90363,2.15E-03,9.93E-03
90364,3.99E-03,1.00E-02
90365,4.65E-03,9.96E-03
90366,5.91E-03,2.28E-02
90367,6.20E-03,2.26E-02
90368,4.71E-03,2.25E-02
90369,4.15E-03,2.15E-02
90370,4.19E-03,2.15E-02
90371,3.70E-03,2.18E-02
90372,4.25E-03,2.19E-02
90373,2.72E-03,2.35E-02
90374,4.13E-03,2.34E-02
90375,2.61E-03,2.35E-02
90376,3.57E-03,2.37E-02
90377,3.71E-03,2.35E-02
90378,3.90E-03,2.41E-02
90379,4.89E-03,2.41E-02
90380,4.35E-03,2.38E-02
90381,1.57E-03,9.99E-03
90382,3.34E-03,1.01E-02
90383,4.12E-03,1.01E-02
90384,3.12E-03,2.25E-02
90385,3.99E-03,2.20E-02
90386,3.39E-03,2.17E-02
90387,4.11E-03,2.14E-02
90388,4.10E-03,2.17E-02
90389,4.06E-03,2.17E-02
90390,3.82E-03,2.12E-02
90391,4.17E-03,2.12E-02
90392,3.52E-03,2.20E-02
90393,4.15E-03,2.21E-02
90394,4.16E-03,2.14E-02
90395,4.54E-03,2.22E-02
90396,3.83E-03,2.09E-02
90397,3.34E-03,2.18E-02
90398,3.89E-03,2.17E-02
90399,2.98E-03,2.16E-02
90400,4.22E-03,2.19E-02
90401,3.94E-03,2.16E-02
90402,3.89E-03,2.12E-02
90403,3.31E-03,2.06E-02
90404,4.14E-03,2.26E-02
90405,3.71E-03,2.09E-02
90406,2.93E-03,2.07E-02
90407,4.32E-03,2.11E-02
90408,3.97E-03,2.24E-02
90409,4.48E-03,2.16E-02
90410,4.31E-03,2.20E-02
90411,3.95E-03,2.19E-02
90412,4.57E-03,2.21E-02
90413,5.56E-03,2.19E-02
90414,4.09E-03,2.13E-02
90415,5.24E-03,2.14E-02
90416,4.32E-03,2.13E-02
90417,6.10E-03,2.19E-02
90418,4.71E-03,2.20E-02
90419,4.09E-03,2.22E-02
90420,4.39E-03,2.15E-02
90421,4.50E-03,2.23E-02
90422,4.57E-03,2.12E-02
90423,4.06E-03,2.09E-02
90424,3.74E-03,2.06E-02
90425,4.89E-03,2.23E-02
90426,4.41E-03,2.24E-02
90427,2.88E-03,2.04E-02
90428,3.84E-03,2.27E-02
90429,4.17E-03,2.13E-02
90430,4.62E-03,2.17E-02
90431,3.72E-03,2.23E-02
90432,4.89E-03,2.21E-02
90433,3.65E-03,2.25E-02
90434,5.36E-03,2.23E-02
90435,5.22E-03,2.23E-02
90436,6.03E-03,2.20E-02
90437,6.41E-03,2.20E-02
90438,5.87E-03,2.16E-02
90439,5.20E-03,2.17E-02
90440,5.73E-03,2.16E-02
90441,5.63E-03,2.15E-02
90442,5.57E-03,2.15E-02
90443,5.99E-03,2.15E-02
90444,4.38E-03,2.13E-02
90445,5.93E-03,2.19E-02
90446,5.91E-03,2.19E-02
90447,6.21E-03,2.20E-02
90448,6.32E-03,2.20E-02
90449,5.46E-03,2.21E-02
90450,4.29E-03,2.20E-02
90451,4.56E-03,2.22E-02
90452,5.39E-03,2.22E-02
90453,5.92E-03,2.23E-02
90454,4.40E-03,2.24E-02
90455,4.63E-03,2.16E-02
90456,4.23E-03,2.29E-02
90457,5.50E-03,2.18E-02
90458,5.03E-03,2.10E-02
90459,4.63E-03,2.10E-02
90460,4.23E-03,2.09E-02
90461,5.20E-03,2.26E-02
90462,5.54E-03,2.22E-02
90463,5.99E-03,2.24E-02
90464,5.52E-03,2.24E-02
90465,6.17E-03,2.24E-02
90466,5.79E-03,2.24E-02
90467,5.24E-03,2.25E-02
90468,6.16E-03,2.24E-02
90469,6.12E-03,2.24E-02
90470,5.61E-03,2.28E-02
90471,5.82E-03,2.28E-02
90472,5.13E-03,2.24E-02
90473,5.39E-03,2.25E-02
90474,4.77E-03,2.12E-02
90475,4.08E-03,2.06E-02
90476,5.18E-03,2.34E-02
90477,5.40E-03,2.33E-02
90478,5.93E-03,2.29E-02
90479,5.98E-03,2.28E-02
90480,6.14E-03,2.31E-02
90481,4.63E-03,2.28E-02
90482,5.40E-03,2.28E-02
90483,4.56E-03,2.25E-02
90484,3.88E-03,2.04E-02
90485,4.28E-03,2.30E-02
90486,4.94E-03,2.37E-02
90487,4.58E-03,2.38E-02
90488,4.26E-03,2.03E-02
90489,5.54E-03,2.19E-02
90490,5.34E-03,2.18E-02
90491,4.56E-03,2.20E-02
90492,5.06E-03,2.19E-02
90493,5.78E-03,2.16E-02
90494,5.68E-03,2.16E-02
90495,5.74E-03,2.15E-02
90496,6.15E-03,2.15E-02
90497,5.05E-03,2.13E-02
90498,5.02E-03,2.14E-02
90499,4.86E-03,2.11E-02
90500,4.81E-03,2.13E-02
90501,5.44E-03,2.11E-02
90502,5.32E-03,2.12E-02
90503,5.43E-03,2.11E-02
90504,4.49E-03,2.09E-02
90505,4.37E-03,2.09E-02
90506,5.10E-03,2.36E-02
90507,4.76E-03,2.33E-02
90508,4.96E-03,2.35E-02
90509,6.30E-03,2.27E-02
90510,6.79E-03,2.26E-02
90511,7.11E-03,2.27E-02
90512,5.58E-03,2.26E-02
90513,5.91E-03,2.23E-02
90514,5.84E-03,2.22E-02
90515,6.01E-03,2.23E-02
90516,6.07E-03,2.23E-02
90517,5.94E-03,2.24E-02
90518,5.99E-03,2.25E-02
90519,6.33E-03,2.25E-02
90520,4.69E-03,2.27E-02
90521,5.03E-03,2.26E-02
90522,5.36E-03,2.25E-02
90523,6.04E-03,2.25E-02
90524,6.07E-03,2.25E-02
90525,6.00E-03,2.30E-02
90526,5.82E-03,2.29E-02
90527,6.82E-03,2.26E-02
90528,6.39E-03,2.25E-02
90529,4.50E-03,2.26E-02
90530,4.31E-03,2.32E-02
90531,4.91E-03,2.39E-02
90532,4.83E-03,2.13E-02
90533,5.38E-03,2.31E-02
90534,4.95E-03,2.34E-02
90535,6.12E-03,2.26E-02
90536,6.16E-03,2.27E-02
90537,6.03E-03,2.28E-02
90538,5.94E-03,2.29E-02
90539,5.89E-03,2.30E-02
90540,5.71E-03,2.30E-02
90541,5.89E-03,2.25E-02
90542,5.73E-03,2.26E-02
90543,5.96E-03,2.24E-02
90544,6.20E-03,2.19E-02
90545,6.22E-03,2.20E-02
90546,5.71E-03,2.18E-02
90547,4.28E-03,2.06E-02
90548,4.86E-03,2.36E-02
90549,6.26E-03,2.30E-02
90550,5.05E-03,2.28E-02
90551,5.37E-03,2.26E-02
90552,5.89E-03,2.28E-02
90553,5.82E-03,2.28E-02
90554,5.96E-03,2.28E-02
90555,5.23E-03,2.29E-02
90556,5.38E-03,2.33E-02
90557,5.45E-03,2.33E-02
90558,6.13E-03,2.31E-02
90559,5.96E-03,2.33E-02
90560,6.07E-03,2.32E-02
90561,5.84E-03,2.34E-02
90562,5.66E-03,2.31E-02
90563,5.56E-03,2.32E-02
90564,5.51E-03,2.36E-02
90565,5.57E-03,2.35E-02
90566,5.49E-03,2.32E-02
90567,5.47E-03,2.36E-02
90568,5.35E-03,2.27E-02
90569,6.59E-03,2.28E-02
90570,3.97E-03,2.36E-02
90571,5.69E-03,2.34E-02
90572,4.18E-03,2.03E-02
90573,4.92E-03,2.30E-02
90574,5.91E-03,2.32E-02
90575,5.31E-03,2.33E-02
90576,6.08E-03,2.32E-02
90577,5.77E-03,2.30E-02
90578,4.34E-03,2.29E-02
90579,4.28E-03,2.27E-02
90580,4.47E-03,2.33E-02
90581,3.57E-03,2.28E-02
90582,5.49E-03,2.33E-02
90583,5.47E-03,2.33E-02
90584,5.49E-03,2.33E-02
90585,5.58E-03,2.34E-02
90586,5.51E-03,2.38E-02
90587,5.53E-03,2.35E-02
90588,5.75E-03,2.39E-02
90589,5.08E-03,2.09E-02
90590,4.14E-03,2.01E-02
90591,4.45E-03,2.00E-02
90592,3.53E-03,2.35E-02
90593,5.02E-03,2.33E-02
90594,5.20E-03,2.34E-02
90595,4.99E-03,2.16E-02
90596,4.96E-03,2.14E-02
90597,5.06E-03,2.15E-02
90598,3.50E-03,2.18E-02
90599,4.63E-03,2.17E-02
90600,6.06E-03,2.21E-02
90601,3.41E-03,2.20E-02
90602,6.09E-03,2.25E-02
90603,6.96E-03,2.23E-02
90604,5.75E-03,2.26E-02
90605,5.90E-03,2.25E-02
90606,5.04E-03,2.32E-02
90607,4.83E-03,2.31E-02
90608,5.05E-03,2.33E-02
90609,5.37E-03,2.33E-02
90610,5.59E-03,2.35E-02
90611,5.58E-03,2.36E-02
90612,5.52E-03,2.32E-02
90613,5.46E-03,2.32E-02
90614,5.47E-03,2.31E-02
90615,5.54E-03,2.31E-02
90616,5.52E-03,2.29E-02
90617,5.51E-03,2.30E-02
90618,5.47E-03,2.29E-02
90619,5.53E-03,2.29E-02
90620,5.54E-03,2.28E-02
90621,5.50E-03,2.28E-02
90622,5.60E-03,2.27E-02
90623,6.11E-03,2.23E-02
90624,6.03E-03,2.24E-02
90625,6.11E-03,2.21E-02
90626,6.13E-03,2.22E-02
90627,6.14E-03,2.21E-02
90628,5.24E-03,2.16E-02
90629,4.94E-03,2.17E-02
90630,5.08E-03,2.14E-02
90631,5.29E-03,2.15E-02
90632,4.91E-03,2.13E-02
90633,4.82E-03,2.14E-02
90634,5.52E-03,2.12E-02
90635,5.09E-03,2.12E-02
90636,5.49E-03,2.11E-02
90637,5.60E-03,2.11E-02
90638,5.14E-03,2.10E-02
90639,5.32E-03,2.10E-02
90640,5.21E-03,2.08E-02
90641,5.09E-03,2.09E-02
90642,5.28E-03,2.07E-02
90643,5.18E-03,2.08E-02
90644,5.06E-03,2.07E-02
90645,5.20E-03,2.07E-02
90646,4.70E-03,2.06E-02
90647,4.71E-03,2.06E-02
90648,4.40E-03,2.06E-02
90649,5.39E-03,2.38E-02
90650,5.25E-03,2.39E-02
90651,5.21E-03,2.37E-02
90652,6.20E-03,2.29E-02
90653,6.38E-03,2.30E-02
90654,5.70E-03,2.29E-02
90655,5.93E-03,2.26E-02
90656,5.76E-03,2.26E-02
90657,6.06E-03,2.27E-02
90658,6.02E-03,2.27E-02
90659,5.95E-03,2.27E-02
90660,5.74E-03,2.28E-02
90661,5.93E-03,2.28E-02
90662,5.46E-03,2.30E-02
90663,5.50E-03,2.29E-02
90664,5.00E-03,2.29E-02
90665,5.52E-03,2.33E-02
90666,5.51E-03,2.33E-02
90667,6.22E-03,2.31E-02
90668,5.67E-03,2.35E-02
90669,5.40E-03,2.37E-02
90670,5.49E-03,2.37E-02
90671,5.42E-03,2.37E-02
90672,5.67E-03,2.36E-02
90673,5.60E-03,2.36E-02
90674,5.79E-03,2.36E-02
90675,5.65E-03,2.36E-02
90676,6.56E-03,2.35E-02
90677,6.01E-03,2.30E-02
90678,6.05E-03,2.28E-02
90679,5.90E-03,2.32E-02
90680,4.74E-03,2.30E-02
90681,4.38E-03,2.38E-02
90682,2.75E-03,2.38E-02
90683,4.63E-03,2.36E-02
90684,6.24E-03,2.40E-02
90685,5.49E-03,2.38E-02
90686,6.49E-03,2.35E-02
90687,5.05E-03,2.37E-02
90688,5.45E-03,2.28E-02
90689,5.05E-03,2.32E-02
90690,6.28E-03,2.34E-02
90691,5.15E-03,2.29E-02
90692,5.90E-03,2.21E-02
90693,5.77E-03,2.22E-02
90694,6.01E-03,2.20E-02
90695,5.90E-03,2.15E-02
90696,6.05E-03,2.16E-02
90697,5.64E-03,2.14E-02
90698,4.41E-03,2.03E-02
90699,4.79E-03,2.37E-02
90700,5.95E-03,2.33E-02
90701,5.21E-03,2.31E-02
90702,5.91E-03,2.31E-02
90703,5.88E-03,2.32E-02
90704,5.25E-03,2.33E-02
90705,5.09E-03,2.37E-02
90706,5.14E-03,2.37E-02
90707,5.91E-03,2.38E-02
90708,5.80E-03,2.38E-02
90709,5.57E-03,2.36E-02
90710,5.47E-03,2.41E-02
90711,4.43E-03,2.41E-02
90712,4.86E-03,2.37E-02
90713,6.73E-03,2.30E-02
90714,6.00E-03,2.30E-02
90715,3.73E-03,2.33E-02
90716,5.13E-03,2.33E-02
90717,5.74E-03,2.30E-02
90718,5.95E-03,2.35E-02
90719,5.16E-03,2.37E-02
90720,5.56E-03,2.40E-02
90721,5.51E-03,2.40E-02
90722,5.36E-03,2.42E-02
90723,5.43E-03,2.42E-02
90724,5.61E-03,2.39E-02
90725,5.22E-03,2.06E-02
90726,4.39E-03,2.00E-02
90727,4.53E-03,1.99E-02
90728,4.64E-03,2.35E-02
90729,4.75E-03,2.41E-02
90730,3.67E-03,2.37E-02
90731,5.11E-03,2.31E-02
90732,5.22E-03,2.32E-02
90733,5.50E-03,2.36E-02
90734,5.09E-03,2.11E-02
90735,5.06E-03,2.10E-02
90736,4.97E-03,2.13E-02
90737,5.08E-03,2.12E-02
90738,4.78E-03,2.16E-02
90739,4.70E-03,2.14E-02
90740,5.10E-03,2.19E-02
90741,4.69E-03,2.18E-02
90742,5.79E-03,2.22E-02
90743,5.62E-03,2.20E-02
90744,5.44E-03,2.24E-02
90745,5.58E-03,2.23E-02
90746,5.08E-03,2.30E-02
90747,5.30E-03,2.29E-02
90748,5.06E-03,2.31E-02
90749,4.77E-03,2.35E-02
90750,6.16E-03,2.36E-02
90751,4.62E-03,2.33E-02
90752,5.39E-03,2.28E-02
90753,5.28E-03,2.29E-02
90754,5.46E-03,2.27E-02
90755,5.46E-03,2.27E-02
90756,5.50E-03,2.25E-02
90757,5.52E-03,2.26E-02
90758,5.53E-03,2.25E-02
90759,5.52E-03,2.25E-02
90760,5.56E-03,2.23E-02
90761,5.52E-03,2.24E-02
90762,5.64E-03,2.23E-02
90763,6.01E-03,2.19E-02
90764,6.07E-03,2.19E-02
90765,6.07E-03,2.17E-02
90766,6.06E-03,2.18E-02
90767,6.04E-03,2.17E-02
90768,5.29E-03,2.12E-02
90769,5.46E-03,2.13E-02
90770,5.18E-03,2.11E-02
90771,5.23E-03,2.12E-02
90772,5.10E-03,2.09E-02
90773,5.10E-03,2.10E-02
90774,5.34E-03,2.08E-02
90775,5.22E-03,2.09E-02
90776,5.43E-03,2.07E-02
90777,5.45E-03,2.08E-02
90778,5.34E-03,2.06E-02
90779,5.39E-03,2.07E-02
90780,5.32E-03,2.05E-02
90781,5.26E-03,2.05E-02
90782,5.29E-03,2.04E-02
90783,5.30E-03,2.04E-02
90784,5.15E-03,2.03E-02
90785,5.09E-03,2.04E-02
90786,4.81E-03,2.03E-02
90787,4.83E-03,2.03E-02
90788,4.55E-03,2.03E-02
90789,5.79E-03,2.41E-02
90790,5.92E-03,2.41E-02
90791,5.57E-03,2.38E-02
90792,5.61E-03,2.40E-02
90793,6.05E-03,2.32E-02
90794,6.13E-03,2.33E-02
90795,5.71E-03,2.32E-02
90796,6.03E-03,2.30E-02
90797,5.98E-03,2.30E-02
90798,6.10E-03,2.31E-02
90799,6.12E-03,2.30E-02
90800,6.00E-03,2.31E-02
90801,5.77E-03,2.33E-02
90802,5.82E-03,2.32E-02
90803,5.46E-03,2.33E-02
90804,5.60E-03,2.33E-02
90805,5.22E-03,2.33E-02
90806,5.24E-03,2.37E-02
90807,6.10E-03,2.37E-02
90808,5.67E-03,2.40E-02
90809,5.57E-03,2.40E-02
90810,6.39E-03,2.36E-02
90811,5.68E-03,2.39E-02
90812,5.42E-03,2.41E-02
90813,5.35E-03,2.41E-02
90814,5.39E-03,2.41E-02
90815,5.41E-03,2.41E-02
90816,5.78E-03,2.40E-02
90817,5.72E-03,2.40E-02
90818,5.81E-03,2.40E-02
90819,5.74E-03,2.40E-02
90820,4.41E-03,2.41E-02
90821,5.73E-03,2.40E-02
90822,6.27E-03,2.40E-02
90823,5.96E-03,2.41E-02
90824,4.33E-03,2.42E-02
90825,6.20E-03,2.40E-02
90826,4.62E-03,2.39E-02
90827,4.60E-03,2.40E-02
90828,4.95E-03,2.40E-02
90829,5.12E-03,2.40E-02
90830,5.35E-03,2.39E-02
90831,6.02E-03,2.39E-02
90832,6.06E-03,2.30E-02
90833,6.39E-03,2.30E-02
90834,7.11E-03,2.32E-02
90835,6.12E-03,2.33E-02
90836,4.55E-03,2.33E-02
90837,4.58E-03,1.97E-02
90838,4.01E-03,1.99E-02
90839,5.83E-03,2.39E-02
90840,5.92E-03,2.42E-02
90841,5.92E-03,2.25E-02
90842,5.01E-03,2.30E-02
90843,5.75E-03,2.30E-02
90844,5.82E-03,2.17E-02
90845,5.74E-03,2.18E-02
90846,5.88E-03,2.16E-02
90847,5.80E-03,2.11E-02
90848,5.87E-03,2.12E-02
90849,5.59E-03,2.10E-02
90850,5.22E-03,2.06E-02
90851,5.79E-03,2.39E-02
90852,6.02E-03,2.36E-02
90853,5.42E-03,2.34E-02
90854,7.00E-03,2.32E-02
90855,6.01E-03,2.35E-02
90856,5.93E-03,2.36E-02
90857,5.31E-03,2.37E-02
90858,4.80E-03,2.41E-02
90859,5.40E-03,2.44E-02
90860,5.51E-03,2.44E-02
90861,5.37E-03,2.45E-02
90862,6.21E-03,2.44E-02
90863,5.04E-03,2.44E-02
90864,5.23E-03,2.44E-02
90865,4.80E-03,2.44E-02
90866,5.16E-03,2.43E-02
90867,4.98E-03,2.02E-02
90868,4.60E-03,2.00E-02
90869,4.64E-03,1.97E-02
90870,5.62E-03,2.37E-02
90871,5.01E-03,2.41E-02
90872,6.55E-03,2.25E-02
90873,4.80E-03,1.96E-02
90874,6.05E-03,2.49E-02
90875,4.87E-03,2.37E-02
90876,5.03E-03,2.39E-02
90877,3.39E-03,2.35E-02
90878,5.49E-03,2.34E-02
90879,5.86E-03,2.37E-02
90880,5.37E-03,2.08E-02
90881,5.34E-03,2.07E-02
90882,5.03E-03,2.10E-02
90883,5.21E-03,2.09E-02
90884,4.96E-03,2.13E-02
90885,4.94E-03,2.12E-02
90886,5.14E-03,2.16E-02
90887,5.01E-03,2.15E-02
90888,5.40E-03,2.19E-02
90889,5.30E-03,2.18E-02
90890,5.11E-03,2.22E-02
90891,5.35E-03,2.21E-02
90892,4.40E-03,2.22E-02
90893,5.19E-03,2.28E-02
90894,5.67E-03,2.26E-02
90895,5.08E-03,2.29E-02
90896,4.66E-03,2.37E-02
90897,5.23E-03,2.38E-02
90898,5.20E-03,2.36E-02
90899,5.02E-03,2.36E-02
90900,6.17E-03,2.35E-02
90901,5.44E-03,2.35E-02
90902,5.79E-03,2.32E-02
90903,6.40E-03,2.34E-02
90904,5.13E-03,2.31E-02
90905,5.46E-03,2.32E-02
90906,5.80E-03,2.30E-02
90907,5.41E-03,2.24E-02
90908,5.33E-03,2.24E-02
90909,5.46E-03,2.22E-02
90910,5.45E-03,2.23E-02
90911,5.56E-03,2.21E-02
90912,5.54E-03,2.22E-02
90913,5.56E-03,2.20E-02
90914,5.55E-03,2.21E-02
90915,5.60E-03,2.19E-02
90916,5.53E-03,2.20E-02
90917,5.67E-03,2.18E-02
90918,6.02E-03,2.14E-02
90919,6.01E-03,2.15E-02
90920,6.06E-03,2.13E-02
90921,6.06E-03,2.14E-02
90922,6.02E-03,2.12E-02
90923,5.44E-03,2.09E-02
90924,5.53E-03,2.10E-02
90925,5.26E-03,2.07E-02
90926,5.32E-03,2.08E-02
90927,5.26E-03,2.06E-02
90928,5.29E-03,2.04E-02
90929,5.24E-03,2.05E-02
90930,5.42E-03,2.04E-02
90931,5.36E-03,2.04E-02
90932,5.39E-03,2.03E-02
90933,5.40E-03,2.03E-02
90934,5.36E-03,2.01E-02
90935,5.36E-03,2.02E-02
90936,5.32E-03,2.00E-02
90937,5.34E-03,2.01E-02
90938,5.15E-03,2.00E-02
90939,5.20E-03,2.00E-02
90940,4.92E-03,1.99E-02
90941,5.00E-03,1.99E-02
90942,4.78E-03,1.99E-02
90943,6.07E-03,2.43E-02
90944,6.43E-03,2.44E-02
90945,6.11E-03,2.41E-02
90946,6.13E-03,2.42E-02
90947,6.05E-03,2.35E-02
90948,6.10E-03,2.36E-02
90949,5.88E-03,2.35E-02
90950,6.07E-03,2.33E-02
90951,6.01E-03,2.33E-02
90952,6.07E-03,2.34E-02
90953,6.06E-03,2.34E-02
90954,6.11E-03,2.35E-02
90955,6.14E-03,2.34E-02
90956,6.04E-03,2.35E-02
90957,5.84E-03,2.36E-02
90958,5.86E-03,2.36E-02
90959,5.58E-03,2.37E-02
90960,5.73E-03,2.37E-02
90961,5.46E-03,2.37E-02
90962,4.97E-03,2.41E-02
90963,5.90E-03,2.42E-02
90964,6.22E-03,2.41E-02
90965,5.72E-03,2.43E-02
90966,5.79E-03,2.42E-02
90967,5.60E-03,2.43E-02
90968,5.33E-03,2.45E-02
90969,5.35E-03,2.45E-02
90970,5.20E-03,2.46E-02
90971,5.34E-03,2.45E-02
90972,6.19E-03,2.44E-02
90973,4.27E-03,2.47E-02
90974,5.04E-03,2.46E-02
90975,5.71E-03,2.45E-02
90976,5.76E-03,2.45E-02
90977,5.63E-03,2.44E-02
90978,5.65E-03,2.45E-02
90979,5.52E-03,2.44E-02
90980,5.62E-03,2.44E-02
90981,4.86E-03,2.44E-02
90982,5.31E-03,2.44E-02
90983,5.45E-03,2.45E-02
90984,5.74E-03,2.45E-02
90985,5.26E-03,2.45E-02
90986,5.52E-03,2.45E-02
90987,4.65E-03,2.44E-02
90988,5.29E-03,2.44E-02
90989,5.23E-03,2.44E-02
90990,4.44E-03,2.45E-02
90991,6.22E-03,2.41E-02
90992,5.91E-03,2.42E-02
90993,5.31E-03,2.42E-02
90994,5.92E-03,2.26E-02
90995,6.18E-03,2.26E-02
90996,6.20E-03,2.37E-02
90997,7.33E-03,2.37E-02
90998,4.44E-03,2.37E-02
90999,4.96E-03,1.94E-02
91000,5.10E-03,1.96E-02
91001,4.19E-03,1.99E-02
91002,5.09E-03,2.19E-02
91003,4.10E-03,2.20E-02
91004,5.01E-03,2.29E-02
91005,4.95E-03,2.28E-02
91006,5.78E-03,2.26E-02
91007,5.79E-03,2.13E-02
91008,5.71E-03,2.13E-02
91009,5.82E-03,2.12E-02
91010,5.75E-03,2.07E-02
91011,5.76E-03,2.08E-02
91012,5.57E-03,2.06E-02
91013,4.81E-03,1.97E-02
91014,6.18E-03,2.38E-02
91015,5.64E-03,2.37E-02
91016,7.83E-03,2.36E-02
91017,6.04E-03,2.39E-02
91018,5.37E-03,2.41E-02
91019,5.42E-03,2.49E-02
91020,5.45E-03,2.48E-02
91021,5.38E-03,2.49E-02
91022,4.31E-03,2.49E-02
91023,3.93E-03,2.50E-02
91024,5.67E-03,2.49E-02
91025,5.10E-03,2.48E-02
91026,5.15E-03,2.48E-02
91027,5.01E-03,2.48E-02
91028,6.01E-03,2.21E-02
91029,5.13E-03,2.30E-02
91030,4.10E-03,2.40E-02
91031,4.51E-03,2.44E-02
91032,5.39E-03,2.19E-02
91033,4.94E-03,1.94E-02
91034,6.12E-03,2.48E-02
91035,5.57E-03,2.40E-02
91036,4.76E-03,2.44E-02
91037,3.85E-03,2.45E-02
91038,6.00E-03,2.43E-02
91039,5.70E-03,2.45E-02
91040,5.07E-03,2.39E-02
91041,5.84E-03,2.42E-02
91042,6.32E-03,2.35E-02
91043,5.10E-03,2.45E-02
91044,4.01E-03,1.97E-02
91045,5.53E-03,2.05E-02
91046,6.09E-03,2.03E-02
91047,5.19E-03,2.08E-02
91048,5.36E-03,2.06E-02
91049,5.09E-03,2.10E-02
91050,5.06E-03,2.09E-02
91051,5.19E-03,2.14E-02
91052,5.06E-03,2.12E-02
91053,5.22E-03,2.17E-02
91054,5.23E-03,2.15E-02
91055,5.21E-03,2.18E-02
91056,5.02E-03,2.25E-02
91057,3.62E-03,2.22E-02
91058,5.32E-03,2.24E-02
91059,5.00E-03,2.27E-02
91060,4.94E-03,2.40E-02
91061,5.15E-03,2.41E-02
91062,5.39E-03,2.41E-02
91063,5.53E-03,2.40E-02
91064,5.75E-03,2.40E-02
91065,6.50E-03,2.39E-02
91066,6.05E-03,2.40E-02
91067,5.33E-03,2.37E-02
91068,6.05E-03,2.39E-02
91069,5.99E-03,2.37E-02
91070,5.84E-03,2.37E-02
91071,5.86E-03,2.36E-02
91072,6.07E-03,2.36E-02
91073,5.25E-03,2.34E-02
91074,5.53E-03,2.35E-02
91075,5.28E-03,2.32E-02
91076,5.15E-03,2.33E-02
91077,5.74E-03,2.30E-02
91078,5.44E-03,2.31E-02
91079,5.59E-03,2.29E-02
91080,5.76E-03,2.30E-02
91081,5.28E-03,2.27E-02
91082,5.52E-03,2.28E-02
91083,5.43E-03,2.27E-02
91084,5.41E-03,2.20E-02
91085,5.29E-03,2.21E-02
91086,5.47E-03,2.18E-02
91087,5.48E-03,2.19E-02
91088,5.56E-03,2.17E-02
91089,5.53E-03,2.18E-02
91090,5.58E-03,2.16E-02
91091,5.57E-03,2.17E-02
91092,5.65E-03,2.15E-02
91093,5.60E-03,2.16E-02
91094,5.66E-03,2.14E-02
91095,5.97E-03,2.10E-02
91096,5.91E-03,2.11E-02
91097,5.99E-03,2.09E-02
91098,6.00E-03,2.10E-02
91099,5.93E-03,2.08E-02
91100,5.45E-03,2.05E-02
91101,5.53E-03,2.06E-02
91102,5.34E-03,2.03E-02
91103,5.43E-03,2.04E-02
91104,5.30E-03,2.02E-02
91105,5.35E-03,2.02E-02
91106,5.34E-03,2.01E-02
91107,5.29E-03,2.01E-02
91108,5.49E-03,2.00E-02
91109,5.42E-03,2.00E-02
91110,5.48E-03,1.99E-02
91111,5.49E-03,1.99E-02
91112,5.41E-03,1.98E-02
91113,5.47E-03,1.98E-02
91114,5.32E-03,1.97E-02
91115,5.43E-03,1.97E-02
91116,5.23E-03,1.96E-02
91117,5.33E-03,1.96E-02
91118,5.05E-03,1.96E-02
91119,5.17E-03,1.96E-02
91120,4.97E-03,1.96E-02
91121,6.21E-03,2.47E-02
91122,6.30E-03,2.45E-02
91123,6.17E-03,2.46E-02
91124,7.00E-03,2.44E-02
91125,6.36E-03,2.44E-02
91126,6.20E-03,2.38E-02
91127,6.25E-03,2.39E-02
91128,6.05E-03,2.38E-02
91129,6.33E-03,2.37E-02
91130,6.61E-03,2.36E-02
91131,6.21E-03,2.37E-02
91132,6.22E-03,2.37E-02
91133,6.13E-03,2.38E-02
91134,6.18E-03,2.38E-02
91135,6.14E-03,2.39E-02
91136,5.84E-03,2.40E-02
91137,5.92E-03,2.40E-02
91138,5.71E-03,2.41E-02
91139,5.80E-03,2.41E-02
91140,5.72E-03,2.41E-02
91141,4.95E-03,2.45E-02
91142,5.68E-03,2.46E-02
91143,5.44E-03,2.46E-02
91144,5.55E-03,2.47E-02
91145,5.64E-03,2.47E-02
91146,5.53E-03,2.48E-02
91147,5.34E-03,2.49E-02
91148,5.29E-03,2.49E-02
91149,5.38E-03,2.49E-02
91150,5.32E-03,2.49E-02
91151,5.38E-03,2.50E-02
91152,5.61E-03,2.49E-02
91153,5.69E-03,2.49E-02
91154,5.58E-03,2.49E-02
91155,5.59E-03,2.49E-02
91156,5.40E-03,2.49E-02
91157,5.53E-03,2.49E-02
91158,4.99E-03,2.49E-02
91159,5.19E-03,2.49E-02
91160,5.42E-03,2.49E-02
91161,5.30E-03,2.49E-02
91162,5.34E-03,2.49E-02
91163,5.34E-03,2.49E-02
91164,5.20E-03,2.48E-02
91165,5.31E-03,2.48E-02
91166,5.15E-03,2.48E-02
91167,5.03E-03,2.48E-02
91168,5.07E-03,2.48E-02
91169,6.68E-03,2.46E-02
91170,6.17E-03,2.45E-02
91171,5.78E-03,2.46E-02
91172,6.16E-03,2.46E-02
91173,6.17E-03,2.44E-02
91174,5.34E-03,2.46E-02
91175,6.03E-03,2.44E-02
91176,6.42E-03,2.44E-02
91177,5.55E-03,2.44E-02
91178,5.75E-03,2.44E-02
91179,5.14E-03,2.44E-02
91180,5.39E-03,2.44E-02
91181,4.96E-03,2.44E-02
91182,5.83E-03,2.22E-02
91183,6.03E-03,2.22E-02
91184,5.17E-03,1.92E-02
91185,5.00E-03,1.93E-02
91186,4.79E-03,2.27E-02
91187,4.81E-03,2.25E-02
91188,5.39E-03,2.31E-02
91189,4.78E-03,2.37E-02
91190,4.84E-03,2.38E-02
91191,4.99E-03,2.37E-02
91192,5.71E-03,2.23E-02
91193,5.34E-03,2.18E-02
91194,5.66E-03,2.03E-02
91195,5.71E-03,2.04E-02
91196,5.60E-03,2.03E-02
91197,5.10E-03,1.94E-02
91198,6.30E-03,2.42E-02
91199,5.90E-03,2.40E-02
91200,6.82E-03,2.41E-02
91201,6.84E-03,2.40E-02
91202,4.59E-03,2.45E-02
91203,4.82E-03,2.54E-02
91204,4.39E-03,2.54E-02
91205,5.18E-03,2.53E-02
91206,5.18E-03,2.53E-02
91207,5.23E-03,2.52E-02
91208,5.75E-03,2.16E-02
91209,5.79E-03,2.17E-02
91210,5.11E-03,2.40E-02
91211,4.76E-03,2.28E-02
91212,4.46E-03,2.40E-02
91213,4.06E-03,2.44E-02
91214,4.33E-03,2.42E-02
91215,5.61E-03,2.15E-02
91216,5.44E-03,2.43E-02
91217,6.93E-03,2.41E-02
91218,5.39E-03,2.53E-02
91219,5.31E-03,2.53E-02
91220,4.50E-03,2.44E-02
91221,5.63E-03,2.45E-02
91222,6.84E-03,2.36E-02
91223,4.75E-03,2.42E-02
91224,5.04E-03,2.49E-02
91225,5.14E-03,2.49E-02
91226,5.18E-03,2.50E-02
91227,4.01E-03,2.33E-02
91228,5.72E-03,1.98E-02
91229,4.95E-03,1.95E-02
91230,5.70E-03,2.02E-02
91231,6.23E-03,2.00E-02
91232,5.30E-03,2.05E-02
91233,5.44E-03,2.03E-02
91234,5.16E-03,2.08E-02
91235,5.21E-03,2.06E-02
91236,5.14E-03,2.11E-02
91237,5.11E-03,2.09E-02
91238,5.16E-03,2.14E-02
91239,5.17E-03,2.13E-02
91240,4.96E-03,2.17E-02
91241,5.12E-03,2.16E-02
91242,4.15E-03,2.20E-02
91243,5.08E-03,2.19E-02
91244,4.86E-03,2.23E-02
91245,4.56E-03,2.21E-02
91246,4.82E-03,2.24E-02
91247,5.61E-03,2.32E-02
91248,5.10E-03,2.40E-02
91249,5.45E-03,2.40E-02
91250,6.23E-03,2.40E-02
91251,5.42E-03,2.39E-02
91252,5.36E-03,2.37E-02
91253,5.18E-03,2.37E-02
91254,5.71E-03,2.36E-02
91255,5.54E-03,2.37E-02
91256,5.99E-03,2.35E-02
91257,5.95E-03,2.36E-02
91258,5.88E-03,2.34E-02
91259,5.79E-03,2.35E-02
91260,5.84E-03,2.33E-02
91261,5.76E-03,2.33E-02
91262,5.74E-03,2.31E-02
91263,5.83E-03,2.32E-02
91264,5.41E-03,2.30E-02
91265,5.54E-03,2.31E-02
91266,5.38E-03,2.28E-02
91267,5.36E-03,2.29E-02
91268,5.57E-03,2.26E-02
91269,5.49E-03,2.27E-02
91270,5.60E-03,2.25E-02
91271,5.64E-03,2.26E-02
91272,5.48E-03,2.23E-02
91273,5.53E-03,2.24E-02
91274,5.53E-03,2.23E-02
91275,5.44E-03,2.16E-02
91276,5.35E-03,2.17E-02
91277,5.46E-03,2.14E-02
91278,5.50E-03,2.15E-02
91279,5.55E-03,2.13E-02
91280,5.51E-03,2.14E-02
91281,5.55E-03,2.12E-02
91282,5.57E-03,2.13E-02
91283,5.62E-03,2.11E-02
91284,5.56E-03,2.12E-02
91285,5.65E-03,2.10E-02
91286,5.82E-03,2.08E-02
91287,5.89E-03,2.06E-02
91288,5.89E-03,2.07E-02
91289,5.90E-03,2.05E-02
91290,5.94E-03,2.05E-02
91291,5.85E-03,2.04E-02
91292,5.48E-03,2.01E-02
91293,5.54E-03,2.02E-02
91294,5.44E-03,1.99E-02
91295,5.46E-03,2.00E-02
91296,5.39E-03,1.98E-02
91297,5.39E-03,1.99E-02
91298,5.38E-03,1.97E-02
91299,5.34E-03,1.98E-02
91300,5.55E-03,1.96E-02
91301,5.42E-03,1.97E-02
91302,5.57E-03,1.95E-02
91303,5.57E-03,1.96E-02
91304,5.49E-03,1.94E-02
91305,5.53E-03,1.95E-02
91306,5.41E-03,1.93E-02
91307,5.43E-03,1.94E-02
91308,5.35E-03,1.92E-02
91309,5.37E-03,1.93E-02
91310,5.31E-03,1.92E-02
91311,5.31E-03,1.92E-02
91312,5.23E-03,1.93E-02
91313,6.20E-03,2.50E-02
91314,6.25E-03,2.48E-02
91315,6.20E-03,2.49E-02
91316,6.41E-03,2.46E-02
91317,6.38E-03,2.47E-02
91318,6.64E-03,2.45E-02
91319,6.15E-03,2.45E-02
91320,6.46E-03,2.41E-02
91321,6.50E-03,2.42E-02
91322,6.27E-03,2.41E-02
91323,6.41E-03,2.40E-02
91324,6.71E-03,2.40E-02
91325,6.25E-03,2.41E-02
91326,6.30E-03,2.41E-02
91327,6.17E-03,2.42E-02
91328,6.19E-03,2.42E-02
91329,6.02E-03,2.43E-02
91330,6.11E-03,2.43E-02
91331,5.94E-03,2.44E-02
91332,6.00E-03,2.43E-02
91333,5.86E-03,2.45E-02
91334,5.92E-03,2.44E-02
91335,5.86E-03,2.46E-02
91336,5.84E-03,2.45E-02
91337,6.09E-03,2.46E-02
91338,5.89E-03,2.46E-02
91339,4.98E-03,2.48E-02
91340,4.67E-03,2.48E-02
91341,5.03E-03,2.49E-02
91342,5.47E-03,2.51E-02
91343,5.37E-03,2.50E-02
91344,5.51E-03,2.52E-02
91345,5.54E-03,2.51E-02
91346,5.46E-03,2.52E-02
91347,5.30E-03,2.53E-02
91348,5.28E-03,2.53E-02
91349,5.26E-03,2.53E-02
91350,5.21E-03,2.54E-02
91351,5.24E-03,2.53E-02
91352,4.99E-03,2.54E-02
91353,5.46E-03,2.53E-02
91354,4.97E-03,2.54E-02
91355,5.43E-03,2.54E-02
91356,5.53E-03,2.53E-02
91357,5.51E-03,2.53E-02
91358,5.35E-03,2.53E-02
91359,5.46E-03,2.53E-02
91360,5.19E-03,2.53E-02
91361,5.21E-03,2.53E-02
91362,5.35E-03,2.53E-02
91363,5.28E-03,2.53E-02
91364,5.31E-03,2.53E-02
91365,5.34E-03,2.53E-02
91366,5.26E-03,2.53E-02
91367,5.31E-03,2.53E-02
91368,5.25E-03,2.52E-02
91369,5.49E-03,2.51E-02
91370,5.28E-03,2.52E-02
91371,5.96E-03,2.51E-02
91372,5.77E-03,2.50E-02
91373,5.74E-03,2.50E-02
91374,5.98E-03,2.50E-02
91375,5.76E-03,2.49E-02
91376,5.68E-03,2.50E-02
91377,5.91E-03,2.49E-02
91378,5.93E-03,2.49E-02
91379,5.55E-03,2.48E-02
91380,5.77E-03,2.48E-02
91381,5.21E-03,2.48E-02
91382,5.38E-03,2.48E-02
91383,4.86E-03,2.47E-02
91384,5.01E-03,2.48E-02
91385,5.79E-03,2.44E-02
91386,4.91E-03,2.46E-02
91387,5.55E-03,2.44E-02
91388,6.28E-03,2.44E-02
91389,5.22E-03,2.44E-02
91390,5.80E-03,2.18E-02
91391,5.82E-03,2.18E-02
91392,5.27E-03,1.89E-02
91393,5.21E-03,1.91E-02
91394,4.57E-03,2.24E-02
91395,4.69E-03,2.23E-02
91396,5.55E-03,2.28E-02
91397,6.43E-03,2.42E-02
91398,6.03E-03,2.41E-02
91399,6.06E-03,2.40E-02
91400,6.62E-03,2.37E-02
91401,6.91E-03,2.38E-02
91402,5.56E-03,2.37E-02
91403,5.16E-03,2.34E-02
91404,5.38E-03,2.35E-02
91405,5.20E-03,2.34E-02
91406,5.65E-03,2.19E-02
91407,5.53E-03,2.14E-02
91408,5.63E-03,1.99E-02
91409,5.75E-03,2.00E-02
91410,5.59E-03,1.99E-02
91411,5.46E-03,1.90E-02
91412,6.61E-03,2.45E-02
91413,6.01E-03,2.43E-02
91414,6.47E-03,2.42E-02
91415,6.58E-03,2.44E-02
91416,6.54E-03,2.44E-02
91417,5.21E-03,2.54E-02
91418,5.17E-03,2.53E-02
91419,5.19E-03,2.54E-02
91420,5.37E-03,2.57E-02
91421,5.34E-03,2.57E-02
91422,5.60E-03,2.48E-02
91423,5.63E-03,2.12E-02
91424,5.65E-03,2.13E-02
91425,5.84E-03,2.54E-02
91426,5.84E-03,2.55E-02
91427,4.22E-03,2.25E-02
91428,5.25E-03,2.38E-02
91429,5.33E-03,2.35E-02
91430,5.60E-03,2.11E-02
91431,4.55E-03,2.44E-02
91432,6.53E-03,2.45E-02
91433,5.24E-03,2.57E-02
91434,5.31E-03,2.57E-02
91435,5.00E-03,2.44E-02
91436,5.50E-03,2.46E-02
91437,5.16E-03,1.88E-02
91438,6.40E-03,2.34E-02
91439,6.68E-03,2.40E-02
91440,4.14E-03,2.31E-02
91441,2.93E-03,2.31E-02
91442,5.49E-03,1.95E-02
91443,5.31E-03,1.93E-02
91444,5.67E-03,1.99E-02
91445,5.65E-03,1.97E-02
91446,5.38E-03,2.02E-02
91447,5.49E-03,2.01E-02
91448,5.16E-03,2.05E-02
91449,5.28E-03,2.04E-02
91450,5.11E-03,2.08E-02
91451,5.10E-03,2.07E-02
91452,5.16E-03,2.12E-02
91453,5.11E-03,2.10E-02
91454,5.06E-03,2.15E-02
91455,5.09E-03,2.13E-02
91456,4.78E-03,2.18E-02
91457,4.93E-03,2.16E-02
91458,4.70E-03,2.20E-02
91459,4.64E-03,2.19E-02
91460,4.76E-03,2.22E-02
91461,5.22E-03,2.29E-02
91462,5.56E-03,2.38E-02
91463,4.03E-03,2.37E-02
91464,4.94E-03,2.37E-02
91465,5.73E-03,2.37E-02
91466,5.56E-03,2.36E-02
91467,5.61E-03,2.36E-02
91468,5.41E-03,2.36E-02
91469,5.41E-03,2.33E-02
91470,5.26E-03,2.33E-02
91471,5.70E-03,2.32E-02
91472,5.56E-03,2.33E-02
91473,5.83E-03,2.31E-02
91474,5.85E-03,2.32E-02
91475,5.77E-03,2.30E-02
91476,5.83E-03,2.31E-02
91477,5.73E-03,2.29E-02
91478,5.75E-03,2.29E-02
91479,5.68E-03,2.27E-02
91480,5.73E-03,2.28E-02
91481,5.49E-03,2.26E-02
91482,5.60E-03,2.27E-02
91483,5.39E-03,2.24E-02
91484,5.40E-03,2.25E-02
91485,5.55E-03,2.23E-02
91486,5.48E-03,2.23E-02
91487,5.58E-03,2.21E-02
91488,5.61E-03,2.22E-02
91489,5.56E-03,2.19E-02
91490,5.57E-03,2.20E-02
91491,5.57E-03,2.19E-02
91492,5.52E-03,2.12E-02
91493,5.51E-03,2.13E-02
91494,5.50E-03,2.11E-02
91495,5.50E-03,2.11E-02
91496,5.56E-03,2.09E-02
91497,5.53E-03,2.10E-02
91498,5.61E-03,2.08E-02
91499,5.60E-03,2.09E-02
91500,5.65E-03,2.07E-02
91501,5.65E-03,2.08E-02
91502,5.68E-03,2.05E-02
91503,5.65E-03,2.06E-02
91504,5.72E-03,2.04E-02
91505,5.71E-03,2.04E-02
91506,5.82E-03,2.02E-02
91507,5.77E-03,2.03E-02
91508,5.82E-03,2.01E-02
91509,5.85E-03,2.01E-02
91510,5.74E-03,2.00E-02
91511,5.50E-03,1.97E-02
91512,5.53E-03,1.98E-02
91513,5.46E-03,1.96E-02
91514,5.48E-03,1.96E-02
91515,5.38E-03,1.94E-02
91516,5.42E-03,1.95E-02
91517,5.42E-03,1.93E-02
91518,5.36E-03,1.94E-02
91519,5.58E-03,1.92E-02
91520,5.45E-03,1.93E-02
91521,5.66E-03,1.92E-02
91522,5.63E-03,1.92E-02
91523,5.54E-03,1.91E-02
91524,5.54E-03,1.91E-02
91525,5.47E-03,1.90E-02
91526,5.45E-03,1.90E-02
91527,5.46E-03,1.89E-02
91528,5.43E-03,1.89E-02
91529,5.54E-03,1.89E-02
91530,5.46E-03,1.89E-02
91531,5.68E-03,1.89E-02
91532,6.08E-03,2.53E-02
91533,5.92E-03,2.53E-02
91534,6.22E-03,2.51E-02
91535,6.14E-03,2.52E-02
91536,6.26E-03,2.49E-02
91537,6.25E-03,2.50E-02
91538,4.98E-03,2.48E-02
91539,6.17E-03,2.48E-02
91540,6.90E-03,2.45E-02
91541,6.66E-03,2.45E-02
91542,6.81E-03,2.44E-02
91543,5.83E-03,2.42E-02
91544,6.35E-03,2.44E-02
91545,6.44E-03,2.44E-02
91546,6.25E-03,2.45E-02
91547,6.33E-03,2.44E-02
91548,6.14E-03,2.46E-02
91549,6.15E-03,2.45E-02
91550,6.01E-03,2.47E-02
91551,6.11E-03,2.46E-02
91552,5.94E-03,2.48E-02
91553,5.90E-03,2.47E-02
91554,5.87E-03,2.49E-02
91555,5.89E-03,2.48E-02
91556,5.93E-03,2.50E-02
91557,5.88E-03,2.49E-02
91558,6.40E-03,2.51E-02
91559,6.01E-03,2.50E-02
91560,5.43E-03,2.52E-02
91561,6.33E-03,2.51E-02
91562,5.27E-03,2.53E-02
91563,5.34E-03,2.55E-02
91564,5.32E-03,2.55E-02
91565,5.46E-03,2.56E-02
91566,5.45E-03,2.56E-02
91567,5.39E-03,2.57E-02
91568,5.29E-03,2.58E-02
91569,5.27E-03,2.58E-02
91570,5.21E-03,2.58E-02
91571,5.16E-03,2.58E-02
91572,5.26E-03,2.58E-02
91573,5.18E-03,2.58E-02
91574,5.12E-03,2.58E-02
91575,5.04E-03,2.58E-02
91576,4.88E-03,2.58E-02
91577,5.39E-03,2.58E-02
91578,5.28E-03,2.58E-02
91579,5.46E-03,2.58E-02
91580,5.43E-03,2.58E-02
91581,5.32E-03,2.57E-02
91582,5.39E-03,2.57E-02
91583,5.25E-03,2.57E-02
91584,5.26E-03,2.57E-02
91585,5.31E-03,2.57E-02
91586,5.26E-03,2.58E-02
91587,5.32E-03,2.57E-02
91588,5.32E-03,2.57E-02
91589,5.31E-03,2.57E-02
91590,5.31E-03,2.57E-02
91591,5.28E-03,2.57E-02
91592,5.31E-03,2.56E-02
91593,5.49E-03,2.56E-02
91594,5.41E-03,2.56E-02
91595,5.74E-03,2.55E-02
91596,5.67E-03,2.55E-02
91597,5.73E-03,2.54E-02
91598,5.78E-03,2.55E-02
91599,5.75E-03,2.54E-02
91600,5.69E-03,2.54E-02
91601,5.72E-03,2.53E-02
91602,5.76E-03,2.53E-02
91603,5.51E-03,2.52E-02
91604,5.68E-03,2.53E-02
91605,5.29E-03,2.52E-02
91606,5.42E-03,2.52E-02
91607,5.14E-03,2.51E-02
91608,5.12E-03,2.51E-02
91609,5.56E-03,2.49E-02
91610,5.34E-03,2.50E-02
91611,5.51E-03,2.48E-02
91612,5.60E-03,2.48E-02
91613,5.02E-03,2.47E-02
91614,5.16E-03,2.47E-02
91615,5.66E-03,2.45E-02
91616,5.25E-03,2.45E-02
91617,7.49E-03,2.42E-02
91618,6.29E-03,2.44E-02
91619,5.47E-03,2.42E-02
91620,6.03E-03,2.42E-02
91621,6.12E-03,2.40E-02
91622,4.40E-03,2.38E-02
91623,5.77E-03,2.39E-02
91624,5.90E-03,2.39E-02
91625,5.70E-03,2.53E-02
91626,5.71E-03,2.50E-02
91627,5.73E-03,2.14E-02
91628,5.67E-03,2.14E-02
91629,5.76E-03,2.55E-02
91630,4.11E-03,2.29E-02
91631,5.70E-03,2.30E-02
91632,5.29E-03,1.89E-02
91633,4.00E-03,2.26E-02
91634,4.21E-03,2.23E-02
91635,4.24E-03,2.37E-02
91636,5.38E-03,2.34E-02
91637,5.95E-03,2.34E-02
91638,5.93E-03,2.34E-02
91639,5.84E-03,2.33E-02
91640,5.33E-03,2.30E-02
91641,5.68E-03,2.15E-02
91642,5.59E-03,2.10E-02
91643,5.65E-03,1.96E-02
91644,5.73E-03,1.96E-02
91645,5.60E-03,1.95E-02
91646,6.05E-03,2.49E-02
91647,4.94E-03,2.45E-02
91648,6.32E-03,2.45E-02
91649,6.32E-03,2.48E-02
91650,6.36E-03,2.47E-02
91651,5.23E-03,2.58E-02
91652,5.30E-03,2.57E-02
91653,5.20E-03,2.58E-02
91654,5.32E-03,2.61E-02
91655,5.34E-03,2.61E-02
91656,4.91E-03,2.34E-02
91657,5.39E-03,2.34E-02
91658,5.60E-03,2.48E-02
91659,5.64E-03,2.08E-02
91660,5.64E-03,2.09E-02
91661,5.27E-03,1.87E-02
91662,5.63E-03,2.07E-02
91663,6.29E-03,2.48E-02
91664,6.47E-03,2.45E-02
91665,5.83E-03,2.47E-02
91666,5.65E-03,2.33E-02
91667,6.30E-03,2.38E-02
91668,5.64E-03,2.53E-02
91669,5.69E-03,2.56E-02
91670,6.38E-03,2.42E-02
91671,4.31E-03,2.27E-02
91672,3.76E-03,2.27E-02
91673,5.45E-03,1.92E-02
91674,5.39E-03,1.90E-02
91675,5.59E-03,1.96E-02
91676,5.56E-03,1.94E-02
91677,5.39E-03,1.99E-02
91678,5.49E-03,1.98E-02
91679,5.22E-03,2.03E-02
91680,5.34E-03,2.01E-02
91681,5.15E-03,2.06E-02
91682,5.16E-03,2.04E-02
91683,5.15E-03,2.09E-02
91684,5.13E-03,2.08E-02
91685,5.10E-03,2.12E-02
91686,5.14E-03,2.11E-02
91687,4.83E-03,2.15E-02
91688,4.95E-03,2.14E-02
91689,4.70E-03,2.18E-02
91690,4.74E-03,2.17E-02
91691,4.66E-03,2.19E-02
91692,3.63E-03,2.25E-02
91693,3.40E-03,2.24E-02
91694,4.53E-03,2.27E-02
91695,4.76E-03,2.34E-02
91696,5.51E-03,2.35E-02
91697,5.19E-03,2.35E-02
91698,6.29E-03,2.35E-02
91699,5.18E-03,2.36E-02
91700,5.17E-03,2.35E-02
91701,5.43E-03,2.35E-02
91702,5.84E-03,2.35E-02
91703,5.66E-03,2.35E-02
91704,5.26E-03,2.34E-02
91705,5.12E-03,2.34E-02
91706,5.57E-03,2.34E-02
91707,5.57E-03,2.32E-02
91708,5.67E-03,2.33E-02
91709,5.50E-03,2.32E-02
91710,5.46E-03,2.30E-02
91711,5.40E-03,2.30E-02
91712,5.70E-03,2.29E-02
91713,5.61E-03,2.29E-02
91714,5.84E-03,2.27E-02
91715,5.83E-03,2.28E-02
91716,5.77E-03,2.26E-02
91717,5.79E-03,2.27E-02
91718,5.71E-03,2.25E-02
91719,5.74E-03,2.26E-02
91720,5.65E-03,2.24E-02
91721,5.69E-03,2.24E-02
91722,5.53E-03,2.22E-02
91723,5.57E-03,2.23E-02
91724,5.49E-03,2.20E-02
91725,5.51E-03,2.21E-02
91726,5.58E-03,2.19E-02
91727,5.51E-03,2.20E-02
91728,5.54E-03,2.17E-02
91729,5.59E-03,2.18E-02
91730,5.61E-03,2.16E-02
91731,5.58E-03,2.16E-02
91732,5.61E-03,2.15E-02
91733,5.53E-03,2.08E-02
91734,5.54E-03,2.09E-02
91735,5.53E-03,2.07E-02
91736,5.56E-03,2.07E-02
91737,5.55E-03,2.05E-02
91738,5.54E-03,2.06E-02
91739,5.56E-03,2.04E-02
91740,5.56E-03,2.05E-02
91741,5.59E-03,2.03E-02
91742,5.58E-03,2.04E-02
91743,5.69E-03,2.01E-02
91744,5.62E-03,2.02E-02
91745,5.73E-03,2.00E-02
91746,5.72E-03,2.00E-02
91747,5.78E-03,1.98E-02
91748,5.76E-03,1.99E-02
91749,5.75E-03,1.97E-02
91750,5.80E-03,1.98E-02
91751,5.70E-03,1.97E-02
91752,5.57E-03,1.93E-02
91753,5.57E-03,1.94E-02
91754,5.50E-03,1.92E-02
91755,5.55E-03,1.93E-02
91756,5.37E-03,1.91E-02
91757,5.42E-03,1.91E-02
91758,5.45E-03,1.90E-02
91759,5.42E-03,1.90E-02
91760,5.60E-03,1.89E-02
91761,5.49E-03,1.89E-02
91762,5.60E-03,1.88E-02
91763,5.63E-03,1.88E-02
91764,5.55E-03,1.87E-02
91765,5.56E-03,1.87E-02
91766,5.51E-03,1.86E-02
91767,5.51E-03,1.87E-02
91768,5.51E-03,1.85E-02
91769,5.50E-03,1.86E-02
91770,5.73E-03,1.85E-02
91771,5.55E-03,1.85E-02
91772,6.56E-03,1.86E-02
91773,5.97E-03,2.11E-02
91774,5.81E-03,2.09E-02
91775,5.45E-03,2.08E-02
91776,5.35E-03,2.05E-02
91777,4.86E-03,2.03E-02
91778,5.11E-03,2.02E-02
91779,5.33E-03,2.01E-02
91780,5.27E-03,2.00E-02
91781,5.29E-03,1.98E-02
91782,5.29E-03,1.97E-02
91783,5.28E-03,1.96E-02
91784,5.25E-03,1.95E-02
91785,5.16E-03,1.93E-02
91786,5.06E-03,1.92E-02
91787,4.48E-03,1.89E-02
91788,5.01E-03,1.91E-02
91789,5.87E-03,2.58E-02
91790,5.98E-03,2.57E-02
91791,5.93E-03,2.57E-02
91792,6.03E-03,2.55E-02
91793,6.06E-03,2.56E-02
91794,6.13E-03,2.54E-02
91795,6.13E-03,2.54E-02
91796,6.26E-03,2.52E-02
91797,6.23E-03,2.53E-02
91798,5.65E-03,2.50E-02
91799,6.12E-03,2.51E-02
91800,7.06E-03,2.48E-02
91801,8.11E-03,2.48E-02
91802,6.76E-03,2.47E-02
91803,6.95E-03,2.47E-02
91804,5.98E-03,2.46E-02
91805,5.72E-03,2.46E-02
91806,6.13E-03,2.46E-02
91807,6.25E-03,2.48E-02
91808,6.32E-03,2.47E-02
91809,6.20E-03,2.48E-02
91810,6.23E-03,2.48E-02
91811,6.10E-03,2.50E-02
91812,6.16E-03,2.49E-02
91813,5.93E-03,2.51E-02
91814,6.02E-03,2.50E-02
91815,5.90E-03,2.52E-02
91816,5.85E-03,2.51E-02
91817,5.83E-03,2.53E-02
91818,5.86E-03,2.52E-02
91819,5.84E-03,2.54E-02
91820,5.82E-03,2.54E-02
91821,5.98E-03,2.55E-02
91822,5.93E-03,2.55E-02
91823,5.69E-03,2.56E-02
91824,5.83E-03,2.55E-02
91825,5.40E-03,2.57E-02
91826,5.31E-03,2.59E-02
91827,5.27E-03,2.59E-02
91828,5.40E-03,2.60E-02
91829,5.35E-03,2.60E-02
91830,5.35E-03,2.61E-02
91831,5.36E-03,2.61E-02
91832,5.24E-03,2.62E-02
91833,5.29E-03,2.62E-02
91834,5.26E-03,2.62E-02
91835,5.26E-03,2.62E-02
91836,5.20E-03,2.62E-02
91837,5.23E-03,2.62E-02
91838,5.15E-03,2.62E-02
91839,5.20E-03,2.62E-02
91840,5.18E-03,2.62E-02
91841,5.15E-03,2.62E-02
91842,5.31E-03,2.62E-02
91843,5.26E-03,2.62E-02
91844,5.44E-03,2.62E-02
91845,5.39E-03,2.62E-02
91846,5.32E-03,2.62E-02
91847,5.35E-03,2.62E-02
91848,5.30E-03,2.62E-02
91849,5.28E-03,2.62E-02
91850,5.34E-03,2.62E-02
91851,5.32E-03,2.62E-02
91852,5.40E-03,2.61E-02
91853,5.33E-03,2.62E-02
91854,5.36E-03,2.61E-02
91855,5.40E-03,2.61E-02
91856,5.34E-03,2.61E-02
91857,5.49E-03,2.60E-02
91858,5.36E-03,2.61E-02
91859,5.41E-03,2.60E-02
91860,5.70E-03,2.60E-02
91861,5.60E-03,2.60E-02
91862,5.68E-03,2.59E-02
91863,5.73E-03,2.59E-02
91864,5.68E-03,2.58E-02
91865,5.64E-03,2.58E-02
91866,5.68E-03,2.57E-02
91867,5.69E-03,2.58E-02
91868,5.50E-03,2.57E-02
91869,5.62E-03,2.57E-02
91870,5.34E-03,2.56E-02
91871,5.44E-03,2.56E-02
91872,5.31E-03,2.54E-02
91873,5.30E-03,2.55E-02
91874,5.44E-03,2.53E-02
91875,5.35E-03,2.53E-02
91876,5.50E-03,2.51E-02
91877,5.51E-03,2.52E-02
91878,5.38E-03,2.50E-02
91879,5.43E-03,2.51E-02
91880,5.76E-03,2.48E-02
91881,5.45E-03,2.49E-02
91882,6.19E-03,2.46E-02
91883,6.11E-03,2.47E-02
91884,5.88E-03,2.45E-02
91885,5.93E-03,2.46E-02
91886,5.86E-03,2.43E-02
91887,5.67E-03,2.44E-02
91888,5.61E-03,2.42E-02
91889,5.83E-03,2.43E-02
91890,6.64E-03,2.40E-02
91891,5.71E-03,2.42E-02
91892,6.10E-03,2.38E-02
91893,4.84E-03,2.38E-02
91894,5.47E-03,2.38E-02
91895,6.22E-03,2.34E-02
91896,5.19E-03,2.36E-02
91897,5.44E-03,2.34E-02
91898,5.46E-03,2.34E-02
91899,5.48E-03,2.33E-02
91900,5.46E-03,2.33E-02
91901,5.44E-03,2.33E-02
91902,5.36E-03,2.32E-02
91903,5.30E-03,2.32E-02
91904,5.24E-03,2.31E-02
91905,4.23E-03,2.29E-02
91906,4.77E-03,2.30E-02
91907,5.09E-03,2.31E-02
91908,4.87E-03,2.18E-02
91909,4.85E-03,2.21E-02
91910,5.19E-03,2.20E-02
91911,5.70E-03,2.51E-02
91912,5.64E-03,2.10E-02
91913,5.63E-03,2.10E-02
91914,5.71E-03,1.85E-02
91915,4.76E-03,1.82E-02
91916,4.87E-03,1.82E-02
91917,4.61E-03,1.83E-02
91918,4.72E-03,2.18E-02
91919,4.19E-03,2.18E-02
91920,5.68E-03,2.32E-02
91921,5.77E-03,2.32E-02
91922,5.49E-03,2.31E-02
91923,5.75E-03,2.30E-02
91924,5.68E-03,2.11E-02
91925,5.62E-03,2.06E-02
91926,5.65E-03,1.92E-02
91927,5.66E-03,1.92E-02
91928,5.63E-03,1.91E-02
91929,6.29E-03,2.49E-02
91930,6.11E-03,2.51E-02
91931,6.12E-03,2.51E-02
91932,5.42E-03,2.66E-02
91933,5.64E-03,2.16E-02
91934,5.87E-03,2.10E-02
91935,5.99E-03,2.12E-02
91936,5.86E-03,2.49E-02
91937,5.67E-03,2.04E-02
91938,5.67E-03,2.05E-02
91939,4.56E-03,2.19E-02
91940,4.43E-03,2.20E-02
91941,5.71E-03,2.03E-02
91942,5.80E-03,2.31E-02
91943,6.17E-03,2.36E-02
91944,6.17E-03,2.52E-02
91945,5.86E-03,2.15E-02
91946,5.58E-03,2.16E-02
91947,5.75E-03,2.58E-02
91948,5.97E-03,2.39E-02
91949,5.57E-03,2.54E-02
91950,5.59E-03,2.56E-02
91951,4.71E-03,2.43E-02
91952,5.67E-03,2.45E-02
91953,5.40E-03,2.62E-02
91954,5.00E-03,1.83E-02
91955,5.30E-03,2.62E-02
91956,4.38E-03,1.83E-02
91957,4.20E-03,1.81E-02
91958,4.91E-03,1.80E-02
91959,5.32E-03,1.86E-02
91960,5.12E-03,1.84E-02
91961,5.47E-03,1.90E-02
91962,5.43E-03,1.88E-02
91963,5.54E-03,1.93E-02
91964,5.52E-03,1.91E-02
91965,5.50E-03,1.97E-02
91966,5.53E-03,1.95E-02
91967,5.25E-03,2.00E-02
91968,5.42E-03,1.99E-02
91969,5.16E-03,2.04E-02
91970,5.20E-03,2.02E-02
91971,5.20E-03,2.07E-02
91972,5.18E-03,2.05E-02
91973,5.14E-03,2.10E-02
91974,5.19E-03,2.08E-02
91975,4.91E-03,2.13E-02
91976,5.00E-03,2.12E-02
91977,4.71E-03,2.16E-02
91978,4.83E-03,2.14E-02
91979,4.61E-03,2.17E-02
91980,4.25E-03,2.21E-02
91981,4.11E-03,2.24E-02
91982,4.29E-03,2.23E-02
91983,4.18E-03,2.26E-02
91984,4.26E-03,1.36E-02
91985,4.18E-03,1.38E-02
91986,4.40E-03,1.45E-02
91987,4.90E-03,1.47E-02
91988,5.12E-03,1.49E-02
91989,5.27E-03,1.51E-02
91990,5.38E-03,1.53E-02
91991,5.40E-03,1.55E-02
91992,5.49E-03,1.57E-02
91993,5.51E-03,1.59E-02
91994,5.54E-03,1.61E-02
91995,5.60E-03,1.63E-02
91996,5.65E-03,1.65E-02
91997,5.66E-03,1.67E-02
91998,5.64E-03,1.69E-02
91999,5.69E-03,1.71E-02
92000,5.74E-03,1.73E-02
92001,5.83E-03,1.75E-02
92002,6.19E-03,1.78E-02
92003,5.94E-03,1.77E-02
92004,5.72E-03,1.81E-02
92005,5.26E-03,1.85E-02
92006,5.40E-03,1.88E-02
92007,6.20E-03,1.86E-02
92008,5.04E-03,1.91E-02
92009,4.88E-03,1.89E-02
92010,5.25E-03,1.93E-02
92011,5.24E-03,1.92E-02
92012,5.37E-03,1.96E-02
92013,5.34E-03,1.94E-02
92014,5.38E-03,1.98E-02
92015,5.38E-03,1.97E-02
92016,5.37E-03,2.00E-02
92017,5.38E-03,1.99E-02
92018,5.64E-03,2.03E-02
92019,5.36E-03,2.02E-02
92020,6.66E-03,2.06E-02
92021,6.80E-03,2.05E-02
92022,5.70E-03,2.08E-02
92023,5.32E-03,2.07E-02
92024,5.81E-03,2.10E-02
92025,6.03E-03,2.13E-02
92026,5.12E-03,2.16E-02
92027,4.85E-03,2.19E-02
92028,4.65E-03,2.20E-02
92029,6.04E-03,2.22E-02
92030,6.52E-03,2.23E-02
92031,6.29E-03,2.24E-02
92032,6.15E-03,2.25E-02
92033,6.11E-03,2.25E-02
92034,6.04E-03,2.27E-02
92035,6.09E-03,2.26E-02
92036,4.18E-03,2.27E-02
92037,4.64E-03,2.27E-02
92038,5.21E-03,2.28E-02
92039,5.74E-03,2.28E-02
92040,5.29E-03,2.29E-02
92041,5.28E-03,2.29E-02
92042,5.38E-03,2.30E-02
92043,5.33E-03,2.30E-02
92044,5.39E-03,2.31E-02
92045,5.34E-03,2.31E-02
92046,5.31E-03,2.31E-02
92047,5.39E-03,2.31E-02
92048,4.48E-03,2.31E-02
92049,4.90E-03,2.31E-02
92050,4.87E-03,2.32E-02
92051,4.95E-03,2.32E-02
92052,5.46E-03,2.32E-02
92053,5.43E-03,2.32E-02
92054,5.67E-03,2.32E-02
92055,5.59E-03,2.33E-02
92056,5.54E-03,2.32E-02
92057,5.61E-03,2.32E-02
92058,5.83E-03,2.32E-02
92059,5.63E-03,2.32E-02
92060,5.87E-03,2.32E-02
92061,5.45E-03,2.31E-02
92062,5.42E-03,2.31E-02
92063,5.61E-03,2.31E-02
92064,5.57E-03,2.29E-02
92065,5.66E-03,2.29E-02
92066,5.51E-03,2.28E-02
92067,5.51E-03,2.28E-02
92068,5.49E-03,2.27E-02
92069,5.49E-03,2.27E-02
92070,5.57E-03,2.26E-02
92071,5.52E-03,2.27E-02
92072,5.68E-03,2.25E-02
92073,5.68E-03,2.25E-02
92074,5.78E-03,2.24E-02
92075,5.75E-03,2.24E-02
92076,5.75E-03,2.22E-02
92077,5.76E-03,2.23E-02
92078,5.65E-03,2.21E-02
92079,5.66E-03,2.22E-02
92080,5.63E-03,2.20E-02
92081,5.61E-03,2.20E-02
92082,5.52E-03,2.18E-02
92083,5.54E-03,2.19E-02
92084,5.52E-03,2.17E-02
92085,5.53E-03,2.17E-02
92086,5.60E-03,2.15E-02
92087,5.55E-03,2.16E-02
92088,5.55E-03,2.13E-02
92089,5.55E-03,2.14E-02
92090,5.62E-03,2.12E-02
92091,5.59E-03,2.12E-02
92092,5.62E-03,2.11E-02
92093,5.53E-03,2.04E-02
92094,5.58E-03,2.05E-02
92095,5.56E-03,2.03E-02
92096,5.53E-03,2.04E-02
92097,5.52E-03,2.01E-02
92098,5.58E-03,2.02E-02
92099,5.60E-03,2.00E-02
92100,5.59E-03,2.01E-02
92101,5.64E-03,1.99E-02
92102,5.62E-03,2.00E-02
92103,5.65E-03,1.97E-02
92104,5.63E-03,1.98E-02
92105,5.70E-03,1.96E-02
92106,5.70E-03,1.96E-02
92107,5.73E-03,1.94E-02
92108,5.72E-03,1.95E-02
92109,5.76E-03,1.93E-02
92110,5.75E-03,1.94E-02
92111,5.71E-03,1.93E-02
92112,5.61E-03,1.90E-02
92113,5.60E-03,1.90E-02
92114,5.54E-03,1.88E-02
92115,5.59E-03,1.89E-02
92116,5.42E-03,1.87E-02
92117,5.52E-03,1.87E-02
92118,5.48E-03,1.86E-02
92119,5.46E-03,1.86E-02
92120,5.61E-03,1.85E-02
92121,5.56E-03,1.86E-02
92122,5.62E-03,1.84E-02
92123,5.61E-03,1.85E-02
92124,5.53E-03,1.83E-02
92125,5.58E-03,1.84E-02
92126,5.58E-03,1.83E-02
92127,5.56E-03,1.83E-02
92128,5.57E-03,1.82E-02
92129,5.59E-03,1.82E-02
92130,5.75E-03,1.82E-02
92131,5.62E-03,1.82E-02
92132,5.62E-03,1.81E-02
92133,6.57E-03,1.82E-02
92134,6.65E-03,2.07E-02
92135,6.18E-03,2.09E-02
92136,4.64E-03,2.05E-02
92137,5.42E-03,2.06E-02
92138,5.10E-03,2.02E-02
92139,5.08E-03,2.04E-02
92140,5.20E-03,2.00E-02
92141,5.26E-03,2.01E-02
92142,5.25E-03,1.97E-02
92143,5.26E-03,1.99E-02
92144,5.22E-03,1.95E-02
92145,5.22E-03,1.96E-02
92146,5.12E-03,1.92E-02
92147,5.18E-03,1.93E-02
92148,4.97E-03,1.89E-02
92149,4.99E-03,1.91E-02
92150,5.85E-03,1.86E-02
92151,5.38E-03,1.88E-02
92152,5.51E-03,1.83E-02
92153,5.59E-03,1.85E-02
92154,5.77E-03,1.80E-02
92155,4.85E-03,1.82E-02
92156,5.97E-03,1.76E-02
92157,6.25E-03,1.78E-02
92158,5.70E-03,1.73E-02
92159,5.80E-03,1.75E-02
92160,5.69E-03,1.69E-02
92161,5.72E-03,1.71E-02
92162,5.69E-03,1.65E-02
92163,5.66E-03,1.67E-02
92164,5.54E-03,1.61E-02
92165,5.62E-03,1.63E-02
92166,5.51E-03,1.56E-02
92167,5.52E-03,1.59E-02
92168,5.38E-03,1.52E-02
92169,5.37E-03,1.54E-02
92170,5.15E-03,1.48E-02
92171,5.25E-03,1.50E-02
92172,4.69E-03,1.45E-02
92173,4.97E-03,1.47E-02
92174,6.62E-03,1.41E-02
92175,5.95E-03,1.43E-02
92176,4.88E-03,1.37E-02
92177,6.02E-03,1.38E-02
92178,5.26E-03,1.33E-02
92179,4.88E-03,1.35E-02
92180,5.23E-03,1.30E-02
92181,5.63E-03,1.31E-02
92182,5.95E-03,2.60E-02
92183,5.82E-03,2.60E-02
92184,5.93E-03,2.60E-02
92185,5.92E-03,2.58E-02
92186,5.94E-03,2.59E-02
92187,6.11E-03,2.56E-02
92188,6.13E-03,2.57E-02
92189,6.27E-03,2.55E-02
92190,6.26E-03,2.55E-02
92191,7.15E-03,2.53E-02
92192,6.37E-03,2.54E-02
92193,7.28E-03,2.51E-02
92194,7.80E-03,2.52E-02
92195,7.55E-03,2.50E-02
92196,7.12E-03,2.51E-02
92197,6.38E-03,2.49E-02
92198,7.46E-03,2.49E-02
92199,6.28E-03,2.49E-02
92200,6.12E-03,2.51E-02
92201,6.11E-03,2.51E-02
92202,6.17E-03,2.52E-02
92203,6.11E-03,2.52E-02
92204,6.03E-03,2.53E-02
92205,6.12E-03,2.53E-02
92206,5.92E-03,2.55E-02
92207,5.91E-03,2.54E-02
92208,5.85E-03,2.56E-02
92209,5.83E-03,2.55E-02
92210,5.75E-03,2.57E-02
92211,5.81E-03,2.56E-02
92212,5.81E-03,2.58E-02
92213,5.78E-03,2.58E-02
92214,5.88E-03,2.59E-02
92215,5.87E-03,2.59E-02
92216,5.67E-03,2.60E-02
92217,5.76E-03,2.60E-02
92218,5.49E-03,2.61E-02
92219,5.30E-03,2.64E-02
92220,5.27E-03,2.63E-02
92221,5.26E-03,2.63E-02
92222,5.41E-03,2.65E-02
92223,5.32E-03,2.64E-02
92224,5.32E-03,2.66E-02
92225,5.37E-03,2.65E-02
92226,5.29E-03,2.66E-02
92227,5.27E-03,2.66E-02
92228,5.26E-03,2.66E-02
92229,5.26E-03,2.66E-02
92230,5.31E-03,2.66E-02
92231,5.29E-03,2.66E-02
92232,5.27E-03,2.67E-02
92233,5.29E-03,2.66E-02
92234,5.30E-03,2.67E-02
92235,5.25E-03,2.67E-02
92236,5.31E-03,2.67E-02
92237,5.33E-03,2.67E-02
92238,5.41E-03,2.66E-02
92239,5.38E-03,2.66E-02
92240,5.32E-03,2.66E-02
92241,5.38E-03,2.66E-02
92242,5.33E-03,2.66E-02
92243,5.30E-03,2.66E-02
92244,5.37E-03,2.66E-02
92245,5.33E-03,2.66E-02
92246,5.34E-03,2.66E-02
92247,5.40E-03,2.66E-02
92248,5.41E-03,2.66E-02
92249,5.38E-03,2.65E-02
92250,5.43E-03,2.65E-02
92251,5.40E-03,2.65E-02
92252,5.36E-03,2.65E-02
92253,5.48E-03,2.65E-02
92254,5.41E-03,2.65E-02
92255,5.63E-03,2.64E-02
92256,5.56E-03,2.64E-02
92257,5.60E-03,2.63E-02
92258,5.68E-03,2.64E-02
92259,5.63E-03,2.63E-02
92260,5.62E-03,2.63E-02
92261,5.65E-03,2.62E-02
92262,5.62E-03,2.62E-02
92263,5.55E-03,2.61E-02
92264,5.58E-03,2.61E-02
92265,5.43E-03,2.60E-02
92266,5.47E-03,2.60E-02
92267,5.41E-03,2.58E-02
92268,5.41E-03,2.59E-02
92269,5.45E-03,2.57E-02
92270,5.42E-03,2.57E-02
92271,5.48E-03,2.55E-02
92272,5.51E-03,2.56E-02
92273,5.52E-03,2.54E-02
92274,5.48E-03,2.54E-02
92275,5.79E-03,2.52E-02
92276,5.63E-03,2.53E-02
92277,5.94E-03,2.50E-02
92278,5.93E-03,2.51E-02
92279,5.77E-03,2.49E-02
92280,5.90E-03,2.49E-02
92281,5.82E-03,2.47E-02
92282,5.73E-03,2.48E-02
92283,5.79E-03,2.45E-02
92284,5.82E-03,2.46E-02
92285,6.05E-03,2.43E-02
92286,5.73E-03,2.44E-02
92287,6.67E-03,2.42E-02
92288,6.93E-03,2.42E-02
92289,5.85E-03,2.40E-02
92290,5.86E-03,2.41E-02
92291,6.60E-03,2.37E-02
92292,5.78E-03,2.39E-02
92293,5.56E-03,2.36E-02
92294,5.71E-03,2.37E-02
92295,5.54E-03,2.35E-02
92296,5.55E-03,2.36E-02
92297,5.45E-03,2.34E-02
92298,5.50E-03,2.35E-02
92299,5.38E-03,2.33E-02
92300,5.44E-03,2.34E-02
92301,5.35E-03,2.32E-02
92302,5.34E-03,2.33E-02
92303,6.40E-03,2.29E-02
92304,6.44E-03,2.30E-02
92305,6.19E-03,2.28E-02
92306,6.20E-03,2.29E-02
92307,6.30E-03,2.26E-02
92308,6.20E-03,2.27E-02
92309,6.24E-03,2.24E-02
92310,6.57E-03,2.25E-02
92311,5.20E-03,2.22E-02
92312,4.89E-03,2.23E-02
92313,5.12E-03,2.20E-02
92314,5.59E-03,2.21E-02
92315,5.49E-03,2.18E-02
92316,6.07E-03,2.14E-02
92317,5.64E-03,2.51E-02
92318,5.74E-03,2.07E-02
92319,5.74E-03,2.06E-02
92320,4.22E-03,1.80E-02
92321,4.55E-03,2.17E-02
92322,4.46E-03,2.18E-02
92323,5.09E-03,1.28E-02
92324,5.60E-03,2.29E-02
92325,5.66E-03,2.29E-02
92326,5.58E-03,2.28E-02
92327,5.69E-03,2.07E-02
92328,5.71E-03,2.02E-02
92329,5.66E-03,1.88E-02
92330,5.68E-03,1.88E-02
92331,5.67E-03,1.87E-02
92332,5.98E-03,2.34E-02
92333,5.32E-03,1.29E-02
92334,5.24E-03,1.27E-02
92335,6.26E-03,2.52E-02
92336,5.95E-03,2.55E-02
92337,5.91E-03,2.55E-02
92338,5.71E-03,2.18E-02
92339,6.01E-03,2.11E-02
92340,5.92E-03,2.13E-02
92341,7.34E-03,2.48E-02
92342,5.74E-03,2.50E-02
92343,5.84E-03,2.61E-02
92344,5.73E-03,2.00E-02
92345,5.95E-03,2.37E-02
92346,6.13E-03,2.55E-02
92347,5.78E-03,2.16E-02
92348,5.66E-03,2.18E-02
92349,5.78E-03,2.41E-02
92350,5.65E-03,2.59E-02
92351,5.49E-03,2.44E-02
92352,5.42E-03,2.54E-02
92353,5.41E-03,2.57E-02
92354,4.52E-03,1.77E-02
92355,4.29E-03,1.77E-02
92356,4.56E-03,1.77E-02
92357,5.41E-03,1.83E-02
92358,5.33E-03,1.82E-02
92359,5.53E-03,1.87E-02
92360,5.50E-03,1.85E-02
92361,5.57E-03,1.91E-02
92362,5.51E-03,1.89E-02
92363,5.53E-03,1.94E-02
92364,5.55E-03,1.93E-02
92365,5.30E-03,1.98E-02
92366,5.42E-03,1.96E-02
92367,5.19E-03,2.01E-02
92368,5.25E-03,2.00E-02
92369,5.23E-03,2.05E-02
92370,5.21E-03,2.03E-02
92371,5.20E-03,2.08E-02
92372,5.23E-03,2.06E-02
92373,4.95E-03,2.11E-02
92374,5.06E-03,2.09E-02
92375,4.77E-03,2.14E-02
92376,4.88E-03,2.12E-02
92377,4.64E-03,2.15E-02
92378,4.38E-03,2.22E-02
92379,4.43E-03,2.19E-02
92380,4.43E-03,2.21E-02
92381,4.30E-03,2.24E-02
92382,4.54E-03,1.26E-02
92383,4.31E-03,1.24E-02
92384,5.90E-03,1.23E-02
92385,6.14E-03,1.25E-02
92386,5.43E-03,1.29E-02
92387,6.11E-03,1.27E-02
92388,5.72E-03,1.33E-02
92389,5.52E-03,1.31E-02
92390,4.30E-03,1.37E-02
92391,5.05E-03,1.35E-02
92392,5.58E-03,1.40E-02
92393,4.55E-03,1.38E-02
92394,5.74E-03,1.44E-02
92395,6.52E-03,1.42E-02
92396,5.05E-03,1.48E-02
92397,4.92E-03,1.46E-02
92398,5.33E-03,1.52E-02
92399,5.22E-03,1.50E-02
92400,5.48E-03,1.56E-02
92401,5.41E-03,1.54E-02
92402,5.56E-03,1.60E-02
92403,5.54E-03,1.58E-02
92404,5.56E-03,1.64E-02
92405,5.56E-03,1.62E-02
92406,5.63E-03,1.68E-02
92407,5.57E-03,1.66E-02
92408,5.70E-03,1.71E-02
92409,5.68E-03,1.70E-02
92410,5.73E-03,1.75E-02
92411,5.72E-03,1.73E-02
92412,5.78E-03,1.79E-02
92413,5.84E-03,1.77E-02
92414,5.37E-03,1.82E-02
92415,5.58E-03,1.80E-02
92416,5.49E-03,1.85E-02
92417,4.60E-03,1.83E-02
92418,5.60E-03,1.88E-02
92419,5.97E-03,1.86E-02
92420,5.40E-03,1.91E-02
92421,5.70E-03,1.89E-02
92422,5.34E-03,1.93E-02
92423,5.34E-03,1.92E-02
92424,5.38E-03,1.95E-02
92425,5.36E-03,1.94E-02
92426,5.43E-03,1.98E-02
92427,5.40E-03,1.97E-02
92428,5.47E-03,2.00E-02
92429,5.46E-03,1.99E-02
92430,5.85E-03,2.03E-02
92431,5.55E-03,2.01E-02
92432,5.99E-03,2.05E-02
92433,5.98E-03,2.04E-02
92434,5.76E-03,2.08E-02
92435,5.89E-03,2.07E-02
92436,5.22E-03,2.10E-02
92437,5.85E-03,2.09E-02
92438,5.49E-03,2.12E-02
92439,5.01E-03,2.11E-02
92440,5.25E-03,2.16E-02
92441,5.56E-03,2.15E-02
92442,4.92E-03,2.17E-02
92443,4.87E-03,2.17E-02
92444,5.74E-03,2.20E-02
92445,5.19E-03,2.19E-02
92446,6.09E-03,2.22E-02
92447,5.96E-03,2.21E-02
92448,6.01E-03,2.23E-02
92449,6.06E-03,2.23E-02
92450,5.58E-03,2.24E-02
92451,5.83E-03,2.24E-02
92452,5.06E-03,2.26E-02
92453,5.22E-03,2.25E-02
92454,5.32E-03,2.26E-02
92455,5.15E-03,2.26E-02
92456,5.30E-03,2.27E-02
92457,5.26E-03,2.27E-02
92458,5.36E-03,2.28E-02
92459,5.35E-03,2.28E-02
92460,5.44E-03,2.29E-02
92461,5.38E-03,2.28E-02
92462,5.32E-03,2.29E-02
92463,5.41E-03,2.29E-02
92464,5.15E-03,2.29E-02
92465,5.16E-03,2.29E-02
92466,5.35E-03,2.30E-02
92467,5.83E-03,2.29E-02
92468,5.58E-03,2.29E-02
92469,5.51E-03,2.29E-02
92470,5.61E-03,2.29E-02
92471,5.60E-03,2.29E-02
92472,5.60E-03,2.29E-02
92473,5.57E-03,2.29E-02
92474,5.68E-03,2.29E-02
92475,5.66E-03,2.29E-02
92476,5.72E-03,2.29E-02
92477,5.54E-03,2.28E-02
92478,5.53E-03,2.28E-02
92479,5.72E-03,2.27E-02
92480,5.62E-03,2.27E-02
92481,5.76E-03,2.26E-02
92482,5.76E-03,2.27E-02
92483,5.65E-03,2.25E-02
92484,5.72E-03,2.26E-02
92485,5.57E-03,2.24E-02
92486,5.61E-03,2.25E-02
92487,5.61E-03,2.23E-02
92488,5.55E-03,2.24E-02
92489,5.62E-03,2.22E-02
92490,5.60E-03,2.23E-02
92491,5.66E-03,2.21E-02
92492,5.67E-03,2.22E-02
92493,5.68E-03,2.20E-02
92494,5.69E-03,2.21E-02
92495,5.70E-03,2.19E-02
92496,5.68E-03,2.19E-02
92497,5.67E-03,2.17E-02
92498,5.70E-03,2.18E-02
92499,5.65E-03,2.16E-02
92500,5.63E-03,2.17E-02
92501,5.57E-03,2.14E-02
92502,5.57E-03,2.15E-02
92503,5.59E-03,2.13E-02
92504,5.60E-03,2.14E-02
92505,5.57E-03,2.11E-02
92506,5.58E-03,2.12E-02
92507,5.55E-03,2.09E-02
92508,5.57E-03,2.10E-02
92509,5.62E-03,2.08E-02
92510,5.59E-03,2.09E-02
92511,5.63E-03,2.07E-02
92512,5.59E-03,2.01E-02
92513,5.65E-03,2.01E-02
92514,5.60E-03,1.99E-02
92515,5.57E-03,2.00E-02
92516,5.59E-03,1.98E-02
92517,5.60E-03,1.98E-02
92518,5.62E-03,1.96E-02
92519,5.62E-03,1.97E-02
92520,5.64E-03,1.95E-02
92521,5.63E-03,1.96E-02
92522,5.65E-03,1.93E-02
92523,5.65E-03,1.94E-02
92524,5.71E-03,1.92E-02
92525,5.67E-03,1.92E-02
92526,5.72E-03,1.90E-02
92527,5.70E-03,1.91E-02
92528,5.83E-03,1.89E-02
92529,5.72E-03,1.90E-02
92530,5.79E-03,1.89E-02
92531,5.61E-03,1.86E-02
92532,5.66E-03,1.86E-02
92533,5.56E-03,1.84E-02
92534,5.63E-03,1.85E-02
92535,5.52E-03,1.83E-02
92536,5.56E-03,1.84E-02
92537,5.49E-03,1.82E-02
92538,5.50E-03,1.83E-02
92539,5.58E-03,1.81E-02
92540,5.56E-03,1.82E-02
92541,5.64E-03,1.81E-02
92542,5.59E-03,1.81E-02
92543,5.57E-03,1.80E-02
92544,5.60E-03,1.80E-02
92545,5.59E-03,1.79E-02
92546,5.56E-03,1.80E-02
92547,5.62E-03,1.78E-02
92548,5.65E-03,1.79E-02
92549,5.75E-03,1.78E-02
92550,5.65E-03,1.78E-02
92551,5.26E-03,1.78E-02
92552,5.73E-03,1.78E-02
92553,4.75E-03,1.78E-02
92554,5.66E-03,2.32E-02
92555,5.78E-03,2.08E-02
92556,6.17E-03,2.10E-02
92557,5.30E-03,2.05E-02
92558,5.57E-03,2.07E-02
92559,5.20E-03,2.03E-02
92560,5.17E-03,2.04E-02
92561,5.24E-03,2.00E-02
92562,5.23E-03,2.02E-02
92563,5.24E-03,1.98E-02
92564,5.23E-03,1.99E-02
92565,5.20E-03,1.95E-02
92566,5.23E-03,1.96E-02
92567,5.19E-03,1.92E-02
92568,5.19E-03,1.94E-02
92569,5.44E-03,1.89E-02
92570,5.30E-03,1.91E-02
92571,5.57E-03,1.87E-02
92572,5.44E-03,1.88E-02
92573,5.51E-03,1.83E-02
92574,5.61E-03,1.85E-02
92575,5.60E-03,1.80E-02
92576,5.59E-03,1.82E-02
92577,5.88E-03,1.76E-02
92578,5.83E-03,1.78E-02
92579,5.75E-03,1.72E-02
92580,5.76E-03,1.74E-02
92581,5.75E-03,1.68E-02
92582,5.74E-03,1.70E-02
92583,5.70E-03,1.64E-02
92584,5.73E-03,1.66E-02
92585,5.57E-03,1.60E-02
92586,5.61E-03,1.62E-02
92587,5.46E-03,1.56E-02
92588,5.58E-03,1.58E-02
92589,5.38E-03,1.51E-02
92590,5.39E-03,1.54E-02
92591,5.23E-03,1.48E-02
92592,5.25E-03,1.49E-02
92593,5.26E-03,1.44E-02
92594,5.10E-03,1.46E-02
92595,5.79E-03,1.40E-02
92596,5.54E-03,1.42E-02
92597,5.46E-03,1.36E-02
92598,5.70E-03,1.38E-02
92599,5.31E-03,1.32E-02
92600,5.26E-03,1.34E-02
92601,5.33E-03,1.30E-02
92602,4.21E-03,1.26E-02
92603,5.46E-03,1.23E-02
92604,4.74E-03,1.22E-02
92605,4.40E-03,1.21E-02
92606,5.36E-03,1.22E-02
92607,6.30E-03,2.63E-02
92608,5.78E-03,2.62E-02
92609,5.92E-03,2.63E-02
92610,5.92E-03,2.61E-02
92611,5.86E-03,2.61E-02
92612,6.10E-03,2.59E-02
92613,6.02E-03,2.60E-02
92614,6.34E-03,2.57E-02
92615,6.21E-03,2.58E-02
92616,6.92E-03,2.56E-02
92617,6.52E-03,2.56E-02
92618,7.21E-03,2.54E-02
92619,7.27E-03,2.55E-02
92620,6.98E-03,2.53E-02
92621,7.17E-03,2.54E-02
92622,6.64E-03,2.53E-02
92623,6.87E-03,2.53E-02
92624,6.43E-03,2.53E-02
92625,5.95E-03,2.55E-02
92626,5.88E-03,2.55E-02
92627,6.04E-03,2.56E-02
92628,6.01E-03,2.55E-02
92629,5.98E-03,2.57E-02
92630,6.07E-03,2.57E-02
92631,5.86E-03,2.59E-02
92632,5.85E-03,2.58E-02
92633,5.78E-03,2.60E-02
92634,5.81E-03,2.59E-02
92635,5.72E-03,2.61E-02
92636,5.76E-03,2.61E-02
92637,5.77E-03,2.63E-02
92638,5.77E-03,2.62E-02
92639,5.79E-03,2.64E-02
92640,5.84E-03,2.63E-02
92641,5.66E-03,2.65E-02
92642,5.70E-03,2.64E-02
92643,5.41E-03,2.66E-02
92644,5.55E-03,2.65E-02
92645,5.32E-03,2.67E-02
92646,5.34E-03,2.67E-02
92647,5.31E-03,2.68E-02
92648,5.28E-03,2.68E-02
92649,5.44E-03,2.69E-02
92650,5.36E-03,2.69E-02
92651,5.35E-03,2.70E-02
92652,5.37E-03,2.70E-02
92653,5.27E-03,2.71E-02
92654,5.33E-03,2.71E-02
92655,5.33E-03,2.71E-02
92656,5.28E-03,2.71E-02
92657,5.35E-03,2.71E-02
92658,5.38E-03,2.71E-02
92659,5.37E-03,2.71E-02
92660,5.37E-03,2.71E-02
92661,5.36E-03,2.71E-02
92662,5.34E-03,2.71E-02
92663,5.35E-03,2.71E-02
92664,5.38E-03,2.71E-02
92665,5.44E-03,2.71E-02
92666,5.42E-03,2.71E-02
92667,5.36E-03,2.71E-02
92668,5.43E-03,2.71E-02
92669,5.36E-03,2.71E-02
92670,5.32E-03,2.71E-02
92671,5.41E-03,2.71E-02
92672,5.39E-03,2.71E-02
92673,5.47E-03,2.70E-02
92674,5.38E-03,2.71E-02
92675,5.42E-03,2.70E-02
92676,5.44E-03,2.70E-02
92677,5.40E-03,2.70E-02
92678,5.47E-03,2.70E-02
92679,5.40E-03,2.70E-02
92680,5.42E-03,2.70E-02
92681,5.51E-03,2.69E-02
92682,5.44E-03,2.69E-02
92683,5.60E-03,2.69E-02
92684,5.56E-03,2.69E-02
92685,5.57E-03,2.68E-02
92686,5.61E-03,2.68E-02
92687,5.62E-03,2.67E-02
92688,5.58E-03,2.67E-02
92689,5.62E-03,2.66E-02
92690,5.61E-03,2.67E-02
92691,5.58E-03,2.65E-02
92692,5.61E-03,2.65E-02
92693,5.54E-03,2.64E-02
92694,5.50E-03,2.64E-02
92695,5.51E-03,2.62E-02
92696,5.52E-03,2.63E-02
92697,5.52E-03,2.61E-02
92698,5.50E-03,2.61E-02
92699,5.54E-03,2.59E-02
92700,5.57E-03,2.60E-02
92701,5.63E-03,2.57E-02
92702,5.56E-03,2.58E-02
92703,5.77E-03,2.56E-02
92704,5.74E-03,2.56E-02
92705,5.84E-03,2.54E-02
92706,5.89E-03,2.55E-02
92707,5.80E-03,2.52E-02
92708,5.82E-03,2.53E-02
92709,5.84E-03,2.50E-02
92710,5.78E-03,2.51E-02
92711,5.89E-03,2.49E-02
92712,5.86E-03,2.50E-02
92713,6.14E-03,2.47E-02
92714,5.96E-03,2.48E-02
92715,6.25E-03,2.45E-02
92716,6.37E-03,2.46E-02
92717,6.01E-03,2.43E-02
92718,6.08E-03,2.44E-02
92719,7.18E-03,2.40E-02
92720,6.22E-03,2.42E-02
92721,6.14E-03,2.39E-02
92722,7.25E-03,2.40E-02
92723,5.77E-03,2.39E-02
92724,5.89E-03,2.39E-02
92725,5.62E-03,2.38E-02
92726,5.73E-03,2.38E-02
92727,5.50E-03,2.37E-02
92728,5.54E-03,2.37E-02
92729,5.49E-03,2.35E-02
92730,5.48E-03,2.36E-02
92731,5.75E-03,2.34E-02
92732,5.51E-03,2.35E-02
92733,6.07E-03,2.32E-02
92734,5.93E-03,2.32E-02
92735,6.14E-03,2.30E-02
92736,6.12E-03,2.31E-02
92737,6.18E-03,2.28E-02
92738,6.12E-03,2.29E-02
92739,5.71E-03,2.26E-02
92740,6.10E-03,2.27E-02
92741,5.44E-03,2.24E-02
92742,5.45E-03,2.25E-02
92743,5.49E-03,2.21E-02
92744,5.39E-03,2.23E-02
92745,5.47E-03,2.19E-02
92746,5.88E-03,2.15E-02
92747,5.50E-03,2.52E-02
92748,5.72E-03,2.03E-02
92749,5.73E-03,2.02E-02
92750,6.19E-03,2.64E-02
92751,6.90E-03,2.49E-02
92752,5.43E-03,2.51E-02
92753,5.39E-03,1.78E-02
92754,5.64E-03,2.26E-02
92755,5.64E-03,2.26E-02
92756,5.61E-03,2.25E-02
92757,5.70E-03,2.03E-02
92758,5.73E-03,1.99E-02
92759,5.66E-03,1.83E-02
92760,5.91E-03,2.36E-02
92761,5.32E-03,1.31E-02
92762,5.27E-03,1.28E-02
92763,5.11E-03,1.26E-02
92764,4.54E-03,1.23E-02
92765,5.22E-03,1.22E-02
92766,4.24E-03,1.20E-02
92767,4.88E-03,1.18E-02
92768,5.75E-03,1.20E-02
92769,5.74E-03,1.19E-02
92770,4.87E-03,1.19E-02
92771,4.52E-03,1.18E-02
92772,6.19E-03,2.56E-02
92773,5.73E-03,2.59E-02
92774,5.69E-03,2.58E-02
92775,5.72E-03,2.19E-02
92776,5.92E-03,2.12E-02
92777,5.89E-03,2.14E-02
92778,4.55E-03,2.28E-02
92779,4.86E-03,2.29E-02
92780,5.91E-03,2.39E-02
92781,5.73E-03,2.61E-02
92782,5.17E-03,1.17E-02
92783,5.99E-03,2.59E-02
92784,5.72E-03,2.18E-02
92785,5.74E-03,2.19E-02
92786,5.88E-03,2.43E-02
92787,5.49E-03,2.59E-02
92788,6.66E-03,2.46E-02
92789,5.25E-03,2.55E-02
92790,5.20E-03,2.57E-02
92791,4.29E-03,2.66E-02
92792,5.97E-03,2.66E-02
92793,4.29E-03,2.67E-02
92794,5.35E-03,2.52E-02
92795,3.95E-03,2.26E-02
92796,4.84E-03,1.74E-02
92797,4.90E-03,1.74E-02
92798,4.87E-03,1.74E-02
92799,5.62E-03,1.80E-02
92800,5.43E-03,1.79E-02
92801,5.55E-03,1.84E-02
92802,5.53E-03,1.82E-02
92803,5.53E-03,1.88E-02
92804,5.54E-03,1.86E-02
92805,5.53E-03,1.92E-02
92806,5.55E-03,1.90E-02
92807,5.37E-03,1.95E-02
92808,5.45E-03,1.94E-02
92809,5.25E-03,1.99E-02
92810,5.34E-03,1.97E-02
92811,5.26E-03,2.02E-02
92812,5.20E-03,2.01E-02
92813,5.22E-03,2.06E-02
92814,5.28E-03,2.04E-02
92815,4.97E-03,2.09E-02
92816,5.10E-03,2.07E-02
92817,4.82E-03,2.12E-02
92818,4.91E-03,2.10E-02
92819,4.62E-03,2.15E-02
92820,4.73E-03,2.13E-02
92821,4.52E-03,2.18E-02
92822,4.53E-03,2.16E-02
92823,4.47E-03,2.20E-02
92824,4.47E-03,2.19E-02
92825,4.31E-03,2.23E-02
92826,4.40E-03,2.22E-02
92827,4.75E-03,2.24E-02
92828,5.88E-03,1.23E-02
92829,5.53E-03,1.21E-02
92830,5.76E-03,1.26E-02
92831,5.62E-03,1.24E-02
92832,5.68E-03,1.30E-02
92833,5.76E-03,1.28E-02
92834,5.43E-03,1.34E-02
92835,5.58E-03,1.32E-02
92836,5.22E-03,1.37E-02
92837,5.23E-03,1.35E-02
92838,5.50E-03,1.41E-02
92839,5.15E-03,1.39E-02
92840,5.59E-03,1.45E-02
92841,5.64E-03,1.43E-02
92842,5.27E-03,1.49E-02
92843,5.37E-03,1.47E-02
92844,5.41E-03,1.53E-02
92845,5.29E-03,1.51E-02
92846,5.53E-03,1.57E-02
92847,5.48E-03,1.55E-02
92848,5.55E-03,1.61E-02
92849,5.56E-03,1.59E-02
92850,5.55E-03,1.64E-02
92851,5.54E-03,1.63E-02
92852,5.61E-03,1.68E-02
92853,5.56E-03,1.66E-02
92854,5.67E-03,1.72E-02
92855,5.65E-03,1.70E-02
92856,5.67E-03,1.75E-02
92857,5.67E-03,1.74E-02
92858,5.67E-03,1.79E-02
92859,5.71E-03,1.77E-02
92860,5.50E-03,1.82E-02
92861,5.61E-03,1.80E-02
92862,5.51E-03,1.85E-02
92863,5.72E-03,1.84E-02
92864,5.65E-03,1.88E-02
92865,5.62E-03,1.86E-02
92866,5.53E-03,1.90E-02
92867,5.60E-03,1.89E-02
92868,5.43E-03,1.93E-02
92869,5.44E-03,1.92E-02
92870,5.46E-03,1.95E-02
92871,5.43E-03,1.94E-02
92872,5.54E-03,1.98E-02
92873,5.45E-03,1.96E-02
92874,5.57E-03,2.00E-02
92875,5.55E-03,1.99E-02
92876,5.74E-03,2.02E-02
92877,5.65E-03,2.01E-02
92878,5.90E-03,2.05E-02
92879,5.83E-03,2.03E-02
92880,5.77E-03,2.07E-02
92881,5.82E-03,2.06E-02
92882,5.51E-03,2.09E-02
92883,5.61E-03,2.08E-02
92884,5.62E-03,2.11E-02
92885,5.45E-03,2.10E-02
92886,5.80E-03,2.13E-02
92887,5.76E-03,2.12E-02
92888,5.39E-03,2.15E-02
92889,5.63E-03,2.14E-02
92890,5.20E-03,2.16E-02
92891,5.19E-03,2.16E-02
92892,5.60E-03,2.18E-02
92893,5.38E-03,2.17E-02
92894,5.94E-03,2.20E-02
92895,5.82E-03,2.19E-02
92896,5.87E-03,2.21E-02
92897,5.92E-03,2.21E-02
92898,5.53E-03,2.23E-02
92899,5.70E-03,2.22E-02
92900,5.27E-03,2.24E-02
92901,5.41E-03,2.23E-02
92902,5.28E-03,2.24E-02
92903,5.26E-03,2.24E-02
92904,5.38E-03,2.25E-02
92905,5.30E-03,2.25E-02
92906,5.45E-03,2.26E-02
92907,5.42E-03,2.25E-02
92908,5.45E-03,2.26E-02
92909,5.48E-03,2.26E-02
92910,5.32E-03,2.26E-02
92911,5.37E-03,2.26E-02
92912,5.41E-03,2.27E-02
92913,5.34E-03,2.26E-02
92914,5.81E-03,2.27E-02
92915,5.58E-03,2.27E-02
92916,5.64E-03,2.27E-02
92917,5.72E-03,2.27E-02
92918,5.65E-03,2.27E-02
92919,5.64E-03,2.27E-02
92920,5.65E-03,2.27E-02
92921,5.65E-03,2.27E-02
92922,5.59E-03,2.26E-02
92923,5.57E-03,2.26E-02
92924,5.63E-03,2.26E-02
92925,5.65E-03,2.26E-02
92926,5.61E-03,2.26E-02
92927,5.57E-03,2.24E-02
92928,5.56E-03,2.25E-02
92929,5.71E-03,2.24E-02
92930,5.67E-03,2.24E-02
92931,5.75E-03,2.23E-02
92932,5.71E-03,2.23E-02
92933,5.64E-03,2.22E-02
92934,5.72E-03,2.22E-02
92935,5.62E-03,2.21E-02
92936,5.61E-03,2.22E-02
92937,5.65E-03,2.20E-02
92938,5.65E-03,2.20E-02
92939,5.65E-03,2.19E-02
92940,5.66E-03,2.19E-02
92941,5.66E-03,2.18E-02
92942,5.66E-03,2.18E-02
92943,5.66E-03,2.16E-02
92944,5.68E-03,2.17E-02
92945,5.65E-03,2.15E-02
92946,5.70E-03,2.16E-02
92947,5.64E-03,2.14E-02
92948,5.64E-03,2.14E-02
92949,5.64E-03,2.12E-02
92950,5.67E-03,2.13E-02
92951,5.62E-03,2.11E-02
92952,5.63E-03,2.11E-02
92953,5.60E-03,2.09E-02
92954,5.60E-03,2.10E-02
92955,5.61E-03,2.07E-02
92956,5.59E-03,2.08E-02
92957,5.54E-03,2.06E-02
92958,5.59E-03,2.06E-02
92959,5.64E-03,2.04E-02
92960,5.60E-03,2.05E-02
92961,5.67E-03,2.03E-02
92962,5.67E-03,1.97E-02
92963,5.69E-03,1.98E-02
92964,5.59E-03,1.95E-02
92965,5.63E-03,1.96E-02
92966,5.65E-03,1.94E-02
92967,5.63E-03,1.94E-02
92968,5.62E-03,1.92E-02
92969,5.66E-03,1.93E-02
92970,5.61E-03,1.91E-02
92971,5.62E-03,1.92E-02
92972,5.68E-03,1.89E-02
92973,5.64E-03,1.90E-02
92974,5.64E-03,1.88E-02
92975,5.65E-03,1.88E-02
92976,5.72E-03,1.87E-02
92977,5.69E-03,1.87E-02
92978,5.80E-03,1.85E-02
92979,5.73E-03,1.86E-02
92980,5.82E-03,1.85E-02
92981,5.69E-03,1.82E-02
92982,5.65E-03,1.83E-02
92983,5.56E-03,1.80E-02
92984,5.70E-03,1.81E-02
92985,5.56E-03,1.79E-02
92986,5.60E-03,1.80E-02
92987,5.52E-03,1.79E-02
92988,5.54E-03,1.79E-02
92989,5.59E-03,1.78E-02
92990,5.58E-03,1.78E-02
92991,5.62E-03,1.77E-02
92992,5.62E-03,1.77E-02
92993,5.62E-03,1.76E-02
92994,5.61E-03,1.77E-02
92995,5.67E-03,1.76E-02
92996,5.63E-03,1.76E-02
92997,5.66E-03,1.75E-02
92998,5.66E-03,1.75E-02
92999,5.61E-03,1.75E-02
93000,5.63E-03,1.75E-02
93001,5.34E-03,1.74E-02
93002,5.55E-03,1.74E-02
93003,5.09E-03,1.74E-02
93004,6.08E-03,2.32E-02
93005,5.97E-03,2.34E-02
93006,5.76E-03,2.09E-02
93007,5.89E-03,2.11E-02
93008,5.43E-03,2.06E-02
93009,5.57E-03,2.07E-02
93010,5.27E-03,2.03E-02
93011,5.29E-03,2.04E-02
93012,5.30E-03,2.01E-02
93013,5.27E-03,2.02E-02
93014,5.28E-03,1.98E-02
93015,5.24E-03,1.99E-02
93016,5.25E-03,1.95E-02
93017,5.28E-03,1.97E-02
93018,5.27E-03,1.92E-02
93019,5.23E-03,1.94E-02
93020,5.37E-03,1.90E-02
93021,5.31E-03,1.91E-02
93022,5.58E-03,1.87E-02
93023,5.50E-03,1.88E-02
93024,5.55E-03,1.83E-02
93025,5.55E-03,1.85E-02
93026,5.62E-03,1.80E-02
93027,5.56E-03,1.81E-02
93028,5.73E-03,1.76E-02
93029,5.70E-03,1.78E-02
93030,5.76E-03,1.72E-02
93031,5.74E-03,1.74E-02
93032,5.74E-03,1.68E-02
93033,5.76E-03,1.70E-02
93034,5.73E-03,1.64E-02
93035,5.78E-03,1.66E-02
93036,5.61E-03,1.59E-02
93037,5.63E-03,1.61E-02
93038,5.45E-03,1.55E-02
93039,5.58E-03,1.57E-02
93040,5.37E-03,1.51E-02
93041,5.44E-03,1.53E-02
93042,5.24E-03,1.47E-02
93043,5.29E-03,1.49E-02
93044,5.30E-03,1.43E-02
93045,5.20E-03,1.45E-02
93046,5.52E-03,1.39E-02
93047,5.47E-03,1.41E-02
93048,5.44E-03,1.35E-02
93049,5.56E-03,1.37E-02
93050,5.38E-03,1.33E-02
93051,5.33E-03,1.29E-02
93052,5.12E-03,1.25E-02
93053,5.51E-03,1.21E-02
93054,5.39E-03,1.17E-02
93055,4.48E-03,1.17E-02
93056,5.72E-03,2.65E-02
93057,5.76E-03,2.65E-02
93058,5.87E-03,2.63E-02
93059,5.81E-03,2.64E-02
93060,6.08E-03,2.62E-02
93061,5.96E-03,2.63E-02
93062,6.37E-03,2.60E-02
93063,6.21E-03,2.61E-02
93064,6.75E-03,2.59E-02
93065,6.54E-03,2.59E-02
93066,7.04E-03,2.57E-02
93067,6.93E-03,2.58E-02
93068,6.87E-03,2.57E-02
93069,7.02E-03,2.57E-02
93070,6.60E-03,2.56E-02
93071,6.70E-03,2.56E-02
93072,6.40E-03,2.56E-02
93073,5.88E-03,2.59E-02
93074,5.76E-03,2.58E-02
93075,5.94E-03,2.60E-02
93076,5.89E-03,2.59E-02
93077,5.89E-03,2.61E-02
93078,6.02E-03,2.60E-02
93079,5.79E-03,2.62E-02
93080,5.82E-03,2.62E-02
93081,5.75E-03,2.64E-02
93082,5.76E-03,2.63E-02
93083,5.67E-03,2.65E-02
93084,5.69E-03,2.65E-02
93085,5.76E-03,2.67E-02
93086,5.73E-03,2.66E-02
93087,5.82E-03,2.68E-02
93088,5.82E-03,2.67E-02
93089,5.65E-03,2.69E-02
93090,5.73E-03,2.68E-02
93091,5.46E-03,2.70E-02
93092,5.62E-03,2.70E-02
93093,5.36E-03,2.71E-02
93094,5.38E-03,2.71E-02
93095,5.34E-03,2.73E-02
93096,5.32E-03,2.72E-02
93097,5.46E-03,2.74E-02
93098,5.38E-03,2.73E-02
93099,5.35E-03,2.75E-02
93100,5.42E-03,2.74E-02
93101,5.25E-03,2.75E-02
93102,5.29E-03,2.75E-02
93103,5.34E-03,2.75E-02
93104,5.33E-03,2.75E-02
93105,5.40E-03,2.75E-02
93106,5.39E-03,2.75E-02
93107,5.38E-03,2.76E-02
93108,5.45E-03,2.75E-02
93109,5.35E-03,2.76E-02
93110,5.34E-03,2.76E-02
93111,5.36E-03,2.75E-02
93112,5.38E-03,2.76E-02
93113,5.45E-03,2.75E-02
93114,5.42E-03,2.75E-02
93115,5.42E-03,2.75E-02
93116,5.47E-03,2.75E-02
93117,5.37E-03,2.75E-02
93118,5.36E-03,2.75E-02
93119,5.37E-03,2.75E-02
93120,5.36E-03,2.75E-02
93121,5.47E-03,2.75E-02
93122,5.42E-03,2.75E-02
93123,5.51E-03,2.75E-02
93124,5.46E-03,2.75E-02
93125,5.46E-03,2.74E-02
93126,5.56E-03,2.74E-02
93127,5.42E-03,2.74E-02
93128,5.43E-03,2.74E-02
93129,5.56E-03,2.74E-02
93130,5.50E-03,2.74E-02
93131,5.58E-03,2.73E-02
93132,5.58E-03,2.73E-02
93133,5.58E-03,2.72E-02
93134,5.60E-03,2.73E-02
93135,5.59E-03,2.72E-02
93136,5.57E-03,2.72E-02
93137,5.60E-03,2.70E-02
93138,5.65E-03,2.71E-02
93139,5.62E-03,2.69E-02
93140,5.66E-03,2.70E-02
93141,5.54E-03,2.68E-02
93142,5.61E-03,2.69E-02
93143,5.55E-03,2.66E-02
93144,5.56E-03,2.67E-02
93145,5.57E-03,2.65E-02
93146,5.54E-03,2.65E-02
93147,5.63E-03,2.63E-02
93148,5.56E-03,2.64E-02
93149,5.72E-03,2.61E-02
93150,5.64E-03,2.62E-02
93151,5.78E-03,2.60E-02
93152,5.76E-03,2.60E-02
93153,5.82E-03,2.58E-02
93154,5.80E-03,2.59E-02
93155,5.82E-03,2.56E-02
93156,5.84E-03,2.57E-02
93157,5.84E-03,2.54E-02
93158,5.81E-03,2.55E-02
93159,5.91E-03,2.52E-02
93160,5.84E-03,2.53E-02
93161,6.04E-03,2.50E-02
93162,5.95E-03,2.51E-02
93163,5.97E-03,2.48E-02
93164,6.03E-03,2.49E-02
93165,6.13E-03,2.46E-02
93166,6.04E-03,2.47E-02
93167,6.48E-03,2.44E-02
93168,6.34E-03,2.45E-02
93169,6.29E-03,2.42E-02
93170,6.51E-03,2.43E-02
93171,5.87E-03,2.41E-02
93172,6.04E-03,2.42E-02
93173,5.73E-03,2.40E-02
93174,5.79E-03,2.41E-02
93175,5.64E-03,2.39E-02
93176,5.71E-03,2.40E-02
93177,5.56E-03,2.38E-02
93178,5.57E-03,2.38E-02
93179,5.76E-03,2.36E-02
93180,5.66E-03,2.37E-02
93181,6.01E-03,2.34E-02
93182,5.85E-03,2.35E-02
93183,6.06E-03,2.32E-02
93184,6.03E-03,2.33E-02
93185,6.04E-03,2.30E-02
93186,6.07E-03,2.31E-02
93187,5.79E-03,2.28E-02
93188,5.98E-03,2.29E-02
93189,5.57E-03,2.25E-02
93190,5.65E-03,2.26E-02
93191,5.78E-03,2.22E-02
93192,5.63E-03,2.24E-02
93193,5.67E-03,2.21E-02
93194,5.83E-03,2.16E-02
93195,5.42E-03,2.53E-02
93196,5.27E-03,2.30E-02
93197,5.91E-03,2.50E-02
93198,5.83E-03,1.75E-02
93199,5.64E-03,2.22E-02
93200,5.82E-03,1.99E-02
93201,5.77E-03,1.99E-02
93202,5.90E-03,1.98E-02
93203,5.84E-03,1.97E-02
93204,5.98E-03,2.37E-02
93205,5.56E-03,2.64E-02
93206,5.35E-03,1.27E-02
93207,5.25E-03,1.25E-02
93208,5.24E-03,1.22E-02
93209,5.35E-03,1.20E-02
93210,5.57E-03,1.17E-02
93211,5.68E-03,1.18E-02
93212,5.40E-03,1.17E-02
93213,3.97E-03,1.16E-02
93214,6.17E-03,2.59E-02
93215,5.54E-03,2.63E-02
93216,5.44E-03,2.62E-02
93217,5.75E-03,2.21E-02
93218,5.84E-03,2.13E-02
93219,5.86E-03,2.15E-02
93220,6.55E-03,2.34E-02
93221,6.05E-03,2.40E-02
93222,5.56E-03,2.62E-02
93223,5.50E-03,1.16E-02
93224,5.76E-03,2.63E-02
93225,5.77E-03,2.19E-02
93226,5.80E-03,2.21E-02
93227,6.03E-03,2.44E-02
93228,5.42E-03,2.60E-02
93229,4.82E-03,2.55E-02
93230,5.04E-03,2.58E-02
93231,4.42E-03,2.27E-02
93232,4.38E-03,2.26E-02
93233,3.50E-03,2.68E-02
93234,4.14E-03,2.24E-02
93235,5.10E-03,1.71E-02
93236,5.26E-03,1.71E-02
93237,5.13E-03,1.71E-02
93238,6.06E-03,2.48E-02
93239,5.67E-03,1.71E-02
93240,5.69E-03,1.78E-02
93241,6.15E-03,1.76E-02
93242,5.55E-03,1.82E-02
93243,5.60E-03,1.80E-02
93244,5.59E-03,1.86E-02
93245,5.57E-03,1.84E-02
93246,5.53E-03,1.89E-02
93247,5.58E-03,1.88E-02
93248,5.40E-03,1.93E-02
93249,5.46E-03,1.91E-02
93250,5.32E-03,1.97E-02
93251,5.35E-03,1.95E-02
93252,5.29E-03,2.00E-02
93253,5.27E-03,1.98E-02
93254,5.26E-03,2.03E-02
93255,5.30E-03,2.02E-02
93256,5.04E-03,2.07E-02
93257,5.15E-03,2.05E-02
93258,4.90E-03,2.10E-02
93259,4.96E-03,2.08E-02
93260,4.73E-03,2.13E-02
93261,4.79E-03,2.11E-02
93262,4.56E-03,2.16E-02
93263,4.64E-03,2.14E-02
93264,4.54E-03,2.19E-02
93265,4.53E-03,2.17E-02
93266,4.56E-03,2.21E-02
93267,4.54E-03,2.20E-02
93268,4.39E-03,2.23E-02
93269,4.25E-03,1.17E-02
93270,6.16E-03,1.20E-02
93271,5.64E-03,1.19E-02
93272,5.68E-03,1.24E-02
93273,5.66E-03,1.22E-02
93274,5.68E-03,1.27E-02
93275,5.71E-03,1.26E-02
93276,5.63E-03,1.31E-02
93277,5.68E-03,1.29E-02
93278,5.48E-03,1.35E-02
93279,5.62E-03,1.33E-02
93280,5.32E-03,1.38E-02
93281,5.37E-03,1.36E-02
93282,5.40E-03,1.42E-02
93283,5.31E-03,1.40E-02
93284,5.53E-03,1.46E-02
93285,5.49E-03,1.44E-02
93286,5.41E-03,1.50E-02
93287,5.50E-03,1.48E-02
93288,5.50E-03,1.54E-02
93289,5.41E-03,1.52E-02
93290,5.55E-03,1.57E-02
93291,5.54E-03,1.55E-02
93292,5.51E-03,1.61E-02
93293,5.53E-03,1.59E-02
93294,5.53E-03,1.65E-02
93295,5.53E-03,1.63E-02
93296,5.54E-03,1.69E-02
93297,5.52E-03,1.67E-02
93298,5.66E-03,1.72E-02
93299,5.61E-03,1.70E-02
93300,5.66E-03,1.76E-02
93301,5.66E-03,1.74E-02
93302,5.67E-03,1.79E-02
93303,5.68E-03,1.77E-02
93304,5.72E-03,1.82E-02
93305,5.66E-03,1.80E-02
93306,5.54E-03,1.85E-02
93307,5.67E-03,1.84E-02
93308,5.60E-03,1.88E-02
93309,5.65E-03,1.86E-02
93310,5.58E-03,1.90E-02
93311,5.59E-03,1.89E-02
93312,5.55E-03,1.93E-02
93313,5.55E-03,1.91E-02
93314,5.57E-03,1.95E-02
93315,5.53E-03,1.94E-02
93316,5.62E-03,1.97E-02
93317,5.56E-03,1.96E-02
93318,5.58E-03,1.99E-02
93319,5.60E-03,1.98E-02
93320,5.74E-03,2.02E-02
93321,5.70E-03,2.01E-02
93322,5.85E-03,2.04E-02
93323,5.82E-03,2.03E-02
93324,5.74E-03,2.06E-02
93325,5.80E-03,2.05E-02
93326,5.60E-03,2.08E-02
93327,5.65E-03,2.07E-02
93328,5.64E-03,2.10E-02
93329,5.57E-03,2.09E-02
93330,5.68E-03,2.12E-02
93331,5.68E-03,2.11E-02
93332,5.47E-03,2.13E-02
93333,5.54E-03,2.13E-02
93334,5.37E-03,2.15E-02
93335,5.38E-03,2.14E-02
93336,5.54E-03,2.17E-02
93337,5.43E-03,2.16E-02
93338,5.75E-03,2.18E-02
93339,5.68E-03,2.17E-02
93340,5.77E-03,2.19E-02
93341,5.81E-03,2.19E-02
93342,5.55E-03,2.21E-02
93343,5.66E-03,2.20E-02
93344,5.40E-03,2.22E-02
93345,5.47E-03,2.21E-02
93346,5.33E-03,2.22E-02
93347,5.31E-03,2.22E-02
93348,5.41E-03,2.23E-02
93349,5.36E-03,2.23E-02
93350,5.45E-03,2.23E-02
93351,5.43E-03,2.23E-02
93352,5.47E-03,2.24E-02
93353,5.48E-03,2.24E-02
93354,5.41E-03,2.24E-02
93355,5.45E-03,2.24E-02
93356,5.48E-03,2.24E-02
93357,5.41E-03,2.24E-02
93358,5.63E-03,2.24E-02
93359,5.58E-03,2.24E-02
93360,5.67E-03,2.24E-02
93361,5.63E-03,2.24E-02
93362,5.65E-03,2.24E-02
93363,5.68E-03,2.24E-02
93364,5.61E-03,2.24E-02
93365,5.60E-03,2.24E-02
93366,5.58E-03,2.23E-02
93367,5.56E-03,2.23E-02
93368,5.64E-03,2.23E-02
93369,5.62E-03,2.23E-02
93370,5.61E-03,2.23E-02
93371,5.61E-03,2.21E-02
93372,5.63E-03,2.22E-02
93373,5.65E-03,2.20E-02
93374,5.60E-03,2.21E-02
93375,5.73E-03,2.19E-02
93376,5.68E-03,2.20E-02
93377,5.66E-03,2.19E-02
93378,5.70E-03,2.19E-02
93379,5.68E-03,2.18E-02
93380,5.68E-03,2.18E-02
93381,5.62E-03,2.16E-02
93382,5.65E-03,2.17E-02
93383,5.65E-03,2.15E-02
93384,5.62E-03,2.16E-02
93385,5.59E-03,2.14E-02
93386,5.60E-03,2.15E-02
93387,5.64E-03,2.13E-02
93388,5.63E-03,2.14E-02
93389,5.66E-03,2.11E-02
93390,5.66E-03,2.12E-02
93391,5.66E-03,2.10E-02
93392,5.64E-03,2.11E-02
93393,5.66E-03,2.09E-02
93394,5.68E-03,2.09E-02
93395,5.63E-03,2.07E-02
93396,5.63E-03,2.08E-02
93397,5.70E-03,2.05E-02
93398,5.65E-03,2.06E-02
93399,5.59E-03,2.04E-02
93400,5.66E-03,2.05E-02
93401,5.55E-03,2.02E-02
93402,5.61E-03,2.03E-02
93403,5.66E-03,2.00E-02
93404,5.61E-03,2.01E-02
93405,5.67E-03,2.00E-02
93406,5.87E-03,1.98E-02
93407,5.67E-03,1.93E-02
93408,5.71E-03,1.94E-02
93409,5.65E-03,1.91E-02
93410,5.67E-03,1.92E-02
93411,5.67E-03,1.90E-02
93412,5.64E-03,1.91E-02
93413,5.70E-03,1.88E-02
93414,5.71E-03,1.89E-02
93415,5.64E-03,1.87E-02
93416,5.64E-03,1.88E-02
93417,5.68E-03,1.85E-02
93418,5.64E-03,1.86E-02
93419,5.69E-03,1.84E-02
93420,5.71E-03,1.85E-02
93421,5.73E-03,1.83E-02
93422,5.70E-03,1.83E-02
93423,5.79E-03,1.82E-02
93424,5.79E-03,1.82E-02
93425,5.73E-03,1.80E-02
93426,5.81E-03,1.81E-02
93427,5.68E-03,1.79E-02
93428,5.73E-03,1.80E-02
93429,5.69E-03,1.78E-02
93430,5.68E-03,1.79E-02
93431,5.60E-03,1.77E-02
93432,5.67E-03,1.77E-02
93433,5.56E-03,1.76E-02
93434,5.63E-03,1.76E-02
93435,5.52E-03,1.75E-02
93436,5.57E-03,1.75E-02
93437,5.65E-03,1.74E-02
93438,5.61E-03,1.74E-02
93439,5.58E-03,1.73E-02
93440,5.62E-03,1.74E-02
93441,5.60E-03,1.73E-02
93442,5.62E-03,1.73E-02
93443,5.68E-03,1.72E-02
93444,5.66E-03,1.72E-02
93445,5.67E-03,1.72E-02
93446,5.67E-03,1.72E-02
93447,5.62E-03,1.71E-02
93448,5.62E-03,1.71E-02
93449,5.43E-03,1.71E-02
93450,5.48E-03,1.71E-02
93451,5.31E-03,1.71E-02
93452,6.19E-03,2.35E-02
93453,3.99E-03,2.68E-02
93454,5.36E-03,2.66E-02
93455,5.74E-03,2.10E-02
93456,5.80E-03,2.12E-02
93457,5.52E-03,2.07E-02
93458,5.63E-03,2.08E-02
93459,5.37E-03,2.04E-02
93460,5.41E-03,2.05E-02
93461,5.35E-03,2.01E-02
93462,5.32E-03,2.02E-02
93463,5.32E-03,1.98E-02
93464,5.29E-03,1.99E-02
93465,5.31E-03,1.95E-02
93466,5.35E-03,1.97E-02
93467,5.35E-03,1.93E-02
93468,5.31E-03,1.94E-02
93469,5.51E-03,1.90E-02
93470,5.41E-03,1.91E-02
93471,5.58E-03,1.87E-02
93472,5.54E-03,1.88E-02
93473,5.61E-03,1.83E-02
93474,5.61E-03,1.85E-02
93475,5.63E-03,1.80E-02
93476,5.64E-03,1.81E-02
93477,5.69E-03,1.76E-02
93478,5.64E-03,1.78E-02
93479,5.79E-03,1.72E-02
93480,5.73E-03,1.74E-02
93481,5.80E-03,1.67E-02
93482,5.81E-03,1.70E-02
93483,5.76E-03,1.63E-02
93484,5.83E-03,1.65E-02
93485,5.64E-03,1.58E-02
93486,5.67E-03,1.61E-02
93487,5.50E-03,1.54E-02
93488,5.54E-03,1.56E-02
93489,5.39E-03,1.50E-02
93490,5.42E-03,1.52E-02
93491,5.24E-03,1.46E-02
93492,5.29E-03,1.48E-02
93493,5.35E-03,1.42E-02
93494,5.22E-03,1.44E-02
93495,5.44E-03,1.38E-02
93496,5.41E-03,1.40E-02
93497,5.47E-03,1.34E-02
93498,5.51E-03,1.36E-02
93499,5.34E-03,1.30E-02
93500,5.39E-03,1.32E-02
93501,5.35E-03,1.28E-02
93502,5.34E-03,1.24E-02
93503,6.24E-03,1.19E-02
93504,4.93E-03,1.15E-02
93505,4.78E-03,1.15E-02
93506,4.08E-03,1.15E-02
93507,5.21E-03,1.14E-02
93508,5.11E-03,1.14E-02
93509,4.13E-03,2.70E-02
93510,4.09E-03,2.70E-02
93511,3.21E-03,2.71E-02
93512,5.06E-03,2.69E-02
93513,4.58E-03,2.69E-02
93514,5.52E-03,2.67E-02
93515,5.54E-03,2.68E-02
93516,5.81E-03,2.66E-02
93517,5.72E-03,2.67E-02
93518,6.02E-03,2.65E-02
93519,5.92E-03,2.65E-02
93520,6.36E-03,2.63E-02
93521,6.21E-03,2.64E-02
93522,6.60E-03,2.62E-02
93523,6.45E-03,2.63E-02
93524,6.87E-03,2.61E-02
93525,6.82E-03,2.61E-02
93526,6.77E-03,2.60E-02
93527,6.83E-03,2.60E-02
93528,6.57E-03,2.60E-02
93529,6.60E-03,2.60E-02
93530,6.34E-03,2.59E-02
93531,5.78E-03,2.62E-02
93532,5.68E-03,2.62E-02
93533,5.95E-03,2.64E-02
93534,5.90E-03,2.63E-02
93535,5.89E-03,2.65E-02
93536,5.95E-03,2.64E-02
93537,5.73E-03,2.66E-02
93538,5.81E-03,2.66E-02
93539,5.71E-03,2.68E-02
93540,5.72E-03,2.67E-02
93541,5.65E-03,2.70E-02
93542,5.67E-03,2.69E-02
93543,5.74E-03,2.71E-02
93544,5.71E-03,2.70E-02
93545,5.83E-03,2.72E-02
93546,5.79E-03,2.72E-02
93547,5.66E-03,2.73E-02
93548,5.80E-03,2.73E-02
93549,5.55E-03,2.75E-02
93550,5.62E-03,2.74E-02
93551,5.37E-03,2.76E-02
93552,5.39E-03,2.75E-02
93553,5.40E-03,2.77E-02
93554,5.40E-03,2.77E-02
93555,5.51E-03,2.78E-02
93556,5.47E-03,2.78E-02
93557,5.39E-03,2.79E-02
93558,5.43E-03,2.79E-02
93559,5.31E-03,2.80E-02
93560,5.37E-03,2.80E-02
93561,5.38E-03,2.80E-02
93562,5.33E-03,2.80E-02
93563,5.47E-03,2.80E-02
93564,5.39E-03,2.80E-02
93565,5.44E-03,2.80E-02
93566,5.50E-03,2.80E-02
93567,5.38E-03,2.80E-02
93568,5.37E-03,2.80E-02
93569,5.38E-03,2.80E-02
93570,5.40E-03,2.80E-02
93571,5.51E-03,2.80E-02
93572,5.48E-03,2.80E-02
93573,5.39E-03,2.80E-02
93574,5.45E-03,2.80E-02
93575,5.42E-03,2.80E-02
93576,5.39E-03,2.80E-02
93577,5.44E-03,2.80E-02
93578,5.45E-03,2.80E-02
93579,5.45E-03,2.80E-02
93580,5.45E-03,2.80E-02
93581,5.51E-03,2.79E-02
93582,5.49E-03,2.79E-02
93583,5.56E-03,2.79E-02
93584,5.56E-03,2.79E-02
93585,5.49E-03,2.79E-02
93586,5.51E-03,2.79E-02
93587,5.54E-03,2.78E-02
93588,5.53E-03,2.79E-02
93589,5.57E-03,2.78E-02
93590,5.57E-03,2.78E-02
93591,5.56E-03,2.77E-02
93592,5.54E-03,2.77E-02
93593,5.59E-03,2.76E-02
93594,5.59E-03,2.77E-02
93595,5.66E-03,2.75E-02
93596,5.65E-03,2.76E-02
93597,5.66E-03,2.74E-02
93598,5.69E-03,2.74E-02
93599,5.61E-03,2.72E-02
93600,5.67E-03,2.73E-02
93601,5.56E-03,2.71E-02
93602,5.58E-03,2.71E-02
93603,5.59E-03,2.69E-02
93604,5.53E-03,2.70E-02
93605,5.65E-03,2.67E-02
93606,5.62E-03,2.68E-02
93607,5.72E-03,2.65E-02
93608,5.70E-03,2.66E-02
93609,5.77E-03,2.63E-02
93610,5.72E-03,2.64E-02
93611,5.78E-03,2.61E-02
93612,5.75E-03,2.62E-02
93613,5.81E-03,2.60E-02
93614,5.79E-03,2.61E-02
93615,5.81E-03,2.58E-02
93616,5.79E-03,2.59E-02
93617,5.90E-03,2.55E-02
93618,5.83E-03,2.56E-02
93619,5.97E-03,2.53E-02
93620,5.92E-03,2.54E-02
93621,5.98E-03,2.51E-02
93622,6.00E-03,2.52E-02
93623,6.08E-03,2.49E-02
93624,5.97E-03,2.50E-02
93625,6.27E-03,2.47E-02
93626,6.21E-03,2.48E-02
93627,6.17E-03,2.46E-02
93628,6.27E-03,2.46E-02
93629,6.06E-03,2.44E-02
93630,6.15E-03,2.45E-02
93631,5.86E-03,2.43E-02
93632,5.95E-03,2.44E-02
93633,5.71E-03,2.42E-02
93634,5.78E-03,2.42E-02
93635,5.71E-03,2.40E-02
93636,5.70E-03,2.41E-02
93637,5.79E-03,2.38E-02
93638,5.75E-03,2.39E-02
93639,5.98E-03,2.36E-02
93640,5.90E-03,2.37E-02
93641,5.99E-03,2.34E-02
93642,6.04E-03,2.35E-02
93643,6.02E-03,2.32E-02
93644,6.05E-03,2.33E-02
93645,5.85E-03,2.30E-02
93646,5.96E-03,2.31E-02
93647,5.73E-03,2.27E-02
93648,5.77E-03,2.28E-02
93649,5.76E-03,2.24E-02
93650,5.72E-03,2.26E-02
93651,5.74E-03,2.23E-02
93652,5.81E-03,2.17E-02
93653,5.54E-03,2.54E-02
93654,4.01E-03,2.28E-02
93655,4.47E-03,2.22E-02
93656,5.43E-03,1.12E-02
93657,5.78E-03,1.95E-02
93658,6.05E-03,2.34E-02
93659,6.22E-03,2.35E-02
93660,6.16E-03,2.39E-02
93661,5.65E-03,2.64E-02
93662,5.46E-03,1.25E-02
93663,5.56E-03,1.24E-02
93664,5.69E-03,1.16E-02
93665,5.52E-03,1.15E-02
93666,6.13E-03,2.63E-02
93667,5.84E-03,2.23E-02
93668,5.84E-03,2.15E-02
93669,5.80E-03,2.17E-02
93670,5.00E-03,2.51E-02
93671,6.17E-03,2.42E-02
93672,5.51E-03,2.62E-02
93673,5.69E-03,2.70E-02
93674,4.27E-03,2.72E-02
93675,4.90E-03,2.73E-02
93676,5.32E-03,2.65E-02
93677,4.25E-03,2.65E-02
93678,5.80E-03,2.20E-02
93679,5.81E-03,2.22E-02
93680,4.28E-03,2.56E-02
93681,4.44E-03,2.57E-02
93682,6.07E-03,2.45E-02
93683,5.30E-03,2.60E-02
93684,5.63E-03,2.36E-02
93685,5.15E-03,2.35E-02
93686,4.09E-03,1.71E-02
93687,3.81E-03,1.69E-02
93688,3.96E-03,2.30E-02
93689,4.97E-03,1.68E-02
93690,5.34E-03,1.68E-02
93691,2.83E-03,2.36E-02
93692,5.32E-03,1.67E-02
93693,5.32E-03,1.67E-02
93694,5.63E-03,1.75E-02
93695,6.03E-03,1.74E-02
93696,5.56E-03,1.79E-02
93697,5.56E-03,1.77E-02
93698,5.59E-03,1.83E-02
93699,5.55E-03,1.81E-02
93700,5.56E-03,1.87E-02
93701,5.59E-03,1.85E-02
93702,5.47E-03,1.91E-02
93703,5.46E-03,1.89E-02
93704,5.33E-03,1.94E-02
93705,5.37E-03,1.93E-02
93706,5.31E-03,1.98E-02
93707,5.28E-03,1.96E-02
93708,5.31E-03,2.01E-02
93709,5.29E-03,2.00E-02
93710,5.10E-03,2.05E-02
93711,5.22E-03,2.03E-02
93712,4.98E-03,2.08E-02
93713,5.03E-03,2.06E-02
93714,4.79E-03,2.11E-02
93715,4.86E-03,2.09E-02
93716,4.67E-03,2.14E-02
93717,4.75E-03,2.12E-02
93718,4.61E-03,2.17E-02
93719,4.62E-03,2.15E-02
93720,4.54E-03,2.20E-02
93721,4.60E-03,2.18E-02
93722,4.45E-03,2.21E-02
93723,4.31E-03,2.28E-02
93724,4.30E-03,2.27E-02
93725,3.83E-03,2.30E-02
93726,3.67E-03,2.29E-02
93727,5.23E-03,2.33E-02
93728,5.51E-03,1.18E-02
93729,6.04E-03,1.16E-02
93730,5.77E-03,1.21E-02
93731,5.58E-03,1.20E-02
93732,5.70E-03,1.25E-02
93733,5.77E-03,1.23E-02
93734,5.64E-03,1.28E-02
93735,5.66E-03,1.27E-02
93736,5.67E-03,1.32E-02
93737,5.65E-03,1.30E-02
93738,5.54E-03,1.35E-02
93739,5.62E-03,1.34E-02
93740,5.44E-03,1.39E-02
93741,5.48E-03,1.37E-02
93742,5.41E-03,1.43E-02
93743,5.39E-03,1.41E-02
93744,5.50E-03,1.47E-02
93745,5.47E-03,1.45E-02
93746,5.52E-03,1.50E-02
93747,5.48E-03,1.48E-02
93748,5.59E-03,1.54E-02
93749,5.59E-03,1.52E-02
93750,5.58E-03,1.58E-02
93751,5.61E-03,1.56E-02
93752,5.52E-03,1.62E-02
93753,5.53E-03,1.60E-02
93754,5.47E-03,1.65E-02
93755,5.52E-03,1.64E-02
93756,5.54E-03,1.69E-02
93757,5.48E-03,1.67E-02
93758,5.58E-03,1.72E-02
93759,5.59E-03,1.71E-02
93760,5.68E-03,1.76E-02
93761,5.61E-03,1.74E-02
93762,5.71E-03,1.79E-02
93763,5.69E-03,1.77E-02
93764,5.65E-03,1.82E-02
93765,5.68E-03,1.81E-02
93766,5.68E-03,1.85E-02
93767,5.71E-03,1.84E-02
93768,5.62E-03,1.88E-02
93769,5.65E-03,1.86E-02
93770,5.66E-03,1.90E-02
93771,5.62E-03,1.89E-02
93772,5.61E-03,1.92E-02
93773,5.63E-03,1.91E-02
93774,5.59E-03,1.95E-02
93775,5.58E-03,1.94E-02
93776,5.61E-03,1.97E-02
93777,5.60E-03,1.96E-02
93778,5.64E-03,1.99E-02
93779,5.65E-03,1.98E-02
93780,5.73E-03,2.01E-02
93781,5.69E-03,2.00E-02
93782,5.83E-03,2.03E-02
93783,5.80E-03,2.02E-02
93784,5.71E-03,2.05E-02
93785,5.80E-03,2.04E-02
93786,5.60E-03,2.07E-02
93787,5.67E-03,2.06E-02
93788,5.59E-03,2.09E-02
93789,5.55E-03,2.08E-02
93790,5.61E-03,2.11E-02
93791,5.62E-03,2.10E-02
93792,5.50E-03,2.12E-02
93793,5.50E-03,2.11E-02
93794,5.43E-03,2.14E-02
93795,5.41E-03,2.13E-02
93796,5.57E-03,2.15E-02
93797,5.45E-03,2.14E-02
93798,5.72E-03,2.16E-02
93799,5.65E-03,2.16E-02
93800,5.68E-03,2.18E-02
93801,5.70E-03,2.17E-02
93802,5.55E-03,2.19E-02
93803,5.59E-03,2.18E-02
93804,5.44E-03,2.20E-02
93805,5.48E-03,2.19E-02
93806,5.39E-03,2.20E-02
93807,5.38E-03,2.20E-02
93808,5.47E-03,2.21E-02
93809,5.45E-03,2.21E-02
93810,5.54E-03,2.21E-02
93811,5.50E-03,2.21E-02
93812,5.57E-03,2.22E-02
93813,5.59E-03,2.21E-02
93814,5.48E-03,2.22E-02
93815,5.51E-03,2.22E-02
93816,5.50E-03,2.22E-02
93817,5.50E-03,2.22E-02
93818,5.62E-03,2.22E-02
93819,5.57E-03,2.22E-02
93820,5.62E-03,2.21E-02
93821,5.62E-03,2.21E-02
93822,5.63E-03,2.21E-02
93823,5.66E-03,2.21E-02
93824,5.63E-03,2.21E-02
93825,5.63E-03,2.21E-02
93826,5.56E-03,2.20E-02
93827,5.57E-03,2.21E-02
93828,5.61E-03,2.20E-02
93829,5.59E-03,2.20E-02
93830,5.61E-03,2.20E-02
93831,5.61E-03,2.20E-02
93832,5.66E-03,2.19E-02
93833,5.66E-03,2.19E-02
93834,5.57E-03,2.18E-02
93835,5.57E-03,2.18E-02
93836,5.65E-03,2.17E-02
93837,5.57E-03,2.18E-02
93838,5.70E-03,2.16E-02
93839,5.67E-03,2.17E-02
93840,5.66E-03,2.15E-02
93841,5.69E-03,2.16E-02
93842,5.68E-03,2.14E-02
93843,5.67E-03,2.15E-02
93844,5.66E-03,2.13E-02
93845,5.68E-03,2.14E-02
93846,5.62E-03,2.12E-02
93847,5.64E-03,2.13E-02
93848,5.60E-03,2.11E-02
93849,5.57E-03,2.11E-02
93850,5.66E-03,2.09E-02
93851,5.67E-03,2.10E-02
93852,5.56E-03,2.08E-02
93853,5.62E-03,2.09E-02
93854,5.66E-03,2.06E-02
93855,5.60E-03,2.07E-02
93856,5.67E-03,2.05E-02
93857,5.64E-03,2.06E-02
93858,5.70E-03,2.03E-02
93859,5.69E-03,2.04E-02
93860,5.69E-03,2.02E-02
93861,5.66E-03,2.03E-02
93862,5.58E-03,2.00E-02
93863,5.66E-03,2.01E-02
93864,5.60E-03,1.98E-02
93865,5.61E-03,1.99E-02
93866,5.67E-03,1.97E-02
93867,5.62E-03,1.97E-02
93868,5.74E-03,1.96E-02
93869,5.91E-03,1.93E-02
93870,5.89E-03,1.94E-02
93871,5.88E-03,1.91E-02
93872,5.93E-03,1.92E-02
93873,5.76E-03,1.89E-02
93874,5.79E-03,1.90E-02
93875,5.70E-03,1.87E-02
93876,5.71E-03,1.88E-02
93877,5.68E-03,1.86E-02
93878,5.69E-03,1.87E-02
93879,5.74E-03,1.84E-02
93880,5.71E-03,1.85E-02
93881,5.64E-03,1.83E-02
93882,5.66E-03,1.84E-02
93883,5.64E-03,1.81E-02
93884,5.68E-03,1.82E-02
93885,5.63E-03,1.80E-02
93886,5.62E-03,1.81E-02
93887,5.72E-03,1.79E-02
93888,5.66E-03,1.79E-02
93889,5.74E-03,1.78E-02
93890,5.78E-03,1.78E-02
93891,5.72E-03,1.77E-02
93892,5.78E-03,1.77E-02
93893,5.71E-03,1.75E-02
93894,5.74E-03,1.76E-02
93895,5.69E-03,1.74E-02
93896,5.71E-03,1.75E-02
93897,5.67E-03,1.73E-02
93898,5.72E-03,1.74E-02
93899,5.61E-03,1.72E-02
93900,5.62E-03,1.72E-02
93901,5.55E-03,1.71E-02
93902,5.60E-03,1.72E-02
93903,5.67E-03,1.70E-02
93904,5.62E-03,1.71E-02
93905,5.56E-03,1.70E-02
93906,5.67E-03,1.70E-02
93907,5.58E-03,1.69E-02
93908,5.56E-03,1.69E-02
93909,5.62E-03,1.69E-02
93910,5.61E-03,1.69E-02
93911,5.74E-03,1.68E-02
93912,5.68E-03,1.68E-02
93913,5.65E-03,1.68E-02
93914,5.70E-03,1.68E-02
93915,5.47E-03,1.67E-02
93916,5.51E-03,1.68E-02
93917,5.39E-03,1.67E-02
93918,6.32E-03,2.37E-02
93919,6.02E-03,2.67E-02
93920,5.71E-03,2.11E-02
93921,5.76E-03,2.13E-02
93922,5.56E-03,2.07E-02
93923,5.66E-03,2.09E-02
93924,5.46E-03,2.04E-02
93925,5.46E-03,2.06E-02
93926,5.43E-03,2.01E-02
93927,5.41E-03,2.03E-02
93928,5.35E-03,1.98E-02
93929,5.42E-03,2.00E-02
93930,5.38E-03,1.96E-02
93931,5.36E-03,1.97E-02
93932,5.43E-03,1.93E-02
93933,5.43E-03,1.94E-02
93934,5.51E-03,1.90E-02
93935,5.46E-03,1.91E-02
93936,5.57E-03,1.87E-02
93937,5.56E-03,1.88E-02
93938,5.57E-03,1.83E-02
93939,5.58E-03,1.85E-02
93940,5.65E-03,1.79E-02
93941,5.65E-03,1.81E-02
93942,5.69E-03,1.75E-02
93943,5.68E-03,1.77E-02
93944,5.77E-03,1.71E-02
93945,5.70E-03,1.73E-02
93946,5.79E-03,1.67E-02
93947,5.77E-03,1.69E-02
93948,5.77E-03,1.62E-02
93949,5.79E-03,1.65E-02
93950,5.63E-03,1.58E-02
93951,5.69E-03,1.60E-02
93952,5.51E-03,1.53E-02
93953,5.53E-03,1.55E-02
93954,5.39E-03,1.49E-02
93955,5.43E-03,1.51E-02
93956,5.28E-03,1.45E-02
93957,5.30E-03,1.47E-02
93958,5.34E-03,1.41E-02
93959,5.27E-03,1.43E-02
93960,5.42E-03,1.37E-02
93961,5.36E-03,1.39E-02
93962,5.47E-03,1.33E-02
93963,5.46E-03,1.35E-02
93964,5.41E-03,1.29E-02
93965,5.43E-03,1.31E-02
93966,5.38E-03,1.27E-02
93967,5.25E-03,1.21E-02
93968,5.49E-03,1.22E-02
93969,5.04E-03,1.19E-02
93970,5.70E-03,1.18E-02
93971,5.20E-03,1.13E-02
93972,5.37E-03,1.14E-02
93973,5.36E-03,1.12E-02
93974,5.22E-03,1.12E-02
93975,6.21E-03,1.11E-02
93976,5.83E-03,1.11E-02
93977,6.79E-03,1.10E-02
93978,6.25E-03,1.11E-02
93979,4.97E-03,1.08E-02
93980,6.66E-03,1.09E-02
93981,4.33E-03,2.72E-02
93982,4.31E-03,2.73E-02
93983,4.94E-03,2.71E-02
93984,4.69E-03,2.72E-02
93985,5.48E-03,2.70E-02
93986,5.36E-03,2.71E-02
93987,5.76E-03,2.69E-02
93988,5.63E-03,2.70E-02
93989,5.99E-03,2.68E-02
93990,5.88E-03,2.68E-02
93991,6.32E-03,2.66E-02
93992,6.18E-03,2.67E-02
93993,6.49E-03,2.65E-02
93994,6.39E-03,2.66E-02
93995,6.70E-03,2.64E-02
93996,6.67E-03,2.65E-02
93997,6.62E-03,2.63E-02
93998,6.73E-03,2.64E-02
93999,6.49E-03,2.63E-02
94000,6.50E-03,2.63E-02
94001,6.45E-03,2.63E-02
94002,5.72E-03,2.66E-02
94003,5.61E-03,2.66E-02
94004,5.83E-03,2.67E-02
94005,5.86E-03,2.69E-02
94006,5.88E-03,2.68E-02
94007,5.72E-03,2.70E-02
94008,5.79E-03,2.70E-02
94009,5.64E-03,2.72E-02
94010,5.66E-03,2.71E-02
94011,5.68E-03,2.74E-02
94012,5.66E-03,2.73E-02
94013,5.74E-03,2.75E-02
94014,5.74E-03,2.74E-02
94015,5.83E-03,2.76E-02
94016,5.79E-03,2.76E-02
94017,5.70E-03,2.78E-02
94018,5.80E-03,2.77E-02
94019,5.57E-03,2.79E-02
94020,5.65E-03,2.79E-02
94021,5.43E-03,2.80E-02
94022,5.47E-03,2.80E-02
94023,5.44E-03,2.82E-02
94024,5.48E-03,2.81E-02
94025,5.49E-03,2.83E-02
94026,5.47E-03,2.82E-02
94027,5.40E-03,2.84E-02
94028,5.47E-03,2.83E-02
94029,5.36E-03,2.85E-02
94030,5.38E-03,2.84E-02
94031,5.37E-03,2.85E-02
94032,5.36E-03,2.85E-02
94033,5.46E-03,2.85E-02
94034,5.45E-03,2.85E-02
94035,5.48E-03,2.85E-02
94036,5.52E-03,2.85E-02
94037,5.40E-03,2.85E-02
94038,5.45E-03,2.85E-02
94039,5.42E-03,2.84E-02
94040,5.41E-03,2.85E-02
94041,5.45E-03,2.84E-02
94042,5.46E-03,2.84E-02
94043,5.38E-03,2.84E-02
94044,5.44E-03,2.84E-02
94045,5.40E-03,2.84E-02
94046,5.37E-03,2.84E-02
94047,5.45E-03,2.84E-02
94048,5.42E-03,2.84E-02
94049,5.42E-03,2.84E-02
94050,5.45E-03,2.84E-02
94051,5.53E-03,2.84E-02
94052,5.46E-03,2.84E-02
94053,5.59E-03,2.84E-02
94054,5.53E-03,2.84E-02
94055,5.54E-03,2.84E-02
94056,5.55E-03,2.84E-02
94057,5.56E-03,2.83E-02
94058,5.57E-03,2.83E-02
94059,5.60E-03,2.83E-02
94060,5.57E-03,2.83E-02
94061,5.58E-03,2.82E-02
94062,5.55E-03,2.82E-02
94063,5.62E-03,2.81E-02
94064,5.61E-03,2.81E-02
94065,5.66E-03,2.80E-02
94066,5.64E-03,2.80E-02
94067,5.65E-03,2.78E-02
94068,5.63E-03,2.79E-02
94069,5.60E-03,2.77E-02
94070,5.64E-03,2.77E-02
94071,5.56E-03,2.75E-02
94072,5.57E-03,2.76E-02
94073,5.58E-03,2.73E-02
94074,5.56E-03,2.74E-02
94075,5.64E-03,2.71E-02
94076,5.62E-03,2.72E-02
94077,5.70E-03,2.69E-02
94078,5.70E-03,2.70E-02
94079,5.75E-03,2.68E-02
94080,5.75E-03,2.68E-02
94081,5.80E-03,2.65E-02
94082,5.78E-03,2.66E-02
94083,5.75E-03,2.63E-02
94084,5.78E-03,2.64E-02
94085,5.79E-03,2.61E-02
94086,5.74E-03,2.62E-02
94087,5.84E-03,2.59E-02
94088,5.80E-03,2.60E-02
94089,5.91E-03,2.57E-02
94090,5.86E-03,2.58E-02
94091,5.95E-03,2.55E-02
94092,5.97E-03,2.56E-02
94093,6.04E-03,2.53E-02
94094,5.95E-03,2.54E-02
94095,6.12E-03,2.51E-02
94096,6.09E-03,2.52E-02
94097,6.13E-03,2.49E-02
94098,6.13E-03,2.50E-02
94099,6.04E-03,2.47E-02
94100,6.13E-03,2.48E-02
94101,5.94E-03,2.46E-02
94102,5.99E-03,2.46E-02
94103,5.81E-03,2.44E-02
94104,5.87E-03,2.45E-02
94105,5.73E-03,2.43E-02
94106,5.76E-03,2.43E-02
94107,5.80E-03,2.41E-02
94108,5.75E-03,2.42E-02
94109,5.90E-03,2.39E-02
94110,5.85E-03,2.40E-02
94111,5.91E-03,2.37E-02
94112,5.94E-03,2.38E-02
94113,5.97E-03,2.34E-02
94114,5.96E-03,2.36E-02
94115,5.90E-03,2.32E-02
94116,5.99E-03,2.33E-02
94117,5.82E-03,2.29E-02
94118,5.79E-03,2.31E-02
94119,5.82E-03,2.26E-02
94120,5.83E-03,2.27E-02
94121,5.78E-03,2.24E-02
94122,5.84E-03,2.19E-02
94123,5.68E-03,2.53E-02
94124,5.67E-03,2.55E-02
94125,5.57E-03,2.49E-02
94126,3.87E-03,2.52E-02
94127,5.26E-03,1.65E-02
94128,5.54E-03,1.64E-02
94129,3.76E-03,1.70E-02
94130,4.45E-03,2.38E-02
94131,6.00E-03,2.37E-02
94132,6.21E-03,2.40E-02
94133,5.64E-03,2.64E-02
94134,5.23E-03,2.73E-02
94135,5.42E-03,2.70E-02
94136,5.40E-03,1.24E-02
94137,5.79E-03,1.22E-02
94138,5.12E-03,2.66E-02
94139,5.83E-03,2.24E-02
94140,5.78E-03,2.16E-02
94141,5.90E-03,2.18E-02
94142,5.12E-03,2.57E-02
94143,4.98E-03,1.66E-02
94144,4.65E-03,2.33E-02
94145,2.92E-03,2.36E-02
94146,3.27E-03,2.35E-02
94147,4.73E-03,1.08E-02
94148,3.82E-03,1.07E-02
94149,6.13E-03,2.43E-02
94150,5.56E-03,2.62E-02
94151,5.89E-03,1.13E-02
94152,5.98E-03,2.22E-02
94153,5.95E-03,2.24E-02
94154,5.98E-03,2.47E-02
94155,5.46E-03,2.60E-02
94156,5.30E-03,2.50E-02
94157,5.48E-03,1.64E-02
94158,5.40E-03,1.64E-02
94159,5.56E-03,1.73E-02
94160,5.36E-03,1.71E-02
94161,5.58E-03,1.77E-02
94162,5.58E-03,1.75E-02
94163,5.65E-03,1.81E-02
94164,5.58E-03,1.79E-02
94165,5.58E-03,1.85E-02
94166,5.62E-03,1.83E-02
94167,5.48E-03,1.88E-02
94168,5.52E-03,1.87E-02
94169,5.34E-03,1.92E-02
94170,5.37E-03,1.90E-02
94171,5.27E-03,1.96E-02
94172,5.26E-03,1.94E-02
94173,5.29E-03,1.99E-02
94174,5.28E-03,1.97E-02
94175,5.15E-03,2.03E-02
94176,5.24E-03,2.01E-02
94177,5.06E-03,2.06E-02
94178,5.10E-03,2.04E-02
94179,4.87E-03,2.09E-02
94180,4.97E-03,2.07E-02
94181,4.74E-03,2.12E-02
94182,4.81E-03,2.11E-02
94183,4.68E-03,2.15E-02
94184,4.72E-03,2.14E-02
94185,4.63E-03,2.18E-02
94186,4.67E-03,2.16E-02
94187,4.51E-03,2.21E-02
94188,4.60E-03,2.19E-02
94189,4.52E-03,2.24E-02
94190,4.51E-03,2.22E-02
94191,4.37E-03,2.27E-02
94192,4.47E-03,2.25E-02
94193,4.01E-03,2.30E-02
94194,4.58E-03,2.28E-02
94195,4.46E-03,2.32E-02
94196,5.05E-03,2.75E-02
94197,5.36E-03,2.73E-02
94198,5.19E-03,2.75E-02
94199,6.33E-03,2.59E-02
94200,4.20E-03,2.38E-02
94201,6.18E-03,1.11E-02
94202,4.95E-03,1.09E-02
94203,3.95E-03,1.13E-02
94204,5.17E-03,1.12E-02
94205,6.93E-03,1.16E-02
94206,5.67E-03,1.14E-02
94207,5.99E-03,1.19E-02
94208,7.00E-03,1.17E-02
94209,5.76E-03,1.23E-02
94210,5.80E-03,1.21E-02
94211,5.68E-03,1.26E-02
94212,5.78E-03,1.24E-02
94213,5.66E-03,1.29E-02
94214,5.61E-03,1.28E-02
94215,5.64E-03,1.33E-02
94216,5.65E-03,1.31E-02
94217,5.55E-03,1.36E-02
94218,5.58E-03,1.35E-02
94219,5.47E-03,1.40E-02
94220,5.54E-03,1.38E-02
94221,5.44E-03,1.44E-02
94222,5.43E-03,1.42E-02
94223,5.53E-03,1.47E-02
94224,5.46E-03,1.46E-02
94225,5.58E-03,1.51E-02
94226,5.55E-03,1.49E-02
94227,5.64E-03,1.55E-02
94228,5.58E-03,1.53E-02
94229,5.59E-03,1.59E-02
94230,5.66E-03,1.57E-02
94231,5.57E-03,1.62E-02
94232,5.56E-03,1.61E-02
94233,5.44E-03,1.66E-02
94234,5.50E-03,1.64E-02
94235,5.50E-03,1.69E-02
94236,5.47E-03,1.68E-02
94237,5.60E-03,1.73E-02
94238,5.53E-03,1.71E-02
94239,5.67E-03,1.76E-02
94240,5.62E-03,1.74E-02
94241,5.69E-03,1.79E-02
94242,5.69E-03,1.78E-02
94243,5.73E-03,1.82E-02
94244,5.69E-03,1.81E-02
94245,5.67E-03,1.85E-02
94246,5.73E-03,1.84E-02
94247,5.62E-03,1.88E-02
94248,5.61E-03,1.86E-02
94249,5.64E-03,1.90E-02
94250,5.59E-03,1.89E-02
94251,5.70E-03,1.92E-02
94252,5.66E-03,1.91E-02
94253,5.66E-03,1.94E-02
94254,5.64E-03,1.93E-02
94255,5.62E-03,1.97E-02
94256,5.65E-03,1.96E-02
94257,5.65E-03,1.99E-02
94258,5.65E-03,1.98E-02
94259,5.79E-03,2.01E-02
94260,5.73E-03,2.00E-02
94261,5.76E-03,2.02E-02
94262,5.79E-03,2.02E-02
94263,5.75E-03,2.04E-02
94264,5.76E-03,2.03E-02
94265,5.58E-03,2.06E-02
94266,5.68E-03,2.05E-02
94267,5.54E-03,2.08E-02
94268,5.53E-03,2.07E-02
94269,5.56E-03,2.09E-02
94270,5.54E-03,2.09E-02
94271,5.48E-03,2.11E-02
94272,5.50E-03,2.10E-02
94273,5.45E-03,2.12E-02
94274,5.46E-03,2.12E-02
94275,5.52E-03,2.14E-02
94276,5.49E-03,2.13E-02
94277,5.67E-03,2.15E-02
94278,5.60E-03,2.14E-02
94279,5.69E-03,2.16E-02
94280,5.72E-03,2.15E-02
94281,5.55E-03,2.17E-02
94282,5.61E-03,2.17E-02
94283,5.42E-03,2.18E-02
94284,5.49E-03,2.17E-02
94285,5.41E-03,2.18E-02
94286,5.39E-03,2.18E-02
94287,5.52E-03,2.19E-02
94288,5.45E-03,2.19E-02
94289,5.60E-03,2.19E-02
94290,5.58E-03,2.19E-02
94291,5.61E-03,2.19E-02
94292,5.62E-03,2.19E-02
94293,5.57E-03,2.20E-02
94294,5.60E-03,2.20E-02
94295,5.54E-03,2.19E-02
94296,5.56E-03,2.20E-02
94297,5.53E-03,2.19E-02
94298,5.53E-03,2.19E-02
94299,5.61E-03,2.19E-02
94300,5.56E-03,2.19E-02
94301,5.61E-03,2.19E-02
94302,5.65E-03,2.19E-02
94303,5.56E-03,2.18E-02
94304,5.57E-03,2.18E-02
94305,5.59E-03,2.18E-02
94306,5.60E-03,2.18E-02
94307,5.64E-03,2.17E-02
94308,5.60E-03,2.17E-02
94309,5.64E-03,2.17E-02
94310,5.64E-03,2.17E-02
94311,5.61E-03,2.16E-02
94312,5.63E-03,2.16E-02
94313,5.57E-03,2.15E-02
94314,5.59E-03,2.15E-02
94315,5.58E-03,2.14E-02
94316,5.56E-03,2.15E-02
94317,5.67E-03,2.13E-02
94318,5.61E-03,2.14E-02
94319,5.69E-03,2.12E-02
94320,5.67E-03,2.13E-02
94321,5.68E-03,2.11E-02
94322,5.72E-03,2.12E-02
94323,5.61E-03,2.10E-02
94324,5.61E-03,2.10E-02
94325,5.57E-03,2.09E-02
94326,5.57E-03,2.09E-02
94327,5.62E-03,2.07E-02
94328,5.61E-03,2.08E-02
94329,5.62E-03,2.06E-02
94330,5.65E-03,2.07E-02
94331,5.57E-03,2.04E-02
94332,5.61E-03,2.05E-02
94333,5.59E-03,2.03E-02
94334,5.59E-03,2.04E-02
94335,5.69E-03,2.01E-02
94336,5.64E-03,2.02E-02
94337,5.69E-03,2.00E-02
94338,5.67E-03,2.01E-02
94339,5.65E-03,1.98E-02
94340,5.67E-03,1.99E-02
94341,5.56E-03,1.96E-02
94342,5.60E-03,1.97E-02
94343,5.60E-03,1.95E-02
94344,5.58E-03,1.95E-02
94345,5.68E-03,1.93E-02
94346,5.62E-03,1.94E-02
94347,5.81E-03,1.92E-02
94348,5.73E-03,1.92E-02
94349,5.92E-03,1.90E-02
94350,5.88E-03,1.91E-02
94351,5.94E-03,1.89E-02
94352,6.01E-03,1.90E-02
94353,5.86E-03,1.87E-02
94354,5.89E-03,1.88E-02
94355,5.75E-03,1.85E-02
94356,5.77E-03,1.86E-02
94357,5.72E-03,1.84E-02
94358,5.73E-03,1.84E-02
94359,5.71E-03,1.82E-02
94360,5.71E-03,1.83E-02
94361,5.70E-03,1.81E-02
94362,5.68E-03,1.81E-02
94363,5.70E-03,1.79E-02
94364,5.72E-03,1.80E-02
94365,5.64E-03,1.78E-02
94366,5.72E-03,1.78E-02
94367,5.66E-03,1.76E-02
94368,5.65E-03,1.77E-02
94369,5.69E-03,1.75E-02
94370,5.64E-03,1.76E-02
94371,5.72E-03,1.74E-02
94372,5.75E-03,1.74E-02
94373,5.68E-03,1.73E-02
94374,5.77E-03,1.73E-02
94375,5.69E-03,1.71E-02
94376,5.68E-03,1.72E-02
94377,5.68E-03,1.70E-02
94378,5.68E-03,1.71E-02
94379,5.67E-03,1.69E-02
94380,5.68E-03,1.70E-02
94381,5.61E-03,1.68E-02
94382,5.62E-03,1.69E-02
94383,5.54E-03,1.67E-02
94384,5.56E-03,1.68E-02
94385,5.64E-03,1.67E-02
94386,5.62E-03,1.67E-02
94387,5.59E-03,1.66E-02
94388,5.61E-03,1.66E-02
94389,5.57E-03,1.66E-02
94390,5.57E-03,1.66E-02
94391,5.60E-03,1.65E-02
94392,5.61E-03,1.65E-02
94393,5.77E-03,1.65E-02
94394,5.67E-03,1.65E-02
94395,5.69E-03,1.64E-02
94396,5.76E-03,1.64E-02
94397,5.56E-03,1.64E-02
94398,5.59E-03,1.64E-02
94399,5.49E-03,1.64E-02
94400,6.15E-03,2.38E-02
94401,5.62E-03,2.67E-02
94402,5.71E-03,2.12E-02
94403,5.74E-03,2.14E-02
94404,5.59E-03,2.08E-02
94405,5.66E-03,2.10E-02
94406,5.50E-03,2.05E-02
94407,5.57E-03,2.06E-02
94408,5.47E-03,2.02E-02
94409,5.48E-03,2.03E-02
94410,5.37E-03,1.99E-02
94411,5.44E-03,2.00E-02
94412,5.39E-03,1.96E-02
94413,5.37E-03,1.97E-02
94414,5.46E-03,1.93E-02
94415,5.44E-03,1.94E-02
94416,5.53E-03,1.90E-02
94417,5.51E-03,1.91E-02
94418,5.59E-03,1.87E-02
94419,5.57E-03,1.88E-02
94420,5.63E-03,1.83E-02
94421,5.62E-03,1.85E-02
94422,5.64E-03,1.79E-02
94423,5.62E-03,1.81E-02
94424,5.66E-03,1.75E-02
94425,5.62E-03,1.77E-02
94426,5.78E-03,1.71E-02
94427,5.70E-03,1.73E-02
94428,5.81E-03,1.66E-02
94429,5.78E-03,1.69E-02
94430,5.72E-03,1.62E-02
94431,5.78E-03,1.64E-02
94432,5.63E-03,1.57E-02
94433,5.69E-03,1.59E-02
94434,5.48E-03,1.52E-02
94435,5.56E-03,1.55E-02
94436,5.41E-03,1.48E-02
94437,5.48E-03,1.50E-02
94438,5.26E-03,1.44E-02
94439,5.31E-03,1.46E-02
94440,5.36E-03,1.39E-02
94441,5.30E-03,1.42E-02
94442,5.42E-03,1.35E-02
94443,5.39E-03,1.37E-02
94444,5.48E-03,1.31E-02
94445,5.49E-03,1.33E-02
94446,5.38E-03,1.28E-02
94447,5.41E-03,1.30E-02
94448,5.36E-03,1.26E-02
94449,5.13E-03,1.19E-02
94450,5.68E-03,1.21E-02
94451,4.26E-03,1.17E-02
94452,4.49E-03,1.18E-02
94453,5.17E-03,1.14E-02
94454,4.55E-03,1.16E-02
94455,5.48E-03,1.11E-02
94456,5.60E-03,1.12E-02
94457,5.58E-03,1.10E-02
94458,5.45E-03,1.11E-02
94459,5.95E-03,1.09E-02
94460,5.78E-03,1.10E-02
94461,6.19E-03,1.08E-02
94462,6.19E-03,1.09E-02
94463,4.79E-03,1.06E-02
94464,5.88E-03,1.07E-02
94465,4.06E-03,1.05E-02
94466,4.76E-03,1.06E-02
94467,4.53E-03,2.75E-02
94468,4.81E-03,2.75E-02
94469,4.62E-03,2.75E-02
94470,4.61E-03,2.75E-02
94471,4.98E-03,2.74E-02
94472,4.84E-03,2.75E-02
94473,5.41E-03,2.73E-02
94474,5.28E-03,2.74E-02
94475,5.72E-03,2.72E-02
94476,5.57E-03,2.73E-02
94477,5.97E-03,2.71E-02
94478,5.84E-03,2.71E-02
94479,6.20E-03,2.69E-02
94480,6.09E-03,2.70E-02
94481,6.40E-03,2.68E-02
94482,6.30E-03,2.69E-02
94483,6.54E-03,2.67E-02
94484,6.53E-03,2.68E-02
94485,6.49E-03,2.67E-02
94486,6.53E-03,2.67E-02
94487,6.51E-03,2.67E-02
94488,6.48E-03,2.67E-02
94489,6.88E-03,2.67E-02
94490,6.44E-03,2.67E-02
94491,5.46E-03,2.69E-02
94492,5.05E-03,2.68E-02
94493,5.72E-03,2.70E-02
94494,5.62E-03,2.69E-02
94495,5.83E-03,2.71E-02
94496,5.78E-03,2.73E-02
94497,5.83E-03,2.72E-02
94498,5.71E-03,2.75E-02
94499,5.75E-03,2.74E-02
94500,5.65E-03,2.76E-02
94501,5.63E-03,2.75E-02
94502,5.67E-03,2.78E-02
94503,5.62E-03,2.77E-02
94504,5.74E-03,2.79E-02
94505,5.73E-03,2.79E-02
94506,5.81E-03,2.81E-02
94507,5.80E-03,2.80E-02
94508,5.76E-03,2.82E-02
94509,5.77E-03,2.82E-02
94510,5.58E-03,2.84E-02
94511,5.68E-03,2.83E-02
94512,5.52E-03,2.85E-02
94513,5.53E-03,2.84E-02
94514,5.51E-03,2.86E-02
94515,5.52E-03,2.86E-02
94516,5.54E-03,2.87E-02
94517,5.51E-03,2.87E-02
94518,5.46E-03,2.88E-02
94519,5.53E-03,2.88E-02
94520,5.36E-03,2.89E-02
94521,5.39E-03,2.89E-02
94522,5.38E-03,2.89E-02
94523,5.38E-03,2.89E-02
94524,5.48E-03,2.89E-02
94525,5.45E-03,2.89E-02
94526,5.44E-03,2.90E-02
94527,5.52E-03,2.89E-02
94528,5.44E-03,2.89E-02
94529,5.45E-03,2.90E-02
94530,5.39E-03,2.89E-02
94531,5.40E-03,2.89E-02
94532,5.46E-03,2.89E-02
94533,5.48E-03,2.89E-02
94534,5.46E-03,2.89E-02
94535,5.45E-03,2.89E-02
94536,5.44E-03,2.89E-02
94537,5.43E-03,2.89E-02
94538,5.45E-03,2.89E-02
94539,5.46E-03,2.89E-02
94540,5.39E-03,2.89E-02
94541,5.39E-03,2.89E-02
94542,5.52E-03,2.89E-02
94543,5.44E-03,2.89E-02
94544,5.62E-03,2.89E-02
94545,5.55E-03,2.89E-02
94546,5.56E-03,2.88E-02
94547,5.57E-03,2.88E-02
94548,5.53E-03,2.88E-02
94549,5.52E-03,2.88E-02
94550,5.57E-03,2.87E-02
94551,5.53E-03,2.88E-02
94552,5.59E-03,2.87E-02
94553,5.62E-03,2.87E-02
94554,5.67E-03,2.86E-02
94555,5.64E-03,2.86E-02
94556,5.65E-03,2.84E-02
94557,5.66E-03,2.85E-02
94558,5.62E-03,2.83E-02
94559,5.64E-03,2.84E-02
94560,5.58E-03,2.81E-02
94561,5.61E-03,2.82E-02
94562,5.55E-03,2.79E-02
94563,5.55E-03,2.80E-02
94564,5.57E-03,2.78E-02
94565,5.56E-03,2.78E-02
94566,5.64E-03,2.76E-02
94567,5.61E-03,2.77E-02
94568,5.70E-03,2.74E-02
94569,5.67E-03,2.75E-02
94570,5.73E-03,2.72E-02
94571,5.76E-03,2.73E-02
94572,5.74E-03,2.69E-02
94573,5.74E-03,2.71E-02
94574,5.74E-03,2.67E-02
94575,5.76E-03,2.68E-02
94576,5.78E-03,2.65E-02
94577,5.74E-03,2.66E-02
94578,5.79E-03,2.63E-02
94579,5.77E-03,2.64E-02
94580,5.84E-03,2.60E-02
94581,5.83E-03,2.61E-02
94582,5.85E-03,2.58E-02
94583,5.87E-03,2.59E-02
94584,5.88E-03,2.56E-02
94585,5.83E-03,2.57E-02
94586,6.02E-03,2.54E-02
94587,5.96E-03,2.55E-02
94588,6.09E-03,2.52E-02
94589,6.06E-03,2.53E-02
94590,6.09E-03,2.50E-02
94591,6.08E-03,2.51E-02
94592,5.99E-03,2.49E-02
94593,6.05E-03,2.49E-02
94594,5.83E-03,2.47E-02
94595,5.90E-03,2.48E-02
94596,5.77E-03,2.45E-02
94597,5.79E-03,2.46E-02
94598,5.83E-03,2.43E-02
94599,5.77E-03,2.44E-02
94600,5.89E-03,2.41E-02
94601,5.89E-03,2.42E-02
94602,5.89E-03,2.39E-02
94603,5.87E-03,2.40E-02
94604,5.89E-03,2.37E-02
94605,5.89E-03,2.38E-02
94606,5.93E-03,2.34E-02
94607,5.97E-03,2.36E-02
94608,5.86E-03,2.31E-02
94609,5.85E-03,2.33E-02
94610,5.84E-03,2.28E-02
94611,5.84E-03,2.30E-02
94612,5.81E-03,2.26E-02
94613,5.87E-03,2.20E-02
94614,5.35E-03,2.52E-02
94615,6.69E-03,2.56E-02
94616,5.99E-03,2.54E-02
94617,5.66E-03,1.61E-02
94618,5.05E-03,1.67E-02
94619,4.53E-03,2.32E-02
94620,4.83E-03,2.40E-02
94621,3.70E-03,1.05E-02
94622,6.23E-03,2.39E-02
94623,6.35E-03,2.41E-02
94624,5.68E-03,2.65E-02
94625,5.53E-03,2.70E-02
94626,6.54E-03,1.13E-02
94627,5.87E-03,2.26E-02
94628,6.26E-03,2.39E-02
94629,6.21E-03,2.45E-02
94630,5.92E-03,2.62E-02
94631,5.39E-03,2.75E-02
94632,5.54E-03,2.73E-02
94633,6.78E-03,2.48E-02
94634,6.56E-03,2.61E-02
94635,5.27E-03,2.41E-02
94636,5.51E-03,1.61E-02
94637,5.47E-03,1.61E-02
94638,5.52E-03,1.70E-02
94639,5.26E-03,1.68E-02
94640,5.58E-03,1.74E-02
94641,5.55E-03,1.72E-02
94642,5.64E-03,1.78E-02
94643,5.59E-03,1.76E-02
94644,5.55E-03,1.82E-02
94645,5.63E-03,1.80E-02
94646,5.49E-03,1.86E-02
94647,5.53E-03,1.84E-02
94648,5.34E-03,1.90E-02
94649,5.37E-03,1.88E-02
94650,5.27E-03,1.93E-02
94651,5.29E-03,1.92E-02
94652,5.32E-03,1.97E-02
94653,5.31E-03,1.95E-02
94654,5.25E-03,2.01E-02
94655,5.29E-03,1.99E-02
94656,5.12E-03,2.04E-02
94657,5.19E-03,2.02E-02
94658,5.01E-03,2.07E-02
94659,5.07E-03,2.06E-02
94660,4.81E-03,2.10E-02
94661,4.94E-03,2.09E-02
94662,4.76E-03,2.13E-02
94663,4.80E-03,2.12E-02
94664,4.69E-03,2.16E-02
94665,4.74E-03,2.15E-02
94666,4.65E-03,2.19E-02
94667,4.68E-03,2.18E-02
94668,4.65E-03,2.22E-02
94669,4.67E-03,2.21E-02
94670,4.63E-03,2.25E-02
94671,4.62E-03,2.24E-02
94672,4.51E-03,2.29E-02
94673,4.58E-03,2.27E-02
94674,4.51E-03,2.30E-02
94675,3.89E-03,2.36E-02
94676,3.89E-03,2.35E-02
94677,4.40E-03,2.38E-02
94678,3.63E-03,2.58E-02
94679,4.65E-03,2.59E-02
94680,6.66E-03,1.03E-02
94681,5.05E-03,1.06E-02
94682,6.20E-03,1.04E-02
94683,4.80E-03,1.09E-02
94684,4.72E-03,1.07E-02
94685,5.28E-03,1.12E-02
94686,5.26E-03,1.10E-02
94687,5.19E-03,1.14E-02
94688,5.27E-03,1.13E-02
94689,6.08E-03,1.17E-02
94690,5.53E-03,1.16E-02
94691,6.14E-03,1.20E-02
94692,6.19E-03,1.19E-02
94693,5.79E-03,1.24E-02
94694,5.92E-03,1.22E-02
94695,5.67E-03,1.27E-02
94696,5.78E-03,1.25E-02
94697,5.63E-03,1.30E-02
94698,5.63E-03,1.29E-02
94699,5.66E-03,1.34E-02
94700,5.63E-03,1.32E-02
94701,5.60E-03,1.37E-02
94702,5.62E-03,1.36E-02
94703,5.51E-03,1.41E-02
94704,5.56E-03,1.39E-02
94705,5.47E-03,1.45E-02
94706,5.46E-03,1.43E-02
94707,5.56E-03,1.48E-02
94708,5.52E-03,1.46E-02
94709,5.61E-03,1.52E-02
94710,5.57E-03,1.50E-02
94711,5.61E-03,1.56E-02
94712,5.58E-03,1.54E-02
94713,5.61E-03,1.59E-02
94714,5.61E-03,1.57E-02
94715,5.56E-03,1.63E-02
94716,5.56E-03,1.61E-02
94717,5.42E-03,1.66E-02
94718,5.49E-03,1.65E-02
94719,5.53E-03,1.70E-02
94720,5.49E-03,1.68E-02
94721,5.55E-03,1.73E-02
94722,5.52E-03,1.71E-02
94723,5.64E-03,1.76E-02
94724,5.60E-03,1.75E-02
94725,5.68E-03,1.79E-02
94726,5.69E-03,1.78E-02
94727,5.73E-03,1.82E-02
94728,5.70E-03,1.81E-02
94729,5.64E-03,1.85E-02
94730,5.74E-03,1.84E-02
94731,5.62E-03,1.87E-02
94732,5.62E-03,1.86E-02
94733,5.61E-03,1.90E-02
94734,5.57E-03,1.89E-02
94735,5.73E-03,1.92E-02
94736,5.66E-03,1.91E-02
94737,5.67E-03,1.94E-02
94738,5.69E-03,1.93E-02
94739,5.61E-03,1.96E-02
94740,5.63E-03,1.95E-02
94741,5.66E-03,1.98E-02
94742,5.64E-03,1.97E-02
94743,5.74E-03,2.00E-02
94744,5.70E-03,1.99E-02
94745,5.78E-03,2.02E-02
94746,5.80E-03,2.01E-02
94747,5.71E-03,2.04E-02
94748,5.73E-03,2.03E-02
94749,5.58E-03,2.05E-02
94750,5.69E-03,2.04E-02
94751,5.55E-03,2.07E-02
94752,5.50E-03,2.06E-02
94753,5.59E-03,2.08E-02
94754,5.53E-03,2.08E-02
94755,5.50E-03,2.10E-02
94756,5.57E-03,2.09E-02
94757,5.50E-03,2.11E-02
94758,5.50E-03,2.10E-02
94759,5.49E-03,2.12E-02
94760,5.52E-03,2.12E-02
94761,5.61E-03,2.13E-02
94762,5.58E-03,2.13E-02
94763,5.61E-03,2.14E-02
94764,5.68E-03,2.14E-02
94765,5.53E-03,2.15E-02
94766,5.58E-03,2.15E-02
94767,5.46E-03,2.16E-02
94768,5.49E-03,2.16E-02
94769,5.43E-03,2.16E-02
94770,5.38E-03,2.16E-02
94771,5.53E-03,2.17E-02
94772,5.48E-03,2.17E-02
94773,5.58E-03,2.17E-02
94774,5.57E-03,2.17E-02
94775,5.62E-03,2.17E-02
94776,5.61E-03,2.17E-02
94777,5.62E-03,2.17E-02
94778,5.60E-03,2.17E-02
94779,5.48E-03,2.17E-02
94780,5.56E-03,2.17E-02
94781,5.48E-03,2.17E-02
94782,5.45E-03,2.17E-02
94783,5.57E-03,2.16E-02
94784,5.53E-03,2.17E-02
94785,5.68E-03,2.16E-02
94786,5.61E-03,2.16E-02
94787,5.57E-03,2.16E-02
94788,5.61E-03,2.16E-02
94789,5.55E-03,2.15E-02
94790,5.55E-03,2.15E-02
94791,5.57E-03,2.14E-02
94792,5.59E-03,2.15E-02
94793,5.64E-03,2.14E-02
94794,5.62E-03,2.14E-02
94795,5.57E-03,2.13E-02
94796,5.58E-03,2.13E-02
94797,5.50E-03,2.12E-02
94798,5.53E-03,2.13E-02
94799,5.57E-03,2.11E-02
94800,5.57E-03,2.12E-02
94801,5.64E-03,2.10E-02
94802,5.64E-03,2.11E-02
94803,5.68E-03,2.09E-02
94804,5.62E-03,2.10E-02
94805,5.65E-03,2.08E-02
94806,5.70E-03,2.08E-02
94807,5.60E-03,2.07E-02
94808,5.58E-03,2.07E-02
94809,5.58E-03,2.05E-02
94810,5.62E-03,2.06E-02
94811,5.65E-03,2.04E-02
94812,5.60E-03,2.05E-02
94813,5.63E-03,2.03E-02
94814,5.70E-03,2.03E-02
94815,5.59E-03,2.01E-02
94816,5.62E-03,2.02E-02
94817,5.59E-03,1.99E-02
94818,5.57E-03,2.00E-02
94819,5.72E-03,1.98E-02
94820,5.69E-03,1.99E-02
94821,5.68E-03,1.96E-02
94822,5.68E-03,1.97E-02
94823,5.61E-03,1.94E-02
94824,5.63E-03,1.95E-02
94825,5.57E-03,1.93E-02
94826,5.62E-03,1.94E-02
94827,5.59E-03,1.91E-02
94828,5.53E-03,1.92E-02
94829,5.67E-03,1.89E-02
94830,5.61E-03,1.90E-02
94831,5.80E-03,1.88E-02
94832,5.74E-03,1.89E-02
94833,5.85E-03,1.87E-02
94834,5.86E-03,1.87E-02
94835,5.87E-03,1.85E-02
94836,5.90E-03,1.86E-02
94837,5.79E-03,1.83E-02
94838,5.83E-03,1.84E-02
94839,5.71E-03,1.81E-02
94840,5.74E-03,1.82E-02
94841,5.67E-03,1.80E-02
94842,5.70E-03,1.81E-02
94843,5.68E-03,1.78E-02
94844,5.67E-03,1.79E-02
94845,5.65E-03,1.77E-02
94846,5.69E-03,1.77E-02
94847,5.67E-03,1.75E-02
94848,5.65E-03,1.76E-02
94849,5.62E-03,1.74E-02
94850,5.68E-03,1.75E-02
94851,5.65E-03,1.72E-02
94852,5.64E-03,1.73E-02
94853,5.70E-03,1.71E-02
94854,5.63E-03,1.72E-02
94855,5.74E-03,1.70E-02
94856,5.69E-03,1.71E-02
94857,5.63E-03,1.69E-02
94858,5.74E-03,1.69E-02
94859,5.62E-03,1.68E-02
94860,5.62E-03,1.68E-02
94861,5.67E-03,1.67E-02
94862,5.67E-03,1.67E-02
94863,5.66E-03,1.65E-02
94864,5.67E-03,1.66E-02
94865,5.61E-03,1.64E-02
94866,5.62E-03,1.65E-02
94867,5.58E-03,1.64E-02
94868,5.58E-03,1.64E-02
94869,5.66E-03,1.63E-02
94870,5.61E-03,1.63E-02
94871,5.62E-03,1.62E-02
94872,5.64E-03,1.63E-02
94873,5.57E-03,1.62E-02
94874,5.59E-03,1.62E-02
94875,5.59E-03,1.61E-02
94876,5.61E-03,1.62E-02
94877,5.74E-03,1.61E-02
94878,5.67E-03,1.61E-02
94879,5.68E-03,1.61E-02
94880,5.78E-03,1.61E-02
94881,5.63E-03,1.61E-02
94882,5.63E-03,1.61E-02
94883,5.57E-03,1.61E-02
94884,6.57E-03,2.40E-02
94885,5.69E-03,2.67E-02
94886,5.63E-03,2.17E-02
94887,5.72E-03,2.13E-02
94888,5.66E-03,2.15E-02
94889,5.61E-03,2.09E-02
94890,5.68E-03,2.11E-02
94891,5.50E-03,2.05E-02
94892,5.56E-03,2.07E-02
94893,5.50E-03,2.02E-02
94894,5.45E-03,2.04E-02
94895,5.39E-03,1.99E-02
94896,5.45E-03,2.01E-02
94897,5.40E-03,1.96E-02
94898,5.39E-03,1.98E-02
94899,5.52E-03,1.93E-02
94900,5.44E-03,1.94E-02
94901,5.57E-03,1.90E-02
94902,5.52E-03,1.91E-02
94903,5.63E-03,1.87E-02
94904,5.59E-03,1.88E-02
94905,5.65E-03,1.83E-02
94906,5.62E-03,1.85E-02
94907,5.62E-03,1.79E-02
94908,5.59E-03,1.81E-02
94909,5.63E-03,1.75E-02
94910,5.61E-03,1.77E-02
94911,5.74E-03,1.71E-02
94912,5.71E-03,1.73E-02
94913,5.84E-03,1.66E-02
94914,5.75E-03,1.68E-02
94915,5.77E-03,1.61E-02
94916,5.81E-03,1.63E-02
94917,5.66E-03,1.56E-02
94918,5.70E-03,1.59E-02
94919,5.53E-03,1.51E-02
94920,5.56E-03,1.54E-02
94921,5.43E-03,1.47E-02
94922,5.46E-03,1.49E-02
94923,5.30E-03,1.42E-02
94924,5.32E-03,1.45E-02
94925,5.37E-03,1.38E-02
94926,5.33E-03,1.40E-02
94927,5.40E-03,1.34E-02
94928,5.41E-03,1.36E-02
94929,5.45E-03,1.30E-02
94930,5.44E-03,1.32E-02
94931,5.36E-03,1.26E-02
94932,5.40E-03,1.28E-02
94933,5.23E-03,1.23E-02
94934,5.31E-03,1.25E-02
94935,5.30E-03,1.21E-02
94936,4.90E-03,1.18E-02
94937,5.34E-03,1.19E-02
94938,4.53E-03,1.15E-02
94939,4.65E-03,1.17E-02
94940,4.56E-03,1.13E-02
94941,4.35E-03,1.14E-02
94942,4.29E-03,1.11E-02
94943,6.03E-03,1.11E-02
94944,6.91E-03,1.12E-02
94945,5.67E-03,1.10E-02
94946,5.66E-03,1.10E-02
94947,5.65E-03,1.08E-02
94948,5.58E-03,1.09E-02
94949,5.85E-03,1.07E-02
94950,5.81E-03,1.08E-02
94951,5.94E-03,1.06E-02
94952,5.97E-03,1.07E-02
94953,5.61E-03,1.05E-02
94954,5.71E-03,1.06E-02
94955,5.09E-03,1.04E-02
94956,4.93E-03,1.04E-02
94957,6.01E-03,1.04E-02
94958,4.99E-03,1.02E-02
94959,4.95E-03,2.78E-02
94960,4.39E-03,2.78E-02
94961,4.94E-03,2.78E-02
94962,4.96E-03,2.78E-02
94963,4.76E-03,2.78E-02
94964,4.83E-03,2.78E-02
94965,4.79E-03,2.78E-02
94966,4.77E-03,2.78E-02
94967,5.08E-03,2.77E-02
94968,4.96E-03,2.77E-02
94969,5.39E-03,2.76E-02
94970,5.24E-03,2.77E-02
94971,5.67E-03,2.75E-02
94972,5.58E-03,2.76E-02
94973,5.91E-03,2.74E-02
94974,5.83E-03,2.74E-02
94975,6.12E-03,2.72E-02
94976,6.02E-03,2.73E-02
94977,6.30E-03,2.71E-02
94978,6.21E-03,2.72E-02
94979,6.38E-03,2.71E-02
94980,6.38E-03,2.71E-02
94981,6.36E-03,2.70E-02
94982,6.38E-03,2.70E-02
94983,6.42E-03,2.70E-02
94984,6.36E-03,2.70E-02
94985,6.84E-03,2.71E-02
94986,6.49E-03,2.70E-02
94987,5.81E-03,2.72E-02
94988,6.44E-03,2.71E-02
94989,5.85E-03,2.74E-02
94990,5.82E-03,2.73E-02
94991,5.81E-03,2.75E-02
94992,5.83E-03,2.74E-02
94993,5.74E-03,2.77E-02
94994,5.80E-03,2.76E-02
94995,5.64E-03,2.79E-02
94996,5.68E-03,2.78E-02
94997,5.59E-03,2.81E-02
94998,5.63E-03,2.80E-02
94999,5.69E-03,2.82E-02
95000,5.63E-03,2.81E-02
95001,5.76E-03,2.84E-02
95002,5.70E-03,2.83E-02
95003,5.83E-03,2.85E-02
95004,5.83E-03,2.85E-02
95005,5.76E-03,2.87E-02
95006,5.78E-03,2.86E-02
95007,5.63E-03,2.89E-02
95008,5.70E-03,2.88E-02
95009,5.57E-03,2.90E-02
95010,5.59E-03,2.89E-02
95011,5.56E-03,2.91E-02
95012,5.55E-03,2.90E-02
95013,5.56E-03,2.92E-02
95014,5.56E-03,2.92E-02
95015,5.45E-03,2.93E-02
95016,5.52E-03,2.93E-02
95017,5.41E-03,2.94E-02
95018,5.41E-03,2.94E-02
95019,5.35E-03,2.94E-02
95020,5.36E-03,2.94E-02
95021,5.50E-03,2.94E-02
95022,5.46E-03,2.94E-02
95023,5.53E-03,2.94E-02
95024,5.54E-03,2.94E-02
95025,5.44E-03,2.94E-02
95026,5.46E-03,2.94E-02
95027,5.43E-03,2.94E-02
95028,5.44E-03,2.94E-02
95029,5.48E-03,2.94E-02
95030,5.46E-03,2.94E-02
95031,5.49E-03,2.94E-02
95032,5.48E-03,2.94E-02
95033,5.43E-03,2.94E-02
95034,5.45E-03,2.94E-02
95035,5.39E-03,2.94E-02
95036,5.41E-03,2.94E-02
95037,5.38E-03,2.94E-02
95038,5.39E-03,2.94E-02
95039,5.52E-03,2.94E-02
95040,5.44E-03,2.94E-02
95041,5.61E-03,2.93E-02
95042,5.56E-03,2.94E-02
95043,5.52E-03,2.93E-02
95044,5.56E-03,2.93E-02
95045,5.52E-03,2.93E-02
95046,5.54E-03,2.93E-02
95047,5.59E-03,2.92E-02
95048,5.58E-03,2.93E-02
95049,5.63E-03,2.92E-02
95050,5.62E-03,2.92E-02
95051,5.69E-03,2.90E-02
95052,5.65E-03,2.91E-02
95053,5.65E-03,2.89E-02
95054,5.70E-03,2.90E-02
95055,5.59E-03,2.87E-02
95056,5.62E-03,2.88E-02
95057,5.57E-03,2.86E-02
95058,5.60E-03,2.87E-02
95059,5.56E-03,2.84E-02
95060,5.55E-03,2.85E-02
95061,5.58E-03,2.82E-02
95062,5.53E-03,2.83E-02
95063,5.69E-03,2.80E-02
95064,5.64E-03,2.81E-02
95065,5.70E-03,2.78E-02
95066,5.67E-03,2.79E-02
95067,5.71E-03,2.76E-02
95068,5.74E-03,2.77E-02
95069,5.73E-03,2.73E-02
95070,5.74E-03,2.75E-02
95071,5.74E-03,2.71E-02
95072,5.76E-03,2.72E-02
95073,5.74E-03,2.69E-02
95074,5.73E-03,2.70E-02
95075,5.79E-03,2.66E-02
95076,5.73E-03,2.68E-02
95077,5.79E-03,2.64E-02
95078,5.78E-03,2.65E-02
95079,5.80E-03,2.62E-02
95080,5.83E-03,2.63E-02
95081,5.82E-03,2.59E-02
95082,5.80E-03,2.60E-02
95083,5.96E-03,2.57E-02
95084,5.89E-03,2.58E-02
95085,6.03E-03,2.55E-02
95086,5.99E-03,2.56E-02
95087,6.07E-03,2.53E-02
95088,6.07E-03,2.54E-02
95089,5.93E-03,2.52E-02
95090,5.97E-03,2.52E-02
95091,5.86E-03,2.50E-02
95092,5.88E-03,2.51E-02
95093,5.77E-03,2.48E-02
95094,5.77E-03,2.49E-02
95095,5.83E-03,2.46E-02
95096,5.77E-03,2.47E-02
95097,5.81E-03,2.44E-02
95098,5.88E-03,2.45E-02
95099,5.80E-03,2.42E-02
95100,5.78E-03,2.43E-02
95101,5.87E-03,2.39E-02
95102,5.81E-03,2.41E-02
95103,5.91E-03,2.37E-02
95104,5.88E-03,2.38E-02
95105,5.92E-03,2.33E-02
95106,5.91E-03,2.35E-02
95107,5.89E-03,2.30E-02
95108,5.90E-03,2.32E-02
95109,5.87E-03,2.28E-02
95110,6.35E-03,2.24E-02
95111,6.23E-03,2.22E-02
95112,6.73E-03,2.59E-02
95113,6.52E-03,2.55E-02
95114,7.30E-03,2.57E-02
95115,3.71E-03,2.56E-02
95116,5.38E-03,1.58E-02
95117,5.14E-03,2.31E-02
95118,5.51E-03,2.43E-02
95119,3.96E-03,2.60E-02
95120,7.59E-03,2.40E-02
95121,6.32E-03,2.43E-02
95122,5.92E-03,2.65E-02
95123,5.93E-03,2.70E-02
95124,5.78E-03,2.75E-02
95125,5.24E-03,2.76E-02
95126,5.99E-03,2.26E-02
95127,5.72E-03,1.04E-02
95128,5.62E-03,1.02E-02
95129,5.77E-03,1.64E-02
95130,5.06E-03,2.64E-02
95131,4.59E-03,2.63E-02
95132,6.08E-03,2.46E-02
95133,7.05E-03,2.53E-02
95134,7.11E-03,2.60E-02
95135,8.01E-03,2.57E-02
95136,6.14E-03,2.62E-02
95137,6.67E-03,2.73E-02
95138,6.56E-03,2.65E-02
95139,6.41E-03,2.63E-02
95140,6.91E-03,2.56E-02
95141,6.75E-03,2.58E-02
95142,5.05E-03,2.54E-02
95143,3.93E-03,2.53E-02
95144,5.53E-03,1.58E-02
95145,5.40E-03,1.58E-02
95146,5.63E-03,1.68E-02
95147,5.59E-03,1.66E-02
95148,5.59E-03,1.72E-02
95149,5.60E-03,1.70E-02
95150,5.62E-03,1.76E-02
95151,5.61E-03,1.74E-02
95152,5.55E-03,1.80E-02
95153,5.64E-03,1.78E-02
95154,5.46E-03,1.84E-02
95155,5.55E-03,1.82E-02
95156,5.30E-03,1.88E-02
95157,5.33E-03,1.86E-02
95158,5.28E-03,1.91E-02
95159,5.34E-03,1.89E-02
95160,5.34E-03,1.95E-02
95161,5.33E-03,1.93E-02
95162,5.32E-03,1.99E-02
95163,5.34E-03,1.97E-02
95164,5.24E-03,2.02E-02
95165,5.33E-03,2.00E-02
95166,5.11E-03,2.05E-02
95167,5.18E-03,2.04E-02
95168,4.94E-03,2.08E-02
95169,5.06E-03,2.07E-02
95170,4.88E-03,2.12E-02
95171,4.89E-03,2.10E-02
95172,4.84E-03,2.15E-02
95173,4.83E-03,2.13E-02
95174,4.85E-03,2.18E-02
95175,4.83E-03,2.16E-02
95176,4.75E-03,2.21E-02
95177,4.81E-03,2.20E-02
95178,4.73E-03,2.24E-02
95179,4.77E-03,2.23E-02
95180,4.76E-03,2.27E-02
95181,4.72E-03,2.26E-02
95182,4.78E-03,2.29E-02
95183,4.42E-03,2.33E-02
95184,4.45E-03,2.36E-02
95185,4.44E-03,2.34E-02
95186,4.90E-03,2.39E-02
95187,4.64E-03,2.38E-02
95188,5.21E-03,2.43E-02
95189,5.02E-03,2.41E-02
95190,5.04E-03,2.47E-02
95191,5.18E-03,2.44E-02
95192,5.12E-03,2.44E-02
95193,3.40E-03,2.52E-02
95194,4.04E-03,2.54E-02
95195,3.38E-03,2.53E-02
95196,4.37E-03,2.58E-02
95197,4.23E-03,2.56E-02
95198,4.49E-03,2.59E-02
95199,6.30E-03,2.66E-02
95200,5.78E-03,2.66E-02
95201,5.26E-03,1.07E-02
95202,5.39E-03,1.05E-02
95203,5.11E-03,1.10E-02
95204,5.15E-03,1.08E-02
95205,5.34E-03,1.12E-02
95206,5.25E-03,1.11E-02
95207,5.41E-03,1.15E-02
95208,5.38E-03,1.14E-02
95209,5.84E-03,1.18E-02
95210,5.63E-03,1.17E-02
95211,5.96E-03,1.21E-02
95212,5.96E-03,1.20E-02
95213,5.81E-03,1.25E-02
95214,5.87E-03,1.23E-02
95215,5.65E-03,1.28E-02
95216,5.76E-03,1.26E-02
95217,5.65E-03,1.31E-02
95218,5.66E-03,1.30E-02
95219,5.66E-03,1.35E-02
95220,5.68E-03,1.33E-02
95221,5.61E-03,1.38E-02
95222,5.64E-03,1.37E-02
95223,5.52E-03,1.42E-02
95224,5.56E-03,1.40E-02
95225,5.49E-03,1.45E-02
95226,5.54E-03,1.44E-02
95227,5.57E-03,1.49E-02
95228,5.52E-03,1.47E-02
95229,5.55E-03,1.53E-02
95230,5.56E-03,1.51E-02
95231,5.59E-03,1.56E-02
95232,5.57E-03,1.54E-02
95233,5.59E-03,1.60E-02
95234,5.61E-03,1.58E-02
95235,5.59E-03,1.63E-02
95236,5.59E-03,1.62E-02
95237,5.44E-03,1.67E-02
95238,5.53E-03,1.65E-02
95239,5.53E-03,1.70E-02
95240,5.50E-03,1.68E-02
95241,5.61E-03,1.73E-02
95242,5.56E-03,1.72E-02
95243,5.60E-03,1.76E-02
95244,5.59E-03,1.75E-02
95245,5.67E-03,1.79E-02
95246,5.65E-03,1.78E-02
95247,5.66E-03,1.82E-02
95248,5.66E-03,1.81E-02
95249,5.66E-03,1.85E-02
95250,5.69E-03,1.84E-02
95251,5.62E-03,1.87E-02
95252,5.66E-03,1.86E-02
95253,5.58E-03,1.90E-02
95254,5.59E-03,1.88E-02
95255,5.70E-03,1.92E-02
95256,5.63E-03,1.91E-02
95257,5.67E-03,1.94E-02
95258,5.69E-03,1.93E-02
95259,5.63E-03,1.96E-02
95260,5.64E-03,1.95E-02
95261,5.64E-03,1.98E-02
95262,5.64E-03,1.97E-02
95263,5.75E-03,1.99E-02
95264,5.69E-03,1.99E-02
95265,5.79E-03,2.01E-02
95266,5.79E-03,2.00E-02
95267,5.73E-03,2.03E-02
95268,5.77E-03,2.02E-02
95269,5.55E-03,2.04E-02
95270,5.64E-03,2.04E-02
95271,5.52E-03,2.06E-02
95272,5.47E-03,2.05E-02
95273,5.54E-03,2.07E-02
95274,5.54E-03,2.07E-02
95275,5.53E-03,2.09E-02
95276,5.54E-03,2.08E-02
95277,5.51E-03,2.10E-02
95278,5.47E-03,2.09E-02
95279,5.51E-03,2.11E-02
95280,5.53E-03,2.10E-02
95281,5.62E-03,2.12E-02
95282,5.54E-03,2.11E-02
95283,5.64E-03,2.13E-02
95284,5.66E-03,2.12E-02
95285,5.61E-03,2.14E-02
95286,5.62E-03,2.13E-02
95287,5.49E-03,2.14E-02
95288,5.51E-03,2.14E-02
95289,5.46E-03,2.14E-02
95290,5.42E-03,2.14E-02
95291,5.59E-03,2.15E-02
95292,5.52E-03,2.15E-02
95293,5.62E-03,2.15E-02
95294,5.62E-03,2.15E-02
95295,5.65E-03,2.15E-02
95296,5.61E-03,2.15E-02
95297,5.64E-03,2.15E-02
95298,5.63E-03,2.15E-02
95299,5.56E-03,2.15E-02
95300,5.59E-03,2.15E-02
95301,5.49E-03,2.14E-02
95302,5.49E-03,2.15E-02
95303,5.53E-03,2.14E-02
95304,5.48E-03,2.14E-02
95305,5.58E-03,2.14E-02
95306,5.58E-03,2.14E-02
95307,5.53E-03,2.13E-02
95308,5.56E-03,2.13E-02
95309,5.55E-03,2.12E-02
95310,5.54E-03,2.13E-02
95311,5.54E-03,2.12E-02
95312,5.55E-03,2.12E-02
95313,5.55E-03,2.11E-02
95314,5.52E-03,2.11E-02
95315,5.55E-03,2.10E-02
95316,5.53E-03,2.11E-02
95317,5.45E-03,2.09E-02
95318,5.47E-03,2.10E-02
95319,5.59E-03,2.08E-02
95320,5.55E-03,2.09E-02
95321,5.62E-03,2.07E-02
95322,5.62E-03,2.08E-02
95323,5.62E-03,2.06E-02
95324,5.57E-03,2.06E-02
95325,5.60E-03,2.05E-02
95326,5.65E-03,2.05E-02
95327,5.57E-03,2.03E-02
95328,5.60E-03,2.04E-02
95329,5.55E-03,2.02E-02
95330,5.60E-03,2.03E-02
95331,5.64E-03,2.01E-02
95332,5.59E-03,2.01E-02
95333,5.64E-03,1.99E-02
95334,5.68E-03,2.00E-02
95335,5.58E-03,1.98E-02
95336,5.63E-03,1.98E-02
95337,5.62E-03,1.96E-02
95338,5.59E-03,1.97E-02
95339,5.72E-03,1.94E-02
95340,5.68E-03,1.95E-02
95341,5.67E-03,1.93E-02
95342,5.66E-03,1.94E-02
95343,5.62E-03,1.91E-02
95344,5.60E-03,1.92E-02
95345,5.52E-03,1.89E-02
95346,5.56E-03,1.90E-02
95347,5.51E-03,1.87E-02
95348,5.48E-03,1.88E-02
95349,5.60E-03,1.86E-02
95350,5.54E-03,1.87E-02
95351,5.74E-03,1.84E-02
95352,5.66E-03,1.85E-02
95353,5.83E-03,1.83E-02
95354,5.78E-03,1.83E-02
95355,5.85E-03,1.81E-02
95356,5.83E-03,1.82E-02
95357,5.72E-03,1.79E-02
95358,5.81E-03,1.80E-02
95359,5.65E-03,1.78E-02
95360,5.70E-03,1.78E-02
95361,5.63E-03,1.76E-02
95362,5.63E-03,1.77E-02
95363,5.61E-03,1.74E-02
95364,5.63E-03,1.75E-02
95365,5.63E-03,1.73E-02
95366,5.62E-03,1.74E-02
95367,5.63E-03,1.71E-02
95368,5.63E-03,1.72E-02
95369,5.60E-03,1.70E-02
95370,5.59E-03,1.71E-02
95371,5.59E-03,1.69E-02
95372,5.62E-03,1.69E-02
95373,5.65E-03,1.67E-02
95374,5.57E-03,1.68E-02
95375,5.71E-03,1.66E-02
95376,5.68E-03,1.67E-02
95377,5.62E-03,1.65E-02
95378,5.66E-03,1.66E-02
95379,5.61E-03,1.64E-02
95380,5.62E-03,1.64E-02
95381,5.66E-03,1.63E-02
95382,5.66E-03,1.63E-02
95383,5.68E-03,1.62E-02
95384,5.67E-03,1.62E-02
95385,5.60E-03,1.61E-02
95386,5.61E-03,1.61E-02
95387,5.59E-03,1.60E-02
95388,5.58E-03,1.60E-02
95389,5.67E-03,1.59E-02
95390,5.61E-03,1.60E-02
95391,5.59E-03,1.59E-02
95392,5.63E-03,1.59E-02
95393,5.59E-03,1.58E-02
95394,5.60E-03,1.59E-02
95395,5.59E-03,1.58E-02
95396,5.62E-03,1.58E-02
95397,5.69E-03,1.58E-02
95398,5.68E-03,1.58E-02
95399,5.71E-03,1.57E-02
95400,5.77E-03,1.57E-02
95401,5.67E-03,1.57E-02
95402,5.65E-03,1.57E-02
95403,5.64E-03,1.57E-02
95404,6.66E-03,2.41E-02
95405,4.71E-03,2.51E-02
95406,5.10E-03,2.48E-02
95407,5.94E-03,2.67E-02
95408,6.21E-03,2.76E-02
95409,3.98E-03,2.75E-02
95410,5.10E-03,2.75E-02
95411,6.85E-03,2.57E-02
95412,6.95E-03,2.58E-02
95413,5.32E-03,2.70E-02
95414,5.01E-03,2.70E-02
95415,5.35E-03,2.68E-02
95416,5.54E-03,2.18E-02
95417,5.65E-03,2.14E-02
95418,5.62E-03,2.16E-02
95419,5.61E-03,2.10E-02
95420,5.65E-03,2.12E-02
95421,5.49E-03,2.06E-02
95422,5.58E-03,2.08E-02
95423,5.50E-03,2.03E-02
95424,5.45E-03,2.04E-02
95425,5.41E-03,1.99E-02
95426,5.45E-03,2.01E-02
95427,5.43E-03,1.96E-02
95428,5.41E-03,1.98E-02
95429,5.49E-03,1.93E-02
95430,5.43E-03,1.95E-02
95431,5.58E-03,1.90E-02
95432,5.52E-03,1.92E-02
95433,5.66E-03,1.87E-02
95434,5.62E-03,1.88E-02
95435,5.66E-03,1.83E-02
95436,5.68E-03,1.85E-02
95437,5.65E-03,1.79E-02
95438,5.66E-03,1.81E-02
95439,5.62E-03,1.75E-02
95440,5.63E-03,1.77E-02
95441,5.71E-03,1.70E-02
95442,5.69E-03,1.72E-02
95443,5.80E-03,1.65E-02
95444,5.73E-03,1.68E-02
95445,5.80E-03,1.60E-02
95446,5.72E-03,1.63E-02
95447,5.70E-03,1.55E-02
95448,5.73E-03,1.58E-02
95449,5.55E-03,1.50E-02
95450,5.60E-03,1.53E-02
95451,5.40E-03,1.46E-02
95452,5.45E-03,1.48E-02
95453,5.31E-03,1.41E-02
95454,5.34E-03,1.44E-02
95455,5.36E-03,1.37E-02
95456,5.35E-03,1.39E-02
95457,5.39E-03,1.33E-02
95458,5.39E-03,1.35E-02
95459,5.41E-03,1.29E-02
95460,5.42E-03,1.31E-02
95461,5.36E-03,1.25E-02
95462,5.37E-03,1.27E-02
95463,5.10E-03,1.22E-02
95464,5.25E-03,1.23E-02
95465,4.36E-03,1.19E-02
95466,4.48E-03,1.20E-02
95467,4.84E-03,1.16E-02
95468,4.51E-03,1.17E-02
95469,4.64E-03,1.14E-02
95470,4.74E-03,1.15E-02
95471,4.61E-03,1.12E-02
95472,4.39E-03,1.13E-02
95473,3.84E-03,1.10E-02
95474,3.74E-03,1.10E-02
95475,5.87E-03,1.09E-02
95476,5.97E-03,1.10E-02
95477,5.70E-03,1.08E-02
95478,5.70E-03,1.08E-02
95479,5.65E-03,1.07E-02
95480,5.64E-03,1.07E-02
95481,5.79E-03,1.06E-02
95482,5.78E-03,1.06E-02
95483,5.76E-03,1.05E-02
95484,5.82E-03,1.05E-02
95485,5.53E-03,1.04E-02
95486,5.71E-03,1.04E-02
95487,5.85E-03,1.03E-02
95488,5.58E-03,1.03E-02
95489,6.63E-03,1.02E-02
95490,6.89E-03,1.02E-02
95491,5.37E-03,1.01E-02
95492,5.05E-03,2.71E-02
95493,3.81E-03,2.75E-02
95494,4.68E-03,2.77E-02
95495,4.15E-03,2.76E-02
95496,4.44E-03,2.78E-02
95497,4.88E-03,2.78E-02
95498,4.67E-03,2.81E-02
95499,4.26E-03,2.81E-02
95500,4.90E-03,2.81E-02
95501,4.87E-03,2.81E-02
95502,4.88E-03,2.81E-02
95503,4.87E-03,2.81E-02
95504,4.92E-03,2.80E-02
95505,4.90E-03,2.81E-02
95506,5.16E-03,2.80E-02
95507,5.10E-03,2.80E-02
95508,5.40E-03,2.79E-02
95509,5.29E-03,2.80E-02
95510,5.64E-03,2.78E-02
95511,5.59E-03,2.79E-02
95512,5.86E-03,2.77E-02
95513,5.81E-03,2.77E-02
95514,6.04E-03,2.76E-02
95515,5.95E-03,2.76E-02
95516,6.23E-03,2.75E-02
95517,6.12E-03,2.75E-02
95518,6.26E-03,2.74E-02
95519,6.28E-03,2.74E-02
95520,6.24E-03,2.74E-02
95521,6.24E-03,2.74E-02
95522,6.29E-03,2.74E-02
95523,6.20E-03,2.74E-02
95524,6.44E-03,2.75E-02
95525,6.36E-03,2.74E-02
95526,6.00E-03,2.76E-02
95527,6.17E-03,2.75E-02
95528,5.84E-03,2.77E-02
95529,5.82E-03,2.76E-02
95530,5.79E-03,2.79E-02
95531,5.77E-03,2.78E-02
95532,5.73E-03,2.81E-02
95533,5.75E-03,2.80E-02
95534,5.62E-03,2.83E-02
95535,5.68E-03,2.82E-02
95536,5.57E-03,2.85E-02
95537,5.61E-03,2.84E-02
95538,5.68E-03,2.87E-02
95539,5.63E-03,2.86E-02
95540,5.73E-03,2.88E-02
95541,5.68E-03,2.87E-02
95542,5.73E-03,2.90E-02
95543,5.74E-03,2.89E-02
95544,5.77E-03,2.92E-02
95545,5.77E-03,2.91E-02
95546,5.65E-03,2.93E-02
95547,5.69E-03,2.92E-02
95548,5.60E-03,2.95E-02
95549,5.66E-03,2.94E-02
95550,5.62E-03,2.96E-02
95551,5.64E-03,2.95E-02
95552,5.63E-03,2.97E-02
95553,5.64E-03,2.96E-02
95554,5.44E-03,2.98E-02
95555,5.52E-03,2.97E-02
95556,5.43E-03,2.99E-02
95557,5.43E-03,2.98E-02
95558,5.39E-03,2.99E-02
95559,5.40E-03,2.99E-02
95560,5.51E-03,2.99E-02
95561,5.47E-03,2.99E-02
95562,5.54E-03,2.99E-02
95563,5.58E-03,2.99E-02
95564,5.44E-03,2.99E-02
95565,5.46E-03,2.99E-02
95566,5.46E-03,2.99E-02
95567,5.44E-03,2.99E-02
95568,5.55E-03,2.98E-02
95569,5.50E-03,2.98E-02
95570,5.53E-03,2.98E-02
95571,5.56E-03,2.98E-02
95572,5.49E-03,2.98E-02
95573,5.48E-03,2.98E-02
95574,5.49E-03,2.98E-02
95575,5.48E-03,2.98E-02
95576,5.41E-03,2.99E-02
95577,5.44E-03,2.99E-02
95578,5.45E-03,2.98E-02
95579,5.44E-03,2.98E-02
95580,5.51E-03,2.98E-02
95581,5.50E-03,2.98E-02
95582,5.49E-03,2.98E-02
95583,5.55E-03,2.98E-02
95584,5.52E-03,2.98E-02
95585,5.56E-03,2.98E-02
95586,5.60E-03,2.97E-02
95587,5.57E-03,2.98E-02
95588,5.65E-03,2.96E-02
95589,5.65E-03,2.97E-02
95590,5.72E-03,2.95E-02
95591,5.71E-03,2.96E-02
95592,5.65E-03,2.94E-02
95593,5.70E-03,2.95E-02
95594,5.61E-03,2.92E-02
95595,5.60E-03,2.93E-02
95596,5.53E-03,2.90E-02
95597,5.56E-03,2.91E-02
95598,5.56E-03,2.88E-02
95599,5.52E-03,2.89E-02
95600,5.58E-03,2.87E-02
95601,5.54E-03,2.88E-02
95602,5.64E-03,2.84E-02
95603,5.62E-03,2.85E-02
95604,5.72E-03,2.82E-02
95605,5.66E-03,2.83E-02
95606,5.69E-03,2.80E-02
95607,5.76E-03,2.81E-02
95608,5.68E-03,2.78E-02
95609,5.69E-03,2.79E-02
95610,5.64E-03,2.75E-02
95611,5.67E-03,2.76E-02
95612,5.70E-03,2.73E-02
95613,5.69E-03,2.74E-02
95614,5.74E-03,2.70E-02
95615,5.68E-03,2.72E-02
95616,5.76E-03,2.68E-02
95617,5.73E-03,2.69E-02
95618,5.80E-03,2.65E-02
95619,5.80E-03,2.66E-02
95620,5.84E-03,2.63E-02
95621,5.81E-03,2.64E-02
95622,5.96E-03,2.60E-02
95623,5.93E-03,2.62E-02
95624,6.00E-03,2.58E-02
95625,5.99E-03,2.59E-02
95626,5.99E-03,2.56E-02
95627,6.04E-03,2.57E-02
95628,5.91E-03,2.55E-02
95629,5.95E-03,2.55E-02
95630,5.84E-03,2.53E-02
95631,5.87E-03,2.54E-02
95632,5.74E-03,2.51E-02
95633,5.75E-03,2.52E-02
95634,5.76E-03,2.49E-02
95635,5.76E-03,2.50E-02
95636,5.71E-03,2.47E-02
95637,5.78E-03,2.48E-02
95638,5.74E-03,2.45E-02
95639,5.76E-03,2.46E-02
95640,5.81E-03,2.42E-02
95641,5.74E-03,2.43E-02
95642,5.89E-03,2.39E-02
95643,5.81E-03,2.41E-02
95644,5.89E-03,2.36E-02
95645,5.88E-03,2.37E-02
95646,5.81E-03,2.32E-02
95647,5.90E-03,2.34E-02
95648,5.89E-03,2.28E-02
95649,5.84E-03,2.30E-02
95650,3.57E-03,2.68E-02
95651,3.43E-03,2.70E-02
95652,7.36E-03,2.60E-02
95653,6.22E-03,1.57E-02
95654,5.13E-03,2.69E-02
95655,3.75E-03,2.30E-02
95656,5.11E-03,2.61E-02
95657,7.05E-03,2.42E-02
95658,6.01E-03,2.44E-02
95659,5.48E-03,2.52E-02
95660,5.07E-03,2.46E-02
95661,6.77E-03,2.54E-02
95662,7.15E-03,2.56E-02
95663,6.00E-03,2.65E-02
95664,6.25E-03,2.70E-02
95665,6.58E-03,2.73E-02
95666,4.87E-03,2.72E-02
95667,6.27E-03,2.61E-02
95668,6.58E-03,2.59E-02
95669,4.89E-03,2.68E-02
95670,5.79E-03,2.65E-02
95671,6.04E-03,1.62E-02
95672,6.83E-03,1.59E-02
95673,6.62E-03,2.50E-02
95674,7.00E-03,2.54E-02
95675,4.86E-03,2.23E-02
95676,2.22E-03,9.91E-03
95677,3.57E-03,9.81E-03
95678,3.64E-03,9.99E-03
95679,6.61E-03,2.60E-02
95680,4.39E-03,1.55E-02
95681,4.39E-03,1.54E-02
95682,4.94E-03,9.83E-03
95683,5.70E-03,1.54E-02
95684,5.41E-03,1.55E-02
95685,5.65E-03,1.66E-02
95686,5.74E-03,1.64E-02
95687,5.58E-03,1.70E-02
95688,5.65E-03,1.68E-02
95689,5.57E-03,1.74E-02
95690,5.59E-03,1.72E-02
95691,5.58E-03,1.78E-02
95692,5.60E-03,1.76E-02
95693,5.45E-03,1.82E-02
95694,5.53E-03,1.80E-02
95695,5.33E-03,1.85E-02
95696,5.38E-03,1.83E-02
95697,5.36E-03,1.89E-02
95698,5.36E-03,1.87E-02
95699,5.38E-03,1.93E-02
95700,5.39E-03,1.91E-02
95701,5.40E-03,1.97E-02
95702,5.41E-03,1.95E-02
95703,5.38E-03,2.00E-02
95704,5.43E-03,1.98E-02
95705,5.25E-03,2.03E-02
95706,5.29E-03,2.02E-02
95707,5.12E-03,2.07E-02
95708,5.19E-03,2.05E-02
95709,5.02E-03,2.10E-02
95710,5.07E-03,2.08E-02
95711,4.98E-03,2.13E-02
95712,4.96E-03,2.12E-02
95713,4.98E-03,2.17E-02
95714,4.95E-03,2.15E-02
95715,4.91E-03,2.20E-02
95716,4.93E-03,2.18E-02
95717,4.90E-03,2.23E-02
95718,4.96E-03,2.21E-02
95719,4.86E-03,2.26E-02
95720,4.88E-03,2.25E-02
95721,3.90E-03,2.29E-02
95722,5.14E-03,2.28E-02
95723,5.22E-03,2.31E-02
95724,3.58E-03,2.30E-02
95725,4.80E-03,2.36E-02
95726,4.89E-03,2.34E-02
95727,4.97E-03,2.39E-02
95728,4.84E-03,2.37E-02
95729,4.84E-03,2.42E-02
95730,5.04E-03,2.41E-02
95731,4.08E-03,2.45E-02
95732,4.66E-03,2.44E-02
95733,4.36E-03,2.49E-02
95734,4.20E-03,2.47E-02
95735,4.11E-03,2.52E-02
95736,4.49E-03,2.50E-02
95737,4.28E-03,2.55E-02
95738,4.27E-03,2.54E-02
95739,4.72E-03,2.58E-02
95740,4.32E-03,2.56E-02
95741,4.85E-03,2.60E-02
95742,4.71E-03,2.65E-02
95743,4.58E-03,2.66E-02
95744,5.40E-03,1.02E-02
95745,5.60E-03,1.05E-02
95746,5.88E-03,1.03E-02
95747,5.36E-03,1.08E-02
95748,5.49E-03,1.06E-02
95749,5.31E-03,1.11E-02
95750,5.30E-03,1.09E-02
95751,5.34E-03,1.13E-02
95752,5.31E-03,1.12E-02
95753,5.52E-03,1.16E-02
95754,5.45E-03,1.15E-02
95755,5.73E-03,1.19E-02
95756,5.61E-03,1.18E-02
95757,5.82E-03,1.23E-02
95758,5.79E-03,1.21E-02
95759,5.78E-03,1.26E-02
95760,5.83E-03,1.24E-02
95761,5.65E-03,1.29E-02
95762,5.68E-03,1.27E-02
95763,5.68E-03,1.32E-02
95764,5.65E-03,1.31E-02
95765,5.71E-03,1.36E-02
95766,5.74E-03,1.34E-02
95767,5.65E-03,1.39E-02
95768,5.69E-03,1.37E-02
95769,5.57E-03,1.43E-02
95770,5.58E-03,1.41E-02
95771,5.52E-03,1.46E-02
95772,5.58E-03,1.44E-02
95773,5.56E-03,1.50E-02
95774,5.55E-03,1.48E-02
95775,5.53E-03,1.53E-02
95776,5.59E-03,1.52E-02
95777,5.53E-03,1.57E-02
95778,5.54E-03,1.55E-02
95779,5.60E-03,1.60E-02
95780,5.58E-03,1.59E-02
95781,5.59E-03,1.64E-02
95782,5.61E-03,1.62E-02
95783,5.44E-03,1.67E-02
95784,5.48E-03,1.66E-02
95785,5.52E-03,1.70E-02
95786,5.48E-03,1.69E-02
95787,5.63E-03,1.74E-02
95788,5.55E-03,1.72E-02
95789,5.66E-03,1.77E-02
95790,5.67E-03,1.75E-02
95791,5.62E-03,1.79E-02
95792,5.63E-03,1.78E-02
95793,5.66E-03,1.82E-02
95794,5.62E-03,1.81E-02
95795,5.66E-03,1.85E-02
95796,5.68E-03,1.84E-02
95797,5.61E-03,1.87E-02
95798,5.66E-03,1.86E-02
95799,5.60E-03,1.89E-02
95800,5.57E-03,1.88E-02
95801,5.69E-03,1.92E-02
95802,5.66E-03,1.91E-02
95803,5.65E-03,1.94E-02
95804,5.68E-03,1.93E-02
95805,5.64E-03,1.95E-02
95806,5.64E-03,1.95E-02
95807,5.70E-03,1.97E-02
95808,5.66E-03,1.96E-02
95809,5.74E-03,1.99E-02
95810,5.69E-03,1.98E-02
95811,5.79E-03,2.01E-02
95812,5.80E-03,2.00E-02
95813,5.71E-03,2.02E-02
95814,5.80E-03,2.01E-02
95815,5.56E-03,2.04E-02
95816,5.60E-03,2.03E-02
95817,5.53E-03,2.05E-02
95818,5.52E-03,2.04E-02
95819,5.56E-03,2.06E-02
95820,5.55E-03,2.06E-02
95821,5.58E-03,2.07E-02
95822,5.61E-03,2.07E-02
95823,5.51E-03,2.09E-02
95824,5.54E-03,2.08E-02
95825,5.54E-03,2.10E-02
95826,5.57E-03,2.09E-02
95827,5.59E-03,2.10E-02
95828,5.55E-03,2.10E-02
95829,5.69E-03,2.11E-02
95830,5.65E-03,2.11E-02
95831,5.61E-03,2.12E-02
95832,5.65E-03,2.12E-02
95833,5.54E-03,2.12E-02
95834,5.58E-03,2.12E-02
95835,5.53E-03,2.13E-02
95836,5.51E-03,2.13E-02
95837,5.62E-03,2.13E-02
95838,5.56E-03,2.13E-02
95839,5.64E-03,2.13E-02
95840,5.65E-03,2.13E-02
95841,5.68E-03,2.13E-02
95842,5.65E-03,2.13E-02
95843,5.65E-03,2.13E-02
95844,5.66E-03,2.13E-02
95845,5.58E-03,2.13E-02
95846,5.63E-03,2.13E-02
95847,5.49E-03,2.12E-02
95848,5.54E-03,2.12E-02
95849,5.52E-03,2.12E-02
95850,5.48E-03,2.12E-02
95851,5.55E-03,2.11E-02
95852,5.54E-03,2.11E-02
95853,5.51E-03,2.10E-02
95854,5.56E-03,2.11E-02
95855,5.50E-03,2.10E-02
95856,5.50E-03,2.10E-02
95857,5.52E-03,2.09E-02
95858,5.50E-03,2.09E-02
95859,5.57E-03,2.08E-02
95860,5.53E-03,2.09E-02
95861,5.50E-03,2.07E-02
95862,5.51E-03,2.08E-02
95863,5.52E-03,2.06E-02
95864,5.49E-03,2.07E-02
95865,5.57E-03,2.05E-02
95866,5.52E-03,2.06E-02
95867,5.60E-03,2.04E-02
95868,5.55E-03,2.05E-02
95869,5.62E-03,2.03E-02
95870,5.58E-03,2.03E-02
95871,5.57E-03,2.02E-02
95872,5.64E-03,2.02E-02
95873,5.56E-03,2.00E-02
95874,5.58E-03,2.01E-02
95875,5.57E-03,1.99E-02
95876,5.56E-03,2.00E-02
95877,5.66E-03,1.97E-02
95878,5.64E-03,1.98E-02
95879,5.61E-03,1.96E-02
95880,5.67E-03,1.97E-02
95881,5.60E-03,1.94E-02
95882,5.62E-03,1.95E-02
95883,5.58E-03,1.93E-02
95884,5.60E-03,1.93E-02
95885,5.70E-03,1.91E-02
95886,5.68E-03,1.92E-02
95887,5.66E-03,1.89E-02
95888,5.68E-03,1.90E-02
95889,5.60E-03,1.88E-02
95890,5.62E-03,1.88E-02
95891,5.50E-03,1.86E-02
95892,5.56E-03,1.87E-02
95893,5.50E-03,1.84E-02
95894,5.48E-03,1.85E-02
95895,5.60E-03,1.82E-02
95896,5.54E-03,1.83E-02
95897,5.70E-03,1.81E-02
95898,5.63E-03,1.81E-02
95899,5.78E-03,1.79E-02
95900,5.75E-03,1.80E-02
95901,5.71E-03,1.77E-02
95902,5.74E-03,1.78E-02
95903,5.68E-03,1.76E-02
95904,5.68E-03,1.76E-02
95905,5.61E-03,1.74E-02
95906,5.67E-03,1.75E-02
95907,5.61E-03,1.72E-02
95908,5.61E-03,1.73E-02
95909,5.60E-03,1.71E-02
95910,5.60E-03,1.72E-02
95911,5.59E-03,1.69E-02
95912,5.57E-03,1.70E-02
95913,5.56E-03,1.68E-02
95914,5.58E-03,1.68E-02
95915,5.59E-03,1.66E-02
95916,5.59E-03,1.67E-02
95917,5.54E-03,1.65E-02
95918,5.54E-03,1.66E-02
95919,5.66E-03,1.64E-02
95920,5.61E-03,1.64E-02
95921,5.61E-03,1.62E-02
95922,5.65E-03,1.63E-02
95923,5.59E-03,1.61E-02
95924,5.63E-03,1.62E-02
95925,5.63E-03,1.60E-02
95926,5.61E-03,1.61E-02
95927,5.64E-03,1.59E-02
95928,5.63E-03,1.59E-02
95929,5.63E-03,1.58E-02
95930,5.61E-03,1.59E-02
95931,5.57E-03,1.57E-02
95932,5.60E-03,1.58E-02
95933,5.60E-03,1.56E-02
95934,5.57E-03,1.57E-02
95935,5.66E-03,1.56E-02
95936,5.60E-03,1.56E-02
95937,5.68E-03,1.55E-02
95938,5.66E-03,1.55E-02
95939,5.63E-03,1.55E-02
95940,5.65E-03,1.55E-02
95941,5.60E-03,1.54E-02
95942,5.61E-03,1.55E-02
95943,5.66E-03,1.54E-02
95944,5.64E-03,1.54E-02
95945,5.74E-03,1.54E-02
95946,5.72E-03,1.54E-02
95947,5.72E-03,1.54E-02
95948,5.66E-03,1.54E-02
95949,5.69E-03,1.54E-02
95950,6.32E-03,2.43E-02
95951,5.48E-03,2.49E-02
95952,6.90E-03,2.55E-02
95953,6.00E-03,2.67E-02
95954,5.65E-03,2.73E-02
95955,6.53E-03,2.60E-02
95956,5.21E-03,2.66E-02
95957,6.47E-03,1.56E-02
95958,6.41E-03,2.48E-02
95959,5.41E-03,2.45E-02
95960,7.27E-03,2.54E-02
95961,4.50E-03,2.64E-02
95962,4.85E-03,1.01E-02
95963,5.65E-03,2.64E-02
95964,6.15E-03,2.61E-02
95965,6.02E-03,2.70E-02
95966,5.64E-03,2.70E-02
95967,4.58E-03,2.24E-02
95968,5.42E-03,2.22E-02
95969,5.61E-03,2.19E-02
95970,5.63E-03,2.17E-02
95971,5.67E-03,2.15E-02
95972,5.68E-03,2.13E-02
95973,5.62E-03,2.11E-02
95974,5.58E-03,2.09E-02
95975,5.55E-03,2.07E-02
95976,5.52E-03,2.05E-02
95977,5.47E-03,2.03E-02
95978,5.49E-03,2.01E-02
95979,5.44E-03,2.00E-02
95980,5.42E-03,1.98E-02
95981,5.47E-03,1.96E-02
95982,5.48E-03,1.95E-02
95983,5.50E-03,1.93E-02
95984,5.54E-03,1.92E-02
95985,5.62E-03,1.90E-02
95986,5.65E-03,1.88E-02
95987,5.66E-03,1.87E-02
95988,5.70E-03,1.85E-02
95989,5.68E-03,1.83E-02
95990,5.70E-03,1.81E-02
95991,5.66E-03,1.79E-02
95992,5.63E-03,1.76E-02
95993,5.60E-03,1.74E-02
95994,5.70E-03,1.72E-02
95995,5.67E-03,1.70E-02
95996,5.68E-03,1.67E-02
95997,5.74E-03,1.65E-02
95998,5.73E-03,1.62E-02
95999,5.75E-03,1.60E-02
96000,5.71E-03,1.57E-02
96001,5.72E-03,1.54E-02
96002,5.67E-03,1.52E-02
96003,5.54E-03,1.49E-02
96004,5.49E-03,1.47E-02
96005,5.44E-03,1.45E-02
96006,5.39E-03,1.42E-02
96007,5.35E-03,1.40E-02
96008,5.33E-03,1.38E-02
96009,5.39E-03,1.36E-02
96010,5.43E-03,1.34E-02
96011,5.42E-03,1.32E-02
96012,5.42E-03,1.30E-02
96013,5.46E-03,1.28E-02
96014,5.41E-03,1.26E-02
96015,5.31E-03,1.24E-02
96016,5.18E-03,1.22E-02
96017,5.03E-03,1.20E-02
96018,4.83E-03,1.19E-02
96019,4.72E-03,1.17E-02
96020,4.70E-03,1.16E-02
96021,4.78E-03,1.14E-02
96022,4.83E-03,1.13E-02
96023,4.78E-03,1.12E-02
96024,4.71E-03,1.11E-02
96025,4.58E-03,1.10E-02
96026,4.40E-03,1.09E-02
96027,4.83E-03,1.08E-02
96028,5.29E-03,1.08E-02
96029,5.62E-03,1.07E-02
96030,5.69E-03,1.07E-02
96031,5.70E-03,1.06E-02
96032,5.66E-03,1.05E-02
96033,5.68E-03,1.05E-02
96034,5.71E-03,1.05E-02
96035,5.76E-03,1.04E-02
96036,5.77E-03,1.04E-02
96037,5.70E-03,1.03E-02
96038,5.69E-03,1.03E-02
96039,5.67E-03,1.02E-02
96040,5.73E-03,1.02E-02
96041,5.94E-03,1.01E-02
96042,6.11E-03,1.01E-02
96043,5.96E-03,1.00E-02
96044,5.57E-03,9.93E-03
96045,5.23E-03,9.84E-03
96046,5.27E-03,9.77E-03
96047,5.52E-03,9.70E-03
96048,5.86E-03,9.90E-03
96049,6.19E-03,9.66E-03
96050,6.01E-03,9.74E-03
96051,6.15E-03,9.59E-03
96052,4.96E-03,9.60E-03
96053,5.11E-03,9.48E-03
96054,3.68E-03,9.47E-03
96055,3.88E-03,9.39E-03
96056,3.69E-03,9.34E-03
96057,4.86E-03,2.71E-02
96058,5.10E-03,2.72E-02
96059,4.94E-03,2.73E-02
96060,4.54E-03,2.74E-02
96061,4.35E-03,2.75E-02
96062,4.67E-03,2.77E-02
96063,4.51E-03,2.78E-02
96064,4.66E-03,2.79E-02
96065,4.52E-03,2.80E-02
96066,4.46E-03,2.80E-02
96067,4.26E-03,2.81E-02
96068,4.47E-03,2.82E-02
96069,4.38E-03,2.83E-02
96070,4.68E-03,2.83E-02
96071,4.82E-03,2.84E-02
96072,4.86E-03,2.84E-02
96073,4.92E-03,2.84E-02
96074,5.01E-03,2.84E-02
96075,5.02E-03,2.84E-02
96076,5.07E-03,2.83E-02
96077,5.18E-03,2.83E-02
96078,5.24E-03,2.83E-02
96079,5.37E-03,2.82E-02
96080,5.48E-03,2.82E-02
96081,5.59E-03,2.82E-02
96082,5.67E-03,2.81E-02
96083,5.76E-03,2.81E-02
96084,5.84E-03,2.80E-02
96085,5.86E-03,2.79E-02
96086,5.96E-03,2.79E-02
96087,6.04E-03,2.78E-02
96088,6.09E-03,2.78E-02
96089,6.16E-03,2.78E-02
96090,6.15E-03,2.77E-02
96091,6.09E-03,2.77E-02
96092,6.09E-03,2.77E-02
96093,6.07E-03,2.77E-02
96094,6.10E-03,2.77E-02
96095,6.16E-03,2.78E-02
96096,6.18E-03,2.78E-02
96097,6.07E-03,2.79E-02
96098,5.96E-03,2.79E-02
96099,5.88E-03,2.80E-02
96100,5.81E-03,2.81E-02
96101,5.73E-03,2.82E-02
96102,5.74E-03,2.83E-02
96103,5.72E-03,2.84E-02
96104,5.70E-03,2.85E-02
96105,5.62E-03,2.86E-02
96106,5.59E-03,2.87E-02
96107,5.59E-03,2.88E-02
96108,5.59E-03,2.89E-02
96109,5.65E-03,2.90E-02
96110,5.66E-03,2.91E-02
96111,5.61E-03,2.92E-02
96112,5.65E-03,2.93E-02
96113,5.68E-03,2.94E-02
96114,5.69E-03,2.95E-02
96115,5.67E-03,2.95E-02
96116,5.67E-03,2.96E-02
96117,5.68E-03,2.97E-02
96118,5.65E-03,2.98E-02
96119,5.65E-03,2.99E-02
96120,5.62E-03,2.99E-02
96121,5.66E-03,3.00E-02
96122,5.67E-03,3.01E-02
96123,5.68E-03,3.01E-02
96124,5.65E-03,3.02E-02
96125,5.55E-03,3.02E-02
96126,5.47E-03,3.03E-02
96127,5.46E-03,3.03E-02
96128,5.46E-03,3.04E-02
96129,5.43E-03,3.04E-02
96130,5.37E-03,3.04E-02
96131,5.43E-03,3.04E-02
96132,5.50E-03,3.04E-02
96133,5.56E-03,3.04E-02
96134,5.57E-03,3.04E-02
96135,5.50E-03,3.04E-02
96136,5.51E-03,3.04E-02
96137,5.47E-03,3.04E-02
96138,5.48E-03,3.03E-02
96139,5.50E-03,3.03E-02
96140,5.56E-03,3.03E-02
96141,5.59E-03,3.03E-02
96142,5.59E-03,3.03E-02
96143,5.55E-03,3.03E-02
96144,5.52E-03,3.03E-02
96145,5.51E-03,3.03E-02
96146,5.52E-03,3.03E-02
96147,5.49E-03,3.03E-02
96148,5.49E-03,3.03E-02
96149,5.47E-03,3.03E-02
96150,5.49E-03,3.03E-02
96151,5.50E-03,3.03E-02
96152,5.53E-03,3.03E-02
96153,5.54E-03,3.03E-02
96154,5.51E-03,3.03E-02
96155,5.52E-03,3.03E-02
96156,5.55E-03,3.03E-02
96157,5.58E-03,3.03E-02
96158,5.59E-03,3.02E-02
96159,5.65E-03,3.02E-02
96160,5.68E-03,3.02E-02
96161,5.66E-03,3.01E-02
96162,5.65E-03,3.00E-02
96163,5.68E-03,3.00E-02
96164,5.69E-03,2.99E-02
96165,5.64E-03,2.98E-02
96166,5.61E-03,2.97E-02
96167,5.58E-03,2.96E-02
96168,5.56E-03,2.95E-02
96169,5.56E-03,2.94E-02
96170,5.56E-03,2.93E-02
96171,5.55E-03,2.92E-02
96172,5.59E-03,2.91E-02
96173,5.59E-03,2.90E-02
96174,5.60E-03,2.89E-02
96175,5.67E-03,2.88E-02
96176,5.68E-03,2.87E-02
96177,5.71E-03,2.85E-02
96178,5.71E-03,2.84E-02
96179,5.69E-03,2.83E-02
96180,5.67E-03,2.82E-02
96181,5.66E-03,2.81E-02
96182,5.64E-03,2.79E-02
96183,5.64E-03,2.78E-02
96184,5.64E-03,2.77E-02
96185,5.66E-03,2.76E-02
96186,5.69E-03,2.74E-02
96187,5.72E-03,2.73E-02
96188,5.78E-03,2.71E-02
96189,5.80E-03,2.70E-02
96190,5.83E-03,2.69E-02
96191,5.84E-03,2.68E-02
96192,5.84E-03,2.66E-02
96193,5.90E-03,2.65E-02
96194,5.93E-03,2.64E-02
96195,5.95E-03,2.63E-02
96196,5.93E-03,2.62E-02
96197,5.96E-03,2.61E-02
96198,5.96E-03,2.60E-02
96199,5.94E-03,2.59E-02
96200,5.83E-03,2.58E-02
96201,5.81E-03,2.57E-02
96202,5.78E-03,2.56E-02
96203,5.75E-03,2.55E-02
96204,5.71E-03,2.54E-02
96205,5.73E-03,2.53E-02
96206,5.74E-03,2.52E-02
96207,5.68E-03,2.51E-02
96208,5.65E-03,2.50E-02
96209,5.69E-03,2.49E-02
96210,5.70E-03,2.47E-02
96211,5.72E-03,2.46E-02
96212,5.78E-03,2.45E-02
96213,5.78E-03,2.43E-02
96214,5.85E-03,2.42E-02
96215,5.89E-03,2.40E-02
96216,5.85E-03,2.38E-02
96217,5.85E-03,2.36E-02
96218,5.83E-03,2.35E-02
96219,5.84E-03,2.33E-02
96220,5.88E-03,2.30E-02
96221,4.18E-03,2.63E-02
96222,4.51E-03,1.52E-02
96223,6.26E-03,2.62E-02
96224,5.99E-03,2.65E-02
96225,6.31E-03,2.52E-02
96226,6.64E-03,2.53E-02
96227,6.66E-03,2.51E-02
96228,5.19E-03,2.46E-02
96229,5.90E-03,2.44E-02
96230,5.74E-03,2.46E-02
96231,5.29E-03,1.53E-02
96232,5.89E-03,1.51E-02
96233,5.68E-03,1.51E-02
96234,5.80E-03,1.57E-02
96235,5.87E-03,1.59E-02
96236,5.75E-03,1.61E-02
96237,5.66E-03,1.63E-02
96238,5.64E-03,1.65E-02
96239,5.56E-03,1.67E-02
96240,5.57E-03,1.69E-02
96241,5.59E-03,1.71E-02
96242,5.59E-03,1.73E-02
96243,5.51E-03,1.75E-02
96244,5.46E-03,1.77E-02
96245,5.42E-03,1.79E-02
96246,5.41E-03,1.81E-02
96247,5.41E-03,1.83E-02
96248,5.38E-03,1.85E-02
96249,5.43E-03,1.87E-02
96250,5.47E-03,1.89E-02
96251,5.47E-03,1.91E-02
96252,5.47E-03,1.93E-02
96253,5.45E-03,1.95E-02
96254,5.48E-03,1.96E-02
96255,5.49E-03,1.98E-02
96256,5.41E-03,2.00E-02
96257,5.35E-03,2.02E-02
96258,5.28E-03,2.03E-02
96259,5.23E-03,2.05E-02
96260,5.17E-03,2.07E-02
96261,5.15E-03,2.08E-02
96262,5.12E-03,2.10E-02
96263,5.11E-03,2.12E-02
96264,5.09E-03,2.14E-02
96265,5.10E-03,2.15E-02
96266,5.07E-03,2.17E-02
96267,5.09E-03,2.19E-02
96268,5.10E-03,2.20E-02
96269,5.09E-03,2.22E-02
96270,5.02E-03,2.24E-02
96271,5.02E-03,2.25E-02
96272,4.99E-03,2.27E-02
96273,4.75E-03,2.29E-02
96274,5.03E-03,2.30E-02
96275,4.88E-03,2.31E-02
96276,5.05E-03,2.33E-02
96277,5.03E-03,2.35E-02
96278,5.06E-03,2.37E-02
96279,5.09E-03,2.39E-02
96280,5.07E-03,2.40E-02
96281,4.97E-03,2.42E-02
96282,4.77E-03,2.44E-02
96283,4.73E-03,2.45E-02
96284,4.79E-03,2.47E-02
96285,4.66E-03,2.49E-02
96286,4.68E-03,2.50E-02
96287,4.63E-03,2.52E-02
96288,4.67E-03,2.54E-02
96289,4.62E-03,2.55E-02
96290,4.65E-03,2.57E-02
96291,4.92E-03,2.59E-02
96292,4.98E-03,2.60E-02
96293,4.15E-03,2.62E-02
96294,3.67E-03,2.64E-02
96295,4.72E-03,2.65E-02
96296,4.75E-03,2.66E-02
96297,4.55E-03,2.68E-02
96298,4.36E-03,2.69E-02
96299,4.38E-03,2.71E-02
96300,4.63E-03,2.72E-02
96301,4.94E-03,2.74E-02
96302,4.91E-03,2.75E-02
96303,4.82E-03,2.76E-02
96304,4.82E-03,2.78E-02
96305,4.78E-03,2.79E-02
96306,4.83E-03,2.80E-02
96307,4.78E-03,2.81E-02
96308,4.80E-03,2.82E-02
96309,4.72E-03,2.83E-02
96310,4.69E-03,2.84E-02
96311,4.68E-03,2.85E-02
96312,4.72E-03,2.85E-02
96313,4.80E-03,2.86E-02
96314,4.94E-03,2.86E-02
96315,4.99E-03,2.86E-02
96316,5.06E-03,2.87E-02
96317,5.13E-03,2.87E-02
96318,5.14E-03,2.86E-02
96319,5.22E-03,2.86E-02
96320,5.26E-03,2.86E-02
96321,5.30E-03,2.86E-02
96322,5.42E-03,2.86E-02
96323,5.49E-03,2.85E-02
96324,5.58E-03,2.85E-02
96325,5.65E-03,2.84E-02
96326,5.73E-03,2.84E-02
96327,5.78E-03,2.83E-02
96328,5.84E-03,2.83E-02
96329,5.93E-03,2.82E-02
96330,5.97E-03,2.82E-02
96331,5.97E-03,2.81E-02
96332,5.99E-03,2.81E-02
96333,5.99E-03,2.81E-02
96334,5.98E-03,2.81E-02
96335,5.96E-03,2.81E-02
96336,5.93E-03,2.81E-02
96337,6.00E-03,2.81E-02
96338,6.01E-03,2.81E-02
96339,5.98E-03,2.82E-02
96340,5.97E-03,2.82E-02
96341,5.87E-03,2.83E-02
96342,5.84E-03,2.84E-02
96343,5.75E-03,2.85E-02
96344,5.69E-03,2.86E-02
96345,5.69E-03,2.87E-02
96346,5.67E-03,2.88E-02
96347,5.66E-03,2.89E-02
96348,5.57E-03,2.90E-02
96349,5.58E-03,2.91E-02
96350,5.56E-03,2.92E-02
96351,5.59E-03,2.93E-02
96352,5.61E-03,2.94E-02
96353,5.64E-03,2.95E-02
96354,5.59E-03,2.96E-02
96355,5.58E-03,2.97E-02
96356,5.59E-03,2.98E-02
96357,5.63E-03,2.99E-02
96358,5.64E-03,3.00E-02
96359,5.65E-03,3.01E-02
96360,5.64E-03,3.02E-02
96361,5.63E-03,3.03E-02
96362,5.57E-03,3.03E-02
96363,5.59E-03,3.04E-02
96364,5.57E-03,3.05E-02
96365,5.64E-03,3.05E-02
96366,5.64E-03,3.06E-02
96367,5.61E-03,3.07E-02
96368,5.61E-03,3.07E-02
96369,5.49E-03,3.08E-02
96370,5.46E-03,3.08E-02
96371,5.45E-03,3.08E-02
96372,5.42E-03,3.09E-02
96373,5.38E-03,3.09E-02
96374,5.44E-03,3.09E-02
96375,5.54E-03,3.09E-02
96376,5.54E-03,3.09E-02
96377,5.59E-03,3.09E-02
96378,5.52E-03,3.09E-02
96379,5.50E-03,3.09E-02
96380,5.52E-03,3.08E-02
96381,5.51E-03,3.08E-02
96382,5.54E-03,3.08E-02
96383,5.61E-03,3.08E-02
96384,5.58E-03,3.08E-02
96385,5.61E-03,3.08E-02
96386,5.57E-03,3.08E-02
96387,5.59E-03,3.08E-02
96388,5.60E-03,3.08E-02
96389,5.57E-03,3.08E-02
96390,5.49E-03,3.08E-02
96391,5.53E-03,3.08E-02
96392,5.47E-03,3.08E-02
96393,5.50E-03,3.08E-02
96394,5.45E-03,3.08E-02
96395,5.51E-03,3.08E-02
96396,5.53E-03,3.08E-02
96397,5.54E-03,3.08E-02
96398,5.52E-03,3.08E-02
96399,5.51E-03,3.08E-02
96400,5.52E-03,3.08E-02
96401,5.56E-03,3.08E-02
96402,5.63E-03,3.07E-02
96403,5.63E-03,3.07E-02
96404,5.63E-03,3.06E-02
96405,5.66E-03,3.05E-02
96406,5.69E-03,3.05E-02
96407,5.70E-03,3.04E-02
96408,5.65E-03,3.03E-02
96409,5.62E-03,3.02E-02
96410,5.61E-03,3.01E-02
96411,5.61E-03,3.00E-02
96412,5.58E-03,2.99E-02
96413,5.59E-03,2.98E-02
96414,5.59E-03,2.97E-02
96415,5.65E-03,2.96E-02
96416,5.64E-03,2.95E-02
96417,5.61E-03,2.93E-02
96418,5.64E-03,2.92E-02
96419,5.65E-03,2.91E-02
96420,5.67E-03,2.90E-02
96421,5.65E-03,2.89E-02
96422,5.63E-03,2.87E-02
96423,5.66E-03,2.86E-02
96424,5.66E-03,2.85E-02
96425,5.64E-03,2.84E-02
96426,5.61E-03,2.82E-02
96427,5.62E-03,2.81E-02
96428,5.61E-03,2.80E-02
96429,5.62E-03,2.78E-02
96430,5.72E-03,2.77E-02
96431,5.73E-03,2.75E-02
96432,5.76E-03,2.74E-02
96433,5.78E-03,2.73E-02
96434,5.81E-03,2.71E-02
96435,5.88E-03,2.70E-02
96436,5.87E-03,2.69E-02
96437,5.89E-03,2.67E-02
96438,5.92E-03,2.66E-02
96439,5.93E-03,2.65E-02
96440,5.89E-03,2.64E-02
96441,5.90E-03,2.63E-02
96442,5.86E-03,2.62E-02
96443,5.79E-03,2.61E-02
96444,5.74E-03,2.60E-02
96445,5.71E-03,2.59E-02
96446,5.65E-03,2.58E-02
96447,5.65E-03,2.57E-02
96448,5.65E-03,2.56E-02
96449,5.66E-03,2.55E-02
96450,5.64E-03,2.54E-02
96451,5.61E-03,2.53E-02
96452,5.62E-03,2.52E-02
96453,5.64E-03,2.50E-02
96454,5.68E-03,2.49E-02
96455,5.74E-03,2.48E-02
96456,5.75E-03,2.46E-02
96457,5.80E-03,2.44E-02
96458,5.85E-03,2.43E-02
96459,5.80E-03,2.41E-02
96460,5.83E-03,2.39E-02
96461,5.80E-03,2.37E-02
96462,5.80E-03,2.35E-02
96463,5.82E-03,2.33E-02
96464,5.72E-03,2.31E-02
96465,5.40E-03,2.29E-02
96466,4.27E-03,2.27E-02
96467,5.39E-03,2.25E-02
96468,5.45E-03,2.23E-02
96469,5.56E-03,2.21E-02
96470,5.62E-03,2.18E-02
96471,5.69E-03,2.16E-02
96472,5.69E-03,2.14E-02
96473,5.69E-03,2.12E-02
96474,5.61E-03,2.10E-02
96475,5.62E-03,2.08E-02
96476,5.53E-03,2.06E-02
96477,5.53E-03,2.04E-02
96478,5.51E-03,2.02E-02
96479,5.46E-03,2.00E-02
96480,5.40E-03,1.98E-02
96481,5.46E-03,1.97E-02
96482,5.48E-03,1.95E-02
96483,5.52E-03,1.93E-02
96484,5.60E-03,1.92E-02
96485,5.65E-03,1.90E-02
96486,5.68E-03,1.88E-02
96487,5.73E-03,1.86E-02
96488,5.72E-03,1.85E-02
96489,5.75E-03,1.83E-02
96490,5.76E-03,1.81E-02
96491,5.68E-03,1.78E-02
96492,5.62E-03,1.76E-02
96493,5.61E-03,1.74E-02
96494,5.65E-03,1.71E-02
96495,5.65E-03,1.69E-02
96496,5.68E-03,1.66E-02
96497,5.66E-03,1.64E-02
96498,5.69E-03,1.61E-02
96499,5.69E-03,1.59E-02
96500,5.70E-03,1.56E-02
96501,5.71E-03,1.53E-02
96502,5.66E-03,1.51E-02
96503,5.55E-03,1.48E-02
96504,5.52E-03,1.46E-02
96505,5.48E-03,1.43E-02
96506,5.40E-03,1.41E-02
96507,5.41E-03,1.39E-02
96508,5.36E-03,1.37E-02
96509,5.45E-03,1.35E-02
96510,5.50E-03,1.32E-02
96511,5.47E-03,1.30E-02
96512,5.47E-03,1.28E-02
96513,5.46E-03,1.26E-02
96514,5.40E-03,1.24E-02
96515,5.35E-03,1.22E-02
96516,5.25E-03,1.21E-02
96517,5.16E-03,1.19E-02
96518,5.01E-03,1.17E-02
96519,4.99E-03,1.16E-02
96520,4.97E-03,1.14E-02
96521,4.95E-03,1.13E-02
96522,4.97E-03,1.11E-02
96523,4.93E-03,1.10E-02
96524,4.91E-03,1.09E-02
96525,4.86E-03,1.08E-02
96526,4.99E-03,1.07E-02
96527,5.25E-03,1.06E-02
96528,5.36E-03,1.06E-02
96529,5.50E-03,1.05E-02
96530,5.66E-03,1.05E-02
96531,5.68E-03,1.04E-02
96532,5.68E-03,1.04E-02
96533,5.67E-03,1.03E-02
96534,5.67E-03,1.03E-02
96535,5.73E-03,1.02E-02
96536,5.71E-03,1.02E-02
96537,5.68E-03,1.02E-02
96538,5.72E-03,1.01E-02
96539,5.69E-03,1.01E-02
96540,5.77E-03,1.00E-02
96541,5.83E-03,9.96E-03
96542,5.89E-03,9.90E-03
96543,5.78E-03,9.85E-03
96544,5.63E-03,9.78E-03
96545,5.51E-03,9.71E-03
96546,5.53E-03,9.64E-03
96547,5.68E-03,9.57E-03
96548,5.81E-03,9.49E-03
96549,5.71E-03,9.42E-03
96550,5.32E-03,9.35E-03
96551,5.08E-03,9.28E-03
96552,5.11E-03,9.21E-03
96553,5.80E-03,9.39E-03
96554,5.06E-03,9.56E-03
96555,5.18E-03,9.70E-03
96556,5.50E-03,9.84E-03
96557,5.49E-03,9.98E-03
96558,5.49E-03,1.01E-02
96559,5.43E-03,1.03E-02
96560,5.47E-03,1.04E-02
96561,5.54E-03,1.06E-02
96562,5.51E-03,1.07E-02
96563,5.45E-03,1.09E-02
96564,5.39E-03,1.10E-02
96565,5.38E-03,1.12E-02
96566,5.40E-03,1.13E-02
96567,5.40E-03,1.14E-02
96568,5.48E-03,1.16E-02
96569,5.53E-03,1.17E-02
96570,5.54E-03,1.19E-02
96571,5.62E-03,1.21E-02
96572,5.68E-03,1.22E-02
96573,5.70E-03,1.24E-02
96574,5.71E-03,1.25E-02
96575,5.73E-03,1.27E-02
96576,5.64E-03,1.28E-02
96577,5.65E-03,1.30E-02
96578,5.66E-03,1.32E-02
96579,5.68E-03,1.33E-02
96580,5.73E-03,1.35E-02
96581,5.73E-03,1.37E-02
96582,5.72E-03,1.38E-02
96583,5.69E-03,1.40E-02
96584,5.59E-03,1.42E-02
96585,5.57E-03,1.44E-02
96586,5.55E-03,1.45E-02
96587,5.55E-03,1.47E-02
96588,5.61E-03,1.49E-02
96589,5.57E-03,1.51E-02
96590,5.54E-03,1.52E-02
96591,5.49E-03,1.54E-02
96592,5.52E-03,1.56E-02
96593,5.52E-03,1.57E-02
96594,5.58E-03,1.59E-02
96595,5.57E-03,1.61E-02
96596,5.58E-03,1.63E-02
96597,5.56E-03,1.64E-02
96598,5.49E-03,1.66E-02
96599,5.44E-03,1.68E-02
96600,5.47E-03,1.69E-02
96601,5.54E-03,1.71E-02
96602,5.58E-03,1.72E-02
96603,5.65E-03,1.74E-02
96604,5.66E-03,1.75E-02
96605,5.66E-03,1.77E-02
96606,5.68E-03,1.78E-02
96607,5.65E-03,1.80E-02
96608,5.63E-03,1.81E-02
96609,5.66E-03,1.82E-02
96610,5.68E-03,1.84E-02
96611,5.65E-03,1.85E-02
96612,5.63E-03,1.86E-02
96613,5.59E-03,1.87E-02
96614,5.57E-03,1.88E-02
96615,5.59E-03,1.89E-02
96616,5.63E-03,1.90E-02
96617,5.63E-03,1.91E-02
96618,5.58E-03,1.92E-02
96619,5.61E-03,1.93E-02
96620,5.61E-03,1.94E-02
96621,5.60E-03,1.95E-02
96622,5.61E-03,1.96E-02
96623,5.63E-03,1.97E-02
96624,5.67E-03,1.98E-02
96625,5.74E-03,1.98E-02
96626,5.79E-03,1.99E-02
96627,5.79E-03,2.00E-02
96628,5.80E-03,2.01E-02
96629,5.70E-03,2.01E-02
96630,5.61E-03,2.02E-02
96631,5.61E-03,2.03E-02
96632,5.55E-03,2.03E-02
96633,5.53E-03,2.04E-02
96634,5.55E-03,2.05E-02
96635,5.62E-03,2.05E-02
96636,5.64E-03,2.06E-02
96637,5.57E-03,2.06E-02
96638,5.57E-03,2.07E-02
96639,5.55E-03,2.07E-02
96640,5.56E-03,2.08E-02
96641,5.56E-03,2.08E-02
96642,5.55E-03,2.09E-02
96643,5.57E-03,2.09E-02
96644,5.67E-03,2.09E-02
96645,5.71E-03,2.10E-02
96646,5.68E-03,2.10E-02
96647,5.67E-03,2.10E-02
96648,5.65E-03,2.10E-02
96649,5.60E-03,2.11E-02
96650,5.57E-03,2.11E-02
96651,5.57E-03,2.11E-02
96652,5.62E-03,2.11E-02
96653,5.69E-03,2.11E-02
96654,5.70E-03,2.11E-02
96655,5.66E-03,2.11E-02
96656,5.68E-03,2.11E-02
96657,5.73E-03,2.11E-02
96658,5.73E-03,2.11E-02
96659,5.69E-03,2.11E-02
96660,5.63E-03,2.11E-02
96661,5.59E-03,2.10E-02
96662,5.53E-03,2.10E-02
96663,5.51E-03,2.10E-02
96664,5.53E-03,2.10E-02
96665,5.51E-03,2.09E-02
96666,5.54E-03,2.09E-02
96667,5.53E-03,2.09E-02
96668,5.50E-03,2.08E-02
96669,5.48E-03,2.08E-02
96670,5.49E-03,2.08E-02
96671,5.52E-03,2.07E-02
96672,5.52E-03,2.07E-02
96673,5.54E-03,2.06E-02
96674,5.54E-03,2.06E-02
96675,5.53E-03,2.06E-02
96676,5.52E-03,2.05E-02
96677,5.53E-03,2.05E-02
96678,5.47E-03,2.04E-02
96679,5.50E-03,2.03E-02
96680,5.51E-03,2.03E-02
96681,5.52E-03,2.02E-02
96682,5.52E-03,2.02E-02
96683,5.55E-03,2.01E-02
96684,5.54E-03,2.00E-02
96685,5.57E-03,2.00E-02
96686,5.60E-03,1.99E-02
96687,5.55E-03,1.99E-02
96688,5.57E-03,1.98E-02
96689,5.56E-03,1.97E-02
96690,5.57E-03,1.96E-02
96691,5.60E-03,1.96E-02
96692,5.63E-03,1.95E-02
96693,5.67E-03,1.94E-02
96694,5.72E-03,1.93E-02
96695,5.68E-03,1.93E-02
96696,5.62E-03,1.92E-02
96697,5.62E-03,1.91E-02
96698,5.57E-03,1.90E-02
96699,5.58E-03,1.89E-02
96700,5.66E-03,1.88E-02
96701,5.68E-03,1.88E-02
96702,5.63E-03,1.87E-02
96703,5.65E-03,1.86E-02
96704,5.61E-03,1.85E-02
96705,5.56E-03,1.84E-02
96706,5.55E-03,1.83E-02
96707,5.52E-03,1.82E-02
96708,5.51E-03,1.81E-02
96709,5.49E-03,1.80E-02
96710,5.50E-03,1.80E-02
96711,5.57E-03,1.79E-02
96712,5.58E-03,1.78E-02
96713,5.63E-03,1.77E-02
96714,5.67E-03,1.76E-02
96715,5.65E-03,1.75E-02
96716,5.68E-03,1.75E-02
96717,5.69E-03,1.74E-02
96718,5.66E-03,1.73E-02
96719,5.64E-03,1.72E-02
96720,5.60E-03,1.71E-02
96721,5.60E-03,1.70E-02
96722,5.60E-03,1.69E-02
96723,5.60E-03,1.69E-02
96724,5.60E-03,1.68E-02
96725,5.60E-03,1.67E-02
96726,5.60E-03,1.66E-02
96727,5.61E-03,1.65E-02
96728,5.60E-03,1.65E-02
96729,5.61E-03,1.64E-02
96730,5.60E-03,1.63E-02
96731,5.61E-03,1.63E-02
96732,5.60E-03,1.62E-02
96733,5.61E-03,1.61E-02
96734,5.61E-03,1.60E-02
96735,5.62E-03,1.60E-02
96736,5.63E-03,1.59E-02
96737,5.59E-03,1.59E-02
96738,5.59E-03,1.58E-02
96739,5.57E-03,1.57E-02
96740,5.56E-03,1.57E-02
96741,5.57E-03,1.56E-02
96742,5.62E-03,1.56E-02
96743,5.64E-03,1.55E-02
96744,5.64E-03,1.55E-02
96745,5.60E-03,1.54E-02
96746,5.59E-03,1.54E-02
96747,5.59E-03,1.53E-02
96748,5.57E-03,1.53E-02
96749,5.61E-03,1.53E-02
96750,5.60E-03,1.52E-02
96751,5.68E-03,1.52E-02
96752,5.68E-03,1.52E-02
96753,5.65E-03,1.52E-02
96754,5.67E-03,1.51E-02
96755,5.64E-03,1.51E-02
96756,5.61E-03,1.51E-02
96757,5.62E-03,1.51E-02
96758,5.62E-03,1.51E-02
96759,5.67E-03,1.51E-02
96760,5.71E-03,1.51E-02
96761,5.72E-03,1.50E-02
96762,5.68E-03,1.50E-02
96763,5.77E-03,1.50E-02
96764,5.73E-03,1.50E-02
96765,4.85E-03,2.65E-02
96766,6.01E-03,2.62E-02
96767,5.42E-03,2.70E-02
96768,5.87E-03,2.68E-02
96769,6.40E-03,2.53E-02
96770,5.73E-03,2.49E-02
96771,5.50E-03,2.45E-02
96772,5.59E-03,1.55E-02
96773,5.88E-03,2.49E-02
96774,5.49E-03,9.05E-03
96775,5.42E-03,1.51E-02
96776,5.17E-03,1.52E-02
96777,6.15E-03,2.63E-02
96778,6.33E-03,2.51E-02
96779,5.25E-03,2.46E-02
96780,5.61E-03,2.47E-02
96781,5.05E-03,2.47E-02
96782,5.69E-03,2.51E-02
96783,5.60E-03,2.63E-02
96784,4.83E-03,8.96E-03
96785,4.47E-03,1.50E-02
96786,5.07E-03,2.46E-02
96787,6.20E-03,2.49E-02
96788,5.45E-03,2.51E-02
96789,5.68E-03,2.68E-02
96790,5.71E-03,2.65E-02
96791,5.24E-03,2.64E-02
96792,5.73E-03,1.47E-02
96793,6.33E-03,1.47E-02
96794,5.79E-03,1.47E-02
96795,5.69E-03,1.47E-02
96796,5.76E-03,1.47E-02
96797,5.65E-03,1.47E-02
96798,5.67E-03,1.47E-02
96799,5.63E-03,1.47E-02
96800,5.63E-03,1.47E-02
96801,5.62E-03,1.47E-02
96802,5.62E-03,1.47E-02
96803,5.66E-03,1.48E-02
96804,5.63E-03,1.47E-02
96805,5.66E-03,1.48E-02
96806,5.67E-03,1.48E-02
96807,5.62E-03,1.49E-02
96808,5.62E-03,1.48E-02
96809,5.57E-03,1.49E-02
96810,5.62E-03,1.49E-02
96811,5.60E-03,1.50E-02
96812,5.58E-03,1.50E-02
96813,5.62E-03,1.51E-02
96814,5.64E-03,1.51E-02
96815,5.60E-03,1.52E-02
96816,5.62E-03,1.52E-02
96817,5.55E-03,1.53E-02
96818,5.54E-03,1.53E-02
96819,5.58E-03,1.54E-02
96820,5.56E-03,1.54E-02
96821,5.61E-03,1.55E-02
96822,5.62E-03,1.55E-02
96823,5.61E-03,1.57E-02
96824,5.62E-03,1.56E-02
96825,5.61E-03,1.58E-02
96826,5.62E-03,1.57E-02
96827,5.61E-03,1.60E-02
96828,5.62E-03,1.59E-02
96829,5.61E-03,1.61E-02
96830,5.62E-03,1.60E-02
96831,5.61E-03,1.63E-02
96832,5.62E-03,1.62E-02
96833,5.61E-03,1.64E-02
96834,5.62E-03,1.63E-02
96835,5.61E-03,1.66E-02
96836,5.62E-03,1.65E-02
96837,5.61E-03,1.67E-02
96838,5.62E-03,1.67E-02
96839,5.61E-03,1.69E-02
96840,5.62E-03,1.68E-02
96841,5.61E-03,1.71E-02
96842,5.61E-03,1.70E-02
96843,5.59E-03,1.73E-02
96844,5.60E-03,1.72E-02
96845,5.53E-03,1.74E-02
96846,5.57E-03,1.74E-02
96847,5.51E-03,1.76E-02
96848,5.51E-03,1.75E-02
96849,5.49E-03,1.78E-02
96850,5.51E-03,1.77E-02
96851,5.56E-03,1.80E-02
96852,5.54E-03,1.79E-02
96853,5.65E-03,1.82E-02
96854,5.62E-03,1.81E-02
96855,5.66E-03,1.83E-02
96856,5.69E-03,1.83E-02
96857,5.62E-03,1.85E-02
96858,5.67E-03,1.84E-02
96859,5.61E-03,1.87E-02
96860,5.65E-03,1.86E-02
96861,5.64E-03,1.89E-02
96862,5.62E-03,1.88E-02
96863,5.66E-03,1.90E-02
96864,5.71E-03,1.89E-02
96865,5.62E-03,1.92E-02
96866,5.64E-03,1.91E-02
96867,5.61E-03,1.93E-02
96868,5.61E-03,1.93E-02
96869,5.61E-03,1.95E-02
96870,5.61E-03,1.94E-02
96871,5.62E-03,1.96E-02
96872,5.61E-03,1.96E-02
96873,5.54E-03,1.98E-02
96874,5.57E-03,1.97E-02
96875,5.55E-03,1.99E-02
96876,5.55E-03,1.98E-02
96877,5.54E-03,2.00E-02
96878,5.55E-03,2.00E-02
96879,5.53E-03,2.01E-02
96880,5.53E-03,2.01E-02
96881,5.56E-03,2.02E-02
96882,5.53E-03,2.02E-02
96883,5.57E-03,2.03E-02
96884,5.57E-03,2.03E-02
96885,5.52E-03,2.04E-02
96886,5.52E-03,2.04E-02
96887,5.47E-03,2.05E-02
96888,5.47E-03,2.05E-02
96889,5.52E-03,2.06E-02
96890,5.50E-03,2.06E-02
96891,5.55E-03,2.07E-02
96892,5.57E-03,2.06E-02
96893,5.53E-03,2.07E-02
96894,5.50E-03,2.07E-02
96895,5.56E-03,2.08E-02
96896,5.53E-03,2.08E-02
96897,5.64E-03,2.08E-02
96898,5.62E-03,2.08E-02
96899,5.70E-03,2.09E-02
96900,5.73E-03,2.09E-02
96901,5.74E-03,2.09E-02
96902,5.78E-03,2.09E-02
96903,5.73E-03,2.09E-02
96904,5.73E-03,2.09E-02
96905,5.65E-03,2.09E-02
96906,5.69E-03,2.09E-02
96907,5.65E-03,2.09E-02
96908,5.64E-03,2.09E-02
96909,5.68E-03,2.09E-02
96910,5.67E-03,2.09E-02
96911,5.67E-03,2.08E-02
96912,5.70E-03,2.09E-02
96913,5.67E-03,2.08E-02
96914,5.68E-03,2.08E-02
96915,5.60E-03,2.07E-02
96916,5.63E-03,2.08E-02
96917,5.50E-03,2.07E-02
96918,5.52E-03,2.07E-02
96919,5.52E-03,2.06E-02
96920,5.51E-03,2.06E-02
96921,5.59E-03,2.05E-02
96922,5.55E-03,2.05E-02
96923,5.55E-03,2.04E-02
96924,5.59E-03,2.04E-02
96925,5.53E-03,2.03E-02
96926,5.54E-03,2.03E-02
96927,5.64E-03,2.01E-02
96928,5.60E-03,2.02E-02
96929,5.75E-03,2.00E-02
96930,5.70E-03,2.01E-02
96931,5.79E-03,1.99E-02
96932,5.77E-03,1.99E-02
96933,5.64E-03,1.97E-02
96934,5.71E-03,1.98E-02
96935,5.57E-03,1.96E-02
96936,5.60E-03,1.96E-02
96937,5.61E-03,1.94E-02
96938,5.58E-03,1.95E-02
96939,5.60E-03,1.92E-02
96940,5.62E-03,1.93E-02
96941,5.61E-03,1.90E-02
96942,5.65E-03,1.91E-02
96943,5.58E-03,1.88E-02
96944,5.59E-03,1.89E-02
96945,5.65E-03,1.86E-02
96946,5.60E-03,1.87E-02
96947,5.70E-03,1.84E-02
96948,5.65E-03,1.85E-02
96949,5.66E-03,1.81E-02
96950,5.72E-03,1.82E-02
96951,5.63E-03,1.78E-02
96952,5.65E-03,1.80E-02
96953,5.66E-03,1.76E-02
96954,5.65E-03,1.77E-02
96955,5.56E-03,1.73E-02
96956,5.62E-03,1.74E-02
96957,5.48E-03,1.70E-02
96958,5.52E-03,1.71E-02
96959,5.52E-03,1.66E-02
96960,5.46E-03,1.68E-02
96961,5.60E-03,1.63E-02
96962,5.55E-03,1.65E-02
96963,5.55E-03,1.60E-02
96964,5.57E-03,1.61E-02
96965,5.49E-03,1.56E-02
96966,5.49E-03,1.58E-02
96967,5.52E-03,1.53E-02
96968,5.51E-03,1.55E-02
96969,5.61E-03,1.50E-02
96970,5.60E-03,1.51E-02
96971,5.62E-03,1.46E-02
96972,5.60E-03,1.48E-02
96973,5.60E-03,1.43E-02
96974,5.61E-03,1.44E-02
96975,5.73E-03,1.39E-02
96976,5.68E-03,1.41E-02
96977,5.72E-03,1.36E-02
96978,5.72E-03,1.38E-02
96979,5.65E-03,1.33E-02
96980,5.70E-03,1.34E-02
96981,5.65E-03,1.29E-02
96982,5.61E-03,1.31E-02
96983,5.70E-03,1.26E-02
96984,5.71E-03,1.28E-02
96985,5.63E-03,1.23E-02
96986,5.69E-03,1.25E-02
96987,5.55E-03,1.20E-02
96988,5.60E-03,1.22E-02
96989,5.51E-03,1.17E-02
96990,5.52E-03,1.19E-02
96991,5.46E-03,1.14E-02
96992,5.50E-03,1.15E-02
96993,5.45E-03,1.11E-02
96994,5.41E-03,1.12E-02
96995,5.51E-03,1.08E-02
96996,5.47E-03,1.10E-02
96997,5.51E-03,1.05E-02
96998,5.50E-03,1.07E-02
96999,5.45E-03,1.02E-02
97000,5.49E-03,1.04E-02
97001,5.45E-03,9.93E-03
97002,5.47E-03,1.01E-02
97003,5.76E-03,9.64E-03
97004,5.44E-03,9.79E-03
97005,6.38E-03,9.33E-03
97006,6.67E-03,9.48E-03
97007,3.87E-03,9.09E-03
97008,5.52E-03,9.21E-03
97009,4.32E-03,8.97E-03
97010,4.83E-03,1.51E-02
97011,5.59E-03,1.55E-02
97012,5.28E-03,1.53E-02
97013,5.71E-03,1.59E-02
97014,5.69E-03,1.57E-02
97015,5.67E-03,1.63E-02
97016,5.68E-03,1.61E-02
97017,5.59E-03,1.67E-02
97018,5.59E-03,1.65E-02
97019,5.57E-03,1.71E-02
97020,5.58E-03,1.69E-02
97021,5.46E-03,1.75E-02
97022,5.53E-03,1.73E-02
97023,5.39E-03,1.79E-02
97024,5.46E-03,1.77E-02
97025,5.43E-03,1.83E-02
97026,5.41E-03,1.81E-02
97027,5.50E-03,1.87E-02
97028,5.49E-03,1.85E-02
97029,5.53E-03,1.91E-02
97030,5.54E-03,1.89E-02
97031,5.55E-03,1.94E-02
97032,5.51E-03,1.93E-02
97033,5.49E-03,1.98E-02
97034,5.53E-03,1.96E-02
97035,5.41E-03,2.02E-02
97036,5.46E-03,2.00E-02
97037,5.33E-03,2.05E-02
97038,5.37E-03,2.03E-02
97039,5.26E-03,2.09E-02
97040,5.26E-03,2.07E-02
97041,5.25E-03,2.12E-02
97042,5.21E-03,2.10E-02
97043,5.29E-03,2.16E-02
97044,5.28E-03,2.14E-02
97045,5.33E-03,2.19E-02
97046,5.30E-03,2.17E-02
97047,5.25E-03,2.23E-02
97048,5.31E-03,2.21E-02
97049,5.15E-03,2.26E-02
97050,5.23E-03,2.25E-02
97051,5.19E-03,2.29E-02
97052,5.17E-03,2.28E-02
97053,5.20E-03,2.33E-02
97054,5.19E-03,2.31E-02
97055,5.22E-03,2.36E-02
97056,5.25E-03,2.35E-02
97057,5.16E-03,2.40E-02
97058,5.15E-03,2.38E-02
97059,5.08E-03,2.43E-02
97060,5.12E-03,2.42E-02
97061,5.02E-03,2.47E-02
97062,5.04E-03,2.45E-02
97063,4.99E-03,2.50E-02
97064,5.02E-03,2.49E-02
97065,4.99E-03,2.54E-02
97066,5.00E-03,2.52E-02
97067,4.99E-03,2.57E-02
97068,5.00E-03,2.56E-02
97069,4.85E-03,2.61E-02
97070,5.00E-03,2.59E-02
97071,4.63E-03,2.64E-02
97072,4.66E-03,2.62E-02
97073,4.87E-03,2.67E-02
97074,4.69E-03,2.66E-02
97075,4.80E-03,2.71E-02
97076,4.83E-03,2.69E-02
97077,4.94E-03,2.74E-02
97078,4.81E-03,2.72E-02
97079,5.08E-03,2.77E-02
97080,5.04E-03,2.75E-02
97081,5.09E-03,2.80E-02
97082,5.10E-03,2.78E-02
97083,5.07E-03,2.82E-02
97084,5.07E-03,2.81E-02
97085,5.05E-03,2.84E-02
97086,5.04E-03,2.83E-02
97087,4.94E-03,2.86E-02
97088,5.03E-03,2.85E-02
97089,4.97E-03,2.88E-02
97090,4.96E-03,2.87E-02
97091,5.12E-03,2.89E-02
97092,5.05E-03,2.88E-02
97093,5.25E-03,2.89E-02
97094,5.16E-03,2.89E-02
97095,5.29E-03,2.90E-02
97096,5.29E-03,2.90E-02
97097,5.41E-03,2.89E-02
97098,5.34E-03,2.89E-02
97099,5.47E-03,2.89E-02
97100,5.39E-03,2.89E-02
97101,5.58E-03,2.88E-02
97102,5.52E-03,2.88E-02
97103,5.68E-03,2.87E-02
97104,5.62E-03,2.87E-02
97105,5.80E-03,2.86E-02
97106,5.73E-03,2.87E-02
97107,5.86E-03,2.85E-02
97108,5.84E-03,2.86E-02
97109,5.83E-03,2.84E-02
97110,5.85E-03,2.85E-02
97111,5.78E-03,2.84E-02
97112,5.79E-03,2.84E-02
97113,5.81E-03,2.84E-02
97114,5.80E-03,2.84E-02
97115,5.82E-03,2.85E-02
97116,5.83E-03,2.85E-02
97117,5.83E-03,2.86E-02
97118,5.81E-03,2.85E-02
97119,5.76E-03,2.88E-02
97120,5.76E-03,2.87E-02
97121,5.67E-03,2.90E-02
97122,5.76E-03,2.89E-02
97123,5.63E-03,2.92E-02
97124,5.60E-03,2.91E-02
97125,5.54E-03,2.94E-02
97126,5.62E-03,2.93E-02
97127,5.53E-03,2.96E-02
97128,5.53E-03,2.95E-02
97129,5.61E-03,2.98E-02
97130,5.60E-03,2.97E-02
97131,5.61E-03,3.00E-02
97132,5.62E-03,2.99E-02
97133,5.57E-03,3.03E-02
97134,5.62E-03,3.01E-02
97135,5.63E-03,3.05E-02
97136,5.57E-03,3.04E-02
97137,5.63E-03,3.06E-02
97138,5.65E-03,3.06E-02
97139,5.58E-03,3.08E-02
97140,5.60E-03,3.07E-02
97141,5.57E-03,3.10E-02
97142,5.60E-03,3.09E-02
97143,5.61E-03,3.11E-02
97144,5.60E-03,3.10E-02
97145,5.59E-03,3.12E-02
97146,5.61E-03,3.11E-02
97147,5.48E-03,3.13E-02
97148,5.51E-03,3.12E-02
97149,5.45E-03,3.13E-02
97150,5.46E-03,3.13E-02
97151,5.42E-03,3.14E-02
97152,5.42E-03,3.14E-02
97153,5.53E-03,3.14E-02
97154,5.53E-03,3.14E-02
97155,5.54E-03,3.14E-02
97156,5.55E-03,3.14E-02
97157,5.51E-03,3.13E-02
97158,5.51E-03,3.14E-02
97159,5.58E-03,3.13E-02
97160,5.51E-03,3.13E-02
97161,5.58E-03,3.13E-02
97162,5.60E-03,3.13E-02
97163,5.58E-03,3.13E-02
97164,5.60E-03,3.13E-02
97165,5.60E-03,3.13E-02
97166,5.60E-03,3.13E-02
97167,5.55E-03,3.13E-02
97168,5.60E-03,3.13E-02
97169,5.48E-03,3.13E-02
97170,5.52E-03,3.13E-02
97171,5.49E-03,3.14E-02
97172,5.48E-03,3.13E-02
97173,5.52E-03,3.14E-02
97174,5.55E-03,3.14E-02
97175,5.52E-03,3.14E-02
97176,5.53E-03,3.14E-02
97177,5.56E-03,3.13E-02
97178,5.50E-03,3.13E-02
97179,5.58E-03,3.12E-02
97180,5.56E-03,3.13E-02
97181,5.63E-03,3.11E-02
97182,5.61E-03,3.12E-02
97183,5.67E-03,3.10E-02
97184,5.64E-03,3.11E-02
97185,5.69E-03,3.08E-02
97186,5.69E-03,3.09E-02
97187,5.65E-03,3.06E-02
97188,5.68E-03,3.07E-02
97189,5.64E-03,3.04E-02
97190,5.66E-03,3.05E-02
97191,5.61E-03,3.02E-02
97192,5.59E-03,3.03E-02
97193,5.62E-03,2.99E-02
97194,5.62E-03,3.00E-02
97195,5.59E-03,2.97E-02
97196,5.63E-03,2.98E-02
97197,5.63E-03,2.94E-02
97198,5.58E-03,2.96E-02
97199,5.64E-03,2.92E-02
97200,5.63E-03,2.93E-02
97201,5.64E-03,2.89E-02
97202,5.63E-03,2.91E-02
97203,5.59E-03,2.87E-02
97204,5.62E-03,2.88E-02
97205,5.59E-03,2.84E-02
97206,5.59E-03,2.85E-02
97207,5.67E-03,2.81E-02
97208,5.60E-03,2.82E-02
97209,5.77E-03,2.78E-02
97210,5.74E-03,2.79E-02
97211,5.80E-03,2.75E-02
97212,5.80E-03,2.76E-02
97213,5.82E-03,2.72E-02
97214,5.82E-03,2.74E-02
97215,5.82E-03,2.70E-02
97216,5.82E-03,2.71E-02
97217,5.78E-03,2.67E-02
97218,5.79E-03,2.69E-02
97219,5.75E-03,2.65E-02
97220,5.82E-03,2.66E-02
97221,5.67E-03,2.63E-02
97222,5.71E-03,2.64E-02
97223,5.60E-03,2.61E-02
97224,5.62E-03,2.62E-02
97225,5.58E-03,2.59E-02
97226,5.59E-03,2.60E-02
97227,5.60E-03,2.57E-02
97228,5.57E-03,2.58E-02
97229,5.52E-03,2.55E-02
97230,5.56E-03,2.56E-02
97231,5.61E-03,2.52E-02
97232,5.55E-03,2.53E-02
97233,5.72E-03,2.49E-02
97234,5.66E-03,2.51E-02
97235,5.76E-03,2.46E-02
97236,5.77E-03,2.47E-02
97237,5.77E-03,2.42E-02
97238,5.73E-03,2.44E-02
97239,5.75E-03,2.38E-02
97240,5.73E-03,2.40E-02
97241,5.60E-03,2.33E-02
97242,5.74E-03,2.36E-02
97243,5.14E-03,2.29E-02
97244,5.34E-03,2.31E-02
97245,5.59E-03,2.24E-02
97246,5.77E-03,2.27E-02
97247,5.64E-03,2.20E-02
97248,5.59E-03,2.22E-02
97249,5.73E-03,2.15E-02
97250,5.76E-03,2.17E-02
97251,5.65E-03,2.11E-02
97252,5.69E-03,2.13E-02
97253,5.62E-03,2.06E-02
97254,5.66E-03,2.08E-02
97255,5.58E-03,2.02E-02
97256,5.61E-03,2.04E-02
97257,5.49E-03,1.99E-02
97258,5.55E-03,2.00E-02
97259,5.52E-03,1.95E-02
97260,5.48E-03,1.97E-02
97261,5.63E-03,1.92E-02
97262,5.56E-03,1.93E-02
97263,5.66E-03,1.88E-02
97264,5.67E-03,1.90E-02
97265,5.70E-03,1.84E-02
97266,5.70E-03,1.86E-02
97267,5.69E-03,1.80E-02
97268,5.65E-03,1.82E-02
97269,5.61E-03,1.76E-02
97270,5.66E-03,1.78E-02
97271,5.62E-03,1.71E-02
97272,5.63E-03,1.73E-02
97273,5.66E-03,1.66E-02
97274,5.65E-03,1.68E-02
97275,5.67E-03,1.60E-02
97276,5.63E-03,1.63E-02
97277,5.69E-03,1.55E-02
97278,5.68E-03,1.58E-02
97279,5.64E-03,1.50E-02
97280,5.70E-03,1.52E-02
97281,5.51E-03,1.45E-02
97282,5.56E-03,1.47E-02
97283,5.44E-03,1.40E-02
97284,5.46E-03,1.42E-02
97285,5.41E-03,1.35E-02
97286,5.41E-03,1.38E-02
97287,5.50E-03,1.31E-02
97288,5.45E-03,1.33E-02
97289,5.53E-03,1.27E-02
97290,5.51E-03,1.29E-02
97291,5.45E-03,1.23E-02
97292,5.50E-03,1.25E-02
97293,5.33E-03,1.19E-02
97294,5.35E-03,1.21E-02
97295,5.18E-03,1.16E-02
97296,5.25E-03,1.17E-02
97297,5.15E-03,1.13E-02
97298,5.18E-03,1.14E-02
97299,5.17E-03,1.10E-02
97300,5.19E-03,1.11E-02
97301,5.18E-03,1.07E-02
97302,5.16E-03,1.08E-02
97303,5.26E-03,1.05E-02
97304,5.20E-03,1.06E-02
97305,5.48E-03,1.04E-02
97306,5.35E-03,1.04E-02
97307,5.65E-03,1.03E-02
97308,5.56E-03,1.03E-02
97309,5.68E-03,1.02E-02
97310,5.67E-03,1.02E-02
97311,5.68E-03,1.01E-02
97312,5.68E-03,1.01E-02
97313,5.65E-03,1.00E-02
97314,5.71E-03,1.01E-02
97315,5.63E-03,9.95E-03
97316,5.65E-03,1.00E-02
97317,5.69E-03,9.86E-03
97318,5.61E-03,9.91E-03
97319,5.78E-03,9.75E-03
97320,5.76E-03,9.81E-03
97321,5.70E-03,9.63E-03
97322,5.73E-03,9.69E-03
97323,5.65E-03,9.50E-03
97324,5.63E-03,9.57E-03
97325,5.76E-03,9.35E-03
97326,5.74E-03,9.42E-03
97327,5.56E-03,9.21E-03
97328,5.71E-03,9.28E-03
97329,5.59E-03,9.07E-03
97330,5.65E-03,9.15E-03
97331,5.91E-03,8.95E-03
97332,5.39E-03,9.00E-03
97333,6.06E-03,8.82E-03
97334,5.81E-03,8.88E-03
97335,6.85E-03,8.77E-03
97336,3.47E-03,8.58E-03
97337,5.30E-03,8.67E-03
97338,5.82E-03,1.48E-02
97339,4.08E-03,1.49E-02
97340,4.26E-03,1.48E-02
97341,2.08E-03,1.47E-02
97342,2.75E-03,8.34E-03
97343,2.31E-03,8.35E-03
97344,2.13E-03,8.38E-03
97345,3.35E-03,8.45E-03
97346,5.13E-03,8.54E-03
97347,5.90E-03,8.61E-03
97348,6.07E-03,8.67E-03
97349,5.91E-03,8.73E-03
97350,5.84E-03,8.79E-03
97351,5.73E-03,8.85E-03
97352,5.69E-03,8.93E-03
97353,5.64E-03,9.00E-03
97354,5.71E-03,9.07E-03
97355,5.78E-03,9.14E-03
97356,5.79E-03,9.21E-03
97357,5.80E-03,9.27E-03
97358,5.77E-03,9.35E-03
97359,5.73E-03,9.41E-03
97360,5.72E-03,9.48E-03
97361,5.70E-03,9.54E-03
97362,5.68E-03,9.60E-03
97363,5.63E-03,9.66E-03
97364,5.58E-03,9.71E-03
97365,5.54E-03,9.76E-03
97366,5.56E-03,9.80E-03
97367,5.58E-03,9.84E-03
97368,5.60E-03,9.87E-03
97369,5.63E-03,9.90E-03
97370,5.73E-03,9.93E-03
97371,5.76E-03,9.96E-03
97372,5.74E-03,9.99E-03
97373,5.74E-03,1.00E-02
97374,5.68E-03,1.01E-02
97375,5.60E-03,1.01E-02
97376,5.55E-03,1.02E-02
97377,5.53E-03,1.03E-02
97378,5.50E-03,1.03E-02
97379,5.49E-03,1.04E-02
97380,5.44E-03,1.06E-02
97381,5.43E-03,1.07E-02
97382,5.43E-03,1.08E-02
97383,5.42E-03,1.10E-02
97384,5.38E-03,1.11E-02
97385,5.36E-03,1.13E-02
97386,5.35E-03,1.14E-02
97387,5.37E-03,1.16E-02
97388,5.43E-03,1.18E-02
97389,5.44E-03,1.20E-02
97390,5.53E-03,1.21E-02
97391,5.58E-03,1.23E-02
97392,5.61E-03,1.25E-02
97393,5.58E-03,1.27E-02
97394,5.54E-03,1.30E-02
97395,5.49E-03,1.32E-02
97396,5.46E-03,1.34E-02
97397,5.42E-03,1.36E-02
97398,5.47E-03,1.38E-02
97399,5.46E-03,1.41E-02
97400,5.51E-03,1.43E-02
97401,5.60E-03,1.46E-02
97402,5.65E-03,1.48E-02
97403,5.66E-03,1.51E-02
97404,5.63E-03,1.54E-02
97405,5.66E-03,1.56E-02
97406,5.66E-03,1.59E-02
97407,5.64E-03,1.62E-02
97408,5.63E-03,1.65E-02
97409,5.61E-03,1.67E-02
97410,5.59E-03,1.70E-02
97411,5.65E-03,1.73E-02
97412,5.67E-03,1.75E-02
97413,5.71E-03,1.78E-02
97414,5.76E-03,1.80E-02
97415,5.73E-03,1.82E-02
97416,5.73E-03,1.84E-02
97417,5.71E-03,1.86E-02
97418,5.69E-03,1.88E-02
97419,5.68E-03,1.90E-02
97420,5.63E-03,1.92E-02
97421,5.55E-03,1.94E-02
97422,5.48E-03,1.95E-02
97423,5.45E-03,1.97E-02
97424,5.52E-03,1.99E-02
97425,5.55E-03,2.01E-02
97426,5.60E-03,2.03E-02
97427,5.61E-03,2.05E-02
97428,5.66E-03,2.07E-02
97429,5.69E-03,2.09E-02
97430,5.71E-03,2.12E-02
97431,5.76E-03,2.14E-02
97432,5.77E-03,2.16E-02
97433,5.77E-03,2.19E-02
97434,5.70E-03,2.21E-02
97435,5.69E-03,2.24E-02
97436,5.67E-03,2.26E-02
97437,5.56E-03,2.29E-02
97438,5.54E-03,2.31E-02
97439,5.47E-03,2.34E-02
97440,5.59E-03,2.36E-02
97441,5.68E-03,2.38E-02
97442,5.73E-03,2.40E-02
97443,5.75E-03,2.42E-02
97444,5.71E-03,2.45E-02
97445,5.69E-03,2.47E-02
97446,5.72E-03,2.48E-02
97447,5.72E-03,2.50E-02
97448,5.68E-03,2.52E-02
97449,5.61E-03,2.54E-02
97450,5.57E-03,2.55E-02
97451,5.51E-03,2.56E-02
97452,5.48E-03,2.58E-02
97453,5.52E-03,2.59E-02
97454,5.52E-03,2.60E-02
97455,5.52E-03,2.61E-02
97456,5.52E-03,2.62E-02
97457,5.51E-03,2.63E-02
97458,5.50E-03,2.64E-02
97459,5.53E-03,2.65E-02
97460,5.59E-03,2.66E-02
97461,5.67E-03,2.68E-02
97462,5.70E-03,2.69E-02
97463,5.72E-03,2.70E-02
97464,5.75E-03,2.71E-02
97465,5.74E-03,2.72E-02
97466,5.79E-03,2.73E-02
97467,5.79E-03,2.75E-02
97468,5.83E-03,2.76E-02
97469,5.85E-03,2.78E-02
97470,5.80E-03,2.79E-02
97471,5.80E-03,2.81E-02
97472,5.72E-03,2.82E-02
97473,5.68E-03,2.84E-02
97474,5.58E-03,2.85E-02
97475,5.53E-03,2.87E-02
97476,5.51E-03,2.88E-02
97477,5.49E-03,2.89E-02
97478,5.52E-03,2.91E-02
97479,5.55E-03,2.92E-02
97480,5.55E-03,2.94E-02
97481,5.56E-03,2.95E-02
97482,5.54E-03,2.96E-02
97483,5.55E-03,2.98E-02
97484,5.56E-03,2.99E-02
97485,5.58E-03,3.00E-02
97486,5.61E-03,3.01E-02
97487,5.61E-03,3.03E-02
97488,5.61E-03,3.04E-02
97489,5.61E-03,3.05E-02
97490,5.61E-03,3.06E-02
97491,5.57E-03,3.08E-02
97492,5.65E-03,3.09E-02
97493,5.67E-03,3.10E-02
97494,5.70E-03,3.11E-02
97495,5.71E-03,3.12E-02
97496,5.70E-03,3.13E-02
97497,5.65E-03,3.14E-02
97498,5.59E-03,3.15E-02
97499,5.56E-03,3.16E-02
97500,5.55E-03,3.17E-02
97501,5.60E-03,3.17E-02
97502,5.56E-03,3.18E-02
97503,5.53E-03,3.18E-02
97504,5.51E-03,3.18E-02
97505,5.47E-03,3.19E-02
97506,5.50E-03,3.19E-02
97507,5.54E-03,3.19E-02
97508,5.51E-03,3.19E-02
97509,5.51E-03,3.19E-02
97510,5.49E-03,3.19E-02
97511,5.47E-03,3.19E-02
97512,5.49E-03,3.18E-02
97513,5.50E-03,3.18E-02
97514,5.54E-03,3.18E-02
97515,5.60E-03,3.18E-02
97516,5.60E-03,3.18E-02
97517,5.60E-03,3.18E-02
97518,5.60E-03,3.18E-02
97519,5.60E-03,3.18E-02
97520,5.60E-03,3.18E-02
97521,5.60E-03,3.18E-02
97522,5.60E-03,3.18E-02
97523,5.55E-03,3.18E-02
97524,5.51E-03,3.18E-02
97525,5.48E-03,3.18E-02
97526,5.50E-03,3.19E-02
97527,5.51E-03,3.19E-02
97528,5.50E-03,3.19E-02
97529,5.47E-03,3.19E-02
97530,5.42E-03,3.19E-02
97531,5.40E-03,3.19E-02
97532,5.42E-03,3.18E-02
97533,5.45E-03,3.18E-02
97534,5.51E-03,3.18E-02
97535,5.58E-03,3.17E-02
97536,5.60E-03,3.17E-02
97537,5.60E-03,3.16E-02
97538,5.60E-03,3.16E-02
97539,5.60E-03,3.15E-02
97540,5.60E-03,3.14E-02
97541,5.61E-03,3.14E-02
97542,5.61E-03,3.13E-02
97543,5.56E-03,3.12E-02
97544,5.54E-03,3.11E-02
97545,5.53E-03,3.10E-02
97546,5.54E-03,3.09E-02
97547,5.57E-03,3.08E-02
97548,5.62E-03,3.07E-02
97549,5.62E-03,3.06E-02
97550,5.62E-03,3.05E-02
97551,5.59E-03,3.04E-02
97552,5.56E-03,3.03E-02
97553,5.54E-03,3.01E-02
97554,5.55E-03,3.00E-02
97555,5.53E-03,2.99E-02
97556,5.51E-03,2.98E-02
97557,5.54E-03,2.97E-02
97558,5.61E-03,2.96E-02
97559,5.65E-03,2.95E-02
97560,5.61E-03,2.93E-02
97561,5.63E-03,2.92E-02
97562,5.65E-03,2.92E-02
97563,5.69E-03,2.91E-02
97564,5.73E-03,2.90E-02
97565,5.71E-03,2.89E-02
97566,5.72E-03,2.89E-02
97567,5.68E-03,2.88E-02
97568,5.64E-03,2.88E-02
97569,5.62E-03,2.88E-02
97570,5.62E-03,2.88E-02
97571,5.64E-03,2.88E-02
97572,5.69E-03,2.88E-02
97573,5.71E-03,2.88E-02
97574,5.74E-03,2.89E-02
97575,5.74E-03,2.89E-02
97576,5.72E-03,2.89E-02
97577,5.68E-03,2.90E-02
97578,5.62E-03,2.90E-02
97579,5.62E-03,2.91E-02
97580,5.57E-03,2.91E-02
97581,5.54E-03,2.92E-02
97582,5.51E-03,2.92E-02
97583,5.51E-03,2.92E-02
97584,5.52E-03,2.92E-02
97585,5.49E-03,2.93E-02
97586,5.50E-03,2.93E-02
97587,5.48E-03,2.93E-02
97588,5.43E-03,2.92E-02
97589,5.39E-03,2.92E-02
97590,5.32E-03,2.92E-02
97591,5.25E-03,2.91E-02
97592,5.21E-03,2.90E-02
97593,5.20E-03,2.90E-02
97594,5.23E-03,2.89E-02
97595,5.28E-03,2.88E-02
97596,5.30E-03,2.86E-02
97597,5.32E-03,2.85E-02
97598,5.34E-03,2.84E-02
97599,5.34E-03,2.83E-02
97600,5.34E-03,2.81E-02
97601,5.34E-03,2.80E-02
97602,5.33E-03,2.78E-02
97603,5.29E-03,2.77E-02
97604,5.23E-03,2.75E-02
97605,5.18E-03,2.73E-02
97606,5.16E-03,2.72E-02
97607,5.17E-03,2.70E-02
97608,5.13E-03,2.68E-02
97609,5.09E-03,2.66E-02
97610,5.04E-03,2.65E-02
97611,5.06E-03,2.63E-02
97612,5.17E-03,2.61E-02
97613,5.26E-03,2.59E-02
97614,5.31E-03,2.58E-02
97615,5.33E-03,2.56E-02
97616,5.30E-03,2.54E-02
97617,5.31E-03,2.52E-02
97618,5.32E-03,2.50E-02
97619,5.32E-03,2.49E-02
97620,5.33E-03,2.47E-02
97621,5.33E-03,2.45E-02
97622,5.34E-03,2.43E-02
97623,5.34E-03,2.41E-02
97624,5.37E-03,2.40E-02
97625,5.40E-03,2.38E-02
97626,5.44E-03,2.36E-02
97627,5.46E-03,2.34E-02
97628,5.45E-03,2.32E-02
97629,5.43E-03,2.31E-02
97630,5.44E-03,2.29E-02
97631,5.39E-03,2.27E-02
97632,5.41E-03,2.25E-02
97633,5.44E-03,2.24E-02
97634,5.47E-03,2.22E-02
97635,5.49E-03,2.20E-02
97636,5.50E-03,2.18E-02
97637,5.50E-03,2.16E-02
97638,5.47E-03,2.15E-02
97639,5.43E-03,2.13E-02
97640,5.40E-03,2.11E-02
97641,5.38E-03,2.09E-02
97642,5.40E-03,2.07E-02
97643,5.39E-03,2.05E-02
97644,5.46E-03,2.04E-02
97645,5.50E-03,2.02E-02
97646,5.54E-03,2.00E-02
97647,5.57E-03,1.98E-02
97648,5.60E-03,1.96E-02
97649,5.58E-03,1.94E-02
97650,5.58E-03,1.93E-02
97651,5.54E-03,1.91E-02
97652,5.57E-03,1.89E-02
97653,5.58E-03,1.87E-02
97654,5.57E-03,1.85E-02
97655,5.60E-03,1.83E-02
97656,5.53E-03,1.81E-02
97657,5.44E-03,1.79E-02
97658,5.40E-03,1.77E-02
97659,5.43E-03,1.75E-02
97660,5.47E-03,1.73E-02
97661,5.58E-03,1.71E-02
97662,5.59E-03,1.69E-02
97663,5.64E-03,1.67E-02
97664,5.65E-03,1.65E-02
97665,5.57E-03,1.63E-02
97666,5.55E-03,1.61E-02
97667,5.59E-03,1.59E-02
97668,5.60E-03,1.57E-02
97669,5.59E-03,1.54E-02
97670,5.49E-03,1.52E-02
97671,5.25E-03,1.50E-02
97672,4.67E-03,1.48E-02
97673,4.22E-03,1.47E-02
97674,3.63E-03,8.64E-03
97675,5.13E-03,8.77E-03
97676,5.39E-03,8.93E-03
97677,4.33E-03,9.04E-03
97678,4.77E-03,9.18E-03
97679,5.31E-03,9.31E-03
97680,6.04E-03,9.45E-03
97681,6.09E-03,9.58E-03
97682,5.89E-03,9.73E-03
97683,5.54E-03,9.88E-03
97684,5.47E-03,1.00E-02
97685,5.46E-03,1.02E-02
97686,5.48E-03,1.03E-02
97687,5.50E-03,1.05E-02
97688,5.53E-03,1.06E-02
97689,5.52E-03,1.08E-02
97690,5.52E-03,1.09E-02
97691,5.51E-03,1.10E-02
97692,5.51E-03,1.12E-02
97693,5.52E-03,1.13E-02
97694,5.53E-03,1.15E-02
97695,5.56E-03,1.16E-02
97696,5.60E-03,1.18E-02
97697,5.60E-03,1.19E-02
97698,5.60E-03,1.21E-02
97699,5.61E-03,1.23E-02
97700,5.61E-03,1.24E-02
97701,5.61E-03,1.26E-02
97702,5.61E-03,1.27E-02
97703,5.61E-03,1.29E-02
97704,5.62E-03,1.30E-02
97705,5.62E-03,1.32E-02
97706,5.63E-03,1.34E-02
97707,5.70E-03,1.35E-02
97708,5.73E-03,1.37E-02
97709,5.78E-03,1.39E-02
97710,5.74E-03,1.40E-02
97711,5.65E-03,1.42E-02
97712,5.62E-03,1.44E-02
97713,5.62E-03,1.45E-02
97714,5.61E-03,1.47E-02
97715,5.65E-03,1.49E-02
97716,5.62E-03,1.50E-02
97717,5.62E-03,1.52E-02
97718,5.53E-03,1.54E-02
97719,5.50E-03,1.55E-02
97720,5.52E-03,1.57E-02
97721,5.55E-03,1.59E-02
97722,5.59E-03,1.60E-02
97723,5.62E-03,1.62E-02
97724,5.62E-03,1.64E-02
97725,5.57E-03,1.65E-02
97726,5.53E-03,1.67E-02
97727,5.51E-03,1.68E-02
97728,5.52E-03,1.70E-02
97729,5.55E-03,1.71E-02
97730,5.60E-03,1.73E-02
97731,5.61E-03,1.74E-02
97732,5.61E-03,1.76E-02
97733,5.64E-03,1.77E-02
97734,5.67E-03,1.79E-02
97735,5.68E-03,1.80E-02
97736,5.68E-03,1.81E-02
97737,5.69E-03,1.82E-02
97738,5.69E-03,1.84E-02
97739,5.65E-03,1.85E-02
97740,5.64E-03,1.86E-02
97741,5.62E-03,1.87E-02
97742,5.61E-03,1.88E-02
97743,5.62E-03,1.89E-02
97744,5.62E-03,1.90E-02
97745,5.62E-03,1.91E-02
97746,5.62E-03,1.92E-02
97747,5.62E-03,1.93E-02
97748,5.62E-03,1.94E-02
97749,5.62E-03,1.94E-02
97750,5.58E-03,1.95E-02
97751,5.57E-03,1.96E-02
97752,5.59E-03,1.97E-02
97753,5.66E-03,1.97E-02
97754,5.71E-03,1.98E-02
97755,5.71E-03,1.99E-02
97756,5.74E-03,1.99E-02
97757,5.70E-03,2.00E-02
97758,5.65E-03,2.01E-02
97759,5.58E-03,2.01E-02
97760,5.58E-03,2.02E-02
97761,5.62E-03,2.02E-02
97762,5.62E-03,2.03E-02
97763,5.62E-03,2.03E-02
97764,5.62E-03,2.04E-02
97765,5.57E-03,2.04E-02
97766,5.54E-03,2.05E-02
97767,5.51E-03,2.05E-02
97768,5.53E-03,2.05E-02
97769,5.52E-03,2.06E-02
97770,5.59E-03,2.06E-02
97771,5.61E-03,2.06E-02
97772,5.66E-03,2.07E-02
97773,5.66E-03,2.07E-02
97774,5.66E-03,2.07E-02
97775,5.66E-03,2.07E-02
97776,5.61E-03,2.07E-02
97777,5.61E-03,2.07E-02
97778,5.61E-03,2.07E-02
97779,5.62E-03,2.07E-02
97780,5.62E-03,2.07E-02
97781,5.68E-03,2.07E-02
97782,5.71E-03,2.07E-02
97783,5.73E-03,2.07E-02
97784,5.75E-03,2.07E-02
97785,5.78E-03,2.07E-02
97786,5.75E-03,2.07E-02
97787,5.78E-03,2.07E-02
97788,5.71E-03,2.06E-02
97789,5.69E-03,2.06E-02
97790,5.63E-03,2.06E-02
97791,5.57E-03,2.06E-02
97792,5.55E-03,2.05E-02
97793,5.54E-03,2.05E-02
97794,5.55E-03,2.05E-02
97795,5.55E-03,2.04E-02
97796,5.54E-03,2.04E-02
97797,5.53E-03,2.03E-02
97798,5.54E-03,2.03E-02
97799,5.53E-03,2.02E-02
97800,5.53E-03,2.02E-02
97801,5.57E-03,2.01E-02
97802,5.61E-03,2.01E-02
97803,5.61E-03,2.00E-02
97804,5.61E-03,2.00E-02
97805,5.56E-03,1.99E-02
97806,5.55E-03,1.99E-02
97807,5.54E-03,1.98E-02
97808,5.54E-03,1.97E-02
97809,5.54E-03,1.97E-02
97810,5.55E-03,1.96E-02
97811,5.55E-03,1.95E-02
97812,5.59E-03,1.95E-02
97813,5.61E-03,1.94E-02
97814,5.61E-03,1.93E-02
97815,5.61E-03,1.93E-02
97816,5.61E-03,1.92E-02
97817,5.61E-03,1.91E-02
97818,5.61E-03,1.90E-02
97819,5.61E-03,1.90E-02
97820,5.61E-03,1.89E-02
97821,5.61E-03,1.88E-02
97822,5.61E-03,1.87E-02
97823,5.61E-03,1.86E-02
97824,5.61E-03,1.85E-02
97825,5.61E-03,1.85E-02
97826,5.61E-03,1.84E-02
97827,5.61E-03,1.83E-02
97828,5.61E-03,1.82E-02
97829,5.61E-03,1.81E-02
97830,5.61E-03,1.80E-02
97831,5.61E-03,1.79E-02
97832,5.61E-03,1.78E-02
97833,5.61E-03,1.77E-02
97834,5.61E-03,1.76E-02
97835,5.61E-03,1.76E-02
97836,5.58E-03,1.75E-02
97837,5.54E-03,1.74E-02
97838,5.51E-03,1.73E-02
97839,5.50E-03,1.72E-02
97840,5.51E-03,1.71E-02
97841,5.53E-03,1.70E-02
97842,5.55E-03,1.69E-02
97843,5.58E-03,1.68E-02
97844,5.61E-03,1.67E-02
97845,5.61E-03,1.67E-02
97846,5.61E-03,1.66E-02
97847,5.61E-03,1.65E-02
97848,5.61E-03,1.64E-02
97849,5.61E-03,1.63E-02
97850,5.61E-03,1.62E-02
97851,5.61E-03,1.61E-02
97852,5.61E-03,1.61E-02
97853,5.61E-03,1.60E-02
97854,5.61E-03,1.59E-02
97855,5.61E-03,1.58E-02
97856,5.61E-03,1.57E-02
97857,5.61E-03,1.57E-02
97858,5.61E-03,1.56E-02
97859,5.61E-03,1.55E-02
97860,5.61E-03,1.54E-02
97861,5.61E-03,1.54E-02
97862,5.61E-03,1.53E-02
97863,5.61E-03,1.52E-02
97864,5.61E-03,1.52E-02
97865,5.61E-03,1.51E-02
97866,5.61E-03,1.50E-02
97867,5.58E-03,1.50E-02
97868,5.59E-03,1.49E-02
97869,5.61E-03,1.49E-02
97870,5.61E-03,1.48E-02
97871,5.61E-03,1.48E-02
97872,5.61E-03,1.47E-02
97873,5.61E-03,1.47E-02
97874,5.61E-03,1.46E-02
97875,5.61E-03,1.46E-02
97876,5.61E-03,1.46E-02
97877,5.61E-03,1.45E-02
97878,5.61E-03,1.45E-02
97879,5.61E-03,1.45E-02
97880,5.61E-03,1.45E-02
97881,5.62E-03,1.44E-02
97882,5.62E-03,1.44E-02
97883,5.62E-03,1.44E-02
97884,5.62E-03,1.44E-02
97885,5.62E-03,1.44E-02
97886,5.62E-03,1.44E-02
97887,5.62E-03,1.44E-02
97888,5.63E-03,1.44E-02
97889,5.63E-03,1.44E-02
97890,5.64E-03,1.44E-02
97891,5.64E-03,1.44E-02
97892,5.63E-03,1.43E-02
97893,5.71E-03,1.44E-02
97894,5.57E-03,1.44E-02
97895,5.08E-03,1.45E-02
97896,3.78E-03,1.46E-02
97897,1.33E-03,1.45E-02
97898,1.71E-03,1.46E-02
97899,5.24E-03,2.65E-02
97900,5.26E-03,2.68E-02
97901,5.25E-03,2.49E-02
97902,5.66E-03,2.49E-02
97903,4.69E-03,2.47E-02
97948,5.63E-03,3.77E-02
97949,6.81E-03,1.72E-02
97950,6.09E-03,2.60E-02
97951,5.41E-03,2.94E-02
97952,5.68E-03,1.66E-02
97953,5.94E-03,3.83E-02
97954,5.76E-03,3.28E-02
97955,6.51E-03,3.46E-02
97956,7.70E-03,3.26E-02
97957,6.54E-03,2.28E-02
97958,4.17E-03,9.05E-03
97959,5.60E-03,2.96E-02
97960,7.01E-03,1.69E-02
97961,6.72E-03,2.46E-02
97962,4.56E-03,1.69E-02
97963,6.07E-03,3.77E-02
97964,6.55E-03,2.12E-02
97965,7.23E-03,2.10E-02
97966,6.98E-03,2.13E-02
97967,6.24E-03,2.08E-02
97968,7.87E-03,2.49E-02
97969,7.08E-03,2.49E-02
97970,7.79E-03,2.48E-02
97971,8.02E-03,2.20E-02
97972,7.37E-03,2.18E-02
97973,7.51E-03,2.19E-02
97974,8.48E-03,2.21E-02
97975,5.86E-03,2.62E-02
97976,6.68E-03,2.63E-02
97977,7.61E-03,2.63E-02
97978,5.56E-03,1.63E-02
97979,6.66E-03,3.35E-02
97980,6.38E-03,3.35E-02
97981,3.93E-03,8.39E-03
97982,5.45E-03,8.51E-03
97983,3.18E-03,1.68E-02
97984,4.47E-03,1.66E-02
97985,3.40E-03,2.54E-02
97986,5.72E-03,2.53E-02
97987,3.85E-03,5.05E-03
97988,4.31E-03,5.27E-03
97989,5.25E-03,7.17E-03
97990,5.62E-03,7.28E-03
97991,6.99E-03,1.62E-02
97992,6.83E-03,1.60E-02
97993,5.28E-03,3.66E-02
97994,5.22E-03,3.64E-02
97995,5.92E-03,3.74E-02
97996,6.33E-03,3.76E-02
97997,6.28E-03,3.24E-02
97998,5.03E-03,3.27E-02
97999,4.91E-03,3.30E-02
98000,6.83E-03,3.23E-02
98001,5.30E-03,3.52E-02
98002,6.23E-03,3.50E-02
98003,7.77E-03,2.99E-02
98004,7.93E-03,2.98E-02
98005,6.53E-03,3.00E-02
98006,5.87E-03,8.33E-03
98007,4.78E-03,8.27E-03
98008,5.08E-03,8.34E-03
98009,5.81E-03,1.02E-02
98010,6.42E-03,9.99E-03
98011,5.74E-03,9.10E-03
98012,5.54E-03,8.85E-03
98013,6.05E-03,8.65E-03
98014,4.89E-03,1.73E-02
98015,5.86E-03,1.70E-02
98016,5.39E-03,1.71E-02
98017,4.14E-03,1.73E-02
98018,7.31E-03,2.74E-02
98019,7.32E-03,2.76E-02
98020,6.36E-03,2.78E-02
98021,6.64E-03,7.49E-03
98022,5.44E-03,7.38E-03
98023,6.06E-03,7.59E-03
98024,3.81E-03,7.03E-03
98025,5.58E-03,7.07E-03
98026,3.77E-03,7.03E-03
98027,3.37E-03,3.56E-02
98028,3.17E-03,3.54E-02
98029,3.24E-03,3.58E-02
98030,4.54E-03,2.85E-02
98031,5.43E-03,2.87E-02
98032,4.34E-03,2.84E-02
98033,3.79E-03,3.59E-02
98034,3.60E-03,3.55E-02
98035,3.54E-03,3.56E-02
98036,5.34E-03,3.37E-02
98037,5.95E-03,3.32E-02
98038,5.78E-03,3.34E-02
98039,4.28E-03,3.04E-02
98040,4.99E-03,3.01E-02
98041,4.62E-03,3.01E-02
98042,2.90E-03,3.47E-02
98043,3.05E-03,3.52E-02
98044,3.87E-03,3.48E-02
98045,2.95E-03,3.76E-02
98046,2.86E-03,3.81E-02
98047,3.61E-03,3.78E-02
98048,4.76E-03,2.51E-02
98049,6.11E-03,2.51E-02
98050,4.01E-03,2.65E-02
98051,3.84E-03,2.65E-02
98052,4.42E-03,2.64E-02
98053,5.38E-03,6.42E-03
98054,4.80E-03,6.43E-03
98055,4.68E-03,6.50E-03
98056,5.47E-03,6.49E-03
98057,3.41E-03,5.79E-03
98058,3.84E-03,5.55E-03
98059,3.54E-03,5.51E-03
98060,4.42E-03,1.57E-02
98061,4.93E-03,1.56E-02
98062,4.50E-03,1.56E-02
98063,5.55E-03,3.26E-02
98064,5.40E-03,3.30E-02
98065,5.72E-03,3.35E-02
98066,6.14E-03,3.31E-02
98067,3.71E-03,6.58E-03
98068,3.73E-03,6.58E-03
98069,4.15E-03,6.64E-03
98070,2.78E-03,1.64E-02
98071,3.51E-03,1.65E-02
98072,3.50E-03,1.64E-02
98073,6.85E-03,3.25E-02
98074,6.35E-03,3.26E-02
98075,5.73E-03,3.27E-02
98076,5.52E-03,2.14E-02
98077,5.43E-03,2.12E-02
98078,4.40E-03,2.16E-02
98079,7.51E-03,6.88E-03
98080,6.21E-03,6.94E-03
98081,7.36E-03,6.83E-03
98082,4.59E-03,2.89E-02
98083,5.69E-03,2.88E-02
98084,6.56E-03,2.90E-02
98085,6.36E-03,2.90E-02
98086,5.38E-03,1.55E-02
98087,5.31E-03,1.54E-02
98088,5.04E-03,1.56E-02
98089,5.14E-03,1.57E-02
98090,5.66E-03,3.41E-02
98091,5.63E-03,3.38E-02
98092,7.46E-03,6.78E-03
98093,4.93E-03,7.53E-03
98094,4.87E-03,7.48E-03
98095,5.71E-03,8.09E-03
98096,5.48E-03,8.12E-03
98097,7.09E-03,3.28E-02
98098,7.51E-03,3.28E-02
98099,4.77E-03,3.32E-02
98100,4.49E-03,3.32E-02
98101,5.63E-03,3.80E-02
98102,4.19E-03,3.84E-02
98103,5.41E-03,3.37E-02
98104,7.44E-03,3.22E-02
98105,5.55E-03,3.22E-02
98106,3.83E-03,3.51E-02
98107,4.15E-03,3.51E-02
98108,6.83E-03,2.87E-02
98109,7.44E-03,2.89E-02
98110,5.74E-03,3.66E-02
98111,5.65E-03,3.65E-02
98112,5.04E-03,2.99E-02
98113,5.61E-03,2.97E-02
98114,6.11E-03,3.79E-02
98115,5.09E-03,3.79E-02
98116,5.06E-03,3.10E-02
98117,5.07E-03,3.13E-02
98118,5.55E-03,3.77E-02
98119,5.44E-03,3.75E-02
98120,5.22E-03,3.83E-02
98121,6.05E-03,2.78E-02
98122,5.67E-03,2.75E-02
98123,4.58E-03,2.84E-02
98124,5.41E-03,2.75E-02
98125,5.27E-03,2.72E-02
98126,5.70E-03,2.17E-02
98127,3.68E-03,2.73E-02
98128,5.12E-03,2.74E-02
98129,5.61E-03,3.90E-02
98130,5.55E-03,3.91E-02
98131,4.94E-03,3.12E-02
98132,5.07E-03,3.15E-02
98133,5.84E-03,3.59E-02
98134,5.94E-03,3.64E-02
98135,5.73E-03,2.66E-02
98136,5.46E-03,2.66E-02
98137,6.33E-03,1.78E-02
98138,5.73E-03,1.82E-02
98139,4.56E-03,3.65E-02
98140,5.27E-03,3.68E-02
98141,5.90E-03,6.86E-03
98142,6.03E-03,6.85E-03
98143,4.37E-03,3.22E-02
98144,4.81E-03,3.21E-02
98145,4.88E-03,3.25E-02
98146,4.60E-03,3.26E-02
98147,3.33E-03,3.27E-02
98148,4.10E-03,3.24E-02
98149,2.80E-03,3.80E-02
98150,3.48E-03,3.76E-02
98151,2.88E-03,3.54E-02
98152,3.67E-03,3.57E-02
98153,3.20E-03,3.58E-02
98154,3.25E-03,2.53E-02
98155,3.00E-03,2.54E-02
98156,4.63E-03,2.54E-02
98157,5.93E-03,2.57E-02
98158,5.06E-03,1.73E-02
98159,3.86E-03,3.55E-02
98160,4.59E-03,3.59E-02
98161,4.24E-03,3.62E-02
98162,3.49E-03,2.80E-02
98163,3.81E-03,2.82E-02
98164,3.28E-03,2.80E-02
98165,4.79E-03,3.51E-02
98166,4.98E-03,3.51E-02
98167,4.94E-03,3.56E-02
98168,3.65E-03,3.58E-02
98169,4.48E-03,3.55E-02
98170,4.70E-03,3.67E-02
98171,5.29E-03,3.67E-02
98172,4.56E-03,3.53E-02
98173,4.83E-03,3.56E-02
98174,5.54E-03,3.64E-02
98175,5.78E-03,3.59E-02
98176,5.89E-03,3.64E-02
98177,2.48E-03,3.58E-02
98178,3.27E-03,3.53E-02
98179,4.06E-03,3.55E-02
98180,4.26E-03,3.61E-02
98181,3.91E-03,3.62E-02
98182,5.42E-03,3.58E-02
98183,6.27E-03,3.57E-02
98184,5.56E-03,3.52E-02
98185,5.51E-03,3.57E-02
98186,5.66E-03,3.51E-02
98187,5.76E-03,3.57E-02
98188,4.92E-03,3.56E-02
98189,5.11E-03,2.82E-02
98190,4.90E-03,2.83E-02
98191,6.02E-03,2.86E-02
98192,5.85E-03,2.84E-02
98193,4.95E-03,3.67E-02
98194,4.28E-03,3.67E-02
98195,4.32E-03,3.65E-02
98196,5.64E-03,3.66E-02
98197,5.14E-03,3.62E-02
98198,4.03E-03,3.63E-02
98199,5.63E-03,3.61E-02
98200,5.60E-03,3.62E-02
98201,5.40E-03,3.60E-02
98202,4.28E-03,3.53E-02
98203,5.63E-03,3.51E-02
98204,6.15E-03,3.51E-02
98205,5.28E-03,3.51E-02
98206,5.38E-03,3.64E-02
98207,4.94E-03,3.65E-02
98208,4.49E-03,3.66E-02
98209,5.60E-03,3.63E-02
98210,5.40E-03,3.52E-02
98211,6.64E-03,2.88E-02
98212,5.11E-03,2.81E-02
98213,5.95E-03,2.83E-02
98214,4.89E-03,3.63E-02
98215,3.90E-03,3.53E-02
98216,5.09E-03,3.53E-02
98217,4.67E-03,3.49E-02
98218,5.43E-03,3.46E-02
98219,5.33E-03,3.46E-02
98220,5.24E-03,3.71E-02
98221,5.22E-03,3.67E-02
98222,4.91E-03,3.50E-02
98223,4.33E-03,3.50E-02
98224,4.41E-03,2.79E-02
98225,4.77E-03,2.79E-02
98226,5.38E-03,3.34E-02
98227,5.37E-03,2.84E-02
98228,4.98E-03,2.83E-02
98229,4.74E-03,2.81E-02
98230,4.31E-03,2.79E-02
98231,4.23E-03,2.78E-02
98232,5.13E-03,3.09E-02
98233,5.70E-03,3.05E-02
98234,6.08E-03,3.04E-02
98235,5.41E-03,3.06E-02
98236,4.82E-03,3.20E-02
98237,4.77E-03,3.47E-02
98238,6.27E-03,2.94E-02
98239,6.06E-03,2.95E-02
98240,5.32E-03,2.97E-02
98241,4.70E-03,3.47E-02
98242,4.84E-03,3.46E-02
98243,5.80E-03,3.70E-02
98244,5.70E-03,3.71E-02
98245,5.83E-03,3.70E-02
98246,5.15E-03,3.71E-02
98247,5.11E-03,3.71E-02
98248,5.74E-03,3.71E-02
98249,4.56E-03,3.71E-02
98250,4.65E-03,3.70E-02
98251,4.61E-03,3.72E-02
98252,4.34E-03,3.69E-02
98253,5.08E-03,3.70E-02
98254,5.24E-03,3.69E-02
98255,4.66E-03,3.66E-02
98256,5.57E-03,3.62E-02
98257,5.69E-03,3.62E-02
98258,5.56E-03,3.60E-02
98259,5.86E-03,3.61E-02
98260,4.70E-03,3.60E-02
98261,6.40E-03,3.53E-02
98262,6.57E-03,3.53E-02
98263,5.40E-03,3.47E-02
98264,5.89E-03,3.47E-02
98265,5.59E-03,3.52E-02
98266,6.01E-03,3.52E-02
98267,5.11E-03,3.49E-02
98268,4.76E-03,3.52E-02
98269,4.76E-03,3.00E-02
98270,6.06E-03,3.03E-02
98271,4.19E-03,2.98E-02
98272,6.60E-03,2.93E-02
98273,7.37E-03,2.90E-02
98274,6.12E-03,2.87E-02
98275,6.21E-03,2.85E-02
98276,4.85E-03,3.61E-02
98277,5.04E-03,3.61E-02
98278,5.04E-03,3.58E-02
98279,5.01E-03,3.59E-02
98280,5.42E-03,3.56E-02
98281,5.36E-03,3.57E-02
98282,5.40E-03,3.55E-02
98283,4.31E-03,3.49E-02
98284,5.07E-03,3.45E-02
98285,5.42E-03,3.46E-02
98286,5.08E-03,3.46E-02
98287,5.54E-03,3.47E-02
98288,5.22E-03,3.46E-02
98289,6.09E-03,3.47E-02
98290,5.93E-03,3.47E-02
98291,6.01E-03,3.47E-02
98292,6.64E-03,3.48E-02
98293,6.59E-03,3.43E-02
98294,6.23E-03,3.45E-02
98295,6.19E-03,3.46E-02
98296,6.63E-03,3.40E-02
98297,6.66E-03,3.43E-02
98298,5.95E-03,3.70E-02
98299,5.53E-03,3.70E-02
98300,5.51E-03,3.70E-02
98301,4.47E-03,3.70E-02
98302,5.60E-03,3.69E-02
98303,5.86E-03,3.30E-02
98304,4.88E-03,3.08E-02
98305,4.97E-03,3.11E-02
98306,4.82E-03,3.06E-02
98307,6.02E-03,2.89E-02
98308,5.27E-03,2.81E-02
98309,5.79E-03,2.83E-02
98310,3.86E-03,3.48E-02
98311,4.82E-03,3.49E-02
98312,5.06E-03,3.45E-02
98313,5.57E-03,3.45E-02
98314,4.82E-03,3.45E-02
98315,5.26E-03,3.41E-02
98316,5.24E-03,3.41E-02
98317,4.99E-03,3.42E-02
98318,5.00E-03,3.42E-02
98319,5.04E-03,3.42E-02
98320,6.62E-03,3.22E-02
98321,4.88E-03,3.18E-02
98322,4.90E-03,3.20E-02
98323,5.00E-03,3.18E-02
98324,5.03E-03,3.16E-02
98325,6.65E-03,2.92E-02
98326,4.69E-03,3.39E-02
98327,5.04E-03,3.36E-02
98328,5.06E-03,3.40E-02
98329,4.72E-03,3.34E-02
98330,5.01E-03,2.77E-02
98331,5.07E-03,2.77E-02
98332,4.94E-03,2.80E-02
98333,5.08E-03,3.44E-02
98334,6.60E-03,3.01E-02
98335,6.38E-03,3.40E-02
98336,6.30E-03,3.39E-02
98337,5.07E-03,3.32E-02
98338,5.07E-03,2.82E-02
98339,4.82E-03,2.81E-02
98340,4.69E-03,2.79E-02
98341,4.38E-03,2.78E-02
98342,4.77E-03,2.77E-02
98343,4.56E-03,3.05E-02
98344,5.70E-03,3.03E-02
98345,5.27E-03,3.35E-02
98346,4.45E-03,3.31E-02
98347,4.86E-03,3.31E-02
98348,4.99E-03,3.79E-02
98349,4.93E-03,3.84E-02
98350,5.58E-03,3.83E-02
98351,6.33E-03,3.71E-02
98352,5.91E-03,3.72E-02
98353,5.63E-03,3.73E-02
98354,5.62E-03,3.75E-02
98355,5.14E-03,3.76E-02
98356,5.32E-03,3.83E-02
98357,5.57E-03,3.81E-02
98358,5.64E-03,3.80E-02
98359,5.67E-03,3.78E-02
98360,5.14E-03,3.80E-02
98361,5.66E-03,3.79E-02
98362,5.92E-03,3.77E-02
98363,5.24E-03,3.76E-02
98364,5.58E-03,3.75E-02
98365,5.62E-03,3.75E-02
98366,5.56E-03,3.75E-02
98367,5.59E-03,3.75E-02
98368,5.18E-03,3.76E-02
98369,5.41E-03,3.75E-02
98370,4.88E-03,3.75E-02
98371,4.95E-03,3.76E-02
98372,4.92E-03,3.75E-02
98373,4.85E-03,3.75E-02
98374,4.74E-03,3.73E-02
98375,5.01E-03,3.75E-02
98376,5.92E-03,3.71E-02
98377,5.52E-03,3.67E-02
98378,5.60E-03,3.68E-02
98379,5.41E-03,3.65E-02
98380,5.56E-03,3.66E-02
98381,5.05E-03,3.62E-02
98382,5.13E-03,3.64E-02
98383,6.47E-03,3.59E-02
98384,5.80E-03,3.60E-02
98385,5.47E-03,3.57E-02
98386,5.86E-03,3.58E-02
98387,4.81E-03,3.54E-02
98388,5.30E-03,3.56E-02
98389,5.89E-03,3.51E-02
98390,5.57E-03,3.53E-02
98391,6.12E-03,3.49E-02
98392,5.89E-03,3.50E-02
98393,5.27E-03,3.42E-02
98394,6.43E-03,3.44E-02
98395,5.73E-03,3.40E-02
98396,5.72E-03,3.41E-02
98397,5.25E-03,3.37E-02
98398,5.42E-03,3.38E-02
98399,6.34E-03,3.25E-02
98400,6.24E-03,3.28E-02
98401,4.10E-03,3.23E-02
98402,5.12E-03,3.16E-02
98403,4.81E-03,3.11E-02
98404,5.33E-03,3.13E-02
98405,5.04E-03,3.02E-02
98406,5.17E-03,3.04E-02
98407,5.36E-03,2.97E-02
98408,5.07E-03,2.99E-02
98409,6.21E-03,2.93E-02
98410,5.80E-03,2.95E-02
98411,6.39E-03,2.91E-02
98412,6.46E-03,2.88E-02
98413,6.12E-03,2.85E-02
98414,5.64E-03,3.77E-02
98415,5.45E-03,3.78E-02
98416,6.38E-03,3.74E-02
98417,5.91E-03,3.75E-02
98418,5.74E-03,3.71E-02
98419,6.41E-03,3.73E-02
98420,5.87E-03,3.68E-02
98421,5.76E-03,3.69E-02
98422,5.66E-03,3.65E-02
98423,5.81E-03,3.66E-02
98424,5.56E-03,3.62E-02
98425,5.71E-03,3.63E-02
98426,5.29E-03,3.59E-02
98427,5.40E-03,3.61E-02
98428,5.07E-03,3.56E-02
98429,5.10E-03,3.58E-02
98430,5.13E-03,3.54E-02
98431,5.11E-03,3.55E-02
98432,5.27E-03,3.51E-02
98433,5.23E-03,3.52E-02
98434,5.14E-03,3.50E-02
98435,4.94E-03,3.45E-02
98436,5.13E-03,3.40E-02
98437,5.25E-03,3.41E-02
98438,5.11E-03,3.42E-02
98439,5.52E-03,3.42E-02
98440,5.35E-03,3.42E-02
98441,5.90E-03,3.42E-02
98442,5.79E-03,3.42E-02
98443,6.04E-03,3.42E-02
98444,6.03E-03,3.42E-02
98445,6.99E-03,3.43E-02
98446,6.89E-03,3.43E-02
98447,6.40E-03,3.41E-02
98448,5.14E-03,3.33E-02
98449,5.23E-03,3.16E-02
98450,5.26E-03,3.19E-02
98451,4.97E-03,3.14E-02
98452,7.74E-03,3.31E-02
98453,5.59E-03,3.75E-02
98454,5.75E-03,3.76E-02
98455,5.56E-03,3.74E-02
98456,5.26E-03,3.41E-02
98457,4.93E-03,3.33E-02
98458,6.26E-03,2.90E-02
98459,6.12E-03,2.82E-02
98460,5.79E-03,2.84E-02
98461,4.85E-03,2.78E-02
98462,5.45E-03,3.83E-02
98463,5.41E-03,3.83E-02
98464,4.29E-03,3.84E-02
98465,4.63E-03,3.79E-02
98466,5.22E-03,3.78E-02
98467,5.05E-03,3.45E-02
98468,4.95E-03,3.40E-02
98469,5.00E-03,3.40E-02
98470,5.07E-03,3.41E-02
98471,5.13E-03,3.37E-02
98472,5.13E-03,3.37E-02
98473,6.16E-03,3.20E-02
98474,5.17E-03,3.14E-02
98475,5.03E-03,3.09E-02
98476,6.77E-03,2.98E-02
98477,6.42E-03,2.94E-02
98478,6.62E-03,2.91E-02
98479,6.05E-03,3.38E-02
98480,5.02E-03,3.28E-02
98481,6.25E-03,2.86E-02
98482,5.64E-03,2.84E-02
98483,6.23E-03,2.88E-02
98484,4.97E-03,3.29E-02
98485,4.93E-03,2.80E-02
98486,4.77E-03,2.79E-02
98487,5.29E-03,2.76E-02
98488,4.25E-03,2.76E-02
98489,4.63E-03,2.76E-02
98490,6.28E-03,3.35E-02
98491,6.33E-03,3.34E-02
98492,6.11E-03,3.00E-02
98493,4.69E-03,2.77E-02
98494,4.80E-03,3.38E-02
98495,5.70E-03,3.40E-02
98496,3.71E-03,2.75E-02
98497,3.87E-03,2.74E-02
98498,4.56E-03,2.80E-02
98499,4.90E-03,3.41E-02
98500,5.04E-03,3.44E-02
98501,4.83E-03,3.88E-02
98502,5.49E-03,3.87E-02
98503,5.45E-03,3.88E-02
98504,5.66E-03,3.88E-02
98505,4.75E-03,3.83E-02
98506,5.16E-03,3.88E-02
98507,6.35E-03,3.82E-02
98508,5.48E-03,3.88E-02
98509,5.11E-03,3.89E-02
98510,5.11E-03,3.88E-02
98511,5.35E-03,3.88E-02
98512,5.36E-03,3.88E-02
98513,5.55E-03,3.88E-02
98514,5.19E-03,3.88E-02
98515,5.49E-03,3.86E-02
98516,5.38E-03,3.87E-02
98517,5.30E-03,3.85E-02
98518,5.56E-03,3.85E-02
98519,5.76E-03,3.84E-02
98520,4.18E-03,3.84E-02
98521,5.75E-03,3.82E-02
98522,5.62E-03,3.83E-02
98523,5.81E-03,3.81E-02
98524,5.79E-03,3.81E-02
98525,5.76E-03,3.80E-02
98526,5.69E-03,3.80E-02
98527,5.63E-03,3.79E-02
98528,5.56E-03,3.80E-02
98529,5.55E-03,3.80E-02
98530,5.55E-03,3.79E-02
98531,5.27E-03,3.80E-02
98532,5.38E-03,3.80E-02
98533,5.08E-03,3.80E-02
98534,5.15E-03,3.80E-02
98535,5.15E-03,3.80E-02
98536,5.07E-03,3.80E-02
98537,6.07E-03,3.78E-02
98538,5.25E-03,3.79E-02
98539,6.23E-03,3.76E-02
98540,5.56E-03,3.72E-02
98541,5.55E-03,3.73E-02
98542,5.49E-03,3.70E-02
98543,5.53E-03,3.71E-02
98544,5.58E-03,3.67E-02
98545,5.46E-03,3.69E-02
98546,5.87E-03,3.64E-02
98547,5.76E-03,3.65E-02
98548,5.52E-03,3.62E-02
98549,5.76E-03,3.63E-02
98550,5.19E-03,3.60E-02
98551,5.23E-03,3.61E-02
98552,5.58E-03,3.57E-02
98553,5.39E-03,3.58E-02
98554,5.07E-03,3.55E-02
98555,5.59E-03,3.56E-02
98556,5.16E-03,3.51E-02
98557,5.20E-03,3.52E-02
98558,5.48E-03,3.47E-02
98559,5.86E-03,3.49E-02
98560,5.53E-03,3.44E-02
98561,5.55E-03,3.46E-02
98562,5.41E-03,3.43E-02
98563,6.15E-03,3.28E-02
98564,5.95E-03,3.30E-02
98565,4.92E-03,3.23E-02
98566,5.05E-03,3.25E-02
98567,5.09E-03,3.17E-02
98568,5.03E-03,3.20E-02
98569,5.12E-03,3.15E-02
98570,5.13E-03,3.03E-02
98571,5.08E-03,3.07E-02
98572,5.07E-03,3.05E-02
98573,5.49E-03,2.98E-02
98574,5.31E-03,3.01E-02
98575,6.06E-03,2.94E-02
98576,5.84E-03,2.96E-02
98577,6.23E-03,2.92E-02
98578,5.89E-03,2.86E-02
98579,4.87E-03,2.76E-02
98580,5.54E-03,2.76E-02
98581,6.06E-03,3.84E-02
98582,4.92E-03,3.82E-02
98583,5.51E-03,3.84E-02
98584,5.71E-03,3.82E-02
98585,5.57E-03,3.82E-02
98586,5.87E-03,3.82E-02
98587,5.57E-03,3.78E-02
98588,5.03E-03,3.74E-02
98589,5.65E-03,3.72E-02
98590,5.50E-03,3.73E-02
98591,5.99E-03,3.69E-02
98592,5.85E-03,3.71E-02
98593,5.91E-03,3.67E-02
98594,6.01E-03,3.68E-02
98595,5.75E-03,3.63E-02
98596,5.76E-03,3.65E-02
98597,5.62E-03,3.60E-02
98598,5.73E-03,3.62E-02
98599,5.53E-03,3.58E-02
98600,5.61E-03,3.59E-02
98601,5.31E-03,3.55E-02
98602,5.38E-03,3.56E-02
98603,5.24E-03,3.52E-02
98604,5.26E-03,3.53E-02
98605,5.16E-03,3.49E-02
98606,5.18E-03,3.51E-02
98607,5.18E-03,3.46E-02
98608,5.17E-03,3.48E-02
98609,5.23E-03,3.45E-02
98610,5.06E-03,3.41E-02
98611,5.29E-03,3.36E-02
98612,5.15E-03,3.36E-02
98613,5.14E-03,3.36E-02
98614,5.22E-03,3.37E-02
98615,5.16E-03,3.37E-02
98616,5.53E-03,3.37E-02
98617,5.19E-03,3.37E-02
98618,5.47E-03,3.37E-02
98619,5.82E-03,3.37E-02
98620,5.76E-03,3.37E-02
98621,6.15E-03,3.38E-02
98622,5.98E-03,3.38E-02
98623,6.38E-03,3.37E-02
98624,6.32E-03,3.38E-02
98625,6.32E-03,3.36E-02
98626,4.98E-03,3.30E-02
98627,5.52E-03,3.15E-02
98628,5.82E-03,3.17E-02
98629,5.10E-03,3.12E-02
98630,6.16E-03,2.96E-02
98631,6.64E-03,2.89E-02
98632,5.60E-03,3.80E-02
98633,5.77E-03,3.81E-02
98634,5.59E-03,3.79E-02
98635,5.17E-03,3.46E-02
98636,4.93E-03,3.45E-02
98637,4.66E-03,3.43E-02
98638,5.21E-03,3.36E-02
98639,6.42E-03,3.75E-02
98640,6.65E-03,3.76E-02
98641,5.55E-03,3.74E-02
98642,4.71E-03,3.36E-02
98643,4.17E-03,3.36E-02
98644,5.74E-03,3.40E-02
98645,4.94E-03,3.36E-02
98646,5.25E-03,3.36E-02
98647,5.55E-03,3.25E-02
98648,5.46E-03,3.12E-02
98649,5.03E-03,3.08E-02
98650,6.47E-03,2.98E-02
98651,6.51E-03,2.93E-02
98652,6.53E-03,2.90E-02
98653,5.32E-03,2.82E-02
98654,5.12E-03,3.48E-02
98655,5.74E-03,2.84E-02
98656,6.02E-03,2.82E-02
98657,5.17E-03,2.74E-02
98658,5.23E-03,3.32E-02
98659,5.16E-03,3.32E-02
98660,4.04E-03,2.78E-02
98661,4.80E-03,2.77E-02
98662,4.99E-03,2.75E-02
98663,3.44E-03,3.32E-02
98664,4.00E-03,3.34E-02
98665,6.10E-03,3.18E-02
98666,5.40E-03,3.20E-02
98667,4.82E-03,2.79E-02
98668,5.07E-03,2.74E-02
98669,4.61E-03,2.73E-02
98670,4.51E-03,2.73E-02
98671,5.26E-03,2.72E-02
98672,6.24E-03,3.31E-02
98673,6.52E-03,3.30E-02
98674,4.73E-03,2.77E-02
98675,4.99E-03,2.76E-02
98676,5.26E-03,3.83E-02
98677,3.99E-03,3.86E-02
98678,4.48E-03,3.83E-02
98679,3.33E-03,3.86E-02
98680,5.26E-03,3.84E-02
98681,5.66E-03,3.84E-02
98682,6.42E-03,3.86E-02
98683,5.91E-03,3.85E-02
98684,5.14E-03,3.90E-02
98685,6.15E-03,3.87E-02
98686,5.64E-03,3.91E-02
98687,5.76E-03,3.91E-02
98688,5.30E-03,3.93E-02
98689,4.84E-03,3.94E-02
98690,5.47E-03,3.93E-02
98691,5.38E-03,3.93E-02
98692,5.28E-03,3.93E-02
98693,5.40E-03,3.93E-02
98694,5.22E-03,3.93E-02
98695,5.24E-03,3.93E-02
98696,5.29E-03,3.93E-02
98697,5.24E-03,3.93E-02
98698,5.34E-03,3.92E-02
98699,5.27E-03,3.93E-02
98700,5.39E-03,3.91E-02
98701,5.43E-03,3.91E-02
98702,5.12E-03,3.89E-02
98703,5.36E-03,3.90E-02
98704,5.60E-03,3.88E-02
98705,4.79E-03,3.88E-02
98706,5.68E-03,3.86E-02
98707,5.61E-03,3.87E-02
98708,5.74E-03,3.85E-02
98709,5.72E-03,3.86E-02
98710,5.67E-03,3.84E-02
98711,5.71E-03,3.84E-02
98712,5.59E-03,3.84E-02
98713,5.62E-03,3.84E-02
98714,5.54E-03,3.84E-02
98715,5.55E-03,3.84E-02
98716,5.35E-03,3.84E-02
98717,5.39E-03,3.84E-02
98718,5.24E-03,3.85E-02
98719,5.27E-03,3.85E-02
98720,5.28E-03,3.85E-02
98721,5.19E-03,3.85E-02
98722,5.68E-03,3.83E-02
98723,5.49E-03,3.84E-02
98724,5.78E-03,3.82E-02
98725,5.60E-03,3.77E-02
98726,5.60E-03,3.78E-02
98727,5.57E-03,3.75E-02
98728,5.64E-03,3.76E-02
98729,5.58E-03,3.72E-02
98730,5.55E-03,3.73E-02
98731,5.71E-03,3.70E-02
98732,5.65E-03,3.71E-02
98733,5.59E-03,3.67E-02
98734,5.70E-03,3.69E-02
98735,5.35E-03,3.65E-02
98736,5.41E-03,3.66E-02
98737,5.35E-03,3.63E-02
98738,5.36E-03,3.64E-02
98739,5.26E-03,3.60E-02
98740,5.34E-03,3.61E-02
98741,5.47E-03,3.56E-02
98742,5.39E-03,3.57E-02
98743,5.62E-03,3.52E-02
98744,5.48E-03,3.54E-02
98745,5.54E-03,3.49E-02
98746,5.51E-03,3.51E-02
98747,5.39E-03,3.47E-02
98748,4.57E-03,1.94E-02
98749,5.74E-03,1.96E-02
98750,4.79E-03,2.01E-02
98751,4.19E-03,1.99E-02
98752,5.83E-03,2.00E-02
98753,5.15E-03,1.97E-02
98754,4.39E-03,1.97E-02
98755,4.30E-03,3.40E-02
98756,5.72E-03,3.31E-02
98757,5.94E-03,3.34E-02
98758,5.12E-03,3.25E-02
98759,5.19E-03,3.28E-02
98760,5.09E-03,3.19E-02
98761,5.07E-03,3.22E-02
98762,5.16E-03,3.14E-02
98763,5.08E-03,3.17E-02
98764,5.16E-03,3.09E-02
98765,5.20E-03,3.12E-02
98766,5.20E-03,3.04E-02
98767,5.18E-03,3.06E-02
98768,5.51E-03,2.99E-02
98769,5.37E-03,3.02E-02
98770,5.99E-03,2.94E-02
98771,5.82E-03,2.97E-02
98772,6.44E-03,2.92E-02
98773,5.55E-03,2.86E-02
98774,4.98E-03,2.74E-02
98775,4.31E-03,1.92E-02
98776,5.52E-03,1.91E-02
98777,6.14E-03,1.94E-02
98778,4.78E-03,3.66E-02
98779,5.21E-03,3.70E-02
98780,5.26E-03,3.72E-02
98781,5.43E-03,3.82E-02
98782,5.40E-03,3.82E-02
98783,5.93E-03,3.82E-02
98784,5.25E-03,3.83E-02
98785,6.11E-03,3.82E-02
98786,5.66E-03,3.83E-02
98787,5.76E-03,3.83E-02
98788,5.86E-03,3.82E-02
98789,5.89E-03,3.82E-02
98790,6.20E-03,3.82E-02
98791,5.09E-03,3.79E-02
98792,6.46E-03,3.80E-02
98793,6.40E-03,3.80E-02
98794,6.73E-03,3.80E-02
98795,5.79E-03,3.78E-02
98796,6.29E-03,3.80E-02
98797,6.02E-03,3.78E-02
98798,5.80E-03,3.78E-02
98799,5.94E-03,3.79E-02
98800,6.40E-03,3.79E-02
98801,5.57E-03,3.77E-02
98802,5.15E-03,3.77E-02
98803,5.82E-03,3.77E-02
98804,5.58E-03,3.78E-02
98805,5.78E-03,3.77E-02
98806,5.64E-03,3.77E-02
98807,6.02E-03,3.76E-02
98808,5.68E-03,3.72E-02
98809,5.66E-03,3.73E-02
98810,5.79E-03,3.70E-02
98811,5.68E-03,3.72E-02
98812,5.66E-03,3.67E-02
98813,5.57E-03,3.69E-02
98814,5.85E-03,3.65E-02
98815,5.82E-03,3.66E-02
98816,5.85E-03,3.62E-02
98817,5.87E-03,3.63E-02
98818,5.72E-03,3.59E-02
98819,5.78E-03,3.60E-02
98820,5.65E-03,3.56E-02
98821,5.70E-03,3.57E-02
98822,5.51E-03,3.53E-02
98823,5.59E-03,3.55E-02
98824,5.40E-03,3.51E-02
98825,5.46E-03,3.52E-02
98826,5.29E-03,3.48E-02
98827,5.31E-03,3.49E-02
98828,5.20E-03,3.45E-02
98829,5.24E-03,3.46E-02
98830,5.22E-03,3.42E-02
98831,5.21E-03,3.43E-02
98832,5.27E-03,3.41E-02
98833,5.14E-03,3.36E-02
98834,4.99E-03,3.32E-02
98835,5.13E-03,3.32E-02
98836,5.22E-03,3.32E-02
98837,5.27E-03,3.32E-02
98838,5.33E-03,3.32E-02
98839,5.30E-03,3.32E-02
98840,5.56E-03,3.33E-02
98841,5.57E-03,3.33E-02
98842,5.83E-03,3.33E-02
98843,5.78E-03,3.33E-02
98844,6.05E-03,3.33E-02
98845,5.97E-03,3.33E-02
98846,5.98E-03,3.32E-02
98847,6.17E-03,3.33E-02
98848,5.88E-03,3.32E-02
98849,6.23E-03,3.33E-02
98850,5.81E-03,3.12E-02
98851,5.94E-03,3.15E-02
98852,5.31E-03,3.10E-02
98853,6.57E-03,2.95E-02
98854,6.17E-03,2.86E-02
98855,6.40E-03,2.88E-02
98856,5.02E-03,2.80E-02
98857,5.39E-03,2.81E-02
98858,5.64E-03,2.84E-02
98859,5.11E-03,2.80E-02
98860,5.56E-03,3.86E-02
98861,5.57E-03,3.87E-02
98862,5.62E-03,3.85E-02
98863,5.24E-03,3.50E-02
98864,4.43E-03,2.00E-02
98865,5.16E-03,3.50E-02
98866,5.02E-03,3.48E-02
98867,5.27E-03,3.05E-02
98868,6.43E-03,1.99E-02
98869,6.87E-03,1.96E-02
98870,4.19E-03,2.80E-02
98871,5.46E-03,2.81E-02
98872,3.69E-03,2.78E-02
98873,4.10E-03,2.79E-02
98874,4.34E-03,2.77E-02
98875,3.14E-03,2.77E-02
98876,4.93E-03,3.07E-02
98877,3.97E-03,3.01E-02
98878,4.82E-03,3.05E-02
98879,6.02E-03,3.70E-02
98880,6.10E-03,3.70E-02
98881,5.94E-03,3.69E-02
98882,5.40E-03,3.35E-02
98883,5.61E-03,3.31E-02
98884,5.19E-03,3.28E-02
98885,5.24E-03,3.28E-02
98886,5.53E-03,3.27E-02
98887,6.05E-03,3.20E-02
98888,5.66E-03,3.10E-02
98889,5.33E-03,3.06E-02
98890,6.73E-03,2.97E-02
98891,6.50E-03,2.92E-02
98892,6.45E-03,2.90E-02
98893,5.02E-03,1.97E-02
98894,4.90E-03,1.95E-02
98895,4.06E-03,1.93E-02
98896,5.69E-03,1.90E-02
98897,3.57E-03,1.89E-02
98898,4.15E-03,1.89E-02
98899,4.85E-03,2.78E-02
98900,4.49E-03,2.72E-02
98901,4.64E-03,2.71E-02
98902,5.23E-03,3.52E-02
98903,5.19E-03,2.02E-02
98904,4.53E-03,2.04E-02
98905,4.62E-03,2.05E-02
98906,4.76E-03,2.74E-02
98907,4.21E-03,2.76E-02
98908,5.17E-03,2.71E-02
98909,5.04E-03,2.70E-02
98910,5.54E-03,2.01E-02
98911,3.72E-03,3.19E-02
98912,3.87E-03,3.21E-02
98913,3.47E-03,1.87E-02
98914,3.17E-03,1.87E-02
98915,4.64E-03,2.77E-02
98916,5.47E-03,1.88E-02
98917,5.24E-03,1.85E-02
98918,4.42E-03,1.85E-02
98919,6.13E-03,3.28E-02
98920,4.32E-03,2.75E-02
98921,3.66E-03,2.73E-02
98922,3.11E-03,2.74E-02
98923,5.33E-03,2.81E-02
98924,5.15E-03,2.79E-02
98925,4.75E-03,3.04E-02
98926,5.08E-03,3.06E-02
98927,5.47E-03,3.23E-02
98928,5.34E-03,3.13E-02
98929,4.95E-03,3.16E-02
98930,5.25E-03,3.18E-02
98931,5.37E-03,3.21E-02
98932,4.68E-03,3.16E-02
98933,4.71E-03,3.21E-02
98934,4.73E-03,3.22E-02
98935,5.48E-03,3.33E-02
98936,5.57E-03,3.35E-02
98937,5.72E-03,3.43E-02
98938,5.80E-03,3.46E-02
98939,5.86E-03,3.48E-02
98940,4.04E-03,3.56E-02
98941,4.00E-03,3.50E-02
98942,5.25E-03,3.54E-02
98943,6.16E-03,3.55E-02
98944,5.90E-03,3.56E-02
98945,5.88E-03,3.58E-02
98946,5.82E-03,3.59E-02
98947,5.81E-03,3.60E-02
98948,5.87E-03,3.61E-02
98949,5.92E-03,3.63E-02
98950,5.96E-03,3.64E-02
98951,6.71E-03,3.68E-02
98952,6.17E-03,3.66E-02
98953,5.62E-03,3.74E-02
98954,6.53E-03,3.70E-02
98955,5.39E-03,3.80E-02
98956,5.50E-03,3.77E-02
98957,5.01E-03,3.85E-02
98958,5.43E-03,3.82E-02
98959,3.07E-03,3.88E-02
98960,3.62E-03,3.87E-02
98961,5.12E-03,3.89E-02
98962,4.62E-03,3.89E-02
98963,6.40E-03,3.89E-02
98964,5.29E-03,3.89E-02
98965,5.96E-03,3.88E-02
98966,6.32E-03,3.88E-02
98967,5.80E-03,3.89E-02
98968,5.82E-03,3.89E-02
98969,5.62E-03,3.90E-02
98970,5.84E-03,3.89E-02
98971,4.84E-03,3.91E-02
98972,5.26E-03,3.90E-02
98973,5.98E-03,3.88E-02
98974,4.90E-03,3.91E-02
98975,6.51E-03,3.87E-02
98976,6.75E-03,3.88E-02
98977,6.42E-03,3.88E-02
98978,6.78E-03,3.88E-02
98979,5.81E-03,3.92E-02
98980,5.49E-03,3.91E-02
98981,5.98E-03,3.94E-02
98982,5.88E-03,3.92E-02
98983,5.70E-03,3.96E-02
98984,5.83E-03,3.94E-02
98985,5.47E-03,3.97E-02
98986,5.58E-03,3.97E-02
98987,5.34E-03,3.99E-02
98988,5.40E-03,3.98E-02
98989,5.38E-03,3.98E-02
98990,5.36E-03,3.99E-02
98991,5.32E-03,3.98E-02
98992,5.39E-03,3.98E-02
98993,5.26E-03,3.98E-02
98994,5.26E-03,3.98E-02
98995,5.28E-03,3.97E-02
98996,5.27E-03,3.98E-02
98997,5.37E-03,3.96E-02
98998,5.33E-03,3.97E-02
98999,5.33E-03,3.95E-02
99000,5.33E-03,3.96E-02
99001,5.21E-03,3.93E-02
99002,5.34E-03,3.94E-02
99003,5.40E-03,3.92E-02
99004,5.28E-03,3.92E-02
99005,5.65E-03,3.90E-02
99006,5.58E-03,3.91E-02
99007,5.71E-03,3.89E-02
99008,5.71E-03,3.90E-02
99009,5.65E-03,3.89E-02
99010,5.69E-03,3.89E-02
99011,5.63E-03,3.88E-02
99012,5.63E-03,3.88E-02
99013,5.57E-03,3.88E-02
99014,5.55E-03,3.88E-02
99015,5.42E-03,3.89E-02
99016,5.45E-03,3.89E-02
99017,5.31E-03,3.90E-02
99018,5.34E-03,3.90E-02
99019,5.37E-03,3.90E-02
99020,5.26E-03,3.90E-02
99021,5.53E-03,3.89E-02
99022,5.46E-03,3.89E-02
99023,5.57E-03,3.88E-02
99024,5.64E-03,3.83E-02
99025,5.61E-03,3.84E-02
99026,5.68E-03,3.80E-02
99027,5.71E-03,3.81E-02
99028,5.66E-03,3.77E-02
99029,5.64E-03,3.79E-02
99030,5.66E-03,3.75E-02
99031,5.65E-03,3.76E-02
99032,5.58E-03,3.73E-02
99033,5.61E-03,3.74E-02
99034,5.43E-03,3.71E-02
99035,5.51E-03,3.72E-02
99036,5.36E-03,3.68E-02
99037,5.42E-03,3.70E-02
99038,5.35E-03,3.65E-02
99039,5.37E-03,3.67E-02
99040,5.52E-03,3.61E-02
99041,5.45E-03,3.63E-02
99042,5.55E-03,3.57E-02
99043,5.52E-03,3.59E-02
99044,5.49E-03,3.54E-02
99045,5.50E-03,3.56E-02
99046,5.40E-03,3.52E-02
99047,4.71E-03,2.04E-02
99048,5.64E-03,1.99E-02
99049,4.81E-03,3.40E-02
99050,4.08E-03,3.45E-02
99051,5.63E-03,3.34E-02
99052,6.42E-03,3.37E-02
99053,5.22E-03,3.27E-02
99054,5.30E-03,3.30E-02
99055,5.14E-03,3.21E-02
99056,5.16E-03,3.24E-02
99057,5.15E-03,3.16E-02
99058,5.13E-03,3.18E-02
99059,5.20E-03,3.10E-02
99060,5.17E-03,3.13E-02
99061,5.29E-03,3.08E-02
99062,5.49E-03,3.00E-02
99063,5.40E-03,3.03E-02
99064,5.94E-03,2.95E-02
99065,5.72E-03,2.98E-02
99066,6.83E-03,2.92E-02
99067,5.55E-03,2.85E-02
99068,5.34E-03,2.87E-02
99069,5.17E-03,2.81E-02
99070,5.55E-03,2.83E-02
99071,5.33E-03,2.77E-02
99072,5.48E-03,2.79E-02
99073,5.28E-03,2.73E-02
99074,5.20E-03,2.73E-02
99075,5.27E-03,2.72E-02
99076,6.21E-03,2.09E-02
99077,4.65E-03,2.06E-02
99078,6.86E-03,1.93E-02
99079,4.90E-03,7.67E-03
99080,4.99E-03,2.86E-02
99081,5.14E-03,2.90E-02
99082,5.13E-03,2.88E-02
99083,4.69E-03,2.94E-02
99084,4.67E-03,2.91E-02
99085,5.96E-03,2.97E-02
99086,5.65E-03,2.96E-02
99087,5.00E-03,2.99E-02
99088,5.74E-03,3.00E-02
99089,4.81E-03,3.00E-02
99090,7.05E-03,3.07E-02
99091,3.89E-03,3.10E-02
99092,5.02E-03,3.08E-02
99093,4.96E-03,3.13E-02
99094,4.72E-03,3.11E-02
99095,5.11E-03,3.15E-02
99096,5.46E-03,3.27E-02
99097,5.46E-03,3.25E-02
99098,5.57E-03,3.32E-02
99099,5.50E-03,3.29E-02
99100,5.65E-03,3.37E-02
99101,5.61E-03,3.35E-02
99102,5.82E-03,3.41E-02
99103,5.74E-03,3.39E-02
99104,5.58E-03,3.44E-02
99105,6.23E-03,3.43E-02
99106,4.60E-03,3.45E-02
99107,4.31E-03,3.44E-02
99108,5.54E-03,3.49E-02
99109,5.16E-03,3.48E-02
99110,5.80E-03,3.52E-02
99111,5.77E-03,3.50E-02
99112,5.80E-03,3.54E-02
99113,5.77E-03,3.53E-02
99114,5.88E-03,3.57E-02
99115,5.85E-03,3.55E-02
99116,6.02E-03,3.60E-02
99117,5.91E-03,3.58E-02
99118,4.89E-03,3.63E-02
99119,6.56E-03,3.61E-02
99120,5.40E-03,3.65E-02
99121,4.22E-03,3.63E-02
99122,5.44E-03,3.69E-02
99123,5.32E-03,3.67E-02
99124,6.34E-03,3.74E-02
99125,5.68E-03,3.72E-02
99126,5.66E-03,3.75E-02
99127,6.31E-03,3.75E-02
99128,5.18E-03,3.76E-02
99129,5.54E-03,3.76E-02
99130,5.30E-03,3.76E-02
99131,5.07E-03,3.77E-02
99132,5.60E-03,3.76E-02
99133,5.54E-03,3.76E-02
99134,5.86E-03,3.76E-02
99135,5.75E-03,3.76E-02
99136,5.61E-03,3.74E-02
99137,6.24E-03,3.75E-02
99138,4.58E-03,3.72E-02
99139,4.54E-03,3.72E-02
99140,5.70E-03,3.72E-02
99141,5.16E-03,3.73E-02
99142,6.17E-03,3.73E-02
99143,6.16E-03,3.73E-02
99144,5.93E-03,3.72E-02
99145,6.07E-03,3.73E-02
99146,5.87E-03,3.72E-02
99147,5.86E-03,3.72E-02
99148,5.59E-03,3.72E-02
99149,5.83E-03,3.72E-02
99150,5.57E-03,3.72E-02
99151,5.80E-03,3.72E-02
99152,5.72E-03,3.72E-02
99153,5.71E-03,3.72E-02
99154,5.88E-03,3.71E-02
99155,5.81E-03,3.72E-02
99156,6.02E-03,3.71E-02
99157,5.72E-03,3.67E-02
99158,5.74E-03,3.68E-02
99159,5.66E-03,3.65E-02
99160,5.71E-03,3.66E-02
99161,5.70E-03,3.63E-02
99162,5.66E-03,3.64E-02
99163,5.79E-03,3.60E-02
99164,5.77E-03,3.61E-02
99165,5.79E-03,3.57E-02
99166,5.80E-03,3.59E-02
99167,5.68E-03,3.54E-02
99168,5.73E-03,3.56E-02
99169,5.63E-03,3.52E-02
99170,5.66E-03,3.53E-02
99171,5.47E-03,3.49E-02
99172,5.57E-03,3.50E-02
99173,5.39E-03,3.46E-02
99174,5.44E-03,3.48E-02
99175,5.33E-03,3.43E-02
99176,5.35E-03,3.45E-02
99177,5.25E-03,3.40E-02
99178,5.29E-03,3.42E-02
99179,5.17E-03,3.38E-02
99180,5.20E-03,3.39E-02
99181,5.28E-03,3.36E-02
99182,4.57E-03,3.28E-02
99183,4.31E-03,3.27E-02
99184,5.35E-03,3.31E-02
99185,5.05E-03,3.28E-02
99186,5.35E-03,3.28E-02
99187,5.36E-03,3.28E-02
99188,5.43E-03,3.28E-02
99189,5.44E-03,3.28E-02
99190,5.60E-03,3.28E-02
99191,5.62E-03,3.28E-02
99192,5.82E-03,3.29E-02
99193,5.78E-03,3.28E-02
99194,5.98E-03,3.29E-02
99195,5.96E-03,3.29E-02
99196,5.91E-03,3.29E-02
99197,6.59E-03,3.29E-02
99198,6.64E-03,3.21E-02
99199,6.18E-03,3.16E-02
99200,5.94E-03,3.18E-02
99201,5.93E-03,3.10E-02
99202,6.00E-03,3.13E-02
99203,5.68E-03,3.07E-02
99204,6.64E-03,2.95E-02
99205,6.08E-03,2.85E-02
99206,6.14E-03,2.87E-02
99207,5.71E-03,2.83E-02
99208,4.78E-03,1.93E-02
99209,3.98E-03,1.89E-02
99210,4.83E-03,2.78E-02
99211,4.62E-03,2.70E-02
99212,4.58E-03,7.29E-03
99213,4.71E-03,7.44E-03
99214,3.74E-03,7.29E-03
99215,4.29E-03,7.41E-03
99216,5.13E-03,7.73E-03
99217,5.05E-03,7.78E-03
99218,5.03E-03,7.84E-03
99219,4.75E-03,7.90E-03
99220,4.68E-03,7.66E-03
99221,3.71E-03,7.70E-03
99222,4.47E-03,7.91E-03
99223,5.53E-03,3.92E-02
99224,5.24E-03,3.55E-02
99225,5.01E-03,1.96E-02
99226,5.38E-03,1.98E-02
99227,5.64E-03,3.54E-02
99228,5.50E-03,3.52E-02
99229,5.29E-03,2.90E-02
99230,6.36E-03,2.74E-02
99231,5.59E-03,2.73E-02
99232,4.94E-03,2.69E-02
99233,5.35E-03,2.68E-02
99234,5.39E-03,2.69E-02
99235,5.31E-03,2.03E-02
99236,5.91E-03,1.97E-02
99237,6.23E-03,1.95E-02
99238,5.54E-03,8.35E-03
99239,3.44E-03,1.47E-02
99240,4.25E-03,1.52E-02
99241,4.23E-03,1.52E-02
99242,4.39E-03,8.14E-03
99243,5.23E-03,3.17E-02
99244,5.88E-03,3.64E-02
99245,4.47E-03,3.30E-02
99246,4.74E-03,3.31E-02
99247,4.35E-03,3.28E-02
99248,3.57E-03,3.24E-02
99249,3.87E-03,3.25E-02
99250,4.52E-03,3.23E-02
99251,5.19E-03,3.23E-02
99252,5.29E-03,3.23E-02
99253,5.55E-03,3.22E-02
99254,5.89E-03,3.07E-02
99255,6.59E-03,3.02E-02
99256,6.44E-03,2.91E-02
99257,6.33E-03,2.89E-02
99258,5.12E-03,2.78E-02
99259,5.27E-03,2.80E-02
99260,3.97E-03,1.87E-02
99261,4.68E-03,2.76E-02
99262,4.29E-03,2.71E-02
99263,5.25E-03,1.82E-02
99264,4.74E-03,1.82E-02
99265,4.67E-03,7.42E-03
99266,4.66E-03,7.40E-03
99267,4.65E-03,7.28E-03
99268,4.64E-03,7.37E-03
99269,4.49E-03,7.26E-03
99270,5.34E-03,3.57E-02
99271,5.73E-03,2.72E-02
99272,5.73E-03,2.00E-02
99273,4.85E-03,7.51E-03
99274,4.79E-03,7.47E-03
99275,5.95E-03,3.65E-02
99276,5.04E-03,3.25E-02
99277,4.45E-03,3.18E-02
99278,4.76E-03,2.77E-02
99279,4.61E-03,2.76E-02
99280,5.05E-03,2.78E-02
99281,4.52E-03,2.75E-02
99282,3.27E-03,2.72E-02
99283,4.06E-03,1.85E-02
99284,4.83E-03,1.94E-02
99285,4.80E-03,1.90E-02
99286,5.54E-03,3.60E-02
99287,4.17E-03,2.74E-02
99288,4.85E-03,2.77E-02
99289,5.22E-03,2.68E-02
99290,4.93E-03,2.67E-02
99291,4.76E-03,2.69E-02
99292,5.28E-03,1.79E-02
99293,5.62E-03,1.76E-02
99294,4.67E-03,7.30E-03
99295,3.94E-03,7.34E-03
99296,6.03E-03,7.38E-03
99297,5.90E-03,7.41E-03
99298,6.46E-03,7.45E-03
99299,5.92E-03,7.42E-03
99300,4.77E-03,7.46E-03
99301,6.10E-03,7.48E-03
99302,5.06E-03,7.56E-03
99303,5.08E-03,7.51E-03
99304,5.01E-03,7.62E-03
99305,5.73E-03,8.03E-03
99306,4.44E-03,7.83E-03
99307,6.05E-03,7.94E-03
99308,4.02E-03,1.46E-02
99309,4.70E-03,2.66E-02
99310,4.68E-03,2.68E-02
99311,5.99E-03,2.81E-02
99312,5.59E-03,2.78E-02
99313,4.77E-03,2.88E-02
99314,5.30E-03,2.84E-02
99315,5.29E-03,2.92E-02
99316,5.13E-03,2.90E-02
99317,6.29E-03,3.02E-02
99318,6.48E-03,2.99E-02
99319,5.20E-03,3.09E-02
99320,5.84E-03,3.04E-02
99321,6.69E-03,3.11E-02
99322,5.59E-03,3.11E-02
99323,6.78E-03,3.16E-02
99324,7.57E-03,3.13E-02
99325,5.53E-03,3.24E-02
99326,5.73E-03,3.20E-02
99327,6.10E-03,3.29E-02
99328,5.60E-03,3.26E-02
99329,5.65E-03,3.41E-02
99330,5.66E-03,3.38E-02
99331,5.71E-03,3.47E-02
99332,5.74E-03,3.44E-02
99333,5.75E-03,3.52E-02
99334,5.76E-03,3.50E-02
99335,5.58E-03,3.57E-02
99336,5.74E-03,3.55E-02
99337,4.78E-03,3.61E-02
99338,5.22E-03,3.59E-02
99339,5.50E-03,3.61E-02
99340,4.55E-03,3.62E-02
99341,5.95E-03,3.62E-02
99342,6.29E-03,3.61E-02
99343,5.80E-03,3.65E-02
99344,5.89E-03,3.64E-02
99345,5.88E-03,3.68E-02
99346,5.79E-03,3.66E-02
99347,5.99E-03,3.70E-02
99348,5.91E-03,3.69E-02
99349,6.18E-03,3.74E-02
99350,6.07E-03,3.72E-02
99351,5.79E-03,3.78E-02
99352,6.05E-03,3.76E-02
99353,5.44E-03,3.85E-02
99354,5.59E-03,3.82E-02
99355,4.95E-03,3.90E-02
99356,5.27E-03,3.88E-02
99357,4.47E-03,3.94E-02
99358,4.95E-03,3.91E-02
99359,5.04E-03,3.96E-02
99360,4.59E-03,3.95E-02
99361,5.81E-03,3.95E-02
99362,5.27E-03,3.95E-02
99363,5.96E-03,3.94E-02
99364,5.87E-03,3.94E-02
99365,5.78E-03,3.95E-02
99366,5.85E-03,3.95E-02
99367,5.65E-03,3.97E-02
99368,5.76E-03,3.96E-02
99369,5.29E-03,3.97E-02
99370,5.44E-03,3.97E-02
99371,5.85E-03,3.96E-02
99372,5.50E-03,3.97E-02
99373,6.36E-03,3.95E-02
99374,6.19E-03,3.96E-02
99375,6.16E-03,3.96E-02
99376,6.31E-03,3.96E-02
99377,5.83E-03,3.99E-02
99378,6.02E-03,3.97E-02
99379,5.88E-03,4.01E-02
99380,5.85E-03,4.00E-02
99381,5.66E-03,4.03E-02
99382,5.81E-03,4.02E-02
99383,5.48E-03,4.04E-02
99384,5.59E-03,4.03E-02
99385,5.44E-03,4.04E-02
99386,5.45E-03,4.04E-02
99387,5.40E-03,4.03E-02
99388,5.41E-03,4.04E-02
99389,5.36E-03,4.03E-02
99390,5.38E-03,4.03E-02
99391,5.28E-03,4.02E-02
99392,5.26E-03,4.03E-02
99393,5.28E-03,4.01E-02
99394,5.24E-03,4.02E-02
99395,5.36E-03,4.00E-02
99396,5.33E-03,4.01E-02
99397,5.33E-03,3.99E-02
99398,5.36E-03,3.99E-02
99399,5.31E-03,3.97E-02
99400,5.34E-03,3.98E-02
99401,5.50E-03,3.96E-02
99402,5.37E-03,3.96E-02
99403,5.67E-03,3.95E-02
99404,5.58E-03,3.95E-02
99405,5.69E-03,3.94E-02
99406,5.68E-03,3.94E-02
99407,5.69E-03,3.93E-02
99408,5.69E-03,3.93E-02
99409,5.67E-03,3.93E-02
99410,5.69E-03,3.93E-02
99411,5.56E-03,3.93E-02
99412,5.58E-03,3.93E-02
99413,5.45E-03,3.94E-02
99414,5.51E-03,3.93E-02
99415,5.33E-03,3.95E-02
99416,5.43E-03,3.94E-02
99417,5.35E-03,3.95E-02
99418,5.33E-03,3.95E-02
99419,5.48E-03,3.94E-02
99420,5.40E-03,3.95E-02
99421,5.54E-03,3.93E-02
99422,5.69E-03,3.88E-02
99423,5.62E-03,3.89E-02
99424,5.79E-03,3.86E-02
99425,5.71E-03,3.87E-02
99426,5.72E-03,3.83E-02
99427,5.76E-03,3.84E-02
99428,5.69E-03,3.81E-02
99429,5.70E-03,3.82E-02
99430,5.59E-03,3.80E-02
99431,5.63E-03,3.80E-02
99432,5.49E-03,3.78E-02
99433,5.59E-03,3.79E-02
99434,5.40E-03,3.75E-02
99435,5.47E-03,3.76E-02
99436,5.46E-03,3.71E-02
99437,5.41E-03,3.73E-02
99438,5.52E-03,3.67E-02
99439,5.51E-03,3.69E-02
99440,5.53E-03,3.63E-02
99441,5.53E-03,3.64E-02
99442,5.44E-03,3.59E-02
99443,5.49E-03,3.61E-02
99444,5.37E-03,3.57E-02
99445,4.10E-03,2.15E-02
99446,5.32E-03,2.07E-02
99447,5.95E-03,2.02E-02
99448,5.78E-03,2.04E-02
99449,5.88E-03,2.00E-02
99450,5.01E-03,3.42E-02
99451,5.15E-03,3.47E-02
99452,5.55E-03,3.36E-02
99453,5.39E-03,3.39E-02
99454,5.27E-03,3.29E-02
99455,5.42E-03,3.33E-02
99456,5.20E-03,3.23E-02
99457,5.23E-03,3.26E-02
99458,5.20E-03,3.17E-02
99459,5.18E-03,3.20E-02
99460,5.30E-03,3.12E-02
99461,5.23E-03,3.15E-02
99462,5.29E-03,3.06E-02
99463,5.34E-03,3.09E-02
99464,5.46E-03,3.01E-02
99465,5.38E-03,3.04E-02
99466,5.77E-03,2.96E-02
99467,5.55E-03,2.98E-02
99468,5.21E-03,2.92E-02
99469,6.57E-03,2.94E-02
99470,4.93E-03,2.88E-02
99471,4.86E-03,2.90E-02
99472,5.39E-03,2.85E-02
99473,5.22E-03,2.87E-02
99474,5.57E-03,2.82E-02
99475,5.42E-03,2.84E-02
99476,6.40E-03,2.78E-02
99477,5.85E-03,2.80E-02
99478,6.34E-03,2.76E-02
99479,5.57E-03,2.71E-02
99480,5.60E-03,2.72E-02
99481,5.53E-03,2.70E-02
99482,5.78E-03,2.08E-02
99483,5.89E-03,2.10E-02
99484,5.55E-03,2.05E-02
99485,6.98E-03,1.88E-02
99486,7.20E-03,1.92E-02
99487,5.80E-03,1.81E-02
99488,6.08E-03,1.85E-02
99489,5.90E-03,1.75E-02
99490,5.85E-03,1.78E-02
99491,5.06E-03,7.56E-03
99492,4.92E-03,7.54E-03
99493,6.38E-03,7.54E-03
99494,5.93E-03,7.54E-03
99495,6.02E-03,7.61E-03
99496,6.05E-03,7.58E-03
99497,5.59E-03,7.71E-03
99498,6.30E-03,7.64E-03
99499,5.02E-03,7.92E-03
99500,4.99E-03,7.84E-03
99501,5.09E-03,8.03E-03
99502,5.04E-03,7.98E-03
99503,6.07E-03,8.09E-03
99504,5.21E-03,8.09E-03
99505,5.95E-03,8.23E-03
99506,6.45E-03,8.14E-03
99507,5.64E-03,8.30E-03
99508,4.89E-03,1.22E-02
99509,5.10E-03,1.24E-02
99510,5.22E-03,1.26E-02
99511,5.33E-03,1.29E-02
99512,5.36E-03,1.31E-02
99513,5.49E-03,1.34E-02
99514,5.59E-03,1.37E-02
99515,5.50E-03,1.45E-02
99516,5.90E-03,1.41E-02
99517,4.19E-03,1.49E-02
99518,5.69E-03,1.56E-02
99519,5.34E-03,1.61E-02
99520,5.44E-03,1.74E-02
99521,5.06E-03,1.70E-02
99522,5.27E-03,1.65E-02
99523,4.21E-03,2.17E-02
99524,5.38E-03,8.38E-03
99525,4.88E-03,8.40E-03
99526,4.19E-03,1.11E-02
99527,4.47E-03,1.13E-02
99528,6.24E-03,2.63E-02
99529,5.33E-03,2.69E-02
99530,5.48E-03,2.66E-02
99531,5.46E-03,2.72E-02
99532,5.80E-03,2.81E-02
99533,5.00E-03,2.83E-02
99534,4.83E-03,2.81E-02
99535,5.04E-03,2.86E-02
99536,5.07E-03,2.84E-02
99537,5.11E-03,2.90E-02
99538,4.99E-03,2.88E-02
99539,5.47E-03,2.93E-02
99540,5.29E-03,2.92E-02
99541,5.23E-03,2.96E-02
99542,5.38E-03,2.95E-02
99543,4.97E-03,2.98E-02
99544,4.89E-03,2.96E-02
99545,5.14E-03,3.01E-02
99546,4.94E-03,3.01E-02
99547,4.82E-03,3.06E-02
99548,5.07E-03,3.03E-02
99549,4.93E-03,3.08E-02
99550,4.80E-03,3.06E-02
99551,4.95E-03,3.10E-02
99552,5.48E-03,3.21E-02
99553,5.32E-03,3.19E-02
99554,5.55E-03,3.26E-02
99555,5.50E-03,3.24E-02
99556,5.65E-03,3.31E-02
99557,5.59E-03,3.29E-02
99558,5.73E-03,3.35E-02
99559,5.70E-03,3.33E-02
99560,5.43E-03,3.38E-02
99561,5.64E-03,3.36E-02
99562,5.06E-03,3.40E-02
99563,5.18E-03,3.39E-02
99564,5.42E-03,3.43E-02
99565,5.25E-03,3.42E-02
99566,5.73E-03,3.46E-02
99567,5.63E-03,3.44E-02
99568,5.73E-03,3.48E-02
99569,5.70E-03,3.47E-02
99570,5.81E-03,3.51E-02
99571,5.78E-03,3.50E-02
99572,5.82E-03,3.54E-02
99573,5.82E-03,3.52E-02
99574,5.27E-03,3.57E-02
99575,5.69E-03,3.55E-02
99576,5.22E-03,3.60E-02
99577,5.21E-03,3.59E-02
99578,5.53E-03,3.64E-02
99579,5.48E-03,3.62E-02
99580,5.86E-03,3.67E-02
99581,5.68E-03,3.66E-02
99582,5.81E-03,3.69E-02
99583,5.93E-03,3.68E-02
99584,5.40E-03,3.70E-02
99585,5.55E-03,3.70E-02
99586,5.42E-03,3.70E-02
99587,5.37E-03,3.71E-02
99588,5.59E-03,3.70E-02
99589,5.51E-03,3.70E-02
99590,5.78E-03,3.69E-02
99591,5.66E-03,3.70E-02
99592,5.46E-03,3.68E-02
99593,5.65E-03,3.68E-02
99594,5.16E-03,3.67E-02
99595,5.22E-03,3.67E-02
99596,5.62E-03,3.66E-02
99597,5.35E-03,3.66E-02
99598,5.94E-03,3.66E-02
99599,5.83E-03,3.66E-02
99600,5.84E-03,3.66E-02
99601,5.94E-03,3.66E-02
99602,5.79E-03,3.66E-02
99603,5.84E-03,3.66E-02
99604,5.64E-03,3.66E-02
99605,5.74E-03,3.66E-02
99606,5.67E-03,3.66E-02
99607,5.68E-03,3.66E-02
99608,5.77E-03,3.66E-02
99609,5.72E-03,3.66E-02
99610,5.87E-03,3.66E-02
99611,5.83E-03,3.66E-02
99612,6.00E-03,3.65E-02
99613,5.73E-03,3.62E-02
99614,5.72E-03,3.63E-02
99615,5.63E-03,3.60E-02
99616,5.67E-03,3.61E-02
99617,5.71E-03,3.58E-02
99618,5.65E-03,3.59E-02
99619,5.75E-03,3.55E-02
99620,5.75E-03,3.57E-02
99621,5.75E-03,3.53E-02
99622,5.72E-03,3.54E-02
99623,5.66E-03,3.50E-02
99624,5.68E-03,3.51E-02
99625,5.62E-03,3.47E-02
99626,5.66E-03,3.49E-02
99627,5.50E-03,3.45E-02
99628,5.55E-03,3.46E-02
99629,5.41E-03,3.42E-02
99630,5.47E-03,3.43E-02
99631,5.34E-03,3.39E-02
99632,5.33E-03,3.40E-02
99633,5.29E-03,3.36E-02
99634,5.28E-03,3.38E-02
99635,5.17E-03,3.34E-02
99636,5.19E-03,3.35E-02
99637,5.07E-03,3.32E-02
99638,4.67E-03,3.27E-02
99639,4.41E-03,3.27E-02
99640,4.93E-03,3.26E-02
99641,5.01E-03,3.23E-02
99642,5.48E-03,3.23E-02
99643,5.42E-03,3.23E-02
99644,5.48E-03,3.23E-02
99645,5.50E-03,3.23E-02
99646,5.60E-03,3.24E-02
99647,5.64E-03,3.24E-02
99648,5.80E-03,3.24E-02
99649,5.78E-03,3.24E-02
99650,5.94E-03,3.24E-02
99651,5.95E-03,3.24E-02
99652,6.07E-03,3.25E-02
99653,6.97E-03,3.23E-02
99654,6.87E-03,3.24E-02
99655,7.04E-03,3.23E-02
99656,7.38E-03,3.17E-02
99657,5.43E-03,3.19E-02
99658,6.33E-03,3.13E-02
99659,7.67E-03,3.15E-02
99660,5.98E-03,3.08E-02
99661,6.04E-03,3.11E-02
99662,5.86E-03,3.05E-02
99663,7.02E-03,2.96E-02
99664,6.68E-03,2.94E-02
99665,5.97E-03,2.84E-02
99666,6.03E-03,2.87E-02
99667,5.73E-03,2.82E-02
99668,3.88E-03,1.87E-02
99669,5.20E-03,2.74E-02
99670,4.67E-03,2.75E-02
99671,4.69E-03,2.76E-02
99672,4.52E-03,2.70E-02
99673,4.78E-03,1.79E-02
99674,4.34E-03,7.24E-03
99675,4.68E-03,7.33E-03
99676,5.42E-03,7.79E-03
99677,5.78E-03,7.85E-03
99678,3.89E-03,1.09E-02
99679,4.86E-03,1.14E-02
99680,4.61E-03,1.15E-02
99681,5.09E-03,1.75E-02
99682,5.32E-03,3.60E-02
99683,5.72E-03,2.17E-02
99684,4.76E-03,1.97E-02
99685,6.57E-03,2.00E-02
99686,5.19E-03,3.55E-02
99687,6.78E-03,2.71E-02
99688,5.78E-03,2.02E-02
99689,5.90E-03,1.97E-02
99690,6.03E-03,1.94E-02
99691,6.54E-03,1.73E-02
99692,6.24E-03,1.75E-02
99693,6.12E-03,1.72E-02
99694,4.98E-03,7.58E-03
99695,5.00E-03,7.63E-03
99696,5.27E-03,8.55E-03
99697,4.71E-03,3.25E-02
99698,4.86E-03,3.27E-02
99699,4.64E-03,3.24E-02
99700,4.00E-03,3.22E-02
99701,4.43E-03,3.20E-02
99702,5.21E-03,3.19E-02
99703,5.39E-03,3.19E-02
99704,5.92E-03,3.05E-02
99705,6.42E-03,2.90E-02
99706,6.07E-03,2.88E-02
99707,5.30E-03,2.80E-02
99708,3.48E-03,2.52E-02
99709,4.58E-03,2.74E-02
99710,4.26E-03,2.71E-02
99711,4.42E-03,1.83E-02
99712,4.05E-03,1.95E-02
99713,4.83E-03,1.91E-02
99714,4.35E-03,7.12E-03
99715,3.31E-03,7.09E-03
99716,4.04E-03,7.17E-03
99717,5.28E-03,3.63E-02
99718,5.06E-03,2.75E-02
99719,4.28E-03,2.72E-02
99720,5.61E-03,1.99E-02
99721,4.02E-03,1.85E-02
99722,3.73E-03,2.75E-02
99723,5.60E-03,2.74E-02
99724,3.32E-03,2.53E-02
99725,3.12E-03,2.54E-02
99726,4.49E-03,2.73E-02
99727,4.55E-03,2.71E-02
99728,4.34E-03,1.88E-02
99729,4.38E-03,3.61E-02
99730,4.21E-03,2.77E-02
99731,4.06E-03,1.72E-02
99732,3.73E-03,1.74E-02
99733,4.47E-03,2.72E-02
99734,4.64E-03,2.75E-02
99735,4.61E-03,2.67E-02
99736,4.60E-03,2.68E-02
99737,4.57E-03,1.77E-02
99738,4.91E-03,7.42E-03
99739,4.65E-03,7.16E-03
99740,4.58E-03,7.14E-03
99741,4.62E-03,7.17E-03
99742,4.70E-03,7.17E-03
99743,4.52E-03,7.21E-03
99744,4.93E-03,7.20E-03
99745,5.68E-03,7.22E-03
99746,5.17E-03,7.21E-03
99747,5.98E-03,7.24E-03
99748,5.75E-03,7.23E-03
99749,5.45E-03,7.28E-03
99750,5.77E-03,7.26E-03
99751,5.07E-03,7.35E-03
99752,5.16E-03,7.30E-03
99753,4.77E-03,7.43E-03
99754,4.94E-03,7.39E-03
99755,4.69E-03,7.65E-03
99756,4.87E-03,7.52E-03
99757,5.20E-03,7.72E-03
99758,5.36E-03,7.99E-03
99759,5.95E-03,7.86E-03
99760,5.05E-03,8.19E-03
99761,4.64E-03,8.14E-03
99762,4.74E-03,8.24E-03
99763,5.12E-03,8.23E-03
99764,4.67E-03,8.33E-03
99765,3.88E-03,8.24E-03
99766,4.88E-03,1.05E-02
99767,5.50E-03,1.06E-02
99768,3.50E-03,1.08E-02
99769,4.02E-03,1.07E-02
99770,4.88E-03,1.11E-02
99771,4.74E-03,1.09E-02
99772,3.92E-03,1.12E-02
99773,4.80E-03,1.12E-02
99774,6.65E-03,1.16E-02
99775,4.77E-03,1.14E-02
99776,4.89E-03,1.19E-02
99777,5.89E-03,1.18E-02
99778,5.30E-03,1.24E-02
99779,5.23E-03,1.21E-02
99780,5.35E-03,1.28E-02
99781,5.35E-03,1.26E-02
99782,5.50E-03,1.34E-02
99783,5.43E-03,1.31E-02
99784,5.17E-03,1.40E-02
99785,5.81E-03,1.37E-02
99786,4.34E-03,1.44E-02
99787,4.20E-03,1.41E-02
99788,4.92E-03,1.54E-02
99789,4.53E-03,1.50E-02
99790,5.06E-03,1.62E-02
99791,5.10E-03,1.58E-02
99792,4.93E-03,1.66E-02
99793,5.42E-03,1.91E-02
99794,5.55E-03,1.89E-02
99795,5.56E-03,1.86E-02
99796,4.95E-03,2.35E-02
99797,5.42E-03,2.38E-02
99798,5.67E-03,2.40E-02
99799,5.88E-03,2.43E-02
99800,7.04E-03,2.49E-02
99801,6.21E-03,2.46E-02
99802,7.04E-03,2.57E-02
99803,7.64E-03,2.52E-02
99804,4.85E-03,2.65E-02
99805,6.19E-03,2.62E-02
99806,5.03E-03,2.73E-02
99807,4.33E-03,2.69E-02
99808,5.34E-03,2.79E-02
99809,5.13E-03,2.75E-02
99810,5.53E-03,2.85E-02
99811,5.49E-03,2.82E-02
99812,5.62E-03,2.90E-02
99813,5.46E-03,2.87E-02
99814,5.40E-03,2.96E-02
99815,5.31E-03,2.93E-02
99816,5.91E-03,3.01E-02
99817,5.54E-03,2.98E-02
99818,6.06E-03,3.06E-02
99819,6.40E-03,3.02E-02
99820,5.98E-03,3.13E-02
99821,5.81E-03,3.08E-02
99822,6.33E-03,3.18E-02
99823,5.99E-03,3.15E-02
99824,6.37E-03,3.22E-02
99825,6.42E-03,3.20E-02
99826,5.79E-03,3.29E-02
99827,6.02E-03,3.26E-02
99828,5.92E-03,3.35E-02
99829,5.79E-03,3.32E-02
99830,5.82E-03,3.41E-02
99831,5.87E-03,3.37E-02
99832,5.74E-03,3.47E-02
99833,5.72E-03,3.44E-02
99834,5.72E-03,3.53E-02
99835,5.73E-03,3.50E-02
99836,5.69E-03,3.59E-02
99837,5.69E-03,3.56E-02
99838,5.45E-03,3.64E-02
99839,5.62E-03,3.62E-02
99840,5.15E-03,3.66E-02
99841,5.24E-03,3.65E-02
99842,5.51E-03,3.67E-02
99843,5.24E-03,3.67E-02
99844,5.93E-03,3.69E-02
99845,5.77E-03,3.68E-02
99846,5.84E-03,3.71E-02
99847,5.87E-03,3.70E-02
99848,5.87E-03,3.74E-02
99849,5.84E-03,3.73E-02
99850,5.94E-03,3.77E-02
99851,5.89E-03,3.76E-02
99852,5.97E-03,3.79E-02
99853,5.97E-03,3.78E-02
99854,5.75E-03,3.83E-02
99855,5.93E-03,3.81E-02
99856,5.44E-03,3.90E-02
99857,5.57E-03,3.86E-02
99858,5.15E-03,3.95E-02
99859,5.23E-03,3.93E-02
99860,4.85E-03,4.00E-02
99861,4.94E-03,3.98E-02
99862,5.04E-03,4.01E-02
99863,4.91E-03,4.01E-02
99864,5.54E-03,4.01E-02
99865,5.41E-03,4.01E-02
99866,5.87E-03,4.00E-02
99867,5.68E-03,4.00E-02
99868,5.79E-03,4.02E-02
99869,5.81E-03,4.01E-02
99870,5.62E-03,4.04E-02
99871,5.73E-03,4.03E-02
99872,5.58E-03,4.05E-02
99873,5.57E-03,4.05E-02
99874,5.84E-03,4.05E-02
99875,5.68E-03,4.05E-02
99876,6.10E-03,4.04E-02
99877,6.02E-03,4.04E-02
99878,6.15E-03,4.04E-02
99879,6.18E-03,4.03E-02
99880,5.90E-03,4.06E-02
99881,6.06E-03,4.05E-02
99882,5.81E-03,4.09E-02
99883,5.88E-03,4.08E-02
99884,5.65E-03,4.10E-02
99885,5.78E-03,4.09E-02
99886,5.53E-03,4.09E-02
99887,5.61E-03,4.10E-02
99888,5.44E-03,4.09E-02
99889,5.49E-03,4.09E-02
99890,5.40E-03,4.08E-02
99891,5.44E-03,4.08E-02
99892,5.35E-03,4.07E-02
99893,5.39E-03,4.08E-02
99894,5.31E-03,4.06E-02
99895,5.31E-03,4.07E-02
99896,5.30E-03,4.05E-02
99897,5.28E-03,4.06E-02
99898,5.36E-03,4.04E-02
99899,5.33E-03,4.05E-02
99900,5.35E-03,4.02E-02
99901,5.37E-03,4.03E-02
99902,5.39E-03,4.01E-02
99903,5.39E-03,4.01E-02
99904,5.55E-03,4.00E-02
99905,5.45E-03,4.00E-02
99906,5.69E-03,3.99E-02
99907,5.64E-03,3.99E-02
99908,5.66E-03,3.98E-02
99909,5.67E-03,3.99E-02
99910,5.65E-03,3.98E-02
99911,5.62E-03,3.98E-02
99912,5.68E-03,3.97E-02
99913,5.64E-03,3.98E-02
99914,5.61E-03,3.97E-02
99915,5.65E-03,3.97E-02
99916,5.45E-03,3.98E-02
99917,5.55E-03,3.98E-02
99918,5.39E-03,4.00E-02
99919,5.48E-03,3.99E-02
99920,5.36E-03,4.00E-02
99921,5.38E-03,4.00E-02
99922,5.34E-03,3.99E-02
99923,5.34E-03,4.00E-02
99924,5.49E-03,3.98E-02
99925,5.39E-03,3.99E-02
99926,5.63E-03,3.96E-02
99927,5.55E-03,3.97E-02
99928,5.68E-03,3.94E-02
99929,5.65E-03,3.95E-02
99930,5.81E-03,3.92E-02
99931,5.72E-03,3.93E-02
99932,5.77E-03,3.89E-02
99933,5.79E-03,3.90E-02
99934,5.71E-03,3.87E-02
99935,5.74E-03,3.88E-02
99936,5.65E-03,3.86E-02
99937,5.69E-03,3.87E-02
99938,5.53E-03,3.85E-02
99939,5.59E-03,3.86E-02
99940,5.44E-03,3.82E-02
99941,5.52E-03,3.83E-02
99942,5.50E-03,3.77E-02
99943,5.42E-03,3.79E-02
99944,5.59E-03,3.72E-02
99945,5.56E-03,3.75E-02
99946,5.51E-03,3.68E-02
99947,5.58E-03,3.70E-02
99948,5.40E-03,3.64E-02
99949,5.47E-03,3.66E-02
99950,5.40E-03,3.62E-02
99951,6.00E-03,2.15E-02
99952,6.35E-03,2.08E-02
99953,6.68E-03,2.04E-02
99954,6.54E-03,2.06E-02
99955,6.28E-03,2.02E-02
99956,5.06E-03,3.46E-02
99957,5.17E-03,3.50E-02
99958,5.30E-03,3.38E-02
99959,5.23E-03,3.42E-02
99960,5.36E-03,3.32E-02
99961,5.34E-03,3.35E-02
99962,5.21E-03,3.25E-02
99963,5.26E-03,3.28E-02
99964,5.27E-03,3.19E-02
99965,5.24E-03,3.22E-02
99966,5.34E-03,3.13E-02
99967,5.29E-03,3.16E-02
99968,5.29E-03,3.07E-02
99969,5.32E-03,3.10E-02
99970,5.43E-03,3.02E-02
99971,5.34E-03,3.04E-02
99972,5.53E-03,2.97E-02
99973,5.49E-03,2.99E-02
99974,5.23E-03,2.93E-02
99975,5.58E-03,2.95E-02
99976,5.13E-03,2.89E-02
99977,5.11E-03,2.90E-02
99978,5.35E-03,2.86E-02
99979,5.21E-03,2.87E-02
99980,5.55E-03,2.82E-02
99981,5.45E-03,2.84E-02
99982,5.92E-03,2.78E-02
99983,5.73E-03,2.80E-02
99984,5.70E-03,2.77E-02
99985,5.68E-03,2.69E-02
99986,6.18E-03,2.70E-02
99987,5.68E-03,2.67E-02
99988,5.75E-03,2.68E-02
99989,5.62E-03,2.67E-02
99990,4.12E-03,2.51E-02
99991,5.53E-03,2.35E-02
99992,7.05E-03,2.26E-02
99993,7.51E-03,2.24E-02
99994,5.72E-03,2.11E-02
99995,5.55E-03,2.14E-02
99996,5.96E-03,2.07E-02
99997,5.96E-03,2.09E-02
99998,5.87E-03,2.04E-02
99999,6.39E-03,1.88E-02
100000,6.61E-03,1.91E-02
100001,6.16E-03,1.81E-02
100002,6.33E-03,1.84E-02
100003,6.20E-03,1.78E-02
100004,6.32E-03,1.69E-02
100005,6.14E-03,1.71E-02
100006,5.62E-03,1.67E-02
100007,5.95E-03,1.69E-02
100008,4.39E-03,1.72E-02
100009,4.96E-03,1.69E-02
100010,5.84E-03,1.69E-02
100011,5.33E-03,7.68E-03
100012,5.08E-03,7.66E-03
100013,5.90E-03,7.72E-03
100014,5.60E-03,7.70E-03
100015,5.98E-03,7.79E-03
100016,5.99E-03,7.75E-03
100017,5.50E-03,7.89E-03
100018,5.84E-03,7.84E-03
100019,5.27E-03,8.08E-03
100020,5.72E-03,7.98E-03
100021,5.25E-03,8.21E-03
100022,5.21E-03,8.15E-03
100023,5.66E-03,8.31E-03
100024,5.50E-03,8.25E-03
100025,5.79E-03,8.41E-03
100026,5.79E-03,8.36E-03
100027,5.71E-03,8.51E-03
100028,5.76E-03,8.47E-03
100029,6.33E-03,8.49E-03
100030,6.53E-03,8.50E-03
100031,5.74E-03,8.54E-03
100032,5.48E-03,8.99E-03
100033,3.19E-03,2.71E-02
100034,6.43E-03,8.45E-03
100035,7.01E-03,8.43E-03
100036,6.40E-03,8.51E-03
100037,6.07E-03,8.64E-03
100038,5.71E-03,8.81E-03
100039,4.49E-03,9.18E-03
100040,6.65E-03,9.32E-03
100041,6.04E-03,9.47E-03
100042,5.09E-03,9.56E-03
100043,5.83E-03,9.62E-03
100044,5.61E-03,9.57E-03
100045,6.18E-03,9.68E-03
100046,6.00E-03,9.82E-03
100047,6.00E-03,9.93E-03
100048,6.13E-03,1.01E-02
100049,6.28E-03,1.04E-02
100050,6.52E-03,1.02E-02
100051,5.84E-03,1.09E-02
100052,5.10E-03,1.07E-02
100053,4.87E-03,1.13E-02
100054,5.63E-03,1.11E-02
100055,5.16E-03,1.16E-02
100056,4.93E-03,1.15E-02
100057,6.82E-03,1.19E-02
100058,6.19E-03,1.17E-02
100059,5.10E-03,1.24E-02
100060,5.98E-03,1.21E-02
100061,5.34E-03,1.29E-02
100062,5.25E-03,1.26E-02
100063,5.45E-03,1.34E-02
100064,5.41E-03,1.31E-02
100065,5.58E-03,1.40E-02
100066,5.52E-03,1.37E-02
100067,5.33E-03,1.47E-02
100068,5.56E-03,1.44E-02
100069,5.81E-03,1.56E-02
100070,5.33E-03,1.52E-02
100071,5.58E-03,1.63E-02
100072,5.90E-03,1.59E-02
100073,5.68E-03,1.71E-02
100074,5.49E-03,1.67E-02
100075,6.59E-03,1.78E-02
100076,6.53E-03,1.76E-02
100077,5.39E-03,1.85E-02
100078,5.75E-03,1.82E-02
100079,4.56E-03,1.87E-02
100080,6.94E-03,1.92E-02
100081,6.15E-03,1.96E-02
100082,6.08E-03,2.00E-02
100083,6.03E-03,2.04E-02
100084,6.00E-03,2.09E-02
100085,5.99E-03,2.18E-02
100086,5.99E-03,2.13E-02
100087,6.28E-03,2.26E-02
100088,6.01E-03,2.22E-02
100089,5.07E-03,2.30E-02
100090,5.70E-03,2.30E-02
100091,5.64E-03,2.37E-02
100092,5.49E-03,2.34E-02
100093,6.09E-03,2.43E-02
100094,5.76E-03,2.40E-02
100095,6.58E-03,2.55E-02
100096,7.18E-03,2.50E-02
100097,5.60E-03,2.59E-02
100098,5.49E-03,2.57E-02
100099,5.50E-03,2.66E-02
100100,5.48E-03,2.63E-02
100101,5.61E-03,2.71E-02
100102,5.51E-03,2.69E-02
100103,5.46E-03,2.76E-02
100104,5.62E-03,2.74E-02
100105,5.13E-03,2.79E-02
100106,5.25E-03,2.78E-02
100107,5.12E-03,2.83E-02
100108,5.14E-03,2.81E-02
100109,5.18E-03,2.86E-02
100110,5.11E-03,2.85E-02
100111,5.30E-03,2.89E-02
100112,5.25E-03,2.88E-02
100113,5.20E-03,2.91E-02
100114,5.26E-03,2.90E-02
100115,5.01E-03,2.94E-02
100116,5.12E-03,2.92E-02
100117,5.06E-03,2.97E-02
100118,4.99E-03,2.96E-02
100119,4.99E-03,3.01E-02
100120,5.05E-03,2.99E-02
100121,5.00E-03,3.04E-02
100122,5.02E-03,3.02E-02
100123,5.13E-03,3.08E-02
100124,4.98E-03,3.05E-02
100125,5.38E-03,3.12E-02
100126,5.30E-03,3.10E-02
100127,5.46E-03,3.16E-02
100128,5.43E-03,3.14E-02
100129,5.54E-03,3.21E-02
100130,5.46E-03,3.18E-02
100131,5.60E-03,3.25E-02
100132,5.59E-03,3.23E-02
100133,5.55E-03,3.29E-02
100134,5.59E-03,3.27E-02
100135,5.43E-03,3.32E-02
100136,5.52E-03,3.31E-02
100137,5.29E-03,3.35E-02
100138,5.32E-03,3.34E-02
100139,5.40E-03,3.38E-02
100140,5.35E-03,3.36E-02
100141,5.65E-03,3.40E-02
100142,5.60E-03,3.39E-02
100143,5.71E-03,3.43E-02
100144,5.64E-03,3.41E-02
100145,5.72E-03,3.45E-02
100146,5.75E-03,3.44E-02
100147,5.69E-03,3.48E-02
100148,5.73E-03,3.47E-02
100149,5.50E-03,3.52E-02
100150,5.58E-03,3.50E-02
100151,5.44E-03,3.55E-02
100152,5.46E-03,3.54E-02
100153,5.59E-03,3.58E-02
100154,5.47E-03,3.57E-02
100155,5.72E-03,3.61E-02
100156,5.68E-03,3.60E-02
100157,5.70E-03,3.63E-02
100158,5.76E-03,3.62E-02
100159,5.51E-03,3.64E-02
100160,5.60E-03,3.64E-02
100161,5.52E-03,3.65E-02
100162,5.48E-03,3.64E-02
100163,5.59E-03,3.64E-02
100164,5.55E-03,3.64E-02
100165,5.64E-03,3.63E-02
100166,5.60E-03,3.64E-02
100167,5.45E-03,3.62E-02
100168,5.55E-03,3.63E-02
100169,5.36E-03,3.61E-02
100170,5.37E-03,3.62E-02
100171,5.59E-03,3.60E-02
100172,5.44E-03,3.61E-02
100173,5.82E-03,3.60E-02
100174,5.74E-03,3.60E-02
100175,5.77E-03,3.60E-02
100176,5.85E-03,3.60E-02
100177,5.71E-03,3.60E-02
100178,5.72E-03,3.60E-02
100179,5.65E-03,3.60E-02
100180,5.67E-03,3.60E-02
100181,5.72E-03,3.60E-02
100182,5.69E-03,3.60E-02
100183,5.78E-03,3.61E-02
100184,5.75E-03,3.61E-02
100185,5.83E-03,3.60E-02
100186,5.83E-03,3.61E-02
100187,5.89E-03,3.60E-02
100188,5.90E-03,3.60E-02
100189,5.79E-03,3.58E-02
100190,5.73E-03,3.57E-02
100191,5.71E-03,3.58E-02
100192,5.61E-03,3.55E-02
100193,5.62E-03,3.56E-02
100194,5.69E-03,3.53E-02
100195,5.67E-03,3.54E-02
100196,5.69E-03,3.51E-02
100197,5.68E-03,3.52E-02
100198,5.66E-03,3.48E-02
100199,5.65E-03,3.50E-02
100200,5.61E-03,3.45E-02
100201,5.61E-03,3.47E-02
100202,5.58E-03,3.43E-02
100203,5.58E-03,3.44E-02
100204,5.54E-03,3.40E-02
100205,5.55E-03,3.42E-02
100206,5.47E-03,3.38E-02
100207,5.49E-03,3.39E-02
100208,5.37E-03,3.35E-02
100209,5.41E-03,3.36E-02
100210,5.27E-03,3.32E-02
100211,5.32E-03,3.33E-02
100212,5.18E-03,3.29E-02
100213,5.20E-03,3.31E-02
100214,4.97E-03,3.28E-02
100215,4.67E-03,3.22E-02
100216,4.61E-03,3.23E-02
100217,4.50E-03,3.22E-02
100218,4.63E-03,3.19E-02
100219,4.97E-03,3.19E-02
100220,5.56E-03,3.19E-02
100221,5.57E-03,3.19E-02
100222,5.53E-03,3.19E-02
100223,5.60E-03,3.19E-02
100224,5.64E-03,3.20E-02
100225,5.63E-03,3.19E-02
100226,5.82E-03,3.20E-02
100227,5.74E-03,3.20E-02
100228,5.96E-03,3.20E-02
100229,5.90E-03,3.20E-02
100230,4.81E-03,3.20E-02
100231,5.94E-03,3.20E-02
100232,6.96E-03,3.21E-02
100233,6.88E-03,3.19E-02
100234,6.85E-03,3.20E-02
100235,6.20E-03,3.17E-02
100236,6.84E-03,3.18E-02
100237,6.90E-03,3.14E-02
100238,6.86E-03,3.16E-02
100239,6.53E-03,3.11E-02
100240,6.81E-03,3.13E-02
100241,5.64E-03,3.06E-02
100242,6.00E-03,3.08E-02
100243,7.57E-03,3.00E-02
100244,6.25E-03,3.02E-02
100245,7.00E-03,2.95E-02
100246,6.68E-03,2.93E-02
100247,5.92E-03,2.83E-02
100248,5.82E-03,2.86E-02
100249,5.76E-03,2.81E-02
100250,6.39E-03,1.74E-02
100251,4.18E-03,2.73E-02
100252,4.44E-03,2.73E-02
100253,4.58E-03,2.74E-02
100254,4.54E-03,2.69E-02
100255,4.46E-03,2.66E-02
100256,4.56E-03,1.80E-02
100257,5.02E-03,1.74E-02
100258,4.61E-03,1.97E-02
100259,5.06E-03,1.93E-02
100260,5.43E-03,7.26E-03
100261,4.23E-03,7.09E-03
100262,5.30E-03,3.65E-02
100263,7.07E-03,2.47E-02
100264,6.32E-03,2.46E-02
100265,6.68E-03,2.47E-02
100266,5.17E-03,2.44E-02
100267,6.14E-03,2.45E-02
100268,4.29E-03,3.57E-02
100269,4.17E-03,2.70E-02
100270,6.07E-03,2.01E-02
100271,4.73E-03,1.63E-02
100272,5.57E-03,1.65E-02
100273,4.95E-03,3.23E-02
100274,4.87E-03,3.21E-02
100275,5.19E-03,3.14E-02
100276,5.64E-03,3.14E-02
100277,5.35E-03,3.03E-02
100278,5.97E-03,2.87E-02
100279,6.35E-03,2.89E-02
100280,4.22E-03,1.86E-02
100281,5.27E-03,2.75E-02
100282,5.23E-03,2.72E-02
100283,5.36E-03,2.86E-02
100284,4.47E-03,2.72E-02
100285,6.15E-03,2.72E-02
100286,4.14E-03,2.52E-02
100287,3.85E-03,2.55E-02
100288,3.64E-03,2.55E-02
100289,4.58E-03,2.73E-02
100290,4.37E-03,2.70E-02
100291,4.46E-03,1.75E-02
100292,3.90E-03,1.77E-02
100293,4.38E-03,1.83E-02
100294,4.95E-03,1.70E-02
100295,4.59E-03,1.72E-02
100296,4.90E-03,1.89E-02
100297,5.00E-03,7.65E-03
100298,4.89E-03,7.59E-03
100299,5.95E-03,1.93E-02
100300,4.93E-03,1.96E-02
100301,4.45E-03,1.60E-02
100302,4.90E-03,1.61E-02
100303,5.54E-03,2.79E-02
100304,5.00E-03,2.76E-02
100305,5.90E-03,2.55E-02
100306,4.02E-03,2.57E-02
100307,4.09E-03,2.56E-02
100308,4.51E-03,2.71E-02
100309,4.96E-03,1.79E-02
100310,3.99E-03,1.80E-02
100311,3.62E-03,1.79E-02
100312,4.51E-03,2.73E-02
100313,4.56E-03,2.68E-02
100314,4.52E-03,1.77E-02
100315,4.91E-03,1.96E-02
100316,5.43E-03,1.94E-02
100317,5.06E-03,7.37E-03
100318,4.49E-03,7.00E-03
100319,4.67E-03,7.01E-03
100320,4.57E-03,7.00E-03
100321,4.75E-03,7.04E-03
100322,4.66E-03,7.02E-03
100323,4.86E-03,7.06E-03
100324,4.80E-03,7.05E-03
100325,5.05E-03,7.06E-03
100326,4.88E-03,7.07E-03
100327,5.42E-03,7.03E-03
100328,5.22E-03,7.05E-03
100329,5.75E-03,7.03E-03
100330,5.64E-03,7.03E-03
100331,5.51E-03,7.07E-03
100332,5.60E-03,7.04E-03
100333,5.17E-03,7.13E-03
100334,5.36E-03,7.10E-03
100335,4.97E-03,7.23E-03
100336,5.05E-03,7.17E-03
100337,4.81E-03,7.37E-03
100338,4.95E-03,7.30E-03
100339,5.04E-03,7.51E-03
100340,4.95E-03,7.45E-03
100341,4.96E-03,7.55E-03
100342,5.24E-03,7.82E-03
100343,5.65E-03,7.66E-03
100344,4.97E-03,8.04E-03
100345,4.87E-03,7.94E-03
100346,4.91E-03,8.12E-03
100347,5.05E-03,8.09E-03
100348,6.25E-03,8.22E-03
100349,5.04E-03,8.15E-03
100350,6.43E-03,8.34E-03
100351,7.02E-03,8.26E-03
100352,6.29E-03,8.47E-03
100353,5.59E-03,9.32E-03
100354,4.37E-03,9.17E-03
100355,5.18E-03,9.25E-03
100356,5.15E-03,9.39E-03
100357,5.48E-03,9.37E-03
100358,4.26E-03,9.48E-03
100359,4.30E-03,9.41E-03
100360,5.67E-03,9.62E-03
100361,5.38E-03,9.55E-03
100362,6.02E-03,9.84E-03
100363,5.81E-03,9.72E-03
100364,4.89E-03,1.03E-02
100365,4.90E-03,1.02E-02
100366,4.51E-03,1.06E-02
100367,4.56E-03,1.05E-02
100368,4.82E-03,1.08E-02
100369,4.63E-03,1.07E-02
100370,4.85E-03,1.10E-02
100371,4.75E-03,1.09E-02
100372,5.53E-03,1.14E-02
100373,5.19E-03,1.13E-02
100374,5.46E-03,1.17E-02
100375,5.64E-03,1.15E-02
100376,5.37E-03,1.21E-02
100377,5.32E-03,1.19E-02
100378,5.35E-03,1.25E-02
100379,5.34E-03,1.23E-02
100380,5.40E-03,1.30E-02
100381,5.38E-03,1.28E-02
100382,5.07E-03,1.35E-02
100383,5.29E-03,1.33E-02
100384,4.83E-03,1.41E-02
100385,4.96E-03,1.38E-02
100386,4.91E-03,1.50E-02
100387,4.87E-03,1.45E-02
100388,4.92E-03,1.58E-02
100389,5.00E-03,1.54E-02
100390,4.15E-03,1.65E-02
100391,4.70E-03,1.62E-02
100392,4.78E-03,1.77E-02
100393,4.40E-03,1.71E-02
100394,5.77E-03,1.83E-02
100395,5.44E-03,1.80E-02
100396,6.65E-03,1.89E-02
100397,5.84E-03,1.86E-02
100398,6.50E-03,1.97E-02
100399,7.32E-03,1.92E-02
100400,6.10E-03,2.07E-02
100401,6.19E-03,2.01E-02
100402,6.04E-03,2.17E-02
100403,6.03E-03,2.12E-02
100404,6.13E-03,2.26E-02
100405,6.04E-03,2.22E-02
100406,5.87E-03,2.34E-02
100407,6.40E-03,2.31E-02
100408,5.40E-03,2.42E-02
100409,4.94E-03,2.40E-02
100410,5.87E-03,2.47E-02
100411,5.64E-03,2.44E-02
100412,6.52E-03,2.53E-02
100413,6.20E-03,2.50E-02
100414,6.20E-03,2.59E-02
100415,6.55E-03,2.55E-02
100416,5.30E-03,2.66E-02
100417,5.59E-03,2.63E-02
100418,5.01E-03,2.75E-02
100419,5.06E-03,2.71E-02
100420,5.28E-03,2.81E-02
100421,5.17E-03,2.78E-02
100422,5.43E-03,2.87E-02
100423,5.37E-03,2.84E-02
100424,5.47E-03,2.93E-02
100425,5.52E-03,2.90E-02
100426,5.52E-03,2.99E-02
100427,5.49E-03,2.96E-02
100428,5.74E-03,3.05E-02
100429,5.59E-03,3.02E-02
100430,5.99E-03,3.11E-02
100431,5.92E-03,3.07E-02
100432,5.98E-03,3.18E-02
100433,5.91E-03,3.14E-02
100434,6.10E-03,3.25E-02
100435,6.04E-03,3.21E-02
100436,6.12E-03,3.30E-02
100437,6.13E-03,3.27E-02
100438,5.93E-03,3.36E-02
100439,5.97E-03,3.33E-02
100440,5.84E-03,3.42E-02
100441,5.85E-03,3.39E-02
100442,5.84E-03,3.47E-02
100443,5.82E-03,3.45E-02
100444,5.77E-03,3.53E-02
100445,5.77E-03,3.50E-02
100446,5.70E-03,3.60E-02
100447,5.70E-03,3.56E-02
100448,5.63E-03,3.66E-02
100449,5.63E-03,3.63E-02
100450,5.44E-03,3.71E-02
100451,5.55E-03,3.69E-02
100452,5.40E-03,3.73E-02
100453,5.38E-03,3.72E-02
100454,5.55E-03,3.73E-02
100455,5.44E-03,3.73E-02
100456,5.77E-03,3.75E-02
100457,5.67E-03,3.74E-02
100458,5.78E-03,3.78E-02
100459,5.78E-03,3.76E-02
100460,5.80E-03,3.82E-02
100461,5.82E-03,3.80E-02
100462,5.82E-03,3.83E-02
100463,5.78E-03,3.83E-02
100464,5.86E-03,3.84E-02
100465,5.90E-03,3.84E-02
100466,5.74E-03,3.88E-02
100467,5.80E-03,3.86E-02
100468,5.49E-03,3.94E-02
100469,5.56E-03,3.91E-02
100470,5.19E-03,4.00E-02
100471,5.27E-03,3.97E-02
100472,4.95E-03,4.05E-02
100473,5.07E-03,4.03E-02
100474,5.09E-03,4.06E-02
100475,5.02E-03,4.06E-02
100476,5.48E-03,4.06E-02
100477,5.39E-03,4.06E-02
100478,5.81E-03,4.06E-02
100479,5.59E-03,4.05E-02
100480,5.82E-03,4.08E-02
100481,5.79E-03,4.07E-02
100482,5.77E-03,4.12E-02
100483,5.79E-03,4.10E-02
100484,5.69E-03,4.15E-02
100485,5.68E-03,4.14E-02
100486,5.86E-03,4.14E-02
100487,5.74E-03,4.15E-02
100488,6.00E-03,4.12E-02
100489,5.90E-03,4.13E-02
100490,6.01E-03,4.13E-02
100491,6.06E-03,4.12E-02
100492,5.90E-03,4.15E-02
100493,5.99E-03,4.14E-02
100494,5.76E-03,4.17E-02
100495,5.86E-03,4.16E-02
100496,5.64E-03,4.17E-02
100497,5.73E-03,4.17E-02
100498,5.57E-03,4.15E-02
100499,5.60E-03,4.16E-02
100500,5.47E-03,4.14E-02
100501,5.52E-03,4.14E-02
100502,5.46E-03,4.12E-02
100503,5.49E-03,4.13E-02
100504,5.39E-03,4.11E-02
100505,5.43E-03,4.12E-02
100506,5.33E-03,4.10E-02
100507,5.36E-03,4.10E-02
100508,5.32E-03,4.08E-02
100509,5.29E-03,4.09E-02
100510,5.37E-03,4.07E-02
100511,5.35E-03,4.08E-02
100512,5.40E-03,4.05E-02
100513,5.38E-03,4.06E-02
100514,5.41E-03,4.04E-02
100515,5.37E-03,4.05E-02
100516,5.58E-03,4.04E-02
100517,5.47E-03,4.04E-02
100518,5.67E-03,4.03E-02
100519,5.68E-03,4.03E-02
100520,5.66E-03,4.03E-02
100521,5.66E-03,4.03E-02
100522,5.60E-03,4.03E-02
100523,5.62E-03,4.03E-02
100524,5.69E-03,4.02E-02
100525,5.64E-03,4.02E-02
100526,5.63E-03,4.02E-02
100527,5.64E-03,4.02E-02
100528,5.50E-03,4.03E-02
100529,5.57E-03,4.02E-02
100530,5.42E-03,4.05E-02
100531,5.48E-03,4.04E-02
100532,5.34E-03,4.05E-02
100533,5.36E-03,4.05E-02
100534,5.38E-03,4.04E-02
100535,5.34E-03,4.05E-02
100536,5.47E-03,4.03E-02
100537,5.41E-03,4.03E-02
100538,5.64E-03,4.01E-02
100539,5.54E-03,4.02E-02
100540,5.70E-03,4.00E-02
100541,5.65E-03,4.01E-02
100542,5.76E-03,3.98E-02
100543,5.75E-03,3.99E-02
100544,5.86E-03,3.95E-02
100545,5.78E-03,3.97E-02
100546,5.77E-03,3.94E-02
100547,5.79E-03,3.94E-02
100548,5.68E-03,3.93E-02
100549,5.73E-03,3.93E-02
100550,5.53E-03,3.92E-02
100551,5.66E-03,3.93E-02
100552,5.46E-03,3.89E-02
100553,5.51E-03,3.91E-02
100554,5.53E-03,3.84E-02
100555,5.47E-03,3.86E-02
100556,5.57E-03,3.79E-02
100557,5.57E-03,3.81E-02
100558,5.56E-03,3.74E-02
100559,5.59E-03,3.76E-02
100560,5.45E-03,3.70E-02
100561,5.48E-03,3.72E-02
100562,5.41E-03,3.68E-02
100563,7.09E-03,2.50E-02
100564,7.13E-03,2.53E-02
100565,7.02E-03,2.49E-02
100566,5.43E-03,2.43E-02
100567,7.53E-03,2.42E-02
100568,6.99E-03,2.39E-02
100569,7.16E-03,2.40E-02
100570,7.15E-03,2.35E-02
100571,6.64E-03,2.37E-02
100572,7.38E-03,2.31E-02
100573,8.04E-03,2.32E-02
100574,6.95E-03,2.27E-02
100575,6.54E-03,2.29E-02
100576,8.52E-03,2.22E-02
100577,7.44E-03,2.25E-02
100578,6.31E-03,2.18E-02
100579,6.56E-03,2.14E-02
100580,6.41E-03,2.16E-02
100581,6.76E-03,2.10E-02
100582,6.63E-03,2.12E-02
100583,6.41E-03,2.06E-02
100584,6.50E-03,2.08E-02
100585,6.91E-03,2.01E-02
100586,6.49E-03,2.03E-02
100587,5.52E-03,1.97E-02
100588,6.39E-03,1.99E-02
100589,5.62E-03,1.76E-02
100590,5.77E-03,1.74E-02
100591,5.74E-03,1.72E-02
100592,4.38E-03,1.70E-02
100593,4.16E-03,1.69E-02
100594,4.09E-03,1.71E-02
100595,5.09E-03,3.49E-02
100596,4.97E-03,3.53E-02
100597,5.22E-03,3.41E-02
100598,5.15E-03,3.44E-02
100599,5.33E-03,3.34E-02
100600,5.26E-03,3.37E-02
100601,5.30E-03,3.27E-02
100602,5.31E-03,3.31E-02
100603,5.32E-03,3.21E-02
100604,5.33E-03,3.24E-02
100605,5.37E-03,3.14E-02
100606,5.36E-03,3.18E-02
100607,5.35E-03,3.08E-02
100608,5.34E-03,3.11E-02
100609,5.40E-03,3.02E-02
100610,5.36E-03,3.05E-02
100611,5.40E-03,2.97E-02
100612,5.39E-03,3.00E-02
100613,5.12E-03,2.93E-02
100614,5.37E-03,2.95E-02
100615,5.19E-03,2.89E-02
100616,5.11E-03,2.91E-02
100617,5.34E-03,2.86E-02
100618,5.29E-03,2.87E-02
100619,5.53E-03,2.83E-02
100620,5.44E-03,2.84E-02
100621,5.58E-03,2.79E-02
100622,5.62E-03,2.81E-02
100623,5.45E-03,2.77E-02
100624,7.22E-03,2.69E-02
100625,4.92E-03,2.70E-02
100626,6.39E-03,2.70E-02
100627,5.98E-03,2.67E-02
100628,6.74E-03,2.68E-02
100629,5.89E-03,2.66E-02
100630,5.94E-03,2.67E-02
100631,5.82E-03,2.64E-02
100632,5.92E-03,2.65E-02
100633,5.15E-03,2.64E-02
100634,6.39E-03,2.62E-02
100635,6.02E-03,2.64E-02
100636,5.66E-03,2.50E-02
100637,6.13E-03,2.45E-02
100638,6.83E-03,2.46E-02
100639,5.76E-03,2.42E-02
100640,5.97E-03,2.43E-02
100641,6.83E-03,2.39E-02
100642,6.38E-03,2.41E-02
100643,5.72E-03,2.36E-02
100644,7.41E-03,2.38E-02
100645,6.67E-03,2.33E-02
100646,4.32E-03,2.34E-02
100647,7.30E-03,2.29E-02
100648,7.91E-03,2.32E-02
100649,6.82E-03,2.25E-02
100650,6.20E-03,2.27E-02
100651,7.25E-03,2.21E-02
100652,7.33E-03,2.23E-02
100653,6.62E-03,2.16E-02
100654,7.02E-03,2.18E-02
100655,6.17E-03,2.11E-02
100656,6.47E-03,2.13E-02
100657,6.23E-03,2.06E-02
100658,6.17E-03,2.08E-02
100659,6.33E-03,2.03E-02
100660,6.47E-03,1.87E-02
100661,6.29E-03,1.90E-02
100662,6.40E-03,1.80E-02
100663,6.43E-03,1.83E-02
100664,6.45E-03,1.77E-02
100665,5.83E-03,1.66E-02
100666,5.82E-03,1.65E-02
100667,5.35E-03,1.67E-02
100668,5.59E-03,1.66E-02
100669,4.99E-03,1.70E-02
100670,5.16E-03,1.68E-02
100671,5.11E-03,1.67E-02
100672,5.83E-03,1.69E-02
100673,5.10E-03,7.74E-03
100674,5.01E-03,7.70E-03
100675,5.39E-03,7.82E-03
100676,5.21E-03,7.79E-03
100677,5.74E-03,7.89E-03
100678,5.58E-03,7.86E-03
100679,5.87E-03,7.97E-03
100680,5.84E-03,7.93E-03
100681,5.66E-03,8.09E-03
100682,5.76E-03,8.03E-03
100683,5.50E-03,8.24E-03
100684,5.62E-03,8.16E-03
100685,5.42E-03,8.38E-03
100686,5.38E-03,8.31E-03
100687,5.58E-03,8.49E-03
100688,5.49E-03,8.43E-03
100689,5.71E-03,8.59E-03
100690,5.71E-03,8.55E-03
100691,5.91E-03,8.66E-03
100692,5.73E-03,8.63E-03
100693,5.87E-03,8.69E-03
100694,5.97E-03,8.69E-03
100695,5.73E-03,8.69E-03
100696,5.82E-03,8.69E-03
100697,6.15E-03,8.65E-03
100698,5.85E-03,8.66E-03
100699,6.32E-03,8.70E-03
100700,6.33E-03,8.65E-03
100701,5.89E-03,8.96E-03
100702,6.10E-03,8.82E-03
100703,6.93E-03,9.24E-03
100704,5.65E-03,9.14E-03
100705,6.47E-03,9.58E-03
100706,7.50E-03,9.41E-03
100707,7.00E-03,9.79E-03
100708,6.36E-03,9.71E-03
100709,6.22E-03,9.99E-03
100710,6.89E-03,9.85E-03
100711,6.12E-03,1.03E-02
100712,6.13E-03,1.01E-02
100713,5.95E-03,1.06E-02
100714,6.11E-03,1.04E-02
100715,5.63E-03,1.11E-02
100716,5.80E-03,1.08E-02
100717,5.40E-03,1.15E-02
100718,5.53E-03,1.12E-02
100719,5.58E-03,1.18E-02
100720,5.34E-03,1.17E-02
100721,5.88E-03,1.22E-02
100722,5.80E-03,1.20E-02
100723,5.58E-03,1.26E-02
100724,5.76E-03,1.23E-02
100725,5.44E-03,1.31E-02
100726,5.38E-03,1.29E-02
100727,5.50E-03,1.37E-02
100728,5.48E-03,1.34E-02
100729,5.58E-03,1.43E-02
100730,5.56E-03,1.40E-02
100731,5.49E-03,1.50E-02
100732,5.55E-03,1.46E-02
100733,5.46E-03,1.58E-02
100734,5.53E-03,1.54E-02
100735,5.66E-03,1.65E-02
100736,5.58E-03,1.61E-02
100737,5.82E-03,1.73E-02
100738,5.66E-03,1.69E-02
100739,5.99E-03,1.79E-02
100740,5.93E-03,1.76E-02
100741,5.47E-03,1.84E-02
100742,5.81E-03,1.81E-02
100743,4.61E-03,1.89E-02
100744,4.86E-03,1.86E-02
100745,5.71E-03,1.94E-02
100746,4.63E-03,1.93E-02
100747,5.90E-03,1.99E-02
100748,5.79E-03,1.96E-02
100749,5.82E-03,2.06E-02
100750,5.85E-03,2.03E-02
100751,5.82E-03,2.14E-02
100752,5.77E-03,2.10E-02
100753,5.79E-03,2.21E-02
100754,5.90E-03,2.18E-02
100755,5.55E-03,2.28E-02
100756,5.45E-03,2.25E-02
100757,5.62E-03,2.33E-02
100758,5.52E-03,2.30E-02
100759,5.96E-03,2.39E-02
100760,5.69E-03,2.36E-02
100761,5.63E-03,2.45E-02
100762,5.24E-03,2.41E-02
100763,6.00E-03,2.51E-02
100764,5.60E-03,2.48E-02
100765,5.65E-03,2.57E-02
100766,5.84E-03,2.54E-02
100767,5.59E-03,2.63E-02
100768,5.56E-03,2.60E-02
100769,5.58E-03,2.68E-02
100770,5.59E-03,2.66E-02
100771,5.41E-03,2.72E-02
100772,5.50E-03,2.70E-02
100773,5.25E-03,2.76E-02
100774,5.31E-03,2.74E-02
100775,5.14E-03,2.79E-02
100776,5.17E-03,2.78E-02
100777,5.22E-03,2.82E-02
100778,5.17E-03,2.81E-02
100779,5.27E-03,2.85E-02
100780,5.28E-03,2.84E-02
100781,5.20E-03,2.87E-02
100782,5.26E-03,2.86E-02
100783,5.10E-03,2.90E-02
100784,5.18E-03,2.89E-02
100785,5.10E-03,2.93E-02
100786,5.12E-03,2.91E-02
100787,5.09E-03,2.96E-02
100788,5.12E-03,2.95E-02
100789,5.08E-03,2.99E-02
100790,5.10E-03,2.98E-02
100791,5.23E-03,3.03E-02
100792,5.13E-03,3.01E-02
100793,5.40E-03,3.07E-02
100794,5.28E-03,3.05E-02
100795,5.50E-03,3.11E-02
100796,5.43E-03,3.09E-02
100797,5.51E-03,3.15E-02
100798,5.53E-03,3.13E-02
100799,5.53E-03,3.19E-02
100800,5.50E-03,3.17E-02
100801,5.54E-03,3.23E-02
100802,5.54E-03,3.21E-02
100803,5.42E-03,3.27E-02
100804,5.50E-03,3.25E-02
100805,5.38E-03,3.30E-02
100806,5.39E-03,3.28E-02
100807,5.46E-03,3.32E-02
100808,5.42E-03,3.31E-02
100809,5.61E-03,3.35E-02
100810,5.57E-03,3.33E-02
100811,5.62E-03,3.37E-02
100812,5.58E-03,3.36E-02
100813,5.70E-03,3.40E-02
100814,5.67E-03,3.39E-02
100815,5.61E-03,3.43E-02
100816,5.67E-03,3.41E-02
100817,5.55E-03,3.46E-02
100818,5.54E-03,3.45E-02
100819,5.53E-03,3.50E-02
100820,5.54E-03,3.48E-02
100821,5.64E-03,3.53E-02
100822,5.60E-03,3.51E-02
100823,5.71E-03,3.55E-02
100824,5.70E-03,3.54E-02
100825,5.67E-03,3.57E-02
100826,5.75E-03,3.56E-02
100827,5.60E-03,3.58E-02
100828,5.63E-03,3.58E-02
100829,5.54E-03,3.58E-02
100830,5.59E-03,3.58E-02
100831,5.62E-03,3.58E-02
100832,5.57E-03,3.58E-02
100833,5.59E-03,3.57E-02
100834,5.57E-03,3.58E-02
100835,5.55E-03,3.56E-02
100836,5.58E-03,3.57E-02
100837,5.48E-03,3.56E-02
100838,5.53E-03,3.56E-02
100839,5.63E-03,3.55E-02
100840,5.53E-03,3.55E-02
100841,5.76E-03,3.54E-02
100842,5.74E-03,3.55E-02
100843,5.72E-03,3.54E-02
100844,5.77E-03,3.54E-02
100845,5.61E-03,3.54E-02
100846,5.66E-03,3.54E-02
100847,5.65E-03,3.55E-02
100848,5.65E-03,3.54E-02
100849,5.68E-03,3.55E-02
100850,5.70E-03,3.55E-02
100851,5.79E-03,3.55E-02
100852,5.76E-03,3.55E-02
100853,5.85E-03,3.55E-02
100854,5.84E-03,3.55E-02
100855,5.82E-03,3.54E-02
100856,5.85E-03,3.55E-02
100857,5.70E-03,3.53E-02
100858,5.73E-03,3.54E-02
100859,5.68E-03,3.52E-02
100860,5.70E-03,3.53E-02
100861,5.58E-03,3.50E-02
100862,5.60E-03,3.51E-02
100863,5.70E-03,3.48E-02
100864,5.65E-03,3.50E-02
100865,5.70E-03,3.46E-02
100866,5.68E-03,3.47E-02
100867,5.63E-03,3.44E-02
100868,5.63E-03,3.45E-02
100869,5.58E-03,3.41E-02
100870,5.59E-03,3.42E-02
100871,5.58E-03,3.38E-02
100872,5.60E-03,3.40E-02
100873,5.54E-03,3.36E-02
100874,5.53E-03,3.37E-02
100875,5.46E-03,3.33E-02
100876,5.52E-03,3.35E-02
100877,5.39E-03,3.31E-02
100878,5.46E-03,3.32E-02
100879,5.27E-03,3.28E-02
100880,5.36E-03,3.29E-02
100881,5.17E-03,3.25E-02
100882,5.26E-03,3.26E-02
100883,5.02E-03,3.24E-02
100884,4.70E-03,3.18E-02
100885,4.81E-03,3.20E-02
100886,4.74E-03,3.19E-02
100887,4.60E-03,3.17E-02
100888,4.59E-03,3.18E-02
100889,4.82E-03,3.15E-02
100890,4.75E-03,3.16E-02
100891,4.99E-03,3.15E-02
100892,5.71E-03,3.14E-02
100893,5.77E-03,3.14E-02
100894,5.56E-03,3.15E-02
100895,5.59E-03,3.15E-02
100896,5.63E-03,3.16E-02
100897,5.59E-03,3.15E-02
100898,5.80E-03,3.16E-02
100899,5.72E-03,3.16E-02
100900,5.97E-03,3.17E-02
100901,5.89E-03,3.16E-02
100902,6.91E-03,3.17E-02
100903,5.94E-03,3.17E-02
100904,6.89E-03,3.17E-02
100905,7.42E-03,3.18E-02
100906,6.80E-03,3.16E-02
100907,6.73E-03,3.16E-02
100908,7.43E-03,3.14E-02
100909,6.84E-03,3.15E-02
100910,6.82E-03,3.11E-02
100911,7.44E-03,3.13E-02
100912,6.35E-03,3.08E-02
100913,6.62E-03,3.10E-02
100914,4.99E-03,3.04E-02
100915,6.07E-03,3.06E-02
100916,7.48E-03,2.98E-02
100917,6.30E-03,3.01E-02
100918,6.92E-03,2.94E-02
100919,7.30E-03,2.96E-02
100920,6.55E-03,2.92E-02
100921,5.94E-03,2.83E-02
100922,5.71E-03,2.85E-02
100923,6.14E-03,2.81E-02
100924,4.42E-03,1.86E-02
100925,5.98E-03,7.10E-03
100926,5.20E-03,6.99E-03
100927,6.13E-03,2.70E-02
100928,3.88E-03,2.71E-02
100929,3.91E-03,2.70E-02
100930,5.15E-03,2.70E-02
100931,5.24E-03,2.51E-02
100932,4.01E-03,2.54E-02
100933,4.52E-03,2.71E-02
100934,4.62E-03,2.72E-02
100935,4.78E-03,2.68E-02
100936,4.98E-03,2.66E-02
100937,5.43E-03,1.70E-02
100938,3.65E-03,1.75E-02
100939,4.55E-03,1.81E-02
100940,4.61E-03,1.75E-02
100941,5.79E-03,1.91E-02
100942,6.00E-03,7.20E-03
100943,4.34E-03,7.54E-03
100944,4.82E-03,7.43E-03
100945,5.46E-03,8.94E-03
100946,4.28E-03,9.02E-03
100947,5.39E-03,3.71E-02
100948,4.21E-03,2.58E-02
100949,3.49E-03,2.59E-02
100950,4.24E-03,2.60E-02
100951,5.30E-03,1.94E-02
100952,5.47E-03,1.95E-02
100953,3.31E-03,1.81E-02
100954,4.19E-03,1.83E-02
100955,5.42E-03,1.82E-02
100956,6.16E-03,1.70E-02
100957,5.23E-03,1.97E-02
100958,5.29E-03,1.61E-02
100959,4.98E-03,7.65E-03
100960,5.13E-03,3.10E-02
100961,5.96E-03,3.10E-02
100962,5.12E-03,3.01E-02
100963,5.88E-03,2.88E-02
100964,6.68E-03,2.74E-02
100965,5.14E-03,1.68E-02
100966,5.01E-03,1.71E-02
100967,3.73E-03,2.61E-02
100968,4.76E-03,2.67E-02
100969,3.87E-03,2.56E-02
100970,4.38E-03,2.70E-02
100971,4.62E-03,2.71E-02
100972,4.67E-03,2.69E-02
100973,6.08E-03,2.61E-02
100974,5.76E-03,2.63E-02
100975,3.57E-03,1.77E-02
100976,4.40E-03,1.83E-02
100977,4.88E-03,1.73E-02
100978,4.77E-03,1.87E-02
100979,5.50E-03,6.98E-03
100980,5.56E-03,7.07E-03
100981,4.45E-03,7.50E-03
100982,4.62E-03,3.60E-02
100983,4.65E-03,3.65E-02
100984,5.78E-03,1.65E-02
100985,4.36E-03,1.64E-02
100986,6.95E-03,2.68E-02
100987,6.72E-03,2.68E-02
100988,4.00E-03,2.68E-02
100989,3.33E-03,2.58E-02
100990,3.85E-03,1.80E-02
100991,3.56E-03,1.83E-02
100992,5.02E-03,2.52E-02
100993,4.33E-03,2.53E-02
100994,4.60E-03,2.72E-02
100995,5.05E-03,2.67E-02
100996,3.81E-03,1.73E-02
100997,4.67E-03,1.78E-02
100998,6.19E-03,1.92E-02
100999,5.27E-03,7.32E-03
101000,5.12E-03,6.91E-03
101001,5.43E-03,6.90E-03
101002,5.26E-03,6.90E-03
101003,4.88E-03,6.89E-03
101004,5.10E-03,6.90E-03
101005,4.87E-03,6.91E-03
101006,4.84E-03,6.90E-03
101007,4.95E-03,6.93E-03
101008,4.91E-03,6.93E-03
101009,5.16E-03,6.92E-03
101010,5.07E-03,6.93E-03
101011,5.43E-03,6.86E-03
101012,5.31E-03,6.90E-03
101013,5.60E-03,6.82E-03
101014,5.53E-03,6.83E-03
101015,5.48E-03,6.85E-03
101016,5.56E-03,6.83E-03
101017,5.25E-03,6.92E-03
101018,5.35E-03,6.89E-03
101019,5.09E-03,7.00E-03
101020,5.20E-03,6.96E-03
101021,4.94E-03,7.07E-03
101022,4.97E-03,7.03E-03
101023,4.81E-03,7.16E-03
101024,4.95E-03,7.11E-03
101025,4.30E-03,7.32E-03
101026,4.34E-03,7.19E-03
101027,4.98E-03,7.56E-03
101028,4.49E-03,7.42E-03
101029,5.04E-03,7.85E-03
101030,5.02E-03,7.71E-03
101031,5.21E-03,8.04E-03
101032,5.07E-03,7.96E-03
101033,5.88E-03,8.11E-03
101034,5.49E-03,8.08E-03
101035,6.23E-03,8.19E-03
101036,6.20E-03,8.12E-03
101037,6.05E-03,8.53E-03
101038,6.12E-03,8.33E-03
101039,6.46E-03,8.77E-03
101040,4.97E-03,9.12E-03
101041,4.20E-03,9.08E-03
101042,4.60E-03,9.11E-03
101043,5.03E-03,9.16E-03
101044,5.18E-03,9.14E-03
101045,4.89E-03,9.32E-03
101046,4.79E-03,9.23E-03
101047,5.56E-03,9.43E-03
101048,5.22E-03,9.37E-03
101049,5.76E-03,9.62E-03
101050,5.70E-03,9.51E-03
101051,5.57E-03,9.86E-03
101052,5.73E-03,9.73E-03
101053,5.00E-03,1.01E-02
101054,5.25E-03,9.99E-03
101055,4.78E-03,1.04E-02
101056,4.89E-03,1.03E-02
101057,4.86E-03,1.06E-02
101058,4.86E-03,1.05E-02
101059,5.04E-03,1.08E-02
101060,4.96E-03,1.07E-02
101061,5.38E-03,1.11E-02
101062,5.22E-03,1.10E-02
101063,5.45E-03,1.14E-02
101064,5.49E-03,1.13E-02
101065,5.42E-03,1.18E-02
101066,5.40E-03,1.16E-02
101067,5.34E-03,1.22E-02
101068,5.38E-03,1.20E-02
101069,5.32E-03,1.27E-02
101070,5.30E-03,1.25E-02
101071,5.15E-03,1.31E-02
101072,5.19E-03,1.29E-02
101073,4.98E-03,1.37E-02
101074,5.08E-03,1.34E-02
101075,4.98E-03,1.44E-02
101076,4.96E-03,1.40E-02
101077,4.88E-03,1.53E-02
101078,4.96E-03,1.48E-02
101079,4.66E-03,1.63E-02
101080,4.74E-03,1.57E-02
101081,5.04E-03,1.75E-02
101082,4.82E-03,1.69E-02
101083,5.59E-03,1.84E-02
101084,5.38E-03,1.80E-02
101085,6.25E-03,1.91E-02
101086,5.97E-03,1.87E-02
101087,6.37E-03,1.98E-02
101088,6.62E-03,1.94E-02
101089,6.08E-03,2.10E-02
101090,6.16E-03,2.04E-02
101091,6.02E-03,2.22E-02
101092,6.05E-03,2.16E-02
101093,6.02E-03,2.32E-02
101094,6.03E-03,2.27E-02
101095,5.73E-03,2.39E-02
101096,5.99E-03,2.36E-02
101097,5.44E-03,2.47E-02
101098,5.62E-03,2.43E-02
101099,5.75E-03,2.51E-02
101100,5.61E-03,2.49E-02
101101,6.13E-03,2.56E-02
101102,6.06E-03,2.53E-02
101103,5.96E-03,2.61E-02
101104,6.06E-03,2.58E-02
101105,5.44E-03,2.69E-02
101106,5.62E-03,2.65E-02
101107,5.20E-03,2.77E-02
101108,5.31E-03,2.73E-02
101109,5.27E-03,2.83E-02
101110,5.25E-03,2.80E-02
101111,5.37E-03,2.89E-02
101112,5.33E-03,2.86E-02
101113,5.46E-03,2.95E-02
101114,5.45E-03,2.92E-02
101115,5.58E-03,3.01E-02
101116,5.50E-03,2.98E-02
101117,5.69E-03,3.09E-02
101118,5.65E-03,3.05E-02
101119,5.83E-03,3.16E-02
101120,5.76E-03,3.12E-02
101121,5.88E-03,3.24E-02
101122,5.87E-03,3.20E-02
101123,5.99E-03,3.32E-02
101124,5.92E-03,3.28E-02
101125,6.01E-03,3.38E-02
101126,6.01E-03,3.35E-02
101127,5.88E-03,3.43E-02
101128,5.92E-03,3.41E-02
101129,5.85E-03,3.49E-02
101130,5.84E-03,3.46E-02
101131,5.86E-03,3.55E-02
101132,5.85E-03,3.52E-02
101133,5.75E-03,3.60E-02
101134,5.78E-03,3.58E-02
101135,5.66E-03,3.66E-02
101136,5.70E-03,3.63E-02
101137,5.59E-03,3.72E-02
101138,5.61E-03,3.69E-02
101139,5.48E-03,3.77E-02
101140,5.50E-03,3.75E-02
101141,5.46E-03,3.79E-02
101142,5.44E-03,3.79E-02
101143,5.55E-03,3.79E-02
101144,5.49E-03,3.79E-02
101145,5.68E-03,3.81E-02
101146,5.63E-03,3.79E-02
101147,5.74E-03,3.86E-02
101148,5.75E-03,3.83E-02
101149,5.77E-03,3.90E-02
101150,5.74E-03,3.88E-02
101151,5.73E-03,3.91E-02
101152,5.75E-03,3.91E-02
101153,5.83E-03,3.90E-02
101154,5.77E-03,3.91E-02
101155,5.67E-03,3.93E-02
101156,5.79E-03,3.91E-02
101157,5.50E-03,3.98E-02
101158,5.61E-03,3.95E-02
101159,5.27E-03,4.05E-02
101160,5.34E-03,4.02E-02
101161,5.06E-03,4.10E-02
101162,5.18E-03,4.08E-02
101163,5.13E-03,4.10E-02
101164,5.13E-03,4.10E-02
101165,5.44E-03,4.10E-02
101166,5.38E-03,4.10E-02
101167,5.73E-03,4.11E-02
101168,5.59E-03,4.10E-02
101169,5.82E-03,4.15E-02
101170,5.78E-03,4.12E-02
101171,5.77E-03,4.20E-02
101172,5.85E-03,4.17E-02
101173,5.77E-03,4.25E-02
101174,5.73E-03,4.23E-02
101175,5.84E-03,4.25E-02
101176,5.77E-03,4.26E-02
101177,5.99E-03,4.22E-02
101178,5.87E-03,4.23E-02
101179,5.95E-03,4.22E-02
101180,6.01E-03,4.22E-02
101181,5.89E-03,4.25E-02
101182,5.92E-03,4.24E-02
101183,5.77E-03,4.27E-02
101184,5.80E-03,4.27E-02
101185,5.63E-03,4.24E-02
101186,5.72E-03,4.26E-02
101187,5.58E-03,4.20E-02
101188,5.60E-03,4.22E-02
101189,5.54E-03,4.19E-02
101190,5.58E-03,4.19E-02
101191,5.50E-03,4.17E-02
101192,5.50E-03,4.18E-02
101193,5.42E-03,4.14E-02
101194,5.45E-03,4.15E-02
101195,5.30E-03,4.12E-02
101196,5.35E-03,4.13E-02
101197,5.32E-03,4.11E-02
101198,5.29E-03,4.12E-02
101199,5.33E-03,4.10E-02
101200,5.32E-03,4.11E-02
101201,5.38E-03,4.08E-02
101202,5.38E-03,4.09E-02
101203,5.44E-03,4.07E-02
101204,5.38E-03,4.08E-02
101205,5.58E-03,4.07E-02
101206,5.47E-03,4.07E-02
101207,5.69E-03,4.08E-02
101208,5.70E-03,4.08E-02
101209,5.66E-03,4.08E-02
101210,5.66E-03,4.08E-02
101211,5.61E-03,4.08E-02
101212,5.64E-03,4.08E-02
101213,5.67E-03,4.07E-02
101214,5.66E-03,4.08E-02
101215,5.63E-03,4.07E-02
101216,5.68E-03,4.07E-02
101217,5.53E-03,4.07E-02
101218,5.54E-03,4.07E-02
101219,5.40E-03,4.10E-02
101220,5.49E-03,4.09E-02
101221,5.35E-03,4.11E-02
101222,5.36E-03,4.10E-02
101223,5.38E-03,4.09E-02
101224,5.34E-03,4.10E-02
101225,5.45E-03,4.07E-02
101226,5.39E-03,4.08E-02
101227,5.63E-03,4.07E-02
101228,5.53E-03,4.07E-02
101229,5.67E-03,4.07E-02
101230,5.63E-03,4.07E-02
101231,5.78E-03,4.06E-02
101232,5.73E-03,4.07E-02
101233,5.83E-03,4.02E-02
101234,5.82E-03,4.04E-02
101235,5.76E-03,4.00E-02
101236,5.81E-03,4.01E-02
101237,5.69E-03,4.01E-02
101238,5.73E-03,4.01E-02
101239,5.56E-03,4.00E-02
101240,5.64E-03,4.01E-02
101241,5.45E-03,3.97E-02
101242,5.48E-03,3.99E-02
101243,5.56E-03,3.91E-02
101244,5.55E-03,3.94E-02
101245,5.62E-03,3.85E-02
101246,5.62E-03,3.88E-02
101247,5.63E-03,3.81E-02
101248,5.63E-03,3.83E-02
101249,5.52E-03,3.76E-02
101250,5.54E-03,3.79E-02
101251,5.46E-03,3.74E-02
101252,7.87E-03,2.56E-02
101253,6.18E-03,2.58E-02
101254,7.10E-03,2.51E-02
101255,7.74E-03,2.53E-02
101256,6.95E-03,2.48E-02
101257,6.95E-03,2.50E-02
101258,7.91E-03,2.43E-02
101259,7.78E-03,2.45E-02
101260,6.88E-03,2.40E-02
101261,7.09E-03,2.41E-02
101262,6.90E-03,2.36E-02
101263,7.00E-03,2.38E-02
101264,6.78E-03,2.32E-02
101265,6.99E-03,2.34E-02
101266,6.85E-03,2.28E-02
101267,6.73E-03,2.30E-02
101268,7.39E-03,2.24E-02
101269,7.11E-03,2.26E-02
101270,6.79E-03,2.20E-02
101271,6.99E-03,2.22E-02
101272,6.47E-03,2.16E-02
101273,6.46E-03,2.18E-02
101274,6.47E-03,2.11E-02
101275,6.48E-03,2.13E-02
101276,6.30E-03,2.07E-02
101277,6.41E-03,2.09E-02
101278,6.27E-03,2.03E-02
101279,6.34E-03,2.05E-02
101280,5.79E-03,1.99E-02
101281,6.02E-03,2.01E-02
101282,5.47E-03,1.93E-02
101283,5.48E-03,1.95E-02
101284,5.53E-03,1.97E-02
101285,5.49E-03,1.79E-02
101286,5.30E-03,1.80E-02
101287,5.36E-03,1.75E-02
101288,5.59E-03,1.76E-02
101289,5.46E-03,1.72E-02
101290,5.34E-03,1.67E-02
101291,6.18E-03,1.68E-02
101292,5.00E-03,3.51E-02
101293,4.82E-03,3.55E-02
101294,5.15E-03,3.43E-02
101295,5.12E-03,3.47E-02
101296,5.35E-03,3.36E-02
101297,5.26E-03,3.40E-02
101298,5.36E-03,3.29E-02
101299,5.37E-03,3.33E-02
101300,5.40E-03,3.23E-02
101301,5.37E-03,3.26E-02
101302,5.37E-03,3.16E-02
101303,5.38E-03,3.19E-02
101304,5.33E-03,3.09E-02
101305,5.33E-03,3.12E-02
101306,5.35E-03,3.03E-02
101307,5.35E-03,3.06E-02
101308,5.32E-03,2.97E-02
101309,5.31E-03,3.00E-02
101310,5.18E-03,2.93E-02
101311,5.32E-03,2.95E-02
101312,5.24E-03,2.90E-02
101313,5.18E-03,2.91E-02
101314,5.35E-03,2.86E-02
101315,5.30E-03,2.88E-02
101316,5.50E-03,2.83E-02
101317,5.38E-03,2.85E-02
101318,5.53E-03,2.79E-02
101319,5.57E-03,2.81E-02
101320,5.52E-03,2.75E-02
101321,5.51E-03,2.77E-02
101322,5.77E-03,2.70E-02
101323,5.57E-03,2.73E-02
101324,6.54E-03,2.67E-02
101325,6.48E-03,2.68E-02
101326,6.34E-03,2.66E-02
101327,6.55E-03,2.66E-02
101328,6.10E-03,2.64E-02
101329,6.16E-03,2.65E-02
101330,6.26E-03,2.63E-02
101331,6.10E-03,2.63E-02
101332,7.17E-03,2.61E-02
101333,7.00E-03,2.62E-02
101334,6.17E-03,2.58E-02
101335,6.43E-03,2.60E-02
101336,6.29E-03,2.49E-02
101337,5.44E-03,2.53E-02
101338,6.45E-03,2.51E-02
101339,6.06E-03,2.50E-02
101340,6.74E-03,2.47E-02
101341,6.57E-03,2.48E-02
101342,6.37E-03,2.44E-02
101343,6.65E-03,2.45E-02
101344,6.21E-03,2.41E-02
101345,6.14E-03,2.42E-02
101346,6.35E-03,2.38E-02
101347,6.33E-03,2.40E-02
101348,5.88E-03,2.35E-02
101349,6.27E-03,2.36E-02
101350,6.50E-03,2.32E-02
101351,5.99E-03,2.33E-02
101352,6.73E-03,2.28E-02
101353,6.76E-03,2.30E-02
101354,6.74E-03,2.24E-02
101355,6.86E-03,2.26E-02
101356,6.99E-03,2.20E-02
101357,6.93E-03,2.22E-02
101358,6.69E-03,2.15E-02
101359,6.90E-03,2.17E-02
101360,6.40E-03,2.10E-02
101361,6.58E-03,2.12E-02
101362,6.48E-03,2.05E-02
101363,6.41E-03,2.07E-02
101364,7.05E-03,1.99E-02
101365,6.56E-03,2.02E-02
101366,6.17E-03,1.92E-02
101367,5.65E-03,1.95E-02
101368,6.47E-03,1.86E-02
101369,6.36E-03,1.89E-02
101370,6.61E-03,1.79E-02
101371,6.52E-03,1.83E-02
101372,6.68E-03,1.76E-02
101373,5.71E-03,1.63E-02
101374,5.62E-03,1.62E-02
101375,5.41E-03,1.64E-02
101376,5.53E-03,1.63E-02
101377,5.19E-03,1.65E-02
101378,5.28E-03,1.64E-02
101379,5.11E-03,1.68E-02
101380,5.08E-03,1.65E-02
101381,5.13E-03,1.65E-02
101382,4.83E-03,1.65E-02
101383,4.62E-03,1.65E-02
101384,4.97E-03,1.65E-02
101385,5.06E-03,1.65E-02
101386,4.01E-03,1.69E-02
101387,4.36E-03,1.65E-02
101388,5.90E-03,1.67E-02
101389,5.09E-03,1.67E-02
101390,5.69E-03,1.67E-02
101391,5.89E-03,1.67E-02
101392,5.26E-03,1.66E-02
101393,5.38E-03,1.66E-02
101394,5.81E-03,1.66E-02
101395,5.07E-03,7.77E-03
101396,5.01E-03,7.72E-03
101397,5.24E-03,7.87E-03
101398,5.12E-03,7.82E-03
101399,5.44E-03,7.96E-03
101400,5.32E-03,7.92E-03
101401,5.70E-03,8.05E-03
101402,5.58E-03,8.01E-03
101403,5.73E-03,8.15E-03
101404,5.81E-03,8.10E-03
101405,5.66E-03,8.27E-03
101406,5.72E-03,8.21E-03
101407,5.51E-03,8.41E-03
101408,5.57E-03,8.34E-03
101409,5.44E-03,8.54E-03
101410,5.47E-03,8.48E-03
101411,5.55E-03,8.66E-03
101412,5.51E-03,8.61E-03
101413,5.71E-03,8.76E-03
101414,5.66E-03,8.72E-03
101415,5.78E-03,8.83E-03
101416,5.73E-03,8.80E-03
101417,5.80E-03,8.86E-03
101418,5.83E-03,8.85E-03
101419,5.84E-03,8.85E-03
101420,5.82E-03,8.86E-03
101421,6.04E-03,8.84E-03
101422,5.92E-03,8.84E-03
101423,6.12E-03,8.91E-03
101424,6.07E-03,8.87E-03
101425,6.05E-03,9.13E-03
101426,6.13E-03,9.00E-03
101427,6.41E-03,9.41E-03
101428,6.24E-03,9.26E-03
101429,6.53E-03,9.70E-03
101430,6.59E-03,9.56E-03
101431,6.65E-03,9.96E-03
101432,6.48E-03,9.84E-03
101433,6.36E-03,1.02E-02
101434,6.51E-03,1.01E-02
101435,6.12E-03,1.05E-02
101436,6.22E-03,1.03E-02
101437,5.90E-03,1.08E-02
101438,5.98E-03,1.07E-02
101439,5.64E-03,1.12E-02
101440,5.77E-03,1.10E-02
101441,5.47E-03,1.16E-02
101442,5.50E-03,1.14E-02
101443,5.59E-03,1.20E-02
101444,5.50E-03,1.18E-02
101445,5.77E-03,1.24E-02
101446,5.69E-03,1.22E-02
101447,5.63E-03,1.28E-02
101448,5.74E-03,1.26E-02
101449,5.50E-03,1.34E-02
101450,5.55E-03,1.31E-02
101451,5.59E-03,1.39E-02
101452,5.53E-03,1.36E-02
101453,5.56E-03,1.45E-02
101454,5.58E-03,1.42E-02
101455,5.55E-03,1.52E-02
101456,5.57E-03,1.49E-02
101457,5.50E-03,1.60E-02
101458,5.52E-03,1.56E-02
101459,5.60E-03,1.67E-02
101460,5.48E-03,1.63E-02
101461,5.74E-03,1.73E-02
101462,5.69E-03,1.70E-02
101463,5.81E-03,1.79E-02
101464,5.78E-03,1.76E-02
101465,5.50E-03,1.84E-02
101466,5.67E-03,1.81E-02
101467,5.28E-03,1.89E-02
101468,5.28E-03,1.86E-02
101469,5.42E-03,1.94E-02
101470,5.16E-03,1.92E-02
101471,5.74E-03,1.99E-02
101472,5.63E-03,1.96E-02
101473,5.77E-03,2.05E-02
101474,5.76E-03,2.01E-02
101475,5.78E-03,2.12E-02
101476,5.77E-03,2.08E-02
101477,5.70E-03,2.18E-02
101478,5.78E-03,2.15E-02
101479,5.68E-03,2.25E-02
101480,5.68E-03,2.21E-02
101481,5.64E-03,2.31E-02
101482,5.59E-03,2.28E-02
101483,5.63E-03,2.36E-02
101484,5.68E-03,2.33E-02
101485,5.70E-03,2.42E-02
101486,5.67E-03,2.39E-02
101487,5.79E-03,2.48E-02
101488,5.76E-03,2.45E-02
101489,5.70E-03,2.54E-02
101490,5.79E-03,2.51E-02
101491,5.62E-03,2.60E-02
101492,5.60E-03,2.57E-02
101493,5.54E-03,2.65E-02
101494,5.59E-03,2.62E-02
101495,5.42E-03,2.69E-02
101496,5.49E-03,2.67E-02
101497,5.30E-03,2.73E-02
101498,5.38E-03,2.71E-02
101499,5.24E-03,2.76E-02
101500,5.25E-03,2.74E-02
101501,5.27E-03,2.79E-02
101502,5.24E-03,2.77E-02
101503,5.27E-03,2.81E-02
101504,5.29E-03,2.80E-02
101505,5.23E-03,2.84E-02
101506,5.24E-03,2.82E-02
101507,5.17E-03,2.86E-02
101508,5.21E-03,2.85E-02
101509,5.22E-03,2.89E-02
101510,5.21E-03,2.87E-02
101511,5.26E-03,2.92E-02
101512,5.23E-03,2.90E-02
101513,5.17E-03,2.95E-02
101514,5.22E-03,2.93E-02
101515,5.29E-03,2.99E-02
101516,5.21E-03,2.97E-02
101517,5.44E-03,3.02E-02
101518,5.35E-03,3.00E-02
101519,5.52E-03,3.06E-02
101520,5.44E-03,3.04E-02
101521,5.47E-03,3.10E-02
101522,5.50E-03,3.08E-02
101523,5.48E-03,3.14E-02
101524,5.47E-03,3.12E-02
101525,5.50E-03,3.18E-02
101526,5.50E-03,3.16E-02
101527,5.48E-03,3.21E-02
101528,5.55E-03,3.20E-02
101529,5.50E-03,3.24E-02
101530,5.49E-03,3.23E-02
101531,5.48E-03,3.27E-02
101532,5.51E-03,3.26E-02
101533,5.55E-03,3.29E-02
101534,5.53E-03,3.28E-02
101535,5.60E-03,3.32E-02
101536,5.56E-03,3.31E-02
101537,5.67E-03,3.35E-02
101538,5.64E-03,3.33E-02
101539,5.62E-03,3.38E-02
101540,5.67E-03,3.36E-02
101541,5.56E-03,3.41E-02
101542,5.55E-03,3.39E-02
101543,5.61E-03,3.44E-02
101544,5.56E-03,3.43E-02
101545,5.71E-03,3.47E-02
101546,5.72E-03,3.46E-02
101547,5.77E-03,3.49E-02
101548,5.73E-03,3.48E-02
101549,5.66E-03,3.51E-02
101550,5.72E-03,3.50E-02
101551,5.61E-03,3.52E-02
101552,5.62E-03,3.52E-02
101553,5.63E-03,3.52E-02
101554,5.60E-03,3.52E-02
101555,5.65E-03,3.52E-02
101556,5.63E-03,3.52E-02
101557,5.58E-03,3.51E-02
101558,5.58E-03,3.52E-02
101559,5.60E-03,3.51E-02
101560,5.61E-03,3.51E-02
101561,5.57E-03,3.50E-02
101562,5.55E-03,3.50E-02
101563,5.65E-03,3.49E-02
101564,5.57E-03,3.50E-02
101565,5.72E-03,3.49E-02
101566,5.72E-03,3.49E-02
101567,5.72E-03,3.49E-02
101568,5.74E-03,3.49E-02
101569,5.66E-03,3.49E-02
101570,5.67E-03,3.49E-02
101571,5.65E-03,3.49E-02
101572,5.63E-03,3.49E-02
101573,5.68E-03,3.49E-02
101574,5.66E-03,3.49E-02
101575,5.80E-03,3.50E-02
101576,5.78E-03,3.50E-02
101577,5.83E-03,3.49E-02
101578,5.82E-03,3.50E-02
101579,5.74E-03,3.49E-02
101580,5.80E-03,3.49E-02
101581,5.66E-03,3.48E-02
101582,5.71E-03,3.49E-02
101583,5.62E-03,3.47E-02
101584,5.66E-03,3.48E-02
101585,5.63E-03,3.46E-02
101586,5.57E-03,3.46E-02
101587,5.72E-03,3.44E-02
101588,5.69E-03,3.45E-02
101589,5.67E-03,3.42E-02
101590,5.69E-03,3.43E-02
101591,5.64E-03,3.39E-02
101592,5.63E-03,3.40E-02
101593,5.56E-03,3.37E-02
101594,5.56E-03,3.38E-02
101595,5.54E-03,3.34E-02
101596,5.52E-03,3.35E-02
101597,5.56E-03,3.32E-02
101598,5.54E-03,3.33E-02
101599,5.52E-03,3.29E-02
101600,5.56E-03,3.30E-02
101601,5.45E-03,3.26E-02
101602,5.48E-03,3.28E-02
101603,5.32E-03,3.24E-02
101604,5.41E-03,3.25E-02
101605,5.23E-03,3.21E-02
101606,5.33E-03,3.22E-02
101607,5.07E-03,3.18E-02
101608,5.10E-03,3.20E-02
101609,4.92E-03,3.16E-02
101610,4.96E-03,3.17E-02
101611,4.83E-03,3.14E-02
101612,4.85E-03,3.15E-02
101613,4.77E-03,3.13E-02
101614,4.72E-03,3.14E-02
101615,4.93E-03,3.11E-02
101616,4.80E-03,3.12E-02
101617,5.03E-03,3.11E-02
101618,5.60E-03,3.10E-02
101619,6.12E-03,3.10E-02
101620,5.56E-03,3.11E-02
101621,5.55E-03,3.11E-02
101622,5.61E-03,3.12E-02
101623,5.57E-03,3.11E-02
101624,5.81E-03,3.12E-02
101625,5.68E-03,3.12E-02
101626,5.95E-03,3.13E-02
101627,5.87E-03,3.13E-02
101628,6.49E-03,3.13E-02
101629,6.20E-03,3.13E-02
101630,6.70E-03,3.13E-02
101631,6.69E-03,3.13E-02
101632,6.73E-03,3.12E-02
101633,6.60E-03,3.13E-02
101634,6.85E-03,3.10E-02
101635,6.75E-03,3.11E-02
101636,6.77E-03,3.08E-02
101637,6.84E-03,3.09E-02
101638,6.36E-03,3.05E-02
101639,6.59E-03,3.07E-02
101640,5.32E-03,3.01E-02
101641,6.20E-03,3.03E-02
101642,7.10E-03,2.97E-02
101643,6.91E-03,2.99E-02
101644,6.74E-03,2.92E-02
101645,6.97E-03,2.95E-02
101646,6.56E-03,2.90E-02
101647,6.21E-03,2.82E-02
101648,5.50E-03,2.84E-02
101649,6.22E-03,2.80E-02
101650,6.26E-03,2.72E-02
101651,6.92E-03,2.68E-02
101652,6.56E-03,2.70E-02
101653,4.47E-03,2.63E-02
101654,5.28E-03,2.64E-02
101655,5.75E-03,2.65E-02
101656,5.09E-03,1.68E-02
101657,3.86E-03,7.63E-03
101658,5.06E-03,1.71E-02
101659,4.05E-03,2.63E-02
101660,4.81E-03,2.66E-02
101661,4.68E-03,2.53E-02
101662,4.02E-03,2.55E-02
101663,5.33E-03,2.54E-02
101664,4.57E-03,2.70E-02
101665,4.69E-03,2.70E-02
101666,4.95E-03,2.68E-02
101667,6.04E-03,2.65E-02
101668,4.98E-03,1.70E-02
101669,3.97E-03,1.75E-02
101670,3.92E-03,1.68E-02
101671,4.57E-03,1.81E-02
101672,4.78E-03,1.76E-02
101673,5.43E-03,1.93E-02
101674,5.44E-03,1.91E-02
101675,5.29E-03,1.88E-02
101676,5.53E-03,1.92E-02
101677,5.60E-03,7.17E-03
101678,5.21E-03,7.40E-03
101679,5.00E-03,3.69E-02
101680,6.08E-03,2.68E-02
101681,4.44E-03,1.59E-02
101682,5.30E-03,1.58E-02
101683,4.20E-03,2.69E-02
101684,4.06E-03,2.59E-02
101685,4.96E-03,6.59E-03
101686,7.31E-03,6.68E-03
101687,5.72E-03,6.50E-03
101688,3.99E-03,2.58E-02
101689,3.76E-03,2.67E-02
101690,4.22E-03,1.81E-02
101691,5.57E-03,1.86E-02
101692,5.03E-03,1.85E-02
101693,4.02E-03,1.78E-02
101694,3.42E-03,2.54E-02
101695,4.70E-03,3.63E-02
101696,4.77E-03,3.68E-02
101697,5.50E-03,6.84E-03
101698,5.49E-03,6.90E-03
101699,5.59E-03,6.85E-03
101700,5.44E-03,1.92E-02
101701,4.55E-03,1.84E-02
101702,4.98E-03,1.74E-02
101703,3.56E-03,1.69E-02
101704,4.79E-03,2.69E-02
101705,5.97E-03,2.60E-02
101706,5.02E-03,1.68E-02
101707,4.81E-03,1.68E-02
101708,5.16E-03,7.51E-03
101709,5.10E-03,1.71E-02
101710,5.15E-03,1.71E-02
101711,5.44E-03,7.04E-03
101712,5.45E-03,6.96E-03
101713,6.30E-03,6.70E-03
101714,4.81E-03,2.64E-02
101715,4.39E-03,2.54E-02
101716,5.50E-03,2.55E-02
101717,5.73E-03,2.56E-02
101718,4.70E-03,2.70E-02
101719,5.92E-03,2.66E-02
101720,4.35E-03,1.73E-02
101721,4.48E-03,1.68E-02
101722,4.70E-03,1.78E-02
101723,5.08E-03,1.88E-02
101724,5.38E-03,1.89E-02
101725,4.59E-03,1.87E-02
101726,5.76E-03,1.90E-02
101727,5.58E-03,7.29E-03
101728,5.30E-03,6.81E-03
101729,5.38E-03,6.83E-03
101730,5.10E-03,6.77E-03
101731,5.20E-03,6.79E-03
101732,5.03E-03,6.77E-03
101733,5.07E-03,6.76E-03
101734,5.17E-03,6.79E-03
101735,5.07E-03,6.78E-03
101736,5.28E-03,6.76E-03
101737,5.24E-03,6.78E-03
101738,5.46E-03,6.71E-03
101739,5.39E-03,6.74E-03
101740,5.52E-03,6.64E-03
101741,5.51E-03,6.67E-03
101742,5.47E-03,6.66E-03
101743,5.55E-03,6.64E-03
101744,5.33E-03,6.73E-03
101745,5.41E-03,6.69E-03
101746,5.16E-03,6.73E-03
101747,5.26E-03,6.74E-03
101748,4.96E-03,6.73E-03
101749,5.05E-03,6.72E-03
101750,4.81E-03,6.79E-03
101751,4.92E-03,6.75E-03
101752,4.75E-03,6.97E-03
101753,4.59E-03,6.86E-03
101754,4.96E-03,7.26E-03
101755,4.81E-03,7.11E-03
101756,5.15E-03,7.63E-03
101757,5.02E-03,7.44E-03
101758,5.39E-03,7.96E-03
101759,5.16E-03,7.81E-03
101760,5.65E-03,8.07E-03
101761,5.52E-03,8.05E-03
101762,5.95E-03,8.09E-03
101763,5.91E-03,8.05E-03
101764,6.13E-03,8.47E-03
101765,6.01E-03,8.23E-03
101766,5.35E-03,8.86E-03
101767,5.79E-03,8.71E-03
101768,4.61E-03,8.91E-03
101769,4.89E-03,8.93E-03
101770,4.93E-03,8.86E-03
101771,4.77E-03,8.88E-03
101772,5.09E-03,8.92E-03
101773,5.05E-03,8.87E-03
101774,5.35E-03,9.12E-03
101775,5.26E-03,9.01E-03
101776,5.48E-03,9.26E-03
101777,5.32E-03,9.19E-03
101778,5.59E-03,9.40E-03
101779,5.59E-03,9.32E-03
101780,5.51E-03,9.60E-03
101781,5.62E-03,9.49E-03
101782,5.20E-03,9.88E-03
101783,5.34E-03,9.74E-03
101784,5.00E-03,1.01E-02
101785,5.10E-03,1.00E-02
101786,5.03E-03,1.04E-02
101787,5.04E-03,1.03E-02
101788,5.20E-03,1.06E-02
101789,5.12E-03,1.05E-02
101790,5.48E-03,1.09E-02
101791,5.34E-03,1.07E-02
101792,5.49E-03,1.12E-02
101793,5.53E-03,1.10E-02
101794,5.47E-03,1.16E-02
101795,5.46E-03,1.14E-02
101796,5.38E-03,1.19E-02
101797,5.43E-03,1.18E-02
101798,5.31E-03,1.23E-02
101799,5.34E-03,1.21E-02
101800,5.21E-03,1.26E-02
101801,5.24E-03,1.24E-02
101802,5.16E-03,1.32E-02
101803,5.16E-03,1.29E-02
101804,5.12E-03,1.38E-02
101805,5.11E-03,1.35E-02
101806,4.97E-03,1.47E-02
101807,5.01E-03,1.42E-02
101808,4.91E-03,1.58E-02
101809,4.92E-03,1.52E-02
101810,5.16E-03,1.72E-02
101811,5.04E-03,1.65E-02
101812,5.54E-03,1.84E-02
101813,5.38E-03,1.79E-02
101814,5.98E-03,1.93E-02
101815,5.84E-03,1.88E-02
101816,6.16E-03,2.02E-02
101817,6.13E-03,1.97E-02
101818,6.13E-03,2.16E-02
101819,6.17E-03,2.09E-02
101820,6.00E-03,2.28E-02
101821,6.11E-03,2.22E-02
101822,5.91E-03,2.38E-02
101823,6.05E-03,2.33E-02
101824,5.73E-03,2.45E-02
101825,5.89E-03,2.41E-02
101826,5.60E-03,2.51E-02
101827,5.68E-03,2.48E-02
101828,5.75E-03,2.56E-02
101829,5.63E-03,2.54E-02
101830,5.91E-03,2.60E-02
101831,5.84E-03,2.58E-02
101832,5.80E-03,2.64E-02
101833,5.86E-03,2.62E-02
101834,5.50E-03,2.70E-02
101835,5.62E-03,2.67E-02
101836,5.34E-03,2.78E-02
101837,5.42E-03,2.74E-02
101838,5.30E-03,2.84E-02
101839,5.33E-03,2.81E-02
101840,5.36E-03,2.89E-02
101841,5.31E-03,2.87E-02
101842,5.48E-03,2.96E-02
101843,5.40E-03,2.92E-02
101844,5.58E-03,3.04E-02
101845,5.56E-03,3.00E-02
101846,5.68E-03,3.13E-02
101847,5.60E-03,3.08E-02
101848,5.69E-03,3.22E-02
101849,5.70E-03,3.17E-02
101850,5.82E-03,3.31E-02
101851,5.76E-03,3.26E-02
101852,5.89E-03,3.40E-02
101853,5.84E-03,3.35E-02
101854,5.86E-03,3.47E-02
101855,5.89E-03,3.43E-02
101856,5.87E-03,3.52E-02
101857,5.86E-03,3.50E-02
101858,5.85E-03,3.58E-02
101859,5.86E-03,3.55E-02
101860,5.86E-03,3.64E-02
101861,5.83E-03,3.61E-02
101862,5.75E-03,3.68E-02
101863,5.80E-03,3.66E-02
101864,5.68E-03,3.71E-02
101865,5.71E-03,3.70E-02
101866,5.57E-03,3.77E-02
101867,5.61E-03,3.74E-02
101868,5.47E-03,3.84E-02
101869,5.50E-03,3.81E-02
101870,5.47E-03,3.86E-02
101871,5.45E-03,3.86E-02
101872,5.57E-03,3.84E-02
101873,5.51E-03,3.85E-02
101874,5.65E-03,3.87E-02
101875,5.63E-03,3.85E-02
101876,5.75E-03,3.95E-02
101877,5.71E-03,3.91E-02
101878,5.69E-03,3.99E-02
101879,5.71E-03,3.98E-02
101880,5.70E-03,3.98E-02
101881,5.67E-03,3.99E-02
101882,5.81E-03,3.98E-02
101883,5.73E-03,3.98E-02
101884,5.66E-03,3.98E-02
101885,5.76E-03,3.97E-02
101886,5.53E-03,4.02E-02
101887,5.65E-03,3.99E-02
101888,5.33E-03,4.09E-02
101889,5.38E-03,4.05E-02
101890,5.14E-03,4.12E-02
101891,5.23E-03,4.11E-02
101892,5.23E-03,4.12E-02
101893,5.18E-03,4.12E-02
101894,5.44E-03,4.14E-02
101895,5.36E-03,4.13E-02
101896,5.66E-03,4.17E-02
101897,5.58E-03,4.15E-02
101898,5.80E-03,4.22E-02
101899,5.75E-03,4.19E-02
101900,5.76E-03,4.30E-02
101901,5.82E-03,4.26E-02
101902,5.75E-03,4.36E-02
101903,5.71E-03,4.33E-02
101904,5.84E-03,4.37E-02
101905,5.80E-03,4.37E-02
101906,5.95E-03,4.33E-02
101907,5.89E-03,4.35E-02
101908,5.93E-03,4.33E-02
101909,5.94E-03,4.32E-02
101910,5.82E-03,4.37E-02
101911,5.89E-03,4.35E-02
101912,5.74E-03,4.37E-02
101913,5.77E-03,4.38E-02
101914,5.61E-03,4.31E-02
101915,5.65E-03,4.34E-02
101916,5.59E-03,4.25E-02
101917,5.54E-03,4.27E-02
101918,5.58E-03,4.24E-02
101919,5.61E-03,4.24E-02
101920,5.51E-03,4.20E-02
101921,5.55E-03,4.23E-02
101922,5.43E-03,4.15E-02
101923,5.50E-03,4.18E-02
101924,5.32E-03,4.14E-02
101925,5.41E-03,4.14E-02
101926,5.31E-03,4.13E-02
101927,5.30E-03,4.14E-02
101928,5.35E-03,4.12E-02
101929,5.33E-03,4.13E-02
101930,5.41E-03,4.11E-02
101931,5.40E-03,4.11E-02
101932,5.49E-03,4.11E-02
101933,5.43E-03,4.11E-02
101934,5.62E-03,4.11E-02
101935,5.53E-03,4.11E-02
101936,5.70E-03,4.12E-02
101937,5.67E-03,4.12E-02
101938,5.63E-03,4.13E-02
101939,5.68E-03,4.13E-02
101940,5.61E-03,4.13E-02
101941,5.61E-03,4.13E-02
101942,5.65E-03,4.13E-02
101943,5.64E-03,4.13E-02
101944,5.67E-03,4.12E-02
101945,5.66E-03,4.12E-02
101946,5.52E-03,4.11E-02
101947,5.61E-03,4.11E-02
101948,5.42E-03,4.14E-02
101949,5.51E-03,4.13E-02
101950,5.36E-03,4.15E-02
101951,5.40E-03,4.15E-02
101952,5.36E-03,4.13E-02
101953,5.35E-03,4.15E-02
101954,5.44E-03,4.11E-02
101955,5.41E-03,4.12E-02
101956,5.57E-03,4.12E-02
101957,5.52E-03,4.11E-02
101958,5.71E-03,4.14E-02
101959,5.65E-03,4.13E-02
101960,5.73E-03,4.14E-02
101961,5.75E-03,4.14E-02
101962,5.79E-03,4.10E-02
101963,5.79E-03,4.12E-02
101964,5.78E-03,4.08E-02
101965,5.79E-03,4.08E-02
101966,5.69E-03,4.09E-02
101967,5.73E-03,4.08E-02
101968,5.57E-03,4.09E-02
101969,5.63E-03,4.10E-02
101970,5.50E-03,4.04E-02
101971,5.54E-03,4.07E-02
101972,5.58E-03,3.98E-02
101973,5.56E-03,4.01E-02
101974,5.69E-03,3.92E-02
101975,5.68E-03,3.95E-02
101976,5.67E-03,3.88E-02
101977,5.70E-03,3.90E-02
101978,5.56E-03,3.84E-02
101979,5.61E-03,3.86E-02
101980,5.54E-03,3.77E-02
101981,5.52E-03,3.80E-02
101982,5.33E-03,3.73E-02
101983,7.20E-03,2.57E-02
101984,7.28E-03,2.59E-02
101985,7.00E-03,2.52E-02
101986,7.14E-03,2.54E-02
101987,6.89E-03,2.48E-02
101988,6.86E-03,2.50E-02
101989,7.10E-03,2.44E-02
101990,7.03E-03,2.46E-02
101991,6.81E-03,2.41E-02
101992,6.92E-03,2.42E-02
101993,6.58E-03,2.37E-02
101994,6.77E-03,2.39E-02
101995,6.54E-03,2.33E-02
101996,6.56E-03,2.35E-02
101997,6.63E-03,2.29E-02
101998,6.54E-03,2.31E-02
101999,6.72E-03,2.25E-02
102000,6.73E-03,2.27E-02
102001,6.48E-03,2.21E-02
102002,6.65E-03,2.23E-02
102003,6.38E-03,2.17E-02
102004,6.34E-03,2.19E-02
102005,6.32E-03,2.13E-02
102006,6.34E-03,2.15E-02
102007,6.23E-03,2.09E-02
102008,6.26E-03,2.11E-02
102009,6.10E-03,2.05E-02
102010,6.14E-03,2.07E-02
102011,5.82E-03,2.01E-02
102012,5.91E-03,2.03E-02
102013,5.61E-03,1.97E-02
102014,5.64E-03,1.99E-02
102015,5.46E-03,1.93E-02
102016,5.50E-03,1.95E-02
102017,5.67E-03,1.89E-02
102018,5.49E-03,1.91E-02
102019,6.15E-03,1.85E-02
102020,6.35E-03,1.87E-02
102021,5.60E-03,1.81E-02
102022,5.62E-03,1.83E-02
102023,5.59E-03,1.76E-02
102024,5.56E-03,1.79E-02
102025,5.76E-03,1.72E-02
102026,5.70E-03,1.74E-02
102027,5.17E-03,1.69E-02
102028,5.62E-03,1.70E-02
102029,4.54E-03,1.65E-02
102030,4.81E-03,1.67E-02
102031,4.95E-03,3.53E-02
102032,4.84E-03,3.58E-02
102033,5.18E-03,3.45E-02
102034,5.05E-03,3.49E-02
102035,5.38E-03,3.38E-02
102036,5.29E-03,3.42E-02
102037,5.43E-03,3.31E-02
102038,5.43E-03,3.35E-02
102039,5.42E-03,3.24E-02
102040,5.42E-03,3.28E-02
102041,5.43E-03,3.17E-02
102042,5.44E-03,3.21E-02
102043,5.35E-03,3.10E-02
102044,5.32E-03,3.13E-02
102045,5.30E-03,3.03E-02
102046,5.35E-03,3.06E-02
102047,5.28E-03,2.97E-02
102048,5.29E-03,3.00E-02
102049,5.23E-03,2.93E-02
102050,5.27E-03,2.95E-02
102051,5.24E-03,2.90E-02
102052,5.26E-03,2.92E-02
102053,5.36E-03,2.87E-02
102054,5.28E-03,2.88E-02
102055,5.48E-03,2.83E-02
102056,5.39E-03,2.85E-02
102057,5.59E-03,2.79E-02
102058,5.53E-03,2.81E-02
102059,5.61E-03,2.75E-02
102060,5.59E-03,2.77E-02
102061,5.78E-03,2.70E-02
102062,5.67E-03,2.73E-02
102063,6.64E-03,2.66E-02
102064,6.20E-03,2.66E-02
102065,6.59E-03,2.66E-02
102066,6.54E-03,2.65E-02
102067,6.70E-03,2.66E-02
102068,6.41E-03,2.64E-02
102069,6.52E-03,2.65E-02
102070,6.26E-03,2.62E-02
102071,6.32E-03,2.63E-02
102072,6.54E-03,2.61E-02
102073,6.31E-03,2.62E-02
102074,6.80E-03,2.59E-02
102075,6.61E-03,2.60E-02
102076,6.26E-03,2.57E-02
102077,6.54E-03,2.58E-02
102078,5.98E-03,2.55E-02
102079,6.11E-03,2.56E-02
102080,6.05E-03,2.53E-02
102081,5.91E-03,2.54E-02
102082,7.17E-03,2.51E-02
102083,7.05E-03,2.52E-02
102084,6.51E-03,2.48E-02
102085,6.65E-03,2.49E-02
102086,6.57E-03,2.45E-02
102087,6.55E-03,2.46E-02
102088,6.37E-03,2.43E-02
102089,6.53E-03,2.44E-02
102090,6.29E-03,2.40E-02
102091,6.25E-03,2.41E-02
102092,6.26E-03,2.37E-02
102093,6.31E-03,2.38E-02
102094,6.07E-03,2.34E-02
102095,6.22E-03,2.35E-02
102096,6.45E-03,2.30E-02
102097,6.28E-03,2.32E-02
102098,6.53E-03,2.27E-02
102099,6.50E-03,2.29E-02
102100,6.76E-03,2.23E-02
102101,6.72E-03,2.25E-02
102102,6.86E-03,2.18E-02
102103,6.82E-03,2.21E-02
102104,6.74E-03,2.14E-02
102105,6.85E-03,2.16E-02
102106,6.57E-03,2.09E-02
102107,6.64E-03,2.12E-02
102108,6.58E-03,2.04E-02
102109,6.57E-03,2.06E-02
102110,7.53E-03,1.98E-02
102111,6.83E-03,2.01E-02
102112,6.57E-03,1.91E-02
102113,7.38E-03,1.95E-02
102114,6.58E-03,1.85E-02
102115,6.52E-03,1.88E-02
102116,6.66E-03,1.78E-02
102117,6.61E-03,1.82E-02
102118,6.96E-03,1.71E-02
102119,6.79E-03,1.75E-02
102120,7.45E-03,1.63E-02
102121,7.49E-03,1.67E-02
102122,5.04E-03,1.55E-02
102123,5.59E-03,1.59E-02
102124,4.90E-03,1.56E-02
102125,5.67E-03,1.59E-02
102126,5.46E-03,1.59E-02
102127,5.45E-03,1.61E-02
102128,5.57E-03,1.60E-02
102129,5.27E-03,1.62E-02
102130,5.38E-03,1.61E-02
102131,5.15E-03,1.62E-02
102132,5.24E-03,1.62E-02
102133,5.03E-03,1.63E-02
102134,5.08E-03,1.62E-02
102135,4.81E-03,1.63E-02
102136,4.91E-03,1.63E-02
102137,4.99E-03,1.63E-02
102138,4.79E-03,1.63E-02
102139,5.39E-03,1.64E-02
102140,4.97E-03,1.64E-02
102141,5.48E-03,1.64E-02
102142,5.58E-03,1.64E-02
102143,5.38E-03,1.63E-02
102144,5.39E-03,1.64E-02
102145,5.02E-03,1.62E-02
102146,5.26E-03,1.63E-02
102147,3.86E-03,1.62E-02
102148,4.44E-03,1.62E-02
102149,3.99E-03,7.67E-03
102150,5.27E-03,7.79E-03
102151,4.20E-03,7.75E-03
102152,5.14E-03,7.90E-03
102153,5.13E-03,7.85E-03
102154,5.30E-03,8.01E-03
102155,5.20E-03,7.96E-03
102156,5.49E-03,8.11E-03
102157,5.45E-03,8.06E-03
102158,5.71E-03,8.21E-03
102159,5.61E-03,8.16E-03
102160,5.71E-03,8.32E-03
102161,5.79E-03,8.27E-03
102162,5.65E-03,8.45E-03
102163,5.69E-03,8.38E-03
102164,5.50E-03,8.58E-03
102165,5.58E-03,8.51E-03
102166,5.52E-03,8.71E-03
102167,5.53E-03,8.65E-03
102168,5.54E-03,8.83E-03
102169,5.57E-03,8.77E-03
102170,5.66E-03,8.93E-03
102171,5.62E-03,8.88E-03
102172,5.74E-03,8.99E-03
102173,5.71E-03,8.96E-03
102174,5.72E-03,9.03E-03
102175,5.73E-03,9.01E-03
102176,5.83E-03,9.03E-03
102177,5.81E-03,9.03E-03
102178,5.96E-03,9.04E-03
102179,5.88E-03,9.03E-03
102180,6.07E-03,9.12E-03
102181,6.02E-03,9.07E-03
102182,6.12E-03,9.30E-03
102183,6.08E-03,9.19E-03
102184,6.23E-03,9.57E-03
102185,6.18E-03,9.42E-03
102186,6.32E-03,9.84E-03
102187,6.27E-03,9.71E-03
102188,6.30E-03,1.01E-02
102189,6.32E-03,9.98E-03
102190,6.19E-03,1.04E-02
102191,6.26E-03,1.02E-02
102192,6.11E-03,1.07E-02
102193,6.14E-03,1.05E-02
102194,5.83E-03,1.10E-02
102195,5.97E-03,1.09E-02
102196,5.73E-03,1.14E-02
102197,5.77E-03,1.12E-02
102198,5.57E-03,1.18E-02
102199,5.62E-03,1.16E-02
102200,5.63E-03,1.22E-02
102201,5.57E-03,1.20E-02
102202,5.73E-03,1.26E-02
102203,5.67E-03,1.24E-02
102204,5.63E-03,1.31E-02
102205,5.75E-03,1.29E-02
102206,5.59E-03,1.36E-02
102207,5.60E-03,1.33E-02
102208,5.66E-03,1.42E-02
102209,5.63E-03,1.39E-02
102210,5.64E-03,1.48E-02
102211,5.66E-03,1.45E-02
102212,5.59E-03,1.54E-02
102213,5.64E-03,1.51E-02
102214,5.51E-03,1.61E-02
102215,5.55E-03,1.58E-02
102216,5.54E-03,1.68E-02
102217,5.45E-03,1.65E-02
102218,5.66E-03,1.74E-02
102219,5.63E-03,1.71E-02
102220,5.73E-03,1.80E-02
102221,5.70E-03,1.77E-02
102222,5.54E-03,1.84E-02
102223,5.64E-03,1.82E-02
102224,5.46E-03,1.89E-02
102225,5.52E-03,1.87E-02
102226,5.44E-03,1.94E-02
102227,5.42E-03,1.92E-02
102228,5.66E-03,1.98E-02
102229,5.56E-03,1.96E-02
102230,5.70E-03,2.03E-02
102231,5.68E-03,2.01E-02
102232,5.73E-03,2.09E-02
102233,5.75E-03,2.06E-02
102234,5.68E-03,2.16E-02
102235,5.74E-03,2.13E-02
102236,5.67E-03,2.22E-02
102237,5.64E-03,2.19E-02
102238,5.63E-03,2.28E-02
102239,5.67E-03,2.25E-02
102240,5.62E-03,2.34E-02
102241,5.68E-03,2.31E-02
102242,5.64E-03,2.39E-02
102243,5.63E-03,2.37E-02
102244,5.74E-03,2.45E-02
102245,5.69E-03,2.42E-02
102246,5.66E-03,2.51E-02
102247,5.70E-03,2.48E-02
102248,5.61E-03,2.57E-02
102249,5.61E-03,2.54E-02
102250,5.51E-03,2.61E-02
102251,5.56E-03,2.59E-02
102252,5.43E-03,2.66E-02
102253,5.47E-03,2.64E-02
102254,5.35E-03,2.69E-02
102255,5.38E-03,2.68E-02
102256,5.30E-03,2.73E-02
102257,5.34E-03,2.71E-02
102258,5.33E-03,2.75E-02
102259,5.32E-03,2.74E-02
102260,5.32E-03,2.78E-02
102261,5.36E-03,2.76E-02
102262,5.23E-03,2.80E-02
102263,5.25E-03,2.79E-02
102264,5.20E-03,2.82E-02
102265,5.20E-03,2.81E-02
102266,5.28E-03,2.85E-02
102267,5.24E-03,2.84E-02
102268,5.32E-03,2.88E-02
102269,5.30E-03,2.86E-02
102270,5.25E-03,2.91E-02
102271,5.30E-03,2.89E-02
102272,5.33E-03,2.94E-02
102273,5.29E-03,2.93E-02
102274,5.45E-03,2.98E-02
102275,5.42E-03,2.96E-02
102276,5.54E-03,3.02E-02
102277,5.49E-03,3.00E-02
102278,5.45E-03,3.05E-02
102279,5.49E-03,3.03E-02
102280,5.51E-03,3.09E-02
102281,5.47E-03,3.07E-02
102282,5.51E-03,3.13E-02
102283,5.52E-03,3.11E-02
102284,5.53E-03,3.16E-02
102285,5.57E-03,3.14E-02
102286,5.55E-03,3.19E-02
102287,5.58E-03,3.18E-02
102288,5.53E-03,3.22E-02
102289,5.55E-03,3.20E-02
102290,5.55E-03,3.24E-02
102291,5.51E-03,3.23E-02
102292,5.51E-03,3.27E-02
102293,5.55E-03,3.26E-02
102294,5.58E-03,3.30E-02
102295,5.56E-03,3.28E-02
102296,5.60E-03,3.33E-02
102297,5.57E-03,3.31E-02
102298,5.62E-03,3.36E-02
102299,5.60E-03,3.34E-02
102300,5.63E-03,3.38E-02
102301,5.60E-03,3.37E-02
102302,5.70E-03,3.41E-02
102303,5.68E-03,3.40E-02
102304,5.73E-03,3.43E-02
102305,5.72E-03,3.42E-02
102306,5.60E-03,3.45E-02
102307,5.68E-03,3.44E-02
102308,5.67E-03,3.46E-02
102309,5.63E-03,3.46E-02
102310,5.64E-03,3.47E-02
102311,5.63E-03,3.46E-02
102312,5.63E-03,3.46E-02
102313,5.64E-03,3.47E-02
102314,5.61E-03,3.46E-02
102315,5.61E-03,3.46E-02
102316,5.71E-03,3.45E-02
102317,5.61E-03,3.45E-02
102318,5.61E-03,3.45E-02
102319,5.64E-03,3.45E-02
102320,5.68E-03,3.44E-02
102321,5.68E-03,3.44E-02
102322,5.69E-03,3.43E-02
102323,5.71E-03,3.44E-02
102324,5.69E-03,3.43E-02
102325,5.66E-03,3.43E-02
102326,5.64E-03,3.43E-02
102327,5.63E-03,3.43E-02
102328,5.64E-03,3.44E-02
102329,5.60E-03,3.44E-02
102330,5.71E-03,3.44E-02
102331,5.64E-03,3.44E-02
102332,5.74E-03,3.44E-02
102333,5.71E-03,3.44E-02
102334,5.74E-03,3.44E-02
102335,5.74E-03,3.44E-02
102336,5.72E-03,3.44E-02
102337,5.75E-03,3.44E-02
102338,5.66E-03,3.43E-02
102339,5.72E-03,3.44E-02
102340,5.61E-03,3.42E-02
102341,5.61E-03,3.43E-02
102342,5.68E-03,3.41E-02
102343,5.62E-03,3.41E-02
102344,5.70E-03,3.39E-02
102345,5.68E-03,3.40E-02
102346,5.66E-03,3.37E-02
102347,5.70E-03,3.38E-02
102348,5.60E-03,3.35E-02
102349,5.59E-03,3.36E-02
102350,5.54E-03,3.32E-02
102351,5.57E-03,3.33E-02
102352,5.57E-03,3.30E-02
102353,5.54E-03,3.31E-02
102354,5.63E-03,3.27E-02
102355,5.59E-03,3.29E-02
102356,5.58E-03,3.25E-02
102357,5.63E-03,3.26E-02
102358,5.54E-03,3.22E-02
102359,5.56E-03,3.24E-02
102360,5.40E-03,3.20E-02
102361,5.46E-03,3.21E-02
102362,5.32E-03,3.17E-02
102363,5.34E-03,3.18E-02
102364,5.17E-03,3.14E-02
102365,5.20E-03,3.16E-02
102366,5.05E-03,3.12E-02
102367,5.04E-03,3.13E-02
102368,4.99E-03,3.10E-02
102369,4.95E-03,3.11E-02
102370,4.91E-03,3.09E-02
102371,4.92E-03,3.10E-02
102372,4.95E-03,3.07E-02
102373,4.95E-03,3.08E-02
102374,5.12E-03,3.06E-02
102375,5.06E-03,3.07E-02
102376,5.37E-03,3.06E-02
102377,5.48E-03,3.06E-02
102378,5.61E-03,3.06E-02
102379,5.52E-03,3.07E-02
102380,5.49E-03,3.07E-02
102381,5.59E-03,3.08E-02
102382,5.54E-03,3.07E-02
102383,5.79E-03,3.09E-02
102384,5.64E-03,3.08E-02
102385,5.96E-03,3.09E-02
102386,5.85E-03,3.09E-02
102387,6.31E-03,3.10E-02
102388,6.12E-03,3.09E-02
102389,6.42E-03,3.09E-02
102390,6.34E-03,3.10E-02
102391,6.57E-03,3.09E-02
102392,6.42E-03,3.09E-02
102393,6.58E-03,3.07E-02
102394,6.53E-03,3.08E-02
102395,6.53E-03,3.05E-02
102396,6.57E-03,3.06E-02
102397,6.36E-03,3.02E-02
102398,6.40E-03,3.04E-02
102399,7.08E-03,2.99E-02
102400,6.35E-03,3.01E-02
102401,6.82E-03,2.95E-02
102402,7.42E-03,2.97E-02
102403,6.58E-03,2.91E-02
102404,6.70E-03,2.93E-02
102405,6.64E-03,2.87E-02
102406,6.54E-03,2.89E-02
102407,6.32E-03,2.81E-02
102408,6.71E-03,2.84E-02
102409,6.43E-03,2.79E-02
102410,6.65E-03,2.72E-02
102411,6.53E-03,2.67E-02
102412,6.57E-03,2.69E-02
102413,6.51E-03,2.65E-02
102414,4.78E-03,2.68E-02
102415,4.24E-03,2.61E-02
102416,4.46E-03,2.55E-02
102417,6.51E-03,6.61E-03
102418,4.42E-03,1.62E-02
102419,5.92E-03,2.68E-02
102420,6.05E-03,2.66E-02
102421,4.05E-03,2.59E-02
102422,4.40E-03,2.67E-02
102423,4.64E-03,1.83E-02
102424,4.40E-03,1.79E-02
102425,3.42E-03,2.56E-02
102426,5.16E-03,1.63E-02
102427,5.60E-03,3.73E-02
102428,5.67E-03,6.86E-03
102429,5.82E-03,6.85E-03
102430,7.63E-03,6.74E-03
102431,6.65E-03,6.69E-03
102432,6.24E-03,7.40E-03
102433,5.45E-03,7.14E-03
102434,5.39E-03,1.90E-02
102435,5.36E-03,1.90E-02
102436,4.85E-03,1.86E-02
102437,4.73E-03,1.84E-02
102438,3.80E-03,1.87E-02
102439,3.78E-03,1.85E-02
102440,4.89E-03,1.76E-02
102441,4.69E-03,1.81E-02
102442,4.60E-03,1.70E-02
102443,4.90E-03,1.71E-02
102444,4.26E-03,1.76E-02
102445,4.35E-03,1.71E-02
102446,5.16E-03,2.67E-02
102447,5.76E-03,2.62E-02
102448,4.84E-03,2.69E-02
102449,4.72E-03,2.68E-02
102450,5.17E-03,2.56E-02
102451,5.76E-03,2.59E-02
102452,4.30E-03,2.55E-02
102453,4.17E-03,2.57E-02
102454,4.89E-03,2.65E-02
102455,4.46E-03,2.63E-02
102456,5.26E-03,6.30E-03
102457,5.55E-03,6.88E-03
102458,5.09E-03,1.74E-02
102459,5.36E-03,1.74E-02
102460,5.33E-03,1.74E-02
102461,5.31E-03,7.00E-03
102462,5.47E-03,6.93E-03
102463,6.03E-03,6.86E-03
102464,5.56E-03,6.79E-03
102465,4.99E-03,6.71E-03
102466,4.69E-03,6.62E-03
102467,4.80E-03,6.55E-03
102468,5.06E-03,6.48E-03
102469,5.90E-03,6.34E-03
102470,5.69E-03,6.19E-03
102471,4.59E-03,5.98E-03
102472,4.60E-03,2.64E-02
102473,4.29E-03,2.56E-02
102474,4.38E-03,2.56E-02
102475,5.50E-03,2.58E-02
102476,4.78E-03,2.68E-02
102477,5.84E-03,2.64E-02
102478,4.31E-03,2.64E-02
102479,5.83E-03,2.65E-02
102480,4.50E-03,1.74E-02
102481,4.72E-03,1.70E-02
102482,4.78E-03,1.79E-02
102483,4.37E-03,1.85E-02
102484,5.20E-03,1.88E-02
102485,5.01E-03,1.88E-02
102486,5.58E-03,7.26E-03
102487,6.35E-03,6.77E-03
102488,6.02E-03,6.82E-03
102489,4.58E-03,5.82E-03
102490,5.68E-03,6.07E-03
102491,5.28E-03,6.21E-03
102492,4.80E-03,6.33E-03
102493,5.66E-03,6.44E-03
102494,6.67E-03,6.51E-03
102495,6.21E-03,6.64E-03
102496,6.25E-03,6.74E-03
102497,6.17E-03,6.81E-03
102498,5.76E-03,6.85E-03
102499,5.68E-03,6.84E-03
102500,5.58E-03,6.81E-03
102501,5.53E-03,6.77E-03
102502,5.39E-03,6.73E-03
102503,5.32E-03,6.68E-03
102504,5.28E-03,6.64E-03
102505,5.21E-03,6.61E-03
102506,5.23E-03,6.59E-03
102507,5.27E-03,6.59E-03
102508,5.30E-03,6.60E-03
102509,5.35E-03,6.60E-03
102510,5.35E-03,6.58E-03
102511,5.44E-03,6.56E-03
102512,5.48E-03,6.57E-03
102513,5.51E-03,6.57E-03
102514,5.53E-03,6.53E-03
102515,5.59E-03,6.49E-03
102516,5.51E-03,6.49E-03
102517,5.49E-03,6.52E-03
102518,5.40E-03,6.54E-03
102519,5.33E-03,6.50E-03
102520,5.23E-03,6.43E-03
102521,5.16E-03,6.36E-03
102522,5.05E-03,6.34E-03
102523,4.97E-03,6.36E-03
102524,4.90E-03,6.40E-03
102525,4.86E-03,6.46E-03
102526,4.98E-03,6.55E-03
102527,4.98E-03,6.69E-03
102528,5.08E-03,6.87E-03
102529,5.12E-03,7.09E-03
102530,5.20E-03,7.33E-03
102531,5.28E-03,7.59E-03
102532,5.39E-03,7.85E-03
102533,5.51E-03,8.05E-03
102534,5.65E-03,8.16E-03
102535,5.80E-03,8.16E-03
102536,5.76E-03,8.15E-03
102537,5.78E-03,8.27E-03
102538,5.76E-03,8.50E-03
102539,5.66E-03,8.70E-03
102540,5.37E-03,8.77E-03
102541,5.16E-03,8.71E-03
102542,5.07E-03,8.61E-03
102543,5.02E-03,8.52E-03
102544,5.04E-03,8.51E-03
102545,5.13E-03,8.56E-03
102546,5.17E-03,8.66E-03
102547,5.29E-03,8.79E-03
102548,5.36E-03,8.92E-03
102549,5.46E-03,9.03E-03
102550,5.49E-03,9.11E-03
102551,5.57E-03,9.18E-03
102552,5.55E-03,9.23E-03
102553,5.53E-03,9.29E-03
102554,5.45E-03,9.37E-03
102555,5.39E-03,9.48E-03
102556,5.34E-03,9.62E-03
102557,5.25E-03,9.73E-03
102558,5.16E-03,9.82E-03
102559,5.19E-03,9.91E-03
102560,5.22E-03,1.00E-02
102561,5.24E-03,1.02E-02
102562,5.33E-03,1.03E-02
102563,5.41E-03,1.05E-02
102564,5.48E-03,1.07E-02
102565,5.50E-03,1.08E-02
102566,5.51E-03,1.10E-02
102567,5.50E-03,1.12E-02
102568,5.52E-03,1.13E-02
102569,5.47E-03,1.15E-02
102570,5.40E-03,1.16E-02
102571,5.36E-03,1.18E-02
102572,5.32E-03,1.19E-02
102573,5.26E-03,1.20E-02
102574,5.30E-03,1.22E-02
102575,5.30E-03,1.24E-02
102576,5.31E-03,1.26E-02
102577,5.23E-03,1.28E-02
102578,5.21E-03,1.31E-02
102579,5.14E-03,1.35E-02
102580,5.06E-03,1.39E-02
102581,5.08E-03,1.45E-02
102582,5.12E-03,1.51E-02
102583,5.17E-03,1.59E-02
102584,5.26E-03,1.68E-02
102585,5.39E-03,1.76E-02
102586,5.53E-03,1.84E-02
102587,5.62E-03,1.91E-02
102588,5.81E-03,1.96E-02
102589,5.90E-03,2.03E-02
102590,5.98E-03,2.10E-02
102591,6.02E-03,2.17E-02
102592,6.03E-03,2.24E-02
102593,6.07E-03,2.30E-02
102594,5.99E-03,2.36E-02
102595,5.96E-03,2.40E-02
102596,5.91E-03,2.44E-02
102597,5.81E-03,2.47E-02
102598,5.76E-03,2.51E-02
102599,5.67E-03,2.54E-02
102600,5.61E-03,2.56E-02
102601,5.63E-03,2.59E-02
102602,5.73E-03,2.61E-02
102603,5.75E-03,2.63E-02
102604,5.77E-03,2.65E-02
102605,5.73E-03,2.67E-02
102606,5.69E-03,2.68E-02
102607,5.60E-03,2.70E-02
102608,5.52E-03,2.72E-02
102609,5.46E-03,2.75E-02
102610,5.45E-03,2.77E-02
102611,5.38E-03,2.80E-02
102612,5.34E-03,2.82E-02
102613,5.36E-03,2.85E-02
102614,5.39E-03,2.88E-02
102615,5.45E-03,2.92E-02
102616,5.51E-03,2.96E-02
102617,5.53E-03,3.01E-02
102618,5.60E-03,3.06E-02
102619,5.64E-03,3.11E-02
102620,5.60E-03,3.17E-02
102621,5.58E-03,3.22E-02
102622,5.68E-03,3.28E-02
102623,5.72E-03,3.33E-02
102624,5.78E-03,3.39E-02
102625,5.76E-03,3.44E-02
102626,5.79E-03,3.49E-02
102627,5.79E-03,3.53E-02
102628,5.77E-03,3.57E-02
102629,5.80E-03,3.60E-02
102630,5.80E-03,3.63E-02
102631,5.83E-03,3.66E-02
102632,5.86E-03,3.68E-02
102633,5.85E-03,3.71E-02
102634,5.80E-03,3.73E-02
102635,5.78E-03,3.76E-02
102636,5.71E-03,3.77E-02
102637,5.67E-03,3.77E-02
102638,5.64E-03,3.76E-02
102639,5.63E-03,3.77E-02
102640,5.55E-03,3.81E-02
102641,5.52E-03,3.85E-02
102642,5.48E-03,3.88E-02
102643,5.50E-03,3.90E-02
102644,5.50E-03,3.91E-02
102645,5.54E-03,3.91E-02
102646,5.61E-03,3.91E-02
102647,5.62E-03,3.91E-02
102648,5.66E-03,3.94E-02
102649,5.75E-03,3.99E-02
102650,5.71E-03,4.04E-02
102651,5.67E-03,4.07E-02
102652,5.67E-03,4.08E-02
102653,5.64E-03,4.07E-02
102654,5.65E-03,4.07E-02
102655,5.66E-03,4.07E-02
102656,5.76E-03,4.07E-02
102657,5.74E-03,4.06E-02
102658,5.62E-03,4.04E-02
102659,5.60E-03,4.03E-02
102660,5.54E-03,4.04E-02
102661,5.40E-03,4.07E-02
102662,5.36E-03,4.10E-02
102663,5.30E-03,4.11E-02
102664,5.25E-03,4.10E-02
102665,5.22E-03,4.10E-02
102666,5.29E-03,4.12E-02
102667,5.36E-03,4.14E-02
102668,5.46E-03,4.17E-02
102669,5.56E-03,4.20E-02
102670,5.62E-03,4.23E-02
102671,5.75E-03,4.27E-02
102672,5.81E-03,4.30E-02
102673,5.73E-03,4.35E-02
102674,5.71E-03,4.39E-02
102675,5.68E-03,4.44E-02
102676,5.69E-03,4.47E-02
102677,5.75E-03,4.49E-02
102678,5.81E-03,4.50E-02
102679,5.85E-03,4.49E-02
102680,5.91E-03,4.47E-02
102681,5.87E-03,4.45E-02
102682,5.82E-03,4.46E-02
102683,5.87E-03,4.48E-02
102684,5.73E-03,4.50E-02
102685,5.73E-03,4.50E-02
102686,5.72E-03,4.48E-02
102687,5.64E-03,4.43E-02
102688,5.60E-03,4.38E-02
102689,5.48E-03,4.33E-02
102690,5.60E-03,4.30E-02
102691,5.62E-03,4.29E-02
102692,5.58E-03,4.29E-02
102693,5.58E-03,4.27E-02
102694,5.53E-03,4.23E-02
102695,5.50E-03,4.19E-02
102696,5.41E-03,4.16E-02
102697,5.40E-03,4.14E-02
102698,5.35E-03,4.14E-02
102699,5.34E-03,4.15E-02
102700,5.33E-03,4.14E-02
102701,5.33E-03,4.13E-02
102702,5.35E-03,4.12E-02
102703,5.39E-03,4.12E-02
102704,5.44E-03,4.13E-02
102705,5.49E-03,4.13E-02
102706,5.50E-03,4.14E-02
102707,5.51E-03,4.15E-02
102708,5.59E-03,4.16E-02
102709,5.63E-03,4.16E-02
102710,5.64E-03,4.17E-02
102711,5.64E-03,4.18E-02
102712,5.58E-03,4.19E-02
102713,5.56E-03,4.19E-02
102714,5.55E-03,4.19E-02
102715,5.58E-03,4.19E-02
102716,5.61E-03,4.19E-02
102717,5.66E-03,4.19E-02
102718,5.62E-03,4.18E-02
102719,5.61E-03,4.17E-02
102720,5.52E-03,4.16E-02
102721,5.48E-03,4.16E-02
102722,5.46E-03,4.18E-02
102723,5.39E-03,4.19E-02
102724,5.37E-03,4.19E-02
102725,5.39E-03,4.18E-02
102726,5.38E-03,4.16E-02
102727,5.45E-03,4.15E-02
102728,5.44E-03,4.15E-02
102729,5.52E-03,4.16E-02
102730,5.55E-03,4.18E-02
102731,5.60E-03,4.20E-02
102732,5.64E-03,4.21E-02
102733,5.71E-03,4.22E-02
102734,5.73E-03,4.22E-02
102735,5.73E-03,4.21E-02
102736,5.72E-03,4.19E-02
102737,5.77E-03,4.17E-02
102738,5.76E-03,4.16E-02
102739,5.71E-03,4.17E-02
102740,5.66E-03,4.19E-02
102741,5.61E-03,4.18E-02
102742,5.52E-03,4.16E-02
102743,5.55E-03,4.14E-02
102744,5.53E-03,4.12E-02
102745,5.57E-03,4.10E-02
102746,5.59E-03,4.07E-02
102747,5.65E-03,4.04E-02
102748,5.69E-03,4.01E-02
102749,5.68E-03,3.98E-02
102750,5.65E-03,3.96E-02
102751,5.61E-03,3.95E-02
102752,5.59E-03,3.92E-02
102753,5.56E-03,3.87E-02
102754,5.64E-03,3.82E-02
102755,6.00E-03,3.77E-02
102756,7.77E-03,2.60E-02
102757,6.98E-03,2.57E-02
102758,6.82E-03,2.55E-02
102759,6.71E-03,2.53E-02
102760,6.63E-03,2.51E-02
102761,6.61E-03,2.49E-02
102762,6.61E-03,2.47E-02
102763,6.64E-03,2.45E-02
102764,6.61E-03,2.43E-02
102765,6.57E-03,2.42E-02
102766,6.46E-03,2.40E-02
102767,6.43E-03,2.38E-02
102768,6.39E-03,2.36E-02
102769,6.34E-03,2.34E-02
102770,6.30E-03,2.32E-02
102771,6.34E-03,2.30E-02
102772,6.40E-03,2.28E-02
102773,6.40E-03,2.26E-02
102774,6.37E-03,2.24E-02
102775,6.28E-03,2.22E-02
102776,6.21E-03,2.20E-02
102777,6.19E-03,2.18E-02
102778,6.21E-03,2.16E-02
102779,6.13E-03,2.14E-02
102780,6.07E-03,2.12E-02
102781,6.08E-03,2.10E-02
102782,5.97E-03,2.08E-02
102783,5.93E-03,2.06E-02
102784,5.82E-03,2.04E-02
102785,5.73E-03,2.02E-02
102786,5.64E-03,2.00E-02
102787,5.58E-03,1.98E-02
102788,5.55E-03,1.97E-02
102789,5.56E-03,1.95E-02
102790,5.61E-03,1.93E-02
102791,5.78E-03,1.91E-02
102792,6.02E-03,1.89E-02
102793,5.94E-03,1.87E-02
102794,5.83E-03,1.85E-02
102795,5.66E-03,1.83E-02
102796,5.63E-03,1.81E-02
102797,5.64E-03,1.79E-02
102798,5.68E-03,1.76E-02
102799,5.65E-03,1.74E-02
102800,5.53E-03,1.72E-02
102801,5.39E-03,1.70E-02
102802,5.41E-03,1.68E-02
102803,5.44E-03,1.66E-02
102804,5.98E-03,1.64E-02
102805,5.21E-03,1.74E-02
102806,5.20E-03,7.10E-03
102807,6.58E-03,2.65E-02
102808,6.45E-03,2.67E-02
102809,6.47E-03,2.69E-02
102810,6.54E-03,2.71E-02
102811,6.57E-03,2.74E-02
102812,6.58E-03,2.76E-02
102813,6.57E-03,2.78E-02
102814,6.50E-03,2.80E-02
102815,7.05E-03,2.83E-02
102816,6.87E-03,2.85E-02
102817,6.53E-03,2.87E-02
102818,6.46E-03,2.89E-02
102819,6.54E-03,2.91E-02
102820,6.64E-03,2.93E-02
102821,6.72E-03,2.95E-02
102822,6.53E-03,2.96E-02
102823,6.37E-03,2.98E-02
102824,6.26E-03,3.00E-02
102825,6.27E-03,3.01E-02
102826,6.28E-03,3.02E-02
102827,6.32E-03,3.03E-02
102828,6.30E-03,3.04E-02
102829,6.30E-03,3.05E-02
102830,6.28E-03,3.05E-02
102831,6.30E-03,3.06E-02
102832,6.24E-03,3.06E-02
102833,6.13E-03,3.06E-02
102834,6.10E-03,3.06E-02
102835,6.00E-03,3.06E-02
102836,5.90E-03,3.06E-02
102837,5.81E-03,3.05E-02
102838,5.72E-03,3.05E-02
102839,5.64E-03,3.04E-02
102840,5.58E-03,3.04E-02
102841,5.53E-03,3.04E-02
102842,5.47E-03,3.03E-02
102843,5.41E-03,3.03E-02
102844,5.32E-03,3.03E-02
102845,4.71E-03,3.02E-02
102846,4.68E-03,3.03E-02
102847,4.51E-03,3.02E-02
102848,5.04E-03,3.02E-02
102849,5.08E-03,3.03E-02
102850,5.03E-03,3.03E-02
102851,5.06E-03,3.04E-02
102852,5.07E-03,3.05E-02
102853,5.06E-03,3.05E-02
102854,5.09E-03,3.06E-02
102855,5.10E-03,3.07E-02
102856,5.15E-03,3.08E-02
102857,5.17E-03,3.09E-02
102858,5.24E-03,3.10E-02
102859,5.31E-03,3.12E-02
102860,5.42E-03,3.13E-02
102861,5.43E-03,3.14E-02
102862,5.50E-03,3.15E-02
102863,5.55E-03,3.17E-02
102864,5.58E-03,3.18E-02
102865,5.59E-03,3.19E-02
102866,5.59E-03,3.21E-02
102867,5.65E-03,3.22E-02
102868,5.66E-03,3.23E-02
102869,5.62E-03,3.24E-02
102870,5.63E-03,3.26E-02
102871,5.56E-03,3.27E-02
102872,5.56E-03,3.28E-02
102873,5.60E-03,3.29E-02
102874,5.58E-03,3.30E-02
102875,5.63E-03,3.31E-02
102876,5.69E-03,3.32E-02
102877,5.71E-03,3.33E-02
102878,5.72E-03,3.34E-02
102879,5.69E-03,3.35E-02
102880,5.67E-03,3.36E-02
102881,5.64E-03,3.36E-02
102882,5.61E-03,3.37E-02
102883,5.66E-03,3.38E-02
102884,5.70E-03,3.38E-02
102885,5.69E-03,3.38E-02
102886,5.67E-03,3.39E-02
102887,5.72E-03,3.39E-02
102888,5.68E-03,3.39E-02
102889,5.68E-03,3.39E-02
102890,5.75E-03,3.39E-02
102891,5.75E-03,3.39E-02
102892,5.71E-03,3.39E-02
102893,5.69E-03,3.39E-02
102894,5.66E-03,3.38E-02
102895,5.62E-03,3.38E-02
102896,5.64E-03,3.38E-02
102897,5.61E-03,3.38E-02
102898,5.65E-03,3.38E-02
102899,5.68E-03,3.38E-02
102900,5.70E-03,3.38E-02
102901,5.72E-03,3.38E-02
102902,5.68E-03,3.39E-02
102903,5.76E-03,3.39E-02
102904,5.74E-03,3.39E-02
102905,5.72E-03,3.39E-02
102906,5.72E-03,3.40E-02
102907,5.67E-03,3.40E-02
102908,5.65E-03,3.40E-02
102909,5.63E-03,3.40E-02
102910,5.67E-03,3.41E-02
102911,5.68E-03,3.41E-02
102912,5.63E-03,3.41E-02
102913,5.64E-03,3.41E-02
102914,5.65E-03,3.40E-02
102915,5.62E-03,3.40E-02
102916,5.61E-03,3.39E-02
102917,5.64E-03,3.39E-02
102918,5.68E-03,3.38E-02
102919,5.70E-03,3.37E-02
102920,5.66E-03,3.36E-02
102921,5.61E-03,3.34E-02
102922,5.56E-03,3.33E-02
102923,5.61E-03,3.32E-02
102924,5.64E-03,3.30E-02
102925,5.64E-03,3.29E-02
102926,5.62E-03,3.28E-02
102927,5.56E-03,3.26E-02
102928,5.56E-03,3.25E-02
102929,5.54E-03,3.23E-02
102930,5.56E-03,3.22E-02
102931,5.56E-03,3.21E-02
102932,5.56E-03,3.19E-02
102933,5.55E-03,3.18E-02
102934,5.58E-03,3.17E-02
102935,5.56E-03,3.15E-02
102936,5.56E-03,3.14E-02
102937,5.57E-03,3.12E-02
102938,5.56E-03,3.11E-02
102939,5.56E-03,3.09E-02
102940,5.55E-03,3.08E-02
102941,5.52E-03,3.06E-02
102942,5.52E-03,3.04E-02
102943,5.51E-03,3.03E-02
102944,5.48E-03,3.01E-02
102945,5.53E-03,2.99E-02
102946,5.54E-03,2.97E-02
102947,5.55E-03,2.95E-02
102948,5.53E-03,2.94E-02
102949,5.44E-03,2.92E-02
102950,5.37E-03,2.90E-02
102951,5.41E-03,2.89E-02
102952,5.38E-03,2.87E-02
102953,5.37E-03,2.85E-02
102954,5.42E-03,2.84E-02
102955,5.38E-03,2.83E-02
102956,5.33E-03,2.81E-02
102957,5.31E-03,2.80E-02
102958,5.30E-03,2.79E-02
102959,5.32E-03,2.78E-02
102960,5.30E-03,2.76E-02
102961,5.31E-03,2.75E-02
102962,5.38E-03,2.74E-02
102963,5.41E-03,2.73E-02
102964,5.41E-03,2.72E-02
102965,5.47E-03,2.71E-02
102966,5.41E-03,2.69E-02
102967,5.42E-03,2.68E-02
102968,5.35E-03,2.66E-02
102969,5.41E-03,2.64E-02
102970,5.45E-03,2.62E-02
102971,5.50E-03,2.60E-02
102972,5.52E-03,2.58E-02
102973,5.58E-03,2.56E-02
102974,5.60E-03,2.54E-02
102975,5.63E-03,2.51E-02
102976,5.69E-03,2.48E-02
102977,5.73E-03,2.46E-02
102978,5.70E-03,2.43E-02
102979,5.67E-03,2.40E-02
102980,5.59E-03,2.37E-02
102981,5.59E-03,2.34E-02
102982,5.60E-03,2.31E-02
102983,5.65E-03,2.28E-02
102984,5.64E-03,2.26E-02
102985,5.68E-03,2.23E-02
102986,5.70E-03,2.20E-02
102987,5.72E-03,2.17E-02
102988,5.69E-03,2.14E-02
102989,5.67E-03,2.11E-02
102990,5.69E-03,2.08E-02
102991,5.65E-03,2.05E-02
102992,5.62E-03,2.03E-02
102993,5.59E-03,2.00E-02
102994,5.58E-03,1.98E-02
102995,5.54E-03,1.96E-02
102996,5.54E-03,1.94E-02
102997,5.52E-03,1.91E-02
102998,5.55E-03,1.89E-02
102999,5.59E-03,1.87E-02
103000,5.64E-03,1.85E-02
103001,5.65E-03,1.83E-02
103002,5.70E-03,1.80E-02
103003,5.68E-03,1.78E-02
103004,5.65E-03,1.75E-02
103005,5.59E-03,1.72E-02
103006,5.55E-03,1.69E-02
103007,5.49E-03,1.66E-02
103008,5.50E-03,1.63E-02
103009,5.53E-03,1.60E-02
103010,5.61E-03,1.56E-02
103011,5.63E-03,1.53E-02
103012,5.62E-03,1.50E-02
103013,5.67E-03,1.47E-02
103014,5.73E-03,1.44E-02
103015,5.71E-03,1.41E-02
103016,5.65E-03,1.38E-02
103017,5.66E-03,1.36E-02
103018,5.65E-03,1.33E-02
103019,5.70E-03,1.31E-02
103020,5.71E-03,1.29E-02
103021,5.70E-03,1.26E-02
103022,5.68E-03,1.24E-02
103023,5.65E-03,1.22E-02
103024,5.61E-03,1.20E-02
103025,5.66E-03,1.18E-02
103026,5.73E-03,1.16E-02
103027,5.76E-03,1.14E-02
103028,5.83E-03,1.12E-02
103029,5.94E-03,1.11E-02
103030,6.02E-03,1.09E-02
103031,6.04E-03,1.07E-02
103032,6.09E-03,1.06E-02
103033,6.14E-03,1.04E-02
103034,6.16E-03,1.03E-02
103035,6.17E-03,1.01E-02
103036,6.14E-03,1.00E-02
103037,6.10E-03,9.86E-03
103038,6.06E-03,9.73E-03
103039,5.99E-03,9.60E-03
103040,5.96E-03,9.48E-03
103041,5.95E-03,9.39E-03
103042,5.91E-03,9.32E-03
103043,5.94E-03,9.27E-03
103044,5.90E-03,9.23E-03
103045,5.85E-03,9.22E-03
103046,5.83E-03,9.21E-03
103047,5.73E-03,9.21E-03
103048,5.73E-03,9.20E-03
103049,5.71E-03,9.18E-03
103050,5.70E-03,9.16E-03
103051,5.68E-03,9.13E-03
103052,5.65E-03,9.09E-03
103053,5.57E-03,9.05E-03
103054,5.54E-03,9.00E-03
103055,5.57E-03,8.94E-03
103056,5.57E-03,8.88E-03
103057,5.54E-03,8.82E-03
103058,5.57E-03,8.75E-03
103059,5.60E-03,8.69E-03
103060,5.63E-03,8.62E-03
103061,5.67E-03,8.55E-03
103062,5.66E-03,8.49E-03
103063,5.69E-03,8.43E-03
103064,5.68E-03,8.37E-03
103065,5.62E-03,8.31E-03
103066,5.54E-03,8.25E-03
103067,5.45E-03,8.20E-03
103068,5.38E-03,8.15E-03
103069,5.30E-03,8.09E-03
103070,5.23E-03,8.04E-03
103071,5.23E-03,7.99E-03
103072,5.03E-03,7.94E-03
103073,5.03E-03,7.88E-03
103074,5.81E-03,7.75E-03
103075,4.51E-03,2.57E-02
103076,4.89E-03,1.81E-02
103077,4.60E-03,2.65E-02
103078,4.36E-03,2.61E-02
103079,4.66E-03,2.62E-02
103080,4.36E-03,2.59E-02
103081,4.25E-03,2.57E-02
103082,4.94E-03,2.58E-02
103083,5.60E-03,2.60E-02
103084,4.70E-03,2.67E-02
103085,4.93E-03,2.67E-02
103086,3.94E-03,2.63E-02
103087,4.08E-03,2.65E-02
103088,5.06E-03,2.67E-02
103089,4.62E-03,1.77E-02
103090,4.53E-03,1.72E-02
103091,5.04E-03,1.77E-02
103092,4.75E-03,1.82E-02
103093,5.06E-03,1.84E-02
103094,4.68E-03,1.83E-02
103095,4.83E-03,1.85E-02
103096,5.63E-03,6.86E-03
103097,6.55E-03,6.79E-03
103098,5.91E-03,7.06E-03
103099,4.43E-03,7.17E-03
103100,4.71E-03,7.26E-03
103101,5.33E-03,6.94E-03
103102,6.64E-03,7.00E-03
103103,5.23E-03,1.59E-02
103104,6.50E-03,1.60E-02
103105,5.17E-03,1.60E-02
103106,4.69E-03,1.59E-02
103107,4.82E-03,1.59E-02
103108,5.02E-03,1.60E-02
103109,5.23E-03,1.60E-02
103110,5.35E-03,1.60E-02
103111,5.41E-03,1.61E-02
103112,5.46E-03,1.61E-02
103113,5.45E-03,1.61E-02
103114,5.40E-03,1.61E-02
103115,5.26E-03,1.61E-02
103116,5.03E-03,1.61E-02
103117,4.98E-03,1.61E-02
103118,4.95E-03,1.60E-02
103119,5.01E-03,1.60E-02
103120,5.12E-03,1.60E-02
103121,5.16E-03,1.60E-02
103122,5.20E-03,1.59E-02
103123,5.27E-03,1.59E-02
103124,5.33E-03,1.59E-02
103125,5.45E-03,1.58E-02
103126,5.51E-03,1.58E-02
103127,5.61E-03,1.57E-02
103128,5.66E-03,1.56E-02
103129,5.53E-03,1.56E-02
103130,5.23E-03,1.53E-02
103131,5.10E-03,1.52E-02
103132,5.19E-03,1.50E-02
103133,3.82E-03,1.50E-02
103134,5.47E-03,1.54E-02
103135,6.06E-03,1.58E-02
103136,6.54E-03,1.62E-02
103137,6.84E-03,1.66E-02
103138,6.87E-03,1.70E-02
103139,6.76E-03,1.74E-02
103140,6.73E-03,1.77E-02
103141,6.68E-03,1.81E-02
103142,6.65E-03,1.84E-02
103143,6.66E-03,1.87E-02
103144,6.89E-03,1.91E-02
103145,6.95E-03,1.94E-02
103146,7.00E-03,1.97E-02
103147,6.99E-03,2.00E-02
103148,6.74E-03,2.03E-02
103149,6.71E-03,2.05E-02
103150,6.72E-03,2.08E-02
103151,6.71E-03,2.10E-02
103152,6.76E-03,2.13E-02
103153,6.80E-03,2.15E-02
103154,6.82E-03,2.17E-02
103155,6.81E-03,2.19E-02
103156,6.68E-03,2.21E-02
103157,6.65E-03,2.23E-02
103158,6.57E-03,2.25E-02
103159,6.47E-03,2.27E-02
103160,6.41E-03,2.29E-02
103161,6.33E-03,2.31E-02
103162,6.30E-03,2.33E-02
103163,6.29E-03,2.34E-02
103164,6.28E-03,2.36E-02
103165,6.31E-03,2.37E-02
103166,6.32E-03,2.39E-02
103167,6.33E-03,2.40E-02
103168,6.33E-03,2.41E-02
103169,6.42E-03,2.43E-02
103170,6.52E-03,2.44E-02
103171,6.54E-03,2.45E-02
103172,6.55E-03,2.46E-02
103173,6.66E-03,2.48E-02
103174,6.61E-03,2.49E-02
103175,6.54E-03,2.50E-02
103176,6.42E-03,2.51E-02
103177,6.31E-03,2.52E-02
103178,6.28E-03,2.53E-02
103179,6.31E-03,2.54E-02
103180,6.40E-03,2.55E-02
103181,6.56E-03,2.57E-02
103182,6.63E-03,2.57E-02
103183,6.61E-03,2.58E-02
103184,6.54E-03,2.59E-02
103185,6.43E-03,2.60E-02
103186,6.36E-03,2.61E-02
103187,6.39E-03,2.61E-02
103188,6.43E-03,2.62E-02
103189,6.59E-03,2.63E-02
103190,6.56E-03,2.63E-02
103191,6.57E-03,2.64E-02
103192,6.58E-03,2.64E-02
103193,6.50E-03,2.64E-02
103194,6.23E-03,2.64E-02
103195,6.16E-03,2.64E-02
103196,6.06E-03,2.64E-02
103197,5.99E-03,2.66E-02
103198,5.88E-03,2.68E-02
103199,5.74E-03,2.70E-02
103200,5.71E-03,2.72E-02
103201,5.67E-03,2.75E-02
103202,5.63E-03,2.77E-02
103203,5.57E-03,2.79E-02
103204,5.50E-03,2.82E-02
103205,5.47E-03,2.84E-02
103206,5.40E-03,2.86E-02
103207,5.36E-03,2.87E-02
103208,5.33E-03,2.89E-02
103209,5.31E-03,2.90E-02
103210,5.33E-03,2.92E-02
103211,5.30E-03,2.93E-02
103212,5.33E-03,2.95E-02
103213,5.32E-03,2.97E-02
103214,5.30E-03,2.99E-02
103215,5.32E-03,3.03E-02
103216,5.29E-03,3.06E-02
103217,5.30E-03,3.10E-02
103218,5.39E-03,3.15E-02
103219,5.44E-03,3.19E-02
103220,5.47E-03,3.23E-02
103221,5.46E-03,3.26E-02
103222,5.47E-03,3.30E-02
103223,5.46E-03,3.33E-02
103224,5.46E-03,3.36E-02
103225,5.40E-03,3.40E-02
103226,5.30E-03,3.44E-02
103227,5.21E-03,3.47E-02
103228,5.04E-03,3.52E-02
103229,4.97E-03,3.56E-02
103230,4.83E-03,3.61E-02
103231,4.68E-03,3.66E-02
103232,4.43E-03,3.71E-02
103233,4.22E-03,3.76E-02
103234,5.00E-03,1.46E-02
103235,5.25E-03,1.88E-02
103236,6.37E-03,7.37E-03
103237,6.67E-03,1.56E-02
103238,6.78E-03,1.57E-02
103239,5.67E-03,1.57E-02
103240,5.20E-03,1.57E-02
103241,5.10E-03,1.57E-02
103242,5.17E-03,1.57E-02
103243,5.30E-03,1.57E-02
103244,5.39E-03,1.58E-02
103245,5.43E-03,1.58E-02
103246,5.44E-03,1.58E-02
103247,5.45E-03,1.58E-02
103248,5.39E-03,1.58E-02
103249,5.30E-03,1.58E-02
103250,5.21E-03,1.58E-02
103251,5.11E-03,1.58E-02
103252,5.12E-03,1.58E-02
103253,5.17E-03,1.58E-02
103254,5.19E-03,1.57E-02
103255,5.21E-03,1.57E-02
103256,5.28E-03,1.57E-02
103257,5.34E-03,1.56E-02
103258,5.37E-03,1.56E-02
103259,5.49E-03,1.55E-02
103260,5.55E-03,1.54E-02
103261,5.58E-03,1.54E-02
103262,5.61E-03,1.53E-02
103263,5.53E-03,1.52E-02
103264,5.50E-03,1.51E-02
103265,5.42E-03,1.50E-02
103266,5.35E-03,1.49E-02
103267,5.21E-03,1.48E-02
103268,5.17E-03,1.46E-02
103269,5.92E-03,2.65E-02
103270,5.82E-03,2.67E-02
103271,5.69E-03,2.70E-02
103272,5.65E-03,2.72E-02
103273,5.63E-03,2.74E-02
103274,5.59E-03,2.77E-02
103275,5.52E-03,2.79E-02
103276,5.50E-03,2.82E-02
103277,5.51E-03,2.84E-02
103278,5.46E-03,2.86E-02
103279,5.41E-03,2.88E-02
103280,5.39E-03,2.89E-02
103281,5.36E-03,2.91E-02
103282,5.34E-03,2.92E-02
103283,5.37E-03,2.93E-02
103284,5.37E-03,2.95E-02
103285,5.35E-03,2.96E-02
103286,5.33E-03,2.99E-02
103287,5.34E-03,3.02E-02
103288,5.35E-03,3.06E-02
103289,5.34E-03,3.11E-02
103290,5.41E-03,3.16E-02
103291,5.46E-03,3.20E-02
103292,5.54E-03,3.25E-02
103293,5.50E-03,3.28E-02
103294,5.53E-03,3.32E-02
103295,5.54E-03,3.35E-02
103296,5.47E-03,3.38E-02
103297,5.38E-03,3.41E-02
103298,5.35E-03,3.45E-02
103299,5.22E-03,3.50E-02
103300,5.08E-03,3.54E-02
103301,4.98E-03,3.59E-02
103302,4.83E-03,3.63E-02
103303,4.67E-03,3.68E-02
103304,4.43E-03,3.74E-02
103305,3.67E-03,3.78E-02
103306,4.34E-03,3.81E-02
103307,5.90E-03,3.83E-02
103308,5.61E-03,3.88E-02
103309,5.57E-03,3.94E-02
103310,5.57E-03,3.99E-02
103311,5.61E-03,4.03E-02
103312,5.64E-03,4.05E-02
103313,5.65E-03,4.08E-02
103314,5.67E-03,4.12E-02
103315,5.61E-03,4.15E-02
103316,5.56E-03,4.17E-02
103317,5.57E-03,4.18E-02
103318,5.57E-03,4.19E-02
103319,5.54E-03,4.20E-02
103320,5.55E-03,4.22E-02
103321,5.62E-03,4.25E-02
103322,5.63E-03,4.27E-02
103323,5.72E-03,4.28E-02
103324,5.71E-03,4.28E-02
103325,5.71E-03,4.29E-02
103326,5.66E-03,4.31E-02
103327,5.66E-03,4.31E-02
103328,5.67E-03,4.30E-02
103329,5.65E-03,4.28E-02
103330,5.64E-03,4.26E-02
103331,5.61E-03,4.25E-02
103332,5.58E-03,4.24E-02
103333,5.54E-03,4.22E-02
103334,5.47E-03,4.21E-02
103335,5.49E-03,4.19E-02
103336,5.43E-03,4.18E-02
103337,5.39E-03,4.18E-02
103338,5.39E-03,4.18E-02
103339,5.41E-03,4.20E-02
103340,5.47E-03,4.20E-02
103341,5.48E-03,4.20E-02
103342,5.55E-03,4.22E-02
103343,5.55E-03,4.24E-02
103344,5.61E-03,4.26E-02
103345,5.67E-03,4.26E-02
103346,5.61E-03,4.26E-02
103347,5.60E-03,4.26E-02
103348,5.64E-03,4.25E-02
103349,5.66E-03,4.25E-02
103350,5.61E-03,4.24E-02
103351,5.60E-03,4.23E-02
103352,5.63E-03,4.22E-02
103353,5.63E-03,4.21E-02
103354,5.61E-03,4.20E-02
103355,5.55E-03,4.19E-02
103356,5.54E-03,4.17E-02
103357,5.54E-03,4.16E-02
103358,5.51E-03,4.15E-02
103359,5.42E-03,4.13E-02
103360,5.42E-03,4.12E-02
103361,5.37E-03,4.12E-02
103362,5.37E-03,4.13E-02
103363,5.39E-03,4.14E-02
103364,5.38E-03,4.14E-02
103365,5.43E-03,4.14E-02
103366,5.42E-03,4.16E-02
103367,5.54E-03,4.20E-02
103368,5.56E-03,4.24E-02
103369,5.56E-03,4.28E-02
103370,5.57E-03,4.32E-02
103371,5.59E-03,4.34E-02
103372,5.56E-03,4.38E-02
103373,5.45E-03,4.41E-02
103374,5.52E-03,4.46E-02
103375,5.60E-03,4.51E-02
103376,5.68E-03,4.56E-02
103377,5.68E-03,4.60E-02
103378,5.71E-03,4.63E-02
103379,5.76E-03,4.64E-02
103380,5.76E-03,4.64E-02
103381,5.81E-03,4.65E-02
103382,5.82E-03,4.66E-02
103383,5.79E-03,4.65E-02
103384,5.77E-03,4.63E-02
103385,5.70E-03,4.60E-02
103386,5.65E-03,4.56E-02
103387,5.64E-03,4.53E-02
103388,5.65E-03,4.49E-02
103389,5.69E-03,4.46E-02
103390,5.73E-03,4.41E-02
103391,5.71E-03,4.37E-02
103392,5.60E-03,4.32E-02
103393,5.54E-03,4.27E-02
103394,5.47E-03,4.21E-02
103395,5.41E-03,4.14E-02
103396,5.32E-03,4.08E-02
103397,5.29E-03,4.03E-02
103398,5.28E-03,4.01E-02
103399,5.37E-03,4.02E-02
103400,5.41E-03,4.06E-02
103401,5.46E-03,4.07E-02
103402,5.51E-03,4.06E-02
103403,5.54E-03,4.10E-02
103404,5.62E-03,4.15E-02
103405,5.73E-03,4.18E-02
103406,5.72E-03,4.18E-02
103407,5.66E-03,4.17E-02
103408,5.62E-03,4.16E-02
103409,5.61E-03,4.15E-02
103410,5.60E-03,4.15E-02
103411,5.64E-03,4.15E-02
103412,5.67E-03,4.14E-02
103413,5.73E-03,4.10E-02
103414,5.67E-03,4.05E-02
103415,5.60E-03,4.03E-02
103416,5.54E-03,4.01E-02
103417,5.54E-03,3.97E-02
103418,5.52E-03,3.93E-02
103419,5.52E-03,3.90E-02
103420,5.49E-03,3.88E-02
103421,5.53E-03,3.86E-02
103422,5.58E-03,3.83E-02
103423,5.58E-03,3.82E-02
103424,5.61E-03,3.83E-02
103425,5.67E-03,3.85E-02
103426,5.66E-03,3.86E-02
103427,5.71E-03,3.85E-02
103428,5.73E-03,3.84E-02
103429,5.76E-03,3.82E-02
103430,5.77E-03,3.80E-02
103431,5.78E-03,3.79E-02
103432,5.75E-03,3.76E-02
103433,5.71E-03,3.72E-02
103434,5.70E-03,3.68E-02
103435,5.67E-03,3.64E-02
103436,5.69E-03,3.59E-02
103437,5.69E-03,3.53E-02
103438,5.69E-03,3.47E-02
103439,5.67E-03,3.41E-02
103440,5.62E-03,3.35E-02
103441,5.62E-03,3.29E-02
103442,5.63E-03,3.22E-02
103443,5.62E-03,3.15E-02
103444,5.61E-03,3.08E-02
103445,5.60E-03,3.02E-02
103446,5.52E-03,2.95E-02
103447,5.48E-03,2.90E-02
103448,5.45E-03,2.84E-02
103449,5.39E-03,2.80E-02
103450,5.42E-03,2.77E-02
103451,5.47E-03,2.76E-02
103452,5.51E-03,2.75E-02
103453,5.52E-03,2.74E-02
103454,5.54E-03,2.73E-02
103455,5.59E-03,2.73E-02
103456,5.65E-03,2.73E-02
103457,5.69E-03,2.73E-02
103458,5.70E-03,2.71E-02
103459,5.74E-03,2.70E-02
103460,5.74E-03,2.67E-02
103461,5.71E-03,2.65E-02
103462,5.64E-03,2.62E-02
103463,5.71E-03,2.59E-02
103464,5.76E-03,2.56E-02
103465,5.77E-03,2.53E-02
103466,5.87E-03,2.50E-02
103467,5.94E-03,2.47E-02
103468,5.97E-03,2.44E-02
103469,5.98E-03,2.40E-02
103470,5.98E-03,2.36E-02
103471,5.92E-03,2.30E-02
103472,5.85E-03,2.23E-02
103473,5.73E-03,2.14E-02
103474,5.67E-03,2.04E-02
103475,5.53E-03,1.95E-02
103476,5.50E-03,1.83E-02
103477,5.40E-03,1.71E-02
103478,5.34E-03,1.59E-02
103479,5.32E-03,1.49E-02
103480,5.23E-03,1.41E-02
103481,5.21E-03,1.34E-02
103482,5.19E-03,1.30E-02
103483,5.25E-03,1.26E-02
103484,5.29E-03,1.24E-02
103485,5.32E-03,1.22E-02
103486,5.36E-03,1.20E-02
103487,5.39E-03,1.18E-02
103488,5.39E-03,1.17E-02
103489,5.33E-03,1.16E-02
103490,5.42E-03,1.15E-02
103491,5.46E-03,1.14E-02
103492,5.47E-03,1.13E-02
103493,5.51E-03,1.12E-02
103494,5.52E-03,1.11E-02
103495,5.55E-03,1.10E-02
103496,5.52E-03,1.09E-02
103497,5.54E-03,1.07E-02
103498,5.54E-03,1.05E-02
103499,5.50E-03,1.03E-02
103500,5.47E-03,1.01E-02
103501,5.37E-03,9.85E-03
103502,5.35E-03,9.62E-03
103503,5.32E-03,9.45E-03
103504,5.34E-03,9.35E-03
103505,5.39E-03,9.31E-03
103506,5.44E-03,9.27E-03
103507,5.40E-03,9.22E-03
103508,5.47E-03,9.21E-03
103509,5.51E-03,9.20E-03
103510,5.55E-03,9.17E-03
103511,5.57E-03,9.10E-03
103512,5.52E-03,9.00E-03
103513,5.47E-03,8.88E-03
103514,5.44E-03,8.73E-03
103515,5.35E-03,8.57E-03
103516,5.24E-03,8.40E-03
103517,5.20E-03,8.24E-03
103518,5.14E-03,8.11E-03
103519,5.22E-03,8.03E-03
103520,5.28E-03,8.06E-03
103521,5.35E-03,8.21E-03
103522,5.50E-03,8.43E-03
103523,5.55E-03,8.61E-03
103524,5.60E-03,8.67E-03
103525,5.61E-03,8.59E-03
103526,5.58E-03,8.57E-03
103527,5.62E-03,8.56E-03
103528,5.56E-03,8.37E-03
103529,5.55E-03,8.05E-03
103530,5.44E-03,7.67E-03
103531,5.39E-03,7.28E-03
103532,5.29E-03,6.93E-03
103533,5.24E-03,6.63E-03
103534,5.19E-03,6.39E-03
103535,5.11E-03,6.20E-03
103536,5.12E-03,6.06E-03
103537,5.13E-03,5.98E-03
103538,5.12E-03,5.96E-03
103539,5.13E-03,5.96E-03
103540,5.19E-03,5.94E-03
103541,5.25E-03,5.97E-03
103542,5.34E-03,6.09E-03
103543,5.41E-03,6.22E-03
103544,5.44E-03,6.32E-03
103545,5.51E-03,6.38E-03
103546,5.48E-03,6.41E-03
103547,5.55E-03,6.43E-03
103548,5.51E-03,6.51E-03
103549,5.48E-03,6.53E-03
103550,5.47E-03,6.45E-03
103551,5.42E-03,6.35E-03
103552,5.41E-03,6.35E-03
103553,5.43E-03,6.35E-03
103554,5.39E-03,6.33E-03
103555,5.37E-03,6.33E-03
103556,5.38E-03,6.37E-03
103557,5.38E-03,6.44E-03
103558,5.40E-03,6.52E-03
103559,5.42E-03,6.59E-03
103560,5.46E-03,6.67E-03
103561,5.54E-03,6.73E-03
103562,5.62E-03,6.79E-03
103563,5.68E-03,6.84E-03
103564,5.75E-03,6.87E-03
103565,5.81E-03,6.90E-03
103566,5.91E-03,6.91E-03
103567,6.00E-03,6.90E-03
103568,6.03E-03,6.87E-03
103569,6.08E-03,6.79E-03
103570,5.91E-03,6.67E-03
103571,5.75E-03,6.52E-03
103572,5.74E-03,6.34E-03
103573,5.51E-03,6.15E-03
103574,5.31E-03,5.95E-03
103575,4.71E-03,5.65E-03
103576,4.45E-03,5.31E-03
103577,5.92E-03,6.96E-03
103578,5.24E-03,7.37E-03
103579,6.21E-03,7.12E-03
103580,6.15E-03,6.85E-03
103581,5.85E-03,6.83E-03
103582,5.45E-03,7.22E-03
103583,5.26E-03,7.29E-03
103584,5.10E-03,1.86E-02
103585,5.23E-03,1.86E-02
103586,4.75E-03,1.82E-02
103587,4.90E-03,1.79E-02
103588,5.00E-03,1.73E-02
103589,4.67E-03,1.75E-02
103590,5.18E-03,2.65E-02
103591,4.97E-03,2.67E-02
103592,5.09E-03,2.61E-02
103593,5.28E-03,2.59E-02
103594,4.53E-03,2.57E-02
103595,4.50E-03,2.58E-02
103596,4.80E-03,2.64E-02
103597,4.59E-03,2.58E-02
103598,4.98E-03,2.65E-02
103599,5.15E-03,2.65E-02
103600,4.70E-03,2.60E-02
103601,4.96E-03,2.62E-02
103602,5.19E-03,1.82E-02
103603,4.28E-03,4.82E-03
103604,3.87E-03,4.49E-03
103605,5.01E-03,4.99E-03
103606,4.33E-03,5.41E-03
103607,4.15E-03,5.66E-03
103608,4.22E-03,5.91E-03
103609,4.59E-03,6.12E-03
103610,5.06E-03,6.27E-03
103611,5.22E-03,6.39E-03
103612,5.18E-03,6.51E-03
103613,5.07E-03,6.61E-03
103614,5.04E-03,6.69E-03
103615,5.21E-03,6.78E-03
103616,5.50E-03,6.86E-03
103617,5.76E-03,6.95E-03
103618,5.72E-03,7.03E-03
103619,5.46E-03,7.13E-03
103620,5.26E-03,7.23E-03
103621,5.18E-03,7.35E-03
103622,5.30E-03,7.46E-03
103623,5.09E-03,1.48E-02
103624,5.71E-03,1.52E-02
103625,6.09E-03,1.57E-02
103626,6.40E-03,1.61E-02
103627,6.64E-03,1.65E-02
103628,6.72E-03,1.68E-02
103629,6.71E-03,1.72E-02
103630,6.70E-03,1.76E-02
103631,6.64E-03,1.80E-02
103632,6.70E-03,1.83E-02
103633,6.72E-03,1.86E-02
103634,6.75E-03,1.89E-02
103635,6.84E-03,1.93E-02
103636,6.87E-03,1.96E-02
103637,6.86E-03,1.99E-02
103638,6.88E-03,2.01E-02
103639,6.90E-03,2.04E-02
103640,6.82E-03,2.07E-02
103641,6.85E-03,2.09E-02
103642,6.82E-03,2.12E-02
103643,6.80E-03,2.14E-02
103644,6.74E-03,2.16E-02
103645,6.64E-03,2.18E-02
103646,6.62E-03,2.20E-02
103647,6.57E-03,2.22E-02
103648,6.51E-03,2.24E-02
103649,6.50E-03,2.26E-02
103650,6.42E-03,2.28E-02
103651,6.37E-03,2.30E-02
103652,6.41E-03,2.31E-02
103653,6.35E-03,2.33E-02
103654,6.34E-03,2.34E-02
103655,6.36E-03,2.36E-02
103656,6.36E-03,2.37E-02
103657,6.35E-03,2.39E-02
103658,6.39E-03,2.40E-02
103659,6.46E-03,2.42E-02
103660,6.52E-03,2.43E-02
103661,6.52E-03,2.44E-02
103662,6.53E-03,2.45E-02
103663,6.59E-03,2.46E-02
103664,6.56E-03,2.48E-02
103665,6.50E-03,2.49E-02
103666,6.42E-03,2.50E-02
103667,6.36E-03,2.51E-02
103668,6.36E-03,2.52E-02
103669,6.42E-03,2.53E-02
103670,6.52E-03,2.54E-02
103671,6.62E-03,2.55E-02
103672,6.65E-03,2.56E-02
103673,6.60E-03,2.57E-02
103674,6.56E-03,2.57E-02
103675,6.48E-03,2.58E-02
103676,6.43E-03,2.59E-02
103677,6.43E-03,2.60E-02
103678,6.53E-03,2.60E-02
103679,6.65E-03,2.61E-02
103680,6.64E-03,2.61E-02
103681,6.63E-03,2.62E-02
103682,6.62E-03,2.62E-02
103683,6.51E-03,2.62E-02
103684,6.30E-03,2.62E-02
103685,6.25E-03,2.62E-02
103686,6.09E-03,2.62E-02
103687,5.98E-03,2.63E-02
103688,6.07E-03,2.61E-02
103689,4.56E-03,7.89E-03
103690,5.76E-03,7.90E-03
103691,5.31E-03,8.00E-03
103692,5.26E-03,8.07E-03
103693,5.30E-03,8.13E-03
103694,5.31E-03,8.18E-03
103695,5.39E-03,8.23E-03
103696,5.47E-03,8.29E-03
103697,5.52E-03,8.35E-03
103698,5.63E-03,8.40E-03
103699,5.61E-03,8.47E-03
103700,5.64E-03,8.53E-03
103701,5.65E-03,8.59E-03
103702,5.67E-03,8.66E-03
103703,5.66E-03,8.72E-03
103704,5.64E-03,8.79E-03
103705,5.61E-03,8.85E-03
103706,5.58E-03,8.92E-03
103707,5.59E-03,8.99E-03
103708,5.58E-03,9.05E-03
103709,5.59E-03,9.11E-03
103710,5.59E-03,9.16E-03
103711,5.60E-03,9.21E-03
103712,5.65E-03,9.26E-03
103713,5.64E-03,9.30E-03
103714,5.63E-03,9.33E-03
103715,5.65E-03,9.35E-03
103716,5.69E-03,9.37E-03
103717,5.73E-03,9.38E-03
103718,5.80E-03,9.40E-03
103719,5.78E-03,9.41E-03
103720,5.81E-03,9.43E-03
103721,5.84E-03,9.47E-03
103722,5.87E-03,9.51E-03
103723,5.91E-03,9.58E-03
103724,5.89E-03,9.67E-03
103725,5.93E-03,9.78E-03
103726,5.99E-03,9.90E-03
103727,5.96E-03,1.00E-02
103728,6.01E-03,1.02E-02
103729,6.05E-03,1.03E-02
103730,6.02E-03,1.04E-02
103731,6.01E-03,1.06E-02
103732,6.00E-03,1.07E-02
103733,5.98E-03,1.09E-02
103734,5.94E-03,1.11E-02
103735,5.85E-03,1.12E-02
103736,5.83E-03,1.14E-02
103737,5.77E-03,1.16E-02
103738,5.75E-03,1.18E-02
103739,5.75E-03,1.20E-02
103740,5.68E-03,1.22E-02
103741,5.69E-03,1.24E-02
103742,5.71E-03,1.26E-02
103743,5.70E-03,1.28E-02
103744,5.69E-03,1.31E-02
103745,5.69E-03,1.33E-02
103746,5.66E-03,1.35E-02
103747,5.69E-03,1.38E-02
103748,5.65E-03,1.40E-02
103749,5.69E-03,1.43E-02
103750,5.71E-03,1.46E-02
103751,5.70E-03,1.49E-02
103752,5.62E-03,1.52E-02
103753,5.62E-03,1.55E-02
103754,5.56E-03,1.58E-02
103755,5.56E-03,1.61E-02
103756,5.52E-03,1.64E-02
103757,5.52E-03,1.67E-02
103758,5.51E-03,1.70E-02
103759,5.56E-03,1.73E-02
103760,5.62E-03,1.76E-02
103761,5.63E-03,1.78E-02
103762,5.68E-03,1.81E-02
103763,5.66E-03,1.83E-02
103764,5.67E-03,1.85E-02
103765,5.66E-03,1.88E-02
103766,5.62E-03,1.89E-02
103767,5.60E-03,1.91E-02
103768,5.61E-03,1.93E-02
103769,5.57E-03,1.95E-02
103770,5.67E-03,1.98E-02
103771,5.64E-03,2.00E-02
103772,5.64E-03,2.02E-02
103773,5.62E-03,2.04E-02
103774,5.63E-03,2.07E-02
103775,5.61E-03,2.10E-02
103776,5.68E-03,2.12E-02
103777,5.68E-03,2.15E-02
103778,5.72E-03,2.18E-02
103779,5.70E-03,2.21E-02
103780,5.67E-03,2.24E-02
103781,5.66E-03,2.26E-02
103782,5.62E-03,2.29E-02
103783,5.60E-03,2.32E-02
103784,5.59E-03,2.35E-02
103785,5.64E-03,2.37E-02
103786,5.68E-03,2.40E-02
103787,5.76E-03,2.43E-02
103788,5.68E-03,2.46E-02
103789,5.66E-03,2.48E-02
103790,5.60E-03,2.51E-02
103791,5.62E-03,2.53E-02
103792,5.52E-03,2.55E-02
103793,5.50E-03,2.57E-02
103794,5.52E-03,2.59E-02
103795,5.52E-03,2.61E-02
103796,5.48E-03,2.63E-02
103797,5.48E-03,2.64E-02
103798,5.47E-03,2.66E-02
103799,5.51E-03,2.67E-02
103800,5.44E-03,2.68E-02
103801,5.48E-03,2.70E-02
103802,5.47E-03,2.71E-02
103803,5.44E-03,2.72E-02
103804,5.39E-03,2.73E-02
103805,5.38E-03,2.74E-02
103806,5.40E-03,2.75E-02
103807,5.41E-03,2.77E-02
103808,5.42E-03,2.78E-02
103809,5.52E-03,2.79E-02
103810,5.51E-03,2.80E-02
103811,5.44E-03,2.82E-02
103812,5.48E-03,2.83E-02
103813,5.47E-03,2.85E-02
103814,5.50E-03,2.86E-02
103815,5.49E-03,2.88E-02
103816,5.50E-03,2.89E-02
103817,5.51E-03,2.91E-02
103818,5.52E-03,2.93E-02
103819,5.50E-03,2.94E-02
103820,5.49E-03,2.96E-02
103821,5.53E-03,2.98E-02
103822,5.53E-03,3.00E-02
103823,5.55E-03,3.01E-02
103824,5.56E-03,3.03E-02
103825,5.59E-03,3.05E-02
103826,5.57E-03,3.06E-02
103827,5.60E-03,3.08E-02
103828,5.59E-03,3.09E-02
103829,5.63E-03,3.10E-02
103830,5.61E-03,3.12E-02
103831,5.59E-03,3.13E-02
103832,5.60E-03,3.14E-02
103833,5.59E-03,3.16E-02
103834,5.55E-03,3.17E-02
103835,5.53E-03,3.18E-02
103836,5.54E-03,3.20E-02
103837,5.57E-03,3.21E-02
103838,5.60E-03,3.23E-02
103839,5.61E-03,3.24E-02
103840,5.61E-03,3.25E-02
103841,5.61E-03,3.27E-02
103842,5.56E-03,3.28E-02
103843,5.58E-03,3.29E-02
103844,5.59E-03,3.30E-02
103845,5.64E-03,3.31E-02
103846,5.62E-03,3.32E-02
103847,5.60E-03,3.33E-02
103848,5.59E-03,3.34E-02
103849,5.61E-03,3.34E-02
103850,5.63E-03,3.35E-02
103851,5.65E-03,3.35E-02
103852,5.68E-03,3.35E-02
103853,5.67E-03,3.35E-02
103854,5.61E-03,3.35E-02
103855,5.56E-03,3.35E-02
103856,5.62E-03,3.35E-02
103857,5.71E-03,3.34E-02
103858,5.72E-03,3.34E-02
103859,5.72E-03,3.34E-02
103860,5.72E-03,3.34E-02
103861,5.71E-03,3.34E-02
103862,5.68E-03,3.33E-02
103863,5.67E-03,3.33E-02
103864,5.64E-03,3.33E-02
103865,5.63E-03,3.33E-02
103866,5.60E-03,3.33E-02
103867,5.57E-03,3.33E-02
103868,5.62E-03,3.33E-02
103869,5.67E-03,3.33E-02
103870,5.64E-03,3.33E-02
103871,5.64E-03,3.33E-02
103872,5.69E-03,3.34E-02
103873,5.68E-03,3.34E-02
103874,5.67E-03,3.34E-02
103875,5.64E-03,3.34E-02
103876,5.63E-03,3.34E-02
103877,5.66E-03,3.34E-02
103878,5.66E-03,3.34E-02
103879,5.67E-03,3.33E-02
103880,5.69E-03,3.33E-02
103881,5.68E-03,3.33E-02
103882,5.64E-03,3.32E-02
103883,5.66E-03,3.32E-02
103884,5.69E-03,3.31E-02
103885,5.70E-03,3.30E-02
103886,5.70E-03,3.29E-02
103887,5.68E-03,3.28E-02
103888,5.68E-03,3.28E-02
103889,5.66E-03,3.27E-02
103890,5.63E-03,3.26E-02
103891,5.60E-03,3.24E-02
103892,5.57E-03,3.23E-02
103893,5.58E-03,3.22E-02
103894,5.64E-03,3.21E-02
103895,5.66E-03,3.20E-02
103896,5.73E-03,3.19E-02
103897,5.68E-03,3.18E-02
103898,5.64E-03,3.16E-02
103899,5.61E-03,3.15E-02
103900,5.58E-03,3.14E-02
103901,5.52E-03,3.13E-02
103902,5.48E-03,3.11E-02
103903,5.47E-03,3.10E-02
103904,5.47E-03,3.09E-02
103905,5.41E-03,3.08E-02
103906,5.31E-03,3.06E-02
103907,5.31E-03,3.05E-02
103908,5.28E-03,3.04E-02
103909,5.24E-03,3.03E-02
103910,5.21E-03,3.02E-02
103911,5.20E-03,3.01E-02
103912,5.24E-03,3.01E-02
103913,5.21E-03,3.00E-02
103914,5.17E-03,2.99E-02
103915,5.12E-03,2.99E-02
103916,5.00E-03,2.98E-02
103917,4.84E-03,2.99E-02
103918,4.95E-03,2.99E-02
103919,5.07E-03,2.98E-02
103920,5.23E-03,2.99E-02
103921,5.34E-03,2.99E-02
103922,5.43E-03,3.00E-02
103923,5.53E-03,3.00E-02
103924,5.54E-03,3.00E-02
103925,5.61E-03,3.01E-02
103926,5.69E-03,3.01E-02
103927,5.74E-03,3.02E-02
103928,5.81E-03,3.02E-02
103929,5.90E-03,3.02E-02
103930,5.95E-03,3.02E-02
103931,6.03E-03,3.02E-02
103932,6.07E-03,3.02E-02
103933,6.10E-03,3.02E-02
103934,6.05E-03,3.02E-02
103935,6.10E-03,3.01E-02
103936,6.11E-03,3.01E-02
103937,6.15E-03,3.00E-02
103938,6.10E-03,2.99E-02
103939,6.12E-03,2.98E-02
103940,6.14E-03,2.97E-02
103941,6.18E-03,2.96E-02
103942,6.28E-03,2.94E-02
103943,6.30E-03,2.93E-02
103944,6.29E-03,2.91E-02
103945,6.29E-03,2.89E-02
103946,6.27E-03,2.88E-02
103947,6.36E-03,2.86E-02
103948,6.38E-03,2.83E-02
103949,6.36E-03,2.82E-02
103950,6.34E-03,2.80E-02
103951,6.26E-03,2.77E-02
103952,6.20E-03,2.75E-02
103953,6.26E-03,2.73E-02
103954,6.19E-03,2.71E-02
103955,6.19E-03,2.69E-02
103956,6.30E-03,2.67E-02
103957,6.58E-03,2.65E-02
103958,6.79E-03,2.63E-02
103959,6.84E-03,2.60E-02
103960,6.80E-03,2.58E-02
103961,6.64E-03,2.56E-02
103962,6.50E-03,2.54E-02
103963,6.36E-03,2.52E-02
103964,6.34E-03,2.50E-02
103965,6.37E-03,2.48E-02
103966,6.36E-03,2.46E-02
103967,6.27E-03,2.44E-02
103968,6.24E-03,2.43E-02
103969,6.19E-03,2.41E-02
103970,6.14E-03,2.39E-02
103971,6.11E-03,2.37E-02
103972,6.11E-03,2.35E-02
103973,6.10E-03,2.33E-02
103974,6.11E-03,2.31E-02
103975,6.14E-03,2.29E-02
103976,6.09E-03,2.27E-02
103977,6.12E-03,2.26E-02
103978,6.04E-03,2.24E-02
103979,6.04E-03,2.22E-02
103980,6.06E-03,2.20E-02
103981,6.04E-03,2.18E-02
103982,5.98E-03,2.16E-02
103983,5.95E-03,2.14E-02
103984,5.94E-03,2.12E-02
103985,5.85E-03,2.10E-02
103986,5.82E-03,2.08E-02
103987,5.76E-03,2.06E-02
103988,5.68E-03,2.04E-02
103989,5.65E-03,2.02E-02
103990,5.61E-03,2.00E-02
103991,5.55E-03,1.98E-02
103992,5.60E-03,1.96E-02
103993,5.66E-03,1.94E-02
103994,5.74E-03,1.92E-02
103995,5.81E-03,1.91E-02
103996,5.84E-03,1.89E-02
103997,5.79E-03,1.87E-02
103998,5.67E-03,1.85E-02
103999,5.64E-03,1.83E-02
104000,5.70E-03,1.81E-02
104001,5.72E-03,1.79E-02
104002,5.67E-03,1.77E-02
104003,5.59E-03,1.74E-02
104004,5.56E-03,1.72E-02
104005,5.57E-03,1.70E-02
104006,5.71E-03,1.68E-02
104007,6.03E-03,1.66E-02
104008,6.07E-03,1.64E-02
104009,6.05E-03,1.62E-02
104010,5.41E-03,1.56E-02
104011,5.75E-03,1.60E-02
104012,5.63E-03,1.59E-02
104013,6.23E-03,1.57E-02
104014,6.17E-03,1.54E-02
104015,4.87E-03,1.53E-02
104016,5.47E-03,6.90E-03
104017,3.59E-03,7.11E-03
104018,5.31E-03,1.77E-02
104019,5.10E-03,1.79E-02
104020,5.04E-03,2.59E-02
104021,5.10E-03,2.64E-02
104022,4.96E-03,2.60E-02
104023,4.90E-03,2.59E-02
104024,5.09E-03,2.60E-02
104025,5.09E-03,2.65E-02
104026,5.15E-03,1.76E-02
104027,5.18E-03,1.80E-02
104028,5.32E-03,1.84E-02
104029,4.84E-03,7.18E-03
104030,5.51E-03,6.88E-03
104031,5.50E-03,7.57E-03
104032,5.71E-03,7.48E-03
104033,5.69E-03,7.67E-03
104034,5.97E-03,7.78E-03
104035,4.16E-03,4.47E-03
104036,3.76E-03,4.02E-03
104037,4.52E-03,4.11E-03
104038,5.44E-03,5.23E-03
104039,4.62E-03,4.93E-03
104040,5.35E-03,5.75E-03
104041,5.51E-03,5.52E-03
104042,5.59E-03,6.43E-03
104043,5.44E-03,6.05E-03
104044,5.69E-03,7.01E-03
104045,5.62E-03,6.80E-03
104046,5.88E-03,7.05E-03
104047,5.85E-03,7.06E-03
104048,5.82E-03,7.00E-03
104049,5.86E-03,7.03E-03
104050,5.70E-03,6.91E-03
104051,5.73E-03,6.96E-03
104052,5.63E-03,6.79E-03
104053,5.64E-03,6.85E-03
104054,5.49E-03,6.63E-03
104055,5.58E-03,6.72E-03
104056,5.46E-03,6.41E-03
104057,5.50E-03,6.53E-03
104058,5.44E-03,6.14E-03
104059,5.43E-03,6.28E-03
104060,5.53E-03,5.90E-03
104061,5.49E-03,6.00E-03
104062,5.50E-03,6.05E-03
104063,5.53E-03,5.92E-03
104064,5.43E-03,6.34E-03
104065,5.42E-03,6.20E-03
104066,5.44E-03,6.60E-03
104067,5.47E-03,6.48E-03
104068,5.48E-03,6.52E-03
104069,5.44E-03,6.64E-03
104070,5.54E-03,5.97E-03
104071,5.53E-03,6.25E-03
104072,5.45E-03,5.70E-03
104073,5.54E-03,5.78E-03
104074,5.32E-03,5.56E-03
104075,5.33E-03,5.64E-03
104076,5.34E-03,5.43E-03
104077,5.33E-03,5.48E-03
104078,5.29E-03,5.52E-03
104079,5.28E-03,5.46E-03
104080,5.32E-03,5.80E-03
104081,5.25E-03,5.63E-03
104082,5.41E-03,6.42E-03
104083,5.38E-03,6.06E-03
104084,5.50E-03,7.41E-03
104085,5.50E-03,6.87E-03
104086,5.50E-03,8.69E-03
104087,5.55E-03,8.03E-03
104088,5.46E-03,9.70E-03
104089,5.45E-03,9.30E-03
104090,5.43E-03,8.97E-03
104091,5.40E-03,9.57E-03
104092,5.60E-03,7.59E-03
104093,5.61E-03,8.19E-03
104094,5.52E-03,7.19E-03
104095,5.51E-03,7.25E-03
104096,5.23E-03,7.71E-03
104097,5.34E-03,7.42E-03
104098,5.30E-03,8.19E-03
104099,5.27E-03,7.98E-03
104100,5.52E-03,8.53E-03
104101,5.40E-03,8.36E-03
104102,5.52E-03,8.93E-03
104103,5.52E-03,8.73E-03
104104,5.57E-03,9.24E-03
104105,5.55E-03,9.11E-03
104106,5.50E-03,9.20E-03
104107,5.49E-03,9.27E-03
104108,5.53E-03,8.78E-03
104109,5.49E-03,9.00E-03
104110,5.48E-03,8.65E-03
104111,5.52E-03,8.64E-03
104112,5.44E-03,9.14E-03
104113,5.45E-03,8.85E-03
104114,5.48E-03,9.85E-03
104115,5.42E-03,9.49E-03
104116,5.55E-03,1.05E-02
104117,5.55E-03,1.02E-02
104118,5.58E-03,1.09E-02
104119,5.63E-03,1.08E-02
104120,5.54E-03,1.10E-02
104121,5.56E-03,1.10E-02
104122,5.53E-03,1.09E-02
104123,5.53E-03,1.10E-02
104124,5.47E-03,1.10E-02
104125,5.51E-03,1.09E-02
104126,5.43E-03,1.12E-02
104127,5.40E-03,1.11E-02
104128,5.48E-03,1.14E-02
104129,5.45E-03,1.13E-02
104130,5.40E-03,1.16E-02
104131,5.44E-03,1.15E-02
104132,5.37E-03,1.19E-02
104133,5.35E-03,1.17E-02
104134,5.36E-03,1.26E-02
104135,5.36E-03,1.22E-02
104136,5.44E-03,1.46E-02
104137,5.43E-03,1.34E-02
104138,5.44E-03,1.81E-02
104139,5.43E-03,1.62E-02
104140,5.45E-03,2.21E-02
104141,5.43E-03,2.02E-02
104142,5.71E-03,2.43E-02
104143,5.51E-03,2.35E-02
104144,5.93E-03,2.50E-02
104145,5.81E-03,2.48E-02
104146,5.93E-03,2.52E-02
104147,5.92E-03,2.51E-02
104148,5.83E-03,2.56E-02
104149,5.91E-03,2.54E-02
104150,5.75E-03,2.61E-02
104151,5.81E-03,2.58E-02
104152,5.68E-03,2.68E-02
104153,5.72E-03,2.64E-02
104154,5.70E-03,2.74E-02
104155,5.73E-03,2.71E-02
104156,5.70E-03,2.79E-02
104157,5.70E-03,2.77E-02
104158,5.62E-03,2.81E-02
104159,5.72E-03,2.81E-02
104160,5.56E-03,2.76E-02
104161,5.53E-03,2.79E-02
104162,5.58E-03,2.68E-02
104163,5.56E-03,2.72E-02
104164,5.49E-03,2.69E-02
104165,5.57E-03,2.67E-02
104166,5.49E-03,2.79E-02
104167,5.47E-03,2.73E-02
104168,5.56E-03,2.94E-02
104169,5.52E-03,2.86E-02
104170,5.58E-03,3.11E-02
104171,5.60E-03,3.03E-02
104172,5.53E-03,3.28E-02
104173,5.56E-03,3.20E-02
104174,5.59E-03,3.43E-02
104175,5.60E-03,3.36E-02
104176,5.67E-03,3.57E-02
104177,5.63E-03,3.50E-02
104178,5.63E-03,3.69E-02
104179,5.67E-03,3.63E-02
104180,5.64E-03,3.81E-02
104181,5.63E-03,3.75E-02
104182,5.69E-03,3.91E-02
104183,5.66E-03,3.86E-02
104184,5.75E-03,3.97E-02
104185,5.72E-03,3.95E-02
104186,5.75E-03,3.95E-02
104187,5.74E-03,3.97E-02
104188,5.71E-03,3.92E-02
104189,5.70E-03,3.93E-02
104190,5.65E-03,3.94E-02
104191,5.65E-03,3.93E-02
104192,5.56E-03,3.86E-02
104193,5.56E-03,3.91E-02
104194,5.58E-03,3.77E-02
104195,5.53E-03,3.80E-02
104196,5.50E-03,3.90E-02
104197,5.51E-03,3.81E-02
104198,5.51E-03,4.16E-02
104199,5.49E-03,4.03E-02
104200,5.59E-03,4.26E-02
104201,5.54E-03,4.24E-02
104202,5.63E-03,4.17E-02
104203,5.66E-03,4.22E-02
104204,5.59E-03,4.18E-02
104205,5.64E-03,4.15E-02
104206,5.59E-03,4.28E-02
104207,5.58E-03,4.24E-02
104208,5.64E-03,4.32E-02
104209,5.61E-03,4.31E-02
104210,5.60E-03,4.31E-02
104211,5.64E-03,4.32E-02
104212,5.49E-03,4.15E-02
104213,5.49E-03,4.27E-02
104214,5.45E-03,3.87E-02
104215,5.51E-03,4.00E-02
104216,5.38E-03,3.85E-02
104217,5.50E-03,3.81E-02
104218,5.35E-03,4.03E-02
104219,5.34E-03,3.93E-02
104220,5.48E-03,4.25E-02
104221,5.42E-03,4.14E-02
104222,5.57E-03,4.45E-02
104223,5.50E-03,4.36E-02
104224,5.69E-03,4.57E-02
104225,5.66E-03,4.52E-02
104226,5.61E-03,4.59E-02
104227,5.61E-03,4.59E-02
104228,5.65E-03,4.62E-02
104229,5.60E-03,4.60E-02
104230,5.71E-03,4.74E-02
104231,5.66E-03,4.66E-02
104232,5.72E-03,4.91E-02
104233,5.71E-03,4.83E-02
104234,5.70E-03,4.94E-02
104235,5.69E-03,4.96E-02
104236,5.69E-03,4.73E-02
104237,5.69E-03,4.85E-02
104238,5.69E-03,4.57E-02
104239,5.67E-03,4.63E-02
104240,5.46E-03,4.57E-02
104241,5.57E-03,4.56E-02
104242,5.54E-03,4.50E-02
104243,5.45E-03,4.56E-02
104244,5.63E-03,4.30E-02
104245,5.59E-03,4.40E-02
104246,5.62E-03,4.20E-02
104247,5.61E-03,4.23E-02
104248,5.45E-03,4.21E-02
104249,5.54E-03,4.21E-02
104250,5.45E-03,4.13E-02
104251,5.44E-03,4.18E-02
104252,5.44E-03,4.07E-02
104253,5.44E-03,4.08E-02
104254,5.47E-03,4.11E-02
104255,5.41E-03,4.08E-02
104256,5.52E-03,4.17E-02
104257,5.48E-03,4.14E-02
104258,5.59E-03,4.21E-02
104259,5.50E-03,4.19E-02
104260,5.64E-03,4.25E-02
104261,5.63E-03,4.23E-02
104262,5.67E-03,4.27E-02
104263,5.66E-03,4.26E-02
104264,5.61E-03,4.30E-02
104265,5.61E-03,4.29E-02
104266,5.61E-03,4.32E-02
104267,5.61E-03,4.31E-02
104268,5.59E-03,4.34E-02
104269,5.62E-03,4.33E-02
104270,5.62E-03,4.35E-02
104271,5.64E-03,4.35E-02
104272,5.50E-03,4.32E-02
104273,5.53E-03,4.35E-02
104274,5.50E-03,4.18E-02
104275,5.48E-03,4.26E-02
104276,5.47E-03,4.11E-02
104277,5.47E-03,4.12E-02
104278,5.43E-03,4.20E-02
104279,5.44E-03,4.14E-02
104280,5.48E-03,4.30E-02
104281,5.47E-03,4.26E-02
104282,5.61E-03,4.31E-02
104283,5.49E-03,4.31E-02
104284,5.65E-03,4.29E-02
104285,5.58E-03,4.30E-02
104286,5.63E-03,4.35E-02
104287,5.64E-03,4.31E-02
104288,5.58E-03,4.47E-02
104289,5.62E-03,4.40E-02
104290,5.60E-03,4.48E-02
104291,5.60E-03,4.50E-02
104292,5.67E-03,4.33E-02
104293,5.69E-03,4.41E-02
104294,5.56E-03,4.24E-02
104295,5.64E-03,4.27E-02
104296,5.50E-03,4.25E-02
104297,5.51E-03,4.24E-02
104298,5.55E-03,4.27E-02
104299,5.54E-03,4.25E-02
104300,5.56E-03,4.27E-02
104301,5.54E-03,4.28E-02
104302,5.60E-03,4.17E-02
104303,5.58E-03,4.24E-02
104304,5.60E-03,4.03E-02
104305,5.60E-03,4.09E-02
104306,5.59E-03,3.96E-02
104307,5.58E-03,3.99E-02
104308,4.89E-03,3.87E-02
104309,5.41E-03,3.93E-02
104310,4.67E-03,3.76E-02
104311,4.61E-03,3.80E-02
104312,4.93E-03,3.65E-02
104313,4.80E-03,3.71E-02
104314,5.16E-03,3.57E-02
104315,5.05E-03,3.62E-02
104316,5.39E-03,3.47E-02
104317,5.31E-03,3.52E-02
104318,5.47E-03,3.39E-02
104319,5.44E-03,3.42E-02
104320,5.57E-03,3.33E-02
104321,5.54E-03,3.36E-02
104322,5.57E-03,3.27E-02
104323,5.58E-03,3.31E-02
104324,5.45E-03,3.17E-02
104325,5.52E-03,3.23E-02
104326,5.39E-03,3.07E-02
104327,5.41E-03,3.12E-02
104328,5.34E-03,2.98E-02
104329,5.36E-03,3.02E-02
104330,5.37E-03,2.94E-02
104331,5.34E-03,2.96E-02
104332,5.35E-03,2.92E-02
104333,5.41E-03,2.93E-02
104334,5.41E-03,2.90E-02
104335,5.39E-03,2.91E-02
104336,5.46E-03,2.86E-02
104337,5.42E-03,2.88E-02
104338,5.53E-03,2.82E-02
104339,5.50E-03,2.84E-02
104340,5.56E-03,2.77E-02
104341,5.51E-03,2.79E-02
104342,5.62E-03,2.71E-02
104343,5.59E-03,2.74E-02
104344,5.69E-03,2.67E-02
104345,5.63E-03,2.69E-02
104346,5.90E-03,2.63E-02
104347,5.80E-03,2.65E-02
104348,3.48E-03,4.05E-03
104349,5.62E-03,1.43E-02
104350,6.70E-03,1.42E-02
104351,5.99E-03,2.61E-02
104352,6.32E-03,2.60E-02
104353,6.15E-03,2.60E-02
104354,6.16E-03,2.60E-02
104355,6.57E-03,2.60E-02
104356,6.39E-03,2.60E-02
104357,6.65E-03,2.60E-02
104358,6.62E-03,2.60E-02
104359,6.67E-03,2.59E-02
104360,6.69E-03,2.59E-02
104361,6.51E-03,2.58E-02
104362,6.62E-03,2.58E-02
104363,6.53E-03,2.56E-02
104364,6.55E-03,2.57E-02
104365,6.64E-03,2.55E-02
104366,6.65E-03,2.56E-02
104367,6.66E-03,2.53E-02
104368,6.65E-03,2.54E-02
104369,6.52E-03,2.51E-02
104370,6.64E-03,2.52E-02
104371,6.57E-03,2.49E-02
104372,6.51E-03,2.50E-02
104373,6.57E-03,2.47E-02
104374,6.56E-03,2.48E-02
104375,6.59E-03,2.45E-02
104376,6.58E-03,2.46E-02
104377,6.54E-03,2.43E-02
104378,6.57E-03,2.44E-02
104379,6.50E-03,2.40E-02
104380,6.53E-03,2.41E-02
104381,6.47E-03,2.38E-02
104382,6.53E-03,2.39E-02
104383,6.41E-03,2.35E-02
104384,6.42E-03,2.36E-02
104385,6.45E-03,2.32E-02
104386,6.42E-03,2.33E-02
104387,6.48E-03,2.28E-02
104388,6.48E-03,2.30E-02
104389,6.54E-03,2.25E-02
104390,6.51E-03,2.27E-02
104391,6.54E-03,2.21E-02
104392,6.54E-03,2.23E-02
104393,6.63E-03,2.17E-02
104394,6.57E-03,2.19E-02
104395,6.78E-03,2.13E-02
104396,6.73E-03,2.15E-02
104397,6.90E-03,2.08E-02
104398,6.81E-03,2.10E-02
104399,6.89E-03,2.03E-02
104400,6.88E-03,2.06E-02
104401,6.81E-03,1.97E-02
104402,6.89E-03,2.00E-02
104403,6.79E-03,1.91E-02
104404,6.80E-03,1.94E-02
104405,6.66E-03,1.85E-02
104406,6.72E-03,1.88E-02
104407,6.56E-03,1.78E-02
104408,6.63E-03,1.82E-02
104409,6.66E-03,1.71E-02
104410,6.61E-03,1.75E-02
104411,6.54E-03,1.63E-02
104412,6.66E-03,1.67E-02
104413,6.17E-03,1.55E-02
104414,6.37E-03,1.59E-02
104415,6.75E-03,1.46E-02
104416,5.96E-03,1.51E-02
104417,5.44E-03,1.45E-02
104418,5.46E-03,1.44E-02
104419,5.52E-03,1.48E-02
104420,5.48E-03,1.46E-02
104421,5.62E-03,1.50E-02
104422,5.54E-03,1.49E-02
104423,5.54E-03,1.51E-02
104424,5.57E-03,1.51E-02
104425,5.43E-03,1.53E-02
104426,5.47E-03,1.52E-02
104427,5.37E-03,1.54E-02
104428,5.40E-03,1.53E-02
104429,5.25E-03,1.55E-02
104430,5.30E-03,1.54E-02
104431,5.19E-03,1.55E-02
104432,5.20E-03,1.55E-02
104433,5.25E-03,1.55E-02
104434,5.20E-03,1.55E-02
104435,5.44E-03,1.55E-02
104436,5.34E-03,1.55E-02
104437,5.52E-03,1.55E-02
104438,5.49E-03,1.55E-02
104439,5.42E-03,1.55E-02
104440,5.49E-03,1.55E-02
104441,5.26E-03,1.55E-02
104442,5.33E-03,1.55E-02
104443,5.49E-03,1.54E-02
104444,5.29E-03,1.54E-02
104445,5.98E-03,1.53E-02
104446,5.76E-03,1.54E-02
104447,5.64E-03,1.53E-02
104448,5.94E-03,1.53E-02
104449,6.22E-03,1.53E-02
104450,5.44E-03,1.53E-02
104451,4.14E-03,1.51E-02
104452,5.99E-03,1.52E-02
104453,4.48E-03,1.51E-02
104454,3.59E-03,1.49E-02
104455,5.10E-03,1.50E-02
104456,4.87E-03,4.81E-03
104457,4.55E-03,5.51E-03
104458,4.62E-03,5.20E-03
104459,4.49E-03,6.02E-03
104460,4.42E-03,5.78E-03
104461,4.96E-03,6.36E-03
104462,4.69E-03,6.22E-03
104463,5.23E-03,6.58E-03
104464,5.08E-03,6.48E-03
104465,5.25E-03,6.78E-03
104466,5.22E-03,6.69E-03
104467,5.50E-03,6.95E-03
104468,5.40E-03,6.86E-03
104469,5.53E-03,7.12E-03
104470,5.56E-03,7.04E-03
104471,5.36E-03,7.32E-03
104472,5.47E-03,7.21E-03
104473,5.32E-03,7.54E-03
104474,5.34E-03,7.43E-03
104475,5.55E-03,7.77E-03
104476,5.46E-03,7.66E-03
104477,3.94E-03,7.96E-03
104478,5.28E-03,7.88E-03
104479,5.10E-03,8.11E-03
104480,3.81E-03,8.05E-03
104481,5.36E-03,8.21E-03
104482,5.35E-03,8.15E-03
104483,5.43E-03,8.32E-03
104484,5.39E-03,8.27E-03
104485,5.51E-03,8.43E-03
104486,5.53E-03,8.37E-03
104487,5.59E-03,8.56E-03
104488,5.55E-03,8.49E-03
104489,5.66E-03,8.69E-03
104490,5.61E-03,8.62E-03
104491,5.64E-03,8.82E-03
104492,5.63E-03,8.75E-03
104493,5.62E-03,8.95E-03
104494,5.62E-03,8.89E-03
104495,5.61E-03,9.09E-03
104496,5.62E-03,9.02E-03
104497,5.59E-03,9.22E-03
104498,5.61E-03,9.15E-03
104499,5.60E-03,9.33E-03
104500,5.62E-03,9.27E-03
104501,5.61E-03,9.43E-03
104502,5.58E-03,9.38E-03
104503,5.63E-03,9.50E-03
104504,5.61E-03,9.47E-03
104505,5.62E-03,9.55E-03
104506,5.63E-03,9.52E-03
104507,5.72E-03,9.58E-03
104508,5.71E-03,9.56E-03
104509,5.74E-03,9.63E-03
104510,5.72E-03,9.60E-03
104511,5.77E-03,9.71E-03
104512,5.76E-03,9.67E-03
104513,5.76E-03,9.86E-03
104514,5.78E-03,9.78E-03
104515,5.80E-03,1.01E-02
104516,5.81E-03,9.96E-03
104517,5.87E-03,1.03E-02
104518,5.82E-03,1.02E-02
104519,5.86E-03,1.06E-02
104520,5.88E-03,1.05E-02
104521,5.86E-03,1.09E-02
104522,5.85E-03,1.08E-02
104523,5.82E-03,1.13E-02
104524,5.85E-03,1.11E-02
104525,5.73E-03,1.16E-02
104526,5.77E-03,1.14E-02
104527,5.73E-03,1.20E-02
104528,5.72E-03,1.18E-02
104529,5.68E-03,1.24E-02
104530,5.71E-03,1.22E-02
104531,5.66E-03,1.28E-02
104532,5.69E-03,1.26E-02
104533,5.62E-03,1.33E-02
104534,5.63E-03,1.30E-02
104535,5.62E-03,1.37E-02
104536,5.62E-03,1.35E-02
104537,5.63E-03,1.42E-02
104538,5.63E-03,1.40E-02
104539,5.67E-03,1.48E-02
104540,5.65E-03,1.45E-02
104541,5.63E-03,1.54E-02
104542,5.66E-03,1.51E-02
104543,5.60E-03,1.59E-02
104544,5.63E-03,1.56E-02
104545,5.54E-03,1.65E-02
104546,5.56E-03,1.62E-02
104547,5.54E-03,1.71E-02
104548,5.52E-03,1.68E-02
104549,5.63E-03,1.76E-02
104550,5.57E-03,1.74E-02
104551,5.66E-03,1.81E-02
104552,5.66E-03,1.79E-02
104553,5.72E-03,1.86E-02
104554,5.72E-03,1.84E-02
104555,5.69E-03,1.90E-02
104556,5.72E-03,1.88E-02
104557,5.64E-03,1.93E-02
104558,5.63E-03,1.92E-02
104559,5.64E-03,1.97E-02
104560,5.60E-03,1.95E-02
104561,5.64E-03,2.02E-02
104562,5.64E-03,1.99E-02
104563,5.65E-03,2.06E-02
104564,5.63E-03,2.04E-02
104565,5.65E-03,2.11E-02
104566,5.63E-03,2.09E-02
104567,5.66E-03,2.16E-02
104568,5.64E-03,2.14E-02
104569,5.66E-03,2.22E-02
104570,5.65E-03,2.19E-02
104571,5.59E-03,2.27E-02
104572,5.62E-03,2.25E-02
104573,5.57E-03,2.33E-02
104574,5.58E-03,2.30E-02
104575,5.70E-03,2.38E-02
104576,5.60E-03,2.35E-02
104577,5.66E-03,2.43E-02
104578,5.72E-03,2.41E-02
104579,5.59E-03,2.48E-02
104580,5.63E-03,2.46E-02
104581,5.55E-03,2.52E-02
104582,5.59E-03,2.50E-02
104583,5.54E-03,2.56E-02
104584,5.54E-03,2.54E-02
104585,5.53E-03,2.60E-02
104586,5.55E-03,2.58E-02
104587,5.54E-03,2.63E-02
104588,5.56E-03,2.61E-02
104589,5.51E-03,2.65E-02
104590,5.57E-03,2.64E-02
104591,5.50E-03,2.68E-02
104592,5.52E-03,2.66E-02
104593,5.41E-03,2.70E-02
104594,5.47E-03,2.69E-02
104595,5.42E-03,2.72E-02
104596,5.46E-03,2.71E-02
104597,5.53E-03,2.74E-02
104598,5.49E-03,2.73E-02
104599,5.54E-03,2.77E-02
104600,5.58E-03,2.76E-02
104601,5.53E-03,2.79E-02
104602,5.50E-03,2.78E-02
104603,5.54E-03,2.82E-02
104604,5.52E-03,2.81E-02
104605,5.54E-03,2.85E-02
104606,5.52E-03,2.84E-02
104607,5.53E-03,2.89E-02
104608,5.52E-03,2.87E-02
104609,5.54E-03,2.92E-02
104610,5.53E-03,2.90E-02
104611,5.57E-03,2.95E-02
104612,5.59E-03,2.94E-02
104613,5.58E-03,2.98E-02
104614,5.60E-03,2.97E-02
104615,5.58E-03,3.01E-02
104616,5.60E-03,3.00E-02
104617,5.59E-03,3.04E-02
104618,5.60E-03,3.03E-02
104619,5.60E-03,3.07E-02
104620,5.61E-03,3.06E-02
104621,5.60E-03,3.10E-02
104622,5.58E-03,3.08E-02
104623,5.58E-03,3.12E-02
104624,5.58E-03,3.11E-02
104625,5.61E-03,3.15E-02
104626,5.61E-03,3.14E-02
104627,5.61E-03,3.18E-02
104628,5.62E-03,3.16E-02
104629,5.62E-03,3.20E-02
104630,5.62E-03,3.19E-02
104631,5.62E-03,3.23E-02
104632,5.62E-03,3.21E-02
104633,5.61E-03,3.25E-02
104634,5.62E-03,3.24E-02
104635,5.64E-03,3.27E-02
104636,5.66E-03,3.26E-02
104637,5.58E-03,3.28E-02
104638,5.56E-03,3.28E-02
104639,5.64E-03,3.29E-02
104640,5.63E-03,3.29E-02
104641,5.64E-03,3.29E-02
104642,5.63E-03,3.29E-02
104643,5.64E-03,3.30E-02
104644,5.65E-03,3.30E-02
104645,5.56E-03,3.29E-02
104646,5.58E-03,3.29E-02
104647,5.67E-03,3.29E-02
104648,5.64E-03,3.29E-02
104649,5.74E-03,3.29E-02
104650,5.74E-03,3.29E-02
104651,5.67E-03,3.28E-02
104652,5.72E-03,3.28E-02
104653,5.64E-03,3.28E-02
104654,5.65E-03,3.28E-02
104655,5.58E-03,3.28E-02
104656,5.59E-03,3.28E-02
104657,5.60E-03,3.28E-02
104658,5.60E-03,3.28E-02
104659,5.58E-03,3.28E-02
104660,5.64E-03,3.28E-02
104661,5.63E-03,3.29E-02
104662,5.63E-03,3.28E-02
104663,5.67E-03,3.29E-02
104664,5.61E-03,3.29E-02
104665,5.60E-03,3.29E-02
104666,5.66E-03,3.29E-02
104667,5.69E-03,3.29E-02
104668,5.63E-03,3.29E-02
104669,5.69E-03,3.28E-02
104670,5.68E-03,3.28E-02
104671,5.59E-03,3.27E-02
104672,5.65E-03,3.28E-02
104673,5.66E-03,3.26E-02
104674,5.64E-03,3.27E-02
104675,5.65E-03,3.25E-02
104676,5.64E-03,3.25E-02
104677,5.64E-03,3.23E-02
104678,5.63E-03,3.24E-02
104679,5.59E-03,3.21E-02
104680,5.63E-03,3.22E-02
104681,5.61E-03,3.19E-02
104682,5.56E-03,3.20E-02
104683,5.61E-03,3.17E-02
104684,5.61E-03,3.18E-02
104685,5.70E-03,3.15E-02
104686,5.68E-03,3.16E-02
104687,5.64E-03,3.12E-02
104688,5.65E-03,3.13E-02
104689,5.57E-03,3.10E-02
104690,5.59E-03,3.11E-02
104691,5.52E-03,3.07E-02
104692,5.52E-03,3.08E-02
104693,5.49E-03,3.05E-02
104694,5.52E-03,3.06E-02
104695,5.41E-03,3.02E-02
104696,5.46E-03,3.04E-02
104697,5.42E-03,3.00E-02
104698,5.42E-03,3.01E-02
104699,5.41E-03,2.98E-02
104700,5.42E-03,2.99E-02
104701,5.40E-03,2.97E-02
104702,5.40E-03,2.98E-02
104703,5.24E-03,2.96E-02
104704,5.32E-03,2.96E-02
104705,5.12E-03,2.95E-02
104706,5.21E-03,2.95E-02
104707,5.12E-03,2.95E-02
104708,5.11E-03,2.95E-02
104709,5.33E-03,2.95E-02
104710,5.22E-03,2.95E-02
104711,5.43E-03,2.96E-02
104712,5.38E-03,2.96E-02
104713,5.54E-03,2.97E-02
104714,5.53E-03,2.96E-02
104715,5.68E-03,2.98E-02
104716,5.60E-03,2.97E-02
104717,5.72E-03,2.98E-02
104718,5.67E-03,2.98E-02
104719,5.84E-03,2.99E-02
104720,5.81E-03,2.99E-02
104721,5.89E-03,2.99E-02
104722,5.88E-03,2.99E-02
104723,5.87E-03,2.99E-02
104724,5.94E-03,2.99E-02
104725,5.89E-03,2.98E-02
104726,5.85E-03,2.98E-02
104727,5.92E-03,2.97E-02
104728,5.91E-03,2.97E-02
104729,5.95E-03,2.95E-02
104730,5.93E-03,2.96E-02
104731,6.02E-03,2.92E-02
104732,5.97E-03,2.93E-02
104733,6.10E-03,2.89E-02
104734,6.05E-03,2.91E-02
104735,6.01E-03,2.86E-02
104736,6.05E-03,2.88E-02
104737,6.06E-03,2.82E-02
104738,6.04E-03,2.84E-02
104739,5.94E-03,2.79E-02
104740,6.05E-03,2.81E-02
104741,5.88E-03,2.75E-02
104742,5.93E-03,2.77E-02
104743,5.93E-03,2.71E-02
104744,5.94E-03,2.73E-02
104745,5.99E-03,2.67E-02
104746,5.92E-03,2.69E-02
104747,6.29E-03,2.63E-02
104748,6.11E-03,2.65E-02
104749,6.32E-03,2.59E-02
104750,6.38E-03,2.61E-02
104751,6.18E-03,2.55E-02
104752,6.22E-03,2.57E-02
104753,6.07E-03,2.51E-02
104754,6.11E-03,2.53E-02
104755,6.02E-03,2.47E-02
104756,6.07E-03,2.49E-02
104757,5.96E-03,2.43E-02
104758,5.98E-03,2.45E-02
104759,5.93E-03,2.40E-02
104760,5.95E-03,2.42E-02
104761,5.89E-03,2.36E-02
104762,5.91E-03,2.38E-02
104763,5.90E-03,2.32E-02
104764,5.87E-03,2.34E-02
104765,5.88E-03,2.29E-02
104766,5.89E-03,2.30E-02
104767,5.84E-03,2.25E-02
104768,5.86E-03,2.27E-02
104769,5.84E-03,2.21E-02
104770,5.87E-03,2.23E-02
104771,5.87E-03,2.17E-02
104772,5.86E-03,2.19E-02
104773,5.82E-03,2.13E-02
104774,5.86E-03,2.15E-02
104775,5.73E-03,2.10E-02
104776,5.83E-03,2.12E-02
104777,5.66E-03,2.06E-02
104778,5.73E-03,2.08E-02
104779,5.63E-03,2.02E-02
104780,5.63E-03,2.04E-02
104781,5.61E-03,1.98E-02
104782,5.63E-03,2.00E-02
104783,5.66E-03,1.94E-02
104784,5.65E-03,1.96E-02
104785,5.67E-03,1.91E-02
104786,5.68E-03,1.93E-02
104787,5.68E-03,1.87E-02
104788,5.68E-03,1.89E-02
104789,5.68E-03,1.83E-02
104790,5.64E-03,1.85E-02
104791,5.71E-03,1.79E-02
104792,5.67E-03,1.81E-02
104793,5.71E-03,1.75E-02
104794,5.70E-03,1.77E-02
104795,5.85E-03,1.71E-02
104796,5.77E-03,1.73E-02
104797,6.05E-03,1.67E-02
104798,6.00E-03,1.69E-02
104799,5.90E-03,1.63E-02
104800,5.95E-03,1.65E-02
104801,5.64E-03,1.59E-02
104802,5.84E-03,1.61E-02
104803,6.14E-03,1.55E-02
104804,5.78E-03,1.56E-02
104805,3.78E-03,1.51E-02
104806,5.42E-03,1.52E-02
104807,4.71E-03,4.24E-03
104808,3.97E-03,1.50E-02
104809,7.26E-03,1.41E-02
104810,6.10E-03,2.59E-02
104811,3.79E-03,4.40E-03
104812,2.39E-03,1.46E-02
104813,2.66E-03,1.46E-02
104814,2.66E-03,1.47E-02
104815,4.62E-03,1.48E-02
104816,5.21E-03,1.50E-02
104817,4.72E-03,1.53E-02
104818,5.16E-03,1.55E-02
104819,5.65E-03,1.57E-02
104820,5.82E-03,1.59E-02
104821,5.81E-03,1.61E-02
104822,5.78E-03,1.63E-02
104823,5.89E-03,1.65E-02
104824,5.92E-03,1.67E-02
104825,5.97E-03,1.69E-02
104826,5.98E-03,1.71E-02
104827,5.89E-03,1.73E-02
104828,5.86E-03,1.75E-02
104829,5.81E-03,1.77E-02
104830,5.78E-03,1.79E-02
104831,5.72E-03,1.81E-02
104832,5.63E-03,1.83E-02
104833,5.63E-03,1.85E-02
104834,5.63E-03,1.87E-02
104835,5.65E-03,1.89E-02
104836,5.56E-03,1.91E-02
104837,5.56E-03,1.93E-02
104838,5.56E-03,1.94E-02
104839,5.59E-03,1.96E-02
104840,5.62E-03,1.98E-02
104841,5.60E-03,2.00E-02
104842,5.62E-03,2.02E-02
104843,5.64E-03,2.04E-02
104844,5.68E-03,2.06E-02
104845,5.66E-03,2.07E-02
104846,5.68E-03,2.09E-02
104847,5.67E-03,2.11E-02
104848,5.71E-03,2.13E-02
104849,5.68E-03,2.15E-02
104850,5.67E-03,2.17E-02
104851,5.68E-03,2.19E-02
104852,5.68E-03,2.21E-02
104853,5.64E-03,2.22E-02
104854,5.68E-03,2.24E-02
104855,5.66E-03,2.26E-02
104856,5.64E-03,2.28E-02
104857,5.66E-03,2.30E-02
104858,5.66E-03,2.32E-02
104859,5.67E-03,2.33E-02
104860,5.64E-03,2.35E-02
104861,5.66E-03,2.37E-02
104862,5.65E-03,2.39E-02
104863,5.65E-03,2.41E-02
104864,5.66E-03,2.43E-02
104865,5.64E-03,2.44E-02
104866,5.69E-03,2.46E-02
104867,5.74E-03,2.48E-02
104868,5.78E-03,2.50E-02
104869,5.81E-03,2.52E-02
104870,5.84E-03,2.54E-02
104871,5.89E-03,2.56E-02
104872,5.89E-03,2.57E-02
104873,5.90E-03,2.59E-02
104874,5.90E-03,2.61E-02
104875,5.90E-03,2.63E-02
104876,5.84E-03,2.65E-02
104877,5.78E-03,2.67E-02
104878,5.70E-03,2.69E-02
104879,5.67E-03,2.70E-02
104880,5.60E-03,2.72E-02
104881,5.59E-03,2.74E-02
104882,5.60E-03,2.76E-02
104883,5.63E-03,2.78E-02
104884,5.72E-03,2.80E-02
104885,5.72E-03,2.81E-02
104886,5.77E-03,2.83E-02
104887,5.82E-03,2.84E-02
104888,5.79E-03,2.86E-02
104889,5.82E-03,2.87E-02
104890,5.81E-03,2.89E-02
104891,5.79E-03,2.90E-02
104892,5.77E-03,2.91E-02
104893,5.77E-03,2.92E-02
104894,5.75E-03,2.93E-02
104895,5.73E-03,2.94E-02
104896,5.70E-03,2.94E-02
104897,5.67E-03,2.95E-02
104898,5.64E-03,2.95E-02
104899,5.69E-03,2.96E-02
104900,5.76E-03,2.96E-02
104901,5.81E-03,2.96E-02
104902,5.81E-03,2.96E-02
104903,5.80E-03,2.95E-02
104904,5.76E-03,2.95E-02
104905,5.68E-03,2.95E-02
104906,5.62E-03,2.95E-02
104907,5.62E-03,2.94E-02
104908,5.60E-03,2.94E-02
104909,5.59E-03,2.93E-02
104910,5.56E-03,2.93E-02
104911,5.49E-03,2.92E-02
104912,5.47E-03,2.92E-02
104913,5.41E-03,2.92E-02
104914,5.38E-03,2.92E-02
104915,5.30E-03,2.91E-02
104916,5.30E-03,2.91E-02
104917,5.30E-03,2.91E-02
104918,5.40E-03,2.92E-02
104919,5.45E-03,2.92E-02
104920,5.47E-03,2.92E-02
104921,5.53E-03,2.93E-02
104922,5.54E-03,2.94E-02
104923,5.55E-03,2.95E-02
104924,5.54E-03,2.95E-02
104925,5.54E-03,2.96E-02
104926,5.53E-03,2.97E-02
104927,5.52E-03,2.99E-02
104928,5.53E-03,3.00E-02
104929,5.51E-03,3.01E-02
104930,5.49E-03,3.02E-02
104931,5.49E-03,3.03E-02
104932,5.52E-03,3.04E-02
104933,5.54E-03,3.06E-02
104934,5.59E-03,3.07E-02
104935,5.65E-03,3.08E-02
104936,5.66E-03,3.09E-02
104937,5.65E-03,3.10E-02
104938,5.67E-03,3.11E-02
104939,5.60E-03,3.12E-02
104940,5.57E-03,3.13E-02
104941,5.56E-03,3.14E-02
104942,5.58E-03,3.15E-02
104943,5.63E-03,3.16E-02
104944,5.64E-03,3.17E-02
104945,5.64E-03,3.18E-02
104946,5.64E-03,3.19E-02
104947,5.64E-03,3.20E-02
104948,5.64E-03,3.21E-02
104949,5.64E-03,3.21E-02
104950,5.64E-03,3.22E-02
104951,5.62E-03,3.22E-02
104952,5.62E-03,3.23E-02
104953,5.67E-03,3.23E-02
104954,5.66E-03,3.23E-02
104955,5.64E-03,3.23E-02
104956,5.64E-03,3.24E-02
104957,5.58E-03,3.24E-02
104958,5.57E-03,3.24E-02
104959,5.59E-03,3.24E-02
104960,5.60E-03,3.24E-02
104961,5.64E-03,3.23E-02
104962,5.64E-03,3.23E-02
104963,5.57E-03,3.23E-02
104964,5.57E-03,3.23E-02
104965,5.55E-03,3.23E-02
104966,5.57E-03,3.23E-02
104967,5.56E-03,3.23E-02
104968,5.54E-03,3.23E-02
104969,5.57E-03,3.23E-02
104970,5.61E-03,3.23E-02
104971,5.63E-03,3.23E-02
104972,5.69E-03,3.23E-02
104973,5.71E-03,3.23E-02
104974,5.72E-03,3.24E-02
104975,5.65E-03,3.24E-02
104976,5.63E-03,3.24E-02
104977,5.58E-03,3.24E-02
104978,5.63E-03,3.24E-02
104979,5.63E-03,3.24E-02
104980,5.63E-03,3.24E-02
104981,5.63E-03,3.24E-02
104982,5.63E-03,3.24E-02
104983,5.63E-03,3.24E-02
104984,5.63E-03,3.23E-02
104985,5.63E-03,3.23E-02
104986,5.56E-03,3.22E-02
104987,5.59E-03,3.21E-02
104988,5.57E-03,3.20E-02
104989,5.59E-03,3.20E-02
104990,5.62E-03,3.19E-02
104991,5.62E-03,3.17E-02
104992,5.62E-03,3.16E-02
104993,5.62E-03,3.15E-02
104994,5.62E-03,3.14E-02
104995,5.62E-03,3.13E-02
104996,5.62E-03,3.11E-02
104997,5.61E-03,3.10E-02
104998,5.61E-03,3.09E-02
104999,5.60E-03,3.07E-02
105000,5.58E-03,3.06E-02
105001,5.61E-03,3.05E-02
105002,5.59E-03,3.04E-02
105003,5.60E-03,3.02E-02
105004,5.61E-03,3.01E-02
105005,5.61E-03,3.00E-02
105006,5.61E-03,2.98E-02
105007,5.60E-03,2.97E-02
105008,5.60E-03,2.95E-02
105009,5.60E-03,2.94E-02
105010,5.60E-03,2.92E-02
105011,5.60E-03,2.91E-02
105012,5.59E-03,2.89E-02
105013,5.58E-03,2.88E-02
105014,5.54E-03,2.86E-02
105015,5.54E-03,2.85E-02
105016,5.55E-03,2.83E-02
105017,5.58E-03,2.81E-02
105018,5.58E-03,2.80E-02
105019,5.58E-03,2.79E-02
105020,5.58E-03,2.77E-02
105021,5.57E-03,2.76E-02
105022,5.57E-03,2.75E-02
105023,5.60E-03,2.73E-02
105024,5.59E-03,2.72E-02
105025,5.61E-03,2.71E-02
105026,5.62E-03,2.70E-02
105027,5.50E-03,2.69E-02
105028,5.48E-03,2.68E-02
105029,5.43E-03,2.67E-02
105030,5.50E-03,2.65E-02
105031,5.53E-03,2.64E-02
105032,5.54E-03,2.63E-02
105033,5.52E-03,2.62E-02
105034,5.56E-03,2.61E-02
105035,5.54E-03,2.59E-02
105036,5.57E-03,2.58E-02
105037,5.53E-03,2.57E-02
105038,5.57E-03,2.55E-02
105039,5.57E-03,2.53E-02
105040,5.59E-03,2.51E-02
105041,5.56E-03,2.49E-02
105042,5.57E-03,2.47E-02
105043,5.55E-03,2.45E-02
105044,5.56E-03,2.43E-02
105045,5.64E-03,2.41E-02
105046,5.62E-03,2.38E-02
105047,5.62E-03,2.36E-02
105048,5.58E-03,2.33E-02
105049,5.53E-03,2.31E-02
105050,5.54E-03,2.28E-02
105051,5.55E-03,2.25E-02
105052,5.62E-03,2.23E-02
105053,5.65E-03,2.20E-02
105054,5.65E-03,2.18E-02
105055,5.64E-03,2.15E-02
105056,5.64E-03,2.13E-02
105057,5.63E-03,2.10E-02
105058,5.63E-03,2.08E-02
105059,5.63E-03,2.06E-02
105060,5.62E-03,2.03E-02
105061,5.62E-03,2.01E-02
105062,5.61E-03,1.99E-02
105063,5.61E-03,1.97E-02
105064,5.62E-03,1.95E-02
105065,5.68E-03,1.93E-02
105066,5.70E-03,1.92E-02
105067,5.69E-03,1.90E-02
105068,5.68E-03,1.88E-02
105069,5.71E-03,1.86E-02
105070,5.73E-03,1.84E-02
105071,5.70E-03,1.82E-02
105072,5.65E-03,1.79E-02
105073,5.60E-03,1.77E-02
105074,5.60E-03,1.75E-02
105075,5.59E-03,1.72E-02
105076,5.57E-03,1.69E-02
105077,5.61E-03,1.66E-02
105078,5.60E-03,1.64E-02
105079,5.64E-03,1.61E-02
105080,5.61E-03,1.58E-02
105081,5.61E-03,1.55E-02
105082,5.62E-03,1.52E-02
105083,5.65E-03,1.50E-02
105084,5.62E-03,1.47E-02
105085,5.62E-03,1.44E-02
105086,5.63E-03,1.42E-02
105087,5.63E-03,1.39E-02
105088,5.63E-03,1.37E-02
105089,5.64E-03,1.34E-02
105090,5.65E-03,1.32E-02
105091,5.66E-03,1.30E-02
105092,5.67E-03,1.28E-02
105093,5.68E-03,1.26E-02
105094,5.69E-03,1.24E-02
105095,5.70E-03,1.22E-02
105096,5.72E-03,1.20E-02
105097,5.68E-03,1.18E-02
105098,5.64E-03,1.16E-02
105099,5.60E-03,1.14E-02
105100,5.64E-03,1.13E-02
105101,5.68E-03,1.11E-02
105102,5.70E-03,1.09E-02
105103,5.71E-03,1.08E-02
105104,5.70E-03,1.06E-02
105105,5.68E-03,1.05E-02
105106,5.68E-03,1.04E-02
105107,5.70E-03,1.03E-02
105108,5.71E-03,1.01E-02
105109,5.69E-03,1.01E-02
105110,5.71E-03,9.98E-03
105111,5.71E-03,9.92E-03
105112,5.70E-03,9.87E-03
105113,5.70E-03,9.83E-03
105114,5.68E-03,9.80E-03
105115,5.67E-03,9.77E-03
105116,5.69E-03,9.75E-03
105117,5.65E-03,9.73E-03
105118,5.64E-03,9.70E-03
105119,5.61E-03,9.67E-03
105120,5.58E-03,9.64E-03
105121,5.66E-03,9.59E-03
105122,5.64E-03,9.55E-03
105123,5.61E-03,9.50E-03
105124,5.62E-03,9.44E-03
105125,5.62E-03,9.38E-03
105126,5.62E-03,9.32E-03
105127,5.63E-03,9.25E-03
105128,5.63E-03,9.19E-03
105129,5.64E-03,9.12E-03
105130,5.64E-03,9.05E-03
105131,5.65E-03,8.98E-03
105132,5.65E-03,8.91E-03
105133,5.65E-03,8.85E-03
105134,5.65E-03,8.78E-03
105135,5.61E-03,8.71E-03
105136,5.57E-03,8.64E-03
105137,5.53E-03,8.58E-03
105138,5.51E-03,8.52E-03
105139,5.45E-03,8.46E-03
105140,5.42E-03,8.41E-03
105141,5.36E-03,8.35E-03
105142,5.30E-03,8.30E-03
105143,5.13E-03,8.26E-03
105144,5.60E-03,8.19E-03
105145,5.82E-03,8.06E-03
105146,5.35E-03,7.95E-03
105147,5.53E-03,7.87E-03
105148,5.50E-03,7.75E-03
105149,5.38E-03,7.63E-03
105150,5.34E-03,7.51E-03
105151,5.34E-03,7.41E-03
105152,5.41E-03,7.32E-03
105153,5.50E-03,7.22E-03
105154,5.55E-03,7.13E-03
105155,5.49E-03,7.04E-03
105156,5.42E-03,6.96E-03
105157,5.37E-03,6.87E-03
105158,5.30E-03,6.78E-03
105159,5.27E-03,6.67E-03
105160,5.15E-03,6.57E-03
105161,4.99E-03,6.45E-03
105162,4.76E-03,6.31E-03
105163,4.62E-03,6.12E-03
105164,4.55E-03,5.89E-03
105165,4.59E-03,5.65E-03
105166,4.74E-03,5.37E-03
105167,5.29E-03,5.07E-03
105168,3.79E-03,4.75E-03
105169,3.09E-03,4.59E-03
105170,4.60E-03,1.46E-02
105171,5.09E-03,1.47E-02
105172,4.44E-03,1.47E-02
105173,4.50E-03,1.47E-02
105174,4.71E-03,1.48E-02
105175,5.01E-03,1.48E-02
105176,5.40E-03,1.48E-02
105177,5.76E-03,1.49E-02
105178,5.74E-03,1.50E-02
105179,5.72E-03,1.50E-02
105180,5.79E-03,1.50E-02
105181,5.84E-03,1.50E-02
105182,5.65E-03,1.51E-02
105183,5.49E-03,1.51E-02
105184,5.35E-03,1.52E-02
105185,5.35E-03,1.52E-02
105186,5.43E-03,1.52E-02
105187,5.52E-03,1.52E-02
105188,5.55E-03,1.52E-02
105189,5.60E-03,1.53E-02
105190,5.57E-03,1.53E-02
105191,5.48E-03,1.53E-02
105192,5.40E-03,1.53E-02
105193,5.34E-03,1.53E-02
105194,5.29E-03,1.53E-02
105195,5.29E-03,1.52E-02
105196,5.29E-03,1.52E-02
105197,5.32E-03,1.52E-02
105198,5.38E-03,1.51E-02
105199,5.44E-03,1.51E-02
105200,5.44E-03,1.50E-02
105201,5.42E-03,1.50E-02
105202,5.46E-03,1.49E-02
105203,5.48E-03,1.48E-02
105204,5.53E-03,1.47E-02
105205,5.60E-03,1.46E-02
105206,5.56E-03,1.45E-02
105207,5.48E-03,1.44E-02
105208,5.46E-03,1.43E-02
105209,5.48E-03,1.42E-02
105210,5.57E-03,1.40E-02
105211,5.94E-03,1.39E-02
105212,6.39E-03,1.37E-02
105213,6.75E-03,1.35E-02
105214,6.75E-03,1.34E-02
105215,6.86E-03,1.39E-02
105216,6.54E-03,1.44E-02
105217,6.38E-03,1.49E-02
105218,6.26E-03,1.53E-02
105219,6.40E-03,1.58E-02
105220,6.54E-03,1.62E-02
105221,6.61E-03,1.66E-02
105222,6.57E-03,1.70E-02
105223,6.66E-03,1.73E-02
105224,6.61E-03,1.77E-02
105225,6.61E-03,1.81E-02
105226,6.59E-03,1.84E-02
105227,6.61E-03,1.87E-02
105228,6.67E-03,1.90E-02
105229,6.69E-03,1.93E-02
105230,6.74E-03,1.96E-02
105231,6.80E-03,1.99E-02
105232,6.80E-03,2.02E-02
105233,6.82E-03,2.04E-02
105234,6.85E-03,2.07E-02
105235,6.81E-03,2.09E-02
105236,6.76E-03,2.11E-02
105237,6.70E-03,2.14E-02
105238,6.62E-03,2.16E-02
105239,6.57E-03,2.18E-02
105240,6.57E-03,2.20E-02
105241,6.55E-03,2.22E-02
105242,6.57E-03,2.24E-02
105243,6.55E-03,2.25E-02
105244,6.50E-03,2.27E-02
105245,6.52E-03,2.29E-02
105246,6.57E-03,2.30E-02
105247,6.55E-03,2.32E-02
105248,6.56E-03,2.34E-02
105249,6.56E-03,2.35E-02
105250,6.58E-03,2.36E-02
105251,6.61E-03,2.38E-02
105252,6.59E-03,2.39E-02
105253,6.63E-03,2.40E-02
105254,6.63E-03,2.41E-02
105255,6.60E-03,2.43E-02
105256,6.60E-03,2.44E-02
105257,6.57E-03,2.45E-02
105258,6.59E-03,2.46E-02
105259,6.60E-03,2.47E-02
105260,6.57E-03,2.48E-02
105261,6.57E-03,2.49E-02
105262,6.61E-03,2.50E-02
105263,6.62E-03,2.51E-02
105264,6.61E-03,2.52E-02
105265,6.64E-03,2.52E-02
105266,6.62E-03,2.53E-02
105267,6.61E-03,2.54E-02
105268,6.57E-03,2.55E-02
105269,6.62E-03,2.55E-02
105270,6.62E-03,2.56E-02
105271,6.67E-03,2.57E-02
105272,6.69E-03,2.57E-02
105273,6.74E-03,2.57E-02
105274,6.75E-03,2.58E-02
105275,6.66E-03,2.58E-02
105276,6.55E-03,2.58E-02
105277,6.46E-03,2.58E-02
105278,6.41E-03,2.58E-02
105279,6.33E-03,2.58E-02
105280,6.26E-03,2.58E-02
105281,6.24E-03,2.57E-02
105282,6.23E-03,2.57E-02
105283,6.08E-03,2.59E-02
105284,5.95E-03,2.60E-02
105285,5.80E-03,2.62E-02
105286,5.70E-03,2.64E-02
105287,5.65E-03,2.66E-02
105288,5.59E-03,2.68E-02
105289,5.56E-03,2.71E-02
105290,5.54E-03,2.73E-02
105291,5.53E-03,2.76E-02
105292,5.51E-03,2.79E-02
105293,5.52E-03,2.81E-02
105294,5.48E-03,2.84E-02
105295,5.46E-03,2.86E-02
105296,5.46E-03,2.89E-02
105297,5.45E-03,2.90E-02
105298,5.45E-03,2.92E-02
105299,5.44E-03,2.92E-02
105300,5.46E-03,2.93E-02
105301,5.41E-03,2.94E-02
105302,5.42E-03,2.95E-02
105303,5.44E-03,2.98E-02
105304,5.44E-03,3.02E-02
105305,5.43E-03,3.07E-02
105306,5.46E-03,3.13E-02
105307,5.49E-03,3.19E-02
105308,5.53E-03,3.25E-02
105309,5.56E-03,3.29E-02
105310,5.57E-03,3.32E-02
105311,5.53E-03,3.35E-02
105312,5.50E-03,3.36E-02
105313,5.49E-03,3.38E-02
105314,5.49E-03,3.43E-02
105315,5.43E-03,3.49E-02
105316,5.39E-03,3.54E-02
105317,5.29E-03,3.59E-02
105318,5.16E-03,3.66E-02
105319,5.05E-03,3.69E-02
105320,4.95E-03,3.75E-02
105321,4.98E-03,3.76E-02
105322,5.56E-03,3.76E-02
105323,5.81E-03,3.90E-02
105324,5.45E-03,4.08E-02
105325,5.52E-03,4.10E-02
105326,5.62E-03,4.03E-02
105327,5.69E-03,3.99E-02
105328,5.65E-03,4.10E-02
105329,5.54E-03,4.33E-02
105330,5.46E-03,4.48E-02
105331,5.47E-03,4.47E-02
105332,5.48E-03,4.41E-02
105333,5.46E-03,4.37E-02
105334,5.46E-03,4.33E-02
105335,5.45E-03,4.30E-02
105336,5.49E-03,4.27E-02
105337,5.56E-03,4.23E-02
105338,5.66E-03,4.21E-02
105339,5.72E-03,4.30E-02
105340,5.65E-03,4.55E-02
105341,5.48E-03,4.79E-02
105342,5.41E-03,4.83E-02
105343,5.46E-03,4.68E-02
105344,5.57E-03,4.48E-02
105345,5.63E-03,4.34E-02
105346,5.62E-03,4.28E-02
105347,5.62E-03,4.30E-02
105348,5.54E-03,4.34E-02
105349,5.55E-03,4.39E-02
105350,5.46E-03,4.43E-02
105351,5.48E-03,4.43E-02
105352,5.48E-03,4.37E-02
105353,5.49E-03,4.24E-02
105354,5.50E-03,4.08E-02
105355,5.60E-03,3.94E-02
105356,5.65E-03,3.93E-02
105357,5.55E-03,4.13E-02
105358,5.43E-03,4.39E-02
105359,5.46E-03,4.49E-02
105360,5.52E-03,4.49E-02
105361,5.54E-03,4.46E-02
105362,5.57E-03,4.43E-02
105363,5.56E-03,4.41E-02
105364,5.61E-03,4.40E-02
105365,5.61E-03,4.38E-02
105366,5.61E-03,4.37E-02
105367,5.61E-03,4.35E-02
105368,5.61E-03,4.34E-02
105369,5.61E-03,4.33E-02
105370,5.66E-03,4.31E-02
105371,5.67E-03,4.29E-02
105372,5.62E-03,4.28E-02
105373,5.62E-03,4.25E-02
105374,5.57E-03,4.23E-02
105375,5.56E-03,4.20E-02
105376,5.50E-03,4.16E-02
105377,5.45E-03,4.11E-02
105378,5.42E-03,4.04E-02
105379,5.51E-03,3.96E-02
105380,5.59E-03,3.94E-02
105381,5.56E-03,4.08E-02
105382,5.44E-03,4.29E-02
105383,5.43E-03,4.34E-02
105384,5.50E-03,4.22E-02
105385,5.67E-03,4.09E-02
105386,5.74E-03,4.08E-02
105387,5.70E-03,4.23E-02
105388,5.58E-03,4.48E-02
105389,5.45E-03,4.71E-02
105390,5.36E-03,4.82E-02
105391,5.41E-03,4.74E-02
105392,5.56E-03,4.56E-02
105393,5.74E-03,4.46E-02
105394,5.75E-03,4.55E-02
105395,5.70E-03,4.80E-02
105396,5.63E-03,5.13E-02
105397,5.55E-03,5.40E-02
105398,5.54E-03,5.44E-02
105399,5.61E-03,5.24E-02
105400,5.66E-03,4.99E-02
105401,5.67E-03,4.79E-02
105402,5.63E-03,4.68E-02
105403,5.60E-03,4.63E-02
105404,5.56E-03,4.64E-02
105405,5.60E-03,4.68E-02
105406,5.56E-03,4.75E-02
105407,5.58E-03,4.78E-02
105408,5.58E-03,4.73E-02
105409,5.56E-03,4.61E-02
105410,5.50E-03,4.48E-02
105411,5.46E-03,4.32E-02
105412,5.41E-03,4.14E-02
105413,5.38E-03,3.96E-02
105414,5.39E-03,3.80E-02
105415,5.51E-03,3.64E-02
105416,5.63E-03,3.49E-02
105417,5.90E-03,3.44E-02
105418,5.69E-03,3.83E-02
105419,5.30E-03,4.43E-02
105420,5.40E-03,4.56E-02
105421,5.57E-03,4.51E-02
105422,5.63E-03,4.47E-02
105423,5.65E-03,4.46E-02
105424,5.56E-03,4.48E-02
105425,5.51E-03,4.45E-02
105426,5.49E-03,4.34E-02
105427,5.57E-03,4.19E-02
105428,5.71E-03,4.07E-02
105429,5.73E-03,4.08E-02
105430,5.59E-03,4.35E-02
105431,5.43E-03,4.62E-02
105432,5.38E-03,4.59E-02
105433,5.42E-03,4.37E-02
105434,5.46E-03,4.09E-02
105435,5.56E-03,3.83E-02
105436,5.61E-03,3.63E-02
105437,5.72E-03,3.51E-02
105438,5.68E-03,3.62E-02
105439,5.53E-03,3.93E-02
105440,5.47E-03,4.11E-02
105441,5.55E-03,4.09E-02
105442,5.58E-03,4.01E-02
105443,5.69E-03,3.94E-02
105444,5.73E-03,3.96E-02
105445,5.70E-03,4.07E-02
105446,5.64E-03,4.17E-02
105447,5.66E-03,4.19E-02
105448,5.64E-03,4.15E-02
105449,5.64E-03,4.08E-02
105450,5.63E-03,4.01E-02
105451,5.64E-03,3.94E-02
105452,5.60E-03,3.87E-02
105453,5.58E-03,3.80E-02
105454,5.63E-03,3.74E-02
105455,5.63E-03,3.68E-02
105456,5.64E-03,3.61E-02
105457,5.59E-03,3.53E-02
105458,5.56E-03,3.45E-02
105459,5.56E-03,3.36E-02
105460,5.57E-03,3.26E-02
105461,5.59E-03,3.15E-02
105462,5.64E-03,3.03E-02
105463,5.59E-03,2.92E-02
105464,5.57E-03,2.82E-02
105465,5.53E-03,2.72E-02
105466,5.55E-03,2.64E-02
105467,5.59E-03,2.56E-02
105468,5.70E-03,2.51E-02
105469,5.70E-03,2.55E-02
105470,5.56E-03,2.68E-02
105471,5.53E-03,2.82E-02
105472,5.51E-03,2.89E-02
105473,5.59E-03,2.91E-02
105474,5.65E-03,2.91E-02
105475,5.65E-03,2.89E-02
105476,5.67E-03,2.86E-02
105477,5.68E-03,2.83E-02
105478,5.67E-03,2.78E-02
105479,5.63E-03,2.73E-02
105480,5.68E-03,2.69E-02
105481,5.75E-03,2.65E-02
105482,5.79E-03,2.62E-02
105483,5.80E-03,2.61E-02
105484,5.86E-03,2.60E-02
105485,5.91E-03,2.60E-02
105486,5.89E-03,2.63E-02
105487,5.86E-03,2.67E-02
105488,5.70E-03,2.70E-02
105489,5.55E-03,2.72E-02
105490,5.31E-03,2.69E-02
105491,5.15E-03,2.53E-02
105492,5.21E-03,2.16E-02
105493,5.40E-03,1.78E-02
105494,5.48E-03,1.51E-02
105495,5.56E-03,1.30E-02
105496,5.62E-03,1.15E-02
105497,5.60E-03,1.09E-02
105498,5.55E-03,1.07E-02
105499,5.54E-03,1.07E-02
105500,5.51E-03,1.08E-02
105501,5.56E-03,1.08E-02
105502,5.56E-03,1.09E-02
105503,5.55E-03,1.09E-02
105504,5.50E-03,1.08E-02
105505,5.53E-03,1.08E-02
105506,5.51E-03,1.07E-02
105507,5.54E-03,1.06E-02
105508,5.55E-03,1.04E-02
105509,5.64E-03,1.04E-02
105510,5.65E-03,1.06E-02
105511,5.57E-03,1.10E-02
105512,5.57E-03,1.12E-02
105513,5.59E-03,1.11E-02
105514,5.57E-03,1.09E-02
105515,5.53E-03,1.06E-02
105516,5.51E-03,1.01E-02
105517,5.48E-03,9.66E-03
105518,5.47E-03,9.14E-03
105519,5.44E-03,8.64E-03
105520,5.47E-03,8.17E-03
105521,5.60E-03,7.78E-03
105522,5.74E-03,7.59E-03
105523,5.69E-03,8.08E-03
105524,5.51E-03,8.93E-03
105525,5.46E-03,9.38E-03
105526,5.49E-03,9.53E-03
105527,5.56E-03,9.46E-03
105528,5.56E-03,9.23E-03
105529,5.55E-03,8.90E-03
105530,5.55E-03,8.57E-03
105531,5.56E-03,8.28E-03
105532,5.47E-03,8.14E-03
105533,5.35E-03,8.08E-03
105534,5.27E-03,7.85E-03
105535,5.25E-03,7.41E-03
105536,5.40E-03,6.79E-03
105537,5.70E-03,6.12E-03
105538,6.29E-03,5.68E-03
105539,6.28E-03,6.02E-03
105540,5.72E-03,7.35E-03
105541,5.23E-03,9.43E-03
105542,4.72E-03,1.15E-02
105543,4.90E-03,1.17E-02
105544,5.27E-03,1.04E-02
105545,5.45E-03,9.11E-03
105546,5.54E-03,7.99E-03
105547,5.58E-03,7.11E-03
105548,5.59E-03,6.39E-03
105549,5.56E-03,5.83E-03
105550,5.56E-03,5.42E-03
105551,5.51E-03,5.15E-03
105552,5.50E-03,5.00E-03
105553,5.47E-03,4.98E-03
105554,5.42E-03,4.96E-03
105555,5.56E-03,4.84E-03
105556,5.64E-03,4.83E-03
105557,5.36E-03,5.26E-03
105558,5.28E-03,5.56E-03
105559,5.59E-03,5.23E-03
105560,5.83E-03,5.07E-03
105561,5.75E-03,5.45E-03
105562,5.58E-03,6.12E-03
105563,5.35E-03,6.89E-03
105564,5.23E-03,7.27E-03
105565,5.37E-03,6.79E-03
105566,5.59E-03,6.21E-03
105567,5.40E-03,6.28E-03
105568,5.23E-03,6.30E-03
105569,5.47E-03,5.65E-03
105570,5.78E-03,5.19E-03
105571,5.69E-03,5.30E-03
105572,5.58E-03,5.65E-03
105573,5.50E-03,5.94E-03
105574,5.48E-03,6.16E-03
105575,5.53E-03,6.34E-03
105576,5.55E-03,6.49E-03
105577,5.56E-03,6.62E-03
105578,5.61E-03,6.72E-03
105579,5.61E-03,6.81E-03
105580,5.61E-03,6.89E-03
105581,5.68E-03,6.95E-03
105582,5.73E-03,7.03E-03
105583,5.76E-03,7.11E-03
105584,5.83E-03,7.19E-03
105585,5.83E-03,7.26E-03
105586,5.74E-03,7.39E-03
105587,5.52E-03,7.59E-03
105588,5.31E-03,7.52E-03
105589,5.48E-03,6.68E-03
105590,5.92E-03,5.67E-03
105591,5.97E-03,5.28E-03
105592,5.45E-03,5.44E-03
105593,4.99E-03,5.50E-03
105594,4.75E-03,4.83E-03
105595,4.81E-03,3.87E-03
105596,4.74E-03,3.28E-03
105597,4.21E-03,3.32E-03
105598,4.44E-03,3.61E-03
105599,4.35E-03,3.75E-03
105600,4.30E-03,4.00E-03
105601,4.29E-03,4.38E-03
105602,6.27E-03,7.67E-03
105603,5.88E-03,7.58E-03
105604,4.96E-03,6.94E-03
105605,5.10E-03,6.97E-03
105606,4.70E-03,7.06E-03
105607,6.06E-03,1.82E-02
105608,6.00E-03,1.81E-02
105609,6.19E-03,1.78E-02
105610,6.14E-03,1.77E-02
105611,6.12E-03,1.80E-02
105612,5.71E-03,2.64E-02
105613,5.44E-03,2.62E-02
105614,5.79E-03,2.61E-02
105615,5.94E-03,2.62E-02
105616,6.01E-03,2.63E-02
90153,1.15E-03,8.54E-03
90154,3.20E-03,8.86E-03
90155,2.15E-03,2.48E-02
90156,1.58E-03,2.74E-02
90157,2.37E-03,1.20E-02
90158,3.68E-03,2.58E-02
90159,2.24E-03,1.07E-02
90160,2.29E-03,1.18E-02
90161,2.45E-03,2.31E-02
90162,2.17E-03,2.52E-02
90163,2.43E-03,1.44E-02
90164,2.25E-03,1.39E-02
90165,2.00E-03,1.34E-02
90166,2.70E-03,1.80E-02
90167,2.51E-03,2.18E-02
90168,2.16E-03,2.18E-02
90169,1.86E-03,1.88E-02
90170,2.72E-03,2.06E-02
90171,2.16E-03,2.35E-02
90172,3.18E-03,2.16E-02
90173,2.06E-03,2.34E-02
90174,1.21E-03,2.36E-02
90175,2.86E-03,2.38E-02
90176,2.91E-03,2.42E-02
90177,2.43E-03,2.40E-02
90178,2.51E-03,2.32E-02
90179,2.61E-03,2.21E-02
90180,3.20E-03,2.22E-02
90181,2.44E-03,2.15E-02
90182,2.80E-03,2.18E-02
90183,2.09E-03,2.21E-02
90184,1.63E-03,2.19E-02
90185,2.46E-03,1.85E-02
90186,2.72E-03,2.37E-02
90187,3.15E-03,2.43E-02
90188,2.35E-03,2.23E-02
90189,2.83E-03,2.23E-02
90190,2.61E-03,2.11E-02
97904,1.57E-03,4.77E-03
97905,2.57E-03,7.19E-03
97906,2.08E-03,6.36E-03
97907,2.55E-03,3.05E-02
97908,2.32E-03,7.56E-03
97909,1.68E-03,2.61E-02
97910,2.24E-03,7.48E-03
97911,2.17E-03,1.77E-02
97912,1.69E-03,1.74E-02
97913,2.85E-03,2.85E-02
97914,1.75E-03,1.63E-02
97915,3.22E-03,2.35E-02
97916,2.70E-03,2.31E-02
97917,1.92E-03,1.89E-02
97918,3.39E-03,9.16E-03
97919,1.49E-03,2.52E-02
97920,2.84E-03,1.03E-02
97921,2.76E-03,1.20E-02
97922,2.55E-03,1.42E-02
97923,2.54E-03,3.57E-02
97924,2.76E-03,7.59E-03
97925,2.59E-03,3.23E-02
97926,2.40E-03,3.02E-02
97927,1.95E-03,2.06E-02
97928,2.72E-03,3.80E-02
97929,2.65E-03,2.03E-02
97930,2.59E-03,3.84E-02
97931,2.60E-03,3.88E-02
97932,2.66E-03,3.80E-02
97933,3.15E-03,3.24E-02
97934,2.48E-03,3.07E-02
97935,2.55E-03,3.32E-02
97936,2.82E-03,3.72E-02
97937,2.71E-03,3.68E-02
97938,2.47E-03,2.82E-02
97939,2.91E-03,3.83E-02
97940,2.53E-03,3.68E-02
97941,2.35E-03,2.95E-02
97942,3.00E-03,3.49E-02
97943,3.31E-03,2.56E-02
97944,1.84E-03,1.73E-02
97945,3.40E-03,2.46E-02
97946,1.88E-03,9.05E-03
97947,3.50E-03,2.29E-02
105639,2.77E-03,6.52E-02
105640,2.77E-03,6.45E-02
105641,2.77E-03,6.39E-02
105642,2.77E-03,6.33E-02
105643,2.77E-03,6.28E-02
105644,2.77E-03,6.24E-02
105645,2.77E-03,6.18E-02
105646,2.77E-03,6.11E-02
105647,2.77E-03,6.05E-02
105648,2.77E-03,5.98E-02
105649,2.77E-03,5.93E-02
105650,2.77E-03,5.88E-02
105651,2.77E-03,5.82E-02
105652,2.77E-03,5.76E-02
105653,2.77E-03,5.71E-02
105654,2.77E-03,5.65E-02
105655,2.77E-03,5.59E-02
105656,2.77E-03,5.52E-02
105657,2.77E-03,5.46E-02
105658,2.77E-03,5.40E-02
105659,2.77E-03,5.33E-02
105660,2.77E-03,5.26E-02
105661,2.77E-03,5.20E-02
105662,2.77E-03,5.14E-02
105663,2.77E-03,5.08E-02
105664,2.77E-03,5.01E-02
105665,2.77E-03,4.94E-02
105666,2.77E-03,4.89E-02
105667,2.77E-03,4.83E-02
105668,2.77E-03,4.78E-02
105669,2.77E-03,4.71E-02
105670,2.77E-03,4.65E-02
105671,2.77E-03,4.59E-02
105672,2.77E-03,4.54E-02
105673,2.77E-03,4.48E-02
105674,2.77E-03,4.41E-02
105675,2.77E-03,4.35E-02
105676,2.77E-03,4.30E-02
105677,2.77E-03,4.24E-02
105678,2.77E-03,4.18E-02
105679,2.77E-03,4.12E-02
105680,2.76E-03,4.06E-02
105681,2.76E-03,4.00E-02
105682,2.76E-03,3.93E-02
105683,2.76E-03,3.88E-02
105684,2.76E-03,3.84E-02
105685,2.76E-03,3.79E-02
105686,2.76E-03,3.73E-02
105687,2.76E-03,3.66E-02
105688,2.76E-03,3.61E-02
105689,2.76E-03,3.56E-02
105690,2.76E-03,3.51E-02
105691,2.76E-03,3.45E-02
105692,2.76E-03,3.39E-02
105693,2.76E-03,3.34E-02
105694,2.76E-03,3.28E-02
105695,2.76E-03,3.22E-02
105696,2.76E-03,3.17E-02
105697,2.76E-03,3.12E-02
105698,2.76E-03,3.07E-02
105699,2.76E-03,3.02E-02
105700,2.76E-03,2.97E-02
105701,2.76E-03,2.92E-02
105702,2.76E-03,2.86E-02
105703,2.76E-03,2.80E-02
105704,2.76E-03,2.73E-02
105705,2.76E-03,2.67E-02
105706,2.76E-03,2.62E-02
105707,2.79E-03,6.29E-02
105708,2.79E-03,6.29E-02
105709,2.79E-03,6.28E-02
105710,2.79E-03,6.25E-02
105711,2.79E-03,6.22E-02
105712,2.79E-03,6.18E-02
105713,2.78E-03,6.13E-02
105714,2.78E-03,6.08E-02
105715,2.78E-03,6.03E-02
105716,2.78E-03,5.97E-02
105717,2.78E-03,5.92E-02
105718,2.78E-03,5.86E-02
105719,2.78E-03,5.81E-02
105720,2.78E-03,5.75E-02
105721,2.78E-03,5.70E-02
105722,2.78E-03,5.64E-02
105723,2.78E-03,5.58E-02
105724,2.78E-03,5.52E-02
105725,2.78E-03,5.46E-02
105726,2.78E-03,5.39E-02
105727,2.78E-03,5.33E-02
105728,2.78E-03,5.26E-02
105729,2.78E-03,5.20E-02
105730,2.78E-03,5.13E-02
105731,2.78E-03,5.07E-02
105732,2.78E-03,5.01E-02
105733,2.78E-03,4.95E-02
105734,2.78E-03,4.89E-02
105735,2.78E-03,4.83E-02
105736,2.78E-03,4.77E-02
105737,2.78E-03,4.72E-02
105738,2.78E-03,4.66E-02
105739,2.78E-03,4.60E-02
105740,2.78E-03,4.53E-02
105741,2.78E-03,4.47E-02
105742,2.78E-03,4.42E-02
105743,2.78E-03,4.36E-02
105744,2.78E-03,4.30E-02
105745,2.78E-03,4.24E-02
105746,2.78E-03,4.18E-02
105747,2.78E-03,4.12E-02
105748,2.78E-03,4.06E-02
105749,2.78E-03,4.00E-02
105750,2.78E-03,3.95E-02
105751,2.78E-03,3.89E-02
105752,2.78E-03,3.83E-02
105753,2.78E-03,3.78E-02
105754,2.78E-03,3.73E-02
105755,2.78E-03,3.67E-02
105756,2.78E-03,3.61E-02
105757,2.78E-03,3.56E-02
105758,2.78E-03,3.50E-02
105759,2.78E-03,3.45E-02
105760,2.78E-03,3.39E-02
105761,2.78E-03,3.33E-02
105762,2.78E-03,3.28E-02
105763,2.78E-03,3.22E-02
105764,2.78E-03,3.17E-02
105765,2.78E-03,3.12E-02
105766,2.78E-03,3.07E-02
105767,2.78E-03,3.02E-02
105768,2.78E-03,2.96E-02
105769,2.78E-03,2.91E-02
105770,2.78E-03,2.85E-02
105771,2.78E-03,2.80E-02
105772,2.78E-03,2.74E-02
105773,2.78E-03,2.69E-02
105774,2.78E-03,2.64E-02
105775,2.78E-03,2.58E-02
105776,2.80E-03,6.12E-02
105777,2.80E-03,6.15E-02
105778,2.80E-03,6.17E-02
105779,2.80E-03,6.17E-02
105780,2.80E-03,6.15E-02
105781,2.80E-03,6.13E-02
105782,2.80E-03,6.09E-02
105783,2.80E-03,6.05E-02
105784,2.80E-03,6.00E-02
105785,2.80E-03,5.95E-02
105786,2.80E-03,5.90E-02
105787,2.80E-03,5.85E-02
105788,2.80E-03,5.79E-02
105789,2.80E-03,5.74E-02
105790,2.80E-03,5.69E-02
105791,2.80E-03,5.63E-02
105792,2.80E-03,5.57E-02
105793,2.80E-03,5.51E-02
105794,2.80E-03,5.45E-02
105795,2.80E-03,5.39E-02
105796,2.80E-03,5.32E-02
105797,2.80E-03,5.26E-02
105798,2.80E-03,5.20E-02
105799,2.80E-03,5.14E-02
105800,2.80E-03,5.07E-02
105801,2.80E-03,5.01E-02
105802,2.80E-03,4.95E-02
105803,2.80E-03,4.89E-02
105804,2.80E-03,4.83E-02
105805,2.80E-03,4.77E-02
105806,2.80E-03,4.71E-02
105807,2.80E-03,4.65E-02
105808,2.80E-03,4.59E-02
105809,2.80E-03,4.54E-02
105810,2.80E-03,4.48E-02
105811,2.80E-03,4.41E-02
105812,2.80E-03,4.35E-02
105813,2.80E-03,4.30E-02
105814,2.80E-03,4.24E-02
105815,2.80E-03,4.18E-02
105816,2.80E-03,4.12E-02
105817,2.80E-03,4.06E-02
105818,2.79E-03,4.00E-02
105819,2.79E-03,3.95E-02
105820,2.79E-03,3.89E-02
105821,2.79E-03,3.83E-02
105822,2.79E-03,3.78E-02
105823,2.79E-03,3.72E-02
105824,2.79E-03,3.67E-02
105825,2.79E-03,3.61E-02
105826,2.79E-03,3.56E-02
105827,2.79E-03,3.50E-02
105828,2.79E-03,3.44E-02
105829,2.79E-03,3.39E-02
105830,2.79E-03,3.33E-02
105831,2.79E-03,3.28E-02
105832,2.79E-03,3.22E-02
105833,2.79E-03,3.17E-02
105834,2.79E-03,3.12E-02
105835,2.79E-03,3.06E-02
105836,2.79E-03,3.01E-02
105837,2.79E-03,2.96E-02
105838,2.79E-03,2.91E-02
105839,2.79E-03,2.85E-02
105840,2.79E-03,2.80E-02
105841,2.79E-03,2.74E-02
105842,2.79E-03,2.69E-02
105843,2.79E-03,2.63E-02
105844,2.79E-03,2.58E-02
105845,2.82E-03,6.03E-02
105846,2.82E-03,6.06E-02
105847,2.82E-03,6.09E-02
105848,2.82E-03,6.09E-02
105849,2.82E-03,6.09E-02
105850,2.82E-03,6.07E-02
105851,2.82E-03,6.05E-02
105852,2.82E-03,6.01E-02
105853,2.82E-03,5.97E-02
105854,2.82E-03,5.93E-02
105855,2.82E-03,5.88E-02
105856,2.82E-03,5.83E-02
105857,2.82E-03,5.78E-02
105858,2.82E-03,5.72E-02
105859,2.82E-03,5.67E-02
105860,2.82E-03,5.61E-02
105861,2.82E-03,5.56E-02
105862,2.82E-03,5.50E-02
105863,2.82E-03,5.44E-02
105864,2.82E-03,5.38E-02
105865,2.82E-03,5.32E-02
105866,2.82E-03,5.26E-02
105867,2.82E-03,5.20E-02
105868,2.81E-03,5.13E-02
105869,2.81E-03,5.07E-02
105870,2.81E-03,5.01E-02
105871,2.81E-03,4.95E-02
105872,2.81E-03,4.89E-02
105873,2.81E-03,4.83E-02
105874,2.81E-03,4.77E-02
105875,2.81E-03,4.71E-02
105876,2.81E-03,4.65E-02
105877,2.81E-03,4.59E-02
105878,2.81E-03,4.53E-02
105879,2.81E-03,4.47E-02
105880,2.81E-03,4.41E-02
105881,2.81E-03,4.35E-02
105882,2.81E-03,4.29E-02
105883,2.81E-03,4.23E-02
105884,2.81E-03,4.18E-02
105885,2.81E-03,4.12E-02
105886,2.81E-03,4.06E-02
105887,2.81E-03,4.00E-02
105888,2.81E-03,3.95E-02
105889,2.81E-03,3.89E-02
105890,2.81E-03,3.83E-02
105891,2.81E-03,3.78E-02
105892,2.81E-03,3.72E-02
105893,2.81E-03,3.66E-02
105894,2.81E-03,3.61E-02
105895,2.81E-03,3.55E-02
105896,2.81E-03,3.50E-02
105897,2.81E-03,3.44E-02
105898,2.81E-03,3.39E-02
105899,2.81E-03,3.33E-02
105900,2.81E-03,3.27E-02
105901,2.80E-03,3.22E-02
105902,2.80E-03,3.17E-02
105903,2.80E-03,3.11E-02
105904,2.80E-03,3.06E-02
105905,2.80E-03,3.01E-02
105906,2.80E-03,2.95E-02
105907,2.80E-03,2.90E-02
105908,2.80E-03,2.85E-02
105909,2.80E-03,2.79E-02
105910,2.80E-03,2.73E-02
105911,2.80E-03,2.68E-02
105912,2.80E-03,2.63E-02
105913,2.80E-03,2.57E-02
105914,2.84E-03,5.99E-02
105915,2.84E-03,6.01E-02
105916,2.84E-03,6.03E-02
105917,2.84E-03,6.04E-02
105918,2.84E-03,6.04E-02
105919,2.84E-03,6.02E-02
105920,2.84E-03,6.00E-02
105921,2.83E-03,5.97E-02
105922,2.83E-03,5.94E-02
105923,2.83E-03,5.90E-02
105924,2.83E-03,5.85E-02
105925,2.83E-03,5.81E-02
105926,2.83E-03,5.76E-02
105927,2.83E-03,5.71E-02
105928,2.83E-03,5.65E-02
105929,2.83E-03,5.60E-02
105930,2.83E-03,5.54E-02
105931,2.83E-03,5.48E-02
105932,2.83E-03,5.43E-02
105933,2.83E-03,5.37E-02
105934,2.83E-03,5.31E-02
105935,2.83E-03,5.25E-02
105936,2.83E-03,5.19E-02
105937,2.83E-03,5.13E-02
105938,2.83E-03,5.07E-02
105939,2.83E-03,5.01E-02
105940,2.83E-03,4.95E-02
105941,2.83E-03,4.89E-02
105942,2.83E-03,4.83E-02
105943,2.83E-03,4.77E-02
105944,2.83E-03,4.71E-02
105945,2.83E-03,4.65E-02
105946,2.83E-03,4.59E-02
105947,2.83E-03,4.53E-02
105948,2.82E-03,4.47E-02
105949,2.82E-03,4.41E-02
105950,2.82E-03,4.35E-02
105951,2.82E-03,4.29E-02
105952,2.82E-03,4.23E-02
105953,2.82E-03,4.17E-02
105954,2.82E-03,4.11E-02
105955,2.82E-03,4.06E-02
105956,2.82E-03,4.00E-02
105957,2.82E-03,3.94E-02
105958,2.82E-03,3.88E-02
105959,2.82E-03,3.83E-02
105960,2.82E-03,3.77E-02
105961,2.82E-03,3.71E-02
105962,2.82E-03,3.66E-02
105963,2.82E-03,3.60E-02
105964,2.82E-03,3.55E-02
105965,2.82E-03,3.49E-02
105966,2.82E-03,3.44E-02
105967,2.82E-03,3.38E-02
105968,2.82E-03,3.33E-02
105969,2.82E-03,3.27E-02
105970,2.82E-03,3.22E-02
105971,2.82E-03,3.16E-02
105972,2.82E-03,3.11E-02
105973,2.82E-03,3.05E-02
105974,2.81E-03,3.00E-02
105975,2.81E-03,2.95E-02
105976,2.81E-03,2.89E-02
105977,2.81E-03,2.84E-02
105978,2.81E-03,2.78E-02
105979,2.81E-03,2.73E-02
105980,2.81E-03,2.67E-02
105981,2.81E-03,2.62E-02
105982,2.81E-03,2.57E-02
105983,2.85E-03,5.98E-02
105984,2.85E-03,5.99E-02
105985,2.85E-03,6.00E-02
105986,2.85E-03,6.00E-02
105987,2.85E-03,5.99E-02
105988,2.85E-03,5.98E-02
105989,2.85E-03,5.96E-02
105990,2.85E-03,5.94E-02
105991,2.85E-03,5.91E-02
105992,2.85E-03,5.87E-02
105993,2.85E-03,5.83E-02
105994,2.85E-03,5.78E-02
105995,2.85E-03,5.74E-02
105996,2.84E-03,5.69E-02
105997,2.84E-03,5.63E-02
105998,2.84E-03,5.58E-02
105999,2.84E-03,5.52E-02
106000,2.84E-03,5.47E-02
106001,2.84E-03,5.41E-02
106002,2.84E-03,5.35E-02
106003,2.84E-03,5.30E-02
106004,2.84E-03,5.24E-02
106005,2.84E-03,5.18E-02
106006,2.84E-03,5.12E-02
106007,2.84E-03,5.06E-02
106008,2.84E-03,5.00E-02
106009,2.84E-03,4.94E-02
106010,2.84E-03,4.88E-02
106011,2.84E-03,4.82E-02
106012,2.84E-03,4.76E-02
106013,2.84E-03,4.70E-02
106014,2.84E-03,4.64E-02
106015,2.84E-03,4.58E-02
106016,2.84E-03,4.52E-02
106017,2.84E-03,4.46E-02
106018,2.84E-03,4.40E-02
106019,2.84E-03,4.34E-02
106020,2.83E-03,4.28E-02
106021,2.83E-03,4.23E-02
106022,2.83E-03,4.17E-02
106023,2.83E-03,4.11E-02
106024,2.83E-03,4.05E-02
106025,2.83E-03,3.99E-02
106026,2.83E-03,3.94E-02
106027,2.83E-03,3.88E-02
106028,2.83E-03,3.82E-02
106029,2.83E-03,3.77E-02
106030,2.83E-03,3.71E-02
106031,2.83E-03,3.65E-02
106032,2.83E-03,3.60E-02
106033,2.83E-03,3.54E-02
106034,2.83E-03,3.49E-02
106035,2.83E-03,3.43E-02
106036,2.83E-03,3.38E-02
106037,2.83E-03,3.32E-02
106038,2.83E-03,3.27E-02
106039,2.83E-03,3.21E-02
106040,2.83E-03,3.16E-02
106041,2.83E-03,3.10E-02
106042,2.83E-03,3.05E-02
106043,2.83E-03,2.99E-02
106044,2.82E-03,2.94E-02
106045,2.82E-03,2.89E-02
106046,2.82E-03,2.83E-02
106047,2.82E-03,2.78E-02
106048,2.82E-03,2.72E-02
106049,2.82E-03,2.67E-02
106050,2.82E-03,2.61E-02
106051,2.82E-03,2.56E-02
106052,2.86E-03,5.98E-02
106053,2.86E-03,5.98E-02
106054,2.86E-03,5.98E-02
106055,2.86E-03,5.97E-02
106056,2.86E-03,5.96E-02
106057,2.86E-03,5.95E-02
106058,2.86E-03,5.93E-02
106059,2.86E-03,5.91E-02
106060,2.86E-03,5.87E-02
106061,2.86E-03,5.84E-02
106062,2.86E-03,5.80E-02
106063,2.86E-03,5.76E-02
106064,2.86E-03,5.71E-02
106065,2.86E-03,5.66E-02
106066,2.86E-03,5.61E-02
106067,2.86E-03,5.56E-02
106068,2.85E-03,5.51E-02
106069,2.85E-03,5.45E-02
106070,2.85E-03,5.40E-02
106071,2.85E-03,5.34E-02
106072,2.85E-03,5.28E-02
106073,2.85E-03,5.22E-02
106074,2.85E-03,5.17E-02
106075,2.85E-03,5.11E-02
106076,2.85E-03,5.05E-02
106077,2.85E-03,4.99E-02
106078,2.85E-03,4.93E-02
106079,2.85E-03,4.87E-02
106080,2.85E-03,4.81E-02
106081,2.85E-03,4.75E-02
106082,2.85E-03,4.69E-02
106083,2.85E-03,4.63E-02
106084,2.85E-03,4.57E-02
106085,2.85E-03,4.51E-02
106086,2.85E-03,4.45E-02
106087,2.85E-03,4.39E-02
106088,2.85E-03,4.34E-02
106089,2.85E-03,4.28E-02
106090,2.84E-03,4.22E-02
106091,2.84E-03,4.16E-02
106092,2.84E-03,4.10E-02
106093,2.84E-03,4.04E-02
106094,2.84E-03,3.99E-02
106095,2.84E-03,3.93E-02
106096,2.84E-03,3.87E-02
106097,2.84E-03,3.82E-02
106098,2.84E-03,3.76E-02
106099,2.84E-03,3.70E-02
106100,2.84E-03,3.65E-02
106101,2.84E-03,3.59E-02
106102,2.84E-03,3.54E-02
106103,2.84E-03,3.48E-02
106104,2.84E-03,3.42E-02
106105,2.84E-03,3.37E-02
106106,2.84E-03,3.31E-02
106107,2.84E-03,3.26E-02
106108,2.84E-03,3.21E-02
106109,2.84E-03,3.15E-02
106110,2.84E-03,3.10E-02
106111,2.84E-03,3.04E-02
106112,2.83E-03,2.99E-02
106113,2.83E-03,2.93E-02
106114,2.83E-03,2.88E-02
106115,2.83E-03,2.82E-02
106116,2.83E-03,2.77E-02
106117,2.83E-03,2.72E-02
106118,2.83E-03,2.66E-02
106119,2.83E-03,2.61E-02
106120,2.83E-03,2.55E-02
106121,2.87E-03,5.98E-02
106122,2.87E-03,5.98E-02
106123,2.87E-03,5.97E-02
106124,2.87E-03,5.96E-02
106125,2.87E-03,5.94E-02
106126,2.87E-03,5.93E-02
106127,2.87E-03,5.90E-02
106128,2.87E-03,5.88E-02
106129,2.87E-03,5.85E-02
106130,2.87E-03,5.81E-02
106131,2.87E-03,5.77E-02
106132,2.87E-03,5.73E-02
106133,2.87E-03,5.69E-02
106134,2.87E-03,5.64E-02
106135,2.87E-03,5.59E-02
106136,2.87E-03,5.54E-02
106137,2.86E-03,5.49E-02
106138,2.86E-03,5.43E-02
106139,2.86E-03,5.38E-02
106140,2.86E-03,5.32E-02
106141,2.86E-03,5.27E-02
106142,2.86E-03,5.21E-02
106143,2.86E-03,5.15E-02
106144,2.86E-03,5.09E-02
106145,2.86E-03,5.03E-02
106146,2.86E-03,4.98E-02
106147,2.86E-03,4.92E-02
106148,2.86E-03,4.86E-02
106149,2.86E-03,4.80E-02
106150,2.86E-03,4.74E-02
106151,2.86E-03,4.68E-02
106152,2.86E-03,4.62E-02
106153,2.86E-03,4.56E-02
106154,2.86E-03,4.50E-02
106155,2.86E-03,4.44E-02
106156,2.86E-03,4.38E-02
106157,2.86E-03,4.33E-02
106158,2.85E-03,4.27E-02
106159,2.85E-03,4.21E-02
106160,2.85E-03,4.15E-02
106161,2.85E-03,4.09E-02
106162,2.85E-03,4.04E-02
106163,2.85E-03,3.98E-02
106164,2.85E-03,3.92E-02
106165,2.85E-03,3.87E-02
106166,2.85E-03,3.81E-02
106167,2.85E-03,3.75E-02
106168,2.85E-03,3.70E-02
106169,2.85E-03,3.64E-02
106170,2.85E-03,3.58E-02
106171,2.85E-03,3.53E-02
106172,2.85E-03,3.47E-02
106173,2.85E-03,3.42E-02
106174,2.85E-03,3.36E-02
106175,2.85E-03,3.31E-02
106176,2.85E-03,3.25E-02
106177,2.85E-03,3.20E-02
106178,2.85E-03,3.14E-02
106179,2.85E-03,3.09E-02
106180,2.84E-03,3.03E-02
106181,2.84E-03,2.98E-02
106182,2.84E-03,2.93E-02
106183,2.84E-03,2.87E-02
106184,2.84E-03,2.82E-02
106185,2.84E-03,2.76E-02
106186,2.84E-03,2.71E-02
106187,2.84E-03,2.65E-02
106188,2.84E-03,2.60E-02
106189,2.84E-03,2.55E-02
106190,2.88E-03,5.99E-02
106191,2.88E-03,5.98E-02
106192,2.88E-03,5.97E-02
106193,2.88E-03,5.95E-02
106194,2.88E-03,5.93E-02
106195,2.88E-03,5.91E-02
106196,2.88E-03,5.88E-02
106197,2.88E-03,5.86E-02
106198,2.88E-03,5.82E-02
106199,2.88E-03,5.79E-02
106200,2.88E-03,5.75E-02
106201,2.88E-03,5.71E-02
106202,2.88E-03,5.67E-02
106203,2.88E-03,5.62E-02
106204,2.88E-03,5.57E-02
106205,2.88E-03,5.52E-02
106206,2.87E-03,5.47E-02
106207,2.87E-03,5.42E-02
106208,2.87E-03,5.36E-02
106209,2.87E-03,5.31E-02
106210,2.87E-03,5.25E-02
106211,2.87E-03,5.19E-02
106212,2.87E-03,5.14E-02
106213,2.87E-03,5.08E-02
106214,2.87E-03,5.02E-02
106215,2.87E-03,4.96E-02
106216,2.87E-03,4.90E-02
106217,2.87E-03,4.84E-02
106218,2.87E-03,4.79E-02
106219,2.87E-03,4.73E-02
106220,2.87E-03,4.67E-02
106221,2.87E-03,4.61E-02
106222,2.87E-03,4.55E-02
106223,2.87E-03,4.49E-02
106224,2.87E-03,4.43E-02
106225,2.87E-03,4.37E-02
106226,2.86E-03,4.32E-02
106227,2.86E-03,4.26E-02
106228,2.86E-03,4.20E-02
106229,2.86E-03,4.14E-02
106230,2.86E-03,4.08E-02
106231,2.86E-03,4.03E-02
106232,2.86E-03,3.97E-02
106233,2.86E-03,3.91E-02
106234,2.86E-03,3.86E-02
106235,2.86E-03,3.80E-02
106236,2.86E-03,3.74E-02
106237,2.86E-03,3.69E-02
106238,2.86E-03,3.63E-02
106239,2.86E-03,3.58E-02
106240,2.86E-03,3.52E-02
106241,2.86E-03,3.47E-02
106242,2.86E-03,3.41E-02
106243,2.86E-03,3.36E-02
106244,2.86E-03,3.30E-02
106245,2.86E-03,3.25E-02
106246,2.85E-03,3.19E-02
106247,2.85E-03,3.14E-02
106248,2.85E-03,3.08E-02
106249,2.85E-03,3.03E-02
106250,2.85E-03,2.97E-02
106251,2.85E-03,2.92E-02
106252,2.85E-03,2.86E-02
106253,2.85E-03,2.81E-02
106254,2.85E-03,2.76E-02
106255,2.85E-03,2.70E-02
106256,2.85E-03,2.65E-02
106257,2.85E-03,2.59E-02
106258,2.85E-03,2.54E-02
106259,2.89E-03,6.01E-02
106260,2.89E-03,5.99E-02
106261,2.89E-03,5.97E-02
106262,2.89E-03,5.95E-02
106263,2.89E-03,5.93E-02
106264,2.89E-03,5.90E-02
106265,2.89E-03,5.87E-02
106266,2.89E-03,5.84E-02
106267,2.89E-03,5.81E-02
106268,2.89E-03,5.77E-02
106269,2.89E-03,5.73E-02
106270,2.89E-03,5.69E-02
106271,2.89E-03,5.64E-02
106272,2.89E-03,5.60E-02
106273,2.88E-03,5.55E-02
106274,2.88E-03,5.50E-02
106275,2.88E-03,5.45E-02
106276,2.88E-03,5.39E-02
106277,2.88E-03,5.34E-02
106278,2.88E-03,5.29E-02
106279,2.88E-03,5.23E-02
106280,2.88E-03,5.17E-02
106281,2.88E-03,5.12E-02
106282,2.88E-03,5.06E-02
106283,2.88E-03,5.00E-02
106284,2.88E-03,4.94E-02
106285,2.88E-03,4.89E-02
106286,2.88E-03,4.83E-02
106287,2.88E-03,4.77E-02
106288,2.88E-03,4.71E-02
106289,2.88E-03,4.65E-02
106290,2.88E-03,4.59E-02
106291,2.88E-03,4.54E-02
106292,2.87E-03,4.48E-02
106293,2.87E-03,4.42E-02
106294,2.87E-03,4.36E-02
106295,2.87E-03,4.30E-02
106296,2.87E-03,4.25E-02
106297,2.87E-03,4.19E-02
106298,2.87E-03,4.13E-02
106299,2.87E-03,4.07E-02
106300,2.87E-03,4.02E-02
106301,2.87E-03,3.96E-02
106302,2.87E-03,3.90E-02
106303,2.87E-03,3.85E-02
106304,2.87E-03,3.79E-02
106305,2.87E-03,3.73E-02
106306,2.87E-03,3.68E-02
106307,2.87E-03,3.62E-02
106308,2.87E-03,3.57E-02
106309,2.87E-03,3.51E-02
106310,2.87E-03,3.46E-02
106311,2.87E-03,3.40E-02
106312,2.86E-03,3.35E-02
106313,2.86E-03,3.29E-02
106314,2.86E-03,3.24E-02
106315,2.86E-03,3.18E-02
106316,2.86E-03,3.13E-02
106317,2.86E-03,3.07E-02
106318,2.86E-03,3.02E-02
106319,2.86E-03,2.97E-02
106320,2.86E-03,2.91E-02
106321,2.86E-03,2.86E-02
106322,2.86E-03,2.80E-02
106323,2.86E-03,2.75E-02
106324,2.86E-03,2.70E-02
106325,2.86E-03,2.64E-02
106326,2.86E-03,2.59E-02
106327,2.86E-03,2.53E-02
106328,2.90E-03,6.03E-02
106329,2.90E-03,6.00E-02
106330,2.90E-03,5.98E-02
106331,2.90E-03,5.95E-02
106332,2.90E-03,5.92E-02
106333,2.90E-03,5.89E-02
106334,2.90E-03,5.86E-02
106335,2.90E-03,5.83E-02
106336,2.90E-03,5.79E-02
106337,2.90E-03,5.75E-02
106338,2.90E-03,5.71E-02
106339,2.89E-03,5.67E-02
106340,2.89E-03,5.62E-02
106341,2.89E-03,5.58E-02
106342,2.89E-03,5.53E-02
106343,2.89E-03,5.48E-02
106344,2.89E-03,5.43E-02
106345,2.89E-03,5.37E-02
106346,2.89E-03,5.32E-02
106347,2.89E-03,5.27E-02
106348,2.89E-03,5.21E-02
106349,2.89E-03,5.15E-02
106350,2.89E-03,5.10E-02
106351,2.89E-03,5.04E-02
106352,2.89E-03,4.98E-02
106353,2.89E-03,4.93E-02
106354,2.89E-03,4.87E-02
106355,2.89E-03,4.81E-02
106356,2.89E-03,4.75E-02
106357,2.89E-03,4.69E-02
106358,2.88E-03,4.64E-02
106359,2.88E-03,4.58E-02
106360,2.88E-03,4.52E-02
106361,2.88E-03,4.46E-02
106362,2.88E-03,4.41E-02
106363,2.88E-03,4.35E-02
106364,2.88E-03,4.29E-02
106365,2.88E-03,4.23E-02
106366,2.88E-03,4.18E-02
106367,2.88E-03,4.12E-02
106368,2.88E-03,4.06E-02
106369,2.88E-03,4.01E-02
106370,2.88E-03,3.95E-02
106371,2.88E-03,3.89E-02
106372,2.88E-03,3.84E-02
106373,2.88E-03,3.78E-02
106374,2.88E-03,3.72E-02
106375,2.88E-03,3.67E-02
106376,2.88E-03,3.61E-02
106377,2.87E-03,3.56E-02
106378,2.87E-03,3.50E-02
106379,2.87E-03,3.45E-02
106380,2.87E-03,3.39E-02
106381,2.87E-03,3.34E-02
106382,2.87E-03,3.28E-02
106383,2.87E-03,3.23E-02
106384,2.87E-03,3.18E-02
106385,2.87E-03,3.12E-02
106386,2.87E-03,3.07E-02
106387,2.87E-03,3.01E-02
106388,2.87E-03,2.96E-02
106389,2.87E-03,2.90E-02
106390,2.87E-03,2.85E-02
106391,2.87E-03,2.80E-02
106392,2.87E-03,2.74E-02
106393,2.87E-03,2.69E-02
106394,2.87E-03,2.64E-02
106395,2.87E-03,2.58E-02
106396,2.87E-03,2.53E-02
106397,2.91E-03,6.05E-02
106398,2.91E-03,6.02E-02
106399,2.91E-03,5.99E-02
106400,2.91E-03,5.96E-02
106401,2.91E-03,5.93E-02
106402,2.91E-03,5.89E-02
106403,2.91E-03,5.85E-02
106404,2.91E-03,5.82E-02
106405,2.90E-03,5.78E-02
106406,2.90E-03,5.74E-02
106407,2.90E-03,5.69E-02
106408,2.90E-03,5.65E-02
106409,2.90E-03,5.60E-02
106410,2.90E-03,5.55E-02
106411,2.90E-03,5.51E-02
106412,2.90E-03,5.46E-02
106413,2.90E-03,5.40E-02
106414,2.90E-03,5.35E-02
106415,2.90E-03,5.30E-02
106416,2.90E-03,5.24E-02
106417,2.90E-03,5.19E-02
106418,2.90E-03,5.13E-02
106419,2.90E-03,5.08E-02
106420,2.90E-03,5.02E-02
106421,2.90E-03,4.96E-02
106422,2.90E-03,4.91E-02
106423,2.90E-03,4.85E-02
106424,2.89E-03,4.79E-02
106425,2.89E-03,4.73E-02
106426,2.89E-03,4.68E-02
106427,2.89E-03,4.62E-02
106428,2.89E-03,4.56E-02
106429,2.89E-03,4.50E-02
106430,2.89E-03,4.45E-02
106431,2.89E-03,4.39E-02
106432,2.89E-03,4.33E-02
106433,2.89E-03,4.28E-02
106434,2.89E-03,4.22E-02
106435,2.89E-03,4.16E-02
106436,2.89E-03,4.10E-02
106437,2.89E-03,4.05E-02
106438,2.89E-03,3.99E-02
106439,2.89E-03,3.94E-02
106440,2.89E-03,3.88E-02
106441,2.89E-03,3.82E-02
106442,2.89E-03,3.77E-02
106443,2.88E-03,3.71E-02
106444,2.88E-03,3.66E-02
106445,2.88E-03,3.60E-02
106446,2.88E-03,3.55E-02
106447,2.88E-03,3.49E-02
106448,2.88E-03,3.44E-02
106449,2.88E-03,3.38E-02
106450,2.88E-03,3.33E-02
106451,2.88E-03,3.28E-02
106452,2.88E-03,3.22E-02
106453,2.88E-03,3.17E-02
106454,2.88E-03,3.11E-02
106455,2.88E-03,3.06E-02
106456,2.88E-03,3.00E-02
106457,2.88E-03,2.95E-02
106458,2.88E-03,2.90E-02
106459,2.88E-03,2.84E-02
106460,2.88E-03,2.79E-02
106461,2.87E-03,2.74E-02
106462,2.87E-03,2.68E-02
106463,2.87E-03,2.63E-02
106464,2.87E-03,2.58E-02
106465,2.87E-03,2.52E-02
106466,2.92E-03,6.07E-02
106467,2.92E-03,6.04E-02
106468,2.92E-03,6.00E-02
106469,2.92E-03,5.97E-02
106470,2.92E-03,5.93E-02
106471,2.91E-03,5.89E-02
106472,2.91E-03,5.85E-02
106473,2.91E-03,5.81E-02
106474,2.91E-03,5.77E-02
106475,2.91E-03,5.72E-02
106476,2.91E-03,5.68E-02
106477,2.91E-03,5.63E-02
106478,2.91E-03,5.58E-02
106479,2.91E-03,5.53E-02
106480,2.91E-03,5.48E-02
106481,2.91E-03,5.43E-02
106482,2.91E-03,5.38E-02
106483,2.91E-03,5.33E-02
106484,2.91E-03,5.28E-02
106485,2.91E-03,5.22E-02
106486,2.91E-03,5.17E-02
106487,2.91E-03,5.11E-02
106488,2.91E-03,5.05E-02
106489,2.90E-03,5.00E-02
106490,2.90E-03,4.94E-02
106491,2.90E-03,4.89E-02
106492,2.90E-03,4.83E-02
106493,2.90E-03,4.77E-02
106494,2.90E-03,4.71E-02
106495,2.90E-03,4.66E-02
106496,2.90E-03,4.60E-02
106497,2.90E-03,4.54E-02
106498,2.90E-03,4.49E-02
106499,2.90E-03,4.43E-02
106500,2.90E-03,4.37E-02
106501,2.90E-03,4.32E-02
106502,2.90E-03,4.26E-02
106503,2.90E-03,4.20E-02
106504,2.90E-03,4.15E-02
106505,2.90E-03,4.09E-02
106506,2.90E-03,4.03E-02
106507,2.89E-03,3.98E-02
106508,2.89E-03,3.92E-02
106509,2.89E-03,3.87E-02
106510,2.89E-03,3.81E-02
106511,2.89E-03,3.76E-02
106512,2.89E-03,3.70E-02
106513,2.89E-03,3.65E-02
106514,2.89E-03,3.59E-02
106515,2.89E-03,3.54E-02
106516,2.89E-03,3.48E-02
106517,2.89E-03,3.43E-02
106518,2.89E-03,3.37E-02
106519,2.89E-03,3.32E-02
106520,2.89E-03,3.27E-02
106521,2.89E-03,3.21E-02
106522,2.89E-03,3.16E-02
106523,2.89E-03,3.10E-02
106524,2.89E-03,3.05E-02
106525,2.89E-03,3.00E-02
106526,2.88E-03,2.94E-02
106527,2.88E-03,2.89E-02
106528,2.88E-03,2.84E-02
106529,2.88E-03,2.78E-02
106530,2.88E-03,2.73E-02
106531,2.88E-03,2.68E-02
106532,2.88E-03,2.62E-02
106533,2.88E-03,2.57E-02
106534,2.88E-03,2.52E-02
106535,2.92E-03,6.10E-02
106536,2.92E-03,6.06E-02
106537,2.92E-03,6.02E-02
106538,2.92E-03,5.98E-02
106539,2.92E-03,5.94E-02
106540,2.92E-03,5.89E-02
106541,2.92E-03,5.85E-02
106542,2.92E-03,5.81E-02
106543,2.92E-03,5.76E-02
106544,2.92E-03,5.71E-02
106545,2.92E-03,5.66E-02
106546,2.92E-03,5.62E-02
106547,2.92E-03,5.57E-02
106548,2.92E-03,5.52E-02
106549,2.92E-03,5.46E-02
106550,2.92E-03,5.41E-02
106551,2.92E-03,5.36E-02
106552,2.92E-03,5.31E-02
106553,2.92E-03,5.25E-02
106554,2.91E-03,5.20E-02
106555,2.91E-03,5.14E-02
106556,2.91E-03,5.09E-02
106557,2.91E-03,5.03E-02
106558,2.91E-03,4.98E-02
106559,2.91E-03,4.92E-02
106560,2.91E-03,4.86E-02
106561,2.91E-03,4.81E-02
106562,2.91E-03,4.75E-02
106563,2.91E-03,4.69E-02
106564,2.91E-03,4.64E-02
106565,2.91E-03,4.58E-02
106566,2.91E-03,4.52E-02
106567,2.91E-03,4.47E-02
106568,2.91E-03,4.41E-02
106569,2.91E-03,4.35E-02
106570,2.91E-03,4.30E-02
106571,2.91E-03,4.24E-02
106572,2.90E-03,4.19E-02
106573,2.90E-03,4.13E-02
106574,2.90E-03,4.07E-02
106575,2.90E-03,4.02E-02
106576,2.90E-03,3.96E-02
106577,2.90E-03,3.91E-02
106578,2.90E-03,3.85E-02
106579,2.90E-03,3.80E-02
106580,2.90E-03,3.74E-02
106581,2.90E-03,3.69E-02
106582,2.90E-03,3.63E-02
106583,2.90E-03,3.58E-02
106584,2.90E-03,3.53E-02
106585,2.90E-03,3.47E-02
106586,2.90E-03,3.42E-02
106587,2.90E-03,3.36E-02
106588,2.90E-03,3.31E-02
106589,2.90E-03,3.26E-02
106590,2.89E-03,3.20E-02
106591,2.89E-03,3.15E-02
106592,2.89E-03,3.10E-02
106593,2.89E-03,3.04E-02
106594,2.89E-03,2.99E-02
106595,2.89E-03,2.94E-02
106596,2.89E-03,2.88E-02
106597,2.89E-03,2.83E-02
106598,2.89E-03,2.78E-02
106599,2.89E-03,2.72E-02
106600,2.89E-03,2.67E-02
106601,2.89E-03,2.62E-02
106602,2.89E-03,2.56E-02
106603,2.89E-03,2.51E-02
106604,2.93E-03,6.13E-02
106605,2.93E-03,6.09E-02
106606,2.93E-03,6.04E-02
106607,2.93E-03,5.99E-02
106608,2.93E-03,5.95E-02
106609,2.93E-03,5.90E-02
106610,2.93E-03,5.85E-02
106611,2.93E-03,5.80E-02
106612,2.93E-03,5.75E-02
106613,2.93E-03,5.70E-02
106614,2.93E-03,5.65E-02
106615,2.93E-03,5.60E-02
106616,2.93E-03,5.55E-02
106617,2.93E-03,5.50E-02
106618,2.92E-03,5.44E-02
106619,2.92E-03,5.39E-02
106620,2.92E-03,5.34E-02
106621,2.92E-03,5.28E-02
106622,2.92E-03,5.23E-02
106623,2.92E-03,5.17E-02
106624,2.92E-03,5.12E-02
106625,2.92E-03,5.06E-02
106626,2.92E-03,5.01E-02
106627,2.92E-03,4.95E-02
106628,2.92E-03,4.90E-02
106629,2.92E-03,4.84E-02
106630,2.92E-03,4.78E-02
106631,2.92E-03,4.73E-02
106632,2.92E-03,4.67E-02
106633,2.92E-03,4.61E-02
106634,2.92E-03,4.56E-02
106635,2.92E-03,4.50E-02
106636,2.91E-03,4.45E-02
106637,2.91E-03,4.39E-02
106638,2.91E-03,4.33E-02
106639,2.91E-03,4.28E-02
106640,2.91E-03,4.22E-02
106641,2.91E-03,4.17E-02
106642,2.91E-03,4.11E-02
106643,2.91E-03,4.06E-02
106644,2.91E-03,4.00E-02
106645,2.91E-03,3.95E-02
106646,2.91E-03,3.89E-02
106647,2.91E-03,3.84E-02
106648,2.91E-03,3.78E-02
106649,2.91E-03,3.73E-02
106650,2.91E-03,3.67E-02
106651,2.91E-03,3.62E-02
106652,2.91E-03,3.57E-02
106653,2.91E-03,3.51E-02
106654,2.90E-03,3.46E-02
106655,2.90E-03,3.41E-02
106656,2.90E-03,3.35E-02
106657,2.90E-03,3.30E-02
106658,2.90E-03,3.25E-02
106659,2.90E-03,3.19E-02
106660,2.90E-03,3.14E-02
106661,2.90E-03,3.09E-02
106662,2.90E-03,3.03E-02
106663,2.90E-03,2.98E-02
106664,2.90E-03,2.93E-02
106665,2.90E-03,2.87E-02
106666,2.90E-03,2.82E-02
106667,2.90E-03,2.77E-02
106668,2.90E-03,2.72E-02
106669,2.90E-03,2.66E-02
106670,2.90E-03,2.61E-02
106671,2.90E-03,2.56E-02
106672,2.89E-03,2.50E-02
106673,2.94E-03,6.17E-02
106674,2.94E-03,6.11E-02
106675,2.94E-03,6.06E-02
106676,2.94E-03,6.01E-02
106677,2.94E-03,5.96E-02
106678,2.94E-03,5.90E-02
106679,2.94E-03,5.85E-02
106680,2.94E-03,5.80E-02
106681,2.94E-03,5.75E-02
106682,2.93E-03,5.69E-02
106683,2.93E-03,5.64E-02
106684,2.93E-03,5.59E-02
106685,2.93E-03,5.53E-02
106686,2.93E-03,5.48E-02
106687,2.93E-03,5.43E-02
106688,2.93E-03,5.37E-02
106689,2.93E-03,5.32E-02
106690,2.93E-03,5.26E-02
106691,2.93E-03,5.21E-02
106692,2.93E-03,5.15E-02
106693,2.93E-03,5.09E-02
106694,2.93E-03,5.04E-02
106695,2.93E-03,4.98E-02
106696,2.93E-03,4.93E-02
106697,2.93E-03,4.87E-02
106698,2.93E-03,4.82E-02
106699,2.93E-03,4.76E-02
106700,2.92E-03,4.70E-02
106701,2.92E-03,4.65E-02
106702,2.92E-03,4.59E-02
106703,2.92E-03,4.54E-02
106704,2.92E-03,4.48E-02
106705,2.92E-03,4.43E-02
106706,2.92E-03,4.37E-02
106707,2.92E-03,4.31E-02
106708,2.92E-03,4.26E-02
106709,2.92E-03,4.20E-02
106710,2.92E-03,4.15E-02
106711,2.92E-03,4.09E-02
106712,2.92E-03,4.04E-02
106713,2.92E-03,3.99E-02
106714,2.92E-03,3.93E-02
106715,2.92E-03,3.88E-02
106716,2.92E-03,3.82E-02
106717,2.92E-03,3.77E-02
106718,2.91E-03,3.71E-02
106719,2.91E-03,3.66E-02
106720,2.91E-03,3.61E-02
106721,2.91E-03,3.55E-02
106722,2.91E-03,3.50E-02
106723,2.91E-03,3.45E-02
106724,2.91E-03,3.39E-02
106725,2.91E-03,3.34E-02
106726,2.91E-03,3.29E-02
106727,2.91E-03,3.23E-02
106728,2.91E-03,3.18E-02
106729,2.91E-03,3.13E-02
106730,2.91E-03,3.08E-02
106731,2.91E-03,3.02E-02
106732,2.91E-03,2.97E-02
106733,2.91E-03,2.92E-02
106734,2.91E-03,2.87E-02
106735,2.91E-03,2.81E-02
106736,2.90E-03,2.76E-02
106737,2.90E-03,2.71E-02
106738,2.90E-03,2.66E-02
106739,2.90E-03,2.60E-02
106740,2.90E-03,2.55E-02
106741,2.90E-03,2.50E-02
106742,2.95E-03,6.20E-02
106743,2.95E-03,6.14E-02
106744,2.95E-03,6.08E-02
106745,2.95E-03,6.02E-02
106746,2.94E-03,5.97E-02
106747,2.94E-03,5.91E-02
106748,2.94E-03,5.85E-02
106749,2.94E-03,5.80E-02
106750,2.94E-03,5.74E-02
106751,2.94E-03,5.68E-02
106752,2.94E-03,5.63E-02
106753,2.94E-03,5.57E-02
106754,2.94E-03,5.52E-02
106755,2.94E-03,5.46E-02
106756,2.94E-03,5.41E-02
106757,2.94E-03,5.35E-02
106758,2.94E-03,5.29E-02
106759,2.94E-03,5.24E-02
106760,2.94E-03,5.18E-02
106761,2.94E-03,5.13E-02
106762,2.94E-03,5.07E-02
106763,2.94E-03,5.01E-02
106764,2.93E-03,4.96E-02
106765,2.93E-03,4.90E-02
106766,2.93E-03,4.85E-02
106767,2.93E-03,4.79E-02
106768,2.93E-03,4.74E-02
106769,2.93E-03,4.68E-02
106770,2.93E-03,4.62E-02
106771,2.93E-03,4.57E-02
106772,2.93E-03,4.51E-02
106773,2.93E-03,4.46E-02
106774,2.93E-03,4.40E-02
106775,2.93E-03,4.35E-02
106776,2.93E-03,4.29E-02
106777,2.93E-03,4.24E-02
106778,2.93E-03,4.18E-02
106779,2.93E-03,4.13E-02
106780,2.93E-03,4.08E-02
106781,2.93E-03,4.02E-02
106782,2.92E-03,3.97E-02
106783,2.92E-03,3.91E-02
106784,2.92E-03,3.86E-02
106785,2.92E-03,3.81E-02
106786,2.92E-03,3.75E-02
106787,2.92E-03,3.70E-02
106788,2.92E-03,3.65E-02
106789,2.92E-03,3.59E-02
106790,2.92E-03,3.54E-02
106791,2.92E-03,3.49E-02
106792,2.92E-03,3.43E-02
106793,2.92E-03,3.38E-02
106794,2.92E-03,3.33E-02
106795,2.92E-03,3.28E-02
106796,2.92E-03,3.22E-02
106797,2.92E-03,3.17E-02
106798,2.92E-03,3.12E-02
106799,2.92E-03,3.07E-02
106800,2.91E-03,3.01E-02
106801,2.91E-03,2.96E-02
106802,2.91E-03,2.91E-02
106803,2.91E-03,2.86E-02
106804,2.91E-03,2.81E-02
106805,2.91E-03,2.75E-02
106806,2.91E-03,2.70E-02
106807,2.91E-03,2.65E-02
106808,2.91E-03,2.60E-02
106809,2.91E-03,2.54E-02
106810,2.91E-03,2.49E-02
106811,2.95E-03,6.23E-02
106812,2.95E-03,6.17E-02
106813,2.95E-03,6.10E-02
106814,2.95E-03,6.04E-02
106815,2.95E-03,5.98E-02
106816,2.95E-03,5.92E-02
106817,2.95E-03,5.86E-02
106818,2.95E-03,5.80E-02
106819,2.95E-03,5.74E-02
106820,2.95E-03,5.68E-02
106821,2.95E-03,5.62E-02
106822,2.95E-03,5.56E-02
106823,2.95E-03,5.50E-02
106824,2.95E-03,5.44E-02
106825,2.95E-03,5.39E-02
106826,2.95E-03,5.33E-02
106827,2.94E-03,5.27E-02
106828,2.94E-03,5.22E-02
106829,2.94E-03,5.16E-02
106830,2.94E-03,5.10E-02
106831,2.94E-03,5.05E-02
106832,2.94E-03,4.99E-02
106833,2.94E-03,4.93E-02
106834,2.94E-03,4.88E-02
106835,2.94E-03,4.82E-02
106836,2.94E-03,4.77E-02
106837,2.94E-03,4.71E-02
106838,2.94E-03,4.65E-02
106839,2.94E-03,4.60E-02
106840,2.94E-03,4.54E-02
106841,2.94E-03,4.49E-02
106842,2.94E-03,4.43E-02
106843,2.94E-03,4.38E-02
106844,2.94E-03,4.33E-02
106845,2.94E-03,4.27E-02
106846,2.93E-03,4.22E-02
106847,2.93E-03,4.16E-02
106848,2.93E-03,4.11E-02
106849,2.93E-03,4.06E-02
106850,2.93E-03,4.00E-02
106851,2.93E-03,3.95E-02
106852,2.93E-03,3.90E-02
106853,2.93E-03,3.84E-02
106854,2.93E-03,3.79E-02
106855,2.93E-03,3.74E-02
106856,2.93E-03,3.68E-02
106857,2.93E-03,3.63E-02
106858,2.93E-03,3.58E-02
106859,2.93E-03,3.53E-02
106860,2.93E-03,3.47E-02
106861,2.93E-03,3.42E-02
106862,2.93E-03,3.37E-02
106863,2.93E-03,3.32E-02
106864,2.92E-03,3.27E-02
106865,2.92E-03,3.21E-02
106866,2.92E-03,3.16E-02
106867,2.92E-03,3.11E-02
106868,2.92E-03,3.06E-02
106869,2.92E-03,3.01E-02
106870,2.92E-03,2.95E-02
106871,2.92E-03,2.90E-02
106872,2.92E-03,2.85E-02
106873,2.92E-03,2.80E-02
106874,2.92E-03,2.75E-02
106875,2.92E-03,2.69E-02
106876,2.92E-03,2.64E-02
106877,2.92E-03,2.59E-02
106878,2.92E-03,2.54E-02
106879,2.92E-03,2.49E-02
106880,2.96E-03,6.26E-02
106881,2.96E-03,6.19E-02
106882,2.96E-03,6.12E-02
106883,2.96E-03,6.05E-02
106884,2.96E-03,5.99E-02
106885,2.96E-03,5.92E-02
106886,2.96E-03,5.86E-02
106887,2.96E-03,5.79E-02
106888,2.96E-03,5.73E-02
106889,2.96E-03,5.67E-02
106890,2.96E-03,5.61E-02
106891,2.95E-03,5.55E-02
106892,2.95E-03,5.49E-02
106893,2.95E-03,5.43E-02
106894,2.95E-03,5.37E-02
106895,2.95E-03,5.31E-02
106896,2.95E-03,5.25E-02
106897,2.95E-03,5.19E-02
106898,2.95E-03,5.13E-02
106899,2.95E-03,5.08E-02
106900,2.95E-03,5.02E-02
106901,2.95E-03,4.96E-02
106902,2.95E-03,4.91E-02
106903,2.95E-03,4.85E-02
106904,2.95E-03,4.80E-02
106905,2.95E-03,4.74E-02
106906,2.95E-03,4.68E-02
106907,2.95E-03,4.63E-02
106908,2.95E-03,4.57E-02
106909,2.95E-03,4.52E-02
106910,2.94E-03,4.47E-02
106911,2.94E-03,4.41E-02
106912,2.94E-03,4.36E-02
106913,2.94E-03,4.30E-02
106914,2.94E-03,4.25E-02
106915,2.94E-03,4.20E-02
106916,2.94E-03,4.14E-02
106917,2.94E-03,4.09E-02
106918,2.94E-03,4.04E-02
106919,2.94E-03,3.98E-02
106920,2.94E-03,3.93E-02
106921,2.94E-03,3.88E-02
106922,2.94E-03,3.83E-02
106923,2.94E-03,3.77E-02
106924,2.94E-03,3.72E-02
106925,2.94E-03,3.67E-02
106926,2.94E-03,3.62E-02
106927,2.94E-03,3.56E-02
106928,2.93E-03,3.51E-02
106929,2.93E-03,3.46E-02
106930,2.93E-03,3.41E-02
106931,2.93E-03,3.36E-02
106932,2.93E-03,3.31E-02
106933,2.93E-03,3.25E-02
106934,2.93E-03,3.20E-02
106935,2.93E-03,3.15E-02
106936,2.93E-03,3.10E-02
106937,2.93E-03,3.05E-02
106938,2.93E-03,3.00E-02
106939,2.93E-03,2.94E-02
106940,2.93E-03,2.89E-02
106941,2.93E-03,2.84E-02
106942,2.93E-03,2.79E-02
106943,2.93E-03,2.74E-02
106944,2.93E-03,2.69E-02
106945,2.93E-03,2.64E-02
106946,2.93E-03,2.58E-02
106947,2.92E-03,2.53E-02
106948,2.92E-03,2.48E-02
106949,2.97E-03,6.29E-02
106950,2.97E-03,6.21E-02
106951,2.97E-03,6.14E-02
106952,2.97E-03,6.07E-02
106953,2.97E-03,6.00E-02
106954,2.96E-03,5.93E-02
106955,2.96E-03,5.86E-02
106956,2.96E-03,5.79E-02
106957,2.96E-03,5.72E-02
106958,2.96E-03,5.66E-02
106959,2.96E-03,5.60E-02
106960,2.96E-03,5.53E-02
106961,2.96E-03,5.47E-02
106962,2.96E-03,5.41E-02
106963,2.96E-03,5.35E-02
106964,2.96E-03,5.29E-02
106965,2.96E-03,5.23E-02
106966,2.96E-03,5.17E-02
106967,2.96E-03,5.11E-02
106968,2.96E-03,5.05E-02
106969,2.96E-03,4.99E-02
106970,2.96E-03,4.94E-02
106971,2.96E-03,4.88E-02
106972,2.96E-03,4.83E-02
106973,2.95E-03,4.77E-02
106974,2.95E-03,4.71E-02
106975,2.95E-03,4.66E-02
106976,2.95E-03,4.60E-02
106977,2.95E-03,4.55E-02
106978,2.95E-03,4.50E-02
106979,2.95E-03,4.44E-02
106980,2.95E-03,4.39E-02
106981,2.95E-03,4.33E-02
106982,2.95E-03,4.28E-02
106983,2.95E-03,4.23E-02
106984,2.95E-03,4.17E-02
106985,2.95E-03,4.12E-02
106986,2.95E-03,4.07E-02
106987,2.95E-03,4.02E-02
106988,2.95E-03,3.96E-02
106989,2.95E-03,3.91E-02
106990,2.95E-03,3.86E-02
106991,2.95E-03,3.81E-02
106992,2.94E-03,3.76E-02
106993,2.94E-03,3.70E-02
106994,2.94E-03,3.65E-02
106995,2.94E-03,3.60E-02
106996,2.94E-03,3.55E-02
106997,2.94E-03,3.50E-02
106998,2.94E-03,3.45E-02
106999,2.94E-03,3.40E-02
107000,2.94E-03,3.34E-02
107001,2.94E-03,3.29E-02
107002,2.94E-03,3.24E-02
107003,2.94E-03,3.19E-02
107004,2.94E-03,3.14E-02
107005,2.94E-03,3.09E-02
107006,2.94E-03,3.04E-02
107007,2.94E-03,2.99E-02
107008,2.94E-03,2.94E-02
107009,2.94E-03,2.88E-02
107010,2.94E-03,2.83E-02
107011,2.93E-03,2.78E-02
107012,2.93E-03,2.73E-02
107013,2.93E-03,2.68E-02
107014,2.93E-03,2.63E-02
107015,2.93E-03,2.58E-02
107016,2.93E-03,2.53E-02
107017,2.93E-03,2.47E-02
107018,2.97E-03,6.31E-02
107019,2.97E-03,6.23E-02
107020,2.97E-03,6.16E-02
107021,2.97E-03,6.08E-02
107022,2.97E-03,6.01E-02
107023,2.97E-03,5.93E-02
107024,2.97E-03,5.86E-02
107025,2.97E-03,5.79E-02
107026,2.97E-03,5.72E-02
107027,2.97E-03,5.65E-02
107028,2.97E-03,5.58E-02
107029,2.97E-03,5.52E-02
107030,2.97E-03,5.45E-02
107031,2.97E-03,5.39E-02
107032,2.97E-03,5.33E-02
107033,2.97E-03,5.26E-02
107034,2.97E-03,5.20E-02
107035,2.97E-03,5.14E-02
107036,2.97E-03,5.09E-02
107037,2.96E-03,5.03E-02
107038,2.96E-03,4.97E-02
107039,2.96E-03,4.91E-02
107040,2.96E-03,4.86E-02
107041,2.96E-03,4.80E-02
107042,2.96E-03,4.74E-02
107043,2.96E-03,4.69E-02
107044,2.96E-03,4.63E-02
107045,2.96E-03,4.58E-02
107046,2.96E-03,4.52E-02
107047,2.96E-03,4.47E-02
107048,2.96E-03,4.42E-02
107049,2.96E-03,4.36E-02
107050,2.96E-03,4.31E-02
107051,2.96E-03,4.26E-02
107052,2.96E-03,4.21E-02
107053,2.96E-03,4.15E-02
107054,2.96E-03,4.10E-02
107055,2.96E-03,4.05E-02
107056,2.96E-03,4.00E-02
107057,2.95E-03,3.94E-02
107058,2.95E-03,3.89E-02
107059,2.95E-03,3.84E-02
107060,2.95E-03,3.79E-02
107061,2.95E-03,3.74E-02
107062,2.95E-03,3.69E-02
107063,2.95E-03,3.64E-02
107064,2.95E-03,3.59E-02
107065,2.95E-03,3.53E-02
107066,2.95E-03,3.48E-02
107067,2.95E-03,3.43E-02
107068,2.95E-03,3.38E-02
107069,2.95E-03,3.33E-02
107070,2.95E-03,3.28E-02
107071,2.95E-03,3.23E-02
107072,2.95E-03,3.18E-02
107073,2.95E-03,3.13E-02
107074,2.95E-03,3.08E-02
107075,2.95E-03,3.03E-02
107076,2.94E-03,2.98E-02
107077,2.94E-03,2.93E-02
107078,2.94E-03,2.88E-02
107079,2.94E-03,2.83E-02
107080,2.94E-03,2.78E-02
107081,2.94E-03,2.72E-02
107082,2.94E-03,2.67E-02
107083,2.94E-03,2.62E-02
107084,2.94E-03,2.57E-02
107085,2.94E-03,2.52E-02
107086,2.94E-03,2.47E-02
107087,2.98E-03,6.34E-02
107088,2.98E-03,6.26E-02
107089,2.98E-03,6.17E-02
107090,2.98E-03,6.09E-02
107091,2.98E-03,6.01E-02
107092,2.98E-03,5.93E-02
107093,2.98E-03,5.86E-02
107094,2.98E-03,5.78E-02
107095,2.98E-03,5.71E-02
107096,2.98E-03,5.64E-02
107097,2.98E-03,5.57E-02
107098,2.98E-03,5.50E-02
107099,2.98E-03,5.43E-02
107100,2.98E-03,5.37E-02
107101,2.97E-03,5.30E-02
107102,2.97E-03,5.24E-02
107103,2.97E-03,5.18E-02
107104,2.97E-03,5.12E-02
107105,2.97E-03,5.06E-02
107106,2.97E-03,5.00E-02
107107,2.97E-03,4.94E-02
107108,2.97E-03,4.89E-02
107109,2.97E-03,4.83E-02
107110,2.97E-03,4.77E-02
107111,2.97E-03,4.72E-02
107112,2.97E-03,4.66E-02
107113,2.97E-03,4.61E-02
107114,2.97E-03,4.55E-02
107115,2.97E-03,4.50E-02
107116,2.97E-03,4.45E-02
107117,2.97E-03,4.39E-02
107118,2.97E-03,4.34E-02
107119,2.97E-03,4.29E-02
107120,2.97E-03,4.24E-02
107121,2.96E-03,4.18E-02
107122,2.96E-03,4.13E-02
107123,2.96E-03,4.08E-02
107124,2.96E-03,4.03E-02
107125,2.96E-03,3.98E-02
107126,2.96E-03,3.93E-02
107127,2.96E-03,3.87E-02
107128,2.96E-03,3.82E-02
107129,2.96E-03,3.77E-02
107130,2.96E-03,3.72E-02
107131,2.96E-03,3.67E-02
107132,2.96E-03,3.62E-02
107133,2.96E-03,3.57E-02
107134,2.96E-03,3.52E-02
107135,2.96E-03,3.47E-02
107136,2.96E-03,3.42E-02
107137,2.96E-03,3.37E-02
107138,2.96E-03,3.32E-02
107139,2.96E-03,3.27E-02
107140,2.96E-03,3.22E-02
107141,2.95E-03,3.17E-02
107142,2.95E-03,3.12E-02
107143,2.95E-03,3.07E-02
107144,2.95E-03,3.02E-02
107145,2.95E-03,2.97E-02
107146,2.95E-03,2.92E-02
107147,2.95E-03,2.87E-02
107148,2.95E-03,2.82E-02
107149,2.95E-03,2.77E-02
107150,2.95E-03,2.72E-02
107151,2.95E-03,2.67E-02
107152,2.95E-03,2.62E-02
107153,2.95E-03,2.57E-02
107154,2.95E-03,2.52E-02
107155,2.95E-03,2.46E-02
107156,2.99E-03,6.37E-02
107157,2.99E-03,6.28E-02
107158,2.99E-03,6.19E-02
107159,2.99E-03,6.10E-02
107160,2.99E-03,6.02E-02
107161,2.99E-03,5.93E-02
107162,2.99E-03,5.85E-02
107163,2.99E-03,5.77E-02
107164,2.99E-03,5.70E-02
107165,2.98E-03,5.62E-02
107166,2.98E-03,5.55E-02
107167,2.98E-03,5.48E-02
107168,2.98E-03,5.41E-02
107169,2.98E-03,5.35E-02
107170,2.98E-03,5.28E-02
107171,2.98E-03,5.22E-02
107172,2.98E-03,5.16E-02
107173,2.98E-03,5.09E-02
107174,2.98E-03,5.03E-02
107175,2.98E-03,4.98E-02
107176,2.98E-03,4.92E-02
107177,2.98E-03,4.86E-02
107178,2.98E-03,4.80E-02
107179,2.98E-03,4.75E-02
107180,2.98E-03,4.69E-02
107181,2.98E-03,4.64E-02
107182,2.98E-03,4.58E-02
107183,2.98E-03,4.53E-02
107184,2.98E-03,4.47E-02
107185,2.97E-03,4.42E-02
107186,2.97E-03,4.37E-02
107187,2.97E-03,4.32E-02
107188,2.97E-03,4.26E-02
107189,2.97E-03,4.21E-02
107190,2.97E-03,4.16E-02
107191,2.97E-03,4.11E-02
107192,2.97E-03,4.06E-02
107193,2.97E-03,4.01E-02
107194,2.97E-03,3.96E-02
107195,2.97E-03,3.91E-02
107196,2.97E-03,3.86E-02
107197,2.97E-03,3.81E-02
107198,2.97E-03,3.76E-02
107199,2.97E-03,3.71E-02
107200,2.97E-03,3.66E-02
107201,2.97E-03,3.61E-02
107202,2.97E-03,3.56E-02
107203,2.97E-03,3.51E-02
107204,2.97E-03,3.46E-02
107205,2.97E-03,3.41E-02
107206,2.96E-03,3.36E-02
107207,2.96E-03,3.31E-02
107208,2.96E-03,3.26E-02
107209,2.96E-03,3.21E-02
107210,2.96E-03,3.16E-02
107211,2.96E-03,3.11E-02
107212,2.96E-03,3.06E-02
107213,2.96E-03,3.01E-02
107214,2.96E-03,2.96E-02
107215,2.96E-03,2.91E-02
107216,2.96E-03,2.86E-02
107217,2.96E-03,2.81E-02
107218,2.96E-03,2.76E-02
107219,2.96E-03,2.71E-02
107220,2.96E-03,2.66E-02
107221,2.96E-03,2.61E-02
107222,2.96E-03,2.56E-02
107223,2.96E-03,2.51E-02
107224,2.96E-03,2.46E-02
107225,3.00E-03,6.39E-02
107226,3.00E-03,6.30E-02
107227,3.00E-03,6.20E-02
107228,2.99E-03,6.11E-02
107229,2.99E-03,6.02E-02
107230,2.99E-03,5.93E-02
107231,2.99E-03,5.85E-02
107232,2.99E-03,5.76E-02
107233,2.99E-03,5.68E-02
107234,2.99E-03,5.61E-02
107235,2.99E-03,5.53E-02
107236,2.99E-03,5.46E-02
107237,2.99E-03,5.39E-02
107238,2.99E-03,5.32E-02
107239,2.99E-03,5.26E-02
107240,2.99E-03,5.19E-02
107241,2.99E-03,5.13E-02
107242,2.99E-03,5.07E-02
107243,2.99E-03,5.01E-02
107244,2.99E-03,4.95E-02
107245,2.99E-03,4.89E-02
107246,2.99E-03,4.83E-02
107247,2.99E-03,4.78E-02
107248,2.99E-03,4.72E-02
107249,2.99E-03,4.67E-02
107250,2.98E-03,4.61E-02
107251,2.98E-03,4.56E-02
107252,2.98E-03,4.50E-02
107253,2.98E-03,4.45E-02
107254,2.98E-03,4.40E-02
107255,2.98E-03,4.34E-02
107256,2.98E-03,4.29E-02
107257,2.98E-03,4.24E-02
107258,2.98E-03,4.19E-02
107259,2.98E-03,4.14E-02
107260,2.98E-03,4.09E-02
107261,2.98E-03,4.04E-02
107262,2.98E-03,3.99E-02
107263,2.98E-03,3.94E-02
107264,2.98E-03,3.89E-02
107265,2.98E-03,3.84E-02
107266,2.98E-03,3.79E-02
107267,2.98E-03,3.74E-02
107268,2.98E-03,3.69E-02
107269,2.98E-03,3.64E-02
107270,2.98E-03,3.59E-02
107271,2.97E-03,3.54E-02
107272,2.97E-03,3.49E-02
107273,2.97E-03,3.44E-02
107274,2.97E-03,3.39E-02
107275,2.97E-03,3.34E-02
107276,2.97E-03,3.30E-02
107277,2.97E-03,3.25E-02
107278,2.97E-03,3.20E-02
107279,2.97E-03,3.15E-02
107280,2.97E-03,3.10E-02
107281,2.97E-03,3.05E-02
107282,2.97E-03,3.00E-02
107283,2.97E-03,2.95E-02
107284,2.97E-03,2.90E-02
107285,2.97E-03,2.85E-02
107286,2.97E-03,2.80E-02
107287,2.97E-03,2.75E-02
107288,2.97E-03,2.70E-02
107289,2.97E-03,2.65E-02
107290,2.97E-03,2.60E-02
107291,2.97E-03,2.55E-02
107292,2.97E-03,2.50E-02
107293,2.96E-03,2.45E-02
107294,3.00E-03,6.42E-02
107295,3.00E-03,6.31E-02
107296,3.00E-03,6.21E-02
107297,3.00E-03,6.11E-02
107298,3.00E-03,6.02E-02
107299,3.00E-03,5.92E-02
107300,3.00E-03,5.84E-02
107301,3.00E-03,5.75E-02
107302,3.00E-03,5.67E-02
107303,3.00E-03,5.59E-02
107304,3.00E-03,5.51E-02
107305,3.00E-03,5.44E-02
107306,3.00E-03,5.37E-02
107307,3.00E-03,5.30E-02
107308,3.00E-03,5.23E-02
107309,3.00E-03,5.17E-02
107310,3.00E-03,5.11E-02
107311,3.00E-03,5.04E-02
107312,3.00E-03,4.98E-02
107313,3.00E-03,4.92E-02
107314,2.99E-03,4.86E-02
107315,2.99E-03,4.81E-02
107316,2.99E-03,4.75E-02
107317,2.99E-03,4.69E-02
107318,2.99E-03,4.64E-02
107319,2.99E-03,4.58E-02
107320,2.99E-03,4.53E-02
107321,2.99E-03,4.48E-02
107322,2.99E-03,4.42E-02
107323,2.99E-03,4.37E-02
107324,2.99E-03,4.32E-02
107325,2.99E-03,4.27E-02
107326,2.99E-03,4.22E-02
107327,2.99E-03,4.17E-02
107328,2.99E-03,4.12E-02
107329,2.99E-03,4.07E-02
107330,2.99E-03,4.02E-02
107331,2.99E-03,3.97E-02
107332,2.99E-03,3.92E-02
107333,2.99E-03,3.87E-02
107334,2.99E-03,3.82E-02
107335,2.99E-03,3.77E-02
107336,2.99E-03,3.72E-02
107337,2.98E-03,3.67E-02
107338,2.98E-03,3.62E-02
107339,2.98E-03,3.57E-02
107340,2.98E-03,3.53E-02
107341,2.98E-03,3.48E-02
107342,2.98E-03,3.43E-02
107343,2.98E-03,3.38E-02
107344,2.98E-03,3.33E-02
107345,2.98E-03,3.28E-02
107346,2.98E-03,3.23E-02
107347,2.98E-03,3.19E-02
107348,2.98E-03,3.14E-02
107349,2.98E-03,3.09E-02
107350,2.98E-03,3.04E-02
107351,2.98E-03,2.99E-02
107352,2.98E-03,2.94E-02
107353,2.98E-03,2.89E-02
107354,2.98E-03,2.85E-02
107355,2.98E-03,2.80E-02
107356,2.98E-03,2.75E-02
107357,2.98E-03,2.70E-02
107358,2.98E-03,2.65E-02
107359,2.97E-03,2.60E-02
107360,2.97E-03,2.55E-02
107361,2.97E-03,2.50E-02
107362,2.97E-03,2.45E-02
107363,3.01E-03,6.45E-02
107364,3.01E-03,6.33E-02
107365,3.01E-03,6.22E-02
107366,3.01E-03,6.11E-02
107367,3.01E-03,6.01E-02
107368,3.01E-03,5.91E-02
107369,3.01E-03,5.82E-02
107370,3.01E-03,5.73E-02
107371,3.01E-03,5.65E-02
107372,3.01E-03,5.57E-02
107373,3.01E-03,5.49E-02
107374,3.01E-03,5.42E-02
107375,3.01E-03,5.35E-02
107376,3.01E-03,5.28E-02
107377,3.01E-03,5.21E-02
107378,3.00E-03,5.14E-02
107379,3.00E-03,5.08E-02
107380,3.00E-03,5.02E-02
107381,3.00E-03,4.96E-02
107382,3.00E-03,4.90E-02
107383,3.00E-03,4.84E-02
107384,3.00E-03,4.78E-02
107385,3.00E-03,4.72E-02
107386,3.00E-03,4.67E-02
107387,3.00E-03,4.61E-02
107388,3.00E-03,4.56E-02
107389,3.00E-03,4.51E-02
107390,3.00E-03,4.45E-02
107391,3.00E-03,4.40E-02
107392,3.00E-03,4.35E-02
107393,3.00E-03,4.30E-02
107394,3.00E-03,4.25E-02
107395,3.00E-03,4.20E-02
107396,3.00E-03,4.15E-02
107397,3.00E-03,4.10E-02
107398,3.00E-03,4.05E-02
107399,3.00E-03,4.00E-02
107400,3.00E-03,3.95E-02
107401,3.00E-03,3.90E-02
107402,2.99E-03,3.85E-02
107403,2.99E-03,3.80E-02
107404,2.99E-03,3.75E-02
107405,2.99E-03,3.70E-02
107406,2.99E-03,3.66E-02
107407,2.99E-03,3.61E-02
107408,2.99E-03,3.56E-02
107409,2.99E-03,3.51E-02
107410,2.99E-03,3.46E-02
107411,2.99E-03,3.42E-02
107412,2.99E-03,3.37E-02
107413,2.99E-03,3.32E-02
107414,2.99E-03,3.27E-02
107415,2.99E-03,3.22E-02
107416,2.99E-03,3.18E-02
107417,2.99E-03,3.13E-02
107418,2.99E-03,3.08E-02
107419,2.99E-03,3.03E-02
107420,2.99E-03,2.98E-02
107421,2.99E-03,2.94E-02
107422,2.99E-03,2.89E-02
107423,2.99E-03,2.84E-02
107424,2.99E-03,2.79E-02
107425,2.99E-03,2.74E-02
107426,2.99E-03,2.69E-02
107427,2.98E-03,2.64E-02
107428,2.98E-03,2.59E-02
107429,2.98E-03,2.55E-02
107430,2.98E-03,2.50E-02
107431,2.98E-03,2.45E-02
107432,3.02E-03,6.47E-02
107433,3.02E-03,6.34E-02
107434,3.02E-03,6.22E-02
107435,3.02E-03,6.10E-02
107436,3.02E-03,6.00E-02
107437,3.02E-03,5.90E-02
107438,3.02E-03,5.80E-02
107439,3.02E-03,5.71E-02
107440,3.01E-03,5.63E-02
107441,3.01E-03,5.55E-02
107442,3.01E-03,5.47E-02
107443,3.01E-03,5.39E-02
107444,3.01E-03,5.32E-02
107445,3.01E-03,5.25E-02
107446,3.01E-03,5.18E-02
107447,3.01E-03,5.12E-02
107448,3.01E-03,5.05E-02
107449,3.01E-03,4.99E-02
107450,3.01E-03,4.93E-02
107451,3.01E-03,4.87E-02
107452,3.01E-03,4.81E-02
107453,3.01E-03,4.75E-02
107454,3.01E-03,4.70E-02
107455,3.01E-03,4.64E-02
107456,3.01E-03,4.59E-02
107457,3.01E-03,4.53E-02
107458,3.01E-03,4.48E-02
107459,3.01E-03,4.43E-02
107460,3.01E-03,4.38E-02
107461,3.01E-03,4.33E-02
107462,3.01E-03,4.28E-02
107463,3.01E-03,4.22E-02
107464,3.01E-03,4.17E-02
107465,3.01E-03,4.13E-02
107466,3.01E-03,4.08E-02
107467,3.00E-03,4.03E-02
107468,3.00E-03,3.98E-02
107469,3.00E-03,3.93E-02
107470,3.00E-03,3.88E-02
107471,3.00E-03,3.83E-02
107472,3.00E-03,3.78E-02
107473,3.00E-03,3.74E-02
107474,3.00E-03,3.69E-02
107475,3.00E-03,3.64E-02
107476,3.00E-03,3.59E-02
107477,3.00E-03,3.55E-02
107478,3.00E-03,3.50E-02
107479,3.00E-03,3.45E-02
107480,3.00E-03,3.40E-02
107481,3.00E-03,3.36E-02
107482,3.00E-03,3.31E-02
107483,3.00E-03,3.26E-02
107484,3.00E-03,3.21E-02
107485,3.00E-03,3.17E-02
107486,3.00E-03,3.12E-02
107487,3.00E-03,3.07E-02
107488,3.00E-03,3.02E-02
107489,3.00E-03,2.98E-02
107490,3.00E-03,2.93E-02
107491,3.00E-03,2.88E-02
107492,3.00E-03,2.83E-02
107493,3.00E-03,2.78E-02
107494,3.00E-03,2.74E-02
107495,2.99E-03,2.69E-02
107496,2.99E-03,2.64E-02
107497,2.99E-03,2.59E-02
107498,2.99E-03,2.54E-02
107499,2.99E-03,2.49E-02
107500,2.99E-03,2.44E-02
107501,3.02E-03,6.48E-02
107502,3.02E-03,6.34E-02
107503,3.02E-03,6.21E-02
107504,3.02E-03,6.09E-02
107505,3.02E-03,5.98E-02
107506,3.02E-03,5.88E-02
107507,3.02E-03,5.78E-02
107508,3.02E-03,5.69E-02
107509,3.02E-03,5.60E-02
107510,3.02E-03,5.52E-02
107511,3.02E-03,5.44E-02
107512,3.02E-03,5.37E-02
107513,3.02E-03,5.30E-02
107514,3.02E-03,5.22E-02
107515,3.02E-03,5.16E-02
107516,3.02E-03,5.09E-02
107517,3.02E-03,5.03E-02
107518,3.02E-03,4.96E-02
107519,3.02E-03,4.90E-02
107520,3.02E-03,4.84E-02
107521,3.02E-03,4.79E-02
107522,3.02E-03,4.73E-02
107523,3.02E-03,4.67E-02
107524,3.02E-03,4.62E-02
107525,3.02E-03,4.56E-02
107526,3.02E-03,4.51E-02
107527,3.02E-03,4.46E-02
107528,3.02E-03,4.41E-02
107529,3.02E-03,4.35E-02
107530,3.02E-03,4.30E-02
107531,3.02E-03,4.25E-02
107532,3.01E-03,4.20E-02
107533,3.01E-03,4.15E-02
107534,3.01E-03,4.11E-02
107535,3.01E-03,4.06E-02
107536,3.01E-03,4.01E-02
107537,3.01E-03,3.96E-02
107538,3.01E-03,3.91E-02
107539,3.01E-03,3.86E-02
107540,3.01E-03,3.82E-02
107541,3.01E-03,3.77E-02
107542,3.01E-03,3.72E-02
107543,3.01E-03,3.67E-02
107544,3.01E-03,3.63E-02
107545,3.01E-03,3.58E-02
107546,3.01E-03,3.53E-02
107547,3.01E-03,3.49E-02
107548,3.01E-03,3.44E-02
107549,3.01E-03,3.39E-02
107550,3.01E-03,3.34E-02
107551,3.01E-03,3.30E-02
107552,3.01E-03,3.25E-02
107553,3.01E-03,3.20E-02
107554,3.01E-03,3.16E-02
107555,3.01E-03,3.11E-02
107556,3.01E-03,3.06E-02
107557,3.01E-03,3.02E-02
107558,3.01E-03,2.97E-02
107559,3.01E-03,2.92E-02
107560,3.01E-03,2.87E-02
107561,3.01E-03,2.83E-02
107562,3.01E-03,2.78E-02
107563,3.01E-03,2.73E-02
107564,3.01E-03,2.68E-02
107565,3.00E-03,2.63E-02
107566,3.00E-03,2.59E-02
107567,3.00E-03,2.54E-02
107568,3.00E-03,2.49E-02
107569,3.00E-03,2.44E-02
107570,3.03E-03,6.45E-02
107571,3.03E-03,6.32E-02
107572,3.03E-03,6.19E-02
107573,3.03E-03,6.07E-02
107574,3.03E-03,5.96E-02
107575,3.03E-03,5.86E-02
107576,3.03E-03,5.76E-02
107577,3.03E-03,5.67E-02
107578,3.03E-03,5.58E-02
107579,3.03E-03,5.50E-02
107580,3.03E-03,5.42E-02
107581,3.03E-03,5.34E-02
107582,3.03E-03,5.27E-02
107583,3.03E-03,5.20E-02
107584,3.03E-03,5.13E-02
107585,3.03E-03,5.06E-02
107586,3.03E-03,5.00E-02
107587,3.03E-03,4.94E-02
107588,3.03E-03,4.88E-02
107589,3.03E-03,4.82E-02
107590,3.03E-03,4.76E-02
107591,3.03E-03,4.70E-02
107592,3.02E-03,4.65E-02
107593,3.02E-03,4.59E-02
107594,3.02E-03,4.54E-02
107595,3.02E-03,4.49E-02
107596,3.02E-03,4.44E-02
107597,3.02E-03,4.38E-02
107598,3.02E-03,4.33E-02
107599,3.02E-03,4.28E-02
107600,3.02E-03,4.23E-02
107601,3.02E-03,4.18E-02
107602,3.02E-03,4.13E-02
107603,3.02E-03,4.09E-02
107604,3.02E-03,4.04E-02
107605,3.02E-03,3.99E-02
107606,3.02E-03,3.94E-02
107607,3.02E-03,3.89E-02
107608,3.02E-03,3.85E-02
107609,3.02E-03,3.80E-02
107610,3.02E-03,3.75E-02
107611,3.02E-03,3.71E-02
107612,3.02E-03,3.66E-02
107613,3.02E-03,3.61E-02
107614,3.02E-03,3.57E-02
107615,3.02E-03,3.52E-02
107616,3.02E-03,3.47E-02
107617,3.02E-03,3.43E-02
107618,3.02E-03,3.38E-02
107619,3.02E-03,3.33E-02
107620,3.02E-03,3.29E-02
107621,3.02E-03,3.24E-02
107622,3.02E-03,3.19E-02
107623,3.02E-03,3.15E-02
107624,3.02E-03,3.10E-02
107625,3.02E-03,3.05E-02
107626,3.02E-03,3.01E-02
107627,3.02E-03,2.96E-02
107628,3.02E-03,2.91E-02
107629,3.02E-03,2.87E-02
107630,3.02E-03,2.82E-02
107631,3.02E-03,2.77E-02
107632,3.02E-03,2.72E-02
107633,3.02E-03,2.68E-02
107634,3.02E-03,2.63E-02
107635,3.02E-03,2.58E-02
107636,3.02E-03,2.53E-02
107637,3.02E-03,2.48E-02
107638,3.02E-03,2.44E-02
107639,3.04E-03,6.40E-02
107640,3.04E-03,6.27E-02
107641,3.04E-03,6.15E-02
107642,3.04E-03,6.04E-02
107643,3.04E-03,5.93E-02
107644,3.04E-03,5.83E-02
107645,3.04E-03,5.73E-02
107646,3.04E-03,5.64E-02
107647,3.04E-03,5.55E-02
107648,3.04E-03,5.47E-02
107649,3.04E-03,5.39E-02
107650,3.04E-03,5.32E-02
107651,3.04E-03,5.24E-02
107652,3.04E-03,5.17E-02
107653,3.04E-03,5.10E-02
107654,3.04E-03,5.04E-02
107655,3.04E-03,4.97E-02
107656,3.03E-03,4.91E-02
107657,3.03E-03,4.85E-02
107658,3.03E-03,4.79E-02
107659,3.03E-03,4.74E-02
107660,3.03E-03,4.68E-02
107661,3.03E-03,4.62E-02
107662,3.03E-03,4.57E-02
107663,3.03E-03,4.52E-02
107664,3.03E-03,4.47E-02
107665,3.03E-03,4.41E-02
107666,3.03E-03,4.36E-02
107667,3.03E-03,4.31E-02
107668,3.03E-03,4.26E-02
107669,3.03E-03,4.21E-02
107670,3.03E-03,4.16E-02
107671,3.03E-03,4.12E-02
107672,3.03E-03,4.07E-02
107673,3.03E-03,4.02E-02
107674,3.03E-03,3.97E-02
107675,3.03E-03,3.93E-02
107676,3.03E-03,3.88E-02
107677,3.03E-03,3.83E-02
107678,3.03E-03,3.79E-02
107679,3.03E-03,3.74E-02
107680,3.03E-03,3.69E-02
107681,3.03E-03,3.65E-02
107682,3.03E-03,3.60E-02
107683,3.03E-03,3.55E-02
107684,3.03E-03,3.51E-02
107685,3.03E-03,3.46E-02
107686,3.03E-03,3.42E-02
107687,3.03E-03,3.37E-02
107688,3.03E-03,3.32E-02
107689,3.03E-03,3.28E-02
107690,3.03E-03,3.23E-02
107691,3.03E-03,3.19E-02
107692,3.03E-03,3.14E-02
107693,3.03E-03,3.09E-02
107694,3.03E-03,3.05E-02
107695,3.03E-03,3.00E-02
107696,3.03E-03,2.95E-02
107697,3.03E-03,2.91E-02
107698,3.03E-03,2.86E-02
107699,3.03E-03,2.81E-02
107700,3.03E-03,2.77E-02
107701,3.03E-03,2.72E-02
107702,3.03E-03,2.67E-02
107703,3.03E-03,2.63E-02
107704,3.03E-03,2.58E-02
107705,3.03E-03,2.53E-02
107706,3.03E-03,2.48E-02
107707,3.03E-03,2.43E-02
107708,3.05E-03,6.33E-02
107709,3.05E-03,6.22E-02
107710,3.05E-03,6.11E-02
107711,3.05E-03,6.00E-02
107712,3.05E-03,5.90E-02
107713,3.05E-03,5.80E-02
107714,3.05E-03,5.70E-02
107715,3.05E-03,5.61E-02
107716,3.05E-03,5.53E-02
107717,3.05E-03,5.44E-02
107718,3.05E-03,5.36E-02
107719,3.05E-03,5.29E-02
107720,3.05E-03,5.21E-02
107721,3.05E-03,5.14E-02
107722,3.05E-03,5.08E-02
107723,3.05E-03,5.01E-02
107724,3.05E-03,4.95E-02
107725,3.05E-03,4.89E-02
107726,3.05E-03,4.83E-02
107727,3.05E-03,4.77E-02
107728,3.04E-03,4.71E-02
107729,3.04E-03,4.66E-02
107730,3.04E-03,4.60E-02
107731,3.04E-03,4.55E-02
107732,3.04E-03,4.50E-02
107733,3.04E-03,4.44E-02
107734,3.04E-03,4.39E-02
107735,3.04E-03,4.34E-02
107736,3.04E-03,4.29E-02
107737,3.04E-03,4.24E-02
107738,3.04E-03,4.19E-02
107739,3.04E-03,4.15E-02
107740,3.04E-03,4.10E-02
107741,3.04E-03,4.05E-02
107742,3.04E-03,4.00E-02
107743,3.04E-03,3.96E-02
107744,3.04E-03,3.91E-02
107745,3.04E-03,3.86E-02
107746,3.04E-03,3.82E-02
107747,3.04E-03,3.77E-02
107748,3.04E-03,3.73E-02
107749,3.04E-03,3.68E-02
107750,3.04E-03,3.63E-02
107751,3.04E-03,3.59E-02
107752,3.04E-03,3.54E-02
107753,3.04E-03,3.50E-02
107754,3.04E-03,3.45E-02
107755,3.04E-03,3.41E-02
107756,3.04E-03,3.36E-02
107757,3.04E-03,3.32E-02
107758,3.04E-03,3.27E-02
107759,3.04E-03,3.22E-02
107760,3.04E-03,3.18E-02
107761,3.04E-03,3.13E-02
107762,3.04E-03,3.09E-02
107763,3.04E-03,3.04E-02
107764,3.04E-03,2.99E-02
107765,3.04E-03,2.95E-02
107766,3.04E-03,2.90E-02
107767,3.04E-03,2.86E-02
107768,3.04E-03,2.81E-02
107769,3.04E-03,2.76E-02
107770,3.04E-03,2.72E-02
107771,3.04E-03,2.67E-02
107772,3.04E-03,2.62E-02
107773,3.04E-03,2.57E-02
107774,3.04E-03,2.53E-02
107775,3.04E-03,2.48E-02
107776,3.04E-03,2.43E-02
107777,3.06E-03,6.27E-02
107778,3.06E-03,6.17E-02
107779,3.06E-03,6.06E-02
107780,3.06E-03,5.96E-02
107781,3.06E-03,5.86E-02
107782,3.06E-03,5.76E-02
107783,3.06E-03,5.67E-02
107784,3.06E-03,5.58E-02
107785,3.06E-03,5.49E-02
107786,3.06E-03,5.41E-02
107787,3.06E-03,5.33E-02
107788,3.06E-03,5.26E-02
107789,3.06E-03,5.19E-02
107790,3.06E-03,5.12E-02
107791,3.06E-03,5.05E-02
107792,3.06E-03,4.98E-02
107793,3.06E-03,4.92E-02
107794,3.06E-03,4.86E-02
107795,3.06E-03,4.80E-02
107796,3.06E-03,4.74E-02
107797,3.06E-03,4.69E-02
107798,3.06E-03,4.63E-02
107799,3.06E-03,4.58E-02
107800,3.06E-03,4.53E-02
107801,3.06E-03,4.47E-02
107802,3.06E-03,4.42E-02
107803,3.06E-03,4.37E-02
107804,3.06E-03,4.32E-02
107805,3.06E-03,4.27E-02
107806,3.06E-03,4.22E-02
107807,3.06E-03,4.18E-02
107808,3.06E-03,4.13E-02
107809,3.06E-03,4.08E-02
107810,3.06E-03,4.03E-02
107811,3.06E-03,3.99E-02
107812,3.06E-03,3.94E-02
107813,3.06E-03,3.90E-02
107814,3.06E-03,3.85E-02
107815,3.06E-03,3.80E-02
107816,3.06E-03,3.76E-02
107817,3.06E-03,3.71E-02
107818,3.06E-03,3.67E-02
107819,3.06E-03,3.62E-02
107820,3.06E-03,3.58E-02
107821,3.06E-03,3.53E-02
107822,3.06E-03,3.49E-02
107823,3.06E-03,3.44E-02
107824,3.06E-03,3.40E-02
107825,3.06E-03,3.35E-02
107826,3.06E-03,3.31E-02
107827,3.06E-03,3.26E-02
107828,3.06E-03,3.22E-02
107829,3.06E-03,3.17E-02
107830,3.06E-03,3.13E-02
107831,3.06E-03,3.08E-02
107832,3.06E-03,3.03E-02
107833,3.06E-03,2.99E-02
107834,3.06E-03,2.94E-02
107835,3.06E-03,2.90E-02
107836,3.06E-03,2.85E-02
107837,3.06E-03,2.81E-02
107838,3.06E-03,2.76E-02
107839,3.06E-03,2.71E-02
107840,3.06E-03,2.67E-02
107841,3.06E-03,2.62E-02
107842,3.06E-03,2.57E-02
107843,3.06E-03,2.52E-02
107844,3.06E-03,2.48E-02
107845,3.06E-03,2.43E-02
107846,3.07E-03,6.21E-02
107847,3.07E-03,6.11E-02
107848,3.07E-03,6.01E-02
107849,3.07E-03,5.91E-02
107850,3.07E-03,5.82E-02
107851,3.07E-03,5.72E-02
107852,3.07E-03,5.63E-02
107853,3.07E-03,5.54E-02
107854,3.07E-03,5.46E-02
107855,3.07E-03,5.38E-02
107856,3.07E-03,5.30E-02
107857,3.07E-03,5.23E-02
107858,3.07E-03,5.15E-02
107859,3.07E-03,5.09E-02
107860,3.07E-03,5.02E-02
107861,3.07E-03,4.96E-02
107862,3.07E-03,4.90E-02
107863,3.07E-03,4.84E-02
107864,3.07E-03,4.78E-02
107865,3.07E-03,4.72E-02
107866,3.07E-03,4.66E-02
107867,3.07E-03,4.61E-02
107868,3.07E-03,4.56E-02
107869,3.07E-03,4.51E-02
107870,3.07E-03,4.45E-02
107871,3.07E-03,4.40E-02
107872,3.07E-03,4.35E-02
107873,3.07E-03,4.30E-02
107874,3.07E-03,4.26E-02
107875,3.07E-03,4.21E-02
107876,3.07E-03,4.16E-02
107877,3.07E-03,4.11E-02
107878,3.07E-03,4.07E-02
107879,3.07E-03,4.02E-02
107880,3.07E-03,3.97E-02
107881,3.07E-03,3.93E-02
107882,3.07E-03,3.88E-02
107883,3.07E-03,3.84E-02
107884,3.07E-03,3.79E-02
107885,3.07E-03,3.75E-02
107886,3.07E-03,3.70E-02
107887,3.07E-03,3.66E-02
107888,3.07E-03,3.61E-02
107889,3.07E-03,3.57E-02
107890,3.07E-03,3.52E-02
107891,3.07E-03,3.48E-02
107892,3.07E-03,3.43E-02
107893,3.07E-03,3.39E-02
107894,3.07E-03,3.34E-02
107895,3.07E-03,3.30E-02
107896,3.07E-03,3.25E-02
107897,3.07E-03,3.21E-02
107898,3.07E-03,3.16E-02
107899,3.07E-03,3.12E-02
107900,3.07E-03,3.07E-02
107901,3.07E-03,3.03E-02
107902,3.07E-03,2.98E-02
107903,3.07E-03,2.94E-02
107904,3.07E-03,2.89E-02
107905,3.07E-03,2.85E-02
107906,3.07E-03,2.80E-02
107907,3.07E-03,2.76E-02
107908,3.07E-03,2.71E-02
107909,3.07E-03,2.66E-02
107910,3.07E-03,2.62E-02
107911,3.07E-03,2.57E-02
107912,3.07E-03,2.52E-02
107913,3.07E-03,2.48E-02
107914,3.07E-03,2.43E-02
107915,3.08E-03,6.16E-02
107916,3.08E-03,6.06E-02
107917,3.08E-03,5.96E-02
107918,3.08E-03,5.86E-02
107919,3.08E-03,5.77E-02
107920,3.08E-03,5.67E-02
107921,3.08E-03,5.58E-02
107922,3.08E-03,5.50E-02
107923,3.08E-03,5.42E-02
107924,3.08E-03,5.34E-02
107925,3.08E-03,5.26E-02
107926,3.08E-03,5.19E-02
107927,3.08E-03,5.12E-02
107928,3.08E-03,5.05E-02
107929,3.08E-03,4.99E-02
107930,3.08E-03,4.93E-02
107931,3.08E-03,4.87E-02
107932,3.08E-03,4.81E-02
107933,3.08E-03,4.75E-02
107934,3.08E-03,4.70E-02
107935,3.08E-03,4.64E-02
107936,3.08E-03,4.59E-02
107937,3.08E-03,4.54E-02
107938,3.08E-03,4.48E-02
107939,3.08E-03,4.43E-02
107940,3.08E-03,4.38E-02
107941,3.08E-03,4.33E-02
107942,3.08E-03,4.29E-02
107943,3.08E-03,4.24E-02
107944,3.08E-03,4.19E-02
107945,3.08E-03,4.14E-02
107946,3.08E-03,4.10E-02
107947,3.08E-03,4.05E-02
107948,3.08E-03,4.00E-02
107949,3.08E-03,3.96E-02
107950,3.08E-03,3.91E-02
107951,3.08E-03,3.87E-02
107952,3.08E-03,3.82E-02
107953,3.08E-03,3.78E-02
107954,3.08E-03,3.73E-02
107955,3.08E-03,3.69E-02
107956,3.08E-03,3.64E-02
107957,3.08E-03,3.60E-02
107958,3.08E-03,3.56E-02
107959,3.08E-03,3.51E-02
107960,3.08E-03,3.47E-02
107961,3.08E-03,3.42E-02
107962,3.08E-03,3.38E-02
107963,3.08E-03,3.34E-02
107964,3.08E-03,3.29E-02
107965,3.08E-03,3.25E-02
107966,3.08E-03,3.20E-02
107967,3.08E-03,3.16E-02
107968,3.08E-03,3.11E-02
107969,3.08E-03,3.07E-02
107970,3.08E-03,3.02E-02
107971,3.08E-03,2.98E-02
107972,3.08E-03,2.93E-02
107973,3.08E-03,2.89E-02
107974,3.08E-03,2.84E-02
107975,3.08E-03,2.80E-02
107976,3.08E-03,2.75E-02
107977,3.08E-03,2.71E-02
107978,3.08E-03,2.66E-02
107979,3.08E-03,2.61E-02
107980,3.08E-03,2.57E-02
107981,3.08E-03,2.52E-02
107982,3.08E-03,2.47E-02
107983,3.08E-03,2.43E-02
107984,3.09E-03,6.11E-02
107985,3.09E-03,6.01E-02
107986,3.09E-03,5.90E-02
107987,3.09E-03,5.80E-02
107988,3.09E-03,5.71E-02
107989,3.09E-03,5.62E-02
107990,3.09E-03,5.53E-02
107991,3.09E-03,5.45E-02
107992,3.09E-03,5.37E-02
107993,3.09E-03,5.30E-02
107994,3.09E-03,5.22E-02
107995,3.09E-03,5.15E-02
107996,3.09E-03,5.09E-02
107997,3.09E-03,5.02E-02
107998,3.09E-03,4.96E-02
107999,3.09E-03,4.90E-02
108000,3.09E-03,4.84E-02
108001,3.09E-03,4.78E-02
108002,3.09E-03,4.73E-02
108003,3.09E-03,4.67E-02
108004,3.09E-03,4.62E-02
108005,3.09E-03,4.57E-02
108006,3.09E-03,4.51E-02
108007,3.09E-03,4.46E-02
108008,3.09E-03,4.41E-02
108009,3.09E-03,4.36E-02
108010,3.09E-03,4.32E-02
108011,3.09E-03,4.27E-02
108012,3.09E-03,4.22E-02
108013,3.09E-03,4.17E-02
108014,3.09E-03,4.13E-02
108015,3.09E-03,4.08E-02
108016,3.10E-03,4.04E-02
108017,3.10E-03,3.99E-02
108018,3.10E-03,3.95E-02
108019,3.10E-03,3.90E-02
108020,3.10E-03,3.86E-02
108021,3.10E-03,3.81E-02
108022,3.10E-03,3.77E-02
108023,3.10E-03,3.72E-02
108024,3.10E-03,3.68E-02
108025,3.10E-03,3.63E-02
108026,3.10E-03,3.59E-02
108027,3.10E-03,3.55E-02
108028,3.10E-03,3.50E-02
108029,3.10E-03,3.46E-02
108030,3.10E-03,3.42E-02
108031,3.10E-03,3.37E-02
108032,3.10E-03,3.33E-02
108033,3.10E-03,3.28E-02
108034,3.10E-03,3.24E-02
108035,3.10E-03,3.20E-02
108036,3.10E-03,3.15E-02
108037,3.10E-03,3.11E-02
108038,3.10E-03,3.06E-02
108039,3.10E-03,3.02E-02
108040,3.10E-03,2.97E-02
108041,3.10E-03,2.93E-02
108042,3.10E-03,2.89E-02
108043,3.10E-03,2.84E-02
108044,3.10E-03,2.79E-02
108045,3.10E-03,2.75E-02
108046,3.10E-03,2.70E-02
108047,3.10E-03,2.66E-02
108048,3.10E-03,2.61E-02
108049,3.10E-03,2.57E-02
108050,3.10E-03,2.52E-02
108051,3.10E-03,2.47E-02
108052,3.10E-03,2.43E-02
108053,3.10E-03,6.06E-02
108054,3.10E-03,5.95E-02
108055,3.10E-03,5.84E-02
108056,3.10E-03,5.74E-02
108057,3.10E-03,5.65E-02
108058,3.10E-03,5.56E-02
108059,3.10E-03,5.48E-02
108060,3.10E-03,5.40E-02
108061,3.10E-03,5.32E-02
108062,3.10E-03,5.25E-02
108063,3.10E-03,5.18E-02
108064,3.10E-03,5.12E-02
108065,3.10E-03,5.05E-02
108066,3.10E-03,4.99E-02
108067,3.10E-03,4.93E-02
108068,3.11E-03,4.87E-02
108069,3.11E-03,4.81E-02
108070,3.11E-03,4.76E-02
108071,3.11E-03,4.70E-02
108072,3.11E-03,4.65E-02
108073,3.11E-03,4.60E-02
108074,3.11E-03,4.54E-02
108075,3.11E-03,4.49E-02
108076,3.11E-03,4.44E-02
108077,3.11E-03,4.40E-02
108078,3.11E-03,4.35E-02
108079,3.11E-03,4.30E-02
108080,3.11E-03,4.25E-02
108081,3.11E-03,4.20E-02
108082,3.11E-03,4.16E-02
108083,3.11E-03,4.11E-02
108084,3.11E-03,4.07E-02
108085,3.11E-03,4.02E-02
108086,3.11E-03,3.98E-02
108087,3.11E-03,3.93E-02
108088,3.11E-03,3.89E-02
108089,3.11E-03,3.84E-02
108090,3.11E-03,3.80E-02
108091,3.11E-03,3.76E-02
108092,3.11E-03,3.71E-02
108093,3.11E-03,3.67E-02
108094,3.11E-03,3.62E-02
108095,3.11E-03,3.58E-02
108096,3.11E-03,3.54E-02
108097,3.11E-03,3.49E-02
108098,3.11E-03,3.45E-02
108099,3.11E-03,3.41E-02
108100,3.11E-03,3.36E-02
108101,3.11E-03,3.32E-02
108102,3.11E-03,3.28E-02
108103,3.11E-03,3.23E-02
108104,3.11E-03,3.19E-02
108105,3.11E-03,3.15E-02
108106,3.11E-03,3.10E-02
108107,3.11E-03,3.06E-02
108108,3.11E-03,3.02E-02
108109,3.11E-03,2.97E-02
108110,3.11E-03,2.93E-02
108111,3.11E-03,2.88E-02
108112,3.11E-03,2.84E-02
108113,3.11E-03,2.79E-02
108114,3.11E-03,2.75E-02
108115,3.11E-03,2.70E-02
108116,3.11E-03,2.66E-02
108117,3.11E-03,2.61E-02
108118,3.11E-03,2.57E-02
108119,3.11E-03,2.52E-02
108120,3.11E-03,2.47E-02
108121,3.11E-03,2.43E-02
108122,3.11E-03,6.00E-02
108123,3.11E-03,5.89E-02
108124,3.11E-03,5.78E-02
108125,3.11E-03,5.68E-02
108126,3.11E-03,5.58E-02
108127,3.11E-03,5.50E-02
108128,3.11E-03,5.42E-02
108129,3.11E-03,5.34E-02
108130,3.11E-03,5.27E-02
108131,3.11E-03,5.21E-02
108132,3.12E-03,5.14E-02
108133,3.12E-03,5.08E-02
108134,3.12E-03,5.02E-02
108135,3.12E-03,4.96E-02
108136,3.12E-03,4.90E-02
108137,3.12E-03,4.84E-02
108138,3.12E-03,4.79E-02
108139,3.12E-03,4.73E-02
108140,3.12E-03,4.68E-02
108141,3.12E-03,4.63E-02
108142,3.12E-03,4.57E-02
108143,3.12E-03,4.52E-02
108144,3.12E-03,4.47E-02
108145,3.12E-03,4.43E-02
108146,3.12E-03,4.38E-02
108147,3.12E-03,4.33E-02
108148,3.12E-03,4.28E-02
108149,3.12E-03,4.24E-02
108150,3.12E-03,4.19E-02
108151,3.12E-03,4.14E-02
108152,3.12E-03,4.10E-02
108153,3.12E-03,4.05E-02
108154,3.12E-03,4.01E-02
108155,3.12E-03,3.96E-02
108156,3.12E-03,3.92E-02
108157,3.12E-03,3.88E-02
108158,3.12E-03,3.83E-02
108159,3.12E-03,3.79E-02
108160,3.12E-03,3.75E-02
108161,3.12E-03,3.70E-02
108162,3.12E-03,3.66E-02
108163,3.12E-03,3.62E-02
108164,3.12E-03,3.57E-02
108165,3.12E-03,3.53E-02
108166,3.12E-03,3.49E-02
108167,3.12E-03,3.44E-02
108168,3.13E-03,3.40E-02
108169,3.13E-03,3.36E-02
108170,3.13E-03,3.31E-02
108171,3.13E-03,3.27E-02
108172,3.13E-03,3.23E-02
108173,3.13E-03,3.19E-02
108174,3.13E-03,3.14E-02
108175,3.13E-03,3.10E-02
108176,3.13E-03,3.06E-02
108177,3.13E-03,3.01E-02
108178,3.13E-03,2.97E-02
108179,3.13E-03,2.92E-02
108180,3.13E-03,2.88E-02
108181,3.13E-03,2.83E-02
108182,3.13E-03,2.79E-02
108183,3.13E-03,2.75E-02
108184,3.13E-03,2.70E-02
108185,3.13E-03,2.66E-02
108186,3.13E-03,2.61E-02
108187,3.13E-03,2.56E-02
108188,3.13E-03,2.52E-02
108189,3.13E-03,2.47E-02
108190,3.13E-03,2.43E-02
108191,3.12E-03,5.93E-02
108192,3.12E-03,5.81E-02
108193,3.12E-03,5.70E-02
108194,3.12E-03,5.60E-02
108195,3.12E-03,5.51E-02
108196,3.12E-03,5.43E-02
108197,3.12E-03,5.36E-02
108198,3.12E-03,5.29E-02
108199,3.13E-03,5.22E-02
108200,3.13E-03,5.16E-02
108201,3.13E-03,5.10E-02
108202,3.13E-03,5.04E-02
108203,3.13E-03,4.98E-02
108204,3.13E-03,4.92E-02
108205,3.13E-03,4.87E-02
108206,3.13E-03,4.81E-02
108207,3.13E-03,4.76E-02
108208,3.13E-03,4.71E-02
108209,3.13E-03,4.65E-02
108210,3.13E-03,4.60E-02
108211,3.13E-03,4.55E-02
108212,3.13E-03,4.50E-02
108213,3.13E-03,4.45E-02
108214,3.13E-03,4.41E-02
108215,3.13E-03,4.36E-02
108216,3.13E-03,4.31E-02
108217,3.13E-03,4.27E-02
108218,3.13E-03,4.22E-02
108219,3.13E-03,4.17E-02
108220,3.13E-03,4.13E-02
108221,3.13E-03,4.08E-02
108222,3.13E-03,4.04E-02
108223,3.13E-03,4.00E-02
108224,3.14E-03,3.95E-02
108225,3.14E-03,3.91E-02
108226,3.14E-03,3.86E-02
108227,3.14E-03,3.82E-02
108228,3.14E-03,3.78E-02
108229,3.14E-03,3.74E-02
108230,3.14E-03,3.69E-02
108231,3.14E-03,3.65E-02
108232,3.14E-03,3.61E-02
108233,3.14E-03,3.56E-02
108234,3.14E-03,3.52E-02
108235,3.14E-03,3.48E-02
108236,3.14E-03,3.44E-02
108237,3.14E-03,3.39E-02
108238,3.14E-03,3.35E-02
108239,3.14E-03,3.31E-02
108240,3.14E-03,3.27E-02
108241,3.14E-03,3.22E-02
108242,3.14E-03,3.18E-02
108243,3.14E-03,3.14E-02
108244,3.14E-03,3.09E-02
108245,3.14E-03,3.05E-02
108246,3.14E-03,3.01E-02
108247,3.14E-03,2.96E-02
108248,3.14E-03,2.92E-02
108249,3.14E-03,2.88E-02
108250,3.15E-03,2.83E-02
108251,3.15E-03,2.79E-02
108252,3.15E-03,2.74E-02
108253,3.15E-03,2.70E-02
108254,3.15E-03,2.65E-02
108255,3.15E-03,2.61E-02
108256,3.15E-03,2.56E-02
108257,3.15E-03,2.52E-02
108258,3.15E-03,2.47E-02
108259,3.15E-03,2.43E-02
108260,3.13E-03,5.83E-02
108261,3.13E-03,5.71E-02
108262,3.13E-03,5.60E-02
108263,3.13E-03,5.51E-02
108264,3.13E-03,5.43E-02
108265,3.13E-03,5.36E-02
108266,3.13E-03,5.30E-02
108267,3.13E-03,5.23E-02
108268,3.14E-03,5.17E-02
108269,3.14E-03,5.12E-02
108270,3.14E-03,5.06E-02
108271,3.14E-03,5.00E-02
108272,3.14E-03,4.95E-02
108273,3.14E-03,4.89E-02
108274,3.14E-03,4.84E-02
108275,3.14E-03,4.78E-02
108276,3.14E-03,4.73E-02
108277,3.14E-03,4.68E-02
108278,3.14E-03,4.63E-02
108279,3.14E-03,4.58E-02
108280,3.14E-03,4.53E-02
108281,3.14E-03,4.48E-02
108282,3.14E-03,4.44E-02
108283,3.14E-03,4.39E-02
108284,3.14E-03,4.34E-02
108285,3.14E-03,4.30E-02
108286,3.14E-03,4.25E-02
108287,3.15E-03,4.21E-02
108288,3.15E-03,4.16E-02
108289,3.15E-03,4.12E-02
108290,3.15E-03,4.07E-02
108291,3.15E-03,4.03E-02
108292,3.15E-03,3.98E-02
108293,3.15E-03,3.94E-02
108294,3.15E-03,3.90E-02
108295,3.15E-03,3.85E-02
108296,3.15E-03,3.81E-02
108297,3.15E-03,3.77E-02
108298,3.15E-03,3.73E-02
108299,3.15E-03,3.68E-02
108300,3.15E-03,3.64E-02
108301,3.15E-03,3.60E-02
108302,3.15E-03,3.56E-02
108303,3.15E-03,3.52E-02
108304,3.15E-03,3.47E-02
108305,3.15E-03,3.43E-02
108306,3.16E-03,3.39E-02
108307,3.16E-03,3.35E-02
108308,3.16E-03,3.30E-02
108309,3.16E-03,3.26E-02
108310,3.16E-03,3.22E-02
108311,3.16E-03,3.18E-02
108312,3.16E-03,3.13E-02
108313,3.16E-03,3.09E-02
108314,3.16E-03,3.05E-02
108315,3.16E-03,3.01E-02
108316,3.16E-03,2.96E-02
108317,3.16E-03,2.92E-02
108318,3.16E-03,2.88E-02
108319,3.16E-03,2.83E-02
108320,3.16E-03,2.79E-02
108321,3.16E-03,2.74E-02
108322,3.16E-03,2.70E-02
108323,3.16E-03,2.65E-02
108324,3.16E-03,2.61E-02
108325,3.17E-03,2.56E-02
108326,3.17E-03,2.52E-02
108327,3.17E-03,2.47E-02
108328,3.17E-03,2.43E-02
108329,3.14E-03,5.69E-02
108330,3.14E-03,5.58E-02
108331,3.14E-03,5.50E-02
108332,3.14E-03,5.42E-02
108333,3.14E-03,5.36E-02
108334,3.14E-03,5.30E-02
108335,3.14E-03,5.24E-02
108336,3.14E-03,5.18E-02
108337,3.14E-03,5.13E-02
108338,3.14E-03,5.07E-02
108339,3.14E-03,5.02E-02
108340,3.14E-03,4.96E-02
108341,3.15E-03,4.91E-02
108342,3.15E-03,4.86E-02
108343,3.15E-03,4.81E-02
108344,3.15E-03,4.76E-02
108345,3.15E-03,4.71E-02
108346,3.15E-03,4.66E-02
108347,3.15E-03,4.61E-02
108348,3.15E-03,4.56E-02
108349,3.15E-03,4.51E-02
108350,3.15E-03,4.46E-02
108351,3.15E-03,4.42E-02
108352,3.15E-03,4.37E-02
108353,3.15E-03,4.33E-02
108354,3.15E-03,4.28E-02
108355,3.16E-03,4.24E-02
108356,3.16E-03,4.19E-02
108357,3.16E-03,4.15E-02
108358,3.16E-03,4.10E-02
108359,3.16E-03,4.06E-02
108360,3.16E-03,4.02E-02
108361,3.16E-03,3.97E-02
108362,3.16E-03,3.93E-02
108363,3.16E-03,3.89E-02
108364,3.16E-03,3.84E-02
108365,3.16E-03,3.80E-02
108366,3.16E-03,3.76E-02
108367,3.16E-03,3.72E-02
108368,3.17E-03,3.68E-02
108369,3.17E-03,3.63E-02
108370,3.17E-03,3.59E-02
108371,3.17E-03,3.55E-02
108372,3.17E-03,3.51E-02
108373,3.17E-03,3.47E-02
108374,3.17E-03,3.43E-02
108375,3.17E-03,3.38E-02
108376,3.17E-03,3.34E-02
108377,3.17E-03,3.30E-02
108378,3.17E-03,3.26E-02
108379,3.17E-03,3.22E-02
108380,3.17E-03,3.17E-02
108381,3.17E-03,3.13E-02
108382,3.18E-03,3.09E-02
108383,3.18E-03,3.05E-02
108384,3.18E-03,3.00E-02
108385,3.18E-03,2.96E-02
108386,3.18E-03,2.92E-02
108387,3.18E-03,2.87E-02
108388,3.18E-03,2.83E-02
108389,3.18E-03,2.79E-02
108390,3.18E-03,2.74E-02
108391,3.18E-03,2.70E-02
108392,3.18E-03,2.65E-02
108393,3.18E-03,2.61E-02
108394,3.18E-03,2.56E-02
108395,3.18E-03,2.52E-02
108396,3.19E-03,2.47E-02
108397,3.19E-03,2.43E-02
108398,3.14E-03,5.48E-02
108399,3.14E-03,5.43E-02
108400,3.14E-03,5.38E-02
108401,3.14E-03,5.33E-02
108402,3.15E-03,5.28E-02
108403,3.15E-03,5.23E-02
108404,3.15E-03,5.18E-02
108405,3.15E-03,5.13E-02
108406,3.15E-03,5.08E-02
108407,3.15E-03,5.03E-02
108408,3.15E-03,4.98E-02
108409,3.15E-03,4.93E-02
108410,3.15E-03,4.88E-02
108411,3.15E-03,4.83E-02
108412,3.16E-03,4.78E-02
108413,3.16E-03,4.73E-02
108414,3.16E-03,4.68E-02
108415,3.16E-03,4.63E-02
108416,3.16E-03,4.59E-02
108417,3.16E-03,4.54E-02
108418,3.16E-03,4.49E-02
108419,3.16E-03,4.45E-02
108420,3.16E-03,4.40E-02
108421,3.16E-03,4.35E-02
108422,3.17E-03,4.31E-02
108423,3.17E-03,4.27E-02
108424,3.17E-03,4.22E-02
108425,3.17E-03,4.18E-02
108426,3.17E-03,4.13E-02
108427,3.17E-03,4.09E-02
108428,3.17E-03,4.05E-02
108429,3.17E-03,4.00E-02
108430,3.17E-03,3.96E-02
108431,3.17E-03,3.92E-02
108432,3.17E-03,3.88E-02
108433,3.18E-03,3.84E-02
108434,3.18E-03,3.79E-02
108435,3.18E-03,3.75E-02
108436,3.18E-03,3.71E-02
108437,3.18E-03,3.67E-02
108438,3.18E-03,3.63E-02
108439,3.18E-03,3.59E-02
108440,3.18E-03,3.54E-02
108441,3.18E-03,3.50E-02
108442,3.18E-03,3.46E-02
108443,3.19E-03,3.42E-02
108444,3.19E-03,3.38E-02
108445,3.19E-03,3.34E-02
108446,3.19E-03,3.30E-02
108447,3.19E-03,3.25E-02
108448,3.19E-03,3.21E-02
108449,3.19E-03,3.17E-02
108450,3.19E-03,3.13E-02
108451,3.19E-03,3.09E-02
108452,3.19E-03,3.04E-02
108453,3.19E-03,3.00E-02
108454,3.20E-03,2.96E-02
108455,3.20E-03,2.92E-02
108456,3.20E-03,2.87E-02
108457,3.20E-03,2.83E-02
108458,3.20E-03,2.79E-02
108459,3.20E-03,2.74E-02
108460,3.20E-03,2.70E-02
108461,3.20E-03,2.65E-02
108462,3.20E-03,2.61E-02
108463,3.20E-03,2.57E-02
108464,3.21E-03,2.52E-02
108465,3.21E-03,2.47E-02
108466,3.21E-03,2.43E-02
108467,3.17E-03,5.23E-02
108468,3.17E-03,5.25E-02
108469,3.17E-03,5.26E-02
108470,3.17E-03,5.24E-02
108471,3.17E-03,5.21E-02
108472,3.17E-03,5.17E-02
108473,3.17E-03,5.13E-02
108474,3.17E-03,5.08E-02
108475,3.17E-03,5.04E-02
108476,3.17E-03,4.99E-02
108477,3.17E-03,4.94E-02
108478,3.18E-03,4.89E-02
108479,3.18E-03,4.85E-02
108480,3.18E-03,4.80E-02
108481,3.18E-03,4.75E-02
108482,3.18E-03,4.70E-02
108483,3.18E-03,4.66E-02
108484,3.18E-03,4.61E-02
108485,3.18E-03,4.56E-02
108486,3.18E-03,4.52E-02
108487,3.18E-03,4.47E-02
108488,3.18E-03,4.43E-02
108489,3.19E-03,4.38E-02
108490,3.19E-03,4.34E-02
108491,3.19E-03,4.29E-02
108492,3.19E-03,4.25E-02
108493,3.19E-03,4.21E-02
108494,3.19E-03,4.16E-02
108495,3.19E-03,4.12E-02
108496,3.19E-03,4.08E-02
108497,3.19E-03,4.04E-02
108498,3.19E-03,3.99E-02
108499,3.20E-03,3.95E-02
108500,3.20E-03,3.91E-02
108501,3.20E-03,3.87E-02
108502,3.20E-03,3.83E-02
108503,3.20E-03,3.79E-02
108504,3.20E-03,3.74E-02
108505,3.20E-03,3.70E-02
108506,3.20E-03,3.66E-02
108507,3.20E-03,3.62E-02
108508,3.20E-03,3.58E-02
108509,3.20E-03,3.54E-02
108510,3.21E-03,3.50E-02
108511,3.21E-03,3.46E-02
108512,3.21E-03,3.42E-02
108513,3.21E-03,3.37E-02
108514,3.21E-03,3.33E-02
108515,3.21E-03,3.29E-02
108516,3.21E-03,3.25E-02
108517,3.21E-03,3.21E-02
108518,3.21E-03,3.17E-02
108519,3.21E-03,3.13E-02
108520,3.21E-03,3.08E-02
108521,3.22E-03,3.04E-02
108522,3.22E-03,3.00E-02
108523,3.22E-03,2.96E-02
108524,3.22E-03,2.92E-02
108525,3.22E-03,2.87E-02
108526,3.22E-03,2.83E-02
108527,3.22E-03,2.79E-02
108528,3.22E-03,2.74E-02
108529,3.22E-03,2.70E-02
108530,3.22E-03,2.66E-02
108531,3.22E-03,2.61E-02
108532,3.23E-03,2.57E-02
108533,3.23E-03,2.52E-02
108534,3.23E-03,2.48E-02
108535,3.23E-03,2.43E-02
108536,3.20E-03,5.06E-02
108537,3.20E-03,5.11E-02
108538,3.20E-03,5.14E-02
108539,3.21E-03,5.14E-02
108540,3.21E-03,5.13E-02
108541,3.21E-03,5.11E-02
108542,3.21E-03,5.07E-02
108543,3.21E-03,5.03E-02
108544,3.21E-03,4.99E-02
108545,3.21E-03,4.94E-02
108546,3.21E-03,4.90E-02
108547,3.21E-03,4.85E-02
108548,3.21E-03,4.81E-02
108549,3.21E-03,4.76E-02
108550,3.21E-03,4.72E-02
108551,3.21E-03,4.67E-02
108552,3.21E-03,4.63E-02
108553,3.21E-03,4.58E-02
108554,3.22E-03,4.54E-02
108555,3.22E-03,4.49E-02
108556,3.22E-03,4.45E-02
108557,3.22E-03,4.41E-02
108558,3.22E-03,4.36E-02
108559,3.22E-03,4.32E-02
108560,3.22E-03,4.28E-02
108561,3.22E-03,4.23E-02
108562,3.22E-03,4.19E-02
108563,3.22E-03,4.15E-02
108564,3.22E-03,4.11E-02
108565,3.22E-03,4.07E-02
108566,3.22E-03,4.02E-02
108567,3.22E-03,3.98E-02
108568,3.22E-03,3.94E-02
108569,3.23E-03,3.90E-02
108570,3.23E-03,3.86E-02
108571,3.23E-03,3.82E-02
108572,3.23E-03,3.78E-02
108573,3.23E-03,3.74E-02
108574,3.23E-03,3.69E-02
108575,3.23E-03,3.65E-02
108576,3.23E-03,3.61E-02
108577,3.23E-03,3.57E-02
108578,3.23E-03,3.53E-02
108579,3.23E-03,3.49E-02
108580,3.23E-03,3.45E-02
108581,3.23E-03,3.41E-02
108582,3.23E-03,3.37E-02
108583,3.24E-03,3.33E-02
108584,3.24E-03,3.29E-02
108585,3.24E-03,3.25E-02
108586,3.24E-03,3.21E-02
108587,3.24E-03,3.17E-02
108588,3.24E-03,3.12E-02
108589,3.24E-03,3.08E-02
108590,3.24E-03,3.04E-02
108591,3.24E-03,3.00E-02
108592,3.24E-03,2.96E-02
108593,3.24E-03,2.91E-02
108594,3.24E-03,2.87E-02
108595,3.24E-03,2.83E-02
108596,3.24E-03,2.79E-02
108597,3.24E-03,2.74E-02
108598,3.25E-03,2.70E-02
108599,3.25E-03,2.66E-02
108600,3.25E-03,2.61E-02
108601,3.25E-03,2.57E-02
108602,3.25E-03,2.52E-02
108603,3.25E-03,2.48E-02
108604,3.25E-03,2.43E-02
108605,3.23E-03,4.97E-02
108606,3.23E-03,5.02E-02
108607,3.24E-03,5.05E-02
108608,3.24E-03,5.06E-02
108609,3.24E-03,5.05E-02
108610,3.24E-03,5.03E-02
108611,3.24E-03,5.01E-02
108612,3.24E-03,4.97E-02
108613,3.24E-03,4.93E-02
108614,3.24E-03,4.90E-02
108615,3.24E-03,4.85E-02
108616,3.24E-03,4.81E-02
108617,3.24E-03,4.77E-02
108618,3.24E-03,4.73E-02
108619,3.24E-03,4.68E-02
108620,3.24E-03,4.64E-02
108621,3.24E-03,4.60E-02
108622,3.24E-03,4.56E-02
108623,3.24E-03,4.51E-02
108624,3.24E-03,4.47E-02
108625,3.24E-03,4.43E-02
108626,3.25E-03,4.38E-02
108627,3.25E-03,4.34E-02
108628,3.25E-03,4.30E-02
108629,3.25E-03,4.26E-02
108630,3.25E-03,4.22E-02
108631,3.25E-03,4.17E-02
108632,3.25E-03,4.13E-02
108633,3.25E-03,4.09E-02
108634,3.25E-03,4.05E-02
108635,3.25E-03,4.01E-02
108636,3.25E-03,3.97E-02
108637,3.25E-03,3.93E-02
108638,3.25E-03,3.89E-02
108639,3.25E-03,3.85E-02
108640,3.25E-03,3.81E-02
108641,3.25E-03,3.77E-02
108642,3.25E-03,3.73E-02
108643,3.25E-03,3.69E-02
108644,3.25E-03,3.65E-02
108645,3.25E-03,3.61E-02
108646,3.26E-03,3.57E-02
108647,3.26E-03,3.53E-02
108648,3.26E-03,3.49E-02
108649,3.26E-03,3.45E-02
108650,3.26E-03,3.41E-02
108651,3.26E-03,3.36E-02
108652,3.26E-03,3.32E-02
108653,3.26E-03,3.28E-02
108654,3.26E-03,3.24E-02
108655,3.26E-03,3.20E-02
108656,3.26E-03,3.16E-02
108657,3.26E-03,3.12E-02
108658,3.26E-03,3.08E-02
108659,3.26E-03,3.04E-02
108660,3.26E-03,3.00E-02
108661,3.26E-03,2.96E-02
108662,3.26E-03,2.91E-02
108663,3.26E-03,2.87E-02
108664,3.26E-03,2.83E-02
108665,3.26E-03,2.79E-02
108666,3.27E-03,2.74E-02
108667,3.27E-03,2.70E-02
108668,3.27E-03,2.66E-02
108669,3.27E-03,2.61E-02
108670,3.27E-03,2.57E-02
108671,3.27E-03,2.53E-02
108672,3.27E-03,2.48E-02
108673,3.27E-03,2.43E-02
108674,3.26E-03,4.94E-02
108675,3.26E-03,4.96E-02
108676,3.26E-03,4.98E-02
108677,3.26E-03,4.98E-02
108678,3.26E-03,4.98E-02
108679,3.26E-03,4.96E-02
108680,3.26E-03,4.94E-02
108681,3.26E-03,4.91E-02
108682,3.27E-03,4.88E-02
108683,3.27E-03,4.84E-02
108684,3.27E-03,4.80E-02
108685,3.27E-03,4.77E-02
108686,3.27E-03,4.73E-02
108687,3.27E-03,4.69E-02
108688,3.27E-03,4.65E-02
108689,3.27E-03,4.61E-02
108690,3.27E-03,4.57E-02
108691,3.27E-03,4.53E-02
108692,3.27E-03,4.48E-02
108693,3.27E-03,4.44E-02
108694,3.27E-03,4.40E-02
108695,3.27E-03,4.36E-02
108696,3.27E-03,4.32E-02
108697,3.27E-03,4.28E-02
108698,3.27E-03,4.24E-02
108699,3.27E-03,4.20E-02
108700,3.27E-03,4.16E-02
108701,3.27E-03,4.12E-02
108702,3.27E-03,4.08E-02
108703,3.27E-03,4.04E-02
108704,3.27E-03,4.00E-02
108705,3.27E-03,3.96E-02
108706,3.27E-03,3.92E-02
108707,3.27E-03,3.88E-02
108708,3.27E-03,3.84E-02
108709,3.28E-03,3.80E-02
108710,3.28E-03,3.76E-02
108711,3.28E-03,3.72E-02
108712,3.28E-03,3.68E-02
108713,3.28E-03,3.64E-02
108714,3.28E-03,3.60E-02
108715,3.28E-03,3.56E-02
108716,3.28E-03,3.52E-02
108717,3.28E-03,3.48E-02
108718,3.28E-03,3.44E-02
108719,3.28E-03,3.40E-02
108720,3.28E-03,3.36E-02
108721,3.28E-03,3.32E-02
108722,3.28E-03,3.28E-02
108723,3.28E-03,3.24E-02
108724,3.28E-03,3.20E-02
108725,3.28E-03,3.16E-02
108726,3.28E-03,3.12E-02
108727,3.28E-03,3.08E-02
108728,3.28E-03,3.04E-02
108729,3.28E-03,3.00E-02
108730,3.28E-03,2.95E-02
108731,3.28E-03,2.91E-02
108732,3.28E-03,2.87E-02
108733,3.28E-03,2.83E-02
108734,3.28E-03,2.79E-02
108735,3.28E-03,2.74E-02
108736,3.28E-03,2.70E-02
108737,3.29E-03,2.66E-02
108738,3.29E-03,2.62E-02
108739,3.29E-03,2.57E-02
108740,3.29E-03,2.53E-02
108741,3.29E-03,2.48E-02
108742,3.29E-03,2.44E-02
108743,3.29E-03,4.94E-02
108744,3.29E-03,4.94E-02
108745,3.29E-03,4.93E-02
108746,3.29E-03,4.92E-02
108747,3.29E-03,4.91E-02
108748,3.29E-03,4.89E-02
108749,3.29E-03,4.87E-02
108750,3.29E-03,4.84E-02
108751,3.29E-03,4.81E-02
108752,3.29E-03,4.78E-02
108753,3.29E-03,4.75E-02
108754,3.29E-03,4.72E-02
108755,3.29E-03,4.68E-02
108756,3.29E-03,4.65E-02
108757,3.29E-03,4.61E-02
108758,3.29E-03,4.57E-02
108759,3.29E-03,4.53E-02
108760,3.29E-03,4.49E-02
108761,3.29E-03,4.45E-02
108762,3.29E-03,4.42E-02
108763,3.29E-03,4.38E-02
108764,3.29E-03,4.34E-02
108765,3.29E-03,4.30E-02
108766,3.29E-03,4.26E-02
108767,3.29E-03,4.22E-02
108768,3.29E-03,4.18E-02
108769,3.29E-03,4.14E-02
108770,3.29E-03,4.10E-02
108771,3.29E-03,4.06E-02
108772,3.29E-03,4.02E-02
108773,3.29E-03,3.98E-02
108774,3.29E-03,3.94E-02
108775,3.29E-03,3.90E-02
108776,3.29E-03,3.86E-02
108777,3.30E-03,3.82E-02
108778,3.30E-03,3.78E-02
108779,3.30E-03,3.74E-02
108780,3.30E-03,3.71E-02
108781,3.30E-03,3.67E-02
108782,3.30E-03,3.63E-02
108783,3.30E-03,3.59E-02
108784,3.30E-03,3.55E-02
108785,3.30E-03,3.51E-02
108786,3.30E-03,3.47E-02
108787,3.30E-03,3.43E-02
108788,3.30E-03,3.39E-02
108789,3.30E-03,3.35E-02
108790,3.30E-03,3.31E-02
108791,3.30E-03,3.27E-02
108792,3.30E-03,3.24E-02
108793,3.30E-03,3.20E-02
108794,3.30E-03,3.16E-02
108795,3.30E-03,3.12E-02
108796,3.30E-03,3.08E-02
108797,3.30E-03,3.03E-02
108798,3.30E-03,2.99E-02
108799,3.30E-03,2.95E-02
108800,3.30E-03,2.91E-02
108801,3.30E-03,2.87E-02
108802,3.30E-03,2.83E-02
108803,3.30E-03,2.79E-02
108804,3.30E-03,2.75E-02
108805,3.30E-03,2.70E-02
108806,3.30E-03,2.66E-02
108807,3.30E-03,2.62E-02
108808,3.30E-03,2.57E-02
108809,3.30E-03,2.53E-02
108810,3.30E-03,2.49E-02
108811,3.30E-03,2.44E-02
108812,3.30E-03,4.97E-02
108813,3.30E-03,4.92E-02
108814,3.30E-03,4.89E-02
108815,3.30E-03,4.86E-02
108816,3.30E-03,4.84E-02
108817,3.30E-03,4.82E-02
108818,3.30E-03,4.80E-02
108819,3.30E-03,4.78E-02
108820,3.30E-03,4.75E-02
108821,3.30E-03,4.73E-02
108822,3.30E-03,4.70E-02
108823,3.31E-03,4.67E-02
108824,3.31E-03,4.64E-02
108825,3.31E-03,4.60E-02
108826,3.31E-03,4.57E-02
108827,3.31E-03,4.53E-02
108828,3.31E-03,4.50E-02
108829,3.31E-03,4.46E-02
108830,3.31E-03,4.42E-02
108831,3.31E-03,4.39E-02
108832,3.31E-03,4.35E-02
108833,3.31E-03,4.31E-02
108834,3.31E-03,4.27E-02
108835,3.31E-03,4.23E-02
108836,3.31E-03,4.19E-02
108837,3.31E-03,4.16E-02
108838,3.31E-03,4.12E-02
108839,3.31E-03,4.08E-02
108840,3.31E-03,4.04E-02
108841,3.31E-03,4.00E-02
108842,3.31E-03,3.96E-02
108843,3.31E-03,3.92E-02
108844,3.31E-03,3.89E-02
108845,3.31E-03,3.85E-02
108846,3.31E-03,3.81E-02
108847,3.31E-03,3.77E-02
108848,3.31E-03,3.73E-02
108849,3.31E-03,3.69E-02
108850,3.31E-03,3.66E-02
108851,3.31E-03,3.62E-02
108852,3.31E-03,3.58E-02
108853,3.31E-03,3.54E-02
108854,3.31E-03,3.50E-02
108855,3.31E-03,3.46E-02
108856,3.31E-03,3.43E-02
108857,3.31E-03,3.39E-02
108858,3.32E-03,3.35E-02
108859,3.32E-03,3.31E-02
108860,3.32E-03,3.27E-02
108861,3.32E-03,3.23E-02
108862,3.32E-03,3.19E-02
108863,3.32E-03,3.15E-02
108864,3.32E-03,3.11E-02
108865,3.32E-03,3.07E-02
108866,3.32E-03,3.03E-02
108867,3.32E-03,2.99E-02
108868,3.32E-03,2.95E-02
108869,3.32E-03,2.91E-02
108870,3.32E-03,2.87E-02
108871,3.32E-03,2.83E-02
108872,3.32E-03,2.79E-02
108873,3.32E-03,2.75E-02
108874,3.32E-03,2.70E-02
108875,3.32E-03,2.66E-02
108876,3.32E-03,2.62E-02
108877,3.32E-03,2.58E-02
108878,3.32E-03,2.53E-02
108879,3.32E-03,2.49E-02
108880,3.32E-03,2.44E-02
108881,3.31E-03,4.97E-02
108882,3.31E-03,4.90E-02
108883,3.31E-03,4.85E-02
108884,3.31E-03,4.81E-02
108885,3.32E-03,4.78E-02
108886,3.32E-03,4.75E-02
108887,3.32E-03,4.73E-02
108888,3.32E-03,4.71E-02
108889,3.32E-03,4.69E-02
108890,3.32E-03,4.67E-02
108891,3.32E-03,4.65E-02
108892,3.32E-03,4.62E-02
108893,3.32E-03,4.59E-02
108894,3.32E-03,4.56E-02
108895,3.32E-03,4.53E-02
108896,3.32E-03,4.50E-02
108897,3.32E-03,4.46E-02
108898,3.32E-03,4.43E-02
108899,3.32E-03,4.39E-02
108900,3.32E-03,4.36E-02
108901,3.32E-03,4.32E-02
108902,3.32E-03,4.28E-02
108903,3.32E-03,4.25E-02
108904,3.32E-03,4.21E-02
108905,3.32E-03,4.17E-02
108906,3.32E-03,4.13E-02
108907,3.32E-03,4.10E-02
108908,3.32E-03,4.06E-02
108909,3.32E-03,4.02E-02
108910,3.32E-03,3.98E-02
108911,3.32E-03,3.95E-02
108912,3.33E-03,3.91E-02
108913,3.33E-03,3.87E-02
108914,3.33E-03,3.83E-02
108915,3.33E-03,3.80E-02
108916,3.33E-03,3.76E-02
108917,3.33E-03,3.72E-02
108918,3.33E-03,3.68E-02
108919,3.33E-03,3.64E-02
108920,3.33E-03,3.61E-02
108921,3.33E-03,3.57E-02
108922,3.33E-03,3.53E-02
108923,3.33E-03,3.49E-02
108924,3.33E-03,3.46E-02
108925,3.33E-03,3.42E-02
108926,3.33E-03,3.38E-02
108927,3.33E-03,3.34E-02
108928,3.33E-03,3.30E-02
108929,3.33E-03,3.26E-02
108930,3.33E-03,3.23E-02
108931,3.33E-03,3.19E-02
108932,3.33E-03,3.15E-02
108933,3.33E-03,3.11E-02
108934,3.33E-03,3.07E-02
108935,3.33E-03,3.03E-02
108936,3.33E-03,2.99E-02
108937,3.33E-03,2.95E-02
108938,3.33E-03,2.91E-02
108939,3.33E-03,2.87E-02
108940,3.34E-03,2.83E-02
108941,3.34E-03,2.79E-02
108942,3.34E-03,2.75E-02
108943,3.34E-03,2.71E-02
108944,3.34E-03,2.66E-02
108945,3.34E-03,2.62E-02
108946,3.34E-03,2.58E-02
108947,3.34E-03,2.54E-02
108948,3.34E-03,2.49E-02
108949,3.34E-03,2.45E-02
108950,3.32E-03,4.93E-02
108951,3.32E-03,4.86E-02
108952,3.32E-03,4.79E-02
108953,3.32E-03,4.75E-02
108954,3.32E-03,4.72E-02
108955,3.33E-03,4.69E-02
108956,3.33E-03,4.67E-02
108957,3.33E-03,4.66E-02
108958,3.33E-03,4.64E-02
108959,3.33E-03,4.62E-02
108960,3.33E-03,4.60E-02
108961,3.33E-03,4.57E-02
108962,3.33E-03,4.55E-02
108963,3.33E-03,4.52E-02
108964,3.33E-03,4.49E-02
108965,3.33E-03,4.46E-02
108966,3.33E-03,4.43E-02
108967,3.33E-03,4.39E-02
108968,3.33E-03,4.36E-02
108969,3.33E-03,4.33E-02
108970,3.33E-03,4.29E-02
108971,3.33E-03,4.26E-02
108972,3.33E-03,4.22E-02
108973,3.33E-03,4.18E-02
108974,3.33E-03,4.15E-02
108975,3.34E-03,4.11E-02
108976,3.34E-03,4.08E-02
108977,3.34E-03,4.04E-02
108978,3.34E-03,4.00E-02
108979,3.34E-03,3.97E-02
108980,3.34E-03,3.93E-02
108981,3.34E-03,3.89E-02
108982,3.34E-03,3.86E-02
108983,3.34E-03,3.82E-02
108984,3.34E-03,3.78E-02
108985,3.34E-03,3.74E-02
108986,3.34E-03,3.71E-02
108987,3.34E-03,3.67E-02
108988,3.34E-03,3.63E-02
108989,3.34E-03,3.60E-02
108990,3.34E-03,3.56E-02
108991,3.34E-03,3.52E-02
108992,3.34E-03,3.49E-02
108993,3.34E-03,3.45E-02
108994,3.34E-03,3.41E-02
108995,3.35E-03,3.37E-02
108996,3.35E-03,3.34E-02
108997,3.35E-03,3.30E-02
108998,3.35E-03,3.26E-02
108999,3.35E-03,3.22E-02
109000,3.35E-03,3.18E-02
109001,3.35E-03,3.14E-02
109002,3.35E-03,3.11E-02
109003,3.35E-03,3.07E-02
109004,3.35E-03,3.03E-02
109005,3.35E-03,2.99E-02
109006,3.35E-03,2.95E-02
109007,3.35E-03,2.91E-02
109008,3.35E-03,2.87E-02
109009,3.35E-03,2.83E-02
109010,3.35E-03,2.79E-02
109011,3.35E-03,2.75E-02
109012,3.35E-03,2.71E-02
109013,3.35E-03,2.67E-02
109014,3.35E-03,2.62E-02
109015,3.36E-03,2.58E-02
109016,3.36E-03,2.54E-02
109017,3.36E-03,2.50E-02
109018,3.36E-03,2.45E-02
109019,3.33E-03,4.86E-02
109020,3.33E-03,4.78E-02
109021,3.33E-03,4.72E-02
109022,3.33E-03,4.69E-02
109023,3.33E-03,4.66E-02
109024,3.33E-03,4.64E-02
109025,3.33E-03,4.62E-02
109026,3.33E-03,4.61E-02
109027,3.34E-03,4.59E-02
109028,3.34E-03,4.57E-02
109029,3.34E-03,4.55E-02
109030,3.34E-03,4.53E-02
109031,3.34E-03,4.50E-02
109032,3.34E-03,4.48E-02
109033,3.34E-03,4.45E-02
109034,3.34E-03,4.42E-02
109035,3.34E-03,4.39E-02
109036,3.34E-03,4.36E-02
109037,3.34E-03,4.33E-02
109038,3.34E-03,4.30E-02
109039,3.34E-03,4.26E-02
109040,3.34E-03,4.23E-02
109041,3.34E-03,4.19E-02
109042,3.35E-03,4.16E-02
109043,3.35E-03,4.12E-02
109044,3.35E-03,4.09E-02
109045,3.35E-03,4.05E-02
109046,3.35E-03,4.02E-02
109047,3.35E-03,3.98E-02
109048,3.35E-03,3.95E-02
109049,3.35E-03,3.91E-02
109050,3.35E-03,3.88E-02
109051,3.35E-03,3.84E-02
109052,3.35E-03,3.80E-02
109053,3.35E-03,3.77E-02
109054,3.35E-03,3.73E-02
109055,3.35E-03,3.70E-02
109056,3.35E-03,3.66E-02
109057,3.36E-03,3.62E-02
109058,3.36E-03,3.59E-02
109059,3.36E-03,3.55E-02
109060,3.36E-03,3.51E-02
109061,3.36E-03,3.48E-02
109062,3.36E-03,3.44E-02
109063,3.36E-03,3.40E-02
109064,3.36E-03,3.37E-02
109065,3.36E-03,3.33E-02
109066,3.36E-03,3.29E-02
109067,3.36E-03,3.25E-02
109068,3.36E-03,3.22E-02
109069,3.36E-03,3.18E-02
109070,3.36E-03,3.14E-02
109071,3.36E-03,3.10E-02
109072,3.37E-03,3.07E-02
109073,3.37E-03,3.03E-02
109074,3.37E-03,2.99E-02
109075,3.37E-03,2.95E-02
109076,3.37E-03,2.91E-02
109077,3.37E-03,2.87E-02
109078,3.37E-03,2.83E-02
109079,3.37E-03,2.79E-02
109080,3.37E-03,2.75E-02
109081,3.37E-03,2.71E-02
109082,3.37E-03,2.67E-02
109083,3.37E-03,2.63E-02
109084,3.37E-03,2.59E-02
109085,3.37E-03,2.54E-02
109086,3.37E-03,2.50E-02
109087,3.38E-03,2.46E-02
109088,3.33E-03,4.68E-02
109089,3.33E-03,4.66E-02
109090,3.33E-03,4.64E-02
109091,3.33E-03,4.63E-02
109092,3.33E-03,4.61E-02
109093,3.33E-03,4.60E-02
109094,3.33E-03,4.58E-02
109095,3.33E-03,4.57E-02
109096,3.33E-03,4.55E-02
109097,3.34E-03,4.53E-02
109098,3.34E-03,4.51E-02
109099,3.34E-03,4.49E-02
109100,3.34E-03,4.46E-02
109101,3.34E-03,4.44E-02
109102,3.34E-03,4.41E-02
109103,3.34E-03,4.39E-02
109104,3.34E-03,4.36E-02
109105,3.34E-03,4.33E-02
109106,3.35E-03,4.30E-02
109107,3.35E-03,4.27E-02
109108,3.35E-03,4.23E-02
109109,3.35E-03,4.20E-02
109110,3.35E-03,4.17E-02
109111,3.35E-03,4.13E-02
109112,3.35E-03,4.10E-02
109113,3.35E-03,4.07E-02
109114,3.35E-03,4.03E-02
109115,3.35E-03,4.00E-02
109116,3.36E-03,3.96E-02
109117,3.36E-03,3.93E-02
109118,3.36E-03,3.89E-02
109119,3.36E-03,3.86E-02
109120,3.36E-03,3.82E-02
109121,3.36E-03,3.79E-02
109122,3.36E-03,3.75E-02
109123,3.36E-03,3.72E-02
109124,3.36E-03,3.68E-02
109125,3.36E-03,3.65E-02
109126,3.37E-03,3.61E-02
109127,3.37E-03,3.58E-02
109128,3.37E-03,3.54E-02
109129,3.37E-03,3.50E-02
109130,3.37E-03,3.47E-02
109131,3.37E-03,3.43E-02
109132,3.37E-03,3.40E-02
109133,3.37E-03,3.36E-02
109134,3.37E-03,3.32E-02
109135,3.37E-03,3.29E-02
109136,3.38E-03,3.25E-02
109137,3.38E-03,3.21E-02
109138,3.38E-03,3.18E-02
109139,3.38E-03,3.14E-02
109140,3.38E-03,3.10E-02
109141,3.38E-03,3.06E-02
109142,3.38E-03,3.03E-02
109143,3.38E-03,2.99E-02
109144,3.38E-03,2.95E-02
109145,3.38E-03,2.91E-02
109146,3.39E-03,2.87E-02
109147,3.39E-03,2.83E-02
109148,3.39E-03,2.79E-02
109149,3.39E-03,2.75E-02
109150,3.39E-03,2.71E-02
109151,3.39E-03,2.67E-02
109152,3.39E-03,2.63E-02
109153,3.39E-03,2.59E-02
109154,3.39E-03,2.55E-02
109155,3.40E-03,2.50E-02
109156,3.40E-03,2.46E-02
109157,3.36E-03,4.47E-02
109158,3.36E-03,4.52E-02
109159,3.36E-03,4.55E-02
109160,3.36E-03,4.56E-02
109161,3.36E-03,4.56E-02
109162,3.36E-03,4.56E-02
109163,3.36E-03,4.54E-02
109164,3.37E-03,4.53E-02
109165,3.37E-03,4.51E-02
109166,3.37E-03,4.49E-02
109167,3.37E-03,4.47E-02
109168,3.37E-03,4.45E-02
109169,3.37E-03,4.43E-02
109170,3.37E-03,4.40E-02
109171,3.37E-03,4.38E-02
109172,3.37E-03,4.35E-02
109173,3.37E-03,4.32E-02
109174,3.37E-03,4.29E-02
109175,3.37E-03,4.27E-02
109176,3.38E-03,4.24E-02
109177,3.38E-03,4.20E-02
109178,3.38E-03,4.17E-02
109179,3.38E-03,4.14E-02
109180,3.38E-03,4.11E-02
109181,3.38E-03,4.08E-02
109182,3.38E-03,4.04E-02
109183,3.38E-03,4.01E-02
109184,3.38E-03,3.98E-02
109185,3.38E-03,3.94E-02
109186,3.38E-03,3.91E-02
109187,3.39E-03,3.88E-02
109188,3.39E-03,3.84E-02
109189,3.39E-03,3.81E-02
109190,3.39E-03,3.77E-02
109191,3.39E-03,3.74E-02
109192,3.39E-03,3.70E-02
109193,3.39E-03,3.67E-02
109194,3.39E-03,3.63E-02
109195,3.39E-03,3.60E-02
109196,3.39E-03,3.56E-02
109197,3.39E-03,3.53E-02
109198,3.39E-03,3.49E-02
109199,3.40E-03,3.46E-02
109200,3.40E-03,3.42E-02
109201,3.40E-03,3.39E-02
109202,3.40E-03,3.35E-02
109203,3.40E-03,3.32E-02
109204,3.40E-03,3.28E-02
109205,3.40E-03,3.24E-02
109206,3.40E-03,3.21E-02
109207,3.40E-03,3.17E-02
109208,3.40E-03,3.13E-02
109209,3.40E-03,3.10E-02
109210,3.40E-03,3.06E-02
109211,3.41E-03,3.02E-02
109212,3.41E-03,2.99E-02
109213,3.41E-03,2.95E-02
109214,3.41E-03,2.91E-02
109215,3.41E-03,2.87E-02
109216,3.41E-03,2.83E-02
109217,3.41E-03,2.79E-02
109218,3.41E-03,2.75E-02
109219,3.41E-03,2.71E-02
109220,3.41E-03,2.67E-02
109221,3.41E-03,2.63E-02
109222,3.42E-03,2.59E-02
109223,3.42E-03,2.55E-02
109224,3.42E-03,2.51E-02
109225,3.42E-03,2.47E-02
109226,3.40E-03,4.33E-02
109227,3.40E-03,4.41E-02
109228,3.40E-03,4.47E-02
109229,3.40E-03,4.50E-02
109230,3.40E-03,4.51E-02
109231,3.40E-03,4.51E-02
109232,3.40E-03,4.50E-02
109233,3.40E-03,4.49E-02
109234,3.40E-03,4.47E-02
109235,3.40E-03,4.45E-02
109236,3.40E-03,4.43E-02
109237,3.40E-03,4.41E-02
109238,3.40E-03,4.39E-02
109239,3.40E-03,4.36E-02
109240,3.41E-03,4.34E-02
109241,3.41E-03,4.31E-02
109242,3.41E-03,4.29E-02
109243,3.41E-03,4.26E-02
109244,3.41E-03,4.23E-02
109245,3.41E-03,4.20E-02
109246,3.41E-03,4.17E-02
109247,3.41E-03,4.14E-02
109248,3.41E-03,4.11E-02
109249,3.41E-03,4.08E-02
109250,3.41E-03,4.05E-02
109251,3.41E-03,4.02E-02
109252,3.41E-03,3.99E-02
109253,3.41E-03,3.96E-02
109254,3.41E-03,3.92E-02
109255,3.41E-03,3.89E-02
109256,3.41E-03,3.86E-02
109257,3.42E-03,3.82E-02
109258,3.42E-03,3.79E-02
109259,3.42E-03,3.76E-02
109260,3.42E-03,3.72E-02
109261,3.42E-03,3.69E-02
109262,3.42E-03,3.66E-02
109263,3.42E-03,3.62E-02
109264,3.42E-03,3.59E-02
109265,3.42E-03,3.55E-02
109266,3.42E-03,3.52E-02
109267,3.42E-03,3.48E-02
109268,3.42E-03,3.45E-02
109269,3.42E-03,3.41E-02
109270,3.42E-03,3.38E-02
109271,3.42E-03,3.34E-02
109272,3.42E-03,3.31E-02
109273,3.43E-03,3.27E-02
109274,3.43E-03,3.24E-02
109275,3.43E-03,3.20E-02
109276,3.43E-03,3.17E-02
109277,3.43E-03,3.13E-02
109278,3.43E-03,3.09E-02
109279,3.43E-03,3.06E-02
109280,3.43E-03,3.02E-02
109281,3.43E-03,2.98E-02
109282,3.43E-03,2.95E-02
109283,3.43E-03,2.91E-02
109284,3.43E-03,2.87E-02
109285,3.43E-03,2.83E-02
109286,3.43E-03,2.79E-02
109287,3.43E-03,2.76E-02
109288,3.43E-03,2.72E-02
109289,3.43E-03,2.68E-02
109290,3.44E-03,2.64E-02
109291,3.44E-03,2.60E-02
109292,3.44E-03,2.56E-02
109293,3.44E-03,2.51E-02
109294,3.44E-03,2.47E-02
109295,3.43E-03,4.26E-02
109296,3.43E-03,4.34E-02
109297,3.44E-03,4.41E-02
109298,3.44E-03,4.44E-02
109299,3.44E-03,4.46E-02
109300,3.44E-03,4.47E-02
109301,3.44E-03,4.46E-02
109302,3.44E-03,4.45E-02
109303,3.44E-03,4.43E-02
109304,3.44E-03,4.41E-02
109305,3.44E-03,4.39E-02
109306,3.44E-03,4.37E-02
109307,3.44E-03,4.35E-02
109308,3.44E-03,4.33E-02
109309,3.44E-03,4.30E-02
109310,3.44E-03,4.28E-02
109311,3.44E-03,4.25E-02
109312,3.44E-03,4.23E-02
109313,3.44E-03,4.20E-02
109314,3.44E-03,4.17E-02
109315,3.44E-03,4.14E-02
109316,3.44E-03,4.11E-02
109317,3.44E-03,4.08E-02
109318,3.44E-03,4.05E-02
109319,3.44E-03,4.02E-02
109320,3.44E-03,3.99E-02
109321,3.44E-03,3.96E-02
109322,3.44E-03,3.93E-02
109323,3.44E-03,3.90E-02
109324,3.44E-03,3.87E-02
109325,3.44E-03,3.84E-02
109326,3.44E-03,3.80E-02
109327,3.44E-03,3.77E-02
109328,3.45E-03,3.74E-02
109329,3.45E-03,3.71E-02
109330,3.45E-03,3.67E-02
109331,3.45E-03,3.64E-02
109332,3.45E-03,3.61E-02
109333,3.45E-03,3.57E-02
109334,3.45E-03,3.54E-02
109335,3.45E-03,3.51E-02
109336,3.45E-03,3.47E-02
109337,3.45E-03,3.44E-02
109338,3.45E-03,3.40E-02
109339,3.45E-03,3.37E-02
109340,3.45E-03,3.34E-02
109341,3.45E-03,3.30E-02
109342,3.45E-03,3.27E-02
109343,3.45E-03,3.23E-02
109344,3.45E-03,3.20E-02
109345,3.45E-03,3.16E-02
109346,3.45E-03,3.13E-02
109347,3.45E-03,3.09E-02
109348,3.45E-03,3.05E-02
109349,3.45E-03,3.02E-02
109350,3.45E-03,2.98E-02
109351,3.45E-03,2.94E-02
109352,3.45E-03,2.91E-02
109353,3.45E-03,2.87E-02
109354,3.45E-03,2.83E-02
109355,3.45E-03,2.80E-02
109356,3.45E-03,2.76E-02
109357,3.45E-03,2.72E-02
109358,3.45E-03,2.68E-02
109359,3.46E-03,2.64E-02
109360,3.46E-03,2.60E-02
109361,3.46E-03,2.56E-02
109362,3.46E-03,2.52E-02
109363,3.46E-03,2.48E-02
109364,3.47E-03,4.27E-02
109365,3.47E-03,4.33E-02
109366,3.47E-03,4.37E-02
109367,3.47E-03,4.40E-02
109368,3.47E-03,4.42E-02
109369,3.47E-03,4.42E-02
109370,3.47E-03,4.42E-02
109371,3.47E-03,4.40E-02
109372,3.47E-03,4.39E-02
109373,3.47E-03,4.37E-02
109374,3.47E-03,4.35E-02
109375,3.47E-03,4.33E-02
109376,3.47E-03,4.31E-02
109377,3.47E-03,4.29E-02
109378,3.47E-03,4.26E-02
109379,3.47E-03,4.24E-02
109380,3.47E-03,4.22E-02
109381,3.47E-03,4.19E-02
109382,3.47E-03,4.16E-02
109383,3.47E-03,4.14E-02
109384,3.47E-03,4.11E-02
109385,3.47E-03,4.08E-02
109386,3.47E-03,4.05E-02
109387,3.47E-03,4.03E-02
109388,3.47E-03,4.00E-02
109389,3.47E-03,3.97E-02
109390,3.47E-03,3.94E-02
109391,3.47E-03,3.91E-02
109392,3.47E-03,3.88E-02
109393,3.47E-03,3.85E-02
109394,3.47E-03,3.81E-02
109395,3.47E-03,3.78E-02
109396,3.47E-03,3.75E-02
109397,3.47E-03,3.72E-02
109398,3.47E-03,3.69E-02
109399,3.47E-03,3.66E-02
109400,3.47E-03,3.62E-02
109401,3.47E-03,3.59E-02
109402,3.47E-03,3.56E-02
109403,3.47E-03,3.53E-02
109404,3.47E-03,3.49E-02
109405,3.47E-03,3.46E-02
109406,3.47E-03,3.43E-02
109407,3.47E-03,3.39E-02
109408,3.47E-03,3.36E-02
109409,3.47E-03,3.33E-02
109410,3.47E-03,3.29E-02
109411,3.47E-03,3.26E-02
109412,3.47E-03,3.22E-02
109413,3.47E-03,3.19E-02
109414,3.47E-03,3.16E-02
109415,3.47E-03,3.12E-02
109416,3.47E-03,3.09E-02
109417,3.47E-03,3.05E-02
109418,3.47E-03,3.01E-02
109419,3.47E-03,2.98E-02
109420,3.47E-03,2.94E-02
109421,3.47E-03,2.91E-02
109422,3.47E-03,2.87E-02
109423,3.47E-03,2.83E-02
109424,3.47E-03,2.80E-02
109425,3.47E-03,2.76E-02
109426,3.47E-03,2.72E-02
109427,3.47E-03,2.68E-02
109428,3.47E-03,2.64E-02
109429,3.47E-03,2.60E-02
109430,3.47E-03,2.56E-02
109431,3.47E-03,2.52E-02
109432,3.47E-03,2.48E-02
109433,3.49E-03,4.33E-02
109434,3.49E-03,4.34E-02
109435,3.49E-03,4.35E-02
109436,3.49E-03,4.37E-02
109437,3.49E-03,4.37E-02
109438,3.49E-03,4.37E-02
109439,3.49E-03,4.37E-02
109440,3.49E-03,4.36E-02
109441,3.49E-03,4.34E-02
109442,3.49E-03,4.33E-02
109443,3.49E-03,4.31E-02
109444,3.49E-03,4.29E-02
109445,3.49E-03,4.27E-02
109446,3.49E-03,4.25E-02
109447,3.49E-03,4.23E-02
109448,3.49E-03,4.20E-02
109449,3.49E-03,4.18E-02
109450,3.49E-03,4.15E-02
109451,3.49E-03,4.13E-02
109452,3.49E-03,4.10E-02
109453,3.49E-03,4.08E-02
109454,3.49E-03,4.05E-02
109455,3.49E-03,4.02E-02
109456,3.49E-03,4.00E-02
109457,3.49E-03,3.97E-02
109458,3.49E-03,3.94E-02
109459,3.49E-03,3.91E-02
109460,3.49E-03,3.88E-02
109461,3.49E-03,3.85E-02
109462,3.49E-03,3.82E-02
109463,3.49E-03,3.79E-02
109464,3.49E-03,3.76E-02
109465,3.49E-03,3.73E-02
109466,3.49E-03,3.70E-02
109467,3.49E-03,3.67E-02
109468,3.49E-03,3.64E-02
109469,3.49E-03,3.61E-02
109470,3.49E-03,3.57E-02
109471,3.49E-03,3.54E-02
109472,3.49E-03,3.51E-02
109473,3.49E-03,3.48E-02
109474,3.49E-03,3.45E-02
109475,3.49E-03,3.41E-02
109476,3.49E-03,3.38E-02
109477,3.49E-03,3.35E-02
109478,3.49E-03,3.32E-02
109479,3.49E-03,3.28E-02
109480,3.49E-03,3.25E-02
109481,3.49E-03,3.22E-02
109482,3.49E-03,3.18E-02
109483,3.49E-03,3.15E-02
109484,3.49E-03,3.11E-02
109485,3.49E-03,3.08E-02
109486,3.49E-03,3.05E-02
109487,3.49E-03,3.01E-02
109488,3.49E-03,2.98E-02
109489,3.49E-03,2.94E-02
109490,3.49E-03,2.90E-02
109491,3.49E-03,2.87E-02
109492,3.49E-03,2.83E-02
109493,3.49E-03,2.80E-02
109494,3.49E-03,2.76E-02
109495,3.49E-03,2.72E-02
109496,3.49E-03,2.68E-02
109497,3.49E-03,2.65E-02
109498,3.49E-03,2.61E-02
109499,3.49E-03,2.57E-02
109500,3.49E-03,2.53E-02
109501,3.49E-03,2.49E-02
109502,3.50E-03,4.39E-02
109503,3.50E-03,4.37E-02
109504,3.50E-03,4.35E-02
109505,3.50E-03,4.34E-02
109506,3.50E-03,4.33E-02
109507,3.50E-03,4.33E-02
109508,3.50E-03,4.32E-02
109509,3.50E-03,4.31E-02
109510,3.50E-03,4.30E-02
109511,3.50E-03,4.28E-02
109512,3.50E-03,4.27E-02
109513,3.50E-03,4.25E-02
109514,3.50E-03,4.23E-02
109515,3.50E-03,4.21E-02
109516,3.50E-03,4.19E-02
109517,3.50E-03,4.16E-02
109518,3.50E-03,4.14E-02
109519,3.50E-03,4.12E-02
109520,3.50E-03,4.09E-02
109521,3.50E-03,4.07E-02
109522,3.50E-03,4.04E-02
109523,3.50E-03,4.02E-02
109524,3.50E-03,3.99E-02
109525,3.50E-03,3.96E-02
109526,3.50E-03,3.94E-02
109527,3.50E-03,3.91E-02
109528,3.50E-03,3.88E-02
109529,3.50E-03,3.85E-02
109530,3.50E-03,3.83E-02
109531,3.50E-03,3.80E-02
109532,3.50E-03,3.77E-02
109533,3.50E-03,3.74E-02
109534,3.50E-03,3.71E-02
109535,3.50E-03,3.68E-02
109536,3.50E-03,3.65E-02
109537,3.50E-03,3.62E-02
109538,3.50E-03,3.59E-02
109539,3.50E-03,3.56E-02
109540,3.50E-03,3.53E-02
109541,3.50E-03,3.50E-02
109542,3.50E-03,3.46E-02
109543,3.50E-03,3.43E-02
109544,3.50E-03,3.40E-02
109545,3.50E-03,3.37E-02
109546,3.50E-03,3.34E-02
109547,3.50E-03,3.31E-02
109548,3.50E-03,3.27E-02
109549,3.50E-03,3.24E-02
109550,3.50E-03,3.21E-02
109551,3.50E-03,3.18E-02
109552,3.50E-03,3.14E-02
109553,3.50E-03,3.11E-02
109554,3.50E-03,3.07E-02
109555,3.50E-03,3.04E-02
109556,3.50E-03,3.01E-02
109557,3.50E-03,2.97E-02
109558,3.50E-03,2.94E-02
109559,3.50E-03,2.90E-02
109560,3.50E-03,2.87E-02
109561,3.50E-03,2.83E-02
109562,3.50E-03,2.80E-02
109563,3.50E-03,2.76E-02
109564,3.50E-03,2.72E-02
109565,3.50E-03,2.69E-02
109566,3.50E-03,2.65E-02
109567,3.50E-03,2.61E-02
109568,3.50E-03,2.57E-02
109569,3.50E-03,2.53E-02
109570,3.50E-03,2.49E-02
109571,3.51E-03,4.42E-02
109572,3.51E-03,4.38E-02
109573,3.51E-03,4.35E-02
109574,3.51E-03,4.32E-02
109575,3.51E-03,4.30E-02
109576,3.51E-03,4.29E-02
109577,3.51E-03,4.28E-02
109578,3.51E-03,4.26E-02
109579,3.52E-03,4.25E-02
109580,3.52E-03,4.24E-02
109581,3.52E-03,4.22E-02
109582,3.52E-03,4.20E-02
109583,3.52E-03,4.19E-02
109584,3.52E-03,4.17E-02
109585,3.52E-03,4.15E-02
109586,3.52E-03,4.13E-02
109587,3.52E-03,4.10E-02
109588,3.52E-03,4.08E-02
109589,3.52E-03,4.06E-02
109590,3.52E-03,4.03E-02
109591,3.52E-03,4.01E-02
109592,3.52E-03,3.99E-02
109593,3.52E-03,3.96E-02
109594,3.52E-03,3.93E-02
109595,3.52E-03,3.91E-02
109596,3.52E-03,3.88E-02
109597,3.52E-03,3.85E-02
109598,3.52E-03,3.83E-02
109599,3.52E-03,3.80E-02
109600,3.52E-03,3.77E-02
109601,3.52E-03,3.74E-02
109602,3.52E-03,3.72E-02
109603,3.52E-03,3.69E-02
109604,3.52E-03,3.66E-02
109605,3.52E-03,3.63E-02
109606,3.52E-03,3.60E-02
109607,3.52E-03,3.57E-02
109608,3.52E-03,3.54E-02
109609,3.52E-03,3.51E-02
109610,3.52E-03,3.48E-02
109611,3.52E-03,3.45E-02
109612,3.52E-03,3.42E-02
109613,3.52E-03,3.39E-02
109614,3.52E-03,3.36E-02
109615,3.52E-03,3.33E-02
109616,3.52E-03,3.29E-02
109617,3.52E-03,3.26E-02
109618,3.52E-03,3.23E-02
109619,3.52E-03,3.20E-02
109620,3.52E-03,3.17E-02
109621,3.52E-03,3.13E-02
109622,3.52E-03,3.10E-02
109623,3.52E-03,3.07E-02
109624,3.52E-03,3.04E-02
109625,3.52E-03,3.00E-02
109626,3.52E-03,2.97E-02
109627,3.52E-03,2.93E-02
109628,3.52E-03,2.90E-02
109629,3.52E-03,2.87E-02
109630,3.52E-03,2.83E-02
109631,3.52E-03,2.80E-02
109632,3.52E-03,2.76E-02
109633,3.52E-03,2.72E-02
109634,3.52E-03,2.69E-02
109635,3.52E-03,2.65E-02
109636,3.52E-03,2.61E-02
109637,3.52E-03,2.58E-02
109638,3.52E-03,2.54E-02
109639,3.52E-03,2.50E-02
109640,3.53E-03,4.43E-02
109641,3.53E-03,4.38E-02
109642,3.53E-03,4.34E-02
109643,3.53E-03,4.30E-02
109644,3.53E-03,4.27E-02
109645,3.53E-03,4.25E-02
109646,3.53E-03,4.24E-02
109647,3.53E-03,4.22E-02
109648,3.53E-03,4.21E-02
109649,3.53E-03,4.19E-02
109650,3.53E-03,4.18E-02
109651,3.53E-03,4.16E-02
109652,3.53E-03,4.15E-02
109653,3.53E-03,4.13E-02
109654,3.53E-03,4.11E-02
109655,3.53E-03,4.09E-02
109656,3.53E-03,4.07E-02
109657,3.53E-03,4.04E-02
109658,3.53E-03,4.02E-02
109659,3.53E-03,4.00E-02
109660,3.53E-03,3.98E-02
109661,3.53E-03,3.95E-02
109662,3.53E-03,3.93E-02
109663,3.53E-03,3.90E-02
109664,3.53E-03,3.88E-02
109665,3.53E-03,3.85E-02
109666,3.53E-03,3.83E-02
109667,3.53E-03,3.80E-02
109668,3.53E-03,3.77E-02
109669,3.53E-03,3.75E-02
109670,3.53E-03,3.72E-02
109671,3.53E-03,3.69E-02
109672,3.53E-03,3.67E-02
109673,3.53E-03,3.64E-02
109674,3.53E-03,3.61E-02
109675,3.53E-03,3.58E-02
109676,3.53E-03,3.55E-02
109677,3.53E-03,3.52E-02
109678,3.53E-03,3.49E-02
109679,3.53E-03,3.46E-02
109680,3.53E-03,3.43E-02
109681,3.53E-03,3.41E-02
109682,3.53E-03,3.38E-02
109683,3.53E-03,3.34E-02
109684,3.53E-03,3.31E-02
109685,3.53E-03,3.28E-02
109686,3.53E-03,3.25E-02
109687,3.53E-03,3.22E-02
109688,3.53E-03,3.19E-02
109689,3.53E-03,3.16E-02
109690,3.53E-03,3.13E-02
109691,3.53E-03,3.10E-02
109692,3.53E-03,3.06E-02
109693,3.53E-03,3.03E-02
109694,3.53E-03,3.00E-02
109695,3.53E-03,2.96E-02
109696,3.53E-03,2.93E-02
109697,3.53E-03,2.90E-02
109698,3.53E-03,2.86E-02
109699,3.53E-03,2.83E-02
109700,3.53E-03,2.80E-02
109701,3.53E-03,2.76E-02
109702,3.53E-03,2.73E-02
109703,3.53E-03,2.69E-02
109704,3.53E-03,2.65E-02
109705,3.53E-03,2.62E-02
109706,3.53E-03,2.58E-02
109707,3.53E-03,2.54E-02
109708,3.53E-03,2.51E-02
109709,3.54E-03,4.43E-02
109710,3.54E-03,4.37E-02
109711,3.54E-03,4.32E-02
109712,3.54E-03,4.28E-02
109713,3.54E-03,4.24E-02
109714,3.54E-03,4.22E-02
109715,3.54E-03,4.20E-02
109716,3.54E-03,4.18E-02
109717,3.54E-03,4.17E-02
109718,3.54E-03,4.15E-02
109719,3.54E-03,4.14E-02
109720,3.54E-03,4.12E-02
109721,3.54E-03,4.10E-02
109722,3.54E-03,4.09E-02
109723,3.54E-03,4.07E-02
109724,3.54E-03,4.05E-02
109725,3.54E-03,4.03E-02
109726,3.54E-03,4.01E-02
109727,3.54E-03,3.99E-02
109728,3.54E-03,3.97E-02
109729,3.54E-03,3.94E-02
109730,3.54E-03,3.92E-02
109731,3.54E-03,3.90E-02
109732,3.54E-03,3.87E-02
109733,3.54E-03,3.85E-02
109734,3.54E-03,3.82E-02
109735,3.54E-03,3.80E-02
109736,3.54E-03,3.77E-02
109737,3.54E-03,3.75E-02
109738,3.54E-03,3.72E-02
109739,3.54E-03,3.70E-02
109740,3.54E-03,3.67E-02
109741,3.54E-03,3.64E-02
109742,3.54E-03,3.62E-02
109743,3.54E-03,3.59E-02
109744,3.54E-03,3.56E-02
109745,3.54E-03,3.53E-02
109746,3.54E-03,3.51E-02
109747,3.54E-03,3.48E-02
109748,3.54E-03,3.45E-02
109749,3.54E-03,3.42E-02
109750,3.54E-03,3.39E-02
109751,3.54E-03,3.36E-02
109752,3.54E-03,3.33E-02
109753,3.54E-03,3.30E-02
109754,3.55E-03,3.27E-02
109755,3.55E-03,3.24E-02
109756,3.55E-03,3.21E-02
109757,3.55E-03,3.18E-02
109758,3.55E-03,3.15E-02
109759,3.55E-03,3.12E-02
109760,3.55E-03,3.09E-02
109761,3.55E-03,3.06E-02
109762,3.55E-03,3.03E-02
109763,3.55E-03,2.99E-02
109764,3.55E-03,2.96E-02
109765,3.55E-03,2.93E-02
109766,3.55E-03,2.90E-02
109767,3.55E-03,2.86E-02
109768,3.55E-03,2.83E-02
109769,3.55E-03,2.79E-02
109770,3.55E-03,2.76E-02
109771,3.55E-03,2.73E-02
109772,3.55E-03,2.69E-02
109773,3.55E-03,2.66E-02
109774,3.55E-03,2.62E-02
109775,3.55E-03,2.59E-02
109776,3.55E-03,2.55E-02
109777,3.55E-03,2.51E-02
109778,3.55E-03,4.40E-02
109779,3.55E-03,4.34E-02
109780,3.55E-03,4.29E-02
109781,3.55E-03,4.25E-02
109782,3.55E-03,4.21E-02
109783,3.55E-03,4.19E-02
109784,3.55E-03,4.17E-02
109785,3.55E-03,4.15E-02
109786,3.55E-03,4.13E-02
109787,3.55E-03,4.11E-02
109788,3.55E-03,4.10E-02
109789,3.55E-03,4.08E-02
109790,3.55E-03,4.07E-02
109791,3.55E-03,4.05E-02
109792,3.55E-03,4.03E-02
109793,3.55E-03,4.01E-02
109794,3.55E-03,3.99E-02
109795,3.55E-03,3.97E-02
109796,3.55E-03,3.95E-02
109797,3.55E-03,3.93E-02
109798,3.55E-03,3.91E-02
109799,3.55E-03,3.89E-02
109800,3.55E-03,3.87E-02
109801,3.55E-03,3.84E-02
109802,3.55E-03,3.82E-02
109803,3.55E-03,3.80E-02
109804,3.55E-03,3.77E-02
109805,3.55E-03,3.75E-02
109806,3.55E-03,3.72E-02
109807,3.55E-03,3.70E-02
109808,3.55E-03,3.67E-02
109809,3.56E-03,3.65E-02
109810,3.56E-03,3.62E-02
109811,3.56E-03,3.59E-02
109812,3.56E-03,3.57E-02
109813,3.56E-03,3.54E-02
109814,3.56E-03,3.51E-02
109815,3.56E-03,3.49E-02
109816,3.56E-03,3.46E-02
109817,3.56E-03,3.43E-02
109818,3.56E-03,3.40E-02
109819,3.56E-03,3.38E-02
109820,3.56E-03,3.35E-02
109821,3.56E-03,3.32E-02
109822,3.56E-03,3.29E-02
109823,3.56E-03,3.26E-02
109824,3.56E-03,3.23E-02
109825,3.56E-03,3.20E-02
109826,3.56E-03,3.17E-02
109827,3.56E-03,3.14E-02
109828,3.56E-03,3.11E-02
109829,3.56E-03,3.08E-02
109830,3.56E-03,3.05E-02
109831,3.56E-03,3.02E-02
109832,3.56E-03,2.99E-02
109833,3.56E-03,2.96E-02
109834,3.56E-03,2.92E-02
109835,3.56E-03,2.89E-02
109836,3.56E-03,2.86E-02
109837,3.56E-03,2.83E-02
109838,3.56E-03,2.79E-02
109839,3.56E-03,2.76E-02
109840,3.56E-03,2.73E-02
109841,3.56E-03,2.69E-02
109842,3.56E-03,2.66E-02
109843,3.56E-03,2.62E-02
109844,3.57E-03,2.59E-02
109845,3.57E-03,2.55E-02
109846,3.57E-03,2.52E-02
109847,3.56E-03,4.35E-02
109848,3.56E-03,4.29E-02
109849,3.56E-03,4.25E-02
109850,3.56E-03,4.21E-02
109851,3.56E-03,4.18E-02
109852,3.56E-03,4.16E-02
109853,3.56E-03,4.14E-02
109854,3.56E-03,4.12E-02
109855,3.56E-03,4.10E-02
109856,3.56E-03,4.08E-02
109857,3.56E-03,4.06E-02
109858,3.56E-03,4.05E-02
109859,3.56E-03,4.03E-02
109860,3.56E-03,4.01E-02
109861,3.56E-03,4.00E-02
109862,3.56E-03,3.98E-02
109863,3.56E-03,3.96E-02
109864,3.56E-03,3.94E-02
109865,3.56E-03,3.92E-02
109866,3.56E-03,3.90E-02
109867,3.56E-03,3.88E-02
109868,3.56E-03,3.86E-02
109869,3.56E-03,3.84E-02
109870,3.57E-03,3.81E-02
109871,3.57E-03,3.79E-02
109872,3.57E-03,3.77E-02
109873,3.57E-03,3.74E-02
109874,3.57E-03,3.72E-02
109875,3.57E-03,3.70E-02
109876,3.57E-03,3.67E-02
109877,3.57E-03,3.65E-02
109878,3.57E-03,3.62E-02
109879,3.57E-03,3.60E-02
109880,3.57E-03,3.57E-02
109881,3.57E-03,3.55E-02
109882,3.57E-03,3.52E-02
109883,3.57E-03,3.50E-02
109884,3.57E-03,3.47E-02
109885,3.57E-03,3.44E-02
109886,3.57E-03,3.42E-02
109887,3.57E-03,3.39E-02
109888,3.57E-03,3.36E-02
109889,3.57E-03,3.33E-02
109890,3.57E-03,3.31E-02
109891,3.57E-03,3.28E-02
109892,3.57E-03,3.25E-02
109893,3.57E-03,3.22E-02
109894,3.57E-03,3.19E-02
109895,3.58E-03,3.16E-02
109896,3.58E-03,3.13E-02
109897,3.58E-03,3.10E-02
109898,3.58E-03,3.07E-02
109899,3.58E-03,3.04E-02
109900,3.58E-03,3.01E-02
109901,3.58E-03,2.98E-02
109902,3.58E-03,2.95E-02
109903,3.58E-03,2.92E-02
109904,3.58E-03,2.89E-02
109905,3.58E-03,2.86E-02
109906,3.58E-03,2.83E-02
109907,3.58E-03,2.79E-02
109908,3.58E-03,2.76E-02
109909,3.58E-03,2.73E-02
109910,3.58E-03,2.69E-02
109911,3.58E-03,2.66E-02
109912,3.58E-03,2.63E-02
109913,3.58E-03,2.59E-02
109914,3.58E-03,2.56E-02
109915,3.58E-03,2.52E-02
109916,3.57E-03,4.26E-02
109917,3.57E-03,4.23E-02
109918,3.57E-03,4.20E-02
109919,3.57E-03,4.18E-02
109920,3.57E-03,4.15E-02
109921,3.57E-03,4.13E-02
109922,3.57E-03,4.11E-02
109923,3.57E-03,4.09E-02
109924,3.57E-03,4.07E-02
109925,3.57E-03,4.05E-02
109926,3.57E-03,4.03E-02
109927,3.57E-03,4.01E-02
109928,3.57E-03,4.00E-02
109929,3.57E-03,3.98E-02
109930,3.57E-03,3.96E-02
109931,3.57E-03,3.94E-02
109932,3.58E-03,3.92E-02
109933,3.58E-03,3.91E-02
109934,3.58E-03,3.89E-02
109935,3.58E-03,3.87E-02
109936,3.58E-03,3.85E-02
109937,3.58E-03,3.83E-02
109938,3.58E-03,3.80E-02
109939,3.58E-03,3.78E-02
109940,3.58E-03,3.76E-02
109941,3.58E-03,3.74E-02
109942,3.58E-03,3.72E-02
109943,3.58E-03,3.69E-02
109944,3.58E-03,3.67E-02
109945,3.58E-03,3.65E-02
109946,3.58E-03,3.62E-02
109947,3.58E-03,3.60E-02
109948,3.58E-03,3.58E-02
109949,3.58E-03,3.55E-02
109950,3.58E-03,3.53E-02
109951,3.58E-03,3.50E-02
109952,3.59E-03,3.48E-02
109953,3.59E-03,3.45E-02
109954,3.59E-03,3.43E-02
109955,3.59E-03,3.40E-02
109956,3.59E-03,3.37E-02
109957,3.59E-03,3.35E-02
109958,3.59E-03,3.32E-02
109959,3.59E-03,3.29E-02
109960,3.59E-03,3.27E-02
109961,3.59E-03,3.24E-02
109962,3.59E-03,3.21E-02
109963,3.59E-03,3.18E-02
109964,3.59E-03,3.15E-02
109965,3.59E-03,3.13E-02
109966,3.59E-03,3.10E-02
109967,3.59E-03,3.07E-02
109968,3.59E-03,3.04E-02
109969,3.59E-03,3.01E-02
109970,3.59E-03,2.98E-02
109971,3.59E-03,2.95E-02
109972,3.60E-03,2.92E-02
109973,3.60E-03,2.89E-02
109974,3.60E-03,2.86E-02
109975,3.60E-03,2.82E-02
109976,3.60E-03,2.79E-02
109977,3.60E-03,2.76E-02
109978,3.60E-03,2.73E-02
109979,3.60E-03,2.70E-02
109980,3.60E-03,2.66E-02
109981,3.60E-03,2.63E-02
109982,3.60E-03,2.60E-02
109983,3.60E-03,2.56E-02
109984,3.60E-03,2.53E-02
109985,3.59E-03,4.17E-02
109986,3.59E-03,4.17E-02
109987,3.59E-03,4.16E-02
109988,3.59E-03,4.14E-02
109989,3.59E-03,4.12E-02
109990,3.59E-03,4.10E-02
109991,3.59E-03,4.08E-02
109992,3.59E-03,4.06E-02
109993,3.59E-03,4.04E-02
109994,3.59E-03,4.02E-02
109995,3.59E-03,4.00E-02
109996,3.59E-03,3.98E-02
109997,3.59E-03,3.96E-02
109998,3.59E-03,3.95E-02
109999,3.59E-03,3.93E-02
110000,3.59E-03,3.91E-02
110001,3.59E-03,3.89E-02
110002,3.60E-03,3.87E-02
110003,3.60E-03,3.85E-02
110004,3.60E-03,3.83E-02
110005,3.60E-03,3.82E-02
110006,3.60E-03,3.80E-02
110007,3.60E-03,3.78E-02
110008,3.60E-03,3.75E-02
110009,3.60E-03,3.73E-02
110010,3.60E-03,3.71E-02
110011,3.60E-03,3.69E-02
110012,3.60E-03,3.67E-02
110013,3.60E-03,3.65E-02
110014,3.60E-03,3.62E-02
110015,3.60E-03,3.60E-02
110016,3.60E-03,3.58E-02
110017,3.60E-03,3.55E-02
110018,3.60E-03,3.53E-02
110019,3.60E-03,3.51E-02
110020,3.60E-03,3.48E-02
110021,3.60E-03,3.46E-02
110022,3.60E-03,3.43E-02
110023,3.61E-03,3.41E-02
110024,3.61E-03,3.38E-02
110025,3.61E-03,3.36E-02
110026,3.61E-03,3.33E-02
110027,3.61E-03,3.31E-02
110028,3.61E-03,3.28E-02
110029,3.61E-03,3.25E-02
110030,3.61E-03,3.23E-02
110031,3.61E-03,3.20E-02
110032,3.61E-03,3.17E-02
110033,3.61E-03,3.14E-02
110034,3.61E-03,3.12E-02
110035,3.61E-03,3.09E-02
110036,3.61E-03,3.06E-02
110037,3.61E-03,3.03E-02
110038,3.61E-03,3.00E-02
110039,3.61E-03,2.97E-02
110040,3.61E-03,2.94E-02
110041,3.61E-03,2.91E-02
110042,3.61E-03,2.88E-02
110043,3.62E-03,2.85E-02
110044,3.62E-03,2.82E-02
110045,3.62E-03,2.79E-02
110046,3.62E-03,2.76E-02
110047,3.62E-03,2.73E-02
110048,3.62E-03,2.70E-02
110049,3.62E-03,2.66E-02
110050,3.62E-03,2.63E-02
110051,3.62E-03,2.60E-02
110052,3.62E-03,2.57E-02
110053,3.62E-03,2.53E-02
110054,3.61E-03,4.10E-02
110055,3.61E-03,4.11E-02
110056,3.61E-03,4.11E-02
110057,3.61E-03,4.10E-02
110058,3.61E-03,4.08E-02
110059,3.61E-03,4.07E-02
110060,3.61E-03,4.05E-02
110061,3.61E-03,4.03E-02
110062,3.61E-03,4.01E-02
110063,3.61E-03,3.99E-02
110064,3.62E-03,3.97E-02
110065,3.62E-03,3.95E-02
110066,3.62E-03,3.93E-02
110067,3.62E-03,3.91E-02
110068,3.62E-03,3.90E-02
110069,3.62E-03,3.88E-02
110070,3.62E-03,3.86E-02
110071,3.62E-03,3.84E-02
110072,3.62E-03,3.82E-02
110073,3.62E-03,3.80E-02
110074,3.62E-03,3.78E-02
110075,3.62E-03,3.77E-02
110076,3.62E-03,3.75E-02
110077,3.62E-03,3.73E-02
110078,3.62E-03,3.71E-02
110079,3.62E-03,3.68E-02
110080,3.62E-03,3.66E-02
110081,3.62E-03,3.64E-02
110082,3.62E-03,3.62E-02
110083,3.62E-03,3.60E-02
110084,3.62E-03,3.58E-02
110085,3.62E-03,3.55E-02
110086,3.62E-03,3.53E-02
110087,3.62E-03,3.51E-02
110088,3.62E-03,3.49E-02
110089,3.63E-03,3.46E-02
110090,3.63E-03,3.44E-02
110091,3.63E-03,3.42E-02
110092,3.63E-03,3.39E-02
110093,3.63E-03,3.37E-02
110094,3.63E-03,3.34E-02
110095,3.63E-03,3.32E-02
110096,3.63E-03,3.29E-02
110097,3.63E-03,3.27E-02
110098,3.63E-03,3.24E-02
110099,3.63E-03,3.21E-02
110100,3.63E-03,3.19E-02
110101,3.63E-03,3.16E-02
110102,3.63E-03,3.13E-02
110103,3.63E-03,3.11E-02
110104,3.63E-03,3.08E-02
110105,3.63E-03,3.05E-02
110106,3.63E-03,3.02E-02
110107,3.63E-03,3.00E-02
110108,3.63E-03,2.97E-02
110109,3.63E-03,2.94E-02
110110,3.63E-03,2.91E-02
110111,3.63E-03,2.88E-02
110112,3.63E-03,2.85E-02
110113,3.63E-03,2.82E-02
110114,3.64E-03,2.79E-02
110115,3.64E-03,2.76E-02
110116,3.64E-03,2.73E-02
110117,3.64E-03,2.70E-02
110118,3.64E-03,2.66E-02
110119,3.64E-03,2.63E-02
110120,3.64E-03,2.60E-02
110121,3.64E-03,2.57E-02
110122,3.64E-03,2.54E-02
110123,3.63E-03,4.05E-02
110124,3.63E-03,4.06E-02
110125,3.63E-03,4.06E-02
110126,3.63E-03,4.06E-02
110127,3.64E-03,4.05E-02
110128,3.64E-03,4.03E-02
110129,3.64E-03,4.02E-02
110130,3.64E-03,4.00E-02
110131,3.64E-03,3.98E-02
110132,3.64E-03,3.96E-02
110133,3.64E-03,3.94E-02
110134,3.64E-03,3.92E-02
110135,3.64E-03,3.90E-02
110136,3.64E-03,3.88E-02
110137,3.64E-03,3.86E-02
110138,3.64E-03,3.85E-02
110139,3.64E-03,3.83E-02
110140,3.64E-03,3.81E-02
110141,3.64E-03,3.79E-02
110142,3.64E-03,3.77E-02
110143,3.64E-03,3.75E-02
110144,3.64E-03,3.74E-02
110145,3.64E-03,3.72E-02
110146,3.64E-03,3.70E-02
110147,3.64E-03,3.68E-02
110148,3.64E-03,3.66E-02
110149,3.64E-03,3.64E-02
110150,3.64E-03,3.62E-02
110151,3.64E-03,3.60E-02
110152,3.64E-03,3.57E-02
110153,3.64E-03,3.55E-02
110154,3.64E-03,3.53E-02
110155,3.64E-03,3.51E-02
110156,3.64E-03,3.49E-02
110157,3.64E-03,3.47E-02
110158,3.65E-03,3.44E-02
110159,3.65E-03,3.42E-02
110160,3.65E-03,3.40E-02
110161,3.65E-03,3.37E-02
110162,3.65E-03,3.35E-02
110163,3.65E-03,3.33E-02
110164,3.65E-03,3.30E-02
110165,3.65E-03,3.28E-02
110166,3.65E-03,3.25E-02
110167,3.65E-03,3.23E-02
110168,3.65E-03,3.20E-02
110169,3.65E-03,3.18E-02
110170,3.65E-03,3.15E-02
110171,3.65E-03,3.13E-02
110172,3.65E-03,3.10E-02
110173,3.65E-03,3.07E-02
110174,3.65E-03,3.04E-02
110175,3.65E-03,3.02E-02
110176,3.65E-03,2.99E-02
110177,3.65E-03,2.96E-02
110178,3.65E-03,2.93E-02
110179,3.65E-03,2.90E-02
110180,3.65E-03,2.88E-02
110181,3.65E-03,2.85E-02
110182,3.65E-03,2.82E-02
110183,3.65E-03,2.79E-02
110184,3.65E-03,2.76E-02
110185,3.65E-03,2.73E-02
110186,3.65E-03,2.70E-02
110187,3.65E-03,2.67E-02
110188,3.65E-03,2.63E-02
110189,3.66E-03,2.60E-02
110190,3.66E-03,2.57E-02
110191,3.66E-03,2.54E-02
110192,3.66E-03,4.02E-02
110193,3.66E-03,4.03E-02
110194,3.66E-03,4.03E-02
110195,3.66E-03,4.02E-02
110196,3.66E-03,4.01E-02
110197,3.66E-03,4.00E-02
110198,3.66E-03,3.98E-02
110199,3.66E-03,3.96E-02
110200,3.66E-03,3.94E-02
110201,3.66E-03,3.93E-02
110202,3.66E-03,3.91E-02
110203,3.66E-03,3.89E-02
110204,3.66E-03,3.87E-02
110205,3.66E-03,3.85E-02
110206,3.66E-03,3.83E-02
110207,3.66E-03,3.81E-02
110208,3.66E-03,3.80E-02
110209,3.66E-03,3.78E-02
110210,3.66E-03,3.76E-02
110211,3.66E-03,3.74E-02
110212,3.66E-03,3.72E-02
110213,3.66E-03,3.71E-02
110214,3.66E-03,3.69E-02
110215,3.66E-03,3.67E-02
110216,3.66E-03,3.65E-02
110217,3.66E-03,3.63E-02
110218,3.66E-03,3.61E-02
110219,3.66E-03,3.59E-02
110220,3.66E-03,3.57E-02
110221,3.66E-03,3.55E-02
110222,3.66E-03,3.53E-02
110223,3.66E-03,3.51E-02
110224,3.66E-03,3.49E-02
110225,3.66E-03,3.47E-02
110226,3.66E-03,3.44E-02
110227,3.66E-03,3.42E-02
110228,3.66E-03,3.40E-02
110229,3.67E-03,3.38E-02
110230,3.67E-03,3.36E-02
110231,3.67E-03,3.33E-02
110232,3.67E-03,3.31E-02
110233,3.67E-03,3.29E-02
110234,3.67E-03,3.26E-02
110235,3.67E-03,3.24E-02
110236,3.67E-03,3.22E-02
110237,3.67E-03,3.19E-02
110238,3.67E-03,3.17E-02
110239,3.67E-03,3.14E-02
110240,3.67E-03,3.12E-02
110241,3.67E-03,3.09E-02
110242,3.67E-03,3.06E-02
110243,3.67E-03,3.04E-02
110244,3.67E-03,3.01E-02
110245,3.67E-03,2.98E-02
110246,3.67E-03,2.96E-02
110247,3.67E-03,2.93E-02
110248,3.67E-03,2.90E-02
110249,3.67E-03,2.87E-02
110250,3.67E-03,2.84E-02
110251,3.67E-03,2.81E-02
110252,3.67E-03,2.79E-02
110253,3.67E-03,2.76E-02
110254,3.67E-03,2.73E-02
110255,3.67E-03,2.70E-02
110256,3.67E-03,2.67E-02
110257,3.67E-03,2.64E-02
110258,3.67E-03,2.60E-02
110259,3.67E-03,2.57E-02
110260,3.67E-03,2.54E-02
110261,3.68E-03,4.01E-02
110262,3.68E-03,4.01E-02
110263,3.68E-03,4.00E-02
110264,3.68E-03,3.99E-02
110265,3.68E-03,3.98E-02
110266,3.68E-03,3.96E-02
110267,3.68E-03,3.95E-02
110268,3.68E-03,3.93E-02
110269,3.68E-03,3.91E-02
110270,3.68E-03,3.89E-02
110271,3.68E-03,3.87E-02
110272,3.68E-03,3.86E-02
110273,3.68E-03,3.84E-02
110274,3.68E-03,3.82E-02
110275,3.68E-03,3.80E-02
110276,3.68E-03,3.78E-02
110277,3.68E-03,3.77E-02
110278,3.68E-03,3.75E-02
110279,3.68E-03,3.73E-02
110280,3.68E-03,3.71E-02
110281,3.68E-03,3.69E-02
110282,3.68E-03,3.68E-02
110283,3.68E-03,3.66E-02
110284,3.68E-03,3.64E-02
110285,3.68E-03,3.62E-02
110286,3.68E-03,3.60E-02
110287,3.68E-03,3.58E-02
110288,3.68E-03,3.56E-02
110289,3.68E-03,3.54E-02
110290,3.68E-03,3.52E-02
110291,3.68E-03,3.50E-02
110292,3.68E-03,3.48E-02
110293,3.68E-03,3.46E-02
110294,3.68E-03,3.44E-02
110295,3.68E-03,3.42E-02
110296,3.68E-03,3.40E-02
110297,3.68E-03,3.38E-02
110298,3.68E-03,3.36E-02
110299,3.68E-03,3.34E-02
110300,3.68E-03,3.32E-02
110301,3.68E-03,3.29E-02
110302,3.68E-03,3.27E-02
110303,3.68E-03,3.25E-02
110304,3.68E-03,3.23E-02
110305,3.68E-03,3.20E-02
110306,3.69E-03,3.18E-02
110307,3.69E-03,3.15E-02
110308,3.69E-03,3.13E-02
110309,3.69E-03,3.11E-02
110310,3.69E-03,3.08E-02
110311,3.69E-03,3.06E-02
110312,3.69E-03,3.03E-02
110313,3.69E-03,3.00E-02
110314,3.69E-03,2.98E-02
110315,3.69E-03,2.95E-02
110316,3.69E-03,2.92E-02
110317,3.69E-03,2.90E-02
110318,3.69E-03,2.87E-02
110319,3.69E-03,2.84E-02
110320,3.69E-03,2.81E-02
110321,3.69E-03,2.78E-02
110322,3.69E-03,2.75E-02
110323,3.69E-03,2.73E-02
110324,3.69E-03,2.70E-02
110325,3.69E-03,2.67E-02
110326,3.69E-03,2.64E-02
110327,3.69E-03,2.61E-02
110328,3.69E-03,2.58E-02
110329,3.69E-03,2.55E-02
110330,3.69E-03,4.01E-02
110331,3.69E-03,3.99E-02
110332,3.69E-03,3.97E-02
110333,3.69E-03,3.96E-02
110334,3.69E-03,3.94E-02
110335,3.69E-03,3.92E-02
110336,3.69E-03,3.91E-02
110337,3.69E-03,3.89E-02
110338,3.69E-03,3.88E-02
110339,3.69E-03,3.86E-02
110340,3.69E-03,3.84E-02
110341,3.69E-03,3.82E-02
110342,3.69E-03,3.81E-02
110343,3.69E-03,3.79E-02
110344,3.70E-03,3.77E-02
110345,3.70E-03,3.75E-02
110346,3.70E-03,3.73E-02
110347,3.70E-03,3.72E-02
110348,3.70E-03,3.70E-02
110349,3.70E-03,3.68E-02
110350,3.70E-03,3.66E-02
110351,3.70E-03,3.65E-02
110352,3.70E-03,3.63E-02
110353,3.70E-03,3.61E-02
110354,3.70E-03,3.59E-02
110355,3.70E-03,3.57E-02
110356,3.70E-03,3.56E-02
110357,3.70E-03,3.54E-02
110358,3.70E-03,3.52E-02
110359,3.70E-03,3.50E-02
110360,3.70E-03,3.48E-02
110361,3.70E-03,3.46E-02
110362,3.70E-03,3.44E-02
110363,3.70E-03,3.42E-02
110364,3.70E-03,3.40E-02
110365,3.70E-03,3.38E-02
110366,3.70E-03,3.36E-02
110367,3.70E-03,3.34E-02
110368,3.70E-03,3.32E-02
110369,3.70E-03,3.30E-02
110370,3.70E-03,3.28E-02
110371,3.70E-03,3.26E-02
110372,3.70E-03,3.23E-02
110373,3.70E-03,3.21E-02
110374,3.70E-03,3.19E-02
110375,3.70E-03,3.17E-02
110376,3.70E-03,3.14E-02
110377,3.70E-03,3.12E-02
110378,3.70E-03,3.10E-02
110379,3.70E-03,3.07E-02
110380,3.70E-03,3.05E-02
110381,3.70E-03,3.02E-02
110382,3.70E-03,3.00E-02
110383,3.70E-03,2.97E-02
110384,3.70E-03,2.94E-02
110385,3.70E-03,2.92E-02
110386,3.70E-03,2.89E-02
110387,3.70E-03,2.86E-02
110388,3.70E-03,2.84E-02
110389,3.70E-03,2.81E-02
110390,3.70E-03,2.78E-02
110391,3.70E-03,2.75E-02
110392,3.71E-03,2.72E-02
110393,3.71E-03,2.70E-02
110394,3.71E-03,2.67E-02
110395,3.71E-03,2.64E-02
110396,3.71E-03,2.61E-02
110397,3.71E-03,2.58E-02
110398,3.71E-03,2.55E-02
110399,3.71E-03,4.00E-02
110400,3.71E-03,3.97E-02
110401,3.71E-03,3.95E-02
110402,3.71E-03,3.92E-02
110403,3.71E-03,3.91E-02
110404,3.71E-03,3.89E-02
110405,3.71E-03,3.87E-02
110406,3.71E-03,3.86E-02
110407,3.71E-03,3.84E-02
110408,3.71E-03,3.83E-02
110409,3.71E-03,3.81E-02
110410,3.71E-03,3.79E-02
110411,3.71E-03,3.77E-02
110412,3.71E-03,3.76E-02
110413,3.71E-03,3.74E-02
110414,3.71E-03,3.72E-02
110415,3.71E-03,3.70E-02
110416,3.71E-03,3.69E-02
110417,3.71E-03,3.67E-02
110418,3.71E-03,3.65E-02
110419,3.71E-03,3.63E-02
110420,3.71E-03,3.62E-02
110421,3.71E-03,3.60E-02
110422,3.71E-03,3.58E-02
110423,3.71E-03,3.56E-02
110424,3.71E-03,3.55E-02
110425,3.71E-03,3.53E-02
110426,3.71E-03,3.51E-02
110427,3.71E-03,3.49E-02
110428,3.71E-03,3.48E-02
110429,3.71E-03,3.46E-02
110430,3.71E-03,3.44E-02
110431,3.71E-03,3.42E-02
110432,3.71E-03,3.40E-02
110433,3.71E-03,3.38E-02
110434,3.71E-03,3.36E-02
110435,3.71E-03,3.34E-02
110436,3.72E-03,3.32E-02
110437,3.72E-03,3.30E-02
110438,3.72E-03,3.28E-02
110439,3.72E-03,3.26E-02
110440,3.72E-03,3.24E-02
110441,3.72E-03,3.22E-02
110442,3.72E-03,3.20E-02
110443,3.72E-03,3.18E-02
110444,3.72E-03,3.15E-02
110445,3.72E-03,3.13E-02
110446,3.72E-03,3.11E-02
110447,3.72E-03,3.09E-02
110448,3.72E-03,3.06E-02
110449,3.72E-03,3.04E-02
110450,3.72E-03,3.01E-02
110451,3.72E-03,2.99E-02
110452,3.72E-03,2.96E-02
110453,3.72E-03,2.94E-02
110454,3.72E-03,2.91E-02
110455,3.72E-03,2.89E-02
110456,3.72E-03,2.86E-02
110457,3.72E-03,2.83E-02
110458,3.72E-03,2.81E-02
110459,3.72E-03,2.78E-02
110460,3.72E-03,2.75E-02
110461,3.72E-03,2.72E-02
110462,3.72E-03,2.70E-02
110463,3.72E-03,2.67E-02
110464,3.72E-03,2.64E-02
110465,3.72E-03,2.61E-02
110466,3.72E-03,2.58E-02
110467,3.72E-03,2.55E-02
110468,3.72E-03,3.98E-02
110469,3.72E-03,3.95E-02
110470,3.72E-03,3.92E-02
110471,3.72E-03,3.89E-02
110472,3.72E-03,3.87E-02
110473,3.72E-03,3.86E-02
110474,3.72E-03,3.84E-02
110475,3.72E-03,3.82E-02
110476,3.72E-03,3.81E-02
110477,3.72E-03,3.79E-02
110478,3.72E-03,3.78E-02
110479,3.72E-03,3.76E-02
110480,3.72E-03,3.74E-02
110481,3.72E-03,3.73E-02
110482,3.72E-03,3.71E-02
110483,3.72E-03,3.69E-02
110484,3.72E-03,3.67E-02
110485,3.72E-03,3.66E-02
110486,3.72E-03,3.64E-02
110487,3.72E-03,3.62E-02
110488,3.72E-03,3.60E-02
110489,3.73E-03,3.59E-02
110490,3.73E-03,3.57E-02
110491,3.73E-03,3.55E-02
110492,3.73E-03,3.54E-02
110493,3.73E-03,3.52E-02
110494,3.73E-03,3.50E-02
110495,3.73E-03,3.49E-02
110496,3.73E-03,3.47E-02
110497,3.73E-03,3.45E-02
110498,3.73E-03,3.43E-02
110499,3.73E-03,3.42E-02
110500,3.73E-03,3.40E-02
110501,3.73E-03,3.38E-02
110502,3.73E-03,3.36E-02
110503,3.73E-03,3.34E-02
110504,3.73E-03,3.32E-02
110505,3.73E-03,3.30E-02
110506,3.73E-03,3.29E-02
110507,3.73E-03,3.27E-02
110508,3.73E-03,3.25E-02
110509,3.73E-03,3.23E-02
110510,3.73E-03,3.21E-02
110511,3.73E-03,3.18E-02
110512,3.73E-03,3.16E-02
110513,3.73E-03,3.14E-02
110514,3.73E-03,3.12E-02
110515,3.73E-03,3.10E-02
110516,3.73E-03,3.08E-02
110517,3.73E-03,3.05E-02
110518,3.73E-03,3.03E-02
110519,3.73E-03,3.01E-02
110520,3.73E-03,2.98E-02
110521,3.74E-03,2.96E-02
110522,3.74E-03,2.93E-02
110523,3.74E-03,2.91E-02
110524,3.74E-03,2.88E-02
110525,3.74E-03,2.86E-02
110526,3.74E-03,2.83E-02
110527,3.74E-03,2.81E-02
110528,3.74E-03,2.78E-02
110529,3.74E-03,2.75E-02
110530,3.74E-03,2.72E-02
110531,3.74E-03,2.70E-02
110532,3.74E-03,2.67E-02
110533,3.74E-03,2.64E-02
110534,3.74E-03,2.61E-02
110535,3.74E-03,2.58E-02
110536,3.74E-03,2.55E-02
110537,3.73E-03,3.95E-02
110538,3.73E-03,3.91E-02
110539,3.73E-03,3.89E-02
110540,3.73E-03,3.86E-02
110541,3.73E-03,3.84E-02
110542,3.73E-03,3.82E-02
110543,3.73E-03,3.81E-02
110544,3.73E-03,3.79E-02
110545,3.73E-03,3.78E-02
110546,3.73E-03,3.76E-02
110547,3.73E-03,3.74E-02
110548,3.74E-03,3.73E-02
110549,3.74E-03,3.71E-02
110550,3.74E-03,3.69E-02
110551,3.74E-03,3.68E-02
110552,3.74E-03,3.66E-02
110553,3.74E-03,3.64E-02
110554,3.74E-03,3.63E-02
110555,3.74E-03,3.61E-02
110556,3.74E-03,3.59E-02
110557,3.74E-03,3.57E-02
110558,3.74E-03,3.56E-02
110559,3.74E-03,3.54E-02
110560,3.74E-03,3.53E-02
110561,3.74E-03,3.51E-02
110562,3.74E-03,3.49E-02
110563,3.74E-03,3.48E-02
110564,3.74E-03,3.46E-02
110565,3.74E-03,3.44E-02
110566,3.74E-03,3.43E-02
110567,3.74E-03,3.41E-02
110568,3.74E-03,3.39E-02
110569,3.74E-03,3.38E-02
110570,3.74E-03,3.36E-02
110571,3.74E-03,3.34E-02
110572,3.74E-03,3.32E-02
110573,3.75E-03,3.31E-02
110574,3.75E-03,3.29E-02
110575,3.75E-03,3.27E-02
110576,3.75E-03,3.25E-02
110577,3.75E-03,3.23E-02
110578,3.75E-03,3.21E-02
110579,3.75E-03,3.19E-02
110580,3.75E-03,3.17E-02
110581,3.75E-03,3.15E-02
110582,3.75E-03,3.13E-02
110583,3.75E-03,3.11E-02
110584,3.75E-03,3.09E-02
110585,3.75E-03,3.07E-02
110586,3.75E-03,3.05E-02
110587,3.75E-03,3.02E-02
110588,3.75E-03,3.00E-02
110589,3.75E-03,2.98E-02
110590,3.75E-03,2.95E-02
110591,3.75E-03,2.93E-02
110592,3.75E-03,2.91E-02
110593,3.75E-03,2.88E-02
110594,3.75E-03,2.86E-02
110595,3.75E-03,2.83E-02
110596,3.75E-03,2.80E-02
110597,3.75E-03,2.78E-02
110598,3.75E-03,2.75E-02
110599,3.76E-03,2.73E-02
110600,3.76E-03,2.70E-02
110601,3.76E-03,2.67E-02
110602,3.76E-03,2.64E-02
110603,3.76E-03,2.61E-02
110604,3.76E-03,2.58E-02
110605,3.76E-03,2.56E-02
110606,3.74E-03,3.90E-02
110607,3.74E-03,3.87E-02
110608,3.74E-03,3.85E-02
110609,3.74E-03,3.83E-02
110610,3.75E-03,3.81E-02
110611,3.75E-03,3.80E-02
110612,3.75E-03,3.78E-02
110613,3.75E-03,3.76E-02
110614,3.75E-03,3.75E-02
110615,3.75E-03,3.73E-02
110616,3.75E-03,3.71E-02
110617,3.75E-03,3.70E-02
110618,3.75E-03,3.68E-02
110619,3.75E-03,3.66E-02
110620,3.75E-03,3.65E-02
110621,3.75E-03,3.63E-02
110622,3.75E-03,3.61E-02
110623,3.75E-03,3.59E-02
110624,3.75E-03,3.58E-02
110625,3.75E-03,3.56E-02
110626,3.75E-03,3.55E-02
110627,3.75E-03,3.53E-02
110628,3.75E-03,3.51E-02
110629,3.75E-03,3.50E-02
110630,3.75E-03,3.48E-02
110631,3.76E-03,3.47E-02
110632,3.76E-03,3.45E-02
110633,3.76E-03,3.43E-02
110634,3.76E-03,3.42E-02
110635,3.76E-03,3.40E-02
110636,3.76E-03,3.39E-02
110637,3.76E-03,3.37E-02
110638,3.76E-03,3.35E-02
110639,3.76E-03,3.34E-02
110640,3.76E-03,3.32E-02
110641,3.76E-03,3.30E-02
110642,3.76E-03,3.29E-02
110643,3.76E-03,3.27E-02
110644,3.76E-03,3.25E-02
110645,3.76E-03,3.23E-02
110646,3.76E-03,3.22E-02
110647,3.76E-03,3.20E-02
110648,3.76E-03,3.18E-02
110649,3.76E-03,3.16E-02
110650,3.76E-03,3.14E-02
110651,3.76E-03,3.12E-02
110652,3.77E-03,3.10E-02
110653,3.77E-03,3.08E-02
110654,3.77E-03,3.06E-02
110655,3.77E-03,3.04E-02
110656,3.77E-03,3.02E-02
110657,3.77E-03,2.99E-02
110658,3.77E-03,2.97E-02
110659,3.77E-03,2.95E-02
110660,3.77E-03,2.93E-02
110661,3.77E-03,2.90E-02
110662,3.77E-03,2.88E-02
110663,3.77E-03,2.85E-02
110664,3.77E-03,2.83E-02
110665,3.77E-03,2.80E-02
110666,3.77E-03,2.78E-02
110667,3.77E-03,2.75E-02
110668,3.77E-03,2.73E-02
110669,3.77E-03,2.70E-02
110670,3.77E-03,2.67E-02
110671,3.77E-03,2.64E-02
110672,3.77E-03,2.62E-02
110673,3.78E-03,2.59E-02
110674,3.78E-03,2.56E-02
110675,3.76E-03,3.83E-02
110676,3.76E-03,3.82E-02
110677,3.76E-03,3.81E-02
110678,3.76E-03,3.80E-02
110679,3.76E-03,3.78E-02
110680,3.76E-03,3.77E-02
110681,3.76E-03,3.75E-02
110682,3.76E-03,3.74E-02
110683,3.76E-03,3.72E-02
110684,3.76E-03,3.70E-02
110685,3.76E-03,3.68E-02
110686,3.76E-03,3.67E-02
110687,3.77E-03,3.65E-02
110688,3.77E-03,3.63E-02
110689,3.77E-03,3.61E-02
110690,3.77E-03,3.60E-02
110691,3.77E-03,3.58E-02
110692,3.77E-03,3.56E-02
110693,3.77E-03,3.55E-02
110694,3.77E-03,3.53E-02
110695,3.77E-03,3.52E-02
110696,3.77E-03,3.50E-02
110697,3.77E-03,3.48E-02
110698,3.77E-03,3.47E-02
110699,3.77E-03,3.45E-02
110700,3.77E-03,3.44E-02
110701,3.77E-03,3.42E-02
110702,3.77E-03,3.41E-02
110703,3.77E-03,3.39E-02
110704,3.77E-03,3.38E-02
110705,3.77E-03,3.36E-02
110706,3.78E-03,3.35E-02
110707,3.78E-03,3.33E-02
110708,3.78E-03,3.32E-02
110709,3.78E-03,3.30E-02
110710,3.78E-03,3.28E-02
110711,3.78E-03,3.27E-02
110712,3.78E-03,3.25E-02
110713,3.78E-03,3.23E-02
110714,3.78E-03,3.22E-02
110715,3.78E-03,3.20E-02
110716,3.78E-03,3.18E-02
110717,3.78E-03,3.16E-02
110718,3.78E-03,3.15E-02
110719,3.78E-03,3.13E-02
110720,3.78E-03,3.11E-02
110721,3.78E-03,3.09E-02
110722,3.78E-03,3.07E-02
110723,3.78E-03,3.05E-02
110724,3.78E-03,3.03E-02
110725,3.78E-03,3.01E-02
110726,3.79E-03,2.99E-02
110727,3.79E-03,2.97E-02
110728,3.79E-03,2.94E-02
110729,3.79E-03,2.92E-02
110730,3.79E-03,2.90E-02
110731,3.79E-03,2.88E-02
110732,3.79E-03,2.85E-02
110733,3.79E-03,2.83E-02
110734,3.79E-03,2.80E-02
110735,3.79E-03,2.78E-02
110736,3.79E-03,2.75E-02
110737,3.79E-03,2.73E-02
110738,3.79E-03,2.70E-02
110739,3.79E-03,2.68E-02
110740,3.79E-03,2.65E-02
110741,3.79E-03,2.62E-02
110742,3.79E-03,2.59E-02
110743,3.79E-03,2.57E-02
110744,3.78E-03,3.77E-02
110745,3.78E-03,3.78E-02
110746,3.78E-03,3.78E-02
110747,3.78E-03,3.77E-02
110748,3.78E-03,3.76E-02
110749,3.78E-03,3.74E-02
110750,3.78E-03,3.73E-02
110751,3.78E-03,3.71E-02
110752,3.78E-03,3.69E-02
110753,3.78E-03,3.67E-02
110754,3.78E-03,3.65E-02
110755,3.78E-03,3.63E-02
110756,3.79E-03,3.62E-02
110757,3.79E-03,3.60E-02
110758,3.79E-03,3.58E-02
110759,3.79E-03,3.56E-02
110760,3.79E-03,3.55E-02
110761,3.79E-03,3.53E-02
110762,3.79E-03,3.52E-02
110763,3.79E-03,3.50E-02
110764,3.79E-03,3.49E-02
110765,3.79E-03,3.47E-02
110766,3.79E-03,3.46E-02
110767,3.79E-03,3.44E-02
110768,3.79E-03,3.43E-02
110769,3.79E-03,3.41E-02
110770,3.79E-03,3.40E-02
110771,3.79E-03,3.38E-02
110772,3.79E-03,3.37E-02
110773,3.79E-03,3.35E-02
110774,3.79E-03,3.34E-02
110775,3.79E-03,3.33E-02
110776,3.80E-03,3.31E-02
110777,3.80E-03,3.30E-02
110778,3.80E-03,3.28E-02
110779,3.80E-03,3.27E-02
110780,3.80E-03,3.25E-02
110781,3.80E-03,3.23E-02
110782,3.80E-03,3.22E-02
110783,3.80E-03,3.20E-02
110784,3.80E-03,3.19E-02
110785,3.80E-03,3.17E-02
110786,3.80E-03,3.15E-02
110787,3.80E-03,3.13E-02
110788,3.80E-03,3.12E-02
110789,3.80E-03,3.10E-02
110790,3.80E-03,3.08E-02
110791,3.80E-03,3.06E-02
110792,3.80E-03,3.04E-02
110793,3.80E-03,3.02E-02
110794,3.80E-03,3.00E-02
110795,3.80E-03,2.98E-02
110796,3.80E-03,2.96E-02
110797,3.81E-03,2.94E-02
110798,3.81E-03,2.92E-02
110799,3.81E-03,2.90E-02
110800,3.81E-03,2.87E-02
110801,3.81E-03,2.85E-02
110802,3.81E-03,2.83E-02
110803,3.81E-03,2.80E-02
110804,3.81E-03,2.78E-02
110805,3.81E-03,2.76E-02
110806,3.81E-03,2.73E-02
110807,3.81E-03,2.71E-02
110808,3.81E-03,2.68E-02
110809,3.81E-03,2.65E-02
110810,3.81E-03,2.63E-02
110811,3.81E-03,2.60E-02
110812,3.81E-03,2.57E-02
110813,3.80E-03,3.72E-02
110814,3.80E-03,3.74E-02
110815,3.80E-03,3.74E-02
110816,3.80E-03,3.74E-02
110817,3.80E-03,3.73E-02
110818,3.80E-03,3.72E-02
110819,3.80E-03,3.70E-02
110820,3.80E-03,3.68E-02
110821,3.80E-03,3.66E-02
110822,3.80E-03,3.64E-02
110823,3.81E-03,3.62E-02
110824,3.81E-03,3.60E-02
110825,3.81E-03,3.58E-02
110826,3.81E-03,3.57E-02
110827,3.81E-03,3.55E-02
110828,3.81E-03,3.53E-02
110829,3.81E-03,3.52E-02
110830,3.81E-03,3.50E-02
110831,3.81E-03,3.48E-02
110832,3.81E-03,3.47E-02
110833,3.81E-03,3.46E-02
110834,3.81E-03,3.44E-02
110835,3.81E-03,3.43E-02
110836,3.81E-03,3.41E-02
110837,3.81E-03,3.40E-02
110838,3.81E-03,3.39E-02
110839,3.81E-03,3.37E-02
110840,3.81E-03,3.36E-02
110841,3.81E-03,3.34E-02
110842,3.81E-03,3.33E-02
110843,3.81E-03,3.32E-02
110844,3.81E-03,3.30E-02
110845,3.81E-03,3.29E-02
110846,3.82E-03,3.28E-02
110847,3.82E-03,3.26E-02
110848,3.82E-03,3.25E-02
110849,3.82E-03,3.23E-02
110850,3.82E-03,3.22E-02
110851,3.82E-03,3.20E-02
110852,3.82E-03,3.19E-02
110853,3.82E-03,3.17E-02
110854,3.82E-03,3.15E-02
110855,3.82E-03,3.14E-02
110856,3.82E-03,3.12E-02
110857,3.82E-03,3.10E-02
110858,3.82E-03,3.09E-02
110859,3.82E-03,3.07E-02
110860,3.82E-03,3.05E-02
110861,3.82E-03,3.03E-02
110862,3.82E-03,3.01E-02
110863,3.82E-03,3.00E-02
110864,3.82E-03,2.98E-02
110865,3.82E-03,2.96E-02
110866,3.82E-03,2.94E-02
110867,3.82E-03,2.91E-02
110868,3.83E-03,2.89E-02
110869,3.83E-03,2.87E-02
110870,3.83E-03,2.85E-02
110871,3.83E-03,2.83E-02
110872,3.83E-03,2.81E-02
110873,3.83E-03,2.78E-02
110874,3.83E-03,2.76E-02
110875,3.83E-03,2.73E-02
110876,3.83E-03,2.71E-02
110877,3.83E-03,2.69E-02
110878,3.83E-03,2.66E-02
110879,3.83E-03,2.63E-02
110880,3.83E-03,2.61E-02
110881,3.83E-03,2.58E-02
110882,3.83E-03,3.68E-02
110883,3.83E-03,3.71E-02
110884,3.83E-03,3.72E-02
110885,3.83E-03,3.71E-02
110886,3.83E-03,3.70E-02
110887,3.83E-03,3.69E-02
110888,3.83E-03,3.67E-02
110889,3.83E-03,3.65E-02
110890,3.83E-03,3.63E-02
110891,3.83E-03,3.61E-02
110892,3.83E-03,3.59E-02
110893,3.83E-03,3.57E-02
110894,3.83E-03,3.55E-02
110895,3.83E-03,3.53E-02
110896,3.83E-03,3.52E-02
110897,3.83E-03,3.50E-02
110898,3.83E-03,3.48E-02
110899,3.83E-03,3.47E-02
110900,3.83E-03,3.45E-02
110901,3.83E-03,3.44E-02
110902,3.83E-03,3.42E-02
110903,3.83E-03,3.41E-02
110904,3.83E-03,3.40E-02
110905,3.83E-03,3.38E-02
110906,3.83E-03,3.37E-02
110907,3.83E-03,3.36E-02
110908,3.83E-03,3.35E-02
110909,3.84E-03,3.33E-02
110910,3.84E-03,3.32E-02
110911,3.84E-03,3.31E-02
110912,3.84E-03,3.29E-02
110913,3.84E-03,3.28E-02
110914,3.84E-03,3.27E-02
110915,3.84E-03,3.25E-02
110916,3.84E-03,3.24E-02
110917,3.84E-03,3.23E-02
110918,3.84E-03,3.21E-02
110919,3.84E-03,3.20E-02
110920,3.84E-03,3.19E-02
110921,3.84E-03,3.17E-02
110922,3.84E-03,3.16E-02
110923,3.84E-03,3.14E-02
110924,3.84E-03,3.12E-02
110925,3.84E-03,3.11E-02
110926,3.84E-03,3.09E-02
110927,3.84E-03,3.08E-02
110928,3.84E-03,3.06E-02
110929,3.84E-03,3.04E-02
110930,3.84E-03,3.02E-02
110931,3.84E-03,3.01E-02
110932,3.84E-03,2.99E-02
110933,3.84E-03,2.97E-02
110934,3.84E-03,2.95E-02
110935,3.84E-03,2.93E-02
110936,3.84E-03,2.91E-02
110937,3.84E-03,2.89E-02
110938,3.84E-03,2.87E-02
110939,3.85E-03,2.85E-02
110940,3.85E-03,2.83E-02
110941,3.85E-03,2.81E-02
110942,3.85E-03,2.78E-02
110943,3.85E-03,2.76E-02
110944,3.85E-03,2.74E-02
110945,3.85E-03,2.72E-02
110946,3.85E-03,2.69E-02
110947,3.85E-03,2.67E-02
110948,3.85E-03,2.64E-02
110949,3.85E-03,2.62E-02
110950,3.85E-03,2.59E-02
110951,3.85E-03,3.69E-02
110952,3.85E-03,3.70E-02
110953,3.85E-03,3.70E-02
110954,3.85E-03,3.69E-02
110955,3.86E-03,3.68E-02
110956,3.86E-03,3.66E-02
110957,3.86E-03,3.64E-02
110958,3.86E-03,3.62E-02
110959,3.86E-03,3.60E-02
110960,3.86E-03,3.58E-02
110961,3.86E-03,3.55E-02
110962,3.86E-03,3.53E-02
110963,3.86E-03,3.52E-02
110964,3.86E-03,3.50E-02
110965,3.86E-03,3.48E-02
110966,3.86E-03,3.46E-02
110967,3.86E-03,3.45E-02
110968,3.86E-03,3.43E-02
110969,3.86E-03,3.42E-02
110970,3.86E-03,3.41E-02
110971,3.86E-03,3.39E-02
110972,3.86E-03,3.38E-02
110973,3.86E-03,3.37E-02
110974,3.86E-03,3.36E-02
110975,3.86E-03,3.34E-02
110976,3.86E-03,3.33E-02
110977,3.86E-03,3.32E-02
110978,3.86E-03,3.31E-02
110979,3.86E-03,3.30E-02
110980,3.86E-03,3.28E-02
110981,3.86E-03,3.27E-02
110982,3.86E-03,3.26E-02
110983,3.86E-03,3.25E-02
110984,3.86E-03,3.23E-02
110985,3.86E-03,3.22E-02
110986,3.86E-03,3.21E-02
110987,3.86E-03,3.20E-02
110988,3.86E-03,3.18E-02
110989,3.86E-03,3.17E-02
110990,3.86E-03,3.16E-02
110991,3.86E-03,3.14E-02
110992,3.86E-03,3.13E-02
110993,3.86E-03,3.11E-02
110994,3.86E-03,3.10E-02
110995,3.86E-03,3.08E-02
110996,3.86E-03,3.07E-02
110997,3.86E-03,3.05E-02
110998,3.86E-03,3.03E-02
110999,3.86E-03,3.02E-02
111000,3.86E-03,3.00E-02
111001,3.86E-03,2.98E-02
111002,3.86E-03,2.96E-02
111003,3.86E-03,2.95E-02
111004,3.86E-03,2.93E-02
111005,3.86E-03,2.91E-02
111006,3.86E-03,2.89E-02
111007,3.86E-03,2.87E-02
111008,3.86E-03,2.85E-02
111009,3.86E-03,2.83E-02
111010,3.86E-03,2.81E-02
111011,3.86E-03,2.79E-02
111012,3.86E-03,2.77E-02
111013,3.86E-03,2.74E-02
111014,3.86E-03,2.72E-02
111015,3.87E-03,2.70E-02
111016,3.87E-03,2.68E-02
111017,3.87E-03,2.65E-02
111018,3.87E-03,2.63E-02
111019,3.87E-03,2.60E-02
111020,3.87E-03,3.72E-02
111021,3.87E-03,3.70E-02
111022,3.87E-03,3.69E-02
111023,3.87E-03,3.67E-02
111024,3.87E-03,3.65E-02
111025,3.87E-03,3.63E-02
111026,3.87E-03,3.61E-02
111027,3.87E-03,3.58E-02
111028,3.87E-03,3.56E-02
111029,3.87E-03,3.54E-02
111030,3.87E-03,3.52E-02
111031,3.87E-03,3.50E-02
111032,3.87E-03,3.48E-02
111033,3.87E-03,3.46E-02
111034,3.87E-03,3.44E-02
111035,3.87E-03,3.43E-02
111036,3.87E-03,3.41E-02
111037,3.87E-03,3.40E-02
111038,3.87E-03,3.39E-02
111039,3.87E-03,3.37E-02
111040,3.87E-03,3.36E-02
111041,3.87E-03,3.35E-02
111042,3.87E-03,3.34E-02
111043,3.87E-03,3.33E-02
111044,3.87E-03,3.32E-02
111045,3.87E-03,3.30E-02
111046,3.87E-03,3.29E-02
111047,3.87E-03,3.28E-02
111048,3.87E-03,3.27E-02
111049,3.87E-03,3.26E-02
111050,3.87E-03,3.25E-02
111051,3.88E-03,3.24E-02
111052,3.88E-03,3.23E-02
111053,3.88E-03,3.21E-02
111054,3.88E-03,3.20E-02
111055,3.88E-03,3.19E-02
111056,3.88E-03,3.18E-02
111057,3.88E-03,3.17E-02
111058,3.88E-03,3.15E-02
111059,3.88E-03,3.14E-02
111060,3.88E-03,3.13E-02
111061,3.88E-03,3.11E-02
111062,3.88E-03,3.10E-02
111063,3.88E-03,3.09E-02
111064,3.88E-03,3.07E-02
111065,3.88E-03,3.06E-02
111066,3.88E-03,3.04E-02
111067,3.88E-03,3.03E-02
111068,3.88E-03,3.01E-02
111069,3.88E-03,2.99E-02
111070,3.88E-03,2.98E-02
111071,3.88E-03,2.96E-02
111072,3.88E-03,2.94E-02
111073,3.88E-03,2.92E-02
111074,3.88E-03,2.91E-02
111075,3.88E-03,2.89E-02
111076,3.88E-03,2.87E-02
111077,3.88E-03,2.85E-02
111078,3.88E-03,2.83E-02
111079,3.88E-03,2.81E-02
111080,3.88E-03,2.79E-02
111081,3.88E-03,2.77E-02
111082,3.88E-03,2.75E-02
111083,3.88E-03,2.73E-02
111084,3.88E-03,2.71E-02
111085,3.88E-03,2.68E-02
111086,3.88E-03,2.66E-02
111087,3.88E-03,2.64E-02
111088,3.88E-03,2.62E-02
111089,3.88E-03,3.74E-02
111090,3.88E-03,3.71E-02
111091,3.88E-03,3.68E-02
111092,3.88E-03,3.65E-02
111093,3.88E-03,3.63E-02
111094,3.88E-03,3.60E-02
111095,3.88E-03,3.57E-02
111096,3.88E-03,3.55E-02
111097,3.88E-03,3.52E-02
111098,3.88E-03,3.50E-02
111099,3.89E-03,3.48E-02
111100,3.89E-03,3.46E-02
111101,3.89E-03,3.44E-02
111102,3.89E-03,3.42E-02
111103,3.89E-03,3.41E-02
111104,3.89E-03,3.39E-02
111105,3.89E-03,3.38E-02
111106,3.89E-03,3.37E-02
111107,3.89E-03,3.35E-02
111108,3.89E-03,3.34E-02
111109,3.89E-03,3.33E-02
111110,3.89E-03,3.32E-02
111111,3.89E-03,3.31E-02
111112,3.89E-03,3.30E-02
111113,3.89E-03,3.29E-02
111114,3.89E-03,3.28E-02
111115,3.89E-03,3.27E-02
111116,3.89E-03,3.26E-02
111117,3.89E-03,3.25E-02
111118,3.89E-03,3.24E-02
111119,3.89E-03,3.23E-02
111120,3.89E-03,3.22E-02
111121,3.89E-03,3.21E-02
111122,3.89E-03,3.19E-02
111123,3.89E-03,3.18E-02
111124,3.89E-03,3.17E-02
111125,3.89E-03,3.16E-02
111126,3.89E-03,3.15E-02
111127,3.89E-03,3.14E-02
111128,3.89E-03,3.13E-02
111129,3.89E-03,3.11E-02
111130,3.89E-03,3.10E-02
111131,3.89E-03,3.09E-02
111132,3.89E-03,3.07E-02
111133,3.89E-03,3.06E-02
111134,3.89E-03,3.05E-02
111135,3.89E-03,3.03E-02
111136,3.89E-03,3.02E-02
111137,3.89E-03,3.00E-02
111138,3.89E-03,2.99E-02
111139,3.89E-03,2.97E-02
111140,3.89E-03,2.96E-02
111141,3.90E-03,2.94E-02
111142,3.90E-03,2.92E-02
111143,3.90E-03,2.91E-02
111144,3.90E-03,2.89E-02
111145,3.90E-03,2.87E-02
111146,3.90E-03,2.85E-02
111147,3.90E-03,2.83E-02
111148,3.90E-03,2.81E-02
111149,3.90E-03,2.80E-02
111150,3.90E-03,2.78E-02
111151,3.90E-03,2.76E-02
111152,3.90E-03,2.74E-02
111153,3.90E-03,2.72E-02
111154,3.90E-03,2.69E-02
111155,3.90E-03,2.67E-02
111156,3.90E-03,2.65E-02
111157,3.90E-03,2.63E-02
111158,3.90E-03,3.76E-02
111159,3.90E-03,3.71E-02
111160,3.90E-03,3.68E-02
111161,3.90E-03,3.64E-02
111162,3.90E-03,3.60E-02
111163,3.90E-03,3.57E-02
111164,3.90E-03,3.54E-02
111165,3.90E-03,3.51E-02
111166,3.90E-03,3.48E-02
111167,3.90E-03,3.46E-02
111168,3.90E-03,3.44E-02
111169,3.90E-03,3.42E-02
111170,3.90E-03,3.40E-02
111171,3.90E-03,3.38E-02
111172,3.90E-03,3.37E-02
111173,3.90E-03,3.36E-02
111174,3.90E-03,3.34E-02
111175,3.90E-03,3.33E-02
111176,3.90E-03,3.32E-02
111177,3.90E-03,3.31E-02
111178,3.90E-03,3.30E-02
111179,3.90E-03,3.29E-02
111180,3.90E-03,3.28E-02
111181,3.90E-03,3.27E-02
111182,3.90E-03,3.26E-02
111183,3.90E-03,3.25E-02
111184,3.90E-03,3.24E-02
111185,3.90E-03,3.23E-02
111186,3.90E-03,3.22E-02
111187,3.90E-03,3.21E-02
111188,3.91E-03,3.21E-02
111189,3.91E-03,3.20E-02
111190,3.91E-03,3.19E-02
111191,3.91E-03,3.18E-02
111192,3.91E-03,3.17E-02
111193,3.91E-03,3.15E-02
111194,3.91E-03,3.14E-02
111195,3.91E-03,3.13E-02
111196,3.91E-03,3.12E-02
111197,3.91E-03,3.11E-02
111198,3.91E-03,3.10E-02
111199,3.91E-03,3.09E-02
111200,3.91E-03,3.07E-02
111201,3.91E-03,3.06E-02
111202,3.91E-03,3.05E-02
111203,3.91E-03,3.04E-02
111204,3.91E-03,3.02E-02
111205,3.91E-03,3.01E-02
111206,3.91E-03,2.99E-02
111207,3.91E-03,2.98E-02
111208,3.91E-03,2.97E-02
111209,3.91E-03,2.95E-02
111210,3.91E-03,2.94E-02
111211,3.91E-03,2.92E-02
111212,3.91E-03,2.90E-02
111213,3.91E-03,2.89E-02
111214,3.91E-03,2.87E-02
111215,3.91E-03,2.85E-02
111216,3.91E-03,2.84E-02
111217,3.91E-03,2.82E-02
111218,3.91E-03,2.80E-02
111219,3.91E-03,2.78E-02
111220,3.91E-03,2.76E-02
111221,3.91E-03,2.74E-02
111222,3.91E-03,2.72E-02
111223,3.91E-03,2.70E-02
111224,3.92E-03,2.69E-02
111225,3.92E-03,2.67E-02
111226,3.92E-03,2.65E-02
111227,3.91E-03,3.77E-02
111228,3.91E-03,3.72E-02
111229,3.91E-03,3.67E-02
111230,3.91E-03,3.62E-02
111231,3.91E-03,3.58E-02
111232,3.91E-03,3.53E-02
111233,3.91E-03,3.50E-02
111234,3.91E-03,3.47E-02
111235,3.91E-03,3.44E-02
111236,3.91E-03,3.41E-02
111237,3.91E-03,3.39E-02
111238,3.91E-03,3.38E-02
111239,3.91E-03,3.36E-02
111240,3.91E-03,3.35E-02
111241,3.92E-03,3.33E-02
111242,3.92E-03,3.32E-02
111243,3.92E-03,3.31E-02
111244,3.92E-03,3.30E-02
111245,3.92E-03,3.29E-02
111246,3.92E-03,3.28E-02
111247,3.92E-03,3.27E-02
111248,3.92E-03,3.26E-02
111249,3.92E-03,3.25E-02
111250,3.92E-03,3.24E-02
111251,3.92E-03,3.23E-02
111252,3.92E-03,3.23E-02
111253,3.92E-03,3.22E-02
111254,3.92E-03,3.21E-02
111255,3.92E-03,3.20E-02
111256,3.92E-03,3.19E-02
111257,3.92E-03,3.18E-02
111258,3.92E-03,3.17E-02
111259,3.92E-03,3.17E-02
111260,3.92E-03,3.16E-02
111261,3.92E-03,3.15E-02
111262,3.92E-03,3.14E-02
111263,3.92E-03,3.13E-02
111264,3.92E-03,3.12E-02
111265,3.92E-03,3.11E-02
111266,3.92E-03,3.10E-02
111267,3.92E-03,3.09E-02
111268,3.92E-03,3.07E-02
111269,3.92E-03,3.06E-02
111270,3.92E-03,3.05E-02
111271,3.93E-03,3.04E-02
111272,3.93E-03,3.03E-02
111273,3.93E-03,3.01E-02
111274,3.93E-03,3.00E-02
111275,3.93E-03,2.99E-02
111276,3.93E-03,2.97E-02
111277,3.93E-03,2.96E-02
111278,3.93E-03,2.95E-02
111279,3.93E-03,2.93E-02
111280,3.93E-03,2.92E-02
111281,3.93E-03,2.90E-02
111282,3.93E-03,2.89E-02
111283,3.93E-03,2.87E-02
111284,3.93E-03,2.85E-02
111285,3.93E-03,2.84E-02
111286,3.93E-03,2.82E-02
111287,3.93E-03,2.80E-02
111288,3.93E-03,2.79E-02
111289,3.93E-03,2.77E-02
111290,3.93E-03,2.75E-02
111291,3.93E-03,2.73E-02
111292,3.93E-03,2.72E-02
111293,3.93E-03,2.70E-02
111294,3.93E-03,2.68E-02
111295,3.93E-03,2.66E-02
111296,3.92E-03,3.80E-02
111297,3.92E-03,3.73E-02
111298,3.92E-03,3.66E-02
111299,3.93E-03,3.60E-02
111300,3.93E-03,3.54E-02
111301,3.93E-03,3.49E-02
111302,3.93E-03,3.45E-02
111303,3.93E-03,3.42E-02
111304,3.93E-03,3.39E-02
111305,3.93E-03,3.37E-02
111306,3.93E-03,3.35E-02
111307,3.93E-03,3.33E-02
111308,3.93E-03,3.32E-02
111309,3.93E-03,3.31E-02
111310,3.93E-03,3.29E-02
111311,3.93E-03,3.28E-02
111312,3.93E-03,3.27E-02
111313,3.93E-03,3.27E-02
111314,3.93E-03,3.26E-02
111315,3.93E-03,3.25E-02
111316,3.93E-03,3.24E-02
111317,3.93E-03,3.23E-02
111318,3.93E-03,3.22E-02
111319,3.93E-03,3.22E-02
111320,3.93E-03,3.21E-02
111321,3.93E-03,3.20E-02
111322,3.93E-03,3.19E-02
111323,3.93E-03,3.19E-02
111324,3.93E-03,3.18E-02
111325,3.94E-03,3.17E-02
111326,3.94E-03,3.16E-02
111327,3.94E-03,3.15E-02
111328,3.94E-03,3.15E-02
111329,3.94E-03,3.14E-02
111330,3.94E-03,3.13E-02
111331,3.94E-03,3.12E-02
111332,3.94E-03,3.11E-02
111333,3.94E-03,3.10E-02
111334,3.94E-03,3.09E-02
111335,3.94E-03,3.08E-02
111336,3.94E-03,3.07E-02
111337,3.94E-03,3.06E-02
111338,3.94E-03,3.05E-02
111339,3.94E-03,3.04E-02
111340,3.94E-03,3.03E-02
111341,3.94E-03,3.02E-02
111342,3.94E-03,3.01E-02
111343,3.94E-03,2.99E-02
111344,3.94E-03,2.98E-02
111345,3.94E-03,2.97E-02
111346,3.94E-03,2.96E-02
111347,3.94E-03,2.94E-02
111348,3.94E-03,2.93E-02
111349,3.94E-03,2.91E-02
111350,3.95E-03,2.90E-02
111351,3.95E-03,2.89E-02
111352,3.95E-03,2.87E-02
111353,3.95E-03,2.86E-02
111354,3.95E-03,2.84E-02
111355,3.95E-03,2.82E-02
111356,3.95E-03,2.81E-02
111357,3.95E-03,2.79E-02
111358,3.95E-03,2.78E-02
111359,3.95E-03,2.76E-02
111360,3.95E-03,2.74E-02
111361,3.95E-03,2.73E-02
111362,3.95E-03,2.71E-02
111363,3.95E-03,2.69E-02
111364,3.95E-03,2.67E-02
111365,3.94E-03,3.84E-02
111366,3.94E-03,3.74E-02
111367,3.94E-03,3.65E-02
111368,3.94E-03,3.57E-02
111369,3.94E-03,3.50E-02
111370,3.94E-03,3.45E-02
111371,3.94E-03,3.40E-02
111372,3.94E-03,3.37E-02
111373,3.94E-03,3.34E-02
111374,3.94E-03,3.32E-02
111375,3.94E-03,3.31E-02
111376,3.94E-03,3.29E-02
111377,3.94E-03,3.28E-02
111378,3.94E-03,3.27E-02
111379,3.94E-03,3.26E-02
111380,3.94E-03,3.25E-02
111381,3.94E-03,3.24E-02
111382,3.94E-03,3.23E-02
111383,3.94E-03,3.22E-02
111384,3.94E-03,3.22E-02
111385,3.95E-03,3.21E-02
111386,3.95E-03,3.20E-02
111387,3.95E-03,3.20E-02
111388,3.95E-03,3.19E-02
111389,3.95E-03,3.18E-02
111390,3.95E-03,3.18E-02
111391,3.95E-03,3.17E-02
111392,3.95E-03,3.16E-02
111393,3.95E-03,3.16E-02
111394,3.95E-03,3.15E-02
111395,3.95E-03,3.14E-02
111396,3.95E-03,3.13E-02
111397,3.95E-03,3.13E-02
111398,3.95E-03,3.12E-02
111399,3.95E-03,3.11E-02
111400,3.95E-03,3.10E-02
111401,3.95E-03,3.10E-02
111402,3.95E-03,3.09E-02
111403,3.95E-03,3.08E-02
111404,3.95E-03,3.07E-02
111405,3.95E-03,3.06E-02
111406,3.96E-03,3.05E-02
111407,3.96E-03,3.04E-02
111408,3.96E-03,3.03E-02
111409,3.96E-03,3.02E-02
111410,3.96E-03,3.01E-02
111411,3.96E-03,3.00E-02
111412,3.96E-03,2.99E-02
111413,3.96E-03,2.97E-02
111414,3.96E-03,2.96E-02
111415,3.96E-03,2.95E-02
111416,3.96E-03,2.94E-02
111417,3.96E-03,2.93E-02
111418,3.96E-03,2.91E-02
111419,3.96E-03,2.90E-02
111420,3.96E-03,2.89E-02
111421,3.96E-03,2.87E-02
111422,3.96E-03,2.86E-02
111423,3.96E-03,2.84E-02
111424,3.96E-03,2.83E-02
111425,3.96E-03,2.81E-02
111426,3.97E-03,2.80E-02
111427,3.97E-03,2.78E-02
111428,3.97E-03,2.77E-02
111429,3.97E-03,2.75E-02
111430,3.97E-03,2.74E-02
111431,3.97E-03,2.72E-02
111432,3.97E-03,2.70E-02
111433,3.97E-03,2.69E-02
111434,3.94E-03,3.89E-02
111435,3.94E-03,3.75E-02
111436,3.94E-03,3.63E-02
111437,3.95E-03,3.53E-02
111438,3.95E-03,3.45E-02
111439,3.95E-03,3.39E-02
111440,3.95E-03,3.35E-02
111441,3.95E-03,3.32E-02
111442,3.95E-03,3.30E-02
111443,3.95E-03,3.28E-02
111444,3.95E-03,3.26E-02
111445,3.95E-03,3.25E-02
111446,3.95E-03,3.24E-02
111447,3.95E-03,3.23E-02
111448,3.95E-03,3.22E-02
111449,3.95E-03,3.21E-02
111450,3.95E-03,3.21E-02
111451,3.95E-03,3.20E-02
111452,3.96E-03,3.19E-02
111453,3.96E-03,3.19E-02
111454,3.96E-03,3.18E-02
111455,3.96E-03,3.18E-02
111456,3.96E-03,3.17E-02
111457,3.96E-03,3.16E-02
111458,3.96E-03,3.16E-02
111459,3.96E-03,3.15E-02
111460,3.96E-03,3.15E-02
111461,3.96E-03,3.14E-02
111462,3.96E-03,3.14E-02
111463,3.96E-03,3.13E-02
111464,3.96E-03,3.12E-02
111465,3.96E-03,3.12E-02
111466,3.96E-03,3.11E-02
111467,3.96E-03,3.10E-02
111468,3.97E-03,3.09E-02
111469,3.97E-03,3.09E-02
111470,3.97E-03,3.08E-02
111471,3.97E-03,3.07E-02
111472,3.97E-03,3.06E-02
111473,3.97E-03,3.06E-02
111474,3.97E-03,3.05E-02
111475,3.97E-03,3.04E-02
111476,3.97E-03,3.03E-02
111477,3.97E-03,3.02E-02
111478,3.97E-03,3.01E-02
111479,3.97E-03,3.00E-02
111480,3.97E-03,2.99E-02
111481,3.97E-03,2.98E-02
111482,3.97E-03,2.97E-02
111483,3.98E-03,2.96E-02
111484,3.98E-03,2.95E-02
111485,3.98E-03,2.93E-02
111486,3.98E-03,2.92E-02
111487,3.98E-03,2.91E-02
111488,3.98E-03,2.90E-02
111489,3.98E-03,2.89E-02
111490,3.98E-03,2.87E-02
111491,3.98E-03,2.86E-02
111492,3.98E-03,2.85E-02
111493,3.98E-03,2.83E-02
111494,3.98E-03,2.82E-02
111495,3.98E-03,2.80E-02
111496,3.98E-03,2.79E-02
111497,3.98E-03,2.78E-02
111498,3.98E-03,2.76E-02
111499,3.99E-03,2.75E-02
111500,3.99E-03,2.73E-02
111501,3.99E-03,2.72E-02
111502,3.99E-03,2.70E-02
111503,3.94E-03,3.93E-02
111504,3.94E-03,3.74E-02
111505,3.94E-03,3.58E-02
111506,3.94E-03,3.47E-02
111507,3.94E-03,3.39E-02
111508,3.94E-03,3.34E-02
111509,3.95E-03,3.30E-02
111510,3.95E-03,3.27E-02
111511,3.95E-03,3.25E-02
111512,3.95E-03,3.24E-02
111513,3.95E-03,3.22E-02
111514,3.95E-03,3.21E-02
111515,3.95E-03,3.20E-02
111516,3.95E-03,3.20E-02
111517,3.95E-03,3.19E-02
111518,3.95E-03,3.18E-02
111519,3.96E-03,3.18E-02
111520,3.96E-03,3.17E-02
111521,3.96E-03,3.17E-02
111522,3.96E-03,3.16E-02
111523,3.96E-03,3.15E-02
111524,3.96E-03,3.15E-02
111525,3.96E-03,3.14E-02
111526,3.96E-03,3.14E-02
111527,3.96E-03,3.14E-02
111528,3.96E-03,3.13E-02
111529,3.97E-03,3.12E-02
111530,3.97E-03,3.12E-02
111531,3.97E-03,3.11E-02
111532,3.97E-03,3.11E-02
111533,3.97E-03,3.10E-02
111534,3.97E-03,3.10E-02
111535,3.97E-03,3.09E-02
111536,3.97E-03,3.08E-02
111537,3.97E-03,3.08E-02
111538,3.97E-03,3.07E-02
111539,3.98E-03,3.06E-02
111540,3.98E-03,3.06E-02
111541,3.98E-03,3.05E-02
111542,3.98E-03,3.04E-02
111543,3.98E-03,3.03E-02
111544,3.98E-03,3.03E-02
111545,3.98E-03,3.02E-02
111546,3.98E-03,3.01E-02
111547,3.98E-03,3.00E-02
111548,3.98E-03,2.99E-02
111549,3.99E-03,2.98E-02
111550,3.99E-03,2.97E-02
111551,3.99E-03,2.96E-02
111552,3.99E-03,2.95E-02
111553,3.99E-03,2.94E-02
111554,3.99E-03,2.93E-02
111555,3.99E-03,2.92E-02
111556,3.99E-03,2.91E-02
111557,3.99E-03,2.90E-02
111558,3.99E-03,2.88E-02
111559,4.00E-03,2.87E-02
111560,4.00E-03,2.86E-02
111561,4.00E-03,2.85E-02
111562,4.00E-03,2.84E-02
111563,4.00E-03,2.82E-02
111564,4.00E-03,2.81E-02
111565,4.00E-03,2.80E-02
111566,4.00E-03,2.78E-02
111567,4.00E-03,2.77E-02
111568,4.00E-03,2.76E-02
111569,4.01E-03,2.74E-02
111570,4.01E-03,2.73E-02
111571,4.01E-03,2.72E-02
111572,3.90E-03,3.93E-02
111573,3.91E-03,3.69E-02
111574,3.91E-03,3.51E-02
111575,3.91E-03,3.40E-02
111576,3.91E-03,3.33E-02
111577,3.91E-03,3.28E-02
111578,3.92E-03,3.25E-02
111579,3.92E-03,3.23E-02
111580,3.92E-03,3.21E-02
111581,3.92E-03,3.20E-02
111582,3.92E-03,3.19E-02
111583,3.92E-03,3.18E-02
111584,3.93E-03,3.17E-02
111585,3.93E-03,3.16E-02
111586,3.93E-03,3.16E-02
111587,3.93E-03,3.15E-02
111588,3.93E-03,3.15E-02
111589,3.94E-03,3.14E-02
111590,3.94E-03,3.14E-02
111591,3.94E-03,3.13E-02
111592,3.94E-03,3.13E-02
111593,3.94E-03,3.12E-02
111594,3.94E-03,3.12E-02
111595,3.95E-03,3.12E-02
111596,3.95E-03,3.11E-02
111597,3.95E-03,3.11E-02
111598,3.95E-03,3.10E-02
111599,3.95E-03,3.10E-02
111600,3.96E-03,3.09E-02
111601,3.96E-03,3.09E-02
111602,3.96E-03,3.08E-02
111603,3.96E-03,3.08E-02
111604,3.96E-03,3.07E-02
111605,3.97E-03,3.07E-02
111606,3.97E-03,3.06E-02
111607,3.97E-03,3.06E-02
111608,3.97E-03,3.05E-02
111609,3.97E-03,3.04E-02
111610,3.97E-03,3.04E-02
111611,3.98E-03,3.03E-02
111612,3.98E-03,3.02E-02
111613,3.98E-03,3.02E-02
111614,3.98E-03,3.01E-02
111615,3.98E-03,3.00E-02
111616,3.99E-03,2.99E-02
111617,3.99E-03,2.98E-02
111618,3.99E-03,2.97E-02
111619,3.99E-03,2.96E-02
111620,3.99E-03,2.96E-02
111621,3.99E-03,2.95E-02
111622,4.00E-03,2.94E-02
111623,4.00E-03,2.93E-02
111624,4.00E-03,2.92E-02
111625,4.00E-03,2.91E-02
111626,4.00E-03,2.90E-02
111627,4.01E-03,2.88E-02
111628,4.01E-03,2.87E-02
111629,4.01E-03,2.86E-02
111630,4.01E-03,2.85E-02
111631,4.01E-03,2.84E-02
111632,4.02E-03,2.83E-02
111633,4.02E-03,2.82E-02
111634,4.02E-03,2.80E-02
111635,4.02E-03,2.79E-02
111636,4.02E-03,2.78E-02
111637,4.02E-03,2.77E-02
111638,4.03E-03,2.75E-02
111639,4.03E-03,2.74E-02
111640,4.03E-03,2.73E-02
111641,3.82E-03,3.79E-02
111642,3.83E-03,3.56E-02
111643,3.83E-03,3.42E-02
111644,3.83E-03,3.33E-02
111645,3.84E-03,3.28E-02
111646,3.84E-03,3.24E-02
111647,3.84E-03,3.21E-02
111648,3.85E-03,3.20E-02
111649,3.85E-03,3.18E-02
111650,3.85E-03,3.17E-02
111651,3.86E-03,3.16E-02
111652,3.86E-03,3.15E-02
111653,3.86E-03,3.14E-02
111654,3.87E-03,3.14E-02
111655,3.87E-03,3.13E-02
111656,3.87E-03,3.12E-02
111657,3.88E-03,3.12E-02
111658,3.88E-03,3.12E-02
111659,3.88E-03,3.11E-02
111660,3.89E-03,3.11E-02
111661,3.89E-03,3.10E-02
111662,3.90E-03,3.10E-02
111663,3.90E-03,3.10E-02
111664,3.90E-03,3.09E-02
111665,3.91E-03,3.09E-02
111666,3.91E-03,3.09E-02
111667,3.91E-03,3.08E-02
111668,3.92E-03,3.08E-02
111669,3.92E-03,3.08E-02
111670,3.92E-03,3.07E-02
111671,3.93E-03,3.07E-02
111672,3.93E-03,3.06E-02
111673,3.93E-03,3.06E-02
111674,3.94E-03,3.05E-02
111675,3.94E-03,3.05E-02
111676,3.94E-03,3.04E-02
111677,3.95E-03,3.04E-02
111678,3.95E-03,3.03E-02
111679,3.95E-03,3.02E-02
111680,3.96E-03,3.02E-02
111681,3.96E-03,3.01E-02
111682,3.96E-03,3.00E-02
111683,3.97E-03,3.00E-02
111684,3.97E-03,2.99E-02
111685,3.97E-03,2.98E-02
111686,3.98E-03,2.97E-02
111687,3.98E-03,2.97E-02
111688,3.98E-03,2.96E-02
111689,3.99E-03,2.95E-02
111690,3.99E-03,2.94E-02
111691,4.00E-03,2.93E-02
111692,4.00E-03,2.92E-02
111693,4.00E-03,2.91E-02
111694,4.01E-03,2.90E-02
111695,4.01E-03,2.89E-02
111696,4.01E-03,2.88E-02
111697,4.02E-03,2.87E-02
111698,4.02E-03,2.86E-02
111699,4.02E-03,2.85E-02
111700,4.03E-03,2.84E-02
111701,4.03E-03,2.83E-02
111702,4.03E-03,2.82E-02
111703,4.04E-03,2.81E-02
111704,4.04E-03,2.80E-02
111705,4.04E-03,2.79E-02
111706,4.05E-03,2.78E-02
111707,4.05E-03,2.76E-02
111708,4.05E-03,2.75E-02
111709,4.06E-03,2.74E-02
111710,3.70E-03,3.43E-02
111711,3.70E-03,3.36E-02
111712,3.71E-03,3.31E-02
111713,3.71E-03,3.27E-02
111714,3.72E-03,3.23E-02
111715,3.73E-03,3.21E-02
111716,3.73E-03,3.19E-02
111717,3.74E-03,3.17E-02
111718,3.74E-03,3.15E-02
111719,3.75E-03,3.14E-02
111720,3.75E-03,3.13E-02
111721,3.76E-03,3.12E-02
111722,3.77E-03,3.12E-02
111723,3.77E-03,3.11E-02
111724,3.78E-03,3.10E-02
111725,3.78E-03,3.10E-02
111726,3.79E-03,3.10E-02
111727,3.79E-03,3.09E-02
111728,3.80E-03,3.09E-02
111729,3.81E-03,3.09E-02
111730,3.81E-03,3.08E-02
111731,3.82E-03,3.08E-02
111732,3.82E-03,3.08E-02
111733,3.83E-03,3.07E-02
111734,3.84E-03,3.07E-02
111735,3.84E-03,3.07E-02
111736,3.85E-03,3.06E-02
111737,3.85E-03,3.06E-02
111738,3.86E-03,3.06E-02
111739,3.86E-03,3.05E-02
111740,3.87E-03,3.05E-02
111741,3.88E-03,3.05E-02
111742,3.88E-03,3.04E-02
111743,3.89E-03,3.04E-02
111744,3.89E-03,3.03E-02
111745,3.90E-03,3.03E-02
111746,3.91E-03,3.02E-02
111747,3.91E-03,3.02E-02
111748,3.92E-03,3.01E-02
111749,3.92E-03,3.01E-02
111750,3.93E-03,3.00E-02
111751,3.93E-03,2.99E-02
111752,3.94E-03,2.99E-02
111753,3.95E-03,2.98E-02
111754,3.95E-03,2.97E-02
111755,3.96E-03,2.97E-02
111756,3.96E-03,2.96E-02
111757,3.97E-03,2.95E-02
111758,3.97E-03,2.94E-02
111759,3.98E-03,2.94E-02
111760,3.99E-03,2.93E-02
111761,3.99E-03,2.92E-02
111762,4.00E-03,2.91E-02
111763,4.00E-03,2.90E-02
111764,4.01E-03,2.89E-02
111765,4.02E-03,2.88E-02
111766,4.02E-03,2.87E-02
111767,4.03E-03,2.86E-02
111768,4.03E-03,2.85E-02
111769,4.04E-03,2.85E-02
111770,4.04E-03,2.84E-02
111771,4.05E-03,2.83E-02
111772,4.06E-03,2.81E-02
111773,4.06E-03,2.80E-02
111774,4.07E-03,2.79E-02
111775,4.07E-03,2.78E-02
111776,4.08E-03,2.77E-02
111777,4.09E-03,2.76E-02
111778,4.09E-03,2.75E-02
111779,3.71E-03,2.98E-02
111780,3.72E-03,3.09E-02
111781,3.72E-03,3.16E-02
111782,3.73E-03,3.19E-02
111783,3.73E-03,3.19E-02
111784,3.74E-03,3.18E-02
111785,3.75E-03,3.16E-02
111786,3.75E-03,3.14E-02
111787,3.76E-03,3.13E-02
111788,3.77E-03,3.12E-02
111789,3.77E-03,3.11E-02
111790,3.78E-03,3.10E-02
111791,3.78E-03,3.09E-02
111792,3.79E-03,3.09E-02
111793,3.80E-03,3.08E-02
111794,3.80E-03,3.08E-02
111795,3.81E-03,3.07E-02
111796,3.81E-03,3.07E-02
111797,3.82E-03,3.07E-02
111798,3.83E-03,3.06E-02
111799,3.83E-03,3.06E-02
111800,3.84E-03,3.06E-02
111801,3.85E-03,3.06E-02
111802,3.85E-03,3.05E-02
111803,3.86E-03,3.05E-02
111804,3.86E-03,3.05E-02
111805,3.87E-03,3.05E-02
111806,3.88E-03,3.04E-02
111807,3.88E-03,3.04E-02
111808,3.89E-03,3.04E-02
111809,3.89E-03,3.03E-02
111810,3.90E-03,3.03E-02
111811,3.91E-03,3.03E-02
111812,3.91E-03,3.02E-02
111813,3.92E-03,3.02E-02
111814,3.93E-03,3.01E-02
111815,3.93E-03,3.01E-02
111816,3.94E-03,3.01E-02
111817,3.94E-03,3.00E-02
111818,3.95E-03,3.00E-02
111819,3.96E-03,2.99E-02
111820,3.96E-03,2.98E-02
111821,3.97E-03,2.98E-02
111822,3.98E-03,2.97E-02
111823,3.98E-03,2.97E-02
111824,3.99E-03,2.96E-02
111825,3.99E-03,2.95E-02
111826,4.00E-03,2.95E-02
111827,4.01E-03,2.94E-02
111828,4.01E-03,2.93E-02
111829,4.02E-03,2.92E-02
111830,4.02E-03,2.92E-02
111831,4.03E-03,2.91E-02
111832,4.04E-03,2.90E-02
111833,4.04E-03,2.89E-02
111834,4.05E-03,2.88E-02
111835,4.06E-03,2.87E-02
111836,4.06E-03,2.87E-02
111837,4.07E-03,2.86E-02
111838,4.07E-03,2.85E-02
111839,4.08E-03,2.84E-02
111840,4.09E-03,2.83E-02
111841,4.09E-03,2.82E-02
111842,4.10E-03,2.81E-02
111843,4.10E-03,2.80E-02
111844,4.11E-03,2.79E-02
111845,4.12E-03,2.78E-02
111846,4.12E-03,2.77E-02
111847,4.13E-03,2.76E-02
111848,3.83E-03,2.60E-02
111849,3.83E-03,2.84E-02
111850,3.84E-03,3.00E-02
111851,3.84E-03,3.09E-02
111852,3.85E-03,3.13E-02
111853,3.85E-03,3.14E-02
111854,3.86E-03,3.13E-02
111855,3.86E-03,3.12E-02
111856,3.87E-03,3.11E-02
111857,3.87E-03,3.09E-02
111858,3.88E-03,3.08E-02
111859,3.88E-03,3.08E-02
111860,3.89E-03,3.07E-02
111861,3.89E-03,3.06E-02
111862,3.90E-03,3.06E-02
111863,3.90E-03,3.05E-02
111864,3.91E-03,3.05E-02
111865,3.91E-03,3.05E-02
111866,3.92E-03,3.04E-02
111867,3.92E-03,3.04E-02
111868,3.93E-03,3.04E-02
111869,3.93E-03,3.04E-02
111870,3.94E-03,3.04E-02
111871,3.94E-03,3.03E-02
111872,3.95E-03,3.03E-02
111873,3.95E-03,3.03E-02
111874,3.96E-03,3.03E-02
111875,3.96E-03,3.03E-02
111876,3.97E-03,3.02E-02
111877,3.97E-03,3.02E-02
111878,3.98E-03,3.02E-02
111879,3.98E-03,3.01E-02
111880,3.99E-03,3.01E-02
111881,3.99E-03,3.01E-02
111882,4.00E-03,3.01E-02
111883,4.00E-03,3.00E-02
111884,4.01E-03,3.00E-02
111885,4.01E-03,2.99E-02
111886,4.02E-03,2.99E-02
111887,4.02E-03,2.98E-02
111888,4.03E-03,2.98E-02
111889,4.03E-03,2.97E-02
111890,4.04E-03,2.97E-02
111891,4.04E-03,2.96E-02
111892,4.05E-03,2.96E-02
111893,4.05E-03,2.95E-02
111894,4.06E-03,2.95E-02
111895,4.06E-03,2.94E-02
111896,4.07E-03,2.93E-02
111897,4.07E-03,2.93E-02
111898,4.08E-03,2.92E-02
111899,4.08E-03,2.91E-02
111900,4.09E-03,2.90E-02
111901,4.09E-03,2.90E-02
111902,4.10E-03,2.89E-02
111903,4.10E-03,2.88E-02
111904,4.11E-03,2.87E-02
111905,4.11E-03,2.87E-02
111906,4.12E-03,2.86E-02
111907,4.12E-03,2.85E-02
111908,4.13E-03,2.84E-02
111909,4.13E-03,2.83E-02
111910,4.14E-03,2.82E-02
111911,4.14E-03,2.82E-02
111912,4.15E-03,2.81E-02
111913,4.15E-03,2.80E-02
111914,4.16E-03,2.79E-02
111915,4.16E-03,2.78E-02
111916,4.17E-03,2.77E-02
111917,4.05E-03,2.44E-02
111918,4.05E-03,2.68E-02
111919,4.05E-03,2.87E-02
111920,4.06E-03,2.98E-02
111921,4.06E-03,3.05E-02
111922,4.06E-03,3.08E-02
111923,4.06E-03,3.09E-02
111924,4.06E-03,3.08E-02
111925,4.07E-03,3.08E-02
111926,4.07E-03,3.07E-02
111927,4.07E-03,3.06E-02
111928,4.07E-03,3.05E-02
111929,4.08E-03,3.04E-02
111930,4.08E-03,3.04E-02
111931,4.08E-03,3.03E-02
111932,4.08E-03,3.03E-02
111933,4.08E-03,3.03E-02
111934,4.09E-03,3.02E-02
111935,4.09E-03,3.02E-02
111936,4.09E-03,3.02E-02
111937,4.09E-03,3.02E-02
111938,4.10E-03,3.02E-02
111939,4.10E-03,3.02E-02
111940,4.10E-03,3.01E-02
111941,4.10E-03,3.01E-02
111942,4.10E-03,3.01E-02
111943,4.11E-03,3.01E-02
111944,4.11E-03,3.01E-02
111945,4.11E-03,3.01E-02
111946,4.11E-03,3.00E-02
111947,4.12E-03,3.00E-02
111948,4.12E-03,3.00E-02
111949,4.12E-03,3.00E-02
111950,4.12E-03,2.99E-02
111951,4.12E-03,2.99E-02
111952,4.13E-03,2.99E-02
111953,4.13E-03,2.98E-02
111954,4.13E-03,2.98E-02
111955,4.13E-03,2.98E-02
111956,4.14E-03,2.97E-02
111957,4.14E-03,2.97E-02
111958,4.14E-03,2.96E-02
111959,4.14E-03,2.96E-02
111960,4.14E-03,2.95E-02
111961,4.15E-03,2.95E-02
111962,4.15E-03,2.94E-02
111963,4.15E-03,2.94E-02
111964,4.15E-03,2.93E-02
111965,4.16E-03,2.93E-02
111966,4.16E-03,2.92E-02
111967,4.16E-03,2.91E-02
111968,4.16E-03,2.91E-02
111969,4.16E-03,2.90E-02
111970,4.17E-03,2.89E-02
111971,4.17E-03,2.89E-02
111972,4.17E-03,2.88E-02
111973,4.17E-03,2.87E-02
111974,4.18E-03,2.87E-02
111975,4.18E-03,2.86E-02
111976,4.18E-03,2.85E-02
111977,4.18E-03,2.84E-02
111978,4.18E-03,2.84E-02
111979,4.19E-03,2.83E-02
111980,4.19E-03,2.82E-02
111981,4.19E-03,2.81E-02
111982,4.19E-03,2.81E-02
111983,4.20E-03,2.80E-02
111984,4.20E-03,2.79E-02
111985,4.20E-03,2.78E-02
111986,4.15E-03,2.47E-02
111987,4.15E-03,2.64E-02
111988,4.15E-03,2.78E-02
111989,4.15E-03,2.89E-02
111990,4.15E-03,2.97E-02
111991,4.15E-03,3.01E-02
111992,4.15E-03,3.03E-02
111993,4.15E-03,3.04E-02
111994,4.16E-03,3.04E-02
111995,4.16E-03,3.03E-02
111996,4.16E-03,3.03E-02
111997,4.16E-03,3.02E-02
111998,4.16E-03,3.02E-02
111999,4.16E-03,3.01E-02
112000,4.16E-03,3.01E-02
112001,4.16E-03,3.00E-02
112002,4.16E-03,3.00E-02
112003,4.17E-03,3.00E-02
112004,4.17E-03,3.00E-02
112005,4.17E-03,3.00E-02
112006,4.17E-03,3.00E-02
112007,4.17E-03,3.00E-02
112008,4.17E-03,2.99E-02
112009,4.17E-03,2.99E-02
112010,4.17E-03,2.99E-02
112011,4.18E-03,2.99E-02
112012,4.18E-03,2.99E-02
112013,4.18E-03,2.99E-02
112014,4.18E-03,2.99E-02
112015,4.18E-03,2.99E-02
112016,4.18E-03,2.99E-02
112017,4.18E-03,2.98E-02
112018,4.18E-03,2.98E-02
112019,4.18E-03,2.98E-02
112020,4.19E-03,2.98E-02
112021,4.19E-03,2.97E-02
112022,4.19E-03,2.97E-02
112023,4.19E-03,2.97E-02
112024,4.19E-03,2.96E-02
112025,4.19E-03,2.96E-02
112026,4.19E-03,2.96E-02
112027,4.19E-03,2.95E-02
112028,4.20E-03,2.95E-02
112029,4.20E-03,2.94E-02
112030,4.20E-03,2.94E-02
112031,4.20E-03,2.93E-02
112032,4.20E-03,2.93E-02
112033,4.20E-03,2.92E-02
112034,4.20E-03,2.92E-02
112035,4.20E-03,2.91E-02
112036,4.20E-03,2.91E-02
112037,4.21E-03,2.90E-02
112038,4.21E-03,2.90E-02
112039,4.21E-03,2.89E-02
112040,4.21E-03,2.88E-02
112041,4.21E-03,2.88E-02
112042,4.21E-03,2.87E-02
112043,4.21E-03,2.86E-02
112044,4.21E-03,2.86E-02
112045,4.21E-03,2.85E-02
112046,4.22E-03,2.85E-02
112047,4.22E-03,2.84E-02
112048,4.22E-03,2.83E-02
112049,4.22E-03,2.83E-02
112050,4.22E-03,2.82E-02
112051,4.22E-03,2.81E-02
112052,4.22E-03,2.80E-02
112053,4.22E-03,2.80E-02
112054,4.23E-03,2.79E-02
112055,4.20E-03,2.56E-02
112056,4.20E-03,2.66E-02
112057,4.20E-03,2.75E-02
112058,4.20E-03,2.83E-02
112059,4.20E-03,2.89E-02
112060,4.20E-03,2.94E-02
112061,4.20E-03,2.97E-02
112062,4.20E-03,2.98E-02
112063,4.20E-03,2.99E-02
112064,4.21E-03,2.99E-02
112065,4.21E-03,2.99E-02
112066,4.21E-03,2.99E-02
112067,4.21E-03,2.99E-02
112068,4.21E-03,2.98E-02
112069,4.21E-03,2.98E-02
112070,4.21E-03,2.98E-02
112071,4.21E-03,2.98E-02
112072,4.21E-03,2.98E-02
112073,4.21E-03,2.98E-02
112074,4.21E-03,2.98E-02
112075,4.21E-03,2.97E-02
112076,4.21E-03,2.97E-02
112077,4.21E-03,2.97E-02
112078,4.22E-03,2.97E-02
112079,4.22E-03,2.97E-02
112080,4.22E-03,2.97E-02
112081,4.22E-03,2.97E-02
112082,4.22E-03,2.97E-02
112083,4.22E-03,2.97E-02
112084,4.22E-03,2.97E-02
112085,4.22E-03,2.97E-02
112086,4.22E-03,2.97E-02
112087,4.22E-03,2.97E-02
112088,4.22E-03,2.96E-02
112089,4.22E-03,2.96E-02
112090,4.22E-03,2.96E-02
112091,4.22E-03,2.96E-02
112092,4.23E-03,2.95E-02
112093,4.23E-03,2.95E-02
112094,4.23E-03,2.95E-02
112095,4.23E-03,2.95E-02
112096,4.23E-03,2.94E-02
112097,4.23E-03,2.94E-02
112098,4.23E-03,2.93E-02
112099,4.23E-03,2.93E-02
112100,4.23E-03,2.93E-02
112101,4.23E-03,2.92E-02
112102,4.23E-03,2.92E-02
112103,4.23E-03,2.91E-02
112104,4.23E-03,2.91E-02
112105,4.23E-03,2.90E-02
112106,4.23E-03,2.90E-02
112107,4.24E-03,2.89E-02
112108,4.24E-03,2.89E-02
112109,4.24E-03,2.88E-02
112110,4.24E-03,2.88E-02
112111,4.24E-03,2.87E-02
112112,4.24E-03,2.86E-02
112113,4.24E-03,2.86E-02
112114,4.24E-03,2.85E-02
112115,4.24E-03,2.85E-02
112116,4.24E-03,2.84E-02
112117,4.24E-03,2.83E-02
112118,4.24E-03,2.83E-02
112119,4.24E-03,2.82E-02
112120,4.24E-03,2.82E-02
112121,4.25E-03,2.81E-02
112122,4.25E-03,2.80E-02
112123,4.25E-03,2.80E-02
112124,4.22E-03,2.67E-02
112125,4.22E-03,2.69E-02
112126,4.22E-03,2.73E-02
112127,4.22E-03,2.78E-02
112128,4.22E-03,2.83E-02
112129,4.23E-03,2.87E-02
112130,4.23E-03,2.90E-02
112131,4.23E-03,2.92E-02
112132,4.23E-03,2.94E-02
112133,4.23E-03,2.95E-02
112134,4.23E-03,2.95E-02
112135,4.23E-03,2.95E-02
112136,4.23E-03,2.95E-02
112137,4.23E-03,2.95E-02
112138,4.23E-03,2.95E-02
112139,4.23E-03,2.95E-02
112140,4.23E-03,2.95E-02
112141,4.23E-03,2.95E-02
112142,4.23E-03,2.95E-02
112143,4.23E-03,2.95E-02
112144,4.24E-03,2.95E-02
112145,4.24E-03,2.95E-02
112146,4.24E-03,2.95E-02
112147,4.24E-03,2.95E-02
112148,4.24E-03,2.95E-02
112149,4.24E-03,2.95E-02
112150,4.24E-03,2.95E-02
112151,4.24E-03,2.95E-02
112152,4.24E-03,2.95E-02
112153,4.24E-03,2.95E-02
112154,4.24E-03,2.95E-02
112155,4.24E-03,2.95E-02
112156,4.24E-03,2.95E-02
112157,4.24E-03,2.95E-02
112158,4.24E-03,2.95E-02
112159,4.25E-03,2.95E-02
112160,4.25E-03,2.94E-02
112161,4.25E-03,2.94E-02
112162,4.25E-03,2.94E-02
112163,4.25E-03,2.94E-02
112164,4.25E-03,2.93E-02
112165,4.25E-03,2.93E-02
112166,4.25E-03,2.93E-02
112167,4.25E-03,2.92E-02
112168,4.25E-03,2.92E-02
112169,4.25E-03,2.92E-02
112170,4.25E-03,2.91E-02
112171,4.25E-03,2.91E-02
112172,4.25E-03,2.91E-02
112173,4.25E-03,2.90E-02
112174,4.26E-03,2.90E-02
112175,4.26E-03,2.89E-02
112176,4.26E-03,2.89E-02
112177,4.26E-03,2.88E-02
112178,4.26E-03,2.88E-02
112179,4.26E-03,2.87E-02
112180,4.26E-03,2.87E-02
112181,4.26E-03,2.86E-02
112182,4.26E-03,2.86E-02
112183,4.26E-03,2.85E-02
112184,4.26E-03,2.85E-02
112185,4.26E-03,2.84E-02
112186,4.26E-03,2.84E-02
112187,4.26E-03,2.83E-02
112188,4.26E-03,2.83E-02
112189,4.26E-03,2.82E-02
112190,4.27E-03,2.82E-02
112191,4.27E-03,2.81E-02
112192,4.27E-03,2.81E-02
112193,4.22E-03,2.75E-02
112194,4.22E-03,2.72E-02
112195,4.23E-03,2.72E-02
112196,4.23E-03,2.74E-02
112197,4.23E-03,2.77E-02
112198,4.23E-03,2.81E-02
112199,4.23E-03,2.84E-02
112200,4.23E-03,2.86E-02
112201,4.23E-03,2.88E-02
112202,4.23E-03,2.90E-02
112203,4.23E-03,2.91E-02
112204,4.23E-03,2.91E-02
112205,4.23E-03,2.92E-02
112206,4.24E-03,2.92E-02
112207,4.24E-03,2.92E-02
112208,4.24E-03,2.92E-02
112209,4.24E-03,2.93E-02
112210,4.24E-03,2.93E-02
112211,4.24E-03,2.93E-02
112212,4.24E-03,2.93E-02
112213,4.24E-03,2.93E-02
112214,4.24E-03,2.93E-02
112215,4.24E-03,2.93E-02
112216,4.24E-03,2.93E-02
112217,4.25E-03,2.93E-02
112218,4.25E-03,2.94E-02
112219,4.25E-03,2.94E-02
112220,4.25E-03,2.94E-02
112221,4.25E-03,2.94E-02
112222,4.25E-03,2.94E-02
112223,4.25E-03,2.94E-02
112224,4.25E-03,2.94E-02
112225,4.25E-03,2.94E-02
112226,4.25E-03,2.93E-02
112227,4.26E-03,2.93E-02
112228,4.26E-03,2.93E-02
112229,4.26E-03,2.93E-02
112230,4.26E-03,2.93E-02
112231,4.26E-03,2.93E-02
112232,4.26E-03,2.93E-02
112233,4.26E-03,2.92E-02
112234,4.26E-03,2.92E-02
112235,4.26E-03,2.92E-02
112236,4.26E-03,2.91E-02
112237,4.26E-03,2.91E-02
112238,4.27E-03,2.91E-02
112239,4.27E-03,2.91E-02
112240,4.27E-03,2.90E-02
112241,4.27E-03,2.90E-02
112242,4.27E-03,2.89E-02
112243,4.27E-03,2.89E-02
112244,4.27E-03,2.89E-02
112245,4.27E-03,2.88E-02
112246,4.27E-03,2.88E-02
112247,4.27E-03,2.87E-02
112248,4.28E-03,2.87E-02
112249,4.28E-03,2.86E-02
112250,4.28E-03,2.86E-02
112251,4.28E-03,2.86E-02
112252,4.28E-03,2.85E-02
112253,4.28E-03,2.85E-02
112254,4.28E-03,2.84E-02
112255,4.28E-03,2.84E-02
112256,4.28E-03,2.83E-02
112257,4.28E-03,2.83E-02
112258,4.28E-03,2.83E-02
112259,4.29E-03,2.82E-02
112260,4.29E-03,2.82E-02
112261,4.29E-03,2.81E-02
112262,4.22E-03,2.78E-02
112263,4.22E-03,2.72E-02
112264,4.22E-03,2.70E-02
112265,4.22E-03,2.70E-02
112266,4.22E-03,2.72E-02
112267,4.22E-03,2.75E-02
112268,4.23E-03,2.78E-02
112269,4.23E-03,2.80E-02
112270,4.23E-03,2.83E-02
112271,4.23E-03,2.84E-02
112272,4.23E-03,2.86E-02
112273,4.23E-03,2.87E-02
112274,4.23E-03,2.88E-02
112275,4.24E-03,2.88E-02
112276,4.24E-03,2.89E-02
112277,4.24E-03,2.89E-02
112278,4.24E-03,2.90E-02
112279,4.24E-03,2.90E-02
112280,4.24E-03,2.90E-02
112281,4.24E-03,2.91E-02
112282,4.24E-03,2.91E-02
112283,4.25E-03,2.91E-02
112284,4.25E-03,2.91E-02
112285,4.25E-03,2.91E-02
112286,4.25E-03,2.92E-02
112287,4.25E-03,2.92E-02
112288,4.25E-03,2.92E-02
112289,4.25E-03,2.92E-02
112290,4.26E-03,2.92E-02
112291,4.26E-03,2.92E-02
112292,4.26E-03,2.92E-02
112293,4.26E-03,2.92E-02
112294,4.26E-03,2.92E-02
112295,4.26E-03,2.92E-02
112296,4.26E-03,2.92E-02
112297,4.27E-03,2.92E-02
112298,4.27E-03,2.92E-02
112299,4.27E-03,2.92E-02
112300,4.27E-03,2.91E-02
112301,4.27E-03,2.91E-02
112302,4.27E-03,2.91E-02
112303,4.27E-03,2.91E-02
112304,4.27E-03,2.91E-02
112305,4.28E-03,2.91E-02
112306,4.28E-03,2.90E-02
112307,4.28E-03,2.90E-02
112308,4.28E-03,2.90E-02
112309,4.28E-03,2.89E-02
112310,4.28E-03,2.89E-02
112311,4.28E-03,2.89E-02
112312,4.29E-03,2.88E-02
112313,4.29E-03,2.88E-02
112314,4.29E-03,2.88E-02
112315,4.29E-03,2.87E-02
112316,4.29E-03,2.87E-02
112317,4.29E-03,2.87E-02
112318,4.29E-03,2.86E-02
112319,4.29E-03,2.86E-02
112320,4.30E-03,2.85E-02
112321,4.30E-03,2.85E-02
112322,4.30E-03,2.85E-02
112323,4.30E-03,2.84E-02
112324,4.30E-03,2.84E-02
112325,4.30E-03,2.84E-02
112326,4.30E-03,2.83E-02
112327,4.31E-03,2.83E-02
112328,4.31E-03,2.83E-02
112329,4.31E-03,2.82E-02
112330,4.31E-03,2.82E-02
112331,4.18E-03,2.73E-02
112332,4.19E-03,2.70E-02
112333,4.19E-03,2.68E-02
112334,4.19E-03,2.68E-02
112335,4.19E-03,2.69E-02
112336,4.19E-03,2.70E-02
112337,4.20E-03,2.72E-02
112338,4.20E-03,2.75E-02
112339,4.20E-03,2.77E-02
112340,4.20E-03,2.79E-02
112341,4.21E-03,2.81E-02
112342,4.21E-03,2.83E-02
112343,4.21E-03,2.84E-02
112344,4.21E-03,2.85E-02
112345,4.21E-03,2.86E-02
112346,4.22E-03,2.86E-02
112347,4.22E-03,2.87E-02
112348,4.22E-03,2.87E-02
112349,4.22E-03,2.88E-02
112350,4.23E-03,2.88E-02
112351,4.23E-03,2.89E-02
112352,4.23E-03,2.89E-02
112353,4.23E-03,2.89E-02
112354,4.23E-03,2.89E-02
112355,4.24E-03,2.90E-02
112356,4.24E-03,2.90E-02
112357,4.24E-03,2.90E-02
112358,4.24E-03,2.90E-02
112359,4.25E-03,2.90E-02
112360,4.25E-03,2.90E-02
112361,4.25E-03,2.90E-02
112362,4.25E-03,2.90E-02
112363,4.25E-03,2.90E-02
112364,4.26E-03,2.91E-02
112365,4.26E-03,2.91E-02
112366,4.26E-03,2.90E-02
112367,4.26E-03,2.90E-02
112368,4.27E-03,2.90E-02
112369,4.27E-03,2.90E-02
112370,4.27E-03,2.90E-02
112371,4.27E-03,2.90E-02
112372,4.27E-03,2.90E-02
112373,4.28E-03,2.90E-02
112374,4.28E-03,2.90E-02
112375,4.28E-03,2.89E-02
112376,4.28E-03,2.89E-02
112377,4.29E-03,2.89E-02
112378,4.29E-03,2.89E-02
112379,4.29E-03,2.88E-02
112380,4.29E-03,2.88E-02
112381,4.29E-03,2.88E-02
112382,4.30E-03,2.88E-02
112383,4.30E-03,2.87E-02
112384,4.30E-03,2.87E-02
112385,4.30E-03,2.87E-02
112386,4.31E-03,2.86E-02
112387,4.31E-03,2.86E-02
112388,4.31E-03,2.86E-02
112389,4.31E-03,2.85E-02
112390,4.31E-03,2.85E-02
112391,4.32E-03,2.85E-02
112392,4.32E-03,2.84E-02
112393,4.32E-03,2.84E-02
112394,4.32E-03,2.84E-02
112395,4.33E-03,2.84E-02
112396,4.33E-03,2.83E-02
112397,4.33E-03,2.83E-02
112398,4.33E-03,2.83E-02
112399,4.33E-03,2.83E-02
112400,4.21E-03,2.63E-02
112401,4.21E-03,2.65E-02
112402,4.21E-03,2.65E-02
112403,4.21E-03,2.65E-02
112404,4.22E-03,2.65E-02
112405,4.22E-03,2.66E-02
112406,4.22E-03,2.68E-02
112407,4.22E-03,2.70E-02
112408,4.22E-03,2.72E-02
112409,4.23E-03,2.74E-02
112410,4.23E-03,2.76E-02
112411,4.23E-03,2.78E-02
112412,4.23E-03,2.80E-02
112413,4.24E-03,2.81E-02
112414,4.24E-03,2.82E-02
112415,4.24E-03,2.83E-02
112416,4.24E-03,2.84E-02
112417,4.24E-03,2.85E-02
112418,4.25E-03,2.85E-02
112419,4.25E-03,2.86E-02
112420,4.25E-03,2.86E-02
112421,4.25E-03,2.87E-02
112422,4.26E-03,2.87E-02
112423,4.26E-03,2.87E-02
112424,4.26E-03,2.88E-02
112425,4.26E-03,2.88E-02
112426,4.27E-03,2.88E-02
112427,4.27E-03,2.88E-02
112428,4.27E-03,2.89E-02
112429,4.27E-03,2.89E-02
112430,4.27E-03,2.89E-02
112431,4.28E-03,2.89E-02
112432,4.28E-03,2.89E-02
112433,4.28E-03,2.89E-02
112434,4.28E-03,2.89E-02
112435,4.29E-03,2.89E-02
112436,4.29E-03,2.89E-02
112437,4.29E-03,2.89E-02
112438,4.29E-03,2.89E-02
112439,4.29E-03,2.89E-02
112440,4.30E-03,2.89E-02
112441,4.30E-03,2.89E-02
112442,4.30E-03,2.89E-02
112443,4.30E-03,2.89E-02
112444,4.31E-03,2.88E-02
112445,4.31E-03,2.88E-02
112446,4.31E-03,2.88E-02
112447,4.31E-03,2.88E-02
112448,4.32E-03,2.88E-02
112449,4.32E-03,2.87E-02
112450,4.32E-03,2.87E-02
112451,4.32E-03,2.87E-02
112452,4.32E-03,2.87E-02
112453,4.33E-03,2.86E-02
112454,4.33E-03,2.86E-02
112455,4.33E-03,2.86E-02
112456,4.33E-03,2.86E-02
112457,4.34E-03,2.85E-02
112458,4.34E-03,2.85E-02
112459,4.34E-03,2.85E-02
112460,4.34E-03,2.85E-02
112461,4.34E-03,2.84E-02
112462,4.35E-03,2.84E-02
112463,4.35E-03,2.84E-02
112464,4.35E-03,2.84E-02
112465,4.35E-03,2.84E-02
112466,4.36E-03,2.83E-02
112467,4.36E-03,2.83E-02
112468,4.36E-03,2.83E-02
112469,4.27E-03,2.57E-02
112470,4.27E-03,2.60E-02
112471,4.27E-03,2.61E-02
112472,4.27E-03,2.61E-02
112473,4.27E-03,2.61E-02
112474,4.27E-03,2.62E-02
112475,4.28E-03,2.63E-02
112476,4.28E-03,2.65E-02
112477,4.28E-03,2.67E-02
112478,4.28E-03,2.70E-02
112479,4.28E-03,2.72E-02
112480,4.29E-03,2.74E-02
112481,4.29E-03,2.76E-02
112482,4.29E-03,2.77E-02
112483,4.29E-03,2.79E-02
112484,4.29E-03,2.80E-02
112485,4.29E-03,2.81E-02
112486,4.30E-03,2.82E-02
112487,4.30E-03,2.83E-02
112488,4.30E-03,2.83E-02
112489,4.30E-03,2.84E-02
112490,4.30E-03,2.84E-02
112491,4.31E-03,2.85E-02
112492,4.31E-03,2.85E-02
112493,4.31E-03,2.86E-02
112494,4.31E-03,2.86E-02
112495,4.31E-03,2.86E-02
112496,4.31E-03,2.87E-02
112497,4.32E-03,2.87E-02
112498,4.32E-03,2.87E-02
112499,4.32E-03,2.87E-02
112500,4.32E-03,2.87E-02
112501,4.32E-03,2.87E-02
112502,4.32E-03,2.88E-02
112503,4.33E-03,2.88E-02
112504,4.33E-03,2.88E-02
112505,4.33E-03,2.88E-02
112506,4.33E-03,2.88E-02
112507,4.33E-03,2.88E-02
112508,4.34E-03,2.88E-02
112509,4.34E-03,2.88E-02
112510,4.34E-03,2.88E-02
112511,4.34E-03,2.88E-02
112512,4.34E-03,2.88E-02
112513,4.34E-03,2.88E-02
112514,4.35E-03,2.87E-02
112515,4.35E-03,2.87E-02
112516,4.35E-03,2.87E-02
112517,4.35E-03,2.87E-02
112518,4.35E-03,2.87E-02
112519,4.36E-03,2.87E-02
112520,4.36E-03,2.86E-02
112521,4.36E-03,2.86E-02
112522,4.36E-03,2.86E-02
112523,4.36E-03,2.86E-02
112524,4.36E-03,2.86E-02
112525,4.37E-03,2.85E-02
112526,4.37E-03,2.85E-02
112527,4.37E-03,2.85E-02
112528,4.37E-03,2.85E-02
112529,4.37E-03,2.85E-02
112530,4.37E-03,2.84E-02
112531,4.38E-03,2.84E-02
112532,4.38E-03,2.84E-02
112533,4.38E-03,2.84E-02
112534,4.38E-03,2.84E-02
112535,4.38E-03,2.84E-02
112536,4.39E-03,2.84E-02
112537,4.39E-03,2.84E-02
112538,4.31E-03,2.57E-02
112539,4.31E-03,2.56E-02
112540,4.31E-03,2.56E-02
112541,4.31E-03,2.56E-02
112542,4.31E-03,2.56E-02
112543,4.31E-03,2.57E-02
112544,4.32E-03,2.59E-02
112545,4.32E-03,2.61E-02
112546,4.32E-03,2.63E-02
112547,4.32E-03,2.66E-02
112548,4.32E-03,2.68E-02
112549,4.32E-03,2.70E-02
112550,4.33E-03,2.72E-02
112551,4.33E-03,2.74E-02
112552,4.33E-03,2.76E-02
112553,4.33E-03,2.77E-02
112554,4.33E-03,2.78E-02
112555,4.33E-03,2.79E-02
112556,4.33E-03,2.80E-02
112557,4.34E-03,2.81E-02
112558,4.34E-03,2.81E-02
112559,4.34E-03,2.82E-02
112560,4.34E-03,2.83E-02
112561,4.34E-03,2.83E-02
112562,4.34E-03,2.84E-02
112563,4.35E-03,2.84E-02
112564,4.35E-03,2.84E-02
112565,4.35E-03,2.85E-02
112566,4.35E-03,2.85E-02
112567,4.35E-03,2.85E-02
112568,4.35E-03,2.86E-02
112569,4.35E-03,2.86E-02
112570,4.36E-03,2.86E-02
112571,4.36E-03,2.86E-02
112572,4.36E-03,2.86E-02
112573,4.36E-03,2.86E-02
112574,4.36E-03,2.87E-02
112575,4.36E-03,2.87E-02
112576,4.37E-03,2.87E-02
112577,4.37E-03,2.87E-02
112578,4.37E-03,2.87E-02
112579,4.37E-03,2.87E-02
112580,4.37E-03,2.87E-02
112581,4.37E-03,2.87E-02
112582,4.37E-03,2.87E-02
112583,4.38E-03,2.87E-02
112584,4.38E-03,2.86E-02
112585,4.38E-03,2.86E-02
112586,4.38E-03,2.86E-02
112587,4.38E-03,2.86E-02
112588,4.38E-03,2.86E-02
112589,4.39E-03,2.86E-02
112590,4.39E-03,2.86E-02
112591,4.39E-03,2.85E-02
112592,4.39E-03,2.85E-02
112593,4.39E-03,2.85E-02
112594,4.39E-03,2.85E-02
112595,4.39E-03,2.85E-02
112596,4.40E-03,2.85E-02
112597,4.40E-03,2.85E-02
112598,4.40E-03,2.84E-02
112599,4.40E-03,2.84E-02
112600,4.40E-03,2.84E-02
112601,4.40E-03,2.84E-02
112602,4.41E-03,2.84E-02
112603,4.41E-03,2.84E-02
112604,4.41E-03,2.84E-02
112605,4.41E-03,2.84E-02
112606,4.41E-03,2.84E-02
112607,4.33E-03,2.60E-02
112608,4.33E-03,2.54E-02
112609,4.34E-03,2.50E-02
112610,4.34E-03,2.49E-02
112611,4.34E-03,2.50E-02
112612,4.34E-03,2.52E-02
112613,4.34E-03,2.55E-02
112614,4.34E-03,2.57E-02
112615,4.34E-03,2.60E-02
112616,4.35E-03,2.62E-02
112617,4.35E-03,2.64E-02
112618,4.35E-03,2.67E-02
112619,4.35E-03,2.69E-02
112620,4.35E-03,2.71E-02
112621,4.35E-03,2.72E-02
112622,4.36E-03,2.74E-02
112623,4.36E-03,2.75E-02
112624,4.36E-03,2.76E-02
112625,4.36E-03,2.77E-02
112626,4.36E-03,2.78E-02
112627,4.36E-03,2.79E-02
112628,4.36E-03,2.80E-02
112629,4.37E-03,2.80E-02
112630,4.37E-03,2.81E-02
112631,4.37E-03,2.82E-02
112632,4.37E-03,2.82E-02
112633,4.37E-03,2.83E-02
112634,4.37E-03,2.83E-02
112635,4.38E-03,2.83E-02
112636,4.38E-03,2.84E-02
112637,4.38E-03,2.84E-02
112638,4.38E-03,2.84E-02
112639,4.38E-03,2.84E-02
112640,4.38E-03,2.85E-02
112641,4.38E-03,2.85E-02
112642,4.39E-03,2.85E-02
112643,4.39E-03,2.85E-02
112644,4.39E-03,2.85E-02
112645,4.39E-03,2.85E-02
112646,4.39E-03,2.86E-02
112647,4.39E-03,2.86E-02
112648,4.40E-03,2.86E-02
112649,4.40E-03,2.86E-02
112650,4.40E-03,2.86E-02
112651,4.40E-03,2.86E-02
112652,4.40E-03,2.86E-02
112653,4.40E-03,2.86E-02
112654,4.40E-03,2.86E-02
112655,4.41E-03,2.85E-02
112656,4.41E-03,2.85E-02
112657,4.41E-03,2.85E-02
112658,4.41E-03,2.85E-02
112659,4.41E-03,2.85E-02
112660,4.41E-03,2.85E-02
112661,4.41E-03,2.85E-02
112662,4.42E-03,2.85E-02
112663,4.42E-03,2.85E-02
112664,4.42E-03,2.85E-02
112665,4.42E-03,2.84E-02
112666,4.42E-03,2.84E-02
112667,4.42E-03,2.84E-02
112668,4.43E-03,2.84E-02
112669,4.43E-03,2.84E-02
112670,4.43E-03,2.84E-02
112671,4.43E-03,2.84E-02
112672,4.43E-03,2.84E-02
112673,4.43E-03,2.84E-02
112674,4.43E-03,2.85E-02
112675,4.44E-03,2.85E-02
112676,4.30E-03,2.62E-02
112677,4.31E-03,2.49E-02
112678,4.31E-03,2.43E-02
112679,4.31E-03,2.43E-02
112680,4.31E-03,2.45E-02
112681,4.31E-03,2.48E-02
112682,4.32E-03,2.51E-02
112683,4.32E-03,2.54E-02
112684,4.32E-03,2.56E-02
112685,4.32E-03,2.59E-02
112686,4.33E-03,2.61E-02
112687,4.33E-03,2.64E-02
112688,4.33E-03,2.66E-02
112689,4.33E-03,2.68E-02
112690,4.34E-03,2.69E-02
112691,4.34E-03,2.71E-02
112692,4.34E-03,2.72E-02
112693,4.34E-03,2.74E-02
112694,4.34E-03,2.75E-02
112695,4.35E-03,2.76E-02
112696,4.35E-03,2.77E-02
112697,4.35E-03,2.78E-02
112698,4.35E-03,2.78E-02
112699,4.36E-03,2.79E-02
112700,4.36E-03,2.80E-02
112701,4.36E-03,2.80E-02
112702,4.36E-03,2.81E-02
112703,4.37E-03,2.81E-02
112704,4.37E-03,2.82E-02
112705,4.37E-03,2.82E-02
112706,4.37E-03,2.82E-02
112707,4.38E-03,2.83E-02
112708,4.38E-03,2.83E-02
112709,4.38E-03,2.83E-02
112710,4.38E-03,2.83E-02
112711,4.38E-03,2.84E-02
112712,4.39E-03,2.84E-02
112713,4.39E-03,2.84E-02
112714,4.39E-03,2.84E-02
112715,4.39E-03,2.84E-02
112716,4.40E-03,2.84E-02
112717,4.40E-03,2.85E-02
112718,4.40E-03,2.85E-02
112719,4.40E-03,2.85E-02
112720,4.41E-03,2.85E-02
112721,4.41E-03,2.85E-02
112722,4.41E-03,2.85E-02
112723,4.41E-03,2.85E-02
112724,4.41E-03,2.85E-02
112725,4.42E-03,2.85E-02
112726,4.42E-03,2.85E-02
112727,4.42E-03,2.85E-02
112728,4.42E-03,2.85E-02
112729,4.43E-03,2.85E-02
112730,4.43E-03,2.84E-02
112731,4.43E-03,2.84E-02
112732,4.43E-03,2.84E-02
112733,4.44E-03,2.84E-02
112734,4.44E-03,2.84E-02
112735,4.44E-03,2.84E-02
112736,4.44E-03,2.84E-02
112737,4.45E-03,2.84E-02
112738,4.45E-03,2.84E-02
112739,4.45E-03,2.84E-02
112740,4.45E-03,2.84E-02
112741,4.45E-03,2.85E-02
112742,4.46E-03,2.85E-02
112743,4.46E-03,2.85E-02
112744,4.46E-03,2.85E-02
112745,4.09E-03,2.48E-02
112746,4.10E-03,2.38E-02
112747,4.10E-03,2.36E-02
112748,4.11E-03,2.38E-02
112749,4.11E-03,2.41E-02
112750,4.12E-03,2.44E-02
112751,4.13E-03,2.47E-02
112752,4.13E-03,2.50E-02
112753,4.14E-03,2.53E-02
112754,4.14E-03,2.56E-02
112755,4.15E-03,2.58E-02
112756,4.15E-03,2.61E-02
112757,4.16E-03,2.63E-02
112758,4.17E-03,2.65E-02
112759,4.17E-03,2.66E-02
112760,4.18E-03,2.68E-02
112761,4.18E-03,2.70E-02
112762,4.19E-03,2.71E-02
112763,4.20E-03,2.72E-02
112764,4.20E-03,2.73E-02
112765,4.21E-03,2.74E-02
112766,4.21E-03,2.75E-02
112767,4.22E-03,2.76E-02
112768,4.23E-03,2.77E-02
112769,4.23E-03,2.77E-02
112770,4.24E-03,2.78E-02
112771,4.24E-03,2.79E-02
112772,4.25E-03,2.79E-02
112773,4.26E-03,2.80E-02
112774,4.26E-03,2.80E-02
112775,4.27E-03,2.81E-02
112776,4.27E-03,2.81E-02
112777,4.28E-03,2.81E-02
112778,4.28E-03,2.82E-02
112779,4.29E-03,2.82E-02
112780,4.30E-03,2.82E-02
112781,4.30E-03,2.83E-02
112782,4.31E-03,2.83E-02
112783,4.31E-03,2.83E-02
112784,4.32E-03,2.83E-02
112785,4.33E-03,2.83E-02
112786,4.33E-03,2.84E-02
112787,4.34E-03,2.84E-02
112788,4.34E-03,2.84E-02
112789,4.35E-03,2.84E-02
112790,4.36E-03,2.84E-02
112791,4.36E-03,2.84E-02
112792,4.37E-03,2.84E-02
112793,4.37E-03,2.84E-02
112794,4.38E-03,2.84E-02
112795,4.39E-03,2.84E-02
112796,4.39E-03,2.84E-02
112797,4.40E-03,2.84E-02
112798,4.40E-03,2.84E-02
112799,4.41E-03,2.84E-02
112800,4.41E-03,2.84E-02
112801,4.42E-03,2.84E-02
112802,4.43E-03,2.84E-02
112803,4.43E-03,2.84E-02
112804,4.44E-03,2.84E-02
112805,4.44E-03,2.84E-02
112806,4.45E-03,2.84E-02
112807,4.46E-03,2.84E-02
112808,4.46E-03,2.84E-02
112809,4.47E-03,2.85E-02
112810,4.47E-03,2.85E-02
112811,4.48E-03,2.85E-02
112812,4.49E-03,2.85E-02
112813,4.49E-03,2.86E-02
112814,3.80E-03,2.07E-02
112815,3.81E-03,2.21E-02
112816,3.82E-03,2.29E-02
112817,3.83E-03,2.34E-02
112818,3.84E-03,2.38E-02
112819,3.85E-03,2.41E-02
112820,3.87E-03,2.44E-02
112821,3.88E-03,2.47E-02
112822,3.89E-03,2.50E-02
112823,3.90E-03,2.53E-02
112824,3.91E-03,2.55E-02
112825,3.92E-03,2.58E-02
112826,3.93E-03,2.60E-02
112827,3.94E-03,2.62E-02
112828,3.95E-03,2.63E-02
112829,3.96E-03,2.65E-02
112830,3.97E-03,2.67E-02
112831,3.98E-03,2.68E-02
112832,3.99E-03,2.70E-02
112833,4.01E-03,2.71E-02
112834,4.02E-03,2.72E-02
112835,4.03E-03,2.73E-02
112836,4.04E-03,2.74E-02
112837,4.05E-03,2.75E-02
112838,4.06E-03,2.75E-02
112839,4.07E-03,2.76E-02
112840,4.08E-03,2.77E-02
112841,4.09E-03,2.77E-02
112842,4.10E-03,2.78E-02
112843,4.11E-03,2.78E-02
112844,4.12E-03,2.79E-02
112845,4.13E-03,2.79E-02
112846,4.14E-03,2.80E-02
112847,4.16E-03,2.80E-02
112848,4.17E-03,2.81E-02
112849,4.18E-03,2.81E-02
112850,4.19E-03,2.81E-02
112851,4.20E-03,2.82E-02
112852,4.21E-03,2.82E-02
112853,4.22E-03,2.82E-02
112854,4.23E-03,2.82E-02
112855,4.24E-03,2.82E-02
112856,4.25E-03,2.83E-02
112857,4.26E-03,2.83E-02
112858,4.27E-03,2.83E-02
112859,4.28E-03,2.83E-02
112860,4.30E-03,2.83E-02
112861,4.31E-03,2.83E-02
112862,4.32E-03,2.83E-02
112863,4.33E-03,2.83E-02
112864,4.34E-03,2.83E-02
112865,4.35E-03,2.84E-02
112866,4.36E-03,2.84E-02
112867,4.37E-03,2.84E-02
112868,4.38E-03,2.84E-02
112869,4.39E-03,2.84E-02
112870,4.40E-03,2.84E-02
112871,4.41E-03,2.84E-02
112872,4.42E-03,2.84E-02
112873,4.43E-03,2.84E-02
112874,4.45E-03,2.84E-02
112875,4.46E-03,2.84E-02
112876,4.47E-03,2.84E-02
112877,4.48E-03,2.85E-02
112878,4.49E-03,2.85E-02
112879,4.50E-03,2.85E-02
112880,4.51E-03,2.85E-02
112881,4.52E-03,2.86E-02
112882,4.53E-03,2.87E-02
112883,4.32E-03,1.76E-02
112884,4.32E-03,2.01E-02
112885,4.32E-03,2.19E-02
112886,4.33E-03,2.28E-02
112887,4.33E-03,2.34E-02
112888,4.33E-03,2.38E-02
112889,4.34E-03,2.41E-02
112890,4.34E-03,2.45E-02
112891,4.35E-03,2.47E-02
112892,4.35E-03,2.50E-02
112893,4.35E-03,2.53E-02
112894,4.36E-03,2.55E-02
112895,4.36E-03,2.57E-02
112896,4.36E-03,2.59E-02
112897,4.37E-03,2.61E-02
112898,4.37E-03,2.62E-02
112899,4.38E-03,2.64E-02
112900,4.38E-03,2.66E-02
112901,4.38E-03,2.67E-02
112902,4.39E-03,2.68E-02
112903,4.39E-03,2.69E-02
112904,4.40E-03,2.70E-02
112905,4.40E-03,2.71E-02
112906,4.40E-03,2.72E-02
112907,4.41E-03,2.73E-02
112908,4.41E-03,2.74E-02
112909,4.41E-03,2.75E-02
112910,4.42E-03,2.75E-02
112911,4.42E-03,2.76E-02
112912,4.43E-03,2.77E-02
112913,4.43E-03,2.77E-02
112914,4.43E-03,2.78E-02
112915,4.44E-03,2.78E-02
112916,4.44E-03,2.79E-02
112917,4.44E-03,2.79E-02
112918,4.45E-03,2.80E-02
112919,4.45E-03,2.80E-02
112920,4.46E-03,2.80E-02
112921,4.46E-03,2.81E-02
112922,4.46E-03,2.81E-02
112923,4.47E-03,2.81E-02
112924,4.47E-03,2.81E-02
112925,4.47E-03,2.82E-02
112926,4.48E-03,2.82E-02
112927,4.48E-03,2.82E-02
112928,4.49E-03,2.82E-02
112929,4.49E-03,2.82E-02
112930,4.49E-03,2.82E-02
112931,4.50E-03,2.83E-02
112932,4.50E-03,2.83E-02
112933,4.51E-03,2.83E-02
112934,4.51E-03,2.83E-02
112935,4.51E-03,2.83E-02
112936,4.52E-03,2.83E-02
112937,4.52E-03,2.83E-02
112938,4.52E-03,2.83E-02
112939,4.53E-03,2.83E-02
112940,4.53E-03,2.84E-02
112941,4.54E-03,2.84E-02
112942,4.54E-03,2.84E-02
112943,4.54E-03,2.84E-02
112944,4.55E-03,2.84E-02
112945,4.55E-03,2.84E-02
112946,4.55E-03,2.85E-02
112947,4.56E-03,2.85E-02
112948,4.56E-03,2.85E-02
112949,4.57E-03,2.86E-02
112950,4.57E-03,2.86E-02
112951,4.57E-03,2.87E-02
112952,4.49E-03,1.71E-02
112953,4.50E-03,1.91E-02
112954,4.50E-03,2.09E-02
112955,4.50E-03,2.22E-02
112956,4.50E-03,2.30E-02
112957,4.50E-03,2.35E-02
112958,4.50E-03,2.39E-02
112959,4.51E-03,2.42E-02
112960,4.51E-03,2.45E-02
112961,4.51E-03,2.48E-02
112962,4.51E-03,2.50E-02
112963,4.51E-03,2.52E-02
112964,4.51E-03,2.54E-02
112965,4.52E-03,2.56E-02
112966,4.52E-03,2.58E-02
112967,4.52E-03,2.60E-02
112968,4.52E-03,2.62E-02
112969,4.52E-03,2.63E-02
112970,4.52E-03,2.64E-02
112971,4.52E-03,2.66E-02
112972,4.53E-03,2.67E-02
112973,4.53E-03,2.68E-02
112974,4.53E-03,2.69E-02
112975,4.53E-03,2.70E-02
112976,4.53E-03,2.71E-02
112977,4.53E-03,2.72E-02
112978,4.54E-03,2.73E-02
112979,4.54E-03,2.74E-02
112980,4.54E-03,2.74E-02
112981,4.54E-03,2.75E-02
112982,4.54E-03,2.76E-02
112983,4.54E-03,2.76E-02
112984,4.55E-03,2.77E-02
112985,4.55E-03,2.77E-02
112986,4.55E-03,2.78E-02
112987,4.55E-03,2.78E-02
112988,4.55E-03,2.79E-02
112989,4.55E-03,2.79E-02
112990,4.56E-03,2.79E-02
112991,4.56E-03,2.80E-02
112992,4.56E-03,2.80E-02
112993,4.56E-03,2.80E-02
112994,4.56E-03,2.81E-02
112995,4.56E-03,2.81E-02
112996,4.56E-03,2.81E-02
112997,4.57E-03,2.81E-02
112998,4.57E-03,2.82E-02
112999,4.57E-03,2.82E-02
113000,4.57E-03,2.82E-02
113001,4.57E-03,2.82E-02
113002,4.57E-03,2.82E-02
113003,4.58E-03,2.82E-02
113004,4.58E-03,2.83E-02
113005,4.58E-03,2.83E-02
113006,4.58E-03,2.83E-02
113007,4.58E-03,2.83E-02
113008,4.58E-03,2.83E-02
113009,4.59E-03,2.83E-02
113010,4.59E-03,2.84E-02
113011,4.59E-03,2.84E-02
113012,4.59E-03,2.84E-02
113013,4.59E-03,2.84E-02
113014,4.59E-03,2.85E-02
113015,4.60E-03,2.85E-02
113016,4.60E-03,2.85E-02
113017,4.60E-03,2.86E-02
113018,4.60E-03,2.86E-02
113019,4.60E-03,2.87E-02
113020,4.60E-03,2.88E-02
113021,4.56E-03,1.74E-02
113022,4.57E-03,1.90E-02
113023,4.57E-03,2.04E-02
113024,4.57E-03,2.16E-02
113025,4.57E-03,2.25E-02
113026,4.57E-03,2.32E-02
113027,4.57E-03,2.36E-02
113028,4.57E-03,2.40E-02
113029,4.57E-03,2.43E-02
113030,4.57E-03,2.46E-02
113031,4.57E-03,2.48E-02
113032,4.57E-03,2.50E-02
113033,4.58E-03,2.52E-02
113034,4.58E-03,2.54E-02
113035,4.58E-03,2.56E-02
113036,4.58E-03,2.58E-02
113037,4.58E-03,2.59E-02
113038,4.58E-03,2.61E-02
113039,4.58E-03,2.62E-02
113040,4.58E-03,2.63E-02
113041,4.58E-03,2.65E-02
113042,4.58E-03,2.66E-02
113043,4.58E-03,2.67E-02
113044,4.59E-03,2.68E-02
113045,4.59E-03,2.69E-02
113046,4.59E-03,2.70E-02
113047,4.59E-03,2.71E-02
113048,4.59E-03,2.72E-02
113049,4.59E-03,2.72E-02
113050,4.59E-03,2.73E-02
113051,4.59E-03,2.74E-02
113052,4.59E-03,2.74E-02
113053,4.59E-03,2.75E-02
113054,4.59E-03,2.76E-02
113055,4.60E-03,2.76E-02
113056,4.60E-03,2.77E-02
113057,4.60E-03,2.77E-02
113058,4.60E-03,2.78E-02
113059,4.60E-03,2.78E-02
113060,4.60E-03,2.78E-02
113061,4.60E-03,2.79E-02
113062,4.60E-03,2.79E-02
113063,4.60E-03,2.80E-02
113064,4.60E-03,2.80E-02
113065,4.60E-03,2.80E-02
113066,4.61E-03,2.80E-02
113067,4.61E-03,2.81E-02
113068,4.61E-03,2.81E-02
113069,4.61E-03,2.81E-02
113070,4.61E-03,2.81E-02
113071,4.61E-03,2.82E-02
113072,4.61E-03,2.82E-02
113073,4.61E-03,2.82E-02
113074,4.61E-03,2.82E-02
113075,4.61E-03,2.83E-02
113076,4.61E-03,2.83E-02
113077,4.62E-03,2.83E-02
113078,4.62E-03,2.83E-02
113079,4.62E-03,2.83E-02
113080,4.62E-03,2.84E-02
113081,4.62E-03,2.84E-02
113082,4.62E-03,2.84E-02
113083,4.62E-03,2.85E-02
113084,4.62E-03,2.85E-02
113085,4.62E-03,2.86E-02
113086,4.62E-03,2.86E-02
113087,4.62E-03,2.87E-02
113088,4.63E-03,2.87E-02
113089,4.63E-03,2.88E-02
113090,4.61E-03,1.78E-02
113091,4.61E-03,1.90E-02
113092,4.61E-03,2.02E-02
113093,4.61E-03,2.13E-02
113094,4.61E-03,2.21E-02
113095,4.61E-03,2.28E-02
113096,4.61E-03,2.34E-02
113097,4.61E-03,2.37E-02
113098,4.61E-03,2.41E-02
113099,4.62E-03,2.43E-02
113100,4.62E-03,2.46E-02
113101,4.62E-03,2.48E-02
113102,4.62E-03,2.50E-02
113103,4.62E-03,2.52E-02
113104,4.62E-03,2.53E-02
113105,4.62E-03,2.55E-02
113106,4.62E-03,2.57E-02
113107,4.62E-03,2.58E-02
113108,4.62E-03,2.60E-02
113109,4.62E-03,2.61E-02
113110,4.62E-03,2.62E-02
113111,4.62E-03,2.64E-02
113112,4.62E-03,2.65E-02
113113,4.62E-03,2.66E-02
113114,4.62E-03,2.67E-02
113115,4.62E-03,2.68E-02
113116,4.62E-03,2.69E-02
113117,4.63E-03,2.70E-02
113118,4.63E-03,2.71E-02
113119,4.63E-03,2.71E-02
113120,4.63E-03,2.72E-02
113121,4.63E-03,2.73E-02
113122,4.63E-03,2.73E-02
113123,4.63E-03,2.74E-02
113124,4.63E-03,2.75E-02
113125,4.63E-03,2.75E-02
113126,4.63E-03,2.76E-02
113127,4.63E-03,2.76E-02
113128,4.63E-03,2.77E-02
113129,4.63E-03,2.77E-02
113130,4.63E-03,2.78E-02
113131,4.63E-03,2.78E-02
113132,4.63E-03,2.79E-02
113133,4.63E-03,2.79E-02
113134,4.63E-03,2.79E-02
113135,4.63E-03,2.80E-02
113136,4.64E-03,2.80E-02
113137,4.64E-03,2.80E-02
113138,4.64E-03,2.81E-02
113139,4.64E-03,2.81E-02
113140,4.64E-03,2.81E-02
113141,4.64E-03,2.81E-02
113142,4.64E-03,2.82E-02
113143,4.64E-03,2.82E-02
113144,4.64E-03,2.82E-02
113145,4.64E-03,2.82E-02
113146,4.64E-03,2.83E-02
113147,4.64E-03,2.83E-02
113148,4.64E-03,2.83E-02
113149,4.64E-03,2.84E-02
113150,4.64E-03,2.84E-02
113151,4.64E-03,2.84E-02
113152,4.64E-03,2.85E-02
113153,4.64E-03,2.85E-02
113154,4.65E-03,2.86E-02
113155,4.65E-03,2.87E-02
113156,4.65E-03,2.87E-02
113157,4.65E-03,2.88E-02
113158,4.65E-03,2.89E-02
113159,4.65E-03,1.82E-02
113160,4.65E-03,1.92E-02
113161,4.65E-03,2.02E-02
113162,4.65E-03,2.11E-02
113163,4.65E-03,2.18E-02
113164,4.65E-03,2.25E-02
113165,4.65E-03,2.30E-02
113166,4.65E-03,2.35E-02
113167,4.65E-03,2.38E-02
113168,4.65E-03,2.41E-02
113169,4.65E-03,2.43E-02
113170,4.65E-03,2.45E-02
113171,4.65E-03,2.47E-02
113172,4.65E-03,2.49E-02
113173,4.65E-03,2.51E-02
113174,4.65E-03,2.53E-02
113175,4.65E-03,2.54E-02
113176,4.65E-03,2.56E-02
113177,4.65E-03,2.57E-02
113178,4.65E-03,2.59E-02
113179,4.65E-03,2.60E-02
113180,4.66E-03,2.61E-02
113181,4.66E-03,2.63E-02
113182,4.66E-03,2.64E-02
113183,4.66E-03,2.65E-02
113184,4.66E-03,2.66E-02
113185,4.66E-03,2.67E-02
113186,4.66E-03,2.68E-02
113187,4.66E-03,2.69E-02
113188,4.66E-03,2.70E-02
113189,4.66E-03,2.70E-02
113190,4.66E-03,2.71E-02
113191,4.66E-03,2.72E-02
113192,4.66E-03,2.73E-02
113193,4.66E-03,2.73E-02
113194,4.66E-03,2.74E-02
113195,4.66E-03,2.74E-02
113196,4.66E-03,2.75E-02
113197,4.66E-03,2.76E-02
113198,4.66E-03,2.76E-02
113199,4.66E-03,2.77E-02
113200,4.66E-03,2.77E-02
113201,4.66E-03,2.77E-02
113202,4.66E-03,2.78E-02
113203,4.66E-03,2.78E-02
113204,4.66E-03,2.79E-02
113205,4.66E-03,2.79E-02
113206,4.66E-03,2.79E-02
113207,4.66E-03,2.80E-02
113208,4.66E-03,2.80E-02
113209,4.66E-03,2.81E-02
113210,4.66E-03,2.81E-02
113211,4.66E-03,2.81E-02
113212,4.66E-03,2.82E-02
113213,4.66E-03,2.82E-02
113214,4.66E-03,2.82E-02
113215,4.66E-03,2.83E-02
113216,4.66E-03,2.83E-02
113217,4.66E-03,2.83E-02
113218,4.66E-03,2.84E-02
113219,4.66E-03,2.84E-02
113220,4.67E-03,2.85E-02
113221,4.67E-03,2.85E-02
113222,4.67E-03,2.86E-02
113223,4.67E-03,2.86E-02
113224,4.67E-03,2.87E-02
113225,4.67E-03,2.88E-02
113226,4.67E-03,2.89E-02
113227,4.67E-03,2.90E-02
113228,4.68E-03,1.87E-02
113229,4.68E-03,1.95E-02
113230,4.68E-03,2.02E-02
113231,4.68E-03,2.10E-02
113232,4.68E-03,2.16E-02
113233,4.68E-03,2.23E-02
113234,4.68E-03,2.28E-02
113235,4.68E-03,2.32E-02
113236,4.68E-03,2.35E-02
113237,4.68E-03,2.38E-02
113238,4.68E-03,2.41E-02
113239,4.68E-03,2.43E-02
113240,4.68E-03,2.45E-02
113241,4.68E-03,2.47E-02
113242,4.68E-03,2.49E-02
113243,4.68E-03,2.50E-02
113244,4.68E-03,2.52E-02
113245,4.68E-03,2.53E-02
113246,4.68E-03,2.55E-02
113247,4.68E-03,2.56E-02
113248,4.68E-03,2.58E-02
113249,4.68E-03,2.59E-02
113250,4.68E-03,2.60E-02
113251,4.68E-03,2.62E-02
113252,4.68E-03,2.63E-02
113253,4.68E-03,2.64E-02
113254,4.68E-03,2.65E-02
113255,4.68E-03,2.66E-02
113256,4.68E-03,2.67E-02
113257,4.68E-03,2.68E-02
113258,4.68E-03,2.69E-02
113259,4.68E-03,2.69E-02
113260,4.68E-03,2.70E-02
113261,4.68E-03,2.71E-02
113262,4.68E-03,2.72E-02
113263,4.68E-03,2.72E-02
113264,4.68E-03,2.73E-02
113265,4.68E-03,2.74E-02
113266,4.68E-03,2.74E-02
113267,4.68E-03,2.75E-02
113268,4.68E-03,2.75E-02
113269,4.68E-03,2.76E-02
113270,4.68E-03,2.76E-02
113271,4.68E-03,2.77E-02
113272,4.68E-03,2.77E-02
113273,4.68E-03,2.78E-02
113274,4.68E-03,2.78E-02
113275,4.68E-03,2.79E-02
113276,4.68E-03,2.79E-02
113277,4.68E-03,2.80E-02
113278,4.68E-03,2.80E-02
113279,4.68E-03,2.80E-02
113280,4.68E-03,2.81E-02
113281,4.68E-03,2.81E-02
113282,4.68E-03,2.82E-02
113283,4.68E-03,2.82E-02
113284,4.68E-03,2.82E-02
113285,4.68E-03,2.83E-02
113286,4.68E-03,2.83E-02
113287,4.68E-03,2.84E-02
113288,4.68E-03,2.84E-02
113289,4.68E-03,2.85E-02
113290,4.68E-03,2.85E-02
113291,4.68E-03,2.86E-02
113292,4.68E-03,2.87E-02
113293,4.68E-03,2.88E-02
113294,4.68E-03,2.88E-02
113295,4.68E-03,2.89E-02
113296,4.68E-03,2.91E-02
113297,4.70E-03,1.92E-02
113298,4.70E-03,1.98E-02
113299,4.70E-03,2.03E-02
113300,4.70E-03,2.09E-02
113301,4.70E-03,2.15E-02
113302,4.70E-03,2.20E-02
113303,4.70E-03,2.25E-02
113304,4.70E-03,2.29E-02
113305,4.70E-03,2.33E-02
113306,4.70E-03,2.36E-02
113307,4.70E-03,2.38E-02
113308,4.70E-03,2.40E-02
113309,4.70E-03,2.42E-02
113310,4.70E-03,2.44E-02
113311,4.70E-03,2.46E-02
113312,4.70E-03,2.48E-02
113313,4.70E-03,2.49E-02
113314,4.70E-03,2.51E-02
113315,4.70E-03,2.53E-02
113316,4.70E-03,2.54E-02
113317,4.70E-03,2.55E-02
113318,4.70E-03,2.57E-02
113319,4.70E-03,2.58E-02
113320,4.70E-03,2.59E-02
113321,4.70E-03,2.61E-02
113322,4.70E-03,2.62E-02
113323,4.70E-03,2.63E-02
113324,4.70E-03,2.64E-02
113325,4.70E-03,2.65E-02
113326,4.70E-03,2.66E-02
113327,4.70E-03,2.67E-02
113328,4.70E-03,2.68E-02
113329,4.70E-03,2.69E-02
113330,4.70E-03,2.69E-02
113331,4.70E-03,2.70E-02
113332,4.70E-03,2.71E-02
113333,4.70E-03,2.72E-02
113334,4.70E-03,2.72E-02
113335,4.70E-03,2.73E-02
113336,4.70E-03,2.74E-02
113337,4.70E-03,2.74E-02
113338,4.70E-03,2.75E-02
113339,4.70E-03,2.75E-02
113340,4.70E-03,2.76E-02
113341,4.70E-03,2.77E-02
113342,4.70E-03,2.77E-02
113343,4.70E-03,2.78E-02
113344,4.70E-03,2.78E-02
113345,4.70E-03,2.79E-02
113346,4.70E-03,2.79E-02
113347,4.70E-03,2.79E-02
113348,4.70E-03,2.80E-02
113349,4.70E-03,2.80E-02
113350,4.70E-03,2.81E-02
113351,4.70E-03,2.81E-02
113352,4.70E-03,2.82E-02
113353,4.70E-03,2.82E-02
113354,4.70E-03,2.83E-02
113355,4.70E-03,2.83E-02
113356,4.70E-03,2.84E-02
113357,4.70E-03,2.84E-02
113358,4.70E-03,2.85E-02
113359,4.70E-03,2.86E-02
113360,4.70E-03,2.86E-02
113361,4.70E-03,2.87E-02
113362,4.70E-03,2.88E-02
113363,4.70E-03,2.89E-02
113364,4.70E-03,2.90E-02
113365,4.70E-03,2.91E-02
113366,4.72E-03,1.96E-02
113367,4.72E-03,2.00E-02
113368,4.72E-03,2.05E-02
113369,4.72E-03,2.10E-02
113370,4.72E-03,2.14E-02
113371,4.72E-03,2.19E-02
113372,4.72E-03,2.23E-02
113373,4.72E-03,2.26E-02
113374,4.72E-03,2.30E-02
113375,4.72E-03,2.33E-02
113376,4.72E-03,2.35E-02
113377,4.72E-03,2.38E-02
113378,4.72E-03,2.40E-02
113379,4.72E-03,2.42E-02
113380,4.72E-03,2.44E-02
113381,4.72E-03,2.45E-02
113382,4.72E-03,2.47E-02
113383,4.72E-03,2.49E-02
113384,4.72E-03,2.50E-02
113385,4.72E-03,2.52E-02
113386,4.72E-03,2.53E-02
113387,4.72E-03,2.55E-02
113388,4.72E-03,2.56E-02
113389,4.72E-03,2.57E-02
113390,4.72E-03,2.59E-02
113391,4.72E-03,2.60E-02
113392,4.72E-03,2.61E-02
113393,4.72E-03,2.62E-02
113394,4.72E-03,2.63E-02
113395,4.72E-03,2.64E-02
113396,4.72E-03,2.65E-02
113397,4.72E-03,2.66E-02
113398,4.72E-03,2.67E-02
113399,4.72E-03,2.68E-02
113400,4.72E-03,2.69E-02
113401,4.72E-03,2.70E-02
113402,4.72E-03,2.70E-02
113403,4.72E-03,2.71E-02
113404,4.72E-03,2.72E-02
113405,4.72E-03,2.73E-02
113406,4.72E-03,2.73E-02
113407,4.72E-03,2.74E-02
113408,4.72E-03,2.74E-02
113409,4.72E-03,2.75E-02
113410,4.72E-03,2.76E-02
113411,4.72E-03,2.76E-02
113412,4.72E-03,2.77E-02
113413,4.72E-03,2.77E-02
113414,4.72E-03,2.78E-02
113415,4.72E-03,2.78E-02
113416,4.72E-03,2.79E-02
113417,4.72E-03,2.79E-02
113418,4.72E-03,2.80E-02
113419,4.72E-03,2.80E-02
113420,4.72E-03,2.81E-02
113421,4.72E-03,2.82E-02
113422,4.72E-03,2.82E-02
113423,4.72E-03,2.83E-02
113424,4.72E-03,2.83E-02
113425,4.72E-03,2.84E-02
113426,4.72E-03,2.85E-02
113427,4.72E-03,2.85E-02
113428,4.72E-03,2.86E-02
113429,4.72E-03,2.87E-02
113430,4.72E-03,2.88E-02
113431,4.72E-03,2.89E-02
113432,4.72E-03,2.90E-02
113433,4.72E-03,2.91E-02
113434,4.72E-03,2.92E-02
113435,4.74E-03,2.00E-02
113436,4.74E-03,2.03E-02
113437,4.74E-03,2.06E-02
113438,4.74E-03,2.10E-02
113439,4.74E-03,2.14E-02
113440,4.74E-03,2.17E-02
113441,4.74E-03,2.21E-02
113442,4.74E-03,2.24E-02
113443,4.74E-03,2.27E-02
113444,4.74E-03,2.30E-02
113445,4.74E-03,2.32E-02
113446,4.74E-03,2.35E-02
113447,4.74E-03,2.37E-02
113448,4.74E-03,2.39E-02
113449,4.74E-03,2.41E-02
113450,4.74E-03,2.43E-02
113451,4.74E-03,2.44E-02
113452,4.74E-03,2.46E-02
113453,4.74E-03,2.48E-02
113454,4.74E-03,2.49E-02
113455,4.74E-03,2.51E-02
113456,4.74E-03,2.52E-02
113457,4.74E-03,2.54E-02
113458,4.74E-03,2.55E-02
113459,4.74E-03,2.56E-02
113460,4.74E-03,2.58E-02
113461,4.74E-03,2.59E-02
113462,4.74E-03,2.60E-02
113463,4.74E-03,2.61E-02
113464,4.74E-03,2.62E-02
113465,4.74E-03,2.63E-02
113466,4.74E-03,2.64E-02
113467,4.74E-03,2.65E-02
113468,4.74E-03,2.66E-02
113469,4.74E-03,2.67E-02
113470,4.74E-03,2.68E-02
113471,4.74E-03,2.69E-02
113472,4.74E-03,2.70E-02
113473,4.74E-03,2.71E-02
113474,4.74E-03,2.71E-02
113475,4.74E-03,2.72E-02
113476,4.74E-03,2.73E-02
113477,4.74E-03,2.73E-02
113478,4.74E-03,2.74E-02
113479,4.74E-03,2.75E-02
113480,4.74E-03,2.75E-02
113481,4.74E-03,2.76E-02
113482,4.74E-03,2.77E-02
113483,4.74E-03,2.77E-02
113484,4.74E-03,2.78E-02
113485,4.74E-03,2.78E-02
113486,4.74E-03,2.79E-02
113487,4.74E-03,2.80E-02
113488,4.74E-03,2.80E-02
113489,4.74E-03,2.81E-02
113490,4.74E-03,2.81E-02
113491,4.74E-03,2.82E-02
113492,4.74E-03,2.83E-02
113493,4.74E-03,2.83E-02
113494,4.74E-03,2.84E-02
113495,4.74E-03,2.85E-02
113496,4.74E-03,2.85E-02
113497,4.74E-03,2.86E-02
113498,4.74E-03,2.87E-02
113499,4.74E-03,2.88E-02
113500,4.74E-03,2.89E-02
113501,4.74E-03,2.90E-02
113502,4.74E-03,2.92E-02
113503,4.74E-03,2.93E-02
113504,4.76E-03,2.04E-02
113505,4.76E-03,2.06E-02
113506,4.76E-03,2.08E-02
113507,4.76E-03,2.11E-02
113508,4.76E-03,2.13E-02
113509,4.76E-03,2.16E-02
113510,4.76E-03,2.19E-02
113511,4.76E-03,2.22E-02
113512,4.76E-03,2.24E-02
113513,4.76E-03,2.27E-02
113514,4.76E-03,2.29E-02
113515,4.76E-03,2.32E-02
113516,4.76E-03,2.34E-02
113517,4.76E-03,2.36E-02
113518,4.76E-03,2.38E-02
113519,4.76E-03,2.40E-02
113520,4.76E-03,2.42E-02
113521,4.76E-03,2.44E-02
113522,4.76E-03,2.45E-02
113523,4.76E-03,2.47E-02
113524,4.76E-03,2.48E-02
113525,4.76E-03,2.50E-02
113526,4.76E-03,2.52E-02
113527,4.75E-03,2.53E-02
113528,4.75E-03,2.54E-02
113529,4.75E-03,2.56E-02
113530,4.75E-03,2.57E-02
113531,4.75E-03,2.58E-02
113532,4.75E-03,2.59E-02
113533,4.75E-03,2.61E-02
113534,4.75E-03,2.62E-02
113535,4.75E-03,2.63E-02
113536,4.75E-03,2.64E-02
113537,4.75E-03,2.65E-02
113538,4.75E-03,2.66E-02
113539,4.75E-03,2.67E-02
113540,4.75E-03,2.68E-02
113541,4.75E-03,2.69E-02
113542,4.75E-03,2.69E-02
113543,4.75E-03,2.70E-02
113544,4.75E-03,2.71E-02
113545,4.75E-03,2.72E-02
113546,4.75E-03,2.72E-02
113547,4.75E-03,2.73E-02
113548,4.75E-03,2.74E-02
113549,4.75E-03,2.75E-02
113550,4.75E-03,2.75E-02
113551,4.75E-03,2.76E-02
113552,4.75E-03,2.77E-02
113553,4.75E-03,2.77E-02
113554,4.75E-03,2.78E-02
113555,4.75E-03,2.79E-02
113556,4.75E-03,2.79E-02
113557,4.75E-03,2.80E-02
113558,4.75E-03,2.81E-02
113559,4.75E-03,2.81E-02
113560,4.75E-03,2.82E-02
113561,4.75E-03,2.83E-02
113562,4.75E-03,2.83E-02
113563,4.75E-03,2.84E-02
113564,4.75E-03,2.85E-02
113565,4.75E-03,2.86E-02
113566,4.75E-03,2.87E-02
113567,4.75E-03,2.88E-02
113568,4.75E-03,2.89E-02
113569,4.75E-03,2.90E-02
113570,4.75E-03,2.91E-02
113571,4.75E-03,2.92E-02
113572,4.75E-03,2.94E-02
113573,4.77E-03,2.08E-02
113574,4.77E-03,2.09E-02
113575,4.77E-03,2.10E-02
113576,4.77E-03,2.11E-02
113577,4.77E-03,2.13E-02
113578,4.77E-03,2.15E-02
113579,4.77E-03,2.17E-02
113580,4.77E-03,2.19E-02
113581,4.77E-03,2.22E-02
113582,4.77E-03,2.24E-02
113583,4.77E-03,2.27E-02
113584,4.77E-03,2.29E-02
113585,4.77E-03,2.31E-02
113586,4.77E-03,2.33E-02
113587,4.77E-03,2.35E-02
113588,4.77E-03,2.37E-02
113589,4.77E-03,2.39E-02
113590,4.77E-03,2.41E-02
113591,4.77E-03,2.43E-02
113592,4.77E-03,2.45E-02
113593,4.77E-03,2.46E-02
113594,4.77E-03,2.48E-02
113595,4.77E-03,2.49E-02
113596,4.77E-03,2.51E-02
113597,4.77E-03,2.52E-02
113598,4.77E-03,2.54E-02
113599,4.77E-03,2.55E-02
113600,4.77E-03,2.56E-02
113601,4.77E-03,2.58E-02
113602,4.77E-03,2.59E-02
113603,4.77E-03,2.60E-02
113604,4.77E-03,2.61E-02
113605,4.77E-03,2.62E-02
113606,4.77E-03,2.63E-02
113607,4.77E-03,2.64E-02
113608,4.77E-03,2.65E-02
113609,4.77E-03,2.66E-02
113610,4.77E-03,2.67E-02
113611,4.77E-03,2.68E-02
113612,4.77E-03,2.69E-02
113613,4.77E-03,2.70E-02
113614,4.77E-03,2.71E-02
113615,4.77E-03,2.72E-02
113616,4.77E-03,2.72E-02
113617,4.77E-03,2.73E-02
113618,4.77E-03,2.74E-02
113619,4.77E-03,2.75E-02
113620,4.77E-03,2.75E-02
113621,4.77E-03,2.76E-02
113622,4.77E-03,2.77E-02
113623,4.77E-03,2.77E-02
113624,4.77E-03,2.78E-02
113625,4.77E-03,2.79E-02
113626,4.77E-03,2.80E-02
113627,4.77E-03,2.80E-02
113628,4.77E-03,2.81E-02
113629,4.77E-03,2.82E-02
113630,4.77E-03,2.83E-02
113631,4.77E-03,2.83E-02
113632,4.77E-03,2.84E-02
113633,4.77E-03,2.85E-02
113634,4.77E-03,2.86E-02
113635,4.77E-03,2.87E-02
113636,4.77E-03,2.88E-02
113637,4.77E-03,2.89E-02
113638,4.77E-03,2.90E-02
113639,4.77E-03,2.92E-02
113640,4.77E-03,2.93E-02
113641,4.77E-03,2.95E-02
113642,4.79E-03,2.11E-02
113643,4.79E-03,2.11E-02
113644,4.79E-03,2.11E-02
113645,4.79E-03,2.12E-02
113646,4.79E-03,2.12E-02
113647,4.79E-03,2.14E-02
113648,4.79E-03,2.15E-02
113649,4.79E-03,2.17E-02
113650,4.79E-03,2.19E-02
113651,4.79E-03,2.22E-02
113652,4.79E-03,2.24E-02
113653,4.79E-03,2.26E-02
113654,4.79E-03,2.28E-02
113655,4.79E-03,2.30E-02
113656,4.79E-03,2.33E-02
113657,4.79E-03,2.35E-02
113658,4.79E-03,2.37E-02
113659,4.79E-03,2.38E-02
113660,4.79E-03,2.40E-02
113661,4.79E-03,2.42E-02
113662,4.79E-03,2.44E-02
113663,4.79E-03,2.46E-02
113664,4.79E-03,2.47E-02
113665,4.79E-03,2.49E-02
113666,4.79E-03,2.50E-02
113667,4.79E-03,2.52E-02
113668,4.79E-03,2.53E-02
113669,4.79E-03,2.55E-02
113670,4.79E-03,2.56E-02
113671,4.79E-03,2.57E-02
113672,4.79E-03,2.58E-02
113673,4.79E-03,2.60E-02
113674,4.79E-03,2.61E-02
113675,4.79E-03,2.62E-02
113676,4.79E-03,2.63E-02
113677,4.79E-03,2.64E-02
113678,4.79E-03,2.65E-02
113679,4.79E-03,2.66E-02
113680,4.79E-03,2.67E-02
113681,4.79E-03,2.68E-02
113682,4.79E-03,2.69E-02
113683,4.79E-03,2.70E-02
113684,4.79E-03,2.71E-02
113685,4.79E-03,2.71E-02
113686,4.79E-03,2.72E-02
113687,4.79E-03,2.73E-02
113688,4.79E-03,2.74E-02
113689,4.79E-03,2.75E-02
113690,4.79E-03,2.75E-02
113691,4.79E-03,2.76E-02
113692,4.79E-03,2.77E-02
113693,4.79E-03,2.78E-02
113694,4.79E-03,2.78E-02
113695,4.79E-03,2.79E-02
113696,4.79E-03,2.80E-02
113697,4.79E-03,2.81E-02
113698,4.79E-03,2.82E-02
113699,4.78E-03,2.83E-02
113700,4.78E-03,2.83E-02
113701,4.78E-03,2.84E-02
113702,4.78E-03,2.85E-02
113703,4.78E-03,2.86E-02
113704,4.78E-03,2.87E-02
113705,4.78E-03,2.88E-02
113706,4.78E-03,2.90E-02
113707,4.78E-03,2.91E-02
113708,4.78E-03,2.92E-02
113709,4.78E-03,2.94E-02
113710,4.78E-03,2.95E-02
113711,4.80E-03,2.16E-02
113712,4.80E-03,2.14E-02
113713,4.80E-03,2.13E-02
113714,4.80E-03,2.12E-02
113715,4.80E-03,2.12E-02
113716,4.80E-03,2.12E-02
113717,4.80E-03,2.13E-02
113718,4.80E-03,2.15E-02
113719,4.80E-03,2.17E-02
113720,4.80E-03,2.19E-02
113721,4.80E-03,2.21E-02
113722,4.80E-03,2.23E-02
113723,4.80E-03,2.26E-02
113724,4.80E-03,2.28E-02
113725,4.80E-03,2.30E-02
113726,4.80E-03,2.32E-02
113727,4.80E-03,2.34E-02
113728,4.80E-03,2.36E-02
113729,4.80E-03,2.38E-02
113730,4.80E-03,2.40E-02
113731,4.80E-03,2.42E-02
113732,4.80E-03,2.43E-02
113733,4.80E-03,2.45E-02
113734,4.80E-03,2.47E-02
113735,4.80E-03,2.48E-02
113736,4.80E-03,2.50E-02
113737,4.80E-03,2.51E-02
113738,4.80E-03,2.53E-02
113739,4.80E-03,2.54E-02
113740,4.80E-03,2.55E-02
113741,4.80E-03,2.57E-02
113742,4.80E-03,2.58E-02
113743,4.80E-03,2.59E-02
113744,4.80E-03,2.60E-02
113745,4.80E-03,2.62E-02
113746,4.80E-03,2.63E-02
113747,4.80E-03,2.64E-02
113748,4.80E-03,2.65E-02
113749,4.80E-03,2.66E-02
113750,4.80E-03,2.67E-02
113751,4.80E-03,2.68E-02
113752,4.80E-03,2.69E-02
113753,4.80E-03,2.70E-02
113754,4.80E-03,2.70E-02
113755,4.80E-03,2.71E-02
113756,4.80E-03,2.72E-02
113757,4.80E-03,2.73E-02
113758,4.80E-03,2.74E-02
113759,4.80E-03,2.75E-02
113760,4.80E-03,2.76E-02
113761,4.80E-03,2.76E-02
113762,4.80E-03,2.77E-02
113763,4.80E-03,2.78E-02
113764,4.80E-03,2.79E-02
113765,4.80E-03,2.80E-02
113766,4.80E-03,2.81E-02
113767,4.80E-03,2.82E-02
113768,4.80E-03,2.82E-02
113769,4.80E-03,2.83E-02
113770,4.80E-03,2.84E-02
113771,4.80E-03,2.85E-02
113772,4.80E-03,2.87E-02
113773,4.80E-03,2.88E-02
113774,4.80E-03,2.89E-02
113775,4.80E-03,2.90E-02
113776,4.80E-03,2.91E-02
113777,4.80E-03,2.93E-02
113778,4.80E-03,2.94E-02
113779,4.80E-03,2.96E-02
113780,4.81E-03,2.21E-02
113781,4.81E-03,2.16E-02
113782,4.81E-03,2.13E-02
113783,4.81E-03,2.11E-02
113784,4.81E-03,2.10E-02
113785,4.81E-03,2.11E-02
113786,4.81E-03,2.11E-02
113787,4.81E-03,2.13E-02
113788,4.81E-03,2.14E-02
113789,4.81E-03,2.16E-02
113790,4.81E-03,2.18E-02
113791,4.81E-03,2.21E-02
113792,4.81E-03,2.23E-02
113793,4.81E-03,2.25E-02
113794,4.81E-03,2.27E-02
113795,4.81E-03,2.29E-02
113796,4.81E-03,2.32E-02
113797,4.81E-03,2.34E-02
113798,4.81E-03,2.36E-02
113799,4.81E-03,2.37E-02
113800,4.82E-03,2.39E-02
113801,4.82E-03,2.41E-02
113802,4.82E-03,2.43E-02
113803,4.82E-03,2.45E-02
113804,4.82E-03,2.46E-02
113805,4.82E-03,2.48E-02
113806,4.82E-03,2.49E-02
113807,4.82E-03,2.51E-02
113808,4.82E-03,2.52E-02
113809,4.82E-03,2.54E-02
113810,4.82E-03,2.55E-02
113811,4.82E-03,2.56E-02
113812,4.82E-03,2.58E-02
113813,4.82E-03,2.59E-02
113814,4.82E-03,2.60E-02
113815,4.82E-03,2.61E-02
113816,4.82E-03,2.62E-02
113817,4.82E-03,2.64E-02
113818,4.82E-03,2.65E-02
113819,4.82E-03,2.66E-02
113820,4.82E-03,2.67E-02
113821,4.82E-03,2.68E-02
113822,4.82E-03,2.69E-02
113823,4.82E-03,2.70E-02
113824,4.82E-03,2.71E-02
113825,4.82E-03,2.71E-02
113826,4.82E-03,2.72E-02
113827,4.82E-03,2.73E-02
113828,4.82E-03,2.74E-02
113829,4.82E-03,2.75E-02
113830,4.82E-03,2.76E-02
113831,4.82E-03,2.77E-02
113832,4.82E-03,2.78E-02
113833,4.82E-03,2.79E-02
113834,4.82E-03,2.80E-02
113835,4.82E-03,2.80E-02
113836,4.82E-03,2.81E-02
113837,4.82E-03,2.82E-02
113838,4.82E-03,2.83E-02
113839,4.82E-03,2.84E-02
113840,4.82E-03,2.86E-02
113841,4.82E-03,2.87E-02
113842,4.82E-03,2.88E-02
113843,4.82E-03,2.89E-02
113844,4.82E-03,2.90E-02
113845,4.82E-03,2.92E-02
113846,4.82E-03,2.93E-02
113847,4.82E-03,2.95E-02
113848,4.82E-03,2.96E-02
113849,4.81E-03,2.25E-02
113850,4.81E-03,2.18E-02
113851,4.81E-03,2.13E-02
113852,4.82E-03,2.10E-02
113853,4.82E-03,2.09E-02
113854,4.82E-03,2.09E-02
113855,4.82E-03,2.09E-02
113856,4.82E-03,2.11E-02
113857,4.82E-03,2.12E-02
113858,4.82E-03,2.14E-02
113859,4.82E-03,2.16E-02
113860,4.82E-03,2.18E-02
113861,4.82E-03,2.20E-02
113862,4.82E-03,2.23E-02
113863,4.82E-03,2.25E-02
113864,4.82E-03,2.27E-02
113865,4.82E-03,2.29E-02
113866,4.82E-03,2.31E-02
113867,4.82E-03,2.33E-02
113868,4.82E-03,2.35E-02
113869,4.82E-03,2.37E-02
113870,4.82E-03,2.39E-02
113871,4.82E-03,2.41E-02
113872,4.82E-03,2.43E-02
113873,4.82E-03,2.44E-02
113874,4.82E-03,2.46E-02
113875,4.82E-03,2.48E-02
113876,4.82E-03,2.49E-02
113877,4.82E-03,2.51E-02
113878,4.82E-03,2.52E-02
113879,4.82E-03,2.53E-02
113880,4.82E-03,2.55E-02
113881,4.82E-03,2.56E-02
113882,4.82E-03,2.57E-02
113883,4.82E-03,2.59E-02
113884,4.82E-03,2.60E-02
113885,4.83E-03,2.61E-02
113886,4.83E-03,2.62E-02
113887,4.83E-03,2.63E-02
113888,4.83E-03,2.65E-02
113889,4.83E-03,2.66E-02
113890,4.83E-03,2.67E-02
113891,4.83E-03,2.68E-02
113892,4.83E-03,2.69E-02
113893,4.83E-03,2.70E-02
113894,4.83E-03,2.71E-02
113895,4.83E-03,2.72E-02
113896,4.83E-03,2.73E-02
113897,4.83E-03,2.74E-02
113898,4.83E-03,2.74E-02
113899,4.83E-03,2.75E-02
113900,4.83E-03,2.76E-02
113901,4.83E-03,2.77E-02
113902,4.83E-03,2.78E-02
113903,4.83E-03,2.79E-02
113904,4.83E-03,2.80E-02
113905,4.83E-03,2.81E-02
113906,4.83E-03,2.82E-02
113907,4.83E-03,2.83E-02
113908,4.83E-03,2.85E-02
113909,4.83E-03,2.86E-02
113910,4.83E-03,2.87E-02
113911,4.83E-03,2.88E-02
113912,4.83E-03,2.89E-02
113913,4.83E-03,2.91E-02
113914,4.83E-03,2.92E-02
113915,4.83E-03,2.94E-02
113916,4.83E-03,2.95E-02
113917,4.84E-03,2.97E-02
113918,4.81E-03,2.28E-02
113919,4.81E-03,2.19E-02
113920,4.81E-03,2.12E-02
113921,4.81E-03,2.09E-02
113922,4.81E-03,2.07E-02
113923,4.81E-03,2.07E-02
113924,4.81E-03,2.07E-02
113925,4.81E-03,2.08E-02
113926,4.81E-03,2.10E-02
113927,4.81E-03,2.12E-02
113928,4.81E-03,2.14E-02
113929,4.82E-03,2.16E-02
113930,4.82E-03,2.18E-02
113931,4.82E-03,2.20E-02
113932,4.82E-03,2.22E-02
113933,4.82E-03,2.25E-02
113934,4.82E-03,2.27E-02
113935,4.82E-03,2.29E-02
113936,4.82E-03,2.31E-02
113937,4.82E-03,2.33E-02
113938,4.82E-03,2.35E-02
113939,4.82E-03,2.37E-02
113940,4.82E-03,2.39E-02
113941,4.82E-03,2.41E-02
113942,4.82E-03,2.42E-02
113943,4.82E-03,2.44E-02
113944,4.83E-03,2.46E-02
113945,4.83E-03,2.47E-02
113946,4.83E-03,2.49E-02
113947,4.83E-03,2.50E-02
113948,4.83E-03,2.52E-02
113949,4.83E-03,2.53E-02
113950,4.83E-03,2.55E-02
113951,4.83E-03,2.56E-02
113952,4.83E-03,2.57E-02
113953,4.83E-03,2.59E-02
113954,4.83E-03,2.60E-02
113955,4.83E-03,2.61E-02
113956,4.83E-03,2.62E-02
113957,4.83E-03,2.63E-02
113958,4.84E-03,2.65E-02
113959,4.84E-03,2.66E-02
113960,4.84E-03,2.67E-02
113961,4.84E-03,2.68E-02
113962,4.84E-03,2.69E-02
113963,4.84E-03,2.70E-02
113964,4.84E-03,2.71E-02
113965,4.84E-03,2.72E-02
113966,4.84E-03,2.73E-02
113967,4.84E-03,2.74E-02
113968,4.84E-03,2.75E-02
113969,4.84E-03,2.76E-02
113970,4.84E-03,2.77E-02
113971,4.84E-03,2.78E-02
113972,4.84E-03,2.79E-02
113973,4.85E-03,2.80E-02
113974,4.85E-03,2.81E-02
113975,4.85E-03,2.82E-02
113976,4.85E-03,2.83E-02
113977,4.85E-03,2.85E-02
113978,4.85E-03,2.86E-02
113979,4.85E-03,2.87E-02
113980,4.85E-03,2.88E-02
113981,4.85E-03,2.90E-02
113982,4.85E-03,2.91E-02
113983,4.85E-03,2.93E-02
113984,4.85E-03,2.94E-02
113985,4.85E-03,2.96E-02
113986,4.85E-03,2.97E-02
113987,4.78E-03,2.27E-02
113988,4.78E-03,2.17E-02
113989,4.79E-03,2.11E-02
113990,4.79E-03,2.07E-02
113991,4.79E-03,2.05E-02
113992,4.79E-03,2.05E-02
113993,4.79E-03,2.05E-02
113994,4.79E-03,2.06E-02
113995,4.79E-03,2.08E-02
113996,4.80E-03,2.09E-02
113997,4.80E-03,2.11E-02
113998,4.80E-03,2.13E-02
113999,4.80E-03,2.16E-02
114000,4.80E-03,2.18E-02
114001,4.80E-03,2.20E-02
114002,4.80E-03,2.22E-02
114003,4.80E-03,2.24E-02
114004,4.81E-03,2.27E-02
114005,4.81E-03,2.29E-02
114006,4.81E-03,2.31E-02
114007,4.81E-03,2.33E-02
114008,4.81E-03,2.35E-02
114009,4.81E-03,2.37E-02
114010,4.81E-03,2.39E-02
114011,4.82E-03,2.40E-02
114012,4.82E-03,2.42E-02
114013,4.82E-03,2.44E-02
114014,4.82E-03,2.46E-02
114015,4.82E-03,2.47E-02
114016,4.82E-03,2.49E-02
114017,4.82E-03,2.50E-02
114018,4.83E-03,2.52E-02
114019,4.83E-03,2.53E-02
114020,4.83E-03,2.55E-02
114021,4.83E-03,2.56E-02
114022,4.83E-03,2.57E-02
114023,4.83E-03,2.59E-02
114024,4.83E-03,2.60E-02
114025,4.84E-03,2.61E-02
114026,4.84E-03,2.62E-02
114027,4.84E-03,2.63E-02
114028,4.84E-03,2.65E-02
114029,4.84E-03,2.66E-02
114030,4.84E-03,2.67E-02
114031,4.84E-03,2.68E-02
114032,4.84E-03,2.69E-02
114033,4.85E-03,2.70E-02
114034,4.85E-03,2.71E-02
114035,4.85E-03,2.72E-02
114036,4.85E-03,2.73E-02
114037,4.85E-03,2.74E-02
114038,4.85E-03,2.75E-02
114039,4.85E-03,2.77E-02
114040,4.86E-03,2.78E-02
114041,4.86E-03,2.79E-02
114042,4.86E-03,2.80E-02
114043,4.86E-03,2.81E-02
114044,4.86E-03,2.82E-02
114045,4.86E-03,2.83E-02
114046,4.86E-03,2.85E-02
114047,4.87E-03,2.86E-02
114048,4.87E-03,2.87E-02
114049,4.87E-03,2.88E-02
114050,4.87E-03,2.90E-02
114051,4.87E-03,2.91E-02
114052,4.87E-03,2.93E-02
114053,4.87E-03,2.94E-02
114054,4.87E-03,2.96E-02
114055,4.88E-03,2.98E-02
114056,4.73E-03,2.20E-02
114057,4.73E-03,2.13E-02
114058,4.73E-03,2.09E-02
114059,4.74E-03,2.05E-02
114060,4.74E-03,2.04E-02
114061,4.74E-03,2.03E-02
114062,4.74E-03,2.04E-02
114063,4.75E-03,2.04E-02
114064,4.75E-03,2.06E-02
114065,4.75E-03,2.07E-02
114066,4.75E-03,2.09E-02
114067,4.76E-03,2.11E-02
114068,4.76E-03,2.13E-02
114069,4.76E-03,2.15E-02
114070,4.76E-03,2.18E-02
114071,4.77E-03,2.20E-02
114072,4.77E-03,2.22E-02
114073,4.77E-03,2.24E-02
114074,4.77E-03,2.26E-02
114075,4.78E-03,2.29E-02
114076,4.78E-03,2.31E-02
114077,4.78E-03,2.33E-02
114078,4.78E-03,2.35E-02
114079,4.79E-03,2.37E-02
114080,4.79E-03,2.38E-02
114081,4.79E-03,2.40E-02
114082,4.79E-03,2.42E-02
114083,4.80E-03,2.44E-02
114084,4.80E-03,2.45E-02
114085,4.80E-03,2.47E-02
114086,4.80E-03,2.49E-02
114087,4.81E-03,2.50E-02
114088,4.81E-03,2.52E-02
114089,4.81E-03,2.53E-02
114090,4.82E-03,2.55E-02
114091,4.82E-03,2.56E-02
114092,4.82E-03,2.57E-02
114093,4.82E-03,2.59E-02
114094,4.83E-03,2.60E-02
114095,4.83E-03,2.61E-02
114096,4.83E-03,2.62E-02
114097,4.83E-03,2.64E-02
114098,4.84E-03,2.65E-02
114099,4.84E-03,2.66E-02
114100,4.84E-03,2.67E-02
114101,4.84E-03,2.68E-02
114102,4.85E-03,2.69E-02
114103,4.85E-03,2.71E-02
114104,4.85E-03,2.72E-02
114105,4.85E-03,2.73E-02
114106,4.86E-03,2.74E-02
114107,4.86E-03,2.75E-02
114108,4.86E-03,2.76E-02
114109,4.86E-03,2.77E-02
114110,4.87E-03,2.78E-02
114111,4.87E-03,2.80E-02
114112,4.87E-03,2.81E-02
114113,4.87E-03,2.82E-02
114114,4.88E-03,2.83E-02
114115,4.88E-03,2.85E-02
114116,4.88E-03,2.86E-02
114117,4.88E-03,2.87E-02
114118,4.89E-03,2.89E-02
114119,4.89E-03,2.90E-02
114120,4.89E-03,2.91E-02
114121,4.89E-03,2.93E-02
114122,4.90E-03,2.95E-02
114123,4.90E-03,2.96E-02
114124,4.90E-03,2.98E-02
114125,4.74E-03,2.10E-02
114126,4.75E-03,2.08E-02
114127,4.75E-03,2.05E-02
114128,4.75E-03,2.03E-02
114129,4.76E-03,2.02E-02
114130,4.76E-03,2.02E-02
114131,4.76E-03,2.02E-02
114132,4.76E-03,2.03E-02
114133,4.77E-03,2.04E-02
114134,4.77E-03,2.05E-02
114135,4.77E-03,2.07E-02
114136,4.77E-03,2.09E-02
114137,4.78E-03,2.11E-02
114138,4.78E-03,2.13E-02
114139,4.78E-03,2.16E-02
114140,4.79E-03,2.18E-02
114141,4.79E-03,2.20E-02
114142,4.79E-03,2.22E-02
114143,4.79E-03,2.24E-02
114144,4.80E-03,2.26E-02
114145,4.80E-03,2.29E-02
114146,4.80E-03,2.31E-02
114147,4.80E-03,2.33E-02
114148,4.81E-03,2.35E-02
114149,4.81E-03,2.37E-02
114150,4.81E-03,2.38E-02
114151,4.82E-03,2.40E-02
114152,4.82E-03,2.42E-02
114153,4.82E-03,2.44E-02
114154,4.82E-03,2.45E-02
114155,4.83E-03,2.47E-02
114156,4.83E-03,2.49E-02
114157,4.83E-03,2.50E-02
114158,4.83E-03,2.52E-02
114159,4.84E-03,2.53E-02
114160,4.84E-03,2.55E-02
114161,4.84E-03,2.56E-02
114162,4.84E-03,2.57E-02
114163,4.85E-03,2.59E-02
114164,4.85E-03,2.60E-02
114165,4.85E-03,2.61E-02
114166,4.86E-03,2.63E-02
114167,4.86E-03,2.64E-02
114168,4.86E-03,2.65E-02
114169,4.86E-03,2.66E-02
114170,4.87E-03,2.67E-02
114171,4.87E-03,2.69E-02
114172,4.87E-03,2.70E-02
114173,4.87E-03,2.71E-02
114174,4.88E-03,2.72E-02
114175,4.88E-03,2.73E-02
114176,4.88E-03,2.74E-02
114177,4.89E-03,2.76E-02
114178,4.89E-03,2.77E-02
114179,4.89E-03,2.78E-02
114180,4.89E-03,2.79E-02
114181,4.90E-03,2.81E-02
114182,4.90E-03,2.82E-02
114183,4.90E-03,2.83E-02
114184,4.90E-03,2.84E-02
114185,4.91E-03,2.86E-02
114186,4.91E-03,2.87E-02
114187,4.91E-03,2.89E-02
114188,4.92E-03,2.90E-02
114189,4.92E-03,2.92E-02
114190,4.92E-03,2.93E-02
114191,4.92E-03,2.95E-02
114192,4.93E-03,2.96E-02
114193,4.93E-03,2.98E-02
114194,4.77E-03,2.01E-02
114195,4.77E-03,2.02E-02
114196,4.78E-03,2.01E-02
114197,4.78E-03,2.01E-02
114198,4.78E-03,2.00E-02
114199,4.78E-03,2.00E-02
114200,4.79E-03,2.00E-02
114201,4.79E-03,2.01E-02
114202,4.79E-03,2.02E-02
114203,4.80E-03,2.04E-02
114204,4.80E-03,2.05E-02
114205,4.80E-03,2.07E-02
114206,4.80E-03,2.09E-02
114207,4.81E-03,2.11E-02
114208,4.81E-03,2.13E-02
114209,4.81E-03,2.16E-02
114210,4.81E-03,2.18E-02
114211,4.82E-03,2.20E-02
114212,4.82E-03,2.22E-02
114213,4.82E-03,2.24E-02
114214,4.83E-03,2.27E-02
114215,4.83E-03,2.29E-02
114216,4.83E-03,2.31E-02
114217,4.83E-03,2.33E-02
114218,4.84E-03,2.35E-02
114219,4.84E-03,2.37E-02
114220,4.84E-03,2.39E-02
114221,4.84E-03,2.40E-02
114222,4.85E-03,2.42E-02
114223,4.85E-03,2.44E-02
114224,4.85E-03,2.46E-02
114225,4.86E-03,2.47E-02
114226,4.86E-03,2.49E-02
114227,4.86E-03,2.50E-02
114228,4.86E-03,2.52E-02
114229,4.87E-03,2.53E-02
114230,4.87E-03,2.55E-02
114231,4.87E-03,2.56E-02
114232,4.88E-03,2.58E-02
114233,4.88E-03,2.59E-02
114234,4.88E-03,2.60E-02
114235,4.88E-03,2.62E-02
114236,4.89E-03,2.63E-02
114237,4.89E-03,2.64E-02
114238,4.89E-03,2.65E-02
114239,4.89E-03,2.67E-02
114240,4.90E-03,2.68E-02
114241,4.90E-03,2.69E-02
114242,4.90E-03,2.70E-02
114243,4.91E-03,2.72E-02
114244,4.91E-03,2.73E-02
114245,4.91E-03,2.74E-02
114246,4.91E-03,2.75E-02
114247,4.92E-03,2.76E-02
114248,4.92E-03,2.78E-02
114249,4.92E-03,2.79E-02
114250,4.92E-03,2.80E-02
114251,4.93E-03,2.82E-02
114252,4.93E-03,2.83E-02
114253,4.93E-03,2.84E-02
114254,4.94E-03,2.86E-02
114255,4.94E-03,2.87E-02
114256,4.94E-03,2.89E-02
114257,4.94E-03,2.90E-02
114258,4.95E-03,2.92E-02
114259,4.95E-03,2.93E-02
114260,4.95E-03,2.95E-02
114261,4.95E-03,2.96E-02
114262,4.96E-03,2.98E-02
114263,4.80E-03,1.94E-02
114264,4.80E-03,1.95E-02
114265,4.80E-03,1.97E-02
114266,4.81E-03,1.97E-02
114267,4.81E-03,1.97E-02
114268,4.81E-03,1.98E-02
114269,4.81E-03,1.98E-02
114270,4.82E-03,1.99E-02
114271,4.82E-03,2.00E-02
114272,4.82E-03,2.02E-02
114273,4.83E-03,2.04E-02
114274,4.83E-03,2.05E-02
114275,4.83E-03,2.07E-02
114276,4.83E-03,2.09E-02
114277,4.84E-03,2.12E-02
114278,4.84E-03,2.14E-02
114279,4.84E-03,2.16E-02
114280,4.84E-03,2.18E-02
114281,4.85E-03,2.20E-02
114282,4.85E-03,2.23E-02
114283,4.85E-03,2.25E-02
114284,4.86E-03,2.27E-02
114285,4.86E-03,2.29E-02
114286,4.86E-03,2.31E-02
114287,4.86E-03,2.33E-02
114288,4.87E-03,2.35E-02
114289,4.87E-03,2.37E-02
114290,4.87E-03,2.39E-02
114291,4.88E-03,2.41E-02
114292,4.88E-03,2.42E-02
114293,4.88E-03,2.44E-02
114294,4.88E-03,2.46E-02
114295,4.89E-03,2.47E-02
114296,4.89E-03,2.49E-02
114297,4.89E-03,2.51E-02
114298,4.89E-03,2.52E-02
114299,4.90E-03,2.54E-02
114300,4.90E-03,2.55E-02
114301,4.90E-03,2.56E-02
114302,4.91E-03,2.58E-02
114303,4.91E-03,2.59E-02
114304,4.91E-03,2.61E-02
114305,4.91E-03,2.62E-02
114306,4.92E-03,2.63E-02
114307,4.92E-03,2.65E-02
114308,4.92E-03,2.66E-02
114309,4.93E-03,2.67E-02
114310,4.93E-03,2.68E-02
114311,4.93E-03,2.70E-02
114312,4.93E-03,2.71E-02
114313,4.94E-03,2.72E-02
114314,4.94E-03,2.73E-02
114315,4.94E-03,2.75E-02
114316,4.94E-03,2.76E-02
114317,4.95E-03,2.77E-02
114318,4.95E-03,2.79E-02
114319,4.95E-03,2.80E-02
114320,4.96E-03,2.81E-02
114321,4.96E-03,2.83E-02
114322,4.96E-03,2.84E-02
114323,4.96E-03,2.86E-02
114324,4.97E-03,2.87E-02
114325,4.97E-03,2.89E-02
114326,4.97E-03,2.90E-02
114327,4.98E-03,2.92E-02
114328,4.98E-03,2.93E-02
114329,4.98E-03,2.95E-02
114330,4.98E-03,2.96E-02
114331,4.99E-03,2.98E-02
114332,4.82E-03,1.88E-02
114333,4.83E-03,1.90E-02
114334,4.83E-03,1.92E-02
114335,4.83E-03,1.93E-02
114336,4.84E-03,1.95E-02
114337,4.84E-03,1.95E-02
114338,4.84E-03,1.96E-02
114339,4.84E-03,1.98E-02
114340,4.85E-03,1.99E-02
114341,4.85E-03,2.00E-02
114342,4.85E-03,2.02E-02
114343,4.86E-03,2.04E-02
114344,4.86E-03,2.06E-02
114345,4.86E-03,2.08E-02
114346,4.86E-03,2.10E-02
114347,4.87E-03,2.12E-02
114348,4.87E-03,2.14E-02
114349,4.87E-03,2.16E-02
114350,4.88E-03,2.19E-02
114351,4.88E-03,2.21E-02
114352,4.88E-03,2.23E-02
114353,4.88E-03,2.25E-02
114354,4.89E-03,2.27E-02
114355,4.89E-03,2.29E-02
114356,4.89E-03,2.31E-02
114357,4.89E-03,2.33E-02
114358,4.90E-03,2.35E-02
114359,4.90E-03,2.37E-02
114360,4.90E-03,2.39E-02
114361,4.91E-03,2.41E-02
114362,4.91E-03,2.43E-02
114363,4.91E-03,2.44E-02
114364,4.91E-03,2.46E-02
114365,4.92E-03,2.48E-02
114366,4.92E-03,2.49E-02
114367,4.92E-03,2.51E-02
114368,4.93E-03,2.52E-02
114369,4.93E-03,2.54E-02
114370,4.93E-03,2.55E-02
114371,4.93E-03,2.57E-02
114372,4.94E-03,2.58E-02
114373,4.94E-03,2.60E-02
114374,4.94E-03,2.61E-02
114375,4.94E-03,2.62E-02
114376,4.95E-03,2.64E-02
114377,4.95E-03,2.65E-02
114378,4.95E-03,2.66E-02
114379,4.96E-03,2.68E-02
114380,4.96E-03,2.69E-02
114381,4.96E-03,2.70E-02
114382,4.96E-03,2.72E-02
114383,4.97E-03,2.73E-02
114384,4.97E-03,2.74E-02
114385,4.97E-03,2.76E-02
114386,4.98E-03,2.77E-02
114387,4.98E-03,2.78E-02
114388,4.98E-03,2.80E-02
114389,4.98E-03,2.81E-02
114390,4.99E-03,2.82E-02
114391,4.99E-03,2.84E-02
114392,4.99E-03,2.85E-02
114393,5.00E-03,2.87E-02
114394,5.00E-03,2.88E-02
114395,5.00E-03,2.90E-02
114396,5.00E-03,2.92E-02
114397,5.01E-03,2.93E-02
114398,5.01E-03,2.95E-02
114399,5.01E-03,2.96E-02
114400,5.01E-03,2.98E-02
114401,4.85E-03,1.82E-02
114402,4.85E-03,1.85E-02
114403,4.86E-03,1.87E-02
114404,4.86E-03,1.89E-02
114405,4.86E-03,1.91E-02
114406,4.87E-03,1.93E-02
114407,4.87E-03,1.94E-02
114408,4.87E-03,1.96E-02
114409,4.87E-03,1.97E-02
114410,4.88E-03,1.99E-02
114411,4.88E-03,2.00E-02
114412,4.88E-03,2.02E-02
114413,4.89E-03,2.04E-02
114414,4.89E-03,2.06E-02
114415,4.89E-03,2.08E-02
114416,4.89E-03,2.10E-02
114417,4.90E-03,2.12E-02
114418,4.90E-03,2.15E-02
114419,4.90E-03,2.17E-02
114420,4.91E-03,2.19E-02
114421,4.91E-03,2.21E-02
114422,4.91E-03,2.23E-02
114423,4.91E-03,2.25E-02
114424,4.92E-03,2.28E-02
114425,4.92E-03,2.30E-02
114426,4.92E-03,2.32E-02
114427,4.93E-03,2.34E-02
114428,4.93E-03,2.36E-02
114429,4.93E-03,2.37E-02
114430,4.93E-03,2.39E-02
114431,4.94E-03,2.41E-02
114432,4.94E-03,2.43E-02
114433,4.94E-03,2.45E-02
114434,4.94E-03,2.46E-02
114435,4.95E-03,2.48E-02
114436,4.95E-03,2.50E-02
114437,4.95E-03,2.51E-02
114438,4.96E-03,2.53E-02
114439,4.96E-03,2.54E-02
114440,4.96E-03,2.56E-02
114441,4.96E-03,2.57E-02
114442,4.97E-03,2.59E-02
114443,4.97E-03,2.60E-02
114444,4.97E-03,2.61E-02
114445,4.98E-03,2.63E-02
114446,4.98E-03,2.64E-02
114447,4.98E-03,2.66E-02
114448,4.98E-03,2.67E-02
114449,4.99E-03,2.68E-02
114450,4.99E-03,2.70E-02
114451,4.99E-03,2.71E-02
114452,5.00E-03,2.72E-02
114453,5.00E-03,2.74E-02
114454,5.00E-03,2.75E-02
114455,5.00E-03,2.76E-02
114456,5.01E-03,2.78E-02
114457,5.01E-03,2.79E-02
114458,5.01E-03,2.81E-02
114459,5.02E-03,2.82E-02
114460,5.02E-03,2.84E-02
114461,5.02E-03,2.85E-02
114462,5.02E-03,2.87E-02
114463,5.03E-03,2.88E-02
114464,5.03E-03,2.90E-02
114465,5.03E-03,2.92E-02
114466,5.03E-03,2.93E-02
114467,5.04E-03,2.95E-02
114468,5.04E-03,2.96E-02
114469,5.04E-03,2.98E-02
114470,4.88E-03,1.76E-02
114471,4.88E-03,1.80E-02
114472,4.89E-03,1.83E-02
114473,4.89E-03,1.86E-02
114474,4.89E-03,1.88E-02
114475,4.89E-03,1.90E-02
114476,4.90E-03,1.92E-02
114477,4.90E-03,1.94E-02
114478,4.90E-03,1.95E-02
114479,4.90E-03,1.97E-02
114480,4.91E-03,1.99E-02
114481,4.91E-03,2.00E-02
114482,4.91E-03,2.02E-02
114483,4.92E-03,2.04E-02
114484,4.92E-03,2.06E-02
114485,4.92E-03,2.08E-02
114486,4.92E-03,2.11E-02
114487,4.93E-03,2.13E-02
114488,4.93E-03,2.15E-02
114489,4.93E-03,2.17E-02
114490,4.94E-03,2.19E-02
114491,4.94E-03,2.22E-02
114492,4.94E-03,2.24E-02
114493,4.94E-03,2.26E-02
114494,4.95E-03,2.28E-02
114495,4.95E-03,2.30E-02
114496,4.95E-03,2.32E-02
114497,4.96E-03,2.34E-02
114498,4.96E-03,2.36E-02
114499,4.96E-03,2.38E-02
114500,4.96E-03,2.40E-02
114501,4.97E-03,2.41E-02
114502,4.97E-03,2.43E-02
114503,4.97E-03,2.45E-02
114504,4.98E-03,2.47E-02
114505,4.98E-03,2.48E-02
114506,4.98E-03,2.50E-02
114507,4.98E-03,2.52E-02
114508,4.99E-03,2.53E-02
114509,4.99E-03,2.55E-02
114510,4.99E-03,2.56E-02
114511,5.00E-03,2.58E-02
114512,5.00E-03,2.59E-02
114513,5.00E-03,2.61E-02
114514,5.00E-03,2.62E-02
114515,5.01E-03,2.63E-02
114516,5.01E-03,2.65E-02
114517,5.01E-03,2.66E-02
114518,5.02E-03,2.68E-02
114519,5.02E-03,2.69E-02
114520,5.02E-03,2.70E-02
114521,5.02E-03,2.72E-02
114522,5.03E-03,2.73E-02
114523,5.03E-03,2.75E-02
114524,5.03E-03,2.76E-02
114525,5.04E-03,2.77E-02
114526,5.04E-03,2.79E-02
114527,5.04E-03,2.80E-02
114528,5.04E-03,2.82E-02
114529,5.05E-03,2.83E-02
114530,5.05E-03,2.85E-02
114531,5.05E-03,2.87E-02
114532,5.06E-03,2.88E-02
114533,5.06E-03,2.90E-02
114534,5.06E-03,2.91E-02
114535,5.06E-03,2.93E-02
114536,5.07E-03,2.95E-02
114537,5.07E-03,2.96E-02
114538,5.07E-03,2.98E-02
114539,4.91E-03,1.71E-02
114540,4.91E-03,1.75E-02
114541,4.91E-03,1.79E-02
114542,4.92E-03,1.82E-02
114543,4.92E-03,1.85E-02
114544,4.92E-03,1.87E-02
114545,4.92E-03,1.89E-02
114546,4.93E-03,1.91E-02
114547,4.93E-03,1.93E-02
114548,4.93E-03,1.95E-02
114549,4.94E-03,1.97E-02
114550,4.94E-03,1.99E-02
114551,4.94E-03,2.01E-02
114552,4.94E-03,2.03E-02
114553,4.95E-03,2.05E-02
114554,4.95E-03,2.07E-02
114555,4.95E-03,2.09E-02
114556,4.96E-03,2.11E-02
114557,4.96E-03,2.13E-02
114558,4.96E-03,2.16E-02
114559,4.96E-03,2.18E-02
114560,4.97E-03,2.20E-02
114561,4.97E-03,2.22E-02
114562,4.97E-03,2.24E-02
114563,4.98E-03,2.26E-02
114564,4.98E-03,2.29E-02
114565,4.98E-03,2.31E-02
114566,4.98E-03,2.33E-02
114567,4.99E-03,2.35E-02
114568,4.99E-03,2.36E-02
114569,4.99E-03,2.38E-02
114570,5.00E-03,2.40E-02
114571,5.00E-03,2.42E-02
114572,5.00E-03,2.44E-02
114573,5.00E-03,2.45E-02
114574,5.01E-03,2.47E-02
114575,5.01E-03,2.49E-02
114576,5.01E-03,2.50E-02
114577,5.02E-03,2.52E-02
114578,5.02E-03,2.54E-02
114579,5.02E-03,2.55E-02
114580,5.02E-03,2.57E-02
114581,5.03E-03,2.58E-02
114582,5.03E-03,2.60E-02
114583,5.03E-03,2.61E-02
114584,5.04E-03,2.63E-02
114585,5.04E-03,2.64E-02
114586,5.04E-03,2.65E-02
114587,5.04E-03,2.67E-02
114588,5.05E-03,2.68E-02
114589,5.05E-03,2.70E-02
114590,5.05E-03,2.71E-02
114591,5.06E-03,2.73E-02
114592,5.06E-03,2.74E-02
114593,5.06E-03,2.76E-02
114594,5.06E-03,2.77E-02
114595,5.07E-03,2.78E-02
114596,5.07E-03,2.80E-02
114597,5.07E-03,2.82E-02
114598,5.08E-03,2.83E-02
114599,5.08E-03,2.85E-02
114600,5.08E-03,2.86E-02
114601,5.08E-03,2.88E-02
114602,5.09E-03,2.90E-02
114603,5.09E-03,2.91E-02
114604,5.09E-03,2.93E-02
114605,5.10E-03,2.95E-02
114606,5.10E-03,2.96E-02
114607,5.10E-03,2.98E-02
114608,4.94E-03,1.65E-02
114609,4.94E-03,1.70E-02
114610,4.94E-03,1.75E-02
114611,4.95E-03,1.78E-02
114612,4.95E-03,1.82E-02
114613,4.95E-03,1.84E-02
114614,4.95E-03,1.87E-02
114615,4.96E-03,1.89E-02
114616,4.96E-03,1.91E-02
114617,4.96E-03,1.93E-02
114618,4.97E-03,1.95E-02
114619,4.97E-03,1.97E-02
114620,4.97E-03,1.99E-02
114621,4.97E-03,2.01E-02
114622,4.98E-03,2.03E-02
114623,4.98E-03,2.05E-02
114624,4.98E-03,2.07E-02
114625,4.99E-03,2.10E-02
114626,4.99E-03,2.12E-02
114627,4.99E-03,2.14E-02
114628,4.99E-03,2.16E-02
114629,5.00E-03,2.18E-02
114630,5.00E-03,2.21E-02
114631,5.00E-03,2.23E-02
114632,5.01E-03,2.25E-02
114633,5.01E-03,2.27E-02
114634,5.01E-03,2.29E-02
114635,5.01E-03,2.31E-02
114636,5.02E-03,2.33E-02
114637,5.02E-03,2.35E-02
114638,5.02E-03,2.37E-02
114639,5.02E-03,2.39E-02
114640,5.03E-03,2.41E-02
114641,5.03E-03,2.42E-02
114642,5.03E-03,2.44E-02
114643,5.04E-03,2.46E-02
114644,5.04E-03,2.48E-02
114645,5.04E-03,2.49E-02
114646,5.04E-03,2.51E-02
114647,5.05E-03,2.53E-02
114648,5.05E-03,2.54E-02
114649,5.05E-03,2.56E-02
114650,5.06E-03,2.57E-02
114651,5.06E-03,2.59E-02
114652,5.06E-03,2.60E-02
114653,5.06E-03,2.62E-02
114654,5.07E-03,2.63E-02
114655,5.07E-03,2.65E-02
114656,5.07E-03,2.66E-02
114657,5.08E-03,2.68E-02
114658,5.08E-03,2.69E-02
114659,5.08E-03,2.71E-02
114660,5.08E-03,2.72E-02
114661,5.09E-03,2.74E-02
114662,5.09E-03,2.75E-02
114663,5.09E-03,2.77E-02
114664,5.10E-03,2.78E-02
114665,5.10E-03,2.80E-02
114666,5.10E-03,2.81E-02
114667,5.10E-03,2.83E-02
114668,5.11E-03,2.84E-02
114669,5.11E-03,2.86E-02
114670,5.11E-03,2.88E-02
114671,5.12E-03,2.89E-02
114672,5.12E-03,2.91E-02
114673,5.12E-03,2.93E-02
114674,5.12E-03,2.94E-02
114675,5.13E-03,2.96E-02
114676,5.13E-03,2.98E-02
114677,4.97E-03,1.60E-02
114678,4.97E-03,1.66E-02
114679,4.98E-03,1.71E-02
114680,4.98E-03,1.75E-02
114681,4.98E-03,1.79E-02
114682,4.98E-03,1.82E-02
114683,4.99E-03,1.84E-02
114684,4.99E-03,1.87E-02
114685,4.99E-03,1.89E-02
114686,5.00E-03,1.91E-02
114687,5.00E-03,1.93E-02
114688,5.00E-03,1.95E-02
114689,5.00E-03,1.97E-02
114690,5.01E-03,1.99E-02
114691,5.01E-03,2.01E-02
114692,5.01E-03,2.04E-02
114693,5.01E-03,2.06E-02
114694,5.02E-03,2.08E-02
114695,5.02E-03,2.10E-02
114696,5.02E-03,2.13E-02
114697,5.03E-03,2.15E-02
114698,5.03E-03,2.17E-02
114699,5.03E-03,2.19E-02
114700,5.03E-03,2.21E-02
114701,5.04E-03,2.23E-02
114702,5.04E-03,2.26E-02
114703,5.04E-03,2.28E-02
114704,5.05E-03,2.30E-02
114705,5.05E-03,2.32E-02
114706,5.05E-03,2.34E-02
114707,5.05E-03,2.36E-02
114708,5.06E-03,2.38E-02
114709,5.06E-03,2.39E-02
114710,5.06E-03,2.41E-02
114711,5.06E-03,2.43E-02
114712,5.07E-03,2.45E-02
114713,5.07E-03,2.47E-02
114714,5.07E-03,2.48E-02
114715,5.08E-03,2.50E-02
114716,5.08E-03,2.51E-02
114717,5.08E-03,2.53E-02
114718,5.08E-03,2.55E-02
114719,5.09E-03,2.56E-02
114720,5.09E-03,2.58E-02
114721,5.09E-03,2.59E-02
114722,5.09E-03,2.61E-02
114723,5.10E-03,2.62E-02
114724,5.10E-03,2.64E-02
114725,5.10E-03,2.65E-02
114726,5.11E-03,2.67E-02
114727,5.11E-03,2.68E-02
114728,5.11E-03,2.70E-02
114729,5.11E-03,2.71E-02
114730,5.12E-03,2.73E-02
114731,5.12E-03,2.74E-02
114732,5.12E-03,2.76E-02
114733,5.13E-03,2.78E-02
114734,5.13E-03,2.79E-02
114735,5.13E-03,2.81E-02
114736,5.13E-03,2.82E-02
114737,5.14E-03,2.84E-02
114738,5.14E-03,2.86E-02
114739,5.14E-03,2.87E-02
114740,5.14E-03,2.89E-02
114741,5.15E-03,2.91E-02
114742,5.15E-03,2.93E-02
114743,5.15E-03,2.94E-02
114744,5.16E-03,2.96E-02
114745,5.16E-03,2.98E-02
114746,5.03E-03,1.56E-02
114747,5.03E-03,1.62E-02
114748,5.03E-03,1.68E-02
114749,5.04E-03,1.72E-02
114750,5.04E-03,1.76E-02
114751,5.04E-03,1.79E-02
114752,5.04E-03,1.82E-02
114753,5.04E-03,1.84E-02
114754,5.05E-03,1.87E-02
114755,5.05E-03,1.89E-02
114756,5.05E-03,1.91E-02
114757,5.05E-03,1.93E-02
114758,5.06E-03,1.95E-02
114759,5.06E-03,1.98E-02
114760,5.06E-03,2.00E-02
114761,5.06E-03,2.02E-02
114762,5.07E-03,2.04E-02
114763,5.07E-03,2.07E-02
114764,5.07E-03,2.09E-02
114765,5.07E-03,2.11E-02
114766,5.07E-03,2.13E-02
114767,5.08E-03,2.16E-02
114768,5.08E-03,2.18E-02
114769,5.08E-03,2.20E-02
114770,5.08E-03,2.22E-02
114771,5.09E-03,2.24E-02
114772,5.09E-03,2.26E-02
114773,5.09E-03,2.28E-02
114774,5.09E-03,2.30E-02
114775,5.10E-03,2.32E-02
114776,5.10E-03,2.34E-02
114777,5.10E-03,2.36E-02
114778,5.10E-03,2.38E-02
114779,5.10E-03,2.40E-02
114780,5.11E-03,2.42E-02
114781,5.11E-03,2.44E-02
114782,5.11E-03,2.45E-02
114783,5.11E-03,2.47E-02
114784,5.12E-03,2.49E-02
114785,5.12E-03,2.50E-02
114786,5.12E-03,2.52E-02
114787,5.12E-03,2.54E-02
114788,5.13E-03,2.55E-02
114789,5.13E-03,2.57E-02
114790,5.13E-03,2.59E-02
114791,5.13E-03,2.60E-02
114792,5.14E-03,2.62E-02
114793,5.14E-03,2.63E-02
114794,5.14E-03,2.65E-02
114795,5.14E-03,2.66E-02
114796,5.14E-03,2.68E-02
114797,5.15E-03,2.69E-02
114798,5.15E-03,2.71E-02
114799,5.15E-03,2.72E-02
114800,5.15E-03,2.74E-02
114801,5.16E-03,2.76E-02
114802,5.16E-03,2.77E-02
114803,5.16E-03,2.79E-02
114804,5.16E-03,2.80E-02
114805,5.17E-03,2.82E-02
114806,5.17E-03,2.84E-02
114807,5.17E-03,2.85E-02
114808,5.17E-03,2.87E-02
114809,5.17E-03,2.89E-02
114810,5.18E-03,2.91E-02
114811,5.18E-03,2.92E-02
114812,5.18E-03,2.94E-02
114813,5.18E-03,2.96E-02
114814,5.19E-03,2.98E-02
114815,5.09E-03,1.54E-02
114816,5.09E-03,1.60E-02
114817,5.09E-03,1.65E-02
114818,5.09E-03,1.69E-02
114819,5.10E-03,1.73E-02
114820,5.10E-03,1.76E-02
114821,5.10E-03,1.79E-02
114822,5.10E-03,1.82E-02
114823,5.10E-03,1.84E-02
114824,5.10E-03,1.87E-02
114825,5.11E-03,1.89E-02
114826,5.11E-03,1.91E-02
114827,5.11E-03,1.94E-02
114828,5.11E-03,1.96E-02
114829,5.11E-03,1.98E-02
114830,5.12E-03,2.01E-02
114831,5.12E-03,2.03E-02
114832,5.12E-03,2.05E-02
114833,5.12E-03,2.07E-02
114834,5.12E-03,2.10E-02
114835,5.12E-03,2.12E-02
114836,5.13E-03,2.14E-02
114837,5.13E-03,2.16E-02
114838,5.13E-03,2.19E-02
114839,5.13E-03,2.21E-02
114840,5.13E-03,2.23E-02
114841,5.14E-03,2.25E-02
114842,5.14E-03,2.27E-02
114843,5.14E-03,2.29E-02
114844,5.14E-03,2.31E-02
114845,5.14E-03,2.33E-02
114846,5.15E-03,2.35E-02
114847,5.15E-03,2.37E-02
114848,5.15E-03,2.39E-02
114849,5.15E-03,2.41E-02
114850,5.15E-03,2.43E-02
114851,5.15E-03,2.44E-02
114852,5.16E-03,2.46E-02
114853,5.16E-03,2.48E-02
114854,5.16E-03,2.50E-02
114855,5.16E-03,2.51E-02
114856,5.16E-03,2.53E-02
114857,5.17E-03,2.54E-02
114858,5.17E-03,2.56E-02
114859,5.17E-03,2.58E-02
114860,5.17E-03,2.59E-02
114861,5.17E-03,2.61E-02
114862,5.17E-03,2.62E-02
114863,5.18E-03,2.64E-02
114864,5.18E-03,2.66E-02
114865,5.18E-03,2.67E-02
114866,5.18E-03,2.69E-02
114867,5.18E-03,2.70E-02
114868,5.19E-03,2.72E-02
114869,5.19E-03,2.73E-02
114870,5.19E-03,2.75E-02
114871,5.19E-03,2.77E-02
114872,5.19E-03,2.78E-02
114873,5.19E-03,2.80E-02
114874,5.20E-03,2.82E-02
114875,5.20E-03,2.83E-02
114876,5.20E-03,2.85E-02
114877,5.20E-03,2.87E-02
114878,5.20E-03,2.88E-02
114879,5.21E-03,2.90E-02
114880,5.21E-03,2.92E-02
114881,5.21E-03,2.94E-02
114882,5.21E-03,2.96E-02
114883,5.21E-03,2.97E-02
114884,5.14E-03,1.54E-02
114885,5.14E-03,1.58E-02
114886,5.14E-03,1.63E-02
114887,5.14E-03,1.67E-02
114888,5.14E-03,1.70E-02
114889,5.15E-03,1.73E-02
114890,5.15E-03,1.76E-02
114891,5.15E-03,1.79E-02
114892,5.15E-03,1.82E-02
114893,5.15E-03,1.84E-02
114894,5.15E-03,1.87E-02
114895,5.16E-03,1.89E-02
114896,5.16E-03,1.92E-02
114897,5.16E-03,1.94E-02
114898,5.16E-03,1.97E-02
114899,5.16E-03,1.99E-02
114900,5.16E-03,2.01E-02
114901,5.16E-03,2.04E-02
114902,5.17E-03,2.06E-02
114903,5.17E-03,2.08E-02
114904,5.17E-03,2.11E-02
114905,5.17E-03,2.13E-02
114906,5.17E-03,2.15E-02
114907,5.17E-03,2.17E-02
114908,5.17E-03,2.20E-02
114909,5.18E-03,2.22E-02
114910,5.18E-03,2.24E-02
114911,5.18E-03,2.26E-02
114912,5.18E-03,2.28E-02
114913,5.18E-03,2.30E-02
114914,5.18E-03,2.32E-02
114915,5.18E-03,2.34E-02
114916,5.19E-03,2.36E-02
114917,5.19E-03,2.38E-02
114918,5.19E-03,2.40E-02
114919,5.19E-03,2.42E-02
114920,5.19E-03,2.43E-02
114921,5.19E-03,2.45E-02
114922,5.19E-03,2.47E-02
114923,5.20E-03,2.49E-02
114924,5.20E-03,2.50E-02
114925,5.20E-03,2.52E-02
114926,5.20E-03,2.54E-02
114927,5.20E-03,2.55E-02
114928,5.20E-03,2.57E-02
114929,5.20E-03,2.58E-02
114930,5.21E-03,2.60E-02
114931,5.21E-03,2.62E-02
114932,5.21E-03,2.63E-02
114933,5.21E-03,2.65E-02
114934,5.21E-03,2.66E-02
114935,5.21E-03,2.68E-02
114936,5.21E-03,2.70E-02
114937,5.22E-03,2.71E-02
114938,5.22E-03,2.73E-02
114939,5.22E-03,2.74E-02
114940,5.22E-03,2.76E-02
114941,5.22E-03,2.78E-02
114942,5.22E-03,2.79E-02
114943,5.22E-03,2.81E-02
114944,5.23E-03,2.83E-02
114945,5.23E-03,2.85E-02
114946,5.23E-03,2.86E-02
114947,5.23E-03,2.88E-02
114948,5.23E-03,2.90E-02
114949,5.23E-03,2.92E-02
114950,5.23E-03,2.94E-02
114951,5.24E-03,2.95E-02
114952,5.24E-03,2.97E-02
114953,5.17E-03,1.55E-02
114954,5.17E-03,1.58E-02
114955,5.17E-03,1.61E-02
114956,5.17E-03,1.64E-02
114957,5.18E-03,1.67E-02
114958,5.18E-03,1.70E-02
114959,5.18E-03,1.73E-02
114960,5.18E-03,1.76E-02
114961,5.18E-03,1.79E-02
114962,5.18E-03,1.82E-02
114963,5.18E-03,1.85E-02
114964,5.18E-03,1.87E-02
114965,5.19E-03,1.90E-02
114966,5.19E-03,1.93E-02
114967,5.19E-03,1.95E-02
114968,5.19E-03,1.97E-02
114969,5.19E-03,2.00E-02
114970,5.19E-03,2.02E-02
114971,5.19E-03,2.05E-02
114972,5.20E-03,2.07E-02
114973,5.20E-03,2.09E-02
114974,5.20E-03,2.12E-02
114975,5.20E-03,2.14E-02
114976,5.20E-03,2.16E-02
114977,5.20E-03,2.18E-02
114978,5.20E-03,2.20E-02
114979,5.20E-03,2.23E-02
114980,5.21E-03,2.25E-02
114981,5.21E-03,2.27E-02
114982,5.21E-03,2.29E-02
114983,5.21E-03,2.31E-02
114984,5.21E-03,2.33E-02
114985,5.21E-03,2.35E-02
114986,5.21E-03,2.37E-02
114987,5.22E-03,2.39E-02
114988,5.22E-03,2.41E-02
114989,5.22E-03,2.42E-02
114990,5.22E-03,2.44E-02
114991,5.22E-03,2.46E-02
114992,5.22E-03,2.48E-02
114993,5.22E-03,2.49E-02
114994,5.23E-03,2.51E-02
114995,5.23E-03,2.53E-02
114996,5.23E-03,2.54E-02
114997,5.23E-03,2.56E-02
114998,5.23E-03,2.58E-02
114999,5.23E-03,2.59E-02
115000,5.23E-03,2.61E-02
115001,5.23E-03,2.63E-02
115002,5.24E-03,2.64E-02
115003,5.24E-03,2.66E-02
115004,5.24E-03,2.67E-02
115005,5.24E-03,2.69E-02
115006,5.24E-03,2.71E-02
115007,5.24E-03,2.72E-02
115008,5.24E-03,2.74E-02
115009,5.25E-03,2.76E-02
115010,5.25E-03,2.77E-02
115011,5.25E-03,2.79E-02
115012,5.25E-03,2.81E-02
115013,5.25E-03,2.82E-02
115014,5.25E-03,2.84E-02
115015,5.25E-03,2.86E-02
115016,5.25E-03,2.88E-02
115017,5.26E-03,2.90E-02
115018,5.26E-03,2.91E-02
115019,5.26E-03,2.93E-02
115020,5.26E-03,2.95E-02
115021,5.26E-03,2.97E-02
115022,5.19E-03,1.56E-02
115023,5.19E-03,1.57E-02
115024,5.19E-03,1.59E-02
115025,5.19E-03,1.61E-02
115026,5.19E-03,1.64E-02
115027,5.19E-03,1.67E-02
115028,5.20E-03,1.71E-02
115029,5.20E-03,1.74E-02
115030,5.20E-03,1.77E-02
115031,5.20E-03,1.80E-02
115032,5.20E-03,1.83E-02
115033,5.20E-03,1.85E-02
115034,5.20E-03,1.88E-02
115035,5.21E-03,1.91E-02
115036,5.21E-03,1.93E-02
115037,5.21E-03,1.96E-02
115038,5.21E-03,1.98E-02
115039,5.21E-03,2.01E-02
115040,5.21E-03,2.03E-02
115041,5.21E-03,2.06E-02
115042,5.22E-03,2.08E-02
115043,5.22E-03,2.10E-02
115044,5.22E-03,2.13E-02
115045,5.22E-03,2.15E-02
115046,5.22E-03,2.17E-02
115047,5.22E-03,2.19E-02
115048,5.22E-03,2.21E-02
115049,5.23E-03,2.24E-02
115050,5.23E-03,2.26E-02
115051,5.23E-03,2.28E-02
115052,5.23E-03,2.30E-02
115053,5.23E-03,2.32E-02
115054,5.23E-03,2.34E-02
115055,5.23E-03,2.36E-02
115056,5.24E-03,2.38E-02
115057,5.24E-03,2.40E-02
115058,5.24E-03,2.41E-02
115059,5.24E-03,2.43E-02
115060,5.24E-03,2.45E-02
115061,5.24E-03,2.47E-02
115062,5.24E-03,2.49E-02
115063,5.25E-03,2.50E-02
115064,5.25E-03,2.52E-02
115065,5.25E-03,2.54E-02
115066,5.25E-03,2.55E-02
115067,5.25E-03,2.57E-02
115068,5.25E-03,2.59E-02
115069,5.25E-03,2.60E-02
115070,5.26E-03,2.62E-02
115071,5.26E-03,2.64E-02
115072,5.26E-03,2.65E-02
115073,5.26E-03,2.67E-02
115074,5.26E-03,2.68E-02
115075,5.26E-03,2.70E-02
115076,5.27E-03,2.72E-02
115077,5.27E-03,2.73E-02
115078,5.27E-03,2.75E-02
115079,5.27E-03,2.77E-02
115080,5.27E-03,2.78E-02
115081,5.27E-03,2.80E-02
115082,5.27E-03,2.82E-02
115083,5.28E-03,2.84E-02
115084,5.28E-03,2.85E-02
115085,5.28E-03,2.87E-02
115086,5.28E-03,2.89E-02
115087,5.28E-03,2.91E-02
115088,5.28E-03,2.93E-02
115089,5.28E-03,2.95E-02
115090,5.29E-03,2.97E-02
115091,5.19E-03,1.56E-02
115092,5.19E-03,1.56E-02
115093,5.19E-03,1.57E-02
115094,5.20E-03,1.59E-02
115095,5.20E-03,1.62E-02
115096,5.20E-03,1.65E-02
115097,5.20E-03,1.68E-02
115098,5.20E-03,1.71E-02
115099,5.20E-03,1.74E-02
115100,5.21E-03,1.78E-02
115101,5.21E-03,1.81E-02
115102,5.21E-03,1.83E-02
115103,5.21E-03,1.86E-02
115104,5.21E-03,1.89E-02
115105,5.22E-03,1.92E-02
115106,5.22E-03,1.94E-02
115107,5.22E-03,1.97E-02
115108,5.22E-03,1.99E-02
115109,5.22E-03,2.02E-02
115110,5.22E-03,2.04E-02
115111,5.23E-03,2.07E-02
115112,5.23E-03,2.09E-02
115113,5.23E-03,2.11E-02
115114,5.23E-03,2.14E-02
115115,5.23E-03,2.16E-02
115116,5.23E-03,2.18E-02
115117,5.24E-03,2.20E-02
115118,5.24E-03,2.22E-02
115119,5.24E-03,2.25E-02
115120,5.24E-03,2.27E-02
115121,5.24E-03,2.29E-02
115122,5.24E-03,2.31E-02
115123,5.25E-03,2.33E-02
115124,5.25E-03,2.35E-02
115125,5.25E-03,2.37E-02
115126,5.25E-03,2.39E-02
115127,5.25E-03,2.40E-02
115128,5.26E-03,2.42E-02
115129,5.26E-03,2.44E-02
115130,5.26E-03,2.46E-02
115131,5.26E-03,2.48E-02
115132,5.26E-03,2.49E-02
115133,5.26E-03,2.51E-02
115134,5.27E-03,2.53E-02
115135,5.27E-03,2.55E-02
115136,5.27E-03,2.56E-02
115137,5.27E-03,2.58E-02
115138,5.27E-03,2.60E-02
115139,5.27E-03,2.61E-02
115140,5.28E-03,2.63E-02
115141,5.28E-03,2.64E-02
115142,5.28E-03,2.66E-02
115143,5.28E-03,2.68E-02
115144,5.28E-03,2.69E-02
115145,5.29E-03,2.71E-02
115146,5.29E-03,2.73E-02
115147,5.29E-03,2.74E-02
115148,5.29E-03,2.76E-02
115149,5.29E-03,2.78E-02
115150,5.29E-03,2.80E-02
115151,5.30E-03,2.81E-02
115152,5.30E-03,2.83E-02
115153,5.30E-03,2.85E-02
115154,5.30E-03,2.87E-02
115155,5.30E-03,2.89E-02
115156,5.30E-03,2.91E-02
115157,5.31E-03,2.93E-02
115158,5.31E-03,2.95E-02
115159,5.31E-03,2.97E-02
115160,5.17E-03,1.54E-02
115161,5.17E-03,1.54E-02
115162,5.17E-03,1.54E-02
115163,5.17E-03,1.56E-02
115164,5.18E-03,1.59E-02
115165,5.18E-03,1.62E-02
115166,5.18E-03,1.65E-02
115167,5.18E-03,1.69E-02
115168,5.19E-03,1.72E-02
115169,5.19E-03,1.75E-02
115170,5.19E-03,1.78E-02
115171,5.19E-03,1.81E-02
115172,5.20E-03,1.84E-02
115173,5.20E-03,1.87E-02
115174,5.20E-03,1.90E-02
115175,5.20E-03,1.93E-02
115176,5.21E-03,1.95E-02
115177,5.21E-03,1.98E-02
115178,5.21E-03,2.00E-02
115179,5.21E-03,2.03E-02
115180,5.22E-03,2.05E-02
115181,5.22E-03,2.08E-02
115182,5.22E-03,2.10E-02
115183,5.22E-03,2.12E-02
115184,5.23E-03,2.15E-02
115185,5.23E-03,2.17E-02
115186,5.23E-03,2.19E-02
115187,5.23E-03,2.21E-02
115188,5.24E-03,2.23E-02
115189,5.24E-03,2.26E-02
115190,5.24E-03,2.28E-02
115191,5.24E-03,2.30E-02
115192,5.25E-03,2.32E-02
115193,5.25E-03,2.34E-02
115194,5.25E-03,2.36E-02
115195,5.25E-03,2.38E-02
115196,5.26E-03,2.39E-02
115197,5.26E-03,2.41E-02
115198,5.26E-03,2.43E-02
115199,5.26E-03,2.45E-02
115200,5.27E-03,2.47E-02
115201,5.27E-03,2.49E-02
115202,5.27E-03,2.50E-02
115203,5.27E-03,2.52E-02
115204,5.28E-03,2.54E-02
115205,5.28E-03,2.55E-02
115206,5.28E-03,2.57E-02
115207,5.28E-03,2.59E-02
115208,5.29E-03,2.60E-02
115209,5.29E-03,2.62E-02
115210,5.29E-03,2.64E-02
115211,5.29E-03,2.65E-02
115212,5.30E-03,2.67E-02
115213,5.30E-03,2.69E-02
115214,5.30E-03,2.70E-02
115215,5.30E-03,2.72E-02
115216,5.31E-03,2.74E-02
115217,5.31E-03,2.76E-02
115218,5.31E-03,2.77E-02
115219,5.31E-03,2.79E-02
115220,5.32E-03,2.81E-02
115221,5.32E-03,2.83E-02
115222,5.32E-03,2.85E-02
115223,5.32E-03,2.86E-02
115224,5.33E-03,2.88E-02
115225,5.33E-03,2.90E-02
115226,5.33E-03,2.92E-02
115227,5.33E-03,2.94E-02
115228,5.34E-03,2.96E-02
115229,5.18E-03,1.50E-02
115230,5.18E-03,1.51E-02
115231,5.18E-03,1.52E-02
115232,5.19E-03,1.54E-02
115233,5.19E-03,1.56E-02
115234,5.19E-03,1.59E-02
115235,5.19E-03,1.63E-02
115236,5.20E-03,1.66E-02
115237,5.20E-03,1.70E-02
115238,5.20E-03,1.73E-02
115239,5.21E-03,1.76E-02
115240,5.21E-03,1.79E-02
115241,5.21E-03,1.83E-02
115242,5.21E-03,1.86E-02
115243,5.22E-03,1.88E-02
115244,5.22E-03,1.91E-02
115245,5.22E-03,1.94E-02
115246,5.22E-03,1.96E-02
115247,5.23E-03,1.99E-02
115248,5.23E-03,2.02E-02
115249,5.23E-03,2.04E-02
115250,5.24E-03,2.06E-02
115251,5.24E-03,2.09E-02
115252,5.24E-03,2.11E-02
115253,5.24E-03,2.13E-02
115254,5.25E-03,2.16E-02
115255,5.25E-03,2.18E-02
115256,5.25E-03,2.20E-02
115257,5.25E-03,2.22E-02
115258,5.26E-03,2.24E-02
115259,5.26E-03,2.27E-02
115260,5.26E-03,2.29E-02
115261,5.27E-03,2.31E-02
115262,5.27E-03,2.33E-02
115263,5.27E-03,2.35E-02
115264,5.27E-03,2.37E-02
115265,5.28E-03,2.38E-02
115266,5.28E-03,2.40E-02
115267,5.28E-03,2.42E-02
115268,5.28E-03,2.44E-02
115269,5.29E-03,2.46E-02
115270,5.29E-03,2.48E-02
115271,5.29E-03,2.49E-02
115272,5.30E-03,2.51E-02
115273,5.30E-03,2.53E-02
115274,5.30E-03,2.55E-02
115275,5.30E-03,2.56E-02
115276,5.31E-03,2.58E-02
115277,5.31E-03,2.60E-02
115278,5.31E-03,2.61E-02
115279,5.31E-03,2.63E-02
115280,5.32E-03,2.65E-02
115281,5.32E-03,2.66E-02
115282,5.32E-03,2.68E-02
115283,5.33E-03,2.70E-02
115284,5.33E-03,2.72E-02
115285,5.33E-03,2.73E-02
115286,5.33E-03,2.75E-02
115287,5.34E-03,2.77E-02
115288,5.34E-03,2.79E-02
115289,5.34E-03,2.80E-02
115290,5.34E-03,2.82E-02
115291,5.35E-03,2.84E-02
115292,5.35E-03,2.86E-02
115293,5.35E-03,2.88E-02
115294,5.36E-03,2.90E-02
115295,5.36E-03,2.92E-02
115296,5.36E-03,2.94E-02
115297,5.36E-03,2.96E-02
115298,5.20E-03,1.46E-02
115299,5.20E-03,1.47E-02
115300,5.21E-03,1.49E-02
115301,5.21E-03,1.51E-02
115302,5.21E-03,1.54E-02
115303,5.21E-03,1.57E-02
115304,5.22E-03,1.60E-02
115305,5.22E-03,1.64E-02
115306,5.22E-03,1.67E-02
115307,5.23E-03,1.71E-02
115308,5.23E-03,1.74E-02
115309,5.23E-03,1.78E-02
115310,5.23E-03,1.81E-02
115311,5.24E-03,1.84E-02
115312,5.24E-03,1.87E-02
115313,5.24E-03,1.90E-02
115314,5.25E-03,1.92E-02
115315,5.25E-03,1.95E-02
115316,5.25E-03,1.98E-02
115317,5.25E-03,2.00E-02
115318,5.26E-03,2.03E-02
115319,5.26E-03,2.05E-02
115320,5.26E-03,2.08E-02
115321,5.26E-03,2.10E-02
115322,5.27E-03,2.12E-02
115323,5.27E-03,2.15E-02
115324,5.27E-03,2.17E-02
115325,5.28E-03,2.19E-02
115326,5.28E-03,2.21E-02
115327,5.28E-03,2.23E-02
115328,5.28E-03,2.25E-02
115329,5.29E-03,2.28E-02
115330,5.29E-03,2.30E-02
115331,5.29E-03,2.32E-02
115332,5.30E-03,2.34E-02
115333,5.30E-03,2.36E-02
115334,5.30E-03,2.38E-02
115335,5.30E-03,2.39E-02
115336,5.31E-03,2.41E-02
115337,5.31E-03,2.43E-02
115338,5.31E-03,2.45E-02
115339,5.32E-03,2.47E-02
115340,5.32E-03,2.49E-02
115341,5.32E-03,2.50E-02
115342,5.32E-03,2.52E-02
115343,5.33E-03,2.54E-02
115344,5.33E-03,2.56E-02
115345,5.33E-03,2.57E-02
115346,5.34E-03,2.59E-02
115347,5.34E-03,2.61E-02
115348,5.34E-03,2.62E-02
115349,5.34E-03,2.64E-02
115350,5.35E-03,2.66E-02
115351,5.35E-03,2.68E-02
115352,5.35E-03,2.69E-02
115353,5.36E-03,2.71E-02
115354,5.36E-03,2.73E-02
115355,5.36E-03,2.74E-02
115356,5.36E-03,2.76E-02
115357,5.37E-03,2.78E-02
115358,5.37E-03,2.80E-02
115359,5.37E-03,2.82E-02
115360,5.38E-03,2.84E-02
115361,5.38E-03,2.85E-02
115362,5.38E-03,2.87E-02
115363,5.38E-03,2.89E-02
115364,5.39E-03,2.91E-02
115365,5.39E-03,2.93E-02
115366,5.39E-03,2.96E-02
115367,5.22E-03,1.42E-02
115368,5.23E-03,1.43E-02
115369,5.23E-03,1.45E-02
115370,5.23E-03,1.48E-02
115371,5.24E-03,1.51E-02
115372,5.24E-03,1.55E-02
115373,5.24E-03,1.58E-02
115374,5.24E-03,1.62E-02
115375,5.25E-03,1.65E-02
115376,5.25E-03,1.69E-02
115377,5.25E-03,1.72E-02
115378,5.26E-03,1.76E-02
115379,5.26E-03,1.79E-02
115380,5.26E-03,1.82E-02
115381,5.26E-03,1.85E-02
115382,5.27E-03,1.88E-02
115383,5.27E-03,1.91E-02
115384,5.27E-03,1.94E-02
115385,5.28E-03,1.96E-02
115386,5.28E-03,1.99E-02
115387,5.28E-03,2.01E-02
115388,5.28E-03,2.04E-02
115389,5.29E-03,2.06E-02
115390,5.29E-03,2.09E-02
115391,5.29E-03,2.11E-02
115392,5.30E-03,2.13E-02
115393,5.30E-03,2.16E-02
115394,5.30E-03,2.18E-02
115395,5.31E-03,2.20E-02
115396,5.31E-03,2.22E-02
115397,5.31E-03,2.24E-02
115398,5.31E-03,2.27E-02
115399,5.32E-03,2.29E-02
115400,5.32E-03,2.31E-02
115401,5.32E-03,2.33E-02
115402,5.33E-03,2.35E-02
115403,5.33E-03,2.37E-02
115404,5.33E-03,2.39E-02
115405,5.33E-03,2.40E-02
115406,5.34E-03,2.42E-02
115407,5.34E-03,2.44E-02
115408,5.34E-03,2.46E-02
115409,5.35E-03,2.48E-02
115410,5.35E-03,2.50E-02
115411,5.35E-03,2.51E-02
115412,5.35E-03,2.53E-02
115413,5.36E-03,2.55E-02
115414,5.36E-03,2.57E-02
115415,5.36E-03,2.58E-02
115416,5.37E-03,2.60E-02
115417,5.37E-03,2.62E-02
115418,5.37E-03,2.63E-02
115419,5.37E-03,2.65E-02
115420,5.38E-03,2.67E-02
115421,5.38E-03,2.69E-02
115422,5.38E-03,2.70E-02
115423,5.39E-03,2.72E-02
115424,5.39E-03,2.74E-02
115425,5.39E-03,2.76E-02
115426,5.39E-03,2.77E-02
115427,5.40E-03,2.79E-02
115428,5.40E-03,2.81E-02
115429,5.40E-03,2.83E-02
115430,5.41E-03,2.85E-02
115431,5.41E-03,2.87E-02
115432,5.41E-03,2.89E-02
115433,5.42E-03,2.91E-02
115434,5.42E-03,2.93E-02
115435,5.42E-03,2.95E-02
115436,5.23E-03,1.38E-02
115437,5.23E-03,1.39E-02
115438,5.24E-03,1.42E-02
115439,5.24E-03,1.45E-02
115440,5.24E-03,1.49E-02
115441,5.25E-03,1.52E-02
115442,5.25E-03,1.56E-02
115443,5.25E-03,1.60E-02
115444,5.26E-03,1.63E-02
115445,5.26E-03,1.67E-02
115446,5.26E-03,1.70E-02
115447,5.27E-03,1.74E-02
115448,5.27E-03,1.77E-02
115449,5.27E-03,1.80E-02
115450,5.28E-03,1.83E-02
115451,5.28E-03,1.86E-02
115452,5.28E-03,1.89E-02
115453,5.29E-03,1.92E-02
115454,5.29E-03,1.95E-02
115455,5.29E-03,1.97E-02
115456,5.30E-03,2.00E-02
115457,5.30E-03,2.03E-02
115458,5.30E-03,2.05E-02
115459,5.30E-03,2.08E-02
115460,5.31E-03,2.10E-02
115461,5.31E-03,2.12E-02
115462,5.31E-03,2.15E-02
115463,5.32E-03,2.17E-02
115464,5.32E-03,2.19E-02
115465,5.32E-03,2.21E-02
115466,5.33E-03,2.23E-02
115467,5.33E-03,2.25E-02
115468,5.33E-03,2.28E-02
115469,5.34E-03,2.30E-02
115470,5.34E-03,2.32E-02
115471,5.34E-03,2.34E-02
115472,5.35E-03,2.36E-02
115473,5.35E-03,2.38E-02
115474,5.35E-03,2.40E-02
115475,5.36E-03,2.41E-02
115476,5.36E-03,2.43E-02
115477,5.36E-03,2.45E-02
115478,5.37E-03,2.47E-02
115479,5.37E-03,2.49E-02
115480,5.37E-03,2.51E-02
115481,5.38E-03,2.52E-02
115482,5.38E-03,2.54E-02
115483,5.38E-03,2.56E-02
115484,5.39E-03,2.58E-02
115485,5.39E-03,2.59E-02
115486,5.39E-03,2.61E-02
115487,5.40E-03,2.63E-02
115488,5.40E-03,2.65E-02
115489,5.40E-03,2.66E-02
115490,5.40E-03,2.68E-02
115491,5.41E-03,2.70E-02
115492,5.41E-03,2.72E-02
115493,5.41E-03,2.73E-02
115494,5.42E-03,2.75E-02
115495,5.42E-03,2.77E-02
115496,5.42E-03,2.79E-02
115497,5.43E-03,2.81E-02
115498,5.43E-03,2.82E-02
115499,5.43E-03,2.84E-02
115500,5.44E-03,2.86E-02
115501,5.44E-03,2.88E-02
115502,5.44E-03,2.90E-02
115503,5.45E-03,2.93E-02
115504,5.45E-03,2.95E-02
115505,5.17E-03,1.32E-02
115506,5.18E-03,1.34E-02
115507,5.18E-03,1.38E-02
115508,5.19E-03,1.42E-02
115509,5.19E-03,1.46E-02
115510,5.20E-03,1.50E-02
115511,5.20E-03,1.54E-02
115512,5.21E-03,1.58E-02
115513,5.21E-03,1.61E-02
115514,5.21E-03,1.65E-02
115515,5.22E-03,1.69E-02
115516,5.22E-03,1.72E-02
115517,5.23E-03,1.75E-02
115518,5.23E-03,1.79E-02
115519,5.24E-03,1.82E-02
115520,5.24E-03,1.85E-02
115521,5.25E-03,1.88E-02
115522,5.25E-03,1.91E-02
115523,5.26E-03,1.93E-02
115524,5.26E-03,1.96E-02
115525,5.26E-03,1.99E-02
115526,5.27E-03,2.01E-02
115527,5.27E-03,2.04E-02
115528,5.28E-03,2.06E-02
115529,5.28E-03,2.09E-02
115530,5.29E-03,2.11E-02
115531,5.29E-03,2.13E-02
115532,5.30E-03,2.16E-02
115533,5.30E-03,2.18E-02
115534,5.30E-03,2.20E-02
115535,5.31E-03,2.22E-02
115536,5.31E-03,2.24E-02
115537,5.32E-03,2.27E-02
115538,5.32E-03,2.29E-02
115539,5.33E-03,2.31E-02
115540,5.33E-03,2.33E-02
115541,5.34E-03,2.35E-02
115542,5.34E-03,2.37E-02
115543,5.35E-03,2.39E-02
115544,5.35E-03,2.41E-02
115545,5.35E-03,2.42E-02
115546,5.36E-03,2.44E-02
115547,5.36E-03,2.46E-02
115548,5.37E-03,2.48E-02
115549,5.37E-03,2.50E-02
115550,5.38E-03,2.52E-02
115551,5.38E-03,2.53E-02
115552,5.39E-03,2.55E-02
115553,5.39E-03,2.57E-02
115554,5.40E-03,2.59E-02
115555,5.40E-03,2.60E-02
115556,5.40E-03,2.62E-02
115557,5.41E-03,2.64E-02
115558,5.41E-03,2.66E-02
115559,5.42E-03,2.67E-02
115560,5.42E-03,2.69E-02
115561,5.43E-03,2.71E-02
115562,5.43E-03,2.73E-02
115563,5.44E-03,2.74E-02
115564,5.44E-03,2.76E-02
115565,5.44E-03,2.78E-02
115566,5.45E-03,2.80E-02
115567,5.45E-03,2.82E-02
115568,5.46E-03,2.84E-02
115569,5.46E-03,2.86E-02
115570,5.47E-03,2.88E-02
115571,5.47E-03,2.90E-02
115572,5.48E-03,2.92E-02
115573,5.48E-03,2.94E-02
115574,5.12E-03,1.21E-02
115575,5.13E-03,1.28E-02
115576,5.13E-03,1.34E-02
115577,5.14E-03,1.39E-02
115578,5.14E-03,1.44E-02
115579,5.15E-03,1.48E-02
115580,5.15E-03,1.52E-02
115581,5.16E-03,1.56E-02
115582,5.17E-03,1.60E-02
115583,5.17E-03,1.63E-02
115584,5.18E-03,1.67E-02
115585,5.18E-03,1.70E-02
115586,5.19E-03,1.74E-02
115587,5.19E-03,1.77E-02
115588,5.20E-03,1.80E-02
115589,5.21E-03,1.83E-02
115590,5.21E-03,1.86E-02
115591,5.22E-03,1.89E-02
115592,5.22E-03,1.92E-02
115593,5.23E-03,1.95E-02
115594,5.24E-03,1.97E-02
115595,5.24E-03,2.00E-02
115596,5.25E-03,2.02E-02
115597,5.25E-03,2.05E-02
115598,5.26E-03,2.07E-02
115599,5.26E-03,2.10E-02
115600,5.27E-03,2.12E-02
115601,5.28E-03,2.14E-02
115602,5.28E-03,2.17E-02
115603,5.29E-03,2.19E-02
115604,5.29E-03,2.21E-02
115605,5.30E-03,2.23E-02
115606,5.31E-03,2.25E-02
115607,5.31E-03,2.28E-02
115608,5.32E-03,2.30E-02
115609,5.32E-03,2.32E-02
115610,5.33E-03,2.34E-02
115611,5.33E-03,2.36E-02
115612,5.34E-03,2.38E-02
115613,5.35E-03,2.40E-02
115614,5.35E-03,2.42E-02
115615,5.36E-03,2.43E-02
115616,5.36E-03,2.45E-02
115617,5.37E-03,2.47E-02
115618,5.38E-03,2.49E-02
115619,5.38E-03,2.51E-02
115620,5.39E-03,2.53E-02
115621,5.39E-03,2.54E-02
115622,5.40E-03,2.56E-02
115623,5.40E-03,2.58E-02
115624,5.41E-03,2.60E-02
115625,5.42E-03,2.62E-02
115626,5.42E-03,2.63E-02
115627,5.43E-03,2.65E-02
115628,5.43E-03,2.67E-02
115629,5.44E-03,2.69E-02
115630,5.44E-03,2.70E-02
115631,5.45E-03,2.72E-02
115632,5.46E-03,2.74E-02
115633,5.46E-03,2.76E-02
115634,5.47E-03,2.78E-02
115635,5.47E-03,2.79E-02
115636,5.48E-03,2.81E-02
115637,5.49E-03,2.83E-02
115638,5.49E-03,2.85E-02
115639,5.50E-03,2.87E-02
115640,5.50E-03,2.89E-02
115641,5.51E-03,2.92E-02
115642,5.51E-03,2.94E-02
115643,5.26E-03,1.11E-02
115644,5.26E-03,1.22E-02
115645,5.27E-03,1.30E-02
115646,5.27E-03,1.36E-02
115647,5.28E-03,1.41E-02
115648,5.28E-03,1.46E-02
115649,5.28E-03,1.50E-02
115650,5.29E-03,1.54E-02
115651,5.29E-03,1.58E-02
115652,5.30E-03,1.61E-02
115653,5.30E-03,1.65E-02
115654,5.31E-03,1.69E-02
115655,5.31E-03,1.72E-02
115656,5.31E-03,1.75E-02
115657,5.32E-03,1.79E-02
115658,5.32E-03,1.82E-02
115659,5.33E-03,1.85E-02
115660,5.33E-03,1.88E-02
115661,5.34E-03,1.90E-02
115662,5.34E-03,1.93E-02
115663,5.34E-03,1.96E-02
115664,5.35E-03,1.99E-02
115665,5.35E-03,2.01E-02
115666,5.36E-03,2.04E-02
115667,5.36E-03,2.06E-02
115668,5.37E-03,2.09E-02
115669,5.37E-03,2.11E-02
115670,5.37E-03,2.13E-02
115671,5.38E-03,2.16E-02
115672,5.38E-03,2.18E-02
115673,5.39E-03,2.20E-02
115674,5.39E-03,2.22E-02
115675,5.40E-03,2.24E-02
115676,5.40E-03,2.27E-02
115677,5.40E-03,2.29E-02
115678,5.41E-03,2.31E-02
115679,5.41E-03,2.33E-02
115680,5.42E-03,2.35E-02
115681,5.42E-03,2.37E-02
115682,5.43E-03,2.39E-02
115683,5.43E-03,2.41E-02
115684,5.43E-03,2.43E-02
115685,5.44E-03,2.44E-02
115686,5.44E-03,2.46E-02
115687,5.45E-03,2.48E-02
115688,5.45E-03,2.50E-02
115689,5.46E-03,2.52E-02
115690,5.46E-03,2.54E-02
115691,5.46E-03,2.56E-02
115692,5.47E-03,2.57E-02
115693,5.47E-03,2.59E-02
115694,5.48E-03,2.61E-02
115695,5.48E-03,2.63E-02
115696,5.49E-03,2.64E-02
115697,5.49E-03,2.66E-02
115698,5.49E-03,2.68E-02
115699,5.50E-03,2.70E-02
115700,5.50E-03,2.72E-02
115701,5.51E-03,2.73E-02
115702,5.51E-03,2.75E-02
115703,5.52E-03,2.77E-02
115704,5.52E-03,2.79E-02
115705,5.52E-03,2.81E-02
115706,5.53E-03,2.83E-02
115707,5.53E-03,2.85E-02
115708,5.54E-03,2.87E-02
115709,5.54E-03,2.89E-02
115710,5.55E-03,2.91E-02
115711,5.55E-03,2.93E-02
115712,5.42E-03,1.06E-02
115713,5.42E-03,1.17E-02
115714,5.42E-03,1.26E-02
115715,5.43E-03,1.33E-02
115716,5.43E-03,1.39E-02
115717,5.43E-03,1.44E-02
115718,5.43E-03,1.48E-02
115719,5.44E-03,1.52E-02
115720,5.44E-03,1.56E-02
115721,5.44E-03,1.60E-02
115722,5.44E-03,1.64E-02
115723,5.45E-03,1.67E-02
115724,5.45E-03,1.71E-02
115725,5.45E-03,1.74E-02
115726,5.45E-03,1.77E-02
115727,5.46E-03,1.80E-02
115728,5.46E-03,1.83E-02
115729,5.46E-03,1.86E-02
115730,5.46E-03,1.89E-02
115731,5.46E-03,1.92E-02
115732,5.47E-03,1.95E-02
115733,5.47E-03,1.97E-02
115734,5.47E-03,2.00E-02
115735,5.47E-03,2.03E-02
115736,5.48E-03,2.05E-02
115737,5.48E-03,2.07E-02
115738,5.48E-03,2.10E-02
115739,5.48E-03,2.12E-02
115740,5.49E-03,2.15E-02
115741,5.49E-03,2.17E-02
115742,5.49E-03,2.19E-02
115743,5.49E-03,2.21E-02
115744,5.50E-03,2.23E-02
115745,5.50E-03,2.26E-02
115746,5.50E-03,2.28E-02
115747,5.50E-03,2.30E-02
115748,5.51E-03,2.32E-02
115749,5.51E-03,2.34E-02
115750,5.51E-03,2.36E-02
115751,5.51E-03,2.38E-02
115752,5.51E-03,2.40E-02
115753,5.52E-03,2.42E-02
115754,5.52E-03,2.44E-02
115755,5.52E-03,2.46E-02
115756,5.52E-03,2.47E-02
115757,5.53E-03,2.49E-02
115758,5.53E-03,2.51E-02
115759,5.53E-03,2.53E-02
115760,5.53E-03,2.55E-02
115761,5.54E-03,2.57E-02
115762,5.54E-03,2.58E-02
115763,5.54E-03,2.60E-02
115764,5.54E-03,2.62E-02
115765,5.55E-03,2.64E-02
115766,5.55E-03,2.66E-02
115767,5.55E-03,2.67E-02
115768,5.55E-03,2.69E-02
115769,5.55E-03,2.71E-02
115770,5.56E-03,2.73E-02
115771,5.56E-03,2.75E-02
115772,5.56E-03,2.76E-02
115773,5.56E-03,2.78E-02
115774,5.57E-03,2.80E-02
115775,5.57E-03,2.82E-02
115776,5.57E-03,2.84E-02
115777,5.57E-03,2.86E-02
115778,5.58E-03,2.88E-02
115779,5.58E-03,2.91E-02
115780,5.58E-03,2.93E-02
115781,5.52E-03,1.05E-02
115782,5.52E-03,1.15E-02
115783,5.52E-03,1.23E-02
115784,5.52E-03,1.30E-02
115785,5.53E-03,1.36E-02
115786,5.53E-03,1.42E-02
115787,5.53E-03,1.46E-02
115788,5.53E-03,1.51E-02
115789,5.53E-03,1.55E-02
115790,5.53E-03,1.59E-02
115791,5.53E-03,1.62E-02
115792,5.53E-03,1.66E-02
115793,5.54E-03,1.69E-02
115794,5.54E-03,1.73E-02
115795,5.54E-03,1.76E-02
115796,5.54E-03,1.79E-02
115797,5.54E-03,1.82E-02
115798,5.54E-03,1.85E-02
115799,5.54E-03,1.88E-02
115800,5.54E-03,1.91E-02
115801,5.55E-03,1.94E-02
115802,5.55E-03,1.96E-02
115803,5.55E-03,1.99E-02
115804,5.55E-03,2.01E-02
115805,5.55E-03,2.04E-02
115806,5.55E-03,2.06E-02
115807,5.55E-03,2.09E-02
115808,5.55E-03,2.11E-02
115809,5.56E-03,2.14E-02
115810,5.56E-03,2.16E-02
115811,5.56E-03,2.18E-02
115812,5.56E-03,2.20E-02
115813,5.56E-03,2.23E-02
115814,5.56E-03,2.25E-02
115815,5.56E-03,2.27E-02
115816,5.56E-03,2.29E-02
115817,5.57E-03,2.31E-02
115818,5.57E-03,2.33E-02
115819,5.57E-03,2.35E-02
115820,5.57E-03,2.37E-02
115821,5.57E-03,2.39E-02
115822,5.57E-03,2.41E-02
115823,5.57E-03,2.43E-02
115824,5.58E-03,2.45E-02
115825,5.58E-03,2.47E-02
115826,5.58E-03,2.49E-02
115827,5.58E-03,2.51E-02
115828,5.58E-03,2.52E-02
115829,5.58E-03,2.54E-02
115830,5.58E-03,2.56E-02
115831,5.58E-03,2.58E-02
115832,5.59E-03,2.60E-02
115833,5.59E-03,2.61E-02
115834,5.59E-03,2.63E-02
115835,5.59E-03,2.65E-02
115836,5.59E-03,2.67E-02
115837,5.59E-03,2.69E-02
115838,5.59E-03,2.70E-02
115839,5.59E-03,2.72E-02
115840,5.60E-03,2.74E-02
115841,5.60E-03,2.76E-02
115842,5.60E-03,2.78E-02
115843,5.60E-03,2.80E-02
115844,5.60E-03,2.82E-02
115845,5.60E-03,2.84E-02
115846,5.60E-03,2.86E-02
115847,5.60E-03,2.88E-02
115848,5.61E-03,2.90E-02
115849,5.61E-03,2.92E-02
115850,5.56E-03,1.06E-02
115851,5.56E-03,1.14E-02
115852,5.56E-03,1.21E-02
115853,5.56E-03,1.28E-02
115854,5.56E-03,1.34E-02
115855,5.56E-03,1.40E-02
115856,5.56E-03,1.45E-02
115857,5.57E-03,1.49E-02
115858,5.57E-03,1.53E-02
115859,5.57E-03,1.57E-02
115860,5.57E-03,1.61E-02
115861,5.57E-03,1.65E-02
115862,5.57E-03,1.68E-02
115863,5.57E-03,1.71E-02
115864,5.57E-03,1.75E-02
115865,5.57E-03,1.78E-02
115866,5.58E-03,1.81E-02
115867,5.58E-03,1.84E-02
115868,5.58E-03,1.87E-02
115869,5.58E-03,1.90E-02
115870,5.58E-03,1.92E-02
115871,5.58E-03,1.95E-02
115872,5.58E-03,1.98E-02
115873,5.58E-03,2.00E-02
115874,5.58E-03,2.03E-02
115875,5.58E-03,2.05E-02
115876,5.59E-03,2.08E-02
115877,5.59E-03,2.10E-02
115878,5.59E-03,2.13E-02
115879,5.59E-03,2.15E-02
115880,5.59E-03,2.17E-02
115881,5.59E-03,2.19E-02
115882,5.59E-03,2.22E-02
115883,5.59E-03,2.24E-02
115884,5.59E-03,2.26E-02
115885,5.60E-03,2.28E-02
115886,5.60E-03,2.30E-02
115887,5.60E-03,2.32E-02
115888,5.60E-03,2.34E-02
115889,5.60E-03,2.36E-02
115890,5.60E-03,2.38E-02
115891,5.60E-03,2.40E-02
115892,5.60E-03,2.42E-02
115893,5.60E-03,2.44E-02
115894,5.60E-03,2.46E-02
115895,5.61E-03,2.48E-02
115896,5.61E-03,2.50E-02
115897,5.61E-03,2.52E-02
115898,5.61E-03,2.54E-02
115899,5.61E-03,2.55E-02
115900,5.61E-03,2.57E-02
115901,5.61E-03,2.59E-02
115902,5.61E-03,2.61E-02
115903,5.61E-03,2.63E-02
115904,5.62E-03,2.64E-02
115905,5.62E-03,2.66E-02
115906,5.62E-03,2.68E-02
115907,5.62E-03,2.70E-02
115908,5.62E-03,2.72E-02
115909,5.62E-03,2.74E-02
115910,5.62E-03,2.75E-02
115911,5.62E-03,2.77E-02
115912,5.62E-03,2.79E-02
115913,5.62E-03,2.81E-02
115914,5.63E-03,2.83E-02
115915,5.63E-03,2.85E-02
115916,5.63E-03,2.87E-02
115917,5.63E-03,2.89E-02
115918,5.63E-03,2.92E-02
115919,5.58E-03,1.06E-02
115920,5.58E-03,1.13E-02
115921,5.58E-03,1.19E-02
115922,5.58E-03,1.26E-02
115923,5.59E-03,1.32E-02
115924,5.59E-03,1.38E-02
115925,5.59E-03,1.43E-02
115926,5.59E-03,1.48E-02
115927,5.59E-03,1.52E-02
115928,5.59E-03,1.56E-02
115929,5.59E-03,1.60E-02
115930,5.59E-03,1.63E-02
115931,5.59E-03,1.67E-02
115932,5.60E-03,1.70E-02
115933,5.60E-03,1.74E-02
115934,5.60E-03,1.77E-02
115935,5.60E-03,1.80E-02
115936,5.60E-03,1.83E-02
115937,5.60E-03,1.86E-02
115938,5.60E-03,1.89E-02
115939,5.60E-03,1.91E-02
115940,5.60E-03,1.94E-02
115941,5.60E-03,1.97E-02
115942,5.61E-03,1.99E-02
115943,5.61E-03,2.02E-02
115944,5.61E-03,2.04E-02
115945,5.61E-03,2.07E-02
115946,5.61E-03,2.09E-02
115947,5.61E-03,2.12E-02
115948,5.61E-03,2.14E-02
115949,5.61E-03,2.16E-02
115950,5.61E-03,2.19E-02
115951,5.62E-03,2.21E-02
115952,5.62E-03,2.23E-02
115953,5.62E-03,2.25E-02
115954,5.62E-03,2.27E-02
115955,5.62E-03,2.29E-02
115956,5.62E-03,2.31E-02
115957,5.62E-03,2.34E-02
115958,5.62E-03,2.36E-02
115959,5.62E-03,2.38E-02
115960,5.62E-03,2.40E-02
115961,5.63E-03,2.42E-02
115962,5.63E-03,2.44E-02
115963,5.63E-03,2.45E-02
115964,5.63E-03,2.47E-02
115965,5.63E-03,2.49E-02
115966,5.63E-03,2.51E-02
115967,5.63E-03,2.53E-02
115968,5.63E-03,2.55E-02
115969,5.63E-03,2.57E-02
115970,5.63E-03,2.59E-02
115971,5.64E-03,2.60E-02
115972,5.64E-03,2.62E-02
115973,5.64E-03,2.64E-02
115974,5.64E-03,2.66E-02
115975,5.64E-03,2.68E-02
115976,5.64E-03,2.69E-02
115977,5.64E-03,2.71E-02
115978,5.64E-03,2.73E-02
115979,5.64E-03,2.75E-02
115980,5.65E-03,2.77E-02
115981,5.65E-03,2.79E-02
115982,5.65E-03,2.81E-02
115983,5.65E-03,2.83E-02
115984,5.65E-03,2.85E-02
115985,5.65E-03,2.87E-02
115986,5.65E-03,2.89E-02
115987,5.65E-03,2.91E-02
115988,5.61E-03,1.06E-02
115989,5.61E-03,1.12E-02
115990,5.61E-03,1.18E-02
115991,5.61E-03,1.24E-02
115992,5.61E-03,1.30E-02
115993,5.61E-03,1.36E-02
115994,5.61E-03,1.41E-02
115995,5.61E-03,1.46E-02
115996,5.61E-03,1.51E-02
115997,5.61E-03,1.55E-02
115998,5.62E-03,1.59E-02
115999,5.62E-03,1.62E-02
116000,5.62E-03,1.66E-02
116001,5.62E-03,1.69E-02
116002,5.62E-03,1.72E-02
116003,5.62E-03,1.76E-02
116004,5.62E-03,1.79E-02
116005,5.62E-03,1.82E-02
116006,5.62E-03,1.85E-02
116007,5.63E-03,1.87E-02
116008,5.63E-03,1.90E-02
116009,5.63E-03,1.93E-02
116010,5.63E-03,1.96E-02
116011,5.63E-03,1.98E-02
116012,5.63E-03,2.01E-02
116013,5.63E-03,2.03E-02
116014,5.63E-03,2.06E-02
116015,5.63E-03,2.08E-02
116016,5.63E-03,2.11E-02
116017,5.64E-03,2.13E-02
116018,5.64E-03,2.15E-02
116019,5.64E-03,2.18E-02
116020,5.64E-03,2.20E-02
116021,5.64E-03,2.22E-02
116022,5.64E-03,2.24E-02
116023,5.64E-03,2.26E-02
116024,5.64E-03,2.29E-02
116025,5.64E-03,2.31E-02
116026,5.64E-03,2.33E-02
116027,5.65E-03,2.35E-02
116028,5.65E-03,2.37E-02
116029,5.65E-03,2.39E-02
116030,5.65E-03,2.41E-02
116031,5.65E-03,2.43E-02
116032,5.65E-03,2.45E-02
116033,5.65E-03,2.47E-02
116034,5.65E-03,2.49E-02
116035,5.65E-03,2.51E-02
116036,5.65E-03,2.52E-02
116037,5.66E-03,2.54E-02
116038,5.66E-03,2.56E-02
116039,5.66E-03,2.58E-02
116040,5.66E-03,2.60E-02
116041,5.66E-03,2.62E-02
116042,5.66E-03,2.63E-02
116043,5.66E-03,2.65E-02
116044,5.66E-03,2.67E-02
116045,5.66E-03,2.69E-02
116046,5.67E-03,2.71E-02
116047,5.67E-03,2.73E-02
116048,5.67E-03,2.74E-02
116049,5.67E-03,2.76E-02
116050,5.67E-03,2.78E-02
116051,5.67E-03,2.80E-02
116052,5.67E-03,2.82E-02
116053,5.67E-03,2.84E-02
116054,5.67E-03,2.86E-02
116055,5.67E-03,2.88E-02
116056,5.68E-03,2.91E-02
116057,5.63E-03,1.04E-02
116058,5.63E-03,1.10E-02
116059,5.64E-03,1.17E-02
116060,5.64E-03,1.23E-02
116061,5.64E-03,1.29E-02
116062,5.64E-03,1.35E-02
116063,5.64E-03,1.40E-02
116064,5.64E-03,1.45E-02
116065,5.64E-03,1.49E-02
116066,5.64E-03,1.53E-02
116067,5.64E-03,1.57E-02
116068,5.64E-03,1.61E-02
116069,5.65E-03,1.65E-02
116070,5.65E-03,1.68E-02
116071,5.65E-03,1.71E-02
116072,5.65E-03,1.74E-02
116073,5.65E-03,1.78E-02
116074,5.65E-03,1.81E-02
116075,5.65E-03,1.84E-02
116076,5.65E-03,1.86E-02
116077,5.65E-03,1.89E-02
116078,5.65E-03,1.92E-02
116079,5.65E-03,1.95E-02
116080,5.66E-03,1.97E-02
116081,5.66E-03,2.00E-02
116082,5.66E-03,2.02E-02
116083,5.66E-03,2.05E-02
116084,5.66E-03,2.07E-02
116085,5.66E-03,2.10E-02
116086,5.66E-03,2.12E-02
116087,5.66E-03,2.14E-02
116088,5.66E-03,2.17E-02
116089,5.66E-03,2.19E-02
116090,5.67E-03,2.21E-02
116091,5.67E-03,2.23E-02
116092,5.67E-03,2.26E-02
116093,5.67E-03,2.28E-02
116094,5.67E-03,2.30E-02
116095,5.67E-03,2.32E-02
116096,5.67E-03,2.34E-02
116097,5.67E-03,2.36E-02
116098,5.67E-03,2.38E-02
116099,5.67E-03,2.40E-02
116100,5.67E-03,2.42E-02
116101,5.68E-03,2.44E-02
116102,5.68E-03,2.46E-02
116103,5.68E-03,2.48E-02
116104,5.68E-03,2.50E-02
116105,5.68E-03,2.52E-02
116106,5.68E-03,2.54E-02
116107,5.68E-03,2.56E-02
116108,5.68E-03,2.57E-02
116109,5.68E-03,2.59E-02
116110,5.68E-03,2.61E-02
116111,5.68E-03,2.63E-02
116112,5.69E-03,2.65E-02
116113,5.69E-03,2.67E-02
116114,5.69E-03,2.68E-02
116115,5.69E-03,2.70E-02
116116,5.69E-03,2.72E-02
116117,5.69E-03,2.74E-02
116118,5.69E-03,2.76E-02
116119,5.69E-03,2.78E-02
116120,5.69E-03,2.80E-02
116121,5.69E-03,2.82E-02
116122,5.70E-03,2.84E-02
116123,5.70E-03,2.86E-02
116124,5.70E-03,2.88E-02
116125,5.70E-03,2.90E-02
116126,5.67E-03,1.03E-02
116127,5.67E-03,1.09E-02
116128,5.67E-03,1.16E-02
116129,5.67E-03,1.22E-02
116130,5.67E-03,1.28E-02
116131,5.67E-03,1.33E-02
116132,5.67E-03,1.38E-02
116133,5.67E-03,1.43E-02
116134,5.67E-03,1.48E-02
116135,5.67E-03,1.52E-02
116136,5.67E-03,1.56E-02
116137,5.68E-03,1.60E-02
116138,5.68E-03,1.63E-02
116139,5.68E-03,1.67E-02
116140,5.68E-03,1.70E-02
116141,5.68E-03,1.73E-02
116142,5.68E-03,1.76E-02
116143,5.68E-03,1.79E-02
116144,5.68E-03,1.82E-02
116145,5.68E-03,1.85E-02
116146,5.68E-03,1.88E-02
116147,5.68E-03,1.91E-02
116148,5.68E-03,1.94E-02
116149,5.68E-03,1.96E-02
116150,5.69E-03,1.99E-02
116151,5.69E-03,2.01E-02
116152,5.69E-03,2.04E-02
116153,5.69E-03,2.06E-02
116154,5.69E-03,2.09E-02
116155,5.69E-03,2.11E-02
116156,5.69E-03,2.14E-02
116157,5.69E-03,2.16E-02
116158,5.69E-03,2.18E-02
116159,5.69E-03,2.20E-02
116160,5.69E-03,2.23E-02
116161,5.69E-03,2.25E-02
116162,5.69E-03,2.27E-02
116163,5.70E-03,2.29E-02
116164,5.70E-03,2.31E-02
116165,5.70E-03,2.33E-02
116166,5.70E-03,2.35E-02
116167,5.70E-03,2.38E-02
116168,5.70E-03,2.40E-02
116169,5.70E-03,2.42E-02
116170,5.70E-03,2.44E-02
116171,5.70E-03,2.46E-02
116172,5.70E-03,2.47E-02
116173,5.70E-03,2.49E-02
116174,5.70E-03,2.51E-02
116175,5.71E-03,2.53E-02
116176,5.71E-03,2.55E-02
116177,5.71E-03,2.57E-02
116178,5.71E-03,2.59E-02
116179,5.71E-03,2.61E-02
116180,5.71E-03,2.63E-02
116181,5.71E-03,2.64E-02
116182,5.71E-03,2.66E-02
116183,5.71E-03,2.68E-02
116184,5.71E-03,2.70E-02
116185,5.71E-03,2.72E-02
116186,5.71E-03,2.74E-02
116187,5.71E-03,2.75E-02
116188,5.72E-03,2.77E-02
116189,5.72E-03,2.79E-02
116190,5.72E-03,2.81E-02
116191,5.72E-03,2.83E-02
116192,5.72E-03,2.85E-02
116193,5.72E-03,2.87E-02
116194,5.72E-03,2.90E-02
116195,5.71E-03,1.01E-02
116196,5.71E-03,1.08E-02
116197,5.71E-03,1.15E-02
116198,5.71E-03,1.21E-02
116199,5.71E-03,1.27E-02
116200,5.71E-03,1.32E-02
116201,5.71E-03,1.37E-02
116202,5.71E-03,1.42E-02
116203,5.71E-03,1.47E-02
116204,5.71E-03,1.51E-02
116205,5.71E-03,1.55E-02
116206,5.72E-03,1.59E-02
116207,5.72E-03,1.62E-02
116208,5.72E-03,1.66E-02
116209,5.72E-03,1.69E-02
116210,5.72E-03,1.72E-02
116211,5.72E-03,1.75E-02
116212,5.72E-03,1.78E-02
116213,5.72E-03,1.81E-02
116214,5.72E-03,1.84E-02
116215,5.72E-03,1.87E-02
116216,5.72E-03,1.90E-02
116217,5.72E-03,1.93E-02
116218,5.72E-03,1.95E-02
116219,5.72E-03,1.98E-02
116220,5.72E-03,2.00E-02
116221,5.72E-03,2.03E-02
116222,5.72E-03,2.05E-02
116223,5.72E-03,2.08E-02
116224,5.72E-03,2.10E-02
116225,5.72E-03,2.13E-02
116226,5.72E-03,2.15E-02
116227,5.72E-03,2.17E-02
116228,5.73E-03,2.20E-02
116229,5.73E-03,2.22E-02
116230,5.73E-03,2.24E-02
116231,5.73E-03,2.26E-02
116232,5.73E-03,2.28E-02
116233,5.73E-03,2.31E-02
116234,5.73E-03,2.33E-02
116235,5.73E-03,2.35E-02
116236,5.73E-03,2.37E-02
116237,5.73E-03,2.39E-02
116238,5.73E-03,2.41E-02
116239,5.73E-03,2.43E-02
116240,5.73E-03,2.45E-02
116241,5.73E-03,2.47E-02
116242,5.73E-03,2.49E-02
116243,5.73E-03,2.51E-02
116244,5.73E-03,2.53E-02
116245,5.73E-03,2.55E-02
116246,5.73E-03,2.56E-02
116247,5.73E-03,2.58E-02
116248,5.73E-03,2.60E-02
116249,5.73E-03,2.62E-02
116250,5.74E-03,2.64E-02
116251,5.74E-03,2.66E-02
116252,5.74E-03,2.68E-02
116253,5.74E-03,2.70E-02
116254,5.74E-03,2.71E-02
116255,5.74E-03,2.73E-02
116256,5.74E-03,2.75E-02
116257,5.74E-03,2.77E-02
116258,5.74E-03,2.79E-02
116259,5.74E-03,2.81E-02
116260,5.74E-03,2.83E-02
116261,5.74E-03,2.85E-02
116262,5.74E-03,2.87E-02
116263,5.74E-03,2.89E-02
116264,5.75E-03,1.01E-02
116265,5.75E-03,1.08E-02
116266,5.75E-03,1.14E-02
116267,5.75E-03,1.20E-02
116268,5.75E-03,1.26E-02
116269,5.75E-03,1.31E-02
116270,5.75E-03,1.36E-02
116271,5.75E-03,1.41E-02
116272,5.75E-03,1.46E-02
116273,5.75E-03,1.50E-02
116274,5.75E-03,1.54E-02
116275,5.75E-03,1.58E-02
116276,5.75E-03,1.61E-02
116277,5.75E-03,1.65E-02
116278,5.75E-03,1.68E-02
116279,5.75E-03,1.71E-02
116280,5.75E-03,1.74E-02
116281,5.76E-03,1.77E-02
116282,5.76E-03,1.80E-02
116283,5.76E-03,1.83E-02
116284,5.76E-03,1.86E-02
116285,5.76E-03,1.89E-02
116286,5.76E-03,1.92E-02
116287,5.76E-03,1.94E-02
116288,5.76E-03,1.97E-02
116289,5.76E-03,1.99E-02
116290,5.76E-03,2.02E-02
116291,5.76E-03,2.05E-02
116292,5.76E-03,2.07E-02
116293,5.76E-03,2.09E-02
116294,5.76E-03,2.12E-02
116295,5.76E-03,2.14E-02
116296,5.76E-03,2.17E-02
116297,5.76E-03,2.19E-02
116298,5.76E-03,2.21E-02
116299,5.76E-03,2.23E-02
116300,5.76E-03,2.26E-02
116301,5.76E-03,2.28E-02
116302,5.76E-03,2.30E-02
116303,5.76E-03,2.32E-02
116304,5.76E-03,2.34E-02
116305,5.76E-03,2.36E-02
116306,5.76E-03,2.38E-02
116307,5.76E-03,2.40E-02
116308,5.76E-03,2.42E-02
116309,5.76E-03,2.44E-02
116310,5.76E-03,2.46E-02
116311,5.76E-03,2.48E-02
116312,5.76E-03,2.50E-02
116313,5.76E-03,2.52E-02
116314,5.76E-03,2.54E-02
116315,5.76E-03,2.56E-02
116316,5.76E-03,2.58E-02
116317,5.76E-03,2.60E-02
116318,5.76E-03,2.62E-02
116319,5.76E-03,2.64E-02
116320,5.76E-03,2.65E-02
116321,5.76E-03,2.67E-02
116322,5.76E-03,2.69E-02
116323,5.76E-03,2.71E-02
116324,5.76E-03,2.73E-02
116325,5.76E-03,2.75E-02
116326,5.76E-03,2.77E-02
116327,5.76E-03,2.79E-02
116328,5.76E-03,2.80E-02
116329,5.76E-03,2.82E-02
116330,5.76E-03,2.84E-02
116331,5.76E-03,2.86E-02
116332,5.76E-03,2.89E-02
116333,5.79E-03,1.01E-02
116334,5.79E-03,1.07E-02
116335,5.79E-03,1.14E-02
116336,5.79E-03,1.20E-02
116337,5.79E-03,1.25E-02
116338,5.79E-03,1.31E-02
116339,5.79E-03,1.36E-02
116340,5.79E-03,1.40E-02
116341,5.79E-03,1.45E-02
116342,5.79E-03,1.49E-02
116343,5.79E-03,1.53E-02
116344,5.79E-03,1.57E-02
116345,5.79E-03,1.60E-02
116346,5.79E-03,1.64E-02
116347,5.79E-03,1.67E-02
116348,5.79E-03,1.70E-02
116349,5.79E-03,1.73E-02
116350,5.79E-03,1.76E-02
116351,5.79E-03,1.79E-02
116352,5.79E-03,1.82E-02
116353,5.79E-03,1.85E-02
116354,5.78E-03,1.88E-02
116355,5.78E-03,1.91E-02
116356,5.78E-03,1.93E-02
116357,5.78E-03,1.96E-02
116358,5.78E-03,1.99E-02
116359,5.78E-03,2.01E-02
116360,5.78E-03,2.04E-02
116361,5.78E-03,2.06E-02
116362,5.78E-03,2.09E-02
116363,5.78E-03,2.11E-02
116364,5.78E-03,2.13E-02
116365,5.78E-03,2.16E-02
116366,5.78E-03,2.18E-02
116367,5.78E-03,2.20E-02
116368,5.78E-03,2.23E-02
116369,5.78E-03,2.25E-02
116370,5.78E-03,2.27E-02
116371,5.78E-03,2.29E-02
116372,5.78E-03,2.31E-02
116373,5.78E-03,2.33E-02
116374,5.78E-03,2.36E-02
116375,5.78E-03,2.38E-02
116376,5.78E-03,2.40E-02
116377,5.78E-03,2.42E-02
116378,5.78E-03,2.44E-02
116379,5.78E-03,2.46E-02
116380,5.78E-03,2.48E-02
116381,5.78E-03,2.50E-02
116382,5.78E-03,2.52E-02
116383,5.78E-03,2.54E-02
116384,5.78E-03,2.56E-02
116385,5.78E-03,2.57E-02
116386,5.78E-03,2.59E-02
116387,5.78E-03,2.61E-02
116388,5.78E-03,2.63E-02
116389,5.78E-03,2.65E-02
116390,5.78E-03,2.67E-02
116391,5.78E-03,2.69E-02
116392,5.78E-03,2.71E-02
116393,5.78E-03,2.73E-02
116394,5.78E-03,2.74E-02
116395,5.78E-03,2.76E-02
116396,5.78E-03,2.78E-02
116397,5.78E-03,2.80E-02
116398,5.78E-03,2.82E-02
116399,5.78E-03,2.84E-02
116400,5.78E-03,2.86E-02
116401,5.78E-03,2.88E-02
116402,5.82E-03,1.01E-02
116403,5.82E-03,1.07E-02
116404,5.82E-03,1.14E-02
116405,5.82E-03,1.20E-02
116406,5.82E-03,1.25E-02
116407,5.82E-03,1.30E-02
116408,5.82E-03,1.35E-02
116409,5.82E-03,1.39E-02
116410,5.82E-03,1.44E-02
116411,5.82E-03,1.48E-02
116412,5.82E-03,1.52E-02
116413,5.82E-03,1.56E-02
116414,5.81E-03,1.59E-02
116415,5.81E-03,1.63E-02
116416,5.81E-03,1.66E-02
116417,5.81E-03,1.69E-02
116418,5.81E-03,1.72E-02
116419,5.81E-03,1.75E-02
116420,5.81E-03,1.78E-02
116421,5.81E-03,1.81E-02
116422,5.81E-03,1.84E-02
116423,5.81E-03,1.87E-02
116424,5.81E-03,1.90E-02
116425,5.81E-03,1.92E-02
116426,5.81E-03,1.95E-02
116427,5.81E-03,1.98E-02
116428,5.81E-03,2.00E-02
116429,5.81E-03,2.03E-02
116430,5.81E-03,2.05E-02
116431,5.81E-03,2.08E-02
116432,5.81E-03,2.10E-02
116433,5.81E-03,2.13E-02
116434,5.81E-03,2.15E-02
116435,5.81E-03,2.17E-02
116436,5.81E-03,2.20E-02
116437,5.81E-03,2.22E-02
116438,5.81E-03,2.24E-02
116439,5.81E-03,2.26E-02
116440,5.81E-03,2.29E-02
116441,5.81E-03,2.31E-02
116442,5.81E-03,2.33E-02
116443,5.81E-03,2.35E-02
116444,5.81E-03,2.37E-02
116445,5.80E-03,2.39E-02
116446,5.80E-03,2.41E-02
116447,5.80E-03,2.43E-02
116448,5.80E-03,2.45E-02
116449,5.80E-03,2.47E-02
116450,5.80E-03,2.49E-02
116451,5.80E-03,2.51E-02
116452,5.80E-03,2.53E-02
116453,5.80E-03,2.55E-02
116454,5.80E-03,2.57E-02
116455,5.80E-03,2.59E-02
116456,5.80E-03,2.61E-02
116457,5.80E-03,2.63E-02
116458,5.80E-03,2.65E-02
116459,5.80E-03,2.67E-02
116460,5.80E-03,2.68E-02
116461,5.80E-03,2.70E-02
116462,5.80E-03,2.72E-02
116463,5.80E-03,2.74E-02
116464,5.80E-03,2.76E-02
116465,5.80E-03,2.78E-02
116466,5.80E-03,2.80E-02
116467,5.80E-03,2.82E-02
116468,5.80E-03,2.84E-02
116469,5.80E-03,2.86E-02
116470,5.80E-03,2.88E-02
116471,5.85E-03,1.01E-02
116472,5.85E-03,1.08E-02
116473,5.85E-03,1.14E-02
116474,5.85E-03,1.19E-02
116475,5.85E-03,1.25E-02
116476,5.84E-03,1.30E-02
116477,5.84E-03,1.34E-02
116478,5.84E-03,1.39E-02
116479,5.84E-03,1.43E-02
116480,5.84E-03,1.47E-02
116481,5.84E-03,1.51E-02
116482,5.84E-03,1.55E-02
116483,5.84E-03,1.58E-02
116484,5.84E-03,1.62E-02
116485,5.84E-03,1.65E-02
116486,5.84E-03,1.68E-02
116487,5.84E-03,1.71E-02
116488,5.84E-03,1.74E-02
116489,5.84E-03,1.77E-02
116490,5.84E-03,1.80E-02
116491,5.84E-03,1.83E-02
116492,5.84E-03,1.86E-02
116493,5.84E-03,1.89E-02
116494,5.84E-03,1.91E-02
116495,5.84E-03,1.94E-02
116496,5.83E-03,1.97E-02
116497,5.83E-03,1.99E-02
116498,5.83E-03,2.02E-02
116499,5.83E-03,2.04E-02
116500,5.83E-03,2.07E-02
116501,5.83E-03,2.09E-02
116502,5.83E-03,2.12E-02
116503,5.83E-03,2.14E-02
116504,5.83E-03,2.17E-02
116505,5.83E-03,2.19E-02
116506,5.83E-03,2.21E-02
116507,5.83E-03,2.23E-02
116508,5.83E-03,2.26E-02
116509,5.83E-03,2.28E-02
116510,5.83E-03,2.30E-02
116511,5.83E-03,2.32E-02
116512,5.83E-03,2.34E-02
116513,5.83E-03,2.36E-02
116514,5.83E-03,2.39E-02
116515,5.83E-03,2.41E-02
116516,5.82E-03,2.43E-02
116517,5.82E-03,2.45E-02
116518,5.82E-03,2.47E-02
116519,5.82E-03,2.49E-02
116520,5.82E-03,2.51E-02
116521,5.82E-03,2.53E-02
116522,5.82E-03,2.55E-02
116523,5.82E-03,2.57E-02
116524,5.82E-03,2.59E-02
116525,5.82E-03,2.61E-02
116526,5.82E-03,2.62E-02
116527,5.82E-03,2.64E-02
116528,5.82E-03,2.66E-02
116529,5.82E-03,2.68E-02
116530,5.82E-03,2.70E-02
116531,5.82E-03,2.72E-02
116532,5.82E-03,2.74E-02
116533,5.82E-03,2.76E-02
116534,5.82E-03,2.78E-02
116535,5.81E-03,2.80E-02
116536,5.81E-03,2.82E-02
116537,5.81E-03,2.84E-02
116538,5.81E-03,2.85E-02
116539,5.81E-03,2.88E-02
116540,5.88E-03,1.02E-02
116541,5.87E-03,1.08E-02
116542,5.87E-03,1.14E-02
116543,5.87E-03,1.20E-02
116544,5.87E-03,1.25E-02
116545,5.87E-03,1.29E-02
116546,5.87E-03,1.34E-02
116547,5.87E-03,1.38E-02
116548,5.87E-03,1.42E-02
116549,5.87E-03,1.46E-02
116550,5.87E-03,1.50E-02
116551,5.87E-03,1.54E-02
116552,5.87E-03,1.57E-02
116553,5.87E-03,1.61E-02
116554,5.87E-03,1.64E-02
116555,5.87E-03,1.67E-02
116556,5.86E-03,1.70E-02
116557,5.86E-03,1.73E-02
116558,5.86E-03,1.76E-02
116559,5.86E-03,1.79E-02
116560,5.86E-03,1.82E-02
116561,5.86E-03,1.85E-02
116562,5.86E-03,1.88E-02
116563,5.86E-03,1.91E-02
116564,5.86E-03,1.93E-02
116565,5.86E-03,1.96E-02
116566,5.86E-03,1.99E-02
116567,5.86E-03,2.01E-02
116568,5.86E-03,2.04E-02
116569,5.86E-03,2.06E-02
116570,5.85E-03,2.09E-02
116571,5.85E-03,2.11E-02
116572,5.85E-03,2.13E-02
116573,5.85E-03,2.16E-02
116574,5.85E-03,2.18E-02
116575,5.85E-03,2.20E-02
116576,5.85E-03,2.23E-02
116577,5.85E-03,2.25E-02
116578,5.85E-03,2.27E-02
116579,5.85E-03,2.29E-02
116580,5.85E-03,2.32E-02
116581,5.85E-03,2.34E-02
116582,5.85E-03,2.36E-02
116583,5.85E-03,2.38E-02
116584,5.84E-03,2.40E-02
116585,5.84E-03,2.42E-02
116586,5.84E-03,2.44E-02
116587,5.84E-03,2.46E-02
116588,5.84E-03,2.48E-02
116589,5.84E-03,2.50E-02
116590,5.84E-03,2.52E-02
116591,5.84E-03,2.54E-02
116592,5.84E-03,2.56E-02
116593,5.84E-03,2.58E-02
116594,5.84E-03,2.60E-02
116595,5.84E-03,2.62E-02
116596,5.84E-03,2.64E-02
116597,5.84E-03,2.66E-02
116598,5.83E-03,2.68E-02
116599,5.83E-03,2.70E-02
116600,5.83E-03,2.72E-02
116601,5.83E-03,2.74E-02
116602,5.83E-03,2.76E-02
116603,5.83E-03,2.77E-02
116604,5.83E-03,2.79E-02
116605,5.83E-03,2.81E-02
116606,5.83E-03,2.83E-02
116607,5.83E-03,2.85E-02
116608,5.83E-03,2.87E-02
116609,5.90E-03,1.04E-02
116610,5.90E-03,1.09E-02
116611,5.90E-03,1.15E-02
116612,5.90E-03,1.20E-02
116613,5.90E-03,1.25E-02
116614,5.89E-03,1.29E-02
116615,5.89E-03,1.34E-02
116616,5.89E-03,1.38E-02
116617,5.89E-03,1.42E-02
116618,5.89E-03,1.46E-02
116619,5.89E-03,1.49E-02
116620,5.89E-03,1.53E-02
116621,5.89E-03,1.56E-02
116622,5.89E-03,1.60E-02
116623,5.89E-03,1.63E-02
116624,5.89E-03,1.66E-02
116625,5.89E-03,1.69E-02
116626,5.88E-03,1.72E-02
116627,5.88E-03,1.75E-02
116628,5.88E-03,1.78E-02
116629,5.88E-03,1.81E-02
116630,5.88E-03,1.84E-02
116631,5.88E-03,1.87E-02
116632,5.88E-03,1.90E-02
116633,5.88E-03,1.92E-02
116634,5.88E-03,1.95E-02
116635,5.88E-03,1.98E-02
116636,5.88E-03,2.00E-02
116637,5.88E-03,2.03E-02
116638,5.87E-03,2.05E-02
116639,5.87E-03,2.08E-02
116640,5.87E-03,2.10E-02
116641,5.87E-03,2.13E-02
116642,5.87E-03,2.15E-02
116643,5.87E-03,2.17E-02
116644,5.87E-03,2.20E-02
116645,5.87E-03,2.22E-02
116646,5.87E-03,2.24E-02
116647,5.87E-03,2.27E-02
116648,5.87E-03,2.29E-02
116649,5.87E-03,2.31E-02
116650,5.86E-03,2.33E-02
116651,5.86E-03,2.35E-02
116652,5.86E-03,2.38E-02
116653,5.86E-03,2.40E-02
116654,5.86E-03,2.42E-02
116655,5.86E-03,2.44E-02
116656,5.86E-03,2.46E-02
116657,5.86E-03,2.48E-02
116658,5.86E-03,2.50E-02
116659,5.86E-03,2.52E-02
116660,5.86E-03,2.54E-02
116661,5.86E-03,2.56E-02
116662,5.85E-03,2.58E-02
116663,5.85E-03,2.60E-02
116664,5.85E-03,2.62E-02
116665,5.85E-03,2.64E-02
116666,5.85E-03,2.66E-02
116667,5.85E-03,2.68E-02
116668,5.85E-03,2.70E-02
116669,5.85E-03,2.72E-02
116670,5.85E-03,2.73E-02
116671,5.85E-03,2.75E-02
116672,5.85E-03,2.77E-02
116673,5.85E-03,2.79E-02
116674,5.84E-03,2.81E-02
116675,5.84E-03,2.83E-02
116676,5.84E-03,2.85E-02
116677,5.84E-03,2.87E-02
116678,5.92E-03,1.06E-02
116679,5.92E-03,1.11E-02
116680,5.92E-03,1.16E-02
116681,5.92E-03,1.20E-02
116682,5.91E-03,1.25E-02
116683,5.91E-03,1.29E-02
116684,5.91E-03,1.33E-02
116685,5.91E-03,1.37E-02
116686,5.91E-03,1.41E-02
116687,5.91E-03,1.45E-02
116688,5.91E-03,1.48E-02
116689,5.91E-03,1.52E-02
116690,5.91E-03,1.55E-02
116691,5.91E-03,1.59E-02
116692,5.91E-03,1.62E-02
116693,5.90E-03,1.65E-02
116694,5.90E-03,1.68E-02
116695,5.90E-03,1.72E-02
116696,5.90E-03,1.75E-02
116697,5.90E-03,1.78E-02
116698,5.90E-03,1.80E-02
116699,5.90E-03,1.83E-02
116700,5.90E-03,1.86E-02
116701,5.90E-03,1.89E-02
116702,5.90E-03,1.92E-02
116703,5.90E-03,1.94E-02
116704,5.89E-03,1.97E-02
116705,5.89E-03,2.00E-02
116706,5.89E-03,2.02E-02
116707,5.89E-03,2.05E-02
116708,5.89E-03,2.07E-02
116709,5.89E-03,2.10E-02
116710,5.89E-03,2.12E-02
116711,5.89E-03,2.14E-02
116712,5.89E-03,2.17E-02
116713,5.89E-03,2.19E-02
116714,5.88E-03,2.21E-02
116715,5.88E-03,2.24E-02
116716,5.88E-03,2.26E-02
116717,5.88E-03,2.28E-02
116718,5.88E-03,2.30E-02
116719,5.88E-03,2.33E-02
116720,5.88E-03,2.35E-02
116721,5.88E-03,2.37E-02
116722,5.88E-03,2.39E-02
116723,5.88E-03,2.41E-02
116724,5.88E-03,2.43E-02
116725,5.87E-03,2.45E-02
116726,5.87E-03,2.47E-02
116727,5.87E-03,2.50E-02
116728,5.87E-03,2.52E-02
116729,5.87E-03,2.54E-02
116730,5.87E-03,2.56E-02
116731,5.87E-03,2.58E-02
116732,5.87E-03,2.60E-02
116733,5.87E-03,2.62E-02
116734,5.87E-03,2.64E-02
116735,5.86E-03,2.65E-02
116736,5.86E-03,2.67E-02
116737,5.86E-03,2.69E-02
116738,5.86E-03,2.71E-02
116739,5.86E-03,2.73E-02
116740,5.86E-03,2.75E-02
116741,5.86E-03,2.77E-02
116742,5.86E-03,2.79E-02
116743,5.86E-03,2.81E-02
116744,5.86E-03,2.83E-02
116745,5.86E-03,2.85E-02
116746,5.85E-03,2.87E-02
116747,5.94E-03,1.07E-02
116748,5.93E-03,1.12E-02
116749,5.93E-03,1.16E-02
116750,5.93E-03,1.21E-02
116751,5.93E-03,1.25E-02
116752,5.93E-03,1.29E-02
116753,5.93E-03,1.33E-02
116754,5.93E-03,1.37E-02
116755,5.93E-03,1.41E-02
116756,5.93E-03,1.44E-02
116757,5.93E-03,1.48E-02
116758,5.92E-03,1.51E-02
116759,5.92E-03,1.55E-02
116760,5.92E-03,1.58E-02
116761,5.92E-03,1.61E-02
116762,5.92E-03,1.64E-02
116763,5.92E-03,1.68E-02
116764,5.92E-03,1.71E-02
116765,5.92E-03,1.74E-02
116766,5.92E-03,1.77E-02
116767,5.92E-03,1.80E-02
116768,5.91E-03,1.82E-02
116769,5.91E-03,1.85E-02
116770,5.91E-03,1.88E-02
116771,5.91E-03,1.91E-02
116772,5.91E-03,1.93E-02
116773,5.91E-03,1.96E-02
116774,5.91E-03,1.99E-02
116775,5.91E-03,2.01E-02
116776,5.91E-03,2.04E-02
116777,5.91E-03,2.06E-02
116778,5.90E-03,2.09E-02
116779,5.90E-03,2.11E-02
116780,5.90E-03,2.14E-02
116781,5.90E-03,2.16E-02
116782,5.90E-03,2.18E-02
116783,5.90E-03,2.21E-02
116784,5.90E-03,2.23E-02
116785,5.90E-03,2.25E-02
116786,5.90E-03,2.28E-02
116787,5.90E-03,2.30E-02
116788,5.89E-03,2.32E-02
116789,5.89E-03,2.34E-02
116790,5.89E-03,2.36E-02
116791,5.89E-03,2.39E-02
116792,5.89E-03,2.41E-02
116793,5.89E-03,2.43E-02
116794,5.89E-03,2.45E-02
116795,5.89E-03,2.47E-02
116796,5.89E-03,2.49E-02
116797,5.88E-03,2.51E-02
116798,5.88E-03,2.53E-02
116799,5.88E-03,2.55E-02
116800,5.88E-03,2.57E-02
116801,5.88E-03,2.59E-02
116802,5.88E-03,2.61E-02
116803,5.88E-03,2.63E-02
116804,5.88E-03,2.65E-02
116805,5.88E-03,2.67E-02
116806,5.88E-03,2.69E-02
116807,5.87E-03,2.71E-02
116808,5.87E-03,2.73E-02
116809,5.87E-03,2.75E-02
116810,5.87E-03,2.77E-02
116811,5.87E-03,2.79E-02
116812,5.87E-03,2.81E-02
116813,5.87E-03,2.83E-02
116814,5.87E-03,2.85E-02
116815,5.87E-03,2.87E-02
116816,5.95E-03,1.09E-02
116817,5.95E-03,1.13E-02
116818,5.95E-03,1.17E-02
116819,5.95E-03,1.21E-02
116820,5.95E-03,1.25E-02
116821,5.95E-03,1.29E-02
116822,5.94E-03,1.33E-02
116823,5.94E-03,1.36E-02
116824,5.94E-03,1.40E-02
116825,5.94E-03,1.44E-02
116826,5.94E-03,1.47E-02
116827,5.94E-03,1.50E-02
116828,5.94E-03,1.54E-02
116829,5.94E-03,1.57E-02
116830,5.94E-03,1.60E-02
116831,5.93E-03,1.64E-02
116832,5.93E-03,1.67E-02
116833,5.93E-03,1.70E-02
116834,5.93E-03,1.73E-02
116835,5.93E-03,1.76E-02
116836,5.93E-03,1.79E-02
116837,5.93E-03,1.82E-02
116838,5.93E-03,1.84E-02
116839,5.93E-03,1.87E-02
116840,5.92E-03,1.90E-02
116841,5.92E-03,1.93E-02
116842,5.92E-03,1.95E-02
116843,5.92E-03,1.98E-02
116844,5.92E-03,2.01E-02
116845,5.92E-03,2.03E-02
116846,5.92E-03,2.06E-02
116847,5.92E-03,2.08E-02
116848,5.92E-03,2.11E-02
116849,5.92E-03,2.13E-02
116850,5.91E-03,2.15E-02
116851,5.91E-03,2.18E-02
116852,5.91E-03,2.20E-02
116853,5.91E-03,2.23E-02
116854,5.91E-03,2.25E-02
116855,5.91E-03,2.27E-02
116856,5.91E-03,2.29E-02
116857,5.91E-03,2.32E-02
116858,5.91E-03,2.34E-02
116859,5.90E-03,2.36E-02
116860,5.90E-03,2.38E-02
116861,5.90E-03,2.40E-02
116862,5.90E-03,2.42E-02
116863,5.90E-03,2.45E-02
116864,5.90E-03,2.47E-02
116865,5.90E-03,2.49E-02
116866,5.90E-03,2.51E-02
116867,5.90E-03,2.53E-02
116868,5.90E-03,2.55E-02
116869,5.89E-03,2.57E-02
116870,5.89E-03,2.59E-02
116871,5.89E-03,2.61E-02
116872,5.89E-03,2.63E-02
116873,5.89E-03,2.65E-02
116874,5.89E-03,2.67E-02
116875,5.89E-03,2.69E-02
116876,5.89E-03,2.71E-02
116877,5.89E-03,2.73E-02
116878,5.88E-03,2.75E-02
116879,5.88E-03,2.77E-02
116880,5.88E-03,2.79E-02
116881,5.88E-03,2.81E-02
116882,5.88E-03,2.83E-02
116883,5.88E-03,2.84E-02
116884,5.88E-03,2.86E-02
116885,5.96E-03,1.11E-02
116886,5.96E-03,1.15E-02
116887,5.96E-03,1.18E-02
116888,5.96E-03,1.22E-02
116889,5.96E-03,1.26E-02
116890,5.96E-03,1.29E-02
116891,5.96E-03,1.33E-02
116892,5.96E-03,1.36E-02
116893,5.96E-03,1.40E-02
116894,5.95E-03,1.43E-02
116895,5.95E-03,1.46E-02
116896,5.95E-03,1.50E-02
116897,5.95E-03,1.53E-02
116898,5.95E-03,1.56E-02
116899,5.95E-03,1.60E-02
116900,5.95E-03,1.63E-02
116901,5.95E-03,1.66E-02
116902,5.95E-03,1.69E-02
116903,5.94E-03,1.72E-02
116904,5.94E-03,1.75E-02
116905,5.94E-03,1.78E-02
116906,5.94E-03,1.81E-02
116907,5.94E-03,1.84E-02
116908,5.94E-03,1.86E-02
116909,5.94E-03,1.89E-02
116910,5.94E-03,1.92E-02
116911,5.94E-03,1.95E-02
116912,5.93E-03,1.97E-02
116913,5.93E-03,2.00E-02
116914,5.93E-03,2.02E-02
116915,5.93E-03,2.05E-02
116916,5.93E-03,2.07E-02
116917,5.93E-03,2.10E-02
116918,5.93E-03,2.12E-02
116919,5.93E-03,2.15E-02
116920,5.93E-03,2.17E-02
116921,5.92E-03,2.20E-02
116922,5.92E-03,2.22E-02
116923,5.92E-03,2.24E-02
116924,5.92E-03,2.27E-02
116925,5.92E-03,2.29E-02
116926,5.92E-03,2.31E-02
116927,5.92E-03,2.33E-02
116928,5.92E-03,2.36E-02
116929,5.92E-03,2.38E-02
116930,5.91E-03,2.40E-02
116931,5.91E-03,2.42E-02
116932,5.91E-03,2.44E-02
116933,5.91E-03,2.46E-02
116934,5.91E-03,2.48E-02
116935,5.91E-03,2.50E-02
116936,5.91E-03,2.53E-02
116937,5.91E-03,2.55E-02
116938,5.91E-03,2.57E-02
116939,5.91E-03,2.59E-02
116940,5.90E-03,2.61E-02
116941,5.90E-03,2.63E-02
116942,5.90E-03,2.65E-02
116943,5.90E-03,2.67E-02
116944,5.90E-03,2.69E-02
116945,5.90E-03,2.71E-02
116946,5.90E-03,2.73E-02
116947,5.90E-03,2.75E-02
116948,5.90E-03,2.77E-02
116949,5.89E-03,2.78E-02
116950,5.89E-03,2.80E-02
116951,5.89E-03,2.82E-02
116952,5.89E-03,2.84E-02
116953,5.89E-03,2.86E-02
116954,5.98E-03,1.13E-02
116955,5.98E-03,1.16E-02
116956,5.98E-03,1.20E-02
116957,5.97E-03,1.23E-02
116958,5.97E-03,1.26E-02
116959,5.97E-03,1.29E-02
116960,5.97E-03,1.32E-02
116961,5.97E-03,1.36E-02
116962,5.97E-03,1.39E-02
116963,5.97E-03,1.42E-02
116964,5.97E-03,1.46E-02
116965,5.96E-03,1.49E-02
116966,5.96E-03,1.52E-02
116967,5.96E-03,1.56E-02
116968,5.96E-03,1.59E-02
116969,5.96E-03,1.62E-02
116970,5.96E-03,1.65E-02
116971,5.96E-03,1.68E-02
116972,5.96E-03,1.71E-02
116973,5.96E-03,1.74E-02
116974,5.95E-03,1.77E-02
116975,5.95E-03,1.80E-02
116976,5.95E-03,1.83E-02
116977,5.95E-03,1.86E-02
116978,5.95E-03,1.88E-02
116979,5.95E-03,1.91E-02
116980,5.95E-03,1.94E-02
116981,5.95E-03,1.96E-02
116982,5.95E-03,1.99E-02
116983,5.94E-03,2.02E-02
116984,5.94E-03,2.04E-02
116985,5.94E-03,2.07E-02
116986,5.94E-03,2.09E-02
116987,5.94E-03,2.12E-02
116988,5.94E-03,2.14E-02
116989,5.94E-03,2.17E-02
116990,5.94E-03,2.19E-02
116991,5.94E-03,2.21E-02
116992,5.93E-03,2.24E-02
116993,5.93E-03,2.26E-02
116994,5.93E-03,2.28E-02
116995,5.93E-03,2.31E-02
116996,5.93E-03,2.33E-02
116997,5.93E-03,2.35E-02
116998,5.93E-03,2.37E-02
116999,5.93E-03,2.39E-02
117000,5.93E-03,2.42E-02
117001,5.92E-03,2.44E-02
117002,5.92E-03,2.46E-02
117003,5.92E-03,2.48E-02
117004,5.92E-03,2.50E-02
117005,5.92E-03,2.52E-02
117006,5.92E-03,2.54E-02
117007,5.92E-03,2.56E-02
117008,5.92E-03,2.58E-02
117009,5.92E-03,2.60E-02
117010,5.91E-03,2.62E-02
117011,5.91E-03,2.64E-02
117012,5.91E-03,2.66E-02
117013,5.91E-03,2.68E-02
117014,5.91E-03,2.70E-02
117015,5.91E-03,2.72E-02
117016,5.91E-03,2.74E-02
117017,5.91E-03,2.76E-02
117018,5.91E-03,2.78E-02
117019,5.90E-03,2.80E-02
117020,5.90E-03,2.82E-02
117021,5.90E-03,2.84E-02
117022,5.90E-03,2.86E-02
117023,5.99E-03,1.16E-02
117024,5.99E-03,1.18E-02
117025,5.99E-03,1.21E-02
117026,5.99E-03,1.23E-02
117027,5.98E-03,1.26E-02
117028,5.98E-03,1.29E-02
117029,5.98E-03,1.32E-02
117030,5.98E-03,1.35E-02
117031,5.98E-03,1.38E-02
117032,5.98E-03,1.42E-02
117033,5.98E-03,1.45E-02
117034,5.98E-03,1.48E-02
117035,5.98E-03,1.52E-02
117036,5.97E-03,1.55E-02
117037,5.97E-03,1.58E-02
117038,5.97E-03,1.61E-02
117039,5.97E-03,1.64E-02
117040,5.97E-03,1.67E-02
117041,5.97E-03,1.70E-02
117042,5.97E-03,1.73E-02
117043,5.97E-03,1.76E-02
117044,5.97E-03,1.79E-02
117045,5.96E-03,1.82E-02
117046,5.96E-03,1.85E-02
117047,5.96E-03,1.88E-02
117048,5.96E-03,1.90E-02
117049,5.96E-03,1.93E-02
117050,5.96E-03,1.96E-02
117051,5.96E-03,1.98E-02
117052,5.96E-03,2.01E-02
117053,5.96E-03,2.04E-02
117054,5.95E-03,2.06E-02
117055,5.95E-03,2.09E-02
117056,5.95E-03,2.11E-02
117057,5.95E-03,2.14E-02
117058,5.95E-03,2.16E-02
117059,5.95E-03,2.18E-02
117060,5.95E-03,2.21E-02
117061,5.95E-03,2.23E-02
117062,5.94E-03,2.25E-02
117063,5.94E-03,2.28E-02
117064,5.94E-03,2.30E-02
117065,5.94E-03,2.32E-02
117066,5.94E-03,2.35E-02
117067,5.94E-03,2.37E-02
117068,5.94E-03,2.39E-02
117069,5.94E-03,2.41E-02
117070,5.94E-03,2.43E-02
117071,5.93E-03,2.45E-02
117072,5.93E-03,2.48E-02
117073,5.93E-03,2.50E-02
117074,5.93E-03,2.52E-02
117075,5.93E-03,2.54E-02
117076,5.93E-03,2.56E-02
117077,5.93E-03,2.58E-02
117078,5.93E-03,2.60E-02
117079,5.93E-03,2.62E-02
117080,5.92E-03,2.64E-02
117081,5.92E-03,2.66E-02
117082,5.92E-03,2.68E-02
117083,5.92E-03,2.70E-02
117084,5.92E-03,2.72E-02
117085,5.92E-03,2.74E-02
117086,5.92E-03,2.76E-02
117087,5.92E-03,2.78E-02
117088,5.92E-03,2.80E-02
117089,5.91E-03,2.82E-02
117090,5.91E-03,2.84E-02
117091,5.91E-03,2.85E-02
117092,6.00E-03,1.18E-02
117093,6.00E-03,1.20E-02
117094,6.00E-03,1.22E-02
117095,6.00E-03,1.24E-02
117096,5.99E-03,1.26E-02
117097,5.99E-03,1.29E-02
117098,5.99E-03,1.32E-02
117099,5.99E-03,1.35E-02
117100,5.99E-03,1.38E-02
117101,5.99E-03,1.41E-02
117102,5.99E-03,1.44E-02
117103,5.99E-03,1.48E-02
117104,5.99E-03,1.51E-02
117105,5.98E-03,1.54E-02
117106,5.98E-03,1.57E-02
117107,5.98E-03,1.60E-02
117108,5.98E-03,1.63E-02
117109,5.98E-03,1.66E-02
117110,5.98E-03,1.70E-02
117111,5.98E-03,1.73E-02
117112,5.98E-03,1.75E-02
117113,5.98E-03,1.78E-02
117114,5.97E-03,1.81E-02
117115,5.97E-03,1.84E-02
117116,5.97E-03,1.87E-02
117117,5.97E-03,1.90E-02
117118,5.97E-03,1.92E-02
117119,5.97E-03,1.95E-02
117120,5.97E-03,1.98E-02
117121,5.97E-03,2.00E-02
117122,5.97E-03,2.03E-02
117123,5.96E-03,2.05E-02
117124,5.96E-03,2.08E-02
117125,5.96E-03,2.10E-02
117126,5.96E-03,2.13E-02
117127,5.96E-03,2.15E-02
117128,5.96E-03,2.18E-02
117129,5.96E-03,2.20E-02
117130,5.96E-03,2.23E-02
117131,5.96E-03,2.25E-02
117132,5.95E-03,2.27E-02
117133,5.95E-03,2.30E-02
117134,5.95E-03,2.32E-02
117135,5.95E-03,2.34E-02
117136,5.95E-03,2.36E-02
117137,5.95E-03,2.38E-02
117138,5.95E-03,2.41E-02
117139,5.95E-03,2.43E-02
117140,5.94E-03,2.45E-02
117141,5.94E-03,2.47E-02
117142,5.94E-03,2.49E-02
117143,5.94E-03,2.51E-02
117144,5.94E-03,2.54E-02
117145,5.94E-03,2.56E-02
117146,5.94E-03,2.58E-02
117147,5.94E-03,2.60E-02
117148,5.94E-03,2.62E-02
117149,5.93E-03,2.64E-02
117150,5.93E-03,2.66E-02
117151,5.93E-03,2.68E-02
117152,5.93E-03,2.70E-02
117153,5.93E-03,2.72E-02
117154,5.93E-03,2.74E-02
117155,5.93E-03,2.76E-02
117156,5.93E-03,2.78E-02
117157,5.93E-03,2.80E-02
117158,5.92E-03,2.82E-02
117159,5.92E-03,2.83E-02
117160,5.92E-03,2.85E-02
117161,6.01E-03,1.20E-02
117162,6.01E-03,1.21E-02
117163,6.00E-03,1.22E-02
117164,6.00E-03,1.24E-02
117165,6.00E-03,1.26E-02
117166,6.00E-03,1.29E-02
117167,6.00E-03,1.31E-02
117168,6.00E-03,1.34E-02
117169,6.00E-03,1.37E-02
117170,6.00E-03,1.41E-02
117171,6.00E-03,1.44E-02
117172,5.99E-03,1.47E-02
117173,5.99E-03,1.50E-02
117174,5.99E-03,1.53E-02
117175,5.99E-03,1.56E-02
117176,5.99E-03,1.60E-02
117177,5.99E-03,1.63E-02
117178,5.99E-03,1.66E-02
117179,5.99E-03,1.69E-02
117180,5.99E-03,1.72E-02
117181,5.99E-03,1.75E-02
117182,5.98E-03,1.78E-02
117183,5.98E-03,1.80E-02
117184,5.98E-03,1.83E-02
117185,5.98E-03,1.86E-02
117186,5.98E-03,1.89E-02
117187,5.98E-03,1.92E-02
117188,5.98E-03,1.94E-02
117189,5.98E-03,1.97E-02
117190,5.98E-03,2.00E-02
117191,5.97E-03,2.02E-02
117192,5.97E-03,2.05E-02
117193,5.97E-03,2.07E-02
117194,5.97E-03,2.10E-02
117195,5.97E-03,2.12E-02
117196,5.97E-03,2.15E-02
117197,5.97E-03,2.17E-02
117198,5.97E-03,2.20E-02
117199,5.97E-03,2.22E-02
117200,5.96E-03,2.24E-02
117201,5.96E-03,2.27E-02
117202,5.96E-03,2.29E-02
117203,5.96E-03,2.31E-02
117204,5.96E-03,2.34E-02
117205,5.96E-03,2.36E-02
117206,5.96E-03,2.38E-02
117207,5.96E-03,2.40E-02
117208,5.96E-03,2.42E-02
117209,5.95E-03,2.45E-02
117210,5.95E-03,2.47E-02
117211,5.95E-03,2.49E-02
117212,5.95E-03,2.51E-02
117213,5.95E-03,2.53E-02
117214,5.95E-03,2.55E-02
117215,5.95E-03,2.57E-02
117216,5.95E-03,2.59E-02
117217,5.95E-03,2.61E-02
117218,5.95E-03,2.64E-02
117219,5.94E-03,2.66E-02
117220,5.94E-03,2.68E-02
117221,5.94E-03,2.70E-02
117222,5.94E-03,2.72E-02
117223,5.94E-03,2.74E-02
117224,5.94E-03,2.76E-02
117225,5.94E-03,2.77E-02
117226,5.94E-03,2.79E-02
117227,5.94E-03,2.81E-02
117228,5.93E-03,2.83E-02
117229,5.93E-03,2.85E-02
117230,6.01E-03,1.22E-02
117231,6.01E-03,1.22E-02
117232,6.01E-03,1.23E-02
117233,6.01E-03,1.24E-02
117234,6.01E-03,1.26E-02
117235,6.01E-03,1.29E-02
117236,6.01E-03,1.31E-02
117237,6.01E-03,1.34E-02
117238,6.01E-03,1.37E-02
117239,6.00E-03,1.40E-02
117240,6.00E-03,1.43E-02
117241,6.00E-03,1.46E-02
117242,6.00E-03,1.49E-02
117243,6.00E-03,1.53E-02
117244,6.00E-03,1.56E-02
117245,6.00E-03,1.59E-02
117246,6.00E-03,1.62E-02
117247,6.00E-03,1.65E-02
117248,6.00E-03,1.68E-02
117249,5.99E-03,1.71E-02
117250,5.99E-03,1.74E-02
117251,5.99E-03,1.77E-02
117252,5.99E-03,1.80E-02
117253,5.99E-03,1.83E-02
117254,5.99E-03,1.85E-02
117255,5.99E-03,1.88E-02
117256,5.99E-03,1.91E-02
117257,5.99E-03,1.94E-02
117258,5.99E-03,1.96E-02
117259,5.98E-03,1.99E-02
117260,5.98E-03,2.02E-02
117261,5.98E-03,2.04E-02
117262,5.98E-03,2.07E-02
117263,5.98E-03,2.09E-02
117264,5.98E-03,2.12E-02
117265,5.98E-03,2.14E-02
117266,5.98E-03,2.17E-02
117267,5.98E-03,2.19E-02
117268,5.98E-03,2.21E-02
117269,5.97E-03,2.24E-02
117270,5.97E-03,2.26E-02
117271,5.97E-03,2.28E-02
117272,5.97E-03,2.31E-02
117273,5.97E-03,2.33E-02
117274,5.97E-03,2.35E-02
117275,5.97E-03,2.38E-02
117276,5.97E-03,2.40E-02
117277,5.97E-03,2.42E-02
117278,5.97E-03,2.44E-02
117279,5.96E-03,2.46E-02
117280,5.96E-03,2.49E-02
117281,5.96E-03,2.51E-02
117282,5.96E-03,2.53E-02
117283,5.96E-03,2.55E-02
117284,5.96E-03,2.57E-02
117285,5.96E-03,2.59E-02
117286,5.96E-03,2.61E-02
117287,5.96E-03,2.63E-02
117288,5.96E-03,2.65E-02
117289,5.95E-03,2.67E-02
117290,5.95E-03,2.69E-02
117291,5.95E-03,2.71E-02
117292,5.95E-03,2.73E-02
117293,5.95E-03,2.75E-02
117294,5.95E-03,2.77E-02
117295,5.95E-03,2.79E-02
117296,5.95E-03,2.81E-02
117297,5.95E-03,2.83E-02
117298,5.94E-03,2.84E-02
117299,6.02E-03,1.24E-02
117300,6.02E-03,1.23E-02
117301,6.02E-03,1.24E-02
117302,6.02E-03,1.24E-02
117303,6.02E-03,1.26E-02
117304,6.02E-03,1.28E-02
117305,6.01E-03,1.31E-02
117306,6.01E-03,1.34E-02
117307,6.01E-03,1.36E-02
117308,6.01E-03,1.39E-02
117309,6.01E-03,1.43E-02
117310,6.01E-03,1.46E-02
117311,6.01E-03,1.49E-02
117312,6.01E-03,1.52E-02
117313,6.01E-03,1.55E-02
117314,6.01E-03,1.58E-02
117315,6.01E-03,1.61E-02
117316,6.00E-03,1.64E-02
117317,6.00E-03,1.67E-02
117318,6.00E-03,1.70E-02
117319,6.00E-03,1.73E-02
117320,6.00E-03,1.76E-02
117321,6.00E-03,1.79E-02
117322,6.00E-03,1.82E-02
117323,6.00E-03,1.85E-02
117324,6.00E-03,1.87E-02
117325,6.00E-03,1.90E-02
117326,6.00E-03,1.93E-02
117327,5.99E-03,1.96E-02
117328,5.99E-03,1.98E-02
117329,5.99E-03,2.01E-02
117330,5.99E-03,2.03E-02
117331,5.99E-03,2.06E-02
117332,5.99E-03,2.09E-02
117333,5.99E-03,2.11E-02
117334,5.99E-03,2.14E-02
117335,5.99E-03,2.16E-02
117336,5.99E-03,2.18E-02
117337,5.98E-03,2.21E-02
117338,5.98E-03,2.23E-02
117339,5.98E-03,2.26E-02
117340,5.98E-03,2.28E-02
117341,5.98E-03,2.30E-02
117342,5.98E-03,2.33E-02
117343,5.98E-03,2.35E-02
117344,5.98E-03,2.37E-02
117345,5.98E-03,2.39E-02
117346,5.98E-03,2.42E-02
117347,5.98E-03,2.44E-02
117348,5.97E-03,2.46E-02
117349,5.97E-03,2.48E-02
117350,5.97E-03,2.50E-02
117351,5.97E-03,2.52E-02
117352,5.97E-03,2.55E-02
117353,5.97E-03,2.57E-02
117354,5.97E-03,2.59E-02
117355,5.97E-03,2.61E-02
117356,5.97E-03,2.63E-02
117357,5.97E-03,2.65E-02
117358,5.97E-03,2.67E-02
117359,5.96E-03,2.69E-02
117360,5.96E-03,2.71E-02
117361,5.96E-03,2.73E-02
117362,5.96E-03,2.75E-02
117363,5.96E-03,2.77E-02
117364,5.96E-03,2.79E-02
117365,5.96E-03,2.80E-02
117366,5.96E-03,2.82E-02
117367,5.96E-03,2.84E-02
117368,6.02E-03,1.25E-02
117369,6.02E-03,1.24E-02
117370,6.02E-03,1.24E-02
117371,6.02E-03,1.24E-02
117372,6.02E-03,1.26E-02
117373,6.02E-03,1.28E-02
117374,6.02E-03,1.30E-02
117375,6.02E-03,1.33E-02
117376,6.02E-03,1.36E-02
117377,6.02E-03,1.39E-02
117378,6.02E-03,1.42E-02
117379,6.02E-03,1.45E-02
117380,6.01E-03,1.48E-02
117381,6.01E-03,1.51E-02
117382,6.01E-03,1.54E-02
117383,6.01E-03,1.57E-02
117384,6.01E-03,1.60E-02
117385,6.01E-03,1.63E-02
117386,6.01E-03,1.66E-02
117387,6.01E-03,1.69E-02
117388,6.01E-03,1.72E-02
117389,6.01E-03,1.75E-02
117390,6.01E-03,1.78E-02
117391,6.01E-03,1.81E-02
117392,6.01E-03,1.84E-02
117393,6.00E-03,1.87E-02
117394,6.00E-03,1.89E-02
117395,6.00E-03,1.92E-02
117396,6.00E-03,1.95E-02
117397,6.00E-03,1.98E-02
117398,6.00E-03,2.00E-02
117399,6.00E-03,2.03E-02
117400,6.00E-03,2.05E-02
117401,6.00E-03,2.08E-02
117402,6.00E-03,2.10E-02
117403,6.00E-03,2.13E-02
117404,6.00E-03,2.15E-02
117405,5.99E-03,2.18E-02
117406,5.99E-03,2.20E-02
117407,5.99E-03,2.23E-02
117408,5.99E-03,2.25E-02
117409,5.99E-03,2.27E-02
117410,5.99E-03,2.30E-02
117411,5.99E-03,2.32E-02
117412,5.99E-03,2.34E-02
117413,5.99E-03,2.37E-02
117414,5.99E-03,2.39E-02
117415,5.99E-03,2.41E-02
117416,5.99E-03,2.43E-02
117417,5.99E-03,2.46E-02
117418,5.98E-03,2.48E-02
117419,5.98E-03,2.50E-02
117420,5.98E-03,2.52E-02
117421,5.98E-03,2.54E-02
117422,5.98E-03,2.56E-02
117423,5.98E-03,2.58E-02
117424,5.98E-03,2.60E-02
117425,5.98E-03,2.63E-02
117426,5.98E-03,2.65E-02
117427,5.98E-03,2.67E-02
117428,5.98E-03,2.69E-02
117429,5.98E-03,2.71E-02
117430,5.97E-03,2.73E-02
117431,5.97E-03,2.74E-02
117432,5.97E-03,2.76E-02
117433,5.97E-03,2.78E-02
117434,5.97E-03,2.80E-02
117435,5.97E-03,2.82E-02
117436,5.97E-03,2.83E-02
117437,6.03E-03,1.26E-02
117438,6.03E-03,1.24E-02
117439,6.03E-03,1.24E-02
117440,6.02E-03,1.24E-02
117441,6.02E-03,1.26E-02
117442,6.02E-03,1.28E-02
117443,6.02E-03,1.30E-02
117444,6.02E-03,1.33E-02
117445,6.02E-03,1.36E-02
117446,6.02E-03,1.38E-02
117447,6.02E-03,1.41E-02
117448,6.02E-03,1.44E-02
117449,6.02E-03,1.47E-02
117450,6.02E-03,1.51E-02
117451,6.02E-03,1.54E-02
117452,6.02E-03,1.57E-02
117453,6.02E-03,1.60E-02
117454,6.02E-03,1.63E-02
117455,6.02E-03,1.66E-02
117456,6.01E-03,1.69E-02
117457,6.01E-03,1.72E-02
117458,6.01E-03,1.75E-02
117459,6.01E-03,1.77E-02
117460,6.01E-03,1.80E-02
117461,6.01E-03,1.83E-02
117462,6.01E-03,1.86E-02
117463,6.01E-03,1.89E-02
117464,6.01E-03,1.91E-02
117465,6.01E-03,1.94E-02
117466,6.01E-03,1.97E-02
117467,6.01E-03,1.99E-02
117468,6.01E-03,2.02E-02
117469,6.01E-03,2.05E-02
117470,6.01E-03,2.07E-02
117471,6.01E-03,2.10E-02
117472,6.00E-03,2.12E-02
117473,6.00E-03,2.15E-02
117474,6.00E-03,2.17E-02
117475,6.00E-03,2.20E-02
117476,6.00E-03,2.22E-02
117477,6.00E-03,2.25E-02
117478,6.00E-03,2.27E-02
117479,6.00E-03,2.29E-02
117480,6.00E-03,2.32E-02
117481,6.00E-03,2.34E-02
117482,6.00E-03,2.36E-02
117483,6.00E-03,2.38E-02
117484,6.00E-03,2.41E-02
117485,6.00E-03,2.43E-02
117486,6.00E-03,2.45E-02
117487,6.00E-03,2.47E-02
117488,5.99E-03,2.49E-02
117489,5.99E-03,2.52E-02
117490,5.99E-03,2.54E-02
117491,5.99E-03,2.56E-02
117492,5.99E-03,2.58E-02
117493,5.99E-03,2.60E-02
117494,5.99E-03,2.62E-02
117495,5.99E-03,2.64E-02
117496,5.99E-03,2.66E-02
117497,5.99E-03,2.68E-02
117498,5.99E-03,2.70E-02
117499,5.99E-03,2.72E-02
117500,5.99E-03,2.74E-02
117501,5.99E-03,2.76E-02
117502,5.99E-03,2.78E-02
117503,5.99E-03,2.79E-02
117504,5.98E-03,2.81E-02
117505,5.98E-03,2.83E-02
117506,6.02E-03,1.25E-02
117507,6.02E-03,1.23E-02
117508,6.02E-03,1.23E-02
117509,6.02E-03,1.24E-02
117510,6.02E-03,1.25E-02
117511,6.02E-03,1.27E-02
117512,6.02E-03,1.30E-02
117513,6.02E-03,1.32E-02
117514,6.02E-03,1.35E-02
117515,6.02E-03,1.38E-02
117516,6.02E-03,1.41E-02
117517,6.01E-03,1.44E-02
117518,6.01E-03,1.47E-02
117519,6.01E-03,1.50E-02
117520,6.01E-03,1.53E-02
117521,6.01E-03,1.56E-02
117522,6.01E-03,1.59E-02
117523,6.01E-03,1.62E-02
117524,6.01E-03,1.65E-02
117525,6.01E-03,1.68E-02
117526,6.01E-03,1.71E-02
117527,6.01E-03,1.74E-02
117528,6.01E-03,1.77E-02
117529,6.01E-03,1.80E-02
117530,6.01E-03,1.82E-02
117531,6.01E-03,1.85E-02
117532,6.01E-03,1.88E-02
117533,6.01E-03,1.91E-02
117534,6.01E-03,1.93E-02
117535,6.01E-03,1.96E-02
117536,6.01E-03,1.99E-02
117537,6.01E-03,2.01E-02
117538,6.01E-03,2.04E-02
117539,6.01E-03,2.07E-02
117540,6.01E-03,2.09E-02
117541,6.01E-03,2.12E-02
117542,6.01E-03,2.14E-02
117543,6.01E-03,2.17E-02
117544,6.01E-03,2.19E-02
117545,6.01E-03,2.22E-02
117546,6.01E-03,2.24E-02
117547,6.01E-03,2.26E-02
117548,6.01E-03,2.29E-02
117549,6.01E-03,2.31E-02
117550,6.01E-03,2.33E-02
117551,6.01E-03,2.36E-02
117552,6.01E-03,2.38E-02
117553,6.01E-03,2.40E-02
117554,6.00E-03,2.42E-02
117555,6.00E-03,2.45E-02
117556,6.00E-03,2.47E-02
117557,6.00E-03,2.49E-02
117558,6.00E-03,2.51E-02
117559,6.00E-03,2.53E-02
117560,6.00E-03,2.55E-02
117561,6.00E-03,2.58E-02
117562,6.00E-03,2.60E-02
117563,6.00E-03,2.62E-02
117564,6.00E-03,2.64E-02
117565,6.00E-03,2.66E-02
117566,6.00E-03,2.68E-02
117567,6.00E-03,2.70E-02
117568,6.00E-03,2.72E-02
117569,6.00E-03,2.74E-02
117570,6.00E-03,2.75E-02
117571,6.00E-03,2.77E-02
117572,6.00E-03,2.79E-02
117573,6.00E-03,2.81E-02
117574,6.00E-03,2.82E-02
117575,6.01E-03,1.23E-02
117576,6.01E-03,1.22E-02
117577,6.01E-03,1.23E-02
117578,6.01E-03,1.24E-02
117579,6.01E-03,1.25E-02
117580,6.01E-03,1.27E-02
117581,6.01E-03,1.29E-02
117582,6.01E-03,1.32E-02
117583,6.01E-03,1.35E-02
117584,6.01E-03,1.37E-02
117585,6.01E-03,1.40E-02
117586,6.01E-03,1.43E-02
117587,6.01E-03,1.46E-02
117588,6.01E-03,1.49E-02
117589,6.01E-03,1.52E-02
117590,6.01E-03,1.55E-02
117591,6.01E-03,1.58E-02
117592,6.01E-03,1.61E-02
117593,6.01E-03,1.64E-02
117594,6.01E-03,1.67E-02
117595,6.01E-03,1.70E-02
117596,6.01E-03,1.73E-02
117597,6.01E-03,1.76E-02
117598,6.01E-03,1.79E-02
117599,6.01E-03,1.82E-02
117600,6.01E-03,1.84E-02
117601,6.01E-03,1.87E-02
117602,6.01E-03,1.90E-02
117603,6.01E-03,1.93E-02
117604,6.01E-03,1.95E-02
117605,6.01E-03,1.98E-02
117606,6.01E-03,2.01E-02
117607,6.01E-03,2.03E-02
117608,6.01E-03,2.06E-02
117609,6.01E-03,2.08E-02
117610,6.01E-03,2.11E-02
117611,6.01E-03,2.14E-02
117612,6.01E-03,2.16E-02
117613,6.01E-03,2.18E-02
117614,6.01E-03,2.21E-02
117615,6.01E-03,2.23E-02
117616,6.01E-03,2.26E-02
117617,6.01E-03,2.28E-02
117618,6.01E-03,2.30E-02
117619,6.01E-03,2.33E-02
117620,6.01E-03,2.35E-02
117621,6.01E-03,2.37E-02
117622,6.01E-03,2.40E-02
117623,6.01E-03,2.42E-02
117624,6.01E-03,2.44E-02
117625,6.02E-03,2.46E-02
117626,6.02E-03,2.49E-02
117627,6.02E-03,2.51E-02
117628,6.02E-03,2.53E-02
117629,6.02E-03,2.55E-02
117630,6.02E-03,2.57E-02
117631,6.02E-03,2.59E-02
117632,6.02E-03,2.61E-02
117633,6.02E-03,2.63E-02
117634,6.02E-03,2.65E-02
117635,6.02E-03,2.67E-02
117636,6.02E-03,2.69E-02
117637,6.02E-03,2.71E-02
117638,6.02E-03,2.73E-02
117639,6.02E-03,2.75E-02
117640,6.02E-03,2.77E-02
117641,6.02E-03,2.78E-02
117642,6.02E-03,2.80E-02
117643,6.02E-03,2.82E-02
117644,6.02E-03,1.20E-02
117645,6.02E-03,1.21E-02
117646,6.02E-03,1.22E-02
117647,6.03E-03,1.23E-02
117648,6.03E-03,1.25E-02
117649,6.03E-03,1.27E-02
117650,6.03E-03,1.29E-02
117651,6.03E-03,1.32E-02
117652,6.03E-03,1.34E-02
117653,6.03E-03,1.37E-02
117654,6.03E-03,1.40E-02
117655,6.03E-03,1.43E-02
117656,6.03E-03,1.46E-02
117657,6.03E-03,1.49E-02
117658,6.03E-03,1.51E-02
117659,6.03E-03,1.54E-02
117660,6.03E-03,1.57E-02
117661,6.03E-03,1.60E-02
117662,6.03E-03,1.63E-02
117663,6.03E-03,1.66E-02
117664,6.03E-03,1.69E-02
117665,6.03E-03,1.72E-02
117666,6.03E-03,1.75E-02
117667,6.03E-03,1.78E-02
117668,6.03E-03,1.81E-02
117669,6.03E-03,1.84E-02
117670,6.03E-03,1.86E-02
117671,6.03E-03,1.89E-02
117672,6.03E-03,1.92E-02
117673,6.03E-03,1.95E-02
117674,6.03E-03,1.97E-02
117675,6.03E-03,2.00E-02
117676,6.03E-03,2.03E-02
117677,6.03E-03,2.05E-02
117678,6.03E-03,2.08E-02
117679,6.03E-03,2.10E-02
117680,6.03E-03,2.13E-02
117681,6.03E-03,2.15E-02
117682,6.03E-03,2.18E-02
117683,6.03E-03,2.20E-02
117684,6.03E-03,2.23E-02
117685,6.03E-03,2.25E-02
117686,6.03E-03,2.28E-02
117687,6.03E-03,2.30E-02
117688,6.03E-03,2.32E-02
117689,6.03E-03,2.35E-02
117690,6.03E-03,2.37E-02
117691,6.03E-03,2.39E-02
117692,6.03E-03,2.41E-02
117693,6.03E-03,2.44E-02
117694,6.03E-03,2.46E-02
117695,6.03E-03,2.48E-02
117696,6.03E-03,2.50E-02
117697,6.03E-03,2.52E-02
117698,6.03E-03,2.55E-02
117699,6.03E-03,2.57E-02
117700,6.03E-03,2.59E-02
117701,6.03E-03,2.61E-02
117702,6.03E-03,2.63E-02
117703,6.03E-03,2.65E-02
117704,6.03E-03,2.67E-02
117705,6.03E-03,2.69E-02
117706,6.03E-03,2.71E-02
117707,6.03E-03,2.73E-02
117708,6.03E-03,2.74E-02
117709,6.03E-03,2.76E-02
117710,6.03E-03,2.78E-02
117711,6.04E-03,2.79E-02
117712,6.04E-03,2.81E-02
117713,6.04E-03,1.17E-02
117714,6.04E-03,1.19E-02
117715,6.04E-03,1.21E-02
117716,6.04E-03,1.23E-02
117717,6.04E-03,1.24E-02
117718,6.04E-03,1.27E-02
117719,6.04E-03,1.29E-02
117720,6.04E-03,1.31E-02
117721,6.04E-03,1.34E-02
117722,6.04E-03,1.37E-02
117723,6.04E-03,1.39E-02
117724,6.04E-03,1.42E-02
117725,6.04E-03,1.45E-02
117726,6.04E-03,1.48E-02
117727,6.04E-03,1.51E-02
117728,6.04E-03,1.54E-02
117729,6.04E-03,1.57E-02
117730,6.04E-03,1.60E-02
117731,6.04E-03,1.63E-02
117732,6.04E-03,1.66E-02
117733,6.05E-03,1.69E-02
117734,6.05E-03,1.71E-02
117735,6.05E-03,1.74E-02
117736,6.05E-03,1.77E-02
117737,6.05E-03,1.80E-02
117738,6.05E-03,1.83E-02
117739,6.05E-03,1.86E-02
117740,6.05E-03,1.88E-02
117741,6.05E-03,1.91E-02
117742,6.05E-03,1.94E-02
117743,6.05E-03,1.97E-02
117744,6.05E-03,1.99E-02
117745,6.05E-03,2.02E-02
117746,6.05E-03,2.05E-02
117747,6.05E-03,2.07E-02
117748,6.05E-03,2.10E-02
117749,6.05E-03,2.12E-02
117750,6.05E-03,2.15E-02
117751,6.05E-03,2.17E-02
117752,6.05E-03,2.20E-02
117753,6.05E-03,2.22E-02
117754,6.05E-03,2.25E-02
117755,6.05E-03,2.27E-02
117756,6.05E-03,2.29E-02
117757,6.05E-03,2.32E-02
117758,6.05E-03,2.34E-02
117759,6.05E-03,2.36E-02
117760,6.05E-03,2.39E-02
117761,6.05E-03,2.41E-02
117762,6.05E-03,2.43E-02
117763,6.05E-03,2.45E-02
117764,6.05E-03,2.48E-02
117765,6.05E-03,2.50E-02
117766,6.05E-03,2.52E-02
117767,6.05E-03,2.54E-02
117768,6.05E-03,2.56E-02
117769,6.05E-03,2.58E-02
117770,6.05E-03,2.60E-02
117771,6.05E-03,2.63E-02
117772,6.05E-03,2.65E-02
117773,6.05E-03,2.67E-02
117774,6.05E-03,2.68E-02
117775,6.05E-03,2.70E-02
117776,6.05E-03,2.72E-02
117777,6.05E-03,2.74E-02
117778,6.05E-03,2.76E-02
117779,6.05E-03,2.77E-02
117780,6.05E-03,2.79E-02
117781,6.05E-03,2.80E-02
117782,6.06E-03,1.14E-02
117783,6.06E-03,1.17E-02
117784,6.06E-03,1.20E-02
117785,6.06E-03,1.22E-02
117786,6.06E-03,1.24E-02
117787,6.06E-03,1.26E-02
117788,6.06E-03,1.29E-02
117789,6.06E-03,1.31E-02
117790,6.06E-03,1.33E-02
117791,6.06E-03,1.36E-02
117792,6.06E-03,1.39E-02
117793,6.06E-03,1.42E-02
117794,6.06E-03,1.44E-02
117795,6.06E-03,1.47E-02
117796,6.06E-03,1.50E-02
117797,6.06E-03,1.53E-02
117798,6.06E-03,1.56E-02
117799,6.06E-03,1.59E-02
117800,6.06E-03,1.62E-02
117801,6.06E-03,1.65E-02
117802,6.06E-03,1.68E-02
117803,6.06E-03,1.71E-02
117804,6.06E-03,1.74E-02
117805,6.06E-03,1.76E-02
117806,6.06E-03,1.79E-02
117807,6.06E-03,1.82E-02
117808,6.06E-03,1.85E-02
117809,6.06E-03,1.88E-02
117810,6.07E-03,1.90E-02
117811,6.07E-03,1.93E-02
117812,6.07E-03,1.96E-02
117813,6.07E-03,1.99E-02
117814,6.07E-03,2.01E-02
117815,6.07E-03,2.04E-02
117816,6.07E-03,2.06E-02
117817,6.07E-03,2.09E-02
117818,6.07E-03,2.12E-02
117819,6.07E-03,2.14E-02
117820,6.07E-03,2.17E-02
117821,6.07E-03,2.19E-02
117822,6.07E-03,2.22E-02
117823,6.07E-03,2.24E-02
117824,6.07E-03,2.26E-02
117825,6.07E-03,2.29E-02
117826,6.07E-03,2.31E-02
117827,6.07E-03,2.34E-02
117828,6.07E-03,2.36E-02
117829,6.07E-03,2.38E-02
117830,6.07E-03,2.40E-02
117831,6.07E-03,2.43E-02
117832,6.07E-03,2.45E-02
117833,6.07E-03,2.47E-02
117834,6.07E-03,2.49E-02
117835,6.07E-03,2.52E-02
117836,6.07E-03,2.54E-02
117837,6.07E-03,2.56E-02
117838,6.07E-03,2.58E-02
117839,6.07E-03,2.60E-02
117840,6.07E-03,2.62E-02
117841,6.07E-03,2.64E-02
117842,6.07E-03,2.66E-02
117843,6.07E-03,2.68E-02
117844,6.07E-03,2.70E-02
117845,6.07E-03,2.72E-02
117846,6.07E-03,2.73E-02
117847,6.07E-03,2.75E-02
117848,6.07E-03,2.77E-02
117849,6.07E-03,2.78E-02
117850,6.07E-03,2.80E-02
117851,6.08E-03,1.12E-02
117852,6.08E-03,1.15E-02
117853,6.08E-03,1.18E-02
117854,6.08E-03,1.21E-02
117855,6.08E-03,1.24E-02
117856,6.08E-03,1.26E-02
117857,6.08E-03,1.28E-02
117858,6.08E-03,1.31E-02
117859,6.08E-03,1.33E-02
117860,6.08E-03,1.36E-02
117861,6.08E-03,1.38E-02
117862,6.08E-03,1.41E-02
117863,6.08E-03,1.44E-02
117864,6.08E-03,1.47E-02
117865,6.08E-03,1.50E-02
117866,6.08E-03,1.52E-02
117867,6.08E-03,1.55E-02
117868,6.08E-03,1.58E-02
117869,6.08E-03,1.61E-02
117870,6.08E-03,1.64E-02
117871,6.08E-03,1.67E-02
117872,6.08E-03,1.70E-02
117873,6.08E-03,1.73E-02
117874,6.08E-03,1.76E-02
117875,6.09E-03,1.79E-02
117876,6.09E-03,1.81E-02
117877,6.09E-03,1.84E-02
117878,6.09E-03,1.87E-02
117879,6.09E-03,1.90E-02
117880,6.09E-03,1.92E-02
117881,6.09E-03,1.95E-02
117882,6.09E-03,1.98E-02
117883,6.09E-03,2.01E-02
117884,6.09E-03,2.03E-02
117885,6.09E-03,2.06E-02
117886,6.09E-03,2.08E-02
117887,6.09E-03,2.11E-02
117888,6.09E-03,2.13E-02
117889,6.09E-03,2.16E-02
117890,6.09E-03,2.19E-02
117891,6.09E-03,2.21E-02
117892,6.09E-03,2.23E-02
117893,6.09E-03,2.26E-02
117894,6.09E-03,2.28E-02
117895,6.09E-03,2.31E-02
117896,6.09E-03,2.33E-02
117897,6.09E-03,2.35E-02
117898,6.09E-03,2.38E-02
117899,6.09E-03,2.40E-02
117900,6.09E-03,2.42E-02
117901,6.09E-03,2.44E-02
117902,6.09E-03,2.47E-02
117903,6.09E-03,2.49E-02
117904,6.09E-03,2.51E-02
117905,6.09E-03,2.53E-02
117906,6.09E-03,2.55E-02
117907,6.09E-03,2.58E-02
117908,6.09E-03,2.60E-02
117909,6.09E-03,2.62E-02
117910,6.09E-03,2.64E-02
117911,6.09E-03,2.66E-02
117912,6.09E-03,2.68E-02
117913,6.09E-03,2.69E-02
117914,6.09E-03,2.71E-02
117915,6.09E-03,2.73E-02
117916,6.09E-03,2.75E-02
117917,6.09E-03,2.76E-02
117918,6.09E-03,2.78E-02
117919,6.09E-03,2.79E-02
117920,6.11E-03,1.10E-02
117921,6.11E-03,1.14E-02
117922,6.11E-03,1.17E-02
117923,6.11E-03,1.20E-02
117924,6.11E-03,1.23E-02
117925,6.11E-03,1.25E-02
117926,6.11E-03,1.28E-02
117927,6.11E-03,1.30E-02
117928,6.11E-03,1.33E-02
117929,6.11E-03,1.35E-02
117930,6.11E-03,1.38E-02
117931,6.11E-03,1.41E-02
117932,6.11E-03,1.43E-02
117933,6.11E-03,1.46E-02
117934,6.11E-03,1.49E-02
117935,6.11E-03,1.52E-02
117936,6.11E-03,1.55E-02
117937,6.11E-03,1.58E-02
117938,6.11E-03,1.61E-02
117939,6.11E-03,1.63E-02
117940,6.11E-03,1.66E-02
117941,6.11E-03,1.69E-02
117942,6.11E-03,1.72E-02
117943,6.11E-03,1.75E-02
117944,6.11E-03,1.78E-02
117945,6.11E-03,1.81E-02
117946,6.11E-03,1.83E-02
117947,6.11E-03,1.86E-02
117948,6.11E-03,1.89E-02
117949,6.11E-03,1.92E-02
117950,6.11E-03,1.95E-02
117951,6.11E-03,1.97E-02
117952,6.11E-03,2.00E-02
117953,6.11E-03,2.03E-02
117954,6.11E-03,2.05E-02
117955,6.11E-03,2.08E-02
117956,6.11E-03,2.10E-02
117957,6.11E-03,2.13E-02
117958,6.11E-03,2.15E-02
117959,6.11E-03,2.18E-02
117960,6.11E-03,2.20E-02
117961,6.11E-03,2.23E-02
117962,6.11E-03,2.25E-02
117963,6.11E-03,2.28E-02
117964,6.11E-03,2.30E-02
117965,6.11E-03,2.32E-02
117966,6.11E-03,2.35E-02
117967,6.11E-03,2.37E-02
117968,6.11E-03,2.39E-02
117969,6.11E-03,2.42E-02
117970,6.11E-03,2.44E-02
117971,6.11E-03,2.46E-02
117972,6.11E-03,2.48E-02
117973,6.11E-03,2.51E-02
117974,6.11E-03,2.53E-02
117975,6.11E-03,2.55E-02
117976,6.11E-03,2.57E-02
117977,6.11E-03,2.59E-02
117978,6.11E-03,2.61E-02
117979,6.11E-03,2.63E-02
117980,6.11E-03,2.65E-02
117981,6.11E-03,2.67E-02
117982,6.11E-03,2.69E-02
117983,6.11E-03,2.71E-02
117984,6.11E-03,2.72E-02
117985,6.11E-03,2.74E-02
117986,6.11E-03,2.76E-02
117987,6.11E-03,2.77E-02
117988,6.11E-03,2.79E-02
117989,6.13E-03,1.08E-02
117990,6.13E-03,1.12E-02
117991,6.13E-03,1.16E-02
117992,6.13E-03,1.19E-02
117993,6.13E-03,1.22E-02
117994,6.13E-03,1.25E-02
117995,6.13E-03,1.27E-02
117996,6.13E-03,1.30E-02
117997,6.13E-03,1.32E-02
117998,6.13E-03,1.35E-02
117999,6.13E-03,1.37E-02
118000,6.13E-03,1.40E-02
118001,6.13E-03,1.43E-02
118002,6.13E-03,1.46E-02
118003,6.13E-03,1.48E-02
118004,6.13E-03,1.51E-02
118005,6.13E-03,1.54E-02
118006,6.13E-03,1.57E-02
118007,6.13E-03,1.60E-02
118008,6.13E-03,1.63E-02
118009,6.13E-03,1.66E-02
118010,6.13E-03,1.69E-02
118011,6.13E-03,1.71E-02
118012,6.13E-03,1.74E-02
118013,6.13E-03,1.77E-02
118014,6.13E-03,1.80E-02
118015,6.13E-03,1.83E-02
118016,6.13E-03,1.86E-02
118017,6.13E-03,1.88E-02
118018,6.13E-03,1.91E-02
118019,6.13E-03,1.94E-02
118020,6.13E-03,1.97E-02
118021,6.13E-03,1.99E-02
118022,6.13E-03,2.02E-02
118023,6.13E-03,2.05E-02
118024,6.13E-03,2.07E-02
118025,6.13E-03,2.10E-02
118026,6.13E-03,2.12E-02
118027,6.13E-03,2.15E-02
118028,6.13E-03,2.17E-02
118029,6.13E-03,2.20E-02
118030,6.13E-03,2.22E-02
118031,6.13E-03,2.25E-02
118032,6.13E-03,2.27E-02
118033,6.13E-03,2.30E-02
118034,6.13E-03,2.32E-02
118035,6.13E-03,2.34E-02
118036,6.13E-03,2.37E-02
118037,6.13E-03,2.39E-02
118038,6.13E-03,2.41E-02
118039,6.13E-03,2.44E-02
118040,6.13E-03,2.46E-02
118041,6.13E-03,2.48E-02
118042,6.13E-03,2.50E-02
118043,6.13E-03,2.52E-02
118044,6.13E-03,2.54E-02
118045,6.13E-03,2.57E-02
118046,6.13E-03,2.59E-02
118047,6.13E-03,2.61E-02
118048,6.13E-03,2.63E-02
118049,6.13E-03,2.65E-02
118050,6.13E-03,2.67E-02
118051,6.13E-03,2.68E-02
118052,6.13E-03,2.70E-02
118053,6.13E-03,2.72E-02
118054,6.13E-03,2.74E-02
118055,6.13E-03,2.75E-02
118056,6.13E-03,2.77E-02
118057,6.13E-03,2.78E-02
118058,6.17E-03,1.06E-02
118059,6.17E-03,1.11E-02
118060,6.16E-03,1.15E-02
118061,6.16E-03,1.19E-02
118062,6.16E-03,1.22E-02
118063,6.16E-03,1.24E-02
118064,6.16E-03,1.27E-02
118065,6.16E-03,1.29E-02
118066,6.16E-03,1.32E-02
118067,6.16E-03,1.34E-02
118068,6.16E-03,1.37E-02
118069,6.16E-03,1.40E-02
118070,6.16E-03,1.42E-02
118071,6.16E-03,1.45E-02
118072,6.16E-03,1.48E-02
118073,6.16E-03,1.51E-02
118074,6.16E-03,1.54E-02
118075,6.16E-03,1.56E-02
118076,6.16E-03,1.59E-02
118077,6.16E-03,1.62E-02
118078,6.16E-03,1.65E-02
118079,6.16E-03,1.68E-02
118080,6.16E-03,1.71E-02
118081,6.16E-03,1.74E-02
118082,6.16E-03,1.77E-02
118083,6.16E-03,1.79E-02
118084,6.16E-03,1.82E-02
118085,6.16E-03,1.85E-02
118086,6.16E-03,1.88E-02
118087,6.16E-03,1.90E-02
118088,6.16E-03,1.93E-02
118089,6.16E-03,1.96E-02
118090,6.16E-03,1.99E-02
118091,6.16E-03,2.01E-02
118092,6.16E-03,2.04E-02
118093,6.16E-03,2.07E-02
118094,6.15E-03,2.09E-02
118095,6.15E-03,2.12E-02
118096,6.15E-03,2.14E-02
118097,6.15E-03,2.17E-02
118098,6.15E-03,2.19E-02
118099,6.15E-03,2.22E-02
118100,6.15E-03,2.24E-02
118101,6.15E-03,2.27E-02
118102,6.15E-03,2.29E-02
118103,6.15E-03,2.31E-02
118104,6.15E-03,2.34E-02
118105,6.15E-03,2.36E-02
118106,6.15E-03,2.38E-02
118107,6.15E-03,2.41E-02
118108,6.15E-03,2.43E-02
118109,6.15E-03,2.45E-02
118110,6.15E-03,2.48E-02
118111,6.15E-03,2.50E-02
118112,6.15E-03,2.52E-02
118113,6.15E-03,2.54E-02
118114,6.15E-03,2.56E-02
118115,6.15E-03,2.58E-02
118116,6.15E-03,2.60E-02
118117,6.15E-03,2.62E-02
118118,6.15E-03,2.64E-02
118119,6.15E-03,2.66E-02
118120,6.15E-03,2.68E-02
118121,6.15E-03,2.70E-02
118122,6.15E-03,2.72E-02
118123,6.15E-03,2.73E-02
118124,6.15E-03,2.75E-02
118125,6.15E-03,2.76E-02
118126,6.15E-03,2.78E-02
118127,6.20E-03,1.06E-02
118128,6.20E-03,1.11E-02
118129,6.20E-03,1.15E-02
118130,6.20E-03,1.18E-02
118131,6.19E-03,1.21E-02
118132,6.19E-03,1.24E-02
118133,6.19E-03,1.26E-02
118134,6.19E-03,1.29E-02
118135,6.19E-03,1.31E-02
118136,6.19E-03,1.34E-02
118137,6.19E-03,1.36E-02
118138,6.19E-03,1.39E-02
118139,6.19E-03,1.42E-02
118140,6.19E-03,1.45E-02
118141,6.19E-03,1.47E-02
118142,6.19E-03,1.50E-02
118143,6.19E-03,1.53E-02
118144,6.19E-03,1.56E-02
118145,6.19E-03,1.59E-02
118146,6.19E-03,1.62E-02
118147,6.19E-03,1.65E-02
118148,6.19E-03,1.67E-02
118149,6.19E-03,1.70E-02
118150,6.18E-03,1.73E-02
118151,6.18E-03,1.76E-02
118152,6.18E-03,1.79E-02
118153,6.18E-03,1.82E-02
118154,6.18E-03,1.84E-02
118155,6.18E-03,1.87E-02
118156,6.18E-03,1.90E-02
118157,6.18E-03,1.93E-02
118158,6.18E-03,1.95E-02
118159,6.18E-03,1.98E-02
118160,6.18E-03,2.01E-02
118161,6.18E-03,2.03E-02
118162,6.18E-03,2.06E-02
118163,6.18E-03,2.09E-02
118164,6.18E-03,2.11E-02
118165,6.18E-03,2.14E-02
118166,6.18E-03,2.16E-02
118167,6.18E-03,2.19E-02
118168,6.18E-03,2.21E-02
118169,6.18E-03,2.24E-02
118170,6.17E-03,2.26E-02
118171,6.17E-03,2.29E-02
118172,6.17E-03,2.31E-02
118173,6.17E-03,2.33E-02
118174,6.17E-03,2.36E-02
118175,6.17E-03,2.38E-02
118176,6.17E-03,2.40E-02
118177,6.17E-03,2.43E-02
118178,6.17E-03,2.45E-02
118179,6.17E-03,2.47E-02
118180,6.17E-03,2.49E-02
118181,6.17E-03,2.51E-02
118182,6.17E-03,2.54E-02
118183,6.17E-03,2.56E-02
118184,6.17E-03,2.58E-02
118185,6.17E-03,2.60E-02
118186,6.17E-03,2.62E-02
118187,6.17E-03,2.64E-02
118188,6.17E-03,2.66E-02
118189,6.16E-03,2.68E-02
118190,6.16E-03,2.69E-02
118191,6.16E-03,2.71E-02
118192,6.16E-03,2.73E-02
118193,6.16E-03,2.74E-02
118194,6.16E-03,2.76E-02
118195,6.16E-03,2.77E-02
118196,6.22E-03,1.06E-02
118197,6.22E-03,1.10E-02
118198,6.22E-03,1.14E-02
118199,6.22E-03,1.17E-02
118200,6.22E-03,1.20E-02
118201,6.22E-03,1.23E-02
118202,6.22E-03,1.26E-02
118203,6.22E-03,1.28E-02
118204,6.22E-03,1.31E-02
118205,6.22E-03,1.33E-02
118206,6.22E-03,1.36E-02
118207,6.21E-03,1.39E-02
118208,6.21E-03,1.41E-02
118209,6.21E-03,1.44E-02
118210,6.21E-03,1.47E-02
118211,6.21E-03,1.50E-02
118212,6.21E-03,1.53E-02
118213,6.21E-03,1.55E-02
118214,6.21E-03,1.58E-02
118215,6.21E-03,1.61E-02
118216,6.21E-03,1.64E-02
118217,6.21E-03,1.67E-02
118218,6.21E-03,1.70E-02
118219,6.21E-03,1.73E-02
118220,6.21E-03,1.75E-02
118221,6.21E-03,1.78E-02
118222,6.20E-03,1.81E-02
118223,6.20E-03,1.84E-02
118224,6.20E-03,1.87E-02
118225,6.20E-03,1.89E-02
118226,6.20E-03,1.92E-02
118227,6.20E-03,1.95E-02
118228,6.20E-03,1.97E-02
118229,6.20E-03,2.00E-02
118230,6.20E-03,2.03E-02
118231,6.20E-03,2.05E-02
118232,6.20E-03,2.08E-02
118233,6.20E-03,2.11E-02
118234,6.20E-03,2.13E-02
118235,6.20E-03,2.16E-02
118236,6.20E-03,2.18E-02
118237,6.19E-03,2.21E-02
118238,6.19E-03,2.23E-02
118239,6.19E-03,2.26E-02
118240,6.19E-03,2.28E-02
118241,6.19E-03,2.30E-02
118242,6.19E-03,2.33E-02
118243,6.19E-03,2.35E-02
118244,6.19E-03,2.38E-02
118245,6.19E-03,2.40E-02
118246,6.19E-03,2.42E-02
118247,6.19E-03,2.44E-02
118248,6.19E-03,2.47E-02
118249,6.19E-03,2.49E-02
118250,6.19E-03,2.51E-02
118251,6.19E-03,2.53E-02
118252,6.18E-03,2.55E-02
118253,6.18E-03,2.57E-02
118254,6.18E-03,2.59E-02
118255,6.18E-03,2.61E-02
118256,6.18E-03,2.63E-02
118257,6.18E-03,2.65E-02
118258,6.18E-03,2.67E-02
118259,6.18E-03,2.69E-02
118260,6.18E-03,2.71E-02
118261,6.18E-03,2.72E-02
118262,6.18E-03,2.74E-02
118263,6.18E-03,2.76E-02
118264,6.18E-03,2.77E-02
118265,6.25E-03,1.07E-02
118266,6.25E-03,1.11E-02
118267,6.25E-03,1.14E-02
118268,6.25E-03,1.17E-02
118269,6.25E-03,1.20E-02
118270,6.24E-03,1.22E-02
118271,6.24E-03,1.25E-02
118272,6.24E-03,1.28E-02
118273,6.24E-03,1.30E-02
118274,6.24E-03,1.33E-02
118275,6.24E-03,1.36E-02
118276,6.24E-03,1.38E-02
118277,6.24E-03,1.41E-02
118278,6.24E-03,1.44E-02
118279,6.24E-03,1.46E-02
118280,6.24E-03,1.49E-02
118281,6.24E-03,1.52E-02
118282,6.23E-03,1.55E-02
118283,6.23E-03,1.58E-02
118284,6.23E-03,1.61E-02
118285,6.23E-03,1.63E-02
118286,6.23E-03,1.66E-02
118287,6.23E-03,1.69E-02
118288,6.23E-03,1.72E-02
118289,6.23E-03,1.75E-02
118290,6.23E-03,1.78E-02
118291,6.23E-03,1.80E-02
118292,6.23E-03,1.83E-02
118293,6.22E-03,1.86E-02
118294,6.22E-03,1.89E-02
118295,6.22E-03,1.91E-02
118296,6.22E-03,1.94E-02
118297,6.22E-03,1.97E-02
118298,6.22E-03,2.00E-02
118299,6.22E-03,2.02E-02
118300,6.22E-03,2.05E-02
118301,6.22E-03,2.07E-02
118302,6.22E-03,2.10E-02
118303,6.22E-03,2.13E-02
118304,6.22E-03,2.15E-02
118305,6.21E-03,2.18E-02
118306,6.21E-03,2.20E-02
118307,6.21E-03,2.23E-02
118308,6.21E-03,2.25E-02
118309,6.21E-03,2.28E-02
118310,6.21E-03,2.30E-02
118311,6.21E-03,2.32E-02
118312,6.21E-03,2.35E-02
118313,6.21E-03,2.37E-02
118314,6.21E-03,2.39E-02
118315,6.21E-03,2.42E-02
118316,6.21E-03,2.44E-02
118317,6.20E-03,2.46E-02
118318,6.20E-03,2.48E-02
118319,6.20E-03,2.51E-02
118320,6.20E-03,2.53E-02
118321,6.20E-03,2.55E-02
118322,6.20E-03,2.57E-02
118323,6.20E-03,2.59E-02
118324,6.20E-03,2.61E-02
118325,6.20E-03,2.63E-02
118326,6.20E-03,2.65E-02
118327,6.20E-03,2.67E-02
118328,6.20E-03,2.68E-02
118329,6.19E-03,2.70E-02
118330,6.19E-03,2.72E-02
118331,6.19E-03,2.74E-02
118332,6.19E-03,2.75E-02
118333,6.19E-03,2.77E-02
118334,6.26E-03,1.09E-02
118335,6.26E-03,1.11E-02
118336,6.26E-03,1.13E-02
118337,6.26E-03,1.16E-02
118338,6.26E-03,1.19E-02
118339,6.26E-03,1.21E-02
118340,6.26E-03,1.24E-02
118341,6.26E-03,1.27E-02
118342,6.26E-03,1.30E-02
118343,6.26E-03,1.32E-02
118344,6.25E-03,1.35E-02
118345,6.25E-03,1.38E-02
118346,6.25E-03,1.40E-02
118347,6.25E-03,1.43E-02
118348,6.25E-03,1.46E-02
118349,6.25E-03,1.49E-02
118350,6.25E-03,1.52E-02
118351,6.25E-03,1.54E-02
118352,6.25E-03,1.57E-02
118353,6.25E-03,1.60E-02
118354,6.25E-03,1.63E-02
118355,6.25E-03,1.66E-02
118356,6.24E-03,1.69E-02
118357,6.24E-03,1.71E-02
118358,6.24E-03,1.74E-02
118359,6.24E-03,1.77E-02
118360,6.24E-03,1.80E-02
118361,6.24E-03,1.83E-02
118362,6.24E-03,1.85E-02
118363,6.24E-03,1.88E-02
118364,6.24E-03,1.91E-02
118365,6.24E-03,1.94E-02
118366,6.24E-03,1.96E-02
118367,6.23E-03,1.99E-02
118368,6.23E-03,2.02E-02
118369,6.23E-03,2.04E-02
118370,6.23E-03,2.07E-02
118371,6.23E-03,2.10E-02
118372,6.23E-03,2.12E-02
118373,6.23E-03,2.15E-02
118374,6.23E-03,2.17E-02
118375,6.23E-03,2.20E-02
118376,6.23E-03,2.22E-02
118377,6.23E-03,2.25E-02
118378,6.23E-03,2.27E-02
118379,6.22E-03,2.30E-02
118380,6.22E-03,2.32E-02
118381,6.22E-03,2.34E-02
118382,6.22E-03,2.37E-02
118383,6.22E-03,2.39E-02
118384,6.22E-03,2.41E-02
118385,6.22E-03,2.44E-02
118386,6.22E-03,2.46E-02
118387,6.22E-03,2.48E-02
118388,6.22E-03,2.50E-02
118389,6.22E-03,2.52E-02
118390,6.21E-03,2.54E-02
118391,6.21E-03,2.56E-02
118392,6.21E-03,2.59E-02
118393,6.21E-03,2.61E-02
118394,6.21E-03,2.62E-02
118395,6.21E-03,2.64E-02
118396,6.21E-03,2.66E-02
118397,6.21E-03,2.68E-02
118398,6.21E-03,2.70E-02
118399,6.21E-03,2.72E-02
118400,6.21E-03,2.73E-02
118401,6.21E-03,2.75E-02
118402,6.20E-03,2.76E-02
118403,6.27E-03,1.10E-02
118404,6.27E-03,1.11E-02
118405,6.27E-03,1.13E-02
118406,6.27E-03,1.15E-02
118407,6.27E-03,1.18E-02
118408,6.27E-03,1.21E-02
118409,6.27E-03,1.23E-02
118410,6.27E-03,1.26E-02
118411,6.26E-03,1.29E-02
118412,6.26E-03,1.32E-02
118413,6.26E-03,1.35E-02
118414,6.26E-03,1.37E-02
118415,6.26E-03,1.40E-02
118416,6.26E-03,1.43E-02
118417,6.26E-03,1.46E-02
118418,6.26E-03,1.48E-02
118419,6.26E-03,1.51E-02
118420,6.26E-03,1.54E-02
118421,6.26E-03,1.57E-02
118422,6.26E-03,1.60E-02
118423,6.26E-03,1.62E-02
118424,6.25E-03,1.65E-02
118425,6.25E-03,1.68E-02
118426,6.25E-03,1.71E-02
118427,6.25E-03,1.74E-02
118428,6.25E-03,1.77E-02
118429,6.25E-03,1.79E-02
118430,6.25E-03,1.82E-02
118431,6.25E-03,1.85E-02
118432,6.25E-03,1.88E-02
118433,6.25E-03,1.90E-02
118434,6.25E-03,1.93E-02
118435,6.25E-03,1.96E-02
118436,6.25E-03,1.99E-02
118437,6.24E-03,2.01E-02
118438,6.24E-03,2.04E-02
118439,6.24E-03,2.06E-02
118440,6.24E-03,2.09E-02
118441,6.24E-03,2.12E-02
118442,6.24E-03,2.14E-02
118443,6.24E-03,2.17E-02
118444,6.24E-03,2.19E-02
118445,6.24E-03,2.22E-02
118446,6.24E-03,2.24E-02
118447,6.24E-03,2.27E-02
118448,6.24E-03,2.29E-02
118449,6.23E-03,2.31E-02
118450,6.23E-03,2.34E-02
118451,6.23E-03,2.36E-02
118452,6.23E-03,2.39E-02
118453,6.23E-03,2.41E-02
118454,6.23E-03,2.43E-02
118455,6.23E-03,2.45E-02
118456,6.23E-03,2.48E-02
118457,6.23E-03,2.50E-02
118458,6.23E-03,2.52E-02
118459,6.23E-03,2.54E-02
118460,6.23E-03,2.56E-02
118461,6.23E-03,2.58E-02
118462,6.22E-03,2.60E-02
118463,6.22E-03,2.62E-02
118464,6.22E-03,2.64E-02
118465,6.22E-03,2.66E-02
118466,6.22E-03,2.68E-02
118467,6.22E-03,2.69E-02
118468,6.22E-03,2.71E-02
118469,6.22E-03,2.73E-02
118470,6.22E-03,2.74E-02
118471,6.22E-03,2.76E-02
118472,6.28E-03,1.11E-02
118473,6.28E-03,1.11E-02
118474,6.28E-03,1.13E-02
118475,6.28E-03,1.15E-02
118476,6.28E-03,1.17E-02
118477,6.28E-03,1.20E-02
118478,6.27E-03,1.23E-02
118479,6.27E-03,1.26E-02
118480,6.27E-03,1.28E-02
118481,6.27E-03,1.31E-02
118482,6.27E-03,1.34E-02
118483,6.27E-03,1.37E-02
118484,6.27E-03,1.40E-02
118485,6.27E-03,1.42E-02
118486,6.27E-03,1.45E-02
118487,6.27E-03,1.48E-02
118488,6.27E-03,1.51E-02
118489,6.27E-03,1.54E-02
118490,6.27E-03,1.56E-02
118491,6.27E-03,1.59E-02
118492,6.26E-03,1.62E-02
118493,6.26E-03,1.65E-02
118494,6.26E-03,1.68E-02
118495,6.26E-03,1.70E-02
118496,6.26E-03,1.73E-02
118497,6.26E-03,1.76E-02
118498,6.26E-03,1.79E-02
118499,6.26E-03,1.82E-02
118500,6.26E-03,1.84E-02
118501,6.26E-03,1.87E-02
118502,6.26E-03,1.90E-02
118503,6.26E-03,1.93E-02
118504,6.26E-03,1.95E-02
118505,6.26E-03,1.98E-02
118506,6.26E-03,2.01E-02
118507,6.25E-03,2.03E-02
118508,6.25E-03,2.06E-02
118509,6.25E-03,2.09E-02
118510,6.25E-03,2.11E-02
118511,6.25E-03,2.14E-02
118512,6.25E-03,2.16E-02
118513,6.25E-03,2.19E-02
118514,6.25E-03,2.21E-02
118515,6.25E-03,2.24E-02
118516,6.25E-03,2.26E-02
118517,6.25E-03,2.29E-02
118518,6.25E-03,2.31E-02
118519,6.25E-03,2.33E-02
118520,6.25E-03,2.36E-02
118521,6.24E-03,2.38E-02
118522,6.24E-03,2.40E-02
118523,6.24E-03,2.43E-02
118524,6.24E-03,2.45E-02
118525,6.24E-03,2.47E-02
118526,6.24E-03,2.49E-02
118527,6.24E-03,2.51E-02
118528,6.24E-03,2.54E-02
118529,6.24E-03,2.56E-02
118530,6.24E-03,2.58E-02
118531,6.24E-03,2.60E-02
118532,6.24E-03,2.62E-02
118533,6.24E-03,2.64E-02
118534,6.24E-03,2.65E-02
118535,6.23E-03,2.67E-02
118536,6.23E-03,2.69E-02
118537,6.23E-03,2.71E-02
118538,6.23E-03,2.73E-02
118539,6.23E-03,2.74E-02
118540,6.23E-03,2.76E-02
118541,6.28E-03,1.11E-02
118542,6.28E-03,1.11E-02
118543,6.28E-03,1.12E-02
118544,6.28E-03,1.14E-02
118545,6.28E-03,1.16E-02
118546,6.28E-03,1.19E-02
118547,6.28E-03,1.22E-02
118548,6.28E-03,1.25E-02
118549,6.28E-03,1.28E-02
118550,6.28E-03,1.31E-02
118551,6.28E-03,1.33E-02
118552,6.28E-03,1.36E-02
118553,6.27E-03,1.39E-02
118554,6.27E-03,1.42E-02
118555,6.27E-03,1.45E-02
118556,6.27E-03,1.47E-02
118557,6.27E-03,1.50E-02
118558,6.27E-03,1.53E-02
118559,6.27E-03,1.56E-02
118560,6.27E-03,1.59E-02
118561,6.27E-03,1.62E-02
118562,6.27E-03,1.64E-02
118563,6.27E-03,1.67E-02
118564,6.27E-03,1.70E-02
118565,6.27E-03,1.73E-02
118566,6.27E-03,1.76E-02
118567,6.27E-03,1.78E-02
118568,6.27E-03,1.81E-02
118569,6.27E-03,1.84E-02
118570,6.27E-03,1.87E-02
118571,6.27E-03,1.89E-02
118572,6.27E-03,1.92E-02
118573,6.26E-03,1.95E-02
118574,6.26E-03,1.97E-02
118575,6.26E-03,2.00E-02
118576,6.26E-03,2.03E-02
118577,6.26E-03,2.05E-02
118578,6.26E-03,2.08E-02
118579,6.26E-03,2.11E-02
118580,6.26E-03,2.13E-02
118581,6.26E-03,2.16E-02
118582,6.26E-03,2.18E-02
118583,6.26E-03,2.21E-02
118584,6.26E-03,2.23E-02
118585,6.26E-03,2.26E-02
118586,6.26E-03,2.28E-02
118587,6.26E-03,2.31E-02
118588,6.26E-03,2.33E-02
118589,6.26E-03,2.35E-02
118590,6.26E-03,2.38E-02
118591,6.26E-03,2.40E-02
118592,6.25E-03,2.42E-02
118593,6.25E-03,2.44E-02
118594,6.25E-03,2.47E-02
118595,6.25E-03,2.49E-02
118596,6.25E-03,2.51E-02
118597,6.25E-03,2.53E-02
118598,6.25E-03,2.55E-02
118599,6.25E-03,2.57E-02
118600,6.25E-03,2.59E-02
118601,6.25E-03,2.61E-02
118602,6.25E-03,2.63E-02
118603,6.25E-03,2.65E-02
118604,6.25E-03,2.67E-02
118605,6.25E-03,2.69E-02
118606,6.25E-03,2.71E-02
118607,6.25E-03,2.72E-02
118608,6.25E-03,2.74E-02
118609,6.25E-03,2.76E-02
118610,6.28E-03,1.11E-02
118611,6.28E-03,1.10E-02
118612,6.28E-03,1.11E-02
118613,6.28E-03,1.13E-02
118614,6.28E-03,1.16E-02
118615,6.28E-03,1.19E-02
118616,6.28E-03,1.21E-02
118617,6.28E-03,1.24E-02
118618,6.28E-03,1.27E-02
118619,6.28E-03,1.30E-02
118620,6.28E-03,1.33E-02
118621,6.28E-03,1.36E-02
118622,6.28E-03,1.38E-02
118623,6.28E-03,1.41E-02
118624,6.27E-03,1.44E-02
118625,6.27E-03,1.47E-02
118626,6.27E-03,1.50E-02
118627,6.27E-03,1.53E-02
118628,6.27E-03,1.55E-02
118629,6.27E-03,1.58E-02
118630,6.27E-03,1.61E-02
118631,6.27E-03,1.64E-02
118632,6.27E-03,1.67E-02
118633,6.27E-03,1.69E-02
118634,6.27E-03,1.72E-02
118635,6.27E-03,1.75E-02
118636,6.27E-03,1.78E-02
118637,6.27E-03,1.81E-02
118638,6.27E-03,1.83E-02
118639,6.27E-03,1.86E-02
118640,6.27E-03,1.89E-02
118641,6.27E-03,1.92E-02
118642,6.27E-03,1.94E-02
118643,6.27E-03,1.97E-02
118644,6.27E-03,2.00E-02
118645,6.27E-03,2.02E-02
118646,6.27E-03,2.05E-02
118647,6.27E-03,2.08E-02
118648,6.27E-03,2.10E-02
118649,6.27E-03,2.13E-02
118650,6.27E-03,2.15E-02
118651,6.27E-03,2.18E-02
118652,6.27E-03,2.20E-02
118653,6.27E-03,2.23E-02
118654,6.27E-03,2.25E-02
118655,6.27E-03,2.28E-02
118656,6.27E-03,2.30E-02
118657,6.27E-03,2.32E-02
118658,6.27E-03,2.35E-02
118659,6.27E-03,2.37E-02
118660,6.27E-03,2.40E-02
118661,6.27E-03,2.42E-02
118662,6.27E-03,2.44E-02
118663,6.27E-03,2.46E-02
118664,6.27E-03,2.48E-02
118665,6.27E-03,2.51E-02
118666,6.27E-03,2.53E-02
118667,6.26E-03,2.55E-02
118668,6.26E-03,2.57E-02
118669,6.26E-03,2.59E-02
118670,6.26E-03,2.61E-02
118671,6.26E-03,2.63E-02
118672,6.26E-03,2.65E-02
118673,6.26E-03,2.67E-02
118674,6.26E-03,2.68E-02
118675,6.26E-03,2.70E-02
118676,6.26E-03,2.72E-02
118677,6.26E-03,2.74E-02
118678,6.26E-03,2.75E-02
118679,6.27E-03,1.09E-02
118680,6.27E-03,1.09E-02
118681,6.27E-03,1.10E-02
118682,6.27E-03,1.13E-02
118683,6.27E-03,1.15E-02
118684,6.27E-03,1.18E-02
118685,6.27E-03,1.21E-02
118686,6.27E-03,1.24E-02
118687,6.27E-03,1.27E-02
118688,6.27E-03,1.29E-02
118689,6.27E-03,1.32E-02
118690,6.27E-03,1.35E-02
118691,6.27E-03,1.38E-02
118692,6.27E-03,1.41E-02
118693,6.27E-03,1.44E-02
118694,6.27E-03,1.46E-02
118695,6.27E-03,1.49E-02
118696,6.27E-03,1.52E-02
118697,6.27E-03,1.55E-02
118698,6.27E-03,1.58E-02
118699,6.27E-03,1.60E-02
118700,6.27E-03,1.63E-02
118701,6.27E-03,1.66E-02
118702,6.27E-03,1.69E-02
118703,6.27E-03,1.72E-02
118704,6.27E-03,1.74E-02
118705,6.27E-03,1.77E-02
118706,6.27E-03,1.80E-02
118707,6.27E-03,1.83E-02
118708,6.27E-03,1.86E-02
118709,6.28E-03,1.88E-02
118710,6.28E-03,1.91E-02
118711,6.28E-03,1.94E-02
118712,6.28E-03,1.96E-02
118713,6.28E-03,1.99E-02
118714,6.28E-03,2.02E-02
118715,6.28E-03,2.04E-02
118716,6.28E-03,2.07E-02
118717,6.28E-03,2.10E-02
118718,6.28E-03,2.12E-02
118719,6.28E-03,2.15E-02
118720,6.28E-03,2.17E-02
118721,6.28E-03,2.20E-02
118722,6.28E-03,2.22E-02
118723,6.28E-03,2.25E-02
118724,6.28E-03,2.27E-02
118725,6.28E-03,2.30E-02
118726,6.28E-03,2.32E-02
118727,6.28E-03,2.34E-02
118728,6.28E-03,2.37E-02
118729,6.28E-03,2.39E-02
118730,6.28E-03,2.41E-02
118731,6.28E-03,2.44E-02
118732,6.28E-03,2.46E-02
118733,6.28E-03,2.48E-02
118734,6.28E-03,2.50E-02
118735,6.28E-03,2.52E-02
118736,6.28E-03,2.54E-02
118737,6.28E-03,2.57E-02
118738,6.28E-03,2.59E-02
118739,6.28E-03,2.61E-02
118740,6.28E-03,2.63E-02
118741,6.28E-03,2.64E-02
118742,6.28E-03,2.66E-02
118743,6.28E-03,2.68E-02
118744,6.28E-03,2.70E-02
118745,6.28E-03,2.72E-02
118746,6.28E-03,2.73E-02
118747,6.28E-03,2.75E-02
118748,6.25E-03,1.05E-02
118749,6.25E-03,1.07E-02
118750,6.26E-03,1.10E-02
118751,6.26E-03,1.12E-02
118752,6.26E-03,1.15E-02
118753,6.26E-03,1.17E-02
118754,6.26E-03,1.20E-02
118755,6.26E-03,1.23E-02
118756,6.26E-03,1.26E-02
118757,6.26E-03,1.29E-02
118758,6.26E-03,1.32E-02
118759,6.26E-03,1.34E-02
118760,6.26E-03,1.37E-02
118761,6.26E-03,1.40E-02
118762,6.26E-03,1.43E-02
118763,6.26E-03,1.46E-02
118764,6.26E-03,1.49E-02
118765,6.27E-03,1.51E-02
118766,6.27E-03,1.54E-02
118767,6.27E-03,1.57E-02
118768,6.27E-03,1.60E-02
118769,6.27E-03,1.63E-02
118770,6.27E-03,1.65E-02
118771,6.27E-03,1.68E-02
118772,6.27E-03,1.71E-02
118773,6.27E-03,1.74E-02
118774,6.27E-03,1.77E-02
118775,6.27E-03,1.79E-02
118776,6.27E-03,1.82E-02
118777,6.27E-03,1.85E-02
118778,6.27E-03,1.88E-02
118779,6.27E-03,1.90E-02
118780,6.28E-03,1.93E-02
118781,6.28E-03,1.96E-02
118782,6.28E-03,1.98E-02
118783,6.28E-03,2.01E-02
118784,6.28E-03,2.04E-02
118785,6.28E-03,2.06E-02
118786,6.28E-03,2.09E-02
118787,6.28E-03,2.12E-02
118788,6.28E-03,2.14E-02
118789,6.28E-03,2.17E-02
118790,6.28E-03,2.19E-02
118791,6.28E-03,2.22E-02
118792,6.28E-03,2.24E-02
118793,6.28E-03,2.27E-02
118794,6.28E-03,2.29E-02
118795,6.29E-03,2.32E-02
118796,6.29E-03,2.34E-02
118797,6.29E-03,2.36E-02
118798,6.29E-03,2.39E-02
118799,6.29E-03,2.41E-02
118800,6.29E-03,2.43E-02
118801,6.29E-03,2.45E-02
118802,6.29E-03,2.48E-02
118803,6.29E-03,2.50E-02
118804,6.29E-03,2.52E-02
118805,6.29E-03,2.54E-02
118806,6.29E-03,2.56E-02
118807,6.29E-03,2.58E-02
118808,6.29E-03,2.60E-02
118809,6.29E-03,2.62E-02
118810,6.30E-03,2.64E-02
118811,6.30E-03,2.66E-02
118812,6.30E-03,2.68E-02
118813,6.30E-03,2.70E-02
118814,6.30E-03,2.71E-02
118815,6.30E-03,2.73E-02
118816,6.30E-03,2.75E-02
118817,6.28E-03,1.01E-02
118818,6.28E-03,1.05E-02
118819,6.28E-03,1.09E-02
118820,6.28E-03,1.12E-02
118821,6.28E-03,1.14E-02
118822,6.28E-03,1.17E-02
118823,6.28E-03,1.20E-02
118824,6.28E-03,1.23E-02
118825,6.28E-03,1.25E-02
118826,6.28E-03,1.28E-02
118827,6.28E-03,1.31E-02
118828,6.28E-03,1.34E-02
118829,6.28E-03,1.37E-02
118830,6.28E-03,1.39E-02
118831,6.28E-03,1.42E-02
118832,6.28E-03,1.45E-02
118833,6.29E-03,1.48E-02
118834,6.29E-03,1.51E-02
118835,6.29E-03,1.54E-02
118836,6.29E-03,1.56E-02
118837,6.29E-03,1.59E-02
118838,6.29E-03,1.62E-02
118839,6.29E-03,1.65E-02
118840,6.29E-03,1.68E-02
118841,6.29E-03,1.70E-02
118842,6.29E-03,1.73E-02
118843,6.29E-03,1.76E-02
118844,6.29E-03,1.79E-02
118845,6.29E-03,1.82E-02
118846,6.29E-03,1.84E-02
118847,6.29E-03,1.87E-02
118848,6.30E-03,1.90E-02
118849,6.30E-03,1.93E-02
118850,6.30E-03,1.95E-02
118851,6.30E-03,1.98E-02
118852,6.30E-03,2.01E-02
118853,6.30E-03,2.03E-02
118854,6.30E-03,2.06E-02
118855,6.30E-03,2.08E-02
118856,6.30E-03,2.11E-02
118857,6.30E-03,2.14E-02
118858,6.30E-03,2.16E-02
118859,6.30E-03,2.19E-02
118860,6.30E-03,2.21E-02
118861,6.30E-03,2.24E-02
118862,6.30E-03,2.26E-02
118863,6.31E-03,2.29E-02
118864,6.31E-03,2.31E-02
118865,6.31E-03,2.33E-02
118866,6.31E-03,2.36E-02
118867,6.31E-03,2.38E-02
118868,6.31E-03,2.40E-02
118869,6.31E-03,2.43E-02
118870,6.31E-03,2.45E-02
118871,6.31E-03,2.47E-02
118872,6.31E-03,2.49E-02
118873,6.31E-03,2.52E-02
118874,6.31E-03,2.54E-02
118875,6.31E-03,2.56E-02
118876,6.31E-03,2.58E-02
118877,6.31E-03,2.60E-02
118878,6.32E-03,2.62E-02
118879,6.32E-03,2.64E-02
118880,6.32E-03,2.66E-02
118881,6.32E-03,2.68E-02
118882,6.32E-03,2.69E-02
118883,6.32E-03,2.71E-02
118884,6.32E-03,2.73E-02
118885,6.32E-03,2.75E-02
118886,6.33E-03,9.74E-03
118887,6.33E-03,1.03E-02
118888,6.33E-03,1.08E-02
118889,6.33E-03,1.11E-02
118890,6.33E-03,1.14E-02
118891,6.33E-03,1.16E-02
118892,6.33E-03,1.19E-02
118893,6.33E-03,1.22E-02
118894,6.33E-03,1.25E-02
118895,6.33E-03,1.28E-02
118896,6.33E-03,1.30E-02
118897,6.33E-03,1.33E-02
118898,6.33E-03,1.36E-02
118899,6.33E-03,1.39E-02
118900,6.33E-03,1.42E-02
118901,6.33E-03,1.45E-02
118902,6.33E-03,1.47E-02
118903,6.33E-03,1.50E-02
118904,6.33E-03,1.53E-02
118905,6.33E-03,1.56E-02
118906,6.33E-03,1.59E-02
118907,6.33E-03,1.61E-02
118908,6.33E-03,1.64E-02
118909,6.33E-03,1.67E-02
118910,6.33E-03,1.70E-02
118911,6.33E-03,1.73E-02
118912,6.33E-03,1.75E-02
118913,6.33E-03,1.78E-02
118914,6.33E-03,1.81E-02
118915,6.34E-03,1.84E-02
118916,6.34E-03,1.87E-02
118917,6.34E-03,1.89E-02
118918,6.34E-03,1.92E-02
118919,6.34E-03,1.95E-02
118920,6.34E-03,1.97E-02
118921,6.34E-03,2.00E-02
118922,6.34E-03,2.03E-02
118923,6.34E-03,2.05E-02
118924,6.34E-03,2.08E-02
118925,6.34E-03,2.11E-02
118926,6.34E-03,2.13E-02
118927,6.34E-03,2.16E-02
118928,6.34E-03,2.18E-02
118929,6.34E-03,2.21E-02
118930,6.34E-03,2.23E-02
118931,6.34E-03,2.26E-02
118932,6.34E-03,2.28E-02
118933,6.34E-03,2.31E-02
118934,6.34E-03,2.33E-02
118935,6.34E-03,2.35E-02
118936,6.34E-03,2.38E-02
118937,6.34E-03,2.40E-02
118938,6.34E-03,2.42E-02
118939,6.34E-03,2.45E-02
118940,6.34E-03,2.47E-02
118941,6.34E-03,2.49E-02
118942,6.34E-03,2.51E-02
118943,6.34E-03,2.53E-02
118944,6.34E-03,2.55E-02
118945,6.34E-03,2.58E-02
118946,6.34E-03,2.60E-02
118947,6.34E-03,2.62E-02
118948,6.34E-03,2.64E-02
118949,6.34E-03,2.65E-02
118950,6.34E-03,2.67E-02
118951,6.34E-03,2.69E-02
118952,6.34E-03,2.71E-02
118953,6.34E-03,2.73E-02
118954,6.34E-03,2.75E-02
118955,6.38E-03,9.59E-03
118956,6.38E-03,1.02E-02
118957,6.38E-03,1.07E-02
118958,6.38E-03,1.10E-02
118959,6.38E-03,1.13E-02
118960,6.38E-03,1.16E-02
118961,6.38E-03,1.19E-02
118962,6.38E-03,1.21E-02
118963,6.38E-03,1.24E-02
118964,6.38E-03,1.27E-02
118965,6.38E-03,1.30E-02
118966,6.38E-03,1.33E-02
118967,6.38E-03,1.35E-02
118968,6.38E-03,1.38E-02
118969,6.38E-03,1.41E-02
118970,6.38E-03,1.44E-02
118971,6.37E-03,1.47E-02
118972,6.37E-03,1.50E-02
118973,6.37E-03,1.52E-02
118974,6.37E-03,1.55E-02
118975,6.37E-03,1.58E-02
118976,6.37E-03,1.61E-02
118977,6.37E-03,1.64E-02
118978,6.37E-03,1.67E-02
118979,6.37E-03,1.69E-02
118980,6.37E-03,1.72E-02
118981,6.37E-03,1.75E-02
118982,6.37E-03,1.78E-02
118983,6.37E-03,1.80E-02
118984,6.37E-03,1.83E-02
118985,6.37E-03,1.86E-02
118986,6.37E-03,1.89E-02
118987,6.37E-03,1.91E-02
118988,6.37E-03,1.94E-02
118989,6.37E-03,1.97E-02
118990,6.37E-03,2.00E-02
118991,6.37E-03,2.02E-02
118992,6.37E-03,2.05E-02
118993,6.37E-03,2.07E-02
118994,6.37E-03,2.10E-02
118995,6.37E-03,2.13E-02
118996,6.37E-03,2.15E-02
118997,6.37E-03,2.18E-02
118998,6.37E-03,2.20E-02
118999,6.37E-03,2.23E-02
119000,6.37E-03,2.25E-02
119001,6.36E-03,2.28E-02
119002,6.36E-03,2.30E-02
119003,6.36E-03,2.33E-02
119004,6.36E-03,2.35E-02
119005,6.36E-03,2.37E-02
119006,6.36E-03,2.40E-02
119007,6.36E-03,2.42E-02
119008,6.36E-03,2.44E-02
119009,6.36E-03,2.46E-02
119010,6.36E-03,2.49E-02
119011,6.36E-03,2.51E-02
119012,6.36E-03,2.53E-02
119013,6.36E-03,2.55E-02
119014,6.36E-03,2.57E-02
119015,6.36E-03,2.59E-02
119016,6.36E-03,2.61E-02
119017,6.36E-03,2.63E-02
119018,6.36E-03,2.65E-02
119019,6.36E-03,2.67E-02
119020,6.36E-03,2.69E-02
119021,6.36E-03,2.71E-02
119022,6.36E-03,2.73E-02
119023,6.36E-03,2.74E-02
119024,6.42E-03,9.56E-03
119025,6.42E-03,1.01E-02
119026,6.41E-03,1.06E-02
119027,6.41E-03,1.09E-02
119028,6.41E-03,1.13E-02
119029,6.41E-03,1.15E-02
119030,6.41E-03,1.18E-02
119031,6.41E-03,1.21E-02
119032,6.41E-03,1.24E-02
119033,6.41E-03,1.27E-02
119034,6.41E-03,1.29E-02
119035,6.41E-03,1.32E-02
119036,6.41E-03,1.35E-02
119037,6.41E-03,1.38E-02
119038,6.41E-03,1.41E-02
119039,6.41E-03,1.43E-02
119040,6.41E-03,1.46E-02
119041,6.41E-03,1.49E-02
119042,6.40E-03,1.52E-02
119043,6.40E-03,1.55E-02
119044,6.40E-03,1.58E-02
119045,6.40E-03,1.60E-02
119046,6.40E-03,1.63E-02
119047,6.40E-03,1.66E-02
119048,6.40E-03,1.69E-02
119049,6.40E-03,1.72E-02
119050,6.40E-03,1.74E-02
119051,6.40E-03,1.77E-02
119052,6.40E-03,1.80E-02
119053,6.40E-03,1.83E-02
119054,6.40E-03,1.85E-02
119055,6.40E-03,1.88E-02
119056,6.40E-03,1.91E-02
119057,6.40E-03,1.94E-02
119058,6.39E-03,1.96E-02
119059,6.39E-03,1.99E-02
119060,6.39E-03,2.02E-02
119061,6.39E-03,2.04E-02
119062,6.39E-03,2.07E-02
119063,6.39E-03,2.10E-02
119064,6.39E-03,2.12E-02
119065,6.39E-03,2.15E-02
119066,6.39E-03,2.17E-02
119067,6.39E-03,2.20E-02
119068,6.39E-03,2.22E-02
119069,6.39E-03,2.25E-02
119070,6.39E-03,2.27E-02
119071,6.39E-03,2.30E-02
119072,6.39E-03,2.32E-02
119073,6.39E-03,2.35E-02
119074,6.38E-03,2.37E-02
119075,6.38E-03,2.39E-02
119076,6.38E-03,2.42E-02
119077,6.38E-03,2.44E-02
119078,6.38E-03,2.46E-02
119079,6.38E-03,2.48E-02
119080,6.38E-03,2.51E-02
119081,6.38E-03,2.53E-02
119082,6.38E-03,2.55E-02
119083,6.38E-03,2.57E-02
119084,6.38E-03,2.59E-02
119085,6.38E-03,2.61E-02
119086,6.38E-03,2.63E-02
119087,6.38E-03,2.65E-02
119088,6.38E-03,2.67E-02
119089,6.37E-03,2.69E-02
119090,6.37E-03,2.71E-02
119091,6.37E-03,2.73E-02
119092,6.37E-03,2.74E-02
119093,6.44E-03,9.64E-03
119094,6.44E-03,1.01E-02
119095,6.44E-03,1.05E-02
119096,6.44E-03,1.09E-02
119097,6.44E-03,1.12E-02
119098,6.44E-03,1.15E-02
119099,6.44E-03,1.18E-02
119100,6.44E-03,1.20E-02
119101,6.44E-03,1.23E-02
119102,6.44E-03,1.26E-02
119103,6.44E-03,1.29E-02
119104,6.44E-03,1.32E-02
119105,6.43E-03,1.34E-02
119106,6.43E-03,1.37E-02
119107,6.43E-03,1.40E-02
119108,6.43E-03,1.43E-02
119109,6.43E-03,1.46E-02
119110,6.43E-03,1.49E-02
119111,6.43E-03,1.51E-02
119112,6.43E-03,1.54E-02
119113,6.43E-03,1.57E-02
119114,6.43E-03,1.60E-02
119115,6.43E-03,1.63E-02
119116,6.43E-03,1.66E-02
119117,6.42E-03,1.68E-02
119118,6.42E-03,1.71E-02
119119,6.42E-03,1.74E-02
119120,6.42E-03,1.77E-02
119121,6.42E-03,1.80E-02
119122,6.42E-03,1.82E-02
119123,6.42E-03,1.85E-02
119124,6.42E-03,1.88E-02
119125,6.42E-03,1.90E-02
119126,6.42E-03,1.93E-02
119127,6.42E-03,1.96E-02
119128,6.41E-03,1.99E-02
119129,6.41E-03,2.01E-02
119130,6.41E-03,2.04E-02
119131,6.41E-03,2.06E-02
119132,6.41E-03,2.09E-02
119133,6.41E-03,2.12E-02
119134,6.41E-03,2.14E-02
119135,6.41E-03,2.17E-02
119136,6.41E-03,2.19E-02
119137,6.41E-03,2.22E-02
119138,6.41E-03,2.24E-02
119139,6.41E-03,2.27E-02
119140,6.40E-03,2.29E-02
119141,6.40E-03,2.32E-02
119142,6.40E-03,2.34E-02
119143,6.40E-03,2.37E-02
119144,6.40E-03,2.39E-02
119145,6.40E-03,2.41E-02
119146,6.40E-03,2.44E-02
119147,6.40E-03,2.46E-02
119148,6.40E-03,2.48E-02
119149,6.40E-03,2.50E-02
119150,6.40E-03,2.52E-02
119151,6.40E-03,2.55E-02
119152,6.39E-03,2.57E-02
119153,6.39E-03,2.59E-02
119154,6.39E-03,2.61E-02
119155,6.39E-03,2.63E-02
119156,6.39E-03,2.65E-02
119157,6.39E-03,2.67E-02
119158,6.39E-03,2.69E-02
119159,6.39E-03,2.71E-02
119160,6.39E-03,2.72E-02
119161,6.39E-03,2.74E-02
119162,6.46E-03,9.74E-03
119163,6.46E-03,1.01E-02
119164,6.46E-03,1.05E-02
119165,6.46E-03,1.08E-02
119166,6.46E-03,1.11E-02
119167,6.46E-03,1.14E-02
119168,6.46E-03,1.17E-02
119169,6.45E-03,1.20E-02
119170,6.45E-03,1.23E-02
119171,6.45E-03,1.26E-02
119172,6.45E-03,1.28E-02
119173,6.45E-03,1.31E-02
119174,6.45E-03,1.34E-02
119175,6.45E-03,1.37E-02
119176,6.45E-03,1.40E-02
119177,6.45E-03,1.43E-02
119178,6.45E-03,1.45E-02
119179,6.45E-03,1.48E-02
119180,6.44E-03,1.51E-02
119181,6.44E-03,1.54E-02
119182,6.44E-03,1.57E-02
119183,6.44E-03,1.60E-02
119184,6.44E-03,1.62E-02
119185,6.44E-03,1.65E-02
119186,6.44E-03,1.68E-02
119187,6.44E-03,1.71E-02
119188,6.44E-03,1.74E-02
119189,6.44E-03,1.76E-02
119190,6.44E-03,1.79E-02
119191,6.43E-03,1.82E-02
119192,6.43E-03,1.85E-02
119193,6.43E-03,1.87E-02
119194,6.43E-03,1.90E-02
119195,6.43E-03,1.93E-02
119196,6.43E-03,1.95E-02
119197,6.43E-03,1.98E-02
119198,6.43E-03,2.01E-02
119199,6.43E-03,2.03E-02
119200,6.43E-03,2.06E-02
119201,6.43E-03,2.09E-02
119202,6.43E-03,2.11E-02
119203,6.42E-03,2.14E-02
119204,6.42E-03,2.16E-02
119205,6.42E-03,2.19E-02
119206,6.42E-03,2.21E-02
119207,6.42E-03,2.24E-02
119208,6.42E-03,2.26E-02
119209,6.42E-03,2.29E-02
119210,6.42E-03,2.31E-02
119211,6.42E-03,2.34E-02
119212,6.42E-03,2.36E-02
119213,6.42E-03,2.39E-02
119214,6.41E-03,2.41E-02
119215,6.41E-03,2.43E-02
119216,6.41E-03,2.45E-02
119217,6.41E-03,2.48E-02
119218,6.41E-03,2.50E-02
119219,6.41E-03,2.52E-02
119220,6.41E-03,2.54E-02
119221,6.41E-03,2.56E-02
119222,6.41E-03,2.59E-02
119223,6.41E-03,2.61E-02
119224,6.41E-03,2.63E-02
119225,6.40E-03,2.65E-02
119226,6.40E-03,2.67E-02
119227,6.40E-03,2.69E-02
119228,6.40E-03,2.70E-02
119229,6.40E-03,2.72E-02
119230,6.40E-03,2.74E-02
119231,6.47E-03,9.83E-03
119232,6.47E-03,1.01E-02
119233,6.47E-03,1.04E-02
119234,6.47E-03,1.07E-02
119235,6.47E-03,1.11E-02
119236,6.47E-03,1.14E-02
119237,6.47E-03,1.17E-02
119238,6.47E-03,1.19E-02
119239,6.46E-03,1.22E-02
119240,6.46E-03,1.25E-02
119241,6.46E-03,1.28E-02
119242,6.46E-03,1.31E-02
119243,6.46E-03,1.34E-02
119244,6.46E-03,1.36E-02
119245,6.46E-03,1.39E-02
119246,6.46E-03,1.42E-02
119247,6.46E-03,1.45E-02
119248,6.46E-03,1.48E-02
119249,6.46E-03,1.51E-02
119250,6.46E-03,1.53E-02
119251,6.45E-03,1.56E-02
119252,6.45E-03,1.59E-02
119253,6.45E-03,1.62E-02
119254,6.45E-03,1.65E-02
119255,6.45E-03,1.68E-02
119256,6.45E-03,1.70E-02
119257,6.45E-03,1.73E-02
119258,6.45E-03,1.76E-02
119259,6.45E-03,1.79E-02
119260,6.45E-03,1.81E-02
119261,6.45E-03,1.84E-02
119262,6.45E-03,1.87E-02
119263,6.44E-03,1.90E-02
119264,6.44E-03,1.92E-02
119265,6.44E-03,1.95E-02
119266,6.44E-03,1.98E-02
119267,6.44E-03,2.00E-02
119268,6.44E-03,2.03E-02
119269,6.44E-03,2.06E-02
119270,6.44E-03,2.08E-02
119271,6.44E-03,2.11E-02
119272,6.44E-03,2.13E-02
119273,6.44E-03,2.16E-02
119274,6.44E-03,2.19E-02
119275,6.43E-03,2.21E-02
119276,6.43E-03,2.24E-02
119277,6.43E-03,2.26E-02
119278,6.43E-03,2.29E-02
119279,6.43E-03,2.31E-02
119280,6.43E-03,2.33E-02
119281,6.43E-03,2.36E-02
119282,6.43E-03,2.38E-02
119283,6.43E-03,2.41E-02
119284,6.43E-03,2.43E-02
119285,6.43E-03,2.45E-02
119286,6.42E-03,2.47E-02
119287,6.42E-03,2.50E-02
119288,6.42E-03,2.52E-02
119289,6.42E-03,2.54E-02
119290,6.42E-03,2.56E-02
119291,6.42E-03,2.58E-02
119292,6.42E-03,2.60E-02
119293,6.42E-03,2.62E-02
119294,6.42E-03,2.64E-02
119295,6.42E-03,2.66E-02
119296,6.42E-03,2.68E-02
119297,6.42E-03,2.70E-02
119298,6.41E-03,2.72E-02
119299,6.41E-03,2.74E-02
119300,6.48E-03,9.88E-03
119301,6.48E-03,1.01E-02
119302,6.48E-03,1.04E-02
119303,6.48E-03,1.07E-02
119304,6.48E-03,1.10E-02
119305,6.48E-03,1.13E-02
119306,6.48E-03,1.16E-02
119307,6.48E-03,1.19E-02
119308,6.48E-03,1.22E-02
119309,6.48E-03,1.25E-02
119310,6.48E-03,1.27E-02
119311,6.47E-03,1.30E-02
119312,6.47E-03,1.33E-02
119313,6.47E-03,1.36E-02
119314,6.47E-03,1.39E-02
119315,6.47E-03,1.42E-02
119316,6.47E-03,1.44E-02
119317,6.47E-03,1.47E-02
119318,6.47E-03,1.50E-02
119319,6.47E-03,1.53E-02
119320,6.47E-03,1.56E-02
119321,6.47E-03,1.59E-02
119322,6.47E-03,1.61E-02
119323,6.46E-03,1.64E-02
119324,6.46E-03,1.67E-02
119325,6.46E-03,1.70E-02
119326,6.46E-03,1.73E-02
119327,6.46E-03,1.75E-02
119328,6.46E-03,1.78E-02
119329,6.46E-03,1.81E-02
119330,6.46E-03,1.84E-02
119331,6.46E-03,1.86E-02
119332,6.46E-03,1.89E-02
119333,6.46E-03,1.92E-02
119334,6.46E-03,1.95E-02
119335,6.45E-03,1.97E-02
119336,6.45E-03,2.00E-02
119337,6.45E-03,2.03E-02
119338,6.45E-03,2.05E-02
119339,6.45E-03,2.08E-02
119340,6.45E-03,2.10E-02
119341,6.45E-03,2.13E-02
119342,6.45E-03,2.16E-02
119343,6.45E-03,2.18E-02
119344,6.45E-03,2.21E-02
119345,6.45E-03,2.23E-02
119346,6.45E-03,2.26E-02
119347,6.44E-03,2.28E-02
119348,6.44E-03,2.31E-02
119349,6.44E-03,2.33E-02
119350,6.44E-03,2.35E-02
119351,6.44E-03,2.38E-02
119352,6.44E-03,2.40E-02
119353,6.44E-03,2.43E-02
119354,6.44E-03,2.45E-02
119355,6.44E-03,2.47E-02
119356,6.44E-03,2.49E-02
119357,6.44E-03,2.52E-02
119358,6.44E-03,2.54E-02
119359,6.43E-03,2.56E-02
119360,6.43E-03,2.58E-02
119361,6.43E-03,2.60E-02
119362,6.43E-03,2.62E-02
119363,6.43E-03,2.64E-02
119364,6.43E-03,2.66E-02
119365,6.43E-03,2.68E-02
119366,6.43E-03,2.70E-02
119367,6.43E-03,2.72E-02
119368,6.43E-03,2.74E-02
119369,6.49E-03,9.92E-03
119370,6.49E-03,1.01E-02
119371,6.49E-03,1.04E-02
119372,6.49E-03,1.06E-02
119373,6.49E-03,1.09E-02
119374,6.49E-03,1.12E-02
119375,6.49E-03,1.15E-02
119376,6.49E-03,1.18E-02
119377,6.49E-03,1.21E-02
119378,6.49E-03,1.24E-02
119379,6.49E-03,1.27E-02
119380,6.49E-03,1.30E-02
119381,6.49E-03,1.33E-02
119382,6.48E-03,1.35E-02
119383,6.48E-03,1.38E-02
119384,6.48E-03,1.41E-02
119385,6.48E-03,1.44E-02
119386,6.48E-03,1.47E-02
119387,6.48E-03,1.50E-02
119388,6.48E-03,1.53E-02
119389,6.48E-03,1.55E-02
119390,6.48E-03,1.58E-02
119391,6.48E-03,1.61E-02
119392,6.48E-03,1.64E-02
119393,6.48E-03,1.67E-02
119394,6.47E-03,1.69E-02
119395,6.47E-03,1.72E-02
119396,6.47E-03,1.75E-02
119397,6.47E-03,1.78E-02
119398,6.47E-03,1.81E-02
119399,6.47E-03,1.83E-02
119400,6.47E-03,1.86E-02
119401,6.47E-03,1.89E-02
119402,6.47E-03,1.91E-02
119403,6.47E-03,1.94E-02
119404,6.47E-03,1.97E-02
119405,6.47E-03,1.99E-02
119406,6.47E-03,2.02E-02
119407,6.46E-03,2.05E-02
119408,6.46E-03,2.07E-02
119409,6.46E-03,2.10E-02
119410,6.46E-03,2.13E-02
119411,6.46E-03,2.15E-02
119412,6.46E-03,2.18E-02
119413,6.46E-03,2.20E-02
119414,6.46E-03,2.23E-02
119415,6.46E-03,2.25E-02
119416,6.46E-03,2.28E-02
119417,6.46E-03,2.30E-02
119418,6.46E-03,2.33E-02
119419,6.46E-03,2.35E-02
119420,6.45E-03,2.37E-02
119421,6.45E-03,2.40E-02
119422,6.45E-03,2.42E-02
119423,6.45E-03,2.45E-02
119424,6.45E-03,2.47E-02
119425,6.45E-03,2.49E-02
119426,6.45E-03,2.51E-02
119427,6.45E-03,2.54E-02
119428,6.45E-03,2.56E-02
119429,6.45E-03,2.58E-02
119430,6.45E-03,2.60E-02
119431,6.45E-03,2.62E-02
119432,6.44E-03,2.64E-02
119433,6.44E-03,2.66E-02
119434,6.44E-03,2.68E-02
119435,6.44E-03,2.70E-02
119436,6.44E-03,2.72E-02
119437,6.44E-03,2.74E-02
119438,6.50E-03,9.94E-03
119439,6.50E-03,1.01E-02
119440,6.50E-03,1.03E-02
119441,6.50E-03,1.06E-02
119442,6.50E-03,1.09E-02
119443,6.50E-03,1.12E-02
119444,6.50E-03,1.15E-02
119445,6.50E-03,1.18E-02
119446,6.50E-03,1.21E-02
119447,6.50E-03,1.23E-02
119448,6.50E-03,1.26E-02
119449,6.50E-03,1.29E-02
119450,6.49E-03,1.32E-02
119451,6.49E-03,1.35E-02
119452,6.49E-03,1.38E-02
119453,6.49E-03,1.41E-02
119454,6.49E-03,1.44E-02
119455,6.49E-03,1.46E-02
119456,6.49E-03,1.49E-02
119457,6.49E-03,1.52E-02
119458,6.49E-03,1.55E-02
119459,6.49E-03,1.58E-02
119460,6.49E-03,1.61E-02
119461,6.49E-03,1.63E-02
119462,6.49E-03,1.66E-02
119463,6.49E-03,1.69E-02
119464,6.48E-03,1.72E-02
119465,6.48E-03,1.75E-02
119466,6.48E-03,1.77E-02
119467,6.48E-03,1.80E-02
119468,6.48E-03,1.83E-02
119469,6.48E-03,1.86E-02
119470,6.48E-03,1.88E-02
119471,6.48E-03,1.91E-02
119472,6.48E-03,1.94E-02
119473,6.48E-03,1.96E-02
119474,6.48E-03,1.99E-02
119475,6.48E-03,2.02E-02
119476,6.48E-03,2.04E-02
119477,6.48E-03,2.07E-02
119478,6.47E-03,2.10E-02
119479,6.47E-03,2.12E-02
119480,6.47E-03,2.15E-02
119481,6.47E-03,2.17E-02
119482,6.47E-03,2.20E-02
119483,6.47E-03,2.22E-02
119484,6.47E-03,2.25E-02
119485,6.47E-03,2.27E-02
119486,6.47E-03,2.30E-02
119487,6.47E-03,2.32E-02
119488,6.47E-03,2.35E-02
119489,6.47E-03,2.37E-02
119490,6.47E-03,2.40E-02
119491,6.47E-03,2.42E-02
119492,6.46E-03,2.44E-02
119493,6.46E-03,2.47E-02
119494,6.46E-03,2.49E-02
119495,6.46E-03,2.51E-02
119496,6.46E-03,2.53E-02
119497,6.46E-03,2.56E-02
119498,6.46E-03,2.58E-02
119499,6.46E-03,2.60E-02
119500,6.46E-03,2.62E-02
119501,6.46E-03,2.64E-02
119502,6.46E-03,2.66E-02
119503,6.46E-03,2.68E-02
119504,6.46E-03,2.70E-02
119505,6.46E-03,2.72E-02
119506,6.45E-03,2.74E-02
119507,6.50E-03,9.88E-03
119508,6.50E-03,1.01E-02
119509,6.50E-03,1.03E-02
119510,6.50E-03,1.05E-02
119511,6.50E-03,1.08E-02
119512,6.50E-03,1.11E-02
119513,6.50E-03,1.14E-02
119514,6.50E-03,1.17E-02
119515,6.50E-03,1.20E-02
119516,6.50E-03,1.23E-02
119517,6.50E-03,1.26E-02
119518,6.50E-03,1.29E-02
119519,6.50E-03,1.32E-02
119520,6.50E-03,1.34E-02
119521,6.50E-03,1.37E-02
119522,6.50E-03,1.40E-02
119523,6.49E-03,1.43E-02
119524,6.49E-03,1.46E-02
119525,6.49E-03,1.49E-02
119526,6.49E-03,1.52E-02
119527,6.49E-03,1.54E-02
119528,6.49E-03,1.57E-02
119529,6.49E-03,1.60E-02
119530,6.49E-03,1.63E-02
119531,6.49E-03,1.66E-02
119532,6.49E-03,1.69E-02
119533,6.49E-03,1.71E-02
119534,6.49E-03,1.74E-02
119535,6.49E-03,1.77E-02
119536,6.49E-03,1.80E-02
119537,6.49E-03,1.82E-02
119538,6.49E-03,1.85E-02
119539,6.49E-03,1.88E-02
119540,6.49E-03,1.91E-02
119541,6.49E-03,1.93E-02
119542,6.49E-03,1.96E-02
119543,6.49E-03,1.99E-02
119544,6.48E-03,2.01E-02
119545,6.48E-03,2.04E-02
119546,6.48E-03,2.06E-02
119547,6.48E-03,2.09E-02
119548,6.48E-03,2.12E-02
119549,6.48E-03,2.14E-02
119550,6.48E-03,2.17E-02
119551,6.48E-03,2.19E-02
119552,6.48E-03,2.22E-02
119553,6.48E-03,2.24E-02
119554,6.48E-03,2.27E-02
119555,6.48E-03,2.29E-02
119556,6.48E-03,2.32E-02
119557,6.48E-03,2.34E-02
119558,6.48E-03,2.37E-02
119559,6.48E-03,2.39E-02
119560,6.48E-03,2.42E-02
119561,6.48E-03,2.44E-02
119562,6.48E-03,2.46E-02
119563,6.48E-03,2.49E-02
119564,6.48E-03,2.51E-02
119565,6.47E-03,2.53E-02
119566,6.47E-03,2.55E-02
119567,6.47E-03,2.58E-02
119568,6.47E-03,2.60E-02
119569,6.47E-03,2.62E-02
119570,6.47E-03,2.64E-02
119571,6.47E-03,2.66E-02
119572,6.47E-03,2.68E-02
119573,6.47E-03,2.70E-02
119574,6.47E-03,2.72E-02
119575,6.47E-03,2.74E-02
119576,6.53E-03,9.76E-03
119577,6.53E-03,1.00E-02
119578,6.53E-03,1.02E-02
119579,6.52E-03,1.05E-02
119580,6.52E-03,1.08E-02
119581,6.52E-03,1.11E-02
119582,6.52E-03,1.14E-02
119583,6.52E-03,1.17E-02
119584,6.52E-03,1.20E-02
119585,6.52E-03,1.23E-02
119586,6.52E-03,1.25E-02
119587,6.52E-03,1.28E-02
119588,6.52E-03,1.31E-02
119589,6.52E-03,1.34E-02
119590,6.52E-03,1.37E-02
119591,6.52E-03,1.40E-02
119592,6.52E-03,1.43E-02
119593,6.51E-03,1.46E-02
119594,6.51E-03,1.49E-02
119595,6.51E-03,1.51E-02
119596,6.51E-03,1.54E-02
119597,6.51E-03,1.57E-02
119598,6.51E-03,1.60E-02
119599,6.51E-03,1.63E-02
119600,6.51E-03,1.65E-02
119601,6.51E-03,1.68E-02
119602,6.51E-03,1.71E-02
119603,6.51E-03,1.74E-02
119604,6.51E-03,1.77E-02
119605,6.51E-03,1.79E-02
119606,6.51E-03,1.82E-02
119607,6.50E-03,1.85E-02
119608,6.50E-03,1.87E-02
119609,6.50E-03,1.90E-02
119610,6.50E-03,1.93E-02
119611,6.50E-03,1.96E-02
119612,6.50E-03,1.98E-02
119613,6.50E-03,2.01E-02
119614,6.50E-03,2.04E-02
119615,6.50E-03,2.06E-02
119616,6.50E-03,2.09E-02
119617,6.50E-03,2.11E-02
119618,6.50E-03,2.14E-02
119619,6.50E-03,2.17E-02
119620,6.50E-03,2.19E-02
119621,6.49E-03,2.22E-02
119622,6.49E-03,2.24E-02
119623,6.49E-03,2.27E-02
119624,6.49E-03,2.29E-02
119625,6.49E-03,2.32E-02
119626,6.49E-03,2.34E-02
119627,6.49E-03,2.37E-02
119628,6.49E-03,2.39E-02
119629,6.49E-03,2.41E-02
119630,6.49E-03,2.44E-02
119631,6.49E-03,2.46E-02
119632,6.49E-03,2.48E-02
119633,6.49E-03,2.51E-02
119634,6.48E-03,2.53E-02
119635,6.48E-03,2.55E-02
119636,6.48E-03,2.57E-02
119637,6.48E-03,2.60E-02
119638,6.48E-03,2.62E-02
119639,6.48E-03,2.64E-02
119640,6.48E-03,2.66E-02
119641,6.48E-03,2.68E-02
119642,6.48E-03,2.70E-02
119643,6.48E-03,2.72E-02
119644,6.48E-03,2.74E-02
119645,6.53E-03,9.93E-03
119646,6.53E-03,1.02E-02
119647,6.52E-03,1.05E-02
119648,6.52E-03,1.08E-02
119649,6.52E-03,1.11E-02
119650,6.52E-03,1.14E-02
119651,6.52E-03,1.16E-02
119652,6.52E-03,1.19E-02
119653,6.52E-03,1.22E-02
119654,6.52E-03,1.25E-02
119655,6.52E-03,1.28E-02
119656,6.52E-03,1.31E-02
119657,6.52E-03,1.34E-02
119658,6.52E-03,1.37E-02
119659,6.52E-03,1.40E-02
119660,6.52E-03,1.43E-02
119661,6.51E-03,1.46E-02
119662,6.51E-03,1.48E-02
119663,6.51E-03,1.51E-02
119664,6.51E-03,1.54E-02
119665,6.51E-03,1.57E-02
119666,6.51E-03,1.60E-02
119667,6.51E-03,1.62E-02
119668,6.51E-03,1.65E-02
119669,6.51E-03,1.68E-02
119670,6.51E-03,1.71E-02
119671,6.51E-03,1.74E-02
119672,6.51E-03,1.76E-02
119673,6.51E-03,1.79E-02
119674,6.51E-03,1.82E-02
119675,6.50E-03,1.85E-02
119676,6.50E-03,1.87E-02
119677,6.50E-03,1.90E-02
119678,6.50E-03,1.93E-02
119679,6.50E-03,1.95E-02
119680,6.50E-03,1.98E-02
119681,6.50E-03,2.01E-02
119682,6.50E-03,2.03E-02
119683,6.50E-03,2.06E-02
119684,6.50E-03,2.09E-02
119685,6.50E-03,2.11E-02
119686,6.50E-03,2.14E-02
119687,6.50E-03,2.16E-02
119688,6.50E-03,2.19E-02
119689,6.49E-03,2.21E-02
119690,6.49E-03,2.24E-02
119691,6.49E-03,2.26E-02
119692,6.49E-03,2.29E-02
119693,6.49E-03,2.31E-02
119694,6.49E-03,2.34E-02
119695,6.49E-03,2.36E-02
119696,6.49E-03,2.39E-02
119697,6.49E-03,2.41E-02
119698,6.49E-03,2.43E-02
119699,6.49E-03,2.46E-02
119700,6.49E-03,2.48E-02
119701,6.49E-03,2.50E-02
119702,6.48E-03,2.53E-02
119703,6.48E-03,2.55E-02
119704,6.48E-03,2.57E-02
119705,6.48E-03,2.59E-02
119706,6.48E-03,2.62E-02
119707,6.48E-03,2.64E-02
119708,6.48E-03,2.66E-02
119709,6.48E-03,2.68E-02
119710,6.48E-03,2.70E-02
119711,6.48E-03,2.72E-02
119712,6.48E-03,2.74E-02
119713,6.53E-03,9.68E-03
119714,6.53E-03,9.96E-03
119715,6.53E-03,1.02E-02
119716,6.52E-03,1.05E-02
119717,6.52E-03,1.08E-02
119718,6.52E-03,1.11E-02
119719,6.52E-03,1.13E-02
119720,6.52E-03,1.16E-02
119721,6.52E-03,1.19E-02
119722,6.52E-03,1.22E-02
119723,6.52E-03,1.25E-02
119724,6.52E-03,1.28E-02
119725,6.52E-03,1.31E-02
119726,6.52E-03,1.34E-02
119727,6.52E-03,1.37E-02
119728,6.52E-03,1.40E-02
119729,6.52E-03,1.43E-02
119730,6.51E-03,1.45E-02
119731,6.51E-03,1.48E-02
119732,6.51E-03,1.51E-02
119733,6.51E-03,1.54E-02
119734,6.51E-03,1.57E-02
119735,6.51E-03,1.60E-02
119736,6.51E-03,1.62E-02
119737,6.51E-03,1.65E-02
119738,6.51E-03,1.68E-02
119739,6.51E-03,1.71E-02
119740,6.51E-03,1.73E-02
119741,6.51E-03,1.76E-02
119742,6.51E-03,1.79E-02
119743,6.51E-03,1.82E-02
119744,6.50E-03,1.84E-02
119745,6.50E-03,1.87E-02
119746,6.50E-03,1.90E-02
119747,6.50E-03,1.92E-02
119748,6.50E-03,1.95E-02
119749,6.50E-03,1.98E-02
119750,6.50E-03,2.00E-02
119751,6.50E-03,2.03E-02
119752,6.50E-03,2.06E-02
119753,6.50E-03,2.08E-02
119754,6.50E-03,2.11E-02
119755,6.50E-03,2.13E-02
119756,6.50E-03,2.16E-02
119757,6.50E-03,2.19E-02
119758,6.49E-03,2.21E-02
119759,6.49E-03,2.24E-02
119760,6.49E-03,2.26E-02
119761,6.49E-03,2.29E-02
119762,6.49E-03,2.31E-02
119763,6.49E-03,2.34E-02
119764,6.49E-03,2.36E-02
119765,6.49E-03,2.38E-02
119766,6.49E-03,2.41E-02
119767,6.49E-03,2.43E-02
119768,6.49E-03,2.46E-02
119769,6.49E-03,2.48E-02
119770,6.49E-03,2.50E-02
119771,6.48E-03,2.53E-02
119772,6.48E-03,2.55E-02
119773,6.48E-03,2.57E-02
119774,6.48E-03,2.59E-02
119775,6.48E-03,2.62E-02
119776,6.48E-03,2.64E-02
119777,6.48E-03,2.66E-02
119778,6.48E-03,2.68E-02
119779,6.48E-03,2.70E-02
119780,6.48E-03,2.72E-02
119781,6.48E-03,2.74E-02
119782,6.53E-03,9.63E-03
119783,6.53E-03,9.92E-03
119784,6.53E-03,1.02E-02
119785,6.52E-03,1.05E-02
119786,6.52E-03,1.08E-02
119787,6.52E-03,1.10E-02
119788,6.52E-03,1.13E-02
119789,6.52E-03,1.16E-02
119790,6.52E-03,1.19E-02
119791,6.52E-03,1.22E-02
119792,6.52E-03,1.25E-02
119793,6.52E-03,1.28E-02
119794,6.52E-03,1.31E-02
119795,6.52E-03,1.34E-02
119796,6.52E-03,1.37E-02
119797,6.52E-03,1.40E-02
119798,6.52E-03,1.42E-02
119799,6.51E-03,1.45E-02
119800,6.51E-03,1.48E-02
119801,6.51E-03,1.51E-02
119802,6.51E-03,1.54E-02
119803,6.51E-03,1.57E-02
119804,6.51E-03,1.59E-02
119805,6.51E-03,1.62E-02
119806,6.51E-03,1.65E-02
119807,6.51E-03,1.68E-02
119808,6.51E-03,1.70E-02
119809,6.51E-03,1.73E-02
119810,6.51E-03,1.76E-02
119811,6.51E-03,1.79E-02
119812,6.51E-03,1.81E-02
119813,6.50E-03,1.84E-02
119814,6.50E-03,1.87E-02
119815,6.50E-03,1.89E-02
119816,6.50E-03,1.92E-02
119817,6.50E-03,1.95E-02
119818,6.50E-03,1.97E-02
119819,6.50E-03,2.00E-02
119820,6.50E-03,2.03E-02
119821,6.50E-03,2.05E-02
119822,6.50E-03,2.08E-02
119823,6.50E-03,2.11E-02
119824,6.50E-03,2.13E-02
119825,6.50E-03,2.16E-02
119826,6.50E-03,2.18E-02
119827,6.49E-03,2.21E-02
119828,6.49E-03,2.23E-02
119829,6.49E-03,2.26E-02
119830,6.49E-03,2.28E-02
119831,6.49E-03,2.31E-02
119832,6.49E-03,2.33E-02
119833,6.49E-03,2.36E-02
119834,6.49E-03,2.38E-02
119835,6.49E-03,2.41E-02
119836,6.49E-03,2.43E-02
119837,6.49E-03,2.45E-02
119838,6.49E-03,2.48E-02
119839,6.49E-03,2.50E-02
119840,6.48E-03,2.52E-02
119841,6.48E-03,2.55E-02
119842,6.48E-03,2.57E-02
119843,6.48E-03,2.59E-02
119844,6.48E-03,2.61E-02
119845,6.48E-03,2.64E-02
119846,6.48E-03,2.66E-02
119847,6.48E-03,2.68E-02
119848,6.48E-03,2.70E-02
119849,6.48E-03,2.72E-02
119850,6.48E-03,2.74E-02
119851,6.53E-03,9.83E-03
119852,6.53E-03,1.02E-02
119853,6.52E-03,1.05E-02
119854,6.52E-03,1.08E-02
119855,6.52E-03,1.10E-02
119856,6.52E-03,1.13E-02
119857,6.52E-03,1.16E-02
119858,6.52E-03,1.19E-02
119859,6.52E-03,1.22E-02
119860,6.52E-03,1.25E-02
119861,6.52E-03,1.28E-02
119862,6.52E-03,1.31E-02
119863,6.52E-03,1.34E-02
119864,6.52E-03,1.37E-02
119865,6.52E-03,1.39E-02
119866,6.52E-03,1.42E-02
119867,6.51E-03,1.45E-02
119868,6.51E-03,1.48E-02
119869,6.51E-03,1.51E-02
119870,6.51E-03,1.54E-02
119871,6.51E-03,1.56E-02
119872,6.51E-03,1.59E-02
119873,6.51E-03,1.62E-02
119874,6.51E-03,1.65E-02
119875,6.51E-03,1.68E-02
119876,6.51E-03,1.70E-02
119877,6.51E-03,1.73E-02
119878,6.51E-03,1.76E-02
119879,6.51E-03,1.78E-02
119880,6.51E-03,1.81E-02
119881,6.50E-03,1.84E-02
119882,6.50E-03,1.87E-02
119883,6.50E-03,1.89E-02
119884,6.50E-03,1.92E-02
119885,6.50E-03,1.95E-02
119886,6.50E-03,1.97E-02
119887,6.50E-03,2.00E-02
119888,6.50E-03,2.03E-02
119889,6.50E-03,2.05E-02
119890,6.50E-03,2.08E-02
119891,6.50E-03,2.10E-02
119892,6.50E-03,2.13E-02
119893,6.50E-03,2.15E-02
119894,6.50E-03,2.18E-02
119895,6.49E-03,2.21E-02
119896,6.49E-03,2.23E-02
119897,6.49E-03,2.26E-02
119898,6.49E-03,2.28E-02
119899,6.49E-03,2.31E-02
119900,6.49E-03,2.33E-02
119901,6.49E-03,2.36E-02
119902,6.49E-03,2.38E-02
119903,6.49E-03,2.40E-02
119904,6.49E-03,2.43E-02
119905,6.49E-03,2.45E-02
119906,6.49E-03,2.48E-02
119907,6.49E-03,2.50E-02
119908,6.48E-03,2.52E-02
119909,6.48E-03,2.55E-02
119910,6.48E-03,2.57E-02
119911,6.48E-03,2.59E-02
119912,6.48E-03,2.61E-02
119913,6.48E-03,2.64E-02
119914,6.48E-03,2.66E-02
119915,6.48E-03,2.68E-02
119916,6.48E-03,2.70E-02
119917,6.48E-03,2.72E-02
119918,6.48E-03,2.74E-02
119919,6.53E-03,9.59E-03
119920,6.53E-03,9.89E-03
119921,6.53E-03,1.02E-02
119922,6.52E-03,1.05E-02
119923,6.52E-03,1.07E-02
119924,6.52E-03,1.10E-02
119925,6.52E-03,1.13E-02
119926,6.52E-03,1.16E-02
119927,6.52E-03,1.19E-02
119928,6.52E-03,1.22E-02
119929,6.52E-03,1.25E-02
119930,6.52E-03,1.28E-02
119931,6.52E-03,1.31E-02
119932,6.52E-03,1.34E-02
119933,6.52E-03,1.36E-02
119934,6.52E-03,1.39E-02
119935,6.52E-03,1.42E-02
119936,6.51E-03,1.45E-02
119937,6.51E-03,1.48E-02
119938,6.51E-03,1.51E-02
119939,6.51E-03,1.54E-02
119940,6.51E-03,1.56E-02
119941,6.51E-03,1.59E-02
119942,6.51E-03,1.62E-02
119943,6.51E-03,1.65E-02
119944,6.51E-03,1.67E-02
119945,6.51E-03,1.70E-02
119946,6.51E-03,1.73E-02
119947,6.51E-03,1.76E-02
119948,6.51E-03,1.78E-02
119949,6.51E-03,1.81E-02
119950,6.50E-03,1.84E-02
119951,6.50E-03,1.86E-02
119952,6.50E-03,1.89E-02
119953,6.50E-03,1.92E-02
119954,6.50E-03,1.94E-02
119955,6.50E-03,1.97E-02
119956,6.50E-03,2.00E-02
119957,6.50E-03,2.02E-02
119958,6.50E-03,2.05E-02
119959,6.50E-03,2.07E-02
119960,6.50E-03,2.10E-02
119961,6.50E-03,2.13E-02
119962,6.50E-03,2.15E-02
119963,6.50E-03,2.18E-02
119964,6.49E-03,2.20E-02
119965,6.49E-03,2.23E-02
119966,6.49E-03,2.25E-02
119967,6.49E-03,2.28E-02
119968,6.49E-03,2.30E-02
119969,6.49E-03,2.33E-02
119970,6.49E-03,2.35E-02
119971,6.49E-03,2.38E-02
119972,6.49E-03,2.40E-02
119973,6.49E-03,2.43E-02
119974,6.49E-03,2.45E-02
119975,6.49E-03,2.47E-02
119976,6.49E-03,2.50E-02
119977,6.48E-03,2.52E-02
119978,6.48E-03,2.55E-02
119979,6.48E-03,2.57E-02
119980,6.48E-03,2.59E-02
119981,6.48E-03,2.61E-02
119982,6.48E-03,2.64E-02
119983,6.48E-03,2.66E-02
119984,6.48E-03,2.68E-02
119985,6.48E-03,2.70E-02
119986,6.48E-03,2.72E-02
119987,6.48E-03,2.74E-02
119988,6.53E-03,9.53E-03
119989,6.53E-03,9.87E-03
119990,6.53E-03,1.02E-02
119991,6.52E-03,1.04E-02
119992,6.52E-03,1.07E-02
119993,6.52E-03,1.10E-02
119994,6.52E-03,1.13E-02
119995,6.52E-03,1.16E-02
119996,6.52E-03,1.19E-02
119997,6.52E-03,1.22E-02
119998,6.52E-03,1.25E-02
119999,6.52E-03,1.28E-02
120000,6.52E-03,1.31E-02
120001,6.52E-03,1.34E-02
120002,6.52E-03,1.36E-02
120003,6.52E-03,1.39E-02
120004,6.52E-03,1.42E-02
120005,6.51E-03,1.45E-02
120006,6.51E-03,1.48E-02
120007,6.51E-03,1.51E-02
120008,6.51E-03,1.53E-02
120009,6.51E-03,1.56E-02
120010,6.51E-03,1.59E-02
120011,6.51E-03,1.62E-02
120012,6.51E-03,1.64E-02
120013,6.51E-03,1.67E-02
120014,6.51E-03,1.70E-02
120015,6.51E-03,1.73E-02
120016,6.51E-03,1.75E-02
120017,6.51E-03,1.78E-02
120018,6.51E-03,1.81E-02
120019,6.50E-03,1.83E-02
120020,6.50E-03,1.86E-02
120021,6.50E-03,1.89E-02
120022,6.50E-03,1.91E-02
120023,6.50E-03,1.94E-02
120024,6.50E-03,1.97E-02
120025,6.50E-03,1.99E-02
120026,6.50E-03,2.02E-02
120027,6.50E-03,2.05E-02
120028,6.50E-03,2.07E-02
120029,6.50E-03,2.10E-02
120030,6.50E-03,2.12E-02
120031,6.50E-03,2.15E-02
120032,6.50E-03,2.18E-02
120033,6.49E-03,2.20E-02
120034,6.49E-03,2.23E-02
120035,6.49E-03,2.25E-02
120036,6.49E-03,2.28E-02
120037,6.49E-03,2.30E-02
120038,6.49E-03,2.33E-02
120039,6.49E-03,2.35E-02
120040,6.49E-03,2.38E-02
120041,6.49E-03,2.40E-02
120042,6.49E-03,2.42E-02
120043,6.49E-03,2.45E-02
120044,6.49E-03,2.47E-02
120045,6.49E-03,2.50E-02
120046,6.48E-03,2.52E-02
120047,6.48E-03,2.54E-02
120048,6.48E-03,2.57E-02
120049,6.48E-03,2.59E-02
120050,6.48E-03,2.61E-02
120051,6.48E-03,2.64E-02
120052,6.48E-03,2.66E-02
120053,6.48E-03,2.68E-02
120054,6.48E-03,2.70E-02
120055,6.48E-03,2.72E-02
120056,6.48E-03,2.74E-02
120057,6.53E-03,9.52E-03
120058,6.53E-03,9.84E-03
120059,6.53E-03,1.01E-02
120060,6.52E-03,1.04E-02
120061,6.52E-03,1.07E-02
120062,6.52E-03,1.10E-02
120063,6.52E-03,1.13E-02
120064,6.52E-03,1.16E-02
120065,6.52E-03,1.19E-02
120066,6.52E-03,1.22E-02
120067,6.52E-03,1.25E-02
120068,6.52E-03,1.28E-02
120069,6.52E-03,1.31E-02
120070,6.52E-03,1.33E-02
120071,6.52E-03,1.36E-02
120072,6.52E-03,1.39E-02
120073,6.52E-03,1.42E-02
120074,6.51E-03,1.45E-02
120075,6.51E-03,1.48E-02
120076,6.51E-03,1.50E-02
120077,6.51E-03,1.53E-02
120078,6.51E-03,1.56E-02
120079,6.51E-03,1.59E-02
120080,6.51E-03,1.62E-02
120081,6.51E-03,1.64E-02
120082,6.51E-03,1.67E-02
120083,6.51E-03,1.70E-02
120084,6.51E-03,1.73E-02
120085,6.51E-03,1.75E-02
120086,6.51E-03,1.78E-02
120087,6.51E-03,1.81E-02
120088,6.50E-03,1.83E-02
120089,6.50E-03,1.86E-02
120090,6.50E-03,1.89E-02
120091,6.50E-03,1.91E-02
120092,6.50E-03,1.94E-02
120093,6.50E-03,1.97E-02
120094,6.50E-03,1.99E-02
120095,6.50E-03,2.02E-02
120096,6.50E-03,2.04E-02
120097,6.50E-03,2.07E-02
120098,6.50E-03,2.10E-02
120099,6.50E-03,2.12E-02
120100,6.50E-03,2.15E-02
120101,6.50E-03,2.17E-02
120102,6.49E-03,2.20E-02
120103,6.49E-03,2.22E-02
120104,6.49E-03,2.25E-02
120105,6.49E-03,2.27E-02
120106,6.49E-03,2.30E-02
120107,6.49E-03,2.32E-02
120108,6.49E-03,2.35E-02
120109,6.49E-03,2.37E-02
120110,6.49E-03,2.40E-02
120111,6.49E-03,2.42E-02
120112,6.49E-03,2.45E-02
120113,6.49E-03,2.47E-02
120114,6.49E-03,2.50E-02
120115,6.48E-03,2.52E-02
120116,6.48E-03,2.54E-02
120117,6.48E-03,2.57E-02
120118,6.48E-03,2.59E-02
120119,6.48E-03,2.61E-02
120120,6.48E-03,2.63E-02
120121,6.48E-03,2.66E-02
120122,6.48E-03,2.68E-02
120123,6.48E-03,2.70E-02
120124,6.48E-03,2.72E-02
120125,6.48E-03,2.74E-02
120126,6.53E-03,9.52E-03
120127,6.53E-03,9.83E-03
120128,6.53E-03,1.01E-02
120129,6.52E-03,1.04E-02
120130,6.52E-03,1.07E-02
120131,6.52E-03,1.10E-02
120132,6.52E-03,1.13E-02
120133,6.52E-03,1.16E-02
120134,6.52E-03,1.19E-02
120135,6.52E-03,1.22E-02
120136,6.52E-03,1.25E-02
120137,6.52E-03,1.28E-02
120138,6.52E-03,1.30E-02
120139,6.52E-03,1.33E-02
120140,6.52E-03,1.36E-02
120141,6.52E-03,1.39E-02
120142,6.52E-03,1.42E-02
120143,6.51E-03,1.45E-02
120144,6.51E-03,1.48E-02
120145,6.51E-03,1.50E-02
120146,6.51E-03,1.53E-02
120147,6.51E-03,1.56E-02
120148,6.51E-03,1.59E-02
120149,6.51E-03,1.61E-02
120150,6.51E-03,1.64E-02
120151,6.51E-03,1.67E-02
120152,6.51E-03,1.70E-02
120153,6.51E-03,1.72E-02
120154,6.51E-03,1.75E-02
120155,6.51E-03,1.78E-02
120156,6.51E-03,1.80E-02
120157,6.50E-03,1.83E-02
120158,6.50E-03,1.86E-02
120159,6.50E-03,1.88E-02
120160,6.50E-03,1.91E-02
120161,6.50E-03,1.94E-02
120162,6.50E-03,1.96E-02
120163,6.50E-03,1.99E-02
120164,6.50E-03,2.02E-02
120165,6.50E-03,2.04E-02
120166,6.50E-03,2.07E-02
120167,6.50E-03,2.09E-02
120168,6.50E-03,2.12E-02
120169,6.50E-03,2.14E-02
120170,6.50E-03,2.17E-02
120171,6.49E-03,2.20E-02
120172,6.49E-03,2.22E-02
120173,6.49E-03,2.25E-02
120174,6.49E-03,2.27E-02
120175,6.49E-03,2.30E-02
120176,6.49E-03,2.32E-02
120177,6.49E-03,2.35E-02
120178,6.49E-03,2.37E-02
120179,6.49E-03,2.40E-02
120180,6.49E-03,2.42E-02
120181,6.49E-03,2.45E-02
120182,6.49E-03,2.47E-02
120183,6.49E-03,2.49E-02
120184,6.48E-03,2.52E-02
120185,6.48E-03,2.54E-02
120186,6.48E-03,2.57E-02
120187,6.48E-03,2.59E-02
120188,6.48E-03,2.61E-02
120189,6.48E-03,2.63E-02
120190,6.48E-03,2.66E-02
120191,6.48E-03,2.68E-02
120192,6.48E-03,2.70E-02
120193,6.48E-03,2.72E-02
120194,6.48E-03,2.74E-02
120195,6.53E-03,9.51E-03
120196,6.53E-03,9.82E-03
120197,6.53E-03,1.01E-02
120198,6.52E-03,1.04E-02
120199,6.52E-03,1.07E-02
120200,6.52E-03,1.10E-02
120201,6.52E-03,1.13E-02
120202,6.52E-03,1.16E-02
120203,6.52E-03,1.19E-02
120204,6.52E-03,1.22E-02
120205,6.52E-03,1.25E-02
120206,6.52E-03,1.28E-02
120207,6.52E-03,1.30E-02
120208,6.52E-03,1.33E-02
120209,6.52E-03,1.36E-02
120210,6.52E-03,1.39E-02
120211,6.52E-03,1.42E-02
120212,6.51E-03,1.45E-02
120213,6.51E-03,1.47E-02
120214,6.51E-03,1.50E-02
120215,6.51E-03,1.53E-02
120216,6.51E-03,1.56E-02
120217,6.51E-03,1.59E-02
120218,6.51E-03,1.61E-02
120219,6.51E-03,1.64E-02
120220,6.51E-03,1.67E-02
120221,6.51E-03,1.69E-02
120222,6.51E-03,1.72E-02
120223,6.51E-03,1.75E-02
120224,6.51E-03,1.78E-02
120225,6.51E-03,1.80E-02
120226,6.50E-03,1.83E-02
120227,6.50E-03,1.86E-02
120228,6.50E-03,1.88E-02
120229,6.50E-03,1.91E-02
120230,6.50E-03,1.93E-02
120231,6.50E-03,1.96E-02
120232,6.50E-03,1.99E-02
120233,6.50E-03,2.01E-02
120234,6.50E-03,2.04E-02
120235,6.50E-03,2.06E-02
120236,6.50E-03,2.09E-02
120237,6.50E-03,2.12E-02
120238,6.50E-03,2.14E-02
120239,6.50E-03,2.17E-02
120240,6.49E-03,2.19E-02
120241,6.49E-03,2.22E-02
120242,6.49E-03,2.24E-02
120243,6.49E-03,2.27E-02
120244,6.49E-03,2.29E-02
120245,6.49E-03,2.32E-02
120246,6.49E-03,2.34E-02
120247,6.49E-03,2.37E-02
120248,6.49E-03,2.39E-02
120249,6.49E-03,2.42E-02
120250,6.49E-03,2.44E-02
120251,6.49E-03,2.47E-02
120252,6.49E-03,2.49E-02
120253,6.48E-03,2.52E-02
120254,6.48E-03,2.54E-02
120255,6.48E-03,2.56E-02
120256,6.48E-03,2.59E-02
120257,6.48E-03,2.61E-02
120258,6.48E-03,2.63E-02
120259,6.48E-03,2.66E-02
120260,6.48E-03,2.68E-02
120261,6.48E-03,2.70E-02
120262,6.48E-03,2.72E-02
120263,6.48E-03,2.74E-02
120264,6.53E-03,9.51E-03
120265,6.53E-03,9.80E-03
120266,6.53E-03,1.01E-02
120267,6.52E-03,1.04E-02
120268,6.52E-03,1.07E-02
120269,6.52E-03,1.10E-02
120270,6.52E-03,1.13E-02
120271,6.52E-03,1.16E-02
120272,6.52E-03,1.19E-02
120273,6.52E-03,1.22E-02
120274,6.52E-03,1.25E-02
120275,6.52E-03,1.27E-02
120276,6.52E-03,1.30E-02
120277,6.52E-03,1.33E-02
120278,6.52E-03,1.36E-02
120279,6.52E-03,1.39E-02
120280,6.52E-03,1.42E-02
120281,6.51E-03,1.45E-02
120282,6.51E-03,1.47E-02
120283,6.51E-03,1.50E-02
120284,6.51E-03,1.53E-02
120285,6.51E-03,1.56E-02
120286,6.51E-03,1.58E-02
120287,6.51E-03,1.61E-02
120288,6.51E-03,1.64E-02
120289,6.51E-03,1.67E-02
120290,6.51E-03,1.69E-02
120291,6.51E-03,1.72E-02
120292,6.51E-03,1.75E-02
120293,6.51E-03,1.77E-02
120294,6.51E-03,1.80E-02
120295,6.50E-03,1.83E-02
120296,6.50E-03,1.85E-02
120297,6.50E-03,1.88E-02
120298,6.50E-03,1.91E-02
120299,6.50E-03,1.93E-02
120300,6.50E-03,1.96E-02
120301,6.50E-03,1.98E-02
120302,6.50E-03,2.01E-02
120303,6.50E-03,2.04E-02
120304,6.50E-03,2.06E-02
120305,6.50E-03,2.09E-02
120306,6.50E-03,2.11E-02
120307,6.50E-03,2.14E-02
120308,6.50E-03,2.17E-02
120309,6.49E-03,2.19E-02
120310,6.49E-03,2.22E-02
120311,6.49E-03,2.24E-02
120312,6.49E-03,2.27E-02
120313,6.49E-03,2.29E-02
120314,6.49E-03,2.32E-02
120315,6.49E-03,2.34E-02
120316,6.49E-03,2.37E-02
120317,6.49E-03,2.39E-02
120318,6.49E-03,2.42E-02
120319,6.49E-03,2.44E-02
120320,6.49E-03,2.47E-02
120321,6.49E-03,2.49E-02
120322,6.48E-03,2.52E-02
120323,6.48E-03,2.54E-02
120324,6.48E-03,2.56E-02
120325,6.48E-03,2.59E-02
120326,6.48E-03,2.61E-02
120327,6.48E-03,2.63E-02
120328,6.48E-03,2.66E-02
120329,6.48E-03,2.68E-02
120330,6.48E-03,2.70E-02
120331,6.48E-03,2.72E-02
120332,6.48E-03,2.75E-02
120333,6.53E-03,9.46E-03
120334,6.53E-03,9.78E-03
120335,6.53E-03,1.01E-02
120336,6.52E-03,1.04E-02
120337,6.52E-03,1.07E-02
120338,6.52E-03,1.10E-02
120339,6.52E-03,1.13E-02
120340,6.52E-03,1.16E-02
120341,6.52E-03,1.19E-02
120342,6.52E-03,1.22E-02
120343,6.52E-03,1.25E-02
120344,6.52E-03,1.27E-02
120345,6.52E-03,1.30E-02
120346,6.52E-03,1.33E-02
120347,6.52E-03,1.36E-02
120348,6.52E-03,1.39E-02
120349,6.52E-03,1.42E-02
120350,6.51E-03,1.44E-02
120351,6.51E-03,1.47E-02
120352,6.51E-03,1.50E-02
120353,6.51E-03,1.53E-02
120354,6.51E-03,1.56E-02
120355,6.51E-03,1.58E-02
120356,6.51E-03,1.61E-02
120357,6.51E-03,1.64E-02
120358,6.51E-03,1.66E-02
120359,6.51E-03,1.69E-02
120360,6.51E-03,1.72E-02
120361,6.51E-03,1.75E-02
120362,6.51E-03,1.77E-02
120363,6.51E-03,1.80E-02
120364,6.50E-03,1.83E-02
120365,6.50E-03,1.85E-02
120366,6.50E-03,1.88E-02
120367,6.50E-03,1.90E-02
120368,6.50E-03,1.93E-02
120369,6.50E-03,1.96E-02
120370,6.50E-03,1.98E-02
120371,6.50E-03,2.01E-02
120372,6.50E-03,2.03E-02
120373,6.50E-03,2.06E-02
120374,6.50E-03,2.09E-02
120375,6.50E-03,2.11E-02
120376,6.50E-03,2.14E-02
120377,6.50E-03,2.16E-02
120378,6.49E-03,2.19E-02
120379,6.49E-03,2.21E-02
120380,6.49E-03,2.24E-02
120381,6.49E-03,2.26E-02
120382,6.49E-03,2.29E-02
120383,6.49E-03,2.31E-02
120384,6.49E-03,2.34E-02
120385,6.49E-03,2.36E-02
120386,6.49E-03,2.39E-02
120387,6.49E-03,2.41E-02
120388,6.49E-03,2.44E-02
120389,6.49E-03,2.46E-02
120390,6.49E-03,2.49E-02
120391,6.48E-03,2.51E-02
120392,6.48E-03,2.54E-02
120393,6.48E-03,2.56E-02
120394,6.48E-03,2.59E-02
120395,6.48E-03,2.61E-02
120396,6.48E-03,2.63E-02
120397,6.48E-03,2.66E-02
120398,6.48E-03,2.68E-02
120399,6.48E-03,2.70E-02
120400,6.48E-03,2.73E-02
120401,6.48E-03,2.75E-02
120402,6.53E-03,9.46E-03
120403,6.53E-03,9.77E-03
120404,6.53E-03,1.01E-02
120405,6.52E-03,1.04E-02
120406,6.52E-03,1.07E-02
120407,6.52E-03,1.10E-02
120408,6.52E-03,1.13E-02
120409,6.52E-03,1.16E-02
120410,6.52E-03,1.19E-02
120411,6.52E-03,1.22E-02
120412,6.52E-03,1.24E-02
120413,6.52E-03,1.27E-02
120414,6.52E-03,1.30E-02
120415,6.52E-03,1.33E-02
120416,6.52E-03,1.36E-02
120417,6.52E-03,1.39E-02
120418,6.52E-03,1.42E-02
120419,6.51E-03,1.44E-02
120420,6.51E-03,1.47E-02
120421,6.51E-03,1.50E-02
120422,6.51E-03,1.53E-02
120423,6.51E-03,1.55E-02
120424,6.51E-03,1.58E-02
120425,6.51E-03,1.61E-02
120426,6.51E-03,1.64E-02
120427,6.51E-03,1.66E-02
120428,6.51E-03,1.69E-02
120429,6.51E-03,1.72E-02
120430,6.51E-03,1.74E-02
120431,6.51E-03,1.77E-02
120432,6.51E-03,1.80E-02
120433,6.50E-03,1.82E-02
120434,6.50E-03,1.85E-02
120435,6.50E-03,1.88E-02
120436,6.50E-03,1.90E-02
120437,6.50E-03,1.93E-02
120438,6.50E-03,1.95E-02
120439,6.50E-03,1.98E-02
120440,6.50E-03,2.01E-02
120441,6.50E-03,2.03E-02
120442,6.50E-03,2.06E-02
120443,6.50E-03,2.08E-02
120444,6.50E-03,2.11E-02
120445,6.50E-03,2.13E-02
120446,6.50E-03,2.16E-02
120447,6.49E-03,2.19E-02
120448,6.49E-03,2.21E-02
120449,6.49E-03,2.24E-02
120450,6.49E-03,2.26E-02
120451,6.49E-03,2.29E-02
120452,6.49E-03,2.31E-02
120453,6.49E-03,2.34E-02
120454,6.49E-03,2.36E-02
120455,6.49E-03,2.39E-02
120456,6.49E-03,2.41E-02
120457,6.49E-03,2.44E-02
120458,6.49E-03,2.46E-02
120459,6.49E-03,2.49E-02
120460,6.48E-03,2.51E-02
120461,6.48E-03,2.54E-02
120462,6.48E-03,2.56E-02
120463,6.48E-03,2.59E-02
120464,6.48E-03,2.61E-02
120465,6.48E-03,2.63E-02
120466,6.48E-03,2.66E-02
120467,6.48E-03,2.68E-02
120468,6.48E-03,2.70E-02
120469,6.48E-03,2.73E-02
120470,6.48E-03,2.75E-02
120471,6.53E-03,9.47E-03
120472,6.53E-03,9.76E-03
120473,6.53E-03,1.01E-02
120474,6.52E-03,1.04E-02
120475,6.52E-03,1.07E-02
120476,6.52E-03,1.10E-02
120477,6.52E-03,1.13E-02
120478,6.52E-03,1.16E-02
120479,6.52E-03,1.19E-02
120480,6.52E-03,1.22E-02
120481,6.52E-03,1.24E-02
120482,6.52E-03,1.27E-02
120483,6.52E-03,1.30E-02
120484,6.52E-03,1.33E-02
120485,6.52E-03,1.36E-02
120486,6.52E-03,1.39E-02
120487,6.52E-03,1.42E-02
120488,6.51E-03,1.44E-02
120489,6.51E-03,1.47E-02
120490,6.51E-03,1.50E-02
120491,6.51E-03,1.53E-02
120492,6.51E-03,1.55E-02
120493,6.51E-03,1.58E-02
120494,6.51E-03,1.61E-02
120495,6.51E-03,1.64E-02
120496,6.51E-03,1.66E-02
120497,6.51E-03,1.69E-02
120498,6.51E-03,1.72E-02
120499,6.51E-03,1.74E-02
120500,6.51E-03,1.77E-02
120501,6.51E-03,1.79E-02
120502,6.50E-03,1.82E-02
120503,6.50E-03,1.85E-02
120504,6.50E-03,1.87E-02
120505,6.50E-03,1.90E-02
120506,6.50E-03,1.93E-02
120507,6.50E-03,1.95E-02
120508,6.50E-03,1.98E-02
120509,6.50E-03,2.00E-02
120510,6.50E-03,2.03E-02
120511,6.50E-03,2.05E-02
120512,6.50E-03,2.08E-02
120513,6.50E-03,2.11E-02
120514,6.50E-03,2.13E-02
120515,6.50E-03,2.16E-02
120516,6.49E-03,2.18E-02
120517,6.49E-03,2.21E-02
120518,6.49E-03,2.23E-02
120519,6.49E-03,2.26E-02
120520,6.49E-03,2.28E-02
120521,6.49E-03,2.31E-02
120522,6.49E-03,2.34E-02
120523,6.49E-03,2.36E-02
120524,6.49E-03,2.39E-02
120525,6.49E-03,2.41E-02
120526,6.49E-03,2.44E-02
120527,6.49E-03,2.46E-02
120528,6.49E-03,2.49E-02
120529,6.48E-03,2.51E-02
120530,6.48E-03,2.54E-02
120531,6.48E-03,2.56E-02
120532,6.48E-03,2.58E-02
120533,6.48E-03,2.61E-02
120534,6.48E-03,2.63E-02
120535,6.48E-03,2.66E-02
120536,6.48E-03,2.68E-02
120537,6.48E-03,2.70E-02
120538,6.48E-03,2.73E-02
120539,6.48E-03,2.75E-02
120540,6.53E-03,9.46E-03
120541,6.53E-03,9.76E-03
120542,6.53E-03,1.01E-02
120543,6.52E-03,1.04E-02
120544,6.52E-03,1.07E-02
120545,6.52E-03,1.10E-02
120546,6.52E-03,1.13E-02
120547,6.52E-03,1.16E-02
120548,6.52E-03,1.19E-02
120549,6.52E-03,1.22E-02
120550,6.52E-03,1.24E-02
120551,6.52E-03,1.27E-02
120552,6.52E-03,1.30E-02
120553,6.52E-03,1.33E-02
120554,6.52E-03,1.36E-02
120555,6.52E-03,1.39E-02
120556,6.52E-03,1.41E-02
120557,6.51E-03,1.44E-02
120558,6.51E-03,1.47E-02
120559,6.51E-03,1.50E-02
120560,6.51E-03,1.53E-02
120561,6.51E-03,1.55E-02
120562,6.51E-03,1.58E-02
120563,6.51E-03,1.61E-02
120564,6.51E-03,1.63E-02
120565,6.51E-03,1.66E-02
120566,6.51E-03,1.69E-02
120567,6.51E-03,1.71E-02
120568,6.51E-03,1.74E-02
120569,6.51E-03,1.77E-02
120570,6.51E-03,1.79E-02
120571,6.50E-03,1.82E-02
120572,6.50E-03,1.85E-02
120573,6.50E-03,1.87E-02
120574,6.50E-03,1.90E-02
120575,6.50E-03,1.92E-02
120576,6.50E-03,1.95E-02
120577,6.50E-03,1.98E-02
120578,6.50E-03,2.00E-02
120579,6.50E-03,2.03E-02
120580,6.50E-03,2.05E-02
120581,6.50E-03,2.08E-02
120582,6.50E-03,2.10E-02
120583,6.50E-03,2.13E-02
120584,6.50E-03,2.15E-02
120585,6.49E-03,2.18E-02
120586,6.49E-03,2.21E-02
120587,6.49E-03,2.23E-02
120588,6.49E-03,2.26E-02
120589,6.49E-03,2.28E-02
120590,6.49E-03,2.31E-02
120591,6.49E-03,2.33E-02
120592,6.49E-03,2.36E-02
120593,6.49E-03,2.38E-02
120594,6.49E-03,2.41E-02
120595,6.49E-03,2.43E-02
120596,6.49E-03,2.46E-02
120597,6.49E-03,2.48E-02
120598,6.48E-03,2.51E-02
120599,6.48E-03,2.53E-02
120600,6.48E-03,2.56E-02
120601,6.48E-03,2.58E-02
120602,6.48E-03,2.61E-02
120603,6.48E-03,2.63E-02
120604,6.48E-03,2.66E-02
120605,6.48E-03,2.68E-02
120606,6.48E-03,2.70E-02
120607,6.48E-03,2.73E-02
120608,6.48E-03,2.75E-02
120609,6.53E-03,9.45E-03
120610,6.53E-03,9.74E-03
120611,6.53E-03,1.00E-02
120612,6.52E-03,1.04E-02
120613,6.52E-03,1.07E-02
120614,6.52E-03,1.10E-02
120615,6.52E-03,1.13E-02
120616,6.52E-03,1.16E-02
120617,6.52E-03,1.19E-02
120618,6.52E-03,1.21E-02
120619,6.52E-03,1.24E-02
120620,6.52E-03,1.27E-02
120621,6.52E-03,1.30E-02
120622,6.52E-03,1.33E-02
120623,6.52E-03,1.36E-02
120624,6.52E-03,1.39E-02
120625,6.52E-03,1.41E-02
120626,6.51E-03,1.44E-02
120627,6.51E-03,1.47E-02
120628,6.51E-03,1.50E-02
120629,6.51E-03,1.52E-02
120630,6.51E-03,1.55E-02
120631,6.51E-03,1.58E-02
120632,6.51E-03,1.61E-02
120633,6.51E-03,1.63E-02
120634,6.51E-03,1.66E-02
120635,6.51E-03,1.69E-02
120636,6.51E-03,1.71E-02
120637,6.51E-03,1.74E-02
120638,6.51E-03,1.76E-02
120639,6.51E-03,1.79E-02
120640,6.50E-03,1.82E-02
120641,6.50E-03,1.84E-02
120642,6.50E-03,1.87E-02
120643,6.50E-03,1.90E-02
120644,6.50E-03,1.92E-02
120645,6.50E-03,1.95E-02
120646,6.50E-03,1.97E-02
120647,6.50E-03,2.00E-02
120648,6.50E-03,2.02E-02
120649,6.50E-03,2.05E-02
120650,6.50E-03,2.08E-02
120651,6.50E-03,2.10E-02
120652,6.50E-03,2.13E-02
120653,6.50E-03,2.15E-02
120654,6.49E-03,2.18E-02
120655,6.49E-03,2.20E-02
120656,6.49E-03,2.23E-02
120657,6.49E-03,2.25E-02
120658,6.49E-03,2.28E-02
120659,6.49E-03,2.30E-02
120660,6.49E-03,2.33E-02
120661,6.49E-03,2.36E-02
120662,6.49E-03,2.38E-02
120663,6.49E-03,2.41E-02
120664,6.49E-03,2.43E-02
120665,6.49E-03,2.46E-02
120666,6.49E-03,2.48E-02
120667,6.48E-03,2.51E-02
120668,6.48E-03,2.53E-02
120669,6.48E-03,2.56E-02
120670,6.48E-03,2.58E-02
120671,6.48E-03,2.61E-02
120672,6.48E-03,2.63E-02
120673,6.48E-03,2.66E-02
120674,6.48E-03,2.68E-02
120675,6.48E-03,2.70E-02
120676,6.48E-03,2.73E-02
120677,6.48E-03,2.75E-02
120678,6.53E-03,9.40E-03
120679,6.53E-03,9.74E-03
120680,6.53E-03,1.00E-02
120681,6.52E-03,1.03E-02
120682,6.52E-03,1.07E-02
120683,6.52E-03,1.10E-02
120684,6.52E-03,1.13E-02
120685,6.52E-03,1.16E-02
120686,6.52E-03,1.19E-02
120687,6.52E-03,1.21E-02
120688,6.52E-03,1.24E-02
120689,6.52E-03,1.27E-02
120690,6.52E-03,1.30E-02
120691,6.52E-03,1.33E-02
120692,6.52E-03,1.36E-02
120693,6.52E-03,1.39E-02
120694,6.52E-03,1.41E-02
120695,6.51E-03,1.44E-02
120696,6.51E-03,1.47E-02
120697,6.51E-03,1.50E-02
120698,6.51E-03,1.52E-02
120699,6.51E-03,1.55E-02
120700,6.51E-03,1.58E-02
120701,6.51E-03,1.60E-02
120702,6.51E-03,1.63E-02
120703,6.51E-03,1.66E-02
120704,6.51E-03,1.68E-02
120705,6.51E-03,1.71E-02
120706,6.51E-03,1.74E-02
120707,6.51E-03,1.76E-02
120708,6.51E-03,1.79E-02
120709,6.50E-03,1.82E-02
120710,6.50E-03,1.84E-02
120711,6.50E-03,1.87E-02
120712,6.50E-03,1.89E-02
120713,6.50E-03,1.92E-02
120714,6.50E-03,1.94E-02
120715,6.50E-03,1.97E-02
120716,6.50E-03,2.00E-02
120717,6.50E-03,2.02E-02
120718,6.50E-03,2.05E-02
120719,6.50E-03,2.07E-02
120720,6.50E-03,2.10E-02
120721,6.50E-03,2.12E-02
120722,6.50E-03,2.15E-02
120723,6.49E-03,2.17E-02
120724,6.49E-03,2.20E-02
120725,6.49E-03,2.23E-02
120726,6.49E-03,2.25E-02
120727,6.49E-03,2.28E-02
120728,6.49E-03,2.30E-02
120729,6.49E-03,2.33E-02
120730,6.49E-03,2.35E-02
120731,6.49E-03,2.38E-02
120732,6.49E-03,2.40E-02
120733,6.49E-03,2.43E-02
120734,6.49E-03,2.46E-02
120735,6.49E-03,2.48E-02
120736,6.48E-03,2.51E-02
120737,6.48E-03,2.53E-02
120738,6.48E-03,2.56E-02
120739,6.48E-03,2.58E-02
120740,6.48E-03,2.61E-02
120741,6.48E-03,2.63E-02
120742,6.48E-03,2.65E-02
120743,6.48E-03,2.68E-02
120744,6.48E-03,2.70E-02
120745,6.48E-03,2.73E-02
120746,6.48E-03,2.75E-02
120747,6.53E-03,9.40E-03
120748,6.53E-03,9.72E-03
120749,6.53E-03,1.00E-02
120750,6.52E-03,1.03E-02
120751,6.52E-03,1.07E-02
120752,6.52E-03,1.10E-02
120753,6.52E-03,1.13E-02
120754,6.52E-03,1.16E-02
120755,6.52E-03,1.19E-02
120756,6.52E-03,1.22E-02
120757,6.52E-03,1.24E-02
120758,6.52E-03,1.27E-02
120759,6.52E-03,1.30E-02
120760,6.52E-03,1.33E-02
120761,6.52E-03,1.36E-02
120762,6.52E-03,1.39E-02
120763,6.52E-03,1.41E-02
120764,6.51E-03,1.44E-02
120765,6.51E-03,1.47E-02
120766,6.51E-03,1.50E-02
120767,6.51E-03,1.52E-02
120768,6.51E-03,1.55E-02
120769,6.51E-03,1.58E-02
120770,6.51E-03,1.60E-02
120771,6.51E-03,1.63E-02
120772,6.51E-03,1.66E-02
120773,6.51E-03,1.68E-02
120774,6.51E-03,1.71E-02
120775,6.51E-03,1.74E-02
120776,6.51E-03,1.76E-02
120777,6.51E-03,1.79E-02
120778,6.50E-03,1.81E-02
120779,6.50E-03,1.84E-02
120780,6.50E-03,1.87E-02
120781,6.50E-03,1.89E-02
120782,6.50E-03,1.92E-02
120783,6.50E-03,1.94E-02
120784,6.50E-03,1.97E-02
120785,6.50E-03,1.99E-02
120786,6.50E-03,2.02E-02
120787,6.50E-03,2.04E-02
120788,6.50E-03,2.07E-02
120789,6.50E-03,2.10E-02
120790,6.50E-03,2.12E-02
120791,6.50E-03,2.15E-02
120792,6.49E-03,2.17E-02
120793,6.49E-03,2.20E-02
120794,6.49E-03,2.22E-02
120795,6.49E-03,2.25E-02
120796,6.49E-03,2.27E-02
120797,6.49E-03,2.30E-02
120798,6.49E-03,2.33E-02
120799,6.49E-03,2.35E-02
120800,6.49E-03,2.38E-02
120801,6.49E-03,2.40E-02
120802,6.49E-03,2.43E-02
120803,6.49E-03,2.45E-02
120804,6.49E-03,2.48E-02
120805,6.48E-03,2.50E-02
120806,6.48E-03,2.53E-02
120807,6.48E-03,2.55E-02
120808,6.48E-03,2.58E-02
120809,6.48E-03,2.60E-02
120810,6.48E-03,2.63E-02
120811,6.48E-03,2.65E-02
120812,6.48E-03,2.68E-02
120813,6.48E-03,2.70E-02
120814,6.48E-03,2.73E-02
120815,6.48E-03,2.75E-02
120816,6.53E-03,9.41E-03
120817,6.53E-03,9.71E-03
120818,6.53E-03,1.00E-02
120819,6.52E-03,1.03E-02
120820,6.52E-03,1.07E-02
120821,6.52E-03,1.10E-02
120822,6.52E-03,1.13E-02
120823,6.52E-03,1.16E-02
120824,6.52E-03,1.19E-02
120825,6.52E-03,1.22E-02
120826,6.52E-03,1.24E-02
120827,6.52E-03,1.27E-02
120828,6.52E-03,1.30E-02
120829,6.52E-03,1.33E-02
120830,6.52E-03,1.36E-02
120831,6.52E-03,1.39E-02
120832,6.52E-03,1.41E-02
120833,6.51E-03,1.44E-02
120834,6.51E-03,1.47E-02
120835,6.51E-03,1.50E-02
120836,6.51E-03,1.52E-02
120837,6.51E-03,1.55E-02
120838,6.51E-03,1.58E-02
120839,6.51E-03,1.60E-02
120840,6.51E-03,1.63E-02
120841,6.51E-03,1.66E-02
120842,6.51E-03,1.68E-02
120843,6.51E-03,1.71E-02
120844,6.51E-03,1.73E-02
120845,6.51E-03,1.76E-02
120846,6.51E-03,1.79E-02
120847,6.50E-03,1.81E-02
120848,6.50E-03,1.84E-02
120849,6.50E-03,1.86E-02
120850,6.50E-03,1.89E-02
120851,6.50E-03,1.91E-02
120852,6.50E-03,1.94E-02
120853,6.50E-03,1.97E-02
120854,6.50E-03,1.99E-02
120855,6.50E-03,2.02E-02
120856,6.50E-03,2.04E-02
120857,6.50E-03,2.07E-02
120858,6.50E-03,2.09E-02
120859,6.50E-03,2.12E-02
120860,6.50E-03,2.14E-02
120861,6.49E-03,2.17E-02
120862,6.49E-03,2.19E-02
120863,6.49E-03,2.22E-02
120864,6.49E-03,2.25E-02
120865,6.49E-03,2.27E-02
120866,6.49E-03,2.30E-02
120867,6.49E-03,2.32E-02
120868,6.49E-03,2.35E-02
120869,6.49E-03,2.37E-02
120870,6.49E-03,2.40E-02
120871,6.49E-03,2.43E-02
120872,6.49E-03,2.45E-02
120873,6.49E-03,2.48E-02
120874,6.48E-03,2.50E-02
120875,6.48E-03,2.53E-02
120876,6.48E-03,2.55E-02
120877,6.48E-03,2.58E-02
120878,6.48E-03,2.60E-02
120879,6.48E-03,2.63E-02
120880,6.48E-03,2.65E-02
120881,6.48E-03,2.68E-02
120882,6.48E-03,2.70E-02
120883,6.48E-03,2.73E-02
120884,6.48E-03,2.75E-02
120885,6.53E-03,9.38E-03
120886,6.53E-03,9.70E-03
120887,6.53E-03,1.00E-02
120888,6.52E-03,1.03E-02
120889,6.52E-03,1.07E-02
120890,6.52E-03,1.10E-02
120891,6.52E-03,1.13E-02
120892,6.52E-03,1.16E-02
120893,6.52E-03,1.19E-02
120894,6.52E-03,1.22E-02
120895,6.52E-03,1.24E-02
120896,6.52E-03,1.27E-02
120897,6.52E-03,1.30E-02
120898,6.52E-03,1.33E-02
120899,6.52E-03,1.36E-02
120900,6.52E-03,1.39E-02
120901,6.52E-03,1.41E-02
120902,6.51E-03,1.44E-02
120903,6.51E-03,1.47E-02
120904,6.51E-03,1.49E-02
120905,6.51E-03,1.52E-02
120906,6.51E-03,1.55E-02
120907,6.51E-03,1.57E-02
120908,6.51E-03,1.60E-02
120909,6.51E-03,1.63E-02
120910,6.51E-03,1.65E-02
120911,6.51E-03,1.68E-02
120912,6.51E-03,1.71E-02
120913,6.51E-03,1.73E-02
120914,6.51E-03,1.76E-02
120915,6.51E-03,1.78E-02
120916,6.50E-03,1.81E-02
120917,6.50E-03,1.84E-02
120918,6.50E-03,1.86E-02
120919,6.50E-03,1.89E-02
120920,6.50E-03,1.91E-02
120921,6.50E-03,1.94E-02
120922,6.50E-03,1.96E-02
120923,6.50E-03,1.99E-02
120924,6.50E-03,2.01E-02
120925,6.50E-03,2.04E-02
120926,6.50E-03,2.06E-02
120927,6.50E-03,2.09E-02
120928,6.50E-03,2.12E-02
120929,6.50E-03,2.14E-02
120930,6.49E-03,2.17E-02
120931,6.49E-03,2.19E-02
120932,6.49E-03,2.22E-02
120933,6.49E-03,2.24E-02
120934,6.49E-03,2.27E-02
120935,6.49E-03,2.29E-02
120936,6.49E-03,2.32E-02
120937,6.49E-03,2.35E-02
120938,6.49E-03,2.37E-02
120939,6.49E-03,2.40E-02
120940,6.49E-03,2.42E-02
120941,6.49E-03,2.45E-02
120942,6.49E-03,2.47E-02
120943,6.48E-03,2.50E-02
120944,6.48E-03,2.53E-02
120945,6.48E-03,2.55E-02
120946,6.48E-03,2.58E-02
120947,6.48E-03,2.60E-02
120948,6.48E-03,2.63E-02
120949,6.48E-03,2.65E-02
120950,6.48E-03,2.68E-02
120951,6.48E-03,2.70E-02
120952,6.48E-03,2.73E-02
120953,6.48E-03,2.75E-02
120954,6.53E-03,9.36E-03
120955,6.53E-03,9.71E-03
120956,6.53E-03,1.00E-02
120957,6.52E-03,1.04E-02
120958,6.52E-03,1.07E-02
120959,6.52E-03,1.10E-02
120960,6.52E-03,1.13E-02
120961,6.52E-03,1.16E-02
120962,6.52E-03,1.19E-02
120963,6.52E-03,1.22E-02
120964,6.52E-03,1.24E-02
120965,6.52E-03,1.27E-02
120966,6.52E-03,1.30E-02
120967,6.52E-03,1.33E-02
120968,6.52E-03,1.36E-02
120969,6.52E-03,1.39E-02
120970,6.52E-03,1.41E-02
120971,6.51E-03,1.44E-02
120972,6.51E-03,1.47E-02
120973,6.51E-03,1.49E-02
120974,6.51E-03,1.52E-02
120975,6.51E-03,1.55E-02
120976,6.51E-03,1.57E-02
120977,6.51E-03,1.60E-02
120978,6.51E-03,1.63E-02
120979,6.51E-03,1.65E-02
120980,6.51E-03,1.68E-02
120981,6.51E-03,1.70E-02
120982,6.51E-03,1.73E-02
120983,6.51E-03,1.76E-02
120984,6.51E-03,1.78E-02
120985,6.50E-03,1.81E-02
120986,6.50E-03,1.83E-02
120987,6.50E-03,1.86E-02
120988,6.50E-03,1.88E-02
120989,6.50E-03,1.91E-02
120990,6.50E-03,1.94E-02
120991,6.50E-03,1.96E-02
120992,6.50E-03,1.99E-02
120993,6.50E-03,2.01E-02
120994,6.50E-03,2.04E-02
120995,6.50E-03,2.06E-02
120996,6.50E-03,2.09E-02
120997,6.50E-03,2.11E-02
120998,6.50E-03,2.14E-02
120999,6.49E-03,2.16E-02
121000,6.49E-03,2.19E-02
121001,6.49E-03,2.21E-02
121002,6.49E-03,2.24E-02
121003,6.49E-03,2.27E-02
121004,6.49E-03,2.29E-02
121005,6.49E-03,2.32E-02
121006,6.49E-03,2.34E-02
121007,6.49E-03,2.37E-02
121008,6.49E-03,2.39E-02
121009,6.49E-03,2.42E-02
121010,6.49E-03,2.45E-02
121011,6.49E-03,2.47E-02
121012,6.48E-03,2.50E-02
121013,6.48E-03,2.52E-02
121014,6.48E-03,2.55E-02
121015,6.48E-03,2.58E-02
121016,6.48E-03,2.60E-02
121017,6.48E-03,2.63E-02
121018,6.48E-03,2.65E-02
121019,6.48E-03,2.68E-02
121020,6.48E-03,2.70E-02
121021,6.48E-03,2.73E-02
121022,6.48E-03,2.75E-02
121023,6.53E-03,9.41E-03
121024,6.53E-03,9.72E-03
121025,6.53E-03,1.00E-02
121026,6.52E-03,1.04E-02
121027,6.52E-03,1.07E-02
121028,6.52E-03,1.10E-02
121029,6.52E-03,1.13E-02
121030,6.52E-03,1.16E-02
121031,6.52E-03,1.19E-02
121032,6.52E-03,1.22E-02
121033,6.52E-03,1.24E-02
121034,6.52E-03,1.27E-02
121035,6.52E-03,1.30E-02
121036,6.52E-03,1.33E-02
121037,6.52E-03,1.36E-02
121038,6.52E-03,1.38E-02
121039,6.52E-03,1.41E-02
121040,6.51E-03,1.44E-02
121041,6.51E-03,1.47E-02
121042,6.51E-03,1.49E-02
121043,6.51E-03,1.52E-02
121044,6.51E-03,1.55E-02
121045,6.51E-03,1.57E-02
121046,6.51E-03,1.60E-02
121047,6.51E-03,1.63E-02
121048,6.51E-03,1.65E-02
121049,6.51E-03,1.68E-02
121050,6.51E-03,1.70E-02
121051,6.51E-03,1.73E-02
121052,6.51E-03,1.75E-02
121053,6.51E-03,1.78E-02
121054,6.50E-03,1.81E-02
121055,6.50E-03,1.83E-02
121056,6.50E-03,1.86E-02
121057,6.50E-03,1.88E-02
121058,6.50E-03,1.91E-02
121059,6.50E-03,1.93E-02
121060,6.50E-03,1.96E-02
121061,6.50E-03,1.98E-02
121062,6.50E-03,2.01E-02
121063,6.50E-03,2.03E-02
121064,6.50E-03,2.06E-02
121065,6.50E-03,2.09E-02
121066,6.50E-03,2.11E-02
121067,6.50E-03,2.14E-02
121068,6.49E-03,2.16E-02
121069,6.49E-03,2.19E-02
121070,6.49E-03,2.21E-02
121071,6.49E-03,2.24E-02
121072,6.49E-03,2.26E-02
121073,6.49E-03,2.29E-02
121074,6.49E-03,2.31E-02
121075,6.49E-03,2.34E-02
121076,6.49E-03,2.37E-02
121077,6.49E-03,2.39E-02
121078,6.49E-03,2.42E-02
121079,6.49E-03,2.44E-02
121080,6.49E-03,2.47E-02
121081,6.48E-03,2.50E-02
121082,6.48E-03,2.52E-02
121083,6.48E-03,2.55E-02
121084,6.48E-03,2.58E-02
121085,6.48E-03,2.60E-02
121086,6.48E-03,2.63E-02
121087,6.48E-03,2.65E-02
121088,6.48E-03,2.68E-02
121089,6.48E-03,2.70E-02
121090,6.48E-03,2.73E-02
121091,6.48E-03,2.75E-02
121092,6.53E-03,9.42E-03
121093,6.53E-03,9.74E-03
121094,6.53E-03,1.01E-02
121095,6.52E-03,1.04E-02
121096,6.52E-03,1.07E-02
121097,6.52E-03,1.10E-02
121098,6.52E-03,1.13E-02
121099,6.52E-03,1.16E-02
121100,6.52E-03,1.19E-02
121101,6.52E-03,1.22E-02
121102,6.52E-03,1.25E-02
121103,6.52E-03,1.27E-02
121104,6.52E-03,1.30E-02
121105,6.52E-03,1.33E-02
121106,6.52E-03,1.36E-02
121107,6.52E-03,1.38E-02
121108,6.52E-03,1.41E-02
121109,6.51E-03,1.44E-02
121110,6.51E-03,1.47E-02
121111,6.51E-03,1.49E-02
121112,6.51E-03,1.52E-02
121113,6.51E-03,1.55E-02
121114,6.51E-03,1.57E-02
121115,6.51E-03,1.60E-02
121116,6.51E-03,1.62E-02
121117,6.51E-03,1.65E-02
121118,6.51E-03,1.68E-02
121119,6.51E-03,1.70E-02
121120,6.51E-03,1.73E-02
121121,6.51E-03,1.75E-02
121122,6.51E-03,1.78E-02
121123,6.50E-03,1.80E-02
121124,6.50E-03,1.83E-02
121125,6.50E-03,1.86E-02
121126,6.50E-03,1.88E-02
121127,6.50E-03,1.91E-02
121128,6.50E-03,1.93E-02
121129,6.50E-03,1.96E-02
121130,6.50E-03,1.98E-02
121131,6.50E-03,2.01E-02
121132,6.50E-03,2.03E-02
121133,6.50E-03,2.06E-02
121134,6.50E-03,2.08E-02
121135,6.50E-03,2.11E-02
121136,6.50E-03,2.13E-02
121137,6.49E-03,2.16E-02
121138,6.49E-03,2.18E-02
121139,6.49E-03,2.21E-02
121140,6.49E-03,2.23E-02
121141,6.49E-03,2.26E-02
121142,6.49E-03,2.29E-02
121143,6.49E-03,2.31E-02
121144,6.49E-03,2.34E-02
121145,6.49E-03,2.36E-02
121146,6.49E-03,2.39E-02
121147,6.49E-03,2.42E-02
121148,6.49E-03,2.44E-02
121149,6.49E-03,2.47E-02
121150,6.48E-03,2.49E-02
121151,6.48E-03,2.52E-02
121152,6.48E-03,2.55E-02
121153,6.48E-03,2.57E-02
121154,6.48E-03,2.60E-02
121155,6.48E-03,2.63E-02
121156,6.48E-03,2.65E-02
121157,6.48E-03,2.68E-02
121158,6.48E-03,2.70E-02
121159,6.48E-03,2.73E-02
121160,6.48E-03,2.75E-02
121161,6.53E-03,9.43E-03
121162,6.53E-03,9.76E-03
121163,6.53E-03,1.01E-02
121164,6.52E-03,1.04E-02
121165,6.52E-03,1.07E-02
121166,6.52E-03,1.10E-02
121167,6.52E-03,1.13E-02
121168,6.52E-03,1.16E-02
121169,6.52E-03,1.19E-02
121170,6.52E-03,1.22E-02
121171,6.52E-03,1.25E-02
121172,6.52E-03,1.27E-02
121173,6.52E-03,1.30E-02
121174,6.52E-03,1.33E-02
121175,6.52E-03,1.36E-02
121176,6.52E-03,1.38E-02
121177,6.52E-03,1.41E-02
121178,6.51E-03,1.44E-02
121179,6.51E-03,1.47E-02
121180,6.51E-03,1.49E-02
121181,6.51E-03,1.52E-02
121182,6.51E-03,1.54E-02
121183,6.51E-03,1.57E-02
121184,6.51E-03,1.60E-02
121185,6.51E-03,1.62E-02
121186,6.51E-03,1.65E-02
121187,6.51E-03,1.67E-02
121188,6.51E-03,1.70E-02
121189,6.51E-03,1.73E-02
121190,6.51E-03,1.75E-02
121191,6.51E-03,1.78E-02
121192,6.50E-03,1.80E-02
121193,6.50E-03,1.83E-02
121194,6.50E-03,1.85E-02
121195,6.50E-03,1.88E-02
121196,6.50E-03,1.90E-02
121197,6.50E-03,1.93E-02
121198,6.50E-03,1.95E-02
121199,6.50E-03,1.98E-02
121200,6.50E-03,2.00E-02
121201,6.50E-03,2.03E-02
121202,6.50E-03,2.05E-02
121203,6.50E-03,2.08E-02
121204,6.50E-03,2.10E-02
121205,6.50E-03,2.13E-02
121206,6.49E-03,2.16E-02
121207,6.49E-03,2.18E-02
121208,6.49E-03,2.21E-02
121209,6.49E-03,2.23E-02
121210,6.49E-03,2.26E-02
121211,6.49E-03,2.28E-02
121212,6.49E-03,2.31E-02
121213,6.49E-03,2.33E-02
121214,6.49E-03,2.36E-02
121215,6.49E-03,2.39E-02
121216,6.49E-03,2.41E-02
121217,6.49E-03,2.44E-02
121218,6.49E-03,2.47E-02
121219,6.48E-03,2.49E-02
121220,6.48E-03,2.52E-02
121221,6.48E-03,2.55E-02
121222,6.48E-03,2.57E-02
121223,6.48E-03,2.60E-02
121224,6.48E-03,2.63E-02
121225,6.48E-03,2.65E-02
121226,6.48E-03,2.68E-02
121227,6.48E-03,2.70E-02
121228,6.48E-03,2.73E-02
121229,6.48E-03,2.75E-02
121230,6.53E-03,9.44E-03
121231,6.53E-03,9.76E-03
121232,6.53E-03,1.01E-02
121233,6.52E-03,1.04E-02
121234,6.52E-03,1.07E-02
121235,6.52E-03,1.10E-02
121236,6.52E-03,1.13E-02
121237,6.52E-03,1.16E-02
121238,6.52E-03,1.19E-02
121239,6.52E-03,1.22E-02
121240,6.52E-03,1.25E-02
121241,6.52E-03,1.27E-02
121242,6.52E-03,1.30E-02
121243,6.52E-03,1.33E-02
121244,6.52E-03,1.36E-02
121245,6.52E-03,1.38E-02
121246,6.52E-03,1.41E-02
121247,6.51E-03,1.44E-02
121248,6.51E-03,1.46E-02
121249,6.51E-03,1.49E-02
121250,6.51E-03,1.52E-02
121251,6.51E-03,1.54E-02
121252,6.51E-03,1.57E-02
121253,6.51E-03,1.60E-02
121254,6.51E-03,1.62E-02
121255,6.51E-03,1.65E-02
121256,6.51E-03,1.67E-02
121257,6.51E-03,1.70E-02
121258,6.51E-03,1.72E-02
121259,6.51E-03,1.75E-02
121260,6.51E-03,1.78E-02
121261,6.50E-03,1.80E-02
121262,6.50E-03,1.83E-02
121263,6.50E-03,1.85E-02
121264,6.50E-03,1.88E-02
121265,6.50E-03,1.90E-02
121266,6.50E-03,1.93E-02
121267,6.50E-03,1.95E-02
121268,6.50E-03,1.98E-02
121269,6.50E-03,2.00E-02
121270,6.50E-03,2.03E-02
121271,6.50E-03,2.05E-02
121272,6.50E-03,2.08E-02
121273,6.50E-03,2.10E-02
121274,6.50E-03,2.13E-02
121275,6.49E-03,2.15E-02
121276,6.49E-03,2.18E-02
121277,6.49E-03,2.20E-02
121278,6.49E-03,2.23E-02
121279,6.49E-03,2.25E-02
121280,6.49E-03,2.28E-02
121281,6.49E-03,2.31E-02
121282,6.49E-03,2.33E-02
121283,6.49E-03,2.36E-02
121284,6.49E-03,2.38E-02
121285,6.49E-03,2.41E-02
121286,6.49E-03,2.44E-02
121287,6.49E-03,2.46E-02
121288,6.48E-03,2.49E-02
121289,6.48E-03,2.52E-02
121290,6.48E-03,2.54E-02
121291,6.48E-03,2.57E-02
121292,6.48E-03,2.60E-02
121293,6.48E-03,2.63E-02
121294,6.48E-03,2.65E-02
121295,6.48E-03,2.68E-02
121296,6.48E-03,2.71E-02
121297,6.48E-03,2.73E-02
121298,6.48E-03,2.76E-02
121299,6.53E-03,9.41E-03
121300,6.53E-03,9.77E-03
121301,6.53E-03,1.01E-02
121302,6.52E-03,1.04E-02
121303,6.52E-03,1.07E-02
121304,6.52E-03,1.10E-02
121305,6.52E-03,1.13E-02
121306,6.52E-03,1.16E-02
121307,6.52E-03,1.19E-02
121308,6.52E-03,1.22E-02
121309,6.52E-03,1.25E-02
121310,6.52E-03,1.27E-02
121311,6.52E-03,1.30E-02
121312,6.52E-03,1.33E-02
121313,6.52E-03,1.36E-02
121314,6.52E-03,1.38E-02
121315,6.52E-03,1.41E-02
121316,6.51E-03,1.44E-02
121317,6.51E-03,1.46E-02
121318,6.51E-03,1.49E-02
121319,6.51E-03,1.52E-02
121320,6.51E-03,1.54E-02
121321,6.51E-03,1.57E-02
121322,6.51E-03,1.60E-02
121323,6.51E-03,1.62E-02
121324,6.51E-03,1.65E-02
121325,6.51E-03,1.67E-02
121326,6.51E-03,1.70E-02
121327,6.51E-03,1.72E-02
121328,6.51E-03,1.75E-02
121329,6.51E-03,1.77E-02
121330,6.50E-03,1.80E-02
121331,6.50E-03,1.82E-02
121332,6.50E-03,1.85E-02
121333,6.50E-03,1.87E-02
121334,6.50E-03,1.90E-02
121335,6.50E-03,1.92E-02
121336,6.50E-03,1.95E-02
121337,6.50E-03,1.97E-02
121338,6.50E-03,2.00E-02
121339,6.50E-03,2.02E-02
121340,6.50E-03,2.05E-02
121341,6.50E-03,2.07E-02
121342,6.50E-03,2.10E-02
121343,6.50E-03,2.12E-02
121344,6.49E-03,2.15E-02
121345,6.49E-03,2.17E-02
121346,6.49E-03,2.20E-02
121347,6.49E-03,2.23E-02
121348,6.49E-03,2.25E-02
121349,6.49E-03,2.28E-02
121350,6.49E-03,2.30E-02
121351,6.49E-03,2.33E-02
121352,6.49E-03,2.35E-02
121353,6.49E-03,2.38E-02
121354,6.49E-03,2.41E-02
121355,6.49E-03,2.43E-02
121356,6.49E-03,2.46E-02
121357,6.48E-03,2.49E-02
121358,6.48E-03,2.52E-02
121359,6.48E-03,2.54E-02
121360,6.48E-03,2.57E-02
121361,6.48E-03,2.60E-02
121362,6.48E-03,2.63E-02
121363,6.48E-03,2.65E-02
121364,6.48E-03,2.68E-02
121365,6.48E-03,2.71E-02
121366,6.48E-03,2.74E-02
121367,6.48E-03,2.76E-02
121368,6.53E-03,9.44E-03
121369,6.53E-03,9.77E-03
121370,6.53E-03,1.01E-02
121371,6.52E-03,1.04E-02
121372,6.52E-03,1.07E-02
121373,6.52E-03,1.10E-02
121374,6.52E-03,1.13E-02
121375,6.52E-03,1.16E-02
121376,6.52E-03,1.19E-02
121377,6.52E-03,1.22E-02
121378,6.52E-03,1.25E-02
121379,6.52E-03,1.27E-02
121380,6.52E-03,1.30E-02
121381,6.52E-03,1.33E-02
121382,6.52E-03,1.36E-02
121383,6.52E-03,1.38E-02
121384,6.52E-03,1.41E-02
121385,6.51E-03,1.44E-02
121386,6.51E-03,1.46E-02
121387,6.51E-03,1.49E-02
121388,6.51E-03,1.52E-02
121389,6.51E-03,1.54E-02
121390,6.51E-03,1.57E-02
121391,6.51E-03,1.59E-02
121392,6.51E-03,1.62E-02
121393,6.51E-03,1.65E-02
121394,6.51E-03,1.67E-02
121395,6.51E-03,1.70E-02
121396,6.51E-03,1.72E-02
121397,6.51E-03,1.75E-02
121398,6.51E-03,1.77E-02
121399,6.50E-03,1.80E-02
121400,6.50E-03,1.82E-02
121401,6.50E-03,1.85E-02
121402,6.50E-03,1.87E-02
121403,6.50E-03,1.90E-02
121404,6.50E-03,1.92E-02
121405,6.50E-03,1.95E-02
121406,6.50E-03,1.97E-02
121407,6.50E-03,2.00E-02
121408,6.50E-03,2.02E-02
121409,6.50E-03,2.05E-02
121410,6.50E-03,2.07E-02
121411,6.50E-03,2.10E-02
121412,6.50E-03,2.12E-02
121413,6.49E-03,2.15E-02
121414,6.49E-03,2.17E-02
121415,6.49E-03,2.20E-02
121416,6.49E-03,2.22E-02
121417,6.49E-03,2.25E-02
121418,6.49E-03,2.27E-02
121419,6.49E-03,2.30E-02
121420,6.49E-03,2.33E-02
121421,6.49E-03,2.35E-02
121422,6.49E-03,2.38E-02
121423,6.49E-03,2.40E-02
121424,6.49E-03,2.43E-02
121425,6.49E-03,2.46E-02
121426,6.48E-03,2.49E-02
121427,6.48E-03,2.51E-02
121428,6.48E-03,2.54E-02
121429,6.48E-03,2.57E-02
121430,6.48E-03,2.60E-02
121431,6.48E-03,2.63E-02
121432,6.48E-03,2.65E-02
121433,6.48E-03,2.68E-02
121434,6.48E-03,2.71E-02
121435,6.48E-03,2.74E-02
121436,6.48E-03,2.77E-02
121437,6.53E-03,9.47E-03
121438,6.53E-03,9.79E-03
121439,6.53E-03,1.01E-02
121440,6.52E-03,1.04E-02
121441,6.52E-03,1.07E-02
121442,6.52E-03,1.10E-02
121443,6.52E-03,1.13E-02
121444,6.52E-03,1.16E-02
121445,6.52E-03,1.19E-02
121446,6.52E-03,1.22E-02
121447,6.52E-03,1.25E-02
121448,6.52E-03,1.28E-02
121449,6.52E-03,1.30E-02
121450,6.52E-03,1.33E-02
121451,6.52E-03,1.36E-02
121452,6.52E-03,1.38E-02
121453,6.52E-03,1.41E-02
121454,6.51E-03,1.44E-02
121455,6.51E-03,1.46E-02
121456,6.51E-03,1.49E-02
121457,6.51E-03,1.52E-02
121458,6.51E-03,1.54E-02
121459,6.51E-03,1.57E-02
121460,6.51E-03,1.59E-02
121461,6.51E-03,1.62E-02
121462,6.51E-03,1.64E-02
121463,6.51E-03,1.67E-02
121464,6.51E-03,1.69E-02
121465,6.51E-03,1.72E-02
121466,6.51E-03,1.75E-02
121467,6.51E-03,1.77E-02
121468,6.50E-03,1.80E-02
121469,6.50E-03,1.82E-02
121470,6.50E-03,1.85E-02
121471,6.50E-03,1.87E-02
121472,6.50E-03,1.89E-02
121473,6.50E-03,1.92E-02
121474,6.50E-03,1.94E-02
121475,6.50E-03,1.97E-02
121476,6.50E-03,1.99E-02
121477,6.50E-03,2.02E-02
121478,6.50E-03,2.04E-02
121479,6.50E-03,2.07E-02
121480,6.50E-03,2.09E-02
121481,6.50E-03,2.12E-02
121482,6.49E-03,2.14E-02
121483,6.49E-03,2.17E-02
121484,6.49E-03,2.19E-02
121485,6.49E-03,2.22E-02
121486,6.49E-03,2.24E-02
121487,6.49E-03,2.27E-02
121488,6.49E-03,2.30E-02
121489,6.49E-03,2.32E-02
121490,6.49E-03,2.35E-02
121491,6.49E-03,2.37E-02
121492,6.49E-03,2.40E-02
121493,6.49E-03,2.43E-02
121494,6.49E-03,2.46E-02
121495,6.48E-03,2.48E-02
121496,6.48E-03,2.51E-02
121497,6.48E-03,2.54E-02
121498,6.48E-03,2.57E-02
121499,6.48E-03,2.60E-02
121500,6.48E-03,2.62E-02
121501,6.48E-03,2.65E-02
121502,6.48E-03,2.68E-02
121503,6.48E-03,2.71E-02
121504,6.48E-03,2.74E-02
121505,6.48E-03,2.77E-02
121506,6.53E-03,9.49E-03
121507,6.53E-03,9.80E-03
121508,6.53E-03,1.01E-02
121509,6.52E-03,1.04E-02
121510,6.52E-03,1.07E-02
121511,6.52E-03,1.10E-02
121512,6.52E-03,1.13E-02
121513,6.52E-03,1.16E-02
121514,6.52E-03,1.19E-02
121515,6.52E-03,1.22E-02
121516,6.52E-03,1.25E-02
121517,6.52E-03,1.28E-02
121518,6.52E-03,1.30E-02
121519,6.52E-03,1.33E-02
121520,6.52E-03,1.36E-02
121521,6.52E-03,1.38E-02
121522,6.52E-03,1.41E-02
121523,6.51E-03,1.44E-02
121524,6.51E-03,1.46E-02
121525,6.51E-03,1.49E-02
121526,6.51E-03,1.52E-02
121527,6.51E-03,1.54E-02
121528,6.51E-03,1.57E-02
121529,6.51E-03,1.59E-02
121530,6.51E-03,1.62E-02
121531,6.51E-03,1.64E-02
121532,6.51E-03,1.67E-02
121533,6.51E-03,1.69E-02
121534,6.51E-03,1.72E-02
121535,6.51E-03,1.74E-02
121536,6.51E-03,1.77E-02
121537,6.50E-03,1.79E-02
121538,6.50E-03,1.82E-02
121539,6.50E-03,1.84E-02
121540,6.50E-03,1.87E-02
121541,6.50E-03,1.89E-02
121542,6.50E-03,1.92E-02
121543,6.50E-03,1.94E-02
121544,6.50E-03,1.97E-02
121545,6.50E-03,1.99E-02
121546,6.50E-03,2.02E-02
121547,6.50E-03,2.04E-02
121548,6.50E-03,2.07E-02
121549,6.50E-03,2.09E-02
121550,6.50E-03,2.12E-02
121551,6.49E-03,2.14E-02
121552,6.49E-03,2.17E-02
121553,6.49E-03,2.19E-02
121554,6.49E-03,2.22E-02
121555,6.49E-03,2.24E-02
121556,6.49E-03,2.27E-02
121557,6.49E-03,2.29E-02
121558,6.49E-03,2.32E-02
121559,6.49E-03,2.35E-02
121560,6.49E-03,2.37E-02
121561,6.49E-03,2.40E-02
121562,6.49E-03,2.43E-02
121563,6.49E-03,2.45E-02
121564,6.48E-03,2.48E-02
121565,6.48E-03,2.51E-02
121566,6.48E-03,2.54E-02
121567,6.48E-03,2.56E-02
121568,6.48E-03,2.59E-02
121569,6.48E-03,2.62E-02
121570,6.48E-03,2.65E-02
121571,6.48E-03,2.68E-02
121572,6.48E-03,2.71E-02
121573,6.48E-03,2.75E-02
121574,6.48E-03,2.78E-02
121575,6.53E-03,9.50E-03
121576,6.53E-03,9.82E-03
121577,6.53E-03,1.01E-02
121578,6.52E-03,1.04E-02
121579,6.52E-03,1.07E-02
121580,6.52E-03,1.10E-02
121581,6.52E-03,1.13E-02
121582,6.52E-03,1.16E-02
121583,6.52E-03,1.19E-02
121584,6.52E-03,1.22E-02
121585,6.52E-03,1.25E-02
121586,6.52E-03,1.28E-02
121587,6.52E-03,1.30E-02
121588,6.52E-03,1.33E-02
121589,6.52E-03,1.36E-02
121590,6.52E-03,1.38E-02
121591,6.52E-03,1.41E-02
121592,6.51E-03,1.44E-02
121593,6.51E-03,1.46E-02
121594,6.51E-03,1.49E-02
121595,6.51E-03,1.51E-02
121596,6.51E-03,1.54E-02
121597,6.51E-03,1.57E-02
121598,6.51E-03,1.59E-02
121599,6.51E-03,1.62E-02
121600,6.51E-03,1.64E-02
121601,6.51E-03,1.67E-02
121602,6.51E-03,1.69E-02
121603,6.51E-03,1.72E-02
121604,6.51E-03,1.74E-02
121605,6.51E-03,1.77E-02
121606,6.50E-03,1.79E-02
121607,6.50E-03,1.82E-02
121608,6.50E-03,1.84E-02
121609,6.50E-03,1.87E-02
121610,6.50E-03,1.89E-02
121611,6.50E-03,1.92E-02
121612,6.50E-03,1.94E-02
121613,6.50E-03,1.96E-02
121614,6.50E-03,1.99E-02
121615,6.50E-03,2.01E-02
121616,6.50E-03,2.04E-02
121617,6.50E-03,2.06E-02
121618,6.50E-03,2.09E-02
121619,6.50E-03,2.11E-02
121620,6.49E-03,2.14E-02
121621,6.49E-03,2.16E-02
121622,6.49E-03,2.19E-02
121623,6.49E-03,2.21E-02
121624,6.49E-03,2.24E-02
121625,6.49E-03,2.26E-02
121626,6.49E-03,2.29E-02
121627,6.49E-03,2.32E-02
121628,6.49E-03,2.34E-02
121629,6.49E-03,2.37E-02
121630,6.49E-03,2.39E-02
121631,6.49E-03,2.42E-02
121632,6.49E-03,2.45E-02
121633,6.48E-03,2.48E-02
121634,6.48E-03,2.50E-02
121635,6.48E-03,2.53E-02
121636,6.48E-03,2.56E-02
121637,6.48E-03,2.59E-02
121638,6.48E-03,2.62E-02
121639,6.48E-03,2.65E-02
121640,6.48E-03,2.68E-02
121641,6.48E-03,2.72E-02
121642,6.48E-03,2.75E-02
121643,6.48E-03,2.78E-02
121644,6.53E-03,9.51E-03
121645,6.53E-03,9.83E-03
121646,6.53E-03,1.01E-02
121647,6.52E-03,1.04E-02
121648,6.52E-03,1.08E-02
121649,6.52E-03,1.11E-02
121650,6.52E-03,1.13E-02
121651,6.52E-03,1.16E-02
121652,6.52E-03,1.19E-02
121653,6.52E-03,1.22E-02
121654,6.52E-03,1.25E-02
121655,6.52E-03,1.28E-02
121656,6.52E-03,1.30E-02
121657,6.52E-03,1.33E-02
121658,6.52E-03,1.36E-02
121659,6.52E-03,1.38E-02
121660,6.52E-03,1.41E-02
121661,6.51E-03,1.44E-02
121662,6.51E-03,1.46E-02
121663,6.51E-03,1.49E-02
121664,6.51E-03,1.51E-02
121665,6.51E-03,1.54E-02
121666,6.51E-03,1.57E-02
121667,6.51E-03,1.59E-02
121668,6.51E-03,1.62E-02
121669,6.51E-03,1.64E-02
121670,6.51E-03,1.67E-02
121671,6.51E-03,1.69E-02
121672,6.51E-03,1.72E-02
121673,6.51E-03,1.74E-02
121674,6.51E-03,1.77E-02
121675,6.50E-03,1.79E-02
121676,6.50E-03,1.81E-02
121677,6.50E-03,1.84E-02
121678,6.50E-03,1.86E-02
121679,6.50E-03,1.89E-02
121680,6.50E-03,1.91E-02
121681,6.50E-03,1.94E-02
121682,6.50E-03,1.96E-02
121683,6.50E-03,1.99E-02
121684,6.50E-03,2.01E-02
121685,6.50E-03,2.04E-02
121686,6.50E-03,2.06E-02
121687,6.50E-03,2.09E-02
121688,6.50E-03,2.11E-02
121689,6.49E-03,2.14E-02
121690,6.49E-03,2.16E-02
121691,6.49E-03,2.19E-02
121692,6.49E-03,2.21E-02
121693,6.49E-03,2.24E-02
121694,6.49E-03,2.26E-02
121695,6.49E-03,2.29E-02
121696,6.49E-03,2.31E-02
121697,6.49E-03,2.34E-02
121698,6.49E-03,2.36E-02
121699,6.49E-03,2.39E-02
121700,6.49E-03,2.42E-02
121701,6.49E-03,2.45E-02
121702,6.48E-03,2.47E-02
121703,6.48E-03,2.50E-02
121704,6.48E-03,2.53E-02
121705,6.48E-03,2.56E-02
121706,6.48E-03,2.59E-02
121707,6.48E-03,2.62E-02
121708,6.48E-03,2.65E-02
121709,6.48E-03,2.68E-02
121710,6.48E-03,2.72E-02
121711,6.48E-03,2.75E-02
121712,6.48E-03,2.78E-02
121713,6.53E-03,9.52E-03
121714,6.53E-03,9.84E-03
121715,6.53E-03,1.02E-02
121716,6.52E-03,1.05E-02
121717,6.52E-03,1.08E-02
121718,6.52E-03,1.11E-02
121719,6.52E-03,1.14E-02
121720,6.52E-03,1.17E-02
121721,6.52E-03,1.19E-02
121722,6.52E-03,1.22E-02
121723,6.52E-03,1.25E-02
121724,6.52E-03,1.28E-02
121725,6.52E-03,1.30E-02
121726,6.52E-03,1.33E-02
121727,6.52E-03,1.36E-02
121728,6.52E-03,1.38E-02
121729,6.52E-03,1.41E-02
121730,6.51E-03,1.44E-02
121731,6.51E-03,1.46E-02
121732,6.51E-03,1.49E-02
121733,6.51E-03,1.51E-02
121734,6.51E-03,1.54E-02
121735,6.51E-03,1.56E-02
121736,6.51E-03,1.59E-02
121737,6.51E-03,1.61E-02
121738,6.51E-03,1.64E-02
121739,6.51E-03,1.66E-02
121740,6.51E-03,1.69E-02
121741,6.51E-03,1.71E-02
121742,6.51E-03,1.74E-02
121743,6.51E-03,1.76E-02
121744,6.50E-03,1.79E-02
121745,6.50E-03,1.81E-02
121746,6.50E-03,1.84E-02
121747,6.50E-03,1.86E-02
121748,6.50E-03,1.89E-02
121749,6.50E-03,1.91E-02
121750,6.50E-03,1.94E-02
121751,6.50E-03,1.96E-02
121752,6.50E-03,1.98E-02
121753,6.50E-03,2.01E-02
121754,6.50E-03,2.03E-02
121755,6.50E-03,2.06E-02
121756,6.50E-03,2.08E-02
121757,6.50E-03,2.11E-02
121758,6.49E-03,2.13E-02
121759,6.49E-03,2.16E-02
121760,6.49E-03,2.18E-02
121761,6.49E-03,2.21E-02
121762,6.49E-03,2.23E-02
121763,6.49E-03,2.26E-02
121764,6.49E-03,2.28E-02
121765,6.49E-03,2.31E-02
121766,6.49E-03,2.34E-02
121767,6.49E-03,2.36E-02
121768,6.49E-03,2.39E-02
121769,6.49E-03,2.41E-02
121770,6.49E-03,2.44E-02
121771,6.48E-03,2.47E-02
121772,6.48E-03,2.50E-02
121773,6.48E-03,2.53E-02
121774,6.48E-03,2.56E-02
121775,6.48E-03,2.59E-02
121776,6.48E-03,2.62E-02
121777,6.48E-03,2.65E-02
121778,6.48E-03,2.68E-02
121779,6.48E-03,2.72E-02
121780,6.48E-03,2.75E-02
121781,6.48E-03,2.79E-02
121782,6.53E-03,9.54E-03
121783,6.53E-03,9.85E-03
121784,6.53E-03,1.02E-02
121785,6.52E-03,1.05E-02
121786,6.52E-03,1.08E-02
121787,6.52E-03,1.11E-02
121788,6.52E-03,1.14E-02
121789,6.52E-03,1.17E-02
121790,6.52E-03,1.19E-02
121791,6.52E-03,1.22E-02
121792,6.52E-03,1.25E-02
121793,6.52E-03,1.28E-02
121794,6.52E-03,1.30E-02
121795,6.52E-03,1.33E-02
121796,6.52E-03,1.36E-02
121797,6.52E-03,1.38E-02
121798,6.52E-03,1.41E-02
121799,6.51E-03,1.44E-02
121800,6.51E-03,1.46E-02
121801,6.51E-03,1.49E-02
121802,6.51E-03,1.51E-02
121803,6.51E-03,1.54E-02
121804,6.51E-03,1.56E-02
121805,6.51E-03,1.59E-02
121806,6.51E-03,1.61E-02
121807,6.51E-03,1.64E-02
121808,6.51E-03,1.66E-02
121809,6.51E-03,1.69E-02
121810,6.51E-03,1.71E-02
121811,6.51E-03,1.74E-02
121812,6.51E-03,1.76E-02
121813,6.50E-03,1.79E-02
121814,6.50E-03,1.81E-02
121815,6.50E-03,1.84E-02
121816,6.50E-03,1.86E-02
121817,6.50E-03,1.88E-02
121818,6.50E-03,1.91E-02
121819,6.50E-03,1.93E-02
121820,6.50E-03,1.96E-02
121821,6.50E-03,1.98E-02
121822,6.50E-03,2.01E-02
121823,6.50E-03,2.03E-02
121824,6.50E-03,2.06E-02
121825,6.50E-03,2.08E-02
121826,6.50E-03,2.11E-02
121827,6.49E-03,2.13E-02
121828,6.49E-03,2.15E-02
121829,6.49E-03,2.18E-02
121830,6.49E-03,2.20E-02
121831,6.49E-03,2.23E-02
121832,6.49E-03,2.25E-02
121833,6.49E-03,2.28E-02
121834,6.49E-03,2.31E-02
121835,6.49E-03,2.33E-02
121836,6.49E-03,2.36E-02
121837,6.49E-03,2.38E-02
121838,6.49E-03,2.41E-02
121839,6.49E-03,2.44E-02
121840,6.48E-03,2.47E-02
121841,6.48E-03,2.49E-02
121842,6.48E-03,2.52E-02
121843,6.48E-03,2.55E-02
121844,6.48E-03,2.58E-02
121845,6.48E-03,2.62E-02
121846,6.48E-03,2.65E-02
121847,6.48E-03,2.68E-02
121848,6.48E-03,2.72E-02
121849,6.48E-03,2.75E-02
121850,6.48E-03,2.79E-02
121851,6.53E-03,9.56E-03
121852,6.53E-03,9.86E-03
121853,6.53E-03,1.02E-02
121854,6.52E-03,1.05E-02
121855,6.52E-03,1.08E-02
121856,6.52E-03,1.11E-02
121857,6.52E-03,1.14E-02
121858,6.52E-03,1.17E-02
121859,6.52E-03,1.20E-02
121860,6.52E-03,1.22E-02
121861,6.52E-03,1.25E-02
121862,6.52E-03,1.28E-02
121863,6.52E-03,1.31E-02
121864,6.52E-03,1.33E-02
121865,6.52E-03,1.36E-02
121866,6.52E-03,1.38E-02
121867,6.52E-03,1.41E-02
121868,6.51E-03,1.44E-02
121869,6.51E-03,1.46E-02
121870,6.51E-03,1.49E-02
121871,6.51E-03,1.51E-02
121872,6.51E-03,1.54E-02
121873,6.51E-03,1.56E-02
121874,6.51E-03,1.59E-02
121875,6.51E-03,1.61E-02
121876,6.51E-03,1.64E-02
121877,6.51E-03,1.66E-02
121878,6.51E-03,1.69E-02
121879,6.51E-03,1.71E-02
121880,6.51E-03,1.74E-02
121881,6.51E-03,1.76E-02
121882,6.50E-03,1.79E-02
121883,6.50E-03,1.81E-02
121884,6.50E-03,1.83E-02
121885,6.50E-03,1.86E-02
121886,6.50E-03,1.88E-02
121887,6.50E-03,1.91E-02
121888,6.50E-03,1.93E-02
121889,6.50E-03,1.96E-02
121890,6.50E-03,1.98E-02
121891,6.50E-03,2.00E-02
121892,6.50E-03,2.03E-02
121893,6.50E-03,2.05E-02
121894,6.50E-03,2.08E-02
121895,6.50E-03,2.10E-02
121896,6.49E-03,2.13E-02
121897,6.49E-03,2.15E-02
121898,6.49E-03,2.18E-02
121899,6.49E-03,2.20E-02
121900,6.49E-03,2.23E-02
121901,6.49E-03,2.25E-02
121902,6.49E-03,2.28E-02
121903,6.49E-03,2.30E-02
121904,6.49E-03,2.33E-02
121905,6.49E-03,2.35E-02
121906,6.49E-03,2.38E-02
121907,6.49E-03,2.41E-02
121908,6.49E-03,2.43E-02
121909,6.48E-03,2.46E-02
121910,6.48E-03,2.49E-02
121911,6.48E-03,2.52E-02
121912,6.48E-03,2.55E-02
121913,6.48E-03,2.58E-02
121914,6.48E-03,2.61E-02
121915,6.48E-03,2.64E-02
121916,6.48E-03,2.68E-02
121917,6.48E-03,2.71E-02
121918,6.48E-03,2.75E-02
121919,6.48E-03,2.79E-02
121920,6.53E-03,9.57E-03
121921,6.53E-03,9.88E-03
121922,6.53E-03,1.02E-02
121923,6.52E-03,1.05E-02
121924,6.52E-03,1.08E-02
121925,6.52E-03,1.11E-02
121926,6.52E-03,1.14E-02
121927,6.52E-03,1.17E-02
121928,6.52E-03,1.20E-02
121929,6.52E-03,1.22E-02
121930,6.52E-03,1.25E-02
121931,6.52E-03,1.28E-02
121932,6.52E-03,1.31E-02
121933,6.52E-03,1.33E-02
121934,6.52E-03,1.36E-02
121935,6.52E-03,1.38E-02
121936,6.52E-03,1.41E-02
121937,6.51E-03,1.44E-02
121938,6.51E-03,1.46E-02
121939,6.51E-03,1.49E-02
121940,6.51E-03,1.51E-02
121941,6.51E-03,1.54E-02
121942,6.51E-03,1.56E-02
121943,6.51E-03,1.59E-02
121944,6.51E-03,1.61E-02
121945,6.51E-03,1.64E-02
121946,6.51E-03,1.66E-02
121947,6.51E-03,1.69E-02
121948,6.51E-03,1.71E-02
121949,6.51E-03,1.73E-02
121950,6.51E-03,1.76E-02
121951,6.50E-03,1.78E-02
121952,6.50E-03,1.81E-02
121953,6.50E-03,1.83E-02
121954,6.50E-03,1.86E-02
121955,6.50E-03,1.88E-02
121956,6.50E-03,1.91E-02
121957,6.50E-03,1.93E-02
121958,6.50E-03,1.95E-02
121959,6.50E-03,1.98E-02
121960,6.50E-03,2.00E-02
121961,6.50E-03,2.03E-02
121962,6.50E-03,2.05E-02
121963,6.50E-03,2.08E-02
121964,6.50E-03,2.10E-02
121965,6.49E-03,2.12E-02
121966,6.49E-03,2.15E-02
121967,6.49E-03,2.17E-02
121968,6.49E-03,2.20E-02
121969,6.49E-03,2.22E-02
121970,6.49E-03,2.25E-02
121971,6.49E-03,2.27E-02
121972,6.49E-03,2.30E-02
121973,6.49E-03,2.32E-02
121974,6.49E-03,2.35E-02
121975,6.49E-03,2.38E-02
121976,6.49E-03,2.40E-02
121977,6.49E-03,2.43E-02
121978,6.48E-03,2.46E-02
121979,6.48E-03,2.49E-02
121980,6.48E-03,2.52E-02
121981,6.48E-03,2.55E-02
121982,6.48E-03,2.58E-02
121983,6.48E-03,2.61E-02
121984,6.48E-03,2.64E-02
121985,6.48E-03,2.67E-02
121986,6.48E-03,2.71E-02
121987,6.48E-03,2.75E-02
121988,6.48E-03,2.78E-02
121989,6.53E-03,9.59E-03
121990,6.53E-03,9.90E-03
121991,6.53E-03,1.02E-02
121992,6.52E-03,1.05E-02
121993,6.52E-03,1.08E-02
121994,6.52E-03,1.11E-02
121995,6.52E-03,1.14E-02
121996,6.52E-03,1.17E-02
121997,6.52E-03,1.20E-02
121998,6.52E-03,1.23E-02
121999,6.52E-03,1.25E-02
122000,6.52E-03,1.28E-02
122001,6.52E-03,1.31E-02
122002,6.52E-03,1.33E-02
122003,6.52E-03,1.36E-02
122004,6.52E-03,1.38E-02
122005,6.52E-03,1.41E-02
122006,6.51E-03,1.44E-02
122007,6.51E-03,1.46E-02
122008,6.51E-03,1.49E-02
122009,6.51E-03,1.51E-02
122010,6.51E-03,1.54E-02
122011,6.51E-03,1.56E-02
122012,6.51E-03,1.59E-02
122013,6.51E-03,1.61E-02
122014,6.51E-03,1.64E-02
122015,6.51E-03,1.66E-02
122016,6.51E-03,1.68E-02
122017,6.51E-03,1.71E-02
122018,6.51E-03,1.73E-02
122019,6.51E-03,1.76E-02
122020,6.50E-03,1.78E-02
122021,6.50E-03,1.81E-02
122022,6.50E-03,1.83E-02
122023,6.50E-03,1.86E-02
122024,6.50E-03,1.88E-02
122025,6.50E-03,1.90E-02
122026,6.50E-03,1.93E-02
122027,6.50E-03,1.95E-02
122028,6.50E-03,1.98E-02
122029,6.50E-03,2.00E-02
122030,6.50E-03,2.02E-02
122031,6.50E-03,2.05E-02
122032,6.50E-03,2.07E-02
122033,6.50E-03,2.10E-02
122034,6.49E-03,2.12E-02
122035,6.49E-03,2.15E-02
122036,6.49E-03,2.17E-02
122037,6.49E-03,2.20E-02
122038,6.49E-03,2.22E-02
122039,6.49E-03,2.25E-02
122040,6.49E-03,2.27E-02
122041,6.49E-03,2.30E-02
122042,6.49E-03,2.32E-02
122043,6.49E-03,2.35E-02
122044,6.49E-03,2.37E-02
122045,6.49E-03,2.40E-02
122046,6.49E-03,2.43E-02
122047,6.48E-03,2.45E-02
122048,6.48E-03,2.48E-02
122049,6.48E-03,2.51E-02
122050,6.48E-03,2.54E-02
122051,6.48E-03,2.57E-02
122052,6.48E-03,2.60E-02
122053,6.48E-03,2.64E-02
122054,6.48E-03,2.67E-02
122055,6.48E-03,2.71E-02
122056,6.48E-03,2.74E-02
122057,6.48E-03,2.78E-02
122058,6.53E-03,9.60E-03
122059,6.53E-03,9.92E-03
122060,6.53E-03,1.02E-02
122061,6.52E-03,1.05E-02
122062,6.52E-03,1.09E-02
122063,6.52E-03,1.11E-02
122064,6.52E-03,1.14E-02
122065,6.52E-03,1.17E-02
122066,6.52E-03,1.20E-02
122067,6.52E-03,1.23E-02
122068,6.52E-03,1.25E-02
122069,6.52E-03,1.28E-02
122070,6.52E-03,1.31E-02
122071,6.52E-03,1.33E-02
122072,6.52E-03,1.36E-02
122073,6.52E-03,1.38E-02
122074,6.52E-03,1.41E-02
122075,6.51E-03,1.44E-02
122076,6.51E-03,1.46E-02
122077,6.51E-03,1.49E-02
122078,6.51E-03,1.51E-02
122079,6.51E-03,1.54E-02
122080,6.51E-03,1.56E-02
122081,6.51E-03,1.58E-02
122082,6.51E-03,1.61E-02
122083,6.51E-03,1.63E-02
122084,6.51E-03,1.66E-02
122085,6.51E-03,1.68E-02
122086,6.51E-03,1.71E-02
122087,6.51E-03,1.73E-02
122088,6.51E-03,1.76E-02
122089,6.50E-03,1.78E-02
122090,6.50E-03,1.81E-02
122091,6.50E-03,1.83E-02
122092,6.50E-03,1.85E-02
122093,6.50E-03,1.88E-02
122094,6.50E-03,1.90E-02
122095,6.50E-03,1.93E-02
122096,6.50E-03,1.95E-02
122097,6.50E-03,1.97E-02
122098,6.50E-03,2.00E-02
122099,6.50E-03,2.02E-02
122100,6.50E-03,2.05E-02
122101,6.50E-03,2.07E-02
122102,6.50E-03,2.10E-02
122103,6.49E-03,2.12E-02
122104,6.49E-03,2.14E-02
122105,6.49E-03,2.17E-02
122106,6.49E-03,2.19E-02
122107,6.49E-03,2.22E-02
122108,6.49E-03,2.24E-02
122109,6.49E-03,2.27E-02
122110,6.49E-03,2.29E-02
122111,6.49E-03,2.32E-02
122112,6.49E-03,2.34E-02
122113,6.49E-03,2.37E-02
122114,6.49E-03,2.40E-02
122115,6.49E-03,2.42E-02
122116,6.48E-03,2.45E-02
122117,6.48E-03,2.48E-02
122118,6.48E-03,2.51E-02
122119,6.48E-03,2.54E-02
122120,6.48E-03,2.57E-02
122121,6.48E-03,2.60E-02
122122,6.48E-03,2.63E-02
122123,6.48E-03,2.67E-02
122124,6.48E-03,2.70E-02
122125,6.48E-03,2.74E-02
122126,6.48E-03,2.77E-02
122127,6.53E-03,9.63E-03
122128,6.53E-03,9.95E-03
122129,6.53E-03,1.03E-02
122130,6.52E-03,1.06E-02
122131,6.52E-03,1.09E-02
122132,6.52E-03,1.12E-02
122133,6.52E-03,1.15E-02
122134,6.52E-03,1.17E-02
122135,6.52E-03,1.20E-02
122136,6.52E-03,1.23E-02
122137,6.52E-03,1.26E-02
122138,6.52E-03,1.28E-02
122139,6.52E-03,1.31E-02
122140,6.52E-03,1.33E-02
122141,6.52E-03,1.36E-02
122142,6.52E-03,1.38E-02
122143,6.52E-03,1.41E-02
122144,6.51E-03,1.44E-02
122145,6.51E-03,1.46E-02
122146,6.51E-03,1.49E-02
122147,6.51E-03,1.51E-02
122148,6.51E-03,1.53E-02
122149,6.51E-03,1.56E-02
122150,6.51E-03,1.58E-02
122151,6.51E-03,1.61E-02
122152,6.51E-03,1.63E-02
122153,6.51E-03,1.66E-02
122154,6.51E-03,1.68E-02
122155,6.51E-03,1.71E-02
122156,6.51E-03,1.73E-02
122157,6.51E-03,1.76E-02
122158,6.50E-03,1.78E-02
122159,6.50E-03,1.80E-02
122160,6.50E-03,1.83E-02
122161,6.50E-03,1.85E-02
122162,6.50E-03,1.88E-02
122163,6.50E-03,1.90E-02
122164,6.50E-03,1.92E-02
122165,6.50E-03,1.95E-02
122166,6.50E-03,1.97E-02
122167,6.50E-03,2.00E-02
122168,6.50E-03,2.02E-02
122169,6.50E-03,2.04E-02
122170,6.50E-03,2.07E-02
122171,6.50E-03,2.09E-02
122172,6.49E-03,2.12E-02
122173,6.49E-03,2.14E-02
122174,6.49E-03,2.17E-02
122175,6.49E-03,2.19E-02
122176,6.49E-03,2.21E-02
122177,6.49E-03,2.24E-02
122178,6.49E-03,2.26E-02
122179,6.49E-03,2.29E-02
122180,6.49E-03,2.31E-02
122181,6.49E-03,2.34E-02
122182,6.49E-03,2.37E-02
122183,6.49E-03,2.39E-02
122184,6.49E-03,2.42E-02
122185,6.48E-03,2.45E-02
122186,6.48E-03,2.47E-02
122187,6.48E-03,2.50E-02
122188,6.48E-03,2.53E-02
122189,6.48E-03,2.56E-02
122190,6.48E-03,2.59E-02
122191,6.48E-03,2.63E-02
122192,6.48E-03,2.66E-02
122193,6.48E-03,2.69E-02
122194,6.48E-03,2.73E-02
122195,6.48E-03,2.77E-02
122196,6.53E-03,9.67E-03
122197,6.53E-03,9.99E-03
122198,6.53E-03,1.03E-02
122199,6.52E-03,1.06E-02
122200,6.52E-03,1.09E-02
122201,6.52E-03,1.12E-02
122202,6.52E-03,1.15E-02
122203,6.52E-03,1.18E-02
122204,6.52E-03,1.20E-02
122205,6.52E-03,1.23E-02
122206,6.52E-03,1.26E-02
122207,6.52E-03,1.28E-02
122208,6.52E-03,1.31E-02
122209,6.52E-03,1.33E-02
122210,6.52E-03,1.36E-02
122211,6.52E-03,1.38E-02
122212,6.52E-03,1.41E-02
122213,6.51E-03,1.43E-02
122214,6.51E-03,1.46E-02
122215,6.51E-03,1.48E-02
122216,6.51E-03,1.51E-02
122217,6.51E-03,1.53E-02
122218,6.51E-03,1.56E-02
122219,6.51E-03,1.58E-02
122220,6.51E-03,1.61E-02
122221,6.51E-03,1.63E-02
122222,6.51E-03,1.66E-02
122223,6.51E-03,1.68E-02
122224,6.51E-03,1.71E-02
122225,6.51E-03,1.73E-02
122226,6.51E-03,1.75E-02
122227,6.50E-03,1.78E-02
122228,6.50E-03,1.80E-02
122229,6.50E-03,1.83E-02
122230,6.50E-03,1.85E-02
122231,6.50E-03,1.87E-02
122232,6.50E-03,1.90E-02
122233,6.50E-03,1.92E-02
122234,6.50E-03,1.95E-02
122235,6.50E-03,1.97E-02
122236,6.50E-03,1.99E-02
122237,6.50E-03,2.02E-02
122238,6.50E-03,2.04E-02
122239,6.50E-03,2.07E-02
122240,6.50E-03,2.09E-02
122241,6.49E-03,2.12E-02
122242,6.49E-03,2.14E-02
122243,6.49E-03,2.16E-02
122244,6.49E-03,2.19E-02
122245,6.49E-03,2.21E-02
122246,6.49E-03,2.24E-02
122247,6.49E-03,2.26E-02
122248,6.49E-03,2.29E-02
122249,6.49E-03,2.31E-02
122250,6.49E-03,2.34E-02
122251,6.49E-03,2.36E-02
122252,6.49E-03,2.39E-02
122253,6.49E-03,2.42E-02
122254,6.48E-03,2.44E-02
122255,6.48E-03,2.47E-02
122256,6.48E-03,2.50E-02
122257,6.48E-03,2.53E-02
122258,6.48E-03,2.56E-02
122259,6.48E-03,2.59E-02
122260,6.48E-03,2.62E-02
122261,6.48E-03,2.65E-02
122262,6.48E-03,2.69E-02
122263,6.48E-03,2.73E-02
122264,6.48E-03,2.76E-02
122265,6.53E-03,9.72E-03
122266,6.53E-03,1.00E-02
122267,6.53E-03,1.03E-02
122268,6.52E-03,1.06E-02
122269,6.52E-03,1.09E-02
122270,6.52E-03,1.12E-02
122271,6.52E-03,1.15E-02
122272,6.52E-03,1.18E-02
122273,6.52E-03,1.20E-02
122274,6.52E-03,1.23E-02
122275,6.52E-03,1.26E-02
122276,6.52E-03,1.28E-02
122277,6.52E-03,1.31E-02
122278,6.52E-03,1.33E-02
122279,6.52E-03,1.36E-02
122280,6.52E-03,1.38E-02
122281,6.52E-03,1.41E-02
122282,6.51E-03,1.43E-02
122283,6.51E-03,1.46E-02
122284,6.51E-03,1.48E-02
122285,6.51E-03,1.51E-02
122286,6.51E-03,1.53E-02
122287,6.51E-03,1.56E-02
122288,6.51E-03,1.58E-02
122289,6.51E-03,1.61E-02
122290,6.51E-03,1.63E-02
122291,6.51E-03,1.66E-02
122292,6.51E-03,1.68E-02
122293,6.51E-03,1.70E-02
122294,6.51E-03,1.73E-02
122295,6.51E-03,1.75E-02
122296,6.50E-03,1.78E-02
122297,6.50E-03,1.80E-02
122298,6.50E-03,1.82E-02
122299,6.50E-03,1.85E-02
122300,6.50E-03,1.87E-02
122301,6.50E-03,1.90E-02
122302,6.50E-03,1.92E-02
122303,6.50E-03,1.95E-02
122304,6.50E-03,1.97E-02
122305,6.50E-03,1.99E-02
122306,6.50E-03,2.02E-02
122307,6.50E-03,2.04E-02
122308,6.50E-03,2.06E-02
122309,6.50E-03,2.09E-02
122310,6.49E-03,2.11E-02
122311,6.49E-03,2.14E-02
122312,6.49E-03,2.16E-02
122313,6.49E-03,2.19E-02
122314,6.49E-03,2.21E-02
122315,6.49E-03,2.23E-02
122316,6.49E-03,2.26E-02
122317,6.49E-03,2.28E-02
122318,6.49E-03,2.31E-02
122319,6.49E-03,2.33E-02
122320,6.49E-03,2.36E-02
122321,6.49E-03,2.39E-02
122322,6.49E-03,2.41E-02
122323,6.48E-03,2.44E-02
122324,6.48E-03,2.47E-02
122325,6.48E-03,2.49E-02
122326,6.48E-03,2.52E-02
122327,6.48E-03,2.55E-02
122328,6.48E-03,2.58E-02
122329,6.48E-03,2.62E-02
122330,6.48E-03,2.65E-02
122331,6.48E-03,2.68E-02
122332,6.48E-03,2.72E-02
122333,6.48E-03,2.76E-02
122334,6.53E-03,9.76E-03
122335,6.53E-03,1.01E-02
122336,6.53E-03,1.04E-02
122337,6.52E-03,1.07E-02
122338,6.52E-03,1.10E-02
122339,6.52E-03,1.13E-02
122340,6.52E-03,1.15E-02
122341,6.52E-03,1.18E-02
122342,6.52E-03,1.21E-02
122343,6.52E-03,1.23E-02
122344,6.52E-03,1.26E-02
122345,6.52E-03,1.28E-02
122346,6.52E-03,1.31E-02
122347,6.52E-03,1.33E-02
122348,6.52E-03,1.36E-02
122349,6.52E-03,1.38E-02
122350,6.52E-03,1.41E-02
122351,6.51E-03,1.43E-02
122352,6.51E-03,1.46E-02
122353,6.51E-03,1.48E-02
122354,6.51E-03,1.51E-02
122355,6.51E-03,1.53E-02
122356,6.51E-03,1.56E-02
122357,6.51E-03,1.58E-02
122358,6.51E-03,1.61E-02
122359,6.51E-03,1.63E-02
122360,6.51E-03,1.65E-02
122361,6.51E-03,1.68E-02
122362,6.51E-03,1.70E-02
122363,6.51E-03,1.73E-02
122364,6.51E-03,1.75E-02
122365,6.50E-03,1.78E-02
122366,6.50E-03,1.80E-02
122367,6.50E-03,1.82E-02
122368,6.50E-03,1.85E-02
122369,6.50E-03,1.87E-02
122370,6.50E-03,1.90E-02
122371,6.50E-03,1.92E-02
122372,6.50E-03,1.94E-02
122373,6.50E-03,1.97E-02
122374,6.50E-03,1.99E-02
122375,6.50E-03,2.02E-02
122376,6.50E-03,2.04E-02
122377,6.50E-03,2.06E-02
122378,6.50E-03,2.09E-02
122379,6.49E-03,2.11E-02
122380,6.49E-03,2.14E-02
122381,6.49E-03,2.16E-02
122382,6.49E-03,2.18E-02
122383,6.49E-03,2.21E-02
122384,6.49E-03,2.23E-02
122385,6.49E-03,2.26E-02
122386,6.49E-03,2.28E-02
122387,6.49E-03,2.31E-02
122388,6.49E-03,2.33E-02
122389,6.49E-03,2.36E-02
122390,6.49E-03,2.38E-02
122391,6.49E-03,2.41E-02
122392,6.48E-03,2.43E-02
122393,6.48E-03,2.46E-02
122394,6.48E-03,2.49E-02
122395,6.48E-03,2.52E-02
122396,6.48E-03,2.55E-02
122397,6.48E-03,2.58E-02
122398,6.48E-03,2.61E-02
122399,6.48E-03,2.64E-02
122400,6.48E-03,2.68E-02
122401,6.48E-03,2.71E-02
122402,6.48E-03,2.75E-02
122403,6.53E-03,9.81E-03
122404,6.53E-03,1.01E-02
122405,6.53E-03,1.04E-02
122406,6.52E-03,1.07E-02
122407,6.52E-03,1.10E-02
122408,6.52E-03,1.13E-02
122409,6.52E-03,1.16E-02
122410,6.52E-03,1.18E-02
122411,6.52E-03,1.21E-02
122412,6.52E-03,1.23E-02
122413,6.52E-03,1.26E-02
122414,6.52E-03,1.29E-02
122415,6.52E-03,1.31E-02
122416,6.52E-03,1.34E-02
122417,6.52E-03,1.36E-02
122418,6.52E-03,1.38E-02
122419,6.52E-03,1.41E-02
122420,6.51E-03,1.43E-02
122421,6.51E-03,1.46E-02
122422,6.51E-03,1.48E-02
122423,6.51E-03,1.51E-02
122424,6.51E-03,1.53E-02
122425,6.51E-03,1.56E-02
122426,6.51E-03,1.58E-02
122427,6.51E-03,1.60E-02
122428,6.51E-03,1.63E-02
122429,6.51E-03,1.65E-02
122430,6.51E-03,1.68E-02
122431,6.51E-03,1.70E-02
122432,6.51E-03,1.73E-02
122433,6.51E-03,1.75E-02
122434,6.50E-03,1.77E-02
122435,6.50E-03,1.80E-02
122436,6.50E-03,1.82E-02
122437,6.50E-03,1.85E-02
122438,6.50E-03,1.87E-02
122439,6.50E-03,1.89E-02
122440,6.50E-03,1.92E-02
122441,6.50E-03,1.94E-02
122442,6.50E-03,1.97E-02
122443,6.50E-03,1.99E-02
122444,6.50E-03,2.01E-02
122445,6.50E-03,2.04E-02
122446,6.50E-03,2.06E-02
122447,6.50E-03,2.09E-02
122448,6.49E-03,2.11E-02
122449,6.49E-03,2.13E-02
122450,6.49E-03,2.16E-02
122451,6.49E-03,2.18E-02
122452,6.49E-03,2.21E-02
122453,6.49E-03,2.23E-02
122454,6.49E-03,2.25E-02
122455,6.49E-03,2.28E-02
122456,6.49E-03,2.30E-02
122457,6.49E-03,2.33E-02
122458,6.49E-03,2.35E-02
122459,6.49E-03,2.38E-02
122460,6.49E-03,2.40E-02
122461,6.48E-03,2.43E-02
122462,6.48E-03,2.46E-02
122463,6.48E-03,2.49E-02
122464,6.48E-03,2.51E-02
122465,6.48E-03,2.54E-02
122466,6.48E-03,2.57E-02
122467,6.48E-03,2.60E-02
122468,6.48E-03,2.64E-02
122469,6.48E-03,2.67E-02
122470,6.48E-03,2.71E-02
122471,6.48E-03,2.75E-02
122472,6.53E-03,9.87E-03
122473,6.53E-03,1.02E-02
122474,6.53E-03,1.05E-02
122475,6.52E-03,1.08E-02
122476,6.52E-03,1.10E-02
122477,6.52E-03,1.13E-02
122478,6.52E-03,1.16E-02
122479,6.52E-03,1.18E-02
122480,6.52E-03,1.21E-02
122481,6.52E-03,1.24E-02
122482,6.52E-03,1.26E-02
122483,6.52E-03,1.29E-02
122484,6.52E-03,1.31E-02
122485,6.52E-03,1.34E-02
122486,6.52E-03,1.36E-02
122487,6.52E-03,1.38E-02
122488,6.52E-03,1.41E-02
122489,6.51E-03,1.43E-02
122490,6.51E-03,1.46E-02
122491,6.51E-03,1.48E-02
122492,6.51E-03,1.51E-02
122493,6.51E-03,1.53E-02
122494,6.51E-03,1.56E-02
122495,6.51E-03,1.58E-02
122496,6.51E-03,1.60E-02
122497,6.51E-03,1.63E-02
122498,6.51E-03,1.65E-02
122499,6.51E-03,1.68E-02
122500,6.51E-03,1.70E-02
122501,6.51E-03,1.72E-02
122502,6.51E-03,1.75E-02
122503,6.50E-03,1.77E-02
122504,6.50E-03,1.80E-02
122505,6.50E-03,1.82E-02
122506,6.50E-03,1.84E-02
122507,6.50E-03,1.87E-02
122508,6.50E-03,1.89E-02
122509,6.50E-03,1.92E-02
122510,6.50E-03,1.94E-02
122511,6.50E-03,1.96E-02
122512,6.50E-03,1.99E-02
122513,6.50E-03,2.01E-02
122514,6.50E-03,2.04E-02
122515,6.50E-03,2.06E-02
122516,6.50E-03,2.08E-02
122517,6.49E-03,2.11E-02
122518,6.49E-03,2.13E-02
122519,6.49E-03,2.16E-02
122520,6.49E-03,2.18E-02
122521,6.49E-03,2.20E-02
122522,6.49E-03,2.23E-02
122523,6.49E-03,2.25E-02
122524,6.49E-03,2.28E-02
122525,6.49E-03,2.30E-02
122526,6.49E-03,2.33E-02
122527,6.49E-03,2.35E-02
122528,6.49E-03,2.38E-02
122529,6.49E-03,2.40E-02
122530,6.48E-03,2.43E-02
122531,6.48E-03,2.45E-02
122532,6.48E-03,2.48E-02
122533,6.48E-03,2.51E-02
122534,6.48E-03,2.54E-02
122535,6.48E-03,2.57E-02
122536,6.48E-03,2.60E-02
122537,6.48E-03,2.63E-02
122538,6.48E-03,2.67E-02
122539,6.48E-03,2.70E-02
122540,6.48E-03,2.74E-02
122541,6.53E-03,9.92E-03
122542,6.53E-03,1.02E-02
122543,6.53E-03,1.05E-02
122544,6.52E-03,1.08E-02
122545,6.52E-03,1.11E-02
122546,6.52E-03,1.13E-02
122547,6.52E-03,1.16E-02
122548,6.52E-03,1.19E-02
122549,6.52E-03,1.21E-02
122550,6.52E-03,1.24E-02
122551,6.52E-03,1.26E-02
122552,6.52E-03,1.29E-02
122553,6.52E-03,1.31E-02
122554,6.52E-03,1.34E-02
122555,6.52E-03,1.36E-02
122556,6.52E-03,1.38E-02
122557,6.52E-03,1.41E-02
122558,6.51E-03,1.43E-02
122559,6.51E-03,1.46E-02
122560,6.51E-03,1.48E-02
122561,6.51E-03,1.51E-02
122562,6.51E-03,1.53E-02
122563,6.51E-03,1.55E-02
122564,6.51E-03,1.58E-02
122565,6.51E-03,1.60E-02
122566,6.51E-03,1.63E-02
122567,6.51E-03,1.65E-02
122568,6.51E-03,1.68E-02
122569,6.51E-03,1.70E-02
122570,6.51E-03,1.72E-02
122571,6.51E-03,1.75E-02
122572,6.50E-03,1.77E-02
122573,6.50E-03,1.80E-02
122574,6.50E-03,1.82E-02
122575,6.50E-03,1.84E-02
122576,6.50E-03,1.87E-02
122577,6.50E-03,1.89E-02
122578,6.50E-03,1.92E-02
122579,6.50E-03,1.94E-02
122580,6.50E-03,1.96E-02
122581,6.50E-03,1.99E-02
122582,6.50E-03,2.01E-02
122583,6.50E-03,2.03E-02
122584,6.50E-03,2.06E-02
122585,6.50E-03,2.08E-02
122586,6.49E-03,2.11E-02
122587,6.49E-03,2.13E-02
122588,6.49E-03,2.15E-02
122589,6.49E-03,2.18E-02
122590,6.49E-03,2.20E-02
122591,6.49E-03,2.23E-02
122592,6.49E-03,2.25E-02
122593,6.49E-03,2.27E-02
122594,6.49E-03,2.30E-02
122595,6.49E-03,2.32E-02
122596,6.49E-03,2.35E-02
122597,6.49E-03,2.37E-02
122598,6.49E-03,2.40E-02
122599,6.48E-03,2.42E-02
122600,6.48E-03,2.45E-02
122601,6.48E-03,2.48E-02
122602,6.48E-03,2.51E-02
122603,6.48E-03,2.53E-02
122604,6.48E-03,2.56E-02
122605,6.48E-03,2.59E-02
122606,6.48E-03,2.63E-02
122607,6.48E-03,2.66E-02
122608,6.48E-03,2.70E-02
122609,6.48E-03,2.74E-02
122610,6.53E-03,9.98E-03
122611,6.53E-03,1.03E-02
122612,6.53E-03,1.06E-02
122613,6.52E-03,1.09E-02
122614,6.52E-03,1.11E-02
122615,6.52E-03,1.14E-02
122616,6.52E-03,1.16E-02
122617,6.52E-03,1.19E-02
122618,6.52E-03,1.21E-02
122619,6.52E-03,1.24E-02
122620,6.52E-03,1.26E-02
122621,6.52E-03,1.29E-02
122622,6.52E-03,1.31E-02
122623,6.52E-03,1.34E-02
122624,6.52E-03,1.36E-02
122625,6.52E-03,1.38E-02
122626,6.52E-03,1.41E-02
122627,6.51E-03,1.43E-02
122628,6.51E-03,1.46E-02
122629,6.51E-03,1.48E-02
122630,6.51E-03,1.50E-02
122631,6.51E-03,1.53E-02
122632,6.51E-03,1.55E-02
122633,6.51E-03,1.58E-02
122634,6.51E-03,1.60E-02
122635,6.51E-03,1.63E-02
122636,6.51E-03,1.65E-02
122637,6.51E-03,1.67E-02
122638,6.51E-03,1.70E-02
122639,6.51E-03,1.72E-02
122640,6.51E-03,1.75E-02
122641,6.50E-03,1.77E-02
122642,6.50E-03,1.79E-02
122643,6.50E-03,1.82E-02
122644,6.50E-03,1.84E-02
122645,6.50E-03,1.87E-02
122646,6.50E-03,1.89E-02
122647,6.50E-03,1.91E-02
122648,6.50E-03,1.94E-02
122649,6.50E-03,1.96E-02
122650,6.50E-03,1.99E-02
122651,6.50E-03,2.01E-02
122652,6.50E-03,2.03E-02
122653,6.50E-03,2.06E-02
122654,6.50E-03,2.08E-02
122655,6.49E-03,2.10E-02
122656,6.49E-03,2.13E-02
122657,6.49E-03,2.15E-02
122658,6.49E-03,2.18E-02
122659,6.49E-03,2.20E-02
122660,6.49E-03,2.22E-02
122661,6.49E-03,2.25E-02
122662,6.49E-03,2.27E-02
122663,6.49E-03,2.30E-02
122664,6.49E-03,2.32E-02
122665,6.49E-03,2.35E-02
122666,6.49E-03,2.37E-02
122667,6.49E-03,2.40E-02
122668,6.48E-03,2.42E-02
122669,6.48E-03,2.45E-02
122670,6.48E-03,2.48E-02
122671,6.48E-03,2.50E-02
122672,6.48E-03,2.53E-02
122673,6.48E-03,2.56E-02
122674,6.48E-03,2.59E-02
122675,6.48E-03,2.62E-02
122676,6.48E-03,2.66E-02
122677,6.48E-03,2.69E-02
122678,6.48E-03,2.73E-02
122679,6.53E-03,1.00E-02
122680,6.53E-03,1.03E-02
122681,6.53E-03,1.06E-02
122682,6.52E-03,1.09E-02
122683,6.52E-03,1.12E-02
122684,6.52E-03,1.14E-02
122685,6.52E-03,1.17E-02
122686,6.52E-03,1.19E-02
122687,6.52E-03,1.21E-02
122688,6.52E-03,1.24E-02
122689,6.52E-03,1.26E-02
122690,6.52E-03,1.29E-02
122691,6.52E-03,1.31E-02
122692,6.52E-03,1.34E-02
122693,6.52E-03,1.36E-02
122694,6.52E-03,1.38E-02
122695,6.52E-03,1.41E-02
122696,6.51E-03,1.43E-02
122697,6.51E-03,1.46E-02
122698,6.51E-03,1.48E-02
122699,6.51E-03,1.50E-02
122700,6.51E-03,1.53E-02
122701,6.51E-03,1.55E-02
122702,6.51E-03,1.58E-02
122703,6.51E-03,1.60E-02
122704,6.51E-03,1.62E-02
122705,6.51E-03,1.65E-02
122706,6.51E-03,1.67E-02
122707,6.51E-03,1.70E-02
122708,6.51E-03,1.72E-02
122709,6.51E-03,1.75E-02
122710,6.50E-03,1.77E-02
122711,6.50E-03,1.79E-02
122712,6.50E-03,1.82E-02
122713,6.50E-03,1.84E-02
122714,6.50E-03,1.87E-02
122715,6.50E-03,1.89E-02
122716,6.50E-03,1.91E-02
122717,6.50E-03,1.94E-02
122718,6.50E-03,1.96E-02
122719,6.50E-03,1.98E-02
122720,6.50E-03,2.01E-02
122721,6.50E-03,2.03E-02
122722,6.50E-03,2.06E-02
122723,6.50E-03,2.08E-02
122724,6.49E-03,2.10E-02
122725,6.49E-03,2.13E-02
122726,6.49E-03,2.15E-02
122727,6.49E-03,2.17E-02
122728,6.49E-03,2.20E-02
122729,6.49E-03,2.22E-02
122730,6.49E-03,2.25E-02
122731,6.49E-03,2.27E-02
122732,6.49E-03,2.29E-02
122733,6.49E-03,2.32E-02
122734,6.49E-03,2.34E-02
122735,6.49E-03,2.37E-02
122736,6.49E-03,2.39E-02
122737,6.48E-03,2.42E-02
122738,6.48E-03,2.45E-02
122739,6.48E-03,2.47E-02
122740,6.48E-03,2.50E-02
122741,6.48E-03,2.53E-02
122742,6.48E-03,2.56E-02
122743,6.48E-03,2.59E-02
122744,6.48E-03,2.62E-02
122745,6.48E-03,2.65E-02
122746,6.48E-03,2.69E-02
122747,6.48E-03,2.73E-02
122748,6.53E-03,1.01E-02
122749,6.53E-03,1.04E-02
122750,6.53E-03,1.07E-02
122751,6.52E-03,1.09E-02
122752,6.52E-03,1.12E-02
122753,6.52E-03,1.14E-02
122754,6.52E-03,1.17E-02
122755,6.52E-03,1.19E-02
122756,6.52E-03,1.22E-02
122757,6.52E-03,1.24E-02
122758,6.52E-03,1.26E-02
122759,6.52E-03,1.29E-02
122760,6.52E-03,1.31E-02
122761,6.52E-03,1.33E-02
122762,6.52E-03,1.36E-02
122763,6.52E-03,1.38E-02
122764,6.52E-03,1.41E-02
122765,6.51E-03,1.43E-02
122766,6.51E-03,1.45E-02
122767,6.51E-03,1.48E-02
122768,6.51E-03,1.50E-02
122769,6.51E-03,1.53E-02
122770,6.51E-03,1.55E-02
122771,6.51E-03,1.58E-02
122772,6.51E-03,1.60E-02
122773,6.51E-03,1.62E-02
122774,6.51E-03,1.65E-02
122775,6.51E-03,1.67E-02
122776,6.51E-03,1.70E-02
122777,6.51E-03,1.72E-02
122778,6.51E-03,1.74E-02
122779,6.50E-03,1.77E-02
122780,6.50E-03,1.79E-02
122781,6.50E-03,1.82E-02
122782,6.50E-03,1.84E-02
122783,6.50E-03,1.86E-02
122784,6.50E-03,1.89E-02
122785,6.50E-03,1.91E-02
122786,6.50E-03,1.94E-02
122787,6.50E-03,1.96E-02
122788,6.50E-03,1.98E-02
122789,6.50E-03,2.01E-02
122790,6.50E-03,2.03E-02
122791,6.50E-03,2.06E-02
122792,6.50E-03,2.08E-02
122793,6.49E-03,2.10E-02
122794,6.49E-03,2.13E-02
122795,6.49E-03,2.15E-02
122796,6.49E-03,2.17E-02
122797,6.49E-03,2.20E-02
122798,6.49E-03,2.22E-02
122799,6.49E-03,2.25E-02
122800,6.49E-03,2.27E-02
122801,6.49E-03,2.29E-02
122802,6.49E-03,2.32E-02
122803,6.49E-03,2.34E-02
122804,6.49E-03,2.37E-02
122805,6.49E-03,2.39E-02
122806,6.48E-03,2.42E-02
122807,6.48E-03,2.44E-02
122808,6.48E-03,2.47E-02
122809,6.48E-03,2.50E-02
122810,6.48E-03,2.53E-02
122811,6.48E-03,2.55E-02
122812,6.48E-03,2.58E-02
122813,6.48E-03,2.62E-02
122814,6.48E-03,2.65E-02
122815,6.48E-03,2.69E-02
122816,6.48E-03,2.73E-02
122817,6.53E-03,1.02E-02
122818,6.53E-03,1.04E-02
122819,6.53E-03,1.07E-02
122820,6.52E-03,1.10E-02
122821,6.52E-03,1.12E-02
122822,6.52E-03,1.15E-02
122823,6.52E-03,1.17E-02
122824,6.52E-03,1.19E-02
122825,6.52E-03,1.22E-02
122826,6.52E-03,1.24E-02
122827,6.52E-03,1.26E-02
122828,6.52E-03,1.29E-02
122829,6.52E-03,1.31E-02
122830,6.52E-03,1.33E-02
122831,6.52E-03,1.36E-02
122832,6.52E-03,1.38E-02
122833,6.52E-03,1.41E-02
122834,6.51E-03,1.43E-02
122835,6.51E-03,1.45E-02
122836,6.51E-03,1.48E-02
122837,6.51E-03,1.50E-02
122838,6.51E-03,1.53E-02
122839,6.51E-03,1.55E-02
122840,6.51E-03,1.57E-02
122841,6.51E-03,1.60E-02
122842,6.51E-03,1.62E-02
122843,6.51E-03,1.65E-02
122844,6.51E-03,1.67E-02
122845,6.51E-03,1.70E-02
122846,6.51E-03,1.72E-02
122847,6.51E-03,1.74E-02
122848,6.50E-03,1.77E-02
122849,6.50E-03,1.79E-02
122850,6.50E-03,1.82E-02
122851,6.50E-03,1.84E-02
122852,6.50E-03,1.86E-02
122853,6.50E-03,1.89E-02
122854,6.50E-03,1.91E-02
122855,6.50E-03,1.94E-02
122856,6.50E-03,1.96E-02
122857,6.50E-03,1.98E-02
122858,6.50E-03,2.01E-02
122859,6.50E-03,2.03E-02
122860,6.50E-03,2.05E-02
122861,6.50E-03,2.08E-02
122862,6.49E-03,2.10E-02
122863,6.49E-03,2.13E-02
122864,6.49E-03,2.15E-02
122865,6.49E-03,2.17E-02
122866,6.49E-03,2.20E-02
122867,6.49E-03,2.22E-02
122868,6.49E-03,2.24E-02
122869,6.49E-03,2.27E-02
122870,6.49E-03,2.29E-02
122871,6.49E-03,2.32E-02
122872,6.49E-03,2.34E-02
122873,6.49E-03,2.37E-02
122874,6.49E-03,2.39E-02
122875,6.48E-03,2.42E-02
122876,6.48E-03,2.44E-02
122877,6.48E-03,2.47E-02
122878,6.48E-03,2.50E-02
122879,6.48E-03,2.52E-02
122880,6.48E-03,2.55E-02
122881,6.48E-03,2.58E-02
122882,6.48E-03,2.61E-02
122883,6.48E-03,2.65E-02
122884,6.48E-03,2.68E-02
122885,6.48E-03,2.72E-02
122886,6.53E-03,1.02E-02
122887,6.53E-03,1.05E-02
122888,6.53E-03,1.07E-02
122889,6.52E-03,1.10E-02
122890,6.52E-03,1.12E-02
122891,6.52E-03,1.15E-02
122892,6.52E-03,1.17E-02
122893,6.52E-03,1.19E-02
122894,6.52E-03,1.22E-02
122895,6.52E-03,1.24E-02
122896,6.52E-03,1.26E-02
122897,6.52E-03,1.29E-02
122898,6.52E-03,1.31E-02
122899,6.52E-03,1.33E-02
122900,6.52E-03,1.36E-02
122901,6.52E-03,1.38E-02
122902,6.52E-03,1.41E-02
122903,6.51E-03,1.43E-02
122904,6.51E-03,1.45E-02
122905,6.51E-03,1.48E-02
122906,6.51E-03,1.50E-02
122907,6.51E-03,1.53E-02
122908,6.51E-03,1.55E-02
122909,6.51E-03,1.57E-02
122910,6.51E-03,1.60E-02
122911,6.51E-03,1.62E-02
122912,6.51E-03,1.65E-02
122913,6.51E-03,1.67E-02
122914,6.51E-03,1.69E-02
122915,6.51E-03,1.72E-02
122916,6.51E-03,1.74E-02
122917,6.50E-03,1.77E-02
122918,6.50E-03,1.79E-02
122919,6.50E-03,1.82E-02
122920,6.50E-03,1.84E-02
122921,6.50E-03,1.86E-02
122922,6.50E-03,1.89E-02
122923,6.50E-03,1.91E-02
122924,6.50E-03,1.93E-02
122925,6.50E-03,1.96E-02
122926,6.50E-03,1.98E-02
122927,6.50E-03,2.01E-02
122928,6.50E-03,2.03E-02
122929,6.50E-03,2.05E-02
122930,6.50E-03,2.08E-02
122931,6.49E-03,2.10E-02
122932,6.49E-03,2.12E-02
122933,6.49E-03,2.15E-02
122934,6.49E-03,2.17E-02
122935,6.49E-03,2.20E-02
122936,6.49E-03,2.22E-02
122937,6.49E-03,2.24E-02
122938,6.49E-03,2.27E-02
122939,6.49E-03,2.29E-02
122940,6.49E-03,2.32E-02
122941,6.49E-03,2.34E-02
122942,6.49E-03,2.36E-02
122943,6.49E-03,2.39E-02
122944,6.48E-03,2.42E-02
122945,6.48E-03,2.44E-02
122946,6.48E-03,2.47E-02
122947,6.48E-03,2.49E-02
122948,6.48E-03,2.52E-02
122949,6.48E-03,2.55E-02
122950,6.48E-03,2.58E-02
122951,6.48E-03,2.61E-02
122952,6.48E-03,2.65E-02
122953,6.48E-03,2.68E-02
122954,6.48E-03,2.72E-02
122955,6.53E-03,1.03E-02
122956,6.53E-03,1.05E-02
122957,6.53E-03,1.08E-02
122958,6.52E-03,1.10E-02
122959,6.52E-03,1.13E-02
122960,6.52E-03,1.15E-02
122961,6.52E-03,1.17E-02
122962,6.52E-03,1.19E-02
122963,6.52E-03,1.22E-02
122964,6.52E-03,1.24E-02
122965,6.52E-03,1.26E-02
122966,6.52E-03,1.29E-02
122967,6.52E-03,1.31E-02
122968,6.52E-03,1.33E-02
122969,6.52E-03,1.36E-02
122970,6.52E-03,1.38E-02
122971,6.52E-03,1.40E-02
122972,6.51E-03,1.43E-02
122973,6.51E-03,1.45E-02
122974,6.51E-03,1.48E-02
122975,6.51E-03,1.50E-02
122976,6.51E-03,1.52E-02
122977,6.51E-03,1.55E-02
122978,6.51E-03,1.57E-02
122979,6.51E-03,1.60E-02
122980,6.51E-03,1.62E-02
122981,6.51E-03,1.65E-02
122982,6.51E-03,1.67E-02
122983,6.51E-03,1.69E-02
122984,6.51E-03,1.72E-02
122985,6.51E-03,1.74E-02
122986,6.50E-03,1.77E-02
122987,6.50E-03,1.79E-02
122988,6.50E-03,1.81E-02
122989,6.50E-03,1.84E-02
122990,6.50E-03,1.86E-02
122991,6.50E-03,1.89E-02
122992,6.50E-03,1.91E-02
122993,6.50E-03,1.93E-02
122994,6.50E-03,1.96E-02
122995,6.50E-03,1.98E-02
122996,6.50E-03,2.01E-02
122997,6.50E-03,2.03E-02
122998,6.50E-03,2.05E-02
122999,6.50E-03,2.08E-02
123000,6.49E-03,2.10E-02
123001,6.49E-03,2.12E-02
123002,6.49E-03,2.15E-02
123003,6.49E-03,2.17E-02
123004,6.49E-03,2.20E-02
123005,6.49E-03,2.22E-02
123006,6.49E-03,2.24E-02
123007,6.49E-03,2.27E-02
123008,6.49E-03,2.29E-02
123009,6.49E-03,2.32E-02
123010,6.49E-03,2.34E-02
123011,6.49E-03,2.36E-02
123012,6.49E-03,2.39E-02
123013,6.48E-03,2.41E-02
123014,6.48E-03,2.44E-02
123015,6.48E-03,2.47E-02
123016,6.48E-03,2.49E-02
123017,6.48E-03,2.52E-02
123018,6.48E-03,2.55E-02
123019,6.48E-03,2.58E-02
123020,6.48E-03,2.61E-02
123021,6.48E-03,2.64E-02
123022,6.48E-03,2.68E-02
123023,6.48E-03,2.72E-02
123024,6.53E-03,1.03E-02
123025,6.53E-03,1.06E-02
123026,6.53E-03,1.08E-02
123027,6.52E-03,1.10E-02
123028,6.52E-03,1.13E-02
123029,6.52E-03,1.15E-02
123030,6.52E-03,1.17E-02
123031,6.52E-03,1.19E-02
123032,6.52E-03,1.22E-02
123033,6.52E-03,1.24E-02
123034,6.52E-03,1.26E-02
123035,6.52E-03,1.29E-02
123036,6.52E-03,1.31E-02
123037,6.52E-03,1.33E-02
123038,6.52E-03,1.36E-02
123039,6.52E-03,1.38E-02
123040,6.52E-03,1.40E-02
123041,6.51E-03,1.43E-02
123042,6.51E-03,1.45E-02
123043,6.51E-03,1.48E-02
123044,6.51E-03,1.50E-02
123045,6.51E-03,1.52E-02
123046,6.51E-03,1.55E-02
123047,6.51E-03,1.57E-02
123048,6.51E-03,1.60E-02
123049,6.51E-03,1.62E-02
123050,6.51E-03,1.64E-02
123051,6.51E-03,1.67E-02
123052,6.51E-03,1.69E-02
123053,6.51E-03,1.72E-02
123054,6.51E-03,1.74E-02
123055,6.50E-03,1.77E-02
123056,6.50E-03,1.79E-02
123057,6.50E-03,1.81E-02
123058,6.50E-03,1.84E-02
123059,6.50E-03,1.86E-02
123060,6.50E-03,1.89E-02
123061,6.50E-03,1.91E-02
123062,6.50E-03,1.93E-02
123063,6.50E-03,1.96E-02
123064,6.50E-03,1.98E-02
123065,6.50E-03,2.01E-02
123066,6.50E-03,2.03E-02
123067,6.50E-03,2.05E-02
123068,6.50E-03,2.08E-02
123069,6.49E-03,2.10E-02
123070,6.49E-03,2.12E-02
123071,6.49E-03,2.15E-02
123072,6.49E-03,2.17E-02
123073,6.49E-03,2.20E-02
123074,6.49E-03,2.22E-02
123075,6.49E-03,2.24E-02
123076,6.49E-03,2.27E-02
123077,6.49E-03,2.29E-02
123078,6.49E-03,2.31E-02
123079,6.49E-03,2.34E-02
123080,6.49E-03,2.36E-02
123081,6.49E-03,2.39E-02
123082,6.48E-03,2.41E-02
123083,6.48E-03,2.44E-02
123084,6.48E-03,2.47E-02
123085,6.48E-03,2.49E-02
123086,6.48E-03,2.52E-02
123087,6.48E-03,2.55E-02
123088,6.48E-03,2.58E-02
123089,6.48E-03,2.61E-02
123090,6.48E-03,2.64E-02
123091,6.48E-03,2.68E-02
123092,6.48E-03,2.72E-02
123093,6.53E-03,1.04E-02
123094,6.53E-03,1.06E-02
123095,6.53E-03,1.08E-02
123096,6.52E-03,1.11E-02
123097,6.52E-03,1.13E-02
123098,6.52E-03,1.15E-02
123099,6.52E-03,1.17E-02
123100,6.52E-03,1.19E-02
123101,6.52E-03,1.22E-02
123102,6.52E-03,1.24E-02
123103,6.52E-03,1.26E-02
123104,6.52E-03,1.28E-02
123105,6.52E-03,1.31E-02
123106,6.52E-03,1.33E-02
123107,6.52E-03,1.35E-02
123108,6.52E-03,1.38E-02
123109,6.52E-03,1.40E-02
123110,6.51E-03,1.43E-02
123111,6.51E-03,1.45E-02
123112,6.51E-03,1.47E-02
123113,6.51E-03,1.50E-02
123114,6.51E-03,1.52E-02
123115,6.51E-03,1.55E-02
123116,6.51E-03,1.57E-02
123117,6.51E-03,1.60E-02
123118,6.51E-03,1.62E-02
123119,6.51E-03,1.64E-02
123120,6.51E-03,1.67E-02
123121,6.51E-03,1.69E-02
123122,6.51E-03,1.72E-02
123123,6.51E-03,1.74E-02
123124,6.50E-03,1.76E-02
123125,6.50E-03,1.79E-02
123126,6.50E-03,1.81E-02
123127,6.50E-03,1.84E-02
123128,6.50E-03,1.86E-02
123129,6.50E-03,1.89E-02
123130,6.50E-03,1.91E-02
123131,6.50E-03,1.93E-02
123132,6.50E-03,1.96E-02
123133,6.50E-03,1.98E-02
123134,6.50E-03,2.00E-02
123135,6.50E-03,2.03E-02
123136,6.50E-03,2.05E-02
123137,6.50E-03,2.08E-02
123138,6.49E-03,2.10E-02
123139,6.49E-03,2.12E-02
123140,6.49E-03,2.15E-02
123141,6.49E-03,2.17E-02
123142,6.49E-03,2.20E-02
123143,6.49E-03,2.22E-02
123144,6.49E-03,2.24E-02
123145,6.49E-03,2.27E-02
123146,6.49E-03,2.29E-02
123147,6.49E-03,2.31E-02
123148,6.49E-03,2.34E-02
123149,6.49E-03,2.36E-02
123150,6.49E-03,2.39E-02
123151,6.48E-03,2.41E-02
123152,6.48E-03,2.44E-02
123153,6.48E-03,2.47E-02
123154,6.48E-03,2.49E-02
123155,6.48E-03,2.52E-02
123156,6.48E-03,2.55E-02
123157,6.48E-03,2.58E-02
123158,6.48E-03,2.61E-02
123159,6.48E-03,2.64E-02
123160,6.48E-03,2.68E-02
123161,6.48E-03,2.71E-02
123162,6.53E-03,1.04E-02
123163,6.53E-03,1.06E-02
123164,6.53E-03,1.09E-02
123165,6.52E-03,1.11E-02
123166,6.52E-03,1.13E-02
123167,6.52E-03,1.15E-02
123168,6.52E-03,1.17E-02
123169,6.52E-03,1.19E-02
123170,6.52E-03,1.21E-02
123171,6.52E-03,1.24E-02
123172,6.52E-03,1.26E-02
123173,6.52E-03,1.28E-02
123174,6.52E-03,1.31E-02
123175,6.52E-03,1.33E-02
123176,6.52E-03,1.35E-02
123177,6.52E-03,1.38E-02
123178,6.52E-03,1.40E-02
123179,6.51E-03,1.43E-02
123180,6.51E-03,1.45E-02
123181,6.51E-03,1.47E-02
123182,6.51E-03,1.50E-02
123183,6.51E-03,1.52E-02
123184,6.51E-03,1.55E-02
123185,6.51E-03,1.57E-02
123186,6.51E-03,1.59E-02
123187,6.51E-03,1.62E-02
123188,6.51E-03,1.64E-02
123189,6.51E-03,1.67E-02
123190,6.51E-03,1.69E-02
123191,6.51E-03,1.72E-02
123192,6.51E-03,1.74E-02
123193,6.50E-03,1.76E-02
123194,6.50E-03,1.79E-02
123195,6.50E-03,1.81E-02
123196,6.50E-03,1.84E-02
123197,6.50E-03,1.86E-02
123198,6.50E-03,1.88E-02
123199,6.50E-03,1.91E-02
123200,6.50E-03,1.93E-02
123201,6.50E-03,1.96E-02
123202,6.50E-03,1.98E-02
123203,6.50E-03,2.00E-02
123204,6.50E-03,2.03E-02
123205,6.50E-03,2.05E-02
123206,6.50E-03,2.08E-02
123207,6.49E-03,2.10E-02
123208,6.49E-03,2.12E-02
123209,6.49E-03,2.15E-02
123210,6.49E-03,2.17E-02
123211,6.49E-03,2.20E-02
123212,6.49E-03,2.22E-02
123213,6.49E-03,2.24E-02
123214,6.49E-03,2.27E-02
123215,6.49E-03,2.29E-02
123216,6.49E-03,2.32E-02
123217,6.49E-03,2.34E-02
123218,6.49E-03,2.36E-02
123219,6.49E-03,2.39E-02
123220,6.48E-03,2.41E-02
123221,6.48E-03,2.44E-02
123222,6.48E-03,2.47E-02
123223,6.48E-03,2.49E-02
123224,6.48E-03,2.52E-02
123225,6.48E-03,2.55E-02
123226,6.48E-03,2.58E-02
123227,6.48E-03,2.61E-02
123228,6.48E-03,2.64E-02
123229,6.48E-03,2.67E-02
123230,6.48E-03,2.71E-02
123231,6.53E-03,1.05E-02
123232,6.53E-03,1.07E-02
123233,6.53E-03,1.09E-02
123234,6.52E-03,1.11E-02
123235,6.52E-03,1.13E-02
123236,6.52E-03,1.15E-02
123237,6.52E-03,1.17E-02
123238,6.52E-03,1.19E-02
123239,6.52E-03,1.21E-02
123240,6.52E-03,1.24E-02
123241,6.52E-03,1.26E-02
123242,6.52E-03,1.28E-02
123243,6.52E-03,1.31E-02
123244,6.52E-03,1.33E-02
123245,6.52E-03,1.35E-02
123246,6.52E-03,1.38E-02
123247,6.52E-03,1.40E-02
123248,6.51E-03,1.42E-02
123249,6.51E-03,1.45E-02
123250,6.51E-03,1.47E-02
123251,6.51E-03,1.50E-02
123252,6.51E-03,1.52E-02
123253,6.51E-03,1.55E-02
123254,6.51E-03,1.57E-02
123255,6.51E-03,1.59E-02
123256,6.51E-03,1.62E-02
123257,6.51E-03,1.64E-02
123258,6.51E-03,1.67E-02
123259,6.51E-03,1.69E-02
123260,6.51E-03,1.72E-02
123261,6.51E-03,1.74E-02
123262,6.50E-03,1.76E-02
123263,6.50E-03,1.79E-02
123264,6.50E-03,1.81E-02
123265,6.50E-03,1.84E-02
123266,6.50E-03,1.86E-02
123267,6.50E-03,1.88E-02
123268,6.50E-03,1.91E-02
123269,6.50E-03,1.93E-02
123270,6.50E-03,1.96E-02
123271,6.50E-03,1.98E-02
123272,6.50E-03,2.00E-02
123273,6.50E-03,2.03E-02
123274,6.50E-03,2.05E-02
123275,6.50E-03,2.08E-02
123276,6.49E-03,2.10E-02
123277,6.49E-03,2.12E-02
123278,6.49E-03,2.15E-02
123279,6.49E-03,2.17E-02
123280,6.49E-03,2.20E-02
123281,6.49E-03,2.22E-02
123282,6.49E-03,2.24E-02
123283,6.49E-03,2.27E-02
123284,6.49E-03,2.29E-02
123285,6.49E-03,2.32E-02
123286,6.49E-03,2.34E-02
123287,6.49E-03,2.36E-02
123288,6.49E-03,2.39E-02
123289,6.48E-03,2.41E-02
123290,6.48E-03,2.44E-02
123291,6.48E-03,2.47E-02
123292,6.48E-03,2.49E-02
123293,6.48E-03,2.52E-02
123294,6.48E-03,2.55E-02
123295,6.48E-03,2.58E-02
123296,6.48E-03,2.61E-02
123297,6.48E-03,2.64E-02
123298,6.48E-03,2.67E-02
123299,6.48E-03,2.71E-02
123300,6.53E-03,1.05E-02
123301,6.53E-03,1.07E-02
123302,6.53E-03,1.09E-02
123303,6.52E-03,1.11E-02
123304,6.52E-03,1.13E-02
123305,6.52E-03,1.15E-02
123306,6.52E-03,1.17E-02
123307,6.52E-03,1.19E-02
123308,6.52E-03,1.21E-02
123309,6.52E-03,1.23E-02
123310,6.52E-03,1.26E-02
123311,6.52E-03,1.28E-02
123312,6.52E-03,1.30E-02
123313,6.52E-03,1.33E-02
123314,6.52E-03,1.35E-02
123315,6.52E-03,1.38E-02
123316,6.52E-03,1.40E-02
123317,6.51E-03,1.42E-02
123318,6.51E-03,1.45E-02
123319,6.51E-03,1.47E-02
123320,6.51E-03,1.50E-02
123321,6.51E-03,1.52E-02
123322,6.51E-03,1.54E-02
123323,6.51E-03,1.57E-02
123324,6.51E-03,1.59E-02
123325,6.51E-03,1.62E-02
123326,6.51E-03,1.64E-02
123327,6.51E-03,1.67E-02
123328,6.51E-03,1.69E-02
123329,6.51E-03,1.71E-02
123330,6.51E-03,1.74E-02
123331,6.50E-03,1.76E-02
123332,6.50E-03,1.79E-02
123333,6.50E-03,1.81E-02
123334,6.50E-03,1.84E-02
123335,6.50E-03,1.86E-02
123336,6.50E-03,1.88E-02
123337,6.50E-03,1.91E-02
123338,6.50E-03,1.93E-02
123339,6.50E-03,1.96E-02
123340,6.50E-03,1.98E-02
123341,6.50E-03,2.00E-02
123342,6.50E-03,2.03E-02
123343,6.50E-03,2.05E-02
123344,6.50E-03,2.08E-02
123345,6.49E-03,2.10E-02
123346,6.49E-03,2.12E-02
123347,6.49E-03,2.15E-02
123348,6.49E-03,2.17E-02
123349,6.49E-03,2.20E-02
123350,6.49E-03,2.22E-02
123351,6.49E-03,2.24E-02
123352,6.49E-03,2.27E-02
123353,6.49E-03,2.29E-02
123354,6.49E-03,2.32E-02
123355,6.49E-03,2.34E-02
123356,6.49E-03,2.36E-02
123357,6.49E-03,2.39E-02
123358,6.48E-03,2.41E-02
123359,6.48E-03,2.44E-02
123360,6.48E-03,2.47E-02
123361,6.48E-03,2.49E-02
123362,6.48E-03,2.52E-02
123363,6.48E-03,2.55E-02
123364,6.48E-03,2.58E-02
123365,6.48E-03,2.61E-02
123366,6.48E-03,2.64E-02
123367,6.48E-03,2.67E-02
123368,6.48E-03,2.70E-02
123369,6.53E-03,1.05E-02
123370,6.53E-03,1.07E-02
123371,6.53E-03,1.09E-02
123372,6.52E-03,1.11E-02
123373,6.52E-03,1.13E-02
123374,6.52E-03,1.15E-02
123375,6.52E-03,1.17E-02
123376,6.52E-03,1.19E-02
123377,6.52E-03,1.21E-02
123378,6.52E-03,1.23E-02
123379,6.52E-03,1.26E-02
123380,6.52E-03,1.28E-02
123381,6.52E-03,1.30E-02
123382,6.52E-03,1.33E-02
123383,6.52E-03,1.35E-02
123384,6.52E-03,1.37E-02
123385,6.52E-03,1.40E-02
123386,6.51E-03,1.42E-02
123387,6.51E-03,1.45E-02
123388,6.51E-03,1.47E-02
123389,6.51E-03,1.50E-02
123390,6.51E-03,1.52E-02
123391,6.51E-03,1.54E-02
123392,6.51E-03,1.57E-02
123393,6.51E-03,1.59E-02
123394,6.51E-03,1.62E-02
123395,6.51E-03,1.64E-02
123396,6.51E-03,1.67E-02
123397,6.51E-03,1.69E-02
123398,6.51E-03,1.71E-02
123399,6.51E-03,1.74E-02
123400,6.50E-03,1.76E-02
123401,6.50E-03,1.79E-02
123402,6.50E-03,1.81E-02
123403,6.50E-03,1.84E-02
123404,6.50E-03,1.86E-02
123405,6.50E-03,1.88E-02
123406,6.50E-03,1.91E-02
123407,6.50E-03,1.93E-02
123408,6.50E-03,1.96E-02
123409,6.50E-03,1.98E-02
123410,6.50E-03,2.00E-02
123411,6.50E-03,2.03E-02
123412,6.50E-03,2.05E-02
123413,6.50E-03,2.08E-02
123414,6.49E-03,2.10E-02
123415,6.49E-03,2.12E-02
123416,6.49E-03,2.15E-02
123417,6.49E-03,2.17E-02
123418,6.49E-03,2.20E-02
123419,6.49E-03,2.22E-02
123420,6.49E-03,2.24E-02
123421,6.49E-03,2.27E-02
123422,6.49E-03,2.29E-02
123423,6.49E-03,2.32E-02
123424,6.49E-03,2.34E-02
123425,6.49E-03,2.37E-02
123426,6.49E-03,2.39E-02
123427,6.48E-03,2.42E-02
123428,6.48E-03,2.44E-02
123429,6.48E-03,2.47E-02
123430,6.48E-03,2.49E-02
123431,6.48E-03,2.52E-02
123432,6.48E-03,2.55E-02
123433,6.48E-03,2.57E-02
123434,6.48E-03,2.60E-02
123435,6.48E-03,2.63E-02
123436,6.48E-03,2.67E-02
123437,6.48E-03,2.70E-02
123438,6.53E-03,1.05E-02
123439,6.53E-03,1.07E-02
123440,6.53E-03,1.09E-02
123441,6.52E-03,1.10E-02
123442,6.52E-03,1.12E-02
123443,6.52E-03,1.14E-02
123444,6.52E-03,1.16E-02
123445,6.52E-03,1.19E-02
123446,6.52E-03,1.21E-02
123447,6.52E-03,1.23E-02
123448,6.52E-03,1.25E-02
123449,6.52E-03,1.28E-02
123450,6.52E-03,1.30E-02
123451,6.52E-03,1.32E-02
123452,6.52E-03,1.35E-02
123453,6.52E-03,1.37E-02
123454,6.52E-03,1.40E-02
123455,6.51E-03,1.42E-02
123456,6.51E-03,1.45E-02
123457,6.51E-03,1.47E-02
123458,6.51E-03,1.49E-02
123459,6.51E-03,1.52E-02
123460,6.51E-03,1.54E-02
123461,6.51E-03,1.57E-02
123462,6.51E-03,1.59E-02
123463,6.51E-03,1.62E-02
123464,6.51E-03,1.64E-02
123465,6.51E-03,1.67E-02
123466,6.51E-03,1.69E-02
123467,6.51E-03,1.71E-02
123468,6.51E-03,1.74E-02
123469,6.50E-03,1.76E-02
123470,6.50E-03,1.79E-02
123471,6.50E-03,1.81E-02
123472,6.50E-03,1.84E-02
123473,6.50E-03,1.86E-02
123474,6.50E-03,1.88E-02
123475,6.50E-03,1.91E-02
123476,6.50E-03,1.93E-02
123477,6.50E-03,1.96E-02
123478,6.50E-03,1.98E-02
123479,6.50E-03,2.01E-02
123480,6.50E-03,2.03E-02
123481,6.50E-03,2.05E-02
123482,6.50E-03,2.08E-02
123483,6.49E-03,2.10E-02
123484,6.49E-03,2.13E-02
123485,6.49E-03,2.15E-02
123486,6.49E-03,2.17E-02
123487,6.49E-03,2.20E-02
123488,6.49E-03,2.22E-02
123489,6.49E-03,2.25E-02
123490,6.49E-03,2.27E-02
123491,6.49E-03,2.29E-02
123492,6.49E-03,2.32E-02
123493,6.49E-03,2.34E-02
123494,6.49E-03,2.37E-02
123495,6.49E-03,2.39E-02
123496,6.48E-03,2.42E-02
123497,6.48E-03,2.44E-02
123498,6.48E-03,2.47E-02
123499,6.48E-03,2.49E-02
123500,6.48E-03,2.52E-02
123501,6.48E-03,2.55E-02
123502,6.48E-03,2.57E-02
123503,6.48E-03,2.60E-02
123504,6.48E-03,2.63E-02
123505,6.48E-03,2.66E-02
123506,6.48E-03,2.69E-02
123507,6.53E-03,1.05E-02
123508,6.53E-03,1.07E-02
123509,6.53E-03,1.08E-02
123510,6.52E-03,1.10E-02
123511,6.52E-03,1.12E-02
123512,6.52E-03,1.14E-02
123513,6.52E-03,1.16E-02
123514,6.52E-03,1.18E-02
123515,6.52E-03,1.21E-02
123516,6.52E-03,1.23E-02
123517,6.52E-03,1.25E-02
123518,6.52E-03,1.28E-02
123519,6.52E-03,1.30E-02
123520,6.52E-03,1.32E-02
123521,6.52E-03,1.35E-02
123522,6.52E-03,1.37E-02
123523,6.52E-03,1.40E-02
123524,6.51E-03,1.42E-02
123525,6.51E-03,1.44E-02
123526,6.51E-03,1.47E-02
123527,6.51E-03,1.49E-02
123528,6.51E-03,1.52E-02
123529,6.51E-03,1.54E-02
123530,6.51E-03,1.57E-02
123531,6.51E-03,1.59E-02
123532,6.51E-03,1.62E-02
123533,6.51E-03,1.64E-02
123534,6.51E-03,1.66E-02
123535,6.51E-03,1.69E-02
123536,6.51E-03,1.71E-02
123537,6.51E-03,1.74E-02
123538,6.50E-03,1.76E-02
123539,6.50E-03,1.79E-02
123540,6.50E-03,1.81E-02
123541,6.50E-03,1.84E-02
123542,6.50E-03,1.86E-02
123543,6.50E-03,1.88E-02
123544,6.50E-03,1.91E-02
123545,6.50E-03,1.93E-02
123546,6.50E-03,1.96E-02
123547,6.50E-03,1.98E-02
123548,6.50E-03,2.01E-02
123549,6.50E-03,2.03E-02
123550,6.50E-03,2.05E-02
123551,6.50E-03,2.08E-02
123552,6.49E-03,2.10E-02
123553,6.49E-03,2.13E-02
123554,6.49E-03,2.15E-02
123555,6.49E-03,2.17E-02
123556,6.49E-03,2.20E-02
123557,6.49E-03,2.22E-02
123558,6.49E-03,2.25E-02
123559,6.49E-03,2.27E-02
123560,6.49E-03,2.29E-02
123561,6.49E-03,2.32E-02
123562,6.49E-03,2.34E-02
123563,6.49E-03,2.37E-02
123564,6.49E-03,2.39E-02
123565,6.48E-03,2.42E-02
123566,6.48E-03,2.44E-02
123567,6.48E-03,2.47E-02
123568,6.48E-03,2.49E-02
123569,6.48E-03,2.52E-02
123570,6.48E-03,2.55E-02
123571,6.48E-03,2.57E-02
123572,6.48E-03,2.60E-02
123573,6.48E-03,2.63E-02
123574,6.48E-03,2.66E-02
123575,6.48E-03,2.69E-02
123576,6.53E-03,1.05E-02
123577,6.53E-03,1.07E-02
123578,6.53E-03,1.08E-02
123579,6.52E-03,1.10E-02
123580,6.52E-03,1.12E-02
123581,6.52E-03,1.14E-02
123582,6.52E-03,1.16E-02
123583,6.52E-03,1.18E-02
123584,6.52E-03,1.20E-02
123585,6.52E-03,1.23E-02
123586,6.52E-03,1.25E-02
123587,6.52E-03,1.27E-02
123588,6.52E-03,1.30E-02
123589,6.52E-03,1.32E-02
123590,6.52E-03,1.35E-02
123591,6.52E-03,1.37E-02
123592,6.52E-03,1.40E-02
123593,6.51E-03,1.42E-02
123594,6.51E-03,1.44E-02
123595,6.51E-03,1.47E-02
123596,6.51E-03,1.49E-02
123597,6.51E-03,1.52E-02
123598,6.51E-03,1.54E-02
123599,6.51E-03,1.57E-02
123600,6.51E-03,1.59E-02
123601,6.51E-03,1.62E-02
123602,6.51E-03,1.64E-02
123603,6.51E-03,1.66E-02
123604,6.51E-03,1.69E-02
123605,6.51E-03,1.71E-02
123606,6.51E-03,1.74E-02
123607,6.50E-03,1.76E-02
123608,6.50E-03,1.79E-02
123609,6.50E-03,1.81E-02
123610,6.50E-03,1.84E-02
123611,6.50E-03,1.86E-02
123612,6.50E-03,1.88E-02
123613,6.50E-03,1.91E-02
123614,6.50E-03,1.93E-02
123615,6.50E-03,1.96E-02
123616,6.50E-03,1.98E-02
123617,6.50E-03,2.01E-02
123618,6.50E-03,2.03E-02
123619,6.50E-03,2.05E-02
123620,6.50E-03,2.08E-02
123621,6.49E-03,2.10E-02
123622,6.49E-03,2.13E-02
123623,6.49E-03,2.15E-02
123624,6.49E-03,2.17E-02
123625,6.49E-03,2.20E-02
123626,6.49E-03,2.22E-02
123627,6.49E-03,2.25E-02
123628,6.49E-03,2.27E-02
123629,6.49E-03,2.30E-02
123630,6.49E-03,2.32E-02
123631,6.49E-03,2.34E-02
123632,6.49E-03,2.37E-02
123633,6.49E-03,2.39E-02
123634,6.48E-03,2.42E-02
123635,6.48E-03,2.44E-02
123636,6.48E-03,2.47E-02
123637,6.48E-03,2.49E-02
123638,6.48E-03,2.52E-02
123639,6.48E-03,2.54E-02
123640,6.48E-03,2.57E-02
123641,6.48E-03,2.60E-02
123642,6.48E-03,2.63E-02
123643,6.48E-03,2.65E-02
123644,6.48E-03,2.68E-02
123645,6.53E-03,1.05E-02
123646,6.53E-03,1.06E-02
123647,6.53E-03,1.08E-02
123648,6.52E-03,1.10E-02
123649,6.52E-03,1.12E-02
123650,6.52E-03,1.14E-02
123651,6.52E-03,1.16E-02
123652,6.52E-03,1.18E-02
123653,6.52E-03,1.20E-02
123654,6.52E-03,1.23E-02
123655,6.52E-03,1.25E-02
123656,6.52E-03,1.27E-02
123657,6.52E-03,1.30E-02
123658,6.52E-03,1.32E-02
123659,6.52E-03,1.35E-02
123660,6.52E-03,1.37E-02
123661,6.52E-03,1.39E-02
123662,6.51E-03,1.42E-02
123663,6.51E-03,1.44E-02
123664,6.51E-03,1.47E-02
123665,6.51E-03,1.49E-02
123666,6.51E-03,1.52E-02
123667,6.51E-03,1.54E-02
123668,6.51E-03,1.57E-02
123669,6.51E-03,1.59E-02
123670,6.51E-03,1.62E-02
123671,6.51E-03,1.64E-02
123672,6.51E-03,1.66E-02
123673,6.51E-03,1.69E-02
123674,6.51E-03,1.71E-02
123675,6.51E-03,1.74E-02
123676,6.50E-03,1.76E-02
123677,6.50E-03,1.79E-02
123678,6.50E-03,1.81E-02
123679,6.50E-03,1.84E-02
123680,6.50E-03,1.86E-02
123681,6.50E-03,1.88E-02
123682,6.50E-03,1.91E-02
123683,6.50E-03,1.93E-02
123684,6.50E-03,1.96E-02
123685,6.50E-03,1.98E-02
123686,6.50E-03,2.01E-02
123687,6.50E-03,2.03E-02
123688,6.50E-03,2.05E-02
123689,6.50E-03,2.08E-02
123690,6.49E-03,2.10E-02
123691,6.49E-03,2.13E-02
123692,6.49E-03,2.15E-02
123693,6.49E-03,2.18E-02
123694,6.49E-03,2.20E-02
123695,6.49E-03,2.22E-02
123696,6.49E-03,2.25E-02
123697,6.49E-03,2.27E-02
123698,6.49E-03,2.30E-02
123699,6.49E-03,2.32E-02
123700,6.49E-03,2.34E-02
123701,6.49E-03,2.37E-02
123702,6.49E-03,2.39E-02
123703,6.48E-03,2.42E-02
123704,6.48E-03,2.44E-02
123705,6.48E-03,2.47E-02
123706,6.48E-03,2.49E-02
123707,6.48E-03,2.52E-02
123708,6.48E-03,2.54E-02
123709,6.48E-03,2.57E-02
123710,6.48E-03,2.60E-02
123711,6.48E-03,2.62E-02
123712,6.48E-03,2.65E-02
123713,6.48E-03,2.68E-02
123714,6.53E-03,1.05E-02
123715,6.53E-03,1.06E-02
123716,6.53E-03,1.08E-02
123717,6.52E-03,1.09E-02
123718,6.52E-03,1.11E-02
123719,6.52E-03,1.13E-02
123720,6.52E-03,1.16E-02
123721,6.52E-03,1.18E-02
123722,6.52E-03,1.20E-02
123723,6.52E-03,1.23E-02
123724,6.52E-03,1.25E-02
123725,6.52E-03,1.27E-02
123726,6.52E-03,1.30E-02
123727,6.52E-03,1.32E-02
123728,6.52E-03,1.35E-02
123729,6.52E-03,1.37E-02
123730,6.52E-03,1.39E-02
123731,6.51E-03,1.42E-02
123732,6.51E-03,1.44E-02
123733,6.51E-03,1.47E-02
123734,6.51E-03,1.49E-02
123735,6.51E-03,1.52E-02
123736,6.51E-03,1.54E-02
123737,6.51E-03,1.57E-02
123738,6.51E-03,1.59E-02
123739,6.51E-03,1.61E-02
123740,6.51E-03,1.64E-02
123741,6.51E-03,1.66E-02
123742,6.51E-03,1.69E-02
123743,6.51E-03,1.71E-02
123744,6.51E-03,1.74E-02
123745,6.50E-03,1.76E-02
123746,6.50E-03,1.79E-02
123747,6.50E-03,1.81E-02
123748,6.50E-03,1.84E-02
123749,6.50E-03,1.86E-02
123750,6.50E-03,1.88E-02
123751,6.50E-03,1.91E-02
123752,6.50E-03,1.93E-02
123753,6.50E-03,1.96E-02
123754,6.50E-03,1.98E-02
123755,6.50E-03,2.01E-02
123756,6.50E-03,2.03E-02
123757,6.50E-03,2.06E-02
123758,6.50E-03,2.08E-02
123759,6.49E-03,2.10E-02
123760,6.49E-03,2.13E-02
123761,6.49E-03,2.15E-02
123762,6.49E-03,2.18E-02
123763,6.49E-03,2.20E-02
123764,6.49E-03,2.22E-02
123765,6.49E-03,2.25E-02
123766,6.49E-03,2.27E-02
123767,6.49E-03,2.30E-02
123768,6.49E-03,2.32E-02
123769,6.49E-03,2.35E-02
123770,6.49E-03,2.37E-02
123771,6.49E-03,2.39E-02
123772,6.48E-03,2.42E-02
123773,6.48E-03,2.44E-02
123774,6.48E-03,2.47E-02
123775,6.48E-03,2.49E-02
123776,6.48E-03,2.52E-02
123777,6.48E-03,2.54E-02
123778,6.48E-03,2.57E-02
123779,6.48E-03,2.59E-02
123780,6.48E-03,2.62E-02
123781,6.48E-03,2.64E-02
123782,6.48E-03,2.67E-02
123783,6.53E-03,1.04E-02
123784,6.53E-03,1.06E-02
123785,6.53E-03,1.07E-02
123786,6.52E-03,1.09E-02
123787,6.52E-03,1.11E-02
123788,6.52E-03,1.13E-02
123789,6.52E-03,1.15E-02
123790,6.52E-03,1.18E-02
123791,6.52E-03,1.20E-02
123792,6.52E-03,1.22E-02
123793,6.52E-03,1.25E-02
123794,6.52E-03,1.27E-02
123795,6.52E-03,1.30E-02
123796,6.52E-03,1.32E-02
123797,6.52E-03,1.34E-02
123798,6.52E-03,1.37E-02
123799,6.52E-03,1.39E-02
123800,6.51E-03,1.42E-02
123801,6.51E-03,1.44E-02
123802,6.51E-03,1.47E-02
123803,6.51E-03,1.49E-02
123804,6.51E-03,1.52E-02
123805,6.51E-03,1.54E-02
123806,6.51E-03,1.57E-02
123807,6.51E-03,1.59E-02
123808,6.51E-03,1.61E-02
123809,6.51E-03,1.64E-02
123810,6.51E-03,1.66E-02
123811,6.51E-03,1.69E-02
123812,6.51E-03,1.71E-02
123813,6.51E-03,1.74E-02
123814,6.50E-03,1.76E-02
123815,6.50E-03,1.79E-02
123816,6.50E-03,1.81E-02
123817,6.50E-03,1.84E-02
123818,6.50E-03,1.86E-02
123819,6.50E-03,1.88E-02
123820,6.50E-03,1.91E-02
123821,6.50E-03,1.93E-02
123822,6.50E-03,1.96E-02
123823,6.50E-03,1.98E-02
123824,6.50E-03,2.01E-02
123825,6.50E-03,2.03E-02
123826,6.50E-03,2.06E-02
123827,6.50E-03,2.08E-02
123828,6.49E-03,2.10E-02
123829,6.49E-03,2.13E-02
123830,6.49E-03,2.15E-02
123831,6.49E-03,2.18E-02
123832,6.49E-03,2.20E-02
123833,6.49E-03,2.23E-02
123834,6.49E-03,2.25E-02
123835,6.49E-03,2.27E-02
123836,6.49E-03,2.30E-02
123837,6.49E-03,2.32E-02
123838,6.49E-03,2.35E-02
123839,6.49E-03,2.37E-02
123840,6.49E-03,2.39E-02
123841,6.48E-03,2.42E-02
123842,6.48E-03,2.44E-02
123843,6.48E-03,2.47E-02
123844,6.48E-03,2.49E-02
123845,6.48E-03,2.52E-02
123846,6.48E-03,2.54E-02
123847,6.48E-03,2.56E-02
123848,6.48E-03,2.59E-02
123849,6.48E-03,2.61E-02
123850,6.48E-03,2.64E-02
123851,6.48E-03,2.66E-02
123852,6.53E-03,1.04E-02
123853,6.53E-03,1.05E-02
123854,6.53E-03,1.07E-02
123855,6.52E-03,1.09E-02
123856,6.52E-03,1.11E-02
123857,6.52E-03,1.13E-02
123858,6.52E-03,1.15E-02
123859,6.52E-03,1.18E-02
123860,6.52E-03,1.20E-02
123861,6.52E-03,1.22E-02
123862,6.52E-03,1.25E-02
123863,6.52E-03,1.27E-02
123864,6.52E-03,1.30E-02
123865,6.52E-03,1.32E-02
123866,6.52E-03,1.34E-02
123867,6.52E-03,1.37E-02
123868,6.52E-03,1.39E-02
123869,6.51E-03,1.42E-02
123870,6.51E-03,1.44E-02
123871,6.51E-03,1.47E-02
123872,6.51E-03,1.49E-02
123873,6.51E-03,1.52E-02
123874,6.51E-03,1.54E-02
123875,6.51E-03,1.57E-02
123876,6.51E-03,1.59E-02
123877,6.51E-03,1.61E-02
123878,6.51E-03,1.64E-02
123879,6.51E-03,1.66E-02
123880,6.51E-03,1.69E-02
123881,6.51E-03,1.71E-02
123882,6.51E-03,1.74E-02
123883,6.50E-03,1.76E-02
123884,6.50E-03,1.79E-02
123885,6.50E-03,1.81E-02
123886,6.50E-03,1.84E-02
123887,6.50E-03,1.86E-02
123888,6.50E-03,1.88E-02
123889,6.50E-03,1.91E-02
123890,6.50E-03,1.93E-02
123891,6.50E-03,1.96E-02
123892,6.50E-03,1.98E-02
123893,6.50E-03,2.01E-02
123894,6.50E-03,2.03E-02
123895,6.50E-03,2.06E-02
123896,6.50E-03,2.08E-02
123897,6.49E-03,2.10E-02
123898,6.49E-03,2.13E-02
123899,6.49E-03,2.15E-02
123900,6.49E-03,2.18E-02
123901,6.49E-03,2.20E-02
123902,6.49E-03,2.23E-02
123903,6.49E-03,2.25E-02
123904,6.49E-03,2.28E-02
123905,6.49E-03,2.30E-02
123906,6.49E-03,2.32E-02
123907,6.49E-03,2.35E-02
123908,6.49E-03,2.37E-02
123909,6.49E-03,2.40E-02
123910,6.48E-03,2.42E-02
123911,6.48E-03,2.44E-02
123912,6.48E-03,2.47E-02
123913,6.48E-03,2.49E-02
123914,6.48E-03,2.51E-02
123915,6.48E-03,2.54E-02
123916,6.48E-03,2.56E-02
123917,6.48E-03,2.58E-02
123918,6.48E-03,2.61E-02
123919,6.48E-03,2.63E-02
123920,6.48E-03,2.65E-02
123921,6.53E-03,1.04E-02
123922,6.53E-03,1.05E-02
123923,6.53E-03,1.07E-02
123924,6.52E-03,1.09E-02
123925,6.52E-03,1.11E-02
123926,6.52E-03,1.13E-02
123927,6.52E-03,1.15E-02
123928,6.52E-03,1.18E-02
123929,6.52E-03,1.20E-02
123930,6.52E-03,1.22E-02
123931,6.52E-03,1.25E-02
123932,6.52E-03,1.27E-02
123933,6.52E-03,1.30E-02
123934,6.52E-03,1.32E-02
123935,6.52E-03,1.34E-02
123936,6.52E-03,1.37E-02
123937,6.52E-03,1.39E-02
123938,6.51E-03,1.42E-02
123939,6.51E-03,1.44E-02
123940,6.51E-03,1.47E-02
123941,6.51E-03,1.49E-02
123942,6.51E-03,1.52E-02
123943,6.51E-03,1.54E-02
123944,6.51E-03,1.57E-02
123945,6.51E-03,1.59E-02
123946,6.51E-03,1.61E-02
123947,6.51E-03,1.64E-02
123948,6.51E-03,1.66E-02
123949,6.51E-03,1.69E-02
123950,6.51E-03,1.71E-02
123951,6.51E-03,1.74E-02
123952,6.50E-03,1.76E-02
123953,6.50E-03,1.79E-02
123954,6.50E-03,1.81E-02
123955,6.50E-03,1.84E-02
123956,6.50E-03,1.86E-02
123957,6.50E-03,1.89E-02
123958,6.50E-03,1.91E-02
123959,6.50E-03,1.93E-02
123960,6.50E-03,1.96E-02
123961,6.50E-03,1.98E-02
123962,6.50E-03,2.01E-02
123963,6.50E-03,2.03E-02
123964,6.50E-03,2.06E-02
123965,6.50E-03,2.08E-02
123966,6.49E-03,2.11E-02
123967,6.49E-03,2.13E-02
123968,6.49E-03,2.15E-02
123969,6.49E-03,2.18E-02
123970,6.49E-03,2.20E-02
123971,6.49E-03,2.23E-02
123972,6.49E-03,2.25E-02
123973,6.49E-03,2.28E-02
123974,6.49E-03,2.30E-02
123975,6.49E-03,2.32E-02
123976,6.49E-03,2.35E-02
123977,6.49E-03,2.37E-02
123978,6.49E-03,2.40E-02
123979,6.48E-03,2.42E-02
123980,6.48E-03,2.44E-02
123981,6.48E-03,2.47E-02
123982,6.48E-03,2.49E-02
123983,6.48E-03,2.51E-02
123984,6.48E-03,2.54E-02
123985,6.48E-03,2.56E-02
123986,6.48E-03,2.58E-02
123987,6.48E-03,2.60E-02
123988,6.48E-03,2.62E-02
123989,6.48E-03,2.64E-02
123990,6.53E-03,1.04E-02
123991,6.53E-03,1.05E-02
123992,6.53E-03,1.07E-02
123993,6.52E-03,1.09E-02
123994,6.52E-03,1.11E-02
123995,6.52E-03,1.13E-02
123996,6.52E-03,1.15E-02
123997,6.52E-03,1.18E-02
123998,6.52E-03,1.20E-02
123999,6.52E-03,1.22E-02
124000,6.52E-03,1.25E-02
124001,6.52E-03,1.27E-02
124002,6.52E-03,1.30E-02
124003,6.52E-03,1.32E-02
124004,6.52E-03,1.34E-02
124005,6.52E-03,1.37E-02
124006,6.52E-03,1.39E-02
124007,6.51E-03,1.42E-02
124008,6.51E-03,1.44E-02
124009,6.51E-03,1.47E-02
124010,6.51E-03,1.49E-02
124011,6.51E-03,1.52E-02
124012,6.51E-03,1.54E-02
124013,6.51E-03,1.57E-02
124014,6.51E-03,1.59E-02
124015,6.51E-03,1.61E-02
124016,6.51E-03,1.64E-02
124017,6.51E-03,1.66E-02
124018,6.51E-03,1.69E-02
124019,6.51E-03,1.71E-02
124020,6.51E-03,1.74E-02
124021,6.50E-03,1.76E-02
124022,6.50E-03,1.79E-02
124023,6.50E-03,1.81E-02
124024,6.50E-03,1.84E-02
124025,6.50E-03,1.86E-02
124026,6.50E-03,1.89E-02
124027,6.50E-03,1.91E-02
124028,6.50E-03,1.93E-02
124029,6.50E-03,1.96E-02
124030,6.50E-03,1.98E-02
124031,6.50E-03,2.01E-02
124032,6.50E-03,2.03E-02
124033,6.50E-03,2.06E-02
124034,6.50E-03,2.08E-02
124035,6.49E-03,2.11E-02
124036,6.49E-03,2.13E-02
124037,6.49E-03,2.16E-02
124038,6.49E-03,2.18E-02
124039,6.49E-03,2.20E-02
124040,6.49E-03,2.23E-02
124041,6.49E-03,2.25E-02
124042,6.49E-03,2.28E-02
124043,6.49E-03,2.30E-02
124044,6.49E-03,2.33E-02
124045,6.49E-03,2.35E-02
124046,6.49E-03,2.37E-02
124047,6.49E-03,2.40E-02
124048,6.48E-03,2.42E-02
124049,6.48E-03,2.44E-02
124050,6.48E-03,2.47E-02
124051,6.48E-03,2.49E-02
124052,6.48E-03,2.51E-02
124053,6.48E-03,2.53E-02
124054,6.48E-03,2.55E-02
124055,6.48E-03,2.58E-02
124056,6.48E-03,2.60E-02
124057,6.48E-03,2.61E-02
124058,6.48E-03,2.63E-02
124059,6.53E-03,1.04E-02
124060,6.53E-03,1.05E-02
124061,6.53E-03,1.07E-02
124062,6.52E-03,1.09E-02
124063,6.52E-03,1.11E-02
124064,6.52E-03,1.13E-02
124065,6.52E-03,1.15E-02
124066,6.52E-03,1.18E-02
124067,6.52E-03,1.20E-02
124068,6.52E-03,1.22E-02
124069,6.52E-03,1.25E-02
124070,6.52E-03,1.27E-02
124071,6.52E-03,1.30E-02
124072,6.52E-03,1.32E-02
124073,6.52E-03,1.34E-02
124074,6.52E-03,1.37E-02
124075,6.52E-03,1.39E-02
124076,6.51E-03,1.42E-02
124077,6.51E-03,1.44E-02
124078,6.51E-03,1.47E-02
124079,6.51E-03,1.49E-02
124080,6.51E-03,1.52E-02
124081,6.51E-03,1.54E-02
124082,6.51E-03,1.57E-02
124083,6.51E-03,1.59E-02
124084,6.51E-03,1.61E-02
124085,6.51E-03,1.64E-02
124086,6.51E-03,1.66E-02
124087,6.51E-03,1.69E-02
124088,6.51E-03,1.71E-02
124089,6.51E-03,1.74E-02
124090,6.50E-03,1.76E-02
124091,6.50E-03,1.79E-02
124092,6.50E-03,1.81E-02
124093,6.50E-03,1.84E-02
124094,6.50E-03,1.86E-02
124095,6.50E-03,1.89E-02
124096,6.50E-03,1.91E-02
124097,6.50E-03,1.93E-02
124098,6.50E-03,1.96E-02
124099,6.50E-03,1.98E-02
124100,6.50E-03,2.01E-02
124101,6.50E-03,2.03E-02
124102,6.50E-03,2.06E-02
124103,6.50E-03,2.08E-02
124104,6.49E-03,2.11E-02
124105,6.49E-03,2.13E-02
124106,6.49E-03,2.16E-02
124107,6.49E-03,2.18E-02
124108,6.49E-03,2.20E-02
124109,6.49E-03,2.23E-02
124110,6.49E-03,2.25E-02
124111,6.49E-03,2.28E-02
124112,6.49E-03,2.30E-02
124113,6.49E-03,2.33E-02
124114,6.49E-03,2.35E-02
124115,6.49E-03,2.37E-02
124116,6.49E-03,2.40E-02
124117,6.48E-03,2.42E-02
124118,6.48E-03,2.44E-02
124119,6.48E-03,2.47E-02
124120,6.48E-03,2.49E-02
124121,6.48E-03,2.51E-02
124122,6.48E-03,2.53E-02
124123,6.48E-03,2.55E-02
124124,6.48E-03,2.57E-02
124125,6.48E-03,2.59E-02
124126,6.48E-03,2.61E-02
124127,6.48E-03,2.62E-02
124128,6.53E-03,1.04E-02
124129,6.53E-03,1.05E-02
124130,6.53E-03,1.07E-02
124131,6.52E-03,1.09E-02
124132,6.52E-03,1.11E-02
124133,6.52E-03,1.13E-02
124134,6.52E-03,1.16E-02
124135,6.52E-03,1.18E-02
124136,6.52E-03,1.20E-02
124137,6.52E-03,1.23E-02
124138,6.52E-03,1.25E-02
124139,6.52E-03,1.27E-02
124140,6.52E-03,1.30E-02
124141,6.52E-03,1.32E-02
124142,6.52E-03,1.35E-02
124143,6.52E-03,1.37E-02
124144,6.52E-03,1.39E-02
124145,6.51E-03,1.42E-02
124146,6.51E-03,1.44E-02
124147,6.51E-03,1.47E-02
124148,6.51E-03,1.49E-02
124149,6.51E-03,1.52E-02
124150,6.51E-03,1.54E-02
124151,6.51E-03,1.57E-02
124152,6.51E-03,1.59E-02
124153,6.51E-03,1.61E-02
124154,6.51E-03,1.64E-02
124155,6.51E-03,1.66E-02
124156,6.51E-03,1.69E-02
124157,6.51E-03,1.71E-02
124158,6.51E-03,1.74E-02
124159,6.50E-03,1.76E-02
124160,6.50E-03,1.79E-02
124161,6.50E-03,1.81E-02
124162,6.50E-03,1.84E-02
124163,6.50E-03,1.86E-02
124164,6.50E-03,1.89E-02
124165,6.50E-03,1.91E-02
124166,6.50E-03,1.94E-02
124167,6.50E-03,1.96E-02
124168,6.50E-03,1.98E-02
124169,6.50E-03,2.01E-02
124170,6.50E-03,2.03E-02
124171,6.50E-03,2.06E-02
124172,6.50E-03,2.08E-02
124173,6.49E-03,2.11E-02
124174,6.49E-03,2.13E-02
124175,6.49E-03,2.16E-02
124176,6.49E-03,2.18E-02
124177,6.49E-03,2.21E-02
124178,6.49E-03,2.23E-02
124179,6.49E-03,2.25E-02
124180,6.49E-03,2.28E-02
124181,6.49E-03,2.30E-02
124182,6.49E-03,2.33E-02
124183,6.49E-03,2.35E-02
124184,6.49E-03,2.37E-02
124185,6.49E-03,2.40E-02
124186,6.48E-03,2.42E-02
124187,6.48E-03,2.44E-02
124188,6.48E-03,2.46E-02
124189,6.48E-03,2.49E-02
124190,6.48E-03,2.51E-02
124191,6.48E-03,2.53E-02
124192,6.48E-03,2.55E-02
124193,6.48E-03,2.57E-02
124194,6.48E-03,2.58E-02
124195,6.48E-03,2.60E-02
124196,6.48E-03,2.61E-02
124197,6.53E-03,1.04E-02
124198,6.53E-03,1.06E-02
124199,6.53E-03,1.08E-02
124200,6.52E-03,1.09E-02
124201,6.52E-03,1.12E-02
124202,6.52E-03,1.14E-02
124203,6.52E-03,1.16E-02
124204,6.52E-03,1.18E-02
124205,6.52E-03,1.20E-02
124206,6.52E-03,1.23E-02
124207,6.52E-03,1.25E-02
124208,6.52E-03,1.27E-02
124209,6.52E-03,1.30E-02
124210,6.52E-03,1.32E-02
124211,6.52E-03,1.35E-02
124212,6.52E-03,1.37E-02
124213,6.52E-03,1.39E-02
124214,6.51E-03,1.42E-02
124215,6.51E-03,1.44E-02
124216,6.51E-03,1.47E-02
124217,6.51E-03,1.49E-02
124218,6.51E-03,1.52E-02
124219,6.51E-03,1.54E-02
124220,6.51E-03,1.57E-02
124221,6.51E-03,1.59E-02
124222,6.51E-03,1.62E-02
124223,6.51E-03,1.64E-02
124224,6.51E-03,1.66E-02
124225,6.51E-03,1.69E-02
124226,6.51E-03,1.71E-02
124227,6.51E-03,1.74E-02
124228,6.50E-03,1.76E-02
124229,6.50E-03,1.79E-02
124230,6.50E-03,1.81E-02
124231,6.50E-03,1.84E-02
124232,6.50E-03,1.86E-02
124233,6.50E-03,1.89E-02
124234,6.50E-03,1.91E-02
124235,6.50E-03,1.94E-02
124236,6.50E-03,1.96E-02
124237,6.50E-03,1.98E-02
124238,6.50E-03,2.01E-02
124239,6.50E-03,2.03E-02
124240,6.50E-03,2.06E-02
124241,6.50E-03,2.08E-02
124242,6.49E-03,2.11E-02
124243,6.49E-03,2.13E-02
124244,6.49E-03,2.16E-02
124245,6.49E-03,2.18E-02
124246,6.49E-03,2.21E-02
124247,6.49E-03,2.23E-02
124248,6.49E-03,2.26E-02
124249,6.49E-03,2.28E-02
124250,6.49E-03,2.30E-02
124251,6.49E-03,2.33E-02
124252,6.49E-03,2.35E-02
124253,6.49E-03,2.37E-02
124254,6.49E-03,2.40E-02
124255,6.48E-03,2.42E-02
124256,6.48E-03,2.44E-02
124257,6.48E-03,2.46E-02
124258,6.48E-03,2.49E-02
124259,6.48E-03,2.51E-02
124260,6.48E-03,2.52E-02
124261,6.48E-03,2.54E-02
124262,6.48E-03,2.56E-02
124263,6.48E-03,2.58E-02
124264,6.48E-03,2.59E-02
124265,6.48E-03,2.60E-02
124266,6.53E-03,1.05E-02
124267,6.53E-03,1.06E-02
124268,6.53E-03,1.08E-02
124269,6.52E-03,1.10E-02
124270,6.52E-03,1.12E-02
124271,6.52E-03,1.14E-02
124272,6.52E-03,1.16E-02
124273,6.52E-03,1.18E-02
124274,6.52E-03,1.21E-02
124275,6.52E-03,1.23E-02
124276,6.52E-03,1.25E-02
124277,6.52E-03,1.28E-02
124278,6.52E-03,1.30E-02
124279,6.52E-03,1.32E-02
124280,6.52E-03,1.35E-02
124281,6.52E-03,1.37E-02
124282,6.52E-03,1.40E-02
124283,6.51E-03,1.42E-02
124284,6.51E-03,1.44E-02
124285,6.51E-03,1.47E-02
124286,6.51E-03,1.49E-02
124287,6.51E-03,1.52E-02
124288,6.51E-03,1.54E-02
124289,6.51E-03,1.57E-02
124290,6.51E-03,1.59E-02
124291,6.51E-03,1.62E-02
124292,6.51E-03,1.64E-02
124293,6.51E-03,1.66E-02
124294,6.51E-03,1.69E-02
124295,6.51E-03,1.71E-02
124296,6.51E-03,1.74E-02
124297,6.50E-03,1.76E-02
124298,6.50E-03,1.79E-02
124299,6.50E-03,1.81E-02
124300,6.50E-03,1.84E-02
124301,6.50E-03,1.86E-02
124302,6.50E-03,1.89E-02
124303,6.50E-03,1.91E-02
124304,6.50E-03,1.94E-02
124305,6.50E-03,1.96E-02
124306,6.50E-03,1.98E-02
124307,6.50E-03,2.01E-02
124308,6.50E-03,2.03E-02
124309,6.50E-03,2.06E-02
124310,6.50E-03,2.08E-02
124311,6.49E-03,2.11E-02
124312,6.49E-03,2.13E-02
124313,6.49E-03,2.16E-02
124314,6.49E-03,2.18E-02
124315,6.49E-03,2.21E-02
124316,6.49E-03,2.23E-02
124317,6.49E-03,2.26E-02
124318,6.49E-03,2.28E-02
124319,6.49E-03,2.30E-02
124320,6.49E-03,2.33E-02
124321,6.49E-03,2.35E-02
124322,6.49E-03,2.37E-02
124323,6.49E-03,2.40E-02
124324,6.48E-03,2.42E-02
124325,6.48E-03,2.44E-02
124326,6.48E-03,2.46E-02
124327,6.48E-03,2.48E-02
124328,6.48E-03,2.50E-02
124329,6.48E-03,2.52E-02
124330,6.48E-03,2.54E-02
124331,6.48E-03,2.56E-02
124332,6.48E-03,2.57E-02
124333,6.48E-03,2.58E-02
124334,6.48E-03,2.60E-02
124335,6.53E-03,1.05E-02
124336,6.53E-03,1.07E-02
124337,6.53E-03,1.08E-02
124338,6.52E-03,1.10E-02
124339,6.52E-03,1.12E-02
124340,6.52E-03,1.14E-02
124341,6.52E-03,1.16E-02
124342,6.52E-03,1.19E-02
124343,6.52E-03,1.21E-02
124344,6.52E-03,1.23E-02
124345,6.52E-03,1.25E-02
124346,6.52E-03,1.28E-02
124347,6.52E-03,1.30E-02
124348,6.52E-03,1.32E-02
124349,6.52E-03,1.35E-02
124350,6.52E-03,1.37E-02
124351,6.52E-03,1.40E-02
124352,6.51E-03,1.42E-02
124353,6.51E-03,1.44E-02
124354,6.51E-03,1.47E-02
124355,6.51E-03,1.49E-02
124356,6.51E-03,1.52E-02
124357,6.51E-03,1.54E-02
124358,6.51E-03,1.57E-02
124359,6.51E-03,1.59E-02
124360,6.51E-03,1.62E-02
124361,6.51E-03,1.64E-02
124362,6.51E-03,1.66E-02
124363,6.51E-03,1.69E-02
124364,6.51E-03,1.71E-02
124365,6.51E-03,1.74E-02
124366,6.50E-03,1.76E-02
124367,6.50E-03,1.79E-02
124368,6.50E-03,1.81E-02
124369,6.50E-03,1.84E-02
124370,6.50E-03,1.86E-02
124371,6.50E-03,1.89E-02
124372,6.50E-03,1.91E-02
124373,6.50E-03,1.94E-02
124374,6.50E-03,1.96E-02
124375,6.50E-03,1.99E-02
124376,6.50E-03,2.01E-02
124377,6.50E-03,2.03E-02
124378,6.50E-03,2.06E-02
124379,6.50E-03,2.08E-02
124380,6.49E-03,2.11E-02
124381,6.49E-03,2.13E-02
124382,6.49E-03,2.16E-02
124383,6.49E-03,2.18E-02
124384,6.49E-03,2.21E-02
124385,6.49E-03,2.23E-02
124386,6.49E-03,2.26E-02
124387,6.49E-03,2.28E-02
124388,6.49E-03,2.30E-02
124389,6.49E-03,2.33E-02
124390,6.49E-03,2.35E-02
124391,6.49E-03,2.38E-02
124392,6.49E-03,2.40E-02
124393,6.48E-03,2.42E-02
124394,6.48E-03,2.44E-02
124395,6.48E-03,2.46E-02
124396,6.48E-03,2.48E-02
124397,6.48E-03,2.50E-02
124398,6.48E-03,2.52E-02
124399,6.48E-03,2.54E-02
124400,6.48E-03,2.55E-02
124401,6.48E-03,2.57E-02
124402,6.48E-03,2.58E-02
124403,6.48E-03,2.59E-02
124404,6.53E-03,1.05E-02
124405,6.53E-03,1.07E-02
124406,6.53E-03,1.09E-02
124407,6.52E-03,1.11E-02
124408,6.52E-03,1.12E-02
124409,6.52E-03,1.14E-02
124410,6.52E-03,1.17E-02
124411,6.52E-03,1.19E-02
124412,6.52E-03,1.21E-02
124413,6.52E-03,1.23E-02
124414,6.52E-03,1.26E-02
124415,6.52E-03,1.28E-02
124416,6.52E-03,1.30E-02
124417,6.52E-03,1.33E-02
124418,6.52E-03,1.35E-02
124419,6.52E-03,1.37E-02
124420,6.52E-03,1.40E-02
124421,6.51E-03,1.42E-02
124422,6.51E-03,1.45E-02
124423,6.51E-03,1.47E-02
124424,6.51E-03,1.49E-02
124425,6.51E-03,1.52E-02
124426,6.51E-03,1.54E-02
124427,6.51E-03,1.57E-02
124428,6.51E-03,1.59E-02
124429,6.51E-03,1.62E-02
124430,6.51E-03,1.64E-02
124431,6.51E-03,1.66E-02
124432,6.51E-03,1.69E-02
124433,6.51E-03,1.71E-02
124434,6.51E-03,1.74E-02
124435,6.50E-03,1.76E-02
124436,6.50E-03,1.79E-02
124437,6.50E-03,1.81E-02
124438,6.50E-03,1.84E-02
124439,6.50E-03,1.86E-02
124440,6.50E-03,1.89E-02
124441,6.50E-03,1.91E-02
124442,6.50E-03,1.94E-02
124443,6.50E-03,1.96E-02
124444,6.50E-03,1.99E-02
124445,6.50E-03,2.01E-02
124446,6.50E-03,2.03E-02
124447,6.50E-03,2.06E-02
124448,6.50E-03,2.08E-02
124449,6.49E-03,2.11E-02
124450,6.49E-03,2.13E-02
124451,6.49E-03,2.16E-02
124452,6.49E-03,2.18E-02
124453,6.49E-03,2.21E-02
124454,6.49E-03,2.23E-02
124455,6.49E-03,2.26E-02
124456,6.49E-03,2.28E-02
124457,6.49E-03,2.30E-02
124458,6.49E-03,2.33E-02
124459,6.49E-03,2.35E-02
124460,6.49E-03,2.38E-02
124461,6.49E-03,2.40E-02
124462,6.48E-03,2.42E-02
124463,6.48E-03,2.44E-02
124464,6.48E-03,2.46E-02
124465,6.48E-03,2.48E-02
124466,6.48E-03,2.50E-02
124467,6.48E-03,2.52E-02
124468,6.48E-03,2.53E-02
124469,6.48E-03,2.55E-02
124470,6.48E-03,2.56E-02
124471,6.48E-03,2.57E-02
124472,6.48E-03,2.58E-02
124473,6.53E-03,1.06E-02
124474,6.53E-03,1.07E-02
124475,6.53E-03,1.09E-02
124476,6.52E-03,1.11E-02
124477,6.52E-03,1.13E-02
124478,6.52E-03,1.15E-02
124479,6.52E-03,1.17E-02
124480,6.52E-03,1.19E-02
124481,6.52E-03,1.21E-02
124482,6.52E-03,1.23E-02
124483,6.52E-03,1.26E-02
124484,6.52E-03,1.28E-02
124485,6.52E-03,1.30E-02
124486,6.52E-03,1.33E-02
124487,6.52E-03,1.35E-02
124488,6.52E-03,1.37E-02
124489,6.52E-03,1.40E-02
124490,6.51E-03,1.42E-02
124491,6.51E-03,1.45E-02
124492,6.51E-03,1.47E-02
124493,6.51E-03,1.49E-02
124494,6.51E-03,1.52E-02
124495,6.51E-03,1.54E-02
124496,6.51E-03,1.57E-02
124497,6.51E-03,1.59E-02
124498,6.51E-03,1.62E-02
124499,6.51E-03,1.64E-02
124500,6.51E-03,1.67E-02
124501,6.51E-03,1.69E-02
124502,6.51E-03,1.71E-02
124503,6.51E-03,1.74E-02
124504,6.50E-03,1.76E-02
124505,6.50E-03,1.79E-02
124506,6.50E-03,1.81E-02
124507,6.50E-03,1.84E-02
124508,6.50E-03,1.86E-02
124509,6.50E-03,1.89E-02
124510,6.50E-03,1.91E-02
124511,6.50E-03,1.94E-02
124512,6.50E-03,1.96E-02
124513,6.50E-03,1.99E-02
124514,6.50E-03,2.01E-02
124515,6.50E-03,2.03E-02
124516,6.50E-03,2.06E-02
124517,6.50E-03,2.08E-02
124518,6.49E-03,2.11E-02
124519,6.49E-03,2.13E-02
124520,6.49E-03,2.16E-02
124521,6.49E-03,2.18E-02
124522,6.49E-03,2.21E-02
124523,6.49E-03,2.23E-02
124524,6.49E-03,2.26E-02
124525,6.49E-03,2.28E-02
124526,6.49E-03,2.30E-02
124527,6.49E-03,2.33E-02
124528,6.49E-03,2.35E-02
124529,6.49E-03,2.38E-02
124530,6.49E-03,2.40E-02
124531,6.48E-03,2.42E-02
124532,6.48E-03,2.44E-02
124533,6.48E-03,2.46E-02
124534,6.48E-03,2.48E-02
124535,6.48E-03,2.50E-02
124536,6.48E-03,2.52E-02
124537,6.48E-03,2.53E-02
124538,6.48E-03,2.54E-02
124539,6.48E-03,2.56E-02
124540,6.48E-03,2.57E-02
124541,6.48E-03,2.57E-02
124542,6.53E-03,1.06E-02
124543,6.53E-03,1.08E-02
124544,6.53E-03,1.09E-02
124545,6.52E-03,1.11E-02
124546,6.52E-03,1.13E-02
124547,6.52E-03,1.15E-02
124548,6.52E-03,1.17E-02
124549,6.52E-03,1.19E-02
124550,6.52E-03,1.21E-02
124551,6.52E-03,1.24E-02
124552,6.52E-03,1.26E-02
124553,6.52E-03,1.28E-02
124554,6.52E-03,1.30E-02
124555,6.52E-03,1.33E-02
124556,6.52E-03,1.35E-02
124557,6.52E-03,1.38E-02
124558,6.52E-03,1.40E-02
124559,6.51E-03,1.42E-02
124560,6.51E-03,1.45E-02
124561,6.51E-03,1.47E-02
124562,6.51E-03,1.50E-02
124563,6.51E-03,1.52E-02
124564,6.51E-03,1.54E-02
124565,6.51E-03,1.57E-02
124566,6.51E-03,1.59E-02
124567,6.51E-03,1.62E-02
124568,6.51E-03,1.64E-02
124569,6.51E-03,1.67E-02
124570,6.51E-03,1.69E-02
124571,6.51E-03,1.71E-02
124572,6.51E-03,1.74E-02
124573,6.50E-03,1.76E-02
124574,6.50E-03,1.79E-02
124575,6.50E-03,1.81E-02
124576,6.50E-03,1.84E-02
124577,6.50E-03,1.86E-02
124578,6.50E-03,1.89E-02
124579,6.50E-03,1.91E-02
124580,6.50E-03,1.94E-02
124581,6.50E-03,1.96E-02
124582,6.50E-03,1.99E-02
124583,6.50E-03,2.01E-02
124584,6.50E-03,2.03E-02
124585,6.50E-03,2.06E-02
124586,6.50E-03,2.08E-02
124587,6.49E-03,2.11E-02
124588,6.49E-03,2.13E-02
124589,6.49E-03,2.16E-02
124590,6.49E-03,2.18E-02
124591,6.49E-03,2.21E-02
124592,6.49E-03,2.23E-02
124593,6.49E-03,2.26E-02
124594,6.49E-03,2.28E-02
124595,6.49E-03,2.30E-02
124596,6.49E-03,2.33E-02
124597,6.49E-03,2.35E-02
124598,6.49E-03,2.37E-02
124599,6.49E-03,2.40E-02
124600,6.48E-03,2.42E-02
124601,6.48E-03,2.44E-02
124602,6.48E-03,2.46E-02
124603,6.48E-03,2.48E-02
124604,6.48E-03,2.50E-02
124605,6.48E-03,2.52E-02
124606,6.48E-03,2.53E-02
124607,6.48E-03,2.54E-02
124608,6.48E-03,2.55E-02
124609,6.48E-03,2.56E-02
124610,6.48E-03,2.57E-02
124611,6.53E-03,1.06E-02
124612,6.53E-03,1.08E-02
124613,6.53E-03,1.10E-02
124614,6.52E-03,1.11E-02
124615,6.52E-03,1.13E-02
124616,6.52E-03,1.15E-02
124617,6.52E-03,1.17E-02
124618,6.52E-03,1.19E-02
124619,6.52E-03,1.22E-02
124620,6.52E-03,1.24E-02
124621,6.52E-03,1.26E-02
124622,6.52E-03,1.28E-02
124623,6.52E-03,1.31E-02
124624,6.52E-03,1.33E-02
124625,6.52E-03,1.35E-02
124626,6.52E-03,1.38E-02
124627,6.52E-03,1.40E-02
124628,6.51E-03,1.42E-02
124629,6.51E-03,1.45E-02
124630,6.51E-03,1.47E-02
124631,6.51E-03,1.50E-02
124632,6.51E-03,1.52E-02
124633,6.51E-03,1.54E-02
124634,6.51E-03,1.57E-02
124635,6.51E-03,1.59E-02
124636,6.51E-03,1.62E-02
124637,6.51E-03,1.64E-02
124638,6.51E-03,1.67E-02
124639,6.51E-03,1.69E-02
124640,6.51E-03,1.71E-02
124641,6.51E-03,1.74E-02
124642,6.50E-03,1.76E-02
124643,6.50E-03,1.79E-02
124644,6.50E-03,1.81E-02
124645,6.50E-03,1.84E-02
124646,6.50E-03,1.86E-02
124647,6.50E-03,1.89E-02
124648,6.50E-03,1.91E-02
124649,6.50E-03,1.94E-02
124650,6.50E-03,1.96E-02
124651,6.50E-03,1.99E-02
124652,6.50E-03,2.01E-02
124653,6.50E-03,2.03E-02
124654,6.50E-03,2.06E-02
124655,6.50E-03,2.08E-02
124656,6.49E-03,2.11E-02
124657,6.49E-03,2.13E-02
124658,6.49E-03,2.16E-02
124659,6.49E-03,2.18E-02
124660,6.49E-03,2.21E-02
124661,6.49E-03,2.23E-02
124662,6.49E-03,2.26E-02
124663,6.49E-03,2.28E-02
124664,6.49E-03,2.30E-02
124665,6.49E-03,2.33E-02
124666,6.49E-03,2.35E-02
124667,6.49E-03,2.37E-02
124668,6.49E-03,2.40E-02
124669,6.48E-03,2.42E-02
124670,6.48E-03,2.44E-02
124671,6.48E-03,2.46E-02
124672,6.48E-03,2.48E-02
124673,6.48E-03,2.50E-02
124674,6.48E-03,2.51E-02
124675,6.48E-03,2.53E-02
124676,6.48E-03,2.54E-02
124677,6.48E-03,2.55E-02
124678,6.48E-03,2.56E-02
124679,6.48E-03,2.56E-02
124680,6.53E-03,1.06E-02
124681,6.53E-03,1.08E-02
124682,6.53E-03,1.10E-02
124683,6.52E-03,1.12E-02
124684,6.52E-03,1.14E-02
124685,6.52E-03,1.16E-02
124686,6.52E-03,1.18E-02
124687,6.52E-03,1.20E-02
124688,6.52E-03,1.22E-02
124689,6.52E-03,1.24E-02
124690,6.52E-03,1.26E-02
124691,6.52E-03,1.29E-02
124692,6.52E-03,1.31E-02
124693,6.52E-03,1.33E-02
124694,6.52E-03,1.35E-02
124695,6.52E-03,1.38E-02
124696,6.52E-03,1.40E-02
124697,6.51E-03,1.43E-02
124698,6.51E-03,1.45E-02
124699,6.51E-03,1.47E-02
124700,6.51E-03,1.50E-02
124701,6.51E-03,1.52E-02
124702,6.51E-03,1.54E-02
124703,6.51E-03,1.57E-02
124704,6.51E-03,1.59E-02
124705,6.51E-03,1.62E-02
124706,6.51E-03,1.64E-02
124707,6.51E-03,1.67E-02
124708,6.51E-03,1.69E-02
124709,6.51E-03,1.71E-02
124710,6.51E-03,1.74E-02
124711,6.50E-03,1.76E-02
124712,6.50E-03,1.79E-02
124713,6.50E-03,1.81E-02
124714,6.50E-03,1.84E-02
124715,6.50E-03,1.86E-02
124716,6.50E-03,1.89E-02
124717,6.50E-03,1.91E-02
124718,6.50E-03,1.94E-02
124719,6.50E-03,1.96E-02
124720,6.50E-03,1.99E-02
124721,6.50E-03,2.01E-02
124722,6.50E-03,2.03E-02
124723,6.50E-03,2.06E-02
124724,6.50E-03,2.08E-02
124725,6.49E-03,2.11E-02
124726,6.49E-03,2.13E-02
124727,6.49E-03,2.16E-02
124728,6.49E-03,2.18E-02
124729,6.49E-03,2.21E-02
124730,6.49E-03,2.23E-02
124731,6.49E-03,2.26E-02
124732,6.49E-03,2.28E-02
124733,6.49E-03,2.30E-02
124734,6.49E-03,2.33E-02
124735,6.49E-03,2.35E-02
124736,6.49E-03,2.37E-02
124737,6.49E-03,2.40E-02
124738,6.48E-03,2.42E-02
124739,6.48E-03,2.44E-02
124740,6.48E-03,2.46E-02
124741,6.48E-03,2.48E-02
124742,6.48E-03,2.50E-02
124743,6.48E-03,2.51E-02
124744,6.48E-03,2.53E-02
124745,6.48E-03,2.54E-02
124746,6.48E-03,2.55E-02
124747,6.48E-03,2.56E-02
124748,6.48E-03,2.56E-02
124749,6.53E-03,1.06E-02
124750,6.53E-03,1.08E-02
124751,6.53E-03,1.10E-02
124752,6.52E-03,1.12E-02
124753,6.52E-03,1.14E-02
124754,6.52E-03,1.16E-02
124755,6.52E-03,1.18E-02
124756,6.52E-03,1.20E-02
124757,6.52E-03,1.22E-02
124758,6.52E-03,1.24E-02
124759,6.52E-03,1.26E-02
124760,6.52E-03,1.29E-02
124761,6.52E-03,1.31E-02
124762,6.52E-03,1.33E-02
124763,6.52E-03,1.36E-02
124764,6.52E-03,1.38E-02
124765,6.52E-03,1.40E-02
124766,6.51E-03,1.43E-02
124767,6.51E-03,1.45E-02
124768,6.51E-03,1.47E-02
124769,6.51E-03,1.50E-02
124770,6.51E-03,1.52E-02
124771,6.51E-03,1.55E-02
124772,6.51E-03,1.57E-02
124773,6.51E-03,1.59E-02
124774,6.51E-03,1.62E-02
124775,6.51E-03,1.64E-02
124776,6.51E-03,1.67E-02
124777,6.51E-03,1.69E-02
124778,6.51E-03,1.71E-02
124779,6.51E-03,1.74E-02
124780,6.50E-03,1.76E-02
124781,6.50E-03,1.79E-02
124782,6.50E-03,1.81E-02
124783,6.50E-03,1.84E-02
124784,6.50E-03,1.86E-02
124785,6.50E-03,1.89E-02
124786,6.50E-03,1.91E-02
124787,6.50E-03,1.94E-02
124788,6.50E-03,1.96E-02
124789,6.50E-03,1.98E-02
124790,6.50E-03,2.01E-02
124791,6.50E-03,2.03E-02
124792,6.50E-03,2.06E-02
124793,6.50E-03,2.08E-02
124794,6.49E-03,2.11E-02
124795,6.49E-03,2.13E-02
124796,6.49E-03,2.16E-02
124797,6.49E-03,2.18E-02
124798,6.49E-03,2.21E-02
124799,6.49E-03,2.23E-02
124800,6.49E-03,2.26E-02
124801,6.49E-03,2.28E-02
124802,6.49E-03,2.30E-02
124803,6.49E-03,2.33E-02
124804,6.49E-03,2.35E-02
124805,6.49E-03,2.37E-02
124806,6.49E-03,2.40E-02
124807,6.48E-03,2.42E-02
124808,6.48E-03,2.44E-02
124809,6.48E-03,2.46E-02
124810,6.48E-03,2.48E-02
124811,6.48E-03,2.50E-02
124812,6.48E-03,2.51E-02
124813,6.48E-03,2.53E-02
124814,6.48E-03,2.54E-02
124815,6.48E-03,2.55E-02
124816,6.48E-03,2.56E-02
124817,6.48E-03,2.56E-02
124818,6.53E-03,1.06E-02
124819,6.53E-03,1.08E-02
124820,6.53E-03,1.10E-02
124821,6.52E-03,1.12E-02
124822,6.52E-03,1.14E-02
124823,6.52E-03,1.16E-02
124824,6.52E-03,1.18E-02
124825,6.52E-03,1.20E-02
124826,6.52E-03,1.22E-02
124827,6.52E-03,1.24E-02
124828,6.52E-03,1.27E-02
124829,6.52E-03,1.29E-02
124830,6.52E-03,1.31E-02
124831,6.52E-03,1.33E-02
124832,6.52E-03,1.36E-02
124833,6.52E-03,1.38E-02
124834,6.52E-03,1.40E-02
124835,6.51E-03,1.43E-02
124836,6.51E-03,1.45E-02
124837,6.51E-03,1.47E-02
124838,6.51E-03,1.50E-02
124839,6.51E-03,1.52E-02
124840,6.51E-03,1.55E-02
124841,6.51E-03,1.57E-02
124842,6.51E-03,1.59E-02
124843,6.51E-03,1.62E-02
124844,6.51E-03,1.64E-02
124845,6.51E-03,1.67E-02
124846,6.51E-03,1.69E-02
124847,6.51E-03,1.72E-02
124848,6.51E-03,1.74E-02
124849,6.50E-03,1.76E-02
124850,6.50E-03,1.79E-02
124851,6.50E-03,1.81E-02
124852,6.50E-03,1.84E-02
124853,6.50E-03,1.86E-02
124854,6.50E-03,1.89E-02
124855,6.50E-03,1.91E-02
124856,6.50E-03,1.94E-02
124857,6.50E-03,1.96E-02
124858,6.50E-03,1.98E-02
124859,6.50E-03,2.01E-02
124860,6.50E-03,2.03E-02
124861,6.50E-03,2.06E-02
124862,6.50E-03,2.08E-02
124863,6.49E-03,2.11E-02
124864,6.49E-03,2.13E-02
124865,6.49E-03,2.16E-02
124866,6.49E-03,2.18E-02
124867,6.49E-03,2.21E-02
124868,6.49E-03,2.23E-02
124869,6.49E-03,2.25E-02
124870,6.49E-03,2.28E-02
124871,6.49E-03,2.30E-02
124872,6.49E-03,2.33E-02
124873,6.49E-03,2.35E-02
124874,6.49E-03,2.37E-02
124875,6.49E-03,2.40E-02
124876,6.48E-03,2.42E-02
124877,6.48E-03,2.44E-02
124878,6.48E-03,2.46E-02
124879,6.48E-03,2.48E-02
124880,6.48E-03,2.50E-02
124881,6.48E-03,2.51E-02
124882,6.48E-03,2.53E-02
124883,6.48E-03,2.54E-02
124884,6.48E-03,2.55E-02
124885,6.48E-03,2.56E-02
124886,6.48E-03,2.56E-02
124887,6.53E-03,1.05E-02
124888,6.53E-03,1.08E-02
124889,6.53E-03,1.10E-02
124890,6.52E-03,1.12E-02
124891,6.52E-03,1.14E-02
124892,6.52E-03,1.16E-02
124893,6.52E-03,1.18E-02
124894,6.52E-03,1.20E-02
124895,6.52E-03,1.22E-02
124896,6.52E-03,1.25E-02
124897,6.52E-03,1.27E-02
124898,6.52E-03,1.29E-02
124899,6.52E-03,1.31E-02
124900,6.52E-03,1.34E-02
124901,6.52E-03,1.36E-02
124902,6.52E-03,1.38E-02
124903,6.52E-03,1.40E-02
124904,6.51E-03,1.43E-02
124905,6.51E-03,1.45E-02
124906,6.51E-03,1.48E-02
124907,6.51E-03,1.50E-02
124908,6.51E-03,1.52E-02
124909,6.51E-03,1.55E-02
124910,6.51E-03,1.57E-02
124911,6.51E-03,1.59E-02
124912,6.51E-03,1.62E-02
124913,6.51E-03,1.64E-02
124914,6.51E-03,1.67E-02
124915,6.51E-03,1.69E-02
124916,6.51E-03,1.72E-02
124917,6.51E-03,1.74E-02
124918,6.50E-03,1.76E-02
124919,6.50E-03,1.79E-02
124920,6.50E-03,1.81E-02
124921,6.50E-03,1.84E-02
124922,6.50E-03,1.86E-02
124923,6.50E-03,1.89E-02
124924,6.50E-03,1.91E-02
124925,6.50E-03,1.93E-02
124926,6.50E-03,1.96E-02
124927,6.50E-03,1.98E-02
124928,6.50E-03,2.01E-02
124929,6.50E-03,2.03E-02
124930,6.50E-03,2.06E-02
124931,6.50E-03,2.08E-02
124932,6.49E-03,2.11E-02
124933,6.49E-03,2.13E-02
124934,6.49E-03,2.16E-02
124935,6.49E-03,2.18E-02
124936,6.49E-03,2.20E-02
124937,6.49E-03,2.23E-02
124938,6.49E-03,2.25E-02
124939,6.49E-03,2.28E-02
124940,6.49E-03,2.30E-02
124941,6.49E-03,2.33E-02
124942,6.49E-03,2.35E-02
124943,6.49E-03,2.37E-02
124944,6.49E-03,2.39E-02
124945,6.48E-03,2.42E-02
124946,6.48E-03,2.44E-02
124947,6.48E-03,2.46E-02
124948,6.48E-03,2.48E-02
124949,6.48E-03,2.50E-02
124950,6.48E-03,2.51E-02
124951,6.48E-03,2.53E-02
124952,6.48E-03,2.54E-02
124953,6.48E-03,2.55E-02
124954,6.48E-03,2.56E-02
124955,6.48E-03,2.57E-02
124956,6.53E-03,1.05E-02
124957,6.53E-03,1.07E-02
124958,6.53E-03,1.10E-02
124959,6.52E-03,1.12E-02
124960,6.52E-03,1.14E-02
124961,6.52E-03,1.16E-02
124962,6.52E-03,1.18E-02
124963,6.52E-03,1.20E-02
124964,6.52E-03,1.22E-02
124965,6.52E-03,1.25E-02
124966,6.52E-03,1.27E-02
124967,6.52E-03,1.29E-02
124968,6.52E-03,1.31E-02
124969,6.52E-03,1.34E-02
124970,6.52E-03,1.36E-02
124971,6.52E-03,1.38E-02
124972,6.52E-03,1.41E-02
124973,6.51E-03,1.43E-02
124974,6.51E-03,1.45E-02
124975,6.51E-03,1.48E-02
124976,6.51E-03,1.50E-02
124977,6.51E-03,1.52E-02
124978,6.51E-03,1.55E-02
124979,6.51E-03,1.57E-02
124980,6.51E-03,1.59E-02
124981,6.51E-03,1.62E-02
124982,6.51E-03,1.64E-02
124983,6.51E-03,1.67E-02
124984,6.51E-03,1.69E-02
124985,6.51E-03,1.72E-02
124986,6.51E-03,1.74E-02
124987,6.50E-03,1.76E-02
124988,6.50E-03,1.79E-02
124989,6.50E-03,1.81E-02
124990,6.50E-03,1.84E-02
124991,6.50E-03,1.86E-02
124992,6.50E-03,1.89E-02
124993,6.50E-03,1.91E-02
124994,6.50E-03,1.93E-02
124995,6.50E-03,1.96E-02
124996,6.50E-03,1.98E-02
124997,6.50E-03,2.01E-02
124998,6.50E-03,2.03E-02
124999,6.50E-03,2.06E-02
125000,6.50E-03,2.08E-02
125001,6.49E-03,2.11E-02
125002,6.49E-03,2.13E-02
125003,6.49E-03,2.15E-02
125004,6.49E-03,2.18E-02
125005,6.49E-03,2.20E-02
125006,6.49E-03,2.23E-02
125007,6.49E-03,2.25E-02
125008,6.49E-03,2.28E-02
125009,6.49E-03,2.30E-02
125010,6.49E-03,2.32E-02
125011,6.49E-03,2.35E-02
125012,6.49E-03,2.37E-02
125013,6.49E-03,2.39E-02
125014,6.48E-03,2.42E-02
125015,6.48E-03,2.44E-02
125016,6.48E-03,2.46E-02
125017,6.48E-03,2.48E-02
125018,6.48E-03,2.50E-02
125019,6.48E-03,2.51E-02
125020,6.48E-03,2.53E-02
125021,6.48E-03,2.54E-02
125022,6.48E-03,2.56E-02
125023,6.48E-03,2.56E-02
125024,6.48E-03,2.57E-02
125025,6.53E-03,1.05E-02
125026,6.53E-03,1.07E-02
125027,6.53E-03,1.09E-02
125028,6.52E-03,1.12E-02
125029,6.52E-03,1.14E-02
125030,6.52E-03,1.16E-02
125031,6.52E-03,1.18E-02
125032,6.52E-03,1.20E-02
125033,6.52E-03,1.23E-02
125034,6.52E-03,1.25E-02
125035,6.52E-03,1.27E-02
125036,6.52E-03,1.29E-02
125037,6.52E-03,1.31E-02
125038,6.52E-03,1.34E-02
125039,6.52E-03,1.36E-02
125040,6.52E-03,1.38E-02
125041,6.52E-03,1.41E-02
125042,6.51E-03,1.43E-02
125043,6.51E-03,1.45E-02
125044,6.51E-03,1.48E-02
125045,6.51E-03,1.50E-02
125046,6.51E-03,1.52E-02
125047,6.51E-03,1.55E-02
125048,6.51E-03,1.57E-02
125049,6.51E-03,1.60E-02
125050,6.51E-03,1.62E-02
125051,6.51E-03,1.64E-02
125052,6.51E-03,1.67E-02
125053,6.51E-03,1.69E-02
125054,6.51E-03,1.72E-02
125055,6.51E-03,1.74E-02
125056,6.50E-03,1.76E-02
125057,6.50E-03,1.79E-02
125058,6.50E-03,1.81E-02
125059,6.50E-03,1.84E-02
125060,6.50E-03,1.86E-02
125061,6.50E-03,1.88E-02
125062,6.50E-03,1.91E-02
125063,6.50E-03,1.93E-02
125064,6.50E-03,1.96E-02
125065,6.50E-03,1.98E-02
125066,6.50E-03,2.01E-02
125067,6.50E-03,2.03E-02
125068,6.50E-03,2.06E-02
125069,6.50E-03,2.08E-02
125070,6.49E-03,2.10E-02
125071,6.49E-03,2.13E-02
125072,6.49E-03,2.15E-02
125073,6.49E-03,2.18E-02
125074,6.49E-03,2.20E-02
125075,6.49E-03,2.23E-02
125076,6.49E-03,2.25E-02
125077,6.49E-03,2.27E-02
125078,6.49E-03,2.30E-02
125079,6.49E-03,2.32E-02
125080,6.49E-03,2.35E-02
125081,6.49E-03,2.37E-02
125082,6.49E-03,2.39E-02
125083,6.48E-03,2.41E-02
125084,6.48E-03,2.44E-02
125085,6.48E-03,2.46E-02
125086,6.48E-03,2.48E-02
125087,6.48E-03,2.50E-02
125088,6.48E-03,2.51E-02
125089,6.48E-03,2.53E-02
125090,6.48E-03,2.55E-02
125091,6.48E-03,2.56E-02
125092,6.48E-03,2.57E-02
125093,6.48E-03,2.57E-02
125094,6.53E-03,1.05E-02
125095,6.53E-03,1.07E-02
125096,6.53E-03,1.09E-02
125097,6.52E-03,1.12E-02
125098,6.52E-03,1.14E-02
125099,6.52E-03,1.16E-02
125100,6.52E-03,1.18E-02
125101,6.52E-03,1.20E-02
125102,6.52E-03,1.23E-02
125103,6.52E-03,1.25E-02
125104,6.52E-03,1.27E-02
125105,6.52E-03,1.29E-02
125106,6.52E-03,1.32E-02
125107,6.52E-03,1.34E-02
125108,6.52E-03,1.36E-02
125109,6.52E-03,1.38E-02
125110,6.52E-03,1.41E-02
125111,6.51E-03,1.43E-02
125112,6.51E-03,1.45E-02
125113,6.51E-03,1.48E-02
125114,6.51E-03,1.50E-02
125115,6.51E-03,1.52E-02
125116,6.51E-03,1.55E-02
125117,6.51E-03,1.57E-02
125118,6.51E-03,1.60E-02
125119,6.51E-03,1.62E-02
125120,6.51E-03,1.64E-02
125121,6.51E-03,1.67E-02
125122,6.51E-03,1.69E-02
125123,6.51E-03,1.72E-02
125124,6.51E-03,1.74E-02
125125,6.50E-03,1.76E-02
125126,6.50E-03,1.79E-02
125127,6.50E-03,1.81E-02
125128,6.50E-03,1.84E-02
125129,6.50E-03,1.86E-02
125130,6.50E-03,1.88E-02
125131,6.50E-03,1.91E-02
125132,6.50E-03,1.93E-02
125133,6.50E-03,1.96E-02
125134,6.50E-03,1.98E-02
125135,6.50E-03,2.01E-02
125136,6.50E-03,2.03E-02
125137,6.50E-03,2.05E-02
125138,6.50E-03,2.08E-02
125139,6.49E-03,2.10E-02
125140,6.49E-03,2.13E-02
125141,6.49E-03,2.15E-02
125142,6.49E-03,2.18E-02
125143,6.49E-03,2.20E-02
125144,6.49E-03,2.22E-02
125145,6.49E-03,2.25E-02
125146,6.49E-03,2.27E-02
125147,6.49E-03,2.30E-02
125148,6.49E-03,2.32E-02
125149,6.49E-03,2.34E-02
125150,6.49E-03,2.37E-02
125151,6.49E-03,2.39E-02
125152,6.48E-03,2.41E-02
125153,6.48E-03,2.43E-02
125154,6.48E-03,2.45E-02
125155,6.48E-03,2.48E-02
125156,6.48E-03,2.49E-02
125157,6.48E-03,2.51E-02
125158,6.48E-03,2.53E-02
125159,6.48E-03,2.55E-02
125160,6.48E-03,2.56E-02
125161,6.48E-03,2.57E-02
125162,6.48E-03,2.58E-02
125163,6.53E-03,1.04E-02
125164,6.53E-03,1.07E-02
125165,6.53E-03,1.09E-02
125166,6.52E-03,1.12E-02
125167,6.52E-03,1.14E-02
125168,6.52E-03,1.16E-02
125169,6.52E-03,1.18E-02
125170,6.52E-03,1.20E-02
125171,6.52E-03,1.23E-02
125172,6.52E-03,1.25E-02
125173,6.52E-03,1.27E-02
125174,6.52E-03,1.29E-02
125175,6.52E-03,1.32E-02
125176,6.52E-03,1.34E-02
125177,6.52E-03,1.36E-02
125178,6.52E-03,1.39E-02
125179,6.52E-03,1.41E-02
125180,6.51E-03,1.43E-02
125181,6.51E-03,1.45E-02
125182,6.51E-03,1.48E-02
125183,6.51E-03,1.50E-02
125184,6.51E-03,1.52E-02
125185,6.51E-03,1.55E-02
125186,6.51E-03,1.57E-02
125187,6.51E-03,1.60E-02
125188,6.51E-03,1.62E-02
125189,6.51E-03,1.64E-02
125190,6.51E-03,1.67E-02
125191,6.51E-03,1.69E-02
125192,6.51E-03,1.72E-02
125193,6.51E-03,1.74E-02
125194,6.50E-03,1.76E-02
125195,6.50E-03,1.79E-02
125196,6.50E-03,1.81E-02
125197,6.50E-03,1.84E-02
125198,6.50E-03,1.86E-02
125199,6.50E-03,1.88E-02
125200,6.50E-03,1.91E-02
125201,6.50E-03,1.93E-02
125202,6.50E-03,1.96E-02
125203,6.50E-03,1.98E-02
125204,6.50E-03,2.00E-02
125205,6.50E-03,2.03E-02
125206,6.50E-03,2.05E-02
125207,6.50E-03,2.08E-02
125208,6.49E-03,2.10E-02
125209,6.49E-03,2.13E-02
125210,6.49E-03,2.15E-02
125211,6.49E-03,2.17E-02
125212,6.49E-03,2.20E-02
125213,6.49E-03,2.22E-02
125214,6.49E-03,2.25E-02
125215,6.49E-03,2.27E-02
125216,6.49E-03,2.29E-02
125217,6.49E-03,2.32E-02
125218,6.49E-03,2.34E-02
125219,6.49E-03,2.36E-02
125220,6.49E-03,2.39E-02
125221,6.48E-03,2.41E-02
125222,6.48E-03,2.43E-02
125223,6.48E-03,2.45E-02
125224,6.48E-03,2.47E-02
125225,6.48E-03,2.49E-02
125226,6.48E-03,2.51E-02
125227,6.48E-03,2.53E-02
125228,6.48E-03,2.55E-02
125229,6.48E-03,2.56E-02
125230,6.48E-03,2.57E-02
125231,6.48E-03,2.58E-02
125232,6.53E-03,1.04E-02
125233,6.53E-03,1.07E-02
125234,6.53E-03,1.09E-02
125235,6.52E-03,1.11E-02
125236,6.52E-03,1.14E-02
125237,6.52E-03,1.16E-02
125238,6.52E-03,1.18E-02
125239,6.52E-03,1.20E-02
125240,6.52E-03,1.23E-02
125241,6.52E-03,1.25E-02
125242,6.52E-03,1.27E-02
125243,6.52E-03,1.29E-02
125244,6.52E-03,1.32E-02
125245,6.52E-03,1.34E-02
125246,6.52E-03,1.36E-02
125247,6.52E-03,1.39E-02
125248,6.52E-03,1.41E-02
125249,6.51E-03,1.43E-02
125250,6.51E-03,1.46E-02
125251,6.51E-03,1.48E-02
125252,6.51E-03,1.50E-02
125253,6.51E-03,1.53E-02
125254,6.51E-03,1.55E-02
125255,6.51E-03,1.57E-02
125256,6.51E-03,1.60E-02
125257,6.51E-03,1.62E-02
125258,6.51E-03,1.64E-02
125259,6.51E-03,1.67E-02
125260,6.51E-03,1.69E-02
125261,6.51E-03,1.71E-02
125262,6.51E-03,1.74E-02
125263,6.50E-03,1.76E-02
125264,6.50E-03,1.79E-02
125265,6.50E-03,1.81E-02
125266,6.50E-03,1.83E-02
125267,6.50E-03,1.86E-02
125268,6.50E-03,1.88E-02
125269,6.50E-03,1.91E-02
125270,6.50E-03,1.93E-02
125271,6.50E-03,1.96E-02
125272,6.50E-03,1.98E-02
125273,6.50E-03,2.00E-02
125274,6.50E-03,2.03E-02
125275,6.50E-03,2.05E-02
125276,6.50E-03,2.08E-02
125277,6.49E-03,2.10E-02
125278,6.49E-03,2.12E-02
125279,6.49E-03,2.15E-02
125280,6.49E-03,2.17E-02
125281,6.49E-03,2.20E-02
125282,6.49E-03,2.22E-02
125283,6.49E-03,2.24E-02
125284,6.49E-03,2.27E-02
125285,6.49E-03,2.29E-02
125286,6.49E-03,2.31E-02
125287,6.49E-03,2.34E-02
125288,6.49E-03,2.36E-02
125289,6.49E-03,2.38E-02
125290,6.48E-03,2.41E-02
125291,6.48E-03,2.43E-02
125292,6.48E-03,2.45E-02
125293,6.48E-03,2.47E-02
125294,6.48E-03,2.49E-02
125295,6.48E-03,2.51E-02
125296,6.48E-03,2.53E-02
125297,6.48E-03,2.55E-02
125298,6.48E-03,2.56E-02
125299,6.48E-03,2.58E-02
125300,6.48E-03,2.59E-02
125301,6.53E-03,1.04E-02
125302,6.53E-03,1.06E-02
125303,6.53E-03,1.09E-02
125304,6.52E-03,1.11E-02
125305,6.52E-03,1.14E-02
125306,6.52E-03,1.16E-02
125307,6.52E-03,1.18E-02
125308,6.52E-03,1.20E-02
125309,6.52E-03,1.23E-02
125310,6.52E-03,1.25E-02
125311,6.52E-03,1.27E-02
125312,6.52E-03,1.30E-02
125313,6.52E-03,1.32E-02
125314,6.52E-03,1.34E-02
125315,6.52E-03,1.36E-02
125316,6.52E-03,1.39E-02
125317,6.52E-03,1.41E-02
125318,6.51E-03,1.43E-02
125319,6.51E-03,1.46E-02
125320,6.51E-03,1.48E-02
125321,6.51E-03,1.50E-02
125322,6.51E-03,1.53E-02
125323,6.51E-03,1.55E-02
125324,6.51E-03,1.57E-02
125325,6.51E-03,1.60E-02
125326,6.51E-03,1.62E-02
125327,6.51E-03,1.64E-02
125328,6.51E-03,1.67E-02
125329,6.51E-03,1.69E-02
125330,6.51E-03,1.71E-02
125331,6.51E-03,1.74E-02
125332,6.50E-03,1.76E-02
125333,6.50E-03,1.79E-02
125334,6.50E-03,1.81E-02
125335,6.50E-03,1.83E-02
125336,6.50E-03,1.86E-02
125337,6.50E-03,1.88E-02
125338,6.50E-03,1.91E-02
125339,6.50E-03,1.93E-02
125340,6.50E-03,1.95E-02
125341,6.50E-03,1.98E-02
125342,6.50E-03,2.00E-02
125343,6.50E-03,2.03E-02
125344,6.50E-03,2.05E-02
125345,6.50E-03,2.07E-02
125346,6.49E-03,2.10E-02
125347,6.49E-03,2.12E-02
125348,6.49E-03,2.15E-02
125349,6.49E-03,2.17E-02
125350,6.49E-03,2.19E-02
125351,6.49E-03,2.22E-02
125352,6.49E-03,2.24E-02
125353,6.49E-03,2.27E-02
125354,6.49E-03,2.29E-02
125355,6.49E-03,2.31E-02
125356,6.49E-03,2.34E-02
125357,6.49E-03,2.36E-02
125358,6.49E-03,2.38E-02
125359,6.48E-03,2.40E-02
125360,6.48E-03,2.42E-02
125361,6.48E-03,2.45E-02
125362,6.48E-03,2.47E-02
125363,6.48E-03,2.49E-02
125364,6.48E-03,2.51E-02
125365,6.48E-03,2.53E-02
125366,6.48E-03,2.55E-02
125367,6.48E-03,2.56E-02
125368,6.48E-03,2.58E-02
125369,6.48E-03,2.59E-02
125370,6.53E-03,1.04E-02
125371,6.53E-03,1.06E-02
125372,6.53E-03,1.09E-02
125373,6.52E-03,1.11E-02
125374,6.52E-03,1.14E-02
125375,6.52E-03,1.16E-02
125376,6.52E-03,1.18E-02
125377,6.52E-03,1.20E-02
125378,6.52E-03,1.23E-02
125379,6.52E-03,1.25E-02
125380,6.52E-03,1.27E-02
125381,6.52E-03,1.30E-02
125382,6.52E-03,1.32E-02
125383,6.52E-03,1.34E-02
125384,6.52E-03,1.36E-02
125385,6.52E-03,1.39E-02
125386,6.52E-03,1.41E-02
125387,6.51E-03,1.43E-02
125388,6.51E-03,1.46E-02
125389,6.51E-03,1.48E-02
125390,6.51E-03,1.50E-02
125391,6.51E-03,1.53E-02
125392,6.51E-03,1.55E-02
125393,6.51E-03,1.57E-02
125394,6.51E-03,1.60E-02
125395,6.51E-03,1.62E-02
125396,6.51E-03,1.64E-02
125397,6.51E-03,1.67E-02
125398,6.51E-03,1.69E-02
125399,6.51E-03,1.71E-02
125400,6.51E-03,1.74E-02
125401,6.50E-03,1.76E-02
125402,6.50E-03,1.79E-02
125403,6.50E-03,1.81E-02
125404,6.50E-03,1.83E-02
125405,6.50E-03,1.86E-02
125406,6.50E-03,1.88E-02
125407,6.50E-03,1.91E-02
125408,6.50E-03,1.93E-02
125409,6.50E-03,1.95E-02
125410,6.50E-03,1.98E-02
125411,6.50E-03,2.00E-02
125412,6.50E-03,2.02E-02
125413,6.50E-03,2.05E-02
125414,6.50E-03,2.07E-02
125415,6.49E-03,2.10E-02
125416,6.49E-03,2.12E-02
125417,6.49E-03,2.14E-02
125418,6.49E-03,2.17E-02
125419,6.49E-03,2.19E-02
125420,6.49E-03,2.22E-02
125421,6.49E-03,2.24E-02
125422,6.49E-03,2.26E-02
125423,6.49E-03,2.29E-02
125424,6.49E-03,2.31E-02
125425,6.49E-03,2.33E-02
125426,6.49E-03,2.35E-02
125427,6.49E-03,2.38E-02
125428,6.48E-03,2.40E-02
125429,6.48E-03,2.42E-02
125430,6.48E-03,2.44E-02
125431,6.48E-03,2.46E-02
125432,6.48E-03,2.48E-02
125433,6.48E-03,2.50E-02
125434,6.48E-03,2.52E-02
125435,6.48E-03,2.54E-02
125436,6.48E-03,2.56E-02
125437,6.48E-03,2.58E-02
125438,6.48E-03,2.59E-02
125439,6.53E-03,1.04E-02
125440,6.53E-03,1.06E-02
125441,6.53E-03,1.09E-02
125442,6.52E-03,1.11E-02
125443,6.52E-03,1.13E-02
125444,6.52E-03,1.16E-02
125445,6.52E-03,1.18E-02
125446,6.52E-03,1.20E-02
125447,6.52E-03,1.23E-02
125448,6.52E-03,1.25E-02
125449,6.52E-03,1.27E-02
125450,6.52E-03,1.30E-02
125451,6.52E-03,1.32E-02
125452,6.52E-03,1.34E-02
125453,6.52E-03,1.36E-02
125454,6.52E-03,1.39E-02
125455,6.52E-03,1.41E-02
125456,6.51E-03,1.43E-02
125457,6.51E-03,1.46E-02
125458,6.51E-03,1.48E-02
125459,6.51E-03,1.50E-02
125460,6.51E-03,1.53E-02
125461,6.51E-03,1.55E-02
125462,6.51E-03,1.57E-02
125463,6.51E-03,1.60E-02
125464,6.51E-03,1.62E-02
125465,6.51E-03,1.64E-02
125466,6.51E-03,1.67E-02
125467,6.51E-03,1.69E-02
125468,6.51E-03,1.71E-02
125469,6.51E-03,1.74E-02
125470,6.50E-03,1.76E-02
125471,6.50E-03,1.79E-02
125472,6.50E-03,1.81E-02
125473,6.50E-03,1.83E-02
125474,6.50E-03,1.86E-02
125475,6.50E-03,1.88E-02
125476,6.50E-03,1.90E-02
125477,6.50E-03,1.93E-02
125478,6.50E-03,1.95E-02
125479,6.50E-03,1.98E-02
125480,6.50E-03,2.00E-02
125481,6.50E-03,2.02E-02
125482,6.50E-03,2.05E-02
125483,6.50E-03,2.07E-02
125484,6.49E-03,2.09E-02
125485,6.49E-03,2.12E-02
125486,6.49E-03,2.14E-02
125487,6.49E-03,2.17E-02
125488,6.49E-03,2.19E-02
125489,6.49E-03,2.21E-02
125490,6.49E-03,2.24E-02
125491,6.49E-03,2.26E-02
125492,6.49E-03,2.28E-02
125493,6.49E-03,2.31E-02
125494,6.49E-03,2.33E-02
125495,6.49E-03,2.35E-02
125496,6.49E-03,2.37E-02
125497,6.48E-03,2.40E-02
125498,6.48E-03,2.42E-02
125499,6.48E-03,2.44E-02
125500,6.48E-03,2.46E-02
125501,6.48E-03,2.48E-02
125502,6.48E-03,2.50E-02
125503,6.48E-03,2.52E-02
125504,6.48E-03,2.54E-02
125505,6.48E-03,2.56E-02
125506,6.48E-03,2.57E-02
125507,6.48E-03,2.59E-02
125508,6.53E-03,1.04E-02
125509,6.53E-03,1.06E-02
125510,6.53E-03,1.09E-02
125511,6.52E-03,1.11E-02
125512,6.52E-03,1.13E-02
125513,6.52E-03,1.16E-02
125514,6.52E-03,1.18E-02
125515,6.52E-03,1.20E-02
125516,6.52E-03,1.23E-02
125517,6.52E-03,1.25E-02
125518,6.52E-03,1.27E-02
125519,6.52E-03,1.30E-02
125520,6.52E-03,1.32E-02
125521,6.52E-03,1.34E-02
125522,6.52E-03,1.36E-02
125523,6.52E-03,1.39E-02
125524,6.52E-03,1.41E-02
125525,6.51E-03,1.43E-02
125526,6.51E-03,1.46E-02
125527,6.51E-03,1.48E-02
125528,6.51E-03,1.50E-02
125529,6.51E-03,1.53E-02
125530,6.51E-03,1.55E-02
125531,6.51E-03,1.57E-02
125532,6.51E-03,1.60E-02
125533,6.51E-03,1.62E-02
125534,6.51E-03,1.64E-02
125535,6.51E-03,1.67E-02
125536,6.51E-03,1.69E-02
125537,6.51E-03,1.71E-02
125538,6.51E-03,1.74E-02
125539,6.50E-03,1.76E-02
125540,6.50E-03,1.78E-02
125541,6.50E-03,1.81E-02
125542,6.50E-03,1.83E-02
125543,6.50E-03,1.86E-02
125544,6.50E-03,1.88E-02
125545,6.50E-03,1.90E-02
125546,6.50E-03,1.93E-02
125547,6.50E-03,1.95E-02
125548,6.50E-03,1.97E-02
125549,6.50E-03,2.00E-02
125550,6.50E-03,2.02E-02
125551,6.50E-03,2.05E-02
125552,6.50E-03,2.07E-02
125553,6.49E-03,2.09E-02
125554,6.49E-03,2.12E-02
125555,6.49E-03,2.14E-02
125556,6.49E-03,2.16E-02
125557,6.49E-03,2.19E-02
125558,6.49E-03,2.21E-02
125559,6.49E-03,2.23E-02
125560,6.49E-03,2.26E-02
125561,6.49E-03,2.28E-02
125562,6.49E-03,2.30E-02
125563,6.49E-03,2.32E-02
125564,6.49E-03,2.35E-02
125565,6.49E-03,2.37E-02
125566,6.48E-03,2.39E-02
125567,6.48E-03,2.41E-02
125568,6.48E-03,2.43E-02
125569,6.48E-03,2.45E-02
125570,6.48E-03,2.48E-02
125571,6.48E-03,2.50E-02
125572,6.48E-03,2.51E-02
125573,6.48E-03,2.53E-02
125574,6.48E-03,2.55E-02
125575,6.48E-03,2.57E-02
125576,6.48E-03,2.58E-02
125577,6.53E-03,1.03E-02
125578,6.53E-03,1.06E-02
125579,6.53E-03,1.08E-02
125580,6.52E-03,1.11E-02
125581,6.52E-03,1.13E-02
125582,6.52E-03,1.16E-02
125583,6.52E-03,1.18E-02
125584,6.52E-03,1.20E-02
125585,6.52E-03,1.23E-02
125586,6.52E-03,1.25E-02
125587,6.52E-03,1.27E-02
125588,6.52E-03,1.30E-02
125589,6.52E-03,1.32E-02
125590,6.52E-03,1.34E-02
125591,6.52E-03,1.36E-02
125592,6.52E-03,1.39E-02
125593,6.52E-03,1.41E-02
125594,6.51E-03,1.43E-02
125595,6.51E-03,1.46E-02
125596,6.51E-03,1.48E-02
125597,6.51E-03,1.50E-02
125598,6.51E-03,1.53E-02
125599,6.51E-03,1.55E-02
125600,6.51E-03,1.57E-02
125601,6.51E-03,1.60E-02
125602,6.51E-03,1.62E-02
125603,6.51E-03,1.64E-02
125604,6.51E-03,1.67E-02
125605,6.51E-03,1.69E-02
125606,6.51E-03,1.71E-02
125607,6.51E-03,1.74E-02
125608,6.50E-03,1.76E-02
125609,6.50E-03,1.78E-02
125610,6.50E-03,1.81E-02
125611,6.50E-03,1.83E-02
125612,6.50E-03,1.85E-02
125613,6.50E-03,1.88E-02
125614,6.50E-03,1.90E-02
125615,6.50E-03,1.93E-02
125616,6.50E-03,1.95E-02
125617,6.50E-03,1.97E-02
125618,6.50E-03,2.00E-02
125619,6.50E-03,2.02E-02
125620,6.50E-03,2.04E-02
125621,6.50E-03,2.07E-02
125622,6.49E-03,2.09E-02
125623,6.49E-03,2.11E-02
125624,6.49E-03,2.14E-02
125625,6.49E-03,2.16E-02
125626,6.49E-03,2.18E-02
125627,6.49E-03,2.21E-02
125628,6.49E-03,2.23E-02
125629,6.49E-03,2.25E-02
125630,6.49E-03,2.27E-02
125631,6.49E-03,2.30E-02
125632,6.49E-03,2.32E-02
125633,6.49E-03,2.34E-02
125634,6.49E-03,2.36E-02
125635,6.48E-03,2.39E-02
125636,6.48E-03,2.41E-02
125637,6.48E-03,2.43E-02
125638,6.48E-03,2.45E-02
125639,6.48E-03,2.47E-02
125640,6.48E-03,2.49E-02
125641,6.48E-03,2.51E-02
125642,6.48E-03,2.53E-02
125643,6.48E-03,2.54E-02
125644,6.48E-03,2.56E-02
125645,6.48E-03,2.58E-02
125646,6.53E-03,1.03E-02
125647,6.53E-03,1.06E-02
125648,6.53E-03,1.08E-02
125649,6.52E-03,1.11E-02
125650,6.52E-03,1.13E-02
125651,6.52E-03,1.16E-02
125652,6.52E-03,1.18E-02
125653,6.52E-03,1.20E-02
125654,6.52E-03,1.23E-02
125655,6.52E-03,1.25E-02
125656,6.52E-03,1.27E-02
125657,6.52E-03,1.30E-02
125658,6.52E-03,1.32E-02
125659,6.52E-03,1.34E-02
125660,6.52E-03,1.37E-02
125661,6.52E-03,1.39E-02
125662,6.52E-03,1.41E-02
125663,6.51E-03,1.43E-02
125664,6.51E-03,1.46E-02
125665,6.51E-03,1.48E-02
125666,6.51E-03,1.50E-02
125667,6.51E-03,1.53E-02
125668,6.51E-03,1.55E-02
125669,6.51E-03,1.57E-02
125670,6.51E-03,1.60E-02
125671,6.51E-03,1.62E-02
125672,6.51E-03,1.64E-02
125673,6.51E-03,1.67E-02
125674,6.51E-03,1.69E-02
125675,6.51E-03,1.71E-02
125676,6.51E-03,1.74E-02
125677,6.50E-03,1.76E-02
125678,6.50E-03,1.78E-02
125679,6.50E-03,1.81E-02
125680,6.50E-03,1.83E-02
125681,6.50E-03,1.85E-02
125682,6.50E-03,1.88E-02
125683,6.50E-03,1.90E-02
125684,6.50E-03,1.92E-02
125685,6.50E-03,1.95E-02
125686,6.50E-03,1.97E-02
125687,6.50E-03,1.99E-02
125688,6.50E-03,2.02E-02
125689,6.50E-03,2.04E-02
125690,6.50E-03,2.06E-02
125691,6.49E-03,2.09E-02
125692,6.49E-03,2.11E-02
125693,6.49E-03,2.13E-02
125694,6.49E-03,2.16E-02
125695,6.49E-03,2.18E-02
125696,6.49E-03,2.20E-02
125697,6.49E-03,2.23E-02
125698,6.49E-03,2.25E-02
125699,6.49E-03,2.27E-02
125700,6.49E-03,2.29E-02
125701,6.49E-03,2.32E-02
125702,6.49E-03,2.34E-02
125703,6.49E-03,2.36E-02
125704,6.48E-03,2.38E-02
125705,6.48E-03,2.40E-02
125706,6.48E-03,2.42E-02
125707,6.48E-03,2.44E-02
125708,6.48E-03,2.46E-02
125709,6.48E-03,2.48E-02
125710,6.48E-03,2.50E-02
125711,6.48E-03,2.52E-02
125712,6.48E-03,2.54E-02
125713,6.48E-03,2.55E-02
125714,6.48E-03,2.57E-02
125715,6.53E-03,1.03E-02
125716,6.53E-03,1.06E-02
125717,6.53E-03,1.08E-02
125718,6.52E-03,1.11E-02
125719,6.52E-03,1.13E-02
125720,6.52E-03,1.16E-02
125721,6.52E-03,1.18E-02
125722,6.52E-03,1.20E-02
125723,6.52E-03,1.23E-02
125724,6.52E-03,1.25E-02
125725,6.52E-03,1.27E-02
125726,6.52E-03,1.30E-02
125727,6.52E-03,1.32E-02
125728,6.52E-03,1.34E-02
125729,6.52E-03,1.37E-02
125730,6.52E-03,1.39E-02
125731,6.52E-03,1.41E-02
125732,6.51E-03,1.43E-02
125733,6.51E-03,1.46E-02
125734,6.51E-03,1.48E-02
125735,6.51E-03,1.50E-02
125736,6.51E-03,1.53E-02
125737,6.51E-03,1.55E-02
125738,6.51E-03,1.57E-02
125739,6.51E-03,1.60E-02
125740,6.51E-03,1.62E-02
125741,6.51E-03,1.64E-02
125742,6.51E-03,1.67E-02
125743,6.51E-03,1.69E-02
125744,6.51E-03,1.71E-02
125745,6.51E-03,1.74E-02
125746,6.50E-03,1.76E-02
125747,6.50E-03,1.78E-02
125748,6.50E-03,1.81E-02
125749,6.50E-03,1.83E-02
125750,6.50E-03,1.85E-02
125751,6.50E-03,1.88E-02
125752,6.50E-03,1.90E-02
125753,6.50E-03,1.92E-02
125754,6.50E-03,1.95E-02
125755,6.50E-03,1.97E-02
125756,6.50E-03,1.99E-02
125757,6.50E-03,2.02E-02
125758,6.50E-03,2.04E-02
125759,6.50E-03,2.06E-02
125760,6.49E-03,2.09E-02
125761,6.49E-03,2.11E-02
125762,6.49E-03,2.13E-02
125763,6.49E-03,2.15E-02
125764,6.49E-03,2.18E-02
125765,6.49E-03,2.20E-02
125766,6.49E-03,2.22E-02
125767,6.49E-03,2.24E-02
125768,6.49E-03,2.27E-02
125769,6.49E-03,2.29E-02
125770,6.49E-03,2.31E-02
125771,6.49E-03,2.33E-02
125772,6.49E-03,2.35E-02
125773,6.48E-03,2.38E-02
125774,6.48E-03,2.40E-02
125775,6.48E-03,2.42E-02
125776,6.48E-03,2.44E-02
125777,6.48E-03,2.46E-02
125778,6.48E-03,2.48E-02
125779,6.48E-03,2.49E-02
125780,6.48E-03,2.51E-02
125781,6.48E-03,2.53E-02
125782,6.48E-03,2.54E-02
125783,6.48E-03,2.56E-02
125784,6.53E-03,1.03E-02
125785,6.53E-03,1.06E-02
125786,6.53E-03,1.08E-02
125787,6.52E-03,1.11E-02
125788,6.52E-03,1.13E-02
125789,6.52E-03,1.16E-02
125790,6.52E-03,1.18E-02
125791,6.52E-03,1.20E-02
125792,6.52E-03,1.23E-02
125793,6.52E-03,1.25E-02
125794,6.52E-03,1.27E-02
125795,6.52E-03,1.30E-02
125796,6.52E-03,1.32E-02
125797,6.52E-03,1.34E-02
125798,6.52E-03,1.37E-02
125799,6.52E-03,1.39E-02
125800,6.52E-03,1.41E-02
125801,6.51E-03,1.43E-02
125802,6.51E-03,1.46E-02
125803,6.51E-03,1.48E-02
125804,6.51E-03,1.50E-02
125805,6.51E-03,1.53E-02
125806,6.51E-03,1.55E-02
125807,6.51E-03,1.57E-02
125808,6.51E-03,1.60E-02
125809,6.51E-03,1.62E-02
125810,6.51E-03,1.64E-02
125811,6.51E-03,1.67E-02
125812,6.51E-03,1.69E-02
125813,6.51E-03,1.71E-02
125814,6.51E-03,1.73E-02
125815,6.50E-03,1.76E-02
125816,6.50E-03,1.78E-02
125817,6.50E-03,1.80E-02
125818,6.50E-03,1.83E-02
125819,6.50E-03,1.85E-02
125820,6.50E-03,1.87E-02
125821,6.50E-03,1.90E-02
125822,6.50E-03,1.92E-02
125823,6.50E-03,1.94E-02
125824,6.50E-03,1.97E-02
125825,6.50E-03,1.99E-02
125826,6.50E-03,2.01E-02
125827,6.50E-03,2.04E-02
125828,6.50E-03,2.06E-02
125829,6.49E-03,2.08E-02
125830,6.49E-03,2.11E-02
125831,6.49E-03,2.13E-02
125832,6.49E-03,2.15E-02
125833,6.49E-03,2.17E-02
125834,6.49E-03,2.20E-02
125835,6.49E-03,2.22E-02
125836,6.49E-03,2.24E-02
125837,6.49E-03,2.26E-02
125838,6.49E-03,2.28E-02
125839,6.49E-03,2.31E-02
125840,6.49E-03,2.33E-02
125841,6.49E-03,2.35E-02
125842,6.48E-03,2.37E-02
125843,6.48E-03,2.39E-02
125844,6.48E-03,2.41E-02
125845,6.48E-03,2.43E-02
125846,6.48E-03,2.45E-02
125847,6.48E-03,2.47E-02
125848,6.48E-03,2.49E-02
125849,6.48E-03,2.50E-02
125850,6.48E-03,2.52E-02
125851,6.48E-03,2.54E-02
125852,6.48E-03,2.55E-02
125853,6.53E-03,1.03E-02
125854,6.53E-03,1.06E-02
125855,6.53E-03,1.08E-02
125856,6.52E-03,1.11E-02
125857,6.52E-03,1.13E-02
125858,6.52E-03,1.16E-02
125859,6.52E-03,1.18E-02
125860,6.52E-03,1.20E-02
125861,6.52E-03,1.23E-02
125862,6.52E-03,1.25E-02
125863,6.52E-03,1.27E-02
125864,6.52E-03,1.30E-02
125865,6.52E-03,1.32E-02
125866,6.52E-03,1.34E-02
125867,6.52E-03,1.37E-02
125868,6.52E-03,1.39E-02
125869,6.52E-03,1.41E-02
125870,6.51E-03,1.43E-02
125871,6.51E-03,1.46E-02
125872,6.51E-03,1.48E-02
125873,6.51E-03,1.50E-02
125874,6.51E-03,1.53E-02
125875,6.51E-03,1.55E-02
125876,6.51E-03,1.57E-02
125877,6.51E-03,1.60E-02
125878,6.51E-03,1.62E-02
125879,6.51E-03,1.64E-02
125880,6.51E-03,1.66E-02
125881,6.51E-03,1.69E-02
125882,6.51E-03,1.71E-02
125883,6.51E-03,1.73E-02
125884,6.50E-03,1.76E-02
125885,6.50E-03,1.78E-02
125886,6.50E-03,1.80E-02
125887,6.50E-03,1.83E-02
125888,6.50E-03,1.85E-02
125889,6.50E-03,1.87E-02
125890,6.50E-03,1.90E-02
125891,6.50E-03,1.92E-02
125892,6.50E-03,1.94E-02
125893,6.50E-03,1.97E-02
125894,6.50E-03,1.99E-02
125895,6.50E-03,2.01E-02
125896,6.50E-03,2.03E-02
125897,6.50E-03,2.06E-02
125898,6.49E-03,2.08E-02
125899,6.49E-03,2.10E-02
125900,6.49E-03,2.13E-02
125901,6.49E-03,2.15E-02
125902,6.49E-03,2.17E-02
125903,6.49E-03,2.19E-02
125904,6.49E-03,2.22E-02
125905,6.49E-03,2.24E-02
125906,6.49E-03,2.26E-02
125907,6.49E-03,2.28E-02
125908,6.49E-03,2.30E-02
125909,6.49E-03,2.32E-02
125910,6.49E-03,2.34E-02
125911,6.48E-03,2.36E-02
125912,6.48E-03,2.38E-02
125913,6.48E-03,2.40E-02
125914,6.48E-03,2.42E-02
125915,6.48E-03,2.44E-02
125916,6.48E-03,2.46E-02
125917,6.48E-03,2.48E-02
125918,6.48E-03,2.50E-02
125919,6.48E-03,2.51E-02
125920,6.48E-03,2.53E-02
125921,6.48E-03,2.54E-02
125922,6.53E-03,1.03E-02
125923,6.53E-03,1.06E-02
125924,6.53E-03,1.08E-02
125925,6.52E-03,1.11E-02
125926,6.52E-03,1.13E-02
125927,6.52E-03,1.16E-02
125928,6.52E-03,1.18E-02
125929,6.52E-03,1.20E-02
125930,6.52E-03,1.23E-02
125931,6.52E-03,1.25E-02
125932,6.52E-03,1.27E-02
125933,6.52E-03,1.30E-02
125934,6.52E-03,1.32E-02
125935,6.52E-03,1.34E-02
125936,6.52E-03,1.36E-02
125937,6.52E-03,1.39E-02
125938,6.52E-03,1.41E-02
125939,6.51E-03,1.43E-02
125940,6.51E-03,1.46E-02
125941,6.51E-03,1.48E-02
125942,6.51E-03,1.50E-02
125943,6.51E-03,1.53E-02
125944,6.51E-03,1.55E-02
125945,6.51E-03,1.57E-02
125946,6.51E-03,1.59E-02
125947,6.51E-03,1.62E-02
125948,6.51E-03,1.64E-02
125949,6.51E-03,1.66E-02
125950,6.51E-03,1.69E-02
125951,6.51E-03,1.71E-02
125952,6.51E-03,1.73E-02
125953,6.50E-03,1.76E-02
125954,6.50E-03,1.78E-02
125955,6.50E-03,1.80E-02
125956,6.50E-03,1.83E-02
125957,6.50E-03,1.85E-02
125958,6.50E-03,1.87E-02
125959,6.50E-03,1.89E-02
125960,6.50E-03,1.92E-02
125961,6.50E-03,1.94E-02
125962,6.50E-03,1.96E-02
125963,6.50E-03,1.99E-02
125964,6.50E-03,2.01E-02
125965,6.50E-03,2.03E-02
125966,6.50E-03,2.06E-02
125967,6.49E-03,2.08E-02
125968,6.49E-03,2.10E-02
125969,6.49E-03,2.12E-02
125970,6.49E-03,2.15E-02
125971,6.49E-03,2.17E-02
125972,6.49E-03,2.19E-02
125973,6.49E-03,2.21E-02
125974,6.49E-03,2.23E-02
125975,6.49E-03,2.25E-02
125976,6.49E-03,2.28E-02
125977,6.49E-03,2.30E-02
125978,6.49E-03,2.32E-02
125979,6.49E-03,2.34E-02
125980,6.48E-03,2.36E-02
125981,6.48E-03,2.38E-02
125982,6.48E-03,2.40E-02
125983,6.48E-03,2.42E-02
125984,6.48E-03,2.44E-02
125985,6.48E-03,2.45E-02
125986,6.48E-03,2.47E-02
125987,6.48E-03,2.49E-02
125988,6.48E-03,2.50E-02
125989,6.48E-03,2.52E-02
125990,6.48E-03,2.53E-02
125991,6.53E-03,1.03E-02
125992,6.53E-03,1.06E-02
125993,6.53E-03,1.08E-02
125994,6.52E-03,1.11E-02
125995,6.52E-03,1.13E-02
125996,6.52E-03,1.15E-02
125997,6.52E-03,1.18E-02
125998,6.52E-03,1.20E-02
125999,6.52E-03,1.23E-02
126000,6.52E-03,1.25E-02
126001,6.52E-03,1.27E-02
126002,6.52E-03,1.30E-02
126003,6.52E-03,1.32E-02
126004,6.52E-03,1.34E-02
126005,6.52E-03,1.36E-02
126006,6.52E-03,1.39E-02
126007,6.52E-03,1.41E-02
126008,6.51E-03,1.43E-02
126009,6.51E-03,1.46E-02
126010,6.51E-03,1.48E-02
126011,6.51E-03,1.50E-02
126012,6.51E-03,1.53E-02
126013,6.51E-03,1.55E-02
126014,6.51E-03,1.57E-02
126015,6.51E-03,1.59E-02
126016,6.51E-03,1.62E-02
126017,6.51E-03,1.64E-02
126018,6.51E-03,1.66E-02
126019,6.51E-03,1.69E-02
126020,6.51E-03,1.71E-02
126021,6.51E-03,1.73E-02
126022,6.50E-03,1.76E-02
126023,6.50E-03,1.78E-02
126024,6.50E-03,1.80E-02
126025,6.50E-03,1.82E-02
126026,6.50E-03,1.85E-02
126027,6.50E-03,1.87E-02
126028,6.50E-03,1.89E-02
126029,6.50E-03,1.92E-02
126030,6.50E-03,1.94E-02
126031,6.50E-03,1.96E-02
126032,6.50E-03,1.98E-02
126033,6.50E-03,2.01E-02
126034,6.50E-03,2.03E-02
126035,6.50E-03,2.05E-02
126036,6.49E-03,2.08E-02
126037,6.49E-03,2.10E-02
126038,6.49E-03,2.12E-02
126039,6.49E-03,2.14E-02
126040,6.49E-03,2.16E-02
126041,6.49E-03,2.19E-02
126042,6.49E-03,2.21E-02
126043,6.49E-03,2.23E-02
126044,6.49E-03,2.25E-02
126045,6.49E-03,2.27E-02
126046,6.49E-03,2.29E-02
126047,6.49E-03,2.31E-02
126048,6.49E-03,2.33E-02
126049,6.48E-03,2.35E-02
126050,6.48E-03,2.37E-02
126051,6.48E-03,2.39E-02
126052,6.48E-03,2.41E-02
126053,6.48E-03,2.43E-02
126054,6.48E-03,2.45E-02
126055,6.48E-03,2.47E-02
126056,6.48E-03,2.48E-02
126057,6.48E-03,2.50E-02
126058,6.48E-03,2.51E-02
126059,6.48E-03,2.53E-02
126060,6.53E-03,1.03E-02
126061,6.53E-03,1.06E-02
126062,6.53E-03,1.08E-02
126063,6.52E-03,1.11E-02
126064,6.52E-03,1.13E-02
126065,6.52E-03,1.15E-02
126066,6.52E-03,1.18E-02
126067,6.52E-03,1.20E-02
126068,6.52E-03,1.23E-02
126069,6.52E-03,1.25E-02
126070,6.52E-03,1.27E-02
126071,6.52E-03,1.30E-02
126072,6.52E-03,1.32E-02
126073,6.52E-03,1.34E-02
126074,6.52E-03,1.36E-02
126075,6.52E-03,1.39E-02
126076,6.52E-03,1.41E-02
126077,6.51E-03,1.43E-02
126078,6.51E-03,1.46E-02
126079,6.51E-03,1.48E-02
126080,6.51E-03,1.50E-02
126081,6.51E-03,1.53E-02
126082,6.51E-03,1.55E-02
126083,6.51E-03,1.57E-02
126084,6.51E-03,1.59E-02
126085,6.51E-03,1.62E-02
126086,6.51E-03,1.64E-02
126087,6.51E-03,1.66E-02
126088,6.51E-03,1.69E-02
126089,6.51E-03,1.71E-02
126090,6.51E-03,1.73E-02
126091,6.50E-03,1.75E-02
126092,6.50E-03,1.78E-02
126093,6.50E-03,1.80E-02
126094,6.50E-03,1.82E-02
126095,6.50E-03,1.85E-02
126096,6.50E-03,1.87E-02
126097,6.50E-03,1.89E-02
126098,6.50E-03,1.91E-02
126099,6.50E-03,1.94E-02
126100,6.50E-03,1.96E-02
126101,6.50E-03,1.98E-02
126102,6.50E-03,2.01E-02
126103,6.50E-03,2.03E-02
126104,6.50E-03,2.05E-02
126105,6.49E-03,2.07E-02
126106,6.49E-03,2.09E-02
126107,6.49E-03,2.12E-02
126108,6.49E-03,2.14E-02
126109,6.49E-03,2.16E-02
126110,6.49E-03,2.18E-02
126111,6.49E-03,2.20E-02
126112,6.49E-03,2.23E-02
126113,6.49E-03,2.25E-02
126114,6.49E-03,2.27E-02
126115,6.49E-03,2.29E-02
126116,6.49E-03,2.31E-02
126117,6.49E-03,2.33E-02
126118,6.48E-03,2.35E-02
126119,6.48E-03,2.37E-02
126120,6.48E-03,2.39E-02
126121,6.48E-03,2.41E-02
126122,6.48E-03,2.42E-02
126123,6.48E-03,2.44E-02
126124,6.48E-03,2.46E-02
126125,6.48E-03,2.48E-02
126126,6.48E-03,2.49E-02
126127,6.48E-03,2.51E-02
126128,6.48E-03,2.52E-02
126129,6.53E-03,1.03E-02
126130,6.53E-03,1.06E-02
126131,6.53E-03,1.08E-02
126132,6.52E-03,1.11E-02
126133,6.52E-03,1.13E-02
126134,6.52E-03,1.15E-02
126135,6.52E-03,1.18E-02
126136,6.52E-03,1.20E-02
126137,6.52E-03,1.23E-02
126138,6.52E-03,1.25E-02
126139,6.52E-03,1.27E-02
126140,6.52E-03,1.30E-02
126141,6.52E-03,1.32E-02
126142,6.52E-03,1.34E-02
126143,6.52E-03,1.36E-02
126144,6.52E-03,1.39E-02
126145,6.52E-03,1.41E-02
126146,6.51E-03,1.43E-02
126147,6.51E-03,1.46E-02
126148,6.51E-03,1.48E-02
126149,6.51E-03,1.50E-02
126150,6.51E-03,1.52E-02
126151,6.51E-03,1.55E-02
126152,6.51E-03,1.57E-02
126153,6.51E-03,1.59E-02
126154,6.51E-03,1.62E-02
126155,6.51E-03,1.64E-02
126156,6.51E-03,1.66E-02
126157,6.51E-03,1.69E-02
126158,6.51E-03,1.71E-02
126159,6.51E-03,1.73E-02
126160,6.50E-03,1.75E-02
126161,6.50E-03,1.78E-02
126162,6.50E-03,1.80E-02
126163,6.50E-03,1.82E-02
126164,6.50E-03,1.85E-02
126165,6.50E-03,1.87E-02
126166,6.50E-03,1.89E-02
126167,6.50E-03,1.91E-02
126168,6.50E-03,1.94E-02
126169,6.50E-03,1.96E-02
126170,6.50E-03,1.98E-02
126171,6.50E-03,2.00E-02
126172,6.50E-03,2.03E-02
126173,6.50E-03,2.05E-02
126174,6.49E-03,2.07E-02
126175,6.49E-03,2.09E-02
126176,6.49E-03,2.11E-02
126177,6.49E-03,2.14E-02
126178,6.49E-03,2.16E-02
126179,6.49E-03,2.18E-02
126180,6.49E-03,2.20E-02
126181,6.49E-03,2.22E-02
126182,6.49E-03,2.24E-02
126183,6.49E-03,2.26E-02
126184,6.49E-03,2.28E-02
126185,6.49E-03,2.30E-02
126186,6.49E-03,2.32E-02
126187,6.48E-03,2.34E-02
126188,6.48E-03,2.36E-02
126189,6.48E-03,2.38E-02
126190,6.48E-03,2.40E-02
126191,6.48E-03,2.42E-02
126192,6.48E-03,2.44E-02
126193,6.48E-03,2.46E-02
126194,6.48E-03,2.47E-02
126195,6.48E-03,2.49E-02
126196,6.48E-03,2.51E-02
126197,6.48E-03,2.52E-02
126198,6.53E-03,1.03E-02
126199,6.53E-03,1.06E-02
126200,6.53E-03,1.08E-02
126201,6.52E-03,1.11E-02
126202,6.52E-03,1.13E-02
126203,6.52E-03,1.15E-02
126204,6.52E-03,1.18E-02
126205,6.52E-03,1.20E-02
126206,6.52E-03,1.22E-02
126207,6.52E-03,1.25E-02
126208,6.52E-03,1.27E-02
126209,6.52E-03,1.29E-02
126210,6.52E-03,1.32E-02
126211,6.52E-03,1.34E-02
126212,6.52E-03,1.36E-02
126213,6.52E-03,1.39E-02
126214,6.52E-03,1.41E-02
126215,6.51E-03,1.43E-02
126216,6.51E-03,1.46E-02
126217,6.51E-03,1.48E-02
126218,6.51E-03,1.50E-02
126219,6.51E-03,1.52E-02
126220,6.51E-03,1.55E-02
126221,6.51E-03,1.57E-02
126222,6.51E-03,1.59E-02
126223,6.51E-03,1.62E-02
126224,6.51E-03,1.64E-02
126225,6.51E-03,1.66E-02
126226,6.51E-03,1.68E-02
126227,6.51E-03,1.71E-02
126228,6.51E-03,1.73E-02
126229,6.50E-03,1.75E-02
126230,6.50E-03,1.78E-02
126231,6.50E-03,1.80E-02
126232,6.50E-03,1.82E-02
126233,6.50E-03,1.84E-02
126234,6.50E-03,1.87E-02
126235,6.50E-03,1.89E-02
126236,6.50E-03,1.91E-02
126237,6.50E-03,1.93E-02
126238,6.50E-03,1.96E-02
126239,6.50E-03,1.98E-02
126240,6.50E-03,2.00E-02
126241,6.50E-03,2.02E-02
126242,6.50E-03,2.05E-02
126243,6.49E-03,2.07E-02
126244,6.49E-03,2.09E-02
126245,6.49E-03,2.11E-02
126246,6.49E-03,2.13E-02
126247,6.49E-03,2.15E-02
126248,6.49E-03,2.18E-02
126249,6.49E-03,2.20E-02
126250,6.49E-03,2.22E-02
126251,6.49E-03,2.24E-02
126252,6.49E-03,2.26E-02
126253,6.49E-03,2.28E-02
126254,6.49E-03,2.30E-02
126255,6.49E-03,2.32E-02
126256,6.48E-03,2.34E-02
126257,6.48E-03,2.36E-02
126258,6.48E-03,2.38E-02
126259,6.48E-03,2.40E-02
126260,6.48E-03,2.42E-02
126261,6.48E-03,2.43E-02
126262,6.48E-03,2.45E-02
126263,6.48E-03,2.47E-02
126264,6.48E-03,2.49E-02
126265,6.48E-03,2.51E-02
126266,6.48E-03,2.53E-02
126267,6.53E-03,1.03E-02
126268,6.53E-03,1.06E-02
126269,6.53E-03,1.08E-02
126270,6.52E-03,1.11E-02
126271,6.52E-03,1.13E-02
126272,6.52E-03,1.15E-02
126273,6.52E-03,1.18E-02
126274,6.52E-03,1.20E-02
126275,6.52E-03,1.22E-02
126276,6.52E-03,1.25E-02
126277,6.52E-03,1.27E-02
126278,6.52E-03,1.29E-02
126279,6.52E-03,1.32E-02
126280,6.52E-03,1.34E-02
126281,6.52E-03,1.36E-02
126282,6.52E-03,1.39E-02
126283,6.52E-03,1.41E-02
126284,6.51E-03,1.43E-02
126285,6.51E-03,1.46E-02
126286,6.51E-03,1.48E-02
126287,6.51E-03,1.50E-02
126288,6.51E-03,1.52E-02
126289,6.51E-03,1.55E-02
126290,6.51E-03,1.57E-02
126291,6.51E-03,1.59E-02
126292,6.51E-03,1.62E-02
126293,6.51E-03,1.64E-02
126294,6.51E-03,1.66E-02
126295,6.51E-03,1.68E-02
126296,6.51E-03,1.71E-02
126297,6.51E-03,1.73E-02
126298,6.50E-03,1.75E-02
126299,6.50E-03,1.77E-02
126300,6.50E-03,1.80E-02
126301,6.50E-03,1.82E-02
126302,6.50E-03,1.84E-02
126303,6.50E-03,1.86E-02
126304,6.50E-03,1.89E-02
126305,6.50E-03,1.91E-02
126306,6.50E-03,1.93E-02
126307,6.50E-03,1.95E-02
126308,6.50E-03,1.98E-02
126309,6.50E-03,2.00E-02
126310,6.50E-03,2.02E-02
126311,6.50E-03,2.04E-02
126312,6.49E-03,2.07E-02
126313,6.49E-03,2.09E-02
126314,6.49E-03,2.11E-02
126315,6.49E-03,2.13E-02
126316,6.49E-03,2.15E-02
126317,6.49E-03,2.17E-02
126318,6.49E-03,2.19E-02
126319,6.49E-03,2.22E-02
126320,6.49E-03,2.24E-02
126321,6.49E-03,2.26E-02
126322,6.49E-03,2.28E-02
126323,6.49E-03,2.30E-02
126324,6.49E-03,2.32E-02
126325,6.48E-03,2.34E-02
126326,6.48E-03,2.36E-02
126327,6.48E-03,2.38E-02
126328,6.48E-03,2.39E-02
126329,6.48E-03,2.41E-02
126330,6.48E-03,2.43E-02
126331,6.48E-03,2.45E-02
126332,6.48E-03,2.47E-02
126333,6.48E-03,2.49E-02
126334,6.48E-03,2.51E-02
126335,6.48E-03,2.53E-02
126336,6.53E-03,1.03E-02
126337,6.53E-03,1.06E-02
126338,6.53E-03,1.08E-02
126339,6.52E-03,1.11E-02
126340,6.52E-03,1.13E-02
126341,6.52E-03,1.15E-02
126342,6.52E-03,1.18E-02
126343,6.52E-03,1.20E-02
126344,6.52E-03,1.22E-02
126345,6.52E-03,1.25E-02
126346,6.52E-03,1.27E-02
126347,6.52E-03,1.29E-02
126348,6.52E-03,1.32E-02
126349,6.52E-03,1.34E-02
126350,6.52E-03,1.36E-02
126351,6.52E-03,1.39E-02
126352,6.52E-03,1.41E-02
126353,6.51E-03,1.43E-02
126354,6.51E-03,1.46E-02
126355,6.51E-03,1.48E-02
126356,6.51E-03,1.50E-02
126357,6.51E-03,1.52E-02
126358,6.51E-03,1.55E-02
126359,6.51E-03,1.57E-02
126360,6.51E-03,1.59E-02
126361,6.51E-03,1.61E-02
126362,6.51E-03,1.64E-02
126363,6.51E-03,1.66E-02
126364,6.51E-03,1.68E-02
126365,6.51E-03,1.71E-02
126366,6.51E-03,1.73E-02
126367,6.50E-03,1.75E-02
126368,6.50E-03,1.77E-02
126369,6.50E-03,1.80E-02
126370,6.50E-03,1.82E-02
126371,6.50E-03,1.84E-02
126372,6.50E-03,1.86E-02
126373,6.50E-03,1.89E-02
126374,6.50E-03,1.91E-02
126375,6.50E-03,1.93E-02
126376,6.50E-03,1.95E-02
126377,6.50E-03,1.98E-02
126378,6.50E-03,2.00E-02
126379,6.50E-03,2.02E-02
126380,6.50E-03,2.04E-02
126381,6.49E-03,2.06E-02
126382,6.49E-03,2.08E-02
126383,6.49E-03,2.11E-02
126384,6.49E-03,2.13E-02
126385,6.49E-03,2.15E-02
126386,6.49E-03,2.17E-02
126387,6.49E-03,2.19E-02
126388,6.49E-03,2.21E-02
126389,6.49E-03,2.23E-02
126390,6.49E-03,2.25E-02
126391,6.49E-03,2.27E-02
126392,6.49E-03,2.29E-02
126393,6.49E-03,2.31E-02
126394,6.48E-03,2.33E-02
126395,6.48E-03,2.35E-02
126396,6.48E-03,2.37E-02
126397,6.48E-03,2.39E-02
126398,6.48E-03,2.41E-02
126399,6.48E-03,2.43E-02
126400,6.48E-03,2.45E-02
126401,6.48E-03,2.47E-02
126402,6.48E-03,2.49E-02
126403,6.48E-03,2.51E-02
126404,6.48E-03,2.54E-02
126405,6.53E-03,1.03E-02
126406,6.53E-03,1.06E-02
126407,6.53E-03,1.08E-02
126408,6.52E-03,1.11E-02
126409,6.52E-03,1.13E-02
126410,6.52E-03,1.15E-02
126411,6.52E-03,1.18E-02
126412,6.52E-03,1.20E-02
126413,6.52E-03,1.22E-02
126414,6.52E-03,1.25E-02
126415,6.52E-03,1.27E-02
126416,6.52E-03,1.29E-02
126417,6.52E-03,1.32E-02
126418,6.52E-03,1.34E-02
126419,6.52E-03,1.36E-02
126420,6.52E-03,1.39E-02
126421,6.52E-03,1.41E-02
126422,6.51E-03,1.43E-02
126423,6.51E-03,1.45E-02
126424,6.51E-03,1.48E-02
126425,6.51E-03,1.50E-02
126426,6.51E-03,1.52E-02
126427,6.51E-03,1.55E-02
126428,6.51E-03,1.57E-02
126429,6.51E-03,1.59E-02
126430,6.51E-03,1.61E-02
126431,6.51E-03,1.64E-02
126432,6.51E-03,1.66E-02
126433,6.51E-03,1.68E-02
126434,6.51E-03,1.70E-02
126435,6.51E-03,1.73E-02
126436,6.50E-03,1.75E-02
126437,6.50E-03,1.77E-02
126438,6.50E-03,1.79E-02
126439,6.50E-03,1.82E-02
126440,6.50E-03,1.84E-02
126441,6.50E-03,1.86E-02
126442,6.50E-03,1.88E-02
126443,6.50E-03,1.91E-02
126444,6.50E-03,1.93E-02
126445,6.50E-03,1.95E-02
126446,6.50E-03,1.97E-02
126447,6.50E-03,2.00E-02
126448,6.50E-03,2.02E-02
126449,6.50E-03,2.04E-02
126450,6.49E-03,2.06E-02
126451,6.49E-03,2.08E-02
126452,6.49E-03,2.10E-02
126453,6.49E-03,2.13E-02
126454,6.49E-03,2.15E-02
126455,6.49E-03,2.17E-02
126456,6.49E-03,2.19E-02
126457,6.49E-03,2.21E-02
126458,6.49E-03,2.23E-02
126459,6.49E-03,2.25E-02
126460,6.49E-03,2.27E-02
126461,6.49E-03,2.29E-02
126462,6.49E-03,2.31E-02
126463,6.48E-03,2.33E-02
126464,6.48E-03,2.35E-02
126465,6.48E-03,2.37E-02
126466,6.48E-03,2.39E-02
126467,6.48E-03,2.41E-02
126468,6.48E-03,2.43E-02
126469,6.48E-03,2.45E-02
126470,6.48E-03,2.47E-02
126471,6.48E-03,2.49E-02
126472,6.48E-03,2.52E-02
126473,6.48E-03,2.54E-02
126474,6.53E-03,1.03E-02
126475,6.53E-03,1.06E-02
126476,6.53E-03,1.08E-02
126477,6.52E-03,1.10E-02
126478,6.52E-03,1.13E-02
126479,6.52E-03,1.15E-02
126480,6.52E-03,1.18E-02
126481,6.52E-03,1.20E-02
126482,6.52E-03,1.22E-02
126483,6.52E-03,1.25E-02
126484,6.52E-03,1.27E-02
126485,6.52E-03,1.29E-02
126486,6.52E-03,1.32E-02
126487,6.52E-03,1.34E-02
126488,6.52E-03,1.36E-02
126489,6.52E-03,1.39E-02
126490,6.52E-03,1.41E-02
126491,6.51E-03,1.43E-02
126492,6.51E-03,1.45E-02
126493,6.51E-03,1.48E-02
126494,6.51E-03,1.50E-02
126495,6.51E-03,1.52E-02
126496,6.51E-03,1.55E-02
126497,6.51E-03,1.57E-02
126498,6.51E-03,1.59E-02
126499,6.51E-03,1.61E-02
126500,6.51E-03,1.64E-02
126501,6.51E-03,1.66E-02
126502,6.51E-03,1.68E-02
126503,6.51E-03,1.70E-02
126504,6.51E-03,1.73E-02
126505,6.50E-03,1.75E-02
126506,6.50E-03,1.77E-02
126507,6.50E-03,1.79E-02
126508,6.50E-03,1.82E-02
126509,6.50E-03,1.84E-02
126510,6.50E-03,1.86E-02
126511,6.50E-03,1.88E-02
126512,6.50E-03,1.91E-02
126513,6.50E-03,1.93E-02
126514,6.50E-03,1.95E-02
126515,6.50E-03,1.97E-02
126516,6.50E-03,1.99E-02
126517,6.50E-03,2.02E-02
126518,6.50E-03,2.04E-02
126519,6.49E-03,2.06E-02
126520,6.49E-03,2.08E-02
126521,6.49E-03,2.10E-02
126522,6.49E-03,2.12E-02
126523,6.49E-03,2.14E-02
126524,6.49E-03,2.16E-02
126525,6.49E-03,2.19E-02
126526,6.49E-03,2.21E-02
126527,6.49E-03,2.23E-02
126528,6.49E-03,2.25E-02
126529,6.49E-03,2.27E-02
126530,6.49E-03,2.29E-02
126531,6.49E-03,2.31E-02
126532,6.48E-03,2.33E-02
126533,6.48E-03,2.35E-02
126534,6.48E-03,2.37E-02
126535,6.48E-03,2.39E-02
126536,6.48E-03,2.41E-02
126537,6.48E-03,2.43E-02
126538,6.48E-03,2.45E-02
126539,6.48E-03,2.47E-02
126540,6.48E-03,2.50E-02
126541,6.48E-03,2.52E-02
126542,6.48E-03,2.55E-02
126543,6.53E-03,1.03E-02
126544,6.53E-03,1.06E-02
126545,6.53E-03,1.08E-02
126546,6.52E-03,1.10E-02
126547,6.52E-03,1.13E-02
126548,6.52E-03,1.15E-02
126549,6.52E-03,1.18E-02
126550,6.52E-03,1.20E-02
126551,6.52E-03,1.22E-02
126552,6.52E-03,1.25E-02
126553,6.52E-03,1.27E-02
126554,6.52E-03,1.29E-02
126555,6.52E-03,1.32E-02
126556,6.52E-03,1.34E-02
126557,6.52E-03,1.36E-02
126558,6.52E-03,1.39E-02
126559,6.52E-03,1.41E-02
126560,6.51E-03,1.43E-02
126561,6.51E-03,1.45E-02
126562,6.51E-03,1.48E-02
126563,6.51E-03,1.50E-02
126564,6.51E-03,1.52E-02
126565,6.51E-03,1.54E-02
126566,6.51E-03,1.57E-02
126567,6.51E-03,1.59E-02
126568,6.51E-03,1.61E-02
126569,6.51E-03,1.64E-02
126570,6.51E-03,1.66E-02
126571,6.51E-03,1.68E-02
126572,6.51E-03,1.70E-02
126573,6.51E-03,1.73E-02
126574,6.50E-03,1.75E-02
126575,6.50E-03,1.77E-02
126576,6.50E-03,1.79E-02
126577,6.50E-03,1.82E-02
126578,6.50E-03,1.84E-02
126579,6.50E-03,1.86E-02
126580,6.50E-03,1.88E-02
126581,6.50E-03,1.90E-02
126582,6.50E-03,1.93E-02
126583,6.50E-03,1.95E-02
126584,6.50E-03,1.97E-02
126585,6.50E-03,1.99E-02
126586,6.50E-03,2.01E-02
126587,6.50E-03,2.03E-02
126588,6.49E-03,2.06E-02
126589,6.49E-03,2.08E-02
126590,6.49E-03,2.10E-02
126591,6.49E-03,2.12E-02
126592,6.49E-03,2.14E-02
126593,6.49E-03,2.16E-02
126594,6.49E-03,2.18E-02
126595,6.49E-03,2.20E-02
126596,6.49E-03,2.22E-02
126597,6.49E-03,2.25E-02
126598,6.49E-03,2.27E-02
126599,6.49E-03,2.29E-02
126600,6.49E-03,2.31E-02
126601,6.48E-03,2.33E-02
126602,6.48E-03,2.35E-02
126603,6.48E-03,2.37E-02
126604,6.48E-03,2.39E-02
126605,6.48E-03,2.41E-02
126606,6.48E-03,2.43E-02
126607,6.48E-03,2.45E-02
126608,6.48E-03,2.47E-02
126609,6.48E-03,2.50E-02
126610,6.48E-03,2.53E-02
126611,6.48E-03,2.56E-02
126612,6.53E-03,1.03E-02
126613,6.53E-03,1.06E-02
126614,6.53E-03,1.08E-02
126615,6.52E-03,1.10E-02
126616,6.52E-03,1.13E-02
126617,6.52E-03,1.15E-02
126618,6.52E-03,1.18E-02
126619,6.52E-03,1.20E-02
126620,6.52E-03,1.22E-02
126621,6.52E-03,1.25E-02
126622,6.52E-03,1.27E-02
126623,6.52E-03,1.29E-02
126624,6.52E-03,1.32E-02
126625,6.52E-03,1.34E-02
126626,6.52E-03,1.36E-02
126627,6.52E-03,1.38E-02
126628,6.52E-03,1.41E-02
126629,6.51E-03,1.43E-02
126630,6.51E-03,1.45E-02
126631,6.51E-03,1.48E-02
126632,6.51E-03,1.50E-02
126633,6.51E-03,1.52E-02
126634,6.51E-03,1.54E-02
126635,6.51E-03,1.57E-02
126636,6.51E-03,1.59E-02
126637,6.51E-03,1.61E-02
126638,6.51E-03,1.63E-02
126639,6.51E-03,1.66E-02
126640,6.51E-03,1.68E-02
126641,6.51E-03,1.70E-02
126642,6.51E-03,1.72E-02
126643,6.50E-03,1.75E-02
126644,6.50E-03,1.77E-02
126645,6.50E-03,1.79E-02
126646,6.50E-03,1.81E-02
126647,6.50E-03,1.84E-02
126648,6.50E-03,1.86E-02
126649,6.50E-03,1.88E-02
126650,6.50E-03,1.90E-02
126651,6.50E-03,1.92E-02
126652,6.50E-03,1.95E-02
126653,6.50E-03,1.97E-02
126654,6.50E-03,1.99E-02
126655,6.50E-03,2.01E-02
126656,6.50E-03,2.03E-02
126657,6.49E-03,2.05E-02
126658,6.49E-03,2.08E-02
126659,6.49E-03,2.10E-02
126660,6.49E-03,2.12E-02
126661,6.49E-03,2.14E-02
126662,6.49E-03,2.16E-02
126663,6.49E-03,2.18E-02
126664,6.49E-03,2.20E-02
126665,6.49E-03,2.22E-02
126666,6.49E-03,2.24E-02
126667,6.49E-03,2.26E-02
126668,6.49E-03,2.28E-02
126669,6.49E-03,2.30E-02
126670,6.48E-03,2.32E-02
126671,6.48E-03,2.35E-02
126672,6.48E-03,2.37E-02
126673,6.48E-03,2.39E-02
126674,6.48E-03,2.41E-02
126675,6.48E-03,2.43E-02
126676,6.48E-03,2.45E-02
126677,6.48E-03,2.48E-02
126678,6.48E-03,2.50E-02
126679,6.48E-03,2.53E-02
126680,6.48E-03,2.56E-02
126681,6.53E-03,1.03E-02
126682,6.53E-03,1.06E-02
126683,6.53E-03,1.08E-02
126684,6.52E-03,1.10E-02
126685,6.52E-03,1.13E-02
126686,6.52E-03,1.15E-02
126687,6.52E-03,1.18E-02
126688,6.52E-03,1.20E-02
126689,6.52E-03,1.22E-02
126690,6.52E-03,1.25E-02
126691,6.52E-03,1.27E-02
126692,6.52E-03,1.29E-02
126693,6.52E-03,1.32E-02
126694,6.52E-03,1.34E-02
126695,6.52E-03,1.36E-02
126696,6.52E-03,1.38E-02
126697,6.52E-03,1.41E-02
126698,6.51E-03,1.43E-02
126699,6.51E-03,1.45E-02
126700,6.51E-03,1.48E-02
126701,6.51E-03,1.50E-02
126702,6.51E-03,1.52E-02
126703,6.51E-03,1.54E-02
126704,6.51E-03,1.57E-02
126705,6.51E-03,1.59E-02
126706,6.51E-03,1.61E-02
126707,6.51E-03,1.63E-02
126708,6.51E-03,1.66E-02
126709,6.51E-03,1.68E-02
126710,6.51E-03,1.70E-02
126711,6.51E-03,1.72E-02
126712,6.50E-03,1.75E-02
126713,6.50E-03,1.77E-02
126714,6.50E-03,1.79E-02
126715,6.50E-03,1.81E-02
126716,6.50E-03,1.84E-02
126717,6.50E-03,1.86E-02
126718,6.50E-03,1.88E-02
126719,6.50E-03,1.90E-02
126720,6.50E-03,1.92E-02
126721,6.50E-03,1.94E-02
126722,6.50E-03,1.97E-02
126723,6.50E-03,1.99E-02
126724,6.50E-03,2.01E-02
126725,6.50E-03,2.03E-02
126726,6.49E-03,2.05E-02
126727,6.49E-03,2.07E-02
126728,6.49E-03,2.10E-02
126729,6.49E-03,2.12E-02
126730,6.49E-03,2.14E-02
126731,6.49E-03,2.16E-02
126732,6.49E-03,2.18E-02
126733,6.49E-03,2.20E-02
126734,6.49E-03,2.22E-02
126735,6.49E-03,2.24E-02
126736,6.49E-03,2.26E-02
126737,6.49E-03,2.28E-02
126738,6.49E-03,2.30E-02
126739,6.48E-03,2.32E-02
126740,6.48E-03,2.34E-02
126741,6.48E-03,2.37E-02
126742,6.48E-03,2.39E-02
126743,6.48E-03,2.41E-02
126744,6.48E-03,2.43E-02
126745,6.48E-03,2.46E-02
126746,6.48E-03,2.48E-02
126747,6.48E-03,2.51E-02
126748,6.48E-03,2.54E-02
126749,6.48E-03,2.57E-02
126750,6.53E-03,1.03E-02
126751,6.53E-03,1.06E-02
126752,6.53E-03,1.08E-02
126753,6.52E-03,1.10E-02
126754,6.52E-03,1.13E-02
126755,6.52E-03,1.15E-02
126756,6.52E-03,1.17E-02
126757,6.52E-03,1.20E-02
126758,6.52E-03,1.22E-02
126759,6.52E-03,1.25E-02
126760,6.52E-03,1.27E-02
126761,6.52E-03,1.29E-02
126762,6.52E-03,1.31E-02
126763,6.52E-03,1.34E-02
126764,6.52E-03,1.36E-02
126765,6.52E-03,1.38E-02
126766,6.52E-03,1.41E-02
126767,6.51E-03,1.43E-02
126768,6.51E-03,1.45E-02
126769,6.51E-03,1.48E-02
126770,6.51E-03,1.50E-02
126771,6.51E-03,1.52E-02
126772,6.51E-03,1.54E-02
126773,6.51E-03,1.57E-02
126774,6.51E-03,1.59E-02
126775,6.51E-03,1.61E-02
126776,6.51E-03,1.63E-02
126777,6.51E-03,1.66E-02
126778,6.51E-03,1.68E-02
126779,6.51E-03,1.70E-02
126780,6.51E-03,1.72E-02
126781,6.50E-03,1.75E-02
126782,6.50E-03,1.77E-02
126783,6.50E-03,1.79E-02
126784,6.50E-03,1.81E-02
126785,6.50E-03,1.83E-02
126786,6.50E-03,1.86E-02
126787,6.50E-03,1.88E-02
126788,6.50E-03,1.90E-02
126789,6.50E-03,1.92E-02
126790,6.50E-03,1.94E-02
126791,6.50E-03,1.97E-02
126792,6.50E-03,1.99E-02
126793,6.50E-03,2.01E-02
126794,6.50E-03,2.03E-02
126795,6.49E-03,2.05E-02
126796,6.49E-03,2.07E-02
126797,6.49E-03,2.09E-02
126798,6.49E-03,2.11E-02
126799,6.49E-03,2.14E-02
126800,6.49E-03,2.16E-02
126801,6.49E-03,2.18E-02
126802,6.49E-03,2.20E-02
126803,6.49E-03,2.22E-02
126804,6.49E-03,2.24E-02
126805,6.49E-03,2.26E-02
126806,6.49E-03,2.28E-02
126807,6.49E-03,2.30E-02
126808,6.48E-03,2.32E-02
126809,6.48E-03,2.34E-02
126810,6.48E-03,2.37E-02
126811,6.48E-03,2.39E-02
126812,6.48E-03,2.41E-02
126813,6.48E-03,2.43E-02
126814,6.48E-03,2.46E-02
126815,6.48E-03,2.48E-02
126816,6.48E-03,2.51E-02
126817,6.48E-03,2.54E-02
126818,6.48E-03,2.57E-02
126819,6.53E-03,1.03E-02
126820,6.53E-03,1.06E-02
126821,6.53E-03,1.08E-02
126822,6.52E-03,1.10E-02
126823,6.52E-03,1.13E-02
126824,6.52E-03,1.15E-02
126825,6.52E-03,1.17E-02
126826,6.52E-03,1.20E-02
126827,6.52E-03,1.22E-02
126828,6.52E-03,1.24E-02
126829,6.52E-03,1.27E-02
126830,6.52E-03,1.29E-02
126831,6.52E-03,1.31E-02
126832,6.52E-03,1.34E-02
126833,6.52E-03,1.36E-02
126834,6.52E-03,1.38E-02
126835,6.52E-03,1.41E-02
126836,6.51E-03,1.43E-02
126837,6.51E-03,1.45E-02
126838,6.51E-03,1.47E-02
126839,6.51E-03,1.50E-02
126840,6.51E-03,1.52E-02
126841,6.51E-03,1.54E-02
126842,6.51E-03,1.57E-02
126843,6.51E-03,1.59E-02
126844,6.51E-03,1.61E-02
126845,6.51E-03,1.63E-02
126846,6.51E-03,1.66E-02
126847,6.51E-03,1.68E-02
126848,6.51E-03,1.70E-02
126849,6.51E-03,1.72E-02
126850,6.50E-03,1.74E-02
126851,6.50E-03,1.77E-02
126852,6.50E-03,1.79E-02
126853,6.50E-03,1.81E-02
126854,6.50E-03,1.83E-02
126855,6.50E-03,1.85E-02
126856,6.50E-03,1.88E-02
126857,6.50E-03,1.90E-02
126858,6.50E-03,1.92E-02
126859,6.50E-03,1.94E-02
126860,6.50E-03,1.96E-02
126861,6.50E-03,1.99E-02
126862,6.50E-03,2.01E-02
126863,6.50E-03,2.03E-02
126864,6.49E-03,2.05E-02
126865,6.49E-03,2.07E-02
126866,6.49E-03,2.09E-02
126867,6.49E-03,2.11E-02
126868,6.49E-03,2.13E-02
126869,6.49E-03,2.15E-02
126870,6.49E-03,2.18E-02
126871,6.49E-03,2.20E-02
126872,6.49E-03,2.22E-02
126873,6.49E-03,2.24E-02
126874,6.49E-03,2.26E-02
126875,6.49E-03,2.28E-02
126876,6.49E-03,2.30E-02
126877,6.48E-03,2.32E-02
126878,6.48E-03,2.34E-02
126879,6.48E-03,2.37E-02
126880,6.48E-03,2.39E-02
126881,6.48E-03,2.41E-02
126882,6.48E-03,2.44E-02
126883,6.48E-03,2.46E-02
126884,6.48E-03,2.49E-02
126885,6.48E-03,2.52E-02
126886,6.48E-03,2.55E-02
126887,6.48E-03,2.58E-02
126888,6.53E-03,1.03E-02
126889,6.53E-03,1.06E-02
126890,6.53E-03,1.08E-02
126891,6.52E-03,1.10E-02
126892,6.52E-03,1.13E-02
126893,6.52E-03,1.15E-02
126894,6.52E-03,1.17E-02
126895,6.52E-03,1.20E-02
126896,6.52E-03,1.22E-02
126897,6.52E-03,1.24E-02
126898,6.52E-03,1.27E-02
126899,6.52E-03,1.29E-02
126900,6.52E-03,1.31E-02
126901,6.52E-03,1.34E-02
126902,6.52E-03,1.36E-02
126903,6.52E-03,1.38E-02
126904,6.52E-03,1.41E-02
126905,6.51E-03,1.43E-02
126906,6.51E-03,1.45E-02
126907,6.51E-03,1.47E-02
126908,6.51E-03,1.50E-02
126909,6.51E-03,1.52E-02
126910,6.51E-03,1.54E-02
126911,6.51E-03,1.56E-02
126912,6.51E-03,1.59E-02
126913,6.51E-03,1.61E-02
126914,6.51E-03,1.63E-02
126915,6.51E-03,1.65E-02
126916,6.51E-03,1.68E-02
126917,6.51E-03,1.70E-02
126918,6.51E-03,1.72E-02
126919,6.50E-03,1.74E-02
126920,6.50E-03,1.77E-02
126921,6.50E-03,1.79E-02
126922,6.50E-03,1.81E-02
126923,6.50E-03,1.83E-02
126924,6.50E-03,1.85E-02
126925,6.50E-03,1.88E-02
126926,6.50E-03,1.90E-02
126927,6.50E-03,1.92E-02
126928,6.50E-03,1.94E-02
126929,6.50E-03,1.96E-02
126930,6.50E-03,1.98E-02
126931,6.50E-03,2.01E-02
126932,6.50E-03,2.03E-02
126933,6.49E-03,2.05E-02
126934,6.49E-03,2.07E-02
126935,6.49E-03,2.09E-02
126936,6.49E-03,2.11E-02
126937,6.49E-03,2.13E-02
126938,6.49E-03,2.15E-02
126939,6.49E-03,2.17E-02
126940,6.49E-03,2.20E-02
126941,6.49E-03,2.22E-02
126942,6.49E-03,2.24E-02
126943,6.49E-03,2.26E-02
126944,6.49E-03,2.28E-02
126945,6.49E-03,2.30E-02
126946,6.48E-03,2.32E-02
126947,6.48E-03,2.34E-02
126948,6.48E-03,2.37E-02
126949,6.48E-03,2.39E-02
126950,6.48E-03,2.41E-02
126951,6.48E-03,2.44E-02
126952,6.48E-03,2.46E-02
126953,6.48E-03,2.49E-02
126954,6.48E-03,2.52E-02
126955,6.48E-03,2.55E-02
126956,6.48E-03,2.58E-02
126957,6.53E-03,1.03E-02
126958,6.53E-03,1.06E-02
126959,6.53E-03,1.08E-02
126960,6.52E-03,1.10E-02
126961,6.52E-03,1.13E-02
126962,6.52E-03,1.15E-02
126963,6.52E-03,1.17E-02
126964,6.52E-03,1.20E-02
126965,6.52E-03,1.22E-02
126966,6.52E-03,1.24E-02
126967,6.52E-03,1.27E-02
126968,6.52E-03,1.29E-02
126969,6.52E-03,1.31E-02
126970,6.52E-03,1.34E-02
126971,6.52E-03,1.36E-02
126972,6.52E-03,1.38E-02
126973,6.52E-03,1.41E-02
126974,6.51E-03,1.43E-02
126975,6.51E-03,1.45E-02
126976,6.51E-03,1.47E-02
126977,6.51E-03,1.50E-02
126978,6.51E-03,1.52E-02
126979,6.51E-03,1.54E-02
126980,6.51E-03,1.56E-02
126981,6.51E-03,1.59E-02
126982,6.51E-03,1.61E-02
126983,6.51E-03,1.63E-02
126984,6.51E-03,1.65E-02
126985,6.51E-03,1.68E-02
126986,6.51E-03,1.70E-02
126987,6.51E-03,1.72E-02
126988,6.50E-03,1.74E-02
126989,6.50E-03,1.76E-02
126990,6.50E-03,1.79E-02
126991,6.50E-03,1.81E-02
126992,6.50E-03,1.83E-02
126993,6.50E-03,1.85E-02
126994,6.50E-03,1.87E-02
126995,6.50E-03,1.90E-02
126996,6.50E-03,1.92E-02
126997,6.50E-03,1.94E-02
126998,6.50E-03,1.96E-02
126999,6.50E-03,1.98E-02
127000,6.50E-03,2.00E-02
127001,6.50E-03,2.03E-02
127002,6.49E-03,2.05E-02
127003,6.49E-03,2.07E-02
127004,6.49E-03,2.09E-02
127005,6.49E-03,2.11E-02
127006,6.49E-03,2.13E-02
127007,6.49E-03,2.15E-02
127008,6.49E-03,2.17E-02
127009,6.49E-03,2.19E-02
127010,6.49E-03,2.22E-02
127011,6.49E-03,2.24E-02
127012,6.49E-03,2.26E-02
127013,6.49E-03,2.28E-02
127014,6.49E-03,2.30E-02
127015,6.48E-03,2.32E-02
127016,6.48E-03,2.34E-02
127017,6.48E-03,2.37E-02
127018,6.48E-03,2.39E-02
127019,6.48E-03,2.41E-02
127020,6.48E-03,2.44E-02
127021,6.48E-03,2.47E-02
127022,6.48E-03,2.49E-02
127023,6.48E-03,2.52E-02
127024,6.48E-03,2.55E-02
127025,6.48E-03,2.58E-02
127026,6.53E-03,1.03E-02
127027,6.53E-03,1.05E-02
127028,6.53E-03,1.08E-02
127029,6.52E-03,1.10E-02
127030,6.52E-03,1.13E-02
127031,6.52E-03,1.15E-02
127032,6.52E-03,1.17E-02
127033,6.52E-03,1.20E-02
127034,6.52E-03,1.22E-02
127035,6.52E-03,1.24E-02
127036,6.52E-03,1.27E-02
127037,6.52E-03,1.29E-02
127038,6.52E-03,1.31E-02
127039,6.52E-03,1.34E-02
127040,6.52E-03,1.36E-02
127041,6.52E-03,1.38E-02
127042,6.52E-03,1.40E-02
127043,6.51E-03,1.43E-02
127044,6.51E-03,1.45E-02
127045,6.51E-03,1.47E-02
127046,6.51E-03,1.50E-02
127047,6.51E-03,1.52E-02
127048,6.51E-03,1.54E-02
127049,6.51E-03,1.56E-02
127050,6.51E-03,1.59E-02
127051,6.51E-03,1.61E-02
127052,6.51E-03,1.63E-02
127053,6.51E-03,1.65E-02
127054,6.51E-03,1.68E-02
127055,6.51E-03,1.70E-02
127056,6.51E-03,1.72E-02
127057,6.50E-03,1.74E-02
127058,6.50E-03,1.76E-02
127059,6.50E-03,1.79E-02
127060,6.50E-03,1.81E-02
127061,6.50E-03,1.83E-02
127062,6.50E-03,1.85E-02
127063,6.50E-03,1.87E-02
127064,6.50E-03,1.90E-02
127065,6.50E-03,1.92E-02
127066,6.50E-03,1.94E-02
127067,6.50E-03,1.96E-02
127068,6.50E-03,1.98E-02
127069,6.50E-03,2.00E-02
127070,6.50E-03,2.02E-02
127071,6.49E-03,2.05E-02
127072,6.49E-03,2.07E-02
127073,6.49E-03,2.09E-02
127074,6.49E-03,2.11E-02
127075,6.49E-03,2.13E-02
127076,6.49E-03,2.15E-02
127077,6.49E-03,2.17E-02
127078,6.49E-03,2.19E-02
127079,6.49E-03,2.21E-02
127080,6.49E-03,2.24E-02
127081,6.49E-03,2.26E-02
127082,6.49E-03,2.28E-02
127083,6.49E-03,2.30E-02
127084,6.48E-03,2.32E-02
127085,6.48E-03,2.35E-02
127086,6.48E-03,2.37E-02
127087,6.48E-03,2.39E-02
127088,6.48E-03,2.42E-02
127089,6.48E-03,2.44E-02
127090,6.48E-03,2.47E-02
127091,6.48E-03,2.49E-02
127092,6.48E-03,2.52E-02
127093,6.48E-03,2.55E-02
127094,6.48E-03,2.58E-02
127095,6.53E-03,1.03E-02
127096,6.53E-03,1.05E-02
127097,6.53E-03,1.08E-02
127098,6.52E-03,1.10E-02
127099,6.52E-03,1.13E-02
127100,6.52E-03,1.15E-02
127101,6.52E-03,1.17E-02
127102,6.52E-03,1.20E-02
127103,6.52E-03,1.22E-02
127104,6.52E-03,1.24E-02
127105,6.52E-03,1.27E-02
127106,6.52E-03,1.29E-02
127107,6.52E-03,1.31E-02
127108,6.52E-03,1.34E-02
127109,6.52E-03,1.36E-02
127110,6.52E-03,1.38E-02
127111,6.52E-03,1.40E-02
127112,6.51E-03,1.43E-02
127113,6.51E-03,1.45E-02
127114,6.51E-03,1.47E-02
127115,6.51E-03,1.50E-02
127116,6.51E-03,1.52E-02
127117,6.51E-03,1.54E-02
127118,6.51E-03,1.56E-02
127119,6.51E-03,1.59E-02
127120,6.51E-03,1.61E-02
127121,6.51E-03,1.63E-02
127122,6.51E-03,1.65E-02
127123,6.51E-03,1.67E-02
127124,6.51E-03,1.70E-02
127125,6.51E-03,1.72E-02
127126,6.50E-03,1.74E-02
127127,6.50E-03,1.76E-02
127128,6.50E-03,1.79E-02
127129,6.50E-03,1.81E-02
127130,6.50E-03,1.83E-02
127131,6.50E-03,1.85E-02
127132,6.50E-03,1.87E-02
127133,6.50E-03,1.89E-02
127134,6.50E-03,1.92E-02
127135,6.50E-03,1.94E-02
127136,6.50E-03,1.96E-02
127137,6.50E-03,1.98E-02
127138,6.50E-03,2.00E-02
127139,6.50E-03,2.02E-02
127140,6.49E-03,2.04E-02
127141,6.49E-03,2.07E-02
127142,6.49E-03,2.09E-02
127143,6.49E-03,2.11E-02
127144,6.49E-03,2.13E-02
127145,6.49E-03,2.15E-02
127146,6.49E-03,2.17E-02
127147,6.49E-03,2.19E-02
127148,6.49E-03,2.21E-02
127149,6.49E-03,2.24E-02
127150,6.49E-03,2.26E-02
127151,6.49E-03,2.28E-02
127152,6.49E-03,2.30E-02
127153,6.48E-03,2.32E-02
127154,6.48E-03,2.35E-02
127155,6.48E-03,2.37E-02
127156,6.48E-03,2.39E-02
127157,6.48E-03,2.42E-02
127158,6.48E-03,2.44E-02
127159,6.48E-03,2.47E-02
127160,6.48E-03,2.50E-02
127161,6.48E-03,2.52E-02
127162,6.48E-03,2.55E-02
127163,6.48E-03,2.59E-02
127164,6.53E-03,1.03E-02
127165,6.53E-03,1.05E-02
127166,6.53E-03,1.08E-02
127167,6.52E-03,1.10E-02
127168,6.52E-03,1.13E-02
127169,6.52E-03,1.15E-02
127170,6.52E-03,1.17E-02
127171,6.52E-03,1.20E-02
127172,6.52E-03,1.22E-02
127173,6.52E-03,1.24E-02
127174,6.52E-03,1.27E-02
127175,6.52E-03,1.29E-02
127176,6.52E-03,1.31E-02
127177,6.52E-03,1.34E-02
127178,6.52E-03,1.36E-02
127179,6.52E-03,1.38E-02
127180,6.52E-03,1.40E-02
127181,6.51E-03,1.43E-02
127182,6.51E-03,1.45E-02
127183,6.51E-03,1.47E-02
127184,6.51E-03,1.49E-02
127185,6.51E-03,1.52E-02
127186,6.51E-03,1.54E-02
127187,6.51E-03,1.56E-02
127188,6.51E-03,1.58E-02
127189,6.51E-03,1.61E-02
127190,6.51E-03,1.63E-02
127191,6.51E-03,1.65E-02
127192,6.51E-03,1.67E-02
127193,6.51E-03,1.70E-02
127194,6.51E-03,1.72E-02
127195,6.50E-03,1.74E-02
127196,6.50E-03,1.76E-02
127197,6.50E-03,1.78E-02
127198,6.50E-03,1.81E-02
127199,6.50E-03,1.83E-02
127200,6.50E-03,1.85E-02
127201,6.50E-03,1.87E-02
127202,6.50E-03,1.89E-02
127203,6.50E-03,1.92E-02
127204,6.50E-03,1.94E-02
127205,6.50E-03,1.96E-02
127206,6.50E-03,1.98E-02
127207,6.50E-03,2.00E-02
127208,6.50E-03,2.02E-02
127209,6.49E-03,2.04E-02
127210,6.49E-03,2.06E-02
127211,6.49E-03,2.09E-02
127212,6.49E-03,2.11E-02
127213,6.49E-03,2.13E-02
127214,6.49E-03,2.15E-02
127215,6.49E-03,2.17E-02
127216,6.49E-03,2.19E-02
127217,6.49E-03,2.21E-02
127218,6.49E-03,2.24E-02
127219,6.49E-03,2.26E-02
127220,6.49E-03,2.28E-02
127221,6.49E-03,2.30E-02
127222,6.48E-03,2.32E-02
127223,6.48E-03,2.35E-02
127224,6.48E-03,2.37E-02
127225,6.48E-03,2.39E-02
127226,6.48E-03,2.42E-02
127227,6.48E-03,2.44E-02
127228,6.48E-03,2.47E-02
127229,6.48E-03,2.50E-02
127230,6.48E-03,2.53E-02
127231,6.48E-03,2.56E-02
127232,6.48E-03,2.59E-02
127233,6.53E-03,1.03E-02
127234,6.53E-03,1.05E-02
127235,6.53E-03,1.08E-02
127236,6.52E-03,1.10E-02
127237,6.52E-03,1.13E-02
127238,6.52E-03,1.15E-02
127239,6.52E-03,1.17E-02
127240,6.52E-03,1.20E-02
127241,6.52E-03,1.22E-02
127242,6.52E-03,1.24E-02
127243,6.52E-03,1.27E-02
127244,6.52E-03,1.29E-02
127245,6.52E-03,1.31E-02
127246,6.52E-03,1.33E-02
127247,6.52E-03,1.36E-02
127248,6.52E-03,1.38E-02
127249,6.52E-03,1.40E-02
127250,6.51E-03,1.43E-02
127251,6.51E-03,1.45E-02
127252,6.51E-03,1.47E-02
127253,6.51E-03,1.49E-02
127254,6.51E-03,1.52E-02
127255,6.51E-03,1.54E-02
127256,6.51E-03,1.56E-02
127257,6.51E-03,1.58E-02
127258,6.51E-03,1.61E-02
127259,6.51E-03,1.63E-02
127260,6.51E-03,1.65E-02
127261,6.51E-03,1.67E-02
127262,6.51E-03,1.70E-02
127263,6.51E-03,1.72E-02
127264,6.50E-03,1.74E-02
127265,6.50E-03,1.76E-02
127266,6.50E-03,1.78E-02
127267,6.50E-03,1.81E-02
127268,6.50E-03,1.83E-02
127269,6.50E-03,1.85E-02
127270,6.50E-03,1.87E-02
127271,6.50E-03,1.89E-02
127272,6.50E-03,1.91E-02
127273,6.50E-03,1.94E-02
127274,6.50E-03,1.96E-02
127275,6.50E-03,1.98E-02
127276,6.50E-03,2.00E-02
127277,6.50E-03,2.02E-02
127278,6.49E-03,2.04E-02
127279,6.49E-03,2.06E-02
127280,6.49E-03,2.09E-02
127281,6.49E-03,2.11E-02
127282,6.49E-03,2.13E-02
127283,6.49E-03,2.15E-02
127284,6.49E-03,2.17E-02
127285,6.49E-03,2.19E-02
127286,6.49E-03,2.21E-02
127287,6.49E-03,2.23E-02
127288,6.49E-03,2.26E-02
127289,6.49E-03,2.28E-02
127290,6.49E-03,2.30E-02
127291,6.48E-03,2.32E-02
127292,6.48E-03,2.35E-02
127293,6.48E-03,2.37E-02
127294,6.48E-03,2.39E-02
127295,6.48E-03,2.42E-02
127296,6.48E-03,2.44E-02
127297,6.48E-03,2.47E-02
127298,6.48E-03,2.50E-02
127299,6.48E-03,2.53E-02
127300,6.48E-03,2.56E-02
127301,6.48E-03,2.59E-02
127302,6.53E-03,1.03E-02
127303,6.53E-03,1.05E-02
127304,6.53E-03,1.08E-02
127305,6.52E-03,1.10E-02
127306,6.52E-03,1.12E-02
127307,6.52E-03,1.15E-02
127308,6.52E-03,1.17E-02
127309,6.52E-03,1.20E-02
127310,6.52E-03,1.22E-02
127311,6.52E-03,1.24E-02
127312,6.52E-03,1.27E-02
127313,6.52E-03,1.29E-02
127314,6.52E-03,1.31E-02
127315,6.52E-03,1.33E-02
127316,6.52E-03,1.36E-02
127317,6.52E-03,1.38E-02
127318,6.52E-03,1.40E-02
127319,6.51E-03,1.43E-02
127320,6.51E-03,1.45E-02
127321,6.51E-03,1.47E-02
127322,6.51E-03,1.49E-02
127323,6.51E-03,1.52E-02
127324,6.51E-03,1.54E-02
127325,6.51E-03,1.56E-02
127326,6.51E-03,1.58E-02
127327,6.51E-03,1.61E-02
127328,6.51E-03,1.63E-02
127329,6.51E-03,1.65E-02
127330,6.51E-03,1.67E-02
127331,6.51E-03,1.70E-02
127332,6.51E-03,1.72E-02
127333,6.50E-03,1.74E-02
127334,6.50E-03,1.76E-02
127335,6.50E-03,1.78E-02
127336,6.50E-03,1.81E-02
127337,6.50E-03,1.83E-02
127338,6.50E-03,1.85E-02
127339,6.50E-03,1.87E-02
127340,6.50E-03,1.89E-02
127341,6.50E-03,1.91E-02
127342,6.50E-03,1.93E-02
127343,6.50E-03,1.96E-02
127344,6.50E-03,1.98E-02
127345,6.50E-03,2.00E-02
127346,6.50E-03,2.02E-02
127347,6.49E-03,2.04E-02
127348,6.49E-03,2.06E-02
127349,6.49E-03,2.08E-02
127350,6.49E-03,2.11E-02
127351,6.49E-03,2.13E-02
127352,6.49E-03,2.15E-02
127353,6.49E-03,2.17E-02
127354,6.49E-03,2.19E-02
127355,6.49E-03,2.21E-02
127356,6.49E-03,2.23E-02
127357,6.49E-03,2.26E-02
127358,6.49E-03,2.28E-02
127359,6.49E-03,2.30E-02
127360,6.48E-03,2.32E-02
127361,6.48E-03,2.35E-02
127362,6.48E-03,2.37E-02
127363,6.48E-03,2.40E-02
127364,6.48E-03,2.42E-02
127365,6.48E-03,2.45E-02
127366,6.48E-03,2.47E-02
127367,6.48E-03,2.50E-02
127368,6.48E-03,2.53E-02
127369,6.48E-03,2.56E-02
127370,6.48E-03,2.58E-02
127371,6.53E-03,1.03E-02
127372,6.53E-03,1.05E-02
127373,6.53E-03,1.08E-02
127374,6.52E-03,1.10E-02
127375,6.52E-03,1.12E-02
127376,6.52E-03,1.15E-02
127377,6.52E-03,1.17E-02
127378,6.52E-03,1.20E-02
127379,6.52E-03,1.22E-02
127380,6.52E-03,1.24E-02
127381,6.52E-03,1.26E-02
127382,6.52E-03,1.29E-02
127383,6.52E-03,1.31E-02
127384,6.52E-03,1.33E-02
127385,6.52E-03,1.36E-02
127386,6.52E-03,1.38E-02
127387,6.52E-03,1.40E-02
127388,6.51E-03,1.43E-02
127389,6.51E-03,1.45E-02
127390,6.51E-03,1.47E-02
127391,6.51E-03,1.49E-02
127392,6.51E-03,1.52E-02
127393,6.51E-03,1.54E-02
127394,6.51E-03,1.56E-02
127395,6.51E-03,1.58E-02
127396,6.51E-03,1.61E-02
127397,6.51E-03,1.63E-02
127398,6.51E-03,1.65E-02
127399,6.51E-03,1.67E-02
127400,6.51E-03,1.69E-02
127401,6.51E-03,1.72E-02
127402,6.50E-03,1.74E-02
127403,6.50E-03,1.76E-02
127404,6.50E-03,1.78E-02
127405,6.50E-03,1.80E-02
127406,6.50E-03,1.83E-02
127407,6.50E-03,1.85E-02
127408,6.50E-03,1.87E-02
127409,6.50E-03,1.89E-02
127410,6.50E-03,1.91E-02
127411,6.50E-03,1.93E-02
127412,6.50E-03,1.96E-02
127413,6.50E-03,1.98E-02
127414,6.50E-03,2.00E-02
127415,6.50E-03,2.02E-02
127416,6.49E-03,2.04E-02
127417,6.49E-03,2.06E-02
127418,6.49E-03,2.08E-02
127419,6.49E-03,2.11E-02
127420,6.49E-03,2.13E-02
127421,6.49E-03,2.15E-02
127422,6.49E-03,2.17E-02
127423,6.49E-03,2.19E-02
127424,6.49E-03,2.21E-02
127425,6.49E-03,2.23E-02
127426,6.49E-03,2.26E-02
127427,6.49E-03,2.28E-02
127428,6.49E-03,2.30E-02
127429,6.48E-03,2.32E-02
127430,6.48E-03,2.35E-02
127431,6.48E-03,2.37E-02
127432,6.48E-03,2.40E-02
127433,6.48E-03,2.42E-02
127434,6.48E-03,2.45E-02
127435,6.48E-03,2.47E-02
127436,6.48E-03,2.50E-02
127437,6.48E-03,2.53E-02
127438,6.48E-03,2.55E-02
127439,6.48E-03,2.58E-02
127440,6.53E-03,1.03E-02
127441,6.53E-03,1.05E-02
127442,6.53E-03,1.08E-02
127443,6.52E-03,1.10E-02
127444,6.52E-03,1.12E-02
127445,6.52E-03,1.15E-02
127446,6.52E-03,1.17E-02
127447,6.52E-03,1.19E-02
127448,6.52E-03,1.22E-02
127449,6.52E-03,1.24E-02
127450,6.52E-03,1.26E-02
127451,6.52E-03,1.29E-02
127452,6.52E-03,1.31E-02
127453,6.52E-03,1.33E-02
127454,6.52E-03,1.36E-02
127455,6.52E-03,1.38E-02
127456,6.52E-03,1.40E-02
127457,6.51E-03,1.43E-02
127458,6.51E-03,1.45E-02
127459,6.51E-03,1.47E-02
127460,6.51E-03,1.49E-02
127461,6.51E-03,1.52E-02
127462,6.51E-03,1.54E-02
127463,6.51E-03,1.56E-02
127464,6.51E-03,1.58E-02
127465,6.51E-03,1.61E-02
127466,6.51E-03,1.63E-02
127467,6.51E-03,1.65E-02
127468,6.51E-03,1.67E-02
127469,6.51E-03,1.69E-02
127470,6.51E-03,1.72E-02
127471,6.50E-03,1.74E-02
127472,6.50E-03,1.76E-02
127473,6.50E-03,1.78E-02
127474,6.50E-03,1.80E-02
127475,6.50E-03,1.83E-02
127476,6.50E-03,1.85E-02
127477,6.50E-03,1.87E-02
127478,6.50E-03,1.89E-02
127479,6.50E-03,1.91E-02
127480,6.50E-03,1.93E-02
127481,6.50E-03,1.96E-02
127482,6.50E-03,1.98E-02
127483,6.50E-03,2.00E-02
127484,6.50E-03,2.02E-02
127485,6.49E-03,2.04E-02
127486,6.49E-03,2.06E-02
127487,6.49E-03,2.08E-02
127488,6.49E-03,2.10E-02
127489,6.49E-03,2.13E-02
127490,6.49E-03,2.15E-02
127491,6.49E-03,2.17E-02
127492,6.49E-03,2.19E-02
127493,6.49E-03,2.21E-02
127494,6.49E-03,2.23E-02
127495,6.49E-03,2.26E-02
127496,6.49E-03,2.28E-02
127497,6.49E-03,2.30E-02
127498,6.48E-03,2.32E-02
127499,6.48E-03,2.35E-02
127500,6.48E-03,2.37E-02
127501,6.48E-03,2.40E-02
127502,6.48E-03,2.42E-02
127503,6.48E-03,2.45E-02
127504,6.48E-03,2.47E-02
127505,6.48E-03,2.50E-02
127506,6.48E-03,2.53E-02
127507,6.48E-03,2.55E-02
127508,6.48E-03,2.58E-02
127509,6.53E-03,1.03E-02
127510,6.53E-03,1.05E-02
127511,6.53E-03,1.08E-02
127512,6.52E-03,1.10E-02
127513,6.52E-03,1.12E-02
127514,6.52E-03,1.15E-02
127515,6.52E-03,1.17E-02
127516,6.52E-03,1.19E-02
127517,6.52E-03,1.22E-02
127518,6.52E-03,1.24E-02
127519,6.52E-03,1.26E-02
127520,6.52E-03,1.29E-02
127521,6.52E-03,1.31E-02
127522,6.52E-03,1.33E-02
127523,6.52E-03,1.36E-02
127524,6.52E-03,1.38E-02
127525,6.52E-03,1.40E-02
127526,6.51E-03,1.43E-02
127527,6.51E-03,1.45E-02
127528,6.51E-03,1.47E-02
127529,6.51E-03,1.49E-02
127530,6.51E-03,1.52E-02
127531,6.51E-03,1.54E-02
127532,6.51E-03,1.56E-02
127533,6.51E-03,1.58E-02
127534,6.51E-03,1.61E-02
127535,6.51E-03,1.63E-02
127536,6.51E-03,1.65E-02
127537,6.51E-03,1.67E-02
127538,6.51E-03,1.69E-02
127539,6.51E-03,1.72E-02
127540,6.50E-03,1.74E-02
127541,6.50E-03,1.76E-02
127542,6.50E-03,1.78E-02
127543,6.50E-03,1.80E-02
127544,6.50E-03,1.83E-02
127545,6.50E-03,1.85E-02
127546,6.50E-03,1.87E-02
127547,6.50E-03,1.89E-02
127548,6.50E-03,1.91E-02
127549,6.50E-03,1.93E-02
127550,6.50E-03,1.95E-02
127551,6.50E-03,1.98E-02
127552,6.50E-03,2.00E-02
127553,6.50E-03,2.02E-02
127554,6.49E-03,2.04E-02
127555,6.49E-03,2.06E-02
127556,6.49E-03,2.08E-02
127557,6.49E-03,2.10E-02
127558,6.49E-03,2.13E-02
127559,6.49E-03,2.15E-02
127560,6.49E-03,2.17E-02
127561,6.49E-03,2.19E-02
127562,6.49E-03,2.21E-02
127563,6.49E-03,2.23E-02
127564,6.49E-03,2.26E-02
127565,6.49E-03,2.28E-02
127566,6.49E-03,2.30E-02
127567,6.48E-03,2.32E-02
127568,6.48E-03,2.35E-02
127569,6.48E-03,2.37E-02
127570,6.48E-03,2.40E-02
127571,6.48E-03,2.42E-02
127572,6.48E-03,2.45E-02
127573,6.48E-03,2.47E-02
127574,6.48E-03,2.50E-02
127575,6.48E-03,2.53E-02
127576,6.48E-03,2.55E-02
127577,6.48E-03,2.58E-02
127578,6.53E-03,1.03E-02
127579,6.53E-03,1.05E-02
127580,6.53E-03,1.08E-02
127581,6.52E-03,1.10E-02
127582,6.52E-03,1.12E-02
127583,6.52E-03,1.15E-02
127584,6.52E-03,1.17E-02
127585,6.52E-03,1.19E-02
127586,6.52E-03,1.22E-02
127587,6.52E-03,1.24E-02
127588,6.52E-03,1.26E-02
127589,6.52E-03,1.29E-02
127590,6.52E-03,1.31E-02
127591,6.52E-03,1.33E-02
127592,6.52E-03,1.36E-02
127593,6.52E-03,1.38E-02
127594,6.52E-03,1.40E-02
127595,6.51E-03,1.42E-02
127596,6.51E-03,1.45E-02
127597,6.51E-03,1.47E-02
127598,6.51E-03,1.49E-02
127599,6.51E-03,1.52E-02
127600,6.51E-03,1.54E-02
127601,6.51E-03,1.56E-02
127602,6.51E-03,1.58E-02
127603,6.51E-03,1.60E-02
127604,6.51E-03,1.63E-02
127605,6.51E-03,1.65E-02
127606,6.51E-03,1.67E-02
127607,6.51E-03,1.69E-02
127608,6.51E-03,1.72E-02
127609,6.50E-03,1.74E-02
127610,6.50E-03,1.76E-02
127611,6.50E-03,1.78E-02
127612,6.50E-03,1.80E-02
127613,6.50E-03,1.82E-02
127614,6.50E-03,1.85E-02
127615,6.50E-03,1.87E-02
127616,6.50E-03,1.89E-02
127617,6.50E-03,1.91E-02
127618,6.50E-03,1.93E-02
127619,6.50E-03,1.95E-02
127620,6.50E-03,1.98E-02
127621,6.50E-03,2.00E-02
127622,6.50E-03,2.02E-02
127623,6.49E-03,2.04E-02
127624,6.49E-03,2.06E-02
127625,6.49E-03,2.08E-02
127626,6.49E-03,2.10E-02
127627,6.49E-03,2.13E-02
127628,6.49E-03,2.15E-02
127629,6.49E-03,2.17E-02
127630,6.49E-03,2.19E-02
127631,6.49E-03,2.21E-02
127632,6.49E-03,2.23E-02
127633,6.49E-03,2.26E-02
127634,6.49E-03,2.28E-02
127635,6.49E-03,2.30E-02
127636,6.48E-03,2.32E-02
127637,6.48E-03,2.35E-02
127638,6.48E-03,2.37E-02
127639,6.48E-03,2.40E-02
127640,6.48E-03,2.42E-02
127641,6.48E-03,2.45E-02
127642,6.48E-03,2.47E-02
127643,6.48E-03,2.50E-02
127644,6.48E-03,2.52E-02
127645,6.48E-03,2.55E-02
127646,6.48E-03,2.58E-02
127647,6.53E-03,1.03E-02
127648,6.53E-03,1.05E-02
127649,6.53E-03,1.08E-02
127650,6.52E-03,1.10E-02
127651,6.52E-03,1.12E-02
127652,6.52E-03,1.15E-02
127653,6.52E-03,1.17E-02
127654,6.52E-03,1.19E-02
127655,6.52E-03,1.22E-02
127656,6.52E-03,1.24E-02
127657,6.52E-03,1.26E-02
127658,6.52E-03,1.29E-02
127659,6.52E-03,1.31E-02
127660,6.52E-03,1.33E-02
127661,6.52E-03,1.36E-02
127662,6.52E-03,1.38E-02
127663,6.52E-03,1.40E-02
127664,6.51E-03,1.42E-02
127665,6.51E-03,1.45E-02
127666,6.51E-03,1.47E-02
127667,6.51E-03,1.49E-02
127668,6.51E-03,1.52E-02
127669,6.51E-03,1.54E-02
127670,6.51E-03,1.56E-02
127671,6.51E-03,1.58E-02
127672,6.51E-03,1.60E-02
127673,6.51E-03,1.63E-02
127674,6.51E-03,1.65E-02
127675,6.51E-03,1.67E-02
127676,6.51E-03,1.69E-02
127677,6.51E-03,1.71E-02
127678,6.50E-03,1.74E-02
127679,6.50E-03,1.76E-02
127680,6.50E-03,1.78E-02
127681,6.50E-03,1.80E-02
127682,6.50E-03,1.82E-02
127683,6.50E-03,1.85E-02
127684,6.50E-03,1.87E-02
127685,6.50E-03,1.89E-02
127686,6.50E-03,1.91E-02
127687,6.50E-03,1.93E-02
127688,6.50E-03,1.95E-02
127689,6.50E-03,1.98E-02
127690,6.50E-03,2.00E-02
127691,6.50E-03,2.02E-02
127692,6.49E-03,2.04E-02
127693,6.49E-03,2.06E-02
127694,6.49E-03,2.08E-02
127695,6.49E-03,2.10E-02
127696,6.49E-03,2.13E-02
127697,6.49E-03,2.15E-02
127698,6.49E-03,2.17E-02
127699,6.49E-03,2.19E-02
127700,6.49E-03,2.21E-02
127701,6.49E-03,2.23E-02
127702,6.49E-03,2.26E-02
127703,6.49E-03,2.28E-02
127704,6.49E-03,2.30E-02
127705,6.48E-03,2.33E-02
127706,6.48E-03,2.35E-02
127707,6.48E-03,2.37E-02
127708,6.48E-03,2.40E-02
127709,6.48E-03,2.42E-02
127710,6.48E-03,2.45E-02
127711,6.48E-03,2.47E-02
127712,6.48E-03,2.50E-02
127713,6.48E-03,2.52E-02
127714,6.48E-03,2.55E-02
127715,6.48E-03,2.58E-02
127716,6.53E-03,1.03E-02
127717,6.53E-03,1.05E-02
127718,6.53E-03,1.08E-02
127719,6.52E-03,1.10E-02
127720,6.52E-03,1.12E-02
127721,6.52E-03,1.15E-02
127722,6.52E-03,1.17E-02
127723,6.52E-03,1.19E-02
127724,6.52E-03,1.22E-02
127725,6.52E-03,1.24E-02
127726,6.52E-03,1.26E-02
127727,6.52E-03,1.29E-02
127728,6.52E-03,1.31E-02
127729,6.52E-03,1.33E-02
127730,6.52E-03,1.36E-02
127731,6.52E-03,1.38E-02
127732,6.52E-03,1.40E-02
127733,6.51E-03,1.42E-02
127734,6.51E-03,1.45E-02
127735,6.51E-03,1.47E-02
127736,6.51E-03,1.49E-02
127737,6.51E-03,1.51E-02
127738,6.51E-03,1.54E-02
127739,6.51E-03,1.56E-02
127740,6.51E-03,1.58E-02
127741,6.51E-03,1.60E-02
127742,6.51E-03,1.63E-02
127743,6.51E-03,1.65E-02
127744,6.51E-03,1.67E-02
127745,6.51E-03,1.69E-02
127746,6.51E-03,1.71E-02
127747,6.50E-03,1.74E-02
127748,6.50E-03,1.76E-02
127749,6.50E-03,1.78E-02
127750,6.50E-03,1.80E-02
127751,6.50E-03,1.82E-02
127752,6.50E-03,1.85E-02
127753,6.50E-03,1.87E-02
127754,6.50E-03,1.89E-02
127755,6.50E-03,1.91E-02
127756,6.50E-03,1.93E-02
127757,6.50E-03,1.95E-02
127758,6.50E-03,1.97E-02
127759,6.50E-03,2.00E-02
127760,6.50E-03,2.02E-02
127761,6.49E-03,2.04E-02
127762,6.49E-03,2.06E-02
127763,6.49E-03,2.08E-02
127764,6.49E-03,2.10E-02
127765,6.49E-03,2.13E-02
127766,6.49E-03,2.15E-02
127767,6.49E-03,2.17E-02
127768,6.49E-03,2.19E-02
127769,6.49E-03,2.21E-02
127770,6.49E-03,2.23E-02
127771,6.49E-03,2.26E-02
127772,6.49E-03,2.28E-02
127773,6.49E-03,2.30E-02
127774,6.48E-03,2.32E-02
127775,6.48E-03,2.35E-02
127776,6.48E-03,2.37E-02
127777,6.48E-03,2.40E-02
127778,6.48E-03,2.42E-02
127779,6.48E-03,2.45E-02
127780,6.48E-03,2.47E-02
127781,6.48E-03,2.50E-02
127782,6.48E-03,2.52E-02
127783,6.48E-03,2.55E-02
127784,6.48E-03,2.57E-02
127785,6.53E-03,1.03E-02
127786,6.53E-03,1.05E-02
127787,6.53E-03,1.08E-02
127788,6.52E-03,1.10E-02
127789,6.52E-03,1.12E-02
127790,6.52E-03,1.15E-02
127791,6.52E-03,1.17E-02
127792,6.52E-03,1.19E-02
127793,6.52E-03,1.22E-02
127794,6.52E-03,1.24E-02
127795,6.52E-03,1.26E-02
127796,6.52E-03,1.29E-02
127797,6.52E-03,1.31E-02
127798,6.52E-03,1.33E-02
127799,6.52E-03,1.36E-02
127800,6.52E-03,1.38E-02
127801,6.52E-03,1.40E-02
127802,6.51E-03,1.42E-02
127803,6.51E-03,1.45E-02
127804,6.51E-03,1.47E-02
127805,6.51E-03,1.49E-02
127806,6.51E-03,1.51E-02
127807,6.51E-03,1.54E-02
127808,6.51E-03,1.56E-02
127809,6.51E-03,1.58E-02
127810,6.51E-03,1.60E-02
127811,6.51E-03,1.63E-02
127812,6.51E-03,1.65E-02
127813,6.51E-03,1.67E-02
127814,6.51E-03,1.69E-02
127815,6.51E-03,1.71E-02
127816,6.50E-03,1.74E-02
127817,6.50E-03,1.76E-02
127818,6.50E-03,1.78E-02
127819,6.50E-03,1.80E-02
127820,6.50E-03,1.82E-02
127821,6.50E-03,1.85E-02
127822,6.50E-03,1.87E-02
127823,6.50E-03,1.89E-02
127824,6.50E-03,1.91E-02
127825,6.50E-03,1.93E-02
127826,6.50E-03,1.95E-02
127827,6.50E-03,1.97E-02
127828,6.50E-03,2.00E-02
127829,6.50E-03,2.02E-02
127830,6.49E-03,2.04E-02
127831,6.49E-03,2.06E-02
127832,6.49E-03,2.08E-02
127833,6.49E-03,2.10E-02
127834,6.49E-03,2.13E-02
127835,6.49E-03,2.15E-02
127836,6.49E-03,2.17E-02
127837,6.49E-03,2.19E-02
127838,6.49E-03,2.21E-02
127839,6.49E-03,2.23E-02
127840,6.49E-03,2.26E-02
127841,6.49E-03,2.28E-02
127842,6.49E-03,2.30E-02
127843,6.48E-03,2.32E-02
127844,6.48E-03,2.35E-02
127845,6.48E-03,2.37E-02
127846,6.48E-03,2.40E-02
127847,6.48E-03,2.42E-02
127848,6.48E-03,2.44E-02
127849,6.48E-03,2.47E-02
127850,6.48E-03,2.49E-02
127851,6.48E-03,2.52E-02
127852,6.48E-03,2.55E-02
127853,6.48E-03,2.57E-02
127854,6.53E-03,1.03E-02
127855,6.53E-03,1.05E-02
127856,6.53E-03,1.08E-02
127857,6.52E-03,1.10E-02
127858,6.52E-03,1.12E-02
127859,6.52E-03,1.15E-02
127860,6.52E-03,1.17E-02
127861,6.52E-03,1.19E-02
127862,6.52E-03,1.22E-02
127863,6.52E-03,1.24E-02
127864,6.52E-03,1.26E-02
127865,6.52E-03,1.29E-02
127866,6.52E-03,1.31E-02
127867,6.52E-03,1.33E-02
127868,6.52E-03,1.36E-02
127869,6.52E-03,1.38E-02
127870,6.52E-03,1.40E-02
127871,6.51E-03,1.42E-02
127872,6.51E-03,1.45E-02
127873,6.51E-03,1.47E-02
127874,6.51E-03,1.49E-02
127875,6.51E-03,1.51E-02
127876,6.51E-03,1.54E-02
127877,6.51E-03,1.56E-02
127878,6.51E-03,1.58E-02
127879,6.51E-03,1.60E-02
127880,6.51E-03,1.63E-02
127881,6.51E-03,1.65E-02
127882,6.51E-03,1.67E-02
127883,6.51E-03,1.69E-02
127884,6.51E-03,1.71E-02
127885,6.50E-03,1.74E-02
127886,6.50E-03,1.76E-02
127887,6.50E-03,1.78E-02
127888,6.50E-03,1.80E-02
127889,6.50E-03,1.82E-02
127890,6.50E-03,1.84E-02
127891,6.50E-03,1.87E-02
127892,6.50E-03,1.89E-02
127893,6.50E-03,1.91E-02
127894,6.50E-03,1.93E-02
127895,6.50E-03,1.95E-02
127896,6.50E-03,1.97E-02
127897,6.50E-03,2.00E-02
127898,6.50E-03,2.02E-02
127899,6.49E-03,2.04E-02
127900,6.49E-03,2.06E-02
127901,6.49E-03,2.08E-02
127902,6.49E-03,2.10E-02
127903,6.49E-03,2.12E-02
127904,6.49E-03,2.15E-02
127905,6.49E-03,2.17E-02
127906,6.49E-03,2.19E-02
127907,6.49E-03,2.21E-02
127908,6.49E-03,2.23E-02
127909,6.49E-03,2.26E-02
127910,6.49E-03,2.28E-02
127911,6.49E-03,2.30E-02
127912,6.48E-03,2.32E-02
127913,6.48E-03,2.35E-02
127914,6.48E-03,2.37E-02
127915,6.48E-03,2.40E-02
127916,6.48E-03,2.42E-02
127917,6.48E-03,2.44E-02
127918,6.48E-03,2.47E-02
127919,6.48E-03,2.49E-02
127920,6.48E-03,2.52E-02
127921,6.48E-03,2.54E-02
127922,6.48E-03,2.57E-02
127923,6.53E-03,1.03E-02
127924,6.53E-03,1.06E-02
127925,6.53E-03,1.08E-02
127926,6.52E-03,1.10E-02
127927,6.52E-03,1.13E-02
127928,6.52E-03,1.15E-02
127929,6.52E-03,1.17E-02
127930,6.52E-03,1.19E-02
127931,6.52E-03,1.22E-02
127932,6.52E-03,1.24E-02
127933,6.52E-03,1.26E-02
127934,6.52E-03,1.29E-02
127935,6.52E-03,1.31E-02
127936,6.52E-03,1.33E-02
127937,6.52E-03,1.36E-02
127938,6.52E-03,1.38E-02
127939,6.52E-03,1.40E-02
127940,6.51E-03,1.42E-02
127941,6.51E-03,1.45E-02
127942,6.51E-03,1.47E-02
127943,6.51E-03,1.49E-02
127944,6.51E-03,1.51E-02
127945,6.51E-03,1.54E-02
127946,6.51E-03,1.56E-02
127947,6.51E-03,1.58E-02
127948,6.51E-03,1.60E-02
127949,6.51E-03,1.63E-02
127950,6.51E-03,1.65E-02
127951,6.51E-03,1.67E-02
127952,6.51E-03,1.69E-02
127953,6.51E-03,1.71E-02
127954,6.50E-03,1.74E-02
127955,6.50E-03,1.76E-02
127956,6.50E-03,1.78E-02
127957,6.50E-03,1.80E-02
127958,6.50E-03,1.82E-02
127959,6.50E-03,1.84E-02
127960,6.50E-03,1.87E-02
127961,6.50E-03,1.89E-02
127962,6.50E-03,1.91E-02
127963,6.50E-03,1.93E-02
127964,6.50E-03,1.95E-02
127965,6.50E-03,1.97E-02
127966,6.50E-03,2.00E-02
127967,6.50E-03,2.02E-02
127968,6.49E-03,2.04E-02
127969,6.49E-03,2.06E-02
127970,6.49E-03,2.08E-02
127971,6.49E-03,2.10E-02
127972,6.49E-03,2.12E-02
127973,6.49E-03,2.15E-02
127974,6.49E-03,2.17E-02
127975,6.49E-03,2.19E-02
127976,6.49E-03,2.21E-02
127977,6.49E-03,2.23E-02
127978,6.49E-03,2.26E-02
127979,6.49E-03,2.28E-02
127980,6.49E-03,2.30E-02
127981,6.48E-03,2.32E-02
127982,6.48E-03,2.35E-02
127983,6.48E-03,2.37E-02
127984,6.48E-03,2.39E-02
127985,6.48E-03,2.42E-02
127986,6.48E-03,2.44E-02
127987,6.48E-03,2.47E-02
127988,6.48E-03,2.49E-02
127989,6.48E-03,2.52E-02
127990,6.48E-03,2.54E-02
127991,6.48E-03,2.57E-02
127992,6.53E-03,1.03E-02
127993,6.53E-03,1.06E-02
127994,6.53E-03,1.08E-02
127995,6.52E-03,1.10E-02
127996,6.52E-03,1.13E-02
127997,6.52E-03,1.15E-02
127998,6.52E-03,1.17E-02
127999,6.52E-03,1.20E-02
128000,6.52E-03,1.22E-02
128001,6.52E-03,1.24E-02
128002,6.52E-03,1.26E-02
128003,6.52E-03,1.29E-02
128004,6.52E-03,1.31E-02
128005,6.52E-03,1.33E-02
128006,6.52E-03,1.36E-02
128007,6.52E-03,1.38E-02
128008,6.52E-03,1.40E-02
128009,6.51E-03,1.42E-02
128010,6.51E-03,1.45E-02
128011,6.51E-03,1.47E-02
128012,6.51E-03,1.49E-02
128013,6.51E-03,1.51E-02
128014,6.51E-03,1.54E-02
128015,6.51E-03,1.56E-02
128016,6.51E-03,1.58E-02
128017,6.51E-03,1.60E-02
128018,6.51E-03,1.63E-02
128019,6.51E-03,1.65E-02
128020,6.51E-03,1.67E-02
128021,6.51E-03,1.69E-02
128022,6.51E-03,1.71E-02
128023,6.50E-03,1.74E-02
128024,6.50E-03,1.76E-02
128025,6.50E-03,1.78E-02
128026,6.50E-03,1.80E-02
128027,6.50E-03,1.82E-02
128028,6.50E-03,1.84E-02
128029,6.50E-03,1.87E-02
128030,6.50E-03,1.89E-02
128031,6.50E-03,1.91E-02
128032,6.50E-03,1.93E-02
128033,6.50E-03,1.95E-02
128034,6.50E-03,1.97E-02
128035,6.50E-03,2.00E-02
128036,6.50E-03,2.02E-02
128037,6.49E-03,2.04E-02
128038,6.49E-03,2.06E-02
128039,6.49E-03,2.08E-02
128040,6.49E-03,2.10E-02
128041,6.49E-03,2.12E-02
128042,6.49E-03,2.15E-02
128043,6.49E-03,2.17E-02
128044,6.49E-03,2.19E-02
128045,6.49E-03,2.21E-02
128046,6.49E-03,2.23E-02
128047,6.49E-03,2.26E-02
128048,6.49E-03,2.28E-02
128049,6.49E-03,2.30E-02
128050,6.48E-03,2.32E-02
128051,6.48E-03,2.35E-02
128052,6.48E-03,2.37E-02
128053,6.48E-03,2.39E-02
128054,6.48E-03,2.42E-02
128055,6.48E-03,2.44E-02
128056,6.48E-03,2.47E-02
128057,6.48E-03,2.49E-02
128058,6.48E-03,2.51E-02
128059,6.48E-03,2.54E-02
128060,6.48E-03,2.56E-02
128061,6.53E-03,1.03E-02
128062,6.53E-03,1.06E-02
128063,6.53E-03,1.08E-02
128064,6.52E-03,1.10E-02
128065,6.52E-03,1.13E-02
128066,6.52E-03,1.15E-02
128067,6.52E-03,1.17E-02
128068,6.52E-03,1.20E-02
128069,6.52E-03,1.22E-02
128070,6.52E-03,1.24E-02
128071,6.52E-03,1.26E-02
128072,6.52E-03,1.29E-02
128073,6.52E-03,1.31E-02
128074,6.52E-03,1.33E-02
128075,6.52E-03,1.36E-02
128076,6.52E-03,1.38E-02
128077,6.52E-03,1.40E-02
128078,6.51E-03,1.42E-02
128079,6.51E-03,1.45E-02
128080,6.51E-03,1.47E-02
128081,6.51E-03,1.49E-02
128082,6.51E-03,1.51E-02
128083,6.51E-03,1.54E-02
128084,6.51E-03,1.56E-02
128085,6.51E-03,1.58E-02
128086,6.51E-03,1.60E-02
128087,6.51E-03,1.63E-02
128088,6.51E-03,1.65E-02
128089,6.51E-03,1.67E-02
128090,6.51E-03,1.69E-02
128091,6.51E-03,1.71E-02
128092,6.50E-03,1.74E-02
128093,6.50E-03,1.76E-02
128094,6.50E-03,1.78E-02
128095,6.50E-03,1.80E-02
128096,6.50E-03,1.82E-02
128097,6.50E-03,1.84E-02
128098,6.50E-03,1.87E-02
128099,6.50E-03,1.89E-02
128100,6.50E-03,1.91E-02
128101,6.50E-03,1.93E-02
128102,6.50E-03,1.95E-02
128103,6.50E-03,1.97E-02
128104,6.50E-03,2.00E-02
128105,6.50E-03,2.02E-02
128106,6.49E-03,2.04E-02
128107,6.49E-03,2.06E-02
128108,6.49E-03,2.08E-02
128109,6.49E-03,2.10E-02
128110,6.49E-03,2.12E-02
128111,6.49E-03,2.15E-02
128112,6.49E-03,2.17E-02
128113,6.49E-03,2.19E-02
128114,6.49E-03,2.21E-02
128115,6.49E-03,2.23E-02
128116,6.49E-03,2.26E-02
128117,6.49E-03,2.28E-02
128118,6.49E-03,2.30E-02
128119,6.48E-03,2.32E-02
128120,6.48E-03,2.35E-02
128121,6.48E-03,2.37E-02
128122,6.48E-03,2.39E-02
128123,6.48E-03,2.42E-02
128124,6.48E-03,2.44E-02
128125,6.48E-03,2.46E-02
128126,6.48E-03,2.49E-02
128127,6.48E-03,2.51E-02
128128,6.48E-03,2.54E-02
128129,6.48E-03,2.56E-02
128130,6.53E-03,1.03E-02
128131,6.53E-03,1.06E-02
128132,6.53E-03,1.08E-02
128133,6.52E-03,1.10E-02
128134,6.52E-03,1.13E-02
128135,6.52E-03,1.15E-02
128136,6.52E-03,1.17E-02
128137,6.52E-03,1.20E-02
128138,6.52E-03,1.22E-02
128139,6.52E-03,1.24E-02
128140,6.52E-03,1.26E-02
128141,6.52E-03,1.29E-02
128142,6.52E-03,1.31E-02
128143,6.52E-03,1.33E-02
128144,6.52E-03,1.36E-02
128145,6.52E-03,1.38E-02
128146,6.52E-03,1.40E-02
128147,6.51E-03,1.42E-02
128148,6.51E-03,1.45E-02
128149,6.51E-03,1.47E-02
128150,6.51E-03,1.49E-02
128151,6.51E-03,1.51E-02
128152,6.51E-03,1.54E-02
128153,6.51E-03,1.56E-02
128154,6.51E-03,1.58E-02
128155,6.51E-03,1.60E-02
128156,6.51E-03,1.63E-02
128157,6.51E-03,1.65E-02
128158,6.51E-03,1.67E-02
128159,6.51E-03,1.69E-02
128160,6.51E-03,1.71E-02
128161,6.50E-03,1.74E-02
128162,6.50E-03,1.76E-02
128163,6.50E-03,1.78E-02
128164,6.50E-03,1.80E-02
128165,6.50E-03,1.82E-02
128166,6.50E-03,1.84E-02
128167,6.50E-03,1.87E-02
128168,6.50E-03,1.89E-02
128169,6.50E-03,1.91E-02
128170,6.50E-03,1.93E-02
128171,6.50E-03,1.95E-02
128172,6.50E-03,1.97E-02
128173,6.50E-03,2.00E-02
128174,6.50E-03,2.02E-02
128175,6.49E-03,2.04E-02
128176,6.49E-03,2.06E-02
128177,6.49E-03,2.08E-02
128178,6.49E-03,2.10E-02
128179,6.49E-03,2.12E-02
128180,6.49E-03,2.15E-02
128181,6.49E-03,2.17E-02
128182,6.49E-03,2.19E-02
128183,6.49E-03,2.21E-02
128184,6.49E-03,2.23E-02
128185,6.49E-03,2.26E-02
128186,6.49E-03,2.28E-02
128187,6.49E-03,2.30E-02
128188,6.48E-03,2.32E-02
128189,6.48E-03,2.35E-02
128190,6.48E-03,2.37E-02
128191,6.48E-03,2.39E-02
128192,6.48E-03,2.41E-02
128193,6.48E-03,2.44E-02
128194,6.48E-03,2.46E-02
128195,6.48E-03,2.49E-02
128196,6.48E-03,2.51E-02
128197,6.48E-03,2.53E-02
128198,6.48E-03,2.56E-02
128199,6.53E-03,1.03E-02
128200,6.53E-03,1.06E-02
128201,6.53E-03,1.08E-02
128202,6.52E-03,1.10E-02
128203,6.52E-03,1.13E-02
128204,6.52E-03,1.15E-02
128205,6.52E-03,1.17E-02
128206,6.52E-03,1.20E-02
128207,6.52E-03,1.22E-02
128208,6.52E-03,1.24E-02
128209,6.52E-03,1.27E-02
128210,6.52E-03,1.29E-02
128211,6.52E-03,1.31E-02
128212,6.52E-03,1.33E-02
128213,6.52E-03,1.36E-02
128214,6.52E-03,1.38E-02
128215,6.52E-03,1.40E-02
128216,6.51E-03,1.42E-02
128217,6.51E-03,1.45E-02
128218,6.51E-03,1.47E-02
128219,6.51E-03,1.49E-02
128220,6.51E-03,1.51E-02
128221,6.51E-03,1.54E-02
128222,6.51E-03,1.56E-02
128223,6.51E-03,1.58E-02
128224,6.51E-03,1.60E-02
128225,6.51E-03,1.63E-02
128226,6.51E-03,1.65E-02
128227,6.51E-03,1.67E-02
128228,6.51E-03,1.69E-02
128229,6.51E-03,1.71E-02
128230,6.50E-03,1.74E-02
128231,6.50E-03,1.76E-02
128232,6.50E-03,1.78E-02
128233,6.50E-03,1.80E-02
128234,6.50E-03,1.82E-02
128235,6.50E-03,1.84E-02
128236,6.50E-03,1.87E-02
128237,6.50E-03,1.89E-02
128238,6.50E-03,1.91E-02
128239,6.50E-03,1.93E-02
128240,6.50E-03,1.95E-02
128241,6.50E-03,1.97E-02
128242,6.50E-03,2.00E-02
128243,6.50E-03,2.02E-02
128244,6.49E-03,2.04E-02
128245,6.49E-03,2.06E-02
128246,6.49E-03,2.08E-02
128247,6.49E-03,2.10E-02
128248,6.49E-03,2.12E-02
128249,6.49E-03,2.15E-02
128250,6.49E-03,2.17E-02
128251,6.49E-03,2.19E-02
128252,6.49E-03,2.21E-02
128253,6.49E-03,2.23E-02
128254,6.49E-03,2.26E-02
128255,6.49E-03,2.28E-02
128256,6.49E-03,2.30E-02
128257,6.48E-03,2.32E-02
128258,6.48E-03,2.35E-02
128259,6.48E-03,2.37E-02
128260,6.48E-03,2.39E-02
128261,6.48E-03,2.41E-02
128262,6.48E-03,2.44E-02
128263,6.48E-03,2.46E-02
128264,6.48E-03,2.48E-02
128265,6.48E-03,2.51E-02
128266,6.48E-03,2.53E-02
128267,6.48E-03,2.55E-02
128268,6.53E-03,1.03E-02
128269,6.53E-03,1.06E-02
128270,6.53E-03,1.08E-02
128271,6.52E-03,1.10E-02
128272,6.52E-03,1.13E-02
128273,6.52E-03,1.15E-02
128274,6.52E-03,1.17E-02
128275,6.52E-03,1.20E-02
128276,6.52E-03,1.22E-02
128277,6.52E-03,1.24E-02
128278,6.52E-03,1.27E-02
128279,6.52E-03,1.29E-02
128280,6.52E-03,1.31E-02
128281,6.52E-03,1.33E-02
128282,6.52E-03,1.36E-02
128283,6.52E-03,1.38E-02
128284,6.52E-03,1.40E-02
128285,6.51E-03,1.42E-02
128286,6.51E-03,1.45E-02
128287,6.51E-03,1.47E-02
128288,6.51E-03,1.49E-02
128289,6.51E-03,1.51E-02
128290,6.51E-03,1.54E-02
128291,6.51E-03,1.56E-02
128292,6.51E-03,1.58E-02
128293,6.51E-03,1.60E-02
128294,6.51E-03,1.63E-02
128295,6.51E-03,1.65E-02
128296,6.51E-03,1.67E-02
128297,6.51E-03,1.69E-02
128298,6.51E-03,1.71E-02
128299,6.50E-03,1.74E-02
128300,6.50E-03,1.76E-02
128301,6.50E-03,1.78E-02
128302,6.50E-03,1.80E-02
128303,6.50E-03,1.82E-02
128304,6.50E-03,1.84E-02
128305,6.50E-03,1.87E-02
128306,6.50E-03,1.89E-02
128307,6.50E-03,1.91E-02
128308,6.50E-03,1.93E-02
128309,6.50E-03,1.95E-02
128310,6.50E-03,1.97E-02
128311,6.50E-03,2.00E-02
128312,6.50E-03,2.02E-02
128313,6.49E-03,2.04E-02
128314,6.49E-03,2.06E-02
128315,6.49E-03,2.08E-02
128316,6.49E-03,2.10E-02
128317,6.49E-03,2.12E-02
128318,6.49E-03,2.15E-02
128319,6.49E-03,2.17E-02
128320,6.49E-03,2.19E-02
128321,6.49E-03,2.21E-02
128322,6.49E-03,2.23E-02
128323,6.49E-03,2.26E-02
128324,6.49E-03,2.28E-02
128325,6.49E-03,2.30E-02
128326,6.48E-03,2.32E-02
128327,6.48E-03,2.34E-02
128328,6.48E-03,2.37E-02
128329,6.48E-03,2.39E-02
128330,6.48E-03,2.41E-02
128331,6.48E-03,2.44E-02
128332,6.48E-03,2.46E-02
128333,6.48E-03,2.48E-02
128334,6.48E-03,2.50E-02
128335,6.48E-03,2.53E-02
128336,6.48E-03,2.55E-02
128337,6.53E-03,1.04E-02
128338,6.53E-03,1.06E-02
128339,6.53E-03,1.08E-02
128340,6.52E-03,1.10E-02
128341,6.52E-03,1.13E-02
128342,6.52E-03,1.15E-02
128343,6.52E-03,1.17E-02
128344,6.52E-03,1.20E-02
128345,6.52E-03,1.22E-02
128346,6.52E-03,1.24E-02
128347,6.52E-03,1.27E-02
128348,6.52E-03,1.29E-02
128349,6.52E-03,1.31E-02
128350,6.52E-03,1.33E-02
128351,6.52E-03,1.36E-02
128352,6.52E-03,1.38E-02
128353,6.52E-03,1.40E-02
128354,6.51E-03,1.42E-02
128355,6.51E-03,1.45E-02
128356,6.51E-03,1.47E-02
128357,6.51E-03,1.49E-02
128358,6.51E-03,1.51E-02
128359,6.51E-03,1.54E-02
128360,6.51E-03,1.56E-02
128361,6.51E-03,1.58E-02
128362,6.51E-03,1.60E-02
128363,6.51E-03,1.63E-02
128364,6.51E-03,1.65E-02
128365,6.51E-03,1.67E-02
128366,6.51E-03,1.69E-02
128367,6.51E-03,1.71E-02
128368,6.50E-03,1.74E-02
128369,6.50E-03,1.76E-02
128370,6.50E-03,1.78E-02
128371,6.50E-03,1.80E-02
128372,6.50E-03,1.82E-02
128373,6.50E-03,1.84E-02
128374,6.50E-03,1.87E-02
128375,6.50E-03,1.89E-02
128376,6.50E-03,1.91E-02
128377,6.50E-03,1.93E-02
128378,6.50E-03,1.95E-02
128379,6.50E-03,1.97E-02
128380,6.50E-03,2.00E-02
128381,6.50E-03,2.02E-02
128382,6.49E-03,2.04E-02
128383,6.49E-03,2.06E-02
128384,6.49E-03,2.08E-02
128385,6.49E-03,2.10E-02
128386,6.49E-03,2.12E-02
128387,6.49E-03,2.15E-02
128388,6.49E-03,2.17E-02
128389,6.49E-03,2.19E-02
128390,6.49E-03,2.21E-02
128391,6.49E-03,2.23E-02
128392,6.49E-03,2.26E-02
128393,6.49E-03,2.28E-02
128394,6.49E-03,2.30E-02
128395,6.48E-03,2.32E-02
128396,6.48E-03,2.34E-02
128397,6.48E-03,2.37E-02
128398,6.48E-03,2.39E-02
128399,6.48E-03,2.41E-02
128400,6.48E-03,2.43E-02
128401,6.48E-03,2.46E-02
128402,6.48E-03,2.48E-02
128403,6.48E-03,2.50E-02
128404,6.48E-03,2.53E-02
128405,6.48E-03,2.55E-02
128406,6.53E-03,1.04E-02
128407,6.53E-03,1.06E-02
128408,6.53E-03,1.08E-02
128409,6.52E-03,1.11E-02
128410,6.52E-03,1.13E-02
128411,6.52E-03,1.15E-02
128412,6.52E-03,1.17E-02
128413,6.52E-03,1.20E-02
128414,6.52E-03,1.22E-02
128415,6.52E-03,1.24E-02
128416,6.52E-03,1.27E-02
128417,6.52E-03,1.29E-02
128418,6.52E-03,1.31E-02
128419,6.52E-03,1.33E-02
128420,6.52E-03,1.36E-02
128421,6.52E-03,1.38E-02
128422,6.52E-03,1.40E-02
128423,6.51E-03,1.42E-02
128424,6.51E-03,1.45E-02
128425,6.51E-03,1.47E-02
128426,6.51E-03,1.49E-02
128427,6.51E-03,1.51E-02
128428,6.51E-03,1.54E-02
128429,6.51E-03,1.56E-02
128430,6.51E-03,1.58E-02
128431,6.51E-03,1.60E-02
128432,6.51E-03,1.63E-02
128433,6.51E-03,1.65E-02
128434,6.51E-03,1.67E-02
128435,6.51E-03,1.69E-02
128436,6.51E-03,1.71E-02
128437,6.50E-03,1.74E-02
128438,6.50E-03,1.76E-02
128439,6.50E-03,1.78E-02
128440,6.50E-03,1.80E-02
128441,6.50E-03,1.82E-02
128442,6.50E-03,1.84E-02
128443,6.50E-03,1.87E-02
128444,6.50E-03,1.89E-02
128445,6.50E-03,1.91E-02
128446,6.50E-03,1.93E-02
128447,6.50E-03,1.95E-02
128448,6.50E-03,1.97E-02
128449,6.50E-03,2.00E-02
128450,6.50E-03,2.02E-02
128451,6.49E-03,2.04E-02
128452,6.49E-03,2.06E-02
128453,6.49E-03,2.08E-02
128454,6.49E-03,2.10E-02
128455,6.49E-03,2.12E-02
128456,6.49E-03,2.15E-02
128457,6.49E-03,2.17E-02
128458,6.49E-03,2.19E-02
128459,6.49E-03,2.21E-02
128460,6.49E-03,2.23E-02
128461,6.49E-03,2.26E-02
128462,6.49E-03,2.28E-02
128463,6.49E-03,2.30E-02
128464,6.48E-03,2.32E-02
128465,6.48E-03,2.34E-02
128466,6.48E-03,2.37E-02
128467,6.48E-03,2.39E-02
128468,6.48E-03,2.41E-02
128469,6.48E-03,2.43E-02
128470,6.48E-03,2.45E-02
128471,6.48E-03,2.48E-02
128472,6.48E-03,2.50E-02
128473,6.48E-03,2.52E-02
128474,6.48E-03,2.54E-02
128475,6.53E-03,1.04E-02
128476,6.53E-03,1.06E-02
128477,6.53E-03,1.08E-02
128478,6.52E-03,1.11E-02
128479,6.52E-03,1.13E-02
128480,6.52E-03,1.15E-02
128481,6.52E-03,1.18E-02
128482,6.52E-03,1.20E-02
128483,6.52E-03,1.22E-02
128484,6.52E-03,1.24E-02
128485,6.52E-03,1.27E-02
128486,6.52E-03,1.29E-02
128487,6.52E-03,1.31E-02
128488,6.52E-03,1.33E-02
128489,6.52E-03,1.36E-02
128490,6.52E-03,1.38E-02
128491,6.52E-03,1.40E-02
128492,6.51E-03,1.42E-02
128493,6.51E-03,1.45E-02
128494,6.51E-03,1.47E-02
128495,6.51E-03,1.49E-02
128496,6.51E-03,1.51E-02
128497,6.51E-03,1.54E-02
128498,6.51E-03,1.56E-02
128499,6.51E-03,1.58E-02
128500,6.51E-03,1.60E-02
128501,6.51E-03,1.63E-02
128502,6.51E-03,1.65E-02
128503,6.51E-03,1.67E-02
128504,6.51E-03,1.69E-02
128505,6.51E-03,1.71E-02
128506,6.50E-03,1.74E-02
128507,6.50E-03,1.76E-02
128508,6.50E-03,1.78E-02
128509,6.50E-03,1.80E-02
128510,6.50E-03,1.82E-02
128511,6.50E-03,1.84E-02
128512,6.50E-03,1.87E-02
128513,6.50E-03,1.89E-02
128514,6.50E-03,1.91E-02
128515,6.50E-03,1.93E-02
128516,6.50E-03,1.95E-02
128517,6.50E-03,1.97E-02
128518,6.50E-03,2.00E-02
128519,6.50E-03,2.02E-02
128520,6.49E-03,2.04E-02
128521,6.49E-03,2.06E-02
128522,6.49E-03,2.08E-02
128523,6.49E-03,2.10E-02
128524,6.49E-03,2.13E-02
128525,6.49E-03,2.15E-02
128526,6.49E-03,2.17E-02
128527,6.49E-03,2.19E-02
128528,6.49E-03,2.21E-02
128529,6.49E-03,2.23E-02
128530,6.49E-03,2.25E-02
128531,6.49E-03,2.28E-02
128532,6.49E-03,2.30E-02
128533,6.48E-03,2.32E-02
128534,6.48E-03,2.34E-02
128535,6.48E-03,2.36E-02
128536,6.48E-03,2.39E-02
128537,6.48E-03,2.41E-02
128538,6.48E-03,2.43E-02
128539,6.48E-03,2.45E-02
128540,6.48E-03,2.47E-02
128541,6.48E-03,2.50E-02
128542,6.48E-03,2.52E-02
128543,6.48E-03,2.54E-02
128544,6.53E-03,1.04E-02
128545,6.53E-03,1.06E-02
128546,6.53E-03,1.08E-02
128547,6.52E-03,1.11E-02
128548,6.52E-03,1.13E-02
128549,6.52E-03,1.15E-02
128550,6.52E-03,1.18E-02
128551,6.52E-03,1.20E-02
128552,6.52E-03,1.22E-02
128553,6.52E-03,1.24E-02
128554,6.52E-03,1.27E-02
128555,6.52E-03,1.29E-02
128556,6.52E-03,1.31E-02
128557,6.52E-03,1.33E-02
128558,6.52E-03,1.36E-02
128559,6.52E-03,1.38E-02
128560,6.52E-03,1.40E-02
128561,6.51E-03,1.43E-02
128562,6.51E-03,1.45E-02
128563,6.51E-03,1.47E-02
128564,6.51E-03,1.49E-02
128565,6.51E-03,1.51E-02
128566,6.51E-03,1.54E-02
128567,6.51E-03,1.56E-02
128568,6.51E-03,1.58E-02
128569,6.51E-03,1.60E-02
128570,6.51E-03,1.63E-02
128571,6.51E-03,1.65E-02
128572,6.51E-03,1.67E-02
128573,6.51E-03,1.69E-02
128574,6.51E-03,1.71E-02
128575,6.50E-03,1.74E-02
128576,6.50E-03,1.76E-02
128577,6.50E-03,1.78E-02
128578,6.50E-03,1.80E-02
128579,6.50E-03,1.82E-02
128580,6.50E-03,1.84E-02
128581,6.50E-03,1.87E-02
128582,6.50E-03,1.89E-02
128583,6.50E-03,1.91E-02
128584,6.50E-03,1.93E-02
128585,6.50E-03,1.95E-02
128586,6.50E-03,1.97E-02
128587,6.50E-03,2.00E-02
128588,6.50E-03,2.02E-02
128589,6.49E-03,2.04E-02
128590,6.49E-03,2.06E-02
128591,6.49E-03,2.08E-02
128592,6.49E-03,2.10E-02
128593,6.49E-03,2.13E-02
128594,6.49E-03,2.15E-02
128595,6.49E-03,2.17E-02
128596,6.49E-03,2.19E-02
128597,6.49E-03,2.21E-02
128598,6.49E-03,2.23E-02
128599,6.49E-03,2.25E-02
128600,6.49E-03,2.28E-02
128601,6.49E-03,2.30E-02
128602,6.48E-03,2.32E-02
128603,6.48E-03,2.34E-02
128604,6.48E-03,2.36E-02
128605,6.48E-03,2.38E-02
128606,6.48E-03,2.41E-02
128607,6.48E-03,2.43E-02
128608,6.48E-03,2.45E-02
128609,6.48E-03,2.47E-02
128610,6.48E-03,2.49E-02
128611,6.48E-03,2.52E-02
128612,6.48E-03,2.54E-02
128613,6.53E-03,1.04E-02
128614,6.53E-03,1.06E-02
128615,6.53E-03,1.08E-02
128616,6.52E-03,1.11E-02
128617,6.52E-03,1.13E-02
128618,6.52E-03,1.15E-02
128619,6.52E-03,1.18E-02
128620,6.52E-03,1.20E-02
128621,6.52E-03,1.22E-02
128622,6.52E-03,1.24E-02
128623,6.52E-03,1.27E-02
128624,6.52E-03,1.29E-02
128625,6.52E-03,1.31E-02
128626,6.52E-03,1.34E-02
128627,6.52E-03,1.36E-02
128628,6.52E-03,1.38E-02
128629,6.52E-03,1.40E-02
128630,6.51E-03,1.43E-02
128631,6.51E-03,1.45E-02
128632,6.51E-03,1.47E-02
128633,6.51E-03,1.49E-02
128634,6.51E-03,1.51E-02
128635,6.51E-03,1.54E-02
128636,6.51E-03,1.56E-02
128637,6.51E-03,1.58E-02
128638,6.51E-03,1.60E-02
128639,6.51E-03,1.63E-02
128640,6.51E-03,1.65E-02
128641,6.51E-03,1.67E-02
128642,6.51E-03,1.69E-02
128643,6.51E-03,1.71E-02
128644,6.50E-03,1.74E-02
128645,6.50E-03,1.76E-02
128646,6.50E-03,1.78E-02
128647,6.50E-03,1.80E-02
128648,6.50E-03,1.82E-02
128649,6.50E-03,1.84E-02
128650,6.50E-03,1.87E-02
128651,6.50E-03,1.89E-02
128652,6.50E-03,1.91E-02
128653,6.50E-03,1.93E-02
128654,6.50E-03,1.95E-02
128655,6.50E-03,1.97E-02
128656,6.50E-03,2.00E-02
128657,6.50E-03,2.02E-02
128658,6.49E-03,2.04E-02
128659,6.49E-03,2.06E-02
128660,6.49E-03,2.08E-02
128661,6.49E-03,2.10E-02
128662,6.49E-03,2.13E-02
128663,6.49E-03,2.15E-02
128664,6.49E-03,2.17E-02
128665,6.49E-03,2.19E-02
128666,6.49E-03,2.21E-02
128667,6.49E-03,2.23E-02
128668,6.49E-03,2.25E-02
128669,6.49E-03,2.28E-02
128670,6.49E-03,2.30E-02
128671,6.48E-03,2.32E-02
128672,6.48E-03,2.34E-02
128673,6.48E-03,2.36E-02
128674,6.48E-03,2.38E-02
128675,6.48E-03,2.41E-02
128676,6.48E-03,2.43E-02
128677,6.48E-03,2.45E-02
128678,6.48E-03,2.47E-02
128679,6.48E-03,2.49E-02
128680,6.48E-03,2.51E-02
128681,6.48E-03,2.54E-02
128682,6.53E-03,1.04E-02
128683,6.53E-03,1.06E-02
128684,6.53E-03,1.09E-02
128685,6.52E-03,1.11E-02
128686,6.52E-03,1.13E-02
128687,6.52E-03,1.15E-02
128688,6.52E-03,1.18E-02
128689,6.52E-03,1.20E-02
128690,6.52E-03,1.22E-02
128691,6.52E-03,1.25E-02
128692,6.52E-03,1.27E-02
128693,6.52E-03,1.29E-02
128694,6.52E-03,1.31E-02
128695,6.52E-03,1.34E-02
128696,6.52E-03,1.36E-02
128697,6.52E-03,1.38E-02
128698,6.52E-03,1.40E-02
128699,6.51E-03,1.43E-02
128700,6.51E-03,1.45E-02
128701,6.51E-03,1.47E-02
128702,6.51E-03,1.49E-02
128703,6.51E-03,1.51E-02
128704,6.51E-03,1.54E-02
128705,6.51E-03,1.56E-02
128706,6.51E-03,1.58E-02
128707,6.51E-03,1.60E-02
128708,6.51E-03,1.63E-02
128709,6.51E-03,1.65E-02
128710,6.51E-03,1.67E-02
128711,6.51E-03,1.69E-02
128712,6.51E-03,1.71E-02
128713,6.50E-03,1.74E-02
128714,6.50E-03,1.76E-02
128715,6.50E-03,1.78E-02
128716,6.50E-03,1.80E-02
128717,6.50E-03,1.82E-02
128718,6.50E-03,1.84E-02
128719,6.50E-03,1.87E-02
128720,6.50E-03,1.89E-02
128721,6.50E-03,1.91E-02
128722,6.50E-03,1.93E-02
128723,6.50E-03,1.95E-02
128724,6.50E-03,1.97E-02
128725,6.50E-03,2.00E-02
128726,6.50E-03,2.02E-02
128727,6.49E-03,2.04E-02
128728,6.49E-03,2.06E-02
128729,6.49E-03,2.08E-02
128730,6.49E-03,2.10E-02
128731,6.49E-03,2.13E-02
128732,6.49E-03,2.15E-02
128733,6.49E-03,2.17E-02
128734,6.49E-03,2.19E-02
128735,6.49E-03,2.21E-02
128736,6.49E-03,2.23E-02
128737,6.49E-03,2.25E-02
128738,6.49E-03,2.28E-02
128739,6.49E-03,2.30E-02
128740,6.48E-03,2.32E-02
128741,6.48E-03,2.34E-02
128742,6.48E-03,2.36E-02
128743,6.48E-03,2.38E-02
128744,6.48E-03,2.40E-02
128745,6.48E-03,2.42E-02
128746,6.48E-03,2.45E-02
128747,6.48E-03,2.47E-02
128748,6.48E-03,2.49E-02
128749,6.48E-03,2.51E-02
128750,6.48E-03,2.53E-02
128751,6.53E-03,1.04E-02
128752,6.53E-03,1.06E-02
128753,6.53E-03,1.09E-02
128754,6.52E-03,1.11E-02
128755,6.52E-03,1.13E-02
128756,6.52E-03,1.15E-02
128757,6.52E-03,1.18E-02
128758,6.52E-03,1.20E-02
128759,6.52E-03,1.22E-02
128760,6.52E-03,1.25E-02
128761,6.52E-03,1.27E-02
128762,6.52E-03,1.29E-02
128763,6.52E-03,1.31E-02
128764,6.52E-03,1.34E-02
128765,6.52E-03,1.36E-02
128766,6.52E-03,1.38E-02
128767,6.52E-03,1.40E-02
128768,6.51E-03,1.43E-02
128769,6.51E-03,1.45E-02
128770,6.51E-03,1.47E-02
128771,6.51E-03,1.49E-02
128772,6.51E-03,1.52E-02
128773,6.51E-03,1.54E-02
128774,6.51E-03,1.56E-02
128775,6.51E-03,1.58E-02
128776,6.51E-03,1.60E-02
128777,6.51E-03,1.63E-02
128778,6.51E-03,1.65E-02
128779,6.51E-03,1.67E-02
128780,6.51E-03,1.69E-02
128781,6.51E-03,1.71E-02
128782,6.50E-03,1.74E-02
128783,6.50E-03,1.76E-02
128784,6.50E-03,1.78E-02
128785,6.50E-03,1.80E-02
128786,6.50E-03,1.82E-02
128787,6.50E-03,1.84E-02
128788,6.50E-03,1.87E-02
128789,6.50E-03,1.89E-02
128790,6.50E-03,1.91E-02
128791,6.50E-03,1.93E-02
128792,6.50E-03,1.95E-02
128793,6.50E-03,1.97E-02
128794,6.50E-03,2.00E-02
128795,6.50E-03,2.02E-02
128796,6.49E-03,2.04E-02
128797,6.49E-03,2.06E-02
128798,6.49E-03,2.08E-02
128799,6.49E-03,2.10E-02
128800,6.49E-03,2.13E-02
128801,6.49E-03,2.15E-02
128802,6.49E-03,2.17E-02
128803,6.49E-03,2.19E-02
128804,6.49E-03,2.21E-02
128805,6.49E-03,2.23E-02
128806,6.49E-03,2.25E-02
128807,6.49E-03,2.28E-02
128808,6.49E-03,2.30E-02
128809,6.48E-03,2.32E-02
128810,6.48E-03,2.34E-02
128811,6.48E-03,2.36E-02
128812,6.48E-03,2.38E-02
128813,6.48E-03,2.40E-02
128814,6.48E-03,2.42E-02
128815,6.48E-03,2.44E-02
128816,6.48E-03,2.47E-02
128817,6.48E-03,2.49E-02
128818,6.48E-03,2.51E-02
128819,6.48E-03,2.53E-02
128820,6.53E-03,1.04E-02
128821,6.53E-03,1.06E-02
128822,6.53E-03,1.09E-02
128823,6.52E-03,1.11E-02
128824,6.52E-03,1.13E-02
128825,6.52E-03,1.16E-02
128826,6.52E-03,1.18E-02
128827,6.52E-03,1.20E-02
128828,6.52E-03,1.22E-02
128829,6.52E-03,1.25E-02
128830,6.52E-03,1.27E-02
128831,6.52E-03,1.29E-02
128832,6.52E-03,1.31E-02
128833,6.52E-03,1.34E-02
128834,6.52E-03,1.36E-02
128835,6.52E-03,1.38E-02
128836,6.52E-03,1.40E-02
128837,6.51E-03,1.43E-02
128838,6.51E-03,1.45E-02
128839,6.51E-03,1.47E-02
128840,6.51E-03,1.49E-02
128841,6.51E-03,1.52E-02
128842,6.51E-03,1.54E-02
128843,6.51E-03,1.56E-02
128844,6.51E-03,1.58E-02
128845,6.51E-03,1.60E-02
128846,6.51E-03,1.63E-02
128847,6.51E-03,1.65E-02
128848,6.51E-03,1.67E-02
128849,6.51E-03,1.69E-02
128850,6.51E-03,1.71E-02
128851,6.50E-03,1.74E-02
128852,6.50E-03,1.76E-02
128853,6.50E-03,1.78E-02
128854,6.50E-03,1.80E-02
128855,6.50E-03,1.82E-02
128856,6.50E-03,1.84E-02
128857,6.50E-03,1.87E-02
128858,6.50E-03,1.89E-02
128859,6.50E-03,1.91E-02
128860,6.50E-03,1.93E-02
128861,6.50E-03,1.95E-02
128862,6.50E-03,1.97E-02
128863,6.50E-03,2.00E-02
128864,6.50E-03,2.02E-02
128865,6.49E-03,2.04E-02
128866,6.49E-03,2.06E-02
128867,6.49E-03,2.08E-02
128868,6.49E-03,2.10E-02
128869,6.49E-03,2.13E-02
128870,6.49E-03,2.15E-02
128871,6.49E-03,2.17E-02
128872,6.49E-03,2.19E-02
128873,6.49E-03,2.21E-02
128874,6.49E-03,2.23E-02
128875,6.49E-03,2.25E-02
128876,6.49E-03,2.27E-02
128877,6.49E-03,2.30E-02
128878,6.48E-03,2.32E-02
128879,6.48E-03,2.34E-02
128880,6.48E-03,2.36E-02
128881,6.48E-03,2.38E-02
128882,6.48E-03,2.40E-02
128883,6.48E-03,2.42E-02
128884,6.48E-03,2.44E-02
128885,6.48E-03,2.46E-02
128886,6.48E-03,2.48E-02
128887,6.48E-03,2.50E-02
128888,6.48E-03,2.53E-02
128889,6.53E-03,1.04E-02
128890,6.53E-03,1.06E-02
128891,6.53E-03,1.09E-02
128892,6.52E-03,1.11E-02
128893,6.52E-03,1.13E-02
128894,6.52E-03,1.16E-02
128895,6.52E-03,1.18E-02
128896,6.52E-03,1.20E-02
128897,6.52E-03,1.22E-02
128898,6.52E-03,1.25E-02
128899,6.52E-03,1.27E-02
128900,6.52E-03,1.29E-02
128901,6.52E-03,1.31E-02
128902,6.52E-03,1.34E-02
128903,6.52E-03,1.36E-02
128904,6.52E-03,1.38E-02
128905,6.52E-03,1.40E-02
128906,6.51E-03,1.43E-02
128907,6.51E-03,1.45E-02
128908,6.51E-03,1.47E-02
128909,6.51E-03,1.49E-02
128910,6.51E-03,1.52E-02
128911,6.51E-03,1.54E-02
128912,6.51E-03,1.56E-02
128913,6.51E-03,1.58E-02
128914,6.51E-03,1.60E-02
128915,6.51E-03,1.63E-02
128916,6.51E-03,1.65E-02
128917,6.51E-03,1.67E-02
128918,6.51E-03,1.69E-02
128919,6.51E-03,1.71E-02
128920,6.50E-03,1.74E-02
128921,6.50E-03,1.76E-02
128922,6.50E-03,1.78E-02
128923,6.50E-03,1.80E-02
128924,6.50E-03,1.82E-02
128925,6.50E-03,1.84E-02
128926,6.50E-03,1.87E-02
128927,6.50E-03,1.89E-02
128928,6.50E-03,1.91E-02
128929,6.50E-03,1.93E-02
128930,6.50E-03,1.95E-02
128931,6.50E-03,1.97E-02
128932,6.50E-03,2.00E-02
128933,6.50E-03,2.02E-02
128934,6.49E-03,2.04E-02
128935,6.49E-03,2.06E-02
128936,6.49E-03,2.08E-02
128937,6.49E-03,2.10E-02
128938,6.49E-03,2.13E-02
128939,6.49E-03,2.15E-02
128940,6.49E-03,2.17E-02
128941,6.49E-03,2.19E-02
128942,6.49E-03,2.21E-02
128943,6.49E-03,2.23E-02
128944,6.49E-03,2.25E-02
128945,6.49E-03,2.27E-02
128946,6.49E-03,2.30E-02
128947,6.48E-03,2.32E-02
128948,6.48E-03,2.34E-02
128949,6.48E-03,2.36E-02
128950,6.48E-03,2.38E-02
128951,6.48E-03,2.40E-02
128952,6.48E-03,2.42E-02
128953,6.48E-03,2.44E-02
128954,6.48E-03,2.46E-02
128955,6.48E-03,2.48E-02
128956,6.48E-03,2.50E-02
128957,6.48E-03,2.52E-02
128958,6.53E-03,1.04E-02
128959,6.53E-03,1.07E-02
128960,6.53E-03,1.09E-02
128961,6.52E-03,1.11E-02
128962,6.52E-03,1.13E-02
128963,6.52E-03,1.16E-02
128964,6.52E-03,1.18E-02
128965,6.52E-03,1.20E-02
128966,6.52E-03,1.22E-02
128967,6.52E-03,1.25E-02
128968,6.52E-03,1.27E-02
128969,6.52E-03,1.29E-02
128970,6.52E-03,1.31E-02
128971,6.52E-03,1.34E-02
128972,6.52E-03,1.36E-02
128973,6.52E-03,1.38E-02
128974,6.52E-03,1.40E-02
128975,6.51E-03,1.43E-02
128976,6.51E-03,1.45E-02
128977,6.51E-03,1.47E-02
128978,6.51E-03,1.49E-02
128979,6.51E-03,1.52E-02
128980,6.51E-03,1.54E-02
128981,6.51E-03,1.56E-02
128982,6.51E-03,1.58E-02
128983,6.51E-03,1.60E-02
128984,6.51E-03,1.63E-02
128985,6.51E-03,1.65E-02
128986,6.51E-03,1.67E-02
128987,6.51E-03,1.69E-02
128988,6.51E-03,1.71E-02
128989,6.50E-03,1.74E-02
128990,6.50E-03,1.76E-02
128991,6.50E-03,1.78E-02
128992,6.50E-03,1.80E-02
128993,6.50E-03,1.82E-02
128994,6.50E-03,1.84E-02
128995,6.50E-03,1.87E-02
128996,6.50E-03,1.89E-02
128997,6.50E-03,1.91E-02
128998,6.50E-03,1.93E-02
128999,6.50E-03,1.95E-02
129000,6.50E-03,1.97E-02
129001,6.50E-03,2.00E-02
129002,6.50E-03,2.02E-02
129003,6.49E-03,2.04E-02
129004,6.49E-03,2.06E-02
129005,6.49E-03,2.08E-02
129006,6.49E-03,2.10E-02
129007,6.49E-03,2.13E-02
129008,6.49E-03,2.15E-02
129009,6.49E-03,2.17E-02
129010,6.49E-03,2.19E-02
129011,6.49E-03,2.21E-02
129012,6.49E-03,2.23E-02
129013,6.49E-03,2.25E-02
129014,6.49E-03,2.27E-02
129015,6.49E-03,2.29E-02
129016,6.48E-03,2.32E-02
129017,6.48E-03,2.34E-02
129018,6.48E-03,2.36E-02
129019,6.48E-03,2.38E-02
129020,6.48E-03,2.40E-02
129021,6.48E-03,2.42E-02
129022,6.48E-03,2.44E-02
129023,6.48E-03,2.46E-02
129024,6.48E-03,2.48E-02
129025,6.48E-03,2.50E-02
129026,6.48E-03,2.52E-02
129027,6.53E-03,1.04E-02
129028,6.53E-03,1.07E-02
129029,6.53E-03,1.09E-02
129030,6.52E-03,1.11E-02
129031,6.52E-03,1.13E-02
129032,6.52E-03,1.16E-02
129033,6.52E-03,1.18E-02
129034,6.52E-03,1.20E-02
129035,6.52E-03,1.23E-02
129036,6.52E-03,1.25E-02
129037,6.52E-03,1.27E-02
129038,6.52E-03,1.29E-02
129039,6.52E-03,1.32E-02
129040,6.52E-03,1.34E-02
129041,6.52E-03,1.36E-02
129042,6.52E-03,1.38E-02
129043,6.52E-03,1.40E-02
129044,6.51E-03,1.43E-02
129045,6.51E-03,1.45E-02
129046,6.51E-03,1.47E-02
129047,6.51E-03,1.49E-02
129048,6.51E-03,1.52E-02
129049,6.51E-03,1.54E-02
129050,6.51E-03,1.56E-02
129051,6.51E-03,1.58E-02
129052,6.51E-03,1.60E-02
129053,6.51E-03,1.63E-02
129054,6.51E-03,1.65E-02
129055,6.51E-03,1.67E-02
129056,6.51E-03,1.69E-02
129057,6.51E-03,1.71E-02
129058,6.50E-03,1.74E-02
129059,6.50E-03,1.76E-02
129060,6.50E-03,1.78E-02
129061,6.50E-03,1.80E-02
129062,6.50E-03,1.82E-02
129063,6.50E-03,1.84E-02
129064,6.50E-03,1.87E-02
129065,6.50E-03,1.89E-02
129066,6.50E-03,1.91E-02
129067,6.50E-03,1.93E-02
129068,6.50E-03,1.95E-02
129069,6.50E-03,1.97E-02
129070,6.50E-03,2.00E-02
129071,6.50E-03,2.02E-02
129072,6.49E-03,2.04E-02
129073,6.49E-03,2.06E-02
129074,6.49E-03,2.08E-02
129075,6.49E-03,2.10E-02
129076,6.49E-03,2.13E-02
129077,6.49E-03,2.15E-02
129078,6.49E-03,2.17E-02
129079,6.49E-03,2.19E-02
129080,6.49E-03,2.21E-02
129081,6.49E-03,2.23E-02
129082,6.49E-03,2.25E-02
129083,6.49E-03,2.27E-02
129084,6.49E-03,2.29E-02
129085,6.48E-03,2.32E-02
129086,6.48E-03,2.34E-02
129087,6.48E-03,2.36E-02
129088,6.48E-03,2.38E-02
129089,6.48E-03,2.40E-02
129090,6.48E-03,2.42E-02
129091,6.48E-03,2.44E-02
129092,6.48E-03,2.46E-02
129093,6.48E-03,2.48E-02
129094,6.48E-03,2.50E-02
129095,6.48E-03,2.52E-02
129096,6.53E-03,1.04E-02
129097,6.53E-03,1.07E-02
129098,6.53E-03,1.09E-02
129099,6.52E-03,1.11E-02
129100,6.52E-03,1.14E-02
129101,6.52E-03,1.16E-02
129102,6.52E-03,1.18E-02
129103,6.52E-03,1.20E-02
129104,6.52E-03,1.23E-02
129105,6.52E-03,1.25E-02
129106,6.52E-03,1.27E-02
129107,6.52E-03,1.29E-02
129108,6.52E-03,1.32E-02
129109,6.52E-03,1.34E-02
129110,6.52E-03,1.36E-02
129111,6.52E-03,1.38E-02
129112,6.52E-03,1.41E-02
129113,6.51E-03,1.43E-02
129114,6.51E-03,1.45E-02
129115,6.51E-03,1.47E-02
129116,6.51E-03,1.49E-02
129117,6.51E-03,1.52E-02
129118,6.51E-03,1.54E-02
129119,6.51E-03,1.56E-02
129120,6.51E-03,1.58E-02
129121,6.51E-03,1.60E-02
129122,6.51E-03,1.63E-02
129123,6.51E-03,1.65E-02
129124,6.51E-03,1.67E-02
129125,6.51E-03,1.69E-02
129126,6.51E-03,1.71E-02
129127,6.50E-03,1.74E-02
129128,6.50E-03,1.76E-02
129129,6.50E-03,1.78E-02
129130,6.50E-03,1.80E-02
129131,6.50E-03,1.82E-02
129132,6.50E-03,1.84E-02
129133,6.50E-03,1.87E-02
129134,6.50E-03,1.89E-02
129135,6.50E-03,1.91E-02
129136,6.50E-03,1.93E-02
129137,6.50E-03,1.95E-02
129138,6.50E-03,1.97E-02
129139,6.50E-03,2.00E-02
129140,6.50E-03,2.02E-02
129141,6.49E-03,2.04E-02
129142,6.49E-03,2.06E-02
129143,6.49E-03,2.08E-02
129144,6.49E-03,2.10E-02
129145,6.49E-03,2.13E-02
129146,6.49E-03,2.15E-02
129147,6.49E-03,2.17E-02
129148,6.49E-03,2.19E-02
129149,6.49E-03,2.21E-02
129150,6.49E-03,2.23E-02
129151,6.49E-03,2.25E-02
129152,6.49E-03,2.27E-02
129153,6.49E-03,2.29E-02
129154,6.48E-03,2.31E-02
129155,6.48E-03,2.33E-02
129156,6.48E-03,2.36E-02
129157,6.48E-03,2.38E-02
129158,6.48E-03,2.40E-02
129159,6.48E-03,2.41E-02
129160,6.48E-03,2.43E-02
129161,6.48E-03,2.45E-02
129162,6.48E-03,2.47E-02
129163,6.48E-03,2.49E-02
129164,6.48E-03,2.51E-02
129165,6.53E-03,1.05E-02
129166,6.53E-03,1.07E-02
129167,6.53E-03,1.09E-02
129168,6.52E-03,1.11E-02
129169,6.52E-03,1.14E-02
129170,6.52E-03,1.16E-02
129171,6.52E-03,1.18E-02
129172,6.52E-03,1.20E-02
129173,6.52E-03,1.23E-02
129174,6.52E-03,1.25E-02
129175,6.52E-03,1.27E-02
129176,6.52E-03,1.29E-02
129177,6.52E-03,1.32E-02
129178,6.52E-03,1.34E-02
129179,6.52E-03,1.36E-02
129180,6.52E-03,1.38E-02
129181,6.52E-03,1.41E-02
129182,6.51E-03,1.43E-02
129183,6.51E-03,1.45E-02
129184,6.51E-03,1.47E-02
129185,6.51E-03,1.49E-02
129186,6.51E-03,1.52E-02
129187,6.51E-03,1.54E-02
129188,6.51E-03,1.56E-02
129189,6.51E-03,1.58E-02
129190,6.51E-03,1.60E-02
129191,6.51E-03,1.63E-02
129192,6.51E-03,1.65E-02
129193,6.51E-03,1.67E-02
129194,6.51E-03,1.69E-02
129195,6.51E-03,1.71E-02
129196,6.50E-03,1.74E-02
129197,6.50E-03,1.76E-02
129198,6.50E-03,1.78E-02
129199,6.50E-03,1.80E-02
129200,6.50E-03,1.82E-02
129201,6.50E-03,1.84E-02
129202,6.50E-03,1.87E-02
129203,6.50E-03,1.89E-02
129204,6.50E-03,1.91E-02
129205,6.50E-03,1.93E-02
129206,6.50E-03,1.95E-02
129207,6.50E-03,1.97E-02
129208,6.50E-03,2.00E-02
129209,6.50E-03,2.02E-02
129210,6.49E-03,2.04E-02
129211,6.49E-03,2.06E-02
129212,6.49E-03,2.08E-02
129213,6.49E-03,2.10E-02
129214,6.49E-03,2.13E-02
129215,6.49E-03,2.15E-02
129216,6.49E-03,2.17E-02
129217,6.49E-03,2.19E-02
129218,6.49E-03,2.21E-02
129219,6.49E-03,2.23E-02
129220,6.49E-03,2.25E-02
129221,6.49E-03,2.27E-02
129222,6.49E-03,2.29E-02
129223,6.48E-03,2.31E-02
129224,6.48E-03,2.33E-02
129225,6.48E-03,2.35E-02
129226,6.48E-03,2.37E-02
129227,6.48E-03,2.39E-02
129228,6.48E-03,2.41E-02
129229,6.48E-03,2.43E-02
129230,6.48E-03,2.45E-02
129231,6.48E-03,2.47E-02
129232,6.48E-03,2.49E-02
129233,6.48E-03,2.51E-02
129234,6.53E-03,1.05E-02
129235,6.53E-03,1.07E-02
129236,6.53E-03,1.09E-02
129237,6.52E-03,1.11E-02
129238,6.52E-03,1.14E-02
129239,6.52E-03,1.16E-02
129240,6.52E-03,1.18E-02
129241,6.52E-03,1.20E-02
129242,6.52E-03,1.23E-02
129243,6.52E-03,1.25E-02
129244,6.52E-03,1.27E-02
129245,6.52E-03,1.29E-02
129246,6.52E-03,1.32E-02
129247,6.52E-03,1.34E-02
129248,6.52E-03,1.36E-02
129249,6.52E-03,1.38E-02
129250,6.52E-03,1.41E-02
129251,6.51E-03,1.43E-02
129252,6.51E-03,1.45E-02
129253,6.51E-03,1.47E-02
129254,6.51E-03,1.49E-02
129255,6.51E-03,1.52E-02
129256,6.51E-03,1.54E-02
129257,6.51E-03,1.56E-02
129258,6.51E-03,1.58E-02
129259,6.51E-03,1.60E-02
129260,6.51E-03,1.63E-02
129261,6.51E-03,1.65E-02
129262,6.51E-03,1.67E-02
129263,6.51E-03,1.69E-02
129264,6.51E-03,1.71E-02
129265,6.50E-03,1.74E-02
129266,6.50E-03,1.76E-02
129267,6.50E-03,1.78E-02
129268,6.50E-03,1.80E-02
129269,6.50E-03,1.82E-02
129270,6.50E-03,1.84E-02
129271,6.50E-03,1.87E-02
129272,6.50E-03,1.89E-02
129273,6.50E-03,1.91E-02
129274,6.50E-03,1.93E-02
129275,6.50E-03,1.95E-02
129276,6.50E-03,1.97E-02
129277,6.50E-03,2.00E-02
129278,6.50E-03,2.02E-02
129279,6.49E-03,2.04E-02
129280,6.49E-03,2.06E-02
129281,6.49E-03,2.08E-02
129282,6.49E-03,2.10E-02
129283,6.49E-03,2.13E-02
129284,6.49E-03,2.15E-02
129285,6.49E-03,2.17E-02
129286,6.49E-03,2.19E-02
129287,6.49E-03,2.21E-02
129288,6.49E-03,2.23E-02
129289,6.49E-03,2.25E-02
129290,6.49E-03,2.27E-02
129291,6.49E-03,2.29E-02
129292,6.48E-03,2.31E-02
129293,6.48E-03,2.33E-02
129294,6.48E-03,2.35E-02
129295,6.48E-03,2.37E-02
129296,6.48E-03,2.39E-02
129297,6.48E-03,2.41E-02
129298,6.48E-03,2.43E-02
129299,6.48E-03,2.45E-02
129300,6.48E-03,2.47E-02
129301,6.48E-03,2.49E-02
129302,6.48E-03,2.51E-02
129303,6.53E-03,1.05E-02
129304,6.53E-03,1.07E-02
129305,6.53E-03,1.09E-02
129306,6.52E-03,1.12E-02
129307,6.52E-03,1.14E-02
129308,6.52E-03,1.16E-02
129309,6.52E-03,1.18E-02
129310,6.52E-03,1.21E-02
129311,6.52E-03,1.23E-02
129312,6.52E-03,1.25E-02
129313,6.52E-03,1.27E-02
129314,6.52E-03,1.29E-02
129315,6.52E-03,1.32E-02
129316,6.52E-03,1.34E-02
129317,6.52E-03,1.36E-02
129318,6.52E-03,1.38E-02
129319,6.52E-03,1.41E-02
129320,6.51E-03,1.43E-02
129321,6.51E-03,1.45E-02
129322,6.51E-03,1.47E-02
129323,6.51E-03,1.49E-02
129324,6.51E-03,1.52E-02
129325,6.51E-03,1.54E-02
129326,6.51E-03,1.56E-02
129327,6.51E-03,1.58E-02
129328,6.51E-03,1.60E-02
129329,6.51E-03,1.63E-02
129330,6.51E-03,1.65E-02
129331,6.51E-03,1.67E-02
129332,6.51E-03,1.69E-02
129333,6.51E-03,1.71E-02
129334,6.50E-03,1.74E-02
129335,6.50E-03,1.76E-02
129336,6.50E-03,1.78E-02
129337,6.50E-03,1.80E-02
129338,6.50E-03,1.82E-02
129339,6.50E-03,1.84E-02
129340,6.50E-03,1.87E-02
129341,6.50E-03,1.89E-02
129342,6.50E-03,1.91E-02
129343,6.50E-03,1.93E-02
129344,6.50E-03,1.95E-02
129345,6.50E-03,1.97E-02
129346,6.50E-03,2.00E-02
129347,6.50E-03,2.02E-02
129348,6.49E-03,2.04E-02
129349,6.49E-03,2.06E-02
129350,6.49E-03,2.08E-02
129351,6.49E-03,2.10E-02
129352,6.49E-03,2.13E-02
129353,6.49E-03,2.15E-02
129354,6.49E-03,2.17E-02
129355,6.49E-03,2.19E-02
129356,6.49E-03,2.21E-02
129357,6.49E-03,2.23E-02
129358,6.49E-03,2.25E-02
129359,6.49E-03,2.27E-02
129360,6.49E-03,2.29E-02
129361,6.48E-03,2.31E-02
129362,6.48E-03,2.33E-02
129363,6.48E-03,2.35E-02
129364,6.48E-03,2.37E-02
129365,6.48E-03,2.39E-02
129366,6.48E-03,2.41E-02
129367,6.48E-03,2.43E-02
129368,6.48E-03,2.45E-02
129369,6.48E-03,2.47E-02
129370,6.48E-03,2.48E-02
129371,6.48E-03,2.50E-02
129372,6.53E-03,1.05E-02
129373,6.53E-03,1.07E-02
129374,6.53E-03,1.09E-02
129375,6.52E-03,1.12E-02
129376,6.52E-03,1.14E-02
129377,6.52E-03,1.16E-02
129378,6.52E-03,1.18E-02
129379,6.52E-03,1.21E-02
129380,6.52E-03,1.23E-02
129381,6.52E-03,1.25E-02
129382,6.52E-03,1.27E-02
129383,6.52E-03,1.30E-02
129384,6.52E-03,1.32E-02
129385,6.52E-03,1.34E-02
129386,6.52E-03,1.36E-02
129387,6.52E-03,1.38E-02
129388,6.52E-03,1.41E-02
129389,6.51E-03,1.43E-02
129390,6.51E-03,1.45E-02
129391,6.51E-03,1.47E-02
129392,6.51E-03,1.50E-02
129393,6.51E-03,1.52E-02
129394,6.51E-03,1.54E-02
129395,6.51E-03,1.56E-02
129396,6.51E-03,1.58E-02
129397,6.51E-03,1.60E-02
129398,6.51E-03,1.63E-02
129399,6.51E-03,1.65E-02
129400,6.51E-03,1.67E-02
129401,6.51E-03,1.69E-02
129402,6.51E-03,1.71E-02
129403,6.50E-03,1.74E-02
129404,6.50E-03,1.76E-02
129405,6.50E-03,1.78E-02
129406,6.50E-03,1.80E-02
129407,6.50E-03,1.82E-02
129408,6.50E-03,1.84E-02
129409,6.50E-03,1.87E-02
129410,6.50E-03,1.89E-02
129411,6.50E-03,1.91E-02
129412,6.50E-03,1.93E-02
129413,6.50E-03,1.95E-02
129414,6.50E-03,1.97E-02
129415,6.50E-03,2.00E-02
129416,6.50E-03,2.02E-02
129417,6.49E-03,2.04E-02
129418,6.49E-03,2.06E-02
129419,6.49E-03,2.08E-02
129420,6.49E-03,2.10E-02
129421,6.49E-03,2.13E-02
129422,6.49E-03,2.15E-02
129423,6.49E-03,2.17E-02
129424,6.49E-03,2.19E-02
129425,6.49E-03,2.21E-02
129426,6.49E-03,2.23E-02
129427,6.49E-03,2.25E-02
129428,6.49E-03,2.27E-02
129429,6.49E-03,2.29E-02
129430,6.48E-03,2.31E-02
129431,6.48E-03,2.33E-02
129432,6.48E-03,2.35E-02
129433,6.48E-03,2.37E-02
129434,6.48E-03,2.39E-02
129435,6.48E-03,2.41E-02
129436,6.48E-03,2.43E-02
129437,6.48E-03,2.45E-02
129438,6.48E-03,2.46E-02
129439,6.48E-03,2.48E-02
129440,6.48E-03,2.50E-02
129441,6.53E-03,1.05E-02
129442,6.53E-03,1.07E-02
129443,6.53E-03,1.09E-02
129444,6.52E-03,1.12E-02
129445,6.52E-03,1.14E-02
129446,6.52E-03,1.16E-02
129447,6.52E-03,1.18E-02
129448,6.52E-03,1.21E-02
129449,6.52E-03,1.23E-02
129450,6.52E-03,1.25E-02
129451,6.52E-03,1.27E-02
129452,6.52E-03,1.30E-02
129453,6.52E-03,1.32E-02
129454,6.52E-03,1.34E-02
129455,6.52E-03,1.36E-02
129456,6.52E-03,1.38E-02
129457,6.52E-03,1.41E-02
129458,6.51E-03,1.43E-02
129459,6.51E-03,1.45E-02
129460,6.51E-03,1.47E-02
129461,6.51E-03,1.50E-02
129462,6.51E-03,1.52E-02
129463,6.51E-03,1.54E-02
129464,6.51E-03,1.56E-02
129465,6.51E-03,1.58E-02
129466,6.51E-03,1.61E-02
129467,6.51E-03,1.63E-02
129468,6.51E-03,1.65E-02
129469,6.51E-03,1.67E-02
129470,6.51E-03,1.69E-02
129471,6.51E-03,1.71E-02
129472,6.50E-03,1.74E-02
129473,6.50E-03,1.76E-02
129474,6.50E-03,1.78E-02
129475,6.50E-03,1.80E-02
129476,6.50E-03,1.82E-02
129477,6.50E-03,1.84E-02
129478,6.50E-03,1.87E-02
129479,6.50E-03,1.89E-02
129480,6.50E-03,1.91E-02
129481,6.50E-03,1.93E-02
129482,6.50E-03,1.95E-02
129483,6.50E-03,1.97E-02
129484,6.50E-03,2.00E-02
129485,6.50E-03,2.02E-02
129486,6.49E-03,2.04E-02
129487,6.49E-03,2.06E-02
129488,6.49E-03,2.08E-02
129489,6.49E-03,2.10E-02
129490,6.49E-03,2.13E-02
129491,6.49E-03,2.15E-02
129492,6.49E-03,2.17E-02
129493,6.49E-03,2.19E-02
129494,6.49E-03,2.21E-02
129495,6.49E-03,2.23E-02
129496,6.49E-03,2.25E-02
129497,6.49E-03,2.27E-02
129498,6.49E-03,2.29E-02
129499,6.48E-03,2.31E-02
129500,6.48E-03,2.33E-02
129501,6.48E-03,2.35E-02
129502,6.48E-03,2.37E-02
129503,6.48E-03,2.39E-02
129504,6.48E-03,2.41E-02
129505,6.48E-03,2.43E-02
129506,6.48E-03,2.45E-02
129507,6.48E-03,2.46E-02
129508,6.48E-03,2.48E-02
129509,6.48E-03,2.50E-02
129510,6.53E-03,1.05E-02
129511,6.53E-03,1.07E-02
129512,6.53E-03,1.09E-02
129513,6.52E-03,1.12E-02
129514,6.52E-03,1.14E-02
129515,6.52E-03,1.16E-02
129516,6.52E-03,1.18E-02
129517,6.52E-03,1.21E-02
129518,6.52E-03,1.23E-02
129519,6.52E-03,1.25E-02
129520,6.52E-03,1.27E-02
129521,6.52E-03,1.30E-02
129522,6.52E-03,1.32E-02
129523,6.52E-03,1.34E-02
129524,6.52E-03,1.36E-02
129525,6.52E-03,1.39E-02
129526,6.52E-03,1.41E-02
129527,6.51E-03,1.43E-02
129528,6.51E-03,1.45E-02
129529,6.51E-03,1.47E-02
129530,6.51E-03,1.50E-02
129531,6.51E-03,1.52E-02
129532,6.51E-03,1.54E-02
129533,6.51E-03,1.56E-02
129534,6.51E-03,1.58E-02
129535,6.51E-03,1.61E-02
129536,6.51E-03,1.63E-02
129537,6.51E-03,1.65E-02
129538,6.51E-03,1.67E-02
129539,6.51E-03,1.69E-02
129540,6.51E-03,1.71E-02
129541,6.50E-03,1.74E-02
129542,6.50E-03,1.76E-02
129543,6.50E-03,1.78E-02
129544,6.50E-03,1.80E-02
129545,6.50E-03,1.82E-02
129546,6.50E-03,1.84E-02
129547,6.50E-03,1.87E-02
129548,6.50E-03,1.89E-02
129549,6.50E-03,1.91E-02
129550,6.50E-03,1.93E-02
129551,6.50E-03,1.95E-02
129552,6.50E-03,1.97E-02
129553,6.50E-03,2.00E-02
129554,6.50E-03,2.02E-02
129555,6.49E-03,2.04E-02
129556,6.49E-03,2.06E-02
129557,6.49E-03,2.08E-02
129558,6.49E-03,2.10E-02
129559,6.49E-03,2.13E-02
129560,6.49E-03,2.15E-02
129561,6.49E-03,2.17E-02
129562,6.49E-03,2.19E-02
129563,6.49E-03,2.21E-02
129564,6.49E-03,2.23E-02
129565,6.49E-03,2.25E-02
129566,6.49E-03,2.27E-02
129567,6.49E-03,2.29E-02
129568,6.48E-03,2.31E-02
129569,6.48E-03,2.33E-02
129570,6.48E-03,2.35E-02
129571,6.48E-03,2.37E-02
129572,6.48E-03,2.39E-02
129573,6.48E-03,2.41E-02
129574,6.48E-03,2.43E-02
129575,6.48E-03,2.44E-02
129576,6.48E-03,2.46E-02
129577,6.48E-03,2.48E-02
129578,6.48E-03,2.49E-02
129579,6.53E-03,1.05E-02
129580,6.53E-03,1.07E-02
129581,6.53E-03,1.10E-02
129582,6.52E-03,1.12E-02
129583,6.52E-03,1.14E-02
129584,6.52E-03,1.16E-02
129585,6.52E-03,1.19E-02
129586,6.52E-03,1.21E-02
129587,6.52E-03,1.23E-02
129588,6.52E-03,1.25E-02
129589,6.52E-03,1.27E-02
129590,6.52E-03,1.30E-02
129591,6.52E-03,1.32E-02
129592,6.52E-03,1.34E-02
129593,6.52E-03,1.36E-02
129594,6.52E-03,1.39E-02
129595,6.52E-03,1.41E-02
129596,6.51E-03,1.43E-02
129597,6.51E-03,1.45E-02
129598,6.51E-03,1.47E-02
129599,6.51E-03,1.50E-02
129600,6.51E-03,1.52E-02
129601,6.51E-03,1.54E-02
129602,6.51E-03,1.56E-02
129603,6.51E-03,1.58E-02
129604,6.51E-03,1.61E-02
129605,6.51E-03,1.63E-02
129606,6.51E-03,1.65E-02
129607,6.51E-03,1.67E-02
129608,6.51E-03,1.69E-02
129609,6.51E-03,1.71E-02
129610,6.50E-03,1.74E-02
129611,6.50E-03,1.76E-02
129612,6.50E-03,1.78E-02
129613,6.50E-03,1.80E-02
129614,6.50E-03,1.82E-02
129615,6.50E-03,1.84E-02
129616,6.50E-03,1.87E-02
129617,6.50E-03,1.89E-02
129618,6.50E-03,1.91E-02
129619,6.50E-03,1.93E-02
129620,6.50E-03,1.95E-02
129621,6.50E-03,1.97E-02
129622,6.50E-03,2.00E-02
129623,6.50E-03,2.02E-02
129624,6.49E-03,2.04E-02
129625,6.49E-03,2.06E-02
129626,6.49E-03,2.08E-02
129627,6.49E-03,2.10E-02
129628,6.49E-03,2.12E-02
129629,6.49E-03,2.15E-02
129630,6.49E-03,2.17E-02
129631,6.49E-03,2.19E-02
129632,6.49E-03,2.21E-02
129633,6.49E-03,2.23E-02
129634,6.49E-03,2.25E-02
129635,6.49E-03,2.27E-02
129636,6.49E-03,2.29E-02
129637,6.48E-03,2.31E-02
129638,6.48E-03,2.33E-02
129639,6.48E-03,2.35E-02
129640,6.48E-03,2.37E-02
129641,6.48E-03,2.39E-02
129642,6.48E-03,2.41E-02
129643,6.48E-03,2.43E-02
129644,6.48E-03,2.44E-02
129645,6.48E-03,2.46E-02
129646,6.48E-03,2.48E-02
129647,6.48E-03,2.49E-02
129648,6.53E-03,1.05E-02
129649,6.53E-03,1.07E-02
129650,6.53E-03,1.10E-02
129651,6.52E-03,1.12E-02
129652,6.52E-03,1.14E-02
129653,6.52E-03,1.16E-02
129654,6.52E-03,1.19E-02
129655,6.52E-03,1.21E-02
129656,6.52E-03,1.23E-02
129657,6.52E-03,1.25E-02
129658,6.52E-03,1.28E-02
129659,6.52E-03,1.30E-02
129660,6.52E-03,1.32E-02
129661,6.52E-03,1.34E-02
129662,6.52E-03,1.36E-02
129663,6.52E-03,1.39E-02
129664,6.52E-03,1.41E-02
129665,6.51E-03,1.43E-02
129666,6.51E-03,1.45E-02
129667,6.51E-03,1.47E-02
129668,6.51E-03,1.50E-02
129669,6.51E-03,1.52E-02
129670,6.51E-03,1.54E-02
129671,6.51E-03,1.56E-02
129672,6.51E-03,1.58E-02
129673,6.51E-03,1.61E-02
129674,6.51E-03,1.63E-02
129675,6.51E-03,1.65E-02
129676,6.51E-03,1.67E-02
129677,6.51E-03,1.69E-02
129678,6.51E-03,1.71E-02
129679,6.50E-03,1.74E-02
129680,6.50E-03,1.76E-02
129681,6.50E-03,1.78E-02
129682,6.50E-03,1.80E-02
129683,6.50E-03,1.82E-02
129684,6.50E-03,1.84E-02
129685,6.50E-03,1.87E-02
129686,6.50E-03,1.89E-02
129687,6.50E-03,1.91E-02
129688,6.50E-03,1.93E-02
129689,6.50E-03,1.95E-02
129690,6.50E-03,1.97E-02
129691,6.50E-03,2.00E-02
129692,6.50E-03,2.02E-02
129693,6.49E-03,2.04E-02
129694,6.49E-03,2.06E-02
129695,6.49E-03,2.08E-02
129696,6.49E-03,2.10E-02
129697,6.49E-03,2.12E-02
129698,6.49E-03,2.15E-02
129699,6.49E-03,2.17E-02
129700,6.49E-03,2.19E-02
129701,6.49E-03,2.21E-02
129702,6.49E-03,2.23E-02
129703,6.49E-03,2.25E-02
129704,6.49E-03,2.27E-02
129705,6.49E-03,2.29E-02
129706,6.48E-03,2.31E-02
129707,6.48E-03,2.33E-02
129708,6.48E-03,2.35E-02
129709,6.48E-03,2.37E-02
129710,6.48E-03,2.39E-02
129711,6.48E-03,2.41E-02
129712,6.48E-03,2.43E-02
129713,6.48E-03,2.44E-02
129714,6.48E-03,2.46E-02
129715,6.48E-03,2.47E-02
129716,6.48E-03,2.49E-02
129717,6.53E-03,1.05E-02
129718,6.53E-03,1.07E-02
129719,6.53E-03,1.10E-02
129720,6.52E-03,1.12E-02
129721,6.52E-03,1.14E-02
129722,6.52E-03,1.16E-02
129723,6.52E-03,1.19E-02
129724,6.52E-03,1.21E-02
129725,6.52E-03,1.23E-02
129726,6.52E-03,1.25E-02
129727,6.52E-03,1.28E-02
129728,6.52E-03,1.30E-02
129729,6.52E-03,1.32E-02
129730,6.52E-03,1.34E-02
129731,6.52E-03,1.36E-02
129732,6.52E-03,1.39E-02
129733,6.52E-03,1.41E-02
129734,6.51E-03,1.43E-02
129735,6.51E-03,1.45E-02
129736,6.51E-03,1.47E-02
129737,6.51E-03,1.50E-02
129738,6.51E-03,1.52E-02
129739,6.51E-03,1.54E-02
129740,6.51E-03,1.56E-02
129741,6.51E-03,1.58E-02
129742,6.51E-03,1.61E-02
129743,6.51E-03,1.63E-02
129744,6.51E-03,1.65E-02
129745,6.51E-03,1.67E-02
129746,6.51E-03,1.69E-02
129747,6.51E-03,1.71E-02
129748,6.50E-03,1.74E-02
129749,6.50E-03,1.76E-02
129750,6.50E-03,1.78E-02
129751,6.50E-03,1.80E-02
129752,6.50E-03,1.82E-02
129753,6.50E-03,1.84E-02
129754,6.50E-03,1.87E-02
129755,6.50E-03,1.89E-02
129756,6.50E-03,1.91E-02
129757,6.50E-03,1.93E-02
129758,6.50E-03,1.95E-02
129759,6.50E-03,1.97E-02
129760,6.50E-03,2.00E-02
129761,6.50E-03,2.02E-02
129762,6.49E-03,2.04E-02
129763,6.49E-03,2.06E-02
129764,6.49E-03,2.08E-02
129765,6.49E-03,2.10E-02
129766,6.49E-03,2.12E-02
129767,6.49E-03,2.15E-02
129768,6.49E-03,2.17E-02
129769,6.49E-03,2.19E-02
129770,6.49E-03,2.21E-02
129771,6.49E-03,2.23E-02
129772,6.49E-03,2.25E-02
129773,6.49E-03,2.27E-02
129774,6.49E-03,2.29E-02
129775,6.48E-03,2.31E-02
129776,6.48E-03,2.33E-02
129777,6.48E-03,2.35E-02
129778,6.48E-03,2.37E-02
129779,6.48E-03,2.39E-02
129780,6.48E-03,2.41E-02
129781,6.48E-03,2.42E-02
129782,6.48E-03,2.44E-02
129783,6.48E-03,2.46E-02
129784,6.48E-03,2.47E-02
129785,6.48E-03,2.49E-02
129786,6.53E-03,1.05E-02
129787,6.53E-03,1.08E-02
129788,6.53E-03,1.10E-02
129789,6.52E-03,1.12E-02
129790,6.52E-03,1.14E-02
129791,6.52E-03,1.16E-02
129792,6.52E-03,1.19E-02
129793,6.52E-03,1.21E-02
129794,6.52E-03,1.23E-02
129795,6.52E-03,1.25E-02
129796,6.52E-03,1.28E-02
129797,6.52E-03,1.30E-02
129798,6.52E-03,1.32E-02
129799,6.52E-03,1.34E-02
129800,6.52E-03,1.36E-02
129801,6.52E-03,1.39E-02
129802,6.52E-03,1.41E-02
129803,6.51E-03,1.43E-02
129804,6.51E-03,1.45E-02
129805,6.51E-03,1.47E-02
129806,6.51E-03,1.50E-02
129807,6.51E-03,1.52E-02
129808,6.51E-03,1.54E-02
129809,6.51E-03,1.56E-02
129810,6.51E-03,1.58E-02
129811,6.51E-03,1.61E-02
129812,6.51E-03,1.63E-02
129813,6.51E-03,1.65E-02
129814,6.51E-03,1.67E-02
129815,6.51E-03,1.69E-02
129816,6.51E-03,1.71E-02
129817,6.50E-03,1.74E-02
129818,6.50E-03,1.76E-02
129819,6.50E-03,1.78E-02
129820,6.50E-03,1.80E-02
129821,6.50E-03,1.82E-02
129822,6.50E-03,1.84E-02
129823,6.50E-03,1.87E-02
129824,6.50E-03,1.89E-02
129825,6.50E-03,1.91E-02
129826,6.50E-03,1.93E-02
129827,6.50E-03,1.95E-02
129828,6.50E-03,1.97E-02
129829,6.50E-03,2.00E-02
129830,6.50E-03,2.02E-02
129831,6.49E-03,2.04E-02
129832,6.49E-03,2.06E-02
129833,6.49E-03,2.08E-02
129834,6.49E-03,2.10E-02
129835,6.49E-03,2.12E-02
129836,6.49E-03,2.15E-02
129837,6.49E-03,2.17E-02
129838,6.49E-03,2.19E-02
129839,6.49E-03,2.21E-02
129840,6.49E-03,2.23E-02
129841,6.49E-03,2.25E-02
129842,6.49E-03,2.27E-02
129843,6.49E-03,2.29E-02
129844,6.48E-03,2.31E-02
129845,6.48E-03,2.33E-02
129846,6.48E-03,2.35E-02
129847,6.48E-03,2.37E-02
129848,6.48E-03,2.39E-02
129849,6.48E-03,2.41E-02
129850,6.48E-03,2.42E-02
129851,6.48E-03,2.44E-02
129852,6.48E-03,2.46E-02
129853,6.48E-03,2.47E-02
129854,6.48E-03,2.49E-02
129855,6.53E-03,1.05E-02
129856,6.53E-03,1.08E-02
129857,6.53E-03,1.10E-02
129858,6.52E-03,1.12E-02
129859,6.52E-03,1.14E-02
129860,6.52E-03,1.17E-02
129861,6.52E-03,1.19E-02
129862,6.52E-03,1.21E-02
129863,6.52E-03,1.23E-02
129864,6.52E-03,1.25E-02
129865,6.52E-03,1.28E-02
129866,6.52E-03,1.30E-02
129867,6.52E-03,1.32E-02
129868,6.52E-03,1.34E-02
129869,6.52E-03,1.36E-02
129870,6.52E-03,1.39E-02
129871,6.52E-03,1.41E-02
129872,6.51E-03,1.43E-02
129873,6.51E-03,1.45E-02
129874,6.51E-03,1.47E-02
129875,6.51E-03,1.50E-02
129876,6.51E-03,1.52E-02
129877,6.51E-03,1.54E-02
129878,6.51E-03,1.56E-02
129879,6.51E-03,1.58E-02
129880,6.51E-03,1.61E-02
129881,6.51E-03,1.63E-02
129882,6.51E-03,1.65E-02
129883,6.51E-03,1.67E-02
129884,6.51E-03,1.69E-02
129885,6.51E-03,1.71E-02
129886,6.50E-03,1.74E-02
129887,6.50E-03,1.76E-02
129888,6.50E-03,1.78E-02
129889,6.50E-03,1.80E-02
129890,6.50E-03,1.82E-02
129891,6.50E-03,1.84E-02
129892,6.50E-03,1.87E-02
129893,6.50E-03,1.89E-02
129894,6.50E-03,1.91E-02
129895,6.50E-03,1.93E-02
129896,6.50E-03,1.95E-02
129897,6.50E-03,1.97E-02
129898,6.50E-03,2.00E-02
129899,6.50E-03,2.02E-02
129900,6.49E-03,2.04E-02
129901,6.49E-03,2.06E-02
129902,6.49E-03,2.08E-02
129903,6.49E-03,2.10E-02
129904,6.49E-03,2.12E-02
129905,6.49E-03,2.14E-02
129906,6.49E-03,2.17E-02
129907,6.49E-03,2.19E-02
129908,6.49E-03,2.21E-02
129909,6.49E-03,2.23E-02
129910,6.49E-03,2.25E-02
129911,6.49E-03,2.27E-02
129912,6.49E-03,2.29E-02
129913,6.48E-03,2.31E-02
129914,6.48E-03,2.33E-02
129915,6.48E-03,2.35E-02
129916,6.48E-03,2.37E-02
129917,6.48E-03,2.39E-02
129918,6.48E-03,2.41E-02
129919,6.48E-03,2.42E-02
129920,6.48E-03,2.44E-02
129921,6.48E-03,2.46E-02
129922,6.48E-03,2.47E-02
129923,6.48E-03,2.49E-02
129924,6.53E-03,1.05E-02
129925,6.53E-03,1.08E-02
129926,6.53E-03,1.10E-02
129927,6.52E-03,1.12E-02
129928,6.52E-03,1.14E-02
129929,6.52E-03,1.17E-02
129930,6.52E-03,1.19E-02
129931,6.52E-03,1.21E-02
129932,6.52E-03,1.23E-02
129933,6.52E-03,1.25E-02
129934,6.52E-03,1.28E-02
129935,6.52E-03,1.30E-02
129936,6.52E-03,1.32E-02
129937,6.52E-03,1.34E-02
129938,6.52E-03,1.37E-02
129939,6.52E-03,1.39E-02
129940,6.52E-03,1.41E-02
129941,6.51E-03,1.43E-02
129942,6.51E-03,1.45E-02
129943,6.51E-03,1.48E-02
129944,6.51E-03,1.50E-02
129945,6.51E-03,1.52E-02
129946,6.51E-03,1.54E-02
129947,6.51E-03,1.56E-02
129948,6.51E-03,1.58E-02
129949,6.51E-03,1.61E-02
129950,6.51E-03,1.63E-02
129951,6.51E-03,1.65E-02
129952,6.51E-03,1.67E-02
129953,6.51E-03,1.69E-02
129954,6.51E-03,1.71E-02
129955,6.50E-03,1.74E-02
129956,6.50E-03,1.76E-02
129957,6.50E-03,1.78E-02
129958,6.50E-03,1.80E-02
129959,6.50E-03,1.82E-02
129960,6.50E-03,1.84E-02
129961,6.50E-03,1.87E-02
129962,6.50E-03,1.89E-02
129963,6.50E-03,1.91E-02
129964,6.50E-03,1.93E-02
129965,6.50E-03,1.95E-02
129966,6.50E-03,1.97E-02
129967,6.50E-03,1.99E-02
129968,6.50E-03,2.02E-02
129969,6.49E-03,2.04E-02
129970,6.49E-03,2.06E-02
129971,6.49E-03,2.08E-02
129972,6.49E-03,2.10E-02
129973,6.49E-03,2.12E-02
129974,6.49E-03,2.14E-02
129975,6.49E-03,2.17E-02
129976,6.49E-03,2.19E-02
129977,6.49E-03,2.21E-02
129978,6.49E-03,2.23E-02
129979,6.49E-03,2.25E-02
129980,6.49E-03,2.27E-02
129981,6.49E-03,2.29E-02
129982,6.48E-03,2.31E-02
129983,6.48E-03,2.33E-02
129984,6.48E-03,2.35E-02
129985,6.48E-03,2.37E-02
129986,6.48E-03,2.39E-02
129987,6.48E-03,2.41E-02
129988,6.48E-03,2.43E-02
129989,6.48E-03,2.44E-02
129990,6.48E-03,2.46E-02
129991,6.48E-03,2.47E-02
129992,6.48E-03,2.48E-02
129993,6.53E-03,1.05E-02
129994,6.53E-03,1.08E-02
129995,6.53E-03,1.10E-02
129996,6.52E-03,1.12E-02
129997,6.52E-03,1.14E-02
129998,6.52E-03,1.17E-02
129999,6.52E-03,1.19E-02
130000,6.52E-03,1.21E-02
130001,6.52E-03,1.23E-02
130002,6.52E-03,1.26E-02
130003,6.52E-03,1.28E-02
130004,6.52E-03,1.30E-02
130005,6.52E-03,1.32E-02
130006,6.52E-03,1.34E-02
130007,6.52E-03,1.37E-02
130008,6.52E-03,1.39E-02
130009,6.52E-03,1.41E-02
130010,6.51E-03,1.43E-02
130011,6.51E-03,1.45E-02
130012,6.51E-03,1.48E-02
130013,6.51E-03,1.50E-02
130014,6.51E-03,1.52E-02
130015,6.51E-03,1.54E-02
130016,6.51E-03,1.56E-02
130017,6.51E-03,1.58E-02
130018,6.51E-03,1.61E-02
130019,6.51E-03,1.63E-02
130020,6.51E-03,1.65E-02
130021,6.51E-03,1.67E-02
130022,6.51E-03,1.69E-02
130023,6.51E-03,1.71E-02
130024,6.50E-03,1.74E-02
130025,6.50E-03,1.76E-02
130026,6.50E-03,1.78E-02
130027,6.50E-03,1.80E-02
130028,6.50E-03,1.82E-02
130029,6.50E-03,1.84E-02
130030,6.50E-03,1.87E-02
130031,6.50E-03,1.89E-02
130032,6.50E-03,1.91E-02
130033,6.50E-03,1.93E-02
130034,6.50E-03,1.95E-02
130035,6.50E-03,1.97E-02
130036,6.50E-03,1.99E-02
130037,6.50E-03,2.02E-02
130038,6.49E-03,2.04E-02
130039,6.49E-03,2.06E-02
130040,6.49E-03,2.08E-02
130041,6.49E-03,2.10E-02
130042,6.49E-03,2.12E-02
130043,6.49E-03,2.14E-02
130044,6.49E-03,2.17E-02
130045,6.49E-03,2.19E-02
130046,6.49E-03,2.21E-02
130047,6.49E-03,2.23E-02
130048,6.49E-03,2.25E-02
130049,6.49E-03,2.27E-02
130050,6.49E-03,2.29E-02
130051,6.48E-03,2.31E-02
130052,6.48E-03,2.33E-02
130053,6.48E-03,2.35E-02
130054,6.48E-03,2.37E-02
130055,6.48E-03,2.39E-02
130056,6.48E-03,2.41E-02
130057,6.48E-03,2.43E-02
130058,6.48E-03,2.44E-02
130059,6.48E-03,2.46E-02
130060,6.48E-03,2.47E-02
130061,6.48E-03,2.48E-02
130062,6.53E-03,1.06E-02
130063,6.53E-03,1.08E-02
130064,6.53E-03,1.10E-02
130065,6.52E-03,1.12E-02
130066,6.52E-03,1.14E-02
130067,6.52E-03,1.17E-02
130068,6.52E-03,1.19E-02
130069,6.52E-03,1.21E-02
130070,6.52E-03,1.23E-02
130071,6.52E-03,1.26E-02
130072,6.52E-03,1.28E-02
130073,6.52E-03,1.30E-02
130074,6.52E-03,1.32E-02
130075,6.52E-03,1.34E-02
130076,6.52E-03,1.37E-02
130077,6.52E-03,1.39E-02
130078,6.52E-03,1.41E-02
130079,6.51E-03,1.43E-02
130080,6.51E-03,1.45E-02
130081,6.51E-03,1.48E-02
130082,6.51E-03,1.50E-02
130083,6.51E-03,1.52E-02
130084,6.51E-03,1.54E-02
130085,6.51E-03,1.56E-02
130086,6.51E-03,1.58E-02
130087,6.51E-03,1.61E-02
130088,6.51E-03,1.63E-02
130089,6.51E-03,1.65E-02
130090,6.51E-03,1.67E-02
130091,6.51E-03,1.69E-02
130092,6.51E-03,1.71E-02
130093,6.50E-03,1.74E-02
130094,6.50E-03,1.76E-02
130095,6.50E-03,1.78E-02
130096,6.50E-03,1.80E-02
130097,6.50E-03,1.82E-02
130098,6.50E-03,1.84E-02
130099,6.50E-03,1.87E-02
130100,6.50E-03,1.89E-02
130101,6.50E-03,1.91E-02
130102,6.50E-03,1.93E-02
130103,6.50E-03,1.95E-02
130104,6.50E-03,1.97E-02
130105,6.50E-03,1.99E-02
130106,6.50E-03,2.02E-02
130107,6.49E-03,2.04E-02
130108,6.49E-03,2.06E-02
130109,6.49E-03,2.08E-02
130110,6.49E-03,2.10E-02
130111,6.49E-03,2.12E-02
130112,6.49E-03,2.14E-02
130113,6.49E-03,2.16E-02
130114,6.49E-03,2.19E-02
130115,6.49E-03,2.21E-02
130116,6.49E-03,2.23E-02
130117,6.49E-03,2.25E-02
130118,6.49E-03,2.27E-02
130119,6.49E-03,2.29E-02
130120,6.48E-03,2.31E-02
130121,6.48E-03,2.33E-02
130122,6.48E-03,2.35E-02
130123,6.48E-03,2.37E-02
130124,6.48E-03,2.39E-02
130125,6.48E-03,2.41E-02
130126,6.48E-03,2.43E-02
130127,6.48E-03,2.44E-02
130128,6.48E-03,2.46E-02
130129,6.48E-03,2.47E-02
130130,6.48E-03,2.49E-02
130131,6.53E-03,1.06E-02
130132,6.53E-03,1.08E-02
130133,6.53E-03,1.10E-02
130134,6.52E-03,1.12E-02
130135,6.52E-03,1.15E-02
130136,6.52E-03,1.17E-02
130137,6.52E-03,1.19E-02
130138,6.52E-03,1.21E-02
130139,6.52E-03,1.23E-02
130140,6.52E-03,1.26E-02
130141,6.52E-03,1.28E-02
130142,6.52E-03,1.30E-02
130143,6.52E-03,1.32E-02
130144,6.52E-03,1.34E-02
130145,6.52E-03,1.37E-02
130146,6.52E-03,1.39E-02
130147,6.52E-03,1.41E-02
130148,6.51E-03,1.43E-02
130149,6.51E-03,1.45E-02
130150,6.51E-03,1.48E-02
130151,6.51E-03,1.50E-02
130152,6.51E-03,1.52E-02
130153,6.51E-03,1.54E-02
130154,6.51E-03,1.56E-02
130155,6.51E-03,1.58E-02
130156,6.51E-03,1.61E-02
130157,6.51E-03,1.63E-02
130158,6.51E-03,1.65E-02
130159,6.51E-03,1.67E-02
130160,6.51E-03,1.69E-02
130161,6.51E-03,1.71E-02
130162,6.50E-03,1.74E-02
130163,6.50E-03,1.76E-02
130164,6.50E-03,1.78E-02
130165,6.50E-03,1.80E-02
130166,6.50E-03,1.82E-02
130167,6.50E-03,1.84E-02
130168,6.50E-03,1.87E-02
130169,6.50E-03,1.89E-02
130170,6.50E-03,1.91E-02
130171,6.50E-03,1.93E-02
130172,6.50E-03,1.95E-02
130173,6.50E-03,1.97E-02
130174,6.50E-03,1.99E-02
130175,6.50E-03,2.01E-02
130176,6.49E-03,2.04E-02
130177,6.49E-03,2.06E-02
130178,6.49E-03,2.08E-02
130179,6.49E-03,2.10E-02
130180,6.49E-03,2.12E-02
130181,6.49E-03,2.14E-02
130182,6.49E-03,2.16E-02
130183,6.49E-03,2.18E-02
130184,6.49E-03,2.21E-02
130185,6.49E-03,2.23E-02
130186,6.49E-03,2.25E-02
130187,6.49E-03,2.27E-02
130188,6.49E-03,2.29E-02
130189,6.48E-03,2.31E-02
130190,6.48E-03,2.33E-02
130191,6.48E-03,2.35E-02
130192,6.48E-03,2.37E-02
130193,6.48E-03,2.39E-02
130194,6.48E-03,2.41E-02
130195,6.48E-03,2.43E-02
130196,6.48E-03,2.44E-02
130197,6.48E-03,2.46E-02
130198,6.48E-03,2.47E-02
130199,6.48E-03,2.49E-02
130200,6.53E-03,1.06E-02
130201,6.53E-03,1.08E-02
130202,6.53E-03,1.10E-02
130203,6.52E-03,1.12E-02
130204,6.52E-03,1.15E-02
130205,6.52E-03,1.17E-02
130206,6.52E-03,1.19E-02
130207,6.52E-03,1.21E-02
130208,6.52E-03,1.23E-02
130209,6.52E-03,1.26E-02
130210,6.52E-03,1.28E-02
130211,6.52E-03,1.30E-02
130212,6.52E-03,1.32E-02
130213,6.52E-03,1.34E-02
130214,6.52E-03,1.37E-02
130215,6.52E-03,1.39E-02
130216,6.52E-03,1.41E-02
130217,6.51E-03,1.43E-02
130218,6.51E-03,1.45E-02
130219,6.51E-03,1.48E-02
130220,6.51E-03,1.50E-02
130221,6.51E-03,1.52E-02
130222,6.51E-03,1.54E-02
130223,6.51E-03,1.56E-02
130224,6.51E-03,1.58E-02
130225,6.51E-03,1.61E-02
130226,6.51E-03,1.63E-02
130227,6.51E-03,1.65E-02
130228,6.51E-03,1.67E-02
130229,6.51E-03,1.69E-02
130230,6.51E-03,1.71E-02
130231,6.50E-03,1.74E-02
130232,6.50E-03,1.76E-02
130233,6.50E-03,1.78E-02
130234,6.50E-03,1.80E-02
130235,6.50E-03,1.82E-02
130236,6.50E-03,1.84E-02
130237,6.50E-03,1.86E-02
130238,6.50E-03,1.89E-02
130239,6.50E-03,1.91E-02
130240,6.50E-03,1.93E-02
130241,6.50E-03,1.95E-02
130242,6.50E-03,1.97E-02
130243,6.50E-03,1.99E-02
130244,6.50E-03,2.01E-02
130245,6.49E-03,2.04E-02
130246,6.49E-03,2.06E-02
130247,6.49E-03,2.08E-02
130248,6.49E-03,2.10E-02
130249,6.49E-03,2.12E-02
130250,6.49E-03,2.14E-02
130251,6.49E-03,2.16E-02
130252,6.49E-03,2.18E-02
130253,6.49E-03,2.21E-02
130254,6.49E-03,2.23E-02
130255,6.49E-03,2.25E-02
130256,6.49E-03,2.27E-02
130257,6.49E-03,2.29E-02
130258,6.48E-03,2.31E-02
130259,6.48E-03,2.33E-02
130260,6.48E-03,2.35E-02
130261,6.48E-03,2.37E-02
130262,6.48E-03,2.39E-02
130263,6.48E-03,2.41E-02
130264,6.48E-03,2.43E-02
130265,6.48E-03,2.44E-02
130266,6.48E-03,2.46E-02
130267,6.48E-03,2.47E-02
130268,6.48E-03,2.49E-02
130269,6.53E-03,1.06E-02
130270,6.53E-03,1.08E-02
130271,6.53E-03,1.10E-02
130272,6.52E-03,1.12E-02
130273,6.52E-03,1.15E-02
130274,6.52E-03,1.17E-02
130275,6.52E-03,1.19E-02
130276,6.52E-03,1.21E-02
130277,6.52E-03,1.24E-02
130278,6.52E-03,1.26E-02
130279,6.52E-03,1.28E-02
130280,6.52E-03,1.30E-02
130281,6.52E-03,1.32E-02
130282,6.52E-03,1.35E-02
130283,6.52E-03,1.37E-02
130284,6.52E-03,1.39E-02
130285,6.52E-03,1.41E-02
130286,6.51E-03,1.43E-02
130287,6.51E-03,1.45E-02
130288,6.51E-03,1.48E-02
130289,6.51E-03,1.50E-02
130290,6.51E-03,1.52E-02
130291,6.51E-03,1.54E-02
130292,6.51E-03,1.56E-02
130293,6.51E-03,1.58E-02
130294,6.51E-03,1.61E-02
130295,6.51E-03,1.63E-02
130296,6.51E-03,1.65E-02
130297,6.51E-03,1.67E-02
130298,6.51E-03,1.69E-02
130299,6.51E-03,1.71E-02
130300,6.50E-03,1.74E-02
130301,6.50E-03,1.76E-02
130302,6.50E-03,1.78E-02
130303,6.50E-03,1.80E-02
130304,6.50E-03,1.82E-02
130305,6.50E-03,1.84E-02
130306,6.50E-03,1.86E-02
130307,6.50E-03,1.89E-02
130308,6.50E-03,1.91E-02
130309,6.50E-03,1.93E-02
130310,6.50E-03,1.95E-02
130311,6.50E-03,1.97E-02
130312,6.50E-03,1.99E-02
130313,6.50E-03,2.01E-02
130314,6.49E-03,2.03E-02
130315,6.49E-03,2.06E-02
130316,6.49E-03,2.08E-02
130317,6.49E-03,2.10E-02
130318,6.49E-03,2.12E-02
130319,6.49E-03,2.14E-02
130320,6.49E-03,2.16E-02
130321,6.49E-03,2.18E-02
130322,6.49E-03,2.20E-02
130323,6.49E-03,2.23E-02
130324,6.49E-03,2.25E-02
130325,6.49E-03,2.27E-02
130326,6.49E-03,2.29E-02
130327,6.48E-03,2.31E-02
130328,6.48E-03,2.33E-02
130329,6.48E-03,2.35E-02
130330,6.48E-03,2.37E-02
130331,6.48E-03,2.39E-02
130332,6.48E-03,2.41E-02
130333,6.48E-03,2.43E-02
130334,6.48E-03,2.44E-02
130335,6.48E-03,2.46E-02
130336,6.48E-03,2.48E-02
130337,6.48E-03,2.49E-02
130338,6.53E-03,1.06E-02
130339,6.53E-03,1.08E-02
130340,6.53E-03,1.10E-02
130341,6.52E-03,1.12E-02
130342,6.52E-03,1.15E-02
130343,6.52E-03,1.17E-02
130344,6.52E-03,1.19E-02
130345,6.52E-03,1.21E-02
130346,6.52E-03,1.24E-02
130347,6.52E-03,1.26E-02
130348,6.52E-03,1.28E-02
130349,6.52E-03,1.30E-02
130350,6.52E-03,1.32E-02
130351,6.52E-03,1.35E-02
130352,6.52E-03,1.37E-02
130353,6.52E-03,1.39E-02
130354,6.52E-03,1.41E-02
130355,6.51E-03,1.43E-02
130356,6.51E-03,1.45E-02
130357,6.51E-03,1.48E-02
130358,6.51E-03,1.50E-02
130359,6.51E-03,1.52E-02
130360,6.51E-03,1.54E-02
130361,6.51E-03,1.56E-02
130362,6.51E-03,1.58E-02
130363,6.51E-03,1.61E-02
130364,6.51E-03,1.63E-02
130365,6.51E-03,1.65E-02
130366,6.51E-03,1.67E-02
130367,6.51E-03,1.69E-02
130368,6.51E-03,1.71E-02
130369,6.50E-03,1.74E-02
130370,6.50E-03,1.76E-02
130371,6.50E-03,1.78E-02
130372,6.50E-03,1.80E-02
130373,6.50E-03,1.82E-02
130374,6.50E-03,1.84E-02
130375,6.50E-03,1.86E-02
130376,6.50E-03,1.89E-02
130377,6.50E-03,1.91E-02
130378,6.50E-03,1.93E-02
130379,6.50E-03,1.95E-02
130380,6.50E-03,1.97E-02
130381,6.50E-03,1.99E-02
130382,6.50E-03,2.01E-02
130383,6.49E-03,2.03E-02
130384,6.49E-03,2.06E-02
130385,6.49E-03,2.08E-02
130386,6.49E-03,2.10E-02
130387,6.49E-03,2.12E-02
130388,6.49E-03,2.14E-02
130389,6.49E-03,2.16E-02
130390,6.49E-03,2.18E-02
130391,6.49E-03,2.20E-02
130392,6.49E-03,2.22E-02
130393,6.49E-03,2.24E-02
130394,6.49E-03,2.27E-02
130395,6.49E-03,2.29E-02
130396,6.48E-03,2.31E-02
130397,6.48E-03,2.33E-02
130398,6.48E-03,2.35E-02
130399,6.48E-03,2.37E-02
130400,6.48E-03,2.39E-02
130401,6.48E-03,2.41E-02
130402,6.48E-03,2.43E-02
130403,6.48E-03,2.45E-02
130404,6.48E-03,2.46E-02
130405,6.48E-03,2.48E-02
130406,6.48E-03,2.49E-02
130407,6.53E-03,1.06E-02
130408,6.53E-03,1.08E-02
130409,6.53E-03,1.10E-02
130410,6.52E-03,1.13E-02
130411,6.52E-03,1.15E-02
130412,6.52E-03,1.17E-02
130413,6.52E-03,1.19E-02
130414,6.52E-03,1.21E-02
130415,6.52E-03,1.24E-02
130416,6.52E-03,1.26E-02
130417,6.52E-03,1.28E-02
130418,6.52E-03,1.30E-02
130419,6.52E-03,1.32E-02
130420,6.52E-03,1.35E-02
130421,6.52E-03,1.37E-02
130422,6.52E-03,1.39E-02
130423,6.52E-03,1.41E-02
130424,6.51E-03,1.43E-02
130425,6.51E-03,1.45E-02
130426,6.51E-03,1.48E-02
130427,6.51E-03,1.50E-02
130428,6.51E-03,1.52E-02
130429,6.51E-03,1.54E-02
130430,6.51E-03,1.56E-02
130431,6.51E-03,1.59E-02
130432,6.51E-03,1.61E-02
130433,6.51E-03,1.63E-02
130434,6.51E-03,1.65E-02
130435,6.51E-03,1.67E-02
130436,6.51E-03,1.69E-02
130437,6.51E-03,1.71E-02
130438,6.50E-03,1.74E-02
130439,6.50E-03,1.76E-02
130440,6.50E-03,1.78E-02
130441,6.50E-03,1.80E-02
130442,6.50E-03,1.82E-02
130443,6.50E-03,1.84E-02
130444,6.50E-03,1.86E-02
130445,6.50E-03,1.89E-02
130446,6.50E-03,1.91E-02
130447,6.50E-03,1.93E-02
130448,6.50E-03,1.95E-02
130449,6.50E-03,1.97E-02
130450,6.50E-03,1.99E-02
130451,6.50E-03,2.01E-02
130452,6.49E-03,2.03E-02
130453,6.49E-03,2.05E-02
130454,6.49E-03,2.08E-02
130455,6.49E-03,2.10E-02
130456,6.49E-03,2.12E-02
130457,6.49E-03,2.14E-02
130458,6.49E-03,2.16E-02
130459,6.49E-03,2.18E-02
130460,6.49E-03,2.20E-02
130461,6.49E-03,2.22E-02
130462,6.49E-03,2.24E-02
130463,6.49E-03,2.26E-02
130464,6.49E-03,2.29E-02
130465,6.48E-03,2.31E-02
130466,6.48E-03,2.33E-02
130467,6.48E-03,2.35E-02
130468,6.48E-03,2.37E-02
130469,6.48E-03,2.39E-02
130470,6.48E-03,2.41E-02
130471,6.48E-03,2.43E-02
130472,6.48E-03,2.45E-02
130473,6.48E-03,2.46E-02
130474,6.48E-03,2.48E-02
130475,6.48E-03,2.49E-02
130476,6.53E-03,1.06E-02
130477,6.53E-03,1.08E-02
130478,6.53E-03,1.10E-02
130479,6.52E-03,1.13E-02
130480,6.52E-03,1.15E-02
130481,6.52E-03,1.17E-02
130482,6.52E-03,1.19E-02
130483,6.52E-03,1.21E-02
130484,6.52E-03,1.24E-02
130485,6.52E-03,1.26E-02
130486,6.52E-03,1.28E-02
130487,6.52E-03,1.30E-02
130488,6.52E-03,1.32E-02
130489,6.52E-03,1.35E-02
130490,6.52E-03,1.37E-02
130491,6.52E-03,1.39E-02
130492,6.52E-03,1.41E-02
130493,6.51E-03,1.43E-02
130494,6.51E-03,1.46E-02
130495,6.51E-03,1.48E-02
130496,6.51E-03,1.50E-02
130497,6.51E-03,1.52E-02
130498,6.51E-03,1.54E-02
130499,6.51E-03,1.56E-02
130500,6.51E-03,1.59E-02
130501,6.51E-03,1.61E-02
130502,6.51E-03,1.63E-02
130503,6.51E-03,1.65E-02
130504,6.51E-03,1.67E-02
130505,6.51E-03,1.69E-02
130506,6.51E-03,1.71E-02
130507,6.50E-03,1.74E-02
130508,6.50E-03,1.76E-02
130509,6.50E-03,1.78E-02
130510,6.50E-03,1.80E-02
130511,6.50E-03,1.82E-02
130512,6.50E-03,1.84E-02
130513,6.50E-03,1.86E-02
130514,6.50E-03,1.88E-02
130515,6.50E-03,1.91E-02
130516,6.50E-03,1.93E-02
130517,6.50E-03,1.95E-02
130518,6.50E-03,1.97E-02
130519,6.50E-03,1.99E-02
130520,6.50E-03,2.01E-02
130521,6.49E-03,2.03E-02
130522,6.49E-03,2.05E-02
130523,6.49E-03,2.07E-02
130524,6.49E-03,2.10E-02
130525,6.49E-03,2.12E-02
130526,6.49E-03,2.14E-02
130527,6.49E-03,2.16E-02
130528,6.49E-03,2.18E-02
130529,6.49E-03,2.20E-02
130530,6.49E-03,2.22E-02
130531,6.49E-03,2.24E-02
130532,6.49E-03,2.26E-02
130533,6.49E-03,2.28E-02
130534,6.48E-03,2.30E-02
130535,6.48E-03,2.32E-02
130536,6.48E-03,2.35E-02
130537,6.48E-03,2.37E-02
130538,6.48E-03,2.39E-02
130539,6.48E-03,2.41E-02
130540,6.48E-03,2.43E-02
130541,6.48E-03,2.44E-02
130542,6.48E-03,2.46E-02
130543,6.48E-03,2.48E-02
130544,6.48E-03,2.50E-02
130545,6.53E-03,1.06E-02
130546,6.53E-03,1.08E-02
130547,6.53E-03,1.10E-02
130548,6.52E-03,1.13E-02
130549,6.52E-03,1.15E-02
130550,6.52E-03,1.17E-02
130551,6.52E-03,1.19E-02
130552,6.52E-03,1.21E-02
130553,6.52E-03,1.24E-02
130554,6.52E-03,1.26E-02
130555,6.52E-03,1.28E-02
130556,6.52E-03,1.30E-02
130557,6.52E-03,1.32E-02
130558,6.52E-03,1.35E-02
130559,6.52E-03,1.37E-02
130560,6.52E-03,1.39E-02
130561,6.52E-03,1.41E-02
130562,6.51E-03,1.43E-02
130563,6.51E-03,1.46E-02
130564,6.51E-03,1.48E-02
130565,6.51E-03,1.50E-02
130566,6.51E-03,1.52E-02
130567,6.51E-03,1.54E-02
130568,6.51E-03,1.56E-02
130569,6.51E-03,1.59E-02
130570,6.51E-03,1.61E-02
130571,6.51E-03,1.63E-02
130572,6.51E-03,1.65E-02
130573,6.51E-03,1.67E-02
130574,6.51E-03,1.69E-02
130575,6.51E-03,1.71E-02
130576,6.50E-03,1.74E-02
130577,6.50E-03,1.76E-02
130578,6.50E-03,1.78E-02
130579,6.50E-03,1.80E-02
130580,6.50E-03,1.82E-02
130581,6.50E-03,1.84E-02
130582,6.50E-03,1.86E-02
130583,6.50E-03,1.88E-02
130584,6.50E-03,1.91E-02
130585,6.50E-03,1.93E-02
130586,6.50E-03,1.95E-02
130587,6.50E-03,1.97E-02
130588,6.50E-03,1.99E-02
130589,6.50E-03,2.01E-02
130590,6.49E-03,2.03E-02
130591,6.49E-03,2.05E-02
130592,6.49E-03,2.07E-02
130593,6.49E-03,2.09E-02
130594,6.49E-03,2.12E-02
130595,6.49E-03,2.14E-02
130596,6.49E-03,2.16E-02
130597,6.49E-03,2.18E-02
130598,6.49E-03,2.20E-02
130599,6.49E-03,2.22E-02
130600,6.49E-03,2.24E-02
130601,6.49E-03,2.26E-02
130602,6.49E-03,2.28E-02
130603,6.48E-03,2.30E-02
130604,6.48E-03,2.32E-02
130605,6.48E-03,2.34E-02
130606,6.48E-03,2.36E-02
130607,6.48E-03,2.38E-02
130608,6.48E-03,2.40E-02
130609,6.48E-03,2.42E-02
130610,6.48E-03,2.44E-02
130611,6.48E-03,2.46E-02
130612,6.48E-03,2.48E-02
130613,6.48E-03,2.50E-02
130614,6.53E-03,1.06E-02
130615,6.53E-03,1.08E-02
130616,6.53E-03,1.10E-02
130617,6.52E-03,1.13E-02
130618,6.52E-03,1.15E-02
130619,6.52E-03,1.17E-02
130620,6.52E-03,1.19E-02
130621,6.52E-03,1.22E-02
130622,6.52E-03,1.24E-02
130623,6.52E-03,1.26E-02
130624,6.52E-03,1.28E-02
130625,6.52E-03,1.30E-02
130626,6.52E-03,1.32E-02
130627,6.52E-03,1.35E-02
130628,6.52E-03,1.37E-02
130629,6.52E-03,1.39E-02
130630,6.52E-03,1.41E-02
130631,6.51E-03,1.43E-02
130632,6.51E-03,1.46E-02
130633,6.51E-03,1.48E-02
130634,6.51E-03,1.50E-02
130635,6.51E-03,1.52E-02
130636,6.51E-03,1.54E-02
130637,6.51E-03,1.56E-02
130638,6.51E-03,1.59E-02
130639,6.51E-03,1.61E-02
130640,6.51E-03,1.63E-02
130641,6.51E-03,1.65E-02
130642,6.51E-03,1.67E-02
130643,6.51E-03,1.69E-02
130644,6.51E-03,1.71E-02
130645,6.50E-03,1.74E-02
130646,6.50E-03,1.76E-02
130647,6.50E-03,1.78E-02
130648,6.50E-03,1.80E-02
130649,6.50E-03,1.82E-02
130650,6.50E-03,1.84E-02
130651,6.50E-03,1.86E-02
130652,6.50E-03,1.88E-02
130653,6.50E-03,1.90E-02
130654,6.50E-03,1.93E-02
130655,6.50E-03,1.95E-02
130656,6.50E-03,1.97E-02
130657,6.50E-03,1.99E-02
130658,6.50E-03,2.01E-02
130659,6.49E-03,2.03E-02
130660,6.49E-03,2.05E-02
130661,6.49E-03,2.07E-02
130662,6.49E-03,2.09E-02
130663,6.49E-03,2.11E-02
130664,6.49E-03,2.13E-02
130665,6.49E-03,2.16E-02
130666,6.49E-03,2.18E-02
130667,6.49E-03,2.20E-02
130668,6.49E-03,2.22E-02
130669,6.49E-03,2.24E-02
130670,6.49E-03,2.26E-02
130671,6.49E-03,2.28E-02
130672,6.48E-03,2.30E-02
130673,6.48E-03,2.32E-02
130674,6.48E-03,2.34E-02
130675,6.48E-03,2.36E-02
130676,6.48E-03,2.38E-02
130677,6.48E-03,2.40E-02
130678,6.48E-03,2.42E-02
130679,6.48E-03,2.44E-02
130680,6.48E-03,2.46E-02
130681,6.48E-03,2.48E-02
130682,6.48E-03,2.50E-02
130683,6.53E-03,1.06E-02
130684,6.53E-03,1.08E-02
130685,6.53E-03,1.11E-02
130686,6.52E-03,1.13E-02
130687,6.52E-03,1.15E-02
130688,6.52E-03,1.17E-02
130689,6.52E-03,1.19E-02
130690,6.52E-03,1.22E-02
130691,6.52E-03,1.24E-02
130692,6.52E-03,1.26E-02
130693,6.52E-03,1.28E-02
130694,6.52E-03,1.30E-02
130695,6.52E-03,1.33E-02
130696,6.52E-03,1.35E-02
130697,6.52E-03,1.37E-02
130698,6.52E-03,1.39E-02
130699,6.52E-03,1.41E-02
130700,6.51E-03,1.43E-02
130701,6.51E-03,1.46E-02
130702,6.51E-03,1.48E-02
130703,6.51E-03,1.50E-02
130704,6.51E-03,1.52E-02
130705,6.51E-03,1.54E-02
130706,6.51E-03,1.56E-02
130707,6.51E-03,1.59E-02
130708,6.51E-03,1.61E-02
130709,6.51E-03,1.63E-02
130710,6.51E-03,1.65E-02
130711,6.51E-03,1.67E-02
130712,6.51E-03,1.69E-02
130713,6.51E-03,1.71E-02
130714,6.50E-03,1.74E-02
130715,6.50E-03,1.76E-02
130716,6.50E-03,1.78E-02
130717,6.50E-03,1.80E-02
130718,6.50E-03,1.82E-02
130719,6.50E-03,1.84E-02
130720,6.50E-03,1.86E-02
130721,6.50E-03,1.88E-02
130722,6.50E-03,1.90E-02
130723,6.50E-03,1.93E-02
130724,6.50E-03,1.95E-02
130725,6.50E-03,1.97E-02
130726,6.50E-03,1.99E-02
130727,6.50E-03,2.01E-02
130728,6.49E-03,2.03E-02
130729,6.49E-03,2.05E-02
130730,6.49E-03,2.07E-02
130731,6.49E-03,2.09E-02
130732,6.49E-03,2.11E-02
130733,6.49E-03,2.13E-02
130734,6.49E-03,2.15E-02
130735,6.49E-03,2.17E-02
130736,6.49E-03,2.20E-02
130737,6.49E-03,2.22E-02
130738,6.49E-03,2.24E-02
130739,6.49E-03,2.26E-02
130740,6.49E-03,2.28E-02
130741,6.48E-03,2.30E-02
130742,6.48E-03,2.32E-02
130743,6.48E-03,2.34E-02
130744,6.48E-03,2.36E-02
130745,6.48E-03,2.38E-02
130746,6.48E-03,2.40E-02
130747,6.48E-03,2.42E-02
130748,6.48E-03,2.44E-02
130749,6.48E-03,2.46E-02
130750,6.48E-03,2.48E-02
130751,6.48E-03,2.50E-02
130752,6.53E-03,1.06E-02
130753,6.53E-03,1.08E-02
130754,6.53E-03,1.11E-02
130755,6.52E-03,1.13E-02
130756,6.52E-03,1.15E-02
130757,6.52E-03,1.17E-02
130758,6.52E-03,1.19E-02
130759,6.52E-03,1.22E-02
130760,6.52E-03,1.24E-02
130761,6.52E-03,1.26E-02
130762,6.52E-03,1.28E-02
130763,6.52E-03,1.30E-02
130764,6.52E-03,1.33E-02
130765,6.52E-03,1.35E-02
130766,6.52E-03,1.37E-02
130767,6.52E-03,1.39E-02
130768,6.52E-03,1.41E-02
130769,6.51E-03,1.43E-02
130770,6.51E-03,1.46E-02
130771,6.51E-03,1.48E-02
130772,6.51E-03,1.50E-02
130773,6.51E-03,1.52E-02
130774,6.51E-03,1.54E-02
130775,6.51E-03,1.56E-02
130776,6.51E-03,1.59E-02
130777,6.51E-03,1.61E-02
130778,6.51E-03,1.63E-02
130779,6.51E-03,1.65E-02
130780,6.51E-03,1.67E-02
130781,6.51E-03,1.69E-02
130782,6.51E-03,1.71E-02
130783,6.50E-03,1.73E-02
130784,6.50E-03,1.76E-02
130785,6.50E-03,1.78E-02
130786,6.50E-03,1.80E-02
130787,6.50E-03,1.82E-02
130788,6.50E-03,1.84E-02
130789,6.50E-03,1.86E-02
130790,6.50E-03,1.88E-02
130791,6.50E-03,1.90E-02
130792,6.50E-03,1.92E-02
130793,6.50E-03,1.95E-02
130794,6.50E-03,1.97E-02
130795,6.50E-03,1.99E-02
130796,6.50E-03,2.01E-02
130797,6.49E-03,2.03E-02
130798,6.49E-03,2.05E-02
130799,6.49E-03,2.07E-02
130800,6.49E-03,2.09E-02
130801,6.49E-03,2.11E-02
130802,6.49E-03,2.13E-02
130803,6.49E-03,2.15E-02
130804,6.49E-03,2.17E-02
130805,6.49E-03,2.19E-02
130806,6.49E-03,2.21E-02
130807,6.49E-03,2.23E-02
130808,6.49E-03,2.25E-02
130809,6.49E-03,2.28E-02
130810,6.48E-03,2.30E-02
130811,6.48E-03,2.32E-02
130812,6.48E-03,2.34E-02
130813,6.48E-03,2.36E-02
130814,6.48E-03,2.38E-02
130815,6.48E-03,2.40E-02
130816,6.48E-03,2.42E-02
130817,6.48E-03,2.44E-02
130818,6.48E-03,2.46E-02
130819,6.48E-03,2.48E-02
130820,6.48E-03,2.50E-02
130821,6.53E-03,1.06E-02
130822,6.53E-03,1.08E-02
130823,6.53E-03,1.11E-02
130824,6.52E-03,1.13E-02
130825,6.52E-03,1.15E-02
130826,6.52E-03,1.17E-02
130827,6.52E-03,1.19E-02
130828,6.52E-03,1.22E-02
130829,6.52E-03,1.24E-02
130830,6.52E-03,1.26E-02
130831,6.52E-03,1.28E-02
130832,6.52E-03,1.30E-02
130833,6.52E-03,1.33E-02
130834,6.52E-03,1.35E-02
130835,6.52E-03,1.37E-02
130836,6.52E-03,1.39E-02
130837,6.52E-03,1.41E-02
130838,6.51E-03,1.43E-02
130839,6.51E-03,1.46E-02
130840,6.51E-03,1.48E-02
130841,6.51E-03,1.50E-02
130842,6.51E-03,1.52E-02
130843,6.51E-03,1.54E-02
130844,6.51E-03,1.56E-02
130845,6.51E-03,1.59E-02
130846,6.51E-03,1.61E-02
130847,6.51E-03,1.63E-02
130848,6.51E-03,1.65E-02
130849,6.51E-03,1.67E-02
130850,6.51E-03,1.69E-02
130851,6.51E-03,1.71E-02
130852,6.50E-03,1.73E-02
130853,6.50E-03,1.76E-02
130854,6.50E-03,1.78E-02
130855,6.50E-03,1.80E-02
130856,6.50E-03,1.82E-02
130857,6.50E-03,1.84E-02
130858,6.50E-03,1.86E-02
130859,6.50E-03,1.88E-02
130860,6.50E-03,1.90E-02
130861,6.50E-03,1.92E-02
130862,6.50E-03,1.95E-02
130863,6.50E-03,1.97E-02
130864,6.50E-03,1.99E-02
130865,6.50E-03,2.01E-02
130866,6.49E-03,2.03E-02
130867,6.49E-03,2.05E-02
130868,6.49E-03,2.07E-02
130869,6.49E-03,2.09E-02
130870,6.49E-03,2.11E-02
130871,6.49E-03,2.13E-02
130872,6.49E-03,2.15E-02
130873,6.49E-03,2.17E-02
130874,6.49E-03,2.19E-02
130875,6.49E-03,2.21E-02
130876,6.49E-03,2.23E-02
130877,6.49E-03,2.25E-02
130878,6.49E-03,2.27E-02
130879,6.48E-03,2.29E-02
130880,6.48E-03,2.31E-02
130881,6.48E-03,2.33E-02
130882,6.48E-03,2.35E-02
130883,6.48E-03,2.37E-02
130884,6.48E-03,2.39E-02
130885,6.48E-03,2.41E-02
130886,6.48E-03,2.43E-02
130887,6.48E-03,2.45E-02
130888,6.48E-03,2.47E-02
130889,6.48E-03,2.49E-02
130890,6.53E-03,1.06E-02
130891,6.53E-03,1.08E-02
130892,6.53E-03,1.11E-02
130893,6.52E-03,1.13E-02
130894,6.52E-03,1.15E-02
130895,6.52E-03,1.17E-02
130896,6.52E-03,1.19E-02
130897,6.52E-03,1.22E-02
130898,6.52E-03,1.24E-02
130899,6.52E-03,1.26E-02
130900,6.52E-03,1.28E-02
130901,6.52E-03,1.30E-02
130902,6.52E-03,1.33E-02
130903,6.52E-03,1.35E-02
130904,6.52E-03,1.37E-02
130905,6.52E-03,1.39E-02
130906,6.52E-03,1.41E-02
130907,6.51E-03,1.43E-02
130908,6.51E-03,1.46E-02
130909,6.51E-03,1.48E-02
130910,6.51E-03,1.50E-02
130911,6.51E-03,1.52E-02
130912,6.51E-03,1.54E-02
130913,6.51E-03,1.56E-02
130914,6.51E-03,1.59E-02
130915,6.51E-03,1.61E-02
130916,6.51E-03,1.63E-02
130917,6.51E-03,1.65E-02
130918,6.51E-03,1.67E-02
130919,6.51E-03,1.69E-02
130920,6.51E-03,1.71E-02
130921,6.50E-03,1.73E-02
130922,6.50E-03,1.76E-02
130923,6.50E-03,1.78E-02
130924,6.50E-03,1.80E-02
130925,6.50E-03,1.82E-02
130926,6.50E-03,1.84E-02
130927,6.50E-03,1.86E-02
130928,6.50E-03,1.88E-02
130929,6.50E-03,1.90E-02
130930,6.50E-03,1.92E-02
130931,6.50E-03,1.94E-02
130932,6.50E-03,1.97E-02
130933,6.50E-03,1.99E-02
130934,6.50E-03,2.01E-02
130935,6.49E-03,2.03E-02
130936,6.49E-03,2.05E-02
130937,6.49E-03,2.07E-02
130938,6.49E-03,2.09E-02
130939,6.49E-03,2.11E-02
130940,6.49E-03,2.13E-02
130941,6.49E-03,2.15E-02
130942,6.49E-03,2.17E-02
130943,6.49E-03,2.19E-02
130944,6.49E-03,2.21E-02
130945,6.49E-03,2.23E-02
130946,6.49E-03,2.25E-02
130947,6.49E-03,2.27E-02
130948,6.48E-03,2.29E-02
130949,6.48E-03,2.31E-02
130950,6.48E-03,2.33E-02
130951,6.48E-03,2.35E-02
130952,6.48E-03,2.37E-02
130953,6.48E-03,2.39E-02
130954,6.48E-03,2.41E-02
130955,6.48E-03,2.43E-02
130956,6.48E-03,2.45E-02
130957,6.48E-03,2.47E-02
130958,6.48E-03,2.49E-02
130959,6.53E-03,1.06E-02
130960,6.53E-03,1.09E-02
130961,6.53E-03,1.11E-02
130962,6.52E-03,1.13E-02
130963,6.52E-03,1.15E-02
130964,6.52E-03,1.17E-02
130965,6.52E-03,1.20E-02
130966,6.52E-03,1.22E-02
130967,6.52E-03,1.24E-02
130968,6.52E-03,1.26E-02
130969,6.52E-03,1.28E-02
130970,6.52E-03,1.30E-02
130971,6.52E-03,1.33E-02
130972,6.52E-03,1.35E-02
130973,6.52E-03,1.37E-02
130974,6.52E-03,1.39E-02
130975,6.52E-03,1.41E-02
130976,6.51E-03,1.44E-02
130977,6.51E-03,1.46E-02
130978,6.51E-03,1.48E-02
130979,6.51E-03,1.50E-02
130980,6.51E-03,1.52E-02
130981,6.51E-03,1.54E-02
130982,6.51E-03,1.56E-02
130983,6.51E-03,1.59E-02
130984,6.51E-03,1.61E-02
130985,6.51E-03,1.63E-02
130986,6.51E-03,1.65E-02
130987,6.51E-03,1.67E-02
130988,6.51E-03,1.69E-02
130989,6.51E-03,1.71E-02
130990,6.50E-03,1.73E-02
130991,6.50E-03,1.76E-02
130992,6.50E-03,1.78E-02
130993,6.50E-03,1.80E-02
130994,6.50E-03,1.82E-02
130995,6.50E-03,1.84E-02
130996,6.50E-03,1.86E-02
130997,6.50E-03,1.88E-02
130998,6.50E-03,1.90E-02
130999,6.50E-03,1.92E-02
131000,6.50E-03,1.94E-02
131001,6.50E-03,1.96E-02
131002,6.50E-03,1.99E-02
131003,6.50E-03,2.01E-02
131004,6.49E-03,2.03E-02
131005,6.49E-03,2.05E-02
131006,6.49E-03,2.07E-02
131007,6.49E-03,2.09E-02
131008,6.49E-03,2.11E-02
131009,6.49E-03,2.13E-02
131010,6.49E-03,2.15E-02
131011,6.49E-03,2.17E-02
131012,6.49E-03,2.19E-02
131013,6.49E-03,2.21E-02
131014,6.49E-03,2.23E-02
131015,6.49E-03,2.25E-02
131016,6.49E-03,2.27E-02
131017,6.48E-03,2.29E-02
131018,6.48E-03,2.31E-02
131019,6.48E-03,2.33E-02
131020,6.48E-03,2.35E-02
131021,6.48E-03,2.37E-02
131022,6.48E-03,2.39E-02
131023,6.48E-03,2.41E-02
131024,6.48E-03,2.43E-02
131025,6.48E-03,2.45E-02
131026,6.48E-03,2.46E-02
131027,6.48E-03,2.48E-02
131028,6.53E-03,1.06E-02
131029,6.53E-03,1.09E-02
131030,6.53E-03,1.11E-02
131031,6.52E-03,1.13E-02
131032,6.52E-03,1.15E-02
131033,6.52E-03,1.17E-02
131034,6.52E-03,1.20E-02
131035,6.52E-03,1.22E-02
131036,6.52E-03,1.24E-02
131037,6.52E-03,1.26E-02
131038,6.52E-03,1.28E-02
131039,6.52E-03,1.31E-02
131040,6.52E-03,1.33E-02
131041,6.52E-03,1.35E-02
131042,6.52E-03,1.37E-02
131043,6.52E-03,1.39E-02
131044,6.52E-03,1.41E-02
131045,6.51E-03,1.44E-02
131046,6.51E-03,1.46E-02
131047,6.51E-03,1.48E-02
131048,6.51E-03,1.50E-02
131049,6.51E-03,1.52E-02
131050,6.51E-03,1.54E-02
131051,6.51E-03,1.56E-02
131052,6.51E-03,1.59E-02
131053,6.51E-03,1.61E-02
131054,6.51E-03,1.63E-02
131055,6.51E-03,1.65E-02
131056,6.51E-03,1.67E-02
131057,6.51E-03,1.69E-02
131058,6.51E-03,1.71E-02
131059,6.50E-03,1.73E-02
131060,6.50E-03,1.76E-02
131061,6.50E-03,1.78E-02
131062,6.50E-03,1.80E-02
131063,6.50E-03,1.82E-02
131064,6.50E-03,1.84E-02
131065,6.50E-03,1.86E-02
131066,6.50E-03,1.88E-02
131067,6.50E-03,1.90E-02
131068,6.50E-03,1.92E-02
131069,6.50E-03,1.94E-02
131070,6.50E-03,1.96E-02
131071,6.50E-03,1.98E-02
131072,6.50E-03,2.00E-02
131073,6.49E-03,2.03E-02
131074,6.49E-03,2.05E-02
131075,6.49E-03,2.07E-02
131076,6.49E-03,2.09E-02
131077,6.49E-03,2.11E-02
131078,6.49E-03,2.13E-02
131079,6.49E-03,2.15E-02
131080,6.49E-03,2.17E-02
131081,6.49E-03,2.19E-02
131082,6.49E-03,2.21E-02
131083,6.49E-03,2.23E-02
131084,6.49E-03,2.25E-02
131085,6.49E-03,2.27E-02
131086,6.48E-03,2.29E-02
131087,6.48E-03,2.30E-02
131088,6.48E-03,2.32E-02
131089,6.48E-03,2.34E-02
131090,6.48E-03,2.36E-02
131091,6.48E-03,2.38E-02
131092,6.48E-03,2.40E-02
131093,6.48E-03,2.42E-02
131094,6.48E-03,2.44E-02
131095,6.48E-03,2.46E-02
131096,6.48E-03,2.48E-02
131097,6.53E-03,1.06E-02
131098,6.53E-03,1.09E-02
131099,6.53E-03,1.11E-02
131100,6.52E-03,1.13E-02
131101,6.52E-03,1.15E-02
131102,6.52E-03,1.17E-02
131103,6.52E-03,1.20E-02
131104,6.52E-03,1.22E-02
131105,6.52E-03,1.24E-02
131106,6.52E-03,1.26E-02
131107,6.52E-03,1.28E-02
131108,6.52E-03,1.31E-02
131109,6.52E-03,1.33E-02
131110,6.52E-03,1.35E-02
131111,6.52E-03,1.37E-02
131112,6.52E-03,1.39E-02
131113,6.52E-03,1.41E-02
131114,6.51E-03,1.44E-02
131115,6.51E-03,1.46E-02
131116,6.51E-03,1.48E-02
131117,6.51E-03,1.50E-02
131118,6.51E-03,1.52E-02
131119,6.51E-03,1.54E-02
131120,6.51E-03,1.56E-02
131121,6.51E-03,1.59E-02
131122,6.51E-03,1.61E-02
131123,6.51E-03,1.63E-02
131124,6.51E-03,1.65E-02
131125,6.51E-03,1.67E-02
131126,6.51E-03,1.69E-02
131127,6.51E-03,1.71E-02
131128,6.50E-03,1.73E-02
131129,6.50E-03,1.76E-02
131130,6.50E-03,1.78E-02
131131,6.50E-03,1.80E-02
131132,6.50E-03,1.82E-02
131133,6.50E-03,1.84E-02
131134,6.50E-03,1.86E-02
131135,6.50E-03,1.88E-02
131136,6.50E-03,1.90E-02
131137,6.50E-03,1.92E-02
131138,6.50E-03,1.94E-02
131139,6.50E-03,1.96E-02
131140,6.50E-03,1.98E-02
131141,6.50E-03,2.00E-02
131142,6.49E-03,2.02E-02
131143,6.49E-03,2.04E-02
131144,6.49E-03,2.06E-02
131145,6.49E-03,2.09E-02
131146,6.49E-03,2.11E-02
131147,6.49E-03,2.13E-02
131148,6.49E-03,2.15E-02
131149,6.49E-03,2.16E-02
131150,6.49E-03,2.18E-02
131151,6.49E-03,2.20E-02
131152,6.49E-03,2.22E-02
131153,6.49E-03,2.24E-02
131154,6.49E-03,2.26E-02
131155,6.48E-03,2.28E-02
131156,6.48E-03,2.30E-02
131157,6.48E-03,2.32E-02
131158,6.48E-03,2.34E-02
131159,6.48E-03,2.36E-02
131160,6.48E-03,2.38E-02
131161,6.48E-03,2.40E-02
131162,6.48E-03,2.42E-02
131163,6.48E-03,2.44E-02
131164,6.48E-03,2.46E-02
131165,6.48E-03,2.48E-02
131166,6.53E-03,1.06E-02
131167,6.53E-03,1.09E-02
131168,6.53E-03,1.11E-02
131169,6.52E-03,1.13E-02
131170,6.52E-03,1.15E-02
131171,6.52E-03,1.17E-02
131172,6.52E-03,1.20E-02
131173,6.52E-03,1.22E-02
131174,6.52E-03,1.24E-02
131175,6.52E-03,1.26E-02
131176,6.52E-03,1.28E-02
131177,6.52E-03,1.31E-02
131178,6.52E-03,1.33E-02
131179,6.52E-03,1.35E-02
131180,6.52E-03,1.37E-02
131181,6.52E-03,1.39E-02
131182,6.52E-03,1.41E-02
131183,6.51E-03,1.44E-02
131184,6.51E-03,1.46E-02
131185,6.51E-03,1.48E-02
131186,6.51E-03,1.50E-02
131187,6.51E-03,1.52E-02
131188,6.51E-03,1.54E-02
131189,6.51E-03,1.56E-02
131190,6.51E-03,1.59E-02
131191,6.51E-03,1.61E-02
131192,6.51E-03,1.63E-02
131193,6.51E-03,1.65E-02
131194,6.51E-03,1.67E-02
131195,6.51E-03,1.69E-02
131196,6.51E-03,1.71E-02
131197,6.50E-03,1.73E-02
131198,6.50E-03,1.76E-02
131199,6.50E-03,1.78E-02
131200,6.50E-03,1.80E-02
131201,6.50E-03,1.82E-02
131202,6.50E-03,1.84E-02
131203,6.50E-03,1.86E-02
131204,6.50E-03,1.88E-02
131205,6.50E-03,1.90E-02
131206,6.50E-03,1.92E-02
131207,6.50E-03,1.94E-02
131208,6.50E-03,1.96E-02
131209,6.50E-03,1.98E-02
131210,6.50E-03,2.00E-02
131211,6.49E-03,2.02E-02
131212,6.49E-03,2.04E-02
131213,6.49E-03,2.06E-02
131214,6.49E-03,2.08E-02
131215,6.49E-03,2.10E-02
131216,6.49E-03,2.12E-02
131217,6.49E-03,2.14E-02
131218,6.49E-03,2.16E-02
131219,6.49E-03,2.18E-02
131220,6.49E-03,2.20E-02
131221,6.49E-03,2.22E-02
131222,6.49E-03,2.24E-02
131223,6.49E-03,2.26E-02
131224,6.48E-03,2.28E-02
131225,6.48E-03,2.30E-02
131226,6.48E-03,2.32E-02
131227,6.48E-03,2.34E-02
131228,6.48E-03,2.36E-02
131229,6.48E-03,2.38E-02
131230,6.48E-03,2.40E-02
131231,6.48E-03,2.42E-02
131232,6.48E-03,2.43E-02
131233,6.48E-03,2.45E-02
131234,6.48E-03,2.47E-02
131235,6.53E-03,1.07E-02
131236,6.53E-03,1.09E-02
131237,6.53E-03,1.11E-02
131238,6.52E-03,1.13E-02
131239,6.52E-03,1.15E-02
131240,6.52E-03,1.18E-02
131241,6.52E-03,1.20E-02
131242,6.52E-03,1.22E-02
131243,6.52E-03,1.24E-02
131244,6.52E-03,1.26E-02
131245,6.52E-03,1.28E-02
131246,6.52E-03,1.31E-02
131247,6.52E-03,1.33E-02
131248,6.52E-03,1.35E-02
131249,6.52E-03,1.37E-02
131250,6.52E-03,1.39E-02
131251,6.52E-03,1.41E-02
131252,6.51E-03,1.44E-02
131253,6.51E-03,1.46E-02
131254,6.51E-03,1.48E-02
131255,6.51E-03,1.50E-02
131256,6.51E-03,1.52E-02
131257,6.51E-03,1.54E-02
131258,6.51E-03,1.56E-02
131259,6.51E-03,1.59E-02
131260,6.51E-03,1.61E-02
131261,6.51E-03,1.63E-02
131262,6.51E-03,1.65E-02
131263,6.51E-03,1.67E-02
131264,6.51E-03,1.69E-02
131265,6.51E-03,1.71E-02
131266,6.50E-03,1.73E-02
131267,6.50E-03,1.75E-02
131268,6.50E-03,1.78E-02
131269,6.50E-03,1.80E-02
131270,6.50E-03,1.82E-02
131271,6.50E-03,1.84E-02
131272,6.50E-03,1.86E-02
131273,6.50E-03,1.88E-02
131274,6.50E-03,1.90E-02
131275,6.50E-03,1.92E-02
131276,6.50E-03,1.94E-02
131277,6.50E-03,1.96E-02
131278,6.50E-03,1.98E-02
131279,6.50E-03,2.00E-02
131280,6.49E-03,2.02E-02
131281,6.49E-03,2.04E-02
131282,6.49E-03,2.06E-02
131283,6.49E-03,2.08E-02
131284,6.49E-03,2.10E-02
131285,6.49E-03,2.12E-02
131286,6.49E-03,2.14E-02
131287,6.49E-03,2.16E-02
131288,6.49E-03,2.18E-02
131289,6.49E-03,2.20E-02
131290,6.49E-03,2.22E-02
131291,6.49E-03,2.24E-02
131292,6.49E-03,2.26E-02
131293,6.48E-03,2.28E-02
131294,6.48E-03,2.30E-02
131295,6.48E-03,2.32E-02
131296,6.48E-03,2.34E-02
131297,6.48E-03,2.36E-02
131298,6.48E-03,2.37E-02
131299,6.48E-03,2.39E-02
131300,6.48E-03,2.41E-02
131301,6.48E-03,2.43E-02
131302,6.48E-03,2.45E-02
131303,6.48E-03,2.47E-02
131304,6.53E-03,1.07E-02
131305,6.53E-03,1.09E-02
131306,6.53E-03,1.11E-02
131307,6.52E-03,1.13E-02
131308,6.52E-03,1.15E-02
131309,6.52E-03,1.18E-02
131310,6.52E-03,1.20E-02
131311,6.52E-03,1.22E-02
131312,6.52E-03,1.24E-02
131313,6.52E-03,1.26E-02
131314,6.52E-03,1.28E-02
131315,6.52E-03,1.31E-02
131316,6.52E-03,1.33E-02
131317,6.52E-03,1.35E-02
131318,6.52E-03,1.37E-02
131319,6.52E-03,1.39E-02
131320,6.52E-03,1.41E-02
131321,6.51E-03,1.44E-02
131322,6.51E-03,1.46E-02
131323,6.51E-03,1.48E-02
131324,6.51E-03,1.50E-02
131325,6.51E-03,1.52E-02
131326,6.51E-03,1.54E-02
131327,6.51E-03,1.56E-02
131328,6.51E-03,1.59E-02
131329,6.51E-03,1.61E-02
131330,6.51E-03,1.63E-02
131331,6.51E-03,1.65E-02
131332,6.51E-03,1.67E-02
131333,6.51E-03,1.69E-02
131334,6.51E-03,1.71E-02
131335,6.50E-03,1.73E-02
131336,6.50E-03,1.75E-02
131337,6.50E-03,1.78E-02
131338,6.50E-03,1.80E-02
131339,6.50E-03,1.82E-02
131340,6.50E-03,1.84E-02
131341,6.50E-03,1.86E-02
131342,6.50E-03,1.88E-02
131343,6.50E-03,1.90E-02
131344,6.50E-03,1.92E-02
131345,6.50E-03,1.94E-02
131346,6.50E-03,1.96E-02
131347,6.50E-03,1.98E-02
131348,6.50E-03,2.00E-02
131349,6.49E-03,2.02E-02
131350,6.49E-03,2.04E-02
131351,6.49E-03,2.06E-02
131352,6.49E-03,2.08E-02
131353,6.49E-03,2.10E-02
131354,6.49E-03,2.12E-02
131355,6.49E-03,2.14E-02
131356,6.49E-03,2.16E-02
131357,6.49E-03,2.18E-02
131358,6.49E-03,2.20E-02
131359,6.49E-03,2.22E-02
131360,6.49E-03,2.24E-02
131361,6.49E-03,2.26E-02
131362,6.48E-03,2.28E-02
131363,6.48E-03,2.30E-02
131364,6.48E-03,2.31E-02
131365,6.48E-03,2.33E-02
131366,6.48E-03,2.35E-02
131367,6.48E-03,2.37E-02
131368,6.48E-03,2.39E-02
131369,6.48E-03,2.41E-02
131370,6.48E-03,2.43E-02
131371,6.48E-03,2.45E-02
131372,6.48E-03,2.47E-02
131373,6.53E-03,1.07E-02
131374,6.53E-03,1.09E-02
131375,6.53E-03,1.11E-02
131376,6.52E-03,1.13E-02
131377,6.52E-03,1.15E-02
131378,6.52E-03,1.18E-02
131379,6.52E-03,1.20E-02
131380,6.52E-03,1.22E-02
131381,6.52E-03,1.24E-02
131382,6.52E-03,1.26E-02
131383,6.52E-03,1.29E-02
131384,6.52E-03,1.31E-02
131385,6.52E-03,1.33E-02
131386,6.52E-03,1.35E-02
131387,6.52E-03,1.37E-02
131388,6.52E-03,1.39E-02
131389,6.52E-03,1.41E-02
131390,6.51E-03,1.44E-02
131391,6.51E-03,1.46E-02
131392,6.51E-03,1.48E-02
131393,6.51E-03,1.50E-02
131394,6.51E-03,1.52E-02
131395,6.51E-03,1.54E-02
131396,6.51E-03,1.56E-02
131397,6.51E-03,1.59E-02
131398,6.51E-03,1.61E-02
131399,6.51E-03,1.63E-02
131400,6.51E-03,1.65E-02
131401,6.51E-03,1.67E-02
131402,6.51E-03,1.69E-02
131403,6.51E-03,1.71E-02
131404,6.50E-03,1.73E-02
131405,6.50E-03,1.75E-02
131406,6.50E-03,1.78E-02
131407,6.50E-03,1.80E-02
131408,6.50E-03,1.82E-02
131409,6.50E-03,1.84E-02
131410,6.50E-03,1.86E-02
131411,6.50E-03,1.88E-02
131412,6.50E-03,1.90E-02
131413,6.50E-03,1.92E-02
131414,6.50E-03,1.94E-02
131415,6.50E-03,1.96E-02
131416,6.50E-03,1.98E-02
131417,6.50E-03,2.00E-02
131418,6.49E-03,2.02E-02
131419,6.49E-03,2.04E-02
131420,6.49E-03,2.06E-02
131421,6.49E-03,2.08E-02
131422,6.49E-03,2.10E-02
131423,6.49E-03,2.12E-02
131424,6.49E-03,2.14E-02
131425,6.49E-03,2.16E-02
131426,6.49E-03,2.18E-02
131427,6.49E-03,2.20E-02
131428,6.49E-03,2.22E-02
131429,6.49E-03,2.24E-02
131430,6.49E-03,2.26E-02
131431,6.48E-03,2.27E-02
131432,6.48E-03,2.29E-02
131433,6.48E-03,2.31E-02
131434,6.48E-03,2.33E-02
131435,6.48E-03,2.35E-02
131436,6.48E-03,2.37E-02
131437,6.48E-03,2.39E-02
131438,6.48E-03,2.41E-02
131439,6.48E-03,2.43E-02
131440,6.48E-03,2.45E-02
131441,6.48E-03,2.48E-02
131442,6.53E-03,1.07E-02
131443,6.53E-03,1.09E-02
131444,6.53E-03,1.11E-02
131445,6.52E-03,1.13E-02
131446,6.52E-03,1.16E-02
131447,6.52E-03,1.18E-02
131448,6.52E-03,1.20E-02
131449,6.52E-03,1.22E-02
131450,6.52E-03,1.24E-02
131451,6.52E-03,1.26E-02
131452,6.52E-03,1.29E-02
131453,6.52E-03,1.31E-02
131454,6.52E-03,1.33E-02
131455,6.52E-03,1.35E-02
131456,6.52E-03,1.37E-02
131457,6.52E-03,1.39E-02
131458,6.52E-03,1.42E-02
131459,6.51E-03,1.44E-02
131460,6.51E-03,1.46E-02
131461,6.51E-03,1.48E-02
131462,6.51E-03,1.50E-02
131463,6.51E-03,1.52E-02
131464,6.51E-03,1.54E-02
131465,6.51E-03,1.57E-02
131466,6.51E-03,1.59E-02
131467,6.51E-03,1.61E-02
131468,6.51E-03,1.63E-02
131469,6.51E-03,1.65E-02
131470,6.51E-03,1.67E-02
131471,6.51E-03,1.69E-02
131472,6.51E-03,1.71E-02
131473,6.50E-03,1.73E-02
131474,6.50E-03,1.75E-02
131475,6.50E-03,1.78E-02
131476,6.50E-03,1.80E-02
131477,6.50E-03,1.82E-02
131478,6.50E-03,1.84E-02
131479,6.50E-03,1.86E-02
131480,6.50E-03,1.88E-02
131481,6.50E-03,1.90E-02
131482,6.50E-03,1.92E-02
131483,6.50E-03,1.94E-02
131484,6.50E-03,1.96E-02
131485,6.50E-03,1.98E-02
131486,6.50E-03,2.00E-02
131487,6.49E-03,2.02E-02
131488,6.49E-03,2.04E-02
131489,6.49E-03,2.06E-02
131490,6.49E-03,2.08E-02
131491,6.49E-03,2.10E-02
131492,6.49E-03,2.12E-02
131493,6.49E-03,2.14E-02
131494,6.49E-03,2.16E-02
131495,6.49E-03,2.18E-02
131496,6.49E-03,2.20E-02
131497,6.49E-03,2.22E-02
131498,6.49E-03,2.24E-02
131499,6.49E-03,2.25E-02
131500,6.48E-03,2.27E-02
131501,6.48E-03,2.29E-02
131502,6.48E-03,2.31E-02
131503,6.48E-03,2.33E-02
131504,6.48E-03,2.35E-02
131505,6.48E-03,2.37E-02
131506,6.48E-03,2.39E-02
131507,6.48E-03,2.41E-02
131508,6.48E-03,2.43E-02
131509,6.48E-03,2.45E-02
131510,6.48E-03,2.48E-02
131511,6.53E-03,1.07E-02
131512,6.53E-03,1.09E-02
131513,6.53E-03,1.11E-02
131514,6.52E-03,1.13E-02
131515,6.52E-03,1.16E-02
131516,6.52E-03,1.18E-02
131517,6.52E-03,1.20E-02
131518,6.52E-03,1.22E-02
131519,6.52E-03,1.24E-02
131520,6.52E-03,1.26E-02
131521,6.52E-03,1.29E-02
131522,6.52E-03,1.31E-02
131523,6.52E-03,1.33E-02
131524,6.52E-03,1.35E-02
131525,6.52E-03,1.37E-02
131526,6.52E-03,1.39E-02
131527,6.52E-03,1.42E-02
131528,6.51E-03,1.44E-02
131529,6.51E-03,1.46E-02
131530,6.51E-03,1.48E-02
131531,6.51E-03,1.50E-02
131532,6.51E-03,1.52E-02
131533,6.51E-03,1.54E-02
131534,6.51E-03,1.57E-02
131535,6.51E-03,1.59E-02
131536,6.51E-03,1.61E-02
131537,6.51E-03,1.63E-02
131538,6.51E-03,1.65E-02
131539,6.51E-03,1.67E-02
131540,6.51E-03,1.69E-02
131541,6.51E-03,1.71E-02
131542,6.50E-03,1.73E-02
131543,6.50E-03,1.75E-02
131544,6.50E-03,1.78E-02
131545,6.50E-03,1.80E-02
131546,6.50E-03,1.82E-02
131547,6.50E-03,1.84E-02
131548,6.50E-03,1.86E-02
131549,6.50E-03,1.88E-02
131550,6.50E-03,1.90E-02
131551,6.50E-03,1.92E-02
131552,6.50E-03,1.94E-02
131553,6.50E-03,1.96E-02
131554,6.50E-03,1.98E-02
131555,6.50E-03,2.00E-02
131556,6.49E-03,2.02E-02
131557,6.49E-03,2.04E-02
131558,6.49E-03,2.06E-02
131559,6.49E-03,2.08E-02
131560,6.49E-03,2.10E-02
131561,6.49E-03,2.12E-02
131562,6.49E-03,2.14E-02
131563,6.49E-03,2.16E-02
131564,6.49E-03,2.18E-02
131565,6.49E-03,2.20E-02
131566,6.49E-03,2.22E-02
131567,6.49E-03,2.23E-02
131568,6.49E-03,2.25E-02
131569,6.48E-03,2.27E-02
131570,6.48E-03,2.29E-02
131571,6.48E-03,2.31E-02
131572,6.48E-03,2.33E-02
131573,6.48E-03,2.35E-02
131574,6.48E-03,2.37E-02
131575,6.48E-03,2.39E-02
131576,6.48E-03,2.41E-02
131577,6.48E-03,2.43E-02
131578,6.48E-03,2.46E-02
131579,6.48E-03,2.48E-02
131580,6.53E-03,1.07E-02
131581,6.53E-03,1.09E-02
131582,6.53E-03,1.11E-02
131583,6.52E-03,1.13E-02
131584,6.52E-03,1.16E-02
131585,6.52E-03,1.18E-02
131586,6.52E-03,1.20E-02
131587,6.52E-03,1.22E-02
131588,6.52E-03,1.24E-02
131589,6.52E-03,1.26E-02
131590,6.52E-03,1.29E-02
131591,6.52E-03,1.31E-02
131592,6.52E-03,1.33E-02
131593,6.52E-03,1.35E-02
131594,6.52E-03,1.37E-02
131595,6.52E-03,1.39E-02
131596,6.52E-03,1.42E-02
131597,6.51E-03,1.44E-02
131598,6.51E-03,1.46E-02
131599,6.51E-03,1.48E-02
131600,6.51E-03,1.50E-02
131601,6.51E-03,1.52E-02
131602,6.51E-03,1.54E-02
131603,6.51E-03,1.57E-02
131604,6.51E-03,1.59E-02
131605,6.51E-03,1.61E-02
131606,6.51E-03,1.63E-02
131607,6.51E-03,1.65E-02
131608,6.51E-03,1.67E-02
131609,6.51E-03,1.69E-02
131610,6.51E-03,1.71E-02
131611,6.50E-03,1.73E-02
131612,6.50E-03,1.75E-02
131613,6.50E-03,1.78E-02
131614,6.50E-03,1.80E-02
131615,6.50E-03,1.82E-02
131616,6.50E-03,1.84E-02
131617,6.50E-03,1.86E-02
131618,6.50E-03,1.88E-02
131619,6.50E-03,1.90E-02
131620,6.50E-03,1.92E-02
131621,6.50E-03,1.94E-02
131622,6.50E-03,1.96E-02
131623,6.50E-03,1.98E-02
131624,6.50E-03,2.00E-02
131625,6.49E-03,2.02E-02
131626,6.49E-03,2.04E-02
131627,6.49E-03,2.06E-02
131628,6.49E-03,2.08E-02
131629,6.49E-03,2.10E-02
131630,6.49E-03,2.12E-02
131631,6.49E-03,2.14E-02
131632,6.49E-03,2.16E-02
131633,6.49E-03,2.18E-02
131634,6.49E-03,2.20E-02
131635,6.49E-03,2.21E-02
131636,6.49E-03,2.23E-02
131637,6.49E-03,2.25E-02
131638,6.48E-03,2.27E-02
131639,6.48E-03,2.29E-02
131640,6.48E-03,2.31E-02
131641,6.48E-03,2.33E-02
131642,6.48E-03,2.35E-02
131643,6.48E-03,2.37E-02
131644,6.48E-03,2.39E-02
131645,6.48E-03,2.41E-02
131646,6.48E-03,2.43E-02
131647,6.48E-03,2.46E-02
131648,6.48E-03,2.49E-02
131649,6.53E-03,1.07E-02
131650,6.53E-03,1.09E-02
131651,6.53E-03,1.11E-02
131652,6.52E-03,1.13E-02
131653,6.52E-03,1.16E-02
131654,6.52E-03,1.18E-02
131655,6.52E-03,1.20E-02
131656,6.52E-03,1.22E-02
131657,6.52E-03,1.24E-02
131658,6.52E-03,1.27E-02
131659,6.52E-03,1.29E-02
131660,6.52E-03,1.31E-02
131661,6.52E-03,1.33E-02
131662,6.52E-03,1.35E-02
131663,6.52E-03,1.37E-02
131664,6.52E-03,1.39E-02
131665,6.52E-03,1.42E-02
131666,6.51E-03,1.44E-02
131667,6.51E-03,1.46E-02
131668,6.51E-03,1.48E-02
131669,6.51E-03,1.50E-02
131670,6.51E-03,1.52E-02
131671,6.51E-03,1.54E-02
131672,6.51E-03,1.57E-02
131673,6.51E-03,1.59E-02
131674,6.51E-03,1.61E-02
131675,6.51E-03,1.63E-02
131676,6.51E-03,1.65E-02
131677,6.51E-03,1.67E-02
131678,6.51E-03,1.69E-02
131679,6.51E-03,1.71E-02
131680,6.50E-03,1.73E-02
131681,6.50E-03,1.75E-02
131682,6.50E-03,1.78E-02
131683,6.50E-03,1.80E-02
131684,6.50E-03,1.82E-02
131685,6.50E-03,1.84E-02
131686,6.50E-03,1.86E-02
131687,6.50E-03,1.88E-02
131688,6.50E-03,1.90E-02
131689,6.50E-03,1.92E-02
131690,6.50E-03,1.94E-02
131691,6.50E-03,1.96E-02
131692,6.50E-03,1.98E-02
131693,6.50E-03,2.00E-02
131694,6.49E-03,2.02E-02
131695,6.49E-03,2.04E-02
131696,6.49E-03,2.06E-02
131697,6.49E-03,2.08E-02
131698,6.49E-03,2.10E-02
131699,6.49E-03,2.12E-02
131700,6.49E-03,2.14E-02
131701,6.49E-03,2.16E-02
131702,6.49E-03,2.18E-02
131703,6.49E-03,2.19E-02
131704,6.49E-03,2.21E-02
131705,6.49E-03,2.23E-02
131706,6.49E-03,2.25E-02
131707,6.48E-03,2.27E-02
131708,6.48E-03,2.29E-02
131709,6.48E-03,2.31E-02
131710,6.48E-03,2.33E-02
131711,6.48E-03,2.35E-02
131712,6.48E-03,2.37E-02
131713,6.48E-03,2.39E-02
131714,6.48E-03,2.41E-02
131715,6.48E-03,2.44E-02
131716,6.48E-03,2.46E-02
131717,6.48E-03,2.49E-02
131718,6.53E-03,1.07E-02
131719,6.53E-03,1.09E-02
131720,6.53E-03,1.11E-02
131721,6.52E-03,1.14E-02
131722,6.52E-03,1.16E-02
131723,6.52E-03,1.18E-02
131724,6.52E-03,1.20E-02
131725,6.52E-03,1.22E-02
131726,6.52E-03,1.24E-02
131727,6.52E-03,1.27E-02
131728,6.52E-03,1.29E-02
131729,6.52E-03,1.31E-02
131730,6.52E-03,1.33E-02
131731,6.52E-03,1.35E-02
131732,6.52E-03,1.37E-02
131733,6.52E-03,1.40E-02
131734,6.52E-03,1.42E-02
131735,6.51E-03,1.44E-02
131736,6.51E-03,1.46E-02
131737,6.51E-03,1.48E-02
131738,6.51E-03,1.50E-02
131739,6.51E-03,1.52E-02
131740,6.51E-03,1.54E-02
131741,6.51E-03,1.57E-02
131742,6.51E-03,1.59E-02
131743,6.51E-03,1.61E-02
131744,6.51E-03,1.63E-02
131745,6.51E-03,1.65E-02
131746,6.51E-03,1.67E-02
131747,6.51E-03,1.69E-02
131748,6.51E-03,1.71E-02
131749,6.50E-03,1.73E-02
131750,6.50E-03,1.75E-02
131751,6.50E-03,1.78E-02
131752,6.50E-03,1.80E-02
131753,6.50E-03,1.82E-02
131754,6.50E-03,1.84E-02
131755,6.50E-03,1.86E-02
131756,6.50E-03,1.88E-02
131757,6.50E-03,1.90E-02
131758,6.50E-03,1.92E-02
131759,6.50E-03,1.94E-02
131760,6.50E-03,1.96E-02
131761,6.50E-03,1.98E-02
131762,6.50E-03,2.00E-02
131763,6.49E-03,2.02E-02
131764,6.49E-03,2.04E-02
131765,6.49E-03,2.06E-02
131766,6.49E-03,2.08E-02
131767,6.49E-03,2.10E-02
131768,6.49E-03,2.12E-02
131769,6.49E-03,2.14E-02
131770,6.49E-03,2.16E-02
131771,6.49E-03,2.18E-02
131772,6.49E-03,2.19E-02
131773,6.49E-03,2.21E-02
131774,6.49E-03,2.23E-02
131775,6.49E-03,2.25E-02
131776,6.48E-03,2.27E-02
131777,6.48E-03,2.29E-02
131778,6.48E-03,2.31E-02
131779,6.48E-03,2.33E-02
131780,6.48E-03,2.35E-02
131781,6.48E-03,2.37E-02
131782,6.48E-03,2.39E-02
131783,6.48E-03,2.41E-02
131784,6.48E-03,2.44E-02
131785,6.48E-03,2.46E-02
131786,6.48E-03,2.49E-02
131787,6.53E-03,1.07E-02
131788,6.53E-03,1.09E-02
131789,6.53E-03,1.11E-02
131790,6.52E-03,1.14E-02
131791,6.52E-03,1.16E-02
131792,6.52E-03,1.18E-02
131793,6.52E-03,1.20E-02
131794,6.52E-03,1.22E-02
131795,6.52E-03,1.24E-02
131796,6.52E-03,1.27E-02
131797,6.52E-03,1.29E-02
131798,6.52E-03,1.31E-02
131799,6.52E-03,1.33E-02
131800,6.52E-03,1.35E-02
131801,6.52E-03,1.37E-02
131802,6.52E-03,1.40E-02
131803,6.52E-03,1.42E-02
131804,6.51E-03,1.44E-02
131805,6.51E-03,1.46E-02
131806,6.51E-03,1.48E-02
131807,6.51E-03,1.50E-02
131808,6.51E-03,1.52E-02
131809,6.51E-03,1.54E-02
131810,6.51E-03,1.57E-02
131811,6.51E-03,1.59E-02
131812,6.51E-03,1.61E-02
131813,6.51E-03,1.63E-02
131814,6.51E-03,1.65E-02
131815,6.51E-03,1.67E-02
131816,6.51E-03,1.69E-02
131817,6.51E-03,1.71E-02
131818,6.50E-03,1.73E-02
131819,6.50E-03,1.75E-02
131820,6.50E-03,1.78E-02
131821,6.50E-03,1.80E-02
131822,6.50E-03,1.82E-02
131823,6.50E-03,1.84E-02
131824,6.50E-03,1.86E-02
131825,6.50E-03,1.88E-02
131826,6.50E-03,1.90E-02
131827,6.50E-03,1.92E-02
131828,6.50E-03,1.94E-02
131829,6.50E-03,1.96E-02
131830,6.50E-03,1.98E-02
131831,6.50E-03,2.00E-02
131832,6.49E-03,2.02E-02
131833,6.49E-03,2.04E-02
131834,6.49E-03,2.06E-02
131835,6.49E-03,2.08E-02
131836,6.49E-03,2.10E-02
131837,6.49E-03,2.12E-02
131838,6.49E-03,2.14E-02
131839,6.49E-03,2.16E-02
131840,6.49E-03,2.17E-02
131841,6.49E-03,2.19E-02
131842,6.49E-03,2.21E-02
131843,6.49E-03,2.23E-02
131844,6.49E-03,2.25E-02
131845,6.48E-03,2.27E-02
131846,6.48E-03,2.29E-02
131847,6.48E-03,2.31E-02
131848,6.48E-03,2.33E-02
131849,6.48E-03,2.35E-02
131850,6.48E-03,2.37E-02
131851,6.48E-03,2.39E-02
131852,6.48E-03,2.42E-02
131853,6.48E-03,2.44E-02
131854,6.48E-03,2.46E-02
131855,6.48E-03,2.49E-02
131856,6.53E-03,1.07E-02
131857,6.53E-03,1.09E-02
131858,6.53E-03,1.12E-02
131859,6.52E-03,1.14E-02
131860,6.52E-03,1.16E-02
131861,6.52E-03,1.18E-02
131862,6.52E-03,1.20E-02
131863,6.52E-03,1.22E-02
131864,6.52E-03,1.25E-02
131865,6.52E-03,1.27E-02
131866,6.52E-03,1.29E-02
131867,6.52E-03,1.31E-02
131868,6.52E-03,1.33E-02
131869,6.52E-03,1.35E-02
131870,6.52E-03,1.37E-02
131871,6.52E-03,1.40E-02
131872,6.52E-03,1.42E-02
131873,6.51E-03,1.44E-02
131874,6.51E-03,1.46E-02
131875,6.51E-03,1.48E-02
131876,6.51E-03,1.50E-02
131877,6.51E-03,1.52E-02
131878,6.51E-03,1.55E-02
131879,6.51E-03,1.57E-02
131880,6.51E-03,1.59E-02
131881,6.51E-03,1.61E-02
131882,6.51E-03,1.63E-02
131883,6.51E-03,1.65E-02
131884,6.51E-03,1.67E-02
131885,6.51E-03,1.69E-02
131886,6.51E-03,1.71E-02
131887,6.50E-03,1.73E-02
131888,6.50E-03,1.75E-02
131889,6.50E-03,1.78E-02
131890,6.50E-03,1.80E-02
131891,6.50E-03,1.82E-02
131892,6.50E-03,1.84E-02
131893,6.50E-03,1.86E-02
131894,6.50E-03,1.88E-02
131895,6.50E-03,1.90E-02
131896,6.50E-03,1.92E-02
131897,6.50E-03,1.94E-02
131898,6.50E-03,1.96E-02
131899,6.50E-03,1.98E-02
131900,6.50E-03,2.00E-02
131901,6.49E-03,2.02E-02
131902,6.49E-03,2.04E-02
131903,6.49E-03,2.06E-02
131904,6.49E-03,2.08E-02
131905,6.49E-03,2.10E-02
131906,6.49E-03,2.12E-02
131907,6.49E-03,2.14E-02
131908,6.49E-03,2.16E-02
131909,6.49E-03,2.17E-02
131910,6.49E-03,2.19E-02
131911,6.49E-03,2.21E-02
131912,6.49E-03,2.23E-02
131913,6.49E-03,2.25E-02
131914,6.48E-03,2.27E-02
131915,6.48E-03,2.29E-02
131916,6.48E-03,2.31E-02
131917,6.48E-03,2.33E-02
131918,6.48E-03,2.35E-02
131919,6.48E-03,2.37E-02
131920,6.48E-03,2.39E-02
131921,6.48E-03,2.42E-02
131922,6.48E-03,2.44E-02
131923,6.48E-03,2.47E-02
131924,6.48E-03,2.49E-02
131925,6.53E-03,1.07E-02
131926,6.53E-03,1.09E-02
131927,6.53E-03,1.12E-02
131928,6.52E-03,1.14E-02
131929,6.52E-03,1.16E-02
131930,6.52E-03,1.18E-02
131931,6.52E-03,1.20E-02
131932,6.52E-03,1.22E-02
131933,6.52E-03,1.25E-02
131934,6.52E-03,1.27E-02
131935,6.52E-03,1.29E-02
131936,6.52E-03,1.31E-02
131937,6.52E-03,1.33E-02
131938,6.52E-03,1.35E-02
131939,6.52E-03,1.37E-02
131940,6.52E-03,1.40E-02
131941,6.52E-03,1.42E-02
131942,6.51E-03,1.44E-02
131943,6.51E-03,1.46E-02
131944,6.51E-03,1.48E-02
131945,6.51E-03,1.50E-02
131946,6.51E-03,1.52E-02
131947,6.51E-03,1.55E-02
131948,6.51E-03,1.57E-02
131949,6.51E-03,1.59E-02
131950,6.51E-03,1.61E-02
131951,6.51E-03,1.63E-02
131952,6.51E-03,1.65E-02
131953,6.51E-03,1.67E-02
131954,6.51E-03,1.69E-02
131955,6.51E-03,1.71E-02
131956,6.50E-03,1.73E-02
131957,6.50E-03,1.75E-02
131958,6.50E-03,1.78E-02
131959,6.50E-03,1.80E-02
131960,6.50E-03,1.82E-02
131961,6.50E-03,1.84E-02
131962,6.50E-03,1.86E-02
131963,6.50E-03,1.88E-02
131964,6.50E-03,1.90E-02
131965,6.50E-03,1.92E-02
131966,6.50E-03,1.94E-02
131967,6.50E-03,1.96E-02
131968,6.50E-03,1.98E-02
131969,6.50E-03,2.00E-02
131970,6.49E-03,2.02E-02
131971,6.49E-03,2.04E-02
131972,6.49E-03,2.06E-02
131973,6.49E-03,2.08E-02
131974,6.49E-03,2.10E-02
131975,6.49E-03,2.12E-02
131976,6.49E-03,2.14E-02
131977,6.49E-03,2.16E-02
131978,6.49E-03,2.17E-02
131979,6.49E-03,2.19E-02
131980,6.49E-03,2.21E-02
131981,6.49E-03,2.23E-02
131982,6.49E-03,2.25E-02
131983,6.48E-03,2.27E-02
131984,6.48E-03,2.29E-02
131985,6.48E-03,2.31E-02
131986,6.48E-03,2.33E-02
131987,6.48E-03,2.35E-02
131988,6.48E-03,2.37E-02
131989,6.48E-03,2.39E-02
131990,6.48E-03,2.42E-02
131991,6.48E-03,2.44E-02
131992,6.48E-03,2.47E-02
131993,6.48E-03,2.49E-02
131994,6.53E-03,1.07E-02
131995,6.53E-03,1.09E-02
131996,6.53E-03,1.12E-02
131997,6.52E-03,1.14E-02
131998,6.52E-03,1.16E-02
131999,6.52E-03,1.18E-02
132000,6.52E-03,1.20E-02
132001,6.52E-03,1.22E-02
132002,6.52E-03,1.25E-02
132003,6.52E-03,1.27E-02
132004,6.52E-03,1.29E-02
132005,6.52E-03,1.31E-02
132006,6.52E-03,1.33E-02
132007,6.52E-03,1.35E-02
132008,6.52E-03,1.38E-02
132009,6.52E-03,1.40E-02
132010,6.52E-03,1.42E-02
132011,6.51E-03,1.44E-02
132012,6.51E-03,1.46E-02
132013,6.51E-03,1.48E-02
132014,6.51E-03,1.50E-02
132015,6.51E-03,1.52E-02
132016,6.51E-03,1.55E-02
132017,6.51E-03,1.57E-02
132018,6.51E-03,1.59E-02
132019,6.51E-03,1.61E-02
132020,6.51E-03,1.63E-02
132021,6.51E-03,1.65E-02
132022,6.51E-03,1.67E-02
132023,6.51E-03,1.69E-02
132024,6.51E-03,1.71E-02
132025,6.50E-03,1.73E-02
132026,6.50E-03,1.76E-02
132027,6.50E-03,1.78E-02
132028,6.50E-03,1.80E-02
132029,6.50E-03,1.82E-02
132030,6.50E-03,1.84E-02
132031,6.50E-03,1.86E-02
132032,6.50E-03,1.88E-02
132033,6.50E-03,1.90E-02
132034,6.50E-03,1.92E-02
132035,6.50E-03,1.94E-02
132036,6.50E-03,1.96E-02
132037,6.50E-03,1.98E-02
132038,6.50E-03,2.00E-02
132039,6.49E-03,2.02E-02
132040,6.49E-03,2.04E-02
132041,6.49E-03,2.06E-02
132042,6.49E-03,2.08E-02
132043,6.49E-03,2.10E-02
132044,6.49E-03,2.12E-02
132045,6.49E-03,2.14E-02
132046,6.49E-03,2.16E-02
132047,6.49E-03,2.18E-02
132048,6.49E-03,2.19E-02
132049,6.49E-03,2.21E-02
132050,6.49E-03,2.23E-02
132051,6.49E-03,2.25E-02
132052,6.48E-03,2.27E-02
132053,6.48E-03,2.29E-02
132054,6.48E-03,2.31E-02
132055,6.48E-03,2.33E-02
132056,6.48E-03,2.35E-02
132057,6.48E-03,2.37E-02
132058,6.48E-03,2.40E-02
132059,6.48E-03,2.42E-02
132060,6.48E-03,2.44E-02
132061,6.48E-03,2.47E-02
132062,6.48E-03,2.49E-02
132063,6.53E-03,1.07E-02
132064,6.53E-03,1.10E-02
132065,6.53E-03,1.12E-02
132066,6.52E-03,1.14E-02
132067,6.52E-03,1.16E-02
132068,6.52E-03,1.18E-02
132069,6.52E-03,1.20E-02
132070,6.52E-03,1.23E-02
132071,6.52E-03,1.25E-02
132072,6.52E-03,1.27E-02
132073,6.52E-03,1.29E-02
132074,6.52E-03,1.31E-02
132075,6.52E-03,1.33E-02
132076,6.52E-03,1.35E-02
132077,6.52E-03,1.38E-02
132078,6.52E-03,1.40E-02
132079,6.52E-03,1.42E-02
132080,6.51E-03,1.44E-02
132081,6.51E-03,1.46E-02
132082,6.51E-03,1.48E-02
132083,6.51E-03,1.50E-02
132084,6.51E-03,1.52E-02
132085,6.51E-03,1.55E-02
132086,6.51E-03,1.57E-02
132087,6.51E-03,1.59E-02
132088,6.51E-03,1.61E-02
132089,6.51E-03,1.63E-02
132090,6.51E-03,1.65E-02
132091,6.51E-03,1.67E-02
132092,6.51E-03,1.69E-02
132093,6.51E-03,1.71E-02
132094,6.50E-03,1.73E-02
132095,6.50E-03,1.76E-02
132096,6.50E-03,1.78E-02
132097,6.50E-03,1.80E-02
132098,6.50E-03,1.82E-02
132099,6.50E-03,1.84E-02
132100,6.50E-03,1.86E-02
132101,6.50E-03,1.88E-02
132102,6.50E-03,1.90E-02
132103,6.50E-03,1.92E-02
132104,6.50E-03,1.94E-02
132105,6.50E-03,1.96E-02
132106,6.50E-03,1.98E-02
132107,6.50E-03,2.00E-02
132108,6.49E-03,2.02E-02
132109,6.49E-03,2.04E-02
132110,6.49E-03,2.06E-02
132111,6.49E-03,2.08E-02
132112,6.49E-03,2.10E-02
132113,6.49E-03,2.12E-02
132114,6.49E-03,2.14E-02
132115,6.49E-03,2.16E-02
132116,6.49E-03,2.18E-02
132117,6.49E-03,2.19E-02
132118,6.49E-03,2.21E-02
132119,6.49E-03,2.23E-02
132120,6.49E-03,2.25E-02
132121,6.48E-03,2.27E-02
132122,6.48E-03,2.29E-02
132123,6.48E-03,2.31E-02
132124,6.48E-03,2.33E-02
132125,6.48E-03,2.35E-02
132126,6.48E-03,2.37E-02
132127,6.48E-03,2.40E-02
132128,6.48E-03,2.42E-02
132129,6.48E-03,2.44E-02
132130,6.48E-03,2.47E-02
132131,6.48E-03,2.49E-02
132132,6.53E-03,1.07E-02
132133,6.53E-03,1.10E-02
132134,6.53E-03,1.12E-02
132135,6.52E-03,1.14E-02
132136,6.52E-03,1.16E-02
132137,6.52E-03,1.18E-02
132138,6.52E-03,1.20E-02
132139,6.52E-03,1.23E-02
132140,6.52E-03,1.25E-02
132141,6.52E-03,1.27E-02
132142,6.52E-03,1.29E-02
132143,6.52E-03,1.31E-02
132144,6.52E-03,1.33E-02
132145,6.52E-03,1.35E-02
132146,6.52E-03,1.38E-02
132147,6.52E-03,1.40E-02
132148,6.52E-03,1.42E-02
132149,6.51E-03,1.44E-02
132150,6.51E-03,1.46E-02
132151,6.51E-03,1.48E-02
132152,6.51E-03,1.50E-02
132153,6.51E-03,1.53E-02
132154,6.51E-03,1.55E-02
132155,6.51E-03,1.57E-02
132156,6.51E-03,1.59E-02
132157,6.51E-03,1.61E-02
132158,6.51E-03,1.63E-02
132159,6.51E-03,1.65E-02
132160,6.51E-03,1.67E-02
132161,6.51E-03,1.69E-02
132162,6.51E-03,1.71E-02
132163,6.50E-03,1.73E-02
132164,6.50E-03,1.76E-02
132165,6.50E-03,1.78E-02
132166,6.50E-03,1.80E-02
132167,6.50E-03,1.82E-02
132168,6.50E-03,1.84E-02
132169,6.50E-03,1.86E-02
132170,6.50E-03,1.88E-02
132171,6.50E-03,1.90E-02
132172,6.50E-03,1.92E-02
132173,6.50E-03,1.94E-02
132174,6.50E-03,1.96E-02
132175,6.50E-03,1.98E-02
132176,6.50E-03,2.00E-02
132177,6.49E-03,2.02E-02
132178,6.49E-03,2.04E-02
132179,6.49E-03,2.06E-02
132180,6.49E-03,2.08E-02
132181,6.49E-03,2.10E-02
132182,6.49E-03,2.12E-02
132183,6.49E-03,2.14E-02
132184,6.49E-03,2.16E-02
132185,6.49E-03,2.18E-02
132186,6.49E-03,2.20E-02
132187,6.49E-03,2.21E-02
132188,6.49E-03,2.23E-02
132189,6.49E-03,2.25E-02
132190,6.48E-03,2.27E-02
132191,6.48E-03,2.29E-02
132192,6.48E-03,2.31E-02
132193,6.48E-03,2.33E-02
132194,6.48E-03,2.35E-02
132195,6.48E-03,2.38E-02
132196,6.48E-03,2.40E-02
132197,6.48E-03,2.42E-02
132198,6.48E-03,2.44E-02
132199,6.48E-03,2.47E-02
132200,6.48E-03,2.49E-02
132201,6.53E-03,1.08E-02
132202,6.53E-03,1.10E-02
132203,6.53E-03,1.12E-02
132204,6.52E-03,1.14E-02
132205,6.52E-03,1.16E-02
132206,6.52E-03,1.18E-02
132207,6.52E-03,1.20E-02
132208,6.52E-03,1.23E-02
132209,6.52E-03,1.25E-02
132210,6.52E-03,1.27E-02
132211,6.52E-03,1.29E-02
132212,6.52E-03,1.31E-02
132213,6.52E-03,1.33E-02
132214,6.52E-03,1.36E-02
132215,6.52E-03,1.38E-02
132216,6.52E-03,1.40E-02
132217,6.52E-03,1.42E-02
132218,6.51E-03,1.44E-02
132219,6.51E-03,1.46E-02
132220,6.51E-03,1.48E-02
132221,6.51E-03,1.50E-02
132222,6.51E-03,1.53E-02
132223,6.51E-03,1.55E-02
132224,6.51E-03,1.57E-02
132225,6.51E-03,1.59E-02
132226,6.51E-03,1.61E-02
132227,6.51E-03,1.63E-02
132228,6.51E-03,1.65E-02
132229,6.51E-03,1.67E-02
132230,6.51E-03,1.69E-02
132231,6.51E-03,1.71E-02
132232,6.50E-03,1.73E-02
132233,6.50E-03,1.76E-02
132234,6.50E-03,1.78E-02
132235,6.50E-03,1.80E-02
132236,6.50E-03,1.82E-02
132237,6.50E-03,1.84E-02
132238,6.50E-03,1.86E-02
132239,6.50E-03,1.88E-02
132240,6.50E-03,1.90E-02
132241,6.50E-03,1.92E-02
132242,6.50E-03,1.94E-02
132243,6.50E-03,1.96E-02
132244,6.50E-03,1.98E-02
132245,6.50E-03,2.00E-02
132246,6.49E-03,2.02E-02
132247,6.49E-03,2.04E-02
132248,6.49E-03,2.06E-02
132249,6.49E-03,2.08E-02
132250,6.49E-03,2.10E-02
132251,6.49E-03,2.12E-02
132252,6.49E-03,2.14E-02
132253,6.49E-03,2.16E-02
132254,6.49E-03,2.18E-02
132255,6.49E-03,2.20E-02
132256,6.49E-03,2.22E-02
132257,6.49E-03,2.24E-02
132258,6.49E-03,2.25E-02
132259,6.48E-03,2.27E-02
132260,6.48E-03,2.29E-02
132261,6.48E-03,2.31E-02
132262,6.48E-03,2.33E-02
132263,6.48E-03,2.35E-02
132264,6.48E-03,2.38E-02
132265,6.48E-03,2.40E-02
132266,6.48E-03,2.42E-02
132267,6.48E-03,2.44E-02
132268,6.48E-03,2.46E-02
132269,6.48E-03,2.49E-02
132270,6.53E-03,1.08E-02
132271,6.53E-03,1.10E-02
132272,6.53E-03,1.12E-02
132273,6.52E-03,1.14E-02
132274,6.52E-03,1.16E-02
132275,6.52E-03,1.18E-02
132276,6.52E-03,1.21E-02
132277,6.52E-03,1.23E-02
132278,6.52E-03,1.25E-02
132279,6.52E-03,1.27E-02
132280,6.52E-03,1.29E-02
132281,6.52E-03,1.31E-02
132282,6.52E-03,1.33E-02
132283,6.52E-03,1.36E-02
132284,6.52E-03,1.38E-02
132285,6.52E-03,1.40E-02
132286,6.52E-03,1.42E-02
132287,6.51E-03,1.44E-02
132288,6.51E-03,1.46E-02
132289,6.51E-03,1.48E-02
132290,6.51E-03,1.50E-02
132291,6.51E-03,1.53E-02
132292,6.51E-03,1.55E-02
132293,6.51E-03,1.57E-02
132294,6.51E-03,1.59E-02
132295,6.51E-03,1.61E-02
132296,6.51E-03,1.63E-02
132297,6.51E-03,1.65E-02
132298,6.51E-03,1.67E-02
132299,6.51E-03,1.69E-02
132300,6.51E-03,1.71E-02
132301,6.50E-03,1.74E-02
132302,6.50E-03,1.76E-02
132303,6.50E-03,1.78E-02
132304,6.50E-03,1.80E-02
132305,6.50E-03,1.82E-02
132306,6.50E-03,1.84E-02
132307,6.50E-03,1.86E-02
132308,6.50E-03,1.88E-02
132309,6.50E-03,1.90E-02
132310,6.50E-03,1.92E-02
132311,6.50E-03,1.94E-02
132312,6.50E-03,1.96E-02
132313,6.50E-03,1.98E-02
132314,6.50E-03,2.00E-02
132315,6.49E-03,2.02E-02
132316,6.49E-03,2.04E-02
132317,6.49E-03,2.06E-02
132318,6.49E-03,2.08E-02
132319,6.49E-03,2.10E-02
132320,6.49E-03,2.12E-02
132321,6.49E-03,2.14E-02
132322,6.49E-03,2.16E-02
132323,6.49E-03,2.18E-02
132324,6.49E-03,2.20E-02
132325,6.49E-03,2.22E-02
132326,6.49E-03,2.24E-02
132327,6.49E-03,2.26E-02
132328,6.48E-03,2.28E-02
132329,6.48E-03,2.30E-02
132330,6.48E-03,2.32E-02
132331,6.48E-03,2.34E-02
132332,6.48E-03,2.36E-02
132333,6.48E-03,2.38E-02
132334,6.48E-03,2.40E-02
132335,6.48E-03,2.42E-02
132336,6.48E-03,2.44E-02
132337,6.48E-03,2.46E-02
132338,6.48E-03,2.49E-02
132339,6.53E-03,1.08E-02
132340,6.53E-03,1.10E-02
132341,6.53E-03,1.12E-02
132342,6.52E-03,1.14E-02
132343,6.52E-03,1.16E-02
132344,6.52E-03,1.18E-02
132345,6.52E-03,1.21E-02
132346,6.52E-03,1.23E-02
132347,6.52E-03,1.25E-02
132348,6.52E-03,1.27E-02
132349,6.52E-03,1.29E-02
132350,6.52E-03,1.31E-02
132351,6.52E-03,1.33E-02
132352,6.52E-03,1.36E-02
132353,6.52E-03,1.38E-02
132354,6.52E-03,1.40E-02
132355,6.52E-03,1.42E-02
132356,6.51E-03,1.44E-02
132357,6.51E-03,1.46E-02
132358,6.51E-03,1.48E-02
132359,6.51E-03,1.51E-02
132360,6.51E-03,1.53E-02
132361,6.51E-03,1.55E-02
132362,6.51E-03,1.57E-02
132363,6.51E-03,1.59E-02
132364,6.51E-03,1.61E-02
132365,6.51E-03,1.63E-02
132366,6.51E-03,1.65E-02
132367,6.51E-03,1.67E-02
132368,6.51E-03,1.69E-02
132369,6.51E-03,1.71E-02
132370,6.50E-03,1.74E-02
132371,6.50E-03,1.76E-02
132372,6.50E-03,1.78E-02
132373,6.50E-03,1.80E-02
132374,6.50E-03,1.82E-02
132375,6.50E-03,1.84E-02
132376,6.50E-03,1.86E-02
132377,6.50E-03,1.88E-02
132378,6.50E-03,1.90E-02
132379,6.50E-03,1.92E-02
132380,6.50E-03,1.94E-02
132381,6.50E-03,1.96E-02
132382,6.50E-03,1.98E-02
132383,6.50E-03,2.00E-02
132384,6.49E-03,2.02E-02
132385,6.49E-03,2.04E-02
132386,6.49E-03,2.06E-02
132387,6.49E-03,2.08E-02
132388,6.49E-03,2.10E-02
132389,6.49E-03,2.12E-02
132390,6.49E-03,2.14E-02
132391,6.49E-03,2.16E-02
132392,6.49E-03,2.18E-02
132393,6.49E-03,2.20E-02
132394,6.49E-03,2.22E-02
132395,6.49E-03,2.24E-02
132396,6.49E-03,2.26E-02
132397,6.48E-03,2.28E-02
132398,6.48E-03,2.30E-02
132399,6.48E-03,2.32E-02
132400,6.48E-03,2.34E-02
132401,6.48E-03,2.36E-02
132402,6.48E-03,2.38E-02
132403,6.48E-03,2.40E-02
132404,6.48E-03,2.42E-02
132405,6.48E-03,2.44E-02
132406,6.48E-03,2.46E-02
132407,6.48E-03,2.48E-02
132408,6.53E-03,1.08E-02
132409,6.53E-03,1.10E-02
132410,6.53E-03,1.12E-02
132411,6.52E-03,1.14E-02
132412,6.52E-03,1.16E-02
132413,6.52E-03,1.19E-02
132414,6.52E-03,1.21E-02
132415,6.52E-03,1.23E-02
132416,6.52E-03,1.25E-02
132417,6.52E-03,1.27E-02
132418,6.52E-03,1.29E-02
132419,6.52E-03,1.31E-02
132420,6.52E-03,1.34E-02
132421,6.52E-03,1.36E-02
132422,6.52E-03,1.38E-02
132423,6.52E-03,1.40E-02
132424,6.52E-03,1.42E-02
132425,6.51E-03,1.44E-02
132426,6.51E-03,1.46E-02
132427,6.51E-03,1.48E-02
132428,6.51E-03,1.51E-02
132429,6.51E-03,1.53E-02
132430,6.51E-03,1.55E-02
132431,6.51E-03,1.57E-02
132432,6.51E-03,1.59E-02
132433,6.51E-03,1.61E-02
132434,6.51E-03,1.63E-02
132435,6.51E-03,1.65E-02
132436,6.51E-03,1.67E-02
132437,6.51E-03,1.69E-02
132438,6.51E-03,1.72E-02
132439,6.50E-03,1.74E-02
132440,6.50E-03,1.76E-02
132441,6.50E-03,1.78E-02
132442,6.50E-03,1.80E-02
132443,6.50E-03,1.82E-02
132444,6.50E-03,1.84E-02
132445,6.50E-03,1.86E-02
132446,6.50E-03,1.88E-02
132447,6.50E-03,1.90E-02
132448,6.50E-03,1.92E-02
132449,6.50E-03,1.94E-02
132450,6.50E-03,1.96E-02
132451,6.50E-03,1.98E-02
132452,6.50E-03,2.00E-02
132453,6.49E-03,2.02E-02
132454,6.49E-03,2.04E-02
132455,6.49E-03,2.06E-02
132456,6.49E-03,2.08E-02
132457,6.49E-03,2.10E-02
132458,6.49E-03,2.12E-02
132459,6.49E-03,2.14E-02
132460,6.49E-03,2.16E-02
132461,6.49E-03,2.18E-02
132462,6.49E-03,2.20E-02
132463,6.49E-03,2.22E-02
132464,6.49E-03,2.24E-02
132465,6.49E-03,2.26E-02
132466,6.48E-03,2.28E-02
132467,6.48E-03,2.30E-02
132468,6.48E-03,2.32E-02
132469,6.48E-03,2.34E-02
132470,6.48E-03,2.36E-02
132471,6.48E-03,2.38E-02
132472,6.48E-03,2.40E-02
132473,6.48E-03,2.42E-02
132474,6.48E-03,2.44E-02
132475,6.48E-03,2.46E-02
132476,6.48E-03,2.48E-02
132477,6.53E-03,1.08E-02
132478,6.53E-03,1.10E-02
132479,6.53E-03,1.12E-02
132480,6.52E-03,1.14E-02
132481,6.52E-03,1.16E-02
132482,6.52E-03,1.19E-02
132483,6.52E-03,1.21E-02
132484,6.52E-03,1.23E-02
132485,6.52E-03,1.25E-02
132486,6.52E-03,1.27E-02
132487,6.52E-03,1.29E-02
132488,6.52E-03,1.31E-02
132489,6.52E-03,1.34E-02
132490,6.52E-03,1.36E-02
132491,6.52E-03,1.38E-02
132492,6.52E-03,1.40E-02
132493,6.52E-03,1.42E-02
132494,6.51E-03,1.44E-02
132495,6.51E-03,1.46E-02
132496,6.51E-03,1.48E-02
132497,6.51E-03,1.51E-02
132498,6.51E-03,1.53E-02
132499,6.51E-03,1.55E-02
132500,6.51E-03,1.57E-02
132501,6.51E-03,1.59E-02
132502,6.51E-03,1.61E-02
132503,6.51E-03,1.63E-02
132504,6.51E-03,1.65E-02
132505,6.51E-03,1.67E-02
132506,6.51E-03,1.69E-02
132507,6.51E-03,1.72E-02
132508,6.50E-03,1.74E-02
132509,6.50E-03,1.76E-02
132510,6.50E-03,1.78E-02
132511,6.50E-03,1.80E-02
132512,6.50E-03,1.82E-02
132513,6.50E-03,1.84E-02
132514,6.50E-03,1.86E-02
132515,6.50E-03,1.88E-02
132516,6.50E-03,1.90E-02
132517,6.50E-03,1.92E-02
132518,6.50E-03,1.94E-02
132519,6.50E-03,1.96E-02
132520,6.50E-03,1.98E-02
132521,6.50E-03,2.00E-02
132522,6.49E-03,2.02E-02
132523,6.49E-03,2.04E-02
132524,6.49E-03,2.06E-02
132525,6.49E-03,2.08E-02
132526,6.49E-03,2.10E-02
132527,6.49E-03,2.12E-02
132528,6.49E-03,2.14E-02
132529,6.49E-03,2.16E-02
132530,6.49E-03,2.18E-02
132531,6.49E-03,2.20E-02
132532,6.49E-03,2.22E-02
132533,6.49E-03,2.24E-02
132534,6.49E-03,2.26E-02
132535,6.48E-03,2.28E-02
132536,6.48E-03,2.30E-02
132537,6.48E-03,2.32E-02
132538,6.48E-03,2.34E-02
132539,6.48E-03,2.36E-02
132540,6.48E-03,2.38E-02
132541,6.48E-03,2.40E-02
132542,6.48E-03,2.42E-02
132543,6.48E-03,2.44E-02
132544,6.48E-03,2.46E-02
132545,6.48E-03,2.48E-02
132546,6.53E-03,1.08E-02
132547,6.53E-03,1.10E-02
132548,6.53E-03,1.12E-02
132549,6.52E-03,1.14E-02
132550,6.52E-03,1.16E-02
132551,6.52E-03,1.19E-02
132552,6.52E-03,1.21E-02
132553,6.52E-03,1.23E-02
132554,6.52E-03,1.25E-02
132555,6.52E-03,1.27E-02
132556,6.52E-03,1.29E-02
132557,6.52E-03,1.31E-02
132558,6.52E-03,1.34E-02
132559,6.52E-03,1.36E-02
132560,6.52E-03,1.38E-02
132561,6.52E-03,1.40E-02
132562,6.52E-03,1.42E-02
132563,6.51E-03,1.44E-02
132564,6.51E-03,1.46E-02
132565,6.51E-03,1.49E-02
132566,6.51E-03,1.51E-02
132567,6.51E-03,1.53E-02
132568,6.51E-03,1.55E-02
132569,6.51E-03,1.57E-02
132570,6.51E-03,1.59E-02
132571,6.51E-03,1.61E-02
132572,6.51E-03,1.63E-02
132573,6.51E-03,1.65E-02
132574,6.51E-03,1.67E-02
132575,6.51E-03,1.69E-02
132576,6.51E-03,1.72E-02
132577,6.50E-03,1.74E-02
132578,6.50E-03,1.76E-02
132579,6.50E-03,1.78E-02
132580,6.50E-03,1.80E-02
132581,6.50E-03,1.82E-02
132582,6.50E-03,1.84E-02
132583,6.50E-03,1.86E-02
132584,6.50E-03,1.88E-02
132585,6.50E-03,1.90E-02
132586,6.50E-03,1.92E-02
132587,6.50E-03,1.94E-02
132588,6.50E-03,1.96E-02
132589,6.50E-03,1.98E-02
132590,6.50E-03,2.00E-02
132591,6.49E-03,2.02E-02
132592,6.49E-03,2.04E-02
132593,6.49E-03,2.06E-02
132594,6.49E-03,2.08E-02
132595,6.49E-03,2.10E-02
132596,6.49E-03,2.12E-02
132597,6.49E-03,2.14E-02
132598,6.49E-03,2.16E-02
132599,6.49E-03,2.18E-02
132600,6.49E-03,2.20E-02
132601,6.49E-03,2.22E-02
132602,6.49E-03,2.24E-02
132603,6.49E-03,2.26E-02
132604,6.48E-03,2.28E-02
132605,6.48E-03,2.30E-02
132606,6.48E-03,2.32E-02
132607,6.48E-03,2.34E-02
132608,6.48E-03,2.36E-02
132609,6.48E-03,2.38E-02
132610,6.48E-03,2.40E-02
132611,6.48E-03,2.42E-02
132612,6.48E-03,2.44E-02
132613,6.48E-03,2.46E-02
132614,6.48E-03,2.48E-02
132615,6.53E-03,1.08E-02
132616,6.53E-03,1.10E-02
132617,6.53E-03,1.12E-02
132618,6.52E-03,1.14E-02
132619,6.52E-03,1.17E-02
132620,6.52E-03,1.19E-02
132621,6.52E-03,1.21E-02
132622,6.52E-03,1.23E-02
132623,6.52E-03,1.25E-02
132624,6.52E-03,1.27E-02
132625,6.52E-03,1.29E-02
132626,6.52E-03,1.32E-02
132627,6.52E-03,1.34E-02
132628,6.52E-03,1.36E-02
132629,6.52E-03,1.38E-02
132630,6.52E-03,1.40E-02
132631,6.52E-03,1.42E-02
132632,6.51E-03,1.44E-02
132633,6.51E-03,1.46E-02
132634,6.51E-03,1.49E-02
132635,6.51E-03,1.51E-02
132636,6.51E-03,1.53E-02
132637,6.51E-03,1.55E-02
132638,6.51E-03,1.57E-02
132639,6.51E-03,1.59E-02
132640,6.51E-03,1.61E-02
132641,6.51E-03,1.63E-02
132642,6.51E-03,1.65E-02
132643,6.51E-03,1.67E-02
132644,6.51E-03,1.70E-02
132645,6.51E-03,1.72E-02
132646,6.50E-03,1.74E-02
132647,6.50E-03,1.76E-02
132648,6.50E-03,1.78E-02
132649,6.50E-03,1.80E-02
132650,6.50E-03,1.82E-02
132651,6.50E-03,1.84E-02
132652,6.50E-03,1.86E-02
132653,6.50E-03,1.88E-02
132654,6.50E-03,1.90E-02
132655,6.50E-03,1.92E-02
132656,6.50E-03,1.94E-02
132657,6.50E-03,1.96E-02
132658,6.50E-03,1.98E-02
132659,6.50E-03,2.00E-02
132660,6.49E-03,2.02E-02
132661,6.49E-03,2.04E-02
132662,6.49E-03,2.06E-02
132663,6.49E-03,2.08E-02
132664,6.49E-03,2.10E-02
132665,6.49E-03,2.12E-02
132666,6.49E-03,2.14E-02
132667,6.49E-03,2.16E-02
132668,6.49E-03,2.18E-02
132669,6.49E-03,2.20E-02
132670,6.49E-03,2.22E-02
132671,6.49E-03,2.24E-02
132672,6.49E-03,2.26E-02
132673,6.48E-03,2.28E-02
132674,6.48E-03,2.30E-02
132675,6.48E-03,2.32E-02
132676,6.48E-03,2.34E-02
132677,6.48E-03,2.36E-02
132678,6.48E-03,2.38E-02
132679,6.48E-03,2.40E-02
132680,6.48E-03,2.42E-02
132681,6.48E-03,2.44E-02
132682,6.48E-03,2.45E-02
132683,6.48E-03,2.47E-02
132684,6.53E-03,1.08E-02
132685,6.53E-03,1.10E-02
132686,6.53E-03,1.12E-02
132687,6.52E-03,1.14E-02
132688,6.52E-03,1.17E-02
132689,6.52E-03,1.19E-02
132690,6.52E-03,1.21E-02
132691,6.52E-03,1.23E-02
132692,6.52E-03,1.25E-02
132693,6.52E-03,1.27E-02
132694,6.52E-03,1.29E-02
132695,6.52E-03,1.32E-02
132696,6.52E-03,1.34E-02
132697,6.52E-03,1.36E-02
132698,6.52E-03,1.38E-02
132699,6.52E-03,1.40E-02
132700,6.52E-03,1.42E-02
132701,6.51E-03,1.44E-02
132702,6.51E-03,1.46E-02
132703,6.51E-03,1.49E-02
132704,6.51E-03,1.51E-02
132705,6.51E-03,1.53E-02
132706,6.51E-03,1.55E-02
132707,6.51E-03,1.57E-02
132708,6.51E-03,1.59E-02
132709,6.51E-03,1.61E-02
132710,6.51E-03,1.63E-02
132711,6.51E-03,1.65E-02
132712,6.51E-03,1.67E-02
132713,6.51E-03,1.70E-02
132714,6.51E-03,1.72E-02
132715,6.50E-03,1.74E-02
132716,6.50E-03,1.76E-02
132717,6.50E-03,1.78E-02
132718,6.50E-03,1.80E-02
132719,6.50E-03,1.82E-02
132720,6.50E-03,1.84E-02
132721,6.50E-03,1.86E-02
132722,6.50E-03,1.88E-02
132723,6.50E-03,1.90E-02
132724,6.50E-03,1.92E-02
132725,6.50E-03,1.94E-02
132726,6.50E-03,1.96E-02
132727,6.50E-03,1.98E-02
132728,6.50E-03,2.00E-02
132729,6.49E-03,2.02E-02
132730,6.49E-03,2.04E-02
132731,6.49E-03,2.06E-02
132732,6.49E-03,2.08E-02
132733,6.49E-03,2.10E-02
132734,6.49E-03,2.12E-02
132735,6.49E-03,2.14E-02
132736,6.49E-03,2.16E-02
132737,6.49E-03,2.18E-02
132738,6.49E-03,2.20E-02
132739,6.49E-03,2.22E-02
132740,6.49E-03,2.24E-02
132741,6.49E-03,2.26E-02
132742,6.48E-03,2.28E-02
132743,6.48E-03,2.30E-02
132744,6.48E-03,2.32E-02
132745,6.48E-03,2.34E-02
132746,6.48E-03,2.36E-02
132747,6.48E-03,2.38E-02
132748,6.48E-03,2.40E-02
132749,6.48E-03,2.42E-02
132750,6.48E-03,2.43E-02
132751,6.48E-03,2.45E-02
132752,6.48E-03,2.47E-02
132753,6.53E-03,1.08E-02
132754,6.53E-03,1.10E-02
132755,6.53E-03,1.12E-02
132756,6.52E-03,1.15E-02
132757,6.52E-03,1.17E-02
132758,6.52E-03,1.19E-02
132759,6.52E-03,1.21E-02
132760,6.52E-03,1.23E-02
132761,6.52E-03,1.25E-02
132762,6.52E-03,1.27E-02
132763,6.52E-03,1.30E-02
132764,6.52E-03,1.32E-02
132765,6.52E-03,1.34E-02
132766,6.52E-03,1.36E-02
132767,6.52E-03,1.38E-02
132768,6.52E-03,1.40E-02
132769,6.52E-03,1.42E-02
132770,6.51E-03,1.44E-02
132771,6.51E-03,1.47E-02
132772,6.51E-03,1.49E-02
132773,6.51E-03,1.51E-02
132774,6.51E-03,1.53E-02
132775,6.51E-03,1.55E-02
132776,6.51E-03,1.57E-02
132777,6.51E-03,1.59E-02
132778,6.51E-03,1.61E-02
132779,6.51E-03,1.63E-02
132780,6.51E-03,1.65E-02
132781,6.51E-03,1.68E-02
132782,6.51E-03,1.70E-02
132783,6.51E-03,1.72E-02
132784,6.50E-03,1.74E-02
132785,6.50E-03,1.76E-02
132786,6.50E-03,1.78E-02
132787,6.50E-03,1.80E-02
132788,6.50E-03,1.82E-02
132789,6.50E-03,1.84E-02
132790,6.50E-03,1.86E-02
132791,6.50E-03,1.88E-02
132792,6.50E-03,1.90E-02
132793,6.50E-03,1.92E-02
132794,6.50E-03,1.94E-02
132795,6.50E-03,1.96E-02
132796,6.50E-03,1.98E-02
132797,6.50E-03,2.00E-02
132798,6.49E-03,2.02E-02
132799,6.49E-03,2.04E-02
132800,6.49E-03,2.06E-02
132801,6.49E-03,2.08E-02
132802,6.49E-03,2.10E-02
132803,6.49E-03,2.12E-02
132804,6.49E-03,2.14E-02
132805,6.49E-03,2.16E-02
132806,6.49E-03,2.18E-02
132807,6.49E-03,2.20E-02
132808,6.49E-03,2.22E-02
132809,6.49E-03,2.24E-02
132810,6.49E-03,2.26E-02
132811,6.48E-03,2.28E-02
132812,6.48E-03,2.30E-02
132813,6.48E-03,2.32E-02
132814,6.48E-03,2.34E-02
132815,6.48E-03,2.36E-02
132816,6.48E-03,2.38E-02
132817,6.48E-03,2.40E-02
132818,6.48E-03,2.42E-02
132819,6.48E-03,2.43E-02
132820,6.48E-03,2.45E-02
132821,6.48E-03,2.47E-02
132822,6.53E-03,1.08E-02
132823,6.53E-03,1.10E-02
132824,6.53E-03,1.13E-02
132825,6.52E-03,1.15E-02
132826,6.52E-03,1.17E-02
132827,6.52E-03,1.19E-02
132828,6.52E-03,1.21E-02
132829,6.52E-03,1.23E-02
132830,6.52E-03,1.25E-02
132831,6.52E-03,1.27E-02
132832,6.52E-03,1.30E-02
132833,6.52E-03,1.32E-02
132834,6.52E-03,1.34E-02
132835,6.52E-03,1.36E-02
132836,6.52E-03,1.38E-02
132837,6.52E-03,1.40E-02
132838,6.52E-03,1.42E-02
132839,6.51E-03,1.44E-02
132840,6.51E-03,1.47E-02
132841,6.51E-03,1.49E-02
132842,6.51E-03,1.51E-02
132843,6.51E-03,1.53E-02
132844,6.51E-03,1.55E-02
132845,6.51E-03,1.57E-02
132846,6.51E-03,1.59E-02
132847,6.51E-03,1.61E-02
132848,6.51E-03,1.63E-02
132849,6.51E-03,1.65E-02
132850,6.51E-03,1.68E-02
132851,6.51E-03,1.70E-02
132852,6.51E-03,1.72E-02
132853,6.50E-03,1.74E-02
132854,6.50E-03,1.76E-02
132855,6.50E-03,1.78E-02
132856,6.50E-03,1.80E-02
132857,6.50E-03,1.82E-02
132858,6.50E-03,1.84E-02
132859,6.50E-03,1.86E-02
132860,6.50E-03,1.88E-02
132861,6.50E-03,1.90E-02
132862,6.50E-03,1.92E-02
132863,6.50E-03,1.94E-02
132864,6.50E-03,1.96E-02
132865,6.50E-03,1.98E-02
132866,6.50E-03,2.00E-02
132867,6.49E-03,2.02E-02
132868,6.49E-03,2.04E-02
132869,6.49E-03,2.06E-02
132870,6.49E-03,2.08E-02
132871,6.49E-03,2.10E-02
132872,6.49E-03,2.12E-02
132873,6.49E-03,2.14E-02
132874,6.49E-03,2.16E-02
132875,6.49E-03,2.18E-02
132876,6.49E-03,2.20E-02
132877,6.49E-03,2.22E-02
132878,6.49E-03,2.24E-02
132879,6.49E-03,2.26E-02
132880,6.48E-03,2.28E-02
132881,6.48E-03,2.30E-02
132882,6.48E-03,2.32E-02
132883,6.48E-03,2.34E-02
132884,6.48E-03,2.36E-02
132885,6.48E-03,2.38E-02
132886,6.48E-03,2.40E-02
132887,6.48E-03,2.41E-02
132888,6.48E-03,2.43E-02
132889,6.48E-03,2.45E-02
132890,6.48E-03,2.47E-02
132891,6.53E-03,1.08E-02
132892,6.53E-03,1.10E-02
132893,6.53E-03,1.13E-02
132894,6.52E-03,1.15E-02
132895,6.52E-03,1.17E-02
132896,6.52E-03,1.19E-02
132897,6.52E-03,1.21E-02
132898,6.52E-03,1.23E-02
132899,6.52E-03,1.25E-02
132900,6.52E-03,1.28E-02
132901,6.52E-03,1.30E-02
132902,6.52E-03,1.32E-02
132903,6.52E-03,1.34E-02
132904,6.52E-03,1.36E-02
132905,6.52E-03,1.38E-02
132906,6.52E-03,1.40E-02
132907,6.52E-03,1.42E-02
132908,6.51E-03,1.45E-02
132909,6.51E-03,1.47E-02
132910,6.51E-03,1.49E-02
132911,6.51E-03,1.51E-02
132912,6.51E-03,1.53E-02
132913,6.51E-03,1.55E-02
132914,6.51E-03,1.57E-02
132915,6.51E-03,1.59E-02
132916,6.51E-03,1.61E-02
132917,6.51E-03,1.63E-02
132918,6.51E-03,1.66E-02
132919,6.51E-03,1.68E-02
132920,6.51E-03,1.70E-02
132921,6.51E-03,1.72E-02
132922,6.50E-03,1.74E-02
132923,6.50E-03,1.76E-02
132924,6.50E-03,1.78E-02
132925,6.50E-03,1.80E-02
132926,6.50E-03,1.82E-02
132927,6.50E-03,1.84E-02
132928,6.50E-03,1.86E-02
132929,6.50E-03,1.88E-02
132930,6.50E-03,1.90E-02
132931,6.50E-03,1.92E-02
132932,6.50E-03,1.94E-02
132933,6.50E-03,1.96E-02
132934,6.50E-03,1.98E-02
132935,6.50E-03,2.00E-02
132936,6.49E-03,2.02E-02
132937,6.49E-03,2.04E-02
132938,6.49E-03,2.06E-02
132939,6.49E-03,2.08E-02
132940,6.49E-03,2.10E-02
132941,6.49E-03,2.12E-02
132942,6.49E-03,2.14E-02
132943,6.49E-03,2.16E-02
132944,6.49E-03,2.18E-02
132945,6.49E-03,2.20E-02
132946,6.49E-03,2.22E-02
132947,6.49E-03,2.24E-02
132948,6.49E-03,2.26E-02
132949,6.48E-03,2.28E-02
132950,6.48E-03,2.30E-02
132951,6.48E-03,2.32E-02
132952,6.48E-03,2.34E-02
132953,6.48E-03,2.36E-02
132954,6.48E-03,2.38E-02
132955,6.48E-03,2.40E-02
132956,6.48E-03,2.41E-02
132957,6.48E-03,2.43E-02
132958,6.48E-03,2.45E-02
132959,6.48E-03,2.46E-02
132960,6.53E-03,1.08E-02
132961,6.53E-03,1.11E-02
132962,6.53E-03,1.13E-02
132963,6.52E-03,1.15E-02
132964,6.52E-03,1.17E-02
132965,6.52E-03,1.19E-02
132966,6.52E-03,1.21E-02
132967,6.52E-03,1.23E-02
132968,6.52E-03,1.25E-02
132969,6.52E-03,1.28E-02
132970,6.52E-03,1.30E-02
132971,6.52E-03,1.32E-02
132972,6.52E-03,1.34E-02
132973,6.52E-03,1.36E-02
132974,6.52E-03,1.38E-02
132975,6.52E-03,1.40E-02
132976,6.52E-03,1.42E-02
132977,6.51E-03,1.45E-02
132978,6.51E-03,1.47E-02
132979,6.51E-03,1.49E-02
132980,6.51E-03,1.51E-02
132981,6.51E-03,1.53E-02
132982,6.51E-03,1.55E-02
132983,6.51E-03,1.57E-02
132984,6.51E-03,1.59E-02
132985,6.51E-03,1.61E-02
132986,6.51E-03,1.63E-02
132987,6.51E-03,1.66E-02
132988,6.51E-03,1.68E-02
132989,6.51E-03,1.70E-02
132990,6.51E-03,1.72E-02
132991,6.50E-03,1.74E-02
132992,6.50E-03,1.76E-02
132993,6.50E-03,1.78E-02
132994,6.50E-03,1.80E-02
132995,6.50E-03,1.82E-02
132996,6.50E-03,1.84E-02
132997,6.50E-03,1.86E-02
132998,6.50E-03,1.88E-02
132999,6.50E-03,1.90E-02
133000,6.50E-03,1.92E-02
133001,6.50E-03,1.94E-02
133002,6.50E-03,1.96E-02
133003,6.50E-03,1.98E-02
133004,6.50E-03,2.00E-02
133005,6.49E-03,2.02E-02
133006,6.49E-03,2.04E-02
133007,6.49E-03,2.06E-02
133008,6.49E-03,2.08E-02
133009,6.49E-03,2.10E-02
133010,6.49E-03,2.12E-02
133011,6.49E-03,2.14E-02
133012,6.49E-03,2.16E-02
133013,6.49E-03,2.18E-02
133014,6.49E-03,2.20E-02
133015,6.49E-03,2.22E-02
133016,6.49E-03,2.24E-02
133017,6.49E-03,2.26E-02
133018,6.48E-03,2.28E-02
133019,6.48E-03,2.30E-02
133020,6.48E-03,2.32E-02
133021,6.48E-03,2.34E-02
133022,6.48E-03,2.36E-02
133023,6.48E-03,2.38E-02
133024,6.48E-03,2.40E-02
133025,6.48E-03,2.41E-02
133026,6.48E-03,2.43E-02
133027,6.48E-03,2.45E-02
133028,6.48E-03,2.46E-02
133029,6.53E-03,1.08E-02
133030,6.53E-03,1.11E-02
133031,6.53E-03,1.13E-02
133032,6.52E-03,1.15E-02
133033,6.52E-03,1.17E-02
133034,6.52E-03,1.19E-02
133035,6.52E-03,1.21E-02
133036,6.52E-03,1.23E-02
133037,6.52E-03,1.26E-02
133038,6.52E-03,1.28E-02
133039,6.52E-03,1.30E-02
133040,6.52E-03,1.32E-02
133041,6.52E-03,1.34E-02
133042,6.52E-03,1.36E-02
133043,6.52E-03,1.38E-02
133044,6.52E-03,1.40E-02
133045,6.52E-03,1.43E-02
133046,6.51E-03,1.45E-02
133047,6.51E-03,1.47E-02
133048,6.51E-03,1.49E-02
133049,6.51E-03,1.51E-02
133050,6.51E-03,1.53E-02
133051,6.51E-03,1.55E-02
133052,6.51E-03,1.57E-02
133053,6.51E-03,1.59E-02
133054,6.51E-03,1.61E-02
133055,6.51E-03,1.64E-02
133056,6.51E-03,1.66E-02
133057,6.51E-03,1.68E-02
133058,6.51E-03,1.70E-02
133059,6.51E-03,1.72E-02
133060,6.50E-03,1.74E-02
133061,6.50E-03,1.76E-02
133062,6.50E-03,1.78E-02
133063,6.50E-03,1.80E-02
133064,6.50E-03,1.82E-02
133065,6.50E-03,1.84E-02
133066,6.50E-03,1.86E-02
133067,6.50E-03,1.88E-02
133068,6.50E-03,1.90E-02
133069,6.50E-03,1.92E-02
133070,6.50E-03,1.94E-02
133071,6.50E-03,1.96E-02
133072,6.50E-03,1.98E-02
133073,6.50E-03,2.00E-02
133074,6.49E-03,2.02E-02
133075,6.49E-03,2.04E-02
133076,6.49E-03,2.07E-02
133077,6.49E-03,2.09E-02
133078,6.49E-03,2.11E-02
133079,6.49E-03,2.13E-02
133080,6.49E-03,2.15E-02
133081,6.49E-03,2.17E-02
133082,6.49E-03,2.19E-02
133083,6.49E-03,2.21E-02
133084,6.49E-03,2.23E-02
133085,6.49E-03,2.24E-02
133086,6.49E-03,2.26E-02
133087,6.48E-03,2.28E-02
133088,6.48E-03,2.30E-02
133089,6.48E-03,2.32E-02
133090,6.48E-03,2.34E-02
133091,6.48E-03,2.36E-02
133092,6.48E-03,2.38E-02
133093,6.48E-03,2.40E-02
133094,6.48E-03,2.41E-02
133095,6.48E-03,2.43E-02
133096,6.48E-03,2.44E-02
133097,6.48E-03,2.46E-02
133098,6.53E-03,1.09E-02
133099,6.53E-03,1.11E-02
133100,6.53E-03,1.13E-02
133101,6.52E-03,1.15E-02
133102,6.52E-03,1.17E-02
133103,6.52E-03,1.19E-02
133104,6.52E-03,1.21E-02
133105,6.52E-03,1.23E-02
133106,6.52E-03,1.26E-02
133107,6.52E-03,1.28E-02
133108,6.52E-03,1.30E-02
133109,6.52E-03,1.32E-02
133110,6.52E-03,1.34E-02
133111,6.52E-03,1.36E-02
133112,6.52E-03,1.38E-02
133113,6.52E-03,1.40E-02
133114,6.52E-03,1.43E-02
133115,6.51E-03,1.45E-02
133116,6.51E-03,1.47E-02
133117,6.51E-03,1.49E-02
133118,6.51E-03,1.51E-02
133119,6.51E-03,1.53E-02
133120,6.51E-03,1.55E-02
133121,6.51E-03,1.57E-02
133122,6.51E-03,1.59E-02
133123,6.51E-03,1.61E-02
133124,6.51E-03,1.64E-02
133125,6.51E-03,1.66E-02
133126,6.51E-03,1.68E-02
133127,6.51E-03,1.70E-02
133128,6.51E-03,1.72E-02
133129,6.50E-03,1.74E-02
133130,6.50E-03,1.76E-02
133131,6.50E-03,1.78E-02
133132,6.50E-03,1.80E-02
133133,6.50E-03,1.82E-02
133134,6.50E-03,1.84E-02
133135,6.50E-03,1.86E-02
133136,6.50E-03,1.88E-02
133137,6.50E-03,1.90E-02
133138,6.50E-03,1.92E-02
133139,6.50E-03,1.94E-02
133140,6.50E-03,1.96E-02
133141,6.50E-03,1.98E-02
133142,6.50E-03,2.01E-02
133143,6.49E-03,2.03E-02
133144,6.49E-03,2.05E-02
133145,6.49E-03,2.07E-02
133146,6.49E-03,2.09E-02
133147,6.49E-03,2.11E-02
133148,6.49E-03,2.13E-02
133149,6.49E-03,2.15E-02
133150,6.49E-03,2.17E-02
133151,6.49E-03,2.19E-02
133152,6.49E-03,2.21E-02
133153,6.49E-03,2.23E-02
133154,6.49E-03,2.25E-02
133155,6.49E-03,2.27E-02
133156,6.48E-03,2.28E-02
133157,6.48E-03,2.30E-02
133158,6.48E-03,2.32E-02
133159,6.48E-03,2.34E-02
133160,6.48E-03,2.36E-02
133161,6.48E-03,2.38E-02
133162,6.48E-03,2.40E-02
133163,6.48E-03,2.41E-02
133164,6.48E-03,2.43E-02
133165,6.48E-03,2.44E-02
133166,6.48E-03,2.46E-02
133167,6.53E-03,1.09E-02
133168,6.53E-03,1.11E-02
133169,6.53E-03,1.13E-02
133170,6.52E-03,1.15E-02
133171,6.52E-03,1.17E-02
133172,6.52E-03,1.19E-02
133173,6.52E-03,1.21E-02
133174,6.52E-03,1.24E-02
133175,6.52E-03,1.26E-02
133176,6.52E-03,1.28E-02
133177,6.52E-03,1.30E-02
133178,6.52E-03,1.32E-02
133179,6.52E-03,1.34E-02
133180,6.52E-03,1.36E-02
133181,6.52E-03,1.38E-02
133182,6.52E-03,1.41E-02
133183,6.52E-03,1.43E-02
133184,6.51E-03,1.45E-02
133185,6.51E-03,1.47E-02
133186,6.51E-03,1.49E-02
133187,6.51E-03,1.51E-02
133188,6.51E-03,1.53E-02
133189,6.51E-03,1.55E-02
133190,6.51E-03,1.57E-02
133191,6.51E-03,1.59E-02
133192,6.51E-03,1.62E-02
133193,6.51E-03,1.64E-02
133194,6.51E-03,1.66E-02
133195,6.51E-03,1.68E-02
133196,6.51E-03,1.70E-02
133197,6.51E-03,1.72E-02
133198,6.50E-03,1.74E-02
133199,6.50E-03,1.76E-02
133200,6.50E-03,1.78E-02
133201,6.50E-03,1.80E-02
133202,6.50E-03,1.82E-02
133203,6.50E-03,1.84E-02
133204,6.50E-03,1.86E-02
133205,6.50E-03,1.88E-02
133206,6.50E-03,1.90E-02
133207,6.50E-03,1.92E-02
133208,6.50E-03,1.94E-02
133209,6.50E-03,1.96E-02
133210,6.50E-03,1.99E-02
133211,6.50E-03,2.01E-02
133212,6.49E-03,2.03E-02
133213,6.49E-03,2.05E-02
133214,6.49E-03,2.07E-02
133215,6.49E-03,2.09E-02
133216,6.49E-03,2.11E-02
133217,6.49E-03,2.13E-02
133218,6.49E-03,2.15E-02
133219,6.49E-03,2.17E-02
133220,6.49E-03,2.19E-02
133221,6.49E-03,2.21E-02
133222,6.49E-03,2.23E-02
133223,6.49E-03,2.25E-02
133224,6.49E-03,2.27E-02
133225,6.48E-03,2.28E-02
133226,6.48E-03,2.30E-02
133227,6.48E-03,2.32E-02
133228,6.48E-03,2.34E-02
133229,6.48E-03,2.36E-02
133230,6.48E-03,2.38E-02
133231,6.48E-03,2.39E-02
133232,6.48E-03,2.41E-02
133233,6.48E-03,2.43E-02
133234,6.48E-03,2.44E-02
133235,6.48E-03,2.45E-02
133236,6.53E-03,1.09E-02
133237,6.53E-03,1.11E-02
133238,6.53E-03,1.13E-02
133239,6.52E-03,1.15E-02
133240,6.52E-03,1.17E-02
133241,6.52E-03,1.19E-02
133242,6.52E-03,1.21E-02
133243,6.52E-03,1.24E-02
133244,6.52E-03,1.26E-02
133245,6.52E-03,1.28E-02
133246,6.52E-03,1.30E-02
133247,6.52E-03,1.32E-02
133248,6.52E-03,1.34E-02
133249,6.52E-03,1.36E-02
133250,6.52E-03,1.38E-02
133251,6.52E-03,1.41E-02
133252,6.52E-03,1.43E-02
133253,6.51E-03,1.45E-02
133254,6.51E-03,1.47E-02
133255,6.51E-03,1.49E-02
133256,6.51E-03,1.51E-02
133257,6.51E-03,1.53E-02
133258,6.51E-03,1.55E-02
133259,6.51E-03,1.57E-02
133260,6.51E-03,1.59E-02
133261,6.51E-03,1.62E-02
133262,6.51E-03,1.64E-02
133263,6.51E-03,1.66E-02
133264,6.51E-03,1.68E-02
133265,6.51E-03,1.70E-02
133266,6.51E-03,1.72E-02
133267,6.50E-03,1.74E-02
133268,6.50E-03,1.76E-02
133269,6.50E-03,1.78E-02
133270,6.50E-03,1.80E-02
133271,6.50E-03,1.82E-02
133272,6.50E-03,1.84E-02
133273,6.50E-03,1.86E-02
133274,6.50E-03,1.88E-02
133275,6.50E-03,1.90E-02
133276,6.50E-03,1.92E-02
133277,6.50E-03,1.94E-02
133278,6.50E-03,1.97E-02
133279,6.50E-03,1.99E-02
133280,6.50E-03,2.01E-02
133281,6.49E-03,2.03E-02
133282,6.49E-03,2.05E-02
133283,6.49E-03,2.07E-02
133284,6.49E-03,2.09E-02
133285,6.49E-03,2.11E-02
133286,6.49E-03,2.13E-02
133287,6.49E-03,2.15E-02
133288,6.49E-03,2.17E-02
133289,6.49E-03,2.19E-02
133290,6.49E-03,2.21E-02
133291,6.49E-03,2.23E-02
133292,6.49E-03,2.25E-02
133293,6.49E-03,2.27E-02
133294,6.48E-03,2.29E-02
133295,6.48E-03,2.30E-02
133296,6.48E-03,2.32E-02
133297,6.48E-03,2.34E-02
133298,6.48E-03,2.36E-02
133299,6.48E-03,2.38E-02
133300,6.48E-03,2.39E-02
133301,6.48E-03,2.41E-02
133302,6.48E-03,2.43E-02
133303,6.48E-03,2.44E-02
133304,6.48E-03,2.45E-02
133305,6.53E-03,1.09E-02
133306,6.53E-03,1.11E-02
133307,6.53E-03,1.13E-02
133308,6.52E-03,1.15E-02
133309,6.52E-03,1.17E-02
133310,6.52E-03,1.19E-02
133311,6.52E-03,1.22E-02
133312,6.52E-03,1.24E-02
133313,6.52E-03,1.26E-02
133314,6.52E-03,1.28E-02
133315,6.52E-03,1.30E-02
133316,6.52E-03,1.32E-02
133317,6.52E-03,1.34E-02
133318,6.52E-03,1.36E-02
133319,6.52E-03,1.39E-02
133320,6.52E-03,1.41E-02
133321,6.52E-03,1.43E-02
133322,6.51E-03,1.45E-02
133323,6.51E-03,1.47E-02
133324,6.51E-03,1.49E-02
133325,6.51E-03,1.51E-02
133326,6.51E-03,1.53E-02
133327,6.51E-03,1.55E-02
133328,6.51E-03,1.57E-02
133329,6.51E-03,1.60E-02
133330,6.51E-03,1.62E-02
133331,6.51E-03,1.64E-02
133332,6.51E-03,1.66E-02
133333,6.51E-03,1.68E-02
133334,6.51E-03,1.70E-02
133335,6.51E-03,1.72E-02
133336,6.50E-03,1.74E-02
133337,6.50E-03,1.76E-02
133338,6.50E-03,1.78E-02
133339,6.50E-03,1.80E-02
133340,6.50E-03,1.82E-02
133341,6.50E-03,1.84E-02
133342,6.50E-03,1.86E-02
133343,6.50E-03,1.88E-02
133344,6.50E-03,1.90E-02
133345,6.50E-03,1.92E-02
133346,6.50E-03,1.95E-02
133347,6.50E-03,1.97E-02
133348,6.50E-03,1.99E-02
133349,6.50E-03,2.01E-02
133350,6.49E-03,2.03E-02
133351,6.49E-03,2.05E-02
133352,6.49E-03,2.07E-02
133353,6.49E-03,2.09E-02
133354,6.49E-03,2.11E-02
133355,6.49E-03,2.13E-02
133356,6.49E-03,2.15E-02
133357,6.49E-03,2.17E-02
133358,6.49E-03,2.19E-02
133359,6.49E-03,2.21E-02
133360,6.49E-03,2.23E-02
133361,6.49E-03,2.25E-02
133362,6.49E-03,2.27E-02
133363,6.48E-03,2.29E-02
133364,6.48E-03,2.30E-02
133365,6.48E-03,2.32E-02
133366,6.48E-03,2.34E-02
133367,6.48E-03,2.36E-02
133368,6.48E-03,2.38E-02
133369,6.48E-03,2.39E-02
133370,6.48E-03,2.41E-02
133371,6.48E-03,2.43E-02
133372,6.48E-03,2.44E-02
133373,6.48E-03,2.45E-02
133374,6.53E-03,1.09E-02
133375,6.53E-03,1.11E-02
133376,6.53E-03,1.13E-02
133377,6.52E-03,1.15E-02
133378,6.52E-03,1.17E-02
133379,6.52E-03,1.20E-02
133380,6.52E-03,1.22E-02
133381,6.52E-03,1.24E-02
133382,6.52E-03,1.26E-02
133383,6.52E-03,1.28E-02
133384,6.52E-03,1.30E-02
133385,6.52E-03,1.32E-02
133386,6.52E-03,1.34E-02
133387,6.52E-03,1.36E-02
133388,6.52E-03,1.39E-02
133389,6.52E-03,1.41E-02
133390,6.52E-03,1.43E-02
133391,6.51E-03,1.45E-02
133392,6.51E-03,1.47E-02
133393,6.51E-03,1.49E-02
133394,6.51E-03,1.51E-02
133395,6.51E-03,1.53E-02
133396,6.51E-03,1.55E-02
133397,6.51E-03,1.58E-02
133398,6.51E-03,1.60E-02
133399,6.51E-03,1.62E-02
133400,6.51E-03,1.64E-02
133401,6.51E-03,1.66E-02
133402,6.51E-03,1.68E-02
133403,6.51E-03,1.70E-02
133404,6.51E-03,1.72E-02
133405,6.50E-03,1.74E-02
133406,6.50E-03,1.76E-02
133407,6.50E-03,1.78E-02
133408,6.50E-03,1.80E-02
133409,6.50E-03,1.82E-02
133410,6.50E-03,1.84E-02
133411,6.50E-03,1.86E-02
133412,6.50E-03,1.88E-02
133413,6.50E-03,1.90E-02
133414,6.50E-03,1.93E-02
133415,6.50E-03,1.95E-02
133416,6.50E-03,1.97E-02
133417,6.50E-03,1.99E-02
133418,6.50E-03,2.01E-02
133419,6.49E-03,2.03E-02
133420,6.49E-03,2.05E-02
133421,6.49E-03,2.07E-02
133422,6.49E-03,2.09E-02
133423,6.49E-03,2.11E-02
133424,6.49E-03,2.13E-02
133425,6.49E-03,2.15E-02
133426,6.49E-03,2.17E-02
133427,6.49E-03,2.19E-02
133428,6.49E-03,2.21E-02
133429,6.49E-03,2.23E-02
133430,6.49E-03,2.25E-02
133431,6.49E-03,2.27E-02
133432,6.48E-03,2.29E-02
133433,6.48E-03,2.30E-02
133434,6.48E-03,2.32E-02
133435,6.48E-03,2.34E-02
133436,6.48E-03,2.36E-02
133437,6.48E-03,2.38E-02
133438,6.48E-03,2.39E-02
133439,6.48E-03,2.41E-02
133440,6.48E-03,2.43E-02
133441,6.48E-03,2.44E-02
133442,6.48E-03,2.45E-02
133443,6.53E-03,1.09E-02
133444,6.53E-03,1.11E-02
133445,6.53E-03,1.13E-02
133446,6.52E-03,1.15E-02
133447,6.52E-03,1.17E-02
133448,6.52E-03,1.20E-02
133449,6.52E-03,1.22E-02
133450,6.52E-03,1.24E-02
133451,6.52E-03,1.26E-02
133452,6.52E-03,1.28E-02
133453,6.52E-03,1.30E-02
133454,6.52E-03,1.32E-02
133455,6.52E-03,1.34E-02
133456,6.52E-03,1.37E-02
133457,6.52E-03,1.39E-02
133458,6.52E-03,1.41E-02
133459,6.52E-03,1.43E-02
133460,6.51E-03,1.45E-02
133461,6.51E-03,1.47E-02
133462,6.51E-03,1.49E-02
133463,6.51E-03,1.51E-02
133464,6.51E-03,1.53E-02
133465,6.51E-03,1.55E-02
133466,6.51E-03,1.58E-02
133467,6.51E-03,1.60E-02
133468,6.51E-03,1.62E-02
133469,6.51E-03,1.64E-02
133470,6.51E-03,1.66E-02
133471,6.51E-03,1.68E-02
133472,6.51E-03,1.70E-02
133473,6.51E-03,1.72E-02
133474,6.50E-03,1.74E-02
133475,6.50E-03,1.76E-02
133476,6.50E-03,1.78E-02
133477,6.50E-03,1.80E-02
133478,6.50E-03,1.82E-02
133479,6.50E-03,1.84E-02
133480,6.50E-03,1.86E-02
133481,6.50E-03,1.88E-02
133482,6.50E-03,1.91E-02
133483,6.50E-03,1.93E-02
133484,6.50E-03,1.95E-02
133485,6.50E-03,1.97E-02
133486,6.50E-03,1.99E-02
133487,6.50E-03,2.01E-02
133488,6.49E-03,2.03E-02
133489,6.49E-03,2.05E-02
133490,6.49E-03,2.07E-02
133491,6.49E-03,2.09E-02
133492,6.49E-03,2.11E-02
133493,6.49E-03,2.13E-02
133494,6.49E-03,2.15E-02
133495,6.49E-03,2.17E-02
133496,6.49E-03,2.19E-02
133497,6.49E-03,2.21E-02
133498,6.49E-03,2.23E-02
133499,6.49E-03,2.25E-02
133500,6.49E-03,2.27E-02
133501,6.48E-03,2.29E-02
133502,6.48E-03,2.30E-02
133503,6.48E-03,2.32E-02
133504,6.48E-03,2.34E-02
133505,6.48E-03,2.36E-02
133506,6.48E-03,2.38E-02
133507,6.48E-03,2.39E-02
133508,6.48E-03,2.41E-02
133509,6.48E-03,2.43E-02
133510,6.48E-03,2.44E-02
133511,6.48E-03,2.45E-02
133512,6.53E-03,1.09E-02
133513,6.53E-03,1.11E-02
133514,6.53E-03,1.13E-02
133515,6.52E-03,1.15E-02
133516,6.52E-03,1.18E-02
133517,6.52E-03,1.20E-02
133518,6.52E-03,1.22E-02
133519,6.52E-03,1.24E-02
133520,6.52E-03,1.26E-02
133521,6.52E-03,1.28E-02
133522,6.52E-03,1.30E-02
133523,6.52E-03,1.32E-02
133524,6.52E-03,1.35E-02
133525,6.52E-03,1.37E-02
133526,6.52E-03,1.39E-02
133527,6.52E-03,1.41E-02
133528,6.52E-03,1.43E-02
133529,6.51E-03,1.45E-02
133530,6.51E-03,1.47E-02
133531,6.51E-03,1.49E-02
133532,6.51E-03,1.51E-02
133533,6.51E-03,1.53E-02
133534,6.51E-03,1.56E-02
133535,6.51E-03,1.58E-02
133536,6.51E-03,1.60E-02
133537,6.51E-03,1.62E-02
133538,6.51E-03,1.64E-02
133539,6.51E-03,1.66E-02
133540,6.51E-03,1.68E-02
133541,6.51E-03,1.70E-02
133542,6.51E-03,1.72E-02
133543,6.50E-03,1.74E-02
133544,6.50E-03,1.76E-02
133545,6.50E-03,1.78E-02
133546,6.50E-03,1.80E-02
133547,6.50E-03,1.82E-02
133548,6.50E-03,1.84E-02
133549,6.50E-03,1.86E-02
133550,6.50E-03,1.89E-02
133551,6.50E-03,1.91E-02
133552,6.50E-03,1.93E-02
133553,6.50E-03,1.95E-02
133554,6.50E-03,1.97E-02
133555,6.50E-03,1.99E-02
133556,6.50E-03,2.01E-02
133557,6.49E-03,2.03E-02
133558,6.49E-03,2.05E-02
133559,6.49E-03,2.07E-02
133560,6.49E-03,2.09E-02
133561,6.49E-03,2.11E-02
133562,6.49E-03,2.13E-02
133563,6.49E-03,2.15E-02
133564,6.49E-03,2.17E-02
133565,6.49E-03,2.19E-02
133566,6.49E-03,2.21E-02
133567,6.49E-03,2.23E-02
133568,6.49E-03,2.25E-02
133569,6.49E-03,2.27E-02
133570,6.48E-03,2.29E-02
133571,6.48E-03,2.30E-02
133572,6.48E-03,2.32E-02
133573,6.48E-03,2.34E-02
133574,6.48E-03,2.36E-02
133575,6.48E-03,2.38E-02
133576,6.48E-03,2.39E-02
133577,6.48E-03,2.41E-02
133578,6.48E-03,2.43E-02
133579,6.48E-03,2.44E-02
133580,6.48E-03,2.45E-02
133581,6.53E-03,1.09E-02
133582,6.53E-03,1.11E-02
133583,6.53E-03,1.13E-02
133584,6.52E-03,1.16E-02
133585,6.52E-03,1.18E-02
133586,6.52E-03,1.20E-02
133587,6.52E-03,1.22E-02
133588,6.52E-03,1.24E-02
133589,6.52E-03,1.26E-02
133590,6.52E-03,1.28E-02
133591,6.52E-03,1.30E-02
133592,6.52E-03,1.32E-02
133593,6.52E-03,1.35E-02
133594,6.52E-03,1.37E-02
133595,6.52E-03,1.39E-02
133596,6.52E-03,1.41E-02
133597,6.52E-03,1.43E-02
133598,6.51E-03,1.45E-02
133599,6.51E-03,1.47E-02
133600,6.51E-03,1.49E-02
133601,6.51E-03,1.51E-02
133602,6.51E-03,1.54E-02
133603,6.51E-03,1.56E-02
133604,6.51E-03,1.58E-02
133605,6.51E-03,1.60E-02
133606,6.51E-03,1.62E-02
133607,6.51E-03,1.64E-02
133608,6.51E-03,1.66E-02
133609,6.51E-03,1.68E-02
133610,6.51E-03,1.70E-02
133611,6.51E-03,1.72E-02
133612,6.50E-03,1.74E-02
133613,6.50E-03,1.76E-02
133614,6.50E-03,1.78E-02
133615,6.50E-03,1.80E-02
133616,6.50E-03,1.82E-02
133617,6.50E-03,1.84E-02
133618,6.50E-03,1.87E-02
133619,6.50E-03,1.89E-02
133620,6.50E-03,1.91E-02
133621,6.50E-03,1.93E-02
133622,6.50E-03,1.95E-02
133623,6.50E-03,1.97E-02
133624,6.50E-03,1.99E-02
133625,6.50E-03,2.01E-02
133626,6.49E-03,2.03E-02
133627,6.49E-03,2.05E-02
133628,6.49E-03,2.07E-02
133629,6.49E-03,2.09E-02
133630,6.49E-03,2.11E-02
133631,6.49E-03,2.13E-02
133632,6.49E-03,2.15E-02
133633,6.49E-03,2.17E-02
133634,6.49E-03,2.19E-02
133635,6.49E-03,2.21E-02
133636,6.49E-03,2.23E-02
133637,6.49E-03,2.25E-02
133638,6.49E-03,2.27E-02
133639,6.48E-03,2.28E-02
133640,6.48E-03,2.30E-02
133641,6.48E-03,2.32E-02
133642,6.48E-03,2.34E-02
133643,6.48E-03,2.36E-02
133644,6.48E-03,2.38E-02
133645,6.48E-03,2.39E-02
133646,6.48E-03,2.41E-02
133647,6.48E-03,2.43E-02
133648,6.48E-03,2.44E-02
133649,6.48E-03,2.45E-02
133650,6.53E-03,1.09E-02
133651,6.53E-03,1.11E-02
133652,6.53E-03,1.13E-02
133653,6.52E-03,1.16E-02
133654,6.52E-03,1.18E-02
133655,6.52E-03,1.20E-02
133656,6.52E-03,1.22E-02
133657,6.52E-03,1.24E-02
133658,6.52E-03,1.26E-02
133659,6.52E-03,1.28E-02
133660,6.52E-03,1.30E-02
133661,6.52E-03,1.33E-02
133662,6.52E-03,1.35E-02
133663,6.52E-03,1.37E-02
133664,6.52E-03,1.39E-02
133665,6.52E-03,1.41E-02
133666,6.52E-03,1.43E-02
133667,6.51E-03,1.45E-02
133668,6.51E-03,1.47E-02
133669,6.51E-03,1.49E-02
133670,6.51E-03,1.51E-02
133671,6.51E-03,1.54E-02
133672,6.51E-03,1.56E-02
133673,6.51E-03,1.58E-02
133674,6.51E-03,1.60E-02
133675,6.51E-03,1.62E-02
133676,6.51E-03,1.64E-02
133677,6.51E-03,1.66E-02
133678,6.51E-03,1.68E-02
133679,6.51E-03,1.70E-02
133680,6.51E-03,1.72E-02
133681,6.50E-03,1.74E-02
133682,6.50E-03,1.76E-02
133683,6.50E-03,1.78E-02
133684,6.50E-03,1.80E-02
133685,6.50E-03,1.82E-02
133686,6.50E-03,1.85E-02
133687,6.50E-03,1.87E-02
133688,6.50E-03,1.89E-02
133689,6.50E-03,1.91E-02
133690,6.50E-03,1.93E-02
133691,6.50E-03,1.95E-02
133692,6.50E-03,1.97E-02
133693,6.50E-03,1.99E-02
133694,6.50E-03,2.01E-02
133695,6.49E-03,2.03E-02
133696,6.49E-03,2.05E-02
133697,6.49E-03,2.07E-02
133698,6.49E-03,2.09E-02
133699,6.49E-03,2.11E-02
133700,6.49E-03,2.13E-02
133701,6.49E-03,2.15E-02
133702,6.49E-03,2.17E-02
133703,6.49E-03,2.19E-02
133704,6.49E-03,2.21E-02
133705,6.49E-03,2.23E-02
133706,6.49E-03,2.25E-02
133707,6.49E-03,2.26E-02
133708,6.48E-03,2.28E-02
133709,6.48E-03,2.30E-02
133710,6.48E-03,2.32E-02
133711,6.48E-03,2.34E-02
133712,6.48E-03,2.36E-02
133713,6.48E-03,2.38E-02
133714,6.48E-03,2.39E-02
133715,6.48E-03,2.41E-02
133716,6.48E-03,2.43E-02
133717,6.48E-03,2.44E-02
133718,6.48E-03,2.45E-02
133719,6.53E-03,1.09E-02
133720,6.53E-03,1.11E-02
133721,6.53E-03,1.14E-02
133722,6.52E-03,1.16E-02
133723,6.52E-03,1.18E-02
133724,6.52E-03,1.20E-02
133725,6.52E-03,1.22E-02
133726,6.52E-03,1.24E-02
133727,6.52E-03,1.26E-02
133728,6.52E-03,1.28E-02
133729,6.52E-03,1.31E-02
133730,6.52E-03,1.33E-02
133731,6.52E-03,1.35E-02
133732,6.52E-03,1.37E-02
133733,6.52E-03,1.39E-02
133734,6.52E-03,1.41E-02
133735,6.52E-03,1.43E-02
133736,6.51E-03,1.45E-02
133737,6.51E-03,1.47E-02
133738,6.51E-03,1.49E-02
133739,6.51E-03,1.52E-02
133740,6.51E-03,1.54E-02
133741,6.51E-03,1.56E-02
133742,6.51E-03,1.58E-02
133743,6.51E-03,1.60E-02
133744,6.51E-03,1.62E-02
133745,6.51E-03,1.64E-02
133746,6.51E-03,1.66E-02
133747,6.51E-03,1.68E-02
133748,6.51E-03,1.70E-02
133749,6.51E-03,1.72E-02
133750,6.50E-03,1.74E-02
133751,6.50E-03,1.76E-02
133752,6.50E-03,1.78E-02
133753,6.50E-03,1.80E-02
133754,6.50E-03,1.83E-02
133755,6.50E-03,1.85E-02
133756,6.50E-03,1.87E-02
133757,6.50E-03,1.89E-02
133758,6.50E-03,1.91E-02
133759,6.50E-03,1.93E-02
133760,6.50E-03,1.95E-02
133761,6.50E-03,1.97E-02
133762,6.50E-03,1.99E-02
133763,6.50E-03,2.01E-02
133764,6.49E-03,2.03E-02
133765,6.49E-03,2.05E-02
133766,6.49E-03,2.07E-02
133767,6.49E-03,2.09E-02
133768,6.49E-03,2.11E-02
133769,6.49E-03,2.13E-02
133770,6.49E-03,2.15E-02
133771,6.49E-03,2.17E-02
133772,6.49E-03,2.19E-02
133773,6.49E-03,2.21E-02
133774,6.49E-03,2.23E-02
133775,6.49E-03,2.24E-02
133776,6.49E-03,2.26E-02
133777,6.48E-03,2.28E-02
133778,6.48E-03,2.30E-02
133779,6.48E-03,2.32E-02
133780,6.48E-03,2.34E-02
133781,6.48E-03,2.36E-02
133782,6.48E-03,2.38E-02
133783,6.48E-03,2.39E-02
133784,6.48E-03,2.41E-02
133785,6.48E-03,2.43E-02
133786,6.48E-03,2.44E-02
133787,6.48E-03,2.45E-02
133788,6.53E-03,1.09E-02
133789,6.53E-03,1.12E-02
133790,6.53E-03,1.14E-02
133791,6.52E-03,1.16E-02
133792,6.52E-03,1.18E-02
133793,6.52E-03,1.20E-02
133794,6.52E-03,1.22E-02
133795,6.52E-03,1.24E-02
133796,6.52E-03,1.26E-02
133797,6.52E-03,1.28E-02
133798,6.52E-03,1.31E-02
133799,6.52E-03,1.33E-02
133800,6.52E-03,1.35E-02
133801,6.52E-03,1.37E-02
133802,6.52E-03,1.39E-02
133803,6.52E-03,1.41E-02
133804,6.52E-03,1.43E-02
133805,6.51E-03,1.45E-02
133806,6.51E-03,1.47E-02
133807,6.51E-03,1.50E-02
133808,6.51E-03,1.52E-02
133809,6.51E-03,1.54E-02
133810,6.51E-03,1.56E-02
133811,6.51E-03,1.58E-02
133812,6.51E-03,1.60E-02
133813,6.51E-03,1.62E-02
133814,6.51E-03,1.64E-02
133815,6.51E-03,1.66E-02
133816,6.51E-03,1.68E-02
133817,6.51E-03,1.70E-02
133818,6.51E-03,1.72E-02
133819,6.50E-03,1.74E-02
133820,6.50E-03,1.76E-02
133821,6.50E-03,1.78E-02
133822,6.50E-03,1.80E-02
133823,6.50E-03,1.83E-02
133824,6.50E-03,1.85E-02
133825,6.50E-03,1.87E-02
133826,6.50E-03,1.89E-02
133827,6.50E-03,1.91E-02
133828,6.50E-03,1.93E-02
133829,6.50E-03,1.95E-02
133830,6.50E-03,1.97E-02
133831,6.50E-03,1.99E-02
133832,6.50E-03,2.01E-02
133833,6.49E-03,2.03E-02
133834,6.49E-03,2.05E-02
133835,6.49E-03,2.07E-02
133836,6.49E-03,2.09E-02
133837,6.49E-03,2.11E-02
133838,6.49E-03,2.13E-02
133839,6.49E-03,2.15E-02
133840,6.49E-03,2.17E-02
133841,6.49E-03,2.19E-02
133842,6.49E-03,2.21E-02
133843,6.49E-03,2.22E-02
133844,6.49E-03,2.24E-02
133845,6.49E-03,2.26E-02
133846,6.48E-03,2.28E-02
133847,6.48E-03,2.30E-02
133848,6.48E-03,2.32E-02
133849,6.48E-03,2.34E-02
133850,6.48E-03,2.36E-02
133851,6.48E-03,2.38E-02
133852,6.48E-03,2.39E-02
133853,6.48E-03,2.41E-02
133854,6.48E-03,2.43E-02
133855,6.48E-03,2.44E-02
133856,6.48E-03,2.45E-02
133857,6.53E-03,1.09E-02
133858,6.53E-03,1.12E-02
133859,6.53E-03,1.14E-02
133860,6.52E-03,1.16E-02
133861,6.52E-03,1.18E-02
133862,6.52E-03,1.20E-02
133863,6.52E-03,1.22E-02
133864,6.52E-03,1.24E-02
133865,6.52E-03,1.26E-02
133866,6.52E-03,1.29E-02
133867,6.52E-03,1.31E-02
133868,6.52E-03,1.33E-02
133869,6.52E-03,1.35E-02
133870,6.52E-03,1.37E-02
133871,6.52E-03,1.39E-02
133872,6.52E-03,1.41E-02
133873,6.52E-03,1.43E-02
133874,6.51E-03,1.45E-02
133875,6.51E-03,1.47E-02
133876,6.51E-03,1.50E-02
133877,6.51E-03,1.52E-02
133878,6.51E-03,1.54E-02
133879,6.51E-03,1.56E-02
133880,6.51E-03,1.58E-02
133881,6.51E-03,1.60E-02
133882,6.51E-03,1.62E-02
133883,6.51E-03,1.64E-02
133884,6.51E-03,1.66E-02
133885,6.51E-03,1.68E-02
133886,6.51E-03,1.70E-02
133887,6.51E-03,1.72E-02
133888,6.50E-03,1.74E-02
133889,6.50E-03,1.76E-02
133890,6.50E-03,1.78E-02
133891,6.50E-03,1.81E-02
133892,6.50E-03,1.83E-02
133893,6.50E-03,1.85E-02
133894,6.50E-03,1.87E-02
133895,6.50E-03,1.89E-02
133896,6.50E-03,1.91E-02
133897,6.50E-03,1.93E-02
133898,6.50E-03,1.95E-02
133899,6.50E-03,1.97E-02
133900,6.50E-03,1.99E-02
133901,6.50E-03,2.01E-02
133902,6.49E-03,2.03E-02
133903,6.49E-03,2.05E-02
133904,6.49E-03,2.07E-02
133905,6.49E-03,2.09E-02
133906,6.49E-03,2.11E-02
133907,6.49E-03,2.13E-02
133908,6.49E-03,2.15E-02
133909,6.49E-03,2.17E-02
133910,6.49E-03,2.19E-02
133911,6.49E-03,2.20E-02
133912,6.49E-03,2.22E-02
133913,6.49E-03,2.24E-02
133914,6.49E-03,2.26E-02
133915,6.48E-03,2.28E-02
133916,6.48E-03,2.30E-02
133917,6.48E-03,2.32E-02
133918,6.48E-03,2.34E-02
133919,6.48E-03,2.36E-02
133920,6.48E-03,2.38E-02
133921,6.48E-03,2.39E-02
133922,6.48E-03,2.41E-02
133923,6.48E-03,2.43E-02
133924,6.48E-03,2.44E-02
133925,6.48E-03,2.46E-02
133926,6.53E-03,1.10E-02
133927,6.53E-03,1.12E-02
133928,6.53E-03,1.14E-02
133929,6.52E-03,1.16E-02
133930,6.52E-03,1.18E-02
133931,6.52E-03,1.20E-02
133932,6.52E-03,1.22E-02
133933,6.52E-03,1.24E-02
133934,6.52E-03,1.27E-02
133935,6.52E-03,1.29E-02
133936,6.52E-03,1.31E-02
133937,6.52E-03,1.33E-02
133938,6.52E-03,1.35E-02
133939,6.52E-03,1.37E-02
133940,6.52E-03,1.39E-02
133941,6.52E-03,1.41E-02
133942,6.52E-03,1.43E-02
133943,6.51E-03,1.45E-02
133944,6.51E-03,1.48E-02
133945,6.51E-03,1.50E-02
133946,6.51E-03,1.52E-02
133947,6.51E-03,1.54E-02
133948,6.51E-03,1.56E-02
133949,6.51E-03,1.58E-02
133950,6.51E-03,1.60E-02
133951,6.51E-03,1.62E-02
133952,6.51E-03,1.64E-02
133953,6.51E-03,1.66E-02
133954,6.51E-03,1.68E-02
133955,6.51E-03,1.70E-02
133956,6.51E-03,1.72E-02
133957,6.50E-03,1.74E-02
133958,6.50E-03,1.76E-02
133959,6.50E-03,1.79E-02
133960,6.50E-03,1.81E-02
133961,6.50E-03,1.83E-02
133962,6.50E-03,1.85E-02
133963,6.50E-03,1.87E-02
133964,6.50E-03,1.89E-02
133965,6.50E-03,1.91E-02
133966,6.50E-03,1.93E-02
133967,6.50E-03,1.95E-02
133968,6.50E-03,1.97E-02
133969,6.50E-03,1.99E-02
133970,6.50E-03,2.01E-02
133971,6.49E-03,2.03E-02
133972,6.49E-03,2.05E-02
133973,6.49E-03,2.07E-02
133974,6.49E-03,2.09E-02
133975,6.49E-03,2.11E-02
133976,6.49E-03,2.13E-02
133977,6.49E-03,2.15E-02
133978,6.49E-03,2.17E-02
133979,6.49E-03,2.18E-02
133980,6.49E-03,2.20E-02
133981,6.49E-03,2.22E-02
133982,6.49E-03,2.24E-02
133983,6.49E-03,2.26E-02
133984,6.48E-03,2.28E-02
133985,6.48E-03,2.30E-02
133986,6.48E-03,2.32E-02
133987,6.48E-03,2.34E-02
133988,6.48E-03,2.36E-02
133989,6.48E-03,2.37E-02
133990,6.48E-03,2.39E-02
133991,6.48E-03,2.41E-02
133992,6.48E-03,2.43E-02
133993,6.48E-03,2.44E-02
133994,6.48E-03,2.46E-02
133995,6.53E-03,1.10E-02
133996,6.53E-03,1.12E-02
133997,6.53E-03,1.14E-02
133998,6.52E-03,1.16E-02
133999,6.52E-03,1.18E-02
134000,6.52E-03,1.20E-02
134001,6.52E-03,1.22E-02
134002,6.52E-03,1.25E-02
134003,6.52E-03,1.27E-02
134004,6.52E-03,1.29E-02
134005,6.52E-03,1.31E-02
134006,6.52E-03,1.33E-02
134007,6.52E-03,1.35E-02
134008,6.52E-03,1.37E-02
134009,6.52E-03,1.39E-02
134010,6.52E-03,1.41E-02
134011,6.52E-03,1.43E-02
134012,6.51E-03,1.46E-02
134013,6.51E-03,1.48E-02
134014,6.51E-03,1.50E-02
134015,6.51E-03,1.52E-02
134016,6.51E-03,1.54E-02
134017,6.51E-03,1.56E-02
134018,6.51E-03,1.58E-02
134019,6.51E-03,1.60E-02
134020,6.51E-03,1.62E-02
134021,6.51E-03,1.64E-02
134022,6.51E-03,1.66E-02
134023,6.51E-03,1.68E-02
134024,6.51E-03,1.70E-02
134025,6.51E-03,1.72E-02
134026,6.50E-03,1.74E-02
134027,6.50E-03,1.77E-02
134028,6.50E-03,1.79E-02
134029,6.50E-03,1.81E-02
134030,6.50E-03,1.83E-02
134031,6.50E-03,1.85E-02
134032,6.50E-03,1.87E-02
134033,6.50E-03,1.89E-02
134034,6.50E-03,1.91E-02
134035,6.50E-03,1.93E-02
134036,6.50E-03,1.95E-02
134037,6.50E-03,1.97E-02
134038,6.50E-03,1.99E-02
134039,6.50E-03,2.01E-02
134040,6.49E-03,2.03E-02
134041,6.49E-03,2.05E-02
134042,6.49E-03,2.07E-02
134043,6.49E-03,2.09E-02
134044,6.49E-03,2.11E-02
134045,6.49E-03,2.13E-02
134046,6.49E-03,2.15E-02
134047,6.49E-03,2.16E-02
134048,6.49E-03,2.18E-02
134049,6.49E-03,2.20E-02
134050,6.49E-03,2.22E-02
134051,6.49E-03,2.24E-02
134052,6.49E-03,2.26E-02
134053,6.48E-03,2.28E-02
134054,6.48E-03,2.30E-02
134055,6.48E-03,2.32E-02
134056,6.48E-03,2.34E-02
134057,6.48E-03,2.35E-02
134058,6.48E-03,2.37E-02
134059,6.48E-03,2.39E-02
134060,6.48E-03,2.41E-02
134061,6.48E-03,2.43E-02
134062,6.48E-03,2.44E-02
134063,6.48E-03,2.46E-02
134064,6.53E-03,1.10E-02
134065,6.53E-03,1.12E-02
134066,6.53E-03,1.14E-02
134067,6.52E-03,1.16E-02
134068,6.52E-03,1.18E-02
134069,6.52E-03,1.20E-02
134070,6.52E-03,1.22E-02
134071,6.52E-03,1.25E-02
134072,6.52E-03,1.27E-02
134073,6.52E-03,1.29E-02
134074,6.52E-03,1.31E-02
134075,6.52E-03,1.33E-02
134076,6.52E-03,1.35E-02
134077,6.52E-03,1.37E-02
134078,6.52E-03,1.39E-02
134079,6.52E-03,1.41E-02
134080,6.52E-03,1.44E-02
134081,6.51E-03,1.46E-02
134082,6.51E-03,1.48E-02
134083,6.51E-03,1.50E-02
134084,6.51E-03,1.52E-02
134085,6.51E-03,1.54E-02
134086,6.51E-03,1.56E-02
134087,6.51E-03,1.58E-02
134088,6.51E-03,1.60E-02
134089,6.51E-03,1.62E-02
134090,6.51E-03,1.64E-02
134091,6.51E-03,1.66E-02
134092,6.51E-03,1.68E-02
134093,6.51E-03,1.70E-02
134094,6.51E-03,1.72E-02
134095,6.50E-03,1.75E-02
134096,6.50E-03,1.77E-02
134097,6.50E-03,1.79E-02
134098,6.50E-03,1.81E-02
134099,6.50E-03,1.83E-02
134100,6.50E-03,1.85E-02
134101,6.50E-03,1.87E-02
134102,6.50E-03,1.89E-02
134103,6.50E-03,1.91E-02
134104,6.50E-03,1.93E-02
134105,6.50E-03,1.95E-02
134106,6.50E-03,1.97E-02
134107,6.50E-03,1.99E-02
134108,6.50E-03,2.01E-02
134109,6.49E-03,2.03E-02
134110,6.49E-03,2.05E-02
134111,6.49E-03,2.07E-02
134112,6.49E-03,2.09E-02
134113,6.49E-03,2.11E-02
134114,6.49E-03,2.13E-02
134115,6.49E-03,2.14E-02
134116,6.49E-03,2.16E-02
134117,6.49E-03,2.18E-02
134118,6.49E-03,2.20E-02
134119,6.49E-03,2.22E-02
134120,6.49E-03,2.24E-02
134121,6.49E-03,2.26E-02
134122,6.48E-03,2.28E-02
134123,6.48E-03,2.30E-02
134124,6.48E-03,2.32E-02
134125,6.48E-03,2.33E-02
134126,6.48E-03,2.35E-02
134127,6.48E-03,2.37E-02
134128,6.48E-03,2.39E-02
134129,6.48E-03,2.41E-02
134130,6.48E-03,2.43E-02
134131,6.48E-03,2.44E-02
134132,6.48E-03,2.46E-02
134133,6.53E-03,1.10E-02
134134,6.53E-03,1.12E-02
134135,6.53E-03,1.14E-02
134136,6.52E-03,1.16E-02
134137,6.52E-03,1.18E-02
134138,6.52E-03,1.20E-02
134139,6.52E-03,1.23E-02
134140,6.52E-03,1.25E-02
134141,6.52E-03,1.27E-02
134142,6.52E-03,1.29E-02
134143,6.52E-03,1.31E-02
134144,6.52E-03,1.33E-02
134145,6.52E-03,1.35E-02
134146,6.52E-03,1.37E-02
134147,6.52E-03,1.39E-02
134148,6.52E-03,1.41E-02
134149,6.52E-03,1.44E-02
134150,6.51E-03,1.46E-02
134151,6.51E-03,1.48E-02
134152,6.51E-03,1.50E-02
134153,6.51E-03,1.52E-02
134154,6.51E-03,1.54E-02
134155,6.51E-03,1.56E-02
134156,6.51E-03,1.58E-02
134157,6.51E-03,1.60E-02
134158,6.51E-03,1.62E-02
134159,6.51E-03,1.64E-02
134160,6.51E-03,1.66E-02
134161,6.51E-03,1.68E-02
134162,6.51E-03,1.70E-02
134163,6.51E-03,1.72E-02
134164,6.50E-03,1.75E-02
134165,6.50E-03,1.77E-02
134166,6.50E-03,1.79E-02
134167,6.50E-03,1.81E-02
134168,6.50E-03,1.83E-02
134169,6.50E-03,1.85E-02
134170,6.50E-03,1.87E-02
134171,6.50E-03,1.89E-02
134172,6.50E-03,1.91E-02
134173,6.50E-03,1.93E-02
134174,6.50E-03,1.95E-02
134175,6.50E-03,1.97E-02
134176,6.50E-03,1.99E-02
134177,6.50E-03,2.01E-02
134178,6.49E-03,2.03E-02
134179,6.49E-03,2.05E-02
134180,6.49E-03,2.07E-02
134181,6.49E-03,2.09E-02
134182,6.49E-03,2.11E-02
134183,6.49E-03,2.13E-02
134184,6.49E-03,2.14E-02
134185,6.49E-03,2.16E-02
134186,6.49E-03,2.18E-02
134187,6.49E-03,2.20E-02
134188,6.49E-03,2.22E-02
134189,6.49E-03,2.24E-02
134190,6.49E-03,2.26E-02
134191,6.48E-03,2.28E-02
134192,6.48E-03,2.29E-02
134193,6.48E-03,2.31E-02
134194,6.48E-03,2.33E-02
134195,6.48E-03,2.35E-02
134196,6.48E-03,2.37E-02
134197,6.48E-03,2.39E-02
134198,6.48E-03,2.41E-02
134199,6.48E-03,2.43E-02
134200,6.48E-03,2.44E-02
134201,6.48E-03,2.46E-02
134202,6.53E-03,1.10E-02
134203,6.53E-03,1.12E-02
134204,6.53E-03,1.14E-02
134205,6.52E-03,1.16E-02
134206,6.52E-03,1.18E-02
134207,6.52E-03,1.21E-02
134208,6.52E-03,1.23E-02
134209,6.52E-03,1.25E-02
134210,6.52E-03,1.27E-02
134211,6.52E-03,1.29E-02
134212,6.52E-03,1.31E-02
134213,6.52E-03,1.33E-02
134214,6.52E-03,1.35E-02
134215,6.52E-03,1.37E-02
134216,6.52E-03,1.39E-02
134217,6.52E-03,1.42E-02
134218,6.52E-03,1.44E-02
134219,6.51E-03,1.46E-02
134220,6.51E-03,1.48E-02
134221,6.51E-03,1.50E-02
134222,6.51E-03,1.52E-02
134223,6.51E-03,1.54E-02
134224,6.51E-03,1.56E-02
134225,6.51E-03,1.58E-02
134226,6.51E-03,1.60E-02
134227,6.51E-03,1.62E-02
134228,6.51E-03,1.64E-02
134229,6.51E-03,1.66E-02
134230,6.51E-03,1.68E-02
134231,6.51E-03,1.70E-02
134232,6.51E-03,1.73E-02
134233,6.50E-03,1.75E-02
134234,6.50E-03,1.77E-02
134235,6.50E-03,1.79E-02
134236,6.50E-03,1.81E-02
134237,6.50E-03,1.83E-02
134238,6.50E-03,1.85E-02
134239,6.50E-03,1.87E-02
134240,6.50E-03,1.89E-02
134241,6.50E-03,1.91E-02
134242,6.50E-03,1.93E-02
134243,6.50E-03,1.95E-02
134244,6.50E-03,1.97E-02
134245,6.50E-03,1.99E-02
134246,6.50E-03,2.01E-02
134247,6.49E-03,2.03E-02
134248,6.49E-03,2.05E-02
134249,6.49E-03,2.07E-02
134250,6.49E-03,2.09E-02
134251,6.49E-03,2.11E-02
134252,6.49E-03,2.12E-02
134253,6.49E-03,2.14E-02
134254,6.49E-03,2.16E-02
134255,6.49E-03,2.18E-02
134256,6.49E-03,2.20E-02
134257,6.49E-03,2.22E-02
134258,6.49E-03,2.24E-02
134259,6.49E-03,2.26E-02
134260,6.48E-03,2.27E-02
134261,6.48E-03,2.29E-02
134262,6.48E-03,2.31E-02
134263,6.48E-03,2.33E-02
134264,6.48E-03,2.35E-02
134265,6.48E-03,2.37E-02
134266,6.48E-03,2.39E-02
134267,6.48E-03,2.40E-02
134268,6.48E-03,2.42E-02
134269,6.48E-03,2.44E-02
134270,6.48E-03,2.46E-02
134271,6.53E-03,1.10E-02
134272,6.53E-03,1.12E-02
134273,6.53E-03,1.14E-02
134274,6.52E-03,1.16E-02
134275,6.52E-03,1.19E-02
134276,6.52E-03,1.21E-02
134277,6.52E-03,1.23E-02
134278,6.52E-03,1.25E-02
134279,6.52E-03,1.27E-02
134280,6.52E-03,1.29E-02
134281,6.52E-03,1.31E-02
134282,6.52E-03,1.33E-02
134283,6.52E-03,1.35E-02
134284,6.52E-03,1.37E-02
134285,6.52E-03,1.40E-02
134286,6.52E-03,1.42E-02
134287,6.52E-03,1.44E-02
134288,6.51E-03,1.46E-02
134289,6.51E-03,1.48E-02
134290,6.51E-03,1.50E-02
134291,6.51E-03,1.52E-02
134292,6.51E-03,1.54E-02
134293,6.51E-03,1.56E-02
134294,6.51E-03,1.58E-02
134295,6.51E-03,1.60E-02
134296,6.51E-03,1.62E-02
134297,6.51E-03,1.64E-02
134298,6.51E-03,1.66E-02
134299,6.51E-03,1.68E-02
134300,6.51E-03,1.71E-02
134301,6.51E-03,1.73E-02
134302,6.50E-03,1.75E-02
134303,6.50E-03,1.77E-02
134304,6.50E-03,1.79E-02
134305,6.50E-03,1.81E-02
134306,6.50E-03,1.83E-02
134307,6.50E-03,1.85E-02
134308,6.50E-03,1.87E-02
134309,6.50E-03,1.89E-02
134310,6.50E-03,1.91E-02
134311,6.50E-03,1.93E-02
134312,6.50E-03,1.95E-02
134313,6.50E-03,1.97E-02
134314,6.50E-03,1.99E-02
134315,6.50E-03,2.01E-02
134316,6.49E-03,2.03E-02
134317,6.49E-03,2.05E-02
134318,6.49E-03,2.07E-02
134319,6.49E-03,2.09E-02
134320,6.49E-03,2.11E-02
134321,6.49E-03,2.12E-02
134322,6.49E-03,2.14E-02
134323,6.49E-03,2.16E-02
134324,6.49E-03,2.18E-02
134325,6.49E-03,2.20E-02
134326,6.49E-03,2.22E-02
134327,6.49E-03,2.24E-02
134328,6.49E-03,2.26E-02
134329,6.48E-03,2.27E-02
134330,6.48E-03,2.29E-02
134331,6.48E-03,2.31E-02
134332,6.48E-03,2.33E-02
134333,6.48E-03,2.35E-02
134334,6.48E-03,2.36E-02
134335,6.48E-03,2.38E-02
134336,6.48E-03,2.40E-02
134337,6.48E-03,2.42E-02
134338,6.48E-03,2.44E-02
134339,6.48E-03,2.46E-02
134340,6.53E-03,1.10E-02
134341,6.53E-03,1.12E-02
134342,6.53E-03,1.14E-02
134343,6.52E-03,1.17E-02
134344,6.52E-03,1.19E-02
134345,6.52E-03,1.21E-02
134346,6.52E-03,1.23E-02
134347,6.52E-03,1.25E-02
134348,6.52E-03,1.27E-02
134349,6.52E-03,1.29E-02
134350,6.52E-03,1.31E-02
134351,6.52E-03,1.33E-02
134352,6.52E-03,1.35E-02
134353,6.52E-03,1.38E-02
134354,6.52E-03,1.40E-02
134355,6.52E-03,1.42E-02
134356,6.52E-03,1.44E-02
134357,6.51E-03,1.46E-02
134358,6.51E-03,1.48E-02
134359,6.51E-03,1.50E-02
134360,6.51E-03,1.52E-02
134361,6.51E-03,1.54E-02
134362,6.51E-03,1.56E-02
134363,6.51E-03,1.58E-02
134364,6.51E-03,1.60E-02
134365,6.51E-03,1.62E-02
134366,6.51E-03,1.64E-02
134367,6.51E-03,1.66E-02
134368,6.51E-03,1.69E-02
134369,6.51E-03,1.71E-02
134370,6.51E-03,1.73E-02
134371,6.50E-03,1.75E-02
134372,6.50E-03,1.77E-02
134373,6.50E-03,1.79E-02
134374,6.50E-03,1.81E-02
134375,6.50E-03,1.83E-02
134376,6.50E-03,1.85E-02
134377,6.50E-03,1.87E-02
134378,6.50E-03,1.89E-02
134379,6.50E-03,1.91E-02
134380,6.50E-03,1.93E-02
134381,6.50E-03,1.95E-02
134382,6.50E-03,1.97E-02
134383,6.50E-03,1.99E-02
134384,6.50E-03,2.01E-02
134385,6.49E-03,2.03E-02
134386,6.49E-03,2.05E-02
134387,6.49E-03,2.07E-02
134388,6.49E-03,2.09E-02
134389,6.49E-03,2.11E-02
134390,6.49E-03,2.12E-02
134391,6.49E-03,2.14E-02
134392,6.49E-03,2.16E-02
134393,6.49E-03,2.18E-02
134394,6.49E-03,2.20E-02
134395,6.49E-03,2.22E-02
134396,6.49E-03,2.24E-02
134397,6.49E-03,2.25E-02
134398,6.48E-03,2.27E-02
134399,6.48E-03,2.29E-02
134400,6.48E-03,2.31E-02
134401,6.48E-03,2.33E-02
134402,6.48E-03,2.34E-02
134403,6.48E-03,2.36E-02
134404,6.48E-03,2.38E-02
134405,6.48E-03,2.40E-02
134406,6.48E-03,2.42E-02
134407,6.48E-03,2.44E-02
134408,6.48E-03,2.46E-02
134409,6.53E-03,1.10E-02
134410,6.53E-03,1.12E-02
134411,6.53E-03,1.14E-02
134412,6.52E-03,1.17E-02
134413,6.52E-03,1.19E-02
134414,6.52E-03,1.21E-02
134415,6.52E-03,1.23E-02
134416,6.52E-03,1.25E-02
134417,6.52E-03,1.27E-02
134418,6.52E-03,1.29E-02
134419,6.52E-03,1.31E-02
134420,6.52E-03,1.33E-02
134421,6.52E-03,1.36E-02
134422,6.52E-03,1.38E-02
134423,6.52E-03,1.40E-02
134424,6.52E-03,1.42E-02
134425,6.52E-03,1.44E-02
134426,6.51E-03,1.46E-02
134427,6.51E-03,1.48E-02
134428,6.51E-03,1.50E-02
134429,6.51E-03,1.52E-02
134430,6.51E-03,1.54E-02
134431,6.51E-03,1.56E-02
134432,6.51E-03,1.58E-02
134433,6.51E-03,1.60E-02
134434,6.51E-03,1.62E-02
134435,6.51E-03,1.64E-02
134436,6.51E-03,1.67E-02
134437,6.51E-03,1.69E-02
134438,6.51E-03,1.71E-02
134439,6.51E-03,1.73E-02
134440,6.50E-03,1.75E-02
134441,6.50E-03,1.77E-02
134442,6.50E-03,1.79E-02
134443,6.50E-03,1.81E-02
134444,6.50E-03,1.83E-02
134445,6.50E-03,1.85E-02
134446,6.50E-03,1.87E-02
134447,6.50E-03,1.89E-02
134448,6.50E-03,1.91E-02
134449,6.50E-03,1.93E-02
134450,6.50E-03,1.95E-02
134451,6.50E-03,1.97E-02
134452,6.50E-03,1.99E-02
134453,6.50E-03,2.01E-02
134454,6.49E-03,2.03E-02
134455,6.49E-03,2.05E-02
134456,6.49E-03,2.07E-02
134457,6.49E-03,2.09E-02
134458,6.49E-03,2.11E-02
134459,6.49E-03,2.12E-02
134460,6.49E-03,2.14E-02
134461,6.49E-03,2.16E-02
134462,6.49E-03,2.18E-02
134463,6.49E-03,2.20E-02
134464,6.49E-03,2.22E-02
134465,6.49E-03,2.24E-02
134466,6.49E-03,2.25E-02
134467,6.48E-03,2.27E-02
134468,6.48E-03,2.29E-02
134469,6.48E-03,2.31E-02
134470,6.48E-03,2.32E-02
134471,6.48E-03,2.34E-02
134472,6.48E-03,2.36E-02
134473,6.48E-03,2.38E-02
134474,6.48E-03,2.40E-02
134475,6.48E-03,2.42E-02
134476,6.48E-03,2.44E-02
134477,6.48E-03,2.46E-02
134478,6.53E-03,1.10E-02
134479,6.53E-03,1.12E-02
134480,6.53E-03,1.15E-02
134481,6.52E-03,1.17E-02
134482,6.52E-03,1.19E-02
134483,6.52E-03,1.21E-02
134484,6.52E-03,1.23E-02
134485,6.52E-03,1.25E-02
134486,6.52E-03,1.27E-02
134487,6.52E-03,1.29E-02
134488,6.52E-03,1.31E-02
134489,6.52E-03,1.34E-02
134490,6.52E-03,1.36E-02
134491,6.52E-03,1.38E-02
134492,6.52E-03,1.40E-02
134493,6.52E-03,1.42E-02
134494,6.52E-03,1.44E-02
134495,6.51E-03,1.46E-02
134496,6.51E-03,1.48E-02
134497,6.51E-03,1.50E-02
134498,6.51E-03,1.52E-02
134499,6.51E-03,1.54E-02
134500,6.51E-03,1.56E-02
134501,6.51E-03,1.58E-02
134502,6.51E-03,1.60E-02
134503,6.51E-03,1.62E-02
134504,6.51E-03,1.65E-02
134505,6.51E-03,1.67E-02
134506,6.51E-03,1.69E-02
134507,6.51E-03,1.71E-02
134508,6.51E-03,1.73E-02
134509,6.50E-03,1.75E-02
134510,6.50E-03,1.77E-02
134511,6.50E-03,1.79E-02
134512,6.50E-03,1.81E-02
134513,6.50E-03,1.83E-02
134514,6.50E-03,1.85E-02
134515,6.50E-03,1.87E-02
134516,6.50E-03,1.89E-02
134517,6.50E-03,1.91E-02
134518,6.50E-03,1.93E-02
134519,6.50E-03,1.95E-02
134520,6.50E-03,1.97E-02
134521,6.50E-03,1.99E-02
134522,6.50E-03,2.01E-02
134523,6.49E-03,2.03E-02
134524,6.49E-03,2.05E-02
134525,6.49E-03,2.07E-02
134526,6.49E-03,2.09E-02
134527,6.49E-03,2.11E-02
134528,6.49E-03,2.12E-02
134529,6.49E-03,2.14E-02
134530,6.49E-03,2.16E-02
134531,6.49E-03,2.18E-02
134532,6.49E-03,2.20E-02
134533,6.49E-03,2.22E-02
134534,6.49E-03,2.23E-02
134535,6.49E-03,2.25E-02
134536,6.48E-03,2.27E-02
134537,6.48E-03,2.29E-02
134538,6.48E-03,2.30E-02
134539,6.48E-03,2.32E-02
134540,6.48E-03,2.34E-02
134541,6.48E-03,2.36E-02
134542,6.48E-03,2.38E-02
134543,6.48E-03,2.39E-02
134544,6.48E-03,2.41E-02
134545,6.48E-03,2.44E-02
134546,6.48E-03,2.46E-02
134547,6.53E-03,1.10E-02
134548,6.53E-03,1.13E-02
134549,6.53E-03,1.15E-02
134550,6.52E-03,1.17E-02
134551,6.52E-03,1.19E-02
134552,6.52E-03,1.21E-02
134553,6.52E-03,1.23E-02
134554,6.52E-03,1.25E-02
134555,6.52E-03,1.27E-02
134556,6.52E-03,1.29E-02
134557,6.52E-03,1.32E-02
134558,6.52E-03,1.34E-02
134559,6.52E-03,1.36E-02
134560,6.52E-03,1.38E-02
134561,6.52E-03,1.40E-02
134562,6.52E-03,1.42E-02
134563,6.52E-03,1.44E-02
134564,6.51E-03,1.46E-02
134565,6.51E-03,1.48E-02
134566,6.51E-03,1.50E-02
134567,6.51E-03,1.52E-02
134568,6.51E-03,1.54E-02
134569,6.51E-03,1.56E-02
134570,6.51E-03,1.58E-02
134571,6.51E-03,1.60E-02
134572,6.51E-03,1.63E-02
134573,6.51E-03,1.65E-02
134574,6.51E-03,1.67E-02
134575,6.51E-03,1.69E-02
134576,6.51E-03,1.71E-02
134577,6.51E-03,1.73E-02
134578,6.50E-03,1.75E-02
134579,6.50E-03,1.77E-02
134580,6.50E-03,1.79E-02
134581,6.50E-03,1.81E-02
134582,6.50E-03,1.83E-02
134583,6.50E-03,1.85E-02
134584,6.50E-03,1.87E-02
134585,6.50E-03,1.89E-02
134586,6.50E-03,1.91E-02
134587,6.50E-03,1.93E-02
134588,6.50E-03,1.95E-02
134589,6.50E-03,1.97E-02
134590,6.50E-03,1.99E-02
134591,6.50E-03,2.01E-02
134592,6.49E-03,2.03E-02
134593,6.49E-03,2.05E-02
134594,6.49E-03,2.07E-02
134595,6.49E-03,2.09E-02
134596,6.49E-03,2.11E-02
134597,6.49E-03,2.12E-02
134598,6.49E-03,2.14E-02
134599,6.49E-03,2.16E-02
134600,6.49E-03,2.18E-02
134601,6.49E-03,2.20E-02
134602,6.49E-03,2.22E-02
134603,6.49E-03,2.23E-02
134604,6.49E-03,2.25E-02
134605,6.48E-03,2.27E-02
134606,6.48E-03,2.29E-02
134607,6.48E-03,2.30E-02
134608,6.48E-03,2.32E-02
134609,6.48E-03,2.34E-02
134610,6.48E-03,2.36E-02
134611,6.48E-03,2.37E-02
134612,6.48E-03,2.39E-02
134613,6.48E-03,2.41E-02
134614,6.48E-03,2.43E-02
134615,6.48E-03,2.46E-02
134616,6.53E-03,1.11E-02
134617,6.53E-03,1.13E-02
134618,6.53E-03,1.15E-02
134619,6.52E-03,1.17E-02
134620,6.52E-03,1.19E-02
134621,6.52E-03,1.21E-02
134622,6.52E-03,1.23E-02
134623,6.52E-03,1.25E-02
134624,6.52E-03,1.27E-02
134625,6.52E-03,1.30E-02
134626,6.52E-03,1.32E-02
134627,6.52E-03,1.34E-02
134628,6.52E-03,1.36E-02
134629,6.52E-03,1.38E-02
134630,6.52E-03,1.40E-02
134631,6.52E-03,1.42E-02
134632,6.52E-03,1.44E-02
134633,6.51E-03,1.46E-02
134634,6.51E-03,1.48E-02
134635,6.51E-03,1.50E-02
134636,6.51E-03,1.52E-02
134637,6.51E-03,1.54E-02
134638,6.51E-03,1.56E-02
134639,6.51E-03,1.58E-02
134640,6.51E-03,1.61E-02
134641,6.51E-03,1.63E-02
134642,6.51E-03,1.65E-02
134643,6.51E-03,1.67E-02
134644,6.51E-03,1.69E-02
134645,6.51E-03,1.71E-02
134646,6.51E-03,1.73E-02
134647,6.50E-03,1.75E-02
134648,6.50E-03,1.77E-02
134649,6.50E-03,1.79E-02
134650,6.50E-03,1.81E-02
134651,6.50E-03,1.83E-02
134652,6.50E-03,1.85E-02
134653,6.50E-03,1.87E-02
134654,6.50E-03,1.89E-02
134655,6.50E-03,1.91E-02
134656,6.50E-03,1.93E-02
134657,6.50E-03,1.95E-02
134658,6.50E-03,1.97E-02
134659,6.50E-03,1.99E-02
134660,6.50E-03,2.01E-02
134661,6.49E-03,2.03E-02
134662,6.49E-03,2.05E-02
134663,6.49E-03,2.07E-02
134664,6.49E-03,2.09E-02
134665,6.49E-03,2.11E-02
134666,6.49E-03,2.12E-02
134667,6.49E-03,2.14E-02
134668,6.49E-03,2.16E-02
134669,6.49E-03,2.18E-02
134670,6.49E-03,2.20E-02
134671,6.49E-03,2.22E-02
134672,6.49E-03,2.23E-02
134673,6.49E-03,2.25E-02
134674,6.48E-03,2.27E-02
134675,6.48E-03,2.29E-02
134676,6.48E-03,2.30E-02
134677,6.48E-03,2.32E-02
134678,6.48E-03,2.34E-02
134679,6.48E-03,2.35E-02
134680,6.48E-03,2.37E-02
134681,6.48E-03,2.39E-02
134682,6.48E-03,2.41E-02
134683,6.48E-03,2.43E-02
134684,6.48E-03,2.46E-02
134685,6.53E-03,1.11E-02
134686,6.53E-03,1.13E-02
134687,6.53E-03,1.15E-02
134688,6.52E-03,1.17E-02
134689,6.52E-03,1.19E-02
134690,6.52E-03,1.21E-02
134691,6.52E-03,1.23E-02
134692,6.52E-03,1.25E-02
134693,6.52E-03,1.28E-02
134694,6.52E-03,1.30E-02
134695,6.52E-03,1.32E-02
134696,6.52E-03,1.34E-02
134697,6.52E-03,1.36E-02
134698,6.52E-03,1.38E-02
134699,6.52E-03,1.40E-02
134700,6.52E-03,1.42E-02
134701,6.52E-03,1.44E-02
134702,6.51E-03,1.46E-02
134703,6.51E-03,1.48E-02
134704,6.51E-03,1.50E-02
134705,6.51E-03,1.52E-02
134706,6.51E-03,1.54E-02
134707,6.51E-03,1.56E-02
134708,6.51E-03,1.59E-02
134709,6.51E-03,1.61E-02
134710,6.51E-03,1.63E-02
134711,6.51E-03,1.65E-02
134712,6.51E-03,1.67E-02
134713,6.51E-03,1.69E-02
134714,6.51E-03,1.71E-02
134715,6.51E-03,1.73E-02
134716,6.50E-03,1.75E-02
134717,6.50E-03,1.77E-02
134718,6.50E-03,1.79E-02
134719,6.50E-03,1.81E-02
134720,6.50E-03,1.83E-02
134721,6.50E-03,1.85E-02
134722,6.50E-03,1.87E-02
134723,6.50E-03,1.89E-02
134724,6.50E-03,1.91E-02
134725,6.50E-03,1.93E-02
134726,6.50E-03,1.95E-02
134727,6.50E-03,1.97E-02
134728,6.50E-03,1.99E-02
134729,6.50E-03,2.01E-02
134730,6.49E-03,2.03E-02
134731,6.49E-03,2.05E-02
134732,6.49E-03,2.07E-02
134733,6.49E-03,2.09E-02
134734,6.49E-03,2.11E-02
134735,6.49E-03,2.13E-02
134736,6.49E-03,2.14E-02
134737,6.49E-03,2.16E-02
134738,6.49E-03,2.18E-02
134739,6.49E-03,2.20E-02
134740,6.49E-03,2.22E-02
134741,6.49E-03,2.23E-02
134742,6.49E-03,2.25E-02
134743,6.48E-03,2.27E-02
134744,6.48E-03,2.29E-02
134745,6.48E-03,2.30E-02
134746,6.48E-03,2.32E-02
134747,6.48E-03,2.34E-02
134748,6.48E-03,2.35E-02
134749,6.48E-03,2.37E-02
134750,6.48E-03,2.39E-02
134751,6.48E-03,2.41E-02
134752,6.48E-03,2.43E-02
134753,6.48E-03,2.46E-02
134754,6.53E-03,1.11E-02
134755,6.53E-03,1.13E-02
134756,6.53E-03,1.15E-02
134757,6.52E-03,1.17E-02
134758,6.52E-03,1.19E-02
134759,6.52E-03,1.21E-02
134760,6.52E-03,1.23E-02
134761,6.52E-03,1.26E-02
134762,6.52E-03,1.28E-02
134763,6.52E-03,1.30E-02
134764,6.52E-03,1.32E-02
134765,6.52E-03,1.34E-02
134766,6.52E-03,1.36E-02
134767,6.52E-03,1.38E-02
134768,6.52E-03,1.40E-02
134769,6.52E-03,1.42E-02
134770,6.52E-03,1.44E-02
134771,6.51E-03,1.46E-02
134772,6.51E-03,1.48E-02
134773,6.51E-03,1.50E-02
134774,6.51E-03,1.52E-02
134775,6.51E-03,1.54E-02
134776,6.51E-03,1.57E-02
134777,6.51E-03,1.59E-02
134778,6.51E-03,1.61E-02
134779,6.51E-03,1.63E-02
134780,6.51E-03,1.65E-02
134781,6.51E-03,1.67E-02
134782,6.51E-03,1.69E-02
134783,6.51E-03,1.71E-02
134784,6.51E-03,1.73E-02
134785,6.50E-03,1.75E-02
134786,6.50E-03,1.77E-02
134787,6.50E-03,1.79E-02
134788,6.50E-03,1.81E-02
134789,6.50E-03,1.83E-02
134790,6.50E-03,1.85E-02
134791,6.50E-03,1.87E-02
134792,6.50E-03,1.89E-02
134793,6.50E-03,1.91E-02
134794,6.50E-03,1.93E-02
134795,6.50E-03,1.95E-02
134796,6.50E-03,1.97E-02
134797,6.50E-03,1.99E-02
134798,6.50E-03,2.01E-02
134799,6.49E-03,2.03E-02
134800,6.49E-03,2.05E-02
134801,6.49E-03,2.07E-02
134802,6.49E-03,2.09E-02
134803,6.49E-03,2.11E-02
134804,6.49E-03,2.13E-02
134805,6.49E-03,2.14E-02
134806,6.49E-03,2.16E-02
134807,6.49E-03,2.18E-02
134808,6.49E-03,2.20E-02
134809,6.49E-03,2.22E-02
134810,6.49E-03,2.23E-02
134811,6.49E-03,2.25E-02
134812,6.48E-03,2.27E-02
134813,6.48E-03,2.29E-02
134814,6.48E-03,2.30E-02
134815,6.48E-03,2.32E-02
134816,6.48E-03,2.33E-02
134817,6.48E-03,2.35E-02
134818,6.48E-03,2.37E-02
134819,6.48E-03,2.39E-02
134820,6.48E-03,2.41E-02
134821,6.48E-03,2.43E-02
134822,6.48E-03,2.46E-02
134823,6.53E-03,1.11E-02
134824,6.53E-03,1.13E-02
134825,6.53E-03,1.15E-02
134826,6.52E-03,1.17E-02
134827,6.52E-03,1.19E-02
134828,6.52E-03,1.21E-02
134829,6.52E-03,1.24E-02
134830,6.52E-03,1.26E-02
134831,6.52E-03,1.28E-02
134832,6.52E-03,1.30E-02
134833,6.52E-03,1.32E-02
134834,6.52E-03,1.34E-02
134835,6.52E-03,1.36E-02
134836,6.52E-03,1.38E-02
134837,6.52E-03,1.40E-02
134838,6.52E-03,1.42E-02
134839,6.52E-03,1.44E-02
134840,6.51E-03,1.46E-02
134841,6.51E-03,1.48E-02
134842,6.51E-03,1.50E-02
134843,6.51E-03,1.53E-02
134844,6.51E-03,1.55E-02
134845,6.51E-03,1.57E-02
134846,6.51E-03,1.59E-02
134847,6.51E-03,1.61E-02
134848,6.51E-03,1.63E-02
134849,6.51E-03,1.65E-02
134850,6.51E-03,1.67E-02
134851,6.51E-03,1.69E-02
134852,6.51E-03,1.71E-02
134853,6.51E-03,1.73E-02
134854,6.50E-03,1.75E-02
134855,6.50E-03,1.77E-02
134856,6.50E-03,1.79E-02
134857,6.50E-03,1.81E-02
134858,6.50E-03,1.83E-02
134859,6.50E-03,1.85E-02
134860,6.50E-03,1.87E-02
134861,6.50E-03,1.89E-02
134862,6.50E-03,1.91E-02
134863,6.50E-03,1.93E-02
134864,6.50E-03,1.95E-02
134865,6.50E-03,1.97E-02
134866,6.50E-03,1.99E-02
134867,6.50E-03,2.01E-02
134868,6.49E-03,2.03E-02
134869,6.49E-03,2.05E-02
134870,6.49E-03,2.07E-02
134871,6.49E-03,2.09E-02
134872,6.49E-03,2.11E-02
134873,6.49E-03,2.13E-02
134874,6.49E-03,2.15E-02
134875,6.49E-03,2.16E-02
134876,6.49E-03,2.18E-02
134877,6.49E-03,2.20E-02
134878,6.49E-03,2.22E-02
134879,6.49E-03,2.24E-02
134880,6.49E-03,2.25E-02
134881,6.48E-03,2.27E-02
134882,6.48E-03,2.29E-02
134883,6.48E-03,2.30E-02
134884,6.48E-03,2.32E-02
134885,6.48E-03,2.34E-02
134886,6.48E-03,2.35E-02
134887,6.48E-03,2.37E-02
134888,6.48E-03,2.39E-02
134889,6.48E-03,2.41E-02
134890,6.48E-03,2.43E-02
134891,6.48E-03,2.46E-02
134892,6.53E-03,1.11E-02
134893,6.53E-03,1.13E-02
134894,6.53E-03,1.15E-02
134895,6.52E-03,1.17E-02
134896,6.52E-03,1.20E-02
134897,6.52E-03,1.22E-02
134898,6.52E-03,1.24E-02
134899,6.52E-03,1.26E-02
134900,6.52E-03,1.28E-02
134901,6.52E-03,1.30E-02
134902,6.52E-03,1.32E-02
134903,6.52E-03,1.34E-02
134904,6.52E-03,1.36E-02
134905,6.52E-03,1.38E-02
134906,6.52E-03,1.40E-02
134907,6.52E-03,1.42E-02
134908,6.52E-03,1.44E-02
134909,6.51E-03,1.46E-02
134910,6.51E-03,1.48E-02
134911,6.51E-03,1.51E-02
134912,6.51E-03,1.53E-02
134913,6.51E-03,1.55E-02
134914,6.51E-03,1.57E-02
134915,6.51E-03,1.59E-02
134916,6.51E-03,1.61E-02
134917,6.51E-03,1.63E-02
134918,6.51E-03,1.65E-02
134919,6.51E-03,1.67E-02
134920,6.51E-03,1.69E-02
134921,6.51E-03,1.71E-02
134922,6.51E-03,1.73E-02
134923,6.50E-03,1.75E-02
134924,6.50E-03,1.77E-02
134925,6.50E-03,1.79E-02
134926,6.50E-03,1.81E-02
134927,6.50E-03,1.83E-02
134928,6.50E-03,1.85E-02
134929,6.50E-03,1.87E-02
134930,6.50E-03,1.89E-02
134931,6.50E-03,1.91E-02
134932,6.50E-03,1.93E-02
134933,6.50E-03,1.95E-02
134934,6.50E-03,1.97E-02
134935,6.50E-03,1.99E-02
134936,6.50E-03,2.01E-02
134937,6.49E-03,2.03E-02
134938,6.49E-03,2.05E-02
134939,6.49E-03,2.07E-02
134940,6.49E-03,2.09E-02
134941,6.49E-03,2.11E-02
134942,6.49E-03,2.13E-02
134943,6.49E-03,2.15E-02
134944,6.49E-03,2.16E-02
134945,6.49E-03,2.18E-02
134946,6.49E-03,2.20E-02
134947,6.49E-03,2.22E-02
134948,6.49E-03,2.24E-02
134949,6.49E-03,2.25E-02
134950,6.48E-03,2.27E-02
134951,6.48E-03,2.29E-02
134952,6.48E-03,2.30E-02
134953,6.48E-03,2.32E-02
134954,6.48E-03,2.34E-02
134955,6.48E-03,2.35E-02
134956,6.48E-03,2.37E-02
134957,6.48E-03,2.39E-02
134958,6.48E-03,2.41E-02
134959,6.48E-03,2.43E-02
134960,6.48E-03,2.46E-02
134961,6.53E-03,1.11E-02
134962,6.53E-03,1.13E-02
134963,6.53E-03,1.15E-02
134964,6.52E-03,1.18E-02
134965,6.52E-03,1.20E-02
134966,6.52E-03,1.22E-02
134967,6.52E-03,1.24E-02
134968,6.52E-03,1.26E-02
134969,6.52E-03,1.28E-02
134970,6.52E-03,1.30E-02
134971,6.52E-03,1.32E-02
134972,6.52E-03,1.34E-02
134973,6.52E-03,1.36E-02
134974,6.52E-03,1.38E-02
134975,6.52E-03,1.40E-02
134976,6.52E-03,1.42E-02
134977,6.52E-03,1.44E-02
134978,6.51E-03,1.47E-02
134979,6.51E-03,1.49E-02
134980,6.51E-03,1.51E-02
134981,6.51E-03,1.53E-02
134982,6.51E-03,1.55E-02
134983,6.51E-03,1.57E-02
134984,6.51E-03,1.59E-02
134985,6.51E-03,1.61E-02
134986,6.51E-03,1.63E-02
134987,6.51E-03,1.65E-02
134988,6.51E-03,1.67E-02
134989,6.51E-03,1.69E-02
134990,6.51E-03,1.71E-02
134991,6.51E-03,1.73E-02
134992,6.50E-03,1.75E-02
134993,6.50E-03,1.77E-02
134994,6.50E-03,1.79E-02
134995,6.50E-03,1.81E-02
134996,6.50E-03,1.83E-02
134997,6.50E-03,1.85E-02
134998,6.50E-03,1.87E-02
134999,6.50E-03,1.89E-02
135000,6.50E-03,1.91E-02
135001,6.50E-03,1.93E-02
135002,6.50E-03,1.95E-02
135003,6.50E-03,1.97E-02
135004,6.50E-03,1.99E-02
135005,6.50E-03,2.01E-02
135006,6.49E-03,2.03E-02
135007,6.49E-03,2.05E-02
135008,6.49E-03,2.07E-02
135009,6.49E-03,2.09E-02
135010,6.49E-03,2.11E-02
135011,6.49E-03,2.13E-02
135012,6.49E-03,2.15E-02
135013,6.49E-03,2.17E-02
135014,6.49E-03,2.18E-02
135015,6.49E-03,2.20E-02
135016,6.49E-03,2.22E-02
135017,6.49E-03,2.24E-02
135018,6.49E-03,2.26E-02
135019,6.48E-03,2.27E-02
135020,6.48E-03,2.29E-02
135021,6.48E-03,2.31E-02
135022,6.48E-03,2.32E-02
135023,6.48E-03,2.34E-02
135024,6.48E-03,2.35E-02
135025,6.48E-03,2.37E-02
135026,6.48E-03,2.39E-02
135027,6.48E-03,2.41E-02
135028,6.48E-03,2.43E-02
135029,6.48E-03,2.46E-02
135030,6.53E-03,1.11E-02
135031,6.53E-03,1.13E-02
135032,6.53E-03,1.16E-02
135033,6.52E-03,1.18E-02
135034,6.52E-03,1.20E-02
135035,6.52E-03,1.22E-02
135036,6.52E-03,1.24E-02
135037,6.52E-03,1.26E-02
135038,6.52E-03,1.28E-02
135039,6.52E-03,1.30E-02
135040,6.52E-03,1.32E-02
135041,6.52E-03,1.34E-02
135042,6.52E-03,1.36E-02
135043,6.52E-03,1.38E-02
135044,6.52E-03,1.40E-02
135045,6.52E-03,1.43E-02
135046,6.52E-03,1.45E-02
135047,6.51E-03,1.47E-02
135048,6.51E-03,1.49E-02
135049,6.51E-03,1.51E-02
135050,6.51E-03,1.53E-02
135051,6.51E-03,1.55E-02
135052,6.51E-03,1.57E-02
135053,6.51E-03,1.59E-02
135054,6.51E-03,1.61E-02
135055,6.51E-03,1.63E-02
135056,6.51E-03,1.65E-02
135057,6.51E-03,1.67E-02
135058,6.51E-03,1.69E-02
135059,6.51E-03,1.71E-02
135060,6.51E-03,1.73E-02
135061,6.50E-03,1.75E-02
135062,6.50E-03,1.77E-02
135063,6.50E-03,1.79E-02
135064,6.50E-03,1.81E-02
135065,6.50E-03,1.83E-02
135066,6.50E-03,1.85E-02
135067,6.50E-03,1.87E-02
135068,6.50E-03,1.89E-02
135069,6.50E-03,1.91E-02
135070,6.50E-03,1.93E-02
135071,6.50E-03,1.95E-02
135072,6.50E-03,1.97E-02
135073,6.50E-03,1.99E-02
135074,6.50E-03,2.01E-02
135075,6.49E-03,2.03E-02
135076,6.49E-03,2.05E-02
135077,6.49E-03,2.07E-02
135078,6.49E-03,2.09E-02
135079,6.49E-03,2.11E-02
135080,6.49E-03,2.13E-02
135081,6.49E-03,2.15E-02
135082,6.49E-03,2.17E-02
135083,6.49E-03,2.19E-02
135084,6.49E-03,2.20E-02
135085,6.49E-03,2.22E-02
135086,6.49E-03,2.24E-02
135087,6.49E-03,2.26E-02
135088,6.48E-03,2.27E-02
135089,6.48E-03,2.29E-02
135090,6.48E-03,2.31E-02
135091,6.48E-03,2.32E-02
135092,6.48E-03,2.34E-02
135093,6.48E-03,2.36E-02
135094,6.48E-03,2.37E-02
135095,6.48E-03,2.39E-02
135096,6.48E-03,2.41E-02
135097,6.48E-03,2.43E-02
135098,6.48E-03,2.46E-02
135099,6.53E-03,1.11E-02
135100,6.53E-03,1.14E-02
135101,6.53E-03,1.16E-02
135102,6.52E-03,1.18E-02
135103,6.52E-03,1.20E-02
135104,6.52E-03,1.22E-02
135105,6.52E-03,1.24E-02
135106,6.52E-03,1.26E-02
135107,6.52E-03,1.28E-02
135108,6.52E-03,1.30E-02
135109,6.52E-03,1.32E-02
135110,6.52E-03,1.34E-02
135111,6.52E-03,1.36E-02
135112,6.52E-03,1.38E-02
135113,6.52E-03,1.41E-02
135114,6.52E-03,1.43E-02
135115,6.52E-03,1.45E-02
135116,6.51E-03,1.47E-02
135117,6.51E-03,1.49E-02
135118,6.51E-03,1.51E-02
135119,6.51E-03,1.53E-02
135120,6.51E-03,1.55E-02
135121,6.51E-03,1.57E-02
135122,6.51E-03,1.59E-02
135123,6.51E-03,1.61E-02
135124,6.51E-03,1.63E-02
135125,6.51E-03,1.65E-02
135126,6.51E-03,1.67E-02
135127,6.51E-03,1.69E-02
135128,6.51E-03,1.71E-02
135129,6.51E-03,1.73E-02
135130,6.50E-03,1.75E-02
135131,6.50E-03,1.77E-02
135132,6.50E-03,1.79E-02
135133,6.50E-03,1.81E-02
135134,6.50E-03,1.83E-02
135135,6.50E-03,1.85E-02
135136,6.50E-03,1.87E-02
135137,6.50E-03,1.89E-02
135138,6.50E-03,1.91E-02
135139,6.50E-03,1.93E-02
135140,6.50E-03,1.95E-02
135141,6.50E-03,1.97E-02
135142,6.50E-03,1.99E-02
135143,6.50E-03,2.01E-02
135144,6.49E-03,2.03E-02
135145,6.49E-03,2.05E-02
135146,6.49E-03,2.07E-02
135147,6.49E-03,2.09E-02
135148,6.49E-03,2.11E-02
135149,6.49E-03,2.13E-02
135150,6.49E-03,2.15E-02
135151,6.49E-03,2.17E-02
135152,6.49E-03,2.19E-02
135153,6.49E-03,2.21E-02
135154,6.49E-03,2.22E-02
135155,6.49E-03,2.24E-02
135156,6.49E-03,2.26E-02
135157,6.48E-03,2.28E-02
135158,6.48E-03,2.29E-02
135159,6.48E-03,2.31E-02
135160,6.48E-03,2.33E-02
135161,6.48E-03,2.34E-02
135162,6.48E-03,2.36E-02
135163,6.48E-03,2.38E-02
135164,6.48E-03,2.39E-02
135165,6.48E-03,2.41E-02
135166,6.48E-03,2.43E-02
135167,6.48E-03,2.45E-02
135168,6.53E-03,1.12E-02
135169,6.53E-03,1.14E-02
135170,6.53E-03,1.16E-02
135171,6.52E-03,1.18E-02
135172,6.52E-03,1.20E-02
135173,6.52E-03,1.22E-02
135174,6.52E-03,1.24E-02
135175,6.52E-03,1.26E-02
135176,6.52E-03,1.28E-02
135177,6.52E-03,1.30E-02
135178,6.52E-03,1.32E-02
135179,6.52E-03,1.34E-02
135180,6.52E-03,1.37E-02
135181,6.52E-03,1.39E-02
135182,6.52E-03,1.41E-02
135183,6.52E-03,1.43E-02
135184,6.52E-03,1.45E-02
135185,6.51E-03,1.47E-02
135186,6.51E-03,1.49E-02
135187,6.51E-03,1.51E-02
135188,6.51E-03,1.53E-02
135189,6.51E-03,1.55E-02
135190,6.51E-03,1.57E-02
135191,6.51E-03,1.59E-02
135192,6.51E-03,1.61E-02
135193,6.51E-03,1.63E-02
135194,6.51E-03,1.65E-02
135195,6.51E-03,1.67E-02
135196,6.51E-03,1.69E-02
135197,6.51E-03,1.71E-02
135198,6.51E-03,1.73E-02
135199,6.50E-03,1.75E-02
135200,6.50E-03,1.77E-02
135201,6.50E-03,1.79E-02
135202,6.50E-03,1.81E-02
135203,6.50E-03,1.83E-02
135204,6.50E-03,1.85E-02
135205,6.50E-03,1.87E-02
135206,6.50E-03,1.89E-02
135207,6.50E-03,1.91E-02
135208,6.50E-03,1.93E-02
135209,6.50E-03,1.95E-02
135210,6.50E-03,1.97E-02
135211,6.50E-03,1.99E-02
135212,6.50E-03,2.01E-02
135213,6.49E-03,2.03E-02
135214,6.49E-03,2.05E-02
135215,6.49E-03,2.07E-02
135216,6.49E-03,2.09E-02
135217,6.49E-03,2.11E-02
135218,6.49E-03,2.13E-02
135219,6.49E-03,2.15E-02
135220,6.49E-03,2.17E-02
135221,6.49E-03,2.19E-02
135222,6.49E-03,2.21E-02
135223,6.49E-03,2.23E-02
135224,6.49E-03,2.24E-02
135225,6.49E-03,2.26E-02
135226,6.48E-03,2.28E-02
135227,6.48E-03,2.30E-02
135228,6.48E-03,2.31E-02
135229,6.48E-03,2.33E-02
135230,6.48E-03,2.35E-02
135231,6.48E-03,2.36E-02
135232,6.48E-03,2.38E-02
135233,6.48E-03,2.39E-02
135234,6.48E-03,2.41E-02
135235,6.48E-03,2.43E-02
135236,6.48E-03,2.45E-02
135237,6.53E-03,1.12E-02
135238,6.53E-03,1.14E-02
135239,6.53E-03,1.16E-02
135240,6.52E-03,1.18E-02
135241,6.52E-03,1.20E-02
135242,6.52E-03,1.22E-02
135243,6.52E-03,1.24E-02
135244,6.52E-03,1.26E-02
135245,6.52E-03,1.28E-02
135246,6.52E-03,1.30E-02
135247,6.52E-03,1.33E-02
135248,6.52E-03,1.35E-02
135249,6.52E-03,1.37E-02
135250,6.52E-03,1.39E-02
135251,6.52E-03,1.41E-02
135252,6.52E-03,1.43E-02
135253,6.52E-03,1.45E-02
135254,6.51E-03,1.47E-02
135255,6.51E-03,1.49E-02
135256,6.51E-03,1.51E-02
135257,6.51E-03,1.53E-02
135258,6.51E-03,1.55E-02
135259,6.51E-03,1.57E-02
135260,6.51E-03,1.59E-02
135261,6.51E-03,1.61E-02
135262,6.51E-03,1.63E-02
135263,6.51E-03,1.65E-02
135264,6.51E-03,1.67E-02
135265,6.51E-03,1.69E-02
135266,6.51E-03,1.71E-02
135267,6.51E-03,1.73E-02
135268,6.50E-03,1.75E-02
135269,6.50E-03,1.77E-02
135270,6.50E-03,1.79E-02
135271,6.50E-03,1.81E-02
135272,6.50E-03,1.83E-02
135273,6.50E-03,1.85E-02
135274,6.50E-03,1.87E-02
135275,6.50E-03,1.89E-02
135276,6.50E-03,1.91E-02
135277,6.50E-03,1.93E-02
135278,6.50E-03,1.95E-02
135279,6.50E-03,1.97E-02
135280,6.50E-03,1.99E-02
135281,6.50E-03,2.01E-02
135282,6.49E-03,2.03E-02
135283,6.49E-03,2.05E-02
135284,6.49E-03,2.07E-02
135285,6.49E-03,2.09E-02
135286,6.49E-03,2.11E-02
135287,6.49E-03,2.13E-02
135288,6.49E-03,2.15E-02
135289,6.49E-03,2.17E-02
135290,6.49E-03,2.19E-02
135291,6.49E-03,2.21E-02
135292,6.49E-03,2.23E-02
135293,6.49E-03,2.25E-02
135294,6.49E-03,2.27E-02
135295,6.48E-03,2.28E-02
135296,6.48E-03,2.30E-02
135297,6.48E-03,2.32E-02
135298,6.48E-03,2.34E-02
135299,6.48E-03,2.35E-02
135300,6.48E-03,2.37E-02
135301,6.48E-03,2.38E-02
135302,6.48E-03,2.40E-02
135303,6.48E-03,2.41E-02
135304,6.48E-03,2.43E-02
135305,6.48E-03,2.45E-02
135306,6.53E-03,1.12E-02
135307,6.53E-03,1.14E-02
135308,6.53E-03,1.16E-02
135309,6.52E-03,1.18E-02
135310,6.52E-03,1.20E-02
135311,6.52E-03,1.22E-02
135312,6.52E-03,1.24E-02
135313,6.52E-03,1.26E-02
135314,6.52E-03,1.29E-02
135315,6.52E-03,1.31E-02
135316,6.52E-03,1.33E-02
135317,6.52E-03,1.35E-02
135318,6.52E-03,1.37E-02
135319,6.52E-03,1.39E-02
135320,6.52E-03,1.41E-02
135321,6.52E-03,1.43E-02
135322,6.52E-03,1.45E-02
135323,6.51E-03,1.47E-02
135324,6.51E-03,1.49E-02
135325,6.51E-03,1.51E-02
135326,6.51E-03,1.53E-02
135327,6.51E-03,1.55E-02
135328,6.51E-03,1.57E-02
135329,6.51E-03,1.59E-02
135330,6.51E-03,1.61E-02
135331,6.51E-03,1.63E-02
135332,6.51E-03,1.65E-02
135333,6.51E-03,1.67E-02
135334,6.51E-03,1.69E-02
135335,6.51E-03,1.71E-02
135336,6.51E-03,1.73E-02
135337,6.50E-03,1.75E-02
135338,6.50E-03,1.77E-02
135339,6.50E-03,1.79E-02
135340,6.50E-03,1.81E-02
135341,6.50E-03,1.83E-02
135342,6.50E-03,1.85E-02
135343,6.50E-03,1.87E-02
135344,6.50E-03,1.89E-02
135345,6.50E-03,1.91E-02
135346,6.50E-03,1.93E-02
135347,6.50E-03,1.95E-02
135348,6.50E-03,1.97E-02
135349,6.50E-03,1.99E-02
135350,6.50E-03,2.01E-02
135351,6.49E-03,2.03E-02
135352,6.49E-03,2.05E-02
135353,6.49E-03,2.07E-02
135354,6.49E-03,2.09E-02
135355,6.49E-03,2.11E-02
135356,6.49E-03,2.13E-02
135357,6.49E-03,2.15E-02
135358,6.49E-03,2.17E-02
135359,6.49E-03,2.19E-02
135360,6.49E-03,2.21E-02
135361,6.49E-03,2.23E-02
135362,6.49E-03,2.25E-02
135363,6.49E-03,2.27E-02
135364,6.48E-03,2.29E-02
135365,6.48E-03,2.31E-02
135366,6.48E-03,2.32E-02
135367,6.48E-03,2.34E-02
135368,6.48E-03,2.36E-02
135369,6.48E-03,2.37E-02
135370,6.48E-03,2.39E-02
135371,6.48E-03,2.40E-02
135372,6.48E-03,2.42E-02
135373,6.48E-03,2.43E-02
135374,6.48E-03,2.45E-02
135375,6.53E-03,1.12E-02
135376,6.53E-03,1.14E-02
135377,6.53E-03,1.16E-02
135378,6.52E-03,1.18E-02
135379,6.52E-03,1.20E-02
135380,6.52E-03,1.22E-02
135381,6.52E-03,1.25E-02
135382,6.52E-03,1.27E-02
135383,6.52E-03,1.29E-02
135384,6.52E-03,1.31E-02
135385,6.52E-03,1.33E-02
135386,6.52E-03,1.35E-02
135387,6.52E-03,1.37E-02
135388,6.52E-03,1.39E-02
135389,6.52E-03,1.41E-02
135390,6.52E-03,1.43E-02
135391,6.52E-03,1.45E-02
135392,6.51E-03,1.47E-02
135393,6.51E-03,1.49E-02
135394,6.51E-03,1.51E-02
135395,6.51E-03,1.53E-02
135396,6.51E-03,1.55E-02
135397,6.51E-03,1.57E-02
135398,6.51E-03,1.59E-02
135399,6.51E-03,1.61E-02
135400,6.51E-03,1.63E-02
135401,6.51E-03,1.65E-02
135402,6.51E-03,1.67E-02
135403,6.51E-03,1.69E-02
135404,6.51E-03,1.71E-02
135405,6.51E-03,1.73E-02
135406,6.50E-03,1.75E-02
135407,6.50E-03,1.77E-02
135408,6.50E-03,1.79E-02
135409,6.50E-03,1.81E-02
135410,6.50E-03,1.83E-02
135411,6.50E-03,1.85E-02
135412,6.50E-03,1.87E-02
135413,6.50E-03,1.89E-02
135414,6.50E-03,1.91E-02
135415,6.50E-03,1.93E-02
135416,6.50E-03,1.95E-02
135417,6.50E-03,1.97E-02
135418,6.50E-03,1.99E-02
135419,6.50E-03,2.01E-02
135420,6.49E-03,2.03E-02
135421,6.49E-03,2.05E-02
135422,6.49E-03,2.07E-02
135423,6.49E-03,2.09E-02
135424,6.49E-03,2.11E-02
135425,6.49E-03,2.13E-02
135426,6.49E-03,2.15E-02
135427,6.49E-03,2.17E-02
135428,6.49E-03,2.19E-02
135429,6.49E-03,2.21E-02
135430,6.49E-03,2.23E-02
135431,6.49E-03,2.25E-02
135432,6.49E-03,2.27E-02
135433,6.48E-03,2.29E-02
135434,6.48E-03,2.31E-02
135435,6.48E-03,2.33E-02
135436,6.48E-03,2.35E-02
135437,6.48E-03,2.36E-02
135438,6.48E-03,2.38E-02
135439,6.48E-03,2.39E-02
135440,6.48E-03,2.41E-02
135441,6.48E-03,2.42E-02
135442,6.48E-03,2.43E-02
135443,6.48E-03,2.45E-02
135444,6.53E-03,1.12E-02
135445,6.53E-03,1.14E-02
135446,6.53E-03,1.16E-02
135447,6.52E-03,1.18E-02
135448,6.52E-03,1.21E-02
135449,6.52E-03,1.23E-02
135450,6.52E-03,1.25E-02
135451,6.52E-03,1.27E-02
135452,6.52E-03,1.29E-02
135453,6.52E-03,1.31E-02
135454,6.52E-03,1.33E-02
135455,6.52E-03,1.35E-02
135456,6.52E-03,1.37E-02
135457,6.52E-03,1.39E-02
135458,6.52E-03,1.41E-02
135459,6.52E-03,1.43E-02
135460,6.52E-03,1.45E-02
135461,6.51E-03,1.47E-02
135462,6.51E-03,1.49E-02
135463,6.51E-03,1.51E-02
135464,6.51E-03,1.53E-02
135465,6.51E-03,1.55E-02
135466,6.51E-03,1.57E-02
135467,6.51E-03,1.59E-02
135468,6.51E-03,1.61E-02
135469,6.51E-03,1.63E-02
135470,6.51E-03,1.65E-02
135471,6.51E-03,1.67E-02
135472,6.51E-03,1.69E-02
135473,6.51E-03,1.71E-02
135474,6.51E-03,1.73E-02
135475,6.50E-03,1.75E-02
135476,6.50E-03,1.77E-02
135477,6.50E-03,1.79E-02
135478,6.50E-03,1.81E-02
135479,6.50E-03,1.83E-02
135480,6.50E-03,1.85E-02
135481,6.50E-03,1.87E-02
135482,6.50E-03,1.89E-02
135483,6.50E-03,1.91E-02
135484,6.50E-03,1.93E-02
135485,6.50E-03,1.95E-02
135486,6.50E-03,1.97E-02
135487,6.50E-03,1.99E-02
135488,6.50E-03,2.01E-02
135489,6.49E-03,2.03E-02
135490,6.49E-03,2.05E-02
135491,6.49E-03,2.07E-02
135492,6.49E-03,2.09E-02
135493,6.49E-03,2.11E-02
135494,6.49E-03,2.13E-02
135495,6.49E-03,2.16E-02
135496,6.49E-03,2.18E-02
135497,6.49E-03,2.20E-02
135498,6.49E-03,2.22E-02
135499,6.49E-03,2.24E-02
135500,6.49E-03,2.26E-02
135501,6.49E-03,2.28E-02
135502,6.48E-03,2.30E-02
135503,6.48E-03,2.31E-02
135504,6.48E-03,2.33E-02
135505,6.48E-03,2.35E-02
135506,6.48E-03,2.37E-02
135507,6.48E-03,2.38E-02
135508,6.48E-03,2.40E-02
135509,6.48E-03,2.41E-02
135510,6.48E-03,2.42E-02
135511,6.48E-03,2.43E-02
135512,6.48E-03,2.44E-02
135513,6.53E-03,1.12E-02
135514,6.53E-03,1.14E-02
135515,6.53E-03,1.17E-02
135516,6.52E-03,1.19E-02
135517,6.52E-03,1.21E-02
135518,6.52E-03,1.23E-02
135519,6.52E-03,1.25E-02
135520,6.52E-03,1.27E-02
135521,6.52E-03,1.29E-02
135522,6.52E-03,1.31E-02
135523,6.52E-03,1.33E-02
135524,6.52E-03,1.35E-02
135525,6.52E-03,1.37E-02
135526,6.52E-03,1.39E-02
135527,6.52E-03,1.41E-02
135528,6.52E-03,1.43E-02
135529,6.52E-03,1.45E-02
135530,6.51E-03,1.47E-02
135531,6.51E-03,1.49E-02
135532,6.51E-03,1.51E-02
135533,6.51E-03,1.53E-02
135534,6.51E-03,1.55E-02
135535,6.51E-03,1.57E-02
135536,6.51E-03,1.59E-02
135537,6.51E-03,1.61E-02
135538,6.51E-03,1.63E-02
135539,6.51E-03,1.65E-02
135540,6.51E-03,1.67E-02
135541,6.51E-03,1.69E-02
135542,6.51E-03,1.71E-02
135543,6.51E-03,1.73E-02
135544,6.50E-03,1.75E-02
135545,6.50E-03,1.77E-02
135546,6.50E-03,1.79E-02
135547,6.50E-03,1.81E-02
135548,6.50E-03,1.83E-02
135549,6.50E-03,1.85E-02
135550,6.50E-03,1.87E-02
135551,6.50E-03,1.89E-02
135552,6.50E-03,1.91E-02
135553,6.50E-03,1.93E-02
135554,6.50E-03,1.95E-02
135555,6.50E-03,1.97E-02
135556,6.50E-03,1.99E-02
135557,6.50E-03,2.01E-02
135558,6.49E-03,2.03E-02
135559,6.49E-03,2.05E-02
135560,6.49E-03,2.07E-02
135561,6.49E-03,2.09E-02
135562,6.49E-03,2.11E-02
135563,6.49E-03,2.14E-02
135564,6.49E-03,2.16E-02
135565,6.49E-03,2.18E-02
135566,6.49E-03,2.20E-02
135567,6.49E-03,2.22E-02
135568,6.49E-03,2.24E-02
135569,6.49E-03,2.26E-02
135570,6.49E-03,2.28E-02
135571,6.48E-03,2.30E-02
135572,6.48E-03,2.32E-02
135573,6.48E-03,2.34E-02
135574,6.48E-03,2.36E-02
135575,6.48E-03,2.37E-02
135576,6.48E-03,2.39E-02
135577,6.48E-03,2.40E-02
135578,6.48E-03,2.42E-02
135579,6.48E-03,2.43E-02
135580,6.48E-03,2.44E-02
135581,6.48E-03,2.44E-02
135582,6.53E-03,1.13E-02
135583,6.53E-03,1.15E-02
135584,6.53E-03,1.17E-02
135585,6.52E-03,1.19E-02
135586,6.52E-03,1.21E-02
135587,6.52E-03,1.23E-02
135588,6.52E-03,1.25E-02
135589,6.52E-03,1.27E-02
135590,6.52E-03,1.29E-02
135591,6.52E-03,1.31E-02
135592,6.52E-03,1.33E-02
135593,6.52E-03,1.35E-02
135594,6.52E-03,1.37E-02
135595,6.52E-03,1.39E-02
135596,6.52E-03,1.41E-02
135597,6.52E-03,1.43E-02
135598,6.52E-03,1.45E-02
135599,6.51E-03,1.47E-02
135600,6.51E-03,1.49E-02
135601,6.51E-03,1.51E-02
135602,6.51E-03,1.53E-02
135603,6.51E-03,1.55E-02
135604,6.51E-03,1.57E-02
135605,6.51E-03,1.59E-02
135606,6.51E-03,1.61E-02
135607,6.51E-03,1.63E-02
135608,6.51E-03,1.65E-02
135609,6.51E-03,1.67E-02
135610,6.51E-03,1.69E-02
135611,6.51E-03,1.71E-02
135612,6.51E-03,1.73E-02
135613,6.50E-03,1.75E-02
135614,6.50E-03,1.77E-02
135615,6.50E-03,1.79E-02
135616,6.50E-03,1.81E-02
135617,6.50E-03,1.83E-02
135618,6.50E-03,1.85E-02
135619,6.50E-03,1.87E-02
135620,6.50E-03,1.89E-02
135621,6.50E-03,1.91E-02
135622,6.50E-03,1.93E-02
135623,6.50E-03,1.95E-02
135624,6.50E-03,1.97E-02
135625,6.50E-03,1.99E-02
135626,6.50E-03,2.01E-02
135627,6.49E-03,2.03E-02
135628,6.49E-03,2.05E-02
135629,6.49E-03,2.07E-02
135630,6.49E-03,2.09E-02
135631,6.49E-03,2.12E-02
135632,6.49E-03,2.14E-02
135633,6.49E-03,2.16E-02
135634,6.49E-03,2.18E-02
135635,6.49E-03,2.20E-02
135636,6.49E-03,2.22E-02
135637,6.49E-03,2.24E-02
135638,6.49E-03,2.26E-02
135639,6.49E-03,2.28E-02
135640,6.48E-03,2.30E-02
135641,6.48E-03,2.32E-02
135642,6.48E-03,2.34E-02
135643,6.48E-03,2.36E-02
135644,6.48E-03,2.38E-02
135645,6.48E-03,2.40E-02
135646,6.48E-03,2.41E-02
135647,6.48E-03,2.42E-02
135648,6.48E-03,2.43E-02
135649,6.48E-03,2.44E-02
135650,6.48E-03,2.44E-02
135651,6.53E-03,1.13E-02
135652,6.53E-03,1.15E-02
135653,6.53E-03,1.17E-02
135654,6.52E-03,1.19E-02
135655,6.52E-03,1.21E-02
135656,6.52E-03,1.23E-02
135657,6.52E-03,1.25E-02
135658,6.52E-03,1.27E-02
135659,6.52E-03,1.29E-02
135660,6.52E-03,1.31E-02
135661,6.52E-03,1.33E-02
135662,6.52E-03,1.35E-02
135663,6.52E-03,1.37E-02
135664,6.52E-03,1.39E-02
135665,6.52E-03,1.41E-02
135666,6.52E-03,1.43E-02
135667,6.52E-03,1.45E-02
135668,6.51E-03,1.47E-02
135669,6.51E-03,1.49E-02
135670,6.51E-03,1.51E-02
135671,6.51E-03,1.53E-02
135672,6.51E-03,1.55E-02
135673,6.51E-03,1.57E-02
135674,6.51E-03,1.59E-02
135675,6.51E-03,1.61E-02
135676,6.51E-03,1.63E-02
135677,6.51E-03,1.65E-02
135678,6.51E-03,1.67E-02
135679,6.51E-03,1.69E-02
135680,6.51E-03,1.71E-02
135681,6.51E-03,1.73E-02
135682,6.50E-03,1.75E-02
135683,6.50E-03,1.77E-02
135684,6.50E-03,1.79E-02
135685,6.50E-03,1.81E-02
135686,6.50E-03,1.83E-02
135687,6.50E-03,1.85E-02
135688,6.50E-03,1.87E-02
135689,6.50E-03,1.89E-02
135690,6.50E-03,1.91E-02
135691,6.50E-03,1.93E-02
135692,6.50E-03,1.95E-02
135693,6.50E-03,1.97E-02
135694,6.50E-03,1.99E-02
135695,6.50E-03,2.01E-02
135696,6.49E-03,2.03E-02
135697,6.49E-03,2.05E-02
135698,6.49E-03,2.07E-02
135699,6.49E-03,2.09E-02
135700,6.49E-03,2.12E-02
135701,6.49E-03,2.14E-02
135702,6.49E-03,2.16E-02
135703,6.49E-03,2.18E-02
135704,6.49E-03,2.20E-02
135705,6.49E-03,2.22E-02
135706,6.49E-03,2.24E-02
135707,6.49E-03,2.26E-02
135708,6.49E-03,2.29E-02
135709,6.48E-03,2.31E-02
135710,6.48E-03,2.33E-02
135711,6.48E-03,2.35E-02
135712,6.48E-03,2.37E-02
135713,6.48E-03,2.39E-02
135714,6.48E-03,2.40E-02
135715,6.48E-03,2.42E-02
135716,6.48E-03,2.43E-02
135717,6.48E-03,2.44E-02
135718,6.48E-03,2.44E-02
135719,6.48E-03,2.44E-02
135720,6.53E-03,1.13E-02
135721,6.53E-03,1.15E-02
135722,6.53E-03,1.17E-02
135723,6.52E-03,1.19E-02
135724,6.52E-03,1.21E-02
135725,6.52E-03,1.23E-02
135726,6.52E-03,1.25E-02
135727,6.52E-03,1.27E-02
135728,6.52E-03,1.29E-02
135729,6.52E-03,1.31E-02
135730,6.52E-03,1.33E-02
135731,6.52E-03,1.35E-02
135732,6.52E-03,1.37E-02
135733,6.52E-03,1.39E-02
135734,6.52E-03,1.41E-02
135735,6.52E-03,1.43E-02
135736,6.52E-03,1.45E-02
135737,6.51E-03,1.47E-02
135738,6.51E-03,1.49E-02
135739,6.51E-03,1.51E-02
135740,6.51E-03,1.53E-02
135741,6.51E-03,1.55E-02
135742,6.51E-03,1.57E-02
135743,6.51E-03,1.59E-02
135744,6.51E-03,1.61E-02
135745,6.51E-03,1.63E-02
135746,6.51E-03,1.65E-02
135747,6.51E-03,1.67E-02
135748,6.51E-03,1.69E-02
135749,6.51E-03,1.71E-02
135750,6.51E-03,1.73E-02
135751,6.50E-03,1.75E-02
135752,6.50E-03,1.77E-02
135753,6.50E-03,1.79E-02
135754,6.50E-03,1.81E-02
135755,6.50E-03,1.83E-02
135756,6.50E-03,1.85E-02
135757,6.50E-03,1.87E-02
135758,6.50E-03,1.89E-02
135759,6.50E-03,1.91E-02
135760,6.50E-03,1.93E-02
135761,6.50E-03,1.95E-02
135762,6.50E-03,1.97E-02
135763,6.50E-03,1.99E-02
135764,6.50E-03,2.01E-02
135765,6.49E-03,2.03E-02
135766,6.49E-03,2.05E-02
135767,6.49E-03,2.07E-02
135768,6.49E-03,2.09E-02
135769,6.49E-03,2.12E-02
135770,6.49E-03,2.14E-02
135771,6.49E-03,2.16E-02
135772,6.49E-03,2.18E-02
135773,6.49E-03,2.20E-02
135774,6.49E-03,2.22E-02
135775,6.49E-03,2.24E-02
135776,6.49E-03,2.27E-02
135777,6.49E-03,2.29E-02
135778,6.48E-03,2.31E-02
135779,6.48E-03,2.33E-02
135780,6.48E-03,2.35E-02
135781,6.48E-03,2.37E-02
135782,6.48E-03,2.39E-02
135783,6.48E-03,2.41E-02
135784,6.48E-03,2.42E-02
135785,6.48E-03,2.44E-02
135786,6.48E-03,2.45E-02
135787,6.48E-03,2.45E-02
135788,6.48E-03,2.45E-02
135789,6.53E-03,1.13E-02
135790,6.53E-03,1.15E-02
135791,6.53E-03,1.17E-02
135792,6.52E-03,1.19E-02
135793,6.52E-03,1.21E-02
135794,6.52E-03,1.23E-02
135795,6.52E-03,1.25E-02
135796,6.52E-03,1.27E-02
135797,6.52E-03,1.29E-02
135798,6.52E-03,1.31E-02
135799,6.52E-03,1.33E-02
135800,6.52E-03,1.35E-02
135801,6.52E-03,1.37E-02
135802,6.52E-03,1.39E-02
135803,6.52E-03,1.41E-02
135804,6.52E-03,1.43E-02
135805,6.52E-03,1.45E-02
135806,6.51E-03,1.47E-02
135807,6.51E-03,1.49E-02
135808,6.51E-03,1.51E-02
135809,6.51E-03,1.53E-02
135810,6.51E-03,1.55E-02
135811,6.51E-03,1.57E-02
135812,6.51E-03,1.59E-02
135813,6.51E-03,1.61E-02
135814,6.51E-03,1.63E-02
135815,6.51E-03,1.65E-02
135816,6.51E-03,1.67E-02
135817,6.51E-03,1.69E-02
135818,6.51E-03,1.71E-02
135819,6.51E-03,1.73E-02
135820,6.50E-03,1.75E-02
135821,6.50E-03,1.77E-02
135822,6.50E-03,1.79E-02
135823,6.50E-03,1.81E-02
135824,6.50E-03,1.83E-02
135825,6.50E-03,1.85E-02
135826,6.50E-03,1.87E-02
135827,6.50E-03,1.89E-02
135828,6.50E-03,1.91E-02
135829,6.50E-03,1.93E-02
135830,6.50E-03,1.95E-02
135831,6.50E-03,1.97E-02
135832,6.50E-03,1.99E-02
135833,6.50E-03,2.01E-02
135834,6.49E-03,2.03E-02
135835,6.49E-03,2.05E-02
135836,6.49E-03,2.07E-02
135837,6.49E-03,2.09E-02
135838,6.49E-03,2.12E-02
135839,6.49E-03,2.14E-02
135840,6.49E-03,2.16E-02
135841,6.49E-03,2.18E-02
135842,6.49E-03,2.20E-02
135843,6.49E-03,2.22E-02
135844,6.49E-03,2.25E-02
135845,6.49E-03,2.27E-02
135846,6.49E-03,2.29E-02
135847,6.48E-03,2.31E-02
135848,6.48E-03,2.33E-02
135849,6.48E-03,2.36E-02
135850,6.48E-03,2.38E-02
135851,6.48E-03,2.40E-02
135852,6.48E-03,2.41E-02
135853,6.48E-03,2.43E-02
135854,6.48E-03,2.44E-02
135855,6.48E-03,2.45E-02
135856,6.48E-03,2.46E-02
135857,6.48E-03,2.45E-02
135858,6.53E-03,1.13E-02
135859,6.53E-03,1.15E-02
135860,6.53E-03,1.17E-02
135861,6.52E-03,1.19E-02
135862,6.52E-03,1.21E-02
135863,6.52E-03,1.23E-02
135864,6.52E-03,1.25E-02
135865,6.52E-03,1.27E-02
135866,6.52E-03,1.29E-02
135867,6.52E-03,1.32E-02
135868,6.52E-03,1.34E-02
135869,6.52E-03,1.36E-02
135870,6.52E-03,1.38E-02
135871,6.52E-03,1.39E-02
135872,6.52E-03,1.41E-02
135873,6.52E-03,1.43E-02
135874,6.52E-03,1.45E-02
135875,6.51E-03,1.47E-02
135876,6.51E-03,1.49E-02
135877,6.51E-03,1.51E-02
135878,6.51E-03,1.53E-02
135879,6.51E-03,1.55E-02
135880,6.51E-03,1.57E-02
135881,6.51E-03,1.59E-02
135882,6.51E-03,1.61E-02
135883,6.51E-03,1.63E-02
135884,6.51E-03,1.65E-02
135885,6.51E-03,1.67E-02
135886,6.51E-03,1.69E-02
135887,6.51E-03,1.71E-02
135888,6.51E-03,1.73E-02
135889,6.50E-03,1.75E-02
135890,6.50E-03,1.77E-02
135891,6.50E-03,1.79E-02
135892,6.50E-03,1.81E-02
135893,6.50E-03,1.83E-02
135894,6.50E-03,1.85E-02
135895,6.50E-03,1.87E-02
135896,6.50E-03,1.89E-02
135897,6.50E-03,1.91E-02
135898,6.50E-03,1.93E-02
135899,6.50E-03,1.95E-02
135900,6.50E-03,1.97E-02
135901,6.50E-03,1.99E-02
135902,6.50E-03,2.01E-02
135903,6.49E-03,2.03E-02
135904,6.49E-03,2.05E-02
135905,6.49E-03,2.07E-02
135906,6.49E-03,2.09E-02
135907,6.49E-03,2.12E-02
135908,6.49E-03,2.14E-02
135909,6.49E-03,2.16E-02
135910,6.49E-03,2.18E-02
135911,6.49E-03,2.20E-02
135912,6.49E-03,2.22E-02
135913,6.49E-03,2.25E-02
135914,6.49E-03,2.27E-02
135915,6.49E-03,2.29E-02
135916,6.48E-03,2.31E-02
135917,6.48E-03,2.34E-02
135918,6.48E-03,2.36E-02
135919,6.48E-03,2.38E-02
135920,6.48E-03,2.40E-02
135921,6.48E-03,2.42E-02
135922,6.48E-03,2.44E-02
135923,6.48E-03,2.45E-02
135924,6.48E-03,2.46E-02
135925,6.48E-03,2.46E-02
135926,6.48E-03,2.46E-02
135927,6.53E-03,1.13E-02
135928,6.53E-03,1.15E-02
135929,6.53E-03,1.17E-02
135930,6.52E-03,1.19E-02
135931,6.52E-03,1.22E-02
135932,6.52E-03,1.24E-02
135933,6.52E-03,1.26E-02
135934,6.52E-03,1.28E-02
135935,6.52E-03,1.30E-02
135936,6.52E-03,1.32E-02
135937,6.52E-03,1.34E-02
135938,6.52E-03,1.36E-02
135939,6.52E-03,1.38E-02
135940,6.52E-03,1.40E-02
135941,6.52E-03,1.42E-02
135942,6.52E-03,1.44E-02
135943,6.52E-03,1.46E-02
135944,6.51E-03,1.47E-02
135945,6.51E-03,1.49E-02
135946,6.51E-03,1.51E-02
135947,6.51E-03,1.53E-02
135948,6.51E-03,1.55E-02
135949,6.51E-03,1.57E-02
135950,6.51E-03,1.59E-02
135951,6.51E-03,1.61E-02
135952,6.51E-03,1.63E-02
135953,6.51E-03,1.65E-02
135954,6.51E-03,1.67E-02
135955,6.51E-03,1.69E-02
135956,6.51E-03,1.71E-02
135957,6.51E-03,1.73E-02
135958,6.50E-03,1.75E-02
135959,6.50E-03,1.77E-02
135960,6.50E-03,1.79E-02
135961,6.50E-03,1.81E-02
135962,6.50E-03,1.83E-02
135963,6.50E-03,1.85E-02
135964,6.50E-03,1.87E-02
135965,6.50E-03,1.89E-02
135966,6.50E-03,1.91E-02
135967,6.50E-03,1.93E-02
135968,6.50E-03,1.95E-02
135969,6.50E-03,1.97E-02
135970,6.50E-03,1.99E-02
135971,6.50E-03,2.01E-02
135972,6.49E-03,2.03E-02
135973,6.49E-03,2.05E-02
135974,6.49E-03,2.07E-02
135975,6.49E-03,2.09E-02
135976,6.49E-03,2.11E-02
135977,6.49E-03,2.14E-02
135978,6.49E-03,2.16E-02
135979,6.49E-03,2.18E-02
135980,6.49E-03,2.20E-02
135981,6.49E-03,2.22E-02
135982,6.49E-03,2.25E-02
135983,6.49E-03,2.27E-02
135984,6.49E-03,2.29E-02
135985,6.48E-03,2.31E-02
135986,6.48E-03,2.34E-02
135987,6.48E-03,2.36E-02
135988,6.48E-03,2.38E-02
135989,6.48E-03,2.40E-02
135990,6.48E-03,2.42E-02
135991,6.48E-03,2.44E-02
135992,6.48E-03,2.46E-02
135993,6.48E-03,2.47E-02
135994,6.48E-03,2.47E-02
135995,6.48E-03,2.47E-02
135996,6.53E-03,1.13E-02
135997,6.53E-03,1.16E-02
135998,6.53E-03,1.18E-02
135999,6.52E-03,1.20E-02
136000,6.52E-03,1.22E-02
136001,6.52E-03,1.24E-02
136002,6.52E-03,1.26E-02
136003,6.52E-03,1.28E-02
136004,6.52E-03,1.30E-02
136005,6.52E-03,1.32E-02
136006,6.52E-03,1.34E-02
136007,6.52E-03,1.36E-02
136008,6.52E-03,1.38E-02
136009,6.52E-03,1.40E-02
136010,6.52E-03,1.42E-02
136011,6.52E-03,1.44E-02
136012,6.52E-03,1.46E-02
136013,6.51E-03,1.48E-02
136014,6.51E-03,1.50E-02
136015,6.51E-03,1.51E-02
136016,6.51E-03,1.53E-02
136017,6.51E-03,1.55E-02
136018,6.51E-03,1.57E-02
136019,6.51E-03,1.59E-02
136020,6.51E-03,1.61E-02
136021,6.51E-03,1.63E-02
136022,6.51E-03,1.65E-02
136023,6.51E-03,1.67E-02
136024,6.51E-03,1.69E-02
136025,6.51E-03,1.71E-02
136026,6.51E-03,1.73E-02
136027,6.50E-03,1.75E-02
136028,6.50E-03,1.77E-02
136029,6.50E-03,1.79E-02
136030,6.50E-03,1.81E-02
136031,6.50E-03,1.83E-02
136032,6.50E-03,1.85E-02
136033,6.50E-03,1.87E-02
136034,6.50E-03,1.89E-02
136035,6.50E-03,1.91E-02
136036,6.50E-03,1.93E-02
136037,6.50E-03,1.95E-02
136038,6.50E-03,1.97E-02
136039,6.50E-03,1.99E-02
136040,6.50E-03,2.01E-02
136041,6.49E-03,2.03E-02
136042,6.49E-03,2.05E-02
136043,6.49E-03,2.07E-02
136044,6.49E-03,2.09E-02
136045,6.49E-03,2.11E-02
136046,6.49E-03,2.13E-02
136047,6.49E-03,2.16E-02
136048,6.49E-03,2.18E-02
136049,6.49E-03,2.20E-02
136050,6.49E-03,2.22E-02
136051,6.49E-03,2.25E-02
136052,6.49E-03,2.27E-02
136053,6.49E-03,2.29E-02
136054,6.48E-03,2.31E-02
136055,6.48E-03,2.34E-02
136056,6.48E-03,2.36E-02
136057,6.48E-03,2.38E-02
136058,6.48E-03,2.41E-02
136059,6.48E-03,2.43E-02
136060,6.48E-03,2.45E-02
136061,6.48E-03,2.46E-02
136062,6.48E-03,2.47E-02
136063,6.48E-03,2.48E-02
136064,6.48E-03,2.47E-02
136065,6.53E-03,1.14E-02
136066,6.53E-03,1.16E-02
136067,6.53E-03,1.18E-02
136068,6.52E-03,1.20E-02
136069,6.52E-03,1.22E-02
136070,6.52E-03,1.24E-02
136071,6.52E-03,1.26E-02
136072,6.52E-03,1.28E-02
136073,6.52E-03,1.30E-02
136074,6.52E-03,1.32E-02
136075,6.52E-03,1.34E-02
136076,6.52E-03,1.36E-02
136077,6.52E-03,1.38E-02
136078,6.52E-03,1.40E-02
136079,6.52E-03,1.42E-02
136080,6.52E-03,1.44E-02
136081,6.52E-03,1.46E-02
136082,6.51E-03,1.48E-02
136083,6.51E-03,1.50E-02
136084,6.51E-03,1.52E-02
136085,6.51E-03,1.54E-02
136086,6.51E-03,1.55E-02
136087,6.51E-03,1.57E-02
136088,6.51E-03,1.59E-02
136089,6.51E-03,1.61E-02
136090,6.51E-03,1.63E-02
136091,6.51E-03,1.65E-02
136092,6.51E-03,1.67E-02
136093,6.51E-03,1.69E-02
136094,6.51E-03,1.71E-02
136095,6.51E-03,1.73E-02
136096,6.50E-03,1.75E-02
136097,6.50E-03,1.77E-02
136098,6.50E-03,1.79E-02
136099,6.50E-03,1.81E-02
136100,6.50E-03,1.83E-02
136101,6.50E-03,1.85E-02
136102,6.50E-03,1.87E-02
136103,6.50E-03,1.89E-02
136104,6.50E-03,1.91E-02
136105,6.50E-03,1.93E-02
136106,6.50E-03,1.95E-02
136107,6.50E-03,1.97E-02
136108,6.50E-03,1.99E-02
136109,6.50E-03,2.01E-02
136110,6.49E-03,2.03E-02
136111,6.49E-03,2.05E-02
136112,6.49E-03,2.07E-02
136113,6.49E-03,2.09E-02
136114,6.49E-03,2.11E-02
136115,6.49E-03,2.13E-02
136116,6.49E-03,2.16E-02
136117,6.49E-03,2.18E-02
136118,6.49E-03,2.20E-02
136119,6.49E-03,2.22E-02
136120,6.49E-03,2.24E-02
136121,6.49E-03,2.27E-02
136122,6.49E-03,2.29E-02
136123,6.48E-03,2.31E-02
136124,6.48E-03,2.34E-02
136125,6.48E-03,2.36E-02
136126,6.48E-03,2.38E-02
136127,6.48E-03,2.41E-02
136128,6.48E-03,2.43E-02
136129,6.48E-03,2.45E-02
136130,6.48E-03,2.46E-02
136131,6.48E-03,2.48E-02
136132,6.48E-03,2.48E-02
136133,6.48E-03,2.48E-02
136134,6.53E-03,1.14E-02
136135,6.53E-03,1.16E-02
136136,6.53E-03,1.18E-02
136137,6.52E-03,1.20E-02
136138,6.52E-03,1.22E-02
136139,6.52E-03,1.24E-02
136140,6.52E-03,1.26E-02
136141,6.52E-03,1.28E-02
136142,6.52E-03,1.30E-02
136143,6.52E-03,1.32E-02
136144,6.52E-03,1.34E-02
136145,6.52E-03,1.36E-02
136146,6.52E-03,1.38E-02
136147,6.52E-03,1.40E-02
136148,6.52E-03,1.42E-02
136149,6.52E-03,1.44E-02
136150,6.52E-03,1.46E-02
136151,6.51E-03,1.48E-02
136152,6.51E-03,1.50E-02
136153,6.51E-03,1.52E-02
136154,6.51E-03,1.54E-02
136155,6.51E-03,1.55E-02
136156,6.51E-03,1.57E-02
136157,6.51E-03,1.59E-02
136158,6.51E-03,1.61E-02
136159,6.51E-03,1.63E-02
136160,6.51E-03,1.65E-02
136161,6.51E-03,1.67E-02
136162,6.51E-03,1.69E-02
136163,6.51E-03,1.71E-02
136164,6.51E-03,1.73E-02
136165,6.50E-03,1.75E-02
136166,6.50E-03,1.77E-02
136167,6.50E-03,1.79E-02
136168,6.50E-03,1.81E-02
136169,6.50E-03,1.83E-02
136170,6.50E-03,1.85E-02
136171,6.50E-03,1.87E-02
136172,6.50E-03,1.89E-02
136173,6.50E-03,1.91E-02
136174,6.50E-03,1.93E-02
136175,6.50E-03,1.95E-02
136176,6.50E-03,1.97E-02
136177,6.50E-03,1.99E-02
136178,6.50E-03,2.01E-02
136179,6.49E-03,2.03E-02
136180,6.49E-03,2.05E-02
136181,6.49E-03,2.07E-02
136182,6.49E-03,2.09E-02
136183,6.49E-03,2.11E-02
136184,6.49E-03,2.13E-02
136185,6.49E-03,2.15E-02
136186,6.49E-03,2.18E-02
136187,6.49E-03,2.20E-02
136188,6.49E-03,2.22E-02
136189,6.49E-03,2.24E-02
136190,6.49E-03,2.27E-02
136191,6.49E-03,2.29E-02
136192,6.48E-03,2.31E-02
136193,6.48E-03,2.34E-02
136194,6.48E-03,2.36E-02
136195,6.48E-03,2.38E-02
136196,6.48E-03,2.41E-02
136197,6.48E-03,2.43E-02
136198,6.48E-03,2.45E-02
136199,6.48E-03,2.47E-02
136200,6.48E-03,2.48E-02
136201,6.48E-03,2.49E-02
136202,6.48E-03,2.49E-02
136203,6.53E-03,1.14E-02
136204,6.53E-03,1.16E-02
136205,6.53E-03,1.18E-02
136206,6.52E-03,1.20E-02
136207,6.52E-03,1.22E-02
136208,6.52E-03,1.24E-02
136209,6.52E-03,1.26E-02
136210,6.52E-03,1.28E-02
136211,6.52E-03,1.30E-02
136212,6.52E-03,1.32E-02
136213,6.52E-03,1.34E-02
136214,6.52E-03,1.36E-02
136215,6.52E-03,1.38E-02
136216,6.52E-03,1.40E-02
136217,6.52E-03,1.42E-02
136218,6.52E-03,1.44E-02
136219,6.52E-03,1.46E-02
136220,6.51E-03,1.48E-02
136221,6.51E-03,1.50E-02
136222,6.51E-03,1.52E-02
136223,6.51E-03,1.54E-02
136224,6.51E-03,1.56E-02
136225,6.51E-03,1.57E-02
136226,6.51E-03,1.59E-02
136227,6.51E-03,1.61E-02
136228,6.51E-03,1.63E-02
136229,6.51E-03,1.65E-02
136230,6.51E-03,1.67E-02
136231,6.51E-03,1.69E-02
136232,6.51E-03,1.71E-02
136233,6.51E-03,1.73E-02
136234,6.50E-03,1.75E-02
136235,6.50E-03,1.77E-02
136236,6.50E-03,1.79E-02
136237,6.50E-03,1.81E-02
136238,6.50E-03,1.83E-02
136239,6.50E-03,1.85E-02
136240,6.50E-03,1.87E-02
136241,6.50E-03,1.89E-02
136242,6.50E-03,1.91E-02
136243,6.50E-03,1.93E-02
136244,6.50E-03,1.95E-02
136245,6.50E-03,1.97E-02
136246,6.50E-03,1.99E-02
136247,6.50E-03,2.01E-02
136248,6.49E-03,2.03E-02
136249,6.49E-03,2.05E-02
136250,6.49E-03,2.07E-02
136251,6.49E-03,2.09E-02
136252,6.49E-03,2.11E-02
136253,6.49E-03,2.13E-02
136254,6.49E-03,2.15E-02
136255,6.49E-03,2.17E-02
136256,6.49E-03,2.20E-02
136257,6.49E-03,2.22E-02
136258,6.49E-03,2.24E-02
136259,6.49E-03,2.26E-02
136260,6.49E-03,2.29E-02
136261,6.48E-03,2.31E-02
136262,6.48E-03,2.33E-02
136263,6.48E-03,2.36E-02
136264,6.48E-03,2.38E-02
136265,6.48E-03,2.40E-02
136266,6.48E-03,2.43E-02
136267,6.48E-03,2.45E-02
136268,6.48E-03,2.47E-02
136269,6.48E-03,2.48E-02
136270,6.48E-03,2.49E-02
136271,6.48E-03,2.49E-02
136272,6.53E-03,1.14E-02
136273,6.53E-03,1.16E-02
136274,6.53E-03,1.18E-02
136275,6.52E-03,1.20E-02
136276,6.52E-03,1.22E-02
136277,6.52E-03,1.24E-02
136278,6.52E-03,1.26E-02
136279,6.52E-03,1.28E-02
136280,6.52E-03,1.30E-02
136281,6.52E-03,1.32E-02
136282,6.52E-03,1.34E-02
136283,6.52E-03,1.36E-02
136284,6.52E-03,1.38E-02
136285,6.52E-03,1.40E-02
136286,6.52E-03,1.42E-02
136287,6.52E-03,1.44E-02
136288,6.52E-03,1.46E-02
136289,6.51E-03,1.48E-02
136290,6.51E-03,1.50E-02
136291,6.51E-03,1.52E-02
136292,6.51E-03,1.54E-02
136293,6.51E-03,1.56E-02
136294,6.51E-03,1.58E-02
136295,6.51E-03,1.59E-02
136296,6.51E-03,1.61E-02
136297,6.51E-03,1.63E-02
136298,6.51E-03,1.65E-02
136299,6.51E-03,1.67E-02
136300,6.51E-03,1.69E-02
136301,6.51E-03,1.71E-02
136302,6.51E-03,1.73E-02
136303,6.50E-03,1.75E-02
136304,6.50E-03,1.77E-02
136305,6.50E-03,1.79E-02
136306,6.50E-03,1.81E-02
136307,6.50E-03,1.83E-02
136308,6.50E-03,1.85E-02
136309,6.50E-03,1.87E-02
136310,6.50E-03,1.89E-02
136311,6.50E-03,1.91E-02
136312,6.50E-03,1.93E-02
136313,6.50E-03,1.94E-02
136314,6.50E-03,1.96E-02
136315,6.50E-03,1.98E-02
136316,6.50E-03,2.00E-02
136317,6.49E-03,2.02E-02
136318,6.49E-03,2.05E-02
136319,6.49E-03,2.07E-02
136320,6.49E-03,2.09E-02
136321,6.49E-03,2.11E-02
136322,6.49E-03,2.13E-02
136323,6.49E-03,2.15E-02
136324,6.49E-03,2.17E-02
136325,6.49E-03,2.19E-02
136326,6.49E-03,2.22E-02
136327,6.49E-03,2.24E-02
136328,6.49E-03,2.26E-02
136329,6.49E-03,2.28E-02
136330,6.48E-03,2.31E-02
136331,6.48E-03,2.33E-02
136332,6.48E-03,2.35E-02
136333,6.48E-03,2.38E-02
136334,6.48E-03,2.40E-02
136335,6.48E-03,2.42E-02
136336,6.48E-03,2.44E-02
136337,6.48E-03,2.46E-02
136338,6.48E-03,2.48E-02
136339,6.48E-03,2.49E-02
136340,6.48E-03,2.49E-02
136341,6.53E-03,1.14E-02
136342,6.53E-03,1.16E-02
136343,6.53E-03,1.18E-02
136344,6.52E-03,1.20E-02
136345,6.52E-03,1.22E-02
136346,6.52E-03,1.24E-02
136347,6.52E-03,1.26E-02
136348,6.52E-03,1.28E-02
136349,6.52E-03,1.30E-02
136350,6.52E-03,1.32E-02
136351,6.52E-03,1.34E-02
136352,6.52E-03,1.36E-02
136353,6.52E-03,1.38E-02
136354,6.52E-03,1.40E-02
136355,6.52E-03,1.42E-02
136356,6.52E-03,1.44E-02
136357,6.52E-03,1.46E-02
136358,6.51E-03,1.48E-02
136359,6.51E-03,1.50E-02
136360,6.51E-03,1.52E-02
136361,6.51E-03,1.54E-02
136362,6.51E-03,1.56E-02
136363,6.51E-03,1.58E-02
136364,6.51E-03,1.59E-02
136365,6.51E-03,1.61E-02
136366,6.51E-03,1.63E-02
136367,6.51E-03,1.65E-02
136368,6.51E-03,1.67E-02
136369,6.51E-03,1.69E-02
136370,6.51E-03,1.71E-02
136371,6.51E-03,1.73E-02
136372,6.50E-03,1.75E-02
136373,6.50E-03,1.77E-02
136374,6.50E-03,1.79E-02
136375,6.50E-03,1.81E-02
136376,6.50E-03,1.83E-02
136377,6.50E-03,1.85E-02
136378,6.50E-03,1.87E-02
136379,6.50E-03,1.88E-02
136380,6.50E-03,1.90E-02
136381,6.50E-03,1.92E-02
136382,6.50E-03,1.94E-02
136383,6.50E-03,1.96E-02
136384,6.50E-03,1.98E-02
136385,6.50E-03,2.00E-02
136386,6.49E-03,2.02E-02
136387,6.49E-03,2.04E-02
136388,6.49E-03,2.06E-02
136389,6.49E-03,2.08E-02
136390,6.49E-03,2.11E-02
136391,6.49E-03,2.13E-02
136392,6.49E-03,2.15E-02
136393,6.49E-03,2.17E-02
136394,6.49E-03,2.19E-02
136395,6.49E-03,2.21E-02
136396,6.49E-03,2.23E-02
136397,6.49E-03,2.26E-02
136398,6.49E-03,2.28E-02
136399,6.48E-03,2.30E-02
136400,6.48E-03,2.33E-02
136401,6.48E-03,2.35E-02
136402,6.48E-03,2.37E-02
136403,6.48E-03,2.40E-02
136404,6.48E-03,2.42E-02
136405,6.48E-03,2.44E-02
136406,6.48E-03,2.46E-02
136407,6.48E-03,2.48E-02
136408,6.48E-03,2.49E-02
136409,6.48E-03,2.50E-02
136410,6.53E-03,1.14E-02
136411,6.53E-03,1.16E-02
136412,6.53E-03,1.19E-02
136413,6.52E-03,1.21E-02
136414,6.52E-03,1.23E-02
136415,6.52E-03,1.25E-02
136416,6.52E-03,1.26E-02
136417,6.52E-03,1.28E-02
136418,6.52E-03,1.30E-02
136419,6.52E-03,1.32E-02
136420,6.52E-03,1.34E-02
136421,6.52E-03,1.36E-02
136422,6.52E-03,1.38E-02
136423,6.52E-03,1.40E-02
136424,6.52E-03,1.42E-02
136425,6.52E-03,1.44E-02
136426,6.52E-03,1.46E-02
136427,6.51E-03,1.48E-02
136428,6.51E-03,1.50E-02
136429,6.51E-03,1.52E-02
136430,6.51E-03,1.54E-02
136431,6.51E-03,1.56E-02
136432,6.51E-03,1.58E-02
136433,6.51E-03,1.60E-02
136434,6.51E-03,1.61E-02
136435,6.51E-03,1.63E-02
136436,6.51E-03,1.65E-02
136437,6.51E-03,1.67E-02
136438,6.51E-03,1.69E-02
136439,6.51E-03,1.71E-02
136440,6.51E-03,1.73E-02
136441,6.50E-03,1.75E-02
136442,6.50E-03,1.77E-02
136443,6.50E-03,1.79E-02
136444,6.50E-03,1.81E-02
136445,6.50E-03,1.83E-02
136446,6.50E-03,1.85E-02
136447,6.50E-03,1.86E-02
136448,6.50E-03,1.88E-02
136449,6.50E-03,1.90E-02
136450,6.50E-03,1.92E-02
136451,6.50E-03,1.94E-02
136452,6.50E-03,1.96E-02
136453,6.50E-03,1.98E-02
136454,6.50E-03,2.00E-02
136455,6.49E-03,2.02E-02
136456,6.49E-03,2.04E-02
136457,6.49E-03,2.06E-02
136458,6.49E-03,2.08E-02
136459,6.49E-03,2.10E-02
136460,6.49E-03,2.12E-02
136461,6.49E-03,2.14E-02
136462,6.49E-03,2.17E-02
136463,6.49E-03,2.19E-02
136464,6.49E-03,2.21E-02
136465,6.49E-03,2.23E-02
136466,6.49E-03,2.25E-02
136467,6.49E-03,2.28E-02
136468,6.48E-03,2.30E-02
136469,6.48E-03,2.32E-02
136470,6.48E-03,2.35E-02
136471,6.48E-03,2.37E-02
136472,6.48E-03,2.39E-02
136473,6.48E-03,2.41E-02
136474,6.48E-03,2.44E-02
136475,6.48E-03,2.46E-02
136476,6.48E-03,2.47E-02
136477,6.48E-03,2.49E-02
136478,6.48E-03,2.50E-02
136479,6.53E-03,1.15E-02
136480,6.53E-03,1.17E-02
136481,6.53E-03,1.19E-02
136482,6.52E-03,1.21E-02
136483,6.52E-03,1.23E-02
136484,6.52E-03,1.25E-02
136485,6.52E-03,1.27E-02
136486,6.52E-03,1.29E-02
136487,6.52E-03,1.31E-02
136488,6.52E-03,1.33E-02
136489,6.52E-03,1.34E-02
136490,6.52E-03,1.36E-02
136491,6.52E-03,1.38E-02
136492,6.52E-03,1.40E-02
136493,6.52E-03,1.42E-02
136494,6.52E-03,1.44E-02
136495,6.52E-03,1.46E-02
136496,6.51E-03,1.48E-02
136497,6.51E-03,1.50E-02
136498,6.51E-03,1.52E-02
136499,6.51E-03,1.54E-02
136500,6.51E-03,1.56E-02
136501,6.51E-03,1.58E-02
136502,6.51E-03,1.60E-02
136503,6.51E-03,1.61E-02
136504,6.51E-03,1.63E-02
136505,6.51E-03,1.65E-02
136506,6.51E-03,1.67E-02
136507,6.51E-03,1.69E-02
136508,6.51E-03,1.71E-02
136509,6.51E-03,1.73E-02
136510,6.50E-03,1.75E-02
136511,6.50E-03,1.77E-02
136512,6.50E-03,1.79E-02
136513,6.50E-03,1.81E-02
136514,6.50E-03,1.83E-02
136515,6.50E-03,1.84E-02
136516,6.50E-03,1.86E-02
136517,6.50E-03,1.88E-02
136518,6.50E-03,1.90E-02
136519,6.50E-03,1.92E-02
136520,6.50E-03,1.94E-02
136521,6.50E-03,1.96E-02
136522,6.50E-03,1.98E-02
136523,6.50E-03,2.00E-02
136524,6.49E-03,2.02E-02
136525,6.49E-03,2.04E-02
136526,6.49E-03,2.06E-02
136527,6.49E-03,2.08E-02
136528,6.49E-03,2.10E-02
136529,6.49E-03,2.12E-02
136530,6.49E-03,2.14E-02
136531,6.49E-03,2.16E-02
136532,6.49E-03,2.18E-02
136533,6.49E-03,2.21E-02
136534,6.49E-03,2.23E-02
136535,6.49E-03,2.25E-02
136536,6.49E-03,2.27E-02
136537,6.48E-03,2.29E-02
136538,6.48E-03,2.32E-02
136539,6.48E-03,2.34E-02
136540,6.48E-03,2.36E-02
136541,6.48E-03,2.39E-02
136542,6.48E-03,2.41E-02
136543,6.48E-03,2.43E-02
136544,6.48E-03,2.45E-02
136545,6.48E-03,2.47E-02
136546,6.48E-03,2.49E-02
136547,6.48E-03,2.50E-02
136548,6.53E-03,1.15E-02
136549,6.53E-03,1.17E-02
136550,6.53E-03,1.19E-02
136551,6.52E-03,1.21E-02
136552,6.52E-03,1.23E-02
136553,6.52E-03,1.25E-02
136554,6.52E-03,1.27E-02
136555,6.52E-03,1.29E-02
136556,6.52E-03,1.31E-02
136557,6.52E-03,1.33E-02
136558,6.52E-03,1.35E-02
136559,6.52E-03,1.36E-02
136560,6.52E-03,1.38E-02
136561,6.52E-03,1.40E-02
136562,6.52E-03,1.42E-02
136563,6.52E-03,1.44E-02
136564,6.52E-03,1.46E-02
136565,6.51E-03,1.48E-02
136566,6.51E-03,1.50E-02
136567,6.51E-03,1.52E-02
136568,6.51E-03,1.54E-02
136569,6.51E-03,1.56E-02
136570,6.51E-03,1.58E-02
136571,6.51E-03,1.60E-02
136572,6.51E-03,1.61E-02
136573,6.51E-03,1.63E-02
136574,6.51E-03,1.65E-02
136575,6.51E-03,1.67E-02
136576,6.51E-03,1.69E-02
136577,6.51E-03,1.71E-02
136578,6.51E-03,1.73E-02
136579,6.50E-03,1.75E-02
136580,6.50E-03,1.77E-02
136581,6.50E-03,1.79E-02
136582,6.50E-03,1.81E-02
136583,6.50E-03,1.83E-02
136584,6.50E-03,1.84E-02
136585,6.50E-03,1.86E-02
136586,6.50E-03,1.88E-02
136587,6.50E-03,1.90E-02
136588,6.50E-03,1.92E-02
136589,6.50E-03,1.94E-02
136590,6.50E-03,1.96E-02
136591,6.50E-03,1.98E-02
136592,6.50E-03,2.00E-02
136593,6.49E-03,2.02E-02
136594,6.49E-03,2.04E-02
136595,6.49E-03,2.06E-02
136596,6.49E-03,2.08E-02
136597,6.49E-03,2.10E-02
136598,6.49E-03,2.12E-02
136599,6.49E-03,2.14E-02
136600,6.49E-03,2.16E-02
136601,6.49E-03,2.18E-02
136602,6.49E-03,2.20E-02
136603,6.49E-03,2.22E-02
136604,6.49E-03,2.25E-02
136605,6.49E-03,2.27E-02
136606,6.48E-03,2.29E-02
136607,6.48E-03,2.31E-02
136608,6.48E-03,2.33E-02
136609,6.48E-03,2.36E-02
136610,6.48E-03,2.38E-02
136611,6.48E-03,2.40E-02
136612,6.48E-03,2.43E-02
136613,6.48E-03,2.45E-02
136614,6.48E-03,2.47E-02
136615,6.48E-03,2.49E-02
136616,6.48E-03,2.51E-02
136617,6.53E-03,1.15E-02
136618,6.53E-03,1.17E-02
136619,6.53E-03,1.19E-02
136620,6.52E-03,1.21E-02
136621,6.52E-03,1.23E-02
136622,6.52E-03,1.25E-02
136623,6.52E-03,1.27E-02
136624,6.52E-03,1.29E-02
136625,6.52E-03,1.31E-02
136626,6.52E-03,1.33E-02
136627,6.52E-03,1.35E-02
136628,6.52E-03,1.37E-02
136629,6.52E-03,1.39E-02
136630,6.52E-03,1.40E-02
136631,6.52E-03,1.42E-02
136632,6.52E-03,1.44E-02
136633,6.52E-03,1.46E-02
136634,6.51E-03,1.48E-02
136635,6.51E-03,1.50E-02
136636,6.51E-03,1.52E-02
136637,6.51E-03,1.54E-02
136638,6.51E-03,1.56E-02
136639,6.51E-03,1.58E-02
136640,6.51E-03,1.60E-02
136641,6.51E-03,1.61E-02
136642,6.51E-03,1.63E-02
136643,6.51E-03,1.65E-02
136644,6.51E-03,1.67E-02
136645,6.51E-03,1.69E-02
136646,6.51E-03,1.71E-02
136647,6.51E-03,1.73E-02
136648,6.50E-03,1.75E-02
136649,6.50E-03,1.77E-02
136650,6.50E-03,1.79E-02
136651,6.50E-03,1.81E-02
136652,6.50E-03,1.82E-02
136653,6.50E-03,1.84E-02
136654,6.50E-03,1.86E-02
136655,6.50E-03,1.88E-02
136656,6.50E-03,1.90E-02
136657,6.50E-03,1.92E-02
136658,6.50E-03,1.94E-02
136659,6.50E-03,1.96E-02
136660,6.50E-03,1.98E-02
136661,6.50E-03,2.00E-02
136662,6.49E-03,2.02E-02
136663,6.49E-03,2.04E-02
136664,6.49E-03,2.06E-02
136665,6.49E-03,2.08E-02
136666,6.49E-03,2.10E-02
136667,6.49E-03,2.12E-02
136668,6.49E-03,2.14E-02
136669,6.49E-03,2.16E-02
136670,6.49E-03,2.18E-02
136671,6.49E-03,2.20E-02
136672,6.49E-03,2.22E-02
136673,6.49E-03,2.24E-02
136674,6.49E-03,2.26E-02
136675,6.48E-03,2.28E-02
136676,6.48E-03,2.31E-02
136677,6.48E-03,2.33E-02
136678,6.48E-03,2.35E-02
136679,6.48E-03,2.38E-02
136680,6.48E-03,2.40E-02
136681,6.48E-03,2.42E-02
136682,6.48E-03,2.45E-02
136683,6.48E-03,2.47E-02
136684,6.48E-03,2.50E-02
136685,6.48E-03,2.52E-02
136686,6.53E-03,1.15E-02
136687,6.53E-03,1.17E-02
136688,6.53E-03,1.19E-02
136689,6.52E-03,1.21E-02
136690,6.52E-03,1.23E-02
136691,6.52E-03,1.25E-02
136692,6.52E-03,1.27E-02
136693,6.52E-03,1.29E-02
136694,6.52E-03,1.31E-02
136695,6.52E-03,1.33E-02
136696,6.52E-03,1.35E-02
136697,6.52E-03,1.37E-02
136698,6.52E-03,1.39E-02
136699,6.52E-03,1.41E-02
136700,6.52E-03,1.42E-02
136701,6.52E-03,1.44E-02
136702,6.52E-03,1.46E-02
136703,6.51E-03,1.48E-02
136704,6.51E-03,1.50E-02
136705,6.51E-03,1.52E-02
136706,6.51E-03,1.54E-02
136707,6.51E-03,1.56E-02
136708,6.51E-03,1.58E-02
136709,6.51E-03,1.60E-02
136710,6.51E-03,1.62E-02
136711,6.51E-03,1.63E-02
136712,6.51E-03,1.65E-02
136713,6.51E-03,1.67E-02
136714,6.51E-03,1.69E-02
136715,6.51E-03,1.71E-02
136716,6.51E-03,1.73E-02
136717,6.50E-03,1.75E-02
136718,6.50E-03,1.77E-02
136719,6.50E-03,1.79E-02
136720,6.50E-03,1.81E-02
136721,6.50E-03,1.82E-02
136722,6.50E-03,1.84E-02
136723,6.50E-03,1.86E-02
136724,6.50E-03,1.88E-02
136725,6.50E-03,1.90E-02
136726,6.50E-03,1.92E-02
136727,6.50E-03,1.94E-02
136728,6.50E-03,1.96E-02
136729,6.50E-03,1.98E-02
136730,6.50E-03,2.00E-02
136731,6.49E-03,2.02E-02
136732,6.49E-03,2.04E-02
136733,6.49E-03,2.06E-02
136734,6.49E-03,2.07E-02
136735,6.49E-03,2.09E-02
136736,6.49E-03,2.11E-02
136737,6.49E-03,2.13E-02
136738,6.49E-03,2.15E-02
136739,6.49E-03,2.17E-02
136740,6.49E-03,2.20E-02
136741,6.49E-03,2.22E-02
136742,6.49E-03,2.24E-02
136743,6.49E-03,2.26E-02
136744,6.48E-03,2.28E-02
136745,6.48E-03,2.30E-02
136746,6.48E-03,2.32E-02
136747,6.48E-03,2.35E-02
136748,6.48E-03,2.37E-02
136749,6.48E-03,2.40E-02
136750,6.48E-03,2.42E-02
136751,6.48E-03,2.45E-02
136752,6.48E-03,2.47E-02
136753,6.48E-03,2.51E-02
136754,6.48E-03,2.54E-02
136755,6.53E-03,1.15E-02
136756,6.53E-03,1.17E-02
136757,6.53E-03,1.19E-02
136758,6.52E-03,1.21E-02
136759,6.52E-03,1.23E-02
136760,6.52E-03,1.25E-02
136761,6.52E-03,1.27E-02
136762,6.52E-03,1.29E-02
136763,6.52E-03,1.31E-02
136764,6.52E-03,1.33E-02
136765,6.52E-03,1.35E-02
136766,6.52E-03,1.37E-02
136767,6.52E-03,1.39E-02
136768,6.52E-03,1.41E-02
136769,6.52E-03,1.43E-02
136770,6.52E-03,1.44E-02
136771,6.52E-03,1.46E-02
136772,6.51E-03,1.48E-02
136773,6.51E-03,1.50E-02
136774,6.51E-03,1.52E-02
136775,6.51E-03,1.54E-02
136776,6.51E-03,1.56E-02
136777,6.51E-03,1.58E-02
136778,6.51E-03,1.60E-02
136779,6.51E-03,1.62E-02
136780,6.51E-03,1.63E-02
136781,6.51E-03,1.65E-02
136782,6.51E-03,1.67E-02
136783,6.51E-03,1.69E-02
136784,6.51E-03,1.71E-02
136785,6.51E-03,1.73E-02
136786,6.50E-03,1.75E-02
136787,6.50E-03,1.77E-02
136788,6.50E-03,1.79E-02
136789,6.50E-03,1.81E-02
136790,6.50E-03,1.82E-02
136791,6.50E-03,1.84E-02
136792,6.50E-03,1.86E-02
136793,6.50E-03,1.88E-02
136794,6.50E-03,1.90E-02
136795,6.50E-03,1.92E-02
136796,6.50E-03,1.94E-02
136797,6.50E-03,1.96E-02
136798,6.50E-03,1.98E-02
136799,6.50E-03,2.00E-02
136800,6.49E-03,2.01E-02
136801,6.49E-03,2.03E-02
136802,6.49E-03,2.05E-02
136803,6.49E-03,2.07E-02
136804,6.49E-03,2.09E-02
136805,6.49E-03,2.11E-02
136806,6.49E-03,2.13E-02
136807,6.49E-03,2.15E-02
136808,6.49E-03,2.17E-02
136809,6.49E-03,2.19E-02
136810,6.49E-03,2.21E-02
136811,6.49E-03,2.23E-02
136812,6.49E-03,2.25E-02
136813,6.48E-03,2.28E-02
136814,6.48E-03,2.30E-02
136815,6.48E-03,2.32E-02
136816,6.48E-03,2.34E-02
136817,6.48E-03,2.37E-02
136818,6.48E-03,2.39E-02
136819,6.48E-03,2.42E-02
136820,6.48E-03,2.45E-02
136821,6.48E-03,2.48E-02
136822,6.48E-03,2.52E-02
136823,6.48E-03,2.56E-02
136824,6.53E-03,1.15E-02
136825,6.53E-03,1.17E-02
136826,6.53E-03,1.19E-02
136827,6.52E-03,1.21E-02
136828,6.52E-03,1.23E-02
136829,6.52E-03,1.25E-02
136830,6.52E-03,1.27E-02
136831,6.52E-03,1.29E-02
136832,6.52E-03,1.31E-02
136833,6.52E-03,1.33E-02
136834,6.52E-03,1.35E-02
136835,6.52E-03,1.37E-02
136836,6.52E-03,1.39E-02
136837,6.52E-03,1.41E-02
136838,6.52E-03,1.43E-02
136839,6.52E-03,1.45E-02
136840,6.52E-03,1.46E-02
136841,6.51E-03,1.48E-02
136842,6.51E-03,1.50E-02
136843,6.51E-03,1.52E-02
136844,6.51E-03,1.54E-02
136845,6.51E-03,1.56E-02
136846,6.51E-03,1.58E-02
136847,6.51E-03,1.60E-02
136848,6.51E-03,1.62E-02
136849,6.51E-03,1.63E-02
136850,6.51E-03,1.65E-02
136851,6.51E-03,1.67E-02
136852,6.51E-03,1.69E-02
136853,6.51E-03,1.71E-02
136854,6.51E-03,1.73E-02
136855,6.50E-03,1.75E-02
136856,6.50E-03,1.77E-02
136857,6.50E-03,1.79E-02
136858,6.50E-03,1.80E-02
136859,6.50E-03,1.82E-02
136860,6.50E-03,1.84E-02
136861,6.50E-03,1.86E-02
136862,6.50E-03,1.88E-02
136863,6.50E-03,1.90E-02
136864,6.50E-03,1.92E-02
136865,6.50E-03,1.94E-02
136866,6.50E-03,1.96E-02
136867,6.50E-03,1.98E-02
136868,6.50E-03,1.99E-02
136869,6.49E-03,2.01E-02
136870,6.49E-03,2.03E-02
136871,6.49E-03,2.05E-02
136872,6.49E-03,2.07E-02
136873,6.49E-03,2.09E-02
136874,6.49E-03,2.11E-02
136875,6.49E-03,2.13E-02
136876,6.49E-03,2.15E-02
136877,6.49E-03,2.17E-02
136878,6.49E-03,2.19E-02
136879,6.49E-03,2.21E-02
136880,6.49E-03,2.23E-02
136881,6.49E-03,2.25E-02
136882,6.48E-03,2.27E-02
136883,6.48E-03,2.29E-02
136884,6.48E-03,2.32E-02
136885,6.48E-03,2.34E-02
136886,6.48E-03,2.36E-02
136887,6.48E-03,2.39E-02
136888,6.48E-03,2.42E-02
136889,6.48E-03,2.45E-02
136890,6.48E-03,2.49E-02
136891,6.48E-03,2.53E-02
136892,6.48E-03,2.58E-02
136893,6.53E-03,1.16E-02
136894,6.53E-03,1.18E-02
136895,6.53E-03,1.20E-02
136896,6.52E-03,1.21E-02
136897,6.52E-03,1.23E-02
136898,6.52E-03,1.25E-02
136899,6.52E-03,1.27E-02
136900,6.52E-03,1.29E-02
136901,6.52E-03,1.31E-02
136902,6.52E-03,1.33E-02
136903,6.52E-03,1.35E-02
136904,6.52E-03,1.37E-02
136905,6.52E-03,1.39E-02
136906,6.52E-03,1.41E-02
136907,6.52E-03,1.43E-02
136908,6.52E-03,1.45E-02
136909,6.52E-03,1.46E-02
136910,6.51E-03,1.48E-02
136911,6.51E-03,1.50E-02
136912,6.51E-03,1.52E-02
136913,6.51E-03,1.54E-02
136914,6.51E-03,1.56E-02
136915,6.51E-03,1.58E-02
136916,6.51E-03,1.60E-02
136917,6.51E-03,1.62E-02
136918,6.51E-03,1.63E-02
136919,6.51E-03,1.65E-02
136920,6.51E-03,1.67E-02
136921,6.51E-03,1.69E-02
136922,6.51E-03,1.71E-02
136923,6.51E-03,1.73E-02
136924,6.50E-03,1.75E-02
136925,6.50E-03,1.77E-02
136926,6.50E-03,1.79E-02
136927,6.50E-03,1.80E-02
136928,6.50E-03,1.82E-02
136929,6.50E-03,1.84E-02
136930,6.50E-03,1.86E-02
136931,6.50E-03,1.88E-02
136932,6.50E-03,1.90E-02
136933,6.50E-03,1.92E-02
136934,6.50E-03,1.94E-02
136935,6.50E-03,1.96E-02
136936,6.50E-03,1.97E-02
136937,6.50E-03,1.99E-02
136938,6.49E-03,2.01E-02
136939,6.49E-03,2.03E-02
136940,6.49E-03,2.05E-02
136941,6.49E-03,2.07E-02
136942,6.49E-03,2.09E-02
136943,6.49E-03,2.11E-02
136944,6.49E-03,2.13E-02
136945,6.49E-03,2.15E-02
136946,6.49E-03,2.17E-02
136947,6.49E-03,2.19E-02
136948,6.49E-03,2.21E-02
136949,6.49E-03,2.23E-02
136950,6.49E-03,2.25E-02
136951,6.48E-03,2.27E-02
136952,6.48E-03,2.29E-02
136953,6.48E-03,2.31E-02
136954,6.48E-03,2.34E-02
136955,6.48E-03,2.36E-02
136956,6.48E-03,2.39E-02
136957,6.48E-03,2.42E-02
136958,6.48E-03,2.45E-02
136959,6.48E-03,2.49E-02
136960,6.48E-03,2.54E-02
136961,6.48E-03,2.60E-02
136962,6.53E-03,1.16E-02
136963,6.53E-03,1.18E-02
136964,6.53E-03,1.20E-02
136965,6.52E-03,1.22E-02
136966,6.52E-03,1.24E-02
136967,6.52E-03,1.26E-02
136968,6.52E-03,1.27E-02
136969,6.52E-03,1.29E-02
136970,6.52E-03,1.31E-02
136971,6.52E-03,1.33E-02
136972,6.52E-03,1.35E-02
136973,6.52E-03,1.37E-02
136974,6.52E-03,1.39E-02
136975,6.52E-03,1.41E-02
136976,6.52E-03,1.43E-02
136977,6.52E-03,1.45E-02
136978,6.52E-03,1.47E-02
136979,6.51E-03,1.48E-02
136980,6.51E-03,1.50E-02
136981,6.51E-03,1.52E-02
136982,6.51E-03,1.54E-02
136983,6.51E-03,1.56E-02
136984,6.51E-03,1.58E-02
136985,6.51E-03,1.60E-02
136986,6.51E-03,1.62E-02
136987,6.51E-03,1.64E-02
136988,6.51E-03,1.65E-02
136989,6.51E-03,1.67E-02
136990,6.51E-03,1.69E-02
136991,6.51E-03,1.71E-02
136992,6.51E-03,1.73E-02
136993,6.50E-03,1.75E-02
136994,6.50E-03,1.77E-02
136995,6.50E-03,1.79E-02
136996,6.50E-03,1.80E-02
136997,6.50E-03,1.82E-02
136998,6.50E-03,1.84E-02
136999,6.50E-03,1.86E-02
137000,6.50E-03,1.88E-02
137001,6.50E-03,1.90E-02
137002,6.50E-03,1.92E-02
137003,6.50E-03,1.94E-02
137004,6.50E-03,1.96E-02
137005,6.50E-03,1.97E-02
137006,6.50E-03,1.99E-02
137007,6.49E-03,2.01E-02
137008,6.49E-03,2.03E-02
137009,6.49E-03,2.05E-02
137010,6.49E-03,2.07E-02
137011,6.49E-03,2.09E-02
137012,6.49E-03,2.11E-02
137013,6.49E-03,2.13E-02
137014,6.49E-03,2.14E-02
137015,6.49E-03,2.16E-02
137016,6.49E-03,2.18E-02
137017,6.49E-03,2.20E-02
137018,6.49E-03,2.22E-02
137019,6.49E-03,2.24E-02
137020,6.48E-03,2.27E-02
137021,6.48E-03,2.29E-02
137022,6.48E-03,2.31E-02
137023,6.48E-03,2.33E-02
137024,6.48E-03,2.36E-02
137025,6.48E-03,2.39E-02
137026,6.48E-03,2.42E-02
137027,6.48E-03,2.46E-02
137028,6.48E-03,2.50E-02
137029,6.48E-03,2.55E-02
137030,6.48E-03,2.61E-02
137031,6.53E-03,1.16E-02
137032,6.53E-03,1.18E-02
137033,6.53E-03,1.20E-02
137034,6.52E-03,1.22E-02
137035,6.52E-03,1.24E-02
137036,6.52E-03,1.26E-02
137037,6.52E-03,1.28E-02
137038,6.52E-03,1.29E-02
137039,6.52E-03,1.31E-02
137040,6.52E-03,1.33E-02
137041,6.52E-03,1.35E-02
137042,6.52E-03,1.37E-02
137043,6.52E-03,1.39E-02
137044,6.52E-03,1.41E-02
137045,6.52E-03,1.43E-02
137046,6.52E-03,1.45E-02
137047,6.52E-03,1.47E-02
137048,6.51E-03,1.48E-02
137049,6.51E-03,1.50E-02
137050,6.51E-03,1.52E-02
137051,6.51E-03,1.54E-02
137052,6.51E-03,1.56E-02
137053,6.51E-03,1.58E-02
137054,6.51E-03,1.60E-02
137055,6.51E-03,1.62E-02
137056,6.51E-03,1.64E-02
137057,6.51E-03,1.65E-02
137058,6.51E-03,1.67E-02
137059,6.51E-03,1.69E-02
137060,6.51E-03,1.71E-02
137061,6.51E-03,1.73E-02
137062,6.50E-03,1.75E-02
137063,6.50E-03,1.77E-02
137064,6.50E-03,1.79E-02
137065,6.50E-03,1.80E-02
137066,6.50E-03,1.82E-02
137067,6.50E-03,1.84E-02
137068,6.50E-03,1.86E-02
137069,6.50E-03,1.88E-02
137070,6.50E-03,1.90E-02
137071,6.50E-03,1.92E-02
137072,6.50E-03,1.94E-02
137073,6.50E-03,1.95E-02
137074,6.50E-03,1.97E-02
137075,6.50E-03,1.99E-02
137076,6.49E-03,2.01E-02
137077,6.49E-03,2.03E-02
137078,6.49E-03,2.05E-02
137079,6.49E-03,2.07E-02
137080,6.49E-03,2.09E-02
137081,6.49E-03,2.11E-02
137082,6.49E-03,2.12E-02
137083,6.49E-03,2.14E-02
137084,6.49E-03,2.16E-02
137085,6.49E-03,2.18E-02
137086,6.49E-03,2.20E-02
137087,6.49E-03,2.22E-02
137088,6.49E-03,2.24E-02
137089,6.48E-03,2.26E-02
137090,6.48E-03,2.29E-02
137091,6.48E-03,2.31E-02
137092,6.48E-03,2.33E-02
137093,6.48E-03,2.36E-02
137094,6.48E-03,2.39E-02
137095,6.48E-03,2.42E-02
137096,6.48E-03,2.46E-02
137097,6.48E-03,2.51E-02
137098,6.48E-03,2.56E-02
137099,6.48E-03,2.63E-02
137100,6.53E-03,1.16E-02
137101,6.53E-03,1.18E-02
137102,6.53E-03,1.20E-02
137103,6.52E-03,1.22E-02
137104,6.52E-03,1.24E-02
137105,6.52E-03,1.26E-02
137106,6.52E-03,1.28E-02
137107,6.52E-03,1.30E-02
137108,6.52E-03,1.31E-02
137109,6.52E-03,1.33E-02
137110,6.52E-03,1.35E-02
137111,6.52E-03,1.37E-02
137112,6.52E-03,1.39E-02
137113,6.52E-03,1.41E-02
137114,6.52E-03,1.43E-02
137115,6.52E-03,1.45E-02
137116,6.52E-03,1.47E-02
137117,6.51E-03,1.49E-02
137118,6.51E-03,1.50E-02
137119,6.51E-03,1.52E-02
137120,6.51E-03,1.54E-02
137121,6.51E-03,1.56E-02
137122,6.51E-03,1.58E-02
137123,6.51E-03,1.60E-02
137124,6.51E-03,1.62E-02
137125,6.51E-03,1.64E-02
137126,6.51E-03,1.65E-02
137127,6.51E-03,1.67E-02
137128,6.51E-03,1.69E-02
137129,6.51E-03,1.71E-02
137130,6.51E-03,1.73E-02
137131,6.50E-03,1.75E-02
137132,6.50E-03,1.77E-02
137133,6.50E-03,1.79E-02
137134,6.50E-03,1.80E-02
137135,6.50E-03,1.82E-02
137136,6.50E-03,1.84E-02
137137,6.50E-03,1.86E-02
137138,6.50E-03,1.88E-02
137139,6.50E-03,1.90E-02
137140,6.50E-03,1.92E-02
137141,6.50E-03,1.94E-02
137142,6.50E-03,1.95E-02
137143,6.50E-03,1.97E-02
137144,6.50E-03,1.99E-02
137145,6.49E-03,2.01E-02
137146,6.49E-03,2.03E-02
137147,6.49E-03,2.05E-02
137148,6.49E-03,2.07E-02
137149,6.49E-03,2.09E-02
137150,6.49E-03,2.10E-02
137151,6.49E-03,2.12E-02
137152,6.49E-03,2.14E-02
137153,6.49E-03,2.16E-02
137154,6.49E-03,2.18E-02
137155,6.49E-03,2.20E-02
137156,6.49E-03,2.22E-02
137157,6.49E-03,2.24E-02
137158,6.48E-03,2.26E-02
137159,6.48E-03,2.28E-02
137160,6.48E-03,2.31E-02
137161,6.48E-03,2.33E-02
137162,6.48E-03,2.36E-02
137163,6.48E-03,2.39E-02
137164,6.48E-03,2.43E-02
137165,6.48E-03,2.47E-02
137166,6.48E-03,2.51E-02
137167,6.48E-03,2.57E-02
137168,6.48E-03,2.64E-02
137169,6.53E-03,1.16E-02
137170,6.53E-03,1.18E-02
137171,6.53E-03,1.20E-02
137172,6.52E-03,1.22E-02
137173,6.52E-03,1.24E-02
137174,6.52E-03,1.26E-02
137175,6.52E-03,1.28E-02
137176,6.52E-03,1.30E-02
137177,6.52E-03,1.32E-02
137178,6.52E-03,1.34E-02
137179,6.52E-03,1.35E-02
137180,6.52E-03,1.37E-02
137181,6.52E-03,1.39E-02
137182,6.52E-03,1.41E-02
137183,6.52E-03,1.43E-02
137184,6.52E-03,1.45E-02
137185,6.52E-03,1.47E-02
137186,6.51E-03,1.49E-02
137187,6.51E-03,1.50E-02
137188,6.51E-03,1.52E-02
137189,6.51E-03,1.54E-02
137190,6.51E-03,1.56E-02
137191,6.51E-03,1.58E-02
137192,6.51E-03,1.60E-02
137193,6.51E-03,1.62E-02
137194,6.51E-03,1.64E-02
137195,6.51E-03,1.65E-02
137196,6.51E-03,1.67E-02
137197,6.51E-03,1.69E-02
137198,6.51E-03,1.71E-02
137199,6.51E-03,1.73E-02
137200,6.50E-03,1.75E-02
137201,6.50E-03,1.77E-02
137202,6.50E-03,1.79E-02
137203,6.50E-03,1.80E-02
137204,6.50E-03,1.82E-02
137205,6.50E-03,1.84E-02
137206,6.50E-03,1.86E-02
137207,6.50E-03,1.88E-02
137208,6.50E-03,1.90E-02
137209,6.50E-03,1.92E-02
137210,6.50E-03,1.94E-02
137211,6.50E-03,1.95E-02
137212,6.50E-03,1.97E-02
137213,6.50E-03,1.99E-02
137214,6.49E-03,2.01E-02
137215,6.49E-03,2.03E-02
137216,6.49E-03,2.05E-02
137217,6.49E-03,2.07E-02
137218,6.49E-03,2.09E-02
137219,6.49E-03,2.10E-02
137220,6.49E-03,2.12E-02
137221,6.49E-03,2.14E-02
137222,6.49E-03,2.16E-02
137223,6.49E-03,2.18E-02
137224,6.49E-03,2.20E-02
137225,6.49E-03,2.22E-02
137226,6.49E-03,2.24E-02
137227,6.48E-03,2.26E-02
137228,6.48E-03,2.28E-02
137229,6.48E-03,2.31E-02
137230,6.48E-03,2.33E-02
137231,6.48E-03,2.36E-02
137232,6.48E-03,2.39E-02
137233,6.48E-03,2.43E-02
137234,6.48E-03,2.47E-02
137235,6.48E-03,2.52E-02
137236,6.48E-03,2.58E-02
137237,6.48E-03,2.64E-02
137238,6.53E-03,1.16E-02
137239,6.53E-03,1.18E-02
137240,6.53E-03,1.20E-02
137241,6.52E-03,1.22E-02
137242,6.52E-03,1.24E-02
137243,6.52E-03,1.26E-02
137244,6.52E-03,1.28E-02
137245,6.52E-03,1.30E-02
137246,6.52E-03,1.32E-02
137247,6.52E-03,1.34E-02
137248,6.52E-03,1.35E-02
137249,6.52E-03,1.37E-02
137250,6.52E-03,1.39E-02
137251,6.52E-03,1.41E-02
137252,6.52E-03,1.43E-02
137253,6.52E-03,1.45E-02
137254,6.52E-03,1.47E-02
137255,6.51E-03,1.49E-02
137256,6.51E-03,1.51E-02
137257,6.51E-03,1.52E-02
137258,6.51E-03,1.54E-02
137259,6.51E-03,1.56E-02
137260,6.51E-03,1.58E-02
137261,6.51E-03,1.60E-02
137262,6.51E-03,1.62E-02
137263,6.51E-03,1.64E-02
137264,6.51E-03,1.65E-02
137265,6.51E-03,1.67E-02
137266,6.51E-03,1.69E-02
137267,6.51E-03,1.71E-02
137268,6.51E-03,1.73E-02
137269,6.50E-03,1.75E-02
137270,6.50E-03,1.77E-02
137271,6.50E-03,1.79E-02
137272,6.50E-03,1.80E-02
137273,6.50E-03,1.82E-02
137274,6.50E-03,1.84E-02
137275,6.50E-03,1.86E-02
137276,6.50E-03,1.88E-02
137277,6.50E-03,1.90E-02
137278,6.50E-03,1.92E-02
137279,6.50E-03,1.94E-02
137280,6.50E-03,1.95E-02
137281,6.50E-03,1.97E-02
137282,6.50E-03,1.99E-02
137283,6.49E-03,2.01E-02
137284,6.49E-03,2.03E-02
137285,6.49E-03,2.05E-02
137286,6.49E-03,2.07E-02
137287,6.49E-03,2.08E-02
137288,6.49E-03,2.10E-02
137289,6.49E-03,2.12E-02
137290,6.49E-03,2.14E-02
137291,6.49E-03,2.16E-02
137292,6.49E-03,2.18E-02
137293,6.49E-03,2.20E-02
137294,6.49E-03,2.22E-02
137295,6.49E-03,2.24E-02
137296,6.48E-03,2.26E-02
137297,6.48E-03,2.28E-02
137298,6.48E-03,2.31E-02
137299,6.48E-03,2.33E-02
137300,6.48E-03,2.36E-02
137301,6.48E-03,2.40E-02
137302,6.48E-03,2.43E-02
137303,6.48E-03,2.48E-02
137304,6.48E-03,2.52E-02
137305,6.48E-03,2.58E-02
137306,6.48E-03,2.65E-02
137307,6.53E-03,1.16E-02
137308,6.53E-03,1.18E-02
137309,6.53E-03,1.20E-02
137310,6.52E-03,1.22E-02
137311,6.52E-03,1.24E-02
137312,6.52E-03,1.26E-02
137313,6.52E-03,1.28E-02
137314,6.52E-03,1.30E-02
137315,6.52E-03,1.32E-02
137316,6.52E-03,1.34E-02
137317,6.52E-03,1.36E-02
137318,6.52E-03,1.37E-02
137319,6.52E-03,1.39E-02
137320,6.52E-03,1.41E-02
137321,6.52E-03,1.43E-02
137322,6.52E-03,1.45E-02
137323,6.52E-03,1.47E-02
137324,6.51E-03,1.49E-02
137325,6.51E-03,1.51E-02
137326,6.51E-03,1.52E-02
137327,6.51E-03,1.54E-02
137328,6.51E-03,1.56E-02
137329,6.51E-03,1.58E-02
137330,6.51E-03,1.60E-02
137331,6.51E-03,1.62E-02
137332,6.51E-03,1.64E-02
137333,6.51E-03,1.66E-02
137334,6.51E-03,1.67E-02
137335,6.51E-03,1.69E-02
137336,6.51E-03,1.71E-02
137337,6.51E-03,1.73E-02
137338,6.50E-03,1.75E-02
137339,6.50E-03,1.77E-02
137340,6.50E-03,1.79E-02
137341,6.50E-03,1.80E-02
137342,6.50E-03,1.82E-02
137343,6.50E-03,1.84E-02
137344,6.50E-03,1.86E-02
137345,6.50E-03,1.88E-02
137346,6.50E-03,1.90E-02
137347,6.50E-03,1.92E-02
137348,6.50E-03,1.94E-02
137349,6.50E-03,1.95E-02
137350,6.50E-03,1.97E-02
137351,6.50E-03,1.99E-02
137352,6.49E-03,2.01E-02
137353,6.49E-03,2.03E-02
137354,6.49E-03,2.05E-02
137355,6.49E-03,2.07E-02
137356,6.49E-03,2.09E-02
137357,6.49E-03,2.10E-02
137358,6.49E-03,2.12E-02
137359,6.49E-03,2.14E-02
137360,6.49E-03,2.16E-02
137361,6.49E-03,2.18E-02
137362,6.49E-03,2.20E-02
137363,6.49E-03,2.22E-02
137364,6.49E-03,2.24E-02
137365,6.48E-03,2.26E-02
137366,6.48E-03,2.28E-02
137367,6.48E-03,2.31E-02
137368,6.48E-03,2.34E-02
137369,6.48E-03,2.36E-02
137370,6.48E-03,2.40E-02
137371,6.48E-03,2.43E-02
137372,6.48E-03,2.48E-02
137373,6.48E-03,2.53E-02
137374,6.48E-03,2.58E-02
137375,6.48E-03,2.65E-02
137376,6.53E-03,1.17E-02
137377,6.53E-03,1.18E-02
137378,6.53E-03,1.20E-02
137379,6.52E-03,1.22E-02
137380,6.52E-03,1.24E-02
137381,6.52E-03,1.26E-02
137382,6.52E-03,1.28E-02
137383,6.52E-03,1.30E-02
137384,6.52E-03,1.32E-02
137385,6.52E-03,1.34E-02
137386,6.52E-03,1.36E-02
137387,6.52E-03,1.38E-02
137388,6.52E-03,1.39E-02
137389,6.52E-03,1.41E-02
137390,6.52E-03,1.43E-02
137391,6.52E-03,1.45E-02
137392,6.52E-03,1.47E-02
137393,6.51E-03,1.49E-02
137394,6.51E-03,1.51E-02
137395,6.51E-03,1.53E-02
137396,6.51E-03,1.54E-02
137397,6.51E-03,1.56E-02
137398,6.51E-03,1.58E-02
137399,6.51E-03,1.60E-02
137400,6.51E-03,1.62E-02
137401,6.51E-03,1.64E-02
137402,6.51E-03,1.66E-02
137403,6.51E-03,1.67E-02
137404,6.51E-03,1.69E-02
137405,6.51E-03,1.71E-02
137406,6.51E-03,1.73E-02
137407,6.50E-03,1.75E-02
137408,6.50E-03,1.77E-02
137409,6.50E-03,1.79E-02
137410,6.50E-03,1.80E-02
137411,6.50E-03,1.82E-02
137412,6.50E-03,1.84E-02
137413,6.50E-03,1.86E-02
137414,6.50E-03,1.88E-02
137415,6.50E-03,1.90E-02
137416,6.50E-03,1.92E-02
137417,6.50E-03,1.94E-02
137418,6.50E-03,1.95E-02
137419,6.50E-03,1.97E-02
137420,6.50E-03,1.99E-02
137421,6.49E-03,2.01E-02
137422,6.49E-03,2.03E-02
137423,6.49E-03,2.05E-02
137424,6.49E-03,2.07E-02
137425,6.49E-03,2.09E-02
137426,6.49E-03,2.10E-02
137427,6.49E-03,2.12E-02
137428,6.49E-03,2.14E-02
137429,6.49E-03,2.16E-02
137430,6.49E-03,2.18E-02
137431,6.49E-03,2.20E-02
137432,6.49E-03,2.22E-02
137433,6.49E-03,2.24E-02
137434,6.48E-03,2.26E-02
137435,6.48E-03,2.29E-02
137436,6.48E-03,2.31E-02
137437,6.48E-03,2.34E-02
137438,6.48E-03,2.37E-02
137439,6.48E-03,2.40E-02
137440,6.48E-03,2.44E-02
137441,6.48E-03,2.48E-02
137442,6.48E-03,2.53E-02
137443,6.48E-03,2.58E-02
137444,6.48E-03,2.65E-02
137445,6.53E-03,1.17E-02
137446,6.53E-03,1.19E-02
137447,6.53E-03,1.21E-02
137448,6.52E-03,1.22E-02
137449,6.52E-03,1.24E-02
137450,6.52E-03,1.26E-02
137451,6.52E-03,1.28E-02
137452,6.52E-03,1.30E-02
137453,6.52E-03,1.32E-02
137454,6.52E-03,1.34E-02
137455,6.52E-03,1.36E-02
137456,6.52E-03,1.38E-02
137457,6.52E-03,1.40E-02
137458,6.52E-03,1.41E-02
137459,6.52E-03,1.43E-02
137460,6.52E-03,1.45E-02
137461,6.52E-03,1.47E-02
137462,6.51E-03,1.49E-02
137463,6.51E-03,1.51E-02
137464,6.51E-03,1.53E-02
137465,6.51E-03,1.54E-02
137466,6.51E-03,1.56E-02
137467,6.51E-03,1.58E-02
137468,6.51E-03,1.60E-02
137469,6.51E-03,1.62E-02
137470,6.51E-03,1.64E-02
137471,6.51E-03,1.66E-02
137472,6.51E-03,1.67E-02
137473,6.51E-03,1.69E-02
137474,6.51E-03,1.71E-02
137475,6.51E-03,1.73E-02
137476,6.50E-03,1.75E-02
137477,6.50E-03,1.77E-02
137478,6.50E-03,1.79E-02
137479,6.50E-03,1.80E-02
137480,6.50E-03,1.82E-02
137481,6.50E-03,1.84E-02
137482,6.50E-03,1.86E-02
137483,6.50E-03,1.88E-02
137484,6.50E-03,1.90E-02
137485,6.50E-03,1.92E-02
137486,6.50E-03,1.94E-02
137487,6.50E-03,1.95E-02
137488,6.50E-03,1.97E-02
137489,6.50E-03,1.99E-02
137490,6.49E-03,2.01E-02
137491,6.49E-03,2.03E-02
137492,6.49E-03,2.05E-02
137493,6.49E-03,2.07E-02
137494,6.49E-03,2.09E-02
137495,6.49E-03,2.11E-02
137496,6.49E-03,2.12E-02
137497,6.49E-03,2.14E-02
137498,6.49E-03,2.16E-02
137499,6.49E-03,2.18E-02
137500,6.49E-03,2.20E-02
137501,6.49E-03,2.22E-02
137502,6.49E-03,2.24E-02
137503,6.48E-03,2.26E-02
137504,6.48E-03,2.29E-02
137505,6.48E-03,2.31E-02
137506,6.48E-03,2.34E-02
137507,6.48E-03,2.37E-02
137508,6.48E-03,2.40E-02
137509,6.48E-03,2.44E-02
137510,6.48E-03,2.48E-02
137511,6.48E-03,2.53E-02
137512,6.48E-03,2.58E-02
137513,6.48E-03,2.64E-02
137514,6.53E-03,1.17E-02
137515,6.53E-03,1.19E-02
137516,6.53E-03,1.21E-02
137517,6.52E-03,1.23E-02
137518,6.52E-03,1.24E-02
137519,6.52E-03,1.26E-02
137520,6.52E-03,1.28E-02
137521,6.52E-03,1.30E-02
137522,6.52E-03,1.32E-02
137523,6.52E-03,1.34E-02
137524,6.52E-03,1.36E-02
137525,6.52E-03,1.38E-02
137526,6.52E-03,1.40E-02
137527,6.52E-03,1.41E-02
137528,6.52E-03,1.43E-02
137529,6.52E-03,1.45E-02
137530,6.52E-03,1.47E-02
137531,6.51E-03,1.49E-02
137532,6.51E-03,1.51E-02
137533,6.51E-03,1.53E-02
137534,6.51E-03,1.54E-02
137535,6.51E-03,1.56E-02
137536,6.51E-03,1.58E-02
137537,6.51E-03,1.60E-02
137538,6.51E-03,1.62E-02
137539,6.51E-03,1.64E-02
137540,6.51E-03,1.66E-02
137541,6.51E-03,1.67E-02
137542,6.51E-03,1.69E-02
137543,6.51E-03,1.71E-02
137544,6.51E-03,1.73E-02
137545,6.50E-03,1.75E-02
137546,6.50E-03,1.77E-02
137547,6.50E-03,1.79E-02
137548,6.50E-03,1.80E-02
137549,6.50E-03,1.82E-02
137550,6.50E-03,1.84E-02
137551,6.50E-03,1.86E-02
137552,6.50E-03,1.88E-02
137553,6.50E-03,1.90E-02
137554,6.50E-03,1.92E-02
137555,6.50E-03,1.94E-02
137556,6.50E-03,1.95E-02
137557,6.50E-03,1.97E-02
137558,6.50E-03,1.99E-02
137559,6.49E-03,2.01E-02
137560,6.49E-03,2.03E-02
137561,6.49E-03,2.05E-02
137562,6.49E-03,2.07E-02
137563,6.49E-03,2.09E-02
137564,6.49E-03,2.11E-02
137565,6.49E-03,2.13E-02
137566,6.49E-03,2.14E-02
137567,6.49E-03,2.16E-02
137568,6.49E-03,2.18E-02
137569,6.49E-03,2.20E-02
137570,6.49E-03,2.22E-02
137571,6.49E-03,2.24E-02
137572,6.48E-03,2.27E-02
137573,6.48E-03,2.29E-02
137574,6.48E-03,2.31E-02
137575,6.48E-03,2.34E-02
137576,6.48E-03,2.37E-02
137577,6.48E-03,2.40E-02
137578,6.48E-03,2.44E-02
137579,6.48E-03,2.48E-02
137580,6.48E-03,2.52E-02
137581,6.48E-03,2.58E-02
137582,6.48E-03,2.63E-02
137583,6.53E-03,1.17E-02
137584,6.53E-03,1.19E-02
137585,6.53E-03,1.21E-02
137586,6.52E-03,1.23E-02
137587,6.52E-03,1.25E-02
137588,6.52E-03,1.27E-02
137589,6.52E-03,1.28E-02
137590,6.52E-03,1.30E-02
137591,6.52E-03,1.32E-02
137592,6.52E-03,1.34E-02
137593,6.52E-03,1.36E-02
137594,6.52E-03,1.38E-02
137595,6.52E-03,1.40E-02
137596,6.52E-03,1.42E-02
137597,6.52E-03,1.43E-02
137598,6.52E-03,1.45E-02
137599,6.52E-03,1.47E-02
137600,6.51E-03,1.49E-02
137601,6.51E-03,1.51E-02
137602,6.51E-03,1.53E-02
137603,6.51E-03,1.55E-02
137604,6.51E-03,1.56E-02
137605,6.51E-03,1.58E-02
137606,6.51E-03,1.60E-02
137607,6.51E-03,1.62E-02
137608,6.51E-03,1.64E-02
137609,6.51E-03,1.66E-02
137610,6.51E-03,1.67E-02
137611,6.51E-03,1.69E-02
137612,6.51E-03,1.71E-02
137613,6.51E-03,1.73E-02
137614,6.50E-03,1.75E-02
137615,6.50E-03,1.77E-02
137616,6.50E-03,1.79E-02
137617,6.50E-03,1.80E-02
137618,6.50E-03,1.82E-02
137619,6.50E-03,1.84E-02
137620,6.50E-03,1.86E-02
137621,6.50E-03,1.88E-02
137622,6.50E-03,1.90E-02
137623,6.50E-03,1.92E-02
137624,6.50E-03,1.94E-02
137625,6.50E-03,1.96E-02
137626,6.50E-03,1.97E-02
137627,6.50E-03,1.99E-02
137628,6.49E-03,2.01E-02
137629,6.49E-03,2.03E-02
137630,6.49E-03,2.05E-02
137631,6.49E-03,2.07E-02
137632,6.49E-03,2.09E-02
137633,6.49E-03,2.11E-02
137634,6.49E-03,2.13E-02
137635,6.49E-03,2.15E-02
137636,6.49E-03,2.17E-02
137637,6.49E-03,2.19E-02
137638,6.49E-03,2.21E-02
137639,6.49E-03,2.23E-02
137640,6.49E-03,2.25E-02
137641,6.48E-03,2.27E-02
137642,6.48E-03,2.29E-02
137643,6.48E-03,2.31E-02
137644,6.48E-03,2.34E-02
137645,6.48E-03,2.37E-02
137646,6.48E-03,2.40E-02
137647,6.48E-03,2.43E-02
137648,6.48E-03,2.47E-02
137649,6.48E-03,2.52E-02
137650,6.48E-03,2.57E-02
137651,6.48E-03,2.62E-02
137652,6.53E-03,1.17E-02
137653,6.53E-03,1.19E-02
137654,6.53E-03,1.21E-02
137655,6.52E-03,1.23E-02
137656,6.52E-03,1.25E-02
137657,6.52E-03,1.27E-02
137658,6.52E-03,1.28E-02
137659,6.52E-03,1.30E-02
137660,6.52E-03,1.32E-02
137661,6.52E-03,1.34E-02
137662,6.52E-03,1.36E-02
137663,6.52E-03,1.38E-02
137664,6.52E-03,1.40E-02
137665,6.52E-03,1.42E-02
137666,6.52E-03,1.43E-02
137667,6.52E-03,1.45E-02
137668,6.52E-03,1.47E-02
137669,6.51E-03,1.49E-02
137670,6.51E-03,1.51E-02
137671,6.51E-03,1.53E-02
137672,6.51E-03,1.55E-02
137673,6.51E-03,1.56E-02
137674,6.51E-03,1.58E-02
137675,6.51E-03,1.60E-02
137676,6.51E-03,1.62E-02
137677,6.51E-03,1.64E-02
137678,6.51E-03,1.66E-02
137679,6.51E-03,1.68E-02
137680,6.51E-03,1.69E-02
137681,6.51E-03,1.71E-02
137682,6.51E-03,1.73E-02
137683,6.50E-03,1.75E-02
137684,6.50E-03,1.77E-02
137685,6.50E-03,1.79E-02
137686,6.50E-03,1.81E-02
137687,6.50E-03,1.82E-02
137688,6.50E-03,1.84E-02
137689,6.50E-03,1.86E-02
137690,6.50E-03,1.88E-02
137691,6.50E-03,1.90E-02
137692,6.50E-03,1.92E-02
137693,6.50E-03,1.94E-02
137694,6.50E-03,1.96E-02
137695,6.50E-03,1.98E-02
137696,6.50E-03,1.99E-02
137697,6.49E-03,2.01E-02
137698,6.49E-03,2.03E-02
137699,6.49E-03,2.05E-02
137700,6.49E-03,2.07E-02
137701,6.49E-03,2.09E-02
137702,6.49E-03,2.11E-02
137703,6.49E-03,2.13E-02
137704,6.49E-03,2.15E-02
137705,6.49E-03,2.17E-02
137706,6.49E-03,2.19E-02
137707,6.49E-03,2.21E-02
137708,6.49E-03,2.23E-02
137709,6.49E-03,2.25E-02
137710,6.48E-03,2.27E-02
137711,6.48E-03,2.29E-02
137712,6.48E-03,2.32E-02
137713,6.48E-03,2.34E-02
137714,6.48E-03,2.37E-02
137715,6.48E-03,2.40E-02
137716,6.48E-03,2.43E-02
137717,6.48E-03,2.47E-02
137718,6.48E-03,2.51E-02
137719,6.48E-03,2.56E-02
137720,6.48E-03,2.61E-02
137721,6.53E-03,1.17E-02
137722,6.53E-03,1.19E-02
137723,6.53E-03,1.21E-02
137724,6.52E-03,1.23E-02
137725,6.52E-03,1.25E-02
137726,6.52E-03,1.27E-02
137727,6.52E-03,1.29E-02
137728,6.52E-03,1.30E-02
137729,6.52E-03,1.32E-02
137730,6.52E-03,1.34E-02
137731,6.52E-03,1.36E-02
137732,6.52E-03,1.38E-02
137733,6.52E-03,1.40E-02
137734,6.52E-03,1.42E-02
137735,6.52E-03,1.44E-02
137736,6.52E-03,1.45E-02
137737,6.52E-03,1.47E-02
137738,6.51E-03,1.49E-02
137739,6.51E-03,1.51E-02
137740,6.51E-03,1.53E-02
137741,6.51E-03,1.55E-02
137742,6.51E-03,1.56E-02
137743,6.51E-03,1.58E-02
137744,6.51E-03,1.60E-02
137745,6.51E-03,1.62E-02
137746,6.51E-03,1.64E-02
137747,6.51E-03,1.66E-02
137748,6.51E-03,1.68E-02
137749,6.51E-03,1.69E-02
137750,6.51E-03,1.71E-02
137751,6.51E-03,1.73E-02
137752,6.50E-03,1.75E-02
137753,6.50E-03,1.77E-02
137754,6.50E-03,1.79E-02
137755,6.50E-03,1.81E-02
137756,6.50E-03,1.82E-02
137757,6.50E-03,1.84E-02
137758,6.50E-03,1.86E-02
137759,6.50E-03,1.88E-02
137760,6.50E-03,1.90E-02
137761,6.50E-03,1.92E-02
137762,6.50E-03,1.94E-02
137763,6.50E-03,1.96E-02
137764,6.50E-03,1.98E-02
137765,6.50E-03,2.00E-02
137766,6.49E-03,2.01E-02
137767,6.49E-03,2.03E-02
137768,6.49E-03,2.05E-02
137769,6.49E-03,2.07E-02
137770,6.49E-03,2.09E-02
137771,6.49E-03,2.11E-02
137772,6.49E-03,2.13E-02
137773,6.49E-03,2.15E-02
137774,6.49E-03,2.17E-02
137775,6.49E-03,2.19E-02
137776,6.49E-03,2.21E-02
137777,6.49E-03,2.23E-02
137778,6.49E-03,2.25E-02
137779,6.48E-03,2.27E-02
137780,6.48E-03,2.30E-02
137781,6.48E-03,2.32E-02
137782,6.48E-03,2.34E-02
137783,6.48E-03,2.37E-02
137784,6.48E-03,2.40E-02
137785,6.48E-03,2.43E-02
137786,6.48E-03,2.46E-02
137787,6.48E-03,2.50E-02
137788,6.48E-03,2.55E-02
137789,6.48E-03,2.60E-02
137790,6.53E-03,1.17E-02
137791,6.53E-03,1.19E-02
137792,6.53E-03,1.21E-02
137793,6.52E-03,1.23E-02
137794,6.52E-03,1.25E-02
137795,6.52E-03,1.27E-02
137796,6.52E-03,1.29E-02
137797,6.52E-03,1.31E-02
137798,6.52E-03,1.32E-02
137799,6.52E-03,1.34E-02
137800,6.52E-03,1.36E-02
137801,6.52E-03,1.38E-02
137802,6.52E-03,1.40E-02
137803,6.52E-03,1.42E-02
137804,6.52E-03,1.44E-02
137805,6.52E-03,1.45E-02
137806,6.52E-03,1.47E-02
137807,6.51E-03,1.49E-02
137808,6.51E-03,1.51E-02
137809,6.51E-03,1.53E-02
137810,6.51E-03,1.55E-02
137811,6.51E-03,1.57E-02
137812,6.51E-03,1.58E-02
137813,6.51E-03,1.60E-02
137814,6.51E-03,1.62E-02
137815,6.51E-03,1.64E-02
137816,6.51E-03,1.66E-02
137817,6.51E-03,1.68E-02
137818,6.51E-03,1.69E-02
137819,6.51E-03,1.71E-02
137820,6.51E-03,1.73E-02
137821,6.50E-03,1.75E-02
137822,6.50E-03,1.77E-02
137823,6.50E-03,1.79E-02
137824,6.50E-03,1.81E-02
137825,6.50E-03,1.82E-02
137826,6.50E-03,1.84E-02
137827,6.50E-03,1.86E-02
137828,6.50E-03,1.88E-02
137829,6.50E-03,1.90E-02
137830,6.50E-03,1.92E-02
137831,6.50E-03,1.94E-02
137832,6.50E-03,1.96E-02
137833,6.50E-03,1.98E-02
137834,6.50E-03,2.00E-02
137835,6.49E-03,2.02E-02
137836,6.49E-03,2.04E-02
137837,6.49E-03,2.05E-02
137838,6.49E-03,2.07E-02
137839,6.49E-03,2.09E-02
137840,6.49E-03,2.11E-02
137841,6.49E-03,2.13E-02
137842,6.49E-03,2.15E-02
137843,6.49E-03,2.17E-02
137844,6.49E-03,2.19E-02
137845,6.49E-03,2.22E-02
137846,6.49E-03,2.24E-02
137847,6.49E-03,2.26E-02
137848,6.48E-03,2.28E-02
137849,6.48E-03,2.30E-02
137850,6.48E-03,2.32E-02
137851,6.48E-03,2.34E-02
137852,6.48E-03,2.37E-02
137853,6.48E-03,2.40E-02
137854,6.48E-03,2.42E-02
137855,6.48E-03,2.46E-02
137856,6.48E-03,2.49E-02
137857,6.48E-03,2.53E-02
137858,6.48E-03,2.58E-02
137859,6.53E-03,1.17E-02
137860,6.53E-03,1.19E-02
137861,6.53E-03,1.21E-02
137862,6.52E-03,1.23E-02
137863,6.52E-03,1.25E-02
137864,6.52E-03,1.27E-02
137865,6.52E-03,1.29E-02
137866,6.52E-03,1.31E-02
137867,6.52E-03,1.33E-02
137868,6.52E-03,1.34E-02
137869,6.52E-03,1.36E-02
137870,6.52E-03,1.38E-02
137871,6.52E-03,1.40E-02
137872,6.52E-03,1.42E-02
137873,6.52E-03,1.44E-02
137874,6.52E-03,1.46E-02
137875,6.52E-03,1.47E-02
137876,6.51E-03,1.49E-02
137877,6.51E-03,1.51E-02
137878,6.51E-03,1.53E-02
137879,6.51E-03,1.55E-02
137880,6.51E-03,1.57E-02
137881,6.51E-03,1.58E-02
137882,6.51E-03,1.60E-02
137883,6.51E-03,1.62E-02
137884,6.51E-03,1.64E-02
137885,6.51E-03,1.66E-02
137886,6.51E-03,1.68E-02
137887,6.51E-03,1.69E-02
137888,6.51E-03,1.71E-02
137889,6.51E-03,1.73E-02
137890,6.50E-03,1.75E-02
137891,6.50E-03,1.77E-02
137892,6.50E-03,1.79E-02
137893,6.50E-03,1.81E-02
137894,6.50E-03,1.82E-02
137895,6.50E-03,1.84E-02
137896,6.50E-03,1.86E-02
137897,6.50E-03,1.88E-02
137898,6.50E-03,1.90E-02
137899,6.50E-03,1.92E-02
137900,6.50E-03,1.94E-02
137901,6.50E-03,1.96E-02
137902,6.50E-03,1.98E-02
137903,6.50E-03,2.00E-02
137904,6.49E-03,2.02E-02
137905,6.49E-03,2.04E-02
137906,6.49E-03,2.06E-02
137907,6.49E-03,2.08E-02
137908,6.49E-03,2.10E-02
137909,6.49E-03,2.12E-02
137910,6.49E-03,2.14E-02
137911,6.49E-03,2.16E-02
137912,6.49E-03,2.18E-02
137913,6.49E-03,2.20E-02
137914,6.49E-03,2.22E-02
137915,6.49E-03,2.24E-02
137916,6.49E-03,2.26E-02
137917,6.48E-03,2.28E-02
137918,6.48E-03,2.30E-02
137919,6.48E-03,2.32E-02
137920,6.48E-03,2.35E-02
137921,6.48E-03,2.37E-02
137922,6.48E-03,2.39E-02
137923,6.48E-03,2.42E-02
137924,6.48E-03,2.45E-02
137925,6.48E-03,2.48E-02
137926,6.48E-03,2.52E-02
137927,6.48E-03,2.56E-02
137928,6.53E-03,1.18E-02
137929,6.53E-03,1.19E-02
137930,6.53E-03,1.21E-02
137931,6.52E-03,1.23E-02
137932,6.52E-03,1.25E-02
137933,6.52E-03,1.27E-02
137934,6.52E-03,1.29E-02
137935,6.52E-03,1.31E-02
137936,6.52E-03,1.33E-02
137937,6.52E-03,1.35E-02
137938,6.52E-03,1.36E-02
137939,6.52E-03,1.38E-02
137940,6.52E-03,1.40E-02
137941,6.52E-03,1.42E-02
137942,6.52E-03,1.44E-02
137943,6.52E-03,1.46E-02
137944,6.52E-03,1.47E-02
137945,6.51E-03,1.49E-02
137946,6.51E-03,1.51E-02
137947,6.51E-03,1.53E-02
137948,6.51E-03,1.55E-02
137949,6.51E-03,1.57E-02
137950,6.51E-03,1.58E-02
137951,6.51E-03,1.60E-02
137952,6.51E-03,1.62E-02
137953,6.51E-03,1.64E-02
137954,6.51E-03,1.66E-02
137955,6.51E-03,1.68E-02
137956,6.51E-03,1.69E-02
137957,6.51E-03,1.71E-02
137958,6.51E-03,1.73E-02
137959,6.50E-03,1.75E-02
137960,6.50E-03,1.77E-02
137961,6.50E-03,1.79E-02
137962,6.50E-03,1.81E-02
137963,6.50E-03,1.83E-02
137964,6.50E-03,1.84E-02
137965,6.50E-03,1.86E-02
137966,6.50E-03,1.88E-02
137967,6.50E-03,1.90E-02
137968,6.50E-03,1.92E-02
137969,6.50E-03,1.94E-02
137970,6.50E-03,1.96E-02
137971,6.50E-03,1.98E-02
137972,6.50E-03,2.00E-02
137973,6.49E-03,2.02E-02
137974,6.49E-03,2.04E-02
137975,6.49E-03,2.06E-02
137976,6.49E-03,2.08E-02
137977,6.49E-03,2.10E-02
137978,6.49E-03,2.12E-02
137979,6.49E-03,2.14E-02
137980,6.49E-03,2.16E-02
137981,6.49E-03,2.18E-02
137982,6.49E-03,2.20E-02
137983,6.49E-03,2.22E-02
137984,6.49E-03,2.24E-02
137985,6.49E-03,2.26E-02
137986,6.48E-03,2.29E-02
137987,6.48E-03,2.31E-02
137988,6.48E-03,2.33E-02
137989,6.48E-03,2.35E-02
137990,6.48E-03,2.37E-02
137991,6.48E-03,2.39E-02
137992,6.48E-03,2.42E-02
137993,6.48E-03,2.44E-02
137994,6.48E-03,2.47E-02
137995,6.48E-03,2.50E-02
137996,6.48E-03,2.54E-02
137997,6.53E-03,1.18E-02
137998,6.53E-03,1.20E-02
137999,6.53E-03,1.21E-02
138000,6.52E-03,1.23E-02
138001,6.52E-03,1.25E-02
138002,6.52E-03,1.27E-02
138003,6.52E-03,1.29E-02
138004,6.52E-03,1.31E-02
138005,6.52E-03,1.33E-02
138006,6.52E-03,1.35E-02
138007,6.52E-03,1.36E-02
138008,6.52E-03,1.38E-02
138009,6.52E-03,1.40E-02
138010,6.52E-03,1.42E-02
138011,6.52E-03,1.44E-02
138012,6.52E-03,1.46E-02
138013,6.52E-03,1.48E-02
138014,6.51E-03,1.49E-02
138015,6.51E-03,1.51E-02
138016,6.51E-03,1.53E-02
138017,6.51E-03,1.55E-02
138018,6.51E-03,1.57E-02
138019,6.51E-03,1.58E-02
138020,6.51E-03,1.60E-02
138021,6.51E-03,1.62E-02
138022,6.51E-03,1.64E-02
138023,6.51E-03,1.66E-02
138024,6.51E-03,1.68E-02
138025,6.51E-03,1.70E-02
138026,6.51E-03,1.71E-02
138027,6.51E-03,1.73E-02
138028,6.50E-03,1.75E-02
138029,6.50E-03,1.77E-02
138030,6.50E-03,1.79E-02
138031,6.50E-03,1.81E-02
138032,6.50E-03,1.83E-02
138033,6.50E-03,1.84E-02
138034,6.50E-03,1.86E-02
138035,6.50E-03,1.88E-02
138036,6.50E-03,1.90E-02
138037,6.50E-03,1.92E-02
138038,6.50E-03,1.94E-02
138039,6.50E-03,1.96E-02
138040,6.50E-03,1.98E-02
138041,6.50E-03,2.00E-02
138042,6.49E-03,2.02E-02
138043,6.49E-03,2.04E-02
138044,6.49E-03,2.06E-02
138045,6.49E-03,2.08E-02
138046,6.49E-03,2.10E-02
138047,6.49E-03,2.12E-02
138048,6.49E-03,2.14E-02
138049,6.49E-03,2.16E-02
138050,6.49E-03,2.18E-02
138051,6.49E-03,2.21E-02
138052,6.49E-03,2.23E-02
138053,6.49E-03,2.25E-02
138054,6.49E-03,2.27E-02
138055,6.48E-03,2.29E-02
138056,6.48E-03,2.31E-02
138057,6.48E-03,2.33E-02
138058,6.48E-03,2.35E-02
138059,6.48E-03,2.37E-02
138060,6.48E-03,2.39E-02
138061,6.48E-03,2.41E-02
138062,6.48E-03,2.43E-02
138063,6.48E-03,2.46E-02
138064,6.48E-03,2.48E-02
138065,6.48E-03,2.52E-02
138066,6.53E-03,1.18E-02
138067,6.53E-03,1.20E-02
138068,6.53E-03,1.22E-02
138069,6.52E-03,1.23E-02
138070,6.52E-03,1.25E-02
138071,6.52E-03,1.27E-02
138072,6.52E-03,1.29E-02
138073,6.52E-03,1.31E-02
138074,6.52E-03,1.33E-02
138075,6.52E-03,1.35E-02
138076,6.52E-03,1.37E-02
138077,6.52E-03,1.38E-02
138078,6.52E-03,1.40E-02
138079,6.52E-03,1.42E-02
138080,6.52E-03,1.44E-02
138081,6.52E-03,1.46E-02
138082,6.52E-03,1.48E-02
138083,6.51E-03,1.49E-02
138084,6.51E-03,1.51E-02
138085,6.51E-03,1.53E-02
138086,6.51E-03,1.55E-02
138087,6.51E-03,1.57E-02
138088,6.51E-03,1.59E-02
138089,6.51E-03,1.60E-02
138090,6.51E-03,1.62E-02
138091,6.51E-03,1.64E-02
138092,6.51E-03,1.66E-02
138093,6.51E-03,1.68E-02
138094,6.51E-03,1.70E-02
138095,6.51E-03,1.71E-02
138096,6.51E-03,1.73E-02
138097,6.50E-03,1.75E-02
138098,6.50E-03,1.77E-02
138099,6.50E-03,1.79E-02
138100,6.50E-03,1.81E-02
138101,6.50E-03,1.83E-02
138102,6.50E-03,1.84E-02
138103,6.50E-03,1.86E-02
138104,6.50E-03,1.88E-02
138105,6.50E-03,1.90E-02
138106,6.50E-03,1.92E-02
138107,6.50E-03,1.94E-02
138108,6.50E-03,1.96E-02
138109,6.50E-03,1.98E-02
138110,6.50E-03,2.00E-02
138111,6.49E-03,2.02E-02
138112,6.49E-03,2.04E-02
138113,6.49E-03,2.06E-02
138114,6.49E-03,2.08E-02
138115,6.49E-03,2.10E-02
138116,6.49E-03,2.12E-02
138117,6.49E-03,2.15E-02
138118,6.49E-03,2.17E-02
138119,6.49E-03,2.19E-02
138120,6.49E-03,2.21E-02
138121,6.49E-03,2.23E-02
138122,6.49E-03,2.25E-02
138123,6.49E-03,2.27E-02
138124,6.48E-03,2.29E-02
138125,6.48E-03,2.32E-02
138126,6.48E-03,2.34E-02
138127,6.48E-03,2.35E-02
138128,6.48E-03,2.37E-02
138129,6.48E-03,2.39E-02
138130,6.48E-03,2.41E-02
138131,6.48E-03,2.42E-02
138132,6.48E-03,2.44E-02
138133,6.48E-03,2.46E-02
138134,6.48E-03,2.49E-02
138135,6.53E-03,1.18E-02
138136,6.53E-03,1.20E-02
138137,6.53E-03,1.22E-02
138138,6.52E-03,1.24E-02
138139,6.52E-03,1.25E-02
138140,6.52E-03,1.27E-02
138141,6.52E-03,1.29E-02
138142,6.52E-03,1.31E-02
138143,6.52E-03,1.33E-02
138144,6.52E-03,1.35E-02
138145,6.52E-03,1.37E-02
138146,6.52E-03,1.38E-02
138147,6.52E-03,1.40E-02
138148,6.52E-03,1.42E-02
138149,6.52E-03,1.44E-02
138150,6.52E-03,1.46E-02
138151,6.52E-03,1.48E-02
138152,6.51E-03,1.49E-02
138153,6.51E-03,1.51E-02
138154,6.51E-03,1.53E-02
138155,6.51E-03,1.55E-02
138156,6.51E-03,1.57E-02
138157,6.51E-03,1.59E-02
138158,6.51E-03,1.60E-02
138159,6.51E-03,1.62E-02
138160,6.51E-03,1.64E-02
138161,6.51E-03,1.66E-02
138162,6.51E-03,1.68E-02
138163,6.51E-03,1.70E-02
138164,6.51E-03,1.71E-02
138165,6.51E-03,1.73E-02
138166,6.50E-03,1.75E-02
138167,6.50E-03,1.77E-02
138168,6.50E-03,1.79E-02
138169,6.50E-03,1.81E-02
138170,6.50E-03,1.83E-02
138171,6.50E-03,1.84E-02
138172,6.50E-03,1.86E-02
138173,6.50E-03,1.88E-02
138174,6.50E-03,1.90E-02
138175,6.50E-03,1.92E-02
138176,6.50E-03,1.94E-02
138177,6.50E-03,1.96E-02
138178,6.50E-03,1.98E-02
138179,6.50E-03,2.00E-02
138180,6.49E-03,2.02E-02
138181,6.49E-03,2.04E-02
138182,6.49E-03,2.06E-02
138183,6.49E-03,2.08E-02
138184,6.49E-03,2.10E-02
138185,6.49E-03,2.13E-02
138186,6.49E-03,2.15E-02
138187,6.49E-03,2.17E-02
138188,6.49E-03,2.19E-02
138189,6.49E-03,2.21E-02
138190,6.49E-03,2.24E-02
138191,6.49E-03,2.26E-02
138192,6.49E-03,2.28E-02
138193,6.48E-03,2.30E-02
138194,6.48E-03,2.32E-02
138195,6.48E-03,2.34E-02
138196,6.48E-03,2.36E-02
138197,6.48E-03,2.38E-02
138198,6.48E-03,2.39E-02
138199,6.48E-03,2.40E-02
138200,6.48E-03,2.42E-02
138201,6.48E-03,2.43E-02
138202,6.48E-03,2.45E-02
138203,6.48E-03,2.47E-02
138204,6.53E-03,1.18E-02
138205,6.53E-03,1.20E-02
138206,6.53E-03,1.22E-02
138207,6.52E-03,1.24E-02
138208,6.52E-03,1.26E-02
138209,6.52E-03,1.27E-02
138210,6.52E-03,1.29E-02
138211,6.52E-03,1.31E-02
138212,6.52E-03,1.33E-02
138213,6.52E-03,1.35E-02
138214,6.52E-03,1.37E-02
138215,6.52E-03,1.39E-02
138216,6.52E-03,1.40E-02
138217,6.52E-03,1.42E-02
138218,6.52E-03,1.44E-02
138219,6.52E-03,1.46E-02
138220,6.52E-03,1.48E-02
138221,6.51E-03,1.50E-02
138222,6.51E-03,1.51E-02
138223,6.51E-03,1.53E-02
138224,6.51E-03,1.55E-02
138225,6.51E-03,1.57E-02
138226,6.51E-03,1.59E-02
138227,6.51E-03,1.60E-02
138228,6.51E-03,1.62E-02
138229,6.51E-03,1.64E-02
138230,6.51E-03,1.66E-02
138231,6.51E-03,1.68E-02
138232,6.51E-03,1.70E-02
138233,6.51E-03,1.71E-02
138234,6.51E-03,1.73E-02
138235,6.50E-03,1.75E-02
138236,6.50E-03,1.77E-02
138237,6.50E-03,1.79E-02
138238,6.50E-03,1.81E-02
138239,6.50E-03,1.83E-02
138240,6.50E-03,1.85E-02
138241,6.50E-03,1.86E-02
138242,6.50E-03,1.88E-02
138243,6.50E-03,1.90E-02
138244,6.50E-03,1.92E-02
138245,6.50E-03,1.94E-02
138246,6.50E-03,1.96E-02
138247,6.50E-03,1.98E-02
138248,6.50E-03,2.00E-02
138249,6.49E-03,2.02E-02
138250,6.49E-03,2.04E-02
138251,6.49E-03,2.06E-02
138252,6.49E-03,2.08E-02
138253,6.49E-03,2.11E-02
138254,6.49E-03,2.13E-02
138255,6.49E-03,2.15E-02
138256,6.49E-03,2.17E-02
138257,6.49E-03,2.19E-02
138258,6.49E-03,2.22E-02
138259,6.49E-03,2.24E-02
138260,6.49E-03,2.26E-02
138261,6.49E-03,2.28E-02
138262,6.48E-03,2.30E-02
138263,6.48E-03,2.33E-02
138264,6.48E-03,2.35E-02
138265,6.48E-03,2.36E-02
138266,6.48E-03,2.38E-02
138267,6.48E-03,2.39E-02
138268,6.48E-03,2.40E-02
138269,6.48E-03,2.41E-02
138270,6.48E-03,2.42E-02
138271,6.48E-03,2.43E-02
138272,6.48E-03,2.44E-02
138273,6.53E-03,1.18E-02
138274,6.53E-03,1.20E-02
138275,6.53E-03,1.22E-02
138276,6.52E-03,1.24E-02
138277,6.52E-03,1.26E-02
138278,6.52E-03,1.28E-02
138279,6.52E-03,1.29E-02
138280,6.52E-03,1.31E-02
138281,6.52E-03,1.33E-02
138282,6.52E-03,1.35E-02
138283,6.52E-03,1.37E-02
138284,6.52E-03,1.39E-02
138285,6.52E-03,1.41E-02
138286,6.52E-03,1.42E-02
138287,6.52E-03,1.44E-02
138288,6.52E-03,1.46E-02
138289,6.52E-03,1.48E-02
138290,6.51E-03,1.50E-02
138291,6.51E-03,1.51E-02
138292,6.51E-03,1.53E-02
138293,6.51E-03,1.55E-02
138294,6.51E-03,1.57E-02
138295,6.51E-03,1.59E-02
138296,6.51E-03,1.61E-02
138297,6.51E-03,1.62E-02
138298,6.51E-03,1.64E-02
138299,6.51E-03,1.66E-02
138300,6.51E-03,1.68E-02
138301,6.51E-03,1.70E-02
138302,6.51E-03,1.71E-02
138303,6.51E-03,1.73E-02
138304,6.50E-03,1.75E-02
138305,6.50E-03,1.77E-02
138306,6.50E-03,1.79E-02
138307,6.50E-03,1.81E-02
138308,6.50E-03,1.83E-02
138309,6.50E-03,1.85E-02
138310,6.50E-03,1.86E-02
138311,6.50E-03,1.88E-02
138312,6.50E-03,1.90E-02
138313,6.50E-03,1.92E-02
138314,6.50E-03,1.94E-02
138315,6.50E-03,1.96E-02
138316,6.50E-03,1.98E-02
138317,6.50E-03,2.00E-02
138318,6.49E-03,2.02E-02
138319,6.49E-03,2.04E-02
138320,6.49E-03,2.06E-02
138321,6.49E-03,2.09E-02
138322,6.49E-03,2.11E-02
138323,6.49E-03,2.13E-02
138324,6.49E-03,2.15E-02
138325,6.49E-03,2.17E-02
138326,6.49E-03,2.20E-02
138327,6.49E-03,2.22E-02
138328,6.49E-03,2.24E-02
138329,6.49E-03,2.27E-02
138330,6.49E-03,2.29E-02
138331,6.48E-03,2.31E-02
138332,6.48E-03,2.33E-02
138333,6.48E-03,2.35E-02
138334,6.48E-03,2.37E-02
138335,6.48E-03,2.38E-02
138336,6.48E-03,2.40E-02
138337,6.48E-03,2.41E-02
138338,6.48E-03,2.41E-02
138339,6.48E-03,2.41E-02
138340,6.48E-03,2.41E-02
138341,6.48E-03,2.41E-02
138342,6.53E-03,1.18E-02
138343,6.53E-03,1.20E-02
138344,6.53E-03,1.22E-02
138345,6.52E-03,1.24E-02
138346,6.52E-03,1.26E-02
138347,6.52E-03,1.28E-02
138348,6.52E-03,1.30E-02
138349,6.52E-03,1.31E-02
138350,6.52E-03,1.33E-02
138351,6.52E-03,1.35E-02
138352,6.52E-03,1.37E-02
138353,6.52E-03,1.39E-02
138354,6.52E-03,1.41E-02
138355,6.52E-03,1.42E-02
138356,6.52E-03,1.44E-02
138357,6.52E-03,1.46E-02
138358,6.52E-03,1.48E-02
138359,6.51E-03,1.50E-02
138360,6.51E-03,1.52E-02
138361,6.51E-03,1.53E-02
138362,6.51E-03,1.55E-02
138363,6.51E-03,1.57E-02
138364,6.51E-03,1.59E-02
138365,6.51E-03,1.61E-02
138366,6.51E-03,1.62E-02
138367,6.51E-03,1.64E-02
138368,6.51E-03,1.66E-02
138369,6.51E-03,1.68E-02
138370,6.51E-03,1.70E-02
138371,6.51E-03,1.71E-02
138372,6.51E-03,1.73E-02
138373,6.50E-03,1.75E-02
138374,6.50E-03,1.77E-02
138375,6.50E-03,1.79E-02
138376,6.50E-03,1.81E-02
138377,6.50E-03,1.83E-02
138378,6.50E-03,1.85E-02
138379,6.50E-03,1.86E-02
138380,6.50E-03,1.88E-02
138381,6.50E-03,1.90E-02
138382,6.50E-03,1.92E-02
138383,6.50E-03,1.94E-02
138384,6.50E-03,1.96E-02
138385,6.50E-03,1.98E-02
138386,6.50E-03,2.00E-02
138387,6.49E-03,2.02E-02
138388,6.49E-03,2.04E-02
138389,6.49E-03,2.07E-02
138390,6.49E-03,2.09E-02
138391,6.49E-03,2.11E-02
138392,6.49E-03,2.13E-02
138393,6.49E-03,2.15E-02
138394,6.49E-03,2.18E-02
138395,6.49E-03,2.20E-02
138396,6.49E-03,2.22E-02
138397,6.49E-03,2.25E-02
138398,6.49E-03,2.27E-02
138399,6.49E-03,2.29E-02
138400,6.48E-03,2.31E-02
138401,6.48E-03,2.34E-02
138402,6.48E-03,2.36E-02
138403,6.48E-03,2.37E-02
138404,6.48E-03,2.39E-02
138405,6.48E-03,2.40E-02
138406,6.48E-03,2.41E-02
138407,6.48E-03,2.41E-02
138408,6.48E-03,2.41E-02
138409,6.48E-03,2.40E-02
138410,6.48E-03,2.39E-02
138411,6.53E-03,1.18E-02
138412,6.53E-03,1.20E-02
138413,6.53E-03,1.22E-02
138414,6.52E-03,1.24E-02
138415,6.52E-03,1.26E-02
138416,6.52E-03,1.28E-02
138417,6.52E-03,1.30E-02
138418,6.52E-03,1.32E-02
138419,6.52E-03,1.33E-02
138420,6.52E-03,1.35E-02
138421,6.52E-03,1.37E-02
138422,6.52E-03,1.39E-02
138423,6.52E-03,1.41E-02
138424,6.52E-03,1.43E-02
138425,6.52E-03,1.44E-02
138426,6.52E-03,1.46E-02
138427,6.52E-03,1.48E-02
138428,6.51E-03,1.50E-02
138429,6.51E-03,1.52E-02
138430,6.51E-03,1.53E-02
138431,6.51E-03,1.55E-02
138432,6.51E-03,1.57E-02
138433,6.51E-03,1.59E-02
138434,6.51E-03,1.61E-02
138435,6.51E-03,1.62E-02
138436,6.51E-03,1.64E-02
138437,6.51E-03,1.66E-02
138438,6.51E-03,1.68E-02
138439,6.51E-03,1.70E-02
138440,6.51E-03,1.72E-02
138441,6.51E-03,1.73E-02
138442,6.50E-03,1.75E-02
138443,6.50E-03,1.77E-02
138444,6.50E-03,1.79E-02
138445,6.50E-03,1.81E-02
138446,6.50E-03,1.83E-02
138447,6.50E-03,1.85E-02
138448,6.50E-03,1.86E-02
138449,6.50E-03,1.88E-02
138450,6.50E-03,1.90E-02
138451,6.50E-03,1.92E-02
138452,6.50E-03,1.94E-02
138453,6.50E-03,1.96E-02
138454,6.50E-03,1.98E-02
138455,6.50E-03,2.00E-02
138456,6.49E-03,2.02E-02
138457,6.49E-03,2.04E-02
138458,6.49E-03,2.07E-02
138459,6.49E-03,2.09E-02
138460,6.49E-03,2.11E-02
138461,6.49E-03,2.13E-02
138462,6.49E-03,2.15E-02
138463,6.49E-03,2.18E-02
138464,6.49E-03,2.20E-02
138465,6.49E-03,2.22E-02
138466,6.49E-03,2.25E-02
138467,6.49E-03,2.27E-02
138468,6.49E-03,2.29E-02
138469,6.48E-03,2.32E-02
138470,6.48E-03,2.34E-02
138471,6.48E-03,2.36E-02
138472,6.48E-03,2.38E-02
138473,6.48E-03,2.40E-02
138474,6.48E-03,2.41E-02
138475,6.48E-03,2.42E-02
138476,6.48E-03,2.42E-02
138477,6.48E-03,2.41E-02
138478,6.48E-03,2.40E-02
138479,6.48E-03,2.38E-02
138480,6.53E-03,1.19E-02
138481,6.53E-03,1.21E-02
138482,6.53E-03,1.22E-02
138483,6.52E-03,1.24E-02
138484,6.52E-03,1.26E-02
138485,6.52E-03,1.28E-02
138486,6.52E-03,1.30E-02
138487,6.52E-03,1.32E-02
138488,6.52E-03,1.33E-02
138489,6.52E-03,1.35E-02
138490,6.52E-03,1.37E-02
138491,6.52E-03,1.39E-02
138492,6.52E-03,1.41E-02
138493,6.52E-03,1.43E-02
138494,6.52E-03,1.44E-02
138495,6.52E-03,1.46E-02
138496,6.52E-03,1.48E-02
138497,6.51E-03,1.50E-02
138498,6.51E-03,1.52E-02
138499,6.51E-03,1.53E-02
138500,6.51E-03,1.55E-02
138501,6.51E-03,1.57E-02
138502,6.51E-03,1.59E-02
138503,6.51E-03,1.61E-02
138504,6.51E-03,1.62E-02
138505,6.51E-03,1.64E-02
138506,6.51E-03,1.66E-02
138507,6.51E-03,1.68E-02
138508,6.51E-03,1.70E-02
138509,6.51E-03,1.72E-02
138510,6.51E-03,1.73E-02
138511,6.50E-03,1.75E-02
138512,6.50E-03,1.77E-02
138513,6.50E-03,1.79E-02
138514,6.50E-03,1.81E-02
138515,6.50E-03,1.83E-02
138516,6.50E-03,1.85E-02
138517,6.50E-03,1.86E-02
138518,6.50E-03,1.88E-02
138519,6.50E-03,1.90E-02
138520,6.50E-03,1.92E-02
138521,6.50E-03,1.94E-02
138522,6.50E-03,1.96E-02
138523,6.50E-03,1.98E-02
138524,6.50E-03,2.00E-02
138525,6.49E-03,2.02E-02
138526,6.49E-03,2.04E-02
138527,6.49E-03,2.07E-02
138528,6.49E-03,2.09E-02
138529,6.49E-03,2.11E-02
138530,6.49E-03,2.13E-02
138531,6.49E-03,2.15E-02
138532,6.49E-03,2.18E-02
138533,6.49E-03,2.20E-02
138534,6.49E-03,2.23E-02
138535,6.49E-03,2.25E-02
138536,6.49E-03,2.27E-02
138537,6.49E-03,2.30E-02
138538,6.48E-03,2.32E-02
138539,6.48E-03,2.34E-02
138540,6.48E-03,2.37E-02
138541,6.48E-03,2.39E-02
138542,6.48E-03,2.40E-02
138543,6.48E-03,2.42E-02
138544,6.48E-03,2.43E-02
138545,6.48E-03,2.43E-02
138546,6.48E-03,2.42E-02
138547,6.48E-03,2.40E-02
138548,6.48E-03,2.37E-02
138549,6.53E-03,1.19E-02
138550,6.53E-03,1.21E-02
138551,6.53E-03,1.23E-02
138552,6.52E-03,1.24E-02
138553,6.52E-03,1.26E-02
138554,6.52E-03,1.28E-02
138555,6.52E-03,1.30E-02
138556,6.52E-03,1.32E-02
138557,6.52E-03,1.34E-02
138558,6.52E-03,1.35E-02
138559,6.52E-03,1.37E-02
138560,6.52E-03,1.39E-02
138561,6.52E-03,1.41E-02
138562,6.52E-03,1.43E-02
138563,6.52E-03,1.45E-02
138564,6.52E-03,1.46E-02
138565,6.52E-03,1.48E-02
138566,6.51E-03,1.50E-02
138567,6.51E-03,1.52E-02
138568,6.51E-03,1.54E-02
138569,6.51E-03,1.55E-02
138570,6.51E-03,1.57E-02
138571,6.51E-03,1.59E-02
138572,6.51E-03,1.61E-02
138573,6.51E-03,1.62E-02
138574,6.51E-03,1.64E-02
138575,6.51E-03,1.66E-02
138576,6.51E-03,1.68E-02
138577,6.51E-03,1.70E-02
138578,6.51E-03,1.72E-02
138579,6.51E-03,1.73E-02
138580,6.50E-03,1.75E-02
138581,6.50E-03,1.77E-02
138582,6.50E-03,1.79E-02
138583,6.50E-03,1.81E-02
138584,6.50E-03,1.83E-02
138585,6.50E-03,1.85E-02
138586,6.50E-03,1.86E-02
138587,6.50E-03,1.88E-02
138588,6.50E-03,1.90E-02
138589,6.50E-03,1.92E-02
138590,6.50E-03,1.94E-02
138591,6.50E-03,1.96E-02
138592,6.50E-03,1.98E-02
138593,6.50E-03,2.00E-02
138594,6.49E-03,2.02E-02
138595,6.49E-03,2.04E-02
138596,6.49E-03,2.07E-02
138597,6.49E-03,2.09E-02
138598,6.49E-03,2.11E-02
138599,6.49E-03,2.13E-02
138600,6.49E-03,2.15E-02
138601,6.49E-03,2.18E-02
138602,6.49E-03,2.20E-02
138603,6.49E-03,2.23E-02
138604,6.49E-03,2.25E-02
138605,6.49E-03,2.27E-02
138606,6.49E-03,2.30E-02
138607,6.48E-03,2.32E-02
138608,6.48E-03,2.35E-02
138609,6.48E-03,2.37E-02
138610,6.48E-03,2.39E-02
138611,6.48E-03,2.41E-02
138612,6.48E-03,2.42E-02
138613,6.48E-03,2.43E-02
138614,6.48E-03,2.44E-02
138615,6.48E-03,2.43E-02
138616,6.48E-03,2.41E-02
138617,6.48E-03,2.37E-02
138618,6.53E-03,1.19E-02
138619,6.53E-03,1.21E-02
138620,6.53E-03,1.23E-02
138621,6.52E-03,1.25E-02
138622,6.52E-03,1.26E-02
138623,6.52E-03,1.28E-02
138624,6.52E-03,1.30E-02
138625,6.52E-03,1.32E-02
138626,6.52E-03,1.34E-02
138627,6.52E-03,1.36E-02
138628,6.52E-03,1.37E-02
138629,6.52E-03,1.39E-02
138630,6.52E-03,1.41E-02
138631,6.52E-03,1.43E-02
138632,6.52E-03,1.45E-02
138633,6.52E-03,1.46E-02
138634,6.52E-03,1.48E-02
138635,6.51E-03,1.50E-02
138636,6.51E-03,1.52E-02
138637,6.51E-03,1.54E-02
138638,6.51E-03,1.55E-02
138639,6.51E-03,1.57E-02
138640,6.51E-03,1.59E-02
138641,6.51E-03,1.61E-02
138642,6.51E-03,1.63E-02
138643,6.51E-03,1.64E-02
138644,6.51E-03,1.66E-02
138645,6.51E-03,1.68E-02
138646,6.51E-03,1.70E-02
138647,6.51E-03,1.72E-02
138648,6.51E-03,1.73E-02
138649,6.50E-03,1.75E-02
138650,6.50E-03,1.77E-02
138651,6.50E-03,1.79E-02
138652,6.50E-03,1.81E-02
138653,6.50E-03,1.83E-02
138654,6.50E-03,1.84E-02
138655,6.50E-03,1.86E-02
138656,6.50E-03,1.88E-02
138657,6.50E-03,1.90E-02
138658,6.50E-03,1.92E-02
138659,6.50E-03,1.94E-02
138660,6.50E-03,1.96E-02
138661,6.50E-03,1.98E-02
138662,6.50E-03,2.00E-02
138663,6.49E-03,2.02E-02
138664,6.49E-03,2.04E-02
138665,6.49E-03,2.06E-02
138666,6.49E-03,2.09E-02
138667,6.49E-03,2.11E-02
138668,6.49E-03,2.13E-02
138669,6.49E-03,2.15E-02
138670,6.49E-03,2.18E-02
138671,6.49E-03,2.20E-02
138672,6.49E-03,2.23E-02
138673,6.49E-03,2.25E-02
138674,6.49E-03,2.27E-02
138675,6.49E-03,2.30E-02
138676,6.48E-03,2.32E-02
138677,6.48E-03,2.35E-02
138678,6.48E-03,2.37E-02
138679,6.48E-03,2.39E-02
138680,6.48E-03,2.41E-02
138681,6.48E-03,2.43E-02
138682,6.48E-03,2.44E-02
138683,6.48E-03,2.44E-02
138684,6.48E-03,2.44E-02
138685,6.48E-03,2.42E-02
138686,6.48E-03,2.38E-02
138687,6.53E-03,1.19E-02
138688,6.53E-03,1.21E-02
138689,6.53E-03,1.23E-02
138690,6.52E-03,1.25E-02
138691,6.52E-03,1.27E-02
138692,6.52E-03,1.28E-02
138693,6.52E-03,1.30E-02
138694,6.52E-03,1.32E-02
138695,6.52E-03,1.34E-02
138696,6.52E-03,1.36E-02
138697,6.52E-03,1.37E-02
138698,6.52E-03,1.39E-02
138699,6.52E-03,1.41E-02
138700,6.52E-03,1.43E-02
138701,6.52E-03,1.45E-02
138702,6.52E-03,1.46E-02
138703,6.52E-03,1.48E-02
138704,6.51E-03,1.50E-02
138705,6.51E-03,1.52E-02
138706,6.51E-03,1.54E-02
138707,6.51E-03,1.55E-02
138708,6.51E-03,1.57E-02
138709,6.51E-03,1.59E-02
138710,6.51E-03,1.61E-02
138711,6.51E-03,1.63E-02
138712,6.51E-03,1.64E-02
138713,6.51E-03,1.66E-02
138714,6.51E-03,1.68E-02
138715,6.51E-03,1.70E-02
138716,6.51E-03,1.72E-02
138717,6.51E-03,1.73E-02
138718,6.50E-03,1.75E-02
138719,6.50E-03,1.77E-02
138720,6.50E-03,1.79E-02
138721,6.50E-03,1.81E-02
138722,6.50E-03,1.83E-02
138723,6.50E-03,1.84E-02
138724,6.50E-03,1.86E-02
138725,6.50E-03,1.88E-02
138726,6.50E-03,1.90E-02
138727,6.50E-03,1.92E-02
138728,6.50E-03,1.94E-02
138729,6.50E-03,1.96E-02
138730,6.50E-03,1.98E-02
138731,6.50E-03,2.00E-02
138732,6.49E-03,2.02E-02
138733,6.49E-03,2.04E-02
138734,6.49E-03,2.06E-02
138735,6.49E-03,2.09E-02
138736,6.49E-03,2.11E-02
138737,6.49E-03,2.13E-02
138738,6.49E-03,2.15E-02
138739,6.49E-03,2.18E-02
138740,6.49E-03,2.20E-02
138741,6.49E-03,2.22E-02
138742,6.49E-03,2.25E-02
138743,6.49E-03,2.27E-02
138744,6.49E-03,2.30E-02
138745,6.48E-03,2.32E-02
138746,6.48E-03,2.35E-02
138747,6.48E-03,2.37E-02
138748,6.48E-03,2.40E-02
138749,6.48E-03,2.42E-02
138750,6.48E-03,2.43E-02
138751,6.48E-03,2.45E-02
138752,6.48E-03,2.45E-02
138753,6.48E-03,2.45E-02
138754,6.48E-03,2.43E-02
138755,6.48E-03,2.39E-02
138756,6.53E-03,1.19E-02
138757,6.53E-03,1.21E-02
138758,6.53E-03,1.23E-02
138759,6.52E-03,1.25E-02
138760,6.52E-03,1.27E-02
138761,6.52E-03,1.29E-02
138762,6.52E-03,1.30E-02
138763,6.52E-03,1.32E-02
138764,6.52E-03,1.34E-02
138765,6.52E-03,1.36E-02
138766,6.52E-03,1.38E-02
138767,6.52E-03,1.39E-02
138768,6.52E-03,1.41E-02
138769,6.52E-03,1.43E-02
138770,6.52E-03,1.45E-02
138771,6.52E-03,1.47E-02
138772,6.52E-03,1.48E-02
138773,6.51E-03,1.50E-02
138774,6.51E-03,1.52E-02
138775,6.51E-03,1.54E-02
138776,6.51E-03,1.55E-02
138777,6.51E-03,1.57E-02
138778,6.51E-03,1.59E-02
138779,6.51E-03,1.61E-02
138780,6.51E-03,1.63E-02
138781,6.51E-03,1.64E-02
138782,6.51E-03,1.66E-02
138783,6.51E-03,1.68E-02
138784,6.51E-03,1.70E-02
138785,6.51E-03,1.72E-02
138786,6.51E-03,1.73E-02
138787,6.50E-03,1.75E-02
138788,6.50E-03,1.77E-02
138789,6.50E-03,1.79E-02
138790,6.50E-03,1.81E-02
138791,6.50E-03,1.83E-02
138792,6.50E-03,1.84E-02
138793,6.50E-03,1.86E-02
138794,6.50E-03,1.88E-02
138795,6.50E-03,1.90E-02
138796,6.50E-03,1.92E-02
138797,6.50E-03,1.94E-02
138798,6.50E-03,1.96E-02
138799,6.50E-03,1.98E-02
138800,6.50E-03,2.00E-02
138801,6.49E-03,2.02E-02
138802,6.49E-03,2.04E-02
138803,6.49E-03,2.06E-02
138804,6.49E-03,2.08E-02
138805,6.49E-03,2.11E-02
138806,6.49E-03,2.13E-02
138807,6.49E-03,2.15E-02
138808,6.49E-03,2.17E-02
138809,6.49E-03,2.20E-02
138810,6.49E-03,2.22E-02
138811,6.49E-03,2.25E-02
138812,6.49E-03,2.27E-02
138813,6.49E-03,2.30E-02
138814,6.48E-03,2.32E-02
138815,6.48E-03,2.35E-02
138816,6.48E-03,2.37E-02
138817,6.48E-03,2.40E-02
138818,6.48E-03,2.42E-02
138819,6.48E-03,2.44E-02
138820,6.48E-03,2.45E-02
138821,6.48E-03,2.46E-02
138822,6.48E-03,2.45E-02
138823,6.48E-03,2.44E-02
138824,6.48E-03,2.40E-02
138825,6.53E-03,1.19E-02
138826,6.53E-03,1.21E-02
138827,6.53E-03,1.23E-02
138828,6.52E-03,1.25E-02
138829,6.52E-03,1.27E-02
138830,6.52E-03,1.29E-02
138831,6.52E-03,1.31E-02
138832,6.52E-03,1.32E-02
138833,6.52E-03,1.34E-02
138834,6.52E-03,1.36E-02
138835,6.52E-03,1.38E-02
138836,6.52E-03,1.40E-02
138837,6.52E-03,1.41E-02
138838,6.52E-03,1.43E-02
138839,6.52E-03,1.45E-02
138840,6.52E-03,1.47E-02
138841,6.52E-03,1.48E-02
138842,6.51E-03,1.50E-02
138843,6.51E-03,1.52E-02
138844,6.51E-03,1.54E-02
138845,6.51E-03,1.56E-02
138846,6.51E-03,1.57E-02
138847,6.51E-03,1.59E-02
138848,6.51E-03,1.61E-02
138849,6.51E-03,1.63E-02
138850,6.51E-03,1.64E-02
138851,6.51E-03,1.66E-02
138852,6.51E-03,1.68E-02
138853,6.51E-03,1.70E-02
138854,6.51E-03,1.72E-02
138855,6.51E-03,1.73E-02
138856,6.50E-03,1.75E-02
138857,6.50E-03,1.77E-02
138858,6.50E-03,1.79E-02
138859,6.50E-03,1.81E-02
138860,6.50E-03,1.83E-02
138861,6.50E-03,1.84E-02
138862,6.50E-03,1.86E-02
138863,6.50E-03,1.88E-02
138864,6.50E-03,1.90E-02
138865,6.50E-03,1.92E-02
138866,6.50E-03,1.94E-02
138867,6.50E-03,1.96E-02
138868,6.50E-03,1.98E-02
138869,6.50E-03,2.00E-02
138870,6.49E-03,2.02E-02
138871,6.49E-03,2.04E-02
138872,6.49E-03,2.06E-02
138873,6.49E-03,2.08E-02
138874,6.49E-03,2.10E-02
138875,6.49E-03,2.13E-02
138876,6.49E-03,2.15E-02
138877,6.49E-03,2.17E-02
138878,6.49E-03,2.19E-02
138879,6.49E-03,2.22E-02
138880,6.49E-03,2.24E-02
138881,6.49E-03,2.27E-02
138882,6.49E-03,2.29E-02
138883,6.48E-03,2.32E-02
138884,6.48E-03,2.34E-02
138885,6.48E-03,2.37E-02
138886,6.48E-03,2.39E-02
138887,6.48E-03,2.42E-02
138888,6.48E-03,2.44E-02
138889,6.48E-03,2.45E-02
138890,6.48E-03,2.46E-02
138891,6.48E-03,2.46E-02
138892,6.48E-03,2.44E-02
138893,6.48E-03,2.40E-02
138894,6.53E-03,1.20E-02
138895,6.53E-03,1.22E-02
138896,6.53E-03,1.23E-02
138897,6.52E-03,1.25E-02
138898,6.52E-03,1.27E-02
138899,6.52E-03,1.29E-02
138900,6.52E-03,1.31E-02
138901,6.52E-03,1.32E-02
138902,6.52E-03,1.34E-02
138903,6.52E-03,1.36E-02
138904,6.52E-03,1.38E-02
138905,6.52E-03,1.40E-02
138906,6.52E-03,1.41E-02
138907,6.52E-03,1.43E-02
138908,6.52E-03,1.45E-02
138909,6.52E-03,1.47E-02
138910,6.52E-03,1.49E-02
138911,6.51E-03,1.50E-02
138912,6.51E-03,1.52E-02
138913,6.51E-03,1.54E-02
138914,6.51E-03,1.56E-02
138915,6.51E-03,1.57E-02
138916,6.51E-03,1.59E-02
138917,6.51E-03,1.61E-02
138918,6.51E-03,1.63E-02
138919,6.51E-03,1.64E-02
138920,6.51E-03,1.66E-02
138921,6.51E-03,1.68E-02
138922,6.51E-03,1.70E-02
138923,6.51E-03,1.72E-02
138924,6.51E-03,1.73E-02
138925,6.50E-03,1.75E-02
138926,6.50E-03,1.77E-02
138927,6.50E-03,1.79E-02
138928,6.50E-03,1.81E-02
138929,6.50E-03,1.82E-02
138930,6.50E-03,1.84E-02
138931,6.50E-03,1.86E-02
138932,6.50E-03,1.88E-02
138933,6.50E-03,1.90E-02
138934,6.50E-03,1.92E-02
138935,6.50E-03,1.94E-02
138936,6.50E-03,1.96E-02
138937,6.50E-03,1.98E-02
138938,6.50E-03,2.00E-02
138939,6.49E-03,2.02E-02
138940,6.49E-03,2.04E-02
138941,6.49E-03,2.06E-02
138942,6.49E-03,2.08E-02
138943,6.49E-03,2.10E-02
138944,6.49E-03,2.12E-02
138945,6.49E-03,2.14E-02
138946,6.49E-03,2.17E-02
138947,6.49E-03,2.19E-02
138948,6.49E-03,2.21E-02
138949,6.49E-03,2.24E-02
138950,6.49E-03,2.26E-02
138951,6.49E-03,2.29E-02
138952,6.48E-03,2.31E-02
138953,6.48E-03,2.34E-02
138954,6.48E-03,2.36E-02
138955,6.48E-03,2.39E-02
138956,6.48E-03,2.41E-02
138957,6.48E-03,2.43E-02
138958,6.48E-03,2.45E-02
138959,6.48E-03,2.46E-02
138960,6.48E-03,2.46E-02
138961,6.48E-03,2.44E-02
138962,6.48E-03,2.40E-02
138963,6.53E-03,1.20E-02
138964,6.53E-03,1.22E-02
138965,6.53E-03,1.24E-02
138966,6.52E-03,1.25E-02
138967,6.52E-03,1.27E-02
138968,6.52E-03,1.29E-02
138969,6.52E-03,1.31E-02
138970,6.52E-03,1.33E-02
138971,6.52E-03,1.34E-02
138972,6.52E-03,1.36E-02
138973,6.52E-03,1.38E-02
138974,6.52E-03,1.40E-02
138975,6.52E-03,1.42E-02
138976,6.52E-03,1.43E-02
138977,6.52E-03,1.45E-02
138978,6.52E-03,1.47E-02
138979,6.52E-03,1.49E-02
138980,6.51E-03,1.50E-02
138981,6.51E-03,1.52E-02
138982,6.51E-03,1.54E-02
138983,6.51E-03,1.56E-02
138984,6.51E-03,1.57E-02
138985,6.51E-03,1.59E-02
138986,6.51E-03,1.61E-02
138987,6.51E-03,1.63E-02
138988,6.51E-03,1.65E-02
138989,6.51E-03,1.66E-02
138990,6.51E-03,1.68E-02
138991,6.51E-03,1.70E-02
138992,6.51E-03,1.72E-02
138993,6.51E-03,1.73E-02
138994,6.50E-03,1.75E-02
138995,6.50E-03,1.77E-02
138996,6.50E-03,1.79E-02
138997,6.50E-03,1.81E-02
138998,6.50E-03,1.82E-02
138999,6.50E-03,1.84E-02
139000,6.50E-03,1.86E-02
139001,6.50E-03,1.88E-02
139002,6.50E-03,1.90E-02
139003,6.50E-03,1.92E-02
139004,6.50E-03,1.94E-02
139005,6.50E-03,1.96E-02
139006,6.50E-03,1.98E-02
139007,6.50E-03,1.99E-02
139008,6.49E-03,2.01E-02
139009,6.49E-03,2.04E-02
139010,6.49E-03,2.06E-02
139011,6.49E-03,2.08E-02
139012,6.49E-03,2.10E-02
139013,6.49E-03,2.12E-02
139014,6.49E-03,2.14E-02
139015,6.49E-03,2.16E-02
139016,6.49E-03,2.18E-02
139017,6.49E-03,2.21E-02
139018,6.49E-03,2.23E-02
139019,6.49E-03,2.26E-02
139020,6.49E-03,2.28E-02
139021,6.48E-03,2.30E-02
139022,6.48E-03,2.33E-02
139023,6.48E-03,2.35E-02
139024,6.48E-03,2.38E-02
139025,6.48E-03,2.40E-02
139026,6.48E-03,2.42E-02
139027,6.48E-03,2.44E-02
139028,6.48E-03,2.45E-02
139029,6.48E-03,2.45E-02
139030,6.48E-03,2.43E-02
139031,6.48E-03,2.39E-02
139032,6.53E-03,1.20E-02
139033,6.53E-03,1.22E-02
139034,6.53E-03,1.24E-02
139035,6.52E-03,1.26E-02
139036,6.52E-03,1.27E-02
139037,6.52E-03,1.29E-02
139038,6.52E-03,1.31E-02
139039,6.52E-03,1.33E-02
139040,6.52E-03,1.35E-02
139041,6.52E-03,1.36E-02
139042,6.52E-03,1.38E-02
139043,6.52E-03,1.40E-02
139044,6.52E-03,1.42E-02
139045,6.52E-03,1.43E-02
139046,6.52E-03,1.45E-02
139047,6.52E-03,1.47E-02
139048,6.52E-03,1.49E-02
139049,6.51E-03,1.50E-02
139050,6.51E-03,1.52E-02
139051,6.51E-03,1.54E-02
139052,6.51E-03,1.56E-02
139053,6.51E-03,1.58E-02
139054,6.51E-03,1.59E-02
139055,6.51E-03,1.61E-02
139056,6.51E-03,1.63E-02
139057,6.51E-03,1.65E-02
139058,6.51E-03,1.66E-02
139059,6.51E-03,1.68E-02
139060,6.51E-03,1.70E-02
139061,6.51E-03,1.72E-02
139062,6.51E-03,1.73E-02
139063,6.50E-03,1.75E-02
139064,6.50E-03,1.77E-02
139065,6.50E-03,1.79E-02
139066,6.50E-03,1.81E-02
139067,6.50E-03,1.82E-02
139068,6.50E-03,1.84E-02
139069,6.50E-03,1.86E-02
139070,6.50E-03,1.88E-02
139071,6.50E-03,1.90E-02
139072,6.50E-03,1.92E-02
139073,6.50E-03,1.94E-02
139074,6.50E-03,1.95E-02
139075,6.50E-03,1.97E-02
139076,6.50E-03,1.99E-02
139077,6.49E-03,2.01E-02
139078,6.49E-03,2.03E-02
139079,6.49E-03,2.05E-02
139080,6.49E-03,2.07E-02
139081,6.49E-03,2.09E-02
139082,6.49E-03,2.11E-02
139083,6.49E-03,2.14E-02
139084,6.49E-03,2.16E-02
139085,6.49E-03,2.18E-02
139086,6.49E-03,2.20E-02
139087,6.49E-03,2.22E-02
139088,6.49E-03,2.25E-02
139089,6.49E-03,2.27E-02
139090,6.48E-03,2.30E-02
139091,6.48E-03,2.32E-02
139092,6.48E-03,2.35E-02
139093,6.48E-03,2.37E-02
139094,6.48E-03,2.39E-02
139095,6.48E-03,2.41E-02
139096,6.48E-03,2.43E-02
139097,6.48E-03,2.44E-02
139098,6.48E-03,2.44E-02
139099,6.48E-03,2.42E-02
139100,6.48E-03,2.39E-02
139101,6.53E-03,1.20E-02
139102,6.53E-03,1.22E-02
139103,6.53E-03,1.24E-02
139104,6.52E-03,1.26E-02
139105,6.52E-03,1.28E-02
139106,6.52E-03,1.29E-02
139107,6.52E-03,1.31E-02
139108,6.52E-03,1.33E-02
139109,6.52E-03,1.35E-02
139110,6.52E-03,1.37E-02
139111,6.52E-03,1.38E-02
139112,6.52E-03,1.40E-02
139113,6.52E-03,1.42E-02
139114,6.52E-03,1.44E-02
139115,6.52E-03,1.45E-02
139116,6.52E-03,1.47E-02
139117,6.52E-03,1.49E-02
139118,6.51E-03,1.51E-02
139119,6.51E-03,1.52E-02
139120,6.51E-03,1.54E-02
139121,6.51E-03,1.56E-02
139122,6.51E-03,1.58E-02
139123,6.51E-03,1.59E-02
139124,6.51E-03,1.61E-02
139125,6.51E-03,1.63E-02
139126,6.51E-03,1.65E-02
139127,6.51E-03,1.66E-02
139128,6.51E-03,1.68E-02
139129,6.51E-03,1.70E-02
139130,6.51E-03,1.72E-02
139131,6.51E-03,1.73E-02
139132,6.50E-03,1.75E-02
139133,6.50E-03,1.77E-02
139134,6.50E-03,1.79E-02
139135,6.50E-03,1.81E-02
139136,6.50E-03,1.82E-02
139137,6.50E-03,1.84E-02
139138,6.50E-03,1.86E-02
139139,6.50E-03,1.88E-02
139140,6.50E-03,1.90E-02
139141,6.50E-03,1.92E-02
139142,6.50E-03,1.93E-02
139143,6.50E-03,1.95E-02
139144,6.50E-03,1.97E-02
139145,6.50E-03,1.99E-02
139146,6.49E-03,2.01E-02
139147,6.49E-03,2.03E-02
139148,6.49E-03,2.05E-02
139149,6.49E-03,2.07E-02
139150,6.49E-03,2.09E-02
139151,6.49E-03,2.11E-02
139152,6.49E-03,2.13E-02
139153,6.49E-03,2.15E-02
139154,6.49E-03,2.17E-02
139155,6.49E-03,2.20E-02
139156,6.49E-03,2.22E-02
139157,6.49E-03,2.24E-02
139158,6.49E-03,2.26E-02
139159,6.48E-03,2.29E-02
139160,6.48E-03,2.31E-02
139161,6.48E-03,2.33E-02
139162,6.48E-03,2.36E-02
139163,6.48E-03,2.38E-02
139164,6.48E-03,2.40E-02
139165,6.48E-03,2.42E-02
139166,6.48E-03,2.43E-02
139167,6.48E-03,2.43E-02
139168,6.48E-03,2.42E-02
139169,6.48E-03,2.39E-02
139170,6.53E-03,1.21E-02
139171,6.53E-03,1.22E-02
139172,6.53E-03,1.24E-02
139173,6.52E-03,1.26E-02
139174,6.52E-03,1.28E-02
139175,6.52E-03,1.30E-02
139176,6.52E-03,1.31E-02
139177,6.52E-03,1.33E-02
139178,6.52E-03,1.35E-02
139179,6.52E-03,1.37E-02
139180,6.52E-03,1.38E-02
139181,6.52E-03,1.40E-02
139182,6.52E-03,1.42E-02
139183,6.52E-03,1.44E-02
139184,6.52E-03,1.45E-02
139185,6.52E-03,1.47E-02
139186,6.52E-03,1.49E-02
139187,6.51E-03,1.51E-02
139188,6.51E-03,1.52E-02
139189,6.51E-03,1.54E-02
139190,6.51E-03,1.56E-02
139191,6.51E-03,1.58E-02
139192,6.51E-03,1.59E-02
139193,6.51E-03,1.61E-02
139194,6.51E-03,1.63E-02
139195,6.51E-03,1.65E-02
139196,6.51E-03,1.66E-02
139197,6.51E-03,1.68E-02
139198,6.51E-03,1.70E-02
139199,6.51E-03,1.72E-02
139200,6.51E-03,1.73E-02
139201,6.50E-03,1.75E-02
139202,6.50E-03,1.77E-02
139203,6.50E-03,1.79E-02
139204,6.50E-03,1.80E-02
139205,6.50E-03,1.82E-02
139206,6.50E-03,1.84E-02
139207,6.50E-03,1.86E-02
139208,6.50E-03,1.88E-02
139209,6.50E-03,1.90E-02
139210,6.50E-03,1.91E-02
139211,6.50E-03,1.93E-02
139212,6.50E-03,1.95E-02
139213,6.50E-03,1.97E-02
139214,6.50E-03,1.99E-02
139215,6.49E-03,2.01E-02
139216,6.49E-03,2.03E-02
139217,6.49E-03,2.05E-02
139218,6.49E-03,2.07E-02
139219,6.49E-03,2.09E-02
139220,6.49E-03,2.11E-02
139221,6.49E-03,2.13E-02
139222,6.49E-03,2.15E-02
139223,6.49E-03,2.17E-02
139224,6.49E-03,2.19E-02
139225,6.49E-03,2.21E-02
139226,6.49E-03,2.23E-02
139227,6.49E-03,2.25E-02
139228,6.48E-03,2.28E-02
139229,6.48E-03,2.30E-02
139230,6.48E-03,2.32E-02
139231,6.48E-03,2.34E-02
139232,6.48E-03,2.37E-02
139233,6.48E-03,2.39E-02
139234,6.48E-03,2.40E-02
139235,6.48E-03,2.42E-02
139236,6.48E-03,2.42E-02
139237,6.48E-03,2.42E-02
139238,6.48E-03,2.39E-02
139239,6.53E-03,1.21E-02
139240,6.53E-03,1.23E-02
139241,6.53E-03,1.24E-02
139242,6.52E-03,1.26E-02
139243,6.52E-03,1.28E-02
139244,6.52E-03,1.30E-02
139245,6.52E-03,1.32E-02
139246,6.52E-03,1.33E-02
139247,6.52E-03,1.35E-02
139248,6.52E-03,1.37E-02
139249,6.52E-03,1.39E-02
139250,6.52E-03,1.40E-02
139251,6.52E-03,1.42E-02
139252,6.52E-03,1.44E-02
139253,6.52E-03,1.46E-02
139254,6.52E-03,1.47E-02
139255,6.52E-03,1.49E-02
139256,6.51E-03,1.51E-02
139257,6.51E-03,1.53E-02
139258,6.51E-03,1.54E-02
139259,6.51E-03,1.56E-02
139260,6.51E-03,1.58E-02
139261,6.51E-03,1.59E-02
139262,6.51E-03,1.61E-02
139263,6.51E-03,1.63E-02
139264,6.51E-03,1.65E-02
139265,6.51E-03,1.66E-02
139266,6.51E-03,1.68E-02
139267,6.51E-03,1.70E-02
139268,6.51E-03,1.72E-02
139269,6.51E-03,1.73E-02
139270,6.50E-03,1.75E-02
139271,6.50E-03,1.77E-02
139272,6.50E-03,1.79E-02
139273,6.50E-03,1.80E-02
139274,6.50E-03,1.82E-02
139275,6.50E-03,1.84E-02
139276,6.50E-03,1.86E-02
139277,6.50E-03,1.88E-02
139278,6.50E-03,1.89E-02
139279,6.50E-03,1.91E-02
139280,6.50E-03,1.93E-02
139281,6.50E-03,1.95E-02
139282,6.50E-03,1.97E-02
139283,6.50E-03,1.99E-02
139284,6.49E-03,2.01E-02
139285,6.49E-03,2.02E-02
139286,6.49E-03,2.04E-02
139287,6.49E-03,2.06E-02
139288,6.49E-03,2.08E-02
139289,6.49E-03,2.10E-02
139290,6.49E-03,2.12E-02
139291,6.49E-03,2.14E-02
139292,6.49E-03,2.16E-02
139293,6.49E-03,2.18E-02
139294,6.49E-03,2.20E-02
139295,6.49E-03,2.22E-02
139296,6.49E-03,2.24E-02
139297,6.48E-03,2.26E-02
139298,6.48E-03,2.28E-02
139299,6.48E-03,2.31E-02
139300,6.48E-03,2.33E-02
139301,6.48E-03,2.35E-02
139302,6.48E-03,2.37E-02
139303,6.48E-03,2.39E-02
139304,6.48E-03,2.41E-02
139305,6.48E-03,2.42E-02
139306,6.48E-03,2.42E-02
139307,6.48E-03,2.42E-02
139308,6.53E-03,1.21E-02
139309,6.53E-03,1.23E-02
139310,6.53E-03,1.25E-02
139311,6.52E-03,1.26E-02
139312,6.52E-03,1.28E-02
139313,6.52E-03,1.30E-02
139314,6.52E-03,1.32E-02
139315,6.52E-03,1.33E-02
139316,6.52E-03,1.35E-02
139317,6.52E-03,1.37E-02
139318,6.52E-03,1.39E-02
139319,6.52E-03,1.40E-02
139320,6.52E-03,1.42E-02
139321,6.52E-03,1.44E-02
139322,6.52E-03,1.46E-02
139323,6.52E-03,1.47E-02
139324,6.52E-03,1.49E-02
139325,6.51E-03,1.51E-02
139326,6.51E-03,1.53E-02
139327,6.51E-03,1.54E-02
139328,6.51E-03,1.56E-02
139329,6.51E-03,1.58E-02
139330,6.51E-03,1.60E-02
139331,6.51E-03,1.61E-02
139332,6.51E-03,1.63E-02
139333,6.51E-03,1.65E-02
139334,6.51E-03,1.66E-02
139335,6.51E-03,1.68E-02
139336,6.51E-03,1.70E-02
139337,6.51E-03,1.72E-02
139338,6.51E-03,1.73E-02
139339,6.50E-03,1.75E-02
139340,6.50E-03,1.77E-02
139341,6.50E-03,1.79E-02
139342,6.50E-03,1.80E-02
139343,6.50E-03,1.82E-02
139344,6.50E-03,1.84E-02
139345,6.50E-03,1.86E-02
139346,6.50E-03,1.88E-02
139347,6.50E-03,1.89E-02
139348,6.50E-03,1.91E-02
139349,6.50E-03,1.93E-02
139350,6.50E-03,1.95E-02
139351,6.50E-03,1.97E-02
139352,6.50E-03,1.98E-02
139353,6.49E-03,2.00E-02
139354,6.49E-03,2.02E-02
139355,6.49E-03,2.04E-02
139356,6.49E-03,2.06E-02
139357,6.49E-03,2.08E-02
139358,6.49E-03,2.10E-02
139359,6.49E-03,2.12E-02
139360,6.49E-03,2.14E-02
139361,6.49E-03,2.15E-02
139362,6.49E-03,2.17E-02
139363,6.49E-03,2.19E-02
139364,6.49E-03,2.21E-02
139365,6.49E-03,2.23E-02
139366,6.48E-03,2.25E-02
139367,6.48E-03,2.27E-02
139368,6.48E-03,2.29E-02
139369,6.48E-03,2.31E-02
139370,6.48E-03,2.34E-02
139371,6.48E-03,2.36E-02
139372,6.48E-03,2.38E-02
139373,6.48E-03,2.40E-02
139374,6.48E-03,2.42E-02
139375,6.48E-03,2.44E-02
139376,6.48E-03,2.46E-02
139377,6.53E-03,1.21E-02
139378,6.53E-03,1.23E-02
139379,6.53E-03,1.25E-02
139380,6.52E-03,1.27E-02
139381,6.52E-03,1.28E-02
139382,6.52E-03,1.30E-02
139383,6.52E-03,1.32E-02
139384,6.52E-03,1.34E-02
139385,6.52E-03,1.35E-02
139386,6.52E-03,1.37E-02
139387,6.52E-03,1.39E-02
139388,6.52E-03,1.41E-02
139389,6.52E-03,1.42E-02
139390,6.52E-03,1.44E-02
139391,6.52E-03,1.46E-02
139392,6.52E-03,1.48E-02
139393,6.52E-03,1.49E-02
139394,6.51E-03,1.51E-02
139395,6.51E-03,1.53E-02
139396,6.51E-03,1.54E-02
139397,6.51E-03,1.56E-02
139398,6.51E-03,1.58E-02
139399,6.51E-03,1.60E-02
139400,6.51E-03,1.61E-02
139401,6.51E-03,1.63E-02
139402,6.51E-03,1.65E-02
139403,6.51E-03,1.66E-02
139404,6.51E-03,1.68E-02
139405,6.51E-03,1.70E-02
139406,6.51E-03,1.72E-02
139407,6.51E-03,1.73E-02
139408,6.50E-03,1.75E-02
139409,6.50E-03,1.77E-02
139410,6.50E-03,1.79E-02
139411,6.50E-03,1.80E-02
139412,6.50E-03,1.82E-02
139413,6.50E-03,1.84E-02
139414,6.50E-03,1.86E-02
139415,6.50E-03,1.87E-02
139416,6.50E-03,1.89E-02
139417,6.50E-03,1.91E-02
139418,6.50E-03,1.93E-02
139419,6.50E-03,1.95E-02
139420,6.50E-03,1.96E-02
139421,6.50E-03,1.98E-02
139422,6.49E-03,2.00E-02
139423,6.49E-03,2.02E-02
139424,6.49E-03,2.04E-02
139425,6.49E-03,2.06E-02
139426,6.49E-03,2.07E-02
139427,6.49E-03,2.09E-02
139428,6.49E-03,2.11E-02
139429,6.49E-03,2.13E-02
139430,6.49E-03,2.15E-02
139431,6.49E-03,2.17E-02
139432,6.49E-03,2.18E-02
139433,6.49E-03,2.20E-02
139434,6.49E-03,2.22E-02
139435,6.48E-03,2.24E-02
139436,6.48E-03,2.26E-02
139437,6.48E-03,2.28E-02
139438,6.48E-03,2.30E-02
139439,6.48E-03,2.32E-02
139440,6.48E-03,2.34E-02
139441,6.48E-03,2.37E-02
139442,6.48E-03,2.39E-02
139443,6.48E-03,2.42E-02
139444,6.48E-03,2.46E-02
139445,6.48E-03,2.50E-02
139446,6.53E-03,1.22E-02
139447,6.53E-03,1.23E-02
139448,6.53E-03,1.25E-02
139449,6.52E-03,1.27E-02
139450,6.52E-03,1.29E-02
139451,6.52E-03,1.30E-02
139452,6.52E-03,1.32E-02
139453,6.52E-03,1.34E-02
139454,6.52E-03,1.36E-02
139455,6.52E-03,1.37E-02
139456,6.52E-03,1.39E-02
139457,6.52E-03,1.41E-02
139458,6.52E-03,1.42E-02
139459,6.52E-03,1.44E-02
139460,6.52E-03,1.46E-02
139461,6.52E-03,1.48E-02
139462,6.52E-03,1.49E-02
139463,6.51E-03,1.51E-02
139464,6.51E-03,1.53E-02
139465,6.51E-03,1.55E-02
139466,6.51E-03,1.56E-02
139467,6.51E-03,1.58E-02
139468,6.51E-03,1.60E-02
139469,6.51E-03,1.61E-02
139470,6.51E-03,1.63E-02
139471,6.51E-03,1.65E-02
139472,6.51E-03,1.66E-02
139473,6.51E-03,1.68E-02
139474,6.51E-03,1.70E-02
139475,6.51E-03,1.72E-02
139476,6.51E-03,1.73E-02
139477,6.50E-03,1.75E-02
139478,6.50E-03,1.77E-02
139479,6.50E-03,1.79E-02
139480,6.50E-03,1.80E-02
139481,6.50E-03,1.82E-02
139482,6.50E-03,1.84E-02
139483,6.50E-03,1.86E-02
139484,6.50E-03,1.87E-02
139485,6.50E-03,1.89E-02
139486,6.50E-03,1.91E-02
139487,6.50E-03,1.93E-02
139488,6.50E-03,1.94E-02
139489,6.50E-03,1.96E-02
139490,6.50E-03,1.98E-02
139491,6.49E-03,2.00E-02
139492,6.49E-03,2.02E-02
139493,6.49E-03,2.03E-02
139494,6.49E-03,2.05E-02
139495,6.49E-03,2.07E-02
139496,6.49E-03,2.09E-02
139497,6.49E-03,2.11E-02
139498,6.49E-03,2.12E-02
139499,6.49E-03,2.14E-02
139500,6.49E-03,2.16E-02
139501,6.49E-03,2.18E-02
139502,6.49E-03,2.20E-02
139503,6.49E-03,2.21E-02
139504,6.48E-03,2.23E-02
139505,6.48E-03,2.25E-02
139506,6.48E-03,2.27E-02
139507,6.48E-03,2.29E-02
139508,6.48E-03,2.31E-02
139509,6.48E-03,2.33E-02
139510,6.48E-03,2.36E-02
139511,6.48E-03,2.39E-02
139512,6.48E-03,2.43E-02
139513,6.48E-03,2.48E-02
139514,6.48E-03,2.55E-02
139515,6.53E-03,1.22E-02
139516,6.53E-03,1.24E-02
139517,6.53E-03,1.25E-02
139518,6.52E-03,1.27E-02
139519,6.52E-03,1.29E-02
139520,6.52E-03,1.31E-02
139521,6.52E-03,1.32E-02
139522,6.52E-03,1.34E-02
139523,6.52E-03,1.36E-02
139524,6.52E-03,1.37E-02
139525,6.52E-03,1.39E-02
139526,6.52E-03,1.41E-02
139527,6.52E-03,1.43E-02
139528,6.52E-03,1.44E-02
139529,6.52E-03,1.46E-02
139530,6.52E-03,1.48E-02
139531,6.52E-03,1.49E-02
139532,6.51E-03,1.51E-02
139533,6.51E-03,1.53E-02
139534,6.51E-03,1.55E-02
139535,6.51E-03,1.56E-02
139536,6.51E-03,1.58E-02
139537,6.51E-03,1.60E-02
139538,6.51E-03,1.61E-02
139539,6.51E-03,1.63E-02
139540,6.51E-03,1.65E-02
139541,6.51E-03,1.67E-02
139542,6.51E-03,1.68E-02
139543,6.51E-03,1.70E-02
139544,6.51E-03,1.72E-02
139545,6.51E-03,1.73E-02
139546,6.50E-03,1.75E-02
139547,6.50E-03,1.77E-02
139548,6.50E-03,1.79E-02
139549,6.50E-03,1.80E-02
139550,6.50E-03,1.82E-02
139551,6.50E-03,1.84E-02
139552,6.50E-03,1.85E-02
139553,6.50E-03,1.87E-02
139554,6.50E-03,1.89E-02
139555,6.50E-03,1.91E-02
139556,6.50E-03,1.92E-02
139557,6.50E-03,1.94E-02
139558,6.50E-03,1.96E-02
139559,6.50E-03,1.98E-02
139560,6.49E-03,2.00E-02
139561,6.49E-03,2.01E-02
139562,6.49E-03,2.03E-02
139563,6.49E-03,2.05E-02
139564,6.49E-03,2.07E-02
139565,6.49E-03,2.08E-02
139566,6.49E-03,2.10E-02
139567,6.49E-03,2.12E-02
139568,6.49E-03,2.14E-02
139569,6.49E-03,2.15E-02
139570,6.49E-03,2.17E-02
139571,6.49E-03,2.19E-02
139572,6.49E-03,2.20E-02
139573,6.48E-03,2.22E-02
139574,6.48E-03,2.24E-02
139575,6.48E-03,2.25E-02
139576,6.48E-03,2.27E-02
139577,6.48E-03,2.29E-02
139578,6.48E-03,2.32E-02
139579,6.48E-03,2.35E-02
139580,6.48E-03,2.39E-02
139581,6.48E-03,2.44E-02
139582,6.48E-03,2.51E-02
139583,6.48E-03,2.59E-02
139584,6.53E-03,1.22E-02
139585,6.53E-03,1.24E-02
139586,6.53E-03,1.26E-02
139587,6.52E-03,1.27E-02
139588,6.52E-03,1.29E-02
139589,6.52E-03,1.31E-02
139590,6.52E-03,1.32E-02
139591,6.52E-03,1.34E-02
139592,6.52E-03,1.36E-02
139593,6.52E-03,1.38E-02
139594,6.52E-03,1.39E-02
139595,6.52E-03,1.41E-02
139596,6.52E-03,1.43E-02
139597,6.52E-03,1.44E-02
139598,6.52E-03,1.46E-02
139599,6.52E-03,1.48E-02
139600,6.52E-03,1.50E-02
139601,6.51E-03,1.51E-02
139602,6.51E-03,1.53E-02
139603,6.51E-03,1.55E-02
139604,6.51E-03,1.56E-02
139605,6.51E-03,1.58E-02
139606,6.51E-03,1.60E-02
139607,6.51E-03,1.61E-02
139608,6.51E-03,1.63E-02
139609,6.51E-03,1.65E-02
139610,6.51E-03,1.67E-02
139611,6.51E-03,1.68E-02
139612,6.51E-03,1.70E-02
139613,6.51E-03,1.72E-02
139614,6.51E-03,1.73E-02
139615,6.50E-03,1.75E-02
139616,6.50E-03,1.77E-02
139617,6.50E-03,1.78E-02
139618,6.50E-03,1.80E-02
139619,6.50E-03,1.82E-02
139620,6.50E-03,1.84E-02
139621,6.50E-03,1.85E-02
139622,6.50E-03,1.87E-02
139623,6.50E-03,1.89E-02
139624,6.50E-03,1.91E-02
139625,6.50E-03,1.92E-02
139626,6.50E-03,1.94E-02
139627,6.50E-03,1.96E-02
139628,6.50E-03,1.98E-02
139629,6.49E-03,1.99E-02
139630,6.49E-03,2.01E-02
139631,6.49E-03,2.03E-02
139632,6.49E-03,2.05E-02
139633,6.49E-03,2.06E-02
139634,6.49E-03,2.08E-02
139635,6.49E-03,2.10E-02
139636,6.49E-03,2.11E-02
139637,6.49E-03,2.13E-02
139638,6.49E-03,2.15E-02
139639,6.49E-03,2.16E-02
139640,6.49E-03,2.18E-02
139641,6.49E-03,2.20E-02
139642,6.48E-03,2.21E-02
139643,6.48E-03,2.23E-02
139644,6.48E-03,2.25E-02
139645,6.48E-03,2.26E-02
139646,6.48E-03,2.28E-02
139647,6.48E-03,2.31E-02
139648,6.48E-03,2.34E-02
139649,6.48E-03,2.38E-02
139650,6.48E-03,2.44E-02
139651,6.48E-03,2.53E-02
139652,6.48E-03,2.63E-02
139653,6.53E-03,1.22E-02
139654,6.53E-03,1.24E-02
139655,6.53E-03,1.26E-02
139656,6.52E-03,1.28E-02
139657,6.52E-03,1.29E-02
139658,6.52E-03,1.31E-02
139659,6.52E-03,1.33E-02
139660,6.52E-03,1.34E-02
139661,6.52E-03,1.36E-02
139662,6.52E-03,1.38E-02
139663,6.52E-03,1.40E-02
139664,6.52E-03,1.41E-02
139665,6.52E-03,1.43E-02
139666,6.52E-03,1.45E-02
139667,6.52E-03,1.46E-02
139668,6.52E-03,1.48E-02
139669,6.52E-03,1.50E-02
139670,6.51E-03,1.51E-02
139671,6.51E-03,1.53E-02
139672,6.51E-03,1.55E-02
139673,6.51E-03,1.56E-02
139674,6.51E-03,1.58E-02
139675,6.51E-03,1.60E-02
139676,6.51E-03,1.62E-02
139677,6.51E-03,1.63E-02
139678,6.51E-03,1.65E-02
139679,6.51E-03,1.67E-02
139680,6.51E-03,1.68E-02
139681,6.51E-03,1.70E-02
139682,6.51E-03,1.72E-02
139683,6.51E-03,1.73E-02
139684,6.50E-03,1.75E-02
139685,6.50E-03,1.77E-02
139686,6.50E-03,1.78E-02
139687,6.50E-03,1.80E-02
139688,6.50E-03,1.82E-02
139689,6.50E-03,1.84E-02
139690,6.50E-03,1.85E-02
139691,6.50E-03,1.87E-02
139692,6.50E-03,1.89E-02
139693,6.50E-03,1.90E-02
139694,6.50E-03,1.92E-02
139695,6.50E-03,1.94E-02
139696,6.50E-03,1.96E-02
139697,6.50E-03,1.97E-02
139698,6.49E-03,1.99E-02
139699,6.49E-03,2.01E-02
139700,6.49E-03,2.03E-02
139701,6.49E-03,2.04E-02
139702,6.49E-03,2.06E-02
139703,6.49E-03,2.08E-02
139704,6.49E-03,2.09E-02
139705,6.49E-03,2.11E-02
139706,6.49E-03,2.13E-02
139707,6.49E-03,2.14E-02
139708,6.49E-03,2.16E-02
139709,6.49E-03,2.18E-02
139710,6.49E-03,2.19E-02
139711,6.48E-03,2.21E-02
139712,6.48E-03,2.22E-02
139713,6.48E-03,2.24E-02
139714,6.48E-03,2.26E-02
139715,6.48E-03,2.28E-02
139716,6.48E-03,2.30E-02
139717,6.48E-03,2.33E-02
139718,6.48E-03,2.38E-02
139719,6.48E-03,2.45E-02
139720,6.48E-03,2.54E-02
139721,6.48E-03,2.65E-02
139722,6.53E-03,1.23E-02
139723,6.53E-03,1.24E-02
139724,6.53E-03,1.26E-02
139725,6.52E-03,1.28E-02
139726,6.52E-03,1.29E-02
139727,6.52E-03,1.31E-02
139728,6.52E-03,1.33E-02
139729,6.52E-03,1.35E-02
139730,6.52E-03,1.36E-02
139731,6.52E-03,1.38E-02
139732,6.52E-03,1.40E-02
139733,6.52E-03,1.41E-02
139734,6.52E-03,1.43E-02
139735,6.52E-03,1.45E-02
139736,6.52E-03,1.46E-02
139737,6.52E-03,1.48E-02
139738,6.52E-03,1.50E-02
139739,6.51E-03,1.52E-02
139740,6.51E-03,1.53E-02
139741,6.51E-03,1.55E-02
139742,6.51E-03,1.57E-02
139743,6.51E-03,1.58E-02
139744,6.51E-03,1.60E-02
139745,6.51E-03,1.62E-02
139746,6.51E-03,1.63E-02
139747,6.51E-03,1.65E-02
139748,6.51E-03,1.67E-02
139749,6.51E-03,1.68E-02
139750,6.51E-03,1.70E-02
139751,6.51E-03,1.72E-02
139752,6.51E-03,1.73E-02
139753,6.50E-03,1.75E-02
139754,6.50E-03,1.77E-02
139755,6.50E-03,1.78E-02
139756,6.50E-03,1.80E-02
139757,6.50E-03,1.82E-02
139758,6.50E-03,1.84E-02
139759,6.50E-03,1.85E-02
139760,6.50E-03,1.87E-02
139761,6.50E-03,1.89E-02
139762,6.50E-03,1.90E-02
139763,6.50E-03,1.92E-02
139764,6.50E-03,1.94E-02
139765,6.50E-03,1.95E-02
139766,6.50E-03,1.97E-02
139767,6.49E-03,1.99E-02
139768,6.49E-03,2.01E-02
139769,6.49E-03,2.02E-02
139770,6.49E-03,2.04E-02
139771,6.49E-03,2.06E-02
139772,6.49E-03,2.07E-02
139773,6.49E-03,2.09E-02
139774,6.49E-03,2.11E-02
139775,6.49E-03,2.12E-02
139776,6.49E-03,2.14E-02
139777,6.49E-03,2.16E-02
139778,6.49E-03,2.17E-02
139779,6.49E-03,2.19E-02
139780,6.48E-03,2.20E-02
139781,6.48E-03,2.22E-02
139782,6.48E-03,2.24E-02
139783,6.48E-03,2.25E-02
139784,6.48E-03,2.27E-02
139785,6.48E-03,2.30E-02
139786,6.48E-03,2.33E-02
139787,6.48E-03,2.38E-02
139788,6.48E-03,2.44E-02
139789,6.48E-03,2.54E-02
139790,6.48E-03,2.67E-02
139791,6.53E-03,1.23E-02
139792,6.53E-03,1.25E-02
139793,6.53E-03,1.26E-02
139794,6.52E-03,1.28E-02
139795,6.52E-03,1.30E-02
139796,6.52E-03,1.31E-02
139797,6.52E-03,1.33E-02
139798,6.52E-03,1.35E-02
139799,6.52E-03,1.36E-02
139800,6.52E-03,1.38E-02
139801,6.52E-03,1.40E-02
139802,6.52E-03,1.42E-02
139803,6.52E-03,1.43E-02
139804,6.52E-03,1.45E-02
139805,6.52E-03,1.47E-02
139806,6.52E-03,1.48E-02
139807,6.52E-03,1.50E-02
139808,6.51E-03,1.52E-02
139809,6.51E-03,1.53E-02
139810,6.51E-03,1.55E-02
139811,6.51E-03,1.57E-02
139812,6.51E-03,1.58E-02
139813,6.51E-03,1.60E-02
139814,6.51E-03,1.62E-02
139815,6.51E-03,1.63E-02
139816,6.51E-03,1.65E-02
139817,6.51E-03,1.67E-02
139818,6.51E-03,1.68E-02
139819,6.51E-03,1.70E-02
139820,6.51E-03,1.72E-02
139821,6.51E-03,1.73E-02
139822,6.50E-03,1.75E-02
139823,6.50E-03,1.77E-02
139824,6.50E-03,1.78E-02
139825,6.50E-03,1.80E-02
139826,6.50E-03,1.82E-02
139827,6.50E-03,1.83E-02
139828,6.50E-03,1.85E-02
139829,6.50E-03,1.87E-02
139830,6.50E-03,1.89E-02
139831,6.50E-03,1.90E-02
139832,6.50E-03,1.92E-02
139833,6.50E-03,1.94E-02
139834,6.50E-03,1.95E-02
139835,6.50E-03,1.97E-02
139836,6.49E-03,1.99E-02
139837,6.49E-03,2.00E-02
139838,6.49E-03,2.02E-02
139839,6.49E-03,2.04E-02
139840,6.49E-03,2.06E-02
139841,6.49E-03,2.07E-02
139842,6.49E-03,2.09E-02
139843,6.49E-03,2.11E-02
139844,6.49E-03,2.12E-02
139845,6.49E-03,2.14E-02
139846,6.49E-03,2.15E-02
139847,6.49E-03,2.17E-02
139848,6.49E-03,2.19E-02
139849,6.48E-03,2.20E-02
139850,6.48E-03,2.22E-02
139851,6.48E-03,2.23E-02
139852,6.48E-03,2.25E-02
139853,6.48E-03,2.27E-02
139854,6.48E-03,2.30E-02
139855,6.48E-03,2.33E-02
139856,6.48E-03,2.37E-02
139857,6.48E-03,2.44E-02
139858,6.48E-03,2.53E-02
139859,6.48E-03,2.67E-02
139860,6.53E-03,1.23E-02
139861,6.53E-03,1.25E-02
139862,6.53E-03,1.27E-02
139863,6.52E-03,1.28E-02
139864,6.52E-03,1.30E-02
139865,6.52E-03,1.32E-02
139866,6.52E-03,1.33E-02
139867,6.52E-03,1.35E-02
139868,6.52E-03,1.37E-02
139869,6.52E-03,1.38E-02
139870,6.52E-03,1.40E-02
139871,6.52E-03,1.42E-02
139872,6.52E-03,1.43E-02
139873,6.52E-03,1.45E-02
139874,6.52E-03,1.47E-02
139875,6.52E-03,1.48E-02
139876,6.52E-03,1.50E-02
139877,6.51E-03,1.52E-02
139878,6.51E-03,1.53E-02
139879,6.51E-03,1.55E-02
139880,6.51E-03,1.57E-02
139881,6.51E-03,1.58E-02
139882,6.51E-03,1.60E-02
139883,6.51E-03,1.62E-02
139884,6.51E-03,1.63E-02
139885,6.51E-03,1.65E-02
139886,6.51E-03,1.67E-02
139887,6.51E-03,1.68E-02
139888,6.51E-03,1.70E-02
139889,6.51E-03,1.72E-02
139890,6.51E-03,1.73E-02
139891,6.50E-03,1.75E-02
139892,6.50E-03,1.77E-02
139893,6.50E-03,1.78E-02
139894,6.50E-03,1.80E-02
139895,6.50E-03,1.82E-02
139896,6.50E-03,1.83E-02
139897,6.50E-03,1.85E-02
139898,6.50E-03,1.87E-02
139899,6.50E-03,1.88E-02
139900,6.50E-03,1.90E-02
139901,6.50E-03,1.92E-02
139902,6.50E-03,1.93E-02
139903,6.50E-03,1.95E-02
139904,6.50E-03,1.97E-02
139905,6.49E-03,1.99E-02
139906,6.49E-03,2.00E-02
139907,6.49E-03,2.02E-02
139908,6.49E-03,2.04E-02
139909,6.49E-03,2.05E-02
139910,6.49E-03,2.07E-02
139911,6.49E-03,2.09E-02
139912,6.49E-03,2.10E-02
139913,6.49E-03,2.12E-02
139914,6.49E-03,2.14E-02
139915,6.49E-03,2.15E-02
139916,6.49E-03,2.17E-02
139917,6.49E-03,2.19E-02
139918,6.48E-03,2.20E-02
139919,6.48E-03,2.22E-02
139920,6.48E-03,2.24E-02
139921,6.48E-03,2.25E-02
139922,6.48E-03,2.28E-02
139923,6.48E-03,2.30E-02
139924,6.48E-03,2.33E-02
139925,6.48E-03,2.37E-02
139926,6.48E-03,2.43E-02
139927,6.48E-03,2.52E-02
139928,6.48E-03,2.65E-02
139929,6.53E-03,1.23E-02
139930,6.53E-03,1.25E-02
139931,6.53E-03,1.27E-02
139932,6.52E-03,1.28E-02
139933,6.52E-03,1.30E-02
139934,6.52E-03,1.32E-02
139935,6.52E-03,1.34E-02
139936,6.52E-03,1.35E-02
139937,6.52E-03,1.37E-02
139938,6.52E-03,1.39E-02
139939,6.52E-03,1.40E-02
139940,6.52E-03,1.42E-02
139941,6.52E-03,1.44E-02
139942,6.52E-03,1.45E-02
139943,6.52E-03,1.47E-02
139944,6.52E-03,1.49E-02
139945,6.52E-03,1.50E-02
139946,6.51E-03,1.52E-02
139947,6.51E-03,1.54E-02
139948,6.51E-03,1.55E-02
139949,6.51E-03,1.57E-02
139950,6.51E-03,1.58E-02
139951,6.51E-03,1.60E-02
139952,6.51E-03,1.62E-02
139953,6.51E-03,1.63E-02
139954,6.51E-03,1.65E-02
139955,6.51E-03,1.67E-02
139956,6.51E-03,1.68E-02
139957,6.51E-03,1.70E-02
139958,6.51E-03,1.72E-02
139959,6.51E-03,1.73E-02
139960,6.50E-03,1.75E-02
139961,6.50E-03,1.77E-02
139962,6.50E-03,1.78E-02
139963,6.50E-03,1.80E-02
139964,6.50E-03,1.82E-02
139965,6.50E-03,1.83E-02
139966,6.50E-03,1.85E-02
139967,6.50E-03,1.87E-02
139968,6.50E-03,1.88E-02
139969,6.50E-03,1.90E-02
139970,6.50E-03,1.92E-02
139971,6.50E-03,1.93E-02
139972,6.50E-03,1.95E-02
139973,6.50E-03,1.97E-02
139974,6.49E-03,1.98E-02
139975,6.49E-03,2.00E-02
139976,6.49E-03,2.02E-02
139977,6.49E-03,2.03E-02
139978,6.49E-03,2.05E-02
139979,6.49E-03,2.07E-02
139980,6.49E-03,2.09E-02
139981,6.49E-03,2.10E-02
139982,6.49E-03,2.12E-02
139983,6.49E-03,2.14E-02
139984,6.49E-03,2.15E-02
139985,6.49E-03,2.17E-02
139986,6.49E-03,2.19E-02
139987,6.48E-03,2.20E-02
139988,6.48E-03,2.22E-02
139989,6.48E-03,2.24E-02
139990,6.48E-03,2.26E-02
139991,6.48E-03,2.28E-02
139992,6.48E-03,2.31E-02
139993,6.48E-03,2.34E-02
139994,6.48E-03,2.37E-02
139995,6.48E-03,2.43E-02
139996,6.48E-03,2.51E-02
139997,6.48E-03,2.63E-02
139998,6.53E-03,1.24E-02
139999,6.53E-03,1.25E-02
140000,6.53E-03,1.27E-02
140001,6.52E-03,1.29E-02
140002,6.52E-03,1.30E-02
140003,6.52E-03,1.32E-02
140004,6.52E-03,1.34E-02
140005,6.52E-03,1.35E-02
140006,6.52E-03,1.37E-02
140007,6.52E-03,1.39E-02
140008,6.52E-03,1.40E-02
140009,6.52E-03,1.42E-02
140010,6.52E-03,1.44E-02
140011,6.52E-03,1.45E-02
140012,6.52E-03,1.47E-02
140013,6.52E-03,1.49E-02
140014,6.52E-03,1.50E-02
140015,6.51E-03,1.52E-02
140016,6.51E-03,1.54E-02
140017,6.51E-03,1.55E-02
140018,6.51E-03,1.57E-02
140019,6.51E-03,1.59E-02
140020,6.51E-03,1.60E-02
140021,6.51E-03,1.62E-02
140022,6.51E-03,1.64E-02
140023,6.51E-03,1.65E-02
140024,6.51E-03,1.67E-02
140025,6.51E-03,1.68E-02
140026,6.51E-03,1.70E-02
140027,6.51E-03,1.72E-02
140028,6.51E-03,1.73E-02
140029,6.50E-03,1.75E-02
140030,6.50E-03,1.77E-02
140031,6.50E-03,1.78E-02
140032,6.50E-03,1.80E-02
140033,6.50E-03,1.82E-02
140034,6.50E-03,1.83E-02
140035,6.50E-03,1.85E-02
140036,6.50E-03,1.87E-02
140037,6.50E-03,1.88E-02
140038,6.50E-03,1.90E-02
140039,6.50E-03,1.92E-02
140040,6.50E-03,1.93E-02
140041,6.50E-03,1.95E-02
140042,6.50E-03,1.97E-02
140043,6.49E-03,1.98E-02
140044,6.49E-03,2.00E-02
140045,6.49E-03,2.02E-02
140046,6.49E-03,2.03E-02
140047,6.49E-03,2.05E-02
140048,6.49E-03,2.07E-02
140049,6.49E-03,2.08E-02
140050,6.49E-03,2.10E-02
140051,6.49E-03,2.12E-02
140052,6.49E-03,2.14E-02
140053,6.49E-03,2.15E-02
140054,6.49E-03,2.17E-02
140055,6.49E-03,2.19E-02
140056,6.48E-03,2.21E-02
140057,6.48E-03,2.23E-02
140058,6.48E-03,2.25E-02
140059,6.48E-03,2.27E-02
140060,6.48E-03,2.29E-02
140061,6.48E-03,2.32E-02
140062,6.48E-03,2.35E-02
140063,6.48E-03,2.38E-02
140064,6.48E-03,2.43E-02
140065,6.48E-03,2.49E-02
140066,6.48E-03,2.59E-02
140067,6.53E-03,1.24E-02
140068,6.53E-03,1.26E-02
140069,6.53E-03,1.27E-02
140070,6.52E-03,1.29E-02
140071,6.52E-03,1.31E-02
140072,6.52E-03,1.32E-02
140073,6.52E-03,1.34E-02
140074,6.52E-03,1.36E-02
140075,6.52E-03,1.37E-02
140076,6.52E-03,1.39E-02
140077,6.52E-03,1.41E-02
140078,6.52E-03,1.42E-02
140079,6.52E-03,1.44E-02
140080,6.52E-03,1.46E-02
140081,6.52E-03,1.47E-02
140082,6.52E-03,1.49E-02
140083,6.52E-03,1.50E-02
140084,6.51E-03,1.52E-02
140085,6.51E-03,1.54E-02
140086,6.51E-03,1.55E-02
140087,6.51E-03,1.57E-02
140088,6.51E-03,1.59E-02
140089,6.51E-03,1.60E-02
140090,6.51E-03,1.62E-02
140091,6.51E-03,1.64E-02
140092,6.51E-03,1.65E-02
140093,6.51E-03,1.67E-02
140094,6.51E-03,1.69E-02
140095,6.51E-03,1.70E-02
140096,6.51E-03,1.72E-02
140097,6.51E-03,1.73E-02
140098,6.50E-03,1.75E-02
140099,6.50E-03,1.77E-02
140100,6.50E-03,1.78E-02
140101,6.50E-03,1.80E-02
140102,6.50E-03,1.82E-02
140103,6.50E-03,1.83E-02
140104,6.50E-03,1.85E-02
140105,6.50E-03,1.87E-02
140106,6.50E-03,1.88E-02
140107,6.50E-03,1.90E-02
140108,6.50E-03,1.92E-02
140109,6.50E-03,1.93E-02
140110,6.50E-03,1.95E-02
140111,6.50E-03,1.97E-02
140112,6.49E-03,1.98E-02
140113,6.49E-03,2.00E-02
140114,6.49E-03,2.02E-02
140115,6.49E-03,2.03E-02
140116,6.49E-03,2.05E-02
140117,6.49E-03,2.07E-02
140118,6.49E-03,2.08E-02
140119,6.49E-03,2.10E-02
140120,6.49E-03,2.12E-02
140121,6.49E-03,2.14E-02
140122,6.49E-03,2.15E-02
140123,6.49E-03,2.17E-02
140124,6.49E-03,2.19E-02
140125,6.48E-03,2.21E-02
140126,6.48E-03,2.23E-02
140127,6.48E-03,2.26E-02
140128,6.48E-03,2.28E-02
140129,6.48E-03,2.31E-02
140130,6.48E-03,2.33E-02
140131,6.48E-03,2.36E-02
140132,6.48E-03,2.40E-02
140133,6.48E-03,2.43E-02
140134,6.48E-03,2.48E-02
140135,6.48E-03,2.55E-02
140136,6.53E-03,1.24E-02
140137,6.53E-03,1.26E-02
140138,6.53E-03,1.28E-02
140139,6.52E-03,1.29E-02
140140,6.52E-03,1.31E-02
140141,6.52E-03,1.32E-02
140142,6.52E-03,1.34E-02
140143,6.52E-03,1.36E-02
140144,6.52E-03,1.37E-02
140145,6.52E-03,1.39E-02
140146,6.52E-03,1.41E-02
140147,6.52E-03,1.42E-02
140148,6.52E-03,1.44E-02
140149,6.52E-03,1.46E-02
140150,6.52E-03,1.47E-02
140151,6.52E-03,1.49E-02
140152,6.52E-03,1.51E-02
140153,6.51E-03,1.52E-02
140154,6.51E-03,1.54E-02
140155,6.51E-03,1.56E-02
140156,6.51E-03,1.57E-02
140157,6.51E-03,1.59E-02
140158,6.51E-03,1.60E-02
140159,6.51E-03,1.62E-02
140160,6.51E-03,1.64E-02
140161,6.51E-03,1.65E-02
140162,6.51E-03,1.67E-02
140163,6.51E-03,1.69E-02
140164,6.51E-03,1.70E-02
140165,6.51E-03,1.72E-02
140166,6.51E-03,1.73E-02
140167,6.50E-03,1.75E-02
140168,6.50E-03,1.77E-02
140169,6.50E-03,1.78E-02
140170,6.50E-03,1.80E-02
140171,6.50E-03,1.82E-02
140172,6.50E-03,1.83E-02
140173,6.50E-03,1.85E-02
140174,6.50E-03,1.87E-02
140175,6.50E-03,1.88E-02
140176,6.50E-03,1.90E-02
140177,6.50E-03,1.91E-02
140178,6.50E-03,1.93E-02
140179,6.50E-03,1.95E-02
140180,6.50E-03,1.96E-02
140181,6.49E-03,1.98E-02
140182,6.49E-03,2.00E-02
140183,6.49E-03,2.01E-02
140184,6.49E-03,2.03E-02
140185,6.49E-03,2.05E-02
140186,6.49E-03,2.07E-02
140187,6.49E-03,2.08E-02
140188,6.49E-03,2.10E-02
140189,6.49E-03,2.12E-02
140190,6.49E-03,2.14E-02
140191,6.49E-03,2.16E-02
140192,6.49E-03,2.18E-02
140193,6.49E-03,2.20E-02
140194,6.48E-03,2.22E-02
140195,6.48E-03,2.24E-02
140196,6.48E-03,2.26E-02
140197,6.48E-03,2.29E-02
140198,6.48E-03,2.32E-02
140199,6.48E-03,2.35E-02
140200,6.48E-03,2.38E-02
140201,6.48E-03,2.41E-02
140202,6.48E-03,2.45E-02
140203,6.48E-03,2.48E-02
140204,6.48E-03,2.52E-02
140205,6.53E-03,1.25E-02
140206,6.53E-03,1.26E-02
140207,6.53E-03,1.28E-02
140208,6.52E-03,1.29E-02
140209,6.52E-03,1.31E-02
140210,6.52E-03,1.33E-02
140211,6.52E-03,1.34E-02
140212,6.52E-03,1.36E-02
140213,6.52E-03,1.38E-02
140214,6.52E-03,1.39E-02
140215,6.52E-03,1.41E-02
140216,6.52E-03,1.43E-02
140217,6.52E-03,1.44E-02
140218,6.52E-03,1.46E-02
140219,6.52E-03,1.47E-02
140220,6.52E-03,1.49E-02
140221,6.52E-03,1.51E-02
140222,6.51E-03,1.52E-02
140223,6.51E-03,1.54E-02
140224,6.51E-03,1.56E-02
140225,6.51E-03,1.57E-02
140226,6.51E-03,1.59E-02
140227,6.51E-03,1.60E-02
140228,6.51E-03,1.62E-02
140229,6.51E-03,1.64E-02
140230,6.51E-03,1.65E-02
140231,6.51E-03,1.67E-02
140232,6.51E-03,1.69E-02
140233,6.51E-03,1.70E-02
140234,6.51E-03,1.72E-02
140235,6.51E-03,1.73E-02
140236,6.50E-03,1.75E-02
140237,6.50E-03,1.77E-02
140238,6.50E-03,1.78E-02
140239,6.50E-03,1.80E-02
140240,6.50E-03,1.82E-02
140241,6.50E-03,1.83E-02
140242,6.50E-03,1.85E-02
140243,6.50E-03,1.86E-02
140244,6.50E-03,1.88E-02
140245,6.50E-03,1.90E-02
140246,6.50E-03,1.91E-02
140247,6.50E-03,1.93E-02
140248,6.50E-03,1.95E-02
140249,6.50E-03,1.96E-02
140250,6.49E-03,1.98E-02
140251,6.49E-03,2.00E-02
140252,6.49E-03,2.01E-02
140253,6.49E-03,2.03E-02
140254,6.49E-03,2.05E-02
140255,6.49E-03,2.07E-02
140256,6.49E-03,2.08E-02
140257,6.49E-03,2.10E-02
140258,6.49E-03,2.12E-02
140259,6.49E-03,2.14E-02
140260,6.49E-03,2.16E-02
140261,6.49E-03,2.18E-02
140262,6.49E-03,2.20E-02
140263,6.48E-03,2.22E-02
140264,6.48E-03,2.25E-02
140265,6.48E-03,2.27E-02
140266,6.48E-03,2.30E-02
140267,6.48E-03,2.33E-02
140268,6.48E-03,2.36E-02
140269,6.48E-03,2.40E-02
140270,6.48E-03,2.43E-02
140271,6.48E-03,2.46E-02
140272,6.48E-03,2.48E-02
140273,6.48E-03,2.49E-02
140274,6.53E-03,1.25E-02
140275,6.53E-03,1.26E-02
140276,6.53E-03,1.28E-02
140277,6.52E-03,1.30E-02
140278,6.52E-03,1.31E-02
140279,6.52E-03,1.33E-02
140280,6.52E-03,1.35E-02
140281,6.52E-03,1.36E-02
140282,6.52E-03,1.38E-02
140283,6.52E-03,1.39E-02
140284,6.52E-03,1.41E-02
140285,6.52E-03,1.43E-02
140286,6.52E-03,1.44E-02
140287,6.52E-03,1.46E-02
140288,6.52E-03,1.48E-02
140289,6.52E-03,1.49E-02
140290,6.52E-03,1.51E-02
140291,6.51E-03,1.52E-02
140292,6.51E-03,1.54E-02
140293,6.51E-03,1.56E-02
140294,6.51E-03,1.57E-02
140295,6.51E-03,1.59E-02
140296,6.51E-03,1.61E-02
140297,6.51E-03,1.62E-02
140298,6.51E-03,1.64E-02
140299,6.51E-03,1.65E-02
140300,6.51E-03,1.67E-02
140301,6.51E-03,1.69E-02
140302,6.51E-03,1.70E-02
140303,6.51E-03,1.72E-02
140304,6.51E-03,1.73E-02
140305,6.50E-03,1.75E-02
140306,6.50E-03,1.77E-02
140307,6.50E-03,1.78E-02
140308,6.50E-03,1.80E-02
140309,6.50E-03,1.82E-02
140310,6.50E-03,1.83E-02
140311,6.50E-03,1.85E-02
140312,6.50E-03,1.86E-02
140313,6.50E-03,1.88E-02
140314,6.50E-03,1.90E-02
140315,6.50E-03,1.91E-02
140316,6.50E-03,1.93E-02
140317,6.50E-03,1.95E-02
140318,6.50E-03,1.96E-02
140319,6.49E-03,1.98E-02
140320,6.49E-03,2.00E-02
140321,6.49E-03,2.01E-02
140322,6.49E-03,2.03E-02
140323,6.49E-03,2.05E-02
140324,6.49E-03,2.07E-02
140325,6.49E-03,2.08E-02
140326,6.49E-03,2.10E-02
140327,6.49E-03,2.12E-02
140328,6.49E-03,2.14E-02
140329,6.49E-03,2.16E-02
140330,6.49E-03,2.18E-02
140331,6.49E-03,2.20E-02
140332,6.48E-03,2.23E-02
140333,6.48E-03,2.25E-02
140334,6.48E-03,2.28E-02
140335,6.48E-03,2.31E-02
140336,6.48E-03,2.34E-02
140337,6.48E-03,2.37E-02
140338,6.48E-03,2.41E-02
140339,6.48E-03,2.44E-02
140340,6.48E-03,2.47E-02
140341,6.48E-03,2.48E-02
140342,6.48E-03,2.47E-02
140343,6.53E-03,1.25E-02
140344,6.53E-03,1.27E-02
140345,6.53E-03,1.28E-02
140346,6.52E-03,1.30E-02
140347,6.52E-03,1.32E-02
140348,6.52E-03,1.33E-02
140349,6.52E-03,1.35E-02
140350,6.52E-03,1.36E-02
140351,6.52E-03,1.38E-02
140352,6.52E-03,1.40E-02
140353,6.52E-03,1.41E-02
140354,6.52E-03,1.43E-02
140355,6.52E-03,1.45E-02
140356,6.52E-03,1.46E-02
140357,6.52E-03,1.48E-02
140358,6.52E-03,1.49E-02
140359,6.52E-03,1.51E-02
140360,6.51E-03,1.53E-02
140361,6.51E-03,1.54E-02
140362,6.51E-03,1.56E-02
140363,6.51E-03,1.57E-02
140364,6.51E-03,1.59E-02
140365,6.51E-03,1.61E-02
140366,6.51E-03,1.62E-02
140367,6.51E-03,1.64E-02
140368,6.51E-03,1.65E-02
140369,6.51E-03,1.67E-02
140370,6.51E-03,1.69E-02
140371,6.51E-03,1.70E-02
140372,6.51E-03,1.72E-02
140373,6.51E-03,1.74E-02
140374,6.50E-03,1.75E-02
140375,6.50E-03,1.77E-02
140376,6.50E-03,1.78E-02
140377,6.50E-03,1.80E-02
140378,6.50E-03,1.82E-02
140379,6.50E-03,1.83E-02
140380,6.50E-03,1.85E-02
140381,6.50E-03,1.86E-02
140382,6.50E-03,1.88E-02
140383,6.50E-03,1.90E-02
140384,6.50E-03,1.91E-02
140385,6.50E-03,1.93E-02
140386,6.50E-03,1.95E-02
140387,6.50E-03,1.96E-02
140388,6.49E-03,1.98E-02
140389,6.49E-03,2.00E-02
140390,6.49E-03,2.01E-02
140391,6.49E-03,2.03E-02
140392,6.49E-03,2.05E-02
140393,6.49E-03,2.07E-02
140394,6.49E-03,2.08E-02
140395,6.49E-03,2.10E-02
140396,6.49E-03,2.12E-02
140397,6.49E-03,2.14E-02
140398,6.49E-03,2.16E-02
140399,6.49E-03,2.18E-02
140400,6.49E-03,2.21E-02
140401,6.48E-03,2.23E-02
140402,6.48E-03,2.26E-02
140403,6.48E-03,2.28E-02
140404,6.48E-03,2.32E-02
140405,6.48E-03,2.35E-02
140406,6.48E-03,2.38E-02
140407,6.48E-03,2.42E-02
140408,6.48E-03,2.45E-02
140409,6.48E-03,2.48E-02
140410,6.48E-03,2.48E-02
140411,6.48E-03,2.46E-02
140412,6.53E-03,1.25E-02
140413,6.53E-03,1.27E-02
140414,6.53E-03,1.28E-02
140415,6.52E-03,1.30E-02
140416,6.52E-03,1.32E-02
140417,6.52E-03,1.33E-02
140418,6.52E-03,1.35E-02
140419,6.52E-03,1.37E-02
140420,6.52E-03,1.38E-02
140421,6.52E-03,1.40E-02
140422,6.52E-03,1.41E-02
140423,6.52E-03,1.43E-02
140424,6.52E-03,1.45E-02
140425,6.52E-03,1.46E-02
140426,6.52E-03,1.48E-02
140427,6.52E-03,1.50E-02
140428,6.52E-03,1.51E-02
140429,6.51E-03,1.53E-02
140430,6.51E-03,1.54E-02
140431,6.51E-03,1.56E-02
140432,6.51E-03,1.58E-02
140433,6.51E-03,1.59E-02
140434,6.51E-03,1.61E-02
140435,6.51E-03,1.62E-02
140436,6.51E-03,1.64E-02
140437,6.51E-03,1.66E-02
140438,6.51E-03,1.67E-02
140439,6.51E-03,1.69E-02
140440,6.51E-03,1.70E-02
140441,6.51E-03,1.72E-02
140442,6.51E-03,1.74E-02
140443,6.50E-03,1.75E-02
140444,6.50E-03,1.77E-02
140445,6.50E-03,1.78E-02
140446,6.50E-03,1.80E-02
140447,6.50E-03,1.82E-02
140448,6.50E-03,1.83E-02
140449,6.50E-03,1.85E-02
140450,6.50E-03,1.86E-02
140451,6.50E-03,1.88E-02
140452,6.50E-03,1.90E-02
140453,6.50E-03,1.91E-02
140454,6.50E-03,1.93E-02
140455,6.50E-03,1.95E-02
140456,6.50E-03,1.96E-02
140457,6.49E-03,1.98E-02
140458,6.49E-03,2.00E-02
140459,6.49E-03,2.01E-02
140460,6.49E-03,2.03E-02
140461,6.49E-03,2.05E-02
140462,6.49E-03,2.06E-02
140463,6.49E-03,2.08E-02
140464,6.49E-03,2.10E-02
140465,6.49E-03,2.12E-02
140466,6.49E-03,2.14E-02
140467,6.49E-03,2.16E-02
140468,6.49E-03,2.18E-02
140469,6.49E-03,2.21E-02
140470,6.48E-03,2.23E-02
140471,6.48E-03,2.26E-02
140472,6.48E-03,2.29E-02
140473,6.48E-03,2.32E-02
140474,6.48E-03,2.35E-02
140475,6.48E-03,2.39E-02
140476,6.48E-03,2.42E-02
140477,6.48E-03,2.45E-02
140478,6.48E-03,2.47E-02
140479,6.48E-03,2.47E-02
140480,6.48E-03,2.44E-02
140481,6.53E-03,1.26E-02
140482,6.53E-03,1.27E-02
140483,6.53E-03,1.29E-02
140484,6.52E-03,1.30E-02
140485,6.52E-03,1.32E-02
140486,6.52E-03,1.34E-02
140487,6.52E-03,1.35E-02
140488,6.52E-03,1.37E-02
140489,6.52E-03,1.38E-02
140490,6.52E-03,1.40E-02
140491,6.52E-03,1.42E-02
140492,6.52E-03,1.43E-02
140493,6.52E-03,1.45E-02
140494,6.52E-03,1.46E-02
140495,6.52E-03,1.48E-02
140496,6.52E-03,1.50E-02
140497,6.52E-03,1.51E-02
140498,6.51E-03,1.53E-02
140499,6.51E-03,1.54E-02
140500,6.51E-03,1.56E-02
140501,6.51E-03,1.58E-02
140502,6.51E-03,1.59E-02
140503,6.51E-03,1.61E-02
140504,6.51E-03,1.62E-02
140505,6.51E-03,1.64E-02
140506,6.51E-03,1.66E-02
140507,6.51E-03,1.67E-02
140508,6.51E-03,1.69E-02
140509,6.51E-03,1.70E-02
140510,6.51E-03,1.72E-02
140511,6.51E-03,1.74E-02
140512,6.50E-03,1.75E-02
140513,6.50E-03,1.77E-02
140514,6.50E-03,1.78E-02
140515,6.50E-03,1.80E-02
140516,6.50E-03,1.82E-02
140517,6.50E-03,1.83E-02
140518,6.50E-03,1.85E-02
140519,6.50E-03,1.86E-02
140520,6.50E-03,1.88E-02
140521,6.50E-03,1.90E-02
140522,6.50E-03,1.91E-02
140523,6.50E-03,1.93E-02
140524,6.50E-03,1.94E-02
140525,6.50E-03,1.96E-02
140526,6.49E-03,1.98E-02
140527,6.49E-03,1.99E-02
140528,6.49E-03,2.01E-02
140529,6.49E-03,2.03E-02
140530,6.49E-03,2.05E-02
140531,6.49E-03,2.06E-02
140532,6.49E-03,2.08E-02
140533,6.49E-03,2.10E-02
140534,6.49E-03,2.12E-02
140535,6.49E-03,2.14E-02
140536,6.49E-03,2.16E-02
140537,6.49E-03,2.18E-02
140538,6.49E-03,2.21E-02
140539,6.48E-03,2.23E-02
140540,6.48E-03,2.26E-02
140541,6.48E-03,2.29E-02
140542,6.48E-03,2.32E-02
140543,6.48E-03,2.35E-02
140544,6.48E-03,2.38E-02
140545,6.48E-03,2.42E-02
140546,6.48E-03,2.44E-02
140547,6.48E-03,2.46E-02
140548,6.48E-03,2.46E-02
140549,6.48E-03,2.42E-02
140550,6.53E-03,1.26E-02
140551,6.53E-03,1.27E-02
140552,6.53E-03,1.29E-02
140553,6.52E-03,1.31E-02
140554,6.52E-03,1.32E-02
140555,6.52E-03,1.34E-02
140556,6.52E-03,1.35E-02
140557,6.52E-03,1.37E-02
140558,6.52E-03,1.39E-02
140559,6.52E-03,1.40E-02
140560,6.52E-03,1.42E-02
140561,6.52E-03,1.43E-02
140562,6.52E-03,1.45E-02
140563,6.52E-03,1.47E-02
140564,6.52E-03,1.48E-02
140565,6.52E-03,1.50E-02
140566,6.52E-03,1.51E-02
140567,6.51E-03,1.53E-02
140568,6.51E-03,1.55E-02
140569,6.51E-03,1.56E-02
140570,6.51E-03,1.58E-02
140571,6.51E-03,1.59E-02
140572,6.51E-03,1.61E-02
140573,6.51E-03,1.63E-02
140574,6.51E-03,1.64E-02
140575,6.51E-03,1.66E-02
140576,6.51E-03,1.67E-02
140577,6.51E-03,1.69E-02
140578,6.51E-03,1.70E-02
140579,6.51E-03,1.72E-02
140580,6.51E-03,1.74E-02
140581,6.50E-03,1.75E-02
140582,6.50E-03,1.77E-02
140583,6.50E-03,1.78E-02
140584,6.50E-03,1.80E-02
140585,6.50E-03,1.82E-02
140586,6.50E-03,1.83E-02
140587,6.50E-03,1.85E-02
140588,6.50E-03,1.86E-02
140589,6.50E-03,1.88E-02
140590,6.50E-03,1.90E-02
140591,6.50E-03,1.91E-02
140592,6.50E-03,1.93E-02
140593,6.50E-03,1.94E-02
140594,6.50E-03,1.96E-02
140595,6.49E-03,1.98E-02
140596,6.49E-03,1.99E-02
140597,6.49E-03,2.01E-02
140598,6.49E-03,2.03E-02
140599,6.49E-03,2.05E-02
140600,6.49E-03,2.06E-02
140601,6.49E-03,2.08E-02
140602,6.49E-03,2.10E-02
140603,6.49E-03,2.12E-02
140604,6.49E-03,2.14E-02
140605,6.49E-03,2.16E-02
140606,6.49E-03,2.18E-02
140607,6.49E-03,2.21E-02
140608,6.48E-03,2.23E-02
140609,6.48E-03,2.26E-02
140610,6.48E-03,2.28E-02
140611,6.48E-03,2.31E-02
140612,6.48E-03,2.34E-02
140613,6.48E-03,2.37E-02
140614,6.48E-03,2.40E-02
140615,6.48E-03,2.43E-02
140616,6.48E-03,2.44E-02
140617,6.48E-03,2.44E-02
140618,6.48E-03,2.39E-02
140619,6.53E-03,1.26E-02
140620,6.53E-03,1.28E-02
140621,6.53E-03,1.29E-02
140622,6.52E-03,1.31E-02
140623,6.52E-03,1.32E-02
140624,6.52E-03,1.34E-02
140625,6.52E-03,1.36E-02
140626,6.52E-03,1.37E-02
140627,6.52E-03,1.39E-02
140628,6.52E-03,1.40E-02
140629,6.52E-03,1.42E-02
140630,6.52E-03,1.44E-02
140631,6.52E-03,1.45E-02
140632,6.52E-03,1.47E-02
140633,6.52E-03,1.48E-02
140634,6.52E-03,1.50E-02
140635,6.52E-03,1.52E-02
140636,6.51E-03,1.53E-02
140637,6.51E-03,1.55E-02
140638,6.51E-03,1.56E-02
140639,6.51E-03,1.58E-02
140640,6.51E-03,1.59E-02
140641,6.51E-03,1.61E-02
140642,6.51E-03,1.63E-02
140643,6.51E-03,1.64E-02
140644,6.51E-03,1.66E-02
140645,6.51E-03,1.67E-02
140646,6.51E-03,1.69E-02
140647,6.51E-03,1.71E-02
140648,6.51E-03,1.72E-02
140649,6.51E-03,1.74E-02
140650,6.50E-03,1.75E-02
140651,6.50E-03,1.77E-02
140652,6.50E-03,1.78E-02
140653,6.50E-03,1.80E-02
140654,6.50E-03,1.82E-02
140655,6.50E-03,1.83E-02
140656,6.50E-03,1.85E-02
140657,6.50E-03,1.86E-02
140658,6.50E-03,1.88E-02
140659,6.50E-03,1.90E-02
140660,6.50E-03,1.91E-02
140661,6.50E-03,1.93E-02
140662,6.50E-03,1.94E-02
140663,6.50E-03,1.96E-02
140664,6.49E-03,1.98E-02
140665,6.49E-03,1.99E-02
140666,6.49E-03,2.01E-02
140667,6.49E-03,2.03E-02
140668,6.49E-03,2.04E-02
140669,6.49E-03,2.06E-02
140670,6.49E-03,2.08E-02
140671,6.49E-03,2.10E-02
140672,6.49E-03,2.12E-02
140673,6.49E-03,2.14E-02
140674,6.49E-03,2.16E-02
140675,6.49E-03,2.18E-02
140676,6.49E-03,2.20E-02
140677,6.48E-03,2.23E-02
140678,6.48E-03,2.25E-02
140679,6.48E-03,2.28E-02
140680,6.48E-03,2.31E-02
140681,6.48E-03,2.33E-02
140682,6.48E-03,2.36E-02
140683,6.48E-03,2.39E-02
140684,6.48E-03,2.41E-02
140685,6.48E-03,2.42E-02
140686,6.48E-03,2.41E-02
140687,6.48E-03,2.37E-02
140688,6.53E-03,1.26E-02
140689,6.53E-03,1.28E-02
140690,6.53E-03,1.29E-02
140691,6.52E-03,1.31E-02
140692,6.52E-03,1.33E-02
140693,6.52E-03,1.34E-02
140694,6.52E-03,1.36E-02
140695,6.52E-03,1.37E-02
140696,6.52E-03,1.39E-02
140697,6.52E-03,1.41E-02
140698,6.52E-03,1.42E-02
140699,6.52E-03,1.44E-02
140700,6.52E-03,1.45E-02
140701,6.52E-03,1.47E-02
140702,6.52E-03,1.49E-02
140703,6.52E-03,1.50E-02
140704,6.52E-03,1.52E-02
140705,6.51E-03,1.53E-02
140706,6.51E-03,1.55E-02
140707,6.51E-03,1.56E-02
140708,6.51E-03,1.58E-02
140709,6.51E-03,1.60E-02
140710,6.51E-03,1.61E-02
140711,6.51E-03,1.63E-02
140712,6.51E-03,1.64E-02
140713,6.51E-03,1.66E-02
140714,6.51E-03,1.67E-02
140715,6.51E-03,1.69E-02
140716,6.51E-03,1.71E-02
140717,6.51E-03,1.72E-02
140718,6.51E-03,1.74E-02
140719,6.50E-03,1.75E-02
140720,6.50E-03,1.77E-02
140721,6.50E-03,1.78E-02
140722,6.50E-03,1.80E-02
140723,6.50E-03,1.82E-02
140724,6.50E-03,1.83E-02
140725,6.50E-03,1.85E-02
140726,6.50E-03,1.86E-02
140727,6.50E-03,1.88E-02
140728,6.50E-03,1.89E-02
140729,6.50E-03,1.91E-02
140730,6.50E-03,1.93E-02
140731,6.50E-03,1.94E-02
140732,6.50E-03,1.96E-02
140733,6.49E-03,1.98E-02
140734,6.49E-03,1.99E-02
140735,6.49E-03,2.01E-02
140736,6.49E-03,2.03E-02
140737,6.49E-03,2.04E-02
140738,6.49E-03,2.06E-02
140739,6.49E-03,2.08E-02
140740,6.49E-03,2.10E-02
140741,6.49E-03,2.12E-02
140742,6.49E-03,2.14E-02
140743,6.49E-03,2.16E-02
140744,6.49E-03,2.18E-02
140745,6.49E-03,2.20E-02
140746,6.48E-03,2.22E-02
140747,6.48E-03,2.25E-02
140748,6.48E-03,2.27E-02
140749,6.48E-03,2.30E-02
140750,6.48E-03,2.32E-02
140751,6.48E-03,2.34E-02
140752,6.48E-03,2.36E-02
140753,6.48E-03,2.38E-02
140754,6.48E-03,2.39E-02
140755,6.48E-03,2.38E-02
140756,6.48E-03,2.36E-02
140757,6.53E-03,1.26E-02
140758,6.53E-03,1.28E-02
140759,6.53E-03,1.30E-02
140760,6.52E-03,1.31E-02
140761,6.52E-03,1.33E-02
140762,6.52E-03,1.34E-02
140763,6.52E-03,1.36E-02
140764,6.52E-03,1.38E-02
140765,6.52E-03,1.39E-02
140766,6.52E-03,1.41E-02
140767,6.52E-03,1.42E-02
140768,6.52E-03,1.44E-02
140769,6.52E-03,1.46E-02
140770,6.52E-03,1.47E-02
140771,6.52E-03,1.49E-02
140772,6.52E-03,1.50E-02
140773,6.52E-03,1.52E-02
140774,6.51E-03,1.53E-02
140775,6.51E-03,1.55E-02
140776,6.51E-03,1.57E-02
140777,6.51E-03,1.58E-02
140778,6.51E-03,1.60E-02
140779,6.51E-03,1.61E-02
140780,6.51E-03,1.63E-02
140781,6.51E-03,1.64E-02
140782,6.51E-03,1.66E-02
140783,6.51E-03,1.68E-02
140784,6.51E-03,1.69E-02
140785,6.51E-03,1.71E-02
140786,6.51E-03,1.72E-02
140787,6.51E-03,1.74E-02
140788,6.50E-03,1.75E-02
140789,6.50E-03,1.77E-02
140790,6.50E-03,1.78E-02
140791,6.50E-03,1.80E-02
140792,6.50E-03,1.82E-02
140793,6.50E-03,1.83E-02
140794,6.50E-03,1.85E-02
140795,6.50E-03,1.86E-02
140796,6.50E-03,1.88E-02
140797,6.50E-03,1.89E-02
140798,6.50E-03,1.91E-02
140799,6.50E-03,1.93E-02
140800,6.50E-03,1.94E-02
140801,6.50E-03,1.96E-02
140802,6.49E-03,1.98E-02
140803,6.49E-03,1.99E-02
140804,6.49E-03,2.01E-02
140805,6.49E-03,2.03E-02
140806,6.49E-03,2.04E-02
140807,6.49E-03,2.06E-02
140808,6.49E-03,2.08E-02
140809,6.49E-03,2.10E-02
140810,6.49E-03,2.12E-02
140811,6.49E-03,2.13E-02
140812,6.49E-03,2.15E-02
140813,6.49E-03,2.18E-02
140814,6.49E-03,2.20E-02
140815,6.48E-03,2.22E-02
140816,6.48E-03,2.24E-02
140817,6.48E-03,2.26E-02
140818,6.48E-03,2.28E-02
140819,6.48E-03,2.30E-02
140820,6.48E-03,2.32E-02
140821,6.48E-03,2.34E-02
140822,6.48E-03,2.35E-02
140823,6.48E-03,2.36E-02
140824,6.48E-03,2.36E-02
140825,6.48E-03,2.35E-02
140826,6.53E-03,1.27E-02
140827,6.53E-03,1.28E-02
140828,6.53E-03,1.30E-02
140829,6.52E-03,1.31E-02
140830,6.52E-03,1.33E-02
140831,6.52E-03,1.35E-02
140832,6.52E-03,1.36E-02
140833,6.52E-03,1.38E-02
140834,6.52E-03,1.39E-02
140835,6.52E-03,1.41E-02
140836,6.52E-03,1.43E-02
140837,6.52E-03,1.44E-02
140838,6.52E-03,1.46E-02
140839,6.52E-03,1.47E-02
140840,6.52E-03,1.49E-02
140841,6.52E-03,1.50E-02
140842,6.52E-03,1.52E-02
140843,6.51E-03,1.54E-02
140844,6.51E-03,1.55E-02
140845,6.51E-03,1.57E-02
140846,6.51E-03,1.58E-02
140847,6.51E-03,1.60E-02
140848,6.51E-03,1.61E-02
140849,6.51E-03,1.63E-02
140850,6.51E-03,1.64E-02
140851,6.51E-03,1.66E-02
140852,6.51E-03,1.68E-02
140853,6.51E-03,1.69E-02
140854,6.51E-03,1.71E-02
140855,6.51E-03,1.72E-02
140856,6.51E-03,1.74E-02
140857,6.50E-03,1.75E-02
140858,6.50E-03,1.77E-02
140859,6.50E-03,1.78E-02
140860,6.50E-03,1.80E-02
140861,6.50E-03,1.82E-02
140862,6.50E-03,1.83E-02
140863,6.50E-03,1.85E-02
140864,6.50E-03,1.86E-02
140865,6.50E-03,1.88E-02
140866,6.50E-03,1.89E-02
140867,6.50E-03,1.91E-02
140868,6.50E-03,1.93E-02
140869,6.50E-03,1.94E-02
140870,6.50E-03,1.96E-02
140871,6.49E-03,1.97E-02
140872,6.49E-03,1.99E-02
140873,6.49E-03,2.01E-02
140874,6.49E-03,2.02E-02
140875,6.49E-03,2.04E-02
140876,6.49E-03,2.06E-02
140877,6.49E-03,2.08E-02
140878,6.49E-03,2.09E-02
140879,6.49E-03,2.11E-02
140880,6.49E-03,2.13E-02
140881,6.49E-03,2.15E-02
140882,6.49E-03,2.17E-02
140883,6.49E-03,2.19E-02
140884,6.48E-03,2.21E-02
140885,6.48E-03,2.23E-02
140886,6.48E-03,2.25E-02
140887,6.48E-03,2.27E-02
140888,6.48E-03,2.29E-02
140889,6.48E-03,2.30E-02
140890,6.48E-03,2.32E-02
140891,6.48E-03,2.33E-02
140892,6.48E-03,2.33E-02
140893,6.48E-03,2.34E-02
140894,6.48E-03,2.35E-02
140895,6.53E-03,1.27E-02
140896,6.53E-03,1.29E-02
140897,6.53E-03,1.30E-02
140898,6.52E-03,1.32E-02
140899,6.52E-03,1.33E-02
140900,6.52E-03,1.35E-02
140901,6.52E-03,1.36E-02
140902,6.52E-03,1.38E-02
140903,6.52E-03,1.40E-02
140904,6.52E-03,1.41E-02
140905,6.52E-03,1.43E-02
140906,6.52E-03,1.44E-02
140907,6.52E-03,1.46E-02
140908,6.52E-03,1.47E-02
140909,6.52E-03,1.49E-02
140910,6.52E-03,1.51E-02
140911,6.52E-03,1.52E-02
140912,6.51E-03,1.54E-02
140913,6.51E-03,1.55E-02
140914,6.51E-03,1.57E-02
140915,6.51E-03,1.58E-02
140916,6.51E-03,1.60E-02
140917,6.51E-03,1.61E-02
140918,6.51E-03,1.63E-02
140919,6.51E-03,1.65E-02
140920,6.51E-03,1.66E-02
140921,6.51E-03,1.68E-02
140922,6.51E-03,1.69E-02
140923,6.51E-03,1.71E-02
140924,6.51E-03,1.72E-02
140925,6.51E-03,1.74E-02
140926,6.50E-03,1.75E-02
140927,6.50E-03,1.77E-02
140928,6.50E-03,1.78E-02
140929,6.50E-03,1.80E-02
140930,6.50E-03,1.82E-02
140931,6.50E-03,1.83E-02
140932,6.50E-03,1.85E-02
140933,6.50E-03,1.86E-02
140934,6.50E-03,1.88E-02
140935,6.50E-03,1.89E-02
140936,6.50E-03,1.91E-02
140937,6.50E-03,1.93E-02
140938,6.50E-03,1.94E-02
140939,6.50E-03,1.96E-02
140940,6.49E-03,1.97E-02
140941,6.49E-03,1.99E-02
140942,6.49E-03,2.01E-02
140943,6.49E-03,2.02E-02
140944,6.49E-03,2.04E-02
140945,6.49E-03,2.06E-02
140946,6.49E-03,2.08E-02
140947,6.49E-03,2.09E-02
140948,6.49E-03,2.11E-02
140949,6.49E-03,2.13E-02
140950,6.49E-03,2.15E-02
140951,6.49E-03,2.17E-02
140952,6.49E-03,2.19E-02
140953,6.48E-03,2.20E-02
140954,6.48E-03,2.22E-02
140955,6.48E-03,2.24E-02
140956,6.48E-03,2.26E-02
140957,6.48E-03,2.27E-02
140958,6.48E-03,2.28E-02
140959,6.48E-03,2.29E-02
140960,6.48E-03,2.30E-02
140961,6.48E-03,2.31E-02
140962,6.48E-03,2.32E-02
140963,6.48E-03,2.35E-02
140964,6.53E-03,1.27E-02
140965,6.53E-03,1.29E-02
140966,6.53E-03,1.30E-02
140967,6.52E-03,1.32E-02
140968,6.52E-03,1.33E-02
140969,6.52E-03,1.35E-02
140970,6.52E-03,1.37E-02
140971,6.52E-03,1.38E-02
140972,6.52E-03,1.40E-02
140973,6.52E-03,1.41E-02
140974,6.52E-03,1.43E-02
140975,6.52E-03,1.45E-02
140976,6.52E-03,1.46E-02
140977,6.52E-03,1.48E-02
140978,6.52E-03,1.49E-02
140979,6.52E-03,1.51E-02
140980,6.52E-03,1.52E-02
140981,6.51E-03,1.54E-02
140982,6.51E-03,1.55E-02
140983,6.51E-03,1.57E-02
140984,6.51E-03,1.59E-02
140985,6.51E-03,1.60E-02
140986,6.51E-03,1.62E-02
140987,6.51E-03,1.63E-02
140988,6.51E-03,1.65E-02
140989,6.51E-03,1.66E-02
140990,6.51E-03,1.68E-02
140991,6.51E-03,1.69E-02
140992,6.51E-03,1.71E-02
140993,6.51E-03,1.72E-02
140994,6.51E-03,1.74E-02
140995,6.50E-03,1.75E-02
140996,6.50E-03,1.77E-02
140997,6.50E-03,1.79E-02
140998,6.50E-03,1.80E-02
140999,6.50E-03,1.82E-02
141000,6.50E-03,1.83E-02
141001,6.50E-03,1.85E-02
141002,6.50E-03,1.86E-02
141003,6.50E-03,1.88E-02
141004,6.50E-03,1.89E-02
141005,6.50E-03,1.91E-02
141006,6.50E-03,1.92E-02
141007,6.50E-03,1.94E-02
141008,6.50E-03,1.96E-02
141009,6.49E-03,1.97E-02
141010,6.49E-03,1.99E-02
141011,6.49E-03,2.01E-02
141012,6.49E-03,2.02E-02
141013,6.49E-03,2.04E-02
141014,6.49E-03,2.06E-02
141015,6.49E-03,2.07E-02
141016,6.49E-03,2.09E-02
141017,6.49E-03,2.11E-02
141018,6.49E-03,2.13E-02
141019,6.49E-03,2.14E-02
141020,6.49E-03,2.16E-02
141021,6.49E-03,2.18E-02
141022,6.48E-03,2.20E-02
141023,6.48E-03,2.21E-02
141024,6.48E-03,2.23E-02
141025,6.48E-03,2.24E-02
141026,6.48E-03,2.26E-02
141027,6.48E-03,2.27E-02
141028,6.48E-03,2.28E-02
141029,6.48E-03,2.29E-02
141030,6.48E-03,2.30E-02
141031,6.48E-03,2.32E-02
141032,6.48E-03,2.36E-02
141033,6.53E-03,1.27E-02
141034,6.53E-03,1.29E-02
141035,6.53E-03,1.31E-02
141036,6.52E-03,1.32E-02
141037,6.52E-03,1.34E-02
141038,6.52E-03,1.35E-02
141039,6.52E-03,1.37E-02
141040,6.52E-03,1.38E-02
141041,6.52E-03,1.40E-02
141042,6.52E-03,1.42E-02
141043,6.52E-03,1.43E-02
141044,6.52E-03,1.45E-02
141045,6.52E-03,1.46E-02
141046,6.52E-03,1.48E-02
141047,6.52E-03,1.49E-02
141048,6.52E-03,1.51E-02
141049,6.52E-03,1.52E-02
141050,6.51E-03,1.54E-02
141051,6.51E-03,1.56E-02
141052,6.51E-03,1.57E-02
141053,6.51E-03,1.59E-02
141054,6.51E-03,1.60E-02
141055,6.51E-03,1.62E-02
141056,6.51E-03,1.63E-02
141057,6.51E-03,1.65E-02
141058,6.51E-03,1.66E-02
141059,6.51E-03,1.68E-02
141060,6.51E-03,1.69E-02
141061,6.51E-03,1.71E-02
141062,6.51E-03,1.72E-02
141063,6.51E-03,1.74E-02
141064,6.50E-03,1.75E-02
141065,6.50E-03,1.77E-02
141066,6.50E-03,1.79E-02
141067,6.50E-03,1.80E-02
141068,6.50E-03,1.82E-02
141069,6.50E-03,1.83E-02
141070,6.50E-03,1.85E-02
141071,6.50E-03,1.86E-02
141072,6.50E-03,1.88E-02
141073,6.50E-03,1.89E-02
141074,6.50E-03,1.91E-02
141075,6.50E-03,1.92E-02
141076,6.50E-03,1.94E-02
141077,6.50E-03,1.96E-02
141078,6.49E-03,1.97E-02
141079,6.49E-03,1.99E-02
141080,6.49E-03,2.00E-02
141081,6.49E-03,2.02E-02
141082,6.49E-03,2.04E-02
141083,6.49E-03,2.05E-02
141084,6.49E-03,2.07E-02
141085,6.49E-03,2.09E-02
141086,6.49E-03,2.10E-02
141087,6.49E-03,2.12E-02
141088,6.49E-03,2.14E-02
141089,6.49E-03,2.16E-02
141090,6.49E-03,2.17E-02
141091,6.48E-03,2.19E-02
141092,6.48E-03,2.21E-02
141093,6.48E-03,2.22E-02
141094,6.48E-03,2.23E-02
141095,6.48E-03,2.25E-02
141096,6.48E-03,2.26E-02
141097,6.48E-03,2.27E-02
141098,6.48E-03,2.28E-02
141099,6.48E-03,2.29E-02
141100,6.48E-03,2.32E-02
141101,6.48E-03,2.36E-02
141102,6.53E-03,1.28E-02
141103,6.53E-03,1.29E-02
141104,6.53E-03,1.31E-02
141105,6.52E-03,1.32E-02
141106,6.52E-03,1.34E-02
141107,6.52E-03,1.35E-02
141108,6.52E-03,1.37E-02
141109,6.52E-03,1.39E-02
141110,6.52E-03,1.40E-02
141111,6.52E-03,1.42E-02
141112,6.52E-03,1.43E-02
141113,6.52E-03,1.45E-02
141114,6.52E-03,1.46E-02
141115,6.52E-03,1.48E-02
141116,6.52E-03,1.50E-02
141117,6.52E-03,1.51E-02
141118,6.52E-03,1.53E-02
141119,6.51E-03,1.54E-02
141120,6.51E-03,1.56E-02
141121,6.51E-03,1.57E-02
141122,6.51E-03,1.59E-02
141123,6.51E-03,1.60E-02
141124,6.51E-03,1.62E-02
141125,6.51E-03,1.63E-02
141126,6.51E-03,1.65E-02
141127,6.51E-03,1.66E-02
141128,6.51E-03,1.68E-02
141129,6.51E-03,1.69E-02
141130,6.51E-03,1.71E-02
141131,6.51E-03,1.72E-02
141132,6.51E-03,1.74E-02
141133,6.50E-03,1.76E-02
141134,6.50E-03,1.77E-02
141135,6.50E-03,1.79E-02
141136,6.50E-03,1.80E-02
141137,6.50E-03,1.82E-02
141138,6.50E-03,1.83E-02
141139,6.50E-03,1.85E-02
141140,6.50E-03,1.86E-02
141141,6.50E-03,1.88E-02
141142,6.50E-03,1.89E-02
141143,6.50E-03,1.91E-02
141144,6.50E-03,1.92E-02
141145,6.50E-03,1.94E-02
141146,6.50E-03,1.96E-02
141147,6.49E-03,1.97E-02
141148,6.49E-03,1.99E-02
141149,6.49E-03,2.00E-02
141150,6.49E-03,2.02E-02
141151,6.49E-03,2.04E-02
141152,6.49E-03,2.05E-02
141153,6.49E-03,2.07E-02
141154,6.49E-03,2.09E-02
141155,6.49E-03,2.10E-02
141156,6.49E-03,2.12E-02
141157,6.49E-03,2.14E-02
141158,6.49E-03,2.15E-02
141159,6.49E-03,2.17E-02
141160,6.48E-03,2.18E-02
141161,6.48E-03,2.20E-02
141162,6.48E-03,2.21E-02
141163,6.48E-03,2.23E-02
141164,6.48E-03,2.24E-02
141165,6.48E-03,2.25E-02
141166,6.48E-03,2.26E-02
141167,6.48E-03,2.27E-02
141168,6.48E-03,2.29E-02
141169,6.48E-03,2.32E-02
141170,6.48E-03,2.37E-02
141171,6.53E-03,1.28E-02
141172,6.53E-03,1.29E-02
141173,6.53E-03,1.31E-02
141174,6.52E-03,1.33E-02
141175,6.52E-03,1.34E-02
141176,6.52E-03,1.36E-02
141177,6.52E-03,1.37E-02
141178,6.52E-03,1.39E-02
141179,6.52E-03,1.40E-02
141180,6.52E-03,1.42E-02
141181,6.52E-03,1.44E-02
141182,6.52E-03,1.45E-02
141183,6.52E-03,1.47E-02
141184,6.52E-03,1.48E-02
141185,6.52E-03,1.50E-02
141186,6.52E-03,1.51E-02
141187,6.52E-03,1.53E-02
141188,6.51E-03,1.54E-02
141189,6.51E-03,1.56E-02
141190,6.51E-03,1.57E-02
141191,6.51E-03,1.59E-02
141192,6.51E-03,1.60E-02
141193,6.51E-03,1.62E-02
141194,6.51E-03,1.63E-02
141195,6.51E-03,1.65E-02
141196,6.51E-03,1.66E-02
141197,6.51E-03,1.68E-02
141198,6.51E-03,1.70E-02
141199,6.51E-03,1.71E-02
141200,6.51E-03,1.73E-02
141201,6.51E-03,1.74E-02
141202,6.50E-03,1.76E-02
141203,6.50E-03,1.77E-02
141204,6.50E-03,1.79E-02
141205,6.50E-03,1.80E-02
141206,6.50E-03,1.82E-02
141207,6.50E-03,1.83E-02
141208,6.50E-03,1.85E-02
141209,6.50E-03,1.86E-02
141210,6.50E-03,1.88E-02
141211,6.50E-03,1.89E-02
141212,6.50E-03,1.91E-02
141213,6.50E-03,1.92E-02
141214,6.50E-03,1.94E-02
141215,6.50E-03,1.95E-02
141216,6.49E-03,1.97E-02
141217,6.49E-03,1.99E-02
141218,6.49E-03,2.00E-02
141219,6.49E-03,2.02E-02
141220,6.49E-03,2.03E-02
141221,6.49E-03,2.05E-02
141222,6.49E-03,2.07E-02
141223,6.49E-03,2.08E-02
141224,6.49E-03,2.10E-02
141225,6.49E-03,2.12E-02
141226,6.49E-03,2.13E-02
141227,6.49E-03,2.15E-02
141228,6.49E-03,2.16E-02
141229,6.48E-03,2.18E-02
141230,6.48E-03,2.19E-02
141231,6.48E-03,2.21E-02
141232,6.48E-03,2.22E-02
141233,6.48E-03,2.23E-02
141234,6.48E-03,2.24E-02
141235,6.48E-03,2.26E-02
141236,6.48E-03,2.27E-02
141237,6.48E-03,2.29E-02
141238,6.48E-03,2.33E-02
141239,6.48E-03,2.38E-02
141240,6.53E-03,1.28E-02
141241,6.53E-03,1.30E-02
141242,6.53E-03,1.31E-02
141243,6.52E-03,1.33E-02
141244,6.52E-03,1.34E-02
141245,6.52E-03,1.36E-02
141246,6.52E-03,1.37E-02
141247,6.52E-03,1.39E-02
141248,6.52E-03,1.41E-02
141249,6.52E-03,1.42E-02
141250,6.52E-03,1.44E-02
141251,6.52E-03,1.45E-02
141252,6.52E-03,1.47E-02
141253,6.52E-03,1.48E-02
141254,6.52E-03,1.50E-02
141255,6.52E-03,1.51E-02
141256,6.52E-03,1.53E-02
141257,6.51E-03,1.54E-02
141258,6.51E-03,1.56E-02
141259,6.51E-03,1.58E-02
141260,6.51E-03,1.59E-02
141261,6.51E-03,1.61E-02
141262,6.51E-03,1.62E-02
141263,6.51E-03,1.64E-02
141264,6.51E-03,1.65E-02
141265,6.51E-03,1.67E-02
141266,6.51E-03,1.68E-02
141267,6.51E-03,1.70E-02
141268,6.51E-03,1.71E-02
141269,6.51E-03,1.73E-02
141270,6.51E-03,1.74E-02
141271,6.50E-03,1.76E-02
141272,6.50E-03,1.77E-02
141273,6.50E-03,1.79E-02
141274,6.50E-03,1.80E-02
141275,6.50E-03,1.82E-02
141276,6.50E-03,1.83E-02
141277,6.50E-03,1.85E-02
141278,6.50E-03,1.86E-02
141279,6.50E-03,1.88E-02
141280,6.50E-03,1.89E-02
141281,6.50E-03,1.91E-02
141282,6.50E-03,1.92E-02
141283,6.50E-03,1.94E-02
141284,6.50E-03,1.95E-02
141285,6.49E-03,1.97E-02
141286,6.49E-03,1.98E-02
141287,6.49E-03,2.00E-02
141288,6.49E-03,2.02E-02
141289,6.49E-03,2.03E-02
141290,6.49E-03,2.05E-02
141291,6.49E-03,2.06E-02
141292,6.49E-03,2.08E-02
141293,6.49E-03,2.10E-02
141294,6.49E-03,2.11E-02
141295,6.49E-03,2.13E-02
141296,6.49E-03,2.14E-02
141297,6.49E-03,2.16E-02
141298,6.48E-03,2.17E-02
141299,6.48E-03,2.19E-02
141300,6.48E-03,2.20E-02
141301,6.48E-03,2.21E-02
141302,6.48E-03,2.23E-02
141303,6.48E-03,2.24E-02
141304,6.48E-03,2.26E-02
141305,6.48E-03,2.27E-02
141306,6.48E-03,2.30E-02
141307,6.48E-03,2.33E-02
141308,6.48E-03,2.38E-02
141309,6.53E-03,1.28E-02
141310,6.53E-03,1.30E-02
141311,6.53E-03,1.31E-02
141312,6.52E-03,1.33E-02
141313,6.52E-03,1.35E-02
141314,6.52E-03,1.36E-02
141315,6.52E-03,1.38E-02
141316,6.52E-03,1.39E-02
141317,6.52E-03,1.41E-02
141318,6.52E-03,1.42E-02
141319,6.52E-03,1.44E-02
141320,6.52E-03,1.45E-02
141321,6.52E-03,1.47E-02
141322,6.52E-03,1.49E-02
141323,6.52E-03,1.50E-02
141324,6.52E-03,1.52E-02
141325,6.52E-03,1.53E-02
141326,6.51E-03,1.55E-02
141327,6.51E-03,1.56E-02
141328,6.51E-03,1.58E-02
141329,6.51E-03,1.59E-02
141330,6.51E-03,1.61E-02
141331,6.51E-03,1.62E-02
141332,6.51E-03,1.64E-02
141333,6.51E-03,1.65E-02
141334,6.51E-03,1.67E-02
141335,6.51E-03,1.68E-02
141336,6.51E-03,1.70E-02
141337,6.51E-03,1.71E-02
141338,6.51E-03,1.73E-02
141339,6.51E-03,1.74E-02
141340,6.50E-03,1.76E-02
141341,6.50E-03,1.77E-02
141342,6.50E-03,1.79E-02
141343,6.50E-03,1.80E-02
141344,6.50E-03,1.82E-02
141345,6.50E-03,1.83E-02
141346,6.50E-03,1.85E-02
141347,6.50E-03,1.86E-02
141348,6.50E-03,1.88E-02
141349,6.50E-03,1.89E-02
141350,6.50E-03,1.91E-02
141351,6.50E-03,1.92E-02
141352,6.50E-03,1.94E-02
141353,6.50E-03,1.95E-02
141354,6.49E-03,1.97E-02
141355,6.49E-03,1.98E-02
141356,6.49E-03,2.00E-02
141357,6.49E-03,2.01E-02
141358,6.49E-03,2.03E-02
141359,6.49E-03,2.05E-02
141360,6.49E-03,2.06E-02
141361,6.49E-03,2.08E-02
141362,6.49E-03,2.09E-02
141363,6.49E-03,2.11E-02
141364,6.49E-03,2.12E-02
141365,6.49E-03,2.14E-02
141366,6.49E-03,2.15E-02
141367,6.48E-03,2.17E-02
141368,6.48E-03,2.18E-02
141369,6.48E-03,2.20E-02
141370,6.48E-03,2.21E-02
141371,6.48E-03,2.22E-02
141372,6.48E-03,2.24E-02
141373,6.48E-03,2.26E-02
141374,6.48E-03,2.28E-02
141375,6.48E-03,2.30E-02
141376,6.48E-03,2.33E-02
141377,6.48E-03,2.37E-02
141378,6.53E-03,1.29E-02
141379,6.53E-03,1.30E-02
141380,6.53E-03,1.32E-02
141381,6.52E-03,1.33E-02
141382,6.52E-03,1.35E-02
141383,6.52E-03,1.36E-02
141384,6.52E-03,1.38E-02
141385,6.52E-03,1.39E-02
141386,6.52E-03,1.41E-02
141387,6.52E-03,1.43E-02
141388,6.52E-03,1.44E-02
141389,6.52E-03,1.46E-02
141390,6.52E-03,1.47E-02
141391,6.52E-03,1.49E-02
141392,6.52E-03,1.50E-02
141393,6.52E-03,1.52E-02
141394,6.52E-03,1.53E-02
141395,6.51E-03,1.55E-02
141396,6.51E-03,1.56E-02
141397,6.51E-03,1.58E-02
141398,6.51E-03,1.59E-02
141399,6.51E-03,1.61E-02
141400,6.51E-03,1.62E-02
141401,6.51E-03,1.64E-02
141402,6.51E-03,1.65E-02
141403,6.51E-03,1.67E-02
141404,6.51E-03,1.68E-02
141405,6.51E-03,1.70E-02
141406,6.51E-03,1.71E-02
141407,6.51E-03,1.73E-02
141408,6.51E-03,1.74E-02
141409,6.50E-03,1.76E-02
141410,6.50E-03,1.77E-02
141411,6.50E-03,1.79E-02
141412,6.50E-03,1.80E-02
141413,6.50E-03,1.82E-02
141414,6.50E-03,1.83E-02
141415,6.50E-03,1.85E-02
141416,6.50E-03,1.86E-02
141417,6.50E-03,1.88E-02
141418,6.50E-03,1.89E-02
141419,6.50E-03,1.91E-02
141420,6.50E-03,1.92E-02
141421,6.50E-03,1.94E-02
141422,6.50E-03,1.95E-02
141423,6.49E-03,1.97E-02
141424,6.49E-03,1.98E-02
141425,6.49E-03,2.00E-02
141426,6.49E-03,2.01E-02
141427,6.49E-03,2.03E-02
141428,6.49E-03,2.04E-02
141429,6.49E-03,2.06E-02
141430,6.49E-03,2.07E-02
141431,6.49E-03,2.09E-02
141432,6.49E-03,2.11E-02
141433,6.49E-03,2.12E-02
141434,6.49E-03,2.14E-02
141435,6.49E-03,2.15E-02
141436,6.48E-03,2.16E-02
141437,6.48E-03,2.18E-02
141438,6.48E-03,2.19E-02
141439,6.48E-03,2.21E-02
141440,6.48E-03,2.22E-02
141441,6.48E-03,2.24E-02
141442,6.48E-03,2.26E-02
141443,6.48E-03,2.28E-02
141444,6.48E-03,2.30E-02
141445,6.48E-03,2.33E-02
141446,6.48E-03,2.36E-02
141447,6.53E-03,1.29E-02
141448,6.53E-03,1.30E-02
141449,6.53E-03,1.32E-02
141450,6.52E-03,1.33E-02
141451,6.52E-03,1.35E-02
141452,6.52E-03,1.37E-02
141453,6.52E-03,1.38E-02
141454,6.52E-03,1.40E-02
141455,6.52E-03,1.41E-02
141456,6.52E-03,1.43E-02
141457,6.52E-03,1.44E-02
141458,6.52E-03,1.46E-02
141459,6.52E-03,1.47E-02
141460,6.52E-03,1.49E-02
141461,6.52E-03,1.50E-02
141462,6.52E-03,1.52E-02
141463,6.52E-03,1.53E-02
141464,6.51E-03,1.55E-02
141465,6.51E-03,1.56E-02
141466,6.51E-03,1.58E-02
141467,6.51E-03,1.59E-02
141468,6.51E-03,1.61E-02
141469,6.51E-03,1.62E-02
141470,6.51E-03,1.64E-02
141471,6.51E-03,1.65E-02
141472,6.51E-03,1.67E-02
141473,6.51E-03,1.68E-02
141474,6.51E-03,1.70E-02
141475,6.51E-03,1.71E-02
141476,6.51E-03,1.73E-02
141477,6.51E-03,1.74E-02
141478,6.50E-03,1.76E-02
141479,6.50E-03,1.77E-02
141480,6.50E-03,1.79E-02
141481,6.50E-03,1.80E-02
141482,6.50E-03,1.82E-02
141483,6.50E-03,1.83E-02
141484,6.50E-03,1.85E-02
141485,6.50E-03,1.86E-02
141486,6.50E-03,1.88E-02
141487,6.50E-03,1.89E-02
141488,6.50E-03,1.91E-02
141489,6.50E-03,1.92E-02
141490,6.50E-03,1.94E-02
141491,6.50E-03,1.95E-02
141492,6.49E-03,1.97E-02
141493,6.49E-03,1.98E-02
141494,6.49E-03,2.00E-02
141495,6.49E-03,2.01E-02
141496,6.49E-03,2.03E-02
141497,6.49E-03,2.04E-02
141498,6.49E-03,2.06E-02
141499,6.49E-03,2.07E-02
141500,6.49E-03,2.09E-02
141501,6.49E-03,2.10E-02
141502,6.49E-03,2.12E-02
141503,6.49E-03,2.13E-02
141504,6.49E-03,2.15E-02
141505,6.48E-03,2.16E-02
141506,6.48E-03,2.18E-02
141507,6.48E-03,2.19E-02
141508,6.48E-03,2.21E-02
141509,6.48E-03,2.22E-02
141510,6.48E-03,2.24E-02
141511,6.48E-03,2.26E-02
141512,6.48E-03,2.28E-02
141513,6.48E-03,2.30E-02
141514,6.48E-03,2.33E-02
141515,6.48E-03,2.35E-02
141516,6.53E-03,1.29E-02
141517,6.53E-03,1.31E-02
141518,6.53E-03,1.32E-02
141519,6.52E-03,1.34E-02
141520,6.52E-03,1.35E-02
141521,6.52E-03,1.37E-02
141522,6.52E-03,1.38E-02
141523,6.52E-03,1.40E-02
141524,6.52E-03,1.41E-02
141525,6.52E-03,1.43E-02
141526,6.52E-03,1.44E-02
141527,6.52E-03,1.46E-02
141528,6.52E-03,1.48E-02
141529,6.52E-03,1.49E-02
141530,6.52E-03,1.51E-02
141531,6.52E-03,1.52E-02
141532,6.52E-03,1.54E-02
141533,6.51E-03,1.55E-02
141534,6.51E-03,1.57E-02
141535,6.51E-03,1.58E-02
141536,6.51E-03,1.60E-02
141537,6.51E-03,1.61E-02
141538,6.51E-03,1.63E-02
141539,6.51E-03,1.64E-02
141540,6.51E-03,1.65E-02
141541,6.51E-03,1.67E-02
141542,6.51E-03,1.68E-02
141543,6.51E-03,1.70E-02
141544,6.51E-03,1.71E-02
141545,6.51E-03,1.73E-02
141546,6.51E-03,1.74E-02
141547,6.50E-03,1.76E-02
141548,6.50E-03,1.77E-02
141549,6.50E-03,1.79E-02
141550,6.50E-03,1.80E-02
141551,6.50E-03,1.82E-02
141552,6.50E-03,1.83E-02
141553,6.50E-03,1.85E-02
141554,6.50E-03,1.86E-02
141555,6.50E-03,1.88E-02
141556,6.50E-03,1.89E-02
141557,6.50E-03,1.91E-02
141558,6.50E-03,1.92E-02
141559,6.50E-03,1.93E-02
141560,6.50E-03,1.95E-02
141561,6.49E-03,1.96E-02
141562,6.49E-03,1.98E-02
141563,6.49E-03,1.99E-02
141564,6.49E-03,2.01E-02
141565,6.49E-03,2.02E-02
141566,6.49E-03,2.04E-02
141567,6.49E-03,2.05E-02
141568,6.49E-03,2.07E-02
141569,6.49E-03,2.08E-02
141570,6.49E-03,2.10E-02
141571,6.49E-03,2.11E-02
141572,6.49E-03,2.13E-02
141573,6.49E-03,2.14E-02
141574,6.48E-03,2.16E-02
141575,6.48E-03,2.17E-02
141576,6.48E-03,2.19E-02
141577,6.48E-03,2.20E-02
141578,6.48E-03,2.22E-02
141579,6.48E-03,2.24E-02
141580,6.48E-03,2.26E-02
141581,6.48E-03,2.28E-02
141582,6.48E-03,2.30E-02
141583,6.48E-03,2.32E-02
141584,6.48E-03,2.33E-02
141585,6.53E-03,1.29E-02
141586,6.53E-03,1.31E-02
141587,6.53E-03,1.32E-02
141588,6.52E-03,1.34E-02
141589,6.52E-03,1.36E-02
141590,6.52E-03,1.37E-02
141591,6.52E-03,1.39E-02
141592,6.52E-03,1.40E-02
141593,6.52E-03,1.42E-02
141594,6.52E-03,1.43E-02
141595,6.52E-03,1.45E-02
141596,6.52E-03,1.46E-02
141597,6.52E-03,1.48E-02
141598,6.52E-03,1.49E-02
141599,6.52E-03,1.51E-02
141600,6.52E-03,1.52E-02
141601,6.52E-03,1.54E-02
141602,6.51E-03,1.55E-02
141603,6.51E-03,1.57E-02
141604,6.51E-03,1.58E-02
141605,6.51E-03,1.60E-02
141606,6.51E-03,1.61E-02
141607,6.51E-03,1.63E-02
141608,6.51E-03,1.64E-02
141609,6.51E-03,1.66E-02
141610,6.51E-03,1.67E-02
141611,6.51E-03,1.69E-02
141612,6.51E-03,1.70E-02
141613,6.51E-03,1.71E-02
141614,6.51E-03,1.73E-02
141615,6.51E-03,1.74E-02
141616,6.50E-03,1.76E-02
141617,6.50E-03,1.77E-02
141618,6.50E-03,1.79E-02
141619,6.50E-03,1.80E-02
141620,6.50E-03,1.82E-02
141621,6.50E-03,1.83E-02
141622,6.50E-03,1.85E-02
141623,6.50E-03,1.86E-02
141624,6.50E-03,1.88E-02
141625,6.50E-03,1.89E-02
141626,6.50E-03,1.90E-02
141627,6.50E-03,1.92E-02
141628,6.50E-03,1.93E-02
141629,6.50E-03,1.95E-02
141630,6.49E-03,1.96E-02
141631,6.49E-03,1.98E-02
141632,6.49E-03,1.99E-02
141633,6.49E-03,2.01E-02
141634,6.49E-03,2.02E-02
141635,6.49E-03,2.04E-02
141636,6.49E-03,2.05E-02
141637,6.49E-03,2.07E-02
141638,6.49E-03,2.08E-02
141639,6.49E-03,2.10E-02
141640,6.49E-03,2.11E-02
141641,6.49E-03,2.13E-02
141642,6.49E-03,2.14E-02
141643,6.48E-03,2.16E-02
141644,6.48E-03,2.17E-02
141645,6.48E-03,2.19E-02
141646,6.48E-03,2.20E-02
141647,6.48E-03,2.22E-02
141648,6.48E-03,2.24E-02
141649,6.48E-03,2.25E-02
141650,6.48E-03,2.27E-02
141651,6.48E-03,2.29E-02
141652,6.48E-03,2.31E-02
141653,6.48E-03,2.31E-02
141654,6.53E-03,1.30E-02
141655,6.53E-03,1.31E-02
141656,6.53E-03,1.33E-02
141657,6.52E-03,1.34E-02
141658,6.52E-03,1.36E-02
141659,6.52E-03,1.37E-02
141660,6.52E-03,1.39E-02
141661,6.52E-03,1.40E-02
141662,6.52E-03,1.42E-02
141663,6.52E-03,1.43E-02
141664,6.52E-03,1.45E-02
141665,6.52E-03,1.46E-02
141666,6.52E-03,1.48E-02
141667,6.52E-03,1.49E-02
141668,6.52E-03,1.51E-02
141669,6.52E-03,1.52E-02
141670,6.52E-03,1.54E-02
141671,6.51E-03,1.55E-02
141672,6.51E-03,1.57E-02
141673,6.51E-03,1.58E-02
141674,6.51E-03,1.60E-02
141675,6.51E-03,1.61E-02
141676,6.51E-03,1.63E-02
141677,6.51E-03,1.64E-02
141678,6.51E-03,1.66E-02
141679,6.51E-03,1.67E-02
141680,6.51E-03,1.69E-02
141681,6.51E-03,1.70E-02
141682,6.51E-03,1.72E-02
141683,6.51E-03,1.73E-02
141684,6.51E-03,1.74E-02
141685,6.50E-03,1.76E-02
141686,6.50E-03,1.77E-02
141687,6.50E-03,1.79E-02
141688,6.50E-03,1.80E-02
141689,6.50E-03,1.82E-02
141690,6.50E-03,1.83E-02
141691,6.50E-03,1.85E-02
141692,6.50E-03,1.86E-02
141693,6.50E-03,1.87E-02
141694,6.50E-03,1.89E-02
141695,6.50E-03,1.90E-02
141696,6.50E-03,1.92E-02
141697,6.50E-03,1.93E-02
141698,6.50E-03,1.95E-02
141699,6.49E-03,1.96E-02
141700,6.49E-03,1.98E-02
141701,6.49E-03,1.99E-02
141702,6.49E-03,2.01E-02
141703,6.49E-03,2.02E-02
141704,6.49E-03,2.04E-02
141705,6.49E-03,2.05E-02
141706,6.49E-03,2.06E-02
141707,6.49E-03,2.08E-02
141708,6.49E-03,2.09E-02
141709,6.49E-03,2.11E-02
141710,6.49E-03,2.12E-02
141711,6.49E-03,2.14E-02
141712,6.48E-03,2.15E-02
141713,6.48E-03,2.17E-02
141714,6.48E-03,2.18E-02
141715,6.48E-03,2.20E-02
141716,6.48E-03,2.22E-02
141717,6.48E-03,2.23E-02
141718,6.48E-03,2.25E-02
141719,6.48E-03,2.27E-02
141720,6.48E-03,2.28E-02
141721,6.48E-03,2.29E-02
141722,6.48E-03,2.30E-02
141723,6.53E-03,1.30E-02
141724,6.53E-03,1.31E-02
141725,6.53E-03,1.33E-02
141726,6.52E-03,1.34E-02
141727,6.52E-03,1.36E-02
141728,6.52E-03,1.38E-02
141729,6.52E-03,1.39E-02
141730,6.52E-03,1.41E-02
141731,6.52E-03,1.42E-02
141732,6.52E-03,1.44E-02
141733,6.52E-03,1.45E-02
141734,6.52E-03,1.47E-02
141735,6.52E-03,1.48E-02
141736,6.52E-03,1.50E-02
141737,6.52E-03,1.51E-02
141738,6.52E-03,1.53E-02
141739,6.52E-03,1.54E-02
141740,6.51E-03,1.56E-02
141741,6.51E-03,1.57E-02
141742,6.51E-03,1.59E-02
141743,6.51E-03,1.60E-02
141744,6.51E-03,1.61E-02
141745,6.51E-03,1.63E-02
141746,6.51E-03,1.64E-02
141747,6.51E-03,1.66E-02
141748,6.51E-03,1.67E-02
141749,6.51E-03,1.69E-02
141750,6.51E-03,1.70E-02
141751,6.51E-03,1.72E-02
141752,6.51E-03,1.73E-02
141753,6.51E-03,1.75E-02
141754,6.50E-03,1.76E-02
141755,6.50E-03,1.77E-02
141756,6.50E-03,1.79E-02
141757,6.50E-03,1.80E-02
141758,6.50E-03,1.82E-02
141759,6.50E-03,1.83E-02
141760,6.50E-03,1.85E-02
141761,6.50E-03,1.86E-02
141762,6.50E-03,1.87E-02
141763,6.50E-03,1.89E-02
141764,6.50E-03,1.90E-02
141765,6.50E-03,1.92E-02
141766,6.50E-03,1.93E-02
141767,6.50E-03,1.95E-02
141768,6.49E-03,1.96E-02
141769,6.49E-03,1.98E-02
141770,6.49E-03,1.99E-02
141771,6.49E-03,2.00E-02
141772,6.49E-03,2.02E-02
141773,6.49E-03,2.03E-02
141774,6.49E-03,2.05E-02
141775,6.49E-03,2.06E-02
141776,6.49E-03,2.08E-02
141777,6.49E-03,2.09E-02
141778,6.49E-03,2.11E-02
141779,6.49E-03,2.12E-02
141780,6.49E-03,2.13E-02
141781,6.48E-03,2.15E-02
141782,6.48E-03,2.16E-02
141783,6.48E-03,2.18E-02
141784,6.48E-03,2.20E-02
141785,6.48E-03,2.21E-02
141786,6.48E-03,2.23E-02
141787,6.48E-03,2.25E-02
141788,6.48E-03,2.26E-02
141789,6.48E-03,2.27E-02
141790,6.48E-03,2.28E-02
141791,6.48E-03,2.29E-02
141792,6.53E-03,1.30E-02
141793,6.53E-03,1.32E-02
141794,6.53E-03,1.33E-02
141795,6.52E-03,1.35E-02
141796,6.52E-03,1.36E-02
141797,6.52E-03,1.38E-02
141798,6.52E-03,1.39E-02
141799,6.52E-03,1.41E-02
141800,6.52E-03,1.42E-02
141801,6.52E-03,1.44E-02
141802,6.52E-03,1.45E-02
141803,6.52E-03,1.47E-02
141804,6.52E-03,1.48E-02
141805,6.52E-03,1.50E-02
141806,6.52E-03,1.51E-02
141807,6.52E-03,1.53E-02
141808,6.52E-03,1.54E-02
141809,6.51E-03,1.56E-02
141810,6.51E-03,1.57E-02
141811,6.51E-03,1.59E-02
141812,6.51E-03,1.60E-02
141813,6.51E-03,1.62E-02
141814,6.51E-03,1.63E-02
141815,6.51E-03,1.64E-02
141816,6.51E-03,1.66E-02
141817,6.51E-03,1.67E-02
141818,6.51E-03,1.69E-02
141819,6.51E-03,1.70E-02
141820,6.51E-03,1.72E-02
141821,6.51E-03,1.73E-02
141822,6.51E-03,1.75E-02
141823,6.50E-03,1.76E-02
141824,6.50E-03,1.77E-02
141825,6.50E-03,1.79E-02
141826,6.50E-03,1.80E-02
141827,6.50E-03,1.82E-02
141828,6.50E-03,1.83E-02
141829,6.50E-03,1.85E-02
141830,6.50E-03,1.86E-02
141831,6.50E-03,1.87E-02
141832,6.50E-03,1.89E-02
141833,6.50E-03,1.90E-02
141834,6.50E-03,1.92E-02
141835,6.50E-03,1.93E-02
141836,6.50E-03,1.95E-02
141837,6.49E-03,1.96E-02
141838,6.49E-03,1.97E-02
141839,6.49E-03,1.99E-02
141840,6.49E-03,2.00E-02
141841,6.49E-03,2.02E-02
141842,6.49E-03,2.03E-02
141843,6.49E-03,2.05E-02
141844,6.49E-03,2.06E-02
141845,6.49E-03,2.07E-02
141846,6.49E-03,2.09E-02
141847,6.49E-03,2.10E-02
141848,6.49E-03,2.12E-02
141849,6.49E-03,2.13E-02
141850,6.48E-03,2.15E-02
141851,6.48E-03,2.16E-02
141852,6.48E-03,2.18E-02
141853,6.48E-03,2.19E-02
141854,6.48E-03,2.21E-02
141855,6.48E-03,2.22E-02
141856,6.48E-03,2.24E-02
141857,6.48E-03,2.25E-02
141858,6.48E-03,2.26E-02
141859,6.48E-03,2.27E-02
141860,6.53E-03,1.30E-02
141861,6.53E-03,1.32E-02
141862,6.53E-03,1.33E-02
141863,6.52E-03,1.35E-02
141864,6.52E-03,1.36E-02
141865,6.52E-03,1.38E-02
141866,6.52E-03,1.40E-02
141867,6.52E-03,1.41E-02
141868,6.52E-03,1.43E-02
141869,6.52E-03,1.44E-02
141870,6.52E-03,1.46E-02
141871,6.52E-03,1.47E-02
141872,6.52E-03,1.49E-02
141873,6.52E-03,1.50E-02
141874,6.52E-03,1.51E-02
141875,6.52E-03,1.53E-02
141876,6.52E-03,1.54E-02
141877,6.51E-03,1.56E-02
141878,6.51E-03,1.57E-02
141879,6.51E-03,1.59E-02
141880,6.51E-03,1.60E-02
141881,6.51E-03,1.62E-02
141882,6.51E-03,1.63E-02
141883,6.51E-03,1.65E-02
141884,6.51E-03,1.66E-02
141885,6.51E-03,1.67E-02
141886,6.51E-03,1.69E-02
141887,6.51E-03,1.70E-02
141888,6.51E-03,1.72E-02
141889,6.51E-03,1.73E-02
141890,6.51E-03,1.75E-02
141891,6.50E-03,1.76E-02
141892,6.50E-03,1.77E-02
141893,6.50E-03,1.79E-02
141894,6.50E-03,1.80E-02
141895,6.50E-03,1.82E-02
141896,6.50E-03,1.83E-02
141897,6.50E-03,1.85E-02
141898,6.50E-03,1.86E-02
141899,6.50E-03,1.87E-02
141900,6.50E-03,1.89E-02
141901,6.50E-03,1.90E-02
141902,6.50E-03,1.92E-02
141903,6.50E-03,1.93E-02
141904,6.50E-03,1.94E-02
141905,6.49E-03,1.96E-02
141906,6.49E-03,1.97E-02
141907,6.49E-03,1.99E-02
141908,6.49E-03,2.00E-02
141909,6.49E-03,2.01E-02
141910,6.49E-03,2.03E-02
141911,6.49E-03,2.04E-02
141912,6.49E-03,2.06E-02
141913,6.49E-03,2.07E-02
141914,6.49E-03,2.08E-02
141915,6.49E-03,2.10E-02
141916,6.49E-03,2.11E-02
141917,6.49E-03,2.13E-02
141918,6.48E-03,2.14E-02
141919,6.48E-03,2.16E-02
141920,6.48E-03,2.17E-02
141921,6.48E-03,2.19E-02
141922,6.48E-03,2.20E-02
141923,6.48E-03,2.22E-02
141924,6.48E-03,2.23E-02
141925,6.48E-03,2.24E-02
141926,6.48E-03,2.26E-02
141927,6.48E-03,2.26E-02
141928,6.48E-03,2.27E-02
141929,6.53E-03,1.31E-02
141930,6.53E-03,1.32E-02
141931,6.53E-03,1.34E-02
141932,6.52E-03,1.35E-02
141933,6.52E-03,1.37E-02
141934,6.52E-03,1.38E-02
141935,6.52E-03,1.40E-02
141936,6.52E-03,1.41E-02
141937,6.52E-03,1.43E-02
141938,6.52E-03,1.44E-02
141939,6.52E-03,1.46E-02
141940,6.52E-03,1.47E-02
141941,6.52E-03,1.49E-02
141942,6.52E-03,1.50E-02
141943,6.52E-03,1.52E-02
141944,6.52E-03,1.53E-02
141945,6.52E-03,1.55E-02
141946,6.51E-03,1.56E-02
141947,6.51E-03,1.58E-02
141948,6.51E-03,1.59E-02
141949,6.51E-03,1.60E-02
141950,6.51E-03,1.62E-02
141951,6.51E-03,1.63E-02
141952,6.51E-03,1.65E-02
141953,6.51E-03,1.66E-02
141954,6.51E-03,1.68E-02
141955,6.51E-03,1.69E-02
141956,6.51E-03,1.70E-02
141957,6.51E-03,1.72E-02
141958,6.51E-03,1.73E-02
141959,6.51E-03,1.75E-02
141960,6.50E-03,1.76E-02
141961,6.50E-03,1.77E-02
141962,6.50E-03,1.79E-02
141963,6.50E-03,1.80E-02
141964,6.50E-03,1.82E-02
141965,6.50E-03,1.83E-02
141966,6.50E-03,1.85E-02
141967,6.50E-03,1.86E-02
141968,6.50E-03,1.87E-02
141969,6.50E-03,1.89E-02
141970,6.50E-03,1.90E-02
141971,6.50E-03,1.92E-02
141972,6.50E-03,1.93E-02
141973,6.50E-03,1.94E-02
141974,6.49E-03,1.96E-02
141975,6.49E-03,1.97E-02
141976,6.49E-03,1.98E-02
141977,6.49E-03,2.00E-02
141978,6.49E-03,2.01E-02
141979,6.49E-03,2.03E-02
141980,6.49E-03,2.04E-02
141981,6.49E-03,2.05E-02
141982,6.49E-03,2.07E-02
141983,6.49E-03,2.08E-02
141984,6.49E-03,2.10E-02
141985,6.49E-03,2.11E-02
141986,6.49E-03,2.12E-02
141987,6.48E-03,2.14E-02
141988,6.48E-03,2.15E-02
141989,6.48E-03,2.17E-02
141990,6.48E-03,2.18E-02
141991,6.48E-03,2.20E-02
141992,6.48E-03,2.21E-02
141993,6.48E-03,2.22E-02
141994,6.48E-03,2.24E-02
141995,6.48E-03,2.25E-02
141996,6.48E-03,2.25E-02
141997,6.53E-03,1.31E-02
141998,6.53E-03,1.32E-02
141999,6.53E-03,1.34E-02
142000,6.52E-03,1.35E-02
142001,6.52E-03,1.37E-02
142002,6.52E-03,1.38E-02
142003,6.52E-03,1.40E-02
142004,6.52E-03,1.42E-02
142005,6.52E-03,1.43E-02
142006,6.52E-03,1.44E-02
142007,6.52E-03,1.46E-02
142008,6.52E-03,1.47E-02
142009,6.52E-03,1.49E-02
142010,6.52E-03,1.50E-02
142011,6.52E-03,1.52E-02
142012,6.52E-03,1.53E-02
142013,6.52E-03,1.55E-02
142014,6.51E-03,1.56E-02
142015,6.51E-03,1.58E-02
142016,6.51E-03,1.59E-02
142017,6.51E-03,1.61E-02
142018,6.51E-03,1.62E-02
142019,6.51E-03,1.63E-02
142020,6.51E-03,1.65E-02
142021,6.51E-03,1.66E-02
142022,6.51E-03,1.68E-02
142023,6.51E-03,1.69E-02
142024,6.51E-03,1.70E-02
142025,6.51E-03,1.72E-02
142026,6.51E-03,1.73E-02
142027,6.51E-03,1.75E-02
142028,6.50E-03,1.76E-02
142029,6.50E-03,1.78E-02
142030,6.50E-03,1.79E-02
142031,6.50E-03,1.80E-02
142032,6.50E-03,1.82E-02
142033,6.50E-03,1.83E-02
142034,6.50E-03,1.85E-02
142035,6.50E-03,1.86E-02
142036,6.50E-03,1.87E-02
142037,6.50E-03,1.89E-02
142038,6.50E-03,1.90E-02
142039,6.50E-03,1.91E-02
142040,6.50E-03,1.93E-02
142041,6.50E-03,1.94E-02
142042,6.49E-03,1.96E-02
142043,6.49E-03,1.97E-02
142044,6.49E-03,1.98E-02
142045,6.49E-03,2.00E-02
142046,6.49E-03,2.01E-02
142047,6.49E-03,2.02E-02
142048,6.49E-03,2.04E-02
142049,6.49E-03,2.05E-02
142050,6.49E-03,2.07E-02
142051,6.49E-03,2.08E-02
142052,6.49E-03,2.09E-02
142053,6.49E-03,2.11E-02
142054,6.49E-03,2.12E-02
142055,6.48E-03,2.13E-02
142056,6.48E-03,2.15E-02
142057,6.48E-03,2.16E-02
142058,6.48E-03,2.18E-02
142059,6.48E-03,2.19E-02
142060,6.48E-03,2.20E-02
142061,6.48E-03,2.22E-02
142062,6.48E-03,2.23E-02
142063,6.48E-03,2.24E-02
142064,6.48E-03,2.25E-02
142065,6.48E-03,2.25E-02
142066,6.53E-03,1.31E-02
142067,6.53E-03,1.33E-02
142068,6.53E-03,1.34E-02
142069,6.52E-03,1.36E-02
142070,6.52E-03,1.37E-02
142071,6.52E-03,1.39E-02
142072,6.52E-03,1.40E-02
142073,6.52E-03,1.42E-02
142074,6.52E-03,1.43E-02
142075,6.52E-03,1.45E-02
142076,6.52E-03,1.46E-02
142077,6.52E-03,1.48E-02
142078,6.52E-03,1.49E-02
142079,6.52E-03,1.51E-02
142080,6.52E-03,1.52E-02
142081,6.52E-03,1.54E-02
142082,6.52E-03,1.55E-02
142083,6.51E-03,1.56E-02
142084,6.51E-03,1.58E-02
142085,6.51E-03,1.59E-02
142086,6.51E-03,1.61E-02
142087,6.51E-03,1.62E-02
142088,6.51E-03,1.64E-02
142089,6.51E-03,1.65E-02
142090,6.51E-03,1.66E-02
142091,6.51E-03,1.68E-02
142092,6.51E-03,1.69E-02
142093,6.51E-03,1.71E-02
142094,6.51E-03,1.72E-02
142095,6.51E-03,1.73E-02
142096,6.51E-03,1.75E-02
142097,6.50E-03,1.76E-02
142098,6.50E-03,1.78E-02
142099,6.50E-03,1.79E-02
142100,6.50E-03,1.80E-02
142101,6.50E-03,1.82E-02
142102,6.50E-03,1.83E-02
142103,6.50E-03,1.84E-02
142104,6.50E-03,1.86E-02
142105,6.50E-03,1.87E-02
142106,6.50E-03,1.89E-02
142107,6.50E-03,1.90E-02
142108,6.50E-03,1.91E-02
142109,6.50E-03,1.93E-02
142110,6.50E-03,1.94E-02
142111,6.49E-03,1.95E-02
142112,6.49E-03,1.97E-02
142113,6.49E-03,1.98E-02
142114,6.49E-03,2.00E-02
142115,6.49E-03,2.01E-02
142116,6.49E-03,2.02E-02
142117,6.49E-03,2.04E-02
142118,6.49E-03,2.05E-02
142119,6.49E-03,2.06E-02
142120,6.49E-03,2.08E-02
142121,6.49E-03,2.09E-02
142122,6.49E-03,2.10E-02
142123,6.49E-03,2.12E-02
142124,6.48E-03,2.13E-02
142125,6.48E-03,2.14E-02
142126,6.48E-03,2.16E-02
142127,6.48E-03,2.17E-02
142128,6.48E-03,2.19E-02
142129,6.48E-03,2.20E-02
142130,6.48E-03,2.21E-02
142131,6.48E-03,2.22E-02
142132,6.48E-03,2.23E-02
142133,6.48E-03,2.24E-02
142134,6.48E-03,2.25E-02
142135,6.53E-03,1.32E-02
142136,6.53E-03,1.33E-02
142137,6.53E-03,1.35E-02
142138,6.52E-03,1.36E-02
142139,6.52E-03,1.38E-02
142140,6.52E-03,1.39E-02
142141,6.52E-03,1.41E-02
142142,6.52E-03,1.42E-02
142143,6.52E-03,1.43E-02
142144,6.52E-03,1.45E-02
142145,6.52E-03,1.46E-02
142146,6.52E-03,1.48E-02
142147,6.52E-03,1.49E-02
142148,6.52E-03,1.51E-02
142149,6.52E-03,1.52E-02
142150,6.52E-03,1.54E-02
142151,6.52E-03,1.55E-02
142152,6.51E-03,1.57E-02
142153,6.51E-03,1.58E-02
142154,6.51E-03,1.59E-02
142155,6.51E-03,1.61E-02
142156,6.51E-03,1.62E-02
142157,6.51E-03,1.64E-02
142158,6.51E-03,1.65E-02
142159,6.51E-03,1.66E-02
142160,6.51E-03,1.68E-02
142161,6.51E-03,1.69E-02
142162,6.51E-03,1.71E-02
142163,6.51E-03,1.72E-02
142164,6.51E-03,1.73E-02
142165,6.51E-03,1.75E-02
142166,6.50E-03,1.76E-02
142167,6.50E-03,1.78E-02
142168,6.50E-03,1.79E-02
142169,6.50E-03,1.80E-02
142170,6.50E-03,1.82E-02
142171,6.50E-03,1.83E-02
142172,6.50E-03,1.84E-02
142173,6.50E-03,1.86E-02
142174,6.50E-03,1.87E-02
142175,6.50E-03,1.89E-02
142176,6.50E-03,1.90E-02
142177,6.50E-03,1.91E-02
142178,6.50E-03,1.93E-02
142179,6.50E-03,1.94E-02
142180,6.49E-03,1.95E-02
142181,6.49E-03,1.97E-02
142182,6.49E-03,1.98E-02
142183,6.49E-03,1.99E-02
142184,6.49E-03,2.01E-02
142185,6.49E-03,2.02E-02
142186,6.49E-03,2.03E-02
142187,6.49E-03,2.05E-02
142188,6.49E-03,2.06E-02
142189,6.49E-03,2.07E-02
142190,6.49E-03,2.09E-02
142191,6.49E-03,2.10E-02
142192,6.49E-03,2.11E-02
142193,6.48E-03,2.13E-02
142194,6.48E-03,2.14E-02
142195,6.48E-03,2.15E-02
142196,6.48E-03,2.17E-02
142197,6.48E-03,2.18E-02
142198,6.48E-03,2.19E-02
142199,6.48E-03,2.20E-02
142200,6.48E-03,2.21E-02
142201,6.48E-03,2.22E-02
142202,6.48E-03,2.23E-02
142203,6.48E-03,2.24E-02
142204,6.53E-03,1.32E-02
142205,6.53E-03,1.33E-02
142206,6.53E-03,1.35E-02
142207,6.52E-03,1.36E-02
142208,6.52E-03,1.38E-02
142209,6.52E-03,1.39E-02
142210,6.52E-03,1.41E-02
142211,6.52E-03,1.42E-02
142212,6.52E-03,1.44E-02
142213,6.52E-03,1.45E-02
142214,6.52E-03,1.47E-02
142215,6.52E-03,1.48E-02
142216,6.52E-03,1.50E-02
142217,6.52E-03,1.51E-02
142218,6.52E-03,1.52E-02
142219,6.52E-03,1.54E-02
142220,6.52E-03,1.55E-02
142221,6.51E-03,1.57E-02
142222,6.51E-03,1.58E-02
142223,6.51E-03,1.60E-02
142224,6.51E-03,1.61E-02
142225,6.51E-03,1.62E-02
142226,6.51E-03,1.64E-02
142227,6.51E-03,1.65E-02
142228,6.51E-03,1.67E-02
142229,6.51E-03,1.68E-02
142230,6.51E-03,1.69E-02
142231,6.51E-03,1.71E-02
142232,6.51E-03,1.72E-02
142233,6.51E-03,1.74E-02
142234,6.51E-03,1.75E-02
142235,6.50E-03,1.76E-02
142236,6.50E-03,1.78E-02
142237,6.50E-03,1.79E-02
142238,6.50E-03,1.80E-02
142239,6.50E-03,1.82E-02
142240,6.50E-03,1.83E-02
142241,6.50E-03,1.84E-02
142242,6.50E-03,1.86E-02
142243,6.50E-03,1.87E-02
142244,6.50E-03,1.88E-02
142245,6.50E-03,1.90E-02
142246,6.50E-03,1.91E-02
142247,6.50E-03,1.93E-02
142248,6.50E-03,1.94E-02
142249,6.49E-03,1.95E-02
142250,6.49E-03,1.97E-02
142251,6.49E-03,1.98E-02
142252,6.49E-03,1.99E-02
142253,6.49E-03,2.00E-02
142254,6.49E-03,2.02E-02
142255,6.49E-03,2.03E-02
142256,6.49E-03,2.04E-02
142257,6.49E-03,2.06E-02
142258,6.49E-03,2.07E-02
142259,6.49E-03,2.08E-02
142260,6.49E-03,2.10E-02
142261,6.49E-03,2.11E-02
142262,6.48E-03,2.12E-02
142263,6.48E-03,2.13E-02
142264,6.48E-03,2.15E-02
142265,6.48E-03,2.16E-02
142266,6.48E-03,2.17E-02
142267,6.48E-03,2.18E-02
142268,6.48E-03,2.20E-02
142269,6.48E-03,2.21E-02
142270,6.48E-03,2.22E-02
142271,6.48E-03,2.23E-02
142272,6.48E-03,2.24E-02
142273,6.53E-03,1.32E-02
142274,6.53E-03,1.34E-02
142275,6.53E-03,1.35E-02
142276,6.52E-03,1.37E-02
142277,6.52E-03,1.38E-02
142278,6.52E-03,1.40E-02
142279,6.52E-03,1.41E-02
142280,6.52E-03,1.42E-02
142281,6.52E-03,1.44E-02
142282,6.52E-03,1.45E-02
142283,6.52E-03,1.47E-02
142284,6.52E-03,1.48E-02
142285,6.52E-03,1.50E-02
142286,6.52E-03,1.51E-02
142287,6.52E-03,1.53E-02
142288,6.52E-03,1.54E-02
142289,6.52E-03,1.55E-02
142290,6.51E-03,1.57E-02
142291,6.51E-03,1.58E-02
142292,6.51E-03,1.60E-02
142293,6.51E-03,1.61E-02
142294,6.51E-03,1.63E-02
142295,6.51E-03,1.64E-02
142296,6.51E-03,1.65E-02
142297,6.51E-03,1.67E-02
142298,6.51E-03,1.68E-02
142299,6.51E-03,1.69E-02
142300,6.51E-03,1.71E-02
142301,6.51E-03,1.72E-02
142302,6.51E-03,1.74E-02
142303,6.51E-03,1.75E-02
142304,6.50E-03,1.76E-02
142305,6.50E-03,1.78E-02
142306,6.50E-03,1.79E-02
142307,6.50E-03,1.80E-02
142308,6.50E-03,1.82E-02
142309,6.50E-03,1.83E-02
142310,6.50E-03,1.84E-02
142311,6.50E-03,1.86E-02
142312,6.50E-03,1.87E-02
142313,6.50E-03,1.88E-02
142314,6.50E-03,1.90E-02
142315,6.50E-03,1.91E-02
142316,6.50E-03,1.92E-02
142317,6.50E-03,1.94E-02
142318,6.49E-03,1.95E-02
142319,6.49E-03,1.96E-02
142320,6.49E-03,1.98E-02
142321,6.49E-03,1.99E-02
142322,6.49E-03,2.00E-02
142323,6.49E-03,2.02E-02
142324,6.49E-03,2.03E-02
142325,6.49E-03,2.04E-02
142326,6.49E-03,2.05E-02
142327,6.49E-03,2.07E-02
142328,6.49E-03,2.08E-02
142329,6.49E-03,2.09E-02
142330,6.49E-03,2.10E-02
142331,6.48E-03,2.12E-02
142332,6.48E-03,2.13E-02
142333,6.48E-03,2.14E-02
142334,6.48E-03,2.15E-02
142335,6.48E-03,2.17E-02
142336,6.48E-03,2.18E-02
142337,6.48E-03,2.19E-02
142338,6.48E-03,2.20E-02
142339,6.48E-03,2.21E-02
142340,6.48E-03,2.22E-02
142341,6.48E-03,2.23E-02
142342,6.53E-03,1.32E-02
142343,6.53E-03,1.34E-02
142344,6.53E-03,1.35E-02
142345,6.52E-03,1.37E-02
142346,6.52E-03,1.38E-02
142347,6.52E-03,1.40E-02
142348,6.52E-03,1.41E-02
142349,6.52E-03,1.43E-02
142350,6.52E-03,1.44E-02
142351,6.52E-03,1.46E-02
142352,6.52E-03,1.47E-02
142353,6.52E-03,1.49E-02
142354,6.52E-03,1.50E-02
142355,6.52E-03,1.51E-02
142356,6.52E-03,1.53E-02
142357,6.52E-03,1.54E-02
142358,6.52E-03,1.56E-02
142359,6.51E-03,1.57E-02
142360,6.51E-03,1.58E-02
142361,6.51E-03,1.60E-02
142362,6.51E-03,1.61E-02
142363,6.51E-03,1.63E-02
142364,6.51E-03,1.64E-02
142365,6.51E-03,1.65E-02
142366,6.51E-03,1.67E-02
142367,6.51E-03,1.68E-02
142368,6.51E-03,1.70E-02
142369,6.51E-03,1.71E-02
142370,6.51E-03,1.72E-02
142371,6.51E-03,1.74E-02
142372,6.51E-03,1.75E-02
142373,6.50E-03,1.76E-02
142374,6.50E-03,1.78E-02
142375,6.50E-03,1.79E-02
142376,6.50E-03,1.80E-02
142377,6.50E-03,1.82E-02
142378,6.50E-03,1.83E-02
142379,6.50E-03,1.84E-02
142380,6.50E-03,1.86E-02
142381,6.50E-03,1.87E-02
142382,6.50E-03,1.88E-02
142383,6.50E-03,1.90E-02
142384,6.50E-03,1.91E-02
142385,6.50E-03,1.92E-02
142386,6.50E-03,1.94E-02
142387,6.49E-03,1.95E-02
142388,6.49E-03,1.96E-02
142389,6.49E-03,1.97E-02
142390,6.49E-03,1.99E-02
142391,6.49E-03,2.00E-02
142392,6.49E-03,2.01E-02
142393,6.49E-03,2.03E-02
142394,6.49E-03,2.04E-02
142395,6.49E-03,2.05E-02
142396,6.49E-03,2.06E-02
142397,6.49E-03,2.07E-02
142398,6.49E-03,2.09E-02
142399,6.49E-03,2.10E-02
142400,6.48E-03,2.11E-02
142401,6.48E-03,2.12E-02
142402,6.48E-03,2.14E-02
142403,6.48E-03,2.15E-02
142404,6.48E-03,2.16E-02
142405,6.48E-03,2.17E-02
142406,6.48E-03,2.18E-02
142407,6.48E-03,2.19E-02
142408,6.48E-03,2.20E-02
142409,6.48E-03,2.22E-02
142410,6.48E-03,2.23E-02
142411,6.53E-03,1.33E-02
142412,6.53E-03,1.34E-02
142413,6.53E-03,1.36E-02
142414,6.52E-03,1.37E-02
142415,6.52E-03,1.39E-02
142416,6.52E-03,1.40E-02
142417,6.52E-03,1.42E-02
142418,6.52E-03,1.43E-02
142419,6.52E-03,1.44E-02
142420,6.52E-03,1.46E-02
142421,6.52E-03,1.47E-02
142422,6.52E-03,1.49E-02
142423,6.52E-03,1.50E-02
142424,6.52E-03,1.52E-02
142425,6.52E-03,1.53E-02
142426,6.52E-03,1.54E-02
142427,6.52E-03,1.56E-02
142428,6.51E-03,1.57E-02
142429,6.51E-03,1.59E-02
142430,6.51E-03,1.60E-02
142431,6.51E-03,1.61E-02
142432,6.51E-03,1.63E-02
142433,6.51E-03,1.64E-02
142434,6.51E-03,1.66E-02
142435,6.51E-03,1.67E-02
142436,6.51E-03,1.68E-02
142437,6.51E-03,1.70E-02
142438,6.51E-03,1.71E-02
142439,6.51E-03,1.72E-02
142440,6.51E-03,1.74E-02
142441,6.51E-03,1.75E-02
142442,6.50E-03,1.76E-02
142443,6.50E-03,1.78E-02
142444,6.50E-03,1.79E-02
142445,6.50E-03,1.80E-02
142446,6.50E-03,1.82E-02
142447,6.50E-03,1.83E-02
142448,6.50E-03,1.84E-02
142449,6.50E-03,1.86E-02
142450,6.50E-03,1.87E-02
142451,6.50E-03,1.88E-02
142452,6.50E-03,1.90E-02
142453,6.50E-03,1.91E-02
142454,6.50E-03,1.92E-02
142455,6.50E-03,1.93E-02
142456,6.49E-03,1.95E-02
142457,6.49E-03,1.96E-02
142458,6.49E-03,1.97E-02
142459,6.49E-03,1.99E-02
142460,6.49E-03,2.00E-02
142461,6.49E-03,2.01E-02
142462,6.49E-03,2.02E-02
142463,6.49E-03,2.04E-02
142464,6.49E-03,2.05E-02
142465,6.49E-03,2.06E-02
142466,6.49E-03,2.07E-02
142467,6.49E-03,2.08E-02
142468,6.49E-03,2.09E-02
142469,6.48E-03,2.11E-02
142470,6.48E-03,2.12E-02
142471,6.48E-03,2.13E-02
142472,6.48E-03,2.14E-02
142473,6.48E-03,2.15E-02
142474,6.48E-03,2.16E-02
142475,6.48E-03,2.18E-02
142476,6.48E-03,2.19E-02
142477,6.48E-03,2.20E-02
142478,6.48E-03,2.21E-02
142479,6.48E-03,2.22E-02
142480,6.53E-03,1.33E-02
142481,6.53E-03,1.35E-02
142482,6.53E-03,1.36E-02
142483,6.52E-03,1.37E-02
142484,6.52E-03,1.39E-02
142485,6.52E-03,1.40E-02
142486,6.52E-03,1.42E-02
142487,6.52E-03,1.43E-02
142488,6.52E-03,1.45E-02
142489,6.52E-03,1.46E-02
142490,6.52E-03,1.48E-02
142491,6.52E-03,1.49E-02
142492,6.52E-03,1.50E-02
142493,6.52E-03,1.52E-02
142494,6.52E-03,1.53E-02
142495,6.52E-03,1.55E-02
142496,6.52E-03,1.56E-02
142497,6.51E-03,1.57E-02
142498,6.51E-03,1.59E-02
142499,6.51E-03,1.60E-02
142500,6.51E-03,1.62E-02
142501,6.51E-03,1.63E-02
142502,6.51E-03,1.64E-02
142503,6.51E-03,1.66E-02
142504,6.51E-03,1.67E-02
142505,6.51E-03,1.68E-02
142506,6.51E-03,1.70E-02
142507,6.51E-03,1.71E-02
142508,6.51E-03,1.72E-02
142509,6.51E-03,1.74E-02
142510,6.51E-03,1.75E-02
142511,6.50E-03,1.76E-02
142512,6.50E-03,1.78E-02
142513,6.50E-03,1.79E-02
142514,6.50E-03,1.80E-02
142515,6.50E-03,1.82E-02
142516,6.50E-03,1.83E-02
142517,6.50E-03,1.84E-02
142518,6.50E-03,1.86E-02
142519,6.50E-03,1.87E-02
142520,6.50E-03,1.88E-02
142521,6.50E-03,1.90E-02
142522,6.50E-03,1.91E-02
142523,6.50E-03,1.92E-02
142524,6.50E-03,1.93E-02
142525,6.49E-03,1.95E-02
142526,6.49E-03,1.96E-02
142527,6.49E-03,1.97E-02
142528,6.49E-03,1.98E-02
142529,6.49E-03,2.00E-02
142530,6.49E-03,2.01E-02
142531,6.49E-03,2.02E-02
142532,6.49E-03,2.03E-02
142533,6.49E-03,2.04E-02
142534,6.49E-03,2.06E-02
142535,6.49E-03,2.07E-02
142536,6.49E-03,2.08E-02
142537,6.49E-03,2.09E-02
142538,6.48E-03,2.10E-02
142539,6.48E-03,2.11E-02
142540,6.48E-03,2.12E-02
142541,6.48E-03,2.13E-02
142542,6.48E-03,2.15E-02
142543,6.48E-03,2.16E-02
142544,6.48E-03,2.17E-02
142545,6.48E-03,2.18E-02
142546,6.48E-03,2.19E-02
142547,6.48E-03,2.21E-02
142548,6.48E-03,2.22E-02
142549,6.53E-03,1.33E-02
142550,6.53E-03,1.35E-02
142551,6.53E-03,1.36E-02
142552,6.52E-03,1.38E-02
142553,6.52E-03,1.39E-02
142554,6.52E-03,1.41E-02
142555,6.52E-03,1.42E-02
142556,6.52E-03,1.44E-02
142557,6.52E-03,1.45E-02
142558,6.52E-03,1.46E-02
142559,6.52E-03,1.48E-02
142560,6.52E-03,1.49E-02
142561,6.52E-03,1.51E-02
142562,6.52E-03,1.52E-02
142563,6.52E-03,1.53E-02
142564,6.52E-03,1.55E-02
142565,6.52E-03,1.56E-02
142566,6.51E-03,1.58E-02
142567,6.51E-03,1.59E-02
142568,6.51E-03,1.60E-02
142569,6.51E-03,1.62E-02
142570,6.51E-03,1.63E-02
142571,6.51E-03,1.64E-02
142572,6.51E-03,1.66E-02
142573,6.51E-03,1.67E-02
142574,6.51E-03,1.68E-02
142575,6.51E-03,1.70E-02
142576,6.51E-03,1.71E-02
142577,6.51E-03,1.72E-02
142578,6.51E-03,1.74E-02
142579,6.51E-03,1.75E-02
142580,6.50E-03,1.76E-02
142581,6.50E-03,1.78E-02
142582,6.50E-03,1.79E-02
142583,6.50E-03,1.80E-02
142584,6.50E-03,1.82E-02
142585,6.50E-03,1.83E-02
142586,6.50E-03,1.84E-02
142587,6.50E-03,1.86E-02
142588,6.50E-03,1.87E-02
142589,6.50E-03,1.88E-02
142590,6.50E-03,1.89E-02
142591,6.50E-03,1.91E-02
142592,6.50E-03,1.92E-02
142593,6.50E-03,1.93E-02
142594,6.49E-03,1.95E-02
142595,6.49E-03,1.96E-02
142596,6.49E-03,1.97E-02
142597,6.49E-03,1.98E-02
142598,6.49E-03,1.99E-02
142599,6.49E-03,2.01E-02
142600,6.49E-03,2.02E-02
142601,6.49E-03,2.03E-02
142602,6.49E-03,2.04E-02
142603,6.49E-03,2.05E-02
142604,6.49E-03,2.06E-02
142605,6.49E-03,2.07E-02
142606,6.49E-03,2.09E-02
142607,6.48E-03,2.10E-02
142608,6.48E-03,2.11E-02
142609,6.48E-03,2.12E-02
142610,6.48E-03,2.13E-02
142611,6.48E-03,2.14E-02
142612,6.48E-03,2.15E-02
142613,6.48E-03,2.16E-02
142614,6.48E-03,2.17E-02
142615,6.48E-03,2.19E-02
142616,6.48E-03,2.20E-02
142617,6.48E-03,2.21E-02
142618,6.53E-03,1.35E-02
142619,6.53E-03,1.36E-02
142620,6.52E-03,1.38E-02
142621,6.52E-03,1.39E-02
142622,6.52E-03,1.41E-02
142623,6.52E-03,1.42E-02
142624,6.52E-03,1.44E-02
142625,6.52E-03,1.45E-02
142626,6.52E-03,1.47E-02
142627,6.52E-03,1.48E-02
142628,6.52E-03,1.50E-02
142629,6.52E-03,1.51E-02
142630,6.52E-03,1.52E-02
142631,6.52E-03,1.54E-02
142632,6.52E-03,1.55E-02
142633,6.52E-03,1.56E-02
142634,6.51E-03,1.58E-02
142635,6.51E-03,1.59E-02
142636,6.51E-03,1.61E-02
142637,6.51E-03,1.62E-02
142638,6.51E-03,1.63E-02
142639,6.51E-03,1.65E-02
142640,6.51E-03,1.66E-02
142641,6.51E-03,1.67E-02
142642,6.51E-03,1.69E-02
142643,6.51E-03,1.70E-02
142644,6.51E-03,1.71E-02
142645,6.51E-03,1.73E-02
142646,6.51E-03,1.74E-02
142647,6.51E-03,1.75E-02
142648,6.50E-03,1.76E-02
142649,6.50E-03,1.78E-02
142650,6.50E-03,1.79E-02
142651,6.50E-03,1.80E-02
142652,6.50E-03,1.82E-02
142653,6.50E-03,1.83E-02
142654,6.50E-03,1.84E-02
142655,6.50E-03,1.86E-02
142656,6.50E-03,1.87E-02
142657,6.50E-03,1.88E-02
142658,6.50E-03,1.89E-02
142659,6.50E-03,1.91E-02
142660,6.50E-03,1.92E-02
142661,6.50E-03,1.93E-02
142662,6.49E-03,1.94E-02
142663,6.49E-03,1.96E-02
142664,6.49E-03,1.97E-02
142665,6.49E-03,1.98E-02
142666,6.49E-03,1.99E-02
142667,6.49E-03,2.00E-02
142668,6.49E-03,2.02E-02
142669,6.49E-03,2.03E-02
142670,6.49E-03,2.04E-02
142671,6.49E-03,2.05E-02
142672,6.49E-03,2.06E-02
142673,6.49E-03,2.07E-02
142674,6.49E-03,2.08E-02
142675,6.48E-03,2.09E-02
142676,6.48E-03,2.10E-02
142677,6.48E-03,2.11E-02
142678,6.48E-03,2.12E-02
142679,6.48E-03,2.13E-02
142680,6.48E-03,2.14E-02
142681,6.48E-03,2.16E-02
142682,6.48E-03,2.17E-02
142683,6.48E-03,2.19E-02
142684,6.48E-03,2.21E-02
105617,3.24E-03,2.17E-02
105618,1.63E-03,1.33E-02
105619,1.62E-03,2.19E-02
105620,1.63E-03,1.34E-02
105621,1.62E-03,2.18E-02
105622,1.62E-03,2.26E-02
105623,3.26E-03,9.76E-03
105624,3.26E-03,9.64E-03
105625,1.63E-03,1.34E-02
105626,6.89E-04,2.60E-02
105627,3.24E-03,2.26E-02
105628,3.24E-03,2.28E-02
105629,1.62E-03,2.26E-02
105630,1.63E-03,9.48E-03
105631,1.63E-03,9.61E-03
105632,1.63E-03,1.34E-02
105633,1.62E-03,2.28E-02
105634,1.62E-03,2.28E-02
105635,6.89E-04,2.61E-02
105636,1.63E-03,9.60E-03
105637,1.63E-03,9.43E-03
105638,1.38E-03,2.60E-02
