Element Number,Area,Von Mises Stress
4,1.99E-03,9.75E-03
12,9.56E-04,2.20E-02
13,1.37E-03,2.26E-02
14,1.40E-03,2.23E-02
15,9.40E-04,2.16E-02
16,1.01E-03,2.14E-02
17,1.96E-03,2.70E-02
18,1.86E-03,2.89E-02
19,1.30E-03,8.03E-03
20,2.00E-03,9.44E-03
21,1.74E-03,6.55E-03
22,1.29E-03,6.13E-03
23,1.18E-03,6.59E-03
24,1.38E-03,2.28E-02
25,1.42E-03,2.22E-02
26,1.79E-03,2.86E-02
27,1.12E-03,3.00E-02
28,1.94E-03,3.10E-02
29,1.41E-03,3.07E-02
30,1.59E-03,2.49E-02
31,1.78E-03,2.36E-02
32,1.73E-03,2.75E-02
33,1.28E-03,2.87E-02
34,1.45E-03,3.09E-02
35,1.65E-03,3.27E-02
36,2.54E-03,2.11E-02
37,2.81E-03,2.00E-02
38,2.56E-03,1.89E-02
39,2.55E-03,1.99E-02
40,2.43E-03,2.25E-02
41,2.17E-03,2.39E-02
42,2.47E-03,2.21E-02
43,1.95E-03,2.46E-02
44,1.63E-03,2.61E-02
45,1.93E-03,2.55E-02
46,2.27E-03,2.45E-02
47,2.34E-03,1.77E-02
48,2.72E-03,1.89E-02
49,2.17E-03,2.44E-02
50,1.86E-03,2.75E-02
51,2.11E-03,2.62E-02
52,1.67E-03,2.28E-02
53,1.66E-03,2.55E-02
54,1.65E-03,2.35E-02
55,1.88E-03,2.91E-02
56,2.37E-03,1.63E-02
57,2.78E-03,1.62E-02
58,2.51E-03,1.72E-02
59,2.74E-03,1.67E-02
60,2.59E-03,1.79E-02
61,2.45E-03,2.11E-02
62,2.27E-03,2.26E-02
63,2.82E-03,2.08E-02
64,2.29E-03,1.84E-02
65,2.58E-03,1.93E-02
66,2.79E-03,1.71E-02
67,2.64E-03,1.72E-02
68,2.69E-03,1.70E-02
69,2.41E-03,1.71E-02
70,2.38E-03,1.94E-02
71,2.71E-03,1.83E-02
72,2.30E-03,2.18E-02
73,2.30E-03,2.38E-02
74,2.19E-03,2.86E-02
75,2.71E-03,2.08E-02
76,2.44E-03,2.10E-02
77,2.42E-03,2.19E-02
78,2.03E-03,2.22E-02
79,2.70E-03,2.15E-02
80,2.51E-03,2.21E-02
81,2.47E-03,1.92E-02
82,2.72E-03,2.03E-02
83,2.63E-03,1.67E-02
84,2.70E-03,1.78E-02
85,2.55E-03,1.55E-02
86,2.28E-03,1.60E-02
87,2.56E-03,1.61E-02
88,2.59E-03,1.57E-02
89,2.50E-03,1.74E-02
90,2.58E-03,1.68E-02
91,2.47E-03,1.93E-02
92,2.51E-03,1.83E-02
93,2.42E-03,2.05E-02
94,1.71E-03,2.61E-02
95,2.17E-03,2.04E-02
96,2.24E-03,2.16E-02
97,2.48E-03,1.86E-02
98,2.13E-03,1.96E-02
99,2.59E-03,1.75E-02
100,2.50E-03,1.78E-02
101,2.58E-03,1.76E-02
102,2.61E-03,1.74E-02
103,2.41E-03,1.91E-02
104,2.57E-03,1.83E-02
105,2.64E-03,2.00E-02
106,2.42E-03,1.91E-02
107,2.41E-03,2.04E-02
108,2.31E-03,2.63E-02
109,2.34E-03,2.05E-02
110,2.05E-03,2.12E-02
111,2.59E-03,1.97E-02
112,1.82E-03,2.14E-02
113,1.56E-03,2.15E-02
114,2.51E-03,2.35E-02
115,2.38E-03,2.33E-02
116,1.11E-03,2.52E-02
117,2.64E-03,2.17E-02
118,2.56E-03,2.29E-02
119,2.55E-03,1.87E-02
120,2.56E-03,2.03E-02
121,2.49E-03,1.60E-02
122,2.57E-03,1.71E-02
123,2.48E-03,1.47E-02
124,2.48E-03,1.51E-02
125,2.56E-03,1.49E-02
126,2.54E-03,1.46E-02
127,2.53E-03,1.61E-02
128,2.52E-03,1.55E-02
129,2.45E-03,1.76E-02
130,2.49E-03,1.68E-02
131,2.44E-03,1.83E-02
132,2.44E-03,2.22E-02
133,2.32E-03,2.95E-02
134,2.14E-03,3.11E-02
135,1.30E-03,2.52E-02
136,1.91E-03,2.66E-02
137,1.65E-03,2.35E-02
138,1.38E-03,2.40E-02
139,1.63E-03,2.31E-02
140,2.24E-03,2.07E-02
141,1.98E-03,2.11E-02
142,2.41E-03,1.91E-02
143,2.30E-03,1.99E-02
144,2.54E-03,1.80E-02
145,2.46E-03,1.86E-02
146,2.57E-03,1.81E-02
147,2.55E-03,1.79E-02
148,2.65E-03,1.89E-02
149,2.58E-03,1.84E-02
150,2.48E-03,1.97E-02
151,2.52E-03,1.94E-02
152,2.10E-03,1.89E-02
153,2.39E-03,1.95E-02
154,2.06E-03,1.78E-02
155,2.22E-03,2.12E-02
156,2.51E-03,1.78E-02
157,2.61E-03,2.43E-02
158,3.08E-03,2.50E-02
159,2.52E-03,2.52E-02
160,1.59E-03,2.14E-02
161,1.48E-03,2.10E-02
162,2.10E-03,1.53E-02
163,2.61E-03,1.42E-02
164,2.92E-03,1.96E-02
165,2.60E-03,2.14E-02
166,2.59E-03,2.31E-02
167,2.53E-03,1.78E-02
168,2.54E-03,1.96E-02
169,2.51E-03,1.48E-02
170,2.52E-03,1.62E-02
171,2.51E-03,1.36E-02
172,2.49E-03,1.40E-02
173,2.53E-03,1.41E-02
174,2.53E-03,1.37E-02
175,2.52E-03,1.54E-02
176,2.51E-03,1.46E-02
177,2.47E-03,1.69E-02
178,2.48E-03,1.62E-02
179,2.47E-03,1.83E-02
180,2.46E-03,1.77E-02
181,2.60E-03,1.92E-02
182,2.49E-03,1.85E-02
183,3.16E-03,2.38E-02
184,2.32E-03,1.94E-02
185,2.91E-03,2.32E-02
186,2.88E-03,1.95E-02
187,2.31E-03,3.42E-02
188,2.53E-03,3.08E-02
189,2.02E-03,3.40E-02
190,2.18E-03,3.49E-02
191,1.64E-03,2.48E-02
192,1.80E-03,2.65E-02
193,1.76E-03,2.23E-02
194,1.66E-03,2.33E-02
195,1.69E-03,2.19E-02
196,1.88E-03,2.07E-02
197,1.57E-03,2.07E-02
198,1.71E-03,2.07E-02
199,2.21E-03,2.06E-02
200,2.00E-03,2.07E-02
201,2.41E-03,1.98E-02
202,2.35E-03,2.03E-02
203,2.50E-03,1.90E-02
204,2.46E-03,1.93E-02
205,2.56E-03,1.88E-02
206,2.54E-03,1.89E-02
207,2.58E-03,1.87E-02
208,2.60E-03,1.87E-02
209,2.42E-03,1.85E-02
210,2.49E-03,1.87E-02
211,2.08E-03,1.69E-02
212,2.32E-03,1.79E-02
213,1.93E-03,1.58E-02
214,2.15E-03,1.24E-02
215,2.39E-03,1.55E-02
216,2.01E-03,1.01E-02
217,2.63E-03,1.70E-02
218,2.88E-03,2.12E-02
219,2.25E-03,2.93E-02
220,2.05E-03,3.54E-02
221,2.56E-03,3.77E-02
222,2.50E-03,2.95E-02
223,2.95E-03,2.69E-02
224,2.68E-03,2.46E-02
225,2.79E-03,2.62E-02
226,2.58E-03,2.05E-02
227,2.61E-03,2.26E-02
228,2.54E-03,1.64E-02
229,2.54E-03,1.83E-02
230,2.51E-03,1.35E-02
231,2.50E-03,1.47E-02
232,2.49E-03,1.28E-02
233,2.48E-03,1.28E-02
234,2.52E-03,1.40E-02
235,2.51E-03,1.32E-02
236,2.50E-03,1.62E-02
237,2.51E-03,1.50E-02
238,2.48E-03,1.89E-02
239,2.49E-03,1.75E-02
240,2.47E-03,2.15E-02
241,2.47E-03,2.02E-02
242,2.59E-03,2.30E-02
243,2.53E-03,2.27E-02
244,2.86E-03,2.41E-02
245,2.34E-03,4.12E-02
246,2.47E-03,4.09E-02
247,2.09E-03,3.73E-02
248,2.24E-03,3.97E-02
249,1.82E-03,3.13E-02
250,1.93E-03,3.44E-02
251,1.83E-03,2.64E-02
252,1.74E-03,2.83E-02
253,1.94E-03,2.38E-02
254,1.90E-03,2.49E-02
255,1.89E-03,2.13E-02
256,1.98E-03,2.24E-02
257,1.82E-03,2.00E-02
258,1.86E-03,2.06E-02
259,1.90E-03,1.95E-02
260,1.82E-03,1.97E-02
261,2.03E-03,1.98E-02
262,1.95E-03,1.95E-02
263,2.24E-03,2.05E-02
264,2.16E-03,2.01E-02
265,2.41E-03,2.07E-02
266,2.37E-03,2.07E-02
267,2.49E-03,2.06E-02
268,2.46E-03,2.07E-02
269,2.55E-03,2.02E-02
270,2.52E-03,2.05E-02
271,2.53E-03,1.90E-02
272,2.55E-03,1.98E-02
273,2.41E-03,1.74E-02
274,2.46E-03,1.82E-02
275,2.29E-03,1.47E-02
276,2.35E-03,1.62E-02
277,2.43E-03,1.17E-02
278,2.38E-03,1.30E-02
279,2.21E-03,1.05E-02
280,2.49E-03,1.30E-02
281,2.84E-03,2.59E-02
282,2.72E-03,4.09E-02
283,2.77E-03,2.84E-02
284,2.67E-03,2.40E-02
285,2.71E-03,2.64E-02
286,2.58E-03,1.89E-02
287,2.61E-03,2.14E-02
288,2.52E-03,1.46E-02
289,2.53E-03,1.66E-02
290,2.48E-03,1.22E-02
291,2.49E-03,1.31E-02
292,2.49E-03,1.27E-02
293,2.49E-03,1.21E-02
294,2.49E-03,1.54E-02
295,2.49E-03,1.38E-02
296,2.49E-03,1.92E-02
297,2.49E-03,1.71E-02
298,2.48E-03,2.36E-02
299,2.49E-03,2.13E-02
300,2.48E-03,2.90E-02
301,2.46E-03,2.62E-02
302,2.55E-03,3.61E-02
303,2.51E-03,3.22E-02
304,2.32E-03,4.98E-02
305,2.46E-03,4.24E-02
306,2.39E-03,6.17E-02
307,2.75E-03,2.97E-02
308,2.77E-03,6.05E-02
309,2.05E-03,0.10771
310,2.01E-03,0.13534
311,2.58E-03,8.50E-02
312,2.54E-03,6.09E-02
313,2.57E-03,6.17E-02
314,2.38E-03,5.10E-02
315,2.47E-03,5.65E-02
316,2.23E-03,3.93E-02
317,2.30E-03,4.51E-02
318,2.11E-03,3.01E-02
319,2.14E-03,3.41E-02
320,2.06E-03,2.52E-02
321,2.10E-03,2.72E-02
322,2.10E-03,2.27E-02
323,2.07E-03,2.38E-02
324,2.08E-03,2.05E-02
325,2.11E-03,2.17E-02
326,2.04E-03,1.84E-02
327,2.05E-03,1.93E-02
328,2.10E-03,1.77E-02
329,2.06E-03,1.79E-02
330,2.21E-03,1.85E-02
331,2.17E-03,1.79E-02
332,2.35E-03,2.03E-02
333,2.28E-03,1.93E-02
334,2.44E-03,2.21E-02
335,2.40E-03,2.12E-02
336,2.50E-03,2.30E-02
337,2.47E-03,2.27E-02
338,2.54E-03,2.25E-02
339,2.52E-03,2.29E-02
340,2.48E-03,2.05E-02
341,2.52E-03,2.17E-02
342,2.38E-03,1.68E-02
343,2.42E-03,1.89E-02
344,2.35E-03,1.20E-02
345,2.38E-03,1.44E-02
346,2.40E-03,8.08E-03
347,2.40E-03,9.77E-03
348,2.15E-03,7.42E-03
349,1.99E-03,7.76E-03
350,2.65E-03,1.28E-02
351,2.37E-03,9.82E-03
352,2.73E-03,2.30E-02
353,2.81E-03,1.72E-02
354,2.67E-03,3.01E-02
355,1.79E-03,0.21403
356,2.67E-03,3.61E-02
357,2.69E-03,3.16E-02
358,2.69E-03,2.86E-02
359,2.68E-03,2.55E-02
360,2.63E-03,2.24E-02
361,2.58E-03,1.94E-02
362,2.54E-03,1.67E-02
363,2.50E-03,1.44E-02
364,2.49E-03,1.27E-02
365,2.49E-03,1.17E-02
366,2.48E-03,1.16E-02
367,2.48E-03,1.25E-02
368,2.48E-03,1.40E-02
369,2.48E-03,1.61E-02
370,2.48E-03,1.84E-02
371,2.48E-03,2.11E-02
372,2.48E-03,2.40E-02
373,2.48E-03,2.71E-02
374,2.47E-03,3.06E-02
375,2.47E-03,3.46E-02
376,2.47E-03,3.93E-02
377,2.50E-03,4.51E-02
378,2.49E-03,5.25E-02
379,2.44E-03,6.18E-02
380,2.36E-03,7.55E-02
381,2.37E-03,9.76E-02
382,2.29E-03,0.13137
383,2.07E-03,0.18121
384,2.05E-03,0.33145
385,2.23E-03,0.56548
386,2.19E-03,0.25465
387,2.26E-03,0.11588
388,2.41E-03,0.12511
389,2.57E-03,0.11015
390,2.55E-03,9.18E-02
391,2.48E-03,7.77E-02
392,2.42E-03,6.47E-02
393,2.37E-03,5.17E-02
394,2.38E-03,4.03E-02
395,2.37E-03,3.25E-02
396,2.36E-03,2.78E-02
397,2.33E-03,2.53E-02
398,2.31E-03,2.39E-02
399,2.29E-03,2.32E-02
400,2.27E-03,2.25E-02
401,2.24E-03,2.15E-02
402,2.25E-03,1.99E-02
403,2.27E-03,1.81E-02
404,2.29E-03,1.66E-02
405,2.32E-03,1.57E-02
406,2.34E-03,1.56E-02
407,2.38E-03,1.60E-02
408,2.40E-03,1.70E-02
409,2.44E-03,1.84E-02
410,2.48E-03,2.00E-02
411,2.48E-03,2.20E-02
412,2.48E-03,2.42E-02
413,2.49E-03,2.57E-02
414,2.50E-03,2.65E-02
415,2.52E-03,2.64E-02
416,2.56E-03,2.54E-02
417,2.54E-03,2.45E-02
418,2.46E-03,2.36E-02
419,2.34E-03,2.18E-02
420,2.30E-03,1.78E-02
421,2.39E-03,1.27E-02
422,2.49E-03,8.91E-03
423,2.34E-03,6.96E-03
424,2.21E-03,6.00E-03
425,2.22E-03,4.95E-03
426,2.34E-03,4.63E-03
427,2.08E-03,4.35E-03
428,2.04E-03,4.28E-03
429,2.17E-03,4.55E-03
430,2.74E-03,4.99E-03
431,3.12E-03,6.01E-03
432,3.06E-03,8.02E-03
433,2.82E-03,1.19E-02
434,2.63E-03,1.92E-02
435,2.38E-03,3.12E-02
436,2.43E-03,4.78E-02
482,2.60E-03,9.86E-03
483,2.64E-03,6.44E-03
484,2.76E-03,2.99E-03
485,1.35E-03,1.60E-02
486,1.62E-03,1.61E-02
487,1.68E-03,1.62E-02
488,1.22E-03,1.60E-02
489,1.49E-03,1.59E-02
490,1.36E-03,1.56E-02
491,1.89E-03,1.56E-02
492,1.75E-03,1.58E-02
493,1.31E-03,1.57E-02
494,1.36E-03,1.56E-02
495,2.71E-03,5.35E-03
496,3.27E-03,5.56E-03
497,3.37E-03,5.64E-03
498,2.75E-03,5.48E-03
499,2.71E-03,3.66E-03
500,3.94E-03,3.85E-03
501,3.14E-03,3.69E-03
502,1.18E-03,6.57E-03
503,1.40E-03,6.55E-03
504,1.43E-03,6.66E-03
505,1.16E-03,6.66E-03
506,1.17E-03,6.68E-03
507,3.15E-03,1.41E-02
508,2.75E-03,1.39E-02
509,3.17E-03,1.40E-02
510,2.73E-03,7.72E-03
511,2.82E-03,7.77E-03
512,2.56E-03,1.33E-02
513,2.41E-03,1.34E-02
514,2.51E-03,1.59E-02
515,2.80E-03,1.57E-02
516,2.61E-03,1.16E-02
517,2.71E-03,1.15E-02
518,2.78E-03,8.84E-03
519,2.05E-03,8.76E-03
520,3.32E-03,1.84E-02
521,2.87E-03,1.84E-02
522,2.49E-03,2.60E-02
523,2.83E-03,2.89E-02
524,1.64E-03,1.42E-04
525,1.95E-03,1.76E-04
526,3.69E-03,7.97E-03
527,3.39E-03,8.15E-03
528,3.08E-03,8.08E-03
529,3.03E-03,7.94E-03
530,3.01E-03,5.07E-03
531,2.76E-03,4.95E-03
532,2.54E-03,8.39E-03
533,3.57E-03,8.34E-03
534,2.67E-03,7.22E-03
535,2.18E-03,7.25E-03
536,2.42E-03,7.20E-03
537,2.75E-03,1.35E-02
538,2.88E-03,1.36E-02
539,2.35E-03,1.38E-02
540,3.11E-03,1.30E-02
541,2.67E-03,1.32E-02
542,1.94E-03,6.92E-03
543,2.52E-03,6.86E-03
544,1.92E-03,6.95E-03
545,3.18E-03,9.64E-03
546,3.20E-03,9.82E-03
547,2.75E-03,9.79E-03
548,3.05E-03,9.61E-03
549,2.97E-03,9.48E-03
550,2.76E-03,6.97E-03
551,2.04E-03,6.88E-03
552,1.95E-03,6.75E-03
553,3.07E-03,1.56E-02
554,2.42E-03,1.64E-02
555,2.39E-03,8.35E-04
556,3.28E-03,8.86E-04
557,1.71E-03,7.96E-04
558,1.85E-03,1.01E-03
559,2.54E-03,1.07E-03
560,2.74E-03,9.39E-03
561,2.51E-03,9.25E-03
562,2.76E-03,9.52E-03
563,1.94E-03,6.75E-03
564,2.08E-03,6.75E-03
565,1.74E-03,6.57E-03
566,1.59E-03,6.61E-03
567,2.02E-03,1.18E-04
568,2.23E-03,1.49E-04
569,2.05E-03,1.86E-04
570,3.06E-03,1.23E-02
571,1.80E-03,7.42E-03
572,2.36E-03,1.06E-02
573,2.16E-03,1.17E-02
574,1.58E-03,8.28E-03
575,1.51E-03,5.36E-03
576,1.31E-03,1.02E-02
577,2.43E-03,1.03E-02
578,2.98E-03,1.87E-02
579,3.44E-03,1.73E-02
580,1.80E-03,1.51E-02
581,1.89E-03,1.49E-02
582,2.07E-03,1.51E-02
583,2.28E-03,1.03E-02
584,1.88E-03,1.05E-02
585,2.16E-03,1.05E-02
586,2.20E-03,1.02E-02
587,2.58E-03,7.67E-03
588,2.45E-03,7.55E-03
589,1.69E-03,7.58E-03
590,2.59E-03,7.68E-03
591,2.12E-03,1.18E-02
592,2.13E-03,1.18E-02
593,2.55E-03,1.20E-02
594,2.47E-03,1.20E-02
595,2.42E-03,9.48E-03
596,2.40E-03,9.29E-03
597,2.20E-03,9.45E-03
598,1.42E-03,2.30E-03
599,1.01E-03,2.21E-03
600,9.10E-04,2.30E-03
601,2.20E-03,7.71E-03
602,2.49E-03,7.58E-03
603,2.30E-03,7.61E-03
604,1.86E-03,1.47E-02
605,2.22E-03,1.70E-02
606,1.72E-03,1.65E-02
607,1.62E-03,6.55E-03
608,1.64E-03,6.68E-03
609,1.43E-03,7.44E-03
610,1.33E-03,7.38E-03
611,1.53E-03,7.55E-03
612,1.37E-03,1.11E-02
613,1.38E-03,1.04E-02
614,1.41E-03,1.02E-02
615,1.32E-03,7.26E-03
616,1.50E-03,7.35E-03
617,1.38E-03,7.17E-03
618,1.66E-03,1.84E-02
619,1.58E-03,1.82E-02
620,1.81E-03,1.81E-02
621,2.30E-03,1.47E-02
622,2.31E-03,1.45E-02
623,2.47E-03,1.44E-02
624,2.61E-03,1.46E-02
625,1.32E-03,1.60E-02
626,1.51E-03,1.58E-02
627,1.45E-03,1.58E-02
628,3.34E-03,3.14E-03
629,1.68E-03,3.15E-03
630,2.58E-03,3.02E-03
631,2.57E-03,1.60E-02
632,2.02E-03,1.61E-02
633,2.17E-03,2.80E-03
634,2.11E-03,2.87E-03
635,2.21E-03,2.58E-03
636,2.37E-03,2.64E-03
637,1.80E-03,2.40E-03
638,3.15E-03,2.25E-03
639,2.65E-03,2.41E-03
640,1.95E-03,3.41E-03
641,1.94E-03,3.26E-03
642,2.05E-03,1.61E-02
643,1.69E-03,1.60E-02
644,3.56E-03,8.25E-03
645,2.35E-03,6.83E-03
646,2.39E-03,6.80E-03
647,2.50E-03,6.84E-03
648,1.87E-03,2.04E-03
649,2.94E-03,2.17E-03
650,2.43E-03,1.05E-02
651,2.34E-03,1.06E-02
652,2.38E-03,1.07E-02
653,2.25E-03,1.08E-02
654,2.22E-03,9.74E-03
655,1.59E-03,9.96E-03
656,2.59E-03,9.48E-03
657,2.22E-03,9.29E-03
658,2.38E-03,2.85E-02
659,2.13E-03,3.13E-02
660,2.99E-03,9.98E-03
661,3.09E-03,1.03E-02
662,2.05E-03,7.25E-04
663,1.65E-03,6.84E-04
664,3.56E-03,2.34E-02
665,3.32E-03,2.29E-02
666,2.93E-03,7.42E-03
667,2.98E-03,7.42E-03
668,1.90E-03,3.56E-03
669,1.98E-03,1.09E-02
670,2.52E-03,1.08E-02
671,3.23E-03,7.82E-03
672,3.17E-03,7.78E-03
673,2.24E-03,7.09E-03
674,2.18E-03,7.11E-03
675,2.31E-03,1.24E-02
676,2.62E-03,1.24E-02
677,1.98E-03,1.58E-02
678,2.10E-03,9.94E-03
679,1.71E-03,1.00E-02
680,2.63E-03,6.72E-03
681,2.56E-03,6.82E-03
682,2.25E-03,6.81E-03
683,1.92E-03,6.95E-03
684,3.32E-03,9.16E-03
685,4.10E-03,8.86E-03
686,3.99E-03,9.12E-03
687,2.01E-03,4.60E-03
688,2.43E-03,4.78E-03
689,2.08E-03,1.29E-02
690,1.97E-03,1.29E-02
691,2.17E-03,6.57E-03
692,2.02E-03,6.60E-03
693,2.33E-03,6.55E-03
694,2.13E-03,6.56E-03
695,2.47E-03,5.24E-03
696,1.77E-03,5.11E-03
697,2.82E-03,1.26E-02
698,3.12E-03,1.37E-02
699,1.81E-03,2.49E-03
700,1.54E-03,2.39E-03
701,2.31E-03,1.25E-03
702,2.35E-03,1.16E-03
703,2.76E-03,2.04E-02
704,2.61E-03,2.06E-02
705,1.88E-03,2.03E-02
706,1.58E-03,9.60E-04
707,2.15E-03,9.03E-04
708,2.31E-03,7.78E-03
709,2.31E-03,7.85E-03
710,2.04E-03,8.78E-03
711,2.15E-03,8.85E-03
712,2.01E-03,7.00E-03
713,1.54E-03,6.91E-03
714,2.70E-03,1.08E-02
715,2.54E-03,8.36E-03
716,2.16E-03,6.81E-03
717,2.27E-03,6.95E-03
718,2.06E-03,8.09E-03
719,2.30E-03,7.92E-03
720,2.38E-03,7.90E-03
721,2.20E-03,8.05E-03
722,2.30E-03,1.95E-02
723,2.20E-03,1.99E-02
724,1.91E-03,1.97E-02
725,2.26E-03,1.94E-02
726,1.12E-03,7.03E-03
727,1.41E-03,7.00E-03
728,1.53E-03,6.95E-03
729,2.13E-03,5.34E-03
730,2.30E-03,1.63E-02
731,2.57E-03,1.21E-02
732,1.33E-03,4.55E-03
733,1.85E-03,1.50E-02
734,1.80E-03,1.48E-02
735,1.96E-03,1.48E-02
736,2.01E-03,1.50E-02
737,2.60E-03,1.47E-02
738,2.13E-03,1.49E-02
739,2.51E-03,1.46E-02
740,2.50E-03,1.44E-02
741,2.44E-03,1.51E-02
742,2.60E-03,1.47E-02
743,2.50E-03,1.44E-02
744,2.08E-03,1.48E-02
745,2.26E-03,1.47E-02
746,2.42E-03,1.46E-02
747,2.37E-03,1.50E-02
748,2.39E-03,1.43E-02
749,2.25E-03,1.49E-02
750,1.97E-03,1.50E-02
751,2.03E-03,1.51E-02
752,1.84E-03,1.51E-02
753,2.50E-03,1.47E-02
754,2.30E-03,1.42E-02
755,2.55E-03,1.43E-02
756,2.53E-03,1.43E-02
757,2.30E-03,1.53E-02
758,2.42E-03,1.52E-02
759,2.69E-03,1.49E-02
760,2.65E-03,1.51E-02
761,3.17E-03,1.45E-02
762,2.45E-03,1.45E-02
763,2.48E-03,1.43E-02
764,2.18E-03,1.50E-02
765,1.84E-03,1.53E-02
766,1.92E-03,1.53E-02
767,2.20E-03,1.51E-02
768,2.12E-03,1.50E-02
769,2.35E-03,1.49E-02
770,2.43E-03,1.46E-02
771,2.35E-03,1.48E-02
772,2.64E-03,1.41E-02
773,2.64E-03,1.41E-02
774,2.10E-03,1.54E-02
775,2.39E-03,1.54E-02
776,2.67E-03,1.53E-02
777,3.32E-03,1.49E-02
778,2.91E-03,1.51E-02
779,2.70E-03,1.41E-02
780,3.05E-03,1.42E-02
781,3.57E-03,1.46E-02
782,2.58E-03,1.42E-02
783,2.47E-03,1.43E-02
784,2.51E-03,1.42E-02
785,2.26E-03,1.52E-02
786,1.92E-03,1.54E-02
787,2.33E-03,1.53E-02
788,2.34E-03,1.47E-02
789,2.66E-03,1.48E-02
790,3.15E-03,1.50E-02
791,2.54E-03,1.39E-02
792,2.42E-03,1.45E-02
793,2.39E-03,1.47E-02
794,2.59E-03,1.40E-02
795,1.33E-03,7.28E-03
796,1.30E-03,7.33E-03
797,1.49E-03,7.28E-03
798,2.82E-03,1.39E-02
799,2.07E-03,1.38E-02
800,2.18E-03,1.36E-02
801,2.57E-03,1.37E-02
802,1.95E-03,1.55E-02
803,2.21E-03,1.55E-02
804,2.62E-03,1.55E-02
805,2.93E-03,1.54E-02
806,3.06E-03,1.40E-02
807,3.01E-03,1.43E-02
808,2.66E-03,1.40E-02
809,2.55E-03,1.41E-02
810,2.46E-03,1.42E-02
811,2.49E-03,1.41E-02
812,2.30E-03,7.32E-03
813,3.05E-03,1.49E-02
814,3.01E-03,1.46E-02
815,2.62E-03,1.53E-02
816,2.25E-03,1.55E-02
817,2.45E-03,1.54E-02
818,2.19E-03,1.36E-02
819,2.42E-03,1.46E-02
820,2.92E-03,1.49E-02
821,2.89E-03,1.52E-02
822,3.00E-03,1.52E-02
823,2.64E-03,1.35E-02
824,2.45E-03,1.43E-02
825,2.52E-03,1.46E-02
826,2.64E-03,1.47E-02
827,2.78E-03,1.52E-02
828,2.72E-03,1.55E-02
829,2.86E-03,1.55E-02
830,2.10E-03,7.27E-03
831,1.81E-03,7.25E-03
832,2.41E-03,7.24E-03
833,1.94E-03,7.25E-03
834,1.87E-03,7.25E-03
835,1.73E-03,7.25E-03
836,1.96E-03,7.21E-03
837,2.00E-03,7.32E-03
838,2.40E-03,1.55E-02
839,2.25E-03,1.58E-02
840,2.52E-03,1.58E-02
841,2.17E-03,1.35E-02
842,2.49E-03,7.29E-03
843,2.10E-03,1.57E-02
844,2.38E-03,1.56E-02
845,3.21E-03,1.56E-02
846,2.74E-03,1.38E-02
847,2.91E-03,1.41E-02
848,2.55E-03,1.39E-02
849,2.58E-03,1.39E-02
850,2.41E-03,1.41E-02
851,2.40E-03,1.40E-02
852,2.85E-03,7.34E-03
853,2.89E-03,7.26E-03
854,2.85E-03,1.44E-02
855,2.90E-03,1.47E-02
856,2.85E-03,1.50E-02
857,2.71E-03,1.53E-02
858,2.18E-03,1.56E-02
859,3.10E-03,1.51E-02
860,2.83E-03,1.49E-02
861,2.70E-03,1.49E-02
862,2.70E-03,1.51E-02
863,2.87E-03,1.53E-02
864,2.60E-03,1.55E-02
865,2.62E-03,1.56E-02
866,2.24E-03,1.57E-02
867,2.85E-03,1.38E-02
868,2.46E-03,1.45E-02
869,2.77E-03,1.48E-02
870,3.03E-03,1.54E-02
871,2.38E-03,7.28E-03
872,1.74E-03,7.27E-03
873,1.79E-03,7.20E-03
874,2.40E-03,7.20E-03
875,1.79E-03,1.58E-02
876,1.95E-03,7.20E-03
877,1.83E-03,7.19E-03
878,2.10E-03,7.17E-03
879,2.28E-03,7.15E-03
880,2.35E-03,7.13E-03
881,1.69E-03,7.19E-03
882,1.69E-03,7.20E-03
883,2.23E-03,7.18E-03
884,1.92E-03,7.20E-03
885,2.08E-03,7.14E-03
886,1.99E-03,7.18E-03
887,2.23E-03,7.38E-03
888,2.42E-03,1.42E-02
889,2.51E-03,1.44E-02
890,2.60E-03,1.45E-02
891,2.96E-03,1.57E-02
892,2.23E-03,1.33E-02
893,2.30E-03,7.34E-03
894,2.68E-03,1.47E-02
895,2.66E-03,1.48E-02
896,2.21E-03,1.60E-02
897,2.34E-03,1.60E-02
898,2.02E-03,1.58E-02
899,3.00E-03,1.58E-02
900,2.60E-03,1.36E-02
901,2.57E-03,7.38E-03
902,2.59E-03,7.44E-03
903,2.50E-03,7.49E-03
904,2.55E-03,7.54E-03
905,2.39E-03,7.54E-03
906,2.44E-03,7.59E-03
907,2.54E-03,7.31E-03
908,2.51E-03,7.43E-03
909,2.79E-03,1.39E-02
910,2.65E-03,1.38E-02
911,2.42E-03,1.38E-02
912,2.38E-03,1.40E-02
913,2.35E-03,1.39E-02
914,2.70E-03,7.33E-03
915,2.82E-03,1.41E-02
916,2.55E-03,7.23E-03
917,2.88E-03,1.44E-02
918,2.54E-03,7.16E-03
919,2.86E-03,1.47E-02
920,2.29E-03,7.07E-03
921,2.37E-03,7.09E-03
922,2.92E-03,1.50E-02
923,2.91E-03,1.54E-02
924,2.15E-03,1.58E-02
925,1.83E-03,7.27E-03
926,2.66E-03,1.53E-02
927,2.49E-03,1.55E-02
928,2.59E-03,1.58E-02
929,1.97E-03,1.58E-02
930,2.47E-03,7.40E-03
931,2.52E-03,1.34E-02
932,2.69E-03,1.32E-02
933,2.74E-03,1.37E-02
934,2.46E-03,1.43E-02
935,2.66E-03,1.46E-02
936,3.32E-03,1.57E-02
937,2.51E-03,7.18E-03
938,2.65E-03,7.13E-03
939,2.20E-03,7.17E-03
940,2.46E-03,7.15E-03
941,2.04E-03,7.16E-03
942,2.06E-03,7.16E-03
943,2.00E-03,7.15E-03
944,2.02E-03,7.16E-03
945,1.97E-03,7.17E-03
946,2.12E-03,7.12E-03
947,2.04E-03,7.15E-03
948,2.21E-03,7.07E-03
949,2.15E-03,7.09E-03
950,2.32E-03,7.03E-03
951,2.25E-03,7.02E-03
952,2.25E-03,7.04E-03
953,2.21E-03,1.60E-02
954,2.63E-03,1.31E-02
955,2.53E-03,7.49E-03
956,2.32E-03,7.39E-03
957,2.40E-03,1.41E-02
958,2.51E-03,1.43E-02
959,2.56E-03,1.44E-02
960,2.59E-03,1.50E-02
961,2.61E-03,1.48E-02
962,2.18E-03,1.59E-02
963,1.61E-03,7.10E-03
964,3.03E-03,1.28E-02
965,2.63E-03,1.26E-02
966,2.46E-03,1.26E-02
967,2.74E-03,1.25E-02
968,2.60E-03,1.23E-02
969,2.64E-03,1.33E-02
970,2.63E-03,7.65E-03
971,2.55E-03,7.58E-03
972,2.43E-03,7.36E-03
973,2.47E-03,7.46E-03
974,2.70E-03,1.36E-02
975,2.69E-03,7.70E-03
976,2.17E-03,7.32E-03
977,2.77E-03,1.37E-02
978,2.15E-03,1.38E-02
979,2.62E-03,7.37E-03
980,2.77E-03,1.39E-02
981,2.57E-03,1.52E-02
982,2.67E-03,7.27E-03
983,2.80E-03,1.42E-02
984,2.59E-03,7.20E-03
985,2.83E-03,1.45E-02
986,2.44E-03,7.13E-03
987,2.83E-03,1.48E-02
988,2.42E-03,7.05E-03
989,2.83E-03,1.51E-02
990,2.21E-03,6.98E-03
991,2.35E-03,6.99E-03
992,2.86E-03,1.57E-02
993,3.07E-03,1.54E-02
994,2.32E-03,7.26E-03
995,2.15E-03,7.09E-03
996,2.51E-03,7.14E-03
997,2.35E-03,1.39E-02
998,2.27E-03,1.38E-02
999,2.34E-03,1.55E-02
1000,2.22E-03,1.57E-02
1001,2.01E-03,1.60E-02
1002,1.79E-03,1.59E-02
1003,2.26E-03,1.60E-02
1004,2.22E-03,1.00E-02
1005,2.98E-03,7.85E-03
1006,1.88E-03,1.01E-02
1007,2.93E-03,1.29E-02
1008,2.46E-03,7.44E-03
1009,1.62E-03,1.02E-02
1010,1.90E-03,1.07E-02
1011,2.70E-03,1.07E-02
1012,2.25E-03,1.04E-02
1013,2.77E-03,1.29E-02
1014,2.81E-03,1.27E-02
1015,2.60E-03,1.33E-02
1016,2.75E-03,1.31E-02
1017,2.42E-03,1.35E-02
1018,2.40E-03,1.34E-02
1019,2.38E-03,1.37E-02
1020,2.45E-03,1.42E-02
1021,2.64E-03,1.45E-02
1022,2.59E-03,1.45E-02
1023,2.64E-03,1.46E-02
1024,2.66E-03,1.46E-02
1025,2.14E-03,1.60E-02
1026,2.19E-03,1.60E-02
1027,2.83E-03,1.60E-02
1028,2.32E-03,1.62E-02
1029,2.01E-03,1.62E-02
1030,2.62E-03,1.57E-02
1031,2.44E-03,1.60E-02
1032,2.44E-03,1.60E-02
1033,1.50E-03,7.04E-03
1034,2.24E-03,7.07E-03
1035,2.16E-03,7.04E-03
1036,2.07E-03,7.12E-03
1037,2.23E-03,7.11E-03
1038,2.06E-03,7.13E-03
1039,2.07E-03,7.12E-03
1040,2.07E-03,7.13E-03
1041,2.04E-03,7.13E-03
1042,2.14E-03,7.10E-03
1043,2.07E-03,7.12E-03
1044,2.19E-03,7.05E-03
1045,2.14E-03,7.08E-03
1046,2.21E-03,7.00E-03
1047,2.22E-03,7.02E-03
1048,2.63E-03,6.95E-03
1049,2.19E-03,6.99E-03
1050,1.81E-03,1.24E-02
1051,1.64E-03,1.23E-02
1052,2.38E-03,1.21E-02
1053,2.40E-03,1.22E-02
1054,2.52E-03,1.31E-02
1055,2.36E-03,1.27E-02
1056,2.52E-03,7.53E-03
1057,2.43E-03,7.41E-03
1058,2.39E-03,1.40E-02
1059,2.47E-03,1.41E-02
1060,2.51E-03,1.42E-02
1061,2.27E-03,1.63E-02
1062,2.05E-03,6.96E-03
1063,2.32E-03,7.50E-03
1064,2.64E-03,1.34E-02
1065,1.89E-03,1.24E-02
1066,2.63E-03,7.62E-03
1067,2.45E-03,7.37E-03
1068,2.01E-03,1.36E-02
1069,2.58E-03,1.48E-02
1070,2.60E-03,1.47E-02
1071,2.11E-03,6.96E-03
1072,2.38E-03,6.90E-03
1073,2.40E-03,6.83E-03
1074,2.51E-03,7.41E-03
1075,2.53E-03,1.10E-02
1076,2.38E-03,1.10E-02
1077,2.70E-03,1.36E-02
1078,2.77E-03,7.82E-03
1079,2.69E-03,7.74E-03
1080,2.15E-03,7.32E-03
1081,2.52E-03,1.54E-02
1082,2.51E-03,1.50E-02
1083,2.59E-03,7.31E-03
1084,1.77E-03,1.07E-02
1085,2.76E-03,1.39E-02
1086,2.55E-03,7.23E-03
1087,2.75E-03,1.42E-02
1088,2.50E-03,7.16E-03
1089,2.48E-03,9.93E-03
1090,2.34E-03,1.02E-02
1091,2.77E-03,1.45E-02
1092,2.46E-03,7.08E-03
1093,2.77E-03,1.48E-02
1094,2.76E-03,6.87E-03
1095,2.41E-03,7.01E-03
1096,2.81E-03,1.51E-02
1097,2.45E-03,6.95E-03
1098,2.85E-03,1.54E-02
1099,2.33E-03,7.22E-03
1100,2.15E-03,7.04E-03
1101,2.21E-03,7.11E-03
1102,2.35E-03,1.37E-02
1103,2.31E-03,1.36E-02
1104,2.20E-03,1.36E-02
1105,2.16E-03,1.60E-02
1106,2.89E-03,1.57E-02
1107,3.11E-03,7.78E-03
1108,2.89E-03,7.89E-03
1109,2.85E-03,7.93E-03
1110,2.85E-03,7.91E-03
1111,2.78E-03,7.90E-03
1112,1.91E-03,1.57E-02
1113,1.79E-03,1.61E-02
1114,2.45E-03,7.69E-03
1115,2.10E-03,1.19E-02
1116,2.24E-03,1.17E-02
1117,2.47E-03,1.29E-02
1118,2.45E-03,7.47E-03
1119,2.33E-03,1.05E-02
1120,1.69E-03,1.02E-02
1121,2.77E-03,1.10E-02
1122,2.61E-03,1.07E-02
1123,2.63E-03,1.12E-02
1124,3.00E-03,1.12E-02
1125,2.72E-03,1.24E-02
1126,2.72E-03,1.22E-02
1127,2.76E-03,1.28E-02
1128,2.76E-03,1.26E-02
1129,2.65E-03,1.32E-02
1130,2.71E-03,1.30E-02
1131,2.55E-03,1.34E-02
1132,2.59E-03,1.33E-02
1133,2.80E-03,1.35E-02
1134,2.43E-03,1.41E-02
1135,2.61E-03,1.43E-02
1136,2.57E-03,1.43E-02
1137,2.68E-03,1.44E-02
1138,2.64E-03,1.44E-02
1139,1.88E-03,1.62E-02
1140,1.93E-03,1.63E-02
1141,2.02E-03,1.63E-02
1142,2.31E-03,1.65E-02
1143,2.54E-03,1.64E-02
1144,2.22E-03,1.63E-02
1145,2.23E-03,1.63E-02
1146,2.28E-03,1.63E-02
1147,2.26E-03,1.63E-02
1148,1.95E-03,1.62E-02
1149,1.88E-03,1.63E-02
1150,2.49E-03,1.05E-02
1151,2.48E-03,9.81E-03
1152,2.16E-03,7.02E-03
1153,2.17E-03,6.99E-03
1154,2.16E-03,7.08E-03
1155,2.18E-03,7.05E-03
1156,2.11E-03,7.10E-03
1157,2.11E-03,7.10E-03
1158,2.11E-03,7.11E-03
1159,2.08E-03,7.11E-03
1160,2.15E-03,7.09E-03
1161,2.11E-03,7.10E-03
1162,2.18E-03,7.05E-03
1163,2.15E-03,7.07E-03
1164,2.19E-03,6.99E-03
1165,2.19E-03,7.02E-03
1166,2.19E-03,6.95E-03
1167,2.18E-03,6.97E-03
1168,2.73E-03,9.70E-03
1169,2.38E-03,7.54E-03
1170,2.65E-03,1.19E-02
1171,2.56E-03,1.14E-02
1172,2.55E-03,1.31E-02
1173,2.30E-03,1.27E-02
1174,2.57E-03,7.56E-03
1175,2.48E-03,7.43E-03
1176,2.24E-03,9.99E-03
1177,1.98E-03,1.35E-02
1178,2.36E-03,1.38E-02
1179,2.43E-03,1.40E-02
1180,2.48E-03,1.41E-02
1181,2.67E-03,1.45E-02
1182,2.32E-03,1.65E-02
1183,2.57E-03,6.89E-03
1184,1.80E-03,6.91E-03
1185,2.39E-03,6.94E-03
1186,2.16E-03,6.86E-03
1187,1.78E-03,6.75E-03
1188,2.47E-03,7.46E-03
1189,2.52E-03,1.12E-02
1190,2.61E-03,1.34E-02
1191,2.47E-03,1.22E-02
1192,2.46E-03,1.24E-02
1193,2.63E-03,7.66E-03
1194,2.39E-03,7.39E-03
1195,2.44E-03,1.55E-02
1196,2.50E-03,1.52E-02
1197,1.90E-03,6.67E-03
1198,1.93E-03,6.68E-03
1199,2.39E-03,6.74E-03
1200,2.54E-03,7.37E-03
1201,2.45E-03,1.09E-02
1202,2.69E-03,1.37E-02
1203,2.70E-03,7.87E-03
1204,2.66E-03,7.79E-03
1205,2.31E-03,7.32E-03
1206,2.49E-03,1.49E-02
1207,2.44E-03,1.51E-02
1208,2.56E-03,7.27E-03
1209,2.19E-03,1.07E-02
1210,2.71E-03,1.40E-02
1211,2.52E-03,7.20E-03
1212,2.31E-03,1.04E-02
1213,2.70E-03,1.42E-02
1214,2.48E-03,7.11E-03
1215,2.59E-03,9.84E-03
1216,2.47E-03,1.01E-02
1217,2.72E-03,1.45E-02
1218,2.60E-03,6.84E-03
1219,2.45E-03,7.04E-03
1220,2.77E-03,1.00E-02
1221,2.73E-03,1.48E-02
1222,2.46E-03,6.96E-03
1223,2.65E-03,9.76E-03
1224,2.75E-03,9.60E-03
1225,2.78E-03,9.52E-03
1226,2.01E-03,1.08E-02
1227,2.39E-03,1.04E-02
1228,2.76E-03,1.51E-02
1229,2.21E-03,7.19E-03
1230,2.29E-03,7.01E-03
1231,2.13E-03,7.09E-03
1232,2.36E-03,1.36E-02
1233,2.35E-03,1.35E-02
1234,2.20E-03,1.35E-02
1235,2.61E-03,6.90E-03
1236,2.77E-03,1.54E-02
1237,2.34E-03,1.09E-02
1238,2.08E-03,1.12E-02
1239,2.40E-03,1.14E-02
1240,2.68E-03,1.61E-02
1241,2.74E-03,1.58E-02
1242,2.76E-03,7.99E-03
1243,2.72E-03,8.02E-03
1244,2.75E-03,7.96E-03
1245,2.69E-03,7.96E-03
1246,2.70E-03,7.95E-03
1247,2.73E-03,7.77E-03
1248,2.48E-03,7.69E-03
1249,2.49E-03,1.17E-02
1250,2.40E-03,1.08E-02
1251,2.95E-03,1.03E-02
1252,2.45E-03,1.29E-02
1253,2.49E-03,7.49E-03
1254,2.42E-03,1.05E-02
1255,2.42E-03,1.02E-02
1256,2.73E-03,1.10E-02
1257,2.61E-03,1.07E-02
1258,3.01E-03,1.15E-02
1259,2.98E-03,1.12E-02
1260,2.68E-03,1.19E-02
1261,2.65E-03,1.17E-02
1262,2.71E-03,1.24E-02
1263,2.70E-03,1.21E-02
1264,2.70E-03,1.27E-02
1265,2.70E-03,1.26E-02
1266,2.63E-03,1.31E-02
1267,2.64E-03,1.29E-02
1268,2.57E-03,1.33E-02
1269,2.59E-03,1.32E-02
1270,2.61E-03,1.34E-02
1271,1.78E-03,1.36E-02
1272,2.39E-03,1.39E-02
1273,2.63E-03,1.42E-02
1274,2.57E-03,1.41E-02
1275,2.73E-03,1.43E-02
1276,2.68E-03,1.42E-02
1277,2.59E-03,1.45E-02
1278,2.76E-03,1.43E-02
1279,2.80E-03,1.43E-02
1280,2.55E-03,1.47E-02
1281,1.82E-03,1.63E-02
1282,1.89E-03,1.62E-02
1283,1.93E-03,1.64E-02
1284,1.86E-03,1.64E-02
1285,1.89E-03,1.66E-02
1286,1.96E-03,1.65E-02
1287,2.33E-03,1.67E-02
1288,2.38E-03,1.66E-02
1289,2.28E-03,1.66E-02
1290,2.27E-03,1.66E-02
1291,2.22E-03,1.66E-02
1292,2.26E-03,1.66E-02
1293,2.20E-03,1.65E-02
1294,2.40E-03,1.65E-02
1295,2.10E-03,1.60E-02
1296,2.36E-03,1.64E-02
1297,2.24E-03,6.97E-03
1298,2.27E-03,6.94E-03
1299,2.19E-03,7.03E-03
1300,2.21E-03,7.00E-03
1301,2.15E-03,7.07E-03
1302,2.17E-03,7.06E-03
1303,2.14E-03,7.08E-03
1304,2.13E-03,7.08E-03
1305,2.16E-03,7.07E-03
1306,2.14E-03,7.08E-03
1307,2.18E-03,7.04E-03
1308,2.18E-03,7.06E-03
1309,2.18E-03,6.99E-03
1310,2.18E-03,7.02E-03
1311,2.19E-03,6.96E-03
1312,2.52E-03,6.79E-03
1313,2.85E-03,6.90E-03
1314,2.46E-03,7.55E-03
1315,2.75E-03,1.19E-02
1316,2.58E-03,1.14E-02
1317,2.56E-03,1.32E-02
1318,2.37E-03,1.27E-02
1319,2.57E-03,7.59E-03
1320,2.49E-03,7.45E-03
1321,2.18E-03,1.34E-02
1322,2.33E-03,1.37E-02
1323,2.39E-03,1.39E-02
1324,2.46E-03,1.39E-02
1325,1.93E-03,1.57E-02
1326,2.43E-03,1.54E-02
1327,2.33E-03,1.68E-02
1328,2.68E-03,6.56E-03
1329,2.73E-03,6.56E-03
1330,2.36E-03,6.82E-03
1331,1.94E-03,6.93E-03
1332,2.14E-03,6.94E-03
1333,2.13E-03,6.88E-03
1334,2.51E-03,7.43E-03
1335,2.45E-03,1.12E-02
1336,2.63E-03,1.34E-02
1337,2.49E-03,1.22E-02
1338,2.45E-03,1.24E-02
1339,2.80E-03,6.71E-03
1340,2.43E-03,6.58E-03
1341,2.65E-03,7.70E-03
1342,2.39E-03,7.40E-03
1343,2.62E-03,9.98E-03
1344,2.90E-03,9.70E-03
1345,2.35E-03,1.52E-02
1346,2.03E-03,6.43E-03
1347,2.55E-03,7.33E-03
1348,2.29E-03,1.09E-02
1349,2.80E-03,7.85E-03
1350,2.67E-03,1.37E-02
1351,2.18E-03,7.30E-03
1352,2.65E-03,7.92E-03
1353,2.64E-03,7.83E-03
1354,2.43E-03,1.49E-02
1355,2.37E-03,1.51E-02
1356,2.52E-03,7.24E-03
1357,2.31E-03,1.06E-02
1358,2.68E-03,1.40E-02
1359,2.41E-03,6.76E-03
1360,2.48E-03,6.75E-03
1361,2.51E-03,7.15E-03
1362,2.40E-03,1.03E-02
1363,3.14E-03,9.31E-03
1364,2.82E-03,9.28E-03
1365,2.67E-03,1.43E-02
1366,2.56E-03,6.80E-03
1367,2.49E-03,7.07E-03
1368,2.53E-03,1.00E-02
1369,2.36E-03,9.56E-03
1370,2.70E-03,1.45E-02
1371,2.49E-03,6.99E-03
1372,2.75E-03,9.44E-03
1373,2.65E-03,9.68E-03
1374,2.49E-03,1.01E-02
1375,2.73E-03,1.48E-02
1376,2.05E-03,7.17E-03
1377,2.26E-03,6.95E-03
1378,2.12E-03,7.05E-03
1379,2.23E-03,1.35E-02
1380,2.52E-03,1.34E-02
1381,2.34E-03,1.34E-02
1382,2.62E-03,6.85E-03
1383,2.55E-03,6.92E-03
1384,2.37E-03,1.05E-02
1385,2.72E-03,1.51E-02
1386,2.67E-03,9.37E-03
1387,2.92E-03,9.21E-03
1388,2.80E-03,9.13E-03
1389,2.51E-03,1.16E-02
1390,2.48E-03,1.11E-02
1391,2.72E-03,1.54E-02
1392,2.57E-03,1.58E-02
1393,2.50E-03,1.17E-02
1394,2.52E-03,1.21E-02
1395,2.52E-03,1.22E-02
1396,2.71E-03,8.09E-03
1397,2.72E-03,8.12E-03
1398,2.76E-03,8.06E-03
1399,2.76E-03,8.03E-03
1400,2.73E-03,8.02E-03
1401,2.66E-03,8.00E-03
1402,2.66E-03,7.72E-03
1403,2.54E-03,7.63E-03
1404,2.60E-03,1.17E-02
1405,2.57E-03,1.06E-02
1406,2.88E-03,1.01E-02
1407,2.95E-03,1.11E-02
1408,2.45E-03,1.29E-02
1409,2.53E-03,7.51E-03
1410,3.03E-03,9.39E-03
1411,2.93E-03,9.29E-03
1412,2.61E-03,1.05E-02
1413,2.62E-03,1.02E-02
1414,2.75E-03,1.09E-02
1415,2.66E-03,1.07E-02
1416,2.76E-03,1.14E-02
1417,2.78E-03,1.12E-02
1418,2.72E-03,1.19E-02
1419,2.79E-03,1.16E-02
1420,2.74E-03,1.23E-02
1421,2.73E-03,1.21E-02
1422,2.72E-03,1.27E-02
1423,2.72E-03,1.25E-02
1424,2.60E-03,1.30E-02
1425,2.61E-03,1.28E-02
1426,2.52E-03,1.32E-02
1427,2.55E-03,1.31E-02
1428,2.34E-03,1.33E-02
1429,2.18E-03,1.34E-02
1430,2.35E-03,1.38E-02
1431,2.66E-03,1.40E-02
1432,2.57E-03,1.40E-02
1433,2.75E-03,1.41E-02
1434,2.68E-03,1.41E-02
1435,2.90E-03,1.41E-02
1436,2.97E-03,1.42E-02
1437,2.52E-03,1.41E-02
1438,2.61E-03,1.45E-02
1439,2.69E-03,1.44E-02
1440,2.50E-03,1.47E-02
1441,2.13E-03,1.58E-02
1442,2.49E-03,1.56E-02
1443,2.04E-03,1.63E-02
1444,2.17E-03,1.62E-02
1445,1.91E-03,1.65E-02
1446,1.94E-03,1.64E-02
1447,1.97E-03,1.66E-02
1448,1.95E-03,1.66E-02
1449,2.10E-03,1.68E-02
1450,2.01E-03,1.67E-02
1451,2.28E-03,1.69E-02
1452,2.22E-03,1.69E-02
1453,2.30E-03,1.68E-02
1454,2.30E-03,1.68E-02
1455,2.32E-03,1.69E-02
1456,2.31E-03,1.69E-02
1457,2.33E-03,1.68E-02
1458,2.27E-03,1.68E-02
1459,2.37E-03,1.61E-02
1460,2.98E-03,1.66E-02
1461,2.41E-03,1.67E-02
1462,2.93E-03,1.17E-02
1463,2.52E-03,1.19E-02
1464,3.07E-03,1.13E-02
1465,2.36E-03,6.68E-03
1466,2.42E-03,6.62E-03
1467,2.29E-03,6.92E-03
1468,2.32E-03,6.88E-03
1469,2.23E-03,6.99E-03
1470,2.26E-03,6.96E-03
1471,2.15E-03,7.04E-03
1472,2.20E-03,7.02E-03
1473,2.17E-03,7.07E-03
1474,2.14E-03,7.06E-03
1475,2.19E-03,7.06E-03
1476,2.17E-03,7.07E-03
1477,2.20E-03,7.04E-03
1478,2.21E-03,7.06E-03
1479,2.20E-03,7.00E-03
1480,2.20E-03,7.02E-03
1481,2.21E-03,6.97E-03
1482,2.32E-03,6.81E-03
1483,2.24E-03,6.84E-03
1484,2.43E-03,6.72E-03
1485,2.35E-03,6.74E-03
1486,2.34E-03,6.78E-03
1487,2.86E-03,6.82E-03
1488,2.54E-03,7.51E-03
1489,2.57E-03,1.19E-02
1490,2.51E-03,1.14E-02
1491,2.57E-03,1.32E-02
1492,2.48E-03,1.27E-02
1493,1.75E-03,6.46E-03
1494,2.60E-03,7.62E-03
1495,2.51E-03,7.46E-03
1496,3.19E-03,9.39E-03
1497,2.25E-03,1.36E-02
1498,2.36E-03,1.37E-02
1499,2.48E-03,1.38E-02
1500,1.49E-03,1.39E-02
1501,1.46E-03,1.39E-02
1502,1.19E-03,1.40E-02
1503,2.23E-03,1.54E-02
1504,2.33E-03,1.70E-02
1505,2.92E-03,6.37E-03
1506,3.14E-03,6.47E-03
1507,2.38E-03,6.75E-03
1508,2.15E-03,6.94E-03
1509,2.17E-03,6.97E-03
1510,2.16E-03,6.91E-03
1511,2.56E-03,7.39E-03
1512,2.44E-03,1.12E-02
1513,2.75E-03,7.95E-03
1514,2.63E-03,1.34E-02
1515,2.52E-03,1.22E-02
1516,2.50E-03,1.24E-02
1517,2.38E-03,6.65E-03
1518,2.29E-03,6.53E-03
1519,2.38E-03,7.38E-03
1520,1.98E-03,7.29E-03
1521,2.64E-03,7.74E-03
1522,2.05E-03,1.34E-02
1523,2.09E-03,1.39E-02
1524,2.02E-03,1.37E-02
1525,2.30E-03,1.53E-02
1526,2.37E-03,6.70E-03
1527,2.45E-03,6.67E-03
1528,2.55E-03,7.29E-03
1529,2.37E-03,1.09E-02
1530,2.69E-03,7.81E-03
1531,2.80E-03,9.00E-03
1532,2.87E-03,8.97E-03
1533,2.75E-03,8.72E-03
1534,2.69E-03,8.74E-03
1535,2.65E-03,1.37E-02
1536,2.61E-03,7.97E-03
1537,2.61E-03,7.87E-03
1538,2.39E-03,1.49E-02
1539,2.31E-03,1.51E-02
1540,2.48E-03,6.71E-03
1541,2.53E-03,7.20E-03
1542,2.41E-03,1.06E-02
1543,2.65E-03,9.02E-03
1544,2.65E-03,1.40E-02
1545,2.52E-03,6.75E-03
1546,2.51E-03,7.11E-03
1547,2.47E-03,1.03E-02
1548,2.29E-03,9.27E-03
1549,2.64E-03,1.43E-02
1550,2.51E-03,7.02E-03
1551,2.55E-03,9.94E-03
1552,2.47E-03,9.71E-03
1553,2.66E-03,1.45E-02
1554,2.01E-03,7.14E-03
1555,2.18E-03,6.87E-03
1556,2.03E-03,7.00E-03
1557,1.85E-03,1.33E-02
1558,2.53E-03,1.33E-02
1559,2.57E-03,6.80E-03
1560,2.52E-03,6.94E-03
1561,2.61E-03,9.61E-03
1562,2.45E-03,1.01E-02
1563,2.69E-03,1.48E-02
1564,2.56E-03,6.87E-03
1565,2.59E-03,9.06E-03
1566,2.59E-03,9.29E-03
1567,2.43E-03,1.06E-02
1568,2.70E-03,1.51E-02
1569,2.45E-03,8.97E-03
1570,2.47E-03,1.12E-02
1571,2.65E-03,1.55E-02
1572,2.34E-03,8.56E-03
1573,2.03E-03,8.71E-03
1574,2.50E-03,1.23E-02
1575,2.49E-03,1.18E-02
1576,2.57E-03,1.58E-02
1577,3.01E-03,1.65E-02
1578,2.98E-03,1.61E-02
1579,2.49E-03,1.25E-02
1580,2.49E-03,1.29E-02
1581,2.48E-03,1.30E-02
1582,2.72E-03,8.21E-03
1583,2.70E-03,8.24E-03
1584,2.72E-03,8.16E-03
1585,2.73E-03,8.11E-03
1586,2.71E-03,8.10E-03
1587,2.67E-03,8.08E-03
1588,2.61E-03,8.06E-03
1589,1.81E-03,1.59E-02
1590,2.63E-03,7.68E-03
1591,2.58E-03,7.59E-03
1592,2.58E-03,1.17E-02
1593,2.97E-03,9.59E-03
1594,3.01E-03,9.28E-03
1595,2.86E-03,1.05E-02
1596,2.86E-03,9.99E-03
1597,2.89E-03,1.10E-02
1598,2.51E-03,1.29E-02
1599,2.58E-03,6.23E-03
1600,1.90E-03,6.32E-03
1601,2.61E-03,7.53E-03
1602,3.02E-03,8.97E-03
1603,3.01E-03,8.89E-03
1604,3.12E-03,9.16E-03
1605,3.06E-03,9.07E-03
1606,3.01E-03,9.27E-03
1607,2.79E-03,9.94E-03
1608,2.70E-03,9.68E-03
1609,2.70E-03,1.04E-02
1610,2.71E-03,1.02E-02
1611,2.73E-03,1.09E-02
1612,2.70E-03,1.07E-02
1613,2.75E-03,1.14E-02
1614,2.75E-03,1.11E-02
1615,2.75E-03,1.18E-02
1616,2.76E-03,1.16E-02
1617,2.74E-03,1.22E-02
1618,2.72E-03,1.20E-02
1619,2.68E-03,1.26E-02
1620,2.72E-03,1.24E-02
1621,2.58E-03,1.29E-02
1622,2.63E-03,1.27E-02
1623,2.45E-03,1.31E-02
1624,2.52E-03,1.30E-02
1625,2.21E-03,1.33E-02
1626,2.33E-03,1.32E-02
1627,2.24E-03,1.33E-02
1628,2.28E-03,1.36E-02
1629,2.63E-03,1.39E-02
1630,2.77E-03,1.38E-02
1631,2.70E-03,1.39E-02
1632,2.68E-03,1.39E-02
1633,2.86E-03,1.40E-02
1634,2.39E-03,1.42E-02
1635,1.90E-03,1.41E-02
1636,2.52E-03,1.46E-02
1637,2.49E-03,1.44E-02
1638,2.45E-03,1.47E-02
1639,2.25E-03,1.56E-02
1640,1.91E-03,1.63E-02
1641,1.60E-03,1.61E-02
1642,1.71E-03,1.62E-02
1643,1.99E-03,1.64E-02
1644,1.97E-03,1.64E-02
1645,1.94E-03,1.66E-02
1646,1.97E-03,1.65E-02
1647,1.99E-03,1.68E-02
1648,1.98E-03,1.67E-02
1649,2.11E-03,1.70E-02
1650,2.04E-03,1.69E-02
1651,2.26E-03,1.72E-02
1652,2.22E-03,1.71E-02
1653,2.33E-03,1.71E-02
1654,2.32E-03,1.71E-02
1655,2.35E-03,1.71E-02
1656,2.34E-03,1.71E-02
1657,2.39E-03,1.71E-02
1658,2.36E-03,1.71E-02
1659,2.67E-03,1.70E-02
1660,2.53E-03,1.70E-02
1661,2.71E-03,1.64E-02
1662,2.71E-03,1.68E-02
1663,2.82E-03,1.69E-02
1664,2.53E-03,1.26E-02
1665,2.52E-03,1.27E-02
1666,2.70E-03,1.22E-02
1667,2.59E-03,1.24E-02
1668,3.04E-03,1.17E-02
1669,2.98E-03,1.20E-02
1670,2.96E-03,1.15E-02
1671,2.51E-03,6.62E-03
1672,2.64E-03,6.56E-03
1673,2.36E-03,6.87E-03
1674,2.36E-03,6.82E-03
1675,2.26E-03,6.95E-03
1676,2.30E-03,6.92E-03
1677,2.17E-03,7.01E-03
1678,2.21E-03,6.99E-03
1679,2.19E-03,7.05E-03
1680,2.17E-03,7.03E-03
1681,2.20E-03,7.06E-03
1682,2.19E-03,7.05E-03
1683,2.20E-03,7.04E-03
1684,2.19E-03,7.05E-03
1685,2.22E-03,7.00E-03
1686,2.22E-03,7.03E-03
1687,2.21E-03,6.98E-03
1688,2.28E-03,6.84E-03
1689,2.24E-03,6.87E-03
1690,2.29E-03,6.77E-03
1691,2.30E-03,6.80E-03
1692,2.38E-03,6.65E-03
1693,2.28E-03,6.69E-03
1694,2.29E-03,6.73E-03
1695,2.38E-03,6.60E-03
1696,2.44E-03,6.61E-03
1697,2.19E-03,6.65E-03
1698,2.40E-03,6.76E-03
1699,2.05E-03,6.53E-03
1700,1.82E-03,6.54E-03
1701,2.58E-03,7.47E-03
1702,2.55E-03,1.19E-02
1703,2.50E-03,1.14E-02
1704,2.71E-03,8.06E-03
1705,2.72E-03,8.52E-03
1706,2.71E-03,8.34E-03
1707,2.73E-03,8.35E-03
1708,2.77E-03,8.71E-03
1709,2.84E-03,8.94E-03
1710,2.57E-03,1.32E-02
1711,2.50E-03,1.27E-02
1712,2.18E-03,6.38E-03
1713,1.70E-03,7.36E-03
1714,1.85E-03,7.25E-03
1715,2.65E-03,7.65E-03
1716,2.77E-03,7.45E-03
1717,3.23E-03,9.16E-03
1718,2.81E-03,9.43E-03
1719,2.15E-03,1.34E-02
1720,2.49E-03,1.37E-02
1721,2.51E-03,1.36E-02
1722,2.05E-03,1.54E-02
1723,2.16E-03,1.58E-02
1724,2.34E-03,1.59E-02
1725,2.31E-03,1.72E-02
1726,2.25E-03,1.67E-02
1727,2.90E-03,6.27E-03
1728,2.91E-03,6.38E-03
1729,2.46E-03,6.69E-03
1730,2.21E-03,6.99E-03
1731,2.19E-03,6.97E-03
1732,2.21E-03,6.94E-03
1733,2.47E-03,6.63E-03
1734,2.59E-03,7.35E-03
1735,2.41E-03,1.11E-02
1736,2.69E-03,7.91E-03
1737,2.69E-03,8.52E-03
1738,2.62E-03,1.34E-02
1739,2.50E-03,1.21E-02
1740,2.50E-03,1.24E-02
1741,2.31E-03,6.58E-03
1742,2.29E-03,6.44E-03
1743,2.47E-03,6.09E-03
1744,2.89E-03,5.97E-03
1745,2.48E-03,5.69E-03
1746,2.68E-03,5.84E-03
1747,2.63E-03,7.78E-03
1748,2.17E-03,1.53E-02
1749,2.35E-03,1.49E-02
1750,2.26E-03,1.51E-02
1751,2.51E-03,6.66E-03
1752,2.57E-03,7.25E-03
1753,2.42E-03,1.08E-02
1754,2.64E-03,7.78E-03
1755,2.59E-03,8.75E-03
1756,2.63E-03,1.37E-02
1757,2.55E-03,8.02E-03
1758,2.56E-03,7.91E-03
1759,2.59E-03,5.55E-03
1760,2.09E-03,5.51E-03
1761,2.51E-03,5.40E-03
1762,2.52E-03,6.70E-03
1763,2.54E-03,7.16E-03
1764,2.47E-03,1.05E-02
1765,2.53E-03,9.01E-03
1766,2.62E-03,1.40E-02
1767,2.53E-03,7.06E-03
1768,2.52E-03,1.02E-02
1769,2.44E-03,9.34E-03
1770,2.62E-03,1.43E-02
1771,2.02E-03,7.10E-03
1772,1.82E-03,1.32E-02
1773,2.37E-03,1.32E-02
1774,2.16E-03,5.66E-03
1775,2.55E-03,6.76E-03
1776,2.53E-03,6.98E-03
1777,2.56E-03,9.87E-03
1778,2.47E-03,9.79E-03
1779,2.64E-03,1.45E-02
1780,2.57E-03,6.82E-03
1781,2.55E-03,6.90E-03
1782,2.59E-03,9.54E-03
1783,2.44E-03,1.02E-02
1784,2.66E-03,1.48E-02
1785,2.53E-03,9.21E-03
1786,2.47E-03,1.08E-02
1787,2.69E-03,1.51E-02
1788,2.39E-03,8.89E-03
1789,2.47E-03,1.14E-02
1790,2.62E-03,1.55E-02
1791,2.48E-03,1.20E-02
1792,2.63E-03,1.58E-02
1793,2.62E-03,8.60E-03
1794,3.13E-03,8.56E-03
1795,3.09E-03,8.39E-03
1796,2.45E-03,1.32E-02
1797,2.46E-03,1.26E-02
1798,2.76E-03,1.61E-02
1799,2.63E-03,1.64E-02
1800,2.46E-03,1.33E-02
1801,2.46E-03,1.37E-02
1802,2.43E-03,1.39E-02
1803,2.71E-03,6.56E-03
1804,2.70E-03,8.27E-03
1805,2.70E-03,8.20E-03
1806,2.69E-03,8.17E-03
1807,2.66E-03,8.16E-03
1808,2.62E-03,8.14E-03
1809,2.56E-03,8.11E-03
1810,1.90E-03,6.59E-03
1811,2.60E-03,7.64E-03
1812,2.60E-03,7.55E-03
1813,2.53E-03,1.17E-02
1814,2.72E-03,8.19E-03
1815,2.72E-03,8.51E-03
1816,2.90E-03,9.54E-03
1817,2.90E-03,9.21E-03
1818,2.85E-03,1.03E-02
1819,2.88E-03,9.89E-03
1820,2.89E-03,1.13E-02
1821,2.88E-03,1.08E-02
1822,2.53E-03,1.29E-02
1823,2.29E-03,6.22E-03
1824,1.62E-03,7.43E-03
1825,1.47E-03,7.32E-03
1826,2.58E-03,7.57E-03
1827,3.13E-03,8.75E-03
1828,3.09E-03,8.65E-03
1829,3.17E-03,8.94E-03
1830,3.15E-03,8.84E-03
1831,3.33E-03,9.04E-03
1832,2.81E-03,9.92E-03
1833,2.79E-03,9.67E-03
1834,2.78E-03,1.04E-02
1835,2.78E-03,1.02E-02
1836,2.73E-03,1.09E-02
1837,2.74E-03,1.06E-02
1838,2.74E-03,1.13E-02
1839,2.75E-03,1.11E-02
1840,2.78E-03,1.17E-02
1841,2.75E-03,1.15E-02
1842,2.76E-03,1.21E-02
1843,2.75E-03,1.19E-02
1844,2.70E-03,1.25E-02
1845,2.77E-03,1.23E-02
1846,2.57E-03,1.28E-02
1847,2.64E-03,1.26E-02
1848,2.43E-03,1.30E-02
1849,2.46E-03,1.29E-02
1850,2.35E-03,1.31E-02
1851,2.31E-03,1.31E-02
1852,2.31E-03,1.32E-02
1853,2.22E-03,1.36E-02
1854,2.20E-03,1.35E-02
1855,2.31E-03,1.36E-02
1856,2.50E-03,1.37E-02
1857,2.63E-03,1.37E-02
1858,2.69E-03,1.38E-02
1859,2.67E-03,1.38E-02
1860,2.76E-03,1.38E-02
1861,2.77E-03,1.38E-02
1862,2.62E-03,1.38E-02
1863,1.98E-03,1.37E-02
1864,2.26E-03,1.35E-02
1865,1.67E-03,1.40E-02
1866,1.97E-03,1.38E-02
1867,2.13E-03,1.43E-02
1868,1.80E-03,1.41E-02
1869,2.47E-03,1.46E-02
1870,2.44E-03,1.44E-02
1871,2.47E-03,1.48E-02
1872,1.85E-03,1.62E-02
1873,1.97E-03,1.60E-02
1874,1.87E-03,1.64E-02
1875,1.85E-03,1.63E-02
1876,1.94E-03,1.66E-02
1877,1.93E-03,1.65E-02
1878,1.95E-03,1.68E-02
1879,1.97E-03,1.67E-02
1880,2.00E-03,1.70E-02
1881,2.01E-03,1.69E-02
1882,2.13E-03,1.72E-02
1883,2.09E-03,1.71E-02
1884,2.27E-03,1.74E-02
1885,2.23E-03,1.73E-02
1886,2.35E-03,1.74E-02
1887,2.33E-03,1.73E-02
1888,2.36E-03,1.74E-02
1889,2.36E-03,1.74E-02
1890,2.43E-03,1.74E-02
1891,2.41E-03,1.74E-02
1892,2.58E-03,1.73E-02
1893,2.53E-03,1.73E-02
1894,2.73E-03,1.72E-02
1895,2.67E-03,1.72E-02
1896,2.55E-03,1.68E-02
1897,2.63E-03,1.71E-02
1898,2.49E-03,1.35E-02
1899,2.48E-03,1.36E-02
1900,2.53E-03,1.32E-02
1901,2.52E-03,1.33E-02
1902,2.63E-03,1.28E-02
1903,2.57E-03,1.30E-02
1904,2.83E-03,1.24E-02
1905,2.71E-03,1.26E-02
1906,2.84E-03,1.19E-02
1907,2.86E-03,1.22E-02
1908,2.81E-03,6.13E-03
1909,2.64E-03,6.56E-03
1910,2.74E-03,6.47E-03
1911,2.39E-03,6.82E-03
1912,2.41E-03,6.76E-03
1913,2.29E-03,6.92E-03
1914,2.30E-03,6.87E-03
1915,2.20E-03,6.99E-03
1916,2.24E-03,6.96E-03
1917,2.19E-03,7.03E-03
1918,2.19E-03,7.01E-03
1919,2.21E-03,7.05E-03
1920,2.21E-03,7.04E-03
1921,2.22E-03,7.04E-03
1922,2.22E-03,7.05E-03
1923,2.23E-03,7.02E-03
1924,2.24E-03,7.03E-03
1925,2.22E-03,7.00E-03
1926,2.24E-03,6.87E-03
1927,2.23E-03,6.90E-03
1928,2.26E-03,6.80E-03
1929,2.26E-03,6.84E-03
1930,2.22E-03,6.74E-03
1931,2.25E-03,6.77E-03
1932,2.13E-03,6.66E-03
1933,2.23E-03,6.70E-03
1934,1.88E-03,6.60E-03
1935,1.93E-03,1.32E-02
1936,1.57E-03,1.32E-02
1937,2.20E-03,6.69E-03
1938,2.54E-03,6.58E-03
1939,2.60E-03,7.43E-03
1940,2.51E-03,1.19E-02
1941,2.46E-03,1.14E-02
1942,2.70E-03,8.03E-03
1943,2.69E-03,8.33E-03
1944,2.70E-03,8.36E-03
1945,2.78E-03,8.69E-03
1946,2.81E-03,8.91E-03
1947,2.56E-03,1.32E-02
1948,2.52E-03,1.26E-02
1949,2.32E-03,6.28E-03
1950,2.48E-03,5.97E-03
1951,1.90E-03,7.21E-03
1952,2.62E-03,7.68E-03
1953,2.55E-03,7.50E-03
1954,3.70E-03,8.96E-03
1955,2.03E-03,1.33E-02
1956,1.89E-03,1.54E-02
1957,2.14E-03,1.53E-02
1958,1.92E-03,1.59E-02
1959,2.09E-03,1.60E-02
1960,2.33E-03,1.75E-02
1961,2.88E-03,1.12E-02
1962,2.84E-03,1.17E-02
1963,2.84E-03,5.87E-03
1964,2.88E-03,6.17E-03
1965,2.86E-03,6.28E-03
1966,2.57E-03,6.63E-03
1967,2.20E-03,6.99E-03
1968,2.22E-03,7.01E-03
1969,2.22E-03,6.97E-03
1970,2.53E-03,6.62E-03
1971,2.59E-03,7.31E-03
1972,2.44E-03,1.11E-02
1973,2.65E-03,7.89E-03
1974,2.64E-03,8.53E-03
1975,2.61E-03,1.34E-02
1976,2.48E-03,1.21E-02
1977,2.49E-03,1.24E-02
1978,2.62E-03,5.70E-03
1979,2.59E-03,7.81E-03
1980,3.21E-03,9.41E-03
1981,2.32E-03,1.50E-02
1982,2.26E-03,1.51E-02
1983,2.62E-03,5.25E-03
1984,2.66E-03,5.39E-03
1985,2.53E-03,6.66E-03
1986,2.55E-03,7.21E-03
1987,2.43E-03,1.08E-02
1988,2.62E-03,7.75E-03
1989,2.53E-03,8.77E-03
1990,2.61E-03,1.37E-02
1991,2.50E-03,8.06E-03
1992,2.50E-03,7.95E-03
1993,2.39E-03,1.34E-02
1994,1.89E-03,1.34E-02
1995,2.02E-03,1.33E-02
1996,2.57E-03,7.11E-03
1997,2.49E-03,1.05E-02
1998,2.46E-03,9.05E-03
1999,2.58E-03,1.40E-02
2000,2.16E-03,7.04E-03
2001,2.30E-03,6.34E-03
2002,2.23E-03,6.50E-03
2003,1.93E-03,1.31E-02
2004,2.07E-03,1.30E-02
2005,2.19E-03,5.40E-03
2006,2.34E-03,5.55E-03
2007,2.55E-03,6.71E-03
2008,2.55E-03,7.02E-03
2009,2.54E-03,1.01E-02
2010,2.46E-03,9.44E-03
2011,2.62E-03,1.42E-02
2012,2.58E-03,6.78E-03
2013,2.58E-03,6.93E-03
2014,2.56E-03,9.79E-03
2015,2.45E-03,9.87E-03
2016,2.64E-03,1.45E-02
2017,2.58E-03,6.85E-03
2018,2.54E-03,9.46E-03
2019,2.46E-03,1.03E-02
2020,2.67E-03,1.48E-02
2021,2.44E-03,9.12E-03
2022,2.47E-03,1.09E-02
2023,2.66E-03,1.51E-02
2024,2.42E-03,8.81E-03
2025,2.47E-03,1.15E-02
2026,2.62E-03,1.54E-02
2027,2.93E-03,8.28E-03
2028,2.66E-03,8.49E-03
2029,2.45E-03,1.21E-02
2030,2.69E-03,1.58E-02
2031,2.46E-03,1.28E-02
2032,2.64E-03,1.61E-02
2033,2.76E-03,8.18E-03
2034,3.11E-03,8.09E-03
2035,2.99E-03,7.99E-03
2036,2.40E-03,1.40E-02
2037,2.43E-03,1.34E-02
2038,2.47E-03,1.64E-02
2039,2.05E-03,6.63E-03
2040,2.05E-03,6.59E-03
2041,1.92E-03,6.52E-03
2042,2.41E-03,1.41E-02
2043,2.43E-03,1.46E-02
2044,2.41E-03,1.47E-02
2045,2.52E-03,6.53E-03
2046,2.66E-03,8.30E-03
2047,2.65E-03,8.25E-03
2048,2.63E-03,8.24E-03
2049,2.60E-03,8.23E-03
2050,2.55E-03,8.21E-03
2051,2.51E-03,8.17E-03
2052,2.60E-03,6.54E-03
2053,2.61E-03,7.61E-03
2054,2.62E-03,7.51E-03
2055,2.50E-03,1.16E-02
2056,2.68E-03,8.17E-03
2057,2.72E-03,8.51E-03
2058,2.87E-03,9.46E-03
2059,2.85E-03,9.16E-03
2060,2.90E-03,1.02E-02
2061,2.90E-03,9.79E-03
2062,2.89E-03,1.06E-02
2063,2.54E-03,1.29E-02
2064,2.37E-03,6.12E-03
2065,1.77E-03,7.40E-03
2066,1.83E-03,7.28E-03
2067,2.51E-03,7.58E-03
2068,3.62E-03,8.32E-03
2069,3.63E-03,8.20E-03
2070,3.18E-03,8.53E-03
2071,3.24E-03,8.43E-03
2072,3.28E-03,8.74E-03
2073,3.21E-03,8.64E-03
2074,3.36E-03,8.83E-03
2075,2.89E-03,9.90E-03
2076,2.94E-03,9.65E-03
2077,2.81E-03,1.04E-02
2078,2.84E-03,1.01E-02
2079,2.72E-03,1.08E-02
2080,2.75E-03,1.06E-02
2081,2.73E-03,1.13E-02
2082,2.74E-03,1.11E-02
2083,2.74E-03,1.17E-02
2084,2.72E-03,1.15E-02
2085,2.74E-03,1.20E-02
2086,2.74E-03,1.19E-02
2087,2.72E-03,1.24E-02
2088,2.72E-03,1.22E-02
2089,2.61E-03,1.26E-02
2090,2.67E-03,1.25E-02
2091,2.38E-03,1.29E-02
2092,2.47E-03,1.28E-02
2093,2.28E-03,1.30E-02
2094,2.35E-03,1.29E-02
2095,2.24E-03,1.31E-02
2096,2.12E-03,1.34E-02
2097,2.09E-03,1.34E-02
2098,2.02E-03,1.35E-02
2099,1.98E-03,1.35E-02
2100,2.48E-03,1.36E-02
2101,2.25E-03,1.36E-02
2102,2.63E-03,1.36E-02
2103,2.63E-03,1.36E-02
2104,2.67E-03,1.36E-02
2105,2.68E-03,1.36E-02
2106,2.68E-03,1.36E-02
2107,2.69E-03,1.36E-02
2108,2.59E-03,1.35E-02
2109,1.98E-03,1.37E-02
2110,1.91E-03,1.35E-02
2111,1.91E-03,1.39E-02
2112,1.92E-03,1.38E-02
2113,2.11E-03,1.42E-02
2114,1.91E-03,1.41E-02
2115,2.66E-03,1.46E-02
2116,2.38E-03,1.44E-02
2117,2.39E-03,1.48E-02
2118,1.95E-03,1.55E-02
2119,1.95E-03,1.63E-02
2120,2.02E-03,1.61E-02
2121,1.89E-03,1.66E-02
2122,1.91E-03,1.64E-02
2123,1.94E-03,1.68E-02
2124,1.91E-03,1.67E-02
2125,1.98E-03,1.70E-02
2126,1.95E-03,1.69E-02
2127,2.03E-03,1.72E-02
2128,2.02E-03,1.71E-02
2129,2.15E-03,1.74E-02
2130,2.13E-03,1.73E-02
2131,2.28E-03,1.76E-02
2132,2.27E-03,1.75E-02
2133,2.33E-03,1.76E-02
2134,2.35E-03,1.76E-02
2135,2.35E-03,1.77E-02
2136,2.34E-03,1.77E-02
2137,2.45E-03,1.77E-02
2138,2.44E-03,1.77E-02
2139,2.60E-03,1.76E-02
2140,2.55E-03,1.77E-02
2141,2.76E-03,1.75E-02
2142,2.67E-03,1.76E-02
2143,3.18E-03,1.68E-02
2144,3.19E-03,1.73E-02
2145,3.26E-03,1.74E-02
2146,2.46E-03,1.43E-02
2147,2.45E-03,1.44E-02
2148,2.49E-03,1.41E-02
2149,2.48E-03,1.42E-02
2150,2.52E-03,1.38E-02
2151,2.49E-03,1.39E-02
2152,2.59E-03,1.35E-02
2153,2.57E-03,1.36E-02
2154,2.69E-03,1.31E-02
2155,2.59E-03,1.33E-02
2156,2.79E-03,1.26E-02
2157,2.76E-03,1.28E-02
2158,2.81E-03,1.24E-02
2159,2.77E-03,6.03E-03
2160,2.71E-03,6.49E-03
2161,2.78E-03,6.39E-03
2162,2.43E-03,6.77E-03
2163,2.47E-03,6.70E-03
2164,2.31E-03,6.88E-03
2165,2.32E-03,6.83E-03
2166,2.22E-03,6.96E-03
2167,2.26E-03,6.93E-03
2168,2.22E-03,7.02E-03
2169,2.19E-03,6.99E-03
2170,2.23E-03,7.04E-03
2171,2.23E-03,7.03E-03
2172,2.24E-03,7.05E-03
2173,2.23E-03,7.05E-03
2174,2.23E-03,7.04E-03
2175,2.25E-03,7.05E-03
2176,2.24E-03,7.03E-03
2177,2.24E-03,6.91E-03
2178,2.23E-03,6.94E-03
2179,2.23E-03,6.85E-03
2180,2.24E-03,6.88E-03
2181,2.24E-03,6.79E-03
2182,2.23E-03,6.82E-03
2183,2.19E-03,6.71E-03
2184,2.23E-03,6.75E-03
2185,2.02E-03,6.68E-03
2186,1.94E-03,1.31E-02
2187,1.92E-03,1.31E-02
2188,2.55E-03,6.57E-03
2189,2.60E-03,7.39E-03
2190,2.47E-03,1.19E-02
2191,2.44E-03,1.14E-02
2192,2.66E-03,8.01E-03
2193,2.65E-03,8.33E-03
2194,2.69E-03,8.38E-03
2195,2.75E-03,8.68E-03
2196,2.79E-03,8.87E-03
2197,2.57E-03,1.32E-02
2198,2.51E-03,1.26E-02
2199,2.34E-03,6.17E-03
2200,2.53E-03,5.85E-03
2201,2.02E-03,7.19E-03
2202,2.61E-03,7.69E-03
2203,2.14E-03,7.52E-03
2204,4.11E-03,8.75E-03
2205,2.03E-03,1.32E-02
2206,2.19E-03,1.53E-02
2207,2.01E-03,1.60E-02
2208,2.04E-03,1.61E-02
2209,2.31E-03,1.77E-02
2210,2.50E-03,5.78E-03
2211,2.90E-03,6.07E-03
2212,2.86E-03,6.20E-03
2213,2.62E-03,6.58E-03
2214,2.22E-03,7.02E-03
2215,2.24E-03,7.04E-03
2216,2.22E-03,7.00E-03
2217,2.94E-03,5.24E-03
2218,2.29E-03,5.26E-03
2219,2.56E-03,6.62E-03
2220,2.59E-03,7.28E-03
2221,2.43E-03,1.11E-02
2222,2.62E-03,7.87E-03
2223,2.59E-03,8.54E-03
2224,2.59E-03,1.34E-02
2225,2.46E-03,1.21E-02
2226,2.48E-03,1.23E-02
2227,2.64E-03,5.56E-03
2228,2.52E-03,7.83E-03
2229,2.47E-03,1.32E-02
2230,2.53E-03,1.32E-02
2231,2.01E-03,1.33E-02
2232,2.20E-03,1.32E-02
2233,2.33E-03,1.50E-02
2234,2.29E-03,1.52E-02
2235,2.55E-03,7.17E-03
2236,2.47E-03,1.07E-02
2237,2.61E-03,7.73E-03
2238,2.52E-03,8.80E-03
2239,2.58E-03,1.37E-02
2240,2.27E-03,4.90E-03
2241,2.17E-03,6.64E-03
2242,2.42E-03,8.12E-03
2243,2.46E-03,7.99E-03
2244,2.22E-03,5.30E-03
2245,2.37E-03,5.45E-03
2246,2.57E-03,6.67E-03
2247,2.57E-03,7.07E-03
2248,2.50E-03,1.04E-02
2249,2.47E-03,9.12E-03
2250,2.57E-03,1.40E-02
2251,2.59E-03,6.73E-03
2252,2.58E-03,6.98E-03
2253,2.53E-03,1.01E-02
2254,2.46E-03,9.53E-03
2255,2.59E-03,1.42E-02
2256,2.60E-03,6.81E-03
2257,2.59E-03,6.89E-03
2258,2.54E-03,9.71E-03
2259,2.45E-03,9.96E-03
2260,2.63E-03,1.45E-02
2261,2.66E-03,5.12E-03
2262,2.51E-03,9.37E-03
2263,2.46E-03,1.05E-02
2264,2.65E-03,1.48E-02
2265,2.47E-03,9.03E-03
2266,2.46E-03,1.10E-02
2267,2.63E-03,1.51E-02
2268,2.57E-03,8.71E-03
2269,2.46E-03,1.16E-02
2270,2.63E-03,1.54E-02
2271,2.65E-03,8.38E-03
2272,2.46E-03,1.22E-02
2273,2.64E-03,1.57E-02
2274,2.74E-03,7.89E-03
2275,2.65E-03,8.08E-03
2276,2.44E-03,1.29E-02
2277,2.58E-03,1.61E-02
2278,2.30E-03,7.59E-03
2279,2.50E-03,7.79E-03
2280,2.41E-03,1.36E-02
2281,2.71E-03,1.64E-02
2282,2.66E-03,6.52E-03
2283,2.47E-03,6.53E-03
2284,3.27E-03,7.69E-03
2285,2.28E-03,7.43E-03
2286,2.05E-03,7.56E-03
2287,2.39E-03,1.48E-02
2288,2.39E-03,1.42E-02
2289,2.93E-03,1.72E-02
2290,2.85E-03,1.68E-02
2291,2.40E-03,1.54E-02
2292,2.38E-03,1.55E-02
2293,2.40E-03,1.49E-02
2294,2.42E-03,6.50E-03
2295,2.62E-03,8.34E-03
2296,2.61E-03,8.31E-03
2297,2.59E-03,8.30E-03
2298,2.54E-03,8.30E-03
2299,2.50E-03,8.28E-03
2300,2.42E-03,8.24E-03
2301,2.57E-03,6.51E-03
2302,2.59E-03,6.54E-03
2303,1.61E-03,7.35E-03
2304,2.60E-03,7.59E-03
2305,2.61E-03,7.48E-03
2306,2.45E-03,1.16E-02
2307,2.64E-03,8.16E-03
2308,2.72E-03,8.52E-03
2309,2.86E-03,9.38E-03
2310,2.82E-03,9.11E-03
2311,2.86E-03,1.01E-02
2312,2.85E-03,9.69E-03
2313,2.88E-03,1.10E-02
2314,2.88E-03,1.05E-02
2315,2.82E-03,1.21E-02
2316,2.85E-03,1.15E-02
2317,2.54E-03,1.29E-02
2318,2.41E-03,6.01E-03
2319,1.98E-03,7.28E-03
2320,2.47E-03,7.60E-03
2321,1.91E-03,7.42E-03
2322,1.99E-03,7.49E-03
2323,3.19E-03,7.90E-03
2324,3.17E-03,7.79E-03
2325,3.36E-03,8.13E-03
2326,3.38E-03,8.01E-03
2327,3.19E-03,8.34E-03
2328,3.22E-03,8.24E-03
2329,3.24E-03,8.54E-03
2330,3.21E-03,8.44E-03
2331,3.37E-03,8.65E-03
2332,3.51E-03,8.89E-03
2333,3.24E-03,9.38E-03
2334,3.38E-03,9.13E-03
2335,2.92E-03,9.88E-03
2336,3.07E-03,9.64E-03
2337,2.82E-03,1.04E-02
2338,2.87E-03,1.01E-02
2339,2.72E-03,1.08E-02
2340,2.73E-03,1.06E-02
2341,2.72E-03,1.12E-02
2342,2.71E-03,1.10E-02
2343,2.74E-03,1.16E-02
2344,2.73E-03,1.14E-02
2345,2.74E-03,1.20E-02
2346,2.74E-03,1.18E-02
2347,2.68E-03,1.23E-02
2348,2.72E-03,1.21E-02
2349,2.56E-03,1.25E-02
2350,2.63E-03,1.24E-02
2351,2.37E-03,1.27E-02
2352,2.51E-03,1.26E-02
2353,2.27E-03,1.29E-02
2354,2.33E-03,1.28E-02
2355,2.20E-03,1.30E-02
2356,2.06E-03,1.33E-02
2357,2.07E-03,1.32E-02
2358,2.09E-03,1.34E-02
2359,2.07E-03,1.33E-02
2360,2.44E-03,1.34E-02
2361,2.30E-03,1.34E-02
2362,2.59E-03,1.35E-02
2363,2.52E-03,1.35E-02
2364,2.66E-03,1.35E-02
2365,2.62E-03,1.35E-02
2366,2.68E-03,1.34E-02
2367,2.67E-03,1.34E-02
2368,2.65E-03,1.33E-02
2369,1.96E-03,1.36E-02
2370,1.99E-03,1.35E-02
2371,1.95E-03,1.39E-02
2372,1.97E-03,1.38E-02
2373,2.08E-03,1.42E-02
2374,1.98E-03,1.40E-02
2375,2.21E-03,1.46E-02
2376,2.08E-03,1.45E-02
2377,2.26E-03,1.43E-02
2378,2.34E-03,1.48E-02
2379,1.99E-03,1.57E-02
2380,2.09E-03,1.55E-02
2381,1.98E-03,1.58E-02
2382,2.00E-03,1.64E-02
2383,2.04E-03,1.63E-02
2384,1.93E-03,1.67E-02
2385,1.93E-03,1.65E-02
2386,1.95E-03,1.69E-02
2387,1.93E-03,1.68E-02
2388,2.01E-03,1.72E-02
2389,1.95E-03,1.71E-02
2390,2.05E-03,1.74E-02
2391,2.02E-03,1.73E-02
2392,2.17E-03,1.76E-02
2393,2.14E-03,1.75E-02
2394,2.29E-03,1.79E-02
2395,2.29E-03,1.77E-02
2396,2.36E-03,1.79E-02
2397,2.34E-03,1.78E-02
2398,2.35E-03,1.80E-02
2399,2.37E-03,1.79E-02
2400,2.44E-03,1.80E-02
2401,2.43E-03,1.80E-02
2402,2.60E-03,1.79E-02
2403,2.56E-03,1.80E-02
2404,2.80E-03,1.78E-02
2405,2.72E-03,1.79E-02
2406,3.00E-03,1.77E-02
2407,2.96E-03,1.77E-02
2408,2.76E-03,1.71E-02
2409,2.76E-03,1.75E-02
2410,2.90E-03,1.76E-02
2411,2.42E-03,1.52E-02
2412,2.42E-03,1.53E-02
2413,2.45E-03,1.50E-02
2414,2.44E-03,1.51E-02
2415,2.48E-03,1.47E-02
2416,2.47E-03,1.48E-02
2417,2.50E-03,1.45E-02
2418,2.47E-03,1.46E-02
2419,2.58E-03,1.41E-02
2420,2.54E-03,1.43E-02
2421,2.67E-03,1.37E-02
2422,2.61E-03,1.40E-02
2423,2.71E-03,1.33E-02
2424,2.69E-03,1.35E-02
2425,2.75E-03,1.28E-02
2426,2.76E-03,1.31E-02
2427,2.82E-03,5.92E-03
2428,2.72E-03,6.43E-03
2429,2.81E-03,6.32E-03
2430,2.46E-03,6.73E-03
2431,2.50E-03,6.66E-03
2432,2.33E-03,6.85E-03
2433,2.35E-03,6.79E-03
2434,2.23E-03,6.94E-03
2435,2.29E-03,6.90E-03
2436,2.22E-03,7.00E-03
2437,2.21E-03,6.97E-03
2438,2.23E-03,7.04E-03
2439,2.23E-03,7.02E-03
2440,2.25E-03,7.06E-03
2441,2.24E-03,7.05E-03
2442,2.23E-03,7.06E-03
2443,2.28E-03,7.06E-03
2444,2.25E-03,7.05E-03
2445,2.24E-03,6.96E-03
2446,2.23E-03,6.98E-03
2447,2.21E-03,6.90E-03
2448,2.23E-03,6.93E-03
2449,2.26E-03,6.84E-03
2450,2.25E-03,6.87E-03
2451,2.27E-03,6.77E-03
2452,2.25E-03,6.81E-03
2453,2.29E-03,6.69E-03
2454,2.25E-03,6.74E-03
2455,2.43E-03,5.13E-03
2456,2.01E-03,1.30E-02
2457,2.00E-03,1.30E-02
2458,1.94E-03,4.72E-03
2459,1.27E-03,4.61E-03
2460,2.66E-03,8.40E-03
2461,2.57E-03,6.58E-03
2462,2.33E-03,6.64E-03
2463,2.61E-03,7.36E-03
2464,2.45E-03,1.18E-02
2465,2.44E-03,1.13E-02
2466,2.58E-03,8.00E-03
2467,2.61E-03,8.34E-03
2468,2.75E-03,8.67E-03
2469,2.77E-03,8.85E-03
2470,2.56E-03,1.31E-02
2471,2.51E-03,1.26E-02
2472,2.29E-03,6.23E-03
2473,2.32E-03,6.05E-03
2474,2.50E-03,5.73E-03
2475,2.29E-03,7.15E-03
2476,2.60E-03,7.72E-03
2477,2.04E-03,1.30E-02
2478,2.49E-03,1.31E-02
2479,1.93E-03,1.46E-02
2480,2.26E-03,1.54E-02
2481,2.06E-03,1.60E-02
2482,2.05E-03,1.62E-02
2483,2.33E-03,1.80E-02
2484,2.43E-03,5.70E-03
2485,2.89E-03,5.98E-03
2486,2.87E-03,6.12E-03
2487,2.68E-03,6.52E-03
2488,2.24E-03,7.06E-03
2489,2.23E-03,7.07E-03
2490,2.23E-03,7.04E-03
2491,2.24E-03,4.86E-03
2492,2.23E-03,5.16E-03
2493,2.57E-03,7.25E-03
2494,2.45E-03,1.10E-02
2495,2.59E-03,7.85E-03
2496,2.54E-03,8.57E-03
2497,2.79E-03,1.19E-02
2498,2.73E-03,1.26E-02
2499,2.57E-03,1.34E-02
2500,2.45E-03,1.20E-02
2501,2.47E-03,1.23E-02
2502,2.76E-03,4.75E-03
2503,2.60E-03,5.44E-03
2504,2.28E-03,6.40E-03
2505,2.57E-03,7.86E-03
2506,3.25E-03,8.67E-03
2507,3.18E-03,8.90E-03
2508,3.02E-03,8.70E-03
2509,2.29E-03,1.50E-02
2510,2.37E-03,1.52E-02
2511,1.88E-03,4.66E-03
2512,2.23E-03,5.34E-03
2513,2.18E-03,5.20E-03
2514,2.59E-03,6.63E-03
2515,2.55E-03,7.14E-03
2516,2.47E-03,1.07E-02
2517,2.60E-03,7.71E-03
2518,2.50E-03,8.84E-03
2519,2.54E-03,1.37E-02
2520,2.33E-03,8.17E-03
2521,2.37E-03,8.02E-03
2522,2.61E-03,6.69E-03
2523,2.57E-03,7.03E-03
2524,2.50E-03,1.03E-02
2525,2.47E-03,9.20E-03
2526,2.57E-03,1.39E-02
2527,2.60E-03,6.77E-03
2528,2.58E-03,6.94E-03
2529,2.52E-03,9.97E-03
2530,2.46E-03,9.61E-03
2531,2.61E-03,1.42E-02
2532,1.75E-03,4.80E-03
2533,2.00E-03,5.02E-03
2534,2.59E-03,6.85E-03
2535,2.51E-03,9.62E-03
2536,2.45E-03,1.01E-02
2537,2.64E-03,1.45E-02
2538,2.50E-03,9.27E-03
2539,2.45E-03,1.06E-02
2540,2.63E-03,1.48E-02
2541,2.50E-03,8.94E-03
2542,2.46E-03,1.11E-02
2543,2.61E-03,1.51E-02
2544,2.57E-03,8.60E-03
2545,2.45E-03,1.17E-02
2546,2.63E-03,1.54E-02
2547,2.60E-03,8.28E-03
2548,2.44E-03,1.24E-02
2549,2.61E-03,1.57E-02
2550,2.77E-03,6.52E-03
2551,2.60E-03,6.57E-03
2552,2.60E-03,6.53E-03
2553,2.73E-03,6.47E-03
2554,2.47E-03,7.98E-03
2555,2.41E-03,1.30E-02
2556,2.61E-03,1.60E-02
2557,2.34E-03,1.56E-02
2558,2.35E-03,1.62E-02
2559,2.31E-03,1.63E-02
2560,2.32E-03,1.57E-02
2561,2.38E-03,7.29E-03
2562,2.71E-03,7.19E-03
2563,2.63E-03,7.08E-03
2564,2.51E-03,7.19E-03
2565,2.68E-03,6.44E-03
2566,2.51E-03,7.71E-03
2567,2.41E-03,1.37E-02
2568,2.74E-03,1.64E-02
2569,2.63E-03,1.74E-02
2570,2.65E-03,1.71E-02
2571,2.37E-03,1.50E-02
2572,2.53E-03,7.45E-03
2573,2.49E-03,6.46E-03
2574,2.38E-03,1.44E-02
2575,2.75E-03,1.67E-02
2576,2.61E-03,8.39E-03
2577,2.56E-03,8.38E-03
2578,2.53E-03,8.38E-03
2579,2.50E-03,8.37E-03
2580,2.46E-03,8.35E-03
2581,2.35E-03,8.30E-03
2582,2.54E-03,6.47E-03
2583,2.58E-03,6.50E-03
2584,2.64E-03,8.43E-03
2585,2.59E-03,6.54E-03
2586,1.65E-03,5.25E-03
2587,2.48E-03,6.60E-03
2588,2.60E-03,7.57E-03
2589,2.60E-03,7.46E-03
2590,2.46E-03,1.16E-02
2591,2.60E-03,8.16E-03
2592,2.69E-03,8.52E-03
2593,2.84E-03,9.31E-03
2594,2.79E-03,9.06E-03
2595,2.87E-03,9.93E-03
2596,2.86E-03,9.59E-03
2597,2.83E-03,1.08E-02
2598,2.86E-03,1.03E-02
2599,2.82E-03,1.13E-02
2600,2.54E-03,1.29E-02
2601,2.41E-03,5.89E-03
2602,2.13E-03,7.30E-03
2603,2.77E-03,7.58E-03
2604,3.44E-03,7.50E-03
2605,3.17E-03,7.32E-03
2606,3.29E-03,7.73E-03
2607,3.25E-03,7.62E-03
2608,3.25E-03,7.95E-03
2609,3.26E-03,7.84E-03
2610,3.19E-03,8.16E-03
2611,3.22E-03,8.06E-03
2612,3.23E-03,8.36E-03
2613,3.19E-03,8.26E-03
2614,3.43E-03,8.53E-03
2615,3.30E-03,8.45E-03
2616,3.43E-03,8.61E-03
2617,2.43E-03,6.62E-03
2618,2.72E-03,6.49E-03
2619,2.49E-03,6.58E-03
2620,3.16E-03,9.37E-03
2621,3.17E-03,9.12E-03
2622,2.93E-03,9.85E-03
2623,3.04E-03,9.62E-03
2624,2.82E-03,1.03E-02
2625,2.89E-03,1.01E-02
2626,2.73E-03,1.07E-02
2627,2.70E-03,1.05E-02
2628,2.71E-03,1.11E-02
2629,2.69E-03,1.09E-02
2630,2.75E-03,1.15E-02
2631,2.70E-03,1.13E-02
2632,2.74E-03,1.19E-02
2633,2.73E-03,1.17E-02
2634,2.72E-03,1.22E-02
2635,2.70E-03,1.20E-02
2636,2.57E-03,1.24E-02
2637,2.68E-03,1.23E-02
2638,2.40E-03,1.26E-02
2639,2.46E-03,1.25E-02
2640,2.25E-03,1.28E-02
2641,2.29E-03,1.27E-02
2642,2.13E-03,1.28E-02
2643,2.08E-03,1.31E-02
2644,2.08E-03,1.31E-02
2645,2.13E-03,1.32E-02
2646,2.08E-03,1.32E-02
2647,2.36E-03,1.33E-02
2648,2.33E-03,1.33E-02
2649,2.53E-03,1.33E-02
2650,2.48E-03,1.33E-02
2651,2.62E-03,1.33E-02
2652,2.60E-03,1.33E-02
2653,2.69E-03,1.32E-02
2654,2.66E-03,1.33E-02
2655,2.68E-03,1.31E-02
2656,2.68E-03,1.32E-02
2657,2.74E-03,1.29E-02
2658,2.68E-03,1.30E-02
2659,2.50E-03,1.30E-02
2660,2.11E-03,1.33E-02
2661,2.26E-03,1.31E-02
2662,1.99E-03,1.36E-02
2663,2.05E-03,1.34E-02
2664,1.97E-03,1.38E-02
2665,1.98E-03,1.37E-02
2666,2.04E-03,1.41E-02
2667,2.01E-03,1.40E-02
2668,1.90E-03,1.44E-02
2669,1.99E-03,1.43E-02
2670,2.26E-03,1.48E-02
2671,2.10E-03,1.57E-02
2672,2.16E-03,1.55E-02
2673,2.06E-03,1.59E-02
2674,2.02E-03,1.65E-02
2675,2.03E-03,1.64E-02
2676,1.95E-03,1.68E-02
2677,1.97E-03,1.67E-02
2678,1.95E-03,1.71E-02
2679,1.95E-03,1.69E-02
2680,1.99E-03,1.73E-02
2681,1.97E-03,1.72E-02
2682,2.08E-03,1.76E-02
2683,2.05E-03,1.75E-02
2684,2.20E-03,1.78E-02
2685,2.18E-03,1.77E-02
2686,2.31E-03,1.81E-02
2687,2.29E-03,1.80E-02
2688,2.34E-03,1.81E-02
2689,2.37E-03,1.81E-02
2690,2.36E-03,1.82E-02
2691,2.36E-03,1.82E-02
2692,2.45E-03,1.83E-02
2693,2.42E-03,1.83E-02
2694,2.61E-03,1.82E-02
2695,2.56E-03,1.83E-02
2696,2.79E-03,1.82E-02
2697,2.70E-03,1.82E-02
2698,2.89E-03,1.80E-02
2699,2.86E-03,1.81E-02
2700,2.75E-03,1.79E-02
2701,2.85E-03,1.80E-02
2702,2.57E-03,1.74E-02
2703,2.49E-03,1.78E-02
2704,2.64E-03,1.78E-02
2705,2.40E-03,1.60E-02
2706,2.38E-03,1.61E-02
2707,2.46E-03,1.58E-02
2708,2.44E-03,1.59E-02
2709,2.46E-03,1.56E-02
2710,2.47E-03,1.57E-02
2711,2.48E-03,1.54E-02
2712,2.46E-03,1.55E-02
2713,2.50E-03,1.52E-02
2714,2.48E-03,1.53E-02
2715,2.55E-03,1.49E-02
2716,2.51E-03,1.50E-02
2717,2.60E-03,1.45E-02
2718,2.54E-03,1.47E-02
2719,2.63E-03,1.41E-02
2720,2.64E-03,1.43E-02
2721,2.66E-03,1.36E-02
2722,2.66E-03,1.38E-02
2723,2.83E-03,5.83E-03
2724,2.78E-03,6.37E-03
2725,2.84E-03,6.25E-03
2726,2.48E-03,6.68E-03
2727,2.59E-03,6.61E-03
2728,2.35E-03,6.82E-03
2729,2.39E-03,6.75E-03
2730,2.24E-03,6.92E-03
2731,2.29E-03,6.87E-03
2732,2.22E-03,6.99E-03
2733,2.22E-03,6.96E-03
2734,2.26E-03,7.04E-03
2735,2.24E-03,7.02E-03
2736,2.25E-03,7.07E-03
2737,2.26E-03,7.06E-03
2738,2.25E-03,7.08E-03
2739,2.28E-03,7.07E-03
2740,2.26E-03,7.07E-03
2741,2.24E-03,7.01E-03
2742,2.22E-03,7.03E-03
2743,2.22E-03,6.96E-03
2744,2.24E-03,6.98E-03
2745,2.27E-03,6.91E-03
2746,2.26E-03,6.93E-03
2747,2.32E-03,6.84E-03
2748,2.31E-03,6.88E-03
2749,2.35E-03,6.77E-03
2750,2.34E-03,6.81E-03
2751,2.26E-03,5.01E-03
2752,2.40E-03,6.73E-03
2753,2.40E-03,6.65E-03
2754,2.60E-03,7.33E-03
2755,2.43E-03,1.18E-02
2756,2.44E-03,1.13E-02
2757,2.56E-03,8.01E-03
2758,2.55E-03,8.36E-03
2759,2.72E-03,8.68E-03
2760,2.75E-03,8.83E-03
2761,2.68E-03,1.33E-02
2762,2.53E-03,1.31E-02
2763,2.51E-03,1.26E-02
2764,2.56E-03,4.54E-03
2765,2.51E-03,5.62E-03
2766,2.33E-03,6.57E-03
2767,2.53E-03,7.11E-03
2768,2.62E-03,7.72E-03
2769,3.06E-03,8.45E-03
2770,2.79E-03,8.48E-03
2771,2.09E-03,1.27E-02
2772,2.02E-03,1.29E-02
2773,2.02E-03,1.28E-02
2774,2.04E-03,1.29E-02
2775,3.00E-03,1.28E-02
2776,2.25E-03,1.46E-02
2777,2.31E-03,1.54E-02
2778,2.07E-03,1.61E-02
2779,2.05E-03,1.63E-02
2780,2.33E-03,1.82E-02
2781,2.53E-03,1.81E-02
2782,2.55E-03,5.59E-03
2783,2.96E-03,5.89E-03
2784,2.92E-03,6.05E-03
2785,2.71E-03,6.47E-03
2786,2.24E-03,7.09E-03
2787,2.24E-03,7.10E-03
2788,2.25E-03,7.09E-03
2789,2.05E-03,4.78E-03
2790,2.20E-03,5.06E-03
2791,2.59E-03,6.59E-03
2792,2.20E-03,1.63E-02
2793,2.24E-03,1.69E-02
2794,1.77E-03,1.69E-02
2795,2.10E-03,6.60E-03
2796,2.41E-03,6.52E-03
2797,2.58E-03,7.22E-03
2798,2.45E-03,1.09E-02
2799,2.57E-03,7.85E-03
2800,2.52E-03,8.60E-03
2801,2.54E-03,1.34E-02
2802,2.44E-03,1.20E-02
2803,2.46E-03,1.22E-02
2804,2.38E-03,4.66E-03
2805,2.27E-03,5.94E-03
2806,2.23E-03,6.11E-03
2807,2.54E-03,5.33E-03
2808,2.46E-03,7.88E-03
2809,2.23E-03,1.50E-02
2810,2.21E-03,1.52E-02
2811,2.41E-03,1.78E-02
2812,2.60E-03,6.65E-03
2813,2.55E-03,7.10E-03
2814,2.48E-03,1.06E-02
2815,2.60E-03,7.70E-03
2816,2.48E-03,8.91E-03
2817,2.53E-03,1.36E-02
2818,2.15E-03,8.23E-03
2819,2.60E-03,6.73E-03
2820,2.56E-03,7.00E-03
2821,2.49E-03,1.02E-02
2822,2.47E-03,9.28E-03
2823,2.59E-03,1.39E-02
2824,2.11E-03,4.86E-03
2825,2.59E-03,6.81E-03
2826,2.58E-03,6.90E-03
2827,2.47E-03,9.88E-03
2828,2.46E-03,9.70E-03
2829,2.61E-03,1.42E-02
2830,2.47E-03,9.53E-03
2831,2.46E-03,1.02E-02
2832,2.63E-03,1.44E-02
2833,2.48E-03,9.18E-03
2834,2.45E-03,1.07E-02
2835,2.60E-03,1.47E-02
2836,2.51E-03,8.84E-03
2837,2.44E-03,1.13E-02
2838,2.58E-03,1.50E-02
2839,2.62E-03,6.48E-03
2840,2.56E-03,8.50E-03
2841,2.44E-03,1.19E-02
2842,2.60E-03,1.53E-02
2843,2.21E-03,1.65E-02
2844,2.63E-03,6.98E-03
2845,2.70E-03,6.87E-03
2846,2.80E-03,6.80E-03
2847,2.40E-03,6.89E-03
2848,2.66E-03,6.43E-03
2849,2.53E-03,8.18E-03
2850,2.44E-03,1.25E-02
2851,2.59E-03,1.57E-02
2852,2.50E-03,1.74E-02
2853,2.30E-03,1.58E-02
2854,2.49E-03,7.09E-03
2855,2.60E-03,6.41E-03
2856,2.44E-03,7.88E-03
2857,2.42E-03,1.31E-02
2858,2.66E-03,1.60E-02
2859,2.59E-03,1.70E-02
2860,2.35E-03,1.51E-02
2861,2.50E-03,7.33E-03
2862,2.55E-03,6.41E-03
2863,2.44E-03,7.61E-03
2864,2.41E-03,1.38E-02
2865,2.73E-03,1.64E-02
2866,2.64E-03,1.67E-02
2867,2.57E-03,8.45E-03
2868,2.52E-03,8.45E-03
2869,2.51E-03,8.46E-03
2870,2.49E-03,8.45E-03
2871,2.41E-03,8.42E-03
2872,2.25E-03,8.36E-03
2873,2.39E-03,1.45E-02
2874,2.54E-03,6.43E-03
2875,2.56E-03,6.46E-03
2876,2.64E-03,8.48E-03
2877,2.60E-03,6.50E-03
2878,2.05E-03,5.11E-03
2879,1.39E-03,4.48E-03
2880,1.80E-03,4.42E-03
2881,1.62E-03,5.18E-03
2882,2.43E-03,6.69E-03
2883,2.62E-03,7.56E-03
2884,2.61E-03,7.44E-03
2885,2.44E-03,1.15E-02
2886,2.55E-03,8.17E-03
2887,2.68E-03,8.55E-03
2888,2.81E-03,9.24E-03
2889,2.76E-03,9.02E-03
2890,2.85E-03,9.80E-03
2891,2.83E-03,9.50E-03
2892,2.87E-03,1.06E-02
2893,2.87E-03,1.02E-02
2894,2.81E-03,1.17E-02
2895,2.85E-03,1.11E-02
2896,2.67E-03,1.31E-02
2897,2.73E-03,1.23E-02
2898,1.78E-03,4.09E-03
2899,1.67E-03,4.35E-03
2900,1.96E-03,4.24E-03
2901,2.52E-03,1.28E-02
2902,1.87E-03,4.03E-03
2903,1.94E-03,3.68E-03
2904,2.59E-03,3.84E-03
2905,2.74E-03,4.32E-03
2906,2.42E-03,5.78E-03
2907,2.30E-03,6.75E-03
2908,2.79E-03,7.46E-03
2909,2.57E-03,7.27E-03
2910,2.82E-03,7.57E-03
2911,2.94E-03,7.09E-03
2912,2.81E-03,6.98E-03
2913,3.24E-03,7.34E-03
2914,3.02E-03,7.21E-03
2915,3.23E-03,7.58E-03
2916,3.22E-03,7.47E-03
2917,3.18E-03,7.80E-03
2918,3.19E-03,7.69E-03
2919,3.16E-03,8.00E-03
2920,3.16E-03,7.90E-03
2921,3.18E-03,8.18E-03
2922,3.18E-03,8.09E-03
2923,3.18E-03,8.33E-03
2924,3.20E-03,8.26E-03
2925,3.16E-03,8.39E-03
2926,2.40E-03,6.72E-03
2927,2.17E-03,6.70E-03
2928,2.30E-03,8.49E-03
2929,3.09E-03,8.88E-03
2930,3.00E-03,8.69E-03
2931,3.06E-03,9.35E-03
2932,3.10E-03,9.11E-03
2933,2.94E-03,9.82E-03
2934,2.97E-03,9.59E-03
2935,2.76E-03,1.03E-02
2936,2.87E-03,1.00E-02
2937,2.72E-03,1.07E-02
2938,2.69E-03,1.05E-02
2939,2.68E-03,1.11E-02
2940,2.69E-03,1.09E-02
2941,2.74E-03,1.14E-02
2942,2.69E-03,1.13E-02
2943,2.76E-03,1.18E-02
2944,2.73E-03,1.16E-02
2945,2.68E-03,1.21E-02
2946,2.71E-03,1.19E-02
2947,2.61E-03,1.23E-02
2948,2.67E-03,1.22E-02
2949,2.43E-03,1.25E-02
2950,2.49E-03,1.24E-02
2951,2.26E-03,1.26E-02
2952,2.25E-03,1.26E-02
2953,2.14E-03,1.27E-02
2954,2.03E-03,1.28E-02
2955,2.11E-03,1.30E-02
2956,2.08E-03,1.30E-02
2957,2.19E-03,1.31E-02
2958,2.14E-03,1.31E-02
2959,2.35E-03,1.32E-02
2960,2.29E-03,1.31E-02
2961,2.52E-03,1.32E-02
2962,2.47E-03,1.32E-02
2963,2.65E-03,1.32E-02
2964,2.61E-03,1.32E-02
2965,2.69E-03,1.31E-02
2966,2.71E-03,1.31E-02
2967,2.71E-03,1.30E-02
2968,2.70E-03,1.30E-02
2969,2.80E-03,1.28E-02
2970,2.72E-03,1.29E-02
2971,2.20E-03,1.24E-02
2972,2.34E-03,1.26E-02
2973,2.22E-03,1.26E-02
2974,3.02E-03,1.27E-02
2975,2.46E-03,1.29E-02
2976,2.89E-03,1.27E-02
2977,2.17E-03,1.32E-02
2978,2.25E-03,1.30E-02
2979,2.04E-03,1.35E-02
2980,2.10E-03,1.33E-02
2981,1.98E-03,1.38E-02
2982,2.01E-03,1.36E-02
2983,2.00E-03,1.41E-02
2984,1.99E-03,1.39E-02
2985,2.04E-03,1.44E-02
2986,2.01E-03,1.42E-02
2987,2.18E-03,1.48E-02
2988,2.18E-03,1.58E-02
2989,2.25E-03,1.56E-02
2990,2.10E-03,1.59E-02
2991,2.04E-03,1.66E-02
2992,2.04E-03,1.64E-02
2993,1.98E-03,1.69E-02
2994,2.01E-03,1.68E-02
2995,1.97E-03,1.72E-02
2996,1.96E-03,1.71E-02
2997,2.02E-03,1.75E-02
2998,1.99E-03,1.74E-02
2999,2.11E-03,1.78E-02
3000,2.09E-03,1.76E-02
3001,2.21E-03,1.80E-02
3002,2.16E-03,1.79E-02
3003,2.32E-03,1.83E-02
3004,2.30E-03,1.82E-02
3005,2.37E-03,1.84E-02
3006,2.37E-03,1.83E-02
3007,2.41E-03,1.85E-02
3008,2.38E-03,1.85E-02
3009,2.43E-03,1.86E-02
3010,2.41E-03,1.86E-02
3011,2.60E-03,1.86E-02
3012,2.58E-03,1.86E-02
3013,2.77E-03,1.85E-02
3014,2.69E-03,1.85E-02
3015,2.85E-03,1.84E-02
3016,2.82E-03,1.84E-02
3017,2.75E-03,1.83E-02
3018,2.84E-03,1.83E-02
3019,2.67E-03,1.82E-02
3020,2.40E-03,1.68E-02
3021,2.34E-03,1.69E-02
3022,2.45E-03,1.67E-02
3023,2.43E-03,1.67E-02
3024,2.46E-03,1.65E-02
3025,2.45E-03,1.66E-02
3026,2.45E-03,1.63E-02
3027,2.47E-03,1.64E-02
3028,2.46E-03,1.62E-02
3029,2.46E-03,1.63E-02
3030,2.46E-03,1.59E-02
3031,2.44E-03,1.60E-02
3032,2.51E-03,1.56E-02
3033,2.46E-03,1.58E-02
3034,2.55E-03,1.53E-02
3035,2.53E-03,1.55E-02
3036,2.59E-03,1.49E-02
3037,2.57E-03,1.51E-02
3038,2.62E-03,1.44E-02
3039,2.62E-03,1.46E-02
3040,2.62E-03,1.39E-02
3041,2.62E-03,1.41E-02
3042,1.92E-03,4.57E-03
3043,1.74E-03,4.46E-03
3044,3.00E-03,5.74E-03
3045,2.82E-03,6.31E-03
3046,2.88E-03,6.18E-03
3047,2.48E-03,6.65E-03
3048,2.58E-03,6.56E-03
3049,2.37E-03,6.79E-03
3050,2.40E-03,6.72E-03
3051,2.28E-03,6.90E-03
3052,2.30E-03,6.85E-03
3053,2.23E-03,6.98E-03
3054,2.25E-03,6.94E-03
3055,2.27E-03,7.04E-03
3056,2.26E-03,7.01E-03
3057,2.26E-03,7.08E-03
3058,2.28E-03,7.06E-03
3059,2.27E-03,7.10E-03
3060,2.30E-03,7.09E-03
3061,2.28E-03,7.10E-03
3062,2.25E-03,7.06E-03
3063,2.25E-03,7.07E-03
3064,2.25E-03,7.02E-03
3065,2.23E-03,7.04E-03
3066,2.28E-03,6.98E-03
3067,2.27E-03,7.00E-03
3068,2.33E-03,6.92E-03
3069,2.32E-03,6.95E-03
3070,2.38E-03,6.86E-03
3071,2.34E-03,6.89E-03
3072,2.17E-03,4.92E-03
3073,2.60E-03,6.55E-03
3074,2.08E-03,1.71E-02
3075,2.27E-03,6.50E-03
3076,2.41E-03,6.82E-03
3077,2.40E-03,6.75E-03
3078,2.60E-03,7.31E-03
3079,2.45E-03,1.17E-02
3080,2.44E-03,1.12E-02
3081,2.55E-03,8.01E-03
3082,2.52E-03,8.38E-03
3083,2.70E-03,8.69E-03
3084,2.71E-03,8.83E-03
3085,2.45E-03,3.96E-03
3086,2.52E-03,1.31E-02
3087,2.48E-03,1.25E-02
3088,2.66E-03,4.46E-03
3089,2.30E-03,6.31E-03
3090,1.78E-03,6.01E-03
3091,2.34E-03,5.85E-03
3092,2.50E-03,5.49E-03
3093,2.49E-03,6.47E-03
3094,3.19E-03,6.88E-03
3095,2.83E-03,7.07E-03
3096,2.59E-03,7.73E-03
3097,2.55E-03,8.38E-03
3098,2.24E-03,8.32E-03
3099,2.16E-03,6.69E-03
3100,2.19E-03,6.73E-03
3101,2.07E-03,1.28E-02
3102,2.07E-03,1.27E-02
3103,2.09E-03,1.28E-02
3104,2.39E-03,1.24E-02
3105,2.59E-03,1.23E-02
3106,2.19E-03,1.46E-02
3107,2.36E-03,1.54E-02
3108,2.10E-03,1.62E-02
3109,2.08E-03,1.63E-02
3110,2.36E-03,1.84E-02
3111,2.54E-03,1.85E-02
3112,3.02E-03,5.82E-03
3113,2.90E-03,5.98E-03
3114,2.81E-03,6.42E-03
3115,2.26E-03,7.13E-03
3116,2.26E-03,7.14E-03
3117,2.26E-03,7.13E-03
3118,2.06E-03,4.69E-03
3119,2.16E-03,4.97E-03
3120,2.60E-03,6.62E-03
3121,2.17E-03,1.49E-02
3122,2.04E-03,1.52E-02
3123,2.59E-03,7.19E-03
3124,2.45E-03,1.09E-02
3125,2.57E-03,7.85E-03
3126,2.49E-03,8.65E-03
3127,2.65E-03,1.28E-02
3128,2.62E-03,1.36E-02
3129,2.52E-03,1.33E-02
3130,2.43E-03,1.19E-02
3131,2.45E-03,1.22E-02
3132,1.96E-03,3.66E-03
3133,1.86E-03,3.52E-03
3134,2.46E-03,5.17E-03
3135,2.07E-03,8.28E-03
3136,1.99E-03,5.03E-03
3137,2.59E-03,6.69E-03
3138,2.55E-03,7.07E-03
3139,2.46E-03,1.05E-02
3140,2.60E-03,7.70E-03
3141,2.48E-03,8.98E-03
3142,2.55E-03,1.36E-02
3143,2.30E-03,5.14E-03
3144,2.59E-03,6.78E-03
3145,2.56E-03,6.97E-03
3146,2.47E-03,1.02E-02
3147,2.47E-03,9.36E-03
3148,2.60E-03,1.39E-02
3149,2.57E-03,6.87E-03
3150,2.46E-03,9.79E-03
3151,2.46E-03,9.79E-03
3152,2.59E-03,1.41E-02
3153,2.45E-03,9.43E-03
3154,2.46E-03,1.03E-02
3155,2.61E-03,1.44E-02
3156,2.48E-03,9.07E-03
3157,2.45E-03,1.08E-02
3158,2.58E-03,1.47E-02
3159,2.78E-03,1.74E-02
3160,1.90E-03,6.72E-03
3161,1.95E-03,6.63E-03
3162,2.70E-03,6.61E-03
3163,2.14E-03,6.19E-03
3164,1.90E-03,6.69E-03
3165,2.45E-03,6.43E-03
3166,2.51E-03,8.73E-03
3167,2.45E-03,1.14E-02
3168,2.55E-03,1.50E-02
3169,2.24E-03,1.66E-02
3170,2.22E-03,6.80E-03
3171,2.57E-03,6.41E-03
3172,2.51E-03,8.39E-03
3173,2.44E-03,1.20E-02
3174,2.58E-03,1.53E-02
3175,2.14E-03,1.78E-02
3176,2.42E-03,1.74E-02
3177,2.30E-03,1.59E-02
3178,2.43E-03,6.99E-03
3179,2.58E-03,6.39E-03
3180,2.47E-03,8.07E-03
3181,2.45E-03,1.26E-02
3182,2.62E-03,1.56E-02
3183,2.52E-03,1.70E-02
3184,2.37E-03,1.52E-02
3185,2.48E-03,7.22E-03
3186,2.61E-03,6.38E-03
3187,2.48E-03,7.78E-03
3188,2.43E-03,1.33E-02
3189,2.65E-03,1.60E-02
3190,2.60E-03,1.67E-02
3191,2.56E-03,8.53E-03
3192,2.55E-03,8.54E-03
3193,2.51E-03,8.55E-03
3194,2.45E-03,8.54E-03
3195,2.36E-03,8.49E-03
3196,2.18E-03,8.41E-03
3197,2.39E-03,1.46E-02
3198,2.50E-03,7.50E-03
3199,2.55E-03,6.40E-03
3200,2.43E-03,1.39E-02
3201,2.65E-03,1.63E-02
3202,2.55E-03,6.43E-03
3203,2.61E-03,8.53E-03
3204,2.59E-03,6.47E-03
3205,2.59E-03,6.52E-03
3206,2.23E-03,6.48E-03
3207,1.71E-03,6.56E-03
3208,2.42E-03,6.79E-03
3209,2.61E-03,7.55E-03
3210,2.59E-03,7.42E-03
3211,2.44E-03,1.15E-02
3212,2.53E-03,8.19E-03
3213,2.65E-03,8.58E-03
3214,2.80E-03,9.19E-03
3215,2.74E-03,8.99E-03
3216,2.83E-03,9.69E-03
3217,2.81E-03,9.42E-03
3218,2.82E-03,1.04E-02
3219,2.81E-03,1.00E-02
3220,2.78E-03,1.15E-02
3221,2.82E-03,1.09E-02
3222,2.75E-03,1.21E-02
3223,2.06E-03,4.22E-03
3224,2.11E-03,4.09E-03
3225,2.51E-03,1.28E-02
3226,2.71E-03,3.97E-03
3227,2.38E-03,3.55E-03
3228,2.37E-03,3.74E-03
3229,2.70E-03,4.22E-03
3230,2.47E-03,5.67E-03
3231,3.09E-03,6.69E-03
3232,2.63E-03,7.44E-03
3233,2.73E-03,7.26E-03
3234,2.69E-03,7.60E-03
3235,2.09E-03,6.59E-03
3236,2.24E-03,6.63E-03
3237,2.90E-03,6.82E-03
3238,2.98E-03,6.74E-03
3239,2.99E-03,7.00E-03
3240,3.02E-03,6.90E-03
3241,3.17E-03,7.23E-03
3242,3.02E-03,7.11E-03
3243,3.19E-03,7.46E-03
3244,3.18E-03,7.35E-03
3245,3.14E-03,7.66E-03
3246,3.17E-03,7.56E-03
3247,3.10E-03,7.85E-03
3248,3.12E-03,7.76E-03
3249,3.14E-03,8.01E-03
3250,3.12E-03,7.93E-03
3251,3.11E-03,8.15E-03
3252,3.11E-03,8.09E-03
3253,2.92E-03,8.26E-03
3254,3.03E-03,8.21E-03
3255,2.74E-03,8.29E-03
3256,2.35E-03,6.82E-03
3257,2.28E-03,6.78E-03
3258,3.16E-03,8.86E-03
3259,3.36E-03,8.60E-03
3260,2.99E-03,9.33E-03
3261,2.90E-03,9.10E-03
3262,2.91E-03,9.78E-03
3263,2.94E-03,9.55E-03
3264,2.73E-03,1.02E-02
3265,2.84E-03,1.00E-02
3266,2.71E-03,1.06E-02
3267,2.70E-03,1.04E-02
3268,2.66E-03,1.10E-02
3269,2.67E-03,1.08E-02
3270,2.72E-03,1.13E-02
3271,2.68E-03,1.12E-02
3272,2.74E-03,1.17E-02
3273,2.75E-03,1.15E-02
3274,2.69E-03,1.20E-02
3275,2.70E-03,1.18E-02
3276,2.57E-03,1.22E-02
3277,2.61E-03,1.21E-02
3278,2.41E-03,1.24E-02
3279,2.52E-03,1.23E-02
3280,2.26E-03,1.25E-02
3281,2.25E-03,1.25E-02
3282,2.09E-03,1.26E-02
3283,2.13E-03,1.26E-02
3284,2.05E-03,1.27E-02
3285,2.13E-03,1.29E-02
3286,2.11E-03,1.28E-02
3287,2.21E-03,1.30E-02
3288,2.16E-03,1.29E-02
3289,2.35E-03,1.30E-02
3290,2.27E-03,1.30E-02
3291,2.52E-03,1.31E-02
3292,2.44E-03,1.31E-02
3293,2.64E-03,1.30E-02
3294,2.59E-03,1.31E-02
3295,2.68E-03,1.30E-02
3296,2.67E-03,1.30E-02
3297,2.71E-03,1.28E-02
3298,2.69E-03,1.29E-02
3299,2.70E-03,1.26E-02
3300,2.72E-03,1.27E-02
3301,2.59E-03,1.25E-02
3302,2.53E-03,1.22E-02
3303,2.25E-03,1.25E-02
3304,2.58E-03,1.24E-02
3305,2.32E-03,1.28E-02
3306,2.36E-03,1.27E-02
3307,2.18E-03,1.31E-02
3308,2.28E-03,1.30E-02
3309,2.07E-03,1.34E-02
3310,2.13E-03,1.33E-02
3311,1.99E-03,1.37E-02
3312,2.03E-03,1.36E-02
3313,1.98E-03,1.40E-02
3314,1.98E-03,1.39E-02
3315,2.13E-03,1.43E-02
3316,2.01E-03,1.42E-02
3317,2.26E-03,1.48E-02
3318,2.17E-03,1.58E-02
3319,2.34E-03,1.56E-02
3320,2.13E-03,1.60E-02
3321,2.07E-03,1.67E-02
3322,2.07E-03,1.65E-02
3323,1.99E-03,1.70E-02
3324,2.03E-03,1.69E-02
3325,1.99E-03,1.73E-02
3326,1.99E-03,1.72E-02
3327,2.04E-03,1.76E-02
3328,2.02E-03,1.75E-02
3329,2.13E-03,1.79E-02
3330,2.09E-03,1.78E-02
3331,2.23E-03,1.82E-02
3332,2.18E-03,1.81E-02
3333,2.34E-03,1.85E-02
3334,2.32E-03,1.84E-02
3335,2.39E-03,1.86E-02
3336,2.38E-03,1.85E-02
3337,2.39E-03,1.88E-02
3338,2.36E-03,1.87E-02
3339,2.44E-03,1.89E-02
3340,2.42E-03,1.88E-02
3341,2.59E-03,1.89E-02
3342,2.56E-03,1.89E-02
3343,2.77E-03,1.88E-02
3344,2.67E-03,1.89E-02
3345,2.82E-03,1.88E-02
3346,2.80E-03,1.88E-02
3347,2.80E-03,1.87E-02
3348,2.85E-03,1.87E-02
3349,2.75E-03,1.86E-02
3350,2.32E-03,1.76E-02
3351,2.09E-03,1.76E-02
3352,2.42E-03,1.75E-02
3353,2.40E-03,1.75E-02
3354,2.47E-03,1.73E-02
3355,2.44E-03,1.74E-02
3356,2.49E-03,1.72E-02
3357,2.48E-03,1.73E-02
3358,2.47E-03,1.71E-02
3359,2.48E-03,1.71E-02
3360,2.44E-03,1.69E-02
3361,2.45E-03,1.70E-02
3362,2.47E-03,1.67E-02
3363,2.44E-03,1.68E-02
3364,2.48E-03,1.65E-02
3365,2.44E-03,1.66E-02
3366,2.51E-03,1.61E-02
3367,2.48E-03,1.63E-02
3368,2.54E-03,1.57E-02
3369,2.52E-03,1.59E-02
3370,2.56E-03,1.52E-02
3371,2.57E-03,1.55E-02
3372,2.55E-03,1.48E-02
3373,2.57E-03,1.50E-02
3374,2.06E-03,4.47E-03
3375,2.05E-03,4.35E-03
3376,2.93E-03,6.26E-03
3377,2.86E-03,6.13E-03
3378,2.54E-03,6.61E-03
3379,2.60E-03,6.52E-03
3380,2.38E-03,6.76E-03
3381,2.41E-03,6.69E-03
3382,2.28E-03,6.88E-03
3383,2.32E-03,6.83E-03
3384,2.25E-03,6.98E-03
3385,2.25E-03,6.93E-03
3386,2.26E-03,7.05E-03
3387,2.27E-03,7.01E-03
3388,2.31E-03,7.09E-03
3389,2.30E-03,7.07E-03
3390,2.30E-03,7.12E-03
3391,2.29E-03,7.11E-03
3392,2.28E-03,7.13E-03
3393,2.26E-03,7.12E-03
3394,2.27E-03,7.12E-03
3395,2.28E-03,7.09E-03
3396,2.24E-03,7.11E-03
3397,2.31E-03,7.06E-03
3398,2.28E-03,7.08E-03
3399,2.40E-03,7.01E-03
3400,2.34E-03,7.04E-03
3401,2.41E-03,6.96E-03
3402,2.39E-03,6.99E-03
3403,2.13E-03,4.83E-03
3404,2.59E-03,6.59E-03
3405,1.81E-03,1.54E-02
3406,2.42E-03,6.93E-03
3407,2.39E-03,6.86E-03
3408,2.60E-03,7.29E-03
3409,2.43E-03,1.17E-02
3410,2.42E-03,1.11E-02
3411,2.54E-03,8.02E-03
3412,2.50E-03,8.42E-03
3413,2.69E-03,8.72E-03
3414,2.69E-03,8.84E-03
3415,2.52E-03,1.45E-02
3416,2.49E-03,3.82E-03
3417,2.50E-03,1.30E-02
3418,2.46E-03,1.25E-02
3419,2.58E-03,3.36E-03
3420,2.75E-03,4.64E-03
3421,2.76E-03,4.36E-03
3422,2.12E-03,6.01E-03
3423,2.39E-03,5.78E-03
3424,2.61E-03,5.34E-03
3425,3.00E-03,6.35E-03
3426,3.05E-03,6.80E-03
3427,2.93E-03,7.02E-03
3428,2.52E-03,7.75E-03
3429,2.87E-03,8.20E-03
3430,2.26E-03,6.80E-03
3431,2.28E-03,6.86E-03
3432,2.10E-03,1.26E-02
3433,2.09E-03,1.26E-02
3434,2.09E-03,1.27E-02
3435,2.79E-03,1.21E-02
3436,2.23E-03,1.19E-02
3437,2.22E-03,1.45E-02
3438,2.10E-03,1.51E-02
3439,2.28E-03,1.49E-02
3440,2.14E-03,1.62E-02
3441,2.14E-03,1.64E-02
3442,2.38E-03,1.87E-02
3443,2.44E-03,1.78E-02
3444,3.06E-03,5.76E-03
3445,3.06E-03,5.93E-03
3446,2.82E-03,6.38E-03
3447,2.27E-03,7.18E-03
3448,2.26E-03,7.17E-03
3449,2.24E-03,7.18E-03
3450,2.11E-03,4.60E-03
3451,2.11E-03,4.88E-03
3452,2.59E-03,6.66E-03
3453,2.58E-03,7.17E-03
3454,2.46E-03,1.08E-02
3455,2.57E-03,7.86E-03
3456,2.49E-03,8.70E-03
3457,2.45E-03,3.39E-03
3458,2.46E-03,3.57E-03
3459,2.53E-03,1.33E-02
3460,2.42E-03,1.19E-02
3461,2.44E-03,1.21E-02
3462,2.95E-03,4.98E-03
3463,2.23E-03,4.96E-03
3464,2.58E-03,6.75E-03
3465,2.55E-03,7.05E-03
3466,2.44E-03,1.04E-02
3467,2.61E-03,7.70E-03
3468,2.48E-03,9.05E-03
3469,2.55E-03,1.35E-02
3470,2.57E-03,6.84E-03
3471,2.56E-03,6.94E-03
3472,2.47E-03,1.01E-02
3473,2.47E-03,9.44E-03
3474,2.57E-03,1.38E-02
3475,1.90E-03,8.11E-03
3476,1.71E-03,8.31E-03
3477,2.33E-03,6.52E-03
3478,2.43E-03,6.54E-03
3479,2.43E-03,6.51E-03
3480,2.37E-03,6.48E-03
3481,2.01E-03,6.52E-03
3482,2.82E-03,6.69E-03
3483,2.86E-03,6.65E-03
3484,2.68E-03,6.50E-03
3485,2.46E-03,9.69E-03
3486,2.46E-03,9.89E-03
3487,2.60E-03,1.41E-02
3488,2.28E-03,6.52E-03
3489,2.24E-03,6.42E-03
3490,2.46E-03,9.32E-03
3491,2.46E-03,1.04E-02
3492,2.60E-03,1.44E-02
3493,2.91E-03,1.81E-02
3494,2.73E-03,1.81E-02
3495,2.63E-03,1.75E-02
3496,2.31E-03,6.62E-03
3497,2.39E-03,6.39E-03
3498,2.47E-03,8.97E-03
3499,2.45E-03,1.09E-02
3500,2.53E-03,1.46E-02
3501,2.71E-03,1.78E-02
3502,2.42E-03,1.67E-02
3503,2.32E-03,6.75E-03
3504,2.53E-03,6.38E-03
3505,2.47E-03,8.62E-03
3506,2.45E-03,1.15E-02
3507,2.55E-03,1.49E-02
3508,2.48E-03,1.74E-02
3509,2.37E-03,1.60E-02
3510,2.41E-03,6.90E-03
3511,2.57E-03,6.36E-03
3512,2.47E-03,8.28E-03
3513,2.45E-03,1.21E-02
3514,2.60E-03,1.53E-02
3515,2.49E-03,1.70E-02
3516,2.36E-03,1.54E-02
3517,2.47E-03,7.12E-03
3518,2.57E-03,6.36E-03
3519,2.47E-03,7.96E-03
3520,2.46E-03,1.27E-02
3521,2.63E-03,1.56E-02
3522,2.54E-03,1.66E-02
3523,2.55E-03,8.61E-03
3524,2.53E-03,8.63E-03
3525,2.49E-03,8.64E-03
3526,2.43E-03,8.62E-03
3527,2.35E-03,8.54E-03
3528,2.38E-03,1.47E-02
3529,2.52E-03,7.38E-03
3530,2.58E-03,6.37E-03
3531,2.47E-03,7.67E-03
3532,2.44E-03,1.34E-02
3533,2.63E-03,1.59E-02
3534,2.59E-03,1.63E-02
3535,2.42E-03,1.40E-02
3536,2.56E-03,6.40E-03
3537,2.58E-03,8.60E-03
3538,2.58E-03,6.44E-03
3539,2.59E-03,6.49E-03
3540,2.59E-03,6.56E-03
3541,1.80E-03,2.82E-03
3542,2.11E-03,2.87E-03
3543,1.79E-03,2.71E-03
3544,1.60E-03,1.53E-02
3545,2.42E-03,6.90E-03
3546,2.61E-03,7.55E-03
3547,2.60E-03,7.41E-03
3548,2.43E-03,1.14E-02
3549,2.53E-03,8.21E-03
3550,2.64E-03,8.62E-03
3551,2.75E-03,9.15E-03
3552,2.71E-03,8.98E-03
3553,2.79E-03,9.59E-03
3554,2.78E-03,9.35E-03
3555,2.82E-03,1.03E-02
3556,2.83E-03,9.89E-03
3557,2.81E-03,1.12E-02
3558,2.82E-03,1.07E-02
3559,2.67E-03,1.26E-02
3560,2.75E-03,1.19E-02
3561,2.51E-03,1.42E-02
3562,2.61E-03,1.33E-02
3563,2.17E-03,4.10E-03
3564,2.19E-03,3.97E-03
3565,2.49E-03,1.27E-02
3566,2.68E-03,3.39E-03
3567,2.79E-03,3.05E-03
3568,2.90E-03,3.19E-03
3569,2.73E-03,3.87E-03
3570,2.69E-03,3.63E-03
3571,2.72E-03,4.11E-03
3572,2.51E-03,5.55E-03
3573,2.95E-03,6.59E-03
3574,2.78E-03,7.44E-03
3575,2.80E-03,7.23E-03
3576,2.66E-03,7.61E-03
3577,2.32E-03,6.74E-03
3578,2.58E-03,6.61E-03
3579,2.52E-03,6.57E-03
3580,2.96E-03,6.77E-03
3581,2.92E-03,6.70E-03
3582,2.97E-03,6.94E-03
3583,2.98E-03,6.85E-03
3584,3.09E-03,7.14E-03
3585,3.05E-03,7.04E-03
3586,3.16E-03,7.35E-03
3587,3.15E-03,7.25E-03
3588,3.10E-03,7.54E-03
3589,3.14E-03,7.45E-03
3590,3.08E-03,7.72E-03
3591,3.10E-03,7.63E-03
3592,3.07E-03,7.87E-03
3593,3.07E-03,7.80E-03
3594,3.03E-03,8.00E-03
3595,3.06E-03,7.94E-03
3596,2.88E-03,8.10E-03
3597,2.94E-03,8.05E-03
3598,2.74E-03,8.15E-03
3599,2.34E-03,6.94E-03
3600,2.33E-03,6.90E-03
3601,3.17E-03,8.85E-03
3602,3.42E-03,8.58E-03
3603,2.98E-03,9.29E-03
3604,3.00E-03,9.07E-03
3605,2.89E-03,9.73E-03
3606,2.90E-03,9.51E-03
3607,2.70E-03,1.01E-02
3608,2.80E-03,9.95E-03
3609,2.69E-03,1.05E-02
3610,2.68E-03,1.03E-02
3611,2.64E-03,1.09E-02
3612,2.66E-03,1.07E-02
3613,2.71E-03,1.13E-02
3614,2.68E-03,1.11E-02
3615,2.75E-03,1.16E-02
3616,2.73E-03,1.14E-02
3617,2.71E-03,1.19E-02
3618,2.72E-03,1.17E-02
3619,2.58E-03,1.21E-02
3620,2.63E-03,1.20E-02
3621,2.43E-03,1.23E-02
3622,2.49E-03,1.22E-02
3623,2.27E-03,1.24E-02
3624,2.29E-03,1.23E-02
3625,2.09E-03,1.25E-02
3626,2.15E-03,1.25E-02
3627,2.09E-03,1.25E-02
3628,2.14E-03,1.28E-02
3629,2.11E-03,1.27E-02
3630,2.21E-03,1.28E-02
3631,2.18E-03,1.28E-02
3632,2.34E-03,1.29E-02
3633,2.27E-03,1.29E-02
3634,2.52E-03,1.29E-02
3635,2.46E-03,1.29E-02
3636,2.65E-03,1.29E-02
3637,2.61E-03,1.29E-02
3638,2.69E-03,1.28E-02
3639,2.68E-03,1.29E-02
3640,2.69E-03,1.27E-02
3641,2.70E-03,1.28E-02
3642,2.66E-03,1.25E-02
3643,2.68E-03,1.26E-02
3644,2.56E-03,1.23E-02
3645,2.60E-03,1.24E-02
3646,2.84E-03,1.22E-02
3647,2.32E-03,1.19E-02
3648,2.54E-03,1.21E-02
3649,2.47E-03,1.20E-02
3650,2.29E-03,1.24E-02
3651,2.44E-03,1.23E-02
3652,2.31E-03,1.27E-02
3653,2.31E-03,1.26E-02
3654,2.19E-03,1.30E-02
3655,2.25E-03,1.29E-02
3656,2.09E-03,1.33E-02
3657,2.14E-03,1.32E-02
3658,2.02E-03,1.36E-02
3659,2.05E-03,1.35E-02
3660,1.95E-03,1.40E-02
3661,1.98E-03,1.38E-02
3662,2.07E-03,1.43E-02
3663,1.93E-03,1.41E-02
3664,2.29E-03,1.47E-02
3665,2.23E-03,1.58E-02
3666,1.41E-03,1.55E-02
3667,2.22E-03,1.56E-02
3668,2.15E-03,1.60E-02
3669,2.11E-03,1.68E-02
3670,2.11E-03,1.66E-02
3671,2.03E-03,1.71E-02
3672,2.07E-03,1.70E-02
3673,2.03E-03,1.75E-02
3674,2.01E-03,1.73E-02
3675,2.07E-03,1.78E-02
3676,2.05E-03,1.76E-02
3677,2.14E-03,1.81E-02
3678,2.13E-03,1.79E-02
3679,2.25E-03,1.84E-02
3680,2.20E-03,1.83E-02
3681,2.36E-03,1.87E-02
3682,2.31E-03,1.86E-02
3683,2.37E-03,1.89E-02
3684,2.40E-03,1.88E-02
3685,2.39E-03,1.91E-02
3686,2.37E-03,1.90E-02
3687,2.47E-03,1.92E-02
3688,2.44E-03,1.91E-02
3689,2.60E-03,1.92E-02
3690,2.53E-03,1.92E-02
3691,2.77E-03,1.92E-02
3692,2.66E-03,1.92E-02
3693,2.84E-03,1.91E-02
3694,2.80E-03,1.91E-02
3695,2.85E-03,1.90E-02
3696,2.86E-03,1.91E-02
3697,2.77E-03,1.89E-02
3698,2.81E-03,1.90E-02
3699,2.99E-03,1.87E-02
3700,2.96E-03,1.83E-02
3701,2.52E-03,1.82E-02
3702,2.88E-03,1.81E-02
3703,2.48E-03,1.81E-02
3704,2.49E-03,1.82E-02
3705,2.50E-03,1.80E-02
3706,2.48E-03,1.81E-02
3707,2.50E-03,1.80E-02
3708,2.52E-03,1.80E-02
3709,2.46E-03,1.79E-02
3710,2.49E-03,1.79E-02
3711,2.47E-03,1.77E-02
3712,2.46E-03,1.78E-02
3713,2.46E-03,1.75E-02
3714,2.44E-03,1.76E-02
3715,2.45E-03,1.73E-02
3716,2.44E-03,1.74E-02
3717,2.46E-03,1.70E-02
3718,2.44E-03,1.72E-02
3719,2.48E-03,1.66E-02
3720,2.48E-03,1.68E-02
3721,2.52E-03,1.62E-02
3722,2.51E-03,1.64E-02
3723,2.49E-03,1.57E-02
3724,2.52E-03,1.59E-02
3725,2.45E-03,1.51E-02
3726,2.50E-03,1.54E-02
3727,2.17E-03,4.36E-03
3728,2.13E-03,4.23E-03
3729,2.75E-03,6.21E-03
3730,2.83E-03,6.08E-03
3731,2.52E-03,6.57E-03
3732,2.68E-03,6.48E-03
3733,2.39E-03,6.74E-03
3734,2.43E-03,6.66E-03
3735,2.29E-03,6.87E-03
3736,2.34E-03,6.81E-03
3737,2.27E-03,6.97E-03
3738,2.26E-03,6.92E-03
3739,2.29E-03,7.05E-03
3740,2.29E-03,7.01E-03
3741,2.30E-03,7.11E-03
3742,2.30E-03,7.08E-03
3743,2.31E-03,7.15E-03
3744,2.28E-03,7.13E-03
3745,2.29E-03,7.16E-03
3746,2.25E-03,7.18E-03
3747,2.25E-03,7.18E-03
3748,2.28E-03,7.17E-03
3749,2.26E-03,7.17E-03
3750,2.32E-03,7.14E-03
3751,2.30E-03,7.16E-03
3752,2.38E-03,7.11E-03
3753,2.34E-03,7.13E-03
3754,2.39E-03,7.07E-03
3755,2.40E-03,7.09E-03
3756,2.18E-03,4.73E-03
3757,2.42E-03,3.23E-03
3758,2.58E-03,6.64E-03
3759,2.94E-03,6.35E-03
3760,2.41E-03,7.04E-03
3761,2.38E-03,6.98E-03
3762,2.60E-03,7.28E-03
3763,2.42E-03,1.16E-02
3764,2.43E-03,1.11E-02
3765,2.55E-03,8.04E-03
3766,2.50E-03,8.46E-03
3767,2.66E-03,8.76E-03
3768,2.68E-03,8.86E-03
3769,2.40E-03,3.70E-03
3770,2.50E-03,1.30E-02
3771,2.45E-03,1.24E-02
3772,3.19E-03,4.57E-03
3773,2.83E-03,4.26E-03
3774,2.94E-03,5.98E-03
3775,2.55E-03,5.68E-03
3776,2.72E-03,5.20E-03
3777,3.17E-03,6.23E-03
3778,2.99E-03,6.74E-03
3779,2.91E-03,6.97E-03
3780,2.56E-03,7.79E-03
3781,2.34E-03,6.94E-03
3782,2.34E-03,6.99E-03
3783,2.12E-03,1.25E-02
3784,2.12E-03,1.25E-02
3785,2.13E-03,1.25E-02
3786,2.49E-03,1.45E-02
3787,2.27E-03,1.49E-02
3788,2.11E-03,1.51E-02
3789,2.16E-03,1.63E-02
3790,2.16E-03,1.65E-02
3791,2.38E-03,1.89E-02
3792,2.43E-03,1.39E-02
3793,2.44E-03,1.47E-02
3794,2.64E-03,5.12E-03
3795,2.51E-03,5.32E-03
3796,3.02E-03,5.68E-03
3797,3.39E-03,5.88E-03
3798,2.27E-03,7.23E-03
3799,2.27E-03,7.21E-03
3800,2.24E-03,7.23E-03
3801,2.17E-03,4.50E-03
3802,2.26E-03,4.80E-03
3803,2.48E-03,2.94E-03
3804,2.58E-03,6.72E-03
3805,2.58E-03,7.15E-03
3806,2.44E-03,1.07E-02
3807,2.57E-03,7.87E-03
3808,2.49E-03,8.76E-03
3809,2.69E-03,3.28E-03
3810,2.54E-03,3.42E-03
3811,2.52E-03,1.32E-02
3812,2.39E-03,1.18E-02
3813,2.42E-03,1.21E-02
3814,3.14E-03,4.83E-03
3815,2.45E-03,8.00E-03
3816,2.83E-03,8.25E-03
3817,2.35E-03,1.17E-02
3818,2.46E-03,1.18E-02
3819,2.53E-03,1.16E-02
3820,2.55E-03,4.90E-03
3821,2.31E-03,2.58E-03
3822,2.18E-03,2.73E-03
3823,2.57E-03,6.82E-03
3824,2.40E-03,6.50E-03
3825,2.45E-03,6.56E-03
3826,2.47E-03,6.56E-03
3827,2.44E-03,6.48E-03
3828,2.69E-03,6.60E-03
3829,2.66E-03,6.74E-03
3830,2.60E-03,6.69E-03
3831,2.61E-03,6.56E-03
3832,2.55E-03,7.03E-03
3833,2.45E-03,1.03E-02
3834,2.58E-03,7.71E-03
3835,2.48E-03,9.12E-03
3836,2.55E-03,1.35E-02
3837,2.24E-03,8.41E-03
3838,2.41E-03,8.33E-03
3839,2.56E-03,6.92E-03
3840,2.41E-03,6.45E-03
3841,2.67E-03,6.47E-03
3842,2.47E-03,9.95E-03
3843,2.47E-03,9.53E-03
3844,2.60E-03,1.38E-02
3845,2.86E-03,1.87E-02
3846,2.52E-03,1.90E-02
3847,2.73E-03,1.91E-02
3848,2.72E-03,1.86E-02
3849,2.64E-03,1.81E-02
3850,2.69E-03,1.88E-02
3851,2.64E-03,1.88E-02
3852,2.57E-03,1.82E-02
3853,2.36E-03,6.47E-03
3854,2.40E-03,6.39E-03
3855,2.46E-03,9.58E-03
3856,2.46E-03,9.99E-03
3857,2.59E-03,1.40E-02
3858,2.77E-03,1.82E-02
3859,2.58E-03,1.75E-02
3860,2.35E-03,6.54E-03
3861,2.38E-03,6.36E-03
3862,2.44E-03,9.22E-03
3863,2.46E-03,1.05E-02
3864,2.55E-03,1.43E-02
3865,2.76E-03,1.78E-02
3866,2.54E-03,1.69E-02
3867,2.31E-03,6.68E-03
3868,2.47E-03,6.34E-03
3869,2.45E-03,8.86E-03
3870,2.45E-03,1.10E-02
3871,2.54E-03,1.46E-02
3872,2.58E-03,1.73E-02
3873,2.42E-03,1.62E-02
3874,2.41E-03,6.82E-03
3875,2.53E-03,6.33E-03
3876,2.44E-03,8.51E-03
3877,2.45E-03,1.16E-02
3878,2.55E-03,1.49E-02
3879,2.50E-03,1.69E-02
3880,2.38E-03,1.55E-02
3881,2.44E-03,7.02E-03
3882,2.56E-03,6.33E-03
3883,2.47E-03,8.17E-03
3884,2.45E-03,1.22E-02
3885,2.59E-03,1.52E-02
3886,2.50E-03,1.65E-02
3887,2.55E-03,8.71E-03
3888,2.52E-03,8.73E-03
3889,2.47E-03,8.74E-03
3890,2.42E-03,8.69E-03
3891,2.47E-03,8.59E-03
3892,2.40E-03,1.48E-02
3893,2.50E-03,7.27E-03
3894,2.57E-03,6.34E-03
3895,2.48E-03,7.85E-03
3896,2.47E-03,1.29E-02
3897,2.62E-03,1.55E-02
3898,2.56E-03,1.62E-02
3899,2.42E-03,1.42E-02
3900,2.52E-03,7.55E-03
3901,2.57E-03,6.38E-03
3902,2.46E-03,1.35E-02
3903,2.57E-03,8.68E-03
3904,2.58E-03,1.59E-02
3905,2.58E-03,6.42E-03
3906,2.58E-03,6.47E-03
3907,2.58E-03,6.54E-03
3908,2.58E-03,6.61E-03
3909,2.56E-03,6.16E-03
3910,2.22E-03,6.29E-03
3911,2.41E-03,7.01E-03
3912,2.63E-03,7.55E-03
3913,2.61E-03,7.41E-03
3914,2.43E-03,1.13E-02
3915,2.51E-03,8.23E-03
3916,2.64E-03,8.68E-03
3917,2.75E-03,9.12E-03
3918,2.71E-03,8.98E-03
3919,2.80E-03,9.51E-03
3920,2.77E-03,9.30E-03
3921,2.81E-03,1.01E-02
3922,2.80E-03,9.77E-03
3923,2.80E-03,1.10E-02
3924,2.83E-03,1.05E-02
3925,2.68E-03,1.23E-02
3926,2.76E-03,1.16E-02
3927,2.59E-03,1.31E-02
3928,2.20E-03,3.98E-03
3929,2.32E-03,3.85E-03
3930,2.47E-03,1.27E-02
3931,2.86E-03,2.85E-03
3932,2.48E-03,2.46E-03
3933,2.40E-03,2.62E-03
3934,2.83E-03,3.27E-03
3935,3.11E-03,3.05E-03
3936,2.79E-03,3.75E-03
3937,2.79E-03,3.51E-03
3938,2.84E-03,4.00E-03
3939,2.62E-03,5.44E-03
3940,3.00E-03,6.49E-03
3941,2.80E-03,7.43E-03
3942,2.86E-03,7.20E-03
3943,2.72E-03,7.63E-03
3944,2.53E-03,6.82E-03
3945,2.43E-03,6.88E-03
3946,2.66E-03,6.78E-03
3947,2.51E-03,6.58E-03
3948,2.48E-03,6.57E-03
3949,2.68E-03,6.64E-03
3950,2.58E-03,6.60E-03
3951,2.91E-03,6.76E-03
3952,2.94E-03,6.69E-03
3953,2.99E-03,6.91E-03
3954,2.98E-03,6.83E-03
3955,3.09E-03,7.08E-03
3956,3.07E-03,6.99E-03
3957,3.15E-03,7.27E-03
3958,3.14E-03,7.17E-03
3959,3.08E-03,7.45E-03
3960,3.10E-03,7.36E-03
3961,3.04E-03,7.60E-03
3962,3.07E-03,7.53E-03
3963,2.99E-03,7.75E-03
3964,2.98E-03,7.68E-03
3965,2.96E-03,7.87E-03
3966,3.00E-03,7.81E-03
3967,2.83E-03,7.96E-03
3968,2.88E-03,7.92E-03
3969,2.82E-03,8.05E-03
3970,2.83E-03,8.01E-03
3971,2.37E-03,7.07E-03
3972,2.35E-03,7.04E-03
3973,3.05E-03,8.80E-03
3974,3.08E-03,8.57E-03
3975,2.97E-03,9.24E-03
3976,2.99E-03,9.03E-03
3977,2.86E-03,9.68E-03
3978,2.91E-03,9.46E-03
3979,2.69E-03,1.01E-02
3980,2.78E-03,9.88E-03
3981,2.68E-03,1.05E-02
3982,2.71E-03,1.03E-02
3983,2.63E-03,1.08E-02
3984,2.65E-03,1.06E-02
3985,2.70E-03,1.12E-02
3986,2.67E-03,1.10E-02
3987,2.72E-03,1.15E-02
3988,2.73E-03,1.13E-02
3989,2.69E-03,1.18E-02
3990,2.71E-03,1.16E-02
3991,2.61E-03,1.20E-02
3992,2.62E-03,1.19E-02
3993,2.41E-03,1.22E-02
3994,2.47E-03,1.21E-02
3995,2.27E-03,1.23E-02
3996,2.32E-03,1.22E-02
3997,2.11E-03,1.24E-02
3998,2.14E-03,1.23E-02
3999,2.12E-03,1.24E-02
4000,2.14E-03,1.26E-02
4001,2.14E-03,1.26E-02
4002,2.22E-03,1.27E-02
4003,2.20E-03,1.27E-02
4004,2.36E-03,1.28E-02
4005,2.28E-03,1.27E-02
4006,2.54E-03,1.28E-02
4007,2.49E-03,1.28E-02
4008,2.66E-03,1.28E-02
4009,2.64E-03,1.28E-02
4010,2.71E-03,1.27E-02
4011,2.69E-03,1.27E-02
4012,2.69E-03,1.26E-02
4013,2.69E-03,1.26E-02
4014,2.65E-03,1.24E-02
4015,2.67E-03,1.25E-02
4016,2.64E-03,1.22E-02
4017,2.61E-03,1.23E-02
4018,2.20E-03,1.19E-02
4019,2.83E-03,1.20E-02
4020,2.10E-03,1.18E-02
4021,2.46E-03,1.20E-02
4022,2.43E-03,1.19E-02
4023,2.36E-03,1.23E-02
4024,2.41E-03,1.22E-02
4025,2.30E-03,1.26E-02
4026,2.31E-03,1.25E-02
4027,2.22E-03,1.29E-02
4028,2.23E-03,1.28E-02
4029,2.09E-03,1.33E-02
4030,2.16E-03,1.31E-02
4031,2.04E-03,1.36E-02
4032,2.05E-03,1.34E-02
4033,1.92E-03,1.39E-02
4034,1.97E-03,1.37E-02
4035,1.85E-03,1.42E-02
4036,1.82E-03,1.40E-02
4037,1.99E-03,1.44E-02
4038,2.53E-03,1.46E-02
4039,1.85E-03,1.55E-02
4040,2.17E-03,1.53E-02
4041,2.13E-03,1.59E-02
4042,1.94E-03,1.57E-02
4043,2.17E-03,1.61E-02
4044,2.13E-03,1.69E-02
4045,2.15E-03,1.67E-02
4046,2.06E-03,1.72E-02
4047,2.09E-03,1.71E-02
4048,2.04E-03,1.76E-02
4049,2.03E-03,1.74E-02
4050,2.09E-03,1.79E-02
4051,2.07E-03,1.78E-02
4052,2.16E-03,1.83E-02
4053,2.12E-03,1.81E-02
4054,2.27E-03,1.86E-02
4055,2.21E-03,1.84E-02
4056,2.37E-03,1.89E-02
4057,2.32E-03,1.88E-02
4058,2.40E-03,1.91E-02
4059,2.39E-03,1.90E-02
4060,2.38E-03,1.93E-02
4061,2.39E-03,1.92E-02
4062,2.45E-03,1.94E-02
4063,2.45E-03,1.94E-02
4064,2.60E-03,1.95E-02
4065,2.55E-03,1.95E-02
4066,2.73E-03,1.95E-02
4067,2.67E-03,1.95E-02
4068,2.84E-03,1.95E-02
4069,2.81E-03,1.95E-02
4070,2.87E-03,1.94E-02
4071,2.86E-03,1.94E-02
4072,3.00E-03,1.92E-02
4073,2.92E-03,1.93E-02
4074,3.46E-03,1.89E-02
4075,3.51E-03,1.91E-02
4076,3.16E-03,1.88E-02
4077,2.77E-03,1.87E-02
4078,2.74E-03,1.87E-02
4079,2.67E-03,1.88E-02
4080,2.72E-03,1.88E-02
4081,2.54E-03,1.88E-02
4082,2.58E-03,1.88E-02
4083,2.53E-03,1.88E-02
4084,2.54E-03,1.88E-02
4085,2.53E-03,1.87E-02
4086,2.53E-03,1.88E-02
4087,2.47E-03,1.87E-02
4088,2.50E-03,1.87E-02
4089,2.44E-03,1.86E-02
4090,2.44E-03,1.86E-02
4091,2.45E-03,1.84E-02
4092,2.44E-03,1.85E-02
4093,2.42E-03,1.82E-02
4094,2.45E-03,1.83E-02
4095,2.44E-03,1.79E-02
4096,2.42E-03,1.81E-02
4097,2.49E-03,1.75E-02
4098,2.45E-03,1.77E-02
4099,2.49E-03,1.71E-02
4100,2.49E-03,1.73E-02
4101,2.49E-03,1.66E-02
4102,2.50E-03,1.69E-02
4103,2.42E-03,1.60E-02
4104,2.47E-03,1.63E-02
4105,2.01E-03,1.44E-02
4106,2.20E-03,1.51E-02
4107,2.34E-03,1.58E-02
4108,2.28E-03,4.26E-03
4109,2.27E-03,4.12E-03
4110,2.92E-03,5.50E-03
4111,2.86E-03,6.02E-03
4112,2.46E-03,6.55E-03
4113,2.76E-03,6.44E-03
4114,2.37E-03,6.72E-03
4115,2.42E-03,6.63E-03
4116,2.30E-03,6.86E-03
4117,2.33E-03,6.79E-03
4118,2.28E-03,6.97E-03
4119,2.28E-03,6.92E-03
4120,2.29E-03,7.06E-03
4121,2.30E-03,7.02E-03
4122,2.31E-03,7.13E-03
4123,2.31E-03,7.10E-03
4124,2.30E-03,7.18E-03
4125,2.32E-03,7.16E-03
4126,2.29E-03,7.20E-03
4127,2.26E-03,7.24E-03
4128,2.27E-03,7.24E-03
4129,2.28E-03,7.25E-03
4130,2.28E-03,7.25E-03
4131,2.32E-03,7.24E-03
4132,2.32E-03,7.24E-03
4133,2.37E-03,7.21E-03
4134,2.36E-03,7.23E-03
4135,2.40E-03,7.18E-03
4136,2.42E-03,7.20E-03
4137,2.24E-03,4.64E-03
4138,2.62E-03,3.11E-03
4139,2.57E-03,6.70E-03
4140,2.90E-03,2.47E-03
4141,2.90E-03,2.32E-03
4142,2.41E-03,7.16E-03
4143,2.37E-03,7.11E-03
4144,2.60E-03,7.27E-03
4145,2.39E-03,1.15E-02
4146,2.42E-03,1.10E-02
4147,2.56E-03,8.06E-03
4148,2.50E-03,8.50E-03
4149,2.66E-03,8.82E-03
4150,2.67E-03,8.91E-03
4151,2.55E-03,1.37E-02
4152,2.36E-03,3.59E-03
4153,2.49E-03,1.29E-02
4154,2.44E-03,1.23E-02
4155,2.95E-03,4.45E-03
4156,2.87E-03,4.17E-03
4157,2.71E-03,5.88E-03
4158,2.71E-03,5.60E-03
4159,2.81E-03,5.08E-03
4160,2.92E-03,6.14E-03
4161,2.89E-03,6.68E-03
4162,2.87E-03,6.93E-03
4163,2.66E-03,7.86E-03
4164,2.37E-03,7.09E-03
4165,2.36E-03,7.14E-03
4166,2.42E-03,8.36E-03
4167,2.14E-03,1.24E-02
4168,2.13E-03,1.23E-02
4169,2.14E-03,1.24E-02
4170,2.76E-03,1.15E-02
4171,2.39E-03,1.16E-02
4172,2.23E-03,1.48E-02
4173,2.16E-03,1.50E-02
4174,2.18E-03,1.63E-02
4175,2.17E-03,1.65E-02
4176,2.41E-03,1.91E-02
4177,2.92E-03,1.92E-02
4178,2.33E-03,1.93E-02
4179,1.79E-03,6.22E-03
4180,2.40E-03,6.11E-03
4181,1.87E-03,6.33E-03
4182,2.26E-03,7.28E-03
4183,2.27E-03,7.26E-03
4184,2.26E-03,7.29E-03
4185,2.29E-03,4.41E-03
4186,2.46E-03,4.72E-03
4187,2.57E-03,6.80E-03
4188,2.48E-03,1.16E-02
4189,2.54E-03,1.15E-02
4190,2.45E-03,6.57E-03
4191,2.46E-03,6.48E-03
4192,2.56E-03,6.65E-03
4193,2.59E-03,6.53E-03
4194,2.57E-03,7.14E-03
4195,2.45E-03,1.06E-02
4196,2.57E-03,7.89E-03
4197,2.49E-03,8.83E-03
4198,2.41E-03,1.44E-02
4199,2.52E-03,1.32E-02
4200,2.39E-03,1.17E-02
4201,2.41E-03,1.20E-02
4202,2.41E-03,1.89E-02
4203,2.86E-03,4.71E-03
4204,3.01E-03,8.48E-03
4205,3.07E-03,8.17E-03
4206,3.62E-03,7.97E-03
4207,3.28E-03,8.15E-03
4208,2.46E-03,1.13E-02
4209,1.69E-03,1.41E-02
4210,1.61E-03,1.42E-02
4211,2.77E-03,1.96E-02
4212,2.56E-03,6.90E-03
4213,2.43E-03,6.43E-03
4214,2.57E-03,6.46E-03
4215,2.55E-03,7.02E-03
4216,2.45E-03,1.02E-02
4217,2.60E-03,7.72E-03
4218,2.48E-03,9.20E-03
4219,2.56E-03,1.34E-02
4220,2.60E-03,1.85E-02
4221,2.59E-03,1.88E-02
4222,2.52E-03,1.82E-02
4223,2.39E-03,6.43E-03
4224,2.53E-03,6.39E-03
4225,2.48E-03,9.85E-03
4226,2.47E-03,9.63E-03
4227,2.59E-03,1.37E-02
4228,2.72E-03,1.81E-02
4229,2.53E-03,1.76E-02
4230,2.37E-03,6.49E-03
4231,2.45E-03,6.34E-03
4232,2.46E-03,9.47E-03
4233,2.46E-03,1.01E-02
4234,2.55E-03,1.40E-02
4235,2.73E-03,1.77E-02
4236,2.54E-03,1.69E-02
4237,2.37E-03,6.60E-03
4238,2.46E-03,6.32E-03
4239,2.40E-03,9.11E-03
4240,2.46E-03,1.06E-02
4241,2.54E-03,1.42E-02
4242,2.65E-03,1.73E-02
4243,2.48E-03,1.63E-02
4244,2.37E-03,6.75E-03
4245,2.50E-03,6.31E-03
4246,2.43E-03,8.74E-03
4247,2.45E-03,1.12E-02
4248,2.56E-03,1.45E-02
4249,2.55E-03,1.69E-02
4250,2.43E-03,1.56E-02
4251,2.43E-03,6.92E-03
4252,2.55E-03,6.31E-03
4253,2.46E-03,8.39E-03
4254,2.45E-03,1.17E-02
4255,2.56E-03,1.48E-02
4256,2.52E-03,1.65E-02
4257,2.54E-03,8.82E-03
4258,2.49E-03,8.85E-03
4259,2.45E-03,8.84E-03
4260,2.43E-03,8.78E-03
4261,2.51E-03,8.69E-03
4262,2.43E-03,1.49E-02
4263,2.50E-03,7.16E-03
4264,2.56E-03,6.33E-03
4265,2.47E-03,8.06E-03
4266,2.46E-03,1.24E-02
4267,2.59E-03,1.51E-02
4268,2.49E-03,1.61E-02
4269,2.45E-03,1.43E-02
4270,2.51E-03,7.44E-03
4271,2.56E-03,6.35E-03
4272,2.50E-03,7.74E-03
4273,2.48E-03,1.30E-02
4274,2.57E-03,8.78E-03
4275,2.59E-03,1.55E-02
4276,2.55E-03,1.58E-02
4277,2.49E-03,1.36E-02
4278,2.57E-03,6.40E-03
4279,2.57E-03,6.45E-03
4280,2.57E-03,6.52E-03
4281,2.57E-03,6.60E-03
4282,2.57E-03,6.69E-03
4283,2.36E-03,5.28E-03
4284,1.91E-03,5.11E-03
4285,2.38E-03,7.14E-03
4286,2.49E-03,6.58E-03
4287,2.51E-03,6.62E-03
4288,2.50E-03,6.60E-03
4289,2.63E-03,7.56E-03
4290,2.61E-03,7.40E-03
4291,2.42E-03,1.12E-02
4292,2.50E-03,8.27E-03
4293,2.61E-03,8.75E-03
4294,2.75E-03,9.12E-03
4295,2.71E-03,9.00E-03
4296,2.80E-03,9.43E-03
4297,2.76E-03,9.26E-03
4298,2.83E-03,9.95E-03
4299,2.82E-03,9.66E-03
4300,2.83E-03,1.08E-02
4301,2.84E-03,1.03E-02
4302,2.73E-03,1.20E-02
4303,2.82E-03,1.14E-02
4304,2.64E-03,1.28E-02
4305,2.21E-03,3.88E-03
4306,2.27E-03,3.74E-03
4307,2.45E-03,1.26E-02
4308,2.42E-03,2.09E-03
4309,1.66E-03,1.91E-03
4310,2.13E-03,1.83E-03
4311,2.04E-03,1.96E-03
4312,2.59E-03,2.35E-03
4313,2.63E-03,2.20E-03
4314,2.63E-03,2.73E-03
4315,2.54E-03,2.53E-03
4316,2.85E-03,3.15E-03
4317,2.77E-03,2.93E-03
4318,2.80E-03,3.64E-03
4319,2.79E-03,3.39E-03
4320,2.83E-03,3.90E-03
4321,2.68E-03,5.33E-03
4322,2.94E-03,6.41E-03
4323,2.82E-03,7.42E-03
4324,2.84E-03,7.18E-03
4325,2.76E-03,7.65E-03
4326,2.46E-03,6.98E-03
4327,2.43E-03,7.03E-03
4328,2.56E-03,6.88E-03
4329,2.52E-03,6.93E-03
4330,2.51E-03,6.80E-03
4331,2.55E-03,6.84E-03
4332,2.48E-03,6.73E-03
4333,2.51E-03,6.76E-03
4334,2.44E-03,6.68E-03
4335,2.50E-03,6.70E-03
4336,2.47E-03,6.65E-03
4337,2.49E-03,6.66E-03
4338,2.53E-03,6.65E-03
4339,2.52E-03,6.65E-03
4340,2.71E-03,6.68E-03
4341,2.63E-03,6.66E-03
4342,2.89E-03,6.77E-03
4343,2.84E-03,6.72E-03
4344,2.98E-03,6.89E-03
4345,2.94E-03,6.83E-03
4346,3.07E-03,7.04E-03
4347,3.05E-03,6.97E-03
4348,3.11E-03,7.21E-03
4349,3.11E-03,7.13E-03
4350,3.06E-03,7.37E-03
4351,3.08E-03,7.29E-03
4352,3.00E-03,7.51E-03
4353,3.04E-03,7.44E-03
4354,2.95E-03,7.64E-03
4355,2.96E-03,7.58E-03
4356,2.89E-03,7.75E-03
4357,2.93E-03,7.70E-03
4358,2.82E-03,7.83E-03
4359,2.86E-03,7.79E-03
4360,2.88E-03,7.90E-03
4361,2.84E-03,7.87E-03
4362,2.38E-03,7.22E-03
4363,2.35E-03,7.18E-03
4364,3.00E-03,8.75E-03
4365,2.97E-03,8.54E-03
4366,2.93E-03,9.19E-03
4367,2.93E-03,8.98E-03
4368,2.85E-03,9.62E-03
4369,2.86E-03,9.41E-03
4370,2.72E-03,1.00E-02
4371,2.77E-03,9.82E-03
4372,2.65E-03,1.04E-02
4373,2.68E-03,1.02E-02
4374,2.61E-03,1.07E-02
4375,2.62E-03,1.06E-02
4376,2.69E-03,1.11E-02
4377,2.65E-03,1.09E-02
4378,2.75E-03,1.14E-02
4379,2.76E-03,1.12E-02
4380,2.71E-03,1.17E-02
4381,2.71E-03,1.15E-02
4382,2.59E-03,1.19E-02
4383,2.63E-03,1.18E-02
4384,2.40E-03,1.20E-02
4385,2.52E-03,1.20E-02
4386,2.28E-03,1.22E-02
4387,2.31E-03,1.21E-02
4388,2.13E-03,1.22E-02
4389,2.15E-03,1.22E-02
4390,2.12E-03,1.23E-02
4391,2.16E-03,1.25E-02
4392,2.16E-03,1.25E-02
4393,2.24E-03,1.26E-02
4394,2.20E-03,1.25E-02
4395,2.37E-03,1.26E-02
4396,2.29E-03,1.26E-02
4397,2.54E-03,1.27E-02
4398,2.49E-03,1.27E-02
4399,2.66E-03,1.26E-02
4400,2.62E-03,1.27E-02
4401,2.73E-03,1.26E-02
4402,2.71E-03,1.26E-02
4403,2.69E-03,1.24E-02
4404,2.69E-03,1.25E-02
4405,2.62E-03,1.23E-02
4406,2.66E-03,1.23E-02
4407,2.55E-03,1.20E-02
4408,2.60E-03,1.22E-02
4409,2.09E-03,1.18E-02
4410,2.39E-03,1.19E-02
4411,2.24E-03,1.17E-02
4412,2.44E-03,1.19E-02
4413,2.45E-03,1.18E-02
4414,2.35E-03,1.22E-02
4415,2.42E-03,1.21E-02
4416,2.31E-03,1.25E-02
4417,2.32E-03,1.24E-02
4418,2.23E-03,1.28E-02
4419,2.24E-03,1.27E-02
4420,2.11E-03,1.32E-02
4421,2.17E-03,1.30E-02
4422,2.04E-03,1.35E-02
4423,2.07E-03,1.33E-02
4424,1.92E-03,1.38E-02
4425,1.97E-03,1.36E-02
4426,1.83E-03,1.39E-02
4427,1.87E-03,1.44E-02
4428,2.37E-03,1.46E-02
4429,2.05E-03,1.55E-02
4430,2.12E-03,1.53E-02
4431,2.13E-03,1.59E-02
4432,2.06E-03,1.57E-02
4433,2.17E-03,1.61E-02
4434,2.17E-03,1.69E-02
4435,2.17E-03,1.67E-02
4436,2.08E-03,1.73E-02
4437,2.12E-03,1.71E-02
4438,2.06E-03,1.77E-02
4439,2.04E-03,1.75E-02
4440,2.11E-03,1.81E-02
4441,2.10E-03,1.79E-02
4442,2.17E-03,1.84E-02
4443,2.14E-03,1.83E-02
4444,2.28E-03,1.88E-02
4445,2.22E-03,1.86E-02
4446,2.40E-03,1.92E-02
4447,2.34E-03,1.90E-02
4448,2.41E-03,1.94E-02
4449,2.42E-03,1.93E-02
4450,2.38E-03,1.96E-02
4451,2.41E-03,1.95E-02
4452,2.44E-03,1.97E-02
4453,2.42E-03,1.97E-02
4454,2.59E-03,1.98E-02
4455,2.58E-03,1.98E-02
4456,2.71E-03,1.98E-02
4457,2.66E-03,1.98E-02
4458,2.83E-03,1.98E-02
4459,2.83E-03,1.98E-02
4460,2.92E-03,1.98E-02
4461,2.90E-03,1.98E-02
4462,3.08E-03,1.96E-02
4463,2.97E-03,1.97E-02
4464,3.26E-03,1.94E-02
4465,3.16E-03,1.96E-02
4466,3.13E-03,1.93E-02
4467,2.58E-03,1.93E-02
4468,2.54E-03,1.94E-02
4469,2.38E-03,1.93E-02
4470,2.62E-03,1.94E-02
4471,2.53E-03,1.88E-02
4472,2.67E-03,1.94E-02
4473,2.63E-03,1.94E-02
4474,2.72E-03,1.94E-02
4475,2.70E-03,1.94E-02
4476,2.75E-03,1.94E-02
4477,2.75E-03,1.94E-02
4478,2.65E-03,1.95E-02
4479,2.72E-03,1.95E-02
4480,2.60E-03,1.95E-02
4481,2.63E-03,1.95E-02
4482,2.56E-03,1.96E-02
4483,2.59E-03,1.95E-02
4484,2.53E-03,1.95E-02
4485,2.53E-03,1.95E-02
4486,2.48E-03,1.95E-02
4487,2.49E-03,1.95E-02
4488,2.44E-03,1.94E-02
4489,2.45E-03,1.95E-02
4490,2.44E-03,1.93E-02
4491,2.44E-03,1.94E-02
4492,2.44E-03,1.91E-02
4493,2.44E-03,1.92E-02
4494,2.44E-03,1.89E-02
4495,2.42E-03,1.90E-02
4496,2.46E-03,1.85E-02
4497,2.43E-03,1.87E-02
4498,2.47E-03,1.81E-02
4499,2.46E-03,1.83E-02
4500,2.49E-03,1.76E-02
4501,2.49E-03,1.79E-02
4502,2.50E-03,1.70E-02
4503,2.49E-03,1.73E-02
4504,3.07E-03,1.61E-02
4505,2.56E-03,1.66E-02
4506,2.42E-03,4.17E-03
4507,2.37E-03,4.02E-03
4508,2.76E-03,5.62E-03
4509,2.72E-03,5.45E-03
4510,3.10E-03,5.79E-03
4511,2.59E-03,5.98E-03
4512,2.43E-03,6.52E-03
4513,2.54E-03,6.42E-03
4514,2.36E-03,6.70E-03
4515,2.38E-03,6.61E-03
4516,2.30E-03,6.85E-03
4517,2.35E-03,6.78E-03
4518,2.29E-03,6.97E-03
4519,2.29E-03,6.91E-03
4520,2.30E-03,7.07E-03
4521,2.32E-03,7.02E-03
4522,2.33E-03,7.15E-03
4523,2.34E-03,7.11E-03
4524,2.32E-03,7.21E-03
4525,2.33E-03,7.18E-03
4526,2.30E-03,7.24E-03
4527,2.27E-03,7.31E-03
4528,2.26E-03,7.30E-03
4529,2.29E-03,7.33E-03
4530,2.29E-03,7.32E-03
4531,2.32E-03,7.34E-03
4532,2.33E-03,7.33E-03
4533,2.37E-03,7.33E-03
4534,2.37E-03,7.33E-03
4535,2.42E-03,7.31E-03
4536,2.42E-03,7.32E-03
4537,2.35E-03,4.56E-03
4538,3.06E-03,3.32E-03
4539,2.56E-03,6.78E-03
4540,2.77E-03,1.13E-02
4541,2.40E-03,7.29E-03
4542,2.39E-03,7.25E-03
4543,2.47E-03,6.49E-03
4544,2.52E-03,6.51E-03
4545,2.59E-03,7.26E-03
4546,2.40E-03,1.14E-02
4547,2.42E-03,1.09E-02
4548,2.56E-03,8.09E-03
4549,2.50E-03,8.56E-03
4550,2.66E-03,8.90E-03
4551,2.66E-03,8.97E-03
4552,2.59E-03,1.35E-02
4553,2.22E-03,3.49E-03
4554,2.49E-03,1.29E-02
4555,2.45E-03,1.23E-02
4556,2.41E-03,1.89E-02
4557,2.82E-03,4.34E-03
4558,2.79E-03,4.06E-03
4559,2.69E-03,5.78E-03
4560,2.68E-03,5.51E-03
4561,2.79E-03,4.97E-03
4562,2.80E-03,6.06E-03
4563,2.80E-03,6.61E-03
4564,2.84E-03,6.88E-03
4565,2.86E-03,7.92E-03
4566,2.77E-03,7.74E-03
4567,3.08E-03,7.93E-03
4568,3.01E-03,7.78E-03
4569,2.21E-03,1.88E-02
4570,2.44E-03,1.88E-02
4571,2.22E-03,1.88E-02
4572,2.38E-03,7.26E-03
4573,2.37E-03,7.30E-03
4574,2.80E-03,8.35E-03
4575,2.15E-03,1.22E-02
4576,2.14E-03,1.22E-02
4577,2.14E-03,1.23E-02
4578,2.38E-03,1.15E-02
4579,1.84E-03,1.40E-02
4580,1.71E-03,1.42E-02
4581,2.17E-03,1.48E-02
4582,2.18E-03,1.50E-02
4583,2.20E-03,1.63E-02
4584,2.20E-03,1.65E-02
4585,2.43E-03,1.93E-02
4586,3.00E-03,1.97E-02
4587,2.41E-03,1.98E-02
4588,2.27E-03,7.33E-03
4589,2.29E-03,7.30E-03
4590,2.26E-03,7.35E-03
4591,2.39E-03,4.32E-03
4592,2.64E-03,4.82E-03
4593,2.42E-03,4.65E-03
4594,2.56E-03,6.89E-03
4595,2.47E-03,6.42E-03
4596,2.57E-03,6.44E-03
4597,2.57E-03,7.13E-03
4598,2.44E-03,1.05E-02
4599,2.57E-03,7.91E-03
4600,2.49E-03,8.89E-03
4601,3.72E-03,1.53E-02
4602,3.31E-03,1.41E-02
4603,2.55E-03,7.01E-03
4604,2.53E-03,1.31E-02
4605,2.38E-03,1.16E-02
4606,2.39E-03,1.19E-02
4607,2.52E-03,1.85E-02
4608,2.79E-03,4.60E-03
4609,3.29E-03,8.53E-03
4610,3.37E-03,8.27E-03
4611,2.82E-03,7.61E-03
4612,2.44E-03,1.82E-02
4613,3.05E-03,8.11E-03
4614,3.13E-03,2.01E-02
4615,2.31E-03,2.02E-02
4616,2.42E-03,6.40E-03
4617,2.56E-03,6.38E-03
4618,2.46E-03,1.01E-02
4619,2.61E-03,7.74E-03
4620,2.48E-03,9.28E-03
4621,2.57E-03,1.34E-02
4622,2.62E-03,1.80E-02
4623,2.47E-03,1.76E-02
4624,2.77E-03,7.90E-03
4625,1.87E-03,2.01E-03
4626,2.41E-03,6.44E-03
4627,2.49E-03,6.33E-03
4628,2.48E-03,9.74E-03
4629,2.47E-03,9.72E-03
4630,2.55E-03,1.36E-02
4631,2.67E-03,1.76E-02
4632,2.51E-03,1.70E-02
4633,2.07E-03,1.72E-03
4634,1.92E-03,1.83E-03
4635,2.41E-03,6.53E-03
4636,2.48E-03,6.30E-03
4637,2.43E-03,9.36E-03
4638,2.47E-03,1.02E-02
4639,2.54E-03,1.39E-02
4640,2.68E-03,1.72E-02
4641,2.52E-03,1.63E-02
4642,2.38E-03,6.67E-03
4643,2.49E-03,6.29E-03
4644,2.42E-03,8.99E-03
4645,2.46E-03,1.07E-02
4646,2.52E-03,1.42E-02
4647,2.60E-03,1.68E-02
4648,2.47E-03,1.57E-02
4649,2.43E-03,6.84E-03
4650,2.53E-03,6.30E-03
4651,2.43E-03,8.63E-03
4652,2.46E-03,1.13E-02
4653,2.56E-03,1.45E-02
4654,2.53E-03,1.64E-02
4655,2.52E-03,8.94E-03
4656,2.47E-03,8.97E-03
4657,2.44E-03,8.95E-03
4658,2.42E-03,8.86E-03
4659,2.53E-03,8.78E-03
4660,2.47E-03,1.50E-02
4661,2.49E-03,7.06E-03
4662,2.55E-03,6.31E-03
4663,2.47E-03,8.27E-03
4664,2.46E-03,1.19E-02
4665,2.58E-03,1.48E-02
4666,2.50E-03,1.61E-02
4667,2.48E-03,1.44E-02
4668,2.53E-03,7.32E-03
4669,2.56E-03,6.34E-03
4670,2.49E-03,7.94E-03
4671,2.47E-03,1.25E-02
4672,2.57E-03,8.88E-03
4673,2.59E-03,1.51E-02
4674,2.50E-03,1.57E-02
4675,2.50E-03,1.37E-02
4676,2.51E-03,7.62E-03
4677,2.56E-03,6.38E-03
4678,2.49E-03,1.31E-02
4679,2.56E-03,1.54E-02
4680,2.56E-03,6.44E-03
4681,2.56E-03,6.51E-03
4682,2.57E-03,6.59E-03
4683,2.56E-03,6.68E-03
4684,2.56E-03,6.78E-03
4685,1.86E-03,1.12E-02
4686,2.41E-03,1.12E-02
4687,2.39E-03,7.28E-03
4688,2.52E-03,6.50E-03
4689,2.61E-03,7.58E-03
4690,2.58E-03,7.41E-03
4691,2.42E-03,1.12E-02
4692,2.50E-03,8.31E-03
4693,2.60E-03,8.84E-03
4694,2.72E-03,9.13E-03
4695,2.68E-03,9.04E-03
4696,2.78E-03,9.38E-03
4697,2.76E-03,9.24E-03
4698,2.85E-03,9.80E-03
4699,2.82E-03,9.57E-03
4700,2.88E-03,1.06E-02
4701,2.87E-03,1.01E-02
4702,2.82E-03,1.17E-02
4703,2.85E-03,1.11E-02
4704,2.77E-03,1.25E-02
4705,2.34E-03,3.79E-03
4706,2.07E-03,3.65E-03
4707,2.47E-03,1.26E-02
4708,2.43E-03,1.88E-02
4709,2.36E-03,1.97E-03
4710,2.18E-03,1.72E-03
4711,2.23E-03,1.84E-03
4712,2.56E-03,2.26E-03
4713,2.47E-03,2.11E-03
4714,2.62E-03,2.62E-03
4715,2.58E-03,2.43E-03
4716,2.76E-03,3.05E-03
4717,2.72E-03,2.83E-03
4718,2.76E-03,3.53E-03
4719,2.78E-03,3.28E-03
4720,2.80E-03,3.79E-03
4721,2.71E-03,5.24E-03
4722,2.80E-03,6.34E-03
4723,2.88E-03,7.42E-03
4724,2.87E-03,7.15E-03
4725,2.83E-03,7.66E-03
4726,2.46E-03,7.15E-03
4727,2.39E-03,7.20E-03
4728,2.50E-03,7.05E-03
4729,2.47E-03,7.10E-03
4730,2.49E-03,6.96E-03
4731,2.53E-03,7.00E-03
4732,2.47E-03,6.88E-03
4733,2.50E-03,6.92E-03
4734,2.46E-03,6.81E-03
4735,2.50E-03,6.84E-03
4736,2.49E-03,6.76E-03
4737,2.51E-03,6.78E-03
4738,2.57E-03,6.74E-03
4739,2.58E-03,6.75E-03
4740,2.71E-03,6.75E-03
4741,2.69E-03,6.74E-03
4742,2.86E-03,6.81E-03
4743,2.82E-03,6.78E-03
4744,2.99E-03,6.91E-03
4745,2.95E-03,6.86E-03
4746,3.07E-03,7.04E-03
4747,3.05E-03,6.97E-03
4748,3.09E-03,7.18E-03
4749,3.10E-03,7.11E-03
4750,3.04E-03,7.32E-03
4751,3.06E-03,7.25E-03
4752,2.94E-03,7.45E-03
4753,2.99E-03,7.38E-03
4754,2.92E-03,7.56E-03
4755,2.91E-03,7.50E-03
4756,2.84E-03,7.65E-03
4757,2.88E-03,7.61E-03
4758,2.79E-03,7.72E-03
4759,2.82E-03,7.69E-03
4760,2.84E-03,7.77E-03
4761,2.80E-03,7.75E-03
4762,3.12E-03,7.80E-03
4763,2.94E-03,7.79E-03
4764,3.21E-03,7.80E-03
4765,2.16E-03,1.89E-02
4766,2.38E-03,7.38E-03
4767,2.36E-03,7.34E-03
4768,2.92E-03,8.71E-03
4769,2.88E-03,8.51E-03
4770,2.92E-03,9.14E-03
4771,2.90E-03,8.92E-03
4772,2.84E-03,9.55E-03
4773,2.85E-03,9.35E-03
4774,2.74E-03,9.94E-03
4775,2.74E-03,9.75E-03
4776,2.64E-03,1.03E-02
4777,2.63E-03,1.01E-02
4778,2.61E-03,1.06E-02
4779,2.62E-03,1.05E-02
4780,2.69E-03,1.10E-02
4781,2.63E-03,1.08E-02
4782,2.73E-03,1.13E-02
4783,2.73E-03,1.11E-02
4784,2.68E-03,1.15E-02
4785,2.69E-03,1.14E-02
4786,2.58E-03,1.18E-02
4787,2.64E-03,1.17E-02
4788,2.42E-03,1.19E-02
4789,2.54E-03,1.18E-02
4790,2.28E-03,1.20E-02
4791,2.32E-03,1.20E-02
4792,2.18E-03,1.21E-02
4793,2.18E-03,1.21E-02
4794,2.16E-03,1.22E-02
4795,2.18E-03,1.24E-02
4796,2.16E-03,1.23E-02
4797,2.23E-03,1.25E-02
4798,2.21E-03,1.24E-02
4799,2.36E-03,1.25E-02
4800,2.32E-03,1.25E-02
4801,2.56E-03,1.25E-02
4802,2.53E-03,1.25E-02
4803,2.71E-03,1.25E-02
4804,2.67E-03,1.25E-02
4805,2.74E-03,1.24E-02
4806,2.73E-03,1.25E-02
4807,2.69E-03,1.23E-02
4808,2.72E-03,1.24E-02
4809,2.61E-03,1.21E-02
4810,2.64E-03,1.22E-02
4811,2.51E-03,1.19E-02
4812,2.54E-03,1.20E-02
4813,2.31E-03,1.17E-02
4814,2.41E-03,1.18E-02
4815,2.25E-03,1.16E-02
4816,2.19E-03,1.13E-02
4817,1.67E-03,1.11E-02
4818,1.71E-03,1.12E-02
4819,2.45E-03,1.13E-02
4820,2.49E-03,1.15E-02
4821,2.53E-03,1.14E-02
4822,2.43E-03,1.18E-02
4823,2.46E-03,1.17E-02
4824,2.37E-03,1.21E-02
4825,2.40E-03,1.20E-02
4826,2.30E-03,1.24E-02
4827,2.32E-03,1.23E-02
4828,2.22E-03,1.27E-02
4829,2.27E-03,1.26E-02
4830,2.15E-03,1.31E-02
4831,2.18E-03,1.29E-02
4832,2.05E-03,1.34E-02
4833,2.09E-03,1.32E-02
4834,1.96E-03,1.37E-02
4835,2.01E-03,1.35E-02
4836,1.88E-03,1.39E-02
4837,1.72E-03,1.44E-02
4838,2.08E-03,1.46E-02
4839,2.10E-03,1.54E-02
4840,2.14E-03,1.52E-02
4841,2.17E-03,1.59E-02
4842,2.13E-03,1.57E-02
4843,2.18E-03,1.61E-02
4844,2.19E-03,1.70E-02
4845,2.20E-03,1.68E-02
4846,2.12E-03,1.74E-02
4847,2.15E-03,1.72E-02
4848,2.08E-03,1.78E-02
4849,2.07E-03,1.76E-02
4850,2.11E-03,1.82E-02
4851,2.12E-03,1.80E-02
4852,2.18E-03,1.86E-02
4853,2.16E-03,1.84E-02
4854,2.29E-03,1.90E-02
4855,2.25E-03,1.88E-02
4856,2.40E-03,1.94E-02
4857,2.35E-03,1.92E-02
4858,2.42E-03,1.96E-02
4859,2.41E-03,1.95E-02
4860,2.41E-03,1.99E-02
4861,2.42E-03,1.98E-02
4862,2.44E-03,2.00E-02
4863,2.44E-03,2.00E-02
4864,2.58E-03,2.01E-02
4865,2.57E-03,2.01E-02
4866,2.72E-03,2.02E-02
4867,2.68E-03,2.02E-02
4868,2.82E-03,2.02E-02
4869,2.82E-03,2.02E-02
4870,2.94E-03,2.02E-02
4871,2.92E-03,2.02E-02
4872,3.04E-03,2.01E-02
4873,2.98E-03,2.01E-02
4874,3.12E-03,1.99E-02
4875,3.08E-03,2.00E-02
4876,3.07E-03,1.98E-02
4877,2.73E-03,1.99E-02
4878,2.51E-03,1.99E-02
4879,2.92E-03,1.99E-02
4880,2.91E-03,1.99E-02
4881,2.77E-03,2.00E-02
4882,2.81E-03,2.00E-02
4883,2.78E-03,2.01E-02
4884,2.75E-03,2.00E-02
4885,2.73E-03,2.01E-02
4886,2.76E-03,2.01E-02
4887,2.69E-03,2.02E-02
4888,2.71E-03,2.02E-02
4889,2.62E-03,2.03E-02
4890,2.67E-03,2.03E-02
4891,2.57E-03,2.03E-02
4892,2.59E-03,2.03E-02
4893,2.53E-03,2.04E-02
4894,2.53E-03,2.04E-02
4895,2.47E-03,2.04E-02
4896,2.49E-03,2.04E-02
4897,2.45E-03,2.03E-02
4898,2.45E-03,2.04E-02
4899,2.45E-03,2.03E-02
4900,2.45E-03,2.03E-02
4901,2.44E-03,2.01E-02
4902,2.44E-03,2.02E-02
4903,2.43E-03,1.99E-02
4904,2.43E-03,2.00E-02
4905,2.46E-03,1.96E-02
4906,2.43E-03,1.97E-02
4907,2.47E-03,1.92E-02
4908,2.46E-03,1.94E-02
4909,2.53E-03,1.87E-02
4910,2.51E-03,1.89E-02
4911,2.58E-03,1.80E-02
4912,2.56E-03,1.84E-02
4913,2.84E-03,1.71E-02
4914,2.68E-03,1.76E-02
4915,2.51E-03,4.08E-03
4916,2.43E-03,3.92E-03
4917,1.99E-03,4.98E-03
4918,2.67E-03,5.55E-03
4919,2.61E-03,5.40E-03
4920,2.27E-03,5.84E-03
4921,2.66E-03,5.69E-03
4922,2.26E-03,6.06E-03
4923,2.20E-03,5.96E-03
4924,2.10E-03,6.31E-03
4925,2.25E-03,6.19E-03
4926,2.36E-03,6.50E-03
4927,2.26E-03,6.40E-03
4928,2.35E-03,6.68E-03
4929,2.36E-03,6.59E-03
4930,2.29E-03,6.84E-03
4931,2.33E-03,6.76E-03
4932,2.29E-03,6.97E-03
4933,2.30E-03,6.91E-03
4934,2.30E-03,7.08E-03
4935,2.33E-03,7.03E-03
4936,2.33E-03,7.17E-03
4937,2.35E-03,7.13E-03
4938,2.34E-03,7.25E-03
4939,2.33E-03,7.21E-03
4940,2.30E-03,7.28E-03
4941,2.30E-03,7.39E-03
4942,2.26E-03,7.37E-03
4943,2.29E-03,7.42E-03
4944,2.28E-03,7.40E-03
4945,2.35E-03,7.44E-03
4946,2.33E-03,7.43E-03
4947,2.40E-03,7.45E-03
4948,2.38E-03,7.44E-03
4949,2.43E-03,7.44E-03
4950,2.43E-03,7.44E-03
4951,2.32E-03,4.48E-03
4952,2.55E-03,6.89E-03
4953,3.05E-03,1.66E-02
4954,2.40E-03,7.44E-03
4955,2.40E-03,7.40E-03
4956,2.47E-03,6.41E-03
4957,2.53E-03,6.42E-03
4958,2.59E-03,7.27E-03
4959,2.40E-03,1.13E-02
4960,2.43E-03,1.08E-02
4961,2.55E-03,8.12E-03
4962,2.50E-03,8.61E-03
4963,2.63E-03,9.00E-03
4964,2.66E-03,9.05E-03
4965,2.85E-03,1.31E-02
4966,2.05E-03,1.10E-02
4967,2.40E-03,1.11E-02
4968,2.54E-03,7.00E-03
4969,2.49E-03,1.28E-02
4970,2.43E-03,1.22E-02
4971,2.48E-03,1.84E-02
4972,2.74E-03,4.23E-03
4973,2.76E-03,3.96E-03
4974,2.63E-03,5.70E-03
4975,2.63E-03,5.42E-03
4976,2.71E-03,4.87E-03
4977,2.64E-03,5.97E-03
4978,2.71E-03,6.54E-03
4979,2.84E-03,6.84E-03
4980,3.04E-03,7.95E-03
4981,2.91E-03,7.65E-03
4982,2.31E-03,1.83E-02
4983,2.45E-03,1.83E-02
4984,2.37E-03,1.83E-02
4985,2.36E-03,7.43E-03
4986,2.36E-03,7.48E-03
4987,2.92E-03,8.30E-03
4988,2.36E-03,1.14E-02
4989,2.15E-03,1.48E-02
4990,2.18E-03,1.50E-02
4991,2.24E-03,1.63E-02
4992,2.24E-03,1.66E-02
4993,2.43E-03,1.95E-02
4994,3.03E-03,2.02E-02
4995,2.64E-03,2.03E-02
4996,2.40E-03,2.75E-03
4997,2.27E-03,7.38E-03
4998,2.30E-03,7.35E-03
4999,2.28E-03,7.41E-03
5000,2.48E-03,4.25E-03
5001,2.38E-03,4.73E-03
5002,2.44E-03,4.57E-03
5003,2.46E-03,6.38E-03
5004,2.55E-03,6.37E-03
5005,2.57E-03,7.13E-03
5006,2.43E-03,1.04E-02
5007,2.59E-03,7.95E-03
5008,2.49E-03,8.97E-03
5009,2.54E-03,1.30E-02
5010,2.37E-03,1.15E-02
5011,2.41E-03,1.18E-02
5012,2.58E-03,1.80E-02
5013,2.21E-03,1.62E-03
5014,2.68E-03,4.51E-03
5015,2.90E-03,8.62E-03
5016,3.06E-03,8.31E-03
5017,2.43E-03,1.77E-02
5018,2.87E-03,8.06E-03
5019,2.19E-03,1.21E-02
5020,2.19E-03,1.21E-02
5021,3.50E-03,2.06E-02
5022,3.23E-03,2.07E-02
5023,2.18E-03,2.12E-03
5024,2.44E-03,6.40E-03
5025,2.54E-03,6.32E-03
5026,2.46E-03,1.00E-02
5027,2.59E-03,7.77E-03
5028,2.48E-03,9.37E-03
5029,2.55E-03,1.33E-02
5030,2.65E-03,1.76E-02
5031,2.46E-03,1.71E-02
5032,1.80E-03,1.95E-03
5033,2.43E-03,6.47E-03
5034,2.48E-03,6.29E-03
5035,2.48E-03,9.63E-03
5036,2.47E-03,9.82E-03
5037,2.53E-03,1.35E-02
5038,2.67E-03,1.71E-02
5039,2.49E-03,1.64E-02
5040,2.41E-03,6.60E-03
5041,2.48E-03,6.28E-03
5042,2.42E-03,9.24E-03
5043,2.47E-03,1.03E-02
5044,2.53E-03,1.38E-02
5045,2.62E-03,1.67E-02
5046,2.47E-03,1.58E-02
5047,2.43E-03,6.76E-03
5048,2.52E-03,6.29E-03
5049,2.44E-03,8.87E-03
5050,2.46E-03,1.08E-02
5051,2.54E-03,1.41E-02
5052,2.56E-03,1.64E-02
5053,2.49E-03,9.08E-03
5054,2.47E-03,9.11E-03
5055,2.44E-03,9.06E-03
5056,2.42E-03,8.96E-03
5057,2.50E-03,8.89E-03
5058,2.48E-03,1.51E-02
5059,2.46E-03,6.96E-03
5060,2.54E-03,6.30E-03
5061,2.45E-03,8.51E-03
5062,2.46E-03,1.14E-02
5063,2.56E-03,1.44E-02
5064,2.50E-03,1.60E-02
5065,2.50E-03,1.45E-02
5066,2.51E-03,7.21E-03
5067,2.55E-03,6.33E-03
5068,2.49E-03,8.15E-03
5069,2.47E-03,1.20E-02
5070,2.56E-03,9.01E-03
5071,2.58E-03,1.47E-02
5072,2.49E-03,1.56E-02
5073,2.51E-03,1.38E-02
5074,2.56E-03,7.50E-03
5075,2.55E-03,6.38E-03
5076,2.50E-03,7.82E-03
5077,2.48E-03,1.26E-02
5078,2.54E-03,1.50E-02
5079,2.53E-03,1.53E-02
5080,2.50E-03,1.32E-02
5081,2.55E-03,6.43E-03
5082,2.56E-03,6.50E-03
5083,2.56E-03,6.58E-03
5084,2.56E-03,6.67E-03
5085,2.56E-03,6.78E-03
5086,2.55E-03,6.89E-03
5087,2.41E-03,7.42E-03
5088,2.51E-03,6.42E-03
5089,2.61E-03,7.60E-03
5090,2.60E-03,7.42E-03
5091,2.42E-03,1.11E-02
5092,2.51E-03,8.36E-03
5093,2.59E-03,8.94E-03
5094,2.72E-03,9.17E-03
5095,2.67E-03,9.11E-03
5096,2.80E-03,9.35E-03
5097,2.76E-03,9.25E-03
5098,2.88E-03,9.68E-03
5099,2.80E-03,9.49E-03
5100,2.90E-03,1.03E-02
5101,2.87E-03,9.96E-03
5102,2.92E-03,1.14E-02
5103,2.93E-03,1.08E-02
5104,2.91E-03,1.22E-02
5105,1.73E-03,2.53E-03
5106,2.33E-03,1.09E-02
5107,1.56E-03,3.70E-03
5108,2.54E-03,7.01E-03
5109,3.40E-03,1.45E-02
5110,2.48E-03,1.25E-02
5111,2.45E-03,1.84E-02
5112,2.39E-03,1.87E-03
5113,2.30E-03,1.62E-03
5114,2.33E-03,1.74E-03
5115,2.54E-03,2.16E-03
5116,2.45E-03,2.01E-03
5117,2.63E-03,2.51E-03
5118,2.56E-03,2.33E-03
5119,2.70E-03,2.94E-03
5120,2.69E-03,2.72E-03
5121,2.74E-03,3.43E-03
5122,2.76E-03,3.18E-03
5123,2.76E-03,3.69E-03
5124,2.67E-03,5.15E-03
5125,2.63E-03,6.26E-03
5126,2.88E-03,7.14E-03
5127,2.97E-03,7.70E-03
5128,2.43E-03,7.33E-03
5129,2.37E-03,7.39E-03
5130,2.44E-03,7.23E-03
5131,2.46E-03,7.28E-03
5132,2.48E-03,7.14E-03
5133,2.49E-03,7.18E-03
5134,2.47E-03,7.05E-03
5135,2.48E-03,7.09E-03
5136,2.47E-03,6.97E-03
5137,2.49E-03,7.00E-03
5138,2.50E-03,6.90E-03
5139,2.53E-03,6.93E-03
5140,2.60E-03,6.86E-03
5141,2.60E-03,6.88E-03
5142,2.76E-03,6.85E-03
5143,2.66E-03,6.85E-03
5144,2.87E-03,6.88E-03
5145,2.85E-03,6.86E-03
5146,3.00E-03,6.95E-03
5147,2.98E-03,6.91E-03
5148,3.10E-03,7.05E-03
5149,3.06E-03,7.00E-03
5150,3.05E-03,7.17E-03
5151,3.09E-03,7.11E-03
5152,3.00E-03,7.29E-03
5153,3.04E-03,7.23E-03
5154,2.91E-03,7.40E-03
5155,2.97E-03,7.35E-03
5156,2.88E-03,7.50E-03
5157,2.89E-03,7.45E-03
5158,2.81E-03,7.57E-03
5159,2.85E-03,7.54E-03
5160,2.77E-03,7.62E-03
5161,2.78E-03,7.60E-03
5162,2.80E-03,7.66E-03
5163,2.79E-03,7.64E-03
5164,2.92E-03,7.68E-03
5165,2.89E-03,7.67E-03
5166,3.01E-03,7.67E-03
5167,2.23E-03,1.83E-02
5168,2.39E-03,7.54E-03
5169,2.37E-03,7.51E-03
5170,2.89E-03,8.66E-03
5171,2.91E-03,8.47E-03
5172,2.87E-03,9.07E-03
5173,2.86E-03,8.86E-03
5174,2.82E-03,9.48E-03
5175,2.84E-03,9.28E-03
5176,2.72E-03,9.86E-03
5177,2.73E-03,9.68E-03
5178,2.63E-03,1.02E-02
5179,2.62E-03,1.00E-02
5180,2.61E-03,1.06E-02
5181,2.60E-03,1.04E-02
5182,2.68E-03,1.09E-02
5183,2.63E-03,1.07E-02
5184,2.75E-03,1.12E-02
5185,2.72E-03,1.10E-02
5186,2.69E-03,1.14E-02
5187,2.70E-03,1.13E-02
5188,2.55E-03,1.16E-02
5189,2.65E-03,1.15E-02
5190,2.43E-03,1.18E-02
5191,2.51E-03,1.17E-02
5192,2.28E-03,1.19E-02
5193,2.34E-03,1.19E-02
5194,2.18E-03,1.20E-02
5195,2.21E-03,1.20E-02
5196,2.18E-03,1.20E-02
5197,2.19E-03,1.22E-02
5198,2.18E-03,1.23E-02
5199,2.19E-03,1.22E-02
5200,2.23E-03,1.23E-02
5201,2.21E-03,1.23E-02
5202,2.39E-03,1.24E-02
5203,2.34E-03,1.24E-02
5204,2.55E-03,1.24E-02
5205,2.52E-03,1.24E-02
5206,2.68E-03,1.24E-02
5207,2.65E-03,1.24E-02
5208,2.73E-03,1.23E-02
5209,2.71E-03,1.24E-02
5210,2.69E-03,1.22E-02
5211,2.72E-03,1.23E-02
5212,2.63E-03,1.20E-02
5213,2.65E-03,1.21E-02
5214,2.51E-03,1.18E-02
5215,2.54E-03,1.19E-02
5216,2.41E-03,1.16E-02
5217,2.44E-03,1.17E-02
5218,2.37E-03,1.15E-02
5219,2.14E-03,1.12E-02
5220,1.96E-03,1.10E-02
5221,2.02E-03,1.11E-02
5222,2.07E-03,1.09E-02
5223,2.42E-03,1.09E-02
5224,2.51E-03,1.11E-02
5225,2.51E-03,1.10E-02
5226,2.49E-03,1.14E-02
5227,2.49E-03,1.13E-02
5228,2.45E-03,1.17E-02
5229,2.47E-03,1.16E-02
5230,2.40E-03,1.20E-02
5231,2.42E-03,1.19E-02
5232,2.32E-03,1.23E-02
5233,2.35E-03,1.22E-02
5234,2.25E-03,1.26E-02
5235,2.29E-03,1.25E-02
5236,2.17E-03,1.29E-02
5237,2.20E-03,1.28E-02
5238,2.08E-03,1.33E-02
5239,2.12E-03,1.31E-02
5240,2.01E-03,1.36E-02
5241,2.03E-03,1.34E-02
5242,1.91E-03,1.40E-02
5243,1.95E-03,1.38E-02
5244,2.00E-03,1.44E-02
5245,1.96E-03,1.41E-02
5246,2.06E-03,1.46E-02
5247,2.16E-03,1.54E-02
5248,2.18E-03,1.52E-02
5249,2.21E-03,1.59E-02
5250,2.17E-03,1.57E-02
5251,2.22E-03,1.61E-02
5252,2.22E-03,1.70E-02
5253,2.24E-03,1.68E-02
5254,2.16E-03,1.75E-02
5255,2.18E-03,1.73E-02
5256,2.10E-03,1.79E-02
5257,2.12E-03,1.77E-02
5258,2.12E-03,1.83E-02
5259,2.13E-03,1.81E-02
5260,2.19E-03,1.87E-02
5261,2.19E-03,1.85E-02
5262,2.30E-03,1.92E-02
5263,2.27E-03,1.89E-02
5264,2.42E-03,1.96E-02
5265,2.37E-03,1.94E-02
5266,2.41E-03,1.99E-02
5267,2.42E-03,1.97E-02
5268,2.40E-03,2.01E-02
5269,2.40E-03,2.00E-02
5270,2.44E-03,2.03E-02
5271,2.46E-03,2.02E-02
5272,2.57E-03,2.04E-02
5273,2.57E-03,2.04E-02
5274,2.72E-03,2.05E-02
5275,2.68E-03,2.05E-02
5276,2.83E-03,2.05E-02
5277,2.78E-03,2.05E-02
5278,2.93E-03,2.05E-02
5279,2.91E-03,2.06E-02
5280,3.01E-03,2.05E-02
5281,2.99E-03,2.05E-02
5282,3.09E-03,2.04E-02
5283,3.06E-03,2.04E-02
5284,3.08E-03,2.03E-02
5285,2.77E-03,2.04E-02
5286,2.73E-03,2.04E-02
5287,2.89E-03,2.05E-02
5288,2.79E-03,2.05E-02
5289,2.82E-03,2.06E-02
5290,2.89E-03,2.06E-02
5291,2.77E-03,2.07E-02
5292,2.78E-03,2.07E-02
5293,2.74E-03,2.08E-02
5294,2.77E-03,2.08E-02
5295,2.69E-03,2.10E-02
5296,2.70E-03,2.09E-02
5297,2.61E-03,2.11E-02
5298,2.66E-03,2.10E-02
5299,2.56E-03,2.12E-02
5300,2.60E-03,2.11E-02
5301,2.51E-03,2.12E-02
5302,2.53E-03,2.12E-02
5303,2.45E-03,2.13E-02
5304,2.50E-03,2.13E-02
5305,2.43E-03,2.13E-02
5306,2.45E-03,2.13E-02
5307,2.45E-03,2.12E-02
5308,2.43E-03,2.13E-02
5309,2.42E-03,2.11E-02
5310,2.45E-03,2.12E-02
5311,2.42E-03,2.09E-02
5312,2.43E-03,2.10E-02
5313,2.46E-03,2.07E-02
5314,2.43E-03,2.08E-02
5315,2.49E-03,2.03E-02
5316,2.46E-03,2.05E-02
5317,2.54E-03,1.98E-02
5318,2.52E-03,2.01E-02
5319,2.59E-03,1.91E-02
5320,2.57E-03,1.95E-02
5321,2.68E-03,1.84E-02
5322,2.63E-03,1.87E-02
5323,2.07E-03,1.77E-02
5324,2.60E-03,1.80E-02
5325,2.62E-03,2.88E-03
5326,1.43E-03,3.25E-03
5327,1.85E-03,3.47E-03
5328,1.78E-03,3.34E-03
5329,1.85E-03,3.70E-03
5330,1.37E-03,3.58E-03
5331,2.54E-03,4.01E-03
5332,2.35E-03,3.85E-03
5333,2.23E-03,5.07E-03
5334,2.31E-03,4.89E-03
5335,2.40E-03,5.21E-03
5336,2.58E-03,5.48E-03
5337,2.51E-03,5.34E-03
5338,2.46E-03,5.78E-03
5339,2.54E-03,5.63E-03
5340,2.27E-03,6.04E-03
5341,2.29E-03,5.92E-03
5342,2.24E-03,6.28E-03
5343,2.24E-03,6.16E-03
5344,2.28E-03,6.48E-03
5345,2.27E-03,6.38E-03
5346,2.33E-03,6.67E-03
5347,2.31E-03,6.58E-03
5348,2.30E-03,6.83E-03
5349,2.34E-03,6.75E-03
5350,2.32E-03,6.97E-03
5351,2.31E-03,6.91E-03
5352,2.33E-03,7.10E-03
5353,2.35E-03,7.04E-03
5354,2.33E-03,7.20E-03
5355,2.33E-03,7.15E-03
5356,2.35E-03,7.28E-03
5357,2.33E-03,7.24E-03
5358,2.31E-03,7.32E-03
5359,2.30E-03,7.46E-03
5360,2.29E-03,7.44E-03
5361,2.31E-03,7.51E-03
5362,2.28E-03,7.49E-03
5363,2.36E-03,7.55E-03
5364,2.32E-03,7.53E-03
5365,2.40E-03,7.57E-03
5366,2.38E-03,7.56E-03
5367,2.46E-03,7.58E-03
5368,2.44E-03,7.58E-03
5369,2.44E-03,4.41E-03
5370,2.58E-03,8.75E-03
5371,2.02E-03,1.73E-02
5372,2.43E-03,7.59E-03
5373,2.40E-03,7.57E-03
5374,2.47E-03,6.37E-03
5375,2.56E-03,6.36E-03
5376,2.59E-03,7.28E-03
5377,2.39E-03,1.12E-02
5378,2.41E-03,1.07E-02
5379,2.54E-03,8.17E-03
5380,2.50E-03,8.68E-03
5381,2.63E-03,9.12E-03
5382,2.66E-03,9.16E-03
5383,2.49E-03,1.27E-02
5384,2.42E-03,1.21E-02
5385,2.54E-03,1.79E-02
5386,2.32E-03,1.52E-03
5387,2.68E-03,4.15E-03
5388,2.70E-03,3.87E-03
5389,2.54E-03,5.63E-03
5390,2.56E-03,5.35E-03
5391,2.63E-03,4.78E-03
5392,2.46E-03,5.89E-03
5393,2.68E-03,6.48E-03
5394,2.84E-03,6.81E-03
5395,3.02E-03,8.02E-03
5396,2.42E-03,1.77E-02
5397,2.48E-03,1.78E-02
5398,2.50E-03,1.78E-02
5399,2.35E-03,7.62E-03
5400,2.35E-03,7.66E-03
5401,2.88E-03,8.24E-03
5402,2.22E-03,1.20E-02
5403,2.22E-03,1.20E-02
5404,2.22E-03,1.20E-02
5405,2.33E-03,1.13E-02
5406,2.16E-03,1.47E-02
5407,2.17E-03,1.49E-02
5408,2.28E-03,1.63E-02
5409,2.29E-03,1.66E-02
5410,2.46E-03,1.98E-02
5411,3.13E-03,2.07E-02
5412,2.80E-03,2.08E-02
5413,2.02E-03,1.75E-03
5414,2.15E-03,1.63E-03
5415,1.59E-03,2.69E-03
5416,2.32E-03,4.99E-03
5417,2.59E-03,5.16E-03
5418,2.29E-03,7.44E-03
5419,2.31E-03,7.40E-03
5420,2.29E-03,7.48E-03
5421,2.51E-03,4.18E-03
5422,2.43E-03,4.67E-03
5423,2.49E-03,4.50E-03
5424,2.45E-03,6.37E-03
5425,2.55E-03,6.32E-03
5426,2.57E-03,7.14E-03
5427,2.43E-03,1.03E-02
5428,2.58E-03,7.98E-03
5429,2.49E-03,9.05E-03
5430,2.53E-03,1.30E-02
5431,2.38E-03,1.14E-02
5432,2.42E-03,1.17E-02
5433,2.60E-03,1.75E-02
5434,2.61E-03,4.42E-03
5435,2.80E-03,8.37E-03
5436,2.46E-03,1.71E-02
5437,3.06E-03,2.12E-02
5438,3.01E-03,2.12E-02
5439,2.00E-03,2.03E-03
5440,2.83E-03,8.00E-03
5441,2.84E-03,7.84E-03
5442,2.44E-03,6.42E-03
5443,2.52E-03,6.29E-03
5444,2.45E-03,9.90E-03
5445,2.59E-03,7.80E-03
5446,2.48E-03,9.46E-03
5447,2.54E-03,1.32E-02
5448,2.64E-03,1.71E-02
5449,2.48E-03,1.65E-02
5450,1.81E-03,1.88E-03
5451,2.43E-03,6.53E-03
5452,2.50E-03,6.28E-03
5453,2.46E-03,9.51E-03
5454,2.47E-03,9.92E-03
5455,2.53E-03,1.35E-02
5456,2.60E-03,1.67E-02
5457,2.93E-03,7.55E-03
5458,3.02E-03,7.53E-03
5459,2.46E-03,1.59E-02
5460,2.44E-03,6.69E-03
5461,2.53E-03,6.29E-03
5462,2.42E-03,9.13E-03
5463,2.47E-03,1.04E-02
5464,2.53E-03,1.37E-02
5465,2.58E-03,1.63E-02
5466,2.53E-03,9.23E-03
5467,2.45E-03,9.25E-03
5468,2.41E-03,9.15E-03
5469,2.41E-03,9.08E-03
5470,2.45E-03,8.97E-03
5471,2.48E-03,1.52E-02
5472,2.45E-03,6.87E-03
5473,2.54E-03,6.30E-03
5474,2.44E-03,8.75E-03
5475,2.46E-03,1.10E-02
5476,2.57E-03,1.40E-02
5477,2.50E-03,1.59E-02
5478,2.50E-03,1.46E-02
5479,2.51E-03,7.10E-03
5480,2.54E-03,6.33E-03
5481,2.47E-03,8.39E-03
5482,2.47E-03,1.15E-02
5483,2.53E-03,9.16E-03
5484,2.56E-03,1.43E-02
5485,2.48E-03,1.56E-02
5486,2.51E-03,1.40E-02
5487,2.54E-03,7.38E-03
5488,2.55E-03,6.38E-03
5489,2.51E-03,8.03E-03
5490,2.48E-03,1.21E-02
5491,2.55E-03,1.46E-02
5492,2.50E-03,1.52E-02
5493,2.51E-03,1.33E-02
5494,2.54E-03,7.70E-03
5495,2.55E-03,6.43E-03
5496,2.50E-03,1.27E-02
5497,2.51E-03,1.49E-02
5498,2.55E-03,6.50E-03
5499,2.55E-03,6.58E-03
5500,2.55E-03,6.68E-03
5501,2.55E-03,6.78E-03
5502,2.55E-03,6.89E-03
5503,2.54E-03,7.02E-03
5504,2.93E-03,1.48E-02
5505,2.39E-03,1.67E-02
5506,2.71E-03,1.59E-02
5507,2.40E-03,7.58E-03
5508,2.50E-03,6.36E-03
5509,2.61E-03,7.63E-03
5510,2.59E-03,7.44E-03
5511,2.41E-03,1.10E-02
5512,2.51E-03,8.41E-03
5513,2.59E-03,9.07E-03
5514,2.73E-03,9.24E-03
5515,2.69E-03,9.20E-03
5516,2.79E-03,9.35E-03
5517,2.72E-03,9.29E-03
5518,2.86E-03,9.59E-03
5519,2.80E-03,9.44E-03
5520,2.96E-03,1.01E-02
5521,2.94E-03,9.79E-03
5522,3.07E-03,1.11E-02
5523,3.01E-03,1.06E-02
5524,2.97E-03,1.18E-02
5525,2.46E-03,1.31E-02
5526,3.03E-03,1.39E-02
5527,2.47E-03,1.24E-02
5528,2.49E-03,1.79E-02
5529,2.41E-03,1.52E-03
5530,2.38E-03,1.43E-03
5531,2.48E-03,1.33E-03
5532,2.44E-03,1.42E-03
5533,2.42E-03,1.77E-03
5534,2.40E-03,1.64E-03
5535,2.53E-03,2.06E-03
5536,2.46E-03,1.90E-03
5537,2.62E-03,2.41E-03
5538,2.55E-03,2.23E-03
5539,2.70E-03,2.84E-03
5540,2.65E-03,2.62E-03
5541,2.73E-03,3.33E-03
5542,2.73E-03,3.08E-03
5543,2.73E-03,3.59E-03
5544,2.60E-03,5.06E-03
5545,2.54E-03,6.17E-03
5546,2.92E-03,7.10E-03
5547,3.00E-03,7.74E-03
5548,2.38E-03,7.53E-03
5549,2.35E-03,7.58E-03
5550,2.41E-03,7.43E-03
5551,2.42E-03,7.48E-03
5552,2.44E-03,7.33E-03
5553,2.45E-03,7.38E-03
5554,2.47E-03,7.23E-03
5555,2.47E-03,7.28E-03
5556,2.50E-03,7.14E-03
5557,2.48E-03,7.19E-03
5558,2.53E-03,7.06E-03
5559,2.55E-03,7.10E-03
5560,2.61E-03,7.00E-03
5561,2.62E-03,7.03E-03
5562,2.79E-03,6.97E-03
5563,2.72E-03,6.98E-03
5564,2.88E-03,6.98E-03
5565,2.82E-03,6.97E-03
5566,2.97E-03,7.02E-03
5567,2.96E-03,7.00E-03
5568,3.06E-03,7.10E-03
5569,3.03E-03,7.06E-03
5570,3.02E-03,7.20E-03
5571,3.06E-03,7.15E-03
5572,2.97E-03,7.30E-03
5573,3.00E-03,7.25E-03
5574,2.91E-03,7.39E-03
5575,2.93E-03,7.34E-03
5576,2.84E-03,7.46E-03
5577,2.86E-03,7.42E-03
5578,2.75E-03,7.52E-03
5579,2.80E-03,7.49E-03
5580,2.70E-03,7.55E-03
5581,2.72E-03,7.54E-03
5582,2.74E-03,7.58E-03
5583,2.74E-03,7.57E-03
5584,2.83E-03,7.58E-03
5585,2.81E-03,7.58E-03
5586,2.88E-03,7.57E-03
5587,2.47E-03,1.78E-02
5588,2.38E-03,7.72E-03
5589,2.37E-03,7.70E-03
5590,2.88E-03,8.61E-03
5591,2.89E-03,8.42E-03
5592,2.85E-03,9.01E-03
5593,2.85E-03,8.81E-03
5594,2.80E-03,9.41E-03
5595,2.83E-03,9.21E-03
5596,2.69E-03,9.78E-03
5597,2.71E-03,9.60E-03
5598,2.62E-03,1.01E-02
5599,2.62E-03,9.96E-03
5600,2.60E-03,1.05E-02
5601,2.59E-03,1.03E-02
5602,2.68E-03,1.08E-02
5603,2.64E-03,1.06E-02
5604,2.75E-03,1.11E-02
5605,2.71E-03,1.09E-02
5606,2.71E-03,1.13E-02
5607,2.72E-03,1.12E-02
5608,2.57E-03,1.15E-02
5609,2.63E-03,1.14E-02
5610,2.43E-03,1.17E-02
5611,2.52E-03,1.16E-02
5612,2.30E-03,1.18E-02
5613,2.35E-03,1.17E-02
5614,2.19E-03,1.19E-02
5615,2.22E-03,1.18E-02
5616,2.21E-03,1.19E-02
5617,2.19E-03,1.21E-02
5618,2.20E-03,1.21E-02
5619,2.23E-03,1.22E-02
5620,2.20E-03,1.22E-02
5621,2.38E-03,1.23E-02
5622,2.34E-03,1.22E-02
5623,2.55E-03,1.23E-02
5624,2.51E-03,1.23E-02
5625,2.70E-03,1.23E-02
5626,2.68E-03,1.23E-02
5627,2.74E-03,1.22E-02
5628,2.75E-03,1.22E-02
5629,2.69E-03,1.21E-02
5630,2.74E-03,1.21E-02
5631,2.61E-03,1.19E-02
5632,2.65E-03,1.20E-02
5633,2.51E-03,1.17E-02
5634,2.55E-03,1.18E-02
5635,2.49E-03,1.15E-02
5636,2.47E-03,1.16E-02
5637,2.45E-03,1.14E-02
5638,2.10E-03,1.11E-02
5639,2.07E-03,1.09E-02
5640,2.06E-03,1.10E-02
5641,2.25E-03,1.07E-02
5642,2.14E-03,1.08E-02
5643,2.47E-03,1.07E-02
5644,2.44E-03,1.06E-02
5645,2.50E-03,1.10E-02
5646,2.48E-03,1.09E-02
5647,2.47E-03,1.13E-02
5648,2.47E-03,1.12E-02
5649,2.45E-03,1.16E-02
5650,2.46E-03,1.14E-02
5651,2.40E-03,1.19E-02
5652,2.42E-03,1.17E-02
5653,2.34E-03,1.22E-02
5654,2.37E-03,1.20E-02
5655,2.28E-03,1.25E-02
5656,2.30E-03,1.23E-02
5657,2.19E-03,1.28E-02
5658,2.23E-03,1.27E-02
5659,2.11E-03,1.32E-02
5660,2.16E-03,1.30E-02
5661,2.04E-03,1.35E-02
5662,2.06E-03,1.33E-02
5663,2.00E-03,1.39E-02
5664,1.99E-03,1.37E-02
5665,2.07E-03,1.43E-02
5666,2.01E-03,1.41E-02
5667,2.11E-03,1.45E-02
5668,2.21E-03,1.54E-02
5669,2.20E-03,1.52E-02
5670,2.25E-03,1.59E-02
5671,2.22E-03,1.56E-02
5672,2.25E-03,1.61E-02
5673,2.25E-03,1.71E-02
5674,2.27E-03,1.68E-02
5675,2.18E-03,1.76E-02
5676,2.20E-03,1.73E-02
5677,2.12E-03,1.80E-02
5678,2.15E-03,1.78E-02
5679,2.14E-03,1.84E-02
5680,2.13E-03,1.82E-02
5681,2.19E-03,1.89E-02
5682,2.18E-03,1.87E-02
5683,2.30E-03,1.93E-02
5684,2.24E-03,1.91E-02
5685,2.47E-03,1.98E-02
5686,2.38E-03,1.95E-02
5687,2.45E-03,2.01E-02
5688,2.47E-03,1.99E-02
5689,2.41E-03,2.04E-02
5690,2.44E-03,2.03E-02
5691,2.45E-03,2.06E-02
5692,2.44E-03,2.05E-02
5693,2.57E-03,2.07E-02
5694,2.55E-03,2.07E-02
5695,2.70E-03,2.08E-02
5696,2.64E-03,2.08E-02
5697,2.82E-03,2.09E-02
5698,2.79E-03,2.09E-02
5699,2.91E-03,2.09E-02
5700,2.87E-03,2.09E-02
5701,2.99E-03,2.09E-02
5702,2.98E-03,2.09E-02
5703,3.04E-03,2.08E-02
5704,3.01E-03,2.09E-02
5705,3.04E-03,2.08E-02
5706,2.83E-03,2.10E-02
5707,2.83E-03,2.09E-02
5708,2.94E-03,2.11E-02
5709,2.85E-03,2.10E-02
5710,2.87E-03,2.12E-02
5711,2.89E-03,2.12E-02
5712,2.79E-03,2.14E-02
5713,2.82E-03,2.13E-02
5714,2.74E-03,2.16E-02
5715,2.78E-03,2.15E-02
5716,2.68E-03,2.17E-02
5717,2.70E-03,2.16E-02
5718,2.61E-03,2.19E-02
5719,2.65E-03,2.18E-02
5720,2.56E-03,2.20E-02
5721,2.59E-03,2.20E-02
5722,2.51E-03,2.22E-02
5723,2.53E-03,2.21E-02
5724,2.45E-03,2.22E-02
5725,2.49E-03,2.22E-02
5726,2.43E-03,2.23E-02
5727,2.45E-03,2.23E-02
5728,2.45E-03,2.23E-02
5729,2.43E-03,2.23E-02
5730,2.42E-03,2.22E-02
5731,2.43E-03,2.23E-02
5732,2.42E-03,2.21E-02
5733,2.43E-03,2.21E-02
5734,2.46E-03,2.18E-02
5735,2.43E-03,2.20E-02
5736,2.50E-03,2.15E-02
5737,2.46E-03,2.17E-02
5738,2.54E-03,2.10E-02
5739,2.51E-03,2.13E-02
5740,2.58E-03,2.04E-02
5741,2.57E-03,2.07E-02
5742,2.57E-03,1.96E-02
5743,2.59E-03,2.00E-02
5744,2.37E-03,1.88E-02
5745,2.47E-03,1.93E-02
5746,2.36E-03,1.78E-02
5747,2.31E-03,1.84E-02
5748,2.25E-03,1.53E-03
5749,1.56E-03,2.71E-03
5750,1.62E-03,2.60E-03
5751,2.12E-03,2.94E-03
5752,2.14E-03,2.83E-03
5753,1.73E-03,3.18E-03
5754,1.74E-03,3.06E-03
5755,1.74E-03,3.39E-03
5756,1.74E-03,3.29E-03
5757,1.99E-03,3.66E-03
5758,1.76E-03,3.52E-03
5759,2.67E-03,3.95E-03
5760,2.36E-03,3.79E-03
5761,2.39E-03,4.83E-03
5762,2.58E-03,5.44E-03
5763,2.66E-03,5.29E-03
5764,2.46E-03,5.74E-03
5765,2.49E-03,5.59E-03
5766,2.29E-03,6.01E-03
5767,2.33E-03,5.88E-03
5768,2.26E-03,6.25E-03
5769,2.28E-03,6.13E-03
5770,2.28E-03,6.46E-03
5771,2.28E-03,6.36E-03
5772,2.30E-03,6.66E-03
5773,2.30E-03,6.56E-03
5774,2.30E-03,6.83E-03
5775,2.33E-03,6.75E-03
5776,2.32E-03,6.98E-03
5777,2.32E-03,6.91E-03
5778,2.34E-03,7.11E-03
5779,2.34E-03,7.05E-03
5780,2.34E-03,7.22E-03
5781,2.33E-03,7.17E-03
5782,2.34E-03,7.32E-03
5783,2.33E-03,7.27E-03
5784,2.33E-03,7.36E-03
5785,2.29E-03,7.55E-03
5786,2.29E-03,7.51E-03
5787,2.32E-03,7.61E-03
5788,2.30E-03,7.58E-03
5789,2.35E-03,7.66E-03
5790,2.33E-03,7.64E-03
5791,2.41E-03,7.70E-03
5792,2.38E-03,7.69E-03
5793,2.45E-03,7.74E-03
5794,2.43E-03,7.72E-03
5795,2.52E-03,4.34E-03
5796,2.46E-03,7.74E-03
5797,2.39E-03,7.74E-03
5798,2.47E-03,6.35E-03
5799,2.54E-03,6.32E-03
5800,2.59E-03,7.29E-03
5801,2.39E-03,1.11E-02
5802,2.43E-03,1.06E-02
5803,2.54E-03,8.21E-03
5804,2.50E-03,8.74E-03
5805,2.62E-03,9.27E-03
5806,2.64E-03,9.30E-03
5807,2.57E-03,1.23E-02
5808,2.57E-03,1.71E-02
5809,2.48E-03,1.26E-02
5810,2.44E-03,1.20E-02
5811,2.56E-03,1.74E-02
5812,2.63E-03,4.07E-03
5813,2.67E-03,3.79E-03
5814,2.46E-03,5.56E-03
5815,2.51E-03,5.27E-03
5816,2.55E-03,4.70E-03
5817,2.43E-03,5.84E-03
5818,2.79E-03,6.74E-03
5819,3.03E-03,8.12E-03
5820,2.47E-03,1.72E-02
5821,2.52E-03,1.73E-02
5822,2.51E-03,1.73E-02
5823,2.33E-03,7.83E-03
5824,2.35E-03,7.86E-03
5825,2.84E-03,8.18E-03
5826,2.28E-03,1.18E-02
5827,2.27E-03,1.19E-02
5828,2.48E-03,1.12E-02
5829,2.05E-03,1.10E-02
5830,2.17E-03,1.46E-02
5831,2.20E-03,1.49E-02
5832,2.32E-03,1.63E-02
5833,2.31E-03,1.66E-02
5834,2.49E-03,2.00E-02
5835,3.07E-03,2.12E-02
5836,2.92E-03,2.13E-02
5837,2.55E-03,1.26E-03
5838,2.40E-03,1.35E-03
5839,2.25E-03,1.68E-03
5840,2.22E-03,1.56E-03
5841,2.07E-03,2.14E-03
5842,2.30E-03,7.50E-03
5843,2.30E-03,7.46E-03
5844,2.29E-03,7.54E-03
5845,2.57E-03,4.11E-03
5846,2.46E-03,4.60E-03
5847,2.52E-03,4.43E-03
5848,2.45E-03,6.38E-03
5849,2.51E-03,6.30E-03
5850,2.57E-03,7.15E-03
5851,2.42E-03,1.02E-02
5852,2.58E-03,8.02E-03
5853,2.49E-03,9.13E-03
5854,2.50E-03,1.29E-02
5855,2.37E-03,1.13E-02
5856,2.41E-03,1.16E-02
5857,2.60E-03,1.70E-02
5858,2.55E-03,4.36E-03
5859,2.49E-03,1.66E-02
5860,2.84E-03,2.17E-02
5861,2.88E-03,2.18E-02
5862,2.29E-03,1.79E-03
5863,1.42E-03,1.98E-03
5864,2.45E-03,6.47E-03
5865,2.52E-03,6.29E-03
5866,2.46E-03,9.79E-03
5867,2.59E-03,7.84E-03
5868,2.48E-03,9.56E-03
5869,2.53E-03,1.31E-02
5870,2.56E-03,1.66E-02
5871,2.92E-03,7.46E-03
5872,2.98E-03,7.43E-03
5873,3.30E-03,7.47E-03
5874,2.47E-03,1.60E-02
5875,2.45E-03,6.61E-03
5876,2.52E-03,6.29E-03
5877,2.45E-03,9.39E-03
5878,2.47E-03,1.00E-02
5879,2.52E-03,1.34E-02
5880,2.57E-03,1.62E-02
5881,2.49E-03,9.41E-03
5882,2.48E-03,9.37E-03
5883,2.32E-03,9.25E-03
5884,2.45E-03,9.19E-03
5885,2.47E-03,1.53E-02
5886,2.47E-03,6.79E-03
5887,2.53E-03,6.31E-03
5888,2.42E-03,9.01E-03
5889,2.47E-03,1.05E-02
5890,2.54E-03,1.37E-02
5891,2.52E-03,1.58E-02
5892,2.49E-03,1.47E-02
5893,2.48E-03,7.01E-03
5894,2.53E-03,6.34E-03
5895,2.45E-03,8.63E-03
5896,2.47E-03,1.11E-02
5897,2.56E-03,9.33E-03
5898,2.56E-03,1.39E-02
5899,2.48E-03,1.55E-02
5900,2.51E-03,1.41E-02
5901,2.52E-03,7.27E-03
5902,2.54E-03,6.39E-03
5903,2.51E-03,8.26E-03
5904,2.48E-03,1.16E-02
5905,2.53E-03,1.42E-02
5906,2.47E-03,1.51E-02
5907,2.52E-03,1.35E-02
5908,2.55E-03,7.58E-03
5909,2.54E-03,6.44E-03
5910,2.53E-03,7.91E-03
5911,2.49E-03,1.22E-02
5912,2.52E-03,1.45E-02
5913,2.50E-03,1.48E-02
5914,2.51E-03,1.28E-02
5915,2.54E-03,6.51E-03
5916,2.55E-03,6.59E-03
5917,2.55E-03,6.69E-03
5918,2.55E-03,6.79E-03
5919,2.54E-03,6.91E-03
5920,2.54E-03,7.03E-03
5921,3.37E-03,8.56E-03
5922,2.79E-03,9.03E-03
5923,2.42E-03,7.75E-03
5924,2.50E-03,6.33E-03
5925,2.61E-03,7.66E-03
5926,2.59E-03,7.47E-03
5927,2.42E-03,1.09E-02
5928,2.51E-03,8.47E-03
5929,2.59E-03,9.22E-03
5930,2.70E-03,9.34E-03
5931,2.68E-03,9.32E-03
5932,2.78E-03,9.39E-03
5933,2.73E-03,9.36E-03
5934,2.89E-03,9.51E-03
5935,2.82E-03,9.43E-03
5936,3.02E-03,9.90E-03
5937,2.96E-03,9.67E-03
5938,3.25E-03,1.08E-02
5939,3.06E-03,1.03E-02
5940,2.66E-03,1.24E-02
5941,3.57E-03,1.15E-02
5942,2.87E-03,1.41E-02
5943,2.92E-03,1.32E-02
5944,2.71E-03,1.63E-02
5945,2.82E-03,1.51E-02
5946,2.48E-03,1.23E-02
5947,2.52E-03,1.74E-02
5948,2.60E-03,1.24E-03
5949,2.54E-03,1.20E-03
5950,3.00E-03,1.11E-03
5951,2.73E-03,1.17E-03
5952,2.50E-03,1.43E-03
5953,2.54E-03,1.33E-03
5954,2.46E-03,1.67E-03
5955,2.48E-03,1.55E-03
5956,2.53E-03,1.96E-03
5957,2.47E-03,1.81E-03
5958,2.58E-03,2.32E-03
5959,2.56E-03,2.13E-03
5960,2.69E-03,2.75E-03
5961,2.63E-03,2.52E-03
5962,2.71E-03,3.25E-03
5963,2.72E-03,2.99E-03
5964,2.71E-03,3.51E-03
5965,2.52E-03,4.98E-03
5966,2.58E-03,6.09E-03
5967,3.01E-03,7.42E-03
5968,3.10E-03,7.04E-03
5969,2.97E-03,7.77E-03
5970,2.35E-03,7.74E-03
5971,2.32E-03,7.78E-03
5972,2.38E-03,7.64E-03
5973,2.39E-03,7.69E-03
5974,2.42E-03,7.54E-03
5975,2.41E-03,7.59E-03
5976,2.46E-03,7.44E-03
5977,2.44E-03,7.49E-03
5978,2.53E-03,7.34E-03
5979,2.48E-03,7.39E-03
5980,2.55E-03,7.25E-03
5981,2.55E-03,7.29E-03
5982,2.63E-03,7.17E-03
5983,2.62E-03,7.20E-03
5984,2.74E-03,7.12E-03
5985,2.75E-03,7.14E-03
5986,2.87E-03,7.10E-03
5987,2.83E-03,7.11E-03
5988,2.96E-03,7.13E-03
5989,2.93E-03,7.11E-03
5990,3.04E-03,7.18E-03
5991,3.03E-03,7.15E-03
5992,2.99E-03,7.25E-03
5993,3.04E-03,7.21E-03
5994,2.95E-03,7.33E-03
5995,2.97E-03,7.29E-03
5996,2.86E-03,7.40E-03
5997,2.91E-03,7.36E-03
5998,2.81E-03,7.45E-03
5999,2.83E-03,7.43E-03
6000,2.73E-03,7.49E-03
6001,2.75E-03,7.47E-03
6002,2.66E-03,7.51E-03
6003,2.70E-03,7.50E-03
6004,2.68E-03,7.52E-03
6005,2.68E-03,7.51E-03
6006,2.77E-03,7.50E-03
6007,2.73E-03,7.51E-03
6008,2.83E-03,7.49E-03
6009,2.50E-03,1.73E-02
6010,2.40E-03,7.91E-03
6011,2.37E-03,7.89E-03
6012,2.86E-03,8.55E-03
6013,2.85E-03,8.36E-03
6014,2.83E-03,8.94E-03
6015,2.83E-03,8.74E-03
6016,2.77E-03,9.33E-03
6017,2.81E-03,9.14E-03
6018,2.67E-03,9.70E-03
6019,2.72E-03,9.52E-03
6020,2.59E-03,1.00E-02
6021,2.64E-03,9.87E-03
6022,2.58E-03,1.04E-02
6023,2.58E-03,1.02E-02
6024,2.66E-03,1.07E-02
6025,2.65E-03,1.05E-02
6026,2.72E-03,1.10E-02
6027,2.71E-03,1.08E-02
6028,2.72E-03,1.12E-02
6029,2.71E-03,1.11E-02
6030,2.59E-03,1.14E-02
6031,2.61E-03,1.13E-02
6032,2.44E-03,1.16E-02
6033,2.52E-03,1.15E-02
6034,2.30E-03,1.17E-02
6035,2.36E-03,1.16E-02
6036,2.21E-03,1.18E-02
6037,2.22E-03,1.17E-02
6038,2.24E-03,1.18E-02
6039,2.19E-03,1.20E-02
6040,2.24E-03,1.19E-02
6041,2.20E-03,1.20E-02
6042,2.21E-03,1.21E-02
6043,2.19E-03,1.20E-02
6044,2.38E-03,1.21E-02
6045,2.37E-03,1.21E-02
6046,2.58E-03,1.22E-02
6047,2.53E-03,1.22E-02
6048,2.69E-03,1.21E-02
6049,2.69E-03,1.22E-02
6050,2.76E-03,1.21E-02
6051,2.75E-03,1.21E-02
6052,2.71E-03,1.20E-02
6053,2.74E-03,1.20E-02
6054,2.62E-03,1.18E-02
6055,2.64E-03,1.19E-02
6056,2.52E-03,1.16E-02
6057,2.57E-03,1.17E-02
6058,2.47E-03,1.14E-02
6059,2.50E-03,1.15E-02
6060,2.59E-03,1.12E-02
6061,2.13E-03,1.07E-02
6062,2.07E-03,1.09E-02
6063,2.27E-03,1.05E-02
6064,2.20E-03,1.06E-02
6065,2.48E-03,1.04E-02
6066,2.49E-03,1.06E-02
6067,2.48E-03,1.05E-02
6068,2.50E-03,1.09E-02
6069,2.49E-03,1.08E-02
6070,2.47E-03,1.12E-02
6071,2.48E-03,1.10E-02
6072,2.45E-03,1.15E-02
6073,2.44E-03,1.13E-02
6074,2.43E-03,1.18E-02
6075,2.44E-03,1.16E-02
6076,2.37E-03,1.21E-02
6077,2.39E-03,1.19E-02
6078,2.29E-03,1.24E-02
6079,2.32E-03,1.22E-02
6080,2.21E-03,1.27E-02
6081,2.24E-03,1.26E-02
6082,2.13E-03,1.31E-02
6083,2.19E-03,1.29E-02
6084,2.07E-03,1.34E-02
6085,2.09E-03,1.32E-02
6086,2.06E-03,1.38E-02
6087,2.04E-03,1.36E-02
6088,2.11E-03,1.42E-02
6089,2.06E-03,1.40E-02
6090,2.14E-03,1.44E-02
6091,2.24E-03,1.53E-02
6092,2.24E-03,1.51E-02
6093,2.27E-03,1.58E-02
6094,2.25E-03,1.56E-02
6095,2.31E-03,1.61E-02
6096,2.29E-03,1.71E-02
6097,2.32E-03,1.69E-02
6098,2.21E-03,1.76E-02
6099,2.24E-03,1.74E-02
6100,2.14E-03,1.81E-02
6101,2.17E-03,1.79E-02
6102,2.16E-03,1.86E-02
6103,2.16E-03,1.83E-02
6104,2.18E-03,1.90E-02
6105,2.17E-03,1.88E-02
6106,2.29E-03,1.95E-02
6107,2.21E-03,1.92E-02
6108,2.56E-03,1.99E-02
6109,2.40E-03,1.97E-02
6110,2.46E-03,2.04E-02
6111,2.49E-03,2.02E-02
6112,2.44E-03,2.07E-02
6113,2.44E-03,2.05E-02
6114,2.47E-03,2.09E-02
6115,2.46E-03,2.08E-02
6116,2.57E-03,2.11E-02
6117,2.52E-03,2.10E-02
6118,2.68E-03,2.12E-02
6119,2.63E-03,2.11E-02
6120,2.80E-03,2.13E-02
6121,2.80E-03,2.12E-02
6122,2.90E-03,2.13E-02
6123,2.86E-03,2.13E-02
6124,2.98E-03,2.13E-02
6125,2.97E-03,2.13E-02
6126,3.01E-03,2.13E-02
6127,2.99E-03,2.13E-02
6128,3.02E-03,2.12E-02
6129,2.87E-03,2.15E-02
6130,2.88E-03,2.14E-02
6131,2.91E-03,2.17E-02
6132,2.89E-03,2.16E-02
6133,2.90E-03,2.19E-02
6134,2.90E-03,2.18E-02
6135,2.80E-03,2.21E-02
6136,2.82E-03,2.20E-02
6137,2.74E-03,2.23E-02
6138,2.78E-03,2.22E-02
6139,2.67E-03,2.25E-02
6140,2.70E-03,2.24E-02
6141,2.61E-03,2.27E-02
6142,2.63E-03,2.26E-02
6143,2.54E-03,2.29E-02
6144,2.57E-03,2.28E-02
6145,2.51E-03,2.31E-02
6146,2.51E-03,2.30E-02
6147,2.45E-03,2.32E-02
6148,2.49E-03,2.32E-02
6149,2.44E-03,2.33E-02
6150,2.45E-03,2.33E-02
6151,2.43E-03,2.34E-02
6152,2.44E-03,2.33E-02
6153,2.43E-03,2.33E-02
6154,2.41E-03,2.34E-02
6155,2.43E-03,2.32E-02
6156,2.42E-03,2.33E-02
6157,2.46E-03,2.30E-02
6158,2.43E-03,2.31E-02
6159,2.49E-03,2.27E-02
6160,2.46E-03,2.29E-02
6161,2.54E-03,2.23E-02
6162,2.52E-03,2.25E-02
6163,2.56E-03,2.17E-02
6164,2.55E-03,2.20E-02
6165,2.54E-03,2.10E-02
6166,2.57E-03,2.13E-02
6167,2.45E-03,2.01E-02
6168,2.51E-03,2.06E-02
6169,2.47E-03,1.90E-02
6170,2.42E-03,1.96E-02
6171,2.67E-03,1.76E-02
6172,2.57E-03,1.84E-02
6173,2.29E-03,1.46E-03
6174,1.67E-03,2.44E-03
6175,1.59E-03,2.26E-03
6176,1.52E-03,2.35E-03
6177,1.74E-03,2.66E-03
6178,1.78E-03,2.54E-03
6179,1.80E-03,2.87E-03
6180,1.76E-03,2.77E-03
6181,1.80E-03,3.10E-03
6182,1.79E-03,2.98E-03
6183,1.84E-03,3.34E-03
6184,1.81E-03,3.22E-03
6185,2.17E-03,3.60E-03
6186,1.92E-03,3.46E-03
6187,2.49E-03,3.89E-03
6188,2.43E-03,3.75E-03
6189,2.35E-03,4.92E-03
6190,2.41E-03,4.76E-03
6191,2.44E-03,5.07E-03
6192,2.53E-03,5.41E-03
6193,2.55E-03,5.26E-03
6194,2.43E-03,5.70E-03
6195,2.49E-03,5.56E-03
6196,2.33E-03,5.98E-03
6197,2.38E-03,5.84E-03
6198,2.27E-03,6.23E-03
6199,2.30E-03,6.11E-03
6200,2.28E-03,6.45E-03
6201,2.27E-03,6.34E-03
6202,2.30E-03,6.65E-03
6203,2.28E-03,6.55E-03
6204,2.32E-03,6.83E-03
6205,2.31E-03,6.74E-03
6206,2.33E-03,6.99E-03
6207,2.34E-03,6.91E-03
6208,2.35E-03,7.13E-03
6209,2.35E-03,7.06E-03
6210,2.34E-03,7.25E-03
6211,2.36E-03,7.19E-03
6212,2.35E-03,7.36E-03
6213,2.36E-03,7.31E-03
6214,2.35E-03,7.41E-03
6215,2.31E-03,7.63E-03
6216,2.29E-03,7.59E-03
6217,2.31E-03,7.71E-03
6218,2.29E-03,7.67E-03
6219,2.36E-03,7.78E-03
6220,2.33E-03,7.75E-03
6221,2.41E-03,7.84E-03
6222,2.39E-03,7.82E-03
6223,2.45E-03,7.89E-03
6224,2.43E-03,7.87E-03
6225,2.78E-03,7.94E-03
6226,2.67E-03,7.77E-03
6227,2.57E-03,4.27E-03
6228,2.68E-03,2.23E-02
6229,2.45E-03,7.91E-03
6230,2.42E-03,7.92E-03
6231,2.47E-03,6.35E-03
6232,2.50E-03,6.31E-03
6233,2.57E-03,7.31E-03
6234,2.38E-03,1.10E-02
6235,2.41E-03,1.05E-02
6236,2.55E-03,8.27E-03
6237,2.50E-03,8.82E-03
6238,2.63E-03,9.44E-03
6239,2.66E-03,9.47E-03
6240,2.49E-03,1.25E-02
6241,2.43E-03,1.19E-02
6242,2.57E-03,1.69E-02
6243,2.49E-03,5.49E-03
6244,2.37E-03,5.19E-03
6245,2.46E-03,4.63E-03
6246,2.65E-03,5.80E-03
6247,3.11E-03,8.19E-03
6248,2.49E-03,1.67E-02
6249,2.52E-03,1.68E-02
6250,2.51E-03,1.68E-02
6251,2.33E-03,8.04E-03
6252,2.36E-03,8.07E-03
6253,2.81E-03,8.12E-03
6254,1.78E-03,1.10E-02
6255,2.33E-03,1.04E-02
6256,2.20E-03,1.45E-02
6257,2.23E-03,1.48E-02
6258,2.38E-03,1.63E-02
6259,2.38E-03,1.66E-02
6260,2.56E-03,2.02E-02
6261,2.92E-03,2.17E-02
6262,2.90E-03,2.18E-02
6263,2.40E-03,1.30E-03
6264,1.47E-03,1.88E-03
6265,2.30E-03,7.56E-03
6266,2.31E-03,7.52E-03
6267,2.31E-03,7.61E-03
6268,2.67E-03,4.05E-03
6269,2.50E-03,4.54E-03
6270,2.59E-03,4.37E-03
6271,2.48E-03,6.42E-03
6272,2.51E-03,6.30E-03
6273,2.56E-03,7.17E-03
6274,2.43E-03,1.01E-02
6275,2.56E-03,8.07E-03
6276,2.49E-03,9.21E-03
6277,2.79E-03,1.54E-02
6278,2.74E-03,1.67E-02
6279,2.49E-03,1.28E-02
6280,2.37E-03,1.12E-02
6281,2.41E-03,1.15E-02
6282,2.56E-03,1.65E-02
6283,2.62E-03,3.73E-03
6284,2.52E-03,4.01E-03
6285,3.00E-03,7.37E-03
6286,3.22E-03,7.56E-03
6287,3.29E-03,7.43E-03
6288,2.50E-03,1.61E-02
6289,2.71E-03,2.23E-02
6290,2.28E-03,1.50E-03
6291,2.24E-03,1.61E-03
6292,2.84E-03,7.40E-03
6293,2.87E-03,7.35E-03
6294,2.48E-03,6.54E-03
6295,2.51E-03,6.30E-03
6296,2.45E-03,9.67E-03
6297,2.60E-03,7.88E-03
6298,2.48E-03,9.66E-03
6299,2.53E-03,1.30E-02
6300,2.58E-03,1.61E-02
6301,2.48E-03,9.59E-03
6302,2.38E-03,9.45E-03
6303,2.24E-03,9.44E-03
6304,2.47E-03,1.54E-02
6305,2.50E-03,1.02E-02
6306,2.55E-03,1.02E-02
6307,2.56E-03,1.01E-02
6308,3.21E-03,1.02E-03
6309,3.17E-03,9.55E-04
6310,2.48E-03,6.71E-03
6311,2.52E-03,6.32E-03
6312,2.44E-03,9.27E-03
6313,2.47E-03,1.01E-02
6314,2.54E-03,1.33E-02
6315,2.54E-03,1.57E-02
6316,2.49E-03,1.48E-02
6317,2.48E-03,6.92E-03
6318,2.53E-03,6.35E-03
6319,2.45E-03,8.88E-03
6320,2.47E-03,1.07E-02
6321,2.57E-03,9.52E-03
6322,2.56E-03,1.36E-02
6323,2.48E-03,1.54E-02
6324,2.51E-03,1.42E-02
6325,2.51E-03,7.17E-03
6326,2.53E-03,6.40E-03
6327,2.49E-03,8.50E-03
6328,2.47E-03,1.12E-02
6329,2.52E-03,1.38E-02
6330,2.48E-03,1.51E-02
6331,2.52E-03,1.36E-02
6332,2.52E-03,7.46E-03
6333,2.53E-03,6.46E-03
6334,2.53E-03,8.14E-03
6335,2.49E-03,1.18E-02
6336,2.52E-03,1.41E-02
6337,2.47E-03,1.47E-02
6338,2.52E-03,1.30E-02
6339,2.54E-03,7.79E-03
6340,2.54E-03,6.53E-03
6341,2.51E-03,1.24E-02
6342,2.49E-03,1.44E-02
6343,2.54E-03,6.61E-03
6344,2.54E-03,6.71E-03
6345,2.54E-03,6.81E-03
6346,2.54E-03,6.93E-03
6347,2.54E-03,7.06E-03
6348,2.63E-03,9.33E-03
6349,3.42E-03,8.73E-03
6350,2.97E-03,9.13E-03
6351,2.43E-03,7.92E-03
6352,2.50E-03,6.32E-03
6353,2.59E-03,7.71E-03
6354,2.61E-03,7.50E-03
6355,2.41E-03,1.08E-02
6356,2.51E-03,8.53E-03
6357,2.59E-03,9.39E-03
6358,2.68E-03,9.48E-03
6359,2.67E-03,9.48E-03
6360,2.77E-03,9.47E-03
6361,2.74E-03,9.48E-03
6362,2.90E-03,9.48E-03
6363,2.80E-03,9.46E-03
6364,3.07E-03,9.72E-03
6365,2.93E-03,9.57E-03
6366,3.38E-03,1.04E-02
6367,3.14E-03,1.00E-02
6368,3.57E-03,1.17E-02
6369,3.69E-03,1.10E-02
6370,2.95E-03,1.33E-02
6371,3.01E-03,1.25E-02
6372,2.84E-03,1.43E-02
6373,2.47E-03,1.22E-02
6374,2.55E-03,1.69E-02
6375,2.71E-03,1.16E-03
6376,2.85E-03,1.09E-03
6377,2.56E-03,1.35E-03
6378,2.59E-03,1.25E-03
6379,2.48E-03,1.59E-03
6380,2.52E-03,1.46E-03
6381,2.52E-03,1.88E-03
6382,2.49E-03,1.72E-03
6383,2.59E-03,2.23E-03
6384,2.54E-03,2.04E-03
6385,2.66E-03,2.66E-03
6386,2.65E-03,2.44E-03
6387,2.71E-03,3.17E-03
6388,2.70E-03,2.91E-03
6389,2.68E-03,3.45E-03
6390,2.39E-03,4.91E-03
6391,3.12E-03,6.64E-03
6392,3.33E-03,6.15E-03
6393,3.06E-03,7.41E-03
6394,3.06E-03,7.01E-03
6395,3.05E-03,7.80E-03
6396,2.33E-03,7.96E-03
6397,2.33E-03,8.00E-03
6398,2.38E-03,7.87E-03
6399,2.36E-03,7.91E-03
6400,2.43E-03,7.77E-03
6401,2.39E-03,7.82E-03
6402,2.45E-03,7.66E-03
6403,2.42E-03,7.71E-03
6404,2.53E-03,7.55E-03
6405,2.49E-03,7.61E-03
6406,2.56E-03,7.45E-03
6407,2.55E-03,7.50E-03
6408,2.64E-03,7.36E-03
6409,2.63E-03,7.41E-03
6410,2.73E-03,7.30E-03
6411,2.73E-03,7.32E-03
6412,2.85E-03,7.26E-03
6413,2.85E-03,7.27E-03
6414,2.93E-03,7.26E-03
6415,2.94E-03,7.25E-03
6416,3.00E-03,7.29E-03
6417,2.99E-03,7.27E-03
6418,2.98E-03,7.33E-03
6419,3.03E-03,7.31E-03
6420,2.89E-03,7.39E-03
6421,2.93E-03,7.36E-03
6422,2.83E-03,7.43E-03
6423,2.90E-03,7.41E-03
6424,2.76E-03,7.47E-03
6425,2.80E-03,7.45E-03
6426,2.71E-03,7.49E-03
6427,2.71E-03,7.48E-03
6428,2.63E-03,7.49E-03
6429,2.66E-03,7.49E-03
6430,2.61E-03,7.48E-03
6431,2.63E-03,7.49E-03
6432,2.71E-03,7.45E-03
6433,2.65E-03,7.47E-03
6434,2.74E-03,7.43E-03
6435,2.48E-03,1.67E-02
6436,2.42E-03,8.11E-03
6437,2.37E-03,8.09E-03
6438,2.86E-03,8.49E-03
6439,2.81E-03,8.30E-03
6440,2.81E-03,8.87E-03
6441,2.82E-03,8.68E-03
6442,2.76E-03,9.25E-03
6443,2.80E-03,9.06E-03
6444,2.67E-03,9.61E-03
6445,2.69E-03,9.43E-03
6446,2.59E-03,9.94E-03
6447,2.60E-03,9.78E-03
6448,2.59E-03,1.03E-02
6449,2.57E-03,1.01E-02
6450,2.65E-03,1.06E-02
6451,2.63E-03,1.04E-02
6452,2.70E-03,1.08E-02
6453,2.69E-03,1.07E-02
6454,2.71E-03,1.11E-02
6455,2.70E-03,1.10E-02
6456,2.61E-03,1.13E-02
6457,2.64E-03,1.12E-02
6458,2.45E-03,1.14E-02
6459,2.50E-03,1.14E-02
6460,2.30E-03,1.16E-02
6461,2.36E-03,1.15E-02
6462,2.25E-03,1.16E-02
6463,2.23E-03,1.16E-02
6464,2.33E-03,1.17E-02
6465,2.30E-03,1.17E-02
6466,2.23E-03,1.18E-02
6467,2.39E-03,1.18E-02
6468,2.17E-03,1.19E-02
6469,2.18E-03,1.18E-02
6470,2.22E-03,1.20E-02
6471,2.19E-03,1.19E-02
6472,2.40E-03,1.20E-02
6473,2.35E-03,1.20E-02
6474,2.57E-03,1.20E-02
6475,2.50E-03,1.20E-02
6476,2.71E-03,1.20E-02
6477,2.67E-03,1.20E-02
6478,2.74E-03,1.20E-02
6479,2.75E-03,1.20E-02
6480,2.74E-03,1.18E-02
6481,2.74E-03,1.19E-02
6482,2.63E-03,1.17E-02
6483,2.65E-03,1.18E-02
6484,2.54E-03,1.15E-02
6485,2.58E-03,1.16E-02
6486,2.51E-03,1.13E-02
6487,2.52E-03,1.14E-02
6488,1.82E-03,1.10E-02
6489,2.50E-03,1.12E-02
6490,2.14E-03,1.08E-02
6491,1.65E-03,1.09E-02
6492,2.19E-03,1.06E-02
6493,2.14E-03,1.07E-02
6494,2.31E-03,1.04E-02
6495,2.26E-03,1.05E-02
6496,2.41E-03,1.03E-02
6497,2.54E-03,1.05E-02
6498,2.54E-03,1.04E-02
6499,2.50E-03,1.08E-02
6500,2.52E-03,1.06E-02
6501,2.48E-03,1.10E-02
6502,2.50E-03,1.09E-02
6503,2.46E-03,1.13E-02
6504,2.46E-03,1.12E-02
6505,2.42E-03,1.16E-02
6506,2.42E-03,1.15E-02
6507,2.38E-03,1.19E-02
6508,2.39E-03,1.18E-02
6509,2.30E-03,1.23E-02
6510,2.34E-03,1.21E-02
6511,2.24E-03,1.26E-02
6512,2.27E-03,1.24E-02
6513,2.16E-03,1.29E-02
6514,2.20E-03,1.28E-02
6515,2.11E-03,1.33E-02
6516,2.13E-03,1.31E-02
6517,2.09E-03,1.37E-02
6518,2.06E-03,1.35E-02
6519,2.12E-03,1.41E-02
6520,2.12E-03,1.39E-02
6521,2.18E-03,1.43E-02
6522,2.30E-03,1.53E-02
6523,2.26E-03,1.50E-02
6524,2.31E-03,1.58E-02
6525,2.31E-03,1.55E-02
6526,2.35E-03,1.61E-02
6527,2.34E-03,1.71E-02
6528,2.33E-03,1.69E-02
6529,2.23E-03,1.77E-02
6530,2.29E-03,1.74E-02
6531,2.16E-03,1.82E-02
6532,2.18E-03,1.79E-02
6533,2.16E-03,1.87E-02
6534,2.17E-03,1.84E-02
6535,2.17E-03,1.91E-02
6536,2.17E-03,1.89E-02
6537,2.18E-03,1.96E-02
6538,2.17E-03,1.94E-02
6539,2.82E-03,2.02E-02
6540,2.58E-03,1.99E-02
6541,2.47E-03,2.06E-02
6542,2.52E-03,2.04E-02
6543,2.43E-03,2.09E-02
6544,2.44E-03,2.08E-02
6545,2.46E-03,2.12E-02
6546,2.45E-03,2.11E-02
6547,2.57E-03,2.14E-02
6548,2.53E-03,2.13E-02
6549,2.69E-03,2.15E-02
6550,2.63E-03,2.14E-02
6551,2.79E-03,2.16E-02
6552,2.77E-03,2.16E-02
6553,2.87E-03,2.17E-02
6554,2.84E-03,2.17E-02
6555,2.95E-03,2.18E-02
6556,2.95E-03,2.18E-02
6557,3.03E-03,2.18E-02
6558,3.01E-03,2.18E-02
6559,2.99E-03,2.17E-02
6560,2.91E-03,2.21E-02
6561,2.95E-03,2.20E-02
6562,2.91E-03,2.23E-02
6563,2.91E-03,2.22E-02
6564,2.88E-03,2.26E-02
6565,2.89E-03,2.25E-02
6566,2.79E-03,2.28E-02
6567,2.81E-03,2.27E-02
6568,2.73E-03,2.31E-02
6569,2.76E-03,2.30E-02
6570,2.65E-03,2.33E-02
6571,2.68E-03,2.32E-02
6572,2.60E-03,2.36E-02
6573,2.63E-03,2.35E-02
6574,2.54E-03,2.38E-02
6575,2.57E-03,2.37E-02
6576,2.48E-03,2.40E-02
6577,2.50E-03,2.39E-02
6578,2.45E-03,2.42E-02
6579,2.48E-03,2.41E-02
6580,2.44E-03,2.44E-02
6581,2.44E-03,2.43E-02
6582,2.43E-03,2.45E-02
6583,2.43E-03,2.44E-02
6584,2.44E-03,2.45E-02
6585,2.42E-03,2.45E-02
6586,2.45E-03,2.44E-02
6587,2.42E-03,2.45E-02
6588,2.46E-03,2.43E-02
6589,2.43E-03,2.44E-02
6590,2.49E-03,2.40E-02
6591,2.46E-03,2.42E-02
6592,2.53E-03,2.36E-02
6593,2.53E-03,2.38E-02
6594,2.56E-03,2.31E-02
6595,2.56E-03,2.34E-02
6596,2.55E-03,2.24E-02
6597,2.59E-03,2.27E-02
6598,2.50E-03,2.15E-02
6599,2.53E-03,2.20E-02
6600,2.53E-03,2.04E-02
6601,2.49E-03,2.10E-02
6602,2.67E-03,1.90E-02
6603,2.60E-03,1.97E-02
6604,2.30E-03,1.40E-03
6605,1.78E-03,2.18E-03
6606,1.64E-03,1.96E-03
6607,1.91E-03,2.08E-03
6608,1.73E-03,2.38E-03
6609,1.70E-03,2.28E-03
6610,1.83E-03,2.59E-03
6611,1.78E-03,2.48E-03
6612,1.80E-03,2.80E-03
6613,1.74E-03,2.70E-03
6614,1.85E-03,3.03E-03
6615,1.82E-03,2.91E-03
6616,1.89E-03,3.28E-03
6617,1.87E-03,3.15E-03
6618,2.12E-03,3.54E-03
6619,1.99E-03,3.41E-03
6620,2.55E-03,3.83E-03
6621,2.35E-03,3.68E-03
6622,2.35E-03,4.85E-03
6623,2.40E-03,4.70E-03
6624,2.00E-03,5.13E-03
6625,2.07E-03,4.98E-03
6626,2.38E-03,5.39E-03
6627,2.13E-03,5.26E-03
6628,2.41E-03,5.67E-03
6629,2.40E-03,5.53E-03
6630,2.34E-03,5.95E-03
6631,2.36E-03,5.81E-03
6632,2.28E-03,6.20E-03
6633,2.31E-03,6.08E-03
6634,2.31E-03,6.43E-03
6635,2.30E-03,6.32E-03
6636,2.31E-03,6.64E-03
6637,2.30E-03,6.54E-03
6638,2.33E-03,6.83E-03
6639,2.31E-03,6.74E-03
6640,2.33E-03,7.00E-03
6641,2.34E-03,6.92E-03
6642,2.37E-03,7.15E-03
6643,2.36E-03,7.08E-03
6644,2.36E-03,7.29E-03
6645,2.36E-03,7.22E-03
6646,2.34E-03,7.41E-03
6647,2.36E-03,7.35E-03
6648,2.35E-03,7.46E-03
6649,2.31E-03,7.72E-03
6650,2.29E-03,7.67E-03
6651,2.30E-03,7.82E-03
6652,2.31E-03,7.77E-03
6653,2.36E-03,7.91E-03
6654,2.32E-03,7.86E-03
6655,2.40E-03,7.99E-03
6656,2.40E-03,7.95E-03
6657,2.47E-03,8.06E-03
6658,2.43E-03,8.03E-03
6659,2.75E-03,7.88E-03
6660,2.71E-03,7.72E-03
6661,2.67E-03,4.21E-03
6662,2.47E-03,8.09E-03
6663,2.42E-03,8.11E-03
6664,2.49E-03,6.38E-03
6665,2.50E-03,6.32E-03
6666,2.56E-03,7.34E-03
6667,2.37E-03,1.09E-02
6668,2.41E-03,1.04E-02
6669,2.55E-03,8.32E-03
6670,2.50E-03,8.89E-03
6671,2.64E-03,9.64E-03
6672,2.67E-03,9.67E-03
6673,2.74E-03,1.81E-02
6674,2.49E-03,1.25E-02
6675,2.42E-03,1.18E-02
6676,2.56E-03,1.64E-02
6677,2.55E-03,4.30E-03
6678,2.65E-03,2.04E-02
6679,3.24E-03,8.25E-03
6680,3.05E-03,7.32E-03
6681,2.52E-03,1.61E-02
6682,2.54E-03,1.63E-02
6683,2.53E-03,1.63E-02
6684,2.34E-03,8.26E-03
6685,2.35E-03,8.29E-03
6686,2.78E-03,8.05E-03
6687,2.38E-03,1.03E-02
6688,2.25E-03,1.44E-02
6689,2.28E-03,1.47E-02
6690,2.41E-03,1.63E-02
6691,2.51E-03,1.66E-02
6692,2.73E-03,2.22E-02
6693,3.00E-03,2.24E-02
6694,2.14E-03,1.70E-03
6695,2.29E-03,7.63E-03
6696,2.31E-03,7.58E-03
6697,2.29E-03,7.69E-03
6698,2.89E-03,3.98E-03
6699,2.51E-03,4.48E-03
6700,2.66E-03,4.31E-03
6701,2.96E-03,7.29E-03
6702,2.48E-03,6.48E-03
6703,2.51E-03,6.32E-03
6704,2.56E-03,7.19E-03
6705,2.42E-03,9.95E-03
6706,2.57E-03,8.12E-03
6707,2.49E-03,9.31E-03
6708,2.49E-03,1.27E-02
6709,2.35E-03,1.11E-02
6710,2.39E-03,1.14E-02
6711,2.57E-03,1.60E-02
6712,2.81E-03,9.83E-03
6713,1.79E-03,9.62E-03
6714,2.50E-03,1.55E-02
6715,2.53E-03,1.01E-02
6716,2.65E-03,9.99E-03
6717,2.61E-03,1.01E-02
6718,2.65E-03,1.00E-02
6719,2.43E-03,7.41E-04
6720,2.29E-03,1.45E-03
6721,2.24E-03,1.54E-03
6722,2.48E-03,6.63E-03
6723,2.51E-03,6.34E-03
6724,2.46E-03,9.54E-03
6725,2.59E-03,7.93E-03
6726,2.48E-03,9.76E-03
6727,2.54E-03,1.29E-02
6728,2.54E-03,1.57E-02
6729,2.75E-03,7.35E-03
6730,2.80E-03,7.31E-03
6731,2.48E-03,1.49E-02
6732,2.48E-03,6.83E-03
6733,2.52E-03,6.38E-03
6734,2.44E-03,9.15E-03
6735,2.48E-03,1.02E-02
6736,2.61E-03,9.70E-03
6737,2.52E-03,1.32E-02
6738,2.51E-03,1.53E-02
6739,2.50E-03,1.43E-02
6740,2.48E-03,7.07E-03
6741,2.53E-03,6.42E-03
6742,2.48E-03,8.76E-03
6743,2.47E-03,1.08E-02
6744,2.53E-03,1.35E-02
6745,2.48E-03,1.50E-02
6746,2.52E-03,1.37E-02
6747,2.52E-03,7.35E-03
6748,2.53E-03,6.48E-03
6749,2.50E-03,8.38E-03
6750,2.48E-03,1.13E-02
6751,2.52E-03,1.37E-02
6752,2.47E-03,1.46E-02
6753,2.53E-03,1.31E-02
6754,2.55E-03,7.66E-03
6755,2.53E-03,6.55E-03
6756,2.53E-03,8.01E-03
6757,2.50E-03,1.19E-02
6758,2.47E-03,1.40E-02
6759,2.47E-03,1.43E-02
6760,2.52E-03,1.25E-02
6761,2.53E-03,6.64E-03
6762,2.53E-03,6.73E-03
6763,2.54E-03,6.84E-03
6764,2.54E-03,6.96E-03
6765,2.53E-03,7.09E-03
6766,2.39E-03,9.64E-03
6767,2.62E-03,9.47E-03
6768,2.94E-03,8.83E-03
6769,2.67E-03,5.75E-03
6770,2.46E-03,5.43E-03
6771,2.31E-03,5.10E-03
6772,2.75E-03,9.24E-03
6773,2.46E-03,8.10E-03
6774,2.50E-03,6.34E-03
6775,2.62E-03,7.75E-03
6776,2.59E-03,7.53E-03
6777,2.40E-03,1.06E-02
6778,2.51E-03,8.60E-03
6779,2.60E-03,9.58E-03
6780,2.68E-03,9.67E-03
6781,2.67E-03,9.68E-03
6782,2.76E-03,9.60E-03
6783,2.74E-03,9.64E-03
6784,2.90E-03,9.52E-03
6785,2.78E-03,9.55E-03
6786,3.06E-03,9.60E-03
6787,2.95E-03,9.51E-03
6788,3.32E-03,1.01E-02
6789,3.15E-03,9.76E-03
6790,3.36E-03,1.11E-02
6791,3.45E-03,1.05E-02
6792,2.99E-03,1.26E-02
6793,3.17E-03,1.18E-02
6794,2.84E-03,1.46E-02
6795,2.92E-03,1.35E-02
6796,2.78E-03,1.71E-02
6797,2.78E-03,1.58E-02
6798,2.46E-03,1.21E-02
6799,2.57E-03,1.64E-02
6800,3.00E-03,9.51E-04
6801,2.74E-03,1.09E-03
6802,2.89E-03,1.02E-03
6803,2.60E-03,1.28E-03
6804,2.63E-03,1.18E-03
6805,2.51E-03,1.51E-03
6806,2.53E-03,1.39E-03
6807,2.52E-03,1.80E-03
6808,2.48E-03,1.65E-03
6809,2.60E-03,2.15E-03
6810,2.50E-03,1.97E-03
6811,2.65E-03,2.59E-03
6812,2.64E-03,2.36E-03
6813,2.74E-03,3.10E-03
6814,2.68E-03,2.84E-03
6815,2.62E-03,3.69E-03
6816,2.70E-03,3.39E-03
6817,2.29E-03,4.59E-03
6818,2.09E-03,4.25E-03
6819,2.50E-03,4.00E-03
6820,2.25E-03,4.83E-03
6821,2.05E-03,5.38E-03
6822,2.40E-03,5.18E-03
6823,1.97E-03,5.03E-03
6824,3.42E-03,6.53E-03
6825,3.39E-03,6.11E-03
6826,3.10E-03,7.41E-03
6827,3.18E-03,6.99E-03
6828,3.06E-03,7.84E-03
6829,2.34E-03,8.19E-03
6830,2.32E-03,8.23E-03
6831,2.39E-03,8.10E-03
6832,2.36E-03,8.15E-03
6833,2.42E-03,8.00E-03
6834,2.39E-03,8.05E-03
6835,2.46E-03,7.90E-03
6836,2.44E-03,7.95E-03
6837,2.50E-03,7.79E-03
6838,2.49E-03,7.84E-03
6839,2.56E-03,7.68E-03
6840,2.55E-03,7.73E-03
6841,2.65E-03,7.58E-03
6842,2.64E-03,7.63E-03
6843,2.74E-03,7.50E-03
6844,2.70E-03,7.54E-03
6845,2.83E-03,7.44E-03
6846,2.83E-03,7.47E-03
6847,2.92E-03,7.42E-03
6848,2.89E-03,7.43E-03
6849,2.98E-03,7.42E-03
6850,2.99E-03,7.42E-03
6851,2.97E-03,7.45E-03
6852,2.98E-03,7.43E-03
6853,2.87E-03,7.48E-03
6854,2.91E-03,7.46E-03
6855,2.82E-03,7.50E-03
6856,2.85E-03,7.49E-03
6857,2.76E-03,7.51E-03
6858,2.77E-03,7.51E-03
6859,2.67E-03,7.51E-03
6860,2.68E-03,7.52E-03
6861,2.61E-03,7.50E-03
6862,2.63E-03,7.51E-03
6863,2.57E-03,7.47E-03
6864,2.57E-03,7.49E-03
6865,2.59E-03,7.43E-03
6866,2.59E-03,7.45E-03
6867,2.67E-03,7.39E-03
6868,2.97E-03,7.26E-03
6869,2.95E-03,7.51E-03
6870,3.01E-03,7.37E-03
6871,2.54E-03,1.62E-02
6872,2.42E-03,8.31E-03
6873,2.36E-03,8.31E-03
6874,2.82E-03,8.42E-03
6875,2.79E-03,8.23E-03
6876,2.80E-03,8.80E-03
6877,2.80E-03,8.61E-03
6878,2.75E-03,9.17E-03
6879,2.76E-03,8.99E-03
6880,2.65E-03,9.52E-03
6881,2.67E-03,9.35E-03
6882,2.58E-03,9.85E-03
6883,2.58E-03,9.69E-03
6884,2.58E-03,1.02E-02
6885,2.53E-03,1.00E-02
6886,2.66E-03,1.05E-02
6887,2.60E-03,1.03E-02
6888,2.72E-03,1.07E-02
6889,2.68E-03,1.06E-02
6890,2.69E-03,1.10E-02
6891,2.70E-03,1.09E-02
6892,2.62E-03,1.12E-02
6893,2.63E-03,1.11E-02
6894,2.45E-03,1.13E-02
6895,2.50E-03,1.12E-02
6896,2.31E-03,1.14E-02
6897,2.37E-03,1.14E-02
6898,2.24E-03,1.15E-02
6899,2.23E-03,1.15E-02
6900,2.60E-03,1.16E-02
6901,2.23E-03,1.15E-02
6902,2.17E-03,1.17E-02
6903,2.47E-03,1.16E-02
6904,2.16E-03,1.18E-02
6905,2.13E-03,1.17E-02
6906,2.23E-03,1.18E-02
6907,2.18E-03,1.18E-02
6908,2.39E-03,1.19E-02
6909,2.31E-03,1.19E-02
6910,2.61E-03,1.19E-02
6911,2.52E-03,1.19E-02
6912,2.70E-03,1.19E-02
6913,2.69E-03,1.19E-02
6914,2.75E-03,1.18E-02
6915,2.74E-03,1.19E-02
6916,2.74E-03,1.17E-02
6917,2.74E-03,1.18E-02
6918,2.65E-03,1.16E-02
6919,2.68E-03,1.17E-02
6920,2.53E-03,1.14E-02
6921,2.55E-03,1.15E-02
6922,2.45E-03,1.12E-02
6923,2.48E-03,1.13E-02
6924,1.98E-03,1.10E-02
6925,2.23E-03,1.11E-02
6926,2.06E-03,1.07E-02
6927,2.01E-03,1.08E-02
6928,2.21E-03,1.05E-02
6929,2.15E-03,1.06E-02
6930,2.33E-03,1.03E-02
6931,2.29E-03,1.04E-02
6932,2.44E-03,1.02E-02
6933,2.57E-03,1.04E-02
6934,2.58E-03,1.03E-02
6935,2.49E-03,1.07E-02
6936,2.54E-03,1.05E-02
6937,2.48E-03,1.09E-02
6938,2.48E-03,1.08E-02
6939,2.48E-03,1.12E-02
6940,2.47E-03,1.11E-02
6941,2.44E-03,1.15E-02
6942,2.44E-03,1.13E-02
6943,2.39E-03,1.18E-02
6944,2.41E-03,1.16E-02
6945,2.32E-03,1.21E-02
6946,2.34E-03,1.20E-02
6947,2.25E-03,1.25E-02
6948,2.29E-03,1.23E-02
6949,2.18E-03,1.28E-02
6950,2.22E-03,1.26E-02
6951,2.13E-03,1.32E-02
6952,2.16E-03,1.30E-02
6953,2.10E-03,1.36E-02
6954,2.08E-03,1.34E-02
6955,2.15E-03,1.40E-02
6956,2.14E-03,1.38E-02
6957,2.19E-03,1.42E-02
6958,2.32E-03,1.52E-02
6959,2.32E-03,1.49E-02
6960,2.33E-03,1.57E-02
6961,2.31E-03,1.55E-02
6962,2.38E-03,1.60E-02
6963,2.37E-03,1.72E-02
6964,2.47E-03,1.69E-02
6965,2.26E-03,1.77E-02
6966,2.32E-03,1.74E-02
6967,2.19E-03,1.82E-02
6968,2.21E-03,1.80E-02
6969,2.18E-03,1.88E-02
6970,2.18E-03,1.85E-02
6971,2.18E-03,1.92E-02
6972,2.19E-03,1.90E-02
6973,2.12E-03,1.97E-02
6974,2.17E-03,1.95E-02
6975,1.80E-03,2.00E-02
6976,2.49E-03,2.08E-02
6977,2.55E-03,2.06E-02
6978,2.45E-03,2.12E-02
6979,2.48E-03,2.10E-02
6980,2.46E-03,2.15E-02
6981,2.45E-03,2.13E-02
6982,2.55E-03,2.17E-02
6983,2.53E-03,2.16E-02
6984,2.68E-03,2.19E-02
6985,2.64E-03,2.18E-02
6986,2.79E-03,2.20E-02
6987,2.72E-03,2.19E-02
6988,2.86E-03,2.21E-02
6989,2.84E-03,2.21E-02
6990,2.94E-03,2.22E-02
6991,2.93E-03,2.22E-02
6992,3.03E-03,2.23E-02
6993,3.00E-03,2.23E-02
6994,3.06E-03,2.22E-02
6995,2.98E-03,2.27E-02
6996,2.98E-03,2.26E-02
6997,2.95E-03,2.30E-02
6998,2.96E-03,2.28E-02
6999,2.88E-03,2.33E-02
7000,2.87E-03,2.31E-02
7001,2.79E-03,2.36E-02
7002,2.80E-03,2.34E-02
7003,2.72E-03,2.39E-02
7004,2.76E-03,2.37E-02
7005,2.65E-03,2.42E-02
7006,2.65E-03,2.40E-02
7007,2.59E-03,2.45E-02
7008,2.62E-03,2.43E-02
7009,2.53E-03,2.48E-02
7010,2.55E-03,2.46E-02
7011,2.48E-03,2.50E-02
7012,2.51E-03,2.49E-02
7013,2.45E-03,2.53E-02
7014,2.47E-03,2.52E-02
7015,2.45E-03,2.55E-02
7016,2.42E-03,2.54E-02
7017,2.45E-03,2.56E-02
7018,2.43E-03,2.56E-02
7019,2.42E-03,2.57E-02
7020,2.43E-03,2.57E-02
7021,2.46E-03,2.57E-02
7022,2.43E-03,2.57E-02
7023,2.46E-03,2.56E-02
7024,2.44E-03,2.57E-02
7025,2.49E-03,2.54E-02
7026,2.46E-03,2.55E-02
7027,2.54E-03,2.50E-02
7028,2.53E-03,2.52E-02
7029,2.56E-03,2.45E-02
7030,2.55E-03,2.48E-02
7031,2.55E-03,2.38E-02
7032,2.57E-03,2.42E-02
7033,2.52E-03,2.30E-02
7034,2.53E-03,2.35E-02
7035,2.55E-03,2.19E-02
7036,2.51E-03,2.25E-02
7037,2.64E-03,2.05E-02
7038,2.59E-03,2.13E-02
7039,2.77E-03,1.86E-02
7040,2.71E-03,1.96E-02
7041,2.30E-03,1.35E-03
7042,1.77E-03,1.93E-03
7043,2.04E-03,1.81E-03
7044,1.82E-03,2.11E-03
7045,1.81E-03,2.02E-03
7046,1.80E-03,2.31E-03
7047,1.81E-03,2.21E-03
7048,1.84E-03,2.52E-03
7049,1.81E-03,2.41E-03
7050,1.83E-03,2.74E-03
7051,1.83E-03,2.63E-03
7052,1.87E-03,2.96E-03
7053,1.85E-03,2.85E-03
7054,1.92E-03,3.21E-03
7055,1.92E-03,3.08E-03
7056,1.97E-03,3.47E-03
7057,2.01E-03,3.34E-03
7058,3.09E-03,3.75E-03
7059,2.17E-03,3.60E-03
7060,2.29E-03,4.79E-03
7061,2.40E-03,4.64E-03
7062,2.17E-03,5.09E-03
7063,2.21E-03,4.94E-03
7064,2.28E-03,5.36E-03
7065,2.18E-03,5.23E-03
7066,2.37E-03,5.64E-03
7067,2.35E-03,5.50E-03
7068,2.35E-03,5.92E-03
7069,2.35E-03,5.78E-03
7070,2.30E-03,6.18E-03
7071,2.32E-03,6.05E-03
7072,2.31E-03,6.42E-03
7073,2.32E-03,6.30E-03
7074,2.30E-03,6.64E-03
7075,2.30E-03,6.53E-03
7076,2.33E-03,6.84E-03
7077,2.31E-03,6.74E-03
7078,2.35E-03,7.02E-03
7079,2.35E-03,6.93E-03
7080,2.38E-03,7.18E-03
7081,2.37E-03,7.10E-03
7082,2.37E-03,7.32E-03
7083,2.33E-03,7.25E-03
7084,2.36E-03,7.45E-03
7085,2.38E-03,7.39E-03
7086,2.35E-03,7.52E-03
7087,2.33E-03,7.81E-03
7088,2.30E-03,7.75E-03
7089,2.31E-03,7.93E-03
7090,2.30E-03,7.87E-03
7091,2.37E-03,8.04E-03
7092,2.33E-03,7.98E-03
7093,2.41E-03,8.14E-03
7094,2.39E-03,8.09E-03
7095,2.45E-03,8.23E-03
7096,2.44E-03,8.19E-03
7097,2.77E-03,7.82E-03
7098,2.83E-03,7.66E-03
7099,2.81E-03,4.14E-03
7100,2.98E-03,7.18E-03
7101,2.98E-03,7.24E-03
7102,2.48E-03,8.27E-03
7103,2.42E-03,8.31E-03
7104,2.49E-03,6.43E-03
7105,2.50E-03,6.35E-03
7106,2.55E-03,7.37E-03
7107,2.36E-03,1.08E-02
7108,2.42E-03,1.02E-02
7109,2.56E-03,8.39E-03
7110,2.50E-03,8.98E-03
7111,2.68E-03,9.89E-03
7112,2.68E-03,9.92E-03
7113,2.48E-03,1.24E-02
7114,2.41E-03,1.17E-02
7115,2.57E-03,1.60E-02
7116,2.18E-03,9.97E-03
7117,2.54E-03,7.81E-04
7118,1.89E-03,4.56E-03
7119,2.70E-03,5.63E-03
7120,3.00E-03,8.34E-03
7121,2.55E-03,1.56E-02
7122,2.57E-03,1.58E-02
7123,2.55E-03,1.58E-02
7124,2.34E-03,8.49E-03
7125,2.37E-03,8.52E-03
7126,2.77E-03,7.99E-03
7127,2.38E-03,1.02E-02
7128,2.68E-03,9.88E-03
7129,2.28E-03,1.43E-02
7130,2.37E-03,1.46E-02
7131,2.43E-03,1.62E-02
7132,2.65E-03,1.66E-02
7133,3.14E-03,2.30E-02
7134,2.20E-03,1.64E-03
7135,2.32E-03,7.70E-03
7136,2.31E-03,7.64E-03
7137,2.32E-03,7.77E-03
7138,3.58E-03,3.91E-03
7139,2.45E-03,4.43E-03
7140,2.71E-03,4.26E-03
7141,2.49E-03,6.57E-03
7142,2.51E-03,6.37E-03
7143,2.56E-03,7.22E-03
7144,2.42E-03,9.83E-03
7145,2.56E-03,8.19E-03
7146,2.49E-03,9.40E-03
7147,2.81E-03,1.61E-02
7148,2.82E-03,1.75E-02
7149,2.49E-03,1.26E-02
7150,2.36E-03,1.10E-02
7151,2.39E-03,1.13E-02
7152,2.54E-03,1.56E-02
7153,2.93E-03,7.25E-03
7154,2.50E-03,1.50E-02
7155,3.38E-03,2.28E-02
7156,2.32E-03,1.39E-03
7157,2.29E-03,1.49E-03
7158,2.48E-03,6.75E-03
7159,2.51E-03,6.41E-03
7160,2.45E-03,9.42E-03
7161,2.60E-03,7.99E-03
7162,2.48E-03,9.86E-03
7163,2.52E-03,1.28E-02
7164,2.53E-03,1.52E-02
7165,2.49E-03,1.44E-02
7166,2.48E-03,6.97E-03
7167,2.52E-03,6.45E-03
7168,2.43E-03,9.02E-03
7169,2.48E-03,1.04E-02
7170,2.54E-03,1.31E-02
7171,2.51E-03,1.49E-02
7172,2.52E-03,1.38E-02
7173,2.04E-03,1.15E-02
7174,1.97E-03,1.14E-02
7175,2.51E-03,7.24E-03
7176,2.52E-03,6.51E-03
7177,2.49E-03,8.63E-03
7178,2.48E-03,1.09E-02
7179,2.50E-03,1.34E-02
7180,2.48E-03,1.45E-02
7181,2.65E-03,7.34E-03
7182,2.68E-03,7.29E-03
7183,2.80E-03,7.21E-03
7184,2.82E-03,7.12E-03
7185,2.54E-03,1.32E-02
7186,2.53E-03,7.55E-03
7187,2.53E-03,6.59E-03
7188,2.53E-03,8.25E-03
7189,2.49E-03,1.14E-02
7190,2.48E-03,1.36E-02
7191,2.47E-03,1.42E-02
7192,2.54E-03,1.26E-02
7193,2.53E-03,7.89E-03
7194,2.53E-03,6.67E-03
7195,2.52E-03,1.20E-02
7196,2.47E-03,1.39E-02
7197,2.53E-03,6.77E-03
7198,2.53E-03,6.87E-03
7199,2.53E-03,6.99E-03
7200,2.53E-03,7.12E-03
7201,2.39E-03,9.77E-03
7202,2.61E-03,9.61E-03
7203,2.77E-03,8.91E-03
7204,2.65E-03,9.36E-03
7205,2.46E-03,8.29E-03
7206,2.50E-03,6.39E-03
7207,2.62E-03,7.81E-03
7208,2.59E-03,7.58E-03
7209,2.39E-03,1.05E-02
7210,2.51E-03,8.67E-03
7211,2.68E-03,9.81E-03
7212,2.69E-03,9.91E-03
7213,2.67E-03,9.93E-03
7214,2.76E-03,9.79E-03
7215,2.74E-03,9.86E-03
7216,2.91E-03,9.61E-03
7217,2.78E-03,9.70E-03
7218,3.02E-03,9.52E-03
7219,2.97E-03,9.54E-03
7220,3.24E-03,9.73E-03
7221,3.13E-03,9.55E-03
7222,3.27E-03,1.05E-02
7223,3.34E-03,1.01E-02
7224,3.05E-03,1.18E-02
7225,3.17E-03,1.11E-02
7226,2.88E-03,1.36E-02
7227,2.97E-03,1.26E-02
7228,2.85E-03,1.47E-02
7229,2.45E-03,1.20E-02
7230,2.58E-03,1.59E-02
7231,1.88E-03,9.89E-03
7232,2.93E-03,8.93E-04
7233,2.89E-03,8.35E-04
7234,2.74E-03,1.03E-03
7235,2.84E-03,9.59E-04
7236,2.61E-03,1.22E-03
7237,2.65E-03,1.12E-03
7238,2.51E-03,1.45E-03
7239,2.56E-03,1.32E-03
7240,2.51E-03,1.73E-03
7241,2.48E-03,1.58E-03
7242,2.59E-03,2.09E-03
7243,2.50E-03,1.90E-03
7244,2.64E-03,2.53E-03
7245,2.63E-03,2.30E-03
7246,2.75E-03,3.05E-03
7247,2.71E-03,2.78E-03
7248,2.75E-03,3.65E-03
7249,2.76E-03,3.34E-03
7250,2.33E-03,4.36E-03
7251,2.68E-03,4.00E-03
7252,2.70E-03,4.77E-03
7253,3.30E-03,6.48E-03
7254,3.53E-03,6.02E-03
7255,3.09E-03,7.41E-03
7256,3.18E-03,6.95E-03
7257,3.04E-03,7.87E-03
7258,2.34E-03,8.43E-03
7259,2.32E-03,8.47E-03
7260,2.38E-03,8.35E-03
7261,2.35E-03,8.39E-03
7262,2.42E-03,8.26E-03
7263,2.40E-03,8.31E-03
7264,2.46E-03,8.16E-03
7265,2.43E-03,8.21E-03
7266,2.50E-03,8.04E-03
7267,2.48E-03,8.10E-03
7268,2.57E-03,7.93E-03
7269,2.53E-03,7.99E-03
7270,2.64E-03,7.82E-03
7271,2.63E-03,7.88E-03
7272,2.74E-03,7.73E-03
7273,2.69E-03,7.77E-03
7274,2.83E-03,7.66E-03
7275,2.78E-03,7.69E-03
7276,2.91E-03,7.61E-03
7277,2.86E-03,7.63E-03
7278,2.95E-03,7.59E-03
7279,2.94E-03,7.60E-03
7280,2.93E-03,7.59E-03
7281,2.96E-03,7.59E-03
7282,2.87E-03,7.60E-03
7283,2.88E-03,7.60E-03
7284,2.79E-03,7.60E-03
7285,2.83E-03,7.60E-03
7286,2.73E-03,7.59E-03
7287,2.74E-03,7.60E-03
7288,2.65E-03,7.57E-03
7289,2.67E-03,7.58E-03
7290,2.56E-03,7.54E-03
7291,2.60E-03,7.56E-03
7292,2.51E-03,7.49E-03
7293,2.52E-03,7.51E-03
7294,2.51E-03,7.43E-03
7295,2.53E-03,7.46E-03
7296,2.59E-03,7.39E-03
7297,2.80E-03,7.45E-03
7298,2.81E-03,7.32E-03
7299,2.54E-03,1.57E-02
7300,2.43E-03,8.53E-03
7301,2.38E-03,8.53E-03
7302,2.79E-03,8.35E-03
7303,2.78E-03,8.16E-03
7304,2.77E-03,8.72E-03
7305,2.79E-03,8.53E-03
7306,2.72E-03,9.08E-03
7307,2.74E-03,8.90E-03
7308,2.64E-03,9.43E-03
7309,2.67E-03,9.26E-03
7310,2.57E-03,9.75E-03
7311,2.58E-03,9.59E-03
7312,2.57E-03,1.01E-02
7313,2.54E-03,9.90E-03
7314,2.64E-03,1.03E-02
7315,2.59E-03,1.02E-02
7316,2.71E-03,1.06E-02
7317,2.67E-03,1.05E-02
7318,2.70E-03,1.09E-02
7319,2.70E-03,1.07E-02
7320,2.61E-03,1.10E-02
7321,2.64E-03,1.10E-02
7322,2.45E-03,1.12E-02
7323,2.50E-03,1.11E-02
7324,2.30E-03,1.13E-02
7325,2.37E-03,1.13E-02
7326,2.21E-03,1.14E-02
7327,2.23E-03,1.13E-02
7328,2.13E-03,1.14E-02
7329,2.11E-03,1.16E-02
7330,2.38E-03,1.15E-02
7331,2.12E-03,1.16E-02
7332,2.07E-03,1.16E-02
7333,2.23E-03,1.17E-02
7334,2.19E-03,1.17E-02
7335,2.39E-03,1.18E-02
7336,2.31E-03,1.18E-02
7337,2.62E-03,1.18E-02
7338,2.58E-03,1.18E-02
7339,2.72E-03,1.18E-02
7340,2.66E-03,1.18E-02
7341,2.76E-03,1.17E-02
7342,2.76E-03,1.18E-02
7343,2.71E-03,1.16E-02
7344,2.72E-03,1.17E-02
7345,2.66E-03,1.15E-02
7346,2.69E-03,1.16E-02
7347,2.52E-03,1.13E-02
7348,2.57E-03,1.14E-02
7349,2.38E-03,1.11E-02
7350,2.46E-03,1.12E-02
7351,2.16E-03,1.09E-02
7352,2.27E-03,1.10E-02
7353,2.15E-03,1.06E-02
7354,2.09E-03,1.08E-02
7355,2.25E-03,1.04E-02
7356,2.20E-03,1.05E-02
7357,2.35E-03,1.02E-02
7358,2.31E-03,1.03E-02
7359,2.46E-03,9.99E-03
7360,2.45E-03,1.01E-02
7361,2.80E-03,9.76E-03
7362,2.75E-03,9.86E-03
7363,2.70E-03,9.76E-03
7364,2.64E-03,1.00E-02
7365,2.66E-03,9.89E-03
7366,2.57E-03,1.03E-02
7367,2.58E-03,1.01E-02
7368,2.51E-03,1.05E-02
7369,2.53E-03,1.04E-02
7370,2.50E-03,1.08E-02
7371,2.50E-03,1.07E-02
7372,2.48E-03,1.11E-02
7373,2.48E-03,1.09E-02
7374,2.45E-03,1.14E-02
7375,2.44E-03,1.12E-02
7376,2.39E-03,1.17E-02
7377,2.41E-03,1.15E-02
7378,2.36E-03,1.20E-02
7379,2.37E-03,1.18E-02
7380,2.25E-03,1.23E-02
7381,2.31E-03,1.22E-02
7382,2.21E-03,1.27E-02
7383,2.25E-03,1.25E-02
7384,2.13E-03,1.31E-02
7385,2.17E-03,1.29E-02
7386,2.12E-03,1.34E-02
7387,2.09E-03,1.32E-02
7388,2.17E-03,1.39E-02
7389,2.15E-03,1.36E-02
7390,2.21E-03,1.41E-02
7391,2.36E-03,1.51E-02
7392,2.44E-03,1.48E-02
7393,2.32E-03,1.57E-02
7394,2.33E-03,1.54E-02
7395,2.36E-03,1.59E-02
7396,2.40E-03,1.72E-02
7397,2.65E-03,1.68E-02
7398,2.27E-03,1.77E-02
7399,2.31E-03,1.75E-02
7400,2.21E-03,1.83E-02
7401,2.23E-03,1.80E-02
7402,2.20E-03,1.88E-02
7403,2.18E-03,1.86E-02
7404,2.19E-03,1.94E-02
7405,2.19E-03,1.91E-02
7406,2.11E-03,1.99E-02
7407,2.15E-03,1.96E-02
7408,1.80E-03,2.01E-02
7409,2.45E-03,2.11E-02
7410,2.52E-03,2.08E-02
7411,2.45E-03,2.14E-02
7412,2.45E-03,2.13E-02
7413,2.47E-03,2.17E-02
7414,2.45E-03,2.16E-02
7415,2.55E-03,2.20E-02
7416,2.51E-03,2.19E-02
7417,2.68E-03,2.22E-02
7418,2.65E-03,2.21E-02
7419,2.78E-03,2.24E-02
7420,2.72E-03,2.23E-02
7421,2.85E-03,2.25E-02
7422,2.85E-03,2.25E-02
7423,2.96E-03,2.27E-02
7424,2.92E-03,2.26E-02
7425,3.05E-03,2.28E-02
7426,2.99E-03,2.27E-02
7427,3.18E-03,2.28E-02
7428,3.02E-03,2.33E-02
7429,3.09E-03,2.32E-02
7430,2.97E-03,2.37E-02
7431,2.97E-03,2.35E-02
7432,2.87E-03,2.40E-02
7433,2.86E-03,2.38E-02
7434,2.79E-03,2.43E-02
7435,2.79E-03,2.42E-02
7436,2.71E-03,2.47E-02
7437,2.75E-03,2.45E-02
7438,2.64E-03,2.50E-02
7439,2.65E-03,2.49E-02
7440,2.58E-03,2.54E-02
7441,2.59E-03,2.52E-02
7442,2.52E-03,2.57E-02
7443,2.55E-03,2.56E-02
7444,2.46E-03,2.61E-02
7445,2.50E-03,2.59E-02
7446,2.43E-03,2.64E-02
7447,2.45E-03,2.62E-02
7448,2.45E-03,2.66E-02
7449,2.44E-03,2.65E-02
7450,2.45E-03,2.68E-02
7451,2.42E-03,2.67E-02
7452,2.44E-03,2.70E-02
7453,2.44E-03,2.69E-02
7454,2.47E-03,2.70E-02
7455,2.45E-03,2.70E-02
7456,2.46E-03,2.70E-02
7457,2.44E-03,2.70E-02
7458,2.49E-03,2.68E-02
7459,2.47E-03,2.69E-02
7460,2.55E-03,2.65E-02
7461,2.53E-03,2.67E-02
7462,2.56E-03,2.61E-02
7463,2.54E-03,2.63E-02
7464,2.58E-03,2.54E-02
7465,2.57E-03,2.58E-02
7466,2.56E-03,2.46E-02
7467,2.58E-03,2.50E-02
7468,2.53E-03,2.35E-02
7469,2.54E-03,2.41E-02
7470,2.63E-03,2.21E-02
7471,2.56E-03,2.29E-02
7472,2.75E-03,2.03E-02
7473,2.68E-03,2.13E-02
7474,1.71E-03,8.45E-04
7475,1.94E-03,1.06E-03
7476,1.39E-03,1.01E-03
7477,2.21E-03,1.21E-03
7478,2.17E-03,1.13E-03
7479,2.26E-03,1.30E-03
7480,2.04E-03,1.86E-03
7481,2.23E-03,1.75E-03
7482,1.89E-03,2.05E-03
7483,1.92E-03,1.95E-03
7484,1.86E-03,2.25E-03
7485,1.86E-03,2.15E-03
7486,1.88E-03,2.45E-03
7487,1.84E-03,2.35E-03
7488,1.88E-03,2.67E-03
7489,1.88E-03,2.56E-03
7490,1.90E-03,2.90E-03
7491,1.90E-03,2.78E-03
7492,1.97E-03,3.14E-03
7493,1.94E-03,3.02E-03
7494,1.97E-03,3.40E-03
7495,1.98E-03,3.27E-03
7496,2.08E-03,3.54E-03
7497,2.29E-03,4.74E-03
7498,2.36E-03,4.59E-03
7499,2.18E-03,5.04E-03
7500,2.24E-03,4.89E-03
7501,2.25E-03,5.33E-03
7502,2.20E-03,5.19E-03
7503,2.33E-03,5.61E-03
7504,2.29E-03,5.47E-03
7505,2.35E-03,5.89E-03
7506,2.34E-03,5.75E-03
7507,2.31E-03,6.16E-03
7508,2.34E-03,6.03E-03
7509,2.32E-03,6.41E-03
7510,2.33E-03,6.28E-03
7511,2.30E-03,6.63E-03
7512,2.30E-03,6.52E-03
7513,2.35E-03,6.84E-03
7514,2.31E-03,6.74E-03
7515,2.35E-03,7.04E-03
7516,2.36E-03,6.94E-03
7517,2.38E-03,7.21E-03
7518,2.39E-03,7.12E-03
7519,2.39E-03,7.36E-03
7520,2.36E-03,7.29E-03
7521,2.36E-03,7.51E-03
7522,2.37E-03,7.44E-03
7523,2.36E-03,7.57E-03
7524,2.32E-03,7.90E-03
7525,2.32E-03,7.83E-03
7526,2.32E-03,8.04E-03
7527,2.31E-03,7.97E-03
7528,2.37E-03,8.18E-03
7529,2.34E-03,8.11E-03
7530,2.40E-03,8.30E-03
7531,2.39E-03,8.24E-03
7532,2.45E-03,8.41E-03
7533,2.44E-03,8.36E-03
7534,2.73E-03,7.76E-03
7535,2.77E-03,7.60E-03
7536,3.07E-03,4.08E-03
7537,2.48E-03,8.46E-03
7538,2.43E-03,8.52E-03
7539,2.49E-03,6.51E-03
7540,2.50E-03,6.41E-03
7541,2.56E-03,7.42E-03
7542,2.38E-03,1.07E-02
7543,2.40E-03,1.01E-02
7544,2.55E-03,8.46E-03
7545,2.50E-03,9.06E-03
7546,2.67E-03,1.02E-02
7547,2.67E-03,1.02E-02
7548,2.83E-03,1.92E-02
7549,2.47E-03,1.22E-02
7550,2.41E-03,1.16E-02
7551,2.56E-03,1.55E-02
7552,2.84E-03,8.42E-03
7553,2.88E-03,7.18E-03
7554,2.54E-03,1.51E-02
7555,2.58E-03,1.54E-02
7556,2.56E-03,1.53E-02
7557,2.32E-03,8.74E-03
7558,2.35E-03,8.75E-03
7559,2.73E-03,7.92E-03
7560,2.39E-03,1.01E-02
7561,2.62E-03,9.64E-03
7562,2.29E-03,1.42E-02
7563,2.52E-03,1.45E-02
7564,2.25E-03,1.59E-03
7565,2.33E-03,7.71E-03
7566,2.49E-03,6.67E-03
7567,2.51E-03,6.44E-03
7568,2.56E-03,7.26E-03
7569,2.43E-03,9.70E-03
7570,2.57E-03,8.25E-03
7571,2.49E-03,9.50E-03
7572,2.48E-03,1.25E-02
7573,2.34E-03,1.09E-02
7574,2.38E-03,1.12E-02
7575,2.54E-03,1.51E-02
7576,2.72E-03,7.37E-04
7577,2.83E-03,6.92E-04
7578,2.52E-03,1.45E-02
7579,2.30E-03,1.35E-03
7580,2.51E-03,1.44E-03
7581,2.42E-03,4.39E-03
7582,2.47E-03,4.22E-03
7583,2.49E-03,6.89E-03
7584,2.51E-03,6.49E-03
7585,2.46E-03,9.29E-03
7586,2.59E-03,8.06E-03
7587,2.48E-03,9.97E-03
7588,2.52E-03,1.27E-02
7589,2.52E-03,1.48E-02
7590,2.51E-03,1.39E-02
7591,1.73E-03,1.13E-02
7592,2.06E-03,1.13E-02
7593,1.99E-03,1.12E-02
7594,2.49E-03,7.14E-03
7595,2.52E-03,6.55E-03
7596,2.46E-03,8.89E-03
7597,2.48E-03,1.05E-02
7598,2.50E-03,1.30E-02
7599,2.51E-03,1.44E-02
7600,2.52E-03,7.37E-03
7601,2.63E-03,7.30E-03
7602,2.86E-03,7.13E-03
7603,2.99E-03,7.06E-03
7604,2.58E-03,7.16E-03
7605,2.57E-03,7.08E-03
7606,2.54E-03,1.33E-02
7607,2.52E-03,7.43E-03
7608,2.52E-03,6.63E-03
7609,2.49E-03,8.50E-03
7610,2.49E-03,1.10E-02
7611,2.48E-03,1.33E-02
7612,2.47E-03,1.41E-02
7613,2.55E-03,1.27E-02
7614,2.54E-03,7.76E-03
7615,2.52E-03,6.71E-03
7616,2.54E-03,8.12E-03
7617,2.51E-03,1.16E-02
7618,2.47E-03,1.35E-02
7619,2.47E-03,1.38E-02
7620,2.54E-03,1.21E-02
7621,2.52E-03,6.81E-03
7622,2.52E-03,6.92E-03
7623,2.53E-03,7.04E-03
7624,2.53E-03,7.17E-03
7625,2.55E-03,9.94E-03
7626,2.57E-03,9.77E-03
7627,1.86E-03,2.05E-02
7628,2.31E-03,2.07E-02
7629,2.45E-03,2.08E-02
7630,2.50E-03,1.64E-02
7631,2.46E-03,8.49E-03
7632,2.50E-03,6.45E-03
7633,2.59E-03,7.87E-03
7634,2.59E-03,7.63E-03
7635,2.39E-03,1.04E-02
7636,2.51E-03,8.75E-03
7637,2.73E-03,1.01E-02
7638,2.67E-03,1.02E-02
7639,2.66E-03,1.02E-02
7640,2.75E-03,1.01E-02
7641,2.72E-03,1.01E-02
7642,2.85E-03,9.80E-03
7643,2.76E-03,9.93E-03
7644,2.99E-03,9.52E-03
7645,2.95E-03,9.65E-03
7646,3.16E-03,9.49E-03
7647,3.08E-03,9.47E-03
7648,3.17E-03,9.99E-03
7649,3.18E-03,9.68E-03
7650,3.05E-03,1.10E-02
7651,3.09E-03,1.04E-02
7652,2.90E-03,1.26E-02
7653,2.97E-03,1.17E-02
7654,2.84E-03,1.49E-02
7655,2.87E-03,1.36E-02
7656,2.95E-03,1.79E-02
7657,2.88E-03,1.63E-02
7658,2.43E-03,1.19E-02
7659,2.57E-03,1.54E-02
7660,2.99E-03,1.02E-02
7661,2.49E-03,9.99E-03
7662,2.83E-03,8.47E-04
7663,2.80E-03,7.88E-04
7664,2.73E-03,9.85E-04
7665,2.79E-03,9.12E-04
7666,2.62E-03,1.16E-03
7667,2.65E-03,1.07E-03
7668,2.49E-03,1.39E-03
7669,2.54E-03,1.27E-03
7670,2.50E-03,1.68E-03
7671,2.48E-03,1.53E-03
7672,2.57E-03,2.03E-03
7673,2.48E-03,1.84E-03
7674,2.65E-03,2.47E-03
7675,2.59E-03,2.24E-03
7676,2.73E-03,3.00E-03
7677,2.72E-03,2.72E-03
7678,2.87E-03,3.63E-03
7679,2.78E-03,3.30E-03
7680,3.42E-03,4.41E-03
7681,2.95E-03,3.98E-03
7682,3.11E-03,5.51E-03
7683,3.53E-03,4.84E-03
7684,3.24E-03,6.45E-03
7685,3.39E-03,5.95E-03
7686,2.99E-03,7.43E-03
7687,3.14E-03,6.94E-03
7688,2.93E-03,7.92E-03
7689,2.33E-03,8.68E-03
7690,2.31E-03,8.71E-03
7691,2.38E-03,8.61E-03
7692,2.34E-03,8.65E-03
7693,2.41E-03,8.53E-03
7694,2.40E-03,8.57E-03
7695,2.45E-03,8.43E-03
7696,2.41E-03,8.48E-03
7697,2.51E-03,8.32E-03
7698,2.46E-03,8.38E-03
7699,2.57E-03,8.20E-03
7700,2.51E-03,8.26E-03
7701,2.63E-03,8.09E-03
7702,2.62E-03,8.14E-03
7703,2.72E-03,7.98E-03
7704,2.67E-03,8.03E-03
7705,2.81E-03,7.89E-03
7706,2.78E-03,7.94E-03
7707,2.88E-03,7.83E-03
7708,2.85E-03,7.86E-03
7709,2.94E-03,7.79E-03
7710,2.92E-03,7.81E-03
7711,2.89E-03,7.77E-03
7712,2.92E-03,7.78E-03
7713,2.86E-03,7.75E-03
7714,2.86E-03,7.76E-03
7715,2.76E-03,7.73E-03
7716,2.81E-03,7.74E-03
7717,2.71E-03,7.71E-03
7718,2.71E-03,7.72E-03
7719,2.63E-03,7.66E-03
7720,2.65E-03,7.68E-03
7721,2.54E-03,7.61E-03
7722,2.57E-03,7.63E-03
7723,2.45E-03,7.54E-03
7724,2.50E-03,7.57E-03
7725,2.43E-03,7.45E-03
7726,2.45E-03,7.50E-03
7727,2.45E-03,7.41E-03
7728,3.10E-03,7.16E-03
7729,2.85E-03,7.24E-03
7730,2.67E-03,7.39E-03
7731,2.64E-03,7.27E-03
7732,2.54E-03,1.52E-02
7733,2.42E-03,8.75E-03
7734,2.38E-03,8.76E-03
7735,2.76E-03,8.27E-03
7736,2.74E-03,8.09E-03
7737,2.73E-03,8.64E-03
7738,2.77E-03,8.46E-03
7739,2.71E-03,9.00E-03
7740,2.73E-03,8.82E-03
7741,2.62E-03,9.34E-03
7742,2.64E-03,9.17E-03
7743,2.56E-03,9.65E-03
7744,2.55E-03,9.50E-03
7745,2.55E-03,9.95E-03
7746,2.52E-03,9.80E-03
7747,2.61E-03,1.02E-02
7748,2.59E-03,1.01E-02
7749,2.69E-03,1.05E-02
7750,2.66E-03,1.04E-02
7751,2.68E-03,1.07E-02
7752,2.68E-03,1.06E-02
7753,2.64E-03,1.09E-02
7754,2.64E-03,1.08E-02
7755,2.46E-03,1.11E-02
7756,2.48E-03,1.10E-02
7757,2.31E-03,1.12E-02
7758,2.37E-03,1.11E-02
7759,2.20E-03,1.13E-02
7760,2.22E-03,1.12E-02
7761,2.08E-03,1.13E-02
7762,2.00E-03,1.14E-02
7763,1.98E-03,1.14E-02
7764,2.09E-03,1.15E-02
7765,2.09E-03,1.15E-02
7766,2.22E-03,1.16E-02
7767,2.18E-03,1.16E-02
7768,2.41E-03,1.17E-02
7769,2.35E-03,1.16E-02
7770,2.58E-03,1.17E-02
7771,2.56E-03,1.17E-02
7772,2.70E-03,1.17E-02
7773,2.67E-03,1.17E-02
7774,2.77E-03,1.16E-02
7775,2.74E-03,1.17E-02
7776,2.72E-03,1.15E-02
7777,2.73E-03,1.16E-02
7778,2.64E-03,1.14E-02
7779,2.67E-03,1.14E-02
7780,2.53E-03,1.12E-02
7781,2.59E-03,1.13E-02
7782,2.40E-03,1.10E-02
7783,2.42E-03,1.11E-02
7784,2.21E-03,1.08E-02
7785,2.27E-03,1.09E-02
7786,2.19E-03,1.06E-02
7787,2.17E-03,1.07E-02
7788,2.30E-03,1.03E-02
7789,2.24E-03,1.05E-02
7790,2.42E-03,1.01E-02
7791,2.36E-03,1.02E-02
7792,2.33E-03,9.88E-03
7793,2.39E-03,9.99E-03
7794,2.42E-03,9.76E-03
7795,2.48E-03,9.53E-03
7796,2.46E-03,9.62E-03
7797,2.49E-03,9.40E-03
7798,2.71E-03,9.64E-03
7799,2.60E-03,9.89E-03
7800,2.66E-03,9.76E-03
7801,2.56E-03,1.01E-02
7802,2.59E-03,1.00E-02
7803,2.51E-03,1.04E-02
7804,2.53E-03,1.03E-02
7805,2.50E-03,1.07E-02
7806,2.51E-03,1.05E-02
7807,2.47E-03,1.09E-02
7808,2.48E-03,1.08E-02
7809,2.48E-03,1.12E-02
7810,2.46E-03,1.11E-02
7811,2.40E-03,1.15E-02
7812,2.43E-03,1.14E-02
7813,2.37E-03,1.19E-02
7814,2.38E-03,1.17E-02
7815,2.29E-03,1.22E-02
7816,2.34E-03,1.20E-02
7817,2.23E-03,1.25E-02
7818,2.25E-03,1.24E-02
7819,2.16E-03,1.29E-02
7820,2.20E-03,1.27E-02
7821,2.12E-03,1.33E-02
7822,2.12E-03,1.31E-02
7823,2.17E-03,1.37E-02
7824,2.13E-03,1.35E-02
7825,2.20E-03,1.40E-02
7826,2.43E-03,1.50E-02
7827,2.67E-03,1.47E-02
7828,2.31E-03,1.56E-02
7829,2.34E-03,1.53E-02
7830,2.32E-03,1.61E-02
7831,2.29E-03,1.59E-02
7832,2.38E-03,1.72E-02
7833,2.49E-03,1.68E-02
7834,2.30E-03,1.78E-02
7835,2.30E-03,1.75E-02
7836,2.22E-03,1.83E-02
7837,2.25E-03,1.80E-02
7838,2.22E-03,1.89E-02
7839,2.20E-03,1.86E-02
7840,2.20E-03,1.95E-02
7841,2.22E-03,1.92E-02
7842,2.14E-03,2.00E-02
7843,2.19E-03,1.97E-02
7844,2.28E-03,2.02E-02
7845,2.45E-03,2.13E-02
7846,2.46E-03,2.11E-02
7847,2.44E-03,2.17E-02
7848,2.44E-03,2.15E-02
7849,2.47E-03,2.20E-02
7850,2.45E-03,2.19E-02
7851,2.56E-03,2.23E-02
7852,2.51E-03,2.22E-02
7853,2.67E-03,2.25E-02
7854,2.62E-03,2.24E-02
7855,2.76E-03,2.27E-02
7856,2.72E-03,2.26E-02
7857,2.84E-03,2.29E-02
7858,2.83E-03,2.28E-02
7859,2.97E-03,2.31E-02
7860,2.91E-03,2.30E-02
7861,3.10E-03,2.32E-02
7862,3.00E-03,2.32E-02
7863,3.65E-03,2.33E-02
7864,3.23E-03,2.33E-02
7865,3.25E-03,2.36E-02
7866,3.05E-03,2.40E-02
7867,3.14E-03,2.38E-02
7868,2.95E-03,2.43E-02
7869,3.00E-03,2.42E-02
7870,2.85E-03,2.47E-02
7871,2.87E-03,2.45E-02
7872,2.77E-03,2.51E-02
7873,2.79E-03,2.49E-02
7874,2.69E-03,2.55E-02
7875,2.74E-03,2.53E-02
7876,2.61E-03,2.59E-02
7877,2.65E-03,2.57E-02
7878,2.58E-03,2.63E-02
7879,2.57E-03,2.61E-02
7880,2.51E-03,2.67E-02
7881,2.55E-03,2.65E-02
7882,2.46E-03,2.71E-02
7883,2.49E-03,2.69E-02
7884,2.43E-03,2.75E-02
7885,2.45E-03,2.73E-02
7886,2.42E-03,2.78E-02
7887,2.42E-03,2.76E-02
7888,2.46E-03,2.81E-02
7889,2.42E-03,2.79E-02
7890,2.46E-03,2.83E-02
7891,2.43E-03,2.82E-02
7892,2.44E-03,2.84E-02
7893,2.44E-03,2.84E-02
7894,2.46E-03,2.84E-02
7895,2.45E-03,2.85E-02
7896,2.50E-03,2.83E-02
7897,2.47E-03,2.84E-02
7898,2.54E-03,2.81E-02
7899,2.52E-03,2.82E-02
7900,2.56E-03,2.77E-02
7901,2.55E-03,2.79E-02
7902,2.57E-03,2.71E-02
7903,2.59E-03,2.74E-02
7904,2.58E-03,2.63E-02
7905,2.58E-03,2.67E-02
7906,2.55E-03,2.52E-02
7907,2.56E-03,2.58E-02
7908,2.61E-03,2.39E-02
7909,2.56E-03,2.46E-02
7910,2.72E-03,2.21E-02
7911,2.66E-03,2.31E-02
7912,2.98E-03,1.98E-02
7913,2.81E-03,2.10E-02
7914,1.66E-03,8.33E-04
7915,1.85E-03,7.76E-04
7916,1.81E-03,9.22E-04
7917,1.68E-03,8.73E-04
7918,1.84E-03,1.04E-03
7919,1.65E-03,9.83E-04
7920,2.13E-03,1.18E-03
7921,2.04E-03,1.10E-03
7922,2.22E-03,1.26E-03
7923,2.14E-03,1.79E-03
7924,2.20E-03,1.69E-03
7925,1.97E-03,1.99E-03
7926,2.05E-03,1.89E-03
7927,1.92E-03,2.19E-03
7928,1.93E-03,2.09E-03
7929,1.91E-03,2.39E-03
7930,1.91E-03,2.29E-03
7931,1.91E-03,2.61E-03
7932,1.91E-03,2.50E-03
7933,1.94E-03,2.84E-03
7934,1.95E-03,2.72E-03
7935,2.01E-03,3.08E-03
7936,1.96E-03,2.96E-03
7937,2.01E-03,3.33E-03
7938,2.01E-03,3.20E-03
7939,1.97E-03,3.45E-03
7940,2.28E-03,4.70E-03
7941,2.29E-03,4.54E-03
7942,2.23E-03,4.99E-03
7943,2.23E-03,4.85E-03
7944,2.26E-03,5.28E-03
7945,2.25E-03,5.14E-03
7946,2.33E-03,5.57E-03
7947,2.30E-03,5.43E-03
7948,2.33E-03,5.86E-03
7949,2.33E-03,5.72E-03
7950,2.33E-03,6.13E-03
7951,2.35E-03,6.00E-03
7952,2.33E-03,6.39E-03
7953,2.32E-03,6.26E-03
7954,2.32E-03,6.63E-03
7955,2.32E-03,6.51E-03
7956,2.36E-03,6.85E-03
7957,2.32E-03,6.74E-03
7958,2.37E-03,7.06E-03
7959,2.37E-03,6.96E-03
7960,2.37E-03,7.24E-03
7961,2.38E-03,7.15E-03
7962,2.38E-03,7.41E-03
7963,2.36E-03,7.32E-03
7964,2.38E-03,7.56E-03
7965,2.38E-03,7.48E-03
7966,2.37E-03,7.63E-03
7967,2.31E-03,8.00E-03
7968,2.29E-03,7.93E-03
7969,2.31E-03,8.16E-03
7970,2.30E-03,8.08E-03
7971,2.36E-03,8.32E-03
7972,2.35E-03,8.24E-03
7973,2.40E-03,8.47E-03
7974,2.39E-03,8.39E-03
7975,2.46E-03,8.60E-03
7976,2.44E-03,8.54E-03
7977,2.70E-03,7.69E-03
7978,2.69E-03,7.54E-03
7979,2.54E-03,9.00E-03
7980,2.51E-03,9.51E-03
7981,2.47E-03,8.66E-03
7982,2.44E-03,8.73E-03
7983,2.49E-03,6.60E-03
7984,2.50E-03,6.49E-03
7985,2.55E-03,7.47E-03
7986,2.36E-03,1.06E-02
7987,2.40E-03,9.99E-03
7988,2.56E-03,8.53E-03
7989,2.50E-03,9.16E-03
7990,2.72E-03,1.05E-02
7991,2.68E-03,1.06E-02
7992,3.24E-03,1.83E-02
7993,2.97E-03,1.64E-02
7994,2.45E-03,1.21E-02
7995,2.40E-03,1.15E-02
7996,2.57E-03,1.50E-02
7997,2.23E-03,6.56E-04
7998,2.67E-03,8.48E-03
7999,2.56E-03,1.46E-02
8000,2.59E-03,1.49E-02
8001,2.57E-03,1.48E-02
8002,2.32E-03,8.99E-03
8003,2.36E-03,9.00E-03
8004,2.70E-03,7.85E-03
8005,2.38E-03,1.00E-02
8006,2.04E-03,1.63E-02
8007,2.25E-03,1.60E-02
8008,2.16E-03,1.66E-02
8009,2.23E-03,2.09E-02
8010,2.07E-03,2.06E-02
8011,2.35E-03,2.11E-02
8012,2.39E-03,1.54E-03
8013,2.30E-03,3.51E-03
8014,3.45E-03,4.05E-03
8015,2.34E-03,7.86E-03
8016,2.37E-03,7.78E-03
8017,2.33E-03,7.94E-03
8018,2.49E-03,6.80E-03
8019,2.51E-03,6.54E-03
8020,2.55E-03,7.31E-03
8021,2.42E-03,9.57E-03
8022,2.56E-03,8.32E-03
8023,2.49E-03,9.60E-03
8024,2.48E-03,1.24E-02
8025,2.35E-03,1.07E-02
8026,2.37E-03,1.10E-02
8027,2.55E-03,1.47E-02
8028,2.53E-03,1.40E-02
8029,1.46E-03,1.12E-02
8030,1.46E-03,1.11E-02
8031,2.84E-03,2.18E-02
8032,3.15E-03,2.05E-02
8033,2.31E-03,1.30E-03
8034,3.01E-03,1.39E-03
8035,2.49E-03,7.04E-03
8036,2.51E-03,6.60E-03
8037,2.46E-03,9.16E-03
8038,2.59E-03,8.13E-03
8039,2.48E-03,1.01E-02
8040,2.50E-03,1.26E-02
8041,2.50E-03,1.43E-02
8042,2.28E-03,7.40E-03
8043,2.67E-03,7.35E-03
8044,2.46E-03,7.13E-03
8045,2.87E-03,7.09E-03
8046,2.77E-03,7.01E-03
8047,2.40E-03,7.11E-03
8048,2.22E-03,7.04E-03
8049,2.53E-03,1.34E-02
8050,2.49E-03,7.32E-03
8051,2.52E-03,6.68E-03
8052,2.50E-03,8.76E-03
8053,2.48E-03,1.06E-02
8054,2.49E-03,1.29E-02
8055,2.51E-03,1.40E-02
8056,2.55E-03,1.28E-02
8057,1.93E-03,9.21E-03
8058,2.22E-03,9.11E-03
8059,2.53E-03,7.64E-03
8060,2.52E-03,6.76E-03
8061,2.51E-03,8.37E-03
8062,2.51E-03,1.11E-02
8063,2.47E-03,1.32E-02
8064,2.47E-03,1.37E-02
8065,2.56E-03,1.23E-02
8066,2.56E-03,7.99E-03
8067,2.52E-03,6.86E-03
8068,2.53E-03,1.17E-02
8069,2.46E-03,1.34E-02
8070,2.52E-03,6.97E-03
8071,2.52E-03,7.09E-03
8072,2.52E-03,7.22E-03
8073,2.59E-03,1.01E-02
8074,2.51E-03,9.96E-03
8075,2.46E-03,8.70E-03
8076,2.50E-03,6.54E-03
8077,2.60E-03,7.94E-03
8078,2.60E-03,7.69E-03
8079,2.37E-03,1.03E-02
8080,2.51E-03,8.83E-03
8081,2.75E-03,1.04E-02
8082,2.66E-03,1.06E-02
8083,2.67E-03,1.06E-02
8084,2.72E-03,1.04E-02
8085,2.69E-03,1.05E-02
8086,2.82E-03,1.01E-02
8087,2.79E-03,1.03E-02
8088,2.96E-03,9.67E-03
8089,2.92E-03,9.88E-03
8090,3.12E-03,9.41E-03
8091,3.05E-03,9.49E-03
8092,3.11E-03,9.57E-03
8093,3.12E-03,9.42E-03
8094,3.03E-03,1.03E-02
8095,3.06E-03,9.85E-03
8096,2.90E-03,1.16E-02
8097,2.97E-03,1.09E-02
8098,2.86E-03,1.36E-02
8099,2.86E-03,1.25E-02
8100,2.93E-03,1.49E-02
8101,2.41E-03,1.18E-02
8102,2.58E-03,1.50E-02
8103,2.66E-03,1.05E-02
8104,2.53E-03,1.02E-02
8105,2.77E-03,7.00E-04
8106,2.48E-03,6.19E-04
8107,2.58E-03,6.55E-04
8108,2.75E-03,8.10E-04
8109,2.72E-03,7.53E-04
8110,2.70E-03,9.46E-04
8111,2.74E-03,8.74E-04
8112,2.59E-03,1.12E-03
8113,2.66E-03,1.03E-03
8114,2.49E-03,1.35E-03
8115,2.55E-03,1.23E-03
8116,2.47E-03,1.63E-03
8117,2.46E-03,1.48E-03
8118,2.54E-03,1.99E-03
8119,2.49E-03,1.80E-03
8120,2.67E-03,2.42E-03
8121,2.54E-03,2.19E-03
8122,2.77E-03,2.96E-03
8123,2.68E-03,2.68E-03
8124,2.94E-03,3.60E-03
8125,2.84E-03,3.27E-03
8126,3.28E-03,4.39E-03
8127,3.09E-03,3.99E-03
8128,3.72E-03,5.38E-03
8129,3.77E-03,4.87E-03
8130,3.17E-03,6.42E-03
8131,3.25E-03,5.92E-03
8132,2.94E-03,7.45E-03
8133,3.07E-03,6.94E-03
8134,2.79E-03,7.96E-03
8135,2.35E-03,8.94E-03
8136,2.33E-03,8.97E-03
8137,2.38E-03,8.89E-03
8138,2.34E-03,8.92E-03
8139,2.41E-03,8.81E-03
8140,2.39E-03,8.85E-03
8141,2.44E-03,8.72E-03
8142,2.42E-03,8.77E-03
8143,2.50E-03,8.61E-03
8144,2.47E-03,8.67E-03
8145,2.56E-03,8.49E-03
8146,2.52E-03,8.56E-03
8147,2.61E-03,8.37E-03
8148,2.60E-03,8.43E-03
8149,2.70E-03,8.26E-03
8150,2.67E-03,8.32E-03
8151,2.79E-03,8.16E-03
8152,2.77E-03,8.21E-03
8153,2.85E-03,8.08E-03
8154,2.84E-03,8.12E-03
8155,2.92E-03,8.02E-03
8156,2.91E-03,8.05E-03
8157,2.90E-03,7.98E-03
8158,2.90E-03,8.00E-03
8159,2.83E-03,7.94E-03
8160,2.87E-03,7.96E-03
8161,2.76E-03,7.90E-03
8162,2.77E-03,7.92E-03
8163,2.70E-03,7.85E-03
8164,2.70E-03,7.88E-03
8165,2.62E-03,7.78E-03
8166,2.62E-03,7.82E-03
8167,2.51E-03,7.71E-03
8168,2.53E-03,7.75E-03
8169,2.42E-03,7.62E-03
8170,2.47E-03,7.66E-03
8171,2.35E-03,7.51E-03
8172,2.38E-03,7.56E-03
8173,2.31E-03,7.45E-03
8174,2.72E-03,7.23E-03
8175,2.59E-03,7.33E-03
8176,2.53E-03,7.21E-03
8177,2.56E-03,1.47E-02
8178,2.42E-03,8.98E-03
8179,2.38E-03,9.00E-03
8180,2.73E-03,8.20E-03
8181,2.70E-03,8.02E-03
8182,2.71E-03,8.56E-03
8183,2.76E-03,8.38E-03
8184,2.69E-03,8.91E-03
8185,2.71E-03,8.74E-03
8186,2.61E-03,9.24E-03
8187,2.62E-03,9.08E-03
8188,2.55E-03,9.55E-03
8189,2.54E-03,9.40E-03
8190,2.55E-03,9.84E-03
8191,2.52E-03,9.70E-03
8192,2.60E-03,1.01E-02
8193,2.58E-03,9.98E-03
8194,2.69E-03,1.04E-02
8195,2.66E-03,1.03E-02
8196,2.70E-03,1.06E-02
8197,2.68E-03,1.05E-02
8198,2.63E-03,1.08E-02
8199,2.64E-03,1.07E-02
8200,2.47E-03,1.10E-02
8201,2.52E-03,1.09E-02
8202,2.30E-03,1.11E-02
8203,2.34E-03,1.10E-02
8204,2.15E-03,1.11E-02
8205,2.26E-03,1.11E-02
8206,2.23E-03,1.12E-02
8207,2.01E-03,1.13E-02
8208,1.90E-03,1.13E-02
8209,2.09E-03,1.14E-02
8210,2.06E-03,1.14E-02
8211,2.20E-03,1.15E-02
8212,2.18E-03,1.14E-02
8213,2.42E-03,1.15E-02
8214,2.40E-03,1.15E-02
8215,2.59E-03,1.16E-02
8216,2.52E-03,1.16E-02
8217,2.71E-03,1.16E-02
8218,2.67E-03,1.16E-02
8219,2.78E-03,1.15E-02
8220,2.74E-03,1.15E-02
8221,2.74E-03,1.14E-02
8222,2.76E-03,1.15E-02
8223,2.65E-03,1.13E-02
8224,2.66E-03,1.13E-02
8225,2.56E-03,1.11E-02
8226,2.59E-03,1.12E-02
8227,2.41E-03,1.09E-02
8228,2.44E-03,1.10E-02
8229,2.24E-03,1.07E-02
8230,2.32E-03,1.08E-02
8231,2.25E-03,1.05E-02
8232,2.21E-03,1.06E-02
8233,2.33E-03,1.03E-02
8234,2.28E-03,1.04E-02
8235,2.50E-03,1.00E-02
8236,2.42E-03,1.01E-02
8237,2.22E-03,9.78E-03
8238,2.33E-03,9.89E-03
8239,1.98E-03,9.58E-03
8240,1.92E-03,9.68E-03
8241,2.25E-03,9.39E-03
8242,2.11E-03,9.48E-03
8243,1.91E-03,9.30E-03
8244,2.62E-03,9.52E-03
8245,2.57E-03,9.76E-03
8246,2.57E-03,9.64E-03
8247,2.52E-03,1.00E-02
8248,2.57E-03,9.88E-03
8249,2.52E-03,1.03E-02
8250,2.51E-03,1.01E-02
8251,2.50E-03,1.05E-02
8252,2.52E-03,1.04E-02
8253,2.49E-03,1.08E-02
8254,2.48E-03,1.07E-02
8255,2.46E-03,1.11E-02
8256,2.47E-03,1.09E-02
8257,2.42E-03,1.14E-02
8258,2.45E-03,1.12E-02
8259,2.38E-03,1.17E-02
8260,2.39E-03,1.16E-02
8261,2.31E-03,1.21E-02
8262,2.34E-03,1.19E-02
8263,2.24E-03,1.24E-02
8264,2.26E-03,1.22E-02
8265,2.19E-03,1.28E-02
8266,2.21E-03,1.26E-02
8267,2.13E-03,1.32E-02
8268,2.14E-03,1.30E-02
8269,2.16E-03,1.36E-02
8270,2.15E-03,1.34E-02
8271,2.21E-03,1.40E-02
8272,2.17E-03,1.38E-02
8273,2.35E-03,1.43E-02
8274,2.43E-03,1.49E-02
8275,2.57E-03,1.46E-02
8276,2.29E-03,1.55E-02
8277,2.33E-03,1.52E-02
8278,2.27E-03,1.58E-02
8279,2.35E-03,1.71E-02
8280,2.23E-03,1.69E-02
8281,2.30E-03,1.78E-02
8282,2.31E-03,1.74E-02
8283,2.23E-03,1.84E-02
8284,2.26E-03,1.81E-02
8285,2.24E-03,1.90E-02
8286,2.24E-03,1.87E-02
8287,2.20E-03,1.95E-02
8288,2.24E-03,1.92E-02
8289,2.22E-03,2.01E-02
8290,2.22E-03,1.98E-02
8291,2.24E-03,2.04E-02
8292,2.41E-03,2.15E-02
8293,2.40E-03,2.13E-02
8294,2.42E-03,2.20E-02
8295,2.42E-03,2.18E-02
8296,2.45E-03,2.23E-02
8297,2.43E-03,2.21E-02
8298,2.55E-03,2.26E-02
8299,2.52E-03,2.25E-02
8300,2.66E-03,2.29E-02
8301,2.61E-03,2.27E-02
8302,2.76E-03,2.31E-02
8303,2.71E-03,2.30E-02
8304,2.83E-03,2.34E-02
8305,2.79E-03,2.32E-02
8306,2.93E-03,2.36E-02
8307,2.90E-03,2.35E-02
8308,3.09E-03,2.37E-02
8309,3.02E-03,2.37E-02
8310,3.33E-03,2.39E-02
8311,3.21E-03,2.38E-02
8312,3.28E-03,2.42E-02
8313,3.40E-03,2.40E-02
8314,3.06E-03,2.46E-02
8315,3.14E-03,2.44E-02
8316,2.93E-03,2.51E-02
8317,2.99E-03,2.48E-02
8318,2.83E-03,2.55E-02
8319,2.85E-03,2.53E-02
8320,2.75E-03,2.59E-02
8321,2.77E-03,2.57E-02
8322,2.67E-03,2.64E-02
8323,2.72E-03,2.62E-02
8324,2.60E-03,2.68E-02
8325,2.65E-03,2.66E-02
8326,2.55E-03,2.73E-02
8327,2.57E-03,2.71E-02
8328,2.50E-03,2.77E-02
8329,2.53E-03,2.75E-02
8330,2.48E-03,2.82E-02
8331,2.48E-03,2.80E-02
8332,2.44E-03,2.86E-02
8333,2.46E-03,2.84E-02
8334,2.42E-03,2.90E-02
8335,2.43E-03,2.88E-02
8336,2.44E-03,2.94E-02
8337,2.42E-03,2.92E-02
8338,2.44E-03,2.97E-02
8339,2.41E-03,2.95E-02
8340,2.44E-03,2.99E-02
8341,2.44E-03,2.98E-02
8342,2.47E-03,2.99E-02
8343,2.46E-03,2.99E-02
8344,2.50E-03,2.99E-02
8345,2.47E-03,2.99E-02
8346,2.52E-03,2.97E-02
8347,2.53E-03,2.98E-02
8348,2.56E-03,2.93E-02
8349,2.57E-03,2.95E-02
8350,2.56E-03,2.88E-02
8351,2.55E-03,2.91E-02
8352,2.59E-03,2.80E-02
8353,2.58E-03,2.84E-02
8354,2.58E-03,2.71E-02
8355,2.58E-03,2.76E-02
8356,2.61E-03,2.58E-02
8357,2.56E-03,2.65E-02
8358,2.68E-03,2.40E-02
8359,2.64E-03,2.50E-02
8360,2.71E-03,2.30E-02
8361,1.42E-03,6.51E-04
8362,1.92E-03,6.25E-04
8363,1.78E-03,7.11E-04
8364,1.38E-03,6.76E-04
8365,1.68E-03,7.99E-04
8366,1.87E-03,7.55E-04
8367,1.75E-03,8.92E-04
8368,1.74E-03,8.45E-04
8369,1.85E-03,1.01E-03
8370,1.77E-03,9.46E-04
8371,2.04E-03,1.14E-03
8372,1.98E-03,1.07E-03
8373,2.12E-03,1.21E-03
8374,2.19E-03,1.74E-03
8375,2.24E-03,1.64E-03
8376,2.06E-03,1.93E-03
8377,2.13E-03,1.84E-03
8378,1.97E-03,2.13E-03
8379,2.00E-03,2.03E-03
8380,1.97E-03,2.34E-03
8381,1.97E-03,2.23E-03
8382,1.98E-03,2.56E-03
8383,1.98E-03,2.45E-03
8384,2.00E-03,2.78E-03
8385,1.99E-03,2.67E-03
8386,2.03E-03,3.02E-03
8387,2.02E-03,2.90E-03
8388,2.03E-03,3.26E-03
8389,2.04E-03,3.14E-03
8390,1.90E-03,3.37E-03
8391,2.40E-03,4.34E-03
8392,2.42E-03,4.18E-03
8393,2.28E-03,4.65E-03
8394,2.27E-03,4.50E-03
8395,2.24E-03,4.95E-03
8396,2.25E-03,4.80E-03
8397,2.26E-03,5.24E-03
8398,2.26E-03,5.09E-03
8399,2.31E-03,5.53E-03
8400,2.29E-03,5.39E-03
8401,2.35E-03,5.83E-03
8402,2.33E-03,5.68E-03
8403,2.35E-03,6.11E-03
8404,2.37E-03,5.97E-03
8405,2.34E-03,6.38E-03
8406,2.35E-03,6.24E-03
8407,2.35E-03,6.63E-03
8408,2.33E-03,6.50E-03
8409,2.38E-03,6.86E-03
8410,2.34E-03,6.75E-03
8411,2.38E-03,7.08E-03
8412,2.38E-03,6.98E-03
8413,2.40E-03,7.28E-03
8414,2.37E-03,7.18E-03
8415,2.37E-03,7.45E-03
8416,2.38E-03,7.37E-03
8417,2.41E-03,7.62E-03
8418,2.41E-03,7.54E-03
8419,2.39E-03,7.70E-03
8420,2.32E-03,8.11E-03
8421,2.32E-03,8.02E-03
8422,2.32E-03,8.29E-03
8423,2.31E-03,8.20E-03
8424,2.35E-03,8.47E-03
8425,2.35E-03,8.38E-03
8426,2.41E-03,8.64E-03
8427,2.38E-03,8.55E-03
8428,2.48E-03,8.80E-03
8429,2.44E-03,8.72E-03
8430,2.66E-03,7.62E-03
8431,2.64E-03,7.47E-03
8432,2.32E-03,9.10E-03
8433,2.30E-03,9.66E-03
8434,2.49E-03,8.86E-03
8435,2.45E-03,8.96E-03
8436,2.49E-03,6.73E-03
8437,2.50E-03,6.59E-03
8438,2.55E-03,7.52E-03
8439,2.37E-03,1.04E-02
8440,2.39E-03,9.86E-03
8441,2.55E-03,8.61E-03
8442,2.50E-03,9.25E-03
8443,2.84E-03,1.06E-02
8444,2.69E-03,1.09E-02
8445,2.65E-03,1.09E-02
8446,2.99E-03,1.62E-02
8447,2.79E-03,1.47E-02
8448,2.46E-03,1.20E-02
8449,2.40E-03,1.14E-02
8450,2.54E-03,1.46E-02
8451,2.44E-03,5.80E-04
8452,2.55E-03,8.55E-03
8453,2.56E-03,1.41E-02
8454,2.58E-03,1.44E-02
8455,2.61E-03,1.43E-02
8456,2.34E-03,9.25E-03
8457,2.37E-03,9.25E-03
8458,2.68E-03,7.78E-03
8459,1.45E-03,1.11E-02
8460,2.46E-03,9.90E-03
8461,2.82E-03,1.92E-02
8462,2.16E-03,1.24E-03
8463,2.66E-03,1.49E-03
8464,2.49E-03,6.95E-03
8465,2.51E-03,6.66E-03
8466,2.55E-03,7.37E-03
8467,2.43E-03,9.45E-03
8468,2.56E-03,8.40E-03
8469,2.49E-03,9.71E-03
8470,2.47E-03,1.38E-02
8471,2.51E-03,1.23E-02
8472,2.35E-03,1.06E-02
8473,2.37E-03,1.09E-02
8474,2.56E-03,1.42E-02
8475,2.09E-03,7.45E-03
8476,1.73E-03,7.41E-03
8477,2.17E-03,7.23E-03
8478,2.01E-03,7.08E-03
8479,2.30E-03,6.99E-03
8480,1.92E-03,6.98E-03
8481,2.43E-03,7.02E-03
8482,2.24E-03,6.93E-03
8483,2.55E-03,1.35E-02
8484,2.34E-03,1.33E-03
8485,2.49E-03,7.22E-03
8486,2.51E-03,6.73E-03
8487,2.47E-03,9.04E-03
8488,2.58E-03,8.20E-03
8489,2.48E-03,1.02E-02
8490,2.49E-03,1.25E-02
8491,2.51E-03,1.39E-02
8492,2.55E-03,1.30E-02
8493,2.72E-03,9.93E-03
8494,2.50E-03,7.53E-03
8495,2.51E-03,6.82E-03
8496,2.50E-03,8.63E-03
8497,2.52E-03,1.07E-02
8498,2.48E-03,1.28E-02
8499,2.50E-03,1.36E-02
8500,2.57E-03,1.24E-02
8501,2.54E-03,7.87E-03
8502,2.51E-03,6.92E-03
8503,2.54E-03,8.24E-03
8504,2.52E-03,1.13E-02
8505,2.46E-03,1.30E-02
8506,2.46E-03,1.33E-02
8507,2.55E-03,1.18E-02
8508,2.51E-03,7.03E-03
8509,2.51E-03,7.15E-03
8510,2.52E-03,7.28E-03
8511,2.55E-03,1.04E-02
8512,2.41E-03,1.02E-02
8513,2.15E-03,9.21E-03
8514,2.47E-03,8.92E-03
8515,2.50E-03,6.66E-03
8516,2.59E-03,8.01E-03
8517,2.58E-03,7.75E-03
8518,2.37E-03,1.02E-02
8519,2.51E-03,8.92E-03
8520,2.76E-03,1.07E-02
8521,2.64E-03,1.10E-02
8522,2.64E-03,1.10E-02
8523,2.68E-03,1.09E-02
8524,2.68E-03,1.10E-02
8525,2.78E-03,1.05E-02
8526,2.76E-03,1.07E-02
8527,2.92E-03,9.98E-03
8528,2.89E-03,1.03E-02
8529,3.04E-03,9.49E-03
8530,3.02E-03,9.71E-03
8531,3.07E-03,9.32E-03
8532,3.07E-03,9.35E-03
8533,3.00E-03,9.64E-03
8534,3.02E-03,9.41E-03
8535,2.91E-03,1.06E-02
8536,2.92E-03,1.00E-02
8537,2.84E-03,1.22E-02
8538,2.81E-03,1.13E-02
8539,2.78E-03,1.34E-02
8540,2.41E-03,1.17E-02
8541,2.56E-03,1.45E-02
8542,2.65E-03,1.08E-02
8543,2.60E-03,1.05E-02
8544,2.55E-03,5.86E-04
8545,2.25E-03,5.20E-04
8546,2.35E-03,5.50E-04
8547,2.67E-03,6.74E-04
8548,2.68E-03,6.29E-04
8549,2.73E-03,7.82E-04
8550,2.70E-03,7.25E-04
8551,2.68E-03,9.18E-04
8552,2.71E-03,8.45E-04
8553,2.56E-03,1.09E-03
8554,2.63E-03,1.00E-03
8555,2.46E-03,1.32E-03
8556,2.52E-03,1.20E-03
8557,2.45E-03,1.60E-03
8558,2.46E-03,1.45E-03
8559,2.51E-03,1.95E-03
8560,2.50E-03,1.77E-03
8561,2.63E-03,2.39E-03
8562,2.55E-03,2.16E-03
8563,2.77E-03,2.92E-03
8564,2.68E-03,2.64E-03
8565,2.92E-03,3.58E-03
8566,2.86E-03,3.24E-03
8567,3.24E-03,4.39E-03
8568,3.05E-03,3.96E-03
8569,3.37E-03,5.34E-03
8570,3.43E-03,4.85E-03
8571,3.11E-03,6.41E-03
8572,3.23E-03,5.86E-03
8573,2.88E-03,7.51E-03
8574,3.01E-03,6.97E-03
8575,2.71E-03,8.02E-03
8576,2.36E-03,9.22E-03
8577,2.35E-03,9.24E-03
8578,2.38E-03,9.17E-03
8579,2.36E-03,9.20E-03
8580,2.42E-03,9.11E-03
8581,2.40E-03,9.14E-03
8582,2.44E-03,9.03E-03
8583,2.42E-03,9.07E-03
8584,2.50E-03,8.92E-03
8585,2.47E-03,8.98E-03
8586,2.55E-03,8.81E-03
8587,2.54E-03,8.87E-03
8588,2.62E-03,8.69E-03
8589,2.57E-03,8.75E-03
8590,2.69E-03,8.57E-03
8591,2.67E-03,8.63E-03
8592,2.77E-03,8.46E-03
8593,2.73E-03,8.51E-03
8594,2.83E-03,8.36E-03
8595,2.81E-03,8.41E-03
8596,2.90E-03,8.28E-03
8597,2.85E-03,8.32E-03
8598,2.85E-03,8.22E-03
8599,2.90E-03,8.25E-03
8600,2.79E-03,8.16E-03
8601,2.85E-03,8.19E-03
8602,2.73E-03,8.10E-03
8603,2.76E-03,8.13E-03
8604,2.68E-03,8.03E-03
8605,2.69E-03,8.06E-03
8606,2.60E-03,7.94E-03
8607,2.60E-03,7.98E-03
8608,2.49E-03,7.85E-03
8609,2.53E-03,7.90E-03
8610,2.39E-03,7.73E-03
8611,2.45E-03,7.79E-03
8612,2.29E-03,7.60E-03
8613,2.34E-03,7.67E-03
8614,2.17E-03,7.53E-03
8615,2.83E-03,7.31E-03
8616,2.52E-03,7.26E-03
8617,2.43E-03,7.14E-03
8618,2.57E-03,1.42E-02
8619,2.43E-03,9.22E-03
8620,2.40E-03,9.25E-03
8621,2.71E-03,8.12E-03
8622,2.68E-03,7.94E-03
8623,2.69E-03,8.47E-03
8624,2.73E-03,8.29E-03
8625,2.66E-03,8.82E-03
8626,2.69E-03,8.65E-03
8627,2.58E-03,9.14E-03
8628,2.62E-03,8.99E-03
8629,2.53E-03,9.45E-03
8630,2.52E-03,9.30E-03
8631,2.53E-03,9.73E-03
8632,2.50E-03,9.59E-03
8633,2.60E-03,1.00E-02
8634,2.57E-03,9.87E-03
8635,2.67E-03,1.03E-02
8636,2.63E-03,1.01E-02
8637,2.67E-03,1.05E-02
8638,2.67E-03,1.04E-02
8639,2.61E-03,1.07E-02
8640,2.65E-03,1.06E-02
8641,2.50E-03,1.08E-02
8642,2.51E-03,1.08E-02
8643,2.31E-03,1.09E-02
8644,2.32E-03,1.09E-02
8645,2.16E-03,1.10E-02
8646,2.24E-03,1.10E-02
8647,2.04E-03,1.11E-02
8648,2.26E-03,1.10E-02
8649,2.03E-03,1.12E-02
8650,1.95E-03,1.12E-02
8651,2.09E-03,1.13E-02
8652,2.08E-03,1.12E-02
8653,2.22E-03,1.14E-02
8654,2.19E-03,1.13E-02
8655,2.42E-03,1.14E-02
8656,2.38E-03,1.14E-02
8657,2.59E-03,1.15E-02
8658,2.52E-03,1.14E-02
8659,2.73E-03,1.15E-02
8660,2.66E-03,1.15E-02
8661,2.75E-03,1.14E-02
8662,2.74E-03,1.14E-02
8663,2.75E-03,1.13E-02
8664,2.74E-03,1.14E-02
8665,2.65E-03,1.12E-02
8666,2.67E-03,1.12E-02
8667,2.53E-03,1.10E-02
8668,2.59E-03,1.11E-02
8669,2.43E-03,1.08E-02
8670,2.46E-03,1.09E-02
8671,2.29E-03,1.06E-02
8672,2.33E-03,1.07E-02
8673,2.28E-03,1.04E-02
8674,2.25E-03,1.05E-02
8675,2.35E-03,1.02E-02
8676,2.31E-03,1.03E-02
8677,2.45E-03,1.01E-02
8678,2.23E-03,9.68E-03
8679,2.31E-03,9.79E-03
8680,2.09E-03,9.46E-03
8681,2.14E-03,9.57E-03
8682,2.07E-03,9.27E-03
8683,2.06E-03,9.37E-03
8684,1.94E-03,9.09E-03
8685,2.01E-03,9.18E-03
8686,2.10E-03,8.98E-03
8687,2.38E-03,9.15E-03
8688,2.41E-03,9.02E-03
8689,2.53E-03,9.39E-03
8690,2.49E-03,9.27E-03
8691,2.54E-03,9.62E-03
8692,2.54E-03,9.51E-03
8693,2.52E-03,9.87E-03
8694,2.54E-03,9.74E-03
8695,2.52E-03,1.01E-02
8696,2.51E-03,9.99E-03
8697,2.50E-03,1.04E-02
8698,2.51E-03,1.03E-02
8699,2.48E-03,1.07E-02
8700,2.49E-03,1.05E-02
8701,2.46E-03,1.10E-02
8702,2.48E-03,1.08E-02
8703,2.44E-03,1.13E-02
8704,2.45E-03,1.11E-02
8705,2.41E-03,1.16E-02
8706,2.39E-03,1.14E-02
8707,2.32E-03,1.19E-02
8708,2.36E-03,1.17E-02
8709,2.27E-03,1.23E-02
8710,2.28E-03,1.21E-02
8711,2.21E-03,1.26E-02
8712,2.22E-03,1.24E-02
8713,2.14E-03,1.30E-02
8714,2.16E-03,1.28E-02
8715,2.16E-03,1.34E-02
8716,2.16E-03,1.32E-02
8717,2.17E-03,1.39E-02
8718,2.14E-03,1.37E-02
8719,2.01E-03,1.43E-02
8720,2.01E-03,1.41E-02
8721,2.31E-03,1.48E-02
8722,2.22E-03,1.46E-02
8723,2.28E-03,1.54E-02
8724,2.28E-03,1.51E-02
8725,2.20E-03,1.59E-02
8726,2.26E-03,1.57E-02
8727,2.23E-03,1.65E-02
8728,2.09E-03,1.62E-02
8729,2.28E-03,1.71E-02
8730,2.24E-03,1.68E-02
8731,2.30E-03,1.77E-02
8732,2.29E-03,1.74E-02
8733,2.24E-03,1.84E-02
8734,2.27E-03,1.81E-02
8735,2.26E-03,1.90E-02
8736,2.27E-03,1.87E-02
8737,2.22E-03,1.96E-02
8738,2.26E-03,1.93E-02
8739,2.22E-03,2.02E-02
8740,2.26E-03,1.99E-02
8741,2.23E-03,2.08E-02
8742,2.21E-03,2.05E-02
8743,2.31E-03,2.13E-02
8744,2.25E-03,2.10E-02
8745,2.38E-03,2.18E-02
8746,2.35E-03,2.15E-02
8747,2.41E-03,2.22E-02
8748,2.39E-03,2.20E-02
8749,2.44E-03,2.26E-02
8750,2.42E-03,2.24E-02
8751,2.55E-03,2.29E-02
8752,2.52E-03,2.28E-02
8753,2.64E-03,2.32E-02
8754,2.60E-03,2.31E-02
8755,2.73E-03,2.35E-02
8756,2.71E-03,2.34E-02
8757,2.80E-03,2.38E-02
8758,2.79E-03,2.36E-02
8759,2.89E-03,2.40E-02
8760,2.90E-03,2.39E-02
8761,3.05E-03,2.43E-02
8762,3.03E-03,2.41E-02
8763,3.21E-03,2.45E-02
8764,3.16E-03,2.44E-02
8765,3.20E-03,2.49E-02
8766,3.28E-03,2.47E-02
8767,3.06E-03,2.53E-02
8768,3.11E-03,2.51E-02
8769,2.93E-03,2.58E-02
8770,2.96E-03,2.55E-02
8771,2.83E-03,2.63E-02
8772,2.83E-03,2.60E-02
8773,2.73E-03,2.68E-02
8774,2.76E-03,2.65E-02
8775,2.66E-03,2.73E-02
8776,2.70E-03,2.70E-02
8777,2.60E-03,2.78E-02
8778,2.62E-03,2.75E-02
8779,2.53E-03,2.83E-02
8780,2.56E-03,2.80E-02
8781,2.48E-03,2.88E-02
8782,2.51E-03,2.85E-02
8783,2.46E-03,2.93E-02
8784,2.47E-03,2.91E-02
8785,2.43E-03,2.98E-02
8786,2.43E-03,2.96E-02
8787,2.43E-03,3.03E-02
8788,2.44E-03,3.00E-02
8789,2.44E-03,3.07E-02
8790,2.43E-03,3.05E-02
8791,2.44E-03,3.11E-02
8792,2.42E-03,3.09E-02
8793,2.45E-03,3.13E-02
8794,2.43E-03,3.12E-02
8795,2.47E-03,3.15E-02
8796,2.45E-03,3.14E-02
8797,2.50E-03,3.15E-02
8798,2.47E-03,3.15E-02
8799,2.55E-03,3.14E-02
8800,2.54E-03,3.15E-02
8801,2.57E-03,3.11E-02
8802,2.56E-03,3.12E-02
8803,2.57E-03,3.06E-02
8804,2.55E-03,3.09E-02
8805,2.59E-03,2.99E-02
8806,2.58E-03,3.03E-02
8807,2.57E-03,2.90E-02
8808,2.57E-03,2.95E-02
8809,2.58E-03,2.78E-02
8810,2.54E-03,2.84E-02
8811,2.64E-03,2.61E-02
8812,2.61E-03,2.70E-02
8813,2.69E-03,2.40E-02
8814,2.68E-03,2.51E-02
8815,2.69E-03,2.17E-02
8816,2.69E-03,2.30E-02
8817,1.72E-03,5.71E-04
8818,1.95E-03,5.49E-04
8819,1.63E-03,6.19E-04
8820,1.50E-03,5.91E-04
8821,1.71E-03,6.90E-04
8822,1.66E-03,6.53E-04
8823,1.78E-03,7.68E-04
8824,1.78E-03,7.27E-04
8825,1.79E-03,8.61E-04
8826,1.78E-03,8.13E-04
8827,1.87E-03,9.70E-04
8828,1.86E-03,9.13E-04
8829,1.98E-03,1.10E-03
8830,1.94E-03,1.03E-03
8831,1.93E-03,1.16E-03
8832,2.25E-03,1.69E-03
8833,2.34E-03,1.59E-03
8834,2.12E-03,1.88E-03
8835,2.20E-03,1.79E-03
8836,2.03E-03,2.08E-03
8837,2.05E-03,1.98E-03
8838,2.04E-03,2.28E-03
8839,2.01E-03,2.18E-03
8840,2.03E-03,2.50E-03
8841,2.04E-03,2.39E-03
8842,2.06E-03,2.72E-03
8843,2.03E-03,2.61E-03
8844,2.08E-03,2.96E-03
8845,2.06E-03,2.84E-03
8846,2.09E-03,3.20E-03
8847,2.08E-03,3.08E-03
8848,2.39E-03,3.47E-03
8849,2.15E-03,3.33E-03
8850,2.76E-03,3.62E-03
8851,2.92E-03,3.98E-03
8852,3.19E-03,3.82E-03
8853,2.36E-03,4.29E-03
8854,2.34E-03,4.15E-03
8855,2.28E-03,4.60E-03
8856,2.30E-03,4.45E-03
8857,2.26E-03,4.90E-03
8858,2.27E-03,4.75E-03
8859,2.29E-03,5.20E-03
8860,2.28E-03,5.05E-03
8861,2.32E-03,5.50E-03
8862,2.32E-03,5.35E-03
8863,2.36E-03,5.79E-03
8864,2.34E-03,5.64E-03
8865,2.37E-03,6.08E-03
8866,2.39E-03,5.94E-03
8867,2.37E-03,6.36E-03
8868,2.36E-03,6.22E-03
8869,2.37E-03,6.63E-03
8870,2.35E-03,6.50E-03
8871,2.38E-03,6.88E-03
8872,2.37E-03,6.76E-03
8873,2.41E-03,7.11E-03
8874,2.39E-03,7.00E-03
8875,2.41E-03,7.32E-03
8876,2.40E-03,7.22E-03
8877,2.39E-03,7.51E-03
8878,2.41E-03,7.41E-03
8879,2.42E-03,7.69E-03
8880,2.42E-03,7.60E-03
8881,2.39E-03,7.86E-03
8882,2.40E-03,7.77E-03
8883,2.33E-03,8.03E-03
8884,2.37E-03,7.95E-03
8885,2.30E-03,8.22E-03
8886,2.32E-03,8.13E-03
8887,2.32E-03,8.42E-03
8888,2.32E-03,8.32E-03
8889,2.36E-03,8.62E-03
8890,2.34E-03,8.52E-03
8891,2.42E-03,8.82E-03
8892,2.38E-03,8.72E-03
8893,2.47E-03,9.00E-03
8894,2.43E-03,8.91E-03
8895,2.24E-03,1.83E-02
8896,2.64E-03,7.54E-03
8897,2.60E-03,7.40E-03
8898,2.49E-03,9.08E-03
8899,2.44E-03,9.19E-03
8900,2.50E-03,6.87E-03
8901,2.50E-03,6.72E-03
8902,2.54E-03,7.58E-03
8903,2.38E-03,1.03E-02
8904,2.39E-03,9.73E-03
8905,2.55E-03,8.70E-03
8906,2.50E-03,9.35E-03
8907,2.69E-03,1.10E-02
8908,2.66E-03,1.13E-02
8909,2.63E-03,1.14E-02
8910,2.66E-03,1.28E-02
8911,2.46E-03,1.19E-02
8912,2.39E-03,1.12E-02
8913,2.55E-03,1.41E-02
8914,2.45E-03,8.66E-03
8915,1.53E-03,7.54E-03
8916,2.14E-03,9.83E-03
8917,2.04E-03,7.60E-03
8918,1.61E-03,7.41E-03
8919,2.75E-03,7.04E-03
8920,2.17E-03,6.93E-03
8921,2.81E-03,6.92E-03
8922,1.78E-03,6.86E-03
8923,2.56E-03,1.37E-02
8924,2.58E-03,1.40E-02
8925,2.62E-03,1.39E-02
8926,2.35E-03,9.52E-03
8927,2.37E-03,9.52E-03
8928,2.65E-03,7.70E-03
8929,2.12E-03,1.10E-02
8930,2.70E-03,9.80E-03
8931,2.51E-03,2.03E-02
8932,2.36E-03,1.35E-03
8933,2.73E-03,1.45E-03
8934,1.71E-03,9.32E-03
8935,1.65E-03,1.00E-02
8936,2.49E-03,7.12E-03
8937,2.51E-03,6.80E-03
8938,2.54E-03,7.43E-03
8939,2.43E-03,9.31E-03
8940,2.57E-03,8.49E-03
8941,2.49E-03,9.82E-03
8942,2.50E-03,1.21E-02
8943,2.34E-03,1.05E-02
8944,2.38E-03,1.08E-02
8945,2.54E-03,1.38E-02
8946,1.78E-03,4.91E-04
8947,1.91E-03,4.71E-04
8948,2.27E-03,7.27E-03
8949,2.03E-03,7.15E-03
8950,2.21E-03,6.94E-03
8951,2.38E-03,6.86E-03
8952,2.54E-03,1.31E-02
8953,2.50E-03,7.42E-03
8954,2.51E-03,6.89E-03
8955,2.47E-03,8.90E-03
8956,2.58E-03,8.28E-03
8957,2.50E-03,1.03E-02
8958,2.48E-03,1.24E-02
8959,2.53E-03,1.35E-02
8960,2.57E-03,1.25E-02
8961,2.50E-03,7.75E-03
8962,2.51E-03,6.99E-03
8963,2.52E-03,8.50E-03
8964,2.52E-03,1.08E-02
8965,2.47E-03,1.27E-02
8966,2.49E-03,1.32E-02
8967,2.57E-03,1.19E-02
8968,2.55E-03,8.11E-03
8969,2.51E-03,7.10E-03
8970,2.54E-03,1.14E-02
8971,2.46E-03,1.29E-02
8972,2.51E-03,7.22E-03
8973,2.51E-03,7.35E-03
8974,2.52E-03,1.06E-02
8975,2.30E-03,1.04E-02
8976,2.47E-03,9.14E-03
8977,2.50E-03,6.79E-03
8978,2.59E-03,8.09E-03
8979,2.57E-03,7.82E-03
8980,2.38E-03,1.00E-02
8981,2.50E-03,9.02E-03
8982,2.69E-03,1.12E-02
8983,2.63E-03,1.15E-02
8984,2.63E-03,1.15E-02
8985,2.66E-03,1.14E-02
8986,2.67E-03,1.15E-02
8987,2.76E-03,1.11E-02
8988,2.73E-03,1.13E-02
8989,2.91E-03,1.05E-02
8990,2.84E-03,1.08E-02
8991,3.01E-03,9.81E-03
8992,2.98E-03,1.02E-02
8993,3.03E-03,9.32E-03
8994,3.04E-03,9.53E-03
8995,2.97E-03,9.21E-03
8996,2.99E-03,9.21E-03
8997,2.86E-03,9.65E-03
8998,2.88E-03,9.35E-03
8999,2.76E-03,1.08E-02
9000,2.82E-03,1.01E-02
9001,2.70E-03,1.17E-02
9002,2.41E-03,1.16E-02
9003,2.58E-03,1.40E-02
9004,2.63E-03,1.11E-02
9005,2.57E-03,1.08E-02
9006,2.53E-03,5.66E-04
9007,2.32E-03,4.88E-04
9008,2.47E-03,5.27E-04
9009,2.63E-03,6.55E-04
9010,2.60E-03,6.08E-04
9011,2.66E-03,7.62E-04
9012,2.65E-03,7.06E-04
9013,2.64E-03,8.98E-04
9014,2.67E-03,8.26E-04
9015,2.57E-03,1.07E-03
9016,2.59E-03,9.81E-04
9017,2.48E-03,1.30E-03
9018,2.50E-03,1.18E-03
9019,2.43E-03,1.58E-03
9020,2.45E-03,1.43E-03
9021,2.50E-03,1.93E-03
9022,2.48E-03,1.74E-03
9023,2.61E-03,2.36E-03
9024,2.54E-03,2.13E-03
9025,2.75E-03,2.90E-03
9026,2.66E-03,2.61E-03
9027,2.90E-03,3.56E-03
9028,2.87E-03,3.21E-03
9029,3.14E-03,4.37E-03
9030,3.02E-03,3.94E-03
9031,3.21E-03,5.31E-03
9032,3.16E-03,4.83E-03
9033,3.03E-03,6.40E-03
9034,3.13E-03,5.84E-03
9035,2.85E-03,7.60E-03
9036,2.96E-03,6.99E-03
9037,2.68E-03,8.15E-03
9038,2.37E-03,9.50E-03
9039,2.35E-03,9.51E-03
9040,2.40E-03,9.47E-03
9041,2.37E-03,9.49E-03
9042,2.41E-03,9.42E-03
9043,2.40E-03,9.45E-03
9044,2.43E-03,9.35E-03
9045,2.42E-03,9.39E-03
9046,2.49E-03,9.26E-03
9047,2.46E-03,9.31E-03
9048,2.54E-03,9.14E-03
9049,2.53E-03,9.20E-03
9050,2.63E-03,9.02E-03
9051,2.55E-03,9.08E-03
9052,2.67E-03,8.90E-03
9053,2.65E-03,8.96E-03
9054,2.75E-03,8.78E-03
9055,2.72E-03,8.84E-03
9056,2.82E-03,8.67E-03
9057,2.78E-03,8.73E-03
9058,2.87E-03,8.58E-03
9059,2.85E-03,8.62E-03
9060,2.83E-03,8.50E-03
9061,2.87E-03,8.54E-03
9062,2.76E-03,8.42E-03
9063,2.80E-03,8.46E-03
9064,2.72E-03,8.33E-03
9065,2.75E-03,8.38E-03
9066,2.66E-03,8.24E-03
9067,2.67E-03,8.29E-03
9068,2.56E-03,8.13E-03
9069,2.60E-03,8.19E-03
9070,2.46E-03,8.02E-03
9071,2.53E-03,8.08E-03
9072,2.35E-03,7.89E-03
9073,2.44E-03,7.96E-03
9074,2.27E-03,7.74E-03
9075,2.32E-03,7.82E-03
9076,2.19E-03,7.67E-03
9077,2.45E-03,7.34E-03
9078,2.04E-03,7.04E-03
9079,1.62E-03,6.86E-03
9080,2.47E-03,7.18E-03
9081,2.37E-03,7.06E-03
9082,2.58E-03,1.38E-02
9083,2.43E-03,9.47E-03
9084,2.40E-03,9.50E-03
9085,2.68E-03,8.04E-03
9086,2.65E-03,7.86E-03
9087,2.67E-03,8.39E-03
9088,2.70E-03,8.21E-03
9089,2.64E-03,8.73E-03
9090,2.67E-03,8.56E-03
9091,2.56E-03,9.05E-03
9092,2.61E-03,8.89E-03
9093,2.50E-03,9.34E-03
9094,2.53E-03,9.20E-03
9095,2.50E-03,9.63E-03
9096,2.49E-03,9.49E-03
9097,2.59E-03,9.90E-03
9098,2.57E-03,9.76E-03
9099,2.67E-03,1.02E-02
9100,2.63E-03,1.00E-02
9101,2.66E-03,1.04E-02
9102,2.67E-03,1.03E-02
9103,2.63E-03,1.06E-02
9104,2.64E-03,1.05E-02
9105,2.49E-03,1.07E-02
9106,2.51E-03,1.06E-02
9107,2.31E-03,1.08E-02
9108,2.35E-03,1.08E-02
9109,2.15E-03,1.09E-02
9110,2.19E-03,1.09E-02
9111,1.86E-03,1.09E-02
9112,2.04E-03,1.09E-02
9113,1.71E-03,1.09E-02
9114,2.07E-03,1.11E-02
9115,2.08E-03,1.10E-02
9116,2.11E-03,1.12E-02
9117,2.11E-03,1.11E-02
9118,2.25E-03,1.13E-02
9119,2.18E-03,1.12E-02
9120,2.43E-03,1.13E-02
9121,2.34E-03,1.13E-02
9122,2.60E-03,1.13E-02
9123,2.52E-03,1.13E-02
9124,2.71E-03,1.13E-02
9125,2.65E-03,1.13E-02
9126,2.75E-03,1.13E-02
9127,2.74E-03,1.13E-02
9128,2.73E-03,1.12E-02
9129,2.74E-03,1.13E-02
9130,2.66E-03,1.11E-02
9131,2.68E-03,1.11E-02
9132,2.54E-03,1.09E-02
9133,2.58E-03,1.10E-02
9134,2.43E-03,1.07E-02
9135,2.47E-03,1.08E-02
9136,2.32E-03,1.05E-02
9137,2.33E-03,1.06E-02
9138,2.31E-03,1.03E-02
9139,2.28E-03,1.04E-02
9140,2.37E-03,1.01E-02
9141,2.33E-03,1.02E-02
9142,2.41E-03,1.00E-02
9143,2.20E-03,9.58E-03
9144,2.38E-03,9.69E-03
9145,2.09E-03,9.36E-03
9146,2.19E-03,9.46E-03
9147,2.07E-03,9.16E-03
9148,2.08E-03,9.25E-03
9149,2.05E-03,8.96E-03
9150,2.07E-03,9.06E-03
9151,1.87E-03,8.79E-03
9152,1.86E-03,8.87E-03
9153,2.37E-03,9.03E-03
9154,2.22E-03,8.90E-03
9155,2.45E-03,9.26E-03
9156,2.42E-03,9.14E-03
9157,2.49E-03,9.49E-03
9158,2.51E-03,9.37E-03
9159,2.51E-03,9.73E-03
9160,2.48E-03,9.61E-03
9161,2.51E-03,9.99E-03
9162,2.50E-03,9.86E-03
9163,2.50E-03,1.03E-02
9164,2.50E-03,1.01E-02
9165,2.49E-03,1.05E-02
9166,2.51E-03,1.04E-02
9167,2.47E-03,1.08E-02
9168,2.48E-03,1.07E-02
9169,2.45E-03,1.11E-02
9170,2.45E-03,1.10E-02
9171,2.40E-03,1.14E-02
9172,2.41E-03,1.13E-02
9173,2.35E-03,1.18E-02
9174,2.36E-03,1.16E-02
9175,2.28E-03,1.21E-02
9176,2.31E-03,1.19E-02
9177,2.23E-03,1.25E-02
9178,2.23E-03,1.23E-02
9179,2.16E-03,1.29E-02
9180,2.19E-03,1.27E-02
9181,2.16E-03,1.33E-02
9182,2.16E-03,1.31E-02
9183,2.15E-03,1.37E-02
9184,2.16E-03,1.35E-02
9185,2.14E-03,1.42E-02
9186,2.14E-03,1.40E-02
9187,2.23E-03,1.47E-02
9188,2.19E-03,1.45E-02
9189,2.26E-03,1.53E-02
9190,2.26E-03,1.50E-02
9191,2.22E-03,1.58E-02
9192,2.22E-03,1.56E-02
9193,2.24E-03,1.64E-02
9194,2.19E-03,1.61E-02
9195,2.28E-03,1.71E-02
9196,2.28E-03,1.68E-02
9197,2.31E-03,1.77E-02
9198,2.29E-03,1.74E-02
9199,2.29E-03,1.84E-02
9200,2.28E-03,1.80E-02
9201,2.26E-03,1.90E-02
9202,2.29E-03,1.87E-02
9203,2.25E-03,1.97E-02
9204,2.28E-03,1.93E-02
9205,2.24E-03,2.03E-02
9206,2.27E-03,2.00E-02
9207,2.26E-03,2.09E-02
9208,2.25E-03,2.06E-02
9209,2.30E-03,2.15E-02
9210,2.27E-03,2.12E-02
9211,2.35E-03,2.20E-02
9212,2.32E-03,2.17E-02
9213,2.40E-03,2.25E-02
9214,2.37E-03,2.22E-02
9215,2.45E-03,2.29E-02
9216,2.42E-03,2.27E-02
9217,2.53E-03,2.32E-02
9218,2.51E-03,2.31E-02
9219,2.62E-03,2.36E-02
9220,2.60E-03,2.34E-02
9221,2.71E-03,2.39E-02
9222,2.71E-03,2.37E-02
9223,2.78E-03,2.42E-02
9224,2.77E-03,2.40E-02
9225,2.87E-03,2.45E-02
9226,2.88E-03,2.44E-02
9227,3.00E-03,2.48E-02
9228,2.98E-03,2.47E-02
9229,3.13E-03,2.51E-02
9230,3.10E-03,2.50E-02
9231,3.13E-03,2.55E-02
9232,3.15E-03,2.53E-02
9233,3.04E-03,2.60E-02
9234,3.07E-03,2.57E-02
9235,2.91E-03,2.65E-02
9236,2.94E-03,2.63E-02
9237,2.81E-03,2.71E-02
9238,2.80E-03,2.68E-02
9239,2.71E-03,2.76E-02
9240,2.76E-03,2.73E-02
9241,2.63E-03,2.82E-02
9242,2.67E-03,2.79E-02
9243,2.59E-03,2.87E-02
9244,2.60E-03,2.85E-02
9245,2.53E-03,2.93E-02
9246,2.54E-03,2.90E-02
9247,2.48E-03,2.99E-02
9248,2.50E-03,2.96E-02
9249,2.46E-03,3.04E-02
9250,2.48E-03,3.02E-02
9251,2.43E-03,3.10E-02
9252,2.43E-03,3.07E-02
9253,2.43E-03,3.16E-02
9254,2.41E-03,3.13E-02
9255,2.41E-03,3.21E-02
9256,2.41E-03,3.18E-02
9257,2.44E-03,3.25E-02
9258,2.41E-03,3.23E-02
9259,2.45E-03,3.29E-02
9260,2.43E-03,3.27E-02
9261,2.47E-03,3.31E-02
9262,2.45E-03,3.30E-02
9263,2.50E-03,3.32E-02
9264,2.47E-03,3.32E-02
9265,2.54E-03,3.31E-02
9266,2.53E-03,3.32E-02
9267,2.57E-03,3.29E-02
9268,2.54E-03,3.30E-02
9269,2.58E-03,3.25E-02
9270,2.56E-03,3.27E-02
9271,2.60E-03,3.18E-02
9272,2.59E-03,3.22E-02
9273,2.57E-03,3.10E-02
9274,2.57E-03,3.14E-02
9275,2.55E-03,2.98E-02
9276,2.56E-03,3.04E-02
9277,2.60E-03,2.83E-02
9278,2.58E-03,2.91E-02
9279,2.62E-03,2.64E-02
9280,2.62E-03,2.74E-02
9281,2.58E-03,2.40E-02
9282,2.53E-03,2.53E-02
9283,2.39E-03,1.87E-02
9284,2.52E-03,2.09E-02
9285,2.55E-03,2.25E-02
9286,2.00E-03,1.47E-02
9287,2.22E-03,1.67E-02
9288,1.91E-03,5.39E-04
9289,1.89E-03,5.14E-04
9290,1.76E-03,5.91E-04
9291,1.76E-03,5.63E-04
9292,1.78E-03,6.61E-04
9293,1.75E-03,6.24E-04
9294,1.82E-03,7.40E-04
9295,1.80E-03,7.00E-04
9296,1.85E-03,8.31E-04
9297,1.84E-03,7.83E-04
9298,1.91E-03,9.36E-04
9299,1.90E-03,8.82E-04
9300,1.97E-03,1.05E-03
9301,1.96E-03,9.94E-04
9302,2.22E-03,1.19E-03
9303,1.92E-03,1.12E-03
9304,1.99E-03,1.27E-03
9305,2.33E-03,1.64E-03
9306,2.43E-03,1.55E-03
9307,2.20E-03,1.83E-03
9308,2.27E-03,1.74E-03
9309,2.07E-03,2.03E-03
9310,2.13E-03,1.93E-03
9311,2.10E-03,2.23E-03
9312,2.07E-03,2.13E-03
9313,2.07E-03,2.45E-03
9314,2.09E-03,2.34E-03
9315,2.09E-03,2.67E-03
9316,2.08E-03,2.56E-03
9317,2.11E-03,2.90E-03
9318,2.10E-03,2.78E-03
9319,2.16E-03,3.14E-03
9320,2.13E-03,3.02E-03
9321,2.30E-03,3.41E-03
9322,2.21E-03,3.27E-03
9323,2.11E-03,3.67E-03
9324,2.16E-03,3.53E-03
9325,2.48E-03,3.93E-03
9326,2.23E-03,3.80E-03
9327,2.34E-03,4.24E-03
9328,2.39E-03,4.09E-03
9329,2.30E-03,4.55E-03
9330,2.32E-03,4.39E-03
9331,2.29E-03,4.85E-03
9332,2.29E-03,4.70E-03
9333,2.32E-03,5.15E-03
9334,2.30E-03,5.00E-03
9335,2.34E-03,5.46E-03
9336,2.32E-03,5.30E-03
9337,2.37E-03,5.76E-03
9338,2.34E-03,5.61E-03
9339,2.38E-03,6.06E-03
9340,2.37E-03,5.91E-03
9341,2.37E-03,6.35E-03
9342,2.37E-03,6.20E-03
9343,2.39E-03,6.63E-03
9344,2.38E-03,6.49E-03
9345,2.38E-03,6.90E-03
9346,2.38E-03,6.77E-03
9347,2.41E-03,7.14E-03
9348,2.40E-03,7.02E-03
9349,2.43E-03,7.36E-03
9350,2.41E-03,7.26E-03
9351,2.41E-03,7.57E-03
9352,2.42E-03,7.47E-03
9353,2.43E-03,7.76E-03
9354,2.44E-03,7.66E-03
9355,2.38E-03,7.94E-03
9356,2.40E-03,7.85E-03
9357,2.36E-03,8.14E-03
9358,2.38E-03,8.04E-03
9359,2.32E-03,8.34E-03
9360,2.33E-03,8.23E-03
9361,2.31E-03,8.55E-03
9362,2.32E-03,8.45E-03
9363,2.38E-03,8.78E-03
9364,2.34E-03,8.67E-03
9365,2.42E-03,9.00E-03
9366,2.38E-03,8.89E-03
9367,2.49E-03,9.21E-03
9368,2.44E-03,9.11E-03
9369,2.33E-03,1.19E-02
9370,2.13E-03,1.30E-02
9371,2.62E-03,7.46E-03
9372,2.59E-03,7.32E-03
9373,2.18E-03,9.71E-03
9374,2.50E-03,9.30E-03
9375,2.46E-03,9.43E-03
9376,2.50E-03,7.03E-03
9377,2.50E-03,6.87E-03
9378,2.56E-03,7.66E-03
9379,2.36E-03,1.02E-02
9380,2.39E-03,9.60E-03
9381,2.54E-03,8.79E-03
9382,2.50E-03,9.46E-03
9383,2.65E-03,1.14E-02
9384,2.62E-03,1.18E-02
9385,2.62E-03,1.19E-02
9386,2.50E-03,1.09E-02
9387,2.44E-03,1.18E-02
9388,2.39E-03,1.11E-02
9389,2.55E-03,1.37E-02
9390,2.01E-03,4.54E-04
9391,2.46E-03,8.87E-03
9392,1.94E-03,7.31E-03
9393,2.29E-03,7.13E-03
9394,2.48E-03,6.79E-03
9395,2.58E-03,1.32E-02
9396,2.61E-03,1.35E-02
9397,2.63E-03,1.34E-02
9398,2.36E-03,9.80E-03
9399,2.38E-03,9.78E-03
9400,2.63E-03,7.62E-03
9401,1.84E-03,1.08E-02
9402,1.42E-03,1.08E-02
9403,2.66E-03,9.70E-03
9404,1.81E-03,8.71E-03
9405,2.43E-03,1.33E-03
9406,2.54E-03,1.41E-03
9407,2.50E-03,7.31E-03
9408,2.51E-03,6.96E-03
9409,2.54E-03,7.50E-03
9410,2.44E-03,9.18E-03
9411,2.56E-03,8.58E-03
9412,2.49E-03,9.93E-03
9413,2.49E-03,1.20E-02
9414,2.34E-03,1.04E-02
9415,2.37E-03,1.07E-02
9416,2.55E-03,1.34E-02
9417,2.07E-03,6.89E-03
9418,2.05E-03,6.83E-03
9419,2.56E-03,1.26E-02
9420,2.07E-03,9.83E-03
9421,2.11E-03,9.70E-03
9422,1.97E-03,8.63E-03
9423,2.16E-03,8.67E-03
9424,2.04E-03,8.54E-03
9425,2.41E-03,1.68E-02
9426,2.50E-03,1.90E-02
9427,2.50E-03,7.63E-03
9428,2.51E-03,7.06E-03
9429,2.47E-03,8.77E-03
9430,2.60E-03,8.37E-03
9431,2.52E-03,1.04E-02
9432,2.47E-03,1.23E-02
9433,2.52E-03,1.31E-02
9434,2.59E-03,1.21E-02
9435,2.51E-03,7.98E-03
9436,2.51E-03,7.17E-03
9437,2.54E-03,8.37E-03
9438,2.53E-03,1.10E-02
9439,2.46E-03,1.25E-02
9440,2.48E-03,1.28E-02
9441,2.57E-03,1.15E-02
9442,2.50E-03,7.29E-03
9443,2.50E-03,7.43E-03
9444,2.53E-03,1.08E-02
9445,2.29E-03,1.04E-02
9446,2.48E-03,9.37E-03
9447,2.50E-03,6.95E-03
9448,2.59E-03,8.17E-03
9449,2.58E-03,7.90E-03
9450,2.38E-03,9.89E-03
9451,2.50E-03,9.12E-03
9452,2.64E-03,1.16E-02
9453,2.62E-03,1.21E-02
9454,2.61E-03,1.20E-02
9455,2.67E-03,1.21E-02
9456,2.68E-03,1.22E-02
9457,2.74E-03,1.19E-02
9458,2.72E-03,1.20E-02
9459,2.87E-03,1.13E-02
9460,2.79E-03,1.16E-02
9461,2.97E-03,1.04E-02
9462,2.95E-03,1.08E-02
9463,2.98E-03,9.66E-03
9464,3.00E-03,1.00E-02
9465,2.93E-03,9.10E-03
9466,2.95E-03,9.34E-03
9467,2.82E-03,8.96E-03
9468,2.84E-03,8.97E-03
9469,2.66E-03,9.48E-03
9470,2.75E-03,9.16E-03
9471,2.64E-03,1.01E-02
9472,2.44E-03,1.14E-02
9473,2.57E-03,1.36E-02
9474,2.63E-03,1.14E-02
9475,2.60E-03,1.10E-02
9476,2.28E-03,4.75E-04
9477,2.11E-03,4.21E-04
9478,2.16E-03,4.05E-04
9479,2.23E-03,4.39E-04
9480,2.52E-03,5.53E-04
9481,2.40E-03,5.12E-04
9482,2.60E-03,6.42E-04
9483,2.54E-03,5.96E-04
9484,2.64E-03,7.50E-04
9485,2.61E-03,6.93E-04
9486,2.63E-03,8.87E-04
9487,2.65E-03,8.14E-04
9488,2.54E-03,1.06E-03
9489,2.59E-03,9.70E-04
9490,2.45E-03,1.28E-03
9491,2.50E-03,1.17E-03
9492,2.42E-03,1.56E-03
9493,2.42E-03,1.42E-03
9494,2.50E-03,1.91E-03
9495,2.45E-03,1.73E-03
9496,2.59E-03,2.34E-03
9497,2.51E-03,2.11E-03
9498,2.73E-03,2.87E-03
9499,2.63E-03,2.59E-03
9500,2.88E-03,3.53E-03
9501,2.79E-03,3.18E-03
9502,2.99E-03,4.33E-03
9503,2.96E-03,3.91E-03
9504,3.06E-03,5.28E-03
9505,3.05E-03,4.79E-03
9506,2.93E-03,6.41E-03
9507,3.04E-03,5.82E-03
9508,2.85E-03,7.68E-03
9509,2.88E-03,7.02E-03
9510,2.84E-03,8.36E-03
9511,2.36E-03,9.79E-03
9512,2.35E-03,9.80E-03
9513,2.40E-03,9.78E-03
9514,2.36E-03,9.79E-03
9515,2.42E-03,9.75E-03
9516,2.41E-03,9.77E-03
9517,2.42E-03,9.69E-03
9518,2.43E-03,9.72E-03
9519,2.48E-03,9.61E-03
9520,2.46E-03,9.65E-03
9521,2.54E-03,9.50E-03
9522,2.51E-03,9.56E-03
9523,2.60E-03,9.38E-03
9524,2.56E-03,9.44E-03
9525,2.64E-03,9.26E-03
9526,2.63E-03,9.32E-03
9527,2.73E-03,9.14E-03
9528,2.72E-03,9.20E-03
9529,2.81E-03,9.02E-03
9530,2.76E-03,9.07E-03
9531,2.86E-03,8.91E-03
9532,2.83E-03,8.96E-03
9533,2.81E-03,8.81E-03
9534,2.82E-03,8.86E-03
9535,2.74E-03,8.71E-03
9536,2.77E-03,8.76E-03
9537,2.70E-03,8.60E-03
9538,2.72E-03,8.65E-03
9539,2.62E-03,8.49E-03
9540,2.65E-03,8.55E-03
9541,2.55E-03,8.37E-03
9542,2.60E-03,8.43E-03
9543,2.47E-03,8.23E-03
9544,2.50E-03,8.30E-03
9545,2.35E-03,8.08E-03
9546,2.42E-03,8.15E-03
9547,2.27E-03,7.92E-03
9548,2.31E-03,8.00E-03
9549,2.07E-03,7.76E-03
9550,2.18E-03,7.84E-03
9551,1.82E-03,7.48E-03
9552,2.07E-03,7.65E-03
9553,1.92E-03,7.42E-03
9554,2.01E-03,6.89E-03
9555,2.45E-03,7.05E-03
9556,1.83E-03,6.78E-03
9557,1.86E-03,6.75E-03
9558,2.08E-03,6.81E-03
9559,1.50E-03,6.80E-03
9560,2.45E-03,7.10E-03
9561,2.44E-03,6.97E-03
9562,2.61E-03,1.33E-02
9563,2.42E-03,9.72E-03
9564,2.40E-03,9.76E-03
9565,2.65E-03,7.95E-03
9566,2.63E-03,7.78E-03
9567,2.66E-03,8.30E-03
9568,2.68E-03,8.13E-03
9569,2.63E-03,8.64E-03
9570,2.64E-03,8.47E-03
9571,2.56E-03,8.95E-03
9572,2.58E-03,8.80E-03
9573,2.50E-03,9.24E-03
9574,2.51E-03,9.10E-03
9575,2.49E-03,9.52E-03
9576,2.50E-03,9.38E-03
9577,2.60E-03,9.79E-03
9578,2.56E-03,9.65E-03
9579,2.66E-03,1.00E-02
9580,2.62E-03,9.92E-03
9581,2.66E-03,1.03E-02
9582,2.66E-03,1.02E-02
9583,2.59E-03,1.04E-02
9584,2.64E-03,1.04E-02
9585,2.44E-03,1.06E-02
9586,2.54E-03,1.05E-02
9587,2.33E-03,1.07E-02
9588,2.39E-03,1.06E-02
9589,2.13E-03,1.08E-02
9590,2.15E-03,1.07E-02
9591,2.02E-03,1.08E-02
9592,2.06E-03,1.10E-02
9593,1.64E-03,1.09E-02
9594,2.13E-03,1.09E-02
9595,2.10E-03,1.11E-02
9596,2.08E-03,1.10E-02
9597,2.25E-03,1.11E-02
9598,2.20E-03,1.11E-02
9599,2.43E-03,1.12E-02
9600,2.34E-03,1.12E-02
9601,2.58E-03,1.12E-02
9602,2.54E-03,1.12E-02
9603,2.68E-03,1.12E-02
9604,2.65E-03,1.12E-02
9605,2.72E-03,1.12E-02
9606,2.72E-03,1.12E-02
9607,2.70E-03,1.11E-02
9608,2.71E-03,1.11E-02
9609,2.66E-03,1.10E-02
9610,2.67E-03,1.10E-02
9611,2.55E-03,1.08E-02
9612,2.58E-03,1.09E-02
9613,2.42E-03,1.06E-02
9614,2.48E-03,1.07E-02
9615,2.33E-03,1.05E-02
9616,2.34E-03,1.06E-02
9617,2.31E-03,1.02E-02
9618,2.29E-03,1.03E-02
9619,2.41E-03,1.00E-02
9620,2.36E-03,1.01E-02
9621,2.46E-03,9.93E-03
9622,2.22E-03,9.47E-03
9623,2.41E-03,9.58E-03
9624,2.16E-03,9.25E-03
9625,2.21E-03,9.36E-03
9626,2.10E-03,9.04E-03
9627,2.11E-03,9.14E-03
9628,2.04E-03,8.84E-03
9629,2.10E-03,8.94E-03
9630,1.98E-03,8.66E-03
9631,1.96E-03,8.75E-03
9632,1.85E-03,8.49E-03
9633,1.87E-03,8.57E-03
9634,2.29E-03,8.90E-03
9635,2.23E-03,8.78E-03
9636,2.39E-03,9.12E-03
9637,2.38E-03,9.01E-03
9638,2.47E-03,9.35E-03
9639,2.44E-03,9.24E-03
9640,2.49E-03,9.60E-03
9641,2.48E-03,9.47E-03
9642,2.50E-03,9.85E-03
9643,2.49E-03,9.72E-03
9644,2.50E-03,1.01E-02
9645,2.49E-03,9.98E-03
9646,2.48E-03,1.04E-02
9647,2.50E-03,1.03E-02
9648,2.47E-03,1.07E-02
9649,2.49E-03,1.05E-02
9650,2.45E-03,1.10E-02
9651,2.45E-03,1.08E-02
9652,2.40E-03,1.13E-02
9653,2.44E-03,1.11E-02
9654,2.37E-03,1.16E-02
9655,2.37E-03,1.14E-02
9656,2.28E-03,1.19E-02
9657,2.33E-03,1.18E-02
9658,2.25E-03,1.23E-02
9659,2.27E-03,1.21E-02
9660,2.20E-03,1.27E-02
9661,2.21E-03,1.25E-02
9662,2.16E-03,1.31E-02
9663,2.17E-03,1.29E-02
9664,2.17E-03,1.36E-02
9665,2.17E-03,1.33E-02
9666,2.17E-03,1.41E-02
9667,2.16E-03,1.38E-02
9668,2.25E-03,1.46E-02
9669,2.23E-03,1.43E-02
9670,2.28E-03,1.52E-02
9671,2.27E-03,1.49E-02
9672,2.25E-03,1.57E-02
9673,2.26E-03,1.54E-02
9674,2.24E-03,1.64E-02
9675,2.25E-03,1.60E-02
9676,2.28E-03,1.70E-02
9677,2.28E-03,1.67E-02
9678,2.31E-03,1.77E-02
9679,2.28E-03,1.73E-02
9680,2.32E-03,1.83E-02
9681,2.29E-03,1.80E-02
9682,2.29E-03,1.90E-02
9683,2.30E-03,1.87E-02
9684,2.29E-03,1.97E-02
9685,2.28E-03,1.94E-02
9686,2.26E-03,2.04E-02
9687,2.28E-03,2.00E-02
9688,2.25E-03,2.10E-02
9689,2.25E-03,2.07E-02
9690,2.27E-03,2.17E-02
9691,2.24E-03,2.13E-02
9692,2.34E-03,2.22E-02
9693,2.30E-03,2.19E-02
9694,2.39E-03,2.27E-02
9695,2.37E-03,2.25E-02
9696,2.44E-03,2.32E-02
9697,2.41E-03,2.30E-02
9698,2.53E-03,2.36E-02
9699,2.51E-03,2.34E-02
9700,2.62E-03,2.39E-02
9701,2.61E-03,2.37E-02
9702,2.69E-03,2.43E-02
9703,2.69E-03,2.41E-02
9704,2.77E-03,2.46E-02
9705,2.74E-03,2.45E-02
9706,2.85E-03,2.50E-02
9707,2.83E-03,2.48E-02
9708,2.96E-03,2.53E-02
9709,2.92E-03,2.52E-02
9710,3.04E-03,2.57E-02
9711,3.01E-03,2.55E-02
9712,3.08E-03,2.62E-02
9713,3.09E-03,2.59E-02
9714,2.97E-03,2.67E-02
9715,3.01E-03,2.64E-02
9716,2.87E-03,2.73E-02
9717,2.91E-03,2.70E-02
9718,2.78E-03,2.79E-02
9719,2.79E-03,2.76E-02
9720,2.69E-03,2.85E-02
9721,2.73E-03,2.82E-02
9722,2.63E-03,2.91E-02
9723,2.64E-03,2.88E-02
9724,2.57E-03,2.97E-02
9725,2.59E-03,2.94E-02
9726,2.52E-03,3.03E-02
9727,2.54E-03,3.00E-02
9728,2.47E-03,3.10E-02
9729,2.49E-03,3.06E-02
9730,2.47E-03,3.16E-02
9731,2.48E-03,3.13E-02
9732,2.44E-03,3.23E-02
9733,2.45E-03,3.19E-02
9734,2.43E-03,3.29E-02
9735,2.42E-03,3.26E-02
9736,2.44E-03,3.35E-02
9737,2.42E-03,3.32E-02
9738,2.43E-03,3.40E-02
9739,2.44E-03,3.38E-02
9740,2.45E-03,3.45E-02
9741,2.43E-03,3.43E-02
9742,2.47E-03,3.48E-02
9743,2.45E-03,3.46E-02
9744,2.52E-03,3.50E-02
9745,2.47E-03,3.49E-02
9746,2.56E-03,3.50E-02
9747,2.54E-03,3.50E-02
9748,2.57E-03,3.48E-02
9749,2.56E-03,3.49E-02
9750,2.58E-03,3.44E-02
9751,2.58E-03,3.46E-02
9752,2.58E-03,3.39E-02
9753,2.57E-03,3.42E-02
9754,2.56E-03,3.31E-02
9755,2.57E-03,3.35E-02
9756,2.52E-03,3.20E-02
9757,2.55E-03,3.26E-02
9758,2.55E-03,3.06E-02
9759,2.54E-03,3.13E-02
9760,2.56E-03,2.87E-02
9761,2.56E-03,2.97E-02
9762,2.56E-03,2.64E-02
9763,2.57E-03,2.76E-02
9764,2.59E-03,2.33E-02
9765,2.57E-03,2.50E-02
9766,2.16E-03,1.27E-02
9767,2.29E-03,1.47E-02
9768,1.92E-03,4.61E-04
9769,2.08E-03,4.41E-04
9770,1.88E-03,5.07E-04
9771,1.92E-03,4.83E-04
9772,1.83E-03,5.65E-04
9773,1.85E-03,5.34E-04
9774,1.84E-03,6.33E-04
9775,1.84E-03,5.98E-04
9776,1.87E-03,7.12E-04
9777,1.84E-03,6.72E-04
9778,1.90E-03,8.02E-04
9779,1.90E-03,7.56E-04
9780,1.95E-03,9.04E-04
9781,1.92E-03,8.51E-04
9782,2.01E-03,1.02E-03
9783,2.02E-03,9.60E-04
9784,2.09E-03,1.15E-03
9785,2.11E-03,1.09E-03
9786,2.28E-03,1.23E-03
9787,2.40E-03,1.60E-03
9788,2.47E-03,1.50E-03
9789,2.25E-03,1.79E-03
9790,2.33E-03,1.69E-03
9791,2.11E-03,1.98E-03
9792,2.19E-03,1.88E-03
9793,2.13E-03,2.18E-03
9794,2.12E-03,2.08E-03
9795,2.12E-03,2.39E-03
9796,2.12E-03,2.29E-03
9797,2.13E-03,2.61E-03
9798,2.14E-03,2.50E-03
9799,2.16E-03,2.84E-03
9800,2.15E-03,2.72E-03
9801,2.19E-03,3.08E-03
9802,2.17E-03,2.96E-03
9803,2.23E-03,3.33E-03
9804,2.22E-03,3.21E-03
9805,2.26E-03,3.60E-03
9806,2.25E-03,3.46E-03
9807,2.33E-03,3.88E-03
9808,2.28E-03,3.74E-03
9809,2.35E-03,4.18E-03
9810,2.35E-03,4.03E-03
9811,2.33E-03,4.49E-03
9812,2.33E-03,4.34E-03
9813,2.31E-03,4.80E-03
9814,2.31E-03,4.64E-03
9815,2.35E-03,5.11E-03
9816,2.32E-03,4.95E-03
9817,2.35E-03,5.41E-03
9818,2.33E-03,5.26E-03
9819,2.37E-03,5.72E-03
9820,2.35E-03,5.57E-03
9821,2.38E-03,6.03E-03
9822,2.36E-03,5.88E-03
9823,2.38E-03,6.34E-03
9824,2.38E-03,6.18E-03
9825,2.40E-03,6.64E-03
9826,2.39E-03,6.49E-03
9827,2.39E-03,6.92E-03
9828,2.40E-03,6.78E-03
9829,2.40E-03,7.18E-03
9830,2.41E-03,7.05E-03
9831,2.46E-03,7.42E-03
9832,2.41E-03,7.30E-03
9833,2.42E-03,7.63E-03
9834,2.41E-03,7.53E-03
9835,2.45E-03,7.83E-03
9836,2.45E-03,7.73E-03
9837,2.38E-03,8.03E-03
9838,2.42E-03,7.93E-03
9839,2.37E-03,8.24E-03
9840,2.37E-03,8.13E-03
9841,2.32E-03,8.46E-03
9842,2.34E-03,8.35E-03
9843,2.30E-03,8.70E-03
9844,2.31E-03,8.58E-03
9845,2.38E-03,8.95E-03
9846,2.33E-03,8.82E-03
9847,2.42E-03,9.20E-03
9848,2.39E-03,9.07E-03
9849,2.49E-03,9.42E-03
9850,2.44E-03,9.31E-03
9851,2.33E-03,1.01E-02
9852,2.25E-03,1.12E-02
9853,2.62E-03,7.38E-03
9854,2.62E-03,7.23E-03
9855,2.50E-03,9.52E-03
9856,2.44E-03,9.67E-03
9857,2.50E-03,7.22E-03
9858,2.50E-03,7.04E-03
9859,2.57E-03,7.73E-03
9860,2.36E-03,1.01E-02
9861,2.41E-03,9.47E-03
9862,2.55E-03,8.89E-03
9863,2.50E-03,9.56E-03
9864,2.61E-03,1.18E-02
9865,2.60E-03,1.23E-02
9866,2.57E-03,1.25E-02
9867,2.41E-03,9.25E-03
9868,2.45E-03,1.17E-02
9869,2.39E-03,1.10E-02
9870,2.56E-03,1.33E-02
9871,2.61E-03,1.27E-02
9872,2.59E-03,1.31E-02
9873,2.61E-03,1.30E-02
9874,2.39E-03,1.01E-02
9875,2.39E-03,1.01E-02
9876,2.58E-03,7.54E-03
9877,2.29E-03,9.58E-03
9878,1.89E-03,8.41E-03
9879,2.57E-03,2.14E-02
9880,2.45E-03,1.28E-03
9881,2.70E-03,1.37E-03
9882,2.50E-03,7.52E-03
9883,2.51E-03,7.14E-03
9884,2.53E-03,7.57E-03
9885,2.45E-03,9.04E-03
9886,2.55E-03,8.67E-03
9887,2.51E-03,1.00E-02
9888,2.46E-03,1.19E-02
9889,2.36E-03,1.02E-02
9890,2.38E-03,1.05E-02
9891,2.54E-03,1.30E-02
9892,2.15E-03,3.89E-04
9893,2.15E-03,3.71E-04
9894,2.60E-03,1.22E-02
9895,2.22E-03,9.75E-03
9896,2.33E-03,9.62E-03
9897,2.51E-03,7.86E-03
9898,2.50E-03,7.25E-03
9899,2.48E-03,8.63E-03
9900,2.61E-03,8.47E-03
9901,2.53E-03,1.06E-02
9902,2.46E-03,1.21E-02
9903,2.51E-03,1.27E-02
9904,2.59E-03,1.16E-02
9905,2.51E-03,8.24E-03
9906,2.50E-03,7.38E-03
9907,2.56E-03,1.11E-02
9908,2.48E-03,1.24E-02
9909,2.50E-03,7.51E-03
9910,2.67E-03,1.11E-02
9911,2.81E-03,9.31E-03
9912,3.03E-03,1.05E-02
9913,1.67E-03,7.22E-03
9914,2.48E-03,9.61E-03
9915,2.50E-03,7.12E-03
9916,2.61E-03,8.27E-03
9917,2.57E-03,7.99E-03
9918,2.40E-03,9.76E-03
9919,2.50E-03,9.22E-03
9920,2.62E-03,1.21E-02
9921,2.62E-03,1.29E-02
9922,2.61E-03,1.27E-02
9923,2.64E-03,1.30E-02
9924,2.64E-03,1.30E-02
9925,2.71E-03,1.28E-02
9926,2.70E-03,1.30E-02
9927,2.81E-03,1.23E-02
9928,2.80E-03,1.26E-02
9929,2.93E-03,1.14E-02
9930,2.92E-03,1.19E-02
9931,2.96E-03,1.04E-02
9932,2.98E-03,1.09E-02
9933,2.89E-03,9.44E-03
9934,2.91E-03,9.91E-03
9935,2.79E-03,8.72E-03
9936,2.80E-03,9.03E-03
9937,2.67E-03,8.48E-03
9938,2.69E-03,8.52E-03
9939,2.56E-03,8.75E-03
9940,2.43E-03,1.13E-02
9941,2.58E-03,1.32E-02
9942,2.64E-03,1.18E-02
9943,2.62E-03,1.13E-02
9944,2.30E-03,4.64E-04
9945,2.35E-03,3.91E-04
9946,2.28E-03,4.26E-04
9947,2.44E-03,5.44E-04
9948,2.41E-03,5.03E-04
9949,2.56E-03,6.35E-04
9950,2.50E-03,5.87E-04
9951,2.63E-03,7.43E-04
9952,2.60E-03,6.86E-04
9953,2.60E-03,8.81E-04
9954,2.61E-03,8.08E-04
9955,2.51E-03,1.06E-03
9956,2.57E-03,9.64E-04
9957,2.42E-03,1.28E-03
9958,2.49E-03,1.16E-03
9959,2.40E-03,1.55E-03
9960,2.41E-03,1.41E-03
9961,2.48E-03,1.90E-03
9962,2.45E-03,1.71E-03
9963,2.56E-03,2.33E-03
9964,2.50E-03,2.10E-03
9965,2.66E-03,2.86E-03
9966,2.63E-03,2.58E-03
9967,2.83E-03,3.50E-03
9968,2.73E-03,3.16E-03
9969,2.90E-03,4.29E-03
9970,2.88E-03,3.88E-03
9971,2.94E-03,5.25E-03
9972,2.94E-03,4.75E-03
9973,2.87E-03,6.41E-03
9974,2.95E-03,5.80E-03
9975,2.82E-03,7.74E-03
9976,2.81E-03,7.05E-03
9977,2.82E-03,8.48E-03
9978,2.35E-03,1.01E-02
9979,2.36E-03,1.01E-02
9980,2.40E-03,1.01E-02
9981,2.36E-03,1.01E-02
9982,2.42E-03,1.01E-02
9983,2.42E-03,1.01E-02
9984,2.43E-03,1.01E-02
9985,2.44E-03,1.01E-02
9986,2.47E-03,9.98E-03
9987,2.47E-03,1.00E-02
9988,2.52E-03,9.88E-03
9989,2.50E-03,9.94E-03
9990,2.58E-03,9.77E-03
9991,2.57E-03,9.83E-03
9992,2.63E-03,9.64E-03
9993,2.61E-03,9.71E-03
9994,2.70E-03,9.52E-03
9995,2.69E-03,9.58E-03
9996,2.77E-03,9.39E-03
9997,2.74E-03,9.46E-03
9998,2.83E-03,9.27E-03
9999,2.81E-03,9.33E-03
10000,2.80E-03,9.15E-03
10001,2.80E-03,9.21E-03
10002,2.72E-03,9.03E-03
10003,2.75E-03,9.09E-03
10004,2.66E-03,8.91E-03
10005,2.70E-03,8.97E-03
10006,2.60E-03,8.77E-03
10007,2.64E-03,8.84E-03
10008,2.53E-03,8.63E-03
10009,2.59E-03,8.70E-03
10010,2.46E-03,8.47E-03
10011,2.50E-03,8.55E-03
10012,2.38E-03,8.30E-03
10013,2.39E-03,8.39E-03
10014,2.27E-03,8.12E-03
10015,2.30E-03,8.21E-03
10016,2.14E-03,7.91E-03
10017,2.20E-03,8.02E-03
10018,1.96E-03,7.67E-03
10019,2.11E-03,7.78E-03
10020,1.84E-03,7.47E-03
10021,1.89E-03,7.55E-03
10022,1.61E-03,7.24E-03
10023,1.38E-03,7.38E-03
10024,2.11E-03,7.16E-03
10025,2.03E-03,6.91E-03
10026,2.20E-03,7.01E-03
10027,1.52E-03,6.76E-03
10028,1.83E-03,6.82E-03
10029,1.77E-03,6.70E-03
10030,1.96E-03,6.79E-03
10031,1.70E-03,6.73E-03
10032,2.65E-03,7.02E-03
10033,2.22E-03,6.89E-03
10034,2.62E-03,1.29E-02
10035,2.44E-03,9.98E-03
10036,2.41E-03,1.00E-02
10037,2.64E-03,7.87E-03
10038,2.60E-03,7.70E-03
10039,2.65E-03,8.21E-03
10040,2.66E-03,8.04E-03
10041,2.62E-03,8.54E-03
10042,2.61E-03,8.38E-03
10043,2.55E-03,8.85E-03
10044,2.56E-03,8.70E-03
10045,2.49E-03,9.14E-03
10046,2.48E-03,9.00E-03
10047,2.49E-03,9.41E-03
10048,2.49E-03,9.27E-03
10049,2.58E-03,9.67E-03
10050,2.54E-03,9.54E-03
10051,2.66E-03,9.92E-03
10052,2.61E-03,9.80E-03
10053,2.65E-03,1.01E-02
10054,2.67E-03,1.00E-02
10055,2.60E-03,1.03E-02
10056,2.63E-03,1.02E-02
10057,2.47E-03,1.05E-02
10058,2.54E-03,1.04E-02
10059,2.34E-03,1.06E-02
10060,2.37E-03,1.05E-02
10061,2.14E-03,1.06E-02
10062,2.19E-03,1.06E-02
10063,1.88E-03,1.07E-02
10064,2.03E-03,1.07E-02
10065,1.82E-03,1.08E-02
10066,1.78E-03,1.07E-02
10067,2.04E-03,1.09E-02
10068,1.90E-03,1.08E-02
10069,2.10E-03,1.09E-02
10070,2.07E-03,1.09E-02
10071,2.26E-03,1.10E-02
10072,2.22E-03,1.10E-02
10073,2.42E-03,1.11E-02
10074,2.35E-03,1.10E-02
10075,2.57E-03,1.11E-02
10076,2.56E-03,1.11E-02
10077,2.66E-03,1.11E-02
10078,2.64E-03,1.11E-02
10079,2.72E-03,1.11E-02
10080,2.71E-03,1.11E-02
10081,2.69E-03,1.10E-02
10082,2.69E-03,1.10E-02
10083,2.63E-03,1.09E-02
10084,2.65E-03,1.09E-02
10085,2.54E-03,1.07E-02
10086,2.59E-03,1.08E-02
10087,2.45E-03,1.06E-02
10088,2.49E-03,1.07E-02
10089,2.34E-03,1.04E-02
10090,2.35E-03,1.05E-02
10091,2.34E-03,1.02E-02
10092,2.29E-03,1.03E-02
10093,2.54E-03,9.95E-03
10094,2.36E-03,1.01E-02
10095,2.52E-03,9.86E-03
10096,2.28E-03,9.36E-03
10097,2.39E-03,9.48E-03
10098,2.19E-03,9.14E-03
10099,2.25E-03,9.25E-03
10100,2.12E-03,8.92E-03
10101,2.15E-03,9.03E-03
10102,2.07E-03,8.72E-03
10103,2.13E-03,8.82E-03
10104,2.01E-03,8.53E-03
10105,2.05E-03,8.62E-03
10106,1.92E-03,8.36E-03
10107,1.96E-03,8.44E-03
10108,1.92E-03,8.30E-03
10109,1.73E-03,8.19E-03
10110,1.74E-03,8.28E-03
10111,2.14E-03,8.54E-03
10112,2.05E-03,8.42E-03
10113,2.26E-03,8.76E-03
10114,2.21E-03,8.65E-03
10115,2.38E-03,8.99E-03
10116,2.34E-03,8.88E-03
10117,2.45E-03,9.22E-03
10118,2.40E-03,9.10E-03
10119,2.50E-03,9.47E-03
10120,2.47E-03,9.34E-03
10121,2.51E-03,9.72E-03
10122,2.50E-03,9.59E-03
10123,2.50E-03,9.99E-03
10124,2.50E-03,9.85E-03
10125,2.48E-03,1.03E-02
10126,2.50E-03,1.01E-02
10127,2.46E-03,1.05E-02
10128,2.50E-03,1.04E-02
10129,2.46E-03,1.08E-02
10130,2.46E-03,1.07E-02
10131,2.42E-03,1.11E-02
10132,2.45E-03,1.10E-02
10133,2.37E-03,1.14E-02
10134,2.40E-03,1.13E-02
10135,2.31E-03,1.18E-02
10136,2.34E-03,1.16E-02
10137,2.26E-03,1.21E-02
10138,2.29E-03,1.20E-02
10139,2.22E-03,1.25E-02
10140,2.24E-03,1.23E-02
10141,2.19E-03,1.30E-02
10142,2.20E-03,1.27E-02
10143,2.19E-03,1.34E-02
10144,2.18E-03,1.32E-02
10145,2.23E-03,1.39E-02
10146,2.19E-03,1.36E-02
10147,2.27E-03,1.44E-02
10148,2.25E-03,1.42E-02
10149,2.30E-03,1.50E-02
10150,2.30E-03,1.47E-02
10151,2.29E-03,1.56E-02
10152,2.29E-03,1.53E-02
10153,2.28E-03,1.62E-02
10154,2.29E-03,1.59E-02
10155,2.30E-03,1.69E-02
10156,2.29E-03,1.66E-02
10157,2.33E-03,1.76E-02
10158,2.32E-03,1.72E-02
10159,2.33E-03,1.83E-02
10160,2.32E-03,1.79E-02
10161,2.32E-03,1.90E-02
10162,2.32E-03,1.86E-02
10163,2.31E-03,1.97E-02
10164,2.30E-03,1.94E-02
10165,2.28E-03,2.04E-02
10166,2.32E-03,2.01E-02
10167,2.27E-03,2.11E-02
10168,2.28E-03,2.08E-02
10169,2.29E-03,2.18E-02
10170,2.27E-03,2.15E-02
10171,2.33E-03,2.24E-02
10172,2.30E-03,2.21E-02
10173,2.39E-03,2.30E-02
10174,2.37E-03,2.27E-02
10175,2.45E-03,2.35E-02
10176,2.43E-03,2.32E-02
10177,2.53E-03,2.39E-02
10178,2.51E-03,2.37E-02
10179,2.61E-03,2.43E-02
10180,2.58E-03,2.41E-02
10181,2.69E-03,2.47E-02
10182,2.63E-03,2.45E-02
10183,2.75E-03,2.51E-02
10184,2.71E-03,2.49E-02
10185,2.81E-03,2.55E-02
10186,2.79E-03,2.53E-02
10187,2.90E-03,2.59E-02
10188,2.88E-03,2.57E-02
10189,2.99E-03,2.64E-02
10190,2.96E-03,2.61E-02
10191,3.02E-03,2.69E-02
10192,3.03E-03,2.66E-02
10193,2.91E-03,2.75E-02
10194,2.98E-03,2.72E-02
10195,2.83E-03,2.81E-02
10196,2.87E-03,2.78E-02
10197,2.73E-03,2.87E-02
10198,2.78E-03,2.84E-02
10199,2.67E-03,2.94E-02
10200,2.71E-03,2.91E-02
10201,2.61E-03,3.01E-02
10202,2.62E-03,2.97E-02
10203,2.55E-03,3.07E-02
10204,2.58E-03,3.04E-02
10205,2.50E-03,3.14E-02
10206,2.54E-03,3.11E-02
10207,2.48E-03,3.21E-02
10208,2.50E-03,3.17E-02
10209,2.46E-03,3.28E-02
10210,2.46E-03,3.25E-02
10211,2.43E-03,3.36E-02
10212,2.46E-03,3.32E-02
10213,2.44E-03,3.43E-02
10214,2.42E-03,3.39E-02
10215,2.46E-03,3.49E-02
10216,2.46E-03,3.46E-02
10217,2.45E-03,3.56E-02
10218,2.46E-03,3.53E-02
10219,2.46E-03,3.61E-02
10220,2.44E-03,3.59E-02
10221,2.46E-03,3.65E-02
10222,2.46E-03,3.63E-02
10223,2.51E-03,3.68E-02
10224,2.48E-03,3.67E-02
10225,2.55E-03,3.69E-02
10226,2.53E-03,3.68E-02
10227,2.57E-03,3.68E-02
10228,2.55E-03,3.68E-02
10229,2.57E-03,3.65E-02
10230,2.58E-03,3.66E-02
10231,2.59E-03,3.60E-02
10232,2.57E-03,3.62E-02
10233,2.56E-03,3.53E-02
10234,2.58E-03,3.57E-02
10235,2.52E-03,3.43E-02
10236,2.53E-03,3.48E-02
10237,2.49E-03,3.29E-02
10238,2.51E-03,3.36E-02
10239,2.50E-03,3.12E-02
10240,2.49E-03,3.21E-02
10241,2.53E-03,2.89E-02
10242,2.52E-03,3.01E-02
10243,2.67E-03,2.59E-02
10244,2.58E-03,2.75E-02
10245,2.60E-03,1.94E-02
10246,2.65E-03,2.20E-02
10247,2.69E-03,2.41E-02
10248,2.45E-03,1.46E-02
10249,2.53E-03,1.69E-02
10250,2.30E-03,1.05E-02
10251,2.34E-03,1.24E-02
10252,2.03E-03,4.30E-04
10253,2.09E-03,4.08E-04
10254,1.95E-03,4.79E-04
10255,1.97E-03,4.53E-04
10256,1.91E-03,5.38E-04
10257,1.91E-03,5.07E-04
10258,1.90E-03,6.07E-04
10259,1.92E-03,5.72E-04
10260,1.94E-03,6.86E-04
10261,1.92E-03,6.46E-04
10262,1.94E-03,7.75E-04
10263,1.96E-03,7.29E-04
10264,2.00E-03,8.75E-04
10265,2.00E-03,8.23E-04
10266,2.10E-03,9.89E-04
10267,2.07E-03,9.29E-04
10268,2.22E-03,1.12E-03
10269,2.14E-03,1.05E-03
10270,2.31E-03,1.20E-03
10271,2.45E-03,1.55E-03
10272,2.60E-03,1.46E-03
10273,2.30E-03,1.74E-03
10274,2.39E-03,1.65E-03
10275,2.18E-03,1.93E-03
10276,2.22E-03,1.84E-03
10277,2.17E-03,2.13E-03
10278,2.18E-03,2.03E-03
10279,2.17E-03,2.34E-03
10280,2.18E-03,2.23E-03
10281,2.18E-03,2.55E-03
10282,2.17E-03,2.44E-03
10283,2.20E-03,2.78E-03
10284,2.19E-03,2.67E-03
10285,2.22E-03,3.02E-03
10286,2.20E-03,2.90E-03
10287,2.24E-03,3.27E-03
10288,2.22E-03,3.14E-03
10289,2.24E-03,3.53E-03
10290,2.25E-03,3.40E-03
10291,2.33E-03,3.82E-03
10292,2.30E-03,3.67E-03
10293,2.35E-03,4.12E-03
10294,2.36E-03,3.97E-03
10295,2.34E-03,4.43E-03
10296,2.34E-03,4.27E-03
10297,2.34E-03,4.74E-03
10298,2.34E-03,4.59E-03
10299,2.35E-03,5.06E-03
10300,2.34E-03,4.90E-03
10301,2.36E-03,5.37E-03
10302,2.36E-03,5.21E-03
10303,2.38E-03,5.68E-03
10304,2.37E-03,5.53E-03
10305,2.39E-03,6.00E-03
10306,2.38E-03,5.84E-03
10307,2.40E-03,6.32E-03
10308,2.39E-03,6.16E-03
10309,2.40E-03,6.64E-03
10310,2.40E-03,6.48E-03
10311,2.41E-03,6.95E-03
10312,2.41E-03,6.80E-03
10313,2.42E-03,7.23E-03
10314,2.42E-03,7.09E-03
10315,2.44E-03,7.48E-03
10316,2.42E-03,7.35E-03
10317,2.44E-03,7.70E-03
10318,2.41E-03,7.59E-03
10319,2.47E-03,7.92E-03
10320,2.46E-03,7.81E-03
10321,2.40E-03,8.13E-03
10322,2.44E-03,8.03E-03
10323,2.38E-03,8.35E-03
10324,2.39E-03,8.24E-03
10325,2.29E-03,8.59E-03
10326,2.35E-03,8.47E-03
10327,2.32E-03,8.85E-03
10328,2.30E-03,8.72E-03
10329,2.37E-03,9.12E-03
10330,2.34E-03,8.98E-03
10331,2.42E-03,9.40E-03
10332,2.40E-03,9.26E-03
10333,2.47E-03,9.65E-03
10334,2.43E-03,9.53E-03
10335,2.36E-03,8.35E-03
10336,2.31E-03,9.17E-03
10337,2.56E-03,7.30E-03
10338,2.71E-03,7.14E-03
10339,2.50E-03,9.76E-03
10340,2.44E-03,9.92E-03
10341,2.50E-03,7.42E-03
10342,2.50E-03,7.23E-03
10343,2.56E-03,7.82E-03
10344,2.36E-03,9.92E-03
10345,2.43E-03,9.33E-03
10346,2.55E-03,8.99E-03
10347,2.50E-03,9.68E-03
10348,2.59E-03,1.22E-02
10349,2.57E-03,1.30E-02
10350,2.60E-03,1.33E-02
10351,2.42E-03,7.93E-03
10352,2.44E-03,1.15E-02
10353,2.39E-03,1.09E-02
10354,2.55E-03,1.29E-02
10355,2.41E-03,3.56E-04
10356,2.62E-03,1.23E-02
10357,2.61E-03,1.26E-02
10358,2.64E-03,1.25E-02
10359,2.37E-03,1.04E-02
10360,2.38E-03,1.03E-02
10361,2.56E-03,7.45E-03
10362,2.56E-03,9.90E-03
10363,2.32E-03,9.49E-03
10364,2.45E-03,1.24E-03
10365,2.76E-03,1.33E-03
10366,2.50E-03,7.75E-03
10367,2.50E-03,7.34E-03
10368,2.51E-03,7.65E-03
10369,2.45E-03,8.91E-03
10370,2.56E-03,8.77E-03
10371,2.53E-03,1.02E-02
10372,2.45E-03,1.18E-02
10373,2.36E-03,1.01E-02
10374,2.38E-03,1.04E-02
10375,2.54E-03,1.26E-02
10376,2.60E-03,1.18E-02
10377,2.22E-03,9.66E-03
10378,2.23E-03,9.55E-03
10379,2.62E-03,1.70E-02
10380,2.49E-03,1.97E-02
10381,2.51E-03,8.11E-03
10382,2.50E-03,7.47E-03
10383,2.48E-03,8.50E-03
10384,2.61E-03,8.57E-03
10385,2.54E-03,1.07E-02
10386,2.46E-03,1.20E-02
10387,2.49E-03,1.23E-02
10388,2.57E-03,1.12E-02
10389,1.49E-03,8.07E-03
10390,1.35E-03,7.99E-03
10391,1.51E-03,7.95E-03
10392,2.50E-03,7.60E-03
10393,2.81E-03,1.13E-02
10394,3.03E-03,9.40E-03
10395,3.14E-03,1.03E-02
10396,2.48E-03,9.85E-03
10397,2.50E-03,7.32E-03
10398,2.62E-03,8.37E-03
10399,2.57E-03,8.08E-03
10400,2.40E-03,9.63E-03
10401,2.50E-03,9.32E-03
10402,2.57E-03,1.26E-02
10403,2.61E-03,1.38E-02
10404,2.65E-03,1.36E-02
10405,2.62E-03,1.42E-02
10406,2.61E-03,1.40E-02
10407,2.69E-03,1.41E-02
10408,2.65E-03,1.42E-02
10409,2.78E-03,1.36E-02
10410,2.76E-03,1.39E-02
10411,2.87E-03,1.28E-02
10412,2.87E-03,1.32E-02
10413,2.90E-03,1.16E-02
10414,2.91E-03,1.22E-02
10415,2.85E-03,1.03E-02
10416,2.87E-03,1.10E-02
10417,2.75E-03,9.05E-03
10418,2.77E-03,9.67E-03
10419,2.63E-03,8.07E-03
10420,2.65E-03,8.49E-03
10421,2.54E-03,7.82E-03
10422,2.41E-03,1.12E-02
10423,2.60E-03,1.27E-02
10424,2.67E-03,1.22E-02
10425,2.72E-03,1.16E-02
10426,2.30E-03,3.23E-04
10427,2.35E-03,3.79E-04
10428,2.33E-03,3.04E-04
10429,2.48E-03,3.43E-04
10430,2.34E-03,4.56E-04
10431,2.33E-03,4.17E-04
10432,2.41E-03,5.39E-04
10433,2.39E-03,4.97E-04
10434,2.54E-03,6.30E-04
10435,2.47E-03,5.83E-04
10436,2.59E-03,7.41E-04
10437,2.56E-03,6.83E-04
10438,2.58E-03,8.79E-04
10439,2.59E-03,8.06E-04
10440,2.51E-03,1.05E-03
10441,2.55E-03,9.62E-04
10442,2.42E-03,1.27E-03
10443,2.47E-03,1.16E-03
10444,2.41E-03,1.54E-03
10445,2.42E-03,1.40E-03
10446,2.45E-03,1.88E-03
10447,2.45E-03,1.70E-03
10448,2.54E-03,2.31E-03
10449,2.48E-03,2.09E-03
10450,2.62E-03,2.84E-03
10451,2.60E-03,2.56E-03
10452,2.73E-03,3.48E-03
10453,2.71E-03,3.14E-03
10454,2.81E-03,4.25E-03
10455,2.79E-03,3.85E-03
10456,2.83E-03,5.21E-03
10457,2.84E-03,4.71E-03
10458,2.78E-03,6.40E-03
10459,2.83E-03,5.78E-03
10460,2.71E-03,7.79E-03
10461,2.73E-03,7.07E-03
10462,2.72E-03,8.55E-03
10463,2.34E-03,1.04E-02
10464,2.35E-03,1.04E-02
10465,2.40E-03,1.04E-02
10466,2.38E-03,1.04E-02
10467,2.42E-03,1.05E-02
10468,2.42E-03,1.04E-02
10469,2.44E-03,1.04E-02
10470,2.44E-03,1.04E-02
10471,2.46E-03,1.04E-02
10472,2.45E-03,1.04E-02
10473,2.50E-03,1.03E-02
10474,2.50E-03,1.03E-02
10475,2.57E-03,1.02E-02
10476,2.56E-03,1.02E-02
10477,2.61E-03,1.01E-02
10478,2.59E-03,1.01E-02
10479,2.67E-03,9.93E-03
10480,2.67E-03,1.00E-02
10481,2.73E-03,9.80E-03
10482,2.72E-03,9.87E-03
10483,2.78E-03,9.67E-03
10484,2.77E-03,9.73E-03
10485,2.77E-03,9.53E-03
10486,2.77E-03,9.60E-03
10487,2.71E-03,9.39E-03
10488,2.76E-03,9.47E-03
10489,2.64E-03,9.25E-03
10490,2.67E-03,9.32E-03
10491,2.59E-03,9.09E-03
10492,2.63E-03,9.17E-03
10493,2.53E-03,8.93E-03
10494,2.56E-03,9.01E-03
10495,2.46E-03,8.75E-03
10496,2.49E-03,8.84E-03
10497,2.39E-03,8.55E-03
10498,2.40E-03,8.65E-03
10499,2.29E-03,8.34E-03
10500,2.32E-03,8.45E-03
10501,2.18E-03,8.10E-03
10502,2.22E-03,8.22E-03
10503,2.03E-03,7.86E-03
10504,2.12E-03,7.98E-03
10505,1.84E-03,7.62E-03
10506,1.94E-03,7.74E-03
10507,1.76E-03,7.31E-03
10508,1.88E-03,7.50E-03
10509,1.64E-03,7.07E-03
10510,1.72E-03,7.24E-03
10511,1.91E-03,6.92E-03
10512,1.68E-03,6.99E-03
10513,1.56E-03,6.76E-03
10514,1.78E-03,6.84E-03
10515,1.60E-03,6.59E-03
10516,1.79E-03,6.57E-03
10517,1.89E-03,6.70E-03
10518,1.71E-03,6.63E-03
10519,1.97E-03,6.93E-03
10520,1.99E-03,6.80E-03
10521,2.64E-03,1.24E-02
10522,2.44E-03,1.02E-02
10523,2.42E-03,1.03E-02
10524,2.59E-03,7.78E-03
10525,2.57E-03,7.61E-03
10526,2.62E-03,8.12E-03
10527,2.60E-03,7.95E-03
10528,2.59E-03,8.45E-03
10529,2.59E-03,8.29E-03
10530,2.54E-03,8.75E-03
10531,2.55E-03,8.60E-03
10532,2.49E-03,9.03E-03
10533,2.50E-03,8.89E-03
10534,2.50E-03,9.30E-03
10535,2.48E-03,9.17E-03
10536,2.56E-03,9.56E-03
10537,2.52E-03,9.43E-03
10538,2.64E-03,9.81E-03
10539,2.60E-03,9.69E-03
10540,2.66E-03,1.00E-02
10541,2.66E-03,9.92E-03
10542,2.62E-03,1.02E-02
10543,2.60E-03,1.01E-02
10544,2.51E-03,1.03E-02
10545,2.53E-03,1.03E-02
10546,2.33E-03,1.04E-02
10547,2.38E-03,1.04E-02
10548,2.16E-03,1.05E-02
10549,2.24E-03,1.05E-02
10550,1.98E-03,1.06E-02
10551,2.05E-03,1.05E-02
10552,1.91E-03,1.07E-02
10553,1.92E-03,1.06E-02
10554,2.01E-03,1.07E-02
10555,1.97E-03,1.07E-02
10556,2.13E-03,1.08E-02
10557,2.10E-03,1.08E-02
10558,2.27E-03,1.09E-02
10559,2.20E-03,1.09E-02
10560,2.42E-03,1.10E-02
10561,2.36E-03,1.09E-02
10562,2.55E-03,1.10E-02
10563,2.55E-03,1.10E-02
10564,2.65E-03,1.10E-02
10565,2.61E-03,1.10E-02
10566,2.73E-03,1.10E-02
10567,2.70E-03,1.10E-02
10568,2.67E-03,1.09E-02
10569,2.69E-03,1.09E-02
10570,2.60E-03,1.08E-02
10571,2.63E-03,1.08E-02
10572,2.54E-03,1.06E-02
10573,2.58E-03,1.07E-02
10574,2.44E-03,1.05E-02
10575,2.47E-03,1.06E-02
10576,2.34E-03,1.03E-02
10577,2.35E-03,1.04E-02
10578,2.29E-03,1.01E-02
10579,2.27E-03,1.02E-02
10580,2.22E-03,1.00E-02
10581,2.38E-03,9.76E-03
10582,2.31E-03,9.25E-03
10583,2.43E-03,9.37E-03
10584,2.22E-03,9.02E-03
10585,2.28E-03,9.14E-03
10586,2.16E-03,8.80E-03
10587,2.18E-03,8.91E-03
10588,2.12E-03,8.59E-03
10589,2.15E-03,8.70E-03
10590,2.06E-03,8.39E-03
10591,2.09E-03,8.49E-03
10592,2.03E-03,8.22E-03
10593,2.02E-03,8.30E-03
10594,2.06E-03,8.14E-03
10595,1.96E-03,8.19E-03
10596,1.87E-03,8.08E-03
10597,2.12E-03,8.41E-03
10598,2.06E-03,8.30E-03
10599,2.26E-03,8.63E-03
10600,2.19E-03,8.52E-03
10601,2.37E-03,8.85E-03
10602,2.32E-03,8.74E-03
10603,2.45E-03,9.09E-03
10604,2.39E-03,8.97E-03
10605,2.49E-03,9.33E-03
10606,2.47E-03,9.21E-03
10607,2.50E-03,9.59E-03
10608,2.50E-03,9.46E-03
10609,2.50E-03,9.86E-03
10610,2.50E-03,9.72E-03
10611,2.49E-03,1.01E-02
10612,2.50E-03,9.99E-03
10613,2.47E-03,1.04E-02
10614,2.50E-03,1.03E-02
10615,2.46E-03,1.07E-02
10616,2.47E-03,1.05E-02
10617,2.43E-03,1.10E-02
10618,2.44E-03,1.08E-02
10619,2.37E-03,1.13E-02
10620,2.42E-03,1.11E-02
10621,2.33E-03,1.16E-02
10622,2.36E-03,1.15E-02
10623,2.29E-03,1.20E-02
10624,2.31E-03,1.18E-02
10625,2.25E-03,1.24E-02
10626,2.27E-03,1.22E-02
10627,2.21E-03,1.28E-02
10628,2.24E-03,1.26E-02
10629,2.21E-03,1.32E-02
10630,2.21E-03,1.30E-02
10631,2.26E-03,1.37E-02
10632,2.23E-03,1.35E-02
10633,2.29E-03,1.43E-02
10634,2.28E-03,1.40E-02
10635,2.31E-03,1.49E-02
10636,2.32E-03,1.46E-02
10637,2.33E-03,1.55E-02
10638,2.33E-03,1.52E-02
10639,2.31E-03,1.61E-02
10640,2.32E-03,1.58E-02
10641,2.33E-03,1.68E-02
10642,2.31E-03,1.64E-02
10643,2.34E-03,1.75E-02
10644,2.35E-03,1.71E-02
10645,2.34E-03,1.82E-02
10646,2.35E-03,1.78E-02
10647,2.33E-03,1.89E-02
10648,2.34E-03,1.86E-02
10649,2.33E-03,1.97E-02
10650,2.33E-03,1.93E-02
10651,2.32E-03,2.05E-02
10652,2.34E-03,2.01E-02
10653,2.30E-03,2.12E-02
10654,2.32E-03,2.09E-02
10655,2.29E-03,2.20E-02
10656,2.29E-03,2.16E-02
10657,2.32E-03,2.26E-02
10658,2.30E-03,2.23E-02
10659,2.39E-03,2.32E-02
10660,2.38E-03,2.29E-02
10661,2.44E-03,2.38E-02
10662,2.44E-03,2.35E-02
10663,2.52E-03,2.42E-02
10664,2.51E-03,2.40E-02
10665,2.59E-03,2.47E-02
10666,2.57E-03,2.44E-02
10667,2.67E-03,2.51E-02
10668,2.62E-03,2.49E-02
10669,2.73E-03,2.56E-02
10670,2.69E-03,2.53E-02
10671,2.80E-03,2.60E-02
10672,2.76E-03,2.58E-02
10673,2.85E-03,2.65E-02
10674,2.82E-03,2.63E-02
10675,2.92E-03,2.70E-02
10676,2.90E-03,2.67E-02
10677,2.95E-03,2.76E-02
10678,2.95E-03,2.73E-02
10679,2.85E-03,2.82E-02
10680,2.91E-03,2.79E-02
10681,2.80E-03,2.89E-02
10682,2.84E-03,2.86E-02
10683,2.71E-03,2.96E-02
10684,2.74E-03,2.93E-02
10685,2.64E-03,3.03E-02
10686,2.68E-03,3.00E-02
10687,2.60E-03,3.10E-02
10688,2.61E-03,3.07E-02
10689,2.54E-03,3.18E-02
10690,2.55E-03,3.14E-02
10691,2.50E-03,3.25E-02
10692,2.52E-03,3.21E-02
10693,2.49E-03,3.33E-02
10694,2.48E-03,3.29E-02
10695,2.45E-03,3.41E-02
10696,2.47E-03,3.37E-02
10697,2.44E-03,3.49E-02
10698,2.46E-03,3.45E-02
10699,2.44E-03,3.57E-02
10700,2.44E-03,3.53E-02
10701,2.46E-03,3.65E-02
10702,2.45E-03,3.61E-02
10703,2.46E-03,3.72E-02
10704,2.47E-03,3.68E-02
10705,2.46E-03,3.78E-02
10706,2.45E-03,3.75E-02
10707,2.45E-03,3.83E-02
10708,2.46E-03,3.81E-02
10709,2.50E-03,3.86E-02
10710,2.50E-03,3.85E-02
10711,2.54E-03,3.88E-02
10712,2.54E-03,3.87E-02
10713,2.56E-03,3.88E-02
10714,2.55E-03,3.88E-02
10715,2.57E-03,3.86E-02
10716,2.58E-03,3.87E-02
10717,2.59E-03,3.82E-02
10718,2.58E-03,3.84E-02
10719,2.56E-03,3.75E-02
10720,2.58E-03,3.79E-02
10721,2.52E-03,3.66E-02
10722,2.54E-03,3.71E-02
10723,2.49E-03,3.54E-02
10724,2.51E-03,3.60E-02
10725,2.46E-03,3.37E-02
10726,2.47E-03,3.46E-02
10727,2.52E-03,3.15E-02
10728,2.50E-03,3.27E-02
10729,2.66E-03,2.89E-02
10730,2.57E-03,3.02E-02
10731,2.76E-03,2.46E-02
10732,3.14E-03,2.71E-02
10733,2.46E-03,1.21E-02
10734,2.62E-03,1.45E-02
10735,2.36E-03,8.40E-03
10736,2.38E-03,1.00E-02
10737,2.13E-03,3.58E-04
10738,2.16E-03,3.41E-04
10739,2.06E-03,4.01E-04
10740,2.09E-03,3.78E-04
10741,2.00E-03,4.53E-04
10742,2.03E-03,4.26E-04
10743,1.99E-03,5.14E-04
10744,1.98E-03,4.83E-04
10745,1.98E-03,5.84E-04
10746,1.98E-03,5.48E-04
10747,2.00E-03,6.62E-04
10748,2.01E-03,6.22E-04
10749,2.00E-03,7.50E-04
10750,2.02E-03,7.05E-04
10751,2.06E-03,8.47E-04
10752,2.06E-03,7.97E-04
10753,2.14E-03,9.58E-04
10754,2.13E-03,9.00E-04
10755,2.24E-03,1.09E-03
10756,2.22E-03,1.02E-03
10757,2.34E-03,1.16E-03
10758,2.54E-03,1.51E-03
10759,2.83E-03,1.42E-03
10760,2.33E-03,1.70E-03
10761,2.42E-03,1.60E-03
10762,2.23E-03,1.88E-03
10763,2.27E-03,1.79E-03
10764,2.22E-03,2.08E-03
10765,2.22E-03,1.98E-03
10766,2.22E-03,2.28E-03
10767,2.22E-03,2.18E-03
10768,2.23E-03,2.49E-03
10769,2.22E-03,2.39E-03
10770,2.24E-03,2.72E-03
10771,2.21E-03,2.60E-03
10772,2.23E-03,2.95E-03
10773,2.24E-03,2.83E-03
10774,2.26E-03,3.20E-03
10775,2.24E-03,3.07E-03
10776,2.29E-03,3.46E-03
10777,2.26E-03,3.33E-03
10778,2.35E-03,3.75E-03
10779,2.33E-03,3.60E-03
10780,2.36E-03,4.05E-03
10781,2.37E-03,3.90E-03
10782,2.36E-03,4.37E-03
10783,2.35E-03,4.21E-03
10784,2.37E-03,4.69E-03
10785,2.35E-03,4.53E-03
10786,2.36E-03,5.01E-03
10787,2.36E-03,4.85E-03
10788,2.38E-03,5.32E-03
10789,2.38E-03,5.17E-03
10790,2.40E-03,5.64E-03
10791,2.39E-03,5.48E-03
10792,2.39E-03,5.97E-03
10793,2.40E-03,5.80E-03
10794,2.40E-03,6.31E-03
10795,2.41E-03,6.14E-03
10796,2.42E-03,6.65E-03
10797,2.41E-03,6.48E-03
10798,2.42E-03,6.98E-03
10799,2.42E-03,6.82E-03
10800,2.43E-03,7.27E-03
10801,2.42E-03,7.13E-03
10802,2.45E-03,7.54E-03
10803,2.42E-03,7.41E-03
10804,2.43E-03,7.79E-03
10805,2.43E-03,7.67E-03
10806,2.48E-03,8.01E-03
10807,2.45E-03,7.90E-03
10808,2.42E-03,8.24E-03
10809,2.45E-03,8.13E-03
10810,2.38E-03,8.48E-03
10811,2.40E-03,8.36E-03
10812,2.31E-03,8.73E-03
10813,2.34E-03,8.60E-03
10814,2.32E-03,9.00E-03
10815,2.32E-03,8.86E-03
10816,2.37E-03,9.30E-03
10817,2.35E-03,9.15E-03
10818,2.41E-03,9.60E-03
10819,2.39E-03,9.45E-03
10820,2.46E-03,9.88E-03
10821,2.45E-03,9.74E-03
10822,2.39E-03,7.05E-03
10823,2.35E-03,7.40E-03
10824,1.66E-03,6.95E-03
10825,2.47E-03,7.22E-03
10826,2.33E-03,7.08E-03
10827,2.49E-03,1.00E-02
10828,2.46E-03,1.02E-02
10829,2.50E-03,7.64E-03
10830,2.50E-03,7.44E-03
10831,2.54E-03,7.90E-03
10832,2.36E-03,9.79E-03
10833,2.43E-03,9.20E-03
10834,2.55E-03,9.10E-03
10835,2.51E-03,9.79E-03
10836,2.60E-03,1.27E-02
10837,2.51E-03,1.36E-02
10838,2.75E-03,1.42E-02
10839,2.41E-03,7.25E-03
10840,2.44E-03,1.14E-02
10841,2.40E-03,1.07E-02
10842,2.57E-03,1.24E-02
10843,1.88E-03,6.83E-03
10844,2.65E-03,1.19E-02
10845,2.63E-03,1.22E-02
10846,2.67E-03,1.21E-02
10847,2.38E-03,1.06E-02
10848,2.39E-03,1.06E-02
10849,2.49E-03,7.37E-03
10850,2.08E-03,9.86E-03
10851,2.11E-03,9.75E-03
10852,2.56E-03,9.40E-03
10853,1.96E-03,2.17E-02
10854,2.38E-03,1.72E-02
10855,2.70E-03,1.44E-02
10856,2.51E-03,7.99E-03
10857,2.50E-03,7.56E-03
10858,2.50E-03,7.74E-03
10859,2.45E-03,8.78E-03
10860,2.58E-03,8.88E-03
10861,2.53E-03,1.03E-02
10862,2.44E-03,1.16E-02
10863,2.37E-03,9.96E-03
10864,2.37E-03,1.03E-02
10865,2.51E-03,1.22E-02
10866,2.59E-03,1.14E-02
10867,1.83E-03,7.88E-03
10868,2.64E-03,8.67E-03
10869,2.48E-03,8.37E-03
10870,2.49E-03,7.70E-03
10871,2.55E-03,1.08E-02
10872,2.46E-03,1.19E-02
10873,2.22E-03,2.94E-04
10874,2.04E-03,2.67E-04
10875,2.20E-03,2.57E-04
10876,2.98E-03,1.14E-02
10877,2.55E-03,9.47E-03
10878,2.54E-03,1.04E-02
10879,2.48E-03,1.01E-02
10880,2.50E-03,7.54E-03
10881,2.67E-03,8.47E-03
10882,2.56E-03,8.18E-03
10883,2.40E-03,9.49E-03
10884,2.50E-03,9.43E-03
10885,2.53E-03,1.32E-02
10886,2.63E-03,1.50E-02
10887,2.74E-03,1.46E-02
10888,2.57E-03,1.55E-02
10889,2.55E-03,1.53E-02
10890,2.67E-03,1.57E-02
10891,2.57E-03,1.57E-02
10892,2.76E-03,1.53E-02
10893,2.70E-03,1.56E-02
10894,2.84E-03,1.45E-02
10895,2.81E-03,1.50E-02
10896,2.86E-03,1.33E-02
10897,2.90E-03,1.40E-02
10898,2.81E-03,1.18E-02
10899,2.83E-03,1.26E-02
10900,2.72E-03,1.01E-02
10901,2.73E-03,1.09E-02
10902,2.60E-03,8.47E-03
10903,2.62E-03,9.26E-03
10904,2.55E-03,7.76E-03
10905,2.41E-03,1.11E-02
10906,2.61E-03,1.23E-02
10907,2.67E-03,1.26E-02
10908,2.88E-03,1.21E-02
10909,2.34E-03,3.71E-04
10910,2.30E-03,3.33E-04
10911,2.35E-03,4.51E-04
10912,2.31E-03,4.10E-04
10913,2.40E-03,5.36E-04
10914,2.38E-03,4.93E-04
10915,2.51E-03,6.29E-04
10916,2.45E-03,5.81E-04
10917,2.59E-03,7.41E-04
10918,2.55E-03,6.82E-04
10919,2.56E-03,8.80E-04
10920,2.57E-03,8.06E-04
10921,2.49E-03,1.05E-03
10922,2.54E-03,9.62E-04
10923,2.43E-03,1.27E-03
10924,2.47E-03,1.15E-03
10925,2.40E-03,1.53E-03
10926,2.42E-03,1.39E-03
10927,2.43E-03,1.87E-03
10928,2.42E-03,1.69E-03
10929,2.51E-03,2.29E-03
10930,2.47E-03,2.07E-03
10931,2.58E-03,2.82E-03
10932,2.56E-03,2.55E-03
10933,2.68E-03,3.46E-03
10934,2.66E-03,3.13E-03
10935,2.75E-03,4.21E-03
10936,2.73E-03,3.81E-03
10937,2.76E-03,5.16E-03
10938,2.78E-03,4.66E-03
10939,2.70E-03,6.38E-03
10940,2.75E-03,5.74E-03
10941,2.59E-03,7.84E-03
10942,2.62E-03,7.09E-03
10943,2.60E-03,8.61E-03
10944,2.36E-03,1.07E-02
10945,2.37E-03,1.07E-02
10946,2.40E-03,1.08E-02
10947,2.39E-03,1.07E-02
10948,2.43E-03,1.08E-02
10949,2.42E-03,1.08E-02
10950,2.43E-03,1.08E-02
10951,2.43E-03,1.08E-02
10952,2.47E-03,1.08E-02
10953,2.45E-03,1.08E-02
10954,2.48E-03,1.07E-02
10955,2.49E-03,1.08E-02
10956,2.56E-03,1.06E-02
10957,2.52E-03,1.07E-02
10958,2.59E-03,1.05E-02
10959,2.57E-03,1.06E-02
10960,2.65E-03,1.04E-02
10961,2.65E-03,1.04E-02
10962,2.73E-03,1.02E-02
10963,2.68E-03,1.03E-02
10964,2.78E-03,1.01E-02
10965,2.76E-03,1.02E-02
10966,2.74E-03,9.95E-03
10967,2.73E-03,1.00E-02
10968,2.68E-03,9.79E-03
10969,2.72E-03,9.87E-03
10970,2.63E-03,9.63E-03
10971,2.66E-03,9.71E-03
10972,2.57E-03,9.45E-03
10973,2.61E-03,9.54E-03
10974,2.52E-03,9.26E-03
10975,2.55E-03,9.36E-03
10976,2.47E-03,9.06E-03
10977,2.48E-03,9.17E-03
10978,2.38E-03,8.84E-03
10979,2.42E-03,8.95E-03
10980,2.31E-03,8.60E-03
10981,2.35E-03,8.72E-03
10982,2.21E-03,8.33E-03
10983,2.24E-03,8.47E-03
10984,2.09E-03,8.06E-03
10985,2.16E-03,8.20E-03
10986,1.97E-03,7.77E-03
10987,2.02E-03,7.92E-03
10988,1.84E-03,7.47E-03
10989,1.93E-03,7.61E-03
10990,1.88E-03,7.17E-03
10991,1.84E-03,7.31E-03
10992,1.86E-03,6.93E-03
10993,1.85E-03,7.03E-03
10994,1.73E-03,6.74E-03
10995,1.81E-03,6.82E-03
10996,1.51E-03,6.52E-03
10997,1.65E-03,6.63E-03
10998,1.71E-03,6.43E-03
10999,1.57E-03,6.46E-03
11000,1.77E-03,6.43E-03
11001,1.75E-03,6.42E-03
11002,1.75E-03,6.51E-03
11003,1.63E-03,6.45E-03
11004,1.91E-03,6.62E-03
11005,1.87E-03,6.56E-03
11006,2.01E-03,6.70E-03
11007,2.68E-03,1.20E-02
11008,2.43E-03,1.05E-02
11009,2.42E-03,1.06E-02
11010,2.54E-03,7.69E-03
11011,2.53E-03,7.53E-03
11012,2.61E-03,8.03E-03
11013,2.57E-03,7.86E-03
11014,2.58E-03,8.35E-03
11015,2.59E-03,8.19E-03
11016,2.54E-03,8.65E-03
11017,2.53E-03,8.50E-03
11018,2.47E-03,8.93E-03
11019,2.50E-03,8.79E-03
11020,2.49E-03,9.19E-03
11021,2.46E-03,9.06E-03
11022,2.56E-03,9.45E-03
11023,2.53E-03,9.32E-03
11024,2.62E-03,9.69E-03
11025,2.59E-03,9.57E-03
11026,2.65E-03,9.90E-03
11027,2.64E-03,9.80E-03
11028,2.59E-03,1.01E-02
11029,2.61E-03,9.99E-03
11030,2.49E-03,1.02E-02
11031,2.53E-03,1.01E-02
11032,2.35E-03,1.03E-02
11033,2.43E-03,1.03E-02
11034,2.21E-03,1.04E-02
11035,2.27E-03,1.04E-02
11036,2.07E-03,1.05E-02
11037,2.09E-03,1.04E-02
11038,2.00E-03,1.05E-02
11039,1.98E-03,1.05E-02
11040,2.04E-03,1.06E-02
11041,2.03E-03,1.06E-02
11042,2.15E-03,1.07E-02
11043,2.11E-03,1.07E-02
11044,2.29E-03,1.08E-02
11045,2.22E-03,1.07E-02
11046,2.42E-03,1.08E-02
11047,2.36E-03,1.08E-02
11048,2.53E-03,1.09E-02
11049,2.52E-03,1.09E-02
11050,2.62E-03,1.09E-02
11051,2.59E-03,1.09E-02
11052,2.70E-03,1.09E-02
11053,2.64E-03,1.09E-02
11054,2.66E-03,1.08E-02
11055,2.70E-03,1.08E-02
11056,2.59E-03,1.07E-02
11057,2.61E-03,1.08E-02
11058,2.55E-03,1.06E-02
11059,2.56E-03,1.06E-02
11060,2.46E-03,1.04E-02
11061,2.47E-03,1.05E-02
11062,2.33E-03,1.02E-02
11063,2.36E-03,1.03E-02
11064,2.17E-03,1.00E-02
11065,2.28E-03,1.01E-02
11066,2.07E-03,9.95E-03
11067,2.14E-03,9.57E-03
11068,2.18E-03,9.66E-03
11069,2.34E-03,9.14E-03
11070,2.62E-03,9.26E-03
11071,2.25E-03,8.91E-03
11072,2.29E-03,9.02E-03
11073,2.19E-03,8.68E-03
11074,2.21E-03,8.79E-03
11075,2.16E-03,8.46E-03
11076,2.18E-03,8.57E-03
11077,2.11E-03,8.26E-03
11078,2.13E-03,8.36E-03
11079,2.08E-03,8.08E-03
11080,2.09E-03,8.17E-03
11081,2.10E-03,7.99E-03
11082,1.83E-03,7.88E-03
11083,2.01E-03,8.05E-03
11084,1.91E-03,7.96E-03
11085,2.13E-03,8.27E-03
11086,2.10E-03,8.16E-03
11087,2.26E-03,8.49E-03
11088,2.20E-03,8.38E-03
11089,2.37E-03,8.72E-03
11090,2.32E-03,8.60E-03
11091,2.45E-03,8.95E-03
11092,2.40E-03,8.83E-03
11093,2.49E-03,9.20E-03
11094,2.47E-03,9.08E-03
11095,2.50E-03,9.46E-03
11096,2.50E-03,9.33E-03
11097,2.50E-03,9.73E-03
11098,2.50E-03,9.60E-03
11099,2.49E-03,1.00E-02
11100,2.50E-03,9.86E-03
11101,2.47E-03,1.03E-02
11102,2.50E-03,1.01E-02
11103,2.46E-03,1.06E-02
11104,2.48E-03,1.04E-02
11105,2.44E-03,1.08E-02
11106,2.45E-03,1.07E-02
11107,2.40E-03,1.11E-02
11108,2.43E-03,1.10E-02
11109,2.34E-03,1.15E-02
11110,2.38E-03,1.13E-02
11111,2.31E-03,1.18E-02
11112,2.33E-03,1.16E-02
11113,2.28E-03,1.22E-02
11114,2.30E-03,1.20E-02
11115,2.25E-03,1.26E-02
11116,2.28E-03,1.24E-02
11117,2.25E-03,1.31E-02
11118,2.24E-03,1.28E-02
11119,2.28E-03,1.35E-02
11120,2.28E-03,1.33E-02
11121,2.32E-03,1.41E-02
11122,2.32E-03,1.38E-02
11123,2.36E-03,1.47E-02
11124,2.36E-03,1.44E-02
11125,2.35E-03,1.53E-02
11126,2.35E-03,1.50E-02
11127,2.34E-03,1.59E-02
11128,2.35E-03,1.56E-02
11129,2.36E-03,1.66E-02
11130,2.35E-03,1.63E-02
11131,2.36E-03,1.73E-02
11132,2.37E-03,1.70E-02
11133,2.37E-03,1.81E-02
11134,2.37E-03,1.77E-02
11135,2.36E-03,1.89E-02
11136,2.36E-03,1.85E-02
11137,2.36E-03,1.97E-02
11138,2.35E-03,1.93E-02
11139,2.35E-03,2.05E-02
11140,2.35E-03,2.01E-02
11141,2.33E-03,2.13E-02
11142,2.33E-03,2.09E-02
11143,2.30E-03,2.21E-02
11144,2.31E-03,2.17E-02
11145,2.33E-03,2.28E-02
11146,2.33E-03,2.25E-02
11147,2.40E-03,2.35E-02
11148,2.39E-03,2.32E-02
11149,2.47E-03,2.41E-02
11150,2.43E-03,2.38E-02
11151,2.52E-03,2.46E-02
11152,2.49E-03,2.43E-02
11153,2.58E-03,2.50E-02
11154,2.57E-03,2.48E-02
11155,2.63E-03,2.55E-02
11156,2.61E-03,2.53E-02
11157,2.71E-03,2.60E-02
11158,2.67E-03,2.58E-02
11159,2.75E-03,2.66E-02
11160,2.72E-03,2.63E-02
11161,2.80E-03,2.71E-02
11162,2.79E-03,2.68E-02
11163,2.89E-03,2.77E-02
11164,2.83E-03,2.74E-02
11165,2.91E-03,2.83E-02
11166,2.92E-03,2.80E-02
11167,2.80E-03,2.90E-02
11168,2.85E-03,2.87E-02
11169,2.77E-03,2.98E-02
11170,2.79E-03,2.94E-02
11171,2.69E-03,3.05E-02
11172,2.70E-03,3.01E-02
11173,2.62E-03,3.13E-02
11174,2.65E-03,3.09E-02
11175,2.58E-03,3.21E-02
11176,2.59E-03,3.17E-02
11177,2.51E-03,3.28E-02
11178,2.53E-03,3.24E-02
11179,2.51E-03,3.36E-02
11180,2.51E-03,3.32E-02
11181,2.51E-03,3.45E-02
11182,2.51E-03,3.40E-02
11183,2.46E-03,3.53E-02
11184,2.47E-03,3.49E-02
11185,2.45E-03,3.62E-02
11186,2.46E-03,3.58E-02
11187,2.44E-03,3.71E-02
11188,2.44E-03,3.67E-02
11189,2.46E-03,3.80E-02
11190,2.44E-03,3.76E-02
11191,2.44E-03,3.88E-02
11192,2.46E-03,3.84E-02
11193,2.45E-03,3.96E-02
11194,2.47E-03,3.92E-02
11195,2.46E-03,4.01E-02
11196,2.47E-03,3.99E-02
11197,2.50E-03,4.06E-02
11198,2.50E-03,4.04E-02
11199,2.54E-03,4.08E-02
11200,2.52E-03,4.07E-02
11201,2.56E-03,4.09E-02
11202,2.56E-03,4.09E-02
11203,2.57E-03,4.08E-02
11204,2.56E-03,4.09E-02
11205,2.59E-03,4.04E-02
11206,2.59E-03,4.06E-02
11207,2.56E-03,3.99E-02
11208,2.57E-03,4.02E-02
11209,2.52E-03,3.91E-02
11210,2.54E-03,3.95E-02
11211,2.50E-03,3.79E-02
11212,2.51E-03,3.85E-02
11213,2.46E-03,3.64E-02
11214,2.47E-03,3.72E-02
11215,2.51E-03,3.44E-02
11216,2.48E-03,3.55E-02
11217,2.56E-03,3.17E-02
11218,2.52E-03,3.31E-02
11219,2.92E-03,3.01E-02
11220,1.89E-03,2.26E-02
11221,1.89E-03,1.98E-02
11222,2.47E-03,9.46E-03
11223,2.68E-03,1.18E-02
11224,2.36E-03,6.55E-03
11225,2.37E-03,7.66E-03
11226,2.00E-03,2.90E-04
11227,1.94E-03,2.75E-04
11228,2.12E-03,3.29E-04
11229,2.16E-03,3.09E-04
11230,2.10E-03,3.75E-04
11231,2.11E-03,3.51E-04
11232,2.07E-03,4.30E-04
11233,2.08E-03,4.01E-04
11234,2.05E-03,4.92E-04
11235,2.06E-03,4.60E-04
11236,2.06E-03,5.62E-04
11237,2.05E-03,5.26E-04
11238,2.05E-03,6.41E-04
11239,2.08E-03,6.00E-04
11240,2.08E-03,7.26E-04
11241,2.06E-03,6.83E-04
11242,2.14E-03,8.21E-04
11243,2.10E-03,7.72E-04
11244,2.18E-03,9.27E-04
11245,2.16E-03,8.73E-04
11246,2.27E-03,1.05E-03
11247,2.26E-03,9.87E-04
11248,2.43E-03,1.19E-03
11249,2.29E-03,1.12E-03
11250,2.64E-03,1.27E-03
11251,2.51E-03,1.47E-03
11252,2.73E-03,1.38E-03
11253,2.37E-03,1.65E-03
11254,2.45E-03,1.56E-03
11255,2.26E-03,1.83E-03
11256,2.31E-03,1.74E-03
11257,2.27E-03,2.02E-03
11258,2.25E-03,1.92E-03
11259,2.26E-03,2.22E-03
11260,2.24E-03,2.12E-03
11261,2.26E-03,2.43E-03
11262,2.25E-03,2.32E-03
11263,2.26E-03,2.65E-03
11264,2.26E-03,2.54E-03
11265,2.28E-03,2.88E-03
11266,2.27E-03,2.77E-03
11267,2.30E-03,3.13E-03
11268,2.28E-03,3.00E-03
11269,2.32E-03,3.39E-03
11270,2.29E-03,3.25E-03
11271,2.38E-03,3.67E-03
11272,2.34E-03,3.52E-03
11273,2.39E-03,3.98E-03
11274,2.38E-03,3.82E-03
11275,2.39E-03,4.30E-03
11276,2.40E-03,4.14E-03
11277,2.39E-03,4.63E-03
11278,2.38E-03,4.46E-03
11279,2.38E-03,4.96E-03
11280,2.38E-03,4.79E-03
11281,2.39E-03,5.27E-03
11282,2.39E-03,5.12E-03
11283,2.40E-03,5.59E-03
11284,2.40E-03,5.43E-03
11285,2.41E-03,5.93E-03
11286,2.41E-03,5.76E-03
11287,2.42E-03,6.29E-03
11288,2.42E-03,6.11E-03
11289,2.42E-03,6.66E-03
11290,2.42E-03,6.47E-03
11291,2.42E-03,7.01E-03
11292,2.42E-03,6.84E-03
11293,2.44E-03,7.33E-03
11294,2.42E-03,7.17E-03
11295,2.45E-03,7.61E-03
11296,2.43E-03,7.48E-03
11297,2.43E-03,7.88E-03
11298,2.44E-03,7.75E-03
11299,2.46E-03,8.12E-03
11300,2.45E-03,8.00E-03
11301,2.42E-03,8.36E-03
11302,2.45E-03,8.24E-03
11303,2.37E-03,8.61E-03
11304,2.42E-03,8.48E-03
11305,2.33E-03,8.88E-03
11306,2.34E-03,8.74E-03
11307,2.33E-03,9.17E-03
11308,2.33E-03,9.02E-03
11309,2.37E-03,9.49E-03
11310,2.36E-03,9.33E-03
11311,2.40E-03,9.81E-03
11312,2.38E-03,9.65E-03
11313,2.46E-03,1.01E-02
11314,2.43E-03,9.96E-03
11315,2.45E-03,6.85E-03
11316,2.38E-03,6.33E-03
11317,2.40E-03,7.14E-03
11318,2.02E-03,9.46E-03
11319,2.48E-03,1.02E-02
11320,2.44E-03,1.04E-02
11321,2.51E-03,7.88E-03
11322,2.50E-03,7.66E-03
11323,2.51E-03,8.00E-03
11324,2.37E-03,9.66E-03
11325,2.44E-03,9.06E-03
11326,2.58E-03,9.20E-03
11327,2.53E-03,9.91E-03
11328,2.58E-03,1.32E-02
11329,2.46E-03,7.71E-03
11330,2.42E-03,1.13E-02
11331,2.39E-03,1.06E-02
11332,2.55E-03,1.20E-02
11333,1.71E-03,7.78E-03
11334,2.32E-03,6.78E-03
11335,2.64E-03,1.15E-02
11336,2.65E-03,1.18E-02
11337,2.77E-03,1.17E-02
11338,2.35E-03,1.09E-02
11339,2.38E-03,1.09E-02
11340,2.42E-03,7.29E-03
11341,1.83E-03,7.73E-03
11342,2.69E-03,8.80E-03
11343,2.48E-03,8.25E-03
11344,2.49E-03,7.80E-03
11345,2.47E-03,7.84E-03
11346,2.46E-03,8.64E-03
11347,2.62E-03,8.99E-03
11348,2.54E-03,1.04E-02
11349,2.44E-03,1.15E-02
11350,2.35E-03,9.83E-03
11351,2.37E-03,1.01E-02
11352,2.47E-03,1.18E-02
11353,2.25E-03,2.84E-04
11354,2.19E-03,2.45E-04
11355,2.07E-03,2.30E-04
11356,2.02E-03,2.19E-04
11357,2.50E-03,1.14E-02
11358,2.18E-03,9.43E-03
11359,2.08E-03,1.02E-02
11360,2.58E-03,1.10E-02
11361,1.94E-03,9.33E-03
11362,2.47E-03,1.03E-02
11363,2.50E-03,7.77E-03
11364,2.61E-03,8.56E-03
11365,2.50E-03,8.28E-03
11366,2.41E-03,9.36E-03
11367,2.54E-03,9.55E-03
11368,2.48E-03,1.45E-02
11369,2.52E-03,1.38E-02
11370,2.50E-03,1.51E-02
11371,2.49E-03,1.65E-02
11372,2.51E-03,1.60E-02
11373,2.52E-03,1.73E-02
11374,2.50E-03,1.70E-02
11375,2.61E-03,1.77E-02
11376,2.57E-03,1.75E-02
11377,2.72E-03,1.75E-02
11378,2.65E-03,1.77E-02
11379,2.79E-03,1.68E-02
11380,2.75E-03,1.72E-02
11381,2.80E-03,1.55E-02
11382,2.82E-03,1.62E-02
11383,2.77E-03,1.37E-02
11384,2.77E-03,1.46E-02
11385,2.69E-03,1.18E-02
11386,2.69E-03,1.28E-02
11387,2.59E-03,9.83E-03
11388,2.60E-03,1.08E-02
11389,2.53E-03,8.80E-03
11390,2.41E-03,1.09E-02
11391,2.61E-03,1.19E-02
11392,2.80E-03,1.30E-02
11393,3.08E-03,1.26E-02
11394,1.48E-03,7.71E-03
11395,2.29E-03,3.64E-04
11396,2.28E-03,3.23E-04
11397,2.33E-03,4.48E-04
11398,2.31E-03,4.05E-04
11399,2.39E-03,5.36E-04
11400,2.37E-03,4.92E-04
11401,2.50E-03,6.29E-04
11402,2.44E-03,5.81E-04
11403,2.54E-03,7.41E-04
11404,2.51E-03,6.82E-04
11405,2.55E-03,8.80E-04
11406,2.56E-03,8.06E-04
11407,2.48E-03,1.05E-03
11408,2.53E-03,9.60E-04
11409,2.42E-03,1.25E-03
11410,2.46E-03,1.15E-03
11411,2.39E-03,1.51E-03
11412,2.40E-03,1.37E-03
11413,2.43E-03,1.84E-03
11414,2.41E-03,1.66E-03
11415,2.50E-03,2.27E-03
11416,2.43E-03,2.04E-03
11417,2.56E-03,2.80E-03
11418,2.51E-03,2.52E-03
11419,2.63E-03,3.43E-03
11420,2.59E-03,3.10E-03
11421,2.66E-03,4.17E-03
11422,2.66E-03,3.78E-03
11423,2.69E-03,5.10E-03
11424,2.69E-03,4.60E-03
11425,2.60E-03,6.34E-03
11426,2.65E-03,5.68E-03
11427,2.46E-03,7.89E-03
11428,2.52E-03,7.09E-03
11429,2.37E-03,8.69E-03
11430,2.36E-03,1.10E-02
11431,2.36E-03,1.10E-02
11432,2.41E-03,1.11E-02
11433,2.39E-03,1.11E-02
11434,2.44E-03,1.12E-02
11435,2.42E-03,1.12E-02
11436,2.44E-03,1.13E-02
11437,2.43E-03,1.13E-02
11438,2.45E-03,1.13E-02
11439,2.44E-03,1.13E-02
11440,2.49E-03,1.12E-02
11441,2.48E-03,1.12E-02
11442,2.52E-03,1.11E-02
11443,2.51E-03,1.11E-02
11444,2.58E-03,1.10E-02
11445,2.55E-03,1.10E-02
11446,2.63E-03,1.09E-02
11447,2.61E-03,1.09E-02
11448,2.69E-03,1.07E-02
11449,2.65E-03,1.08E-02
11450,2.73E-03,1.06E-02
11451,2.69E-03,1.07E-02
11452,2.71E-03,1.04E-02
11453,2.71E-03,1.05E-02
11454,2.66E-03,1.02E-02
11455,2.67E-03,1.03E-02
11456,2.63E-03,1.00E-02
11457,2.64E-03,1.01E-02
11458,2.55E-03,9.85E-03
11459,2.60E-03,9.94E-03
11460,2.52E-03,9.64E-03
11461,2.55E-03,9.75E-03
11462,2.47E-03,9.41E-03
11463,2.50E-03,9.53E-03
11464,2.40E-03,9.16E-03
11465,2.43E-03,9.29E-03
11466,2.33E-03,8.89E-03
11467,2.36E-03,9.03E-03
11468,2.25E-03,8.59E-03
11469,2.29E-03,8.74E-03
11470,2.16E-03,8.28E-03
11471,2.19E-03,8.44E-03
11472,2.04E-03,7.95E-03
11473,2.09E-03,8.12E-03
11474,1.95E-03,7.60E-03
11475,2.00E-03,7.78E-03
11476,1.93E-03,7.26E-03
11477,1.95E-03,7.43E-03
11478,1.93E-03,6.95E-03
11479,1.95E-03,7.10E-03
11480,1.87E-03,6.69E-03
11481,1.91E-03,6.82E-03
11482,1.75E-03,6.47E-03
11483,1.87E-03,6.58E-03
11484,1.81E-03,6.34E-03
11485,1.73E-03,6.40E-03
11486,1.84E-03,6.31E-03
11487,1.85E-03,6.31E-03
11488,1.87E-03,6.40E-03
11489,1.82E-03,6.36E-03
11490,2.01E-03,6.54E-03
11491,1.91E-03,6.46E-03
11492,2.09E-03,6.63E-03
11493,2.70E-03,1.16E-02
11494,2.43E-03,1.08E-02
11495,2.39E-03,1.08E-02
11496,2.51E-03,7.61E-03
11497,2.47E-03,7.45E-03
11498,2.58E-03,7.94E-03
11499,2.55E-03,7.77E-03
11500,2.56E-03,8.26E-03
11501,2.59E-03,8.10E-03
11502,2.52E-03,8.55E-03
11503,2.54E-03,8.41E-03
11504,2.47E-03,8.83E-03
11505,2.49E-03,8.69E-03
11506,2.48E-03,9.08E-03
11507,2.47E-03,8.96E-03
11508,2.55E-03,9.33E-03
11509,2.52E-03,9.21E-03
11510,2.60E-03,9.57E-03
11511,2.57E-03,9.46E-03
11512,2.62E-03,9.78E-03
11513,2.62E-03,9.68E-03
11514,2.58E-03,9.95E-03
11515,2.61E-03,9.87E-03
11516,2.51E-03,1.01E-02
11517,2.54E-03,1.00E-02
11518,2.38E-03,1.02E-02
11519,2.45E-03,1.01E-02
11520,2.24E-03,1.03E-02
11521,2.31E-03,1.02E-02
11522,2.13E-03,1.03E-02
11523,2.17E-03,1.03E-02
11524,2.07E-03,1.04E-02
11525,2.07E-03,1.04E-02
11526,2.10E-03,1.05E-02
11527,2.07E-03,1.05E-02
11528,2.18E-03,1.06E-02
11529,2.13E-03,1.05E-02
11530,2.30E-03,1.07E-02
11531,2.24E-03,1.06E-02
11532,2.42E-03,1.07E-02
11533,2.37E-03,1.07E-02
11534,2.51E-03,1.08E-02
11535,2.47E-03,1.08E-02
11536,2.57E-03,1.08E-02
11537,2.57E-03,1.08E-02
11538,2.67E-03,1.08E-02
11539,2.62E-03,1.08E-02
11540,2.63E-03,1.07E-02
11541,2.67E-03,1.07E-02
11542,2.59E-03,1.06E-02
11543,2.59E-03,1.07E-02
11544,2.52E-03,1.05E-02
11545,2.53E-03,1.05E-02
11546,2.43E-03,1.03E-02
11547,2.47E-03,1.04E-02
11548,2.33E-03,1.02E-02
11549,2.38E-03,1.02E-02
11550,2.20E-03,9.98E-03
11551,2.28E-03,1.01E-02
11552,2.09E-03,9.79E-03
11553,2.18E-03,9.89E-03
11554,2.20E-03,9.69E-03
11555,1.97E-03,9.47E-03
11556,2.33E-03,9.56E-03
11557,1.81E-03,9.21E-03
11558,1.66E-03,9.29E-03
11559,1.99E-03,9.37E-03
11560,2.32E-03,9.03E-03
11561,2.46E-03,9.13E-03
11562,2.26E-03,8.79E-03
11563,2.29E-03,8.91E-03
11564,2.24E-03,8.56E-03
11565,2.24E-03,8.68E-03
11566,2.18E-03,8.33E-03
11567,2.20E-03,8.45E-03
11568,2.14E-03,8.12E-03
11569,2.16E-03,8.23E-03
11570,2.15E-03,7.93E-03
11571,2.14E-03,8.02E-03
11572,2.25E-03,7.83E-03
11573,1.92E-03,7.73E-03
11574,2.08E-03,7.91E-03
11575,2.02E-03,7.82E-03
11576,2.17E-03,8.13E-03
11577,2.12E-03,8.02E-03
11578,2.28E-03,8.35E-03
11579,2.22E-03,8.24E-03
11580,2.38E-03,8.58E-03
11581,2.33E-03,8.47E-03
11582,2.45E-03,8.82E-03
11583,2.41E-03,8.70E-03
11584,2.49E-03,9.08E-03
11585,2.47E-03,8.95E-03
11586,2.50E-03,9.34E-03
11587,2.50E-03,9.21E-03
11588,2.50E-03,9.61E-03
11589,2.50E-03,9.47E-03
11590,2.49E-03,9.88E-03
11591,2.50E-03,9.74E-03
11592,2.48E-03,1.01E-02
11593,2.50E-03,1.00E-02
11594,2.46E-03,1.04E-02
11595,2.49E-03,1.03E-02
11596,2.45E-03,1.07E-02
11597,2.46E-03,1.06E-02
11598,2.41E-03,1.10E-02
11599,2.43E-03,1.08E-02
11600,2.37E-03,1.13E-02
11601,2.40E-03,1.11E-02
11602,2.33E-03,1.16E-02
11603,2.35E-03,1.15E-02
11604,2.31E-03,1.20E-02
11605,2.33E-03,1.18E-02
11606,2.29E-03,1.24E-02
11607,2.30E-03,1.22E-02
11608,2.30E-03,1.29E-02
11609,2.28E-03,1.26E-02
11610,2.30E-03,1.34E-02
11611,2.31E-03,1.31E-02
11612,2.35E-03,1.39E-02
11613,2.35E-03,1.36E-02
11614,2.41E-03,1.45E-02
11615,2.39E-03,1.42E-02
11616,2.39E-03,1.51E-02
11617,2.40E-03,1.48E-02
11618,2.37E-03,1.57E-02
11619,2.37E-03,1.54E-02
11620,2.38E-03,1.64E-02
11621,2.37E-03,1.61E-02
11622,2.39E-03,1.72E-02
11623,2.39E-03,1.68E-02
11624,2.38E-03,1.79E-02
11625,2.38E-03,1.75E-02
11626,2.38E-03,1.88E-02
11627,2.38E-03,1.83E-02
11628,2.37E-03,1.96E-02
11629,2.38E-03,1.92E-02
11630,2.36E-03,2.05E-02
11631,2.37E-03,2.00E-02
11632,2.35E-03,2.14E-02
11633,2.36E-03,2.09E-02
11634,2.33E-03,2.22E-02
11635,2.33E-03,2.18E-02
11636,2.35E-03,2.30E-02
11637,2.34E-03,2.26E-02
11638,2.41E-03,2.37E-02
11639,2.39E-03,2.34E-02
11640,2.47E-03,2.44E-02
11641,2.42E-03,2.41E-02
11642,2.52E-03,2.49E-02
11643,2.49E-03,2.47E-02
11644,2.57E-03,2.54E-02
11645,2.56E-03,2.52E-02
11646,2.62E-03,2.60E-02
11647,2.60E-03,2.57E-02
11648,2.66E-03,2.65E-02
11649,2.64E-03,2.62E-02
11650,2.72E-03,2.72E-02
11651,2.68E-03,2.68E-02
11652,2.76E-03,2.78E-02
11653,2.74E-03,2.75E-02
11654,2.81E-03,2.84E-02
11655,2.79E-03,2.81E-02
11656,2.84E-03,2.91E-02
11657,2.84E-03,2.87E-02
11658,2.76E-03,2.98E-02
11659,2.80E-03,2.95E-02
11660,2.70E-03,3.06E-02
11661,2.75E-03,3.02E-02
11662,2.66E-03,3.14E-02
11663,2.69E-03,3.10E-02
11664,2.60E-03,3.23E-02
11665,2.62E-03,3.19E-02
11666,2.53E-03,3.31E-02
11667,2.57E-03,3.27E-02
11668,2.51E-03,3.39E-02
11669,2.54E-03,3.35E-02
11670,2.51E-03,3.48E-02
11671,2.51E-03,3.43E-02
11672,2.50E-03,3.57E-02
11673,2.50E-03,3.52E-02
11674,2.49E-03,3.66E-02
11675,2.50E-03,3.61E-02
11676,2.45E-03,3.76E-02
11677,2.46E-03,3.71E-02
11678,2.45E-03,3.86E-02
11679,2.45E-03,3.81E-02
11680,2.46E-03,3.96E-02
11681,2.45E-03,3.91E-02
11682,2.45E-03,4.05E-02
11683,2.46E-03,4.01E-02
11684,2.46E-03,4.13E-02
11685,2.47E-03,4.09E-02
11686,2.47E-03,4.20E-02
11687,2.48E-03,4.17E-02
11688,2.50E-03,4.26E-02
11689,2.49E-03,4.23E-02
11690,2.54E-03,4.29E-02
11691,2.51E-03,4.27E-02
11692,2.55E-03,4.31E-02
11693,2.54E-03,4.30E-02
11694,2.55E-03,4.30E-02
11695,2.56E-03,4.31E-02
11696,2.57E-03,4.28E-02
11697,2.57E-03,4.29E-02
11698,2.55E-03,4.23E-02
11699,2.55E-03,4.26E-02
11700,2.53E-03,4.16E-02
11701,2.53E-03,4.20E-02
11702,2.50E-03,4.06E-02
11703,2.50E-03,4.11E-02
11704,2.44E-03,3.92E-02
11705,2.47E-03,3.99E-02
11706,2.47E-03,3.73E-02
11707,2.45E-03,3.83E-02
11708,2.53E-03,3.48E-02
11709,2.50E-03,3.62E-02
11710,2.34E-03,3.22E-02
11711,2.50E-03,3.34E-02
11712,1.93E-03,2.18E-02
11713,2.25E-03,2.55E-02
11714,2.31E-03,1.51E-02
11715,2.16E-03,1.80E-02
11716,2.32E-03,6.94E-03
11717,2.48E-03,8.60E-03
11718,2.41E-03,5.64E-03
11719,2.27E-03,5.79E-03
11720,2.12E-03,2.61E-04
11721,2.08E-03,2.44E-04
11722,2.16E-03,3.04E-04
11723,2.15E-03,2.82E-04
11724,2.13E-03,3.54E-04
11725,2.15E-03,3.28E-04
11726,2.14E-03,4.09E-04
11727,2.13E-03,3.81E-04
11728,2.12E-03,4.72E-04
11729,2.11E-03,4.40E-04
11730,2.13E-03,5.43E-04
11731,2.10E-03,5.07E-04
11732,2.12E-03,6.21E-04
11733,2.13E-03,5.82E-04
11734,2.15E-03,7.05E-04
11735,2.13E-03,6.63E-04
11736,2.22E-03,7.96E-04
11737,2.16E-03,7.50E-04
11738,2.25E-03,8.98E-04
11739,2.22E-03,8.46E-04
11740,2.30E-03,1.01E-03
11741,2.28E-03,9.55E-04
11742,2.32E-03,1.14E-03
11743,2.29E-03,1.08E-03
11744,2.24E-03,1.29E-03
11745,2.23E-03,1.21E-03
11746,2.49E-03,1.43E-03
11747,2.32E-03,1.36E-03
11748,2.37E-03,1.60E-03
11749,2.44E-03,1.52E-03
11750,2.31E-03,1.78E-03
11751,2.31E-03,1.69E-03
11752,2.29E-03,1.96E-03
11753,2.29E-03,1.87E-03
11754,2.29E-03,2.16E-03
11755,2.29E-03,2.06E-03
11756,2.30E-03,2.37E-03
11757,2.30E-03,2.26E-03
11758,2.30E-03,2.59E-03
11759,2.30E-03,2.47E-03
11760,2.32E-03,2.81E-03
11761,2.31E-03,2.70E-03
11762,2.33E-03,3.05E-03
11763,2.31E-03,2.93E-03
11764,2.34E-03,3.31E-03
11765,2.33E-03,3.18E-03
11766,2.38E-03,3.59E-03
11767,2.36E-03,3.44E-03
11768,2.42E-03,3.90E-03
11769,2.39E-03,3.74E-03
11770,2.42E-03,4.23E-03
11771,2.42E-03,4.06E-03
11772,2.40E-03,4.57E-03
11773,2.41E-03,4.40E-03
11774,2.41E-03,4.90E-03
11775,2.41E-03,4.74E-03
11776,2.41E-03,5.22E-03
11777,2.41E-03,5.06E-03
11778,2.42E-03,5.54E-03
11779,2.41E-03,5.38E-03
11780,2.43E-03,5.89E-03
11781,2.43E-03,5.71E-03
11782,2.43E-03,6.27E-03
11783,2.43E-03,6.08E-03
11784,2.44E-03,6.67E-03
11785,2.43E-03,6.47E-03
11786,2.44E-03,7.05E-03
11787,2.43E-03,6.86E-03
11788,2.45E-03,7.39E-03
11789,2.45E-03,7.22E-03
11790,2.45E-03,7.70E-03
11791,2.45E-03,7.55E-03
11792,2.45E-03,7.98E-03
11793,2.45E-03,7.84E-03
11794,2.47E-03,8.25E-03
11795,2.47E-03,8.11E-03
11796,2.45E-03,8.51E-03
11797,2.47E-03,8.38E-03
11798,2.40E-03,8.77E-03
11799,2.44E-03,8.63E-03
11800,2.34E-03,9.04E-03
11801,2.36E-03,8.90E-03
11802,2.34E-03,9.34E-03
11803,2.34E-03,9.19E-03
11804,2.37E-03,9.68E-03
11805,2.35E-03,9.51E-03
11806,2.39E-03,1.00E-02
11807,2.37E-03,9.85E-03
11808,2.45E-03,1.03E-02
11809,2.42E-03,1.02E-02
11810,2.37E-03,6.73E-03
11811,2.91E-03,8.89E-03
11812,2.47E-03,1.05E-02
11813,2.46E-03,1.07E-02
11814,2.49E-03,8.13E-03
11815,2.48E-03,7.91E-03
11816,2.45E-03,8.10E-03
11817,2.37E-03,9.53E-03
11818,2.44E-03,8.93E-03
11819,2.58E-03,9.31E-03
11820,2.53E-03,1.00E-02
11821,2.46E-03,1.39E-02
11822,2.41E-03,1.12E-02
11823,2.38E-03,1.05E-02
11824,2.49E-03,1.17E-02
11825,2.04E-03,7.61E-03
11826,2.07E-03,2.08E-04
11827,2.11E-03,1.13E-02
11828,2.63E-03,1.11E-02
11829,2.79E-03,1.14E-02
11830,3.02E-03,1.13E-02
11831,2.36E-03,1.12E-02
11832,2.38E-03,1.11E-02
11833,2.50E-03,8.07E-03
11834,2.45E-03,7.95E-03
11835,2.46E-03,8.51E-03
11836,2.66E-03,9.09E-03
11837,2.45E-03,1.14E-02
11838,2.55E-03,1.06E-02
11839,2.07E-03,6.92E-03
11840,2.27E-03,7.05E-03
11841,2.34E-03,8.67E-03
11842,2.43E-03,8.97E-03
11843,2.36E-03,9.71E-03
11844,2.35E-03,1.00E-02
11845,2.47E-03,1.06E-02
11846,2.49E-03,8.02E-03
11847,2.42E-03,8.38E-03
11848,2.41E-03,9.23E-03
11849,2.55E-03,9.67E-03
11850,2.32E-03,1.55E-02
11851,2.34E-03,1.47E-02
11852,2.05E-03,1.69E-02
11853,2.16E-03,1.63E-02
11854,2.35E-03,1.85E-02
11855,2.21E-03,1.81E-02
11856,2.44E-03,1.95E-02
11857,2.41E-03,1.90E-02
11858,2.58E-03,2.01E-02
11859,2.52E-03,1.98E-02
11860,2.67E-03,2.02E-02
11861,2.64E-03,2.03E-02
11862,2.75E-03,1.95E-02
11863,2.70E-03,2.00E-02
11864,2.75E-03,1.81E-02
11865,2.77E-03,1.89E-02
11866,2.71E-03,1.62E-02
11867,2.73E-03,1.72E-02
11868,2.64E-03,1.42E-02
11869,2.66E-03,1.52E-02
11870,2.57E-03,1.20E-02
11871,2.59E-03,1.31E-02
11872,2.57E-03,9.58E-03
11873,2.54E-03,1.09E-02
11874,2.41E-03,1.08E-02
11875,2.52E-03,1.15E-02
11876,1.61E-03,7.54E-03
11877,1.78E-03,7.52E-03
11878,2.24E-03,2.74E-04
11879,2.13E-03,1.96E-04
11880,2.18E-03,2.34E-04
11881,2.30E-03,3.57E-04
11882,2.28E-03,3.15E-04
11883,2.33E-03,4.47E-04
11884,2.31E-03,4.02E-04
11885,2.38E-03,5.40E-04
11886,2.35E-03,4.94E-04
11887,2.46E-03,6.32E-04
11888,2.43E-03,5.85E-04
11889,2.53E-03,7.40E-04
11890,2.50E-03,6.83E-04
11891,2.52E-03,8.77E-04
11892,2.52E-03,8.05E-04
11893,2.47E-03,1.04E-03
11894,2.52E-03,9.55E-04
11895,2.44E-03,1.23E-03
11896,2.45E-03,1.13E-03
11897,2.38E-03,1.47E-03
11898,2.39E-03,1.34E-03
11899,2.42E-03,1.79E-03
11900,2.40E-03,1.62E-03
11901,2.47E-03,2.23E-03
11902,2.42E-03,2.00E-03
11903,2.53E-03,2.77E-03
11904,2.48E-03,2.49E-03
11905,2.59E-03,3.40E-03
11906,2.54E-03,3.08E-03
11907,2.60E-03,4.12E-03
11908,2.59E-03,3.75E-03
11909,2.59E-03,5.02E-03
11910,2.60E-03,4.54E-03
11911,2.53E-03,6.27E-03
11912,2.58E-03,5.59E-03
11913,2.36E-03,7.91E-03
11914,2.45E-03,7.05E-03
11915,1.95E-03,9.52E-03
11916,2.21E-03,8.77E-03
11917,2.38E-03,1.13E-02
11918,2.36E-03,1.13E-02
11919,2.43E-03,1.15E-02
11920,2.41E-03,1.14E-02
11921,2.44E-03,1.16E-02
11922,2.43E-03,1.16E-02
11923,2.45E-03,1.17E-02
11924,2.44E-03,1.17E-02
11925,2.45E-03,1.17E-02
11926,2.45E-03,1.17E-02
11927,2.47E-03,1.17E-02
11928,2.46E-03,1.17E-02
11929,2.51E-03,1.16E-02
11930,2.50E-03,1.16E-02
11931,2.55E-03,1.15E-02
11932,2.53E-03,1.16E-02
11933,2.60E-03,1.14E-02
11934,2.59E-03,1.14E-02
11935,2.63E-03,1.12E-02
11936,2.62E-03,1.13E-02
11937,2.67E-03,1.11E-02
11938,2.66E-03,1.12E-02
11939,2.67E-03,1.09E-02
11940,2.69E-03,1.10E-02
11941,2.64E-03,1.07E-02
11942,2.68E-03,1.08E-02
11943,2.60E-03,1.05E-02
11944,2.62E-03,1.06E-02
11945,2.55E-03,1.03E-02
11946,2.60E-03,1.04E-02
11947,2.52E-03,1.01E-02
11948,2.54E-03,1.02E-02
11949,2.48E-03,9.80E-03
11950,2.50E-03,9.93E-03
11951,2.44E-03,9.52E-03
11952,2.44E-03,9.66E-03
11953,2.36E-03,9.21E-03
11954,2.37E-03,9.36E-03
11955,2.29E-03,8.88E-03
11956,2.32E-03,9.05E-03
11957,2.20E-03,8.53E-03
11958,2.23E-03,8.71E-03
11959,2.13E-03,8.16E-03
11960,2.16E-03,8.35E-03
11961,2.06E-03,7.76E-03
11962,2.08E-03,7.96E-03
11963,2.01E-03,7.37E-03
11964,2.04E-03,7.56E-03
11965,2.00E-03,7.00E-03
11966,2.02E-03,7.18E-03
11967,1.95E-03,6.67E-03
11968,1.98E-03,6.83E-03
11969,1.94E-03,6.43E-03
11970,1.93E-03,6.54E-03
11971,1.91E-03,6.26E-03
11972,1.89E-03,6.33E-03
11973,1.95E-03,6.21E-03
11974,1.94E-03,6.22E-03
11975,1.98E-03,6.28E-03
11976,1.95E-03,6.23E-03
11977,2.10E-03,6.44E-03
11978,2.04E-03,6.35E-03
11979,2.28E-03,6.67E-03
11980,2.15E-03,6.54E-03
11981,1.89E-03,6.79E-03
11982,2.70E-03,1.12E-02
11983,2.38E-03,1.11E-02
11984,2.47E-03,1.36E-02
11985,1.69E-03,7.57E-03
11986,2.38E-03,9.57E-03
11987,2.35E-03,9.87E-03
11988,2.37E-03,7.20E-03
11989,2.43E-03,7.35E-03
11990,2.48E-03,7.52E-03
11991,2.52E-03,7.68E-03
11992,2.54E-03,7.84E-03
11993,2.57E-03,8.01E-03
11994,2.56E-03,8.16E-03
11995,2.54E-03,8.31E-03
11996,2.51E-03,8.45E-03
11997,2.52E-03,8.59E-03
11998,2.47E-03,8.72E-03
11999,2.45E-03,8.85E-03
12000,2.46E-03,8.98E-03
12001,2.50E-03,9.10E-03
12002,2.54E-03,9.22E-03
12003,2.55E-03,9.34E-03
12004,2.58E-03,9.45E-03
12005,2.60E-03,9.56E-03
12006,2.61E-03,9.66E-03
12007,2.60E-03,9.75E-03
12008,2.56E-03,9.83E-03
12009,2.54E-03,9.90E-03
12010,2.51E-03,9.96E-03
12011,2.47E-03,1.00E-02
12012,2.42E-03,1.01E-02
12013,2.36E-03,1.01E-02
12014,2.29E-03,1.01E-02
12015,2.23E-03,1.02E-02
12016,2.19E-03,1.02E-02
12017,2.15E-03,1.03E-02
12018,2.14E-03,1.03E-02
12019,2.12E-03,1.03E-02
12020,2.15E-03,1.04E-02
12021,2.17E-03,1.04E-02
12022,2.22E-03,1.05E-02
12023,2.26E-03,1.05E-02
12024,2.31E-03,1.05E-02
12025,2.36E-03,1.06E-02
12026,2.41E-03,1.06E-02
12027,2.45E-03,1.06E-02
12028,2.49E-03,1.07E-02
12029,2.51E-03,1.07E-02
12030,2.55E-03,1.07E-02
12031,2.60E-03,1.07E-02
12032,2.61E-03,1.07E-02
12033,2.62E-03,1.06E-02
12034,2.60E-03,1.06E-02
12035,2.57E-03,1.06E-02
12036,2.58E-03,1.05E-02
12037,2.53E-03,1.05E-02
12038,2.50E-03,1.04E-02
12039,2.47E-03,1.03E-02
12040,2.44E-03,1.03E-02
12041,2.39E-03,1.02E-02
12042,2.34E-03,1.01E-02
12043,2.29E-03,1.00E-02
12044,2.25E-03,9.92E-03
12045,2.23E-03,9.82E-03
12046,2.21E-03,9.73E-03
12047,1.89E-03,9.65E-03
12048,1.97E-03,9.55E-03
12049,1.95E-03,9.47E-03
12050,1.97E-03,9.39E-03
12051,2.04E-03,9.30E-03
12052,2.11E-03,9.20E-03
12053,1.82E-03,9.10E-03
12054,2.10E-03,9.01E-03
12055,2.28E-03,8.91E-03
12056,2.29E-03,8.80E-03
12057,2.28E-03,8.68E-03
12058,2.27E-03,8.56E-03
12059,2.28E-03,8.44E-03
12060,2.23E-03,8.32E-03
12061,2.22E-03,8.20E-03
12062,2.22E-03,8.09E-03
12063,2.17E-03,7.98E-03
12064,2.16E-03,7.87E-03
12065,2.15E-03,7.77E-03
12066,2.06E-03,7.67E-03
12067,2.57E-03,1.07E-02
12068,2.42E-03,1.13E-02
12069,2.35E-03,1.03E-02
12070,2.42E-03,1.10E-02
12071,1.80E-03,7.47E-03
12072,2.14E-03,7.57E-03
12073,2.32E-03,7.65E-03
12074,2.14E-03,7.77E-03
12075,2.14E-03,7.88E-03
12076,2.19E-03,7.99E-03
12077,2.24E-03,8.10E-03
12078,2.30E-03,8.21E-03
12079,2.34E-03,8.33E-03
12080,2.39E-03,8.45E-03
12081,2.43E-03,8.57E-03
12082,2.45E-03,8.69E-03
12083,2.48E-03,8.82E-03
12084,2.49E-03,8.95E-03
12085,2.50E-03,9.08E-03
12086,2.50E-03,9.22E-03
12087,2.50E-03,9.36E-03
12088,2.50E-03,9.49E-03
12089,2.50E-03,9.63E-03
12090,2.50E-03,9.76E-03
12091,2.50E-03,9.90E-03
12092,2.49E-03,1.00E-02
12093,2.48E-03,1.02E-02
12094,2.47E-03,1.03E-02
12095,2.46E-03,1.04E-02
12096,2.47E-03,1.06E-02
12097,2.45E-03,1.07E-02
12098,2.44E-03,1.08E-02
12099,2.42E-03,1.10E-02
12100,2.39E-03,1.11E-02
12101,2.38E-03,1.13E-02
12102,2.36E-03,1.15E-02
12103,2.35E-03,1.16E-02
12104,2.32E-03,1.18E-02
12105,2.33E-03,1.20E-02
12106,2.31E-03,1.22E-02
12107,2.31E-03,1.24E-02
12108,2.33E-03,1.27E-02
12109,2.35E-03,1.29E-02
12110,2.34E-03,1.32E-02
12111,2.37E-03,1.34E-02
12112,2.37E-03,1.37E-02
12113,2.41E-03,1.40E-02
12114,2.41E-03,1.43E-02
12115,2.43E-03,1.46E-02
12116,2.43E-03,1.49E-02
12117,2.40E-03,1.52E-02
12118,2.41E-03,1.55E-02
12119,2.41E-03,1.59E-02
12120,2.40E-03,1.62E-02
12121,2.40E-03,1.66E-02
12122,2.40E-03,1.70E-02
12123,2.40E-03,1.74E-02
12124,2.40E-03,1.78E-02
12125,2.40E-03,1.82E-02
12126,2.40E-03,1.86E-02
12127,2.40E-03,1.91E-02
12128,2.40E-03,1.95E-02
12129,2.39E-03,2.00E-02
12130,2.39E-03,2.04E-02
12131,2.38E-03,2.09E-02
12132,2.37E-03,2.14E-02
12133,2.36E-03,2.19E-02
12134,2.36E-03,2.23E-02
12135,2.37E-03,2.28E-02
12136,2.38E-03,2.32E-02
12137,2.40E-03,2.36E-02
12138,2.41E-03,2.40E-02
12139,2.43E-03,2.44E-02
12140,2.47E-03,2.47E-02
12141,2.48E-03,2.50E-02
12142,2.52E-03,2.53E-02
12143,2.54E-03,2.56E-02
12144,2.57E-03,2.58E-02
12145,2.58E-03,2.61E-02
12146,2.59E-03,2.64E-02
12147,2.62E-03,2.67E-02
12148,2.65E-03,2.71E-02
12149,2.63E-03,2.74E-02
12150,2.68E-03,2.78E-02
12151,2.69E-03,2.81E-02
12152,2.72E-03,2.85E-02
12153,2.74E-03,2.88E-02
12154,2.75E-03,2.92E-02
12155,2.77E-03,2.95E-02
12156,2.78E-03,2.99E-02
12157,2.77E-03,3.03E-02
12158,2.73E-03,3.07E-02
12159,2.71E-03,3.11E-02
12160,2.67E-03,3.16E-02
12161,2.66E-03,3.20E-02
12162,2.62E-03,3.24E-02
12163,2.59E-03,3.28E-02
12164,2.58E-03,3.33E-02
12165,2.55E-03,3.37E-02
12166,2.52E-03,3.42E-02
12167,2.52E-03,3.46E-02
12168,2.50E-03,3.51E-02
12169,2.49E-03,3.55E-02
12170,2.48E-03,3.60E-02
12171,2.48E-03,3.64E-02
12172,2.48E-03,3.69E-02
12173,2.48E-03,3.74E-02
12174,2.48E-03,3.80E-02
12175,2.46E-03,3.85E-02
12176,2.46E-03,3.91E-02
12177,2.46E-03,3.96E-02
12178,2.46E-03,4.02E-02
12179,2.46E-03,4.07E-02
12180,2.46E-03,4.12E-02
12181,2.47E-03,4.18E-02
12182,2.46E-03,4.23E-02
12183,2.47E-03,4.27E-02
12184,2.47E-03,4.32E-02
12185,2.48E-03,4.36E-02
12186,2.49E-03,4.40E-02
12187,2.50E-03,4.43E-02
12188,2.51E-03,4.46E-02
12189,2.52E-03,4.48E-02
12190,2.53E-03,4.50E-02
12191,2.53E-03,4.52E-02
12192,2.53E-03,4.53E-02
12193,2.54E-03,4.53E-02
12194,2.55E-03,4.54E-02
12195,2.55E-03,4.53E-02
12196,2.55E-03,4.52E-02
12197,2.55E-03,4.51E-02
12198,2.54E-03,4.49E-02
12199,2.53E-03,4.46E-02
12200,2.52E-03,4.43E-02
12201,2.50E-03,4.38E-02
12202,2.49E-03,4.34E-02
12203,2.47E-03,4.28E-02
12204,2.45E-03,4.21E-02
12205,2.44E-03,4.13E-02
12206,2.45E-03,4.05E-02
12207,2.47E-03,3.94E-02
12208,2.44E-03,3.83E-02
12209,2.37E-03,3.70E-02
12210,2.13E-03,3.54E-02
12211,1.62E-03,3.43E-02
12212,1.83E-03,3.48E-02
12213,2.26E-03,3.15E-02
12214,2.18E-03,2.80E-02
12215,2.11E-03,2.45E-02
12216,2.18E-03,2.07E-02
12217,2.30E-03,1.65E-02
12218,2.41E-03,1.32E-02
12219,2.21E-03,1.06E-02
12220,2.17E-03,8.01E-03
12221,2.06E-03,6.32E-03
12222,2.18E-03,5.18E-03
12223,2.23E-03,5.04E-03
12224,2.30E-03,6.28E-03
12225,2.18E-03,1.48E-02
12226,2.85E-03,9.22E-03
12227,2.52E-03,1.02E-02
12228,2.59E-03,9.43E-03
12229,2.44E-03,8.80E-03
12230,2.36E-03,9.39E-03
12231,2.43E-03,8.21E-03
12232,2.46E-03,8.39E-03
12233,2.43E-03,8.06E-03
12234,1.97E-03,1.63E-04
12235,1.95E-03,1.74E-04
12236,2.01E-03,1.85E-04
12237,2.05E-03,1.99E-04
12238,2.14E-03,2.17E-04
12239,2.18E-03,2.37E-04
12240,2.20E-03,2.60E-04
12241,2.18E-03,2.85E-04
12242,2.22E-03,3.10E-04
12243,2.20E-03,3.37E-04
12244,2.19E-03,3.65E-04
12245,2.19E-03,3.94E-04
12246,2.18E-03,4.24E-04
12247,2.18E-03,4.57E-04
12248,2.16E-03,4.91E-04
12249,2.18E-03,5.27E-04
12250,2.18E-03,5.65E-04
12251,2.19E-03,6.05E-04
12252,2.20E-03,6.45E-04
12253,2.22E-03,6.87E-04
12254,2.24E-03,7.29E-04
12255,2.26E-03,7.73E-04
12256,2.27E-03,8.20E-04
12257,2.30E-03,8.70E-04
12258,2.32E-03,9.23E-04
12259,2.34E-03,9.81E-04
12260,2.34E-03,1.04E-03
12261,2.31E-03,1.10E-03
12262,2.33E-03,1.17E-03
12263,2.35E-03,1.25E-03
12264,2.39E-03,1.32E-03
12265,2.41E-03,1.39E-03
12266,2.42E-03,1.47E-03
12267,2.39E-03,1.55E-03
12268,2.35E-03,1.64E-03
12269,2.34E-03,1.72E-03
12270,2.34E-03,1.81E-03
12271,2.32E-03,1.90E-03
12272,2.33E-03,2.00E-03
12273,2.32E-03,2.09E-03
12274,2.34E-03,2.19E-03
12275,2.34E-03,2.30E-03
12276,2.33E-03,2.41E-03
12277,2.34E-03,2.52E-03
12278,2.34E-03,2.63E-03
12279,2.35E-03,2.74E-03
12280,2.35E-03,2.86E-03
12281,2.35E-03,2.98E-03
12282,2.37E-03,3.10E-03
12283,2.37E-03,3.23E-03
12284,2.39E-03,3.36E-03
12285,2.41E-03,3.50E-03
12286,2.41E-03,3.66E-03
12287,2.43E-03,3.81E-03
12288,2.45E-03,3.98E-03
12289,2.45E-03,4.16E-03
12290,2.43E-03,4.33E-03
12291,2.42E-03,4.51E-03
12292,2.42E-03,4.68E-03
12293,2.43E-03,4.85E-03
12294,2.43E-03,5.01E-03
12295,2.43E-03,5.17E-03
12296,2.42E-03,5.32E-03
12297,2.44E-03,5.49E-03
12298,2.44E-03,5.66E-03
12299,2.45E-03,5.84E-03
12300,2.45E-03,6.04E-03
12301,2.45E-03,6.25E-03
12302,2.45E-03,6.47E-03
12303,2.46E-03,6.68E-03
12304,2.46E-03,6.89E-03
12305,2.46E-03,7.09E-03
12306,2.46E-03,7.28E-03
12307,2.46E-03,7.46E-03
12308,2.46E-03,7.63E-03
12309,2.46E-03,7.79E-03
12310,2.46E-03,7.94E-03
12311,2.46E-03,8.10E-03
12312,2.46E-03,8.25E-03
12313,2.48E-03,8.39E-03
12314,2.47E-03,8.54E-03
12315,2.46E-03,8.67E-03
12316,2.43E-03,8.81E-03
12317,2.40E-03,8.94E-03
12318,2.40E-03,9.08E-03
12319,2.37E-03,9.22E-03
12320,2.35E-03,9.37E-03
12321,2.33E-03,9.53E-03
12322,2.34E-03,9.70E-03
12323,2.36E-03,9.87E-03
12324,2.34E-03,1.01E-02
12325,2.37E-03,1.02E-02
12326,2.39E-03,1.04E-02
12327,2.45E-03,1.06E-02
12328,2.46E-03,1.07E-02
12329,2.40E-03,1.10E-02
12330,2.17E-03,8.76E-03
12331,1.56E-03,8.96E-03
12332,2.45E-03,1.09E-02
12333,2.48E-03,1.08E-02
12334,2.44E-03,8.17E-03
12335,2.46E-03,8.28E-03
12336,2.35E-03,8.49E-03
12337,2.41E-03,9.09E-03
12338,2.54E-03,9.80E-03
12339,2.14E-03,1.57E-02
12340,2.19E-03,1.67E-02
12341,2.16E-03,1.78E-02
12342,2.15E-03,1.90E-02
12343,2.24E-03,2.03E-02
12344,2.30E-03,2.11E-02
12345,2.36E-03,2.17E-02
12346,2.42E-03,2.22E-02
12347,2.49E-03,2.28E-02
12348,2.55E-03,2.33E-02
12349,2.60E-03,2.35E-02
12350,2.63E-03,2.35E-02
12351,2.68E-03,2.33E-02
12352,2.71E-03,2.27E-02
12353,2.71E-03,2.20E-02
12354,2.67E-03,2.12E-02
12355,2.67E-03,2.02E-02
12356,2.65E-03,1.92E-02
12357,2.62E-03,1.81E-02
12358,2.59E-03,1.71E-02
12359,2.57E-03,1.61E-02
12360,2.55E-03,1.50E-02
12361,2.59E-03,1.38E-02
12362,2.59E-03,1.26E-02
12363,1.97E-03,1.05E-02
12364,2.09E-03,7.81E-03
12365,2.13E-03,6.11E-03
12366,2.13E-03,4.80E-03
12367,2.14E-03,4.65E-03
12368,2.30E-03,5.96E-03
12369,2.59E-03,8.32E-03
12370,2.63E-03,1.14E-02
12371,2.54E-03,1.54E-02
12372,2.34E-03,1.98E-02
12373,2.14E-03,2.39E-02
12374,2.02E-03,2.74E-02
12375,2.24E-03,3.12E-02
12376,2.39E-03,1.07E-02
12377,2.15E-03,1.11E-02
12378,2.33E-03,1.12E-02
12379,2.33E-03,9.24E-03
12380,2.54E-03,1.08E-02
12381,2.81E-03,1.09E-02
12382,2.11E-03,1.08E-02
12383,1.81E-03,1.07E-02
12384,1.71E-03,3.74E-02
12385,2.27E-03,3.92E-02
12386,2.34E-03,4.06E-02
12387,2.42E-03,4.18E-02
12388,2.45E-03,4.28E-02
12389,2.44E-03,4.37E-02
12390,2.45E-03,4.45E-02
12391,2.48E-03,4.52E-02
12392,2.50E-03,4.58E-02
12393,2.51E-03,4.63E-02
12394,2.52E-03,4.67E-02
12395,2.53E-03,4.70E-02
12396,2.52E-03,4.73E-02
12397,2.52E-03,4.75E-02
12398,2.52E-03,4.76E-02
12399,2.53E-03,4.77E-02
12400,2.53E-03,4.78E-02
12401,2.54E-03,4.78E-02
12402,2.52E-03,4.77E-02
12403,2.52E-03,4.76E-02
12404,2.52E-03,4.74E-02
12405,2.51E-03,4.72E-02
12406,2.48E-03,4.70E-02
12407,2.47E-03,4.67E-02
12408,2.47E-03,4.63E-02
12409,2.47E-03,4.59E-02
12410,2.47E-03,4.55E-02
12411,2.47E-03,4.50E-02
12412,2.47E-03,4.46E-02
12413,2.47E-03,4.40E-02
12414,2.48E-03,4.35E-02
12415,2.47E-03,4.29E-02
12416,2.47E-03,4.23E-02
12417,2.47E-03,4.17E-02
12418,2.47E-03,4.11E-02
12419,2.47E-03,4.05E-02
12420,2.47E-03,3.99E-02
12421,2.47E-03,3.93E-02
12422,2.48E-03,3.88E-02
12423,2.48E-03,3.82E-02
12424,2.48E-03,3.77E-02
12425,2.48E-03,3.72E-02
12426,2.49E-03,3.67E-02
12427,2.50E-03,3.62E-02
12428,2.50E-03,3.57E-02
12429,2.51E-03,3.53E-02
12430,2.54E-03,3.48E-02
12431,2.57E-03,3.43E-02
12432,2.57E-03,3.39E-02
12433,2.59E-03,3.34E-02
12434,2.62E-03,3.30E-02
12435,2.65E-03,3.25E-02
12436,2.66E-03,3.20E-02
12437,2.69E-03,3.16E-02
12438,2.70E-03,3.12E-02
12439,2.72E-03,3.08E-02
12440,2.73E-03,3.04E-02
12441,2.69E-03,3.00E-02
12442,2.68E-03,2.96E-02
12443,2.66E-03,2.92E-02
12444,2.65E-03,2.88E-02
12445,2.64E-03,2.85E-02
12446,2.61E-03,2.81E-02
12447,2.62E-03,2.77E-02
12448,2.61E-03,2.73E-02
12449,2.57E-03,2.69E-02
12450,2.57E-03,2.66E-02
12451,2.57E-03,2.63E-02
12452,2.52E-03,2.60E-02
12453,2.51E-03,2.57E-02
12454,2.47E-03,2.54E-02
12455,2.48E-03,2.51E-02
12456,2.44E-03,2.47E-02
12457,2.42E-03,2.43E-02
12458,2.41E-03,2.39E-02
12459,2.39E-03,2.34E-02
12460,2.39E-03,2.29E-02
12461,2.39E-03,2.24E-02
12462,2.39E-03,2.19E-02
12463,2.40E-03,2.14E-02
12464,2.40E-03,2.09E-02
12465,2.41E-03,2.03E-02
12466,2.41E-03,1.99E-02
12467,2.42E-03,1.94E-02
12468,2.42E-03,1.89E-02
12469,2.42E-03,1.84E-02
12470,2.42E-03,1.80E-02
12471,2.42E-03,1.76E-02
12472,2.42E-03,1.71E-02
12473,2.42E-03,1.67E-02
12474,2.42E-03,1.63E-02
12475,2.42E-03,1.60E-02
12476,2.42E-03,1.56E-02
12477,2.42E-03,1.53E-02
12478,2.42E-03,1.49E-02
12479,2.42E-03,1.46E-02
12480,2.43E-03,1.43E-02
12481,2.42E-03,1.40E-02
12482,2.40E-03,1.37E-02
12483,2.39E-03,1.35E-02
12484,2.38E-03,1.32E-02
12485,2.37E-03,1.29E-02
12486,2.37E-03,1.27E-02
12487,2.36E-03,1.25E-02
12488,2.35E-03,1.22E-02
12489,2.36E-03,1.20E-02
12490,2.36E-03,1.18E-02
12491,2.36E-03,1.16E-02
12492,2.38E-03,1.15E-02
12493,2.39E-03,1.13E-02
12494,2.40E-03,1.11E-02
12495,2.42E-03,1.10E-02
12496,2.44E-03,1.08E-02
12497,2.45E-03,1.07E-02
12498,2.46E-03,1.06E-02
12499,2.47E-03,1.04E-02
12500,2.47E-03,1.03E-02
12501,2.49E-03,1.02E-02
12502,2.49E-03,1.00E-02
12503,2.49E-03,9.92E-03
12504,2.49E-03,9.79E-03
12505,2.49E-03,9.65E-03
12506,2.49E-03,9.52E-03
12507,2.49E-03,9.38E-03
12508,2.49E-03,9.24E-03
12509,2.49E-03,9.10E-03
12510,2.48E-03,8.97E-03
12511,2.48E-03,8.83E-03
12512,2.46E-03,8.70E-03
12513,2.45E-03,8.57E-03
12514,2.43E-03,8.44E-03
12515,2.40E-03,8.31E-03
12516,2.37E-03,8.19E-03
12517,2.32E-03,8.07E-03
12518,2.27E-03,7.95E-03
12519,2.22E-03,7.84E-03
12520,2.16E-03,7.73E-03
12521,2.10E-03,7.62E-03
12522,2.13E-03,7.50E-03
12523,1.64E-03,3.45E-02
12524,1.98E-03,7.52E-03
12525,2.14E-03,7.61E-03
12526,2.20E-03,7.72E-03
12527,2.22E-03,7.83E-03
12528,2.28E-03,7.95E-03
12529,2.27E-03,8.07E-03
12530,2.29E-03,8.19E-03
12531,2.31E-03,8.32E-03
12532,2.30E-03,8.44E-03
12533,2.30E-03,8.57E-03
12534,2.29E-03,8.69E-03
12535,2.23E-03,8.80E-03
12536,2.13E-03,8.91E-03
12537,2.05E-03,9.01E-03
12538,2.20E-03,9.12E-03
12539,2.11E-03,9.22E-03
12540,2.04E-03,9.31E-03
12541,2.00E-03,9.40E-03
12542,2.12E-03,9.49E-03
12543,2.11E-03,9.58E-03
12544,2.23E-03,9.68E-03
12545,2.25E-03,9.76E-03
12546,2.28E-03,9.85E-03
12547,2.32E-03,9.94E-03
12548,2.36E-03,1.00E-02
12549,2.40E-03,1.01E-02
12550,2.44E-03,1.02E-02
12551,2.47E-03,1.02E-02
12552,2.49E-03,1.03E-02
12553,2.53E-03,1.04E-02
12554,2.56E-03,1.04E-02
12555,2.57E-03,1.05E-02
12556,2.60E-03,1.05E-02
12557,2.59E-03,1.05E-02
12558,2.57E-03,1.06E-02
12559,2.54E-03,1.06E-02
12560,2.52E-03,1.06E-02
12561,2.48E-03,1.06E-02
12562,2.45E-03,1.05E-02
12563,2.43E-03,1.05E-02
12564,2.39E-03,1.05E-02
12565,2.35E-03,1.05E-02
12566,2.32E-03,1.04E-02
12567,2.28E-03,1.04E-02
12568,2.24E-03,1.03E-02
12569,2.19E-03,1.03E-02
12570,2.18E-03,1.03E-02
12571,2.19E-03,1.02E-02
12572,2.20E-03,1.02E-02
12573,2.22E-03,1.01E-02
12574,2.26E-03,1.01E-02
12575,2.30E-03,1.01E-02
12576,2.35E-03,1.00E-02
12577,2.40E-03,9.98E-03
12578,2.45E-03,9.94E-03
12579,2.49E-03,9.89E-03
12580,2.51E-03,9.84E-03
12581,2.55E-03,9.78E-03
12582,2.56E-03,9.71E-03
12583,2.59E-03,9.63E-03
12584,2.60E-03,9.54E-03
12585,2.59E-03,9.44E-03
12586,2.56E-03,9.34E-03
12587,2.53E-03,9.23E-03
12588,2.51E-03,9.11E-03
12589,2.48E-03,8.99E-03
12590,2.45E-03,8.87E-03
12591,2.47E-03,8.75E-03
12592,2.47E-03,8.62E-03
12593,2.53E-03,8.49E-03
12594,2.53E-03,8.35E-03
12595,2.55E-03,8.21E-03
12596,2.56E-03,8.07E-03
12597,2.55E-03,7.91E-03
12598,2.52E-03,7.76E-03
12599,2.49E-03,7.59E-03
12600,2.45E-03,7.43E-03
12601,2.40E-03,7.26E-03
12602,2.34E-03,7.10E-03
12603,2.15E-03,6.68E-03
12604,2.18E-03,6.54E-03
12605,2.18E-03,6.42E-03
12606,2.17E-03,6.32E-03
12607,2.14E-03,6.23E-03
12608,2.11E-03,6.16E-03
12609,2.10E-03,6.12E-03
12610,2.05E-03,6.10E-03
12611,2.04E-03,6.13E-03
12612,2.03E-03,6.18E-03
12613,2.03E-03,6.27E-03
12614,2.03E-03,6.38E-03
12615,2.05E-03,6.52E-03
12616,2.06E-03,6.68E-03
12617,2.08E-03,6.86E-03
12618,2.10E-03,7.06E-03
12619,2.11E-03,7.28E-03
12620,2.12E-03,7.50E-03
12621,2.13E-03,7.73E-03
12622,2.15E-03,7.95E-03
12623,2.17E-03,8.18E-03
12624,2.21E-03,8.40E-03
12625,2.22E-03,8.61E-03
12626,2.26E-03,8.81E-03
12627,2.29E-03,9.01E-03
12628,2.33E-03,9.20E-03
12629,2.36E-03,9.38E-03
12630,2.39E-03,9.56E-03
12631,2.41E-03,9.74E-03
12632,2.45E-03,9.90E-03
12633,2.48E-03,1.01E-02
12634,2.52E-03,1.02E-02
12635,2.53E-03,1.04E-02
12636,2.55E-03,1.05E-02
12637,2.56E-03,1.06E-02
12638,2.56E-03,1.08E-02
12639,2.58E-03,1.09E-02
12640,2.59E-03,1.10E-02
12641,2.62E-03,1.11E-02
12642,2.62E-03,1.12E-02
12643,2.65E-03,1.13E-02
12644,2.63E-03,1.14E-02
12645,2.65E-03,1.15E-02
12646,2.64E-03,1.16E-02
12647,2.61E-03,1.17E-02
12648,2.59E-03,1.18E-02
12649,2.59E-03,1.19E-02
12650,2.56E-03,1.19E-02
12651,2.55E-03,1.20E-02
12652,2.52E-03,1.21E-02
12653,2.50E-03,1.21E-02
12654,2.49E-03,1.21E-02
12655,2.48E-03,1.22E-02
12656,2.45E-03,1.22E-02
12657,2.43E-03,1.22E-02
12658,2.43E-03,1.22E-02
12659,2.44E-03,1.22E-02
12660,2.44E-03,1.22E-02
12661,2.43E-03,1.22E-02
12662,2.43E-03,1.21E-02
12663,2.41E-03,1.20E-02
12664,2.39E-03,1.19E-02
12665,2.38E-03,1.18E-02
12666,2.38E-03,1.17E-02
12667,2.37E-03,1.16E-02
12668,2.36E-03,1.15E-02
12669,2.35E-03,1.14E-02
12670,2.37E-03,1.13E-02
12671,1.86E-03,9.73E-03
12672,2.13E-03,8.77E-03
12673,2.29E-03,7.80E-03
12674,2.38E-03,6.92E-03
12675,2.47E-03,6.15E-03
12676,2.50E-03,5.51E-03
12677,2.53E-03,4.96E-03
12678,2.54E-03,4.49E-03
12679,2.54E-03,4.09E-03
12680,2.52E-03,3.72E-03
12681,2.52E-03,3.38E-03
12682,2.50E-03,3.04E-03
12683,2.48E-03,2.72E-03
12684,2.47E-03,2.42E-03
12685,2.44E-03,2.16E-03
12686,2.42E-03,1.93E-03
12687,2.41E-03,1.73E-03
12688,2.39E-03,1.55E-03
12689,2.36E-03,1.41E-03
12690,2.38E-03,1.29E-03
12691,2.42E-03,1.18E-03
12692,2.46E-03,1.10E-03
12693,2.48E-03,1.02E-03
12694,2.51E-03,9.42E-04
12695,2.51E-03,8.70E-04
12696,2.50E-03,8.01E-04
12697,2.48E-03,7.39E-04
12698,2.46E-03,6.86E-04
12699,2.43E-03,6.39E-04
12700,2.41E-03,5.94E-04
12701,2.36E-03,5.46E-04
12702,2.33E-03,4.97E-04
12703,2.32E-03,4.47E-04
12704,2.31E-03,3.98E-04
12705,2.31E-03,3.50E-04
12706,2.26E-03,3.06E-04
12707,2.24E-03,2.64E-04
12708,2.15E-03,2.24E-04
12709,2.37E-03,1.12E-02
12710,1.68E-03,1.34E-04
12711,1.92E-03,1.45E-04
12712,2.01E-03,1.58E-04
12713,2.11E-03,1.76E-04
12714,2.18E-03,1.97E-04
12715,2.21E-03,2.20E-04
12716,2.26E-03,2.46E-04
12717,2.25E-03,2.73E-04
12718,2.27E-03,3.01E-04
12719,2.25E-03,3.29E-04
12720,2.25E-03,3.57E-04
12721,2.24E-03,3.85E-04
12722,2.24E-03,4.14E-04
12723,2.23E-03,4.45E-04
12724,2.24E-03,4.78E-04
12725,2.23E-03,5.13E-04
12726,2.26E-03,5.51E-04
12727,2.26E-03,5.90E-04
12728,2.27E-03,6.30E-04
12729,2.30E-03,6.69E-04
12730,2.30E-03,7.10E-04
12731,2.31E-03,7.51E-04
12732,2.33E-03,7.95E-04
12733,2.35E-03,8.42E-04
12734,2.37E-03,8.93E-04
12735,2.38E-03,9.49E-04
12736,2.37E-03,1.01E-03
12737,2.37E-03,1.07E-03
12738,2.38E-03,1.14E-03
12739,2.38E-03,1.21E-03
12740,2.39E-03,1.28E-03
12741,2.40E-03,1.35E-03
12742,2.40E-03,1.42E-03
12743,2.39E-03,1.50E-03
12744,2.37E-03,1.58E-03
12745,2.36E-03,1.66E-03
12746,2.36E-03,1.75E-03
12747,2.36E-03,1.84E-03
12748,2.36E-03,1.93E-03
12749,2.36E-03,2.02E-03
12750,2.36E-03,2.12E-03
12751,2.37E-03,2.22E-03
12752,2.37E-03,2.33E-03
12753,2.37E-03,2.44E-03
12754,2.38E-03,2.56E-03
12755,2.38E-03,2.67E-03
12756,2.39E-03,2.79E-03
12757,2.39E-03,2.90E-03
12758,2.40E-03,3.02E-03
12759,2.40E-03,3.15E-03
12760,2.41E-03,3.28E-03
12761,2.41E-03,3.42E-03
12762,2.42E-03,3.57E-03
12763,2.42E-03,3.73E-03
12764,2.43E-03,3.90E-03
12765,2.43E-03,4.08E-03
12766,2.43E-03,4.26E-03
12767,2.44E-03,4.44E-03
12768,2.44E-03,4.62E-03
12769,2.44E-03,4.79E-03
12770,2.44E-03,4.95E-03
12771,2.45E-03,5.11E-03
12772,2.45E-03,5.27E-03
12773,2.45E-03,5.43E-03
12774,2.45E-03,5.60E-03
12775,2.46E-03,5.80E-03
12776,2.46E-03,6.01E-03
12777,2.46E-03,6.23E-03
12778,2.46E-03,6.47E-03
12779,2.46E-03,6.70E-03
12780,2.46E-03,6.93E-03
12781,2.47E-03,7.14E-03
12782,2.47E-03,7.34E-03
12783,2.47E-03,7.53E-03
12784,2.47E-03,7.71E-03
12785,2.47E-03,7.89E-03
12786,2.47E-03,8.06E-03
12787,2.47E-03,8.23E-03
12788,2.47E-03,8.40E-03
12789,2.47E-03,8.56E-03
12790,2.47E-03,8.72E-03
12791,2.46E-03,8.87E-03
12792,2.46E-03,9.02E-03
12793,2.42E-03,9.16E-03
12794,2.41E-03,9.29E-03
12795,2.40E-03,9.43E-03
12796,2.37E-03,9.58E-03
12797,2.34E-03,9.73E-03
12798,2.34E-03,9.90E-03
12799,2.34E-03,1.01E-02
12800,2.34E-03,1.03E-02
12801,2.34E-03,1.04E-02
12802,2.35E-03,1.06E-02
12803,2.42E-03,1.08E-02
12804,2.48E-03,1.09E-02
12805,1.42E-03,9.20E-03
12806,1.55E-03,9.01E-03
12807,2.13E-03,8.84E-03
12808,2.41E-03,8.32E-03
12809,2.42E-03,8.66E-03
12810,2.48E-03,1.03E-02
12811,2.47E-03,9.58E-03
12812,2.38E-03,3.70E-02
12813,1.65E-03,7.35E-03
12814,1.84E-03,7.35E-03
12815,2.13E-03,7.35E-03
12816,1.81E-03,7.32E-03
12817,1.59E-03,7.32E-03
12818,2.02E-03,7.37E-03
12819,2.23E-03,1.24E-02
12820,2.40E-03,1.02E-02
12821,2.39E-03,1.09E-02
12822,1.67E-03,1.60E-02
12823,1.71E-03,1.56E-02
12824,2.19E-03,1.05E-02
12825,1.95E-03,1.05E-02
12826,2.30E-03,1.08E-02
12827,2.37E-03,1.05E-02
12828,2.12E-03,2.12E-04
12829,2.24E-03,2.51E-04
12830,2.29E-03,2.95E-04
12831,2.33E-03,3.43E-04
12832,2.33E-03,3.94E-04
12833,2.33E-03,4.46E-04
12834,2.34E-03,4.99E-04
12835,2.34E-03,5.53E-04
12836,2.40E-03,6.07E-04
12837,2.40E-03,6.56E-04
12838,2.42E-03,6.99E-04
12839,2.44E-03,7.44E-04
12840,2.47E-03,7.98E-04
12841,2.50E-03,8.55E-04
12842,2.51E-03,9.12E-04
12843,2.50E-03,9.69E-04
12844,2.47E-03,1.03E-03
12845,2.45E-03,1.11E-03
12846,2.39E-03,1.21E-03
12847,2.37E-03,1.33E-03
12848,2.38E-03,1.47E-03
12849,2.39E-03,1.63E-03
12850,2.40E-03,1.82E-03
12851,2.42E-03,2.05E-03
12852,2.45E-03,2.32E-03
12853,2.44E-03,2.63E-03
12854,2.46E-03,2.98E-03
12855,2.46E-03,3.35E-03
12856,2.46E-03,3.73E-03
12857,2.48E-03,4.11E-03
12858,2.48E-03,4.51E-03
12859,2.47E-03,4.95E-03
12860,2.44E-03,5.44E-03
12861,2.43E-03,5.98E-03
12862,2.37E-03,6.60E-03
12863,2.32E-03,7.37E-03
12864,2.18E-03,8.38E-03
12865,1.99E-03,9.60E-03
12866,1.86E-03,1.07E-02
12867,1.89E-03,1.16E-02
12868,1.94E-03,7.35E-03
12869,2.09E-03,7.45E-03
12870,2.19E-03,7.57E-03
12871,2.23E-03,7.69E-03
12872,2.29E-03,7.81E-03
12873,2.34E-03,7.93E-03
12874,2.39E-03,8.06E-03
12875,2.42E-03,8.18E-03
12876,2.44E-03,8.31E-03
12877,2.45E-03,8.44E-03
12878,2.47E-03,8.58E-03
12879,2.49E-03,8.71E-03
12880,2.50E-03,8.85E-03
12881,2.50E-03,9.00E-03
12882,2.50E-03,9.14E-03
12883,2.50E-03,9.28E-03
12884,2.50E-03,9.42E-03
12885,2.50E-03,9.55E-03
12886,2.50E-03,9.68E-03
12887,2.49E-03,9.81E-03
12888,2.49E-03,9.94E-03
12889,2.48E-03,1.01E-02
12890,2.48E-03,1.02E-02
12891,2.47E-03,1.03E-02
12892,2.46E-03,1.04E-02
12893,2.45E-03,1.06E-02
12894,2.45E-03,1.07E-02
12895,2.47E-03,1.08E-02
12896,2.45E-03,1.10E-02
12897,2.44E-03,1.11E-02
12898,2.43E-03,1.13E-02
12899,2.42E-03,1.14E-02
12900,2.40E-03,1.16E-02
12901,2.39E-03,1.18E-02
12902,2.40E-03,1.20E-02
12903,2.38E-03,1.22E-02
12904,2.38E-03,1.25E-02
12905,2.38E-03,1.27E-02
12906,2.39E-03,1.29E-02
12907,2.39E-03,1.32E-02
12908,2.40E-03,1.35E-02
12909,2.41E-03,1.37E-02
12910,2.42E-03,1.40E-02
12911,2.42E-03,1.43E-02
12912,2.43E-03,1.46E-02
12913,2.43E-03,1.50E-02
12914,2.44E-03,1.53E-02
12915,2.44E-03,1.57E-02
12916,2.44E-03,1.61E-02
12917,2.44E-03,1.65E-02
12918,2.44E-03,1.69E-02
12919,2.44E-03,1.73E-02
12920,2.44E-03,1.77E-02
12921,2.45E-03,1.82E-02
12922,2.44E-03,1.87E-02
12923,2.44E-03,1.92E-02
12924,2.44E-03,1.97E-02
12925,2.44E-03,2.02E-02
12926,2.44E-03,2.08E-02
12927,2.43E-03,2.13E-02
12928,2.43E-03,2.19E-02
12929,2.42E-03,2.25E-02
12930,2.41E-03,2.30E-02
12931,2.40E-03,2.36E-02
12932,2.41E-03,2.41E-02
12933,2.44E-03,2.46E-02
12934,2.46E-03,2.50E-02
12935,2.47E-03,2.54E-02
12936,2.48E-03,2.58E-02
12937,2.50E-03,2.61E-02
12938,2.51E-03,2.64E-02
12939,2.52E-03,2.67E-02
12940,2.54E-03,2.71E-02
12941,2.54E-03,2.74E-02
12942,2.56E-03,2.79E-02
12943,2.56E-03,2.83E-02
12944,2.59E-03,2.88E-02
12945,2.60E-03,2.92E-02
12946,2.61E-03,2.96E-02
12947,2.60E-03,3.00E-02
12948,2.60E-03,3.04E-02
12949,2.62E-03,3.08E-02
12950,2.62E-03,3.12E-02
12951,2.62E-03,3.17E-02
12952,2.64E-03,3.21E-02
12953,2.63E-03,3.25E-02
12954,2.63E-03,3.30E-02
12955,2.63E-03,3.35E-02
12956,2.59E-03,3.40E-02
12957,2.58E-03,3.45E-02
12958,2.56E-03,3.50E-02
12959,2.54E-03,3.54E-02
12960,2.55E-03,3.59E-02
12961,2.54E-03,3.64E-02
12962,2.55E-03,3.69E-02
12963,2.54E-03,3.74E-02
12964,2.53E-03,3.79E-02
12965,2.52E-03,3.84E-02
12966,2.52E-03,3.90E-02
12967,2.50E-03,3.95E-02
12968,2.48E-03,4.01E-02
12969,2.47E-03,4.07E-02
12970,2.47E-03,4.13E-02
12971,2.47E-03,4.20E-02
12972,2.46E-03,4.26E-02
12973,2.46E-03,4.33E-02
12974,2.47E-03,4.39E-02
12975,2.47E-03,4.46E-02
12976,2.47E-03,4.52E-02
12977,2.48E-03,4.58E-02
12978,2.48E-03,4.64E-02
12979,2.48E-03,4.69E-02
12980,2.48E-03,4.75E-02
12981,2.49E-03,4.79E-02
12982,2.49E-03,4.84E-02
12983,2.50E-03,4.88E-02
12984,2.51E-03,4.91E-02
12985,2.52E-03,4.94E-02
12986,2.53E-03,4.97E-02
12987,2.53E-03,4.99E-02
12988,2.52E-03,5.01E-02
12989,2.52E-03,5.02E-02
12990,2.53E-03,5.03E-02
12991,2.54E-03,5.03E-02
12992,2.53E-03,5.03E-02
12993,2.55E-03,5.02E-02
12994,2.54E-03,5.01E-02
12995,2.52E-03,4.99E-02
12996,2.52E-03,4.96E-02
12997,2.51E-03,4.93E-02
12998,2.50E-03,4.88E-02
12999,2.50E-03,4.83E-02
13000,2.50E-03,4.77E-02
13001,2.48E-03,4.70E-02
13002,2.45E-03,4.62E-02
13003,2.42E-03,4.53E-02
13004,2.39E-03,4.41E-02
13005,2.33E-03,4.29E-02
13006,2.38E-03,4.06E-02
13007,1.85E-03,4.00E-02
13008,1.39E-03,3.72E-02
13009,1.50E-03,3.44E-02
13010,2.02E-03,3.13E-02
13011,2.03E-03,2.78E-02
13012,2.24E-03,2.39E-02
13013,2.35E-03,1.97E-02
13014,2.41E-03,1.52E-02
13015,2.45E-03,5.68E-03
13016,2.26E-03,4.08E-03
13017,2.19E-03,4.36E-03
13018,2.18E-03,6.00E-03
13019,2.14E-03,8.08E-03
13020,2.15E-03,1.05E-02
13021,1.72E-03,1.25E-02
13022,1.97E-03,1.33E-02
13023,2.71E-03,1.47E-02
13024,2.52E-03,1.61E-02
13025,2.52E-03,1.74E-02
13026,2.53E-03,1.86E-02
13027,2.53E-03,1.96E-02
13028,2.55E-03,2.06E-02
13029,2.57E-03,2.16E-02
13030,2.58E-03,2.26E-02
13031,2.60E-03,2.37E-02
13032,2.60E-03,2.47E-02
13033,2.64E-03,2.56E-02
13034,2.63E-03,2.64E-02
13035,2.63E-03,2.70E-02
13036,2.61E-03,2.74E-02
13037,2.57E-03,2.75E-02
13038,2.52E-03,2.72E-02
13039,2.44E-03,2.67E-02
13040,2.36E-03,2.60E-02
13041,2.30E-03,2.53E-02
13042,2.25E-03,2.44E-02
13043,2.23E-03,2.32E-02
13044,2.18E-03,2.18E-02
13045,2.20E-03,1.99E-02
13046,2.18E-03,1.80E-02
13047,2.07E-03,1.67E-02
13048,2.24E-03,9.73E-03
13049,2.42E-03,1.04E-02
13050,2.45E-03,9.92E-03
13051,2.41E-03,8.95E-03
13052,2.34E-03,8.59E-03
13053,2.41E-03,8.54E-03
13054,2.41E-03,8.43E-03
13055,2.53E-03,1.11E-02
13056,2.43E-03,1.12E-02
13057,1.92E-03,7.14E-03
13058,1.94E-03,7.14E-03
13059,1.95E-03,7.13E-03
13060,2.02E-03,7.13E-03
13061,2.00E-03,7.15E-03
13062,1.84E-03,7.17E-03
13063,1.71E-03,7.23E-03
13064,1.84E-03,7.30E-03
13065,2.05E-03,7.37E-03
13066,2.17E-03,7.46E-03
13067,2.25E-03,7.57E-03
13068,2.29E-03,7.69E-03
13069,2.33E-03,7.81E-03
13070,2.34E-03,7.94E-03
13071,2.34E-03,8.06E-03
13072,2.35E-03,8.20E-03
13073,2.35E-03,8.33E-03
13074,2.33E-03,8.46E-03
13075,2.33E-03,8.58E-03
13076,2.25E-03,8.70E-03
13077,2.23E-03,8.82E-03
13078,2.19E-03,8.93E-03
13079,2.19E-03,9.04E-03
13080,2.17E-03,9.15E-03
13081,2.14E-03,9.25E-03
13082,2.11E-03,9.34E-03
13083,2.20E-03,9.44E-03
13084,2.29E-03,9.53E-03
13085,2.28E-03,9.62E-03
13086,2.31E-03,9.70E-03
13087,2.33E-03,9.79E-03
13088,2.35E-03,9.87E-03
13089,2.38E-03,9.95E-03
13090,2.41E-03,1.00E-02
13091,2.44E-03,1.01E-02
13092,2.47E-03,1.02E-02
13093,2.50E-03,1.02E-02
13094,2.53E-03,1.03E-02
13095,2.54E-03,1.03E-02
13096,2.55E-03,1.04E-02
13097,2.54E-03,1.04E-02
13098,2.55E-03,1.04E-02
13099,2.54E-03,1.04E-02
13100,2.50E-03,1.05E-02
13101,2.46E-03,1.05E-02
13102,2.43E-03,1.04E-02
13103,2.42E-03,1.04E-02
13104,2.39E-03,1.04E-02
13105,2.37E-03,1.04E-02
13106,2.35E-03,1.03E-02
13107,2.31E-03,1.03E-02
13108,2.29E-03,1.03E-02
13109,2.24E-03,1.02E-02
13110,2.24E-03,1.02E-02
13111,2.24E-03,1.01E-02
13112,2.27E-03,1.01E-02
13113,2.28E-03,1.00E-02
13114,2.30E-03,1.00E-02
13115,2.34E-03,9.97E-03
13116,2.38E-03,9.93E-03
13117,2.41E-03,9.89E-03
13118,2.44E-03,9.86E-03
13119,2.48E-03,9.81E-03
13120,2.50E-03,9.77E-03
13121,2.53E-03,9.71E-03
13122,2.56E-03,9.65E-03
13123,2.58E-03,9.59E-03
13124,2.59E-03,9.51E-03
13125,2.56E-03,9.42E-03
13126,2.55E-03,9.33E-03
13127,2.53E-03,9.22E-03
13128,2.50E-03,9.11E-03
13129,2.48E-03,9.00E-03
13130,2.47E-03,8.89E-03
13131,2.46E-03,8.77E-03
13132,2.48E-03,8.64E-03
13133,2.49E-03,8.52E-03
13134,2.55E-03,8.39E-03
13135,2.54E-03,8.25E-03
13136,2.56E-03,8.12E-03
13137,2.56E-03,7.97E-03
13138,2.54E-03,7.82E-03
13139,2.49E-03,7.67E-03
13140,2.45E-03,7.50E-03
13141,2.41E-03,7.34E-03
13142,2.37E-03,7.17E-03
13143,2.33E-03,7.01E-03
13144,2.27E-03,6.86E-03
13145,2.24E-03,6.71E-03
13146,2.21E-03,6.56E-03
13147,2.24E-03,6.42E-03
13148,2.25E-03,6.29E-03
13149,2.25E-03,6.18E-03
13150,2.24E-03,6.10E-03
13151,2.25E-03,6.03E-03
13152,2.22E-03,6.00E-03
13153,2.18E-03,6.00E-03
13154,2.17E-03,6.03E-03
13155,2.16E-03,6.11E-03
13156,2.16E-03,6.22E-03
13157,2.16E-03,6.35E-03
13158,2.17E-03,6.52E-03
13159,2.18E-03,6.71E-03
13160,2.18E-03,6.93E-03
13161,2.21E-03,7.16E-03
13162,2.21E-03,7.41E-03
13163,2.21E-03,7.66E-03
13164,2.21E-03,7.92E-03
13165,2.22E-03,8.17E-03
13166,2.25E-03,8.41E-03
13167,2.27E-03,8.66E-03
13168,2.28E-03,8.90E-03
13169,2.32E-03,9.12E-03
13170,2.35E-03,9.34E-03
13171,2.39E-03,9.55E-03
13172,2.40E-03,9.74E-03
13173,2.43E-03,9.94E-03
13174,2.46E-03,1.01E-02
13175,2.47E-03,1.03E-02
13176,2.49E-03,1.05E-02
13177,2.51E-03,1.07E-02
13178,2.52E-03,1.09E-02
13179,2.53E-03,1.10E-02
13180,2.54E-03,1.12E-02
13181,2.55E-03,1.13E-02
13182,2.57E-03,1.14E-02
13183,2.58E-03,1.15E-02
13184,2.60E-03,1.17E-02
13185,2.62E-03,1.18E-02
13186,2.63E-03,1.19E-02
13187,2.64E-03,1.20E-02
13188,2.62E-03,1.21E-02
13189,2.60E-03,1.22E-02
13190,2.58E-03,1.23E-02
13191,2.56E-03,1.24E-02
13192,2.56E-03,1.25E-02
13193,2.52E-03,1.25E-02
13194,2.51E-03,1.26E-02
13195,2.51E-03,1.27E-02
13196,2.50E-03,1.27E-02
13197,2.46E-03,1.27E-02
13198,2.46E-03,1.27E-02
13199,2.44E-03,1.28E-02
13200,2.44E-03,1.28E-02
13201,2.45E-03,1.28E-02
13202,2.45E-03,1.28E-02
13203,2.46E-03,1.27E-02
13204,2.46E-03,1.27E-02
13205,2.45E-03,1.26E-02
13206,2.45E-03,1.24E-02
13207,2.40E-03,1.23E-02
13208,2.39E-03,1.21E-02
13209,2.38E-03,1.20E-02
13210,2.35E-03,1.18E-02
13211,2.34E-03,1.17E-02
13212,2.33E-03,1.16E-02
13213,2.31E-03,1.15E-02
13214,2.30E-03,1.39E-02
13215,2.58E-03,1.30E-02
13216,1.92E-03,1.72E-02
13217,1.47E-03,9.95E-05
13218,1.74E-03,1.11E-04
13219,1.94E-03,1.22E-04
13220,2.09E-03,1.39E-04
13221,2.19E-03,1.60E-04
13222,2.24E-03,1.85E-04
13223,2.30E-03,2.13E-04
13224,2.30E-03,2.43E-04
13225,2.32E-03,2.72E-04
13226,2.31E-03,3.01E-04
13227,2.32E-03,3.29E-04
13228,2.31E-03,3.57E-04
13229,2.29E-03,3.84E-04
13230,2.30E-03,4.11E-04
13231,2.30E-03,4.38E-04
13232,2.30E-03,4.68E-04
13233,2.29E-03,5.02E-04
13234,2.31E-03,5.38E-04
13235,2.32E-03,5.76E-04
13236,2.34E-03,6.15E-04
13237,2.37E-03,6.53E-04
13238,2.37E-03,6.91E-04
13239,2.38E-03,7.31E-04
13240,2.38E-03,7.71E-04
13241,2.41E-03,8.16E-04
13242,2.41E-03,8.66E-04
13243,2.41E-03,9.20E-04
13244,2.41E-03,9.77E-04
13245,2.41E-03,1.04E-03
13246,2.41E-03,1.10E-03
13247,2.41E-03,1.16E-03
13248,2.41E-03,1.23E-03
13249,2.41E-03,1.30E-03
13250,2.40E-03,1.37E-03
13251,2.40E-03,1.44E-03
13252,2.40E-03,1.52E-03
13253,2.40E-03,1.60E-03
13254,2.40E-03,1.68E-03
13255,2.39E-03,1.76E-03
13256,2.39E-03,1.85E-03
13257,2.40E-03,1.95E-03
13258,2.40E-03,2.04E-03
13259,2.40E-03,2.15E-03
13260,2.40E-03,2.25E-03
13261,2.40E-03,2.37E-03
13262,2.41E-03,2.48E-03
13263,2.41E-03,2.59E-03
13264,2.41E-03,2.71E-03
13265,2.42E-03,2.82E-03
13266,2.42E-03,2.94E-03
13267,2.42E-03,3.06E-03
13268,2.43E-03,3.19E-03
13269,2.43E-03,3.33E-03
13270,2.44E-03,3.48E-03
13271,2.44E-03,3.64E-03
13272,2.44E-03,3.81E-03
13273,2.45E-03,3.99E-03
13274,2.45E-03,4.18E-03
13275,2.45E-03,4.37E-03
13276,2.45E-03,4.55E-03
13277,2.45E-03,4.73E-03
13278,2.46E-03,4.89E-03
13279,2.46E-03,5.05E-03
13280,2.46E-03,5.20E-03
13281,2.46E-03,5.37E-03
13282,2.46E-03,5.54E-03
13283,2.46E-03,5.74E-03
13284,2.47E-03,5.97E-03
13285,2.47E-03,6.21E-03
13286,2.47E-03,6.47E-03
13287,2.47E-03,6.72E-03
13288,2.47E-03,6.96E-03
13289,2.47E-03,7.18E-03
13290,2.47E-03,7.40E-03
13291,2.47E-03,7.60E-03
13292,2.47E-03,7.80E-03
13293,2.48E-03,7.99E-03
13294,2.48E-03,8.19E-03
13295,2.48E-03,8.39E-03
13296,2.48E-03,8.58E-03
13297,2.48E-03,8.77E-03
13298,2.48E-03,8.95E-03
13299,2.48E-03,9.12E-03
13300,2.47E-03,9.27E-03
13301,2.45E-03,9.41E-03
13302,2.41E-03,9.54E-03
13303,2.41E-03,9.67E-03
13304,2.39E-03,9.80E-03
13305,2.36E-03,9.95E-03
13306,2.35E-03,1.01E-02
13307,2.33E-03,1.03E-02
13308,2.34E-03,1.05E-02
13309,2.30E-03,1.06E-02
13310,2.26E-03,1.08E-02
13311,2.28E-03,1.10E-02
13312,2.61E-03,1.11E-02
13313,2.34E-03,1.15E-02
13314,2.29E-03,1.14E-02
13315,2.56E-03,1.13E-02
13316,2.36E-03,8.69E-03
13317,2.41E-03,8.81E-03
13318,2.38E-03,1.01E-02
13319,2.10E-03,1.80E-02
13320,2.26E-03,2.08E-02
13321,2.21E-03,2.28E-02
13322,2.21E-03,2.47E-02
13323,2.20E-03,2.67E-02
13324,2.20E-03,2.88E-02
13325,2.22E-03,3.06E-02
13326,2.32E-03,3.17E-02
13327,2.39E-03,3.16E-02
13328,2.51E-03,3.19E-02
13329,2.60E-03,3.17E-02
13330,2.59E-03,3.13E-02
13331,2.59E-03,3.11E-02
13332,2.59E-03,3.06E-02
13333,2.56E-03,2.97E-02
13334,2.52E-03,2.87E-02
13335,2.52E-03,2.76E-02
13336,2.52E-03,2.66E-02
13337,2.51E-03,2.57E-02
13338,2.51E-03,2.48E-02
13339,2.51E-03,2.38E-02
13340,2.49E-03,2.28E-02
13341,2.49E-03,2.16E-02
13342,2.47E-03,2.04E-02
13343,2.35E-03,1.91E-02
13344,2.32E-03,1.73E-02
13345,2.25E-03,1.52E-02
13346,2.20E-03,1.34E-02
13347,2.26E-03,1.10E-02
13348,2.27E-03,8.34E-03
13349,2.25E-03,5.67E-03
13350,2.14E-03,3.62E-03
13351,1.93E-03,3.64E-03
13352,2.32E-03,1.58E-02
13353,2.34E-03,2.02E-02
13354,2.31E-03,2.46E-02
13355,2.21E-03,2.88E-02
13356,2.07E-03,3.26E-02
13357,1.92E-03,3.62E-02
13358,1.94E-03,3.95E-02
13359,1.65E-03,4.20E-02
13360,2.16E-03,4.30E-02
13361,2.71E-03,4.47E-02
13362,2.53E-03,4.65E-02
13363,2.45E-03,4.78E-02
13364,2.46E-03,4.89E-02
13365,2.46E-03,4.98E-02
13366,2.48E-03,5.05E-02
13367,2.48E-03,5.11E-02
13368,2.49E-03,5.16E-02
13369,2.50E-03,5.20E-02
13370,2.50E-03,5.24E-02
13371,2.50E-03,5.27E-02
13372,2.51E-03,5.29E-02
13373,2.51E-03,5.30E-02
13374,2.53E-03,5.30E-02
13375,2.54E-03,5.30E-02
13376,2.53E-03,5.30E-02
13377,2.52E-03,5.29E-02
13378,2.51E-03,5.27E-02
13379,2.50E-03,5.25E-02
13380,2.49E-03,5.23E-02
13381,2.49E-03,5.20E-02
13382,2.48E-03,5.17E-02
13383,2.48E-03,5.13E-02
13384,2.48E-03,5.09E-02
13385,2.48E-03,5.05E-02
13386,2.48E-03,5.00E-02
13387,2.48E-03,4.94E-02
13388,2.48E-03,4.89E-02
13389,2.48E-03,4.83E-02
13390,2.48E-03,4.76E-02
13391,2.48E-03,4.70E-02
13392,2.48E-03,4.63E-02
13393,2.48E-03,4.56E-02
13394,2.48E-03,4.49E-02
13395,2.49E-03,4.42E-02
13396,2.50E-03,4.35E-02
13397,2.48E-03,4.28E-02
13398,2.48E-03,4.21E-02
13399,2.49E-03,4.15E-02
13400,2.49E-03,4.09E-02
13401,2.49E-03,4.03E-02
13402,2.49E-03,3.97E-02
13403,2.49E-03,3.92E-02
13404,2.50E-03,3.87E-02
13405,2.52E-03,3.82E-02
13406,2.53E-03,3.77E-02
13407,2.55E-03,3.71E-02
13408,2.55E-03,3.66E-02
13409,2.57E-03,3.61E-02
13410,2.58E-03,3.55E-02
13411,2.59E-03,3.50E-02
13412,2.60E-03,3.45E-02
13413,2.59E-03,3.40E-02
13414,2.59E-03,3.35E-02
13415,2.58E-03,3.30E-02
13416,2.55E-03,3.26E-02
13417,2.52E-03,3.22E-02
13418,2.53E-03,3.18E-02
13419,2.53E-03,3.13E-02
13420,2.54E-03,3.09E-02
13421,2.57E-03,3.05E-02
13422,2.58E-03,3.00E-02
13423,2.57E-03,2.95E-02
13424,2.53E-03,2.90E-02
13425,2.53E-03,2.85E-02
13426,2.51E-03,2.80E-02
13427,2.50E-03,2.76E-02
13428,2.47E-03,2.73E-02
13429,2.48E-03,2.69E-02
13430,2.49E-03,2.66E-02
13431,2.48E-03,2.63E-02
13432,2.46E-03,2.59E-02
13433,2.47E-03,2.54E-02
13434,2.45E-03,2.49E-02
13435,2.45E-03,2.43E-02
13436,2.44E-03,2.37E-02
13437,2.44E-03,2.31E-02
13438,2.44E-03,2.25E-02
13439,2.45E-03,2.18E-02
13440,2.45E-03,2.12E-02
13441,2.45E-03,2.06E-02
13442,2.46E-03,2.00E-02
13443,2.46E-03,1.95E-02
13444,2.46E-03,1.89E-02
13445,2.46E-03,1.84E-02
13446,2.46E-03,1.79E-02
13447,2.46E-03,1.74E-02
13448,2.46E-03,1.70E-02
13449,2.46E-03,1.65E-02
13450,2.46E-03,1.61E-02
13451,2.46E-03,1.57E-02
13452,2.46E-03,1.54E-02
13453,2.46E-03,1.50E-02
13454,2.46E-03,1.47E-02
13455,2.47E-03,1.43E-02
13456,2.45E-03,1.40E-02
13457,2.45E-03,1.37E-02
13458,2.45E-03,1.35E-02
13459,2.45E-03,1.32E-02
13460,2.44E-03,1.29E-02
13461,2.44E-03,1.27E-02
13462,2.43E-03,1.24E-02
13463,2.43E-03,1.22E-02
13464,2.42E-03,1.20E-02
13465,2.44E-03,1.18E-02
13466,2.42E-03,1.16E-02
13467,2.43E-03,1.14E-02
13468,2.44E-03,1.12E-02
13469,2.44E-03,1.11E-02
13470,2.45E-03,1.09E-02
13471,2.46E-03,1.08E-02
13472,2.46E-03,1.07E-02
13473,2.47E-03,1.05E-02
13474,2.47E-03,1.04E-02
13475,2.49E-03,1.03E-02
13476,2.49E-03,1.02E-02
13477,2.49E-03,1.01E-02
13478,2.49E-03,9.96E-03
13479,2.49E-03,9.84E-03
13480,2.49E-03,9.71E-03
13481,2.49E-03,9.59E-03
13482,2.49E-03,9.46E-03
13483,2.49E-03,9.32E-03
13484,2.49E-03,9.18E-03
13485,2.49E-03,9.04E-03
13486,2.49E-03,8.89E-03
13487,2.49E-03,8.75E-03
13488,2.48E-03,8.60E-03
13489,2.48E-03,8.46E-03
13490,2.47E-03,8.32E-03
13491,2.45E-03,8.18E-03
13492,2.44E-03,8.05E-03
13493,2.41E-03,7.92E-03
13494,2.37E-03,7.79E-03
13495,2.33E-03,7.66E-03
13496,2.30E-03,7.53E-03
13497,2.25E-03,7.40E-03
13498,2.19E-03,7.27E-03
13499,2.07E-03,7.15E-03
13500,2.05E-03,7.07E-03
13501,2.13E-03,6.98E-03
13502,2.03E-03,6.92E-03
13503,2.08E-03,6.91E-03
13504,2.11E-03,6.91E-03
13505,2.16E-03,6.92E-03
13506,2.11E-03,6.95E-03
13507,2.05E-03,7.00E-03
13508,2.06E-03,7.06E-03
13509,2.16E-03,7.13E-03
13510,2.17E-03,7.22E-03
13511,2.26E-03,7.31E-03
13512,2.32E-03,7.42E-03
13513,2.37E-03,7.54E-03
13514,2.39E-03,7.67E-03
13515,2.41E-03,7.80E-03
13516,2.41E-03,7.94E-03
13517,2.42E-03,8.08E-03
13518,2.40E-03,8.22E-03
13519,2.39E-03,8.35E-03
13520,2.36E-03,8.48E-03
13521,2.32E-03,8.61E-03
13522,2.29E-03,8.74E-03
13523,2.25E-03,8.86E-03
13524,2.24E-03,8.97E-03
13525,2.20E-03,9.08E-03
13526,2.21E-03,9.19E-03
13527,2.25E-03,9.29E-03
13528,2.34E-03,9.39E-03
13529,2.37E-03,9.48E-03
13530,2.37E-03,9.56E-03
13531,2.43E-03,9.64E-03
13532,2.39E-03,9.72E-03
13533,2.39E-03,9.81E-03
13534,2.40E-03,9.89E-03
13535,2.42E-03,9.96E-03
13536,2.44E-03,1.00E-02
13537,2.46E-03,1.01E-02
13538,2.50E-03,1.01E-02
13539,2.52E-03,1.02E-02
13540,2.52E-03,1.02E-02
13541,2.53E-03,1.03E-02
13542,2.52E-03,1.03E-02
13543,2.50E-03,1.03E-02
13544,2.48E-03,1.03E-02
13545,2.45E-03,1.03E-02
13546,2.41E-03,1.03E-02
13547,2.39E-03,1.03E-02
13548,2.38E-03,1.03E-02
13549,2.35E-03,1.03E-02
13550,2.35E-03,1.03E-02
13551,2.33E-03,1.02E-02
13552,2.30E-03,1.02E-02
13553,2.29E-03,1.01E-02
13554,2.26E-03,1.01E-02
13555,2.29E-03,1.01E-02
13556,2.30E-03,1.00E-02
13557,2.33E-03,9.96E-03
13558,2.37E-03,9.92E-03
13559,2.39E-03,9.88E-03
13560,2.44E-03,9.83E-03
13561,2.47E-03,9.80E-03
13562,2.47E-03,9.77E-03
13563,2.49E-03,9.73E-03
13564,2.51E-03,9.68E-03
13565,2.53E-03,9.64E-03
13566,2.56E-03,9.59E-03
13567,2.56E-03,9.53E-03
13568,2.55E-03,9.47E-03
13569,2.55E-03,9.39E-03
13570,2.52E-03,9.31E-03
13571,2.49E-03,9.22E-03
13572,2.47E-03,9.11E-03
13573,2.45E-03,9.01E-03
13574,2.46E-03,8.90E-03
13575,2.45E-03,8.79E-03
13576,2.45E-03,8.67E-03
13577,2.50E-03,8.54E-03
13578,2.52E-03,8.41E-03
13579,2.56E-03,8.28E-03
13580,2.59E-03,8.15E-03
13581,2.60E-03,8.01E-03
13582,2.58E-03,7.88E-03
13583,2.54E-03,7.73E-03
13584,2.46E-03,7.58E-03
13585,2.40E-03,7.41E-03
13586,2.35E-03,7.25E-03
13587,2.34E-03,7.09E-03
13588,2.33E-03,6.93E-03
13589,2.30E-03,6.77E-03
13590,2.29E-03,6.60E-03
13591,2.27E-03,6.45E-03
13592,2.28E-03,6.30E-03
13593,2.31E-03,6.17E-03
13594,2.34E-03,6.05E-03
13595,2.35E-03,5.96E-03
13596,2.36E-03,5.89E-03
13597,2.37E-03,5.87E-03
13598,2.33E-03,5.88E-03
13599,2.31E-03,5.94E-03
13600,2.29E-03,6.05E-03
13601,2.28E-03,6.17E-03
13602,2.27E-03,6.33E-03
13603,2.28E-03,6.53E-03
13604,2.30E-03,6.76E-03
13605,2.30E-03,7.02E-03
13606,2.28E-03,7.28E-03
13607,2.28E-03,7.56E-03
13608,2.28E-03,7.84E-03
13609,2.29E-03,8.13E-03
13610,2.31E-03,8.40E-03
13611,2.34E-03,8.68E-03
13612,2.34E-03,8.94E-03
13613,2.37E-03,9.20E-03
13614,2.39E-03,9.46E-03
13615,2.42E-03,9.69E-03
13616,2.44E-03,9.92E-03
13617,2.44E-03,1.01E-02
13618,2.47E-03,1.04E-02
13619,2.48E-03,1.06E-02
13620,2.49E-03,1.08E-02
13621,2.49E-03,1.10E-02
13622,2.50E-03,1.12E-02
13623,2.51E-03,1.14E-02
13624,2.51E-03,1.16E-02
13625,2.52E-03,1.17E-02
13626,2.53E-03,1.19E-02
13627,2.53E-03,1.20E-02
13628,2.55E-03,1.21E-02
13629,2.56E-03,1.23E-02
13630,2.57E-03,1.24E-02
13631,2.59E-03,1.25E-02
13632,2.60E-03,1.27E-02
13633,2.59E-03,1.28E-02
13634,2.59E-03,1.28E-02
13635,2.58E-03,1.29E-02
13636,2.53E-03,1.30E-02
13637,2.51E-03,1.31E-02
13638,2.49E-03,1.32E-02
13639,2.47E-03,1.33E-02
13640,2.48E-03,1.33E-02
13641,2.46E-03,1.34E-02
13642,2.45E-03,1.34E-02
13643,2.45E-03,1.34E-02
13644,2.46E-03,1.34E-02
13645,2.46E-03,1.34E-02
13646,2.46E-03,1.34E-02
13647,2.47E-03,1.33E-02
13648,2.47E-03,1.33E-02
13649,2.47E-03,1.32E-02
13650,2.47E-03,1.31E-02
13651,2.47E-03,1.29E-02
13652,2.45E-03,1.27E-02
13653,2.42E-03,1.25E-02
13654,2.41E-03,1.23E-02
13655,2.36E-03,1.21E-02
13656,2.34E-03,1.20E-02
13657,2.29E-03,1.19E-02
13658,2.25E-03,1.17E-02
13659,2.21E-03,1.17E-02
13660,2.34E-03,1.24E-02
13661,2.19E-03,1.06E-02
13662,2.23E-03,8.57E-03
13663,2.30E-03,7.22E-03
13664,2.38E-03,6.45E-03
13665,2.40E-03,5.99E-03
13666,2.41E-03,5.67E-03
13667,2.39E-03,5.39E-03
13668,2.39E-03,5.08E-03
13669,2.39E-03,4.72E-03
13670,2.38E-03,4.29E-03
13671,2.39E-03,3.82E-03
13672,2.43E-03,3.33E-03
13673,2.43E-03,2.88E-03
13674,2.43E-03,2.49E-03
13675,2.41E-03,2.16E-03
13676,2.42E-03,1.90E-03
13677,2.41E-03,1.69E-03
13678,2.41E-03,1.51E-03
13679,2.42E-03,1.36E-03
13680,2.40E-03,1.23E-03
13681,2.39E-03,1.11E-03
13682,2.45E-03,1.01E-03
13683,2.51E-03,9.24E-04
13684,2.52E-03,8.69E-04
13685,2.53E-03,8.38E-04
13686,2.48E-03,8.24E-04
13687,2.41E-03,8.11E-04
13688,2.40E-03,7.84E-04
13689,2.38E-03,7.40E-04
13690,2.38E-03,6.82E-04
13691,2.38E-03,6.16E-04
13692,2.35E-03,5.54E-04
13693,2.34E-03,4.97E-04
13694,2.35E-03,4.43E-04
13695,2.38E-03,3.91E-04
13696,2.38E-03,3.38E-04
13697,2.36E-03,2.85E-04
13698,2.31E-03,2.38E-04
13699,2.24E-03,1.92E-04
13700,2.05E-03,1.55E-04
13701,1.57E-03,1.27E-04
13702,2.07E-03,1.09E-04
13703,2.29E-03,9.81E-05
13704,1.45E-03,8.55E-05
13705,1.52E-03,8.32E-05
13706,2.04E-03,9.41E-05
13707,2.12E-03,1.09E-04
13708,2.21E-03,1.30E-04
13709,2.29E-03,1.56E-04
13710,2.34E-03,1.86E-04
13711,2.38E-03,2.18E-04
13712,2.38E-03,2.50E-04
13713,2.38E-03,2.81E-04
13714,2.37E-03,3.12E-04
13715,2.38E-03,3.41E-04
13716,2.37E-03,3.68E-04
13717,2.35E-03,3.94E-04
13718,2.36E-03,4.17E-04
13719,2.37E-03,4.39E-04
13720,2.36E-03,4.61E-04
13721,2.36E-03,4.89E-04
13722,2.37E-03,5.23E-04
13723,2.37E-03,5.59E-04
13724,2.38E-03,5.96E-04
13725,2.40E-03,6.35E-04
13726,2.41E-03,6.73E-04
13727,2.43E-03,7.10E-04
13728,2.44E-03,7.50E-04
13729,2.44E-03,7.96E-04
13730,2.44E-03,8.43E-04
13731,2.44E-03,8.94E-04
13732,2.44E-03,9.47E-04
13733,2.44E-03,1.00E-03
13734,2.44E-03,1.06E-03
13735,2.44E-03,1.12E-03
13736,2.44E-03,1.18E-03
13737,2.44E-03,1.24E-03
13738,2.44E-03,1.31E-03
13739,2.44E-03,1.38E-03
13740,2.43E-03,1.45E-03
13741,2.43E-03,1.53E-03
13742,2.43E-03,1.61E-03
13743,2.43E-03,1.68E-03
13744,2.43E-03,1.76E-03
13745,2.43E-03,1.86E-03
13746,2.43E-03,1.96E-03
13747,2.43E-03,2.06E-03
13748,2.43E-03,2.17E-03
13749,2.44E-03,2.28E-03
13750,2.44E-03,2.39E-03
13751,2.44E-03,2.51E-03
13752,2.44E-03,2.63E-03
13753,2.44E-03,2.74E-03
13754,2.45E-03,2.86E-03
13755,2.45E-03,2.98E-03
13756,2.45E-03,3.10E-03
13757,2.45E-03,3.24E-03
13758,2.46E-03,3.38E-03
13759,2.46E-03,3.54E-03
13760,2.46E-03,3.71E-03
13761,2.46E-03,3.89E-03
13762,2.47E-03,4.08E-03
13763,2.47E-03,4.27E-03
13764,2.47E-03,4.46E-03
13765,2.47E-03,4.64E-03
13766,2.47E-03,4.82E-03
13767,2.47E-03,4.99E-03
13768,2.47E-03,5.15E-03
13769,2.47E-03,5.31E-03
13770,2.47E-03,5.49E-03
13771,2.47E-03,5.70E-03
13772,2.48E-03,5.94E-03
13773,2.48E-03,6.19E-03
13774,2.48E-03,6.46E-03
13775,2.48E-03,6.72E-03
13776,2.48E-03,6.97E-03
13777,2.48E-03,7.21E-03
13778,2.48E-03,7.44E-03
13779,2.48E-03,7.67E-03
13780,2.48E-03,7.89E-03
13781,2.48E-03,8.11E-03
13782,2.48E-03,8.34E-03
13783,2.48E-03,8.56E-03
13784,2.48E-03,8.79E-03
13785,2.48E-03,9.01E-03
13786,2.48E-03,9.22E-03
13787,2.48E-03,9.41E-03
13788,2.48E-03,9.58E-03
13789,2.48E-03,9.71E-03
13790,2.45E-03,9.83E-03
13791,2.43E-03,9.94E-03
13792,2.42E-03,1.01E-02
13793,2.41E-03,1.02E-02
13794,2.37E-03,1.03E-02
13795,2.35E-03,1.05E-02
13796,2.35E-03,1.06E-02
13797,2.30E-03,1.08E-02
13798,2.20E-03,1.10E-02
13799,2.02E-03,1.11E-02
13800,2.50E-03,1.13E-02
13801,2.49E-03,1.04E-02
13802,1.36E-03,1.03E-02
13803,2.14E-03,1.02E-02
13804,2.39E-03,9.12E-03
13805,2.27E-03,1.01E-02
13806,2.54E-03,9.72E-03
13807,2.44E-03,8.95E-03
13808,2.03E-03,9.23E-03
13809,2.15E-03,9.37E-03
13810,2.55E-03,1.46E-02
13811,2.38E-03,9.64E-03
13812,2.44E-03,6.62E-03
13813,2.50E-03,5.35E-03
13814,2.49E-03,4.99E-03
13815,2.45E-03,5.04E-03
13816,2.41E-03,5.21E-03
13817,2.36E-03,5.35E-03
13818,2.30E-03,5.39E-03
13819,2.28E-03,5.23E-03
13820,2.26E-03,4.78E-03
13821,2.29E-03,4.09E-03
13822,2.36E-03,3.36E-03
13823,2.39E-03,2.75E-03
13824,2.42E-03,2.29E-03
13825,2.42E-03,1.95E-03
13826,2.42E-03,1.70E-03
13827,2.41E-03,1.51E-03
13828,2.40E-03,1.36E-03
13829,2.40E-03,1.23E-03
13830,2.40E-03,1.12E-03
13831,2.40E-03,1.01E-03
13832,2.44E-03,8.88E-04
13833,2.55E-03,7.68E-04
13834,2.65E-03,6.92E-04
13835,2.60E-03,6.98E-04
13836,2.46E-03,7.69E-04
13837,2.32E-03,8.57E-04
13838,2.22E-03,8.98E-04
13839,2.23E-03,8.28E-04
13840,2.35E-03,7.09E-04
13841,2.39E-03,6.14E-04
13842,2.39E-03,5.42E-04
13843,2.37E-03,4.86E-04
13844,2.37E-03,4.38E-04
13845,2.38E-03,3.92E-04
13846,2.41E-03,3.42E-04
13847,2.57E-03,2.85E-04
13848,2.65E-03,2.21E-04
13849,2.44E-03,1.65E-04
13850,2.30E-03,1.24E-04
13851,2.36E-03,9.98E-05
13852,2.50E-03,8.78E-05
13853,2.28E-03,7.83E-05
13854,2.24E-03,7.56E-05
13855,2.24E-03,7.50E-05
13856,2.19E-03,8.68E-05
13857,2.34E-03,1.09E-04
13858,2.39E-03,1.33E-04
13859,2.42E-03,1.66E-04
13860,2.44E-03,2.01E-04
13861,2.45E-03,2.35E-04
13862,2.45E-03,2.68E-04
13863,2.44E-03,3.01E-04
13864,2.44E-03,3.33E-04
13865,2.44E-03,3.63E-04
13866,2.44E-03,3.90E-04
13867,2.43E-03,4.14E-04
13868,2.43E-03,4.35E-04
13869,2.43E-03,4.53E-04
13870,2.43E-03,4.64E-04
13871,2.44E-03,4.76E-04
13872,2.46E-03,5.01E-04
13873,2.44E-03,5.28E-04
13874,2.45E-03,5.64E-04
13875,2.46E-03,6.05E-04
13876,2.46E-03,6.53E-04
13877,2.47E-03,6.85E-04
13878,2.47E-03,7.35E-04
13879,2.47E-03,7.82E-04
13880,2.47E-03,8.26E-04
13881,2.47E-03,8.66E-04
13882,2.47E-03,9.16E-04
13883,2.47E-03,9.65E-04
13884,2.47E-03,1.01E-03
13885,2.47E-03,1.06E-03
13886,2.47E-03,1.12E-03
13887,2.47E-03,1.18E-03
13888,2.47E-03,1.24E-03
13889,2.47E-03,1.31E-03
13890,2.47E-03,1.37E-03
13891,2.47E-03,1.45E-03
13892,2.47E-03,1.53E-03
13893,2.47E-03,1.60E-03
13894,2.46E-03,1.66E-03
13895,2.47E-03,1.74E-03
13896,2.47E-03,1.86E-03
13897,2.47E-03,1.97E-03
13898,2.47E-03,2.06E-03
13899,2.47E-03,2.18E-03
13900,2.47E-03,2.29E-03
13901,2.47E-03,2.41E-03
13902,2.47E-03,2.54E-03
13903,2.47E-03,2.66E-03
13904,2.47E-03,2.78E-03
13905,2.47E-03,2.90E-03
13906,2.48E-03,3.02E-03
13907,2.48E-03,3.15E-03
13908,2.48E-03,3.29E-03
13909,2.48E-03,3.44E-03
13910,2.48E-03,3.60E-03
13911,2.48E-03,3.77E-03
13912,2.48E-03,3.95E-03
13913,2.48E-03,4.14E-03
13914,2.48E-03,4.34E-03
13915,2.48E-03,4.53E-03
13916,2.48E-03,4.73E-03
13917,2.48E-03,4.92E-03
13918,2.48E-03,5.10E-03
13919,2.48E-03,5.28E-03
13920,2.48E-03,5.47E-03
13921,2.49E-03,5.68E-03
13922,2.49E-03,5.92E-03
13923,2.49E-03,6.18E-03
13924,2.49E-03,6.44E-03
13925,2.49E-03,6.71E-03
13926,2.49E-03,6.96E-03
13927,2.49E-03,7.20E-03
13928,2.49E-03,7.45E-03
13929,2.49E-03,7.70E-03
13930,2.49E-03,7.99E-03
13931,2.49E-03,8.26E-03
13932,2.49E-03,8.49E-03
13933,2.49E-03,8.77E-03
13934,2.49E-03,9.05E-03
13935,2.49E-03,9.32E-03
13936,2.49E-03,9.55E-03
13937,2.49E-03,9.76E-03
13938,2.49E-03,9.94E-03
13939,2.49E-03,1.01E-02
13940,2.49E-03,1.02E-02
13941,2.47E-03,1.03E-02
13942,2.44E-03,1.04E-02
13943,2.44E-03,1.04E-02
13944,2.42E-03,1.05E-02
13945,2.38E-03,1.07E-02
13946,2.37E-03,1.08E-02
13947,2.33E-03,1.09E-02
13948,2.26E-03,1.11E-02
13949,2.01E-03,1.12E-02
13950,2.02E-03,1.14E-02
13951,9.31E-04,1.14E-02
13952,7.43E-04,1.15E-02
13953,2.56E-03,2.38E-02
13954,2.30E-03,2.51E-02
13955,2.27E-03,2.55E-02
13956,2.24E-03,2.71E-02
13957,2.15E-03,3.01E-02
13958,2.10E-03,3.45E-02
13959,2.07E-03,3.87E-02
13960,2.18E-03,4.03E-02
13961,2.56E-03,3.91E-02
13962,2.82E-03,3.61E-02
13963,2.59E-03,3.48E-02
13964,2.55E-03,3.50E-02
13965,2.54E-03,3.51E-02
13966,2.51E-03,3.54E-02
13967,2.47E-03,3.49E-02
13968,2.44E-03,3.34E-02
13969,2.44E-03,3.23E-02
13970,2.44E-03,3.15E-02
13971,2.45E-03,3.06E-02
13972,2.46E-03,2.97E-02
13973,2.47E-03,2.85E-02
13974,2.47E-03,2.73E-02
13975,2.48E-03,2.62E-02
13976,2.45E-03,2.50E-02
13977,2.41E-03,2.35E-02
13978,2.41E-03,2.14E-02
13979,2.36E-03,1.93E-02
13980,2.38E-03,1.69E-02
13981,2.37E-03,1.42E-02
13982,2.38E-03,1.13E-02
13983,2.33E-03,8.07E-03
13984,2.21E-03,4.92E-03
13985,2.01E-03,2.86E-03
13986,1.76E-03,4.19E-03
13987,1.80E-03,8.09E-03
13988,2.12E-03,1.24E-02
13989,2.32E-03,1.67E-02
13990,2.46E-03,2.13E-02
13991,2.43E-03,2.59E-02
13992,2.40E-03,3.04E-02
13993,2.31E-03,3.47E-02
13994,2.26E-03,3.87E-02
13995,2.44E-03,4.23E-02
13996,2.37E-03,4.49E-02
13997,2.45E-03,4.73E-02
13998,2.54E-03,4.92E-02
13999,2.59E-03,5.06E-02
14000,2.54E-03,5.18E-02
14001,2.51E-03,5.28E-02
14002,2.49E-03,5.35E-02
14003,2.50E-03,5.41E-02
14004,2.50E-03,5.46E-02
14005,2.51E-03,5.51E-02
14006,2.51E-03,5.54E-02
14007,2.51E-03,5.57E-02
14008,2.52E-03,5.58E-02
14009,2.52E-03,5.59E-02
14010,2.52E-03,5.60E-02
14011,2.52E-03,5.59E-02
14012,2.51E-03,5.58E-02
14013,2.51E-03,5.57E-02
14014,2.50E-03,5.55E-02
14015,2.50E-03,5.53E-02
14016,2.49E-03,5.50E-02
14017,2.49E-03,5.47E-02
14018,2.49E-03,5.43E-02
14019,2.49E-03,5.40E-02
14020,2.49E-03,5.35E-02
14021,2.49E-03,5.31E-02
14022,2.49E-03,5.25E-02
14023,2.49E-03,5.20E-02
14024,2.49E-03,5.14E-02
14025,2.49E-03,5.08E-02
14026,2.49E-03,5.01E-02
14027,2.49E-03,4.95E-02
14028,2.49E-03,4.88E-02
14029,2.49E-03,4.80E-02
14030,2.49E-03,4.73E-02
14031,2.49E-03,4.65E-02
14032,2.49E-03,4.58E-02
14033,2.49E-03,4.50E-02
14034,2.50E-03,4.43E-02
14035,2.50E-03,4.35E-02
14036,2.50E-03,4.29E-02
14037,2.50E-03,4.22E-02
14038,2.50E-03,4.16E-02
14039,2.51E-03,4.11E-02
14040,2.51E-03,4.05E-02
14041,2.51E-03,4.00E-02
14042,2.51E-03,3.95E-02
14043,2.52E-03,3.89E-02
14044,2.54E-03,3.84E-02
14045,2.54E-03,3.78E-02
14046,2.53E-03,3.72E-02
14047,2.54E-03,3.67E-02
14048,2.55E-03,3.61E-02
14049,2.55E-03,3.56E-02
14050,2.55E-03,3.50E-02
14051,2.54E-03,3.45E-02
14052,2.53E-03,3.40E-02
14053,2.49E-03,3.36E-02
14054,2.43E-03,3.31E-02
14055,2.41E-03,3.27E-02
14056,2.41E-03,3.23E-02
14057,2.45E-03,3.19E-02
14058,2.53E-03,3.15E-02
14059,2.59E-03,3.10E-02
14060,2.59E-03,3.04E-02
14061,2.55E-03,2.98E-02
14062,2.51E-03,2.91E-02
14063,2.44E-03,2.86E-02
14064,2.44E-03,2.82E-02
14065,2.46E-03,2.78E-02
14066,2.48E-03,2.75E-02
14067,2.48E-03,2.72E-02
14068,2.49E-03,2.68E-02
14069,2.48E-03,2.64E-02
14070,2.47E-03,2.59E-02
14071,2.46E-03,2.53E-02
14072,2.46E-03,2.46E-02
14073,2.47E-03,2.39E-02
14074,2.47E-03,2.31E-02
14075,2.48E-03,2.24E-02
14076,2.48E-03,2.17E-02
14077,2.49E-03,2.10E-02
14078,2.49E-03,2.04E-02
14079,2.48E-03,1.98E-02
14080,2.48E-03,1.92E-02
14081,2.48E-03,1.86E-02
14082,2.48E-03,1.81E-02
14083,2.48E-03,1.76E-02
14084,2.48E-03,1.71E-02
14085,2.48E-03,1.66E-02
14086,2.48E-03,1.62E-02
14087,2.48E-03,1.57E-02
14088,2.48E-03,1.53E-02
14089,2.48E-03,1.50E-02
14090,2.48E-03,1.46E-02
14091,2.48E-03,1.43E-02
14092,2.48E-03,1.40E-02
14093,2.47E-03,1.37E-02
14094,2.47E-03,1.34E-02
14095,2.47E-03,1.31E-02
14096,2.46E-03,1.29E-02
14097,2.46E-03,1.26E-02
14098,2.46E-03,1.24E-02
14099,2.46E-03,1.22E-02
14100,2.46E-03,1.20E-02
14101,2.46E-03,1.18E-02
14102,2.46E-03,1.16E-02
14103,2.47E-03,1.14E-02
14104,2.47E-03,1.12E-02
14105,2.48E-03,1.10E-02
14106,2.49E-03,1.09E-02
14107,2.49E-03,1.08E-02
14108,2.49E-03,1.06E-02
14109,2.49E-03,1.05E-02
14110,2.49E-03,1.04E-02
14111,2.49E-03,1.03E-02
14112,2.49E-03,1.02E-02
14113,2.49E-03,1.01E-02
14114,2.49E-03,9.97E-03
14115,2.49E-03,9.86E-03
14116,2.49E-03,9.74E-03
14117,2.49E-03,9.62E-03
14118,2.49E-03,9.50E-03
14119,2.49E-03,9.37E-03
14120,2.49E-03,9.23E-03
14121,2.49E-03,9.09E-03
14122,2.49E-03,8.95E-03
14123,2.49E-03,8.80E-03
14124,2.49E-03,8.64E-03
14125,2.49E-03,8.50E-03
14126,2.49E-03,8.35E-03
14127,2.48E-03,8.20E-03
14128,2.46E-03,8.06E-03
14129,2.46E-03,7.92E-03
14130,2.44E-03,7.78E-03
14131,2.42E-03,7.65E-03
14132,2.37E-03,7.51E-03
14133,2.36E-03,7.37E-03
14134,2.34E-03,7.22E-03
14135,2.32E-03,7.08E-03
14136,2.33E-03,6.94E-03
14137,2.36E-03,6.82E-03
14138,2.38E-03,6.74E-03
14139,2.32E-03,6.70E-03
14140,2.27E-03,6.68E-03
14141,2.28E-03,6.69E-03
14142,2.27E-03,6.72E-03
14143,2.27E-03,6.76E-03
14144,2.27E-03,6.81E-03
14145,2.27E-03,6.88E-03
14146,2.31E-03,6.96E-03
14147,2.35E-03,7.05E-03
14148,2.39E-03,7.16E-03
14149,2.42E-03,7.27E-03
14150,2.44E-03,7.40E-03
14151,2.45E-03,7.53E-03
14152,2.46E-03,7.67E-03
14153,2.47E-03,7.82E-03
14154,2.47E-03,7.96E-03
14155,2.45E-03,8.11E-03
14156,2.44E-03,8.25E-03
14157,2.40E-03,8.39E-03
14158,2.38E-03,8.53E-03
14159,2.34E-03,8.66E-03
14160,2.31E-03,8.78E-03
14161,2.27E-03,8.90E-03
14162,2.25E-03,9.02E-03
14163,2.25E-03,9.13E-03
14164,2.28E-03,9.23E-03
14165,2.39E-03,9.32E-03
14166,2.80E-03,9.40E-03
14167,2.86E-03,9.49E-03
14168,2.52E-03,9.58E-03
14169,2.44E-03,9.66E-03
14170,2.41E-03,9.74E-03
14171,2.40E-03,9.82E-03
14172,2.41E-03,9.89E-03
14173,2.42E-03,9.95E-03
14174,2.43E-03,1.00E-02
14175,2.46E-03,1.01E-02
14176,2.49E-03,1.01E-02
14177,2.50E-03,1.01E-02
14178,2.50E-03,1.02E-02
14179,2.48E-03,1.02E-02
14180,2.46E-03,1.02E-02
14181,2.43E-03,1.02E-02
14182,2.42E-03,1.02E-02
14183,2.39E-03,1.02E-02
14184,2.35E-03,1.02E-02
14185,2.32E-03,1.02E-02
14186,2.32E-03,1.02E-02
14187,2.31E-03,1.01E-02
14188,2.31E-03,1.01E-02
14189,2.30E-03,1.01E-02
14190,2.28E-03,1.00E-02
14191,2.29E-03,9.98E-03
14192,2.32E-03,9.93E-03
14193,2.34E-03,9.89E-03
14194,2.37E-03,9.84E-03
14195,2.43E-03,9.79E-03
14196,2.57E-03,9.74E-03
14197,2.65E-03,9.70E-03
14198,2.56E-03,9.67E-03
14199,2.55E-03,9.63E-03
14200,2.56E-03,9.59E-03
14201,2.56E-03,9.55E-03
14202,2.57E-03,9.50E-03
14203,2.56E-03,9.45E-03
14204,2.55E-03,9.40E-03
14205,2.54E-03,9.34E-03
14206,2.51E-03,9.27E-03
14207,2.48E-03,9.20E-03
14208,2.45E-03,9.12E-03
14209,2.42E-03,8.99E-03
14210,2.40E-03,8.91E-03
14211,2.43E-03,8.81E-03
14212,2.44E-03,8.68E-03
14213,2.47E-03,8.56E-03
14214,2.51E-03,8.43E-03
14215,2.55E-03,8.30E-03
14216,2.60E-03,8.17E-03
14217,2.64E-03,8.04E-03
14218,2.64E-03,7.90E-03
14219,2.63E-03,7.77E-03
14220,2.56E-03,7.63E-03
14221,2.41E-03,7.48E-03
14222,2.31E-03,7.33E-03
14223,2.29E-03,7.13E-03
14224,2.31E-03,7.01E-03
14225,2.32E-03,6.86E-03
14226,2.32E-03,6.67E-03
14227,2.31E-03,6.51E-03
14228,2.32E-03,6.35E-03
14229,2.36E-03,6.19E-03
14230,2.43E-03,6.04E-03
14231,2.49E-03,5.90E-03
14232,2.53E-03,5.80E-03
14233,2.54E-03,5.73E-03
14234,2.53E-03,5.72E-03
14235,2.51E-03,5.72E-03
14236,2.47E-03,5.89E-03
14237,2.43E-03,5.98E-03
14238,2.39E-03,6.13E-03
14239,2.37E-03,6.33E-03
14240,2.37E-03,6.57E-03
14241,2.37E-03,6.84E-03
14242,2.36E-03,7.12E-03
14243,2.36E-03,7.42E-03
14244,2.37E-03,7.72E-03
14245,2.38E-03,8.03E-03
14246,2.39E-03,8.34E-03
14247,2.41E-03,8.65E-03
14248,2.43E-03,8.95E-03
14249,2.43E-03,9.23E-03
14250,2.44E-03,9.52E-03
14251,2.46E-03,9.80E-03
14252,2.47E-03,1.01E-02
14253,2.48E-03,1.03E-02
14254,2.48E-03,1.06E-02
14255,2.49E-03,1.08E-02
14256,2.49E-03,1.10E-02
14257,2.49E-03,1.13E-02
14258,2.50E-03,1.15E-02
14259,2.50E-03,1.18E-02
14260,2.50E-03,1.20E-02
14261,2.50E-03,1.23E-02
14262,2.50E-03,1.24E-02
14263,2.51E-03,1.25E-02
14264,2.51E-03,1.26E-02
14265,2.52E-03,1.28E-02
14266,2.52E-03,1.29E-02
14267,2.53E-03,1.31E-02
14268,2.54E-03,1.32E-02
14269,2.54E-03,1.34E-02
14270,2.54E-03,1.34E-02
14271,2.54E-03,1.35E-02
14272,2.52E-03,1.35E-02
14273,2.49E-03,1.36E-02
14274,2.47E-03,1.37E-02
14275,2.47E-03,1.39E-02
14276,2.45E-03,1.40E-02
14277,2.47E-03,1.40E-02
14278,2.47E-03,1.41E-02
14279,2.47E-03,1.41E-02
14280,2.47E-03,1.41E-02
14281,2.48E-03,1.41E-02
14282,2.48E-03,1.40E-02
14283,2.48E-03,1.40E-02
14284,2.48E-03,1.39E-02
14285,2.49E-03,1.39E-02
14286,2.49E-03,1.38E-02
14287,2.49E-03,1.36E-02
14288,2.49E-03,1.34E-02
14289,2.47E-03,1.31E-02
14290,2.44E-03,1.29E-02
14291,2.43E-03,1.27E-02
14292,2.40E-03,1.24E-02
14293,2.37E-03,1.22E-02
14294,2.31E-03,1.21E-02
14295,2.25E-03,1.19E-02
14296,2.02E-03,1.18E-02
14297,1.80E-03,1.14E-02
14298,9.56E-04,1.16E-02
14299,2.39E-03,1.16E-02
14300,1.68E-03,9.40E-03
14301,2.04E-03,9.65E-03
14302,1.86E-03,1.16E-02
14303,8.13E-04,1.01E-02
14308,1.57E-03,5.03E-03
14309,2.16E-03,5.49E-03
14310,2.05E-03,5.45E-03
14311,1.57E-03,4.97E-03
14312,1.54E-03,4.53E-03
14313,2.09E-03,4.19E-03
14314,2.83E-03,3.95E-03
14315,3.07E-03,3.60E-03
14316,2.55E-03,3.14E-03
14317,2.28E-03,2.71E-03
14318,2.15E-03,4.82E-03
14319,2.87E-03,4.70E-03
14320,2.20E-03,3.72E-03
14321,2.08E-03,4.86E-03
14322,2.01E-03,4.21E-03
14323,2.59E-03,2.92E-03
14324,2.49E-03,3.29E-03
14325,2.25E-03,1.98E-03
14326,2.47E-03,2.47E-03
14327,2.44E-03,1.73E-03
14328,2.52E-03,5.46E-03
14329,2.24E-03,5.43E-03
14330,3.17E-03,4.90E-03
14331,2.63E-03,3.76E-03
14332,3.15E-03,4.29E-03
14333,2.52E-03,2.80E-03
14334,2.28E-03,3.34E-03
14335,3.18E-03,2.15E-03
14336,2.68E-03,5.56E-03
14337,3.23E-03,1.80E-03
14338,2.94E-03,1.88E-03
14339,2.74E-03,2.17E-03
14340,2.58E-03,2.59E-03
14341,2.49E-03,3.11E-03
14342,2.45E-03,3.66E-03
14343,2.78E-03,4.27E-03
14344,2.58E-03,5.54E-03
14345,1.71E-03,4.38E-03
14346,1.27E-03,5.01E-03
14347,1.54E-03,4.46E-03
14348,2.52E-03,6.17E-03
14349,2.94E-03,5.35E-03
14350,2.33E-03,4.57E-03
14351,2.19E-03,3.96E-03
14352,2.27E-03,3.44E-03
14353,2.40E-03,3.01E-03
14354,2.46E-03,2.54E-03
14355,2.41E-03,1.98E-03
14356,2.37E-03,1.40E-03
14357,2.25E-03,9.10E-04
14358,2.96E-03,9.05E-04
14359,3.36E-03,1.13E-03
14360,3.03E-03,1.52E-03
14361,2.75E-03,2.10E-03
14362,2.54E-03,2.82E-03
14363,2.40E-03,3.62E-03
14364,2.35E-03,4.42E-03
14365,2.42E-03,5.16E-03
14366,1.65E-03,5.63E-03
14367,2.07E-03,7.56E-03
14368,2.52E-03,6.55E-03
14369,2.88E-03,6.11E-03
14370,2.34E-03,6.00E-03
14371,2.23E-03,5.97E-03
14372,2.32E-03,5.99E-03
14373,2.49E-03,6.04E-03
14374,2.58E-03,6.09E-03
14375,2.50E-03,6.19E-03
14376,2.69E-03,5.74E-03
14377,2.81E-03,5.24E-03
14378,2.78E-03,4.78E-03
14379,2.60E-03,4.33E-03
14380,2.47E-03,3.88E-03
14381,2.60E-03,3.42E-03
14382,2.82E-03,3.03E-03
14383,2.99E-03,2.77E-03
14384,2.89E-03,2.63E-03
14385,2.72E-03,2.67E-03
14386,2.56E-03,2.83E-03
14387,2.46E-03,3.06E-03
14388,2.46E-03,3.35E-03
14389,2.27E-03,3.63E-03
14390,1.99E-03,3.94E-03
14391,1.98E-03,4.19E-03
14392,1.65E-03,4.60E-03
14393,1.57E-03,5.22E-03
14394,1.68E-03,6.01E-03
14395,1.78E-03,4.31E-03
14406,3.13E-03,8.32E-03
14407,3.04E-03,8.68E-03
14408,2.46E-03,8.47E-03
14409,1.57E-03,8.49E-03
14410,2.27E-03,8.76E-03
14411,2.04E-03,8.60E-03
14412,1.59E-03,8.35E-03
14413,1.57E-03,8.17E-03
14414,1.25E-03,5.64E-03
14415,1.61E-03,5.47E-03
14416,1.78E-03,5.61E-03
14417,1.31E-03,5.80E-03
14418,1.30E-03,5.94E-03
14419,1.42E-03,7.21E-03
14420,2.02E-03,7.17E-03
14421,2.36E-03,5.65E-03
14422,2.90E-03,5.63E-03
14423,2.09E-03,8.14E-03
14424,2.03E-03,7.85E-03
14425,3.24E-03,6.95E-03
14426,3.34E-03,6.58E-03
14427,2.05E-03,7.31E-03
14428,2.32E-03,6.95E-03
14429,2.57E-03,7.54E-03
14430,2.18E-03,7.95E-03
14431,2.05E-03,7.08E-03
14432,2.13E-03,7.74E-03
14433,2.64E-03,7.36E-03
14434,2.64E-03,7.78E-03
14435,2.77E-03,7.00E-03
14436,2.84E-03,7.38E-03
14437,2.69E-03,6.76E-03
14438,2.67E-03,6.61E-03
14439,2.77E-03,7.22E-03
14440,2.97E-03,6.82E-03
14441,2.86E-03,9.02E-03
14442,2.72E-03,8.85E-03
14443,2.23E-03,8.31E-03
14444,2.14E-03,8.47E-03
14445,2.31E-03,8.08E-03
14446,2.20E-03,8.03E-03
14447,2.34E-03,7.64E-03
14448,1.90E-03,9.55E-03
14449,2.25E-03,9.30E-03
14450,2.09E-03,9.67E-03
14451,1.91E-03,9.31E-03
14452,2.58E-03,8.26E-03
14453,2.77E-03,7.96E-03
14454,2.80E-03,6.49E-03
14455,2.72E-03,7.06E-03
14456,2.77E-03,6.73E-03
14457,2.22E-03,9.81E-03
14458,2.37E-03,9.58E-03
14459,2.34E-03,9.23E-03
14460,2.43E-03,9.39E-03
14461,2.28E-03,8.88E-03
14462,2.35E-03,9.04E-03
14463,2.31E-03,8.62E-03
14464,2.25E-03,8.75E-03
14465,2.43E-03,8.47E-03
14466,2.73E-03,7.89E-03
14467,2.65E-03,7.47E-03
14468,2.45E-03,9.00E-03
14469,2.66E-03,9.96E-03
14470,2.97E-03,1.02E-02
14471,2.64E-03,1.05E-02
14472,2.48E-03,1.08E-02
14473,2.21E-03,1.11E-02
14474,2.94E-03,6.40E-03
14475,2.84E-03,7.65E-03
14476,2.85E-03,6.39E-03
14477,2.80E-03,6.17E-03
14478,2.74E-03,6.28E-03
14479,3.43E-03,6.70E-03
14480,2.72E-03,7.40E-03
14481,2.94E-03,6.10E-03
14482,2.53E-03,6.62E-03
14483,2.40E-03,7.22E-03
14484,2.24E-03,6.61E-03
14485,2.16E-03,6.68E-03
14486,2.58E-03,1.60E-02
14487,2.41E-03,1.59E-02
14488,2.37E-03,1.57E-02
14489,2.38E-03,1.56E-02
14490,2.38E-03,1.54E-02
14491,2.38E-03,1.53E-02
14492,2.36E-03,1.53E-02
14493,2.32E-03,1.53E-02
14494,2.19E-03,1.54E-02
14495,2.07E-03,1.55E-02
14496,1.89E-03,1.53E-02
14497,2.20E-03,1.41E-02
14498,2.34E-03,1.39E-02
14499,2.38E-03,1.36E-02
14500,2.42E-03,1.34E-02
14501,2.47E-03,1.31E-02
14502,2.53E-03,1.28E-02
14503,2.70E-03,1.20E-02
14504,2.58E-03,1.24E-02
14505,2.20E-03,1.14E-02
14506,2.56E-03,1.16E-02
14507,2.54E-03,1.08E-02
14508,2.41E-03,1.11E-02
14509,2.49E-03,1.03E-02
14510,2.58E-03,1.05E-02
14511,2.37E-03,9.89E-03
14512,2.41E-03,1.01E-02
14513,2.39E-03,9.50E-03
14514,2.38E-03,9.70E-03
14515,2.33E-03,9.12E-03
14516,2.35E-03,9.30E-03
14517,2.41E-03,8.88E-03
14518,2.34E-03,8.97E-03
14519,2.56E-03,8.79E-03
14520,2.47E-03,8.83E-03
14521,2.64E-03,8.64E-03
14522,2.64E-03,8.74E-03
14523,2.33E-03,8.27E-03
14524,2.47E-03,8.49E-03
14525,1.09E-03,7.75E-03
14526,1.90E-03,7.96E-03
14527,2.87E-03,6.34E-03
14528,2.68E-03,6.98E-03
14529,2.76E-03,6.65E-03
14530,2.73E-03,7.73E-03
14531,2.67E-03,7.34E-03
14532,2.70E-03,8.42E-03
14533,2.77E-03,8.10E-03
14534,2.67E-03,9.11E-03
14535,2.56E-03,8.76E-03
14536,3.13E-03,9.84E-03
14537,2.98E-03,9.52E-03
14538,2.56E-03,1.05E-02
14539,2.76E-03,1.02E-02
14540,2.66E-03,1.12E-02
14541,2.55E-03,1.08E-02
14542,2.62E-03,1.18E-02
14543,2.79E-03,1.15E-02
14544,2.48E-03,1.24E-02
14545,2.56E-03,1.21E-02
14546,2.41E-03,1.30E-02
14547,2.44E-03,1.27E-02
14548,2.19E-03,1.36E-02
14549,2.36E-03,1.33E-02
14550,2.82E-03,1.43E-02
14551,2.69E-03,1.39E-02
14552,2.44E-03,1.44E-02
14553,2.45E-03,1.43E-02
14554,2.35E-03,1.46E-02
14555,2.40E-03,1.45E-02
14556,2.41E-03,1.48E-02
14557,2.37E-03,1.47E-02
14558,2.41E-03,1.49E-02
14559,2.40E-03,1.48E-02
14560,2.37E-03,1.51E-02
14561,2.38E-03,1.50E-02
14562,2.44E-03,1.51E-02
14563,2.93E-03,1.55E-02
14564,3.09E-03,1.58E-02
14565,2.89E-03,1.59E-02
14566,2.78E-03,1.60E-02
14567,2.68E-03,1.60E-02
14568,2.58E-03,1.60E-02
14569,2.52E-03,1.59E-02
14570,2.51E-03,1.56E-02
14571,2.52E-03,1.53E-02
14572,2.53E-03,1.50E-02
14573,2.54E-03,1.46E-02
14574,2.53E-03,1.44E-02
14575,2.54E-03,1.43E-02
14576,2.52E-03,1.41E-02
14577,2.52E-03,1.40E-02
14578,2.55E-03,1.38E-02
14579,2.56E-03,1.36E-02
14580,2.63E-03,1.32E-02
14581,2.76E-03,1.23E-02
14582,2.68E-03,1.28E-02
14583,3.01E-03,6.06E-03
14584,1.37E-03,1.16E-02
14585,1.59E-03,1.15E-02
14586,2.55E-03,1.18E-02
14587,2.03E-03,6.36E-03
14588,1.58E-03,7.19E-03
14589,2.13E-03,6.76E-03
14590,2.15E-03,6.09E-03
14591,2.43E-03,6.20E-03
14592,2.54E-03,6.19E-03
14593,3.31E-03,6.26E-03
14594,2.63E-03,6.21E-03
14595,2.97E-03,6.08E-03
14596,3.43E-03,6.18E-03
14597,2.74E-03,5.90E-03
14598,2.72E-03,5.98E-03
14599,3.25E-03,5.81E-03
14600,2.92E-03,5.84E-03
14601,1.40E-03,1.11E-02
14602,1.98E-03,7.23E-03
14603,1.76E-03,7.40E-03
14604,1.62E-03,7.55E-03
14605,1.59E-03,7.69E-03
14606,1.60E-03,7.83E-03
14607,1.60E-03,7.97E-03
14608,1.60E-03,8.10E-03
14609,1.63E-03,8.23E-03
14610,1.68E-03,8.36E-03
14611,1.76E-03,8.49E-03
14612,1.85E-03,8.61E-03
14613,1.75E-03,8.73E-03
14614,1.67E-03,8.86E-03
14615,1.82E-03,6.99E-03
14616,1.63E-03,6.87E-03
14617,1.71E-03,1.08E-02
14618,1.65E-03,1.15E-02
14619,2.31E-03,1.21E-02
14620,2.97E-03,1.28E-02
14621,2.78E-03,1.34E-02
14622,2.62E-03,1.40E-02
14623,2.55E-03,1.44E-02
14624,2.51E-03,1.47E-02
14625,2.50E-03,1.48E-02
14626,2.51E-03,1.47E-02
14627,2.55E-03,1.46E-02
14628,2.55E-03,1.45E-02
14629,2.56E-03,1.47E-02
14630,2.55E-03,1.52E-02
14631,2.51E-03,1.61E-02
14632,2.48E-03,1.70E-02
14633,2.48E-03,1.74E-02
14634,2.55E-03,1.74E-02
14635,2.64E-03,1.71E-02
14636,2.75E-03,1.69E-02
14637,2.90E-03,1.67E-02
14638,3.16E-03,1.68E-02
14639,2.87E-03,1.68E-02
14640,2.13E-03,1.70E-02
14641,2.22E-03,1.69E-02
14642,2.30E-03,1.66E-02
14643,2.35E-03,1.62E-02
14644,2.37E-03,1.59E-02
14645,2.36E-03,1.57E-02
14646,2.33E-03,1.57E-02
14647,2.26E-03,1.60E-02
14648,2.15E-03,1.64E-02
14649,2.08E-03,1.68E-02
14650,2.30E-03,1.66E-02
14651,2.74E-03,1.58E-02
14652,3.00E-03,1.51E-02
14653,2.31E-03,1.45E-02
14654,2.30E-03,1.42E-02
14655,2.35E-03,1.41E-02
14656,2.37E-03,1.42E-02
14657,2.39E-03,1.41E-02
14658,2.46E-03,1.36E-02
14659,2.53E-03,1.30E-02
14660,2.56E-03,1.25E-02
14661,2.45E-03,1.20E-02
14662,2.38E-03,1.16E-02
14663,2.38E-03,1.13E-02
14664,2.49E-03,1.11E-02
14665,2.50E-03,1.08E-02
14666,2.45E-03,1.06E-02
14667,2.39E-03,1.04E-02
14668,2.36E-03,1.02E-02
14669,2.37E-03,9.99E-03
14670,2.38E-03,9.76E-03
14671,2.39E-03,9.53E-03
14672,2.37E-03,9.30E-03
14673,2.39E-03,9.13E-03
14674,2.43E-03,9.04E-03
14675,2.49E-03,9.08E-03
14676,2.55E-03,9.29E-03
14677,2.57E-03,9.63E-03
14678,2.54E-03,9.96E-03
14679,2.44E-03,1.01E-02
14680,2.30E-03,9.78E-03
14681,2.31E-03,9.04E-03
14682,2.88E-03,5.72E-03
14683,3.60E-03,5.87E-03
14684,3.03E-03,6.09E-03
14685,2.82E-03,6.34E-03
14686,2.69E-03,6.61E-03
14687,2.63E-03,6.91E-03
14688,2.63E-03,7.23E-03
14689,2.63E-03,7.57E-03
14690,2.61E-03,7.90E-03
14691,2.58E-03,8.23E-03
14692,2.56E-03,8.55E-03
14693,2.64E-03,8.90E-03
14694,2.76E-03,9.23E-03
14695,2.76E-03,9.54E-03
14696,2.66E-03,9.84E-03
14697,2.62E-03,1.01E-02
14698,2.61E-03,1.05E-02
14699,2.66E-03,1.08E-02
14700,2.67E-03,1.10E-02
14701,2.63E-03,1.13E-02
14702,2.55E-03,1.15E-02
14703,2.48E-03,1.18E-02
14704,2.44E-03,1.21E-02
14705,2.41E-03,1.24E-02
14706,2.41E-03,1.27E-02
14707,2.49E-03,1.29E-02
14708,2.56E-03,1.32E-02
14709,2.61E-03,1.33E-02
14710,2.57E-03,1.34E-02
14711,2.44E-03,1.35E-02
14712,2.43E-03,1.37E-02
14713,2.41E-03,1.38E-02
14714,2.42E-03,1.40E-02
14715,2.44E-03,1.41E-02
14716,2.45E-03,1.41E-02
14717,2.46E-03,1.42E-02
14718,2.46E-03,1.42E-02
14719,2.50E-03,1.43E-02
14720,2.29E-03,1.44E-02
14721,2.35E-03,1.46E-02
14722,2.51E-03,1.47E-02
14723,3.04E-03,1.48E-02
14724,2.93E-03,1.49E-02
14725,2.80E-03,1.50E-02
14726,2.69E-03,1.50E-02
14727,2.59E-03,1.49E-02
14728,2.55E-03,1.48E-02
14729,2.53E-03,1.47E-02
14730,2.52E-03,1.46E-02
14731,2.52E-03,1.45E-02
14732,2.53E-03,1.43E-02
14733,2.53E-03,1.41E-02
14734,2.53E-03,1.38E-02
14735,2.52E-03,1.36E-02
14736,2.52E-03,1.34E-02
14737,2.55E-03,1.32E-02
14738,2.56E-03,1.29E-02
14739,2.60E-03,1.26E-02
14740,2.63E-03,1.23E-02
14741,2.61E-03,1.20E-02
14742,2.68E-03,1.18E-02
14743,2.22E-03,1.15E-02
14744,1.78E-03,1.09E-02
14745,1.87E-03,1.02E-02
14746,2.48E-03,1.16E-02
14747,2.04E-03,7.96E-03
14748,2.15E-03,7.21E-03
14749,1.95E-03,6.71E-03
14750,1.81E-03,6.36E-03
14751,1.57E-03,5.96E-03
14752,1.53E-03,5.62E-03
14753,1.65E-03,5.33E-03
14754,2.11E-03,5.70E-03
14755,2.37E-03,5.75E-03
14756,2.48E-03,5.85E-03
14757,2.60E-03,5.86E-03
14758,2.70E-03,5.84E-03
14759,2.76E-03,5.82E-03
14760,2.64E-03,5.76E-03
14761,2.53E-03,5.71E-03
14762,2.50E-03,5.67E-03
14763,2.65E-03,5.63E-03
14764,2.11E-03,5.56E-03
14765,1.67E-03,5.60E-03
14766,1.05E-03,5.65E-03
14767,8.58E-04,5.73E-03
14768,9.96E-04,5.84E-03
14769,1.38E-03,5.97E-03
14770,1.86E-03,6.12E-03
14771,2.30E-03,6.27E-03
14772,2.63E-03,6.42E-03
14773,2.90E-03,6.58E-03
14774,2.10E-03,6.75E-03
14775,1.38E-03,6.90E-03
14776,1.85E-03,7.03E-03
14777,1.90E-03,7.20E-03
14778,1.67E-03,7.37E-03
14779,1.62E-03,7.52E-03
14780,1.62E-03,7.67E-03
14781,1.64E-03,7.80E-03
14782,1.65E-03,7.94E-03
14783,1.64E-03,8.07E-03
14784,1.65E-03,8.20E-03
14785,1.69E-03,8.32E-03
14786,1.77E-03,8.44E-03
14787,1.85E-03,8.55E-03
14788,2.06E-03,8.66E-03
14789,2.34E-03,8.76E-03
14790,3.39E-03,8.89E-03
14791,3.90E-03,8.97E-03
14792,3.54E-03,9.06E-03
14793,3.10E-03,9.14E-03
14794,2.64E-03,9.21E-03
14795,2.22E-03,9.28E-03
14796,1.89E-03,9.35E-03
14797,1.63E-03,9.41E-03
14798,1.45E-03,9.46E-03
14799,1.29E-03,9.50E-03
14800,1.05E-03,9.55E-03
14801,6.96E-04,9.62E-03
14803,2.45E-03,7.62E-03
14804,2.21E-03,7.79E-03
14805,1.71E-03,8.03E-03
14806,1.91E-03,7.82E-03
14807,1.49E-03,7.15E-03
14808,2.33E-03,7.39E-03
14809,1.50E-03,6.88E-03
14810,2.66E-03,7.23E-03
14811,2.09E-03,7.05E-03
14812,2.72E-03,7.58E-03
14813,1.50E-03,6.81E-03
14814,1.57E-03,8.16E-03
14815,2.67E-03,7.97E-03
14816,1.86E-03,7.29E-03
14817,2.47E-03,7.64E-03
14818,2.24E-03,8.32E-03
14819,2.25E-03,7.37E-03
14820,1.92E-03,6.90E-03
14821,1.89E-03,8.49E-03
14822,1.40E-03,7.44E-03
14823,1.94E-03,6.50E-03
14824,1.80E-03,6.47E-03
14825,1.85E-03,6.48E-03
14826,2.17E-03,6.50E-03
14827,2.75E-03,6.69E-03
14828,2.55E-03,6.89E-03
14829,1.64E-03,6.99E-03
14830,1.69E-03,7.58E-03
14831,1.86E-03,8.23E-03
14832,1.84E-03,7.61E-03
14833,2.08E-03,7.73E-03
14834,2.27E-03,7.91E-03
14835,2.17E-03,8.08E-03
14836,1.98E-03,8.21E-03
14837,1.93E-03,8.36E-03
14838,1.99E-03,8.56E-03
14839,1.98E-03,8.71E-03
14840,1.96E-03,8.84E-03
14841,1.51E-03,8.64E-03
14842,2.02E-03,8.34E-03
14843,2.78E-03,8.09E-03
14844,2.42E-03,7.79E-03
14845,2.17E-03,7.43E-03
14846,2.05E-03,7.01E-03
14847,2.15E-03,6.60E-03
14875,2.48E-03,3.78E-02
14876,2.31E-03,4.37E-02
14877,3.09E-03,3.72E-02
14878,2.69E-03,1.81E-02
14879,3.03E-03,2.35E-02
14880,2.79E-03,1.64E-02
14881,3.14E-03,3.74E-02
14882,2.94E-03,3.76E-02
14883,2.65E-03,3.80E-02
14884,3.59E-03,5.29E-02
14885,3.57E-03,4.67E-02
14886,3.26E-03,5.24E-02
14887,3.28E-03,8.42E-03
14888,3.57E-03,8.63E-03
14889,3.98E-03,8.48E-03
14890,1.40E-03,9.13E-03
14891,1.83E-03,9.19E-03
14892,1.68E-03,9.08E-03
14893,1.40E-03,9.04E-03
14894,1.41E-03,9.04E-03
14895,2.23E-03,1.70E-02
14896,2.89E-03,1.75E-02
14897,1.71E-03,1.58E-02
14898,2.52E-03,1.83E-02
14899,2.85E-03,2.72E-02
14900,2.32E-03,2.64E-02
14901,2.35E-03,1.84E-02
14902,2.36E-03,4.78E-02
14903,2.59E-03,4.97E-02
14904,3.47E-03,6.31E-03
14905,3.76E-03,6.07E-03
14906,2.03E-03,5.90E-02
14907,3.13E-03,5.48E-02
14908,3.09E-03,5.04E-02
14909,2.86E-03,6.19E-02
14910,3.23E-03,6.74E-02
14911,3.70E-03,5.66E-02
14912,4.69E-03,6.02E-02
14913,3.91E-03,6.32E-02
14914,3.70E-03,5.99E-03
14915,3.71E-03,5.84E-03
14916,3.77E-03,5.61E-03
14917,2.74E-03,1.17E-02
14918,2.01E-03,3.98E-02
14919,2.86E-03,3.80E-02
14920,3.51E-03,3.70E-02
14921,3.46E-03,3.02E-02
14922,3.09E-03,3.14E-02
14923,1.49E-03,5.68E-02
14924,1.44E-03,5.42E-02
14925,1.49E-03,5.10E-02
14926,1.69E-03,8.59E-02
14927,1.66E-03,8.45E-02
14928,1.70E-03,7.99E-02
14929,2.14E-03,8.43E-02
14930,2.53E-03,8.71E-02
14931,2.44E-03,9.08E-02
14932,1.72E-03,1.47E-02
14933,2.35E-03,1.49E-02
14934,2.64E-03,5.66E-03
14935,2.57E-03,5.39E-03
14936,1.61E-03,5.39E-03
14937,1.71E-03,5.58E-03
14938,1.95E-03,3.94E-02
14939,1.90E-03,4.42E-02
14940,2.14E-03,4.22E-02
14941,2.99E-03,1.66E-02
14942,2.91E-03,1.04E-02
14943,2.71E-03,6.67E-03
14944,2.60E-03,1.21E-02
14945,2.85E-03,5.54E-03
14946,2.71E-03,5.91E-03
14947,2.83E-03,5.70E-03
14948,3.14E-03,8.25E-03
14949,1.53E-03,8.98E-02
14950,2.36E-03,8.96E-02
14951,2.79E-03,7.60E-02
14952,2.97E-03,7.17E-02
14953,2.45E-03,8.72E-02
14954,1.78E-03,9.04E-02
14955,2.70E-03,3.87E-02
14956,3.06E-03,3.64E-02
14957,2.72E-03,3.11E-02
14958,2.79E-03,3.81E-02
14959,2.91E-03,4.54E-02
14960,3.05E-03,8.23E-02
14961,2.43E-03,7.95E-02
14962,2.66E-03,9.43E-02
14963,2.32E-03,0.1004
14964,2.36E-03,3.73E-02
14965,2.18E-03,3.69E-02
14966,2.89E-03,3.94E-02
14967,2.62E-03,3.91E-02
14968,2.59E-03,1.07E-02
14969,2.60E-03,1.06E-02
14970,2.23E-03,3.94E-02
14971,2.17E-03,4.95E-02
14972,2.28E-03,4.96E-02
14973,2.45E-03,8.80E-03
14974,2.83E-03,8.66E-03
14975,2.38E-03,5.81E-02
14976,2.54E-03,5.91E-02
14977,2.55E-03,5.78E-02
14978,2.56E-03,5.70E-02
14979,2.60E-03,3.83E-02
14980,2.38E-03,8.20E-02
14981,2.97E-03,4.52E-02
14982,2.63E-03,7.74E-02
14983,2.59E-03,3.22E-02
14984,3.14E-03,3.87E-02
14985,1.55E-03,3.29E-02
14986,2.32E-03,3.79E-02
14987,2.13E-03,4.07E-02
14988,2.90E-03,3.27E-02
14989,3.23E-03,4.66E-02
14990,2.44E-03,2.55E-02
14991,2.35E-03,2.35E-02
14992,2.75E-03,3.03E-02
14993,1.92E-03,4.88E-02
14994,2.54E-03,2.83E-02
14995,2.44E-03,4.58E-02
14996,2.35E-03,4.11E-02
14997,3.10E-03,4.54E-02
14998,3.11E-03,4.66E-02
14999,2.70E-03,4.65E-02
15000,3.10E-03,4.53E-02
15001,2.30E-03,4.80E-02
15002,2.44E-03,5.37E-02
15003,2.43E-03,5.86E-02
15004,2.98E-03,5.82E-02
15005,2.57E-03,6.82E-02
15006,3.07E-03,6.64E-02
15007,1.65E-03,6.29E-02
15008,2.22E-03,6.94E-02
15009,2.54E-03,1.96E-02
15010,2.47E-03,1.80E-02
15011,2.54E-03,4.16E-02
15012,2.38E-03,4.88E-02
15013,3.00E-03,5.39E-02
15014,2.82E-03,5.42E-02
15015,2.25E-03,6.45E-02
15016,1.97E-03,5.70E-02
15017,2.13E-03,5.78E-02
15018,2.66E-03,2.51E-02
15019,2.61E-03,2.23E-02
15020,2.69E-03,3.16E-02
15021,2.78E-03,2.81E-02
15022,2.90E-03,4.04E-02
15023,2.68E-03,3.55E-02
15024,2.62E-03,5.42E-02
15025,2.77E-03,5.37E-02
15026,2.59E-03,5.44E-02
15027,2.73E-03,5.40E-02
15028,2.43E-03,5.51E-02
15029,3.27E-03,5.72E-02
15030,3.14E-03,6.08E-02
15031,3.01E-03,5.62E-02
15032,3.06E-03,6.38E-02
15033,2.84E-03,7.53E-02
15034,3.18E-03,7.50E-02
15035,2.68E-03,3.51E-02
15036,3.08E-03,5.31E-02
15037,2.89E-03,6.67E-02
15038,2.30E-03,5.88E-02
15039,2.22E-03,2.33E-02
15040,2.61E-03,1.35E-02
15041,2.71E-03,5.48E-02
15042,2.94E-03,7.41E-02
15043,3.02E-03,7.48E-02
15044,2.63E-03,2.84E-02
15045,2.90E-03,4.86E-02
15046,2.13E-03,5.06E-02
15047,2.21E-03,5.11E-02
15048,2.35E-03,5.12E-02
15049,2.32E-03,4.02E-02
15050,2.52E-03,4.65E-02
15051,2.21E-03,3.46E-02
15052,3.07E-03,8.24E-02
15053,2.97E-03,8.30E-02
15054,3.03E-03,6.72E-02
15055,2.46E-03,5.87E-02
15056,2.58E-03,1.10E-02
15057,2.41E-03,1.70E-02
15058,2.67E-03,1.79E-02
15059,2.63E-03,1.53E-02
15060,2.73E-03,2.46E-02
15061,2.70E-03,2.10E-02
15062,2.82E-03,3.37E-02
15063,2.75E-03,2.89E-02
15064,3.25E-03,4.42E-02
15065,3.07E-03,3.92E-02
15066,3.15E-03,4.91E-02
15067,2.85E-03,5.04E-02
15068,2.96E-03,6.09E-02
15069,2.82E-03,6.12E-02
15070,2.85E-03,6.12E-02
15071,2.70E-03,6.14E-02
15072,2.73E-03,6.13E-02
15073,2.66E-03,6.16E-02
15074,2.68E-03,6.16E-02
15075,2.84E-03,6.05E-02
15076,2.69E-03,6.11E-02
15077,3.70E-03,6.20E-02
15078,3.43E-03,6.01E-02
15079,3.16E-03,6.83E-02
15080,3.35E-03,6.52E-02
15081,3.08E-03,7.14E-02
15082,2.92E-03,7.54E-02
15083,2.26E-03,2.14E-02
15084,2.30E-03,4.38E-02
15085,2.41E-03,4.38E-02
15086,3.43E-03,6.05E-02
15087,2.99E-03,6.10E-02
15088,3.11E-03,8.11E-02
15089,2.93E-03,6.70E-02
15090,2.72E-03,7.44E-02
15091,2.65E-03,4.13E-02
15092,2.20E-03,5.08E-02
15093,2.16E-03,4.37E-02
15094,2.09E-03,3.83E-02
15095,2.36E-03,4.44E-02
15096,2.37E-03,2.77E-02
15097,2.82E-03,8.29E-02
15098,2.80E-03,5.70E-02
15099,2.69E-03,7.67E-03
15100,2.54E-03,1.05E-02
15101,2.72E-03,5.18E-03
15102,3.14E-03,5.37E-02
15103,2.38E-03,1.63E-02
15104,2.70E-03,1.12E-02
15105,2.69E-03,9.12E-03
15106,2.78E-03,1.75E-02
15107,2.75E-03,1.40E-02
15108,2.88E-03,2.65E-02
15109,2.83E-03,2.17E-02
15110,3.03E-03,3.66E-02
15111,2.97E-03,3.16E-02
15112,3.03E-03,4.13E-02
15113,2.64E-03,4.32E-02
15114,1.68E-03,6.25E-02
15115,2.76E-03,6.88E-02
15116,2.33E-03,6.81E-02
15117,2.91E-03,6.82E-02
15118,2.88E-03,6.86E-02
15119,2.75E-03,6.87E-02
15120,2.85E-03,6.84E-02
15121,2.69E-03,6.89E-02
15122,2.71E-03,6.88E-02
15123,2.71E-03,6.86E-02
15124,2.69E-03,6.89E-02
15125,2.91E-03,6.82E-02
15126,2.75E-03,6.83E-02
15127,3.09E-03,7.06E-02
15128,3.09E-03,6.88E-02
15129,3.10E-03,7.57E-02
15130,3.11E-03,7.27E-02
15131,3.11E-03,7.88E-02
15132,2.72E-03,7.27E-02
15133,2.53E-03,6.55E-02
15134,2.77E-03,5.66E-03
15135,2.49E-03,3.45E-02
15136,3.23E-03,9.02E-02
15137,3.28E-03,8.86E-02
15138,2.84E-03,9.02E-02
15139,1.91E-03,4.36E-02
15140,2.48E-03,3.65E-02
15141,2.42E-03,3.66E-02
15142,2.02E-03,3.40E-02
15143,2.37E-03,9.95E-03
15144,2.75E-03,2.15E-02
15145,2.32E-03,8.33E-02
15146,2.28E-03,8.16E-02
15147,1.79E-03,5.13E-02
15148,2.10E-03,4.94E-02
15149,2.39E-03,8.17E-02
15150,3.02E-03,8.04E-02
15151,3.26E-03,7.86E-02
15152,2.84E-03,5.03E-03
15153,2.49E-03,4.55E-03
15154,2.02E-03,6.45E-02
15155,2.28E-03,6.29E-02
15156,2.41E-03,1.60E-02
15157,2.73E-03,6.19E-03
15158,2.75E-03,5.64E-03
15159,2.78E-03,1.06E-02
15160,2.73E-03,7.79E-03
15161,2.87E-03,1.90E-02
15162,2.86E-03,1.45E-02
15163,2.98E-03,2.91E-02
15164,2.99E-03,2.40E-02
15165,2.93E-03,3.38E-02
15166,2.36E-03,3.63E-02
15167,2.98E-03,7.02E-02
15168,2.72E-03,7.61E-02
15169,2.76E-03,7.53E-02
15170,2.81E-03,7.59E-02
15171,2.82E-03,7.59E-02
15172,2.75E-03,7.63E-02
15173,2.81E-03,7.60E-02
15174,2.68E-03,7.66E-02
15175,2.69E-03,7.65E-02
15176,2.71E-03,7.61E-02
15177,2.70E-03,7.64E-02
15178,2.84E-03,7.61E-02
15179,2.77E-03,7.59E-02
15180,2.99E-03,7.79E-02
15181,2.93E-03,7.67E-02
15182,2.98E-03,8.27E-02
15183,2.99E-03,8.01E-02
15184,2.95E-03,8.57E-02
15185,2.41E-03,8.94E-02
15186,2.52E-03,9.00E-02
15187,2.44E-03,8.80E-02
15188,2.37E-03,8.86E-02
15189,2.59E-03,8.79E-02
15190,2.10E-03,8.61E-02
15191,1.43E-03,4.46E-02
15192,2.33E-03,3.66E-02
15193,1.87E-03,7.18E-02
15194,2.57E-03,6.81E-02
15195,2.04E-03,7.42E-02
15196,2.54E-03,2.57E-02
15197,2.64E-03,2.90E-02
15198,2.43E-03,3.84E-02
15199,2.91E-03,4.36E-03
15200,2.95E-03,1.04E-02
15201,2.86E-03,1.01E-02
15202,2.07E-03,2.88E-02
15203,2.41E-03,5.70E-02
15204,1.53E-03,9.45E-02
15205,1.43E-03,9.43E-02
15206,2.83E-03,7.08E-02
15207,2.26E-03,7.53E-02
15208,2.12E-03,3.75E-02
15209,1.92E-03,6.91E-02
15210,2.46E-03,9.66E-02
15211,2.75E-03,9.71E-02
15212,2.98E-03,6.22E-02
15213,2.50E-03,2.96E-02
15214,2.58E-03,2.95E-02
15215,3.32E-03,2.21E-02
15216,2.50E-03,3.28E-02
15217,3.04E-03,5.92E-03
15218,3.24E-03,1.44E-02
15219,2.95E-03,3.60E-03
15220,2.99E-03,9.62E-03
15221,2.95E-03,1.01E-02
15222,2.79E-03,7.94E-03
15223,2.80E-03,9.29E-03
15224,2.76E-03,6.25E-03
15225,2.76E-03,6.52E-03
15226,2.92E-03,1.20E-02
15227,2.83E-03,8.25E-03
15228,3.01E-03,2.19E-02
15229,3.01E-03,1.68E-02
15230,2.93E-03,2.69E-02
15231,2.48E-03,2.94E-02
15232,2.21E-03,5.92E-02
15233,2.85E-03,6.55E-02
15234,2.52E-03,4.45E-02
15235,2.32E-03,4.83E-02
15236,2.86E-03,8.29E-02
15237,3.26E-03,8.21E-02
15238,2.78E-03,8.34E-02
15239,2.82E-03,8.32E-02
15240,2.69E-03,8.42E-02
15241,2.75E-03,8.38E-02
15242,2.66E-03,8.46E-02
15243,2.67E-03,8.45E-02
15244,2.70E-03,8.41E-02
15245,2.68E-03,8.44E-02
15246,2.80E-03,8.37E-02
15247,2.74E-03,8.38E-02
15248,2.89E-03,8.52E-02
15249,2.84E-03,8.41E-02
15250,2.86E-03,8.94E-02
15251,2.88E-03,8.70E-02
15252,2.98E-03,9.51E-02
15253,2.83E-03,9.21E-02
15254,2.37E-03,9.57E-02
15255,2.38E-03,9.62E-02
15256,2.28E-03,9.46E-02
15257,2.29E-03,9.52E-02
15258,2.16E-03,9.47E-02
15259,1.98E-03,9.30E-02
15260,1.94E-03,9.43E-02
15261,2.07E-03,9.36E-02
15262,2.15E-03,8.08E-02
15263,2.29E-03,8.72E-02
15264,2.07E-03,9.08E-02
15265,2.14E-03,4.00E-02
15266,2.50E-03,6.47E-02
15267,3.03E-03,9.15E-03
15268,2.70E-03,8.19E-02
15269,2.72E-03,7.51E-02
15270,2.12E-03,9.93E-02
15271,3.10E-03,5.60E-02
15272,3.00E-03,1.63E-02
15273,2.89E-03,1.65E-02
15274,1.66E-03,0.10378
15275,2.40E-03,0.10189
15276,1.59E-03,0.10411
15277,2.60E-03,3.00E-02
15278,2.70E-03,5.97E-02
15279,3.04E-03,1.57E-02
15280,3.08E-03,1.53E-02
15281,2.40E-03,8.86E-02
15282,2.28E-03,9.46E-02
15283,2.61E-03,2.32E-02
15284,2.59E-03,2.34E-02
15285,3.21E-03,3.91E-02
15286,3.61E-03,4.98E-02
15287,3.88E-03,2.27E-02
15288,3.69E-03,3.08E-02
15289,3.64E-03,6.60E-03
15290,3.69E-03,1.42E-02
15291,3.11E-03,8.39E-03
15292,3.13E-03,2.65E-03
15293,3.02E-03,1.60E-02
15294,2.81E-03,1.44E-02
15295,2.86E-03,1.59E-02
15296,2.74E-03,9.61E-03
15297,2.76E-03,1.22E-02
15298,2.92E-03,7.79E-03
15299,2.81E-03,7.64E-03
15300,3.13E-03,1.51E-02
15301,2.98E-03,1.07E-02
15302,2.58E-03,2.26E-02
15303,3.54E-03,2.02E-02
15304,2.63E-03,2.30E-02
15305,2.37E-03,7.55E-02
15306,2.41E-03,8.20E-02
15307,2.52E-03,6.45E-02
15308,2.44E-03,6.98E-02
15309,2.24E-03,5.45E-02
15310,2.49E-03,5.96E-02
15311,2.16E-03,4.55E-02
15312,2.06E-03,5.00E-02
15313,2.42E-03,3.79E-02
15314,2.24E-03,4.15E-02
15315,2.97E-03,9.04E-02
15316,2.77E-03,9.00E-02
15317,3.05E-03,8.26E-02
15318,3.32E-03,9.01E-02
15319,3.03E-03,9.05E-02
15320,2.74E-03,9.10E-02
15321,2.87E-03,9.02E-02
15322,2.88E-03,9.04E-02
15323,2.76E-03,9.11E-02
15324,2.80E-03,9.06E-02
15325,2.66E-03,9.23E-02
15326,2.71E-03,9.17E-02
15327,2.65E-03,9.31E-02
15328,2.64E-03,9.28E-02
15329,2.67E-03,9.25E-02
15330,2.66E-03,9.29E-02
15331,2.75E-03,9.15E-02
15332,2.72E-03,9.20E-02
15333,2.83E-03,9.24E-02
15334,2.78E-03,9.16E-02
15335,2.74E-03,9.61E-02
15336,2.80E-03,9.40E-02
15337,2.69E-03,9.88E-02
15338,2.29E-03,0.10307
15339,2.16E-03,0.10387
15340,2.31E-03,0.10167
15341,2.32E-03,0.10231
15342,2.21E-03,0.1005
15343,2.27E-03,0.10098
15344,2.03E-03,9.95E-02
15345,2.08E-03,0.10009
15346,1.96E-03,9.96E-02
15347,1.98E-03,9.93E-02
15348,2.12E-03,9.95E-02
15349,2.07E-03,9.96E-02
15350,2.38E-03,9.86E-02
15351,2.53E-03,3.14E-02
15352,2.50E-03,3.42E-02
15353,3.25E-03,8.35E-02
15354,3.29E-03,5.37E-02
15355,3.17E-03,1.49E-02
15356,3.15E-03,2.30E-02
15357,3.07E-03,2.25E-02
15358,3.08E-03,2.35E-02
15359,2.32E-03,0.10789
15360,2.04E-03,0.1095
15361,1.52E-03,0.10583
15362,2.39E-03,0.10209
15363,2.39E-03,8.21E-02
15364,2.39E-03,8.92E-02
15365,2.06E-03,0.10675
15366,1.48E-03,0.1095
15367,2.70E-03,1.81E-02
15368,2.96E-03,8.37E-02
15369,2.97E-03,8.54E-02
15370,2.72E-03,8.40E-02
15371,3.10E-03,8.36E-02
15372,4.06E-03,3.87E-02
15373,3.86E-03,4.65E-02
15374,3.59E-03,2.24E-02
15375,3.69E-03,3.02E-02
15376,3.48E-03,7.13E-03
15377,3.60E-03,1.46E-02
15378,3.28E-03,7.61E-03
15379,3.35E-03,1.62E-03
15380,3.35E-03,1.44E-02
15381,3.07E-03,2.18E-02
15382,3.12E-03,2.15E-02
15383,3.03E-03,2.17E-02
15384,3.04E-03,2.19E-02
15385,2.80E-03,2.17E-02
15386,2.89E-03,2.32E-02
15387,2.73E-03,1.67E-02
15388,2.78E-03,1.95E-02
15389,2.90E-03,1.09E-02
15390,2.80E-03,1.36E-02
15391,3.28E-03,1.10E-02
15392,3.03E-03,9.61E-03
15393,3.56E-03,1.70E-02
15394,3.87E-03,1.42E-02
15395,2.85E-03,1.72E-02
15396,2.41E-03,6.92E-02
15397,2.40E-03,7.56E-02
15398,2.46E-03,5.81E-02
15399,2.44E-03,6.34E-02
15400,2.33E-03,4.87E-02
15401,2.40E-03,5.33E-02
15402,2.32E-03,3.94E-02
15403,2.30E-03,4.39E-02
15404,2.54E-03,3.18E-02
15405,2.43E-03,3.55E-02
15406,1.84E-03,9.30E-02
15407,2.57E-03,9.54E-02
15408,1.80E-03,9.52E-02
15409,2.74E-03,9.71E-02
15410,2.60E-03,9.66E-02
15411,3.09E-03,9.71E-02
15412,2.84E-03,9.73E-02
15413,2.77E-03,9.82E-02
15414,2.91E-03,9.78E-02
15415,2.79E-03,9.81E-02
15416,2.81E-03,9.82E-02
15417,2.76E-03,9.90E-02
15418,2.78E-03,9.84E-02
15419,2.67E-03,0.10082
15420,2.71E-03,9.99E-02
15421,2.63E-03,0.10208
15422,2.63E-03,0.10165
15423,2.64E-03,0.10145
15424,2.65E-03,0.102
15425,2.70E-03,9.97E-02
15426,2.70E-03,0.10055
15427,2.75E-03,9.97E-02
15428,2.74E-03,9.93E-02
15429,2.65E-03,0.10309
15430,2.68E-03,0.10098
15431,2.53E-03,0.1056
15432,2.19E-03,0.10887
15433,1.93E-03,0.1099
15434,2.05E-03,0.10972
15435,2.26E-03,0.10674
15436,2.23E-03,0.10783
15437,2.21E-03,0.10505
15438,2.26E-03,0.10578
15439,2.12E-03,0.10432
15440,2.16E-03,0.10449
15441,2.10E-03,0.10428
15442,2.09E-03,0.10426
15443,2.20E-03,0.10509
15444,2.14E-03,0.10464
15445,2.48E-03,0.10545
15446,2.58E-03,9.80E-02
15447,1.44E-03,0.11182
15448,2.29E-03,0.11143
15449,2.63E-03,2.82E-02
15450,2.90E-03,8.95E-02
15451,3.31E-03,8.66E-02
15452,2.93E-03,8.54E-02
15453,2.76E-03,8.45E-02
15454,2.50E-03,8.37E-02
15455,3.15E-03,7.56E-02
15456,2.60E-03,5.72E-02
15457,3.16E-03,2.10E-02
15458,2.62E-03,0.10735
15459,3.02E-03,2.54E-02
15460,3.35E-03,7.62E-02
15461,3.01E-03,5.16E-02
15462,3.04E-03,2.80E-02
15463,3.02E-03,2.83E-02
15464,3.43E-03,2.98E-02
15465,3.14E-03,2.83E-02
15466,3.35E-03,3.10E-02
15467,2.81E-03,1.49E-02
15468,1.74E-03,0.1167
15469,2.55E-03,7.87E-02
15470,2.39E-03,7.86E-02
15471,2.15E-03,7.84E-02
15472,2.94E-03,8.00E-02
15473,2.73E-03,7.93E-02
15474,3.56E-03,8.02E-02
15475,3.47E-03,8.08E-02
15476,3.17E-03,7.81E-02
15477,3.22E-03,7.90E-02
15478,3.29E-03,7.71E-02
15479,3.58E-03,3.77E-02
15480,3.65E-03,4.52E-02
15481,3.47E-03,2.23E-02
15482,3.52E-03,2.99E-02
15483,3.39E-03,7.69E-03
15484,3.46E-03,1.49E-02
15485,3.48E-03,6.84E-03
15486,3.37E-03,1.06E-03
15487,3.15E-03,2.04E-02
15488,3.43E-03,1.36E-02
15489,3.13E-03,7.94E-02
15490,2.84E-03,7.92E-02
15491,2.75E-03,7.86E-02
15492,2.67E-03,7.78E-02
15493,2.62E-03,7.68E-02
15494,2.58E-03,7.56E-02
15495,2.53E-03,7.43E-02
15496,2.48E-03,7.29E-02
15497,2.43E-03,7.15E-02
15498,2.24E-03,7.01E-02
15499,2.01E-03,6.94E-02
15500,2.26E-03,7.29E-02
15501,1.80E-03,7.17E-02
15502,3.54E-03,6.77E-02
15503,3.04E-03,2.74E-02
15504,3.04E-03,2.78E-02
15505,3.10E-03,2.83E-02
15506,2.96E-03,2.76E-02
15507,2.77E-03,2.92E-02
15508,2.84E-03,3.05E-02
15509,2.70E-03,2.46E-02
15510,2.75E-03,2.71E-02
15511,2.89E-03,1.83E-02
15512,2.78E-03,2.16E-02
15513,3.16E-03,1.33E-02
15514,3.04E-03,1.52E-02
15515,3.21E-03,1.40E-02
15516,3.32E-03,1.32E-02
15517,3.01E-03,1.48E-02
15518,2.15E-03,0.11025
15519,2.47E-03,9.14E-02
15520,2.33E-03,0.10039
15521,2.43E-03,7.52E-02
15522,2.43E-03,8.28E-02
15523,2.45E-03,6.23E-02
15524,2.43E-03,6.85E-02
15525,2.43E-03,5.15E-02
15526,2.46E-03,5.66E-02
15527,2.41E-03,4.22E-02
15528,2.42E-03,4.68E-02
15529,2.41E-03,3.33E-02
15530,2.40E-03,3.76E-02
15531,2.58E-03,2.61E-02
15532,2.47E-03,2.95E-02
15533,3.10E-03,2.00E-02
15534,2.74E-03,2.32E-02
15535,1.71E-03,1.42E-02
15536,2.50E-03,7.60E-02
15537,2.44E-03,7.43E-02
15538,2.57E-03,7.95E-02
15539,2.53E-03,7.77E-02
15540,2.67E-03,8.24E-02
15541,2.63E-03,8.10E-02
15542,2.87E-03,8.41E-02
15543,2.75E-03,8.34E-02
15544,3.08E-03,8.62E-02
15545,3.20E-03,8.49E-02
15546,2.75E-03,8.99E-02
15547,2.77E-03,8.84E-02
15548,2.73E-03,9.34E-02
15549,2.83E-03,9.13E-02
15550,2.33E-03,9.80E-02
15551,2.56E-03,9.54E-02
15552,2.35E-03,0.10228
15553,2.25E-03,0.10041
15554,2.65E-03,0.10403
15555,2.57E-03,0.10325
15556,2.79E-03,0.10504
15557,2.76E-03,0.10444
15558,2.78E-03,0.10542
15559,2.83E-03,0.10524
15560,2.74E-03,0.1061
15561,2.77E-03,0.10575
15562,2.71E-03,0.10747
15563,2.71E-03,0.1066
15564,2.64E-03,0.10981
15565,2.70E-03,0.10862
15566,2.63E-03,0.11161
15567,2.61E-03,0.11089
15568,2.64E-03,0.11111
15569,2.62E-03,0.11169
15570,2.68E-03,0.10855
15571,2.66E-03,0.10996
15572,2.70E-03,0.10733
15573,2.70E-03,0.10753
15574,2.59E-03,0.11004
15575,2.62E-03,0.10821
15576,2.32E-03,0.11418
15577,2.48E-03,0.11224
15578,2.09E-03,0.11585
15579,2.20E-03,0.11553
15580,2.17E-03,0.11365
15581,2.13E-03,0.11497
15582,2.26E-03,0.11064
15583,2.24E-03,0.11214
15584,2.26E-03,0.10861
15585,2.28E-03,0.10941
15586,2.19E-03,0.10832
15587,2.21E-03,0.10831
15588,2.19E-03,0.10868
15589,2.19E-03,0.10845
15590,2.26E-03,0.10994
15591,2.20E-03,0.10911
15592,2.02E-03,0.11295
15593,2.21E-03,0.11146
15594,1.88E-03,0.1179
15595,1.82E-03,0.1151
15596,2.15E-03,0.11967
15597,1.75E-03,0.12107
15598,1.59E-03,0.12714
15599,1.74E-03,0.12403
15600,3.48E-03,1.93E-02
15601,2.82E-03,6.92E-02
15602,3.69E-03,6.89E-02
15603,2.91E-03,6.73E-02
15604,2.76E-03,6.61E-02
15605,2.72E-03,6.49E-02
15606,2.68E-03,6.37E-02
15607,2.64E-03,6.25E-02
15608,2.60E-03,6.13E-02
15609,2.56E-03,6.01E-02
15610,3.69E-03,6.92E-02
15611,2.97E-03,3.54E-02
15612,2.94E-03,3.57E-02
15613,2.29E-03,0.1247
15614,3.12E-03,3.38E-02
15615,2.98E-03,3.59E-02
15616,2.77E-03,3.38E-02
15617,2.93E-03,3.23E-02
15618,2.74E-03,2.04E-02
15619,2.43E-03,2.41E-02
15620,2.54E-03,2.24E-02
15621,2.01E-03,4.39E-02
15622,2.65E-03,4.70E-02
15623,2.18E-03,4.69E-02
15624,2.08E-03,4.49E-02
15625,2.05E-03,5.76E-02
15626,2.94E-03,5.64E-02
15627,2.96E-03,5.58E-02
15628,2.50E-03,4.86E-02
15629,2.34E-03,4.93E-02
15630,2.41E-03,5.01E-02
15631,2.51E-03,5.10E-02
15632,2.54E-03,5.20E-02
15633,2.59E-03,5.30E-02
15634,2.64E-03,5.40E-02
15635,2.76E-03,5.49E-02
15636,2.59E-03,5.88E-02
15637,2.61E-03,6.08E-02
15638,2.62E-03,5.98E-02
15639,2.69E-03,6.29E-02
15640,2.66E-03,6.19E-02
15641,2.80E-03,6.50E-02
15642,2.73E-03,6.40E-02
15643,2.43E-03,6.63E-02
15644,2.73E-03,6.58E-02
15645,2.33E-03,6.78E-02
15646,2.40E-03,6.72E-02
15647,2.49E-03,6.98E-02
15648,2.41E-03,6.87E-02
15649,2.58E-03,7.19E-02
15650,2.55E-03,7.09E-02
15651,2.65E-03,7.36E-02
15652,2.60E-03,7.28E-02
15653,2.71E-03,7.45E-02
15654,2.68E-03,7.42E-02
15655,2.54E-03,7.45E-02
15656,2.61E-03,7.43E-02
15657,2.56E-03,7.44E-02
15658,2.56E-03,7.46E-02
15659,2.85E-03,7.49E-02
15660,2.74E-03,7.46E-02
15661,3.04E-03,7.42E-02
15662,3.00E-03,7.48E-02
15663,3.24E-03,7.26E-02
15664,3.21E-03,7.37E-02
15665,3.37E-03,7.10E-02
15666,2.81E-03,5.11E-02
15667,3.40E-03,3.66E-02
15668,3.45E-03,4.41E-02
15669,3.31E-03,2.23E-02
15670,3.36E-03,2.94E-02
15671,3.24E-03,8.24E-03
15672,3.26E-03,1.52E-02
15673,3.43E-03,5.56E-03
15674,3.32E-03,1.29E-03
15675,3.73E-03,1.25E-02
15676,2.89E-03,3.46E-02
15677,3.03E-03,3.40E-02
15678,3.07E-03,3.49E-02
15679,2.99E-03,3.34E-02
15680,2.63E-03,3.63E-02
15681,2.67E-03,3.75E-02
15682,2.67E-03,3.26E-02
15683,2.69E-03,3.47E-02
15684,2.79E-03,2.72E-02
15685,2.78E-03,3.01E-02
15686,3.01E-03,2.16E-02
15687,2.95E-03,2.42E-02
15688,3.12E-03,1.89E-02
15689,3.12E-03,1.99E-02
15690,3.00E-03,1.81E-02
15691,1.88E-03,0.14334
15692,1.51E-03,0.14961
15693,1.82E-03,0.13161
15694,2.39E-03,0.1041
15695,2.63E-03,0.11722
15696,2.41E-03,8.35E-02
15697,2.39E-03,9.28E-02
15698,2.45E-03,6.77E-02
15699,2.42E-03,7.52E-02
15700,2.47E-03,5.50E-02
15701,2.47E-03,6.10E-02
15702,2.46E-03,4.47E-02
15703,2.47E-03,4.96E-02
15704,2.45E-03,3.56E-02
15705,2.46E-03,4.01E-02
15706,2.48E-03,2.74E-02
15707,2.46E-03,3.14E-02
15708,2.60E-03,2.09E-02
15709,2.53E-03,2.39E-02
15710,2.73E-03,1.61E-02
15711,2.74E-03,1.83E-02
15712,2.35E-03,1.48E-02
15713,2.62E-03,1.43E-02
15714,2.24E-03,3.70E-02
15715,2.66E-03,3.87E-02
15716,2.19E-03,3.97E-02
15717,2.45E-03,4.05E-02
15718,2.89E-03,3.98E-02
15719,3.17E-03,4.15E-02
15720,3.06E-03,4.08E-02
15721,2.95E-03,4.40E-02
15722,3.12E-03,4.27E-02
15723,2.28E-03,4.58E-02
15724,3.07E-03,4.76E-02
15725,2.12E-03,4.75E-02
15726,2.42E-03,4.94E-02
15727,2.79E-03,4.84E-02
15728,2.62E-03,5.00E-02
15729,2.48E-03,5.17E-02
15730,2.41E-03,5.07E-02
15731,2.53E-03,5.37E-02
15732,2.49E-03,5.27E-02
15733,2.62E-03,5.56E-02
15734,2.56E-03,5.47E-02
15735,2.89E-03,5.71E-02
15736,2.66E-03,5.64E-02
15737,1.94E-03,5.88E-02
15738,2.24E-03,5.80E-02
15739,2.48E-03,6.02E-02
15740,2.54E-03,5.93E-02
15741,2.58E-03,6.26E-02
15742,2.54E-03,6.13E-02
15743,2.66E-03,6.54E-02
15744,2.61E-03,6.39E-02
15745,2.80E-03,6.82E-02
15746,2.74E-03,6.68E-02
15747,3.23E-03,7.15E-02
15748,2.94E-03,6.96E-02
15749,2.39E-03,7.53E-02
15750,2.29E-03,7.34E-02
15751,2.50E-03,7.91E-02
15752,2.46E-03,7.71E-02
15753,2.55E-03,8.34E-02
15754,2.53E-03,8.12E-02
15755,2.64E-03,8.71E-02
15756,2.59E-03,8.54E-02
15757,2.76E-03,8.96E-02
15758,2.72E-03,8.84E-02
15759,2.80E-03,9.20E-02
15760,2.86E-03,9.08E-02
15761,2.73E-03,9.56E-02
15762,2.78E-03,9.36E-02
15763,2.65E-03,9.96E-02
15764,2.68E-03,9.76E-02
15765,2.48E-03,0.10411
15766,2.52E-03,0.10189
15767,2.44E-03,0.10836
15768,2.41E-03,0.1064
15769,2.61E-03,0.11093
15770,2.52E-03,0.10986
15771,2.69E-03,0.11248
15772,2.67E-03,0.11182
15773,2.72E-03,0.11326
15774,2.70E-03,0.1129
15775,2.71E-03,0.11444
15776,2.71E-03,0.11377
15777,2.69E-03,0.11645
15778,2.70E-03,0.11533
15779,2.62E-03,0.11925
15780,2.65E-03,0.11778
15781,2.60E-03,0.12158
15782,2.59E-03,0.12061
15783,2.62E-03,0.1216
15784,2.61E-03,0.12202
15785,2.65E-03,0.11842
15786,2.64E-03,0.12033
15787,2.65E-03,0.11557
15788,2.66E-03,0.11658
15789,2.54E-03,0.11724
15790,2.59E-03,0.11587
15791,2.38E-03,0.12076
15792,2.43E-03,0.11909
15793,2.23E-03,0.12091
15794,2.26E-03,0.12143
15795,2.21E-03,0.11732
15796,2.21E-03,0.11938
15797,2.28E-03,0.1133
15798,2.26E-03,0.11517
15799,2.32E-03,0.1113
15800,2.31E-03,0.11195
15801,2.26E-03,0.11171
15802,2.30E-03,0.11132
15803,2.24E-03,0.11252
15804,2.25E-03,0.11216
15805,2.24E-03,0.11371
15806,2.24E-03,0.11293
15807,2.09E-03,0.11705
15808,2.22E-03,0.11497
15809,1.98E-03,0.12356
15810,2.03E-03,0.11989
15811,1.97E-03,0.13036
15812,1.98E-03,0.1266
15813,2.09E-03,0.13594
15814,1.89E-03,0.13306
15815,2.29E-03,0.13889
15816,2.41E-03,3.62E-02
15817,2.28E-03,3.61E-02
15818,2.85E-03,4.26E-02
15819,2.96E-03,4.32E-02
15820,2.97E-03,2.47E-02
15821,3.80E-03,5.85E-03
15822,2.85E-03,5.75E-03
15823,2.09E-03,0.1585
15824,2.11E-03,0.16522
15825,2.28E-03,0.1233
15826,2.28E-03,0.14527
15827,2.88E-03,6.62E-03
15828,2.25E-03,6.76E-03
15829,3.48E-03,6.27E-03
15830,3.41E-03,6.43E-03
15831,3.28E-03,6.07E-03
15832,3.13E-03,6.16E-03
15833,2.83E-03,5.83E-03
15834,2.97E-03,5.97E-03
15835,2.13E-03,1.04E-02
15836,2.30E-03,1.05E-02
15837,2.56E-03,1.05E-02
15838,2.00E-03,1.04E-02
15839,2.62E-03,1.06E-02
15840,2.54E-03,1.08E-02
15841,2.55E-03,1.09E-02
15842,2.58E-03,1.10E-02
15843,2.65E-03,1.12E-02
15844,2.62E-03,1.11E-02
15845,2.09E-03,3.81E-02
15846,1.76E-03,5.66E-03
15847,1.91E-03,4.38E-02
15848,1.77E-03,4.50E-02
15849,2.30E-03,4.51E-02
15850,2.82E-03,1.15E-02
15851,2.70E-03,1.13E-02
15852,2.65E-03,1.20E-02
15853,2.65E-03,1.23E-02
15854,2.63E-03,1.25E-02
15855,2.61E-03,1.29E-02
15856,2.61E-03,1.32E-02
15857,2.59E-03,1.36E-02
15858,2.57E-03,1.41E-02
15859,2.56E-03,1.46E-02
15860,2.51E-03,1.51E-02
15861,2.42E-03,1.56E-02
15862,2.32E-03,1.61E-02
15863,1.78E-03,1.58E-02
15864,2.15E-03,1.66E-02
15865,2.13E-03,1.66E-02
15866,2.63E-03,3.24E-02
15867,2.23E-03,3.13E-02
15868,2.84E-03,3.48E-02
15869,2.96E-03,3.36E-02
15870,2.54E-03,3.56E-02
15871,2.71E-03,3.80E-02
15872,2.59E-03,3.77E-02
15873,2.26E-03,3.93E-02
15874,1.77E-03,3.84E-02
15875,2.98E-03,4.11E-02
15876,3.08E-03,4.02E-02
15877,2.20E-03,4.22E-02
15878,2.63E-03,4.20E-02
15879,2.66E-03,4.44E-02
15880,2.14E-03,4.31E-02
15881,2.58E-03,4.58E-02
15882,3.06E-03,4.54E-02
15883,2.03E-03,4.60E-02
15884,2.12E-03,4.56E-02
15885,2.24E-03,4.71E-02
15886,2.07E-03,4.68E-02
15887,2.44E-03,4.85E-02
15888,2.50E-03,4.78E-02
15889,2.53E-03,5.04E-02
15890,2.51E-03,4.94E-02
15891,2.63E-03,5.23E-02
15892,2.60E-03,5.14E-02
15893,2.70E-03,5.41E-02
15894,2.67E-03,5.33E-02
15895,2.63E-03,5.56E-02
15896,2.65E-03,5.48E-02
15897,2.59E-03,5.72E-02
15898,2.57E-03,5.64E-02
15899,2.61E-03,5.90E-02
15900,2.61E-03,5.81E-02
15901,2.67E-03,6.09E-02
15902,2.65E-03,6.00E-02
15903,2.65E-03,6.25E-02
15904,2.70E-03,6.18E-02
15905,2.49E-03,6.38E-02
15906,2.56E-03,6.32E-02
15907,2.44E-03,6.53E-02
15908,2.43E-03,6.45E-02
15909,2.48E-03,6.68E-02
15910,2.45E-03,6.60E-02
15911,2.57E-03,6.84E-02
15912,2.53E-03,6.76E-02
15913,2.62E-03,6.96E-02
15914,2.59E-03,6.90E-02
15915,2.60E-03,7.01E-02
15916,2.63E-03,7.00E-02
15917,2.52E-03,7.01E-02
15918,2.55E-03,7.02E-02
15919,2.60E-03,7.02E-02
15920,2.56E-03,7.02E-02
15921,2.77E-03,7.00E-02
15922,2.69E-03,7.02E-02
15923,2.96E-03,6.92E-02
15924,2.82E-03,6.97E-02
15925,3.20E-03,6.72E-02
15926,3.05E-03,6.84E-02
15927,3.38E-03,6.54E-02
15928,3.51E-03,5.01E-02
15929,3.25E-03,3.56E-02
15930,3.38E-03,4.24E-02
15931,3.11E-03,2.22E-02
15932,3.17E-03,2.89E-02
15933,3.09E-03,8.95E-03
15934,3.11E-03,1.55E-02
15935,3.27E-03,3.98E-03
15936,3.16E-03,2.47E-03
15937,3.45E-03,1.60E-02
15938,3.66E-03,1.04E-02
15939,3.52E-03,2.69E-02
15940,3.23E-03,2.15E-02
15941,3.35E-03,3.16E-02
15942,2.59E-03,3.81E-02
15943,3.33E-03,3.76E-02
15944,2.75E-03,3.98E-02
15945,2.97E-03,3.83E-02
15946,2.85E-03,4.13E-02
15947,2.98E-03,4.02E-02
15948,3.21E-03,4.21E-02
15949,2.84E-03,3.97E-02
15950,2.88E-03,3.92E-02
15951,2.72E-03,4.17E-02
15952,2.58E-03,4.30E-02
15953,2.57E-03,4.40E-02
15954,2.61E-03,4.08E-02
15955,2.63E-03,4.19E-02
15956,2.76E-03,3.73E-02
15957,2.68E-03,3.92E-02
15958,2.88E-03,3.24E-02
15959,2.86E-03,3.48E-02
15960,3.03E-03,2.92E-02
15961,2.95E-03,3.05E-02
15962,3.09E-03,2.75E-02
15963,2.43E-03,9.53E-02
15964,2.34E-03,0.10816
15965,2.44E-03,7.47E-02
15966,2.43E-03,8.41E-02
15967,2.47E-03,5.95E-02
15968,2.45E-03,6.67E-02
15969,2.47E-03,4.76E-02
15970,2.47E-03,5.32E-02
15971,2.49E-03,3.78E-02
15972,2.48E-03,4.25E-02
15973,2.49E-03,2.93E-02
15974,2.50E-03,3.34E-02
15975,2.52E-03,2.19E-02
15976,2.49E-03,2.54E-02
15977,2.62E-03,1.63E-02
15978,2.54E-03,1.88E-02
15979,2.66E-03,1.35E-02
15980,2.65E-03,1.44E-02
15981,2.63E-03,1.65E-02
15982,2.66E-03,1.41E-02
15983,2.33E-03,7.80E-03
15984,2.43E-03,7.63E-03
15985,2.49E-03,7.47E-03
15986,2.55E-03,7.31E-03
15987,2.89E-03,6.98E-03
15988,2.63E-03,7.15E-03
15989,2.07E-03,6.65E-03
15990,2.06E-03,6.83E-03
15991,2.92E-03,6.48E-03
15992,3.38E-03,2.84E-02
15993,2.81E-03,2.12E-02
15994,2.85E-03,5.52E-03
15995,3.61E-03,5.59E-03
15996,1.76E-03,5.50E-03
15997,1.86E-03,5.46E-03
15998,1.96E-03,7.08E-03
15999,2.14E-03,7.29E-03
16000,2.25E-03,7.49E-03
16001,2.28E-03,7.67E-03
16002,2.30E-03,7.84E-03
16003,2.32E-03,8.00E-03
16004,2.35E-03,8.16E-03
16005,2.37E-03,8.30E-03
16006,2.41E-03,8.45E-03
16007,2.44E-03,8.60E-03
16008,2.47E-03,8.75E-03
16009,2.50E-03,8.90E-03
16010,2.51E-03,9.05E-03
16011,2.52E-03,9.18E-03
16012,2.55E-03,9.30E-03
16013,2.54E-03,9.41E-03
16014,2.54E-03,9.52E-03
16015,2.55E-03,9.64E-03
16016,2.56E-03,9.76E-03
16017,2.56E-03,9.88E-03
16018,2.57E-03,1.01E-02
16019,2.56E-03,9.98E-03
16020,2.57E-03,1.02E-02
16021,2.57E-03,1.02E-02
16022,2.73E-03,1.03E-02
16023,2.61E-03,1.03E-02
16024,2.18E-03,1.03E-02
16025,2.65E-03,1.03E-02
16026,2.30E-03,1.03E-02
16027,2.36E-03,1.03E-02
16028,1.75E-03,1.02E-02
16029,1.75E-03,1.02E-02
16030,2.39E-03,1.04E-02
16031,2.15E-03,1.03E-02
16032,2.54E-03,1.05E-02
16033,2.48E-03,1.04E-02
16034,2.57E-03,1.05E-02
16035,2.41E-03,1.08E-02
16036,2.20E-03,1.12E-02
16037,2.28E-03,1.10E-02
16038,2.55E-03,1.16E-02
16039,2.52E-03,1.14E-02
16040,2.58E-03,1.22E-02
16041,2.58E-03,1.19E-02
16042,2.56E-03,1.30E-02
16043,2.57E-03,1.26E-02
16044,2.50E-03,1.39E-02
16045,2.54E-03,1.34E-02
16046,2.41E-03,1.49E-02
16047,2.47E-03,1.44E-02
16048,2.27E-03,1.54E-02
16049,3.04E-03,1.74E-02
16050,2.73E-03,1.82E-02
16051,2.65E-03,1.90E-02
16052,2.59E-03,1.99E-02
16053,2.56E-03,2.09E-02
16054,2.52E-03,2.19E-02
16055,2.49E-03,2.30E-02
16056,2.47E-03,2.42E-02
16057,2.43E-03,2.54E-02
16058,2.54E-03,2.80E-02
16059,2.31E-03,2.67E-02
16060,2.68E-03,2.97E-02
16061,2.50E-03,3.07E-02
16062,2.71E-03,3.13E-02
16063,2.98E-03,3.19E-02
16064,2.72E-03,3.35E-02
16065,2.97E-03,3.25E-02
16066,2.30E-03,3.62E-02
16067,2.96E-03,3.48E-02
16068,2.16E-03,3.84E-02
16069,2.03E-03,3.75E-02
16070,2.74E-03,3.96E-02
16071,2.59E-03,3.91E-02
16072,2.67E-03,4.06E-02
16073,2.69E-03,4.02E-02
16074,2.92E-03,4.14E-02
16075,2.68E-03,4.09E-02
16076,2.85E-03,4.33E-02
16077,2.88E-03,4.24E-02
16078,2.66E-03,4.59E-02
16079,2.89E-03,4.45E-02
16080,2.47E-03,4.83E-02
16081,2.49E-03,4.72E-02
16082,2.65E-03,4.99E-02
16083,2.53E-03,4.92E-02
16084,2.64E-03,5.12E-02
16085,2.64E-03,5.06E-02
16086,2.64E-03,5.21E-02
16087,2.53E-03,5.18E-02
16088,2.51E-03,5.36E-02
16089,2.62E-03,5.28E-02
16090,2.54E-03,5.54E-02
16091,2.50E-03,5.45E-02
16092,2.58E-03,5.69E-02
16093,2.56E-03,5.62E-02
16094,2.50E-03,5.81E-02
16095,2.59E-03,5.76E-02
16096,2.36E-03,5.93E-02
16097,2.38E-03,5.85E-02
16098,2.49E-03,6.10E-02
16099,2.37E-03,6.01E-02
16100,2.55E-03,6.36E-02
16101,2.50E-03,6.22E-02
16102,2.64E-03,6.68E-02
16103,2.61E-03,6.52E-02
16104,2.72E-03,7.02E-02
16105,2.67E-03,6.85E-02
16106,2.69E-03,7.36E-02
16107,2.77E-03,7.19E-02
16108,2.48E-03,7.76E-02
16109,2.56E-03,7.54E-02
16110,2.49E-03,8.21E-02
16111,2.46E-03,7.98E-02
16112,2.56E-03,8.72E-02
16113,2.54E-03,8.47E-02
16114,2.62E-03,9.18E-02
16115,2.60E-03,8.97E-02
16116,2.69E-03,9.54E-02
16117,2.67E-03,9.37E-02
16118,2.73E-03,9.85E-02
16119,2.71E-03,9.69E-02
16120,2.66E-03,0.10236
16121,2.69E-03,0.10032
16122,2.60E-03,0.1065
16123,2.62E-03,0.10446
16124,2.48E-03,0.11051
16125,2.53E-03,0.10854
16126,2.48E-03,0.1142
16127,2.47E-03,0.11239
16128,2.55E-03,0.11742
16129,2.50E-03,0.11592
16130,2.62E-03,0.11967
16131,2.59E-03,0.11867
16132,2.67E-03,0.12158
16133,2.64E-03,0.12061
16134,2.68E-03,0.12367
16135,2.66E-03,0.12255
16136,2.66E-03,0.12629
16137,2.66E-03,0.12493
16138,2.59E-03,0.12914
16139,2.63E-03,0.12771
16140,2.59E-03,0.13185
16141,2.56E-03,0.13058
16142,2.61E-03,0.13271
16143,2.58E-03,0.13263
16144,2.61E-03,0.12975
16145,2.60E-03,0.1317
16146,2.58E-03,0.12524
16147,2.60E-03,0.12727
16148,2.53E-03,0.12525
16149,2.53E-03,0.12454
16150,2.40E-03,0.12686
16151,2.43E-03,0.1264
16152,2.29E-03,0.12433
16153,2.31E-03,0.12618
16154,2.27E-03,0.11935
16155,2.26E-03,0.12195
16156,2.33E-03,0.11488
16157,2.30E-03,0.11689
16158,2.34E-03,0.11324
16159,2.33E-03,0.11361
16160,2.34E-03,0.11456
16161,2.34E-03,0.11367
16162,2.29E-03,0.11575
16163,2.32E-03,0.11536
16164,2.26E-03,0.11619
16165,2.28E-03,0.11589
16166,2.20E-03,0.11959
16167,2.24E-03,0.11727
16168,2.10E-03,0.12701
16169,2.12E-03,0.12303
16170,2.04E-03,0.13622
16171,2.09E-03,0.13144
16172,2.23E-03,0.14586
16173,2.10E-03,0.14051
16174,2.16E-03,0.15285
16175,2.84E-03,5.62E-03
16176,3.33E-03,5.70E-03
16177,3.32E-03,6.05E-03
16178,3.04E-03,5.99E-03
16179,2.49E-03,4.43E-02
16180,2.66E-03,4.47E-02
16181,2.26E-03,4.89E-02
16182,3.52E-03,3.64E-02
16183,2.22E-03,0.17243
16184,2.98E-03,6.18E-03
16185,3.17E-03,5.98E-03
16186,2.85E-03,7.99E-03
16187,3.25E-03,8.15E-03
16188,2.80E-03,7.90E-03
16189,3.16E-03,8.09E-03
16190,2.19E-03,4.43E-02
16191,2.29E-03,3.86E-02
16192,2.45E-03,7.71E-03
16193,2.45E-03,7.85E-03
16194,2.58E-03,7.39E-03
16195,2.51E-03,7.55E-03
16196,2.98E-03,7.05E-03
16197,2.67E-03,7.22E-03
16198,2.85E-03,6.73E-03
16199,3.09E-03,6.89E-03
16200,3.06E-03,6.46E-03
16201,3.06E-03,6.59E-03
16202,3.01E-03,6.25E-03
16203,3.05E-03,6.34E-03
16204,2.98E-03,6.16E-03
16205,2.68E-03,5.95E-03
16206,2.59E-03,5.79E-03
16207,2.82E-03,5.94E-03
16208,2.99E-03,5.99E-03
16209,2.61E-03,6.15E-03
16210,2.55E-03,6.30E-03
16211,2.54E-03,6.46E-03
16212,2.56E-03,6.63E-03
16213,2.79E-03,7.00E-03
16214,2.62E-03,6.80E-03
16215,2.41E-03,7.38E-03
16216,2.70E-03,7.18E-03
16217,2.32E-03,7.73E-03
16218,2.36E-03,7.56E-03
16219,2.36E-03,8.05E-03
16220,2.34E-03,7.89E-03
16221,2.40E-03,8.36E-03
16222,2.38E-03,8.21E-03
16223,2.45E-03,8.67E-03
16224,2.43E-03,8.52E-03
16225,2.51E-03,8.98E-03
16226,2.47E-03,8.83E-03
16227,2.52E-03,9.25E-03
16228,2.53E-03,9.13E-03
16229,2.54E-03,9.48E-03
16230,2.54E-03,9.37E-03
16231,2.54E-03,9.70E-03
16232,2.54E-03,9.59E-03
16233,2.54E-03,9.92E-03
16234,2.55E-03,9.81E-03
16235,2.56E-03,1.01E-02
16236,2.54E-03,1.00E-02
16237,2.59E-03,1.03E-02
16238,2.58E-03,1.02E-02
16239,2.72E-03,1.04E-02
16240,2.64E-03,1.03E-02
16241,2.15E-03,1.06E-02
16242,2.60E-03,1.05E-02
16243,2.91E-03,1.08E-02
16244,2.48E-03,1.07E-02
16245,2.66E-03,1.11E-02
16246,2.92E-03,1.09E-02
16247,2.60E-03,1.14E-02
16248,2.63E-03,1.12E-02
16249,2.66E-03,1.17E-02
16250,2.63E-03,1.15E-02
16251,3.21E-03,1.20E-02
16252,2.76E-03,1.18E-02
16253,2.83E-03,1.25E-02
16254,3.13E-03,1.22E-02
16255,2.68E-03,1.31E-02
16256,2.75E-03,1.28E-02
16257,2.62E-03,1.38E-02
16258,2.66E-03,1.35E-02
16259,2.59E-03,1.47E-02
16260,2.61E-03,1.43E-02
16261,2.53E-03,1.57E-02
16262,2.57E-03,1.52E-02
16263,2.50E-03,1.67E-02
16264,2.49E-03,1.62E-02
16265,2.94E-03,1.78E-02
16266,2.78E-03,1.73E-02
16267,2.65E-03,1.94E-02
16268,2.74E-03,1.86E-02
16269,2.55E-03,2.11E-02
16270,2.58E-03,2.02E-02
16271,2.47E-03,2.31E-02
16272,2.51E-03,2.21E-02
16273,2.45E-03,2.52E-02
16274,2.45E-03,2.41E-02
16275,2.44E-03,2.71E-02
16276,2.49E-03,2.62E-02
16277,2.30E-03,2.90E-02
16278,2.26E-03,2.83E-02
16279,2.61E-03,3.00E-02
16280,2.47E-03,2.96E-02
16281,2.18E-03,3.04E-02
16282,2.80E-03,3.03E-02
16283,2.46E-03,3.15E-02
16284,1.89E-03,3.08E-02
16285,2.59E-03,3.33E-02
16286,2.62E-03,3.24E-02
16287,2.47E-03,3.49E-02
16288,2.51E-03,3.42E-02
16289,2.38E-03,3.59E-02
16290,2.34E-03,3.55E-02
16291,2.48E-03,3.66E-02
16292,2.42E-03,3.63E-02
16293,2.26E-03,3.72E-02
16294,2.36E-03,3.68E-02
16295,2.38E-03,3.84E-02
16296,2.23E-03,3.75E-02
16297,2.64E-03,3.97E-02
16298,2.60E-03,3.90E-02
16299,2.44E-03,4.11E-02
16300,2.50E-03,4.03E-02
16301,2.53E-03,4.27E-02
16302,2.44E-03,4.18E-02
16303,2.50E-03,4.39E-02
16304,2.58E-03,4.34E-02
16305,2.34E-03,4.47E-02
16306,2.38E-03,4.43E-02
16307,2.39E-03,4.58E-02
16308,2.36E-03,4.53E-02
16309,2.46E-03,4.71E-02
16310,2.44E-03,4.63E-02
16311,2.55E-03,4.88E-02
16312,2.52E-03,4.79E-02
16313,2.59E-03,5.07E-02
16314,2.57E-03,4.97E-02
16315,2.59E-03,5.24E-02
16316,2.60E-03,5.15E-02
16317,2.58E-03,5.39E-02
16318,2.58E-03,5.31E-02
16319,2.57E-03,5.56E-02
16320,2.57E-03,5.48E-02
16321,2.58E-03,5.72E-02
16322,2.58E-03,5.64E-02
16323,2.62E-03,5.88E-02
16324,2.61E-03,5.80E-02
16325,2.60E-03,6.02E-02
16326,2.63E-03,5.95E-02
16327,2.50E-03,6.14E-02
16328,2.55E-03,6.08E-02
16329,2.46E-03,6.27E-02
16330,2.48E-03,6.20E-02
16331,2.47E-03,6.39E-02
16332,2.45E-03,6.33E-02
16333,2.54E-03,6.50E-02
16334,2.49E-03,6.44E-02
16335,2.59E-03,6.58E-02
16336,2.57E-03,6.55E-02
16337,2.59E-03,6.62E-02
16338,2.60E-03,6.61E-02
16339,2.54E-03,6.62E-02
16340,2.57E-03,6.63E-02
16341,2.58E-03,6.60E-02
16342,2.55E-03,6.61E-02
16343,2.70E-03,6.56E-02
16344,2.66E-03,6.59E-02
16345,2.83E-03,6.45E-02
16346,2.79E-03,6.51E-02
16347,3.04E-03,6.22E-02
16348,2.92E-03,6.35E-02
16349,3.63E-03,5.77E-02
16350,3.26E-03,6.03E-02
16351,3.97E-03,4.75E-02
16352,3.94E-03,5.35E-02
16353,3.07E-03,3.45E-02
16354,3.20E-03,4.07E-02
16355,2.93E-03,2.21E-02
16356,2.99E-03,2.83E-02
16357,2.91E-03,9.88E-03
16358,2.92E-03,1.59E-02
16359,3.00E-03,2.31E-03
16360,2.94E-03,3.92E-03
16361,3.05E-03,1.28E-02
16362,3.07E-03,7.69E-03
16363,3.11E-03,2.28E-02
16364,3.17E-03,1.79E-02
16365,2.92E-03,2.64E-02
16366,2.87E-03,4.46E-02
16367,2.66E-03,4.50E-02
16368,2.94E-03,4.50E-02
16369,2.98E-03,4.47E-02
16370,2.75E-03,4.64E-02
16371,2.81E-03,4.54E-02
16372,2.71E-03,4.85E-02
16373,2.73E-03,4.76E-02
16374,2.79E-03,4.94E-02
16375,2.82E-03,4.70E-02
16376,3.01E-03,4.88E-02
16377,2.64E-03,4.64E-02
16378,2.72E-03,4.59E-02
16379,2.47E-03,4.78E-02
16380,2.53E-03,4.85E-02
16381,2.46E-03,4.91E-02
16382,2.57E-03,4.88E-02
16383,2.58E-03,4.85E-02
16384,2.68E-03,4.82E-02
16385,2.61E-03,4.89E-02
16386,2.74E-03,4.55E-02
16387,2.72E-03,4.70E-02
16388,2.89E-03,4.26E-02
16389,2.80E-03,4.41E-02
16390,3.07E-03,4.09E-02
16391,3.26E-03,8.32E-03
16392,2.46E-03,0.16755
16393,2.42E-03,0.11382
16394,2.40E-03,0.13541
16395,2.44E-03,8.43E-02
16396,2.43E-03,9.69E-02
16397,2.45E-03,6.51E-02
16398,2.45E-03,7.39E-02
16399,2.47E-03,5.11E-02
16400,2.46E-03,5.76E-02
16401,2.49E-03,4.01E-02
16402,2.48E-03,4.53E-02
16403,2.50E-03,3.11E-02
16404,2.50E-03,3.54E-02
16405,2.50E-03,2.34E-02
16406,2.50E-03,2.71E-02
16407,2.55E-03,1.70E-02
16408,2.52E-03,2.00E-02
16409,2.61E-03,1.29E-02
16410,2.56E-03,1.46E-02
16411,2.66E-03,1.32E-02
16412,2.64E-03,1.24E-02
16413,2.76E-03,1.89E-02
16414,2.69E-03,1.54E-02
16415,2.43E-03,7.56E-03
16416,2.34E-03,7.71E-03
16417,2.53E-03,7.23E-03
16418,2.49E-03,7.40E-03
16419,2.45E-03,6.91E-03
16420,2.55E-03,7.07E-03
16421,2.66E-03,6.56E-03
16422,2.40E-03,6.75E-03
16423,2.67E-03,6.37E-03
16424,3.12E-03,5.76E-03
16425,2.95E-03,2.40E-02
16426,2.38E-03,0.20014
16427,2.69E-03,0.21815
16428,3.28E-03,5.56E-03
16429,3.25E-03,5.30E-03
16430,2.71E-03,5.23E-03
16431,3.02E-03,5.27E-03
16432,2.29E-03,5.25E-03
16433,2.39E-03,5.21E-03
16434,2.75E-03,5.36E-03
16435,2.50E-03,5.31E-03
16436,2.15E-03,5.62E-03
16437,1.56E-03,5.48E-03
16438,2.54E-03,5.90E-03
16439,2.49E-03,5.75E-03
16440,2.53E-03,6.21E-03
16441,2.55E-03,6.05E-03
16442,2.56E-03,6.58E-03
16443,2.54E-03,6.39E-03
16444,1.79E-03,6.94E-03
16445,2.69E-03,6.77E-03
16446,2.07E-03,7.27E-03
16447,1.59E-03,7.08E-03
16448,2.23E-03,7.65E-03
16449,2.15E-03,7.46E-03
16450,2.29E-03,7.99E-03
16451,2.27E-03,7.83E-03
16452,2.37E-03,8.28E-03
16453,2.32E-03,8.14E-03
16454,2.40E-03,8.54E-03
16455,2.39E-03,8.41E-03
16456,2.46E-03,8.81E-03
16457,2.44E-03,8.67E-03
16458,2.49E-03,9.10E-03
16459,2.48E-03,8.96E-03
16460,2.52E-03,9.36E-03
16461,2.51E-03,9.24E-03
16462,2.54E-03,9.63E-03
16463,2.55E-03,9.49E-03
16464,2.54E-03,9.88E-03
16465,2.52E-03,9.76E-03
16466,2.56E-03,1.01E-02
16467,2.54E-03,9.98E-03
16468,2.57E-03,1.02E-02
16469,2.56E-03,1.01E-02
16470,2.53E-03,1.02E-02
16471,2.57E-03,1.02E-02
16472,2.41E-03,1.02E-02
16473,2.51E-03,1.02E-02
16474,2.23E-03,1.01E-02
16475,2.34E-03,1.01E-02
16476,2.15E-03,9.92E-03
16477,2.17E-03,1.00E-02
16478,2.34E-03,9.87E-03
16479,2.19E-03,9.87E-03
16480,2.53E-03,9.91E-03
16481,2.45E-03,9.89E-03
16482,2.55E-03,1.00E-02
16483,2.57E-03,9.94E-03
16484,2.44E-03,1.02E-02
16485,2.49E-03,1.01E-02
16486,2.43E-03,1.06E-02
16487,2.41E-03,1.04E-02
16488,2.53E-03,1.10E-02
16489,2.45E-03,1.08E-02
16490,2.59E-03,1.15E-02
16491,2.57E-03,1.13E-02
16492,2.58E-03,1.22E-02
16493,2.58E-03,1.19E-02
16494,2.52E-03,1.31E-02
16495,2.55E-03,1.26E-02
16496,2.41E-03,1.41E-02
16497,2.47E-03,1.36E-02
16498,2.42E-03,1.53E-02
16499,2.31E-03,1.46E-02
16500,2.60E-03,1.70E-02
16501,2.45E-03,1.63E-02
16502,2.63E-03,1.87E-02
16503,2.68E-03,1.78E-02
16504,2.55E-03,2.06E-02
16505,2.59E-03,1.96E-02
16506,2.50E-03,2.29E-02
16507,2.52E-03,2.17E-02
16508,2.47E-03,2.56E-02
16509,2.48E-03,2.42E-02
16510,2.72E-03,2.88E-02
16511,2.49E-03,2.70E-02
16512,2.65E-03,3.19E-02
16513,2.78E-03,3.01E-02
16514,2.71E-03,3.42E-02
16515,2.65E-03,3.33E-02
16516,2.67E-03,3.56E-02
16517,2.74E-03,3.49E-02
16518,2.45E-03,3.72E-02
16519,2.57E-03,3.65E-02
16520,2.31E-03,3.85E-02
16521,2.27E-03,3.79E-02
16522,2.53E-03,3.97E-02
16523,2.47E-03,3.90E-02
16524,2.59E-03,4.12E-02
16525,2.60E-03,4.03E-02
16526,2.76E-03,4.31E-02
16527,2.64E-03,4.21E-02
16528,2.69E-03,4.56E-02
16529,2.76E-03,4.43E-02
16530,2.61E-03,4.78E-02
16531,2.69E-03,4.67E-02
16532,2.51E-03,4.97E-02
16533,2.52E-03,4.88E-02
16534,2.56E-03,5.17E-02
16535,2.53E-03,5.07E-02
16536,2.63E-03,5.35E-02
16537,2.60E-03,5.27E-02
16538,2.60E-03,5.50E-02
16539,2.63E-03,5.43E-02
16540,2.51E-03,5.63E-02
16541,2.53E-03,5.57E-02
16542,2.52E-03,5.72E-02
16543,2.49E-03,5.68E-02
16544,2.56E-03,5.77E-02
16545,2.54E-03,5.74E-02
16546,2.48E-03,5.83E-02
16547,2.53E-03,5.79E-02
16548,2.43E-03,5.95E-02
16549,2.45E-03,5.88E-02
16550,2.47E-03,6.16E-02
16551,2.44E-03,6.04E-02
16552,2.55E-03,6.43E-02
16553,2.49E-03,6.28E-02
16554,2.62E-03,6.78E-02
16555,2.59E-03,6.60E-02
16556,2.63E-03,7.19E-02
16557,2.63E-03,6.98E-02
16558,2.61E-03,7.60E-02
16559,2.63E-03,7.39E-02
16560,2.52E-03,8.04E-02
16561,2.54E-03,7.81E-02
16562,2.50E-03,8.54E-02
16563,2.49E-03,8.29E-02
16564,2.53E-03,9.07E-02
16565,2.52E-03,8.80E-02
16566,2.58E-03,9.63E-02
16567,2.56E-03,9.35E-02
16568,2.62E-03,0.10145
16569,2.61E-03,9.90E-02
16570,2.60E-03,0.10619
16571,2.63E-03,0.10391
16572,2.57E-03,0.11071
16573,2.60E-03,0.10852
16574,2.55E-03,0.11416
16575,2.56E-03,0.11262
16576,2.49E-03,0.11665
16577,2.52E-03,0.11543
16578,2.49E-03,0.11928
16579,2.46E-03,0.11786
16580,2.53E-03,0.1228
16581,2.49E-03,0.12095
16582,2.58E-03,0.12652
16583,2.56E-03,0.12466
16584,2.62E-03,0.1305
16585,2.60E-03,0.12847
16586,2.62E-03,0.13424
16587,2.62E-03,0.13247
16588,2.61E-03,0.13742
16589,2.62E-03,0.13595
16590,2.56E-03,0.13976
16591,2.60E-03,0.13866
16592,2.56E-03,0.14182
16593,2.53E-03,0.1408
16594,2.58E-03,0.14347
16595,2.56E-03,0.14282
16596,2.59E-03,0.14269
16597,2.59E-03,0.14358
16598,2.56E-03,0.13834
16599,2.57E-03,0.14079
16600,2.47E-03,0.13534
16601,2.50E-03,0.13643
16602,2.41E-03,0.13136
16603,2.42E-03,0.13395
16604,2.37E-03,0.12426
16605,2.37E-03,0.12782
16606,2.34E-03,0.11887
16607,2.34E-03,0.12119
16608,2.35E-03,0.11588
16609,2.36E-03,0.11713
16610,2.40E-03,0.11516
16611,2.37E-03,0.11519
16612,2.37E-03,0.11665
16613,2.38E-03,0.11575
16614,2.36E-03,0.11803
16615,2.37E-03,0.11752
16616,2.31E-03,0.11815
16617,2.32E-03,0.11805
16618,2.26E-03,0.12125
16619,2.27E-03,0.11909
16620,2.21E-03,0.12793
16621,2.21E-03,0.12432
16622,2.18E-03,0.13752
16623,2.19E-03,0.13226
16624,2.25E-03,0.15293
16625,2.22E-03,0.14449
16626,2.24E-03,0.17284
16627,2.26E-03,0.16231
16628,2.28E-03,0.18543
16629,3.42E-03,3.33E-02
16630,2.52E-03,0.1527
16631,2.76E-03,0.20363
16632,3.11E-03,5.33E-03
16633,3.14E-03,8.39E-03
16634,3.02E-03,8.54E-03
16635,2.78E-03,8.08E-03
16636,2.99E-03,8.23E-03
16637,2.55E-03,7.78E-03
16638,2.63E-03,7.93E-03
16639,2.58E-03,7.47E-03
16640,2.54E-03,7.63E-03
16641,2.75E-03,7.16E-03
16642,2.66E-03,7.31E-03
16643,2.81E-03,6.87E-03
16644,2.77E-03,7.02E-03
16645,2.82E-03,6.63E-03
16646,2.80E-03,6.74E-03
16647,2.80E-03,6.43E-03
16648,2.79E-03,6.52E-03
16649,2.79E-03,6.29E-03
16650,2.83E-03,6.35E-03
16651,2.73E-03,6.18E-03
16652,2.75E-03,6.23E-03
16653,3.01E-03,6.23E-03
16654,3.04E-03,6.17E-03
16655,2.54E-03,6.52E-03
16656,2.64E-03,6.37E-03
16657,2.55E-03,6.84E-03
16658,2.53E-03,6.68E-03
16659,2.63E-03,7.18E-03
16660,2.60E-03,7.01E-03
16661,2.49E-03,7.50E-03
16662,2.55E-03,7.32E-03
16663,2.37E-03,7.82E-03
16664,2.39E-03,7.66E-03
16665,2.37E-03,8.13E-03
16666,2.38E-03,7.98E-03
16667,2.41E-03,8.44E-03
16668,2.38E-03,8.29E-03
16669,2.46E-03,8.76E-03
16670,2.43E-03,8.60E-03
16671,2.50E-03,9.06E-03
16672,2.48E-03,8.91E-03
16673,2.53E-03,9.33E-03
16674,2.51E-03,9.20E-03
16675,2.52E-03,9.56E-03
16676,2.54E-03,9.45E-03
16677,2.53E-03,9.78E-03
16678,2.51E-03,9.67E-03
16679,2.54E-03,9.99E-03
16680,2.55E-03,9.88E-03
16681,2.57E-03,1.02E-02
16682,2.55E-03,1.01E-02
16683,2.58E-03,1.04E-02
16684,2.59E-03,1.03E-02
16685,2.59E-03,1.05E-02
16686,2.61E-03,1.05E-02
16687,2.44E-03,1.08E-02
16688,2.50E-03,1.07E-02
16689,2.61E-03,1.11E-02
16690,2.52E-03,1.09E-02
16691,2.66E-03,1.14E-02
16692,2.71E-03,1.12E-02
16693,2.61E-03,1.17E-02
16694,2.62E-03,1.16E-02
16695,2.69E-03,1.21E-02
16696,2.63E-03,1.19E-02
16697,2.83E-03,1.25E-02
16698,2.73E-03,1.23E-02
16699,2.85E-03,1.30E-02
16700,2.92E-03,1.28E-02
16701,2.71E-03,1.37E-02
16702,2.77E-03,1.33E-02
16703,2.65E-03,1.44E-02
16704,2.69E-03,1.40E-02
16705,2.60E-03,1.53E-02
16706,2.61E-03,1.48E-02
16707,2.52E-03,1.62E-02
16708,2.57E-03,1.57E-02
16709,2.59E-03,1.72E-02
16710,2.53E-03,1.67E-02
16711,2.68E-03,1.84E-02
16712,2.63E-03,1.78E-02
16713,2.60E-03,1.97E-02
16714,2.67E-03,1.90E-02
16715,2.52E-03,2.13E-02
16716,2.57E-03,2.05E-02
16717,2.47E-03,2.31E-02
16718,2.49E-03,2.22E-02
16719,2.47E-03,2.50E-02
16720,2.47E-03,2.40E-02
16721,2.44E-03,2.67E-02
16722,2.47E-03,2.58E-02
16723,2.39E-03,2.82E-02
16724,2.35E-03,2.76E-02
16725,2.53E-03,2.89E-02
16726,2.44E-03,2.86E-02
16727,2.39E-03,2.95E-02
16728,2.49E-03,2.92E-02
16729,2.38E-03,3.07E-02
16730,2.33E-03,3.01E-02
16731,2.49E-03,3.22E-02
16732,2.48E-03,3.14E-02
16733,2.49E-03,3.37E-02
16734,2.47E-03,3.30E-02
16735,2.47E-03,3.46E-02
16736,2.44E-03,3.42E-02
16737,2.49E-03,3.54E-02
16738,2.51E-03,3.50E-02
16739,2.38E-03,3.61E-02
16740,2.41E-03,3.57E-02
16741,2.43E-03,3.72E-02
16742,2.40E-03,3.67E-02
16743,2.52E-03,3.84E-02
16744,2.51E-03,3.78E-02
16745,2.49E-03,3.97E-02
16746,2.51E-03,3.90E-02
16747,2.49E-03,4.11E-02
16748,2.49E-03,4.05E-02
16749,2.50E-03,4.22E-02
16750,2.52E-03,4.17E-02
16751,2.43E-03,4.33E-02
16752,2.44E-03,4.28E-02
16753,2.44E-03,4.44E-02
16754,2.42E-03,4.38E-02
16755,2.47E-03,4.56E-02
16756,2.45E-03,4.50E-02
16757,2.53E-03,4.72E-02
16758,2.52E-03,4.64E-02
16759,2.57E-03,4.90E-02
16760,2.54E-03,4.81E-02
16761,2.57E-03,5.07E-02
16762,2.58E-03,4.98E-02
16763,2.55E-03,5.23E-02
16764,2.57E-03,5.15E-02
16765,2.53E-03,5.38E-02
16766,2.53E-03,5.30E-02
16767,2.54E-03,5.53E-02
16768,2.55E-03,5.45E-02
16769,2.56E-03,5.67E-02
16770,2.55E-03,5.60E-02
16771,2.55E-03,5.79E-02
16772,2.56E-03,5.73E-02
16773,2.51E-03,5.91E-02
16774,2.53E-03,5.85E-02
16775,2.47E-03,6.01E-02
16776,2.49E-03,5.96E-02
16777,2.49E-03,6.10E-02
16778,2.47E-03,6.06E-02
16779,2.53E-03,6.18E-02
16780,2.52E-03,6.14E-02
16781,2.56E-03,6.24E-02
16782,2.55E-03,6.21E-02
16783,2.56E-03,6.26E-02
16784,2.56E-03,6.25E-02
16785,2.52E-03,6.24E-02
16786,2.55E-03,6.25E-02
16787,2.55E-03,6.21E-02
16788,2.53E-03,6.23E-02
16789,2.64E-03,6.14E-02
16790,2.60E-03,6.18E-02
16791,2.73E-03,6.01E-02
16792,2.70E-03,6.09E-02
16793,2.87E-03,5.76E-02
16794,2.78E-03,5.91E-02
16795,3.19E-03,5.26E-02
16796,2.97E-03,5.57E-02
16797,3.12E-03,4.41E-02
16798,3.33E-03,4.86E-02
16799,2.88E-03,3.33E-02
16800,2.96E-03,3.90E-02
16801,2.76E-03,2.20E-02
16802,2.80E-03,2.76E-02
16803,2.74E-03,1.09E-02
16804,2.76E-03,1.64E-02
16805,2.79E-03,1.60E-03
16806,2.75E-03,5.49E-03
16807,2.85E-03,9.96E-03
16808,2.82E-03,5.34E-03
16809,2.92E-03,1.86E-02
16810,2.88E-03,1.45E-02
16811,3.48E-03,2.69E-02
16812,3.06E-03,2.27E-02
16813,2.81E-03,3.22E-02
16814,3.28E-03,3.06E-02
16815,2.48E-03,3.53E-02
16816,2.52E-03,3.34E-02
16817,2.74E-03,4.68E-02
16818,2.96E-03,4.68E-02
16819,3.06E-03,3.98E-02
16820,2.87E-03,3.78E-02
16821,2.35E-03,4.91E-02
16822,2.31E-03,4.84E-02
16823,2.55E-03,5.00E-02
16824,2.46E-03,4.94E-02
16825,2.61E-03,5.24E-02
16826,2.55E-03,5.11E-02
16827,2.65E-03,5.42E-02
16828,2.69E-03,5.34E-02
16829,2.64E-03,5.42E-02
16830,2.67E-03,5.46E-02
16831,2.55E-03,5.29E-02
16832,2.60E-03,5.35E-02
16833,2.27E-03,5.25E-02
16834,2.35E-03,5.28E-02
16835,2.65E-03,5.55E-02
16836,2.55E-03,5.48E-02
16837,2.49E-03,5.61E-02
16838,2.60E-03,5.63E-02
16839,2.39E-03,5.25E-02
16840,2.41E-03,5.46E-02
16841,2.40E-03,5.03E-02
16842,2.35E-03,5.09E-02
16843,2.51E-03,5.26E-02
16844,2.49E-03,5.11E-02
16845,2.54E-03,5.66E-02
16846,2.53E-03,5.45E-02
16847,2.57E-03,6.03E-02
16848,2.56E-03,5.86E-02
16849,2.60E-03,6.19E-02
16850,2.59E-03,6.15E-02
16851,2.77E-03,6.00E-02
16852,2.65E-03,6.15E-02
16853,3.39E-03,5.20E-02
16854,2.92E-03,5.72E-02
16855,2.44E-03,9.92E-02
16856,2.47E-03,0.12103
16857,2.46E-03,7.20E-02
16858,2.44E-03,8.37E-02
16859,2.47E-03,5.48E-02
16860,2.47E-03,6.26E-02
16861,2.50E-03,4.26E-02
16862,2.48E-03,4.83E-02
16863,2.50E-03,3.30E-02
16864,2.50E-03,3.75E-02
16865,2.50E-03,2.51E-02
16866,2.50E-03,2.89E-02
16867,2.50E-03,1.84E-02
16868,2.50E-03,2.16E-02
16869,2.53E-03,1.33E-02
16870,2.50E-03,1.55E-02
16871,2.58E-03,1.16E-02
16872,2.57E-03,1.19E-02
16873,2.64E-03,1.47E-02
16874,2.63E-03,1.26E-02
16875,2.79E-03,2.13E-02
16876,2.71E-03,1.76E-02
16877,2.78E-03,4.09E-02
16878,2.49E-03,4.83E-02
16879,2.68E-03,7.83E-03
16880,2.84E-03,8.00E-03
16881,2.04E-03,8.93E-03
16882,2.61E-03,8.78E-03
16883,2.19E-03,8.91E-03
16884,3.35E-03,4.90E-02
16885,3.02E-03,3.37E-02
16886,2.95E-03,2.63E-02
16887,2.46E-03,7.49E-03
16888,2.53E-03,7.65E-03
16889,2.49E-03,7.16E-03
16890,2.48E-03,7.32E-03
16891,2.47E-03,6.83E-03
16892,2.47E-03,6.99E-03
16893,2.59E-03,6.47E-03
16894,2.45E-03,6.65E-03
16895,2.74E-03,6.09E-03
16896,2.68E-03,6.28E-03
16897,3.00E-03,5.71E-03
16898,2.88E-03,5.90E-03
16899,2.08E-03,0.29046
16900,2.94E-03,4.99E-03
16901,2.92E-03,5.06E-03
16902,2.91E-03,5.33E-03
16903,3.03E-03,5.52E-03
16904,2.69E-03,4.88E-03
16905,2.76E-03,4.92E-03
16906,2.49E-03,4.91E-03
16907,2.60E-03,4.88E-03
16908,2.48E-03,5.02E-03
16909,2.50E-03,4.96E-03
16910,2.20E-03,5.20E-03
16911,2.34E-03,5.09E-03
16912,2.21E-03,5.41E-03
16913,2.14E-03,5.32E-03
16914,2.50E-03,5.61E-03
16915,2.35E-03,5.50E-03
16916,2.54E-03,5.91E-03
16917,2.54E-03,5.74E-03
16918,2.52E-03,6.32E-03
16919,2.54E-03,6.10E-03
16920,2.36E-03,6.75E-03
16921,2.38E-03,6.53E-03
16922,2.12E-03,7.28E-03
16923,2.31E-03,7.07E-03
16924,2.22E-03,7.68E-03
16925,2.18E-03,7.49E-03
16926,2.32E-03,8.02E-03
16927,2.27E-03,7.86E-03
16928,2.36E-03,8.28E-03
16929,2.33E-03,8.16E-03
16930,2.41E-03,8.48E-03
16931,2.39E-03,8.39E-03
16932,2.46E-03,8.68E-03
16933,2.44E-03,8.58E-03
16934,2.51E-03,8.96E-03
16935,2.49E-03,8.80E-03
16936,2.52E-03,9.34E-03
16937,2.52E-03,9.15E-03
16938,2.52E-03,9.69E-03
16939,2.51E-03,9.52E-03
16940,2.54E-03,9.92E-03
16941,2.52E-03,9.82E-03
16942,2.54E-03,1.01E-02
16943,2.54E-03,1.00E-02
16944,2.55E-03,1.02E-02
16945,2.54E-03,1.02E-02
16946,2.51E-03,1.03E-02
16947,2.53E-03,1.03E-02
16948,2.43E-03,1.02E-02
16949,2.49E-03,1.03E-02
16950,2.29E-03,9.92E-03
16951,2.35E-03,1.01E-02
16952,2.27E-03,9.52E-03
16953,2.29E-03,9.73E-03
16954,2.40E-03,9.25E-03
16955,2.32E-03,9.35E-03
16956,2.53E-03,9.28E-03
16957,2.48E-03,9.24E-03
16958,2.53E-03,9.41E-03
16959,2.55E-03,9.34E-03
16960,2.49E-03,9.59E-03
16961,2.52E-03,9.49E-03
16962,2.46E-03,9.90E-03
16963,2.45E-03,9.71E-03
16964,2.53E-03,1.04E-02
16965,2.49E-03,1.02E-02
16966,2.57E-03,1.09E-02
16967,2.56E-03,1.07E-02
16968,2.56E-03,1.14E-02
16969,2.57E-03,1.12E-02
16970,2.52E-03,1.21E-02
16971,2.55E-03,1.17E-02
16972,2.46E-03,1.32E-02
16973,2.48E-03,1.26E-02
16974,2.45E-03,1.49E-02
16975,2.45E-03,1.40E-02
16976,2.58E-03,1.66E-02
16977,2.52E-03,1.57E-02
16978,2.61E-03,1.84E-02
16979,2.60E-03,1.75E-02
16980,2.56E-03,2.04E-02
16981,2.57E-03,1.93E-02
16982,2.50E-03,2.27E-02
16983,2.54E-03,2.15E-02
16984,2.50E-03,2.56E-02
16985,2.51E-03,2.41E-02
16986,2.57E-03,2.92E-02
16987,2.53E-03,2.73E-02
16988,2.64E-03,3.33E-02
16989,2.63E-03,3.11E-02
16990,2.55E-03,3.76E-02
16991,2.58E-03,3.56E-02
16992,2.52E-03,3.98E-02
16993,2.57E-03,3.90E-02
16994,2.41E-03,3.88E-02
16995,2.48E-03,3.97E-02
16996,2.45E-03,3.64E-02
16997,2.38E-03,3.75E-02
16998,2.56E-03,3.72E-02
16999,2.47E-03,3.63E-02
17000,2.58E-03,4.15E-02
17001,2.59E-03,3.91E-02
17002,2.61E-03,4.61E-02
17003,2.59E-03,4.39E-02
17004,2.60E-03,4.88E-02
17005,2.62E-03,4.77E-02
17006,2.56E-03,4.97E-02
17007,2.60E-03,4.94E-02
17008,2.52E-03,5.06E-02
17009,2.54E-03,5.00E-02
17010,2.55E-03,5.27E-02
17011,2.53E-03,5.14E-02
17012,2.58E-03,5.61E-02
17013,2.56E-03,5.43E-02
17014,2.54E-03,5.93E-02
17015,2.54E-03,5.79E-02
17016,2.48E-03,6.03E-02
17017,2.51E-03,6.02E-02
17018,2.49E-03,5.88E-02
17019,2.47E-03,5.98E-02
17020,2.54E-03,5.72E-02
17021,2.52E-03,5.79E-02
17022,2.50E-03,5.74E-02
17023,2.53E-03,5.70E-02
17024,2.46E-03,5.95E-02
17025,2.47E-03,5.82E-02
17026,2.46E-03,6.22E-02
17027,2.47E-03,6.08E-02
17028,2.53E-03,6.48E-02
17029,2.48E-03,6.35E-02
17030,2.58E-03,6.80E-02
17031,2.55E-03,6.62E-02
17032,2.60E-03,7.27E-02
17033,2.60E-03,7.01E-02
17034,2.57E-03,7.87E-02
17035,2.59E-03,7.56E-02
17036,2.51E-03,8.46E-02
17037,2.54E-03,8.18E-02
17038,2.49E-03,8.91E-02
17039,2.49E-03,8.70E-02
17040,2.53E-03,9.32E-02
17041,2.50E-03,9.10E-02
17042,2.56E-03,9.96E-02
17043,2.54E-03,9.60E-02
17044,2.55E-03,0.10817
17045,2.58E-03,0.10368
17046,2.56E-03,0.11638
17047,2.58E-03,0.11248
17048,2.52E-03,0.12136
17049,2.53E-03,0.1194
17050,2.50E-03,0.12259
17051,2.51E-03,0.1223
17052,2.49E-03,0.12232
17053,2.50E-03,0.12251
17054,2.48E-03,0.12282
17055,2.48E-03,0.12235
17056,2.51E-03,0.12617
17057,2.48E-03,0.12403
17058,2.54E-03,0.13282
17059,2.55E-03,0.12921
17060,2.57E-03,0.14062
17061,2.55E-03,0.13673
17062,2.58E-03,0.14695
17063,2.58E-03,0.14409
17064,2.57E-03,0.15051
17065,2.58E-03,0.14909
17066,2.53E-03,0.15134
17067,2.56E-03,0.1512
17068,2.52E-03,0.15095
17069,2.50E-03,0.15114
17070,2.57E-03,0.15228
17071,2.56E-03,0.15117
17072,2.56E-03,0.15673
17073,2.59E-03,0.15425
17074,2.47E-03,0.15866
17075,2.53E-03,0.1587
17076,2.42E-03,0.14999
17077,2.43E-03,0.15574
17078,2.43E-03,0.13228
17079,2.40E-03,0.14169
17080,2.42E-03,0.11813
17081,2.43E-03,0.12394
17082,2.40E-03,0.11482
17083,2.41E-03,0.11525
17084,2.39E-03,0.11729
17085,2.41E-03,0.11587
17086,2.41E-03,0.11864
17087,2.40E-03,0.11832
17088,2.43E-03,0.11744
17089,2.41E-03,0.1182
17090,2.42E-03,0.11793
17091,2.42E-03,0.11719
17092,2.36E-03,0.12106
17093,2.39E-03,0.11937
17094,2.31E-03,0.12316
17095,2.32E-03,0.12248
17096,2.31E-03,0.12458
17097,2.29E-03,0.12355
17098,2.32E-03,0.13331
17099,2.30E-03,0.12742
17100,2.31E-03,0.15472
17101,2.32E-03,0.14249
17102,2.30E-03,0.18808
17103,2.31E-03,0.16989
17104,2.46E-03,0.23221
17105,2.32E-03,0.20848
17106,2.03E-03,0.30746
17107,2.62E-03,0.26092
17108,1.80E-03,4.14E-02
17109,1.78E-03,4.86E-02
17110,2.95E-03,8.17E-03
17111,2.91E-03,4.69E-02
17112,1.74E-03,0.40253
17113,2.79E-03,5.13E-03
17114,1.98E-03,4.35E-02
17115,2.60E-03,4.61E-02
17116,2.91E-03,8.34E-03
17117,2.24E-03,4.72E-02
17118,2.47E-03,9.26E-03
17119,1.89E-03,9.18E-03
17120,1.83E-03,9.08E-03
17121,2.13E-03,8.97E-03
17122,2.47E-03,8.85E-03
17123,2.77E-03,8.72E-03
17124,2.94E-03,8.59E-03
17125,2.97E-03,8.45E-03
17126,2.90E-03,8.31E-03
17127,2.76E-03,8.16E-03
17128,2.60E-03,8.01E-03
17129,2.54E-03,7.86E-03
17130,2.52E-03,7.71E-03
17131,2.54E-03,7.56E-03
17132,2.56E-03,7.41E-03
17133,2.60E-03,7.27E-03
17134,2.60E-03,7.14E-03
17135,2.59E-03,7.01E-03
17136,2.58E-03,6.89E-03
17137,2.58E-03,6.79E-03
17138,2.58E-03,6.70E-03
17139,2.60E-03,6.62E-03
17140,2.61E-03,6.56E-03
17141,2.63E-03,6.50E-03
17142,2.65E-03,6.46E-03
17143,2.69E-03,6.44E-03
17144,2.70E-03,6.45E-03
17145,2.61E-03,6.49E-03
17146,2.52E-03,6.58E-03
17147,2.44E-03,6.73E-03
17148,2.46E-03,6.88E-03
17149,2.52E-03,7.04E-03
17150,2.57E-03,7.20E-03
17151,2.58E-03,7.35E-03
17152,2.51E-03,7.50E-03
17153,2.47E-03,7.64E-03
17154,2.42E-03,7.79E-03
17155,2.40E-03,7.94E-03
17156,2.40E-03,8.09E-03
17157,2.40E-03,8.24E-03
17158,2.43E-03,8.39E-03
17159,2.45E-03,8.54E-03
17160,2.46E-03,8.70E-03
17161,2.48E-03,8.85E-03
17162,2.48E-03,9.00E-03
17163,2.48E-03,9.15E-03
17164,2.49E-03,9.29E-03
17165,2.49E-03,9.41E-03
17166,2.49E-03,9.54E-03
17167,2.50E-03,9.65E-03
17168,2.52E-03,9.76E-03
17169,2.52E-03,9.87E-03
17170,2.52E-03,9.98E-03
17171,2.53E-03,1.01E-02
17172,2.54E-03,1.02E-02
17173,2.55E-03,1.03E-02
17174,2.57E-03,1.04E-02
17175,2.58E-03,1.05E-02
17176,2.58E-03,1.06E-02
17177,2.55E-03,1.07E-02
17178,2.52E-03,1.08E-02
17179,2.44E-03,1.10E-02
17180,2.47E-03,1.11E-02
17181,2.49E-03,1.13E-02
17182,2.56E-03,1.15E-02
17183,2.58E-03,1.17E-02
17184,2.56E-03,1.19E-02
17185,2.57E-03,1.21E-02
17186,2.59E-03,1.23E-02
17187,2.64E-03,1.25E-02
17188,2.70E-03,1.28E-02
17189,2.70E-03,1.30E-02
17190,2.77E-03,1.33E-02
17191,2.77E-03,1.35E-02
17192,2.73E-03,1.38E-02
17193,2.69E-03,1.42E-02
17194,2.65E-03,1.45E-02
17195,2.64E-03,1.49E-02
17196,2.59E-03,1.53E-02
17197,2.56E-03,1.57E-02
17198,2.53E-03,1.62E-02
17199,2.52E-03,1.67E-02
17200,2.53E-03,1.72E-02
17201,2.53E-03,1.77E-02
17202,2.54E-03,1.82E-02
17203,2.59E-03,1.88E-02
17204,2.61E-03,1.94E-02
17205,2.57E-03,2.01E-02
17206,2.53E-03,2.08E-02
17207,2.50E-03,2.15E-02
17208,2.49E-03,2.23E-02
17209,2.48E-03,2.31E-02
17210,2.46E-03,2.40E-02
17211,2.45E-03,2.48E-02
17212,2.44E-03,2.56E-02
17213,2.46E-03,2.63E-02
17214,2.48E-03,2.69E-02
17215,2.44E-03,2.75E-02
17216,2.46E-03,2.78E-02
17217,2.50E-03,2.81E-02
17218,2.50E-03,2.84E-02
17219,2.45E-03,2.88E-02
17220,2.47E-03,2.93E-02
17221,2.46E-03,2.99E-02
17222,2.44E-03,3.06E-02
17223,2.43E-03,3.13E-02
17224,2.42E-03,3.19E-02
17225,2.47E-03,3.25E-02
17226,2.54E-03,3.30E-02
17227,2.59E-03,3.34E-02
17228,2.60E-03,3.38E-02
17229,2.57E-03,3.42E-02
17230,2.52E-03,3.46E-02
17231,2.47E-03,3.51E-02
17232,2.48E-03,3.56E-02
17233,2.50E-03,3.61E-02
17234,2.53E-03,3.67E-02
17235,2.54E-03,3.72E-02
17236,2.51E-03,3.78E-02
17237,2.50E-03,3.85E-02
17238,2.50E-03,3.91E-02
17239,2.50E-03,3.97E-02
17240,2.49E-03,4.03E-02
17241,2.49E-03,4.08E-02
17242,2.47E-03,4.14E-02
17243,2.44E-03,4.19E-02
17244,2.43E-03,4.24E-02
17245,2.44E-03,4.30E-02
17246,2.46E-03,4.36E-02
17247,2.48E-03,4.43E-02
17248,2.48E-03,4.50E-02
17249,2.49E-03,4.57E-02
17250,2.52E-03,4.65E-02
17251,2.53E-03,4.74E-02
17252,2.54E-03,4.82E-02
17253,2.53E-03,4.90E-02
17254,2.53E-03,4.98E-02
17255,2.52E-03,5.05E-02
17256,2.50E-03,5.13E-02
17257,2.48E-03,5.20E-02
17258,2.48E-03,5.27E-02
17259,2.49E-03,5.34E-02
17260,2.51E-03,5.40E-02
17261,2.51E-03,5.46E-02
17262,2.51E-03,5.52E-02
17263,2.51E-03,5.57E-02
17264,2.50E-03,5.62E-02
17265,2.49E-03,5.67E-02
17266,2.48E-03,5.71E-02
17267,2.46E-03,5.75E-02
17268,2.46E-03,5.79E-02
17269,2.47E-03,5.82E-02
17270,2.49E-03,5.85E-02
17271,2.51E-03,5.88E-02
17272,2.52E-03,5.90E-02
17273,2.52E-03,5.91E-02
17274,2.52E-03,5.91E-02
17275,2.51E-03,5.91E-02
17276,2.50E-03,5.90E-02
17277,2.50E-03,5.89E-02
17278,2.51E-03,5.86E-02
17279,2.52E-03,5.83E-02
17280,2.54E-03,5.79E-02
17281,2.56E-03,5.74E-02
17282,2.60E-03,5.68E-02
17283,2.61E-03,5.60E-02
17284,2.63E-03,5.49E-02
17285,2.65E-03,5.34E-02
17286,2.66E-03,5.14E-02
17287,2.56E-03,4.86E-02
17288,2.58E-03,4.52E-02
17289,2.58E-03,4.14E-02
17290,2.67E-03,3.68E-02
17291,2.64E-03,3.20E-02
17292,2.59E-03,2.70E-02
17293,2.55E-03,2.19E-02
17294,2.54E-03,1.69E-02
17295,2.54E-03,1.19E-02
17296,2.53E-03,7.08E-03
17297,2.56E-03,2.81E-03
17298,2.60E-03,3.49E-03
17299,2.65E-03,7.22E-03
17300,2.70E-03,1.11E-02
17301,2.75E-03,1.48E-02
17302,2.91E-03,1.83E-02
17303,2.91E-03,2.15E-02
17304,2.94E-03,2.41E-02
17305,2.80E-03,2.66E-02
17306,2.61E-03,2.84E-02
17307,2.70E-03,3.02E-02
17308,2.80E-03,3.18E-02
17309,2.87E-03,3.29E-02
17310,2.65E-03,3.39E-02
17311,2.63E-03,3.54E-02
17312,2.58E-03,3.73E-02
17313,2.45E-03,3.74E-02
17314,2.37E-03,3.85E-02
17315,2.03E-03,4.72E-02
17316,2.07E-03,3.87E-02
17317,1.72E-03,4.39E-02
17318,1.54E-03,3.94E-02
17319,1.86E-03,3.92E-02
17320,2.29E-03,3.87E-02
17321,1.88E-03,3.74E-02
17322,1.87E-03,3.60E-02
17323,1.89E-03,3.54E-02
17324,1.62E-03,3.85E-02
17325,2.13E-03,4.40E-02
17326,2.18E-03,5.13E-02
17327,1.90E-03,5.82E-02
17328,2.09E-03,5.84E-02
17329,2.51E-03,5.66E-02
17330,2.67E-03,5.58E-02
17331,2.43E-03,5.50E-02
17332,2.60E-03,5.44E-02
17333,2.62E-03,5.40E-02
17334,2.52E-03,5.34E-02
17335,2.43E-03,5.29E-02
17336,2.47E-03,5.28E-02
17337,2.53E-03,5.34E-02
17338,2.57E-03,5.58E-02
17339,2.56E-03,5.99E-02
17340,2.52E-03,6.45E-02
17341,2.50E-03,6.73E-02
17342,2.50E-03,6.70E-02
17343,2.50E-03,6.37E-02
17344,2.55E-03,5.91E-02
17345,2.54E-03,5.49E-02
17346,2.52E-03,5.21E-02
17347,2.53E-03,5.26E-02
17348,2.54E-03,5.76E-02
17349,2.48E-03,6.63E-02
17350,2.34E-03,7.34E-02
17351,2.25E-03,7.16E-02
17352,2.36E-03,6.27E-02
17353,2.46E-03,5.30E-02
17354,2.64E-03,4.67E-02
17355,2.64E-03,4.62E-02
17356,2.54E-03,5.04E-02
17357,2.50E-03,5.62E-02
17358,2.48E-03,6.09E-02
17359,2.51E-03,6.44E-02
17360,2.51E-03,6.81E-02
17361,2.50E-03,7.34E-02
17362,2.46E-03,7.94E-02
17363,2.45E-03,8.38E-02
17364,2.48E-03,8.51E-02
17365,2.55E-03,8.35E-02
17366,2.70E-03,8.04E-02
17367,2.75E-03,7.81E-02
17368,2.72E-03,7.59E-02
17369,2.50E-03,7.24E-02
17370,2.16E-03,0.38343
17371,2.26E-03,0.24021
17372,2.44E-03,0.17304
17373,2.55E-03,0.1301
17374,2.50E-03,0.10031
17375,2.47E-03,8.14E-02
17376,2.47E-03,6.86E-02
17377,2.48E-03,5.87E-02
17378,2.48E-03,5.08E-02
17379,2.49E-03,4.45E-02
17380,2.51E-03,3.91E-02
17381,2.51E-03,3.44E-02
17382,2.51E-03,3.02E-02
17383,2.51E-03,2.65E-02
17384,2.50E-03,2.31E-02
17385,2.50E-03,1.99E-02
17386,2.50E-03,1.71E-02
17387,2.50E-03,1.46E-02
17388,2.51E-03,1.26E-02
17389,2.51E-03,1.15E-02
17390,2.53E-03,1.14E-02
17391,2.57E-03,1.25E-02
17392,2.59E-03,1.44E-02
17393,2.62E-03,1.70E-02
17394,2.68E-03,2.01E-02
17395,2.75E-03,2.37E-02
17396,2.85E-03,2.77E-02
17397,2.87E-03,3.26E-02
17398,2.77E-03,4.17E-02
17399,2.44E-03,6.32E-02
17400,2.65E-03,8.25E-03
17401,2.74E-03,8.09E-03
17402,2.72E-03,7.92E-03
17403,2.63E-03,7.76E-03
17404,2.52E-03,7.59E-03
17405,2.45E-03,7.42E-03
17406,2.44E-03,7.26E-03
17407,2.46E-03,7.09E-03
17408,2.46E-03,6.92E-03
17409,2.46E-03,6.75E-03
17410,2.48E-03,6.57E-03
17411,2.55E-03,6.38E-03
17412,2.61E-03,6.19E-03
17413,2.70E-03,6.01E-03
17414,2.79E-03,5.83E-03
17415,2.86E-03,5.66E-03
17416,2.88E-03,5.49E-03
17417,2.80E-03,5.34E-03
17418,2.66E-03,5.18E-03
17419,2.42E-03,5.01E-03
17420,2.64E-03,4.91E-03
17421,2.78E-03,4.78E-03
17422,2.80E-03,4.65E-03
17423,2.79E-03,4.53E-03
17424,2.71E-03,4.46E-03
17425,2.64E-03,4.45E-03
17426,2.58E-03,4.50E-03
17427,2.54E-03,4.59E-03
17428,2.48E-03,4.71E-03
17429,2.38E-03,4.85E-03
17430,2.29E-03,5.00E-03
17431,2.26E-03,5.12E-03
17432,2.31E-03,5.21E-03
17433,2.38E-03,5.26E-03
17434,2.48E-03,5.31E-03
17435,2.54E-03,5.38E-03
17436,2.56E-03,5.53E-03
17437,2.55E-03,5.77E-03
17438,2.49E-03,6.05E-03
17439,2.45E-03,6.37E-03
17440,2.41E-03,6.71E-03
17441,2.30E-03,7.02E-03
17442,2.24E-03,7.32E-03
17443,2.21E-03,7.56E-03
17444,2.25E-03,7.77E-03
17445,2.28E-03,7.94E-03
17446,2.31E-03,8.09E-03
17447,2.36E-03,8.22E-03
17448,2.39E-03,8.32E-03
17449,2.41E-03,8.40E-03
17450,2.42E-03,8.45E-03
17451,2.44E-03,8.47E-03
17452,2.46E-03,8.50E-03
17453,2.49E-03,8.57E-03
17454,2.50E-03,8.73E-03
17455,2.51E-03,9.01E-03
17456,2.49E-03,9.39E-03
17457,2.49E-03,9.70E-03
17458,2.49E-03,9.85E-03
17459,2.50E-03,9.93E-03
17460,2.52E-03,1.00E-02
17461,2.52E-03,1.01E-02
17462,2.52E-03,1.01E-02
17463,2.52E-03,1.02E-02
17464,2.55E-03,1.02E-02
17465,2.52E-03,1.04E-02
17466,2.50E-03,1.04E-02
17467,2.47E-03,1.04E-02
17468,2.42E-03,1.03E-02
17469,2.38E-03,1.02E-02
17470,2.36E-03,9.85E-03
17471,2.34E-03,9.47E-03
17472,2.36E-03,9.07E-03
17473,2.40E-03,8.71E-03
17474,2.46E-03,8.49E-03
17475,2.52E-03,8.45E-03
17476,2.55E-03,8.57E-03
17477,2.54E-03,8.79E-03
17478,2.51E-03,8.97E-03
17479,2.52E-03,8.97E-03
17480,2.53E-03,8.85E-03
17481,2.54E-03,8.83E-03
17482,2.53E-03,9.11E-03
17483,2.51E-03,9.57E-03
17484,2.51E-03,9.94E-03
17485,2.51E-03,1.02E-02
17486,2.53E-03,1.04E-02
17487,2.56E-03,1.05E-02
17488,2.56E-03,1.06E-02
17489,2.56E-03,1.07E-02
17490,2.57E-03,1.09E-02
17491,2.55E-03,1.14E-02
17492,2.52E-03,1.23E-02
17493,2.48E-03,1.34E-02
17494,2.50E-03,1.45E-02
17495,2.53E-03,1.54E-02
17496,2.57E-03,1.63E-02
17497,2.60E-03,1.72E-02
17498,2.60E-03,1.81E-02
17499,2.58E-03,1.90E-02
17500,2.55E-03,2.01E-02
17501,2.53E-03,2.13E-02
17502,2.50E-03,2.25E-02
17503,2.49E-03,2.39E-02
17504,2.51E-03,2.56E-02
17505,2.52E-03,2.74E-02
17506,2.53E-03,2.95E-02
17507,2.58E-03,3.21E-02
17508,2.53E-03,3.51E-02
17509,2.50E-03,3.87E-02
17510,2.45E-03,4.25E-02
17511,2.40E-03,4.57E-02
17512,2.35E-03,4.71E-02
17513,2.33E-03,4.53E-02
17514,2.35E-03,4.09E-02
17515,2.43E-03,3.59E-02
17516,2.53E-03,3.20E-02
17517,2.63E-03,3.05E-02
17518,2.64E-03,3.21E-02
17519,2.59E-03,3.64E-02
17520,2.53E-03,4.18E-02
17521,2.50E-03,4.73E-02
17522,2.50E-03,5.16E-02
17523,2.50E-03,5.36E-02
17524,2.52E-03,5.35E-02
17525,2.53E-03,5.24E-02
17526,2.54E-03,5.14E-02
17527,2.53E-03,5.07E-02
17528,2.52E-03,5.06E-02
17529,2.54E-03,5.11E-02
17530,2.54E-03,5.25E-02
17531,2.55E-03,5.51E-02
17532,2.55E-03,5.89E-02
17533,2.49E-03,6.28E-02
17534,2.45E-03,6.57E-02
17535,2.43E-03,6.70E-02
17536,2.43E-03,6.62E-02
17537,2.43E-03,6.36E-02
17538,2.45E-03,6.02E-02
17539,2.50E-03,5.72E-02
17540,2.53E-03,5.51E-02
17541,2.55E-03,5.44E-02
17542,2.53E-03,5.52E-02
17543,2.50E-03,5.71E-02
17544,2.49E-03,5.94E-02
17545,2.48E-03,6.16E-02
17546,2.46E-03,6.33E-02
17547,2.47E-03,6.44E-02
17548,2.50E-03,6.51E-02
17549,2.52E-03,6.58E-02
17550,2.56E-03,6.71E-02
17551,2.58E-03,6.93E-02
17552,2.56E-03,7.27E-02
17553,2.55E-03,7.72E-02
17554,2.53E-03,8.22E-02
17555,2.50E-03,8.70E-02
17556,2.49E-03,9.08E-02
17557,2.48E-03,9.27E-02
17558,2.48E-03,9.33E-02
17559,2.49E-03,9.34E-02
17560,2.51E-03,9.42E-02
17561,2.52E-03,9.65E-02
17562,2.54E-03,0.10108
17563,2.54E-03,0.10789
17564,2.53E-03,0.11586
17565,2.52E-03,0.12381
17566,2.48E-03,0.13038
17567,2.46E-03,0.13414
17568,2.47E-03,0.13478
17569,2.46E-03,0.13363
17570,2.46E-03,0.13179
17571,2.48E-03,0.12968
17572,2.48E-03,0.12752
17573,2.48E-03,0.12563
17574,2.49E-03,0.12448
17575,2.50E-03,0.12466
17576,2.51E-03,0.12685
17577,2.54E-03,0.13178
17578,2.53E-03,0.13897
17579,2.53E-03,0.14623
17580,2.55E-03,0.15256
17581,2.55E-03,0.15812
17582,2.55E-03,0.16244
17583,2.54E-03,0.16507
17584,2.53E-03,0.16606
17585,2.51E-03,0.16575
17586,2.50E-03,0.16434
17587,2.49E-03,0.1619
17588,2.51E-03,0.15882
17589,2.54E-03,0.15657
17590,2.57E-03,0.15732
17591,2.58E-03,0.16216
17592,2.54E-03,0.1706
17593,2.47E-03,0.18136
17594,2.39E-03,0.19005
17595,2.35E-03,0.18827
17596,2.36E-03,0.17268
17597,2.38E-03,0.15033
17598,2.45E-03,0.12946
17599,2.51E-03,0.1138
17600,2.53E-03,0.10504
17601,2.52E-03,0.10347
17602,2.50E-03,0.1072
17603,2.48E-03,0.11353
17604,2.46E-03,0.1202
17605,2.44E-03,0.12477
17606,2.44E-03,0.12513
17607,2.43E-03,0.12167
17608,2.45E-03,0.11667
17609,2.49E-03,0.11294
17610,2.51E-03,0.11366
17611,2.46E-03,0.11967
17612,2.39E-03,0.12681
17613,2.35E-03,0.12968
17614,2.36E-03,0.12684
17615,2.39E-03,0.12038
17616,2.42E-03,0.11581
17617,2.43E-03,0.11681
17618,2.44E-03,0.12332
17619,2.42E-03,0.13522
17620,2.39E-03,0.15284
17621,2.35E-03,0.1767
17622,2.32E-03,0.20641
17623,2.31E-03,0.23997
17624,2.31E-03,0.27329
17625,2.24E-03,0.29522
17626,2.25E-03,0.31625
17627,2.40E-03,0.43403
17628,2.48E-03,0.71834
17629,2.11E-03,8.96E-03
17630,2.31E-03,8.84E-03
17631,2.73E-03,8.72E-03
17632,2.99E-03,8.59E-03
17633,2.70E-03,8.48E-03
17634,2.42E-03,8.41E-03
17640,2.33E-03,7.81E-05
17641,2.33E-03,6.87E-05
17642,1.90E-03,6.75E-05
17643,2.18E-03,8.06E-05
17644,1.58E-03,8.94E-05
17645,1.57E-03,5.87E-05
17646,1.68E-03,4.67E-04
17647,1.84E-03,4.83E-04
17648,1.99E-03,5.12E-04
17649,2.05E-03,5.56E-04
17650,2.06E-03,6.07E-04
17651,2.13E-03,6.87E-04
17652,2.22E-03,7.36E-04
17653,2.45E-03,7.78E-04
17654,2.87E-03,8.17E-04
17655,2.96E-03,1.27E-03
17656,2.22E-03,1.28E-03
17657,2.65E-03,1.20E-03
17658,2.64E-03,1.13E-03
17659,2.60E-03,1.08E-03
17660,2.53E-03,1.03E-03
17661,2.46E-03,9.83E-04
17662,2.40E-03,9.45E-04
17663,2.29E-03,9.11E-04
17664,2.12E-03,8.80E-04
17665,2.02E-03,8.53E-04
17666,1.83E-03,8.43E-04
17667,2.01E-03,8.50E-04
17668,1.76E-03,8.83E-04
17669,2.29E-03,9.16E-04
17670,2.26E-03,9.55E-04
17671,2.30E-03,9.97E-04
17672,2.38E-03,1.04E-03
17673,2.44E-03,1.09E-03
17674,2.51E-03,1.14E-03
17675,2.56E-03,1.20E-03
17676,2.61E-03,1.27E-03
17677,2.70E-03,1.34E-03
17678,3.16E-03,1.41E-03
17679,3.00E-03,1.39E-03
17680,3.15E-03,1.49E-03
17681,2.46E-03,7.12E-05
17682,2.69E-03,6.90E-05
17683,2.27E-03,7.38E-05
17684,2.06E-03,7.71E-05
17685,2.17E-03,5.22E-05
17686,2.87E-03,4.97E-05
17687,3.16E-03,5.28E-05
17688,2.09E-03,5.36E-05
17689,1.61E-03,5.46E-05
17690,1.69E-03,5.82E-05
17691,1.93E-03,1.02E-04
17692,2.00E-03,1.09E-04
17693,2.51E-03,1.44E-04
17694,1.96E-03,1.84E-04
17695,1.65E-03,2.19E-04
17696,1.49E-03,2.50E-04
17697,1.38E-03,2.81E-04
17698,1.31E-03,3.14E-04
17699,1.28E-03,3.47E-04
17700,1.30E-03,3.79E-04
17701,1.38E-03,4.07E-04
17702,1.52E-03,4.31E-04
17703,1.71E-03,4.51E-04
17704,1.94E-03,4.68E-04
17705,2.21E-03,4.80E-04
17706,1.72E-03,4.78E-04
17707,1.31E-03,4.56E-04
17708,1.58E-03,4.21E-04
17709,1.94E-03,4.10E-04
17710,2.08E-03,4.33E-04
17711,2.10E-03,4.88E-04
17712,1.86E-03,5.62E-04
17713,1.80E-03,6.51E-04
17714,1.87E-03,7.21E-04
17715,2.19E-03,7.61E-04
17716,2.41E-03,7.88E-04
17717,2.79E-03,8.02E-04
17718,2.52E-03,8.01E-04
17719,2.08E-03,7.96E-04
17720,2.11E-03,8.02E-04
17721,2.31E-03,8.17E-04
17722,2.42E-03,8.40E-04
17723,2.51E-03,8.69E-04
17724,2.58E-03,9.05E-04
17725,2.64E-03,9.46E-04
17726,2.67E-03,9.91E-04
17727,2.66E-03,1.04E-03
17728,2.59E-03,1.09E-03
17729,1.92E-03,1.16E-03
17730,2.08E-03,1.26E-03
17731,3.11E-03,1.33E-03
17732,2.15E-03,1.39E-03
17733,2.13E-03,1.48E-03
17734,3.01E-03,1.53E-03
17735,2.47E-03,1.59E-03
17736,2.76E-03,7.44E-05
17737,1.34E-03,1.48E-03
17738,2.63E-03,1.07E-04
17739,1.45E-03,1.54E-04
17741,2.20E-03,9.04E-03
17742,2.09E-03,9.38E-03
17743,2.09E-03,9.72E-03
17744,2.06E-03,1.00E-02
17745,2.06E-03,1.03E-02
17746,2.09E-03,1.05E-02
17747,2.12E-03,1.08E-02
17748,2.16E-03,1.10E-02
17749,2.19E-03,1.11E-02
17750,2.25E-03,1.12E-02
17751,2.31E-03,1.12E-02
17752,2.39E-03,1.12E-02
17753,2.49E-03,1.11E-02
17754,2.58E-03,1.09E-02
17755,2.87E-03,1.08E-02
17756,2.28E-03,1.08E-02
17757,2.13E-03,1.06E-02
17758,1.89E-03,1.09E-02
17759,2.26E-03,8.47E-03
17760,1.96E-03,1.06E-02
17761,2.05E-03,1.10E-02
17762,2.16E-03,8.00E-03
17763,2.16E-03,7.59E-03
17764,2.30E-03,7.20E-03
17765,2.35E-03,6.85E-03
17766,2.40E-03,6.56E-03
17767,2.39E-03,6.35E-03
17768,2.39E-03,6.22E-03
17769,2.34E-03,6.12E-03
17770,2.30E-03,6.03E-03
17771,2.27E-03,5.89E-03
17772,2.28E-03,5.67E-03
17773,2.33E-03,5.38E-03
17774,2.38E-03,5.03E-03
17775,2.46E-03,4.67E-03
17776,2.54E-03,4.34E-03
17777,2.61E-03,4.06E-03
17778,2.67E-03,3.83E-03
17779,2.69E-03,3.64E-03
17780,2.68E-03,3.50E-03
17781,2.65E-03,3.40E-03
17782,2.60E-03,3.31E-03
17783,2.54E-03,3.24E-03
17784,2.48E-03,3.16E-03
17785,2.44E-03,3.07E-03
17786,2.42E-03,2.95E-03
17787,2.41E-03,2.81E-03
17788,2.43E-03,2.66E-03
17789,2.45E-03,2.50E-03
17790,2.48E-03,2.35E-03
17791,2.53E-03,2.21E-03
17792,2.56E-03,2.07E-03
17793,2.61E-03,1.95E-03
17794,2.69E-03,1.84E-03
17795,2.82E-03,1.71E-03
17796,2.58E-03,1.63E-03
17797,2.66E-03,1.72E-03
17798,2.61E-03,1.83E-03
17799,2.58E-03,1.95E-03
17800,2.55E-03,2.10E-03
17801,2.49E-03,2.26E-03
17802,2.45E-03,2.45E-03
17803,2.42E-03,2.65E-03
17804,2.40E-03,2.85E-03
17805,2.40E-03,3.00E-03
17806,2.42E-03,3.11E-03
17807,2.47E-03,3.16E-03
17808,2.52E-03,3.17E-03
17809,2.60E-03,3.15E-03
17810,2.68E-03,3.13E-03
17811,2.73E-03,3.15E-03
17812,2.74E-03,3.24E-03
17813,2.70E-03,3.43E-03
17814,2.64E-03,3.71E-03
17815,2.55E-03,4.08E-03
17816,2.46E-03,4.52E-03
17817,2.36E-03,5.04E-03
17818,2.28E-03,5.62E-03
17819,2.22E-03,6.08E-03
17820,2.23E-03,6.27E-03
17821,2.29E-03,6.24E-03
17822,2.35E-03,6.12E-03
17823,2.41E-03,6.00E-03
17824,2.45E-03,5.96E-03
17825,2.44E-03,6.08E-03
17826,2.38E-03,6.45E-03
17827,2.29E-03,6.99E-03
17828,2.20E-03,7.54E-03
17829,2.21E-03,8.08E-03
17830,1.94E-03,8.55E-03
17831,1.83E-03,8.97E-03
17832,1.81E-03,9.54E-03
17833,2.06E-03,9.85E-03
17834,2.07E-03,1.01E-02
17835,2.07E-03,1.04E-02
17836,2.08E-03,1.07E-02
17837,2.09E-03,1.10E-02
17838,2.10E-03,1.13E-02
17839,2.15E-03,1.15E-02
17840,2.18E-03,1.17E-02
17841,2.23E-03,1.19E-02
17842,2.28E-03,1.19E-02
17843,2.36E-03,1.17E-02
17844,2.46E-03,1.14E-02
17845,2.59E-03,1.10E-02
17846,2.71E-03,1.06E-02
17847,2.54E-03,1.03E-02
17848,2.18E-03,1.00E-02
17849,2.10E-03,1.12E-02
17850,2.21E-03,1.10E-02
17851,2.41E-03,1.09E-02
17852,2.61E-03,1.09E-02
17853,2.67E-03,1.08E-02
17854,2.53E-03,1.08E-02
17855,2.41E-03,1.08E-02
17856,2.31E-03,1.07E-02
17857,2.24E-03,1.07E-02
17858,2.17E-03,1.06E-02
17859,2.13E-03,1.05E-02
17860,2.09E-03,1.03E-02
17861,2.07E-03,1.01E-02
17862,2.07E-03,9.91E-03
17863,2.06E-03,9.65E-03
17864,2.08E-03,9.36E-03
17865,2.13E-03,9.06E-03
17866,2.37E-03,8.69E-03
17867,2.40E-03,8.44E-03
17868,2.21E-03,8.02E-03
17869,2.22E-03,7.68E-03
17870,2.28E-03,7.37E-03
17871,2.32E-03,7.10E-03
17872,2.39E-03,6.85E-03
17873,2.39E-03,6.60E-03
17874,2.38E-03,6.37E-03
17875,2.33E-03,6.15E-03
17876,2.28E-03,5.94E-03
17877,2.25E-03,5.72E-03
17878,2.26E-03,5.50E-03
17879,2.30E-03,5.29E-03
17880,2.36E-03,5.06E-03
17881,2.45E-03,4.82E-03
17882,2.56E-03,4.58E-03
17883,2.64E-03,4.35E-03
17884,2.69E-03,4.14E-03
17885,2.72E-03,3.95E-03
17886,2.72E-03,3.77E-03
17887,2.68E-03,3.61E-03
17888,2.62E-03,3.46E-03
17889,2.56E-03,3.33E-03
17890,2.50E-03,3.21E-03
17891,2.45E-03,3.09E-03
17892,2.41E-03,2.96E-03
17893,2.40E-03,2.84E-03
17894,2.41E-03,2.71E-03
17895,2.43E-03,2.58E-03
17896,2.46E-03,2.44E-03
17897,2.50E-03,2.31E-03
17898,2.54E-03,2.19E-03
17899,2.60E-03,2.07E-03
17900,2.68E-03,1.95E-03
17901,2.94E-03,1.83E-03
17902,2.00E-03,1.74E-03
17903,1.54E-03,1.67E-03
17904,1.96E-03,1.65E-03
17905,2.88E-03,1.59E-03
17906,2.47E-03,1.54E-03
17907,2.13E-03,9.99E-03
17908,2.11E-03,1.07E-02
17909,2.07E-03,1.12E-02
17910,2.08E-03,1.14E-02
17912,6.34E-04,1.15E-02
17914,2.96E-03,5.84E-03
17915,2.89E-03,5.47E-03
17916,2.44E-03,5.27E-03
17917,2.40E-03,5.05E-03
17918,2.28E-03,4.83E-03
17919,2.46E-03,5.70E-03
17920,2.18E-03,5.59E-03
17921,2.15E-03,5.05E-03
17922,3.02E-03,5.54E-03
17923,2.77E-03,6.04E-03
17924,2.79E-03,5.99E-03
17925,1.65E-03,6.30E-03
17926,1.77E-03,6.36E-03
17927,1.95E-03,6.65E-03
17928,2.37E-03,7.29E-03
17929,3.23E-03,6.73E-03
17930,2.47E-03,6.24E-03
17931,2.44E-03,6.09E-03
17932,2.56E-03,6.13E-03
17933,2.41E-03,6.19E-03
17934,2.18E-03,6.23E-03
17935,2.07E-03,4.65E-03
17936,2.24E-03,5.18E-03
17937,2.01E-03,6.21E-03
17938,2.06E-03,5.41E-03
17939,2.03E-03,4.84E-03
17940,1.89E-03,4.47E-03
17957,2.27E-03,3.68E-02
17958,1.75E-03,3.69E-02
17959,1.72E-03,3.60E-02
17960,3.15E-03,1.91E-02
17961,3.64E-03,1.82E-02
17962,3.70E-03,1.85E-02
17963,3.37E-03,2.19E-02
17964,3.69E-03,2.29E-02
17965,2.69E-03,1.48E-02
17966,2.97E-03,1.50E-02
17967,2.69E-03,1.68E-02
17968,3.00E-03,1.71E-02
17969,2.77E-03,1.74E-02
17970,2.95E-03,1.75E-02
17971,3.06E-03,1.74E-02
17972,1.92E-03,1.11E-02
17973,1.90E-03,1.13E-02
17974,2.72E-03,1.17E-02
17975,1.60E-03,1.80E-02
17976,1.64E-03,1.84E-02
17977,1.77E-03,1.82E-02
17978,1.62E-03,2.02E-02
17979,1.49E-03,1.93E-02
17980,1.55E-03,1.99E-02
17981,1.86E-03,4.25E-02
17982,1.88E-03,4.20E-02
17983,1.77E-03,4.40E-02
17984,1.52E-03,3.09E-02
17985,1.37E-03,3.03E-02
17986,1.29E-03,3.13E-02
17987,2.69E-03,1.55E-02
17988,2.50E-03,1.58E-02
17989,2.73E-03,1.56E-02
17990,2.99E-03,1.52E-02
17991,2.23E-03,9.99E-03
17992,2.27E-03,1.01E-02
17993,2.35E-03,1.07E-02
17994,2.07E-03,1.06E-02
17995,2.72E-03,2.15E-02
17996,2.83E-03,2.27E-02
17997,3.62E-03,2.43E-02
17998,2.88E-03,2.52E-02
17999,2.55E-03,4.52E-02
18000,2.88E-03,5.38E-02
18001,2.44E-03,1.46E-02
18002,2.32E-03,1.48E-02
18003,2.23E-03,1.30E-02
18004,2.27E-03,1.29E-02
18005,2.35E-03,1.28E-02
18006,2.87E-03,1.85E-02
18007,3.38E-03,1.91E-02
18008,3.22E-03,1.89E-02
18009,2.39E-03,1.58E-02
18010,2.42E-03,1.58E-02
18011,2.85E-03,2.79E-02
18012,2.54E-03,2.85E-02
18013,2.06E-03,1.49E-02
18014,2.51E-03,1.45E-02
18015,2.56E-03,1.43E-02
18016,2.71E-03,1.42E-02
18017,2.50E-03,1.40E-02
18018,2.46E-03,1.39E-02
18019,2.29E-03,1.54E-02
18020,2.26E-03,1.57E-02
18021,2.47E-03,1.60E-02
18022,2.44E-03,1.43E-02
18023,2.37E-03,1.44E-02
18024,2.22E-03,1.46E-02
18025,2.65E-03,1.52E-02
18026,2.86E-03,1.54E-02
18027,2.27E-03,1.51E-02
18028,2.27E-03,1.52E-02
18029,2.45E-03,1.48E-02
18030,2.37E-03,1.49E-02
18031,2.46E-03,1.39E-02
18032,2.95E-03,1.45E-02
18033,2.59E-03,1.46E-02
18034,2.46E-03,1.42E-02
18035,2.38E-03,1.59E-02
18036,2.38E-03,1.55E-02
18037,1.90E-03,1.37E-02
18038,2.35E-03,1.63E-02
18039,2.35E-03,1.62E-02
18040,2.48E-03,1.59E-02
18041,3.19E-03,1.43E-02
18042,2.35E-03,1.36E-02
18043,2.42E-03,1.37E-02
18044,2.46E-03,1.61E-02
18045,2.56E-03,1.57E-02
18046,2.69E-03,1.49E-02
18047,2.24E-03,1.49E-02
18048,2.35E-03,1.64E-02
18049,2.42E-03,1.43E-02
18050,2.41E-03,1.41E-02
18051,1.99E-03,1.36E-02
18052,2.24E-03,1.67E-02
18053,2.74E-03,1.64E-02
18054,2.51E-03,1.66E-02
18055,2.29E-03,1.65E-02
18056,2.50E-03,1.56E-02
18057,2.50E-03,1.58E-02
18058,2.36E-03,1.53E-02
18059,2.38E-03,1.55E-02
18060,2.46E-03,1.51E-02
18061,2.39E-03,1.52E-02
18062,2.61E-03,1.48E-02
18063,2.52E-03,1.49E-02
18064,2.00E-03,1.46E-02
18065,1.70E-03,1.46E-02
18066,2.02E-03,1.44E-02
18067,2.76E-03,1.47E-02
18068,2.73E-03,1.39E-02
18069,2.73E-03,1.42E-02
18070,2.27E-03,1.33E-02
18071,2.29E-03,1.32E-02
18072,2.60E-03,1.35E-02
18073,2.74E-03,1.46E-02
18074,3.03E-03,1.48E-02
18075,2.30E-03,1.34E-02
18076,2.43E-03,1.40E-02
18077,2.44E-03,1.38E-02
18078,2.57E-03,1.44E-02
18079,2.26E-03,1.61E-02
18080,2.48E-03,1.59E-02
18081,2.16E-03,1.65E-02
18082,2.39E-03,1.51E-02
18083,2.25E-03,1.70E-02
18084,2.02E-03,1.70E-02
18085,2.30E-03,1.66E-02
18086,2.39E-03,1.65E-02
18087,2.41E-03,1.63E-02
18088,2.11E-03,1.49E-02
18089,2.12E-03,1.48E-02
18090,2.40E-03,1.32E-02
18091,2.43E-03,1.34E-02
18092,2.45E-03,1.38E-02
18093,2.43E-03,1.39E-02
18094,3.22E-03,1.78E-02
18095,2.35E-03,1.67E-02
18096,2.52E-03,1.44E-02
18097,2.42E-03,1.46E-02
18098,2.40E-03,1.31E-02
18099,2.43E-03,1.53E-02
18100,2.46E-03,1.36E-02
18101,2.72E-03,1.71E-02
18102,2.63E-03,1.71E-02
18103,2.27E-03,1.68E-02
18104,2.43E-03,1.59E-02
18105,2.44E-03,1.61E-02
18106,2.38E-03,1.56E-02
18107,2.39E-03,1.58E-02
18108,2.43E-03,1.53E-02
18109,2.40E-03,1.55E-02
18110,2.48E-03,1.51E-02
18111,2.46E-03,1.52E-02
18112,2.33E-03,1.50E-02
18113,2.20E-03,1.47E-02
18114,2.30E-03,1.43E-02
18115,2.24E-03,1.45E-02
18116,2.57E-03,1.38E-02
18117,2.46E-03,1.40E-02
18118,2.48E-03,1.34E-02
18119,2.59E-03,1.42E-02
18120,2.62E-03,1.43E-02
18121,2.31E-03,1.31E-02
18122,2.42E-03,1.35E-02
18123,2.51E-03,1.40E-02
18124,2.49E-03,1.58E-02
18125,2.42E-03,1.55E-02
18126,2.58E-03,1.63E-02
18127,2.47E-03,1.60E-02
18128,2.63E-03,1.69E-02
18129,2.68E-03,1.66E-02
18130,2.06E-03,1.75E-02
18131,2.49E-03,1.71E-02
18132,2.64E-03,1.83E-02
18133,2.52E-03,1.80E-02
18134,2.29E-03,1.74E-02
18135,2.33E-03,1.73E-02
18136,2.33E-03,1.69E-02
18137,2.39E-03,1.68E-02
18138,2.39E-03,1.66E-02
18139,2.32E-03,1.26E-02
18140,2.31E-03,1.27E-02
18141,2.43E-03,1.29E-02
18142,2.55E-03,1.30E-02
18143,2.37E-03,1.47E-02
18144,2.44E-03,1.31E-02
18145,2.40E-03,1.28E-02
18146,2.37E-03,1.70E-02
18147,2.14E-03,1.85E-02
18148,2.27E-03,1.46E-02
18149,2.50E-03,1.33E-02
18150,2.19E-03,1.78E-02
18151,2.44E-03,1.34E-02
18152,2.45E-03,1.35E-02
18153,2.27E-03,1.49E-02
18154,2.34E-03,1.25E-02
18155,2.23E-03,1.50E-02
18156,3.19E-03,1.75E-02
18157,2.94E-03,1.77E-02
18158,2.61E-03,1.75E-02
18159,2.24E-03,1.71E-02
18160,2.38E-03,1.62E-02
18161,2.39E-03,1.64E-02
18162,2.40E-03,1.59E-02
18163,2.40E-03,1.60E-02
18164,2.42E-03,1.56E-02
18165,2.40E-03,1.57E-02
18166,2.38E-03,1.54E-02
18167,2.42E-03,1.55E-02
18168,2.21E-03,1.52E-02
18169,2.31E-03,1.53E-02
18170,2.20E-03,1.51E-02
18171,2.38E-03,1.42E-02
18172,2.31E-03,1.44E-02
18173,2.47E-03,1.36E-02
18174,2.45E-03,1.39E-02
18175,2.47E-03,1.34E-02
18176,2.51E-03,1.38E-02
18177,2.47E-03,1.40E-02
18178,2.51E-03,1.39E-02
18179,2.35E-03,1.28E-02
18180,2.54E-03,1.32E-02
18181,2.47E-03,1.37E-02
18182,2.42E-03,1.53E-02
18183,2.40E-03,1.49E-02
18184,2.43E-03,1.51E-02
18185,2.47E-03,1.58E-02
18186,2.44E-03,1.55E-02
18187,2.54E-03,1.63E-02
18188,2.53E-03,1.61E-02
18189,2.61E-03,1.69E-02
18190,2.49E-03,1.66E-02
18191,2.90E-03,1.74E-02
18192,2.35E-03,1.24E-02
18193,2.71E-03,1.76E-02
18194,2.55E-03,1.83E-02
18195,2.87E-03,1.87E-02
18196,2.60E-03,1.84E-02
18197,2.32E-03,1.78E-02
18198,2.23E-03,1.76E-02
18199,2.35E-03,1.72E-02
18200,2.35E-03,1.70E-02
18201,2.34E-03,1.68E-02
18202,2.25E-03,1.52E-02
18203,2.28E-03,1.51E-02
18204,2.45E-03,1.25E-02
18205,2.72E-03,1.27E-02
18206,2.40E-03,1.30E-02
18207,2.46E-03,1.29E-02
18208,2.41E-03,1.32E-02
18209,2.42E-03,1.41E-02
18210,2.16E-03,1.88E-02
18211,2.38E-03,1.73E-02
18212,2.35E-03,1.22E-02
18213,2.36E-03,1.21E-02
18214,2.70E-03,1.90E-02
18215,2.34E-03,1.23E-02
18216,2.31E-03,1.23E-02
18217,2.03E-03,1.77E-02
18218,2.68E-03,1.82E-02
18219,2.87E-03,1.82E-02
18220,2.63E-03,1.80E-02
18221,2.68E-03,1.82E-02
18222,2.59E-03,1.79E-02
18223,2.34E-03,1.74E-02
18224,2.38E-03,1.65E-02
18225,2.37E-03,1.66E-02
18226,2.38E-03,1.61E-02
18227,2.38E-03,1.63E-02
18228,2.38E-03,1.59E-02
18229,2.38E-03,1.60E-02
18230,2.36E-03,1.56E-02
18231,2.39E-03,1.57E-02
18232,2.25E-03,1.54E-02
18233,2.31E-03,1.55E-02
18234,2.25E-03,1.53E-02
18235,2.29E-03,1.50E-02
18236,2.29E-03,1.46E-02
18237,2.29E-03,1.48E-02
18238,2.37E-03,1.41E-02
18239,2.32E-03,1.43E-02
18240,2.45E-03,1.35E-02
18241,2.41E-03,1.38E-02
18242,2.43E-03,1.30E-02
18243,2.46E-03,1.33E-02
18244,2.40E-03,1.24E-02
18245,2.42E-03,1.27E-02
18246,2.46E-03,1.34E-02
18247,2.49E-03,1.36E-02
18248,2.50E-03,1.35E-02
18249,2.33E-03,1.24E-02
18250,2.71E-03,1.28E-02
18251,2.42E-03,1.33E-02
18252,2.44E-03,1.44E-02
18253,2.43E-03,1.43E-02
18254,2.44E-03,1.48E-02
18255,2.45E-03,1.46E-02
18256,2.49E-03,1.53E-02
18257,2.46E-03,1.50E-02
18258,2.53E-03,1.58E-02
18259,2.51E-03,1.55E-02
18260,2.64E-03,1.64E-02
18261,2.56E-03,1.61E-02
18262,2.57E-03,1.69E-02
18263,2.73E-03,1.67E-02
18264,2.14E-03,1.74E-02
18265,2.08E-03,1.70E-02
18266,3.25E-03,1.79E-02
18267,3.00E-03,1.86E-02
18268,2.34E-03,1.89E-02
18269,1.98E-03,1.90E-02
18270,2.38E-03,1.88E-02
18271,2.51E-03,1.81E-02
18272,2.39E-03,1.79E-02
18273,2.38E-03,1.75E-02
18274,2.32E-03,1.73E-02
18275,2.32E-03,1.71E-02
18276,2.39E-03,1.21E-02
18277,2.32E-03,1.19E-02
18278,2.33E-03,1.19E-02
18279,2.31E-03,1.20E-02
18280,2.28E-03,1.26E-02
18281,2.35E-03,1.27E-02
18282,2.48E-03,1.37E-02
18283,1.92E-03,1.87E-02
18284,2.74E-03,1.79E-02
18285,2.39E-03,1.93E-02
18286,2.35E-03,1.75E-02
18287,1.87E-03,1.94E-02
18288,2.51E-03,1.95E-02
18289,2.32E-03,1.52E-02
18290,2.32E-03,1.49E-02
18291,2.34E-03,1.51E-02
18292,1.61E-03,1.93E-02
18293,2.77E-03,1.86E-02
18294,2.80E-03,1.88E-02
18295,3.37E-03,1.86E-02
18296,2.68E-03,1.89E-02
18297,2.43E-03,1.84E-02
18298,2.49E-03,1.85E-02
18299,2.49E-03,1.82E-02
18300,2.37E-03,1.77E-02
18301,2.35E-03,1.67E-02
18302,2.33E-03,1.69E-02
18303,2.39E-03,1.64E-02
18304,2.37E-03,1.65E-02
18305,2.37E-03,1.61E-02
18306,2.39E-03,1.62E-02
18307,2.33E-03,1.58E-02
18308,2.38E-03,1.60E-02
18309,2.29E-03,1.56E-02
18310,2.32E-03,1.57E-02
18311,2.30E-03,1.54E-02
18312,2.28E-03,1.55E-02
18313,2.31E-03,1.53E-02
18314,2.34E-03,1.45E-02
18315,2.31E-03,1.47E-02
18316,2.38E-03,1.40E-02
18317,2.35E-03,1.42E-02
18318,2.46E-03,1.35E-02
18319,2.42E-03,1.37E-02
18320,2.47E-03,1.29E-02
18321,2.46E-03,1.32E-02
18322,2.44E-03,1.23E-02
18323,2.45E-03,1.26E-02
18324,2.38E-03,1.18E-02
18325,2.44E-03,1.17E-02
18326,2.43E-03,1.20E-02
18327,2.43E-03,1.30E-02
18328,2.48E-03,1.31E-02
18329,2.47E-03,1.30E-02
18330,2.35E-03,1.18E-02
18331,2.31E-03,1.22E-02
18332,2.28E-03,1.21E-02
18333,2.60E-03,1.23E-02
18334,2.61E-03,1.24E-02
18335,2.37E-03,1.28E-02
18336,2.38E-03,1.29E-02
18337,2.46E-03,1.40E-02
18338,2.47E-03,1.38E-02
18339,2.45E-03,1.43E-02
18340,2.45E-03,1.41E-02
18341,2.48E-03,1.48E-02
18342,2.47E-03,1.45E-02
18343,2.52E-03,1.52E-02
18344,2.51E-03,1.50E-02
18345,2.61E-03,1.57E-02
18346,2.56E-03,1.55E-02
18347,2.56E-03,1.62E-02
18348,2.62E-03,1.60E-02
18349,2.42E-03,1.69E-02
18350,2.53E-03,1.65E-02
18351,2.91E-03,1.78E-02
18352,2.44E-03,1.94E-02
18353,2.27E-03,1.91E-02
18354,2.63E-03,1.84E-02
18355,2.50E-03,1.82E-02
18356,2.40E-03,1.77E-02
18357,2.30E-03,1.75E-02
18358,2.31E-03,1.73E-02
18359,2.32E-03,1.15E-02
18360,2.30E-03,1.16E-02
18361,2.49E-03,1.32E-02
18362,2.45E-03,1.97E-02
18363,2.38E-03,1.77E-02
18364,2.00E-03,1.96E-02
18365,2.03E-03,1.98E-02
18366,2.38E-03,1.14E-02
18367,2.44E-03,1.14E-02
18368,2.34E-03,1.54E-02
18369,2.35E-03,1.54E-02
18370,2.34E-03,1.48E-02
18371,2.35E-03,1.51E-02
18372,3.19E-03,1.80E-02
18373,2.62E-03,1.80E-02
18374,2.52E-03,1.90E-02
18375,2.49E-03,1.93E-02
18376,2.95E-03,1.93E-02
18377,2.68E-03,1.94E-02
18378,2.81E-03,1.94E-02
18379,2.77E-03,1.94E-02
18380,2.61E-03,1.95E-02
18381,2.37E-03,1.87E-02
18382,2.31E-03,1.89E-02
18383,2.41E-03,1.85E-02
18384,2.43E-03,1.80E-02
18385,2.34E-03,1.69E-02
18386,2.32E-03,1.71E-02
18387,2.40E-03,1.66E-02
18388,2.36E-03,1.67E-02
18389,2.39E-03,1.63E-02
18390,2.41E-03,1.64E-02
18391,2.36E-03,1.60E-02
18392,2.37E-03,1.62E-02
18393,2.33E-03,1.58E-02
18394,2.34E-03,1.59E-02
18395,2.32E-03,1.56E-02
18396,2.32E-03,1.57E-02
18397,2.33E-03,1.55E-02
18398,2.35E-03,1.44E-02
18399,2.33E-03,1.46E-02
18400,2.42E-03,1.39E-02
18401,2.38E-03,1.41E-02
18402,2.46E-03,1.34E-02
18403,2.44E-03,1.36E-02
18404,2.47E-03,1.28E-02
18405,2.47E-03,1.31E-02
18406,2.48E-03,1.23E-02
18407,2.46E-03,1.25E-02
18408,2.46E-03,1.17E-02
18409,2.47E-03,1.20E-02
18410,2.41E-03,1.25E-02
18411,2.51E-03,1.27E-02
18412,2.46E-03,1.26E-02
18413,2.35E-03,1.15E-02
18414,2.20E-03,1.18E-02
18415,2.27E-03,1.16E-02
18416,2.24E-03,1.17E-02
18417,2.07E-03,1.20E-02
18418,2.10E-03,1.18E-02
18419,2.23E-03,1.22E-02
18420,2.13E-03,1.21E-02
18421,2.34E-03,1.24E-02
18422,2.30E-03,1.23E-02
18423,2.35E-03,1.24E-02
18424,2.47E-03,1.35E-02
18425,2.49E-03,1.33E-02
18426,2.43E-03,1.38E-02
18427,2.45E-03,1.36E-02
18428,2.47E-03,1.42E-02
18429,2.46E-03,1.40E-02
18430,2.53E-03,1.47E-02
18431,2.50E-03,1.44E-02
18432,2.58E-03,1.51E-02
18433,2.55E-03,1.49E-02
18434,2.59E-03,1.56E-02
18435,2.61E-03,1.54E-02
18436,2.66E-03,1.63E-02
18437,2.67E-03,1.59E-02
18438,2.93E-03,1.68E-02
18439,2.82E-03,1.65E-02
18440,3.09E-03,1.74E-02
18441,2.82E-03,1.70E-02
18442,2.90E-03,1.78E-02
18443,2.57E-03,1.85E-02
18444,2.59E-03,1.99E-02
18445,2.08E-03,1.94E-02
18446,2.50E-03,1.87E-02
18447,2.39E-03,1.80E-02
18448,2.21E-03,2.00E-02
18449,2.27E-03,1.75E-02
18450,2.23E-03,1.77E-02
18451,2.45E-03,1.14E-02
18452,2.54E-03,1.28E-02
18453,2.36E-03,1.53E-02
18454,2.48E-03,1.95E-02
18455,2.87E-03,1.99E-02
18456,2.53E-03,1.98E-02
18457,2.86E-03,1.99E-02
18458,2.85E-03,1.99E-02
18459,2.83E-03,2.01E-02
18460,2.76E-03,2.00E-02
18461,2.72E-03,2.01E-02
18462,2.74E-03,2.01E-02
18463,2.79E-03,2.01E-02
18464,2.26E-03,1.90E-02
18465,2.22E-03,1.92E-02
18466,2.32E-03,1.88E-02
18467,2.37E-03,1.84E-02
18468,2.36E-03,1.82E-02
18469,2.34E-03,1.71E-02
18470,2.30E-03,1.73E-02
18471,2.41E-03,1.68E-02
18472,2.39E-03,1.69E-02
18473,2.40E-03,1.65E-02
18474,2.43E-03,1.66E-02
18475,2.40E-03,1.63E-02
18476,2.39E-03,1.64E-02
18477,2.36E-03,1.60E-02
18478,2.38E-03,1.61E-02
18479,2.35E-03,1.58E-02
18480,2.35E-03,1.59E-02
18481,2.36E-03,1.57E-02
18482,2.35E-03,1.57E-02
18483,2.34E-03,1.55E-02
18484,2.34E-03,1.56E-02
18485,2.36E-03,1.52E-02
18486,2.37E-03,1.47E-02
18487,2.35E-03,1.50E-02
18488,2.38E-03,1.43E-02
18489,2.38E-03,1.45E-02
18490,2.44E-03,1.38E-02
18491,2.40E-03,1.40E-02
18492,2.47E-03,1.33E-02
18493,2.46E-03,1.35E-02
18494,2.47E-03,1.27E-02
18495,2.47E-03,1.30E-02
18496,2.51E-03,1.22E-02
18497,2.47E-03,1.25E-02
18498,2.49E-03,1.16E-02
18499,2.51E-03,1.19E-02
18500,2.35E-03,1.21E-02
18501,2.44E-03,1.22E-02
18502,3.20E-03,1.86E-02
18503,2.38E-03,2.02E-02
18504,2.20E-03,1.79E-02
18505,2.36E-03,1.54E-02
18506,2.49E-03,1.13E-02
18507,2.44E-03,1.10E-02
18508,2.39E-03,1.11E-02
18509,2.43E-03,1.11E-02
18510,2.31E-03,1.12E-02
18511,2.33E-03,1.11E-02
18512,2.23E-03,1.13E-02
18513,2.27E-03,1.12E-02
18514,2.15E-03,1.14E-02
18515,2.21E-03,1.13E-02
18516,2.19E-03,1.16E-02
18517,2.14E-03,1.15E-02
18518,2.25E-03,1.18E-02
18519,2.20E-03,1.17E-02
18520,2.31E-03,1.19E-02
18521,2.28E-03,1.18E-02
18522,2.32E-03,1.20E-02
18523,2.47E-03,1.30E-02
18524,2.51E-03,1.29E-02
18525,2.44E-03,1.33E-02
18526,2.46E-03,1.31E-02
18527,2.46E-03,1.37E-02
18528,2.45E-03,1.35E-02
18529,2.52E-03,1.41E-02
18530,2.50E-03,1.39E-02
18531,2.57E-03,1.45E-02
18532,2.55E-03,1.43E-02
18533,2.60E-03,1.50E-02
18534,2.61E-03,1.48E-02
18535,2.68E-03,1.55E-02
18536,2.65E-03,1.53E-02
18537,2.75E-03,1.60E-02
18538,2.68E-03,1.58E-02
18539,2.84E-03,1.66E-02
18540,2.85E-03,1.63E-02
18541,2.91E-03,1.70E-02
18542,2.91E-03,1.68E-02
18543,3.18E-03,1.77E-02
18544,2.96E-03,1.73E-02
18545,2.55E-03,1.22E-02
18546,3.01E-03,1.86E-02
18547,2.51E-03,1.87E-02
18548,2.83E-03,1.84E-02
18549,2.85E-03,1.86E-02
18550,2.41E-03,2.05E-02
18551,2.05E-03,2.01E-02
18552,2.07E-03,1.99E-02
18553,2.53E-03,1.81E-02
18554,2.37E-03,1.57E-02
18555,2.36E-03,1.57E-02
18556,2.49E-03,1.10E-02
18557,2.62E-03,1.23E-02
18558,1.98E-03,1.88E-02
18559,3.02E-03,1.97E-02
18560,2.64E-03,1.99E-02
18561,3.10E-03,1.97E-02
18562,3.06E-03,1.97E-02
18563,3.75E-03,1.98E-02
18564,3.32E-03,1.98E-02
18565,2.96E-03,2.03E-02
18566,3.59E-03,2.00E-02
18567,2.78E-03,2.07E-02
18568,2.78E-03,2.05E-02
18569,2.80E-03,2.08E-02
18570,2.79E-03,2.07E-02
18571,2.79E-03,2.08E-02
18572,2.78E-03,2.08E-02
18573,2.80E-03,2.07E-02
18574,2.73E-03,2.07E-02
18575,2.62E-03,2.06E-02
18576,2.18E-03,2.06E-02
18577,2.08E-03,2.03E-02
18578,2.23E-03,1.93E-02
18579,2.10E-03,1.97E-02
18580,2.16E-03,1.95E-02
18581,1.99E-03,1.90E-02
18582,2.21E-03,1.91E-02
18583,2.01E-03,1.86E-02
18584,1.95E-03,1.87E-02
18585,2.26E-03,1.75E-02
18586,2.19E-03,1.71E-02
18587,2.53E-03,1.76E-02
18588,2.03E-03,1.80E-02
18589,1.91E-03,1.82E-02
18590,2.35E-03,1.84E-02
18591,2.27E-03,1.76E-02
18592,2.17E-03,1.78E-02
18593,2.35E-03,1.73E-02
18594,2.31E-03,1.74E-02
18595,2.40E-03,1.70E-02
18596,2.40E-03,1.71E-02
18597,2.41E-03,1.67E-02
18598,2.42E-03,1.68E-02
18599,2.40E-03,1.64E-02
18600,2.40E-03,1.66E-02
18601,2.41E-03,1.62E-02
18602,2.40E-03,1.63E-02
18603,2.39E-03,1.60E-02
18604,2.42E-03,1.61E-02
18605,2.38E-03,1.59E-02
18606,2.37E-03,1.60E-02
18607,2.37E-03,1.58E-02
18608,2.39E-03,1.56E-02
18609,2.39E-03,1.51E-02
18610,2.40E-03,1.54E-02
18611,2.38E-03,1.47E-02
18612,2.37E-03,1.49E-02
18613,2.41E-03,1.42E-02
18614,2.38E-03,1.44E-02
18615,2.47E-03,1.37E-02
18616,2.44E-03,1.39E-02
18617,2.47E-03,1.32E-02
18618,2.47E-03,1.35E-02
18619,2.47E-03,1.27E-02
18620,2.47E-03,1.29E-02
18621,2.49E-03,1.21E-02
18622,2.47E-03,1.24E-02
18623,2.53E-03,1.16E-02
18624,2.52E-03,1.18E-02
18625,2.50E-03,1.10E-02
18626,2.51E-03,1.13E-02
18627,2.49E-03,1.07E-02
18628,2.45E-03,1.07E-02
18629,2.50E-03,1.07E-02
18630,2.39E-03,1.08E-02
18631,2.43E-03,1.08E-02
18632,2.29E-03,1.08E-02
18633,2.32E-03,1.08E-02
18634,2.24E-03,1.09E-02
18635,2.26E-03,1.09E-02
18636,2.21E-03,1.10E-02
18637,2.21E-03,1.10E-02
18638,2.22E-03,1.12E-02
18639,2.20E-03,1.11E-02
18640,2.25E-03,1.14E-02
18641,2.25E-03,1.13E-02
18642,2.27E-03,1.15E-02
18643,2.26E-03,1.14E-02
18644,2.28E-03,1.17E-02
18645,2.29E-03,1.16E-02
18646,2.29E-03,1.17E-02
18647,2.50E-03,1.25E-02
18648,2.55E-03,1.23E-02
18649,2.44E-03,1.28E-02
18650,2.46E-03,1.26E-02
18651,2.45E-03,1.31E-02
18652,2.46E-03,1.30E-02
18653,2.51E-03,1.35E-02
18654,2.49E-03,1.33E-02
18655,2.55E-03,1.39E-02
18656,2.54E-03,1.37E-02
18657,2.59E-03,1.44E-02
18658,2.60E-03,1.42E-02
18659,2.66E-03,1.48E-02
18660,2.65E-03,1.46E-02
18661,2.74E-03,1.53E-02
18662,2.71E-03,1.51E-02
18663,2.82E-03,1.58E-02
18664,2.80E-03,1.56E-02
18665,2.90E-03,1.63E-02
18666,2.84E-03,1.60E-02
18667,3.08E-03,1.68E-02
18668,2.97E-03,1.65E-02
18669,3.07E-03,1.72E-02
18670,3.06E-03,1.71E-02
18671,2.87E-03,1.75E-02
18672,2.95E-03,1.74E-02
18673,2.65E-03,1.75E-02
18674,2.66E-03,2.09E-02
18675,2.08E-03,1.65E-02
18676,2.54E-03,2.11E-02
18677,2.15E-03,2.08E-02
18678,2.19E-03,1.80E-02
18679,2.53E-03,1.09E-02
18680,2.53E-03,1.07E-02
18681,2.86E-03,1.17E-02
18682,2.40E-03,1.55E-02
18683,1.83E-03,1.84E-02
18684,1.62E-03,1.82E-02
18685,2.14E-03,1.81E-02
18686,1.95E-03,2.12E-02
18687,2.16E-03,2.09E-02
18688,3.16E-03,2.09E-02
18689,2.99E-03,2.10E-02
18690,3.15E-03,2.09E-02
18691,3.13E-03,2.09E-02
18692,3.29E-03,2.10E-02
18693,3.22E-03,2.09E-02
18694,3.00E-03,2.13E-02
18695,3.14E-03,2.12E-02
18696,2.83E-03,2.15E-02
18697,2.82E-03,2.14E-02
18698,2.77E-03,2.15E-02
18699,2.75E-03,2.15E-02
18700,2.75E-03,2.14E-02
18701,2.76E-03,2.15E-02
18702,2.73E-03,2.13E-02
18703,2.76E-03,2.14E-02
18704,2.80E-03,2.11E-02
18705,2.05E-03,2.04E-02
18706,2.01E-03,2.07E-02
18707,2.12E-03,2.00E-02
18708,2.08E-03,2.02E-02
18709,2.18E-03,1.95E-02
18710,2.15E-03,1.98E-02
18711,2.10E-03,1.91E-02
18712,2.16E-03,1.93E-02
18713,2.10E-03,1.87E-02
18714,2.07E-03,1.89E-02
18715,2.22E-03,1.86E-02
18716,2.26E-03,1.77E-02
18717,2.23E-03,1.79E-02
18718,2.33E-03,1.74E-02
18719,2.29E-03,1.76E-02
18720,2.41E-03,1.71E-02
18721,2.39E-03,1.73E-02
18722,2.42E-03,1.68E-02
18723,2.44E-03,1.70E-02
18724,2.42E-03,1.66E-02
18725,2.41E-03,1.67E-02
18726,2.43E-03,1.64E-02
18727,2.41E-03,1.65E-02
18728,2.42E-03,1.62E-02
18729,2.44E-03,1.63E-02
18730,2.39E-03,1.61E-02
18731,2.42E-03,1.62E-02
18732,2.38E-03,1.60E-02
18733,2.37E-03,1.60E-02
18734,2.39E-03,1.59E-02
18735,2.39E-03,1.50E-02
18736,2.39E-03,1.53E-02
18737,2.40E-03,1.46E-02
18738,2.39E-03,1.48E-02
18739,2.44E-03,1.41E-02
18740,2.41E-03,1.43E-02
18741,2.47E-03,1.36E-02
18742,2.45E-03,1.39E-02
18743,2.47E-03,1.31E-02
18744,2.47E-03,1.34E-02
18745,2.47E-03,1.26E-02
18746,2.47E-03,1.29E-02
18747,2.47E-03,1.21E-02
18748,2.47E-03,1.23E-02
18749,2.52E-03,1.15E-02
18750,2.49E-03,1.18E-02
18751,2.52E-03,1.12E-02
18752,2.50E-03,1.04E-02
18753,2.46E-03,1.04E-02
18754,2.49E-03,1.04E-02
18755,2.39E-03,1.04E-02
18756,2.43E-03,1.04E-02
18757,2.30E-03,1.05E-02
18758,2.33E-03,1.05E-02
18759,2.22E-03,1.06E-02
18760,2.26E-03,1.05E-02
18761,2.20E-03,1.07E-02
18762,2.21E-03,1.06E-02
18763,2.23E-03,1.08E-02
18764,2.22E-03,1.07E-02
18765,2.26E-03,1.09E-02
18766,2.25E-03,1.09E-02
18767,2.28E-03,1.11E-02
18768,2.27E-03,1.10E-02
18769,2.24E-03,1.12E-02
18770,2.27E-03,1.11E-02
18771,2.21E-03,1.13E-02
18772,2.48E-03,1.20E-02
18773,2.57E-03,1.18E-02
18774,2.42E-03,1.22E-02
18775,2.44E-03,1.21E-02
18776,2.45E-03,1.26E-02
18777,2.47E-03,1.24E-02
18778,2.50E-03,1.29E-02
18779,2.47E-03,1.28E-02
18780,2.55E-03,1.33E-02
18781,2.54E-03,1.31E-02
18782,2.59E-03,1.37E-02
18783,2.57E-03,1.35E-02
18784,2.63E-03,1.41E-02
18785,2.62E-03,1.39E-02
18786,2.70E-03,1.46E-02
18787,2.69E-03,1.44E-02
18788,2.79E-03,1.50E-02
18789,2.79E-03,1.48E-02
18790,2.85E-03,1.55E-02
18791,2.82E-03,1.52E-02
18792,2.94E-03,1.59E-02
18793,2.91E-03,1.57E-02
18794,2.89E-03,1.62E-02
18795,2.96E-03,1.61E-02
18796,2.72E-03,1.64E-02
18797,2.84E-03,1.63E-02
18798,2.55E-03,1.64E-02
18799,2.19E-03,2.00E-02
18800,2.03E-03,1.85E-02
18801,1.86E-03,1.92E-02
18802,2.74E-03,2.16E-02
18803,2.62E-03,2.09E-02
18804,2.53E-03,1.04E-02
18805,2.68E-03,2.23E-02
18806,2.55E-03,2.30E-02
18807,2.06E-03,2.37E-02
18808,1.74E-03,2.14E-02
18809,2.08E-03,2.12E-02
18810,2.39E-03,1.61E-02
18811,2.45E-03,1.60E-02
18812,2.66E-03,1.13E-02
18813,2.24E-03,1.61E-02
18814,2.48E-03,1.56E-02
18815,2.26E-03,1.65E-02
18816,2.51E-03,1.01E-02
18817,2.51E-03,1.01E-02
18818,1.96E-03,1.83E-02
18819,1.98E-03,2.16E-02
18820,2.01E-03,1.85E-02
18821,1.72E-03,2.44E-02
18822,2.40E-03,2.37E-02
18823,1.88E-03,2.56E-02
18824,2.47E-03,2.48E-02
18825,2.01E-03,2.53E-02
18826,2.93E-03,2.36E-02
18827,2.67E-03,2.43E-02
18828,3.67E-03,2.24E-02
18829,3.14E-03,2.22E-02
18830,3.13E-03,2.23E-02
18831,3.12E-03,2.21E-02
18832,3.16E-03,2.21E-02
18833,3.11E-03,2.22E-02
18834,3.14E-03,2.21E-02
18835,2.92E-03,2.23E-02
18836,2.97E-03,2.23E-02
18837,2.81E-03,2.24E-02
18838,2.85E-03,2.24E-02
18839,2.74E-03,2.23E-02
18840,2.76E-03,2.23E-02
18841,2.72E-03,2.21E-02
18842,2.74E-03,2.22E-02
18843,2.64E-03,2.18E-02
18844,2.68E-03,2.19E-02
18845,2.69E-03,2.17E-02
18846,2.06E-03,2.07E-02
18847,2.03E-03,2.10E-02
18848,2.11E-03,2.02E-02
18849,2.09E-03,2.05E-02
18850,2.17E-03,1.97E-02
18851,2.15E-03,2.00E-02
18852,2.14E-03,1.92E-02
18853,2.17E-03,1.95E-02
18854,2.13E-03,1.88E-02
18855,2.12E-03,1.90E-02
18856,2.08E-03,1.87E-02
18857,2.26E-03,1.78E-02
18858,2.05E-03,1.81E-02
18859,2.18E-03,1.80E-02
18860,2.33E-03,1.75E-02
18861,2.29E-03,1.77E-02
18862,2.41E-03,1.72E-02
18863,2.38E-03,1.74E-02
18864,2.42E-03,1.70E-02
18865,2.44E-03,1.71E-02
18866,2.41E-03,1.68E-02
18867,2.41E-03,1.69E-02
18868,2.45E-03,1.66E-02
18869,2.43E-03,1.67E-02
18870,2.45E-03,1.64E-02
18871,2.47E-03,1.65E-02
18872,2.40E-03,1.63E-02
18873,2.42E-03,1.64E-02
18874,2.40E-03,1.62E-02
18875,2.40E-03,1.63E-02
18876,2.41E-03,1.61E-02
18877,2.49E-03,1.59E-02
18878,2.44E-03,1.54E-02
18879,2.45E-03,1.57E-02
18880,2.42E-03,1.50E-02
18881,2.42E-03,1.52E-02
18882,2.43E-03,1.45E-02
18883,2.42E-03,1.47E-02
18884,2.47E-03,1.40E-02
18885,2.45E-03,1.43E-02
18886,2.47E-03,1.35E-02
18887,2.47E-03,1.38E-02
18888,2.47E-03,1.31E-02
18889,2.47E-03,1.33E-02
18890,2.47E-03,1.25E-02
18891,2.47E-03,1.28E-02
18892,2.47E-03,1.20E-02
18893,2.47E-03,1.23E-02
18894,2.51E-03,1.15E-02
18895,2.49E-03,1.17E-02
18896,2.53E-03,1.09E-02
18897,2.53E-03,1.12E-02
18898,2.54E-03,1.03E-02
18899,2.54E-03,1.06E-02
18900,2.46E-03,1.01E-02
18901,2.49E-03,1.01E-02
18902,2.39E-03,1.01E-02
18903,2.43E-03,1.01E-02
18904,2.31E-03,1.01E-02
18905,2.32E-03,1.01E-02
18906,2.22E-03,1.02E-02
18907,2.27E-03,1.02E-02
18908,2.22E-03,1.03E-02
18909,2.22E-03,1.02E-02
18910,2.23E-03,1.04E-02
18911,2.24E-03,1.03E-02
18912,2.26E-03,1.05E-02
18913,2.25E-03,1.04E-02
18914,2.29E-03,1.06E-02
18915,2.29E-03,1.06E-02
18916,2.25E-03,1.08E-02
18917,2.27E-03,1.07E-02
18918,1.81E-03,1.09E-02
18919,2.28E-03,1.08E-02
18920,2.44E-03,1.15E-02
18921,2.49E-03,1.14E-02
18922,2.41E-03,1.17E-02
18923,2.44E-03,1.16E-02
18924,2.46E-03,1.20E-02
18925,2.45E-03,1.19E-02
18926,2.48E-03,1.23E-02
18927,2.47E-03,1.22E-02
18928,2.53E-03,1.27E-02
18929,2.53E-03,1.25E-02
18930,2.57E-03,1.31E-02
18931,2.55E-03,1.29E-02
18932,2.63E-03,1.35E-02
18933,2.60E-03,1.33E-02
18934,2.66E-03,1.38E-02
18935,2.66E-03,1.36E-02
18936,2.75E-03,1.42E-02
18937,2.73E-03,1.40E-02
18938,2.81E-03,1.46E-02
18939,2.78E-03,1.44E-02
18940,2.87E-03,1.50E-02
18941,2.85E-03,1.48E-02
18942,2.82E-03,1.52E-02
18943,2.88E-03,1.51E-02
18944,2.65E-03,1.54E-02
18945,2.73E-03,1.53E-02
18946,2.50E-03,1.55E-02
18947,2.26E-03,1.75E-02
18948,2.28E-03,1.70E-02
18949,2.29E-03,1.88E-02
18950,2.16E-03,1.81E-02
18951,2.58E-03,2.03E-02
18952,2.45E-03,1.96E-02
18953,2.48E-03,2.17E-02
18954,2.60E-03,2.10E-02
18955,2.36E-03,2.26E-02
18956,1.99E-03,2.20E-02
18957,2.01E-03,2.17E-02
18958,2.53E-03,1.00E-02
18959,2.22E-03,1.05E-02
18960,2.29E-03,1.50E-02
18961,2.36E-03,1.47E-02
18962,2.34E-03,1.55E-02
18963,1.94E-03,3.04E-02
18964,1.88E-03,2.95E-02
18965,2.45E-03,1.62E-02
18966,2.63E-03,1.59E-02
18967,2.42E-03,1.62E-02
18968,2.18E-03,2.98E-02
18969,2.39E-03,2.91E-02
18970,3.57E-03,2.72E-02
18971,2.57E-03,2.68E-02
18972,3.34E-03,2.69E-02
18973,2.56E-03,2.62E-02
18974,2.40E-03,2.65E-02
18975,3.06E-03,2.50E-02
18976,2.75E-03,2.56E-02
18977,3.89E-03,2.38E-02
18978,3.79E-03,2.42E-02
18979,3.12E-03,2.35E-02
18980,3.26E-03,2.36E-02
18981,3.08E-03,2.33E-02
18982,3.09E-03,2.34E-02
18983,3.00E-03,2.34E-02
18984,3.05E-03,2.33E-02
18985,2.88E-03,2.34E-02
18986,2.94E-03,2.34E-02
18987,2.80E-03,2.33E-02
18988,2.81E-03,2.34E-02
18989,2.72E-03,2.30E-02
18990,2.74E-03,2.32E-02
18991,2.67E-03,2.27E-02
18992,2.67E-03,2.29E-02
18993,2.57E-03,2.23E-02
18994,2.60E-03,2.25E-02
18995,2.35E-03,2.22E-02
18996,2.10E-03,2.09E-02
18997,2.04E-03,2.15E-02
18998,2.10E-03,2.12E-02
18999,2.14E-03,2.04E-02
19000,2.12E-03,2.07E-02
19001,2.18E-03,1.98E-02
19002,2.17E-03,2.01E-02
19003,2.18E-03,1.93E-02
19004,2.20E-03,1.96E-02
19005,2.15E-03,1.89E-02
19006,2.15E-03,1.91E-02
19007,2.09E-03,1.85E-02
19008,2.12E-03,1.87E-02
19009,2.13E-03,1.82E-02
19010,2.09E-03,1.84E-02
19011,2.25E-03,1.79E-02
19012,2.19E-03,1.81E-02
19013,2.34E-03,1.76E-02
19014,2.31E-03,1.78E-02
19015,2.42E-03,1.73E-02
19016,2.38E-03,1.75E-02
19017,2.43E-03,1.71E-02
19018,2.44E-03,1.72E-02
19019,2.42E-03,1.69E-02
19020,2.42E-03,1.70E-02
19021,2.45E-03,1.68E-02
19022,2.43E-03,1.68E-02
19023,2.48E-03,1.66E-02
19024,2.47E-03,1.67E-02
19025,2.45E-03,1.65E-02
19026,2.45E-03,1.66E-02
19027,2.41E-03,1.64E-02
19028,2.42E-03,1.65E-02
19029,2.42E-03,1.63E-02
19030,2.42E-03,1.64E-02
19031,2.44E-03,1.63E-02
19032,2.48E-03,1.54E-02
19033,2.65E-03,1.56E-02
19034,2.44E-03,1.49E-02
19035,2.42E-03,1.51E-02
19036,2.45E-03,1.44E-02
19037,2.43E-03,1.47E-02
19038,2.47E-03,1.40E-02
19039,2.47E-03,1.42E-02
19040,2.47E-03,1.35E-02
19041,2.47E-03,1.37E-02
19042,2.47E-03,1.30E-02
19043,2.47E-03,1.32E-02
19044,2.46E-03,1.25E-02
19045,2.47E-03,1.27E-02
19046,2.45E-03,1.20E-02
19047,2.49E-03,1.22E-02
19048,2.47E-03,1.14E-02
19049,2.50E-03,1.17E-02
19050,2.52E-03,1.09E-02
19051,2.51E-03,1.12E-02
19052,2.53E-03,1.03E-02
19053,2.54E-03,1.06E-02
19054,2.55E-03,9.76E-03
19055,2.55E-03,9.76E-03
19056,2.53E-03,1.00E-02
19057,2.51E-03,9.76E-03
19058,2.51E-03,9.76E-03
19059,2.46E-03,9.76E-03
19060,2.49E-03,9.76E-03
19061,2.39E-03,9.77E-03
19062,2.42E-03,9.77E-03
19063,2.31E-03,9.79E-03
19064,2.34E-03,9.78E-03
19065,2.24E-03,9.83E-03
19066,2.27E-03,9.81E-03
19067,2.25E-03,9.88E-03
19068,2.24E-03,9.85E-03
19069,2.27E-03,9.97E-03
19070,2.27E-03,9.92E-03
19071,2.28E-03,1.01E-02
19072,2.28E-03,1.00E-02
19073,2.28E-03,1.02E-02
19074,2.29E-03,1.01E-02
19075,2.27E-03,1.03E-02
19076,2.28E-03,1.02E-02
19077,2.18E-03,1.04E-02
19078,2.44E-03,1.09E-02
19079,2.49E-03,1.08E-02
19080,2.43E-03,1.12E-02
19081,2.43E-03,1.11E-02
19082,2.45E-03,1.15E-02
19083,2.43E-03,1.13E-02
19084,2.49E-03,1.18E-02
19085,2.48E-03,1.16E-02
19086,2.52E-03,1.21E-02
19087,2.52E-03,1.19E-02
19088,2.55E-03,1.24E-02
19089,2.53E-03,1.23E-02
19090,2.60E-03,1.28E-02
19091,2.58E-03,1.26E-02
19092,2.65E-03,1.31E-02
19093,2.64E-03,1.29E-02
19094,2.71E-03,1.35E-02
19095,2.68E-03,1.33E-02
19096,2.77E-03,1.38E-02
19097,2.74E-03,1.36E-02
19098,2.80E-03,1.41E-02
19099,2.80E-03,1.40E-02
19100,2.76E-03,1.43E-02
19101,2.81E-03,1.42E-02
19102,2.65E-03,1.44E-02
19103,2.71E-03,1.44E-02
19104,2.58E-03,1.46E-02
19105,2.28E-03,1.64E-02
19106,2.31E-03,1.59E-02
19107,2.35E-03,1.76E-02
19108,2.32E-03,1.70E-02
19109,2.48E-03,1.91E-02
19110,2.41E-03,1.84E-02
19111,2.52E-03,2.06E-02
19112,2.52E-03,1.98E-02
19113,2.56E-03,2.15E-02
19114,2.92E-03,2.65E-02
19115,3.83E-03,2.55E-02
19116,2.41E-03,2.79E-02
19117,2.59E-03,2.72E-02
19118,2.20E-03,2.87E-02
19119,2.56E-03,1.58E-02
19120,2.46E-03,1.40E-02
19121,2.49E-03,1.38E-02
19122,2.39E-03,1.44E-02
19123,2.55E-03,9.46E-03
19124,2.55E-03,9.48E-03
19125,2.42E-03,1.65E-02
19126,2.40E-03,1.64E-02
19127,2.28E-03,1.61E-02
19128,2.36E-03,1.02E-02
19129,1.89E-03,3.16E-02
19130,2.10E-03,3.20E-02
19131,2.23E-03,3.08E-02
19132,2.09E-03,3.12E-02
19133,2.53E-03,2.98E-02
19134,2.39E-03,3.03E-02
19135,2.76E-03,2.90E-02
19136,2.68E-03,2.93E-02
19137,2.69E-03,2.82E-02
19138,2.83E-03,2.86E-02
19139,2.67E-03,2.75E-02
19140,2.62E-03,2.79E-02
19141,2.97E-03,2.64E-02
19142,2.80E-03,2.70E-02
19143,3.36E-03,2.54E-02
19144,3.23E-03,2.59E-02
19145,3.08E-03,2.48E-02
19146,3.22E-03,2.50E-02
19147,3.00E-03,2.47E-02
19148,3.05E-03,2.47E-02
19149,2.92E-03,2.46E-02
19150,2.96E-03,2.46E-02
19151,2.84E-03,2.45E-02
19152,2.88E-03,2.46E-02
19153,2.77E-03,2.42E-02
19154,2.77E-03,2.44E-02
19155,2.71E-03,2.38E-02
19156,2.69E-03,2.40E-02
19157,2.62E-03,2.33E-02
19158,2.64E-03,2.35E-02
19159,2.48E-03,2.29E-02
19160,2.53E-03,2.31E-02
19161,2.20E-03,2.23E-02
19162,2.37E-03,2.26E-02
19163,2.11E-03,2.17E-02
19164,2.08E-03,2.21E-02
19165,2.12E-03,2.11E-02
19166,2.12E-03,2.14E-02
19167,2.18E-03,2.04E-02
19168,2.15E-03,2.08E-02
19169,2.20E-03,1.98E-02
19170,2.19E-03,2.01E-02
19171,2.20E-03,1.93E-02
19172,2.23E-03,1.96E-02
19173,2.17E-03,1.89E-02
19174,2.19E-03,1.91E-02
19175,2.13E-03,1.86E-02
19176,2.17E-03,1.87E-02
19177,2.16E-03,1.82E-02
19178,2.15E-03,1.84E-02
19179,2.28E-03,1.80E-02
19180,2.22E-03,1.81E-02
19181,2.34E-03,1.77E-02
19182,2.33E-03,1.78E-02
19183,2.41E-03,1.74E-02
19184,2.39E-03,1.76E-02
19185,2.44E-03,1.72E-02
19186,2.44E-03,1.73E-02
19187,2.42E-03,1.71E-02
19188,2.43E-03,1.71E-02
19189,2.45E-03,1.69E-02
19190,2.44E-03,1.70E-02
19191,2.49E-03,1.68E-02
19192,2.49E-03,1.69E-02
19193,2.46E-03,1.67E-02
19194,2.47E-03,1.68E-02
19195,2.43E-03,1.67E-02
19196,2.44E-03,1.67E-02
19197,2.43E-03,1.66E-02
19198,2.41E-03,1.66E-02
19199,2.42E-03,1.65E-02
19200,2.48E-03,1.53E-02
19201,2.50E-03,1.55E-02
19202,2.47E-03,1.48E-02
19203,2.45E-03,1.50E-02
19204,2.47E-03,1.43E-02
19205,2.47E-03,1.46E-02
19206,2.47E-03,1.39E-02
19207,2.47E-03,1.41E-02
19208,2.47E-03,1.34E-02
19209,2.47E-03,1.36E-02
19210,2.46E-03,1.29E-02
19211,2.47E-03,1.32E-02
19212,2.45E-03,1.24E-02
19213,2.49E-03,1.27E-02
19214,2.45E-03,1.19E-02
19215,2.50E-03,1.22E-02
19216,2.45E-03,1.14E-02
19217,2.50E-03,1.17E-02
19218,2.47E-03,1.09E-02
19219,2.50E-03,1.11E-02
19220,2.52E-03,1.03E-02
19221,2.51E-03,1.06E-02
19222,2.53E-03,9.77E-03
19223,2.52E-03,1.00E-02
19224,2.52E-03,9.44E-03
19225,2.52E-03,9.45E-03
19226,2.46E-03,9.44E-03
19227,2.49E-03,9.44E-03
19228,2.40E-03,9.43E-03
19229,2.43E-03,9.43E-03
19230,2.30E-03,9.43E-03
19231,2.34E-03,9.43E-03
19232,2.26E-03,9.44E-03
19233,2.28E-03,9.44E-03
19234,2.27E-03,9.47E-03
19235,2.26E-03,9.45E-03
19236,2.29E-03,9.54E-03
19237,2.28E-03,9.50E-03
19238,2.32E-03,9.61E-03
19239,2.30E-03,9.58E-03
19240,2.32E-03,9.70E-03
19241,2.31E-03,9.65E-03
19242,2.26E-03,9.81E-03
19243,2.29E-03,9.75E-03
19244,2.25E-03,9.90E-03
19245,2.44E-03,1.04E-02
19246,2.41E-03,1.03E-02
19247,2.44E-03,1.06E-02
19248,2.42E-03,1.05E-02
19249,2.47E-03,1.09E-02
19250,2.44E-03,1.08E-02
19251,2.49E-03,1.12E-02
19252,2.49E-03,1.10E-02
19253,2.52E-03,1.15E-02
19254,2.51E-03,1.13E-02
19255,2.53E-03,1.18E-02
19256,2.52E-03,1.16E-02
19257,2.57E-03,1.21E-02
19258,2.58E-03,1.19E-02
19259,2.63E-03,1.24E-02
19260,2.61E-03,1.22E-02
19261,2.68E-03,1.27E-02
19262,2.65E-03,1.25E-02
19263,2.73E-03,1.30E-02
19264,2.71E-03,1.29E-02
19265,2.78E-03,1.32E-02
19266,2.75E-03,1.31E-02
19267,2.75E-03,1.34E-02
19268,2.79E-03,1.33E-02
19269,2.64E-03,1.35E-02
19270,2.69E-03,1.34E-02
19271,2.63E-03,1.36E-02
19272,2.35E-03,1.53E-02
19273,2.36E-03,1.49E-02
19274,2.35E-03,1.65E-02
19275,2.35E-03,1.59E-02
19276,2.49E-03,1.79E-02
19277,2.41E-03,1.71E-02
19278,2.52E-03,1.94E-02
19279,2.50E-03,1.86E-02
19280,2.57E-03,2.04E-02
19281,3.13E-03,2.26E-02
19282,2.93E-03,2.50E-02
19283,3.15E-03,2.40E-02
19284,2.44E-03,2.67E-02
19285,2.65E-03,2.59E-02
19286,2.13E-03,2.86E-02
19287,2.27E-03,2.76E-02
19288,2.48E-03,3.10E-02
19289,2.36E-03,2.97E-02
19290,3.02E-03,3.21E-02
19291,2.75E-03,3.34E-02
19292,2.46E-03,3.46E-02
19293,2.54E-03,9.49E-03
19294,2.36E-03,1.64E-02
19295,2.32E-03,9.57E-03
19296,2.29E-03,9.48E-03
19297,2.36E-03,9.67E-03
19298,2.51E-03,1.30E-02
19299,2.82E-03,1.27E-02
19300,2.42E-03,1.34E-02
19301,1.76E-03,3.45E-02
19302,1.97E-03,3.54E-02
19303,2.43E-03,3.32E-02
19304,2.49E-03,3.39E-02
19305,2.30E-03,3.24E-02
19306,2.13E-03,3.29E-02
19307,2.30E-03,3.17E-02
19308,2.22E-03,3.20E-02
19309,2.51E-03,3.10E-02
19310,2.40E-03,3.14E-02
19311,2.62E-03,3.04E-02
19312,2.61E-03,3.07E-02
19313,2.70E-03,2.97E-02
19314,2.67E-03,3.01E-02
19315,2.72E-03,2.90E-02
19316,2.69E-03,2.94E-02
19317,2.91E-03,2.80E-02
19318,2.82E-03,2.85E-02
19319,3.09E-03,2.71E-02
19320,3.00E-03,2.75E-02
19321,3.04E-03,2.64E-02
19322,3.09E-03,2.67E-02
19323,2.94E-03,2.61E-02
19324,2.99E-03,2.62E-02
19325,2.86E-03,2.60E-02
19326,2.90E-03,2.61E-02
19327,2.78E-03,2.57E-02
19328,2.81E-03,2.59E-02
19329,2.71E-03,2.52E-02
19330,2.75E-03,2.55E-02
19331,2.66E-03,2.45E-02
19332,2.67E-03,2.49E-02
19333,2.60E-03,2.39E-02
19334,2.62E-03,2.42E-02
19335,2.46E-03,2.33E-02
19336,2.50E-03,2.36E-02
19337,2.27E-03,2.27E-02
19338,2.33E-03,2.30E-02
19339,2.17E-03,2.19E-02
19340,2.18E-03,2.23E-02
19341,2.15E-03,2.12E-02
19342,2.16E-03,2.16E-02
19343,2.21E-03,2.04E-02
19344,2.16E-03,2.08E-02
19345,2.24E-03,1.98E-02
19346,2.22E-03,2.01E-02
19347,2.25E-03,1.92E-02
19348,2.27E-03,1.95E-02
19349,2.20E-03,1.88E-02
19350,2.24E-03,1.90E-02
19351,2.18E-03,1.85E-02
19352,2.19E-03,1.87E-02
19353,2.22E-03,1.82E-02
19354,2.20E-03,1.84E-02
19355,2.29E-03,1.80E-02
19356,2.24E-03,1.81E-02
19357,2.36E-03,1.77E-02
19358,2.34E-03,1.78E-02
19359,2.42E-03,1.75E-02
19360,2.39E-03,1.76E-02
19361,2.45E-03,1.73E-02
19362,2.46E-03,1.74E-02
19363,2.43E-03,1.72E-02
19364,2.44E-03,1.73E-02
19365,2.45E-03,1.71E-02
19366,2.45E-03,1.72E-02
19367,2.50E-03,1.70E-02
19368,2.50E-03,1.71E-02
19369,2.46E-03,1.70E-02
19370,2.49E-03,1.70E-02
19371,2.45E-03,1.69E-02
19372,2.45E-03,1.69E-02
19373,2.44E-03,1.69E-02
19374,2.43E-03,1.69E-02
19375,2.41E-03,1.68E-02
19376,2.40E-03,1.68E-02
19377,2.82E-03,3.57E-02
19378,2.50E-03,9.77E-03
19379,2.51E-03,9.51E-03
19380,2.31E-03,1.61E-02
19381,2.33E-03,1.63E-02
19382,2.38E-03,1.67E-02
19383,2.39E-03,1.67E-02
19384,2.19E-03,1.56E-02
19385,2.17E-03,1.59E-02
19386,2.46E-03,1.52E-02
19387,2.25E-03,1.54E-02
19388,2.47E-03,1.47E-02
19389,2.47E-03,1.50E-02
19390,2.47E-03,1.43E-02
19391,2.47E-03,1.45E-02
19392,2.48E-03,1.38E-02
19393,2.47E-03,1.40E-02
19394,2.46E-03,1.33E-02
19395,2.47E-03,1.36E-02
19396,2.45E-03,1.29E-02
19397,2.48E-03,1.31E-02
19398,2.45E-03,1.24E-02
19399,2.50E-03,1.26E-02
19400,2.45E-03,1.19E-02
19401,2.50E-03,1.21E-02
19402,2.45E-03,1.14E-02
19403,2.50E-03,1.16E-02
19404,2.45E-03,1.08E-02
19405,2.50E-03,1.11E-02
19406,2.47E-03,1.03E-02
19407,2.50E-03,1.06E-02
19408,2.50E-03,1.00E-02
19409,2.57E-03,9.22E-03
19410,2.56E-03,9.17E-03
19411,2.57E-03,9.19E-03
19412,2.51E-03,9.13E-03
19413,2.53E-03,9.15E-03
19414,2.46E-03,9.11E-03
19415,2.49E-03,9.12E-03
19416,2.40E-03,9.09E-03
19417,2.43E-03,9.10E-03
19418,2.33E-03,9.07E-03
19419,2.36E-03,9.08E-03
19420,2.27E-03,9.05E-03
19421,2.31E-03,9.06E-03
19422,2.29E-03,9.06E-03
19423,2.29E-03,9.05E-03
19424,2.33E-03,9.10E-03
19425,2.32E-03,9.08E-03
19426,2.32E-03,9.15E-03
19427,2.34E-03,9.13E-03
19428,2.34E-03,9.23E-03
19429,2.33E-03,9.19E-03
19430,2.30E-03,9.34E-03
19431,2.32E-03,9.28E-03
19432,2.28E-03,9.41E-03
19433,2.42E-03,9.87E-03
19434,2.41E-03,9.77E-03
19435,2.43E-03,1.01E-02
19436,2.41E-03,9.97E-03
19437,2.46E-03,1.03E-02
19438,2.47E-03,1.02E-02
19439,2.50E-03,1.06E-02
19440,2.50E-03,1.04E-02
19441,2.52E-03,1.08E-02
19442,2.49E-03,1.07E-02
19443,2.53E-03,1.11E-02
19444,2.51E-03,1.10E-02
19445,2.57E-03,1.14E-02
19446,2.55E-03,1.13E-02
19447,2.61E-03,1.17E-02
19448,2.60E-03,1.15E-02
19449,2.64E-03,1.19E-02
19450,2.64E-03,1.18E-02
19451,2.70E-03,1.22E-02
19452,2.69E-03,1.21E-02
19453,2.77E-03,1.24E-02
19454,2.72E-03,1.23E-02
19455,2.71E-03,1.25E-02
19456,2.75E-03,1.25E-02
19457,2.67E-03,1.25E-02
19458,2.68E-03,1.25E-02
19459,2.62E-03,1.26E-02
19460,2.38E-03,1.42E-02
19461,2.39E-03,1.38E-02
19462,2.36E-03,1.53E-02
19463,2.38E-03,1.47E-02
19464,2.46E-03,1.66E-02
19465,2.39E-03,1.59E-02
19466,2.50E-03,1.82E-02
19467,2.48E-03,1.74E-02
19468,2.58E-03,1.99E-02
19469,2.53E-03,1.91E-02
19470,2.56E-03,2.19E-02
19471,2.55E-03,2.08E-02
19472,2.68E-03,2.36E-02
19473,2.57E-03,2.27E-02
19474,2.46E-03,2.55E-02
19475,2.57E-03,2.45E-02
19476,2.35E-03,2.76E-02
19477,2.37E-03,2.65E-02
19478,2.55E-03,3.01E-02
19479,2.40E-03,2.88E-02
19480,2.72E-03,3.26E-02
19481,2.66E-03,3.14E-02
19482,3.17E-03,3.41E-02
19483,2.39E-03,1.21E-02
19484,2.35E-03,1.19E-02
19485,2.82E-03,3.76E-02
19486,2.54E-03,9.25E-03
19487,2.42E-03,1.23E-02
19488,2.35E-03,1.66E-02
19489,2.11E-03,3.47E-02
19490,2.16E-03,3.56E-02
19491,2.32E-03,3.38E-02
19492,2.24E-03,3.42E-02
19493,2.29E-03,3.31E-02
19494,2.34E-03,3.34E-02
19495,2.33E-03,3.26E-02
19496,2.31E-03,3.28E-02
19497,2.49E-03,3.22E-02
19498,2.41E-03,3.24E-02
19499,2.60E-03,3.17E-02
19500,2.55E-03,3.19E-02
19501,2.64E-03,3.12E-02
19502,2.62E-03,3.15E-02
19503,2.71E-03,3.07E-02
19504,2.67E-03,3.10E-02
19505,2.83E-03,2.98E-02
19506,2.79E-03,3.03E-02
19507,2.96E-03,2.88E-02
19508,2.89E-03,2.93E-02
19509,2.96E-03,2.80E-02
19510,2.98E-03,2.84E-02
19511,2.88E-03,2.77E-02
19512,2.92E-03,2.78E-02
19513,2.81E-03,2.75E-02
19514,2.85E-03,2.76E-02
19515,2.73E-03,2.71E-02
19516,2.76E-03,2.73E-02
19517,2.66E-03,2.63E-02
19518,2.71E-03,2.67E-02
19519,2.63E-03,2.53E-02
19520,2.64E-03,2.58E-02
19521,2.55E-03,2.44E-02
19522,2.60E-03,2.48E-02
19523,2.46E-03,2.37E-02
19524,2.50E-03,2.41E-02
19525,2.32E-03,2.29E-02
19526,2.31E-03,2.33E-02
19527,2.23E-03,2.21E-02
19528,2.21E-03,2.25E-02
19529,2.17E-03,2.12E-02
19530,2.19E-03,2.16E-02
19531,2.24E-03,2.04E-02
19532,2.20E-03,2.08E-02
19533,2.28E-03,1.96E-02
19534,2.25E-03,2.00E-02
19535,2.28E-03,1.91E-02
19536,2.30E-03,1.93E-02
19537,2.27E-03,1.87E-02
19538,2.27E-03,1.89E-02
19539,2.23E-03,1.84E-02
19540,2.22E-03,1.85E-02
19541,2.26E-03,1.82E-02
19542,2.23E-03,1.83E-02
19543,2.30E-03,1.79E-02
19544,2.26E-03,1.81E-02
19545,2.37E-03,1.77E-02
19546,2.35E-03,1.78E-02
19547,2.43E-03,1.75E-02
19548,2.42E-03,1.76E-02
19549,2.46E-03,1.74E-02
19550,2.47E-03,1.75E-02
19551,2.44E-03,1.74E-02
19552,2.44E-03,1.74E-02
19553,2.47E-03,1.73E-02
19554,2.45E-03,1.73E-02
19555,2.52E-03,1.72E-02
19556,2.51E-03,1.73E-02
19557,2.48E-03,1.72E-02
19558,2.52E-03,1.72E-02
19559,2.46E-03,1.72E-02
19560,2.46E-03,1.72E-02
19561,2.42E-03,1.71E-02
19562,2.43E-03,1.72E-02
19563,2.41E-03,1.71E-02
19564,2.40E-03,1.71E-02
19565,2.36E-03,1.69E-02
19566,2.37E-03,1.70E-02
19567,2.31E-03,1.13E-02
19568,1.96E-03,1.09E-02
19569,2.73E-03,3.85E-02
19570,2.35E-03,1.69E-02
19571,2.34E-03,1.66E-02
19572,2.29E-03,1.61E-02
19573,2.34E-03,1.63E-02
19574,2.32E-03,1.56E-02
19575,2.26E-03,1.58E-02
19576,2.43E-03,1.51E-02
19577,2.37E-03,1.53E-02
19578,2.47E-03,1.47E-02
19579,2.47E-03,1.49E-02
19580,2.46E-03,1.42E-02
19581,2.47E-03,1.44E-02
19582,2.46E-03,1.38E-02
19583,2.48E-03,1.40E-02
19584,2.45E-03,1.33E-02
19585,2.48E-03,1.35E-02
19586,2.45E-03,1.28E-02
19587,2.50E-03,1.31E-02
19588,2.46E-03,1.23E-02
19589,2.50E-03,1.26E-02
19590,2.46E-03,1.18E-02
19591,2.50E-03,1.21E-02
19592,2.46E-03,1.13E-02
19593,2.50E-03,1.16E-02
19594,2.45E-03,1.08E-02
19595,2.50E-03,1.11E-02
19596,2.45E-03,1.03E-02
19597,2.50E-03,1.06E-02
19598,2.48E-03,9.78E-03
19599,2.50E-03,1.00E-02
19600,2.55E-03,8.95E-03
19601,2.55E-03,8.99E-03
19602,2.51E-03,9.28E-03
19603,2.49E-03,9.53E-03
19604,2.58E-03,8.88E-03
19605,2.58E-03,8.91E-03
19606,2.52E-03,8.82E-03
19607,2.55E-03,8.85E-03
19608,2.47E-03,8.79E-03
19609,2.49E-03,8.81E-03
19610,2.41E-03,8.74E-03
19611,2.43E-03,8.76E-03
19612,2.31E-03,8.69E-03
19613,2.36E-03,8.72E-03
19614,2.30E-03,8.65E-03
19615,2.32E-03,8.67E-03
19616,2.32E-03,8.64E-03
19617,2.29E-03,8.64E-03
19618,2.35E-03,8.65E-03
19619,2.33E-03,8.64E-03
19620,2.35E-03,8.69E-03
19621,2.36E-03,8.67E-03
19622,2.36E-03,8.75E-03
19623,2.36E-03,8.71E-03
19624,2.33E-03,8.85E-03
19625,2.36E-03,8.80E-03
19626,2.33E-03,8.97E-03
19627,2.33E-03,8.90E-03
19628,2.36E-03,9.14E-03
19629,2.36E-03,9.05E-03
19630,2.42E-03,9.33E-03
19631,2.41E-03,9.24E-03
19632,2.44E-03,9.53E-03
19633,2.42E-03,9.43E-03
19634,2.48E-03,9.75E-03
19635,2.47E-03,9.64E-03
19636,2.49E-03,9.98E-03
19637,2.51E-03,9.87E-03
19638,2.51E-03,1.02E-02
19639,2.48E-03,1.01E-02
19640,2.52E-03,1.05E-02
19641,2.50E-03,1.04E-02
19642,2.57E-03,1.07E-02
19643,2.53E-03,1.06E-02
19644,2.59E-03,1.10E-02
19645,2.60E-03,1.09E-02
19646,2.62E-03,1.12E-02
19647,2.62E-03,1.11E-02
19648,2.68E-03,1.14E-02
19649,2.68E-03,1.13E-02
19650,2.73E-03,1.16E-02
19651,2.72E-03,1.15E-02
19652,2.71E-03,1.16E-02
19653,2.72E-03,1.16E-02
19654,2.64E-03,1.16E-02
19655,2.70E-03,1.16E-02
19656,2.69E-03,1.15E-02
19657,2.39E-03,1.31E-02
19658,2.40E-03,1.27E-02
19659,2.38E-03,1.41E-02
19660,2.40E-03,1.36E-02
19661,2.43E-03,1.54E-02
19662,2.42E-03,1.47E-02
19663,2.48E-03,1.69E-02
19664,2.48E-03,1.61E-02
19665,2.51E-03,1.86E-02
19666,2.50E-03,1.77E-02
19667,2.52E-03,2.04E-02
19668,2.53E-03,1.95E-02
19669,2.58E-03,2.22E-02
19670,2.56E-03,2.13E-02
19671,2.48E-03,2.42E-02
19672,2.56E-03,2.32E-02
19673,2.44E-03,2.65E-02
19674,2.45E-03,2.53E-02
19675,2.52E-03,2.90E-02
19676,2.49E-03,2.77E-02
19677,2.67E-03,3.18E-02
19678,2.60E-03,3.03E-02
19679,2.40E-03,3.46E-02
19680,2.64E-03,3.33E-02
19681,2.81E-03,3.81E-02
19682,2.49E-03,3.62E-02
19683,2.41E-03,1.10E-02
19684,2.80E-03,3.98E-02
19685,2.56E-03,4.03E-02
19686,2.35E-03,1.68E-02
19687,2.53E-03,9.03E-03
19688,2.44E-03,1.12E-02
19689,2.68E-03,4.59E-02
19690,2.39E-03,4.80E-02
19691,2.43E-03,4.00E-02
19692,2.81E-03,4.29E-02
19693,1.92E-03,3.73E-02
19694,2.15E-03,3.87E-02
19695,2.05E-03,3.59E-02
19696,1.84E-03,3.65E-02
19697,2.22E-03,3.49E-02
19698,2.08E-03,3.54E-02
19699,2.32E-03,3.41E-02
19700,2.27E-03,3.45E-02
19701,2.33E-03,3.36E-02
19702,2.33E-03,3.38E-02
19703,2.36E-03,3.34E-02
19704,2.34E-03,3.35E-02
19705,2.47E-03,3.33E-02
19706,2.40E-03,3.34E-02
19707,2.55E-03,3.30E-02
19708,2.50E-03,3.31E-02
19709,2.62E-03,3.27E-02
19710,2.58E-03,3.28E-02
19711,2.70E-03,3.24E-02
19712,2.63E-03,3.26E-02
19713,2.77E-03,3.18E-02
19714,2.75E-03,3.21E-02
19715,2.87E-03,3.08E-02
19716,2.81E-03,3.13E-02
19717,2.88E-03,2.99E-02
19718,2.89E-03,3.03E-02
19719,2.83E-03,2.95E-02
19720,2.86E-03,2.97E-02
19721,2.77E-03,2.92E-02
19722,2.80E-03,2.93E-02
19723,2.71E-03,2.85E-02
19724,2.73E-03,2.89E-02
19725,2.63E-03,2.74E-02
19726,2.65E-03,2.80E-02
19727,2.61E-03,2.61E-02
19728,2.60E-03,2.67E-02
19729,2.55E-03,2.50E-02
19730,2.58E-03,2.55E-02
19731,2.46E-03,2.40E-02
19732,2.47E-03,2.45E-02
19733,2.34E-03,2.31E-02
19734,2.35E-03,2.36E-02
19735,2.27E-03,2.21E-02
19736,2.27E-03,2.26E-02
19737,2.21E-03,2.11E-02
19738,2.22E-03,2.16E-02
19739,2.28E-03,2.02E-02
19740,2.25E-03,2.06E-02
19741,2.33E-03,1.94E-02
19742,2.28E-03,1.98E-02
19743,2.32E-03,1.89E-02
19744,2.33E-03,1.91E-02
19745,2.29E-03,1.85E-02
19746,2.30E-03,1.87E-02
19747,2.26E-03,1.83E-02
19748,2.25E-03,1.84E-02
19749,2.28E-03,1.81E-02
19750,2.27E-03,1.82E-02
19751,2.33E-03,1.79E-02
19752,2.30E-03,1.80E-02
19753,2.41E-03,1.77E-02
19754,2.38E-03,1.78E-02
19755,2.45E-03,1.75E-02
19756,2.44E-03,1.76E-02
19757,2.47E-03,1.75E-02
19758,2.48E-03,1.75E-02
19759,2.45E-03,1.75E-02
19760,2.45E-03,1.75E-02
19761,2.49E-03,1.75E-02
19762,2.46E-03,1.75E-02
19763,2.50E-03,1.74E-02
19764,2.49E-03,1.74E-02
19765,2.48E-03,1.74E-02
19766,2.51E-03,1.74E-02
19767,2.46E-03,1.74E-02
19768,2.48E-03,1.74E-02
19769,2.44E-03,1.74E-02
19770,2.44E-03,1.74E-02
19771,2.41E-03,1.74E-02
19772,2.40E-03,1.74E-02
19773,2.39E-03,1.72E-02
19774,2.39E-03,1.73E-02
19775,2.33E-03,1.65E-02
19776,2.35E-03,1.68E-02
19777,2.36E-03,1.71E-02
19778,2.38E-03,1.72E-02
19779,2.32E-03,1.60E-02
19780,2.35E-03,1.62E-02
19781,2.40E-03,1.55E-02
19782,2.35E-03,1.58E-02
19783,2.44E-03,1.51E-02
19784,2.43E-03,1.53E-02
19785,2.46E-03,1.46E-02
19786,2.45E-03,1.48E-02
19787,2.45E-03,1.41E-02
19788,2.48E-03,1.44E-02
19789,2.46E-03,1.37E-02
19790,2.50E-03,1.39E-02
19791,2.46E-03,1.32E-02
19792,2.50E-03,1.35E-02
19793,2.46E-03,1.28E-02
19794,2.50E-03,1.30E-02
19795,2.46E-03,1.23E-02
19796,2.50E-03,1.25E-02
19797,2.46E-03,1.18E-02
19798,2.50E-03,1.20E-02
19799,2.46E-03,1.13E-02
19800,2.50E-03,1.16E-02
19801,2.46E-03,1.08E-02
19802,2.50E-03,1.11E-02
19803,2.45E-03,1.03E-02
19804,2.50E-03,1.05E-02
19805,2.45E-03,9.79E-03
19806,2.50E-03,1.00E-02
19807,2.48E-03,9.30E-03
19808,2.47E-03,9.55E-03
19809,2.51E-03,9.06E-03
19810,2.53E-03,8.79E-03
19811,2.55E-03,8.68E-03
19812,2.56E-03,8.74E-03
19813,2.57E-03,8.59E-03
19814,2.57E-03,8.63E-03
19815,2.53E-03,8.52E-03
19816,2.56E-03,8.55E-03
19817,2.46E-03,8.47E-03
19818,2.49E-03,8.50E-03
19819,2.41E-03,8.39E-03
19820,2.44E-03,8.43E-03
19821,2.35E-03,8.31E-03
19822,2.37E-03,8.35E-03
19823,2.34E-03,8.24E-03
19824,2.35E-03,8.27E-03
19825,2.34E-03,8.20E-03
19826,2.31E-03,8.22E-03
19827,2.37E-03,8.19E-03
19828,2.34E-03,8.19E-03
19829,2.38E-03,8.21E-03
19830,2.38E-03,8.20E-03
19831,2.38E-03,8.26E-03
19832,2.38E-03,8.24E-03
19833,2.37E-03,8.35E-03
19834,2.37E-03,8.30E-03
19835,2.33E-03,8.46E-03
19836,2.35E-03,8.40E-03
19837,2.37E-03,8.61E-03
19838,2.35E-03,8.53E-03
19839,2.43E-03,8.79E-03
19840,2.40E-03,8.70E-03
19841,2.45E-03,8.98E-03
19842,2.42E-03,8.88E-03
19843,2.51E-03,9.19E-03
19844,2.48E-03,9.08E-03
19845,2.48E-03,9.40E-03
19846,2.52E-03,9.29E-03
19847,2.49E-03,9.63E-03
19848,2.48E-03,9.51E-03
19849,2.52E-03,9.86E-03
19850,2.50E-03,9.75E-03
19851,2.56E-03,1.01E-02
19852,2.54E-03,9.97E-03
19853,2.60E-03,1.03E-02
19854,2.59E-03,1.02E-02
19855,2.61E-03,1.05E-02
19856,2.60E-03,1.04E-02
19857,2.65E-03,1.06E-02
19858,2.65E-03,1.06E-02
19859,2.68E-03,1.07E-02
19860,2.67E-03,1.07E-02
19861,2.64E-03,1.07E-02
19862,2.67E-03,1.07E-02
19863,2.61E-03,1.06E-02
19864,2.61E-03,1.07E-02
19865,2.23E-03,1.03E-02
19866,2.50E-03,1.05E-02
19867,2.39E-03,1.20E-02
19868,2.42E-03,1.16E-02
19869,2.38E-03,1.30E-02
19870,2.40E-03,1.24E-02
19871,2.42E-03,1.42E-02
19872,2.43E-03,1.36E-02
19873,2.48E-03,1.56E-02
19874,2.48E-03,1.49E-02
19875,2.51E-03,1.73E-02
19876,2.50E-03,1.64E-02
19877,2.52E-03,1.90E-02
19878,2.51E-03,1.81E-02
19879,2.52E-03,2.09E-02
19880,2.52E-03,1.99E-02
19881,2.51E-03,2.29E-02
19882,2.52E-03,2.19E-02
19883,2.47E-03,2.52E-02
19884,2.49E-03,2.40E-02
19885,2.54E-03,2.77E-02
19886,2.52E-03,2.64E-02
19887,2.59E-03,3.06E-02
19888,2.57E-03,2.91E-02
19889,2.52E-03,3.37E-02
19890,2.54E-03,3.21E-02
19891,2.56E-03,3.77E-02
19892,2.54E-03,3.56E-02
19893,2.34E-03,4.19E-02
19894,2.48E-03,3.97E-02
19895,2.34E-03,4.82E-02
19896,2.28E-03,4.49E-02
19897,1.89E-03,5.01E-02
19898,2.43E-03,5.35E-02
19899,2.38E-03,5.09E-02
19900,2.60E-03,9.92E-03
19901,2.35E-03,1.71E-02
19902,2.78E-03,5.52E-02
19903,2.16E-03,4.94E-02
19904,2.52E-03,8.84E-03
19905,2.53E-03,9.78E-03
19906,2.36E-03,1.75E-02
19907,2.34E-03,1.74E-02
19908,2.52E-03,5.70E-02
19909,2.61E-03,6.14E-02
19910,2.66E-03,4.36E-02
19911,2.11E-03,4.52E-02
19912,2.46E-03,3.89E-02
19913,3.02E-03,4.15E-02
19914,2.16E-03,3.67E-02
19915,2.31E-03,3.75E-02
19916,2.19E-03,3.56E-02
19917,2.14E-03,3.60E-02
19918,2.25E-03,3.49E-02
19919,2.23E-03,3.52E-02
19920,2.35E-03,3.43E-02
19921,2.31E-03,3.46E-02
19922,2.37E-03,3.41E-02
19923,2.37E-03,3.41E-02
19924,2.38E-03,3.42E-02
19925,2.39E-03,3.41E-02
19926,2.44E-03,3.43E-02
19927,2.40E-03,3.43E-02
19928,2.50E-03,3.42E-02
19929,2.48E-03,3.43E-02
19930,2.58E-03,3.42E-02
19931,2.53E-03,3.42E-02
19932,2.64E-03,3.43E-02
19933,2.59E-03,3.43E-02
19934,2.70E-03,3.39E-02
19935,2.69E-03,3.42E-02
19936,2.78E-03,3.30E-02
19937,2.75E-03,3.35E-02
19938,2.80E-03,3.21E-02
19939,2.81E-03,3.25E-02
19940,2.76E-03,3.16E-02
19941,2.80E-03,3.18E-02
19942,2.72E-03,3.11E-02
19943,2.74E-03,3.14E-02
19944,2.68E-03,3.02E-02
19945,2.68E-03,3.07E-02
19946,2.62E-03,2.86E-02
19947,2.62E-03,2.94E-02
19948,2.58E-03,2.69E-02
19949,2.58E-03,2.77E-02
19950,2.54E-03,2.55E-02
19951,2.56E-03,2.61E-02
19952,2.45E-03,2.43E-02
19953,2.47E-03,2.49E-02
19954,2.36E-03,2.32E-02
19955,2.38E-03,2.38E-02
19956,2.30E-03,2.19E-02
19957,2.31E-03,2.26E-02
19958,2.26E-03,2.08E-02
19959,2.26E-03,2.14E-02
19960,2.31E-03,1.99E-02
19961,2.29E-03,2.03E-02
19962,2.37E-03,1.91E-02
19963,2.33E-03,1.95E-02
19964,2.37E-03,1.86E-02
19965,2.37E-03,1.88E-02
19966,2.34E-03,1.82E-02
19967,2.33E-03,1.84E-02
19968,2.29E-03,1.80E-02
19969,2.29E-03,1.81E-02
19970,2.30E-03,1.79E-02
19971,2.29E-03,1.80E-02
19972,2.36E-03,1.78E-02
19973,2.35E-03,1.78E-02
19974,2.42E-03,1.76E-02
19975,2.39E-03,1.77E-02
19976,2.46E-03,1.75E-02
19977,2.45E-03,1.76E-02
19978,2.48E-03,1.76E-02
19979,2.49E-03,1.75E-02
19980,2.44E-03,1.77E-02
19981,2.46E-03,1.76E-02
19982,2.48E-03,1.77E-02
19983,2.46E-03,1.77E-02
19984,2.52E-03,1.76E-02
19985,2.50E-03,1.76E-02
19986,2.49E-03,1.76E-02
19987,2.52E-03,1.76E-02
19988,2.46E-03,1.77E-02
19989,2.47E-03,1.77E-02
19990,2.46E-03,1.77E-02
19991,2.43E-03,1.77E-02
19992,2.45E-03,1.77E-02
19993,2.43E-03,1.77E-02
19994,2.39E-03,1.76E-02
19995,2.43E-03,1.76E-02
19996,2.38E-03,1.75E-02
19997,2.34E-03,1.70E-02
19998,2.34E-03,1.64E-02
19999,2.35E-03,1.67E-02
20000,2.36E-03,1.59E-02
20001,2.37E-03,1.62E-02
20002,2.41E-03,1.55E-02
20003,2.38E-03,1.57E-02
20004,2.46E-03,1.50E-02
20005,2.45E-03,1.52E-02
20006,2.46E-03,1.45E-02
20007,2.48E-03,1.48E-02
20008,2.46E-03,1.41E-02
20009,2.50E-03,1.43E-02
20010,2.46E-03,1.36E-02
20011,2.50E-03,1.39E-02
20012,2.46E-03,1.32E-02
20013,2.50E-03,1.34E-02
20014,2.46E-03,1.27E-02
20015,2.50E-03,1.30E-02
20016,2.46E-03,1.23E-02
20017,2.50E-03,1.25E-02
20018,2.46E-03,1.18E-02
20019,2.50E-03,1.20E-02
20020,2.46E-03,1.13E-02
20021,2.50E-03,1.15E-02
20022,2.46E-03,1.08E-02
20023,2.50E-03,1.10E-02
20024,2.46E-03,1.03E-02
20025,2.50E-03,1.05E-02
20026,2.46E-03,9.80E-03
20027,2.50E-03,1.00E-02
20028,2.47E-03,9.32E-03
20029,2.48E-03,9.56E-03
20030,2.21E-03,9.36E-03
20031,1.93E-03,8.97E-03
20032,2.54E-03,8.56E-03
20033,2.53E-03,8.61E-03
20034,2.51E-03,8.86E-03
20035,2.50E-03,9.09E-03
20036,2.55E-03,8.43E-03
20037,2.55E-03,8.49E-03
20038,2.56E-03,8.32E-03
20039,2.57E-03,8.37E-03
20040,2.52E-03,8.24E-03
20041,2.54E-03,8.28E-03
20042,2.47E-03,8.15E-03
20043,2.49E-03,8.20E-03
20044,2.41E-03,8.03E-03
20045,2.43E-03,8.09E-03
20046,2.36E-03,7.91E-03
20047,2.39E-03,7.97E-03
20048,2.36E-03,7.81E-03
20049,2.37E-03,7.86E-03
20050,2.35E-03,7.75E-03
20051,2.35E-03,7.78E-03
20052,2.38E-03,7.73E-03
20053,2.38E-03,7.73E-03
20054,2.39E-03,7.74E-03
20055,2.38E-03,7.73E-03
20056,2.40E-03,7.78E-03
20057,2.39E-03,7.75E-03
20058,2.40E-03,7.84E-03
20059,2.38E-03,7.80E-03
20060,2.35E-03,7.94E-03
20061,2.38E-03,7.88E-03
20062,2.39E-03,8.08E-03
20063,2.37E-03,8.00E-03
20064,2.43E-03,8.25E-03
20065,2.40E-03,8.16E-03
20066,2.45E-03,8.43E-03
20067,2.43E-03,8.34E-03
20068,2.50E-03,8.62E-03
20069,2.47E-03,8.52E-03
20070,2.49E-03,8.82E-03
20071,2.50E-03,8.72E-03
20072,2.48E-03,9.04E-03
20073,2.48E-03,8.93E-03
20074,2.51E-03,9.23E-03
20075,2.50E-03,9.14E-03
20076,2.54E-03,9.41E-03
20077,2.53E-03,9.32E-03
20078,2.57E-03,9.59E-03
20079,2.55E-03,9.50E-03
20080,2.61E-03,9.76E-03
20081,2.58E-03,9.68E-03
20082,2.62E-03,9.86E-03
20083,2.63E-03,9.82E-03
20084,2.64E-03,9.89E-03
20085,2.66E-03,9.88E-03
20086,2.61E-03,9.85E-03
20087,2.61E-03,9.88E-03
20088,2.49E-03,9.68E-03
20089,2.55E-03,9.78E-03
20090,2.43E-03,9.55E-03
20091,2.41E-03,1.08E-02
20092,2.41E-03,1.00E-02
20093,2.43E-03,1.04E-02
20094,2.40E-03,1.18E-02
20095,2.40E-03,1.12E-02
20096,2.44E-03,1.30E-02
20097,2.43E-03,1.23E-02
20098,2.47E-03,1.44E-02
20099,2.46E-03,1.36E-02
20100,2.51E-03,1.59E-02
20101,2.50E-03,1.51E-02
20102,2.52E-03,1.76E-02
20103,2.50E-03,1.67E-02
20104,2.51E-03,1.95E-02
20105,2.52E-03,1.85E-02
20106,2.49E-03,2.15E-02
20107,2.50E-03,2.05E-02
20108,2.49E-03,2.38E-02
20109,2.50E-03,2.26E-02
20110,2.51E-03,2.63E-02
20111,2.53E-03,2.50E-02
20112,2.52E-03,2.92E-02
20113,2.54E-03,2.77E-02
20114,2.52E-03,3.25E-02
20115,2.52E-03,3.08E-02
20116,2.50E-03,3.66E-02
20117,2.52E-03,3.45E-02
20118,2.41E-03,4.18E-02
20119,2.47E-03,3.91E-02
20120,2.38E-03,4.89E-02
20121,2.39E-03,4.52E-02
20122,2.45E-03,5.29E-02
20123,2.35E-03,1.74E-02
20124,2.52E-03,5.94E-02
20125,2.59E-03,6.59E-02
20126,2.77E-03,6.46E-02
20127,2.16E-03,8.30E-03
20128,1.59E-03,8.09E-03
20129,2.51E-03,8.64E-03
20130,2.60E-03,4.46E-02
20131,2.48E-03,3.94E-02
20132,2.44E-03,4.10E-02
20133,2.46E-03,3.71E-02
20134,2.55E-03,3.82E-02
20135,2.32E-03,3.57E-02
20136,2.39E-03,3.62E-02
20137,2.25E-03,3.52E-02
20138,2.24E-03,3.54E-02
20139,2.32E-03,3.47E-02
20140,2.29E-03,3.50E-02
20141,2.36E-03,3.44E-02
20142,2.34E-03,3.45E-02
20143,2.41E-03,3.44E-02
20144,2.39E-03,3.43E-02
20145,2.40E-03,3.49E-02
20146,2.41E-03,3.46E-02
20147,2.42E-03,3.53E-02
20148,2.41E-03,3.51E-02
20149,2.50E-03,3.54E-02
20150,2.48E-03,3.53E-02
20151,2.55E-03,3.57E-02
20152,2.52E-03,3.55E-02
20153,2.59E-03,3.62E-02
20154,2.56E-03,3.60E-02
20155,2.64E-03,3.63E-02
20156,2.65E-03,3.64E-02
20157,2.71E-03,3.56E-02
20158,2.70E-03,3.60E-02
20159,2.73E-03,3.47E-02
20160,2.75E-03,3.52E-02
20161,2.70E-03,3.40E-02
20162,2.72E-03,3.43E-02
20163,2.67E-03,3.33E-02
20164,2.68E-03,3.37E-02
20165,2.64E-03,3.19E-02
20166,2.65E-03,3.27E-02
20167,2.60E-03,3.00E-02
20168,2.58E-03,3.10E-02
20169,2.56E-03,2.78E-02
20170,2.57E-03,2.89E-02
20171,2.51E-03,2.60E-02
20172,2.51E-03,2.69E-02
20173,2.46E-03,2.46E-02
20174,2.48E-03,2.53E-02
20175,2.39E-03,2.31E-02
20176,2.39E-03,2.38E-02
20177,2.33E-03,2.16E-02
20178,2.33E-03,2.23E-02
20179,2.30E-03,2.04E-02
20180,2.31E-03,2.09E-02
20181,2.34E-03,1.94E-02
20182,2.34E-03,1.99E-02
20183,2.41E-03,1.88E-02
20184,2.37E-03,1.91E-02
20185,2.39E-03,1.82E-02
20186,2.39E-03,1.85E-02
20187,2.36E-03,1.79E-02
20188,2.37E-03,1.80E-02
20189,2.32E-03,1.77E-02
20190,2.34E-03,1.78E-02
20191,2.34E-03,1.76E-02
20192,2.32E-03,1.76E-02
20193,2.38E-03,1.76E-02
20194,2.38E-03,1.76E-02
20195,2.44E-03,1.75E-02
20196,2.41E-03,1.76E-02
20197,2.48E-03,1.75E-02
20198,2.47E-03,1.75E-02
20199,2.48E-03,1.77E-02
20200,2.49E-03,1.76E-02
20201,2.43E-03,1.79E-02
20202,2.46E-03,1.78E-02
20203,2.48E-03,1.79E-02
20204,2.47E-03,1.79E-02
20205,2.52E-03,1.78E-02
20206,2.52E-03,1.79E-02
20207,2.49E-03,1.78E-02
20208,2.52E-03,1.78E-02
20209,2.47E-03,1.80E-02
20210,2.48E-03,1.79E-02
20211,2.45E-03,1.80E-02
20212,2.44E-03,1.80E-02
20213,2.45E-03,1.80E-02
20214,2.44E-03,1.80E-02
20215,2.41E-03,1.79E-02
20216,2.43E-03,1.79E-02
20217,2.38E-03,1.78E-02
20218,2.40E-03,1.79E-02
20219,2.34E-03,1.70E-02
20220,2.35E-03,1.73E-02
20221,2.34E-03,1.78E-02
20222,2.35E-03,1.78E-02
20223,2.36E-03,1.64E-02
20224,2.37E-03,1.67E-02
20225,2.39E-03,1.59E-02
20226,2.37E-03,1.61E-02
20227,2.43E-03,1.54E-02
20228,2.40E-03,1.56E-02
20229,2.46E-03,1.49E-02
20230,2.47E-03,1.52E-02
20231,2.46E-03,1.45E-02
20232,2.50E-03,1.47E-02
20233,2.46E-03,1.40E-02
20234,2.50E-03,1.43E-02
20235,2.46E-03,1.36E-02
20236,2.50E-03,1.38E-02
20237,2.46E-03,1.31E-02
20238,2.50E-03,1.34E-02
20239,2.46E-03,1.27E-02
20240,2.50E-03,1.29E-02
20241,2.46E-03,1.22E-02
20242,2.50E-03,1.24E-02
20243,2.46E-03,1.17E-02
20244,2.50E-03,1.20E-02
20245,2.46E-03,1.13E-02
20246,2.50E-03,1.15E-02
20247,2.46E-03,1.08E-02
20248,2.50E-03,1.10E-02
20249,2.46E-03,1.03E-02
20250,2.50E-03,1.05E-02
20251,2.46E-03,9.81E-03
20252,2.50E-03,1.00E-02
20253,2.47E-03,9.34E-03
20254,2.50E-03,9.57E-03
20255,2.48E-03,8.88E-03
20256,2.49E-03,9.11E-03
20257,2.49E-03,8.65E-03
20258,2.52E-03,8.40E-03
20259,2.55E-03,8.32E-03
20260,2.54E-03,8.37E-03
20261,2.57E-03,8.19E-03
20262,2.53E-03,8.25E-03
20263,2.58E-03,8.08E-03
20264,2.57E-03,8.13E-03
20265,2.53E-03,7.98E-03
20266,2.54E-03,8.03E-03
20267,2.48E-03,7.84E-03
20268,2.49E-03,7.92E-03
20269,2.43E-03,7.66E-03
20270,2.43E-03,7.75E-03
20271,2.38E-03,7.49E-03
20272,2.40E-03,7.57E-03
20273,2.40E-03,7.36E-03
20274,2.37E-03,7.42E-03
20275,2.38E-03,7.28E-03
20276,2.38E-03,7.32E-03
20277,2.41E-03,7.25E-03
20278,2.40E-03,7.26E-03
20279,2.40E-03,7.25E-03
20280,2.40E-03,7.25E-03
20281,2.43E-03,7.28E-03
20282,2.41E-03,7.27E-03
20283,2.42E-03,7.33E-03
20284,2.42E-03,7.31E-03
20285,2.39E-03,7.41E-03
20286,2.41E-03,7.37E-03
20287,2.39E-03,7.54E-03
20288,2.37E-03,7.47E-03
20289,2.43E-03,7.71E-03
20290,2.40E-03,7.62E-03
20291,2.45E-03,7.88E-03
20292,2.44E-03,7.80E-03
20293,2.50E-03,8.06E-03
20294,2.48E-03,7.97E-03
20295,2.50E-03,8.27E-03
20296,2.50E-03,8.16E-03
20297,2.49E-03,8.46E-03
20298,2.49E-03,8.37E-03
20299,2.51E-03,8.61E-03
20300,2.50E-03,8.54E-03
20301,2.53E-03,8.74E-03
20302,2.53E-03,8.68E-03
20303,2.56E-03,8.90E-03
20304,2.55E-03,8.82E-03
20305,2.61E-03,9.04E-03
20306,2.57E-03,8.98E-03
20307,2.61E-03,9.10E-03
20308,2.59E-03,9.08E-03
20309,2.61E-03,9.09E-03
20310,2.63E-03,9.11E-03
20311,2.54E-03,8.97E-03
20312,2.57E-03,9.05E-03
20313,2.43E-03,8.73E-03
20314,2.50E-03,8.87E-03
20315,2.34E-03,8.54E-03
20316,2.37E-03,8.83E-03
20317,1.74E-03,8.28E-03
20318,2.38E-03,8.53E-03
20319,2.40E-03,9.57E-03
20320,2.41E-03,9.15E-03
20321,2.42E-03,1.05E-02
20322,2.40E-03,1.00E-02
20323,2.45E-03,1.17E-02
20324,2.43E-03,1.11E-02
20325,2.48E-03,1.31E-02
20326,2.46E-03,1.24E-02
20327,2.50E-03,1.45E-02
20328,2.49E-03,1.38E-02
20329,2.50E-03,1.62E-02
20330,2.51E-03,1.54E-02
20331,2.50E-03,1.80E-02
20332,2.51E-03,1.71E-02
20333,2.50E-03,2.00E-02
20334,2.49E-03,1.90E-02
20335,2.48E-03,2.23E-02
20336,2.50E-03,2.11E-02
20337,2.51E-03,2.48E-02
20338,2.51E-03,2.35E-02
20339,2.52E-03,2.76E-02
20340,2.52E-03,2.62E-02
20341,2.51E-03,3.10E-02
20342,2.50E-03,2.92E-02
20343,2.49E-03,3.53E-02
20344,2.53E-03,3.30E-02
20345,2.45E-03,4.10E-02
20346,2.48E-03,3.79E-02
20347,2.44E-03,4.88E-02
20348,2.43E-03,4.45E-02
20349,2.48E-03,5.37E-02
20350,2.13E-03,4.20E-02
20351,2.55E-03,4.95E-02
20352,2.69E-03,7.22E-02
20353,2.35E-03,1.77E-02
20354,2.51E-03,8.42E-03
20355,2.32E-03,3.70E-02
20356,1.54E-03,3.56E-02
20357,1.95E-03,3.71E-02
20358,2.47E-03,3.59E-02
20359,2.38E-03,3.65E-02
20360,2.43E-03,3.51E-02
20361,2.43E-03,3.54E-02
20362,2.39E-03,3.47E-02
20363,2.40E-03,3.49E-02
20364,2.33E-03,3.45E-02
20365,2.35E-03,3.46E-02
20366,2.36E-03,3.44E-02
20367,2.36E-03,3.44E-02
20368,2.44E-03,3.44E-02
20369,2.40E-03,3.44E-02
20370,2.43E-03,3.48E-02
20371,2.43E-03,3.46E-02
20372,2.43E-03,3.54E-02
20373,2.41E-03,3.51E-02
20374,2.45E-03,3.61E-02
20375,2.44E-03,3.58E-02
20376,2.51E-03,3.65E-02
20377,2.48E-03,3.63E-02
20378,2.53E-03,3.72E-02
20379,2.51E-03,3.68E-02
20380,2.57E-03,3.82E-02
20381,2.56E-03,3.77E-02
20382,2.60E-03,3.87E-02
20383,2.60E-03,3.86E-02
20384,2.67E-03,3.87E-02
20385,2.63E-03,3.88E-02
20386,2.65E-03,3.81E-02
20387,2.66E-03,3.85E-02
20388,2.63E-03,3.71E-02
20389,2.65E-03,3.77E-02
20390,2.62E-03,3.57E-02
20391,2.60E-03,3.65E-02
20392,2.57E-03,3.37E-02
20393,2.61E-03,3.48E-02
20394,2.56E-03,3.14E-02
20395,2.56E-03,3.26E-02
20396,2.56E-03,2.90E-02
20397,2.55E-03,3.02E-02
20398,2.48E-03,2.68E-02
20399,2.51E-03,2.79E-02
20400,2.45E-03,2.48E-02
20401,2.46E-03,2.58E-02
20402,2.41E-03,2.27E-02
20403,2.42E-03,2.37E-02
20404,2.36E-03,2.09E-02
20405,2.38E-03,2.17E-02
20406,2.34E-03,1.97E-02
20407,2.36E-03,2.02E-02
20408,2.39E-03,1.89E-02
20409,2.37E-03,1.93E-02
20410,2.44E-03,1.84E-02
20411,2.41E-03,1.86E-02
20412,2.43E-03,1.79E-02
20413,2.44E-03,1.81E-02
20414,2.39E-03,1.75E-02
20415,2.42E-03,1.77E-02
20416,2.37E-03,1.73E-02
20417,2.38E-03,1.74E-02
20418,2.38E-03,1.72E-02
20419,2.36E-03,1.72E-02
20420,2.43E-03,1.73E-02
20421,2.41E-03,1.72E-02
20422,2.46E-03,1.74E-02
20423,2.44E-03,1.74E-02
20424,2.49E-03,1.76E-02
20425,2.47E-03,1.75E-02
20426,2.48E-03,1.79E-02
20427,2.49E-03,1.77E-02
20428,2.45E-03,1.80E-02
20429,2.47E-03,1.80E-02
20430,2.48E-03,1.81E-02
20431,2.48E-03,1.81E-02
20432,2.52E-03,1.81E-02
20433,2.51E-03,1.81E-02
20434,2.51E-03,1.81E-02
20435,2.52E-03,1.81E-02
20436,2.46E-03,1.82E-02
20437,2.48E-03,1.82E-02
20438,2.45E-03,1.82E-02
20439,2.45E-03,1.82E-02
20440,2.47E-03,1.82E-02
20441,2.45E-03,1.82E-02
20442,2.44E-03,1.83E-02
20443,2.46E-03,1.82E-02
20444,2.41E-03,1.83E-02
20445,2.40E-03,1.83E-02
20446,2.35E-03,1.82E-02
20447,2.39E-03,1.83E-02
20448,3.01E-03,6.14E-02
20449,2.59E-03,7.79E-02
20450,3.12E-03,7.83E-02
20451,2.53E-03,9.25E-02
20452,2.35E-03,1.82E-02
20453,2.35E-03,1.77E-02
20454,2.35E-03,1.69E-02
20455,2.36E-03,1.73E-02
20456,2.37E-03,1.63E-02
20457,2.39E-03,1.66E-02
20458,2.42E-03,1.58E-02
20459,2.40E-03,1.61E-02
20460,2.47E-03,1.53E-02
20461,2.45E-03,1.56E-02
20462,2.47E-03,1.49E-02
20463,2.49E-03,1.51E-02
20464,2.47E-03,1.44E-02
20465,2.49E-03,1.47E-02
20466,2.47E-03,1.40E-02
20467,2.49E-03,1.42E-02
20468,2.47E-03,1.35E-02
20469,2.49E-03,1.38E-02
20470,2.47E-03,1.31E-02
20471,2.49E-03,1.33E-02
20472,2.47E-03,1.26E-02
20473,2.49E-03,1.29E-02
20474,2.47E-03,1.22E-02
20475,2.49E-03,1.24E-02
20476,2.47E-03,1.17E-02
20477,2.49E-03,1.20E-02
20478,2.47E-03,1.12E-02
20479,2.49E-03,1.15E-02
20480,2.47E-03,1.08E-02
20481,2.49E-03,1.10E-02
20482,2.46E-03,1.03E-02
20483,2.49E-03,1.05E-02
20484,2.47E-03,9.81E-03
20485,2.49E-03,1.01E-02
20486,2.47E-03,9.34E-03
20487,2.49E-03,9.58E-03
20488,2.50E-03,8.88E-03
20489,2.50E-03,9.11E-03
20490,2.51E-03,8.10E-03
20491,2.51E-03,8.14E-03
20492,2.52E-03,8.42E-03
20493,2.52E-03,8.65E-03
20494,2.55E-03,8.05E-03
20495,2.54E-03,8.07E-03
20496,2.55E-03,7.99E-03
20497,2.54E-03,8.02E-03
20498,2.55E-03,7.91E-03
20499,2.54E-03,7.96E-03
20500,2.52E-03,7.76E-03
20501,2.52E-03,7.85E-03
20502,2.48E-03,7.53E-03
20503,2.50E-03,7.65E-03
20504,2.45E-03,7.26E-03
20505,2.45E-03,7.39E-03
20506,2.42E-03,7.04E-03
20507,2.43E-03,7.14E-03
20508,2.42E-03,6.89E-03
20509,2.40E-03,6.95E-03
20510,2.42E-03,6.80E-03
20511,2.41E-03,6.84E-03
20512,2.43E-03,6.77E-03
20513,2.41E-03,6.78E-03
20514,2.43E-03,6.77E-03
20515,2.43E-03,6.76E-03
20516,2.45E-03,6.80E-03
20517,2.43E-03,6.78E-03
20518,2.44E-03,6.83E-03
20519,2.46E-03,6.81E-03
20520,2.43E-03,6.88E-03
20521,2.43E-03,6.85E-03
20522,2.41E-03,6.97E-03
20523,2.38E-03,6.92E-03
20524,2.45E-03,7.15E-03
20525,2.43E-03,7.05E-03
20526,2.46E-03,7.35E-03
20527,2.47E-03,7.25E-03
20528,2.50E-03,7.54E-03
20529,2.50E-03,7.44E-03
20530,2.48E-03,7.73E-03
20531,2.50E-03,7.63E-03
20532,2.49E-03,7.89E-03
20533,2.48E-03,7.82E-03
20534,2.51E-03,8.01E-03
20535,2.51E-03,7.96E-03
20536,2.52E-03,8.09E-03
20537,2.52E-03,8.05E-03
20538,2.52E-03,8.20E-03
20539,2.51E-03,8.14E-03
20540,2.57E-03,8.32E-03
20541,2.56E-03,8.26E-03
20542,2.57E-03,8.37E-03
20543,2.58E-03,8.35E-03
20544,2.60E-03,8.34E-03
20545,2.59E-03,8.37E-03
20546,2.51E-03,8.14E-03
20547,2.53E-03,8.27E-03
20548,2.39E-03,7.74E-03
20549,2.45E-03,7.96E-03
20550,2.19E-03,7.23E-03
20551,2.31E-03,7.48E-03
20552,2.03E-03,7.11E-03
20553,2.06E-03,7.11E-03
20554,2.35E-03,7.53E-03
20555,2.21E-03,7.24E-03
20556,2.40E-03,8.30E-03
20557,2.40E-03,7.89E-03
20558,2.42E-03,9.28E-03
20559,2.41E-03,8.77E-03
20560,2.45E-03,1.04E-02
20561,2.45E-03,9.82E-03
20562,2.47E-03,1.17E-02
20563,2.47E-03,1.11E-02
20564,2.48E-03,1.32E-02
20565,2.50E-03,1.24E-02
20566,2.48E-03,1.48E-02
20567,2.49E-03,1.40E-02
20568,2.47E-03,1.66E-02
20569,2.48E-03,1.56E-02
20570,2.47E-03,1.85E-02
20571,2.48E-03,1.75E-02
20572,2.48E-03,2.07E-02
20573,2.50E-03,1.96E-02
20574,2.50E-03,2.31E-02
20575,2.50E-03,2.19E-02
20576,2.50E-03,2.59E-02
20577,2.50E-03,2.45E-02
20578,2.49E-03,2.92E-02
20579,2.50E-03,2.75E-02
20580,2.48E-03,3.35E-02
20581,2.49E-03,3.12E-02
20582,2.47E-03,3.93E-02
20583,2.48E-03,3.62E-02
20584,2.48E-03,4.76E-02
20585,2.48E-03,4.31E-02
20586,2.51E-03,5.99E-02
20587,2.50E-03,5.31E-02
20588,2.56E-03,6.79E-02
20589,2.19E-03,8.01E-02
20590,2.38E-03,0.10506
20591,2.35E-03,1.81E-02
20592,2.51E-03,8.17E-03
20593,1.97E-03,7.56E-02
20594,2.59E-03,5.15E-02
20595,2.16E-03,5.75E-02
20596,2.06E-03,3.58E-02
20597,2.39E-03,4.27E-02
20598,1.57E-03,2.81E-02
20599,1.49E-03,3.06E-02
20600,2.35E-03,2.91E-02
20601,2.11E-03,2.81E-02
20602,2.43E-03,3.27E-02
20603,2.40E-03,3.11E-02
20604,2.40E-03,3.40E-02
20605,2.42E-03,3.36E-02
20606,2.42E-03,3.37E-02
20607,2.41E-03,3.40E-02
20608,2.39E-03,3.32E-02
20609,2.38E-03,3.34E-02
20610,2.42E-03,3.37E-02
20611,2.41E-03,3.34E-02
20612,2.46E-03,3.47E-02
20613,2.44E-03,3.42E-02
20614,2.46E-03,3.53E-02
20615,2.46E-03,3.51E-02
20616,2.44E-03,3.56E-02
20617,2.43E-03,3.55E-02
20618,2.48E-03,3.64E-02
20619,2.45E-03,3.59E-02
20620,2.50E-03,3.78E-02
20621,2.48E-03,3.71E-02
20622,2.51E-03,3.91E-02
20623,2.52E-03,3.85E-02
20624,2.54E-03,3.99E-02
20625,2.51E-03,3.95E-02
20626,2.57E-03,4.11E-02
20627,2.57E-03,4.05E-02
20628,2.60E-03,4.24E-02
20629,2.59E-03,4.18E-02
20630,2.58E-03,4.28E-02
20631,2.60E-03,4.28E-02
20632,2.56E-03,4.13E-02
20633,2.57E-03,4.23E-02
20634,2.56E-03,3.84E-02
20635,2.55E-03,4.00E-02
20636,2.55E-03,3.53E-02
20637,2.56E-03,3.68E-02
20638,2.54E-03,3.28E-02
20639,2.54E-03,3.39E-02
20640,2.50E-03,3.07E-02
20641,2.54E-03,3.18E-02
20642,2.46E-03,2.81E-02
20643,2.50E-03,2.95E-02
20644,2.45E-03,2.49E-02
20645,2.44E-03,2.65E-02
20646,2.44E-03,2.19E-02
20647,2.44E-03,2.33E-02
20648,2.41E-03,1.98E-02
20649,2.42E-03,2.07E-02
20650,2.41E-03,1.88E-02
20651,2.41E-03,1.92E-02
20652,2.43E-03,1.83E-02
20653,2.42E-03,1.85E-02
20654,2.46E-03,1.80E-02
20655,2.45E-03,1.81E-02
20656,2.45E-03,1.76E-02
20657,2.46E-03,1.78E-02
20658,2.43E-03,1.72E-02
20659,2.44E-03,1.74E-02
20660,2.40E-03,1.67E-02
20661,2.42E-03,1.69E-02
20662,2.43E-03,1.65E-02
20663,2.41E-03,1.65E-02
20664,2.47E-03,1.68E-02
20665,2.43E-03,1.66E-02
20666,2.47E-03,1.74E-02
20667,2.47E-03,1.71E-02
20668,2.50E-03,1.79E-02
20669,2.48E-03,1.77E-02
20670,2.47E-03,1.81E-02
20671,2.49E-03,1.80E-02
20672,2.46E-03,1.81E-02
20673,2.46E-03,1.81E-02
20674,2.50E-03,1.83E-02
20675,2.48E-03,1.81E-02
20676,2.52E-03,1.85E-02
20677,2.51E-03,1.84E-02
20678,2.50E-03,1.86E-02
20679,2.51E-03,1.86E-02
20680,2.46E-03,1.84E-02
20681,2.47E-03,1.85E-02
20682,2.47E-03,1.83E-02
20683,2.46E-03,1.83E-02
20684,2.49E-03,1.84E-02
20685,2.47E-03,1.83E-02
20686,2.46E-03,1.87E-02
20687,2.49E-03,1.86E-02
20688,2.40E-03,1.89E-02
20689,2.42E-03,1.88E-02
20690,2.38E-03,1.88E-02
20691,2.40E-03,1.89E-02
20692,2.48E-03,0.1062
20693,2.37E-03,1.76E-02
20694,2.35E-03,1.80E-02
20695,2.36E-03,1.86E-02
20696,2.36E-03,1.87E-02
20697,2.38E-03,1.69E-02
20698,2.39E-03,1.72E-02
20699,2.42E-03,1.63E-02
20700,2.40E-03,1.66E-02
20701,2.45E-03,1.58E-02
20702,2.45E-03,1.60E-02
20703,2.47E-03,1.53E-02
20704,2.47E-03,1.55E-02
20705,2.47E-03,1.48E-02
20706,2.49E-03,1.51E-02
20707,2.47E-03,1.44E-02
20708,2.48E-03,1.46E-02
20709,2.47E-03,1.39E-02
20710,2.48E-03,1.42E-02
20711,2.47E-03,1.35E-02
20712,2.48E-03,1.37E-02
20713,2.47E-03,1.31E-02
20714,2.48E-03,1.33E-02
20715,2.47E-03,1.26E-02
20716,2.48E-03,1.28E-02
20717,2.47E-03,1.22E-02
20718,2.48E-03,1.24E-02
20719,2.47E-03,1.17E-02
20720,2.48E-03,1.19E-02
20721,2.47E-03,1.12E-02
20722,2.48E-03,1.15E-02
20723,2.47E-03,1.08E-02
20724,2.48E-03,1.10E-02
20725,2.47E-03,1.03E-02
20726,2.48E-03,1.05E-02
20727,2.47E-03,9.82E-03
20728,2.48E-03,1.01E-02
20729,2.48E-03,9.35E-03
20730,2.48E-03,9.58E-03
20731,2.50E-03,8.88E-03
20732,2.49E-03,9.11E-03
20733,2.52E-03,8.41E-03
20734,2.52E-03,8.64E-03
20735,2.51E-03,8.20E-03
20736,2.53E-03,7.88E-03
20737,2.53E-03,7.66E-03
20738,2.52E-03,7.75E-03
20739,2.54E-03,7.71E-03
20740,2.53E-03,7.65E-03
20741,2.55E-03,7.88E-03
20742,2.53E-03,7.80E-03
20743,2.53E-03,7.87E-03
20744,2.54E-03,7.91E-03
20745,2.50E-03,7.60E-03
20746,2.52E-03,7.77E-03
20747,2.48E-03,7.19E-03
20748,2.49E-03,7.40E-03
20749,2.46E-03,6.83E-03
20750,2.46E-03,7.00E-03
20751,2.44E-03,6.56E-03
20752,2.45E-03,6.68E-03
20753,2.44E-03,6.38E-03
20754,2.44E-03,6.46E-03
20755,2.45E-03,6.29E-03
20756,2.44E-03,6.33E-03
20757,2.46E-03,6.27E-03
20758,2.45E-03,6.28E-03
20759,2.47E-03,6.29E-03
20760,2.46E-03,6.28E-03
20761,2.46E-03,6.32E-03
20762,2.47E-03,6.30E-03
20763,2.46E-03,6.35E-03
20764,2.48E-03,6.34E-03
20765,2.46E-03,6.35E-03
20766,2.46E-03,6.35E-03
20767,2.46E-03,6.37E-03
20768,2.43E-03,6.35E-03
20769,2.48E-03,6.52E-03
20770,2.46E-03,6.42E-03
20771,2.49E-03,6.82E-03
20772,2.48E-03,6.66E-03
20773,2.50E-03,7.10E-03
20774,2.51E-03,6.98E-03
20775,2.48E-03,7.22E-03
20776,2.50E-03,7.17E-03
20777,2.49E-03,7.29E-03
20778,2.48E-03,7.25E-03
20779,2.53E-03,7.43E-03
20780,2.50E-03,7.36E-03
20781,2.51E-03,7.50E-03
20782,2.54E-03,7.49E-03
20783,2.51E-03,7.46E-03
20784,2.50E-03,7.48E-03
20785,2.56E-03,7.52E-03
20786,2.56E-03,7.46E-03
20787,2.56E-03,7.69E-03
20788,2.56E-03,7.61E-03
20789,2.55E-03,7.71E-03
20790,2.55E-03,7.74E-03
20791,2.47E-03,7.37E-03
20792,2.51E-03,7.58E-03
20793,2.38E-03,6.74E-03
20794,2.43E-03,7.08E-03
20795,2.27E-03,6.08E-03
20796,2.32E-03,6.39E-03
20797,2.20E-03,5.81E-03
20798,2.24E-03,5.85E-03
20799,2.40E-03,6.16E-03
20800,2.31E-03,5.84E-03
20801,2.43E-03,6.99E-03
20802,2.41E-03,6.57E-03
20803,2.44E-03,7.98E-03
20804,2.43E-03,7.49E-03
20805,2.46E-03,9.11E-03
20806,2.46E-03,8.51E-03
20807,2.48E-03,1.04E-02
20808,2.47E-03,9.71E-03
20809,2.48E-03,1.18E-02
20810,2.49E-03,1.11E-02
20811,2.48E-03,1.33E-02
20812,2.49E-03,1.25E-02
20813,2.48E-03,1.50E-02
20814,2.49E-03,1.42E-02
20815,2.48E-03,1.69E-02
20816,2.49E-03,1.60E-02
20817,2.48E-03,1.90E-02
20818,2.49E-03,1.79E-02
20819,2.48E-03,2.14E-02
20820,2.49E-03,2.02E-02
20821,2.48E-03,2.40E-02
20822,2.49E-03,2.27E-02
20823,2.48E-03,2.72E-02
20824,2.49E-03,2.55E-02
20825,2.48E-03,3.13E-02
20826,2.47E-03,2.91E-02
20827,2.47E-03,3.71E-02
20828,2.49E-03,3.40E-02
20829,2.48E-03,4.53E-02
20830,2.47E-03,4.08E-02
20831,2.51E-03,5.79E-02
20832,2.49E-03,5.08E-02
20833,2.53E-03,7.85E-02
20834,2.54E-03,6.70E-02
20835,2.47E-03,0.11519
20836,2.49E-03,9.45E-02
20837,2.50E-03,0.15433
20838,2.37E-03,1.84E-02
20839,2.51E-03,8.04E-03
20840,2.59E-03,0.15121
20841,2.49E-03,9.05E-02
20842,2.34E-03,5.84E-02
20843,2.32E-03,4.40E-02
20844,2.39E-03,3.86E-02
20845,2.35E-03,3.51E-02
20846,2.19E-03,2.86E-02
20847,2.21E-03,2.22E-02
20848,2.47E-03,1.83E-02
20849,2.56E-03,1.81E-02
20850,2.48E-03,2.13E-02
20851,2.44E-03,2.64E-02
20852,2.42E-03,3.09E-02
20853,2.40E-03,3.33E-02
20854,2.40E-03,3.40E-02
20855,2.43E-03,3.36E-02
20856,2.44E-03,3.27E-02
20857,2.45E-03,3.18E-02
20858,2.47E-03,3.13E-02
20859,2.47E-03,3.16E-02
20860,2.47E-03,3.27E-02
20861,2.46E-03,3.42E-02
20862,2.47E-03,3.54E-02
20863,2.46E-03,3.60E-02
20864,2.44E-03,3.62E-02
20865,2.43E-03,3.60E-02
20866,2.44E-03,3.55E-02
20867,2.49E-03,3.53E-02
20868,2.51E-03,3.60E-02
20869,2.50E-03,3.77E-02
20870,2.49E-03,3.97E-02
20871,2.50E-03,4.10E-02
20872,2.49E-03,4.14E-02
20873,2.49E-03,4.14E-02
20874,2.52E-03,4.12E-02
20875,2.56E-03,4.16E-02
20876,2.55E-03,4.32E-02
20877,2.55E-03,4.53E-02
20878,2.53E-03,4.71E-02
20879,2.53E-03,4.84E-02
20880,2.51E-03,4.91E-02
20881,2.48E-03,4.88E-02
20882,2.46E-03,4.72E-02
20883,2.48E-03,4.44E-02
20884,2.50E-03,4.13E-02
20885,2.51E-03,3.85E-02
20886,2.51E-03,3.64E-02
20887,2.51E-03,3.50E-02
20888,2.53E-03,3.40E-02
20889,2.54E-03,3.35E-02
20890,2.49E-03,3.30E-02
20891,2.45E-03,3.21E-02
20892,2.43E-03,3.03E-02
20893,2.42E-03,2.77E-02
20894,2.44E-03,2.50E-02
20895,2.46E-03,2.26E-02
20896,2.47E-03,2.07E-02
20897,2.44E-03,1.93E-02
20898,2.46E-03,1.83E-02
20899,2.47E-03,1.78E-02
20900,2.47E-03,1.77E-02
20901,2.47E-03,1.77E-02
20902,2.46E-03,1.77E-02
20903,2.48E-03,1.77E-02
20904,2.48E-03,1.76E-02
20905,2.48E-03,1.76E-02
20906,2.47E-03,1.74E-02
20907,2.46E-03,1.72E-02
20908,2.45E-03,1.69E-02
20909,2.44E-03,1.65E-02
20910,2.43E-03,1.61E-02
20911,2.46E-03,1.57E-02
20912,2.48E-03,1.55E-02
20913,2.48E-03,1.56E-02
20914,2.51E-03,1.60E-02
20915,2.51E-03,1.66E-02
20916,2.50E-03,1.74E-02
20917,2.49E-03,1.82E-02
20918,2.48E-03,1.86E-02
20919,2.46E-03,1.85E-02
20920,2.46E-03,1.82E-02
20921,2.47E-03,1.80E-02
20922,2.49E-03,1.80E-02
20923,2.50E-03,1.81E-02
20924,2.51E-03,1.84E-02
20925,2.51E-03,1.87E-02
20926,2.51E-03,1.91E-02
20927,2.49E-03,1.93E-02
20928,2.47E-03,1.92E-02
20929,2.46E-03,1.88E-02
20930,2.46E-03,1.84E-02
20931,2.48E-03,1.82E-02
20932,2.49E-03,1.81E-02
20933,2.50E-03,1.83E-02
20934,2.50E-03,1.86E-02
20935,2.50E-03,1.89E-02
20936,2.48E-03,1.92E-02
20937,2.44E-03,1.95E-02
20938,2.42E-03,1.96E-02
20939,2.39E-03,1.97E-02
20940,2.38E-03,1.95E-02
20941,2.36E-03,1.93E-02
20942,2.35E-03,1.91E-02
20943,2.36E-03,1.88E-02
20944,2.40E-03,1.85E-02
20945,2.38E-03,1.82E-02
20946,2.37E-03,1.78E-02
20947,2.40E-03,1.75E-02
20948,2.41E-03,1.71E-02
20949,2.41E-03,1.68E-02
20950,2.43E-03,1.65E-02
20951,2.46E-03,1.62E-02
20952,2.46E-03,1.60E-02
20953,2.48E-03,1.57E-02
20954,2.48E-03,1.55E-02
20955,2.48E-03,1.52E-02
20956,2.48E-03,1.50E-02
20957,2.48E-03,1.48E-02
20958,2.48E-03,1.45E-02
20959,2.48E-03,1.43E-02
20960,2.48E-03,1.41E-02
20961,2.48E-03,1.39E-02
20962,2.48E-03,1.37E-02
20963,2.48E-03,1.35E-02
20964,2.48E-03,1.32E-02
20965,2.48E-03,1.30E-02
20966,2.48E-03,1.28E-02
20967,2.48E-03,1.26E-02
20968,2.48E-03,1.24E-02
20969,2.48E-03,1.21E-02
20970,2.48E-03,1.19E-02
20971,2.48E-03,1.17E-02
20972,2.48E-03,1.14E-02
20973,2.48E-03,1.12E-02
20974,2.48E-03,1.10E-02
20975,2.48E-03,1.08E-02
20976,2.48E-03,1.05E-02
20977,2.48E-03,1.03E-02
20978,2.48E-03,1.01E-02
20979,2.48E-03,9.82E-03
20980,2.48E-03,9.59E-03
20981,2.48E-03,9.35E-03
20982,2.49E-03,9.12E-03
20983,2.50E-03,8.88E-03
20984,2.52E-03,8.64E-03
20985,2.52E-03,8.41E-03
20986,2.53E-03,8.22E-03
20987,2.53E-03,8.16E-03
20988,2.50E-03,8.30E-03
20989,2.50E-03,7.95E-03
20990,2.51E-03,7.56E-03
20991,2.54E-03,7.20E-03
20992,2.56E-03,7.01E-03
20993,2.55E-03,7.06E-03
20994,2.54E-03,7.28E-03
20995,2.52E-03,7.59E-03
20996,2.51E-03,7.88E-03
20997,2.50E-03,8.04E-03
20998,2.48E-03,8.03E-03
20999,2.48E-03,7.83E-03
21000,2.48E-03,7.51E-03
21001,2.48E-03,7.16E-03
21002,2.48E-03,6.83E-03
21003,2.47E-03,6.57E-03
21004,2.47E-03,6.36E-03
21005,2.47E-03,6.19E-03
21006,2.47E-03,6.05E-03
21007,2.47E-03,5.93E-03
21008,2.48E-03,5.85E-03
21009,2.48E-03,5.80E-03
21010,2.48E-03,5.77E-03
21011,2.49E-03,5.77E-03
21012,2.49E-03,5.77E-03
21013,2.49E-03,5.79E-03
21014,2.49E-03,5.81E-03
21015,2.49E-03,5.83E-03
21016,2.49E-03,5.86E-03
21017,2.49E-03,5.88E-03
21018,2.48E-03,5.89E-03
21019,2.47E-03,5.88E-03
21020,2.47E-03,5.84E-03
21021,2.46E-03,5.78E-03
21022,2.48E-03,5.73E-03
21023,2.50E-03,5.72E-03
21024,2.52E-03,5.81E-03
21025,2.52E-03,6.01E-03
21026,2.52E-03,6.31E-03
21027,2.50E-03,6.60E-03
21028,2.50E-03,6.80E-03
21029,2.48E-03,6.82E-03
21030,2.48E-03,6.72E-03
21031,2.49E-03,6.62E-03
21032,2.51E-03,6.61E-03
21033,2.53E-03,6.72E-03
21034,2.53E-03,6.90E-03
21035,2.51E-03,7.03E-03
21036,2.49E-03,7.02E-03
21037,2.48E-03,6.85E-03
21038,2.51E-03,6.63E-03
21039,2.56E-03,6.52E-03
21040,2.57E-03,6.58E-03
21041,2.55E-03,6.81E-03
21042,2.53E-03,7.10E-03
21043,2.51E-03,7.26E-03
21044,2.49E-03,7.22E-03
21045,2.48E-03,7.02E-03
21046,2.44E-03,6.70E-03
21047,2.41E-03,6.27E-03
21048,2.38E-03,5.78E-03
21049,2.34E-03,5.28E-03
21050,2.33E-03,4.81E-03
21051,2.34E-03,4.46E-03
21052,2.56E-03,4.29E-03
21053,2.61E-03,4.43E-03
21054,2.45E-03,4.74E-03
21055,2.43E-03,5.20E-03
21056,2.46E-03,5.73E-03
21057,2.45E-03,6.11E-03
21058,2.46E-03,6.63E-03
21059,2.47E-03,7.24E-03
21060,2.49E-03,7.75E-03
21061,2.49E-03,8.33E-03
21062,2.49E-03,9.02E-03
21063,2.49E-03,9.74E-03
21064,2.49E-03,1.04E-02
21065,2.49E-03,1.11E-02
21066,2.49E-03,1.18E-02
21067,2.49E-03,1.26E-02
21068,2.49E-03,1.35E-02
21069,2.49E-03,1.43E-02
21070,2.49E-03,1.53E-02
21071,2.49E-03,1.63E-02
21072,2.49E-03,1.73E-02
21073,2.49E-03,1.84E-02
21074,2.49E-03,1.95E-02
21075,2.49E-03,2.08E-02
21076,2.49E-03,2.20E-02
21077,2.49E-03,2.34E-02
21078,2.49E-03,2.50E-02
21079,2.49E-03,2.67E-02
21080,2.49E-03,2.88E-02
21081,2.49E-03,3.12E-02
21082,2.48E-03,3.42E-02
21083,2.48E-03,3.77E-02
21084,2.49E-03,4.19E-02
21085,2.47E-03,4.70E-02
21086,2.48E-03,5.34E-02
21087,2.50E-03,6.23E-02
21088,2.50E-03,7.39E-02
21089,2.48E-03,8.86E-02
21090,2.49E-03,0.11281
21091,2.49E-03,0.14482
21092,2.51E-03,0.31661
21105,2.60E-03,1.13E-02
21106,3.07E-03,1.12E-02
21107,2.57E-03,1.11E-02
21108,2.21E-03,1.12E-02
21109,2.74E-03,2.17E-03
21110,2.00E-03,1.77E-03
21111,2.60E-03,1.88E-03
21112,3.00E-03,1.17E-02
21113,2.94E-03,1.17E-02
21114,3.05E-03,4.21E-03
21115,3.14E-03,4.55E-03
21116,2.51E-03,4.62E-03
21117,2.53E-03,4.31E-03
21118,2.62E-03,3.73E-03
21119,2.70E-03,3.88E-03
21120,2.04E-03,4.06E-03
21121,2.74E-03,3.84E-03
21122,3.15E-03,1.13E-02
21123,3.24E-03,1.19E-02
21124,2.38E-03,1.19E-02
21125,2.51E-03,1.18E-02
21126,2.99E-03,1.26E-02
21127,1.86E-03,1.25E-02
21128,1.57E-03,1.24E-02
21129,2.43E-03,1.17E-02
21130,3.29E-03,1.21E-02
21131,3.51E-03,1.18E-02
21132,2.54E-03,3.60E-03
21133,2.85E-03,1.14E-02
21134,2.13E-03,1.14E-02
21135,2.96E-03,8.26E-03
21136,3.00E-03,8.51E-03
21137,2.65E-03,1.24E-02
21138,2.67E-03,1.27E-02
21139,3.37E-03,1.38E-02
21140,2.19E-03,1.37E-02
21141,2.29E-03,1.28E-02
21142,2.31E-03,1.28E-02
21143,2.53E-03,1.22E-02
21144,2.66E-03,1.23E-02
21145,2.66E-03,1.22E-02
21146,2.61E-03,1.22E-02
21147,2.68E-03,1.03E-02
21148,1.66E-03,9.54E-03
21149,1.65E-03,9.64E-03
21150,2.46E-03,9.70E-03
21151,2.64E-03,9.86E-03
21152,1.65E-03,9.43E-03
21153,3.03E-03,9.85E-03
21154,2.79E-03,9.94E-03
21155,2.36E-03,1.02E-02
21156,2.46E-03,1.01E-02
21157,2.65E-03,1.00E-02
21158,2.44E-03,9.87E-03
21159,2.41E-03,9.95E-03
21160,2.61E-03,9.69E-03
21161,2.59E-03,9.78E-03
21162,2.32E-03,9.46E-03
21163,2.61E-03,9.57E-03
21164,2.02E-03,9.24E-03
21165,1.87E-03,9.35E-03
21166,2.60E-03,1.02E-02
21167,3.07E-03,1.02E-02
21168,2.92E-03,1.05E-02
21169,2.11E-03,1.05E-02
21170,2.21E-03,9.01E-03
21171,2.11E-03,9.18E-03
21172,2.23E-03,8.95E-03
21173,3.11E-03,1.01E-02
21174,2.05E-03,9.41E-03
21175,2.05E-03,9.66E-03
21176,2.33E-03,9.89E-03
21177,2.56E-03,1.01E-02
21178,2.91E-03,1.02E-02
21179,3.15E-03,1.01E-02
21180,2.56E-03,1.03E-02
21181,2.71E-03,1.03E-02
21182,2.26E-03,1.04E-02
21183,2.29E-03,1.04E-02
21184,2.46E-03,1.04E-02
21185,2.22E-03,9.89E-03
21186,2.63E-03,1.00E-02
21187,2.45E-03,9.64E-03
21188,2.25E-03,9.73E-03
21189,2.52E-03,9.43E-03
21190,2.51E-03,9.54E-03
21191,2.24E-03,9.20E-03
21192,2.38E-03,9.32E-03
21193,2.21E-03,9.10E-03
21194,2.23E-03,9.38E-03
21195,2.28E-03,9.87E-03
21196,2.24E-03,9.63E-03
21197,2.20E-03,9.13E-03
21198,2.66E-03,1.05E-02
21199,3.27E-03,1.05E-02
21200,2.92E-03,1.06E-02
21201,2.85E-03,1.07E-02
21202,2.60E-03,1.07E-02
21203,2.86E-03,1.08E-02
21204,2.36E-03,1.01E-02
21205,2.80E-03,1.04E-02
21206,2.72E-03,1.04E-02
21207,2.37E-03,8.70E-03
21208,2.36E-03,8.76E-03
21209,2.24E-03,8.90E-03
21210,2.38E-03,8.66E-03
21211,2.10E-03,1.11E-02
21212,1.30E-03,1.12E-02
21213,1.51E-03,1.10E-02
21214,2.89E-03,1.04E-02
21215,2.96E-03,1.04E-02
21216,2.66E-03,1.05E-02
21217,2.77E-03,1.05E-02
21218,2.56E-03,1.06E-02
21219,2.53E-03,1.06E-02
21220,2.53E-03,1.07E-02
21221,2.60E-03,1.07E-02
21222,2.58E-03,1.08E-02
21223,2.62E-03,1.07E-02
21224,2.74E-03,1.08E-02
21225,2.66E-03,1.08E-02
21226,2.46E-03,1.09E-02
21227,2.69E-03,1.09E-02
21228,2.30E-03,1.10E-02
21229,2.68E-03,1.10E-02
21230,3.20E-03,1.10E-02
21231,2.84E-03,1.10E-02
21232,2.45E-03,1.03E-02
21233,1.83E-03,1.11E-02
21234,2.51E-03,8.44E-03
21235,2.44E-03,8.37E-03
21236,1.84E-03,8.14E-03
21237,2.59E-03,8.39E-03
21238,2.23E-03,1.09E-02
21239,3.10E-03,1.08E-02
21240,2.49E-03,1.09E-02
21241,3.40E-03,1.07E-02
21242,3.42E-03,1.08E-02
21243,3.03E-03,1.04E-02
21244,3.05E-03,1.05E-02
21245,3.39E-03,1.03E-02
21246,3.13E-03,1.04E-02
21247,2.96E-03,9.98E-03
21248,3.41E-03,1.01E-02
21249,2.51E-03,9.68E-03
21250,2.68E-03,9.83E-03
21251,2.44E-03,9.41E-03
21252,2.42E-03,9.54E-03
21253,2.48E-03,9.19E-03
21254,2.47E-03,9.30E-03
21255,2.37E-03,8.95E-03
21256,2.41E-03,9.07E-03
21257,2.34E-03,8.85E-03
21258,2.24E-03,8.86E-03
21259,2.31E-03,8.62E-03
21260,2.21E-03,9.34E-03
21261,2.24E-03,9.10E-03
21262,2.25E-03,9.82E-03
21263,2.24E-03,9.58E-03
21264,2.11E-03,1.03E-02
21265,2.21E-03,1.01E-02
21266,2.49E-03,8.51E-03
21267,2.50E-03,1.10E-02
21268,2.83E-03,1.10E-02
21269,2.58E-03,1.11E-02
21270,2.44E-03,1.11E-02
21271,2.33E-03,1.12E-02
21272,2.06E-03,8.02E-03
21273,1.69E-03,7.89E-03
21274,2.17E-03,8.34E-03
21275,2.00E-03,8.11E-03
21276,1.97E-03,1.05E-02
21277,2.19E-03,1.02E-02
21278,2.06E-03,1.12E-02
21279,2.09E-03,1.13E-02
21280,2.30E-03,1.13E-02
21281,1.67E-03,1.04E-02
21282,2.90E-03,1.06E-02
21283,2.77E-03,1.06E-02
21284,2.72E-03,1.06E-02
21285,2.83E-03,1.07E-02
21286,2.84E-03,1.07E-02
21287,2.73E-03,1.08E-02
21288,2.78E-03,1.07E-02
21289,2.69E-03,1.08E-02
21290,2.78E-03,1.08E-02
21291,2.58E-03,1.09E-02
21292,2.61E-03,1.09E-02
21293,2.49E-03,1.10E-02
21294,2.58E-03,1.10E-02
21295,2.58E-03,1.11E-02
21296,2.53E-03,1.10E-02
21297,2.38E-03,1.12E-02
21298,2.56E-03,1.11E-02
21299,2.08E-03,1.12E-02
21300,2.18E-03,1.13E-02
21301,2.42E-03,1.13E-02
21302,2.40E-03,1.13E-02
21303,2.18E-03,1.13E-02
21304,2.52E-03,1.13E-02
21305,2.76E-03,1.13E-02
21306,2.38E-03,1.13E-02
21307,2.39E-03,1.13E-02
21308,2.09E-03,1.13E-02
21309,2.55E-03,8.19E-03
21310,2.72E-03,8.13E-03
21311,2.51E-03,1.09E-02
21312,2.50E-03,1.10E-02
21313,2.54E-03,1.08E-02
21314,2.57E-03,1.09E-02
21315,2.56E-03,1.07E-02
21316,2.53E-03,1.08E-02
21317,2.94E-03,1.06E-02
21318,2.68E-03,1.07E-02
21319,3.15E-03,1.04E-02
21320,3.06E-03,1.05E-02
21321,3.13E-03,1.02E-02
21322,3.15E-03,1.03E-02
21323,3.21E-03,1.00E-02
21324,3.16E-03,1.01E-02
21325,3.00E-03,9.76E-03
21326,3.03E-03,9.90E-03
21327,2.61E-03,9.46E-03
21328,2.74E-03,9.61E-03
21329,2.50E-03,9.19E-03
21330,2.50E-03,9.32E-03
21331,2.47E-03,8.94E-03
21332,2.50E-03,9.06E-03
21333,2.45E-03,8.70E-03
21334,2.45E-03,8.82E-03
21335,2.47E-03,8.60E-03
21336,2.24E-03,8.81E-03
21337,2.24E-03,8.57E-03
21338,2.24E-03,9.30E-03
21339,2.24E-03,9.06E-03
21340,2.25E-03,9.78E-03
21341,2.26E-03,9.54E-03
21342,2.26E-03,1.00E-02
21343,2.13E-03,1.14E-02
21344,2.19E-03,1.14E-02
21345,2.14E-03,1.15E-02
21346,2.61E-03,8.26E-03
21347,2.11E-03,7.84E-03
21348,1.71E-03,1.06E-02
21349,2.90E-03,1.08E-02
21350,2.85E-03,1.09E-02
21351,2.77E-03,1.08E-02
21352,2.82E-03,1.09E-02
21353,2.81E-03,1.09E-02
21354,2.73E-03,1.10E-02
21355,2.77E-03,1.10E-02
21356,2.67E-03,1.11E-02
21357,2.71E-03,1.10E-02
21358,2.61E-03,1.11E-02
21359,2.63E-03,1.11E-02
21360,2.56E-03,1.12E-02
21361,2.56E-03,1.12E-02
21362,2.51E-03,1.13E-02
21363,2.52E-03,1.13E-02
21364,2.39E-03,1.14E-02
21365,2.47E-03,1.13E-02
21366,2.25E-03,1.14E-02
21367,2.26E-03,1.15E-02
21368,2.27E-03,1.15E-02
21369,2.25E-03,1.15E-02
21370,2.27E-03,1.15E-02
21371,2.47E-03,1.15E-02
21372,2.44E-03,1.15E-02
21373,2.43E-03,1.15E-02
21374,2.40E-03,1.15E-02
21375,2.21E-03,1.15E-02
21376,2.13E-03,1.15E-02
21377,3.09E-03,1.14E-02
21378,2.66E-03,1.15E-02
21379,2.88E-03,1.13E-02
21380,2.78E-03,1.13E-02
21381,2.74E-03,1.15E-02
21382,2.78E-03,1.15E-02
21383,2.73E-03,1.14E-02
21384,2.69E-03,1.14E-02
21385,2.65E-03,1.16E-02
21386,2.68E-03,1.15E-02
21387,2.25E-03,7.79E-03
21388,2.44E-03,7.86E-03
21389,2.43E-03,1.09E-02
21390,2.70E-03,1.15E-02
21391,2.69E-03,1.16E-02
21392,2.72E-03,1.15E-02
21393,2.73E-03,1.16E-02
21394,2.65E-03,1.15E-02
21395,2.39E-03,1.15E-02
21396,2.63E-03,1.15E-02
21397,2.35E-03,1.16E-02
21398,2.58E-03,1.16E-02
21399,2.63E-03,1.14E-02
21400,2.65E-03,1.14E-02
21401,2.68E-03,1.13E-02
21402,2.66E-03,1.13E-02
21403,2.78E-03,1.12E-02
21404,2.71E-03,1.12E-02
21405,2.93E-03,1.11E-02
21406,2.87E-03,1.11E-02
21407,2.68E-03,1.09E-02
21408,2.77E-03,1.10E-02
21409,2.55E-03,1.08E-02
21410,2.56E-03,1.08E-02
21411,2.54E-03,1.06E-02
21412,2.55E-03,1.07E-02
21413,2.58E-03,1.05E-02
21414,2.57E-03,1.06E-02
21415,2.85E-03,1.04E-02
21416,2.70E-03,1.04E-02
21417,3.04E-03,1.02E-02
21418,2.94E-03,1.03E-02
21419,3.12E-03,1.00E-02
21420,3.10E-03,1.01E-02
21421,3.12E-03,9.79E-03
21422,3.11E-03,9.91E-03
21423,2.91E-03,9.53E-03
21424,2.99E-03,9.66E-03
21425,2.67E-03,9.23E-03
21426,2.77E-03,9.38E-03
21427,2.51E-03,8.95E-03
21428,2.59E-03,9.09E-03
21429,2.49E-03,8.70E-03
21430,2.53E-03,8.83E-03
21431,2.50E-03,8.45E-03
21432,2.48E-03,8.57E-03
21433,2.57E-03,8.34E-03
21434,2.15E-03,7.57E-03
21435,2.12E-03,7.68E-03
21436,2.27E-03,7.78E-03
21437,2.20E-03,8.29E-03
21438,2.18E-03,8.04E-03
21439,2.25E-03,8.76E-03
21440,2.23E-03,8.53E-03
21441,2.28E-03,9.25E-03
21442,2.27E-03,9.01E-03
21443,2.27E-03,9.74E-03
21444,2.27E-03,9.50E-03
21445,2.16E-03,1.02E-02
21446,2.23E-03,9.98E-03
21447,2.00E-03,1.07E-02
21448,2.14E-03,1.04E-02
21449,2.58E-03,7.94E-03
21450,2.27E-03,7.50E-03
21451,2.17E-03,1.09E-02
21452,2.73E-03,1.17E-02
21453,2.69E-03,1.16E-02
21454,2.81E-03,1.16E-02
21455,2.58E-03,1.16E-02
21456,2.36E-03,1.14E-02
21457,2.73E-03,1.14E-02
21458,2.55E-03,1.13E-02
21459,2.59E-03,8.00E-03
21460,2.18E-03,1.17E-02
21461,2.17E-03,1.16E-02
21462,2.29E-03,7.31E-03
21463,2.37E-03,7.22E-03
21464,2.21E-03,1.07E-02
21465,2.19E-03,1.09E-02
21466,2.28E-03,1.11E-02
21467,2.67E-03,1.11E-02
21468,2.41E-03,1.11E-02
21469,2.80E-03,1.11E-02
21470,2.78E-03,1.11E-02
21471,2.83E-03,1.12E-02
21472,2.79E-03,1.11E-02
21473,2.76E-03,1.12E-02
21474,2.81E-03,1.12E-02
21475,2.66E-03,1.13E-02
21476,2.71E-03,1.12E-02
21477,2.60E-03,1.14E-02
21478,2.65E-03,1.13E-02
21479,2.55E-03,1.14E-02
21480,2.55E-03,1.14E-02
21481,2.47E-03,1.15E-02
21482,2.49E-03,1.15E-02
21483,2.36E-03,1.16E-02
21484,2.42E-03,1.15E-02
21485,2.22E-03,1.16E-02
21486,2.30E-03,1.16E-02
21487,2.26E-03,1.17E-02
21488,2.21E-03,1.17E-02
21489,2.31E-03,1.17E-02
21490,2.27E-03,1.17E-02
21491,2.40E-03,1.17E-02
21492,2.36E-03,1.17E-02
21493,2.38E-03,1.16E-02
21494,2.41E-03,1.16E-02
21495,2.64E-03,1.16E-02
21496,2.45E-03,1.16E-02
21497,2.68E-03,1.16E-02
21498,2.59E-03,1.16E-02
21499,2.68E-03,1.16E-02
21500,2.68E-03,1.16E-02
21501,2.58E-03,1.17E-02
21502,2.62E-03,1.17E-02
21503,2.87E-03,1.18E-02
21504,2.51E-03,1.17E-02
21505,2.70E-03,1.17E-02
21506,2.66E-03,1.17E-02
21507,2.60E-03,1.17E-02
21508,2.51E-03,1.17E-02
21509,2.48E-03,1.17E-02
21510,2.78E-03,1.17E-02
21511,2.42E-03,1.18E-02
21512,2.61E-03,1.17E-02
21513,2.74E-03,1.18E-02
21514,2.93E-03,1.17E-02
21515,2.94E-03,1.18E-02
21516,2.59E-03,1.17E-02
21517,2.41E-03,1.17E-02
21518,2.75E-03,1.16E-02
21519,2.67E-03,1.16E-02
21520,2.65E-03,1.15E-02
21521,2.64E-03,1.16E-02
21522,2.85E-03,1.15E-02
21523,2.63E-03,1.12E-02
21524,2.60E-03,1.13E-02
21525,2.68E-03,1.11E-02
21526,2.65E-03,1.12E-02
21527,2.74E-03,1.10E-02
21528,2.70E-03,1.11E-02
21529,2.78E-03,1.09E-02
21530,2.78E-03,1.10E-02
21531,2.64E-03,1.07E-02
21532,2.67E-03,1.08E-02
21533,2.55E-03,1.06E-02
21534,2.58E-03,1.07E-02
21535,2.56E-03,1.04E-02
21536,2.53E-03,1.05E-02
21537,2.64E-03,1.03E-02
21538,2.59E-03,1.04E-02
21539,2.82E-03,1.01E-02
21540,2.70E-03,1.02E-02
21541,2.96E-03,9.99E-03
21542,2.91E-03,1.01E-02
21543,3.06E-03,9.79E-03
21544,3.03E-03,9.89E-03
21545,3.03E-03,9.56E-03
21546,3.07E-03,9.68E-03
21547,2.88E-03,9.29E-03
21548,2.99E-03,9.43E-03
21549,2.70E-03,9.00E-03
21550,2.75E-03,9.14E-03
21551,2.54E-03,8.71E-03
21552,2.60E-03,8.85E-03
21553,2.49E-03,8.45E-03
21554,2.54E-03,8.58E-03
21555,2.54E-03,8.19E-03
21556,2.49E-03,8.32E-03
21557,2.63E-03,8.08E-03
21558,2.43E-03,7.68E-03
21559,2.32E-03,7.52E-03
21560,2.33E-03,7.62E-03
21561,2.26E-03,7.41E-03
21562,2.36E-03,7.44E-03
21563,2.26E-03,7.97E-03
21564,2.30E-03,7.71E-03
21565,2.26E-03,8.72E-03
21566,2.24E-03,8.23E-03
21567,2.25E-03,8.48E-03
21568,2.31E-03,9.21E-03
21569,2.30E-03,8.96E-03
21570,2.28E-03,9.70E-03
21571,2.30E-03,9.46E-03
21572,2.25E-03,1.02E-02
21573,2.26E-03,9.94E-03
21574,2.28E-03,1.04E-02
21575,2.22E-03,1.18E-02
21576,2.23E-03,1.18E-02
21577,2.20E-03,1.18E-02
21578,2.94E-03,1.18E-02
21579,2.05E-03,1.19E-02
21580,2.55E-03,1.13E-02
21581,2.55E-03,1.13E-02
21582,2.53E-03,1.12E-02
21583,2.87E-03,7.73E-03
21584,2.44E-03,7.16E-03
21585,2.18E-03,1.11E-02
21586,2.33E-03,1.13E-02
21587,2.70E-03,1.13E-02
21588,2.52E-03,1.13E-02
21589,2.78E-03,1.14E-02
21590,2.73E-03,1.13E-02
21591,2.82E-03,1.14E-02
21592,2.78E-03,1.14E-02
21593,2.77E-03,1.14E-02
21594,2.77E-03,1.14E-02
21595,2.67E-03,1.15E-02
21596,2.70E-03,1.15E-02
21597,2.58E-03,1.16E-02
21598,2.64E-03,1.16E-02
21599,2.54E-03,1.17E-02
21600,2.56E-03,1.16E-02
21601,2.45E-03,1.17E-02
21602,2.49E-03,1.17E-02
21603,2.34E-03,1.18E-02
21604,2.39E-03,1.17E-02
21605,2.29E-03,1.18E-02
21606,2.25E-03,1.19E-02
21607,2.21E-03,1.19E-02
21608,2.33E-03,1.18E-02
21609,2.29E-03,1.19E-02
21610,2.37E-03,1.18E-02
21611,2.36E-03,1.18E-02
21612,2.42E-03,1.18E-02
21613,2.41E-03,1.18E-02
21614,2.59E-03,1.18E-02
21615,2.51E-03,1.18E-02
21616,2.56E-03,1.18E-02
21617,2.59E-03,1.18E-02
21618,2.61E-03,1.18E-02
21619,2.63E-03,1.18E-02
21620,2.51E-03,1.18E-02
21621,2.55E-03,1.18E-02
21622,2.14E-03,1.19E-02
21623,2.30E-03,1.18E-02
21624,2.63E-03,1.18E-02
21625,2.69E-03,1.18E-02
21626,2.54E-03,1.18E-02
21627,2.50E-03,1.18E-02
21628,2.85E-03,1.18E-02
21629,2.37E-03,1.18E-02
21630,2.74E-03,1.18E-02
21631,2.94E-03,1.18E-02
21632,2.48E-03,1.18E-02
21633,2.68E-03,1.18E-02
21634,2.91E-03,1.18E-02
21635,2.63E-03,1.18E-02
21636,2.63E-03,1.19E-02
21637,3.05E-03,1.19E-02
21638,2.86E-03,1.19E-02
21639,2.76E-03,1.19E-02
21640,2.70E-03,1.19E-02
21641,2.64E-03,1.20E-02
21642,2.61E-03,1.20E-02
21643,2.14E-03,1.20E-02
21644,2.42E-03,1.20E-02
21645,2.36E-03,1.20E-02
21646,2.67E-03,1.21E-02
21647,2.59E-03,1.20E-02
21648,2.46E-03,1.20E-02
21649,2.70E-03,1.19E-02
21650,2.64E-03,1.20E-02
21651,2.90E-03,1.19E-02
21652,2.78E-03,1.19E-02
21653,3.47E-03,1.18E-02
21654,3.09E-03,1.19E-02
21655,2.81E-03,1.17E-02
21656,3.46E-03,1.18E-02
21657,2.78E-03,1.17E-02
21658,2.83E-03,1.17E-02
21659,2.56E-03,1.16E-02
21660,2.66E-03,1.16E-02
21661,2.64E-03,1.15E-02
21662,2.64E-03,1.15E-02
21663,2.58E-03,1.14E-02
21664,2.60E-03,1.15E-02
21665,2.57E-03,1.14E-02
21666,2.62E-03,1.11E-02
21667,2.60E-03,1.12E-02
21668,2.67E-03,1.10E-02
21669,2.63E-03,1.10E-02
21670,2.71E-03,1.09E-02
21671,2.70E-03,1.09E-02
21672,2.71E-03,1.07E-02
21673,2.72E-03,1.08E-02
21674,2.62E-03,1.06E-02
21675,2.66E-03,1.06E-02
21676,2.56E-03,1.04E-02
21677,2.59E-03,1.05E-02
21678,2.57E-03,1.02E-02
21679,2.56E-03,1.03E-02
21680,2.64E-03,1.01E-02
21681,2.59E-03,1.02E-02
21682,2.80E-03,9.94E-03
21683,2.69E-03,1.00E-02
21684,2.93E-03,9.76E-03
21685,2.88E-03,9.85E-03
21686,3.05E-03,9.56E-03
21687,2.99E-03,9.67E-03
21688,2.99E-03,9.32E-03
21689,3.03E-03,9.45E-03
21690,2.90E-03,9.05E-03
21691,2.96E-03,9.19E-03
21692,2.72E-03,8.76E-03
21693,2.78E-03,8.90E-03
21694,2.58E-03,8.47E-03
21695,2.59E-03,8.61E-03
21696,2.50E-03,8.20E-03
21697,2.55E-03,8.34E-03
21698,2.47E-03,7.93E-03
21699,2.49E-03,8.07E-03
21700,2.34E-03,7.44E-03
21701,2.16E-03,7.50E-03
21702,2.72E-03,7.81E-03
21703,2.32E-03,7.25E-03
21704,2.25E-03,7.35E-03
21705,2.37E-03,7.04E-03
21706,2.34E-03,7.15E-03
21707,2.60E-03,6.86E-03
21708,2.46E-03,6.95E-03
21709,2.45E-03,7.10E-03
21710,2.34E-03,7.65E-03
21711,2.39E-03,7.38E-03
21712,2.30E-03,8.17E-03
21713,2.31E-03,7.91E-03
21714,2.30E-03,8.67E-03
21715,2.30E-03,8.42E-03
21716,2.33E-03,9.17E-03
21717,2.32E-03,8.92E-03
21718,2.30E-03,9.66E-03
21719,2.32E-03,9.42E-03
21720,2.29E-03,1.02E-02
21721,2.30E-03,9.91E-03
21722,2.29E-03,1.06E-02
21723,2.29E-03,1.04E-02
21724,1.84E-03,1.13E-02
21725,2.17E-03,1.11E-02
21726,2.26E-03,1.09E-02
21727,2.87E-03,1.21E-02
21728,2.80E-03,1.21E-02
21729,2.77E-03,1.21E-02
21730,2.72E-03,1.21E-02
21731,2.67E-03,1.22E-02
21732,2.44E-03,1.21E-02
21733,1.99E-03,1.21E-02
21734,2.33E-03,1.22E-02
21735,2.52E-03,1.11E-02
21736,2.51E-03,1.12E-02
21737,2.55E-03,1.11E-02
21738,2.67E-03,6.81E-03
21739,1.92E-03,1.20E-02
21740,2.24E-03,1.20E-02
21741,3.00E-03,1.23E-02
21742,2.68E-03,1.23E-02
21743,1.98E-03,7.39E-03
21744,1.75E-03,7.24E-03
21745,2.28E-03,7.17E-03
21746,2.22E-03,1.20E-02
21747,2.23E-03,1.20E-02
21748,2.06E-03,1.19E-02
21749,2.80E-03,1.19E-02
21750,2.53E-03,1.16E-02
21751,2.25E-03,1.15E-02
21752,2.69E-03,1.16E-02
21753,2.66E-03,1.16E-02
21754,2.76E-03,1.16E-02
21755,2.73E-03,1.16E-02
21756,2.80E-03,1.16E-02
21757,2.77E-03,1.16E-02
21758,2.75E-03,1.17E-02
21759,2.78E-03,1.17E-02
21760,2.67E-03,1.17E-02
21761,2.69E-03,1.17E-02
21762,2.60E-03,1.18E-02
21763,2.62E-03,1.18E-02
21764,2.53E-03,1.19E-02
21765,2.56E-03,1.19E-02
21766,2.43E-03,1.19E-02
21767,2.49E-03,1.19E-02
21768,2.33E-03,1.20E-02
21769,2.38E-03,1.20E-02
21770,2.29E-03,1.20E-02
21771,2.27E-03,1.20E-02
21772,2.22E-03,1.20E-02
21773,2.33E-03,1.20E-02
21774,2.30E-03,1.20E-02
21775,2.38E-03,1.20E-02
21776,2.35E-03,1.20E-02
21777,2.46E-03,1.20E-02
21778,2.40E-03,1.20E-02
21779,2.55E-03,1.19E-02
21780,2.51E-03,1.20E-02
21781,2.57E-03,1.19E-02
21782,2.59E-03,1.19E-02
21783,2.56E-03,1.19E-02
21784,2.58E-03,1.19E-02
21785,2.47E-03,1.19E-02
21786,2.51E-03,1.19E-02
21787,2.33E-03,1.20E-02
21788,2.52E-03,1.19E-02
21789,2.58E-03,1.19E-02
21790,2.48E-03,1.19E-02
21791,2.51E-03,1.19E-02
21792,2.65E-03,1.19E-02
21793,2.57E-03,1.19E-02
21794,2.68E-03,1.19E-02
21795,2.67E-03,1.19E-02
21796,2.61E-03,1.19E-02
21797,2.64E-03,1.19E-02
21798,2.55E-03,1.19E-02
21799,2.53E-03,1.19E-02
21800,2.50E-03,1.19E-02
21801,2.42E-03,1.19E-02
21802,2.73E-03,1.19E-02
21803,2.58E-03,1.19E-02
21804,2.80E-03,1.19E-02
21805,2.86E-03,1.19E-02
21806,2.69E-03,1.20E-02
21807,2.73E-03,1.19E-02
21808,2.59E-03,1.20E-02
21809,2.65E-03,1.20E-02
21810,2.62E-03,1.20E-02
21811,2.54E-03,1.20E-02
21812,2.94E-03,1.21E-02
21813,2.78E-03,1.20E-02
21814,2.73E-03,1.21E-02
21815,2.80E-03,1.21E-02
21816,2.63E-03,1.21E-02
21817,2.69E-03,1.21E-02
21818,2.56E-03,1.21E-02
21819,3.29E-03,1.22E-02
21820,2.35E-03,1.22E-02
21821,3.02E-03,1.22E-02
21822,2.94E-03,1.22E-02
21823,2.92E-03,1.23E-02
21824,2.81E-03,1.24E-02
21825,2.39E-03,1.24E-02
21826,2.94E-03,1.23E-02
21827,2.92E-03,1.24E-02
21828,3.28E-03,1.23E-02
21829,3.08E-03,1.23E-02
21830,3.07E-03,1.23E-02
21831,2.70E-03,1.22E-02
21832,2.75E-03,1.22E-02
21833,2.73E-03,1.22E-02
21834,2.82E-03,1.21E-02
21835,2.79E-03,1.21E-02
21836,2.51E-03,1.21E-02
21837,2.62E-03,1.21E-02
21838,2.57E-03,1.20E-02
21839,2.54E-03,1.20E-02
21840,2.70E-03,1.19E-02
21841,2.63E-03,1.20E-02
21842,2.87E-03,1.19E-02
21843,2.78E-03,1.19E-02
21844,3.02E-03,1.18E-02
21845,2.95E-03,1.18E-02
21846,2.86E-03,1.17E-02
21847,3.00E-03,1.17E-02
21848,2.76E-03,1.16E-02
21849,2.81E-03,1.17E-02
21850,2.63E-03,1.15E-02
21851,2.65E-03,1.16E-02
21852,2.63E-03,1.14E-02
21853,2.63E-03,1.15E-02
21854,2.58E-03,1.13E-02
21855,2.59E-03,1.14E-02
21856,2.53E-03,1.13E-02
21857,2.62E-03,1.10E-02
21858,2.60E-03,1.10E-02
21859,2.66E-03,1.08E-02
21860,2.64E-03,1.09E-02
21861,2.67E-03,1.07E-02
21862,2.68E-03,1.08E-02
21863,2.67E-03,1.05E-02
21864,2.66E-03,1.06E-02
21865,2.60E-03,1.04E-02
21866,2.61E-03,1.05E-02
21867,2.55E-03,1.02E-02
21868,2.57E-03,1.03E-02
21869,2.55E-03,1.00E-02
21870,2.53E-03,1.01E-02
21871,2.63E-03,9.88E-03
21872,2.57E-03,9.96E-03
21873,2.75E-03,9.72E-03
21874,2.69E-03,9.80E-03
21875,2.90E-03,9.54E-03
21876,2.86E-03,9.63E-03
21877,2.99E-03,9.33E-03
21878,2.96E-03,9.44E-03
21879,2.97E-03,9.09E-03
21880,2.98E-03,9.22E-03
21881,2.87E-03,8.81E-03
21882,2.95E-03,8.96E-03
21883,2.73E-03,8.51E-03
21884,2.77E-03,8.67E-03
21885,2.58E-03,8.23E-03
21886,2.59E-03,8.37E-03
21887,2.49E-03,7.95E-03
21888,2.53E-03,8.09E-03
21889,2.43E-03,7.68E-03
21890,2.44E-03,7.82E-03
21891,2.51E-03,7.54E-03
21892,2.32E-03,6.98E-03
21893,2.27E-03,7.08E-03
21894,2.43E-03,6.77E-03
21895,2.37E-03,6.88E-03
21896,2.75E-03,6.57E-03
21897,2.53E-03,6.67E-03
21898,2.48E-03,1.23E-02
21899,2.03E-03,1.24E-02
21900,2.23E-03,6.17E-03
21901,2.95E-03,6.45E-03
21902,3.12E-03,6.48E-03
21903,2.44E-03,7.06E-03
21904,2.59E-03,6.77E-03
21905,2.35E-03,7.60E-03
21906,2.40E-03,7.33E-03
21907,2.32E-03,8.12E-03
21908,2.32E-03,7.86E-03
21909,2.33E-03,8.63E-03
21910,2.32E-03,8.37E-03
21911,2.36E-03,9.13E-03
21912,2.35E-03,8.88E-03
21913,2.35E-03,9.63E-03
21914,2.36E-03,9.38E-03
21915,2.34E-03,1.01E-02
21916,2.35E-03,9.88E-03
21917,2.32E-03,1.06E-02
21918,2.32E-03,1.04E-02
21919,2.41E-03,1.11E-02
21920,2.34E-03,1.09E-02
21921,2.22E-03,1.22E-02
21922,2.25E-03,1.22E-02
21923,2.24E-03,1.22E-02
21924,2.05E-03,1.21E-02
21925,2.29E-03,1.21E-02
21926,2.32E-03,1.20E-02
21927,2.49E-03,1.23E-02
21928,2.51E-03,1.10E-02
21929,2.52E-03,1.11E-02
21930,2.55E-03,1.10E-02
21931,2.17E-03,7.02E-03
21932,2.09E-03,7.17E-03
21933,2.18E-03,6.91E-03
21934,3.02E-03,6.00E-03
21935,1.84E-03,5.99E-03
21936,2.55E-03,5.79E-03
21937,2.53E-03,1.21E-02
21938,2.48E-03,1.21E-02
21939,2.73E-03,1.18E-02
21940,3.13E-03,1.18E-02
21941,2.72E-03,1.18E-02
21942,2.74E-03,1.18E-02
21943,2.78E-03,1.18E-02
21944,2.75E-03,1.18E-02
21945,2.80E-03,1.19E-02
21946,2.80E-03,1.19E-02
21947,2.73E-03,1.19E-02
21948,2.78E-03,1.19E-02
21949,2.69E-03,1.20E-02
21950,2.69E-03,1.19E-02
21951,2.60E-03,1.20E-02
21952,2.62E-03,1.20E-02
21953,2.52E-03,1.21E-02
21954,2.54E-03,1.21E-02
21955,2.44E-03,1.22E-02
21956,2.48E-03,1.21E-02
21957,2.35E-03,1.22E-02
21958,2.38E-03,1.22E-02
21959,2.30E-03,1.22E-02
21960,2.28E-03,1.22E-02
21961,2.25E-03,1.22E-02
21962,2.32E-03,1.22E-02
21963,2.31E-03,1.22E-02
21964,2.37E-03,1.22E-02
21965,2.35E-03,1.22E-02
21966,2.48E-03,1.21E-02
21967,2.42E-03,1.21E-02
21968,2.53E-03,1.21E-02
21969,2.50E-03,1.21E-02
21970,2.56E-03,1.21E-02
21971,2.58E-03,1.21E-02
21972,2.53E-03,1.21E-02
21973,2.55E-03,1.21E-02
21974,2.41E-03,1.21E-02
21975,2.46E-03,1.21E-02
21976,2.31E-03,1.21E-02
21977,2.47E-03,1.20E-02
21978,2.44E-03,1.20E-02
21979,2.52E-03,1.20E-02
21980,2.48E-03,1.20E-02
21981,2.64E-03,1.20E-02
21982,2.56E-03,1.20E-02
21983,2.62E-03,1.20E-02
21984,2.64E-03,1.20E-02
21985,2.58E-03,1.20E-02
21986,2.62E-03,1.20E-02
21987,2.44E-03,1.20E-02
21988,2.49E-03,1.20E-02
21989,2.48E-03,1.19E-02
21990,2.48E-03,1.19E-02
21991,2.59E-03,1.19E-02
21992,2.48E-03,1.19E-02
21993,2.71E-03,1.19E-02
21994,2.69E-03,1.19E-02
21995,2.64E-03,1.20E-02
21996,2.69E-03,1.20E-02
21997,2.58E-03,1.20E-02
21998,2.63E-03,1.20E-02
21999,2.62E-03,1.20E-02
22000,2.61E-03,1.20E-02
22001,2.67E-03,1.20E-02
22002,2.66E-03,1.20E-02
22003,2.68E-03,1.20E-02
22004,2.72E-03,1.20E-02
22005,2.60E-03,1.21E-02
22006,2.62E-03,1.20E-02
22007,2.56E-03,1.21E-02
22008,2.73E-03,1.21E-02
22009,2.52E-03,1.21E-02
22010,2.90E-03,1.22E-02
22011,2.91E-03,1.21E-02
22012,2.89E-03,1.22E-02
22013,2.92E-03,1.22E-02
22014,2.66E-03,1.22E-02
22015,2.67E-03,1.22E-02
22016,2.62E-03,1.22E-02
22017,2.65E-03,1.23E-02
22018,3.09E-03,1.26E-02
22019,3.13E-03,1.25E-02
22020,2.74E-03,1.25E-02
22021,2.68E-03,1.25E-02
22022,2.89E-03,1.24E-02
22023,2.84E-03,1.25E-02
22024,2.94E-03,1.24E-02
22025,2.94E-03,1.24E-02
22026,2.78E-03,1.23E-02
22027,2.90E-03,1.23E-02
22028,2.70E-03,1.23E-02
22029,2.69E-03,1.23E-02
22030,2.72E-03,1.22E-02
22031,2.71E-03,1.22E-02
22032,2.66E-03,1.21E-02
22033,2.70E-03,1.22E-02
22034,2.53E-03,1.21E-02
22035,2.53E-03,1.21E-02
22036,2.58E-03,1.20E-02
22037,2.56E-03,1.20E-02
22038,2.68E-03,1.19E-02
22039,2.62E-03,1.20E-02
22040,2.83E-03,1.18E-02
22041,2.79E-03,1.19E-02
22042,2.93E-03,1.17E-02
22043,2.92E-03,1.18E-02
22044,2.86E-03,1.16E-02
22045,2.93E-03,1.17E-02
22046,2.75E-03,1.15E-02
22047,2.81E-03,1.16E-02
22048,2.66E-03,1.14E-02
22049,2.67E-03,1.15E-02
22050,2.60E-03,1.13E-02
22051,2.63E-03,1.14E-02
22052,2.55E-03,1.12E-02
22053,2.56E-03,1.13E-02
22054,2.52E-03,1.11E-02
22055,2.60E-03,1.08E-02
22056,2.58E-03,1.09E-02
22057,2.66E-03,1.07E-02
22058,2.63E-03,1.08E-02
22059,2.65E-03,1.05E-02
22060,2.67E-03,1.06E-02
22061,2.64E-03,1.04E-02
22062,2.64E-03,1.04E-02
22063,2.58E-03,1.02E-02
22064,2.61E-03,1.03E-02
22065,2.53E-03,1.00E-02
22066,2.55E-03,1.01E-02
22067,2.52E-03,9.83E-03
22068,2.50E-03,9.91E-03
22069,2.61E-03,9.67E-03
22070,2.57E-03,9.75E-03
22071,2.75E-03,9.50E-03
22072,2.68E-03,9.58E-03
22073,2.88E-03,9.31E-03
22074,2.82E-03,9.41E-03
22075,3.00E-03,9.10E-03
22076,2.94E-03,9.21E-03
22077,2.96E-03,8.85E-03
22078,2.99E-03,8.98E-03
22079,2.92E-03,8.57E-03
22080,2.95E-03,8.72E-03
22081,2.74E-03,8.27E-03
22082,2.79E-03,8.42E-03
22083,2.59E-03,7.98E-03
22084,2.60E-03,8.12E-03
22085,2.47E-03,7.70E-03
22086,2.50E-03,7.84E-03
22087,2.36E-03,7.42E-03
22088,2.41E-03,7.56E-03
22089,2.23E-03,7.28E-03
22090,2.34E-03,6.71E-03
22091,2.29E-03,6.81E-03
22092,2.45E-03,6.50E-03
22093,2.40E-03,6.61E-03
22094,2.77E-03,6.30E-03
22095,2.54E-03,6.40E-03
22096,3.23E-03,6.17E-03
22097,2.39E-03,6.47E-03
22098,1.91E-03,6.23E-03
22099,2.43E-03,7.01E-03
22100,2.43E-03,6.74E-03
22101,2.37E-03,7.55E-03
22102,2.41E-03,7.29E-03
22103,2.35E-03,8.07E-03
22104,2.34E-03,7.81E-03
22105,2.36E-03,8.59E-03
22106,2.35E-03,8.33E-03
22107,2.39E-03,9.10E-03
22108,2.37E-03,8.84E-03
22109,2.39E-03,9.60E-03
22110,2.40E-03,9.35E-03
22111,2.36E-03,1.01E-02
22112,2.37E-03,9.85E-03
22113,2.37E-03,1.06E-02
22114,2.36E-03,1.04E-02
22115,2.43E-03,1.11E-02
22116,2.40E-03,1.09E-02
22117,2.53E-03,1.14E-02
22118,2.23E-03,1.24E-02
22119,2.25E-03,1.24E-02
22120,2.16E-03,1.22E-02
22121,2.25E-03,1.22E-02
22122,2.58E-03,1.20E-02
22123,2.67E-03,1.20E-02
22124,2.52E-03,1.09E-02
22125,2.53E-03,1.10E-02
22126,2.53E-03,1.08E-02
22127,2.17E-03,1.16E-02
22128,2.52E-03,1.19E-02
22129,2.85E-03,1.27E-02
22130,2.92E-03,1.27E-02
22131,2.72E-03,5.74E-03
22132,2.61E-03,5.58E-03
22133,2.32E-03,5.90E-03
22134,2.78E-03,5.63E-03
22135,2.14E-03,6.89E-03
22136,2.58E-03,1.22E-02
22137,2.26E-03,1.24E-02
22138,2.28E-03,1.22E-02
22139,2.18E-03,6.77E-03
22140,2.24E-03,6.66E-03
22141,2.85E-03,1.21E-02
22142,3.04E-03,1.21E-02
22143,2.74E-03,1.21E-02
22144,2.76E-03,1.21E-02
22145,2.77E-03,1.21E-02
22146,2.76E-03,1.21E-02
22147,2.77E-03,1.21E-02
22148,2.77E-03,1.21E-02
22149,2.71E-03,1.21E-02
22150,2.78E-03,1.21E-02
22151,2.67E-03,1.22E-02
22152,2.67E-03,1.22E-02
22153,2.59E-03,1.23E-02
22154,2.62E-03,1.22E-02
22155,2.52E-03,1.23E-02
22156,2.57E-03,1.23E-02
22157,2.45E-03,1.24E-02
22158,2.48E-03,1.23E-02
22159,2.34E-03,1.24E-02
22160,2.39E-03,1.24E-02
22161,2.29E-03,1.24E-02
22162,2.30E-03,1.24E-02
22163,2.26E-03,1.24E-02
22164,2.32E-03,1.24E-02
22165,2.30E-03,1.24E-02
22166,2.38E-03,1.23E-02
22167,2.35E-03,1.23E-02
22168,2.45E-03,1.23E-02
22169,2.44E-03,1.23E-02
22170,2.54E-03,1.22E-02
22171,2.51E-03,1.23E-02
22172,2.56E-03,1.22E-02
22173,2.57E-03,1.22E-02
22174,2.50E-03,1.22E-02
22175,2.53E-03,1.22E-02
22176,2.39E-03,1.22E-02
22177,2.43E-03,1.22E-02
22178,2.31E-03,1.22E-02
22179,2.43E-03,1.21E-02
22180,2.39E-03,1.21E-02
22181,2.50E-03,1.21E-02
22182,2.45E-03,1.21E-02
22183,2.58E-03,1.21E-02
22184,2.53E-03,1.21E-02
22185,2.58E-03,1.20E-02
22186,2.61E-03,1.20E-02
22187,2.55E-03,1.20E-02
22188,2.58E-03,1.20E-02
22189,2.49E-03,1.20E-02
22190,2.50E-03,1.20E-02
22191,2.48E-03,1.20E-02
22192,2.48E-03,1.20E-02
22193,2.55E-03,1.20E-02
22194,2.51E-03,1.20E-02
22195,2.64E-03,1.20E-02
22196,2.61E-03,1.20E-02
22197,2.62E-03,1.20E-02
22198,2.65E-03,1.20E-02
22199,2.62E-03,1.20E-02
22200,2.64E-03,1.20E-02
22201,2.64E-03,1.20E-02
22202,2.63E-03,1.20E-02
22203,2.65E-03,1.20E-02
22204,2.64E-03,1.20E-02
22205,2.63E-03,1.20E-02
22206,2.63E-03,1.20E-02
22207,2.62E-03,1.20E-02
22208,2.62E-03,1.20E-02
22209,2.60E-03,1.20E-02
22210,2.61E-03,1.20E-02
22211,2.58E-03,1.20E-02
22212,2.84E-03,1.21E-02
22213,2.76E-03,1.20E-02
22214,2.83E-03,1.21E-02
22215,2.85E-03,1.21E-02
22216,2.67E-03,1.21E-02
22217,2.74E-03,1.21E-02
22218,2.66E-03,1.21E-02
22219,2.66E-03,1.21E-02
22220,2.66E-03,1.21E-02
22221,2.61E-03,1.24E-02
22222,2.65E-03,1.22E-02
22223,2.89E-03,1.26E-02
22224,2.68E-03,1.25E-02
22225,2.79E-03,1.26E-02
22226,2.83E-03,1.26E-02
22227,2.85E-03,1.25E-02
22228,2.81E-03,1.26E-02
22229,2.83E-03,1.25E-02
22230,2.84E-03,1.25E-02
22231,2.77E-03,1.24E-02
22232,2.81E-03,1.24E-02
22233,2.70E-03,1.23E-02
22234,2.70E-03,1.24E-02
22235,2.69E-03,1.22E-02
22236,2.70E-03,1.23E-02
22237,2.62E-03,1.22E-02
22238,2.66E-03,1.22E-02
22239,2.53E-03,1.21E-02
22240,2.56E-03,1.21E-02
22241,2.58E-03,1.20E-02
22242,2.57E-03,1.20E-02
22243,2.67E-03,1.19E-02
22244,2.62E-03,1.19E-02
22245,2.80E-03,1.18E-02
22246,2.78E-03,1.18E-02
22247,2.89E-03,1.17E-02
22248,2.89E-03,1.17E-02
22249,2.84E-03,1.16E-02
22250,2.90E-03,1.16E-02
22251,2.76E-03,1.15E-02
22252,2.80E-03,1.15E-02
22253,2.66E-03,1.13E-02
22254,2.68E-03,1.14E-02
22255,2.58E-03,1.12E-02
22256,2.60E-03,1.13E-02
22257,2.55E-03,1.11E-02
22258,2.56E-03,1.12E-02
22259,2.53E-03,1.10E-02
22260,2.59E-03,1.07E-02
22261,2.55E-03,1.08E-02
22262,2.66E-03,1.05E-02
22263,2.64E-03,1.06E-02
22264,2.65E-03,1.04E-02
22265,2.66E-03,1.04E-02
22266,2.60E-03,1.02E-02
22267,2.63E-03,1.03E-02
22268,2.56E-03,9.99E-03
22269,2.59E-03,1.01E-02
22270,2.49E-03,9.80E-03
22271,2.54E-03,9.89E-03
22272,2.52E-03,9.62E-03
22273,2.49E-03,9.71E-03
22274,2.60E-03,9.45E-03
22275,2.56E-03,9.54E-03
22276,2.73E-03,9.27E-03
22277,2.68E-03,9.36E-03
22278,2.86E-03,9.08E-03
22279,2.80E-03,9.18E-03
22280,2.95E-03,8.86E-03
22281,2.92E-03,8.98E-03
22282,2.94E-03,8.62E-03
22283,2.98E-03,8.74E-03
22284,2.89E-03,8.33E-03
22285,2.91E-03,8.48E-03
22286,2.75E-03,8.02E-03
22287,2.81E-03,8.18E-03
22288,2.60E-03,7.73E-03
22289,2.59E-03,7.87E-03
22290,2.46E-03,7.45E-03
22291,2.49E-03,7.58E-03
22292,2.31E-03,7.17E-03
22293,2.39E-03,7.31E-03
22294,2.26E-03,7.03E-03
22295,2.34E-03,6.44E-03
22296,2.29E-03,6.55E-03
22297,2.47E-03,6.23E-03
22298,2.42E-03,6.34E-03
22299,2.66E-03,6.01E-03
22300,2.56E-03,6.13E-03
22301,2.75E-03,5.88E-03
22302,2.28E-03,6.45E-03
22303,2.21E-03,6.19E-03
22304,2.40E-03,6.97E-03
22305,2.40E-03,6.71E-03
22306,2.38E-03,7.51E-03
22307,2.40E-03,7.24E-03
22308,2.39E-03,8.03E-03
22309,2.39E-03,7.77E-03
22310,2.40E-03,8.55E-03
22311,2.38E-03,8.29E-03
22312,2.40E-03,9.07E-03
22313,2.41E-03,8.81E-03
22314,2.41E-03,9.58E-03
22315,2.42E-03,9.32E-03
22316,2.42E-03,1.01E-02
22317,2.43E-03,9.83E-03
22318,2.40E-03,1.06E-02
22319,2.41E-03,1.03E-02
22320,2.41E-03,1.11E-02
22321,2.44E-03,1.09E-02
22322,2.65E-03,1.14E-02
22323,3.26E-03,1.21E-02
22324,2.27E-03,1.26E-02
22325,2.24E-03,1.26E-02
22326,2.62E-03,1.19E-02
22327,2.63E-03,1.20E-02
22328,2.69E-03,1.20E-02
22329,2.70E-03,1.20E-02
22330,2.88E-03,1.27E-02
22331,2.51E-03,1.08E-02
22332,2.51E-03,1.08E-02
22333,2.54E-03,1.07E-02
22334,2.21E-03,6.50E-03
22335,2.25E-03,6.39E-03
22336,2.75E-03,5.40E-03
22337,2.98E-03,1.23E-02
22338,2.92E-03,1.24E-02
22339,2.27E-03,1.23E-02
22340,2.27E-03,1.23E-02
22341,2.22E-03,6.63E-03
22342,2.85E-03,1.23E-02
22343,2.88E-03,1.23E-02
22344,2.76E-03,1.23E-02
22345,2.77E-03,1.23E-02
22346,2.77E-03,1.23E-02
22347,2.77E-03,1.23E-02
22348,2.77E-03,1.23E-02
22349,2.76E-03,1.23E-02
22350,2.71E-03,1.24E-02
22351,2.75E-03,1.24E-02
22352,2.64E-03,1.24E-02
22353,2.66E-03,1.24E-02
22354,2.57E-03,1.25E-02
22355,2.63E-03,1.25E-02
22356,2.50E-03,1.25E-02
22357,2.57E-03,1.25E-02
22358,2.42E-03,1.26E-02
22359,2.49E-03,1.26E-02
22360,2.35E-03,1.26E-02
22361,2.40E-03,1.26E-02
22362,2.30E-03,1.26E-02
22363,2.26E-03,1.26E-02
22364,2.26E-03,1.26E-02
22365,2.33E-03,1.25E-02
22366,2.30E-03,1.26E-02
22367,2.31E-03,1.26E-02
22368,2.39E-03,1.25E-02
22369,2.35E-03,1.25E-02
22370,2.46E-03,1.24E-02
22371,2.42E-03,1.25E-02
22372,2.54E-03,1.24E-02
22373,2.52E-03,1.24E-02
22374,2.56E-03,1.23E-02
22375,2.57E-03,1.24E-02
22376,2.49E-03,1.23E-02
22377,2.51E-03,1.23E-02
22378,2.39E-03,1.23E-02
22379,2.42E-03,1.23E-02
22380,2.27E-03,1.23E-02
22381,2.31E-03,1.23E-02
22382,2.38E-03,1.22E-02
22383,2.35E-03,1.22E-02
22384,2.48E-03,1.22E-02
22385,2.46E-03,1.22E-02
22386,2.55E-03,1.21E-02
22387,2.53E-03,1.22E-02
22388,2.57E-03,1.21E-02
22389,2.60E-03,1.21E-02
22390,2.53E-03,1.21E-02
22391,2.55E-03,1.21E-02
22392,2.48E-03,1.21E-02
22393,2.48E-03,1.21E-02
22394,2.48E-03,1.20E-02
22395,2.47E-03,1.20E-02
22396,2.54E-03,1.20E-02
22397,2.51E-03,1.20E-02
22398,2.58E-03,1.20E-02
22399,2.57E-03,1.20E-02
22400,2.60E-03,1.20E-02
22401,2.60E-03,1.20E-02
22402,2.64E-03,1.20E-02
22403,2.61E-03,1.20E-02
22404,2.61E-03,1.20E-02
22405,2.63E-03,1.20E-02
22406,2.61E-03,1.20E-02
22407,2.61E-03,1.20E-02
22408,2.59E-03,1.20E-02
22409,2.60E-03,1.20E-02
22410,2.60E-03,1.20E-02
22411,2.60E-03,1.20E-02
22412,2.61E-03,1.19E-02
22413,2.66E-03,1.20E-02
22414,2.63E-03,1.20E-02
22415,2.76E-03,1.20E-02
22416,2.72E-03,1.20E-02
22417,2.77E-03,1.20E-02
22418,2.77E-03,1.20E-02
22419,2.71E-03,1.20E-02
22420,2.77E-03,1.20E-02
22421,2.69E-03,1.20E-02
22422,2.66E-03,1.21E-02
22423,2.64E-03,1.24E-02
22424,2.62E-03,1.22E-02
22425,2.72E-03,1.27E-02
22426,2.66E-03,1.25E-02
22427,2.68E-03,1.20E-02
22428,2.77E-03,1.28E-02
22429,2.82E-03,1.29E-02
22430,2.83E-03,1.28E-02
22431,2.86E-03,1.28E-02
22432,2.81E-03,1.27E-02
22433,2.79E-03,1.27E-02
22434,2.77E-03,1.26E-02
22435,2.77E-03,1.26E-02
22436,2.79E-03,1.25E-02
22437,2.78E-03,1.26E-02
22438,2.72E-03,1.25E-02
22439,2.76E-03,1.25E-02
22440,2.69E-03,1.24E-02
22441,2.71E-03,1.24E-02
22442,2.64E-03,1.23E-02
22443,2.66E-03,1.23E-02
22444,2.61E-03,1.22E-02
22445,2.63E-03,1.22E-02
22446,2.54E-03,1.21E-02
22447,2.57E-03,1.22E-02
22448,2.57E-03,1.20E-02
22449,2.54E-03,1.20E-02
22450,2.67E-03,1.19E-02
22451,2.61E-03,1.19E-02
22452,2.78E-03,1.18E-02
22453,2.73E-03,1.18E-02
22454,2.86E-03,1.17E-02
22455,2.86E-03,1.17E-02
22456,2.83E-03,1.15E-02
22457,2.86E-03,1.16E-02
22458,2.75E-03,1.14E-02
22459,2.79E-03,1.15E-02
22460,2.65E-03,1.13E-02
22461,2.67E-03,1.13E-02
22462,2.56E-03,1.11E-02
22463,2.58E-03,1.12E-02
22464,2.52E-03,1.10E-02
22465,2.54E-03,1.11E-02
22466,2.51E-03,1.09E-02
22467,2.59E-03,1.05E-02
22468,2.54E-03,1.06E-02
22469,2.65E-03,1.04E-02
22470,2.63E-03,1.05E-02
22471,2.63E-03,1.02E-02
22472,2.64E-03,1.03E-02
22473,2.58E-03,9.99E-03
22474,2.62E-03,1.01E-02
22475,2.54E-03,9.80E-03
22476,2.56E-03,9.89E-03
22477,2.48E-03,9.60E-03
22478,2.52E-03,9.70E-03
22479,2.51E-03,9.41E-03
22480,2.49E-03,9.50E-03
22481,2.58E-03,9.23E-03
22482,2.56E-03,9.32E-03
22483,2.72E-03,9.05E-03
22484,2.67E-03,9.14E-03
22485,2.85E-03,8.85E-03
22486,2.78E-03,8.95E-03
22487,2.94E-03,8.63E-03
22488,2.90E-03,8.74E-03
22489,2.93E-03,8.09E-03
22490,2.99E-03,8.37E-03
22491,2.92E-03,8.23E-03
22492,2.78E-03,7.77E-03
22493,2.81E-03,7.93E-03
22494,2.60E-03,7.47E-03
22495,2.60E-03,7.62E-03
22496,2.46E-03,7.18E-03
22497,2.49E-03,7.33E-03
22498,2.31E-03,6.91E-03
22499,2.37E-03,7.04E-03
22500,2.25E-03,6.77E-03
22501,2.35E-03,6.17E-03
22502,2.32E-03,6.28E-03
22503,2.47E-03,5.96E-03
22504,2.41E-03,6.07E-03
22505,2.60E-03,5.72E-03
22506,2.53E-03,5.84E-03
22507,2.61E-03,5.46E-03
22508,2.63E-03,5.60E-03
22509,2.34E-03,5.16E-03
22510,2.56E-03,5.31E-03
22511,2.04E-03,5.21E-03
22512,1.73E-03,4.96E-03
22513,1.75E-03,5.04E-03
22514,2.65E-03,5.28E-03
22515,2.50E-03,5.85E-03
22516,2.81E-03,5.55E-03
22517,2.33E-03,6.41E-03
22518,2.36E-03,6.13E-03
22519,2.37E-03,6.93E-03
22520,2.37E-03,6.67E-03
22521,2.39E-03,7.46E-03
22522,2.38E-03,7.19E-03
22523,2.40E-03,7.99E-03
22524,2.38E-03,7.73E-03
22525,2.43E-03,8.52E-03
22526,2.41E-03,8.25E-03
22527,2.41E-03,9.04E-03
22528,2.42E-03,8.78E-03
22529,2.44E-03,9.55E-03
22530,2.43E-03,9.29E-03
22531,2.43E-03,1.01E-02
22532,2.43E-03,9.81E-03
22533,2.44E-03,1.06E-02
22534,2.44E-03,1.03E-02
22535,2.48E-03,1.11E-02
22536,2.45E-03,1.08E-02
22537,2.49E-03,1.16E-02
22538,2.45E-03,1.14E-02
22539,2.69E-03,1.21E-02
22540,2.56E-03,1.19E-02
22541,2.69E-03,1.24E-02
22542,2.30E-03,1.24E-02
22543,2.30E-03,1.24E-02
22544,2.63E-03,1.19E-02
22545,2.64E-03,1.19E-02
22546,2.65E-03,1.21E-02
22547,2.69E-03,1.20E-02
22548,2.77E-03,1.29E-02
22549,2.49E-03,1.06E-02
22550,2.50E-03,1.07E-02
22551,2.53E-03,1.06E-02
22552,2.58E-03,4.95E-03
22553,2.28E-03,4.69E-03
22554,2.23E-03,6.36E-03
22555,2.30E-03,1.24E-02
22556,2.24E-03,6.24E-03
22557,2.25E-03,6.12E-03
22558,2.74E-03,1.27E-02
22559,2.81E-03,1.26E-02
22560,2.78E-03,1.26E-02
22561,2.80E-03,1.26E-02
22562,2.82E-03,1.26E-02
22563,2.75E-03,1.26E-02
22564,2.76E-03,1.26E-02
22565,2.76E-03,1.26E-02
22566,2.74E-03,1.26E-02
22567,2.75E-03,1.26E-02
22568,2.75E-03,1.26E-02
22569,2.71E-03,1.26E-02
22570,2.75E-03,1.26E-02
22571,2.64E-03,1.27E-02
22572,2.68E-03,1.26E-02
22573,2.58E-03,1.27E-02
22574,2.60E-03,1.27E-02
22575,2.50E-03,1.28E-02
22576,2.56E-03,1.27E-02
22577,2.41E-03,1.28E-02
22578,2.50E-03,1.28E-02
22579,2.35E-03,1.28E-02
22580,2.40E-03,1.28E-02
22581,2.26E-03,1.28E-02
22582,2.30E-03,1.28E-02
22583,2.25E-03,1.28E-02
22584,2.26E-03,1.28E-02
22585,2.27E-03,1.28E-02
22586,2.26E-03,1.28E-02
22587,2.33E-03,1.27E-02
22588,2.32E-03,1.27E-02
22589,2.38E-03,1.26E-02
22590,2.35E-03,1.27E-02
22591,2.46E-03,1.26E-02
22592,2.44E-03,1.26E-02
22593,2.54E-03,1.25E-02
22594,2.50E-03,1.25E-02
22595,2.55E-03,1.25E-02
22596,2.58E-03,1.25E-02
22597,2.50E-03,1.24E-02
22598,2.51E-03,1.25E-02
22599,2.39E-03,1.24E-02
22600,2.42E-03,1.24E-02
22601,2.32E-03,1.24E-02
22602,2.36E-03,1.23E-02
22603,2.33E-03,1.23E-02
22604,2.46E-03,1.23E-02
22605,2.44E-03,1.23E-02
22606,2.54E-03,1.22E-02
22607,2.53E-03,1.22E-02
22608,2.56E-03,1.22E-02
22609,2.57E-03,1.22E-02
22610,2.51E-03,1.21E-02
22611,2.54E-03,1.22E-02
22612,2.43E-03,1.21E-02
22613,2.46E-03,1.21E-02
22614,2.44E-03,1.21E-02
22615,2.43E-03,1.21E-02
22616,2.51E-03,1.20E-02
22617,2.47E-03,1.21E-02
22618,2.53E-03,1.20E-02
22619,2.52E-03,1.20E-02
22620,2.60E-03,1.20E-02
22621,2.57E-03,1.20E-02
22622,2.65E-03,1.20E-02
22623,2.62E-03,1.20E-02
22624,2.60E-03,1.19E-02
22625,2.62E-03,1.19E-02
22626,2.61E-03,1.19E-02
22627,2.61E-03,1.19E-02
22628,2.58E-03,1.19E-02
22629,2.62E-03,1.19E-02
22630,2.62E-03,1.19E-02
22631,2.61E-03,1.19E-02
22632,2.63E-03,1.19E-02
22633,2.67E-03,1.19E-02
22634,2.65E-03,1.19E-02
22635,2.74E-03,1.19E-02
22636,2.69E-03,1.19E-02
22637,2.74E-03,1.19E-02
22638,2.74E-03,1.19E-02
22639,2.73E-03,1.18E-02
22640,2.72E-03,1.18E-02
22641,2.73E-03,1.18E-02
22642,2.71E-03,1.18E-02
22643,2.74E-03,1.18E-02
22644,2.74E-03,1.18E-02
22645,2.64E-03,1.24E-02
22646,2.62E-03,1.23E-02
22647,2.65E-03,1.27E-02
22648,2.63E-03,1.25E-02
22649,2.75E-03,1.18E-02
22650,2.81E-03,1.30E-02
22651,2.80E-03,1.30E-02
22652,2.72E-03,1.29E-02
22653,2.69E-03,1.28E-02
22654,2.81E-03,1.29E-02
22655,2.80E-03,1.29E-02
22656,2.77E-03,1.28E-02
22657,2.78E-03,1.28E-02
22658,2.71E-03,1.27E-02
22659,2.72E-03,1.27E-02
22660,2.70E-03,1.26E-02
22661,2.70E-03,1.27E-02
22662,2.72E-03,1.25E-02
22663,2.71E-03,1.26E-02
22664,2.68E-03,1.24E-02
22665,2.70E-03,1.25E-02
22666,2.61E-03,1.23E-02
22667,2.66E-03,1.24E-02
22668,2.59E-03,1.22E-02
22669,2.61E-03,1.23E-02
22670,2.54E-03,1.21E-02
22671,2.53E-03,1.22E-02
22672,2.55E-03,1.20E-02
22673,2.53E-03,1.21E-02
22674,2.65E-03,1.19E-02
22675,2.61E-03,1.19E-02
22676,2.76E-03,1.17E-02
22677,2.73E-03,1.18E-02
22678,2.83E-03,1.16E-02
22679,2.83E-03,1.17E-02
22680,2.82E-03,1.15E-02
22681,2.84E-03,1.15E-02
22682,2.75E-03,1.13E-02
22683,2.76E-03,1.14E-02
22684,2.63E-03,1.12E-02
22685,2.66E-03,1.13E-02
22686,2.56E-03,1.10E-02
22687,2.59E-03,1.11E-02
22688,2.50E-03,1.09E-02
22689,2.52E-03,1.10E-02
22690,2.50E-03,1.08E-02
22691,2.58E-03,1.04E-02
22692,2.55E-03,1.05E-02
22693,2.65E-03,1.02E-02
22694,2.61E-03,1.03E-02
22695,2.63E-03,1.00E-02
22696,2.65E-03,1.01E-02
22697,2.58E-03,9.81E-03
22698,2.60E-03,9.91E-03
22699,2.54E-03,9.60E-03
22700,2.56E-03,9.70E-03
22701,2.47E-03,9.39E-03
22702,2.48E-03,9.49E-03
22703,2.49E-03,9.20E-03
22704,2.48E-03,9.29E-03
22705,2.58E-03,9.01E-03
22706,2.55E-03,9.10E-03
22707,2.71E-03,8.82E-03
22708,2.66E-03,8.91E-03
22709,2.83E-03,8.61E-03
22710,2.77E-03,8.72E-03
22711,2.92E-03,8.39E-03
22712,2.89E-03,8.50E-03
22713,2.96E-03,8.13E-03
22714,2.93E-03,7.84E-03
22715,2.92E-03,7.99E-03
22716,2.77E-03,7.52E-03
22717,2.83E-03,7.68E-03
22718,2.62E-03,7.21E-03
22719,2.61E-03,7.37E-03
22720,2.48E-03,6.92E-03
22721,2.49E-03,7.07E-03
22722,2.35E-03,6.64E-03
22723,2.37E-03,6.78E-03
22724,2.26E-03,6.50E-03
22725,2.35E-03,5.90E-03
22726,2.33E-03,6.01E-03
22727,2.46E-03,5.68E-03
22728,2.42E-03,5.79E-03
22729,2.55E-03,5.44E-03
22730,2.52E-03,5.56E-03
22731,2.56E-03,5.17E-03
22732,2.58E-03,5.31E-03
22733,2.30E-03,4.90E-03
22734,2.46E-03,5.03E-03
22735,2.14E-03,4.79E-03
22736,2.30E-03,5.26E-03
22737,2.95E-03,4.94E-03
22738,2.44E-03,5.80E-03
22739,2.41E-03,5.52E-03
22740,2.37E-03,6.36E-03
22741,2.42E-03,6.08E-03
22742,2.38E-03,6.89E-03
22743,2.39E-03,6.63E-03
22744,2.43E-03,7.42E-03
22745,2.40E-03,7.16E-03
22746,2.41E-03,7.96E-03
22747,2.41E-03,7.69E-03
22748,2.43E-03,8.49E-03
22749,2.41E-03,8.22E-03
22750,2.42E-03,9.01E-03
22751,2.43E-03,8.75E-03
22752,2.44E-03,9.53E-03
22753,2.41E-03,9.27E-03
22754,2.44E-03,1.01E-02
22755,2.44E-03,9.79E-03
22756,2.44E-03,1.06E-02
22757,2.44E-03,1.03E-02
22758,2.46E-03,1.11E-02
22759,2.46E-03,1.08E-02
22760,2.50E-03,1.16E-02
22761,2.48E-03,1.14E-02
22762,2.59E-03,1.22E-02
22763,2.53E-03,1.19E-02
22764,2.65E-03,1.18E-02
22765,2.64E-03,1.18E-02
22766,2.71E-03,1.29E-02
22767,2.69E-03,1.30E-02
22768,2.77E-03,1.16E-02
22769,2.82E-03,1.16E-02
22770,2.76E-03,1.31E-02
22771,2.48E-03,1.05E-02
22772,2.47E-03,1.06E-02
22773,2.50E-03,1.04E-02
22774,2.28E-03,5.96E-03
22775,2.26E-03,6.09E-03
22776,2.27E-03,5.84E-03
22777,2.89E-03,4.54E-03
22778,2.30E-03,1.25E-02
22779,3.10E-03,4.04E-03
22780,2.30E-03,1.25E-02
22781,2.30E-03,1.25E-02
22782,2.29E-03,4.25E-03
22783,2.75E-03,1.29E-02
22784,2.75E-03,1.29E-02
22785,2.73E-03,1.29E-02
22786,2.74E-03,1.29E-02
22787,2.75E-03,1.28E-02
22788,2.74E-03,1.28E-02
22789,2.74E-03,1.28E-02
22790,2.75E-03,1.28E-02
22791,2.73E-03,1.28E-02
22792,2.75E-03,1.28E-02
22793,2.69E-03,1.28E-02
22794,2.74E-03,1.28E-02
22795,2.63E-03,1.29E-02
22796,2.65E-03,1.29E-02
22797,2.56E-03,1.29E-02
22798,2.60E-03,1.29E-02
22799,2.51E-03,1.30E-02
22800,2.54E-03,1.30E-02
22801,2.43E-03,1.30E-02
22802,2.49E-03,1.30E-02
22803,2.35E-03,1.30E-02
22804,2.40E-03,1.30E-02
22805,2.29E-03,1.30E-02
22806,2.31E-03,1.30E-02
22807,2.24E-03,1.30E-02
22808,2.27E-03,1.30E-02
22809,2.25E-03,1.30E-02
22810,2.26E-03,1.30E-02
22811,2.32E-03,1.29E-02
22812,2.32E-03,1.29E-02
22813,2.38E-03,1.28E-02
22814,2.37E-03,1.28E-02
22815,2.47E-03,1.27E-02
22816,2.45E-03,1.28E-02
22817,2.54E-03,1.27E-02
22818,2.51E-03,1.27E-02
22819,2.53E-03,1.26E-02
22820,2.58E-03,1.26E-02
22821,2.48E-03,1.26E-02
22822,2.51E-03,1.26E-02
22823,2.39E-03,1.25E-02
22824,2.43E-03,1.25E-02
22825,2.32E-03,1.25E-02
22826,2.37E-03,1.24E-02
22827,2.33E-03,1.24E-02
22828,2.47E-03,1.23E-02
22829,2.42E-03,1.24E-02
22830,2.54E-03,1.23E-02
22831,2.50E-03,1.23E-02
22832,2.57E-03,1.22E-02
22833,2.57E-03,1.23E-02
22834,2.50E-03,1.22E-02
22835,2.55E-03,1.22E-02
22836,2.42E-03,1.21E-02
22837,2.45E-03,1.22E-02
22838,2.44E-03,1.21E-02
22839,2.42E-03,1.21E-02
22840,2.49E-03,1.21E-02
22841,2.45E-03,1.21E-02
22842,2.52E-03,1.20E-02
22843,2.51E-03,1.20E-02
22844,2.59E-03,1.20E-02
22845,2.56E-03,1.20E-02
22846,2.64E-03,1.19E-02
22847,2.65E-03,1.20E-02
22848,2.61E-03,1.19E-02
22849,2.63E-03,1.19E-02
22850,2.60E-03,1.19E-02
22851,2.62E-03,1.19E-02
22852,2.61E-03,1.19E-02
22853,2.61E-03,1.19E-02
22854,2.61E-03,1.18E-02
22855,2.61E-03,1.19E-02
22856,2.62E-03,1.18E-02
22857,2.65E-03,1.18E-02
22858,2.64E-03,1.18E-02
22859,2.74E-03,1.18E-02
22860,2.68E-03,1.18E-02
22861,2.75E-03,1.17E-02
22862,2.74E-03,1.18E-02
22863,2.73E-03,1.17E-02
22864,2.73E-03,1.17E-02
22865,2.73E-03,1.17E-02
22866,2.70E-03,1.17E-02
22867,2.75E-03,1.17E-02
22868,2.66E-03,1.27E-02
22869,2.67E-03,1.30E-02
22870,2.92E-03,1.15E-02
22871,2.84E-03,1.15E-02
22872,2.72E-03,1.18E-02
22873,2.77E-03,1.16E-02
22874,2.64E-03,1.21E-02
22875,2.68E-03,1.20E-02
22876,2.61E-03,1.24E-02
22877,2.62E-03,1.23E-02
22878,2.65E-03,1.27E-02
22879,2.61E-03,1.26E-02
22880,2.65E-03,1.30E-02
22881,2.65E-03,1.29E-02
22882,2.76E-03,1.32E-02
22883,2.71E-03,1.33E-02
22884,2.66E-03,1.31E-02
22885,2.78E-03,1.31E-02
22886,2.77E-03,1.32E-02
22887,2.78E-03,1.30E-02
22888,2.78E-03,1.30E-02
22889,2.73E-03,1.29E-02
22890,2.77E-03,1.29E-02
22891,2.71E-03,1.28E-02
22892,2.70E-03,1.28E-02
22893,2.70E-03,1.27E-02
22894,2.69E-03,1.27E-02
22895,2.70E-03,1.26E-02
22896,2.71E-03,1.26E-02
22897,2.65E-03,1.25E-02
22898,2.69E-03,1.25E-02
22899,2.59E-03,1.24E-02
22900,2.66E-03,1.24E-02
22901,2.57E-03,1.23E-02
22902,2.59E-03,1.23E-02
22903,2.52E-03,1.21E-02
22904,2.52E-03,1.22E-02
22905,2.53E-03,1.20E-02
22906,2.52E-03,1.21E-02
22907,2.63E-03,1.19E-02
22908,2.62E-03,1.19E-02
22909,2.76E-03,1.17E-02
22910,2.72E-03,1.18E-02
22911,2.82E-03,1.16E-02
22912,2.82E-03,1.16E-02
22913,2.82E-03,1.14E-02
22914,2.82E-03,1.15E-02
22915,2.72E-03,1.12E-02
22916,2.76E-03,1.13E-02
22917,2.62E-03,1.11E-02
22918,2.67E-03,1.12E-02
22919,2.55E-03,1.09E-02
22920,2.58E-03,1.10E-02
22921,2.48E-03,1.08E-02
22922,2.50E-03,1.08E-02
22923,2.48E-03,1.07E-02
22924,2.57E-03,1.02E-02
22925,2.54E-03,1.03E-02
22926,2.63E-03,1.00E-02
22927,2.61E-03,1.01E-02
22928,2.63E-03,9.84E-03
22929,2.64E-03,9.94E-03
22930,2.57E-03,9.62E-03
22931,2.60E-03,9.73E-03
22932,2.51E-03,9.40E-03
22933,2.56E-03,9.51E-03
22934,2.49E-03,9.18E-03
22935,2.50E-03,9.29E-03
22936,2.50E-03,8.98E-03
22937,2.49E-03,9.08E-03
22938,2.55E-03,8.78E-03
22939,2.53E-03,8.88E-03
22940,2.68E-03,8.58E-03
22941,2.66E-03,8.68E-03
22942,2.81E-03,8.37E-03
22943,2.77E-03,8.48E-03
22944,2.90E-03,8.14E-03
22945,2.87E-03,8.26E-03
22946,2.93E-03,7.88E-03
22947,2.95E-03,8.01E-03
22948,2.88E-03,7.59E-03
22949,2.92E-03,7.74E-03
22950,2.76E-03,7.27E-03
22951,2.85E-03,7.43E-03
22952,2.61E-03,6.96E-03
22953,2.60E-03,7.11E-03
22954,2.47E-03,6.66E-03
22955,2.52E-03,6.80E-03
22956,2.36E-03,6.37E-03
22957,2.37E-03,6.51E-03
22958,2.29E-03,6.23E-03
22959,2.36E-03,5.62E-03
22960,2.32E-03,5.73E-03
22961,2.45E-03,5.39E-03
22962,2.43E-03,5.51E-03
22963,2.54E-03,5.15E-03
22964,2.50E-03,5.28E-03
22965,2.50E-03,4.89E-03
22966,2.54E-03,5.02E-03
22967,2.37E-03,4.62E-03
22968,2.46E-03,4.75E-03
22969,2.37E-03,4.39E-03
22970,2.31E-03,4.50E-03
22971,2.33E-03,5.21E-03
22972,2.64E-03,4.89E-03
22973,2.38E-03,5.76E-03
22974,2.40E-03,5.49E-03
22975,2.38E-03,6.31E-03
22976,2.39E-03,6.04E-03
22977,2.38E-03,6.86E-03
22978,2.40E-03,6.59E-03
22979,2.40E-03,7.39E-03
22980,2.39E-03,7.12E-03
22981,2.44E-03,7.93E-03
22982,2.43E-03,7.66E-03
22983,2.43E-03,8.46E-03
22984,2.42E-03,8.19E-03
22985,2.45E-03,8.99E-03
22986,2.44E-03,8.72E-03
22987,2.46E-03,9.51E-03
22988,2.44E-03,9.25E-03
22989,2.44E-03,1.00E-02
22990,2.44E-03,9.78E-03
22991,2.45E-03,1.06E-02
22992,2.43E-03,1.03E-02
22993,2.46E-03,1.11E-02
22994,2.45E-03,1.08E-02
22995,2.50E-03,1.16E-02
22996,2.49E-03,1.14E-02
22997,2.58E-03,1.22E-02
22998,2.54E-03,1.19E-02
22999,2.63E-03,1.24E-02
23000,2.30E-03,1.26E-02
23001,2.31E-03,1.26E-02
23002,2.30E-03,1.26E-02
23003,2.66E-03,1.18E-02
23004,2.67E-03,1.17E-02
23005,2.87E-03,1.15E-02
23006,2.48E-03,1.04E-02
23007,2.48E-03,1.05E-02
23008,2.49E-03,1.03E-02
23009,2.28E-03,5.81E-03
23010,2.29E-03,5.68E-03
23011,2.79E-03,1.34E-02
23012,2.75E-03,1.34E-02
23013,2.63E-03,1.27E-02
23014,2.65E-03,1.30E-02
23015,2.88E-03,1.13E-02
23016,3.31E-03,1.13E-02
23017,2.73E-03,1.15E-02
23018,2.69E-03,1.13E-02
23019,2.67E-03,1.33E-02
23020,2.69E-03,1.32E-02
23021,2.67E-03,1.33E-02
23022,2.69E-03,1.32E-02
23023,2.68E-03,1.32E-02
23024,2.71E-03,1.31E-02
23025,2.69E-03,1.31E-02
23026,2.72E-03,1.31E-02
23027,2.70E-03,1.31E-02
23028,2.73E-03,1.31E-02
23029,2.72E-03,1.31E-02
23030,2.74E-03,1.31E-02
23031,2.72E-03,1.31E-02
23032,2.68E-03,1.31E-02
23033,2.71E-03,1.31E-02
23034,2.62E-03,1.31E-02
23035,2.65E-03,1.31E-02
23036,2.56E-03,1.32E-02
23037,2.60E-03,1.31E-02
23038,2.50E-03,1.32E-02
23039,2.54E-03,1.32E-02
23040,2.43E-03,1.32E-02
23041,2.46E-03,1.32E-02
23042,2.36E-03,1.32E-02
23043,2.41E-03,1.32E-02
23044,2.31E-03,1.32E-02
23045,2.33E-03,1.32E-02
23046,2.24E-03,1.32E-02
23047,2.28E-03,1.32E-02
23048,2.27E-03,1.31E-02
23049,2.26E-03,1.32E-02
23050,2.31E-03,1.30E-02
23051,2.30E-03,1.31E-02
23052,2.39E-03,1.30E-02
23053,2.38E-03,1.30E-02
23054,2.46E-03,1.29E-02
23055,2.43E-03,1.29E-02
23056,2.54E-03,1.28E-02
23057,2.52E-03,1.28E-02
23058,2.55E-03,1.27E-02
23059,2.58E-03,1.28E-02
23060,2.48E-03,1.27E-02
23061,2.52E-03,1.27E-02
23062,2.38E-03,1.26E-02
23063,2.43E-03,1.27E-02
23064,2.33E-03,1.26E-02
23065,2.36E-03,1.25E-02
23066,2.33E-03,1.25E-02
23067,2.47E-03,1.24E-02
23068,2.44E-03,1.25E-02
23069,2.56E-03,1.24E-02
23070,2.51E-03,1.24E-02
23071,2.57E-03,1.23E-02
23072,2.58E-03,1.23E-02
23073,2.51E-03,1.22E-02
23074,2.55E-03,1.23E-02
23075,2.43E-03,1.22E-02
23076,2.46E-03,1.22E-02
23077,2.42E-03,1.21E-02
23078,2.41E-03,1.22E-02
23079,2.47E-03,1.21E-02
23080,2.47E-03,1.21E-02
23081,2.52E-03,1.20E-02
23082,2.52E-03,1.21E-02
23083,2.57E-03,1.20E-02
23084,2.55E-03,1.20E-02
23085,2.63E-03,1.19E-02
23086,2.64E-03,1.20E-02
23087,2.62E-03,1.19E-02
23088,2.63E-03,1.19E-02
23089,2.61E-03,1.19E-02
23090,2.61E-03,1.19E-02
23091,2.58E-03,1.18E-02
23092,2.61E-03,1.19E-02
23093,2.62E-03,1.18E-02
23094,2.61E-03,1.18E-02
23095,2.64E-03,1.18E-02
23096,2.67E-03,1.17E-02
23097,2.69E-03,1.17E-02
23098,2.75E-03,1.17E-02
23099,2.71E-03,1.17E-02
23100,2.71E-03,1.16E-02
23101,2.74E-03,1.16E-02
23102,2.70E-03,1.16E-02
23103,2.71E-03,1.16E-02
23104,2.71E-03,1.15E-02
23105,2.70E-03,1.16E-02
23106,2.81E-03,1.15E-02
23107,2.70E-03,1.18E-02
23108,2.73E-03,1.17E-02
23109,2.62E-03,1.21E-02
23110,2.65E-03,1.20E-02
23111,2.59E-03,1.24E-02
23112,2.60E-03,1.23E-02
23113,2.59E-03,1.27E-02
23114,2.60E-03,1.26E-02
23115,2.60E-03,1.30E-02
23116,2.60E-03,1.29E-02
23117,2.53E-03,1.33E-02
23118,2.58E-03,1.32E-02
23119,2.78E-03,1.32E-02
23120,2.81E-03,1.33E-02
23121,2.75E-03,1.31E-02
23122,2.78E-03,1.32E-02
23123,2.71E-03,1.30E-02
23124,2.74E-03,1.30E-02
23125,2.69E-03,1.29E-02
23126,2.69E-03,1.29E-02
23127,2.69E-03,1.28E-02
23128,2.66E-03,1.28E-02
23129,2.69E-03,1.27E-02
23130,2.71E-03,1.27E-02
23131,2.65E-03,1.25E-02
23132,2.71E-03,1.26E-02
23133,2.59E-03,1.24E-02
23134,2.63E-03,1.25E-02
23135,2.56E-03,1.23E-02
23136,2.58E-03,1.24E-02
23137,2.51E-03,1.22E-02
23138,2.52E-03,1.22E-02
23139,2.53E-03,1.20E-02
23140,2.53E-03,1.21E-02
23141,2.63E-03,1.18E-02
23142,2.60E-03,1.19E-02
23143,2.74E-03,1.17E-02
23144,2.69E-03,1.18E-02
23145,2.81E-03,1.15E-02
23146,2.79E-03,1.16E-02
23147,2.79E-03,1.13E-02
23148,2.80E-03,1.14E-02
23149,2.72E-03,1.12E-02
23150,2.76E-03,1.13E-02
23151,2.62E-03,1.10E-02
23152,2.65E-03,1.11E-02
23153,2.55E-03,1.08E-02
23154,2.57E-03,1.09E-02
23155,2.48E-03,1.06E-02
23156,2.50E-03,1.07E-02
23157,2.47E-03,1.06E-02
23158,2.56E-03,1.01E-02
23159,2.53E-03,1.02E-02
23160,2.62E-03,9.87E-03
23161,2.60E-03,9.98E-03
23162,2.63E-03,9.65E-03
23163,2.65E-03,9.77E-03
23164,2.58E-03,9.42E-03
23165,2.60E-03,9.54E-03
23166,2.51E-03,9.19E-03
23167,2.55E-03,9.31E-03
23168,2.47E-03,8.97E-03
23169,2.50E-03,9.08E-03
23170,2.50E-03,8.76E-03
23171,2.48E-03,8.86E-03
23172,2.56E-03,8.55E-03
23173,2.53E-03,8.65E-03
23174,2.66E-03,8.34E-03
23175,2.64E-03,8.45E-03
23176,2.79E-03,8.12E-03
23177,2.75E-03,8.24E-03
23178,2.88E-03,7.89E-03
23179,2.85E-03,8.01E-03
23180,2.94E-03,7.63E-03
23181,2.96E-03,7.76E-03
23182,2.87E-03,7.33E-03
23183,2.90E-03,7.48E-03
23184,2.74E-03,7.01E-03
23185,2.85E-03,7.17E-03
23186,2.62E-03,6.69E-03
23187,2.66E-03,6.85E-03
23188,2.47E-03,6.39E-03
23189,2.51E-03,6.54E-03
23190,2.36E-03,6.10E-03
23191,2.38E-03,6.24E-03
23192,2.30E-03,5.95E-03
23193,2.38E-03,5.33E-03
23194,2.28E-03,5.56E-03
23195,2.32E-03,5.44E-03
23196,2.44E-03,5.11E-03
23197,2.42E-03,5.22E-03
23198,2.53E-03,4.87E-03
23199,2.50E-03,4.99E-03
23200,2.52E-03,4.60E-03
23201,2.53E-03,4.74E-03
23202,2.43E-03,4.33E-03
23203,2.47E-03,4.47E-03
23204,2.44E-03,4.09E-03
23205,2.41E-03,4.20E-03
23206,2.54E-03,3.99E-03
23207,2.46E-03,4.58E-03
23208,1.97E-03,4.34E-03
23209,2.45E-03,5.15E-03
23210,2.50E-03,4.85E-03
23211,2.42E-03,5.72E-03
23212,2.42E-03,5.45E-03
23213,2.42E-03,6.27E-03
23214,2.42E-03,6.00E-03
23215,2.41E-03,6.82E-03
23216,2.41E-03,6.55E-03
23217,2.42E-03,7.36E-03
23218,2.42E-03,7.09E-03
23219,2.44E-03,7.90E-03
23220,2.43E-03,7.63E-03
23221,2.44E-03,8.43E-03
23222,2.44E-03,8.17E-03
23223,2.43E-03,8.97E-03
23224,2.43E-03,8.70E-03
23225,2.43E-03,9.50E-03
23226,2.43E-03,9.23E-03
23227,2.45E-03,1.00E-02
23228,2.44E-03,9.76E-03
23229,2.47E-03,1.06E-02
23230,2.45E-03,1.03E-02
23231,2.48E-03,1.11E-02
23232,2.46E-03,1.08E-02
23233,2.51E-03,1.16E-02
23234,2.49E-03,1.14E-02
23235,2.60E-03,1.22E-02
23236,2.55E-03,1.19E-02
23237,2.60E-03,1.25E-02
23238,2.81E-03,1.35E-02
23239,2.71E-03,3.47E-03
23240,2.65E-03,1.33E-02
23241,2.66E-03,1.17E-02
23242,2.69E-03,1.17E-02
23243,3.15E-03,1.13E-02
23244,2.46E-03,1.02E-02
23245,2.47E-03,1.03E-02
23246,2.47E-03,1.01E-02
23247,2.76E-03,1.11E-02
23248,2.61E-03,1.11E-02
23249,2.68E-03,1.15E-02
23250,2.65E-03,1.13E-02
23251,2.48E-03,1.34E-02
23252,1.94E-03,1.35E-02
23253,1.97E-03,3.31E-03
23254,1.74E-03,3.07E-03
23255,2.30E-03,1.27E-02
23256,2.77E-03,1.35E-02
23257,2.79E-03,1.36E-02
23258,2.28E-03,1.27E-02
23259,2.29E-03,1.27E-02
23260,1.74E-03,3.11E-03
23261,2.63E-03,1.33E-02
23262,2.64E-03,1.36E-02
23263,2.65E-03,1.36E-02
23264,2.65E-03,1.36E-02
23265,2.65E-03,1.35E-02
23266,2.65E-03,1.35E-02
23267,2.66E-03,1.35E-02
23268,2.65E-03,1.35E-02
23269,2.67E-03,1.34E-02
23270,2.66E-03,1.34E-02
23271,2.73E-03,1.33E-02
23272,2.69E-03,1.34E-02
23273,2.73E-03,1.33E-02
23274,2.73E-03,1.33E-02
23275,2.73E-03,1.33E-02
23276,2.73E-03,1.33E-02
23277,2.67E-03,1.33E-02
23278,2.70E-03,1.33E-02
23279,2.62E-03,1.33E-02
23280,2.64E-03,1.33E-02
23281,2.54E-03,1.34E-02
23282,2.59E-03,1.34E-02
23283,2.50E-03,1.34E-02
23284,2.52E-03,1.34E-02
23285,2.41E-03,1.34E-02
23286,2.46E-03,1.34E-02
23287,2.35E-03,1.34E-02
23288,2.41E-03,1.34E-02
23289,2.29E-03,1.34E-02
23290,2.32E-03,1.34E-02
23291,2.23E-03,1.34E-02
23292,2.29E-03,1.34E-02
23293,2.29E-03,1.33E-02
23294,2.26E-03,1.33E-02
23295,2.32E-03,1.32E-02
23296,2.30E-03,1.33E-02
23297,2.39E-03,1.31E-02
23298,2.37E-03,1.32E-02
23299,2.47E-03,1.30E-02
23300,2.43E-03,1.31E-02
23301,2.53E-03,1.29E-02
23302,2.53E-03,1.30E-02
23303,2.55E-03,1.28E-02
23304,2.57E-03,1.29E-02
23305,2.50E-03,1.28E-02
23306,2.52E-03,1.28E-02
23307,2.39E-03,1.27E-02
23308,2.43E-03,1.28E-02
23309,2.34E-03,1.27E-02
23310,2.36E-03,1.26E-02
23311,2.33E-03,1.26E-02
23312,2.48E-03,1.25E-02
23313,2.45E-03,1.25E-02
23314,2.56E-03,1.24E-02
23315,2.52E-03,1.25E-02
23316,2.55E-03,1.24E-02
23317,2.57E-03,1.24E-02
23318,2.51E-03,1.23E-02
23319,2.54E-03,1.23E-02
23320,2.43E-03,1.22E-02
23321,2.47E-03,1.23E-02
23322,2.42E-03,1.22E-02
23323,2.41E-03,1.22E-02
23324,2.47E-03,1.21E-02
23325,2.47E-03,1.21E-02
23326,2.52E-03,1.20E-02
23327,2.52E-03,1.21E-02
23328,2.58E-03,1.20E-02
23329,2.56E-03,1.20E-02
23330,2.63E-03,1.19E-02
23331,2.62E-03,1.20E-02
23332,2.63E-03,1.19E-02
23333,2.63E-03,1.19E-02
23334,2.59E-03,1.18E-02
23335,2.60E-03,1.19E-02
23336,2.58E-03,1.18E-02
23337,2.59E-03,1.18E-02
23338,2.59E-03,1.17E-02
23339,2.58E-03,1.18E-02
23340,2.61E-03,1.17E-02
23341,2.72E-03,1.16E-02
23342,2.72E-03,1.16E-02
23343,2.75E-03,1.16E-02
23344,2.75E-03,1.16E-02
23345,2.73E-03,1.15E-02
23346,2.75E-03,1.15E-02
23347,2.68E-03,1.15E-02
23348,2.70E-03,1.15E-02
23349,2.68E-03,1.14E-02
23350,2.67E-03,1.14E-02
23351,2.67E-03,1.14E-02
23352,2.66E-03,1.18E-02
23353,2.66E-03,1.17E-02
23354,2.60E-03,1.21E-02
23355,2.61E-03,1.20E-02
23356,2.55E-03,1.25E-02
23357,2.57E-03,1.23E-02
23358,2.55E-03,1.28E-02
23359,2.55E-03,1.26E-02
23360,2.55E-03,1.31E-02
23361,2.56E-03,1.29E-02
23362,2.52E-03,1.32E-02
23363,2.76E-03,1.34E-02
23364,2.79E-03,1.34E-02
23365,2.72E-03,1.32E-02
23366,2.74E-03,1.33E-02
23367,2.67E-03,1.31E-02
23368,2.70E-03,1.32E-02
23369,2.67E-03,1.30E-02
23370,2.66E-03,1.30E-02
23371,2.66E-03,1.29E-02
23372,2.66E-03,1.29E-02
23373,2.69E-03,1.27E-02
23374,2.71E-03,1.28E-02
23375,2.65E-03,1.26E-02
23376,2.69E-03,1.27E-02
23377,2.59E-03,1.25E-02
23378,2.61E-03,1.25E-02
23379,2.54E-03,1.23E-02
23380,2.57E-03,1.24E-02
23381,2.50E-03,1.22E-02
23382,2.49E-03,1.23E-02
23383,2.54E-03,1.20E-02
23384,2.53E-03,1.21E-02
23385,2.63E-03,1.18E-02
23386,2.58E-03,1.19E-02
23387,2.73E-03,1.16E-02
23388,2.68E-03,1.17E-02
23389,2.81E-03,1.15E-02
23390,2.78E-03,1.16E-02
23391,2.79E-03,1.13E-02
23392,2.80E-03,1.14E-02
23393,2.73E-03,1.11E-02
23394,2.74E-03,1.12E-02
23395,2.61E-03,1.09E-02
23396,2.64E-03,1.10E-02
23397,2.53E-03,1.07E-02
23398,2.57E-03,1.08E-02
23399,2.47E-03,1.05E-02
23400,2.50E-03,1.06E-02
23401,2.46E-03,1.04E-02
23402,2.56E-03,9.92E-03
23403,2.54E-03,1.00E-02
23404,2.62E-03,9.70E-03
23405,2.60E-03,9.81E-03
23406,2.61E-03,9.47E-03
23407,2.64E-03,9.59E-03
23408,2.57E-03,9.23E-03
23409,2.59E-03,9.35E-03
23410,2.51E-03,8.98E-03
23411,2.54E-03,9.10E-03
23412,2.45E-03,8.75E-03
23413,2.46E-03,8.86E-03
23414,2.49E-03,8.53E-03
23415,2.47E-03,8.64E-03
23416,2.55E-03,8.32E-03
23417,2.52E-03,8.42E-03
23418,2.65E-03,8.10E-03
23419,2.62E-03,8.21E-03
23420,2.76E-03,7.87E-03
23421,2.73E-03,7.99E-03
23422,2.87E-03,7.63E-03
23423,2.83E-03,7.76E-03
23424,2.92E-03,7.37E-03
23425,2.92E-03,7.50E-03
23426,2.87E-03,7.07E-03
23427,2.91E-03,7.22E-03
23428,2.74E-03,6.75E-03
23429,2.83E-03,6.91E-03
23430,2.63E-03,6.43E-03
23431,2.67E-03,6.59E-03
23432,2.50E-03,6.12E-03
23433,2.52E-03,6.27E-03
23434,2.39E-03,5.82E-03
23435,2.40E-03,5.97E-03
23436,2.31E-03,5.53E-03
23437,2.30E-03,5.67E-03
23438,2.28E-03,5.28E-03
23439,2.28E-03,5.40E-03
23440,2.39E-03,5.04E-03
23441,2.32E-03,5.16E-03
23442,2.45E-03,4.82E-03
23443,2.41E-03,4.93E-03
23444,2.53E-03,4.58E-03
23445,2.51E-03,4.70E-03
23446,2.53E-03,4.31E-03
23447,2.53E-03,4.45E-03
23448,2.47E-03,4.04E-03
23449,2.51E-03,4.18E-03
23450,2.47E-03,3.78E-03
23451,2.44E-03,3.90E-03
23452,2.52E-03,3.55E-03
23453,2.51E-03,3.67E-03
23454,2.49E-03,3.31E-03
23455,2.54E-03,3.43E-03
23456,2.27E-03,3.19E-03
23457,2.45E-03,4.00E-03
23458,2.79E-03,3.72E-03
23459,2.35E-03,4.58E-03
23460,2.32E-03,4.30E-03
23461,2.43E-03,5.12E-03
23462,2.43E-03,4.84E-03
23463,2.41E-03,5.69E-03
23464,2.43E-03,5.40E-03
23465,2.42E-03,6.24E-03
23466,2.42E-03,5.96E-03
23467,2.43E-03,6.79E-03
23468,2.41E-03,6.52E-03
23469,2.43E-03,7.34E-03
23470,2.43E-03,7.06E-03
23471,2.43E-03,7.88E-03
23472,2.43E-03,7.61E-03
23473,2.45E-03,8.42E-03
23474,2.43E-03,8.15E-03
23475,2.45E-03,8.95E-03
23476,2.45E-03,8.68E-03
23477,2.45E-03,9.49E-03
23478,2.45E-03,9.22E-03
23479,2.46E-03,1.00E-02
23480,2.45E-03,9.75E-03
23481,2.46E-03,1.06E-02
23482,2.45E-03,1.03E-02
23483,2.48E-03,1.11E-02
23484,2.44E-03,1.08E-02
23485,2.51E-03,1.16E-02
23486,2.50E-03,1.14E-02
23487,2.56E-03,1.22E-02
23488,2.51E-03,1.19E-02
23489,2.62E-03,1.27E-02
23490,2.60E-03,1.25E-02
23491,2.62E-03,1.30E-02
23492,2.77E-03,1.36E-02
23493,2.30E-03,1.27E-02
23494,2.65E-03,1.16E-02
23495,2.72E-03,1.16E-02
23496,2.45E-03,1.01E-02
23497,2.45E-03,1.02E-02
23498,2.46E-03,9.98E-03
23499,2.09E-03,2.84E-03
23500,2.11E-03,2.80E-03
23501,2.62E-03,3.38E-03
23502,2.34E-03,3.07E-03
23503,2.97E-03,1.11E-02
23504,2.63E-03,1.33E-02
23505,2.65E-03,1.36E-02
23506,2.60E-03,1.11E-02
23507,2.60E-03,1.15E-02
23508,2.60E-03,1.13E-02
23509,2.36E-03,1.35E-02
23510,2.17E-03,1.36E-02
23511,2.64E-03,1.39E-02
23512,2.62E-03,1.39E-02
23513,2.64E-03,1.39E-02
23514,2.61E-03,1.38E-02
23515,2.62E-03,1.38E-02
23516,2.62E-03,1.37E-02
23517,2.61E-03,1.38E-02
23518,2.65E-03,1.37E-02
23519,2.64E-03,1.37E-02
23520,2.70E-03,1.36E-02
23521,2.67E-03,1.36E-02
23522,2.70E-03,1.36E-02
23523,2.71E-03,1.36E-02
23524,2.72E-03,1.36E-02
23525,2.71E-03,1.36E-02
23526,2.66E-03,1.36E-02
23527,2.69E-03,1.36E-02
23528,2.62E-03,1.36E-02
23529,2.63E-03,1.36E-02
23530,2.54E-03,1.36E-02
23531,2.56E-03,1.36E-02
23532,2.48E-03,1.36E-02
23533,2.52E-03,1.36E-02
23534,2.42E-03,1.36E-02
23535,2.46E-03,1.36E-02
23536,2.36E-03,1.36E-02
23537,2.40E-03,1.36E-02
23538,2.32E-03,1.36E-02
23539,2.33E-03,1.36E-02
23540,2.25E-03,1.36E-02
23541,2.29E-03,1.36E-02
23542,2.30E-03,1.35E-02
23543,2.26E-03,1.35E-02
23544,2.33E-03,1.34E-02
23545,2.31E-03,1.34E-02
23546,2.39E-03,1.33E-02
23547,2.36E-03,1.33E-02
23548,2.48E-03,1.31E-02
23549,2.43E-03,1.32E-02
23550,2.54E-03,1.30E-02
23551,2.51E-03,1.31E-02
23552,2.56E-03,1.30E-02
23553,2.58E-03,1.30E-02
23554,2.51E-03,1.29E-02
23555,2.53E-03,1.29E-02
23556,2.40E-03,1.29E-02
23557,2.43E-03,1.29E-02
23558,2.35E-03,1.28E-02
23559,2.38E-03,1.27E-02
23560,2.36E-03,1.27E-02
23561,2.48E-03,1.26E-02
23562,2.43E-03,1.26E-02
23563,2.57E-03,1.25E-02
23564,2.54E-03,1.25E-02
23565,2.58E-03,1.24E-02
23566,2.58E-03,1.25E-02
23567,2.50E-03,1.23E-02
23568,2.55E-03,1.24E-02
23569,2.44E-03,1.23E-02
23570,2.47E-03,1.23E-02
23571,2.42E-03,1.22E-02
23572,2.41E-03,1.22E-02
23573,2.49E-03,1.21E-02
23574,2.46E-03,1.22E-02
23575,2.52E-03,1.21E-02
23576,2.51E-03,1.21E-02
23577,2.57E-03,1.20E-02
23578,2.57E-03,1.20E-02
23579,2.63E-03,1.19E-02
23580,2.63E-03,1.19E-02
23581,2.64E-03,1.19E-02
23582,2.64E-03,1.19E-02
23583,2.62E-03,1.18E-02
23584,2.63E-03,1.18E-02
23585,2.57E-03,1.17E-02
23586,2.59E-03,1.18E-02
23587,2.59E-03,1.17E-02
23588,2.56E-03,1.17E-02
23589,2.61E-03,1.17E-02
23590,2.77E-03,1.15E-02
23591,2.77E-03,1.16E-02
23592,2.75E-03,1.14E-02
23593,2.78E-03,1.15E-02
23594,2.72E-03,1.14E-02
23595,2.73E-03,1.14E-02
23596,2.67E-03,1.13E-02
23597,2.68E-03,1.14E-02
23598,2.60E-03,1.13E-02
23599,2.63E-03,1.13E-02
23600,2.24E-03,1.12E-02
23601,2.47E-03,1.12E-02
23602,2.61E-03,1.18E-02
23603,2.61E-03,1.17E-02
23604,2.56E-03,1.22E-02
23605,2.59E-03,1.20E-02
23606,2.52E-03,1.25E-02
23607,2.53E-03,1.23E-02
23608,2.53E-03,1.28E-02
23609,2.53E-03,1.26E-02
23610,2.51E-03,1.31E-02
23611,2.52E-03,1.30E-02
23612,2.47E-03,1.33E-02
23613,2.80E-03,1.38E-02
23614,2.78E-03,1.36E-02
23615,2.79E-03,1.37E-02
23616,2.76E-03,1.35E-02
23617,2.78E-03,1.36E-02
23618,2.72E-03,1.33E-02
23619,2.72E-03,1.34E-02
23620,2.66E-03,1.32E-02
23621,2.70E-03,1.33E-02
23622,2.65E-03,1.31E-02
23623,2.65E-03,1.31E-02
23624,2.68E-03,1.29E-02
23625,2.70E-03,1.30E-02
23626,2.68E-03,1.28E-02
23627,2.65E-03,1.29E-02
23628,2.65E-03,1.27E-02
23629,2.69E-03,1.27E-02
23630,2.58E-03,1.25E-02
23631,2.60E-03,1.26E-02
23632,2.54E-03,1.24E-02
23633,2.57E-03,1.25E-02
23634,2.49E-03,1.22E-02
23635,2.49E-03,1.23E-02
23636,2.53E-03,1.20E-02
23637,2.51E-03,1.21E-02
23638,2.61E-03,1.18E-02
23639,2.58E-03,1.19E-02
23640,2.71E-03,1.16E-02
23641,2.67E-03,1.17E-02
23642,2.79E-03,1.14E-02
23643,2.79E-03,1.15E-02
23644,2.79E-03,1.12E-02
23645,2.79E-03,1.13E-02
23646,2.70E-03,1.10E-02
23647,2.73E-03,1.11E-02
23648,2.61E-03,1.08E-02
23649,2.66E-03,1.09E-02
23650,2.53E-03,1.06E-02
23651,2.55E-03,1.07E-02
23652,2.47E-03,1.04E-02
23653,2.50E-03,1.05E-02
23654,2.45E-03,1.03E-02
23655,2.57E-03,9.76E-03
23656,2.52E-03,9.87E-03
23657,2.61E-03,9.52E-03
23658,2.58E-03,9.64E-03
23659,2.61E-03,9.28E-03
23660,2.64E-03,9.40E-03
23661,2.56E-03,9.02E-03
23662,2.56E-03,9.15E-03
23663,2.51E-03,8.77E-03
23664,2.54E-03,8.90E-03
23665,2.46E-03,8.53E-03
23666,2.47E-03,8.65E-03
23667,2.48E-03,8.30E-03
23668,2.46E-03,8.41E-03
23669,2.53E-03,8.08E-03
23670,2.52E-03,8.19E-03
23671,2.63E-03,7.85E-03
23672,2.62E-03,7.97E-03
23673,2.74E-03,7.62E-03
23674,2.74E-03,7.74E-03
23675,2.85E-03,7.37E-03
23676,2.80E-03,7.50E-03
23677,2.89E-03,7.11E-03
23678,2.88E-03,7.24E-03
23679,2.87E-03,6.81E-03
23680,2.89E-03,6.96E-03
23681,2.77E-03,6.49E-03
23682,2.80E-03,6.65E-03
23683,2.63E-03,6.16E-03
23684,2.64E-03,6.32E-03
23685,2.50E-03,5.84E-03
23686,2.53E-03,6.00E-03
23687,2.40E-03,5.54E-03
23688,2.41E-03,5.69E-03
23689,2.33E-03,5.25E-03
23690,2.33E-03,5.39E-03
23691,2.29E-03,4.99E-03
23692,2.29E-03,5.11E-03
23693,2.37E-03,4.75E-03
23694,2.33E-03,4.87E-03
23695,2.45E-03,4.53E-03
23696,2.42E-03,4.64E-03
23697,2.52E-03,4.28E-03
23698,2.50E-03,4.41E-03
23699,2.53E-03,4.02E-03
23700,2.52E-03,4.16E-03
23701,2.49E-03,3.74E-03
23702,2.51E-03,3.88E-03
23703,2.48E-03,3.48E-03
23704,2.48E-03,3.61E-03
23705,2.49E-03,3.24E-03
23706,2.50E-03,3.35E-03
23707,2.37E-03,3.01E-03
23708,2.45E-03,3.12E-03
23709,2.23E-03,2.91E-03
23710,2.57E-03,3.97E-03
23711,2.92E-03,3.67E-03
23712,2.39E-03,4.54E-03
23713,2.40E-03,4.26E-03
23714,2.43E-03,5.09E-03
23715,2.42E-03,4.82E-03
23716,2.44E-03,5.65E-03
23717,2.44E-03,5.37E-03
23718,2.44E-03,6.21E-03
23719,2.43E-03,5.93E-03
23720,2.46E-03,6.76E-03
23721,2.44E-03,6.49E-03
23722,2.46E-03,7.31E-03
23723,2.46E-03,7.04E-03
23724,2.47E-03,7.86E-03
23725,2.47E-03,7.59E-03
23726,2.46E-03,8.40E-03
23727,2.45E-03,8.13E-03
23728,2.49E-03,8.94E-03
23729,2.45E-03,8.67E-03
23730,2.49E-03,9.48E-03
23731,2.48E-03,9.21E-03
23732,2.47E-03,1.00E-02
23733,2.48E-03,9.74E-03
23734,2.48E-03,1.05E-02
23735,2.46E-03,1.03E-02
23736,2.48E-03,1.11E-02
23737,2.46E-03,1.08E-02
23738,2.49E-03,1.16E-02
23739,2.46E-03,1.14E-02
23740,2.53E-03,1.22E-02
23741,2.51E-03,1.19E-02
23742,2.59E-03,1.28E-02
23743,2.57E-03,1.25E-02
23744,2.62E-03,1.30E-02
23745,2.29E-03,2.77E-03
23746,2.27E-03,1.11E-02
23747,2.66E-03,1.39E-02
23748,2.57E-03,1.11E-02
23749,2.28E-03,2.51E-03
23750,2.37E-03,2.48E-03
23751,2.30E-03,1.29E-02
23752,2.30E-03,1.28E-02
23753,2.60E-03,1.16E-02
23754,2.79E-03,1.15E-02
23755,2.01E-03,1.10E-02
23756,2.46E-03,1.01E-02
23757,2.46E-03,9.94E-03
23758,2.27E-03,2.55E-03
23759,2.64E-03,1.42E-02
23760,2.64E-03,1.42E-02
23761,2.54E-03,1.09E-02
23762,2.52E-03,1.09E-02
23763,2.88E-03,1.39E-02
23764,2.98E-03,1.40E-02
23765,2.53E-03,1.10E-02
23766,2.47E-03,1.10E-02
23767,2.42E-03,2.19E-03
23768,2.36E-03,2.22E-03
23769,2.59E-03,1.42E-02
23770,2.60E-03,1.42E-02
23771,2.58E-03,1.41E-02
23772,2.59E-03,1.41E-02
23773,2.61E-03,1.40E-02
23774,2.57E-03,1.41E-02
23775,2.64E-03,1.40E-02
23776,2.63E-03,1.40E-02
23777,2.70E-03,1.39E-02
23778,2.66E-03,1.39E-02
23779,2.69E-03,1.38E-02
23780,2.70E-03,1.39E-02
23781,2.70E-03,1.38E-02
23782,2.69E-03,1.38E-02
23783,2.65E-03,1.38E-02
23784,2.67E-03,1.38E-02
23785,2.61E-03,1.38E-02
23786,2.63E-03,1.38E-02
23787,2.54E-03,1.38E-02
23788,2.56E-03,1.38E-02
23789,2.48E-03,1.39E-02
23790,2.52E-03,1.38E-02
23791,2.43E-03,1.38E-02
23792,2.45E-03,1.39E-02
23793,2.37E-03,1.38E-02
23794,2.39E-03,1.38E-02
23795,2.31E-03,1.38E-02
23796,2.33E-03,1.38E-02
23797,2.27E-03,1.37E-02
23798,2.28E-03,1.38E-02
23799,2.29E-03,1.36E-02
23800,2.27E-03,1.37E-02
23801,2.32E-03,1.35E-02
23802,2.32E-03,1.36E-02
23803,2.39E-03,1.34E-02
23804,2.37E-03,1.35E-02
23805,2.47E-03,1.33E-02
23806,2.45E-03,1.33E-02
23807,2.54E-03,1.32E-02
23808,2.53E-03,1.32E-02
23809,2.56E-03,1.31E-02
23810,2.60E-03,1.31E-02
23811,2.49E-03,1.30E-02
23812,2.53E-03,1.30E-02
23813,2.39E-03,1.30E-02
23814,2.44E-03,1.30E-02
23815,2.28E-03,1.29E-02
23816,2.35E-03,1.29E-02
23817,2.39E-03,1.28E-02
23818,2.36E-03,1.28E-02
23819,2.48E-03,1.27E-02
23820,2.44E-03,1.27E-02
23821,2.56E-03,1.26E-02
23822,2.56E-03,1.26E-02
23823,2.58E-03,1.25E-02
23824,2.58E-03,1.25E-02
23825,2.50E-03,1.24E-02
23826,2.56E-03,1.24E-02
23827,2.45E-03,1.23E-02
23828,2.47E-03,1.24E-02
23829,2.43E-03,1.23E-02
23830,2.41E-03,1.23E-02
23831,2.49E-03,1.22E-02
23832,2.46E-03,1.22E-02
23833,2.52E-03,1.21E-02
23834,2.50E-03,1.21E-02
23835,2.58E-03,1.20E-02
23836,2.55E-03,1.20E-02
23837,2.61E-03,1.19E-02
23838,2.62E-03,1.19E-02
23839,2.62E-03,1.18E-02
23840,2.66E-03,1.19E-02
23841,2.62E-03,1.18E-02
23842,2.62E-03,1.18E-02
23843,2.58E-03,1.17E-02
23844,2.59E-03,1.17E-02
23845,2.55E-03,1.16E-02
23846,2.55E-03,1.17E-02
23847,2.56E-03,1.16E-02
23848,2.80E-03,1.14E-02
23849,2.97E-03,1.15E-02
23850,2.74E-03,1.13E-02
23851,2.77E-03,1.14E-02
23852,2.74E-03,1.13E-02
23853,2.73E-03,1.13E-02
23854,2.65E-03,1.12E-02
23855,2.69E-03,1.12E-02
23856,2.50E-03,1.11E-02
23857,2.59E-03,1.12E-02
23858,2.33E-03,1.11E-02
23859,2.55E-03,1.11E-02
23860,2.55E-03,1.15E-02
23861,2.55E-03,1.13E-02
23862,2.55E-03,1.18E-02
23863,2.56E-03,1.16E-02
23864,2.52E-03,1.22E-02
23865,2.53E-03,1.20E-02
23866,2.52E-03,1.25E-02
23867,2.52E-03,1.23E-02
23868,2.51E-03,1.28E-02
23869,2.52E-03,1.27E-02
23870,2.50E-03,1.32E-02
23871,2.51E-03,1.30E-02
23872,2.50E-03,1.35E-02
23873,2.51E-03,1.33E-02
23874,3.17E-03,1.39E-02
23875,2.82E-03,1.37E-02
23876,2.78E-03,1.38E-02
23877,2.79E-03,1.39E-02
23878,2.73E-03,1.36E-02
23879,2.77E-03,1.37E-02
23880,2.68E-03,1.35E-02
23881,2.70E-03,1.35E-02
23882,2.66E-03,1.33E-02
23883,2.69E-03,1.34E-02
23884,2.65E-03,1.32E-02
23885,2.64E-03,1.32E-02
23886,2.63E-03,1.30E-02
23887,2.66E-03,1.31E-02
23888,2.68E-03,1.29E-02
23889,2.67E-03,1.30E-02
23890,2.64E-03,1.27E-02
23891,2.67E-03,1.28E-02
23892,2.58E-03,1.26E-02
23893,2.59E-03,1.27E-02
23894,2.53E-03,1.24E-02
23895,2.56E-03,1.25E-02
23896,2.49E-03,1.22E-02
23897,2.48E-03,1.23E-02
23898,2.51E-03,1.20E-02
23899,2.51E-03,1.21E-02
23900,2.62E-03,1.18E-02
23901,2.56E-03,1.19E-02
23902,2.72E-03,1.16E-02
23903,2.66E-03,1.17E-02
23904,2.79E-03,1.14E-02
23905,2.78E-03,1.15E-02
23906,2.76E-03,1.11E-02
23907,2.77E-03,1.13E-02
23908,2.69E-03,1.09E-02
23909,2.73E-03,1.10E-02
23910,2.61E-03,1.07E-02
23911,2.65E-03,1.08E-02
23912,2.53E-03,1.05E-02
23913,2.54E-03,1.06E-02
23914,2.45E-03,1.03E-02
23915,2.48E-03,1.04E-02
23916,2.46E-03,1.02E-02
23917,2.56E-03,9.59E-03
23918,2.48E-03,9.83E-03
23919,2.51E-03,9.71E-03
23920,2.62E-03,9.34E-03
23921,2.57E-03,9.46E-03
23922,2.62E-03,9.08E-03
23923,2.63E-03,9.21E-03
23924,2.56E-03,8.82E-03
23925,2.56E-03,8.95E-03
23926,2.51E-03,8.56E-03
23927,2.52E-03,8.69E-03
23928,2.45E-03,8.30E-03
23929,2.46E-03,8.43E-03
23930,2.48E-03,8.06E-03
23931,2.45E-03,8.18E-03
23932,2.53E-03,7.83E-03
23933,2.51E-03,7.95E-03
23934,2.62E-03,7.60E-03
23935,2.60E-03,7.72E-03
23936,2.73E-03,7.36E-03
23937,2.71E-03,7.48E-03
23938,2.82E-03,7.11E-03
23939,2.80E-03,7.24E-03
23940,2.89E-03,6.84E-03
23941,2.88E-03,6.98E-03
23942,2.84E-03,6.54E-03
23943,2.86E-03,6.69E-03
23944,2.75E-03,6.22E-03
23945,2.79E-03,6.38E-03
23946,2.65E-03,5.89E-03
23947,2.67E-03,6.05E-03
23948,2.52E-03,5.56E-03
23949,2.54E-03,5.72E-03
23950,2.40E-03,5.25E-03
23951,2.42E-03,5.40E-03
23952,2.35E-03,4.96E-03
23953,2.36E-03,5.10E-03
23954,2.31E-03,4.69E-03
23955,2.31E-03,4.82E-03
23956,2.37E-03,4.46E-03
23957,2.34E-03,4.57E-03
23958,2.47E-03,4.23E-03
23959,2.44E-03,4.34E-03
23960,2.55E-03,3.99E-03
23961,2.52E-03,4.11E-03
23962,2.55E-03,3.72E-03
23963,2.56E-03,3.86E-03
23964,2.51E-03,3.44E-03
23965,2.51E-03,3.58E-03
23966,2.47E-03,3.17E-03
23967,2.49E-03,3.30E-03
23968,2.42E-03,2.92E-03
23969,2.47E-03,3.05E-03
23970,2.40E-03,2.71E-03
23971,2.41E-03,2.81E-03
23972,2.32E-03,2.62E-03
23973,2.08E-03,1.09E-02
23974,2.36E-03,1.09E-02
23975,2.42E-03,2.77E-03
23976,2.49E-03,2.48E-03
23977,2.49E-03,3.37E-03
23978,2.47E-03,3.07E-03
23979,2.46E-03,3.94E-03
23980,2.55E-03,3.65E-03
23981,2.42E-03,4.51E-03
23982,2.43E-03,4.23E-03
23983,2.41E-03,5.07E-03
23984,2.44E-03,4.79E-03
23985,2.44E-03,5.63E-03
23986,2.42E-03,5.35E-03
23987,2.45E-03,6.19E-03
23988,2.43E-03,5.91E-03
23989,2.45E-03,6.74E-03
23990,2.44E-03,6.47E-03
23991,2.46E-03,7.29E-03
23992,2.47E-03,7.02E-03
23993,2.46E-03,7.84E-03
23994,2.47E-03,7.57E-03
23995,2.48E-03,8.38E-03
23996,2.46E-03,8.11E-03
23997,2.47E-03,8.93E-03
23998,2.46E-03,8.66E-03
23999,2.48E-03,9.47E-03
24000,2.45E-03,9.20E-03
24001,2.48E-03,1.00E-02
24002,2.47E-03,9.74E-03
24003,2.47E-03,1.05E-02
24004,2.48E-03,1.03E-02
24005,2.49E-03,1.11E-02
24006,2.48E-03,1.08E-02
24007,2.50E-03,1.16E-02
24008,2.48E-03,1.14E-02
24009,2.50E-03,1.22E-02
24010,2.51E-03,1.19E-02
24011,2.56E-03,1.28E-02
24012,2.54E-03,1.25E-02
24013,2.61E-03,1.33E-02
24014,2.58E-03,1.31E-02
24015,2.64E-03,1.39E-02
24016,2.62E-03,1.36E-02
24017,2.65E-03,1.43E-02
24018,2.16E-03,1.09E-02
24019,2.53E-03,1.09E-02
24020,2.46E-03,1.08E-02
24021,2.48E-03,1.08E-02
24022,3.14E-03,1.41E-02
24023,2.37E-03,2.26E-03
24024,2.40E-03,1.08E-02
24025,2.30E-03,1.30E-02
24026,2.31E-03,1.30E-02
24027,2.32E-03,1.29E-02
24028,2.35E-03,1.92E-03
24029,2.62E-03,1.40E-02
24030,2.62E-03,1.43E-02
24031,2.61E-03,1.46E-02
24032,2.59E-03,1.45E-02
24033,2.61E-03,1.46E-02
24034,2.57E-03,1.45E-02
24035,2.58E-03,1.45E-02
24036,2.56E-03,1.44E-02
24037,2.55E-03,1.45E-02
24038,2.59E-03,1.43E-02
24039,2.58E-03,1.44E-02
24040,2.63E-03,1.43E-02
24041,2.61E-03,1.43E-02
24042,2.66E-03,1.42E-02
24043,2.64E-03,1.42E-02
24044,2.67E-03,1.41E-02
24045,2.67E-03,1.41E-02
24046,2.68E-03,1.41E-02
24047,2.69E-03,1.41E-02
24048,2.65E-03,1.41E-02
24049,2.66E-03,1.41E-02
24050,2.58E-03,1.41E-02
24051,2.61E-03,1.41E-02
24052,2.52E-03,1.41E-02
24053,2.55E-03,1.41E-02
24054,2.49E-03,1.41E-02
24055,2.50E-03,1.41E-02
24056,2.41E-03,1.41E-02
24057,2.43E-03,1.41E-02
24058,2.35E-03,1.40E-02
24059,2.39E-03,1.40E-02
24060,2.32E-03,1.40E-02
24061,2.35E-03,1.40E-02
24062,2.27E-03,1.39E-02
24063,2.29E-03,1.40E-02
24064,2.29E-03,1.38E-02
24065,2.28E-03,1.39E-02
24066,2.33E-03,1.37E-02
24067,2.31E-03,1.38E-02
24068,2.39E-03,1.35E-02
24069,2.38E-03,1.36E-02
24070,2.48E-03,1.34E-02
24071,2.46E-03,1.35E-02
24072,2.55E-03,1.33E-02
24073,2.54E-03,1.33E-02
24074,2.56E-03,1.32E-02
24075,2.60E-03,1.32E-02
24076,2.50E-03,1.31E-02
24077,2.53E-03,1.31E-02
24078,2.40E-03,1.31E-02
24079,2.44E-03,1.31E-02
24080,2.34E-03,1.30E-02
24081,2.39E-03,1.28E-02
24082,2.37E-03,1.29E-02
24083,2.49E-03,1.27E-02
24084,2.45E-03,1.28E-02
24085,2.55E-03,1.26E-02
24086,2.54E-03,1.27E-02
24087,2.57E-03,1.25E-02
24088,2.57E-03,1.26E-02
24089,2.51E-03,1.24E-02
24090,2.56E-03,1.25E-02
24091,2.45E-03,1.24E-02
24092,2.47E-03,1.24E-02
24093,2.42E-03,1.23E-02
24094,2.40E-03,1.23E-02
24095,2.48E-03,1.22E-02
24096,2.45E-03,1.22E-02
24097,2.52E-03,1.21E-02
24098,2.50E-03,1.21E-02
24099,2.58E-03,1.20E-02
24100,2.54E-03,1.20E-02
24101,2.64E-03,1.19E-02
24102,2.62E-03,1.19E-02
24103,2.60E-03,1.18E-02
24104,2.64E-03,1.18E-02
24105,2.59E-03,1.17E-02
24106,2.62E-03,1.18E-02
24107,2.55E-03,1.17E-02
24108,2.57E-03,1.17E-02
24109,2.53E-03,1.16E-02
24110,2.54E-03,1.16E-02
24111,2.52E-03,1.15E-02
24112,2.53E-03,1.15E-02
24113,2.61E-03,1.14E-02
24114,2.71E-03,1.13E-02
24115,2.77E-03,1.14E-02
24116,2.74E-03,1.12E-02
24117,2.77E-03,1.13E-02
24118,2.71E-03,1.11E-02
24119,2.72E-03,1.12E-02
24120,2.64E-03,1.10E-02
24121,2.69E-03,1.11E-02
24122,2.48E-03,1.10E-02
24123,2.55E-03,1.10E-02
24124,2.33E-03,1.09E-02
24125,2.54E-03,1.11E-02
24126,2.52E-03,1.09E-02
24127,2.51E-03,1.07E-02
24128,2.50E-03,1.07E-02
24129,2.54E-03,1.15E-02
24130,2.53E-03,1.13E-02
24131,2.53E-03,1.18E-02
24132,2.54E-03,1.16E-02
24133,2.50E-03,1.22E-02
24134,2.50E-03,1.20E-02
24135,2.50E-03,1.25E-02
24136,2.50E-03,1.23E-02
24137,2.50E-03,1.29E-02
24138,2.51E-03,1.27E-02
24139,2.52E-03,1.32E-02
24140,2.52E-03,1.30E-02
24141,2.61E-03,1.36E-02
24142,2.56E-03,1.34E-02
24143,2.94E-03,1.39E-02
24144,2.75E-03,1.37E-02
24145,2.96E-03,1.41E-02
24146,2.93E-03,1.43E-02
24147,2.84E-03,1.41E-02
24148,2.88E-03,1.42E-02
24149,2.77E-03,1.39E-02
24150,2.79E-03,1.40E-02
24151,2.71E-03,1.38E-02
24152,2.75E-03,1.39E-02
24153,2.67E-03,1.36E-02
24154,2.68E-03,1.37E-02
24155,2.66E-03,1.34E-02
24156,2.66E-03,1.35E-02
24157,2.63E-03,1.33E-02
24158,2.64E-03,1.34E-02
24159,2.62E-03,1.31E-02
24160,2.65E-03,1.32E-02
24161,2.66E-03,1.30E-02
24162,2.65E-03,1.30E-02
24163,2.63E-03,1.28E-02
24164,2.66E-03,1.29E-02
24165,2.58E-03,1.26E-02
24166,2.58E-03,1.27E-02
24167,2.50E-03,1.25E-02
24168,2.55E-03,1.26E-02
24169,2.48E-03,1.23E-02
24170,2.50E-03,1.24E-02
24171,2.52E-03,1.20E-02
24172,2.50E-03,1.22E-02
24173,2.62E-03,1.18E-02
24174,2.54E-03,1.19E-02
24175,2.70E-03,1.16E-02
24176,2.65E-03,1.17E-02
24177,2.78E-03,1.13E-02
24178,2.75E-03,1.14E-02
24179,2.74E-03,1.11E-02
24180,2.77E-03,1.12E-02
24181,2.68E-03,1.09E-02
24182,2.72E-03,1.10E-02
24183,2.59E-03,1.06E-02
24184,2.63E-03,1.08E-02
24185,2.52E-03,1.04E-02
24186,2.55E-03,1.05E-02
24187,2.45E-03,1.02E-02
24188,2.47E-03,1.03E-02
24189,2.43E-03,9.93E-03
24190,2.43E-03,1.01E-02
24191,2.48E-03,9.67E-03
24192,2.44E-03,9.80E-03
24193,2.56E-03,9.42E-03
24194,2.50E-03,9.55E-03
24195,2.61E-03,9.15E-03
24196,2.57E-03,9.28E-03
24197,2.62E-03,8.88E-03
24198,2.63E-03,9.02E-03
24199,2.55E-03,8.61E-03
24200,2.58E-03,8.74E-03
24201,2.50E-03,8.34E-03
24202,2.52E-03,8.47E-03
24203,2.45E-03,8.08E-03
24204,2.45E-03,8.21E-03
24205,2.49E-03,7.83E-03
24206,2.43E-03,7.95E-03
24207,2.54E-03,7.59E-03
24208,2.50E-03,7.71E-03
24209,2.62E-03,7.35E-03
24210,2.58E-03,7.47E-03
24211,2.71E-03,7.10E-03
24212,2.69E-03,7.22E-03
24213,2.80E-03,6.84E-03
24214,2.77E-03,6.97E-03
24215,2.87E-03,6.56E-03
24216,2.84E-03,6.70E-03
24217,2.80E-03,6.26E-03
24218,2.83E-03,6.41E-03
24219,2.74E-03,5.94E-03
24220,2.80E-03,6.10E-03
24221,2.63E-03,5.61E-03
24222,2.66E-03,5.77E-03
24223,2.50E-03,5.27E-03
24224,2.56E-03,5.44E-03
24225,2.40E-03,4.96E-03
24226,2.45E-03,5.11E-03
24227,2.35E-03,4.66E-03
24228,2.37E-03,4.80E-03
24229,2.32E-03,4.39E-03
24230,2.30E-03,4.52E-03
24231,2.39E-03,4.16E-03
24232,2.37E-03,4.27E-03
24233,2.48E-03,3.93E-03
24234,2.43E-03,4.04E-03
24235,2.54E-03,3.69E-03
24236,2.51E-03,3.81E-03
24237,2.58E-03,3.42E-03
24238,2.56E-03,3.56E-03
24239,2.52E-03,3.14E-03
24240,2.54E-03,3.28E-03
24241,2.46E-03,2.87E-03
24242,2.47E-03,3.00E-03
24243,2.44E-03,2.62E-03
24244,2.45E-03,2.74E-03
24245,2.43E-03,2.41E-03
24246,2.44E-03,2.51E-03
24247,2.43E-03,2.32E-03
24248,2.22E-03,1.08E-02
24249,2.31E-03,1.08E-02
24250,2.38E-03,1.94E-03
24251,2.71E-03,2.18E-03
24252,2.21E-03,1.93E-03
24253,2.48E-03,2.77E-03
24254,2.54E-03,2.48E-03
24255,2.43E-03,3.35E-03
24256,2.47E-03,3.06E-03
24257,2.44E-03,3.92E-03
24258,2.44E-03,3.63E-03
24259,2.46E-03,4.49E-03
24260,2.43E-03,4.20E-03
24261,2.44E-03,5.05E-03
24262,2.45E-03,4.77E-03
24263,2.44E-03,5.61E-03
24264,2.45E-03,5.33E-03
24265,2.47E-03,6.17E-03
24266,2.46E-03,5.89E-03
24267,2.49E-03,6.72E-03
24268,2.46E-03,6.45E-03
24269,2.46E-03,7.28E-03
24270,2.47E-03,7.00E-03
24271,2.48E-03,7.83E-03
24272,2.46E-03,7.55E-03
24273,2.49E-03,8.37E-03
24274,2.48E-03,8.10E-03
24275,2.48E-03,8.92E-03
24276,2.48E-03,8.65E-03
24277,2.47E-03,9.46E-03
24278,2.46E-03,9.19E-03
24279,2.47E-03,1.00E-02
24280,2.45E-03,9.73E-03
24281,2.49E-03,1.05E-02
24282,2.46E-03,1.03E-02
24283,2.49E-03,1.11E-02
24284,2.48E-03,1.08E-02
24285,2.47E-03,1.16E-02
24286,2.48E-03,1.14E-02
24287,2.49E-03,1.22E-02
24288,2.48E-03,1.19E-02
24289,2.55E-03,1.28E-02
24290,2.52E-03,1.25E-02
24291,2.59E-03,1.34E-02
24292,2.56E-03,1.31E-02
24293,2.62E-03,1.37E-02
24294,2.32E-03,1.31E-02
24295,2.33E-03,1.31E-02
24296,2.31E-03,1.30E-02
24297,2.30E-03,1.08E-02
24298,2.38E-03,1.06E-02
24299,2.43E-03,1.06E-02
24300,2.61E-03,1.46E-02
24301,2.53E-03,1.07E-02
24302,2.91E-03,1.43E-02
24303,2.41E-03,1.97E-03
24304,2.36E-03,1.06E-02
24305,2.09E-03,1.59E-03
24306,2.17E-03,1.65E-03
24307,1.73E-03,1.68E-03
24308,2.60E-03,1.49E-02
24309,2.56E-03,1.49E-02
24310,2.60E-03,1.49E-02
24311,2.54E-03,1.48E-02
24312,2.56E-03,1.48E-02
24313,2.54E-03,1.47E-02
24314,2.53E-03,1.48E-02
24315,2.59E-03,1.47E-02
24316,2.56E-03,1.47E-02
24317,2.64E-03,1.46E-02
24318,2.60E-03,1.46E-02
24319,2.65E-03,1.45E-02
24320,2.65E-03,1.45E-02
24321,2.69E-03,1.44E-02
24322,2.66E-03,1.44E-02
24323,2.66E-03,1.43E-02
24324,2.66E-03,1.44E-02
24325,2.66E-03,1.43E-02
24326,2.66E-03,1.43E-02
24327,2.59E-03,1.43E-02
24328,2.62E-03,1.43E-02
24329,2.51E-03,1.43E-02
24330,2.56E-03,1.43E-02
24331,2.49E-03,1.43E-02
24332,2.50E-03,1.43E-02
24333,2.40E-03,1.43E-02
24334,2.43E-03,1.43E-02
24335,2.36E-03,1.42E-02
24336,2.38E-03,1.43E-02
24337,2.31E-03,1.42E-02
24338,2.34E-03,1.42E-02
24339,2.28E-03,1.41E-02
24340,2.30E-03,1.41E-02
24341,2.30E-03,1.40E-02
24342,2.28E-03,1.40E-02
24343,2.35E-03,1.38E-02
24344,2.32E-03,1.39E-02
24345,2.41E-03,1.37E-02
24346,2.39E-03,1.38E-02
24347,2.48E-03,1.35E-02
24348,2.45E-03,1.36E-02
24349,2.56E-03,1.34E-02
24350,2.52E-03,1.34E-02
24351,2.56E-03,1.33E-02
24352,2.60E-03,1.33E-02
24353,2.51E-03,1.32E-02
24354,2.52E-03,1.32E-02
24355,2.41E-03,1.32E-02
24356,2.44E-03,1.32E-02
24357,2.35E-03,1.32E-02
24358,2.42E-03,1.29E-02
24359,2.36E-03,1.30E-02
24360,2.49E-03,1.28E-02
24361,2.45E-03,1.29E-02
24362,2.58E-03,1.27E-02
24363,2.53E-03,1.27E-02
24364,2.58E-03,1.26E-02
24365,2.60E-03,1.26E-02
24366,2.51E-03,1.25E-02
24367,2.56E-03,1.25E-02
24368,2.44E-03,1.24E-02
24369,2.47E-03,1.25E-02
24370,2.43E-03,1.23E-02
24371,2.41E-03,1.24E-02
24372,2.46E-03,1.22E-02
24373,2.46E-03,1.23E-02
24374,2.51E-03,1.21E-02
24375,2.50E-03,1.22E-02
24376,2.59E-03,1.20E-02
24377,2.53E-03,1.20E-02
24378,2.64E-03,1.19E-02
24379,2.62E-03,1.19E-02
24380,2.60E-03,1.18E-02
24381,2.64E-03,1.18E-02
24382,2.60E-03,1.17E-02
24383,2.62E-03,1.17E-02
24384,2.53E-03,1.16E-02
24385,2.56E-03,1.17E-02
24386,2.48E-03,1.15E-02
24387,2.51E-03,1.16E-02
24388,2.40E-03,1.14E-02
24389,2.45E-03,1.15E-02
24390,2.01E-03,1.13E-02
24391,2.22E-03,1.14E-02
24392,2.63E-03,1.12E-02
24393,2.36E-03,1.13E-02
24394,2.71E-03,1.11E-02
24395,2.69E-03,1.12E-02
24396,2.70E-03,1.10E-02
24397,2.70E-03,1.10E-02
24398,2.66E-03,1.09E-02
24399,2.71E-03,1.09E-02
24400,2.49E-03,1.08E-02
24401,2.56E-03,1.09E-02
24402,2.40E-03,1.08E-02
24403,2.48E-03,1.05E-02
24404,2.46E-03,1.05E-02
24405,2.59E-03,1.49E-02
24406,2.53E-03,1.05E-02
24407,2.56E-03,1.07E-02
24408,2.54E-03,1.11E-02
24409,2.54E-03,1.09E-02
24410,2.51E-03,1.14E-02
24411,2.52E-03,1.13E-02
24412,2.52E-03,1.18E-02
24413,2.50E-03,1.16E-02
24414,2.52E-03,1.22E-02
24415,2.52E-03,1.20E-02
24416,2.51E-03,1.25E-02
24417,2.52E-03,1.24E-02
24418,2.52E-03,1.29E-02
24419,2.51E-03,1.27E-02
24420,2.53E-03,1.32E-02
24421,2.54E-03,1.31E-02
24422,2.62E-03,1.36E-02
24423,2.59E-03,1.34E-02
24424,2.78E-03,1.40E-02
24425,2.63E-03,1.38E-02
24426,2.86E-03,1.44E-02
24427,2.88E-03,1.45E-02
24428,2.88E-03,1.44E-02
24429,2.88E-03,1.42E-02
24430,2.79E-03,1.43E-02
24431,2.82E-03,1.44E-02
24432,2.76E-03,1.41E-02
24433,2.78E-03,1.42E-02
24434,2.67E-03,1.39E-02
24435,2.71E-03,1.40E-02
24436,2.65E-03,1.37E-02
24437,2.65E-03,1.38E-02
24438,2.64E-03,1.36E-02
24439,2.64E-03,1.37E-02
24440,2.60E-03,1.34E-02
24441,2.64E-03,1.35E-02
24442,2.63E-03,1.32E-02
24443,2.63E-03,1.33E-02
24444,2.64E-03,1.31E-02
24445,2.63E-03,1.31E-02
24446,2.62E-03,1.29E-02
24447,2.65E-03,1.30E-02
24448,2.57E-03,1.27E-02
24449,2.58E-03,1.28E-02
24450,2.49E-03,1.25E-02
24451,2.54E-03,1.26E-02
24452,2.45E-03,1.23E-02
24453,2.50E-03,1.24E-02
24454,2.51E-03,1.21E-02
24455,2.50E-03,1.22E-02
24456,2.58E-03,1.18E-02
24457,2.56E-03,1.19E-02
24458,2.70E-03,1.15E-02
24459,2.66E-03,1.17E-02
24460,2.77E-03,1.13E-02
24461,2.76E-03,1.14E-02
24462,2.73E-03,1.10E-02
24463,2.77E-03,1.11E-02
24464,2.67E-03,1.08E-02
24465,2.70E-03,1.09E-02
24466,2.58E-03,1.06E-02
24467,2.63E-03,1.07E-02
24468,2.51E-03,1.03E-02
24469,2.54E-03,1.04E-02
24470,2.43E-03,1.01E-02
24471,2.46E-03,1.02E-02
24472,2.43E-03,9.79E-03
24473,2.41E-03,9.93E-03
24474,2.49E-03,9.52E-03
24475,2.43E-03,9.66E-03
24476,2.54E-03,9.24E-03
24477,2.49E-03,9.38E-03
24478,2.60E-03,8.96E-03
24479,2.58E-03,9.10E-03
24480,2.59E-03,8.68E-03
24481,2.61E-03,8.82E-03
24482,2.56E-03,8.39E-03
24483,2.58E-03,8.54E-03
24484,2.50E-03,8.11E-03
24485,2.53E-03,8.25E-03
24486,2.45E-03,7.84E-03
24487,2.46E-03,7.98E-03
24488,2.46E-03,7.59E-03
24489,2.42E-03,7.71E-03
24490,2.53E-03,7.34E-03
24491,2.50E-03,7.46E-03
24492,2.60E-03,7.09E-03
24493,2.57E-03,7.21E-03
24494,2.70E-03,6.83E-03
24495,2.67E-03,6.96E-03
24496,2.79E-03,6.57E-03
24497,2.75E-03,6.70E-03
24498,2.85E-03,6.29E-03
24499,2.82E-03,6.43E-03
24500,2.78E-03,5.98E-03
24501,2.83E-03,6.14E-03
24502,2.75E-03,5.65E-03
24503,2.77E-03,5.82E-03
24504,2.64E-03,5.32E-03
24505,2.67E-03,5.49E-03
24506,2.52E-03,4.98E-03
24507,2.55E-03,5.15E-03
24508,2.42E-03,4.66E-03
24509,2.44E-03,4.82E-03
24510,2.35E-03,4.35E-03
24511,2.36E-03,4.50E-03
24512,2.33E-03,4.08E-03
24513,2.31E-03,4.21E-03
24514,2.39E-03,3.85E-03
24515,2.36E-03,3.96E-03
24516,2.48E-03,3.63E-03
24517,2.43E-03,3.74E-03
24518,2.57E-03,3.39E-03
24519,2.54E-03,3.51E-03
24520,2.58E-03,3.12E-03
24521,2.57E-03,3.26E-03
24522,2.55E-03,2.84E-03
24523,2.54E-03,2.98E-03
24524,2.47E-03,2.57E-03
24525,2.46E-03,2.70E-03
24526,2.44E-03,2.32E-03
24527,2.43E-03,2.44E-03
24528,2.48E-03,2.10E-03
24529,2.44E-03,2.21E-03
24530,2.49E-03,2.02E-03
24531,2.34E-03,1.06E-02
24532,2.34E-03,1.06E-02
24533,1.69E-03,1.50E-03
24534,1.69E-03,1.55E-03
24535,2.24E-03,1.68E-03
24536,1.79E-03,1.43E-03
24537,2.27E-03,1.69E-03
24538,2.46E-03,2.22E-03
24539,2.37E-03,1.97E-03
24540,2.50E-03,2.76E-03
24541,2.54E-03,2.48E-03
24542,2.43E-03,3.33E-03
24543,2.47E-03,3.05E-03
24544,2.43E-03,3.90E-03
24545,2.42E-03,3.62E-03
24546,2.47E-03,4.47E-03
24547,2.43E-03,4.18E-03
24548,2.48E-03,5.03E-03
24549,2.47E-03,4.75E-03
24550,2.46E-03,5.59E-03
24551,2.47E-03,5.31E-03
24552,2.46E-03,6.15E-03
24553,2.45E-03,5.87E-03
24554,2.46E-03,6.71E-03
24555,2.45E-03,6.43E-03
24556,2.49E-03,7.26E-03
24557,2.47E-03,6.99E-03
24558,2.47E-03,7.82E-03
24559,2.47E-03,7.54E-03
24560,2.47E-03,8.36E-03
24561,2.46E-03,8.09E-03
24562,2.48E-03,8.91E-03
24563,2.46E-03,8.64E-03
24564,2.50E-03,9.46E-03
24565,2.48E-03,9.18E-03
24566,2.48E-03,1.00E-02
24567,2.49E-03,9.73E-03
24568,2.48E-03,1.06E-02
24569,2.47E-03,1.03E-02
24570,2.48E-03,1.11E-02
24571,2.47E-03,1.08E-02
24572,2.48E-03,1.17E-02
24573,2.47E-03,1.14E-02
24574,2.51E-03,1.22E-02
24575,2.49E-03,1.19E-02
24576,2.51E-03,1.28E-02
24577,2.51E-03,1.25E-02
24578,2.55E-03,1.34E-02
24579,2.54E-03,1.31E-02
24580,2.60E-03,1.40E-02
24581,2.57E-03,1.37E-02
24582,2.60E-03,1.46E-02
24583,2.61E-03,1.43E-02
24584,2.59E-03,1.49E-02
24585,2.33E-03,1.32E-02
24586,2.33E-03,1.32E-02
24587,2.34E-03,1.32E-02
24588,2.40E-03,1.06E-02
24589,2.37E-03,1.04E-02
24590,2.40E-03,1.04E-02
24591,2.54E-03,1.05E-02
24592,2.87E-03,1.46E-02
24593,2.57E-03,1.67E-03
24594,2.33E-03,1.04E-02
24595,2.26E-03,1.42E-03
24596,2.58E-03,1.46E-02
24597,2.59E-03,1.49E-02
24598,2.57E-03,1.52E-02
24599,2.58E-03,1.52E-02
24600,2.57E-03,1.52E-02
24601,2.53E-03,1.52E-02
24602,2.56E-03,1.52E-02
24603,2.51E-03,1.51E-02
24604,2.52E-03,1.52E-02
24605,2.54E-03,1.51E-02
24606,2.53E-03,1.51E-02
24607,2.58E-03,1.50E-02
24608,2.55E-03,1.50E-02
24609,2.63E-03,1.49E-02
24610,2.60E-03,1.49E-02
24611,2.65E-03,1.48E-02
24612,2.63E-03,1.48E-02
24613,2.67E-03,1.47E-02
24614,2.64E-03,1.47E-02
24615,2.65E-03,1.46E-02
24616,2.65E-03,1.46E-02
24617,2.62E-03,1.46E-02
24618,2.65E-03,1.46E-02
24619,2.57E-03,1.45E-02
24620,2.60E-03,1.46E-02
24621,2.52E-03,1.45E-02
24622,2.55E-03,1.45E-02
24623,2.47E-03,1.45E-02
24624,2.50E-03,1.45E-02
24625,2.41E-03,1.45E-02
24626,2.45E-03,1.45E-02
24627,2.37E-03,1.44E-02
24628,2.38E-03,1.44E-02
24629,2.32E-03,1.44E-02
24630,2.34E-03,1.44E-02
24631,2.28E-03,1.43E-02
24632,2.31E-03,1.43E-02
24633,2.30E-03,1.41E-02
24634,2.30E-03,1.42E-02
24635,2.37E-03,1.40E-02
24636,2.33E-03,1.41E-02
24637,2.41E-03,1.38E-02
24638,2.39E-03,1.39E-02
24639,2.49E-03,1.36E-02
24640,2.45E-03,1.37E-02
24641,2.57E-03,1.35E-02
24642,2.54E-03,1.35E-02
24643,2.57E-03,1.34E-02
24644,2.60E-03,1.34E-02
24645,2.50E-03,1.33E-02
24646,2.51E-03,1.33E-02
24647,2.39E-03,1.33E-02
24648,2.46E-03,1.33E-02
24649,2.35E-03,1.33E-02
24650,2.43E-03,1.30E-02
24651,2.35E-03,1.31E-02
24652,2.50E-03,1.29E-02
24653,2.45E-03,1.30E-02
24654,2.57E-03,1.27E-02
24655,2.55E-03,1.28E-02
24656,2.57E-03,1.26E-02
24657,2.58E-03,1.27E-02
24658,2.50E-03,1.26E-02
24659,2.54E-03,1.26E-02
24660,2.45E-03,1.25E-02
24661,2.48E-03,1.25E-02
24662,2.41E-03,1.24E-02
24663,2.41E-03,1.24E-02
24664,2.46E-03,1.23E-02
24665,2.46E-03,1.23E-02
24666,2.52E-03,1.21E-02
24667,2.49E-03,1.22E-02
24668,2.61E-03,1.20E-02
24669,2.56E-03,1.21E-02
24670,2.63E-03,1.19E-02
24671,2.61E-03,1.19E-02
24672,2.63E-03,1.18E-02
24673,2.64E-03,1.18E-02
24674,2.59E-03,1.17E-02
24675,2.61E-03,1.17E-02
24676,2.51E-03,1.16E-02
24677,2.55E-03,1.16E-02
24678,2.47E-03,1.15E-02
24679,2.49E-03,1.15E-02
24680,2.33E-03,1.14E-02
24681,2.41E-03,1.14E-02
24682,2.13E-03,1.12E-02
24683,2.28E-03,1.13E-02
24684,2.53E-03,1.11E-02
24685,2.42E-03,1.12E-02
24686,2.65E-03,1.10E-02
24687,2.63E-03,1.10E-02
24688,2.70E-03,1.08E-02
24689,2.70E-03,1.09E-02
24690,2.66E-03,1.07E-02
24691,2.67E-03,1.08E-02
24692,2.55E-03,1.07E-02
24693,2.58E-03,1.07E-02
24694,2.46E-03,1.06E-02
24695,2.46E-03,1.03E-02
24696,2.45E-03,1.03E-02
24697,2.54E-03,1.06E-02
24698,2.54E-03,1.04E-02
24699,2.51E-03,1.02E-02
24700,2.52E-03,1.03E-02
24701,2.52E-03,1.10E-02
24702,2.52E-03,1.08E-02
24703,2.50E-03,1.14E-02
24704,2.50E-03,1.12E-02
24705,2.49E-03,1.18E-02
24706,2.51E-03,1.16E-02
24707,2.49E-03,1.22E-02
24708,2.49E-03,1.20E-02
24709,2.51E-03,1.25E-02
24710,2.49E-03,1.24E-02
24711,2.49E-03,1.29E-02
24712,2.50E-03,1.27E-02
24713,2.54E-03,1.33E-02
24714,2.51E-03,1.31E-02
24715,2.61E-03,1.37E-02
24716,2.60E-03,1.35E-02
24717,2.72E-03,1.40E-02
24718,2.67E-03,1.38E-02
24719,2.80E-03,1.44E-02
24720,2.77E-03,1.42E-02
24721,2.86E-03,1.46E-02
24722,2.82E-03,1.48E-02
24723,2.79E-03,1.46E-02
24724,2.82E-03,1.47E-02
24725,2.77E-03,1.45E-02
24726,2.77E-03,1.45E-02
24727,2.70E-03,1.43E-02
24728,2.71E-03,1.44E-02
24729,2.61E-03,1.41E-02
24730,2.66E-03,1.42E-02
24731,2.63E-03,1.39E-02
24732,2.64E-03,1.40E-02
24733,2.63E-03,1.37E-02
24734,2.63E-03,1.38E-02
24735,2.62E-03,1.35E-02
24736,2.62E-03,1.36E-02
24737,2.63E-03,1.33E-02
24738,2.61E-03,1.34E-02
24739,2.62E-03,1.32E-02
24740,2.63E-03,1.32E-02
24741,2.61E-03,1.30E-02
24742,2.64E-03,1.31E-02
24743,2.55E-03,1.28E-02
24744,2.58E-03,1.29E-02
24745,2.50E-03,1.26E-02
24746,2.54E-03,1.27E-02
24747,2.44E-03,1.24E-02
24748,2.48E-03,1.25E-02
24749,2.49E-03,1.21E-02
24750,2.48E-03,1.22E-02
24751,2.57E-03,1.18E-02
24752,2.55E-03,1.20E-02
24753,2.68E-03,1.15E-02
24754,2.66E-03,1.17E-02
24755,2.77E-03,1.12E-02
24756,2.73E-03,1.14E-02
24757,2.74E-03,1.10E-02
24758,2.77E-03,1.11E-02
24759,2.67E-03,1.07E-02
24760,2.69E-03,1.08E-02
24761,2.58E-03,1.05E-02
24762,2.61E-03,1.06E-02
24763,2.51E-03,1.02E-02
24764,2.53E-03,1.04E-02
24765,2.43E-03,9.95E-03
24766,2.47E-03,1.01E-02
24767,2.42E-03,9.66E-03
24768,2.41E-03,9.80E-03
24769,2.48E-03,9.36E-03
24770,2.45E-03,9.51E-03
24771,2.54E-03,9.06E-03
24772,2.50E-03,9.21E-03
24773,2.60E-03,8.77E-03
24774,2.59E-03,8.92E-03
24775,2.60E-03,8.47E-03
24776,2.62E-03,8.62E-03
24777,2.55E-03,8.18E-03
24778,2.57E-03,8.32E-03
24779,2.49E-03,7.89E-03
24780,2.52E-03,8.03E-03
24781,2.43E-03,7.61E-03
24782,2.44E-03,7.75E-03
24783,2.44E-03,7.34E-03
24784,2.44E-03,7.48E-03
24785,2.52E-03,7.08E-03
24786,2.49E-03,7.21E-03
24787,2.60E-03,6.82E-03
24788,2.56E-03,6.95E-03
24789,2.69E-03,6.56E-03
24790,2.64E-03,6.69E-03
24791,2.80E-03,6.29E-03
24792,2.73E-03,6.42E-03
24793,2.83E-03,6.00E-03
24794,2.84E-03,6.15E-03
24795,2.77E-03,5.69E-03
24796,2.82E-03,5.85E-03
24797,2.72E-03,5.37E-03
24798,2.74E-03,5.53E-03
24799,2.64E-03,5.02E-03
24800,2.67E-03,5.20E-03
24801,2.53E-03,4.68E-03
24802,2.55E-03,4.85E-03
24803,2.42E-03,4.35E-03
24804,2.43E-03,4.51E-03
24805,2.35E-03,4.04E-03
24806,2.36E-03,4.19E-03
24807,2.34E-03,3.77E-03
24808,2.31E-03,3.90E-03
24809,2.40E-03,3.54E-03
24810,2.37E-03,3.65E-03
24811,2.48E-03,3.32E-03
24812,2.44E-03,3.43E-03
24813,2.58E-03,3.08E-03
24814,2.54E-03,3.20E-03
24815,2.60E-03,2.82E-03
24816,2.59E-03,2.95E-03
24817,2.55E-03,2.54E-03
24818,2.55E-03,2.68E-03
24819,2.48E-03,2.28E-03
24820,2.48E-03,2.41E-03
24821,2.42E-03,2.03E-03
24822,2.42E-03,2.15E-03
24823,2.48E-03,1.81E-03
24824,2.44E-03,1.91E-03
24825,2.61E-03,1.71E-03
24826,2.40E-03,1.05E-02
24827,2.33E-03,1.05E-02
24828,1.79E-03,1.44E-03
24829,2.16E-03,1.42E-03
24830,2.00E-03,1.33E-03
24831,2.07E-03,1.37E-03
24832,1.94E-03,1.26E-03
24833,1.94E-03,1.30E-03
24834,2.12E-03,1.18E-03
24835,2.01E-03,1.22E-03
24836,2.48E-03,1.14E-03
24837,2.34E-03,1.69E-03
24838,2.59E-03,1.40E-03
24839,2.43E-03,2.22E-03
24840,2.40E-03,1.96E-03
24841,2.46E-03,2.75E-03
24842,2.46E-03,2.48E-03
24843,2.46E-03,3.32E-03
24844,2.46E-03,3.04E-03
24845,2.46E-03,3.89E-03
24846,2.45E-03,3.60E-03
24847,2.47E-03,4.45E-03
24848,2.47E-03,4.17E-03
24849,2.44E-03,5.02E-03
24850,2.46E-03,4.74E-03
24851,2.47E-03,5.58E-03
24852,2.45E-03,5.30E-03
24853,2.47E-03,6.14E-03
24854,2.47E-03,5.86E-03
24855,2.49E-03,6.70E-03
24856,2.48E-03,6.42E-03
24857,2.48E-03,7.25E-03
24858,2.49E-03,6.98E-03
24859,2.49E-03,7.81E-03
24860,2.47E-03,7.53E-03
24861,2.49E-03,8.36E-03
24862,2.48E-03,8.08E-03
24863,2.49E-03,8.91E-03
24864,2.48E-03,8.63E-03
24865,2.49E-03,9.45E-03
24866,2.49E-03,9.18E-03
24867,2.50E-03,1.00E-02
24868,2.48E-03,9.73E-03
24869,2.49E-03,1.06E-02
24870,2.49E-03,1.03E-02
24871,2.48E-03,1.11E-02
24872,2.48E-03,1.08E-02
24873,2.49E-03,1.17E-02
24874,2.47E-03,1.14E-02
24875,2.48E-03,1.22E-02
24876,2.49E-03,1.19E-02
24877,2.49E-03,1.28E-02
24878,2.48E-03,1.25E-02
24879,2.51E-03,1.34E-02
24880,2.51E-03,1.31E-02
24881,2.56E-03,1.40E-02
24882,2.54E-03,1.37E-02
24883,2.56E-03,1.43E-02
24884,2.34E-03,1.33E-02
24885,2.34E-03,1.33E-02
24886,2.34E-03,1.33E-02
24887,2.49E-03,1.05E-02
24888,2.39E-03,1.02E-02
24889,2.35E-03,1.02E-02
24890,1.92E-03,1.05E-03
24891,2.59E-03,1.52E-02
24892,2.54E-03,1.02E-02
24893,2.84E-03,1.49E-02
24894,2.56E-03,1.55E-02
24895,2.54E-03,1.55E-02
24896,2.55E-03,1.55E-02
24897,2.51E-03,1.55E-02
24898,2.52E-03,1.55E-02
24899,2.50E-03,1.55E-02
24900,2.50E-03,1.55E-02
24901,2.53E-03,1.54E-02
24902,2.52E-03,1.54E-02
24903,2.56E-03,1.53E-02
24904,2.53E-03,1.54E-02
24905,2.62E-03,1.52E-02
24906,2.58E-03,1.53E-02
24907,2.65E-03,1.51E-02
24908,2.63E-03,1.51E-02
24909,2.66E-03,1.50E-02
24910,2.64E-03,1.50E-02
24911,2.66E-03,1.49E-02
24912,2.65E-03,1.49E-02
24913,2.60E-03,1.49E-02
24914,2.65E-03,1.49E-02
24915,2.57E-03,1.48E-02
24916,2.60E-03,1.48E-02
24917,2.54E-03,1.48E-02
24918,2.54E-03,1.48E-02
24919,2.48E-03,1.47E-02
24920,2.50E-03,1.47E-02
24921,2.43E-03,1.47E-02
24922,2.47E-03,1.47E-02
24923,2.37E-03,1.46E-02
24924,2.39E-03,1.46E-02
24925,2.33E-03,1.45E-02
24926,2.34E-03,1.46E-02
24927,2.27E-03,1.44E-02
24928,2.33E-03,1.45E-02
24929,2.29E-03,1.43E-02
24930,2.30E-03,1.44E-02
24931,2.39E-03,1.41E-02
24932,2.34E-03,1.42E-02
24933,2.41E-03,1.39E-02
24934,2.39E-03,1.40E-02
24935,2.49E-03,1.37E-02
24936,2.47E-03,1.38E-02
24937,2.56E-03,1.36E-02
24938,2.53E-03,1.36E-02
24939,2.57E-03,1.35E-02
24940,2.59E-03,1.35E-02
24941,2.50E-03,1.34E-02
24942,2.51E-03,1.34E-02
24943,2.39E-03,1.34E-02
24944,2.46E-03,1.34E-02
24945,2.37E-03,1.34E-02
24946,2.41E-03,1.31E-02
24947,2.38E-03,1.32E-02
24948,2.50E-03,1.30E-02
24949,2.48E-03,1.30E-02
24950,2.57E-03,1.28E-02
24951,2.53E-03,1.29E-02
24952,2.57E-03,1.27E-02
24953,2.58E-03,1.27E-02
24954,2.50E-03,1.26E-02
24955,2.54E-03,1.26E-02
24956,2.43E-03,1.25E-02
24957,2.48E-03,1.26E-02
24958,2.42E-03,1.24E-02
24959,2.41E-03,1.25E-02
24960,2.46E-03,1.23E-02
24961,2.46E-03,1.24E-02
24962,2.53E-03,1.22E-02
24963,2.50E-03,1.22E-02
24964,2.60E-03,1.20E-02
24965,2.55E-03,1.21E-02
24966,2.62E-03,1.19E-02
24967,2.61E-03,1.19E-02
24968,2.61E-03,1.17E-02
24969,2.63E-03,1.18E-02
24970,2.58E-03,1.16E-02
24971,2.61E-03,1.17E-02
24972,2.51E-03,1.15E-02
24973,2.56E-03,1.16E-02
24974,2.45E-03,1.14E-02
24975,2.48E-03,1.15E-02
24976,2.34E-03,1.13E-02
24977,2.38E-03,1.14E-02
24978,2.20E-03,1.12E-02
24979,2.25E-03,1.12E-02
24980,2.47E-03,1.10E-02
24981,2.43E-03,1.11E-02
24982,2.63E-03,1.08E-02
24983,2.59E-03,1.09E-02
24984,2.71E-03,1.07E-02
24985,2.70E-03,1.07E-02
24986,2.69E-03,1.06E-02
24987,2.70E-03,1.06E-02
24988,2.60E-03,1.05E-02
24989,2.60E-03,1.05E-02
24990,2.56E-03,1.05E-02
24991,2.47E-03,1.01E-02
24992,2.42E-03,1.01E-02
24993,2.52E-03,1.00E-02
24994,2.51E-03,1.01E-02
24995,2.32E-03,1.03E-02
24996,1.66E-03,1.18E-03
24997,2.07E-03,1.16E-03
24998,1.98E-03,1.18E-03
24999,1.80E-03,9.81E-04
25000,2.55E-03,1.55E-02
25001,2.56E-03,9.98E-03
25002,2.53E-03,1.02E-02
25003,2.50E-03,1.06E-02
25004,2.52E-03,1.04E-02
25005,2.50E-03,1.10E-02
25006,2.52E-03,1.08E-02
25007,2.50E-03,1.14E-02
25008,2.51E-03,1.12E-02
25009,2.50E-03,1.18E-02
25010,2.51E-03,1.16E-02
25011,2.50E-03,1.22E-02
25012,2.49E-03,1.20E-02
25013,2.49E-03,1.26E-02
25014,2.49E-03,1.24E-02
25015,2.50E-03,1.29E-02
25016,2.48E-03,1.28E-02
25017,2.53E-03,1.33E-02
25018,2.51E-03,1.31E-02
25019,2.60E-03,1.37E-02
25020,2.58E-03,1.35E-02
25021,2.70E-03,1.41E-02
25022,2.62E-03,1.39E-02
25023,2.75E-03,1.45E-02
25024,2.76E-03,1.43E-02
25025,2.81E-03,1.50E-02
25026,2.83E-03,1.51E-02
25027,2.80E-03,1.49E-02
25028,2.78E-03,1.47E-02
25029,2.79E-03,1.48E-02
25030,2.79E-03,1.49E-02
25031,2.72E-03,1.46E-02
25032,2.75E-03,1.47E-02
25033,2.65E-03,1.44E-02
25034,2.69E-03,1.45E-02
25035,2.62E-03,1.42E-02
25036,2.64E-03,1.43E-02
25037,2.61E-03,1.40E-02
25038,2.62E-03,1.41E-02
25039,2.61E-03,1.39E-02
25040,2.62E-03,1.39E-02
25041,2.62E-03,1.37E-02
25042,2.61E-03,1.38E-02
25043,2.61E-03,1.35E-02
25044,2.60E-03,1.36E-02
25045,2.61E-03,1.33E-02
25046,2.62E-03,1.34E-02
25047,2.61E-03,1.31E-02
25048,2.64E-03,1.32E-02
25049,2.54E-03,1.29E-02
25050,2.58E-03,1.30E-02
25051,2.49E-03,1.27E-02
25052,2.53E-03,1.28E-02
25053,2.46E-03,1.24E-02
25054,2.46E-03,1.25E-02
25055,2.50E-03,1.21E-02
25056,2.47E-03,1.23E-02
25057,2.57E-03,1.18E-02
25058,2.53E-03,1.20E-02
25059,2.67E-03,1.15E-02
25060,2.64E-03,1.16E-02
25061,2.75E-03,1.12E-02
25062,2.71E-03,1.13E-02
25063,2.72E-03,1.09E-02
25064,2.74E-03,1.10E-02
25065,2.64E-03,1.06E-02
25066,2.69E-03,1.08E-02
25067,2.57E-03,1.04E-02
25068,2.58E-03,1.05E-02
25069,2.51E-03,1.01E-02
25070,2.52E-03,1.03E-02
25071,2.43E-03,9.83E-03
25072,2.46E-03,9.98E-03
25073,2.41E-03,9.52E-03
25074,2.41E-03,9.68E-03
25075,2.49E-03,9.20E-03
25076,2.46E-03,9.36E-03
25077,2.54E-03,8.88E-03
25078,2.51E-03,9.04E-03
25079,2.61E-03,8.57E-03
25080,2.59E-03,8.72E-03
25081,2.59E-03,8.26E-03
25082,2.60E-03,8.41E-03
25083,2.54E-03,7.96E-03
25084,2.57E-03,8.11E-03
25085,2.49E-03,7.66E-03
25086,2.51E-03,7.81E-03
25087,2.43E-03,7.38E-03
25088,2.44E-03,7.52E-03
25089,2.45E-03,7.10E-03
25090,2.43E-03,7.24E-03
25091,2.52E-03,6.83E-03
25092,2.48E-03,6.96E-03
25093,2.59E-03,6.56E-03
25094,2.55E-03,6.69E-03
25095,2.69E-03,6.28E-03
25096,2.62E-03,6.42E-03
25097,2.78E-03,6.01E-03
25098,2.73E-03,6.15E-03
25099,2.82E-03,5.72E-03
25100,2.80E-03,5.86E-03
25101,2.76E-03,5.40E-03
25102,2.79E-03,5.56E-03
25103,2.71E-03,5.07E-03
25104,2.73E-03,5.24E-03
25105,2.61E-03,4.72E-03
25106,2.66E-03,4.90E-03
25107,2.49E-03,4.37E-03
25108,2.57E-03,4.55E-03
25109,2.40E-03,4.03E-03
25110,2.46E-03,4.20E-03
25111,2.35E-03,3.72E-03
25112,2.38E-03,3.87E-03
25113,2.33E-03,3.45E-03
25114,2.33E-03,3.58E-03
25115,2.40E-03,3.22E-03
25116,2.37E-03,3.33E-03
25117,2.50E-03,3.00E-03
25118,2.46E-03,3.11E-03
25119,2.57E-03,2.77E-03
25120,2.56E-03,2.89E-03
25121,2.58E-03,2.51E-03
25122,2.58E-03,2.64E-03
25123,2.54E-03,2.24E-03
25124,2.57E-03,2.38E-03
25125,2.45E-03,1.98E-03
25126,2.51E-03,2.11E-03
25127,2.40E-03,1.74E-03
25128,2.44E-03,1.86E-03
25129,2.40E-03,1.53E-03
25130,2.41E-03,1.63E-03
25131,1.80E-03,1.29E-03
25132,2.44E-03,1.42E-03
25133,2.41E-03,1.03E-02
25134,2.31E-03,1.03E-02
25135,2.05E-03,1.08E-03
25136,2.07E-03,1.12E-03
25137,2.05E-03,1.01E-03
25138,2.06E-03,1.05E-03
25139,2.07E-03,9.48E-04
25140,2.08E-03,9.84E-04
25141,1.85E-03,8.78E-04
25142,2.08E-03,9.12E-04
25143,2.44E-03,1.67E-03
25144,2.65E-03,1.40E-03
25145,2.43E-03,2.21E-03
25146,2.43E-03,1.95E-03
25147,2.46E-03,2.75E-03
25148,2.45E-03,2.48E-03
25149,2.45E-03,3.31E-03
25150,2.47E-03,3.03E-03
25151,2.47E-03,3.88E-03
25152,2.46E-03,3.59E-03
25153,2.45E-03,4.44E-03
25154,2.46E-03,4.16E-03
25155,2.49E-03,5.01E-03
25156,2.45E-03,4.73E-03
25157,2.48E-03,5.57E-03
25158,2.49E-03,5.29E-03
25159,2.50E-03,6.13E-03
25160,2.47E-03,5.85E-03
25161,2.47E-03,6.69E-03
25162,2.49E-03,6.41E-03
25163,2.49E-03,7.25E-03
25164,2.47E-03,6.97E-03
25165,2.50E-03,7.80E-03
25166,2.48E-03,7.53E-03
25167,2.50E-03,8.35E-03
25168,2.49E-03,8.08E-03
25169,2.51E-03,8.91E-03
25170,2.49E-03,8.63E-03
25171,2.49E-03,9.46E-03
25172,2.49E-03,9.18E-03
25173,2.47E-03,1.00E-02
25174,2.49E-03,9.73E-03
25175,2.48E-03,1.06E-02
25176,2.48E-03,1.03E-02
25177,2.48E-03,1.11E-02
25178,2.46E-03,1.08E-02
25179,2.48E-03,1.17E-02
25180,2.48E-03,1.14E-02
25181,2.49E-03,1.22E-02
25182,2.48E-03,1.20E-02
25183,2.49E-03,1.28E-02
25184,2.49E-03,1.25E-02
25185,2.50E-03,1.34E-02
25186,2.49E-03,1.31E-02
25187,2.54E-03,1.40E-02
25188,2.52E-03,1.37E-02
25189,2.55E-03,1.46E-02
25190,2.54E-03,1.43E-02
25191,2.59E-03,1.52E-02
25192,2.57E-03,1.49E-02
25193,2.06E-03,8.43E-04
25194,2.58E-03,1.55E-02
25195,2.34E-03,1.34E-02
25196,2.34E-03,1.35E-02
25197,2.34E-03,1.34E-02
25198,2.49E-03,1.03E-02
25199,2.56E-03,9.95E-03
25200,2.82E-03,1.51E-02
25201,2.39E-03,9.98E-03
25202,2.33E-03,1.00E-02
25203,1.88E-03,1.07E-03
25204,2.00E-03,9.93E-04
25205,2.15E-03,7.19E-04
25206,2.16E-03,7.01E-04
25207,2.56E-03,1.52E-02
25208,2.56E-03,1.55E-02
25209,2.57E-03,1.58E-02
25210,2.55E-03,1.59E-02
25211,2.54E-03,1.58E-02
25212,2.54E-03,1.59E-02
25213,2.54E-03,1.59E-02
25214,2.48E-03,1.59E-02
25215,2.50E-03,1.59E-02
25216,2.49E-03,1.58E-02
25217,2.51E-03,1.58E-02
25218,2.53E-03,1.58E-02
25219,2.52E-03,1.58E-02
25220,2.56E-03,1.57E-02
25221,2.53E-03,1.57E-02
25222,2.59E-03,1.55E-02
25223,2.56E-03,1.56E-02
25224,2.63E-03,1.54E-02
25225,2.62E-03,1.55E-02
25226,2.65E-03,1.53E-02
25227,2.63E-03,1.54E-02
25228,2.66E-03,1.52E-02
25229,2.65E-03,1.53E-02
25230,2.58E-03,1.51E-02
25231,2.62E-03,1.52E-02
25232,2.56E-03,1.51E-02
25233,2.58E-03,1.51E-02
25234,2.52E-03,1.50E-02
25235,2.54E-03,1.50E-02
25236,2.46E-03,1.49E-02
25237,2.50E-03,1.50E-02
25238,2.43E-03,1.49E-02
25239,2.46E-03,1.49E-02
25240,2.38E-03,1.48E-02
25241,2.40E-03,1.48E-02
25242,2.34E-03,1.47E-02
25243,2.34E-03,1.47E-02
25244,2.28E-03,1.46E-02
25245,2.33E-03,1.46E-02
25246,2.31E-03,1.44E-02
25247,2.32E-03,1.45E-02
25248,2.39E-03,1.43E-02
25249,2.34E-03,1.44E-02
25250,2.42E-03,1.41E-02
25251,2.40E-03,1.42E-02
25252,2.49E-03,1.38E-02
25253,2.48E-03,1.40E-02
25254,2.56E-03,1.37E-02
25255,2.53E-03,1.37E-02
25256,2.57E-03,1.35E-02
25257,2.59E-03,1.36E-02
25258,2.49E-03,1.35E-02
25259,2.52E-03,1.35E-02
25260,2.41E-03,1.35E-02
25261,2.45E-03,1.35E-02
25262,2.37E-03,1.35E-02
25263,2.41E-03,1.32E-02
25264,2.39E-03,1.33E-02
25265,2.50E-03,1.30E-02
25266,2.48E-03,1.31E-02
25267,2.57E-03,1.29E-02
25268,2.55E-03,1.29E-02
25269,2.57E-03,1.27E-02
25270,2.57E-03,1.28E-02
25271,2.52E-03,1.27E-02
25272,2.52E-03,1.27E-02
25273,2.44E-03,1.26E-02
25274,2.46E-03,1.26E-02
25275,2.42E-03,1.25E-02
25276,2.41E-03,1.25E-02
25277,2.47E-03,1.24E-02
25278,2.45E-03,1.24E-02
25279,2.52E-03,1.22E-02
25280,2.49E-03,1.23E-02
25281,2.59E-03,1.20E-02
25282,2.54E-03,1.21E-02
25283,2.61E-03,1.18E-02
25284,2.60E-03,1.19E-02
25285,2.59E-03,1.17E-02
25286,2.61E-03,1.18E-02
25287,2.57E-03,1.16E-02
25288,2.60E-03,1.16E-02
25289,2.51E-03,1.15E-02
25290,2.53E-03,1.15E-02
25291,2.43E-03,1.14E-02
25292,2.47E-03,1.14E-02
25293,2.35E-03,1.13E-02
25294,2.39E-03,1.13E-02
25295,2.33E-03,1.11E-02
25296,2.30E-03,1.12E-02
25297,2.47E-03,1.09E-02
25298,2.38E-03,1.10E-02
25299,2.60E-03,1.07E-02
25300,2.54E-03,1.08E-02
25301,2.68E-03,1.05E-02
25302,2.65E-03,1.06E-02
25303,2.69E-03,1.04E-02
25304,2.68E-03,1.04E-02
25305,2.69E-03,1.03E-02
25306,2.64E-03,1.04E-02
25307,2.60E-03,1.03E-02
25308,2.48E-03,9.87E-03
25309,2.41E-03,9.92E-03
25310,2.53E-03,9.78E-03
25311,2.50E-03,9.82E-03
25312,2.51E-03,1.02E-02
25313,2.52E-03,9.93E-03
25314,2.57E-03,9.72E-03
25315,2.57E-03,9.74E-03
25316,2.48E-03,1.06E-02
25317,2.50E-03,1.04E-02
25318,2.48E-03,1.10E-02
25319,2.50E-03,1.08E-02
25320,2.48E-03,1.14E-02
25321,2.50E-03,1.12E-02
25322,2.49E-03,1.18E-02
25323,2.50E-03,1.16E-02
25324,2.49E-03,1.22E-02
25325,2.49E-03,1.20E-02
25326,2.50E-03,1.26E-02
25327,2.49E-03,1.24E-02
25328,2.49E-03,1.30E-02
25329,2.49E-03,1.28E-02
25330,2.50E-03,1.33E-02
25331,2.49E-03,1.32E-02
25332,2.58E-03,1.37E-02
25333,2.55E-03,1.35E-02
25334,2.62E-03,1.41E-02
25335,2.62E-03,1.39E-02
25336,2.73E-03,1.46E-02
25337,2.70E-03,1.43E-02
25338,2.76E-03,1.50E-02
25339,2.76E-03,1.48E-02
25340,2.78E-03,1.52E-02
25341,2.76E-03,1.53E-02
25342,2.73E-03,1.52E-02
25343,2.76E-03,1.53E-02
25344,2.71E-03,1.50E-02
25345,2.72E-03,1.51E-02
25346,2.65E-03,1.48E-02
25347,2.66E-03,1.49E-02
25348,2.60E-03,1.46E-02
25349,2.62E-03,1.47E-02
25350,2.61E-03,1.44E-02
25351,2.61E-03,1.45E-02
25352,2.59E-03,1.42E-02
25353,2.62E-03,1.43E-02
25354,2.60E-03,1.40E-02
25355,2.61E-03,1.41E-02
25356,2.60E-03,1.38E-02
25357,2.59E-03,1.39E-02
25358,2.59E-03,1.36E-02
25359,2.59E-03,1.37E-02
25360,2.61E-03,1.34E-02
25361,2.61E-03,1.35E-02
25362,2.61E-03,1.31E-02
25363,2.62E-03,1.33E-02
25364,2.55E-03,1.29E-02
25365,2.58E-03,1.30E-02
25366,2.48E-03,1.27E-02
25367,2.52E-03,1.28E-02
25368,2.45E-03,1.25E-02
25369,2.45E-03,1.26E-02
25370,2.49E-03,1.22E-02
25371,2.47E-03,1.23E-02
25372,2.55E-03,1.18E-02
25373,2.53E-03,1.20E-02
25374,2.65E-03,1.15E-02
25375,2.63E-03,1.16E-02
25376,2.71E-03,1.11E-02
25377,2.69E-03,1.13E-02
25378,2.70E-03,1.08E-02
25379,2.72E-03,1.10E-02
25380,2.63E-03,1.06E-02
25381,2.67E-03,1.07E-02
25382,2.57E-03,1.03E-02
25383,2.57E-03,1.05E-02
25384,2.50E-03,1.00E-02
25385,2.51E-03,1.02E-02
25386,2.44E-03,9.71E-03
25387,2.45E-03,9.87E-03
25388,2.41E-03,9.38E-03
25389,2.41E-03,9.54E-03
25390,2.48E-03,9.04E-03
25391,2.46E-03,9.21E-03
25392,2.53E-03,8.70E-03
25393,2.51E-03,8.87E-03
25394,2.59E-03,8.36E-03
25395,2.58E-03,8.53E-03
25396,2.59E-03,8.04E-03
25397,2.59E-03,8.20E-03
25398,2.54E-03,7.74E-03
25399,2.56E-03,7.89E-03
25400,2.48E-03,7.44E-03
25401,2.51E-03,7.59E-03
25402,2.41E-03,7.14E-03
25403,2.44E-03,7.29E-03
25404,2.45E-03,6.85E-03
25405,2.43E-03,7.00E-03
25406,2.51E-03,6.57E-03
25407,2.47E-03,6.71E-03
25408,2.58E-03,6.29E-03
25409,2.55E-03,6.43E-03
25410,2.67E-03,6.00E-03
25411,2.62E-03,6.14E-03
25412,2.76E-03,5.72E-03
25413,2.71E-03,5.86E-03
25414,2.82E-03,5.42E-03
25415,2.78E-03,5.58E-03
25416,2.73E-03,5.11E-03
25417,2.78E-03,5.27E-03
25418,2.70E-03,4.77E-03
25419,2.72E-03,4.94E-03
25420,2.61E-03,4.42E-03
25421,2.64E-03,4.59E-03
25422,2.48E-03,4.05E-03
25423,2.57E-03,4.23E-03
25424,2.41E-03,3.71E-03
25425,2.47E-03,3.88E-03
25426,2.36E-03,3.39E-03
25427,2.37E-03,3.54E-03
25428,2.35E-03,3.11E-03
25429,2.35E-03,3.24E-03
25430,2.40E-03,2.89E-03
25431,2.39E-03,2.99E-03
25432,2.49E-03,2.67E-03
25433,2.47E-03,2.78E-03
25434,2.57E-03,2.45E-03
25435,2.55E-03,2.57E-03
25436,2.59E-03,2.20E-03
25437,2.59E-03,2.33E-03
25438,2.54E-03,1.94E-03
25439,2.58E-03,2.07E-03
25440,2.45E-03,1.69E-03
25441,2.52E-03,1.81E-03
25442,2.39E-03,1.46E-03
25443,2.45E-03,1.57E-03
25444,2.36E-03,1.25E-03
25445,2.37E-03,1.35E-03
25446,2.19E-03,1.15E-03
25447,2.30E-03,1.01E-02
25448,2.26E-03,1.01E-02
25449,2.09E-03,8.65E-04
25450,1.99E-03,9.27E-04
25451,2.07E-03,8.94E-04
25452,2.10E-03,8.10E-04
25453,2.08E-03,8.36E-04
25454,2.11E-03,7.63E-04
25455,2.11E-03,7.85E-04
25456,2.10E-03,7.42E-04
25457,2.16E-03,8.07E-04
25458,2.27E-03,1.20E-03
25459,2.16E-03,9.74E-04
25460,2.44E-03,1.67E-03
25461,2.38E-03,1.43E-03
25462,2.43E-03,2.21E-03
25463,2.45E-03,1.94E-03
25464,2.46E-03,2.75E-03
25465,2.44E-03,2.48E-03
25466,2.47E-03,3.31E-03
25467,2.48E-03,3.03E-03
25468,2.48E-03,3.87E-03
25469,2.47E-03,3.59E-03
25470,2.48E-03,4.44E-03
25471,2.46E-03,4.16E-03
25472,2.48E-03,5.00E-03
25473,2.47E-03,4.72E-03
25474,2.48E-03,5.57E-03
25475,2.47E-03,5.29E-03
25476,2.49E-03,6.13E-03
25477,2.48E-03,5.85E-03
25478,2.49E-03,6.69E-03
25479,2.48E-03,6.41E-03
25480,2.51E-03,7.24E-03
25481,2.49E-03,6.97E-03
25482,2.50E-03,7.80E-03
25483,2.50E-03,7.52E-03
25484,2.50E-03,8.35E-03
25485,2.49E-03,8.08E-03
25486,2.48E-03,8.91E-03
25487,2.48E-03,8.63E-03
25488,2.48E-03,9.46E-03
25489,2.48E-03,9.18E-03
25490,2.47E-03,1.00E-02
25491,2.48E-03,9.73E-03
25492,2.48E-03,1.06E-02
25493,2.47E-03,1.03E-02
25494,2.51E-03,1.11E-02
25495,2.49E-03,1.08E-02
25496,2.49E-03,1.17E-02
25497,2.49E-03,1.14E-02
25498,2.49E-03,1.22E-02
25499,2.49E-03,1.20E-02
25500,2.49E-03,1.28E-02
25501,2.49E-03,1.25E-02
25502,2.50E-03,1.34E-02
25503,2.49E-03,1.31E-02
25504,2.52E-03,1.40E-02
25505,2.51E-03,1.37E-02
25506,2.53E-03,1.46E-02
25507,2.53E-03,1.43E-02
25508,2.54E-03,1.49E-02
25509,2.24E-03,1.01E-02
25510,2.34E-03,1.36E-02
25511,2.35E-03,1.35E-02
25512,2.22E-03,6.89E-04
25513,2.56E-03,1.58E-02
25514,2.55E-03,9.70E-03
25515,2.78E-03,1.54E-02
25516,2.66E-03,1.01E-02
25517,2.55E-03,1.61E-02
25518,2.52E-03,1.62E-02
25519,2.51E-03,1.62E-02
25520,2.51E-03,1.62E-02
25521,2.52E-03,1.62E-02
25522,2.46E-03,1.62E-02
25523,2.49E-03,1.62E-02
25524,2.48E-03,1.62E-02
25525,2.50E-03,1.62E-02
25526,2.51E-03,1.61E-02
25527,2.50E-03,1.61E-02
25528,2.54E-03,1.60E-02
25529,2.51E-03,1.61E-02
25530,2.55E-03,1.59E-02
25531,2.55E-03,1.60E-02
25532,2.62E-03,1.58E-02
25533,2.60E-03,1.58E-02
25534,2.63E-03,1.56E-02
25535,2.63E-03,1.57E-02
25536,2.64E-03,1.55E-02
25537,2.62E-03,1.56E-02
25538,2.57E-03,1.55E-02
25539,2.60E-03,1.55E-02
25540,2.55E-03,1.54E-02
25541,2.56E-03,1.54E-02
25542,2.51E-03,1.53E-02
25543,2.56E-03,1.53E-02
25544,2.46E-03,1.52E-02
25545,2.51E-03,1.52E-02
25546,2.45E-03,1.50E-02
25547,2.46E-03,1.51E-02
25548,2.38E-03,1.49E-02
25549,2.41E-03,1.50E-02
25550,2.35E-03,1.48E-02
25551,2.37E-03,1.49E-02
25552,2.29E-03,1.47E-02
25553,2.34E-03,1.48E-02
25554,2.32E-03,1.46E-02
25555,2.33E-03,1.46E-02
25556,2.39E-03,1.44E-02
25557,2.36E-03,1.45E-02
25558,2.43E-03,1.42E-02
25559,2.41E-03,1.43E-02
25560,2.49E-03,1.40E-02
25561,2.47E-03,1.41E-02
25562,2.56E-03,1.38E-02
25563,2.53E-03,1.38E-02
25564,2.58E-03,1.36E-02
25565,2.60E-03,1.37E-02
25566,2.50E-03,1.36E-02
25567,2.51E-03,1.36E-02
25568,2.42E-03,1.36E-02
25569,2.45E-03,1.36E-02
25570,2.37E-03,1.36E-02
25571,2.42E-03,1.33E-02
25572,2.36E-03,1.35E-02
25573,2.40E-03,1.34E-02
25574,2.50E-03,1.31E-02
25575,2.48E-03,1.32E-02
25576,2.56E-03,1.29E-02
25577,2.54E-03,1.30E-02
25578,2.58E-03,1.28E-02
25579,2.60E-03,1.28E-02
25580,2.51E-03,1.27E-02
25581,2.52E-03,1.27E-02
25582,2.43E-03,1.27E-02
25583,2.47E-03,1.27E-02
25584,2.42E-03,1.26E-02
25585,2.41E-03,1.26E-02
25586,2.46E-03,1.24E-02
25587,2.44E-03,1.25E-02
25588,2.53E-03,1.22E-02
25589,2.49E-03,1.23E-02
25590,2.59E-03,1.20E-02
25591,2.57E-03,1.21E-02
25592,2.63E-03,1.18E-02
25593,2.61E-03,1.19E-02
25594,2.59E-03,1.17E-02
25595,2.61E-03,1.18E-02
25596,2.57E-03,1.16E-02
25597,2.58E-03,1.16E-02
25598,2.51E-03,1.14E-02
25599,2.53E-03,1.15E-02
25600,2.43E-03,1.13E-02
25601,2.46E-03,1.14E-02
25602,2.36E-03,1.12E-02
25603,2.40E-03,1.13E-02
25604,2.36E-03,1.10E-02
25605,2.35E-03,1.11E-02
25606,2.46E-03,1.08E-02
25607,2.40E-03,1.09E-02
25608,2.59E-03,1.05E-02
25609,2.53E-03,1.07E-02
25610,2.67E-03,1.03E-02
25611,2.65E-03,1.04E-02
25612,2.66E-03,1.02E-02
25613,2.67E-03,1.03E-02
25614,2.67E-03,1.01E-02
25615,2.67E-03,1.02E-02
25616,2.29E-03,7.92E-04
25617,2.33E-03,6.74E-04
25618,2.55E-03,1.61E-02
25619,2.56E-03,9.48E-03
25620,2.54E-03,9.47E-03
25621,2.73E-03,1.56E-02
25622,2.73E-03,1.56E-02
25623,2.01E-03,9.98E-03
25624,1.83E-03,9.97E-03
25625,2.72E-03,1.01E-02
25626,2.30E-03,9.88E-03
25627,2.19E-03,9.94E-03
25628,2.38E-03,9.75E-03
25629,2.33E-03,9.82E-03
25630,2.46E-03,9.63E-03
25631,2.41E-03,9.69E-03
25632,2.52E-03,9.53E-03
25633,2.50E-03,9.58E-03
25634,2.55E-03,9.50E-03
25635,2.51E-03,9.69E-03
25636,2.47E-03,1.01E-02
25637,2.50E-03,9.91E-03
25638,2.47E-03,1.06E-02
25639,2.48E-03,1.04E-02
25640,2.47E-03,1.10E-02
25641,2.50E-03,1.08E-02
25642,2.47E-03,1.14E-02
25643,2.50E-03,1.12E-02
25644,2.47E-03,1.18E-02
25645,2.50E-03,1.16E-02
25646,2.49E-03,1.22E-02
25647,2.49E-03,1.20E-02
25648,2.49E-03,1.26E-02
25649,2.49E-03,1.24E-02
25650,2.49E-03,1.30E-02
25651,2.49E-03,1.28E-02
25652,2.49E-03,1.34E-02
25653,2.49E-03,1.32E-02
25654,2.53E-03,1.38E-02
25655,2.51E-03,1.36E-02
25656,2.60E-03,1.42E-02
25657,2.58E-03,1.40E-02
25658,2.68E-03,1.46E-02
25659,2.65E-03,1.44E-02
25660,2.72E-03,1.50E-02
25661,2.73E-03,1.48E-02
25662,2.74E-03,1.55E-02
25663,2.73E-03,1.53E-02
25664,2.73E-03,1.54E-02
25665,2.74E-03,1.55E-02
25666,2.66E-03,1.52E-02
25667,2.70E-03,1.53E-02
25668,2.61E-03,1.50E-02
25669,2.64E-03,1.51E-02
25670,2.58E-03,1.48E-02
25671,2.60E-03,1.49E-02
25672,2.59E-03,1.46E-02
25673,2.60E-03,1.47E-02
25674,2.60E-03,1.44E-02
25675,2.61E-03,1.45E-02
25676,2.60E-03,1.42E-02
25677,2.59E-03,1.43E-02
25678,2.59E-03,1.40E-02
25679,2.58E-03,1.41E-02
25680,2.57E-03,1.37E-02
25681,2.59E-03,1.39E-02
25682,2.60E-03,1.35E-02
25683,2.61E-03,1.36E-02
25684,2.60E-03,1.32E-02
25685,2.59E-03,1.34E-02
25686,2.55E-03,1.30E-02
25687,2.57E-03,1.31E-02
25688,2.47E-03,1.28E-02
25689,2.50E-03,1.29E-02
25690,2.44E-03,1.26E-02
25691,2.45E-03,1.27E-02
25692,2.47E-03,1.22E-02
25693,2.47E-03,1.24E-02
25694,2.57E-03,1.19E-02
25695,2.52E-03,1.21E-02
25696,2.64E-03,1.15E-02
25697,2.59E-03,1.17E-02
25698,2.70E-03,1.11E-02
25699,2.69E-03,1.13E-02
25700,2.67E-03,1.08E-02
25701,2.70E-03,1.09E-02
25702,2.63E-03,1.05E-02
25703,2.64E-03,1.07E-02
25704,2.56E-03,1.03E-02
25705,2.57E-03,1.04E-02
25706,2.49E-03,9.94E-03
25707,2.50E-03,1.01E-02
25708,2.45E-03,9.59E-03
25709,2.46E-03,9.77E-03
25710,2.42E-03,9.23E-03
25711,2.41E-03,9.41E-03
25712,2.47E-03,8.87E-03
25713,2.46E-03,9.05E-03
25714,2.56E-03,8.51E-03
25715,2.51E-03,8.69E-03
25716,2.60E-03,8.16E-03
25717,2.58E-03,8.33E-03
25718,2.59E-03,7.83E-03
25719,2.60E-03,7.99E-03
25720,2.54E-03,7.51E-03
25721,2.55E-03,7.67E-03
25722,2.47E-03,7.21E-03
25723,2.51E-03,7.36E-03
25724,2.42E-03,6.90E-03
25725,2.44E-03,7.05E-03
25726,2.44E-03,6.61E-03
25727,2.43E-03,6.75E-03
25728,2.50E-03,6.31E-03
25729,2.48E-03,6.46E-03
25730,2.57E-03,6.01E-03
25731,2.56E-03,6.16E-03
25732,2.65E-03,5.72E-03
25733,2.61E-03,5.87E-03
25734,2.74E-03,5.43E-03
25735,2.69E-03,5.58E-03
25736,2.77E-03,5.13E-03
25737,2.76E-03,5.28E-03
25738,2.72E-03,4.81E-03
25739,2.75E-03,4.97E-03
25740,2.69E-03,4.46E-03
25741,2.70E-03,4.64E-03
25742,2.60E-03,4.10E-03
25743,2.63E-03,4.28E-03
25744,2.50E-03,3.73E-03
25745,2.53E-03,3.91E-03
25746,2.43E-03,3.37E-03
25747,2.44E-03,3.55E-03
25748,2.36E-03,3.05E-03
25749,2.37E-03,3.20E-03
25750,2.35E-03,2.77E-03
25751,2.34E-03,2.90E-03
25752,2.42E-03,2.54E-03
25753,2.39E-03,2.65E-03
25754,2.49E-03,2.34E-03
25755,2.46E-03,2.44E-03
25756,2.59E-03,2.13E-03
25757,2.57E-03,2.24E-03
25758,2.60E-03,1.89E-03
25759,2.61E-03,2.01E-03
25760,2.55E-03,1.64E-03
25761,2.57E-03,1.76E-03
25762,2.47E-03,1.40E-03
25763,2.50E-03,1.52E-03
25764,2.41E-03,1.18E-03
25765,2.42E-03,1.29E-03
25766,2.31E-03,9.91E-04
25767,2.35E-03,1.08E-03
25768,2.14E-03,8.40E-04
25769,2.23E-03,9.10E-04
25770,2.09E-03,7.49E-04
25771,2.11E-03,7.85E-04
25772,2.13E-03,7.04E-04
25773,2.11E-03,7.22E-04
25774,2.15E-03,6.79E-04
25775,2.13E-03,6.90E-04
25776,2.18E-03,6.65E-04
25777,2.18E-03,6.71E-04
25778,2.20E-03,6.57E-04
25779,2.20E-03,6.60E-04
25780,2.29E-03,6.50E-04
25781,2.24E-03,6.53E-04
25782,2.35E-03,1.19E-03
25783,2.30E-03,9.74E-04
25784,2.41E-03,1.68E-03
25785,2.40E-03,1.43E-03
25786,2.45E-03,2.21E-03
25787,2.44E-03,1.94E-03
25788,2.48E-03,2.75E-03
25789,2.46E-03,2.48E-03
25790,2.50E-03,3.31E-03
25791,2.48E-03,3.03E-03
25792,2.49E-03,3.87E-03
25793,2.49E-03,3.59E-03
25794,2.49E-03,4.44E-03
25795,2.48E-03,4.15E-03
25796,2.50E-03,5.00E-03
25797,2.48E-03,4.72E-03
25798,2.51E-03,5.57E-03
25799,2.50E-03,5.28E-03
25800,2.50E-03,6.13E-03
25801,2.50E-03,5.85E-03
25802,2.51E-03,6.68E-03
25803,2.49E-03,6.41E-03
25804,2.49E-03,7.24E-03
25805,2.49E-03,6.96E-03
25806,2.49E-03,7.80E-03
25807,2.48E-03,7.52E-03
25808,2.49E-03,8.35E-03
25809,2.48E-03,8.08E-03
25810,2.50E-03,8.91E-03
25811,2.48E-03,8.63E-03
25812,2.49E-03,9.46E-03
25813,2.49E-03,9.18E-03
25814,2.48E-03,1.00E-02
25815,2.49E-03,9.74E-03
25816,2.49E-03,1.06E-02
25817,2.50E-03,1.03E-02
25818,2.47E-03,1.11E-02
25819,2.50E-03,1.09E-02
25820,2.48E-03,1.17E-02
25821,2.49E-03,1.14E-02
25822,2.48E-03,1.23E-02
25823,2.48E-03,1.20E-02
25824,2.48E-03,1.28E-02
25825,2.48E-03,1.25E-02
25826,2.48E-03,1.34E-02
25827,2.48E-03,1.31E-02
25828,2.48E-03,1.40E-02
25829,2.49E-03,1.37E-02
25830,2.52E-03,1.46E-02
25831,2.51E-03,1.43E-02
25832,2.54E-03,1.52E-02
25833,2.53E-03,1.49E-02
25834,2.56E-03,1.58E-02
25835,2.55E-03,1.55E-02
25836,2.37E-03,6.46E-04
25837,2.55E-03,1.61E-02
25838,2.51E-03,9.46E-03
25839,2.75E-03,1.57E-02
25840,1.84E-03,9.86E-03
25841,1.67E-03,9.80E-03
25842,2.24E-03,9.77E-03
25843,2.36E-03,7.21E-04
25844,2.44E-03,7.26E-04
25845,2.55E-03,1.58E-02
25846,2.55E-03,1.61E-02
25847,2.54E-03,1.64E-02
25848,2.51E-03,1.65E-02
25849,2.55E-03,1.65E-02
25850,2.49E-03,1.65E-02
25851,2.49E-03,1.65E-02
25852,2.49E-03,1.65E-02
25853,2.49E-03,1.65E-02
25854,2.47E-03,1.65E-02
25855,2.48E-03,1.65E-02
25856,2.48E-03,1.65E-02
25857,2.49E-03,1.65E-02
25858,2.52E-03,1.65E-02
25859,2.49E-03,1.65E-02
25860,2.53E-03,1.64E-02
25861,2.52E-03,1.64E-02
25862,2.56E-03,1.63E-02
25863,2.54E-03,1.63E-02
25864,2.60E-03,1.62E-02
25865,2.59E-03,1.62E-02
25866,2.62E-03,1.60E-02
25867,2.61E-03,1.61E-02
25868,2.63E-03,1.59E-02
25869,2.60E-03,1.60E-02
25870,2.57E-03,1.58E-02
25871,2.59E-03,1.58E-02
25872,2.55E-03,1.57E-02
25873,2.57E-03,1.57E-02
25874,2.51E-03,1.55E-02
25875,2.55E-03,1.56E-02
25876,2.47E-03,1.54E-02
25877,2.50E-03,1.55E-02
25878,2.45E-03,1.52E-02
25879,2.46E-03,1.53E-02
25880,2.40E-03,1.51E-02
25881,2.41E-03,1.51E-02
25882,2.35E-03,1.49E-02
25883,2.37E-03,1.50E-02
25884,2.32E-03,1.48E-02
25885,2.35E-03,1.49E-02
25886,2.33E-03,1.47E-02
25887,2.33E-03,1.47E-02
25888,2.39E-03,1.45E-02
25889,2.35E-03,1.46E-02
25890,2.43E-03,1.43E-02
25891,2.42E-03,1.44E-02
25892,2.50E-03,1.41E-02
25893,2.47E-03,1.42E-02
25894,2.55E-03,1.39E-02
25895,2.52E-03,1.40E-02
25896,2.58E-03,1.37E-02
25897,2.59E-03,1.38E-02
25898,2.50E-03,1.37E-02
25899,2.52E-03,1.37E-02
25900,2.43E-03,1.37E-02
25901,2.45E-03,1.37E-02
25902,2.35E-03,1.37E-02
25903,2.40E-03,1.37E-02
25904,2.36E-03,1.36E-02
25905,2.34E-03,1.37E-02
25906,2.41E-03,1.34E-02
25907,2.41E-03,1.35E-02
25908,2.49E-03,1.31E-02
25909,2.49E-03,1.33E-02
25910,2.56E-03,1.29E-02
25911,2.54E-03,1.30E-02
25912,2.58E-03,1.28E-02
25913,2.59E-03,1.29E-02
25914,2.49E-03,1.28E-02
25915,2.53E-03,1.28E-02
25916,2.44E-03,1.27E-02
25917,2.48E-03,1.28E-02
25918,2.41E-03,1.26E-02
25919,2.41E-03,1.27E-02
25920,2.47E-03,1.25E-02
25921,2.45E-03,1.26E-02
25922,2.52E-03,1.23E-02
25923,2.49E-03,1.24E-02
25924,2.57E-03,1.20E-02
25925,2.56E-03,1.21E-02
25926,2.61E-03,1.19E-02
25927,2.59E-03,1.19E-02
25928,2.59E-03,1.17E-02
25929,2.61E-03,1.18E-02
25930,2.55E-03,1.15E-02
25931,2.58E-03,1.16E-02
25932,2.50E-03,1.14E-02
25933,2.53E-03,1.15E-02
25934,2.44E-03,1.13E-02
25935,2.45E-03,1.13E-02
25936,2.38E-03,1.11E-02
25937,2.40E-03,1.12E-02
25938,2.37E-03,1.10E-02
25939,2.36E-03,1.11E-02
25940,2.46E-03,1.07E-02
25941,2.43E-03,1.09E-02
25942,2.59E-03,1.04E-02
25943,2.53E-03,1.06E-02
25944,2.66E-03,1.02E-02
25945,2.66E-03,1.03E-02
25946,2.65E-03,1.00E-02
25947,2.64E-03,1.01E-02
25948,2.52E-03,9.96E-03
25949,2.63E-03,1.00E-02
25950,2.41E-03,9.92E-03
25951,2.27E-03,9.65E-03
25952,2.22E-03,9.71E-03
25953,2.36E-03,9.51E-03
25954,2.34E-03,9.58E-03
25955,2.46E-03,9.38E-03
25956,2.43E-03,9.44E-03
25957,2.53E-03,9.28E-03
25958,2.50E-03,9.32E-03
25959,2.56E-03,9.24E-03
25960,2.56E-03,9.25E-03
25961,2.47E-03,9.68E-03
25962,2.50E-03,9.46E-03
25963,2.52E-03,9.25E-03
25964,2.55E-03,9.24E-03
25965,2.47E-03,1.01E-02
25966,2.48E-03,9.90E-03
25967,2.47E-03,1.06E-02
25968,2.50E-03,1.03E-02
25969,2.47E-03,1.10E-02
25970,2.50E-03,1.08E-02
25971,2.47E-03,1.14E-02
25972,2.50E-03,1.12E-02
25973,2.47E-03,1.18E-02
25974,2.50E-03,1.16E-02
25975,2.47E-03,1.22E-02
25976,2.50E-03,1.20E-02
25977,2.47E-03,1.26E-02
25978,2.49E-03,1.24E-02
25979,2.49E-03,1.30E-02
25980,2.48E-03,1.28E-02
25981,2.49E-03,1.34E-02
25982,2.48E-03,1.32E-02
25983,2.52E-03,1.38E-02
25984,2.51E-03,1.36E-02
25985,2.56E-03,1.42E-02
25986,2.54E-03,1.40E-02
25987,2.60E-03,1.47E-02
25988,2.59E-03,1.44E-02
25989,2.69E-03,1.51E-02
25990,2.66E-03,1.49E-02
25991,2.70E-03,1.55E-02
25992,2.72E-03,1.53E-02
25993,2.72E-03,1.58E-02
25994,2.72E-03,1.59E-02
25995,2.71E-03,1.58E-02
25996,2.69E-03,1.58E-02
25997,2.67E-03,1.56E-02
25998,2.70E-03,1.57E-02
25999,2.60E-03,1.54E-02
26000,2.63E-03,1.55E-02
26001,2.54E-03,1.52E-02
26002,2.58E-03,1.53E-02
26003,2.57E-03,1.50E-02
26004,2.56E-03,1.51E-02
26005,2.58E-03,1.48E-02
26006,2.58E-03,1.49E-02
26007,2.59E-03,1.46E-02
26008,2.59E-03,1.47E-02
26009,2.57E-03,1.44E-02
26010,2.58E-03,1.45E-02
26011,2.57E-03,1.42E-02
26012,2.57E-03,1.43E-02
26013,2.58E-03,1.39E-02
26014,2.59E-03,1.40E-02
26015,2.60E-03,1.36E-02
26016,2.57E-03,1.37E-02
26017,2.58E-03,1.33E-02
26018,2.60E-03,1.35E-02
26019,2.53E-03,1.31E-02
26020,2.55E-03,1.32E-02
26021,2.48E-03,1.29E-02
26022,2.48E-03,1.30E-02
26023,2.43E-03,1.26E-02
26024,2.45E-03,1.28E-02
26025,2.48E-03,1.23E-02
26026,2.47E-03,1.25E-02
26027,2.57E-03,1.19E-02
26028,2.50E-03,1.21E-02
26029,2.65E-03,1.15E-02
26030,2.59E-03,1.17E-02
26031,2.68E-03,1.11E-02
26032,2.68E-03,1.13E-02
26033,2.66E-03,1.08E-02
26034,2.69E-03,1.09E-02
26035,2.60E-03,1.05E-02
26036,2.62E-03,1.06E-02
26037,2.54E-03,1.02E-02
26038,2.57E-03,1.03E-02
26039,2.49E-03,9.84E-03
26040,2.50E-03,1.00E-02
26041,2.42E-03,9.46E-03
26042,2.45E-03,9.65E-03
26043,2.42E-03,9.08E-03
26044,2.42E-03,9.27E-03
26045,2.48E-03,8.70E-03
26046,2.45E-03,8.89E-03
26047,2.55E-03,8.32E-03
26048,2.50E-03,8.51E-03
26049,2.57E-03,7.96E-03
26050,2.56E-03,8.13E-03
26051,2.58E-03,7.61E-03
26052,2.61E-03,7.78E-03
26053,2.53E-03,7.29E-03
26054,2.56E-03,7.45E-03
26055,2.47E-03,6.98E-03
26056,2.50E-03,7.13E-03
26057,2.42E-03,6.66E-03
26058,2.44E-03,6.82E-03
26059,2.43E-03,6.36E-03
26060,2.43E-03,6.51E-03
26061,2.49E-03,6.05E-03
26062,2.47E-03,6.20E-03
26063,2.56E-03,5.74E-03
26064,2.54E-03,5.89E-03
26065,2.65E-03,5.44E-03
26066,2.60E-03,5.59E-03
26067,2.71E-03,5.15E-03
26068,2.67E-03,5.30E-03
26069,2.75E-03,4.83E-03
26070,2.75E-03,4.99E-03
26071,2.71E-03,4.50E-03
26072,2.72E-03,4.67E-03
26073,2.66E-03,4.15E-03
26074,2.66E-03,4.33E-03
26075,2.60E-03,3.77E-03
26076,2.62E-03,3.97E-03
26077,2.51E-03,3.39E-03
26078,2.51E-03,3.58E-03
26079,2.42E-03,3.03E-03
26080,2.44E-03,3.21E-03
26081,2.37E-03,2.69E-03
26082,2.39E-03,2.86E-03
26083,2.37E-03,2.42E-03
26084,2.35E-03,2.55E-03
26085,2.43E-03,2.19E-03
26086,2.41E-03,2.30E-03
26087,2.51E-03,2.00E-03
26088,2.47E-03,2.10E-03
26089,2.57E-03,1.80E-03
26090,2.57E-03,1.91E-03
26091,2.61E-03,1.58E-03
26092,2.60E-03,1.69E-03
26093,2.57E-03,1.34E-03
26094,2.56E-03,1.46E-03
26095,2.49E-03,1.12E-03
26096,2.48E-03,1.23E-03
26097,2.40E-03,9.26E-04
26098,2.42E-03,1.02E-03
26099,2.32E-03,7.71E-04
26100,2.36E-03,8.42E-04
26101,2.21E-03,6.73E-04
26102,2.25E-03,7.14E-04
26103,2.18E-03,6.38E-04
26104,2.19E-03,6.47E-04
26105,2.17E-03,6.43E-04
26106,2.15E-03,6.38E-04
26107,2.21E-03,6.60E-04
26108,2.18E-03,6.51E-04
26109,2.23E-03,6.81E-04
26110,2.21E-03,6.70E-04
26111,2.29E-03,7.05E-04
26112,2.25E-03,6.94E-04
26113,2.31E-03,7.15E-04
26114,2.48E-03,6.37E-04
26115,2.36E-03,7.81E-04
26116,2.41E-03,6.59E-04
26117,2.40E-03,1.19E-03
26118,2.35E-03,9.69E-04
26119,2.42E-03,1.69E-03
26120,2.40E-03,1.44E-03
26121,2.46E-03,2.21E-03
26122,2.45E-03,1.94E-03
26123,2.49E-03,2.76E-03
26124,2.46E-03,2.48E-03
26125,2.48E-03,3.31E-03
26126,2.49E-03,3.03E-03
26127,2.49E-03,3.88E-03
26128,2.48E-03,3.59E-03
26129,2.50E-03,4.44E-03
26130,2.49E-03,4.16E-03
26131,2.49E-03,5.00E-03
26132,2.48E-03,4.72E-03
26133,2.48E-03,5.57E-03
26134,2.47E-03,5.29E-03
26135,2.49E-03,6.13E-03
26136,2.47E-03,5.85E-03
26137,2.49E-03,6.69E-03
26138,2.49E-03,6.41E-03
26139,2.49E-03,7.24E-03
26140,2.49E-03,6.96E-03
26141,2.50E-03,7.80E-03
26142,2.49E-03,7.52E-03
26143,2.50E-03,8.36E-03
26144,2.49E-03,8.08E-03
26145,2.49E-03,8.91E-03
26146,2.49E-03,8.63E-03
26147,2.48E-03,9.47E-03
26148,2.49E-03,9.19E-03
26149,2.48E-03,1.00E-02
26150,2.48E-03,9.75E-03
26151,2.50E-03,1.06E-02
26152,2.51E-03,1.03E-02
26153,2.48E-03,1.11E-02
26154,2.50E-03,1.09E-02
26155,2.48E-03,1.17E-02
26156,2.50E-03,1.14E-02
26157,2.48E-03,1.23E-02
26158,2.50E-03,1.20E-02
26159,2.48E-03,1.28E-02
26160,2.50E-03,1.26E-02
26161,2.49E-03,1.34E-02
26162,2.50E-03,1.31E-02
26163,2.49E-03,1.40E-02
26164,2.50E-03,1.37E-02
26165,2.49E-03,1.46E-02
26166,2.50E-03,1.43E-02
26167,2.53E-03,1.52E-02
26168,2.52E-03,1.49E-02
26169,2.53E-03,1.55E-02
26170,2.58E-03,7.29E-04
26171,2.55E-03,1.64E-02
26172,2.52E-03,9.25E-03
26173,2.72E-03,1.60E-02
26174,2.05E-03,9.57E-03
26175,2.13E-03,9.50E-03
26176,2.58E-03,6.24E-04
26177,2.84E-03,7.34E-04
26178,2.53E-03,1.68E-02
26179,2.54E-03,1.68E-02
26180,2.52E-03,9.04E-03
26181,2.50E-03,9.05E-03
26182,2.67E-03,1.61E-02
26183,2.67E-03,1.62E-02
26184,2.06E-03,9.67E-03
26185,2.49E-03,1.68E-02
26186,2.53E-03,1.68E-02
26187,2.50E-03,1.69E-02
26188,2.49E-03,1.68E-02
26189,2.46E-03,1.69E-02
26190,2.49E-03,1.69E-02
26191,2.48E-03,1.69E-02
26192,2.46E-03,1.69E-02
26193,2.48E-03,1.69E-02
26194,2.47E-03,1.69E-02
26195,2.50E-03,1.68E-02
26196,2.48E-03,1.69E-02
26197,2.52E-03,1.68E-02
26198,2.50E-03,1.68E-02
26199,2.56E-03,1.67E-02
26200,2.55E-03,1.67E-02
26201,2.59E-03,1.66E-02
26202,2.57E-03,1.66E-02
26203,2.60E-03,1.64E-02
26204,2.59E-03,1.65E-02
26205,2.58E-03,1.63E-02
26206,2.59E-03,1.64E-02
26207,2.56E-03,1.61E-02
26208,2.57E-03,1.62E-02
26209,2.54E-03,1.60E-02
26210,2.56E-03,1.61E-02
26211,2.49E-03,1.58E-02
26212,2.52E-03,1.59E-02
26213,2.48E-03,1.56E-02
26214,2.48E-03,1.57E-02
26215,2.44E-03,1.54E-02
26216,2.46E-03,1.55E-02
26217,2.41E-03,1.52E-02
26218,2.43E-03,1.53E-02
26219,2.36E-03,1.50E-02
26220,2.38E-03,1.51E-02
26221,2.35E-03,1.49E-02
26222,2.36E-03,1.49E-02
26223,2.35E-03,1.47E-02
26224,2.33E-03,1.48E-02
26225,2.40E-03,1.46E-02
26226,2.38E-03,1.47E-02
26227,2.44E-03,1.44E-02
26228,2.44E-03,1.45E-02
26229,2.50E-03,1.42E-02
26230,2.47E-03,1.43E-02
26231,2.54E-03,1.40E-02
26232,2.53E-03,1.41E-02
26233,2.56E-03,1.38E-02
26234,2.58E-03,1.39E-02
26235,2.48E-03,1.38E-02
26236,2.53E-03,1.38E-02
26237,2.43E-03,1.38E-02
26238,2.46E-03,1.38E-02
26239,2.35E-03,1.38E-02
26240,2.40E-03,1.38E-02
26241,2.38E-03,1.37E-02
26242,2.36E-03,1.37E-02
26243,2.42E-03,1.35E-02
26244,2.41E-03,1.36E-02
26245,2.49E-03,1.32E-02
26246,2.48E-03,1.33E-02
26247,2.55E-03,1.30E-02
26248,2.53E-03,1.31E-02
26249,2.56E-03,1.29E-02
26250,2.57E-03,1.29E-02
26251,2.50E-03,1.28E-02
26252,2.53E-03,1.29E-02
26253,2.43E-03,1.28E-02
26254,2.48E-03,1.28E-02
26255,2.43E-03,1.27E-02
26256,2.42E-03,1.28E-02
26257,2.48E-03,1.25E-02
26258,2.46E-03,1.26E-02
26259,2.52E-03,1.23E-02
26260,2.50E-03,1.24E-02
26261,2.58E-03,1.21E-02
26262,2.55E-03,1.22E-02
26263,2.60E-03,1.19E-02
26264,2.58E-03,1.20E-02
26265,2.58E-03,1.17E-02
26266,2.58E-03,1.18E-02
26267,2.57E-03,1.15E-02
26268,2.59E-03,1.16E-02
26269,2.50E-03,1.13E-02
26270,2.54E-03,1.14E-02
26271,2.45E-03,1.12E-02
26272,2.45E-03,1.13E-02
26273,2.38E-03,1.11E-02
26274,2.40E-03,1.11E-02
26275,2.37E-03,1.09E-02
26276,2.37E-03,1.10E-02
26277,2.47E-03,1.06E-02
26278,2.43E-03,1.08E-02
26279,2.57E-03,1.03E-02
26280,2.52E-03,1.05E-02
26281,2.65E-03,1.00E-02
26282,2.62E-03,1.01E-02
26283,2.62E-03,9.86E-03
26284,2.64E-03,9.91E-03
26285,2.50E-03,9.78E-03
26286,2.54E-03,9.82E-03
26287,2.31E-03,9.72E-03
26288,2.28E-03,9.37E-03
26289,2.25E-03,9.44E-03
26290,2.37E-03,9.24E-03
26291,2.35E-03,9.31E-03
26292,2.47E-03,9.11E-03
26293,2.45E-03,9.18E-03
26294,2.54E-03,9.02E-03
26295,2.51E-03,9.06E-03
26296,2.57E-03,9.00E-03
26297,2.57E-03,9.00E-03
26298,2.54E-03,9.02E-03
26299,2.49E-03,9.25E-03
26300,2.49E-03,9.67E-03
26301,2.49E-03,9.45E-03
26302,2.47E-03,1.01E-02
26303,2.50E-03,9.89E-03
26304,2.47E-03,1.05E-02
26305,2.50E-03,1.03E-02
26306,2.47E-03,1.10E-02
26307,2.50E-03,1.08E-02
26308,2.47E-03,1.14E-02
26309,2.50E-03,1.12E-02
26310,2.47E-03,1.18E-02
26311,2.50E-03,1.16E-02
26312,2.47E-03,1.22E-02
26313,2.50E-03,1.20E-02
26314,2.47E-03,1.26E-02
26315,2.50E-03,1.24E-02
26316,2.47E-03,1.30E-02
26317,2.50E-03,1.28E-02
26318,2.49E-03,1.34E-02
26319,2.48E-03,1.32E-02
26320,2.49E-03,1.39E-02
26321,2.48E-03,1.36E-02
26322,2.54E-03,1.43E-02
26323,2.50E-03,1.41E-02
26324,2.58E-03,1.47E-02
26325,2.56E-03,1.45E-02
26326,2.62E-03,1.51E-02
26327,2.62E-03,1.49E-02
26328,2.68E-03,1.56E-02
26329,2.67E-03,1.54E-02
26330,2.69E-03,1.61E-02
26331,2.69E-03,1.58E-02
26332,2.66E-03,1.60E-02
26333,2.66E-03,1.60E-02
26334,2.61E-03,1.58E-02
26335,2.64E-03,1.59E-02
26336,2.53E-03,1.56E-02
26337,2.57E-03,1.57E-02
26338,2.54E-03,1.54E-02
26339,2.54E-03,1.55E-02
26340,2.55E-03,1.52E-02
26341,2.53E-03,1.53E-02
26342,2.58E-03,1.50E-02
26343,2.57E-03,1.51E-02
26344,2.57E-03,1.48E-02
26345,2.58E-03,1.49E-02
26346,2.56E-03,1.46E-02
26347,2.57E-03,1.47E-02
26348,2.56E-03,1.44E-02
26349,2.56E-03,1.45E-02
26350,2.57E-03,1.41E-02
26351,2.57E-03,1.42E-02
26352,2.60E-03,1.38E-02
26353,2.56E-03,1.39E-02
26354,2.58E-03,1.34E-02
26355,2.59E-03,1.36E-02
26356,2.51E-03,1.32E-02
26357,2.55E-03,1.33E-02
26358,2.47E-03,1.29E-02
26359,2.49E-03,1.31E-02
26360,2.43E-03,1.27E-02
26361,2.44E-03,1.28E-02
26362,2.48E-03,1.24E-02
26363,2.47E-03,1.26E-02
26364,2.54E-03,1.20E-02
26365,2.52E-03,1.22E-02
26366,2.61E-03,1.15E-02
26367,2.59E-03,1.17E-02
26368,2.67E-03,1.11E-02
26369,2.65E-03,1.13E-02
26370,2.66E-03,1.08E-02
26371,2.66E-03,1.09E-02
26372,2.59E-03,1.05E-02
26373,2.61E-03,1.06E-02
26374,2.53E-03,1.01E-02
26375,2.56E-03,1.03E-02
26376,2.48E-03,9.73E-03
26377,2.49E-03,9.94E-03
26378,2.41E-03,9.32E-03
26379,2.43E-03,9.53E-03
26380,2.41E-03,8.92E-03
26381,2.43E-03,9.12E-03
26382,2.49E-03,8.52E-03
26383,2.45E-03,8.72E-03
26384,2.54E-03,8.13E-03
26385,2.49E-03,8.32E-03
26386,2.58E-03,7.76E-03
26387,2.57E-03,7.94E-03
26388,2.57E-03,7.40E-03
26389,2.61E-03,7.58E-03
26390,2.52E-03,7.07E-03
26391,2.55E-03,7.23E-03
26392,2.47E-03,6.74E-03
26393,2.50E-03,6.91E-03
26394,2.41E-03,6.42E-03
26395,2.44E-03,6.58E-03
26396,2.44E-03,6.10E-03
26397,2.42E-03,6.26E-03
26398,2.48E-03,5.78E-03
26399,2.47E-03,5.94E-03
26400,2.56E-03,5.47E-03
26401,2.55E-03,5.63E-03
26402,2.63E-03,5.17E-03
26403,2.59E-03,5.32E-03
26404,2.70E-03,4.86E-03
26405,2.66E-03,5.02E-03
26406,2.72E-03,4.54E-03
26407,2.72E-03,4.71E-03
26408,2.69E-03,4.20E-03
26409,2.72E-03,4.37E-03
26410,2.63E-03,3.83E-03
26411,2.65E-03,4.02E-03
26412,2.58E-03,3.44E-03
26413,2.59E-03,3.64E-03
26414,2.50E-03,3.05E-03
26415,2.51E-03,3.24E-03
26416,2.44E-03,2.67E-03
26417,2.45E-03,2.85E-03
26418,2.37E-03,2.33E-03
26419,2.39E-03,2.49E-03
26420,2.38E-03,2.05E-03
26421,2.35E-03,2.18E-03
26422,2.45E-03,1.83E-03
26423,2.41E-03,1.94E-03
26424,2.51E-03,1.65E-03
26425,2.48E-03,1.74E-03
26426,2.57E-03,1.47E-03
26427,2.54E-03,1.57E-03
26428,2.59E-03,1.27E-03
26429,2.60E-03,1.37E-03
26430,2.56E-03,1.05E-03
26431,2.55E-03,1.16E-03
26432,2.48E-03,8.63E-04
26433,2.50E-03,9.53E-04
26434,2.41E-03,7.16E-04
26435,2.43E-03,7.84E-04
26436,2.35E-03,6.27E-04
26437,2.35E-03,6.62E-04
26438,2.27E-03,6.11E-04
26439,2.26E-03,6.11E-04
26440,2.22E-03,6.47E-04
26441,2.24E-03,6.25E-04
26442,2.22E-03,7.01E-04
26443,2.21E-03,6.74E-04
26444,2.25E-03,7.50E-04
26445,2.22E-03,7.26E-04
26446,2.29E-03,7.98E-04
26447,2.27E-03,7.75E-04
26448,2.31E-03,8.44E-04
26449,2.30E-03,8.23E-04
26450,2.40E-03,8.79E-04
26451,2.34E-03,8.63E-04
26452,2.58E-03,9.10E-04
26453,2.45E-03,8.91E-04
26454,2.42E-03,7.73E-04
26455,2.49E-03,6.45E-04
26456,2.41E-03,1.19E-03
26457,2.42E-03,9.65E-04
26458,2.44E-03,1.69E-03
26459,2.42E-03,1.44E-03
26460,2.49E-03,2.22E-03
26461,2.47E-03,1.95E-03
26462,2.50E-03,2.76E-03
26463,2.48E-03,2.49E-03
26464,2.50E-03,3.32E-03
26465,2.49E-03,3.04E-03
26466,2.51E-03,3.88E-03
26467,2.50E-03,3.60E-03
26468,2.49E-03,4.44E-03
26469,2.50E-03,4.16E-03
26470,2.49E-03,5.01E-03
26471,2.49E-03,4.73E-03
26472,2.50E-03,5.57E-03
26473,2.48E-03,5.29E-03
26474,2.49E-03,6.13E-03
26475,2.49E-03,5.85E-03
26476,2.48E-03,6.69E-03
26477,2.49E-03,6.41E-03
26478,2.48E-03,7.25E-03
26479,2.48E-03,6.97E-03
26480,2.48E-03,7.80E-03
26481,2.48E-03,7.53E-03
26482,2.48E-03,8.36E-03
26483,2.49E-03,8.08E-03
26484,2.48E-03,8.92E-03
26485,2.49E-03,8.64E-03
26486,2.48E-03,9.47E-03
26487,2.49E-03,9.19E-03
26488,2.48E-03,1.00E-02
26489,2.50E-03,9.75E-03
26490,2.48E-03,1.06E-02
26491,2.50E-03,1.03E-02
26492,2.48E-03,1.12E-02
26493,2.50E-03,1.09E-02
26494,2.48E-03,1.17E-02
26495,2.50E-03,1.14E-02
26496,2.48E-03,1.23E-02
26497,2.50E-03,1.20E-02
26498,2.48E-03,1.29E-02
26499,2.50E-03,1.26E-02
26500,2.49E-03,1.34E-02
26501,2.50E-03,1.31E-02
26502,2.49E-03,1.40E-02
26503,2.50E-03,1.37E-02
26504,2.49E-03,1.46E-02
26505,2.50E-03,1.43E-02
26506,2.49E-03,1.52E-02
26507,2.50E-03,1.49E-02
26508,2.53E-03,1.58E-02
26509,2.52E-03,1.55E-02
26510,2.53E-03,1.64E-02
26511,2.52E-03,1.61E-02
26512,2.77E-03,9.28E-04
26513,2.54E-03,1.67E-02
26514,2.48E-03,9.05E-03
26515,2.66E-03,1.63E-02
26516,2.20E-03,9.39E-03
26517,2.18E-03,9.28E-03
26518,2.67E-03,1.63E-02
26519,2.65E-03,1.64E-02
26520,2.10E-03,9.80E-04
26521,2.51E-03,1.64E-02
26522,2.52E-03,1.67E-02
26523,2.51E-03,9.23E-03
26524,2.49E-03,9.03E-03
26525,2.69E-03,1.61E-02
26526,2.67E-03,1.64E-02
26527,2.53E-03,1.71E-02
26528,2.51E-03,1.71E-02
26529,2.53E-03,1.71E-02
26530,2.49E-03,1.72E-02
26531,2.50E-03,1.71E-02
26532,2.46E-03,1.72E-02
26533,2.47E-03,1.72E-02
26534,2.47E-03,1.72E-02
26535,2.46E-03,1.72E-02
26536,2.47E-03,1.72E-02
26537,2.47E-03,1.72E-02
26538,2.47E-03,1.72E-02
26539,2.47E-03,1.72E-02
26540,2.48E-03,1.72E-02
26541,2.47E-03,1.72E-02
26542,2.53E-03,1.72E-02
26543,2.51E-03,1.72E-02
26544,2.53E-03,1.71E-02
26545,2.54E-03,1.71E-02
26546,2.56E-03,1.70E-02
26547,2.54E-03,1.71E-02
26548,2.56E-03,1.69E-02
26549,2.58E-03,1.69E-02
26550,2.56E-03,1.67E-02
26551,2.58E-03,1.68E-02
26552,2.53E-03,1.65E-02
26553,2.56E-03,1.66E-02
26554,2.55E-03,1.63E-02
26555,2.54E-03,1.64E-02
26556,2.50E-03,1.61E-02
26557,2.51E-03,1.62E-02
26558,2.50E-03,1.58E-02
26559,2.49E-03,1.60E-02
26560,2.44E-03,1.55E-02
26561,2.46E-03,1.57E-02
26562,2.43E-03,1.53E-02
26563,2.45E-03,1.54E-02
26564,2.38E-03,1.51E-02
26565,2.41E-03,1.52E-02
26566,2.37E-03,1.49E-02
26567,2.36E-03,1.50E-02
26568,2.35E-03,1.47E-02
26569,2.35E-03,1.48E-02
26570,2.40E-03,1.46E-02
26571,2.37E-03,1.47E-02
26572,2.46E-03,1.45E-02
26573,2.45E-03,1.46E-02
26574,2.50E-03,1.43E-02
26575,2.47E-03,1.44E-02
26576,2.53E-03,1.41E-02
26577,2.52E-03,1.42E-02
26578,2.54E-03,1.40E-02
26579,2.58E-03,1.41E-02
26580,2.48E-03,1.39E-02
26581,2.51E-03,1.39E-02
26582,2.43E-03,1.39E-02
26583,2.46E-03,1.39E-02
26584,2.37E-03,1.39E-02
26585,2.39E-03,1.39E-02
26586,2.40E-03,1.37E-02
26587,2.37E-03,1.38E-02
26588,2.44E-03,1.35E-02
26589,2.41E-03,1.36E-02
26590,2.49E-03,1.33E-02
26591,2.48E-03,1.34E-02
26592,2.55E-03,1.31E-02
26593,2.52E-03,1.32E-02
26594,2.56E-03,1.30E-02
26595,2.57E-03,1.30E-02
26596,2.51E-03,1.29E-02
26597,2.52E-03,1.29E-02
26598,2.43E-03,1.29E-02
26599,2.47E-03,1.29E-02
26600,2.43E-03,1.27E-02
26601,2.41E-03,1.28E-02
26602,2.48E-03,1.26E-02
26603,2.45E-03,1.27E-02
26604,2.52E-03,1.23E-02
26605,2.50E-03,1.25E-02
26606,2.57E-03,1.21E-02
26607,2.54E-03,1.22E-02
26608,2.57E-03,1.19E-02
26609,2.57E-03,1.20E-02
26610,2.57E-03,1.18E-02
26611,2.57E-03,1.19E-02
26612,2.57E-03,1.15E-02
26613,2.56E-03,1.16E-02
26614,2.49E-03,1.13E-02
26615,2.53E-03,1.14E-02
26616,2.45E-03,1.11E-02
26617,2.45E-03,1.12E-02
26618,2.40E-03,1.10E-02
26619,2.43E-03,1.10E-02
26620,2.41E-03,1.08E-02
26621,2.40E-03,1.09E-02
26622,2.47E-03,1.05E-02
26623,2.45E-03,1.07E-02
26624,2.58E-03,1.02E-02
26625,2.52E-03,1.04E-02
26626,2.62E-03,9.86E-03
26627,2.64E-03,1.00E-02
26628,2.57E-03,9.71E-03
26629,2.59E-03,9.76E-03
26630,2.45E-03,9.60E-03
26631,2.50E-03,9.66E-03
26632,2.35E-03,9.52E-03
26633,2.32E-03,9.03E-03
26634,2.22E-03,9.17E-03
26635,2.27E-03,9.09E-03
26636,2.40E-03,8.94E-03
26637,2.36E-03,8.98E-03
26638,2.48E-03,8.84E-03
26639,2.44E-03,8.89E-03
26640,2.55E-03,8.77E-03
26641,2.52E-03,8.80E-03
26642,2.55E-03,8.78E-03
26643,2.57E-03,8.76E-03
26644,2.52E-03,8.84E-03
26645,2.54E-03,8.81E-03
26646,2.49E-03,8.86E-03
26647,2.51E-03,8.86E-03
26648,2.48E-03,9.66E-03
26649,2.50E-03,9.44E-03
26650,2.46E-03,1.01E-02
26651,2.50E-03,9.87E-03
26652,2.46E-03,1.05E-02
26653,2.50E-03,1.03E-02
26654,2.46E-03,1.10E-02
26655,2.50E-03,1.08E-02
26656,2.47E-03,1.14E-02
26657,2.50E-03,1.12E-02
26658,2.47E-03,1.18E-02
26659,2.50E-03,1.16E-02
26660,2.47E-03,1.22E-02
26661,2.50E-03,1.20E-02
26662,2.47E-03,1.27E-02
26663,2.50E-03,1.25E-02
26664,2.47E-03,1.31E-02
26665,2.50E-03,1.29E-02
26666,2.47E-03,1.35E-02
26667,2.50E-03,1.33E-02
26668,2.47E-03,1.39E-02
26669,2.48E-03,1.37E-02
26670,2.51E-03,1.43E-02
26671,2.48E-03,1.41E-02
26672,2.55E-03,1.48E-02
26673,2.52E-03,1.45E-02
26674,2.60E-03,1.52E-02
26675,2.58E-03,1.50E-02
26676,2.65E-03,1.57E-02
26677,2.63E-03,1.54E-02
26678,2.65E-03,1.59E-02
26679,2.62E-03,1.61E-02
26680,2.64E-03,1.62E-02
26681,2.55E-03,1.60E-02
26682,2.59E-03,1.61E-02
26683,2.51E-03,1.58E-02
26684,2.53E-03,1.59E-02
26685,2.54E-03,1.56E-02
26686,2.53E-03,1.57E-02
26687,2.54E-03,1.54E-02
26688,2.54E-03,1.55E-02
26689,2.56E-03,1.52E-02
26690,2.57E-03,1.53E-02
26691,2.56E-03,1.50E-02
26692,2.57E-03,1.51E-02
26693,2.55E-03,1.48E-02
26694,2.56E-03,1.49E-02
26695,2.54E-03,1.46E-02
26696,2.55E-03,1.47E-02
26697,2.58E-03,1.43E-02
26698,2.56E-03,1.44E-02
26699,2.60E-03,1.39E-02
26700,2.59E-03,1.41E-02
26701,2.58E-03,1.36E-02
26702,2.57E-03,1.37E-02
26703,2.50E-03,1.33E-02
26704,2.54E-03,1.34E-02
26705,2.47E-03,1.30E-02
26706,2.50E-03,1.31E-02
26707,2.42E-03,1.27E-02
26708,2.43E-03,1.29E-02
26709,2.48E-03,1.24E-02
26710,2.46E-03,1.26E-02
26711,2.53E-03,1.20E-02
26712,2.52E-03,1.22E-02
26713,2.59E-03,1.16E-02
26714,2.58E-03,1.18E-02
26715,2.64E-03,1.11E-02
26716,2.64E-03,1.13E-02
26717,2.63E-03,1.08E-02
26718,2.64E-03,1.10E-02
26719,2.58E-03,1.05E-02
26720,2.60E-03,1.07E-02
26721,2.52E-03,1.01E-02
26722,2.53E-03,1.03E-02
26723,2.46E-03,9.62E-03
26724,2.47E-03,9.84E-03
26725,2.43E-03,9.17E-03
26726,2.44E-03,9.39E-03
26727,2.42E-03,8.74E-03
26728,2.44E-03,8.95E-03
26729,2.49E-03,8.34E-03
26730,2.45E-03,8.54E-03
26731,2.53E-03,7.95E-03
26732,2.49E-03,8.14E-03
26733,2.57E-03,7.56E-03
26734,2.55E-03,7.75E-03
26735,2.56E-03,7.20E-03
26736,2.59E-03,7.38E-03
26737,2.52E-03,6.85E-03
26738,2.53E-03,7.02E-03
26739,2.48E-03,6.51E-03
26740,2.49E-03,6.68E-03
26741,2.43E-03,6.17E-03
26742,2.44E-03,6.34E-03
26743,2.44E-03,5.84E-03
26744,2.41E-03,6.00E-03
26745,2.48E-03,5.52E-03
26746,2.47E-03,5.68E-03
26747,2.54E-03,5.21E-03
26748,2.54E-03,5.36E-03
26749,2.61E-03,4.90E-03
26750,2.57E-03,5.05E-03
26751,2.68E-03,4.59E-03
26752,2.65E-03,4.75E-03
26753,2.69E-03,4.26E-03
26754,2.68E-03,4.43E-03
26755,2.66E-03,3.89E-03
26756,2.70E-03,4.08E-03
26757,2.61E-03,3.50E-03
26758,2.63E-03,3.70E-03
26759,2.55E-03,3.10E-03
26760,2.57E-03,3.30E-03
26761,2.50E-03,2.68E-03
26762,2.51E-03,2.89E-03
26763,2.45E-03,2.29E-03
26764,2.44E-03,2.48E-03
26765,2.37E-03,1.95E-03
26766,2.40E-03,2.11E-03
26767,2.39E-03,1.67E-03
26768,2.36E-03,1.80E-03
26769,2.46E-03,1.47E-03
26770,2.41E-03,1.56E-03
26771,2.51E-03,1.30E-03
26772,2.48E-03,1.38E-03
26773,2.58E-03,1.14E-03
26774,2.55E-03,1.22E-03
26775,2.57E-03,9.60E-04
26776,2.59E-03,1.05E-03
26777,2.53E-03,7.88E-04
26778,2.56E-03,8.69E-04
26779,2.49E-03,6.67E-04
26780,2.51E-03,7.20E-04
26781,2.43E-03,6.07E-04
26782,2.43E-03,6.29E-04
26783,2.37E-03,6.15E-04
26784,2.37E-03,6.02E-04
26785,2.32E-03,6.82E-04
26786,2.31E-03,6.44E-04
26787,2.25E-03,7.69E-04
26788,2.28E-03,7.25E-04
26789,2.25E-03,8.46E-04
26790,2.26E-03,8.10E-04
26791,2.30E-03,9.12E-04
26792,2.27E-03,8.80E-04
26793,2.34E-03,9.77E-04
26794,2.33E-03,9.44E-04
26795,2.36E-03,1.04E-03
26796,2.36E-03,1.01E-03
26797,2.44E-03,1.09E-03
26798,2.41E-03,1.07E-03
26799,2.47E-03,1.14E-03
26800,2.46E-03,1.11E-03
26801,2.64E-03,1.65E-02
26802,2.13E-03,8.68E-04
26803,1.89E-03,1.08E-03
26804,2.15E-03,1.22E-03
26805,2.38E-03,1.18E-03
26806,2.61E-03,6.10E-04
26807,2.80E-03,7.10E-04
26808,2.47E-03,7.69E-04
26809,2.52E-03,6.37E-04
26810,2.44E-03,1.20E-03
26811,2.46E-03,9.66E-04
26812,2.47E-03,1.70E-03
26813,2.47E-03,1.44E-03
26814,2.49E-03,2.23E-03
26815,2.47E-03,1.96E-03
26816,2.50E-03,2.78E-03
26817,2.47E-03,2.50E-03
26818,2.48E-03,3.33E-03
26819,2.49E-03,3.05E-03
26820,2.48E-03,3.89E-03
26821,2.49E-03,3.61E-03
26822,2.49E-03,4.45E-03
26823,2.49E-03,4.17E-03
26824,2.49E-03,5.01E-03
26825,2.50E-03,4.73E-03
26826,2.48E-03,5.57E-03
26827,2.50E-03,5.29E-03
26828,2.48E-03,6.13E-03
26829,2.48E-03,5.85E-03
26830,2.49E-03,6.69E-03
26831,2.48E-03,6.41E-03
26832,2.49E-03,7.25E-03
26833,2.50E-03,6.97E-03
26834,2.49E-03,7.81E-03
26835,2.50E-03,7.53E-03
26836,2.49E-03,8.37E-03
26837,2.50E-03,8.09E-03
26838,2.49E-03,8.92E-03
26839,2.50E-03,8.64E-03
26840,2.49E-03,9.48E-03
26841,2.50E-03,9.20E-03
26842,2.49E-03,1.00E-02
26843,2.50E-03,9.76E-03
26844,2.49E-03,1.06E-02
26845,2.50E-03,1.03E-02
26846,2.49E-03,1.12E-02
26847,2.50E-03,1.09E-02
26848,2.49E-03,1.17E-02
26849,2.50E-03,1.14E-02
26850,2.49E-03,1.23E-02
26851,2.50E-03,1.20E-02
26852,2.49E-03,1.29E-02
26853,2.50E-03,1.26E-02
26854,2.49E-03,1.35E-02
26855,2.50E-03,1.32E-02
26856,2.49E-03,1.40E-02
26857,2.50E-03,1.37E-02
26858,2.49E-03,1.46E-02
26859,2.50E-03,1.43E-02
26860,2.49E-03,1.52E-02
26861,2.50E-03,1.49E-02
26862,2.49E-03,1.58E-02
26863,2.50E-03,1.55E-02
26864,2.52E-03,1.61E-02
26865,2.50E-03,1.71E-02
26866,2.49E-03,8.83E-03
26867,2.62E-03,1.65E-02
26868,2.62E-03,1.66E-02
26869,2.66E-03,1.62E-02
26870,2.64E-03,1.64E-02
26871,2.64E-03,1.66E-02
26872,2.21E-03,1.28E-03
26873,2.52E-03,1.74E-02
26874,2.50E-03,1.75E-02
26875,2.50E-03,1.75E-02
26876,2.48E-03,1.75E-02
26877,2.50E-03,1.75E-02
26878,2.46E-03,1.75E-02
26879,2.48E-03,1.75E-02
26880,2.44E-03,1.75E-02
26881,2.44E-03,1.75E-02
26882,2.46E-03,1.75E-02
26883,2.47E-03,1.75E-02
26884,2.46E-03,1.76E-02
26885,2.48E-03,1.75E-02
26886,2.47E-03,1.76E-02
26887,2.48E-03,1.76E-02
26888,2.51E-03,1.76E-02
26889,2.50E-03,1.76E-02
26890,2.54E-03,1.76E-02
26891,2.53E-03,1.76E-02
26892,2.53E-03,1.75E-02
26893,2.54E-03,1.75E-02
26894,2.56E-03,1.74E-02
26895,2.56E-03,1.74E-02
26896,2.56E-03,1.72E-02
26897,2.57E-03,1.73E-02
26898,2.54E-03,1.70E-02
26899,2.54E-03,1.71E-02
26900,2.53E-03,1.67E-02
26901,2.53E-03,1.69E-02
26902,2.52E-03,1.64E-02
26903,2.51E-03,1.66E-02
26904,2.48E-03,1.60E-02
26905,2.49E-03,1.62E-02
26906,2.45E-03,1.57E-02
26907,2.46E-03,1.59E-02
26908,2.43E-03,1.53E-02
26909,2.44E-03,1.55E-02
26910,2.41E-03,1.50E-02
26911,2.43E-03,1.52E-02
26912,2.38E-03,1.48E-02
26913,2.38E-03,1.49E-02
26914,2.38E-03,1.47E-02
26915,2.37E-03,1.47E-02
26916,2.41E-03,1.46E-02
26917,2.39E-03,1.46E-02
26918,2.48E-03,1.46E-02
26919,2.44E-03,1.46E-02
26920,2.49E-03,1.45E-02
26921,2.48E-03,1.45E-02
26922,2.53E-03,1.44E-02
26923,2.52E-03,1.44E-02
26924,2.52E-03,1.42E-02
26925,2.56E-03,1.43E-02
26926,2.47E-03,1.41E-02
26927,2.50E-03,1.41E-02
26928,2.44E-03,1.40E-02
26929,2.48E-03,1.40E-02
26930,2.38E-03,1.38E-02
26931,2.39E-03,1.39E-02
26932,2.40E-03,1.37E-02
26933,2.37E-03,1.38E-02
26934,2.44E-03,1.35E-02
26935,2.42E-03,1.36E-02
26936,2.49E-03,1.33E-02
26937,2.48E-03,1.34E-02
26938,2.54E-03,1.32E-02
26939,2.52E-03,1.33E-02
26940,2.54E-03,1.31E-02
26941,2.56E-03,1.31E-02
26942,2.50E-03,1.30E-02
26943,2.52E-03,1.31E-02
26944,2.45E-03,1.29E-02
26945,2.47E-03,1.30E-02
26946,2.44E-03,1.27E-02
26947,2.40E-03,1.28E-02
26948,2.48E-03,1.26E-02
26949,2.46E-03,1.27E-02
26950,2.51E-03,1.24E-02
26951,2.50E-03,1.25E-02
26952,2.55E-03,1.22E-02
26953,2.53E-03,1.23E-02
26954,2.56E-03,1.20E-02
26955,2.58E-03,1.21E-02
26956,2.55E-03,1.19E-02
26957,2.56E-03,1.20E-02
26958,2.56E-03,1.16E-02
26959,2.56E-03,1.17E-02
26960,2.50E-03,1.12E-02
26961,2.52E-03,1.14E-02
26962,2.45E-03,1.10E-02
26963,2.45E-03,1.11E-02
26964,2.40E-03,1.08E-02
26965,2.43E-03,1.08E-02
26966,2.41E-03,1.06E-02
26967,2.42E-03,1.07E-02
26968,2.48E-03,1.04E-02
26969,2.46E-03,1.05E-02
26970,2.55E-03,1.01E-02
26971,2.52E-03,1.03E-02
26972,2.59E-03,9.80E-03
26973,2.58E-03,9.95E-03
26974,2.56E-03,9.62E-03
26975,2.57E-03,9.69E-03
26976,2.44E-03,9.41E-03
26977,2.47E-03,9.54E-03
26978,2.31E-03,9.04E-03
26979,2.34E-03,9.23E-03
26980,2.26E-03,8.73E-03
26981,2.26E-03,8.86E-03
26982,2.35E-03,8.60E-03
26983,2.31E-03,8.64E-03
26984,2.42E-03,8.58E-03
26985,2.39E-03,8.58E-03
26986,2.49E-03,8.57E-03
26987,2.46E-03,8.58E-03
26988,2.54E-03,8.55E-03
26989,2.52E-03,8.56E-03
26990,2.53E-03,8.58E-03
26991,2.56E-03,8.55E-03
26992,2.52E-03,8.65E-03
26993,2.52E-03,8.62E-03
26994,2.48E-03,8.65E-03
26995,2.49E-03,8.66E-03
26996,2.50E-03,1.74E-02
26997,2.48E-03,8.62E-03
26998,2.53E-03,8.79E-03
26999,2.51E-03,9.21E-03
27000,2.50E-03,8.99E-03
27001,2.47E-03,9.64E-03
27002,2.50E-03,9.42E-03
27003,2.46E-03,1.01E-02
27004,2.50E-03,9.86E-03
27005,2.46E-03,1.05E-02
27006,2.50E-03,1.03E-02
27007,2.46E-03,1.10E-02
27008,2.50E-03,1.07E-02
27009,2.47E-03,1.14E-02
27010,2.50E-03,1.12E-02
27011,2.47E-03,1.18E-02
27012,2.50E-03,1.16E-02
27013,2.47E-03,1.23E-02
27014,2.50E-03,1.20E-02
27015,2.47E-03,1.27E-02
27016,2.50E-03,1.25E-02
27017,2.47E-03,1.31E-02
27018,2.50E-03,1.29E-02
27019,2.47E-03,1.35E-02
27020,2.50E-03,1.33E-02
27021,2.47E-03,1.39E-02
27022,2.50E-03,1.37E-02
27023,2.48E-03,1.44E-02
27024,2.50E-03,1.41E-02
27025,2.52E-03,1.48E-02
27026,2.50E-03,1.46E-02
27027,2.56E-03,1.53E-02
27028,2.55E-03,1.50E-02
27029,2.61E-03,1.57E-02
27030,2.60E-03,1.55E-02
27031,2.62E-03,1.60E-02
27032,2.59E-03,1.63E-02
27033,2.57E-03,1.64E-02
27034,2.51E-03,1.61E-02
27035,2.54E-03,1.62E-02
27036,2.48E-03,1.60E-02
27037,2.50E-03,1.61E-02
27038,2.54E-03,1.58E-02
27039,2.52E-03,1.59E-02
27040,2.54E-03,1.57E-02
27041,2.53E-03,1.58E-02
27042,2.54E-03,1.55E-02
27043,2.56E-03,1.56E-02
27044,2.54E-03,1.53E-02
27045,2.55E-03,1.54E-02
27046,2.54E-03,1.51E-02
27047,2.55E-03,1.52E-02
27048,2.54E-03,1.48E-02
27049,2.53E-03,1.50E-02
27050,2.55E-03,1.45E-02
27051,2.53E-03,1.47E-02
27052,2.58E-03,1.41E-02
27053,2.57E-03,1.43E-02
27054,2.56E-03,1.37E-02
27055,2.55E-03,1.39E-02
27056,2.50E-03,1.34E-02
27057,2.53E-03,1.35E-02
27058,2.47E-03,1.30E-02
27059,2.48E-03,1.32E-02
27060,2.45E-03,1.27E-02
27061,2.44E-03,1.29E-02
27062,2.49E-03,1.24E-02
27063,2.46E-03,1.26E-02
27064,2.53E-03,1.21E-02
27065,2.52E-03,1.23E-02
27066,2.57E-03,1.17E-02
27067,2.55E-03,1.19E-02
27068,2.60E-03,1.13E-02
27069,2.60E-03,1.15E-02
27070,2.60E-03,1.09E-02
27071,2.61E-03,1.11E-02
27072,2.56E-03,1.05E-02
27073,2.59E-03,1.07E-02
27074,2.51E-03,1.00E-02
27075,2.52E-03,1.03E-02
27076,2.47E-03,9.47E-03
27077,2.47E-03,9.73E-03
27078,2.45E-03,8.98E-03
27079,2.44E-03,9.22E-03
27080,2.43E-03,8.54E-03
27081,2.43E-03,8.75E-03
27082,2.49E-03,8.15E-03
27083,2.46E-03,8.34E-03
27084,2.52E-03,7.77E-03
27085,2.49E-03,7.96E-03
27086,2.56E-03,7.39E-03
27087,2.55E-03,7.58E-03
27088,2.57E-03,7.02E-03
27089,2.58E-03,7.20E-03
27090,2.51E-03,6.64E-03
27091,2.52E-03,6.83E-03
27092,2.47E-03,6.27E-03
27093,2.48E-03,6.46E-03
27094,2.45E-03,5.90E-03
27095,2.45E-03,6.08E-03
27096,2.45E-03,5.56E-03
27097,2.41E-03,5.73E-03
27098,2.49E-03,5.25E-03
27099,2.46E-03,5.40E-03
27100,2.54E-03,4.95E-03
27101,2.52E-03,5.10E-03
27102,2.59E-03,4.65E-03
27103,2.56E-03,4.80E-03
27104,2.63E-03,4.34E-03
27105,2.61E-03,4.50E-03
27106,2.66E-03,3.98E-03
27107,2.63E-03,4.17E-03
27108,2.64E-03,3.59E-03
27109,2.66E-03,3.79E-03
27110,2.58E-03,3.17E-03
27111,2.62E-03,3.38E-03
27112,2.53E-03,2.74E-03
27113,2.57E-03,2.95E-03
27114,2.50E-03,2.30E-03
27115,2.49E-03,2.52E-03
27116,2.44E-03,1.90E-03
27117,2.46E-03,2.10E-03
27118,2.38E-03,1.56E-03
27119,2.42E-03,1.72E-03
27120,2.39E-03,1.29E-03
27121,2.37E-03,1.41E-03
27122,2.46E-03,1.09E-03
27123,2.43E-03,1.18E-03
27124,2.52E-03,9.43E-04
27125,2.48E-03,1.01E-03
27126,2.58E-03,8.17E-04
27127,2.56E-03,8.80E-04
27128,2.57E-03,6.85E-04
27129,2.59E-03,7.51E-04
27130,2.51E-03,6.02E-04
27131,2.56E-03,6.33E-04
27132,2.49E-03,6.03E-04
27133,2.51E-03,5.94E-04
27134,2.42E-03,6.52E-04
27135,2.44E-03,6.23E-04
27136,2.38E-03,7.40E-04
27137,2.40E-03,6.92E-04
27138,2.35E-03,8.49E-04
27139,2.36E-03,7.93E-04
27140,2.30E-03,9.52E-04
27141,2.32E-03,9.03E-04
27142,2.29E-03,1.03E-03
27143,2.31E-03,9.96E-04
27144,2.34E-03,1.11E-03
27145,2.34E-03,1.07E-03
27146,2.38E-03,1.19E-03
27147,2.36E-03,1.15E-03
27148,2.41E-03,1.26E-03
27149,2.41E-03,1.22E-03
27150,2.43E-03,1.33E-03
27151,2.43E-03,1.30E-03
27152,2.43E-03,1.39E-03
27153,2.45E-03,1.36E-03
27154,2.37E-03,1.48E-03
27155,2.40E-03,1.43E-03
27156,2.64E-03,1.67E-02
27157,2.66E-03,1.67E-02
27158,2.39E-03,1.52E-03
27159,2.30E-03,1.30E-03
27160,2.37E-03,8.47E-04
27161,2.31E-03,1.07E-03
27162,2.55E-03,6.05E-04
27163,2.47E-03,6.94E-04
27164,2.47E-03,7.71E-04
27165,2.50E-03,6.32E-04
27166,2.48E-03,1.20E-03
27167,2.47E-03,9.71E-04
27168,2.49E-03,1.71E-03
27169,2.48E-03,1.45E-03
27170,2.48E-03,2.24E-03
27171,2.48E-03,1.97E-03
27172,2.48E-03,2.79E-03
27173,2.48E-03,2.51E-03
27174,2.49E-03,3.34E-03
27175,2.48E-03,3.07E-03
27176,2.49E-03,3.90E-03
27177,2.50E-03,3.62E-03
27178,2.49E-03,4.46E-03
27179,2.50E-03,4.18E-03
27180,2.49E-03,5.02E-03
27181,2.50E-03,4.74E-03
27182,2.49E-03,5.58E-03
27183,2.50E-03,5.30E-03
27184,2.49E-03,6.14E-03
27185,2.50E-03,5.86E-03
27186,2.49E-03,6.70E-03
27187,2.50E-03,6.42E-03
27188,2.49E-03,7.26E-03
27189,2.50E-03,6.98E-03
27190,2.49E-03,7.81E-03
27191,2.50E-03,7.54E-03
27192,2.49E-03,8.37E-03
27193,2.50E-03,8.09E-03
27194,2.49E-03,8.93E-03
27195,2.50E-03,8.65E-03
27196,2.49E-03,9.49E-03
27197,2.50E-03,9.21E-03
27198,2.49E-03,1.00E-02
27199,2.50E-03,9.77E-03
27200,2.49E-03,1.06E-02
27201,2.50E-03,1.03E-02
27202,2.49E-03,1.12E-02
27203,2.50E-03,1.09E-02
27204,2.49E-03,1.17E-02
27205,2.50E-03,1.15E-02
27206,2.49E-03,1.23E-02
27207,2.50E-03,1.20E-02
27208,2.49E-03,1.29E-02
27209,2.50E-03,1.26E-02
27210,2.49E-03,1.35E-02
27211,2.50E-03,1.32E-02
27212,2.49E-03,1.41E-02
27213,2.50E-03,1.38E-02
27214,2.49E-03,1.46E-02
27215,2.50E-03,1.43E-02
27216,2.49E-03,1.52E-02
27217,2.50E-03,1.49E-02
27218,2.49E-03,1.58E-02
27219,2.50E-03,1.55E-02
27220,2.49E-03,1.64E-02
27221,2.50E-03,1.61E-02
27222,2.48E-03,1.70E-02
27223,2.50E-03,1.67E-02
27224,2.49E-03,1.74E-02
27225,2.53E-03,8.57E-03
27226,2.62E-03,1.68E-02
27227,2.63E-03,1.69E-02
27228,2.63E-03,1.57E-03
27229,2.49E-03,1.70E-02
27230,2.49E-03,1.73E-02
27231,2.49E-03,1.78E-02
27232,2.50E-03,1.78E-02
27233,2.50E-03,1.78E-02
27234,2.49E-03,1.79E-02
27235,2.50E-03,1.79E-02
27236,2.47E-03,1.79E-02
27237,2.50E-03,1.79E-02
27238,2.47E-03,1.79E-02
27239,2.49E-03,1.79E-02
27240,2.46E-03,1.78E-02
27241,2.47E-03,1.79E-02
27242,2.45E-03,1.78E-02
27243,2.49E-03,1.78E-02
27244,2.45E-03,1.79E-02
27245,2.49E-03,1.79E-02
27246,2.47E-03,1.79E-02
27247,2.49E-03,1.79E-02
27248,2.50E-03,1.80E-02
27249,2.50E-03,1.80E-02
27250,2.53E-03,1.80E-02
27251,2.51E-03,1.80E-02
27252,2.53E-03,1.80E-02
27253,2.53E-03,1.81E-02
27254,2.55E-03,1.80E-02
27255,2.53E-03,1.80E-02
27256,2.55E-03,1.78E-02
27257,2.53E-03,1.79E-02
27258,2.54E-03,1.75E-02
27259,2.53E-03,1.77E-02
27260,2.51E-03,1.72E-02
27261,2.50E-03,1.74E-02
27262,2.50E-03,1.67E-02
27263,2.50E-03,1.70E-02
27264,2.47E-03,1.63E-02
27265,2.50E-03,1.65E-02
27266,2.44E-03,1.58E-02
27267,2.47E-03,1.60E-02
27268,2.44E-03,1.54E-02
27269,2.45E-03,1.56E-02
27270,2.42E-03,1.50E-02
27271,2.43E-03,1.52E-02
27272,2.41E-03,1.47E-02
27273,2.42E-03,1.48E-02
27274,2.41E-03,1.45E-02
27275,2.40E-03,1.46E-02
27276,2.43E-03,1.45E-02
27277,2.40E-03,1.45E-02
27278,2.47E-03,1.46E-02
27279,2.45E-03,1.45E-02
27280,2.50E-03,1.47E-02
27281,2.48E-03,1.46E-02
27282,2.53E-03,1.47E-02
27283,2.51E-03,1.47E-02
27284,2.51E-03,1.46E-02
27285,2.54E-03,1.47E-02
27286,2.47E-03,1.43E-02
27287,2.48E-03,1.45E-02
27288,2.43E-03,1.40E-02
27289,2.45E-03,1.42E-02
27290,2.40E-03,1.37E-02
27291,2.42E-03,1.38E-02
27292,2.42E-03,1.35E-02
27293,2.42E-03,1.36E-02
27294,2.45E-03,1.34E-02
27295,2.44E-03,1.34E-02
27296,2.50E-03,1.35E-02
27297,2.49E-03,1.34E-02
27298,2.52E-03,1.34E-02
27299,2.53E-03,1.35E-02
27300,2.53E-03,1.33E-02
27301,2.55E-03,1.34E-02
27302,2.49E-03,1.31E-02
27303,2.50E-03,1.33E-02
27304,2.44E-03,1.29E-02
27305,2.46E-03,1.30E-02
27306,2.45E-03,1.27E-02
27307,2.43E-03,1.28E-02
27308,2.47E-03,1.25E-02
27309,2.47E-03,1.26E-02
27310,2.52E-03,1.24E-02
27311,2.51E-03,1.25E-02
27312,2.55E-03,1.23E-02
27313,2.54E-03,1.24E-02
27314,2.55E-03,1.22E-02
27315,2.58E-03,1.23E-02
27316,2.53E-03,1.20E-02
27317,2.53E-03,1.21E-02
27318,2.54E-03,1.17E-02
27319,2.55E-03,1.18E-02
27320,2.49E-03,1.12E-02
27321,2.51E-03,1.14E-02
27322,2.45E-03,1.08E-02
27323,2.46E-03,1.10E-02
27324,2.43E-03,1.04E-02
27325,2.44E-03,1.06E-02
27326,2.46E-03,1.03E-02
27327,2.44E-03,1.03E-02
27328,2.50E-03,1.02E-02
27329,2.48E-03,1.02E-02
27330,2.54E-03,1.02E-02
27331,2.53E-03,1.02E-02
27332,2.53E-03,9.93E-03
27333,2.56E-03,1.01E-02
27334,2.50E-03,9.66E-03
27335,2.51E-03,9.80E-03
27336,2.43E-03,9.17E-03
27337,2.47E-03,9.46E-03
27338,2.36E-03,8.54E-03
27339,2.39E-03,8.85E-03
27340,2.35E-03,8.12E-03
27341,2.34E-03,8.30E-03
27342,2.39E-03,8.02E-03
27343,2.37E-03,8.03E-03
27344,2.45E-03,8.14E-03
27345,2.43E-03,8.06E-03
27346,2.49E-03,8.32E-03
27347,2.47E-03,8.24E-03
27348,2.52E-03,8.42E-03
27349,2.52E-03,8.38E-03
27350,2.53E-03,8.46E-03
27351,2.54E-03,8.44E-03
27352,2.51E-03,8.44E-03
27353,2.51E-03,8.46E-03
27354,2.48E-03,8.38E-03
27355,2.49E-03,8.41E-03
27356,2.51E-03,8.73E-03
27357,2.52E-03,8.52E-03
27358,2.52E-03,8.34E-03
27359,2.48E-03,8.35E-03
27360,2.50E-03,9.18E-03
27361,2.51E-03,8.95E-03
27362,2.47E-03,9.62E-03
27363,2.49E-03,9.40E-03
27364,2.47E-03,1.01E-02
27365,2.49E-03,9.85E-03
27366,2.47E-03,1.05E-02
27367,2.49E-03,1.03E-02
27368,2.47E-03,1.10E-02
27369,2.49E-03,1.07E-02
27370,2.47E-03,1.14E-02
27371,2.49E-03,1.12E-02
27372,2.47E-03,1.18E-02
27373,2.49E-03,1.16E-02
27374,2.47E-03,1.23E-02
27375,2.49E-03,1.21E-02
27376,2.47E-03,1.27E-02
27377,2.49E-03,1.25E-02
27378,2.47E-03,1.31E-02
27379,2.49E-03,1.29E-02
27380,2.47E-03,1.35E-02
27381,2.49E-03,1.33E-02
27382,2.47E-03,1.40E-02
27383,2.50E-03,1.38E-02
27384,2.47E-03,1.44E-02
27385,2.50E-03,1.42E-02
27386,2.48E-03,1.48E-02
27387,2.50E-03,1.46E-02
27388,2.52E-03,1.53E-02
27389,2.52E-03,1.51E-02
27390,2.58E-03,1.58E-02
27391,2.56E-03,1.55E-02
27392,2.61E-03,1.63E-02
27393,2.59E-03,1.60E-02
27394,2.65E-03,1.68E-02
27395,2.64E-03,1.65E-02
27396,2.62E-03,1.71E-02
27397,2.61E-03,1.71E-02
27398,2.60E-03,1.69E-02
27399,2.59E-03,1.70E-02
27400,2.57E-03,1.66E-02
27401,2.57E-03,1.67E-02
27402,2.54E-03,1.64E-02
27403,2.54E-03,1.65E-02
27404,2.47E-03,1.62E-02
27405,2.50E-03,1.63E-02
27406,2.48E-03,1.61E-02
27407,2.49E-03,1.62E-02
27408,2.53E-03,1.61E-02
27409,2.50E-03,1.61E-02
27410,2.54E-03,1.60E-02
27411,2.51E-03,1.60E-02
27412,2.54E-03,1.58E-02
27413,2.53E-03,1.59E-02
27414,2.54E-03,1.56E-02
27415,2.53E-03,1.57E-02
27416,2.53E-03,1.54E-02
27417,2.52E-03,1.55E-02
27418,2.52E-03,1.51E-02
27419,2.51E-03,1.52E-02
27420,2.53E-03,1.48E-02
27421,2.50E-03,1.49E-02
27422,2.55E-03,1.44E-02
27423,2.55E-03,1.46E-02
27424,2.54E-03,1.40E-02
27425,2.54E-03,1.42E-02
27426,2.50E-03,1.35E-02
27427,2.53E-03,1.37E-02
27428,2.47E-03,1.30E-02
27429,2.48E-03,1.32E-02
27430,2.45E-03,1.26E-02
27431,2.46E-03,1.28E-02
27432,2.50E-03,1.23E-02
27433,2.46E-03,1.24E-02
27434,2.53E-03,1.21E-02
27435,2.52E-03,1.22E-02
27436,2.55E-03,1.19E-02
27437,2.53E-03,1.20E-02
27438,2.59E-03,1.16E-02
27439,2.57E-03,1.17E-02
27440,2.57E-03,1.11E-02
27441,2.59E-03,1.14E-02
27442,2.53E-03,1.06E-02
27443,2.56E-03,1.09E-02
27444,2.48E-03,9.91E-03
27445,2.50E-03,1.02E-02
27446,2.46E-03,9.28E-03
27447,2.47E-03,9.59E-03
27448,2.45E-03,8.75E-03
27449,2.45E-03,9.00E-03
27450,2.45E-03,8.31E-03
27451,2.44E-03,8.52E-03
27452,2.50E-03,7.95E-03
27453,2.46E-03,8.12E-03
27454,2.53E-03,7.62E-03
27455,2.49E-03,7.78E-03
27456,2.54E-03,7.26E-03
27457,2.54E-03,7.44E-03
27458,2.55E-03,6.88E-03
27459,2.56E-03,7.07E-03
27460,2.50E-03,6.45E-03
27461,2.52E-03,6.67E-03
27462,2.47E-03,6.01E-03
27463,2.47E-03,6.24E-03
27464,2.44E-03,5.60E-03
27465,2.44E-03,5.80E-03
27466,2.46E-03,5.26E-03
27467,2.42E-03,5.42E-03
27468,2.50E-03,4.97E-03
27469,2.47E-03,5.11E-03
27470,2.53E-03,4.70E-03
27471,2.52E-03,4.83E-03
27472,2.56E-03,4.43E-03
27473,2.56E-03,4.57E-03
27474,2.63E-03,4.11E-03
27475,2.60E-03,4.28E-03
27476,2.63E-03,3.74E-03
27477,2.63E-03,3.93E-03
27478,2.59E-03,3.30E-03
27479,2.63E-03,3.52E-03
27480,2.56E-03,2.84E-03
27481,2.58E-03,3.07E-03
27482,2.53E-03,2.36E-03
27483,2.54E-03,2.60E-03
27484,2.48E-03,1.91E-03
27485,2.49E-03,2.13E-03
27486,2.43E-03,1.50E-03
27487,2.48E-03,1.69E-03
27488,2.40E-03,1.16E-03
27489,2.42E-03,1.32E-03
27490,2.41E-03,8.94E-04
27491,2.41E-03,1.02E-03
27492,2.49E-03,7.08E-04
27493,2.45E-03,7.93E-04
27494,2.52E-03,5.92E-04
27495,2.49E-03,6.42E-04
27496,2.55E-03,5.33E-04
27497,2.55E-03,5.58E-04
27498,2.53E-03,5.24E-04
27499,2.54E-03,5.20E-04
27500,2.52E-03,6.02E-04
27501,2.55E-03,5.52E-04
27502,2.50E-03,7.20E-04
27503,2.52E-03,6.61E-04
27504,2.43E-03,8.35E-04
27505,2.47E-03,7.78E-04
27506,2.41E-03,9.49E-04
27507,2.42E-03,8.91E-04
27508,2.36E-03,1.06E-03
27509,2.40E-03,1.01E-03
27510,2.34E-03,1.16E-03
27511,2.37E-03,1.11E-03
27512,2.35E-03,1.23E-03
27513,2.36E-03,1.19E-03
27514,2.38E-03,1.31E-03
27515,2.36E-03,1.27E-03
27516,2.41E-03,1.41E-03
27517,2.40E-03,1.36E-03
27518,2.43E-03,1.50E-03
27519,2.43E-03,1.45E-03
27520,2.45E-03,1.60E-03
27521,2.46E-03,1.55E-03
27522,2.42E-03,1.67E-03
27523,2.45E-03,1.64E-03
27524,2.40E-03,1.76E-03
27525,2.39E-03,1.71E-03
27526,2.53E-03,1.84E-03
27527,2.42E-03,1.80E-03
27528,1.94E-03,1.90E-03
27529,1.95E-03,1.79E-03
27530,2.44E-03,1.31E-03
27531,2.62E-03,1.57E-03
27532,2.42E-03,8.49E-04
27533,2.40E-03,1.06E-03
27534,2.46E-03,6.01E-04
27535,2.46E-03,6.81E-04
27536,2.48E-03,7.75E-04
27537,2.48E-03,6.33E-04
27538,2.48E-03,1.21E-03
27539,2.48E-03,9.79E-04
27540,2.48E-03,1.72E-03
27541,2.48E-03,1.46E-03
27542,2.49E-03,2.26E-03
27543,2.48E-03,1.99E-03
27544,2.49E-03,2.80E-03
27545,2.50E-03,2.53E-03
27546,2.49E-03,3.36E-03
27547,2.50E-03,3.08E-03
27548,2.49E-03,3.91E-03
27549,2.50E-03,3.63E-03
27550,2.49E-03,4.47E-03
27551,2.50E-03,4.19E-03
27552,2.49E-03,5.03E-03
27553,2.50E-03,4.75E-03
27554,2.49E-03,5.59E-03
27555,2.50E-03,5.31E-03
27556,2.49E-03,6.15E-03
27557,2.50E-03,5.87E-03
27558,2.49E-03,6.71E-03
27559,2.50E-03,6.43E-03
27560,2.49E-03,7.26E-03
27561,2.50E-03,6.99E-03
27562,2.49E-03,7.82E-03
27563,2.50E-03,7.54E-03
27564,2.49E-03,8.38E-03
27565,2.50E-03,8.10E-03
27566,2.49E-03,8.94E-03
27567,2.50E-03,8.66E-03
27568,2.49E-03,9.50E-03
27569,2.50E-03,9.22E-03
27570,2.49E-03,1.01E-02
27571,2.50E-03,9.78E-03
27572,2.49E-03,1.06E-02
27573,2.50E-03,1.03E-02
27574,2.49E-03,1.12E-02
27575,2.50E-03,1.09E-02
27576,2.49E-03,1.18E-02
27577,2.50E-03,1.15E-02
27578,2.49E-03,1.23E-02
27579,2.50E-03,1.20E-02
27580,2.49E-03,1.29E-02
27581,2.50E-03,1.26E-02
27582,2.49E-03,1.35E-02
27583,2.50E-03,1.32E-02
27584,2.49E-03,1.41E-02
27585,2.50E-03,1.38E-02
27586,2.49E-03,1.47E-02
27587,2.50E-03,1.44E-02
27588,2.49E-03,1.52E-02
27589,2.50E-03,1.49E-02
27590,2.49E-03,1.58E-02
27591,2.50E-03,1.55E-02
27592,2.49E-03,1.64E-02
27593,2.50E-03,1.61E-02
27594,2.50E-03,1.67E-02
27595,2.48E-03,1.77E-02
27596,2.52E-03,8.32E-03
27597,2.60E-03,1.73E-02
27598,1.63E-03,1.97E-03
27599,2.49E-03,1.82E-02
27600,2.49E-03,1.83E-02
27601,2.49E-03,1.83E-02
27602,2.48E-03,1.83E-02
27603,2.49E-03,1.83E-02
27604,2.48E-03,1.83E-02
27605,2.49E-03,1.83E-02
27606,2.47E-03,1.82E-02
27607,2.48E-03,1.82E-02
27608,2.47E-03,1.81E-02
27609,2.48E-03,1.82E-02
27610,2.47E-03,1.81E-02
27611,2.48E-03,1.81E-02
27612,2.47E-03,1.81E-02
27613,2.48E-03,1.81E-02
27614,2.48E-03,1.82E-02
27615,2.48E-03,1.82E-02
27616,2.49E-03,1.84E-02
27617,2.49E-03,1.83E-02
27618,2.51E-03,1.86E-02
27619,2.50E-03,1.85E-02
27620,2.52E-03,1.87E-02
27621,2.51E-03,1.86E-02
27622,2.53E-03,1.87E-02
27623,2.51E-03,1.87E-02
27624,2.52E-03,1.85E-02
27625,2.51E-03,1.86E-02
27626,2.51E-03,1.81E-02
27627,2.50E-03,1.83E-02
27628,2.49E-03,1.77E-02
27629,2.50E-03,1.79E-02
27630,2.48E-03,1.71E-02
27631,2.49E-03,1.74E-02
27632,2.47E-03,1.65E-02
27633,2.48E-03,1.68E-02
27634,2.45E-03,1.59E-02
27635,2.48E-03,1.62E-02
27636,2.45E-03,1.54E-02
27637,2.45E-03,1.56E-02
27638,2.44E-03,1.49E-02
27639,2.44E-03,1.51E-02
27640,2.44E-03,1.45E-02
27641,2.44E-03,1.47E-02
27642,2.43E-03,1.42E-02
27643,2.41E-03,1.43E-02
27644,2.45E-03,1.42E-02
27645,2.45E-03,1.42E-02
27646,2.47E-03,1.45E-02
27647,2.47E-03,1.43E-02
27648,2.51E-03,1.49E-02
27649,2.49E-03,1.47E-02
27650,2.51E-03,1.52E-02
27651,2.51E-03,1.51E-02
27652,2.49E-03,1.52E-02
27653,2.51E-03,1.53E-02
27654,2.46E-03,1.48E-02
27655,2.46E-03,1.51E-02
27656,2.44E-03,1.40E-02
27657,2.43E-03,1.44E-02
27658,2.44E-03,1.33E-02
27659,2.44E-03,1.36E-02
27660,2.45E-03,1.30E-02
27661,2.45E-03,1.31E-02
27662,2.46E-03,1.32E-02
27663,2.47E-03,1.31E-02
27664,2.49E-03,1.36E-02
27665,2.49E-03,1.34E-02
27666,2.51E-03,1.39E-02
27667,2.50E-03,1.38E-02
27668,2.51E-03,1.37E-02
27669,2.52E-03,1.38E-02
27670,2.46E-03,1.33E-02
27671,2.48E-03,1.35E-02
27672,2.44E-03,1.28E-02
27673,2.44E-03,1.30E-02
27674,2.46E-03,1.25E-02
27675,2.45E-03,1.26E-02
27676,2.49E-03,1.24E-02
27677,2.49E-03,1.24E-02
27678,2.53E-03,1.25E-02
27679,2.52E-03,1.24E-02
27680,2.54E-03,1.26E-02
27681,2.53E-03,1.26E-02
27682,2.53E-03,1.24E-02
27683,2.55E-03,1.25E-02
27684,2.51E-03,1.22E-02
27685,2.50E-03,1.23E-02
27686,2.54E-03,1.18E-02
27687,2.53E-03,1.20E-02
27688,2.47E-03,1.14E-02
27689,2.51E-03,1.16E-02
27690,2.46E-03,1.07E-02
27691,2.46E-03,1.11E-02
27692,2.43E-03,9.97E-03
27693,2.43E-03,1.03E-02
27694,2.50E-03,9.60E-03
27695,2.47E-03,9.72E-03
27696,2.52E-03,9.79E-03
27697,2.51E-03,9.62E-03
27698,2.51E-03,1.03E-02
27699,2.53E-03,1.00E-02
27700,2.48E-03,1.05E-02
27701,2.50E-03,1.05E-02
27702,2.46E-03,9.92E-03
27703,2.47E-03,1.03E-02
27704,2.43E-03,8.84E-03
27705,2.46E-03,9.40E-03
27706,2.41E-03,7.86E-03
27707,2.42E-03,8.31E-03
27708,2.40E-03,7.32E-03
27709,2.40E-03,7.53E-03
27710,2.45E-03,7.25E-03
27711,2.43E-03,7.23E-03
27712,2.48E-03,7.59E-03
27713,2.47E-03,7.38E-03
27714,2.51E-03,8.10E-03
27715,2.49E-03,7.84E-03
27716,2.50E-03,8.48E-03
27717,2.51E-03,8.33E-03
27718,2.50E-03,8.47E-03
27719,2.50E-03,8.52E-03
27720,2.49E-03,8.17E-03
27721,2.47E-03,8.33E-03
27722,2.50E-03,7.97E-03
27723,2.49E-03,8.03E-03
27724,2.52E-03,8.05E-03
27725,2.50E-03,7.98E-03
27726,2.48E-03,1.81E-02
27727,2.53E-03,8.14E-03
27728,2.52E-03,8.29E-03
27729,2.50E-03,8.68E-03
27730,2.52E-03,8.46E-03
27731,2.48E-03,9.15E-03
27732,2.50E-03,8.91E-03
27733,2.47E-03,9.61E-03
27734,2.48E-03,9.38E-03
27735,2.47E-03,1.01E-02
27736,2.48E-03,9.84E-03
27737,2.47E-03,1.05E-02
27738,2.48E-03,1.03E-02
27739,2.47E-03,1.10E-02
27740,2.48E-03,1.07E-02
27741,2.47E-03,1.14E-02
27742,2.49E-03,1.12E-02
27743,2.48E-03,1.19E-02
27744,2.49E-03,1.16E-02
27745,2.48E-03,1.23E-02
27746,2.49E-03,1.21E-02
27747,2.48E-03,1.27E-02
27748,2.49E-03,1.25E-02
27749,2.48E-03,1.32E-02
27750,2.49E-03,1.29E-02
27751,2.48E-03,1.36E-02
27752,2.49E-03,1.34E-02
27753,2.48E-03,1.40E-02
27754,2.49E-03,1.38E-02
27755,2.48E-03,1.44E-02
27756,2.49E-03,1.42E-02
27757,2.48E-03,1.49E-02
27758,2.49E-03,1.47E-02
27759,2.51E-03,1.54E-02
27760,2.51E-03,1.51E-02
27761,2.55E-03,1.58E-02
27762,2.54E-03,1.56E-02
27763,2.58E-03,1.64E-02
27764,2.57E-03,1.61E-02
27765,2.63E-03,1.69E-02
27766,2.61E-03,1.66E-02
27767,2.59E-03,1.74E-02
27768,2.58E-03,1.76E-02
27769,2.60E-03,1.75E-02
27770,2.60E-03,1.72E-02
27771,2.57E-03,1.70E-02
27772,2.58E-03,1.72E-02
27773,2.54E-03,1.67E-02
27774,2.56E-03,1.69E-02
27775,2.50E-03,1.64E-02
27776,2.53E-03,1.66E-02
27777,2.47E-03,1.63E-02
27778,2.48E-03,1.63E-02
27779,2.49E-03,1.63E-02
27780,2.49E-03,1.63E-02
27781,2.51E-03,1.63E-02
27782,2.50E-03,1.63E-02
27783,2.53E-03,1.63E-02
27784,2.51E-03,1.63E-02
27785,2.53E-03,1.62E-02
27786,2.51E-03,1.63E-02
27787,2.52E-03,1.60E-02
27788,2.51E-03,1.61E-02
27789,2.51E-03,1.57E-02
27790,2.51E-03,1.59E-02
27791,2.50E-03,1.54E-02
27792,2.50E-03,1.55E-02
27793,2.51E-03,1.50E-02
27794,2.50E-03,1.52E-02
27795,2.53E-03,1.47E-02
27796,2.53E-03,1.49E-02
27797,2.53E-03,1.43E-02
27798,2.53E-03,1.45E-02
27799,2.49E-03,1.37E-02
27800,2.51E-03,1.40E-02
27801,2.46E-03,1.30E-02
27802,2.48E-03,1.33E-02
27803,2.45E-03,1.23E-02
27804,2.44E-03,1.26E-02
27805,2.50E-03,1.20E-02
27806,2.47E-03,1.21E-02
27807,2.53E-03,1.21E-02
27808,2.53E-03,1.20E-02
27809,2.54E-03,1.22E-02
27810,2.54E-03,1.22E-02
27811,2.53E-03,1.21E-02
27812,2.54E-03,1.22E-02
27813,2.53E-03,1.15E-02
27814,2.53E-03,1.19E-02
27815,2.50E-03,1.07E-02
27816,2.52E-03,1.11E-02
27817,2.48E-03,9.78E-03
27818,2.49E-03,1.02E-02
27819,2.46E-03,9.04E-03
27820,2.47E-03,9.39E-03
27821,2.46E-03,8.46E-03
27822,2.47E-03,8.74E-03
27823,2.46E-03,8.03E-03
27824,2.46E-03,8.23E-03
27825,2.49E-03,7.71E-03
27826,2.47E-03,7.86E-03
27827,2.52E-03,7.47E-03
27828,2.50E-03,7.59E-03
27829,2.53E-03,7.20E-03
27830,2.53E-03,7.34E-03
27831,2.53E-03,6.81E-03
27832,2.55E-03,7.02E-03
27833,2.50E-03,6.30E-03
27834,2.51E-03,6.57E-03
27835,2.47E-03,5.75E-03
27836,2.47E-03,6.02E-03
27837,2.45E-03,5.26E-03
27838,2.45E-03,5.49E-03
27839,2.45E-03,4.91E-03
27840,2.43E-03,5.07E-03
27841,2.50E-03,4.67E-03
27842,2.47E-03,4.78E-03
27843,2.52E-03,4.48E-03
27844,2.51E-03,4.58E-03
27845,2.54E-03,4.25E-03
27846,2.54E-03,4.37E-03
27847,2.56E-03,3.94E-03
27848,2.56E-03,4.10E-03
27849,2.58E-03,3.53E-03
27850,2.57E-03,3.75E-03
27851,2.56E-03,3.05E-03
27852,2.57E-03,3.30E-03
27853,2.53E-03,2.52E-03
27854,2.53E-03,2.79E-03
27855,2.52E-03,1.98E-03
27856,2.51E-03,2.25E-03
27857,2.47E-03,1.49E-03
27858,2.49E-03,1.73E-03
27859,2.44E-03,1.08E-03
27860,2.48E-03,1.28E-03
27861,2.43E-03,7.57E-04
27862,2.45E-03,9.10E-04
27863,2.45E-03,5.10E-04
27864,2.43E-03,6.22E-04
27865,2.50E-03,3.54E-04
27866,2.47E-03,4.19E-04
27867,2.52E-03,3.23E-04
27868,2.51E-03,3.20E-04
27869,2.52E-03,4.36E-04
27870,2.54E-03,3.65E-04
27871,2.50E-03,6.18E-04
27872,2.53E-03,5.23E-04
27873,2.49E-03,8.03E-04
27874,2.50E-03,7.13E-04
27875,2.48E-03,9.63E-04
27876,2.50E-03,8.86E-04
27877,2.45E-03,1.10E-03
27878,2.47E-03,1.03E-03
27879,2.43E-03,1.20E-03
27880,2.44E-03,1.16E-03
27881,2.40E-03,1.28E-03
27882,2.42E-03,1.25E-03
27883,2.39E-03,1.35E-03
27884,2.40E-03,1.32E-03
27885,2.42E-03,1.43E-03
27886,2.41E-03,1.39E-03
27887,2.44E-03,1.52E-03
27888,2.42E-03,1.47E-03
27889,2.45E-03,1.63E-03
27890,2.44E-03,1.58E-03
27891,2.46E-03,1.75E-03
27892,2.45E-03,1.69E-03
27893,2.47E-03,1.87E-03
27894,2.48E-03,1.81E-03
27895,2.42E-03,2.00E-03
27896,2.44E-03,1.94E-03
27897,2.38E-03,2.08E-03
27898,2.38E-03,2.05E-03
27899,2.22E-03,2.12E-03
27900,2.37E-03,2.11E-03
27901,2.20E-03,1.76E-03
27902,2.10E-03,1.97E-03
27903,2.02E-03,2.11E-03
27904,2.11E-03,2.11E-03
27905,2.45E-03,1.31E-03
27906,2.36E-03,1.54E-03
27907,2.45E-03,8.42E-04
27908,2.45E-03,1.06E-03
27909,2.49E-03,5.97E-04
27910,2.47E-03,6.76E-04
27911,2.50E-03,7.85E-04
27912,2.48E-03,6.38E-04
27913,2.50E-03,1.23E-03
27914,2.50E-03,9.91E-04
27915,2.49E-03,1.74E-03
27916,2.50E-03,1.48E-03
27917,2.49E-03,2.28E-03
27918,2.50E-03,2.01E-03
27919,2.49E-03,2.82E-03
27920,2.50E-03,2.55E-03
27921,2.49E-03,3.37E-03
27922,2.50E-03,3.10E-03
27923,2.49E-03,3.93E-03
27924,2.50E-03,3.65E-03
27925,2.49E-03,4.48E-03
27926,2.50E-03,4.21E-03
27927,2.49E-03,5.04E-03
27928,2.50E-03,4.76E-03
27929,2.49E-03,5.60E-03
27930,2.50E-03,5.32E-03
27931,2.49E-03,6.16E-03
27932,2.50E-03,5.88E-03
27933,2.49E-03,6.72E-03
27934,2.50E-03,6.44E-03
27935,2.49E-03,7.27E-03
27936,2.50E-03,6.99E-03
27937,2.49E-03,7.83E-03
27938,2.50E-03,7.55E-03
27939,2.49E-03,8.39E-03
27940,2.50E-03,8.11E-03
27941,2.49E-03,8.95E-03
27942,2.50E-03,8.67E-03
27943,2.49E-03,9.51E-03
27944,2.50E-03,9.23E-03
27945,2.49E-03,1.01E-02
27946,2.50E-03,9.79E-03
27947,2.49E-03,1.06E-02
27948,2.50E-03,1.04E-02
27949,2.49E-03,1.12E-02
27950,2.50E-03,1.09E-02
27951,2.49E-03,1.18E-02
27952,2.50E-03,1.15E-02
27953,2.49E-03,1.23E-02
27954,2.50E-03,1.21E-02
27955,2.49E-03,1.29E-02
27956,2.50E-03,1.26E-02
27957,2.49E-03,1.35E-02
27958,2.50E-03,1.32E-02
27959,2.49E-03,1.41E-02
27960,2.50E-03,1.38E-02
27961,2.49E-03,1.47E-02
27962,2.50E-03,1.44E-02
27963,2.49E-03,1.53E-02
27964,2.50E-03,1.50E-02
27965,2.49E-03,1.58E-02
27966,2.50E-03,1.55E-02
27967,2.49E-03,1.64E-02
27968,2.50E-03,1.61E-02
27969,2.49E-03,1.70E-02
27970,2.50E-03,1.67E-02
27971,2.48E-03,1.76E-02
27972,2.50E-03,1.73E-02
27973,2.46E-03,1.80E-02
27974,2.51E-03,8.21E-03
27975,2.59E-03,1.77E-02
27976,2.09E-03,2.13E-03
27977,2.47E-03,1.84E-02
27978,2.48E-03,1.86E-02
27979,2.48E-03,1.87E-02
27980,2.48E-03,1.88E-02
27981,2.48E-03,1.88E-02
27982,2.48E-03,1.88E-02
27983,2.48E-03,1.88E-02
27984,2.48E-03,1.87E-02
27985,2.47E-03,1.86E-02
27986,2.47E-03,1.86E-02
27987,2.47E-03,1.85E-02
27988,2.47E-03,1.85E-02
27989,2.48E-03,1.84E-02
27990,2.48E-03,1.84E-02
27991,2.48E-03,1.84E-02
27992,2.48E-03,1.84E-02
27993,2.48E-03,1.84E-02
27994,2.48E-03,1.84E-02
27995,2.49E-03,1.85E-02
27996,2.49E-03,1.86E-02
27997,2.50E-03,1.88E-02
27998,2.50E-03,1.89E-02
27999,2.50E-03,1.91E-02
28000,2.50E-03,1.92E-02
28001,2.50E-03,1.94E-02
28002,2.50E-03,1.95E-02
28003,2.50E-03,1.95E-02
28004,2.49E-03,1.95E-02
28005,2.49E-03,1.93E-02
28006,2.48E-03,1.91E-02
28007,2.48E-03,1.89E-02
28008,2.48E-03,1.85E-02
28009,2.48E-03,1.82E-02
28010,2.47E-03,1.78E-02
28011,2.47E-03,1.75E-02
28012,2.47E-03,1.71E-02
28013,2.47E-03,1.68E-02
28014,2.47E-03,1.64E-02
28015,2.46E-03,1.60E-02
28016,2.46E-03,1.57E-02
28017,2.46E-03,1.54E-02
28018,2.46E-03,1.51E-02
28019,2.45E-03,1.48E-02
28020,2.45E-03,1.45E-02
28021,2.45E-03,1.42E-02
28022,2.45E-03,1.40E-02
28023,2.46E-03,1.38E-02
28024,2.49E-03,1.38E-02
28025,2.48E-03,1.38E-02
28026,2.49E-03,1.40E-02
28027,2.49E-03,1.43E-02
28028,2.51E-03,1.47E-02
28029,2.53E-03,1.51E-02
28030,2.51E-03,1.55E-02
28031,2.49E-03,1.59E-02
28032,2.47E-03,1.61E-02
28033,2.46E-03,1.62E-02
28034,2.45E-03,1.60E-02
28035,2.44E-03,1.55E-02
28036,2.43E-03,1.47E-02
28037,2.44E-03,1.39E-02
28038,2.44E-03,1.32E-02
28039,2.46E-03,1.26E-02
28040,2.49E-03,1.23E-02
28041,2.49E-03,1.23E-02
28042,2.51E-03,1.25E-02
28043,2.49E-03,1.29E-02
28044,2.50E-03,1.34E-02
28045,2.50E-03,1.39E-02
28046,2.49E-03,1.43E-02
28047,2.49E-03,1.46E-02
28048,2.49E-03,1.46E-02
28049,2.47E-03,1.43E-02
28050,2.46E-03,1.39E-02
28051,2.45E-03,1.34E-02
28052,2.45E-03,1.30E-02
28053,2.46E-03,1.26E-02
28054,2.47E-03,1.23E-02
28055,2.48E-03,1.21E-02
28056,2.51E-03,1.20E-02
28057,2.51E-03,1.21E-02
28058,2.53E-03,1.23E-02
28059,2.53E-03,1.26E-02
28060,2.51E-03,1.29E-02
28061,2.52E-03,1.30E-02
28062,2.51E-03,1.30E-02
28063,2.50E-03,1.28E-02
28064,2.50E-03,1.25E-02
28065,2.51E-03,1.23E-02
28066,2.51E-03,1.21E-02
28067,2.52E-03,1.20E-02
28068,2.51E-03,1.19E-02
28069,2.47E-03,1.17E-02
28070,2.45E-03,1.12E-02
28071,2.45E-03,1.07E-02
28072,2.43E-03,1.00E-02
28073,2.44E-03,9.35E-03
28074,2.51E-03,8.78E-03
28075,2.55E-03,8.56E-03
28076,2.55E-03,8.72E-03
28077,2.56E-03,9.14E-03
28078,2.55E-03,9.75E-03
28079,2.52E-03,1.05E-02
28080,2.47E-03,1.12E-02
28081,2.41E-03,1.17E-02
28082,2.39E-03,1.14E-02
28083,2.41E-03,1.05E-02
28084,2.45E-03,9.39E-03
28085,2.44E-03,8.42E-03
28086,2.46E-03,7.63E-03
28087,2.46E-03,7.03E-03
28088,2.46E-03,6.60E-03
28089,2.44E-03,6.35E-03
28090,2.48E-03,6.25E-03
28091,2.51E-03,6.32E-03
28092,2.52E-03,6.55E-03
28093,2.53E-03,6.93E-03
28094,2.52E-03,7.41E-03
28095,2.51E-03,7.94E-03
28096,2.50E-03,8.45E-03
28097,2.48E-03,8.83E-03
28098,2.46E-03,8.93E-03
28099,2.45E-03,8.68E-03
28100,2.46E-03,8.22E-03
28101,2.50E-03,7.76E-03
28102,2.51E-03,7.46E-03
28103,2.52E-03,7.37E-03
28104,2.53E-03,7.47E-03
28105,2.53E-03,7.71E-03
28106,2.52E-03,8.00E-03
28107,2.49E-03,8.25E-03
28108,2.49E-03,8.42E-03
28109,2.50E-03,8.22E-03
28110,2.50E-03,8.25E-03
28111,2.49E-03,8.42E-03
28112,2.48E-03,8.65E-03
28113,2.48E-03,8.89E-03
28114,2.48E-03,9.13E-03
28115,2.48E-03,9.36E-03
28116,2.48E-03,9.60E-03
28117,2.48E-03,9.83E-03
28118,2.48E-03,1.01E-02
28119,2.48E-03,1.03E-02
28120,2.48E-03,1.05E-02
28121,2.48E-03,1.07E-02
28122,2.48E-03,1.10E-02
28123,2.48E-03,1.12E-02
28124,2.48E-03,1.14E-02
28125,2.48E-03,1.17E-02
28126,2.48E-03,1.19E-02
28127,2.48E-03,1.21E-02
28128,2.48E-03,1.23E-02
28129,2.48E-03,1.25E-02
28130,2.48E-03,1.28E-02
28131,2.48E-03,1.30E-02
28132,2.48E-03,1.32E-02
28133,2.48E-03,1.34E-02
28134,2.48E-03,1.36E-02
28135,2.48E-03,1.38E-02
28136,2.48E-03,1.41E-02
28137,2.48E-03,1.43E-02
28138,2.49E-03,1.45E-02
28139,2.49E-03,1.47E-02
28140,2.49E-03,1.49E-02
28141,2.49E-03,1.52E-02
28142,2.49E-03,1.54E-02
28143,2.51E-03,1.57E-02
28144,2.53E-03,1.59E-02
28145,2.55E-03,1.62E-02
28146,2.56E-03,1.64E-02
28147,2.58E-03,1.67E-02
28148,2.61E-03,1.70E-02
28149,2.62E-03,1.73E-02
28150,2.61E-03,1.76E-02
28151,2.58E-03,1.80E-02
28152,2.53E-03,1.82E-02
28153,2.56E-03,1.80E-02
28154,2.57E-03,1.78E-02
28155,2.57E-03,1.76E-02
28156,2.56E-03,1.74E-02
28157,2.52E-03,1.72E-02
28158,2.52E-03,1.70E-02
28159,2.50E-03,1.68E-02
28160,2.50E-03,1.65E-02
28161,2.48E-03,1.64E-02
28162,2.48E-03,1.63E-02
28163,2.49E-03,1.63E-02
28164,2.49E-03,1.63E-02
28165,2.50E-03,1.63E-02
28166,2.51E-03,1.64E-02
28167,2.51E-03,1.66E-02
28168,2.51E-03,1.67E-02
28169,2.51E-03,1.67E-02
28170,2.50E-03,1.67E-02
28171,2.50E-03,1.67E-02
28172,2.50E-03,1.66E-02
28173,2.50E-03,1.64E-02
28174,2.49E-03,1.63E-02
28175,2.49E-03,1.61E-02
28176,2.49E-03,1.59E-02
28177,2.50E-03,1.56E-02
28178,2.50E-03,1.54E-02
28179,2.51E-03,1.53E-02
28180,2.51E-03,1.52E-02
28181,2.51E-03,1.51E-02
28182,2.51E-03,1.50E-02
28183,2.50E-03,1.48E-02
28184,2.48E-03,1.45E-02
28185,2.47E-03,1.40E-02
28186,2.46E-03,1.35E-02
28187,2.45E-03,1.30E-02
28188,2.44E-03,1.24E-02
28189,2.47E-03,1.18E-02
28190,2.50E-03,1.14E-02
28191,2.53E-03,1.13E-02
28192,2.55E-03,1.15E-02
28193,2.53E-03,1.19E-02
28194,2.52E-03,1.24E-02
28195,2.50E-03,1.28E-02
28196,2.52E-03,1.30E-02
28197,2.50E-03,1.30E-02
28198,2.49E-03,1.27E-02
28199,2.47E-03,1.22E-02
28200,2.48E-03,1.15E-02
28201,2.47E-03,1.08E-02
28202,2.48E-03,1.01E-02
28203,2.46E-03,9.62E-03
28204,2.47E-03,9.16E-03
28205,2.47E-03,8.77E-03
28206,2.47E-03,8.42E-03
28207,2.47E-03,8.13E-03
28208,2.48E-03,7.89E-03
28209,2.49E-03,7.70E-03
28210,2.49E-03,7.55E-03
28211,2.50E-03,7.44E-03
28212,2.51E-03,7.37E-03
28213,2.52E-03,7.33E-03
28214,2.52E-03,7.29E-03
28215,2.52E-03,7.22E-03
28216,2.51E-03,7.08E-03
28217,2.49E-03,6.85E-03
28218,2.48E-03,6.54E-03
28219,2.47E-03,6.20E-03
28220,2.46E-03,5.84E-03
28221,2.46E-03,5.49E-03
28222,2.45E-03,5.17E-03
28223,2.46E-03,4.88E-03
28224,2.47E-03,4.66E-03
28225,2.49E-03,4.50E-03
28226,2.51E-03,4.41E-03
28227,2.52E-03,4.36E-03
28228,2.53E-03,4.33E-03
28229,2.53E-03,4.29E-03
28230,2.53E-03,4.22E-03
28231,2.53E-03,4.11E-03
28232,2.53E-03,3.98E-03
28233,2.53E-03,3.82E-03
28234,2.53E-03,3.62E-03
28235,2.53E-03,3.40E-03
28236,2.52E-03,3.15E-03
28237,2.51E-03,2.87E-03
28238,2.48E-03,2.56E-03
28239,2.49E-03,2.24E-03
28240,2.49E-03,1.93E-03
28241,2.49E-03,1.63E-03
28242,2.48E-03,1.35E-03
28243,2.47E-03,1.10E-03
28244,2.47E-03,8.80E-04
28245,2.45E-03,6.84E-04
28246,2.44E-03,5.16E-04
28247,2.44E-03,3.73E-04
28248,2.45E-03,2.59E-04
28249,2.48E-03,1.83E-04
28250,2.50E-03,1.67E-04
28251,2.51E-03,2.12E-04
28252,2.52E-03,2.93E-04
28253,2.52E-03,3.98E-04
28254,2.52E-03,5.23E-04
28255,2.49E-03,6.64E-04
28256,2.48E-03,8.10E-04
28257,2.46E-03,9.37E-04
28258,2.46E-03,1.03E-03
28259,2.48E-03,1.10E-03
28260,2.49E-03,1.18E-03
28261,2.48E-03,1.26E-03
28262,2.47E-03,1.34E-03
28263,2.45E-03,1.41E-03
28264,2.45E-03,1.46E-03
28265,2.44E-03,1.49E-03
28266,2.44E-03,1.50E-03
28267,2.43E-03,1.49E-03
28268,2.43E-03,1.50E-03
28269,2.45E-03,1.52E-03
28270,2.46E-03,1.56E-03
28271,2.46E-03,1.61E-03
28272,2.47E-03,1.67E-03
28273,2.47E-03,1.73E-03
28274,2.47E-03,1.79E-03
28275,2.47E-03,1.85E-03
28276,2.47E-03,1.92E-03
28277,2.48E-03,1.98E-03
28278,2.49E-03,2.05E-03
28279,2.50E-03,2.15E-03
28280,2.46E-03,2.27E-03
28281,2.42E-03,2.38E-03
28282,2.38E-03,2.44E-03
28283,2.36E-03,2.46E-03
28284,2.32E-03,2.43E-03
28285,2.26E-03,2.37E-03
28286,2.19E-03,2.31E-03
28287,2.15E-03,2.25E-03
28288,2.18E-03,2.23E-03
28289,2.28E-03,2.25E-03
28290,2.21E-03,2.14E-03
28291,2.20E-03,1.97E-03
28292,2.27E-03,1.76E-03
28293,2.40E-03,1.53E-03
28294,2.47E-03,1.30E-03
28295,2.48E-03,1.06E-03
28296,2.47E-03,8.37E-04
28297,2.48E-03,6.70E-04
28298,2.49E-03,5.96E-04
28299,2.49E-03,6.47E-04
28300,2.51E-03,7.99E-04
28301,2.51E-03,1.01E-03
28302,2.51E-03,1.25E-03
28303,2.50E-03,1.50E-03
28304,2.50E-03,1.76E-03
28305,2.50E-03,2.03E-03
28306,2.50E-03,2.29E-03
28307,2.50E-03,2.57E-03
28308,2.50E-03,2.84E-03
28309,2.50E-03,3.11E-03
28310,2.50E-03,3.39E-03
28311,2.50E-03,3.67E-03
28312,2.50E-03,3.94E-03
28313,2.50E-03,4.22E-03
28314,2.50E-03,4.50E-03
28315,2.50E-03,4.78E-03
28316,2.50E-03,5.06E-03
28317,2.50E-03,5.33E-03
28318,2.50E-03,5.61E-03
28319,2.50E-03,5.89E-03
28320,2.50E-03,6.17E-03
28321,2.50E-03,6.45E-03
28322,2.50E-03,6.73E-03
28323,2.50E-03,7.00E-03
28324,2.50E-03,7.28E-03
28325,2.50E-03,7.56E-03
28326,2.50E-03,7.84E-03
28327,2.50E-03,8.12E-03
28328,2.50E-03,8.40E-03
28329,2.50E-03,8.68E-03
28330,2.50E-03,8.96E-03
28331,2.50E-03,9.24E-03
28332,2.50E-03,9.52E-03
28333,2.50E-03,9.80E-03
28334,2.50E-03,1.01E-02
28335,2.50E-03,1.04E-02
28336,2.50E-03,1.06E-02
28337,2.50E-03,1.09E-02
28338,2.49E-03,1.12E-02
28339,2.49E-03,1.15E-02
28340,2.49E-03,1.18E-02
28341,2.49E-03,1.21E-02
28342,2.49E-03,1.24E-02
28343,2.49E-03,1.26E-02
28344,2.49E-03,1.29E-02
28345,2.49E-03,1.32E-02
28346,2.49E-03,1.35E-02
28347,2.49E-03,1.38E-02
28348,2.49E-03,1.41E-02
28349,2.49E-03,1.44E-02
28350,2.50E-03,1.47E-02
28351,2.50E-03,1.50E-02
28352,2.50E-03,1.53E-02
28353,2.50E-03,1.56E-02
28354,2.50E-03,1.58E-02
28355,2.50E-03,1.61E-02
28356,2.50E-03,1.64E-02
28357,2.50E-03,1.67E-02
28358,2.49E-03,1.70E-02
28359,2.49E-03,1.73E-02
28360,2.49E-03,1.76E-02
28361,2.49E-03,1.79E-02
28362,2.48E-03,1.83E-02
28369,4.14E-03,1.18E-02
28370,3.14E-03,1.33E-02
28371,2.60E-03,2.80E-02
28372,2.27E-03,3.20E-02
28373,2.60E-03,4.23E-02
28374,2.54E-03,3.88E-02
28375,2.44E-03,2.95E-02
28376,1.79E-03,7.56E-03
28377,2.18E-03,8.22E-03
28378,2.69E-03,2.70E-02
28379,2.92E-03,7.46E-03
28380,3.30E-03,4.62E-03
28381,2.75E-03,1.73E-02
28382,2.33E-03,8.72E-03
28383,2.43E-03,9.29E-03
28384,2.49E-03,9.90E-03
28385,2.55E-03,1.06E-02
28386,2.60E-03,1.13E-02
28387,2.66E-03,1.21E-02
28388,2.66E-03,1.30E-02
28389,2.67E-03,1.40E-02
28390,2.68E-03,1.51E-02
28391,2.66E-03,1.62E-02
28392,2.63E-03,1.73E-02
28393,2.61E-03,1.84E-02
28394,2.61E-03,1.95E-02
28395,2.63E-03,2.07E-02
28396,2.70E-03,2.19E-02
28397,2.93E-03,2.30E-02
28398,2.89E-03,2.46E-02
28399,1.73E-03,6.25E-03
28400,2.31E-03,7.00E-03
28401,2.17E-03,6.54E-03
28402,2.50E-03,8.01E-03
28403,2.42E-03,7.49E-03
28404,2.62E-03,9.15E-03
28405,2.57E-03,8.56E-03
28406,2.69E-03,1.06E-02
28407,2.66E-03,9.80E-03
28408,2.70E-03,1.25E-02
28409,2.69E-03,1.15E-02
28410,2.62E-03,1.49E-02
28411,2.65E-03,1.37E-02
28412,2.55E-03,1.71E-02
28413,2.58E-03,1.61E-02
28414,2.64E-03,1.79E-02
28415,2.56E-03,1.78E-02
28416,2.61E-03,1.78E-02
28417,2.31E-03,1.85E-02
28418,2.84E-03,1.68E-02
28419,2.18E-03,1.87E-02
28420,3.21E-03,4.35E-02
28421,2.69E-03,3.16E-02
28422,2.64E-03,3.49E-02
28423,2.71E-03,2.62E-02
28424,2.76E-03,2.87E-02
28425,2.65E-03,2.26E-02
28426,2.66E-03,2.42E-02
28427,2.65E-03,1.99E-02
28428,2.63E-03,2.11E-02
28429,2.67E-03,1.75E-02
28430,2.64E-03,1.87E-02
28431,2.68E-03,1.53E-02
28432,2.69E-03,1.64E-02
28433,2.63E-03,1.34E-02
28434,2.66E-03,1.43E-02
28435,2.52E-03,1.18E-02
28436,2.60E-03,1.26E-02
28437,2.39E-03,1.04E-02
28438,2.46E-03,1.10E-02
28439,2.02E-03,6.36E-03
28440,2.48E-03,8.91E-03
28441,2.30E-03,9.69E-03
28442,2.79E-03,6.46E-03
28443,2.83E-03,8.15E-03
28444,2.93E-03,6.51E-03
28445,2.93E-03,6.26E-03
28446,2.15E-03,5.48E-03
28447,2.46E-03,5.89E-03
28448,3.20E-03,4.88E-02
28449,2.40E-03,6.03E-02
28450,1.49E-03,8.36E-02
28451,2.14E-03,3.79E-03
28452,2.49E-03,4.02E-03
28453,2.45E-03,4.31E-03
28454,2.11E-03,4.08E-03
28455,2.48E-03,4.26E-03
28456,2.74E-03,4.41E-03
28457,2.80E-03,4.56E-03
28458,2.60E-03,4.63E-03
28459,2.29E-03,4.79E-03
28460,2.26E-03,4.94E-03
28461,2.20E-03,5.04E-03
28462,2.33E-03,5.32E-03
28463,2.43E-03,5.72E-03
28464,2.50E-03,6.17E-03
28465,2.57E-03,6.60E-03
28466,2.63E-03,7.03E-03
28467,2.67E-03,7.50E-03
28468,2.71E-03,8.09E-03
28469,2.72E-03,8.88E-03
28470,2.72E-03,9.91E-03
28471,2.66E-03,1.12E-02
28472,2.60E-03,1.28E-02
28473,2.54E-03,1.44E-02
28474,2.48E-03,1.57E-02
28475,2.38E-03,1.59E-02
28476,2.26E-03,1.45E-02
28477,2.15E-03,1.22E-02
28478,2.29E-03,1.03E-02
28479,2.64E-03,7.70E-03
28480,2.91E-03,6.96E-03
28481,2.46E-03,6.86E-03
28482,2.02E-03,8.07E-03
28483,2.08E-03,1.28E-02
28484,1.76E-03,1.82E-02
28485,1.53E-03,7.33E-02
28486,2.21E-03,0.20235
28487,2.13E-03,0.11749
28488,2.34E-03,9.54E-02
28489,2.64E-03,7.64E-02
28490,2.88E-03,6.27E-02
28491,2.72E-03,5.27E-02
28492,2.60E-03,4.67E-02
28493,2.61E-03,4.16E-02
28494,2.63E-03,3.73E-02
28495,2.66E-03,3.37E-02
28496,2.67E-03,3.05E-02
28497,2.65E-03,2.79E-02
28498,2.63E-03,2.58E-02
28499,2.61E-03,2.40E-02
28500,2.64E-03,2.25E-02
28501,2.65E-03,2.11E-02
28502,2.65E-03,1.99E-02
28503,2.66E-03,1.87E-02
28504,2.68E-03,1.75E-02
28505,2.67E-03,1.65E-02
28506,2.65E-03,1.54E-02
28507,2.62E-03,1.45E-02
28508,2.55E-03,1.36E-02
28509,2.48E-03,1.27E-02
28510,2.42E-03,1.19E-02
28511,2.42E-03,1.11E-02
28512,2.50E-03,1.03E-02
28513,2.55E-03,9.66E-03
28514,3.00E-03,8.77E-03
28515,3.10E-03,8.10E-03
28516,2.76E-03,7.53E-03
28517,2.80E-03,6.96E-03
28518,3.14E-03,6.14E-03
28519,2.81E-03,5.78E-03
28520,2.53E-03,5.33E-03
28521,3.00E-03,4.05E-03
28522,2.16E-03,3.81E-03
28523,1.30E-03,3.61E-03
28542,3.83E-03,1.98E-03
28543,2.32E-03,3.85E-03
28544,3.54E-03,3.62E-03
28545,3.29E-03,3.61E-03
28546,3.06E-03,8.26E-04
28547,2.69E-03,9.15E-04
28548,3.38E-03,8.15E-04
28549,3.73E-03,5.76E-04
28550,3.76E-03,9.56E-04
28551,3.83E-03,8.59E-04
28552,3.87E-03,1.06E-02
28553,2.62E-03,1.07E-02
28554,3.19E-03,1.05E-02
28555,2.49E-03,2.17E-03
28556,2.11E-03,2.20E-03
28557,2.56E-03,2.44E-03
28558,2.85E-03,1.22E-02
28559,2.59E-03,1.20E-02
28560,2.48E-03,1.23E-02
28561,2.52E-03,1.25E-02
28562,1.71E-03,1.18E-02
28563,2.46E-03,1.20E-02
28564,2.39E-03,6.87E-03
28565,2.19E-03,6.84E-03
28566,2.86E-03,6.63E-03
28567,2.59E-03,6.64E-03
28568,2.72E-03,6.85E-03
28569,2.54E-03,6.89E-03
28570,2.44E-03,3.24E-03
28571,2.12E-03,3.03E-03
28572,1.86E-03,4.06E-03
28573,2.50E-03,1.56E-03
28574,2.87E-03,1.72E-03
28575,2.66E-03,1.84E-03
28576,3.35E-03,1.33E-03
28577,2.52E-03,1.19E-03
28578,2.85E-03,8.27E-04
28579,2.85E-03,9.62E-04
28580,2.57E-03,9.59E-04
28581,3.64E-03,2.98E-03
28582,3.07E-03,3.21E-03
28583,2.41E-03,2.99E-03
28584,2.87E-03,2.81E-03
28585,2.67E-03,6.64E-03
28586,2.46E-03,6.35E-03
28587,2.57E-03,6.36E-03
28588,3.03E-03,6.66E-03
28589,2.41E-03,6.90E-03
28590,2.52E-03,7.16E-03
28591,2.32E-03,7.19E-03
28592,2.20E-03,6.95E-03
28593,1.28E-03,2.95E-03
28594,1.41E-03,2.80E-03
28595,1.50E-03,2.89E-03
28596,1.85E-03,5.68E-03
28597,1.72E-03,5.71E-03
28598,1.79E-03,5.54E-03
28599,1.58E-03,6.66E-04
28600,1.95E-03,7.61E-04
28601,1.56E-03,6.65E-04
28602,1.98E-03,3.08E-03
28603,2.13E-03,3.16E-03
28604,2.48E-03,3.29E-03
28605,2.05E-03,6.46E-04
28606,2.21E-03,6.10E-04
28607,2.45E-03,7.33E-04
28608,1.60E-03,1.21E-02
28609,1.56E-03,1.18E-02
28610,1.54E-03,1.16E-02
28611,1.91E-03,3.33E-03
28612,1.88E-03,3.35E-03
28613,1.65E-03,3.16E-03
28614,2.34E-03,1.02E-02
28615,2.89E-03,1.02E-02
28616,2.09E-03,1.00E-02
28617,1.80E-03,1.01E-02
28618,2.23E-03,1.15E-02
28619,2.94E-03,1.13E-02
28620,2.98E-03,1.14E-02
28621,1.87E-03,1.12E-02
28622,2.59E-03,1.04E-02
28623,2.33E-03,1.02E-02
28624,2.57E-03,1.21E-02
28625,3.53E-03,7.33E-04
28626,2.89E-03,1.10E-02
28627,2.19E-03,1.10E-02
28628,2.68E-03,6.63E-03
28629,2.66E-03,6.63E-03
28630,2.81E-03,6.62E-03
28631,2.73E-03,6.62E-03
28632,2.41E-03,4.07E-03
28633,2.38E-03,3.86E-03
28634,2.64E-03,1.04E-02
28635,2.84E-03,1.80E-03
28636,2.91E-03,1.85E-03
28637,3.08E-03,3.90E-03
28638,3.08E-03,3.91E-03
28639,1.98E-03,6.17E-04
28640,1.97E-03,6.20E-04
28641,2.32E-03,1.70E-03
28642,2.47E-03,1.60E-03
28643,2.27E-03,7.51E-04
28644,1.70E-03,6.21E-04
28645,2.56E-03,2.68E-03
28646,2.25E-03,2.88E-03
28647,2.26E-03,8.84E-04
28648,2.58E-03,9.02E-04
28649,1.89E-03,3.98E-03
28650,8.79E-04,4.75E-03
28651,1.68E-03,4.92E-03
28652,1.90E-03,4.86E-03
28653,2.36E-03,1.02E-02
28654,2.57E-03,1.21E-02
28655,2.33E-03,4.07E-03
28656,2.33E-03,6.82E-03
28657,1.81E-03,6.67E-03
28658,1.59E-03,6.48E-03
28659,1.83E-03,6.54E-03
28660,2.63E-03,6.58E-03
28661,2.03E-03,6.53E-03
28662,1.80E-03,6.73E-03
28663,2.15E-03,6.33E-03
28664,2.12E-03,6.31E-03
28665,2.15E-03,6.72E-03
28666,1.72E-03,6.77E-03
28667,2.17E-03,6.97E-03
28668,2.14E-03,6.69E-03
28669,2.14E-03,6.58E-03
28670,2.41E-03,6.56E-03
28671,1.97E-03,6.95E-03
28672,2.10E-03,6.29E-03
28673,2.26E-03,6.31E-03
28674,2.24E-03,6.07E-03
28675,2.27E-03,6.06E-03
28676,2.17E-03,6.54E-03
28677,1.87E-03,6.93E-03
28678,2.66E-03,6.89E-03
28679,2.23E-03,6.91E-03
28680,2.07E-03,6.81E-03
28681,1.63E-03,6.89E-03
28682,2.41E-03,6.59E-03
28683,2.66E-03,6.62E-03
28684,2.08E-03,6.82E-03
28685,1.97E-03,6.82E-03
28686,2.28E-03,6.81E-03
28687,2.20E-03,6.81E-03
28688,2.54E-03,6.82E-03
28689,2.50E-03,6.58E-03
28690,2.82E-03,6.85E-03
28691,2.65E-03,6.83E-03
28692,2.38E-03,6.89E-03
28693,2.30E-03,6.89E-03
28694,2.21E-03,6.91E-03
28695,2.31E-03,6.91E-03
28696,1.60E-03,7.00E-03
28697,2.08E-03,6.65E-03
28698,2.10E-03,6.64E-03
28699,1.99E-03,6.68E-03
28700,2.32E-03,6.63E-03
28701,2.38E-03,6.65E-03
28702,2.24E-03,6.60E-03
28703,2.53E-03,6.57E-03
28704,2.17E-03,6.55E-03
28705,2.63E-03,6.66E-03
28706,2.48E-03,6.59E-03
28707,2.51E-03,6.58E-03
28708,2.40E-03,6.57E-03
28709,2.72E-03,6.62E-03
28710,2.64E-03,6.61E-03
28711,2.37E-03,6.57E-03
28712,2.31E-03,6.56E-03
28713,2.41E-03,6.60E-03
28714,2.50E-03,6.79E-03
28715,3.33E-03,6.55E-03
28716,3.09E-03,6.61E-03
28717,2.15E-03,7.19E-03
28718,2.28E-03,7.12E-03
28719,2.21E-03,7.19E-03
28720,2.12E-03,7.19E-03
28721,2.16E-03,7.17E-03
28722,1.23E-03,6.86E-03
28723,1.88E-03,7.04E-03
28724,1.99E-03,6.90E-03
28725,2.01E-03,6.73E-03
28726,2.61E-03,6.55E-03
28727,2.81E-03,6.61E-03
28728,2.25E-03,6.48E-03
28729,2.18E-03,6.31E-03
28730,2.44E-03,6.32E-03
28731,2.51E-03,6.33E-03
28732,2.52E-03,6.33E-03
28733,2.43E-03,6.32E-03
28734,2.61E-03,6.35E-03
28735,2.72E-03,6.32E-03
28736,2.76E-03,6.28E-03
28737,3.04E-03,6.46E-03
28738,2.90E-03,6.72E-03
28739,2.21E-03,6.06E-03
28740,2.30E-03,6.06E-03
28741,2.27E-03,5.81E-03
28742,2.29E-03,5.81E-03
28743,2.10E-03,7.00E-03
28744,3.01E-03,6.90E-03
28745,2.28E-03,6.95E-03
28746,2.71E-03,6.90E-03
28747,2.78E-03,6.90E-03
28748,2.69E-03,6.90E-03
28749,2.68E-03,6.90E-03
28750,2.89E-03,6.86E-03
28751,2.72E-03,6.90E-03
28752,2.77E-03,6.91E-03
28753,2.79E-03,6.89E-03
28754,2.57E-03,6.95E-03
28755,2.82E-03,6.93E-03
28756,2.35E-03,7.04E-03
28757,2.15E-03,7.05E-03
28758,2.34E-03,7.05E-03
28759,2.38E-03,7.05E-03
28760,2.75E-03,6.98E-03
28761,2.10E-03,7.06E-03
28762,2.75E-03,7.00E-03
28763,3.06E-03,6.98E-03
28764,2.48E-03,7.08E-03
28765,2.29E-03,7.08E-03
28766,2.59E-03,7.13E-03
28767,2.60E-03,7.09E-03
28768,2.32E-03,7.16E-03
28769,2.38E-03,7.15E-03
28770,2.45E-03,7.14E-03
28771,2.40E-03,7.15E-03
28772,2.64E-03,7.13E-03
28773,2.15E-03,7.22E-03
28774,2.07E-03,7.20E-03
28775,2.01E-03,7.14E-03
28776,2.80E-03,6.62E-03
28777,2.85E-03,6.63E-03
28778,2.19E-03,6.43E-03
28779,2.19E-03,6.44E-03
28780,2.23E-03,6.40E-03
28781,2.21E-03,6.42E-03
28782,2.31E-03,6.36E-03
28783,2.27E-03,6.38E-03
28784,2.24E-03,6.34E-03
28785,2.49E-03,6.32E-03
28786,2.47E-03,6.35E-03
28787,2.52E-03,6.37E-03
28788,2.45E-03,6.32E-03
28789,2.42E-03,6.33E-03
28790,2.44E-03,6.33E-03
28791,2.40E-03,6.32E-03
28792,2.52E-03,6.33E-03
28793,2.49E-03,6.34E-03
28794,2.51E-03,6.33E-03
28795,2.53E-03,6.34E-03
28796,2.37E-03,6.32E-03
28797,2.44E-03,6.33E-03
28798,2.45E-03,6.33E-03
28799,2.66E-03,6.35E-03
28800,2.62E-03,6.35E-03
28801,2.69E-03,6.34E-03
28802,3.28E-03,6.19E-03
28803,3.16E-03,6.41E-03
28804,3.06E-03,6.69E-03
28805,2.88E-03,7.00E-03
28806,2.24E-03,7.45E-03
28807,2.23E-03,7.45E-03
28808,2.26E-03,7.43E-03
28809,2.45E-03,6.30E-03
28810,2.63E-03,6.35E-03
28811,2.39E-03,6.24E-03
28812,2.23E-03,6.07E-03
28813,2.39E-03,6.06E-03
28814,2.52E-03,6.08E-03
28815,2.45E-03,6.07E-03
28816,2.47E-03,6.09E-03
28817,2.49E-03,6.07E-03
28818,2.45E-03,6.07E-03
28819,2.53E-03,6.08E-03
28820,2.27E-03,5.82E-03
28821,2.34E-03,5.81E-03
28822,3.00E-03,6.56E-03
28823,3.29E-03,6.36E-03
28824,3.02E-03,6.31E-03
28825,2.32E-03,5.56E-03
28826,2.32E-03,5.56E-03
28827,3.54E-03,6.10E-03
28828,2.08E-03,5.94E-03
28829,2.04E-03,5.78E-03
28830,3.17E-03,5.82E-03
28831,3.03E-03,7.23E-03
28832,2.97E-03,6.97E-03
28833,2.41E-03,7.21E-03
28834,2.52E-03,7.24E-03
28835,2.49E-03,7.20E-03
28836,2.36E-03,7.20E-03
28837,2.66E-03,7.17E-03
28838,2.64E-03,7.18E-03
28839,2.66E-03,7.17E-03
28840,2.65E-03,7.17E-03
28841,3.08E-03,7.13E-03
28842,2.75E-03,7.16E-03
28843,2.78E-03,7.16E-03
28844,2.94E-03,7.14E-03
28845,2.74E-03,7.18E-03
28846,2.73E-03,7.17E-03
28847,2.62E-03,7.21E-03
28848,2.73E-03,7.21E-03
28849,2.44E-03,7.28E-03
28850,2.46E-03,7.25E-03
28851,2.55E-03,7.29E-03
28852,2.43E-03,7.29E-03
28853,2.55E-03,7.27E-03
28854,2.51E-03,7.28E-03
28855,2.63E-03,7.29E-03
28856,2.63E-03,7.29E-03
28857,2.49E-03,7.34E-03
28858,2.55E-03,7.31E-03
28859,2.50E-03,7.39E-03
28860,2.52E-03,7.36E-03
28861,2.41E-03,7.41E-03
28862,2.43E-03,7.41E-03
28863,2.37E-03,7.42E-03
28864,2.29E-03,7.40E-03
28865,2.44E-03,7.40E-03
28866,2.42E-03,7.41E-03
28867,2.47E-03,7.42E-03
28868,2.45E-03,7.40E-03
28869,2.28E-03,7.45E-03
28870,2.38E-03,7.44E-03
28871,2.24E-03,7.45E-03
28872,2.95E-03,7.29E-03
28873,2.30E-03,7.39E-03
28874,3.27E-03,7.21E-03
28875,3.21E-03,6.88E-03
28876,3.29E-03,6.38E-03
28877,2.30E-03,6.18E-03
28878,2.32E-03,6.20E-03
28879,2.28E-03,6.14E-03
28880,2.29E-03,6.16E-03
28881,2.30E-03,6.11E-03
28882,2.29E-03,6.13E-03
28883,2.26E-03,6.09E-03
28884,2.45E-03,6.06E-03
28885,2.48E-03,6.09E-03
28886,2.50E-03,6.09E-03
28887,2.44E-03,6.07E-03
28888,2.45E-03,6.08E-03
28889,2.42E-03,6.07E-03
28890,2.43E-03,6.07E-03
28891,2.47E-03,6.07E-03
28892,2.43E-03,6.06E-03
28893,2.46E-03,6.07E-03
28894,2.48E-03,6.07E-03
28895,2.42E-03,6.07E-03
28896,2.43E-03,6.07E-03
28897,2.42E-03,6.06E-03
28898,2.57E-03,6.08E-03
28899,2.54E-03,6.08E-03
28900,2.55E-03,6.05E-03
28901,2.57E-03,6.07E-03
28902,2.46E-03,6.02E-03
28903,2.53E-03,6.04E-03
28904,2.65E-03,6.09E-03
28905,2.43E-03,5.99E-03
28906,2.28E-03,5.83E-03
28907,2.38E-03,5.81E-03
28908,2.47E-03,5.82E-03
28909,2.47E-03,5.81E-03
28910,2.43E-03,5.83E-03
28911,2.46E-03,5.81E-03
28912,2.44E-03,5.81E-03
28913,2.50E-03,5.82E-03
28914,1.82E-03,5.73E-03
28915,2.67E-03,7.59E-03
28916,2.95E-03,7.54E-03
28917,2.74E-03,6.56E-03
28918,2.88E-03,6.27E-03
28919,3.12E-03,6.08E-03
28920,3.16E-03,6.06E-03
28921,2.32E-03,5.56E-03
28922,2.36E-03,5.56E-03
28923,3.14E-03,6.09E-03
28924,3.02E-03,5.82E-03
28925,2.70E-03,7.19E-03
28926,2.45E-03,7.48E-03
28927,2.30E-03,7.71E-03
28928,2.31E-03,7.70E-03
28929,2.36E-03,7.69E-03
28930,2.47E-03,7.44E-03
28931,2.33E-03,5.31E-03
28932,2.35E-03,5.30E-03
28933,3.08E-03,6.66E-03
28934,3.13E-03,6.37E-03
28935,2.94E-03,6.93E-03
28936,2.23E-03,7.44E-03
28937,2.38E-03,7.47E-03
28938,2.17E-03,7.49E-03
28939,2.45E-03,7.46E-03
28940,2.38E-03,7.47E-03
28941,2.60E-03,7.44E-03
28942,2.53E-03,7.45E-03
28943,2.69E-03,7.43E-03
28944,2.65E-03,7.44E-03
28945,2.74E-03,7.42E-03
28946,2.73E-03,7.42E-03
28947,2.79E-03,7.43E-03
28948,2.83E-03,7.42E-03
28949,2.72E-03,7.45E-03
28950,2.73E-03,7.44E-03
28951,2.68E-03,7.48E-03
28952,2.70E-03,7.46E-03
28953,2.52E-03,7.52E-03
28954,2.56E-03,7.49E-03
28955,2.52E-03,7.53E-03
28956,2.51E-03,7.53E-03
28957,2.54E-03,7.55E-03
28958,2.53E-03,7.54E-03
28959,2.60E-03,7.57E-03
28960,2.59E-03,7.55E-03
28961,2.53E-03,7.60E-03
28962,2.54E-03,7.58E-03
28963,2.48E-03,7.64E-03
28964,2.49E-03,7.62E-03
28965,2.42E-03,7.67E-03
28966,2.46E-03,7.66E-03
28967,2.40E-03,7.67E-03
28968,2.37E-03,7.68E-03
28969,2.45E-03,7.67E-03
28970,2.42E-03,7.67E-03
28971,2.49E-03,7.67E-03
28972,2.46E-03,7.67E-03
28973,2.35E-03,7.70E-03
28974,2.42E-03,7.69E-03
28975,2.32E-03,7.71E-03
28976,2.45E-03,7.64E-03
28977,3.03E-03,7.18E-03
28978,2.93E-03,6.87E-03
28979,2.96E-03,6.11E-03
28980,2.34E-03,5.92E-03
28981,2.38E-03,5.95E-03
28982,2.32E-03,5.88E-03
28983,2.33E-03,5.90E-03
28984,2.33E-03,5.85E-03
28985,2.31E-03,5.87E-03
28986,2.29E-03,5.84E-03
28987,2.43E-03,5.81E-03
28988,2.47E-03,5.83E-03
28989,2.47E-03,5.83E-03
28990,2.45E-03,5.82E-03
28991,2.45E-03,5.83E-03
28992,2.41E-03,5.81E-03
28993,2.43E-03,5.82E-03
28994,2.43E-03,5.81E-03
28995,2.41E-03,5.81E-03
28996,2.45E-03,5.81E-03
28997,2.45E-03,5.81E-03
28998,2.43E-03,5.81E-03
28999,2.44E-03,5.81E-03
29000,2.42E-03,5.81E-03
29001,2.51E-03,5.81E-03
29002,2.51E-03,5.82E-03
29003,2.43E-03,5.78E-03
29004,2.49E-03,5.80E-03
29005,2.26E-03,5.75E-03
29006,2.36E-03,7.97E-03
29007,2.35E-03,7.97E-03
29008,2.95E-03,7.49E-03
29009,2.82E-03,6.03E-03
29010,2.78E-03,5.82E-03
29011,2.50E-03,5.77E-03
29012,2.52E-03,5.82E-03
29013,2.46E-03,5.73E-03
29014,2.33E-03,5.57E-03
29015,2.37E-03,5.55E-03
29016,2.40E-03,5.56E-03
29017,2.41E-03,5.55E-03
29018,2.43E-03,5.57E-03
29019,2.44E-03,5.56E-03
29020,2.43E-03,5.55E-03
29021,2.45E-03,5.56E-03
29022,2.31E-03,5.55E-03
29023,2.25E-03,5.53E-03
29024,3.00E-03,6.08E-03
29025,2.96E-03,5.81E-03
29026,2.56E-03,5.54E-03
29027,2.72E-03,7.15E-03
29028,2.54E-03,7.41E-03
29029,2.18E-03,7.69E-03
29030,2.32E-03,7.71E-03
29031,2.33E-03,5.31E-03
29032,2.38E-03,5.30E-03
29033,2.34E-03,5.05E-03
29034,2.34E-03,5.05E-03
29035,2.43E-03,7.95E-03
29036,2.90E-03,6.63E-03
29037,2.98E-03,6.35E-03
29038,2.84E-03,6.89E-03
29039,2.23E-03,7.71E-03
29040,2.11E-03,7.73E-03
29041,2.33E-03,7.74E-03
29042,2.27E-03,7.73E-03
29043,2.45E-03,7.72E-03
29044,2.42E-03,7.73E-03
29045,2.56E-03,7.71E-03
29046,2.52E-03,7.72E-03
29047,2.63E-03,7.70E-03
29048,2.58E-03,7.71E-03
29049,2.65E-03,7.70E-03
29050,2.66E-03,7.70E-03
29051,2.73E-03,7.70E-03
29052,2.71E-03,7.69E-03
29053,2.74E-03,7.72E-03
29054,2.73E-03,7.71E-03
29055,2.63E-03,7.74E-03
29056,2.72E-03,7.73E-03
29057,2.54E-03,7.76E-03
29058,2.58E-03,7.75E-03
29059,2.55E-03,7.79E-03
29060,2.54E-03,7.78E-03
29061,2.55E-03,7.81E-03
29062,2.54E-03,7.80E-03
29063,2.56E-03,7.83E-03
29064,2.55E-03,7.82E-03
29065,2.51E-03,7.86E-03
29066,2.53E-03,7.85E-03
29067,2.47E-03,7.90E-03
29068,2.49E-03,7.88E-03
29069,2.40E-03,7.93E-03
29070,2.45E-03,7.92E-03
29071,2.42E-03,7.94E-03
29072,2.39E-03,7.94E-03
29073,2.43E-03,7.93E-03
29074,2.42E-03,7.93E-03
29075,2.48E-03,7.94E-03
29076,2.45E-03,7.93E-03
29077,2.39E-03,7.96E-03
29078,2.43E-03,7.95E-03
29079,2.37E-03,7.97E-03
29080,2.61E-03,7.88E-03
29081,2.50E-03,7.92E-03
29082,2.86E-03,7.81E-03
29083,2.82E-03,7.84E-03
29084,2.95E-03,7.78E-03
29085,2.91E-03,7.17E-03
29086,2.93E-03,7.48E-03
29087,2.90E-03,6.56E-03
29088,2.84E-03,6.86E-03
29089,3.07E-03,5.96E-03
29090,2.85E-03,6.26E-03
29091,2.58E-03,5.79E-03
29092,2.93E-03,5.78E-03
29093,2.62E-03,5.85E-03
29094,2.38E-03,5.66E-03
29095,2.42E-03,5.69E-03
29096,2.33E-03,5.63E-03
29097,2.35E-03,5.64E-03
29098,2.35E-03,5.60E-03
29099,2.33E-03,5.61E-03
29100,2.34E-03,5.58E-03
29101,2.40E-03,5.55E-03
29102,2.46E-03,5.57E-03
29103,2.45E-03,5.57E-03
29104,2.44E-03,5.57E-03
29105,2.45E-03,5.57E-03
29106,2.40E-03,5.56E-03
29107,2.43E-03,5.56E-03
29108,2.40E-03,5.55E-03
29109,2.41E-03,5.56E-03
29110,2.42E-03,5.55E-03
29111,2.41E-03,5.55E-03
29112,2.40E-03,5.55E-03
29113,2.41E-03,5.55E-03
29114,2.42E-03,5.55E-03
29115,2.46E-03,5.55E-03
29116,2.46E-03,5.56E-03
29117,2.37E-03,5.53E-03
29118,2.42E-03,5.54E-03
29119,2.29E-03,5.52E-03
29120,2.85E-03,5.54E-03
29121,2.80E-03,5.55E-03
29122,2.88E-03,5.79E-03
29123,2.86E-03,6.06E-03
29124,2.87E-03,5.52E-03
29125,2.55E-03,7.68E-03
29126,2.50E-03,5.50E-03
29127,2.56E-03,5.54E-03
29128,2.46E-03,5.46E-03
29129,2.35E-03,5.31E-03
29130,2.38E-03,5.30E-03
29131,2.41E-03,5.31E-03
29132,2.41E-03,5.30E-03
29133,2.42E-03,5.31E-03
29134,2.41E-03,5.30E-03
29135,2.41E-03,5.30E-03
29136,2.40E-03,5.31E-03
29137,2.35E-03,5.74E-03
29138,2.90E-03,5.95E-03
29139,2.04E-03,5.59E-03
29140,2.52E-03,5.65E-03
29141,2.36E-03,5.05E-03
29142,2.37E-03,5.29E-03
29143,2.35E-03,7.94E-03
29144,2.22E-03,7.94E-03
29145,2.45E-03,5.28E-03
29146,2.57E-03,5.28E-03
29147,2.24E-03,5.54E-03
29148,2.46E-03,8.22E-03
29149,2.43E-03,8.23E-03
29150,2.39E-03,8.24E-03
29151,2.07E-03,5.56E-03
29152,1.83E-03,5.51E-03
29153,2.34E-03,5.51E-03
29154,2.37E-03,5.05E-03
29155,2.34E-03,4.80E-03
29156,2.34E-03,4.80E-03
29157,2.83E-03,6.60E-03
29158,2.85E-03,6.33E-03
29159,2.70E-03,7.12E-03
29160,2.75E-03,6.86E-03
29161,2.79E-03,5.26E-03
29162,2.84E-03,5.25E-03
29163,2.42E-03,7.91E-03
29164,2.49E-03,7.63E-03
29165,2.60E-03,7.38E-03
29166,2.26E-03,7.98E-03
29167,2.23E-03,7.96E-03
29168,2.33E-03,7.99E-03
29169,2.29E-03,7.98E-03
29170,2.41E-03,7.99E-03
29171,2.40E-03,7.99E-03
29172,2.52E-03,7.98E-03
29173,2.48E-03,7.98E-03
29174,2.58E-03,7.97E-03
29175,2.56E-03,7.98E-03
29176,2.65E-03,7.96E-03
29177,2.62E-03,7.97E-03
29178,2.69E-03,7.97E-03
29179,2.67E-03,7.96E-03
29180,2.71E-03,7.98E-03
29181,2.70E-03,7.97E-03
29182,2.66E-03,8.00E-03
29183,2.70E-03,7.99E-03
29184,2.59E-03,8.02E-03
29185,2.63E-03,8.01E-03
29186,2.57E-03,8.05E-03
29187,2.59E-03,8.03E-03
29188,2.54E-03,8.08E-03
29189,2.55E-03,8.07E-03
29190,2.56E-03,8.09E-03
29191,2.53E-03,8.09E-03
29192,2.55E-03,8.12E-03
29193,2.55E-03,8.11E-03
29194,2.46E-03,8.16E-03
29195,2.51E-03,8.14E-03
29196,2.43E-03,8.20E-03
29197,2.44E-03,8.18E-03
29198,2.43E-03,8.20E-03
29199,2.40E-03,8.20E-03
29200,2.45E-03,8.20E-03
29201,2.43E-03,8.20E-03
29202,2.50E-03,8.20E-03
29203,2.49E-03,8.20E-03
29204,2.40E-03,8.23E-03
29205,2.45E-03,8.21E-03
29206,2.40E-03,8.23E-03
29207,2.59E-03,8.17E-03
29208,2.52E-03,8.20E-03
29209,2.79E-03,8.11E-03
29210,2.77E-03,8.14E-03
29211,2.91E-03,7.76E-03
29212,2.89E-03,8.07E-03
29213,2.86E-03,8.09E-03
29214,2.89E-03,7.16E-03
29215,2.89E-03,7.46E-03
29216,2.84E-03,6.55E-03
29217,2.86E-03,6.86E-03
29218,2.81E-03,6.25E-03
29219,2.31E-03,5.49E-03
29220,2.55E-03,5.55E-03
29221,2.41E-03,5.40E-03
29222,2.42E-03,5.43E-03
29223,2.35E-03,5.37E-03
29224,2.38E-03,5.38E-03
29225,2.37E-03,5.34E-03
29226,2.36E-03,5.35E-03
29227,2.37E-03,5.33E-03
29228,2.40E-03,5.30E-03
29229,2.45E-03,5.32E-03
29230,2.44E-03,5.32E-03
29231,2.44E-03,5.31E-03
29232,2.46E-03,5.32E-03
29233,2.40E-03,5.31E-03
29234,2.42E-03,5.31E-03
29235,2.39E-03,5.30E-03
29236,2.38E-03,5.30E-03
29237,2.37E-03,5.30E-03
29238,2.36E-03,5.30E-03
29239,2.39E-03,5.30E-03
29240,2.39E-03,5.30E-03
29241,2.40E-03,5.30E-03
29242,2.42E-03,5.30E-03
29243,2.41E-03,5.31E-03
29244,2.37E-03,5.29E-03
29245,2.39E-03,5.30E-03
29246,2.33E-03,5.29E-03
29247,2.71E-03,5.27E-03
29248,2.84E-03,5.78E-03
29249,2.84E-03,6.05E-03
29250,2.87E-03,5.51E-03
29251,2.15E-03,8.20E-03
29252,2.08E-03,8.15E-03
29253,2.26E-03,8.20E-03
29254,2.42E-03,8.51E-03
29255,2.46E-03,8.50E-03
29256,2.73E-03,5.96E-03
29257,2.53E-03,5.69E-03
29258,2.23E-03,5.29E-03
29259,2.15E-03,5.34E-03
29260,2.15E-03,5.25E-03
29261,2.26E-03,5.27E-03
29262,2.37E-03,5.28E-03
29263,2.48E-03,5.23E-03
29264,2.48E-03,5.26E-03
29265,2.47E-03,5.19E-03
29266,2.36E-03,5.06E-03
29267,2.37E-03,5.04E-03
29268,2.39E-03,5.05E-03
29269,2.40E-03,5.05E-03
29270,2.42E-03,5.06E-03
29271,2.39E-03,5.06E-03
29272,2.41E-03,5.05E-03
29273,2.40E-03,5.06E-03
29274,2.48E-03,5.04E-03
29275,2.41E-03,5.04E-03
29276,2.55E-03,5.03E-03
29277,2.86E-03,7.75E-03
29278,2.89E-03,8.05E-03
29279,2.36E-03,4.80E-03
29280,2.37E-03,4.80E-03
29281,2.37E-03,4.55E-03
29282,2.37E-03,4.55E-03
29283,2.74E-03,5.00E-03
29284,2.80E-03,4.99E-03
29285,2.29E-03,7.87E-03
29286,2.39E-03,8.51E-03
29287,2.72E-03,6.58E-03
29288,2.80E-03,6.32E-03
29289,2.62E-03,7.09E-03
29290,2.67E-03,6.84E-03
29291,2.49E-03,7.59E-03
29292,2.56E-03,7.34E-03
29293,2.89E-03,5.24E-03
29294,2.43E-03,7.83E-03
29295,2.24E-03,8.12E-03
29296,2.12E-03,8.16E-03
29297,2.33E-03,8.22E-03
29298,2.29E-03,8.21E-03
29299,2.34E-03,8.24E-03
29300,2.32E-03,8.23E-03
29301,2.41E-03,8.25E-03
29302,2.38E-03,8.25E-03
29303,2.48E-03,8.25E-03
29304,2.44E-03,8.25E-03
29305,2.55E-03,8.24E-03
29306,2.51E-03,8.24E-03
29307,2.60E-03,8.23E-03
29308,2.60E-03,8.24E-03
29309,2.64E-03,8.23E-03
29310,2.62E-03,8.23E-03
29311,2.72E-03,8.24E-03
29312,2.68E-03,8.23E-03
29313,2.68E-03,8.26E-03
29314,2.69E-03,8.25E-03
29315,2.62E-03,8.28E-03
29316,2.64E-03,8.27E-03
29317,2.57E-03,8.31E-03
29318,2.59E-03,8.30E-03
29319,2.52E-03,8.34E-03
29320,2.53E-03,8.33E-03
29321,2.55E-03,8.36E-03
29322,2.53E-03,8.35E-03
29323,2.55E-03,8.39E-03
29324,2.55E-03,8.37E-03
29325,2.47E-03,8.43E-03
29326,2.50E-03,8.41E-03
29327,2.43E-03,8.46E-03
29328,2.44E-03,8.45E-03
29329,2.42E-03,8.47E-03
29330,2.41E-03,8.47E-03
29331,2.47E-03,8.47E-03
29332,2.46E-03,8.47E-03
29333,2.48E-03,8.47E-03
29334,2.48E-03,8.47E-03
29335,2.43E-03,8.49E-03
29336,2.47E-03,8.48E-03
29337,2.41E-03,8.50E-03
29338,2.56E-03,8.46E-03
29339,2.52E-03,8.48E-03
29340,2.77E-03,8.41E-03
29341,2.71E-03,8.43E-03
29342,2.88E-03,8.37E-03
29343,2.82E-03,8.39E-03
29344,2.85E-03,7.15E-03
29345,2.84E-03,7.45E-03
29346,2.79E-03,6.56E-03
29347,2.79E-03,6.85E-03
29348,2.75E-03,6.26E-03
29349,2.44E-03,5.41E-03
29350,2.31E-03,5.37E-03
29351,2.21E-03,5.26E-03
29352,2.47E-03,5.27E-03
29353,2.42E-03,5.14E-03
29354,2.45E-03,5.16E-03
29355,2.36E-03,5.11E-03
29356,2.38E-03,5.12E-03
29357,2.38E-03,5.08E-03
29358,2.35E-03,5.10E-03
29359,2.38E-03,5.07E-03
29360,2.40E-03,5.04E-03
29361,2.44E-03,5.07E-03
29362,2.43E-03,5.07E-03
29363,2.45E-03,5.06E-03
29364,2.45E-03,5.07E-03
29365,2.40E-03,5.06E-03
29366,2.40E-03,5.06E-03
29367,2.37E-03,5.05E-03
29368,2.37E-03,5.05E-03
29369,2.37E-03,5.05E-03
29370,2.37E-03,5.05E-03
29371,2.40E-03,5.05E-03
29372,2.39E-03,5.05E-03
29373,2.38E-03,5.05E-03
29374,2.40E-03,5.06E-03
29375,2.40E-03,5.06E-03
29376,2.37E-03,5.05E-03
29377,2.38E-03,5.06E-03
29378,2.38E-03,5.05E-03
29379,2.65E-03,5.02E-03
29380,2.82E-03,5.77E-03
29381,2.73E-03,6.04E-03
29382,2.89E-03,5.50E-03
29383,2.21E-03,8.42E-03
29384,2.22E-03,8.44E-03
29385,2.94E-03,8.35E-03
29386,2.30E-03,5.00E-03
29387,2.38E-03,5.01E-03
29388,2.46E-03,4.96E-03
29389,2.43E-03,4.99E-03
29390,2.46E-03,4.93E-03
29391,2.36E-03,4.80E-03
29392,2.37E-03,4.79E-03
29393,2.41E-03,4.80E-03
29394,2.39E-03,4.80E-03
29395,2.42E-03,4.81E-03
29396,2.40E-03,4.81E-03
29397,2.41E-03,4.81E-03
29398,2.40E-03,4.82E-03
29399,2.47E-03,4.79E-03
29400,2.41E-03,4.80E-03
29401,2.55E-03,4.78E-03
29402,2.38E-03,4.54E-03
29403,2.37E-03,4.55E-03
29404,2.45E-03,5.43E-03
29405,2.36E-03,5.14E-03
29406,2.36E-03,5.17E-03
29407,2.71E-03,4.75E-03
29408,2.75E-03,4.73E-03
29409,2.86E-03,4.98E-03
29410,2.37E-03,8.08E-03
29411,2.17E-03,5.06E-03
29412,2.40E-03,8.78E-03
29413,2.42E-03,8.78E-03
29414,2.44E-03,8.77E-03
29415,2.18E-03,5.03E-03
29416,2.21E-03,5.02E-03
29417,2.73E-03,6.56E-03
29418,2.76E-03,6.31E-03
29419,2.62E-03,7.07E-03
29420,2.62E-03,6.82E-03
29421,2.50E-03,7.55E-03
29422,2.53E-03,7.31E-03
29423,2.92E-03,5.24E-03
29424,2.44E-03,8.04E-03
29425,2.46E-03,7.79E-03
29426,2.29E-03,8.37E-03
29427,2.26E-03,8.40E-03
29428,2.28E-03,8.46E-03
29429,2.32E-03,8.48E-03
29430,2.28E-03,8.47E-03
29431,2.33E-03,8.50E-03
29432,2.32E-03,8.49E-03
29433,2.39E-03,8.51E-03
29434,2.36E-03,8.50E-03
29435,2.45E-03,8.51E-03
29436,2.43E-03,8.51E-03
29437,2.50E-03,8.50E-03
29438,2.48E-03,8.51E-03
29439,2.57E-03,8.50E-03
29440,2.56E-03,8.50E-03
29441,2.66E-03,8.49E-03
29442,2.59E-03,8.49E-03
29443,2.71E-03,8.50E-03
29444,2.67E-03,8.50E-03
29445,2.69E-03,8.52E-03
29446,2.70E-03,8.51E-03
29447,2.62E-03,8.54E-03
29448,2.66E-03,8.53E-03
29449,2.56E-03,8.58E-03
29450,2.59E-03,8.56E-03
29451,2.53E-03,8.61E-03
29452,2.53E-03,8.59E-03
29453,2.57E-03,8.62E-03
29454,2.54E-03,8.61E-03
29455,2.53E-03,8.65E-03
29456,2.55E-03,8.64E-03
29457,2.47E-03,8.70E-03
29458,2.50E-03,8.67E-03
29459,2.44E-03,8.73E-03
29460,2.44E-03,8.71E-03
29461,2.42E-03,8.74E-03
29462,2.41E-03,8.74E-03
29463,2.46E-03,8.73E-03
29464,2.45E-03,8.73E-03
29465,2.46E-03,8.74E-03
29466,2.46E-03,8.73E-03
29467,2.45E-03,8.76E-03
29468,2.46E-03,8.75E-03
29469,2.39E-03,8.77E-03
29470,2.53E-03,8.74E-03
29471,2.51E-03,8.76E-03
29472,2.71E-03,8.70E-03
29473,2.63E-03,8.72E-03
29474,2.85E-03,8.67E-03
29475,2.79E-03,8.68E-03
29476,2.91E-03,8.34E-03
29477,3.00E-03,8.64E-03
29478,2.98E-03,8.67E-03
29479,2.85E-03,7.73E-03
29480,2.84E-03,8.03E-03
29481,2.78E-03,7.14E-03
29482,2.81E-03,7.44E-03
29483,2.74E-03,6.56E-03
29484,2.74E-03,6.85E-03
29485,2.62E-03,5.98E-03
29486,2.71E-03,6.27E-03
29487,2.56E-03,5.71E-03
29488,2.31E-03,5.11E-03
29489,2.22E-03,5.00E-03
29490,2.41E-03,5.00E-03
29491,2.42E-03,4.88E-03
29492,2.44E-03,4.90E-03
29493,2.37E-03,4.85E-03
29494,2.38E-03,4.86E-03
29495,2.36E-03,4.82E-03
29496,2.36E-03,4.84E-03
29497,2.37E-03,4.81E-03
29498,2.38E-03,4.79E-03
29499,2.45E-03,4.82E-03
29500,2.41E-03,4.82E-03
29501,2.45E-03,4.81E-03
29502,2.47E-03,4.81E-03
29503,2.40E-03,4.81E-03
29504,2.41E-03,4.81E-03
29505,2.38E-03,4.80E-03
29506,2.38E-03,4.80E-03
29507,2.38E-03,4.80E-03
29508,2.37E-03,4.80E-03
29509,2.39E-03,4.80E-03
29510,2.38E-03,4.80E-03
29511,2.39E-03,4.80E-03
29512,2.41E-03,4.82E-03
29513,2.40E-03,4.82E-03
29514,2.39E-03,4.81E-03
29515,2.37E-03,4.81E-03
29516,2.39E-03,4.80E-03
29517,2.61E-03,4.76E-03
29518,2.39E-03,8.33E-03
29519,2.71E-03,5.77E-03
29520,2.66E-03,6.04E-03
29521,2.22E-03,4.77E-03
29522,2.23E-03,4.76E-03
29523,2.42E-03,4.69E-03
29524,2.43E-03,4.72E-03
29525,2.44E-03,4.66E-03
29526,2.38E-03,4.55E-03
29527,2.36E-03,4.54E-03
29528,2.38E-03,4.55E-03
29529,2.38E-03,4.55E-03
29530,2.40E-03,4.56E-03
29531,2.41E-03,4.57E-03
29532,2.40E-03,4.56E-03
29533,2.39E-03,4.57E-03
29534,2.46E-03,4.54E-03
29535,2.40E-03,4.56E-03
29536,2.51E-03,4.53E-03
29537,2.81E-03,8.31E-03
29538,2.86E-03,8.61E-03
29539,2.49E-03,5.44E-03
29540,2.39E-03,5.18E-03
29541,2.39E-03,4.30E-03
29542,2.39E-03,4.29E-03
29543,2.39E-03,4.30E-03
29544,2.67E-03,4.49E-03
29545,2.73E-03,4.48E-03
29546,2.81E-03,4.73E-03
29547,2.92E-03,4.98E-03
29548,2.89E-03,5.50E-03
29549,2.35E-03,4.74E-03
29550,2.41E-03,9.06E-03
29551,2.46E-03,7.99E-03
29552,2.49E-03,8.29E-03
29553,2.50E-03,8.23E-03
29554,2.40E-03,9.05E-03
29555,2.31E-03,4.88E-03
29556,2.31E-03,4.91E-03
29557,2.25E-03,4.80E-03
29558,2.31E-03,4.74E-03
29559,2.67E-03,6.55E-03
29560,2.62E-03,6.30E-03
29561,2.61E-03,7.04E-03
29562,2.64E-03,6.79E-03
29563,2.52E-03,7.52E-03
29564,2.55E-03,7.28E-03
29565,2.47E-03,7.75E-03
29566,2.52E-03,8.54E-03
29567,2.35E-03,8.62E-03
29568,2.43E-03,8.58E-03
29569,2.24E-03,8.67E-03
29570,2.30E-03,8.65E-03
29571,2.27E-03,8.71E-03
29572,2.28E-03,8.69E-03
29573,2.31E-03,8.74E-03
29574,2.30E-03,8.72E-03
29575,2.34E-03,8.76E-03
29576,2.33E-03,8.75E-03
29577,2.39E-03,8.77E-03
29578,2.35E-03,8.76E-03
29579,2.43E-03,8.77E-03
29580,2.44E-03,8.77E-03
29581,2.49E-03,8.77E-03
29582,2.49E-03,8.77E-03
29583,2.59E-03,8.76E-03
29584,2.54E-03,8.76E-03
29585,2.65E-03,8.75E-03
29586,2.58E-03,8.76E-03
29587,2.71E-03,8.76E-03
29588,2.67E-03,8.76E-03
29589,2.67E-03,8.78E-03
29590,2.70E-03,8.77E-03
29591,2.62E-03,8.81E-03
29592,2.65E-03,8.79E-03
29593,2.57E-03,8.84E-03
29594,2.60E-03,8.82E-03
29595,2.53E-03,8.87E-03
29596,2.53E-03,8.86E-03
29597,2.57E-03,8.89E-03
29598,2.54E-03,8.88E-03
29599,2.52E-03,8.92E-03
29600,2.55E-03,8.90E-03
29601,2.47E-03,8.96E-03
29602,2.50E-03,8.94E-03
29603,2.45E-03,9.00E-03
29604,2.46E-03,8.98E-03
29605,2.41E-03,9.01E-03
29606,2.41E-03,9.00E-03
29607,2.47E-03,9.00E-03
29608,2.44E-03,9.01E-03
29609,2.48E-03,9.01E-03
29610,2.48E-03,9.00E-03
29611,2.44E-03,9.03E-03
29612,2.48E-03,9.02E-03
29613,2.42E-03,9.05E-03
29614,2.52E-03,9.02E-03
29615,2.41E-03,9.05E-03
29616,2.48E-03,9.04E-03
29617,2.64E-03,8.98E-03
29618,2.61E-03,9.00E-03
29619,2.78E-03,8.97E-03
29620,2.73E-03,8.97E-03
29621,3.19E-03,8.97E-03
29622,2.96E-03,8.97E-03
29623,2.78E-03,7.72E-03
29624,2.79E-03,8.02E-03
29625,2.74E-03,7.14E-03
29626,2.74E-03,7.43E-03
29627,2.69E-03,6.56E-03
29628,2.71E-03,6.85E-03
29629,2.59E-03,5.99E-03
29630,2.64E-03,6.28E-03
29631,2.56E-03,5.72E-03
29632,2.28E-03,4.84E-03
29633,2.26E-03,4.75E-03
29634,2.39E-03,4.74E-03
29635,2.41E-03,4.62E-03
29636,2.43E-03,4.64E-03
29637,2.35E-03,4.59E-03
29638,2.38E-03,4.60E-03
29639,2.38E-03,4.56E-03
29640,2.36E-03,4.58E-03
29641,2.39E-03,4.55E-03
29642,2.39E-03,4.54E-03
29643,2.44E-03,4.57E-03
29644,2.41E-03,4.57E-03
29645,2.43E-03,4.56E-03
29646,2.47E-03,4.56E-03
29647,2.40E-03,4.56E-03
29648,2.42E-03,4.56E-03
29649,2.37E-03,4.55E-03
29650,2.38E-03,4.55E-03
29651,2.37E-03,4.55E-03
29652,2.35E-03,4.55E-03
29653,2.39E-03,4.56E-03
29654,2.38E-03,4.56E-03
29655,2.41E-03,4.56E-03
29656,2.41E-03,4.57E-03
29657,2.39E-03,4.57E-03
29658,2.37E-03,4.57E-03
29659,2.38E-03,4.57E-03
29660,2.38E-03,4.56E-03
29661,2.57E-03,4.51E-03
29662,3.10E-03,8.92E-03
29663,2.57E-03,5.78E-03
29664,2.47E-03,6.04E-03
29665,2.69E-03,8.49E-03
29666,2.26E-03,4.93E-03
29667,2.32E-03,4.48E-03
29668,2.33E-03,4.48E-03
29669,2.41E-03,4.43E-03
29670,2.40E-03,4.45E-03
29671,2.42E-03,4.40E-03
29672,2.39E-03,4.29E-03
29673,2.38E-03,4.30E-03
29674,2.38E-03,4.30E-03
29675,2.39E-03,4.30E-03
29676,2.38E-03,4.31E-03
29677,2.39E-03,4.32E-03
29678,2.41E-03,4.32E-03
29679,2.40E-03,4.33E-03
29680,2.41E-03,4.04E-03
29681,2.40E-03,4.04E-03
29682,2.78E-03,4.47E-03
29683,2.86E-03,4.73E-03
29684,2.99E-03,5.24E-03
29685,2.47E-03,4.29E-03
29686,2.46E-03,4.30E-03
29687,2.40E-03,4.31E-03
29688,2.25E-03,4.54E-03
29689,2.83E-03,5.51E-03
29690,2.24E-03,4.52E-03
29691,1.82E-03,9.15E-03
29692,2.25E-03,4.50E-03
29693,2.63E-03,6.53E-03
29694,2.62E-03,6.28E-03
29695,2.59E-03,7.01E-03
29696,2.58E-03,6.77E-03
29697,2.52E-03,7.48E-03
29698,2.54E-03,7.25E-03
29699,2.45E-03,7.95E-03
29700,2.46E-03,7.72E-03
29701,2.64E-03,8.41E-03
29702,2.47E-03,8.18E-03
29703,2.00E-03,8.76E-03
29704,1.68E-03,8.78E-03
29705,1.91E-03,8.60E-03
29706,2.50E-03,8.79E-03
29707,2.69E-03,8.75E-03
29708,2.38E-03,8.87E-03
29709,2.42E-03,8.83E-03
29710,2.31E-03,8.93E-03
29711,2.35E-03,8.90E-03
29712,2.29E-03,8.96E-03
29713,2.30E-03,8.95E-03
29714,2.31E-03,9.00E-03
29715,2.34E-03,8.98E-03
29716,2.35E-03,9.02E-03
29717,2.34E-03,9.01E-03
29718,2.39E-03,9.03E-03
29719,2.36E-03,9.02E-03
29720,2.45E-03,9.03E-03
29721,2.44E-03,9.03E-03
29722,2.51E-03,9.03E-03
29723,2.48E-03,9.03E-03
29724,2.57E-03,9.02E-03
29725,2.54E-03,9.03E-03
29726,2.64E-03,9.02E-03
29727,2.60E-03,9.02E-03
29728,2.71E-03,9.03E-03
29729,2.68E-03,9.02E-03
29730,2.66E-03,9.05E-03
29731,2.69E-03,9.04E-03
29732,2.62E-03,9.07E-03
29733,2.65E-03,9.06E-03
29734,2.58E-03,9.11E-03
29735,2.59E-03,9.09E-03
29736,2.52E-03,9.14E-03
29737,2.53E-03,9.12E-03
29738,2.55E-03,9.16E-03
29739,2.54E-03,9.15E-03
29740,2.52E-03,9.19E-03
29741,2.55E-03,9.17E-03
29742,2.46E-03,9.23E-03
29743,2.50E-03,9.21E-03
29744,2.44E-03,9.26E-03
29745,2.46E-03,9.25E-03
29746,2.41E-03,9.28E-03
29747,2.42E-03,9.27E-03
29748,2.47E-03,9.27E-03
29749,2.44E-03,9.28E-03
29750,2.48E-03,9.28E-03
29751,2.47E-03,9.27E-03
29752,2.45E-03,9.30E-03
29753,2.47E-03,9.29E-03
29754,2.41E-03,9.33E-03
29755,2.42E-03,9.32E-03
29756,2.44E-03,9.33E-03
29757,2.42E-03,9.33E-03
29758,2.48E-03,9.30E-03
29759,2.46E-03,9.31E-03
29760,2.61E-03,9.27E-03
29761,2.57E-03,9.28E-03
29762,2.71E-03,9.25E-03
29763,2.66E-03,9.26E-03
29764,2.71E-03,9.29E-03
29765,2.77E-03,9.26E-03
29766,1.41E-03,9.40E-03
29767,2.11E-03,9.34E-03
29768,2.37E-03,9.36E-03
29769,2.52E-03,8.84E-03
29770,2.45E-03,9.10E-03
29771,2.73E-03,8.29E-03
29772,2.73E-03,8.58E-03
29773,2.74E-03,7.71E-03
29774,2.73E-03,8.00E-03
29775,2.70E-03,7.13E-03
29776,2.71E-03,7.42E-03
29777,2.65E-03,6.56E-03
29778,2.66E-03,6.85E-03
29779,2.59E-03,6.00E-03
29780,2.61E-03,6.28E-03
29781,2.53E-03,5.45E-03
29782,2.55E-03,5.72E-03
29783,2.31E-03,4.90E-03
29784,2.45E-03,5.17E-03
29785,2.36E-03,4.46E-03
29786,2.24E-03,4.67E-03
29787,1.94E-03,4.69E-03
29788,2.30E-03,4.61E-03
29789,2.27E-03,4.64E-03
29790,2.29E-03,4.58E-03
29791,2.28E-03,4.49E-03
29792,2.36E-03,4.47E-03
29793,2.41E-03,4.36E-03
29794,2.43E-03,4.38E-03
29795,2.33E-03,4.33E-03
29796,2.39E-03,4.35E-03
29797,2.39E-03,4.31E-03
29798,2.37E-03,4.32E-03
29799,2.40E-03,4.30E-03
29800,2.38E-03,4.29E-03
29801,2.38E-03,4.29E-03
29802,2.44E-03,4.32E-03
29803,2.39E-03,4.32E-03
29804,2.43E-03,4.31E-03
29805,2.46E-03,4.31E-03
29806,2.39E-03,4.31E-03
29807,2.43E-03,4.31E-03
29808,2.37E-03,4.31E-03
29809,2.39E-03,4.31E-03
29810,2.37E-03,4.31E-03
29811,2.37E-03,4.31E-03
29812,2.37E-03,4.31E-03
29813,2.38E-03,4.31E-03
29814,2.40E-03,4.31E-03
29815,2.40E-03,4.33E-03
29816,2.39E-03,4.33E-03
29817,2.38E-03,4.32E-03
29818,2.39E-03,4.33E-03
29819,2.37E-03,4.32E-03
29820,2.62E-03,4.24E-03
29821,2.56E-03,4.27E-03
29822,2.12E-03,5.79E-03
29823,2.50E-03,6.01E-03
29824,2.40E-03,4.41E-03
29825,2.28E-03,4.26E-03
29826,2.27E-03,4.28E-03
29827,2.28E-03,4.23E-03
29828,2.41E-03,4.19E-03
29829,2.43E-03,4.17E-03
29830,2.41E-03,4.04E-03
29831,2.40E-03,4.05E-03
29832,2.38E-03,4.06E-03
29833,2.37E-03,4.05E-03
29834,2.40E-03,4.07E-03
29835,2.39E-03,4.08E-03
29836,2.40E-03,4.07E-03
29837,2.40E-03,4.09E-03
29838,2.44E-03,4.06E-03
29839,2.39E-03,4.07E-03
29840,2.46E-03,4.04E-03
29841,2.78E-03,4.47E-03
29842,2.71E-03,4.23E-03
29843,2.97E-03,4.99E-03
29844,2.22E-03,8.99E-03
29845,2.12E-03,8.97E-03
29846,3.15E-03,4.23E-03
29847,2.42E-03,3.79E-03
29848,2.41E-03,3.79E-03
29849,3.00E-03,5.26E-03
29850,2.11E-03,9.64E-03
29851,2.36E-03,9.35E-03
29852,2.30E-03,9.63E-03
29853,2.51E-03,5.57E-03
29854,2.34E-03,4.22E-03
29855,2.33E-03,4.22E-03
29856,2.04E-03,9.61E-03
29857,2.62E-03,6.51E-03
29858,2.51E-03,6.27E-03
29859,2.59E-03,6.99E-03
29860,2.61E-03,6.75E-03
29861,2.52E-03,7.45E-03
29862,2.54E-03,7.22E-03
29863,2.44E-03,7.90E-03
29864,2.46E-03,7.68E-03
29865,2.28E-03,8.33E-03
29866,2.42E-03,8.13E-03
29867,2.15E-03,8.75E-03
29868,2.14E-03,8.53E-03
29869,2.44E-03,9.05E-03
29870,2.37E-03,9.03E-03
29871,2.38E-03,9.13E-03
29872,2.41E-03,9.09E-03
29873,2.33E-03,9.18E-03
29874,2.35E-03,9.16E-03
29875,2.29E-03,9.22E-03
29876,2.33E-03,9.20E-03
29877,2.32E-03,9.26E-03
29878,2.34E-03,9.24E-03
29879,2.34E-03,9.28E-03
29880,2.34E-03,9.27E-03
29881,2.39E-03,9.29E-03
29882,2.38E-03,9.29E-03
29883,2.45E-03,9.30E-03
29884,2.43E-03,9.30E-03
29885,2.52E-03,9.29E-03
29886,2.47E-03,9.30E-03
29887,2.57E-03,9.29E-03
29888,2.55E-03,9.29E-03
29889,2.64E-03,9.28E-03
29890,2.61E-03,9.28E-03
29891,2.71E-03,9.29E-03
29892,2.69E-03,9.29E-03
29893,2.65E-03,9.31E-03
29894,2.70E-03,9.30E-03
29895,2.62E-03,9.34E-03
29896,2.64E-03,9.32E-03
29897,2.56E-03,9.37E-03
29898,2.59E-03,9.35E-03
29899,2.52E-03,9.40E-03
29900,2.53E-03,9.39E-03
29901,2.56E-03,9.42E-03
29902,2.53E-03,9.41E-03
29903,2.51E-03,9.45E-03
29904,2.54E-03,9.44E-03
29905,2.48E-03,9.50E-03
29906,2.49E-03,9.48E-03
29907,2.43E-03,9.53E-03
29908,2.45E-03,9.52E-03
29909,2.40E-03,9.55E-03
29910,2.41E-03,9.54E-03
29911,2.48E-03,9.55E-03
29912,2.44E-03,9.55E-03
29913,2.48E-03,9.55E-03
29914,2.48E-03,9.55E-03
29915,2.47E-03,9.58E-03
29916,2.47E-03,9.56E-03
29917,2.39E-03,9.60E-03
29918,2.42E-03,9.59E-03
29919,2.42E-03,9.60E-03
29920,2.39E-03,9.61E-03
29921,2.48E-03,9.58E-03
29922,2.44E-03,9.59E-03
29923,2.57E-03,9.55E-03
29924,2.52E-03,9.56E-03
29925,2.64E-03,9.54E-03
29926,2.60E-03,9.54E-03
29927,2.47E-03,9.58E-03
29928,2.63E-03,9.55E-03
29929,2.33E-03,9.59E-03
29930,2.54E-03,8.81E-03
29931,2.44E-03,9.08E-03
29932,2.66E-03,8.27E-03
29933,2.60E-03,8.54E-03
29934,2.68E-03,7.70E-03
29935,2.68E-03,7.99E-03
29936,2.64E-03,7.13E-03
29937,2.66E-03,7.42E-03
29938,2.62E-03,6.57E-03
29939,2.61E-03,6.85E-03
29940,2.63E-03,6.00E-03
29941,2.63E-03,6.29E-03
29942,2.59E-03,5.45E-03
29943,2.59E-03,5.72E-03
29944,2.47E-03,4.87E-03
29945,2.59E-03,5.16E-03
29946,2.29E-03,4.62E-03
29947,2.34E-03,4.35E-03
29948,2.29E-03,4.38E-03
29949,2.31E-03,4.31E-03
29950,2.30E-03,4.22E-03
29951,2.38E-03,4.21E-03
29952,2.41E-03,4.10E-03
29953,2.44E-03,4.14E-03
29954,2.42E-03,4.12E-03
29955,2.34E-03,4.08E-03
29956,2.38E-03,4.09E-03
29957,2.39E-03,4.05E-03
29958,2.37E-03,4.06E-03
29959,2.40E-03,4.04E-03
29960,2.38E-03,4.04E-03
29961,2.40E-03,4.04E-03
29962,2.36E-03,4.04E-03
29963,2.43E-03,4.07E-03
29964,2.40E-03,4.07E-03
29965,2.43E-03,4.06E-03
29966,2.44E-03,4.07E-03
29967,2.39E-03,4.06E-03
29968,2.43E-03,4.06E-03
29969,2.36E-03,4.06E-03
29970,2.38E-03,4.06E-03
29971,2.39E-03,4.06E-03
29972,2.39E-03,4.06E-03
29973,2.40E-03,4.07E-03
29974,2.39E-03,4.06E-03
29975,2.41E-03,4.07E-03
29976,2.41E-03,4.09E-03
29977,2.39E-03,4.09E-03
29978,2.36E-03,4.08E-03
29979,2.39E-03,4.09E-03
29980,2.35E-03,4.08E-03
29981,2.56E-03,4.00E-03
29982,2.55E-03,4.02E-03
29983,2.75E-03,4.22E-03
29984,2.74E-03,4.22E-03
29985,2.90E-03,4.74E-03
29986,2.52E-03,5.73E-03
29987,2.59E-03,5.99E-03
29988,2.15E-03,8.96E-03
29989,2.66E-03,4.17E-03
29990,2.24E-03,9.88E-03
29991,2.21E-03,9.89E-03
29992,2.31E-03,4.02E-03
29993,2.28E-03,4.00E-03
29994,2.33E-03,3.96E-03
29995,2.34E-03,3.96E-03
29996,2.43E-03,3.79E-03
29997,2.41E-03,3.80E-03
29998,2.39E-03,3.80E-03
29999,2.38E-03,3.81E-03
30000,2.40E-03,3.84E-03
30001,2.41E-03,3.83E-03
30002,2.39E-03,3.84E-03
30003,2.42E-03,3.82E-03
30004,2.38E-03,3.83E-03
30005,2.44E-03,3.80E-03
30006,2.66E-03,3.98E-03
30007,2.73E-03,3.98E-03
30008,2.70E-03,4.23E-03
30009,2.70E-03,3.99E-03
30010,3.05E-03,5.01E-03
30011,2.39E-03,9.35E-03
30012,2.34E-03,9.62E-03
30013,2.44E-03,3.54E-03
30014,2.45E-03,3.54E-03
30015,3.70E-03,5.31E-03
30016,3.19E-03,4.27E-03
30017,2.88E-03,3.95E-03
30018,2.97E-03,3.96E-03
30019,2.79E-03,4.48E-03
30020,2.63E-03,6.48E-03
30021,2.62E-03,6.24E-03
30022,2.56E-03,6.96E-03
30023,2.58E-03,6.72E-03
30024,2.51E-03,7.42E-03
30025,2.54E-03,7.19E-03
30026,2.43E-03,7.86E-03
30027,2.45E-03,7.64E-03
30028,2.31E-03,8.28E-03
30029,2.37E-03,8.08E-03
30030,2.24E-03,8.71E-03
30031,2.26E-03,8.49E-03
30032,2.28E-03,9.17E-03
30033,2.31E-03,9.14E-03
30034,2.24E-03,8.92E-03
30035,2.34E-03,9.24E-03
30036,2.29E-03,9.21E-03
30037,2.39E-03,9.31E-03
30038,2.37E-03,9.27E-03
30039,2.40E-03,9.39E-03
30040,2.41E-03,9.35E-03
30041,2.34E-03,9.44E-03
30042,2.36E-03,9.42E-03
30043,2.30E-03,9.49E-03
30044,2.34E-03,9.47E-03
30045,2.33E-03,9.52E-03
30046,2.34E-03,9.51E-03
30047,2.34E-03,9.55E-03
30048,2.34E-03,9.54E-03
30049,2.40E-03,9.56E-03
30050,2.38E-03,9.55E-03
30051,2.45E-03,9.56E-03
30052,2.43E-03,9.56E-03
30053,2.52E-03,9.56E-03
30054,2.49E-03,9.56E-03
30055,2.59E-03,9.55E-03
30056,2.55E-03,9.56E-03
30057,2.63E-03,9.55E-03
30058,2.60E-03,9.55E-03
30059,2.71E-03,9.56E-03
30060,2.67E-03,9.55E-03
30061,2.67E-03,9.57E-03
30062,2.72E-03,9.57E-03
30063,2.63E-03,9.60E-03
30064,2.63E-03,9.59E-03
30065,2.56E-03,9.64E-03
30066,2.60E-03,9.62E-03
30067,2.53E-03,9.67E-03
30068,2.53E-03,9.66E-03
30069,2.57E-03,9.69E-03
30070,2.53E-03,9.68E-03
30071,2.53E-03,9.72E-03
30072,2.56E-03,9.70E-03
30073,2.47E-03,9.76E-03
30074,2.49E-03,9.74E-03
30075,2.43E-03,9.80E-03
30076,2.43E-03,9.79E-03
30077,2.41E-03,9.82E-03
30078,2.41E-03,9.81E-03
30079,2.47E-03,9.82E-03
30080,2.45E-03,9.82E-03
30081,2.49E-03,9.82E-03
30082,2.50E-03,9.82E-03
30083,2.45E-03,9.85E-03
30084,2.48E-03,9.84E-03
30085,2.42E-03,9.87E-03
30086,2.42E-03,9.86E-03
30087,2.42E-03,9.88E-03
30088,2.40E-03,9.88E-03
30089,2.46E-03,9.85E-03
30090,2.43E-03,9.87E-03
30091,2.54E-03,9.82E-03
30092,2.50E-03,9.84E-03
30093,2.59E-03,9.82E-03
30094,2.57E-03,9.82E-03
30095,2.48E-03,9.84E-03
30096,2.54E-03,9.83E-03
30097,2.36E-03,9.86E-03
30098,2.52E-03,8.81E-03
30099,2.45E-03,9.08E-03
30100,2.62E-03,8.26E-03
30101,2.59E-03,8.53E-03
30102,2.62E-03,7.70E-03
30103,2.62E-03,7.98E-03
30104,2.58E-03,7.14E-03
30105,2.61E-03,7.42E-03
30106,2.58E-03,6.57E-03
30107,2.61E-03,6.85E-03
30108,2.63E-03,6.01E-03
30109,2.61E-03,6.29E-03
30110,2.63E-03,5.45E-03
30111,2.63E-03,5.73E-03
30112,2.67E-03,4.88E-03
30113,2.66E-03,5.16E-03
30114,3.03E-03,4.57E-03
30115,2.41E-03,4.09E-03
30116,2.47E-03,4.13E-03
30117,2.33E-03,4.06E-03
30118,2.23E-03,9.90E-03
30119,2.27E-03,3.97E-03
30120,2.30E-03,3.96E-03
30121,2.41E-03,3.93E-03
30122,2.41E-03,3.95E-03
30123,2.43E-03,3.88E-03
30124,2.43E-03,3.91E-03
30125,2.41E-03,3.84E-03
30126,2.41E-03,3.86E-03
30127,2.35E-03,3.82E-03
30128,2.37E-03,3.83E-03
30129,2.40E-03,3.80E-03
30130,2.37E-03,3.81E-03
30131,2.42E-03,3.79E-03
30132,2.41E-03,3.79E-03
30133,2.40E-03,3.79E-03
30134,2.40E-03,3.79E-03
30135,2.41E-03,3.82E-03
30136,2.39E-03,3.82E-03
30137,2.40E-03,3.82E-03
30138,2.44E-03,3.82E-03
30139,2.44E-03,3.82E-03
30140,2.41E-03,3.81E-03
30141,2.44E-03,3.81E-03
30142,2.36E-03,3.81E-03
30143,2.38E-03,3.81E-03
30144,2.39E-03,3.82E-03
30145,2.38E-03,3.81E-03
30146,2.39E-03,3.82E-03
30147,2.39E-03,3.82E-03
30148,2.41E-03,3.83E-03
30149,2.40E-03,3.85E-03
30150,2.38E-03,3.85E-03
30151,2.36E-03,3.84E-03
30152,2.39E-03,3.85E-03
30153,2.35E-03,3.84E-03
30154,2.59E-03,3.75E-03
30155,2.50E-03,3.78E-03
30156,2.70E-03,3.97E-03
30157,2.65E-03,4.01E-03
30158,2.67E-03,4.25E-03
30159,2.92E-03,4.75E-03
30160,3.22E-03,5.69E-03
30161,2.79E-03,5.98E-03
30162,2.30E-03,9.89E-03
30163,2.74E-03,3.92E-03
30164,2.45E-03,3.53E-03
30165,2.45E-03,3.54E-03
30166,2.39E-03,3.60E-03
30167,2.39E-03,3.59E-03
30168,2.39E-03,3.60E-03
30169,2.65E-03,3.73E-03
30170,2.66E-03,3.75E-03
30171,2.69E-03,3.73E-03
30172,2.61E-03,3.78E-03
30173,3.27E-03,5.02E-03
30174,2.39E-03,9.40E-03
30175,2.39E-03,9.35E-03
30176,2.46E-03,3.29E-03
30177,2.46E-03,3.29E-03
30178,2.92E-03,4.28E-03
30179,2.83E-03,3.99E-03
30180,2.81E-03,3.67E-03
30181,2.84E-03,3.68E-03
30182,3.79E-03,5.39E-03
30183,2.36E-03,3.59E-03
30184,2.40E-03,3.58E-03
30185,2.42E-03,3.56E-03
30186,2.76E-03,4.49E-03
30187,2.64E-03,6.46E-03
30188,2.69E-03,6.22E-03
30189,2.57E-03,6.93E-03
30190,2.58E-03,6.70E-03
30191,2.50E-03,7.39E-03
30192,2.53E-03,7.16E-03
30193,2.43E-03,7.82E-03
30194,2.43E-03,7.61E-03
30195,2.33E-03,8.25E-03
30196,2.38E-03,8.03E-03
30197,2.29E-03,8.67E-03
30198,2.31E-03,8.45E-03
30199,2.36E-03,9.09E-03
30200,2.29E-03,8.88E-03
30201,2.39E-03,9.48E-03
30202,2.38E-03,9.44E-03
30203,2.41E-03,9.56E-03
30204,2.40E-03,9.52E-03
30205,2.39E-03,9.65E-03
30206,2.39E-03,9.61E-03
30207,2.36E-03,9.71E-03
30208,2.36E-03,9.68E-03
30209,2.33E-03,9.75E-03
30210,2.34E-03,9.73E-03
30211,2.32E-03,9.79E-03
30212,2.32E-03,9.77E-03
30213,2.36E-03,9.82E-03
30214,2.35E-03,9.81E-03
30215,2.40E-03,9.83E-03
30216,2.38E-03,9.82E-03
30217,2.47E-03,9.83E-03
30218,2.44E-03,9.83E-03
30219,2.51E-03,9.83E-03
30220,2.50E-03,9.83E-03
30221,2.58E-03,9.82E-03
30222,2.54E-03,9.83E-03
30223,2.64E-03,9.82E-03
30224,2.61E-03,9.82E-03
30225,2.71E-03,9.82E-03
30226,2.68E-03,9.82E-03
30227,2.67E-03,9.84E-03
30228,2.71E-03,9.83E-03
30229,2.62E-03,9.87E-03
30230,2.64E-03,9.85E-03
30231,2.58E-03,9.91E-03
30232,2.60E-03,9.89E-03
30233,2.52E-03,9.94E-03
30234,2.54E-03,9.92E-03
30235,2.56E-03,9.96E-03
30236,2.52E-03,9.95E-03
30237,2.53E-03,9.99E-03
30238,2.55E-03,9.97E-03
30239,2.47E-03,1.00E-02
30240,2.52E-03,1.00E-02
30241,2.43E-03,1.01E-02
30242,2.43E-03,1.01E-02
30243,2.40E-03,1.01E-02
30244,2.40E-03,1.01E-02
30245,2.47E-03,1.01E-02
30246,2.43E-03,1.01E-02
30247,2.50E-03,1.01E-02
30248,2.51E-03,1.01E-02
30249,2.46E-03,1.01E-02
30250,2.49E-03,1.01E-02
30251,2.42E-03,1.01E-02
30252,2.42E-03,1.01E-02
30253,2.41E-03,1.02E-02
30254,2.40E-03,1.02E-02
30255,2.45E-03,1.01E-02
30256,2.43E-03,1.01E-02
30257,2.53E-03,1.01E-02
30258,2.49E-03,1.01E-02
30259,2.57E-03,1.01E-02
30260,2.57E-03,1.01E-02
30261,2.45E-03,1.01E-02
30262,2.54E-03,1.01E-02
30263,2.32E-03,1.02E-02
30264,2.39E-03,1.01E-02
30265,2.25E-03,1.02E-02
30266,2.27E-03,1.02E-02
30267,2.35E-03,9.89E-03
30268,2.36E-03,3.69E-03
30269,2.33E-03,3.70E-03
30270,2.35E-03,1.02E-02
30271,2.28E-03,1.02E-02
30272,2.41E-03,9.35E-03
30273,2.38E-03,9.62E-03
30274,2.49E-03,8.81E-03
30275,2.45E-03,9.08E-03
30276,2.56E-03,8.25E-03
30277,2.54E-03,8.53E-03
30278,2.58E-03,7.70E-03
30279,2.59E-03,7.98E-03
30280,2.57E-03,7.14E-03
30281,2.60E-03,7.42E-03
30282,2.59E-03,6.58E-03
30283,2.60E-03,6.86E-03
30284,2.60E-03,6.01E-03
30285,2.60E-03,6.30E-03
30286,2.66E-03,5.45E-03
30287,2.62E-03,5.73E-03
30288,2.78E-03,4.87E-03
30289,2.70E-03,5.16E-03
30290,2.90E-03,4.56E-03
30291,2.48E-03,3.84E-03
30292,2.56E-03,3.88E-03
30293,2.34E-03,3.77E-03
30294,2.37E-03,3.80E-03
30295,2.29E-03,3.71E-03
30296,2.30E-03,3.74E-03
30297,2.31E-03,3.70E-03
30298,2.43E-03,3.67E-03
30299,2.43E-03,3.68E-03
30300,2.44E-03,3.63E-03
30301,2.47E-03,3.65E-03
30302,2.41E-03,3.59E-03
30303,2.42E-03,3.61E-03
30304,2.36E-03,3.57E-03
30305,2.36E-03,3.58E-03
30306,2.41E-03,3.54E-03
30307,2.37E-03,3.56E-03
30308,2.42E-03,3.54E-03
30309,2.42E-03,3.54E-03
30310,2.41E-03,3.55E-03
30311,2.40E-03,3.55E-03
30312,2.41E-03,3.55E-03
30313,2.42E-03,3.57E-03
30314,2.41E-03,3.56E-03
30315,2.41E-03,3.57E-03
30316,2.41E-03,3.57E-03
30317,2.44E-03,3.57E-03
30318,2.43E-03,3.57E-03
30319,2.40E-03,3.57E-03
30320,2.44E-03,3.57E-03
30321,2.38E-03,3.57E-03
30322,2.38E-03,3.57E-03
30323,2.40E-03,3.57E-03
30324,2.40E-03,3.57E-03
30325,2.40E-03,3.58E-03
30326,2.39E-03,3.58E-03
30327,2.43E-03,3.58E-03
30328,2.39E-03,3.61E-03
30329,2.39E-03,3.61E-03
30330,2.36E-03,3.60E-03
30331,2.37E-03,3.60E-03
30332,2.34E-03,3.60E-03
30333,2.59E-03,3.51E-03
30334,2.47E-03,3.54E-03
30335,2.71E-03,3.72E-03
30336,2.64E-03,3.51E-03
30337,2.58E-03,3.54E-03
30338,2.56E-03,4.03E-03
30339,2.59E-03,4.27E-03
30340,2.74E-03,4.74E-03
30341,2.94E-03,5.69E-03
30342,2.79E-03,5.95E-03
30343,2.43E-03,9.31E-03
30344,2.74E-03,3.65E-03
30345,2.45E-03,3.28E-03
30346,2.46E-03,3.29E-03
30347,2.40E-03,3.36E-03
30348,2.40E-03,3.35E-03
30349,2.39E-03,3.36E-03
30350,2.36E-03,3.35E-03
30351,2.33E-03,3.36E-03
30352,2.39E-03,3.33E-03
30353,2.61E-03,3.49E-03
30354,2.68E-03,3.49E-03
30355,2.80E-03,4.29E-03
30356,2.79E-03,4.01E-03
30357,2.82E-03,3.70E-03
30358,2.82E-03,3.41E-03
30359,2.84E-03,3.40E-03
30360,2.51E-03,3.03E-03
30361,2.49E-03,3.04E-03
30362,2.51E-03,4.98E-03
30363,2.66E-03,5.13E-03
30364,2.98E-03,5.44E-03
30365,2.34E-03,1.04E-02
30366,2.54E-03,3.80E-03
30367,2.36E-03,1.04E-02
30368,2.52E-03,3.58E-03
30369,2.65E-03,4.50E-03
30370,2.64E-03,6.44E-03
30371,2.67E-03,6.20E-03
30372,2.56E-03,6.91E-03
30373,2.59E-03,6.68E-03
30374,2.49E-03,7.36E-03
30375,2.53E-03,7.13E-03
30376,2.43E-03,7.79E-03
30377,2.42E-03,7.57E-03
30378,2.35E-03,8.21E-03
30379,2.37E-03,8.00E-03
30380,2.32E-03,8.62E-03
30381,2.31E-03,8.41E-03
30382,2.37E-03,9.04E-03
30383,2.34E-03,8.83E-03
30384,2.51E-03,9.53E-03
30385,2.52E-03,9.48E-03
30386,2.44E-03,9.26E-03
30387,2.43E-03,9.63E-03
30388,2.47E-03,9.58E-03
30389,2.41E-03,9.73E-03
30390,2.41E-03,9.68E-03
30391,2.42E-03,9.82E-03
30392,2.41E-03,9.77E-03
30393,2.40E-03,9.91E-03
30394,2.40E-03,9.86E-03
30395,2.37E-03,9.97E-03
30396,2.37E-03,9.94E-03
30397,2.33E-03,1.00E-02
30398,2.34E-03,1.00E-02
30399,2.33E-03,1.01E-02
30400,2.32E-03,1.00E-02
30401,2.36E-03,1.01E-02
30402,2.35E-03,1.01E-02
30403,2.40E-03,1.01E-02
30404,2.37E-03,1.01E-02
30405,2.47E-03,1.01E-02
30406,2.44E-03,1.01E-02
30407,2.51E-03,1.01E-02
30408,2.50E-03,1.01E-02
30409,2.59E-03,1.01E-02
30410,2.56E-03,1.01E-02
30411,2.65E-03,1.01E-02
30412,2.63E-03,1.01E-02
30413,2.72E-03,1.01E-02
30414,2.67E-03,1.01E-02
30415,2.70E-03,1.01E-02
30416,2.71E-03,1.01E-02
30417,2.63E-03,1.01E-02
30418,2.67E-03,1.01E-02
30419,2.57E-03,1.02E-02
30420,2.59E-03,1.02E-02
30421,2.52E-03,1.02E-02
30422,2.54E-03,1.02E-02
30423,2.56E-03,1.02E-02
30424,2.52E-03,1.02E-02
30425,2.53E-03,1.03E-02
30426,2.56E-03,1.02E-02
30427,2.48E-03,1.03E-02
30428,2.51E-03,1.03E-02
30429,2.41E-03,1.03E-02
30430,2.44E-03,1.03E-02
30431,2.41E-03,1.04E-02
30432,2.39E-03,1.04E-02
30433,2.47E-03,1.04E-02
30434,2.42E-03,1.04E-02
30435,2.50E-03,1.04E-02
30436,2.50E-03,1.04E-02
30437,2.45E-03,1.04E-02
30438,2.48E-03,1.04E-02
30439,2.42E-03,1.04E-02
30440,2.43E-03,1.04E-02
30441,2.40E-03,1.04E-02
30442,2.40E-03,1.04E-02
30443,2.45E-03,1.04E-02
30444,2.43E-03,1.04E-02
30445,2.52E-03,1.04E-02
30446,2.49E-03,1.04E-02
30447,2.56E-03,1.04E-02
30448,2.57E-03,1.04E-02
30449,2.48E-03,1.04E-02
30450,2.51E-03,1.04E-02
30451,2.36E-03,1.04E-02
30452,2.39E-03,1.04E-02
30453,2.29E-03,1.04E-02
30454,2.29E-03,1.04E-02
30455,2.30E-03,1.04E-02
30456,2.36E-03,9.90E-03
30457,2.41E-03,9.35E-03
30458,2.39E-03,9.62E-03
30459,2.51E-03,8.81E-03
30460,2.45E-03,9.08E-03
30461,2.54E-03,8.25E-03
30462,2.53E-03,8.53E-03
30463,2.54E-03,7.70E-03
30464,2.57E-03,7.98E-03
30465,2.59E-03,7.14E-03
30466,2.59E-03,7.42E-03
30467,2.58E-03,6.58E-03
30468,2.57E-03,6.86E-03
30469,2.60E-03,6.02E-03
30470,2.61E-03,6.30E-03
30471,2.65E-03,5.45E-03
30472,2.62E-03,5.74E-03
30473,2.75E-03,4.87E-03
30474,2.72E-03,5.17E-03
30475,2.78E-03,4.58E-03
30476,2.48E-03,3.59E-03
30477,2.52E-03,3.63E-03
30478,2.35E-03,3.51E-03
30479,2.40E-03,3.55E-03
30480,2.30E-03,3.46E-03
30481,2.32E-03,3.48E-03
30482,2.35E-03,3.43E-03
30483,2.33E-03,3.44E-03
30484,2.42E-03,3.41E-03
30485,2.36E-03,3.43E-03
30486,2.43E-03,3.42E-03
30487,2.43E-03,3.37E-03
30488,2.44E-03,3.39E-03
30489,2.40E-03,3.34E-03
30490,2.40E-03,3.35E-03
30491,2.37E-03,3.31E-03
30492,2.37E-03,3.32E-03
30493,2.42E-03,3.29E-03
30494,2.39E-03,3.30E-03
30495,2.44E-03,3.28E-03
30496,2.44E-03,3.29E-03
30497,2.46E-03,3.29E-03
30498,2.40E-03,3.31E-03
30499,2.43E-03,3.30E-03
30500,2.40E-03,3.32E-03
30501,2.40E-03,3.32E-03
30502,2.42E-03,3.32E-03
30503,2.41E-03,3.33E-03
30504,2.44E-03,3.32E-03
30505,2.42E-03,3.32E-03
30506,2.40E-03,3.32E-03
30507,2.42E-03,3.32E-03
30508,2.38E-03,3.32E-03
30509,2.39E-03,3.32E-03
30510,2.40E-03,3.33E-03
30511,2.41E-03,3.33E-03
30512,2.42E-03,3.34E-03
30513,2.38E-03,3.33E-03
30514,2.42E-03,3.34E-03
30515,2.38E-03,3.37E-03
30516,2.38E-03,3.37E-03
30517,2.35E-03,3.36E-03
30518,2.36E-03,3.36E-03
30519,2.32E-03,3.36E-03
30520,2.59E-03,3.26E-03
30521,2.46E-03,3.30E-03
30522,2.68E-03,3.48E-03
30523,2.64E-03,3.27E-03
30524,2.48E-03,3.35E-03
30525,2.58E-03,3.31E-03
30526,2.52E-03,4.75E-03
30527,2.77E-03,3.72E-03
30528,2.80E-03,3.42E-03
30529,2.81E-03,3.39E-03
30530,2.64E-03,5.94E-03
30531,2.71E-03,5.70E-03
30532,2.48E-03,3.03E-03
30533,2.48E-03,3.04E-03
30534,2.41E-03,3.11E-03
30535,2.40E-03,3.12E-03
30536,2.31E-03,3.12E-03
30537,2.29E-03,3.12E-03
30538,2.32E-03,3.10E-03
30539,2.73E-03,3.24E-03
30540,2.69E-03,3.25E-03
30541,2.52E-03,3.12E-03
30542,2.56E-03,9.76E-03
30543,2.61E-03,9.70E-03
30544,2.32E-03,1.07E-02
30545,2.36E-03,1.07E-02
30546,2.51E-03,2.78E-03
30547,2.51E-03,2.78E-03
30548,2.12E-03,4.94E-03
30549,2.74E-03,5.20E-03
30550,2.50E-03,3.82E-03
30551,2.52E-03,4.05E-03
30552,2.53E-03,4.28E-03
30553,2.50E-03,4.50E-03
30554,2.58E-03,6.42E-03
30555,2.58E-03,6.19E-03
30556,2.54E-03,6.88E-03
30557,2.56E-03,6.65E-03
30558,2.49E-03,7.33E-03
30559,2.52E-03,7.11E-03
30560,2.42E-03,7.75E-03
30561,2.42E-03,7.54E-03
30562,2.36E-03,8.17E-03
30563,2.38E-03,7.96E-03
30564,2.33E-03,8.58E-03
30565,2.33E-03,8.37E-03
30566,2.40E-03,8.99E-03
30567,2.36E-03,8.78E-03
30568,2.54E-03,9.42E-03
30569,2.47E-03,9.20E-03
30570,2.49E-03,9.87E-03
30571,2.51E-03,9.81E-03
30572,2.47E-03,9.97E-03
30573,2.48E-03,9.92E-03
30574,2.45E-03,1.01E-02
30575,2.45E-03,1.00E-02
30576,2.40E-03,1.02E-02
30577,2.41E-03,1.01E-02
30578,2.36E-03,1.02E-02
30579,2.37E-03,1.02E-02
30580,2.33E-03,1.03E-02
30581,2.35E-03,1.03E-02
30582,2.32E-03,1.03E-02
30583,2.33E-03,1.03E-02
30584,2.37E-03,1.04E-02
30585,2.34E-03,1.04E-02
30586,2.41E-03,1.04E-02
30587,2.37E-03,1.04E-02
30588,2.46E-03,1.04E-02
30589,2.44E-03,1.04E-02
30590,2.51E-03,1.04E-02
30591,2.51E-03,1.04E-02
30592,2.58E-03,1.04E-02
30593,2.56E-03,1.04E-02
30594,2.64E-03,1.04E-02
30595,2.62E-03,1.04E-02
30596,2.71E-03,1.04E-02
30597,2.66E-03,1.04E-02
30598,2.68E-03,1.04E-02
30599,2.71E-03,1.04E-02
30600,2.64E-03,1.04E-02
30601,2.66E-03,1.04E-02
30602,2.56E-03,1.04E-02
30603,2.59E-03,1.04E-02
30604,2.52E-03,1.05E-02
30605,2.55E-03,1.05E-02
30606,2.56E-03,1.05E-02
30607,2.52E-03,1.05E-02
30608,2.54E-03,1.05E-02
30609,2.55E-03,1.05E-02
30610,2.48E-03,1.06E-02
30611,2.50E-03,1.06E-02
30612,2.42E-03,1.06E-02
30613,2.45E-03,1.06E-02
30614,2.42E-03,1.06E-02
30615,2.42E-03,1.06E-02
30616,2.46E-03,1.06E-02
30617,2.44E-03,1.06E-02
30618,2.52E-03,1.07E-02
30619,2.51E-03,1.06E-02
30620,2.46E-03,1.07E-02
30621,2.48E-03,1.07E-02
30622,2.42E-03,1.07E-02
30623,2.43E-03,1.07E-02
30624,2.41E-03,1.07E-02
30625,2.40E-03,1.07E-02
30626,2.45E-03,1.07E-02
30627,2.42E-03,1.07E-02
30628,2.53E-03,1.07E-02
30629,2.49E-03,1.07E-02
30630,2.57E-03,1.06E-02
30631,2.56E-03,1.06E-02
30632,2.51E-03,1.07E-02
30633,2.53E-03,1.07E-02
30634,2.39E-03,1.07E-02
30635,2.41E-03,1.07E-02
30636,2.30E-03,1.07E-02
30637,2.32E-03,1.07E-02
30638,2.30E-03,1.07E-02
30639,2.39E-03,1.04E-02
30640,2.40E-03,9.90E-03
30641,2.38E-03,1.02E-02
30642,2.44E-03,9.36E-03
30643,2.42E-03,9.63E-03
30644,2.50E-03,8.81E-03
30645,2.46E-03,9.08E-03
30646,2.53E-03,8.25E-03
30647,2.53E-03,8.53E-03
30648,2.54E-03,7.70E-03
30649,2.56E-03,7.98E-03
30650,2.57E-03,7.14E-03
30651,2.57E-03,7.42E-03
30652,2.58E-03,6.58E-03
30653,2.59E-03,6.86E-03
30654,2.59E-03,6.02E-03
30655,2.59E-03,6.30E-03
30656,2.64E-03,5.46E-03
30657,2.62E-03,5.74E-03
30658,2.73E-03,4.88E-03
30659,2.69E-03,5.17E-03
30660,2.76E-03,4.31E-03
30661,2.74E-03,4.60E-03
30662,2.74E-03,3.44E-03
30663,2.71E-03,3.74E-03
30664,2.75E-03,4.02E-03
30665,2.46E-03,3.33E-03
30666,2.56E-03,3.36E-03
30667,2.36E-03,3.25E-03
30668,2.42E-03,3.29E-03
30669,2.32E-03,3.20E-03
30670,2.33E-03,3.22E-03
30671,2.37E-03,3.17E-03
30672,2.33E-03,3.18E-03
30673,2.87E-03,3.13E-03
30674,2.79E-03,3.14E-03
30675,2.76E-03,5.45E-03
30676,2.38E-03,3.17E-03
30677,2.42E-03,3.15E-03
30678,2.43E-03,3.16E-03
30679,2.44E-03,3.11E-03
30680,2.44E-03,3.13E-03
30681,2.40E-03,3.08E-03
30682,2.41E-03,3.09E-03
30683,2.36E-03,3.06E-03
30684,2.37E-03,3.07E-03
30685,2.43E-03,3.04E-03
30686,2.40E-03,3.05E-03
30687,2.47E-03,3.03E-03
30688,2.45E-03,3.04E-03
30689,2.49E-03,3.04E-03
30690,2.42E-03,3.06E-03
30691,2.44E-03,3.05E-03
30692,2.42E-03,3.08E-03
30693,2.42E-03,3.07E-03
30694,2.41E-03,3.08E-03
30695,2.41E-03,3.08E-03
30696,2.45E-03,3.08E-03
30697,2.42E-03,3.08E-03
30698,2.41E-03,3.08E-03
30699,2.43E-03,3.08E-03
30700,2.40E-03,3.08E-03
30701,2.40E-03,3.08E-03
30702,2.40E-03,3.09E-03
30703,2.39E-03,3.08E-03
30704,2.40E-03,3.10E-03
30705,2.39E-03,3.09E-03
30706,2.41E-03,3.11E-03
30707,2.39E-03,3.13E-03
30708,2.40E-03,3.12E-03
30709,2.39E-03,3.13E-03
30710,2.33E-03,3.13E-03
30711,2.35E-03,3.13E-03
30712,2.31E-03,3.12E-03
30713,2.53E-03,3.02E-03
30714,2.42E-03,3.06E-03
30715,2.72E-03,3.23E-03
30716,2.41E-03,3.39E-03
30717,2.50E-03,3.60E-03
30718,2.62E-03,3.03E-03
30719,2.55E-03,3.07E-03
30720,2.46E-03,4.06E-03
30721,2.46E-03,4.29E-03
30722,2.38E-03,4.74E-03
30723,2.63E-03,9.64E-03
30724,2.42E-03,1.07E-02
30725,2.24E-03,3.17E-03
30726,2.50E-03,5.94E-03
30727,2.47E-03,5.71E-03
30728,2.86E-03,3.12E-03
30729,2.50E-03,2.78E-03
30730,2.49E-03,2.79E-03
30731,2.26E-03,2.89E-03
30732,2.28E-03,2.89E-03
30733,2.21E-03,2.88E-03
30734,2.78E-03,2.99E-03
30735,2.69E-03,3.00E-03
30736,2.42E-03,3.84E-03
30737,2.46E-03,4.95E-03
30738,2.67E-03,3.47E-03
30739,2.75E-03,3.15E-03
30740,2.49E-03,2.53E-03
30741,2.52E-03,2.53E-03
30742,2.77E-03,5.21E-03
30743,2.39E-03,2.91E-03
30744,2.39E-03,2.91E-03
30745,2.42E-03,4.51E-03
30746,2.54E-03,6.41E-03
30747,2.51E-03,6.18E-03
30748,2.53E-03,6.86E-03
30749,2.53E-03,6.63E-03
30750,2.49E-03,7.30E-03
30751,2.50E-03,7.08E-03
30752,2.42E-03,7.72E-03
30753,2.42E-03,7.51E-03
30754,2.38E-03,8.13E-03
30755,2.39E-03,7.92E-03
30756,2.37E-03,8.53E-03
30757,2.36E-03,8.33E-03
30758,2.43E-03,8.94E-03
30759,2.38E-03,8.74E-03
30760,2.55E-03,9.36E-03
30761,2.47E-03,9.15E-03
30762,2.75E-03,9.87E-03
30763,2.82E-03,9.80E-03
30764,2.66E-03,9.58E-03
30765,2.62E-03,9.99E-03
30766,2.67E-03,9.93E-03
30767,2.55E-03,1.01E-02
30768,2.57E-03,1.00E-02
30769,2.51E-03,1.02E-02
30770,2.51E-03,1.02E-02
30771,2.46E-03,1.03E-02
30772,2.48E-03,1.03E-02
30773,2.40E-03,1.04E-02
30774,2.43E-03,1.04E-02
30775,2.36E-03,1.05E-02
30776,2.38E-03,1.05E-02
30777,2.33E-03,1.06E-02
30778,2.36E-03,1.05E-02
30779,2.34E-03,1.06E-02
30780,2.35E-03,1.06E-02
30781,2.37E-03,1.06E-02
30782,2.35E-03,1.06E-02
30783,2.42E-03,1.07E-02
30784,2.37E-03,1.06E-02
30785,2.46E-03,1.07E-02
30786,2.45E-03,1.07E-02
30787,2.51E-03,1.06E-02
30788,2.51E-03,1.06E-02
30789,2.59E-03,1.06E-02
30790,2.56E-03,1.06E-02
30791,2.64E-03,1.06E-02
30792,2.61E-03,1.06E-02
30793,2.69E-03,1.06E-02
30794,2.67E-03,1.06E-02
30795,2.67E-03,1.06E-02
30796,2.70E-03,1.06E-02
30797,2.63E-03,1.07E-02
30798,2.66E-03,1.07E-02
30799,2.58E-03,1.07E-02
30800,2.61E-03,1.07E-02
30801,2.52E-03,1.07E-02
30802,2.54E-03,1.07E-02
30803,2.56E-03,1.08E-02
30804,2.52E-03,1.08E-02
30805,2.53E-03,1.08E-02
30806,2.56E-03,1.08E-02
30807,2.48E-03,1.08E-02
30808,2.49E-03,1.08E-02
30809,2.43E-03,1.09E-02
30810,2.46E-03,1.09E-02
30811,2.41E-03,1.09E-02
30812,2.42E-03,1.09E-02
30813,2.47E-03,1.09E-02
30814,2.44E-03,1.09E-02
30815,2.49E-03,1.09E-02
30816,2.50E-03,1.09E-02
30817,2.45E-03,1.10E-02
30818,2.48E-03,1.09E-02
30819,2.42E-03,1.10E-02
30820,2.41E-03,1.10E-02
30821,2.41E-03,1.10E-02
30822,2.39E-03,1.10E-02
30823,2.45E-03,1.10E-02
30824,2.43E-03,1.10E-02
30825,2.52E-03,1.09E-02
30826,2.50E-03,1.09E-02
30827,2.55E-03,1.09E-02
30828,2.54E-03,1.09E-02
30829,2.50E-03,1.09E-02
30830,2.53E-03,1.09E-02
30831,2.41E-03,1.10E-02
30832,2.45E-03,1.10E-02
30833,2.31E-03,1.10E-02
30834,2.33E-03,1.10E-02
30835,2.32E-03,1.10E-02
30836,2.31E-03,1.10E-02
30837,2.47E-03,1.10E-02
30838,2.33E-03,1.10E-02
30839,2.63E-03,3.39E-03
30840,2.13E-03,3.17E-03
30841,2.60E-03,5.45E-03
30842,2.42E-03,1.05E-02
30843,2.45E-03,1.07E-02
30844,2.43E-03,9.91E-03
30845,2.41E-03,1.02E-02
30846,2.47E-03,9.36E-03
30847,2.44E-03,9.64E-03
30848,2.55E-03,8.81E-03
30849,2.49E-03,9.09E-03
30850,2.53E-03,8.26E-03
30851,2.56E-03,8.53E-03
30852,2.55E-03,7.70E-03
30853,2.56E-03,7.98E-03
30854,2.54E-03,7.14E-03
30855,2.56E-03,7.42E-03
30856,2.58E-03,6.58E-03
30857,2.59E-03,6.86E-03
30858,2.61E-03,6.03E-03
30859,2.58E-03,6.31E-03
30860,2.63E-03,5.47E-03
30861,2.62E-03,5.75E-03
30862,2.69E-03,4.90E-03
30863,2.64E-03,5.18E-03
30864,2.70E-03,4.33E-03
30865,2.68E-03,4.61E-03
30866,2.64E-03,3.76E-03
30867,2.70E-03,4.04E-03
30868,2.47E-03,3.07E-03
30869,2.76E-03,3.10E-03
30870,2.35E-03,3.00E-03
30871,2.41E-03,3.03E-03
30872,2.32E-03,2.94E-03
30873,2.32E-03,2.96E-03
30874,2.35E-03,2.92E-03
30875,2.44E-03,2.89E-03
30876,2.41E-03,2.90E-03
30877,2.43E-03,2.86E-03
30878,2.46E-03,2.88E-03
30879,2.38E-03,2.83E-03
30880,2.39E-03,2.84E-03
30881,2.38E-03,2.81E-03
30882,2.37E-03,2.82E-03
30883,2.44E-03,2.79E-03
30884,2.39E-03,2.80E-03
30885,2.48E-03,2.78E-03
30886,2.47E-03,2.79E-03
30887,2.49E-03,2.79E-03
30888,2.45E-03,2.81E-03
30889,2.47E-03,2.80E-03
30890,2.44E-03,2.83E-03
30891,2.44E-03,2.82E-03
30892,2.41E-03,2.83E-03
30893,2.42E-03,2.83E-03
30894,2.46E-03,2.83E-03
30895,2.44E-03,2.83E-03
30896,2.40E-03,2.84E-03
30897,2.43E-03,2.84E-03
30898,2.39E-03,2.84E-03
30899,2.40E-03,2.84E-03
30900,2.39E-03,2.85E-03
30901,2.37E-03,2.84E-03
30902,2.43E-03,2.86E-03
30903,2.41E-03,2.85E-03
30904,2.42E-03,2.88E-03
30905,2.44E-03,2.87E-03
30906,2.41E-03,2.88E-03
30907,2.41E-03,2.88E-03
30908,2.38E-03,2.89E-03
30909,2.39E-03,2.89E-03
30910,2.32E-03,2.89E-03
30911,2.35E-03,2.89E-03
30912,2.31E-03,2.89E-03
30913,2.84E-03,2.77E-03
30914,2.24E-03,2.85E-03
30915,2.77E-03,2.98E-03
30916,2.47E-03,3.63E-03
30917,2.59E-03,2.80E-03
30918,2.51E-03,2.88E-03
30919,2.56E-03,2.84E-03
30920,2.42E-03,4.73E-03
30921,2.59E-03,3.48E-03
30922,2.71E-03,3.16E-03
30923,2.64E-03,2.86E-03
30924,2.62E-03,2.86E-03
30925,2.39E-03,2.65E-03
30926,2.42E-03,2.65E-03
30927,2.49E-03,2.53E-03
30928,2.52E-03,2.53E-03
30929,2.24E-03,2.65E-03
30930,2.27E-03,2.65E-03
30931,2.82E-03,1.01E-02
30932,2.96E-03,1.00E-02
30933,2.91E-03,2.73E-03
30934,2.70E-03,2.76E-03
30935,2.27E-03,2.90E-03
30936,2.60E-03,4.97E-03
30937,2.64E-03,2.87E-03
30938,2.52E-03,2.27E-03
30939,2.51E-03,2.28E-03
30940,2.04E-03,3.04E-03
30941,2.62E-03,3.40E-03
30942,2.63E-03,3.15E-03
30943,2.82E-03,5.22E-03
30944,2.27E-03,5.94E-03
30945,2.26E-03,5.71E-03
30946,2.22E-03,2.65E-03
30947,2.44E-03,4.30E-03
30948,2.44E-03,4.52E-03
30949,2.51E-03,6.39E-03
30950,2.40E-03,6.16E-03
30951,2.55E-03,6.83E-03
30952,2.54E-03,6.61E-03
30953,2.48E-03,7.27E-03
30954,2.48E-03,7.05E-03
30955,2.42E-03,7.68E-03
30956,2.41E-03,7.48E-03
30957,2.39E-03,8.09E-03
30958,2.40E-03,7.89E-03
30959,2.37E-03,8.49E-03
30960,2.37E-03,8.29E-03
30961,2.44E-03,8.89E-03
30962,2.40E-03,8.69E-03
30963,2.52E-03,9.30E-03
30964,2.47E-03,9.10E-03
30965,2.82E-03,9.73E-03
30966,2.63E-03,9.51E-03
30967,2.70E-03,1.02E-02
30968,2.73E-03,1.02E-02
30969,2.61E-03,1.04E-02
30970,2.63E-03,1.03E-02
30971,2.54E-03,1.05E-02
30972,2.56E-03,1.04E-02
30973,2.47E-03,1.06E-02
30974,2.52E-03,1.05E-02
30975,2.41E-03,1.07E-02
30976,2.44E-03,1.07E-02
30977,2.36E-03,1.08E-02
30978,2.38E-03,1.08E-02
30979,2.33E-03,1.08E-02
30980,2.37E-03,1.08E-02
30981,2.34E-03,1.09E-02
30982,2.37E-03,1.09E-02
30983,2.37E-03,1.09E-02
30984,2.36E-03,1.09E-02
30985,2.40E-03,1.09E-02
30986,2.39E-03,1.09E-02
30987,2.46E-03,1.09E-02
30988,2.45E-03,1.09E-02
30989,2.53E-03,1.09E-02
30990,2.50E-03,1.09E-02
30991,2.58E-03,1.09E-02
30992,2.54E-03,1.09E-02
30993,2.64E-03,1.09E-02
30994,2.61E-03,1.09E-02
30995,2.70E-03,1.09E-02
30996,2.68E-03,1.09E-02
30997,2.68E-03,1.09E-02
30998,2.69E-03,1.09E-02
30999,2.61E-03,1.09E-02
31000,2.65E-03,1.09E-02
31001,2.58E-03,1.10E-02
31002,2.61E-03,1.10E-02
31003,2.52E-03,1.10E-02
31004,2.54E-03,1.10E-02
31005,2.57E-03,1.10E-02
31006,2.52E-03,1.10E-02
31007,2.53E-03,1.11E-02
31008,2.56E-03,1.11E-02
31009,2.48E-03,1.11E-02
31010,2.50E-03,1.11E-02
31011,2.43E-03,1.12E-02
31012,2.46E-03,1.11E-02
31013,2.42E-03,1.12E-02
31014,2.42E-03,1.12E-02
31015,2.47E-03,1.12E-02
31016,2.43E-03,1.12E-02
31017,2.50E-03,1.12E-02
31018,2.50E-03,1.12E-02
31019,2.45E-03,1.12E-02
31020,2.48E-03,1.12E-02
31021,2.41E-03,1.13E-02
31022,2.43E-03,1.12E-02
31023,2.40E-03,1.13E-02
31024,2.39E-03,1.13E-02
31025,2.45E-03,1.12E-02
31026,2.43E-03,1.12E-02
31027,2.52E-03,1.12E-02
31028,2.51E-03,1.12E-02
31029,2.56E-03,1.12E-02
31030,2.55E-03,1.12E-02
31031,2.52E-03,1.12E-02
31032,2.55E-03,1.12E-02
31033,2.41E-03,1.12E-02
31034,2.44E-03,1.12E-02
31035,2.32E-03,1.12E-02
31036,2.35E-03,1.12E-02
31037,2.31E-03,1.12E-02
31038,2.30E-03,1.12E-02
31039,2.46E-03,1.12E-02
31040,2.31E-03,1.12E-02
31041,2.44E-03,1.05E-02
31042,2.36E-03,1.08E-02
31043,2.47E-03,9.91E-03
31044,2.44E-03,1.02E-02
31045,2.50E-03,9.36E-03
31046,2.47E-03,9.64E-03
31047,2.53E-03,8.81E-03
31048,2.51E-03,9.09E-03
31049,2.53E-03,8.26E-03
31050,2.54E-03,8.53E-03
31051,2.54E-03,7.70E-03
31052,2.56E-03,7.98E-03
31053,2.56E-03,7.14E-03
31054,2.56E-03,7.42E-03
31055,2.57E-03,6.59E-03
31056,2.58E-03,6.87E-03
31057,2.56E-03,6.03E-03
31058,2.57E-03,6.31E-03
31059,2.60E-03,5.47E-03
31060,2.61E-03,5.75E-03
31061,2.66E-03,4.90E-03
31062,2.62E-03,5.19E-03
31063,2.66E-03,4.34E-03
31064,2.67E-03,4.62E-03
31065,2.62E-03,3.78E-03
31066,2.67E-03,4.06E-03
31067,2.54E-03,3.22E-03
31068,2.51E-03,3.50E-03
31069,2.62E-03,3.19E-03
31070,2.73E-03,2.85E-03
31071,2.45E-03,2.81E-03
31072,2.61E-03,2.84E-03
31073,2.35E-03,2.74E-03
31074,2.38E-03,2.77E-03
31075,2.34E-03,2.68E-03
31076,2.35E-03,2.71E-03
31077,2.35E-03,2.66E-03
31078,2.44E-03,2.64E-03
31079,2.42E-03,2.65E-03
31080,2.41E-03,2.60E-03
31081,2.42E-03,2.62E-03
31082,2.39E-03,2.58E-03
31083,2.39E-03,2.59E-03
31084,2.39E-03,2.56E-03
31085,2.36E-03,2.57E-03
31086,2.44E-03,2.54E-03
31087,2.39E-03,2.55E-03
31088,2.46E-03,2.53E-03
31089,2.47E-03,2.54E-03
31090,2.49E-03,2.53E-03
31091,2.45E-03,2.57E-03
31092,2.46E-03,2.55E-03
31093,2.42E-03,2.59E-03
31094,2.43E-03,2.58E-03
31095,2.42E-03,2.59E-03
31096,2.41E-03,2.59E-03
31097,2.46E-03,2.59E-03
31098,2.44E-03,2.59E-03
31099,2.41E-03,2.59E-03
31100,2.44E-03,2.59E-03
31101,2.39E-03,2.60E-03
31102,2.39E-03,2.60E-03
31103,2.40E-03,2.61E-03
31104,2.38E-03,2.60E-03
31105,2.44E-03,2.62E-03
31106,2.40E-03,2.61E-03
31107,2.44E-03,2.64E-03
31108,2.44E-03,2.63E-03
31109,2.41E-03,2.65E-03
31110,2.43E-03,2.64E-03
31111,2.38E-03,2.65E-03
31112,2.39E-03,2.65E-03
31113,2.31E-03,2.65E-03
31114,2.35E-03,2.65E-03
31115,2.29E-03,2.65E-03
31116,3.28E-03,9.97E-03
31117,2.03E-03,2.58E-03
31118,2.16E-03,2.64E-03
31119,2.80E-03,2.73E-03
31120,2.00E-03,2.94E-03
31121,2.45E-03,3.64E-03
31122,2.56E-03,2.56E-03
31123,2.42E-03,2.64E-03
31124,2.52E-03,2.60E-03
31125,2.56E-03,4.75E-03
31126,2.48E-03,2.97E-03
31127,2.62E-03,2.89E-03
31128,2.56E-03,2.59E-03
31129,2.50E-03,2.59E-03
31130,2.40E-03,2.40E-03
31131,2.41E-03,2.39E-03
31132,2.51E-03,2.28E-03
31133,2.49E-03,2.28E-03
31134,2.23E-03,2.41E-03
31135,2.27E-03,2.41E-03
31136,2.22E-03,2.41E-03
31137,2.54E-03,2.52E-03
31138,2.36E-03,2.68E-03
31139,2.27E-03,3.21E-03
31140,2.32E-03,2.93E-03
31141,2.37E-03,3.42E-03
31142,2.80E-03,4.99E-03
31143,2.19E-03,5.92E-03
31144,3.24E-03,1.02E-02
31145,2.61E-03,2.60E-03
31146,2.51E-03,2.02E-03
31147,2.51E-03,2.03E-03
31148,2.20E-03,3.19E-03
31149,2.44E-03,4.30E-03
31150,1.83E-03,2.40E-03
31151,1.78E-03,2.45E-03
31152,2.40E-03,4.08E-03
31153,2.40E-03,3.86E-03
31154,2.32E-03,5.49E-03
31155,2.58E-03,2.48E-03
31156,2.49E-03,4.53E-03
31157,2.50E-03,6.37E-03
31158,2.39E-03,6.14E-03
31159,2.54E-03,6.81E-03
31160,2.52E-03,6.59E-03
31161,2.47E-03,7.24E-03
31162,2.49E-03,7.03E-03
31163,2.42E-03,7.65E-03
31164,2.41E-03,7.45E-03
31165,2.39E-03,8.05E-03
31166,2.39E-03,7.85E-03
31167,2.37E-03,8.44E-03
31168,2.36E-03,8.25E-03
31169,2.44E-03,8.84E-03
31170,2.40E-03,8.64E-03
31171,2.51E-03,9.24E-03
31172,2.47E-03,9.04E-03
31173,2.63E-03,9.66E-03
31174,2.53E-03,9.45E-03
31175,2.88E-03,9.88E-03
31176,2.86E-03,1.03E-02
31177,3.00E-03,1.03E-02
31178,2.74E-03,1.05E-02
31179,2.77E-03,1.04E-02
31180,2.64E-03,1.06E-02
31181,2.66E-03,1.05E-02
31182,2.54E-03,1.07E-02
31183,2.60E-03,1.07E-02
31184,2.50E-03,1.09E-02
31185,2.52E-03,1.08E-02
31186,2.42E-03,1.10E-02
31187,2.45E-03,1.09E-02
31188,2.36E-03,1.11E-02
31189,2.40E-03,1.10E-02
31190,2.33E-03,1.11E-02
31191,2.37E-03,1.11E-02
31192,2.36E-03,1.12E-02
31193,2.37E-03,1.12E-02
31194,2.36E-03,1.12E-02
31195,2.36E-03,1.12E-02
31196,2.41E-03,1.12E-02
31197,2.41E-03,1.12E-02
31198,2.48E-03,1.12E-02
31199,2.45E-03,1.12E-02
31200,2.54E-03,1.12E-02
31201,2.50E-03,1.12E-02
31202,2.57E-03,1.12E-02
31203,2.55E-03,1.12E-02
31204,2.64E-03,1.12E-02
31205,2.62E-03,1.12E-02
31206,2.72E-03,1.12E-02
31207,2.67E-03,1.12E-02
31208,2.70E-03,1.12E-02
31209,2.69E-03,1.12E-02
31210,2.61E-03,1.12E-02
31211,2.65E-03,1.12E-02
31212,2.57E-03,1.13E-02
31213,2.61E-03,1.12E-02
31214,2.52E-03,1.13E-02
31215,2.53E-03,1.13E-02
31216,2.56E-03,1.13E-02
31217,2.51E-03,1.13E-02
31218,2.55E-03,1.13E-02
31219,2.57E-03,1.13E-02
31220,2.49E-03,1.14E-02
31221,2.50E-03,1.14E-02
31222,2.42E-03,1.14E-02
31223,2.44E-03,1.14E-02
31224,2.43E-03,1.15E-02
31225,2.42E-03,1.15E-02
31226,2.47E-03,1.15E-02
31227,2.44E-03,1.15E-02
31228,2.50E-03,1.15E-02
31229,2.50E-03,1.15E-02
31230,2.45E-03,1.15E-02
31231,2.47E-03,1.15E-02
31232,2.39E-03,1.15E-02
31233,2.44E-03,1.15E-02
31234,2.41E-03,1.15E-02
31235,2.39E-03,1.15E-02
31236,2.45E-03,1.15E-02
31237,2.43E-03,1.15E-02
31238,2.53E-03,1.15E-02
31239,2.50E-03,1.15E-02
31240,2.56E-03,1.15E-02
31241,2.57E-03,1.15E-02
31242,2.53E-03,1.15E-02
31243,2.55E-03,1.15E-02
31244,2.42E-03,1.15E-02
31245,2.45E-03,1.15E-02
31246,2.34E-03,1.15E-02
31247,2.37E-03,1.15E-02
31248,2.31E-03,1.15E-02
31249,2.30E-03,1.15E-02
31250,2.19E-03,1.15E-02
31251,2.27E-03,1.15E-02
31252,1.97E-03,1.10E-02
31253,2.45E-03,1.05E-02
31254,2.37E-03,1.07E-02
31255,2.47E-03,9.91E-03
31256,2.47E-03,1.02E-02
31257,2.52E-03,9.36E-03
31258,2.48E-03,9.64E-03
31259,2.53E-03,8.81E-03
31260,2.52E-03,9.09E-03
31261,2.52E-03,8.25E-03
31262,2.54E-03,8.53E-03
31263,2.53E-03,7.70E-03
31264,2.52E-03,7.98E-03
31265,2.54E-03,7.14E-03
31266,2.56E-03,7.42E-03
31267,2.55E-03,6.59E-03
31268,2.57E-03,6.87E-03
31269,2.57E-03,6.03E-03
31270,2.56E-03,6.31E-03
31271,2.61E-03,5.47E-03
31272,2.60E-03,5.75E-03
31273,2.62E-03,4.91E-03
31274,2.63E-03,5.19E-03
31275,2.65E-03,4.35E-03
31276,2.64E-03,4.63E-03
31277,2.62E-03,3.79E-03
31278,2.64E-03,4.07E-03
31279,2.24E-03,3.24E-03
31280,2.56E-03,3.51E-03
31281,2.63E-03,2.91E-03
31282,2.00E-03,2.61E-03
31283,2.47E-03,2.59E-03
31284,2.39E-03,2.54E-03
31285,2.24E-03,2.55E-03
31286,2.34E-03,2.48E-03
31287,2.36E-03,2.51E-03
31288,2.37E-03,2.43E-03
31289,2.33E-03,2.45E-03
31290,2.39E-03,2.41E-03
31291,2.45E-03,2.38E-03
31292,2.43E-03,2.39E-03
31293,2.41E-03,2.35E-03
31294,2.40E-03,2.36E-03
31295,2.38E-03,2.33E-03
31296,2.38E-03,2.34E-03
31297,2.41E-03,2.31E-03
31298,2.37E-03,2.32E-03
31299,2.44E-03,2.29E-03
31300,2.40E-03,2.30E-03
31301,2.47E-03,2.28E-03
31302,2.45E-03,2.29E-03
31303,2.47E-03,2.28E-03
31304,2.45E-03,2.32E-03
31305,2.46E-03,2.30E-03
31306,2.44E-03,2.34E-03
31307,2.44E-03,2.33E-03
31308,2.43E-03,2.35E-03
31309,2.42E-03,2.35E-03
31310,2.46E-03,2.35E-03
31311,2.43E-03,2.35E-03
31312,2.40E-03,2.35E-03
31313,2.43E-03,2.35E-03
31314,2.39E-03,2.36E-03
31315,2.40E-03,2.36E-03
31316,2.41E-03,2.37E-03
31317,2.38E-03,2.36E-03
31318,2.43E-03,2.38E-03
31319,2.40E-03,2.37E-03
31320,2.44E-03,2.40E-03
31321,2.43E-03,2.39E-03
31322,2.44E-03,2.41E-03
31323,2.45E-03,2.40E-03
31324,2.39E-03,2.42E-03
31325,2.43E-03,2.41E-03
31326,2.32E-03,2.41E-03
31327,2.35E-03,2.42E-03
31328,2.29E-03,2.41E-03
31329,2.20E-03,2.40E-03
31330,2.57E-03,2.50E-03
31331,2.03E-03,2.81E-03
31332,2.37E-03,2.74E-03
31333,2.26E-03,2.87E-03
31334,2.37E-03,3.64E-03
31335,2.50E-03,2.33E-03
31336,2.43E-03,2.41E-03
31337,2.48E-03,2.36E-03
31338,2.42E-03,4.07E-03
31339,2.39E-03,3.85E-03
31340,2.40E-03,4.07E-03
31341,2.54E-03,2.94E-03
31342,2.44E-03,4.30E-03
31343,2.70E-03,4.77E-03
31344,2.36E-03,5.88E-03
31345,2.61E-03,2.62E-03
31346,2.54E-03,2.33E-03
31347,2.49E-03,2.33E-03
31348,2.40E-03,2.15E-03
31349,2.40E-03,2.14E-03
31350,2.51E-03,2.03E-03
31351,2.49E-03,2.03E-03
31352,2.22E-03,2.18E-03
31353,2.27E-03,2.18E-03
31354,2.20E-03,2.18E-03
31355,2.03E-03,2.22E-03
31356,2.21E-03,2.20E-03
31357,2.30E-03,2.23E-03
31358,2.52E-03,2.30E-03
31359,2.36E-03,2.46E-03
31360,2.28E-03,3.43E-03
31361,3.12E-03,5.25E-03
31362,2.58E-03,2.33E-03
31363,2.50E-03,1.78E-03
31364,2.51E-03,1.78E-03
31365,2.06E-03,2.98E-03
31366,1.99E-03,3.25E-03
31367,2.44E-03,3.84E-03
31368,2.57E-03,4.53E-03
31369,2.51E-03,6.34E-03
31370,2.50E-03,6.11E-03
31371,2.53E-03,6.78E-03
31372,2.53E-03,6.56E-03
31373,2.47E-03,7.21E-03
31374,2.51E-03,7.00E-03
31375,2.41E-03,7.62E-03
31376,2.42E-03,7.42E-03
31377,2.37E-03,8.01E-03
31378,2.38E-03,7.82E-03
31379,2.38E-03,8.40E-03
31380,2.35E-03,8.21E-03
31381,2.43E-03,8.79E-03
31382,2.40E-03,8.60E-03
31383,2.48E-03,9.19E-03
31384,2.45E-03,8.99E-03
31385,2.51E-03,9.58E-03
31386,2.51E-03,9.39E-03
31387,1.88E-03,9.91E-03
31388,2.39E-03,9.76E-03
31389,2.95E-03,1.05E-02
31390,2.75E-03,1.04E-02
31391,2.87E-03,1.06E-02
31392,2.97E-03,1.05E-02
31393,2.76E-03,1.07E-02
31394,2.80E-03,1.06E-02
31395,2.65E-03,1.09E-02
31396,2.67E-03,1.08E-02
31397,2.56E-03,1.10E-02
31398,2.62E-03,1.09E-02
31399,2.49E-03,1.11E-02
31400,2.51E-03,1.11E-02
31401,2.42E-03,1.13E-02
31402,2.45E-03,1.12E-02
31403,2.36E-03,1.14E-02
31404,2.40E-03,1.13E-02
31405,2.33E-03,1.14E-02
31406,2.37E-03,1.14E-02
31407,2.36E-03,1.15E-02
31408,2.37E-03,1.14E-02
31409,2.38E-03,1.15E-02
31410,2.36E-03,1.15E-02
31411,2.43E-03,1.15E-02
31412,2.39E-03,1.15E-02
31413,2.48E-03,1.15E-02
31414,2.46E-03,1.15E-02
31415,2.53E-03,1.15E-02
31416,2.50E-03,1.15E-02
31417,2.58E-03,1.15E-02
31418,2.55E-03,1.15E-02
31419,2.65E-03,1.14E-02
31420,2.62E-03,1.14E-02
31421,2.71E-03,1.14E-02
31422,2.67E-03,1.14E-02
31423,2.68E-03,1.15E-02
31424,2.69E-03,1.15E-02
31425,2.61E-03,1.15E-02
31426,2.65E-03,1.15E-02
31427,2.58E-03,1.15E-02
31428,2.60E-03,1.15E-02
31429,2.52E-03,1.16E-02
31430,2.54E-03,1.15E-02
31431,2.56E-03,1.16E-02
31432,2.52E-03,1.16E-02
31433,2.54E-03,1.16E-02
31434,2.56E-03,1.16E-02
31435,2.49E-03,1.17E-02
31436,2.50E-03,1.16E-02
31437,2.43E-03,1.17E-02
31438,2.45E-03,1.17E-02
31439,2.42E-03,1.17E-02
31440,2.42E-03,1.17E-02
31441,2.47E-03,1.17E-02
31442,2.44E-03,1.17E-02
31443,2.51E-03,1.18E-02
31444,2.50E-03,1.17E-02
31445,2.45E-03,1.18E-02
31446,2.47E-03,1.18E-02
31447,2.41E-03,1.18E-02
31448,2.44E-03,1.18E-02
31449,2.41E-03,1.18E-02
31450,2.40E-03,1.18E-02
31451,2.45E-03,1.18E-02
31452,2.43E-03,1.18E-02
31453,2.52E-03,1.18E-02
31454,2.51E-03,1.18E-02
31455,2.57E-03,1.18E-02
31456,2.55E-03,1.18E-02
31457,2.51E-03,1.18E-02
31458,2.54E-03,1.18E-02
31459,2.42E-03,1.18E-02
31460,2.47E-03,1.18E-02
31461,2.34E-03,1.18E-02
31462,2.37E-03,1.18E-02
31463,2.31E-03,1.18E-02
31464,2.31E-03,1.18E-02
31465,2.43E-03,1.18E-02
31466,2.29E-03,1.18E-02
31467,2.31E-03,1.17E-02
31468,2.05E-03,1.17E-02
31469,2.44E-03,1.15E-02
31470,2.58E-03,1.17E-02
31471,2.83E-03,1.16E-02
31472,2.52E-03,1.10E-02
31473,2.11E-03,1.13E-02
31474,2.42E-03,1.05E-02
31475,2.39E-03,1.07E-02
31476,2.48E-03,9.91E-03
31477,2.47E-03,1.02E-02
31478,2.52E-03,9.36E-03
31479,2.51E-03,9.64E-03
31480,2.51E-03,8.81E-03
31481,2.51E-03,9.08E-03
31482,2.53E-03,8.25E-03
31483,2.52E-03,8.53E-03
31484,2.53E-03,7.70E-03
31485,2.53E-03,7.98E-03
31486,2.54E-03,7.14E-03
31487,2.54E-03,7.42E-03
31488,2.55E-03,6.59E-03
31489,2.57E-03,6.87E-03
31490,2.57E-03,6.03E-03
31491,2.55E-03,6.31E-03
31492,2.61E-03,5.48E-03
31493,2.58E-03,5.76E-03
31494,2.61E-03,4.92E-03
31495,2.60E-03,5.20E-03
31496,2.64E-03,4.35E-03
31497,2.61E-03,4.64E-03
31498,2.62E-03,3.79E-03
31499,2.63E-03,4.07E-03
31500,2.65E-03,3.22E-03
31501,2.59E-03,3.51E-03
31502,3.10E-03,2.89E-03
31503,2.64E-03,2.68E-03
31504,2.31E-03,2.75E-03
31505,2.60E-03,2.64E-03
31506,2.16E-03,2.34E-03
31507,2.39E-03,2.34E-03
31508,2.31E-03,2.28E-03
31509,2.31E-03,2.31E-03
31510,2.32E-03,2.23E-03
31511,2.33E-03,2.26E-03
31512,2.38E-03,2.17E-03
31513,2.33E-03,2.20E-03
31514,2.39E-03,2.16E-03
31515,2.42E-03,2.12E-03
31516,2.43E-03,2.13E-03
31517,2.39E-03,2.10E-03
31518,2.40E-03,2.11E-03
31519,2.36E-03,2.08E-03
31520,2.36E-03,2.08E-03
31521,2.39E-03,2.06E-03
31522,2.37E-03,2.07E-03
31523,2.44E-03,2.04E-03
31524,2.41E-03,2.05E-03
31525,2.47E-03,2.03E-03
31526,2.47E-03,2.04E-03
31527,2.47E-03,2.04E-03
31528,2.45E-03,2.07E-03
31529,2.46E-03,2.06E-03
31530,2.44E-03,2.10E-03
31531,2.45E-03,2.09E-03
31532,2.41E-03,2.11E-03
31533,2.43E-03,2.10E-03
31534,2.47E-03,2.11E-03
31535,2.43E-03,2.11E-03
31536,2.43E-03,2.11E-03
31537,2.43E-03,2.11E-03
31538,2.39E-03,2.12E-03
31539,2.40E-03,2.12E-03
31540,2.41E-03,2.13E-03
31541,2.40E-03,2.12E-03
31542,2.43E-03,2.14E-03
31543,2.41E-03,2.14E-03
31544,2.44E-03,2.16E-03
31545,2.42E-03,2.15E-03
31546,2.46E-03,2.17E-03
31547,2.45E-03,2.16E-03
31548,2.39E-03,2.18E-03
31549,2.43E-03,2.18E-03
31550,2.34E-03,2.18E-03
31551,2.35E-03,2.18E-03
31552,2.30E-03,2.18E-03
31553,2.19E-03,2.19E-03
31554,2.48E-03,2.27E-03
31555,2.08E-03,2.55E-03
31556,2.27E-03,2.51E-03
31557,2.35E-03,2.68E-03
31558,2.21E-03,2.62E-03
31559,2.15E-03,2.72E-03
31560,2.34E-03,3.64E-03
31561,2.48E-03,2.10E-03
31562,2.43E-03,2.18E-03
31563,2.47E-03,2.14E-03
31564,2.43E-03,4.29E-03
31565,3.24E-03,5.02E-03
31566,2.88E-03,4.76E-03
31567,3.04E-03,5.41E-03
31568,2.60E-03,2.35E-03
31569,2.50E-03,2.07E-03
31570,2.42E-03,2.08E-03
31571,2.39E-03,1.90E-03
31572,2.41E-03,1.89E-03
31573,2.50E-03,1.78E-03
31574,2.50E-03,1.78E-03
31575,2.24E-03,1.95E-03
31576,2.28E-03,1.95E-03
31577,2.20E-03,1.96E-03
31578,2.13E-03,1.98E-03
31579,2.21E-03,1.97E-03
31580,2.49E-03,2.06E-03
31581,2.37E-03,2.23E-03
31582,2.33E-03,3.43E-03
31583,2.39E-03,1.15E-02
31584,2.30E-03,1.18E-02
31585,2.59E-03,2.06E-03
31586,2.50E-03,1.54E-03
31587,2.50E-03,1.54E-03
31588,2.20E-03,3.18E-03
31589,2.45E-03,3.83E-03
31590,2.32E-03,2.01E-03
31591,2.57E-03,4.52E-03
31592,2.50E-03,5.86E-03
31593,2.48E-03,5.62E-03
31594,2.57E-03,6.32E-03
31595,2.55E-03,6.09E-03
31596,2.54E-03,6.76E-03
31597,2.54E-03,6.54E-03
31598,2.48E-03,7.18E-03
31599,2.49E-03,6.97E-03
31600,2.41E-03,7.59E-03
31601,2.43E-03,7.38E-03
31602,2.36E-03,7.98E-03
31603,2.39E-03,7.78E-03
31604,2.36E-03,8.36E-03
31605,2.37E-03,8.17E-03
31606,2.42E-03,8.75E-03
31607,2.41E-03,8.55E-03
31608,2.45E-03,9.14E-03
31609,2.44E-03,8.94E-03
31610,2.43E-03,9.52E-03
31611,2.46E-03,9.33E-03
31612,2.21E-03,9.87E-03
31613,2.34E-03,9.69E-03
31614,2.18E-03,1.01E-02
31615,2.17E-03,1.06E-02
31616,2.90E-03,1.07E-02
31617,2.85E-03,1.06E-02
31618,2.85E-03,1.08E-02
31619,2.90E-03,1.08E-02
31620,2.78E-03,1.10E-02
31621,2.82E-03,1.09E-02
31622,2.66E-03,1.11E-02
31623,2.69E-03,1.11E-02
31624,2.56E-03,1.13E-02
31625,2.63E-03,1.12E-02
31626,2.51E-03,1.14E-02
31627,2.51E-03,1.14E-02
31628,2.43E-03,1.16E-02
31629,2.46E-03,1.15E-02
31630,2.37E-03,1.16E-02
31631,2.41E-03,1.16E-02
31632,2.36E-03,1.17E-02
31633,2.36E-03,1.17E-02
31634,2.34E-03,1.18E-02
31635,2.35E-03,1.17E-02
31636,2.39E-03,1.18E-02
31637,2.37E-03,1.18E-02
31638,2.43E-03,1.18E-02
31639,2.39E-03,1.18E-02
31640,2.47E-03,1.18E-02
31641,2.44E-03,1.18E-02
31642,2.53E-03,1.18E-02
31643,2.51E-03,1.18E-02
31644,2.58E-03,1.17E-02
31645,2.56E-03,1.17E-02
31646,2.65E-03,1.17E-02
31647,2.62E-03,1.17E-02
31648,2.69E-03,1.17E-02
31649,2.69E-03,1.17E-02
31650,2.67E-03,1.17E-02
31651,2.70E-03,1.17E-02
31652,2.60E-03,1.18E-02
31653,2.65E-03,1.17E-02
31654,2.57E-03,1.18E-02
31655,2.60E-03,1.18E-02
31656,2.52E-03,1.18E-02
31657,2.54E-03,1.18E-02
31658,2.55E-03,1.19E-02
31659,2.53E-03,1.18E-02
31660,2.53E-03,1.19E-02
31661,2.56E-03,1.19E-02
31662,2.48E-03,1.19E-02
31663,2.51E-03,1.19E-02
31664,2.42E-03,1.20E-02
31665,2.46E-03,1.20E-02
31666,2.43E-03,1.20E-02
31667,2.43E-03,1.20E-02
31668,2.48E-03,1.20E-02
31669,2.46E-03,1.20E-02
31670,2.51E-03,1.20E-02
31671,2.50E-03,1.20E-02
31672,2.47E-03,1.21E-02
31673,2.47E-03,1.20E-02
31674,2.39E-03,1.21E-02
31675,2.43E-03,1.21E-02
31676,2.40E-03,1.21E-02
31677,2.38E-03,1.21E-02
31678,2.45E-03,1.21E-02
31679,2.43E-03,1.21E-02
31680,2.52E-03,1.20E-02
31681,2.49E-03,1.20E-02
31682,2.58E-03,1.20E-02
31683,2.56E-03,1.20E-02
31684,2.53E-03,1.20E-02
31685,2.53E-03,1.20E-02
31686,2.43E-03,1.21E-02
31687,2.46E-03,1.21E-02
31688,2.34E-03,1.21E-02
31689,2.36E-03,1.21E-02
31690,2.32E-03,1.21E-02
31691,2.31E-03,1.21E-02
31692,2.34E-03,1.20E-02
31693,2.36E-03,1.20E-02
31694,2.51E-03,1.19E-02
31695,2.44E-03,1.20E-02
31696,2.03E-03,1.19E-02
31697,2.52E-03,1.19E-02
31698,2.40E-03,1.10E-02
31699,2.37E-03,1.13E-02
31700,2.45E-03,1.05E-02
31701,2.44E-03,1.07E-02
31702,2.49E-03,9.91E-03
31703,2.49E-03,1.02E-02
31704,2.51E-03,9.36E-03
31705,2.49E-03,9.64E-03
31706,2.52E-03,8.80E-03
31707,2.52E-03,9.08E-03
31708,2.53E-03,8.25E-03
31709,2.53E-03,8.53E-03
31710,2.54E-03,7.70E-03
31711,2.53E-03,7.97E-03
31712,2.53E-03,7.14E-03
31713,2.55E-03,7.42E-03
31714,2.52E-03,6.59E-03
31715,2.54E-03,6.87E-03
31716,2.56E-03,6.03E-03
31717,2.54E-03,6.31E-03
31718,2.58E-03,5.48E-03
31719,2.56E-03,5.76E-03
31720,2.60E-03,4.92E-03
31721,2.61E-03,5.20E-03
31722,2.63E-03,4.36E-03
31723,2.61E-03,4.64E-03
31724,2.66E-03,3.80E-03
31725,2.64E-03,4.08E-03
31726,2.76E-03,3.22E-03
31727,2.69E-03,3.51E-03
31728,3.05E-03,2.60E-03
31729,2.85E-03,2.65E-03
31730,2.83E-03,2.92E-03
31731,2.51E-03,2.42E-03
31732,2.92E-03,2.52E-03
31733,2.55E-03,2.37E-03
31734,2.29E-03,2.07E-03
31735,2.36E-03,2.08E-03
31736,2.31E-03,2.03E-03
31737,2.33E-03,2.06E-03
31738,2.32E-03,1.98E-03
31739,2.29E-03,2.01E-03
31740,2.39E-03,1.93E-03
31741,2.36E-03,1.95E-03
31742,2.39E-03,1.91E-03
31743,2.41E-03,1.87E-03
31744,2.42E-03,1.88E-03
31745,2.38E-03,1.84E-03
31746,2.40E-03,1.85E-03
31747,2.36E-03,1.83E-03
31748,2.35E-03,1.83E-03
31749,2.39E-03,1.82E-03
31750,2.36E-03,1.82E-03
31751,2.44E-03,1.80E-03
31752,2.41E-03,1.81E-03
31753,2.47E-03,1.79E-03
31754,2.46E-03,1.80E-03
31755,2.48E-03,1.79E-03
31756,2.45E-03,1.83E-03
31757,2.45E-03,1.81E-03
31758,2.44E-03,1.86E-03
31759,2.44E-03,1.85E-03
31760,2.42E-03,1.86E-03
31761,2.43E-03,1.86E-03
31762,2.47E-03,1.87E-03
31763,2.44E-03,1.87E-03
31764,2.43E-03,1.87E-03
31765,2.44E-03,1.87E-03
31766,2.40E-03,1.88E-03
31767,2.41E-03,1.88E-03
31768,2.41E-03,1.89E-03
31769,2.39E-03,1.89E-03
31770,2.41E-03,1.91E-03
31771,2.41E-03,1.90E-03
31772,2.43E-03,1.92E-03
31773,2.43E-03,1.91E-03
31774,2.45E-03,1.94E-03
31775,2.43E-03,1.93E-03
31776,2.39E-03,1.95E-03
31777,2.41E-03,1.94E-03
31778,2.33E-03,1.95E-03
31779,2.36E-03,1.95E-03
31780,2.31E-03,1.95E-03
31781,2.22E-03,1.97E-03
31782,2.40E-03,2.03E-03
31783,2.25E-03,2.33E-03
31784,2.30E-03,2.28E-03
31785,2.20E-03,2.44E-03
31786,2.23E-03,2.39E-03
31787,2.53E-03,2.63E-03
31788,2.23E-03,2.51E-03
31789,2.46E-03,3.62E-03
31790,2.50E-03,1.87E-03
31791,2.43E-03,1.95E-03
31792,2.50E-03,1.91E-03
31793,3.57E-03,5.04E-03
31794,3.05E-03,4.75E-03
31795,3.41E-03,5.31E-03
31796,2.59E-03,1.06E-02
31797,2.28E-03,1.20E-02
31798,2.64E-03,2.08E-03
31799,2.46E-03,1.81E-03
31800,2.36E-03,1.83E-03
31801,2.42E-03,1.66E-03
31802,2.42E-03,1.65E-03
31803,2.49E-03,1.54E-03
31804,2.46E-03,1.54E-03
31805,2.23E-03,1.73E-03
31806,2.28E-03,1.72E-03
31807,2.21E-03,1.73E-03
31808,2.26E-03,1.76E-03
31809,2.23E-03,1.75E-03
31810,2.31E-03,1.78E-03
31811,2.48E-03,1.83E-03
31812,2.39E-03,2.00E-03
31813,2.74E-03,3.38E-03
31814,2.55E-03,1.80E-03
31815,2.50E-03,1.29E-03
31816,2.50E-03,1.29E-03
31817,2.74E-03,2.77E-03
31818,3.55E-03,3.05E-03
31819,2.59E-03,2.41E-03
31820,2.88E-03,2.51E-03
31821,2.33E-03,4.28E-03
31822,2.72E-03,2.67E-03
31823,2.67E-03,2.41E-03
31824,2.49E-03,4.49E-03
31825,2.71E-03,5.82E-03
31826,2.91E-03,5.59E-03
31827,2.61E-03,6.29E-03
31828,2.62E-03,6.06E-03
31829,2.57E-03,6.73E-03
31830,2.56E-03,6.52E-03
31831,2.48E-03,7.15E-03
31832,2.49E-03,6.95E-03
31833,2.41E-03,7.55E-03
31834,2.42E-03,7.36E-03
31835,2.36E-03,7.94E-03
31836,2.39E-03,7.75E-03
31837,2.36E-03,8.32E-03
31838,2.36E-03,8.13E-03
31839,2.42E-03,8.70E-03
31840,2.41E-03,8.51E-03
31841,2.47E-03,9.09E-03
31842,2.46E-03,8.90E-03
31843,2.41E-03,9.46E-03
31844,2.43E-03,9.28E-03
31845,2.36E-03,9.83E-03
31846,2.38E-03,9.64E-03
31847,2.55E-03,1.02E-02
31848,2.37E-03,1.00E-02
31849,2.97E-03,1.08E-02
31850,3.74E-03,1.07E-02
31851,2.87E-03,1.04E-02
31852,2.93E-03,1.09E-02
31853,2.91E-03,1.09E-02
31854,2.86E-03,1.11E-02
31855,2.91E-03,1.10E-02
31856,2.76E-03,1.12E-02
31857,2.82E-03,1.12E-02
31858,2.66E-03,1.14E-02
31859,2.71E-03,1.13E-02
31860,2.57E-03,1.16E-02
31861,2.62E-03,1.15E-02
31862,2.49E-03,1.17E-02
31863,2.52E-03,1.16E-02
31864,2.43E-03,1.18E-02
31865,2.45E-03,1.18E-02
31866,2.38E-03,1.19E-02
31867,2.41E-03,1.19E-02
31868,2.36E-03,1.20E-02
31869,2.35E-03,1.20E-02
31870,2.35E-03,1.20E-02
31871,2.36E-03,1.20E-02
31872,2.36E-03,1.21E-02
31873,2.37E-03,1.21E-02
31874,2.43E-03,1.21E-02
31875,2.40E-03,1.21E-02
31876,2.47E-03,1.21E-02
31877,2.43E-03,1.21E-02
31878,2.54E-03,1.20E-02
31879,2.51E-03,1.21E-02
31880,2.57E-03,1.20E-02
31881,2.56E-03,1.20E-02
31882,2.65E-03,1.20E-02
31883,2.63E-03,1.20E-02
31884,2.69E-03,1.20E-02
31885,2.68E-03,1.20E-02
31886,2.67E-03,1.20E-02
31887,2.70E-03,1.20E-02
31888,2.61E-03,1.20E-02
31889,2.65E-03,1.20E-02
31890,2.57E-03,1.21E-02
31891,2.61E-03,1.20E-02
31892,2.51E-03,1.21E-02
31893,2.53E-03,1.21E-02
31894,2.54E-03,1.21E-02
31895,2.52E-03,1.21E-02
31896,2.53E-03,1.22E-02
31897,2.56E-03,1.22E-02
31898,2.48E-03,1.22E-02
31899,2.51E-03,1.22E-02
31900,2.42E-03,1.23E-02
31901,2.46E-03,1.22E-02
31902,2.42E-03,1.23E-02
31903,2.43E-03,1.23E-02
31904,2.47E-03,1.23E-02
31905,2.47E-03,1.23E-02
31906,2.52E-03,1.23E-02
31907,2.50E-03,1.23E-02
31908,2.47E-03,1.23E-02
31909,2.47E-03,1.23E-02
31910,2.39E-03,1.24E-02
31911,2.42E-03,1.23E-02
31912,2.40E-03,1.24E-02
31913,2.40E-03,1.24E-02
31914,2.45E-03,1.23E-02
31915,2.43E-03,1.23E-02
31916,2.54E-03,1.23E-02
31917,2.51E-03,1.23E-02
31918,2.58E-03,1.23E-02
31919,2.57E-03,1.23E-02
31920,2.53E-03,1.23E-02
31921,2.55E-03,1.23E-02
31922,2.42E-03,1.24E-02
31923,2.45E-03,1.23E-02
31924,2.36E-03,1.24E-02
31925,2.36E-03,1.24E-02
31926,2.35E-03,1.23E-02
31927,2.34E-03,1.24E-02
31928,2.42E-03,1.23E-02
31929,2.37E-03,1.23E-02
31930,2.54E-03,1.22E-02
31931,2.47E-03,1.23E-02
31932,2.42E-03,1.22E-02
31933,2.56E-03,1.22E-02
31934,3.05E-03,1.21E-02
31935,2.47E-03,1.16E-02
31936,2.53E-03,1.18E-02
31937,2.45E-03,1.10E-02
31938,2.44E-03,1.13E-02
31939,2.48E-03,1.05E-02
31940,2.45E-03,1.07E-02
31941,2.52E-03,9.91E-03
31942,2.48E-03,1.02E-02
31943,2.53E-03,9.36E-03
31944,2.50E-03,9.63E-03
31945,2.52E-03,8.80E-03
31946,2.52E-03,9.08E-03
31947,2.52E-03,8.25E-03
31948,2.53E-03,8.53E-03
31949,2.51E-03,7.70E-03
31950,2.53E-03,7.97E-03
31951,2.52E-03,7.14E-03
31952,2.54E-03,7.42E-03
31953,2.53E-03,6.59E-03
31954,2.54E-03,6.86E-03
31955,2.56E-03,6.04E-03
31956,2.56E-03,6.31E-03
31957,2.56E-03,5.48E-03
31958,2.57E-03,5.76E-03
31959,2.60E-03,4.92E-03
31960,2.61E-03,5.20E-03
31961,2.63E-03,4.37E-03
31962,2.60E-03,4.65E-03
31963,2.67E-03,3.81E-03
31964,2.64E-03,4.09E-03
31965,2.72E-03,3.23E-03
31966,2.70E-03,3.52E-03
31967,2.73E-03,2.94E-03
31968,2.85E-03,2.31E-03
31969,2.76E-03,2.37E-03
31970,2.61E-03,2.17E-03
31971,2.69E-03,2.24E-03
31972,2.60E-03,2.12E-03
31973,2.29E-03,1.82E-03
31974,2.31E-03,1.83E-03
31975,2.30E-03,1.78E-03
31976,2.29E-03,1.80E-03
31977,2.34E-03,1.73E-03
31978,2.30E-03,1.76E-03
31979,2.40E-03,1.68E-03
31980,2.38E-03,1.70E-03
31981,2.42E-03,1.67E-03
31982,2.41E-03,1.62E-03
31983,2.41E-03,1.63E-03
31984,2.37E-03,1.59E-03
31985,2.39E-03,1.60E-03
31986,2.35E-03,1.58E-03
31987,2.35E-03,1.59E-03
31988,2.39E-03,1.57E-03
31989,2.37E-03,1.58E-03
31990,2.45E-03,1.55E-03
31991,2.44E-03,1.56E-03
31992,2.47E-03,1.54E-03
31993,2.47E-03,1.56E-03
31994,2.47E-03,1.54E-03
31995,2.44E-03,1.59E-03
31996,2.45E-03,1.57E-03
31997,2.43E-03,1.61E-03
31998,2.44E-03,1.60E-03
31999,2.42E-03,1.62E-03
32000,2.43E-03,1.62E-03
32001,2.48E-03,1.63E-03
32002,2.44E-03,1.63E-03
32003,2.42E-03,1.63E-03
32004,2.45E-03,1.63E-03
32005,2.40E-03,1.64E-03
32006,2.41E-03,1.64E-03
32007,2.40E-03,1.66E-03
32008,2.38E-03,1.65E-03
32009,2.42E-03,1.67E-03
32010,2.41E-03,1.66E-03
32011,2.43E-03,1.69E-03
32012,2.42E-03,1.68E-03
32013,2.45E-03,1.71E-03
32014,2.45E-03,1.70E-03
32015,2.39E-03,1.72E-03
32016,2.42E-03,1.71E-03
32017,2.34E-03,1.72E-03
32018,2.36E-03,1.72E-03
32019,2.31E-03,1.72E-03
32020,2.23E-03,1.74E-03
32021,2.39E-03,1.80E-03
32022,2.29E-03,2.11E-03
32023,2.33E-03,2.05E-03
32024,2.31E-03,2.23E-03
32025,2.30E-03,2.16E-03
32026,2.46E-03,2.31E-03
32027,2.76E-03,3.59E-03
32028,2.52E-03,1.64E-03
32029,2.45E-03,1.73E-03
32030,2.50E-03,1.68E-03
32031,3.00E-03,5.30E-03
32032,2.66E-03,1.81E-03
32033,2.32E-03,1.58E-03
32034,2.27E-03,1.59E-03
32035,2.44E-03,1.42E-03
32036,2.45E-03,1.40E-03
32037,2.50E-03,1.30E-03
32038,2.49E-03,1.30E-03
32039,2.27E-03,1.50E-03
32040,2.24E-03,1.50E-03
32041,2.28E-03,1.54E-03
32042,2.26E-03,1.53E-03
32043,2.34E-03,1.56E-03
32044,2.49E-03,1.61E-03
32045,2.42E-03,1.78E-03
32046,3.29E-03,2.86E-03
32047,3.46E-03,3.30E-03
32048,3.09E-03,1.25E-02
32049,3.26E-03,1.24E-02
32050,2.65E-03,2.17E-03
32051,2.81E-03,2.24E-03
32052,3.12E-03,2.60E-03
32053,2.94E-03,5.04E-03
32054,2.67E-03,2.69E-03
32055,2.70E-03,1.53E-03
32056,2.51E-03,1.05E-03
32057,2.59E-03,2.13E-03
32058,2.50E-03,1.05E-03
32059,2.50E-03,4.23E-03
32060,2.42E-03,4.70E-03
32061,2.28E-03,4.47E-03
32062,2.79E-03,5.81E-03
32063,2.93E-03,5.56E-03
32064,2.62E-03,6.27E-03
32065,2.68E-03,6.04E-03
32066,2.55E-03,6.71E-03
32067,2.61E-03,6.50E-03
32068,2.46E-03,7.13E-03
32069,2.52E-03,6.92E-03
32070,2.41E-03,7.53E-03
32071,2.44E-03,7.33E-03
32072,2.35E-03,7.91E-03
32073,2.38E-03,7.72E-03
32074,2.37E-03,8.28E-03
32075,2.37E-03,8.10E-03
32076,2.43E-03,8.66E-03
32077,2.41E-03,8.47E-03
32078,2.47E-03,9.04E-03
32079,2.46E-03,8.85E-03
32080,2.43E-03,9.41E-03
32081,2.44E-03,9.23E-03
32082,2.45E-03,9.79E-03
32083,2.43E-03,9.59E-03
32084,2.71E-03,1.02E-02
32085,2.52E-03,9.98E-03
32086,3.05E-03,1.04E-02
32087,4.41E-03,1.09E-02
32088,3.08E-03,1.09E-02
32089,3.71E-03,1.10E-02
32090,3.91E-03,1.09E-02
32091,3.00E-03,1.12E-02
32092,3.10E-03,1.11E-02
32093,2.89E-03,1.13E-02
32094,2.92E-03,1.13E-02
32095,2.77E-03,1.15E-02
32096,2.81E-03,1.14E-02
32097,2.66E-03,1.17E-02
32098,2.71E-03,1.16E-02
32099,2.57E-03,1.18E-02
32100,2.60E-03,1.18E-02
32101,2.48E-03,1.20E-02
32102,2.54E-03,1.19E-02
32103,2.44E-03,1.21E-02
32104,2.46E-03,1.21E-02
32105,2.37E-03,1.22E-02
32106,2.40E-03,1.22E-02
32107,2.34E-03,1.23E-02
32108,2.37E-03,1.23E-02
32109,2.35E-03,1.23E-02
32110,2.36E-03,1.23E-02
32111,2.38E-03,1.24E-02
32112,2.36E-03,1.24E-02
32113,2.43E-03,1.24E-02
32114,2.41E-03,1.24E-02
32115,2.47E-03,1.23E-02
32116,2.45E-03,1.24E-02
32117,2.53E-03,1.23E-02
32118,2.52E-03,1.23E-02
32119,2.58E-03,1.23E-02
32120,2.55E-03,1.23E-02
32121,2.64E-03,1.23E-02
32122,2.62E-03,1.23E-02
32123,2.68E-03,1.23E-02
32124,2.65E-03,1.23E-02
32125,2.68E-03,1.23E-02
32126,2.68E-03,1.23E-02
32127,2.62E-03,1.23E-02
32128,2.64E-03,1.23E-02
32129,2.56E-03,1.23E-02
32130,2.60E-03,1.23E-02
32131,2.51E-03,1.24E-02
32132,2.53E-03,1.24E-02
32133,2.56E-03,1.24E-02
32134,2.52E-03,1.24E-02
32135,2.55E-03,1.24E-02
32136,2.55E-03,1.24E-02
32137,2.49E-03,1.25E-02
32138,2.50E-03,1.25E-02
32139,2.42E-03,1.25E-02
32140,2.46E-03,1.25E-02
32141,2.43E-03,1.26E-02
32142,2.43E-03,1.26E-02
32143,2.47E-03,1.26E-02
32144,2.46E-03,1.26E-02
32145,2.51E-03,1.26E-02
32146,2.49E-03,1.26E-02
32147,2.46E-03,1.26E-02
32148,2.49E-03,1.26E-02
32149,2.41E-03,1.26E-02
32150,2.42E-03,1.26E-02
32151,2.41E-03,1.26E-02
32152,2.41E-03,1.26E-02
32153,2.44E-03,1.26E-02
32154,2.42E-03,1.26E-02
32155,2.52E-03,1.26E-02
32156,2.52E-03,1.26E-02
32157,2.56E-03,1.26E-02
32158,2.55E-03,1.26E-02
32159,2.52E-03,1.26E-02
32160,2.55E-03,1.26E-02
32161,2.43E-03,1.26E-02
32162,2.45E-03,1.26E-02
32163,2.36E-03,1.26E-02
32164,2.38E-03,1.26E-02
32165,2.36E-03,1.26E-02
32166,2.36E-03,1.26E-02
32167,2.43E-03,1.26E-02
32168,2.41E-03,1.26E-02
32169,2.59E-03,1.25E-02
32170,2.51E-03,1.26E-02
32171,2.65E-03,1.25E-02
32172,2.82E-03,1.22E-02
32173,2.54E-03,1.16E-02
32174,2.65E-03,1.19E-02
32175,2.46E-03,1.10E-02
32176,2.50E-03,1.13E-02
32177,2.51E-03,1.05E-02
32178,2.47E-03,1.07E-02
32179,2.51E-03,9.91E-03
32180,2.50E-03,1.02E-02
32181,2.52E-03,9.35E-03
32182,2.50E-03,9.63E-03
32183,2.51E-03,8.80E-03
32184,2.52E-03,9.08E-03
32185,2.52E-03,8.25E-03
32186,2.52E-03,8.52E-03
32187,2.53E-03,7.69E-03
32188,2.53E-03,7.97E-03
32189,2.52E-03,7.14E-03
32190,2.54E-03,7.42E-03
32191,2.53E-03,6.58E-03
32192,2.53E-03,6.86E-03
32193,2.54E-03,6.04E-03
32194,2.55E-03,6.31E-03
32195,2.56E-03,5.48E-03
32196,2.56E-03,5.76E-03
32197,2.60E-03,4.93E-03
32198,2.58E-03,5.21E-03
32199,2.61E-03,4.37E-03
32200,2.59E-03,4.65E-03
32201,2.65E-03,3.81E-03
32202,2.63E-03,4.09E-03
32203,2.71E-03,3.24E-03
32204,2.69E-03,3.53E-03
32205,2.70E-03,2.96E-03
32206,2.71E-03,2.03E-03
32207,2.64E-03,2.09E-03
32208,2.61E-03,1.91E-03
32209,2.64E-03,1.97E-03
32210,2.67E-03,1.85E-03
32211,2.25E-03,1.57E-03
32212,2.26E-03,1.59E-03
32213,2.28E-03,1.53E-03
32214,2.28E-03,1.55E-03
32215,2.36E-03,1.48E-03
32216,2.32E-03,1.51E-03
32217,2.40E-03,1.44E-03
32218,2.39E-03,1.46E-03
32219,2.44E-03,1.43E-03
32220,2.41E-03,1.37E-03
32221,2.42E-03,1.39E-03
32222,2.36E-03,1.35E-03
32223,2.37E-03,1.36E-03
32224,2.35E-03,1.34E-03
32225,2.34E-03,1.34E-03
32226,2.40E-03,1.33E-03
32227,2.38E-03,1.34E-03
32228,2.47E-03,1.31E-03
32229,2.44E-03,1.32E-03
32230,2.49E-03,1.30E-03
32231,2.45E-03,1.31E-03
32232,2.47E-03,1.30E-03
32233,2.45E-03,1.35E-03
32234,2.45E-03,1.33E-03
32235,2.45E-03,1.37E-03
32236,2.44E-03,1.36E-03
32237,2.42E-03,1.38E-03
32238,2.44E-03,1.38E-03
32239,2.47E-03,1.39E-03
32240,2.44E-03,1.39E-03
32241,2.42E-03,1.40E-03
32242,2.44E-03,1.39E-03
32243,2.41E-03,1.41E-03
32244,2.42E-03,1.40E-03
32245,2.41E-03,1.42E-03
32246,2.39E-03,1.41E-03
32247,2.43E-03,1.44E-03
32248,2.41E-03,1.43E-03
32249,2.44E-03,1.46E-03
32250,2.41E-03,1.45E-03
32251,2.46E-03,1.48E-03
32252,2.45E-03,1.47E-03
32253,2.41E-03,1.49E-03
32254,2.42E-03,1.48E-03
32255,2.34E-03,1.50E-03
32256,2.38E-03,1.49E-03
32257,2.32E-03,1.50E-03
32258,2.22E-03,1.51E-03
32259,2.23E-03,1.52E-03
32260,2.41E-03,1.58E-03
32261,2.35E-03,1.89E-03
32262,2.36E-03,1.83E-03
32263,2.39E-03,2.02E-03
32264,2.36E-03,1.95E-03
32265,2.49E-03,2.09E-03
32266,2.59E-03,1.42E-03
32267,2.52E-03,1.46E-03
32268,2.22E-03,1.09E-02
32269,2.95E-03,1.24E-02
32270,2.94E-03,2.31E-03
32271,2.47E-03,1.90E-03
32272,2.52E-03,1.86E-03
32273,2.67E-03,1.54E-03
32274,2.46E-03,1.17E-03
32275,2.45E-03,1.16E-03
32276,2.51E-03,1.06E-03
32277,2.48E-03,1.06E-03
32278,2.26E-03,1.31E-03
32279,2.29E-03,1.33E-03
32280,2.49E-03,1.39E-03
32281,2.48E-03,1.51E-03
32282,3.70E-03,2.96E-03
32283,3.15E-03,2.65E-03
32284,3.81E-03,3.26E-03
32285,2.85E-03,5.29E-03
32286,2.53E-03,5.08E-03
32287,2.28E-03,1.08E-02
32288,2.22E-03,1.09E-02
32289,2.73E-03,1.21E-02
32290,2.87E-03,1.24E-02
32291,2.44E-03,1.97E-03
32292,2.51E-03,8.18E-04
32293,2.50E-03,8.17E-04
32294,2.87E-03,2.05E-03
32295,2.17E-03,1.35E-03
32296,1.24E-03,4.62E-03
32297,2.04E-03,1.36E-03
32298,2.04E-03,1.33E-03
32299,2.25E-03,4.21E-03
32300,2.38E-03,4.46E-03
32301,2.80E-03,5.79E-03
32302,2.83E-03,5.55E-03
32303,2.65E-03,6.25E-03
32304,2.70E-03,6.03E-03
32305,2.54E-03,6.69E-03
32306,2.63E-03,6.47E-03
32307,2.46E-03,7.11E-03
32308,2.53E-03,6.90E-03
32309,2.41E-03,7.50E-03
32310,2.43E-03,7.30E-03
32311,2.36E-03,7.88E-03
32312,2.36E-03,7.69E-03
32313,2.39E-03,8.25E-03
32314,2.36E-03,8.06E-03
32315,2.43E-03,8.62E-03
32316,2.41E-03,8.43E-03
32317,2.50E-03,9.00E-03
32318,2.47E-03,8.81E-03
32319,2.47E-03,9.36E-03
32320,2.47E-03,9.18E-03
32321,2.50E-03,9.74E-03
32322,2.45E-03,9.55E-03
32323,2.62E-03,1.01E-02
32324,2.55E-03,9.93E-03
32325,2.87E-03,1.03E-02
32326,2.83E-03,1.11E-02
32327,3.50E-03,1.12E-02
32328,3.18E-03,1.12E-02
32329,3.33E-03,1.13E-02
32330,3.52E-03,1.12E-02
32331,3.04E-03,1.14E-02
32332,3.16E-03,1.13E-02
32333,2.90E-03,1.16E-02
32334,2.94E-03,1.15E-02
32335,2.77E-03,1.18E-02
32336,2.81E-03,1.17E-02
32337,2.68E-03,1.20E-02
32338,2.72E-03,1.19E-02
32339,2.56E-03,1.21E-02
32340,2.60E-03,1.20E-02
32341,2.49E-03,1.23E-02
32342,2.54E-03,1.22E-02
32343,2.43E-03,1.24E-02
32344,2.46E-03,1.24E-02
32345,2.37E-03,1.25E-02
32346,2.41E-03,1.25E-02
32347,2.37E-03,1.26E-02
32348,2.38E-03,1.26E-02
32349,2.37E-03,1.26E-02
32350,2.36E-03,1.26E-02
32351,2.38E-03,1.27E-02
32352,2.37E-03,1.27E-02
32353,2.43E-03,1.27E-02
32354,2.42E-03,1.27E-02
32355,2.47E-03,1.26E-02
32356,2.46E-03,1.26E-02
32357,2.54E-03,1.26E-02
32358,2.52E-03,1.26E-02
32359,2.58E-03,1.26E-02
32360,2.55E-03,1.26E-02
32361,2.66E-03,1.25E-02
32362,2.62E-03,1.26E-02
32363,2.69E-03,1.25E-02
32364,2.67E-03,1.25E-02
32365,2.68E-03,1.25E-02
32366,2.70E-03,1.25E-02
32367,2.62E-03,1.26E-02
32368,2.63E-03,1.26E-02
32369,2.57E-03,1.26E-02
32370,2.58E-03,1.26E-02
32371,2.51E-03,1.27E-02
32372,2.54E-03,1.26E-02
32373,2.55E-03,1.27E-02
32374,2.53E-03,1.27E-02
32375,2.53E-03,1.27E-02
32376,2.54E-03,1.27E-02
32377,2.48E-03,1.28E-02
32378,2.51E-03,1.28E-02
32379,2.40E-03,1.28E-02
32380,2.46E-03,1.28E-02
32381,2.42E-03,1.28E-02
32382,2.41E-03,1.28E-02
32383,2.47E-03,1.28E-02
32384,2.46E-03,1.28E-02
32385,2.49E-03,1.29E-02
32386,2.49E-03,1.29E-02
32387,2.45E-03,1.29E-02
32388,2.50E-03,1.29E-02
32389,2.41E-03,1.29E-02
32390,2.44E-03,1.29E-02
32391,2.41E-03,1.29E-02
32392,2.38E-03,1.29E-02
32393,2.44E-03,1.29E-02
32394,2.43E-03,1.29E-02
32395,2.52E-03,1.29E-02
32396,2.52E-03,1.29E-02
32397,2.56E-03,1.29E-02
32398,2.55E-03,1.29E-02
32399,2.53E-03,1.29E-02
32400,2.55E-03,1.29E-02
32401,2.43E-03,1.29E-02
32402,2.45E-03,1.29E-02
32403,2.35E-03,1.29E-02
32404,2.38E-03,1.29E-02
32405,2.36E-03,1.29E-02
32406,2.35E-03,1.29E-02
32407,2.46E-03,1.29E-02
32408,2.43E-03,1.29E-02
32409,2.60E-03,1.28E-02
32410,2.55E-03,1.28E-02
32411,2.83E-03,1.28E-02
32412,2.73E-03,1.28E-02
32413,2.99E-03,1.27E-02
32414,3.02E-03,1.27E-02
32415,2.59E-03,1.16E-02
32416,2.64E-03,1.19E-02
32417,2.49E-03,1.10E-02
32418,2.52E-03,1.13E-02
32419,2.50E-03,1.05E-02
32420,2.50E-03,1.07E-02
32421,2.51E-03,9.90E-03
32422,2.50E-03,1.02E-02
32423,2.52E-03,9.35E-03
32424,2.50E-03,9.63E-03
32425,2.51E-03,8.80E-03
32426,2.51E-03,9.07E-03
32427,2.51E-03,8.24E-03
32428,2.52E-03,8.52E-03
32429,2.53E-03,7.69E-03
32430,2.52E-03,7.97E-03
32431,2.54E-03,7.14E-03
32432,2.54E-03,7.42E-03
32433,2.53E-03,6.59E-03
32434,2.55E-03,6.86E-03
32435,2.54E-03,6.03E-03
32436,2.54E-03,6.31E-03
32437,2.56E-03,5.48E-03
32438,2.55E-03,5.76E-03
32439,2.58E-03,4.93E-03
32440,2.56E-03,5.21E-03
32441,2.60E-03,4.38E-03
32442,2.60E-03,4.65E-03
32443,2.64E-03,3.82E-03
32444,2.62E-03,4.10E-03
32445,2.70E-03,3.26E-03
32446,2.69E-03,3.54E-03
32447,2.68E-03,2.70E-03
32448,2.70E-03,2.98E-03
32449,2.57E-03,2.43E-03
32450,2.62E-03,1.77E-03
32451,2.59E-03,1.82E-03
32452,2.64E-03,1.64E-03
32453,2.62E-03,1.71E-03
32454,2.59E-03,1.58E-03
32455,2.27E-03,1.32E-03
32456,2.23E-03,1.34E-03
32457,2.31E-03,1.28E-03
32458,2.29E-03,1.30E-03
32459,2.37E-03,1.23E-03
32460,2.34E-03,1.26E-03
32461,2.42E-03,1.20E-03
32462,2.42E-03,1.21E-03
32463,2.47E-03,1.18E-03
32464,2.42E-03,1.13E-03
32465,2.42E-03,1.15E-03
32466,2.37E-03,1.11E-03
32467,2.36E-03,1.12E-03
32468,2.37E-03,1.10E-03
32469,2.35E-03,1.10E-03
32470,2.44E-03,1.09E-03
32471,2.39E-03,1.10E-03
32472,2.48E-03,1.07E-03
32473,2.45E-03,1.08E-03
32474,2.51E-03,1.06E-03
32475,2.45E-03,1.07E-03
32476,2.47E-03,1.06E-03
32477,2.45E-03,1.11E-03
32478,2.45E-03,1.09E-03
32479,2.44E-03,1.14E-03
32480,2.45E-03,1.13E-03
32481,2.44E-03,1.14E-03
32482,2.44E-03,1.14E-03
32483,2.48E-03,1.15E-03
32484,2.43E-03,1.15E-03
32485,2.44E-03,1.16E-03
32486,2.45E-03,1.16E-03
32487,2.41E-03,1.17E-03
32488,2.41E-03,1.17E-03
32489,2.43E-03,1.19E-03
32490,2.40E-03,1.18E-03
32491,2.42E-03,1.21E-03
32492,2.40E-03,1.20E-03
32493,2.44E-03,1.23E-03
32494,2.42E-03,1.22E-03
32495,2.45E-03,1.25E-03
32496,2.44E-03,1.24E-03
32497,2.41E-03,1.27E-03
32498,2.43E-03,1.26E-03
32499,2.35E-03,1.27E-03
32500,2.38E-03,1.27E-03
32501,2.28E-03,1.28E-03
32502,2.32E-03,1.28E-03
32503,2.22E-03,1.29E-03
32504,2.24E-03,1.29E-03
32505,2.22E-03,1.30E-03
32506,2.35E-03,1.34E-03
32507,2.45E-03,1.36E-03
32508,2.39E-03,1.67E-03
32509,2.43E-03,1.56E-03
32510,2.37E-03,1.61E-03
32511,2.43E-03,1.79E-03
32512,2.39E-03,1.73E-03
32513,2.63E-03,1.92E-03
32514,2.53E-03,1.86E-03
32515,2.78E-03,1.99E-03
32516,2.95E-03,2.10E-03
32517,3.05E-03,2.38E-03
32518,1.91E-03,1.19E-03
32519,2.01E-03,1.11E-03
32520,1.68E-03,1.13E-03
32521,2.65E-03,1.11E-02
32522,2.96E-03,1.27E-02
32523,2.47E-03,2.15E-03
32524,2.54E-03,1.27E-03
32525,2.12E-03,1.10E-03
32526,2.48E-03,9.34E-04
32527,2.48E-03,9.23E-04
32528,2.52E-03,8.20E-04
32529,2.48E-03,8.18E-04
32530,2.71E-03,1.21E-03
32531,2.67E-03,1.18E-03
32532,2.57E-03,1.25E-03
32533,3.22E-03,2.99E-03
32534,3.13E-03,2.70E-03
32535,3.34E-03,3.29E-03
32536,2.52E-03,5.86E-04
32537,2.52E-03,5.84E-04
32538,3.03E-03,2.14E-03
32539,2.98E-03,1.89E-03
32540,1.40E-03,4.64E-03
32541,2.65E-03,4.22E-03
32542,2.46E-03,4.83E-03
32543,2.79E-03,4.48E-03
32544,2.79E-03,5.30E-03
32545,2.61E-03,5.07E-03
32546,2.78E-03,5.77E-03
32547,2.81E-03,5.53E-03
32548,2.67E-03,6.24E-03
32549,2.72E-03,6.01E-03
32550,2.56E-03,6.67E-03
32551,2.62E-03,6.46E-03
32552,2.47E-03,7.08E-03
32553,2.51E-03,6.88E-03
32554,2.41E-03,7.47E-03
32555,2.41E-03,7.28E-03
32556,2.37E-03,7.84E-03
32557,2.38E-03,7.66E-03
32558,2.40E-03,8.21E-03
32559,2.36E-03,8.03E-03
32560,2.46E-03,8.58E-03
32561,2.41E-03,8.40E-03
32562,2.48E-03,8.95E-03
32563,2.48E-03,8.77E-03
32564,2.49E-03,9.32E-03
32565,2.48E-03,9.14E-03
32566,2.51E-03,9.68E-03
32567,2.47E-03,9.50E-03
32568,2.59E-03,1.01E-02
32569,2.54E-03,9.87E-03
32570,2.43E-03,1.04E-02
32571,2.59E-03,1.02E-02
32572,2.02E-03,1.07E-02
32573,2.24E-03,1.05E-02
32574,2.39E-03,1.11E-02
32575,2.38E-03,1.09E-02
32576,2.36E-03,1.13E-02
32577,1.87E-03,1.12E-02
32578,2.40E-03,1.14E-02
32579,3.05E-03,1.14E-02
32580,3.16E-03,1.14E-02
32581,3.21E-03,1.15E-02
32582,3.15E-03,1.14E-02
32583,3.18E-03,1.15E-02
32584,3.27E-03,1.15E-02
32585,3.03E-03,1.17E-02
32586,3.11E-03,1.16E-02
32587,2.89E-03,1.19E-02
32588,2.95E-03,1.18E-02
32589,2.77E-03,1.21E-02
32590,2.81E-03,1.20E-02
32591,2.68E-03,1.22E-02
32592,2.71E-03,1.22E-02
32593,2.56E-03,1.24E-02
32594,2.63E-03,1.23E-02
32595,2.48E-03,1.26E-02
32596,2.53E-03,1.25E-02
32597,2.41E-03,1.27E-02
32598,2.45E-03,1.27E-02
32599,2.38E-03,1.28E-02
32600,2.40E-03,1.28E-02
32601,2.36E-03,1.29E-02
32602,2.36E-03,1.29E-02
32603,2.37E-03,1.29E-02
32604,2.34E-03,1.29E-02
32605,2.38E-03,1.30E-02
32606,2.37E-03,1.30E-02
32607,2.42E-03,1.30E-02
32608,2.41E-03,1.30E-02
32609,2.48E-03,1.29E-02
32610,2.46E-03,1.29E-02
32611,2.54E-03,1.29E-02
32612,2.49E-03,1.29E-02
32613,2.57E-03,1.29E-02
32614,2.55E-03,1.29E-02
32615,2.64E-03,1.28E-02
32616,2.61E-03,1.28E-02
32617,2.68E-03,1.28E-02
32618,2.65E-03,1.28E-02
32619,2.67E-03,1.28E-02
32620,2.68E-03,1.28E-02
32621,2.61E-03,1.28E-02
32622,2.64E-03,1.28E-02
32623,2.57E-03,1.29E-02
32624,2.59E-03,1.29E-02
32625,2.51E-03,1.29E-02
32626,2.53E-03,1.29E-02
32627,2.55E-03,1.30E-02
32628,2.52E-03,1.29E-02
32629,2.53E-03,1.30E-02
32630,2.56E-03,1.30E-02
32631,2.47E-03,1.31E-02
32632,2.51E-03,1.30E-02
32633,2.43E-03,1.31E-02
32634,2.46E-03,1.31E-02
32635,2.43E-03,1.31E-02
32636,2.43E-03,1.31E-02
32637,2.48E-03,1.31E-02
32638,2.46E-03,1.31E-02
32639,2.49E-03,1.31E-02
32640,2.50E-03,1.31E-02
32641,2.46E-03,1.32E-02
32642,2.48E-03,1.31E-02
32643,2.41E-03,1.32E-02
32644,2.44E-03,1.32E-02
32645,2.41E-03,1.32E-02
32646,2.40E-03,1.32E-02
32647,2.45E-03,1.32E-02
32648,2.45E-03,1.32E-02
32649,2.52E-03,1.31E-02
32650,2.51E-03,1.31E-02
32651,2.56E-03,1.31E-02
32652,2.56E-03,1.31E-02
32653,2.52E-03,1.32E-02
32654,2.55E-03,1.31E-02
32655,2.43E-03,1.32E-02
32656,2.47E-03,1.32E-02
32657,2.36E-03,1.32E-02
32658,2.39E-03,1.32E-02
32659,2.38E-03,1.32E-02
32660,2.36E-03,1.32E-02
32661,2.47E-03,1.31E-02
32662,2.42E-03,1.32E-02
32663,2.62E-03,1.31E-02
32664,2.57E-03,1.31E-02
32665,2.76E-03,1.30E-02
32666,2.71E-03,1.31E-02
32667,2.94E-03,1.30E-02
32668,2.90E-03,1.30E-02
32669,2.98E-03,1.30E-02
32670,2.97E-03,1.27E-02
32671,3.15E-03,1.30E-02
32672,2.69E-03,1.21E-02
32673,2.79E-03,1.24E-02
32674,2.59E-03,1.16E-02
32675,2.64E-03,1.19E-02
32676,2.52E-03,1.10E-02
32677,2.53E-03,1.13E-02
32678,2.50E-03,1.05E-02
32679,2.50E-03,1.07E-02
32680,2.51E-03,9.90E-03
32681,2.50E-03,1.02E-02
32682,2.51E-03,9.35E-03
32683,2.50E-03,9.62E-03
32684,2.52E-03,8.80E-03
32685,2.52E-03,9.07E-03
32686,2.51E-03,8.24E-03
32687,2.52E-03,8.52E-03
32688,2.52E-03,7.69E-03
32689,2.51E-03,7.97E-03
32690,2.54E-03,7.14E-03
32691,2.54E-03,7.41E-03
32692,2.52E-03,6.59E-03
32693,2.54E-03,6.86E-03
32694,2.52E-03,6.03E-03
32695,2.52E-03,6.31E-03
32696,2.53E-03,5.48E-03
32697,2.54E-03,5.76E-03
32698,2.54E-03,4.93E-03
32699,2.56E-03,5.21E-03
32700,2.58E-03,4.38E-03
32701,2.58E-03,4.65E-03
32702,2.62E-03,3.82E-03
32703,2.60E-03,4.10E-03
32704,2.67E-03,3.26E-03
32705,2.63E-03,3.54E-03
32706,2.67E-03,2.70E-03
32707,2.67E-03,2.98E-03
32708,2.69E-03,2.41E-03
32709,3.13E-03,1.76E-03
32710,2.57E-03,1.61E-03
32711,2.56E-03,1.67E-03
32712,2.59E-03,1.51E-03
32713,2.58E-03,1.56E-03
32714,2.55E-03,1.39E-03
32715,2.57E-03,1.45E-03
32716,2.46E-03,1.33E-03
32717,2.25E-03,1.08E-03
32718,2.19E-03,1.09E-03
32719,2.31E-03,1.04E-03
32720,2.27E-03,1.06E-03
32721,2.37E-03,9.94E-04
32722,2.35E-03,1.02E-03
32723,2.43E-03,9.57E-04
32724,2.42E-03,9.74E-04
32725,2.48E-03,9.44E-04
32726,2.44E-03,8.95E-04
32727,2.43E-03,9.10E-04
32728,2.38E-03,8.70E-04
32729,2.38E-03,8.81E-04
32730,2.39E-03,8.64E-04
32731,2.36E-03,8.65E-04
32732,2.43E-03,8.55E-04
32733,2.41E-03,8.60E-04
32734,2.48E-03,8.33E-04
32735,2.45E-03,8.45E-04
32736,2.51E-03,8.25E-04
32737,2.46E-03,8.34E-04
32738,2.48E-03,8.23E-04
32739,2.46E-03,8.71E-04
32740,2.45E-03,8.52E-04
32741,2.46E-03,8.98E-04
32742,2.45E-03,8.88E-04
32743,2.43E-03,9.07E-04
32744,2.45E-03,9.04E-04
32745,2.47E-03,9.18E-04
32746,2.44E-03,9.12E-04
32747,2.44E-03,9.29E-04
32748,2.46E-03,9.24E-04
32749,2.42E-03,9.41E-04
32750,2.41E-03,9.34E-04
32751,2.42E-03,9.59E-04
32752,2.41E-03,9.50E-04
32753,2.42E-03,9.80E-04
32754,2.42E-03,9.69E-04
32755,2.44E-03,1.00E-03
32756,2.43E-03,9.92E-04
32757,2.46E-03,1.03E-03
32758,2.44E-03,1.02E-03
32759,2.43E-03,1.05E-03
32760,2.43E-03,1.04E-03
32761,2.37E-03,1.06E-03
32762,2.38E-03,1.06E-03
32763,2.28E-03,1.07E-03
32764,2.33E-03,1.07E-03
32765,2.21E-03,1.08E-03
32766,2.24E-03,1.08E-03
32767,2.24E-03,1.11E-03
32768,2.21E-03,1.10E-03
32769,2.35E-03,1.14E-03
32770,2.30E-03,1.12E-03
32771,2.45E-03,1.15E-03
32772,2.41E-03,1.35E-03
32773,2.47E-03,1.30E-03
32774,2.37E-03,1.46E-03
32775,2.36E-03,1.40E-03
32776,2.45E-03,1.57E-03
32777,2.40E-03,1.51E-03
32778,2.63E-03,1.69E-03
32779,2.53E-03,1.63E-03
32780,2.76E-03,1.75E-03
32781,3.01E-03,2.42E-03
32782,3.31E-03,3.59E-03
32783,2.35E-03,1.10E-02
32784,1.98E-03,9.27E-04
32785,2.01E-03,8.82E-04
32786,2.50E-03,7.03E-04
32787,2.49E-03,6.93E-04
32788,2.53E-03,5.88E-04
32789,2.48E-03,5.84E-04
32790,2.94E-03,1.01E-03
32791,2.92E-03,9.74E-04
32792,2.55E-03,1.06E-03
32793,2.88E-03,1.61E-03
32794,2.79E-03,1.57E-03
32795,3.05E-03,3.02E-03
32796,2.99E-03,2.73E-03
32797,3.13E-03,3.30E-03
32798,2.45E-03,1.14E-02
32799,2.35E-03,1.11E-02
32800,3.37E-03,2.12E-03
32801,3.48E-03,1.85E-03
32802,2.54E-03,3.63E-04
32803,2.51E-03,3.61E-04
32804,2.94E-03,1.65E-03
32805,2.87E-03,2.20E-03
32806,3.80E-03,1.91E-03
32807,2.06E-03,9.74E-04
32808,2.31E-03,1.02E-03
32809,3.00E-03,4.18E-03
32810,3.11E-03,4.76E-03
32811,3.04E-03,4.48E-03
32812,2.83E-03,5.28E-03
32813,2.82E-03,5.03E-03
32814,2.78E-03,5.76E-03
32815,2.80E-03,5.52E-03
32816,2.68E-03,6.22E-03
32817,2.73E-03,5.99E-03
32818,2.56E-03,6.65E-03
32819,2.59E-03,6.44E-03
32820,2.47E-03,7.06E-03
32821,2.50E-03,6.86E-03
32822,2.41E-03,7.44E-03
32823,2.42E-03,7.25E-03
32824,2.37E-03,7.81E-03
32825,2.40E-03,7.63E-03
32826,2.42E-03,8.18E-03
32827,2.39E-03,7.99E-03
32828,2.48E-03,8.54E-03
32829,2.44E-03,8.36E-03
32830,2.51E-03,8.91E-03
32831,2.50E-03,8.73E-03
32832,2.51E-03,9.27E-03
32833,2.51E-03,9.09E-03
32834,2.51E-03,9.63E-03
32835,2.49E-03,9.45E-03
32836,2.50E-03,9.99E-03
32837,2.50E-03,9.81E-03
32838,2.41E-03,1.03E-02
32839,2.47E-03,1.02E-02
32840,2.17E-03,1.06E-02
32841,2.26E-03,1.05E-02
32842,2.31E-03,1.08E-02
32843,1.83E-03,1.15E-02
32844,2.50E-03,1.13E-02
32845,2.57E-03,1.16E-02
32846,2.74E-03,1.15E-02
32847,3.07E-03,1.16E-02
32848,2.60E-03,1.16E-02
32849,3.18E-03,1.17E-02
32850,3.32E-03,1.16E-02
32851,3.16E-03,1.17E-02
32852,3.12E-03,1.17E-02
32853,3.12E-03,1.18E-02
32854,3.15E-03,1.18E-02
32855,3.01E-03,1.20E-02
32856,3.07E-03,1.19E-02
32857,2.89E-03,1.21E-02
32858,2.93E-03,1.21E-02
32859,2.78E-03,1.23E-02
32860,2.81E-03,1.22E-02
32861,2.68E-03,1.25E-02
32862,2.69E-03,1.24E-02
32863,2.57E-03,1.27E-02
32864,2.60E-03,1.26E-02
32865,2.47E-03,1.29E-02
32866,2.53E-03,1.28E-02
32867,2.43E-03,1.31E-02
32868,2.46E-03,1.30E-02
32869,2.40E-03,1.31E-02
32870,2.41E-03,1.31E-02
32871,2.35E-03,1.32E-02
32872,2.36E-03,1.32E-02
32873,2.37E-03,1.33E-02
32874,2.36E-03,1.32E-02
32875,2.39E-03,1.33E-02
32876,2.38E-03,1.33E-02
32877,2.44E-03,1.33E-02
32878,2.40E-03,1.33E-02
32879,2.48E-03,1.32E-02
32880,2.46E-03,1.32E-02
32881,2.54E-03,1.32E-02
32882,2.50E-03,1.32E-02
32883,2.59E-03,1.31E-02
32884,2.56E-03,1.32E-02
32885,2.64E-03,1.31E-02
32886,2.63E-03,1.31E-02
32887,2.71E-03,1.31E-02
32888,2.66E-03,1.31E-02
32889,2.66E-03,1.31E-02
32890,2.68E-03,1.31E-02
32891,2.61E-03,1.31E-02
32892,2.64E-03,1.31E-02
32893,2.57E-03,1.32E-02
32894,2.58E-03,1.31E-02
32895,2.50E-03,1.32E-02
32896,2.53E-03,1.32E-02
32897,2.54E-03,1.32E-02
32898,2.52E-03,1.32E-02
32899,2.53E-03,1.33E-02
32900,2.57E-03,1.33E-02
32901,2.48E-03,1.33E-02
32902,2.50E-03,1.33E-02
32903,2.43E-03,1.34E-02
32904,2.46E-03,1.34E-02
32905,2.43E-03,1.34E-02
32906,2.40E-03,1.34E-02
32907,2.47E-03,1.34E-02
32908,2.46E-03,1.34E-02
32909,2.51E-03,1.34E-02
32910,2.50E-03,1.34E-02
32911,2.47E-03,1.34E-02
32912,2.48E-03,1.34E-02
32913,2.40E-03,1.34E-02
32914,2.44E-03,1.34E-02
32915,2.41E-03,1.34E-02
32916,2.39E-03,1.35E-02
32917,2.46E-03,1.34E-02
32918,2.44E-03,1.34E-02
32919,2.54E-03,1.34E-02
32920,2.50E-03,1.34E-02
32921,2.57E-03,1.34E-02
32922,2.58E-03,1.34E-02
32923,2.52E-03,1.34E-02
32924,2.54E-03,1.34E-02
32925,2.43E-03,1.35E-02
32926,2.48E-03,1.34E-02
32927,2.36E-03,1.35E-02
32928,2.39E-03,1.35E-02
32929,2.38E-03,1.35E-02
32930,2.37E-03,1.35E-02
32931,2.47E-03,1.34E-02
32932,2.42E-03,1.34E-02
32933,2.61E-03,1.34E-02
32934,2.57E-03,1.34E-02
32935,2.76E-03,1.33E-02
32936,2.68E-03,1.33E-02
32937,2.88E-03,1.33E-02
32938,2.82E-03,1.33E-02
32939,3.06E-03,1.33E-02
32940,2.91E-03,1.33E-02
32941,2.25E-03,1.34E-02
32942,2.20E-03,1.32E-02
32943,2.75E-03,1.27E-02
32944,2.93E-03,1.30E-02
32945,2.66E-03,1.21E-02
32946,2.63E-03,1.24E-02
32947,2.58E-03,1.16E-02
32948,2.62E-03,1.19E-02
32949,2.51E-03,1.10E-02
32950,2.54E-03,1.13E-02
32951,2.50E-03,1.05E-02
32952,2.50E-03,1.07E-02
32953,2.50E-03,9.90E-03
32954,2.50E-03,1.02E-02
32955,2.51E-03,9.35E-03
32956,2.50E-03,9.62E-03
32957,2.51E-03,8.79E-03
32958,2.50E-03,9.07E-03
32959,2.51E-03,8.24E-03
32960,2.51E-03,8.52E-03
32961,2.52E-03,7.69E-03
32962,2.52E-03,7.96E-03
32963,2.54E-03,7.13E-03
32964,2.53E-03,7.41E-03
32965,2.55E-03,6.58E-03
32966,2.53E-03,6.86E-03
32967,2.52E-03,6.03E-03
32968,2.54E-03,6.31E-03
32969,2.53E-03,5.48E-03
32970,2.55E-03,5.76E-03
32971,2.55E-03,4.93E-03
32972,2.57E-03,5.21E-03
32973,2.55E-03,4.38E-03
32974,2.56E-03,4.65E-03
32975,2.60E-03,3.83E-03
32976,2.58E-03,4.10E-03
32977,2.65E-03,3.27E-03
32978,2.61E-03,3.55E-03
32979,2.67E-03,2.70E-03
32980,2.68E-03,2.99E-03
32981,2.75E-03,2.43E-03
32982,2.89E-03,1.52E-03
32983,2.65E-03,1.38E-03
32984,2.71E-03,1.45E-03
32985,2.58E-03,1.26E-03
32986,2.59E-03,1.32E-03
32987,2.48E-03,1.15E-03
32988,2.50E-03,1.21E-03
32989,2.43E-03,1.09E-03
32990,2.24E-03,8.38E-04
32991,2.11E-03,8.65E-04
32992,2.18E-03,8.53E-04
32993,2.30E-03,8.04E-04
32994,2.27E-03,8.22E-04
32995,2.39E-03,7.62E-04
32996,2.35E-03,7.84E-04
32997,2.44E-03,7.26E-04
32998,2.42E-03,7.43E-04
32999,2.48E-03,7.13E-04
33000,2.44E-03,6.65E-04
33001,2.46E-03,6.79E-04
33002,2.38E-03,6.42E-04
33003,2.40E-03,6.52E-04
33004,2.39E-03,6.33E-04
33005,2.36E-03,6.36E-04
33006,2.43E-03,6.24E-04
33007,2.42E-03,6.29E-04
33008,2.51E-03,6.01E-04
33009,2.45E-03,6.13E-04
33010,2.52E-03,5.93E-04
33011,2.46E-03,5.98E-04
33012,2.49E-03,5.88E-04
33013,2.48E-03,6.35E-04
33014,2.47E-03,6.16E-04
33015,2.45E-03,6.61E-04
33016,2.47E-03,6.50E-04
33017,2.44E-03,6.73E-04
33018,2.45E-03,6.67E-04
33019,2.48E-03,6.85E-04
33020,2.45E-03,6.78E-04
33021,2.43E-03,6.97E-04
33022,2.47E-03,6.92E-04
33023,2.43E-03,7.13E-04
33024,2.43E-03,7.04E-04
33025,2.42E-03,7.33E-04
33026,2.39E-03,7.23E-04
33027,2.44E-03,7.59E-04
33028,2.42E-03,7.46E-04
33029,2.45E-03,7.85E-04
33030,2.43E-03,7.71E-04
33031,2.48E-03,8.18E-04
33032,2.47E-03,8.02E-04
33033,2.42E-03,8.40E-04
33034,2.45E-03,8.30E-04
33035,2.38E-03,8.56E-04
33036,2.38E-03,8.48E-04
33037,2.30E-03,8.70E-04
33038,2.35E-03,8.63E-04
33039,2.22E-03,8.88E-04
33040,2.27E-03,8.78E-04
33041,2.23E-03,9.16E-04
33042,2.21E-03,9.01E-04
33043,2.31E-03,9.48E-04
33044,2.27E-03,9.32E-04
33045,2.39E-03,9.62E-04
33046,2.37E-03,1.15E-03
33047,2.41E-03,1.11E-03
33048,2.36E-03,1.25E-03
33049,2.35E-03,1.20E-03
33050,2.45E-03,1.36E-03
33051,2.39E-03,1.30E-03
33052,2.62E-03,1.47E-03
33053,2.53E-03,1.41E-03
33054,2.74E-03,1.52E-03
33055,2.93E-03,2.46E-03
33056,3.14E-03,3.59E-03
33057,2.62E-03,1.09E-02
33058,1.66E-03,1.35E-02
33059,3.09E-03,1.58E-03
33060,2.14E-03,7.41E-04
33061,2.28E-03,7.96E-04
33062,2.08E-03,7.01E-04
33063,2.52E-03,4.88E-04
33064,2.51E-03,4.78E-04
33065,2.54E-03,3.64E-04
33066,2.49E-03,3.59E-04
33067,2.63E-03,8.42E-04
33068,2.40E-03,8.93E-04
33069,2.85E-03,3.04E-03
33070,2.82E-03,2.77E-03
33071,2.92E-03,3.32E-03
33072,2.32E-03,1.11E-02
33073,2.68E-03,1.13E-02
33074,2.55E-03,1.78E-04
33075,2.53E-03,1.77E-04
33076,2.61E-03,8.01E-04
33077,2.73E-03,1.35E-03
33078,2.82E-03,1.38E-03
33079,3.01E-03,1.68E-03
33080,2.80E-03,2.25E-03
33081,3.57E-03,1.99E-03
33082,1.67E-03,1.14E-02
33083,2.22E-03,1.17E-02
33084,2.34E-03,1.16E-02
33085,1.88E-03,1.13E-02
33086,3.13E-03,4.18E-03
33087,3.12E-03,3.88E-03
33088,2.98E-03,4.73E-03
33089,3.08E-03,4.46E-03
33090,2.86E-03,5.26E-03
33091,2.94E-03,5.00E-03
33092,2.80E-03,5.74E-03
33093,2.83E-03,5.50E-03
33094,2.68E-03,6.21E-03
33095,2.71E-03,5.98E-03
33096,2.56E-03,6.63E-03
33097,2.58E-03,6.42E-03
33098,2.46E-03,7.03E-03
33099,2.48E-03,6.84E-03
33100,2.41E-03,7.42E-03
33101,2.41E-03,7.23E-03
33102,2.37E-03,7.78E-03
33103,2.39E-03,7.60E-03
33104,2.42E-03,8.14E-03
33105,2.38E-03,7.96E-03
33106,2.47E-03,8.50E-03
33107,2.45E-03,8.32E-03
33108,2.52E-03,8.87E-03
33109,2.48E-03,8.69E-03
33110,2.52E-03,9.23E-03
33111,2.53E-03,9.05E-03
33112,2.51E-03,9.58E-03
33113,2.50E-03,9.41E-03
33114,2.48E-03,9.92E-03
33115,2.47E-03,9.75E-03
33116,2.38E-03,1.02E-02
33117,2.45E-03,1.01E-02
33118,2.28E-03,1.05E-02
33119,2.34E-03,1.04E-02
33120,2.53E-03,1.07E-02
33121,2.59E-03,1.18E-02
33122,2.41E-03,1.18E-02
33123,2.79E-03,1.19E-02
33124,2.68E-03,1.18E-02
33125,3.07E-03,1.19E-02
33126,3.01E-03,1.19E-02
33127,3.08E-03,1.20E-02
33128,3.06E-03,1.20E-02
33129,3.08E-03,1.21E-02
33130,3.08E-03,1.20E-02
33131,2.99E-03,1.23E-02
33132,3.01E-03,1.22E-02
33133,2.86E-03,1.24E-02
33134,2.89E-03,1.23E-02
33135,2.77E-03,1.26E-02
33136,2.81E-03,1.25E-02
33137,2.69E-03,1.29E-02
33138,2.70E-03,1.28E-02
33139,2.57E-03,1.30E-02
33140,2.60E-03,1.30E-02
33141,2.47E-03,1.32E-02
33142,2.52E-03,1.31E-02
33143,2.42E-03,1.34E-02
33144,2.46E-03,1.33E-02
33145,2.39E-03,1.35E-02
33146,2.40E-03,1.34E-02
33147,2.37E-03,1.35E-02
33148,2.38E-03,1.35E-02
33149,2.37E-03,1.36E-02
33150,2.37E-03,1.35E-02
33151,2.40E-03,1.36E-02
33152,2.38E-03,1.36E-02
33153,2.45E-03,1.36E-02
33154,2.42E-03,1.36E-02
33155,2.47E-03,1.35E-02
33156,2.45E-03,1.35E-02
33157,2.54E-03,1.35E-02
33158,2.50E-03,1.35E-02
33159,2.59E-03,1.34E-02
33160,2.56E-03,1.34E-02
33161,2.64E-03,1.34E-02
33162,2.62E-03,1.34E-02
33163,2.69E-03,1.34E-02
33164,2.65E-03,1.34E-02
33165,2.66E-03,1.34E-02
33166,2.69E-03,1.34E-02
33167,2.63E-03,1.34E-02
33168,2.63E-03,1.34E-02
33169,2.55E-03,1.34E-02
33170,2.58E-03,1.34E-02
33171,2.51E-03,1.35E-02
33172,2.52E-03,1.35E-02
33173,2.54E-03,1.35E-02
33174,2.52E-03,1.35E-02
33175,2.53E-03,1.36E-02
33176,2.57E-03,1.35E-02
33177,2.48E-03,1.36E-02
33178,2.51E-03,1.36E-02
33179,2.43E-03,1.37E-02
33180,2.45E-03,1.36E-02
33181,2.43E-03,1.37E-02
33182,2.41E-03,1.37E-02
33183,2.47E-03,1.37E-02
33184,2.45E-03,1.37E-02
33185,2.52E-03,1.37E-02
33186,2.50E-03,1.37E-02
33187,2.47E-03,1.37E-02
33188,2.50E-03,1.37E-02
33189,2.41E-03,1.37E-02
33190,2.44E-03,1.37E-02
33191,2.43E-03,1.37E-02
33192,2.41E-03,1.37E-02
33193,2.46E-03,1.37E-02
33194,2.44E-03,1.37E-02
33195,2.53E-03,1.37E-02
33196,2.51E-03,1.37E-02
33197,2.58E-03,1.37E-02
33198,2.56E-03,1.37E-02
33199,2.53E-03,1.37E-02
33200,2.56E-03,1.37E-02
33201,2.43E-03,1.37E-02
33202,2.46E-03,1.37E-02
33203,2.35E-03,1.38E-02
33204,2.39E-03,1.38E-02
33205,2.37E-03,1.37E-02
33206,2.36E-03,1.38E-02
33207,2.47E-03,1.37E-02
33208,2.44E-03,1.37E-02
33209,2.60E-03,1.36E-02
33210,2.54E-03,1.37E-02
33211,2.71E-03,1.36E-02
33212,2.66E-03,1.36E-02
33213,2.79E-03,1.36E-02
33214,2.77E-03,1.36E-02
33215,2.62E-03,1.36E-02
33216,2.76E-03,1.36E-02
33217,2.22E-03,1.37E-02
33218,2.41E-03,1.36E-02
33219,2.18E-03,1.38E-02
33220,2.29E-03,1.32E-02
33221,2.20E-03,1.35E-02
33222,2.59E-03,1.27E-02
33223,2.48E-03,1.30E-02
33224,2.60E-03,1.21E-02
33225,2.61E-03,1.24E-02
33226,2.55E-03,1.16E-02
33227,2.58E-03,1.19E-02
33228,2.49E-03,1.10E-02
33229,2.52E-03,1.13E-02
33230,2.50E-03,1.05E-02
33231,2.50E-03,1.07E-02
33232,2.50E-03,9.90E-03
33233,2.50E-03,1.02E-02
33234,2.50E-03,9.34E-03
33235,2.50E-03,9.62E-03
33236,2.51E-03,8.79E-03
33237,2.50E-03,9.07E-03
33238,2.52E-03,8.24E-03
33239,2.52E-03,8.51E-03
33240,2.52E-03,7.68E-03
33241,2.50E-03,7.96E-03
33242,2.52E-03,7.13E-03
33243,2.52E-03,7.41E-03
33244,2.53E-03,6.58E-03
33245,2.52E-03,6.86E-03
33246,2.52E-03,6.03E-03
33247,2.53E-03,6.30E-03
33248,2.53E-03,5.48E-03
33249,2.54E-03,5.75E-03
33250,2.55E-03,4.93E-03
33251,2.56E-03,5.20E-03
33252,2.57E-03,4.38E-03
33253,2.56E-03,4.65E-03
33254,2.59E-03,3.83E-03
33255,2.58E-03,4.10E-03
33256,2.65E-03,3.27E-03
33257,2.61E-03,3.55E-03
33258,2.71E-03,2.71E-03
33259,2.67E-03,2.99E-03
33260,2.85E-03,2.14E-03
33261,2.77E-03,2.43E-03
33262,2.89E-03,1.62E-03
33263,2.89E-03,1.89E-03
33264,2.84E-03,1.35E-03
33265,2.83E-03,1.26E-03
33266,2.88E-03,1.31E-03
33267,2.67E-03,1.14E-03
33268,2.71E-03,1.20E-03
33269,2.57E-03,1.02E-03
33270,2.61E-03,1.08E-03
33271,2.45E-03,9.06E-04
33272,2.48E-03,9.64E-04
33273,2.35E-03,8.49E-04
33274,2.11E-03,6.48E-04
33275,2.07E-03,6.73E-04
33276,2.25E-03,6.15E-04
33277,2.19E-03,6.31E-04
33278,2.29E-03,5.84E-04
33279,2.27E-03,6.00E-04
33280,2.41E-03,5.47E-04
33281,2.36E-03,5.66E-04
33282,2.46E-03,5.12E-04
33283,2.43E-03,5.28E-04
33284,2.49E-03,4.98E-04
33285,2.46E-03,4.52E-04
33286,2.47E-03,4.66E-04
33287,2.40E-03,4.29E-04
33288,2.43E-03,4.39E-04
33289,2.41E-03,4.17E-04
33290,2.38E-03,4.22E-04
33291,2.45E-03,4.05E-04
33292,2.43E-03,4.12E-04
33293,2.51E-03,3.81E-04
33294,2.47E-03,3.94E-04
33295,2.51E-03,3.71E-04
33296,2.47E-03,3.69E-04
33297,2.50E-03,3.59E-04
33298,2.47E-03,4.01E-04
33299,2.49E-03,3.85E-04
33300,2.46E-03,4.28E-04
33301,2.47E-03,4.17E-04
33302,2.45E-03,4.41E-04
33303,2.46E-03,4.35E-04
33304,2.47E-03,4.57E-04
33305,2.45E-03,4.48E-04
33306,2.46E-03,4.72E-04
33307,2.47E-03,4.65E-04
33308,2.41E-03,4.92E-04
33309,2.44E-03,4.81E-04
33310,2.43E-03,5.18E-04
33311,2.41E-03,5.04E-04
33312,2.43E-03,5.48E-04
33313,2.41E-03,5.32E-04
33314,2.44E-03,5.82E-04
33315,2.43E-03,5.64E-04
33316,2.47E-03,6.19E-04
33317,2.46E-03,6.00E-04
33318,2.43E-03,6.47E-04
33319,2.46E-03,6.34E-04
33320,2.38E-03,6.69E-04
33321,2.39E-03,6.59E-04
33322,2.31E-03,6.90E-04
33323,2.35E-03,6.80E-04
33324,2.25E-03,7.14E-04
33325,2.30E-03,7.01E-04
33326,2.22E-03,7.44E-04
33327,2.22E-03,7.29E-04
33328,2.26E-03,7.75E-04
33329,2.26E-03,7.60E-04
33330,2.33E-03,7.95E-04
33331,2.32E-03,9.70E-04
33332,2.31E-03,9.29E-04
33333,2.34E-03,1.06E-03
33334,2.33E-03,1.01E-03
33335,2.45E-03,1.16E-03
33336,2.41E-03,1.11E-03
33337,2.61E-03,1.26E-03
33338,2.53E-03,1.21E-03
33339,2.70E-03,1.31E-03
33340,2.82E-03,2.50E-03
33341,3.00E-03,3.60E-03
33342,2.14E-03,1.09E-02
33343,2.38E-03,1.10E-02
33344,2.19E-03,5.36E-04
33345,2.27E-03,5.78E-04
33346,2.16E-03,5.00E-04
33347,2.53E-03,3.22E-04
33348,2.53E-03,3.13E-04
33349,2.56E-03,1.86E-04
33350,2.50E-03,1.70E-04
33351,2.08E-03,6.97E-04
33352,2.13E-03,6.50E-04
33353,2.24E-03,7.41E-04
33354,2.80E-03,1.41E-03
33355,2.64E-03,3.05E-03
33356,2.64E-03,2.80E-03
33357,2.78E-03,1.64E-03
33358,2.75E-03,1.38E-03
33359,2.76E-03,3.33E-03
33360,2.61E-03,1.12E-02
33361,2.34E-03,1.40E-02
33362,2.29E-03,1.40E-02
33363,2.54E-03,2.16E-04
33364,2.57E-03,2.19E-04
33365,2.69E-03,1.14E-03
33366,2.64E-03,1.17E-03
33367,2.22E-03,1.14E-02
33368,2.16E-03,1.12E-02
33369,2.38E-03,1.19E-02
33370,2.34E-03,1.18E-02
33371,2.18E-03,1.15E-02
33372,1.87E-03,6.06E-04
33373,1.86E-03,6.12E-04
33374,1.98E-03,6.23E-04
33375,3.07E-03,4.16E-03
33376,3.06E-03,3.88E-03
33377,3.05E-03,4.71E-03
33378,3.12E-03,4.44E-03
33379,2.91E-03,5.24E-03
33380,2.94E-03,4.98E-03
33381,2.82E-03,5.73E-03
33382,2.85E-03,5.49E-03
33383,2.67E-03,6.19E-03
33384,2.68E-03,5.96E-03
33385,2.56E-03,6.62E-03
33386,2.57E-03,6.41E-03
33387,2.45E-03,7.01E-03
33388,2.45E-03,6.82E-03
33389,2.40E-03,7.39E-03
33390,2.42E-03,7.20E-03
33391,2.37E-03,7.75E-03
33392,2.38E-03,7.57E-03
33393,2.42E-03,8.11E-03
33394,2.37E-03,7.93E-03
33395,2.47E-03,8.47E-03
33396,2.45E-03,8.29E-03
33397,2.55E-03,8.83E-03
33398,2.52E-03,8.65E-03
33399,2.52E-03,9.19E-03
33400,2.55E-03,9.01E-03
33401,2.51E-03,9.53E-03
33402,2.49E-03,9.36E-03
33403,2.46E-03,9.87E-03
33404,2.45E-03,9.70E-03
33405,2.38E-03,1.02E-02
33406,2.43E-03,1.00E-02
33407,2.31E-03,1.05E-02
33408,2.34E-03,1.03E-02
33409,1.99E-03,1.07E-02
33410,2.38E-03,1.06E-02
33411,1.97E-03,1.09E-02
33412,2.58E-03,1.21E-02
33413,2.46E-03,1.20E-02
33414,2.68E-03,1.22E-02
33415,2.68E-03,1.21E-02
33416,2.99E-03,1.22E-02
33417,2.93E-03,1.22E-02
33418,3.03E-03,1.23E-02
33419,2.99E-03,1.23E-02
33420,3.05E-03,1.24E-02
33421,3.07E-03,1.23E-02
33422,2.94E-03,1.26E-02
33423,2.97E-03,1.25E-02
33424,2.84E-03,1.27E-02
33425,2.87E-03,1.26E-02
33426,2.75E-03,1.30E-02
33427,2.80E-03,1.29E-02
33428,2.67E-03,1.32E-02
33429,2.71E-03,1.31E-02
33430,2.57E-03,1.34E-02
33431,2.62E-03,1.33E-02
33432,2.46E-03,1.35E-02
33433,2.52E-03,1.35E-02
33434,2.43E-03,1.37E-02
33435,2.46E-03,1.36E-02
33436,2.37E-03,1.38E-02
33437,2.40E-03,1.37E-02
33438,2.36E-03,1.38E-02
33439,2.36E-03,1.38E-02
33440,2.38E-03,1.39E-02
33441,2.37E-03,1.39E-02
33442,2.38E-03,1.39E-02
33443,2.39E-03,1.39E-02
33444,2.44E-03,1.38E-02
33445,2.42E-03,1.39E-02
33446,2.48E-03,1.38E-02
33447,2.45E-03,1.38E-02
33448,2.55E-03,1.38E-02
33449,2.50E-03,1.38E-02
33450,2.58E-03,1.37E-02
33451,2.56E-03,1.37E-02
33452,2.65E-03,1.37E-02
33453,2.61E-03,1.37E-02
33454,2.67E-03,1.36E-02
33455,2.66E-03,1.36E-02
33456,2.65E-03,1.36E-02
33457,2.68E-03,1.36E-02
33458,2.60E-03,1.37E-02
33459,2.62E-03,1.37E-02
33460,2.55E-03,1.37E-02
33461,2.59E-03,1.37E-02
33462,2.50E-03,1.38E-02
33463,2.52E-03,1.38E-02
33464,2.55E-03,1.38E-02
33465,2.51E-03,1.38E-02
33466,2.54E-03,1.38E-02
33467,2.56E-03,1.38E-02
33468,2.49E-03,1.39E-02
33469,2.51E-03,1.39E-02
33470,2.43E-03,1.39E-02
33471,2.45E-03,1.39E-02
33472,2.42E-03,1.40E-02
33473,2.40E-03,1.39E-02
33474,2.48E-03,1.40E-02
33475,2.46E-03,1.40E-02
33476,2.51E-03,1.40E-02
33477,2.50E-03,1.40E-02
33478,2.48E-03,1.40E-02
33479,2.50E-03,1.40E-02
33480,2.41E-03,1.40E-02
33481,2.45E-03,1.40E-02
33482,2.43E-03,1.40E-02
33483,2.39E-03,1.40E-02
33484,2.45E-03,1.40E-02
33485,2.45E-03,1.40E-02
33486,2.53E-03,1.39E-02
33487,2.53E-03,1.39E-02
33488,2.57E-03,1.39E-02
33489,2.56E-03,1.39E-02
33490,2.54E-03,1.40E-02
33491,2.55E-03,1.40E-02
33492,2.44E-03,1.40E-02
33493,2.44E-03,1.40E-02
33494,2.37E-03,1.40E-02
33495,2.38E-03,1.40E-02
33496,2.37E-03,1.40E-02
33497,2.37E-03,1.40E-02
33498,2.46E-03,1.40E-02
33499,2.43E-03,1.40E-02
33500,2.58E-03,1.39E-02
33501,2.54E-03,1.40E-02
33502,2.66E-03,1.39E-02
33503,2.63E-03,1.39E-02
33504,2.69E-03,1.39E-02
33505,2.69E-03,1.39E-02
33506,2.58E-03,1.39E-02
33507,2.65E-03,1.39E-02
33508,2.45E-03,1.39E-02
33509,2.28E-03,1.38E-02
33510,2.37E-03,1.32E-02
33511,2.29E-03,1.35E-02
33512,2.53E-03,1.27E-02
33513,2.46E-03,1.30E-02
33514,2.56E-03,1.21E-02
33515,2.55E-03,1.24E-02
33516,2.52E-03,1.16E-02
33517,2.53E-03,1.18E-02
33518,2.49E-03,1.10E-02
33519,2.50E-03,1.13E-02
33520,2.49E-03,1.04E-02
33521,2.50E-03,1.07E-02
33522,2.50E-03,9.89E-03
33523,2.50E-03,1.02E-02
33524,2.50E-03,9.34E-03
33525,2.50E-03,9.62E-03
33526,2.50E-03,8.78E-03
33527,2.50E-03,9.06E-03
33528,2.51E-03,8.23E-03
33529,2.50E-03,8.51E-03
33530,2.52E-03,7.68E-03
33531,2.50E-03,7.96E-03
33532,2.51E-03,7.13E-03
33533,2.52E-03,7.40E-03
33534,2.53E-03,6.58E-03
33535,2.53E-03,6.85E-03
33536,2.52E-03,6.03E-03
33537,2.53E-03,6.30E-03
33538,2.52E-03,5.48E-03
33539,2.53E-03,5.75E-03
33540,2.53E-03,4.93E-03
33541,2.53E-03,5.20E-03
33542,2.56E-03,4.38E-03
33543,2.56E-03,4.65E-03
33544,2.54E-03,3.83E-03
33545,2.56E-03,4.10E-03
33546,2.61E-03,3.27E-03
33547,2.59E-03,3.55E-03
33548,2.67E-03,2.72E-03
33549,2.65E-03,3.00E-03
33550,2.72E-03,2.17E-03
33551,2.71E-03,2.44E-03
33552,2.76E-03,1.90E-03
33553,2.77E-03,1.10E-03
33554,2.75E-03,1.01E-03
33555,2.79E-03,1.06E-03
33556,2.66E-03,9.04E-04
33557,2.69E-03,9.61E-04
33558,2.55E-03,7.90E-04
33559,2.61E-03,8.47E-04
33560,2.43E-03,6.78E-04
33561,2.46E-03,7.34E-04
33562,2.31E-03,6.26E-04
33563,2.14E-03,4.57E-04
33564,2.11E-03,4.75E-04
33565,2.25E-03,4.27E-04
33566,2.20E-03,4.40E-04
33567,2.30E-03,4.02E-04
33568,2.28E-03,4.15E-04
33569,2.39E-03,3.73E-04
33570,2.37E-03,3.87E-04
33571,2.47E-03,3.44E-04
33572,2.43E-03,3.58E-04
33573,2.51E-03,3.32E-04
33574,2.48E-03,2.89E-04
33575,2.49E-03,3.02E-04
33576,2.42E-03,2.67E-04
33577,2.44E-03,2.78E-04
33578,2.41E-03,2.48E-04
33579,2.39E-03,2.57E-04
33580,2.46E-03,2.29E-04
33581,2.43E-03,2.40E-04
33582,2.51E-03,2.05E-04
33583,2.50E-03,2.17E-04
33584,2.54E-03,1.95E-04
33585,2.50E-03,1.72E-04
33586,2.49E-03,1.70E-04
33587,2.48E-03,1.89E-04
33588,2.50E-03,1.78E-04
33589,2.48E-03,2.10E-04
33590,2.48E-03,2.00E-04
33591,2.45E-03,2.25E-04
33592,2.48E-03,2.18E-04
33593,2.49E-03,2.45E-04
33594,2.47E-03,2.35E-04
33595,2.45E-03,2.69E-04
33596,2.48E-03,2.56E-04
33597,2.43E-03,2.97E-04
33598,2.44E-03,2.82E-04
33599,2.44E-03,3.31E-04
33600,2.41E-03,3.13E-04
33601,2.43E-03,3.69E-04
33602,2.43E-03,3.49E-04
33603,2.44E-03,4.10E-04
33604,2.45E-03,3.89E-04
33605,2.48E-03,4.52E-04
33606,2.46E-03,4.31E-04
33607,2.45E-03,4.88E-04
33608,2.47E-03,4.71E-04
33609,2.39E-03,5.21E-04
33610,2.42E-03,5.05E-04
33611,2.33E-03,5.51E-04
33612,2.36E-03,5.36E-04
33613,2.27E-03,5.80E-04
33614,2.31E-03,5.65E-04
33615,2.22E-03,6.10E-04
33616,2.24E-03,5.95E-04
33617,2.22E-03,6.38E-04
33618,2.24E-03,6.25E-04
33619,2.18E-03,6.48E-04
33620,2.27E-03,8.11E-04
33621,2.26E-03,7.77E-04
33622,2.33E-03,8.89E-04
33623,2.32E-03,8.48E-04
33624,2.46E-03,9.78E-04
33625,2.42E-03,9.33E-04
33626,2.61E-03,1.07E-03
33627,2.53E-03,1.02E-03
33628,2.70E-03,1.11E-03
33629,2.31E-03,1.43E-03
33630,2.71E-03,2.30E-03
33631,2.66E-03,2.55E-03
33632,2.71E-03,1.13E-03
33633,2.89E-03,2.07E-03
33634,2.91E-03,3.60E-03
33635,2.35E-03,1.10E-02
33636,2.28E-03,1.41E-02
33637,2.30E-03,4.05E-04
33638,2.21E-03,3.79E-04
33639,2.55E-03,2.97E-04
33640,2.54E-03,2.92E-04
33641,2.55E-03,2.16E-04
33642,2.53E-03,2.11E-04
33643,2.01E-03,5.94E-04
33644,2.12E-03,6.43E-04
33645,2.56E-03,1.20E-03
33646,2.39E-03,3.06E-03
33647,2.44E-03,2.83E-03
33648,2.22E-03,1.11E-02
33649,2.16E-03,1.13E-02
33650,2.20E-03,1.11E-02
33651,2.48E-03,4.30E-04
33652,2.33E-03,1.17E-02
33653,2.51E-03,1.22E-02
33654,2.53E-03,1.21E-02
33655,2.18E-03,1.14E-02
33656,2.69E-03,8.67E-04
33657,2.65E-03,8.99E-04
33658,2.49E-03,4.05E-04
33659,2.68E-03,9.70E-04
33660,2.66E-03,3.33E-03
33661,2.61E-03,1.00E-03
33662,3.06E-03,4.15E-03
33663,2.99E-03,3.87E-03
33664,3.04E-03,4.70E-03
33665,3.06E-03,4.43E-03
33666,2.92E-03,5.22E-03
33667,2.97E-03,4.96E-03
33668,2.81E-03,5.72E-03
33669,2.86E-03,5.48E-03
33670,2.67E-03,6.17E-03
33671,2.69E-03,5.95E-03
33672,2.54E-03,6.59E-03
33673,2.54E-03,6.39E-03
33674,2.46E-03,6.99E-03
33675,2.47E-03,6.79E-03
33676,2.41E-03,7.36E-03
33677,2.41E-03,7.18E-03
33678,2.36E-03,7.72E-03
33679,2.38E-03,7.54E-03
33680,2.42E-03,8.08E-03
33681,2.37E-03,7.90E-03
33682,2.49E-03,8.43E-03
33683,2.44E-03,8.25E-03
33684,2.54E-03,8.79E-03
33685,2.52E-03,8.61E-03
33686,2.56E-03,9.14E-03
33687,2.56E-03,8.97E-03
33688,2.52E-03,9.49E-03
33689,2.52E-03,9.32E-03
33690,2.45E-03,9.81E-03
33691,2.47E-03,9.65E-03
33692,2.39E-03,1.01E-02
33693,2.43E-03,9.97E-03
33694,2.31E-03,1.04E-02
33695,2.33E-03,1.03E-02
33696,1.95E-03,1.07E-02
33697,2.12E-03,1.06E-02
33698,2.33E-03,1.08E-02
33699,2.56E-03,1.24E-02
33700,2.48E-03,1.23E-02
33701,2.70E-03,1.25E-02
33702,2.65E-03,1.25E-02
33703,2.92E-03,1.26E-02
33704,2.87E-03,1.25E-02
33705,2.98E-03,1.26E-02
33706,2.94E-03,1.26E-02
33707,3.01E-03,1.27E-02
33708,3.02E-03,1.27E-02
33709,2.92E-03,1.29E-02
33710,2.97E-03,1.28E-02
33711,2.83E-03,1.31E-02
33712,2.85E-03,1.30E-02
33713,2.75E-03,1.33E-02
33714,2.78E-03,1.32E-02
33715,2.66E-03,1.35E-02
33716,2.69E-03,1.34E-02
33717,2.56E-03,1.37E-02
33718,2.61E-03,1.36E-02
33719,2.48E-03,1.39E-02
33720,2.53E-03,1.38E-02
33721,2.43E-03,1.40E-02
33722,2.45E-03,1.39E-02
33723,2.38E-03,1.41E-02
33724,2.39E-03,1.41E-02
33725,2.37E-03,1.41E-02
33726,2.37E-03,1.41E-02
33727,2.38E-03,1.42E-02
33728,2.37E-03,1.42E-02
33729,2.39E-03,1.42E-02
33730,2.39E-03,1.42E-02
33731,2.43E-03,1.41E-02
33732,2.43E-03,1.42E-02
33733,2.48E-03,1.41E-02
33734,2.45E-03,1.41E-02
33735,2.53E-03,1.40E-02
33736,2.51E-03,1.41E-02
33737,2.58E-03,1.40E-02
33738,2.56E-03,1.40E-02
33739,2.63E-03,1.39E-02
33740,2.62E-03,1.40E-02
33741,2.66E-03,1.39E-02
33742,2.64E-03,1.39E-02
33743,2.64E-03,1.39E-02
33744,2.66E-03,1.39E-02
33745,2.59E-03,1.40E-02
33746,2.62E-03,1.39E-02
33747,2.55E-03,1.40E-02
33748,2.57E-03,1.40E-02
33749,2.50E-03,1.41E-02
33750,2.52E-03,1.40E-02
33751,2.54E-03,1.41E-02
33752,2.51E-03,1.41E-02
33753,2.54E-03,1.41E-02
33754,2.55E-03,1.41E-02
33755,2.49E-03,1.42E-02
33756,2.51E-03,1.42E-02
33757,2.42E-03,1.42E-02
33758,2.45E-03,1.42E-02
33759,2.43E-03,1.42E-02
33760,2.41E-03,1.42E-02
33761,2.49E-03,1.42E-02
33762,2.46E-03,1.42E-02
33763,2.52E-03,1.42E-02
33764,2.52E-03,1.42E-02
33765,2.48E-03,1.42E-02
33766,2.50E-03,1.42E-02
33767,2.40E-03,1.43E-02
33768,2.45E-03,1.43E-02
33769,2.41E-03,1.43E-02
33770,2.38E-03,1.43E-02
33771,2.46E-03,1.42E-02
33772,2.45E-03,1.42E-02
33773,2.53E-03,1.42E-02
33774,2.52E-03,1.42E-02
33775,2.59E-03,1.42E-02
33776,2.56E-03,1.42E-02
33777,2.54E-03,1.42E-02
33778,2.55E-03,1.42E-02
33779,2.44E-03,1.43E-02
33780,2.46E-03,1.43E-02
33781,2.36E-03,1.43E-02
33782,2.37E-03,1.43E-02
33783,2.38E-03,1.43E-02
33784,2.37E-03,1.43E-02
33785,2.45E-03,1.43E-02
33786,2.42E-03,1.43E-02
33787,2.56E-03,1.42E-02
33788,2.55E-03,1.42E-02
33789,2.65E-03,1.42E-02
33790,2.62E-03,1.42E-02
33791,2.63E-03,1.42E-02
33792,2.67E-03,1.41E-02
33793,2.55E-03,1.42E-02
33794,2.62E-03,1.42E-02
33795,2.41E-03,1.42E-02
33796,2.46E-03,1.42E-02
33797,2.31E-03,1.43E-02
33798,2.35E-03,1.43E-02
33799,2.31E-03,1.44E-02
33800,2.32E-03,1.38E-02
33801,2.31E-03,1.41E-02
33802,2.37E-03,1.32E-02
33803,2.33E-03,1.35E-02
33804,2.48E-03,1.27E-02
33805,2.43E-03,1.30E-02
33806,2.51E-03,1.21E-02
33807,2.52E-03,1.24E-02
33808,2.50E-03,1.16E-02
33809,2.50E-03,1.18E-02
33810,2.49E-03,1.10E-02
33811,2.50E-03,1.13E-02
33812,2.49E-03,1.04E-02
33813,2.50E-03,1.07E-02
33814,2.50E-03,9.89E-03
33815,2.50E-03,1.02E-02
33816,2.50E-03,9.34E-03
33817,2.50E-03,9.61E-03
33818,2.50E-03,8.78E-03
33819,2.50E-03,9.06E-03
33820,2.51E-03,8.23E-03
33821,2.50E-03,8.50E-03
33822,2.51E-03,7.67E-03
33823,2.50E-03,7.95E-03
33824,2.51E-03,7.12E-03
33825,2.51E-03,7.40E-03
33826,2.51E-03,6.57E-03
33827,2.52E-03,6.85E-03
33828,2.50E-03,6.02E-03
33829,2.52E-03,6.30E-03
33830,2.51E-03,5.47E-03
33831,2.51E-03,5.75E-03
33832,2.52E-03,4.92E-03
33833,2.53E-03,5.20E-03
33834,2.53E-03,4.37E-03
33835,2.54E-03,4.65E-03
33836,2.55E-03,3.83E-03
33837,2.56E-03,4.10E-03
33838,2.60E-03,3.28E-03
33839,2.58E-03,3.55E-03
33840,2.66E-03,2.72E-03
33841,2.64E-03,3.00E-03
33842,2.71E-03,2.17E-03
33843,2.70E-03,2.45E-03
33844,2.70E-03,1.65E-03
33845,2.72E-03,1.91E-03
33846,2.63E-03,1.15E-03
33847,2.68E-03,1.39E-03
33848,2.71E-03,7.82E-04
33849,2.71E-03,8.28E-04
33850,2.65E-03,6.81E-04
33851,2.67E-03,7.32E-04
33852,2.57E-03,5.77E-04
33853,2.60E-03,6.28E-04
33854,2.43E-03,4.81E-04
33855,2.44E-03,5.28E-04
33856,2.32E-03,4.40E-04
33857,2.20E-03,3.61E-04
33858,2.16E-03,3.40E-04
33859,2.17E-03,3.49E-04
33860,2.25E-03,3.30E-04
33861,2.20E-03,3.35E-04
33862,2.33E-03,3.22E-04
33863,2.27E-03,3.26E-04
33864,2.39E-03,3.13E-04
33865,2.37E-03,3.17E-04
33866,2.47E-03,3.05E-04
33867,2.43E-03,3.09E-04
33868,2.51E-03,3.01E-04
33869,2.49E-03,2.81E-04
33870,2.51E-03,2.87E-04
33871,2.44E-03,2.68E-04
33872,2.46E-03,2.76E-04
33873,2.42E-03,2.48E-04
33874,2.41E-03,2.58E-04
33875,2.46E-03,2.32E-04
33876,2.45E-03,2.38E-04
33877,2.52E-03,2.25E-04
33878,2.50E-03,2.27E-04
33879,2.57E-03,2.22E-04
33880,2.56E-03,1.90E-04
33881,2.49E-03,1.97E-04
33882,2.49E-03,1.59E-04
33883,2.52E-03,1.75E-04
33884,2.49E-03,1.40E-04
33885,2.49E-03,1.47E-04
33886,2.46E-03,1.41E-04
33887,2.48E-03,1.38E-04
33888,2.50E-03,1.56E-04
33889,2.49E-03,1.47E-04
33890,2.46E-03,1.83E-04
33891,2.50E-03,1.68E-04
33892,2.43E-03,2.14E-04
33893,2.44E-03,1.98E-04
33894,2.43E-03,2.49E-04
33895,2.41E-03,2.32E-04
33896,2.43E-03,2.86E-04
33897,2.43E-03,2.67E-04
33898,2.46E-03,3.25E-04
33899,2.45E-03,3.05E-04
33900,2.49E-03,3.66E-04
33901,2.47E-03,3.45E-04
33902,2.44E-03,4.07E-04
33903,2.48E-03,3.87E-04
33904,2.39E-03,4.47E-04
33905,2.43E-03,4.28E-04
33906,2.34E-03,4.84E-04
33907,2.36E-03,4.66E-04
33908,2.27E-03,5.17E-04
33909,2.31E-03,5.00E-04
33910,2.20E-03,5.46E-04
33911,2.24E-03,5.32E-04
33912,2.17E-03,5.72E-04
33913,2.21E-03,5.60E-04
33914,2.12E-03,5.83E-04
33915,2.23E-03,6.94E-04
33916,2.21E-03,6.67E-04
33917,2.32E-03,7.54E-04
33918,2.31E-03,7.22E-04
33919,2.46E-03,8.27E-04
33920,2.42E-03,7.89E-04
33921,2.60E-03,9.05E-04
33922,2.54E-03,8.67E-04
33923,2.67E-03,9.39E-04
33924,2.09E-03,1.32E-03
33925,2.09E-03,1.23E-03
33926,2.25E-03,1.49E-03
33927,1.93E-03,1.39E-03
33928,2.58E-03,2.36E-03
33929,2.56E-03,2.60E-03
33930,2.36E-03,1.10E-02
33931,2.75E-03,1.19E-02
33932,2.51E-03,2.13E-03
33933,2.89E-03,3.59E-03
33934,2.36E-03,1.09E-02
33935,2.17E-03,1.16E-02
33936,2.35E-03,1.46E-02
33937,2.34E-03,1.46E-02
33938,2.56E-03,9.22E-04
33939,2.55E-03,4.31E-04
33940,2.57E-03,4.32E-04
33941,2.66E-03,4.21E-04
33942,2.54E-03,3.97E-04
33943,2.03E-03,6.19E-04
33944,2.47E-03,1.03E-03
33945,2.46E-03,2.89E-03
33946,2.19E-03,1.11E-02
33947,2.60E-03,1.09E-02
33948,2.18E-03,1.12E-02
33949,2.67E-03,8.38E-04
33950,2.60E-03,8.65E-04
33951,2.04E-03,6.10E-04
33952,2.35E-03,1.92E-03
33953,3.04E-03,4.14E-03
33954,3.04E-03,3.86E-03
33955,3.02E-03,4.68E-03
33956,3.03E-03,4.41E-03
33957,2.92E-03,5.21E-03
33958,2.98E-03,4.95E-03
33959,2.79E-03,5.71E-03
33960,2.85E-03,5.46E-03
33961,2.67E-03,6.16E-03
33962,2.68E-03,5.93E-03
33963,2.53E-03,6.57E-03
33964,2.53E-03,6.37E-03
33965,2.45E-03,6.96E-03
33966,2.48E-03,6.77E-03
33967,2.38E-03,7.33E-03
33968,2.41E-03,7.15E-03
33969,2.37E-03,7.69E-03
33970,2.37E-03,7.52E-03
33971,2.42E-03,8.05E-03
33972,2.38E-03,7.87E-03
33973,2.49E-03,8.40E-03
33974,2.44E-03,8.22E-03
33975,2.54E-03,8.75E-03
33976,2.52E-03,8.57E-03
33977,2.55E-03,9.10E-03
33978,2.55E-03,8.93E-03
33979,2.52E-03,9.44E-03
33980,2.52E-03,9.27E-03
33981,2.46E-03,9.76E-03
33982,2.47E-03,9.60E-03
33983,2.39E-03,1.01E-02
33984,2.40E-03,9.92E-03
33985,2.27E-03,1.03E-02
33986,2.33E-03,1.02E-02
33987,2.07E-03,1.06E-02
33988,2.20E-03,1.05E-02
33989,2.25E-03,1.08E-02
33990,1.84E-03,1.19E-02
33991,2.49E-03,1.18E-02
33992,2.51E-03,1.25E-02
33993,2.57E-03,1.23E-02
33994,2.56E-03,1.27E-02
33995,2.55E-03,1.26E-02
33996,2.68E-03,1.28E-02
33997,2.66E-03,1.28E-02
33998,2.85E-03,1.29E-02
33999,2.82E-03,1.29E-02
34000,2.95E-03,1.29E-02
34001,2.91E-03,1.29E-02
34002,2.99E-03,1.30E-02
34003,2.97E-03,1.30E-02
34004,2.90E-03,1.32E-02
34005,2.98E-03,1.31E-02
34006,2.82E-03,1.34E-02
34007,2.85E-03,1.33E-02
34008,2.75E-03,1.36E-02
34009,2.76E-03,1.35E-02
34010,2.65E-03,1.38E-02
34011,2.68E-03,1.37E-02
34012,2.54E-03,1.40E-02
34013,2.61E-03,1.39E-02
34014,2.48E-03,1.42E-02
34015,2.54E-03,1.41E-02
34016,2.43E-03,1.43E-02
34017,2.45E-03,1.43E-02
34018,2.38E-03,1.44E-02
34019,2.39E-03,1.44E-02
34020,2.38E-03,1.45E-02
34021,2.37E-03,1.44E-02
34022,2.39E-03,1.45E-02
34023,2.37E-03,1.45E-02
34024,2.39E-03,1.45E-02
34025,2.40E-03,1.45E-02
34026,2.44E-03,1.44E-02
34027,2.43E-03,1.45E-02
34028,2.47E-03,1.44E-02
34029,2.46E-03,1.44E-02
34030,2.53E-03,1.43E-02
34031,2.52E-03,1.44E-02
34032,2.58E-03,1.43E-02
34033,2.55E-03,1.43E-02
34034,2.64E-03,1.42E-02
34035,2.62E-03,1.43E-02
34036,2.65E-03,1.42E-02
34037,2.65E-03,1.42E-02
34038,2.64E-03,1.42E-02
34039,2.65E-03,1.42E-02
34040,2.58E-03,1.42E-02
34041,2.62E-03,1.42E-02
34042,2.55E-03,1.43E-02
34043,2.56E-03,1.43E-02
34044,2.50E-03,1.43E-02
34045,2.52E-03,1.43E-02
34046,2.54E-03,1.44E-02
34047,2.51E-03,1.44E-02
34048,2.54E-03,1.44E-02
34049,2.56E-03,1.44E-02
34050,2.49E-03,1.45E-02
34051,2.51E-03,1.44E-02
34052,2.42E-03,1.45E-02
34053,2.45E-03,1.45E-02
34054,2.43E-03,1.45E-02
34055,2.41E-03,1.45E-02
34056,2.50E-03,1.45E-02
34057,2.45E-03,1.45E-02
34058,2.49E-03,1.45E-02
34059,2.50E-03,1.45E-02
34060,2.48E-03,1.45E-02
34061,2.50E-03,1.45E-02
34062,2.41E-03,1.45E-02
34063,2.45E-03,1.45E-02
34064,2.42E-03,1.45E-02
34065,2.41E-03,1.45E-02
34066,2.47E-03,1.45E-02
34067,2.45E-03,1.45E-02
34068,2.54E-03,1.45E-02
34069,2.50E-03,1.45E-02
34070,2.57E-03,1.45E-02
34071,2.58E-03,1.45E-02
34072,2.51E-03,1.45E-02
34073,2.56E-03,1.45E-02
34074,2.44E-03,1.46E-02
34075,2.48E-03,1.45E-02
34076,2.37E-03,1.46E-02
34077,2.39E-03,1.46E-02
34078,2.39E-03,1.46E-02
34079,2.38E-03,1.46E-02
34080,2.46E-03,1.46E-02
34081,2.42E-03,1.46E-02
34082,2.55E-03,1.45E-02
34083,2.54E-03,1.45E-02
34084,2.62E-03,1.44E-02
34085,2.63E-03,1.45E-02
34086,2.60E-03,1.44E-02
34087,2.65E-03,1.44E-02
34088,2.54E-03,1.45E-02
34089,2.59E-03,1.44E-02
34090,2.43E-03,1.45E-02
34091,2.47E-03,1.45E-02
34092,2.39E-03,1.46E-02
34093,2.32E-03,1.44E-02
34094,2.34E-03,1.38E-02
34095,2.34E-03,1.41E-02
34096,2.39E-03,1.33E-02
34097,2.35E-03,1.35E-02
34098,2.47E-03,1.27E-02
34099,2.43E-03,1.30E-02
34100,2.48E-03,1.21E-02
34101,2.50E-03,1.24E-02
34102,2.48E-03,1.16E-02
34103,2.50E-03,1.18E-02
34104,2.49E-03,1.10E-02
34105,2.50E-03,1.13E-02
34106,2.49E-03,1.04E-02
34107,2.50E-03,1.07E-02
34108,2.49E-03,9.89E-03
34109,2.50E-03,1.02E-02
34110,2.50E-03,9.33E-03
34111,2.50E-03,9.61E-03
34112,2.50E-03,8.78E-03
34113,2.50E-03,9.05E-03
34114,2.50E-03,8.22E-03
34115,2.50E-03,8.50E-03
34116,2.51E-03,7.67E-03
34117,2.50E-03,7.95E-03
34118,2.52E-03,7.12E-03
34119,2.52E-03,7.39E-03
34120,2.51E-03,6.57E-03
34121,2.51E-03,6.84E-03
34122,2.52E-03,6.02E-03
34123,2.51E-03,6.29E-03
34124,2.52E-03,5.47E-03
34125,2.53E-03,5.74E-03
34126,2.52E-03,4.92E-03
34127,2.53E-03,5.19E-03
34128,2.53E-03,4.37E-03
34129,2.55E-03,4.64E-03
34130,2.55E-03,3.82E-03
34131,2.56E-03,4.10E-03
34132,2.59E-03,3.28E-03
34133,2.56E-03,3.55E-03
34134,2.61E-03,2.73E-03
34135,2.60E-03,3.00E-03
34136,2.67E-03,2.18E-03
34137,2.65E-03,2.45E-03
34138,2.66E-03,1.65E-03
34139,2.68E-03,1.91E-03
34140,2.55E-03,1.16E-03
34141,2.60E-03,1.40E-03
34142,2.31E-03,1.47E-02
34143,2.47E-03,9.40E-04
34144,2.50E-03,7.19E-04
34145,2.65E-03,6.59E-04
34146,2.61E-03,6.91E-04
34147,2.68E-03,5.81E-04
34148,2.66E-03,6.21E-04
34149,2.63E-03,4.95E-04
34150,2.65E-03,5.39E-04
34151,2.55E-03,4.17E-04
34152,2.58E-03,4.54E-04
34153,2.41E-03,3.64E-04
34154,2.45E-03,3.86E-04
34155,2.30E-03,3.51E-04
34156,2.36E-03,3.52E-04
34157,2.23E-03,3.66E-04
34158,2.25E-03,3.56E-04
34159,2.17E-03,3.83E-04
34160,2.17E-03,3.76E-04
34161,2.25E-03,3.95E-04
34162,2.22E-03,3.90E-04
34163,2.34E-03,4.04E-04
34164,2.29E-03,4.01E-04
34165,2.39E-03,4.15E-04
34166,2.35E-03,4.09E-04
34167,2.48E-03,4.27E-04
34168,2.42E-03,4.21E-04
34169,2.51E-03,4.30E-04
34170,2.51E-03,4.34E-04
34171,2.54E-03,4.33E-04
34172,2.46E-03,4.29E-04
34173,2.49E-03,4.33E-04
34174,2.44E-03,4.12E-04
34175,2.43E-03,4.21E-04
34176,2.49E-03,4.06E-04
34177,2.47E-03,4.07E-04
34178,2.54E-03,4.13E-04
34179,2.51E-03,4.08E-04
34180,2.57E-03,4.17E-04
34181,2.61E-03,4.04E-04
34182,2.59E-03,4.10E-04
34183,2.53E-03,3.63E-04
34184,2.55E-03,3.85E-04
34185,2.52E-03,3.30E-04
34186,2.52E-03,3.44E-04
34187,2.48E-03,3.19E-04
34188,2.49E-03,3.22E-04
34189,2.50E-03,3.17E-04
34190,2.49E-03,3.17E-04
34191,2.47E-03,3.28E-04
34192,2.49E-03,3.22E-04
34193,2.43E-03,3.41E-04
34194,2.43E-03,3.34E-04
34195,2.43E-03,3.55E-04
34196,2.43E-03,3.48E-04
34197,2.44E-03,3.71E-04
34198,2.43E-03,3.62E-04
34199,2.46E-03,3.90E-04
34200,2.43E-03,3.80E-04
34201,2.48E-03,4.15E-04
34202,2.46E-03,4.02E-04
34203,2.46E-03,4.46E-04
34204,2.50E-03,4.29E-04
34205,2.40E-03,4.82E-04
34206,2.44E-03,4.64E-04
34207,2.35E-03,5.18E-04
34208,2.37E-03,5.01E-04
34209,2.29E-03,5.49E-04
34210,2.30E-03,5.34E-04
34211,2.21E-03,5.74E-04
34212,2.27E-03,5.62E-04
34213,2.16E-03,5.94E-04
34214,2.20E-03,5.84E-04
34215,2.11E-03,6.03E-04
34216,2.23E-03,6.39E-04
34217,2.10E-03,6.21E-04
34218,2.17E-03,6.28E-04
34219,2.34E-03,6.74E-04
34220,2.27E-03,6.54E-04
34221,2.48E-03,7.24E-04
34222,2.43E-03,6.96E-04
34223,2.63E-03,7.83E-04
34224,2.56E-03,7.53E-04
34225,2.69E-03,8.12E-04
34226,2.32E-03,1.14E-03
34227,2.35E-03,1.08E-03
34228,2.27E-03,1.30E-03
34229,2.13E-03,1.21E-03
34230,2.37E-03,1.48E-03
34231,2.42E-03,1.39E-03
34232,2.47E-03,2.42E-03
34233,2.47E-03,2.65E-03
34234,2.19E-03,1.08E-02
34235,2.41E-03,2.20E-03
34236,3.38E-03,3.55E-03
34237,2.39E-03,1.08E-02
34238,2.15E-03,1.13E-02
34239,2.55E-03,6.28E-04
34240,2.65E-03,6.32E-04
34241,3.10E-03,6.46E-04
34242,2.72E-03,6.59E-04
34243,3.01E-03,6.41E-04
34244,2.04E-03,7.02E-04
34245,2.08E-03,6.99E-04
34246,2.04E-03,6.97E-04
34247,2.54E-03,8.96E-04
34248,2.24E-03,2.95E-03
34249,1.63E-03,1.79E-03
34250,2.38E-03,1.63E-03
34251,2.13E-03,1.10E-02
34252,2.35E-03,1.44E-02
34253,2.33E-03,1.47E-02
34254,3.04E-03,3.25E-03
34255,2.39E-03,7.43E-04
34256,2.16E-03,1.97E-03
34257,3.04E-03,4.13E-03
34258,3.10E-03,3.84E-03
34259,3.02E-03,4.67E-03
34260,3.06E-03,4.40E-03
34261,2.93E-03,5.20E-03
34262,2.98E-03,4.94E-03
34263,2.79E-03,5.69E-03
34264,2.81E-03,5.45E-03
34265,2.64E-03,6.14E-03
34266,2.66E-03,5.92E-03
34267,2.52E-03,6.55E-03
34268,2.54E-03,6.35E-03
34269,2.46E-03,6.94E-03
34270,2.47E-03,6.75E-03
34271,2.38E-03,7.31E-03
34272,2.40E-03,7.13E-03
34273,2.37E-03,7.67E-03
34274,2.37E-03,7.49E-03
34275,2.42E-03,8.01E-03
34276,2.38E-03,7.84E-03
34277,2.50E-03,8.36E-03
34278,2.45E-03,8.19E-03
34279,2.55E-03,8.71E-03
34280,2.52E-03,8.54E-03
34281,2.56E-03,9.06E-03
34282,2.56E-03,8.89E-03
34283,2.55E-03,9.40E-03
34284,2.54E-03,9.23E-03
34285,2.49E-03,9.71E-03
34286,2.48E-03,9.56E-03
34287,2.42E-03,1.00E-02
34288,2.42E-03,9.87E-03
34289,2.29E-03,1.03E-02
34290,2.36E-03,1.02E-02
34291,2.24E-03,1.05E-02
34292,2.25E-03,1.04E-02
34293,2.31E-03,1.07E-02
34294,1.65E-03,1.17E-02
34295,2.16E-03,1.15E-02
34296,2.11E-03,1.16E-02
34297,2.51E-03,1.28E-02
34298,2.54E-03,1.26E-02
34299,2.53E-03,1.30E-02
34300,2.51E-03,1.29E-02
34301,2.68E-03,1.32E-02
34302,2.64E-03,1.31E-02
34303,2.83E-03,1.32E-02
34304,2.75E-03,1.32E-02
34305,2.92E-03,1.33E-02
34306,2.88E-03,1.33E-02
34307,2.98E-03,1.34E-02
34308,2.96E-03,1.33E-02
34309,2.89E-03,1.35E-02
34310,2.95E-03,1.34E-02
34311,2.80E-03,1.37E-02
34312,2.85E-03,1.36E-02
34313,2.73E-03,1.40E-02
34314,2.76E-03,1.39E-02
34315,2.64E-03,1.42E-02
34316,2.68E-03,1.41E-02
34317,2.55E-03,1.44E-02
34318,2.60E-03,1.43E-02
34319,2.47E-03,1.45E-02
34320,2.53E-03,1.45E-02
34321,2.41E-03,1.46E-02
34322,2.44E-03,1.46E-02
34323,2.40E-03,1.47E-02
34324,2.40E-03,1.47E-02
34325,2.38E-03,1.48E-02
34326,2.38E-03,1.48E-02
34327,2.40E-03,1.48E-02
34328,2.37E-03,1.48E-02
34329,2.41E-03,1.48E-02
34330,2.40E-03,1.48E-02
34331,2.45E-03,1.47E-02
34332,2.42E-03,1.48E-02
34333,2.47E-03,1.47E-02
34334,2.46E-03,1.47E-02
34335,2.51E-03,1.46E-02
34336,2.52E-03,1.47E-02
34337,2.57E-03,1.46E-02
34338,2.55E-03,1.46E-02
34339,2.64E-03,1.45E-02
34340,2.62E-03,1.45E-02
34341,2.65E-03,1.45E-02
34342,2.65E-03,1.45E-02
34343,2.64E-03,1.45E-02
34344,2.65E-03,1.45E-02
34345,2.59E-03,1.45E-02
34346,2.61E-03,1.45E-02
34347,2.54E-03,1.46E-02
34348,2.56E-03,1.46E-02
34349,2.49E-03,1.46E-02
34350,2.51E-03,1.46E-02
34351,2.54E-03,1.47E-02
34352,2.51E-03,1.46E-02
34353,2.54E-03,1.47E-02
34354,2.57E-03,1.47E-02
34355,2.50E-03,1.47E-02
34356,2.50E-03,1.47E-02
34357,2.42E-03,1.48E-02
34358,2.46E-03,1.48E-02
34359,2.43E-03,1.48E-02
34360,2.42E-03,1.48E-02
34361,2.48E-03,1.48E-02
34362,2.44E-03,1.48E-02
34363,2.51E-03,1.48E-02
34364,2.50E-03,1.48E-02
34365,2.48E-03,1.48E-02
34366,2.50E-03,1.48E-02
34367,2.42E-03,1.48E-02
34368,2.45E-03,1.48E-02
34369,2.43E-03,1.48E-02
34370,2.39E-03,1.48E-02
34371,2.47E-03,1.48E-02
34372,2.45E-03,1.48E-02
34373,2.53E-03,1.47E-02
34374,2.52E-03,1.47E-02
34375,2.57E-03,1.47E-02
34376,2.56E-03,1.47E-02
34377,2.52E-03,1.48E-02
34378,2.57E-03,1.47E-02
34379,2.44E-03,1.49E-02
34380,2.49E-03,1.48E-02
34381,2.37E-03,1.49E-02
34382,2.38E-03,1.49E-02
34383,2.38E-03,1.49E-02
34384,2.37E-03,1.49E-02
34385,2.46E-03,1.49E-02
34386,2.44E-03,1.49E-02
34387,2.56E-03,1.48E-02
34388,2.53E-03,1.48E-02
34389,2.63E-03,1.47E-02
34390,2.62E-03,1.47E-02
34391,2.61E-03,1.47E-02
34392,2.66E-03,1.47E-02
34393,2.53E-03,1.47E-02
34394,2.57E-03,1.47E-02
34395,2.46E-03,1.48E-02
34396,2.49E-03,1.48E-02
34397,2.39E-03,1.49E-02
34398,2.43E-03,1.48E-02
34399,2.35E-03,1.49E-02
34400,2.36E-03,1.49E-02
34401,2.36E-03,1.38E-02
34402,2.34E-03,1.41E-02
34403,2.42E-03,1.33E-02
34404,2.39E-03,1.35E-02
34405,2.47E-03,1.27E-02
34406,2.45E-03,1.30E-02
34407,2.48E-03,1.21E-02
34408,2.50E-03,1.24E-02
34409,2.48E-03,1.16E-02
34410,2.50E-03,1.19E-02
34411,2.49E-03,1.10E-02
34412,2.50E-03,1.13E-02
34413,2.49E-03,1.04E-02
34414,2.50E-03,1.07E-02
34415,2.49E-03,9.88E-03
34416,2.50E-03,1.02E-02
34417,2.49E-03,9.33E-03
34418,2.50E-03,9.61E-03
34419,2.49E-03,8.77E-03
34420,2.50E-03,9.05E-03
34421,2.50E-03,8.22E-03
34422,2.50E-03,8.49E-03
34423,2.50E-03,7.66E-03
34424,2.50E-03,7.94E-03
34425,2.51E-03,7.11E-03
34426,2.50E-03,7.39E-03
34427,2.52E-03,6.56E-03
34428,2.52E-03,6.84E-03
34429,2.51E-03,6.01E-03
34430,2.51E-03,6.29E-03
34431,2.51E-03,5.46E-03
34432,2.51E-03,5.74E-03
34433,2.51E-03,4.91E-03
34434,2.52E-03,5.19E-03
34435,2.52E-03,4.37E-03
34436,2.52E-03,4.64E-03
34437,2.53E-03,3.82E-03
34438,2.55E-03,4.09E-03
34439,2.54E-03,3.27E-03
34440,2.54E-03,3.55E-03
34441,2.59E-03,2.73E-03
34442,2.58E-03,3.00E-03
34443,2.60E-03,2.18E-03
34444,2.58E-03,2.45E-03
34445,2.59E-03,1.65E-03
34446,2.62E-03,1.92E-03
34447,2.49E-03,1.16E-03
34448,2.56E-03,1.40E-03
34449,2.28E-03,7.62E-04
34450,2.14E-03,6.14E-04
34451,2.43E-03,9.42E-04
34452,2.50E-03,5.64E-04
34453,2.37E-03,5.91E-04
34454,2.64E-03,5.11E-04
34455,2.59E-03,5.38E-04
34456,2.65E-03,4.54E-04
34457,2.66E-03,4.82E-04
34458,2.62E-03,4.05E-04
34459,2.62E-03,4.27E-04
34460,2.54E-03,3.84E-04
34461,2.56E-03,3.89E-04
34462,2.42E-03,4.04E-04
34463,2.46E-03,3.88E-04
34464,2.31E-03,4.56E-04
34465,2.37E-03,4.28E-04
34466,2.24E-03,5.13E-04
34467,2.27E-03,4.85E-04
34468,2.19E-03,5.49E-04
34469,2.19E-03,5.34E-04
34470,2.24E-03,5.68E-04
34471,2.22E-03,5.60E-04
34472,2.33E-03,5.80E-04
34473,2.31E-03,5.74E-04
34474,2.40E-03,5.97E-04
34475,2.37E-03,5.88E-04
34476,2.48E-03,6.18E-04
34477,2.43E-03,6.07E-04
34478,2.53E-03,6.24E-04
34479,2.55E-03,6.41E-04
34480,2.59E-03,6.36E-04
34481,2.47E-03,6.35E-04
34482,2.52E-03,6.39E-04
34483,2.45E-03,6.20E-04
34484,2.45E-03,6.28E-04
34485,2.48E-03,6.16E-04
34486,2.47E-03,6.15E-04
34487,2.55E-03,6.33E-04
34488,2.52E-03,6.23E-04
34489,2.58E-03,6.47E-04
34490,2.63E-03,6.36E-04
34491,2.74E-03,6.52E-04
34492,2.56E-03,5.92E-04
34493,2.57E-03,6.16E-04
34494,2.51E-03,5.57E-04
34495,2.50E-03,5.71E-04
34496,2.50E-03,5.44E-04
34497,2.50E-03,5.49E-04
34498,2.50E-03,5.37E-04
34499,2.50E-03,5.39E-04
34500,2.45E-03,5.41E-04
34501,2.49E-03,5.38E-04
34502,2.43E-03,5.46E-04
34503,2.44E-03,5.44E-04
34504,2.43E-03,5.50E-04
34505,2.42E-03,5.48E-04
34506,2.44E-03,5.52E-04
34507,2.43E-03,5.51E-04
34508,2.47E-03,5.55E-04
34509,2.45E-03,5.53E-04
34510,2.49E-03,5.62E-04
34511,2.47E-03,5.58E-04
34512,2.47E-03,5.79E-04
34513,2.50E-03,5.68E-04
34514,2.40E-03,6.07E-04
34515,2.44E-03,5.92E-04
34516,2.36E-03,6.36E-04
34517,2.39E-03,6.21E-04
34518,2.31E-03,6.61E-04
34519,2.33E-03,6.50E-04
34520,2.24E-03,6.77E-04
34521,2.28E-03,6.70E-04
34522,2.15E-03,6.89E-04
34523,2.19E-03,6.84E-04
34524,2.11E-03,6.94E-04
34525,2.10E-03,6.76E-04
34526,2.06E-03,6.87E-04
34527,2.20E-03,6.61E-04
34528,2.17E-03,6.67E-04
34529,2.34E-03,6.63E-04
34530,2.29E-03,6.62E-04
34531,2.48E-03,6.84E-04
34532,2.43E-03,6.72E-04
34533,2.65E-03,7.20E-04
34534,2.59E-03,7.02E-04
34535,2.69E-03,7.59E-04
34536,2.66E-03,7.41E-04
34537,2.28E-03,9.76E-04
34538,2.46E-03,9.31E-04
34539,2.36E-03,1.12E-03
34540,2.32E-03,1.04E-03
34541,2.63E-03,1.31E-03
34542,2.45E-03,1.21E-03
34543,2.42E-03,2.48E-03
34544,2.35E-03,2.70E-03
34545,3.31E-03,1.43E-03
34546,2.64E-03,1.80E-03
34547,2.39E-03,2.26E-03
34548,3.46E-03,3.53E-03
34549,2.47E-03,1.07E-02
34550,2.12E-03,1.11E-02
34551,2.35E-03,1.50E-02
34552,2.56E-03,8.45E-04
34553,2.76E-03,8.51E-04
34554,3.50E-03,8.89E-04
34555,2.79E-03,8.75E-04
34556,3.44E-03,8.85E-04
34557,2.10E-03,8.36E-04
34558,2.08E-03,8.34E-04
34559,2.39E-03,2.99E-03
34560,2.19E-03,1.07E-02
34561,1.75E-03,1.08E-02
34562,2.63E-03,1.14E-03
34563,2.83E-03,1.24E-03
34564,2.74E-03,3.29E-03
34565,2.67E-03,7.79E-04
34566,2.22E-03,1.18E-02
34567,2.43E-03,1.20E-02
34568,2.26E-03,5.44E-04
34569,1.72E-03,5.48E-04
34570,2.48E-03,2.03E-03
34571,3.14E-03,4.12E-03
34572,3.23E-03,3.84E-03
34573,3.02E-03,4.67E-03
34574,3.05E-03,4.39E-03
34575,2.92E-03,5.19E-03
34576,2.97E-03,4.93E-03
34577,2.75E-03,5.68E-03
34578,2.79E-03,5.44E-03
34579,2.62E-03,6.12E-03
34580,2.67E-03,5.91E-03
34581,2.52E-03,6.53E-03
34582,2.53E-03,6.33E-03
34583,2.45E-03,6.92E-03
34584,2.46E-03,6.73E-03
34585,2.38E-03,7.28E-03
34586,2.40E-03,7.10E-03
34587,2.36E-03,7.64E-03
34588,2.36E-03,7.46E-03
34589,2.42E-03,7.98E-03
34590,2.38E-03,7.81E-03
34591,2.49E-03,8.33E-03
34592,2.46E-03,8.16E-03
34593,2.56E-03,8.68E-03
34594,2.53E-03,8.51E-03
34595,2.55E-03,9.02E-03
34596,2.58E-03,8.85E-03
34597,2.55E-03,9.35E-03
34598,2.55E-03,9.19E-03
34599,2.49E-03,9.67E-03
34600,2.50E-03,9.51E-03
34601,2.42E-03,9.96E-03
34602,2.43E-03,9.81E-03
34603,2.34E-03,1.02E-02
34604,2.39E-03,1.01E-02
34605,2.33E-03,1.05E-02
34606,2.31E-03,1.04E-02
34607,2.38E-03,1.06E-02
34608,2.11E-03,1.13E-02
34609,2.12E-03,1.12E-02
34610,1.97E-03,1.16E-02
34611,2.02E-03,1.14E-02
34612,2.09E-03,1.17E-02
34613,2.60E-03,1.23E-02
34614,2.56E-03,1.28E-02
34615,2.61E-03,1.26E-02
34616,2.53E-03,1.31E-02
34617,2.53E-03,1.30E-02
34618,2.54E-03,1.34E-02
34619,2.54E-03,1.33E-02
34620,2.65E-03,1.36E-02
34621,2.62E-03,1.35E-02
34622,2.79E-03,1.36E-02
34623,2.75E-03,1.36E-02
34624,2.91E-03,1.37E-02
34625,2.88E-03,1.36E-02
34626,2.96E-03,1.37E-02
34627,2.93E-03,1.37E-02
34628,2.87E-03,1.39E-02
34629,2.94E-03,1.38E-02
34630,2.78E-03,1.41E-02
34631,2.83E-03,1.40E-02
34632,2.71E-03,1.44E-02
34633,2.75E-03,1.42E-02
34634,2.63E-03,1.46E-02
34635,2.66E-03,1.45E-02
34636,2.55E-03,1.47E-02
34637,2.59E-03,1.47E-02
34638,2.48E-03,1.49E-02
34639,2.53E-03,1.48E-02
34640,2.44E-03,1.50E-02
34641,2.44E-03,1.49E-02
34642,2.41E-03,1.50E-02
34643,2.41E-03,1.50E-02
34644,2.41E-03,1.51E-02
34645,2.40E-03,1.51E-02
34646,2.39E-03,1.51E-02
34647,2.37E-03,1.51E-02
34648,2.43E-03,1.51E-02
34649,2.40E-03,1.51E-02
34650,2.46E-03,1.50E-02
34651,2.42E-03,1.50E-02
34652,2.47E-03,1.50E-02
34653,2.47E-03,1.50E-02
34654,2.52E-03,1.49E-02
34655,2.51E-03,1.50E-02
34656,2.58E-03,1.49E-02
34657,2.56E-03,1.49E-02
34658,2.63E-03,1.48E-02
34659,2.62E-03,1.48E-02
34660,2.66E-03,1.48E-02
34661,2.64E-03,1.48E-02
34662,2.64E-03,1.48E-02
34663,2.65E-03,1.48E-02
34664,2.58E-03,1.48E-02
34665,2.61E-03,1.48E-02
34666,2.54E-03,1.49E-02
34667,2.56E-03,1.49E-02
34668,2.48E-03,1.49E-02
34669,2.51E-03,1.49E-02
34670,2.55E-03,1.50E-02
34671,2.51E-03,1.49E-02
34672,2.55E-03,1.50E-02
34673,2.56E-03,1.50E-02
34674,2.49E-03,1.50E-02
34675,2.50E-03,1.50E-02
34676,2.42E-03,1.50E-02
34677,2.44E-03,1.50E-02
34678,2.43E-03,1.50E-02
34679,2.43E-03,1.50E-02
34680,2.47E-03,1.50E-02
34681,2.44E-03,1.50E-02
34682,2.52E-03,1.50E-02
34683,2.50E-03,1.50E-02
34684,2.49E-03,1.50E-02
34685,2.50E-03,1.50E-02
34686,2.42E-03,1.51E-02
34687,2.46E-03,1.51E-02
34688,2.43E-03,1.51E-02
34689,2.40E-03,1.51E-02
34690,2.46E-03,1.50E-02
34691,2.45E-03,1.50E-02
34692,2.54E-03,1.50E-02
34693,2.54E-03,1.50E-02
34694,2.57E-03,1.50E-02
34695,2.58E-03,1.50E-02
34696,2.53E-03,1.50E-02
34697,2.56E-03,1.50E-02
34698,2.44E-03,1.51E-02
34699,2.49E-03,1.51E-02
34700,2.37E-03,1.52E-02
34701,2.40E-03,1.52E-02
34702,2.37E-03,1.52E-02
34703,2.38E-03,1.52E-02
34704,2.45E-03,1.51E-02
34705,2.45E-03,1.52E-02
34706,2.55E-03,1.51E-02
34707,2.53E-03,1.51E-02
34708,2.63E-03,1.50E-02
34709,2.61E-03,1.50E-02
34710,2.61E-03,1.50E-02
34711,2.64E-03,1.50E-02
34712,2.54E-03,1.50E-02
34713,2.57E-03,1.50E-02
34714,2.47E-03,1.51E-02
34715,2.50E-03,1.51E-02
34716,2.42E-03,1.52E-02
34717,2.43E-03,1.51E-02
34718,2.36E-03,1.52E-02
34719,2.38E-03,1.52E-02
34720,2.35E-03,1.50E-02
34721,2.34E-03,1.53E-02
34722,2.35E-03,1.53E-02
34723,2.38E-03,1.44E-02
34724,2.36E-03,1.47E-02
34725,2.40E-03,1.39E-02
34726,2.38E-03,1.41E-02
34727,2.46E-03,1.33E-02
34728,2.42E-03,1.36E-02
34729,2.47E-03,1.27E-02
34730,2.48E-03,1.30E-02
34731,2.48E-03,1.21E-02
34732,2.50E-03,1.24E-02
34733,2.48E-03,1.16E-02
34734,2.50E-03,1.19E-02
34735,2.49E-03,1.10E-02
34736,2.50E-03,1.13E-02
34737,2.49E-03,1.04E-02
34738,2.50E-03,1.07E-02
34739,2.49E-03,9.88E-03
34740,2.50E-03,1.02E-02
34741,2.49E-03,9.32E-03
34742,2.50E-03,9.60E-03
34743,2.49E-03,8.77E-03
34744,2.50E-03,9.04E-03
34745,2.50E-03,8.21E-03
34746,2.50E-03,8.49E-03
34747,2.50E-03,7.66E-03
34748,2.50E-03,7.93E-03
34749,2.50E-03,7.11E-03
34750,2.50E-03,7.38E-03
34751,2.51E-03,6.55E-03
34752,2.50E-03,6.83E-03
34753,2.52E-03,6.00E-03
34754,2.52E-03,6.28E-03
34755,2.51E-03,5.46E-03
34756,2.52E-03,5.73E-03
34757,2.52E-03,4.91E-03
34758,2.51E-03,5.18E-03
34759,2.52E-03,4.36E-03
34760,2.52E-03,4.63E-03
34761,2.52E-03,3.81E-03
34762,2.54E-03,4.09E-03
34763,2.53E-03,3.27E-03
34764,2.54E-03,3.54E-03
34765,2.55E-03,2.72E-03
34766,2.55E-03,3.00E-03
34767,2.56E-03,2.18E-03
34768,2.56E-03,2.45E-03
34769,2.54E-03,1.65E-03
34770,2.58E-03,1.91E-03
34771,2.48E-03,1.15E-03
34772,2.50E-03,1.40E-03
34773,2.43E-03,9.26E-04
34774,2.53E-03,5.13E-04
34775,2.46E-03,5.28E-04
34776,2.63E-03,4.84E-04
34777,2.57E-03,4.98E-04
34778,2.62E-03,4.66E-04
34779,2.65E-03,4.73E-04
34780,2.61E-03,4.69E-04
34781,2.59E-03,4.64E-04
34782,2.54E-03,5.03E-04
34783,2.55E-03,4.82E-04
34784,2.43E-03,5.69E-04
34785,2.46E-03,5.34E-04
34786,2.32E-03,6.48E-04
34787,2.37E-03,6.09E-04
34788,2.25E-03,7.16E-04
34789,2.28E-03,6.85E-04
34790,2.20E-03,7.60E-04
34791,2.20E-03,7.42E-04
34792,2.28E-03,7.78E-04
34793,2.24E-03,7.71E-04
34794,2.34E-03,7.87E-04
34795,2.31E-03,7.82E-04
34796,2.41E-03,8.04E-04
34797,2.39E-03,7.93E-04
34798,2.47E-03,8.28E-04
34799,2.43E-03,8.16E-04
34800,2.51E-03,8.38E-04
34801,2.58E-03,8.58E-04
34802,2.79E-03,8.62E-04
34803,2.48E-03,8.53E-04
34804,2.51E-03,8.57E-04
34805,2.45E-03,8.38E-04
34806,2.46E-03,8.45E-04
34807,2.50E-03,8.35E-04
34808,2.48E-03,8.33E-04
34809,2.57E-03,8.53E-04
34810,2.54E-03,8.42E-04
34811,2.63E-03,8.65E-04
34812,2.67E-03,8.65E-04
34813,2.82E-03,8.78E-04
34814,2.57E-03,8.24E-04
34815,2.61E-03,8.46E-04
34816,2.53E-03,7.90E-04
34817,2.52E-03,8.04E-04
34818,2.51E-03,7.76E-04
34819,2.52E-03,7.82E-04
34820,2.51E-03,7.66E-04
34821,2.51E-03,7.70E-04
34822,2.45E-03,7.69E-04
34823,2.49E-03,7.67E-04
34824,2.43E-03,7.71E-04
34825,2.44E-03,7.69E-04
34826,2.45E-03,7.69E-04
34827,2.42E-03,7.70E-04
34828,2.42E-03,7.63E-04
34829,2.43E-03,7.67E-04
34830,2.45E-03,7.57E-04
34831,2.45E-03,7.60E-04
34832,2.50E-03,7.53E-04
34833,2.47E-03,7.55E-04
34834,2.48E-03,7.59E-04
34835,2.50E-03,7.53E-04
34836,2.42E-03,7.78E-04
34837,2.44E-03,7.67E-04
34838,2.37E-03,7.99E-04
34839,2.39E-03,7.88E-04
34840,2.30E-03,8.17E-04
34841,2.35E-03,8.09E-04
34842,2.25E-03,8.26E-04
34843,2.29E-03,8.23E-04
34844,2.18E-03,8.31E-04
34845,2.22E-03,8.29E-04
34846,2.13E-03,8.34E-04
34847,2.11E-03,7.91E-04
34848,2.08E-03,8.25E-04
34849,2.09E-03,8.10E-04
34850,2.22E-03,7.53E-04
34851,2.18E-03,7.70E-04
34852,2.33E-03,7.25E-04
34853,2.31E-03,7.36E-04
34854,2.48E-03,7.16E-04
34855,2.45E-03,7.17E-04
34856,2.68E-03,7.32E-04
34857,2.61E-03,7.21E-04
34858,2.84E-03,7.47E-04
34859,2.81E-03,7.38E-04
34860,2.60E-03,8.00E-04
34861,2.43E-03,8.61E-04
34862,2.50E-03,8.25E-04
34863,2.44E-03,9.74E-04
34864,2.38E-03,9.10E-04
34865,2.51E-03,1.05E-03
34866,2.42E-03,2.54E-03
34867,2.35E-03,2.76E-03
34868,3.47E-03,1.57E-03
34869,3.08E-03,1.83E-03
34870,2.45E-03,2.32E-03
34871,3.02E-03,3.56E-03
34872,2.53E-03,1.07E-02
34873,2.05E-03,1.09E-02
34874,1.94E-03,5.55E-04
34875,2.72E-03,1.09E-03
34876,2.91E-03,1.12E-03
34877,2.36E-03,1.50E-02
34878,2.36E-03,1.53E-02
34879,2.61E-03,9.85E-04
34880,2.74E-03,1.06E-03
34881,3.15E-03,1.34E-03
34882,2.32E-03,3.04E-03
34883,2.75E-03,7.62E-04
34884,2.53E-03,5.89E-04
34885,2.52E-03,5.86E-04
34886,2.65E-03,2.09E-03
34887,3.08E-03,4.11E-03
34888,3.11E-03,3.83E-03
34889,3.00E-03,4.66E-03
34890,3.03E-03,4.39E-03
34891,2.87E-03,5.18E-03
34892,2.94E-03,4.93E-03
34893,2.72E-03,5.66E-03
34894,2.80E-03,5.43E-03
34895,2.61E-03,6.10E-03
34896,2.66E-03,5.89E-03
34897,2.50E-03,6.51E-03
34898,2.52E-03,6.31E-03
34899,2.44E-03,6.89E-03
34900,2.46E-03,6.70E-03
34901,2.37E-03,7.26E-03
34902,2.42E-03,7.08E-03
34903,2.34E-03,7.61E-03
34904,2.35E-03,7.43E-03
34905,2.43E-03,7.95E-03
34906,2.38E-03,7.78E-03
34907,2.48E-03,8.30E-03
34908,2.47E-03,8.13E-03
34909,2.56E-03,8.65E-03
34910,2.54E-03,8.47E-03
34911,2.56E-03,8.99E-03
34912,2.59E-03,8.82E-03
34913,2.53E-03,9.31E-03
34914,2.55E-03,9.15E-03
34915,2.52E-03,9.62E-03
34916,2.52E-03,9.47E-03
34917,2.44E-03,9.91E-03
34918,2.43E-03,9.77E-03
34919,2.37E-03,1.02E-02
34920,2.37E-03,1.00E-02
34921,2.35E-03,1.04E-02
34922,2.33E-03,1.03E-02
34923,2.32E-03,1.05E-02
34924,2.09E-03,1.12E-02
34925,2.10E-03,1.10E-02
34926,2.10E-03,1.11E-02
34927,2.07E-03,1.15E-02
34928,2.08E-03,1.13E-02
34929,2.29E-03,1.17E-02
34930,2.20E-03,1.16E-02
34931,2.52E-03,1.20E-02
34932,2.40E-03,1.18E-02
34933,2.60E-03,1.21E-02
34934,2.61E-03,1.26E-02
34935,2.60E-03,1.23E-02
34936,2.56E-03,1.31E-02
34937,2.61E-03,1.28E-02
34938,2.49E-03,1.35E-02
34939,2.51E-03,1.33E-02
34940,2.50E-03,1.38E-02
34941,2.51E-03,1.37E-02
34942,2.60E-03,1.40E-02
34943,2.62E-03,1.39E-02
34944,2.77E-03,1.40E-02
34945,2.74E-03,1.40E-02
34946,2.87E-03,1.41E-02
34947,2.89E-03,1.40E-02
34948,2.91E-03,1.41E-02
34949,2.89E-03,1.41E-02
34950,2.85E-03,1.43E-02
34951,2.89E-03,1.42E-02
34952,2.79E-03,1.45E-02
34953,2.81E-03,1.44E-02
34954,2.71E-03,1.48E-02
34955,2.74E-03,1.46E-02
34956,2.61E-03,1.50E-02
34957,2.64E-03,1.49E-02
34958,2.55E-03,1.51E-02
34959,2.59E-03,1.50E-02
34960,2.48E-03,1.52E-02
34961,2.52E-03,1.52E-02
34962,2.43E-03,1.53E-02
34963,2.45E-03,1.53E-02
34964,2.44E-03,1.53E-02
34965,2.43E-03,1.53E-02
34966,2.40E-03,1.54E-02
34967,2.38E-03,1.54E-02
34968,2.39E-03,1.54E-02
34969,2.39E-03,1.54E-02
34970,2.41E-03,1.53E-02
34971,2.39E-03,1.54E-02
34972,2.44E-03,1.53E-02
34973,2.42E-03,1.53E-02
34974,2.49E-03,1.53E-02
34975,2.45E-03,1.53E-02
34976,2.52E-03,1.52E-02
34977,2.51E-03,1.52E-02
34978,2.58E-03,1.51E-02
34979,2.54E-03,1.52E-02
34980,2.61E-03,1.51E-02
34981,2.61E-03,1.51E-02
34982,2.66E-03,1.51E-02
34983,2.64E-03,1.51E-02
34984,2.63E-03,1.51E-02
34985,2.65E-03,1.51E-02
34986,2.59E-03,1.51E-02
34987,2.60E-03,1.51E-02
34988,2.53E-03,1.52E-02
34989,2.55E-03,1.52E-02
34990,2.48E-03,1.52E-02
34991,2.50E-03,1.52E-02
34992,2.54E-03,1.52E-02
34993,2.52E-03,1.52E-02
34994,2.55E-03,1.53E-02
34995,2.55E-03,1.53E-02
34996,2.47E-03,1.53E-02
34997,2.51E-03,1.53E-02
34998,2.43E-03,1.53E-02
34999,2.45E-03,1.53E-02
35000,2.45E-03,1.53E-02
35001,2.43E-03,1.53E-02
35002,2.49E-03,1.53E-02
35003,2.47E-03,1.53E-02
35004,2.53E-03,1.53E-02
35005,2.53E-03,1.53E-02
35006,2.48E-03,1.53E-02
35007,2.51E-03,1.53E-02
35008,2.41E-03,1.53E-02
35009,2.45E-03,1.53E-02
35010,2.44E-03,1.53E-02
35011,2.40E-03,1.53E-02
35012,2.47E-03,1.53E-02
35013,2.45E-03,1.53E-02
35014,2.53E-03,1.52E-02
35015,2.53E-03,1.52E-02
35016,2.57E-03,1.52E-02
35017,2.56E-03,1.52E-02
35018,2.53E-03,1.53E-02
35019,2.56E-03,1.52E-02
35020,2.44E-03,1.54E-02
35021,2.49E-03,1.54E-02
35022,2.36E-03,1.55E-02
35023,2.39E-03,1.55E-02
35024,2.38E-03,1.55E-02
35025,2.37E-03,1.55E-02
35026,2.46E-03,1.54E-02
35027,2.44E-03,1.55E-02
35028,2.57E-03,1.53E-02
35029,2.51E-03,1.54E-02
35030,2.62E-03,1.53E-02
35031,2.60E-03,1.53E-02
35032,2.63E-03,1.53E-02
35033,2.65E-03,1.53E-02
35034,2.57E-03,1.53E-02
35035,2.59E-03,1.53E-02
35036,2.50E-03,1.54E-02
35037,2.51E-03,1.53E-02
35038,2.44E-03,1.55E-02
35039,2.44E-03,1.54E-02
35040,2.40E-03,1.55E-02
35041,2.42E-03,1.55E-02
35042,2.37E-03,1.56E-02
35043,2.37E-03,1.56E-02
35044,2.40E-03,1.44E-02
35045,2.37E-03,1.47E-02
35046,2.43E-03,1.39E-02
35047,2.41E-03,1.42E-02
35048,2.47E-03,1.33E-02
35049,2.45E-03,1.36E-02
35050,2.47E-03,1.27E-02
35051,2.48E-03,1.30E-02
35052,2.48E-03,1.21E-02
35053,2.50E-03,1.24E-02
35054,2.48E-03,1.16E-02
35055,2.50E-03,1.19E-02
35056,2.48E-03,1.10E-02
35057,2.50E-03,1.13E-02
35058,2.49E-03,1.04E-02
35059,2.50E-03,1.07E-02
35060,2.49E-03,9.88E-03
35061,2.50E-03,1.02E-02
35062,2.49E-03,9.32E-03
35063,2.50E-03,9.60E-03
35064,2.49E-03,8.76E-03
35065,2.50E-03,9.04E-03
35066,2.49E-03,8.21E-03
35067,2.50E-03,8.48E-03
35068,2.50E-03,7.65E-03
35069,2.50E-03,7.93E-03
35070,2.50E-03,7.10E-03
35071,2.50E-03,7.37E-03
35072,2.50E-03,6.55E-03
35073,2.50E-03,6.82E-03
35074,2.51E-03,6.00E-03
35075,2.50E-03,6.27E-03
35076,2.51E-03,5.45E-03
35077,2.50E-03,5.72E-03
35078,2.51E-03,4.90E-03
35079,2.51E-03,5.17E-03
35080,2.50E-03,4.35E-03
35081,2.52E-03,4.62E-03
35082,2.52E-03,3.80E-03
35083,2.51E-03,4.08E-03
35084,2.52E-03,3.26E-03
35085,2.53E-03,3.53E-03
35086,2.52E-03,2.72E-03
35087,2.53E-03,2.99E-03
35088,2.57E-03,2.18E-03
35089,2.56E-03,2.45E-03
35090,2.56E-03,1.65E-03
35091,2.56E-03,1.91E-03
35092,2.49E-03,1.15E-03
35093,2.51E-03,1.39E-03
35094,2.41E-03,6.94E-04
35095,2.44E-03,9.15E-04
35096,2.58E-03,5.94E-04
35097,2.50E-03,5.95E-04
35098,2.62E-03,5.94E-04
35099,2.59E-03,5.94E-04
35100,2.62E-03,6.09E-04
35101,2.65E-03,5.99E-04
35102,2.57E-03,6.41E-04
35103,2.59E-03,6.22E-04
35104,2.52E-03,7.02E-04
35105,2.55E-03,6.68E-04
35106,2.43E-03,7.83E-04
35107,2.46E-03,7.39E-04
35108,2.33E-03,8.70E-04
35109,2.38E-03,8.28E-04
35110,2.25E-03,9.41E-04
35111,2.28E-03,9.09E-04
35112,2.21E-03,9.84E-04
35113,2.22E-03,9.67E-04
35114,2.29E-03,9.98E-04
35115,2.25E-03,9.93E-04
35116,2.35E-03,1.00E-03
35117,2.31E-03,1.00E-03
35118,2.40E-03,1.02E-03
35119,2.39E-03,1.01E-03
35120,2.43E-03,1.05E-03
35121,2.43E-03,1.03E-03
35122,2.49E-03,1.07E-03
35123,2.44E-03,1.06E-03
35124,2.59E-03,1.08E-03
35125,2.57E-03,1.08E-03
35126,2.70E-03,1.08E-03
35127,2.47E-03,1.07E-03
35128,2.50E-03,1.08E-03
35129,2.47E-03,1.06E-03
35130,2.45E-03,1.07E-03
35131,2.51E-03,1.05E-03
35132,2.50E-03,1.05E-03
35133,2.55E-03,1.07E-03
35134,2.54E-03,1.06E-03
35135,2.61E-03,1.08E-03
35136,2.99E-03,1.13E-03
35137,2.20E-03,1.23E-03
35138,2.64E-03,1.10E-03
35139,2.77E-03,1.11E-03
35140,2.56E-03,1.06E-03
35141,2.60E-03,1.08E-03
35142,2.55E-03,1.03E-03
35143,2.53E-03,1.04E-03
35144,2.52E-03,1.01E-03
35145,2.52E-03,1.02E-03
35146,2.50E-03,9.98E-04
35147,2.54E-03,1.00E-03
35148,2.46E-03,1.00E-03
35149,2.48E-03,9.99E-04
35150,2.43E-03,1.00E-03
35151,2.42E-03,1.00E-03
35152,2.46E-03,9.98E-04
35153,2.42E-03,1.00E-03
35154,2.44E-03,9.87E-04
35155,2.43E-03,9.92E-04
35156,2.46E-03,9.73E-04
35157,2.46E-03,9.80E-04
35158,2.51E-03,9.61E-04
35159,2.47E-03,9.67E-04
35160,2.48E-03,9.59E-04
35161,2.50E-03,9.57E-04
35162,2.43E-03,9.70E-04
35163,2.46E-03,9.64E-04
35164,2.38E-03,9.86E-04
35165,2.40E-03,9.78E-04
35166,2.32E-03,9.97E-04
35167,2.36E-03,9.92E-04
35168,2.26E-03,9.98E-04
35169,2.30E-03,9.99E-04
35170,2.21E-03,9.99E-04
35171,2.24E-03,9.98E-04
35172,2.11E-03,1.00E-03
35173,2.17E-03,1.00E-03
35174,2.09E-03,9.81E-04
35175,2.12E-03,9.94E-04
35176,2.15E-03,9.40E-04
35177,2.12E-03,9.64E-04
35178,2.26E-03,8.86E-04
35179,2.18E-03,9.14E-04
35180,2.35E-03,8.37E-04
35181,2.29E-03,8.60E-04
35182,2.48E-03,8.03E-04
35183,2.44E-03,8.18E-04
35184,2.69E-03,8.00E-04
35185,2.54E-03,7.96E-04
35186,2.66E-03,7.74E-04
35187,2.48E-03,8.01E-04
35188,2.56E-03,7.85E-04
35189,2.48E-03,8.66E-04
35190,2.45E-03,8.27E-04
35191,2.53E-03,9.19E-04
35192,2.36E-03,1.56E-02
35193,2.89E-03,1.15E-03
35194,2.79E-03,1.89E-03
35195,2.96E-03,1.68E-03
35196,2.35E-03,2.81E-03
35197,2.43E-03,2.60E-03
35198,2.53E-03,2.40E-03
35199,2.25E-03,1.07E-02
35200,2.29E-03,1.06E-02
35201,2.08E-03,1.08E-02
35202,2.66E-03,7.02E-04
35203,2.50E-03,1.18E-02
35204,2.58E-03,1.19E-02
35205,2.35E-03,5.54E-04
35206,2.61E-03,7.30E-04
35207,2.65E-03,6.94E-04
35208,2.38E-03,1.59E-02
35209,2.37E-03,1.59E-02
35210,2.82E-03,3.57E-03
35211,2.63E-03,3.31E-03
35212,3.17E-03,1.21E-03
35213,3.84E-03,1.44E-03
35214,2.65E-03,2.15E-03
35215,3.04E-03,4.10E-03
35216,2.94E-03,3.83E-03
35217,2.97E-03,4.66E-03
35218,3.00E-03,4.38E-03
35219,2.86E-03,5.17E-03
35220,2.89E-03,4.92E-03
35221,2.70E-03,5.65E-03
35222,2.75E-03,5.42E-03
35223,2.58E-03,6.08E-03
35224,2.63E-03,5.87E-03
35225,2.49E-03,6.49E-03
35226,2.53E-03,6.29E-03
35227,2.43E-03,6.87E-03
35228,2.46E-03,6.68E-03
35229,2.38E-03,7.23E-03
35230,2.42E-03,7.05E-03
35231,2.35E-03,7.58E-03
35232,2.36E-03,7.40E-03
35233,2.43E-03,7.92E-03
35234,2.39E-03,7.75E-03
35235,2.48E-03,8.27E-03
35236,2.47E-03,8.10E-03
35237,2.56E-03,8.61E-03
35238,2.52E-03,8.44E-03
35239,2.59E-03,8.95E-03
35240,2.59E-03,8.78E-03
35241,2.53E-03,9.27E-03
35242,2.57E-03,9.11E-03
35243,2.53E-03,9.57E-03
35244,2.52E-03,9.42E-03
35245,2.47E-03,9.85E-03
35246,2.47E-03,9.72E-03
35247,2.41E-03,1.01E-02
35248,2.41E-03,9.99E-03
35249,2.37E-03,1.04E-02
35250,2.36E-03,1.02E-02
35251,2.34E-03,1.05E-02
35252,2.11E-03,1.09E-02
35253,2.13E-03,1.08E-02
35254,2.11E-03,1.12E-02
35255,2.09E-03,1.10E-02
35256,2.17E-03,1.14E-02
35257,2.14E-03,1.13E-02
35258,2.31E-03,1.16E-02
35259,2.22E-03,1.15E-02
35260,2.41E-03,1.17E-02
35261,2.69E-03,1.23E-02
35262,2.66E-03,1.28E-02
35263,2.70E-03,1.25E-02
35264,2.58E-03,1.34E-02
35265,2.60E-03,1.31E-02
35266,2.51E-03,1.40E-02
35267,2.53E-03,1.37E-02
35268,2.50E-03,1.43E-02
35269,2.52E-03,1.42E-02
35270,2.61E-03,1.44E-02
35271,2.59E-03,1.44E-02
35272,2.77E-03,1.45E-02
35273,2.72E-03,1.45E-02
35274,2.84E-03,1.45E-02
35275,2.84E-03,1.45E-02
35276,2.90E-03,1.46E-02
35277,2.87E-03,1.45E-02
35278,2.82E-03,1.47E-02
35279,2.87E-03,1.46E-02
35280,2.76E-03,1.50E-02
35281,2.77E-03,1.48E-02
35282,2.67E-03,1.52E-02
35283,2.72E-03,1.51E-02
35284,2.60E-03,1.54E-02
35285,2.64E-03,1.53E-02
35286,2.54E-03,1.55E-02
35287,2.57E-03,1.54E-02
35288,2.47E-03,1.56E-02
35289,2.49E-03,1.55E-02
35290,2.45E-03,1.56E-02
35291,2.45E-03,1.56E-02
35292,2.44E-03,1.56E-02
35293,2.42E-03,1.56E-02
35294,2.40E-03,1.56E-02
35295,2.40E-03,1.56E-02
35296,2.40E-03,1.56E-02
35297,2.40E-03,1.56E-02
35298,2.41E-03,1.56E-02
35299,2.42E-03,1.56E-02
35300,2.44E-03,1.56E-02
35301,2.44E-03,1.56E-02
35302,2.48E-03,1.56E-02
35303,2.46E-03,1.56E-02
35304,2.54E-03,1.55E-02
35305,2.51E-03,1.55E-02
35306,2.56E-03,1.54E-02
35307,2.54E-03,1.55E-02
35308,2.62E-03,1.54E-02
35309,2.60E-03,1.54E-02
35310,2.63E-03,1.54E-02
35311,2.63E-03,1.54E-02
35312,2.64E-03,1.54E-02
35313,2.66E-03,1.54E-02
35314,2.59E-03,1.54E-02
35315,2.59E-03,1.54E-02
35316,2.52E-03,1.55E-02
35317,2.55E-03,1.55E-02
35318,2.48E-03,1.55E-02
35319,2.49E-03,1.55E-02
35320,2.53E-03,1.55E-02
35321,2.49E-03,1.55E-02
35322,2.54E-03,1.55E-02
35323,2.57E-03,1.55E-02
35324,2.48E-03,1.56E-02
35325,2.51E-03,1.56E-02
35326,2.41E-03,1.56E-02
35327,2.46E-03,1.56E-02
35328,2.45E-03,1.56E-02
35329,2.40E-03,1.56E-02
35330,2.50E-03,1.55E-02
35331,2.46E-03,1.56E-02
35332,2.52E-03,1.55E-02
35333,2.52E-03,1.55E-02
35334,2.47E-03,1.55E-02
35335,2.51E-03,1.55E-02
35336,2.44E-03,1.56E-02
35337,2.46E-03,1.56E-02
35338,2.44E-03,1.56E-02
35339,2.42E-03,1.56E-02
35340,2.48E-03,1.55E-02
35341,2.45E-03,1.56E-02
35342,2.55E-03,1.55E-02
35343,2.51E-03,1.55E-02
35344,2.57E-03,1.54E-02
35345,2.57E-03,1.54E-02
35346,2.54E-03,1.55E-02
35347,2.55E-03,1.55E-02
35348,2.44E-03,1.57E-02
35349,2.47E-03,1.56E-02
35350,2.38E-03,1.58E-02
35351,2.38E-03,1.58E-02
35352,2.40E-03,1.58E-02
35353,2.38E-03,1.58E-02
35354,2.47E-03,1.57E-02
35355,2.43E-03,1.58E-02
35356,2.57E-03,1.56E-02
35357,2.51E-03,1.57E-02
35358,2.64E-03,1.55E-02
35359,2.59E-03,1.56E-02
35360,2.63E-03,1.55E-02
35361,2.66E-03,1.55E-02
35362,2.59E-03,1.56E-02
35363,2.58E-03,1.56E-02
35364,2.52E-03,1.57E-02
35365,2.56E-03,1.56E-02
35366,2.45E-03,1.58E-02
35367,2.47E-03,1.57E-02
35368,2.41E-03,1.58E-02
35369,2.42E-03,1.58E-02
35370,2.40E-03,1.58E-02
35371,2.36E-03,1.56E-02
35372,2.38E-03,1.50E-02
35373,2.37E-03,1.53E-02
35374,2.42E-03,1.45E-02
35375,2.41E-03,1.47E-02
35376,2.46E-03,1.39E-02
35377,2.42E-03,1.42E-02
35378,2.47E-03,1.33E-02
35379,2.48E-03,1.36E-02
35380,2.48E-03,1.27E-02
35381,2.50E-03,1.30E-02
35382,2.48E-03,1.21E-02
35383,2.50E-03,1.24E-02
35384,2.48E-03,1.16E-02
35385,2.50E-03,1.19E-02
35386,2.48E-03,1.10E-02
35387,2.50E-03,1.13E-02
35388,2.49E-03,1.04E-02
35389,2.50E-03,1.07E-02
35390,2.49E-03,9.87E-03
35391,2.50E-03,1.02E-02
35392,2.49E-03,9.31E-03
35393,2.50E-03,9.59E-03
35394,2.49E-03,8.75E-03
35395,2.50E-03,9.03E-03
35396,2.49E-03,8.20E-03
35397,2.50E-03,8.48E-03
35398,2.49E-03,7.64E-03
35399,2.50E-03,7.92E-03
35400,2.49E-03,7.09E-03
35401,2.50E-03,7.37E-03
35402,2.50E-03,6.54E-03
35403,2.50E-03,6.82E-03
35404,2.50E-03,5.99E-03
35405,2.50E-03,6.26E-03
35406,2.50E-03,5.44E-03
35407,2.50E-03,5.71E-03
35408,2.52E-03,4.89E-03
35409,2.52E-03,5.16E-03
35410,2.51E-03,4.34E-03
35411,2.51E-03,4.62E-03
35412,2.51E-03,3.80E-03
35413,2.52E-03,4.07E-03
35414,2.51E-03,3.25E-03
35415,2.53E-03,3.52E-03
35416,2.53E-03,2.71E-03
35417,2.53E-03,2.98E-03
35418,2.52E-03,2.17E-03
35419,2.54E-03,2.44E-03
35420,2.57E-03,1.64E-03
35421,2.55E-03,1.90E-03
35422,2.52E-03,1.14E-03
35423,2.53E-03,1.39E-03
35424,2.53E-03,9.12E-04
35425,2.61E-03,7.68E-04
35426,2.61E-03,7.53E-04
35427,2.61E-03,7.88E-04
35428,2.61E-03,7.77E-04
35429,2.62E-03,8.16E-04
35430,2.64E-03,8.01E-04
35431,2.54E-03,8.60E-04
35432,2.59E-03,8.35E-04
35433,2.53E-03,9.29E-04
35434,2.55E-03,8.92E-04
35435,2.44E-03,1.01E-03
35436,2.44E-03,9.70E-04
35437,2.35E-03,1.10E-03
35438,2.39E-03,1.06E-03
35439,2.27E-03,1.17E-03
35440,2.29E-03,1.14E-03
35441,2.24E-03,1.21E-03
35442,2.24E-03,1.20E-03
35443,2.31E-03,1.22E-03
35444,2.28E-03,1.22E-03
35445,2.36E-03,1.22E-03
35446,2.32E-03,1.22E-03
35447,2.41E-03,1.23E-03
35448,2.41E-03,1.23E-03
35449,2.41E-03,1.26E-03
35450,2.40E-03,1.25E-03
35451,2.37E-03,1.30E-03
35452,2.39E-03,1.28E-03
35453,2.09E-03,1.29E-03
35454,2.19E-03,1.32E-03
35455,2.45E-03,1.31E-03
35456,2.25E-03,1.33E-03
35457,2.45E-03,1.30E-03
35458,2.45E-03,1.31E-03
35459,2.48E-03,1.28E-03
35460,2.47E-03,1.29E-03
35461,2.51E-03,1.27E-03
35462,2.50E-03,1.27E-03
35463,2.53E-03,1.29E-03
35464,2.54E-03,1.28E-03
35465,2.53E-03,1.33E-03
35466,2.53E-03,1.31E-03
35467,1.86E-03,1.38E-03
35468,2.31E-03,1.37E-03
35469,2.37E-03,1.38E-03
35470,1.77E-03,1.39E-03
35471,2.54E-03,1.33E-03
35472,2.54E-03,1.35E-03
35473,2.52E-03,1.30E-03
35474,2.53E-03,1.32E-03
35475,2.55E-03,1.26E-03
35476,2.52E-03,1.28E-03
35477,2.53E-03,1.24E-03
35478,2.53E-03,1.25E-03
35479,2.51E-03,1.23E-03
35480,2.54E-03,1.23E-03
35481,2.46E-03,1.24E-03
35482,2.49E-03,1.23E-03
35483,2.45E-03,1.24E-03
35484,2.43E-03,1.24E-03
35485,2.45E-03,1.23E-03
35486,2.43E-03,1.24E-03
35487,2.47E-03,1.22E-03
35488,2.44E-03,1.23E-03
35489,2.47E-03,1.20E-03
35490,2.45E-03,1.21E-03
35491,2.51E-03,1.18E-03
35492,2.48E-03,1.19E-03
35493,2.50E-03,1.17E-03
35494,2.50E-03,1.17E-03
35495,2.43E-03,1.17E-03
35496,2.48E-03,1.17E-03
35497,2.39E-03,1.18E-03
35498,2.41E-03,1.18E-03
35499,2.33E-03,1.19E-03
35500,2.36E-03,1.19E-03
35501,2.29E-03,1.18E-03
35502,2.31E-03,1.19E-03
35503,2.23E-03,1.18E-03
35504,2.27E-03,1.18E-03
35505,2.16E-03,1.17E-03
35506,2.21E-03,1.18E-03
35507,2.12E-03,1.15E-03
35508,2.14E-03,1.17E-03
35509,2.19E-03,1.11E-03
35510,2.15E-03,1.13E-03
35511,2.25E-03,1.05E-03
35512,2.21E-03,1.08E-03
35513,2.35E-03,9.83E-04
35514,2.32E-03,1.01E-03
35515,2.46E-03,9.31E-04
35516,2.44E-03,9.55E-04
35517,2.65E-03,9.04E-04
35518,2.51E-03,9.14E-04
35519,2.67E-03,8.25E-04
35520,2.50E-03,8.10E-04
35521,2.53E-03,8.15E-04
35522,2.50E-03,8.19E-04
35523,2.48E-03,8.09E-04
35524,2.59E-03,8.81E-04
35525,2.54E-03,8.43E-04
35526,2.69E-03,9.82E-04
35527,2.65E-03,9.32E-04
35528,2.69E-03,1.21E-02
35529,2.46E-03,5.86E-04
35530,2.37E-03,6.65E-04
35531,1.88E-03,1.06E-03
35532,1.63E-03,1.08E-03
35533,2.52E-03,1.02E-03
35534,2.90E-03,1.76E-03
35535,2.17E-03,1.06E-02
35536,2.30E-03,1.05E-02
35537,2.43E-03,1.07E-02
35538,2.36E-03,1.59E-02
35539,2.11E-03,3.08E-03
35540,2.83E-03,1.25E-02
35541,2.87E-03,1.22E-02
35542,2.11E-03,9.68E-04
35543,2.05E-03,9.94E-04
35544,2.31E-03,1.15E-03
35545,2.55E-03,3.56E-03
35546,3.94E-03,1.54E-03
35547,2.63E-03,2.46E-03
35548,2.85E-03,2.25E-03
35549,2.96E-03,4.10E-03
35550,2.97E-03,3.82E-03
35551,2.95E-03,4.65E-03
35552,2.94E-03,4.38E-03
35553,2.83E-03,5.16E-03
35554,2.86E-03,4.91E-03
35555,2.68E-03,5.63E-03
35556,2.72E-03,5.40E-03
35557,2.56E-03,6.06E-03
35558,2.62E-03,5.85E-03
35559,2.48E-03,6.46E-03
35560,2.52E-03,6.27E-03
35561,2.44E-03,6.84E-03
35562,2.45E-03,6.65E-03
35563,2.38E-03,7.20E-03
35564,2.41E-03,7.02E-03
35565,2.37E-03,7.55E-03
35566,2.37E-03,7.38E-03
35567,2.43E-03,7.89E-03
35568,2.40E-03,7.72E-03
35569,2.49E-03,8.24E-03
35570,2.46E-03,8.06E-03
35571,2.56E-03,8.58E-03
35572,2.52E-03,8.41E-03
35573,2.59E-03,8.91E-03
35574,2.58E-03,8.75E-03
35575,2.56E-03,9.23E-03
35576,2.57E-03,9.07E-03
35577,2.52E-03,9.53E-03
35578,2.53E-03,9.38E-03
35579,2.46E-03,9.80E-03
35580,2.49E-03,9.67E-03
35581,2.41E-03,1.01E-02
35582,2.43E-03,9.93E-03
35583,2.39E-03,1.03E-02
35584,2.40E-03,1.02E-02
35585,2.35E-03,1.04E-02
35586,2.10E-03,1.09E-02
35587,2.32E-03,1.08E-02
35588,2.15E-03,1.11E-02
35589,2.12E-03,1.10E-02
35590,2.21E-03,1.13E-02
35591,2.18E-03,1.12E-02
35592,2.32E-03,1.15E-02
35593,2.25E-03,1.14E-02
35594,2.44E-03,1.17E-02
35595,2.39E-03,1.15E-02
35596,2.56E-03,1.19E-02
35597,2.52E-03,1.18E-02
35598,2.71E-03,1.31E-02
35599,2.76E-03,1.28E-02
35600,2.61E-03,1.38E-02
35601,2.61E-03,1.34E-02
35602,2.50E-03,1.44E-02
35603,2.51E-03,1.41E-02
35604,2.51E-03,1.48E-02
35605,2.50E-03,1.46E-02
35606,2.61E-03,1.49E-02
35607,2.55E-03,1.49E-02
35608,2.72E-03,1.49E-02
35609,2.70E-03,1.50E-02
35610,2.80E-03,1.49E-02
35611,2.79E-03,1.49E-02
35612,2.85E-03,1.50E-02
35613,2.85E-03,1.50E-02
35614,2.79E-03,1.52E-02
35615,2.82E-03,1.51E-02
35616,2.73E-03,1.54E-02
35617,2.76E-03,1.53E-02
35618,2.65E-03,1.56E-02
35619,2.68E-03,1.55E-02
35620,2.59E-03,1.58E-02
35621,2.62E-03,1.57E-02
35622,2.52E-03,1.59E-02
35623,2.56E-03,1.58E-02
35624,2.47E-03,1.59E-02
35625,2.50E-03,1.59E-02
35626,2.44E-03,1.59E-02
35627,2.45E-03,1.59E-02
35628,2.44E-03,1.59E-02
35629,2.42E-03,1.59E-02
35630,2.42E-03,1.59E-02
35631,2.40E-03,1.59E-02
35632,2.42E-03,1.59E-02
35633,2.41E-03,1.59E-02
35634,2.43E-03,1.59E-02
35635,2.42E-03,1.59E-02
35636,2.45E-03,1.58E-02
35637,2.45E-03,1.59E-02
35638,2.48E-03,1.58E-02
35639,2.48E-03,1.58E-02
35640,2.53E-03,1.58E-02
35641,2.49E-03,1.58E-02
35642,2.55E-03,1.58E-02
35643,2.54E-03,1.58E-02
35644,2.61E-03,1.57E-02
35645,2.58E-03,1.57E-02
35646,2.63E-03,1.57E-02
35647,2.62E-03,1.57E-02
35648,2.61E-03,1.57E-02
35649,2.64E-03,1.57E-02
35650,2.59E-03,1.58E-02
35651,2.60E-03,1.57E-02
35652,2.51E-03,1.58E-02
35653,2.54E-03,1.58E-02
35654,2.48E-03,1.59E-02
35655,2.49E-03,1.59E-02
35656,2.53E-03,1.58E-02
35657,2.49E-03,1.58E-02
35658,2.54E-03,1.58E-02
35659,2.57E-03,1.58E-02
35660,2.49E-03,1.58E-02
35661,2.50E-03,1.58E-02
35662,2.43E-03,1.59E-02
35663,2.45E-03,1.59E-02
35664,2.45E-03,1.58E-02
35665,2.42E-03,1.59E-02
35666,2.49E-03,1.58E-02
35667,2.47E-03,1.58E-02
35668,2.53E-03,1.57E-02
35669,2.51E-03,1.58E-02
35670,2.47E-03,1.58E-02
35671,2.52E-03,1.58E-02
35672,2.44E-03,1.59E-02
35673,2.47E-03,1.58E-02
35674,2.44E-03,1.59E-02
35675,2.42E-03,1.59E-02
35676,2.48E-03,1.58E-02
35677,2.45E-03,1.59E-02
35678,2.54E-03,1.57E-02
35679,2.51E-03,1.58E-02
35680,2.60E-03,1.57E-02
35681,2.57E-03,1.57E-02
35682,2.54E-03,1.58E-02
35683,2.56E-03,1.57E-02
35684,2.45E-03,1.60E-02
35685,2.47E-03,1.59E-02
35686,2.39E-03,1.61E-02
35687,2.41E-03,1.61E-02
35688,2.40E-03,1.61E-02
35689,2.38E-03,1.61E-02
35690,2.47E-03,1.60E-02
35691,2.43E-03,1.61E-02
35692,2.56E-03,1.59E-02
35693,2.51E-03,1.60E-02
35694,2.63E-03,1.58E-02
35695,2.59E-03,1.59E-02
35696,2.63E-03,1.58E-02
35697,2.64E-03,1.58E-02
35698,2.57E-03,1.59E-02
35699,2.59E-03,1.59E-02
35700,2.53E-03,1.60E-02
35701,2.57E-03,1.60E-02
35702,2.48E-03,1.61E-02
35703,2.51E-03,1.60E-02
35704,2.44E-03,1.61E-02
35705,2.45E-03,1.61E-02
35706,2.39E-03,1.61E-02
35707,2.43E-03,1.61E-02
35708,2.38E-03,1.62E-02
35709,2.39E-03,1.62E-02
35710,2.38E-03,1.62E-02
35711,2.40E-03,1.56E-02
35712,2.39E-03,1.59E-02
35713,2.42E-03,1.50E-02
35714,2.41E-03,1.53E-02
35715,2.44E-03,1.45E-02
35716,2.43E-03,1.48E-02
35717,2.47E-03,1.39E-02
35718,2.45E-03,1.42E-02
35719,2.48E-03,1.33E-02
35720,2.48E-03,1.36E-02
35721,2.48E-03,1.27E-02
35722,2.50E-03,1.30E-02
35723,2.48E-03,1.21E-02
35724,2.50E-03,1.24E-02
35725,2.48E-03,1.16E-02
35726,2.50E-03,1.18E-02
35727,2.48E-03,1.10E-02
35728,2.50E-03,1.13E-02
35729,2.49E-03,1.04E-02
35730,2.50E-03,1.07E-02
35731,2.49E-03,9.87E-03
35732,2.50E-03,1.01E-02
35733,2.49E-03,9.31E-03
35734,2.50E-03,9.59E-03
35735,2.49E-03,8.75E-03
35736,2.50E-03,9.03E-03
35737,2.49E-03,8.19E-03
35738,2.50E-03,8.47E-03
35739,2.49E-03,7.64E-03
35740,2.50E-03,7.91E-03
35741,2.49E-03,7.08E-03
35742,2.50E-03,7.36E-03
35743,2.50E-03,6.53E-03
35744,2.50E-03,6.81E-03
35745,2.50E-03,5.98E-03
35746,2.50E-03,6.25E-03
35747,2.50E-03,5.43E-03
35748,2.50E-03,5.70E-03
35749,2.50E-03,4.88E-03
35750,2.50E-03,5.15E-03
35751,2.52E-03,4.33E-03
35752,2.52E-03,4.61E-03
35753,2.51E-03,3.79E-03
35754,2.52E-03,4.06E-03
35755,2.52E-03,3.24E-03
35756,2.51E-03,3.51E-03
35757,2.52E-03,2.70E-03
35758,2.53E-03,2.97E-03
35759,2.53E-03,2.16E-03
35760,2.54E-03,2.43E-03
35761,2.55E-03,1.63E-03
35762,2.54E-03,1.90E-03
35763,2.56E-03,1.13E-03
35764,2.56E-03,1.38E-03
35765,2.60E-03,7.05E-04
35766,2.59E-03,9.00E-04
35767,2.58E-03,5.94E-04
35768,3.09E-03,8.44E-04
35769,2.67E-03,9.36E-04
35770,2.77E-03,9.04E-04
35771,2.63E-03,9.87E-04
35772,2.65E-03,9.65E-04
35773,2.61E-03,1.02E-03
35774,2.60E-03,1.01E-03
35775,2.59E-03,1.05E-03
35776,2.60E-03,1.04E-03
35777,2.55E-03,1.10E-03
35778,2.57E-03,1.07E-03
35779,2.51E-03,1.17E-03
35780,2.53E-03,1.13E-03
35781,2.44E-03,1.25E-03
35782,2.46E-03,1.21E-03
35783,2.36E-03,1.34E-03
35784,2.40E-03,1.30E-03
35785,2.29E-03,1.41E-03
35786,2.29E-03,1.38E-03
35787,2.25E-03,1.44E-03
35788,2.24E-03,1.43E-03
35789,2.33E-03,1.44E-03
35790,2.30E-03,1.45E-03
35791,2.38E-03,1.44E-03
35792,2.35E-03,1.44E-03
35793,2.42E-03,1.45E-03
35794,2.42E-03,1.44E-03
35795,2.38E-03,1.48E-03
35796,2.41E-03,1.46E-03
35797,2.32E-03,1.52E-03
35798,2.37E-03,1.50E-03
35799,2.23E-03,1.53E-03
35800,2.26E-03,1.53E-03
35801,2.41E-03,1.54E-03
35802,2.31E-03,1.54E-03
35803,2.43E-03,1.52E-03
35804,2.42E-03,1.53E-03
35805,2.47E-03,1.50E-03
35806,2.47E-03,1.51E-03
35807,2.52E-03,1.49E-03
35808,2.49E-03,1.49E-03
35809,2.49E-03,1.52E-03
35810,2.52E-03,1.50E-03
35811,2.42E-03,1.56E-03
35812,2.49E-03,1.54E-03
35813,2.16E-03,1.60E-03
35814,2.26E-03,1.58E-03
35815,2.25E-03,1.61E-03
35816,2.11E-03,1.61E-03
35817,2.48E-03,1.58E-03
35818,2.41E-03,1.60E-03
35819,2.50E-03,1.53E-03
35820,2.50E-03,1.56E-03
35821,2.55E-03,1.50E-03
35822,2.53E-03,1.51E-03
35823,2.54E-03,1.47E-03
35824,2.55E-03,1.48E-03
35825,2.51E-03,1.47E-03
35826,2.52E-03,1.47E-03
35827,2.47E-03,1.48E-03
35828,2.48E-03,1.47E-03
35829,2.45E-03,1.48E-03
35830,2.44E-03,1.48E-03
35831,2.44E-03,1.47E-03
35832,2.44E-03,1.48E-03
35833,2.45E-03,1.45E-03
35834,2.44E-03,1.46E-03
35835,2.47E-03,1.43E-03
35836,2.45E-03,1.44E-03
35837,2.52E-03,1.40E-03
35838,2.47E-03,1.41E-03
35839,2.51E-03,1.38E-03
35840,2.52E-03,1.39E-03
35841,2.44E-03,1.38E-03
35842,2.47E-03,1.38E-03
35843,2.40E-03,1.39E-03
35844,2.43E-03,1.39E-03
35845,2.35E-03,1.38E-03
35846,2.37E-03,1.39E-03
35847,2.31E-03,1.37E-03
35848,2.32E-03,1.38E-03
35849,2.26E-03,1.36E-03
35850,2.29E-03,1.37E-03
35851,2.20E-03,1.35E-03
35852,2.23E-03,1.36E-03
35853,2.17E-03,1.33E-03
35854,2.18E-03,1.35E-03
35855,2.21E-03,1.29E-03
35856,2.18E-03,1.31E-03
35857,2.26E-03,1.22E-03
35858,2.25E-03,1.25E-03
35859,2.36E-03,1.15E-03
35860,2.35E-03,1.18E-03
35861,2.44E-03,1.09E-03
35862,2.42E-03,1.12E-03
35863,2.61E-03,1.05E-03
35864,2.47E-03,1.07E-03
35865,2.26E-03,1.06E-03
35866,2.52E-03,1.00E-03
35867,2.52E-03,9.42E-04
35868,2.49E-03,8.89E-04
35869,2.52E-03,9.15E-04
35870,2.48E-03,8.47E-04
35871,2.47E-03,8.64E-04
35872,2.55E-03,8.51E-04
35873,2.51E-03,8.42E-04
35874,2.53E-03,9.03E-04
35875,2.58E-03,8.73E-04
35876,2.36E-03,9.36E-04
35877,2.22E-03,1.06E-02
35878,1.66E-03,1.06E-02
35879,2.29E-03,1.05E-02
35880,2.68E-03,1.21E-02
35881,2.40E-03,1.64E-02
35882,2.39E-03,1.64E-02
35883,2.63E-03,6.32E-04
35884,3.22E-03,7.98E-04
35885,2.03E-03,1.04E-03
35886,1.97E-03,1.11E-03
35887,2.54E-03,3.54E-03
35888,2.04E-03,1.05E-02
35889,1.33E-03,1.06E-02
35890,3.17E-03,1.44E-03
35891,2.79E-03,1.25E-03
35892,3.61E-03,1.89E-03
35893,3.47E-03,1.66E-03
35894,3.10E-03,2.56E-03
35895,3.13E-03,2.27E-03
35896,2.97E-03,4.10E-03
35897,3.02E-03,3.80E-03
35898,2.88E-03,4.64E-03
35899,2.92E-03,4.37E-03
35900,2.78E-03,5.15E-03
35901,2.83E-03,4.90E-03
35902,2.66E-03,5.61E-03
35903,2.69E-03,5.38E-03
35904,2.55E-03,6.04E-03
35905,2.58E-03,5.83E-03
35906,2.48E-03,6.43E-03
35907,2.49E-03,6.24E-03
35908,2.43E-03,6.81E-03
35909,2.44E-03,6.62E-03
35910,2.39E-03,7.17E-03
35911,2.41E-03,6.99E-03
35912,2.38E-03,7.52E-03
35913,2.37E-03,7.35E-03
35914,2.44E-03,7.86E-03
35915,2.40E-03,7.69E-03
35916,2.50E-03,8.20E-03
35917,2.47E-03,8.03E-03
35918,2.56E-03,8.54E-03
35919,2.52E-03,8.37E-03
35920,2.60E-03,8.87E-03
35921,2.58E-03,8.71E-03
35922,2.55E-03,9.19E-03
35923,2.57E-03,9.03E-03
35924,2.52E-03,9.48E-03
35925,2.54E-03,9.34E-03
35926,2.47E-03,9.76E-03
35927,2.49E-03,9.62E-03
35928,2.44E-03,1.00E-02
35929,2.44E-03,9.88E-03
35930,2.45E-03,1.02E-02
35931,2.42E-03,1.01E-02
35932,2.39E-03,1.03E-02
35933,2.15E-03,1.08E-02
35934,1.40E-03,1.07E-02
35935,2.04E-03,1.08E-02
35936,2.18E-03,1.10E-02
35937,2.18E-03,1.09E-02
35938,2.27E-03,1.12E-02
35939,2.22E-03,1.11E-02
35940,2.33E-03,1.13E-02
35941,2.29E-03,1.13E-02
35942,2.44E-03,1.15E-02
35943,2.39E-03,1.14E-02
35944,2.51E-03,1.18E-02
35945,2.47E-03,1.16E-02
35946,2.93E-03,1.23E-02
35947,2.33E-03,1.20E-02
35948,2.52E-03,1.19E-02
35949,3.01E-03,1.27E-02
35950,3.40E-03,1.25E-02
35951,2.76E-03,1.34E-02
35952,2.75E-03,1.30E-02
35953,2.61E-03,1.42E-02
35954,2.65E-03,1.38E-02
35955,2.51E-03,1.49E-02
35956,2.52E-03,1.46E-02
35957,2.51E-03,1.53E-02
35958,2.50E-03,1.52E-02
35959,2.59E-03,1.55E-02
35960,2.53E-03,1.54E-02
35961,2.70E-03,1.55E-02
35962,2.68E-03,1.55E-02
35963,2.79E-03,1.55E-02
35964,2.77E-03,1.54E-02
35965,2.81E-03,1.55E-02
35966,2.81E-03,1.55E-02
35967,2.76E-03,1.57E-02
35968,2.79E-03,1.56E-02
35969,2.72E-03,1.59E-02
35970,2.74E-03,1.58E-02
35971,2.64E-03,1.61E-02
35972,2.65E-03,1.60E-02
35973,2.56E-03,1.62E-02
35974,2.59E-03,1.62E-02
35975,2.50E-03,1.62E-02
35976,2.55E-03,1.62E-02
35977,2.46E-03,1.62E-02
35978,2.50E-03,1.62E-02
35979,2.44E-03,1.62E-02
35980,2.46E-03,1.62E-02
35981,2.43E-03,1.62E-02
35982,2.43E-03,1.62E-02
35983,2.42E-03,1.61E-02
35984,2.42E-03,1.61E-02
35985,2.43E-03,1.61E-02
35986,2.42E-03,1.61E-02
35987,2.44E-03,1.61E-02
35988,2.41E-03,1.61E-02
35989,2.46E-03,1.61E-02
35990,2.46E-03,1.61E-02
35991,2.49E-03,1.61E-02
35992,2.46E-03,1.61E-02
35993,2.52E-03,1.61E-02
35994,2.51E-03,1.61E-02
35995,2.56E-03,1.61E-02
35996,2.54E-03,1.61E-02
35997,2.61E-03,1.60E-02
35998,2.59E-03,1.61E-02
35999,2.61E-03,1.60E-02
36000,2.61E-03,1.60E-02
36001,2.61E-03,1.60E-02
36002,2.63E-03,1.60E-02
36003,2.56E-03,1.61E-02
36004,2.59E-03,1.61E-02
36005,2.52E-03,1.62E-02
36006,2.55E-03,1.61E-02
36007,2.49E-03,1.62E-02
36008,2.48E-03,1.62E-02
36009,2.54E-03,1.61E-02
36010,2.49E-03,1.62E-02
36011,2.54E-03,1.61E-02
36012,2.56E-03,1.61E-02
36013,2.48E-03,1.61E-02
36014,2.51E-03,1.61E-02
36015,2.43E-03,1.61E-02
36016,2.46E-03,1.61E-02
36017,2.46E-03,1.61E-02
36018,2.42E-03,1.61E-02
36019,2.50E-03,1.60E-02
36020,2.47E-03,1.61E-02
36021,2.52E-03,1.60E-02
36022,2.52E-03,1.60E-02
36023,2.48E-03,1.60E-02
36024,2.52E-03,1.60E-02
36025,2.44E-03,1.61E-02
36026,2.46E-03,1.60E-02
36027,2.44E-03,1.62E-02
36028,2.42E-03,1.62E-02
36029,2.48E-03,1.61E-02
36030,2.46E-03,1.61E-02
36031,2.53E-03,1.59E-02
36032,2.51E-03,1.60E-02
36033,2.56E-03,1.59E-02
36034,2.55E-03,1.59E-02
36035,2.52E-03,1.60E-02
36036,2.55E-03,1.59E-02
36037,2.45E-03,1.62E-02
36038,2.48E-03,1.61E-02
36039,2.39E-03,1.64E-02
36040,2.41E-03,1.63E-02
36041,2.42E-03,1.64E-02
36042,2.38E-03,1.64E-02
36043,2.47E-03,1.63E-02
36044,2.44E-03,1.64E-02
36045,2.55E-03,1.62E-02
36046,2.51E-03,1.63E-02
36047,2.62E-03,1.61E-02
36048,2.59E-03,1.62E-02
36049,2.62E-03,1.61E-02
36050,2.65E-03,1.61E-02
36051,2.56E-03,1.62E-02
36052,2.58E-03,1.62E-02
36053,2.53E-03,1.63E-02
36054,2.56E-03,1.63E-02
36055,2.48E-03,1.64E-02
36056,2.51E-03,1.64E-02
36057,2.45E-03,1.64E-02
36058,2.48E-03,1.64E-02
36059,2.43E-03,1.64E-02
36060,2.44E-03,1.64E-02
36061,2.42E-03,1.64E-02
36062,2.38E-03,1.62E-02
36063,2.40E-03,1.56E-02
36064,2.39E-03,1.59E-02
36065,2.43E-03,1.51E-02
36066,2.42E-03,1.53E-02
36067,2.46E-03,1.45E-02
36068,2.44E-03,1.48E-02
36069,2.48E-03,1.39E-02
36070,2.48E-03,1.42E-02
36071,2.48E-03,1.33E-02
36072,2.50E-03,1.36E-02
36073,2.48E-03,1.27E-02
36074,2.50E-03,1.30E-02
36075,2.48E-03,1.21E-02
36076,2.50E-03,1.24E-02
36077,2.48E-03,1.16E-02
36078,2.50E-03,1.18E-02
36079,2.48E-03,1.10E-02
36080,2.50E-03,1.13E-02
36081,2.49E-03,1.04E-02
36082,2.50E-03,1.07E-02
36083,2.49E-03,9.86E-03
36084,2.50E-03,1.01E-02
36085,2.49E-03,9.30E-03
36086,2.50E-03,9.58E-03
36087,2.49E-03,8.74E-03
36088,2.50E-03,9.02E-03
36089,2.49E-03,8.18E-03
36090,2.50E-03,8.46E-03
36091,2.49E-03,7.63E-03
36092,2.50E-03,7.91E-03
36093,2.49E-03,7.07E-03
36094,2.50E-03,7.35E-03
36095,2.49E-03,6.52E-03
36096,2.50E-03,6.80E-03
36097,2.49E-03,5.97E-03
36098,2.50E-03,6.25E-03
36099,2.49E-03,5.42E-03
36100,2.50E-03,5.69E-03
36101,2.50E-03,4.87E-03
36102,2.50E-03,5.14E-03
36103,2.50E-03,4.32E-03
36104,2.50E-03,4.60E-03
36105,2.51E-03,3.77E-03
36106,2.51E-03,4.05E-03
36107,2.51E-03,3.23E-03
36108,2.51E-03,3.50E-03
36109,2.53E-03,2.69E-03
36110,2.53E-03,2.96E-03
36111,2.54E-03,2.15E-03
36112,2.54E-03,2.42E-03
36113,2.52E-03,1.62E-03
36114,2.54E-03,1.88E-03
36115,2.55E-03,1.12E-03
36116,2.56E-03,1.37E-03
36117,2.61E-03,7.01E-04
36118,2.58E-03,8.90E-04
36119,2.57E-03,6.00E-04
36120,3.42E-03,1.07E-03
36121,2.69E-03,1.17E-03
36122,2.85E-03,1.14E-03
36123,2.64E-03,1.23E-03
36124,2.66E-03,1.21E-03
36125,2.58E-03,1.27E-03
36126,2.59E-03,1.25E-03
36127,2.58E-03,1.31E-03
36128,2.59E-03,1.29E-03
36129,2.55E-03,1.35E-03
36130,2.57E-03,1.33E-03
36131,2.51E-03,1.41E-03
36132,2.51E-03,1.38E-03
36133,2.45E-03,1.50E-03
36134,2.46E-03,1.45E-03
36135,2.37E-03,1.58E-03
36136,2.39E-03,1.54E-03
36137,2.31E-03,1.64E-03
36138,2.30E-03,1.61E-03
36139,2.27E-03,1.67E-03
36140,2.26E-03,1.66E-03
36141,2.34E-03,1.67E-03
36142,2.31E-03,1.67E-03
36143,2.39E-03,1.65E-03
36144,2.38E-03,1.66E-03
36145,2.44E-03,1.66E-03
36146,2.44E-03,1.65E-03
36147,2.40E-03,1.69E-03
36148,2.42E-03,1.67E-03
36149,2.34E-03,1.73E-03
36150,2.36E-03,1.71E-03
36151,2.26E-03,1.76E-03
36152,2.30E-03,1.75E-03
36153,2.36E-03,1.76E-03
36154,2.34E-03,1.76E-03
36155,2.43E-03,1.74E-03
36156,2.41E-03,1.75E-03
36157,2.48E-03,1.72E-03
36158,2.45E-03,1.73E-03
36159,2.53E-03,1.71E-03
36160,2.51E-03,1.71E-03
36161,2.47E-03,1.74E-03
36162,2.51E-03,1.72E-03
36163,2.39E-03,1.78E-03
36164,2.43E-03,1.76E-03
36165,2.25E-03,1.83E-03
36166,2.31E-03,1.81E-03
36167,2.30E-03,1.84E-03
36168,2.25E-03,1.84E-03
36169,2.44E-03,1.82E-03
36170,2.37E-03,1.83E-03
36171,2.48E-03,1.77E-03
36172,2.47E-03,1.79E-03
36173,2.54E-03,1.73E-03
36174,2.52E-03,1.75E-03
36175,2.54E-03,1.71E-03
36176,2.54E-03,1.72E-03
36177,2.52E-03,1.71E-03
36178,2.53E-03,1.71E-03
36179,2.47E-03,1.72E-03
36180,2.49E-03,1.71E-03
36181,2.44E-03,1.72E-03
36182,2.47E-03,1.72E-03
36183,2.45E-03,1.71E-03
36184,2.43E-03,1.72E-03
36185,2.45E-03,1.69E-03
36186,2.44E-03,1.70E-03
36187,2.48E-03,1.66E-03
36188,2.45E-03,1.68E-03
36189,2.52E-03,1.63E-03
36190,2.47E-03,1.64E-03
36191,2.51E-03,1.60E-03
36192,2.51E-03,1.61E-03
36193,2.46E-03,1.60E-03
36194,2.48E-03,1.60E-03
36195,2.41E-03,1.59E-03
36196,2.44E-03,1.60E-03
36197,2.35E-03,1.58E-03
36198,2.38E-03,1.59E-03
36199,2.34E-03,1.56E-03
36200,2.35E-03,1.58E-03
36201,2.31E-03,1.55E-03
36202,2.33E-03,1.55E-03
36203,2.24E-03,1.53E-03
36204,2.26E-03,1.54E-03
36205,2.21E-03,1.51E-03
36206,2.22E-03,1.53E-03
36207,2.25E-03,1.47E-03
36208,2.22E-03,1.49E-03
36209,2.31E-03,1.40E-03
36210,2.27E-03,1.43E-03
36211,2.37E-03,1.32E-03
36212,2.34E-03,1.36E-03
36213,2.43E-03,1.26E-03
36214,2.41E-03,1.29E-03
36215,2.39E-03,1.23E-03
36216,2.46E-03,1.24E-03
36217,2.12E-03,1.18E-03
36218,2.18E-03,1.23E-03
36219,2.35E-03,1.16E-03
36220,2.15E-03,1.17E-03
36221,2.47E-03,1.10E-03
36222,2.45E-03,1.13E-03
36223,2.47E-03,1.03E-03
36224,2.48E-03,1.07E-03
36225,2.47E-03,9.44E-04
36226,2.46E-03,9.83E-04
36227,2.52E-03,9.01E-04
36228,2.49E-03,9.16E-04
36229,2.47E-03,9.08E-04
36230,2.51E-03,9.00E-04
36231,2.26E-03,9.38E-04
36232,2.35E-03,9.21E-04
36233,2.21E-03,9.77E-04
36234,2.19E-03,9.57E-04
36235,2.39E-03,1.65E-02
36236,3.41E-03,1.03E-03
36237,2.37E-03,1.24E-02
36238,1.91E-03,1.21E-02
36239,2.39E-03,1.04E-02
36240,2.27E-03,1.01E-03
36241,2.42E-03,1.62E-02
36242,2.41E-03,1.65E-02
36243,2.97E-03,1.34E-03
36244,3.14E-03,1.31E-03
36245,3.19E-03,1.27E-02
36246,2.00E-03,1.23E-02
36247,2.71E-03,1.26E-02
36248,1.83E-03,1.04E-02
36249,1.64E-03,1.03E-02
36250,3.05E-03,1.07E-03
36251,3.32E-03,1.55E-03
36252,3.33E-03,1.30E-03
36253,3.87E-03,2.06E-03
36254,3.39E-03,1.78E-03
36255,3.44E-03,2.68E-03
36256,3.85E-03,2.36E-03
36257,3.34E-03,3.49E-03
36258,2.91E-03,4.10E-03
36259,3.00E-03,3.81E-03
36260,2.84E-03,4.63E-03
36261,2.88E-03,4.37E-03
36262,2.75E-03,5.13E-03
36263,2.79E-03,4.89E-03
36264,2.64E-03,5.59E-03
36265,2.66E-03,5.36E-03
36266,2.54E-03,6.01E-03
36267,2.55E-03,5.80E-03
36268,2.48E-03,6.40E-03
36269,2.48E-03,6.21E-03
36270,2.43E-03,6.78E-03
36271,2.44E-03,6.60E-03
36272,2.39E-03,7.14E-03
36273,2.41E-03,6.96E-03
36274,2.38E-03,7.49E-03
36275,2.38E-03,7.31E-03
36276,2.43E-03,7.83E-03
36277,2.41E-03,7.66E-03
36278,2.49E-03,8.17E-03
36279,2.48E-03,8.00E-03
36280,2.57E-03,8.51E-03
36281,2.53E-03,8.34E-03
36282,2.58E-03,8.84E-03
36283,2.56E-03,8.68E-03
36284,2.56E-03,9.15E-03
36285,2.57E-03,9.00E-03
36286,2.52E-03,9.44E-03
36287,2.55E-03,9.30E-03
36288,2.47E-03,9.71E-03
36289,2.49E-03,9.58E-03
36290,2.45E-03,9.95E-03
36291,2.46E-03,9.83E-03
36292,2.47E-03,1.02E-02
36293,2.44E-03,1.01E-02
36294,2.51E-03,1.03E-02
36295,1.83E-03,1.06E-02
36296,1.94E-03,1.05E-02
36297,2.12E-03,1.08E-02
36298,1.94E-03,1.07E-02
36299,2.21E-03,1.09E-02
36300,2.18E-03,1.09E-02
36301,2.28E-03,1.11E-02
36302,2.25E-03,1.10E-02
36303,2.34E-03,1.13E-02
36304,2.32E-03,1.12E-02
36305,2.38E-03,1.14E-02
36306,2.37E-03,1.13E-02
36307,2.42E-03,1.16E-02
36308,2.42E-03,1.15E-02
36309,2.27E-03,1.18E-02
36310,2.38E-03,1.17E-02
36311,2.42E-03,1.21E-02
36312,2.20E-03,1.19E-02
36313,3.02E-03,1.31E-02
36314,3.40E-03,1.28E-02
36315,2.73E-03,1.38E-02
36316,2.86E-03,1.34E-02
36317,2.60E-03,1.48E-02
36318,2.66E-03,1.43E-02
36319,2.49E-03,1.55E-02
36320,2.53E-03,1.52E-02
36321,2.50E-03,1.59E-02
36322,2.48E-03,1.57E-02
36323,2.57E-03,1.60E-02
36324,2.53E-03,1.59E-02
36325,2.67E-03,1.60E-02
36326,2.65E-03,1.60E-02
36327,2.75E-03,1.60E-02
36328,2.73E-03,1.60E-02
36329,2.80E-03,1.61E-02
36330,2.77E-03,1.61E-02
36331,2.73E-03,1.63E-02
36332,2.75E-03,1.62E-02
36333,2.68E-03,1.65E-02
36334,2.70E-03,1.64E-02
36335,2.62E-03,1.66E-02
36336,2.62E-03,1.66E-02
36337,2.55E-03,1.67E-02
36338,2.59E-03,1.67E-02
36339,2.50E-03,1.66E-02
36340,2.53E-03,1.66E-02
36341,2.47E-03,1.65E-02
36342,2.50E-03,1.66E-02
36343,2.45E-03,1.64E-02
36344,2.47E-03,1.65E-02
36345,2.44E-03,1.64E-02
36346,2.44E-03,1.64E-02
36347,2.42E-03,1.63E-02
36348,2.44E-03,1.63E-02
36349,2.42E-03,1.63E-02
36350,2.41E-03,1.63E-02
36351,2.43E-03,1.63E-02
36352,2.42E-03,1.63E-02
36353,2.47E-03,1.63E-02
36354,2.44E-03,1.63E-02
36355,2.49E-03,1.63E-02
36356,2.47E-03,1.63E-02
36357,2.51E-03,1.64E-02
36358,2.49E-03,1.64E-02
36359,2.55E-03,1.64E-02
36360,2.54E-03,1.64E-02
36361,2.60E-03,1.64E-02
36362,2.57E-03,1.64E-02
36363,2.62E-03,1.64E-02
36364,2.61E-03,1.64E-02
36365,2.60E-03,1.64E-02
36366,2.62E-03,1.64E-02
36367,2.55E-03,1.65E-02
36368,2.58E-03,1.64E-02
36369,2.51E-03,1.65E-02
36370,2.53E-03,1.65E-02
36371,2.48E-03,1.65E-02
36372,2.48E-03,1.65E-02
36373,2.52E-03,1.64E-02
36374,2.49E-03,1.65E-02
36375,2.54E-03,1.63E-02
36376,2.55E-03,1.64E-02
36377,2.48E-03,1.63E-02
36378,2.51E-03,1.63E-02
36379,2.43E-03,1.64E-02
36380,2.47E-03,1.64E-02
36381,2.45E-03,1.64E-02
36382,2.42E-03,1.64E-02
36383,2.50E-03,1.62E-02
36384,2.48E-03,1.63E-02
36385,2.53E-03,1.61E-02
36386,2.52E-03,1.62E-02
36387,2.49E-03,1.62E-02
36388,2.51E-03,1.62E-02
36389,2.44E-03,1.63E-02
36390,2.46E-03,1.63E-02
36391,2.43E-03,1.64E-02
36392,2.42E-03,1.64E-02
36393,2.48E-03,1.64E-02
36394,2.46E-03,1.64E-02
36395,2.53E-03,1.62E-02
36396,2.52E-03,1.63E-02
36397,2.55E-03,1.61E-02
36398,2.56E-03,1.61E-02
36399,2.52E-03,1.62E-02
36400,2.54E-03,1.61E-02
36401,2.45E-03,1.65E-02
36402,2.48E-03,1.64E-02
36403,2.39E-03,1.67E-02
36404,2.41E-03,1.66E-02
36405,2.43E-03,1.67E-02
36406,2.37E-03,1.67E-02
36407,2.47E-03,1.66E-02
36408,2.44E-03,1.67E-02
36409,2.55E-03,1.65E-02
36410,2.51E-03,1.66E-02
36411,2.60E-03,1.64E-02
36412,2.58E-03,1.64E-02
36413,2.60E-03,1.65E-02
36414,2.63E-03,1.64E-02
36415,2.56E-03,1.66E-02
36416,2.57E-03,1.65E-02
36417,2.50E-03,1.67E-02
36418,2.54E-03,1.67E-02
36419,2.48E-03,1.67E-02
36420,2.50E-03,1.67E-02
36421,2.50E-03,1.67E-02
36422,2.50E-03,1.67E-02
36423,2.45E-03,1.67E-02
36424,2.47E-03,1.67E-02
36425,2.42E-03,1.67E-02
36426,2.45E-03,1.67E-02
36427,2.41E-03,1.67E-02
36428,2.41E-03,1.67E-02
36429,2.43E-03,1.56E-02
36430,2.42E-03,1.59E-02
36431,2.45E-03,1.51E-02
36432,2.45E-03,1.53E-02
36433,2.48E-03,1.45E-02
36434,2.47E-03,1.48E-02
36435,2.48E-03,1.39E-02
36436,2.50E-03,1.42E-02
36437,2.48E-03,1.33E-02
36438,2.50E-03,1.36E-02
36439,2.48E-03,1.27E-02
36440,2.50E-03,1.30E-02
36441,2.48E-03,1.21E-02
36442,2.50E-03,1.24E-02
36443,2.48E-03,1.16E-02
36444,2.50E-03,1.18E-02
36445,2.48E-03,1.10E-02
36446,2.50E-03,1.13E-02
36447,2.49E-03,1.04E-02
36448,2.50E-03,1.07E-02
36449,2.49E-03,9.85E-03
36450,2.50E-03,1.01E-02
36451,2.49E-03,9.29E-03
36452,2.50E-03,9.57E-03
36453,2.49E-03,8.73E-03
36454,2.50E-03,9.01E-03
36455,2.49E-03,8.18E-03
36456,2.50E-03,8.45E-03
36457,2.49E-03,7.62E-03
36458,2.50E-03,7.90E-03
36459,2.49E-03,7.07E-03
36460,2.50E-03,7.34E-03
36461,2.49E-03,6.51E-03
36462,2.50E-03,6.79E-03
36463,2.49E-03,5.96E-03
36464,2.50E-03,6.24E-03
36465,2.49E-03,5.41E-03
36466,2.50E-03,5.68E-03
36467,2.49E-03,4.86E-03
36468,2.50E-03,5.13E-03
36469,2.50E-03,4.31E-03
36470,2.50E-03,4.58E-03
36471,2.50E-03,3.76E-03
36472,2.50E-03,4.03E-03
36473,2.52E-03,3.22E-03
36474,2.52E-03,3.49E-03
36475,2.51E-03,2.67E-03
36476,2.51E-03,2.94E-03
36477,2.52E-03,2.14E-03
36478,2.50E-03,2.40E-03
36479,2.52E-03,1.61E-03
36480,2.52E-03,1.87E-03
36481,2.55E-03,1.11E-03
36482,2.56E-03,1.35E-03
36483,2.61E-03,6.98E-04
36484,2.56E-03,8.80E-04
36485,2.73E-03,6.50E-04
36486,2.64E-03,6.07E-04
36487,3.05E-03,1.02E-03
36488,2.90E-03,8.08E-04
36489,2.71E-03,1.43E-03
36490,2.77E-03,1.39E-03
36491,2.63E-03,1.50E-03
36492,2.65E-03,1.47E-03
36493,2.57E-03,1.54E-03
36494,2.58E-03,1.52E-03
36495,2.56E-03,1.57E-03
36496,2.59E-03,1.56E-03
36497,2.54E-03,1.61E-03
36498,2.57E-03,1.59E-03
36499,2.51E-03,1.67E-03
36500,2.52E-03,1.64E-03
36501,2.45E-03,1.74E-03
36502,2.46E-03,1.70E-03
36503,2.38E-03,1.81E-03
36504,2.39E-03,1.78E-03
36505,2.32E-03,1.87E-03
36506,2.33E-03,1.85E-03
36507,2.31E-03,1.89E-03
36508,2.30E-03,1.89E-03
36509,2.37E-03,1.88E-03
36510,2.32E-03,1.89E-03
36511,2.43E-03,1.86E-03
36512,2.40E-03,1.87E-03
36513,2.43E-03,1.86E-03
36514,2.44E-03,1.86E-03
36515,2.40E-03,1.90E-03
36516,2.42E-03,1.88E-03
36517,2.35E-03,1.95E-03
36518,2.37E-03,1.92E-03
36519,2.30E-03,1.98E-03
36520,2.32E-03,1.97E-03
36521,2.36E-03,1.98E-03
36522,2.33E-03,1.98E-03
36523,2.44E-03,1.96E-03
36524,2.42E-03,1.97E-03
36525,2.51E-03,1.94E-03
36526,2.46E-03,1.95E-03
36527,2.53E-03,1.93E-03
36528,2.52E-03,1.93E-03
36529,2.47E-03,1.96E-03
36530,2.49E-03,1.94E-03
36531,2.41E-03,2.00E-03
36532,2.43E-03,1.98E-03
36533,2.31E-03,2.05E-03
36534,2.36E-03,2.03E-03
36535,2.31E-03,2.07E-03
36536,2.30E-03,2.07E-03
36537,2.42E-03,2.04E-03
36538,2.38E-03,2.06E-03
36539,2.48E-03,2.00E-03
36540,2.43E-03,2.02E-03
36541,2.53E-03,1.96E-03
36542,2.51E-03,1.98E-03
36543,2.55E-03,1.95E-03
36544,2.54E-03,1.95E-03
36545,2.52E-03,1.95E-03
36546,2.54E-03,1.95E-03
36547,2.49E-03,1.97E-03
36548,2.50E-03,1.96E-03
36549,2.44E-03,1.97E-03
36550,2.47E-03,1.97E-03
36551,2.46E-03,1.95E-03
36552,2.44E-03,1.96E-03
36553,2.46E-03,1.93E-03
36554,2.45E-03,1.94E-03
36555,2.48E-03,1.90E-03
36556,2.46E-03,1.91E-03
36557,2.52E-03,1.86E-03
36558,2.48E-03,1.88E-03
36559,2.53E-03,1.83E-03
36560,2.50E-03,1.84E-03
36561,2.48E-03,1.81E-03
36562,2.48E-03,1.82E-03
36563,2.42E-03,1.80E-03
36564,2.45E-03,1.81E-03
36565,2.36E-03,1.79E-03
36566,2.40E-03,1.80E-03
36567,2.35E-03,1.75E-03
36568,2.36E-03,1.77E-03
36569,2.34E-03,1.73E-03
36570,2.33E-03,1.74E-03
36571,2.29E-03,1.71E-03
36572,2.30E-03,1.72E-03
36573,2.24E-03,1.69E-03
36574,2.24E-03,1.70E-03
36575,2.28E-03,1.65E-03
36576,2.25E-03,1.68E-03
36577,2.35E-03,1.58E-03
36578,2.30E-03,1.62E-03
36579,2.38E-03,1.50E-03
36580,2.35E-03,1.54E-03
36581,2.43E-03,1.44E-03
36582,2.42E-03,1.47E-03
36583,2.43E-03,1.40E-03
36584,2.45E-03,1.42E-03
36585,2.32E-03,1.37E-03
36586,2.35E-03,1.38E-03
36587,2.30E-03,1.34E-03
36588,2.21E-03,1.36E-03
36589,2.44E-03,1.29E-03
36590,2.41E-03,1.32E-03
36591,2.43E-03,1.20E-03
36592,2.44E-03,1.25E-03
36593,2.45E-03,1.09E-03
36594,2.44E-03,1.15E-03
36595,2.49E-03,1.01E-03
36596,2.48E-03,1.05E-03
36597,2.42E-03,9.83E-04
36598,2.46E-03,9.94E-04
36599,2.32E-03,9.78E-04
36600,2.36E-03,9.79E-04
36601,2.28E-03,9.67E-04
36602,2.30E-03,9.74E-04
36603,2.76E-03,9.76E-04
36604,2.46E-03,9.59E-04
36605,2.90E-03,1.23E-02
36606,3.49E-03,1.21E-03
36607,3.17E-03,1.03E-03
36608,2.41E-03,1.67E-02
36609,3.02E-03,1.28E-03
36610,1.82E-03,1.03E-02
36611,1.44E-03,1.03E-02
36612,1.96E-03,1.04E-02
36613,3.38E-03,1.66E-03
36614,3.53E-03,1.41E-03
36615,3.47E-03,2.19E-03
36616,3.39E-03,1.91E-03
36617,3.57E-03,2.79E-03
36618,3.49E-03,2.47E-03
36619,3.75E-03,3.48E-03
36620,3.89E-03,3.14E-03
36621,2.95E-03,4.09E-03
36622,3.06E-03,3.81E-03
36623,2.81E-03,4.63E-03
36624,2.83E-03,4.36E-03
36625,2.69E-03,5.11E-03
36626,2.72E-03,4.87E-03
36627,2.60E-03,5.56E-03
36628,2.64E-03,5.34E-03
36629,2.52E-03,5.98E-03
36630,2.54E-03,5.77E-03
36631,2.47E-03,6.37E-03
36632,2.50E-03,6.18E-03
36633,2.42E-03,6.75E-03
36634,2.45E-03,6.56E-03
36635,2.40E-03,7.11E-03
36636,2.39E-03,6.93E-03
36637,2.38E-03,7.46E-03
36638,2.39E-03,7.28E-03
36639,2.44E-03,7.80E-03
36640,2.41E-03,7.63E-03
36641,2.51E-03,8.14E-03
36642,2.49E-03,7.97E-03
36643,2.54E-03,8.48E-03
36644,2.52E-03,8.31E-03
36645,2.55E-03,8.80E-03
36646,2.56E-03,8.64E-03
36647,2.58E-03,9.11E-03
36648,2.57E-03,8.96E-03
36649,2.52E-03,9.40E-03
36650,2.55E-03,9.26E-03
36651,2.47E-03,9.66E-03
36652,2.51E-03,9.53E-03
36653,2.45E-03,9.90E-03
36654,2.47E-03,9.78E-03
36655,2.43E-03,1.01E-02
36656,2.45E-03,1.00E-02
36657,2.46E-03,1.02E-02
36658,2.00E-03,1.06E-02
36659,1.93E-03,1.05E-02
36660,2.12E-03,1.07E-02
36661,2.06E-03,1.07E-02
36662,2.23E-03,1.09E-02
36663,2.20E-03,1.08E-02
36664,2.30E-03,1.10E-02
36665,2.28E-03,1.09E-02
36666,2.36E-03,1.12E-02
36667,2.37E-03,1.11E-02
36668,2.37E-03,1.13E-02
36669,2.36E-03,1.12E-02
36670,2.37E-03,1.15E-02
36671,2.37E-03,1.14E-02
36672,2.32E-03,1.16E-02
36673,2.35E-03,1.15E-02
36674,2.39E-03,1.19E-02
36675,2.29E-03,1.17E-02
36676,2.45E-03,1.20E-02
36677,2.76E-03,1.20E-02
36678,3.08E-03,1.27E-02
36679,2.64E-03,1.24E-02
36680,3.00E-03,1.32E-02
36681,2.92E-03,1.29E-02
36682,2.94E-03,1.36E-02
36683,3.06E-03,1.33E-02
36684,2.74E-03,1.44E-02
36685,2.80E-03,1.39E-02
36686,2.60E-03,1.53E-02
36687,2.63E-03,1.49E-02
36688,2.51E-03,1.60E-02
36689,2.50E-03,1.57E-02
36690,2.50E-03,1.64E-02
36691,2.49E-03,1.62E-02
36692,2.56E-03,1.65E-02
36693,2.52E-03,1.64E-02
36694,2.65E-03,1.66E-02
36695,2.64E-03,1.65E-02
36696,2.71E-03,1.67E-02
36697,2.71E-03,1.66E-02
36698,2.76E-03,1.68E-02
36699,2.73E-03,1.67E-02
36700,2.68E-03,1.70E-02
36701,2.72E-03,1.69E-02
36702,2.64E-03,1.72E-02
36703,2.68E-03,1.71E-02
36704,2.60E-03,1.72E-02
36705,2.61E-03,1.72E-02
36706,2.53E-03,1.71E-02
36707,2.57E-03,1.72E-02
36708,2.50E-03,1.70E-02
36709,2.51E-03,1.70E-02
36710,2.48E-03,1.68E-02
36711,2.49E-03,1.69E-02
36712,2.45E-03,1.67E-02
36713,2.46E-03,1.67E-02
36714,2.45E-03,1.66E-02
36715,2.46E-03,1.66E-02
36716,2.44E-03,1.65E-02
36717,2.43E-03,1.65E-02
36718,2.45E-03,1.65E-02
36719,2.43E-03,1.65E-02
36720,2.45E-03,1.65E-02
36721,2.44E-03,1.65E-02
36722,2.48E-03,1.65E-02
36723,2.45E-03,1.65E-02
36724,2.48E-03,1.66E-02
36725,2.47E-03,1.65E-02
36726,2.52E-03,1.67E-02
36727,2.50E-03,1.66E-02
36728,2.55E-03,1.67E-02
36729,2.53E-03,1.67E-02
36730,2.59E-03,1.68E-02
36731,2.55E-03,1.68E-02
36732,2.60E-03,1.68E-02
36733,2.60E-03,1.68E-02
36734,2.58E-03,1.68E-02
36735,2.61E-03,1.68E-02
36736,2.54E-03,1.68E-02
36737,2.57E-03,1.68E-02
36738,2.51E-03,1.69E-02
36739,2.53E-03,1.69E-02
36740,2.48E-03,1.69E-02
36741,2.49E-03,1.69E-02
36742,2.51E-03,1.67E-02
36743,2.49E-03,1.68E-02
36744,2.54E-03,1.66E-02
36745,2.56E-03,1.66E-02
36746,2.48E-03,1.66E-02
36747,2.50E-03,1.66E-02
36748,2.43E-03,1.66E-02
36749,2.47E-03,1.66E-02
36750,2.45E-03,1.66E-02
36751,2.43E-03,1.67E-02
36752,2.51E-03,1.65E-02
36753,2.49E-03,1.66E-02
36754,2.55E-03,1.63E-02
36755,2.53E-03,1.64E-02
36756,2.50E-03,1.64E-02
36757,2.51E-03,1.63E-02
36758,2.43E-03,1.66E-02
36759,2.47E-03,1.65E-02
36760,2.45E-03,1.67E-02
36761,2.45E-03,1.67E-02
36762,2.49E-03,1.67E-02
36763,2.46E-03,1.67E-02
36764,2.54E-03,1.64E-02
36765,2.52E-03,1.66E-02
36766,2.55E-03,1.63E-02
36767,2.56E-03,1.63E-02
36768,2.51E-03,1.65E-02
36769,2.53E-03,1.64E-02
36770,2.45E-03,1.68E-02
36771,2.48E-03,1.66E-02
36772,2.41E-03,1.69E-02
36773,2.42E-03,1.69E-02
36774,2.44E-03,1.69E-02
36775,2.39E-03,1.69E-02
36776,2.47E-03,1.69E-02
36777,2.46E-03,1.69E-02
36778,2.55E-03,1.68E-02
36779,2.50E-03,1.68E-02
36780,2.61E-03,1.68E-02
36781,2.60E-03,1.68E-02
36782,2.58E-03,1.69E-02
36783,2.62E-03,1.68E-02
36784,2.55E-03,1.70E-02
36785,2.57E-03,1.69E-02
36786,2.51E-03,1.71E-02
36787,2.52E-03,1.70E-02
36788,2.48E-03,1.70E-02
36789,2.49E-03,1.71E-02
36790,2.51E-03,1.70E-02
36791,2.50E-03,1.70E-02
36792,2.45E-03,1.69E-02
36793,2.48E-03,1.69E-02
36794,2.46E-03,1.69E-02
36795,2.45E-03,1.69E-02
36796,2.43E-03,1.69E-02
36797,2.44E-03,1.69E-02
36798,2.67E-03,9.42E-04
36799,2.96E-03,9.34E-04
36800,2.44E-03,1.69E-02
36801,2.45E-03,1.67E-02
36802,2.44E-03,1.62E-02
36803,2.45E-03,1.65E-02
36804,2.46E-03,1.56E-02
36805,2.46E-03,1.59E-02
36806,2.48E-03,1.51E-02
36807,2.48E-03,1.53E-02
36808,2.48E-03,1.45E-02
36809,2.50E-03,1.48E-02
36810,2.48E-03,1.39E-02
36811,2.50E-03,1.42E-02
36812,2.48E-03,1.33E-02
36813,2.50E-03,1.36E-02
36814,2.48E-03,1.27E-02
36815,2.50E-03,1.30E-02
36816,2.48E-03,1.21E-02
36817,2.50E-03,1.24E-02
36818,2.48E-03,1.15E-02
36819,2.50E-03,1.18E-02
36820,2.48E-03,1.10E-02
36821,2.50E-03,1.13E-02
36822,2.49E-03,1.04E-02
36823,2.50E-03,1.07E-02
36824,2.49E-03,9.85E-03
36825,2.50E-03,1.01E-02
36826,2.49E-03,9.28E-03
36827,2.50E-03,9.56E-03
36828,2.49E-03,8.72E-03
36829,2.50E-03,9.00E-03
36830,2.49E-03,8.17E-03
36831,2.50E-03,8.45E-03
36832,2.49E-03,7.61E-03
36833,2.50E-03,7.89E-03
36834,2.49E-03,7.06E-03
36835,2.50E-03,7.33E-03
36836,2.49E-03,6.50E-03
36837,2.50E-03,6.78E-03
36838,2.49E-03,5.95E-03
36839,2.50E-03,6.23E-03
36840,2.49E-03,5.40E-03
36841,2.50E-03,5.67E-03
36842,2.49E-03,4.85E-03
36843,2.50E-03,5.12E-03
36844,2.49E-03,4.30E-03
36845,2.50E-03,4.57E-03
36846,2.50E-03,3.75E-03
36847,2.50E-03,4.02E-03
36848,2.50E-03,3.20E-03
36849,2.50E-03,3.47E-03
36850,2.49E-03,2.66E-03
36851,2.51E-03,2.93E-03
36852,2.50E-03,2.12E-03
36853,2.49E-03,2.39E-03
36854,2.51E-03,1.60E-03
36855,2.51E-03,1.85E-03
36856,2.55E-03,1.09E-03
36857,2.54E-03,1.34E-03
36858,2.62E-03,6.93E-04
36859,2.58E-03,8.70E-04
36860,2.72E-03,6.58E-04
36861,2.68E-03,6.09E-04
36862,2.87E-03,1.03E-03
36863,2.78E-03,8.14E-04
36864,2.89E-03,1.27E-03
36865,2.89E-03,1.55E-03
36866,2.77E-03,1.62E-03
36867,2.87E-03,1.58E-03
36868,2.71E-03,1.70E-03
36869,2.75E-03,1.66E-03
36870,2.61E-03,1.77E-03
36871,2.66E-03,1.74E-03
36872,2.56E-03,1.82E-03
36873,2.58E-03,1.80E-03
36874,2.58E-03,1.85E-03
36875,2.58E-03,1.83E-03
36876,2.52E-03,1.88E-03
36877,2.56E-03,1.86E-03
36878,2.50E-03,1.93E-03
36879,2.52E-03,1.90E-03
36880,2.45E-03,1.98E-03
36881,2.46E-03,1.95E-03
36882,2.40E-03,2.05E-03
36883,2.41E-03,2.01E-03
36884,2.35E-03,2.09E-03
36885,2.36E-03,2.07E-03
36886,2.32E-03,2.11E-03
36887,2.33E-03,2.10E-03
36888,2.38E-03,2.09E-03
36889,2.35E-03,2.10E-03
36890,2.46E-03,2.07E-03
36891,2.42E-03,2.08E-03
36892,2.46E-03,2.07E-03
36893,2.46E-03,2.06E-03
36894,2.40E-03,2.11E-03
36895,2.46E-03,2.08E-03
36896,2.36E-03,2.16E-03
36897,2.40E-03,2.13E-03
36898,2.33E-03,2.19E-03
36899,2.36E-03,2.18E-03
36900,2.39E-03,2.19E-03
36901,2.34E-03,2.19E-03
36902,2.44E-03,2.18E-03
36903,2.43E-03,2.19E-03
36904,2.52E-03,2.16E-03
36905,2.47E-03,2.17E-03
36906,2.53E-03,2.15E-03
36907,2.51E-03,2.15E-03
36908,2.47E-03,2.18E-03
36909,2.48E-03,2.16E-03
36910,2.42E-03,2.22E-03
36911,2.44E-03,2.20E-03
36912,2.36E-03,2.27E-03
36913,2.37E-03,2.25E-03
36914,2.35E-03,2.29E-03
36915,2.34E-03,2.29E-03
36916,2.42E-03,2.27E-03
36917,2.39E-03,2.28E-03
36918,2.47E-03,2.23E-03
36919,2.44E-03,2.25E-03
36920,2.51E-03,2.20E-03
36921,2.51E-03,2.21E-03
36922,2.54E-03,2.20E-03
36923,2.54E-03,2.20E-03
36924,2.52E-03,2.20E-03
36925,2.51E-03,2.20E-03
36926,2.50E-03,2.22E-03
36927,2.51E-03,2.21E-03
36928,2.45E-03,2.21E-03
36929,2.46E-03,2.22E-03
36930,2.45E-03,2.20E-03
36931,2.45E-03,2.21E-03
36932,2.46E-03,2.17E-03
36933,2.45E-03,2.19E-03
36934,2.47E-03,2.14E-03
36935,2.46E-03,2.16E-03
36936,2.52E-03,2.10E-03
36937,2.48E-03,2.12E-03
36938,2.53E-03,2.06E-03
36939,2.50E-03,2.08E-03
36940,2.47E-03,2.03E-03
36941,2.50E-03,2.04E-03
36942,2.43E-03,2.02E-03
36943,2.46E-03,2.02E-03
36944,2.39E-03,1.99E-03
36945,2.41E-03,2.01E-03
36946,2.40E-03,1.94E-03
36947,2.36E-03,1.97E-03
36948,2.36E-03,1.90E-03
36949,2.37E-03,1.92E-03
36950,2.31E-03,1.88E-03
36951,2.33E-03,1.89E-03
36952,2.26E-03,1.86E-03
36953,2.28E-03,1.87E-03
36954,2.30E-03,1.82E-03
36955,2.28E-03,1.85E-03
36956,2.37E-03,1.76E-03
36957,2.34E-03,1.79E-03
36958,2.39E-03,1.68E-03
36959,2.37E-03,1.72E-03
36960,2.44E-03,1.62E-03
36961,2.43E-03,1.65E-03
36962,2.41E-03,1.58E-03
36963,2.45E-03,1.60E-03
36964,2.34E-03,1.56E-03
36965,2.38E-03,1.56E-03
36966,2.32E-03,1.53E-03
36967,2.29E-03,1.55E-03
36968,2.38E-03,1.48E-03
36969,2.36E-03,1.51E-03
36970,2.42E-03,1.39E-03
36971,2.41E-03,1.44E-03
36972,2.45E-03,1.27E-03
36973,2.43E-03,1.33E-03
36974,2.49E-03,1.17E-03
36975,2.47E-03,1.22E-03
36976,2.42E-03,1.12E-03
36977,2.46E-03,1.14E-03
36978,2.39E-03,1.08E-03
36979,2.39E-03,1.10E-03
36980,2.42E-03,1.01E-03
36981,2.37E-03,1.05E-03
36982,2.50E-03,9.68E-04
36983,3.45E-03,9.32E-04
36984,1.91E-03,1.03E-02
36985,2.01E-03,1.02E-02
36986,1.93E-03,1.04E-02
36987,2.21E-03,1.22E-02
36988,2.09E-03,1.16E-02
36989,2.44E-03,1.70E-02
36990,2.85E-03,1.53E-03
36991,3.07E-03,9.33E-04
36992,2.01E-03,8.61E-04
36993,3.37E-03,1.34E-03
36994,3.66E-03,1.12E-03
36995,3.23E-03,1.79E-03
36996,3.28E-03,1.55E-03
36997,3.23E-03,2.31E-03
36998,3.22E-03,2.04E-03
36999,3.33E-03,2.89E-03
37000,3.28E-03,2.59E-03
37001,3.23E-03,3.51E-03
37002,3.35E-03,3.20E-03
37003,2.89E-03,4.09E-03
37004,2.99E-03,3.81E-03
37005,2.76E-03,4.62E-03
37006,2.78E-03,4.36E-03
37007,2.65E-03,5.09E-03
37008,2.67E-03,4.86E-03
37009,2.57E-03,5.53E-03
37010,2.59E-03,5.32E-03
37011,2.51E-03,5.94E-03
37012,2.52E-03,5.74E-03
37013,2.46E-03,6.34E-03
37014,2.50E-03,6.14E-03
37015,2.41E-03,6.71E-03
37016,2.44E-03,6.53E-03
37017,2.41E-03,7.07E-03
37018,2.40E-03,6.89E-03
37019,2.39E-03,7.42E-03
37020,2.39E-03,7.25E-03
37021,2.45E-03,7.77E-03
37022,2.42E-03,7.59E-03
37023,2.50E-03,8.11E-03
37024,2.49E-03,7.94E-03
37025,2.53E-03,8.44E-03
37026,2.51E-03,8.28E-03
37027,2.55E-03,8.76E-03
37028,2.56E-03,8.60E-03
37029,2.55E-03,9.07E-03
37030,2.56E-03,8.92E-03
37031,2.50E-03,9.35E-03
37032,2.54E-03,9.21E-03
37033,2.49E-03,9.61E-03
37034,2.49E-03,9.48E-03
37035,2.44E-03,9.85E-03
37036,2.47E-03,9.73E-03
37037,2.41E-03,1.01E-02
37038,2.41E-03,9.96E-03
37039,2.29E-03,1.02E-02
37040,2.10E-03,1.05E-02
37041,2.03E-03,1.04E-02
37042,2.16E-03,1.07E-02
37043,2.12E-03,1.06E-02
37044,2.26E-03,1.08E-02
37045,2.25E-03,1.07E-02
37046,2.33E-03,1.10E-02
37047,2.30E-03,1.09E-02
37048,2.38E-03,1.11E-02
37049,2.39E-03,1.10E-02
37050,2.38E-03,1.12E-02
37051,2.37E-03,1.12E-02
37052,2.35E-03,1.13E-02
37053,2.36E-03,1.13E-02
37054,2.34E-03,1.15E-02
37055,2.35E-03,1.14E-02
37056,2.42E-03,1.16E-02
37057,2.36E-03,1.15E-02
37058,2.25E-03,1.16E-02
37059,2.41E-03,1.16E-02
37060,2.02E-03,1.12E-02
37061,2.06E-03,1.15E-02
37062,2.79E-03,1.31E-02
37063,2.43E-03,1.28E-02
37064,2.86E-03,1.38E-02
37065,2.89E-03,1.35E-02
37066,2.82E-03,1.43E-02
37067,2.85E-03,1.40E-02
37068,2.70E-03,1.51E-02
37069,2.73E-03,1.47E-02
37070,2.58E-03,1.60E-02
37071,2.58E-03,1.56E-02
37072,2.51E-03,1.65E-02
37073,2.51E-03,1.63E-02
37074,2.49E-03,1.67E-02
37075,2.49E-03,1.66E-02
37076,2.56E-03,1.69E-02
37077,2.54E-03,1.68E-02
37078,2.62E-03,1.72E-02
37079,2.59E-03,1.71E-02
37080,2.67E-03,1.74E-02
37081,2.66E-03,1.73E-02
37082,2.70E-03,1.77E-02
37083,2.70E-03,1.76E-02
37084,2.66E-03,1.79E-02
37085,2.68E-03,1.78E-02
37086,2.62E-03,1.79E-02
37087,2.64E-03,1.79E-02
37088,2.56E-03,1.78E-02
37089,2.60E-03,1.79E-02
37090,2.53E-03,1.76E-02
37091,2.56E-03,1.77E-02
37092,2.49E-03,1.73E-02
37093,2.52E-03,1.74E-02
37094,2.46E-03,1.71E-02
37095,2.48E-03,1.72E-02
37096,2.46E-03,1.68E-02
37097,2.46E-03,1.69E-02
37098,2.45E-03,1.67E-02
37099,2.45E-03,1.68E-02
37100,2.44E-03,1.66E-02
37101,2.44E-03,1.66E-02
37102,2.47E-03,1.66E-02
37103,2.45E-03,1.66E-02
37104,2.46E-03,1.66E-02
37105,2.44E-03,1.66E-02
37106,2.47E-03,1.67E-02
37107,2.46E-03,1.66E-02
37108,2.49E-03,1.68E-02
37109,2.48E-03,1.67E-02
37110,2.51E-03,1.69E-02
37111,2.50E-03,1.69E-02
37112,2.53E-03,1.71E-02
37113,2.53E-03,1.70E-02
37114,2.55E-03,1.72E-02
37115,2.54E-03,1.71E-02
37116,2.56E-03,1.72E-02
37117,2.59E-03,1.72E-02
37118,2.57E-03,1.72E-02
37119,2.60E-03,1.72E-02
37120,2.54E-03,1.73E-02
37121,2.55E-03,1.72E-02
37122,2.50E-03,1.73E-02
37123,2.53E-03,1.73E-02
37124,2.47E-03,1.72E-02
37125,2.49E-03,1.73E-02
37126,2.51E-03,1.70E-02
37127,2.49E-03,1.71E-02
37128,2.54E-03,1.69E-02
37129,2.54E-03,1.69E-02
37130,2.49E-03,1.68E-02
37131,2.51E-03,1.68E-02
37132,2.44E-03,1.69E-02
37133,2.47E-03,1.68E-02
37134,2.46E-03,1.69E-02
37135,2.43E-03,1.69E-02
37136,2.50E-03,1.67E-02
37137,2.50E-03,1.68E-02
37138,2.52E-03,1.65E-02
37139,2.52E-03,1.66E-02
37140,2.51E-03,1.66E-02
37141,2.51E-03,1.65E-02
37142,2.43E-03,1.67E-02
37143,2.47E-03,1.67E-02
37144,2.43E-03,1.69E-02
37145,2.43E-03,1.68E-02
37146,2.50E-03,1.69E-02
37147,2.46E-03,1.69E-02
37148,2.53E-03,1.68E-02
37149,2.51E-03,1.69E-02
37150,2.54E-03,1.66E-02
37151,2.55E-03,1.67E-02
37152,2.49E-03,1.68E-02
37153,2.53E-03,1.67E-02
37154,2.45E-03,1.70E-02
37155,2.48E-03,1.69E-02
37156,2.41E-03,1.70E-02
37157,2.41E-03,1.70E-02
37158,2.44E-03,1.71E-02
37159,2.42E-03,1.70E-02
37160,2.48E-03,1.71E-02
37161,2.47E-03,1.71E-02
37162,2.56E-03,1.71E-02
37163,2.51E-03,1.71E-02
37164,2.58E-03,1.72E-02
37165,2.57E-03,1.72E-02
37166,2.57E-03,1.73E-02
37167,2.61E-03,1.73E-02
37168,2.54E-03,1.74E-02
37169,2.57E-03,1.74E-02
37170,2.50E-03,1.74E-02
37171,2.50E-03,1.75E-02
37172,2.48E-03,1.73E-02
37173,2.49E-03,1.74E-02
37174,2.51E-03,1.72E-02
37175,2.50E-03,1.73E-02
37176,2.48E-03,1.71E-02
37177,2.50E-03,1.72E-02
37178,2.47E-03,1.71E-02
37179,2.47E-03,1.71E-02
37180,2.44E-03,1.71E-02
37181,2.46E-03,1.71E-02
37182,2.20E-03,1.10E-02
37183,2.46E-03,1.67E-02
37184,2.45E-03,1.70E-02
37185,2.47E-03,1.71E-02
37186,2.44E-03,1.71E-02
37187,2.45E-03,1.62E-02
37188,2.45E-03,1.65E-02
37189,2.48E-03,1.56E-02
37190,2.48E-03,1.59E-02
37191,2.48E-03,1.50E-02
37192,2.50E-03,1.53E-02
37193,2.48E-03,1.45E-02
37194,2.50E-03,1.48E-02
37195,2.48E-03,1.39E-02
37196,2.50E-03,1.42E-02
37197,2.48E-03,1.33E-02
37198,2.50E-03,1.36E-02
37199,2.48E-03,1.27E-02
37200,2.50E-03,1.30E-02
37201,2.49E-03,1.21E-02
37202,2.50E-03,1.24E-02
37203,2.49E-03,1.15E-02
37204,2.50E-03,1.18E-02
37205,2.49E-03,1.10E-02
37206,2.50E-03,1.13E-02
37207,2.49E-03,1.04E-02
37208,2.50E-03,1.07E-02
37209,2.49E-03,9.84E-03
37210,2.50E-03,1.01E-02
37211,2.49E-03,9.28E-03
37212,2.50E-03,9.56E-03
37213,2.49E-03,8.72E-03
37214,2.50E-03,9.00E-03
37215,2.49E-03,8.16E-03
37216,2.50E-03,8.44E-03
37217,2.49E-03,7.60E-03
37218,2.50E-03,7.88E-03
37219,2.49E-03,7.05E-03
37220,2.50E-03,7.32E-03
37221,2.49E-03,6.49E-03
37222,2.50E-03,6.77E-03
37223,2.49E-03,5.94E-03
37224,2.50E-03,6.22E-03
37225,2.49E-03,5.39E-03
37226,2.50E-03,5.66E-03
37227,2.49E-03,4.83E-03
37228,2.50E-03,5.11E-03
37229,2.49E-03,4.28E-03
37230,2.50E-03,4.56E-03
37231,2.49E-03,3.73E-03
37232,2.50E-03,4.01E-03
37233,2.49E-03,3.18E-03
37234,2.50E-03,3.46E-03
37235,2.50E-03,2.64E-03
37236,2.50E-03,2.91E-03
37237,2.50E-03,2.10E-03
37238,2.50E-03,2.37E-03
37239,2.51E-03,1.58E-03
37240,2.51E-03,1.84E-03
37241,2.54E-03,1.08E-03
37242,2.54E-03,1.32E-03
37243,2.59E-03,6.87E-04
37244,2.59E-03,8.59E-04
37245,2.71E-03,6.62E-04
37246,2.66E-03,6.09E-04
37247,2.78E-03,1.03E-03
37248,2.76E-03,8.19E-04
37249,2.79E-03,1.83E-03
37250,2.77E-03,1.80E-03
37251,2.81E-03,1.52E-03
37252,2.79E-03,1.27E-03
37253,2.76E-03,1.91E-03
37254,2.80E-03,1.86E-03
37255,2.67E-03,2.00E-03
37256,2.71E-03,1.95E-03
37257,2.59E-03,2.07E-03
37258,2.62E-03,2.03E-03
37259,2.56E-03,2.11E-03
37260,2.54E-03,2.09E-03
37261,2.56E-03,2.14E-03
37262,2.56E-03,2.13E-03
37263,2.54E-03,2.17E-03
37264,2.55E-03,2.15E-03
37265,2.49E-03,2.19E-03
37266,2.53E-03,2.18E-03
37267,2.45E-03,2.23E-03
37268,2.46E-03,2.21E-03
37269,2.42E-03,2.27E-03
37270,2.43E-03,2.25E-03
37271,2.37E-03,2.30E-03
37272,2.38E-03,2.29E-03
37273,2.35E-03,2.30E-03
37274,2.33E-03,2.30E-03
37275,2.42E-03,2.29E-03
37276,2.39E-03,2.30E-03
37277,2.46E-03,2.27E-03
37278,2.43E-03,2.28E-03
37279,2.47E-03,2.28E-03
37280,2.47E-03,2.27E-03
37281,2.42E-03,2.31E-03
37282,2.46E-03,2.29E-03
37283,2.40E-03,2.36E-03
37284,2.41E-03,2.34E-03
37285,2.36E-03,2.39E-03
37286,2.39E-03,2.38E-03
37287,2.42E-03,2.39E-03
37288,2.37E-03,2.39E-03
37289,2.46E-03,2.39E-03
37290,2.43E-03,2.39E-03
37291,2.52E-03,2.39E-03
37292,2.49E-03,2.39E-03
37293,2.53E-03,2.39E-03
37294,2.52E-03,2.39E-03
37295,2.47E-03,2.40E-03
37296,2.50E-03,2.39E-03
37297,2.43E-03,2.44E-03
37298,2.44E-03,2.42E-03
37299,2.38E-03,2.48E-03
37300,2.39E-03,2.46E-03
37301,2.37E-03,2.49E-03
37302,2.35E-03,2.49E-03
37303,2.42E-03,2.48E-03
37304,2.41E-03,2.49E-03
37305,2.47E-03,2.46E-03
37306,2.43E-03,2.46E-03
37307,2.51E-03,2.45E-03
37308,2.50E-03,2.45E-03
37309,2.56E-03,2.45E-03
37310,2.54E-03,2.45E-03
37311,2.53E-03,2.46E-03
37312,2.56E-03,2.46E-03
37313,2.47E-03,2.47E-03
37314,2.50E-03,2.47E-03
37315,2.45E-03,2.46E-03
37316,2.46E-03,2.47E-03
37317,2.46E-03,2.44E-03
37318,2.46E-03,2.45E-03
37319,2.45E-03,2.41E-03
37320,2.46E-03,2.43E-03
37321,2.47E-03,2.38E-03
37322,2.48E-03,2.40E-03
37323,2.52E-03,2.34E-03
37324,2.50E-03,2.36E-03
37325,2.53E-03,2.30E-03
37326,2.51E-03,2.32E-03
37327,2.46E-03,2.26E-03
37328,2.50E-03,2.27E-03
37329,2.43E-03,2.23E-03
37330,2.47E-03,2.24E-03
37331,2.41E-03,2.19E-03
37332,2.41E-03,2.21E-03
37333,2.42E-03,2.13E-03
37334,2.39E-03,2.16E-03
37335,2.39E-03,2.07E-03
37336,2.41E-03,2.10E-03
37337,2.35E-03,2.04E-03
37338,2.36E-03,2.05E-03
37339,2.28E-03,2.02E-03
37340,2.33E-03,2.03E-03
37341,2.33E-03,1.99E-03
37342,2.32E-03,2.01E-03
37343,2.38E-03,1.93E-03
37344,2.37E-03,1.96E-03
37345,2.42E-03,1.86E-03
37346,2.41E-03,1.90E-03
37347,2.47E-03,1.81E-03
37348,2.47E-03,1.84E-03
37349,2.42E-03,1.77E-03
37350,2.46E-03,1.79E-03
37351,2.37E-03,1.75E-03
37352,2.40E-03,1.76E-03
37353,2.36E-03,1.72E-03
37354,2.36E-03,1.73E-03
37355,2.41E-03,1.67E-03
37356,2.39E-03,1.70E-03
37357,2.42E-03,1.60E-03
37358,2.42E-03,1.64E-03
37359,2.47E-03,1.48E-03
37360,2.43E-03,1.54E-03
37361,2.49E-03,1.37E-03
37362,2.47E-03,1.42E-03
37363,2.45E-03,1.31E-03
37364,2.48E-03,1.34E-03
37365,2.42E-03,1.24E-03
37366,2.42E-03,1.28E-03
37367,2.45E-03,1.12E-03
37368,2.41E-03,1.18E-03
37369,2.61E-03,9.92E-04
37370,2.51E-03,1.05E-03
37371,2.69E-03,9.37E-04
37372,1.79E-03,8.38E-04
37373,2.15E-03,1.02E-02
37374,2.07E-03,1.03E-02
37375,1.91E-03,7.81E-04
37376,3.26E-03,1.11E-03
37377,2.61E-03,9.66E-04
37378,2.29E-03,1.07E-02
37379,2.46E-03,1.05E-02
37380,2.45E-03,1.72E-02
37381,2.77E-03,1.77E-03
37382,3.20E-03,1.48E-03
37383,3.59E-03,1.27E-03
37384,3.02E-03,1.94E-03
37385,3.06E-03,1.70E-03
37386,2.98E-03,2.42E-03
37387,2.97E-03,2.17E-03
37388,3.03E-03,2.98E-03
37389,3.01E-03,2.69E-03
37390,2.90E-03,3.55E-03
37391,2.99E-03,3.27E-03
37392,2.76E-03,4.10E-03
37393,2.84E-03,3.83E-03
37394,2.66E-03,4.60E-03
37395,2.69E-03,4.36E-03
37396,2.60E-03,5.06E-03
37397,2.61E-03,4.84E-03
37398,2.54E-03,5.50E-03
37399,2.54E-03,5.28E-03
37400,2.49E-03,5.91E-03
37401,2.51E-03,5.70E-03
37402,2.46E-03,6.30E-03
37403,2.49E-03,6.10E-03
37404,2.41E-03,6.67E-03
37405,2.43E-03,6.49E-03
37406,2.42E-03,7.04E-03
37407,2.41E-03,6.86E-03
37408,2.42E-03,7.39E-03
37409,2.40E-03,7.21E-03
37410,2.45E-03,7.74E-03
37411,2.43E-03,7.56E-03
37412,2.50E-03,8.08E-03
37413,2.49E-03,7.91E-03
37414,2.54E-03,8.41E-03
37415,2.51E-03,8.24E-03
37416,2.56E-03,8.73E-03
37417,2.53E-03,8.57E-03
37418,2.54E-03,9.03E-03
37419,2.54E-03,8.88E-03
37420,2.52E-03,9.31E-03
37421,2.53E-03,9.17E-03
37422,2.48E-03,9.56E-03
37423,2.48E-03,9.44E-03
37424,2.44E-03,9.80E-03
37425,2.47E-03,9.68E-03
37426,2.35E-03,1.00E-02
37427,2.40E-03,9.91E-03
37428,2.28E-03,1.01E-02
37429,2.23E-03,1.06E-02
37430,2.07E-03,1.03E-02
37431,2.10E-03,1.04E-02
37432,2.18E-03,1.05E-02
37433,2.21E-03,1.06E-02
37434,2.30E-03,1.08E-02
37435,2.29E-03,1.07E-02
37436,2.38E-03,1.09E-02
37437,2.34E-03,1.08E-02
37438,2.41E-03,1.10E-02
37439,2.41E-03,1.10E-02
37440,2.39E-03,1.11E-02
37441,2.41E-03,1.11E-02
37442,2.37E-03,1.12E-02
37443,2.39E-03,1.11E-02
37444,2.35E-03,1.13E-02
37445,2.37E-03,1.12E-02
37446,2.37E-03,1.13E-02
37447,2.37E-03,1.13E-02
37448,2.29E-03,1.12E-02
37449,2.35E-03,1.12E-02
37450,2.24E-03,1.10E-02
37451,2.42E-03,1.09E-02
37452,2.40E-03,1.22E-02
37453,2.35E-03,1.15E-02
37454,2.70E-03,1.36E-02
37455,2.49E-03,1.29E-02
37456,2.72E-03,1.47E-02
37457,2.71E-03,1.41E-02
37458,2.67E-03,1.55E-02
37459,2.70E-03,1.51E-02
37460,2.60E-03,1.62E-02
37461,2.63E-03,1.59E-02
37462,2.55E-03,1.65E-02
37463,2.55E-03,1.64E-02
37464,2.51E-03,1.66E-02
37465,2.53E-03,1.66E-02
37466,2.49E-03,1.68E-02
37467,2.50E-03,1.66E-02
37468,2.54E-03,1.73E-02
37469,2.54E-03,1.70E-02
37470,2.59E-03,1.79E-02
37471,2.58E-03,1.76E-02
37472,2.62E-03,1.84E-02
37473,2.62E-03,1.82E-02
37474,2.66E-03,1.88E-02
37475,2.63E-03,1.87E-02
37476,2.63E-03,1.89E-02
37477,2.63E-03,1.89E-02
37478,2.58E-03,1.88E-02
37479,2.60E-03,1.89E-02
37480,2.54E-03,1.84E-02
37481,2.57E-03,1.86E-02
37482,2.52E-03,1.80E-02
37483,2.53E-03,1.82E-02
37484,2.49E-03,1.76E-02
37485,2.50E-03,1.78E-02
37486,2.47E-03,1.73E-02
37487,2.49E-03,1.74E-02
37488,2.46E-03,1.70E-02
37489,2.47E-03,1.71E-02
37490,2.45E-03,1.68E-02
37491,2.47E-03,1.69E-02
37492,2.45E-03,1.66E-02
37493,2.46E-03,1.67E-02
37494,2.46E-03,1.66E-02
37495,2.47E-03,1.66E-02
37496,2.46E-03,1.66E-02
37497,2.46E-03,1.66E-02
37498,2.48E-03,1.68E-02
37499,2.47E-03,1.67E-02
37500,2.49E-03,1.70E-02
37501,2.50E-03,1.69E-02
37502,2.51E-03,1.72E-02
37503,2.50E-03,1.71E-02
37504,2.54E-03,1.75E-02
37505,2.53E-03,1.73E-02
37506,2.54E-03,1.77E-02
37507,2.56E-03,1.76E-02
37508,2.56E-03,1.78E-02
37509,2.56E-03,1.77E-02
37510,2.57E-03,1.78E-02
37511,2.57E-03,1.78E-02
37512,2.53E-03,1.77E-02
37513,2.53E-03,1.78E-02
37514,2.48E-03,1.76E-02
37515,2.51E-03,1.77E-02
37516,2.48E-03,1.75E-02
37517,2.48E-03,1.76E-02
37518,2.51E-03,1.73E-02
37519,2.49E-03,1.74E-02
37520,2.55E-03,1.72E-02
37521,2.53E-03,1.72E-02
37522,2.50E-03,1.70E-02
37523,2.50E-03,1.71E-02
37524,2.45E-03,1.70E-02
37525,2.47E-03,1.70E-02
37526,2.47E-03,1.70E-02
37527,2.45E-03,1.70E-02
37528,2.52E-03,1.69E-02
37529,2.49E-03,1.70E-02
37530,2.53E-03,1.68E-02
37531,2.53E-03,1.68E-02
37532,2.48E-03,1.68E-02
37533,2.51E-03,1.68E-02
37534,2.46E-03,1.68E-02
37535,2.48E-03,1.68E-02
37536,2.47E-03,1.69E-02
37537,2.47E-03,1.68E-02
37538,2.51E-03,1.71E-02
37539,2.49E-03,1.70E-02
37540,2.52E-03,1.72E-02
37541,2.53E-03,1.72E-02
37542,2.52E-03,1.71E-02
37543,2.54E-03,1.71E-02
37544,2.49E-03,1.72E-02
37545,2.51E-03,1.72E-02
37546,2.46E-03,1.71E-02
37547,2.48E-03,1.72E-02
37548,2.43E-03,1.69E-02
37549,2.45E-03,1.70E-02
37550,2.46E-03,1.70E-02
37551,2.45E-03,1.69E-02
37552,2.49E-03,1.72E-02
37553,2.49E-03,1.71E-02
37554,2.54E-03,1.75E-02
37555,2.53E-03,1.74E-02
37556,2.58E-03,1.78E-02
37557,2.57E-03,1.77E-02
37558,2.56E-03,1.79E-02
37559,2.59E-03,1.79E-02
37560,2.51E-03,1.79E-02
37561,2.54E-03,1.79E-02
37562,2.48E-03,1.78E-02
37563,2.48E-03,1.79E-02
37564,2.49E-03,1.76E-02
37565,2.49E-03,1.77E-02
37566,2.51E-03,1.75E-02
37567,2.50E-03,1.75E-02
37568,2.50E-03,1.74E-02
37569,2.50E-03,1.74E-02
37570,2.48E-03,1.73E-02
37571,2.50E-03,1.73E-02
37572,2.44E-03,1.72E-02
37573,2.47E-03,1.73E-02
37574,2.46E-03,1.73E-02
37575,2.46E-03,1.73E-02
37576,2.55E-03,8.01E-04
37577,2.56E-03,1.04E-02
37578,2.48E-03,1.73E-02
37579,2.48E-03,1.72E-02
37580,2.47E-03,1.67E-02
37581,2.47E-03,1.70E-02
37582,2.49E-03,1.62E-02
37583,2.48E-03,1.65E-02
37584,2.49E-03,1.56E-02
37585,2.50E-03,1.59E-02
37586,2.49E-03,1.50E-02
37587,2.50E-03,1.53E-02
37588,2.49E-03,1.44E-02
37589,2.50E-03,1.47E-02
37590,2.49E-03,1.39E-02
37591,2.50E-03,1.42E-02
37592,2.49E-03,1.33E-02
37593,2.50E-03,1.36E-02
37594,2.49E-03,1.27E-02
37595,2.50E-03,1.30E-02
37596,2.49E-03,1.21E-02
37597,2.50E-03,1.24E-02
37598,2.49E-03,1.15E-02
37599,2.50E-03,1.18E-02
37600,2.49E-03,1.10E-02
37601,2.50E-03,1.12E-02
37602,2.49E-03,1.04E-02
37603,2.50E-03,1.07E-02
37604,2.49E-03,9.83E-03
37605,2.50E-03,1.01E-02
37606,2.49E-03,9.27E-03
37607,2.50E-03,9.55E-03
37608,2.49E-03,8.71E-03
37609,2.50E-03,8.99E-03
37610,2.49E-03,8.15E-03
37611,2.50E-03,8.43E-03
37612,2.49E-03,7.59E-03
37613,2.50E-03,7.87E-03
37614,2.49E-03,7.04E-03
37615,2.50E-03,7.31E-03
37616,2.49E-03,6.48E-03
37617,2.50E-03,6.76E-03
37618,2.49E-03,5.93E-03
37619,2.50E-03,6.20E-03
37620,2.49E-03,5.37E-03
37621,2.50E-03,5.65E-03
37622,2.49E-03,4.82E-03
37623,2.50E-03,5.10E-03
37624,2.49E-03,4.27E-03
37625,2.50E-03,4.54E-03
37626,2.49E-03,3.72E-03
37627,2.50E-03,3.99E-03
37628,2.49E-03,3.17E-03
37629,2.50E-03,3.44E-03
37630,2.49E-03,2.62E-03
37631,2.50E-03,2.90E-03
37632,2.50E-03,2.08E-03
37633,2.50E-03,2.35E-03
37634,2.50E-03,1.56E-03
37635,2.50E-03,1.82E-03
37636,2.52E-03,1.06E-03
37637,2.53E-03,1.30E-03
37638,2.58E-03,6.79E-04
37639,2.58E-03,8.47E-04
37640,2.66E-03,6.63E-04
37641,2.63E-03,6.06E-04
37642,2.74E-03,1.04E-03
37643,2.72E-03,8.22E-04
37644,2.74E-03,1.52E-03
37645,2.75E-03,1.27E-03
37646,2.74E-03,1.76E-03
37647,2.72E-03,2.04E-03
37648,2.75E-03,2.11E-03
37649,2.72E-03,2.07E-03
37650,2.71E-03,2.21E-03
37651,2.72E-03,2.16E-03
37652,2.62E-03,2.30E-03
37653,2.65E-03,2.25E-03
37654,2.54E-03,2.37E-03
37655,2.58E-03,2.33E-03
37656,2.53E-03,2.42E-03
37657,2.50E-03,2.39E-03
37658,2.56E-03,2.45E-03
37659,2.53E-03,2.44E-03
37660,2.54E-03,2.47E-03
37661,2.54E-03,2.46E-03
37662,2.50E-03,2.48E-03
37663,2.53E-03,2.48E-03
37664,2.45E-03,2.48E-03
37665,2.46E-03,2.48E-03
37666,2.44E-03,2.48E-03
37667,2.43E-03,2.48E-03
37668,2.39E-03,2.47E-03
37669,2.40E-03,2.47E-03
37670,2.38E-03,2.47E-03
37671,2.35E-03,2.47E-03
37672,2.45E-03,2.48E-03
37673,2.41E-03,2.47E-03
37674,2.50E-03,2.49E-03
37675,2.46E-03,2.48E-03
37676,2.48E-03,2.50E-03
37677,2.48E-03,2.49E-03
37678,2.44E-03,2.53E-03
37679,2.46E-03,2.51E-03
37680,2.42E-03,2.55E-03
37681,2.43E-03,2.54E-03
37682,2.38E-03,2.56E-03
37683,2.40E-03,2.55E-03
37684,2.44E-03,2.58E-03
37685,2.40E-03,2.57E-03
37686,2.47E-03,2.60E-03
37687,2.45E-03,2.59E-03
37688,2.50E-03,2.63E-03
37689,2.50E-03,2.61E-03
37690,2.54E-03,2.64E-03
37691,2.51E-03,2.63E-03
37692,2.48E-03,2.65E-03
37693,2.50E-03,2.65E-03
37694,2.44E-03,2.65E-03
37695,2.44E-03,2.65E-03
37696,2.39E-03,2.65E-03
37697,2.42E-03,2.65E-03
37698,2.41E-03,2.66E-03
37699,2.37E-03,2.66E-03
37700,2.43E-03,2.66E-03
37701,2.44E-03,2.66E-03
37702,2.48E-03,2.68E-03
37703,2.45E-03,2.67E-03
37704,2.53E-03,2.71E-03
37705,2.51E-03,2.70E-03
37706,2.54E-03,2.73E-03
37707,2.53E-03,2.72E-03
37708,2.49E-03,2.73E-03
37709,2.52E-03,2.73E-03
37710,2.46E-03,2.73E-03
37711,2.49E-03,2.73E-03
37712,2.45E-03,2.71E-03
37713,2.48E-03,2.72E-03
37714,2.46E-03,2.68E-03
37715,2.47E-03,2.70E-03
37716,2.46E-03,2.66E-03
37717,2.47E-03,2.67E-03
37718,2.48E-03,2.63E-03
37719,2.49E-03,2.64E-03
37720,2.51E-03,2.59E-03
37721,2.50E-03,2.61E-03
37722,2.53E-03,2.55E-03
37723,2.51E-03,2.57E-03
37724,2.49E-03,2.49E-03
37725,2.51E-03,2.52E-03
37726,2.44E-03,2.44E-03
37727,2.47E-03,2.47E-03
37728,2.42E-03,2.39E-03
37729,2.43E-03,2.42E-03
37730,2.44E-03,2.31E-03
37731,2.42E-03,2.35E-03
37732,2.41E-03,2.24E-03
37733,2.43E-03,2.27E-03
37734,2.37E-03,2.19E-03
37735,2.38E-03,2.21E-03
37736,2.33E-03,2.16E-03
37737,2.37E-03,2.18E-03
37738,2.38E-03,2.12E-03
37739,2.36E-03,2.14E-03
37740,2.42E-03,2.09E-03
37741,2.41E-03,2.10E-03
37742,2.44E-03,2.05E-03
37743,2.43E-03,2.07E-03
37744,2.48E-03,2.02E-03
37745,2.47E-03,2.04E-03
37746,2.45E-03,1.98E-03
37747,2.48E-03,2.00E-03
37748,2.40E-03,1.93E-03
37749,2.41E-03,1.96E-03
37750,2.38E-03,1.89E-03
37751,2.38E-03,1.91E-03
37752,2.42E-03,1.84E-03
37753,2.41E-03,1.86E-03
37754,2.44E-03,1.79E-03
37755,2.44E-03,1.82E-03
37756,2.48E-03,1.71E-03
37757,2.45E-03,1.75E-03
37758,2.47E-03,1.61E-03
37759,2.47E-03,1.66E-03
37760,2.46E-03,1.54E-03
37761,2.45E-03,1.58E-03
37762,2.44E-03,1.43E-03
37763,2.44E-03,1.49E-03
37764,2.47E-03,1.28E-03
37765,2.44E-03,1.36E-03
37766,2.59E-03,1.13E-03
37767,2.54E-03,1.20E-03
37768,2.45E-03,1.01E-03
37769,2.57E-03,1.06E-03
37770,2.21E-03,8.90E-04
37771,2.28E-03,9.63E-04
37772,2.77E-03,7.15E-04
37773,2.41E-03,7.79E-04
37774,2.13E-03,9.92E-03
37775,2.49E-03,1.74E-02
37776,2.71E-03,2.01E-03
37777,2.90E-03,9.20E-04
37778,2.86E-03,1.27E-03
37779,2.82E-03,1.10E-03
37780,2.93E-03,1.64E-03
37781,2.92E-03,1.44E-03
37782,2.81E-03,2.09E-03
37783,2.87E-03,1.87E-03
37784,2.80E-03,2.55E-03
37785,2.79E-03,2.31E-03
37786,2.75E-03,3.06E-03
37787,2.75E-03,2.80E-03
37788,2.68E-03,3.59E-03
37789,2.72E-03,3.33E-03
37790,2.63E-03,4.11E-03
37791,2.64E-03,3.86E-03
37792,2.57E-03,4.59E-03
37793,2.59E-03,4.35E-03
37794,2.53E-03,5.03E-03
37795,2.54E-03,4.81E-03
37796,2.52E-03,5.46E-03
37797,2.51E-03,5.25E-03
37798,2.47E-03,5.86E-03
37799,2.49E-03,5.66E-03
37800,2.44E-03,6.25E-03
37801,2.48E-03,6.06E-03
37802,2.44E-03,6.63E-03
37803,2.43E-03,6.45E-03
37804,2.43E-03,7.00E-03
37805,2.42E-03,6.82E-03
37806,2.46E-03,7.35E-03
37807,2.43E-03,7.18E-03
37808,2.47E-03,7.71E-03
37809,2.45E-03,7.53E-03
37810,2.50E-03,8.05E-03
37811,2.49E-03,7.88E-03
37812,2.52E-03,8.38E-03
37813,2.51E-03,8.21E-03
37814,2.53E-03,8.69E-03
37815,2.51E-03,8.54E-03
37816,2.52E-03,8.99E-03
37817,2.51E-03,8.84E-03
37818,2.50E-03,9.26E-03
37819,2.50E-03,9.13E-03
37820,2.48E-03,9.52E-03
37821,2.48E-03,9.39E-03
37822,2.43E-03,9.75E-03
37823,2.45E-03,9.63E-03
37824,2.35E-03,9.95E-03
37825,2.41E-03,9.85E-03
37826,2.23E-03,1.01E-02
37827,2.28E-03,1.00E-02
37828,2.21E-03,1.03E-02
37829,2.19E-03,1.02E-02
37830,2.25E-03,1.04E-02
37831,2.22E-03,1.04E-02
37832,2.31E-03,1.06E-02
37833,2.31E-03,1.05E-02
37834,2.34E-03,1.07E-02
37835,2.34E-03,1.06E-02
37836,2.39E-03,1.08E-02
37837,2.37E-03,1.08E-02
37838,2.42E-03,1.09E-02
37839,2.42E-03,1.09E-02
37840,2.41E-03,1.10E-02
37841,2.42E-03,1.10E-02
37842,2.40E-03,1.10E-02
37843,2.41E-03,1.10E-02
37844,2.40E-03,1.11E-02
37845,2.39E-03,1.11E-02
37846,2.35E-03,1.10E-02
37847,2.37E-03,1.10E-02
37848,2.33E-03,1.08E-02
37849,2.34E-03,1.09E-02
37850,2.39E-03,1.03E-02
37851,2.33E-03,1.06E-02
37852,2.14E-03,9.73E-03
37853,2.67E-03,9.99E-03
37854,1.86E-03,9.45E-03
37855,2.38E-03,1.01E-02
37856,2.47E-03,1.05E-02
37857,2.39E-03,1.03E-02
37858,2.49E-03,1.17E-02
37859,2.46E-03,1.10E-02
37860,2.55E-03,1.38E-02
37861,2.54E-03,1.27E-02
37862,2.58E-03,1.60E-02
37863,2.58E-03,1.49E-02
37864,2.55E-03,1.76E-02
37865,2.57E-03,1.69E-02
37866,2.50E-03,1.78E-02
37867,2.53E-03,1.78E-02
37868,2.52E-03,1.69E-02
37869,2.51E-03,1.74E-02
37870,2.52E-03,1.61E-02
37871,2.53E-03,1.64E-02
37872,2.53E-03,1.64E-02
37873,2.52E-03,1.62E-02
37874,2.54E-03,1.75E-02
37875,2.54E-03,1.69E-02
37876,2.55E-03,1.88E-02
37877,2.56E-03,1.82E-02
37878,2.60E-03,1.98E-02
37879,2.58E-03,1.94E-02
37880,2.59E-03,2.02E-02
37881,2.58E-03,2.01E-02
37882,2.57E-03,2.02E-02
37883,2.58E-03,2.03E-02
37884,2.54E-03,1.97E-02
37885,2.56E-03,2.00E-02
37886,2.52E-03,1.91E-02
37887,2.53E-03,1.94E-02
37888,2.50E-03,1.85E-02
37889,2.50E-03,1.88E-02
37890,2.49E-03,1.79E-02
37891,2.50E-03,1.82E-02
37892,2.48E-03,1.74E-02
37893,2.49E-03,1.77E-02
37894,2.47E-03,1.71E-02
37895,2.49E-03,1.72E-02
37896,2.47E-03,1.68E-02
37897,2.48E-03,1.69E-02
37898,2.46E-03,1.66E-02
37899,2.48E-03,1.67E-02
37900,2.46E-03,1.65E-02
37901,2.48E-03,1.65E-02
37902,2.48E-03,1.66E-02
37903,2.49E-03,1.66E-02
37904,2.49E-03,1.69E-02
37905,2.50E-03,1.67E-02
37906,2.50E-03,1.71E-02
37907,2.50E-03,1.70E-02
37908,2.51E-03,1.75E-02
37909,2.50E-03,1.73E-02
37910,2.53E-03,1.78E-02
37911,2.51E-03,1.76E-02
37912,2.54E-03,1.82E-02
37913,2.54E-03,1.80E-02
37914,2.55E-03,1.85E-02
37915,2.53E-03,1.83E-02
37916,2.54E-03,1.85E-02
37917,2.55E-03,1.85E-02
37918,2.51E-03,1.83E-02
37919,2.52E-03,1.84E-02
37920,2.47E-03,1.79E-02
37921,2.49E-03,1.81E-02
37922,2.49E-03,1.76E-02
37923,2.47E-03,1.77E-02
37924,2.52E-03,1.76E-02
37925,2.50E-03,1.76E-02
37926,2.53E-03,1.76E-02
37927,2.53E-03,1.76E-02
37928,2.49E-03,1.74E-02
37929,2.50E-03,1.75E-02
37930,2.45E-03,1.70E-02
37931,2.46E-03,1.72E-02
37932,2.50E-03,1.68E-02
37933,2.47E-03,1.68E-02
37934,2.51E-03,1.71E-02
37935,2.49E-03,1.69E-02
37936,2.51E-03,1.74E-02
37937,2.51E-03,1.73E-02
37938,2.47E-03,1.72E-02
37939,2.50E-03,1.74E-02
37940,2.46E-03,1.68E-02
37941,2.47E-03,1.70E-02
37942,2.48E-03,1.66E-02
37943,2.47E-03,1.66E-02
37944,2.52E-03,1.69E-02
37945,2.51E-03,1.67E-02
37946,2.52E-03,1.77E-02
37947,2.52E-03,1.73E-02
37948,2.50E-03,1.82E-02
37949,2.54E-03,1.80E-02
37950,2.48E-03,1.78E-02
37951,2.47E-03,1.81E-02
37952,2.44E-03,1.69E-02
37953,2.47E-03,1.73E-02
37954,2.47E-03,1.64E-02
37955,2.45E-03,1.66E-02
37956,2.49E-03,1.66E-02
37957,2.47E-03,1.64E-02
37958,2.50E-03,1.73E-02
37959,2.52E-03,1.69E-02
37960,2.52E-03,1.81E-02
37961,2.53E-03,1.77E-02
37962,2.54E-03,1.86E-02
37963,2.54E-03,1.84E-02
37964,2.54E-03,1.87E-02
37965,2.55E-03,1.87E-02
37966,2.49E-03,1.84E-02
37967,2.51E-03,1.86E-02
37968,2.49E-03,1.81E-02
37969,2.49E-03,1.83E-02
37970,2.49E-03,1.79E-02
37971,2.49E-03,1.80E-02
37972,2.50E-03,1.77E-02
37973,2.50E-03,1.78E-02
37974,2.49E-03,1.76E-02
37975,2.50E-03,1.77E-02
37976,2.47E-03,1.74E-02
37977,2.49E-03,1.75E-02
37978,2.46E-03,1.73E-02
37979,2.48E-03,1.74E-02
37980,2.46E-03,1.73E-02
37981,2.48E-03,1.73E-02
37982,2.49E-03,1.72E-02
37983,2.50E-03,1.74E-02
37984,2.49E-03,1.75E-02
37985,2.49E-03,1.74E-02
37986,2.49E-03,1.67E-02
37987,2.50E-03,1.70E-02
37988,2.49E-03,1.62E-02
37989,2.50E-03,1.64E-02
37990,2.49E-03,1.56E-02
37991,2.50E-03,1.59E-02
37992,2.49E-03,1.50E-02
37993,2.50E-03,1.53E-02
37994,2.49E-03,1.44E-02
37995,2.49E-03,1.47E-02
37996,2.49E-03,1.38E-02
37997,2.49E-03,1.41E-02
37998,2.49E-03,1.33E-02
37999,2.49E-03,1.36E-02
38000,2.49E-03,1.27E-02
38001,2.49E-03,1.30E-02
38002,2.49E-03,1.21E-02
38003,2.49E-03,1.24E-02
38004,2.49E-03,1.15E-02
38005,2.49E-03,1.18E-02
38006,2.49E-03,1.10E-02
38007,2.49E-03,1.12E-02
38008,2.49E-03,1.04E-02
38009,2.49E-03,1.07E-02
38010,2.49E-03,9.82E-03
38011,2.49E-03,1.01E-02
38012,2.49E-03,9.26E-03
38013,2.49E-03,9.54E-03
38014,2.49E-03,8.70E-03
38015,2.49E-03,8.98E-03
38016,2.49E-03,8.14E-03
38017,2.49E-03,8.42E-03
38018,2.49E-03,7.58E-03
38019,2.49E-03,7.86E-03
38020,2.49E-03,7.03E-03
38021,2.49E-03,7.30E-03
38022,2.49E-03,6.47E-03
38023,2.49E-03,6.75E-03
38024,2.49E-03,5.92E-03
38025,2.49E-03,6.19E-03
38026,2.49E-03,5.36E-03
38027,2.49E-03,5.64E-03
38028,2.49E-03,4.81E-03
38029,2.50E-03,5.08E-03
38030,2.49E-03,4.25E-03
38031,2.50E-03,4.53E-03
38032,2.49E-03,3.70E-03
38033,2.50E-03,3.98E-03
38034,2.49E-03,3.15E-03
38035,2.50E-03,3.43E-03
38036,2.49E-03,2.61E-03
38037,2.50E-03,2.88E-03
38038,2.50E-03,2.07E-03
38039,2.50E-03,2.33E-03
38040,2.50E-03,1.54E-03
38041,2.50E-03,1.80E-03
38042,2.50E-03,1.05E-03
38043,2.50E-03,1.29E-03
38044,2.54E-03,6.69E-04
38045,2.55E-03,8.32E-04
38046,2.59E-03,6.65E-04
38047,2.59E-03,6.02E-04
38048,2.66E-03,1.04E-03
38049,2.66E-03,8.28E-04
38050,2.69E-03,1.52E-03
38051,2.71E-03,1.28E-03
38052,2.68E-03,2.31E-03
38053,2.70E-03,2.25E-03
38054,2.71E-03,1.99E-03
38055,2.72E-03,1.76E-03
38056,2.68E-03,2.43E-03
38057,2.67E-03,2.37E-03
38058,2.63E-03,2.53E-03
38059,2.65E-03,2.48E-03
38060,2.57E-03,2.61E-03
38061,2.58E-03,2.57E-03
38062,2.50E-03,2.67E-03
38063,2.53E-03,2.64E-03
38064,2.51E-03,2.73E-03
38065,2.50E-03,2.70E-03
38066,2.53E-03,2.78E-03
38067,2.51E-03,2.76E-03
38068,2.53E-03,2.81E-03
38069,2.54E-03,2.80E-03
38070,2.49E-03,2.80E-03
38071,2.51E-03,2.81E-03
38072,2.47E-03,2.75E-03
38073,2.47E-03,2.78E-03
38074,2.44E-03,2.67E-03
38075,2.43E-03,2.71E-03
38076,2.41E-03,2.60E-03
38077,2.41E-03,2.63E-03
38078,2.42E-03,2.60E-03
38079,2.39E-03,2.59E-03
38080,2.47E-03,2.64E-03
38081,2.44E-03,2.61E-03
38082,2.49E-03,2.71E-03
38083,2.48E-03,2.68E-03
38084,2.49E-03,2.76E-03
38085,2.50E-03,2.74E-03
38086,2.45E-03,2.75E-03
38087,2.46E-03,2.76E-03
38088,2.42E-03,2.71E-03
38089,2.44E-03,2.73E-03
38090,2.43E-03,2.70E-03
38091,2.43E-03,2.70E-03
38092,2.45E-03,2.73E-03
38093,2.42E-03,2.71E-03
38094,2.48E-03,2.81E-03
38095,2.47E-03,2.77E-03
38096,2.51E-03,2.88E-03
38097,2.51E-03,2.85E-03
38098,2.53E-03,2.93E-03
38099,2.52E-03,2.91E-03
38100,2.48E-03,2.92E-03
38101,2.49E-03,2.93E-03
38102,2.46E-03,2.86E-03
38103,2.44E-03,2.90E-03
38104,2.42E-03,2.79E-03
38105,2.43E-03,2.82E-03
38106,2.44E-03,2.77E-03
38107,2.41E-03,2.77E-03
38108,2.47E-03,2.83E-03
38109,2.45E-03,2.79E-03
38110,2.50E-03,2.92E-03
38111,2.48E-03,2.87E-03
38112,2.52E-03,3.00E-03
38113,2.51E-03,2.96E-03
38114,2.52E-03,3.03E-03
38115,2.52E-03,3.02E-03
38116,2.49E-03,3.02E-03
38117,2.50E-03,3.03E-03
38118,2.46E-03,2.98E-03
38119,2.48E-03,3.00E-03
38120,2.46E-03,2.95E-03
38121,2.48E-03,2.96E-03
38122,2.47E-03,2.92E-03
38123,2.48E-03,2.93E-03
38124,2.47E-03,2.90E-03
38125,2.48E-03,2.91E-03
38126,2.49E-03,2.88E-03
38127,2.49E-03,2.89E-03
38128,2.50E-03,2.86E-03
38129,2.50E-03,2.87E-03
38130,2.51E-03,2.82E-03
38131,2.51E-03,2.84E-03
38132,2.49E-03,2.75E-03
38133,2.50E-03,2.79E-03
38134,2.46E-03,2.65E-03
38135,2.46E-03,2.70E-03
38136,2.43E-03,2.56E-03
38137,2.44E-03,2.61E-03
38138,2.47E-03,2.49E-03
38139,2.44E-03,2.52E-03
38140,2.45E-03,2.42E-03
38141,2.47E-03,2.46E-03
38142,2.40E-03,2.34E-03
38143,2.42E-03,2.38E-03
38144,2.39E-03,2.26E-03
38145,2.40E-03,2.30E-03
38146,2.43E-03,2.22E-03
38147,2.41E-03,2.23E-03
38148,2.45E-03,2.23E-03
38149,2.43E-03,2.22E-03
38150,2.46E-03,2.26E-03
38151,2.46E-03,2.25E-03
38152,2.50E-03,2.25E-03
38153,2.49E-03,2.26E-03
38154,2.47E-03,2.20E-03
38155,2.49E-03,2.23E-03
38156,2.42E-03,2.13E-03
38157,2.44E-03,2.17E-03
38158,2.40E-03,2.04E-03
38159,2.41E-03,2.08E-03
38160,2.45E-03,1.97E-03
38161,2.44E-03,2.00E-03
38162,2.47E-03,1.95E-03
38163,2.48E-03,1.95E-03
38164,2.49E-03,1.96E-03
38165,2.48E-03,1.96E-03
38166,2.48E-03,1.92E-03
38167,2.47E-03,1.95E-03
38168,2.46E-03,1.81E-03
38169,2.46E-03,1.88E-03
38170,2.43E-03,1.65E-03
38171,2.44E-03,1.74E-03
38172,2.48E-03,1.49E-03
38173,2.45E-03,1.57E-03
38174,2.52E-03,1.32E-03
38175,2.51E-03,1.40E-03
38176,2.47E-03,1.16E-03
38177,2.51E-03,1.24E-03
38178,2.42E-03,9.79E-04
38179,2.42E-03,1.07E-03
38180,2.97E-03,7.47E-04
38181,2.57E-03,8.72E-04
38182,3.72E-03,6.24E-04
38183,2.57E-03,9.61E-03
38184,2.50E-03,1.76E-02
38185,2.66E-03,2.20E-03
38186,3.11E-03,5.13E-04
38187,2.67E-03,4.53E-04
38188,2.37E-03,4.20E-04
38189,2.38E-03,7.32E-04
38190,2.64E-03,7.63E-04
38191,3.07E-03,8.04E-04
38192,2.89E-03,1.10E-03
38193,2.62E-03,1.26E-03
38194,2.57E-03,1.43E-03
38195,2.62E-03,1.62E-03
38196,2.66E-03,1.82E-03
38197,2.64E-03,2.04E-03
38198,2.61E-03,2.24E-03
38199,2.60E-03,2.44E-03
38200,2.58E-03,2.66E-03
38201,2.52E-03,2.90E-03
38202,2.50E-03,3.14E-03
38203,2.50E-03,3.38E-03
38204,2.48E-03,3.64E-03
38205,2.47E-03,3.88E-03
38206,2.48E-03,4.12E-03
38207,2.48E-03,4.34E-03
38208,2.48E-03,4.57E-03
38209,2.48E-03,4.78E-03
38210,2.47E-03,5.00E-03
38211,2.47E-03,5.21E-03
38212,2.47E-03,5.42E-03
38213,2.47E-03,5.62E-03
38214,2.46E-03,5.82E-03
38215,2.46E-03,6.01E-03
38216,2.44E-03,6.21E-03
38217,2.44E-03,6.40E-03
38218,2.44E-03,6.59E-03
38219,2.44E-03,6.78E-03
38220,2.45E-03,6.96E-03
38221,2.46E-03,7.14E-03
38222,2.47E-03,7.32E-03
38223,2.48E-03,7.50E-03
38224,2.49E-03,7.68E-03
38225,2.50E-03,7.85E-03
38226,2.50E-03,8.02E-03
38227,2.50E-03,8.19E-03
38228,2.50E-03,8.35E-03
38229,2.50E-03,8.50E-03
38230,2.49E-03,8.66E-03
38231,2.49E-03,8.80E-03
38232,2.49E-03,8.95E-03
38233,2.48E-03,9.09E-03
38234,2.48E-03,9.22E-03
38235,2.47E-03,9.35E-03
38236,2.47E-03,9.47E-03
38237,2.44E-03,9.59E-03
38238,2.43E-03,9.70E-03
38239,2.41E-03,9.81E-03
38240,2.37E-03,9.91E-03
38241,2.32E-03,1.00E-02
38242,2.27E-03,1.01E-02
38243,2.26E-03,1.02E-02
38244,2.30E-03,1.02E-02
38245,2.54E-03,1.03E-02
38246,2.56E-03,1.04E-02
38247,2.39E-03,1.05E-02
38248,2.38E-03,1.05E-02
38249,2.37E-03,1.06E-02
38250,2.38E-03,1.07E-02
38251,2.41E-03,1.07E-02
38252,2.42E-03,1.08E-02
38253,2.42E-03,1.08E-02
38254,2.42E-03,1.08E-02
38255,2.41E-03,1.09E-02
38256,2.41E-03,1.09E-02
38257,2.41E-03,1.09E-02
38258,2.40E-03,1.09E-02
38259,2.39E-03,1.09E-02
38260,2.39E-03,1.08E-02
38261,2.37E-03,1.08E-02
38262,2.36E-03,1.07E-02
38263,2.36E-03,1.06E-02
38264,2.35E-03,1.04E-02
38265,2.36E-03,1.02E-02
38266,2.44E-03,9.91E-03
38267,2.40E-03,9.62E-03
38268,2.28E-03,9.38E-03
38269,2.30E-03,9.14E-03
38270,2.59E-03,9.10E-03
38271,1.91E-03,9.47E-03
38272,1.50E-03,9.77E-03
38273,1.85E-03,1.04E-02
38274,2.68E-03,1.03E-02
38275,2.47E-03,1.01E-02
38276,2.47E-03,9.97E-03
38277,2.50E-03,9.93E-03
38278,2.55E-03,1.01E-02
38279,2.58E-03,1.07E-02
38280,2.55E-03,1.20E-02
38281,2.51E-03,1.39E-02
38282,2.49E-03,1.61E-02
38283,2.47E-03,1.81E-02
38284,2.44E-03,1.98E-02
38285,2.43E-03,2.09E-02
38286,2.42E-03,2.10E-02
38287,2.42E-03,2.01E-02
38288,2.44E-03,1.86E-02
38289,2.48E-03,1.69E-02
38290,2.52E-03,1.56E-02
38291,2.55E-03,1.50E-02
38292,2.55E-03,1.50E-02
38293,2.56E-03,1.56E-02
38294,2.55E-03,1.65E-02
38295,2.54E-03,1.76E-02
38296,2.53E-03,1.89E-02
38297,2.53E-03,2.01E-02
38298,2.53E-03,2.10E-02
38299,2.54E-03,2.16E-02
38300,2.55E-03,2.20E-02
38301,2.53E-03,2.21E-02
38302,2.52E-03,2.20E-02
38303,2.51E-03,2.17E-02
38304,2.50E-03,2.12E-02
38305,2.50E-03,2.08E-02
38306,2.49E-03,2.02E-02
38307,2.49E-03,1.97E-02
38308,2.49E-03,1.93E-02
38309,2.49E-03,1.89E-02
38310,2.49E-03,1.85E-02
38311,2.49E-03,1.82E-02
38312,2.49E-03,1.79E-02
38313,2.49E-03,1.76E-02
38314,2.49E-03,1.73E-02
38315,2.49E-03,1.71E-02
38316,2.49E-03,1.69E-02
38317,2.49E-03,1.67E-02
38318,2.49E-03,1.66E-02
38319,2.49E-03,1.65E-02
38320,2.49E-03,1.64E-02
38321,2.49E-03,1.64E-02
38322,2.50E-03,1.65E-02
38323,2.50E-03,1.66E-02
38324,2.50E-03,1.67E-02
38325,2.51E-03,1.69E-02
38326,2.51E-03,1.71E-02
38327,2.51E-03,1.73E-02
38328,2.51E-03,1.75E-02
38329,2.52E-03,1.77E-02
38330,2.52E-03,1.79E-02
38331,2.52E-03,1.82E-02
38332,2.53E-03,1.85E-02
38333,2.53E-03,1.88E-02
38334,2.52E-03,1.91E-02
38335,2.52E-03,1.93E-02
38336,2.51E-03,1.94E-02
38337,2.50E-03,1.94E-02
38338,2.49E-03,1.92E-02
38339,2.48E-03,1.89E-02
38340,2.48E-03,1.85E-02
38341,2.48E-03,1.80E-02
38342,2.49E-03,1.77E-02
38343,2.51E-03,1.76E-02
38344,2.52E-03,1.77E-02
38345,2.52E-03,1.79E-02
38346,2.52E-03,1.82E-02
38347,2.50E-03,1.83E-02
38348,2.49E-03,1.82E-02
38349,2.47E-03,1.78E-02
38350,2.46E-03,1.74E-02
38351,2.45E-03,1.68E-02
38352,2.49E-03,1.63E-02
38353,2.54E-03,1.61E-02
38354,2.53E-03,1.66E-02
38355,2.51E-03,1.74E-02
38356,2.49E-03,1.81E-02
38357,2.48E-03,1.83E-02
38358,2.48E-03,1.82E-02
38359,2.46E-03,1.78E-02
38360,2.46E-03,1.72E-02
38361,2.47E-03,1.66E-02
38362,2.48E-03,1.62E-02
38363,2.51E-03,1.59E-02
38364,2.54E-03,1.59E-02
38365,2.56E-03,1.64E-02
38366,2.55E-03,1.72E-02
38367,2.52E-03,1.85E-02
38368,2.46E-03,1.96E-02
38369,2.44E-03,2.00E-02
38370,2.43E-03,1.96E-02
38371,2.45E-03,1.86E-02
38372,2.48E-03,1.74E-02
38373,2.48E-03,1.65E-02
38374,2.48E-03,1.59E-02
38375,2.49E-03,1.56E-02
38376,2.50E-03,1.56E-02
38377,2.52E-03,1.60E-02
38378,2.53E-03,1.66E-02
38379,2.51E-03,1.73E-02
38380,2.52E-03,1.81E-02
38381,2.52E-03,1.88E-02
38382,2.53E-03,1.94E-02
38383,2.52E-03,1.97E-02
38384,2.51E-03,1.99E-02
38385,2.49E-03,1.98E-02
38386,2.48E-03,1.94E-02
38387,2.48E-03,1.90E-02
38388,2.48E-03,1.85E-02
38389,2.49E-03,1.82E-02
38390,2.50E-03,1.81E-02
38391,2.50E-03,1.80E-02
38392,2.50E-03,1.81E-02
38393,2.50E-03,1.81E-02
38394,2.49E-03,1.80E-02
38395,2.49E-03,1.79E-02
38396,2.49E-03,1.77E-02
38397,2.48E-03,1.76E-02
38398,2.48E-03,1.74E-02
38399,2.48E-03,1.73E-02
38400,2.49E-03,1.72E-02
38401,2.49E-03,1.72E-02
38402,2.50E-03,1.73E-02
38403,2.51E-03,1.75E-02
38404,2.52E-03,1.78E-02
38405,2.50E-03,1.81E-02
38406,2.49E-03,1.77E-02
38407,2.50E-03,1.75E-02
38408,2.50E-03,1.72E-02
38409,2.50E-03,1.70E-02
38410,2.50E-03,1.67E-02
38411,2.50E-03,1.64E-02
38412,2.50E-03,1.62E-02
38413,2.49E-03,1.59E-02
38414,2.49E-03,1.56E-02
38415,2.49E-03,1.53E-02
38416,2.49E-03,1.50E-02
38417,2.49E-03,1.47E-02
38418,2.49E-03,1.44E-02
38419,2.49E-03,1.41E-02
38420,2.49E-03,1.38E-02
38421,2.49E-03,1.35E-02
38422,2.49E-03,1.32E-02
38423,2.49E-03,1.30E-02
38424,2.49E-03,1.27E-02
38425,2.49E-03,1.24E-02
38426,2.49E-03,1.21E-02
38427,2.49E-03,1.18E-02
38428,2.49E-03,1.15E-02
38429,2.49E-03,1.12E-02
38430,2.49E-03,1.09E-02
38431,2.49E-03,1.07E-02
38432,2.49E-03,1.04E-02
38433,2.49E-03,1.01E-02
38434,2.49E-03,9.81E-03
38435,2.49E-03,9.53E-03
38436,2.49E-03,9.25E-03
38437,2.49E-03,8.97E-03
38438,2.49E-03,8.69E-03
38439,2.49E-03,8.41E-03
38440,2.49E-03,8.13E-03
38441,2.49E-03,7.85E-03
38442,2.49E-03,7.57E-03
38443,2.49E-03,7.29E-03
38444,2.49E-03,7.02E-03
38445,2.49E-03,6.74E-03
38446,2.49E-03,6.46E-03
38447,2.49E-03,6.18E-03
38448,2.49E-03,5.90E-03
38449,2.49E-03,5.63E-03
38450,2.49E-03,5.35E-03
38451,2.49E-03,5.07E-03
38452,2.49E-03,4.79E-03
38453,2.49E-03,4.51E-03
38454,2.50E-03,4.24E-03
38455,2.50E-03,3.96E-03
38456,2.50E-03,3.68E-03
38457,2.50E-03,3.41E-03
38458,2.50E-03,3.13E-03
38459,2.50E-03,2.86E-03
38460,2.50E-03,2.59E-03
38461,2.50E-03,2.31E-03
38462,2.50E-03,2.05E-03
38463,2.50E-03,1.78E-03
38464,2.50E-03,1.52E-03
38465,2.51E-03,1.27E-03
38466,2.51E-03,1.03E-03
38467,2.53E-03,8.16E-04
38468,2.53E-03,6.57E-04
38469,2.55E-03,5.98E-04
38470,2.57E-03,6.66E-04
38471,2.62E-03,8.32E-04
38472,2.63E-03,1.05E-03
38473,2.67E-03,1.29E-03
38474,2.66E-03,1.53E-03
38475,2.69E-03,1.76E-03
38476,2.68E-03,1.98E-03
38477,2.63E-03,2.16E-03
38478,2.57E-03,2.31E-03
38479,2.62E-03,2.41E-03
38480,2.66E-03,2.50E-03
38481,2.63E-03,2.60E-03
38482,2.61E-03,2.70E-03
38483,2.60E-03,2.77E-03
38484,2.57E-03,2.82E-03
38485,2.55E-03,2.86E-03
38486,2.53E-03,2.89E-03
38487,2.51E-03,2.92E-03
38488,2.48E-03,2.95E-03
38489,2.49E-03,2.98E-03
38490,2.49E-03,3.01E-03
38491,2.50E-03,3.05E-03
38492,2.50E-03,3.09E-03
38493,2.50E-03,3.13E-03
38494,2.50E-03,3.16E-03
38495,2.49E-03,3.18E-03
38496,2.49E-03,3.18E-03
38497,2.46E-03,3.16E-03
38498,2.47E-03,3.11E-03
38499,2.46E-03,3.04E-03
38500,2.45E-03,2.94E-03
38501,2.45E-03,2.83E-03
38502,2.45E-03,2.74E-03
38503,2.46E-03,2.68E-03
38504,2.47E-03,2.66E-03
38505,2.48E-03,2.68E-03
38506,2.49E-03,2.73E-03
38507,2.49E-03,2.79E-03
38508,2.50E-03,2.87E-03
38509,2.49E-03,2.96E-03
38510,2.50E-03,3.03E-03
38511,2.47E-03,3.07E-03
38512,2.46E-03,3.05E-03
38513,2.45E-03,2.99E-03
38514,2.45E-03,2.90E-03
38515,2.44E-03,2.83E-03
38516,2.46E-03,2.79E-03
38517,2.47E-03,2.79E-03
38518,2.48E-03,2.82E-03
38519,2.49E-03,2.87E-03
38520,2.50E-03,2.93E-03
38521,2.51E-03,3.01E-03
38522,2.51E-03,3.09E-03
38523,2.51E-03,3.16E-03
38524,2.50E-03,3.23E-03
38525,2.49E-03,3.26E-03
38526,2.48E-03,3.26E-03
38527,2.47E-03,3.24E-03
38528,2.44E-03,3.18E-03
38529,2.46E-03,3.09E-03
38530,2.45E-03,2.98E-03
38531,2.47E-03,2.88E-03
38532,2.48E-03,2.81E-03
38533,2.50E-03,2.81E-03
38534,2.49E-03,2.87E-03
38535,2.51E-03,2.97E-03
38536,2.50E-03,3.08E-03
38537,2.51E-03,3.17E-03
38538,2.50E-03,3.26E-03
38539,2.51E-03,3.33E-03
38540,2.50E-03,3.36E-03
38541,2.49E-03,3.37E-03
38542,2.48E-03,3.35E-03
38543,2.48E-03,3.31E-03
38544,2.48E-03,3.27E-03
38545,2.48E-03,3.23E-03
38546,2.48E-03,3.20E-03
38547,2.48E-03,3.17E-03
38548,2.48E-03,3.16E-03
38549,2.49E-03,3.15E-03
38550,2.49E-03,3.14E-03
38551,2.49E-03,3.13E-03
38552,2.49E-03,3.13E-03
38553,2.50E-03,3.13E-03
38554,2.50E-03,3.13E-03
38555,2.50E-03,3.13E-03
38556,2.50E-03,3.13E-03
38557,2.49E-03,3.11E-03
38558,2.48E-03,3.09E-03
38559,2.47E-03,3.04E-03
38560,2.46E-03,2.96E-03
38561,2.45E-03,2.86E-03
38562,2.46E-03,2.76E-03
38563,2.47E-03,2.70E-03
38564,2.48E-03,2.68E-03
38565,2.49E-03,2.67E-03
38566,2.48E-03,2.66E-03
38567,2.46E-03,2.63E-03
38568,2.44E-03,2.57E-03
38569,2.43E-03,2.49E-03
38570,2.43E-03,2.39E-03
38571,2.45E-03,2.31E-03
38572,2.47E-03,2.27E-03
38573,2.49E-03,2.27E-03
38574,2.48E-03,2.31E-03
38575,2.49E-03,2.37E-03
38576,2.50E-03,2.43E-03
38577,2.48E-03,2.48E-03
38578,2.50E-03,2.51E-03
38579,2.49E-03,2.51E-03
38580,2.48E-03,2.49E-03
38581,2.47E-03,2.45E-03
38582,2.45E-03,2.40E-03
38583,2.44E-03,2.33E-03
38584,2.43E-03,2.25E-03
38585,2.42E-03,2.17E-03
38586,2.45E-03,2.09E-03
38587,2.49E-03,2.03E-03
38588,2.52E-03,2.02E-03
38589,2.52E-03,2.07E-03
38590,2.50E-03,2.16E-03
38591,2.49E-03,2.25E-03
38592,2.45E-03,2.32E-03
38593,2.46E-03,2.32E-03
38594,2.45E-03,2.25E-03
38595,2.45E-03,2.13E-03
38596,2.45E-03,1.99E-03
38597,2.46E-03,1.88E-03
38598,2.47E-03,1.79E-03
38599,2.47E-03,1.71E-03
38600,2.48E-03,1.63E-03
38601,2.49E-03,1.54E-03
38602,2.50E-03,1.43E-03
38603,2.49E-03,1.33E-03
38604,2.49E-03,1.22E-03
38605,2.53E-03,1.12E-03
38606,2.67E-03,1.03E-03
38607,2.96E-03,9.23E-04
38608,3.21E-03,8.01E-04
38609,3.24E-03,6.76E-04
38610,3.01E-03,5.23E-04
38611,2.64E-03,3.61E-04
38612,2.33E-03,2.22E-04
38613,2.03E-03,1.54E-04
38614,2.14E-03,4.50E-04
38615,2.12E-03,7.24E-04
38634,3.04E-03,7.29E-03
38635,2.25E-03,7.88E-03
38636,1.81E-03,7.93E-03
38637,1.66E-03,7.89E-03
38638,2.19E-03,7.86E-03
38639,1.83E-03,7.83E-03
38640,1.96E-03,7.83E-03
38641,2.84E-03,3.97E-03
38642,2.51E-03,4.17E-03
38643,2.65E-03,3.78E-03
38644,1.29E-03,4.42E-03
38645,2.02E-03,4.33E-03
38646,1.17E-03,4.49E-03
38647,1.26E-03,4.61E-03
38648,2.37E-03,6.79E-03
38649,2.65E-03,6.63E-03
38650,1.20E-03,7.01E-03
38651,1.79E-03,6.94E-03
38652,1.51E-03,7.08E-03
38653,9.92E-04,7.12E-03
38654,1.34E-03,7.13E-03
38655,2.23E-03,7.83E-03
38656,2.12E-03,7.82E-03
38657,1.68E-03,9.57E-03
38658,1.32E-03,9.61E-03
38659,1.60E-03,9.68E-03
38660,2.26E-03,7.84E-03
38661,2.01E-03,1.07E-02
38662,2.88E-03,1.05E-02
38663,3.04E-03,1.03E-02
38664,3.19E-03,7.93E-03
38665,2.98E-03,7.95E-03
38666,2.51E-03,7.91E-03
38667,1.40E-03,1.81E-03
38668,1.94E-03,1.71E-03
38669,2.05E-03,1.95E-03
38670,1.38E-03,1.99E-03
38671,1.24E-03,1.95E-03
38672,2.80E-03,8.01E-03
38673,2.72E-03,7.97E-03
38674,3.27E-03,7.99E-03
38675,1.74E-03,5.64E-03
38676,2.09E-03,5.51E-03
38677,3.10E-03,8.90E-03
38678,3.22E-03,8.81E-03
38679,1.40E-03,3.62E-03
38680,1.78E-03,3.67E-03
38681,2.06E-03,7.77E-03
38682,1.61E-03,7.76E-03
38683,2.09E-03,9.49E-03
38684,2.07E-03,9.45E-03
38685,1.82E-03,1.14E-02
38686,2.56E-03,1.13E-02
38687,2.20E-03,1.16E-02
38688,1.55E-03,1.15E-02
38689,1.57E-03,1.14E-02
38690,1.22E-03,3.43E-03
38691,1.94E-03,3.28E-03
38692,1.40E-03,5.80E-03
38693,2.94E-03,5.49E-03
38694,2.92E-03,5.35E-03
38695,2.74E-03,5.44E-03
38696,1.05E-03,6.15E-03
38697,1.88E-03,5.95E-03
38698,2.22E-03,5.80E-03
38699,2.32E-03,8.31E-03
38700,3.16E-03,8.30E-03
38701,2.41E-03,8.14E-03
38702,1.80E-03,8.19E-03
38703,1.55E-03,8.23E-03
38704,2.99E-03,7.73E-03
38705,2.82E-03,7.60E-03
38706,2.91E-03,9.05E-03
38707,2.52E-03,8.97E-03
38708,2.19E-03,8.89E-03
38709,1.56E-03,8.14E-03
38710,2.05E-03,8.12E-03
38711,2.95E-03,1.11E-02
38712,2.53E-03,1.14E-02
38713,1.97E-03,1.07E-02
38714,2.20E-03,1.09E-02
38715,3.85E-03,8.40E-03
38716,3.28E-03,8.26E-03
38717,3.97E-03,8.35E-03
38718,3.08E-03,9.78E-03
38719,2.81E-03,9.70E-03
38720,1.58E-03,1.10E-02
38721,3.68E-03,8.98E-03
38722,3.77E-03,8.88E-03
38723,3.00E-03,9.74E-03
38724,3.86E-03,9.78E-03
38725,3.34E-03,9.84E-03
38726,3.80E-03,1.03E-02
38727,3.46E-03,1.03E-02
38728,3.33E-03,1.03E-02
38729,3.18E-03,6.37E-03
38730,2.13E-03,5.98E-03
38731,2.05E-03,5.94E-03
38732,3.05E-03,8.69E-03
38733,2.99E-03,8.77E-03
38734,2.88E-03,8.63E-03
38735,1.62E-03,8.35E-03
38736,2.33E-03,8.32E-03
38737,1.83E-03,8.36E-03
38738,1.41E-03,8.38E-03
38739,1.29E-03,8.37E-03
38740,1.78E-03,2.13E-03
38741,1.88E-03,2.18E-03
38742,1.59E-03,3.44E-03
38743,1.48E-03,3.51E-03
38744,1.52E-03,3.62E-03
38745,1.67E-03,4.39E-03
38746,2.02E-03,4.17E-03
38747,1.60E-03,4.29E-03
38748,1.47E-03,3.37E-03
38749,1.82E-03,3.08E-03
38750,1.99E-03,3.22E-03
38751,1.30E-03,3.80E-03
38752,1.69E-03,3.91E-03
38753,2.90E-03,8.42E-03
38754,2.40E-03,8.51E-03
38755,1.83E-03,8.48E-03
38756,2.15E-03,8.40E-03
38757,2.63E-03,8.60E-03
38758,2.68E-03,8.67E-03
38759,2.78E-03,8.58E-03
38760,2.88E-03,8.50E-03
38761,3.09E-03,8.52E-03
38762,2.55E-03,8.58E-03
38763,2.58E-03,8.55E-03
38764,3.27E-03,8.44E-03
38765,1.78E-03,8.57E-03
38766,1.72E-03,8.50E-03
38767,1.87E-03,8.53E-03
38768,2.48E-03,9.57E-03
38769,1.89E-03,9.66E-03
38770,1.95E-03,9.52E-03
38771,1.92E-03,9.60E-03
38772,1.76E-03,9.54E-03
38773,1.37E-03,9.63E-03
38774,1.28E-03,9.46E-03
38775,9.66E-04,9.54E-03
38776,1.50E-03,9.46E-03
38777,1.28E-03,5.32E-03
38778,1.12E-03,5.43E-03
38779,1.22E-03,5.42E-03
38780,1.33E-03,9.94E-03
38781,1.47E-03,9.91E-03
38782,1.52E-03,9.88E-03
38783,1.59E-03,9.76E-03
38784,1.69E-03,9.83E-03
38785,1.75E-03,9.80E-03
38786,1.64E-03,8.27E-03
38787,1.95E-03,8.32E-03
38788,1.61E-03,8.29E-03
38789,1.65E-03,8.37E-03
38790,1.17E-03,8.37E-03
38791,1.56E-03,8.40E-03
38792,1.91E-03,9.35E-03
38793,1.83E-03,9.42E-03
38794,1.85E-03,9.39E-03
38795,3.78E-03,3.17E-03
38796,2.93E-03,3.03E-03
38797,3.68E-03,3.69E-03
38798,3.16E-03,3.47E-03
38799,1.64E-03,7.86E-03
38800,2.35E-03,7.89E-03
38801,2.17E-03,7.88E-03
38802,2.57E-03,8.01E-03
38803,2.49E-03,8.10E-03
38804,2.29E-03,8.14E-03
38805,2.15E-03,8.23E-03
38806,2.85E-03,8.35E-03
38807,2.14E-03,8.30E-03
38808,2.36E-03,1.14E-02
38809,3.87E-03,3.19E-03
38810,3.95E-03,3.40E-03
38811,2.61E-03,7.33E-03
38812,2.67E-03,7.14E-03
38813,2.31E-03,7.16E-03
38814,2.38E-03,7.31E-03
38815,2.52E-03,7.51E-03
38816,3.26E-03,1.02E-02
38817,3.27E-03,9.82E-03
38818,3.08E-03,1.01E-02
38819,2.79E-03,1.01E-02
38820,2.32E-03,4.45E-03
38821,3.11E-03,4.81E-03
38822,2.22E-03,4.68E-03
38823,2.46E-03,8.11E-03
38824,2.51E-03,8.12E-03
38825,2.75E-03,8.10E-03
38826,2.44E-03,8.51E-03
38827,2.14E-03,8.46E-03
38828,1.89E-03,8.32E-03
38829,1.84E-03,8.21E-03
38830,1.84E-03,8.26E-03
38831,1.76E-03,8.34E-03
38832,2.07E-03,8.37E-03
38833,2.06E-03,8.40E-03
38834,1.56E-03,8.28E-03
38835,2.47E-03,8.03E-03
38836,2.57E-03,8.04E-03
38837,2.49E-03,8.31E-03
38838,2.60E-03,8.30E-03
38839,2.76E-03,8.26E-03
38840,2.97E-03,7.02E-03
38841,1.93E-03,1.51E-03
38842,2.04E-03,1.38E-03
38843,1.95E-03,1.64E-03
38844,1.82E-03,1.81E-03
38845,2.11E-03,2.01E-03
38846,2.18E-03,2.21E-03
38847,2.47E-03,2.26E-03
38848,2.02E-03,2.47E-03
38849,1.96E-03,2.66E-03
38850,1.75E-03,2.83E-03
38851,1.96E-03,3.02E-03
38852,1.96E-03,2.93E-03
38853,2.14E-03,2.76E-03
38854,2.20E-03,2.53E-03
38855,2.43E-03,3.21E-03
38856,2.05E-03,3.43E-03
38857,2.38E-03,3.25E-03
38858,2.68E-03,3.05E-03
38859,2.29E-03,2.34E-03
38860,2.37E-03,2.60E-03
38861,2.39E-03,2.83E-03
38862,2.66E-03,1.59E-03
38863,2.41E-03,1.90E-03
38864,2.00E-03,3.65E-03
38865,2.20E-03,2.21E-03
38866,2.38E-03,2.43E-03
38867,2.21E-03,3.35E-03
38868,2.47E-03,3.16E-03
38869,2.61E-03,2.93E-03
38870,2.49E-03,2.68E-03
38871,2.40E-03,2.48E-03
38872,2.83E-03,3.28E-03
38873,2.40E-03,3.50E-03
38874,2.02E-03,3.65E-03
38875,1.98E-03,3.79E-03
38876,2.12E-03,3.86E-03
38877,2.41E-03,2.20E-03
38878,3.07E-03,1.52E-03
38879,2.83E-03,1.86E-03
38880,3.01E-03,1.48E-03
38881,2.95E-03,1.81E-03
38882,2.82E-03,2.17E-03
38883,2.70E-03,3.67E-03
38884,2.40E-03,3.84E-03
38885,2.23E-03,3.97E-03
38886,2.29E-03,4.05E-03
38887,2.95E-03,2.75E-03
38888,2.56E-03,2.48E-03
38889,2.39E-03,1.20E-03
38890,2.27E-03,1.32E-03
38891,2.39E-03,1.41E-03
38892,2.43E-03,1.69E-03
38893,2.50E-03,1.57E-03
38894,3.16E-03,1.46E-03
38895,3.04E-03,1.45E-03
38896,3.11E-03,1.43E-03
38897,3.84E-03,2.83E-03
38898,3.18E-03,3.90E-03
38899,2.56E-03,4.05E-03
38900,2.40E-03,4.16E-03
38901,2.40E-03,4.24E-03
38902,2.88E-03,2.47E-03
38903,2.92E-03,2.14E-03
38904,2.39E-03,1.54E-03
38905,2.44E-03,1.81E-03
38906,2.35E-03,1.95E-03
38907,2.45E-03,1.83E-03
38908,3.04E-03,1.79E-03
38909,3.12E-03,1.79E-03
38910,2.75E-03,1.79E-03
38911,2.46E-03,2.04E-03
38912,3.01E-03,2.46E-03
38913,2.77E-03,4.16E-03
38914,2.50E-03,4.27E-03
38915,2.41E-03,4.37E-03
38916,2.45E-03,4.45E-03
38917,3.70E-03,3.93E-03
38918,2.18E-03,1.64E-03
38919,2.67E-03,1.95E-03
38920,2.96E-03,2.11E-03
38921,1.87E-03,2.15E-03
38922,2.14E-03,2.14E-03
38923,3.78E-03,2.85E-03
38924,2.86E-03,2.12E-03
38925,2.88E-03,2.09E-03
38926,1.74E-03,1.74E-03
38927,1.76E-03,1.98E-03
38928,1.89E-03,1.90E-03
38929,2.20E-03,4.46E-03
38930,2.36E-03,4.51E-03
38931,2.42E-03,4.59E-03
38932,2.47E-03,4.66E-03
38933,3.11E-03,2.77E-03
38934,3.44E-03,3.69E-03
38935,2.79E-03,2.27E-03
38936,2.01E-03,2.35E-03
38937,2.95E-03,2.41E-03
38938,2.91E-03,2.20E-03
38939,2.61E-03,4.17E-03
38940,2.46E-03,2.17E-03
38941,2.71E-03,2.06E-03
38942,2.70E-03,2.34E-03
38943,2.84E-03,2.38E-03
38944,2.71E-03,2.42E-03
38945,2.58E-03,2.57E-03
38946,2.66E-03,2.50E-03
38947,2.79E-03,4.00E-03
38948,3.32E-03,3.54E-03
38949,3.21E-03,3.08E-03
38950,2.29E-03,4.38E-03
38951,1.98E-03,4.49E-03
38952,1.95E-03,4.60E-03
38953,2.07E-03,4.68E-03
38954,2.26E-03,4.74E-03
38955,2.37E-03,4.81E-03
38956,2.44E-03,4.88E-03
38957,2.34E-03,2.35E-03
38958,2.52E-03,2.51E-03
38959,2.76E-03,2.42E-03
38960,2.85E-03,2.72E-03
38961,2.20E-03,2.65E-03
38962,2.70E-03,2.67E-03
38963,2.33E-03,2.20E-03
38964,2.63E-03,2.55E-03
38965,2.43E-03,2.70E-03
38966,2.52E-03,2.53E-03
38967,2.49E-03,2.70E-03
38968,2.42E-03,2.90E-03
38969,2.02E-03,4.79E-03
38970,2.13E-03,4.87E-03
38971,2.25E-03,4.94E-03
38972,2.38E-03,5.01E-03
38973,2.45E-03,5.08E-03
38974,3.01E-03,3.39E-03
38975,3.00E-03,3.84E-03
38976,2.05E-03,4.71E-03
38977,2.14E-03,4.62E-03
38978,2.47E-03,4.26E-03
38979,2.86E-03,2.64E-03
38980,2.66E-03,2.72E-03
38981,2.48E-03,2.78E-03
38982,2.77E-03,3.00E-03
38983,2.65E-03,2.95E-03
38984,2.34E-03,2.92E-03
38985,2.50E-03,2.35E-03
38986,2.85E-03,2.77E-03
38987,2.50E-03,2.92E-03
38988,2.67E-03,2.92E-03
38989,2.80E-03,2.71E-03
38990,3.00E-03,2.94E-03
38991,2.47E-03,4.53E-03
38992,2.66E-03,4.14E-03
38993,2.74E-03,3.70E-03
38994,2.37E-03,5.14E-03
38995,2.44E-03,5.21E-03
38996,2.53E-03,5.28E-03
38997,2.33E-03,3.12E-03
38998,3.04E-03,2.87E-03
38999,2.71E-03,3.28E-03
39000,2.07E-03,5.07E-03
39001,2.04E-03,4.99E-03
39002,1.99E-03,4.92E-03
39003,2.22E-03,3.10E-03
39004,2.32E-03,3.17E-03
39005,2.07E-03,4.85E-03
39006,2.77E-03,3.15E-03
39007,2.47E-03,3.20E-03
39008,2.56E-03,2.52E-03
39009,3.09E-03,3.02E-03
39010,2.10E-03,3.29E-03
39011,2.12E-03,3.33E-03
39012,2.57E-03,2.89E-03
39013,1.81E-03,3.46E-03
39014,2.40E-03,5.33E-03
39015,2.70E-03,5.39E-03
39016,2.58E-03,5.48E-03
39017,2.60E-03,3.98E-03
39018,2.81E-03,4.38E-03
39019,2.10E-03,4.78E-03
39020,2.96E-03,3.09E-03
39021,2.68E-03,3.17E-03
39022,2.49E-03,3.57E-03
39023,2.04E-03,5.26E-03
39024,2.02E-03,5.19E-03
39025,1.98E-03,5.12E-03
39026,1.90E-03,5.06E-03
39027,2.70E-03,3.14E-03
39028,2.53E-03,2.69E-03
39029,2.15E-03,5.50E-03
39030,1.99E-03,5.44E-03
39031,1.96E-03,5.38E-03
39032,1.95E-03,5.32E-03
39033,2.23E-03,3.47E-03
39034,2.14E-03,3.40E-03
39035,2.22E-03,3.06E-03
39036,1.88E-03,3.40E-03
39037,2.70E-03,3.29E-03
39038,3.13E-03,3.26E-03
39039,1.92E-03,5.25E-03
39040,1.91E-03,5.01E-03
39041,1.61E-03,4.73E-03
39042,1.76E-03,4.56E-03
39043,2.42E-03,4.21E-03
39044,1.84E-03,5.63E-03
39045,2.74E-03,5.60E-03
39046,2.52E-03,5.68E-03
39047,1.94E-03,3.57E-03
39048,1.86E-03,3.45E-03
39049,2.21E-03,3.51E-03
39050,2.32E-03,3.85E-03
39051,1.98E-03,3.40E-03
39052,1.37E-03,3.54E-03
39053,1.74E-03,3.68E-03
39054,1.62E-03,5.80E-03
39055,1.71E-03,3.34E-03
39056,1.44E-03,5.74E-03
39057,2.51E-03,2.89E-03
39058,2.04E-03,3.74E-03
39059,1.83E-03,5.68E-03
39060,1.92E-03,5.62E-03
39061,1.91E-03,5.56E-03
39062,1.91E-03,5.50E-03
39063,2.32E-03,3.23E-03
39064,2.05E-03,3.68E-03
39065,2.06E-03,3.73E-03
39066,2.26E-03,5.85E-03
39067,2.43E-03,5.89E-03
39068,2.12E-03,4.42E-03
39069,1.55E-03,4.68E-03
39070,1.90E-03,4.92E-03
39071,1.90E-03,5.44E-03
39072,1.92E-03,5.19E-03
39073,1.73E-03,3.82E-03
39074,1.30E-03,3.59E-03
39075,2.68E-03,3.46E-03
39076,2.87E-03,3.45E-03
39077,1.89E-03,3.72E-03
39078,1.69E-03,3.90E-03
39079,2.41E-03,3.58E-03
39080,2.19E-03,4.09E-03
39081,2.27E-03,3.48E-03
39082,2.35E-03,3.95E-03
39083,1.81E-03,5.91E-03
39084,1.85E-03,3.61E-03
39085,2.02E-03,5.98E-03
39086,1.63E-03,3.66E-03
39087,1.92E-03,4.00E-03
39088,2.43E-03,3.08E-03
39089,1.83E-03,5.86E-03
39090,1.89E-03,5.80E-03
39091,1.88E-03,5.74E-03
39092,1.89E-03,5.69E-03
39093,2.41E-03,3.42E-03
39094,1.66E-03,4.09E-03
39095,2.27E-03,3.64E-03
39096,1.94E-03,3.67E-03
39097,1.96E-03,3.74E-03
39098,1.81E-03,3.79E-03
39099,1.70E-03,4.04E-03
39100,1.92E-03,5.37E-03
39101,1.93E-03,5.11E-03
39102,1.97E-03,4.83E-03
39103,2.10E-03,4.59E-03
39104,2.18E-03,6.05E-03
39105,2.31E-03,6.10E-03
39106,1.70E-03,3.97E-03
39107,1.53E-03,3.93E-03
39108,1.75E-03,3.84E-03
39109,1.42E-03,3.90E-03
39110,2.29E-03,4.18E-03
39111,2.19E-03,3.62E-03
39112,2.10E-03,4.30E-03
39113,2.11E-03,6.17E-03
39114,1.99E-03,6.11E-03
39115,1.89E-03,5.62E-03
39116,1.95E-03,4.20E-03
39117,1.79E-03,4.09E-03
39118,1.72E-03,3.95E-03
39119,1.93E-03,3.78E-03
39120,2.47E-03,3.26E-03
39121,1.91E-03,6.04E-03
39122,1.91E-03,5.98E-03
39123,2.57E-03,3.61E-03
39124,1.74E-03,4.46E-03
39125,1.63E-03,4.04E-03
39126,1.35E-03,4.15E-03
39127,1.57E-03,4.12E-03
39128,2.23E-03,6.23E-03
39129,2.32E-03,6.29E-03
39130,1.90E-03,4.76E-03
39131,1.96E-03,5.03E-03
39132,1.94E-03,5.30E-03
39133,1.67E-03,4.19E-03
39134,1.76E-03,3.99E-03
39135,1.70E-03,3.95E-03
39136,1.90E-03,3.88E-03
39137,1.85E-03,3.87E-03
39138,2.23E-03,6.35E-03
39139,2.00E-03,6.29E-03
39140,1.98E-03,4.49E-03
39141,1.86E-03,5.92E-03
39142,1.88E-03,5.87E-03
39143,1.90E-03,5.81E-03
39144,1.68E-03,4.25E-03
39145,1.94E-03,5.56E-03
39146,1.75E-03,4.31E-03
39147,1.98E-03,3.79E-03
39148,1.95E-03,3.96E-03
39149,1.88E-03,4.12E-03
39150,1.88E-03,4.26E-03
39151,1.93E-03,4.38E-03
39152,2.47E-03,3.45E-03
39153,1.97E-03,6.22E-03
39154,1.91E-03,6.15E-03
39155,1.88E-03,6.10E-03
39156,1.86E-03,6.04E-03
39157,2.60E-03,3.79E-03
39158,1.74E-03,4.47E-03
39159,1.99E-03,4.06E-03
39160,1.79E-03,4.11E-03
39161,1.77E-03,4.16E-03
39162,1.70E-03,4.41E-03
39163,1.92E-03,5.74E-03
39164,1.97E-03,5.49E-03
39165,1.96E-03,5.23E-03
39166,1.98E-03,4.95E-03
39167,2.32E-03,6.42E-03
39168,2.36E-03,6.48E-03
39169,1.66E-03,4.32E-03
39170,1.76E-03,4.22E-03
39171,1.66E-03,4.29E-03
39172,1.74E-03,4.55E-03
39173,1.68E-03,4.70E-03
39174,1.90E-03,5.99E-03
39175,2.46E-03,4.15E-03
39176,2.49E-03,6.53E-03
39177,2.22E-03,6.46E-03
39178,1.91E-03,4.03E-03
39179,1.98E-03,4.67E-03
39180,1.61E-03,4.35E-03
39181,1.65E-03,4.78E-03
39182,1.71E-03,4.63E-03
39183,1.95E-03,4.57E-03
39184,1.96E-03,4.45E-03
39185,1.95E-03,4.32E-03
39186,1.96E-03,4.17E-03
39187,2.48E-03,3.64E-03
39188,1.95E-03,6.39E-03
39189,1.91E-03,6.32E-03
39190,1.89E-03,6.27E-03
39191,1.86E-03,6.21E-03
39192,2.52E-03,4.00E-03
39193,1.89E-03,6.16E-03
39194,1.90E-03,4.80E-03
39195,1.73E-03,4.44E-03
39196,1.64E-03,4.50E-03
39197,2.45E-03,6.61E-03
39198,2.44E-03,6.67E-03
39199,2.75E-03,6.72E-03
39200,1.99E-03,5.14E-03
39201,1.96E-03,5.41E-03
39202,1.95E-03,5.68E-03
39203,1.77E-03,4.90E-03
39204,1.98E-03,4.49E-03
39205,1.69E-03,4.58E-03
39206,1.93E-03,4.81E-03
39207,1.86E-03,4.95E-03
39208,1.77E-03,4.39E-03
39209,1.86E-03,4.28E-03
39210,1.82E-03,4.33E-03
39211,1.73E-03,4.63E-03
39212,1.78E-03,4.70E-03
39213,2.30E-03,4.36E-03
39214,1.99E-03,4.86E-03
39215,1.68E-03,4.53E-03
39216,2.04E-03,4.68E-03
39217,1.93E-03,5.92E-03
39218,1.92E-03,4.23E-03
39219,1.96E-03,4.38E-03
39220,1.97E-03,4.52E-03
39221,1.99E-03,4.65E-03
39222,2.00E-03,4.76E-03
39223,2.48E-03,3.85E-03
39224,1.91E-03,6.55E-03
39225,1.89E-03,6.49E-03
39226,1.89E-03,6.44E-03
39227,1.86E-03,6.39E-03
39228,2.40E-03,4.21E-03
39229,1.77E-03,4.85E-03
39230,1.85E-03,4.50E-03
39231,1.84E-03,4.55E-03
39232,2.12E-03,4.87E-03
39233,2.02E-03,5.00E-03
39234,1.97E-03,5.12E-03
39235,1.85E-03,5.08E-03
39236,1.95E-03,5.86E-03
39237,1.96E-03,5.60E-03
39238,1.97E-03,5.33E-03
39239,2.57E-03,6.79E-03
39240,2.51E-03,6.85E-03
39241,2.20E-03,6.93E-03
39242,2.78E-03,6.92E-03
39243,1.72E-03,4.66E-03
39244,1.84E-03,4.92E-03
39245,1.84E-03,5.01E-03
39246,1.67E-03,4.75E-03
39247,1.70E-03,4.80E-03
39248,2.24E-03,4.55E-03
39249,1.94E-03,4.44E-03
39250,1.99E-03,5.05E-03
39251,1.91E-03,6.33E-03
39252,1.92E-03,6.10E-03
39253,1.75E-03,4.60E-03
39254,1.67E-03,4.70E-03
39255,2.00E-03,4.95E-03
39256,2.00E-03,4.84E-03
39257,1.98E-03,4.72E-03
39258,1.97E-03,4.58E-03
39259,2.44E-03,4.07E-03
39260,1.88E-03,6.71E-03
39261,1.85E-03,6.65E-03
39262,1.87E-03,6.61E-03
39263,1.87E-03,6.56E-03
39264,2.34E-03,4.43E-03
39265,1.67E-03,4.96E-03
39266,1.90E-03,5.13E-03
39267,1.67E-03,4.91E-03
39268,1.71E-03,4.87E-03
39269,2.55E-03,6.98E-03
39270,2.50E-03,7.04E-03
39271,1.91E-03,7.14E-03
39272,2.35E-03,7.15E-03
39273,1.98E-03,5.52E-03
39274,1.96E-03,5.79E-03
39275,1.96E-03,6.04E-03
39276,1.91E-03,6.28E-03
39277,1.90E-03,6.51E-03
39278,1.89E-03,5.21E-03
39279,1.94E-03,5.25E-03
39280,1.74E-03,4.82E-03
39281,1.84E-03,4.71E-03
39282,1.83E-03,4.76E-03
39283,2.28E-03,4.75E-03
39284,1.99E-03,5.25E-03
39285,2.18E-03,5.06E-03
39286,1.80E-03,5.06E-03
39287,1.76E-03,5.00E-03
39288,2.09E-03,5.17E-03
39289,2.00E-03,5.29E-03
39290,1.91E-03,4.65E-03
39291,1.96E-03,4.79E-03
39292,1.98E-03,4.92E-03
39293,1.99E-03,5.04E-03
39294,1.99E-03,5.15E-03
39295,2.40E-03,4.30E-03
39296,1.84E-03,6.87E-03
39297,1.82E-03,6.82E-03
39298,1.84E-03,6.77E-03
39299,1.86E-03,6.72E-03
39300,2.35E-03,4.64E-03
39301,1.83E-03,4.92E-03
39302,1.82E-03,4.97E-03
39303,1.95E-03,5.38E-03
39304,1.87E-03,6.67E-03
39305,1.93E-03,6.45E-03
39306,1.95E-03,6.22E-03
39307,1.96E-03,5.97E-03
39308,1.97E-03,5.71E-03
39309,2.46E-03,7.18E-03
39310,2.43E-03,7.23E-03
39311,1.67E-03,7.30E-03
39312,1.97E-03,7.32E-03
39313,2.25E-03,7.34E-03
39314,1.73E-03,5.03E-03
39315,1.72E-03,5.07E-03
39316,1.78E-03,5.21E-03
39317,1.88E-03,5.26E-03
39318,1.95E-03,5.33E-03
39319,1.96E-03,5.41E-03
39320,2.16E-03,5.35E-03
39321,1.98E-03,5.45E-03
39322,2.32E-03,5.24E-03
39323,1.66E-03,5.12E-03
39324,2.37E-03,4.95E-03
39325,1.90E-03,4.86E-03
39326,1.99E-03,5.44E-03
39327,1.72E-03,5.16E-03
39328,1.53E-03,7.26E-03
39329,1.99E-03,5.34E-03
39330,1.98E-03,5.24E-03
39331,1.97E-03,5.12E-03
39332,1.95E-03,5.00E-03
39333,2.41E-03,4.53E-03
39334,1.75E-03,7.03E-03
39335,1.80E-03,6.98E-03
39336,1.82E-03,6.94E-03
39337,1.86E-03,6.89E-03
39338,2.41E-03,4.85E-03
39339,1.68E-03,5.31E-03
39340,1.83E-03,5.60E-03
39341,1.91E-03,5.57E-03
39342,1.96E-03,5.46E-03
39343,1.79E-03,5.40E-03
39344,1.72E-03,5.23E-03
39345,2.33E-03,7.38E-03
39346,2.38E-03,7.42E-03
39347,1.97E-03,5.89E-03
39348,1.94E-03,6.39E-03
39349,1.97E-03,6.15E-03
39350,1.92E-03,6.62E-03
39351,1.87E-03,6.84E-03
39352,2.06E-03,5.51E-03
39353,1.96E-03,5.53E-03
39354,1.82E-03,5.12E-03
39355,1.81E-03,5.18E-03
39356,2.52E-03,5.15E-03
39357,1.60E-03,7.22E-03
39358,1.99E-03,5.63E-03
39359,1.74E-03,5.35E-03
39360,1.74E-03,7.42E-03
39361,1.88E-03,7.46E-03
39362,2.00E-03,7.49E-03
39363,2.19E-03,7.52E-03
39364,1.71E-03,5.27E-03
39365,1.89E-03,5.06E-03
39366,1.94E-03,5.20E-03
39367,1.96E-03,5.32E-03
39368,1.98E-03,5.43E-03
39369,1.99E-03,5.53E-03
39370,2.45E-03,4.76E-03
39371,1.71E-03,7.19E-03
39372,1.77E-03,7.14E-03
39373,1.81E-03,7.10E-03
39374,1.85E-03,7.05E-03
39375,2.53E-03,5.06E-03
39376,1.81E-03,5.32E-03
39377,2.06E-03,5.66E-03
39378,1.89E-03,7.00E-03
39379,1.90E-03,6.79E-03
39380,1.97E-03,6.32E-03
39381,1.97E-03,6.08E-03
39382,2.28E-03,7.56E-03
39383,2.34E-03,7.60E-03
39384,2.10E-03,7.65E-03
39385,2.21E-03,7.69E-03
39386,1.71E-03,5.42E-03
39387,1.77E-03,5.54E-03
39388,1.88E-03,5.58E-03
39389,2.28E-03,5.64E-03
39390,1.89E-03,5.69E-03
39391,1.82E-03,5.72E-03
39392,1.64E-03,5.75E-03
39393,1.71E-03,7.38E-03
39394,1.99E-03,5.81E-03
39395,1.80E-03,5.38E-03
39396,1.70E-03,5.47E-03
39397,1.70E-03,5.50E-03
39398,1.94E-03,6.56E-03
39399,2.41E-03,5.60E-03
39400,1.97E-03,7.61E-03
39401,1.86E-03,7.57E-03
39402,1.88E-03,5.26E-03
39403,1.98E-03,5.72E-03
39404,1.97E-03,5.62E-03
39405,1.95E-03,5.51E-03
39406,1.94E-03,5.39E-03
39407,2.51E-03,4.98E-03
39408,1.73E-03,7.34E-03
39409,1.78E-03,7.30E-03
39410,1.81E-03,7.25E-03
39411,1.85E-03,7.21E-03
39412,2.65E-03,5.25E-03
39413,1.55E-03,5.79E-03
39414,1.46E-03,5.90E-03
39415,1.69E-03,5.88E-03
39416,1.81E-03,5.85E-03
39417,2.21E-03,5.78E-03
39418,1.75E-03,5.73E-03
39419,1.71E-03,5.69E-03
39420,1.69E-03,5.65E-03
39421,1.71E-03,5.61E-03
39422,2.28E-03,7.73E-03
39423,2.35E-03,7.77E-03
39424,2.10E-03,7.76E-03
39425,2.16E-03,7.81E-03
39426,2.24E-03,7.85E-03
39427,1.96E-03,6.25E-03
39428,1.96E-03,6.50E-03
39429,1.95E-03,6.73E-03
39430,1.92E-03,6.95E-03
39431,1.89E-03,7.16E-03
39432,1.86E-03,5.83E-03
39433,1.80E-03,5.52E-03
39434,1.78E-03,5.57E-03
39435,2.74E-03,5.63E-03
39436,1.79E-03,7.53E-03
39437,1.99E-03,6.00E-03
39438,1.89E-03,7.72E-03
39439,1.87E-03,5.46E-03
39440,1.93E-03,5.59E-03
39441,1.95E-03,5.71E-03
39442,1.97E-03,5.81E-03
39443,1.98E-03,5.91E-03
39444,2.55E-03,5.19E-03
39445,1.79E-03,7.49E-03
39446,1.82E-03,7.45E-03
39447,1.82E-03,7.41E-03
39448,1.86E-03,7.36E-03
39449,2.70E-03,5.42E-03
39450,1.79E-03,5.71E-03
39451,1.74E-03,5.96E-03
39452,1.91E-03,7.32E-03
39453,1.92E-03,7.11E-03
39454,1.93E-03,6.89E-03
39455,1.96E-03,6.67E-03
39456,1.96E-03,6.43E-03
39457,2.31E-03,7.89E-03
39458,2.36E-03,7.94E-03
39459,2.03E-03,7.86E-03
39460,2.27E-03,7.90E-03
39461,2.29E-03,7.96E-03
39462,2.30E-03,8.01E-03
39463,1.77E-03,5.76E-03
39464,1.70E-03,5.80E-03
39465,1.69E-03,5.83E-03
39466,1.69E-03,5.86E-03
39467,1.90E-03,5.95E-03
39468,1.76E-03,5.99E-03
39469,1.72E-03,6.01E-03
39470,1.55E-03,6.04E-03
39471,1.46E-03,5.94E-03
39472,1.67E-03,6.06E-03
39473,2.01E-03,5.83E-03
39474,2.51E-03,5.75E-03
39475,2.64E-03,5.64E-03
39476,1.87E-03,7.68E-03
39477,1.86E-03,5.65E-03
39478,1.98E-03,6.18E-03
39479,1.65E-03,5.90E-03
39480,1.99E-03,6.09E-03
39481,1.97E-03,6.00E-03
39482,1.94E-03,5.89E-03
39483,1.92E-03,5.78E-03
39484,2.59E-03,5.39E-03
39485,1.83E-03,7.64E-03
39486,1.84E-03,7.60E-03
39487,1.84E-03,7.56E-03
39488,1.88E-03,7.51E-03
39489,2.62E-03,5.58E-03
39490,2.26E-03,5.91E-03
39491,1.85E-03,6.02E-03
39492,1.79E-03,6.17E-03
39493,1.61E-03,6.18E-03
39494,1.68E-03,6.17E-03
39495,1.72E-03,6.15E-03
39496,1.63E-03,6.05E-03
39497,1.05E-03,6.14E-03
39498,1.63E-03,6.02E-03
39499,1.70E-03,5.97E-03
39500,1.76E-03,5.93E-03
39501,2.35E-03,8.05E-03
39502,2.41E-03,8.10E-03
39503,2.19E-03,8.01E-03
39504,2.54E-03,8.04E-03
39505,2.38E-03,8.10E-03
39506,2.36E-03,8.16E-03
39507,1.96E-03,6.60E-03
39508,1.95E-03,6.83E-03
39509,1.93E-03,7.05E-03
39510,1.93E-03,7.26E-03
39511,1.67E-03,6.13E-03
39512,1.89E-03,7.46E-03
39513,2.40E-03,5.88E-03
39514,2.50E-03,5.78E-03
39515,1.92E-03,7.82E-03
39516,1.95E-03,6.35E-03
39517,1.78E-03,5.89E-03
39518,1.68E-03,6.10E-03
39519,1.67E-03,6.00E-03
39520,1.85E-03,5.84E-03
39521,1.91E-03,5.96E-03
39522,1.93E-03,6.07E-03
39523,1.93E-03,6.18E-03
39524,1.93E-03,6.27E-03
39525,2.56E-03,5.57E-03
39526,1.89E-03,7.78E-03
39527,1.86E-03,7.74E-03
39528,1.85E-03,7.70E-03
39529,1.88E-03,7.66E-03
39530,2.51E-03,5.72E-03
39531,1.90E-03,7.61E-03
39532,1.61E-03,6.27E-03
39533,1.90E-03,7.42E-03
39534,1.94E-03,7.21E-03
39535,1.95E-03,6.99E-03
39536,1.95E-03,6.76E-03
39537,2.39E-03,8.21E-03
39538,2.43E-03,8.26E-03
39539,2.15E-03,8.13E-03
39540,1.72E-03,8.22E-03
39541,2.49E-03,8.18E-03
39542,2.37E-03,8.25E-03
39543,2.40E-03,8.30E-03
39544,1.77E-03,6.07E-03
39545,1.75E-03,6.11E-03
39546,1.69E-03,6.14E-03
39547,1.66E-03,6.16E-03
39548,1.38E-03,6.24E-03
39549,1.13E-03,6.28E-03
39550,1.49E-03,6.22E-03
39551,1.68E-03,6.29E-03
39552,1.70E-03,6.31E-03
39553,1.69E-03,6.32E-03
39554,1.80E-03,6.31E-03
39555,2.02E-03,6.09E-03
39556,1.96E-03,6.27E-03
39557,2.30E-03,6.02E-03
39558,2.38E-03,6.01E-03
39559,2.40E-03,5.91E-03
39560,1.97E-03,7.96E-03
39561,1.84E-03,6.02E-03
39562,1.97E-03,6.52E-03
39563,1.61E-03,6.18E-03
39564,1.44E-03,8.30E-03
39565,1.60E-03,8.34E-03
39566,1.97E-03,6.44E-03
39567,1.96E-03,6.35E-03
39568,1.93E-03,6.25E-03
39569,1.90E-03,6.14E-03
39570,2.51E-03,5.73E-03
39571,1.91E-03,7.92E-03
39572,1.88E-03,7.88E-03
39573,1.87E-03,7.84E-03
39574,2.41E-03,5.86E-03
39575,2.35E-03,6.14E-03
39576,2.16E-03,6.19E-03
39577,2.07E-03,6.36E-03
39578,1.89E-03,6.42E-03
39579,1.79E-03,6.45E-03
39580,1.71E-03,6.46E-03
39581,1.69E-03,6.45E-03
39582,1.59E-03,6.36E-03
39583,1.56E-03,6.40E-03
39584,1.58E-03,6.42E-03
39585,1.65E-03,6.33E-03
39586,1.68E-03,6.31E-03
39587,1.76E-03,6.24E-03
39588,1.74E-03,6.28E-03
39589,2.40E-03,8.36E-03
39590,2.43E-03,8.41E-03
39591,2.25E-03,8.36E-03
39592,2.36E-03,8.40E-03
39593,2.38E-03,8.45E-03
39594,1.84E-03,8.27E-03
39595,1.95E-03,6.93E-03
39596,1.95E-03,7.15E-03
39597,1.94E-03,7.36E-03
39598,1.55E-03,6.41E-03
39599,1.63E-03,6.43E-03
39600,1.93E-03,8.09E-03
39601,1.97E-03,6.69E-03
39602,2.27E-03,6.14E-03
39603,1.83E-03,6.20E-03
39604,1.98E-03,8.47E-03
39605,1.91E-03,7.56E-03
39606,1.87E-03,7.80E-03
39607,1.88E-03,7.75E-03
39608,1.78E-03,8.42E-03
39609,2.31E-03,6.04E-03
39610,1.90E-03,6.31E-03
39611,1.93E-03,6.42E-03
39612,1.95E-03,6.52E-03
39613,1.97E-03,6.61E-03
39614,2.42E-03,5.87E-03
39615,1.91E-03,8.05E-03
39616,1.89E-03,8.01E-03
39617,1.86E-03,7.97E-03
39618,1.88E-03,7.93E-03
39619,1.61E-03,6.57E-03
39620,1.89E-03,7.89E-03
39621,1.89E-03,7.70E-03
39622,1.93E-03,7.51E-03
39623,1.95E-03,7.30E-03
39624,1.95E-03,7.08E-03
39625,1.84E-03,8.39E-03
39626,1.99E-03,8.56E-03
39627,2.13E-03,8.60E-03
39628,2.40E-03,8.51E-03
39629,2.43E-03,8.56E-03
39630,2.15E-03,8.51E-03
39631,2.28E-03,8.55E-03
39632,2.35E-03,8.60E-03
39633,1.76E-03,6.41E-03
39634,1.74E-03,6.44E-03
39635,1.67E-03,6.47E-03
39636,1.54E-03,6.56E-03
39637,1.50E-03,6.55E-03
39638,1.65E-03,6.49E-03
39639,1.60E-03,6.52E-03
39640,1.67E-03,6.58E-03
39641,1.70E-03,6.60E-03
39642,1.77E-03,6.59E-03
39643,1.87E-03,6.57E-03
39644,2.02E-03,6.52E-03
39645,2.31E-03,6.30E-03
39646,2.25E-03,6.47E-03
39647,2.35E-03,6.27E-03
39648,1.91E-03,8.23E-03
39649,1.96E-03,6.85E-03
39650,2.40E-03,6.25E-03
39651,2.30E-03,5.99E-03
39652,1.81E-03,6.18E-03
39653,1.83E-03,6.37E-03
39654,1.96E-03,6.77E-03
39655,1.95E-03,6.69E-03
39656,1.92E-03,6.59E-03
39657,1.89E-03,6.48E-03
39658,2.40E-03,6.00E-03
39659,1.91E-03,8.19E-03
39660,1.89E-03,8.15E-03
39661,1.85E-03,8.10E-03
39662,1.86E-03,8.06E-03
39663,2.00E-03,6.15E-03
39664,2.33E-03,6.42E-03
39665,2.30E-03,6.58E-03
39666,2.18E-03,6.63E-03
39667,1.95E-03,6.68E-03
39668,1.86E-03,6.71E-03
39669,1.69E-03,6.73E-03
39670,1.73E-03,6.73E-03
39671,1.63E-03,6.65E-03
39672,1.58E-03,6.68E-03
39673,1.55E-03,6.69E-03
39674,1.67E-03,6.63E-03
39675,1.75E-03,6.57E-03
39676,1.73E-03,6.61E-03
39677,2.39E-03,6.41E-03
39678,1.97E-03,6.28E-03
39679,2.44E-03,6.43E-03
39680,2.40E-03,8.65E-03
39681,2.44E-03,8.71E-03
39682,2.18E-03,8.65E-03
39683,2.27E-03,8.69E-03
39684,2.33E-03,8.74E-03
39685,2.12E-03,8.73E-03
39686,2.11E-03,8.69E-03
39687,1.96E-03,8.52E-03
39688,1.96E-03,7.24E-03
39689,1.93E-03,7.45E-03
39690,1.91E-03,7.65E-03
39691,1.91E-03,7.84E-03
39692,1.89E-03,8.02E-03
39693,1.90E-03,8.36E-03
39694,1.96E-03,7.01E-03
39695,1.60E-03,6.71E-03
39696,1.64E-03,6.72E-03
39697,1.82E-03,6.53E-03
39698,1.89E-03,6.65E-03
39699,1.92E-03,6.75E-03
39700,1.95E-03,6.85E-03
39701,1.96E-03,6.94E-03
39702,2.75E-03,6.14E-03
39703,1.91E-03,8.32E-03
39704,1.91E-03,8.27E-03
39705,1.87E-03,8.23E-03
39706,1.86E-03,8.19E-03
39707,1.89E-03,8.14E-03
39708,1.90E-03,7.97E-03
39709,1.91E-03,7.78E-03
39710,1.93E-03,7.59E-03
39711,1.95E-03,7.39E-03
39712,2.06E-03,8.64E-03
39713,2.16E-03,8.81E-03
39714,2.15E-03,8.85E-03
39715,2.39E-03,8.79E-03
39716,2.43E-03,8.85E-03
39717,2.19E-03,8.77E-03
39718,2.26E-03,8.82E-03
39719,2.33E-03,8.87E-03
39720,2.68E-03,6.39E-03
39721,2.54E-03,6.57E-03
39722,2.49E-03,6.55E-03
39723,1.74E-03,6.73E-03
39724,1.73E-03,6.76E-03
39725,1.64E-03,6.85E-03
39726,1.58E-03,6.84E-03
39727,1.64E-03,6.80E-03
39728,1.73E-03,6.87E-03
39729,1.81E-03,6.86E-03
39730,1.93E-03,6.83E-03
39731,2.05E-03,6.79E-03
39732,2.30E-03,6.74E-03
39733,2.42E-03,6.55E-03
39734,2.39E-03,6.70E-03
39735,1.95E-03,8.48E-03
39736,1.95E-03,7.17E-03
39737,1.57E-03,6.82E-03
39738,1.67E-03,6.87E-03
39739,1.66E-03,6.78E-03
39740,1.82E-03,6.70E-03
39741,1.96E-03,7.09E-03
39742,1.95E-03,7.01E-03
39743,1.91E-03,6.91E-03
39744,1.88E-03,6.81E-03
39745,2.76E-03,6.29E-03
39746,1.95E-03,8.44E-03
39747,1.94E-03,8.40E-03
39748,2.37E-03,6.85E-03
39749,1.99E-03,6.94E-03
39750,1.87E-03,6.98E-03
39751,1.81E-03,7.00E-03
39752,1.69E-03,7.00E-03
39753,1.66E-03,6.93E-03
39754,1.64E-03,6.95E-03
39755,1.59E-03,6.97E-03
39756,1.62E-03,6.98E-03
39757,1.74E-03,6.89E-03
39758,1.73E-03,6.91E-03
39759,2.52E-03,6.69E-03
39760,2.52E-03,6.83E-03
39761,2.66E-03,6.73E-03
39762,2.40E-03,8.93E-03
39763,2.44E-03,8.98E-03
39764,2.21E-03,8.90E-03
39765,2.28E-03,8.95E-03
39766,2.34E-03,9.00E-03
39767,2.20E-03,8.97E-03
39768,2.19E-03,8.93E-03
39769,2.14E-03,8.76E-03
39770,1.95E-03,7.53E-03
39771,1.92E-03,7.73E-03
39772,1.92E-03,7.92E-03
39773,1.93E-03,8.36E-03
39774,1.89E-03,8.31E-03
39775,1.88E-03,8.27E-03
39776,1.90E-03,8.10E-03
39777,2.01E-03,8.60E-03
39778,1.95E-03,7.32E-03
39779,1.82E-03,6.85E-03
39780,2.38E-03,6.56E-03
39781,1.68E-03,7.00E-03
39782,2.24E-03,6.89E-03
39783,2.37E-03,6.70E-03
39784,1.89E-03,6.96E-03
39785,1.91E-03,7.06E-03
39786,1.91E-03,7.16E-03
39787,1.93E-03,7.24E-03
39788,2.49E-03,6.49E-03
39789,1.99E-03,8.56E-03
39790,1.98E-03,8.52E-03
39791,1.96E-03,8.47E-03
39792,1.94E-03,8.43E-03
39793,1.89E-03,8.22E-03
39794,1.92E-03,8.04E-03
39795,1.92E-03,7.86E-03
39796,1.94E-03,7.67E-03
39797,2.18E-03,8.88E-03
39798,2.24E-03,9.04E-03
39799,2.24E-03,9.09E-03
39800,2.40E-03,9.06E-03
39801,2.44E-03,9.11E-03
39802,2.25E-03,9.02E-03
39803,2.30E-03,9.07E-03
39804,2.36E-03,9.12E-03
39805,2.70E-03,6.85E-03
39806,2.63E-03,6.97E-03
39807,1.75E-03,7.03E-03
39808,1.63E-03,7.11E-03
39809,1.67E-03,7.08E-03
39810,1.64E-03,7.09E-03
39811,1.66E-03,7.12E-03
39812,1.70E-03,7.13E-03
39813,1.76E-03,7.13E-03
39814,1.85E-03,7.12E-03
39815,1.97E-03,7.09E-03
39816,2.47E-03,6.97E-03
39817,2.15E-03,7.04E-03
39818,2.28E-03,7.00E-03
39819,1.92E-03,8.38E-03
39820,2.11E-03,8.72E-03
39821,2.78E-03,6.91E-03
39822,1.78E-03,7.00E-03
39823,1.95E-03,7.46E-03
39824,1.68E-03,8.30E-03
39825,1.76E-03,8.22E-03
39826,1.92E-03,8.34E-03
39827,2.14E-03,8.38E-03
39828,2.24E-03,6.75E-03
39829,1.73E-03,7.06E-03
39830,1.76E-03,6.83E-03
39831,2.18E-03,8.45E-03
39832,1.96E-03,7.39E-03
39833,1.93E-03,7.30E-03
39834,1.90E-03,7.21E-03
39835,1.85E-03,7.11E-03
39836,1.93E-03,6.98E-03
39837,2.37E-03,6.68E-03
39838,2.05E-03,8.68E-03
39839,2.02E-03,8.63E-03
39840,2.00E-03,8.59E-03
39841,1.97E-03,8.54E-03
39842,1.96E-03,8.49E-03
39843,2.26E-03,7.15E-03
39844,2.41E-03,7.11E-03
39845,2.04E-03,7.19E-03
39846,1.92E-03,7.23E-03
39847,1.86E-03,7.25E-03
39848,1.71E-03,7.26E-03
39849,1.75E-03,7.26E-03
39850,1.68E-03,7.22E-03
39851,1.64E-03,7.23E-03
39852,1.75E-03,7.18E-03
39853,2.58E-03,7.09E-03
39854,3.12E-03,7.02E-03
39855,2.76E-03,7.11E-03
39856,2.42E-03,9.18E-03
39857,2.45E-03,9.24E-03
39858,2.27E-03,9.13E-03
39859,2.31E-03,9.19E-03
39860,2.37E-03,9.24E-03
39861,2.25E-03,9.20E-03
39862,2.25E-03,9.15E-03
39863,2.23E-03,8.99E-03
39864,2.41E-03,8.19E-03
39865,2.09E-03,8.13E-03
39866,1.96E-03,8.10E-03
39867,1.67E-03,8.20E-03
39868,2.05E-03,8.21E-03
39869,2.46E-03,8.27E-03
39870,2.62E-03,8.38E-03
39871,2.33E-03,8.49E-03
39872,2.48E-03,8.53E-03
39873,2.42E-03,8.47E-03
39874,1.94E-03,7.80E-03
39875,1.91E-03,7.99E-03
39876,1.91E-03,8.33E-03
39877,1.92E-03,8.17E-03
39878,2.17E-03,8.84E-03
39879,1.72E-03,7.02E-03
39880,2.19E-03,6.97E-03
39881,1.92E-03,7.60E-03
39882,1.73E-03,7.20E-03
39883,1.57E-03,8.19E-03
39884,2.00E-03,8.10E-03
39885,1.66E-03,7.25E-03
39886,1.81E-03,7.15E-03
39887,1.86E-03,7.26E-03
39888,1.91E-03,7.36E-03
39889,1.93E-03,7.45E-03
39890,1.92E-03,7.53E-03
39891,2.32E-03,6.86E-03
39892,2.15E-03,8.79E-03
39893,2.09E-03,8.74E-03
39894,2.05E-03,8.70E-03
39895,2.02E-03,8.65E-03
39896,1.91E-03,8.28E-03
39897,1.92E-03,8.11E-03
39898,1.94E-03,7.93E-03
39899,2.93E-03,8.54E-03
39900,2.70E-03,8.62E-03
39901,2.43E-03,8.57E-03
39902,2.04E-03,8.28E-03
39903,2.54E-03,8.32E-03
39904,2.44E-03,8.37E-03
39905,2.32E-03,8.42E-03
39906,2.40E-03,8.52E-03
39907,2.18E-03,8.11E-03
39908,2.22E-03,8.21E-03
39909,2.27E-03,9.10E-03
39910,2.45E-03,9.30E-03
39911,2.45E-03,9.36E-03
39912,2.28E-03,9.25E-03
39913,2.34E-03,9.30E-03
39914,2.39E-03,9.36E-03
39915,3.10E-03,7.18E-03
39916,2.92E-03,7.26E-03
39917,2.61E-03,7.22E-03
39918,1.77E-03,7.32E-03
39919,1.66E-03,7.35E-03
39920,1.65E-03,7.37E-03
39921,1.76E-03,7.39E-03
39922,1.83E-03,7.38E-03
39923,1.90E-03,7.36E-03
39924,2.01E-03,7.33E-03
39925,2.49E-03,7.22E-03
39926,2.20E-03,7.28E-03
39927,2.31E-03,7.24E-03
39928,1.99E-03,8.60E-03
39929,1.94E-03,8.45E-03
39930,2.21E-03,8.95E-03
39931,1.94E-03,7.74E-03
39932,1.72E-03,7.34E-03
39933,1.71E-03,7.38E-03
39934,2.18E-03,8.59E-03
39935,1.69E-03,8.66E-03
39936,2.24E-03,9.25E-03
39937,2.23E-03,7.12E-03
39938,2.23E-03,9.30E-03
39939,1.92E-03,8.68E-03
39940,1.81E-03,7.29E-03
39941,1.95E-03,7.66E-03
39942,1.93E-03,7.58E-03
39943,1.91E-03,7.49E-03
39944,1.86E-03,7.40E-03
39945,2.47E-03,8.12E-03
39946,2.32E-03,7.01E-03
39947,2.22E-03,8.90E-03
39948,2.20E-03,8.85E-03
39949,2.13E-03,8.80E-03
39950,2.08E-03,8.76E-03
39951,1.95E-03,8.55E-03
39952,2.28E-03,7.38E-03
39953,2.43E-03,7.34E-03
39954,2.08E-03,7.43E-03
39955,1.97E-03,7.47E-03
39956,1.88E-03,7.49E-03
39957,1.83E-03,7.51E-03
39958,1.75E-03,7.51E-03
39959,1.69E-03,7.49E-03
39960,1.78E-03,7.45E-03
39961,2.59E-03,7.33E-03
39962,2.71E-03,7.35E-03
39963,2.74E-03,7.36E-03
39964,2.76E-03,7.41E-03
39965,2.43E-03,9.41E-03
39966,2.46E-03,9.47E-03
39967,2.28E-03,9.35E-03
39968,2.33E-03,9.41E-03
39969,2.37E-03,9.47E-03
39970,2.31E-03,9.21E-03
39971,2.81E-03,8.33E-03
39972,1.91E-03,8.41E-03
39973,2.24E-03,8.48E-03
39974,2.36E-03,8.55E-03
39975,2.44E-03,8.60E-03
39976,2.49E-03,8.64E-03
39977,2.43E-03,8.68E-03
39978,1.93E-03,8.05E-03
39979,1.93E-03,8.23E-03
39980,2.05E-03,8.71E-03
39981,2.27E-03,9.06E-03
39982,2.77E-03,8.25E-03
39983,2.18E-03,9.40E-03
39984,2.20E-03,9.36E-03
39985,2.38E-03,7.25E-03
39986,1.95E-03,7.87E-03
39987,2.12E-03,8.77E-03
39988,1.73E-03,7.47E-03
39989,1.70E-03,7.50E-03
39990,2.09E-03,8.73E-03
39991,1.91E-03,8.40E-03
39992,1.81E-03,7.43E-03
39993,1.86E-03,7.53E-03
39994,1.91E-03,7.63E-03
39995,1.93E-03,7.71E-03
39996,1.94E-03,7.79E-03
39997,2.37E-03,7.14E-03
39998,2.34E-03,8.27E-03
39999,2.90E-03,8.38E-03
40000,2.26E-03,9.01E-03
40001,2.28E-03,8.96E-03
40002,2.24E-03,8.91E-03
40003,2.16E-03,8.86E-03
40004,2.08E-03,8.81E-03
40005,1.93E-03,8.34E-03
40006,1.92E-03,8.17E-03
40007,2.29E-03,8.80E-03
40008,2.46E-03,8.71E-03
40009,2.48E-03,8.67E-03
40010,2.44E-03,8.62E-03
40011,2.24E-03,8.53E-03
40012,2.41E-03,8.59E-03
40013,2.36E-03,9.31E-03
40014,2.41E-03,9.52E-03
40015,2.47E-03,9.58E-03
40016,2.24E-03,9.45E-03
40017,2.33E-03,9.51E-03
40018,2.37E-03,9.57E-03
40019,2.71E-03,7.48E-03
40020,2.64E-03,7.45E-03
40021,1.78E-03,7.58E-03
40022,1.74E-03,7.60E-03
40023,1.75E-03,7.62E-03
40024,1.84E-03,7.63E-03
40025,1.88E-03,7.62E-03
40026,1.95E-03,7.60E-03
40027,2.06E-03,7.56E-03
40028,2.50E-03,7.45E-03
40029,2.23E-03,7.51E-03
40030,2.32E-03,7.47E-03
40031,2.55E-03,7.51E-03
40032,2.59E-03,7.55E-03
40033,2.75E-03,8.34E-03
40034,2.76E-03,8.42E-03
40035,2.33E-03,9.16E-03
40036,3.28E-03,8.36E-03
40037,2.41E-03,7.46E-03
40038,2.51E-03,7.39E-03
40039,1.81E-03,7.56E-03
40040,1.95E-03,7.99E-03
40041,2.23E-03,8.85E-03
40042,2.00E-03,8.65E-03
40043,1.93E-03,8.50E-03
40044,1.71E-03,7.61E-03
40045,2.25E-03,8.89E-03
40046,1.94E-03,7.92E-03
40047,1.93E-03,7.84E-03
40048,1.91E-03,7.76E-03
40049,1.86E-03,7.66E-03
40050,2.91E-03,8.42E-03
40051,1.67E-03,8.55E-03
40052,2.49E-03,7.26E-03
40053,3.45E-03,8.40E-03
40054,2.87E-03,8.45E-03
40055,2.33E-03,9.11E-03
40056,2.32E-03,9.07E-03
40057,2.32E-03,9.01E-03
40058,2.29E-03,8.96E-03
40059,2.88E-03,8.49E-03
40060,1.92E-03,7.63E-03
40061,2.56E-03,7.69E-03
40062,2.23E-03,7.60E-03
40063,2.43E-03,7.56E-03
40064,2.17E-03,7.64E-03
40065,2.02E-03,7.69E-03
40066,1.95E-03,7.72E-03
40067,1.89E-03,7.74E-03
40068,1.84E-03,7.74E-03
40069,1.76E-03,7.73E-03
40070,1.77E-03,7.71E-03
40071,1.77E-03,7.72E-03
40072,2.59E-03,7.55E-03
40073,2.69E-03,7.57E-03
40074,2.69E-03,7.61E-03
40075,2.40E-03,9.63E-03
40076,2.43E-03,9.69E-03
40077,2.15E-03,9.55E-03
40078,2.31E-03,9.61E-03
40079,2.38E-03,9.67E-03
40080,2.30E-03,9.41E-03
40081,2.38E-03,8.58E-03
40082,2.42E-03,8.63E-03
40083,2.43E-03,8.65E-03
40084,2.44E-03,8.69E-03
40085,2.47E-03,8.74E-03
40086,2.43E-03,8.81E-03
40087,2.32E-03,8.91E-03
40088,2.34E-03,9.04E-03
40089,2.33E-03,9.02E-03
40090,1.93E-03,8.28E-03
40091,1.97E-03,8.60E-03
40092,2.07E-03,8.75E-03
40093,2.17E-03,8.90E-03
40094,2.43E-03,9.26E-03
40095,2.17E-03,7.64E-03
40096,2.65E-03,7.54E-03
40097,2.77E-03,8.48E-03
40098,1.94E-03,8.11E-03
40099,1.93E-03,8.45E-03
40100,1.82E-03,7.69E-03
40101,1.87E-03,7.79E-03
40102,1.91E-03,7.88E-03
40103,1.93E-03,7.96E-03
40104,1.94E-03,8.04E-03
40105,2.87E-03,8.49E-03
40106,2.55E-03,7.40E-03
40107,1.63E-03,8.64E-03
40108,1.31E-03,8.71E-03
40109,2.42E-03,9.22E-03
40110,2.40E-03,9.17E-03
40111,2.35E-03,9.11E-03
40112,2.34E-03,9.05E-03
40113,2.30E-03,8.99E-03
40114,2.13E-03,8.85E-03
40115,2.03E-03,8.70E-03
40116,1.95E-03,8.55E-03
40117,1.95E-03,8.39E-03
40118,2.41E-03,9.22E-03
40119,2.42E-03,9.21E-03
40120,2.39E-03,9.04E-03
40121,2.39E-03,8.92E-03
40122,2.44E-03,8.82E-03
40123,2.46E-03,8.76E-03
40124,2.46E-03,8.71E-03
40125,2.47E-03,8.68E-03
40126,2.49E-03,8.61E-03
40127,2.52E-03,8.67E-03
40128,2.40E-03,9.73E-03
40129,2.43E-03,9.79E-03
40130,2.23E-03,9.63E-03
40131,2.28E-03,9.70E-03
40132,2.39E-03,9.76E-03
40133,2.71E-03,7.69E-03
40134,2.65E-03,7.66E-03
40135,1.81E-03,7.83E-03
40136,1.78E-03,7.84E-03
40137,1.83E-03,7.85E-03
40138,1.89E-03,7.85E-03
40139,1.96E-03,7.84E-03
40140,2.02E-03,7.81E-03
40141,2.12E-03,7.77E-03
40142,2.50E-03,7.65E-03
40143,2.21E-03,7.72E-03
40144,2.33E-03,7.67E-03
40145,2.70E-03,7.76E-03
40146,2.45E-03,7.74E-03
40147,2.47E-03,7.85E-03
40148,2.74E-03,9.38E-03
40149,2.52E-03,7.69E-03
40150,1.94E-03,8.69E-03
40151,1.30E-03,8.76E-03
40152,1.83E-03,7.81E-03
40153,1.94E-03,8.22E-03
40154,2.59E-03,8.55E-03
40155,2.56E-03,8.58E-03
40156,1.94E-03,8.15E-03
40157,1.93E-03,8.08E-03
40158,1.91E-03,8.00E-03
40159,1.87E-03,7.91E-03
40160,1.39E-03,8.80E-03
40161,2.55E-03,7.56E-03
40162,2.56E-03,9.32E-03
40163,2.44E-03,9.26E-03
40164,2.42E-03,9.20E-03
40165,2.35E-03,9.14E-03
40166,2.38E-03,8.75E-03
40167,2.57E-03,7.90E-03
40168,2.89E-03,7.82E-03
40169,2.52E-03,7.93E-03
40170,2.15E-03,8.82E-03
40171,2.25E-03,7.79E-03
40172,2.43E-03,7.76E-03
40173,2.16E-03,7.84E-03
40174,2.12E-03,7.89E-03
40175,2.03E-03,7.93E-03
40176,1.96E-03,7.95E-03
40177,1.89E-03,7.96E-03
40178,1.83E-03,7.95E-03
40179,1.84E-03,7.95E-03
40180,2.88E-03,8.63E-03
40181,2.61E-03,8.63E-03
40182,2.59E-03,7.75E-03
40183,2.71E-03,7.77E-03
40184,2.72E-03,7.82E-03
40185,2.45E-03,8.59E-03
40186,2.40E-03,9.82E-03
40187,2.42E-03,9.88E-03
40188,2.20E-03,9.72E-03
40189,2.22E-03,9.79E-03
40190,2.28E-03,9.85E-03
40191,1.95E-03,9.75E-03
40192,2.09E-03,9.72E-03
40193,2.25E-03,9.63E-03
40194,2.62E-03,8.65E-03
40195,2.58E-03,8.70E-03
40196,2.52E-03,8.71E-03
40197,2.51E-03,8.74E-03
40198,2.48E-03,8.78E-03
40199,2.47E-03,8.83E-03
40200,2.43E-03,8.92E-03
40201,2.41E-03,9.03E-03
40202,2.43E-03,9.19E-03
40203,2.47E-03,9.40E-03
40204,2.48E-03,9.45E-03
40205,1.94E-03,8.49E-03
40206,1.99E-03,8.65E-03
40207,2.09E-03,8.79E-03
40208,2.22E-03,8.94E-03
40209,2.37E-03,9.08E-03
40210,2.79E-03,9.49E-03
40211,2.71E-03,7.91E-03
40212,2.38E-03,7.83E-03
40213,1.95E-03,8.33E-03
40214,1.84E-03,7.93E-03
40215,1.89E-03,8.02E-03
40216,1.92E-03,8.11E-03
40217,1.94E-03,8.19E-03
40218,1.95E-03,8.26E-03
40219,2.61E-03,7.76E-03
40220,2.65E-03,9.42E-03
40221,2.53E-03,9.35E-03
40222,2.50E-03,9.29E-03
40223,2.42E-03,9.23E-03
40224,2.59E-03,8.06E-03
40225,2.40E-03,9.17E-03
40226,2.34E-03,9.02E-03
40227,2.16E-03,8.88E-03
40228,2.05E-03,8.74E-03
40229,1.97E-03,8.59E-03
40230,2.51E-03,9.66E-03
40231,2.55E-03,9.58E-03
40232,2.47E-03,9.34E-03
40233,2.45E-03,9.16E-03
40234,2.43E-03,9.02E-03
40235,2.46E-03,8.91E-03
40236,2.50E-03,8.84E-03
40237,2.52E-03,8.79E-03
40238,2.52E-03,8.76E-03
40239,2.58E-03,8.75E-03
40240,2.14E-03,9.71E-03
40241,2.02E-03,9.79E-03
40242,2.03E-03,9.81E-03
40243,2.35E-03,9.91E-03
40244,2.40E-03,9.97E-03
40245,2.05E-03,9.81E-03
40246,2.22E-03,9.87E-03
40247,2.29E-03,9.93E-03
40248,2.95E-03,8.61E-03
40249,2.84E-03,8.65E-03
40250,2.69E-03,8.70E-03
40251,2.67E-03,8.74E-03
40252,2.78E-03,7.88E-03
40253,2.69E-03,7.85E-03
40254,2.75E-03,8.67E-03
40255,2.94E-03,8.67E-03
40256,2.95E-03,8.70E-03
40257,1.86E-03,8.05E-03
40258,1.91E-03,8.06E-03
40259,1.98E-03,8.06E-03
40260,2.06E-03,8.04E-03
40261,2.13E-03,8.01E-03
40262,2.16E-03,7.97E-03
40263,2.49E-03,7.84E-03
40264,2.17E-03,7.91E-03
40265,2.34E-03,7.86E-03
40266,2.48E-03,9.57E-03
40267,2.97E-03,8.73E-03
40268,1.87E-03,8.04E-03
40269,1.95E-03,8.43E-03
40270,2.30E-03,8.05E-03
40271,2.74E-03,7.94E-03
40272,2.52E-03,8.03E-03
40273,2.72E-03,7.93E-03
40274,2.04E-03,8.00E-03
40275,2.42E-03,8.12E-03
40276,2.47E-03,8.11E-03
40277,2.91E-03,8.12E-03
40278,1.96E-03,8.37E-03
40279,1.95E-03,8.30E-03
40280,1.93E-03,8.22E-03
40281,1.91E-03,8.13E-03
40282,2.58E-03,9.51E-03
40283,2.54E-03,9.45E-03
40284,2.50E-03,9.38E-03
40285,2.48E-03,9.32E-03
40286,2.20E-03,7.96E-03
40287,2.37E-03,7.93E-03
40288,2.19E-03,8.03E-03
40289,2.18E-03,8.08E-03
40290,2.17E-03,8.12E-03
40291,2.07E-03,8.15E-03
40292,1.92E-03,8.16E-03
40293,1.99E-03,8.16E-03
40294,3.14E-03,8.76E-03
40295,3.22E-03,8.78E-03
40296,2.89E-03,8.73E-03
40297,2.63E-03,7.93E-03
40298,2.81E-03,7.94E-03
40299,2.81E-03,8.70E-03
40300,2.82E-03,8.71E-03
40301,2.78E-03,8.74E-03
40302,2.72E-03,8.78E-03
40303,2.35E-03,9.99E-03
40304,2.39E-03,1.01E-02
40305,2.12E-03,9.88E-03
40306,2.21E-03,9.94E-03
40307,2.30E-03,1.00E-02
40308,2.06E-03,9.86E-03
40309,1.98E-03,9.80E-03
40310,1.70E-03,9.85E-03
40311,2.63E-03,8.78E-03
40312,2.57E-03,8.78E-03
40313,2.54E-03,8.81E-03
40314,2.52E-03,8.85E-03
40315,2.49E-03,8.91E-03
40316,2.46E-03,9.00E-03
40317,2.44E-03,9.12E-03
40318,2.47E-03,9.28E-03
40319,2.54E-03,9.50E-03
40320,2.75E-03,9.77E-03
40321,2.78E-03,9.85E-03
40322,2.02E-03,8.68E-03
40323,2.13E-03,8.82E-03
40324,2.29E-03,8.96E-03
40325,2.39E-03,9.11E-03
40326,2.43E-03,9.25E-03
40327,2.87E-03,7.98E-03
40328,2.82E-03,8.05E-03
40329,3.01E-03,8.02E-03
40330,2.48E-03,8.21E-03
40331,2.37E-03,9.66E-03
40332,1.98E-03,8.53E-03
40333,1.90E-03,8.15E-03
40334,1.93E-03,8.24E-03
40335,1.95E-03,8.32E-03
40336,1.97E-03,8.40E-03
40337,1.98E-03,8.47E-03
40338,2.58E-03,9.60E-03
40339,2.56E-03,9.53E-03
40340,2.53E-03,9.46E-03
40341,2.48E-03,9.40E-03
40342,2.95E-03,8.26E-03
40343,2.99E-03,8.36E-03
40344,2.88E-03,8.30E-03
40345,3.53E-03,8.29E-03
40346,3.38E-03,8.16E-03
40347,2.99E-03,8.09E-03
40348,2.44E-03,9.33E-03
40349,2.44E-03,9.19E-03
40350,2.39E-03,9.05E-03
40351,2.21E-03,8.91E-03
40352,2.10E-03,8.77E-03
40353,2.02E-03,1.00E-02
40354,1.70E-03,1.02E-02
40355,1.97E-03,1.00E-02
40356,2.05E-03,1.03E-02
40357,2.11E-03,1.01E-02
40358,2.63E-03,9.87E-03
40359,2.56E-03,9.62E-03
40360,2.49E-03,9.40E-03
40361,2.46E-03,9.22E-03
40362,2.46E-03,9.08E-03
40363,2.49E-03,8.98E-03
40364,2.52E-03,8.90E-03
40365,2.54E-03,8.85E-03
40366,2.57E-03,8.82E-03
40367,2.61E-03,8.81E-03
40368,2.08E-03,9.91E-03
40369,2.35E-03,1.01E-02
40370,2.38E-03,1.01E-02
40371,2.17E-03,9.94E-03
40372,2.25E-03,1.00E-02
40373,2.31E-03,1.01E-02
40374,2.69E-03,8.81E-03
40375,2.96E-03,8.04E-03
40376,2.80E-03,8.01E-03
40377,2.87E-03,8.76E-03
40378,2.85E-03,8.78E-03
40379,2.83E-03,8.80E-03
40380,2.79E-03,8.82E-03
40381,3.52E-03,8.99E-03
40382,3.10E-03,8.80E-03
40383,3.74E-03,8.85E-03
40384,3.37E-03,8.87E-03
40385,2.00E-03,8.25E-03
40386,2.08E-03,8.25E-03
40387,2.19E-03,8.23E-03
40388,2.25E-03,8.20E-03
40389,2.24E-03,8.15E-03
40390,2.47E-03,8.00E-03
40391,2.23E-03,8.08E-03
40392,2.19E-03,8.01E-03
40393,2.07E-03,9.88E-03
40394,2.70E-03,9.75E-03
40395,1.93E-03,8.25E-03
40396,2.01E-03,8.62E-03
40397,2.00E-03,8.56E-03
40398,2.00E-03,8.49E-03
40399,1.98E-03,8.42E-03
40400,1.97E-03,8.34E-03
40401,2.62E-03,9.68E-03
40402,2.56E-03,9.61E-03
40403,2.51E-03,9.54E-03
40404,2.47E-03,9.47E-03
40405,2.19E-03,8.08E-03
40406,2.17E-03,8.21E-03
40407,2.29E-03,8.26E-03
40408,2.32E-03,8.30E-03
40409,2.11E-03,8.34E-03
40410,2.20E-03,8.33E-03
40411,3.16E-03,8.87E-03
40412,3.78E-03,8.95E-03
40413,3.49E-03,8.95E-03
40414,2.98E-03,8.82E-03
40415,2.93E-03,8.83E-03
40416,2.88E-03,8.85E-03
40417,2.84E-03,8.86E-03
40418,2.77E-03,8.09E-03
40419,3.03E-03,8.10E-03
40420,2.74E-03,8.84E-03
40421,2.93E-03,9.13E-03
40422,3.07E-03,9.09E-03
40423,2.35E-03,1.01E-02
40424,2.37E-03,1.02E-02
40425,2.26E-03,9.99E-03
40426,2.30E-03,1.01E-02
40427,2.32E-03,1.01E-02
40428,2.23E-03,9.96E-03
40429,2.66E-03,8.83E-03
40430,2.60E-03,8.84E-03
40431,2.57E-03,8.86E-03
40432,2.54E-03,8.90E-03
40433,2.51E-03,8.96E-03
40434,2.48E-03,9.05E-03
40435,2.46E-03,9.16E-03
40436,2.47E-03,9.32E-03
40437,2.49E-03,9.50E-03
40438,2.49E-03,9.72E-03
40439,2.30E-03,9.97E-03
40440,2.20E-03,1.02E-02
40441,2.16E-03,1.04E-02
40442,2.18E-03,8.85E-03
40443,2.33E-03,8.98E-03
40444,2.45E-03,9.12E-03
40445,2.49E-03,9.26E-03
40446,3.10E-03,8.13E-03
40447,3.15E-03,8.20E-03
40448,3.50E-03,8.25E-03
40449,2.87E-03,8.45E-03
40450,3.19E-03,8.46E-03
40451,2.36E-03,1.11E-02
40452,2.38E-03,1.11E-02
40453,2.36E-03,1.11E-02
40454,2.35E-03,1.11E-02
40455,2.37E-03,1.11E-02
40456,2.37E-03,1.10E-02
40457,2.39E-03,1.10E-02
40458,2.39E-03,1.11E-02
40459,2.39E-03,9.40E-03
40460,2.64E-03,9.92E-03
40461,2.68E-03,9.83E-03
40462,2.76E-03,8.54E-03
40463,2.32E-03,8.53E-03
40464,2.87E-03,8.63E-03
40465,2.06E-03,8.71E-03
40466,2.00E-03,8.34E-03
40467,2.01E-03,8.43E-03
40468,2.02E-03,8.51E-03
40469,2.05E-03,8.58E-03
40470,2.04E-03,8.64E-03
40471,2.63E-03,8.76E-03
40472,2.74E-03,8.88E-03
40473,2.60E-03,9.75E-03
40474,2.55E-03,9.68E-03
40475,2.46E-03,9.62E-03
40476,2.32E-03,9.55E-03
40477,2.33E-03,9.47E-03
40478,2.44E-03,1.11E-02
40479,2.45E-03,1.11E-02
40480,2.31E-03,1.10E-02
40481,2.34E-03,1.10E-02
40482,2.40E-03,1.10E-02
40483,2.33E-03,1.11E-02
40484,2.95E-03,9.15E-03
40485,3.15E-03,8.98E-03
40486,3.67E-03,8.62E-03
40487,3.39E-03,8.42E-03
40488,3.31E-03,8.29E-03
40489,3.18E-03,8.22E-03
40490,2.50E-03,9.34E-03
40491,2.51E-03,9.20E-03
40492,2.43E-03,9.06E-03
40493,2.32E-03,8.92E-03
40494,2.24E-03,1.06E-02
40495,2.26E-03,1.04E-02
40496,2.28E-03,1.01E-02
40497,2.43E-03,9.83E-03
40498,2.43E-03,9.60E-03
40499,2.45E-03,9.40E-03
40500,2.46E-03,9.24E-03
40501,2.47E-03,9.11E-03
40502,2.51E-03,9.01E-03
40503,2.53E-03,8.94E-03
40504,2.56E-03,8.90E-03
40505,2.59E-03,8.87E-03
40506,2.63E-03,8.86E-03
40507,2.55E-03,1.00E-02
40508,2.34E-03,1.02E-02
40509,2.36E-03,1.03E-02
40510,2.38E-03,1.00E-02
40511,2.33E-03,1.01E-02
40512,2.32E-03,1.02E-02
40513,2.81E-03,9.22E-03
40514,2.84E-03,9.19E-03
40515,2.71E-03,8.86E-03
40516,3.18E-03,8.17E-03
40517,3.05E-03,8.15E-03
40518,2.80E-03,8.88E-03
40519,3.32E-03,9.06E-03
40520,3.31E-03,9.03E-03
40521,3.09E-03,8.88E-03
40522,3.01E-03,8.89E-03
40523,2.95E-03,8.90E-03
40524,2.91E-03,8.91E-03
40525,3.28E-03,8.95E-03
40526,2.24E-03,8.42E-03
40527,2.37E-03,8.40E-03
40528,2.41E-03,8.35E-03
40529,2.40E-03,8.30E-03
40530,2.39E-03,1.12E-02
40531,2.39E-03,1.12E-02
40532,2.19E-03,9.96E-03
40533,2.38E-03,9.88E-03
40534,2.07E-03,8.43E-03
40535,2.14E-03,8.79E-03
40536,2.12E-03,8.24E-03
40537,2.58E-03,8.16E-03
40538,1.92E-03,8.21E-03
40539,1.78E-03,8.23E-03
40540,2.10E-03,8.72E-03
40541,2.12E-03,8.66E-03
40542,2.11E-03,8.59E-03
40543,2.11E-03,8.51E-03
40544,2.54E-03,9.80E-03
40545,2.59E-03,9.74E-03
40546,2.43E-03,1.12E-02
40547,2.45E-03,1.12E-02
40548,2.52E-03,8.35E-03
40549,2.51E-03,8.40E-03
40550,2.42E-03,8.49E-03
40551,2.49E-03,8.45E-03
40552,3.17E-03,8.95E-03
40553,3.07E-03,8.95E-03
40554,2.98E-03,8.95E-03
40555,2.95E-03,8.95E-03
40556,3.24E-03,9.03E-03
40557,2.85E-03,8.91E-03
40558,2.82E-03,8.25E-03
40559,3.47E-03,8.23E-03
40560,2.76E-03,8.89E-03
40561,3.07E-03,9.15E-03
40562,3.12E-03,9.13E-03
40563,2.64E-03,9.31E-03
40564,2.70E-03,9.27E-03
40565,2.34E-03,1.03E-02
40566,2.35E-03,1.03E-02
40567,2.45E-03,1.01E-02
40568,2.28E-03,1.02E-02
40569,2.33E-03,1.02E-02
40570,2.64E-03,1.00E-02
40571,2.67E-03,8.88E-03
40572,2.62E-03,8.88E-03
40573,2.57E-03,8.90E-03
40574,2.54E-03,8.93E-03
40575,2.53E-03,8.99E-03
40576,2.48E-03,9.07E-03
40577,2.47E-03,9.18E-03
40578,2.45E-03,9.32E-03
40579,2.44E-03,9.49E-03
40580,2.42E-03,9.69E-03
40581,2.36E-03,9.92E-03
40582,2.30E-03,1.02E-02
40583,2.29E-03,1.06E-02
40584,2.27E-03,1.08E-02
40585,2.45E-03,9.00E-03
40586,2.56E-03,9.14E-03
40587,2.57E-03,9.27E-03
40588,2.11E-03,1.19E-02
40589,2.13E-03,1.19E-02
40590,3.30E-03,8.25E-03
40591,3.25E-03,8.32E-03
40592,3.33E-03,8.40E-03
40593,3.28E-03,8.61E-03
40594,3.33E-03,8.83E-03
40595,3.10E-03,9.45E-03
40596,3.07E-03,9.19E-03
40597,2.25E-03,1.10E-02
40598,2.23E-03,1.10E-02
40599,2.30E-03,1.09E-02
40600,2.37E-03,1.09E-02
40601,2.44E-03,1.10E-02
40602,2.51E-03,1.11E-02
40603,2.50E-03,1.12E-02
40604,2.40E-03,9.41E-03
40605,2.37E-03,1.11E-02
40606,2.43E-03,1.13E-02
40607,2.45E-03,1.13E-02
40608,2.17E-03,1.20E-02
40609,2.71E-03,1.15E-02
40610,2.48E-03,1.14E-02
40611,2.42E-03,1.18E-02
40612,2.25E-03,8.86E-03
40613,2.21E-03,8.51E-03
40614,1.63E-03,9.98E-03
40615,1.88E-03,9.92E-03
40616,2.36E-03,9.68E-03
40617,2.58E-03,9.86E-03
40618,2.21E-03,8.59E-03
40619,2.22E-03,8.66E-03
40620,2.24E-03,8.73E-03
40621,2.19E-03,8.80E-03
40622,2.45E-03,1.17E-02
40623,2.47E-03,1.14E-02
40624,2.47E-03,1.15E-02
40625,2.47E-03,1.16E-02
40626,2.50E-03,1.13E-02
40627,2.45E-03,1.11E-02
40628,2.73E-03,9.50E-03
40629,2.54E-03,1.12E-02
40630,2.59E-03,1.11E-02
40631,2.50E-03,1.10E-02
40632,2.43E-03,1.09E-02
40633,2.23E-03,1.09E-02
40634,2.26E-03,1.08E-02
40635,2.36E-03,1.08E-02
40636,3.06E-03,9.70E-03
40637,3.04E-03,9.45E-03
40638,3.02E-03,9.04E-03
40639,3.21E-03,8.73E-03
40640,3.38E-03,8.54E-03
40641,3.28E-03,8.41E-03
40642,3.30E-03,8.33E-03
40643,3.01E-03,1.11E-02
40644,2.73E-03,1.11E-02
40645,2.68E-03,9.35E-03
40646,2.66E-03,9.21E-03
40647,2.59E-03,9.07E-03
40648,2.32E-03,1.10E-02
40649,2.35E-03,1.07E-02
40650,2.32E-03,1.03E-02
40651,2.37E-03,1.00E-02
40652,2.40E-03,9.78E-03
40653,2.42E-03,9.56E-03
40654,2.45E-03,9.38E-03
40655,2.47E-03,9.24E-03
40656,2.48E-03,9.12E-03
40657,2.50E-03,9.03E-03
40658,2.54E-03,8.96E-03
40659,2.56E-03,8.92E-03
40660,2.59E-03,8.90E-03
40661,2.64E-03,8.89E-03
40662,2.56E-03,1.18E-02
40663,2.62E-03,1.13E-02
40664,1.72E-03,9.97E-03
40665,1.90E-03,1.00E-02
40666,2.23E-03,1.01E-02
40667,2.32E-03,1.03E-02
40668,2.34E-03,1.04E-02
40669,2.16E-03,1.01E-02
40670,2.12E-03,1.02E-02
40671,2.24E-03,1.03E-02
40672,2.45E-03,9.38E-03
40673,2.49E-03,9.35E-03
40674,2.81E-03,9.24E-03
40675,2.96E-03,9.22E-03
40676,2.71E-03,8.90E-03
40677,3.38E-03,8.29E-03
40678,3.45E-03,8.27E-03
40679,2.80E-03,8.92E-03
40680,3.16E-03,9.11E-03
40681,2.90E-03,8.95E-03
40682,3.19E-03,9.02E-03
40683,3.17E-03,9.01E-03
40684,3.09E-03,9.01E-03
40685,2.98E-03,9.00E-03
40686,2.61E-03,8.54E-03
40687,2.70E-03,8.48E-03
40688,2.39E-03,1.10E-02
40689,2.47E-03,1.12E-02
40690,2.39E-03,8.58E-03
40691,2.39E-03,8.94E-03
40692,2.51E-03,1.13E-02
40693,2.48E-03,1.14E-02
40694,2.83E-03,8.42E-03
40695,3.11E-03,8.33E-03
40696,3.78E-03,8.42E-03
40697,2.51E-03,1.14E-02
40698,2.35E-03,8.87E-03
40699,2.41E-03,8.80E-03
40700,2.41E-03,8.73E-03
40701,2.40E-03,8.66E-03
40702,2.53E-03,1.12E-02
40703,2.49E-03,1.10E-02
40704,2.79E-03,8.57E-03
40705,2.92E-03,9.00E-03
40706,3.19E-03,9.09E-03
40707,3.16E-03,9.08E-03
40708,3.12E-03,9.07E-03
40709,3.04E-03,9.06E-03
40710,2.83E-03,8.95E-03
40711,3.58E-03,8.33E-03
40712,2.77E-03,8.92E-03
40713,3.08E-03,9.19E-03
40714,2.61E-03,9.33E-03
40715,2.87E-03,9.31E-03
40716,2.31E-03,1.03E-02
40717,2.34E-03,1.04E-02
40718,1.40E-03,1.02E-02
40719,2.12E-03,1.02E-02
40720,2.26E-03,1.03E-02
40721,1.41E-03,1.01E-02
40722,2.12E-03,1.01E-02
40723,2.07E-03,1.00E-02
40724,2.30E-03,9.92E-03
40725,2.53E-03,1.17E-02
40726,2.53E-03,1.13E-02
40727,2.66E-03,1.10E-02
40728,2.68E-03,8.90E-03
40729,2.61E-03,8.90E-03
40730,2.57E-03,8.91E-03
40731,2.55E-03,8.94E-03
40732,2.51E-03,8.99E-03
40733,2.50E-03,9.07E-03
40734,2.48E-03,9.17E-03
40735,2.47E-03,9.29E-03
40736,2.46E-03,9.45E-03
40737,2.42E-03,9.64E-03
40738,2.39E-03,9.86E-03
40739,2.38E-03,1.01E-02
40740,2.37E-03,1.05E-02
40741,2.74E-03,9.15E-03
40742,2.78E-03,9.29E-03
40743,2.81E-03,1.08E-02
40744,2.79E-03,1.08E-02
40745,2.73E-03,1.09E-02
40746,3.36E-03,8.35E-03
40747,3.26E-03,8.42E-03
40748,3.22E-03,8.52E-03
40749,3.24E-03,8.71E-03
40750,3.12E-03,8.93E-03
40751,3.02E-03,9.27E-03
40752,3.05E-03,1.00E-02
40753,3.02E-03,9.71E-03
40754,1.89E-03,1.08E-02
40755,2.28E-03,1.07E-02
40756,2.42E-03,1.07E-02
40757,2.44E-03,1.08E-02
40758,2.47E-03,1.09E-02
40759,2.58E-03,1.10E-02
40760,2.57E-03,1.13E-02
40761,2.63E-03,1.12E-02
40762,2.72E-03,9.44E-03
40763,2.60E-03,9.61E-03
40764,2.42E-03,1.09E-02
40765,2.53E-03,1.10E-02
40766,2.23E-03,9.46E-03
40767,2.12E-03,9.42E-03
40768,2.84E-03,8.51E-03
40769,2.55E-03,1.12E-02
40770,2.59E-03,1.11E-02
40771,2.40E-03,1.09E-02
40772,2.39E-03,1.12E-02
40773,2.59E-03,9.01E-03
40774,2.60E-03,8.63E-03
40775,2.67E-03,8.71E-03
40776,2.66E-03,8.79E-03
40777,2.64E-03,8.87E-03
40778,2.60E-03,8.94E-03
40779,2.44E-03,1.14E-02
40780,2.48E-03,1.17E-02
40781,2.46E-03,1.16E-02
40782,2.54E-03,1.12E-02
40783,3.29E-03,8.51E-03
40784,1.94E-03,5.30E-03
40785,1.64E-03,5.40E-03
40786,1.76E-03,9.50E-03
40787,2.09E-03,9.55E-03
40788,2.56E-03,1.10E-02
40789,2.58E-03,1.09E-02
40790,3.12E-03,9.71E-03
40791,2.92E-03,9.54E-03
40792,2.58E-03,1.13E-02
40793,2.61E-03,1.11E-02
40794,2.54E-03,1.09E-02
40795,2.48E-03,1.08E-02
40796,2.45E-03,1.07E-02
40797,2.26E-03,1.07E-02
40798,2.40E-03,1.06E-02
40799,2.46E-03,1.06E-02
40800,2.94E-03,1.03E-02
40801,3.03E-03,9.99E-03
40802,2.99E-03,9.51E-03
40803,3.02E-03,9.13E-03
40804,3.06E-03,8.84E-03
40805,3.11E-03,8.64E-03
40806,3.21E-03,8.51E-03
40807,3.30E-03,8.42E-03
40808,2.76E-03,1.06E-02
40809,2.72E-03,1.06E-02
40810,2.92E-03,9.38E-03
40811,2.91E-03,9.22E-03
40812,2.44E-03,1.06E-02
40813,2.42E-03,1.02E-02
40814,2.42E-03,9.95E-03
40815,2.42E-03,9.71E-03
40816,2.46E-03,9.51E-03
40817,2.47E-03,9.34E-03
40818,2.48E-03,9.21E-03
40819,2.49E-03,9.10E-03
40820,2.51E-03,9.02E-03
40821,2.53E-03,8.97E-03
40822,2.55E-03,8.93E-03
40823,2.61E-03,8.91E-03
40824,2.66E-03,8.91E-03
40825,2.76E-03,1.05E-02
40826,2.69E-03,1.07E-02
40827,2.55E-03,1.09E-02
40828,3.05E-03,9.85E-03
40829,2.43E-03,9.98E-03
40830,2.31E-03,1.01E-02
40831,1.92E-03,1.01E-02
40832,2.31E-03,1.04E-02
40833,2.37E-03,1.04E-02
40834,1.50E-03,1.02E-02
40835,2.26E-03,1.03E-02
40836,2.32E-03,1.03E-02
40837,3.02E-03,9.29E-03
40838,2.71E-03,8.92E-03
40839,3.40E-03,8.38E-03
40840,3.61E-03,8.38E-03
40841,2.78E-03,8.95E-03
40842,3.22E-03,9.17E-03
40843,3.21E-03,9.15E-03
40844,3.16E-03,9.13E-03
40845,3.06E-03,9.11E-03
40846,2.89E-03,8.99E-03
40847,2.98E-03,9.04E-03
40848,2.86E-03,1.07E-02
40849,2.60E-03,1.08E-02
40850,1.50E-03,5.32E-03
40851,2.89E-03,8.67E-03
40852,2.80E-03,9.08E-03
40853,2.29E-03,9.40E-03
40854,2.70E-03,9.41E-03
40855,2.49E-03,1.13E-02
40856,2.44E-03,1.11E-02
40857,2.59E-03,1.10E-02
40858,2.67E-03,1.09E-02
40859,1.79E-03,9.58E-03
40860,3.06E-03,8.59E-03
40861,2.15E-03,9.57E-03
40862,3.20E-03,8.60E-03
40863,1.81E-03,9.63E-03
40864,2.59E-03,1.09E-02
40865,2.46E-03,1.12E-02
40866,2.92E-03,9.00E-03
40867,2.95E-03,8.92E-03
40868,3.02E-03,8.85E-03
40869,3.02E-03,8.76E-03
40870,2.03E-03,9.63E-03
40871,1.79E-03,5.37E-03
40872,2.59E-03,1.08E-02
40873,2.73E-03,1.07E-02
40874,3.57E-03,8.50E-03
40875,2.90E-03,9.03E-03
40876,2.97E-03,9.09E-03
40877,2.81E-03,8.98E-03
40878,3.52E-03,8.44E-03
40879,3.42E-03,8.42E-03
40880,2.72E-03,8.94E-03
40881,3.19E-03,9.26E-03
40882,3.22E-03,9.23E-03
40883,3.19E-03,9.20E-03
40884,3.16E-03,9.17E-03
40885,2.37E-03,1.04E-02
40886,2.39E-03,1.05E-02
40887,2.43E-03,1.02E-02
40888,2.35E-03,1.03E-02
40889,2.39E-03,1.03E-02
40890,2.43E-03,1.01E-02
40891,2.64E-03,1.00E-02
40892,2.85E-03,9.93E-03
40893,2.62E-03,1.06E-02
40894,2.69E-03,1.04E-02
40895,2.68E-03,8.92E-03
40896,2.62E-03,8.91E-03
40897,2.57E-03,8.92E-03
40898,2.54E-03,8.94E-03
40899,2.52E-03,8.99E-03
40900,2.51E-03,9.05E-03
40901,2.49E-03,9.14E-03
40902,2.48E-03,9.25E-03
40903,2.47E-03,9.39E-03
40904,2.47E-03,9.57E-03
40905,2.44E-03,9.78E-03
40906,2.46E-03,1.04E-02
40907,2.45E-03,1.00E-02
40908,3.06E-03,9.30E-03
40909,2.72E-03,1.03E-02
40910,2.71E-03,1.03E-02
40911,2.71E-03,1.04E-02
40912,2.09E-03,5.25E-03
40913,1.84E-03,5.32E-03
40914,1.71E-03,5.40E-03
40915,3.34E-03,8.44E-03
40916,3.23E-03,8.50E-03
40917,3.10E-03,8.61E-03
40918,3.02E-03,8.78E-03
40919,2.97E-03,9.02E-03
40920,2.96E-03,9.34E-03
40921,3.00E-03,9.76E-03
40922,2.93E-03,1.05E-02
40923,1.79E-03,1.07E-02
40924,3.14E-03,1.05E-02
40925,2.57E-03,1.05E-02
40926,2.51E-03,1.04E-02
40927,2.47E-03,1.05E-02
40928,2.47E-03,1.06E-02
40929,2.52E-03,1.08E-02
40930,2.60E-03,1.09E-02
40931,2.78E-03,1.11E-02
40932,2.66E-03,1.16E-02
40933,3.01E-03,9.47E-03
40934,3.43E-03,9.79E-03
40935,3.02E-03,9.65E-03
40936,3.23E-03,1.05E-02
40937,2.63E-03,1.07E-02
40938,1.69E-03,5.21E-03
40939,1.52E-03,5.28E-03
40940,2.62E-03,1.08E-02
40941,2.68E-03,1.07E-02
40942,2.52E-03,1.09E-02
40943,2.47E-03,1.07E-02
40944,2.98E-03,9.38E-03
40945,3.06E-03,9.14E-03
40946,3.23E-03,8.68E-03
40947,3.27E-03,8.78E-03
40948,3.15E-03,9.07E-03
40949,3.70E-03,9.47E-03
40950,2.49E-03,1.08E-02
40951,2.62E-03,1.07E-02
40952,2.24E-03,5.37E-03
40953,2.05E-03,9.68E-03
40954,1.83E-03,5.42E-03
40955,2.61E-03,1.06E-02
40956,2.75E-03,1.05E-02
40957,3.14E-03,9.74E-03
40958,3.13E-03,9.57E-03
40959,2.62E-03,1.14E-02
40960,2.92E-03,1.11E-02
40961,2.62E-03,1.09E-02
40962,2.55E-03,1.08E-02
40963,2.48E-03,1.06E-02
40964,2.48E-03,1.05E-02
40965,2.50E-03,1.04E-02
40966,2.81E-03,1.04E-02
40967,2.68E-03,1.03E-02
40968,2.57E-03,1.03E-02
40969,2.87E-03,9.98E-03
40970,2.90E-03,9.54E-03
40971,2.93E-03,9.19E-03
40972,2.93E-03,8.92E-03
40973,3.00E-03,8.73E-03
40974,3.14E-03,8.59E-03
40975,3.26E-03,8.50E-03
40976,2.15E-03,5.32E-03
40977,2.15E-03,5.41E-03
40978,2.23E-03,5.25E-03
40979,2.34E-03,5.20E-03
40980,2.35E-03,5.34E-03
40981,2.25E-03,5.25E-03
40982,2.22E-03,5.17E-03
40983,2.45E-03,5.30E-03
40984,2.69E-03,1.01E-02
40985,2.70E-03,1.02E-02
40986,3.13E-03,9.39E-03
40987,3.27E-03,9.22E-03
40988,2.47E-03,1.01E-02
40989,2.46E-03,9.85E-03
40990,2.47E-03,9.62E-03
40991,2.48E-03,9.44E-03
40992,2.48E-03,9.29E-03
40993,2.49E-03,9.17E-03
40994,2.50E-03,9.07E-03
40995,2.52E-03,9.00E-03
40996,2.53E-03,8.95E-03
40997,2.55E-03,8.92E-03
40998,2.58E-03,8.91E-03
40999,2.65E-03,8.92E-03
41000,2.71E-03,1.01E-02
41001,2.69E-03,1.02E-02
41002,2.64E-03,1.04E-02
41003,3.08E-03,9.87E-03
41004,2.83E-03,1.00E-02
41005,2.42E-03,1.04E-02
41006,2.44E-03,1.05E-02
41007,2.90E-03,1.02E-02
41008,2.88E-03,1.03E-02
41009,2.46E-03,1.04E-02
41010,3.30E-03,9.35E-03
41011,3.28E-03,9.31E-03
41012,3.23E-03,9.27E-03
41013,3.18E-03,9.23E-03
41014,2.69E-03,8.93E-03
41015,3.35E-03,8.46E-03
41016,3.41E-03,8.46E-03
41017,2.75E-03,8.97E-03
41018,3.02E-03,9.14E-03
41019,3.47E-03,8.68E-03
41020,2.85E-03,9.01E-03
41021,2.92E-03,9.07E-03
41022,3.36E-03,8.59E-03
41023,3.47E-03,8.49E-03
41024,2.53E-03,1.17E-02
41025,2.81E-03,1.04E-02
41026,2.67E-03,1.05E-02
41027,2.55E-03,1.06E-02
41028,2.48E-03,1.04E-02
41029,2.63E-03,1.06E-02
41030,2.69E-03,1.05E-02
41031,2.12E-03,1.09E-02
41032,2.00E-03,1.12E-02
41033,2.64E-03,1.05E-02
41034,2.52E-03,1.05E-02
41035,2.64E-03,1.04E-02
41036,2.73E-03,1.03E-02
41037,2.60E-03,1.18E-02
41038,3.51E-03,8.57E-03
41039,2.86E-03,9.04E-03
41040,3.47E-03,8.67E-03
41041,2.95E-03,9.11E-03
41042,2.77E-03,8.99E-03
41043,3.47E-03,8.51E-03
41044,3.35E-03,8.49E-03
41045,2.72E-03,8.95E-03
41046,3.09E-03,9.19E-03
41047,2.47E-03,1.04E-02
41048,2.53E-03,1.05E-02
41049,2.33E-03,1.03E-02
41050,2.46E-03,1.03E-02
41051,3.30E-03,1.02E-02
41052,3.04E-03,9.96E-03
41053,3.61E-03,9.44E-03
41054,3.40E-03,9.39E-03
41055,3.30E-03,9.34E-03
41056,3.23E-03,9.29E-03
41057,2.66E-03,1.01E-02
41058,2.69E-03,9.99E-03
41059,2.66E-03,8.92E-03
41060,2.60E-03,8.91E-03
41061,2.56E-03,8.91E-03
41062,2.54E-03,8.93E-03
41063,2.53E-03,8.96E-03
41064,2.51E-03,9.02E-03
41065,2.50E-03,9.10E-03
41066,2.49E-03,9.20E-03
41067,2.48E-03,9.33E-03
41068,2.48E-03,9.48E-03
41069,2.49E-03,9.91E-03
41070,2.48E-03,9.68E-03
41071,3.25E-03,9.31E-03
41072,3.39E-03,9.13E-03
41073,3.54E-03,8.78E-03
41074,2.71E-03,9.88E-03
41075,2.68E-03,9.95E-03
41076,2.69E-03,1.00E-02
41077,2.37E-03,5.18E-03
41078,2.37E-03,5.12E-03
41079,2.28E-03,5.13E-03
41080,2.32E-03,5.20E-03
41081,2.31E-03,5.37E-03
41082,2.32E-03,5.30E-03
41083,2.41E-03,5.44E-03
41084,2.19E-03,5.18E-03
41085,1.90E-03,5.36E-03
41086,2.04E-03,1.14E-02
41087,2.05E-03,1.17E-02
41088,2.38E-03,5.44E-03
41089,2.49E-03,5.51E-03
41090,3.26E-03,8.51E-03
41091,3.22E-03,8.57E-03
41092,3.01E-03,8.69E-03
41093,2.93E-03,8.85E-03
41094,2.89E-03,9.07E-03
41095,2.85E-03,9.37E-03
41096,2.85E-03,9.74E-03
41097,2.67E-03,1.02E-02
41098,2.47E-03,1.06E-02
41099,2.11E-03,1.11E-02
41100,2.70E-03,1.02E-02
41101,2.63E-03,1.02E-02
41102,2.58E-03,1.02E-02
41103,2.51E-03,1.03E-02
41104,2.50E-03,1.04E-02
41105,2.47E-03,1.05E-02
41106,2.49E-03,1.06E-02
41107,2.53E-03,1.07E-02
41108,2.59E-03,1.09E-02
41109,2.64E-03,1.11E-02
41110,2.70E-03,1.14E-02
41111,2.59E-03,1.14E-02
41112,3.17E-03,9.48E-03
41113,3.14E-03,9.81E-03
41114,3.14E-03,9.66E-03
41115,2.70E-03,1.02E-02
41116,2.67E-03,1.03E-02
41117,2.47E-03,9.72E-03
41118,3.36E-03,9.63E-03
41119,2.60E-03,1.04E-02
41120,2.69E-03,1.03E-02
41121,2.61E-03,1.03E-02
41122,2.49E-03,1.02E-02
41123,2.54E-03,1.02E-02
41124,2.66E-03,1.03E-02
41125,5.03E-03,9.54E-03
41126,2.01E-03,1.19E-02
41127,2.64E-03,1.03E-02
41128,2.69E-03,1.02E-02
41129,3.19E-03,9.75E-03
41130,3.21E-03,9.58E-03
41131,2.66E-03,1.19E-02
41132,2.55E-03,1.15E-02
41133,2.66E-03,1.11E-02
41134,2.59E-03,1.11E-02
41135,2.58E-03,1.09E-02
41136,2.53E-03,1.07E-02
41137,2.49E-03,1.06E-02
41138,2.48E-03,1.04E-02
41139,2.47E-03,1.03E-02
41140,2.49E-03,1.02E-02
41141,2.52E-03,1.01E-02
41142,2.13E-03,1.13E-02
41143,2.37E-03,1.08E-02
41144,2.58E-03,1.03E-02
41145,2.64E-03,9.91E-03
41146,2.77E-03,9.54E-03
41147,2.81E-03,9.22E-03
41148,2.88E-03,8.98E-03
41149,2.92E-03,8.79E-03
41150,3.08E-03,8.66E-03
41151,3.18E-03,8.57E-03
41152,2.54E-03,5.61E-03
41153,2.49E-03,5.54E-03
41154,2.37E-03,5.38E-03
41155,2.36E-03,5.25E-03
41156,2.36E-03,5.15E-03
41157,2.42E-03,5.08E-03
41158,2.43E-03,5.13E-03
41159,2.50E-03,5.06E-03
41160,1.64E-03,5.37E-03
41161,2.10E-03,5.13E-03
41162,2.67E-03,9.78E-03
41163,2.68E-03,9.85E-03
41164,3.97E-03,8.88E-03
41165,3.90E-03,9.04E-03
41166,3.25E-03,9.40E-03
41167,3.46E-03,9.22E-03
41168,2.49E-03,9.73E-03
41169,2.49E-03,9.53E-03
41170,2.49E-03,9.36E-03
41171,2.49E-03,9.22E-03
41172,2.50E-03,9.12E-03
41173,2.51E-03,9.03E-03
41174,2.52E-03,8.97E-03
41175,2.54E-03,8.93E-03
41176,2.55E-03,8.91E-03
41177,2.58E-03,8.90E-03
41178,2.61E-03,8.91E-03
41179,2.70E-03,9.71E-03
41180,2.68E-03,9.81E-03
41181,2.66E-03,9.93E-03
41182,4.14E-03,9.47E-03
41183,3.53E-03,9.41E-03
41184,3.31E-03,9.36E-03
41185,3.21E-03,1.00E-02
41186,3.18E-03,9.89E-03
41187,2.39E-03,1.02E-02
41188,3.13E-03,1.01E-02
41189,2.55E-03,1.04E-02
41190,2.64E-03,1.05E-02
41191,2.02E-03,1.03E-02
41192,2.61E-03,1.03E-02
41193,3.10E-03,9.25E-03
41194,2.67E-03,8.94E-03
41195,2.62E-03,1.00E-02
41196,2.58E-03,1.00E-02
41197,2.55E-03,1.00E-02
41198,3.27E-03,8.53E-03
41199,3.34E-03,8.53E-03
41200,2.73E-03,8.97E-03
41201,3.02E-03,9.16E-03
41202,3.62E-03,8.76E-03
41203,2.81E-03,9.02E-03
41204,2.89E-03,9.08E-03
41205,3.46E-03,8.65E-03
41206,3.43E-03,8.56E-03
41207,2.64E-03,1.00E-02
41208,2.67E-03,1.01E-02
41209,2.61E-03,1.01E-02
41210,2.49E-03,9.97E-03
41211,2.61E-03,1.02E-02
41212,2.67E-03,1.01E-02
41213,4.10E-03,9.64E-03
41214,2.66E-03,1.01E-02
41215,2.54E-03,1.00E-02
41216,1.85E-03,1.22E-02
41217,2.64E-03,1.01E-02
41218,2.62E-03,9.99E-03
41219,3.38E-03,8.63E-03
41220,2.81E-03,9.05E-03
41221,3.49E-03,8.73E-03
41222,2.93E-03,9.12E-03
41223,2.74E-03,9.00E-03
41224,3.34E-03,8.57E-03
41225,3.29E-03,8.55E-03
41226,2.54E-03,9.89E-03
41227,2.52E-03,9.89E-03
41228,2.51E-03,9.87E-03
41229,2.69E-03,8.95E-03
41230,3.04E-03,9.21E-03
41231,2.88E-03,1.04E-02
41232,3.03E-03,1.04E-02
41233,3.50E-03,1.02E-02
41234,2.42E-03,1.02E-02
41235,2.10E-03,1.03E-02
41236,3.22E-03,9.97E-03
41237,3.11E-03,9.31E-03
41238,3.82E-03,9.55E-03
41239,3.49E-03,9.48E-03
41240,3.30E-03,9.42E-03
41241,2.66E-03,9.75E-03
41242,2.66E-03,9.64E-03
41243,2.63E-03,8.92E-03
41244,2.59E-03,8.90E-03
41245,2.55E-03,8.89E-03
41246,2.54E-03,8.90E-03
41247,2.53E-03,8.93E-03
41248,2.52E-03,8.98E-03
41249,2.51E-03,9.05E-03
41250,2.50E-03,9.14E-03
41251,2.49E-03,9.25E-03
41252,2.49E-03,9.57E-03
41253,2.49E-03,9.39E-03
41254,3.32E-03,9.32E-03
41255,3.53E-03,9.14E-03
41256,4.12E-03,8.97E-03
41257,3.66E-03,8.84E-03
41258,2.68E-03,9.56E-03
41259,2.66E-03,9.63E-03
41260,2.67E-03,9.69E-03
41261,1.93E-03,5.20E-03
41262,2.76E-03,5.03E-03
41263,2.59E-03,4.97E-03
41264,2.47E-03,5.02E-03
41265,2.41E-03,5.10E-03
41266,2.37E-03,5.20E-03
41267,2.38E-03,5.33E-03
41268,2.45E-03,5.48E-03
41269,2.51E-03,5.66E-03
41270,2.54E-03,5.72E-03
41271,3.19E-03,8.57E-03
41272,3.05E-03,8.63E-03
41273,2.95E-03,8.74E-03
41274,2.85E-03,8.90E-03
41275,2.80E-03,9.10E-03
41276,2.74E-03,9.37E-03
41277,2.68E-03,9.69E-03
41278,2.59E-03,1.01E-02
41279,2.45E-03,1.05E-02
41280,2.25E-03,1.09E-02
41281,2.12E-03,1.15E-02
41282,2.52E-03,9.98E-03
41283,2.49E-03,1.01E-02
41284,2.47E-03,1.02E-02
41285,2.47E-03,1.03E-02
41286,2.48E-03,1.04E-02
41287,2.50E-03,1.05E-02
41288,2.55E-03,1.07E-02
41289,2.59E-03,1.09E-02
41290,2.56E-03,1.08E-02
41291,2.53E-03,1.11E-02
41292,2.81E-03,1.20E-02
41293,2.42E-03,1.15E-02
41294,3.24E-03,9.50E-03
41295,3.22E-03,9.82E-03
41296,3.19E-03,9.67E-03
41297,3.33E-03,1.01E-02
41298,2.57E-03,9.87E-03
41299,2.62E-03,9.96E-03
41300,1.79E-03,1.19E-02
41301,1.74E-03,1.23E-02
41302,2.60E-03,1.00E-02
41303,2.66E-03,9.91E-03
41304,2.62E-03,9.87E-03
41305,2.50E-03,9.77E-03
41306,2.57E-03,9.82E-03
41307,2.64E-03,9.97E-03
41308,1.81E-03,1.24E-02
41309,2.62E-03,9.91E-03
41310,2.59E-03,9.84E-03
41311,3.64E-03,1.01E-02
41312,3.23E-03,9.75E-03
41313,3.24E-03,9.59E-03
41314,2.38E-03,1.15E-02
41315,2.48E-03,1.11E-02
41316,2.52E-03,1.08E-02
41317,2.55E-03,1.06E-02
41318,2.55E-03,1.06E-02
41319,2.50E-03,1.05E-02
41320,2.49E-03,1.03E-02
41321,2.48E-03,1.02E-02
41322,2.47E-03,1.01E-02
41323,2.48E-03,1.00E-02
41324,2.47E-03,9.93E-03
41325,2.23E-03,1.11E-02
41326,2.39E-03,1.06E-02
41327,2.50E-03,1.02E-02
41328,2.63E-03,9.82E-03
41329,2.68E-03,9.50E-03
41330,2.74E-03,9.22E-03
41331,2.82E-03,9.00E-03
41332,2.86E-03,8.83E-03
41333,2.95E-03,8.71E-03
41334,3.12E-03,8.62E-03
41335,2.53E-03,5.84E-03
41336,2.53E-03,5.79E-03
41337,2.54E-03,5.98E-03
41338,2.53E-03,5.93E-03
41339,2.47E-03,5.61E-03
41340,2.43E-03,5.44E-03
41341,2.39E-03,5.28E-03
41342,2.39E-03,5.15E-03
41343,2.43E-03,5.05E-03
41344,2.49E-03,4.96E-03
41345,2.66E-03,9.48E-03
41346,2.65E-03,9.54E-03
41347,3.68E-03,8.93E-03
41348,3.60E-03,9.07E-03
41349,3.28E-03,9.41E-03
41350,3.43E-03,9.24E-03
41351,2.49E-03,9.43E-03
41352,2.49E-03,9.28E-03
41353,2.50E-03,9.15E-03
41354,2.51E-03,9.06E-03
41355,2.52E-03,8.98E-03
41356,2.53E-03,8.93E-03
41357,2.54E-03,8.90E-03
41358,2.55E-03,8.88E-03
41359,2.56E-03,8.88E-03
41360,2.61E-03,8.90E-03
41361,2.67E-03,9.42E-03
41362,2.65E-03,9.50E-03
41363,2.65E-03,9.59E-03
41364,3.48E-03,9.72E-03
41365,3.41E-03,9.62E-03
41366,3.30E-03,9.54E-03
41367,3.22E-03,9.48E-03
41368,3.13E-03,9.36E-03
41369,3.34E-03,1.00E-02
41370,3.23E-03,9.90E-03
41371,3.86E-03,1.04E-02
41372,2.31E-03,1.02E-02
41373,3.05E-03,9.26E-03
41374,2.64E-03,8.93E-03
41375,2.83E-03,5.06E-03
41376,2.91E-03,4.96E-03
41377,2.73E-03,4.89E-03
41378,2.49E-03,9.84E-03
41379,3.23E-03,8.58E-03
41380,2.49E-03,9.74E-03
41381,2.47E-03,9.74E-03
41382,2.47E-03,9.73E-03
41383,3.31E-03,8.58E-03
41384,2.71E-03,8.97E-03
41385,2.94E-03,9.17E-03
41386,3.54E-03,8.80E-03
41387,2.77E-03,9.02E-03
41388,2.84E-03,9.09E-03
41389,3.44E-03,8.70E-03
41390,3.35E-03,8.61E-03
41391,2.53E-03,9.72E-03
41392,2.61E-03,9.79E-03
41393,2.61E-03,9.69E-03
41394,2.50E-03,9.61E-03
41395,2.58E-03,9.86E-03
41396,2.66E-03,9.75E-03
41397,2.20E-03,1.16E-02
41398,1.67E-03,1.18E-02
41399,2.20E-03,1.18E-02
41400,2.63E-03,9.81E-03
41401,2.56E-03,9.65E-03
41402,3.00E-03,9.89E-03
41403,2.60E-03,9.75E-03
41404,2.57E-03,9.68E-03
41405,3.37E-03,8.67E-03
41406,2.76E-03,9.05E-03
41407,3.47E-03,8.76E-03
41408,2.87E-03,9.12E-03
41409,2.72E-03,8.99E-03
41410,3.33E-03,8.61E-03
41411,2.41E-03,9.61E-03
41412,2.41E-03,9.61E-03
41413,2.43E-03,9.60E-03
41414,3.25E-03,8.59E-03
41415,2.45E-03,9.70E-03
41416,2.86E-03,4.93E-03
41417,2.77E-03,4.80E-03
41418,2.71E-03,4.79E-03
41419,2.66E-03,8.94E-03
41420,2.96E-03,9.21E-03
41421,3.97E-03,1.03E-02
41422,3.22E-03,9.96E-03
41423,3.07E-03,9.31E-03
41424,3.10E-03,9.42E-03
41425,2.99E-03,9.79E-03
41426,3.09E-03,9.69E-03
41427,3.17E-03,9.61E-03
41428,3.15E-03,9.54E-03
41429,2.64E-03,9.44E-03
41430,2.63E-03,9.37E-03
41431,2.65E-03,9.30E-03
41432,2.61E-03,8.90E-03
41433,2.57E-03,8.88E-03
41434,2.55E-03,8.87E-03
41435,2.54E-03,8.87E-03
41436,2.53E-03,8.89E-03
41437,2.52E-03,8.93E-03
41438,2.51E-03,8.99E-03
41439,2.50E-03,9.07E-03
41440,2.50E-03,9.30E-03
41441,2.50E-03,9.17E-03
41442,3.36E-03,9.33E-03
41443,3.46E-03,9.17E-03
41444,3.60E-03,9.01E-03
41445,3.47E-03,8.88E-03
41446,2.63E-03,9.35E-03
41447,2.64E-03,9.41E-03
41448,2.63E-03,4.90E-03
41449,2.48E-03,5.00E-03
41450,2.42E-03,5.12E-03
41451,2.39E-03,5.25E-03
41452,2.42E-03,5.39E-03
41453,2.45E-03,5.56E-03
41454,2.50E-03,5.74E-03
41455,2.51E-03,5.89E-03
41456,2.55E-03,6.13E-03
41457,2.52E-03,6.08E-03
41458,3.15E-03,8.62E-03
41459,3.01E-03,8.68E-03
41460,2.89E-03,8.78E-03
41461,2.82E-03,8.92E-03
41462,2.74E-03,9.11E-03
41463,2.68E-03,9.34E-03
41464,2.62E-03,9.62E-03
41465,2.55E-03,9.94E-03
41466,2.46E-03,1.03E-02
41467,2.34E-03,1.07E-02
41468,2.47E-03,9.80E-03
41469,2.47E-03,9.89E-03
41470,2.46E-03,9.98E-03
41471,2.47E-03,1.01E-02
41472,2.48E-03,1.02E-02
41473,2.49E-03,1.03E-02
41474,2.51E-03,1.04E-02
41475,2.51E-03,1.04E-02
41476,2.52E-03,1.05E-02
41477,2.47E-03,1.10E-02
41478,2.51E-03,1.08E-02
41479,3.28E-03,9.50E-03
41480,3.22E-03,9.82E-03
41481,3.23E-03,9.67E-03
41482,2.98E-03,1.02E-02
41483,3.22E-03,1.01E-02
41484,2.47E-03,9.58E-03
41485,2.59E-03,9.64E-03
41486,2.25E-03,1.12E-02
41487,2.43E-03,1.14E-02
41488,2.57E-03,9.70E-03
41489,2.63E-03,9.60E-03
41490,2.61E-03,9.54E-03
41491,2.50E-03,9.46E-03
41492,2.56E-03,9.49E-03
41493,2.62E-03,9.65E-03
41494,2.25E-03,1.13E-02
41495,2.59E-03,9.60E-03
41496,2.55E-03,9.54E-03
41497,3.25E-03,1.01E-02
41498,3.20E-03,9.74E-03
41499,3.24E-03,9.59E-03
41500,2.49E-03,1.07E-02
41501,2.51E-03,1.05E-02
41502,2.51E-03,1.03E-02
41503,2.50E-03,1.02E-02
41504,2.50E-03,1.02E-02
41505,2.49E-03,1.01E-02
41506,2.48E-03,1.00E-02
41507,2.47E-03,9.92E-03
41508,2.46E-03,9.84E-03
41509,2.44E-03,9.75E-03
41510,2.43E-03,1.04E-02
41511,2.51E-03,1.00E-02
41512,2.58E-03,9.72E-03
41513,2.63E-03,9.44E-03
41514,2.68E-03,9.20E-03
41515,2.76E-03,9.01E-03
41516,2.85E-03,8.86E-03
41517,2.91E-03,8.74E-03
41518,3.03E-03,8.66E-03
41519,2.56E-03,6.24E-03
41520,2.56E-03,6.29E-03
41521,2.52E-03,6.04E-03
41522,2.47E-03,5.70E-03
41523,2.50E-03,5.85E-03
41524,2.43E-03,5.53E-03
41525,2.41E-03,5.36E-03
41526,2.42E-03,5.21E-03
41527,2.47E-03,5.08E-03
41528,2.56E-03,4.95E-03
41529,2.62E-03,9.23E-03
41530,2.63E-03,9.28E-03
41531,3.54E-03,8.95E-03
41532,3.47E-03,9.10E-03
41533,3.30E-03,9.42E-03
41534,3.35E-03,9.26E-03
41535,2.50E-03,9.19E-03
41536,2.50E-03,9.08E-03
41537,2.51E-03,9.00E-03
41538,2.52E-03,8.93E-03
41539,2.53E-03,8.89E-03
41540,2.54E-03,8.86E-03
41541,2.55E-03,8.85E-03
41542,2.56E-03,8.86E-03
41543,2.57E-03,8.88E-03
41544,2.63E-03,9.18E-03
41545,2.62E-03,9.24E-03
41546,2.63E-03,9.31E-03
41547,2.62E-03,9.94E-03
41548,2.58E-03,9.86E-03
41549,2.97E-03,9.77E-03
41550,2.99E-03,9.68E-03
41551,3.13E-03,9.61E-03
41552,3.11E-03,9.48E-03
41553,3.03E-03,9.36E-03
41554,3.21E-03,1.00E-02
41555,3.18E-03,9.89E-03
41556,3.16E-03,1.02E-02
41557,3.28E-03,1.02E-02
41558,2.97E-03,9.26E-03
41559,2.64E-03,8.91E-03
41560,2.64E-03,4.83E-03
41561,2.45E-03,9.66E-03
41562,3.19E-03,8.62E-03
41563,2.43E-03,9.57E-03
41564,3.28E-03,8.62E-03
41565,2.83E-03,4.76E-03
41566,2.74E-03,4.67E-03
41567,2.67E-03,4.69E-03
41568,2.67E-03,8.96E-03
41569,2.87E-03,9.16E-03
41570,3.45E-03,8.83E-03
41571,2.73E-03,9.01E-03
41572,2.81E-03,9.08E-03
41573,2.40E-03,9.47E-03
41574,2.35E-03,9.48E-03
41575,2.38E-03,9.47E-03
41576,3.40E-03,8.73E-03
41577,3.33E-03,8.65E-03
41578,2.47E-03,9.44E-03
41579,2.58E-03,9.50E-03
41580,2.60E-03,9.40E-03
41581,2.50E-03,9.33E-03
41582,2.58E-03,9.55E-03
41583,2.62E-03,9.46E-03
41584,2.33E-03,1.08E-02
41585,2.42E-03,1.10E-02
41586,3.40E-03,1.03E-02
41587,3.36E-03,1.02E-02
41588,3.19E-03,1.01E-02
41589,3.20E-03,1.02E-02
41590,3.06E-03,1.01E-02
41591,3.06E-03,1.01E-02
41592,2.85E-03,9.99E-03
41593,3.16E-03,9.93E-03
41594,2.87E-03,9.82E-03
41595,2.38E-03,1.09E-02
41596,2.60E-03,9.51E-03
41597,2.55E-03,9.36E-03
41598,2.58E-03,9.46E-03
41599,2.54E-03,9.40E-03
41600,2.54E-03,9.98E-03
41601,1.83E-03,9.90E-03
41602,2.79E-03,4.55E-03
41603,3.10E-03,4.57E-03
41604,2.90E-03,4.41E-03
41605,2.14E-03,9.82E-03
41606,3.38E-03,8.70E-03
41607,2.39E-03,9.32E-03
41608,2.43E-03,9.36E-03
41609,2.35E-03,9.35E-03
41610,2.76E-03,4.43E-03
41611,2.73E-03,9.04E-03
41612,3.40E-03,8.79E-03
41613,2.80E-03,9.12E-03
41614,2.70E-03,8.98E-03
41615,2.57E-03,4.60E-03
41616,2.27E-03,4.25E-03
41617,2.46E-03,4.23E-03
41618,3.30E-03,8.65E-03
41619,2.41E-03,9.45E-03
41620,3.20E-03,8.63E-03
41621,2.43E-03,9.54E-03
41622,2.61E-03,4.76E-03
41623,2.64E-03,8.92E-03
41624,2.89E-03,9.20E-03
41625,3.31E-03,1.02E-02
41626,3.16E-03,1.01E-02
41627,2.55E-03,9.88E-03
41628,3.14E-03,9.94E-03
41629,2.99E-03,9.30E-03
41630,3.02E-03,9.41E-03
41631,3.10E-03,9.54E-03
41632,3.29E-03,9.76E-03
41633,3.09E-03,9.68E-03
41634,2.62E-03,9.20E-03
41635,2.60E-03,9.14E-03
41636,2.61E-03,9.08E-03
41637,2.60E-03,8.88E-03
41638,2.56E-03,8.85E-03
41639,2.55E-03,8.83E-03
41640,2.54E-03,8.83E-03
41641,2.53E-03,8.85E-03
41642,2.52E-03,8.88E-03
41643,2.51E-03,8.93E-03
41644,2.50E-03,9.10E-03
41645,2.51E-03,9.00E-03
41646,3.32E-03,9.34E-03
41647,3.43E-03,9.18E-03
41648,3.48E-03,9.03E-03
41649,3.48E-03,8.90E-03
41650,2.54E-03,7.16E-03
41651,2.02E-03,7.07E-03
41652,2.40E-03,7.02E-03
41653,2.61E-03,9.12E-03
41654,2.61E-03,9.17E-03
41655,2.58E-03,4.91E-03
41656,2.50E-03,5.05E-03
41657,2.44E-03,5.19E-03
41658,2.41E-03,5.34E-03
41659,2.42E-03,5.50E-03
41660,2.43E-03,5.67E-03
41661,2.48E-03,5.82E-03
41662,2.51E-03,6.01E-03
41663,2.58E-03,6.45E-03
41664,2.58E-03,6.40E-03
41665,2.51E-03,6.20E-03
41666,3.05E-03,8.65E-03
41667,2.92E-03,8.71E-03
41668,2.85E-03,8.80E-03
41669,2.77E-03,8.93E-03
41670,2.70E-03,9.09E-03
41671,2.63E-03,9.29E-03
41672,2.60E-03,9.54E-03
41673,2.54E-03,9.81E-03
41674,2.47E-03,1.01E-02
41675,2.43E-03,9.62E-03
41676,2.45E-03,9.70E-03
41677,2.46E-03,9.78E-03
41678,2.47E-03,9.86E-03
41679,2.48E-03,9.95E-03
41680,2.49E-03,1.01E-02
41681,2.49E-03,9.98E-03
41682,2.50E-03,1.01E-02
41683,2.51E-03,1.04E-02
41684,2.51E-03,1.02E-02
41685,3.28E-03,9.50E-03
41686,3.17E-03,9.81E-03
41687,3.21E-03,9.66E-03
41688,3.26E-03,1.01E-02
41689,3.20E-03,1.01E-02
41690,3.16E-03,1.01E-02
41691,2.37E-03,9.32E-03
41692,2.63E-03,9.36E-03
41693,2.08E-03,9.90E-03
41694,2.42E-03,1.05E-02
41695,2.44E-03,1.06E-02
41696,2.58E-03,6.61E-03
41697,2.59E-03,9.42E-03
41698,2.63E-03,9.33E-03
41699,2.59E-03,9.27E-03
41700,2.50E-03,9.21E-03
41701,2.55E-03,9.24E-03
41702,2.61E-03,9.38E-03
41703,2.51E-03,6.94E-03
41704,2.58E-03,6.78E-03
41705,2.43E-03,1.06E-02
41706,3.02E-03,9.99E-03
41707,2.63E-03,9.32E-03
41708,2.68E-03,9.27E-03
41709,3.11E-03,1.01E-02
41710,3.06E-03,1.01E-02
41711,3.17E-03,9.72E-03
41712,3.25E-03,9.58E-03
41713,2.50E-03,1.02E-02
41714,2.50E-03,1.00E-02
41715,2.50E-03,9.91E-03
41716,2.49E-03,9.89E-03
41717,2.49E-03,9.82E-03
41718,2.48E-03,9.80E-03
41719,2.47E-03,9.72E-03
41720,2.46E-03,9.65E-03
41721,2.44E-03,9.57E-03
41722,2.52E-03,9.90E-03
41723,2.55E-03,9.62E-03
41724,2.59E-03,9.38E-03
41725,2.64E-03,9.17E-03
41726,2.71E-03,9.00E-03
41727,2.80E-03,8.86E-03
41728,2.84E-03,8.76E-03
41729,2.94E-03,8.69E-03
41730,2.55E-03,6.37E-03
41731,2.54E-03,6.17E-03
41732,2.50E-03,5.98E-03
41733,2.45E-03,5.64E-03
41734,2.45E-03,5.80E-03
41735,2.40E-03,5.47E-03
41736,2.43E-03,5.32E-03
41737,2.47E-03,5.17E-03
41738,2.52E-03,5.02E-03
41739,2.60E-03,9.02E-03
41740,2.61E-03,9.06E-03
41741,3.24E-03,7.04E-03
41742,3.32E-03,7.21E-03
41743,3.28E-03,7.29E-03
41744,3.41E-03,8.97E-03
41745,3.38E-03,9.11E-03
41746,3.33E-03,9.42E-03
41747,3.39E-03,9.26E-03
41748,2.51E-03,9.01E-03
41749,2.51E-03,8.93E-03
41750,2.52E-03,8.88E-03
41751,2.53E-03,8.84E-03
41752,2.54E-03,8.82E-03
41753,2.54E-03,8.81E-03
41754,2.55E-03,8.82E-03
41755,2.56E-03,8.85E-03
41756,2.61E-03,8.98E-03
41757,2.60E-03,9.04E-03
41758,2.61E-03,9.10E-03
41759,3.21E-03,9.84E-03
41760,3.15E-03,9.75E-03
41761,3.08E-03,9.60E-03
41762,3.03E-03,9.47E-03
41763,2.98E-03,9.35E-03
41764,3.09E-03,9.97E-03
41765,3.14E-03,9.86E-03
41766,2.09E-03,9.78E-03
41767,2.82E-03,9.70E-03
41768,2.49E-03,9.65E-03
41769,3.08E-03,1.00E-02
41770,3.15E-03,9.92E-03
41771,3.15E-03,1.01E-02
41772,3.07E-03,1.01E-02
41773,2.90E-03,9.25E-03
41774,2.61E-03,8.89E-03
41775,2.57E-03,4.87E-03
41776,2.43E-03,9.50E-03
41777,3.13E-03,8.65E-03
41778,2.40E-03,9.42E-03
41779,3.25E-03,8.65E-03
41780,2.37E-03,4.09E-03
41781,2.51E-03,4.13E-03
41782,2.61E-03,4.70E-03
41783,2.65E-03,8.94E-03
41784,2.82E-03,9.15E-03
41785,3.42E-03,8.85E-03
41786,2.71E-03,9.00E-03
41787,2.74E-03,9.07E-03
41788,2.63E-03,4.52E-03
41789,2.62E-03,4.32E-03
41790,2.35E-03,9.33E-03
41791,1.98E-03,9.24E-03
41792,2.24E-03,9.24E-03
41793,1.75E-03,9.21E-03
41794,1.96E-03,9.15E-03
41795,2.50E-03,9.18E-03
41796,3.40E-03,8.75E-03
41797,3.30E-03,8.68E-03
41798,2.76E-03,9.23E-03
41799,2.58E-03,9.16E-03
41800,2.50E-03,9.11E-03
41801,2.61E-03,9.29E-03
41802,2.61E-03,9.21E-03
41803,2.56E-03,6.89E-03
41804,2.57E-03,6.57E-03
41805,2.46E-03,1.02E-02
41806,2.48E-03,1.03E-02
41807,2.47E-03,1.03E-02
41808,2.58E-03,6.73E-03
41809,2.62E-03,9.25E-03
41810,2.54E-03,9.13E-03
41811,2.70E-03,9.19E-03
41812,3.37E-03,8.73E-03
41813,3.21E-03,9.13E-03
41814,2.36E-03,9.10E-03
41815,2.49E-03,9.07E-03
41816,2.25E-03,9.13E-03
41817,2.36E-03,9.22E-03
41818,2.60E-03,4.45E-03
41819,2.71E-03,9.02E-03
41820,3.38E-03,8.81E-03
41821,2.76E-03,9.10E-03
41822,2.64E-03,8.95E-03
41823,2.59E-03,4.65E-03
41824,2.52E-03,4.24E-03
41825,2.45E-03,3.99E-03
41826,2.53E-03,4.04E-03
41827,3.27E-03,8.67E-03
41828,2.39E-03,9.30E-03
41829,3.16E-03,8.66E-03
41830,2.42E-03,9.38E-03
41831,2.56E-03,4.83E-03
41832,2.62E-03,8.90E-03
41833,2.83E-03,9.19E-03
41834,3.02E-03,9.98E-03
41835,2.82E-03,9.90E-03
41836,2.36E-03,9.84E-03
41837,2.19E-03,9.70E-03
41838,2.51E-03,9.59E-03
41839,2.71E-03,9.52E-03
41840,2.93E-03,9.51E-03
41841,2.42E-03,9.32E-03
41842,2.34E-03,9.34E-03
41843,3.07E-03,9.90E-03
41844,2.91E-03,9.29E-03
41845,2.98E-03,9.40E-03
41846,3.00E-03,9.52E-03
41847,3.02E-03,9.66E-03
41848,3.05E-03,1.00E-02
41849,3.06E-03,9.90E-03
41850,3.21E-03,9.80E-03
41851,2.60E-03,9.00E-03
41852,2.60E-03,8.95E-03
41853,2.59E-03,8.85E-03
41854,2.55E-03,8.82E-03
41855,2.54E-03,8.80E-03
41856,2.54E-03,8.79E-03
41857,2.53E-03,8.80E-03
41858,2.52E-03,8.83E-03
41859,2.51E-03,8.94E-03
41860,2.51E-03,8.87E-03
41861,3.37E-03,9.34E-03
41862,3.34E-03,9.19E-03
41863,3.37E-03,9.05E-03
41864,3.38E-03,8.92E-03
41865,3.03E-03,7.45E-03
41866,3.00E-03,7.38E-03
41867,2.89E-03,7.16E-03
41868,2.78E-03,7.00E-03
41869,2.61E-03,8.90E-03
41870,2.58E-03,8.93E-03
41871,2.58E-03,8.96E-03
41872,2.53E-03,5.00E-03
41873,2.50E-03,5.15E-03
41874,2.47E-03,5.31E-03
41875,2.41E-03,5.46E-03
41876,2.45E-03,5.63E-03
41877,2.44E-03,5.79E-03
41878,2.48E-03,5.96E-03
41879,2.55E-03,6.34E-03
41880,2.52E-03,6.15E-03
41881,3.02E-03,8.68E-03
41882,2.89E-03,8.73E-03
41883,2.80E-03,8.81E-03
41884,2.73E-03,8.92E-03
41885,2.68E-03,9.07E-03
41886,2.59E-03,9.24E-03
41887,2.55E-03,9.45E-03
41888,2.53E-03,9.69E-03
41889,2.44E-03,9.45E-03
41890,2.45E-03,9.52E-03
41891,2.47E-03,9.59E-03
41892,2.47E-03,9.66E-03
41893,2.48E-03,9.74E-03
41894,2.48E-03,9.67E-03
41895,2.49E-03,9.75E-03
41896,2.50E-03,9.96E-03
41897,2.50E-03,9.84E-03
41898,3.29E-03,9.49E-03
41899,3.16E-03,9.78E-03
41900,3.21E-03,9.64E-03
41901,3.01E-03,1.00E-02
41902,2.97E-03,1.00E-02
41903,3.04E-03,1.00E-02
41904,2.97E-03,1.00E-02
41905,2.89E-03,9.10E-03
41906,2.51E-03,9.97E-03
41907,2.50E-03,1.01E-02
41908,2.62E-03,6.87E-03
41909,2.59E-03,6.53E-03
41910,2.63E-03,9.16E-03
41911,2.60E-03,9.10E-03
41912,2.58E-03,9.06E-03
41913,2.50E-03,9.02E-03
41914,2.54E-03,9.04E-03
41915,2.62E-03,9.13E-03
41916,2.57E-03,6.70E-03
41917,2.50E-03,1.00E-02
41918,2.70E-03,9.08E-03
41919,2.92E-03,9.98E-03
41920,2.89E-03,9.95E-03
41921,3.18E-03,9.70E-03
41922,3.26E-03,9.56E-03
41923,2.50E-03,9.78E-03
41924,2.50E-03,9.68E-03
41925,2.49E-03,9.60E-03
41926,2.48E-03,9.60E-03
41927,2.48E-03,9.53E-03
41928,2.47E-03,9.53E-03
41929,2.46E-03,9.47E-03
41930,2.45E-03,9.40E-03
41931,2.53E-03,9.52E-03
41932,2.55E-03,9.31E-03
41933,2.63E-03,9.13E-03
41934,2.67E-03,8.98E-03
41935,2.75E-03,8.86E-03
41936,2.85E-03,8.77E-03
41937,2.91E-03,8.71E-03
41938,2.54E-03,6.32E-03
41939,2.51E-03,6.13E-03
41940,2.47E-03,5.95E-03
41941,2.42E-03,5.62E-03
41942,2.44E-03,5.78E-03
41943,2.46E-03,5.46E-03
41944,2.48E-03,5.30E-03
41945,2.52E-03,5.15E-03
41946,2.57E-03,8.84E-03
41947,2.57E-03,8.87E-03
41948,2.69E-03,6.97E-03
41949,2.75E-03,7.12E-03
41950,2.85E-03,7.32E-03
41951,2.83E-03,7.53E-03
41952,2.85E-03,7.60E-03
41953,3.37E-03,8.98E-03
41954,3.35E-03,9.12E-03
41955,3.35E-03,9.41E-03
41956,3.33E-03,9.26E-03
41957,2.51E-03,8.87E-03
41958,2.52E-03,8.82E-03
41959,2.53E-03,8.79E-03
41960,2.54E-03,8.77E-03
41961,2.54E-03,8.77E-03
41962,2.54E-03,8.79E-03
41963,2.55E-03,8.81E-03
41964,2.58E-03,8.82E-03
41965,2.59E-03,8.86E-03
41966,2.59E-03,8.92E-03
41967,3.00E-03,9.72E-03
41968,3.00E-03,9.58E-03
41969,2.95E-03,9.45E-03
41970,2.91E-03,9.33E-03
41971,3.02E-03,9.92E-03
41972,2.96E-03,9.93E-03
41973,3.08E-03,9.82E-03
41974,2.16E-03,9.17E-03
41975,2.37E-03,9.14E-03
41976,2.79E-03,9.45E-03
41977,2.66E-03,9.31E-03
41978,2.67E-03,9.82E-03
41979,2.63E-03,9.69E-03
41980,2.64E-03,9.57E-03
41981,2.90E-03,9.94E-03
41982,2.84E-03,9.87E-03
41983,2.84E-03,9.23E-03
41984,2.60E-03,8.86E-03
41985,2.52E-03,4.98E-03
41986,2.43E-03,9.34E-03
41987,3.04E-03,8.67E-03
41988,2.41E-03,9.27E-03
41989,3.21E-03,8.67E-03
41990,2.56E-03,3.87E-03
41991,2.56E-03,4.00E-03
41992,2.56E-03,4.21E-03
41993,2.53E-03,4.81E-03
41994,2.61E-03,8.91E-03
41995,2.77E-03,9.13E-03
41996,3.37E-03,8.87E-03
41997,2.69E-03,8.97E-03
41998,2.71E-03,9.05E-03
41999,2.57E-03,4.62E-03
42000,2.56E-03,4.42E-03
42001,2.38E-03,9.19E-03
42002,2.37E-03,9.11E-03
42003,2.33E-03,9.03E-03
42004,3.32E-03,9.00E-03
42005,3.19E-03,8.99E-03
42006,2.55E-03,8.97E-03
42007,3.35E-03,8.77E-03
42008,3.31E-03,8.71E-03
42009,2.87E-03,8.99E-03
42010,2.67E-03,1.00E-02
42011,2.22E-03,9.93E-03
42012,2.75E-03,9.86E-03
42013,2.57E-03,8.97E-03
42014,2.51E-03,8.94E-03
42015,2.66E-03,9.05E-03
42016,2.61E-03,8.99E-03
42017,2.65E-03,6.84E-03
42018,2.57E-03,6.51E-03
42019,2.51E-03,9.76E-03
42020,2.50E-03,9.89E-03
42021,2.50E-03,9.82E-03
42022,2.61E-03,6.67E-03
42023,2.63E-03,9.02E-03
42024,2.54E-03,8.96E-03
42025,2.57E-03,9.94E-03
42026,2.57E-03,1.00E-02
42027,2.71E-03,8.97E-03
42028,3.35E-03,8.74E-03
42029,2.98E-03,8.89E-03
42030,2.88E-03,8.89E-03
42031,2.67E-03,8.87E-03
42032,2.47E-03,8.95E-03
42033,2.38E-03,9.01E-03
42034,2.37E-03,9.09E-03
42035,2.52E-03,4.62E-03
42036,2.67E-03,9.00E-03
42037,3.37E-03,8.82E-03
42038,2.72E-03,9.08E-03
42039,2.64E-03,8.93E-03
42040,2.51E-03,4.81E-03
42041,2.56E-03,4.42E-03
42042,2.57E-03,4.21E-03
42043,3.23E-03,8.69E-03
42044,2.40E-03,9.16E-03
42045,3.06E-03,8.68E-03
42046,2.42E-03,9.23E-03
42047,2.59E-03,3.78E-03
42048,2.61E-03,3.99E-03
42049,2.51E-03,4.99E-03
42050,2.59E-03,8.87E-03
42051,2.78E-03,9.17E-03
42052,2.77E-03,9.78E-03
42053,2.73E-03,9.68E-03
42054,2.72E-03,9.56E-03
42055,2.71E-03,9.44E-03
42056,2.79E-03,9.31E-03
42057,2.50E-03,8.93E-03
42058,2.74E-03,9.14E-03
42059,2.05E-03,9.01E-03
42060,2.99E-03,9.85E-03
42061,2.95E-03,9.86E-03
42062,2.85E-03,9.27E-03
42063,2.91E-03,9.38E-03
42064,2.93E-03,9.50E-03
42065,2.96E-03,9.63E-03
42066,3.61E-03,9.77E-03
42067,2.57E-03,8.84E-03
42068,2.56E-03,8.79E-03
42069,2.58E-03,8.82E-03
42070,2.54E-03,8.78E-03
42071,2.54E-03,8.76E-03
42072,2.54E-03,8.75E-03
42073,2.53E-03,8.75E-03
42074,2.51E-03,8.81E-03
42075,2.52E-03,8.77E-03
42076,3.30E-03,9.33E-03
42077,3.34E-03,9.19E-03
42078,3.35E-03,9.05E-03
42079,3.37E-03,8.93E-03
42080,2.71E-03,7.75E-03
42081,2.74E-03,7.67E-03
42082,2.80E-03,7.47E-03
42083,2.78E-03,7.27E-03
42084,2.69E-03,7.09E-03
42085,2.69E-03,6.94E-03
42086,2.55E-03,8.74E-03
42087,2.54E-03,8.77E-03
42088,2.55E-03,8.79E-03
42089,2.51E-03,5.15E-03
42090,2.52E-03,5.31E-03
42091,2.47E-03,5.46E-03
42092,2.44E-03,5.62E-03
42093,2.45E-03,5.79E-03
42094,2.46E-03,5.95E-03
42095,2.53E-03,6.30E-03
42096,2.51E-03,6.12E-03
42097,2.94E-03,8.69E-03
42098,2.85E-03,8.74E-03
42099,2.77E-03,8.81E-03
42100,2.68E-03,8.91E-03
42101,2.63E-03,9.03E-03
42102,2.57E-03,9.19E-03
42103,2.53E-03,9.37E-03
42104,2.44E-03,9.29E-03
42105,2.46E-03,9.35E-03
42106,2.47E-03,9.41E-03
42107,2.48E-03,9.47E-03
42108,2.48E-03,9.41E-03
42109,2.48E-03,9.47E-03
42110,2.50E-03,9.61E-03
42111,2.49E-03,9.54E-03
42112,3.32E-03,9.48E-03
42113,3.13E-03,9.74E-03
42114,3.22E-03,9.62E-03
42115,2.85E-03,9.90E-03
42116,2.81E-03,9.83E-03
42117,2.90E-03,9.92E-03
42118,2.85E-03,9.89E-03
42119,2.83E-03,8.88E-03
42120,2.51E-03,9.58E-03
42121,2.50E-03,9.71E-03
42122,2.66E-03,6.81E-03
42123,2.59E-03,6.48E-03
42124,2.66E-03,8.95E-03
42125,2.58E-03,8.90E-03
42126,2.57E-03,8.90E-03
42127,2.51E-03,8.87E-03
42128,2.54E-03,8.88E-03
42129,2.62E-03,8.92E-03
42130,2.64E-03,6.65E-03
42131,2.50E-03,9.64E-03
42132,2.65E-03,1.00E-02
42133,2.73E-03,8.87E-03
42134,2.80E-03,9.85E-03
42135,2.77E-03,9.79E-03
42136,3.21E-03,9.66E-03
42137,3.26E-03,9.53E-03
42138,2.50E-03,9.47E-03
42139,2.49E-03,9.41E-03
42140,2.48E-03,9.35E-03
42141,2.47E-03,9.35E-03
42142,2.48E-03,9.29E-03
42143,2.47E-03,9.30E-03
42144,2.45E-03,9.24E-03
42145,2.53E-03,9.24E-03
42146,2.59E-03,9.08E-03
42147,2.61E-03,8.95E-03
42148,2.71E-03,8.85E-03
42149,2.80E-03,8.77E-03
42150,2.84E-03,8.71E-03
42151,2.54E-03,6.29E-03
42152,2.51E-03,6.12E-03
42153,2.46E-03,5.95E-03
42154,2.47E-03,5.63E-03
42155,2.46E-03,5.80E-03
42156,2.48E-03,5.48E-03
42157,2.53E-03,5.32E-03
42158,2.50E-03,8.70E-03
42159,2.51E-03,8.71E-03
42160,2.66E-03,6.92E-03
42161,2.67E-03,7.07E-03
42162,2.71E-03,7.24E-03
42163,2.74E-03,7.42E-03
42164,2.72E-03,7.61E-03
42165,3.37E-03,8.98E-03
42166,3.35E-03,9.11E-03
42167,3.31E-03,9.39E-03
42168,3.35E-03,9.25E-03
42169,2.52E-03,8.76E-03
42170,2.52E-03,8.74E-03
42171,2.53E-03,8.72E-03
42172,2.54E-03,8.73E-03
42173,2.54E-03,8.75E-03
42174,2.54E-03,8.78E-03
42175,2.49E-03,8.68E-03
42176,2.55E-03,8.72E-03
42177,2.57E-03,8.77E-03
42178,3.17E-03,9.93E-03
42179,3.38E-03,9.82E-03
42180,3.16E-03,9.68E-03
42181,2.95E-03,9.55E-03
42182,2.89E-03,9.42E-03
42183,2.84E-03,9.31E-03
42184,2.88E-03,9.86E-03
42185,2.79E-03,9.84E-03
42186,3.04E-03,9.78E-03
42187,2.97E-03,9.79E-03
42188,2.40E-03,8.78E-03
42189,3.18E-03,8.91E-03
42190,3.21E-03,8.57E-03
42191,3.34E-03,8.68E-03
42192,3.00E-03,8.41E-03
42193,3.02E-03,8.29E-03
42194,2.91E-03,9.14E-03
42195,2.77E-03,9.44E-03
42196,2.82E-03,9.30E-03
42197,2.75E-03,9.75E-03
42198,2.75E-03,9.66E-03
42199,2.78E-03,9.55E-03
42200,2.78E-03,9.20E-03
42201,2.59E-03,8.82E-03
42202,2.50E-03,5.17E-03
42203,2.64E-03,3.73E-03
42204,2.65E-03,4.01E-03
42205,2.43E-03,9.19E-03
42206,2.95E-03,8.69E-03
42207,2.67E-03,7.80E-03
42208,2.67E-03,7.88E-03
42209,2.41E-03,9.12E-03
42210,3.14E-03,8.69E-03
42211,2.59E-03,4.25E-03
42212,2.57E-03,4.46E-03
42213,2.49E-03,5.01E-03
42214,2.60E-03,8.88E-03
42215,2.73E-03,9.11E-03
42216,3.37E-03,8.87E-03
42217,2.65E-03,8.94E-03
42218,2.70E-03,9.02E-03
42219,2.50E-03,4.83E-03
42220,2.53E-03,4.65E-03
42221,2.39E-03,9.06E-03
42222,2.39E-03,8.99E-03
42223,2.43E-03,8.92E-03
42224,2.55E-03,8.86E-03
42225,2.82E-03,8.79E-03
42226,2.76E-03,8.79E-03
42227,2.67E-03,8.78E-03
42228,3.33E-03,8.78E-03
42229,3.29E-03,8.72E-03
42230,2.77E-03,8.78E-03
42231,2.56E-03,8.82E-03
42232,2.51E-03,8.81E-03
42233,2.66E-03,8.85E-03
42234,2.57E-03,8.81E-03
42235,2.66E-03,6.79E-03
42236,2.56E-03,6.46E-03
42237,2.51E-03,9.43E-03
42238,2.50E-03,9.55E-03
42239,2.50E-03,9.49E-03
42240,2.61E-03,6.63E-03
42241,2.63E-03,8.83E-03
42242,2.53E-03,8.81E-03
42243,2.71E-03,8.77E-03
42244,3.31E-03,8.75E-03
42245,2.75E-03,8.70E-03
42246,2.70E-03,8.70E-03
42247,2.66E-03,8.69E-03
42248,2.59E-03,8.77E-03
42249,2.49E-03,8.84E-03
42250,2.42E-03,8.90E-03
42251,2.39E-03,8.96E-03
42252,2.49E-03,4.88E-03
42253,2.67E-03,8.97E-03
42254,3.35E-03,8.82E-03
42255,2.68E-03,9.05E-03
42256,2.62E-03,8.89E-03
42257,2.48E-03,5.05E-03
42258,2.53E-03,4.71E-03
42259,2.59E-03,4.53E-03
42260,3.24E-03,8.70E-03
42261,2.40E-03,9.03E-03
42262,2.61E-03,8.01E-03
42263,2.65E-03,7.93E-03
42264,3.01E-03,8.69E-03
42265,2.42E-03,9.09E-03
42266,2.64E-03,4.33E-03
42267,2.50E-03,5.20E-03
42268,2.58E-03,8.83E-03
42269,2.74E-03,9.14E-03
42270,2.80E-03,9.44E-03
42271,2.82E-03,9.31E-03
42272,2.88E-03,9.15E-03
42273,2.93E-03,8.01E-03
42274,2.91E-03,8.14E-03
42275,3.07E-03,8.94E-03
42276,3.03E-03,8.73E-03
42277,2.94E-03,8.51E-03
42278,2.85E-03,9.80E-03
42279,2.78E-03,9.78E-03
42280,2.78E-03,9.24E-03
42281,2.83E-03,9.35E-03
42282,2.87E-03,9.47E-03
42283,2.91E-03,9.59E-03
42284,3.05E-03,9.72E-03
42285,2.55E-03,1.00E-02
42286,2.59E-03,9.95E-03
42287,2.81E-03,9.85E-03
42288,2.56E-03,8.71E-03
42289,2.52E-03,8.66E-03
42290,2.57E-03,8.78E-03
42291,2.53E-03,8.74E-03
42292,2.53E-03,8.71E-03
42293,2.53E-03,8.70E-03
42294,2.52E-03,8.72E-03
42295,2.53E-03,8.70E-03
42296,3.36E-03,9.31E-03
42297,3.35E-03,9.17E-03
42298,3.36E-03,9.04E-03
42299,3.37E-03,8.92E-03
42300,2.67E-03,7.74E-03
42301,2.68E-03,7.55E-03
42302,2.67E-03,7.38E-03
42303,2.68E-03,7.21E-03
42304,2.65E-03,7.05E-03
42305,2.63E-03,6.91E-03
42306,2.44E-03,8.62E-03
42307,2.39E-03,8.63E-03
42308,2.44E-03,8.64E-03
42309,2.53E-03,5.35E-03
42310,2.51E-03,5.50E-03
42311,2.47E-03,5.65E-03
42312,2.46E-03,5.82E-03
42313,2.46E-03,5.97E-03
42314,2.53E-03,6.28E-03
42315,2.49E-03,6.12E-03
42316,2.69E-03,3.70E-03
42317,2.68E-03,4.07E-03
42318,2.88E-03,8.70E-03
42319,2.80E-03,8.74E-03
42320,2.72E-03,8.80E-03
42321,2.65E-03,8.89E-03
42322,2.58E-03,9.00E-03
42323,2.55E-03,9.13E-03
42324,2.44E-03,9.14E-03
42325,2.46E-03,9.19E-03
42326,2.47E-03,9.24E-03
42327,2.48E-03,9.19E-03
42328,2.48E-03,9.24E-03
42329,2.49E-03,9.35E-03
42330,2.48E-03,9.29E-03
42331,3.27E-03,9.45E-03
42332,3.11E-03,9.70E-03
42333,3.02E-03,9.72E-03
42334,3.19E-03,9.58E-03
42335,2.76E-03,9.72E-03
42336,2.76E-03,9.63E-03
42337,2.77E-03,9.54E-03
42338,2.76E-03,9.80E-03
42339,2.74E-03,9.75E-03
42340,2.73E-03,8.69E-03
42341,2.51E-03,9.30E-03
42342,2.50E-03,9.41E-03
42343,2.64E-03,6.77E-03
42344,2.56E-03,6.45E-03
42345,2.67E-03,8.76E-03
42346,2.56E-03,8.73E-03
42347,2.55E-03,8.76E-03
42348,2.51E-03,8.76E-03
42349,2.53E-03,8.76E-03
42350,2.61E-03,8.74E-03
42351,2.60E-03,6.61E-03
42352,2.50E-03,9.35E-03
42353,2.70E-03,8.69E-03
42354,2.26E-03,1.00E-02
42355,2.25E-03,9.96E-03
42356,2.00E-03,1.00E-02
42357,1.82E-03,9.96E-03
42358,2.73E-03,9.68E-03
42359,2.75E-03,9.60E-03
42360,2.75E-03,9.51E-03
42361,3.10E-03,9.62E-03
42362,3.03E-03,9.65E-03
42363,3.24E-03,9.50E-03
42364,2.49E-03,9.23E-03
42365,2.48E-03,9.18E-03
42366,2.48E-03,9.14E-03
42367,2.47E-03,9.14E-03
42368,2.48E-03,9.09E-03
42369,2.46E-03,9.10E-03
42370,2.53E-03,9.04E-03
42371,2.61E-03,8.92E-03
42372,2.66E-03,8.83E-03
42373,2.75E-03,8.76E-03
42374,2.80E-03,8.71E-03
42375,2.79E-03,3.74E-03
42376,2.69E-03,4.16E-03
42377,2.51E-03,6.29E-03
42378,2.48E-03,6.14E-03
42379,2.46E-03,5.99E-03
42380,2.50E-03,5.68E-03
42381,2.48E-03,5.85E-03
42382,2.52E-03,5.54E-03
42383,2.28E-03,8.57E-03
42384,2.39E-03,8.58E-03
42385,2.61E-03,6.90E-03
42386,2.64E-03,7.04E-03
42387,2.66E-03,7.19E-03
42388,2.64E-03,7.35E-03
42389,2.64E-03,7.51E-03
42390,2.67E-03,7.68E-03
42391,3.38E-03,8.98E-03
42392,3.36E-03,9.10E-03
42393,3.30E-03,9.37E-03
42394,3.33E-03,9.23E-03
42395,2.52E-03,8.68E-03
42396,2.53E-03,8.68E-03
42397,2.53E-03,8.68E-03
42398,2.53E-03,8.70E-03
42399,2.53E-03,8.74E-03
42400,2.33E-03,8.56E-03
42401,2.52E-03,8.61E-03
42402,2.55E-03,8.65E-03
42403,1.90E-03,9.99E-03
42404,1.98E-03,9.95E-03
42405,2.18E-03,9.90E-03
42406,2.08E-03,9.84E-03
42407,2.84E-03,9.75E-03
42408,2.88E-03,9.63E-03
42409,2.83E-03,9.51E-03
42410,2.80E-03,9.39E-03
42411,2.78E-03,9.28E-03
42412,2.77E-03,9.75E-03
42413,2.75E-03,9.70E-03
42414,2.89E-03,9.73E-03
42415,2.83E-03,9.72E-03
42416,2.89E-03,8.26E-03
42417,2.93E-03,8.98E-03
42418,2.86E-03,8.79E-03
42419,2.92E-03,8.59E-03
42420,2.85E-03,9.17E-03
42421,2.81E-03,9.43E-03
42422,2.82E-03,9.31E-03
42423,2.72E-03,9.17E-03
42424,2.58E-03,8.78E-03
42425,2.50E-03,5.40E-03
42426,2.64E-03,4.43E-03
42427,2.43E-03,9.05E-03
42428,2.98E-03,8.69E-03
42429,2.65E-03,7.86E-03
42430,2.59E-03,8.05E-03
42431,2.58E-03,8.14E-03
42432,2.41E-03,8.99E-03
42433,3.10E-03,8.69E-03
42434,2.61E-03,4.63E-03
42435,2.54E-03,4.80E-03
42436,2.50E-03,5.26E-03
42437,2.60E-03,8.84E-03
42438,2.70E-03,9.08E-03
42439,3.36E-03,8.87E-03
42440,2.63E-03,8.91E-03
42441,2.67E-03,8.99E-03
42442,2.48E-03,5.11E-03
42443,2.49E-03,4.96E-03
42444,2.39E-03,8.94E-03
42445,2.40E-03,8.87E-03
42446,2.44E-03,8.81E-03
42447,2.52E-03,8.75E-03
42448,2.60E-03,8.69E-03
42449,2.69E-03,8.62E-03
42450,2.67E-03,8.62E-03
42451,2.63E-03,8.61E-03
42452,3.31E-03,8.78E-03
42453,3.25E-03,8.72E-03
42454,2.88E-03,7.86E-03
42455,2.93E-03,7.70E-03
42456,2.70E-03,8.61E-03
42457,2.58E-03,9.87E-03
42458,2.55E-03,8.70E-03
42459,2.51E-03,8.71E-03
42460,2.65E-03,8.68E-03
42461,2.51E-03,8.66E-03
42462,2.62E-03,6.76E-03
42463,2.55E-03,6.45E-03
42464,2.51E-03,9.19E-03
42465,2.50E-03,9.29E-03
42466,2.50E-03,9.24E-03
42467,2.58E-03,6.61E-03
42468,2.60E-03,8.67E-03
42469,2.53E-03,8.70E-03
42470,2.25E-03,9.88E-03
42471,2.68E-03,8.61E-03
42472,2.91E-03,7.37E-03
42473,3.29E-03,8.75E-03
42474,2.58E-03,8.61E-03
42475,2.52E-03,8.67E-03
42476,2.46E-03,8.74E-03
42477,2.41E-03,8.79E-03
42478,2.38E-03,8.85E-03
42479,2.49E-03,5.20E-03
42480,2.65E-03,8.93E-03
42481,3.33E-03,8.82E-03
42482,2.68E-03,9.01E-03
42483,2.60E-03,8.85E-03
42484,2.48E-03,5.33E-03
42485,2.50E-03,5.07E-03
42486,2.55E-03,4.92E-03
42487,3.10E-03,8.71E-03
42488,2.40E-03,8.91E-03
42489,2.54E-03,8.25E-03
42490,2.55E-03,8.17E-03
42491,2.60E-03,7.98E-03
42492,2.98E-03,8.69E-03
42493,2.42E-03,8.96E-03
42494,2.62E-03,4.76E-03
42495,2.50E-03,5.46E-03
42496,2.59E-03,8.79E-03
42497,2.69E-03,9.11E-03
42498,2.84E-03,9.18E-03
42499,2.89E-03,9.01E-03
42500,2.88E-03,8.84E-03
42501,2.85E-03,8.65E-03
42502,2.85E-03,8.37E-03
42503,2.77E-03,9.69E-03
42504,2.71E-03,9.65E-03
42505,2.69E-03,9.21E-03
42506,2.76E-03,9.31E-03
42507,2.77E-03,9.43E-03
42508,2.75E-03,9.54E-03
42509,2.72E-03,9.66E-03
42510,2.25E-03,9.86E-03
42511,2.08E-03,9.75E-03
42512,2.57E-03,8.61E-03
42513,2.10E-03,8.51E-03
42514,2.55E-03,8.57E-03
42515,2.55E-03,8.74E-03
42516,2.52E-03,8.70E-03
42517,2.53E-03,8.67E-03
42518,2.52E-03,8.65E-03
42519,2.53E-03,8.65E-03
42520,3.32E-03,9.29E-03
42521,3.36E-03,9.16E-03
42522,3.36E-03,9.03E-03
42523,3.40E-03,8.92E-03
42524,2.64E-03,7.80E-03
42525,2.62E-03,7.64E-03
42526,2.64E-03,7.47E-03
42527,2.63E-03,7.32E-03
42528,2.66E-03,7.17E-03
42529,1.96E-03,8.52E-03
42530,2.49E-03,8.53E-03
42531,2.61E-03,6.90E-03
42532,2.65E-03,7.04E-03
42533,2.51E-03,5.59E-03
42534,2.50E-03,5.72E-03
42535,2.49E-03,5.90E-03
42536,2.47E-03,6.03E-03
42537,2.50E-03,6.30E-03
42538,2.49E-03,6.16E-03
42539,2.66E-03,4.56E-03
42540,2.83E-03,3.81E-03
42541,2.71E-03,4.29E-03
42542,2.84E-03,8.01E-03
42543,2.87E-03,7.57E-03
42544,2.86E-03,8.70E-03
42545,2.76E-03,8.73E-03
42546,2.67E-03,8.79E-03
42547,2.63E-03,8.86E-03
42548,2.56E-03,8.96E-03
42549,2.45E-03,9.01E-03
42550,2.47E-03,9.05E-03
42551,2.48E-03,9.01E-03
42552,2.48E-03,9.05E-03
42553,2.48E-03,9.13E-03
42554,2.48E-03,9.09E-03
42555,3.27E-03,9.42E-03
42556,2.94E-03,9.66E-03
42557,2.83E-03,9.65E-03
42558,3.17E-03,9.54E-03
42559,3.08E-03,9.57E-03
42560,2.78E-03,9.41E-03
42561,2.80E-03,9.30E-03
42562,2.71E-03,9.64E-03
42563,2.73E-03,9.56E-03
42564,2.75E-03,9.48E-03
42565,2.68E-03,8.54E-03
42566,2.65E-03,8.54E-03
42567,2.61E-03,8.54E-03
42568,2.69E-03,8.54E-03
42569,2.51E-03,9.09E-03
42570,2.50E-03,9.18E-03
42571,2.62E-03,6.76E-03
42572,2.54E-03,6.45E-03
42573,2.64E-03,8.60E-03
42574,2.49E-03,8.59E-03
42575,2.55E-03,8.65E-03
42576,2.51E-03,8.67E-03
42577,2.53E-03,9.77E-03
42578,2.12E-03,9.82E-03
42579,2.28E-03,9.79E-03
42580,2.54E-03,8.66E-03
42581,2.57E-03,8.60E-03
42582,2.58E-03,6.61E-03
42583,2.50E-03,9.13E-03
42584,2.67E-03,8.54E-03
42585,2.70E-03,8.47E-03
42586,2.72E-03,8.47E-03
42587,2.63E-03,8.48E-03
42588,2.78E-03,9.39E-03
42589,2.78E-03,9.29E-03
42590,2.96E-03,9.58E-03
42591,2.82E-03,9.58E-03
42592,3.20E-03,9.46E-03
42593,3.13E-03,9.49E-03
42594,2.48E-03,9.05E-03
42595,2.48E-03,9.01E-03
42596,2.49E-03,8.97E-03
42597,2.46E-03,8.97E-03
42598,2.47E-03,8.93E-03
42599,2.58E-03,8.90E-03
42600,2.61E-03,8.81E-03
42601,2.69E-03,8.75E-03
42602,2.84E-03,8.71E-03
42603,3.11E-03,6.66E-03
42604,2.84E-03,7.26E-03
42605,2.82E-03,7.74E-03
42606,2.90E-03,3.93E-03
42607,2.55E-03,3.98E-03
42608,2.85E-03,4.46E-03
42609,2.67E-03,4.71E-03
42610,2.50E-03,6.32E-03
42611,2.50E-03,6.19E-03
42612,2.51E-03,6.07E-03
42613,2.52E-03,5.77E-03
42614,2.51E-03,5.95E-03
42615,2.64E-03,7.04E-03
42616,2.61E-03,6.91E-03
42617,2.63E-03,7.05E-03
42618,2.55E-03,8.49E-03
42619,2.64E-03,8.48E-03
42620,2.67E-03,7.30E-03
42621,2.61E-03,7.45E-03
42622,2.61E-03,7.60E-03
42623,2.62E-03,7.76E-03
42624,2.78E-03,7.18E-03
42625,2.91E-03,7.28E-03
42626,3.38E-03,8.96E-03
42627,3.40E-03,9.08E-03
42628,3.33E-03,9.33E-03
42629,3.35E-03,9.21E-03
42630,2.52E-03,8.63E-03
42631,2.53E-03,8.63E-03
42632,2.52E-03,8.66E-03
42633,2.52E-03,8.69E-03
42634,2.89E-03,8.53E-03
42635,2.62E-03,8.57E-03
42636,2.38E-03,9.82E-03
42637,2.70E-03,9.75E-03
42638,2.41E-03,9.70E-03
42639,2.21E-03,9.67E-03
42640,2.67E-03,9.58E-03
42641,2.70E-03,9.46E-03
42642,2.72E-03,9.35E-03
42643,2.68E-03,9.24E-03
42644,2.69E-03,9.59E-03
42645,2.71E-03,9.52E-03
42646,2.72E-03,9.45E-03
42647,2.73E-03,9.63E-03
42648,2.69E-03,9.59E-03
42649,2.80E-03,8.14E-03
42650,2.81E-03,8.46E-03
42651,2.85E-03,9.03E-03
42652,2.86E-03,8.88E-03
42653,2.82E-03,8.71E-03
42654,2.84E-03,9.18E-03
42655,2.67E-03,9.14E-03
42656,2.57E-03,8.74E-03
42657,2.51E-03,5.65E-03
42658,2.60E-03,4.91E-03
42659,2.44E-03,8.92E-03
42660,2.88E-03,8.69E-03
42661,2.63E-03,7.92E-03
42662,2.57E-03,8.10E-03
42663,2.54E-03,8.28E-03
42664,2.52E-03,8.36E-03
42665,2.41E-03,8.88E-03
42666,3.05E-03,8.69E-03
42667,2.57E-03,5.06E-03
42668,2.51E-03,5.19E-03
42669,2.48E-03,5.54E-03
42670,2.58E-03,8.80E-03
42671,2.70E-03,9.04E-03
42672,3.41E-03,8.86E-03
42673,2.63E-03,8.87E-03
42674,2.65E-03,8.95E-03
42675,2.49E-03,5.43E-03
42676,2.50E-03,5.31E-03
42677,2.39E-03,8.83E-03
42678,2.37E-03,8.77E-03
42679,2.40E-03,8.72E-03
42680,2.46E-03,8.66E-03
42681,2.50E-03,8.60E-03
42682,3.30E-03,8.78E-03
42683,3.17E-03,8.72E-03
42684,2.55E-03,8.54E-03
42685,2.69E-03,8.41E-03
42686,2.78E-03,8.42E-03
42687,2.70E-03,8.47E-03
42688,2.49E-03,9.69E-03
42689,2.24E-03,9.74E-03
42690,2.58E-03,8.61E-03
42691,2.53E-03,8.63E-03
42692,2.64E-03,8.53E-03
42693,2.52E-03,8.53E-03
42694,2.59E-03,6.76E-03
42695,2.52E-03,6.46E-03
42696,2.51E-03,9.00E-03
42697,2.49E-03,9.09E-03
42698,2.66E-03,7.17E-03
42699,2.63E-03,7.17E-03
42700,2.65E-03,7.16E-03
42701,2.50E-03,9.04E-03
42702,2.56E-03,6.61E-03
42703,2.57E-03,8.53E-03
42704,2.55E-03,8.62E-03
42705,2.37E-03,9.71E-03
42706,2.73E-03,9.69E-03
42707,2.54E-03,9.77E-03
42708,2.67E-03,8.47E-03
42709,2.78E-03,8.41E-03
42710,2.53E-03,8.47E-03
42711,3.25E-03,8.74E-03
42712,2.44E-03,8.59E-03
42713,2.40E-03,8.65E-03
42714,2.38E-03,8.70E-03
42715,2.38E-03,8.75E-03
42716,2.49E-03,5.54E-03
42717,2.64E-03,8.89E-03
42718,3.34E-03,8.81E-03
42719,2.67E-03,8.98E-03
42720,2.61E-03,8.81E-03
42721,2.49E-03,5.64E-03
42722,2.50E-03,5.44E-03
42723,2.51E-03,5.34E-03
42724,3.04E-03,8.70E-03
42725,2.40E-03,8.80E-03
42726,2.48E-03,8.47E-03
42727,2.53E-03,8.39E-03
42728,2.55E-03,8.21E-03
42729,2.58E-03,8.04E-03
42730,2.95E-03,8.69E-03
42731,2.43E-03,8.85E-03
42732,2.58E-03,5.22E-03
42733,2.48E-03,5.74E-03
42734,2.56E-03,8.75E-03
42735,2.68E-03,9.07E-03
42736,2.83E-03,9.05E-03
42737,2.85E-03,8.91E-03
42738,2.83E-03,8.75E-03
42739,2.78E-03,8.53E-03
42740,2.76E-03,8.24E-03
42741,2.69E-03,9.54E-03
42742,2.68E-03,9.47E-03
42743,2.72E-03,9.40E-03
42744,2.65E-03,9.17E-03
42745,2.64E-03,9.27E-03
42746,2.68E-03,9.38E-03
42747,2.65E-03,9.50E-03
42748,2.73E-03,9.60E-03
42749,2.89E-03,9.62E-03
42750,2.51E-03,9.60E-03
42751,2.74E-03,8.53E-03
42752,2.54E-03,8.69E-03
42753,2.51E-03,8.65E-03
42754,2.55E-03,8.60E-03
42755,2.52E-03,8.62E-03
42756,3.32E-03,9.25E-03
42757,3.37E-03,9.13E-03
42758,3.47E-03,9.01E-03
42759,3.39E-03,8.90E-03
42760,3.05E-03,7.42E-03
42761,3.61E-03,7.39E-03
42762,3.07E-03,7.39E-03
42763,2.63E-03,7.87E-03
42764,2.63E-03,7.71E-03
42765,2.60E-03,7.56E-03
42766,2.65E-03,7.42E-03
42767,3.58E-03,8.47E-03
42768,3.59E-03,8.46E-03
42769,2.83E-03,8.44E-03
42770,2.39E-03,7.19E-03
42771,2.56E-03,7.07E-03
42772,2.58E-03,6.93E-03
42773,2.51E-03,5.84E-03
42774,2.50E-03,6.02E-03
42775,2.52E-03,6.12E-03
42776,2.50E-03,6.35E-03
42777,2.49E-03,6.23E-03
42778,2.61E-03,5.07E-03
42779,2.66E-03,4.90E-03
42780,2.66E-03,4.72E-03
42781,2.08E-03,4.04E-03
42782,2.26E-03,4.54E-03
42783,2.78E-03,7.89E-03
42784,2.79E-03,7.46E-03
42785,2.90E-03,6.33E-03
42786,2.83E-03,6.94E-03
42787,2.83E-03,8.69E-03
42788,2.74E-03,8.72E-03
42789,2.68E-03,8.77E-03
42790,2.59E-03,8.84E-03
42791,2.45E-03,8.89E-03
42792,2.46E-03,8.86E-03
42793,2.49E-03,8.89E-03
42794,2.47E-03,8.97E-03
42795,2.47E-03,8.93E-03
42796,3.32E-03,9.37E-03
42797,3.20E-03,9.41E-03
42798,2.76E-03,9.57E-03
42799,2.70E-03,9.53E-03
42800,3.09E-03,9.51E-03
42801,2.92E-03,9.51E-03
42802,2.79E-03,9.18E-03
42803,2.74E-03,9.36E-03
42804,2.78E-03,9.27E-03
42805,2.50E-03,8.41E-03
42806,2.48E-03,8.53E-03
42807,3.15E-03,8.35E-03
42808,2.73E-03,8.41E-03
42809,2.67E-03,7.29E-03
42810,2.71E-03,7.28E-03
42811,2.51E-03,8.93E-03
42812,2.49E-03,9.00E-03
42813,2.20E-03,5.65E-03
42814,2.57E-03,6.78E-03
42815,2.53E-03,6.48E-03
42816,2.66E-03,8.47E-03
42817,2.55E-03,8.47E-03
42818,2.62E-03,8.57E-03
42819,2.57E-03,8.60E-03
42820,2.55E-03,9.60E-03
42821,2.30E-03,9.65E-03
42822,2.47E-03,9.63E-03
42823,2.59E-03,8.58E-03
42824,2.62E-03,8.47E-03
42825,2.54E-03,6.63E-03
42826,2.28E-03,5.29E-03
42827,2.24E-03,4.94E-03
42828,2.13E-03,4.27E-03
42829,2.16E-03,4.59E-03
42830,2.50E-03,8.96E-03
42831,2.68E-03,7.28E-03
42832,2.68E-03,8.41E-03
42833,2.87E-03,8.35E-03
42834,2.44E-03,8.47E-03
42835,2.32E-03,8.35E-03
42836,2.80E-03,9.16E-03
42837,2.78E-03,9.50E-03
42838,2.65E-03,9.48E-03
42839,3.10E-03,9.43E-03
42840,2.93E-03,9.44E-03
42841,2.48E-03,8.89E-03
42842,2.46E-03,8.86E-03
42843,2.48E-03,8.83E-03
42844,2.60E-03,8.79E-03
42845,2.66E-03,8.73E-03
42846,2.76E-03,8.70E-03
42847,2.73E-03,6.64E-03
42848,2.73E-03,7.18E-03
42849,2.75E-03,7.64E-03
42850,2.23E-03,4.96E-03
42851,2.59E-03,5.11E-03
42852,2.60E-03,5.26E-03
42853,2.51E-03,6.39E-03
42854,2.50E-03,6.28E-03
42855,2.49E-03,6.18E-03
42856,2.58E-03,6.95E-03
42857,2.53E-03,7.08E-03
42858,2.36E-03,7.19E-03
42859,3.20E-03,8.41E-03
42860,2.96E-03,8.39E-03
42861,2.64E-03,7.54E-03
42862,2.61E-03,7.68E-03
42863,2.61E-03,7.82E-03
42864,3.38E-03,7.48E-03
42865,3.12E-03,7.48E-03
42866,3.45E-03,8.94E-03
42867,3.38E-03,9.05E-03
42868,3.28E-03,9.29E-03
42869,3.23E-03,9.32E-03
42870,3.34E-03,9.17E-03
42871,2.55E-03,8.59E-03
42872,2.52E-03,8.61E-03
42873,2.50E-03,8.65E-03
42874,3.16E-03,8.43E-03
42875,2.86E-03,8.48E-03
42876,2.41E-03,9.52E-03
42877,2.50E-03,9.52E-03
42878,2.45E-03,9.51E-03
42879,2.61E-03,9.42E-03
42880,2.62E-03,9.31E-03
42881,2.64E-03,9.20E-03
42882,2.75E-03,9.32E-03
42883,2.76E-03,9.24E-03
42884,2.66E-03,9.49E-03
42885,2.63E-03,9.42E-03
42886,2.66E-03,9.35E-03
42887,2.75E-03,8.02E-03
42888,2.75E-03,8.33E-03
42889,2.79E-03,8.58E-03
42890,2.81E-03,9.05E-03
42891,2.83E-03,8.92E-03
42892,2.84E-03,8.78E-03
42893,2.64E-03,9.10E-03
42894,2.54E-03,8.70E-03
42895,2.49E-03,5.92E-03
42896,2.49E-03,6.10E-03
42897,2.69E-03,7.32E-03
42898,2.57E-03,5.39E-03
42899,2.44E-03,8.82E-03
42900,2.45E-03,8.79E-03
42901,2.88E-03,8.68E-03
42902,2.59E-03,7.98E-03
42903,2.56E-03,8.14E-03
42904,2.53E-03,8.32E-03
42905,2.99E-03,9.69E-03
42906,2.87E-03,9.58E-03
42907,2.42E-03,8.78E-03
42908,2.96E-03,8.69E-03
42909,2.52E-03,5.49E-03
42910,2.51E-03,5.58E-03
42911,2.49E-03,5.83E-03
42912,2.60E-03,8.76E-03
42913,2.69E-03,9.00E-03
42914,3.35E-03,8.84E-03
42915,2.61E-03,8.83E-03
42916,2.64E-03,8.91E-03
42917,2.49E-03,5.75E-03
42918,2.50E-03,5.67E-03
42919,2.39E-03,8.73E-03
42920,2.37E-03,8.68E-03
42921,2.38E-03,8.63E-03
42922,2.42E-03,8.58E-03
42923,3.27E-03,8.77E-03
42924,3.11E-03,8.71E-03
42925,2.46E-03,8.57E-03
42926,2.52E-03,8.50E-03
42927,3.08E-03,7.52E-03
42928,2.14E-03,7.40E-03
42929,2.16E-03,7.49E-03
42930,1.77E-03,8.31E-03
42931,2.44E-03,8.52E-03
42932,2.39E-03,8.41E-03
42933,2.84E-03,8.27E-03
42934,3.13E-03,8.29E-03
42935,2.72E-03,8.35E-03
42936,2.54E-03,9.53E-03
42937,2.45E-03,9.57E-03
42938,2.67E-03,8.54E-03
42939,2.59E-03,8.58E-03
42940,2.68E-03,8.41E-03
42941,2.70E-03,8.42E-03
42942,2.57E-03,6.80E-03
42943,2.52E-03,6.51E-03
42944,2.33E-03,4.76E-03
42945,2.47E-03,6.00E-03
42946,2.39E-03,5.70E-03
42947,2.32E-03,5.38E-03
42948,2.53E-03,8.87E-03
42949,2.47E-03,8.93E-03
42950,2.67E-03,7.41E-03
42951,2.75E-03,7.39E-03
42952,2.72E-03,7.40E-03
42953,2.50E-03,8.90E-03
42954,2.27E-03,5.06E-03
42955,2.54E-03,6.65E-03
42956,2.66E-03,8.41E-03
42957,2.62E-03,8.55E-03
42958,2.48E-03,9.55E-03
42959,2.67E-03,8.36E-03
42960,2.83E-03,8.29E-03
42961,2.25E-03,8.36E-03
42962,2.41E-03,8.46E-03
42963,1.84E-03,8.28E-03
42964,2.39E-03,7.53E-03
42965,1.69E-03,7.49E-03
42966,1.97E-03,7.52E-03
42967,2.52E-03,8.60E-03
42968,2.46E-03,8.68E-03
42969,3.20E-03,8.73E-03
42970,2.38E-03,8.57E-03
42971,2.36E-03,8.62E-03
42972,2.38E-03,8.66E-03
42973,1.70E-03,7.50E-03
42974,2.49E-03,5.87E-03
42975,2.61E-03,8.84E-03
42976,3.35E-03,8.79E-03
42977,2.67E-03,8.93E-03
42978,2.59E-03,8.77E-03
42979,2.09E-03,7.43E-03
42980,2.49E-03,5.94E-03
42981,2.50E-03,5.81E-03
42982,2.51E-03,5.74E-03
42983,2.99E-03,8.69E-03
42984,2.41E-03,8.71E-03
42985,3.23E-03,9.64E-03
42986,3.20E-03,9.55E-03
42987,2.54E-03,8.42E-03
42988,2.55E-03,8.25E-03
42989,2.57E-03,8.09E-03
42990,2.89E-03,8.67E-03
42991,2.43E-03,8.75E-03
42992,2.45E-03,8.73E-03
42993,2.52E-03,5.66E-03
42994,2.40E-03,7.34E-03
42995,2.49E-03,6.02E-03
42996,2.49E-03,6.19E-03
42997,2.56E-03,8.70E-03
42998,2.65E-03,9.03E-03
42999,2.81E-03,8.62E-03
43000,2.75E-03,8.40E-03
43001,2.73E-03,8.13E-03
43002,2.74E-03,9.28E-03
43003,2.77E-03,9.20E-03
43004,2.63E-03,9.12E-03
43005,2.62E-03,9.23E-03
43006,2.59E-03,9.34E-03
43007,2.61E-03,9.48E-03
43008,2.29E-03,9.43E-03
43009,2.43E-03,9.43E-03
43010,2.86E-03,8.45E-03
43011,2.51E-03,8.65E-03
43012,2.55E-03,8.57E-03
43013,2.50E-03,8.60E-03
43014,3.31E-03,9.21E-03
43015,3.27E-03,9.24E-03
43016,3.37E-03,9.09E-03
43017,3.36E-03,8.98E-03
43018,3.35E-03,8.88E-03
43019,3.03E-03,7.59E-03
43020,3.06E-03,7.58E-03
43021,2.99E-03,7.57E-03
43022,2.59E-03,7.93E-03
43023,2.61E-03,7.78E-03
43024,2.65E-03,7.65E-03
43025,2.93E-03,8.40E-03
43026,3.19E-03,8.38E-03
43027,2.97E-03,8.35E-03
43028,2.37E-03,7.23E-03
43029,2.47E-03,7.11E-03
43030,2.54E-03,6.97E-03
43031,2.49E-03,6.26E-03
43032,2.50E-03,6.44E-03
43033,2.49E-03,6.34E-03
43034,2.55E-03,5.57E-03
43035,2.53E-03,5.46E-03
43036,2.51E-03,5.32E-03
43037,2.67E-03,7.79E-03
43038,2.63E-03,6.90E-03
43039,2.70E-03,7.38E-03
43040,2.79E-03,8.68E-03
43041,2.71E-03,8.70E-03
43042,2.62E-03,8.75E-03
43043,2.46E-03,8.77E-03
43044,2.48E-03,8.83E-03
43045,2.47E-03,8.80E-03
43046,3.15E-03,9.35E-03
43047,3.03E-03,9.36E-03
43048,2.58E-03,9.43E-03
43049,2.62E-03,9.37E-03
43050,2.62E-03,9.30E-03
43051,2.79E-03,9.43E-03
43052,2.63E-03,9.41E-03
43053,2.44E-03,8.26E-03
43054,2.41E-03,8.52E-03
43055,2.36E-03,8.41E-03
43056,2.68E-03,8.22E-03
43057,2.74E-03,8.23E-03
43058,2.23E-03,8.32E-03
43059,2.82E-03,9.05E-03
43060,2.82E-03,8.93E-03
43061,2.81E-03,8.79E-03
43062,2.67E-03,8.30E-03
43063,2.69E-03,7.52E-03
43064,2.80E-03,7.49E-03
43065,2.54E-03,8.81E-03
43066,2.46E-03,8.86E-03
43067,2.37E-03,5.19E-03
43068,2.58E-03,6.33E-03
43069,2.44E-03,6.04E-03
43070,2.39E-03,5.75E-03
43071,2.55E-03,6.82E-03
43072,2.50E-03,6.54E-03
43073,2.67E-03,8.36E-03
43074,2.80E-03,8.38E-03
43075,2.67E-03,8.50E-03
43076,2.61E-03,8.55E-03
43077,2.57E-03,9.44E-03
43078,2.48E-03,9.50E-03
43079,2.78E-03,9.14E-03
43080,3.09E-03,8.36E-03
43081,2.69E-03,8.33E-03
43082,2.81E-03,8.92E-03
43083,2.79E-03,9.03E-03
43084,2.55E-03,9.47E-03
43085,2.64E-03,8.53E-03
43086,2.72E-03,8.37E-03
43087,2.53E-03,6.68E-03
43088,2.39E-03,5.46E-03
43089,2.52E-03,8.84E-03
43090,2.75E-03,7.50E-03
43091,2.65E-03,8.31E-03
43092,2.79E-03,8.80E-03
43093,2.28E-03,8.28E-03
43094,2.72E-03,8.24E-03
43095,2.34E-03,8.36E-03
43096,2.40E-03,8.46E-03
43097,2.48E-03,8.22E-03
43098,2.42E-03,9.38E-03
43099,2.44E-03,9.32E-03
43100,2.75E-03,9.25E-03
43101,2.91E-03,9.36E-03
43102,2.63E-03,9.35E-03
43103,2.60E-03,8.18E-03
43104,2.50E-03,8.18E-03
43105,2.48E-03,8.78E-03
43106,2.47E-03,8.74E-03
43107,2.63E-03,8.71E-03
43108,2.72E-03,8.68E-03
43109,2.63E-03,7.12E-03
43110,2.61E-03,7.56E-03
43111,2.49E-03,5.66E-03
43112,2.53E-03,5.76E-03
43113,2.49E-03,6.49E-03
43114,2.49E-03,6.41E-03
43115,2.48E-03,7.00E-03
43116,2.41E-03,7.14E-03
43117,3.26E-03,8.32E-03
43118,2.64E-03,7.75E-03
43119,2.60E-03,7.88E-03
43120,2.96E-03,7.65E-03
43121,2.91E-03,7.66E-03
43122,2.97E-03,7.66E-03
43123,3.42E-03,8.91E-03
43124,3.40E-03,9.02E-03
43125,3.23E-03,9.26E-03
43126,3.09E-03,9.28E-03
43127,3.33E-03,9.13E-03
43128,3.33E-03,9.16E-03
43129,2.55E-03,8.56E-03
43130,2.50E-03,8.60E-03
43131,2.78E-03,8.42E-03
43132,2.65E-03,8.38E-03
43133,2.39E-03,9.35E-03
43134,2.50E-03,9.34E-03
43135,2.61E-03,9.26E-03
43136,2.63E-03,9.15E-03
43137,2.72E-03,9.24E-03
43138,2.80E-03,9.16E-03
43139,2.67E-03,7.92E-03
43140,2.72E-03,8.22E-03
43141,2.77E-03,8.46E-03
43142,2.57E-03,7.57E-03
43143,2.39E-03,7.60E-03
43144,2.64E-03,9.05E-03
43145,2.52E-03,8.65E-03
43146,2.49E-03,6.35E-03
43147,2.41E-03,7.26E-03
43148,2.52E-03,5.84E-03
43149,2.46E-03,8.71E-03
43150,2.84E-03,8.67E-03
43151,2.58E-03,8.03E-03
43152,2.57E-03,8.19E-03
43153,2.58E-03,8.35E-03
43154,2.95E-03,9.44E-03
43155,2.87E-03,9.59E-03
43156,2.99E-03,9.50E-03
43157,2.42E-03,8.69E-03
43158,2.44E-03,8.67E-03
43159,2.93E-03,8.67E-03
43160,2.51E-03,5.90E-03
43161,2.51E-03,5.96E-03
43162,2.49E-03,6.12E-03
43163,2.49E-03,6.29E-03
43164,2.24E-03,7.36E-03
43165,2.57E-03,8.71E-03
43166,2.67E-03,8.95E-03
43167,2.29E-03,7.66E-03
43168,3.31E-03,8.82E-03
43169,2.61E-03,8.78E-03
43170,2.63E-03,8.86E-03
43171,2.49E-03,6.06E-03
43172,2.50E-03,6.01E-03
43173,2.18E-03,7.55E-03
43174,2.10E-03,7.45E-03
43175,2.40E-03,8.65E-03
43176,2.37E-03,8.60E-03
43177,2.35E-03,8.56E-03
43178,3.30E-03,8.75E-03
43179,3.12E-03,8.70E-03
43180,2.49E-03,8.78E-03
43181,2.53E-03,8.69E-03
43182,2.53E-03,8.52E-03
43183,2.80E-03,8.65E-03
43184,2.17E-03,7.71E-03
43185,1.93E-03,7.74E-03
43186,2.28E-03,7.70E-03
43187,2.38E-03,8.51E-03
43188,2.36E-03,8.41E-03
43189,2.30E-03,8.32E-03
43190,2.63E-03,8.19E-03
43191,2.64E-03,8.26E-03
43192,2.27E-03,8.25E-03
43193,2.78E-03,8.79E-03
43194,2.78E-03,8.91E-03
43195,2.77E-03,9.11E-03
43196,2.56E-03,9.36E-03
43197,2.52E-03,9.41E-03
43198,2.72E-03,8.48E-03
43199,2.62E-03,8.54E-03
43200,2.64E-03,8.32E-03
43201,2.82E-03,8.34E-03
43202,2.53E-03,6.85E-03
43203,2.51E-03,6.58E-03
43204,2.44E-03,5.56E-03
43205,2.59E-03,6.62E-03
43206,2.51E-03,6.34E-03
43207,2.45E-03,6.07E-03
43208,2.56E-03,8.76E-03
43209,2.48E-03,8.81E-03
43210,2.70E-03,7.62E-03
43211,2.87E-03,7.59E-03
43212,3.04E-03,7.61E-03
43213,2.46E-03,7.64E-03
43214,2.82E-03,7.63E-03
43215,2.77E-03,7.60E-03
43216,2.52E-03,8.78E-03
43217,2.43E-03,5.81E-03
43218,2.51E-03,6.72E-03
43219,2.70E-03,8.33E-03
43220,2.66E-03,8.51E-03
43221,2.54E-03,9.39E-03
43222,2.75E-03,9.01E-03
43223,2.37E-03,8.22E-03
43224,2.59E-03,8.27E-03
43225,2.62E-03,8.20E-03
43226,2.28E-03,8.28E-03
43227,2.34E-03,8.36E-03
43228,2.37E-03,8.46E-03
43229,2.19E-03,7.73E-03
43230,2.79E-03,8.67E-03
43231,2.53E-03,8.61E-03
43232,3.19E-03,8.71E-03
43233,2.36E-03,8.55E-03
43234,2.38E-03,8.59E-03
43235,2.15E-03,7.50E-03
43236,2.50E-03,6.20E-03
43237,2.62E-03,8.80E-03
43238,3.25E-03,8.77E-03
43239,2.26E-03,7.68E-03
43240,2.20E-03,7.75E-03
43241,2.21E-03,7.73E-03
43242,2.25E-03,7.79E-03
43243,2.36E-03,7.76E-03
43244,2.68E-03,8.88E-03
43245,2.59E-03,8.72E-03
43246,2.22E-03,7.40E-03
43247,2.49E-03,6.24E-03
43248,2.49E-03,6.40E-03
43249,2.50E-03,6.16E-03
43250,2.51E-03,6.12E-03
43251,2.98E-03,8.68E-03
43252,2.41E-03,8.64E-03
43253,2.43E-03,8.62E-03
43254,3.15E-03,9.40E-03
43255,2.77E-03,9.54E-03
43256,2.87E-03,9.45E-03
43257,2.48E-03,8.87E-03
43258,2.52E-03,8.78E-03
43259,2.54E-03,8.87E-03
43260,2.50E-03,8.95E-03
43261,2.55E-03,8.45E-03
43262,2.60E-03,8.28E-03
43263,2.80E-03,8.67E-03
43264,2.58E-03,8.13E-03
43265,2.87E-03,8.66E-03
43266,2.45E-03,8.66E-03
43267,2.52E-03,6.07E-03
43268,2.35E-03,7.29E-03
43269,2.49E-03,6.44E-03
43270,2.55E-03,8.65E-03
43271,2.65E-03,8.98E-03
43272,2.31E-03,7.63E-03
43273,2.29E-03,7.57E-03
43274,2.73E-03,8.29E-03
43275,2.68E-03,8.02E-03
43276,2.98E-03,9.19E-03
43277,2.80E-03,9.11E-03
43278,2.63E-03,9.07E-03
43279,2.61E-03,9.18E-03
43280,3.08E-03,9.33E-03
43281,2.93E-03,9.29E-03
43282,2.58E-03,9.27E-03
43283,2.53E-03,9.26E-03
43284,2.52E-03,8.36E-03
43285,2.68E-03,8.40E-03
43286,2.53E-03,8.56E-03
43287,2.50E-03,8.60E-03
43288,3.30E-03,9.18E-03
43289,3.18E-03,9.20E-03
43290,3.37E-03,9.05E-03
43291,3.34E-03,9.08E-03
43292,3.41E-03,8.95E-03
43293,3.41E-03,8.85E-03
43294,2.87E-03,7.72E-03
43295,2.87E-03,7.73E-03
43296,2.86E-03,7.74E-03
43297,2.59E-03,7.98E-03
43298,2.63E-03,7.85E-03
43299,2.41E-03,8.30E-03
43300,1.86E-03,8.33E-03
43301,2.39E-03,7.18E-03
43302,2.44E-03,7.04E-03
43303,2.49E-03,6.56E-03
43304,2.49E-03,6.49E-03
43305,2.52E-03,6.02E-03
43306,2.50E-03,5.96E-03
43307,2.61E-03,7.32E-03
43308,2.63E-03,7.70E-03
43309,2.74E-03,8.66E-03
43310,2.66E-03,8.68E-03
43311,2.48E-03,8.73E-03
43312,2.47E-03,8.69E-03
43313,2.37E-03,7.80E-03
43314,1.71E-03,7.76E-03
43315,2.79E-03,8.50E-03
43316,2.37E-03,8.41E-03
43317,2.35E-03,8.50E-03
43318,2.33E-03,8.32E-03
43319,2.30E-03,8.24E-03
43320,2.58E-03,8.21E-03
43321,2.89E-03,7.67E-03
43322,2.41E-03,7.69E-03
43323,2.67E-03,7.72E-03
43324,2.83E-03,7.67E-03
43325,2.57E-03,8.72E-03
43326,2.50E-03,8.76E-03
43327,2.48E-03,5.88E-03
43328,2.57E-03,6.86E-03
43329,2.52E-03,6.61E-03
43330,2.51E-03,6.35E-03
43331,2.50E-03,6.88E-03
43332,2.51E-03,6.63E-03
43333,2.57E-03,8.28E-03
43334,2.68E-03,8.30E-03
43335,2.41E-03,8.18E-03
43336,2.61E-03,8.16E-03
43337,2.57E-03,8.15E-03
43338,2.53E-03,8.14E-03
43339,2.72E-03,8.45E-03
43340,2.60E-03,8.52E-03
43341,2.59E-03,9.28E-03
43342,2.51E-03,9.33E-03
43343,2.74E-03,8.78E-03
43344,2.75E-03,8.89E-03
43345,2.76E-03,9.08E-03
43346,2.94E-03,9.28E-03
43347,2.99E-03,9.27E-03
43348,2.30E-03,9.33E-03
43349,2.00E-03,9.28E-03
43350,2.62E-03,9.23E-03
43351,2.32E-03,9.21E-03
43352,2.94E-03,9.25E-03
43353,2.76E-03,8.99E-03
43354,2.55E-03,9.31E-03
43355,2.65E-03,8.49E-03
43356,2.56E-03,8.11E-03
43357,2.44E-03,8.11E-03
43358,2.43E-03,8.14E-03
43359,2.58E-03,8.29E-03
43360,2.51E-03,6.76E-03
43361,2.48E-03,6.11E-03
43362,2.53E-03,8.74E-03
43363,2.76E-03,7.69E-03
43364,2.67E-03,7.68E-03
43365,2.50E-03,8.23E-03
43366,2.32E-03,8.21E-03
43367,2.31E-03,8.28E-03
43368,2.54E-03,8.17E-03
43369,2.35E-03,8.45E-03
43370,2.35E-03,8.36E-03
43371,2.61E-03,8.12E-03
43372,2.79E-03,8.52E-03
43373,2.42E-03,7.79E-03
43374,3.26E-03,9.19E-03
43375,2.58E-03,9.08E-03
43376,2.35E-03,8.08E-03
43377,1.90E-03,8.05E-03
43378,2.54E-03,8.07E-03
43379,2.48E-03,8.68E-03
43380,2.68E-03,8.66E-03
43381,2.61E-03,7.48E-03
43382,2.52E-03,6.21E-03
43383,2.49E-03,6.63E-03
43384,2.43E-03,7.08E-03
43385,2.41E-03,7.82E-03
43386,2.10E-03,8.28E-03
43387,2.63E-03,7.94E-03
43388,2.81E-03,7.80E-03
43389,2.82E-03,7.81E-03
43390,2.79E-03,7.79E-03
43391,1.94E-03,7.78E-03
43392,3.35E-03,8.88E-03
43393,3.24E-03,9.10E-03
43394,3.19E-03,9.12E-03
43395,3.35E-03,8.98E-03
43396,3.32E-03,9.00E-03
43397,2.50E-03,8.04E-03
43398,1.55E-03,8.03E-03
43399,1.54E-03,8.03E-03
43400,1.73E-03,8.06E-03
43401,2.17E-03,8.03E-03
43402,1.51E-03,8.04E-03
43403,2.50E-03,8.55E-03
43404,2.66E-03,8.39E-03
43405,2.62E-03,9.19E-03
43406,2.53E-03,9.17E-03
43407,2.63E-03,9.10E-03
43408,2.89E-03,9.16E-03
43409,3.11E-03,9.13E-03
43410,2.91E-03,9.07E-03
43411,2.65E-03,7.83E-03
43412,2.70E-03,8.11E-03
43413,2.32E-03,7.59E-03
43414,2.65E-03,9.00E-03
43415,2.52E-03,8.60E-03
43416,2.89E-03,8.33E-03
43417,2.71E-03,8.27E-03
43418,2.49E-03,6.58E-03
43419,2.40E-03,7.22E-03
43420,2.52E-03,6.25E-03
43421,2.47E-03,8.65E-03
43422,2.75E-03,8.65E-03
43423,2.59E-03,8.08E-03
43424,2.74E-03,8.67E-03
43425,2.76E-03,8.54E-03
43426,2.57E-03,8.38E-03
43427,2.60E-03,8.22E-03
43428,2.51E-03,9.03E-03
43429,2.54E-03,8.95E-03
43430,3.01E-03,9.36E-03
43431,2.67E-03,9.50E-03
43432,2.74E-03,9.41E-03
43433,2.45E-03,8.61E-03
43434,2.95E-03,8.65E-03
43435,2.50E-03,6.31E-03
43436,2.51E-03,6.28E-03
43437,2.49E-03,6.54E-03
43438,2.32E-03,7.33E-03
43439,2.56E-03,8.66E-03
43440,2.66E-03,8.90E-03
43441,2.29E-03,7.77E-03
43442,2.26E-03,7.70E-03
43443,2.26E-03,7.73E-03
43444,2.29E-03,7.65E-03
43445,3.32E-03,8.80E-03
43446,2.61E-03,8.73E-03
43447,2.63E-03,8.81E-03
43448,2.49E-03,6.36E-03
43449,2.49E-03,6.52E-03
43450,2.50E-03,6.34E-03
43451,2.28E-03,7.53E-03
43452,2.26E-03,7.44E-03
43453,2.40E-03,8.58E-03
43454,2.42E-03,8.58E-03
43455,2.37E-03,8.54E-03
43456,3.17E-03,8.73E-03
43457,3.03E-03,8.68E-03
43458,2.54E-03,8.70E-03
43459,2.55E-03,8.78E-03
43460,2.56E-03,8.54E-03
43461,3.61E-03,9.28E-03
43462,2.74E-03,8.34E-03
43463,2.63E-03,8.13E-03
43464,2.32E-03,8.32E-03
43465,2.64E-03,8.09E-03
43466,2.34E-03,8.41E-03
43467,2.35E-03,8.50E-03
43468,2.48E-03,8.18E-03
43469,2.31E-03,8.24E-03
43470,2.78E-03,9.16E-03
43471,3.04E-03,9.20E-03
43472,2.94E-03,9.19E-03
43473,2.70E-03,8.77E-03
43474,2.70E-03,8.86E-03
43475,2.75E-03,9.04E-03
43476,2.59E-03,9.20E-03
43477,2.56E-03,9.24E-03
43478,2.67E-03,8.44E-03
43479,2.59E-03,8.51E-03
43480,2.36E-03,8.18E-03
43481,2.12E-03,8.08E-03
43482,2.30E-03,8.12E-03
43483,2.48E-03,8.24E-03
43484,2.47E-03,8.27E-03
43485,2.48E-03,6.93E-03
43486,2.49E-03,6.69E-03
43487,2.49E-03,6.16E-03
43488,2.59E-03,7.08E-03
43489,2.55E-03,6.84E-03
43490,2.51E-03,6.60E-03
43491,2.58E-03,8.69E-03
43492,2.49E-03,8.71E-03
43493,2.66E-03,7.81E-03
43494,2.80E-03,7.76E-03
43495,2.79E-03,7.73E-03
43496,2.42E-03,7.74E-03
43497,2.58E-03,7.73E-03
43498,2.73E-03,7.78E-03
43499,2.55E-03,8.70E-03
43500,2.50E-03,6.38E-03
43501,2.49E-03,6.82E-03
43502,2.43E-03,8.26E-03
43503,2.35E-03,8.15E-03
43504,2.62E-03,8.47E-03
43505,2.59E-03,9.22E-03
43506,2.73E-03,8.96E-03
43507,2.86E-03,9.17E-03
43508,2.31E-03,8.21E-03
43509,2.46E-03,8.19E-03
43510,2.35E-03,8.45E-03
43511,2.34E-03,8.36E-03
43512,2.73E-03,8.09E-03
43513,2.30E-03,8.28E-03
43514,2.56E-03,8.14E-03
43515,2.78E-03,8.38E-03
43516,3.51E-03,9.18E-03
43517,3.01E-03,9.10E-03
43518,2.55E-03,8.62E-03
43519,2.57E-03,8.70E-03
43520,3.08E-03,8.69E-03
43521,2.39E-03,8.54E-03
43522,2.41E-03,8.53E-03
43523,2.32E-03,7.48E-03
43524,2.50E-03,6.50E-03
43525,2.49E-03,6.64E-03
43526,2.61E-03,8.75E-03
43527,3.24E-03,8.74E-03
43528,2.30E-03,7.68E-03
43529,2.31E-03,7.72E-03
43530,2.15E-03,7.76E-03
43531,2.64E-03,8.83E-03
43532,2.58E-03,8.67E-03
43533,2.34E-03,7.38E-03
43534,2.49E-03,6.65E-03
43535,2.51E-03,6.47E-03
43536,2.92E-03,8.65E-03
43537,2.44E-03,8.57E-03
43538,2.82E-03,9.31E-03
43539,2.56E-03,8.86E-03
43540,2.58E-03,8.31E-03
43541,2.80E-03,8.40E-03
43542,2.74E-03,8.55E-03
43543,2.69E-03,8.66E-03
43544,2.60E-03,8.17E-03
43545,2.58E-03,9.45E-03
43546,2.66E-03,9.36E-03
43547,2.53E-03,9.02E-03
43548,2.51E-03,9.11E-03
43549,2.83E-03,8.64E-03
43550,2.46E-03,8.61E-03
43551,2.51E-03,6.46E-03
43552,2.37E-03,7.27E-03
43553,2.49E-03,6.68E-03
43554,2.87E-03,8.27E-03
43555,2.95E-03,8.33E-03
43556,2.52E-03,8.61E-03
43557,2.68E-03,8.92E-03
43558,2.32E-03,7.56E-03
43559,2.29E-03,7.90E-03
43560,3.15E-03,7.93E-03
43561,2.64E-03,7.93E-03
43562,2.71E-03,9.08E-03
43563,2.85E-03,9.05E-03
43564,2.85E-03,9.01E-03
43565,2.65E-03,9.02E-03
43566,2.36E-03,9.09E-03
43567,2.56E-03,9.09E-03
43568,2.65E-03,8.37E-03
43569,2.52E-03,8.55E-03
43570,1.84E-03,8.06E-03
43571,1.98E-03,8.08E-03
43572,3.26E-03,9.02E-03
43573,3.22E-03,9.04E-03
43574,3.35E-03,8.91E-03
43575,3.33E-03,8.93E-03
43576,2.43E-03,8.04E-03
43577,2.15E-03,8.06E-03
43578,3.34E-03,8.82E-03
43579,2.32E-03,7.63E-03
43580,3.01E-03,9.26E-03
43581,2.59E-03,8.46E-03
43582,2.50E-03,6.48E-03
43583,2.91E-03,7.82E-03
43584,2.51E-03,7.81E-03
43585,2.78E-03,7.85E-03
43586,2.80E-03,7.86E-03
43587,2.80E-03,7.88E-03
43588,2.64E-03,8.03E-03
43589,2.52E-03,8.27E-03
43590,2.62E-03,7.84E-03
43591,2.44E-03,7.14E-03
43592,2.49E-03,6.71E-03
43593,2.51E-03,6.44E-03
43594,2.61E-03,7.62E-03
43595,2.71E-03,8.64E-03
43596,2.48E-03,8.64E-03
43597,2.38E-03,8.15E-03
43598,2.30E-03,8.24E-03
43599,2.68E-03,8.10E-03
43600,2.32E-03,8.32E-03
43601,2.69E-03,8.18E-03
43602,3.14E-03,8.07E-03
43603,2.36E-03,8.41E-03
43604,2.36E-03,8.49E-03
43605,2.73E-03,7.78E-03
43606,2.59E-03,7.78E-03
43607,2.67E-03,7.90E-03
43608,2.77E-03,7.84E-03
43609,2.62E-03,8.66E-03
43610,2.49E-03,8.67E-03
43611,2.51E-03,6.41E-03
43612,2.59E-03,7.26E-03
43613,2.58E-03,7.04E-03
43614,2.55E-03,6.82E-03
43615,2.46E-03,6.99E-03
43616,2.49E-03,6.76E-03
43617,1.84E-03,7.81E-03
43618,2.42E-03,8.21E-03
43619,2.33E-03,8.26E-03
43620,2.30E-03,8.18E-03
43621,2.06E-03,8.09E-03
43622,2.18E-03,8.12E-03
43623,2.61E-03,8.43E-03
43624,2.54E-03,8.51E-03
43625,2.62E-03,9.12E-03
43626,2.56E-03,9.15E-03
43627,2.65E-03,8.74E-03
43628,2.67E-03,8.83E-03
43629,2.76E-03,9.00E-03
43630,2.71E-03,9.10E-03
43631,3.13E-03,9.12E-03
43632,3.04E-03,9.12E-03
43633,3.43E-03,8.02E-03
43634,2.87E-03,8.02E-03
43635,2.46E-03,8.01E-03
43636,1.84E-03,7.90E-03
43637,1.64E-03,7.92E-03
43638,1.38E-03,7.91E-03
43639,2.93E-03,7.96E-03
43640,2.94E-03,7.99E-03
43641,2.73E-03,7.99E-03
43642,2.05E-03,7.87E-03
43643,2.90E-03,9.11E-03
43644,2.69E-03,8.92E-03
43645,2.60E-03,9.14E-03
43646,2.59E-03,8.46E-03
43647,2.25E-03,8.15E-03
43648,2.31E-03,8.23E-03
43649,2.49E-03,6.88E-03
43650,2.52E-03,6.61E-03
43651,2.57E-03,8.66E-03
43652,2.72E-03,7.87E-03
43653,2.67E-03,7.78E-03
43654,2.35E-03,8.45E-03
43655,2.34E-03,8.37E-03
43656,2.88E-03,8.07E-03
43657,2.73E-03,8.23E-03
43658,2.29E-03,8.28E-03
43659,2.60E-03,8.12E-03
43660,2.28E-03,8.21E-03
43661,2.20E-03,8.16E-03
43662,2.74E-03,9.01E-03
43663,2.57E-03,8.93E-03
43664,2.52E-03,8.63E-03
43665,2.64E-03,8.63E-03
43666,2.59E-03,7.42E-03
43667,2.57E-03,7.21E-03
43668,2.57E-03,7.01E-03
43669,2.51E-03,6.62E-03
43670,2.49E-03,6.83E-03
43671,2.46E-03,7.04E-03
43672,2.12E-03,7.89E-03
43673,2.42E-03,7.85E-03
43674,2.34E-03,8.24E-03
43675,2.07E-03,8.18E-03
43676,2.67E-03,7.99E-03
43677,2.74E-03,7.91E-03
43678,2.75E-03,7.84E-03
43679,2.65E-03,7.83E-03
43680,2.50E-03,6.63E-03
43681,2.38E-03,8.49E-03
43682,2.60E-03,8.55E-03
43683,3.12E-03,9.16E-03
43684,2.34E-03,7.67E-03
43685,3.35E-03,8.84E-03
43686,1.99E-03,8.08E-03
43687,2.90E-03,9.01E-03
43688,2.84E-03,8.98E-03
43689,3.30E-03,8.95E-03
43690,2.22E-03,7.92E-03
43691,3.13E-03,9.05E-03
43692,2.04E-03,8.11E-03
43693,2.15E-03,8.13E-03
43694,2.26E-03,8.18E-03
43695,2.53E-03,8.50E-03
43696,2.57E-03,8.41E-03
43697,2.58E-03,9.07E-03
43698,2.64E-03,9.04E-03
43699,2.73E-03,8.95E-03
43700,3.01E-03,9.05E-03
43701,2.84E-03,9.03E-03
43702,2.61E-03,7.74E-03
43703,2.75E-03,7.96E-03
43704,1.80E-03,8.04E-03
43705,2.37E-03,8.01E-03
43706,2.53E-03,8.12E-03
43707,2.36E-03,7.60E-03
43708,2.98E-03,7.95E-03
43709,2.66E-03,8.01E-03
43710,3.28E-03,8.96E-03
43711,2.75E-03,8.94E-03
43712,2.60E-03,8.99E-03
43713,2.65E-03,8.94E-03
43714,2.52E-03,8.55E-03
43715,2.68E-03,8.36E-03
43716,2.27E-03,8.25E-03
43717,2.05E-03,8.10E-03
43718,2.68E-03,8.24E-03
43719,2.56E-03,7.91E-03
43720,3.05E-03,7.86E-03
43721,2.76E-03,7.86E-03
43722,2.49E-03,6.80E-03
43723,2.42E-03,7.19E-03
43724,2.51E-03,6.63E-03
43725,2.48E-03,8.60E-03
43726,2.74E-03,8.62E-03
43727,2.52E-03,9.18E-03
43728,2.53E-03,9.09E-03
43729,2.51E-03,9.40E-03
43730,2.59E-03,9.31E-03
43731,2.77E-03,7.93E-03
43732,2.74E-03,7.95E-03
43733,2.63E-03,8.11E-03
43734,3.07E-03,7.86E-03
43735,2.76E-03,7.91E-03
43736,2.63E-03,8.64E-03
43737,2.68E-03,8.55E-03
43738,2.70E-03,8.43E-03
43739,2.80E-03,8.26E-03
43740,2.59E-03,8.25E-03
43741,2.55E-03,8.93E-03
43742,2.71E-03,9.27E-03
43743,2.46E-03,8.57E-03
43744,2.85E-03,8.63E-03
43745,2.51E-03,6.63E-03
43746,2.49E-03,6.78E-03
43747,2.40E-03,7.32E-03
43748,3.19E-03,7.94E-03
43749,2.75E-03,8.08E-03
43750,3.32E-03,8.04E-03
43751,1.74E-03,8.04E-03
43752,2.32E-03,8.06E-03
43753,2.31E-03,8.33E-03
43754,2.54E-03,8.61E-03
43755,2.67E-03,8.27E-03
43756,2.72E-03,8.31E-03
43757,2.66E-03,8.85E-03
43758,3.35E-03,8.86E-03
43759,2.19E-03,7.79E-03
43760,1.70E-03,7.85E-03
43761,2.31E-03,7.76E-03
43762,2.33E-03,7.71E-03
43763,3.27E-03,8.76E-03
43764,2.62E-03,8.76E-03
43765,2.60E-03,8.68E-03
43766,2.34E-03,8.41E-03
43767,3.09E-03,8.00E-03
43768,2.97E-03,7.97E-03
43769,2.49E-03,6.77E-03
43770,2.36E-03,7.44E-03
43771,2.50E-03,6.63E-03
43772,2.45E-03,8.53E-03
43773,2.96E-03,8.65E-03
43774,2.57E-03,8.78E-03
43775,2.81E-03,9.23E-03
43776,2.59E-03,8.40E-03
43777,3.09E-03,9.08E-03
43778,3.00E-03,9.01E-03
43779,2.61E-03,8.63E-03
43780,2.40E-03,8.49E-03
43781,3.14E-03,8.70E-03
43782,2.50E-03,6.77E-03
43783,2.36E-03,7.53E-03
43784,2.60E-03,8.80E-03
43785,2.56E-03,8.71E-03
43786,1.87E-03,7.93E-03
43787,2.73E-03,7.83E-03
43788,2.71E-03,7.95E-03
43789,2.50E-03,9.24E-03
43790,2.49E-03,9.35E-03
43791,2.48E-03,9.30E-03
43792,2.59E-03,8.63E-03
43793,2.52E-03,6.81E-03
43794,2.49E-03,6.94E-03
43795,2.32E-03,7.86E-03
43796,2.26E-03,8.21E-03
43797,2.21E-03,8.15E-03
43798,2.56E-03,8.46E-03
43799,2.62E-03,9.05E-03
43800,2.65E-03,8.88E-03
43801,2.89E-03,9.04E-03
43802,2.56E-03,7.36E-03
43803,2.59E-03,7.55E-03
43804,1.92E-03,7.92E-03
43805,2.56E-03,7.99E-03
43806,1.55E-03,8.04E-03
43807,1.69E-03,8.14E-03
43808,2.38E-03,7.65E-03
43809,2.57E-03,7.98E-03
43810,2.39E-03,8.03E-03
43811,2.61E-03,7.83E-03
43812,2.74E-03,8.92E-03
43813,2.81E-03,8.94E-03
43814,3.18E-03,8.97E-03
43815,2.69E-03,8.89E-03
43816,2.64E-03,8.98E-03
43817,2.66E-03,8.96E-03
43818,2.52E-03,8.50E-03
43819,2.58E-03,8.41E-03
43820,2.27E-03,8.22E-03
43821,2.11E-03,8.12E-03
43822,2.40E-03,8.22E-03
43823,1.85E-03,8.16E-03
43824,2.33E-03,7.90E-03
43825,2.58E-03,7.87E-03
43826,2.49E-03,6.91E-03
43827,2.46E-03,7.11E-03
43828,2.57E-03,7.17E-03
43829,2.51E-03,6.81E-03
43830,2.51E-03,8.60E-03
43831,2.66E-03,8.61E-03
43832,2.52E-03,9.15E-03
43833,2.52E-03,9.26E-03
43834,2.72E-03,7.99E-03
43835,2.64E-03,8.07E-03
43836,2.65E-03,7.88E-03
43837,2.75E-03,7.90E-03
43838,2.60E-03,8.54E-03
43839,2.58E-03,8.44E-03
43840,2.98E-03,8.29E-03
43841,2.78E-03,7.89E-03
43842,2.88E-03,7.90E-03
43843,2.76E-03,7.99E-03
43844,2.74E-03,7.97E-03
43845,2.73E-03,8.02E-03
43846,2.62E-03,8.20E-03
43847,2.54E-03,9.00E-03
43848,2.63E-03,9.23E-03
43849,2.50E-03,8.57E-03
43850,2.77E-03,8.61E-03
43851,2.51E-03,6.80E-03
43852,2.49E-03,6.89E-03
43853,2.43E-03,7.25E-03
43854,3.18E-03,7.93E-03
43855,2.73E-03,7.89E-03
43856,1.85E-03,8.13E-03
43857,2.63E-03,8.10E-03
43858,2.98E-03,8.05E-03
43859,2.62E-03,8.23E-03
43860,2.14E-03,8.09E-03
43861,2.29E-03,8.29E-03
43862,2.53E-03,8.55E-03
43863,2.65E-03,8.35E-03
43864,2.56E-03,8.90E-03
43865,2.66E-03,8.86E-03
43866,2.66E-03,8.88E-03
43867,3.33E-03,8.87E-03
43868,2.67E-03,8.07E-03
43869,1.97E-03,7.82E-03
43870,2.31E-03,7.80E-03
43871,2.34E-03,7.76E-03
43872,3.28E-03,8.78E-03
43873,2.62E-03,8.78E-03
43874,2.58E-03,8.62E-03
43875,2.34E-03,8.37E-03
43876,2.30E-03,8.05E-03
43877,2.12E-03,8.06E-03
43878,2.54E-03,8.30E-03
43879,2.52E-03,8.26E-03
43880,3.09E-03,8.01E-03
43881,3.00E-03,7.95E-03
43882,2.49E-03,6.89E-03
43883,2.40E-03,7.38E-03
43884,2.51E-03,6.79E-03
43885,2.47E-03,8.54E-03
43886,2.89E-03,8.63E-03
43887,2.56E-03,8.85E-03
43888,2.75E-03,9.19E-03
43889,2.60E-03,8.33E-03
43890,3.01E-03,8.99E-03
43891,2.67E-03,8.93E-03
43892,2.60E-03,8.48E-03
43893,2.59E-03,8.70E-03
43894,2.88E-03,9.14E-03
43895,2.44E-03,8.50E-03
43896,3.00E-03,8.66E-03
43897,2.50E-03,6.78E-03
43898,2.49E-03,6.89E-03
43899,2.40E-03,7.49E-03
43900,2.96E-03,7.98E-03
43901,2.36E-03,8.45E-03
43902,2.58E-03,8.69E-03
43903,2.56E-03,8.76E-03
43904,2.51E-03,8.68E-03
43905,2.56E-03,8.62E-03
43906,2.41E-03,7.70E-03
43907,2.39E-03,7.58E-03
43908,3.20E-03,8.71E-03
43909,2.50E-03,8.00E-03
43910,2.57E-03,7.48E-03
43911,2.59E-03,7.66E-03
43912,2.98E-03,8.97E-03
43913,2.90E-03,8.96E-03
43914,3.05E-03,8.97E-03
43915,2.61E-03,8.83E-03
43916,2.67E-03,8.97E-03
43917,2.55E-03,8.45E-03
43918,2.18E-03,8.16E-03
43919,2.23E-03,8.19E-03
43920,2.15E-03,8.14E-03
43921,2.57E-03,8.19E-03
43922,2.43E-03,7.88E-03
43923,2.49E-03,7.02E-03
43924,2.52E-03,6.98E-03
43925,2.59E-03,8.61E-03
43926,2.50E-03,9.21E-03
43927,2.68E-03,8.02E-03
43928,2.72E-03,7.89E-03
43929,2.48E-03,8.44E-03
43930,2.24E-03,8.34E-03
43931,2.71E-03,7.92E-03
43932,2.71E-03,7.95E-03
43933,2.69E-03,8.05E-03
43934,2.66E-03,8.14E-03
43935,2.53E-03,9.07E-03
43936,2.60E-03,9.18E-03
43937,2.56E-03,8.58E-03
43938,2.68E-03,8.59E-03
43939,2.56E-03,7.30E-03
43940,2.51E-03,6.96E-03
43941,2.49E-03,7.00E-03
43942,2.44E-03,7.18E-03
43943,2.75E-03,7.92E-03
43944,2.65E-03,7.90E-03
43945,2.80E-03,8.06E-03
43946,2.52E-03,8.20E-03
43947,2.15E-03,8.11E-03
43948,2.27E-03,8.26E-03
43949,2.53E-03,8.50E-03
43950,2.57E-03,8.40E-03
43951,2.79E-03,8.90E-03
43952,2.70E-03,8.88E-03
43953,2.61E-03,8.84E-03
43954,3.30E-03,8.89E-03
43955,2.63E-03,7.91E-03
43956,1.40E-03,7.85E-03
43957,3.15E-03,7.97E-03
43958,2.20E-03,7.83E-03
43959,2.44E-03,8.01E-03
43960,2.36E-03,8.04E-03
43961,2.33E-03,7.80E-03
43962,2.71E-03,8.12E-03
43963,3.27E-03,8.79E-03
43964,2.70E-03,8.85E-03
43965,2.62E-03,8.82E-03
43966,2.64E-03,8.79E-03
43967,2.55E-03,8.56E-03
43968,2.57E-03,8.35E-03
43969,2.32E-03,8.34E-03
43970,2.19E-03,8.09E-03
43971,2.50E-03,8.22E-03
43972,2.67E-03,8.13E-03
43973,2.96E-03,8.03E-03
43974,2.89E-03,7.94E-03
43975,2.71E-03,7.92E-03
43976,2.67E-03,7.92E-03
43977,2.49E-03,6.99E-03
43978,2.43E-03,7.32E-03
43979,2.51E-03,6.94E-03
43980,2.54E-03,8.54E-03
43981,2.79E-03,8.60E-03
43982,2.56E-03,8.92E-03
43983,2.67E-03,9.14E-03
43984,2.70E-03,8.05E-03
43985,2.69E-03,8.08E-03
43986,2.62E-03,8.27E-03
43987,2.74E-03,7.93E-03
43988,2.71E-03,8.02E-03
43989,2.83E-03,8.91E-03
43990,3.05E-03,8.84E-03
43991,2.45E-03,8.85E-03
43992,2.60E-03,8.41E-03
43993,2.59E-03,8.77E-03
43994,2.77E-03,9.10E-03
43995,2.46E-03,8.50E-03
43996,2.93E-03,8.62E-03
43997,2.50E-03,6.92E-03
43998,2.49E-03,7.00E-03
43999,2.43E-03,7.45E-03
44000,2.94E-03,7.97E-03
44001,2.96E-03,8.00E-03
44002,2.34E-03,8.41E-03
44003,2.55E-03,8.63E-03
44004,2.34E-03,8.25E-03
44005,2.38E-03,8.29E-03
44006,2.60E-03,8.70E-03
44007,2.51E-03,8.72E-03
44008,2.47E-03,8.64E-03
44009,2.47E-03,8.59E-03
44010,2.60E-03,8.52E-03
44011,2.50E-03,6.90E-03
44012,2.38E-03,8.45E-03
44013,2.60E-03,8.55E-03
44014,2.79E-03,9.05E-03
44015,2.42E-03,7.75E-03
44016,2.42E-03,7.63E-03
44017,2.43E-03,7.55E-03
44018,3.23E-03,8.72E-03
44019,3.06E-03,8.66E-03
44020,1.92E-03,8.35E-03
44021,2.70E-03,7.93E-03
44022,2.67E-03,8.10E-03
44023,2.55E-03,9.12E-03
44024,2.62E-03,8.58E-03
44025,2.52E-03,7.13E-03
44026,2.49E-03,7.09E-03
44027,2.68E-03,7.91E-03
44028,2.65E-03,8.08E-03
44029,2.66E-03,8.17E-03
44030,2.19E-03,8.15E-03
44031,2.17E-03,8.13E-03
44032,2.20E-03,8.20E-03
44033,2.19E-03,8.18E-03
44034,2.25E-03,8.23E-03
44035,2.55E-03,8.45E-03
44036,2.73E-03,8.89E-03
44037,2.59E-03,8.78E-03
44038,3.08E-03,8.90E-03
44039,3.17E-03,8.90E-03
44040,2.88E-03,8.89E-03
44041,2.98E-03,8.90E-03
44042,2.80E-03,8.88E-03
44043,2.55E-03,7.58E-03
44044,2.58E-03,7.74E-03
44045,1.88E-03,7.86E-03
44046,1.16E-03,7.86E-03
44047,1.60E-03,7.85E-03
44048,2.44E-03,8.03E-03
44049,2.24E-03,7.84E-03
44050,2.64E-03,7.97E-03
44051,3.25E-03,8.81E-03
44052,2.56E-03,8.78E-03
44053,3.50E-03,8.81E-03
44054,2.67E-03,8.80E-03
44055,2.53E-03,8.50E-03
44056,2.55E-03,8.40E-03
44057,2.31E-03,8.30E-03
44058,2.26E-03,8.10E-03
44059,2.50E-03,8.18E-03
44060,2.71E-03,8.12E-03
44061,2.78E-03,8.05E-03
44062,2.79E-03,7.93E-03
44063,2.66E-03,7.92E-03
44064,2.49E-03,7.09E-03
44065,2.46E-03,7.25E-03
44066,2.53E-03,7.42E-03
44067,2.51E-03,7.10E-03
44068,2.58E-03,8.55E-03
44069,2.73E-03,8.58E-03
44070,2.58E-03,8.98E-03
44071,2.61E-03,9.09E-03
44072,2.68E-03,8.12E-03
44073,2.64E-03,8.22E-03
44074,2.72E-03,7.95E-03
44075,2.69E-03,8.00E-03
44076,2.82E-03,8.82E-03
44077,2.66E-03,7.96E-03
44078,2.65E-03,7.97E-03
44079,2.64E-03,8.10E-03
44080,2.66E-03,8.07E-03
44081,2.64E-03,8.14E-03
44082,2.61E-03,8.35E-03
44083,2.58E-03,8.84E-03
44084,2.71E-03,9.06E-03
44085,2.52E-03,8.51E-03
44086,2.82E-03,8.59E-03
44087,2.51E-03,7.07E-03
44088,2.49E-03,7.10E-03
44089,2.47E-03,7.39E-03
44090,2.83E-03,7.95E-03
44091,2.65E-03,7.95E-03
44092,2.86E-03,8.01E-03
44093,2.35E-03,8.21E-03
44094,2.46E-03,8.07E-03
44095,2.47E-03,8.09E-03
44096,2.34E-03,8.38E-03
44097,2.55E-03,8.56E-03
44098,2.52E-03,8.35E-03
44099,2.61E-03,8.72E-03
44100,2.40E-03,8.56E-03
44101,2.41E-03,8.51E-03
44102,2.57E-03,8.67E-03
44103,2.50E-03,8.60E-03
44104,2.50E-03,7.04E-03
44105,2.50E-03,7.02E-03
44106,2.35E-03,8.42E-03
44107,2.41E-03,8.46E-03
44108,2.60E-03,8.48E-03
44109,2.60E-03,8.63E-03
44110,2.78E-03,9.01E-03
44111,2.81E-03,8.96E-03
44112,2.40E-03,7.79E-03
44113,2.46E-03,7.69E-03
44114,2.46E-03,7.61E-03
44115,2.46E-03,7.51E-03
44116,3.24E-03,8.73E-03
44117,3.18E-03,8.67E-03
44118,2.94E-03,8.62E-03
44119,2.10E-03,8.28E-03
44120,2.15E-03,8.24E-03
44121,2.91E-03,8.15E-03
44122,2.56E-03,8.64E-03
44123,2.85E-03,7.98E-03
44124,2.68E-03,8.42E-03
44125,2.47E-03,8.04E-03
44126,2.43E-03,8.05E-03
44127,2.65E-03,8.02E-03
44128,2.23E-03,7.91E-03
44129,2.01E-03,7.87E-03
44130,2.09E-03,7.89E-03
44131,2.45E-03,7.87E-03
44132,2.53E-03,7.66E-03
44133,2.56E-03,7.82E-03
44134,2.81E-03,8.81E-03
44135,2.65E-03,8.76E-03
44136,2.75E-03,8.79E-03
44137,3.03E-03,8.83E-03
44138,2.93E-03,8.82E-03
44139,3.15E-03,8.82E-03
44140,3.11E-03,8.83E-03
44141,3.27E-03,8.82E-03
44142,2.52E-03,8.73E-03
44143,2.76E-03,8.81E-03
44144,2.56E-03,8.45E-03
44145,2.26E-03,8.24E-03
44146,2.29E-03,8.27E-03
44147,2.24E-03,8.20E-03
44148,2.23E-03,8.22E-03
44149,2.22E-03,8.15E-03
44150,2.24E-03,8.17E-03
44151,2.23E-03,8.13E-03
44152,2.54E-03,8.15E-03
44153,2.70E-03,8.07E-03
44154,2.70E-03,7.93E-03
44155,2.49E-03,7.18E-03
44156,2.52E-03,7.26E-03
44157,2.64E-03,8.56E-03
44158,2.59E-03,9.04E-03
44159,2.64E-03,8.17E-03
44160,2.69E-03,7.97E-03
44161,2.78E-03,8.73E-03
44162,2.67E-03,7.99E-03
44163,2.66E-03,8.04E-03
44164,2.65E-03,8.18E-03
44165,2.62E-03,8.29E-03
44166,2.58E-03,8.90E-03
44167,2.65E-03,9.01E-03
44168,2.56E-03,8.53E-03
44169,2.72E-03,8.57E-03
44170,2.52E-03,7.51E-03
44171,2.51E-03,7.22E-03
44172,2.50E-03,7.18E-03
44173,2.48E-03,7.33E-03
44174,2.76E-03,7.95E-03
44175,2.65E-03,7.95E-03
44176,2.74E-03,8.03E-03
44177,2.41E-03,8.17E-03
44178,2.64E-03,8.08E-03
44179,2.61E-03,8.11E-03
44180,2.38E-03,8.11E-03
44181,2.31E-03,8.35E-03
44182,2.54E-03,8.51E-03
44183,2.56E-03,8.40E-03
44184,3.04E-03,8.75E-03
44185,2.67E-03,8.73E-03
44186,2.31E-03,8.49E-03
44187,2.41E-03,8.53E-03
44188,2.49E-03,8.73E-03
44189,2.50E-03,8.34E-03
44190,2.50E-03,7.18E-03
44191,2.49E-03,7.11E-03
44192,2.50E-03,7.14E-03
44193,2.34E-03,8.39E-03
44194,2.46E-03,8.47E-03
44195,2.38E-03,8.43E-03
44196,2.61E-03,8.42E-03
44197,2.61E-03,8.69E-03
44198,2.61E-03,8.55E-03
44199,2.73E-03,8.97E-03
44200,2.78E-03,8.88E-03
44201,2.75E-03,8.93E-03
44202,2.43E-03,7.83E-03
44203,2.50E-03,7.74E-03
44204,2.51E-03,7.67E-03
44205,2.50E-03,7.58E-03
44206,2.49E-03,7.47E-03
44207,3.22E-03,8.74E-03
44208,3.18E-03,8.67E-03
44209,3.00E-03,8.62E-03
44210,2.88E-03,8.59E-03
44211,2.23E-03,8.21E-03
44212,1.95E-03,8.24E-03
44213,2.62E-03,8.01E-03
44214,2.60E-03,8.16E-03
44215,2.62E-03,8.12E-03
44216,2.61E-03,8.20E-03
44217,2.53E-03,8.57E-03
44218,2.57E-03,8.65E-03
44219,2.76E-03,7.97E-03
44220,2.77E-03,8.00E-03
44221,2.61E-03,8.01E-03
44222,2.59E-03,7.99E-03
44223,2.67E-03,8.33E-03
44224,2.01E-03,8.26E-03
44225,2.79E-03,8.17E-03
44226,2.43E-03,8.42E-03
44227,2.85E-03,8.60E-03
44228,2.83E-03,8.66E-03
44229,2.67E-03,8.02E-03
44230,2.62E-03,8.23E-03
44231,2.60E-03,8.95E-03
44232,2.63E-03,8.55E-03
44233,2.52E-03,7.36E-03
44234,2.49E-03,7.26E-03
44235,2.69E-03,7.95E-03
44236,2.69E-03,8.06E-03
44237,2.51E-03,8.14E-03
44238,2.30E-03,8.15E-03
44239,2.31E-03,8.13E-03
44240,2.27E-03,8.20E-03
44241,2.28E-03,8.17E-03
44242,2.26E-03,8.24E-03
44243,2.28E-03,8.22E-03
44244,2.29E-03,8.29E-03
44245,2.27E-03,8.26E-03
44246,2.32E-03,8.32E-03
44247,2.57E-03,8.45E-03
44248,2.78E-03,8.75E-03
44249,2.80E-03,8.54E-03
44250,2.83E-03,8.51E-03
44251,2.78E-03,8.45E-03
44252,2.65E-03,8.48E-03
44253,2.59E-03,7.98E-03
44254,2.77E-03,8.57E-03
44255,2.71E-03,7.99E-03
44256,2.51E-03,8.58E-03
44257,2.56E-03,8.21E-03
44258,2.58E-03,8.25E-03
44259,2.58E-03,8.17E-03
44260,2.59E-03,8.05E-03
44261,2.25E-03,8.24E-03
44262,2.33E-03,8.15E-03
44263,2.12E-03,8.20E-03
44264,1.94E-03,8.25E-03
44265,2.17E-03,8.48E-03
44266,1.95E-03,8.44E-03
44267,2.69E-03,8.41E-03
44268,2.89E-03,8.58E-03
44269,3.17E-03,8.68E-03
44270,3.05E-03,8.62E-03
44271,2.52E-03,7.54E-03
44272,2.56E-03,7.65E-03
44273,2.53E-03,7.79E-03
44274,2.53E-03,7.83E-03
44275,2.58E-03,7.73E-03
44276,2.73E-03,8.84E-03
44277,2.73E-03,8.88E-03
44278,2.62E-03,8.62E-03
44279,2.62E-03,8.48E-03
44280,2.43E-03,8.45E-03
44281,2.34E-03,8.40E-03
44282,2.50E-03,7.23E-03
44283,2.53E-03,7.28E-03
44284,2.43E-03,8.35E-03
44285,2.00E-03,8.31E-03
44286,2.40E-03,8.68E-03
44287,2.73E-03,8.61E-03
44288,2.78E-03,8.55E-03
44289,2.50E-03,8.49E-03
44290,2.55E-03,8.05E-03
44291,2.61E-03,8.03E-03
44292,3.23E-03,8.75E-03
44293,3.15E-03,8.75E-03
44294,3.12E-03,8.76E-03
44295,3.00E-03,8.76E-03
44296,2.91E-03,8.75E-03
44297,2.80E-03,8.74E-03
44298,2.71E-03,8.72E-03
44299,2.62E-03,8.70E-03
44300,2.52E-03,8.67E-03
44301,2.63E-03,8.58E-03
44302,2.70E-03,8.79E-03
44303,2.63E-03,8.71E-03
44304,2.62E-03,8.09E-03
44305,2.62E-03,8.03E-03
44306,2.60E-03,8.36E-03
44307,2.60E-03,8.24E-03
44308,2.67E-03,8.92E-03
44309,2.60E-03,8.76E-03
44310,2.61E-03,8.82E-03
44311,2.53E-03,8.49E-03
44312,2.76E-03,8.55E-03
44313,2.52E-03,7.88E-03
44314,2.49E-03,7.73E-03
44315,2.50E-03,7.32E-03
44316,2.49E-03,7.20E-03
44317,2.50E-03,7.41E-03
44318,2.63E-03,7.97E-03
44319,2.69E-03,7.97E-03
44320,2.69E-03,8.02E-03
44321,2.56E-03,8.07E-03
44322,2.48E-03,8.10E-03
44323,2.31E-03,8.17E-03
44324,2.36E-03,7.87E-03
44325,2.36E-03,7.91E-03
44326,2.33E-03,7.93E-03
44327,2.54E-03,7.95E-03
44328,2.67E-03,8.03E-03
44329,2.56E-03,8.05E-03
44330,2.50E-03,8.07E-03
44331,2.48E-03,8.09E-03
44332,2.48E-03,8.12E-03
44333,2.44E-03,8.14E-03
44334,2.31E-03,8.36E-03
44335,2.81E-03,8.40E-03
44336,2.50E-03,8.51E-03
44337,2.59E-03,8.66E-03
44338,2.75E-03,8.66E-03
44339,2.25E-03,8.46E-03
44340,1.84E-03,8.32E-03
44341,1.74E-03,8.35E-03
44342,2.06E-03,8.41E-03
44343,2.67E-03,8.67E-03
44344,2.57E-03,8.45E-03
44345,2.32E-03,8.34E-03
44346,2.34E-03,8.31E-03
44347,2.29E-03,8.29E-03
44348,2.31E-03,8.26E-03
44349,2.31E-03,8.24E-03
44350,2.32E-03,8.22E-03
44351,2.35E-03,8.20E-03
44352,2.39E-03,8.18E-03
44353,2.40E-03,8.16E-03
44354,2.41E-03,8.14E-03
44355,2.62E-03,8.05E-03
44356,2.65E-03,7.97E-03
44357,2.49E-03,7.35E-03
44358,2.51E-03,7.28E-03
44359,2.50E-03,7.46E-03
44360,2.49E-03,7.59E-03
44361,2.65E-03,8.53E-03
44362,2.58E-03,8.51E-03
44363,2.64E-03,8.87E-03
44364,2.60E-03,8.30E-03
44365,2.63E-03,8.06E-03
44366,2.68E-03,8.64E-03
44367,2.24E-03,8.63E-03
44368,2.49E-03,8.50E-03
44369,2.56E-03,8.01E-03
44370,2.31E-03,8.43E-03
44371,2.21E-03,8.32E-03
44372,2.16E-03,8.36E-03
44373,2.53E-03,7.35E-03
44374,2.38E-03,8.42E-03
44375,2.61E-03,8.55E-03
44376,2.70E-03,8.80E-03
44377,2.64E-03,7.79E-03
44378,2.72E-03,7.84E-03
44379,2.64E-03,7.72E-03
44380,2.58E-03,7.62E-03
44381,3.05E-03,8.62E-03
44382,2.97E-03,8.58E-03
44383,2.30E-03,8.35E-03
44384,2.26E-03,8.39E-03
44385,1.82E-03,8.48E-03
44386,2.01E-03,8.21E-03
44387,2.50E-03,8.06E-03
44388,2.46E-03,8.09E-03
44389,2.61E-03,8.07E-03
44390,2.55E-03,8.22E-03
44391,2.53E-03,8.26E-03
44392,2.54E-03,8.30E-03
44393,1.93E-03,8.26E-03
44394,2.49E-03,8.59E-03
44395,2.62E-03,8.58E-03
44396,2.48E-03,8.51E-03
44397,2.29E-03,8.37E-03
44398,2.52E-03,7.88E-03
44399,2.48E-03,7.92E-03
44400,2.51E-03,7.96E-03
44401,2.58E-03,7.99E-03
44402,2.66E-03,8.01E-03
44403,2.65E-03,8.04E-03
44404,2.63E-03,8.06E-03
44405,2.58E-03,8.08E-03
44406,2.53E-03,8.10E-03
44407,2.50E-03,8.13E-03
44408,2.56E-03,8.15E-03
44409,2.61E-03,8.17E-03
44410,2.20E-03,8.17E-03
44411,2.64E-03,8.02E-03
44412,2.38E-03,8.10E-03
44413,2.48E-03,8.07E-03
44414,2.57E-03,8.00E-03
44415,2.64E-03,7.99E-03
44416,2.53E-03,7.50E-03
44417,2.50E-03,7.31E-03
44418,2.54E-03,7.41E-03
44419,2.48E-03,7.92E-03
44420,2.40E-03,7.78E-03
44421,2.79E-03,8.54E-03
44422,2.50E-03,8.47E-03
44423,2.67E-03,8.84E-03
44424,2.60E-03,8.68E-03
44425,2.60E-03,8.74E-03
44426,2.59E-03,8.42E-03
44427,2.57E-03,8.30E-03
44428,2.57E-03,8.14E-03
44429,2.55E-03,8.07E-03
44430,2.35E-03,8.55E-03
44431,2.68E-03,8.76E-03
44432,2.60E-03,8.69E-03
44433,3.17E-03,8.68E-03
44434,3.12E-03,8.69E-03
44435,3.08E-03,8.69E-03
44436,3.00E-03,8.69E-03
44437,2.89E-03,8.68E-03
44438,2.79E-03,8.67E-03
44439,2.70E-03,8.66E-03
44440,2.64E-03,8.63E-03
44441,2.72E-03,8.41E-03
44442,2.52E-03,8.60E-03
44443,1.88E-03,8.57E-03
44444,1.57E-03,8.53E-03
44445,1.88E-03,8.53E-03
44446,2.35E-03,8.55E-03
44447,2.47E-03,8.62E-03
44448,2.57E-03,8.10E-03
44449,2.57E-03,8.36E-03
44450,2.61E-03,8.79E-03
44451,2.56E-03,8.49E-03
44452,2.66E-03,8.51E-03
44453,2.45E-03,7.65E-03
44454,2.51E-03,7.53E-03
44455,2.52E-03,7.38E-03
44456,2.53E-03,7.44E-03
44457,2.58E-03,7.99E-03
44458,2.58E-03,8.04E-03
44459,2.28E-03,8.13E-03
44460,2.61E-03,8.20E-03
44461,2.50E-03,8.22E-03
44462,2.43E-03,8.24E-03
44463,2.33E-03,8.25E-03
44464,2.33E-03,8.27E-03
44465,2.52E-03,8.29E-03
44466,2.44E-03,8.32E-03
44467,2.34E-03,8.34E-03
44468,2.30E-03,8.35E-03
44469,2.53E-03,8.45E-03
44470,2.50E-03,8.59E-03
44471,2.12E-03,8.27E-03
44472,2.51E-03,8.31E-03
44473,2.49E-03,8.35E-03
44474,2.33E-03,8.51E-03
44475,2.37E-03,8.04E-03
44476,2.30E-03,8.22E-03
44477,2.30E-03,8.44E-03
44478,2.52E-03,8.27E-03
44479,2.95E-03,8.57E-03
44480,3.10E-03,8.62E-03
44481,3.08E-03,8.62E-03
44482,3.03E-03,8.62E-03
44483,2.97E-03,8.62E-03
44484,2.87E-03,8.61E-03
44485,2.76E-03,8.61E-03
44486,2.64E-03,8.60E-03
44487,2.56E-03,8.57E-03
44488,2.78E-03,8.52E-03
44489,2.72E-03,7.70E-03
44490,2.81E-03,7.79E-03
44491,2.86E-03,7.85E-03
44492,2.30E-03,8.53E-03
44493,2.66E-03,8.72E-03
44494,2.58E-03,8.65E-03
44495,2.53E-03,8.18E-03
44496,2.48E-03,8.11E-03
44497,2.59E-03,8.48E-03
44498,2.53E-03,8.35E-03
44499,2.67E-03,8.76E-03
44500,2.58E-03,8.61E-03
44501,2.60E-03,8.66E-03
44502,2.46E-03,8.45E-03
44503,2.82E-03,8.54E-03
44504,2.33E-03,7.95E-03
44505,2.30E-03,7.82E-03
44506,2.58E-03,7.48E-03
44507,2.54E-03,7.42E-03
44508,2.60E-03,7.59E-03
44509,2.57E-03,8.02E-03
44510,2.38E-03,8.07E-03
44511,2.21E-03,8.10E-03
44512,2.07E-03,8.17E-03
44513,2.64E-03,7.89E-03
44514,2.61E-03,7.94E-03
44515,2.60E-03,7.99E-03
44516,2.62E-03,8.02E-03
44517,2.61E-03,8.05E-03
44518,2.64E-03,8.08E-03
44519,2.61E-03,8.10E-03
44520,2.60E-03,8.11E-03
44521,2.55E-03,8.14E-03
44522,2.48E-03,8.15E-03
44523,2.49E-03,8.19E-03
44524,3.28E-03,8.24E-03
44525,2.28E-03,8.39E-03
44526,2.22E-03,8.40E-03
44527,2.36E-03,8.51E-03
44528,2.74E-03,8.38E-03
44529,2.37E-03,8.11E-03
44530,2.26E-03,8.12E-03
44531,1.95E-03,8.19E-03
44532,2.29E-03,8.51E-03
44533,2.29E-03,8.45E-03
44534,2.22E-03,8.37E-03
44535,2.04E-03,8.36E-03
44536,3.09E-03,8.25E-03
44537,2.60E-03,8.25E-03
44538,2.47E-03,8.27E-03
44539,2.43E-03,8.28E-03
44540,2.34E-03,8.30E-03
44541,1.86E-03,8.35E-03
44542,2.23E-03,8.13E-03
44543,2.52E-03,8.04E-03
44544,2.49E-03,8.02E-03
44545,2.57E-03,7.54E-03
44546,2.57E-03,7.48E-03
44547,2.50E-03,7.60E-03
44548,2.42E-03,7.70E-03
44549,2.68E-03,8.50E-03
44550,2.56E-03,8.47E-03
44551,2.60E-03,8.71E-03
44552,2.55E-03,8.41E-03
44553,2.51E-03,8.15E-03
44554,2.45E-03,8.59E-03
44555,2.56E-03,8.54E-03
44556,2.58E-03,8.59E-03
44557,2.49E-03,8.41E-03
44558,2.39E-03,8.15E-03
44559,2.63E-03,8.68E-03
44560,2.57E-03,8.61E-03
44561,2.79E-03,7.92E-03
44562,2.62E-03,7.97E-03
44563,2.63E-03,8.02E-03
44564,2.63E-03,8.06E-03
44565,2.62E-03,8.09E-03
44566,2.63E-03,8.12E-03
44567,2.63E-03,8.14E-03
44568,2.64E-03,8.16E-03
44569,2.59E-03,8.18E-03
44570,2.52E-03,8.19E-03
44571,2.36E-03,8.22E-03
44572,2.22E-03,8.25E-03
44573,2.85E-03,7.77E-03
44574,3.30E-03,7.87E-03
44575,2.15E-03,8.09E-03
44576,2.65E-03,7.67E-03
44577,2.56E-03,7.54E-03
44578,2.25E-03,7.95E-03
44579,1.91E-03,7.84E-03
44580,1.47E-03,8.17E-03
44581,1.72E-03,8.29E-03
44582,2.52E-03,8.49E-03
44583,2.17E-03,8.47E-03
44584,2.99E-03,8.57E-03
44585,3.00E-03,8.56E-03
44586,2.96E-03,8.56E-03
44587,2.90E-03,8.55E-03
44588,2.83E-03,8.55E-03
44589,2.72E-03,8.54E-03
44590,2.61E-03,8.53E-03
44591,2.43E-03,8.52E-03
44592,2.12E-03,8.47E-03
44593,2.88E-03,8.53E-03
44594,2.36E-03,8.42E-03
44595,2.51E-03,8.23E-03
44596,2.30E-03,8.50E-03
44597,2.26E-03,8.23E-03
44598,1.46E-03,8.16E-03
44599,1.64E-03,8.48E-03
44600,1.79E-03,8.44E-03
44601,1.55E-03,8.41E-03
44602,2.17E-03,8.36E-03
44603,2.46E-03,8.55E-03
44604,2.44E-03,8.19E-03
44605,2.52E-03,8.47E-03
44606,2.59E-03,8.64E-03
44607,2.55E-03,8.45E-03
44608,2.68E-03,8.49E-03
44609,2.93E-03,8.52E-03
44610,2.96E-03,8.50E-03
44611,2.93E-03,8.50E-03
44612,2.84E-03,8.49E-03
44613,2.76E-03,8.49E-03
44614,2.65E-03,8.48E-03
44615,2.49E-03,8.47E-03
44616,2.31E-03,8.44E-03
44617,1.79E-03,8.43E-03
44618,2.00E-03,8.44E-03
44619,2.56E-03,8.44E-03
44620,2.08E-03,8.43E-03
44621,1.94E-03,8.40E-03
44622,1.76E-03,8.38E-03
44623,1.54E-03,8.34E-03
44624,2.05E-03,8.24E-03
44625,1.52E-03,8.21E-03
44626,1.64E-03,8.12E-03
44627,1.81E-03,8.10E-03
44628,2.20E-03,7.76E-03
44629,2.87E-03,7.66E-03
44630,2.56E-03,7.59E-03
44631,2.63E-03,7.63E-03
44632,2.27E-03,8.06E-03
44633,2.39E-03,8.05E-03
44634,1.46E-03,8.13E-03
44635,2.93E-03,7.95E-03
44636,2.57E-03,8.01E-03
44637,2.64E-03,8.06E-03
44638,2.63E-03,8.10E-03
44639,2.66E-03,8.13E-03
44640,2.66E-03,8.16E-03
44641,2.64E-03,8.19E-03
44642,2.64E-03,8.21E-03
44643,2.61E-03,8.23E-03
44644,2.59E-03,8.25E-03
44645,2.57E-03,8.27E-03
44646,1.93E-03,8.28E-03
44647,1.96E-03,8.27E-03
44648,2.43E-03,8.30E-03
44649,2.63E-03,8.31E-03
44650,2.58E-03,8.31E-03
44651,2.42E-03,8.32E-03
44652,2.26E-03,8.34E-03
44653,2.57E-03,7.75E-03
44654,2.46E-03,7.83E-03
44655,2.08E-03,8.39E-03
44656,1.90E-03,8.45E-03
44657,2.28E-03,7.92E-03
44658,1.42E-03,8.14E-03
44659,1.88E-03,8.19E-03
44660,2.43E-03,8.07E-03
44661,2.10E-03,8.10E-03
44662,2.81E-03,7.73E-03
44663,2.43E-03,7.70E-03
44664,2.38E-03,7.90E-03
44665,2.81E-03,7.98E-03
44666,2.42E-03,8.05E-03
44667,2.17E-03,8.12E-03
44668,1.78E-03,8.18E-03
44669,2.30E-03,8.21E-03
44670,2.03E-03,8.31E-03
44671,1.92E-03,8.33E-03
44672,2.02E-03,8.35E-03
44673,2.12E-03,8.37E-03
44674,2.14E-03,8.39E-03
44675,2.05E-03,8.40E-03
44676,2.08E-03,8.39E-03
44677,2.23E-03,8.39E-03
44678,2.42E-03,8.41E-03
44679,2.56E-03,8.43E-03
44680,2.67E-03,8.44E-03
44681,2.77E-03,8.44E-03
44682,2.88E-03,8.44E-03
44683,2.91E-03,8.47E-03
44684,3.00E-03,8.45E-03
44685,1.93E-03,4.51E-03
44686,2.21E-03,4.37E-03
44687,2.15E-03,4.25E-03
44688,2.49E-03,4.11E-03
44689,2.56E-03,3.92E-03
44690,2.61E-03,3.73E-03
44691,2.65E-03,3.54E-03
44692,2.71E-03,3.43E-03
44693,2.78E-03,3.33E-03
44694,2.83E-03,3.29E-03
44695,2.78E-03,3.29E-03
44696,2.51E-03,3.37E-03
44697,2.37E-03,3.49E-03
44698,2.15E-03,3.73E-03
44699,2.16E-03,4.05E-03
44700,2.18E-03,4.42E-03
44701,2.14E-03,4.83E-03
44702,2.02E-03,5.22E-03
44703,1.63E-03,5.54E-03
44704,3.02E-03,6.78E-03
44705,2.94E-03,7.17E-03
44706,2.93E-03,7.55E-03
44707,2.91E-03,7.89E-03
44708,2.96E-03,8.19E-03
44709,2.79E-03,8.46E-03
44710,2.54E-03,8.71E-03
44711,2.32E-03,8.96E-03
44712,2.23E-03,9.16E-03
44713,2.38E-03,9.34E-03
44714,2.52E-03,9.52E-03
44715,2.52E-03,9.70E-03
44716,2.66E-03,9.88E-03
44717,2.77E-03,1.00E-02
44718,2.97E-03,1.01E-02
44719,3.16E-03,1.02E-02
44720,3.32E-03,1.03E-02
44721,3.24E-03,1.04E-02
44722,3.03E-03,1.05E-02
44723,2.88E-03,1.05E-02
44724,2.68E-03,1.05E-02
44725,2.54E-03,1.05E-02
44726,2.46E-03,1.05E-02
44727,2.39E-03,1.05E-02
44728,2.37E-03,1.05E-02
44729,2.36E-03,1.05E-02
44730,2.36E-03,1.04E-02
44731,2.37E-03,1.04E-02
44732,2.38E-03,1.03E-02
44733,2.42E-03,1.03E-02
44734,2.43E-03,1.02E-02
44735,2.43E-03,1.01E-02
44736,2.45E-03,1.00E-02
44737,2.45E-03,9.95E-03
44738,2.46E-03,9.85E-03
44739,2.45E-03,9.75E-03
44740,2.48E-03,9.65E-03
44741,2.47E-03,9.53E-03
44742,2.47E-03,9.42E-03
44743,2.47E-03,9.30E-03
44744,2.47E-03,9.17E-03
44745,2.47E-03,9.04E-03
44746,2.47E-03,8.90E-03
44747,2.47E-03,8.76E-03
44748,2.46E-03,8.61E-03
44749,2.47E-03,8.46E-03
44750,2.47E-03,8.31E-03
44751,2.46E-03,8.15E-03
44752,2.42E-03,7.99E-03
44753,2.39E-03,7.82E-03
44754,2.38E-03,7.64E-03
44755,2.39E-03,7.46E-03
44756,2.42E-03,7.28E-03
44757,2.46E-03,7.10E-03
44758,2.47E-03,6.92E-03
44759,2.44E-03,6.73E-03
44760,2.39E-03,6.54E-03
44761,2.36E-03,6.35E-03
44762,2.38E-03,6.16E-03
44763,2.43E-03,5.95E-03
44764,2.51E-03,5.75E-03
44765,2.56E-03,5.56E-03
44766,2.56E-03,5.36E-03
44767,2.52E-03,5.15E-03
44768,2.49E-03,4.94E-03
44769,2.50E-03,4.73E-03
44770,2.49E-03,4.52E-03
44771,2.47E-03,4.31E-03
44772,2.39E-03,4.10E-03
44773,2.34E-03,3.88E-03
44774,2.32E-03,3.65E-03
44775,2.39E-03,3.41E-03
44776,2.40E-03,3.20E-03
44777,2.21E-03,2.99E-03
44778,2.20E-03,2.75E-03
44779,2.15E-03,2.56E-03
44780,2.36E-03,2.37E-03
44781,1.97E-03,2.17E-03
44782,2.15E-03,2.00E-03
44783,2.57E-03,1.81E-03
44784,2.15E-03,1.61E-03
44785,2.16E-03,1.45E-03
44786,2.08E-03,1.30E-03
44787,1.66E-03,1.22E-03
44788,2.15E-03,1.20E-03
44789,3.27E-03,1.17E-03
44790,3.12E-03,1.12E-03
44791,3.10E-03,1.08E-03
44792,2.97E-03,1.04E-03
44793,2.17E-03,1.02E-03
44794,1.92E-03,9.93E-04
44795,2.41E-03,1.04E-03
44796,2.38E-03,1.15E-03
44797,2.32E-03,1.30E-03
44798,2.15E-03,1.42E-03
44799,2.08E-03,1.57E-03
44800,2.21E-03,1.77E-03
44801,2.34E-03,1.91E-03
44802,2.50E-03,2.05E-03
44803,2.49E-03,2.21E-03
44804,2.55E-03,2.37E-03
44805,2.56E-03,2.54E-03
44806,2.52E-03,2.72E-03
44807,2.49E-03,2.93E-03
44808,2.48E-03,3.08E-03
44809,2.48E-03,3.29E-03
44810,2.49E-03,3.50E-03
44811,2.48E-03,3.72E-03
44812,2.45E-03,3.94E-03
44813,2.43E-03,4.18E-03
44814,2.44E-03,4.42E-03
44815,2.48E-03,4.67E-03
44816,2.51E-03,4.91E-03
44817,2.56E-03,5.16E-03
44818,2.53E-03,5.40E-03
44819,2.51E-03,5.63E-03
44820,2.48E-03,5.83E-03
44821,2.43E-03,5.99E-03
44822,2.45E-03,6.11E-03
44823,2.49E-03,6.21E-03
44824,2.59E-03,6.30E-03
44825,2.51E-03,6.42E-03
44826,2.40E-03,6.57E-03
44827,2.35E-03,6.70E-03
44828,2.35E-03,6.83E-03
44829,2.38E-03,6.93E-03
44830,2.45E-03,7.05E-03
44831,2.52E-03,7.20E-03
44832,2.59E-03,7.40E-03
44833,2.75E-03,7.67E-03
44834,2.77E-03,7.98E-03
44835,2.79E-03,8.25E-03
44836,2.75E-03,8.57E-03
44837,2.79E-03,8.93E-03
44838,2.82E-03,9.35E-03
44839,3.03E-03,1.04E-02
44840,2.87E-03,1.06E-02
44841,2.59E-03,1.07E-02
44842,2.43E-03,1.08E-02
44843,2.20E-03,1.11E-02
44844,1.96E-03,1.15E-02
44845,1.98E-03,1.18E-02
44846,1.96E-03,1.22E-02
44847,1.90E-03,1.25E-02
44848,1.84E-03,1.27E-02
44849,1.84E-03,1.29E-02
44850,2.30E-03,1.29E-02
44851,2.80E-03,1.27E-02
44852,2.81E-03,1.25E-02
44853,2.86E-03,1.23E-02
44854,2.45E-03,1.21E-02
44855,2.44E-03,1.19E-02
44856,2.26E-03,1.17E-02
44857,2.22E-03,1.16E-02
44858,2.28E-03,1.15E-02
44859,2.30E-03,1.14E-02
44860,2.48E-03,1.14E-02
44861,2.52E-03,1.13E-02
44862,2.49E-03,1.13E-02
44863,2.44E-03,1.12E-02
44864,2.40E-03,1.12E-02
44865,2.37E-03,1.11E-02
44866,2.35E-03,1.11E-02
44867,2.37E-03,1.10E-02
44868,2.38E-03,1.11E-02
44869,2.42E-03,1.11E-02
44870,2.44E-03,1.13E-02
44871,2.45E-03,1.14E-02
44872,2.45E-03,1.16E-02
44873,2.45E-03,1.19E-02
44874,2.43E-03,1.21E-02
44875,2.33E-03,1.23E-02
44876,2.27E-03,1.25E-02
44877,2.32E-03,1.25E-02
44878,2.39E-03,1.25E-02
44879,2.42E-03,1.24E-02
44880,2.51E-03,1.23E-02
44881,2.48E-03,1.21E-02
44882,2.46E-03,1.20E-02
44883,2.42E-03,1.18E-02
44884,2.40E-03,1.16E-02
44885,2.35E-03,1.13E-02
44886,2.28E-03,1.11E-02
44887,2.22E-03,1.09E-02
44888,2.15E-03,1.07E-02
44889,2.04E-03,1.05E-02
44890,2.06E-03,1.03E-02
44891,2.21E-03,1.01E-02
44892,2.52E-03,9.94E-03
44893,2.61E-03,9.71E-03
44894,2.50E-03,9.48E-03
44895,2.41E-03,9.22E-03
44896,2.34E-03,8.99E-03
44897,2.25E-03,8.81E-03
44898,2.12E-03,8.68E-03
44899,2.17E-03,8.61E-03
44900,2.35E-03,8.52E-03
44901,2.60E-03,8.46E-03
44902,2.52E-03,8.39E-03
44903,2.21E-03,8.30E-03
44904,2.05E-03,8.22E-03
44905,2.05E-03,8.13E-03
44906,2.14E-03,8.06E-03
44907,2.19E-03,8.02E-03
44908,2.11E-03,7.99E-03
44909,2.15E-03,7.98E-03
44910,2.31E-03,7.98E-03
44911,2.40E-03,7.99E-03
44912,2.29E-03,8.02E-03
44913,2.22E-03,8.08E-03
44914,2.02E-03,8.14E-03
44915,2.32E-03,8.18E-03
44916,2.66E-03,8.24E-03
44917,2.81E-03,8.31E-03
44918,3.07E-03,8.38E-03
44919,2.26E-03,8.45E-03
44920,1.69E-03,8.50E-03
44921,1.98E-03,8.58E-03
44922,1.73E-03,8.69E-03
44923,1.81E-03,8.81E-03
44924,2.12E-03,8.91E-03
44925,2.52E-03,9.00E-03
44926,2.79E-03,9.09E-03
44927,2.82E-03,9.18E-03
44928,2.74E-03,9.27E-03
44929,2.59E-03,9.35E-03
44930,2.45E-03,9.42E-03
44931,2.29E-03,9.51E-03
44932,2.22E-03,9.60E-03
44933,2.31E-03,9.68E-03
44934,2.53E-03,9.74E-03
44935,2.80E-03,9.81E-03
44936,3.02E-03,9.88E-03
44937,3.33E-03,9.91E-03
44938,3.28E-03,9.95E-03
44939,3.04E-03,9.99E-03
44940,2.77E-03,1.00E-02
44941,2.70E-03,1.01E-02
44942,2.75E-03,1.01E-02
44943,2.83E-03,1.01E-02
44944,2.83E-03,1.01E-02
44945,2.67E-03,1.01E-02
44946,2.60E-03,1.01E-02
44947,2.52E-03,1.01E-02
44948,2.30E-03,1.01E-02
44949,2.12E-03,1.01E-02
44950,2.06E-03,1.01E-02
44951,2.04E-03,1.00E-02
44952,2.22E-03,9.98E-03
44953,2.34E-03,9.93E-03
44954,2.39E-03,9.89E-03
44955,2.60E-03,9.83E-03
44956,2.77E-03,9.78E-03
44957,2.90E-03,9.73E-03
44958,2.75E-03,9.68E-03
44959,2.65E-03,9.64E-03
44960,2.57E-03,9.59E-03
44961,2.47E-03,9.54E-03
44962,2.39E-03,9.49E-03
44963,2.38E-03,9.44E-03
44964,2.42E-03,9.39E-03
44965,2.46E-03,9.33E-03
44966,2.48E-03,9.27E-03
44967,2.50E-03,9.20E-03
44968,2.49E-03,9.12E-03
44969,2.47E-03,9.04E-03
44970,2.42E-03,8.95E-03
44971,2.38E-03,8.86E-03
44972,2.39E-03,8.76E-03
44973,2.41E-03,8.67E-03
44974,2.45E-03,8.57E-03
44975,2.48E-03,8.47E-03
44976,2.50E-03,8.36E-03
44977,2.55E-03,8.24E-03
44978,2.56E-03,8.12E-03
44979,2.61E-03,7.99E-03
44980,2.66E-03,7.85E-03
44981,2.78E-03,7.71E-03
44982,2.96E-03,7.57E-03
44983,2.95E-03,7.44E-03
44984,2.79E-03,7.29E-03
44985,2.58E-03,7.14E-03
44986,2.56E-03,7.01E-03
44987,2.63E-03,6.86E-03
44988,2.64E-03,6.69E-03
44989,2.61E-03,6.51E-03
44990,2.57E-03,6.34E-03
44991,2.53E-03,6.19E-03
44992,2.52E-03,6.05E-03
44993,2.55E-03,5.92E-03
44994,2.58E-03,5.80E-03
44995,2.62E-03,5.70E-03
44996,2.61E-03,5.61E-03
44997,2.65E-03,5.54E-03
44998,2.53E-03,5.51E-03
44999,2.15E-03,5.50E-03
45000,1.69E-03,5.49E-03
45001,1.60E-03,5.50E-03
45002,1.78E-03,5.50E-03
45003,1.98E-03,5.51E-03
45004,2.35E-03,5.52E-03
45005,2.65E-03,5.53E-03
45006,1.80E-03,5.60E-03
45007,1.53E-03,5.62E-03
45008,1.79E-03,5.60E-03
45009,1.88E-03,5.54E-03
45010,2.05E-03,5.42E-03
45011,2.51E-03,5.38E-03
45012,2.95E-03,5.21E-03
45013,2.90E-03,5.03E-03
45014,1.99E-03,8.43E-03
45015,2.32E-03,8.42E-03
45016,2.48E-03,8.41E-03
45017,2.53E-03,8.37E-03
45018,2.45E-03,8.33E-03
45019,2.33E-03,8.30E-03
45020,2.66E-03,8.56E-03
45021,2.45E-03,8.52E-03
45022,2.51E-03,8.27E-03
45023,2.52E-03,8.31E-03
45024,2.51E-03,8.35E-03
45025,2.49E-03,8.40E-03
45026,2.38E-03,8.45E-03
45027,2.46E-03,8.23E-03
45028,2.37E-03,8.45E-03
45029,2.29E-03,8.40E-03
45030,2.28E-03,8.35E-03
45031,2.30E-03,8.31E-03
45032,2.23E-03,8.26E-03
45033,2.56E-03,8.51E-03
45034,2.31E-03,8.43E-03
45035,2.19E-03,7.89E-03
45036,2.66E-03,7.96E-03
45037,2.67E-03,8.04E-03
45038,2.69E-03,8.09E-03
45039,2.70E-03,8.13E-03
45040,2.71E-03,8.17E-03
45041,2.71E-03,8.20E-03
45042,2.71E-03,8.24E-03
45043,2.70E-03,8.27E-03
45044,2.67E-03,8.28E-03
45045,2.62E-03,8.30E-03
45046,2.45E-03,8.32E-03
45047,2.29E-03,8.33E-03
45048,2.29E-03,8.33E-03
45049,2.48E-03,8.34E-03
45050,2.66E-03,8.35E-03
45051,2.61E-03,8.36E-03
45052,2.49E-03,8.37E-03
45053,2.28E-03,8.39E-03
45054,1.97E-03,8.39E-03
45055,1.66E-03,8.40E-03
45056,1.76E-03,8.41E-03
45057,2.00E-03,7.80E-03
45058,1.88E-03,8.39E-03
45059,2.07E-03,8.36E-03
45060,2.07E-03,8.32E-03
45061,2.12E-03,8.28E-03
45062,2.01E-03,8.24E-03
45063,1.83E-03,8.21E-03
45064,1.78E-03,8.14E-03
45065,2.08E-03,8.15E-03
45066,2.15E-03,8.19E-03
45067,1.59E-03,8.11E-03
45068,1.61E-03,8.14E-03
45069,1.95E-03,8.09E-03
45070,1.66E-03,8.11E-03
45071,1.60E-03,8.14E-03
45072,1.62E-03,8.16E-03
45076,1.59E-03,1.05E-02
45077,2.67E-03,1.04E-02
45078,2.02E-03,1.03E-02
45079,1.26E-03,1.03E-02
45080,1.53E-03,1.04E-02
45081,1.98E-03,1.01E-02
45082,1.73E-03,1.02E-02
45083,1.85E-03,1.03E-02
45084,3.18E-03,8.67E-03
45085,3.12E-03,8.23E-03
45086,3.48E-03,8.29E-03
45087,2.83E-03,9.51E-03
45088,2.38E-03,9.80E-03
45089,2.06E-03,1.00E-02
45090,2.09E-03,1.01E-02
45091,2.69E-03,9.21E-03
45092,1.84E-03,8.96E-03
45093,1.94E-03,9.26E-03
45094,2.41E-03,9.70E-03
45095,2.44E-03,9.49E-03
45096,2.29E-03,9.91E-03
45097,2.48E-03,9.76E-03
45098,3.01E-03,9.47E-03
45099,2.17E-03,9.94E-03
45100,1.87E-03,8.95E-03
45101,2.94E-03,8.95E-03
45102,2.51E-03,8.65E-03
45103,2.44E-03,8.77E-03
45104,3.23E-03,9.15E-03
45105,2.33E-03,9.41E-03
45106,2.48E-03,9.05E-03
45107,2.35E-03,9.90E-03
45108,2.35E-03,9.70E-03
45109,2.12E-03,1.03E-02
45110,2.25E-03,1.01E-02
45111,1.94E-03,1.05E-02
45112,1.98E-03,1.04E-02
45113,2.38E-03,1.02E-02
45114,2.31E-03,9.90E-03
45115,2.23E-03,1.01E-02
45116,2.73E-03,9.49E-03
45117,2.47E-03,9.71E-03
45118,2.15E-03,1.06E-02
45119,2.88E-03,1.04E-02
45120,2.82E-03,9.25E-03
45121,2.79E-03,1.06E-02
45122,3.01E-03,1.05E-02
45123,3.07E-03,1.06E-02
45124,2.43E-03,1.05E-02
45125,2.50E-03,1.07E-02
45126,1.96E-03,1.06E-02
45127,2.13E-03,1.07E-02
45128,2.73E-03,8.97E-03
45129,2.85E-03,8.81E-03
45130,2.75E-03,8.65E-03
45131,2.62E-03,8.49E-03
45132,2.73E-03,8.37E-03
45133,2.18E-03,8.29E-03
45134,1.94E-03,8.77E-03
45135,2.18E-03,8.67E-03
45136,3.12E-03,8.70E-03
45137,3.51E-03,8.92E-03
45138,2.74E-03,9.27E-03
45139,2.45E-03,9.62E-03
45140,2.38E-03,9.92E-03
45141,2.34E-03,1.01E-02
45142,2.27E-03,1.03E-02
45143,2.17E-03,1.05E-02
45144,2.08E-03,1.06E-02
45145,2.12E-03,1.07E-02
45146,2.40E-03,1.07E-02
45147,2.68E-03,1.08E-02
45148,2.81E-03,1.08E-02
45149,2.71E-03,1.08E-02
45150,2.34E-03,1.06E-02
45151,2.87E-03,1.08E-02
45152,2.95E-03,1.06E-02
45153,3.11E-03,1.08E-02
45154,2.43E-03,1.07E-02
45155,2.29E-03,1.07E-02
45156,2.05E-03,1.07E-02
45157,1.72E-03,1.07E-02
45158,1.99E-03,1.07E-02
45159,2.57E-03,1.06E-02
45160,1.97E-03,1.06E-02
45161,1.69E-03,1.06E-02
45162,2.55E-03,1.06E-02
45163,2.75E-03,1.06E-02
45164,2.58E-03,1.06E-02
45165,2.51E-03,1.06E-02
45166,2.35E-03,1.06E-02
45167,2.28E-03,1.05E-02
45168,2.34E-03,1.05E-02
45169,2.51E-03,1.04E-02
45170,2.01E-03,1.05E-02
45171,2.60E-03,1.03E-02
45172,2.46E-03,1.02E-02
45173,2.33E-03,1.01E-02
45174,2.35E-03,9.89E-03
45175,2.48E-03,9.70E-03
45176,2.58E-03,9.51E-03
45177,2.60E-03,9.31E-03
45178,2.46E-03,9.09E-03
45179,2.28E-03,1.05E-02
45180,1.37E-03,1.04E-02
45182,1.12E-03,8.22E-03
45183,9.86E-04,8.20E-03
45184,1.28E-03,8.23E-03
45185,1.42E-03,8.18E-03
45186,1.44E-03,8.19E-03
45187,1.48E-03,8.25E-03
45188,2.18E-03,8.27E-03
45189,2.41E-03,8.30E-03
45190,1.46E-03,8.22E-03
45191,1.72E-03,8.33E-03
45192,1.03E-03,8.37E-03
45195,1.67E-03,4.58E-04
45196,2.50E-03,5.89E-04
45197,2.37E-03,7.74E-04
45198,1.40E-03,8.70E-04
45199,1.54E-03,7.58E-04
45200,1.98E-03,9.21E-04
45201,2.89E-03,9.95E-04
45202,2.71E-03,1.16E-03
45203,2.57E-03,1.34E-03
45204,2.48E-03,1.52E-03
45205,2.42E-03,1.69E-03
45206,2.41E-03,1.85E-03
45207,2.45E-03,2.01E-03
45208,2.54E-03,2.16E-03
45209,2.69E-03,2.31E-03
45210,2.86E-03,2.45E-03
45211,3.05E-03,2.61E-03
45212,2.04E-03,7.04E-03
45213,2.45E-03,6.77E-03
45214,2.72E-03,6.56E-03
45215,2.87E-03,6.42E-03
45216,2.90E-03,6.35E-03
45217,2.81E-03,6.34E-03
45218,2.66E-03,6.37E-03
45219,2.49E-03,6.43E-03
45220,2.35E-03,6.45E-03
45221,2.24E-03,6.40E-03
45222,2.20E-03,6.24E-03
45223,2.17E-03,6.00E-03
45224,2.15E-03,5.73E-03
45225,2.14E-03,5.44E-03
45226,2.13E-03,5.15E-03
45227,2.11E-03,4.87E-03
45228,2.08E-03,4.60E-03
45229,2.05E-03,4.33E-03
45230,2.01E-03,4.08E-03
45231,1.96E-03,3.83E-03
45232,1.90E-03,3.60E-03
45233,1.84E-03,3.37E-03
45234,1.75E-03,3.16E-03
45235,1.55E-03,2.95E-03
45236,2.04E-03,2.74E-03
45237,1.39E-03,2.89E-03
45238,1.75E-03,3.05E-03
45239,1.84E-03,3.27E-03
45240,1.90E-03,3.50E-03
45241,1.96E-03,3.74E-03
45242,2.01E-03,4.00E-03
45243,2.05E-03,4.26E-03
45244,2.08E-03,4.54E-03
45245,2.11E-03,4.84E-03
45246,2.12E-03,5.15E-03
45247,2.13E-03,5.50E-03
45248,2.14E-03,5.87E-03
45249,2.15E-03,6.25E-03
45250,2.17E-03,6.61E-03
45251,2.21E-03,6.87E-03
45252,2.31E-03,6.94E-03
45253,2.45E-03,6.73E-03
45254,2.64E-03,6.32E-03
45255,2.82E-03,5.89E-03
45256,2.93E-03,5.63E-03
45257,2.90E-03,5.65E-03
45258,2.74E-03,5.93E-03
45259,2.52E-03,6.37E-03
45260,2.49E-03,6.89E-03
45261,3.22E-03,7.36E-03
45262,3.49E-03,7.70E-03
45263,3.08E-03,7.96E-03
45264,2.69E-03,8.22E-03
45265,1.51E-03,4.71E-04
45266,1.24E-03,2.42E-04
45267,2.09E-03,7.17E-04
45268,2.26E-03,8.57E-03
45269,1.80E-03,9.04E-03
45270,1.32E-03,9.64E-03
45282,3.47E-03,7.14E-03
45283,3.47E-03,7.35E-03
45284,3.46E-03,7.35E-03
45285,3.44E-03,7.15E-03
45286,1.39E-03,5.24E-03
45287,1.73E-03,5.21E-03
45288,1.90E-03,5.33E-03
45289,1.44E-03,5.31E-03
45290,1.41E-03,5.29E-03
45291,1.79E-03,6.80E-03
45292,2.41E-03,6.95E-03
45293,2.02E-03,6.53E-03
45294,2.00E-03,6.48E-03
45295,3.44E-03,8.26E-03
45296,3.34E-03,8.16E-03
45297,2.75E-03,7.91E-03
45298,3.44E-03,7.02E-03
45299,2.19E-03,7.62E-03
45300,2.21E-03,6.70E-03
45301,2.28E-03,6.76E-03
45302,2.25E-03,6.61E-03
45303,1.87E-03,6.55E-03
45304,2.11E-03,6.86E-03
45305,2.99E-03,6.92E-03
45306,2.74E-03,6.85E-03
45307,2.56E-03,7.03E-03
45308,1.74E-03,6.63E-03
45309,2.43E-03,7.00E-03
45310,1.77E-03,6.74E-03
45311,2.58E-03,6.63E-03
45312,1.83E-03,6.24E-03
45313,1.82E-03,6.34E-03
45314,1.77E-03,6.27E-03
45315,2.63E-03,7.09E-03
45316,2.63E-03,6.87E-03
45317,1.91E-03,6.39E-03
45318,2.24E-03,6.39E-03
45319,1.77E-03,6.20E-03
45320,2.28E-03,6.94E-03
45321,2.53E-03,6.76E-03
45322,1.88E-03,6.42E-03
45323,1.77E-03,6.25E-03
45324,2.36E-03,7.09E-03
45325,2.57E-03,7.16E-03
45326,2.55E-03,6.77E-03
45327,3.11E-03,6.87E-03
45328,2.41E-03,6.48E-03
45329,2.28E-03,6.63E-03
45330,2.55E-03,6.37E-03
45331,1.67E-03,6.13E-03
45332,1.74E-03,6.20E-03
45333,2.13E-03,6.60E-03
45334,2.98E-03,7.05E-03
45335,1.71E-03,6.06E-03
45336,2.06E-03,6.04E-03
45337,2.14E-03,6.06E-03
45338,2.46E-03,7.24E-03
45339,2.54E-03,7.32E-03
45340,2.71E-03,7.19E-03
45341,2.65E-03,7.25E-03
45342,2.79E-03,7.11E-03
45343,2.11E-03,6.10E-03
45344,1.80E-03,6.01E-03
45345,2.37E-03,6.83E-03
45346,2.36E-03,7.00E-03
45347,2.23E-03,6.83E-03
45348,2.58E-03,6.91E-03
45349,2.16E-03,6.13E-03
45350,2.35E-03,5.94E-03
45351,2.50E-03,7.40E-03
45352,2.51E-03,6.61E-03
45353,2.26E-03,6.73E-03
45354,2.45E-03,6.30E-03
45355,2.44E-03,6.45E-03
45356,2.80E-03,6.21E-03
45357,2.02E-03,5.85E-03
45358,2.02E-03,5.96E-03
45359,1.96E-03,5.90E-03
45360,2.36E-03,5.78E-03
45361,2.26E-03,5.82E-03
45362,2.14E-03,6.48E-03
45363,2.16E-03,6.29E-03
45364,2.21E-03,6.67E-03
45365,2.36E-03,7.16E-03
45366,2.80E-03,6.94E-03
45367,2.56E-03,7.01E-03
45368,2.25E-03,5.70E-03
45369,2.54E-03,7.49E-03
45370,2.46E-03,7.56E-03
45371,2.44E-03,7.47E-03
45372,2.40E-03,7.32E-03
45373,2.71E-03,7.35E-03
45374,2.63E-03,7.42E-03
45375,2.73E-03,7.23E-03
45376,2.88E-03,7.29E-03
45377,3.00E-03,7.25E-03
45378,2.84E-03,7.22E-03
45379,2.50E-03,7.55E-03
45380,2.94E-03,7.38E-03
45381,2.08E-03,5.67E-03
45382,2.44E-03,7.63E-03
45383,2.48E-03,7.25E-03
45384,2.48E-03,7.55E-03
45385,2.00E-03,7.40E-03
45386,1.94E-03,7.25E-03
45387,2.87E-03,7.03E-03
45388,2.79E-03,7.18E-03
45389,2.53E-03,6.84E-03
45390,2.43E-03,6.88E-03
45391,2.40E-03,6.74E-03
45392,2.49E-03,6.82E-03
45393,2.41E-03,6.42E-03
45394,2.38E-03,6.59E-03
45395,2.50E-03,6.13E-03
45396,2.44E-03,6.26E-03
45397,2.27E-03,5.94E-03
45398,2.42E-03,6.03E-03
45399,2.10E-03,5.72E-03
45400,2.14E-03,5.81E-03
45401,2.19E-03,5.61E-03
45402,2.14E-03,5.66E-03
45403,2.25E-03,5.54E-03
45404,2.25E-03,5.57E-03
45405,2.21E-03,5.80E-03
45406,2.00E-03,5.64E-03
45407,2.25E-03,5.49E-03
45408,2.26E-03,5.51E-03
45409,2.40E-03,6.18E-03
45410,2.77E-03,5.98E-03
45411,2.40E-03,6.54E-03
45412,2.37E-03,6.36E-03
45413,2.37E-03,6.90E-03
45414,2.40E-03,6.72E-03
45415,2.36E-03,7.23E-03
45416,2.39E-03,7.06E-03
45417,2.39E-03,7.55E-03
45418,2.39E-03,7.39E-03
45419,2.77E-03,7.93E-03
45420,2.40E-03,7.70E-03
45421,2.41E-03,7.79E-03
45422,2.52E-03,7.66E-03
45423,2.45E-03,7.72E-03
45424,2.66E-03,7.53E-03
45425,2.57E-03,7.59E-03
45426,3.05E-03,7.40E-03
45427,2.77E-03,7.47E-03
45428,2.80E-03,7.50E-03
45429,3.10E-03,7.40E-03
45430,2.68E-03,7.75E-03
45431,2.79E-03,7.61E-03
45432,2.92E-03,7.85E-03
45433,2.80E-03,5.50E-03
45434,2.27E-03,7.29E-03
45435,2.91E-03,7.75E-03
45436,2.38E-03,7.86E-03
45437,2.20E-03,6.81E-03
45438,2.10E-03,6.90E-03
45439,2.44E-03,6.84E-03
45440,2.36E-03,6.76E-03
45441,2.59E-03,7.07E-03
45442,2.56E-03,6.99E-03
45443,2.46E-03,6.94E-03
45444,2.51E-03,7.06E-03
45445,2.47E-03,6.53E-03
45446,2.48E-03,6.75E-03
45447,2.45E-03,6.21E-03
45448,2.44E-03,6.33E-03
45449,2.43E-03,6.02E-03
45450,2.44E-03,6.12E-03
45451,2.31E-03,5.74E-03
45452,2.40E-03,5.90E-03
45453,2.24E-03,5.43E-03
45454,2.26E-03,5.57E-03
45455,2.26E-03,5.31E-03
45456,2.24E-03,5.34E-03
45457,2.29E-03,5.33E-03
45458,2.30E-03,5.31E-03
45459,2.27E-03,5.37E-03
45460,2.28E-03,5.35E-03
45461,2.66E-03,5.53E-03
45462,2.35E-03,5.42E-03
45463,2.32E-03,5.36E-03
45464,2.65E-03,5.38E-03
45465,2.42E-03,5.87E-03
45466,2.48E-03,5.69E-03
45467,2.54E-03,6.23E-03
45468,2.45E-03,6.04E-03
45469,2.45E-03,6.61E-03
45470,2.46E-03,6.42E-03
45471,2.42E-03,6.96E-03
45472,2.43E-03,6.79E-03
45473,2.39E-03,7.29E-03
45474,2.42E-03,7.13E-03
45475,2.39E-03,7.62E-03
45476,2.40E-03,7.46E-03
45477,2.38E-03,7.96E-03
45478,2.35E-03,8.02E-03
45479,2.38E-03,7.94E-03
45480,2.39E-03,7.78E-03
45481,2.47E-03,7.83E-03
45482,2.42E-03,7.89E-03
45483,2.62E-03,7.70E-03
45484,2.53E-03,7.76E-03
45485,2.88E-03,7.61E-03
45486,2.76E-03,7.65E-03
45487,3.04E-03,7.58E-03
45488,3.01E-03,7.59E-03
45489,2.73E-03,7.70E-03
45490,2.93E-03,7.62E-03
45491,2.69E-03,7.92E-03
45492,2.69E-03,7.81E-03
45493,2.91E-03,8.11E-03
45494,2.74E-03,8.05E-03
45495,3.44E-03,8.15E-03
45496,3.06E-03,8.52E-03
45497,2.86E-03,8.89E-03
45498,2.82E-03,8.68E-03
45499,3.05E-03,8.48E-03
45500,2.66E-03,9.21E-03
45501,2.56E-03,9.46E-03
45502,2.49E-03,9.12E-03
45503,2.65E-03,8.90E-03
45504,2.57E-03,9.59E-03
45505,2.27E-03,9.33E-03
45506,3.23E-03,9.63E-03
45507,3.16E-03,9.75E-03
45508,2.84E-03,9.90E-03
45509,2.71E-03,1.01E-02
45510,2.08E-03,1.19E-02
45511,2.55E-03,1.04E-02
45512,2.38E-03,1.08E-02
45513,2.03E-03,1.14E-02
45514,2.33E-03,8.10E-03
45515,1.85E-03,1.22E-02
45516,2.19E-03,1.21E-02
45517,2.66E-03,1.23E-02
45518,1.95E-03,1.24E-02
45519,1.67E-03,1.24E-02
45520,2.20E-03,1.19E-02
45521,2.53E-03,1.13E-02
45522,2.59E-03,1.03E-02
45523,2.75E-03,9.63E-03
45524,2.91E-03,9.37E-03
45525,2.79E-03,9.47E-03
45526,2.55E-03,9.77E-03
45527,2.51E-03,1.00E-02
45528,2.57E-03,1.01E-02
45529,2.67E-03,9.88E-03
45530,2.85E-03,9.36E-03
45531,3.08E-03,8.70E-03
45532,3.10E-03,8.06E-03
45533,2.92E-03,7.48E-03
45534,2.57E-03,6.84E-03
45535,2.36E-03,6.29E-03
45536,2.35E-03,5.95E-03
45537,2.47E-03,5.95E-03
45538,2.52E-03,6.28E-03
45539,2.51E-03,6.83E-03
45540,2.47E-03,7.42E-03
45541,2.41E-03,7.71E-03
45542,2.42E-03,7.37E-03
45543,2.48E-03,6.63E-03
45544,2.55E-03,6.02E-03
45545,2.55E-03,5.84E-03
45546,2.47E-03,5.99E-03
45547,2.44E-03,6.11E-03
45548,2.42E-03,6.04E-03
45549,2.40E-03,5.84E-03
45550,2.36E-03,5.57E-03
45551,2.35E-03,5.28E-03
45552,2.35E-03,5.04E-03
45553,2.36E-03,4.92E-03
45554,2.35E-03,4.95E-03
45555,2.34E-03,5.05E-03
45556,2.33E-03,5.16E-03
45557,2.31E-03,5.23E-03
45558,2.31E-03,5.28E-03
45559,2.27E-03,5.29E-03
45560,2.11E-03,5.29E-03
45561,1.80E-03,5.26E-03
45562,1.71E-03,5.20E-03
45563,1.83E-03,5.10E-03
45564,2.26E-03,5.46E-03
45565,2.46E-03,5.59E-03
45566,2.52E-03,5.76E-03
45567,2.47E-03,5.94E-03
45568,2.48E-03,6.12E-03
45569,2.47E-03,6.30E-03
45570,2.47E-03,6.49E-03
45571,2.47E-03,6.67E-03
45572,2.44E-03,6.85E-03
45573,2.44E-03,7.02E-03
45574,2.45E-03,7.19E-03
45575,2.42E-03,7.36E-03
45576,2.40E-03,7.52E-03
45577,2.38E-03,7.69E-03
45578,2.38E-03,7.85E-03
45579,2.37E-03,8.01E-03
45580,2.33E-03,8.17E-03
45581,2.26E-03,8.24E-03
45582,2.30E-03,8.17E-03
45583,2.35E-03,8.11E-03
45584,2.41E-03,8.05E-03
45585,2.44E-03,8.00E-03
45586,2.50E-03,7.93E-03
45587,2.57E-03,7.88E-03
45588,2.65E-03,7.83E-03
45589,2.72E-03,7.81E-03
45590,2.72E-03,7.80E-03
45591,2.73E-03,7.81E-03
45592,2.71E-03,7.84E-03
45593,2.63E-03,7.90E-03
45594,2.58E-03,7.99E-03
45595,2.58E-03,8.09E-03
45596,2.64E-03,8.19E-03
45597,2.83E-03,8.27E-03
45598,2.99E-03,8.37E-03
45599,3.07E-03,8.43E-03
45600,2.96E-03,8.52E-03
45601,2.75E-03,8.66E-03
45602,2.58E-03,8.81E-03
45603,2.34E-03,9.01E-03
45604,2.15E-03,9.24E-03
45605,2.77E-03,9.48E-03
45606,3.32E-03,9.77E-03
45607,3.07E-03,1.00E-02
45608,2.79E-03,1.02E-02
45609,2.57E-03,1.04E-02
45610,2.15E-03,1.06E-02
45611,1.93E-03,1.09E-02
45612,1.91E-03,1.12E-02
45613,2.58E-03,1.15E-02
45614,2.85E-03,1.17E-02
45615,2.61E-03,1.19E-02
45616,2.52E-03,1.20E-02
45617,3.32E-03,1.23E-02
45618,3.68E-03,1.27E-02
45619,3.37E-03,1.30E-02
45620,3.11E-03,1.33E-02
45621,2.92E-03,1.35E-02
45622,2.81E-03,1.34E-02
45623,2.77E-03,1.32E-02
45624,2.78E-03,1.30E-02
45625,2.85E-03,1.26E-02
45626,2.94E-03,1.22E-02
45627,3.05E-03,1.18E-02
45628,3.14E-03,1.14E-02
45629,3.21E-03,1.10E-02
45630,3.23E-03,1.08E-02
45631,3.17E-03,1.07E-02
45632,3.04E-03,1.08E-02
45633,2.85E-03,1.10E-02
45634,2.29E-03,8.32E-03
45635,2.64E-03,1.12E-02
45636,2.44E-03,1.13E-02
45637,2.25E-03,1.13E-02
45638,2.06E-03,1.13E-02
45639,1.87E-03,1.14E-02
45640,1.67E-03,1.14E-02
45641,1.47E-03,1.14E-02
45642,1.28E-03,1.15E-02
45643,1.09E-03,1.16E-02
45644,9.10E-04,1.18E-02
45645,7.49E-04,1.20E-02
1,6.64E-04,9.53E-03
2,6.64E-04,1.04E-02
3,6.64E-04,9.87E-03
5,1.09E-03,7.78E-03
6,1.19E-03,2.04E-02
7,1.22E-03,2.05E-02
8,1.29E-03,1.73E-02
9,1.13E-03,1.74E-02
10,9.35E-04,2.44E-02
11,6.56E-04,2.36E-02
437,1.10E-03,9.62E-03
438,1.00E-03,1.63E-02
439,1.15E-03,1.03E-02
440,6.36E-04,7.64E-03
441,1.23E-03,1.31E-03
442,1.04E-03,3.08E-04
443,1.13E-03,9.82E-03
444,6.93E-04,6.67E-03
445,8.67E-04,7.06E-03
446,1.20E-03,6.86E-03
447,1.42E-03,3.73E-03
448,1.02E-03,4.96E-04
449,1.01E-03,8.92E-03
450,1.51E-03,4.02E-03
451,9.59E-04,5.92E-04
452,1.02E-03,1.44E-02
453,1.10E-03,9.32E-03
454,9.81E-04,9.69E-03
455,1.11E-03,1.67E-02
456,1.03E-03,3.56E-03
457,1.53E-03,2.26E-02
458,1.09E-03,5.18E-03
459,1.35E-03,8.79E-03
460,1.11E-03,5.89E-03
461,1.13E-03,1.92E-02
462,9.73E-04,4.20E-03
463,1.15E-03,6.60E-03
464,1.01E-03,1.35E-02
465,1.08E-03,1.36E-02
466,1.07E-03,5.74E-03
467,1.06E-03,6.52E-03
468,9.21E-04,6.61E-03
469,1.29E-03,1.13E-02
470,1.22E-03,9.47E-03
471,1.23E-03,1.03E-02
472,9.36E-04,1.17E-02
473,9.78E-04,1.33E-02
474,1.28E-03,1.36E-02
475,9.80E-04,1.50E-02
476,1.35E-03,1.43E-02
477,8.57E-04,1.48E-02
478,1.30E-03,1.37E-02
479,1.24E-03,2.93E-03
480,1.51E-03,6.36E-03
481,1.20E-03,9.77E-03
14304,8.38E-04,9.35E-03
14305,9.82E-04,7.53E-03
14306,1.54E-03,1.48E-03
14307,1.09E-03,2.27E-03
14396,2.44E-04,9.66E-03
14397,1.08E-03,5.69E-03
14398,8.51E-04,8.93E-03
14399,8.56E-04,7.11E-03
14400,1.12E-03,1.50E-02
14401,1.19E-03,1.46E-02
14402,7.86E-04,1.48E-02
14403,1.47E-03,1.61E-02
14404,9.93E-04,1.20E-02
14405,9.89E-04,1.15E-02
14802,8.42E-04,8.58E-03
14848,6.30E-04,3.83E-02
14849,1.16E-03,5.14E-02
14850,1.44E-03,5.81E-03
14851,1.19E-03,2.82E-02
14852,1.19E-03,7.92E-03
14853,1.07E-03,3.51E-02
14854,1.26E-03,1.04E-02
14855,1.19E-03,4.70E-02
14856,1.70E-03,6.15E-03
14857,1.18E-03,4.74E-02
14858,1.23E-03,4.58E-02
14859,1.22E-03,4.29E-02
14860,1.17E-03,5.43E-02
14861,1.21E-03,0.1144
14862,1.33E-03,1.03E-02
14863,1.07E-03,4.16E-02
14864,1.25E-03,6.69E-02
14865,1.36E-03,7.82E-02
14866,1.22E-03,2.67E-02
14867,1.15E-03,6.31E-02
14868,9.92E-04,4.98E-02
14869,9.72E-04,4.64E-02
14870,7.21E-04,9.32E-03
14871,7.15E-04,9.30E-03
14872,1.31E-03,3.88E-02
14873,1.24E-03,1.13E-02
14874,1.12E-03,3.75E-02
17635,4.51E-04,2.14E-04
17636,7.57E-04,4.73E-04
17637,1.06E-03,6.55E-04
17638,7.29E-04,4.61E-04
17639,5.71E-04,6.19E-05
17740,1.08E-03,8.87E-03
17911,2.72E-04,1.14E-02
17913,7.93E-04,8.17E-03
17941,1.05E-03,3.78E-02
17942,1.12E-03,3.69E-02
17943,1.28E-03,3.63E-02
17944,1.45E-03,2.30E-02
17945,1.46E-03,3.28E-02
17946,1.16E-03,1.57E-02
17947,1.31E-03,1.93E-02
17948,1.07E-03,1.87E-02
17949,1.03E-03,1.91E-02
17950,1.17E-03,1.22E-02
17951,8.69E-04,1.77E-02
17952,1.69E-03,1.79E-02
17953,9.76E-04,1.67E-02
17954,1.58E-03,1.41E-02
17955,1.30E-03,1.51E-02
17956,1.02E-03,1.50E-02
21093,7.34E-04,1.65E-03
21094,1.04E-03,1.14E-02
21095,9.48E-04,1.24E-02
21096,9.22E-04,1.21E-02
21097,1.34E-03,1.18E-02
21098,1.40E-03,1.17E-02
21099,1.32E-03,1.15E-02
21100,8.93E-04,1.14E-02
21101,9.01E-04,1.11E-02
21102,8.31E-04,1.10E-02
21103,1.07E-03,1.00E-02
21104,1.07E-03,1.03E-02
28363,4.33E-04,3.71E-03
28364,1.06E-03,5.06E-03
28365,1.30E-03,7.40E-03
28366,9.40E-04,1.70E-02
28367,1.26E-03,1.44E-02
28368,9.70E-04,3.71E-03
28524,1.20E-03,1.20E-03
28525,9.07E-04,1.09E-03
28526,1.06E-03,1.16E-03
28527,1.39E-03,5.44E-04
28528,9.39E-04,1.45E-03
28529,1.15E-03,3.06E-03
28530,9.68E-04,2.77E-03
28531,1.05E-03,8.02E-03
28532,1.14E-03,5.70E-03
28533,1.26E-03,7.56E-03
28534,1.27E-03,7.33E-03
28535,1.08E-03,6.80E-03
28536,1.27E-03,6.84E-03
28537,1.29E-03,6.80E-03
28538,1.21E-03,6.80E-03
28539,1.29E-03,6.74E-03
28540,1.03E-03,6.98E-03
28541,1.74E-03,2.13E-03
38616,9.87E-04,8.10E-03
38617,1.08E-03,8.88E-03
38618,6.51E-04,7.92E-03
38619,7.44E-04,7.89E-03
38620,7.37E-04,8.04E-03
38621,1.17E-03,9.02E-03
38622,9.80E-04,7.80E-03
38623,1.25E-03,8.31E-03
38624,1.58E-03,7.43E-03
38625,1.18E-03,9.66E-03
38626,1.24E-03,4.39E-03
38627,1.12E-03,9.26E-03
38628,1.23E-03,9.75E-03
38629,1.01E-03,9.66E-03
38630,1.24E-03,1.16E-02
38631,8.05E-04,9.51E-03
38632,1.03E-03,9.56E-03
38633,1.35E-03,7.28E-03
45073,4.55E-04,1.04E-02
45074,8.39E-04,8.87E-03
45075,9.29E-04,8.33E-03
45181,3.44E-04,8.39E-03
45193,5.43E-04,1.01E-02
45194,8.80E-04,7.34E-03
45271,3.36E-04,1.23E-02
45272,8.58E-04,1.25E-02
45273,1.09E-03,1.11E-02
45274,1.20E-03,9.57E-03
45275,1.00E-03,7.61E-03
45276,1.38E-03,7.10E-03
45277,1.11E-03,5.90E-03
45278,1.54E-03,6.98E-03
45279,1.21E-03,6.91E-03
45280,7.55E-04,6.36E-03
45281,8.34E-04,6.63E-03
