Element Number,Area,Von Mises Stress
16,2.61E-02,4.46E-02
17,2.73E-02,4.57E-02
18,2.80E-02,4.53E-02
19,1.30E-02,4.39E-02
20,1.93E-02,4.38E-02
21,1.71E-02,4.32E-02
22,1.10E-02,4.34E-02
23,1.15E-02,4.37E-02
24,1.70E-02,4.27E-02
25,1.57E-02,4.30E-02
26,1.53E-02,4.34E-02
27,1.86E-02,4.23E-02
28,1.78E-02,4.27E-02
29,1.79E-02,4.31E-02
30,1.24E-02,7.93E-02
31,1.17E-02,6.91E-02
32,1.15E-02,7.48E-02
33,2.89E-02,6.13E-02
34,2.71E-02,6.06E-02
35,2.74E-02,3.20E-02
36,2.55E-02,3.22E-02
37,2.72E-02,3.80E-02
38,2.70E-02,3.78E-02
39,2.84E-02,3.77E-02
40,1.87E-02,6.71E-02
41,1.59E-02,6.78E-02
42,2.05E-02,9.80E-02
43,1.81E-02,8.60E-02
44,1.97E-02,9.25E-02
45,2.27E-02,6.74E-02
46,2.54E-02,5.87E-02
47,1.75E-02,2.98E-02
48,2.02E-02,2.98E-02
49,2.26E-02,2.97E-02
50,2.24E-02,2.98E-02
51,1.99E-02,2.97E-02
52,2.50E-02,2.98E-02
53,2.12E-02,2.98E-02
54,1.87E-02,3.24E-02
55,1.89E-02,3.24E-02
56,2.18E-02,5.78E-02
57,1.92E-02,7.61E-02
58,2.07E-02,3.09E-02
59,2.10E-02,3.08E-02
60,2.15E-02,3.07E-02
61,2.17E-02,3.06E-02
62,2.21E-02,3.05E-02
63,2.25E-02,3.04E-02
64,2.31E-02,3.03E-02
65,2.37E-02,3.02E-02
66,2.44E-02,3.01E-02
67,2.70E-02,3.00E-02
68,2.06E-02,2.99E-02
69,1.99E-02,3.10E-02
70,1.84E-02,3.11E-02
71,2.07E-02,3.09E-02
72,2.10E-02,3.08E-02
73,2.10E-02,2.99E-02
74,1.81E-02,2.98E-02
75,1.98E-02,3.26E-02
76,1.89E-02,3.25E-02
77,1.50E-02,3.12E-02
78,1.68E-02,3.13E-02
79,1.90E-02,3.11E-02
80,1.64E-02,3.12E-02
81,2.04E-02,3.10E-02
82,2.21E-02,3.05E-02
83,2.12E-02,3.07E-02
84,2.14E-02,3.06E-02
85,2.31E-02,3.03E-02
86,2.27E-02,3.04E-02
87,2.50E-02,3.01E-02
88,2.37E-02,3.02E-02
89,2.74E-02,2.99E-02
90,2.74E-02,3.00E-02
91,1.58E-02,3.26E-02
92,2.06E-02,3.27E-02
93,2.19E-02,2.98E-02
94,2.80E-02,2.98E-02
95,2.24E-02,2.98E-02
96,2.34E-02,3.02E-02
97,2.37E-02,3.01E-02
98,2.29E-02,3.03E-02
99,2.06E-02,3.14E-02
100,2.46E-02,3.14E-02
101,2.28E-02,3.15E-02
102,2.21E-02,3.16E-02
103,2.28E-02,3.23E-02
104,1.80E-02,3.27E-02
105,2.09E-02,3.28E-02
106,2.10E-02,3.27E-02
107,2.23E-02,3.25E-02
108,2.13E-02,3.26E-02
109,2.38E-02,2.99E-02
110,2.05E-02,2.98E-02
111,2.32E-02,2.97E-02
112,2.29E-02,2.97E-02
113,2.20E-02,2.97E-02
114,2.31E-02,2.97E-02
115,2.20E-02,2.99E-02
116,2.22E-02,2.98E-02
117,2.29E-02,3.00E-02
118,2.21E-02,3.05E-02
119,2.24E-02,3.04E-02
120,2.16E-02,3.07E-02
121,2.18E-02,3.06E-02
122,2.10E-02,3.09E-02
123,2.13E-02,3.08E-02
124,2.04E-02,3.11E-02
125,2.06E-02,3.10E-02
126,2.06E-02,3.12E-02
127,2.77E-02,3.16E-02
128,2.91E-02,3.18E-02
129,2.70E-02,3.20E-02
130,2.55E-02,3.21E-02
131,1.89E-02,3.24E-02
132,1.71E-02,3.25E-02
133,2.10E-02,3.23E-02
134,2.71E-02,3.19E-02
135,2.21E-02,3.16E-02
136,2.91E-02,3.18E-02
137,2.47E-02,3.14E-02
138,1.89E-02,3.15E-02
139,2.04E-02,3.11E-02
140,2.28E-02,3.12E-02
141,2.09E-02,3.09E-02
142,2.06E-02,3.10E-02
143,2.12E-02,3.07E-02
144,2.11E-02,3.08E-02
145,2.22E-02,3.05E-02
146,2.17E-02,3.06E-02
147,2.30E-02,3.03E-02
148,2.26E-02,3.04E-02
149,2.40E-02,3.01E-02
150,2.36E-02,3.02E-02
151,2.43E-02,3.00E-02
152,2.23E-02,3.29E-02
153,2.33E-02,3.28E-02
154,2.31E-02,3.02E-02
155,2.30E-02,3.01E-02
156,2.26E-02,3.03E-02
157,2.31E-02,3.23E-02
158,2.18E-02,3.27E-02
159,2.74E-02,3.29E-02
160,2.87E-02,3.30E-02
161,2.56E-02,3.32E-02
162,2.46E-02,3.33E-02
163,2.39E-02,3.34E-02
164,2.34E-02,3.35E-02
165,2.08E-02,3.37E-02
166,2.29E-02,3.38E-02
167,2.09E-02,3.52E-02
168,2.64E-02,3.55E-02
169,2.28E-02,3.26E-02
170,2.25E-02,3.27E-02
171,1.75E-02,2.97E-02
172,2.46E-02,2.95E-02
173,1.82E-02,2.94E-02
174,2.32E-02,2.96E-02
175,2.26E-02,2.97E-02
176,2.51E-02,2.96E-02
177,2.25E-02,2.97E-02
178,2.32E-02,2.96E-02
179,2.21E-02,2.99E-02
180,2.19E-02,2.98E-02
181,2.26E-02,3.00E-02
182,2.22E-02,3.05E-02
183,2.23E-02,3.04E-02
184,2.17E-02,3.07E-02
185,2.19E-02,3.06E-02
186,2.12E-02,3.09E-02
187,2.15E-02,3.08E-02
188,2.10E-02,3.11E-02
189,2.10E-02,3.10E-02
190,2.19E-02,3.14E-02
191,2.14E-02,3.13E-02
192,2.39E-02,3.17E-02
193,2.29E-02,3.16E-02
194,2.49E-02,3.20E-02
195,2.53E-02,3.19E-02
196,2.42E-02,3.22E-02
197,2.36E-02,3.29E-02
198,2.26E-02,3.28E-02
199,2.52E-02,3.31E-02
200,2.50E-02,3.30E-02
201,2.45E-02,3.33E-02
202,2.50E-02,3.32E-02
203,2.39E-02,3.36E-02
204,2.43E-02,3.35E-02
205,2.88E-02,3.39E-02
206,2.47E-02,3.38E-02
207,2.89E-02,3.41E-02
208,2.51E-02,3.43E-02
209,2.44E-02,3.44E-02
210,2.37E-02,3.46E-02
211,2.36E-02,3.47E-02
212,2.38E-02,3.49E-02
213,2.47E-02,3.51E-02
214,2.03E-02,3.51E-02
215,2.49E-02,3.53E-02
216,2.30E-02,3.48E-02
217,2.24E-02,3.50E-02
218,2.34E-02,3.45E-02
219,2.31E-02,3.47E-02
220,2.48E-02,3.42E-02
221,2.35E-02,3.43E-02
222,2.05E-02,3.39E-02
223,2.73E-02,3.40E-02
224,2.03E-02,3.36E-02
225,1.99E-02,3.37E-02
226,2.35E-02,3.33E-02
227,2.25E-02,3.35E-02
228,2.62E-02,3.31E-02
229,2.44E-02,3.32E-02
230,2.22E-02,3.28E-02
231,2.83E-02,3.30E-02
232,2.18E-02,3.26E-02
233,2.07E-02,3.27E-02
234,2.09E-02,3.24E-02
235,2.34E-02,3.25E-02
236,2.37E-02,3.21E-02
237,2.22E-02,3.22E-02
238,2.50E-02,3.18E-02
239,2.50E-02,3.20E-02
240,2.35E-02,3.16E-02
241,2.41E-02,3.17E-02
242,2.23E-02,3.13E-02
243,2.21E-02,3.14E-02
244,2.17E-02,3.11E-02
245,2.20E-02,3.12E-02
246,2.12E-02,3.09E-02
247,2.12E-02,3.10E-02
248,2.14E-02,3.07E-02
249,2.12E-02,3.08E-02
250,2.23E-02,3.05E-02
251,2.18E-02,3.06E-02
252,2.28E-02,3.03E-02
253,2.24E-02,3.04E-02
254,2.35E-02,3.01E-02
255,2.33E-02,3.02E-02
256,2.35E-02,2.99E-02
257,2.34E-02,3.00E-02
258,2.50E-02,3.56E-02
259,2.40E-02,3.58E-02
260,2.35E-02,3.60E-02
261,2.32E-02,3.62E-02
262,2.29E-02,3.64E-02
263,2.29E-02,3.65E-02
264,2.22E-02,3.66E-02
265,2.24E-02,3.67E-02
266,1.82E-02,2.94E-02
267,1.45E-02,2.93E-02
268,2.27E-02,3.01E-02
269,2.27E-02,3.02E-02
270,2.35E-02,3.24E-02
271,2.25E-02,3.28E-02
272,2.31E-02,3.63E-02
273,1.92E-02,3.68E-02
274,2.22E-02,3.69E-02
275,2.52E-02,3.81E-02
276,2.28E-02,3.84E-02
277,2.35E-02,3.26E-02
278,2.34E-02,3.28E-02
279,2.60E-02,2.97E-02
280,2.15E-02,2.96E-02
281,2.18E-02,2.97E-02
282,2.27E-02,2.96E-02
283,2.18E-02,2.96E-02
284,2.45E-02,2.95E-02
285,1.93E-02,2.93E-02
286,2.10E-02,2.95E-02
287,2.01E-02,2.94E-02
288,2.25E-02,2.97E-02
289,2.24E-02,2.96E-02
290,2.23E-02,2.99E-02
291,2.22E-02,2.98E-02
292,2.25E-02,3.00E-02
293,2.22E-02,3.05E-02
294,2.24E-02,3.03E-02
295,2.23E-02,3.04E-02
296,2.20E-02,3.07E-02
297,2.22E-02,3.06E-02
298,2.17E-02,3.09E-02
299,2.18E-02,3.08E-02
300,2.16E-02,3.11E-02
301,2.16E-02,3.10E-02
302,2.21E-02,3.14E-02
303,2.20E-02,3.13E-02
304,2.33E-02,3.18E-02
305,2.29E-02,3.16E-02
306,2.40E-02,3.21E-02
307,2.35E-02,3.19E-02
308,2.37E-02,3.22E-02
309,2.37E-02,3.30E-02
310,2.30E-02,3.29E-02
311,2.38E-02,3.32E-02
312,2.43E-02,3.31E-02
313,2.42E-02,3.34E-02
314,2.45E-02,3.33E-02
315,2.45E-02,3.37E-02
316,2.44E-02,3.35E-02
317,2.51E-02,3.40E-02
318,2.53E-02,3.38E-02
319,2.46E-02,3.43E-02
320,2.51E-02,3.42E-02
321,2.41E-02,3.47E-02
322,2.43E-02,3.45E-02
323,2.36E-02,3.50E-02
324,2.38E-02,3.48E-02
325,2.05E-02,3.53E-02
326,2.33E-02,3.52E-02
327,2.61E-02,3.56E-02
328,2.47E-02,3.54E-02
329,2.37E-02,3.59E-02
330,2.43E-02,3.58E-02
331,2.34E-02,3.61E-02
332,2.57E-02,3.71E-02
333,2.80E-02,3.74E-02
334,2.20E-02,3.86E-02
335,2.15E-02,3.89E-02
336,2.12E-02,3.92E-02
337,2.08E-02,3.95E-02
338,1.82E-02,4.02E-02
339,1.55E-02,4.06E-02
340,2.01E-02,3.99E-02
341,2.00E-02,4.11E-02
342,2.25E-02,4.05E-02
343,2.17E-02,4.08E-02
344,2.04E-02,3.98E-02
345,1.97E-02,4.01E-02
346,2.11E-02,3.92E-02
347,2.07E-02,3.95E-02
348,2.13E-02,3.86E-02
349,2.13E-02,3.89E-02
350,2.05E-02,3.81E-02
351,2.13E-02,3.83E-02
352,2.27E-02,3.75E-02
353,2.19E-02,3.78E-02
354,2.59E-02,3.70E-02
355,2.69E-02,3.73E-02
356,2.23E-02,3.65E-02
357,2.23E-02,3.67E-02
358,2.35E-02,3.60E-02
359,2.30E-02,3.62E-02
360,2.42E-02,3.57E-02
361,2.38E-02,3.58E-02
362,2.47E-02,3.53E-02
363,2.46E-02,3.55E-02
364,2.23E-02,3.50E-02
365,2.36E-02,3.52E-02
366,2.26E-02,3.47E-02
367,2.20E-02,3.49E-02
368,2.33E-02,3.44E-02
369,2.31E-02,3.46E-02
370,2.34E-02,3.41E-02
371,2.35E-02,3.43E-02
372,2.18E-02,3.38E-02
373,2.24E-02,3.40E-02
374,2.16E-02,3.35E-02
375,2.18E-02,3.37E-02
376,2.30E-02,3.33E-02
377,2.20E-02,3.34E-02
378,2.42E-02,3.30E-02
379,2.38E-02,3.31E-02
380,2.32E-02,3.28E-02
381,2.33E-02,3.29E-02
382,2.22E-02,3.25E-02
383,2.22E-02,3.26E-02
384,2.24E-02,3.23E-02
385,2.21E-02,3.24E-02
386,2.31E-02,3.20E-02
387,2.28E-02,3.22E-02
388,2.41E-02,3.18E-02
389,2.40E-02,3.19E-02
390,2.30E-02,3.15E-02
391,2.38E-02,3.17E-02
392,2.24E-02,3.13E-02
393,2.24E-02,3.14E-02
394,2.18E-02,3.11E-02
395,2.19E-02,3.12E-02
396,2.15E-02,3.09E-02
397,2.16E-02,3.10E-02
398,2.16E-02,3.07E-02
399,2.15E-02,3.08E-02
400,2.23E-02,3.05E-02
401,2.16E-02,3.06E-02
402,2.27E-02,3.03E-02
403,2.25E-02,3.04E-02
404,2.32E-02,3.01E-02
405,2.31E-02,3.02E-02
406,2.33E-02,2.99E-02
407,2.33E-02,3.00E-02
408,2.26E-02,2.99E-02
409,2.37E-02,3.25E-02
410,2.31E-02,3.29E-02
411,2.29E-02,3.66E-02
412,2.32E-02,3.64E-02
413,2.27E-02,3.69E-02
414,1.74E-02,4.08E-02
415,2.23E-02,3.01E-02
416,2.24E-02,3.02E-02
417,1.55E-02,4.06E-02
418,2.14E-02,4.03E-02
419,1.92E-02,4.24E-02
420,1.94E-02,4.27E-02
421,2.84E-02,2.97E-02
422,2.29E-02,2.98E-02
423,1.94E-02,2.92E-02
424,2.06E-02,2.92E-02
425,2.06E-02,2.91E-02
426,2.92E-02,2.97E-02
427,3.04E-02,2.97E-02
428,2.40E-02,4.17E-02
429,2.09E-02,4.20E-02
430,2.25E-02,2.96E-02
431,2.40E-02,2.97E-02
432,2.23E-02,2.95E-02
433,2.22E-02,2.95E-02
434,2.05E-02,2.93E-02
435,2.15E-02,2.94E-02
436,1.96E-02,2.93E-02
437,2.13E-02,2.95E-02
438,2.07E-02,2.93E-02
439,2.20E-02,2.97E-02
440,2.18E-02,2.96E-02
441,2.22E-02,2.99E-02
442,2.22E-02,2.98E-02
443,2.22E-02,3.00E-02
444,2.22E-02,3.05E-02
445,2.23E-02,3.03E-02
446,2.23E-02,3.04E-02
447,2.23E-02,3.07E-02
448,2.24E-02,3.06E-02
449,2.21E-02,3.09E-02
450,2.21E-02,3.08E-02
451,2.23E-02,3.11E-02
452,2.23E-02,3.10E-02
453,2.25E-02,3.14E-02
454,2.24E-02,3.13E-02
455,2.30E-02,3.18E-02
456,2.27E-02,3.16E-02
457,2.36E-02,3.21E-02
458,2.34E-02,3.19E-02
459,2.38E-02,3.23E-02
460,2.36E-02,3.31E-02
461,2.35E-02,3.30E-02
462,2.39E-02,3.32E-02
463,2.36E-02,3.32E-02
464,2.41E-02,3.35E-02
465,2.39E-02,3.33E-02
466,2.43E-02,3.37E-02
467,2.42E-02,3.36E-02
468,2.42E-02,3.41E-02
469,2.44E-02,3.39E-02
470,2.40E-02,3.44E-02
471,2.36E-02,3.43E-02
472,2.37E-02,3.48E-02
473,2.39E-02,3.46E-02
474,2.33E-02,3.51E-02
475,2.36E-02,3.49E-02
476,2.31E-02,3.54E-02
477,2.28E-02,3.53E-02
478,2.36E-02,3.57E-02
479,2.29E-02,3.56E-02
480,2.35E-02,3.61E-02
481,2.37E-02,3.59E-02
482,2.34E-02,3.63E-02
483,2.53E-02,3.73E-02
484,2.34E-02,3.71E-02
485,2.58E-02,3.75E-02
486,2.45E-02,3.84E-02
487,2.20E-02,3.90E-02
488,2.27E-02,3.87E-02
489,2.09E-02,3.96E-02
490,2.15E-02,3.93E-02
491,2.02E-02,3.99E-02
492,1.99E-02,4.15E-02
493,2.19E-02,4.11E-02
494,2.35E-02,4.20E-02
495,2.25E-02,4.17E-02
496,2.08E-02,4.24E-02
497,1.98E-02,4.09E-02
498,2.33E-02,4.12E-02
499,2.04E-02,4.02E-02
500,2.16E-02,4.05E-02
501,2.07E-02,3.96E-02
502,2.07E-02,3.99E-02
503,2.09E-02,3.90E-02
504,2.08E-02,3.93E-02
505,2.10E-02,3.85E-02
506,2.10E-02,3.88E-02
507,1.99E-02,3.80E-02
508,2.07E-02,3.82E-02
509,2.33E-02,3.74E-02
510,2.29E-02,3.77E-02
511,2.34E-02,3.69E-02
512,2.35E-02,3.71E-02
513,2.29E-02,3.63E-02
514,2.33E-02,3.66E-02
515,2.32E-02,3.59E-02
516,2.32E-02,3.61E-02
517,2.38E-02,3.55E-02
518,2.36E-02,3.57E-02
519,2.35E-02,3.52E-02
520,2.39E-02,3.53E-02
521,2.22E-02,3.49E-02
522,2.27E-02,3.50E-02
523,2.26E-02,3.46E-02
524,2.23E-02,3.48E-02
525,2.27E-02,3.43E-02
526,2.26E-02,3.45E-02
527,2.26E-02,3.40E-02
528,2.29E-02,3.42E-02
529,2.17E-02,3.37E-02
530,2.21E-02,3.39E-02
531,2.19E-02,3.34E-02
532,2.17E-02,3.36E-02
533,2.27E-02,3.32E-02
534,2.22E-02,3.33E-02
535,2.34E-02,3.29E-02
536,2.32E-02,3.31E-02
537,2.27E-02,3.27E-02
538,2.33E-02,3.28E-02
539,2.23E-02,3.25E-02
540,2.26E-02,3.26E-02
541,2.24E-02,3.22E-02
542,2.21E-02,3.24E-02
543,2.29E-02,3.20E-02
544,2.29E-02,3.21E-02
545,2.33E-02,3.18E-02
546,2.33E-02,3.19E-02
547,2.30E-02,3.15E-02
548,2.32E-02,3.16E-02
549,2.24E-02,3.13E-02
550,2.26E-02,3.14E-02
551,2.18E-02,3.11E-02
552,2.22E-02,3.12E-02
553,2.17E-02,3.09E-02
554,2.17E-02,3.10E-02
555,2.17E-02,3.07E-02
556,2.17E-02,3.08E-02
557,2.21E-02,3.05E-02
558,2.17E-02,3.06E-02
559,2.26E-02,3.03E-02
560,2.25E-02,3.04E-02
561,2.31E-02,3.01E-02
562,2.28E-02,3.02E-02
563,2.33E-02,2.99E-02
564,2.33E-02,3.00E-02
565,2.28E-02,2.98E-02
566,2.06E-02,2.91E-02
567,2.10E-02,2.90E-02
568,2.37E-02,3.27E-02
569,2.38E-02,3.25E-02
570,2.38E-02,3.28E-02
571,2.27E-02,3.68E-02
572,2.30E-02,3.66E-02
573,2.25E-02,3.70E-02
574,1.93E-02,4.07E-02
575,1.92E-02,4.11E-02
576,2.56E-02,2.97E-02
577,2.44E-02,2.98E-02
578,1.90E-02,4.44E-02
579,2.66E-02,2.97E-02
580,2.59E-02,2.97E-02
581,2.75E-02,2.97E-02
582,1.96E-02,4.03E-02
583,1.98E-02,4.20E-02
584,2.32E-02,4.13E-02
585,2.11E-02,4.16E-02
586,2.31E-02,2.95E-02
587,2.41E-02,2.96E-02
588,2.22E-02,2.94E-02
589,2.25E-02,2.95E-02
590,2.12E-02,2.92E-02
591,2.17E-02,2.93E-02
592,2.07E-02,2.92E-02
593,2.16E-02,2.89E-02
594,2.11E-02,2.92E-02
595,2.12E-02,2.90E-02
596,2.14E-02,2.94E-02
597,2.11E-02,2.93E-02
598,2.19E-02,2.96E-02
599,2.17E-02,2.95E-02
600,2.23E-02,2.99E-02
601,2.21E-02,2.97E-02
602,2.24E-02,3.01E-02
603,2.24E-02,3.00E-02
604,2.21E-02,3.03E-02
605,2.23E-02,3.02E-02
606,2.24E-02,3.05E-02
607,2.23E-02,3.04E-02
608,2.27E-02,3.07E-02
609,2.25E-02,3.06E-02
610,2.27E-02,3.09E-02
611,2.26E-02,3.08E-02
612,2.25E-02,3.11E-02
613,2.25E-02,3.10E-02
614,2.25E-02,3.14E-02
615,2.25E-02,3.13E-02
616,2.28E-02,3.18E-02
617,2.25E-02,3.16E-02
618,2.35E-02,3.22E-02
619,2.32E-02,3.20E-02
620,2.37E-02,3.23E-02
621,2.33E-02,3.31E-02
622,2.37E-02,3.30E-02
623,2.37E-02,3.31E-02
624,2.36E-02,3.33E-02
625,2.34E-02,3.32E-02
626,2.39E-02,3.35E-02
627,2.38E-02,3.34E-02
628,2.39E-02,3.38E-02
629,2.38E-02,3.36E-02
630,2.38E-02,3.41E-02
631,2.40E-02,3.40E-02
632,2.36E-02,3.45E-02
633,2.37E-02,3.43E-02
634,2.35E-02,3.49E-02
635,2.35E-02,3.47E-02
636,2.31E-02,3.52E-02
637,2.34E-02,3.50E-02
638,2.28E-02,3.55E-02
639,2.31E-02,3.54E-02
640,2.29E-02,3.58E-02
641,2.27E-02,3.57E-02
642,2.33E-02,3.62E-02
643,2.31E-02,3.60E-02
644,2.32E-02,3.64E-02
645,2.29E-02,3.74E-02
646,2.24E-02,3.72E-02
647,2.41E-02,3.78E-02
648,2.36E-02,3.76E-02
649,2.40E-02,3.84E-02
650,2.45E-02,3.81E-02
651,2.22E-02,3.90E-02
652,2.31E-02,3.87E-02
653,2.11E-02,3.96E-02
654,2.16E-02,3.93E-02
655,2.08E-02,4.00E-02
656,2.15E-02,4.17E-02
657,2.02E-02,4.14E-02
658,2.21E-02,4.23E-02
659,2.14E-02,4.20E-02
660,1.99E-02,4.30E-02
661,2.09E-02,4.27E-02
662,1.89E-02,4.38E-02
663,1.90E-02,4.34E-02
664,1.78E-02,4.42E-02
665,2.19E-02,4.06E-02
666,2.26E-02,4.10E-02
667,2.10E-02,4.00E-02
668,2.19E-02,4.03E-02
669,2.08E-02,3.94E-02
670,2.08E-02,3.97E-02
671,2.11E-02,3.89E-02
672,2.09E-02,3.91E-02
673,2.09E-02,3.84E-02
674,2.10E-02,3.86E-02
675,2.06E-02,3.78E-02
676,2.09E-02,3.81E-02
677,2.25E-02,3.73E-02
678,2.18E-02,3.76E-02
679,2.27E-02,3.67E-02
680,2.26E-02,3.70E-02
681,2.30E-02,3.62E-02
682,2.29E-02,3.64E-02
683,2.31E-02,3.57E-02
684,2.31E-02,3.59E-02
685,2.33E-02,3.54E-02
686,2.33E-02,3.55E-02
687,2.31E-02,3.51E-02
688,2.35E-02,3.52E-02
689,2.25E-02,3.48E-02
690,2.28E-02,3.49E-02
691,2.22E-02,3.45E-02
692,2.23E-02,3.47E-02
693,2.24E-02,3.42E-02
694,2.22E-02,3.44E-02
695,2.23E-02,3.40E-02
696,2.24E-02,3.41E-02
697,2.19E-02,3.37E-02
698,2.21E-02,3.38E-02
699,2.18E-02,3.34E-02
700,2.17E-02,3.35E-02
701,2.25E-02,3.31E-02
702,2.20E-02,3.32E-02
703,2.29E-02,3.29E-02
704,2.28E-02,3.30E-02
705,2.27E-02,3.26E-02
706,2.30E-02,3.27E-02
707,2.23E-02,3.24E-02
708,2.25E-02,3.25E-02
709,2.24E-02,3.22E-02
710,2.21E-02,3.23E-02
711,2.29E-02,3.20E-02
712,2.26E-02,3.21E-02
713,2.30E-02,3.17E-02
714,2.30E-02,3.18E-02
715,2.28E-02,3.15E-02
716,2.30E-02,3.16E-02
717,2.24E-02,3.13E-02
718,2.26E-02,3.14E-02
719,2.18E-02,3.11E-02
720,2.21E-02,3.12E-02
721,2.18E-02,3.09E-02
722,2.19E-02,3.10E-02
723,2.16E-02,3.07E-02
724,2.17E-02,3.08E-02
725,2.20E-02,3.05E-02
726,2.16E-02,3.06E-02
727,2.25E-02,3.03E-02
728,2.24E-02,3.04E-02
729,2.32E-02,3.00E-02
730,2.28E-02,3.01E-02
731,2.33E-02,2.99E-02
732,2.33E-02,2.99E-02
733,2.34E-02,2.98E-02
734,2.41E-02,3.26E-02
735,2.44E-02,3.27E-02
736,2.24E-02,3.69E-02
737,2.26E-02,3.67E-02
738,2.23E-02,3.71E-02
739,2.63E-02,2.97E-02
740,2.43E-02,2.96E-02
741,2.55E-02,2.97E-02
742,2.42E-02,2.97E-02
743,2.46E-02,2.97E-02
744,2.22E-02,2.88E-02
745,2.21E-02,2.88E-02
746,2.29E-02,2.87E-02
747,2.04E-02,4.04E-02
748,2.00E-02,4.08E-02
749,2.03E-02,4.11E-02
750,2.03E-02,4.65E-02
751,2.24E-02,4.60E-02
752,2.70E-02,4.49E-02
753,2.43E-02,4.55E-02
754,2.22E-02,4.35E-02
755,2.86E-02,4.42E-02
756,1.95E-02,4.24E-02
757,2.01E-02,4.29E-02
758,2.04E-02,4.16E-02
759,1.97E-02,4.20E-02
760,2.28E-02,4.10E-02
761,2.17E-02,4.13E-02
762,2.31E-02,2.95E-02
763,2.39E-02,2.96E-02
764,2.23E-02,2.93E-02
765,2.28E-02,2.94E-02
766,2.15E-02,2.91E-02
767,2.18E-02,2.92E-02
768,2.13E-02,2.89E-02
769,2.12E-02,2.90E-02
770,2.15E-02,2.89E-02
771,2.15E-02,2.91E-02
772,2.17E-02,2.90E-02
773,2.16E-02,2.94E-02
774,2.15E-02,2.92E-02
775,2.22E-02,2.96E-02
776,2.18E-02,2.95E-02
777,2.25E-02,2.98E-02
778,2.23E-02,2.97E-02
779,2.25E-02,3.01E-02
780,2.26E-02,3.00E-02
781,2.22E-02,3.03E-02
782,2.24E-02,3.02E-02
783,2.25E-02,3.05E-02
784,2.23E-02,3.04E-02
785,2.28E-02,3.07E-02
786,2.26E-02,3.06E-02
787,2.28E-02,3.09E-02
788,2.27E-02,3.08E-02
789,2.29E-02,3.11E-02
790,2.28E-02,3.10E-02
791,2.25E-02,3.14E-02
792,2.28E-02,3.13E-02
793,2.26E-02,3.18E-02
794,2.23E-02,3.16E-02
795,2.33E-02,3.22E-02
796,2.29E-02,3.20E-02
797,2.36E-02,3.24E-02
798,2.42E-02,3.30E-02
799,2.44E-02,3.29E-02
800,2.33E-02,3.32E-02
801,2.37E-02,3.31E-02
802,2.33E-02,3.33E-02
803,2.33E-02,3.33E-02
804,2.36E-02,3.35E-02
805,2.35E-02,3.34E-02
806,2.35E-02,3.38E-02
807,2.36E-02,3.37E-02
808,2.35E-02,3.42E-02
809,2.36E-02,3.40E-02
810,2.34E-02,3.46E-02
811,2.35E-02,3.44E-02
812,2.31E-02,3.50E-02
813,2.32E-02,3.48E-02
814,2.30E-02,3.53E-02
815,2.30E-02,3.52E-02
816,2.27E-02,3.56E-02
817,2.28E-02,3.55E-02
818,2.27E-02,3.59E-02
819,2.27E-02,3.58E-02
820,2.29E-02,3.63E-02
821,2.29E-02,3.61E-02
822,2.27E-02,3.65E-02
823,2.27E-02,3.75E-02
824,2.26E-02,3.73E-02
825,2.31E-02,3.79E-02
826,2.30E-02,3.77E-02
827,2.34E-02,3.84E-02
828,2.36E-02,3.81E-02
829,2.24E-02,3.89E-02
830,2.28E-02,3.86E-02
831,2.14E-02,3.96E-02
832,2.19E-02,3.93E-02
833,2.09E-02,4.00E-02
834,2.11E-02,4.19E-02
835,2.06E-02,4.15E-02
836,2.15E-02,4.26E-02
837,2.16E-02,4.22E-02
838,2.05E-02,4.34E-02
839,2.11E-02,4.30E-02
840,2.00E-02,4.42E-02
841,2.00E-02,4.38E-02
842,2.23E-02,4.50E-02
843,2.09E-02,4.46E-02
844,2.39E-02,4.68E-02
845,2.52E-02,4.63E-02
846,2.19E-02,4.03E-02
847,2.34E-02,4.06E-02
848,2.14E-02,3.97E-02
849,2.17E-02,4.00E-02
850,2.10E-02,3.92E-02
851,2.12E-02,3.95E-02
852,2.11E-02,3.87E-02
853,2.08E-02,3.89E-02
854,2.10E-02,3.82E-02
855,2.10E-02,3.84E-02
856,2.13E-02,3.77E-02
857,2.10E-02,3.79E-02
858,2.21E-02,3.71E-02
859,2.15E-02,3.74E-02
860,2.25E-02,3.66E-02
861,2.23E-02,3.68E-02
862,2.28E-02,3.60E-02
863,2.28E-02,3.63E-02
864,2.29E-02,3.56E-02
865,2.28E-02,3.58E-02
866,2.31E-02,3.52E-02
867,2.30E-02,3.54E-02
868,2.26E-02,3.49E-02
869,2.30E-02,3.51E-02
870,2.24E-02,3.47E-02
871,2.26E-02,3.48E-02
872,2.22E-02,3.44E-02
873,2.22E-02,3.46E-02
874,2.20E-02,3.41E-02
875,2.21E-02,3.43E-02
876,2.20E-02,3.39E-02
877,2.20E-02,3.40E-02
878,2.17E-02,3.36E-02
879,2.19E-02,3.37E-02
880,2.19E-02,3.33E-02
881,2.18E-02,3.34E-02
882,2.24E-02,3.30E-02
883,2.20E-02,3.31E-02
884,2.25E-02,3.28E-02
885,2.26E-02,3.29E-02
886,2.24E-02,3.26E-02
887,2.24E-02,3.27E-02
888,2.23E-02,3.24E-02
889,2.23E-02,3.25E-02
890,2.23E-02,3.22E-02
891,2.21E-02,3.23E-02
892,2.27E-02,3.19E-02
893,2.24E-02,3.20E-02
894,2.29E-02,3.17E-02
895,2.29E-02,3.18E-02
896,2.26E-02,3.14E-02
897,2.27E-02,3.16E-02
898,2.22E-02,3.13E-02
899,2.25E-02,3.14E-02
900,2.20E-02,3.11E-02
901,2.20E-02,3.12E-02
902,2.18E-02,3.09E-02
903,2.19E-02,3.10E-02
904,2.16E-02,3.07E-02
905,2.17E-02,3.08E-02
906,2.20E-02,3.05E-02
907,2.16E-02,3.06E-02
908,2.25E-02,3.02E-02
909,2.24E-02,3.04E-02
910,2.31E-02,3.00E-02
911,2.27E-02,3.01E-02
912,2.34E-02,2.98E-02
913,2.33E-02,2.99E-02
914,2.38E-02,2.98E-02
915,2.65E-02,4.72E-02
916,2.34E-02,4.77E-02
917,2.58E-02,2.97E-02
918,2.55E-02,2.97E-02
919,2.52E-02,2.97E-02
920,2.41E-02,3.25E-02
921,2.57E-02,3.28E-02
922,2.23E-02,3.67E-02
923,2.20E-02,3.69E-02
924,2.07E-02,4.08E-02
925,2.10E-02,4.04E-02
926,2.09E-02,4.12E-02
927,1.81E-02,4.63E-02
928,2.37E-02,4.70E-02
929,2.39E-02,2.97E-02
930,2.44E-02,2.96E-02
931,2.32E-02,2.86E-02
932,2.52E-02,2.85E-02
933,2.23E-02,2.88E-02
934,2.30E-02,2.86E-02
935,2.55E-02,2.97E-02
936,2.27E-02,4.52E-02
937,1.81E-02,4.57E-02
938,2.46E-02,4.41E-02
939,2.33E-02,4.47E-02
940,2.19E-02,4.30E-02
941,2.32E-02,4.36E-02
942,2.06E-02,4.20E-02
943,2.11E-02,4.25E-02
944,2.07E-02,4.13E-02
945,2.04E-02,4.16E-02
946,2.44E-02,4.06E-02
947,2.17E-02,4.09E-02
948,2.50E-02,2.97E-02
949,2.41E-02,2.96E-02
950,2.46E-02,2.96E-02
951,2.34E-02,2.94E-02
952,2.35E-02,2.95E-02
953,2.24E-02,2.92E-02
954,2.27E-02,2.93E-02
955,2.18E-02,2.90E-02
956,2.18E-02,2.91E-02
957,2.17E-02,2.88E-02
958,2.15E-02,2.89E-02
959,2.22E-02,2.87E-02
960,2.17E-02,2.91E-02
961,2.20E-02,2.89E-02
962,2.18E-02,2.93E-02
963,2.17E-02,2.92E-02
964,2.23E-02,2.96E-02
965,2.20E-02,2.94E-02
966,2.25E-02,2.98E-02
967,2.21E-02,2.97E-02
968,2.24E-02,3.01E-02
969,2.26E-02,3.00E-02
970,2.24E-02,3.04E-02
971,2.23E-02,3.02E-02
972,2.24E-02,3.06E-02
973,2.22E-02,3.05E-02
974,2.28E-02,3.07E-02
975,2.27E-02,3.07E-02
976,2.30E-02,3.09E-02
977,2.29E-02,3.08E-02
978,2.30E-02,3.11E-02
979,2.32E-02,3.10E-02
980,2.24E-02,3.14E-02
981,2.27E-02,3.13E-02
982,2.24E-02,3.18E-02
983,2.22E-02,3.16E-02
984,2.28E-02,3.21E-02
985,2.26E-02,3.20E-02
986,2.33E-02,3.23E-02
987,2.43E-02,3.30E-02
988,2.58E-02,3.29E-02
989,2.34E-02,3.32E-02
990,2.37E-02,3.31E-02
991,2.33E-02,3.34E-02
992,2.32E-02,3.33E-02
993,2.36E-02,3.36E-02
994,2.34E-02,3.34E-02
995,2.34E-02,3.39E-02
996,2.34E-02,3.37E-02
997,2.32E-02,3.43E-02
998,2.32E-02,3.41E-02
999,2.31E-02,3.48E-02
1000,2.32E-02,3.46E-02
1001,2.29E-02,3.51E-02
1002,2.30E-02,3.50E-02
1003,2.27E-02,3.54E-02
1004,2.28E-02,3.53E-02
1005,2.25E-02,3.57E-02
1006,2.25E-02,3.56E-02
1007,2.26E-02,3.60E-02
1008,2.25E-02,3.59E-02
1009,2.26E-02,3.64E-02
1010,2.26E-02,3.62E-02
1011,2.25E-02,3.66E-02
1012,2.27E-02,3.75E-02
1013,2.22E-02,3.71E-02
1014,2.26E-02,3.73E-02
1015,2.30E-02,3.79E-02
1016,2.28E-02,3.77E-02
1017,2.31E-02,3.83E-02
1018,2.31E-02,3.81E-02
1019,2.22E-02,3.89E-02
1020,2.26E-02,3.86E-02
1021,2.15E-02,3.96E-02
1022,2.21E-02,3.92E-02
1023,2.12E-02,4.00E-02
1024,2.12E-02,4.20E-02
1025,2.10E-02,4.16E-02
1026,2.17E-02,4.28E-02
1027,2.15E-02,4.24E-02
1028,2.11E-02,4.36E-02
1029,2.13E-02,4.32E-02
1030,2.11E-02,4.45E-02
1031,2.10E-02,4.41E-02
1032,2.33E-02,4.55E-02
1033,2.18E-02,4.50E-02
1034,2.48E-02,4.65E-02
1035,2.41E-02,4.60E-02
1036,2.43E-02,4.76E-02
1037,2.44E-02,4.70E-02
1038,2.18E-02,4.86E-02
1039,2.37E-02,4.81E-02
1040,2.61E-02,4.77E-02
1041,2.64E-02,4.85E-02
1042,2.60E-02,4.94E-02
1043,2.62E-02,4.88E-02
1044,2.33E-02,4.92E-02
1045,2.21E-02,5.00E-02
1046,2.49E-02,5.00E-02
1047,2.62E-02,5.10E-02
1048,2.25E-02,4.00E-02
1049,2.51E-02,4.03E-02
1050,2.17E-02,3.94E-02
1051,2.17E-02,3.97E-02
1052,2.12E-02,3.89E-02
1053,2.14E-02,3.92E-02
1054,2.11E-02,3.85E-02
1055,2.10E-02,3.87E-02
1056,2.10E-02,3.80E-02
1057,2.09E-02,3.82E-02
1058,2.12E-02,3.75E-02
1059,2.08E-02,3.77E-02
1060,2.19E-02,3.70E-02
1061,2.16E-02,3.72E-02
1062,2.24E-02,3.64E-02
1063,2.21E-02,3.67E-02
1064,2.27E-02,3.58E-02
1065,2.26E-02,3.61E-02
1066,2.29E-02,3.54E-02
1067,2.30E-02,3.56E-02
1068,2.28E-02,3.51E-02
1069,2.27E-02,3.52E-02
1070,2.26E-02,3.48E-02
1071,2.26E-02,3.49E-02
1072,2.21E-02,3.46E-02
1073,2.24E-02,3.47E-02
1074,2.18E-02,3.43E-02
1075,2.20E-02,3.45E-02
1076,2.16E-02,3.40E-02
1077,2.16E-02,3.42E-02
1078,2.18E-02,3.37E-02
1079,2.15E-02,3.39E-02
1080,2.17E-02,3.35E-02
1081,2.18E-02,3.36E-02
1082,2.20E-02,3.32E-02
1083,2.18E-02,3.33E-02
1084,2.22E-02,3.29E-02
1085,2.21E-02,3.31E-02
1086,2.25E-02,3.27E-02
1087,2.24E-02,3.28E-02
1088,2.25E-02,3.25E-02
1089,2.25E-02,3.26E-02
1090,2.23E-02,3.23E-02
1091,2.24E-02,3.24E-02
1092,2.23E-02,3.21E-02
1093,2.20E-02,3.22E-02
1094,2.27E-02,3.19E-02
1095,2.25E-02,3.20E-02
1096,2.28E-02,3.16E-02
1097,2.29E-02,3.18E-02
1098,2.26E-02,3.14E-02
1099,2.25E-02,3.15E-02
1100,2.21E-02,3.12E-02
1101,2.23E-02,3.13E-02
1102,2.20E-02,3.11E-02
1103,2.20E-02,3.12E-02
1104,2.17E-02,3.09E-02
1105,2.19E-02,3.10E-02
1106,2.16E-02,3.07E-02
1107,2.16E-02,3.08E-02
1108,2.19E-02,3.05E-02
1109,2.16E-02,3.06E-02
1110,2.24E-02,3.02E-02
1111,2.23E-02,3.04E-02
1112,2.31E-02,3.00E-02
1113,2.27E-02,3.01E-02
1114,2.34E-02,2.98E-02
1115,2.31E-02,2.99E-02
1116,2.37E-02,2.97E-02
1117,2.48E-02,2.96E-02
1118,2.44E-02,2.85E-02
1119,2.19E-02,5.20E-02
1120,2.51E-02,2.97E-02
1121,2.51E-02,2.96E-02
1122,2.50E-02,2.96E-02
1123,1.82E-02,2.83E-02
1124,2.10E-02,5.26E-02
1125,2.50E-02,2.97E-02
1126,1.82E-02,2.83E-02
1127,1.53E-02,2.81E-02
1128,2.09E-02,4.08E-02
1129,2.12E-02,4.04E-02
1130,2.10E-02,4.12E-02
1131,2.27E-02,4.03E-02
1132,1.79E-02,5.16E-02
1133,1.91E-02,5.25E-02
1134,2.54E-02,5.00E-02
1135,2.26E-02,5.08E-02
1136,2.38E-02,4.84E-02
1137,2.37E-02,4.92E-02
1138,2.33E-02,4.70E-02
1139,2.35E-02,4.76E-02
1140,2.10E-02,4.58E-02
1141,2.23E-02,4.64E-02
1142,2.16E-02,4.45E-02
1143,2.19E-02,4.51E-02
1144,2.28E-02,4.34E-02
1145,2.27E-02,4.40E-02
1146,2.20E-02,4.25E-02
1147,2.23E-02,4.29E-02
1148,2.12E-02,4.16E-02
1149,2.16E-02,4.20E-02
1150,2.14E-02,4.09E-02
1151,2.11E-02,4.13E-02
1152,2.19E-02,4.06E-02
1153,2.48E-02,2.97E-02
1154,2.47E-02,2.97E-02
1155,2.47E-02,2.97E-02
1156,2.40E-02,2.95E-02
1157,2.41E-02,2.96E-02
1158,2.32E-02,2.94E-02
1159,2.36E-02,2.95E-02
1160,2.23E-02,2.91E-02
1161,2.26E-02,2.92E-02
1162,2.18E-02,2.89E-02
1163,2.21E-02,2.90E-02
1164,2.20E-02,2.87E-02
1165,2.20E-02,2.88E-02
1166,2.31E-02,2.85E-02
1167,2.23E-02,2.86E-02
1168,2.45E-02,2.84E-02
1169,1.96E-02,2.81E-02
1170,2.16E-02,2.84E-02
1171,2.04E-02,2.83E-02
1172,2.22E-02,2.87E-02
1173,2.24E-02,2.86E-02
1174,2.20E-02,2.90E-02
1175,2.21E-02,2.89E-02
1176,2.21E-02,2.93E-02
1177,2.20E-02,2.91E-02
1178,2.23E-02,2.96E-02
1179,2.21E-02,2.94E-02
1180,2.25E-02,2.98E-02
1181,2.23E-02,2.97E-02
1182,2.25E-02,3.01E-02
1183,2.25E-02,2.99E-02
1184,2.24E-02,3.04E-02
1185,2.25E-02,3.03E-02
1186,2.24E-02,3.07E-02
1187,2.22E-02,3.05E-02
1188,2.30E-02,3.08E-02
1189,2.26E-02,3.07E-02
1190,2.32E-02,3.09E-02
1191,2.30E-02,3.08E-02
1192,2.29E-02,3.11E-02
1193,2.32E-02,3.10E-02
1194,2.24E-02,3.14E-02
1195,2.28E-02,3.13E-02
1196,2.25E-02,3.18E-02
1197,2.23E-02,3.16E-02
1198,2.26E-02,3.21E-02
1199,2.25E-02,3.19E-02
1200,2.34E-02,3.25E-02
1201,2.29E-02,3.23E-02
1202,2.45E-02,3.27E-02
1203,2.36E-02,3.31E-02
1204,2.49E-02,3.29E-02
1205,2.31E-02,3.32E-02
1206,2.34E-02,3.32E-02
1207,2.32E-02,3.34E-02
1208,2.32E-02,3.33E-02
1209,2.33E-02,3.36E-02
1210,2.34E-02,3.35E-02
1211,2.32E-02,3.40E-02
1212,2.34E-02,3.38E-02
1213,2.29E-02,3.45E-02
1214,2.31E-02,3.42E-02
1215,2.28E-02,3.49E-02
1216,2.28E-02,3.47E-02
1217,2.26E-02,3.53E-02
1218,2.26E-02,3.51E-02
1219,2.26E-02,3.55E-02
1220,2.24E-02,3.54E-02
1221,2.23E-02,3.58E-02
1222,2.26E-02,3.57E-02
1223,2.23E-02,3.61E-02
1224,2.21E-02,3.60E-02
1225,2.24E-02,3.64E-02
1226,2.23E-02,3.63E-02
1227,2.24E-02,3.68E-02
1228,2.25E-02,3.66E-02
1229,2.22E-02,3.72E-02
1230,2.22E-02,3.70E-02
1231,2.24E-02,3.76E-02
1232,2.23E-02,3.74E-02
1233,2.27E-02,3.79E-02
1234,2.25E-02,3.77E-02
1235,2.28E-02,3.83E-02
1236,2.28E-02,3.81E-02
1237,2.23E-02,3.89E-02
1238,2.26E-02,3.86E-02
1239,2.17E-02,3.95E-02
1240,2.21E-02,3.92E-02
1241,2.14E-02,3.99E-02
1242,2.14E-02,4.20E-02
1243,2.12E-02,4.16E-02
1244,2.17E-02,4.29E-02
1245,2.14E-02,4.25E-02
1246,2.17E-02,4.38E-02
1247,2.15E-02,4.33E-02
1248,2.18E-02,4.49E-02
1249,2.17E-02,4.43E-02
1250,2.30E-02,4.60E-02
1251,2.23E-02,4.54E-02
1252,2.38E-02,4.72E-02
1253,2.33E-02,4.66E-02
1254,2.37E-02,4.84E-02
1255,2.39E-02,4.78E-02
1256,2.35E-02,4.94E-02
1257,2.33E-02,4.90E-02
1258,2.42E-02,5.04E-02
1259,2.44E-02,4.99E-02
1260,2.54E-02,5.13E-02
1261,2.35E-02,5.09E-02
1262,2.15E-02,5.26E-02
1263,2.46E-02,5.20E-02
1264,2.57E-02,5.38E-02
1265,2.12E-02,5.34E-02
1266,3.26E-02,5.42E-02
1267,3.34E-02,5.51E-02
1268,3.12E-02,5.61E-02
1269,2.50E-02,5.69E-02
1270,2.24E-02,3.97E-02
1271,2.34E-02,3.99E-02
1272,2.17E-02,3.91E-02
1273,2.18E-02,3.94E-02
1274,2.15E-02,3.87E-02
1275,2.15E-02,3.89E-02
1276,2.12E-02,3.82E-02
1277,2.11E-02,3.84E-02
1278,2.12E-02,3.77E-02
1279,2.10E-02,3.80E-02
1280,2.11E-02,3.73E-02
1281,2.10E-02,3.75E-02
1282,2.18E-02,3.68E-02
1283,2.12E-02,3.71E-02
1284,2.23E-02,3.62E-02
1285,2.19E-02,3.65E-02
1286,2.27E-02,3.57E-02
1287,2.25E-02,3.60E-02
1288,2.29E-02,3.53E-02
1289,2.28E-02,3.55E-02
1290,2.26E-02,3.50E-02
1291,2.26E-02,3.51E-02
1292,2.23E-02,3.47E-02
1293,2.24E-02,3.48E-02
1294,2.19E-02,3.45E-02
1295,2.22E-02,3.46E-02
1296,2.16E-02,3.42E-02
1297,2.18E-02,3.43E-02
1298,2.16E-02,3.39E-02
1299,2.16E-02,3.40E-02
1300,2.19E-02,3.36E-02
1301,2.17E-02,3.38E-02
1302,2.18E-02,3.33E-02
1303,2.17E-02,3.35E-02
1304,2.20E-02,3.31E-02
1305,2.18E-02,3.32E-02
1306,2.22E-02,3.28E-02
1307,2.21E-02,3.29E-02
1308,2.26E-02,3.26E-02
1309,2.25E-02,3.27E-02
1310,2.25E-02,3.25E-02
1311,2.24E-02,3.25E-02
1312,2.23E-02,3.23E-02
1313,2.24E-02,3.24E-02
1314,2.23E-02,3.21E-02
1315,2.21E-02,3.22E-02
1316,2.27E-02,3.19E-02
1317,2.26E-02,3.20E-02
1318,2.29E-02,3.16E-02
1319,2.26E-02,3.17E-02
1320,2.26E-02,3.14E-02
1321,2.27E-02,3.15E-02
1322,2.21E-02,3.12E-02
1323,2.23E-02,3.13E-02
1324,2.21E-02,3.11E-02
1325,2.21E-02,3.11E-02
1326,2.18E-02,3.09E-02
1327,2.20E-02,3.10E-02
1328,2.17E-02,3.07E-02
1329,2.17E-02,3.08E-02
1330,2.19E-02,3.05E-02
1331,2.16E-02,3.06E-02
1332,2.24E-02,3.02E-02
1333,2.21E-02,3.04E-02
1334,2.29E-02,2.99E-02
1335,2.27E-02,3.01E-02
1336,2.31E-02,2.97E-02
1337,2.31E-02,2.98E-02
1338,2.38E-02,2.96E-02
1339,2.35E-02,2.97E-02
1340,2.43E-02,2.96E-02
1341,2.42E-02,2.96E-02
1342,2.47E-02,2.96E-02
1343,2.48E-02,2.96E-02
1344,2.46E-02,2.97E-02
1345,2.49E-02,2.96E-02
1346,2.12E-02,4.02E-02
1347,2.11E-02,4.07E-02
1348,2.44E-02,5.98E-02
1349,1.89E-02,4.01E-02
1350,1.89E-02,3.98E-02
1351,2.45E-02,2.97E-02
1352,2.43E-02,2.97E-02
1353,2.00E-02,2.79E-02
1354,2.09E-02,2.80E-02
1355,2.10E-02,2.78E-02
1356,1.53E-02,6.26E-02
1357,1.54E-02,6.49E-02
1358,1.34E-02,6.46E-02
1359,2.23E-02,5.76E-02
1360,2.46E-02,5.87E-02
1361,2.44E-02,5.52E-02
1362,2.29E-02,5.64E-02
1363,2.44E-02,5.29E-02
1364,2.57E-02,5.41E-02
1365,2.15E-02,5.07E-02
1366,2.01E-02,5.19E-02
1367,2.30E-02,4.90E-02
1368,2.16E-02,4.98E-02
1369,2.33E-02,4.75E-02
1370,2.33E-02,4.83E-02
1371,2.24E-02,4.62E-02
1372,2.29E-02,4.69E-02
1373,2.18E-02,4.50E-02
1374,2.21E-02,4.56E-02
1375,2.22E-02,4.38E-02
1376,2.17E-02,4.44E-02
1377,2.25E-02,4.28E-02
1378,2.21E-02,4.33E-02
1379,2.19E-02,4.19E-02
1380,2.22E-02,4.23E-02
1381,2.16E-02,4.12E-02
1382,2.16E-02,4.15E-02
1383,2.15E-02,4.06E-02
1384,2.14E-02,4.09E-02
1385,2.17E-02,4.03E-02
1386,2.44E-02,2.97E-02
1387,2.42E-02,2.97E-02
1388,2.37E-02,2.95E-02
1389,2.39E-02,2.96E-02
1390,2.30E-02,2.93E-02
1391,2.33E-02,2.94E-02
1392,2.24E-02,2.90E-02
1393,2.27E-02,2.92E-02
1394,2.20E-02,2.88E-02
1395,2.23E-02,2.89E-02
1396,2.21E-02,2.86E-02
1397,2.21E-02,2.87E-02
1398,2.24E-02,2.83E-02
1399,2.22E-02,2.84E-02
1400,2.06E-02,2.81E-02
1401,2.16E-02,2.82E-02
1402,1.97E-02,2.80E-02
1403,2.14E-02,2.84E-02
1404,2.10E-02,2.82E-02
1405,2.21E-02,2.86E-02
1406,2.19E-02,2.85E-02
1407,2.21E-02,2.89E-02
1408,2.21E-02,2.88E-02
1409,2.20E-02,2.92E-02
1410,2.22E-02,2.91E-02
1411,2.24E-02,2.95E-02
1412,2.21E-02,2.94E-02
1413,2.24E-02,2.98E-02
1414,2.24E-02,2.97E-02
1415,2.26E-02,3.01E-02
1416,2.27E-02,2.99E-02
1417,2.24E-02,3.05E-02
1418,2.25E-02,3.03E-02
1419,2.25E-02,3.08E-02
1420,2.23E-02,3.06E-02
1421,2.28E-02,3.09E-02
1422,2.26E-02,3.09E-02
1423,2.30E-02,3.09E-02
1424,2.28E-02,3.09E-02
1425,2.30E-02,3.12E-02
1426,2.31E-02,3.10E-02
1427,2.25E-02,3.15E-02
1428,2.28E-02,3.13E-02
1429,2.23E-02,3.17E-02
1430,2.23E-02,3.16E-02
1431,2.25E-02,3.20E-02
1432,2.25E-02,3.18E-02
1433,2.23E-02,3.23E-02
1434,2.24E-02,3.21E-02
1435,1.81E-02,3.28E-02
1436,2.12E-02,3.25E-02
1437,2.30E-02,3.31E-02
1438,2.15E-02,3.29E-02
1439,2.28E-02,3.32E-02
1440,2.28E-02,3.31E-02
1441,2.30E-02,3.34E-02
1442,2.31E-02,3.33E-02
1443,2.31E-02,3.37E-02
1444,2.32E-02,3.35E-02
1445,2.31E-02,3.41E-02
1446,2.33E-02,3.39E-02
1447,2.26E-02,3.46E-02
1448,2.30E-02,3.44E-02
1449,2.26E-02,3.51E-02
1450,2.25E-02,3.49E-02
1451,2.25E-02,3.54E-02
1452,2.24E-02,3.53E-02
1453,2.27E-02,3.56E-02
1454,2.24E-02,3.55E-02
1455,2.24E-02,3.59E-02
1456,2.27E-02,3.58E-02
1457,2.23E-02,3.62E-02
1458,2.21E-02,3.60E-02
1459,2.24E-02,3.65E-02
1460,2.24E-02,3.64E-02
1461,2.26E-02,3.69E-02
1462,2.26E-02,3.67E-02
1463,2.23E-02,3.72E-02
1464,2.23E-02,3.71E-02
1465,2.22E-02,3.76E-02
1466,2.23E-02,3.74E-02
1467,2.25E-02,3.79E-02
1468,2.22E-02,3.77E-02
1469,2.26E-02,3.83E-02
1470,2.26E-02,3.81E-02
1471,2.23E-02,3.88E-02
1472,2.26E-02,3.85E-02
1473,2.19E-02,3.94E-02
1474,2.21E-02,3.91E-02
1475,2.16E-02,3.98E-02
1476,2.15E-02,4.20E-02
1477,2.12E-02,4.11E-02
1478,2.13E-02,4.16E-02
1479,2.18E-02,4.29E-02
1480,2.16E-02,4.24E-02
1481,2.21E-02,4.39E-02
1482,2.20E-02,4.34E-02
1483,2.23E-02,4.51E-02
1484,2.22E-02,4.45E-02
1485,2.29E-02,4.64E-02
1486,2.26E-02,4.58E-02
1487,2.34E-02,4.79E-02
1488,2.32E-02,4.71E-02
1489,2.34E-02,4.93E-02
1490,2.36E-02,4.86E-02
1491,2.34E-02,5.05E-02
1492,2.35E-02,5.00E-02
1493,2.38E-02,5.15E-02
1494,2.40E-02,5.10E-02
1495,2.39E-02,5.26E-02
1496,2.42E-02,5.20E-02
1497,2.29E-02,5.38E-02
1498,2.37E-02,5.32E-02
1499,2.44E-02,5.50E-02
1500,2.31E-02,5.44E-02
1501,2.38E-02,5.62E-02
1502,2.45E-02,5.57E-02
1503,2.29E-02,5.73E-02
1504,2.33E-02,5.68E-02
1505,2.40E-02,5.85E-02
1506,2.17E-02,5.79E-02
1507,2.43E-02,5.93E-02
1508,2.59E-02,6.21E-02
1509,2.14E-02,6.25E-02
1510,2.20E-02,3.93E-02
1511,2.06E-02,3.96E-02
1512,2.16E-02,3.88E-02
1513,2.17E-02,3.91E-02
1514,2.18E-02,3.83E-02
1515,2.15E-02,3.86E-02
1516,2.14E-02,3.79E-02
1517,2.14E-02,3.81E-02
1518,2.12E-02,3.75E-02
1519,2.13E-02,3.77E-02
1520,2.13E-02,3.71E-02
1521,2.11E-02,3.73E-02
1522,2.18E-02,3.66E-02
1523,2.14E-02,3.68E-02
1524,2.23E-02,3.61E-02
1525,2.21E-02,3.63E-02
1526,2.28E-02,3.56E-02
1527,2.26E-02,3.58E-02
1528,2.28E-02,3.51E-02
1529,2.29E-02,3.53E-02
1530,2.25E-02,3.49E-02
1531,2.26E-02,3.50E-02
1532,2.22E-02,3.46E-02
1533,2.24E-02,3.47E-02
1534,2.18E-02,3.44E-02
1535,2.20E-02,3.45E-02
1536,2.16E-02,3.40E-02
1537,2.18E-02,3.42E-02
1538,2.16E-02,3.37E-02
1539,2.16E-02,3.39E-02
1540,2.19E-02,3.34E-02
1541,2.17E-02,3.36E-02
1542,2.18E-02,3.32E-02
1543,2.19E-02,3.33E-02
1544,2.21E-02,3.29E-02
1545,2.19E-02,3.31E-02
1546,2.22E-02,3.27E-02
1547,2.21E-02,3.28E-02
1548,2.26E-02,3.25E-02
1549,2.25E-02,3.26E-02
1550,2.25E-02,3.24E-02
1551,2.24E-02,3.25E-02
1552,2.23E-02,3.23E-02
1553,2.22E-02,3.24E-02
1554,2.23E-02,3.21E-02
1555,2.21E-02,3.22E-02
1556,2.26E-02,3.19E-02
1557,2.24E-02,3.20E-02
1558,2.29E-02,3.16E-02
1559,2.27E-02,3.17E-02
1560,2.25E-02,3.14E-02
1561,2.26E-02,3.15E-02
1562,2.21E-02,3.12E-02
1563,2.22E-02,3.13E-02
1564,2.21E-02,3.10E-02
1565,2.20E-02,3.11E-02
1566,2.18E-02,3.08E-02
1567,2.20E-02,3.09E-02
1568,2.16E-02,3.07E-02
1569,2.17E-02,3.07E-02
1570,2.19E-02,3.05E-02
1571,2.17E-02,3.06E-02
1572,2.24E-02,3.02E-02
1573,2.21E-02,3.03E-02
1574,2.28E-02,2.99E-02
1575,2.24E-02,3.00E-02
1576,2.31E-02,2.97E-02
1577,2.31E-02,2.98E-02
1578,2.32E-02,2.96E-02
1579,2.33E-02,2.97E-02
1580,2.37E-02,2.95E-02
1581,2.37E-02,2.96E-02
1582,2.43E-02,2.95E-02
1583,2.41E-02,2.95E-02
1584,2.44E-02,2.95E-02
1585,2.44E-02,2.95E-02
1586,2.14E-02,6.50E-02
1587,2.05E-02,6.52E-02
1588,2.45E-02,2.96E-02
1589,2.12E-02,2.76E-02
1590,2.17E-02,2.75E-02
1591,2.13E-02,2.80E-02
1592,2.18E-02,2.78E-02
1593,1.99E-02,3.96E-02
1594,1.67E-02,7.92E-02
1595,2.01E-02,3.98E-02
1596,2.11E-02,7.31E-02
1597,2.50E-02,6.93E-02
1598,2.48E-02,7.06E-02
1599,1.99E-02,6.75E-02
1600,2.08E-02,6.85E-02
1601,2.18E-02,6.53E-02
1602,1.89E-02,6.66E-02
1603,2.56E-02,6.27E-02
1604,2.48E-02,6.38E-02
1605,2.44E-02,6.01E-02
1606,2.51E-02,6.15E-02
1607,2.29E-02,5.73E-02
1608,2.32E-02,5.88E-02
1609,2.33E-02,5.45E-02
1610,2.29E-02,5.59E-02
1611,2.27E-02,5.21E-02
1612,2.32E-02,5.32E-02
1613,2.18E-02,4.98E-02
1614,2.21E-02,5.09E-02
1615,2.24E-02,4.81E-02
1616,2.21E-02,4.89E-02
1617,2.27E-02,4.66E-02
1618,2.28E-02,4.73E-02
1619,2.24E-02,4.54E-02
1620,2.24E-02,4.60E-02
1621,2.20E-02,4.42E-02
1622,2.23E-02,4.48E-02
1623,2.20E-02,4.31E-02
1624,2.20E-02,4.36E-02
1625,2.23E-02,4.21E-02
1626,2.22E-02,4.26E-02
1627,2.21E-02,4.14E-02
1628,2.20E-02,4.17E-02
1629,2.16E-02,4.08E-02
1630,2.18E-02,4.11E-02
1631,2.14E-02,4.03E-02
1632,2.15E-02,4.05E-02
1633,2.10E-02,4.00E-02
1634,2.42E-02,2.93E-02
1635,2.42E-02,2.94E-02
1636,2.42E-02,2.97E-02
1637,2.43E-02,2.98E-02
1638,2.41E-02,2.97E-02
1639,2.39E-02,2.96E-02
1640,2.40E-02,2.97E-02
1641,2.33E-02,2.94E-02
1642,2.33E-02,2.95E-02
1643,2.27E-02,2.92E-02
1644,2.31E-02,2.93E-02
1645,2.23E-02,2.89E-02
1646,2.26E-02,2.91E-02
1647,2.24E-02,2.87E-02
1648,2.22E-02,2.88E-02
1649,2.22E-02,2.84E-02
1650,2.22E-02,2.85E-02
1651,2.20E-02,2.82E-02
1652,2.21E-02,2.83E-02
1653,2.13E-02,2.79E-02
1654,2.17E-02,2.80E-02
1655,2.09E-02,2.78E-02
1656,2.15E-02,2.83E-02
1657,2.13E-02,2.82E-02
1658,2.20E-02,2.85E-02
1659,2.19E-02,2.84E-02
1660,2.21E-02,2.88E-02
1661,2.21E-02,2.87E-02
1662,2.22E-02,2.92E-02
1663,2.22E-02,2.90E-02
1664,2.24E-02,2.95E-02
1665,2.22E-02,2.94E-02
1666,2.25E-02,2.98E-02
1667,2.23E-02,2.97E-02
1668,2.25E-02,3.01E-02
1669,2.26E-02,2.99E-02
1670,2.24E-02,3.05E-02
1671,2.25E-02,3.03E-02
1672,2.24E-02,3.09E-02
1673,2.22E-02,3.08E-02
1674,2.27E-02,3.10E-02
1675,2.26E-02,3.10E-02
1676,2.30E-02,3.10E-02
1677,2.28E-02,3.10E-02
1678,2.30E-02,3.12E-02
1679,2.31E-02,3.11E-02
1680,2.24E-02,3.16E-02
1681,2.26E-02,3.14E-02
1682,2.22E-02,3.17E-02
1683,2.21E-02,3.16E-02
1684,2.22E-02,3.18E-02
1685,2.22E-02,3.17E-02
1686,2.18E-02,3.21E-02
1687,2.21E-02,3.19E-02
1688,1.95E-02,3.26E-02
1689,2.17E-02,3.23E-02
1690,2.22E-02,3.30E-02
1691,2.17E-02,3.28E-02
1692,2.27E-02,3.32E-02
1693,2.26E-02,3.31E-02
1694,2.30E-02,3.34E-02
1695,2.28E-02,3.33E-02
1696,2.31E-02,3.39E-02
1697,2.31E-02,3.36E-02
1698,2.30E-02,3.43E-02
1699,2.32E-02,3.41E-02
1700,2.26E-02,3.48E-02
1701,2.28E-02,3.45E-02
1702,2.23E-02,3.54E-02
1703,2.26E-02,3.51E-02
1704,2.25E-02,3.56E-02
1705,2.22E-02,3.55E-02
1706,2.26E-02,3.57E-02
1707,2.25E-02,3.57E-02
1708,2.25E-02,3.60E-02
1709,2.25E-02,3.58E-02
1710,2.22E-02,3.63E-02
1711,2.22E-02,3.61E-02
1712,2.23E-02,3.66E-02
1713,2.23E-02,3.64E-02
1714,2.24E-02,3.69E-02
1715,2.26E-02,3.67E-02
1716,2.21E-02,3.73E-02
1717,2.21E-02,3.71E-02
1718,2.22E-02,3.76E-02
1719,2.21E-02,3.75E-02
1720,2.23E-02,3.79E-02
1721,2.23E-02,3.78E-02
1722,2.26E-02,3.82E-02
1723,2.26E-02,3.80E-02
1724,2.24E-02,3.87E-02
1725,2.26E-02,3.84E-02
1726,2.18E-02,3.92E-02
1727,2.22E-02,3.89E-02
1728,2.15E-02,4.00E-02
1729,2.17E-02,3.96E-02
1730,2.15E-02,4.09E-02
1731,2.14E-02,4.05E-02
1732,2.16E-02,4.18E-02
1733,2.16E-02,4.14E-02
1734,2.19E-02,4.27E-02
1735,2.17E-02,4.22E-02
1736,2.21E-02,4.39E-02
1737,2.22E-02,4.33E-02
1738,2.25E-02,4.53E-02
1739,2.22E-02,4.46E-02
1740,2.28E-02,4.68E-02
1741,2.26E-02,4.61E-02
1742,2.32E-02,4.85E-02
1743,2.31E-02,4.76E-02
1744,2.33E-02,5.03E-02
1745,2.33E-02,4.95E-02
1746,2.34E-02,5.17E-02
1747,2.32E-02,5.11E-02
1748,2.37E-02,5.28E-02
1749,2.36E-02,5.22E-02
1750,2.36E-02,5.40E-02
1751,2.37E-02,5.34E-02
1752,2.36E-02,5.52E-02
1753,2.36E-02,5.46E-02
1754,2.35E-02,5.62E-02
1755,2.35E-02,5.57E-02
1756,2.33E-02,5.72E-02
1757,2.33E-02,5.68E-02
1758,2.28E-02,5.78E-02
1759,2.33E-02,5.75E-02
1760,2.32E-02,5.84E-02
1761,2.34E-02,5.80E-02
1762,2.75E-02,5.91E-02
1763,2.27E-02,5.86E-02
1764,2.43E-02,5.99E-02
1765,2.82E-02,5.97E-02
1766,2.42E-02,6.03E-02
1767,2.23E-02,5.98E-02
1768,2.00E-02,6.10E-02
1769,2.40E-02,6.09E-02
1770,2.48E-02,6.46E-02
1771,1.88E-02,6.25E-02
1772,2.04E-02,6.59E-02
1773,2.12E-02,3.91E-02
1774,2.06E-02,3.93E-02
1775,2.16E-02,3.85E-02
1776,2.16E-02,3.88E-02
1777,2.18E-02,3.80E-02
1778,2.15E-02,3.83E-02
1779,2.15E-02,3.75E-02
1780,2.15E-02,3.77E-02
1781,2.12E-02,3.71E-02
1782,2.15E-02,3.73E-02
1783,2.15E-02,3.67E-02
1784,2.12E-02,3.69E-02
1785,2.19E-02,3.64E-02
1786,2.16E-02,3.66E-02
1787,2.23E-02,3.59E-02
1788,2.20E-02,3.62E-02
1789,2.26E-02,3.55E-02
1790,2.25E-02,3.57E-02
1791,2.27E-02,3.51E-02
1792,2.29E-02,3.52E-02
1793,2.25E-02,3.48E-02
1794,2.27E-02,3.49E-02
1795,2.21E-02,3.45E-02
1796,2.24E-02,3.47E-02
1797,2.18E-02,3.42E-02
1798,2.20E-02,3.44E-02
1799,2.17E-02,3.38E-02
1800,2.17E-02,3.40E-02
1801,2.16E-02,3.35E-02
1802,2.17E-02,3.37E-02
1803,2.19E-02,3.32E-02
1804,2.17E-02,3.33E-02
1805,2.19E-02,3.30E-02
1806,2.19E-02,3.31E-02
1807,2.21E-02,3.28E-02
1808,2.19E-02,3.29E-02
1809,2.22E-02,3.26E-02
1810,2.21E-02,3.27E-02
1811,2.25E-02,3.25E-02
1812,2.25E-02,3.25E-02
1813,2.24E-02,3.24E-02
1814,2.24E-02,3.24E-02
1815,2.23E-02,3.23E-02
1816,2.22E-02,3.23E-02
1817,2.22E-02,3.22E-02
1818,2.21E-02,3.23E-02
1819,2.25E-02,3.19E-02
1820,2.25E-02,3.21E-02
1821,2.29E-02,3.16E-02
1822,2.28E-02,3.18E-02
1823,2.24E-02,3.14E-02
1824,2.26E-02,3.15E-02
1825,2.22E-02,3.12E-02
1826,2.22E-02,3.13E-02
1827,2.21E-02,3.10E-02
1828,2.20E-02,3.11E-02
1829,2.19E-02,3.07E-02
1830,2.21E-02,3.08E-02
1831,2.17E-02,3.06E-02
1832,2.18E-02,3.06E-02
1833,2.19E-02,3.05E-02
1834,2.17E-02,3.05E-02
1835,2.23E-02,3.01E-02
1836,2.22E-02,3.03E-02
1837,2.29E-02,2.98E-02
1838,2.24E-02,3.00E-02
1839,2.28E-02,2.97E-02
1840,2.29E-02,2.98E-02
1841,2.31E-02,2.96E-02
1842,2.30E-02,2.97E-02
1843,2.35E-02,2.94E-02
1844,2.33E-02,2.96E-02
1845,2.38E-02,2.93E-02
1846,2.38E-02,2.94E-02
1847,2.41E-02,2.93E-02
1848,1.94E-02,8.88E-02
1849,2.37E-02,2.75E-02
1850,2.09E-02,3.96E-02
1851,2.06E-02,3.94E-02
1852,2.41E-02,2.95E-02
1853,2.15E-02,7.90E-02
1854,2.04E-02,8.35E-02
1855,2.27E-02,7.34E-02
1856,2.28E-02,7.57E-02
1857,2.10E-02,7.01E-02
1858,2.20E-02,7.15E-02
1859,2.21E-02,6.67E-02
1860,2.13E-02,6.85E-02
1861,2.35E-02,6.36E-02
1862,2.28E-02,6.52E-02
1863,2.34E-02,6.03E-02
1864,2.34E-02,6.20E-02
1865,2.28E-02,5.69E-02
1866,2.32E-02,5.86E-02
1867,2.30E-02,5.38E-02
1868,2.29E-02,5.53E-02
1869,2.27E-02,5.11E-02
1870,2.27E-02,5.24E-02
1871,2.21E-02,4.89E-02
1872,2.23E-02,4.99E-02
1873,2.23E-02,4.71E-02
1874,2.21E-02,4.79E-02
1875,2.24E-02,4.56E-02
1876,2.24E-02,4.63E-02
1877,2.24E-02,4.44E-02
1878,2.24E-02,4.50E-02
1879,2.21E-02,4.33E-02
1880,2.23E-02,4.39E-02
1881,2.21E-02,4.23E-02
1882,2.22E-02,4.28E-02
1883,2.21E-02,4.14E-02
1884,2.20E-02,4.18E-02
1885,2.21E-02,4.08E-02
1886,2.19E-02,4.11E-02
1887,2.17E-02,4.04E-02
1888,2.18E-02,4.06E-02
1889,2.13E-02,4.00E-02
1890,2.16E-02,4.02E-02
1891,2.12E-02,3.98E-02
1892,2.41E-02,2.97E-02
1893,2.39E-02,2.98E-02
1894,2.37E-02,2.98E-02
1895,2.36E-02,2.96E-02
1896,2.35E-02,2.97E-02
1897,2.30E-02,2.94E-02
1898,2.32E-02,2.95E-02
1899,2.22E-02,2.91E-02
1900,2.27E-02,2.92E-02
1901,2.23E-02,2.88E-02
1902,2.22E-02,2.90E-02
1903,2.23E-02,2.85E-02
1904,2.24E-02,2.87E-02
1905,2.21E-02,2.83E-02
1906,2.22E-02,2.84E-02
1907,2.20E-02,2.80E-02
1908,2.22E-02,2.81E-02
1909,2.15E-02,2.77E-02
1910,2.17E-02,2.79E-02
1911,2.15E-02,2.74E-02
1912,2.16E-02,2.76E-02
1913,2.31E-02,2.72E-02
1914,2.19E-02,2.73E-02
1915,2.35E-02,2.75E-02
1916,2.17E-02,2.79E-02
1917,2.21E-02,2.77E-02
1918,2.19E-02,2.82E-02
1919,2.17E-02,2.81E-02
1920,2.22E-02,2.84E-02
1921,2.20E-02,2.83E-02
1922,2.23E-02,2.87E-02
1923,2.22E-02,2.85E-02
1924,2.22E-02,2.91E-02
1925,2.23E-02,2.89E-02
1926,2.23E-02,2.95E-02
1927,2.22E-02,2.93E-02
1928,2.25E-02,2.98E-02
1929,2.24E-02,2.97E-02
1930,2.26E-02,3.01E-02
1931,2.25E-02,3.00E-02
1932,2.24E-02,3.06E-02
1933,2.25E-02,3.03E-02
1934,2.23E-02,3.11E-02
1935,2.22E-02,3.09E-02
1936,2.26E-02,3.12E-02
1937,2.26E-02,3.12E-02
1938,2.29E-02,3.12E-02
1939,2.28E-02,3.12E-02
1940,2.28E-02,3.14E-02
1941,2.29E-02,3.12E-02
1942,2.24E-02,3.17E-02
1943,2.26E-02,3.16E-02
1944,2.24E-02,3.16E-02
1945,2.21E-02,3.17E-02
1946,2.21E-02,3.15E-02
1947,2.23E-02,3.16E-02
1948,2.18E-02,3.17E-02
1949,2.19E-02,3.16E-02
1950,2.07E-02,3.22E-02
1951,2.13E-02,3.20E-02
1952,2.22E-02,3.27E-02
1953,2.19E-02,3.25E-02
1954,2.25E-02,3.30E-02
1955,2.24E-02,3.29E-02
1956,2.29E-02,3.35E-02
1957,2.26E-02,3.32E-02
1958,2.31E-02,3.42E-02
1959,2.30E-02,3.38E-02
1960,2.30E-02,3.46E-02
1961,2.31E-02,3.44E-02
1962,2.26E-02,3.51E-02
1963,2.27E-02,3.48E-02
1964,2.21E-02,3.56E-02
1965,2.23E-02,3.54E-02
1966,2.25E-02,3.58E-02
1967,2.22E-02,3.57E-02
1968,2.26E-02,3.58E-02
1969,2.24E-02,3.58E-02
1970,2.25E-02,3.61E-02
1971,2.26E-02,3.59E-02
1972,2.22E-02,3.64E-02
1973,2.24E-02,3.63E-02
1974,2.24E-02,3.66E-02
1975,2.23E-02,3.65E-02
1976,2.21E-02,3.68E-02
1977,2.25E-02,3.67E-02
1978,2.21E-02,3.73E-02
1979,2.20E-02,3.70E-02
1980,2.21E-02,3.76E-02
1981,2.20E-02,3.75E-02
1982,2.25E-02,3.79E-02
1983,2.23E-02,3.78E-02
1984,2.26E-02,3.82E-02
1985,2.25E-02,3.80E-02
1986,2.24E-02,3.86E-02
1987,2.26E-02,3.84E-02
1988,2.19E-02,3.91E-02
1989,2.23E-02,3.88E-02
1990,2.15E-02,3.96E-02
1991,2.18E-02,3.93E-02
1992,2.15E-02,4.05E-02
1993,2.14E-02,4.01E-02
1994,2.18E-02,4.14E-02
1995,2.16E-02,4.10E-02
1996,2.21E-02,4.23E-02
1997,2.17E-02,4.18E-02
1998,2.22E-02,4.38E-02
1999,2.22E-02,4.30E-02
2000,2.26E-02,4.55E-02
2001,2.23E-02,4.47E-02
2002,2.27E-02,4.72E-02
2003,2.26E-02,4.63E-02
2004,2.30E-02,4.91E-02
2005,2.29E-02,4.81E-02
2006,2.32E-02,5.14E-02
2007,2.30E-02,5.03E-02
2008,2.30E-02,5.30E-02
2009,2.32E-02,5.23E-02
2010,2.32E-02,5.43E-02
2011,2.34E-02,5.36E-02
2012,2.35E-02,5.58E-02
2013,2.33E-02,5.50E-02
2014,2.33E-02,5.68E-02
2015,2.35E-02,5.64E-02
2016,2.34E-02,5.76E-02
2017,2.32E-02,5.72E-02
2018,2.30E-02,5.83E-02
2019,2.33E-02,5.80E-02
2020,2.31E-02,5.84E-02
2021,2.29E-02,5.84E-02
2022,2.30E-02,5.81E-02
2023,2.30E-02,5.83E-02
2024,2.37E-02,5.81E-02
2025,2.36E-02,5.81E-02
2026,2.41E-02,5.78E-02
2027,2.43E-02,5.80E-02
2028,2.32E-02,5.70E-02
2029,2.35E-02,5.75E-02
2030,2.35E-02,5.67E-02
2031,2.28E-02,5.66E-02
2032,2.08E-02,5.70E-02
2033,2.09E-02,5.70E-02
2034,1.87E-02,5.71E-02
2035,2.00E-02,5.72E-02
2036,1.58E-02,5.90E-02
2037,1.72E-02,5.71E-02
2038,1.57E-02,6.97E-02
2039,1.47E-02,6.36E-02
2040,2.12E-02,3.88E-02
2041,2.10E-02,3.91E-02
2042,2.17E-02,3.82E-02
2043,2.15E-02,3.85E-02
2044,2.17E-02,3.76E-02
2045,2.17E-02,3.79E-02
2046,2.17E-02,3.71E-02
2047,2.16E-02,3.73E-02
2048,2.15E-02,3.66E-02
2049,2.15E-02,3.68E-02
2050,2.17E-02,3.63E-02
2051,2.14E-02,3.65E-02
2052,2.19E-02,3.61E-02
2053,2.16E-02,3.62E-02
2054,2.24E-02,3.58E-02
2055,2.21E-02,3.59E-02
2056,2.28E-02,3.54E-02
2057,2.26E-02,3.56E-02
2058,2.27E-02,3.51E-02
2059,2.29E-02,3.53E-02
2060,2.24E-02,3.48E-02
2061,2.26E-02,3.50E-02
2062,2.22E-02,3.45E-02
2063,2.23E-02,3.47E-02
2064,2.21E-02,3.40E-02
2065,2.20E-02,3.43E-02
2066,2.20E-02,3.36E-02
2067,2.17E-02,3.38E-02
2068,2.19E-02,3.32E-02
2069,2.18E-02,3.34E-02
2070,2.19E-02,3.29E-02
2071,2.17E-02,3.30E-02
2072,2.20E-02,3.27E-02
2073,2.19E-02,3.28E-02
2074,2.21E-02,3.26E-02
2075,2.20E-02,3.27E-02
2076,2.22E-02,3.25E-02
2077,2.22E-02,3.26E-02
2078,2.24E-02,3.24E-02
2079,2.25E-02,3.25E-02
2080,2.22E-02,3.24E-02
2081,2.23E-02,3.24E-02
2082,2.23E-02,3.23E-02
2083,2.22E-02,3.23E-02
2084,2.21E-02,3.22E-02
2085,2.22E-02,3.23E-02
2086,2.25E-02,3.20E-02
2087,2.24E-02,3.21E-02
2088,2.25E-02,3.16E-02
2089,2.27E-02,3.18E-02
2090,2.25E-02,3.14E-02
2091,2.25E-02,3.15E-02
2092,2.21E-02,3.13E-02
2093,2.22E-02,3.14E-02
2094,2.22E-02,3.09E-02
2095,2.19E-02,3.11E-02
2096,2.19E-02,3.05E-02
2097,2.21E-02,3.07E-02
2098,2.18E-02,3.05E-02
2099,2.20E-02,3.05E-02
2100,2.20E-02,3.04E-02
2101,2.18E-02,3.05E-02
2102,2.23E-02,3.01E-02
2103,2.21E-02,3.03E-02
2104,2.28E-02,2.98E-02
2105,2.25E-02,2.99E-02
2106,2.27E-02,2.98E-02
2107,2.28E-02,2.98E-02
2108,2.28E-02,2.97E-02
2109,2.26E-02,2.98E-02
2110,2.32E-02,2.94E-02
2111,2.28E-02,2.96E-02
2112,2.36E-02,2.91E-02
2113,2.34E-02,2.92E-02
2114,2.39E-02,2.91E-02
2115,2.39E-02,2.90E-02
2116,2.39E-02,2.96E-02
2117,2.40E-02,2.92E-02
2118,2.40E-02,2.91E-02
2119,1.74E-02,2.71E-02
2120,1.74E-02,2.73E-02
2121,1.57E-02,7.62E-02
2122,1.96E-02,0.10528
2123,2.37E-02,0.11407
2124,2.45E-02,0.12681
2125,2.41E-02,2.92E-02
2126,2.06E-02,2.70E-02
2127,1.89E-02,2.69E-02
2128,1.46E-02,2.71E-02
2129,1.35E-02,7.89E-02
2130,2.16E-02,9.64E-02
2131,2.44E-02,0.10423
2132,2.18E-02,8.33E-02
2133,2.16E-02,8.91E-02
2134,2.24E-02,7.64E-02
2135,2.23E-02,7.93E-02
2136,2.16E-02,7.22E-02
2137,2.21E-02,7.42E-02
2138,2.22E-02,6.81E-02
2139,2.17E-02,7.02E-02
2140,2.27E-02,6.41E-02
2141,2.26E-02,6.60E-02
2142,2.29E-02,6.02E-02
2143,2.30E-02,6.21E-02
2144,2.28E-02,5.63E-02
2145,2.29E-02,5.82E-02
2146,2.27E-02,5.29E-02
2147,2.28E-02,5.45E-02
2148,2.26E-02,5.01E-02
2149,2.25E-02,5.14E-02
2150,2.24E-02,4.78E-02
2151,2.25E-02,4.89E-02
2152,2.23E-02,4.60E-02
2153,2.22E-02,4.68E-02
2154,2.22E-02,4.46E-02
2155,2.22E-02,4.52E-02
2156,2.22E-02,4.34E-02
2157,2.23E-02,4.40E-02
2158,2.22E-02,4.24E-02
2159,2.22E-02,4.29E-02
2160,2.21E-02,4.14E-02
2161,2.23E-02,4.19E-02
2162,2.19E-02,4.07E-02
2163,2.19E-02,4.10E-02
2164,2.21E-02,4.04E-02
2165,2.19E-02,4.05E-02
2166,2.18E-02,4.01E-02
2167,2.18E-02,4.02E-02
2168,2.15E-02,3.99E-02
2169,2.17E-02,4.00E-02
2170,2.13E-02,3.95E-02
2171,2.14E-02,3.97E-02
2172,2.11E-02,3.92E-02
2173,2.36E-02,9.69E-02
2174,2.62E-02,0.13602
2175,2.40E-02,2.86E-02
2176,2.39E-02,2.86E-02
2177,2.38E-02,2.93E-02
2178,2.39E-02,2.97E-02
2179,2.37E-02,2.96E-02
2180,2.36E-02,2.97E-02
2181,2.35E-02,2.98E-02
2182,2.31E-02,2.95E-02
2183,2.33E-02,2.96E-02
2184,2.27E-02,2.93E-02
2185,2.28E-02,2.94E-02
2186,2.23E-02,2.90E-02
2187,2.26E-02,2.91E-02
2188,2.23E-02,2.87E-02
2189,2.24E-02,2.89E-02
2190,2.23E-02,2.84E-02
2191,2.24E-02,2.86E-02
2192,2.22E-02,2.81E-02
2193,2.22E-02,2.83E-02
2194,2.20E-02,2.78E-02
2195,2.22E-02,2.80E-02
2196,2.17E-02,2.76E-02
2197,2.19E-02,2.77E-02
2198,2.15E-02,2.73E-02
2199,2.18E-02,2.74E-02
2200,2.15E-02,2.71E-02
2201,1.80E-02,2.68E-02
2202,1.84E-02,2.73E-02
2203,2.10E-02,2.76E-02
2204,1.97E-02,2.75E-02
2205,2.20E-02,2.78E-02
2206,2.20E-02,2.77E-02
2207,2.19E-02,2.80E-02
2208,2.19E-02,2.79E-02
2209,2.23E-02,2.83E-02
2210,2.20E-02,2.82E-02
2211,2.24E-02,2.86E-02
2212,2.22E-02,2.84E-02
2213,2.23E-02,2.91E-02
2214,2.22E-02,2.88E-02
2215,2.24E-02,2.94E-02
2216,2.23E-02,2.93E-02
2217,2.25E-02,2.99E-02
2218,2.26E-02,2.96E-02
2219,2.25E-02,3.02E-02
2220,2.25E-02,3.01E-02
2221,2.24E-02,3.06E-02
2222,2.24E-02,3.03E-02
2223,2.23E-02,3.12E-02
2224,2.23E-02,3.09E-02
2225,2.27E-02,3.15E-02
2226,2.26E-02,3.14E-02
2227,2.28E-02,3.15E-02
2228,2.27E-02,3.15E-02
2229,2.27E-02,3.17E-02
2230,2.28E-02,3.15E-02
2231,2.23E-02,3.19E-02
2232,2.24E-02,3.19E-02
2233,2.24E-02,3.16E-02
2234,2.21E-02,3.18E-02
2235,2.21E-02,3.13E-02
2236,2.23E-02,3.14E-02
2237,2.17E-02,3.12E-02
2238,2.19E-02,3.12E-02
2239,2.15E-02,3.16E-02
2240,2.15E-02,3.13E-02
2241,2.22E-02,3.23E-02
2242,2.17E-02,3.19E-02
2243,2.25E-02,3.28E-02
2244,2.23E-02,3.26E-02
2245,2.26E-02,3.37E-02
2246,2.26E-02,3.32E-02
2247,2.30E-02,3.47E-02
2248,2.30E-02,3.43E-02
2249,2.28E-02,3.50E-02
2250,2.29E-02,3.49E-02
2251,2.25E-02,3.54E-02
2252,2.27E-02,3.51E-02
2253,2.21E-02,3.59E-02
2254,2.23E-02,3.57E-02
2255,2.25E-02,3.58E-02
2256,2.22E-02,3.59E-02
2257,2.25E-02,3.59E-02
2258,2.25E-02,3.59E-02
2259,2.24E-02,3.62E-02
2260,2.25E-02,3.60E-02
2261,2.21E-02,3.65E-02
2262,2.24E-02,3.64E-02
2263,2.24E-02,3.66E-02
2264,2.23E-02,3.66E-02
2265,2.21E-02,3.68E-02
2266,2.25E-02,3.66E-02
2267,2.21E-02,3.72E-02
2268,2.21E-02,3.69E-02
2269,2.21E-02,3.76E-02
2270,2.21E-02,3.75E-02
2271,2.25E-02,3.78E-02
2272,2.24E-02,3.77E-02
2273,2.25E-02,3.84E-02
2274,2.24E-02,3.81E-02
2275,2.25E-02,3.86E-02
2276,2.25E-02,3.85E-02
2277,2.22E-02,3.89E-02
2278,2.24E-02,3.88E-02
2279,2.16E-02,3.90E-02
2280,2.20E-02,3.89E-02
2281,2.18E-02,3.99E-02
2282,2.18E-02,3.94E-02
2283,2.19E-02,4.07E-02
2284,2.19E-02,4.04E-02
2285,2.22E-02,4.18E-02
2286,2.19E-02,4.11E-02
2287,2.22E-02,4.36E-02
2288,2.22E-02,4.27E-02
2289,2.25E-02,4.57E-02
2290,2.24E-02,4.47E-02
2291,2.27E-02,4.75E-02
2292,2.27E-02,4.66E-02
2293,2.27E-02,4.97E-02
2294,2.27E-02,4.86E-02
2295,2.28E-02,5.24E-02
2296,2.28E-02,5.10E-02
2297,2.30E-02,5.46E-02
2298,2.30E-02,5.38E-02
2299,2.30E-02,5.60E-02
2300,2.31E-02,5.51E-02
2301,2.32E-02,5.82E-02
2302,2.30E-02,5.72E-02
2303,2.31E-02,5.89E-02
2304,2.32E-02,5.87E-02
2305,2.29E-02,5.93E-02
2306,2.32E-02,5.91E-02
2307,2.27E-02,5.96E-02
2308,2.27E-02,5.96E-02
2309,2.28E-02,5.90E-02
2310,2.28E-02,5.94E-02
2311,2.31E-02,5.81E-02
2312,2.30E-02,5.86E-02
2313,2.32E-02,5.71E-02
2314,2.31E-02,5.76E-02
2315,2.35E-02,5.59E-02
2316,2.36E-02,5.66E-02
2317,2.31E-02,5.38E-02
2318,2.33E-02,5.50E-02
2319,2.27E-02,5.14E-02
2320,2.29E-02,5.25E-02
2321,2.08E-02,4.94E-02
2322,2.14E-02,5.04E-02
2323,1.94E-02,4.67E-02
2324,2.05E-02,4.81E-02
2325,1.88E-02,4.63E-02
2326,1.86E-02,4.58E-02
2327,1.63E-02,4.86E-02
2328,1.74E-02,4.74E-02
2329,1.28E-02,5.38E-02
2330,1.55E-02,5.07E-02
2331,1.77E-02,6.65E-02
2332,2.14E-02,3.86E-02
2333,2.13E-02,3.90E-02
2334,2.19E-02,3.79E-02
2335,2.16E-02,3.83E-02
2336,2.19E-02,3.72E-02
2337,2.21E-02,3.76E-02
2338,2.19E-02,3.65E-02
2339,2.19E-02,3.69E-02
2340,2.19E-02,3.60E-02
2341,2.18E-02,3.62E-02
2342,2.17E-02,3.57E-02
2343,2.15E-02,3.58E-02
2344,2.19E-02,3.57E-02
2345,2.16E-02,3.57E-02
2346,2.25E-02,3.57E-02
2347,2.23E-02,3.57E-02
2348,2.27E-02,3.56E-02
2349,2.26E-02,3.56E-02
2350,2.27E-02,3.53E-02
2351,2.28E-02,3.55E-02
2352,2.23E-02,3.50E-02
2353,2.26E-02,3.52E-02
2354,2.20E-02,3.44E-02
2355,2.22E-02,3.47E-02
2356,2.20E-02,3.38E-02
2357,2.18E-02,3.41E-02
2358,2.20E-02,3.32E-02
2359,2.19E-02,3.35E-02
2360,2.20E-02,3.28E-02
2361,2.18E-02,3.30E-02
2362,2.20E-02,3.26E-02
2363,2.19E-02,3.27E-02
2364,2.19E-02,3.24E-02
2365,2.20E-02,3.25E-02
2366,2.21E-02,3.24E-02
2367,2.22E-02,3.24E-02
2368,2.22E-02,3.24E-02
2369,2.23E-02,3.24E-02
2370,2.24E-02,3.24E-02
2371,2.25E-02,3.24E-02
2372,2.22E-02,3.24E-02
2373,2.25E-02,3.24E-02
2374,2.22E-02,3.23E-02
2375,2.22E-02,3.23E-02
2376,2.21E-02,3.23E-02
2377,2.23E-02,3.23E-02
2378,2.26E-02,3.21E-02
2379,2.23E-02,3.22E-02
2380,2.26E-02,3.18E-02
2381,2.25E-02,3.20E-02
2382,2.24E-02,3.15E-02
2383,2.26E-02,3.16E-02
2384,2.21E-02,3.13E-02
2385,2.22E-02,3.14E-02
2386,2.22E-02,3.08E-02
2387,2.18E-02,3.11E-02
2388,2.21E-02,3.03E-02
2389,2.21E-02,3.05E-02
2390,2.18E-02,3.02E-02
2391,2.19E-02,3.02E-02
2392,2.21E-02,3.02E-02
2393,2.19E-02,3.02E-02
2394,2.24E-02,3.01E-02
2395,2.20E-02,3.01E-02
2396,2.28E-02,2.99E-02
2397,2.26E-02,3.00E-02
2398,2.25E-02,2.99E-02
2399,2.27E-02,2.99E-02
2400,2.25E-02,2.98E-02
2401,2.25E-02,2.99E-02
2402,2.28E-02,2.94E-02
2403,2.25E-02,2.97E-02
2404,2.33E-02,2.89E-02
2405,2.30E-02,2.91E-02
2406,2.37E-02,2.87E-02
2407,2.35E-02,2.88E-02
2408,2.38E-02,2.86E-02
2409,2.21E-02,0.14284
2410,2.40E-02,2.87E-02
2411,1.83E-02,2.70E-02
2412,2.40E-02,0.17105
2413,2.25E-02,0.12854
2414,2.38E-02,0.14546
2415,2.24E-02,0.10248
2416,2.26E-02,0.11452
2417,2.20E-02,8.64E-02
2418,2.22E-02,9.32E-02
2419,2.23E-02,7.90E-02
2420,2.23E-02,8.18E-02
2421,2.22E-02,7.42E-02
2422,2.23E-02,7.66E-02
2423,2.22E-02,6.90E-02
2424,2.20E-02,7.16E-02
2425,2.26E-02,6.42E-02
2426,2.24E-02,6.65E-02
2427,2.29E-02,5.97E-02
2428,2.28E-02,6.19E-02
2429,2.26E-02,5.53E-02
2430,2.28E-02,5.75E-02
2431,2.25E-02,5.18E-02
2432,2.26E-02,5.34E-02
2433,2.23E-02,4.89E-02
2434,2.23E-02,5.02E-02
2435,2.21E-02,4.66E-02
2436,2.23E-02,4.77E-02
2437,2.22E-02,4.48E-02
2438,2.21E-02,4.56E-02
2439,2.22E-02,4.33E-02
2440,2.22E-02,4.40E-02
2441,2.22E-02,4.22E-02
2442,2.23E-02,4.28E-02
2443,2.22E-02,4.12E-02
2444,2.23E-02,4.17E-02
2445,2.22E-02,4.04E-02
2446,2.23E-02,4.08E-02
2447,2.21E-02,4.00E-02
2448,2.21E-02,4.02E-02
2449,2.18E-02,4.00E-02
2450,2.18E-02,4.00E-02
2451,2.19E-02,4.00E-02
2452,2.19E-02,4.00E-02
2453,2.16E-02,3.99E-02
2454,2.18E-02,4.00E-02
2455,2.17E-02,3.95E-02
2456,2.17E-02,3.97E-02
2457,2.35E-02,2.94E-02
2458,2.36E-02,2.97E-02
2459,2.36E-02,2.96E-02
2460,2.32E-02,2.97E-02
2461,2.33E-02,2.97E-02
2462,2.29E-02,2.95E-02
2463,2.29E-02,2.96E-02
2464,2.24E-02,2.92E-02
2465,2.27E-02,2.93E-02
2466,2.24E-02,2.89E-02
2467,2.24E-02,2.90E-02
2468,2.24E-02,2.86E-02
2469,2.24E-02,2.87E-02
2470,2.24E-02,2.83E-02
2471,2.24E-02,2.84E-02
2472,2.23E-02,2.80E-02
2473,2.24E-02,2.82E-02
2474,2.21E-02,2.77E-02
2475,2.23E-02,2.79E-02
2476,2.20E-02,2.74E-02
2477,2.21E-02,2.76E-02
2478,2.16E-02,2.71E-02
2479,2.19E-02,2.73E-02
2480,2.06E-02,2.68E-02
2481,2.11E-02,2.69E-02
2482,1.97E-02,2.67E-02
2483,2.14E-02,3.92E-02
2484,2.40E-02,0.20328
2485,2.36E-02,2.88E-02
2486,1.95E-02,2.79E-02
2487,1.92E-02,2.77E-02
2488,1.90E-02,2.67E-02
2489,1.90E-02,2.66E-02
2490,2.12E-02,2.77E-02
2491,2.04E-02,2.79E-02
2492,2.21E-02,2.75E-02
2493,2.18E-02,2.76E-02
2494,2.20E-02,2.77E-02
2495,2.21E-02,2.75E-02
2496,2.25E-02,2.81E-02
2497,2.23E-02,2.78E-02
2498,2.26E-02,2.85E-02
2499,2.24E-02,2.83E-02
2500,2.23E-02,2.90E-02
2501,2.23E-02,2.87E-02
2502,2.25E-02,2.94E-02
2503,2.22E-02,2.93E-02
2504,2.25E-02,3.01E-02
2505,2.26E-02,2.96E-02
2506,2.24E-02,3.04E-02
2507,2.24E-02,3.04E-02
2508,2.22E-02,3.06E-02
2509,2.23E-02,3.05E-02
2510,2.24E-02,3.09E-02
2511,2.22E-02,3.08E-02
2512,2.27E-02,3.16E-02
2513,2.25E-02,3.12E-02
2514,2.26E-02,3.23E-02
2515,2.26E-02,3.20E-02
2516,2.25E-02,3.23E-02
2517,2.25E-02,3.24E-02
2518,2.23E-02,3.19E-02
2519,2.23E-02,3.22E-02
2520,2.24E-02,3.14E-02
2521,2.23E-02,3.16E-02
2522,2.23E-02,3.11E-02
2523,2.25E-02,3.13E-02
2524,2.18E-02,3.06E-02
2525,2.20E-02,3.09E-02
2526,2.18E-02,3.03E-02
2527,2.17E-02,3.04E-02
2528,2.24E-02,3.11E-02
2529,2.20E-02,3.05E-02
2530,2.25E-02,3.27E-02
2531,2.25E-02,3.19E-02
2532,2.26E-02,3.42E-02
2533,2.24E-02,3.35E-02
2534,2.27E-02,3.54E-02
2535,2.26E-02,3.49E-02
2536,2.25E-02,3.59E-02
2537,2.28E-02,3.57E-02
2538,2.23E-02,3.59E-02
2539,2.25E-02,3.59E-02
2540,2.22E-02,3.57E-02
2541,2.22E-02,3.58E-02
2542,2.25E-02,3.58E-02
2543,2.23E-02,3.57E-02
2544,2.27E-02,3.62E-02
2545,2.27E-02,3.60E-02
2546,2.24E-02,3.64E-02
2547,2.26E-02,3.63E-02
2548,2.22E-02,3.66E-02
2549,2.22E-02,3.65E-02
2550,2.24E-02,3.66E-02
2551,2.24E-02,3.66E-02
2552,2.22E-02,3.68E-02
2553,2.24E-02,3.67E-02
2554,2.21E-02,3.68E-02
2555,2.21E-02,3.68E-02
2556,2.23E-02,3.75E-02
2557,2.22E-02,3.70E-02
2558,2.24E-02,3.77E-02
2559,2.25E-02,3.76E-02
2560,2.25E-02,3.88E-02
2561,2.25E-02,3.85E-02
2562,2.25E-02,3.88E-02
2563,2.25E-02,3.87E-02
2564,2.22E-02,3.89E-02
2565,2.22E-02,3.89E-02
2566,2.18E-02,3.83E-02
2567,2.21E-02,3.87E-02
2568,2.19E-02,3.86E-02
2569,2.19E-02,3.83E-02
2570,2.21E-02,3.94E-02
2571,2.20E-02,3.90E-02
2572,2.22E-02,4.13E-02
2573,2.21E-02,4.02E-02
2574,2.23E-02,4.33E-02
2575,2.23E-02,4.24E-02
2576,2.26E-02,4.58E-02
2577,2.24E-02,4.44E-02
2578,2.25E-02,4.80E-02
2579,2.26E-02,4.70E-02
2580,2.24E-02,5.07E-02
2581,2.25E-02,4.94E-02
2582,2.28E-02,5.29E-02
2583,2.27E-02,5.15E-02
2584,2.30E-02,5.62E-02
2585,2.29E-02,5.48E-02
2586,2.27E-02,5.86E-02
2587,2.26E-02,5.72E-02
2588,2.30E-02,6.09E-02
2589,2.29E-02,6.01E-02
2590,2.29E-02,6.16E-02
2591,2.28E-02,6.13E-02
2592,2.27E-02,6.16E-02
2593,2.29E-02,6.16E-02
2594,2.25E-02,6.09E-02
2595,2.26E-02,6.14E-02
2596,2.26E-02,5.98E-02
2597,2.26E-02,6.04E-02
2598,2.29E-02,5.85E-02
2599,2.27E-02,5.92E-02
2600,2.30E-02,5.65E-02
2601,2.30E-02,5.76E-02
2602,2.33E-02,5.40E-02
2603,2.33E-02,5.53E-02
2604,2.29E-02,5.10E-02
2605,2.32E-02,5.26E-02
2606,2.21E-02,4.65E-02
2607,2.25E-02,4.90E-02
2608,2.16E-02,4.11E-02
2609,2.18E-02,4.40E-02
2610,2.07E-02,3.53E-02
2611,2.13E-02,3.79E-02
2612,1.99E-02,3.19E-02
2613,2.03E-02,3.34E-02
2614,1.81E-02,3.10E-02
2615,1.92E-02,3.10E-02
2616,1.76E-02,3.45E-02
2617,1.73E-02,3.13E-02
2618,2.09E-02,4.40E-02
2619,1.89E-02,0.10948
2620,2.18E-02,3.85E-02
2621,2.20E-02,3.89E-02
2622,2.20E-02,3.77E-02
2623,2.18E-02,3.81E-02
2624,2.19E-02,3.68E-02
2625,2.22E-02,3.72E-02
2626,2.19E-02,3.59E-02
2627,2.19E-02,3.63E-02
2628,2.20E-02,3.52E-02
2629,2.18E-02,3.55E-02
2630,2.18E-02,3.49E-02
2631,2.18E-02,3.50E-02
2632,2.21E-02,3.50E-02
2633,2.19E-02,3.49E-02
2634,2.24E-02,3.55E-02
2635,2.23E-02,3.53E-02
2636,2.27E-02,3.60E-02
2637,2.25E-02,3.58E-02
2638,2.25E-02,3.59E-02
2639,2.26E-02,3.60E-02
2640,2.22E-02,3.53E-02
2641,2.24E-02,3.57E-02
2642,2.20E-02,3.43E-02
2643,2.21E-02,3.48E-02
2644,2.20E-02,3.34E-02
2645,2.19E-02,3.38E-02
2646,2.20E-02,3.27E-02
2647,2.21E-02,3.30E-02
2648,2.20E-02,3.23E-02
2649,2.20E-02,3.25E-02
2650,2.21E-02,3.21E-02
2651,2.21E-02,3.22E-02
2652,2.20E-02,3.21E-02
2653,2.21E-02,3.21E-02
2654,2.21E-02,3.22E-02
2655,2.22E-02,3.21E-02
2656,2.23E-02,3.24E-02
2657,2.23E-02,3.23E-02
2658,2.23E-02,3.25E-02
2659,2.24E-02,3.25E-02
2660,2.22E-02,3.25E-02
2661,2.24E-02,3.25E-02
2662,2.21E-02,3.23E-02
2663,2.23E-02,3.24E-02
2664,2.22E-02,3.22E-02
2665,2.22E-02,3.22E-02
2666,2.25E-02,3.22E-02
2667,2.23E-02,3.22E-02
2668,2.25E-02,3.22E-02
2669,2.24E-02,3.23E-02
2670,2.23E-02,3.18E-02
2671,2.24E-02,3.21E-02
2672,2.21E-02,3.12E-02
2673,2.22E-02,3.15E-02
2674,2.21E-02,3.07E-02
2675,2.19E-02,3.09E-02
2676,2.22E-02,3.01E-02
2677,2.22E-02,3.04E-02
2678,2.19E-02,2.98E-02
2679,2.19E-02,3.00E-02
2680,2.23E-02,2.96E-02
2681,2.20E-02,2.96E-02
2682,2.25E-02,3.00E-02
2683,2.22E-02,2.98E-02
2684,2.27E-02,3.03E-02
2685,2.25E-02,3.02E-02
2686,2.23E-02,3.03E-02
2687,2.25E-02,3.03E-02
2688,2.24E-02,2.99E-02
2689,2.22E-02,3.01E-02
2690,2.25E-02,2.94E-02
2691,2.24E-02,2.97E-02
2692,2.29E-02,2.89E-02
2693,2.26E-02,2.92E-02
2694,2.34E-02,2.82E-02
2695,2.31E-02,2.86E-02
2696,2.38E-02,2.77E-02
2697,2.36E-02,2.79E-02
2698,2.40E-02,2.76E-02
2699,2.40E-02,2.76E-02
2700,2.43E-02,0.24399
2701,2.34E-02,2.79E-02
2702,1.92E-02,2.73E-02
2703,2.31E-02,0.30461
2704,2.36E-02,0.23552
2705,2.36E-02,0.18382
2706,2.33E-02,0.15588
2707,2.30E-02,0.13499
2708,2.26E-02,0.11881
2709,2.26E-02,0.10573
2710,2.24E-02,9.56E-02
2711,2.21E-02,8.88E-02
2712,2.21E-02,8.45E-02
2713,2.21E-02,8.13E-02
2714,2.21E-02,7.93E-02
2715,2.21E-02,7.62E-02
2716,2.21E-02,7.26E-02
2717,2.21E-02,6.93E-02
2718,2.23E-02,6.63E-02
2719,2.24E-02,6.38E-02
2720,2.26E-02,6.14E-02
2721,2.25E-02,5.88E-02
2722,2.24E-02,5.63E-02
2723,2.24E-02,5.41E-02
2724,2.23E-02,5.21E-02
2725,2.21E-02,5.04E-02
2726,2.21E-02,4.91E-02
2727,2.21E-02,4.77E-02
2728,2.21E-02,4.65E-02
2729,2.21E-02,4.54E-02
2730,2.21E-02,4.43E-02
2731,2.21E-02,4.34E-02
2732,2.21E-02,4.26E-02
2733,2.21E-02,4.20E-02
2734,2.21E-02,4.14E-02
2735,2.21E-02,4.08E-02
2736,2.21E-02,4.03E-02
2737,2.21E-02,3.98E-02
2738,2.22E-02,3.94E-02
2739,2.22E-02,3.93E-02
2740,2.22E-02,3.92E-02
2741,2.22E-02,3.93E-02
2742,2.22E-02,3.95E-02
2743,2.22E-02,3.97E-02
2744,2.23E-02,3.99E-02
2745,2.21E-02,4.01E-02
2746,2.20E-02,4.01E-02
2747,2.17E-02,4.00E-02
2748,2.11E-02,3.99E-02
2749,2.33E-02,3.97E-02
2750,2.34E-02,2.83E-02
2751,2.35E-02,2.91E-02
2752,2.34E-02,2.95E-02
2753,2.34E-02,2.97E-02
2754,2.32E-02,2.97E-02
2755,2.29E-02,2.97E-02
2756,2.29E-02,2.96E-02
2757,2.27E-02,2.95E-02
2758,2.26E-02,2.94E-02
2759,2.24E-02,2.92E-02
2760,2.24E-02,2.91E-02
2761,2.24E-02,2.89E-02
2762,2.23E-02,2.88E-02
2763,2.23E-02,2.86E-02
2764,2.23E-02,2.85E-02
2765,2.23E-02,2.83E-02
2766,2.23E-02,2.82E-02
2767,2.23E-02,2.80E-02
2768,2.23E-02,2.79E-02
2769,2.23E-02,2.77E-02
2770,2.22E-02,2.76E-02
2771,2.23E-02,2.74E-02
2772,2.22E-02,2.73E-02
2773,2.20E-02,2.71E-02
2774,2.17E-02,2.70E-02
2775,2.13E-02,2.68E-02
2776,2.08E-02,2.67E-02
2777,2.01E-02,2.66E-02
2778,1.96E-02,2.65E-02
2779,1.94E-02,2.66E-02
2780,1.95E-02,2.68E-02
2781,2.00E-02,2.71E-02
2782,1.93E-02,2.89E-02
2783,1.93E-02,2.95E-02
2784,1.98E-02,2.90E-02
2785,2.05E-02,2.83E-02
2786,2.13E-02,2.77E-02
2787,2.19E-02,2.73E-02
2788,2.22E-02,2.70E-02
2789,2.24E-02,2.69E-02
2790,2.24E-02,2.69E-02
2791,2.26E-02,2.72E-02
2792,2.27E-02,2.78E-02
2793,2.26E-02,2.85E-02
2794,2.24E-02,2.89E-02
2795,2.23E-02,2.89E-02
2796,2.25E-02,2.83E-02
2797,2.27E-02,2.84E-02
2798,2.23E-02,2.98E-02
2799,2.21E-02,3.03E-02
2800,2.26E-02,2.95E-02
2801,2.27E-02,2.99E-02
2802,2.23E-02,3.14E-02
2803,2.20E-02,3.18E-02
2804,2.22E-02,3.09E-02
2805,2.25E-02,2.98E-02
2806,2.28E-02,2.95E-02
2807,2.27E-02,3.02E-02
2808,2.27E-02,3.16E-02
2809,2.24E-02,3.31E-02
2810,2.22E-02,3.43E-02
2811,2.21E-02,3.46E-02
2812,2.21E-02,3.37E-02
2813,2.23E-02,3.21E-02
2814,2.24E-02,3.10E-02
2815,2.25E-02,3.10E-02
2816,2.24E-02,3.14E-02
2817,2.23E-02,3.16E-02
2818,2.21E-02,3.13E-02
2819,2.20E-02,3.08E-02
2820,2.19E-02,3.00E-02
2821,2.18E-02,2.91E-02
2822,2.21E-02,2.83E-02
2823,2.26E-02,2.78E-02
2824,2.29E-02,2.86E-02
2825,2.26E-02,3.05E-02
2826,2.23E-02,3.30E-02
2827,2.21E-02,3.50E-02
2828,2.23E-02,3.57E-02
2829,2.25E-02,3.56E-02
2830,2.26E-02,3.57E-02
2831,2.27E-02,3.66E-02
2832,2.23E-02,3.78E-02
2833,2.21E-02,3.79E-02
2834,2.21E-02,3.68E-02
2835,2.22E-02,3.53E-02
2836,2.24E-02,3.45E-02
2837,2.25E-02,3.48E-02
2838,2.24E-02,3.57E-02
2839,2.25E-02,3.64E-02
2840,2.25E-02,3.68E-02
2841,2.24E-02,3.71E-02
2842,2.23E-02,3.70E-02
2843,2.22E-02,3.64E-02
2844,2.24E-02,3.60E-02
2845,2.25E-02,3.63E-02
2846,2.24E-02,3.70E-02
2847,2.23E-02,3.71E-02
2848,2.23E-02,3.68E-02
2849,2.23E-02,3.67E-02
2850,2.22E-02,3.66E-02
2851,2.24E-02,3.59E-02
2852,2.28E-02,3.56E-02
2853,2.23E-02,3.78E-02
2854,2.19E-02,3.94E-02
2855,2.26E-02,3.83E-02
2856,2.26E-02,3.84E-02
2857,2.23E-02,3.98E-02
2858,2.22E-02,3.98E-02
2859,2.22E-02,3.89E-02
2860,2.23E-02,3.84E-02
2861,2.23E-02,3.85E-02
2862,2.18E-02,3.87E-02
2863,2.19E-02,3.74E-02
2864,2.26E-02,3.52E-02
2865,2.27E-02,3.53E-02
2866,2.23E-02,3.79E-02
2867,2.22E-02,4.01E-02
2868,2.22E-02,4.10E-02
2869,2.25E-02,4.19E-02
2870,2.24E-02,4.32E-02
2871,2.24E-02,4.42E-02
2872,2.28E-02,4.49E-02
2873,2.27E-02,4.69E-02
2874,2.22E-02,5.00E-02
2875,2.23E-02,5.08E-02
2876,2.25E-02,5.12E-02
2877,2.23E-02,5.31E-02
2878,2.27E-02,5.31E-02
2879,2.33E-02,5.27E-02
2880,2.29E-02,5.66E-02
2881,2.21E-02,6.24E-02
2882,2.22E-02,6.43E-02
2883,2.27E-02,6.32E-02
2884,2.27E-02,6.29E-02
2885,2.29E-02,6.40E-02
2886,2.28E-02,6.54E-02
2887,2.26E-02,6.59E-02
2888,2.25E-02,6.50E-02
2889,2.25E-02,6.30E-02
2890,2.26E-02,6.15E-02
2891,2.27E-02,6.08E-02
2892,2.27E-02,6.06E-02
2893,2.27E-02,6.04E-02
2894,2.27E-02,5.97E-02
2895,2.28E-02,5.84E-02
2896,2.28E-02,5.65E-02
2897,2.29E-02,5.42E-02
2898,2.30E-02,5.19E-02
2899,2.29E-02,4.99E-02
2900,2.29E-02,4.84E-02
2901,2.25E-02,4.74E-02
2902,2.17E-02,4.52E-02
2903,2.17E-02,3.87E-02
2904,2.23E-02,3.13E-02
2905,2.21E-02,2.68E-02
2906,2.17E-02,2.40E-02
2907,2.16E-02,2.13E-02
2908,2.14E-02,1.87E-02
2909,2.22E-02,1.62E-02
2910,2.27E-02,1.44E-02
2911,2.09E-02,1.47E-02
2912,2.02E-02,1.59E-02
2913,2.20E-02,1.60E-02
2914,2.37E-02,1.34E-02
2915,2.32E-02,9.51E-03
2916,2.11E-02,1.66E-02
2917,2.20E-02,2.91E-02
2918,2.58E-02,0.11388
2919,2.42E-02,0.47399
2920,2.34E-02,3.94E-02
2921,2.22E-02,3.90E-02
2922,2.20E-02,3.85E-02
2923,2.20E-02,3.80E-02
2924,2.21E-02,3.75E-02
2925,2.21E-02,3.70E-02
2926,2.21E-02,3.64E-02
2927,2.20E-02,3.58E-02
2928,2.20E-02,3.52E-02
2929,2.20E-02,3.47E-02
2930,2.20E-02,3.42E-02
2931,2.20E-02,3.38E-02
2932,2.21E-02,3.36E-02
2933,2.22E-02,3.36E-02
2934,2.23E-02,3.40E-02
2935,2.24E-02,3.46E-02
2936,2.25E-02,3.54E-02
2937,2.25E-02,3.62E-02
2938,2.24E-02,3.69E-02
2939,2.23E-02,3.73E-02
2940,2.22E-02,3.72E-02
2941,2.21E-02,3.66E-02
2942,2.20E-02,3.59E-02
2943,2.20E-02,3.50E-02
2944,2.20E-02,3.41E-02
2945,2.20E-02,3.33E-02
2946,2.21E-02,3.28E-02
2947,2.21E-02,3.24E-02
2948,2.21E-02,3.20E-02
2949,2.21E-02,3.18E-02
2950,2.21E-02,3.16E-02
2951,2.21E-02,3.15E-02
2952,2.22E-02,3.15E-02
2953,2.22E-02,3.15E-02
2954,2.22E-02,3.16E-02
2955,2.22E-02,3.17E-02
2956,2.23E-02,3.19E-02
2957,2.23E-02,3.21E-02
2958,2.23E-02,3.24E-02
2959,2.23E-02,3.26E-02
2960,2.23E-02,3.28E-02
2961,2.22E-02,3.28E-02
2962,2.22E-02,3.28E-02
2963,2.21E-02,3.26E-02
2964,2.21E-02,3.23E-02
2965,2.22E-02,3.21E-02
2966,2.22E-02,3.19E-02
2967,2.23E-02,3.19E-02
2968,2.24E-02,3.22E-02
2969,2.24E-02,3.27E-02
2970,2.23E-02,3.31E-02
2971,2.22E-02,3.32E-02
2972,2.20E-02,3.26E-02
2973,2.20E-02,3.16E-02
2974,2.20E-02,3.06E-02
2975,2.22E-02,3.00E-02
2976,2.24E-02,3.01E-02
2977,2.23E-02,3.07E-02
2978,2.20E-02,3.08E-02
2979,2.18E-02,3.00E-02
2980,2.19E-02,2.88E-02
2981,2.23E-02,2.82E-02
2982,2.25E-02,2.83E-02
2983,2.24E-02,2.90E-02
2984,2.24E-02,3.00E-02
2985,2.23E-02,3.09E-02
2986,2.24E-02,3.14E-02
2987,2.22E-02,3.14E-02
2988,2.21E-02,3.09E-02
2989,2.21E-02,3.02E-02
2990,2.24E-02,2.96E-02
2991,2.25E-02,2.93E-02
2992,2.24E-02,2.95E-02
2993,2.24E-02,2.97E-02
2994,2.25E-02,2.95E-02
2995,2.26E-02,2.88E-02
2996,2.29E-02,2.78E-02
2997,2.34E-02,2.68E-02
2998,2.37E-02,2.61E-02
2999,2.41E-02,2.58E-02
3000,2.40E-02,2.60E-02
3001,2.36E-02,2.65E-02
3002,2.30E-02,2.72E-02
3022,2.13E-02,6.94E-03
3023,3.07E-02,6.54E-03
3024,1.23E-02,1.11E-02
3025,1.85E-02,1.12E-02
3026,1.44E-02,1.10E-02
3027,7.75E-03,1.11E-02
3028,9.43E-03,1.11E-02
3029,2.28E-02,1.72E-02
3030,3.04E-02,1.71E-02
3031,2.67E-02,1.62E-02
3032,1.75E-02,1.64E-02
3033,1.81E-02,1.71E-02
3034,2.39E-02,1.89E-02
3035,2.53E-02,2.02E-02
3036,2.38E-02,1.90E-02
3037,2.35E-02,2.09E-02
3038,2.90E-02,6.69E-04
3039,3.09E-02,1.08E-03
3040,3.20E-02,1.16E-03
3041,3.15E-02,6.09E-04
3042,1.46E-02,2.51E-02
3043,1.74E-02,2.56E-02
3044,1.78E-02,2.53E-02
3045,1.50E-02,2.49E-02
3046,1.34E-02,2.47E-02
3047,1.91E-02,3.05E-02
3048,2.47E-02,3.06E-02
3049,1.80E-02,3.06E-02
3050,1.32E-02,3.94E-02
3051,1.71E-02,3.82E-02
3052,1.79E-02,3.80E-02
3053,1.47E-02,3.92E-02
3054,1.28E-02,4.03E-02
3055,1.57E-02,3.42E-02
3056,1.03E-02,3.32E-02
3057,2.52E-02,1.38E-02
3058,2.72E-02,1.45E-02
3059,2.99E-02,1.07E-02
3060,1.96E-02,1.08E-02
3061,2.86E-02,3.60E-02
3062,2.06E-02,3.68E-02
3063,1.77E-02,3.65E-03
3064,2.21E-02,3.88E-03
3065,2.41E-02,9.93E-03
3066,1.98E-02,9.40E-03
3067,1.82E-02,4.55E-02
3068,2.55E-02,4.61E-02
3069,2.47E-02,4.75E-02
3070,2.02E-02,4.25E-02
3071,2.80E-02,4.28E-02
3072,2.58E-02,4.38E-02
3073,1.44E-02,2.16E-02
3074,1.89E-02,2.27E-02
3075,1.70E-02,2.33E-02
3076,1.27E-02,2.21E-02
3077,1.16E-02,2.11E-02
3078,2.17E-02,3.55E-02
3079,2.36E-02,3.68E-02
3080,1.95E-02,3.82E-02
3081,1.48E-02,4.47E-04
3082,1.43E-02,5.84E-04
3083,1.91E-02,6.07E-04
3084,1.83E-02,4.42E-04
3085,1.33E-02,5.52E-04
3086,2.84E-02,4.93E-04
3087,3.03E-02,6.05E-04
3088,2.46E-02,5.92E-04
3089,2.80E-02,5.45E-03
3090,2.40E-02,4.93E-03
3091,1.84E-02,6.72E-03
3092,2.61E-02,6.08E-03
3093,1.83E-02,2.18E-03
3094,2.68E-02,2.91E-03
3095,2.19E-02,2.53E-03
3096,1.50E-02,1.92E-03
3097,1.52E-02,1.45E-03
3098,2.24E-02,5.46E-03
3099,3.26E-02,5.44E-03
3100,2.46E-02,4.79E-03
3101,1.69E-02,4.97E-03
3102,1.76E-02,5.28E-03
3103,3.08E-02,1.73E-02
3104,3.26E-02,1.65E-02
3105,2.94E-02,1.61E-02
3106,2.47E-02,1.83E-02
3107,3.02E-02,1.75E-02
3108,3.09E-02,1.69E-02
3109,2.60E-02,4.90E-02
3110,2.37E-02,4.90E-02
3111,1.15E-02,1.11E-02
3112,1.12E-02,1.12E-02
3113,1.60E-02,1.14E-02
3114,1.28E-02,1.12E-02
3115,3.43E-02,1.29E-02
3116,2.84E-02,1.23E-02
3117,2.01E-02,3.38E-02
3118,2.76E-02,3.33E-02
3119,2.04E-02,3.42E-02
3120,1.43E-02,3.46E-02
3121,1.50E-02,3.47E-02
3122,1.48E-02,2.61E-02
3123,1.87E-02,2.58E-02
3124,2.77E-02,1.54E-02
3125,3.00E-02,1.47E-02
3126,1.53E-02,3.06E-02
3127,2.96E-02,2.34E-02
3128,1.98E-02,2.44E-02
3129,1.68E-02,2.52E-02
3130,2.12E-02,3.65E-02
3131,2.22E-02,3.64E-02
3132,2.23E-02,1.29E-02
3133,2.30E-02,1.24E-02
3134,3.01E-02,1.30E-02
3135,1.29E-02,4.20E-02
3136,1.25E-02,4.14E-02
3137,1.24E-02,4.07E-02
3138,1.38E-02,4.75E-02
3139,1.60E-02,4.87E-02
3140,1.57E-02,4.77E-02
3141,1.51E-02,4.05E-03
3142,1.43E-02,4.40E-03
3143,1.44E-02,3.81E-03
3144,1.78E-02,1.11E-02
3145,2.10E-02,1.14E-02
3146,2.51E-02,1.12E-02
3147,1.97E-02,2.25E-02
3148,1.87E-02,2.31E-02
3149,1.85E-02,2.28E-02
3150,2.29E-02,2.20E-02
3151,2.01E-02,4.15E-02
3152,1.87E-02,4.30E-02
3153,1.89E-02,4.21E-02
3154,1.72E-02,4.07E-02
3155,1.81E-02,2.86E-02
3156,1.55E-02,2.88E-02
3157,1.91E-02,2.76E-02
3158,2.30E-02,2.72E-02
3159,2.07E-02,2.40E-02
3160,1.94E-02,2.45E-02
3161,1.34E-02,1.65E-02
3162,1.45E-02,1.57E-02
3163,1.34E-02,1.66E-02
3164,2.92E-02,5.03E-02
3165,2.69E-02,5.06E-02
3166,2.41E-02,4.85E-02
3167,2.44E-02,4.88E-02
3168,3.30E-02,7.46E-03
3169,2.46E-02,7.01E-03
3170,2.66E-02,6.66E-03
3171,2.42E-02,6.24E-03
3172,2.45E-02,4.89E-02
3173,2.63E-02,5.10E-02
3174,2.63E-02,5.12E-02
3175,2.30E-02,2.40E-02
3176,3.25E-02,2.27E-02
3177,2.94E-02,1.90E-02
3178,2.25E-02,1.77E-02
3179,2.62E-02,2.43E-02
3180,2.42E-02,2.38E-02
3181,2.45E-02,2.67E-02
3182,2.31E-02,2.65E-02
3183,2.50E-02,4.77E-02
3184,2.07E-02,4.72E-02
3185,3.01E-02,5.01E-02
3186,2.25E-02,2.89E-02
3187,3.05E-02,2.80E-02
3188,2.90E-02,2.48E-02
3189,2.29E-02,1.54E-02
3190,1.83E-02,1.50E-02
3191,1.86E-02,1.76E-02
3192,2.18E-02,1.92E-02
3193,2.25E-02,1.91E-02
3194,1.65E-02,2.97E-02
3195,1.45E-02,2.99E-02
3196,2.75E-02,2.51E-02
3197,2.91E-02,2.44E-02
3198,2.52E-02,2.54E-02
3199,2.69E-02,2.60E-02
3200,2.66E-02,2.59E-02
3201,2.10E-02,6.56E-03
3202,2.14E-02,7.13E-03
3203,2.13E-02,8.24E-03
3204,2.13E-02,7.59E-03
3205,1.49E-02,9.28E-03
3206,2.33E-02,9.54E-03
3207,1.92E-02,5.49E-03
3208,2.15E-02,4.95E-03
3209,2.18E-02,3.97E-03
3210,1.98E-02,4.45E-03
3211,2.11E-02,4.39E-02
3212,1.66E-02,4.42E-02
3213,1.25E-02,4.49E-02
3214,1.92E-02,4.48E-02
3215,2.02E-02,4.77E-02
3216,1.54E-02,4.81E-02
3217,1.23E-02,4.91E-02
3218,1.89E-02,4.91E-02
3219,1.95E-02,4.71E-04
3220,1.16E-02,5.98E-04
3221,1.53E-02,4.74E-04
3222,8.31E-03,3.21E-03
3223,1.32E-02,2.68E-03
3224,1.28E-02,3.00E-03
3225,2.21E-02,3.65E-02
3226,1.92E-02,1.20E-02
3227,2.00E-02,3.70E-02
3228,2.10E-02,3.65E-02
3229,1.72E-02,4.26E-02
3230,1.87E-02,4.03E-02
3231,1.77E-02,4.33E-02
3232,1.95E-02,3.92E-02
3233,2.20E-02,3.88E-02
3234,2.11E-02,2.59E-02
3235,2.14E-02,3.76E-02
3236,1.69E-02,4.44E-02
3237,1.97E-02,4.35E-02
3238,1.97E-02,4.32E-02
3239,1.54E-02,4.51E-02
3240,1.45E-02,4.38E-02
3241,1.76E-02,4.26E-02
3242,2.00E-02,4.53E-02
3243,1.54E-02,4.62E-02
3244,1.90E-02,4.50E-02
3245,1.73E-02,4.36E-02
3246,2.40E-02,3.70E-02
3247,2.25E-02,3.60E-02
3248,2.13E-02,3.56E-02
3249,2.18E-02,3.51E-02
3250,1.78E-02,2.99E-02
3251,1.62E-02,4.19E-02
3252,1.68E-02,4.16E-02
3253,1.36E-02,4.56E-02
3254,2.07E-02,2.00E-02
3255,1.35E-02,4.68E-02
3256,2.22E-02,3.43E-02
3257,2.40E-02,3.29E-02
3258,2.60E-02,3.15E-02
3259,2.22E-02,3.01E-02
3260,2.38E-02,2.84E-02
3261,2.31E-02,2.69E-02
3262,2.14E-02,2.54E-02
3263,1.68E-02,3.95E-02
3264,2.25E-02,3.45E-02
3265,2.51E-02,3.55E-02
3266,1.68E-02,4.70E-02
3267,1.69E-02,4.56E-02
3268,2.01E-02,4.71E-02
3269,1.78E-02,4.55E-02
3270,1.59E-02,4.04E-02
3271,1.68E-02,4.02E-02
3272,1.73E-02,4.34E-02
3273,1.71E-02,4.45E-02
3274,1.68E-02,4.23E-02
3275,1.69E-02,4.13E-02
3276,2.10E-02,4.69E-02
3277,1.74E-02,4.82E-02
3278,2.24E-02,3.37E-02
3279,2.05E-02,1.47E-02
3280,2.15E-02,1.50E-02
3281,2.07E-02,2.21E-02
3282,2.19E-02,2.35E-02
3283,2.22E-02,2.50E-02
3284,2.30E-02,2.64E-02
3285,2.47E-02,2.79E-02
3286,2.39E-02,2.95E-02
3287,2.34E-02,3.09E-02
3288,2.31E-02,3.22E-02
3289,1.97E-02,4.80E-02
3290,1.90E-02,1.77E-02
3291,1.68E-02,3.91E-02
3292,1.78E-02,1.63E-02
3293,1.72E-02,4.10E-02
3294,1.68E-02,4.42E-02
3295,1.73E-02,4.21E-02
3296,1.69E-02,3.99E-02
3297,1.70E-02,3.89E-02
3298,1.80E-02,3.79E-02
3299,1.74E-02,4.32E-02
3300,1.71E-02,3.97E-02
3301,1.71E-02,3.86E-02
3302,1.72E-02,3.77E-02
3303,1.74E-02,4.18E-02
3304,1.71E-02,4.08E-02
3305,1.83E-02,3.67E-02
3306,1.71E-02,4.41E-02
3307,1.79E-02,4.66E-02
3308,2.29E-02,3.46E-02
3309,2.12E-02,3.38E-02
3310,1.69E-02,1.36E-02
3311,1.48E-02,1.36E-02
3312,1.87E-02,1.45E-02
3313,1.86E-02,1.75E-02
3314,1.83E-02,1.59E-02
3315,2.21E-02,3.30E-02
3316,1.48E-02,1.27E-02
3317,1.78E-02,1.30E-02
3318,1.90E-02,4.54E-02
3319,1.79E-02,1.20E-02
3320,1.73E-02,4.30E-02
3321,2.24E-02,3.16E-02
3322,2.27E-02,3.02E-02
3323,2.33E-02,2.88E-02
3324,2.39E-02,2.74E-02
3325,2.32E-02,2.59E-02
3326,2.24E-02,2.45E-02
3327,2.26E-02,2.30E-02
3328,2.25E-02,2.17E-02
3329,1.96E-02,1.71E-02
3330,1.90E-02,1.56E-02
3331,1.82E-02,1.40E-02
3332,1.90E-02,1.14E-02
3333,1.90E-02,1.24E-02
3334,1.94E-02,3.32E-02
3335,1.67E-02,3.36E-02
3336,1.69E-02,4.65E-02
3337,1.80E-02,4.53E-02
3338,2.12E-02,3.24E-02
3339,2.10E-02,1.87E-02
3340,1.79E-02,4.40E-02
3341,1.90E-02,3.56E-02
3342,1.74E-02,4.05E-02
3343,1.74E-02,4.28E-02
3344,1.75E-02,4.16E-02
3345,1.71E-02,3.74E-02
3346,1.69E-02,3.65E-02
3347,1.72E-02,3.84E-02
3348,1.72E-02,3.94E-02
3349,2.20E-02,1.99E-02
3350,2.23E-02,2.12E-02
3351,2.23E-02,2.26E-02
3352,2.22E-02,2.40E-02
3353,2.24E-02,2.54E-02
3354,2.27E-02,2.68E-02
3355,2.23E-02,2.82E-02
3356,2.19E-02,2.96E-02
3357,2.15E-02,3.10E-02
3358,1.72E-02,3.81E-02
3359,1.70E-02,3.71E-02
3360,1.72E-02,3.62E-02
3361,1.76E-02,4.27E-02
3362,1.75E-02,4.15E-02
3363,1.75E-02,4.03E-02
3364,1.75E-02,4.51E-02
3365,1.04E-02,3.27E-02
3366,1.78E-02,3.24E-02
3367,2.00E-02,1.08E-02
3368,1.99E-02,1.18E-02
3369,1.91E-02,1.35E-02
3370,1.95E-02,1.67E-02
3371,1.92E-02,1.51E-02
3372,2.00E-02,1.83E-02
3373,2.00E-02,3.17E-02
3374,1.73E-02,3.92E-02
3375,1.61E-02,3.43E-02
3376,1.69E-02,4.64E-02
3377,1.78E-02,4.39E-02
3378,1.84E-02,4.91E-02
3379,1.47E-02,4.02E-04
3380,2.03E-02,7.06E-04
3381,1.47E-02,3.62E-04
3382,1.72E-02,4.77E-02
3383,1.69E-02,3.53E-02
3384,2.05E-02,3.03E-02
3385,2.09E-02,2.89E-02
3386,2.14E-02,2.75E-02
3387,2.18E-02,2.62E-02
3388,2.18E-02,2.49E-02
3389,2.17E-02,2.35E-02
3390,2.16E-02,2.22E-02
3391,2.16E-02,2.08E-02
3392,2.09E-02,1.96E-02
3393,1.98E-02,1.62E-02
3394,1.96E-02,1.46E-02
3395,1.98E-02,1.29E-02
3396,2.07E-02,1.02E-02
3397,2.07E-02,1.12E-02
3398,1.64E-02,3.17E-02
3399,1.07E-02,3.22E-02
3400,1.64E-02,3.40E-02
3401,1.36E-02,3.31E-02
3402,1.80E-02,4.38E-02
3403,1.76E-02,4.50E-02
3404,1.72E-02,4.63E-02
3405,1.89E-02,4.78E-02
3406,2.03E-02,4.94E-02
3407,1.99E-02,5.78E-04
3408,2.54E-02,1.04E-03
3409,2.11E-02,3.52E-04
3410,2.73E-02,8.17E-04
3411,2.15E-02,7.63E-04
3412,2.30E-02,1.30E-03
3413,2.88E-02,1.55E-03
3414,2.54E-02,1.84E-03
3415,1.89E-02,3.10E-02
3416,2.02E-02,1.79E-02
3417,2.40E-02,3.84E-04
3418,2.42E-02,3.97E-04
3419,1.74E-02,3.90E-02
3420,1.74E-02,4.13E-02
3421,1.70E-02,3.58E-02
3422,1.73E-02,4.01E-02
3423,1.68E-02,3.49E-02
3424,1.71E-02,3.68E-02
3425,1.71E-02,3.79E-02
3426,1.77E-02,4.25E-02
3427,2.06E-02,1.92E-02
3428,2.08E-02,2.04E-02
3429,2.10E-02,2.17E-02
3430,2.10E-02,2.30E-02
3431,2.10E-02,2.43E-02
3432,2.09E-02,2.56E-02
3433,2.07E-02,2.69E-02
3434,2.02E-02,2.83E-02
3435,1.96E-02,2.96E-02
3436,1.72E-02,3.66E-02
3437,1.72E-02,3.55E-02
3438,1.70E-02,3.46E-02
3439,2.50E-02,2.42E-03
3440,2.55E-02,2.13E-03
3441,2.92E-02,1.35E-03
3442,2.68E-02,7.60E-04
3443,2.33E-02,4.95E-02
3444,1.97E-02,4.78E-02
3445,1.83E-02,4.63E-02
3446,1.78E-02,4.50E-02
3447,1.78E-02,4.37E-02
3448,1.79E-02,4.24E-02
3449,1.74E-02,4.12E-02
3450,1.74E-02,4.00E-02
3451,1.75E-02,3.88E-02
3452,1.73E-02,3.77E-02
3453,1.58E-02,3.27E-02
3454,1.58E-02,3.18E-02
3455,1.69E-02,3.11E-02
3456,2.14E-02,9.59E-03
3457,2.11E-02,1.06E-02
3458,2.06E-02,1.23E-02
3459,2.01E-02,1.57E-02
3460,2.00E-02,1.40E-02
3461,2.14E-02,9.43E-04
3462,2.15E-02,1.49E-03
3463,2.31E-02,2.11E-03
3464,2.03E-02,1.74E-02
3465,1.82E-02,3.03E-02
3466,2.16E-02,4.94E-02
3467,1.77E-02,5.06E-02
3468,1.63E-02,5.14E-02
3469,1.30E-02,5.01E-02
3470,1.67E-02,3.36E-02
3471,1.87E-02,2.90E-02
3472,1.94E-02,2.77E-02
3473,1.98E-02,2.64E-02
3474,2.02E-02,2.51E-02
3475,2.06E-02,2.38E-02
3476,2.07E-02,2.25E-02
3477,2.07E-02,2.12E-02
3478,2.06E-02,2.00E-02
3479,2.04E-02,1.87E-02
3480,2.12E-02,1.15E-03
3481,1.98E-02,1.70E-03
3482,2.01E-02,2.29E-03
3483,2.03E-02,1.52E-02
3484,2.05E-02,1.35E-02
3485,2.09E-02,1.17E-02
3486,2.18E-02,9.06E-03
3487,2.17E-02,1.01E-02
3488,1.66E-02,3.05E-02
3489,1.65E-02,3.13E-02
3490,1.67E-02,3.23E-02
3491,1.74E-02,3.74E-02
3492,1.74E-02,3.98E-02
3493,1.77E-02,3.86E-02
3494,1.80E-02,4.23E-02
3495,1.81E-02,4.36E-02
3496,1.83E-02,4.49E-02
3497,1.90E-02,4.63E-02
3498,2.00E-02,4.78E-02
3499,1.85E-02,4.90E-02
3500,1.81E-02,5.02E-02
3501,1.99E-02,5.17E-02
3502,1.83E-02,5.93E-04
3503,2.32E-02,5.61E-04
3504,2.48E-02,6.72E-04
3505,2.36E-02,6.19E-04
3506,2.47E-02,6.29E-04
3507,2.38E-02,6.97E-04
3508,2.40E-02,6.07E-04
3509,2.35E-02,7.75E-04
3510,2.37E-02,6.00E-04
3511,2.30E-02,8.29E-04
3512,2.33E-02,6.04E-04
3513,2.15E-02,8.97E-04
3514,2.26E-02,6.15E-04
3515,2.89E-02,1.28E-03
3516,2.64E-02,1.95E-03
3517,2.30E-02,2.72E-03
3518,2.27E-02,3.00E-03
3519,2.37E-02,2.77E-03
3520,1.78E-02,2.97E-02
3521,2.04E-02,1.69E-02
3522,1.71E-02,3.42E-02
3523,1.68E-02,3.32E-02
3524,1.75E-02,3.63E-02
3525,1.77E-02,4.10E-02
3526,1.71E-02,3.53E-02
3527,2.05E-02,1.82E-02
3528,2.03E-02,1.95E-02
3529,2.04E-02,2.07E-02
3530,2.03E-02,2.20E-02
3531,2.01E-02,2.33E-02
3532,1.98E-02,2.45E-02
3533,1.94E-02,2.58E-02
3534,1.90E-02,2.71E-02
3535,1.84E-02,2.84E-02
3536,1.98E-02,2.00E-03
3537,2.17E-02,1.39E-03
3538,2.53E-02,3.03E-03
3539,2.49E-02,2.81E-03
3540,2.40E-02,3.35E-03
3541,2.38E-02,2.54E-03
3542,2.59E-02,1.84E-03
3543,2.65E-02,1.78E-03
3544,2.18E-02,6.52E-04
3545,2.05E-02,9.74E-04
3546,2.70E-02,1.10E-03
3547,2.49E-02,1.05E-03
3548,2.46E-02,9.70E-04
3549,2.41E-02,8.84E-04
3550,2.36E-02,7.98E-04
3551,2.32E-02,7.13E-04
3552,2.24E-02,6.31E-04
3553,2.30E-02,5.19E-02
3554,2.11E-02,5.04E-02
3555,1.86E-02,4.88E-02
3556,1.98E-02,4.76E-02
3557,1.93E-02,4.62E-02
3558,1.88E-02,4.48E-02
3559,1.83E-02,4.35E-02
3560,1.81E-02,4.22E-02
3561,1.81E-02,4.09E-02
3562,1.76E-02,3.85E-02
3563,1.78E-02,3.73E-02
3564,1.75E-02,3.61E-02
3565,1.72E-02,3.19E-02
3566,1.71E-02,3.09E-02
3567,1.71E-02,3.00E-02
3568,2.41E-02,8.52E-03
3569,2.28E-02,9.58E-03
3570,2.13E-02,1.12E-02
3571,2.07E-02,1.47E-02
3572,2.07E-02,1.29E-02
3573,2.04E-02,2.32E-03
3574,2.05E-02,1.64E-02
3575,1.76E-02,2.92E-02
3576,1.87E-02,5.26E-02
3577,1.70E-02,3.29E-02
3578,1.76E-02,3.97E-02
3579,1.74E-02,3.50E-02
3580,1.72E-02,3.40E-02
3581,1.63E-02,5.30E-02
3582,1.76E-02,7.94E-03
3583,1.61E-02,5.15E-02
3584,1.49E-02,7.35E-03
3585,1.95E-02,3.56E-03
3586,1.96E-02,3.28E-03
3587,1.68E-02,8.13E-03
3588,1.81E-02,2.79E-02
3589,1.86E-02,2.66E-02
3590,1.90E-02,2.53E-02
3591,1.94E-02,2.40E-02
3592,1.97E-02,2.28E-02
3593,1.98E-02,2.15E-02
3594,2.00E-02,2.02E-02
3595,2.01E-02,1.90E-02
3596,2.03E-02,1.77E-02
3597,2.20E-02,1.68E-03
3598,2.08E-02,1.42E-02
3599,2.08E-02,1.24E-02
3600,2.11E-02,1.07E-02
3601,2.07E-02,9.18E-03
3602,1.75E-02,2.96E-02
3603,1.74E-02,3.06E-02
3604,1.74E-02,3.16E-02
3605,1.73E-02,3.26E-02
3606,1.74E-02,3.37E-02
3607,1.76E-02,3.48E-02
3608,1.77E-02,3.59E-02
3609,1.76E-02,3.83E-02
3610,1.80E-02,3.71E-02
3611,1.79E-02,3.95E-02
3612,1.81E-02,4.08E-02
3613,1.84E-02,4.21E-02
3614,1.87E-02,4.34E-02
3615,1.91E-02,4.47E-02
3616,1.97E-02,4.61E-02
3617,1.95E-02,4.74E-02
3618,1.97E-02,4.87E-02
3619,2.12E-02,5.02E-02
3620,1.82E-02,5.15E-02
3621,2.07E-02,5.32E-02
3622,1.98E-02,7.04E-04
3623,2.09E-02,5.83E-04
3624,1.88E-02,1.01E-03
3625,2.72E-02,1.69E-03
3626,2.55E-02,1.64E-03
3627,2.51E-02,1.57E-03
3628,2.48E-02,1.48E-03
3629,2.46E-02,1.37E-03
3630,2.43E-02,1.25E-03
3631,2.39E-02,1.11E-03
3632,2.39E-02,9.59E-04
3633,2.47E-02,2.44E-03
3634,2.51E-02,2.36E-03
3635,2.30E-02,3.90E-03
3636,2.90E-02,3.63E-03
3637,3.14E-02,3.27E-03
3638,2.45E-02,2.60E-03
3639,1.78E-02,2.87E-02
3640,2.06E-02,1.59E-02
3641,2.17E-02,3.14E-03
3642,1.72E-02,7.81E-03
3643,1.75E-02,6.93E-03
3644,2.03E-02,1.72E-02
3645,2.01E-02,1.85E-02
3646,1.98E-02,1.97E-02
3647,1.96E-02,2.10E-02
3648,1.94E-02,2.23E-02
3649,1.91E-02,2.35E-02
3650,1.87E-02,2.48E-02
3651,1.85E-02,2.61E-02
3652,1.82E-02,2.74E-02
3653,2.29E-02,1.96E-03
3654,2.73E-02,4.28E-03
3655,2.11E-02,3.78E-03
3656,2.38E-02,3.06E-03
3657,2.46E-02,2.99E-03
3658,2.56E-02,2.30E-03
3659,2.56E-02,2.23E-03
3660,2.51E-02,2.15E-03
3661,2.51E-02,2.05E-03
3662,2.49E-02,1.94E-03
3663,2.49E-02,1.80E-03
3664,2.48E-02,1.64E-03
3665,2.49E-02,1.44E-03
3666,2.15E-02,9.72E-04
3667,2.50E-02,7.62E-04
3668,2.12E-02,5.35E-02
3669,2.10E-02,5.17E-02
3670,2.00E-02,5.00E-02
3671,2.06E-02,4.87E-02
3672,2.00E-02,4.73E-02
3673,1.99E-02,4.59E-02
3674,1.95E-02,4.46E-02
3675,1.90E-02,4.33E-02
3676,1.87E-02,4.19E-02
3677,1.84E-02,4.06E-02
3678,1.81E-02,3.93E-02
3679,1.79E-02,3.69E-02
3680,1.80E-02,3.57E-02
3681,1.78E-02,3.46E-02
3682,1.76E-02,3.34E-02
3683,1.77E-02,3.23E-02
3684,1.77E-02,3.13E-02
3685,1.77E-02,3.02E-02
3686,1.79E-02,2.92E-02
3687,1.91E-02,8.78E-03
3688,2.03E-02,1.03E-02
3689,2.08E-02,1.37E-02
3690,2.08E-02,1.19E-02
3691,3.29E-02,3.93E-03
3692,3.05E-02,3.56E-03
3693,2.49E-02,2.86E-03
3694,2.07E-02,1.54E-02
3695,1.81E-02,2.83E-02
3696,1.88E-02,7.36E-03
3697,1.77E-02,3.81E-02
3698,1.86E-02,6.60E-03
3699,2.09E-02,4.46E-03
3700,1.82E-02,2.70E-02
3701,1.84E-02,2.57E-02
3702,1.87E-02,2.44E-02
3703,1.89E-02,2.31E-02
3704,1.91E-02,2.18E-02
3705,1.93E-02,2.05E-02
3706,1.97E-02,1.93E-02
3707,2.00E-02,1.80E-02
3708,2.03E-02,1.67E-02
3709,2.37E-02,2.23E-03
3710,2.12E-02,3.72E-03
3711,3.18E-02,4.27E-03
3712,2.06E-02,1.32E-02
3713,2.05E-02,1.14E-02
3714,2.01E-02,9.81E-03
3715,1.93E-02,8.31E-03
3716,1.89E-02,6.30E-03
3717,1.93E-02,6.96E-03
3718,1.81E-02,2.89E-02
3719,1.80E-02,2.99E-02
3720,1.78E-02,3.10E-02
3721,1.80E-02,3.21E-02
3722,1.78E-02,3.32E-02
3723,1.80E-02,3.44E-02
3724,1.82E-02,3.55E-02
3725,1.77E-02,3.67E-02
3726,1.80E-02,3.79E-02
3727,1.83E-02,3.92E-02
3728,1.86E-02,4.05E-02
3729,1.90E-02,4.18E-02
3730,1.93E-02,4.31E-02
3731,1.99E-02,4.44E-02
3732,2.02E-02,4.58E-02
3733,2.06E-02,4.71E-02
3734,2.08E-02,4.86E-02
3735,2.07E-02,5.00E-02
3736,2.20E-02,5.18E-02
3737,2.21E-02,5.38E-02
3738,2.57E-02,1.24E-03
3739,2.52E-02,2.92E-03
3740,2.52E-02,2.85E-03
3741,2.51E-02,2.77E-03
3742,2.52E-02,2.66E-03
3743,2.51E-02,2.54E-03
3744,2.51E-02,2.40E-03
3745,2.53E-02,2.23E-03
3746,2.53E-02,2.04E-03
3747,2.37E-02,3.72E-03
3748,2.45E-02,3.66E-03
3749,1.96E-02,4.44E-03
3750,2.87E-02,4.61E-03
3751,2.62E-02,4.86E-03
3752,1.67E-02,4.09E-04
3753,2.23E-02,3.08E-03
3754,1.82E-02,2.79E-02
3755,2.06E-02,1.49E-02
3756,2.66E-02,8.51E-04
3757,1.65E-02,4.16E-03
3758,2.97E-02,6.99E-04
3759,2.20E-02,6.38E-04
3760,2.02E-02,1.62E-02
3761,1.99E-02,1.75E-02
3762,1.96E-02,1.88E-02
3763,1.93E-02,2.01E-02
3764,1.89E-02,2.14E-02
3765,1.87E-02,2.26E-02
3766,1.86E-02,2.39E-02
3767,1.84E-02,2.52E-02
3768,1.83E-02,2.66E-02
3769,2.33E-02,2.52E-03
3770,1.69E-02,3.81E-03
3771,1.64E-02,4.32E-04
3772,2.96E-02,5.24E-03
3773,2.50E-02,5.16E-03
3774,2.43E-02,4.41E-03
3775,2.46E-02,4.34E-03
3776,2.50E-02,3.58E-03
3777,2.53E-02,3.50E-03
3778,2.52E-02,3.41E-03
3779,2.51E-02,3.31E-03
3780,2.51E-02,3.19E-03
3781,2.51E-02,3.04E-03
3782,2.52E-02,2.88E-03
3783,2.56E-02,2.69E-03
3784,2.43E-02,1.05E-03
3785,2.51E-02,1.82E-03
3786,1.66E-02,3.85E-04
3787,1.53E-02,5.11E-04
3788,2.29E-02,5.39E-02
3789,2.28E-02,5.19E-02
3790,2.18E-02,5.01E-02
3791,2.10E-02,4.85E-02
3792,2.07E-02,4.70E-02
3793,2.03E-02,4.56E-02
3794,2.02E-02,4.43E-02
3795,1.98E-02,4.29E-02
3796,1.93E-02,4.16E-02
3797,1.90E-02,4.03E-02
3798,1.86E-02,3.90E-02
3799,1.82E-02,3.78E-02
3800,1.78E-02,3.66E-02
3801,1.81E-02,3.54E-02
3802,1.84E-02,3.42E-02
3803,1.81E-02,3.30E-02
3804,1.82E-02,3.18E-02
3805,1.80E-02,3.07E-02
3806,1.82E-02,2.96E-02
3807,1.84E-02,2.85E-02
3808,1.95E-02,6.07E-03
3809,1.96E-02,6.61E-03
3810,1.96E-02,7.84E-03
3811,1.98E-02,9.35E-03
3812,2.04E-02,1.27E-02
3813,2.03E-02,1.10E-02
3814,2.91E-02,4.94E-03
3815,2.27E-02,3.40E-03
3816,2.05E-02,1.44E-02
3817,1.84E-02,2.75E-02
3818,2.94E-02,4.64E-03
3819,1.77E-02,4.55E-03
3820,2.31E-02,5.11E-03
3821,2.14E-02,5.04E-03
3822,1.84E-02,2.62E-02
3823,1.84E-02,2.48E-02
3824,1.85E-02,2.35E-02
3825,1.88E-02,2.22E-02
3826,1.88E-02,2.09E-02
3827,1.92E-02,1.96E-02
3828,1.96E-02,1.83E-02
3829,1.99E-02,1.70E-02
3830,2.02E-02,1.57E-02
3831,2.31E-02,4.59E-04
3832,2.33E-02,2.82E-03
3833,2.48E-02,4.20E-03
3834,2.89E-02,5.25E-03
3835,2.04E-02,1.22E-02
3836,2.00E-02,1.05E-02
3837,1.98E-02,8.87E-03
3838,1.98E-02,7.41E-03
3839,1.97E-02,5.93E-03
3840,2.00E-02,6.32E-03
3841,1.85E-02,2.82E-02
3842,1.85E-02,2.93E-02
3843,1.83E-02,3.04E-02
3844,1.84E-02,3.16E-02
3845,1.85E-02,3.28E-02
3846,1.84E-02,3.39E-02
3847,1.82E-02,3.52E-02
3848,1.81E-02,3.64E-02
3849,1.86E-02,3.76E-02
3850,1.89E-02,3.89E-02
3851,1.93E-02,4.01E-02
3852,1.97E-02,4.14E-02
3853,2.00E-02,4.27E-02
3854,2.03E-02,4.41E-02
3855,2.06E-02,4.55E-02
3856,2.11E-02,4.69E-02
3857,2.17E-02,4.84E-02
3858,2.30E-02,5.01E-02
3859,2.44E-02,5.20E-02
3860,2.21E-02,5.42E-02
3861,1.93E-02,7.19E-04
3862,2.00E-02,4.46E-04
3863,2.45E-02,1.61E-03
3864,2.65E-02,2.46E-03
3865,2.50E-02,4.26E-03
3866,2.50E-02,4.18E-03
3867,2.50E-02,4.09E-03
3868,2.49E-02,3.98E-03
3869,2.47E-02,3.86E-03
3870,2.48E-02,3.73E-03
3871,2.51E-02,3.56E-03
3872,2.56E-02,3.37E-03
3873,2.46E-02,5.10E-03
3874,2.45E-02,5.03E-03
3875,2.61E-02,5.80E-03
3876,2.92E-02,5.59E-03
3877,2.98E-02,5.88E-03
3878,2.33E-02,3.72E-03
3879,1.86E-02,2.71E-02
3880,2.04E-02,1.39E-02
3881,1.92E-02,6.65E-04
3882,1.81E-02,5.51E-04
3883,2.30E-02,8.74E-04
3884,2.13E-02,6.95E-04
3885,2.03E-02,1.52E-02
3886,1.99E-02,1.66E-02
3887,1.96E-02,1.79E-02
3888,1.92E-02,1.92E-02
3889,1.89E-02,2.05E-02
3890,1.87E-02,2.18E-02
3891,1.86E-02,2.31E-02
3892,1.86E-02,2.44E-02
3893,1.86E-02,2.58E-02
3894,2.43E-02,3.16E-03
3895,2.77E-02,6.50E-03
3896,3.02E-02,6.22E-03
3897,1.76E-02,6.48E-03
3898,2.36E-02,5.76E-03
3899,2.46E-02,5.74E-03
3900,2.50E-02,4.96E-03
3901,2.50E-02,4.89E-03
3902,2.51E-02,4.79E-03
3903,2.46E-02,4.69E-03
3904,2.47E-02,4.58E-03
3905,2.47E-02,4.44E-03
3906,2.46E-02,4.29E-03
3907,2.49E-02,4.11E-03
3908,2.48E-02,2.20E-03
3909,2.65E-02,3.16E-03
3910,2.12E-02,6.40E-04
3911,2.10E-02,1.03E-03
3912,1.99E-02,1.00E-03
3913,2.01E-02,5.44E-02
3914,1.86E-02,5.26E-02
3915,1.94E-02,5.47E-02
3916,1.70E-02,5.30E-02
3917,2.47E-02,5.01E-02
3918,2.20E-02,4.83E-02
3919,2.14E-02,4.68E-02
3920,2.09E-02,4.53E-02
3921,2.07E-02,4.39E-02
3922,2.02E-02,4.26E-02
3923,2.00E-02,4.12E-02
3924,1.97E-02,3.99E-02
3925,1.91E-02,3.86E-02
3926,1.88E-02,3.74E-02
3927,1.83E-02,3.62E-02
3928,1.82E-02,3.49E-02
3929,1.86E-02,3.37E-02
3930,1.87E-02,3.25E-02
3931,1.86E-02,3.13E-02
3932,1.85E-02,3.02E-02
3933,1.86E-02,2.90E-02
3934,1.87E-02,2.79E-02
3935,2.04E-02,5.90E-03
3936,2.04E-02,6.11E-03
3937,2.00E-02,7.02E-03
3938,2.00E-02,8.40E-03
3939,2.04E-02,1.17E-02
3940,2.00E-02,9.99E-03
3941,2.95E-02,5.87E-03
3942,2.89E-02,5.50E-03
3943,2.73E-02,4.75E-03
3944,2.59E-02,4.16E-03
3945,1.97E-02,8.78E-04
3946,2.31E-02,1.37E-03
3947,2.04E-02,1.35E-02
3948,1.89E-02,2.68E-02
3949,1.87E-02,2.54E-02
3950,1.86E-02,2.41E-02
3951,1.86E-02,2.27E-02
3952,1.87E-02,2.14E-02
3953,1.89E-02,2.00E-02
3954,1.93E-02,1.87E-02
3955,1.96E-02,1.74E-02
3956,2.00E-02,1.61E-02
3957,2.02E-02,1.48E-02
3958,2.10E-02,1.13E-03
3959,2.58E-02,3.52E-03
3960,3.01E-02,6.13E-03
3961,2.05E-02,1.12E-02
3962,2.03E-02,9.51E-03
3963,2.02E-02,7.95E-03
3964,2.05E-02,6.69E-03
3965,2.11E-02,5.99E-03
3966,2.12E-02,5.99E-03
3967,1.91E-02,2.76E-02
3968,1.89E-02,2.87E-02
3969,1.88E-02,2.99E-02
3970,1.88E-02,3.11E-02
3971,1.89E-02,3.23E-02
3972,1.86E-02,3.35E-02
3973,1.84E-02,3.47E-02
3974,1.86E-02,3.59E-02
3975,1.90E-02,3.72E-02
3976,1.96E-02,3.84E-02
3977,1.98E-02,3.97E-02
3978,2.02E-02,4.10E-02
3979,2.05E-02,4.24E-02
3980,2.08E-02,4.37E-02
3981,2.11E-02,4.52E-02
3982,2.13E-02,4.67E-02
3983,2.20E-02,4.82E-02
3984,1.78E-02,5.14E-02
3985,2.30E-02,4.99E-02
3986,1.69E-02,5.10E-02
3987,1.93E-02,5.29E-02
3988,1.97E-02,5.48E-02
3989,2.12E-02,1.41E-03
3990,2.19E-02,9.20E-04
3991,2.26E-02,1.43E-03
3992,2.10E-02,1.20E-03
3993,2.78E-02,2.84E-03
3994,2.54E-02,3.88E-03
3995,2.51E-02,5.69E-03
3996,2.50E-02,5.62E-03
3997,2.51E-02,5.53E-03
3998,2.48E-02,5.43E-03
3999,2.46E-02,5.32E-03
4000,2.45E-02,5.20E-03
4001,2.42E-02,5.06E-03
4002,2.44E-02,4.90E-03
4003,2.33E-02,6.48E-03
4004,2.57E-02,6.50E-03
4005,3.07E-02,6.89E-03
4006,1.89E-02,7.16E-03
4007,2.50E-02,7.17E-03
4008,3.17E-02,5.70E-03
4009,3.15E-02,6.38E-03
4010,3.01E-02,6.53E-03
4011,3.33E-02,5.26E-03
4012,2.89E-02,4.56E-03
4013,1.89E-02,2.65E-02
4014,2.05E-02,1.30E-02
4015,2.06E-02,1.29E-03
4016,2.26E-02,1.92E-03
4017,2.14E-02,1.59E-03
4018,2.02E-02,1.43E-02
4019,2.00E-02,1.56E-02
4020,1.96E-02,1.70E-02
4021,1.93E-02,1.83E-02
4022,1.90E-02,1.96E-02
4023,1.88E-02,2.10E-02
4024,1.87E-02,2.23E-02
4025,1.88E-02,2.37E-02
4026,1.88E-02,2.51E-02
4027,2.72E-02,3.90E-03
4028,3.05E-02,6.80E-03
4029,2.79E-02,4.27E-03
4030,3.03E-02,4.94E-03
4031,3.15E-02,5.58E-03
4032,3.48E-02,5.93E-03
4033,3.18E-02,6.63E-03
4034,3.07E-02,7.06E-03
4035,3.19E-02,7.81E-03
4036,2.97E-02,7.56E-03
4037,2.36E-02,7.29E-03
4038,2.66E-02,7.30E-03
4039,2.55E-02,6.45E-03
4040,2.53E-02,6.38E-03
4041,2.48E-02,6.30E-03
4042,2.47E-02,6.21E-03
4043,2.44E-02,6.11E-03
4044,2.43E-02,6.00E-03
4045,2.42E-02,5.88E-03
4046,2.39E-02,5.76E-03
4047,2.45E-02,4.74E-03
4048,2.92E-02,3.63E-03
4049,2.57E-02,1.90E-03
4050,2.30E-02,1.89E-03
4051,1.97E-02,5.30E-02
4052,2.01E-02,5.49E-02
4053,1.90E-02,5.11E-02
4054,1.98E-02,4.95E-02
4055,2.16E-02,4.81E-02
4056,2.13E-02,4.66E-02
4057,2.11E-02,4.51E-02
4058,2.09E-02,4.36E-02
4059,2.07E-02,4.22E-02
4060,2.02E-02,4.08E-02
4061,2.01E-02,3.95E-02
4062,1.98E-02,3.82E-02
4063,1.93E-02,3.69E-02
4064,1.90E-02,3.57E-02
4065,1.86E-02,3.45E-02
4066,1.88E-02,3.33E-02
4067,1.90E-02,3.21E-02
4068,1.91E-02,3.08E-02
4069,1.89E-02,2.96E-02
4070,1.91E-02,2.84E-02
4071,1.92E-02,2.73E-02
4072,2.19E-02,6.19E-03
4073,2.19E-02,5.98E-03
4074,2.11E-02,6.41E-03
4075,2.05E-02,7.55E-03
4076,2.06E-02,1.07E-02
4077,2.05E-02,9.04E-03
4078,3.06E-02,7.19E-03
4079,2.11E-02,1.75E-03
4080,2.19E-02,2.47E-03
4081,2.05E-02,1.25E-02
4082,1.92E-02,2.61E-02
4083,1.89E-02,2.47E-02
4084,1.88E-02,2.33E-02
4085,1.88E-02,2.19E-02
4086,1.88E-02,2.06E-02
4087,1.90E-02,1.92E-02
4088,1.94E-02,1.79E-02
4089,1.97E-02,1.65E-02
4090,2.01E-02,1.52E-02
4091,2.03E-02,1.38E-02
4092,2.02E-02,2.10E-03
4093,3.08E-02,7.48E-03
4094,2.06E-02,1.02E-02
4095,2.05E-02,8.59E-03
4096,2.11E-02,7.18E-03
4097,2.13E-02,6.21E-03
4098,2.49E-02,6.56E-03
4099,2.26E-02,6.06E-03
4100,1.99E-02,7.86E-03
4101,2.51E-02,6.86E-03
4102,1.95E-02,2.70E-02
4103,1.93E-02,2.82E-02
4104,1.91E-02,2.94E-02
4105,1.93E-02,3.06E-02
4106,1.91E-02,3.18E-02
4107,1.90E-02,3.30E-02
4108,1.88E-02,3.42E-02
4109,1.92E-02,3.55E-02
4110,1.97E-02,3.67E-02
4111,1.99E-02,3.80E-02
4112,2.02E-02,3.93E-02
4113,2.06E-02,4.07E-02
4114,2.07E-02,4.20E-02
4115,2.09E-02,4.35E-02
4116,2.10E-02,4.49E-02
4117,2.11E-02,4.64E-02
4118,2.07E-02,4.79E-02
4119,1.96E-02,4.94E-02
4120,1.98E-02,5.10E-02
4121,2.01E-02,5.29E-02
4122,2.04E-02,5.48E-02
4123,2.70E-02,2.52E-03
4124,1.62E-02,3.64E-03
4125,2.22E-02,4.66E-03
4126,2.33E-02,5.65E-03
4127,2.57E-02,7.24E-03
4128,2.53E-02,7.17E-03
4129,2.50E-02,7.09E-03
4130,2.47E-02,7.02E-03
4131,2.44E-02,6.93E-03
4132,2.43E-02,6.85E-03
4133,2.41E-02,6.76E-03
4134,2.37E-02,6.66E-03
4135,3.48E-02,8.34E-03
4136,2.95E-02,8.14E-03
4137,2.64E-02,8.10E-03
4138,3.09E-02,7.74E-03
4139,3.15E-02,7.30E-03
4140,3.32E-02,6.22E-03
4141,3.23E-02,6.87E-03
4142,2.79E-02,4.58E-03
4143,3.03E-02,5.22E-03
4144,3.18E-02,5.85E-03
4145,3.15E-02,7.90E-03
4146,1.94E-02,2.58E-02
4147,2.06E-02,1.20E-02
4148,2.25E-02,2.32E-03
4149,1.71E-02,3.01E-03
4150,2.02E-02,2.67E-03
4151,2.05E-02,1.33E-02
4152,2.00E-02,1.47E-02
4153,1.97E-02,1.60E-02
4154,1.95E-02,1.74E-02
4155,1.91E-02,1.88E-02
4156,1.90E-02,2.02E-02
4157,1.89E-02,2.15E-02
4158,1.91E-02,2.29E-02
4159,1.91E-02,2.44E-02
4160,3.06E-02,8.17E-03
4161,3.66E-02,6.11E-03
4162,3.25E-02,6.48E-03
4163,3.22E-02,7.13E-03
4164,3.16E-02,7.55E-03
4165,3.10E-02,7.99E-03
4166,3.08E-02,8.43E-03
4167,2.80E-02,8.91E-03
4168,2.59E-02,8.84E-03
4169,2.57E-02,8.03E-03
4170,2.51E-02,7.97E-03
4171,2.48E-02,7.92E-03
4172,2.46E-02,7.86E-03
4173,2.42E-02,7.80E-03
4174,2.40E-02,7.74E-03
4175,2.40E-02,7.67E-03
4176,2.37E-02,7.59E-03
4177,2.32E-02,6.56E-03
4178,1.86E-02,4.53E-03
4179,2.27E-02,5.52E-03
4180,2.47E-02,3.36E-03
4181,2.54E-02,3.88E-03
4182,2.79E-02,3.33E-03
4183,2.05E-02,5.28E-02
4184,2.07E-02,5.48E-02
4185,2.02E-02,5.09E-02
4186,1.97E-02,4.92E-02
4187,2.00E-02,4.77E-02
4188,2.07E-02,4.62E-02
4189,2.08E-02,4.47E-02
4190,2.08E-02,4.33E-02
4191,2.07E-02,4.19E-02
4192,2.06E-02,4.05E-02
4193,2.04E-02,3.91E-02
4194,2.01E-02,3.78E-02
4195,1.98E-02,3.65E-02
4196,1.96E-02,3.52E-02
4197,1.90E-02,3.40E-02
4198,1.91E-02,3.28E-02
4199,1.93E-02,3.15E-02
4200,1.93E-02,3.03E-02
4201,1.93E-02,2.91E-02
4202,1.94E-02,2.79E-02
4203,1.96E-02,2.67E-02
4204,1.92E-02,8.23E-03
4205,2.22E-02,7.18E-03
4206,2.22E-02,6.17E-03
4207,2.14E-02,6.09E-03
4208,2.12E-02,6.85E-03
4209,2.08E-02,9.77E-03
4210,2.07E-02,8.17E-03
4211,3.13E-02,8.61E-03
4212,2.38E-02,2.99E-03
4213,1.79E-02,3.71E-03
4214,2.07E-02,1.15E-02
4215,1.94E-02,2.55E-02
4216,2.95E-02,9.03E-03
4217,2.42E-02,9.80E-03
4218,1.93E-02,2.40E-02
4219,1.91E-02,2.26E-02
4220,1.90E-02,2.12E-02
4221,1.91E-02,1.98E-02
4222,1.92E-02,1.84E-02
4223,1.96E-02,1.70E-02
4224,1.98E-02,1.56E-02
4225,2.00E-02,1.42E-02
4226,2.05E-02,1.29E-02
4227,2.10E-02,3.38E-03
4228,3.03E-02,8.86E-03
4229,2.08E-02,9.32E-03
4230,2.07E-02,7.77E-03
4231,2.13E-02,6.58E-03
4232,2.17E-02,6.04E-03
4233,2.21E-02,6.44E-03
4234,2.23E-02,8.97E-03
4235,2.20E-02,7.71E-03
4236,1.97E-02,2.64E-02
4237,1.96E-02,2.76E-02
4238,1.95E-02,2.88E-02
4239,1.94E-02,3.00E-02
4240,1.94E-02,3.13E-02
4241,1.93E-02,3.25E-02
4242,1.96E-02,3.37E-02
4243,1.98E-02,3.50E-02
4244,2.00E-02,3.63E-02
4245,2.03E-02,3.76E-02
4246,2.05E-02,3.89E-02
4247,2.06E-02,4.03E-02
4248,2.07E-02,4.17E-02
4249,2.07E-02,4.31E-02
4250,2.06E-02,4.45E-02
4251,2.04E-02,4.60E-02
4252,2.00E-02,4.75E-02
4253,2.01E-02,4.91E-02
4254,2.04E-02,5.08E-02
4255,2.09E-02,5.27E-02
4256,2.10E-02,5.46E-02
4257,2.53E-02,4.29E-03
4258,2.51E-02,4.94E-03
4259,2.54E-02,4.40E-03
4260,2.23E-02,5.37E-03
4261,2.30E-02,6.45E-03
4262,2.35E-02,7.52E-03
4263,2.54E-02,8.83E-03
4264,2.48E-02,8.80E-03
4265,2.47E-02,8.77E-03
4266,2.43E-02,8.73E-03
4267,2.40E-02,8.69E-03
4268,2.39E-02,8.66E-03
4269,2.37E-02,8.62E-03
4270,2.36E-02,8.58E-03
4271,2.36E-02,9.63E-03
4272,2.54E-02,9.63E-03
4273,3.02E-02,9.13E-03
4274,3.06E-02,8.69E-03
4275,3.11E-02,8.24E-03
4276,3.17E-02,7.80E-03
4277,3.35E-02,6.77E-03
4278,3.19E-02,7.40E-03
4279,2.23E-02,5.58E-03
4280,2.84E-02,5.95E-03
4281,3.40E-02,6.45E-03
4282,2.87E-02,9.27E-03
4283,1.96E-02,2.52E-02
4284,2.08E-02,1.11E-02
4285,2.40E-02,3.75E-03
4286,2.36E-02,4.34E-03
4287,2.21E-02,4.11E-03
4288,2.04E-02,1.24E-02
4289,2.03E-02,1.38E-02
4290,2.00E-02,1.51E-02
4291,1.96E-02,1.65E-02
4292,1.94E-02,1.79E-02
4293,1.91E-02,1.93E-02
4294,1.92E-02,2.08E-02
4295,1.93E-02,2.22E-02
4296,1.95E-02,2.37E-02
4297,2.90E-02,9.55E-03
4298,2.37E-02,5.90E-03
4299,2.57E-02,6.35E-03
4300,3.03E-02,6.81E-03
4301,3.22E-02,7.05E-03
4302,3.22E-02,7.67E-03
4303,3.17E-02,8.05E-03
4304,3.10E-02,8.49E-03
4305,3.07E-02,8.94E-03
4306,3.01E-02,9.39E-03
4307,2.93E-02,9.83E-03
4308,2.49E-02,9.63E-03
4309,2.45E-02,9.63E-03
4310,2.46E-02,9.63E-03
4311,2.44E-02,9.63E-03
4312,2.42E-02,9.62E-03
4313,2.39E-02,9.61E-03
4314,2.37E-02,9.61E-03
4315,2.35E-02,9.60E-03
4316,2.33E-02,8.54E-03
4317,2.27E-02,6.33E-03
4318,2.32E-02,7.45E-03
4319,2.55E-02,5.64E-03
4320,2.49E-02,6.14E-03
4321,2.44E-02,5.35E-03
4322,2.10E-02,5.25E-02
4323,2.14E-02,5.44E-02
4324,2.05E-02,5.05E-02
4325,2.02E-02,4.89E-02
4326,2.02E-02,4.73E-02
4327,2.02E-02,4.58E-02
4328,2.05E-02,4.43E-02
4329,2.06E-02,4.29E-02
4330,2.06E-02,4.15E-02
4331,2.06E-02,4.01E-02
4332,2.05E-02,3.87E-02
4333,2.04E-02,3.74E-02
4334,2.02E-02,3.61E-02
4335,2.00E-02,3.48E-02
4336,1.98E-02,3.35E-02
4337,1.97E-02,3.22E-02
4338,1.95E-02,3.10E-02
4339,1.97E-02,2.97E-02
4340,1.96E-02,2.85E-02
4341,1.95E-02,2.73E-02
4342,1.98E-02,2.61E-02
4343,2.29E-02,9.77E-03
4344,2.26E-02,8.30E-03
4345,2.22E-02,6.76E-03
4346,2.18E-02,6.08E-03
4347,2.13E-02,6.37E-03
4348,2.09E-02,8.88E-03
4349,2.08E-02,7.40E-03
4350,2.62E-02,9.95E-03
4351,2.60E-02,1.05E-02
4352,2.40E-02,1.04E-02
4353,2.39E-02,4.66E-03
4354,2.20E-02,5.21E-03
4355,2.09E-02,1.06E-02
4356,1.98E-02,2.48E-02
4357,1.96E-02,2.33E-02
4358,1.94E-02,2.19E-02
4359,1.93E-02,2.04E-02
4360,1.92E-02,1.89E-02
4361,1.94E-02,1.75E-02
4362,1.96E-02,1.61E-02
4363,2.00E-02,1.47E-02
4364,2.03E-02,1.33E-02
4365,2.06E-02,1.19E-02
4366,2.31E-02,4.96E-03
4367,2.22E-02,1.12E-02
4368,2.85E-02,1.02E-02
4369,2.10E-02,8.45E-03
4370,2.10E-02,7.07E-03
4371,2.14E-02,6.21E-03
4372,2.19E-02,6.20E-03
4373,2.24E-02,7.17E-03
4374,2.34E-02,1.05E-02
4375,2.29E-02,8.92E-03
4376,1.99E-02,2.58E-02
4377,1.96E-02,2.70E-02
4378,1.97E-02,2.82E-02
4379,1.99E-02,2.94E-02
4380,1.96E-02,3.07E-02
4381,1.99E-02,3.20E-02
4382,2.00E-02,3.32E-02
4383,2.02E-02,3.45E-02
4384,2.03E-02,3.58E-02
4385,2.04E-02,3.71E-02
4386,2.05E-02,3.85E-02
4387,2.05E-02,3.98E-02
4388,2.05E-02,4.12E-02
4389,2.04E-02,4.27E-02
4390,2.04E-02,4.41E-02
4391,2.01E-02,4.56E-02
4392,2.02E-02,4.71E-02
4393,2.04E-02,4.87E-02
4394,2.06E-02,5.03E-02
4395,2.13E-02,5.22E-02
4396,2.17E-02,5.42E-02
4397,2.43E-02,6.53E-03
4398,2.45E-02,7.50E-03
4399,2.52E-02,7.07E-03
4400,2.31E-02,7.35E-03
4401,2.31E-02,8.49E-03
4402,2.33E-02,9.59E-03
4403,2.37E-02,1.04E-02
4404,2.42E-02,1.05E-02
4405,2.43E-02,1.05E-02
4406,2.42E-02,1.06E-02
4407,2.43E-02,1.06E-02
4408,2.40E-02,1.06E-02
4409,2.38E-02,1.06E-02
4410,2.36E-02,1.07E-02
4411,2.88E-02,1.05E-02
4412,2.96E-02,1.01E-02
4413,3.02E-02,9.64E-03
4414,3.08E-02,9.18E-03
4415,3.12E-02,8.72E-03
4416,3.19E-02,8.30E-03
4417,3.23E-02,7.35E-03
4418,3.28E-02,7.93E-03
4419,1.98E-02,6.58E-03
4420,2.59E-02,7.15E-03
4421,2.53E-02,1.12E-02
4422,2.76E-02,1.07E-02
4423,2.00E-02,2.45E-02
4424,2.08E-02,1.01E-02
4425,2.39E-02,5.68E-03
4426,2.27E-02,6.17E-03
4427,2.31E-02,5.97E-03
4428,2.06E-02,1.15E-02
4429,2.03E-02,1.28E-02
4430,2.01E-02,1.42E-02
4431,1.97E-02,1.57E-02
4432,1.96E-02,1.71E-02
4433,1.94E-02,1.85E-02
4434,1.95E-02,2.00E-02
4435,1.97E-02,2.15E-02
4436,1.99E-02,2.30E-02
4437,2.72E-02,1.10E-02
4438,2.26E-02,1.20E-02
4439,3.61E-02,7.61E-03
4440,3.31E-02,8.22E-03
4441,3.23E-02,8.56E-03
4442,3.14E-02,8.97E-03
4443,3.09E-02,9.42E-03
4444,3.03E-02,9.89E-03
4445,2.98E-02,1.04E-02
4446,2.88E-02,1.08E-02
4447,2.79E-02,1.13E-02
4448,2.24E-02,1.13E-02
4449,2.31E-02,1.14E-02
4450,2.38E-02,1.14E-02
4451,2.44E-02,1.15E-02
4452,2.44E-02,1.16E-02
4453,2.42E-02,1.16E-02
4454,2.40E-02,1.17E-02
4455,2.38E-02,1.18E-02
4456,2.35E-02,1.07E-02
4457,2.30E-02,8.43E-03
4458,2.32E-02,9.58E-03
4459,2.47E-02,8.67E-03
4460,2.42E-02,9.00E-03
4461,2.40E-02,7.84E-03
4462,2.15E-02,5.19E-02
4463,2.22E-02,5.40E-02
4464,2.11E-02,5.00E-02
4465,2.05E-02,4.84E-02
4466,2.02E-02,4.69E-02
4467,2.02E-02,4.54E-02
4468,2.03E-02,4.39E-02
4469,2.03E-02,4.24E-02
4470,2.04E-02,4.10E-02
4471,2.05E-02,3.96E-02
4472,2.05E-02,3.82E-02
4473,2.04E-02,3.69E-02
4474,2.04E-02,3.56E-02
4475,2.03E-02,3.42E-02
4476,2.02E-02,3.30E-02
4477,2.01E-02,3.17E-02
4478,2.00E-02,3.04E-02
4479,1.99E-02,2.92E-02
4480,1.99E-02,2.79E-02
4481,1.99E-02,2.67E-02
4482,1.99E-02,2.54E-02
4483,2.41E-02,1.12E-02
4484,2.32E-02,9.51E-03
4485,2.25E-02,7.60E-03
4486,2.22E-02,6.40E-03
4487,2.16E-02,6.12E-03
4488,2.11E-02,8.05E-03
4489,2.11E-02,6.78E-03
4490,2.66E-02,1.14E-02
4491,2.37E-02,6.83E-03
4492,2.31E-02,7.23E-03
4493,2.11E-02,9.68E-03
4494,2.02E-02,2.42E-02
4495,2.00E-02,2.27E-02
4496,1.99E-02,2.11E-02
4497,1.96E-02,1.96E-02
4498,1.95E-02,1.81E-02
4499,1.97E-02,1.67E-02
4500,1.99E-02,1.52E-02
4501,2.01E-02,1.38E-02
4502,2.04E-02,1.24E-02
4503,2.07E-02,1.10E-02
4504,2.32E-02,7.06E-03
4505,2.77E-02,7.08E-03
4506,2.60E-02,1.17E-02
4507,2.12E-02,7.68E-03
4508,2.13E-02,6.53E-03
4509,2.17E-02,6.11E-03
4510,2.23E-02,6.65E-03
4511,2.27E-02,8.05E-03
4512,2.60E-02,1.19E-02
4513,2.36E-02,1.00E-02
4514,1.89E-02,1.40E-02
4515,2.50E-02,1.24E-02
4516,2.00E-02,2.51E-02
4517,2.01E-02,2.63E-02
4518,2.00E-02,2.76E-02
4519,2.00E-02,2.89E-02
4520,2.04E-02,3.01E-02
4521,2.02E-02,3.14E-02
4522,2.03E-02,3.27E-02
4523,2.04E-02,3.40E-02
4524,2.04E-02,3.53E-02
4525,2.04E-02,3.66E-02
4526,2.04E-02,3.80E-02
4527,2.04E-02,3.93E-02
4528,2.03E-02,4.07E-02
4529,2.03E-02,4.22E-02
4530,2.02E-02,4.36E-02
4531,2.01E-02,4.51E-02
4532,2.02E-02,4.65E-02
4533,2.05E-02,4.80E-02
4534,2.38E-02,5.17E-02
4535,2.29E-02,4.96E-02
4536,2.17E-02,5.38E-02
4537,2.40E-02,9.25E-03
4538,2.36E-02,1.06E-02
4539,2.39E-02,1.04E-02
4540,2.30E-02,9.58E-03
4541,2.33E-02,1.07E-02
4542,2.36E-02,1.18E-02
4543,2.12E-02,1.21E-02
4544,2.28E-02,1.22E-02
4545,2.38E-02,1.24E-02
4546,2.43E-02,1.25E-02
4547,2.47E-02,1.26E-02
4548,2.43E-02,1.27E-02
4549,2.42E-02,1.28E-02
4550,2.39E-02,1.29E-02
4551,2.69E-02,1.20E-02
4552,2.81E-02,1.15E-02
4553,2.90E-02,1.11E-02
4554,2.98E-02,1.06E-02
4555,3.04E-02,1.01E-02
4556,3.10E-02,9.65E-03
4557,3.15E-02,9.20E-03
4558,3.22E-02,8.81E-03
4559,3.66E-02,7.92E-03
4560,3.29E-02,8.50E-03
4561,1.48E-02,1.27E-02
4562,1.70E-02,1.27E-02
4563,2.35E-02,1.22E-02
4564,2.02E-02,2.39E-02
4565,2.12E-02,9.24E-03
4566,2.37E-02,8.08E-03
4567,2.32E-02,8.36E-03
4568,2.32E-02,8.25E-03
4569,2.09E-02,1.06E-02
4570,2.05E-02,1.19E-02
4571,2.02E-02,1.34E-02
4572,2.00E-02,1.48E-02
4573,1.98E-02,1.63E-02
4574,1.98E-02,1.77E-02
4575,1.98E-02,1.92E-02
4576,2.01E-02,2.08E-02
4577,2.00E-02,2.23E-02
4578,2.48E-02,1.24E-02
4579,1.54E-02,1.33E-02
4580,2.95E-02,7.52E-03
4581,3.13E-02,7.86E-03
4582,3.36E-02,8.29E-03
4583,3.29E-02,8.78E-03
4584,3.23E-02,9.08E-03
4585,3.16E-02,9.45E-03
4586,3.11E-02,9.88E-03
4587,3.05E-02,1.03E-02
4588,2.99E-02,1.08E-02
4589,2.90E-02,1.13E-02
4590,2.81E-02,1.18E-02
4591,2.76E-02,1.23E-02
4592,2.59E-02,1.27E-02
4593,1.96E-02,1.29E-02
4594,2.40E-02,1.31E-02
4595,2.39E-02,1.33E-02
4596,2.44E-02,1.35E-02
4597,2.46E-02,1.36E-02
4598,2.44E-02,1.38E-02
4599,2.42E-02,1.39E-02
4600,2.39E-02,1.41E-02
4601,2.37E-02,1.30E-02
4602,2.31E-02,1.08E-02
4603,2.34E-02,1.19E-02
4604,2.35E-02,1.22E-02
4605,2.34E-02,1.23E-02
4606,2.36E-02,1.08E-02
4607,2.56E-02,5.32E-02
4608,2.12E-02,5.04E-02
4609,1.77E-02,4.92E-02
4610,2.00E-02,4.77E-02
4611,2.01E-02,4.62E-02
4612,2.00E-02,4.48E-02
4613,2.02E-02,4.33E-02
4614,2.04E-02,4.19E-02
4615,2.02E-02,4.05E-02
4616,2.03E-02,3.91E-02
4617,2.03E-02,3.77E-02
4618,2.04E-02,3.63E-02
4619,2.04E-02,3.50E-02
4620,2.04E-02,3.37E-02
4621,2.04E-02,3.24E-02
4622,2.03E-02,3.11E-02
4623,2.06E-02,2.98E-02
4624,2.03E-02,2.85E-02
4625,2.01E-02,2.73E-02
4626,2.03E-02,2.60E-02
4627,2.04E-02,2.48E-02
4628,1.88E-02,1.45E-02
4629,2.12E-02,1.27E-02
4630,2.27E-02,1.05E-02
4631,2.25E-02,8.49E-03
4632,2.22E-02,6.94E-03
4633,2.19E-02,6.16E-03
4634,2.13E-02,7.33E-03
4635,2.14E-02,6.34E-03
4636,2.51E-02,1.30E-02
4637,2.37E-02,9.43E-03
4638,2.31E-02,9.56E-03
4639,2.13E-02,8.82E-03
4640,2.03E-02,2.35E-02
4641,2.03E-02,2.20E-02
4642,2.02E-02,2.04E-02
4643,2.00E-02,1.88E-02
4644,1.97E-02,1.73E-02
4645,1.99E-02,1.58E-02
4646,2.01E-02,1.44E-02
4647,2.03E-02,1.29E-02
4648,2.07E-02,1.15E-02
4649,2.11E-02,1.01E-02
4650,2.33E-02,9.53E-03
4651,3.20E-02,1.32E-02
4652,2.14E-02,7.01E-03
4653,2.15E-02,6.20E-03
4654,2.20E-02,6.26E-03
4655,2.21E-02,7.26E-03
4656,2.23E-02,8.93E-03
4657,2.25E-02,1.11E-02
4658,1.92E-02,1.52E-02
4659,2.10E-02,1.33E-02
4660,2.06E-02,2.44E-02
4661,2.05E-02,2.57E-02
4662,2.05E-02,2.69E-02
4663,2.04E-02,2.82E-02
4664,2.06E-02,2.95E-02
4665,2.04E-02,3.08E-02
4666,2.04E-02,3.21E-02
4667,2.04E-02,3.34E-02
4668,2.04E-02,3.47E-02
4669,2.03E-02,3.60E-02
4670,2.03E-02,3.74E-02
4671,2.02E-02,3.88E-02
4672,2.01E-02,4.02E-02
4673,2.02E-02,4.16E-02
4674,2.01E-02,4.30E-02
4675,1.99E-02,4.44E-02
4676,1.98E-02,4.59E-02
4677,1.97E-02,4.74E-02
4678,1.68E-02,4.87E-02
4679,2.44E-02,5.07E-02
4680,2.64E-02,5.29E-02
4681,2.33E-02,1.23E-02
4682,2.30E-02,1.40E-02
4683,2.28E-02,1.41E-02
4684,2.33E-02,1.20E-02
4685,2.34E-02,1.32E-02
4686,2.37E-02,1.42E-02
4687,1.89E-02,1.37E-02
4688,2.30E-02,1.40E-02
4689,2.42E-02,1.42E-02
4690,2.45E-02,1.45E-02
4691,2.49E-02,1.47E-02
4692,2.47E-02,1.49E-02
4693,2.44E-02,1.50E-02
4694,2.39E-02,1.52E-02
4695,2.86E-02,1.34E-02
4696,2.76E-02,1.30E-02
4697,2.80E-02,1.25E-02
4698,2.86E-02,1.21E-02
4699,2.91E-02,1.16E-02
4700,3.01E-02,1.11E-02
4701,3.04E-02,1.06E-02
4702,3.12E-02,1.01E-02
4703,3.17E-02,9.69E-03
4704,3.24E-02,9.35E-03
4705,2.86E-02,7.93E-03
4706,3.08E-02,8.26E-03
4707,3.24E-02,8.64E-03
4708,3.30E-02,9.09E-03
4709,2.04E-02,2.32E-02
4710,2.13E-02,8.41E-03
4711,2.36E-02,1.09E-02
4712,2.30E-02,1.08E-02
4713,2.21E-02,1.79E-02
4714,1.98E-02,1.61E-02
4715,2.02E-02,1.69E-02
4716,2.32E-02,1.09E-02
4717,2.10E-02,9.67E-03
4718,2.08E-02,1.10E-02
4719,2.05E-02,1.25E-02
4720,2.02E-02,1.39E-02
4721,1.99E-02,1.54E-02
4722,1.99E-02,1.69E-02
4723,2.02E-02,1.84E-02
4724,2.03E-02,2.00E-02
4725,2.04E-02,2.16E-02
4726,2.64E-02,8.34E-03
4727,2.73E-02,1.41E-02
4728,3.08E-02,8.63E-03
4729,3.29E-02,8.98E-03
4730,3.26E-02,9.40E-03
4731,3.27E-02,9.61E-03
4732,3.18E-02,9.94E-03
4733,3.13E-02,1.03E-02
4734,3.05E-02,1.08E-02
4735,3.00E-02,1.13E-02
4736,2.95E-02,1.18E-02
4737,2.86E-02,1.23E-02
4738,2.82E-02,1.28E-02
4739,2.76E-02,1.33E-02
4740,2.66E-02,1.37E-02
4741,2.53E-02,1.42E-02
4742,2.36E-02,1.44E-02
4743,2.36E-02,1.48E-02
4744,2.41E-02,1.51E-02
4745,2.53E-02,1.55E-02
4746,2.57E-02,1.57E-02
4747,2.48E-02,1.60E-02
4748,2.40E-02,1.62E-02
4749,2.32E-02,1.64E-02
4750,2.37E-02,1.55E-02
4751,2.32E-02,1.33E-02
4752,2.34E-02,1.44E-02
4753,2.25E-02,1.59E-02
4754,2.28E-02,1.58E-02
4755,2.31E-02,1.40E-02
4756,2.49E-02,5.26E-02
4757,2.27E-02,5.04E-02
4758,2.04E-02,4.85E-02
4759,1.91E-02,4.70E-02
4760,1.96E-02,4.55E-02
4761,1.99E-02,4.41E-02
4762,1.99E-02,4.27E-02
4763,2.01E-02,4.13E-02
4764,2.00E-02,3.99E-02
4765,2.01E-02,3.85E-02
4766,2.02E-02,3.71E-02
4767,2.03E-02,3.58E-02
4768,2.04E-02,3.44E-02
4769,2.04E-02,3.31E-02
4770,2.04E-02,3.18E-02
4771,2.05E-02,3.05E-02
4772,2.05E-02,2.92E-02
4773,2.06E-02,2.79E-02
4774,2.06E-02,2.66E-02
4775,2.07E-02,2.53E-02
4776,2.07E-02,2.40E-02
4777,2.06E-02,1.41E-02
4778,2.15E-02,1.16E-02
4779,2.19E-02,9.43E-03
4780,2.19E-02,7.63E-03
4781,2.19E-02,6.43E-03
4782,2.15E-02,6.74E-03
4783,2.16E-02,6.11E-03
4784,2.33E-02,1.23E-02
4785,2.31E-02,1.21E-02
4786,2.14E-02,8.02E-03
4787,2.07E-02,2.28E-02
4788,2.06E-02,2.12E-02
4789,2.02E-02,1.96E-02
4790,2.01E-02,1.80E-02
4791,2.00E-02,1.65E-02
4792,2.00E-02,1.50E-02
4793,2.03E-02,1.35E-02
4794,2.07E-02,1.20E-02
4795,2.10E-02,1.06E-02
4796,2.12E-02,9.25E-03
4797,2.32E-02,1.22E-02
4798,2.16E-02,6.50E-03
4799,2.17E-02,6.08E-03
4800,2.17E-02,6.63E-03
4801,2.16E-02,8.01E-03
4802,2.16E-02,9.94E-03
4803,2.13E-02,1.22E-02
4804,2.07E-02,1.48E-02
4805,2.08E-02,2.37E-02
4806,2.09E-02,2.50E-02
4807,2.08E-02,2.63E-02
4808,2.06E-02,2.76E-02
4809,2.06E-02,2.88E-02
4810,2.05E-02,3.01E-02
4811,2.05E-02,3.14E-02
4812,2.04E-02,3.28E-02
4813,2.03E-02,3.41E-02
4814,2.02E-02,3.55E-02
4815,2.01E-02,3.68E-02
4816,2.00E-02,3.82E-02
4817,1.99E-02,3.96E-02
4818,1.98E-02,4.10E-02
4819,1.98E-02,4.24E-02
4820,1.97E-02,4.38E-02
4821,1.95E-02,4.52E-02
4822,1.93E-02,4.67E-02
4823,2.13E-02,4.83E-02
4824,2.30E-02,1.56E-02
4825,2.25E-02,1.75E-02
4826,2.22E-02,1.78E-02
4827,2.32E-02,1.46E-02
4828,2.36E-02,1.57E-02
4829,2.31E-02,1.67E-02
4830,2.32E-02,1.51E-02
4831,2.27E-02,1.56E-02
4832,2.43E-02,1.60E-02
4833,2.52E-02,1.64E-02
4834,2.78E-02,1.68E-02
4835,2.60E-02,1.71E-02
4836,2.27E-02,1.72E-02
4837,2.27E-02,1.75E-02
4838,1.92E-02,1.50E-02
4839,2.59E-02,1.45E-02
4840,2.72E-02,1.40E-02
4841,2.76E-02,1.35E-02
4842,2.84E-02,1.30E-02
4843,2.86E-02,1.25E-02
4844,2.95E-02,1.20E-02
4845,3.02E-02,1.15E-02
4846,3.07E-02,1.10E-02
4847,3.14E-02,1.06E-02
4848,3.21E-02,1.02E-02
4849,3.25E-02,9.89E-03
4850,3.19E-02,8.95E-03
4851,3.17E-02,9.31E-03
4852,3.22E-02,9.69E-03
4853,2.30E-02,4.99E-02
4854,2.62E-02,5.21E-02
4855,2.07E-02,2.24E-02
4856,2.14E-02,7.66E-03
4857,2.33E-02,1.38E-02
4858,2.30E-02,1.35E-02
4859,2.32E-02,1.37E-02
4860,2.13E-02,8.84E-03
4861,2.11E-02,1.02E-02
4862,2.07E-02,1.16E-02
4863,2.03E-02,1.31E-02
4864,2.02E-02,1.46E-02
4865,2.01E-02,1.61E-02
4866,2.02E-02,1.76E-02
4867,2.03E-02,1.92E-02
4868,2.06E-02,2.08E-02
4869,2.41E-02,5.14E-02
4870,3.06E-02,9.31E-03
4871,3.13E-02,9.58E-03
4872,3.15E-02,9.98E-03
4873,3.22E-02,1.02E-02
4874,3.22E-02,1.04E-02
4875,3.15E-02,1.08E-02
4876,3.09E-02,1.12E-02
4877,3.02E-02,1.17E-02
4878,2.95E-02,1.22E-02
4879,2.88E-02,1.27E-02
4880,2.84E-02,1.32E-02
4881,2.76E-02,1.38E-02
4882,2.75E-02,1.43E-02
4883,2.71E-02,1.48E-02
4884,2.58E-02,1.53E-02
4885,2.43E-02,1.58E-02
4886,2.38E-02,1.63E-02
4887,2.37E-02,1.67E-02
4888,2.39E-02,1.72E-02
4889,2.54E-02,1.77E-02
4890,1.87E-02,1.80E-02
4891,1.87E-02,1.84E-02
4892,1.66E-02,1.90E-02
4893,2.09E-02,1.82E-02
4894,2.21E-02,1.86E-02
4895,2.26E-02,1.78E-02
4896,2.32E-02,1.60E-02
4897,2.31E-02,1.69E-02
4898,2.23E-02,1.96E-02
4899,2.24E-02,1.92E-02
4900,2.27E-02,1.72E-02
4901,2.07E-02,4.94E-02
4902,2.12E-02,4.80E-02
4903,2.03E-02,4.64E-02
4904,1.97E-02,4.49E-02
4905,1.96E-02,4.35E-02
4906,1.96E-02,4.21E-02
4907,1.97E-02,4.07E-02
4908,1.98E-02,3.93E-02
4909,2.00E-02,3.79E-02
4910,2.01E-02,3.65E-02
4911,2.02E-02,3.51E-02
4912,2.03E-02,3.38E-02
4913,2.04E-02,3.25E-02
4914,2.04E-02,3.11E-02
4915,2.05E-02,2.98E-02
4916,2.06E-02,2.85E-02
4917,2.07E-02,2.72E-02
4918,2.08E-02,2.59E-02
4919,2.10E-02,2.46E-02
4920,2.09E-02,2.33E-02
4921,2.36E-02,1.57E-02
4922,2.14E-02,1.29E-02
4923,2.16E-02,1.05E-02
4924,2.16E-02,8.42E-03
4925,2.16E-02,6.89E-03
4926,2.16E-02,6.30E-03
4927,2.17E-02,6.11E-03
4928,2.30E-02,1.54E-02
4929,2.30E-02,1.49E-02
4930,2.15E-02,7.32E-03
4931,2.09E-02,2.21E-02
4932,1.83E-02,1.57E-02
4933,2.45E-02,1.66E-02
4934,2.40E-02,1.61E-02
4935,2.07E-02,2.04E-02
4936,2.05E-02,1.88E-02
4937,2.03E-02,1.72E-02
4938,2.02E-02,1.57E-02
4939,2.03E-02,1.42E-02
4940,2.05E-02,1.26E-02
4941,2.08E-02,1.12E-02
4942,2.10E-02,9.75E-03
4943,2.15E-02,8.44E-03
4944,2.30E-02,1.51E-02
4945,2.17E-02,6.14E-03
4946,2.16E-02,6.18E-03
4947,2.16E-02,7.16E-03
4948,2.16E-02,8.85E-03
4949,2.15E-02,1.10E-02
4950,2.19E-02,1.35E-02
4951,2.12E-02,2.30E-02
4952,2.10E-02,2.43E-02
4953,2.08E-02,2.56E-02
4954,2.07E-02,2.69E-02
4955,2.06E-02,2.82E-02
4956,2.05E-02,2.95E-02
4957,2.04E-02,3.08E-02
4958,2.04E-02,3.21E-02
4959,2.03E-02,3.35E-02
4960,2.02E-02,3.48E-02
4961,2.00E-02,3.62E-02
4962,1.99E-02,3.76E-02
4963,1.98E-02,3.90E-02
4964,1.97E-02,4.04E-02
4965,1.96E-02,4.17E-02
4966,1.97E-02,4.31E-02
4967,2.00E-02,4.46E-02
4968,2.04E-02,4.61E-02
4969,2.04E-02,4.75E-02
4970,1.88E-02,5.04E-02
4971,1.92E-02,4.89E-02
4972,1.90E-02,5.23E-02
4973,2.24E-02,1.88E-02
4974,2.25E-02,2.08E-02
4975,2.23E-02,2.14E-02
4976,2.31E-02,1.73E-02
4977,2.26E-02,1.82E-02
4978,2.20E-02,1.90E-02
4979,1.98E-02,1.93E-02
4980,2.10E-02,1.97E-02
4981,2.40E-02,1.71E-02
4982,2.36E-02,1.75E-02
4983,2.33E-02,1.80E-02
4984,2.16E-02,1.85E-02
4985,1.95E-02,1.91E-02
4986,1.92E-02,1.97E-02
4987,2.48E-02,1.74E-02
4988,2.79E-02,1.56E-02
4989,2.74E-02,1.51E-02
4990,2.73E-02,1.45E-02
4991,2.76E-02,1.40E-02
4992,2.82E-02,1.34E-02
4993,2.91E-02,1.29E-02
4994,2.96E-02,1.24E-02
4995,3.06E-02,1.19E-02
4996,3.11E-02,1.14E-02
4997,3.18E-02,1.10E-02
4998,3.21E-02,1.07E-02
4999,3.18E-02,1.04E-02
5000,2.93E-02,9.62E-03
5001,3.09E-02,9.89E-03
5002,3.16E-02,1.02E-02
5003,2.34E-02,1.64E-02
5004,2.08E-02,2.17E-02
5005,2.15E-02,7.00E-03
5006,2.29E-02,1.69E-02
5007,2.30E-02,1.62E-02
5008,2.30E-02,1.66E-02
5009,2.15E-02,8.06E-03
5010,2.11E-02,9.34E-03
5011,2.10E-02,1.07E-02
5012,2.07E-02,1.22E-02
5013,2.03E-02,1.37E-02
5014,2.00E-02,1.53E-02
5015,2.03E-02,1.68E-02
5016,2.06E-02,1.84E-02
5017,2.07E-02,2.01E-02
5018,3.17E-02,1.07E-02
5019,3.03E-02,9.98E-03
5020,3.23E-02,1.02E-02
5021,3.16E-02,1.06E-02
5022,3.20E-02,1.09E-02
5023,3.17E-02,1.12E-02
5024,3.15E-02,1.16E-02
5025,3.05E-02,1.21E-02
5026,2.99E-02,1.26E-02
5027,2.91E-02,1.31E-02
5028,2.81E-02,1.36E-02
5029,2.77E-02,1.42E-02
5030,2.71E-02,1.47E-02
5031,2.73E-02,1.53E-02
5032,2.80E-02,1.58E-02
5033,2.37E-02,1.81E-02
5034,2.38E-02,1.78E-02
5035,2.31E-02,1.83E-02
5036,2.23E-02,1.87E-02
5037,2.15E-02,1.93E-02
5038,2.03E-02,1.99E-02
5039,1.99E-02,2.05E-02
5040,1.98E-02,2.02E-02
5041,2.09E-02,2.07E-02
5042,2.18E-02,2.01E-02
5043,2.27E-02,1.85E-02
5044,2.24E-02,1.93E-02
5045,2.24E-02,2.30E-02
5046,2.24E-02,2.24E-02
5047,2.24E-02,2.03E-02
5048,2.35E-02,5.17E-02
5049,2.09E-02,4.73E-02
5050,2.05E-02,4.58E-02
5051,2.03E-02,4.43E-02
5052,1.99E-02,4.29E-02
5053,1.95E-02,4.14E-02
5054,1.96E-02,4.00E-02
5055,1.98E-02,3.87E-02
5056,1.99E-02,3.73E-02
5057,2.00E-02,3.59E-02
5058,2.01E-02,3.45E-02
5059,2.02E-02,3.32E-02
5060,2.03E-02,3.18E-02
5061,2.04E-02,3.05E-02
5062,2.05E-02,2.91E-02
5063,2.06E-02,2.78E-02
5064,2.07E-02,2.65E-02
5065,2.09E-02,2.52E-02
5066,2.11E-02,2.39E-02
5067,2.11E-02,2.26E-02
5068,1.80E-02,1.67E-02
5069,2.14E-02,1.40E-02
5070,2.17E-02,1.15E-02
5071,2.17E-02,9.30E-03
5072,2.16E-02,7.47E-03
5073,2.17E-02,6.03E-03
5074,2.16E-02,6.30E-03
5075,2.75E-02,1.03E-02
5076,2.27E-02,1.84E-02
5077,2.29E-02,1.76E-02
5078,2.16E-02,6.72E-03
5079,2.10E-02,2.13E-02
5080,2.08E-02,1.97E-02
5081,2.07E-02,1.80E-02
5082,2.05E-02,1.64E-02
5083,2.05E-02,1.49E-02
5084,2.05E-02,1.33E-02
5085,2.07E-02,1.18E-02
5086,2.10E-02,1.03E-02
5087,2.12E-02,8.94E-03
5088,2.16E-02,7.70E-03
5089,2.28E-02,1.80E-02
5090,2.17E-02,5.97E-03
5091,2.16E-02,6.46E-03
5092,2.17E-02,7.82E-03
5093,2.17E-02,9.76E-03
5094,2.16E-02,1.21E-02
5095,2.16E-02,1.47E-02
5096,2.13E-02,2.22E-02
5097,2.10E-02,2.35E-02
5098,2.09E-02,2.48E-02
5099,2.07E-02,2.62E-02
5100,2.06E-02,2.75E-02
5101,2.05E-02,2.88E-02
5102,2.04E-02,3.01E-02
5103,2.03E-02,3.15E-02
5104,2.02E-02,3.29E-02
5105,2.01E-02,3.42E-02
5106,2.00E-02,3.56E-02
5107,1.98E-02,3.70E-02
5108,1.97E-02,3.84E-02
5109,1.96E-02,3.97E-02
5110,1.96E-02,4.11E-02
5111,2.00E-02,4.26E-02
5112,2.04E-02,4.40E-02
5113,2.04E-02,4.55E-02
5114,2.10E-02,4.70E-02
5115,2.24E-02,2.18E-02
5116,2.25E-02,2.39E-02
5117,2.26E-02,2.46E-02
5118,2.23E-02,1.98E-02
5119,2.21E-02,2.05E-02
5120,2.13E-02,2.11E-02
5121,2.03E-02,2.11E-02
5122,2.09E-02,2.16E-02
5123,2.28E-02,1.85E-02
5124,2.24E-02,1.90E-02
5125,2.17E-02,1.95E-02
5126,2.14E-02,2.00E-02
5127,2.11E-02,2.06E-02
5128,2.08E-02,2.13E-02
5129,2.86E-02,1.66E-02
5130,2.69E-02,1.60E-02
5131,2.70E-02,1.55E-02
5132,2.71E-02,1.49E-02
5133,2.78E-02,1.44E-02
5134,2.82E-02,1.38E-02
5135,2.93E-02,1.33E-02
5136,3.01E-02,1.28E-02
5137,3.08E-02,1.23E-02
5138,3.11E-02,1.18E-02
5139,3.18E-02,1.15E-02
5140,3.09E-02,1.06E-02
5141,3.27E-02,1.09E-02
5142,3.19E-02,1.12E-02
5143,3.18E-02,1.10E-02
5144,2.33E-02,1.88E-02
5145,2.10E-02,2.09E-02
5146,2.16E-02,6.46E-03
5147,2.26E-02,1.99E-02
5148,2.28E-02,1.89E-02
5149,2.26E-02,1.94E-02
5150,2.15E-02,7.35E-03
5151,2.12E-02,8.54E-03
5152,2.10E-02,9.90E-03
5153,2.07E-02,1.14E-02
5154,2.06E-02,1.29E-02
5155,2.05E-02,1.44E-02
5156,2.05E-02,1.60E-02
5157,2.06E-02,1.76E-02
5158,2.10E-02,1.93E-02
5159,2.15E-02,1.91E-02
5160,2.11E-02,1.95E-02
5161,3.16E-02,1.14E-02
5162,3.17E-02,1.12E-02
5163,3.41E-02,1.09E-02
5164,3.13E-02,1.12E-02
5165,3.20E-02,1.17E-02
5166,3.15E-02,1.21E-02
5167,3.08E-02,1.25E-02
5168,3.03E-02,1.29E-02
5169,2.94E-02,1.34E-02
5170,2.85E-02,1.40E-02
5171,2.78E-02,1.45E-02
5172,2.71E-02,1.51E-02
5173,2.68E-02,1.57E-02
5174,2.63E-02,1.62E-02
5175,2.63E-02,1.68E-02
5176,2.73E-02,1.73E-02
5177,2.61E-02,1.81E-02
5178,2.29E-02,1.93E-02
5179,2.17E-02,1.97E-02
5180,2.14E-02,2.02E-02
5181,2.13E-02,2.08E-02
5182,2.14E-02,2.14E-02
5183,2.16E-02,2.20E-02
5184,2.10E-02,2.19E-02
5185,2.11E-02,2.25E-02
5186,2.15E-02,2.21E-02
5187,2.22E-02,2.10E-02
5188,2.19E-02,2.16E-02
5189,2.28E-02,2.62E-02
5190,2.28E-02,2.53E-02
5191,2.25E-02,2.32E-02
5192,2.18E-02,4.69E-02
5193,2.06E-02,4.53E-02
5194,2.05E-02,4.37E-02
5195,2.01E-02,4.23E-02
5196,1.97E-02,4.09E-02
5197,1.96E-02,3.95E-02
5198,1.97E-02,3.81E-02
5199,1.98E-02,3.67E-02
5200,1.99E-02,3.53E-02
5201,2.01E-02,3.39E-02
5202,2.02E-02,3.25E-02
5203,2.03E-02,3.12E-02
5204,2.04E-02,2.98E-02
5205,2.05E-02,2.85E-02
5206,2.06E-02,2.71E-02
5207,2.08E-02,2.58E-02
5208,2.09E-02,2.45E-02
5209,2.10E-02,2.32E-02
5210,2.13E-02,2.19E-02
5211,2.28E-02,1.55E-02
5212,2.17E-02,1.26E-02
5213,2.16E-02,1.02E-02
5214,2.16E-02,8.17E-03
5215,2.17E-02,5.94E-03
5216,2.16E-02,6.65E-03
5217,2.25E-02,2.13E-02
5218,2.25E-02,2.02E-02
5219,2.16E-02,6.23E-03
5220,2.12E-02,2.05E-02
5221,2.10E-02,1.89E-02
5222,2.07E-02,1.72E-02
5223,2.05E-02,1.56E-02
5224,2.05E-02,1.40E-02
5225,2.06E-02,1.25E-02
5226,2.08E-02,1.09E-02
5227,2.11E-02,9.49E-03
5228,2.13E-02,8.15E-03
5229,2.17E-02,7.02E-03
5230,2.26E-02,2.07E-02
5231,2.17E-02,5.96E-03
5232,2.16E-02,6.88E-03
5233,2.17E-02,8.54E-03
5234,2.20E-02,1.07E-02
5235,2.23E-02,1.32E-02
5236,2.50E-02,1.61E-02
5237,2.32E-02,2.23E-02
5238,2.86E-02,1.96E-02
5239,2.14E-02,2.15E-02
5240,2.11E-02,2.28E-02
5241,2.09E-02,2.41E-02
5242,2.08E-02,2.55E-02
5243,2.06E-02,2.68E-02
5244,2.05E-02,2.81E-02
5245,2.04E-02,2.95E-02
5246,2.03E-02,3.09E-02
5247,2.02E-02,3.22E-02
5248,2.00E-02,3.36E-02
5249,1.99E-02,3.50E-02
5250,1.98E-02,3.64E-02
5251,1.97E-02,3.78E-02
5252,1.96E-02,3.92E-02
5253,1.98E-02,4.06E-02
5254,2.02E-02,4.20E-02
5255,2.07E-02,4.35E-02
5256,2.14E-02,4.51E-02
5257,2.30E-02,4.69E-02
5258,2.60E-02,5.08E-02
5259,2.27E-02,2.46E-02
5260,2.29E-02,2.67E-02
5261,2.30E-02,2.76E-02
5262,2.21E-02,2.21E-02
5263,2.16E-02,2.26E-02
5264,2.13E-02,2.30E-02
5265,2.16E-02,2.27E-02
5266,2.16E-02,2.33E-02
5267,2.23E-02,1.89E-02
5268,2.51E-02,1.81E-02
5269,2.54E-02,1.75E-02
5270,2.60E-02,1.70E-02
5271,2.62E-02,1.64E-02
5272,2.66E-02,1.58E-02
5273,2.70E-02,1.53E-02
5274,2.79E-02,1.47E-02
5275,2.91E-02,1.42E-02
5276,2.96E-02,1.36E-02
5277,3.04E-02,1.31E-02
5278,3.11E-02,1.27E-02
5279,3.15E-02,1.23E-02
5280,2.79E-02,1.15E-02
5281,3.15E-02,1.15E-02
5282,3.17E-02,1.19E-02
5283,3.16E-02,1.17E-02
5284,2.10E-02,2.02E-02
5285,2.16E-02,6.04E-03
5286,2.23E-02,2.26E-02
5287,2.24E-02,2.15E-02
5288,2.20E-02,2.00E-02
5289,2.13E-02,2.05E-02
5290,2.11E-02,2.09E-02
5291,2.12E-02,2.15E-02
5292,2.17E-02,2.21E-02
5293,1.82E-02,1.97E-02
5294,2.23E-02,2.28E-02
5295,1.88E-02,2.02E-02
5296,2.23E-02,2.20E-02
5297,2.16E-02,6.71E-03
5298,2.14E-02,7.78E-03
5299,2.12E-02,9.08E-03
5300,2.09E-02,1.05E-02
5301,2.06E-02,1.20E-02
5302,2.04E-02,1.36E-02
5303,2.05E-02,1.52E-02
5304,2.08E-02,1.68E-02
5305,2.10E-02,1.85E-02
5306,3.15E-02,1.22E-02
5307,3.12E-02,1.20E-02
5308,3.09E-02,1.18E-02
5309,2.68E-02,1.17E-02
5310,3.16E-02,1.25E-02
5311,3.10E-02,1.29E-02
5312,3.05E-02,1.33E-02
5313,2.99E-02,1.38E-02
5314,2.91E-02,1.43E-02
5315,2.80E-02,1.49E-02
5316,2.73E-02,1.54E-02
5317,2.65E-02,1.60E-02
5318,2.60E-02,1.66E-02
5319,2.53E-02,1.71E-02
5320,2.48E-02,1.77E-02
5321,2.43E-02,1.82E-02
5322,2.25E-02,1.88E-02
5323,1.91E-02,1.95E-02
5324,2.24E-02,2.07E-02
5325,2.28E-02,2.12E-02
5326,2.11E-02,2.16E-02
5327,1.94E-02,2.21E-02
5328,2.19E-02,2.27E-02
5329,2.43E-02,2.35E-02
5330,2.22E-02,2.34E-02
5331,2.18E-02,2.41E-02
5332,2.16E-02,2.39E-02
5333,2.19E-02,2.32E-02
5334,2.16E-02,2.36E-02
5335,2.31E-02,2.89E-02
5336,2.30E-02,2.79E-02
5337,2.27E-02,2.59E-02
5338,2.32E-02,4.67E-02
5339,2.20E-02,4.50E-02
5340,2.10E-02,4.33E-02
5341,2.03E-02,4.18E-02
5342,1.98E-02,4.03E-02
5343,1.96E-02,3.89E-02
5344,1.97E-02,3.75E-02
5345,1.98E-02,3.61E-02
5346,1.99E-02,3.47E-02
5347,2.00E-02,3.33E-02
5348,2.01E-02,3.19E-02
5349,2.03E-02,3.06E-02
5350,2.04E-02,2.92E-02
5351,2.05E-02,2.78E-02
5352,2.06E-02,2.65E-02
5353,2.08E-02,2.51E-02
5354,2.09E-02,2.38E-02
5355,2.11E-02,2.24E-02
5356,2.13E-02,2.11E-02
5357,1.45E-02,2.03E-02
5358,1.39E-02,2.07E-02
5359,2.40E-02,2.25E-02
5360,2.41E-02,2.32E-02
5361,2.39E-02,1.97E-02
5362,2.48E-02,1.67E-02
5363,2.25E-02,1.38E-02
5364,2.23E-02,1.12E-02
5365,2.19E-02,8.92E-03
5366,2.17E-02,6.02E-03
5367,2.17E-02,7.13E-03
5368,2.24E-02,2.39E-02
5369,2.23E-02,2.27E-02
5370,2.17E-02,5.88E-03
5371,2.13E-02,1.98E-02
5372,2.12E-02,1.81E-02
5373,2.09E-02,1.64E-02
5374,2.08E-02,1.48E-02
5375,2.07E-02,1.32E-02
5376,2.08E-02,1.16E-02
5377,2.09E-02,1.01E-02
5378,2.12E-02,8.68E-03
5379,2.15E-02,7.41E-03
5380,2.17E-02,6.42E-03
5381,2.24E-02,2.33E-02
5382,2.35E-02,1.16E-02
5383,2.17E-02,6.12E-03
5384,2.17E-02,7.41E-03
5385,2.21E-02,9.32E-03
5386,2.26E-02,1.17E-02
5387,2.35E-02,1.43E-02
5388,2.44E-02,1.73E-02
5389,2.37E-02,2.04E-02
5390,2.14E-02,2.07E-02
5391,2.11E-02,2.21E-02
5392,2.09E-02,2.34E-02
5393,2.08E-02,2.48E-02
5394,2.06E-02,2.61E-02
5395,2.05E-02,2.75E-02
5396,2.04E-02,2.89E-02
5397,2.03E-02,3.03E-02
5398,2.01E-02,3.16E-02
5399,2.00E-02,3.30E-02
5400,1.99E-02,3.44E-02
5401,1.98E-02,3.58E-02
5402,1.97E-02,3.72E-02
5403,1.96E-02,3.86E-02
5404,1.98E-02,4.00E-02
5405,2.05E-02,4.15E-02
5406,2.13E-02,4.31E-02
5407,2.23E-02,4.48E-02
5408,2.32E-02,4.65E-02
5409,2.45E-02,4.81E-02
5410,2.27E-02,2.71E-02
5411,2.31E-02,2.91E-02
5412,2.35E-02,3.01E-02
5413,2.17E-02,2.42E-02
5414,2.16E-02,2.45E-02
5415,2.14E-02,2.47E-02
5416,2.24E-02,2.42E-02
5417,2.09E-02,2.48E-02
5418,1.39E-02,2.20E-02
5419,1.88E-02,2.25E-02
5420,2.18E-02,2.32E-02
5421,2.56E-02,2.40E-02
5422,1.29E-02,2.18E-02
5423,2.07E-02,2.13E-02
5424,1.48E-02,2.09E-02
5425,1.83E-02,2.02E-02
5426,2.07E-02,1.96E-02
5427,2.28E-02,1.89E-02
5428,2.40E-02,1.84E-02
5429,2.44E-02,1.78E-02
5430,2.49E-02,1.73E-02
5431,2.57E-02,1.67E-02
5432,2.66E-02,1.61E-02
5433,2.76E-02,1.56E-02
5434,2.82E-02,1.50E-02
5435,2.93E-02,1.45E-02
5436,3.01E-02,1.40E-02
5437,3.07E-02,1.35E-02
5438,3.11E-02,1.31E-02
5439,2.97E-02,1.21E-02
5440,3.10E-02,1.22E-02
5441,3.15E-02,1.27E-02
5442,3.12E-02,1.24E-02
5443,2.66E-02,1.20E-02
5444,2.15E-02,1.18E-02
5445,2.12E-02,1.94E-02
5446,2.18E-02,5.76E-03
5447,2.24E-02,2.51E-02
5448,2.22E-02,2.38E-02
5449,2.24E-02,2.45E-02
5450,2.16E-02,6.15E-03
5451,2.15E-02,7.06E-03
5452,2.12E-02,8.28E-03
5453,2.10E-02,9.70E-03
5454,2.07E-02,1.12E-02
5455,2.04E-02,1.28E-02
5456,2.05E-02,1.44E-02
5457,2.07E-02,1.60E-02
5458,2.10E-02,1.77E-02
5459,1.36E-02,1.15E-02
5460,1.79E-02,1.19E-02
5461,2.38E-02,1.22E-02
5462,3.16E-02,1.30E-02
5463,3.10E-02,1.27E-02
5464,3.08E-02,1.25E-02
5465,3.09E-02,1.24E-02
5466,3.14E-02,1.33E-02
5467,3.06E-02,1.37E-02
5468,3.02E-02,1.42E-02
5469,2.95E-02,1.47E-02
5470,2.87E-02,1.52E-02
5471,2.76E-02,1.57E-02
5472,2.68E-02,1.63E-02
5473,2.58E-02,1.69E-02
5474,2.50E-02,1.74E-02
5475,2.43E-02,1.80E-02
5476,2.37E-02,1.86E-02
5477,2.28E-02,1.91E-02
5478,2.13E-02,1.97E-02
5479,1.94E-02,2.03E-02
5480,1.79E-02,2.09E-02
5481,2.04E-02,2.15E-02
5482,1.58E-02,2.24E-02
5483,2.01E-02,2.30E-02
5484,2.21E-02,2.37E-02
5485,2.18E-02,2.44E-02
5486,1.86E-02,2.47E-02
5487,1.69E-02,2.48E-02
5488,1.98E-02,2.54E-02
5489,2.12E-02,2.54E-02
5490,2.18E-02,2.51E-02
5491,2.15E-02,2.53E-02
5492,2.37E-02,3.12E-02
5493,2.36E-02,3.01E-02
5494,2.29E-02,2.82E-02
5495,2.21E-02,4.61E-02
5496,2.19E-02,4.45E-02
5497,2.13E-02,4.29E-02
5498,2.05E-02,4.13E-02
5499,1.99E-02,3.98E-02
5500,1.96E-02,3.84E-02
5501,1.97E-02,3.70E-02
5502,1.98E-02,3.56E-02
5503,1.99E-02,3.42E-02
5504,2.00E-02,3.28E-02
5505,2.01E-02,3.14E-02
5506,2.03E-02,3.00E-02
5507,2.04E-02,2.86E-02
5508,2.05E-02,2.72E-02
5509,2.06E-02,2.58E-02
5510,2.08E-02,2.44E-02
5511,2.09E-02,2.31E-02
5512,2.11E-02,2.17E-02
5513,2.13E-02,2.03E-02
5514,2.41E-02,2.10E-02
5515,2.39E-02,1.78E-02
5516,2.37E-02,1.49E-02
5517,2.30E-02,1.22E-02
5518,2.22E-02,9.74E-03
5519,2.18E-02,6.26E-03
5520,2.18E-02,7.71E-03
5521,2.25E-02,2.63E-02
5522,2.20E-02,2.49E-02
5523,2.18E-02,5.68E-03
5524,2.14E-02,1.90E-02
5525,2.13E-02,1.73E-02
5526,2.11E-02,1.56E-02
5527,2.09E-02,1.40E-02
5528,2.07E-02,1.24E-02
5529,2.07E-02,1.08E-02
5530,2.10E-02,9.29E-03
5531,2.12E-02,7.90E-03
5532,2.16E-02,6.72E-03
5533,2.16E-02,5.91E-03
5534,2.23E-02,2.55E-02
5535,1.79E-02,1.19E-02
5536,2.18E-02,6.43E-03
5537,2.19E-02,8.04E-03
5538,2.22E-02,1.02E-02
5539,2.32E-02,1.26E-02
5540,2.36E-02,1.54E-02
5541,2.38E-02,1.83E-02
5542,2.41E-02,2.15E-02
5543,2.14E-02,2.00E-02
5544,2.11E-02,2.13E-02
5545,2.09E-02,2.27E-02
5546,2.08E-02,2.41E-02
5547,2.06E-02,2.55E-02
5548,2.05E-02,2.69E-02
5549,2.04E-02,2.83E-02
5550,2.02E-02,2.97E-02
5551,2.01E-02,3.11E-02
5552,2.00E-02,3.25E-02
5553,1.99E-02,3.39E-02
5554,1.98E-02,3.53E-02
5555,1.97E-02,3.67E-02
5556,1.96E-02,3.81E-02
5557,1.99E-02,3.96E-02
5558,2.06E-02,4.11E-02
5559,2.13E-02,4.27E-02
5560,2.13E-02,4.43E-02
5561,2.12E-02,4.57E-02
5562,2.34E-02,4.83E-02
5563,3.22E-02,5.01E-02
5564,2.31E-02,2.91E-02
5565,2.37E-02,3.10E-02
5566,2.40E-02,3.21E-02
5567,2.16E-02,2.60E-02
5568,2.13E-02,2.61E-02
5569,2.04E-02,2.61E-02
5570,1.56E-02,2.54E-02
5571,1.90E-02,2.60E-02
5572,2.17E-02,2.51E-02
5573,1.97E-02,2.34E-02
5574,2.13E-02,2.41E-02
5575,2.24E-02,2.47E-02
5576,1.85E-02,2.21E-02
5577,1.78E-02,2.15E-02
5578,1.87E-02,2.09E-02
5579,2.01E-02,2.04E-02
5580,2.16E-02,1.98E-02
5581,2.27E-02,1.93E-02
5582,2.35E-02,1.87E-02
5583,2.42E-02,1.82E-02
5584,2.50E-02,1.76E-02
5585,2.61E-02,1.70E-02
5586,2.71E-02,1.64E-02
5587,2.77E-02,1.59E-02
5588,2.90E-02,1.53E-02
5589,2.97E-02,1.48E-02
5590,3.04E-02,1.43E-02
5591,3.09E-02,1.39E-02
5592,3.09E-02,1.28E-02
5593,3.12E-02,1.30E-02
5594,3.15E-02,1.35E-02
5595,3.13E-02,1.32E-02
5596,3.17E-02,1.27E-02
5597,2.71E-02,1.24E-02
5598,2.12E-02,1.86E-02
5599,2.19E-02,5.64E-03
5600,2.25E-02,2.73E-02
5601,2.21E-02,2.58E-02
5602,2.24E-02,2.66E-02
5603,2.17E-02,5.70E-03
5604,2.15E-02,6.40E-03
5605,2.12E-02,7.52E-03
5606,2.11E-02,8.89E-03
5607,2.08E-02,1.04E-02
5608,2.06E-02,1.20E-02
5609,2.06E-02,1.36E-02
5610,2.08E-02,1.52E-02
5611,2.10E-02,1.69E-02
5612,3.73E-02,1.30E-02
5613,3.18E-02,1.38E-02
5614,3.12E-02,1.35E-02
5615,3.14E-02,1.33E-02
5616,3.20E-02,1.31E-02
5617,3.09E-02,1.41E-02
5618,3.04E-02,1.45E-02
5619,2.99E-02,1.50E-02
5620,2.92E-02,1.55E-02
5621,2.82E-02,1.60E-02
5622,2.73E-02,1.66E-02
5623,2.66E-02,1.72E-02
5624,2.50E-02,1.77E-02
5625,2.41E-02,1.83E-02
5626,2.33E-02,1.89E-02
5627,2.25E-02,1.94E-02
5628,2.15E-02,1.99E-02
5629,2.04E-02,2.05E-02
5630,1.91E-02,2.10E-02
5631,1.76E-02,2.15E-02
5632,1.65E-02,2.20E-02
5633,1.33E-02,2.30E-02
5634,1.21E-02,2.27E-02
5635,1.26E-02,2.32E-02
5636,1.73E-02,2.34E-02
5637,1.90E-02,2.37E-02
5638,2.29E-02,2.44E-02
5639,2.31E-02,2.51E-02
5640,2.46E-02,2.55E-02
5641,1.93E-02,2.59E-02
5642,1.84E-02,2.66E-02
5643,1.98E-02,2.67E-02
5644,2.14E-02,2.68E-02
5645,2.10E-02,2.67E-02
5646,2.42E-02,3.29E-02
5647,2.40E-02,3.18E-02
5648,2.32E-02,3.00E-02
5649,2.60E-02,5.03E-02
5650,2.41E-02,4.85E-02
5651,1.74E-02,4.67E-02
5652,2.05E-02,4.54E-02
5653,2.06E-02,4.40E-02
5654,2.10E-02,4.25E-02
5655,2.05E-02,4.09E-02
5656,2.00E-02,3.94E-02
5657,1.96E-02,3.79E-02
5658,1.97E-02,3.65E-02
5659,1.98E-02,3.51E-02
5660,1.99E-02,3.36E-02
5661,2.00E-02,3.22E-02
5662,2.01E-02,3.08E-02
5663,2.02E-02,2.94E-02
5664,2.04E-02,2.80E-02
5665,2.05E-02,2.66E-02
5666,2.07E-02,2.52E-02
5667,2.08E-02,2.38E-02
5668,2.09E-02,2.24E-02
5669,2.11E-02,2.10E-02
5670,2.14E-02,1.96E-02
5671,2.24E-02,2.73E-02
5672,2.71E-02,2.49E-02
5673,2.48E-02,2.17E-02
5674,2.37E-02,1.88E-02
5675,2.34E-02,1.59E-02
5676,2.30E-02,1.31E-02
5677,2.24E-02,1.06E-02
5678,2.19E-02,6.64E-03
5679,2.19E-02,8.39E-03
5680,2.27E-02,2.83E-02
5681,2.20E-02,2.67E-02
5682,2.19E-02,5.64E-03
5683,2.14E-02,1.82E-02
5684,2.13E-02,1.65E-02
5685,2.12E-02,1.48E-02
5686,2.10E-02,1.32E-02
5687,2.09E-02,1.16E-02
5688,2.08E-02,9.99E-03
5689,2.12E-02,8.49E-03
5690,2.14E-02,7.16E-03
5691,2.17E-02,6.10E-03
5692,2.17E-02,5.53E-03
5693,2.24E-02,2.75E-02
5694,2.20E-02,6.88E-03
5695,2.20E-02,8.76E-03
5696,2.25E-02,1.10E-02
5697,2.28E-02,1.36E-02
5698,2.32E-02,1.63E-02
5699,2.29E-02,1.91E-02
5700,2.49E-02,2.20E-02
5701,2.10E-02,2.71E-02
5702,2.28E-02,2.47E-02
5703,2.14E-02,1.93E-02
5704,2.11E-02,2.07E-02
5705,2.09E-02,2.21E-02
5706,2.08E-02,2.35E-02
5707,2.07E-02,2.49E-02
5708,2.05E-02,2.63E-02
5709,2.04E-02,2.77E-02
5710,2.02E-02,2.91E-02
5711,2.01E-02,3.06E-02
5712,2.00E-02,3.20E-02
5713,1.99E-02,3.34E-02
5714,1.98E-02,3.48E-02
5715,1.97E-02,3.63E-02
5716,1.96E-02,3.77E-02
5717,2.00E-02,3.92E-02
5718,2.05E-02,4.07E-02
5719,2.07E-02,4.22E-02
5720,2.01E-02,4.37E-02
5721,2.00E-02,4.52E-02
5722,2.17E-02,4.67E-02
5723,2.58E-02,4.84E-02
5724,2.57E-02,5.03E-02
5725,2.35E-02,3.07E-02
5726,2.42E-02,3.24E-02
5727,2.46E-02,3.35E-02
5728,2.13E-02,2.74E-02
5729,2.07E-02,2.73E-02
5730,1.98E-02,2.72E-02
5731,1.55E-02,2.64E-02
5732,1.77E-02,2.70E-02
5733,1.65E-02,2.62E-02
5734,2.00E-02,2.58E-02
5735,1.75E-02,2.55E-02
5736,1.92E-02,2.39E-02
5737,2.37E-02,2.46E-02
5738,1.75E-02,2.52E-02
5739,1.80E-02,2.36E-02
5740,1.40E-02,2.26E-02
5741,1.61E-02,2.32E-02
5742,1.67E-02,2.21E-02
5743,1.81E-02,2.16E-02
5744,1.93E-02,2.11E-02
5745,2.05E-02,2.06E-02
5746,2.15E-02,2.01E-02
5747,2.24E-02,1.96E-02
5748,2.34E-02,1.90E-02
5749,2.44E-02,1.84E-02
5750,2.56E-02,1.79E-02
5751,2.67E-02,1.73E-02
5752,2.74E-02,1.67E-02
5753,2.85E-02,1.62E-02
5754,2.95E-02,1.57E-02
5755,3.01E-02,1.52E-02
5756,3.06E-02,1.47E-02
5757,3.14E-02,1.36E-02
5758,3.12E-02,1.38E-02
5759,3.12E-02,1.43E-02
5760,3.17E-02,1.40E-02
5761,3.15E-02,1.35E-02
5762,3.63E-02,1.34E-02
5763,2.12E-02,1.79E-02
5764,2.20E-02,5.69E-03
5765,2.30E-02,2.91E-02
5766,2.17E-02,2.75E-02
5767,2.22E-02,2.83E-02
5768,2.18E-02,5.40E-03
5769,2.16E-02,5.83E-03
5770,2.13E-02,6.80E-03
5771,2.12E-02,8.11E-03
5772,2.09E-02,9.59E-03
5773,2.07E-02,1.12E-02
5774,2.08E-02,1.28E-02
5775,2.10E-02,1.45E-02
5776,2.11E-02,1.62E-02
5777,3.16E-02,1.39E-02
5778,3.15E-02,1.46E-02
5779,3.16E-02,1.43E-02
5780,3.14E-02,1.41E-02
5781,3.14E-02,1.40E-02
5782,3.07E-02,1.49E-02
5783,3.02E-02,1.54E-02
5784,2.95E-02,1.58E-02
5785,2.89E-02,1.63E-02
5786,2.79E-02,1.69E-02
5787,2.70E-02,1.74E-02
5788,2.59E-02,1.80E-02
5789,2.48E-02,1.86E-02
5790,2.35E-02,1.91E-02
5791,2.27E-02,1.97E-02
5792,2.13E-02,2.02E-02
5793,2.05E-02,2.08E-02
5794,1.95E-02,2.13E-02
5795,1.84E-02,2.17E-02
5796,1.70E-02,2.22E-02
5797,1.55E-02,2.27E-02
5798,1.61E-02,2.32E-02
5799,1.80E-02,2.38E-02
5800,2.46E-02,2.42E-02
5801,2.15E-02,2.48E-02
5802,1.81E-02,2.54E-02
5803,1.38E-02,2.59E-02
5804,1.98E-02,2.61E-02
5805,1.74E-02,2.64E-02
5806,1.50E-02,2.68E-02
5807,1.75E-02,2.74E-02
5808,1.94E-02,2.76E-02
5809,2.11E-02,2.80E-02
5810,2.04E-02,2.78E-02
5811,2.47E-02,3.39E-02
5812,2.48E-02,3.28E-02
5813,2.39E-02,3.14E-02
5814,3.09E-02,1.33E-02
5815,3.14E-02,1.38E-02
5816,2.00E-02,5.05E-02
5817,2.20E-02,4.93E-02
5818,2.57E-02,4.80E-02
5819,2.22E-02,4.65E-02
5820,2.02E-02,4.49E-02
5821,2.01E-02,4.34E-02
5822,2.04E-02,4.20E-02
5823,2.04E-02,4.05E-02
5824,2.00E-02,3.90E-02
5825,1.96E-02,3.75E-02
5826,1.97E-02,3.61E-02
5827,1.98E-02,3.46E-02
5828,1.99E-02,3.32E-02
5829,2.00E-02,3.17E-02
5830,2.01E-02,3.03E-02
5831,2.03E-02,2.89E-02
5832,2.04E-02,2.74E-02
5833,2.05E-02,2.60E-02
5834,2.07E-02,2.46E-02
5835,2.08E-02,2.32E-02
5836,2.10E-02,2.17E-02
5837,2.11E-02,2.03E-02
5838,2.14E-02,1.89E-02
5839,2.08E-02,2.74E-02
5840,2.25E-02,2.49E-02
5841,2.38E-02,2.23E-02
5842,2.32E-02,1.94E-02
5843,2.30E-02,1.67E-02
5844,2.28E-02,1.40E-02
5845,2.24E-02,1.14E-02
5846,2.21E-02,7.15E-03
5847,2.21E-02,9.12E-03
5848,2.32E-02,2.98E-02
5849,2.19E-02,2.82E-02
5850,2.20E-02,5.78E-03
5851,2.14E-02,1.75E-02
5852,2.13E-02,1.58E-02
5853,2.11E-02,1.41E-02
5854,2.11E-02,1.24E-02
5855,2.10E-02,1.08E-02
5856,2.10E-02,9.21E-03
5857,2.13E-02,7.74E-03
5858,2.15E-02,6.48E-03
5859,2.18E-02,5.59E-03
5860,2.18E-02,5.31E-03
5861,2.24E-02,2.90E-02
5862,2.21E-02,7.43E-03
5863,2.22E-02,9.48E-03
5864,2.24E-02,1.18E-02
5865,2.26E-02,1.44E-02
5866,2.29E-02,1.70E-02
5867,2.32E-02,1.98E-02
5868,2.28E-02,2.25E-02
5869,2.19E-02,2.79E-02
5870,2.22E-02,2.52E-02
5871,2.12E-02,1.86E-02
5872,2.12E-02,2.00E-02
5873,2.10E-02,2.14E-02
5874,2.08E-02,2.29E-02
5875,2.07E-02,2.43E-02
5876,2.05E-02,2.57E-02
5877,2.04E-02,2.72E-02
5878,2.03E-02,2.86E-02
5879,2.01E-02,3.01E-02
5880,2.00E-02,3.15E-02
5881,1.99E-02,3.30E-02
5882,1.98E-02,3.44E-02
5883,1.97E-02,3.58E-02
5884,1.97E-02,3.73E-02
5885,1.99E-02,3.88E-02
5886,2.02E-02,4.02E-02
5887,2.00E-02,4.17E-02
5888,2.02E-02,4.32E-02
5889,2.10E-02,4.47E-02
5890,2.13E-02,4.62E-02
5891,2.03E-02,4.74E-02
5892,1.95E-02,4.87E-02
5893,1.87E-02,5.05E-02
5894,2.93E-02,1.37E-02
5895,2.96E-02,1.43E-02
5896,2.44E-02,3.18E-02
5897,2.47E-02,3.43E-02
5898,2.54E-02,3.31E-02
5899,2.27E-02,3.46E-02
5900,2.09E-02,2.85E-02
5901,2.00E-02,2.83E-02
5902,1.88E-02,2.80E-02
5903,1.77E-02,2.71E-02
5904,1.79E-02,2.77E-02
5905,1.98E-02,2.68E-02
5906,1.80E-02,2.64E-02
5907,1.69E-02,2.61E-02
5908,2.05E-02,2.45E-02
5909,1.90E-02,2.51E-02
5910,1.82E-02,2.56E-02
5911,1.58E-02,2.42E-02
5912,1.54E-02,2.37E-02
5913,1.63E-02,2.28E-02
5914,1.56E-02,2.33E-02
5915,1.74E-02,2.23E-02
5916,1.86E-02,2.19E-02
5917,1.96E-02,2.14E-02
5918,2.06E-02,2.09E-02
5919,2.15E-02,2.04E-02
5920,2.28E-02,1.98E-02
5921,2.36E-02,1.92E-02
5922,2.54E-02,1.87E-02
5923,2.64E-02,1.81E-02
5924,2.71E-02,1.75E-02
5925,2.84E-02,1.70E-02
5926,2.91E-02,1.65E-02
5927,2.98E-02,1.60E-02
5928,3.03E-02,1.56E-02
5929,3.12E-02,1.45E-02
5930,3.14E-02,1.46E-02
5931,3.09E-02,1.52E-02
5932,3.14E-02,1.49E-02
5933,3.12E-02,1.44E-02
5934,3.12E-02,1.43E-02
5935,2.14E-02,1.72E-02
5936,2.21E-02,5.91E-03
5937,2.32E-02,3.04E-02
5938,2.18E-02,2.88E-02
5939,2.24E-02,2.96E-02
5940,2.19E-02,5.27E-03
5941,2.17E-02,5.38E-03
5942,2.14E-02,6.17E-03
5943,2.13E-02,7.39E-03
5944,2.10E-02,8.84E-03
5945,2.09E-02,1.04E-02
5946,2.10E-02,1.20E-02
5947,2.11E-02,1.37E-02
5948,2.11E-02,1.54E-02
5949,3.03E-02,1.48E-02
5950,3.12E-02,1.54E-02
5951,3.13E-02,1.51E-02
5952,3.12E-02,1.50E-02
5953,3.07E-02,1.48E-02
5954,3.04E-02,1.58E-02
5955,2.99E-02,1.62E-02
5956,2.93E-02,1.66E-02
5957,2.86E-02,1.71E-02
5958,2.76E-02,1.77E-02
5959,2.67E-02,1.82E-02
5960,2.56E-02,1.88E-02
5961,2.44E-02,1.94E-02
5962,2.31E-02,1.99E-02
5963,2.19E-02,2.05E-02
5964,2.08E-02,2.10E-02
5965,1.98E-02,2.15E-02
5966,1.87E-02,2.20E-02
5967,1.77E-02,2.25E-02
5968,1.66E-02,2.29E-02
5969,1.57E-02,2.34E-02
5970,1.42E-02,2.38E-02
5971,1.48E-02,2.42E-02
5972,1.76E-02,2.59E-02
5973,1.69E-02,2.62E-02
5974,1.51E-02,2.66E-02
5975,1.42E-02,2.69E-02
5976,1.56E-02,2.71E-02
5977,1.76E-02,2.74E-02
5978,1.85E-02,2.80E-02
5979,1.89E-02,2.83E-02
5980,2.08E-02,2.89E-02
5981,1.99E-02,2.86E-02
5982,2.78E-02,3.34E-02
5983,2.54E-02,3.22E-02
5984,3.00E-02,1.47E-02
5985,2.78E-02,1.41E-02
5986,2.84E-02,1.47E-02
5987,2.37E-02,5.01E-02
5988,1.69E-02,4.79E-02
5989,1.51E-02,4.69E-02
5990,2.02E-02,4.59E-02
5991,2.06E-02,4.45E-02
5992,2.02E-02,4.30E-02
5993,2.01E-02,4.15E-02
5994,1.99E-02,4.00E-02
5995,1.97E-02,3.86E-02
5996,1.97E-02,3.71E-02
5997,1.98E-02,3.56E-02
5998,1.98E-02,3.42E-02
5999,1.99E-02,3.27E-02
6000,2.00E-02,3.13E-02
6001,2.01E-02,2.98E-02
6002,2.03E-02,2.84E-02
6003,2.04E-02,2.69E-02
6004,2.05E-02,2.55E-02
6005,2.07E-02,2.40E-02
6006,2.08E-02,2.26E-02
6007,2.10E-02,2.11E-02
6008,2.11E-02,1.97E-02
6009,2.14E-02,1.83E-02
6010,2.22E-02,2.84E-02
6011,2.22E-02,2.56E-02
6012,2.24E-02,2.27E-02
6013,2.28E-02,2.00E-02
6014,2.28E-02,1.73E-02
6015,2.26E-02,1.47E-02
6016,2.25E-02,1.22E-02
6017,2.22E-02,7.72E-03
6018,2.23E-02,9.83E-03
6019,2.35E-02,3.09E-02
6020,2.19E-02,2.93E-02
6021,2.21E-02,6.07E-03
6022,2.15E-02,1.68E-02
6023,2.12E-02,1.51E-02
6024,2.11E-02,1.34E-02
6025,2.11E-02,1.17E-02
6026,2.10E-02,1.01E-02
6027,2.11E-02,8.49E-03
6028,2.14E-02,7.06E-03
6029,2.16E-02,5.89E-03
6030,2.19E-02,5.21E-03
6031,2.19E-02,5.26E-03
6032,2.29E-02,3.01E-02
6033,2.23E-02,8.00E-03
6034,2.24E-02,1.02E-02
6035,2.25E-02,1.25E-02
6036,2.27E-02,1.50E-02
6037,2.28E-02,1.76E-02
6038,2.25E-02,2.03E-02
6039,2.23E-02,2.29E-02
6040,2.22E-02,2.86E-02
6041,2.24E-02,2.58E-02
6042,2.14E-02,1.79E-02
6043,2.12E-02,1.94E-02
6044,2.10E-02,2.09E-02
6045,2.08E-02,2.23E-02
6046,2.07E-02,2.38E-02
6047,2.05E-02,2.52E-02
6048,2.04E-02,2.67E-02
6049,2.03E-02,2.82E-02
6050,2.02E-02,2.96E-02
6051,2.00E-02,3.11E-02
6052,1.99E-02,3.25E-02
6053,1.99E-02,3.40E-02
6054,1.98E-02,3.55E-02
6055,1.97E-02,3.69E-02
6056,1.97E-02,3.84E-02
6057,2.00E-02,3.99E-02
6058,2.03E-02,4.13E-02
6059,2.04E-02,4.28E-02
6060,2.01E-02,4.42E-02
6061,1.88E-02,4.55E-02
6062,1.49E-02,4.67E-02
6063,2.19E-02,4.83E-02
6064,2.35E-02,4.99E-02
6065,2.63E-02,1.45E-02
6066,2.76E-02,1.50E-02
6067,2.90E-02,1.52E-02
6068,2.86E-02,3.24E-02
6069,2.07E-02,2.93E-02
6070,1.98E-02,2.89E-02
6071,1.90E-02,2.86E-02
6072,1.76E-02,2.77E-02
6073,1.82E-02,2.82E-02
6074,1.46E-02,2.75E-02
6075,1.47E-02,2.71E-02
6076,1.61E-02,2.68E-02
6077,1.70E-02,2.64E-02
6078,1.77E-02,2.61E-02
6079,1.55E-02,2.47E-02
6080,1.34E-02,2.43E-02
6081,1.49E-02,2.40E-02
6082,1.69E-02,2.30E-02
6083,1.62E-02,2.36E-02
6084,1.79E-02,2.26E-02
6085,1.88E-02,2.21E-02
6086,1.99E-02,2.16E-02
6087,2.11E-02,2.11E-02
6088,2.23E-02,2.06E-02
6089,2.36E-02,2.00E-02
6090,2.48E-02,1.95E-02
6091,2.61E-02,1.89E-02
6092,2.69E-02,1.83E-02
6093,2.82E-02,1.78E-02
6094,2.89E-02,1.73E-02
6095,2.95E-02,1.68E-02
6096,3.00E-02,1.64E-02
6097,3.07E-02,1.53E-02
6098,3.11E-02,1.55E-02
6099,3.07E-02,1.60E-02
6100,3.11E-02,1.57E-02
6101,3.01E-02,1.52E-02
6102,2.99E-02,1.52E-02
6103,2.13E-02,1.65E-02
6104,2.23E-02,6.25E-03
6105,2.42E-02,3.13E-02
6106,2.16E-02,2.97E-02
6107,2.29E-02,3.04E-02
6108,2.21E-02,5.29E-03
6109,2.19E-02,5.08E-03
6110,2.17E-02,5.64E-03
6111,2.14E-02,6.75E-03
6112,2.11E-02,8.15E-03
6113,2.10E-02,9.71E-03
6114,2.10E-02,1.13E-02
6115,2.10E-02,1.30E-02
6116,2.11E-02,1.48E-02
6117,2.98E-02,1.56E-02
6118,3.09E-02,1.62E-02
6119,3.10E-02,1.60E-02
6120,3.07E-02,1.58E-02
6121,3.03E-02,1.57E-02
6122,3.01E-02,1.66E-02
6123,2.97E-02,1.70E-02
6124,2.91E-02,1.74E-02
6125,2.84E-02,1.79E-02
6126,2.74E-02,1.85E-02
6127,2.65E-02,1.90E-02
6128,2.53E-02,1.96E-02
6129,2.41E-02,2.01E-02
6130,2.28E-02,2.07E-02
6131,2.15E-02,2.12E-02
6132,2.05E-02,2.18E-02
6133,1.90E-02,2.22E-02
6134,1.80E-02,2.27E-02
6135,1.71E-02,2.32E-02
6136,1.65E-02,2.37E-02
6137,1.55E-02,2.41E-02
6138,1.44E-02,2.45E-02
6139,1.34E-02,2.48E-02
6140,2.12E-02,2.53E-02
6141,1.73E-02,2.64E-02
6142,1.69E-02,2.67E-02
6143,1.63E-02,2.70E-02
6144,1.55E-02,2.73E-02
6145,1.68E-02,2.76E-02
6146,1.69E-02,2.79E-02
6147,1.81E-02,2.84E-02
6148,1.90E-02,2.88E-02
6149,2.06E-02,2.95E-02
6150,1.98E-02,2.91E-02
6151,2.41E-02,3.38E-02
6152,2.53E-02,3.29E-02
6153,2.82E-02,3.24E-02
6154,2.90E-02,1.56E-02
6155,2.79E-02,1.56E-02
6156,2.49E-02,1.49E-02
6157,2.60E-02,1.55E-02
6158,2.15E-02,4.98E-02
6159,2.02E-02,4.83E-02
6160,1.95E-02,4.67E-02
6161,1.86E-02,4.53E-02
6162,1.98E-02,4.39E-02
6163,2.02E-02,4.25E-02
6164,2.03E-02,4.11E-02
6165,2.01E-02,3.97E-02
6166,1.98E-02,3.82E-02
6167,1.98E-02,3.67E-02
6168,1.98E-02,3.53E-02
6169,1.99E-02,3.38E-02
6170,2.00E-02,3.23E-02
6171,2.01E-02,3.09E-02
6172,2.02E-02,2.94E-02
6173,2.03E-02,2.79E-02
6174,2.04E-02,2.65E-02
6175,2.06E-02,2.50E-02
6176,2.07E-02,2.35E-02
6177,2.08E-02,2.21E-02
6178,2.10E-02,2.06E-02
6179,2.11E-02,1.91E-02
6180,2.14E-02,1.76E-02
6181,2.24E-02,2.87E-02
6182,2.24E-02,2.59E-02
6183,2.25E-02,2.31E-02
6184,2.25E-02,2.04E-02
6185,2.28E-02,1.78E-02
6186,2.27E-02,1.53E-02
6187,2.26E-02,1.28E-02
6188,2.24E-02,8.27E-03
6189,2.24E-02,1.05E-02
6190,2.48E-02,3.14E-02
6191,2.17E-02,2.99E-02
6192,2.22E-02,6.44E-03
6193,2.14E-02,1.62E-02
6194,2.14E-02,1.44E-02
6195,2.12E-02,1.27E-02
6196,2.11E-02,1.10E-02
6197,2.11E-02,9.38E-03
6198,2.12E-02,7.84E-03
6199,2.13E-02,6.46E-03
6200,2.16E-02,5.41E-03
6201,2.19E-02,4.97E-03
6202,2.21E-02,5.35E-03
6203,2.24E-02,3.07E-02
6204,2.24E-02,8.52E-03
6205,2.25E-02,1.07E-02
6206,2.26E-02,1.31E-02
6207,2.27E-02,1.55E-02
6208,2.28E-02,1.80E-02
6209,2.25E-02,2.06E-02
6210,2.26E-02,2.32E-02
6211,2.29E-02,2.87E-02
6212,2.28E-02,2.59E-02
6213,2.13E-02,1.74E-02
6214,2.12E-02,1.88E-02
6215,2.10E-02,2.03E-02
6216,2.09E-02,2.18E-02
6217,2.07E-02,2.33E-02
6218,2.06E-02,2.48E-02
6219,2.04E-02,2.62E-02
6220,2.03E-02,2.77E-02
6221,2.02E-02,2.92E-02
6222,2.01E-02,3.07E-02
6223,2.00E-02,3.21E-02
6224,1.99E-02,3.36E-02
6225,1.98E-02,3.51E-02
6226,1.98E-02,3.65E-02
6227,1.98E-02,3.80E-02
6228,2.00E-02,3.95E-02
6229,2.01E-02,4.09E-02
6230,2.00E-02,4.23E-02
6231,1.94E-02,4.37E-02
6232,1.89E-02,4.51E-02
6233,1.97E-02,4.66E-02
6234,2.06E-02,4.80E-02
6235,2.08E-02,4.96E-02
6236,2.68E-02,1.59E-02
6237,2.85E-02,1.60E-02
6238,2.58E-02,3.22E-02
6239,2.48E-02,3.26E-02
6240,2.46E-02,3.33E-02
6241,2.05E-02,2.97E-02
6242,1.98E-02,2.93E-02
6243,1.90E-02,2.89E-02
6244,1.68E-02,2.81E-02
6245,1.79E-02,2.86E-02
6246,1.62E-02,2.78E-02
6247,1.64E-02,2.75E-02
6248,1.65E-02,2.72E-02
6249,1.50E-02,2.69E-02
6250,1.60E-02,2.66E-02
6251,1.11E-02,2.65E-02
6252,1.95E-02,2.54E-02
6253,1.60E-02,2.58E-02
6254,1.08E-02,2.62E-02
6255,1.41E-02,2.50E-02
6256,1.49E-02,2.46E-02
6257,1.59E-02,2.42E-02
6258,1.73E-02,2.33E-02
6259,1.68E-02,2.38E-02
6260,1.83E-02,2.28E-02
6261,1.96E-02,2.24E-02
6262,2.08E-02,2.18E-02
6263,2.20E-02,2.13E-02
6264,2.34E-02,2.08E-02
6265,2.46E-02,2.02E-02
6266,2.58E-02,1.97E-02
6267,2.70E-02,1.91E-02
6268,2.77E-02,1.86E-02
6269,2.87E-02,1.81E-02
6270,2.93E-02,1.76E-02
6271,2.98E-02,1.72E-02
6272,3.04E-02,1.61E-02
6273,3.08E-02,1.63E-02
6274,3.04E-02,1.68E-02
6275,3.08E-02,1.65E-02
6276,2.97E-02,1.61E-02
6277,2.91E-02,1.60E-02
6278,2.10E-02,1.58E-02
6279,2.24E-02,1.54E-02
6280,2.14E-02,1.59E-02
6281,2.24E-02,6.63E-03
6282,2.42E-02,3.15E-02
6283,2.16E-02,3.01E-02
6284,2.24E-02,3.08E-02
6285,2.22E-02,5.42E-03
6286,2.20E-02,4.90E-03
6287,2.17E-02,5.21E-03
6288,2.15E-02,6.18E-03
6289,2.12E-02,7.54E-03
6290,2.11E-02,9.07E-03
6291,2.11E-02,1.07E-02
6292,2.12E-02,1.24E-02
6293,2.14E-02,1.41E-02
6294,2.28E-02,1.61E-02
6295,2.94E-02,1.65E-02
6296,3.06E-02,1.70E-02
6297,3.07E-02,1.68E-02
6298,3.04E-02,1.66E-02
6299,3.01E-02,1.65E-02
6300,2.99E-02,1.74E-02
6301,2.94E-02,1.78E-02
6302,2.89E-02,1.82E-02
6303,2.82E-02,1.87E-02
6304,2.72E-02,1.92E-02
6305,2.63E-02,1.98E-02
6306,2.51E-02,2.03E-02
6307,2.39E-02,2.09E-02
6308,2.26E-02,2.14E-02
6309,2.12E-02,2.19E-02
6310,2.03E-02,2.24E-02
6311,1.86E-02,2.29E-02
6312,1.76E-02,2.34E-02
6313,1.71E-02,2.39E-02
6314,1.63E-02,2.43E-02
6315,1.54E-02,2.47E-02
6316,1.49E-02,2.51E-02
6317,1.51E-02,2.54E-02
6318,1.51E-02,2.59E-02
6319,1.34E-02,2.63E-02
6320,1.12E-02,2.66E-02
6321,1.40E-02,2.68E-02
6322,1.53E-02,2.71E-02
6323,1.62E-02,2.74E-02
6324,1.67E-02,2.77E-02
6325,1.68E-02,2.80E-02
6326,1.72E-02,2.83E-02
6327,1.80E-02,2.87E-02
6328,1.87E-02,2.91E-02
6329,2.07E-02,2.98E-02
6330,1.97E-02,2.94E-02
6331,2.51E-02,3.28E-02
6332,2.45E-02,3.23E-02
6333,2.45E-02,3.20E-02
6334,2.88E-02,1.64E-02
6335,2.79E-02,1.64E-02
6336,2.63E-02,1.63E-02
6337,2.07E-02,4.94E-02
6338,2.07E-02,4.78E-02
6339,2.03E-02,4.64E-02
6340,1.97E-02,4.49E-02
6341,1.96E-02,4.35E-02
6342,1.98E-02,4.21E-02
6343,2.01E-02,4.07E-02
6344,2.00E-02,3.92E-02
6345,1.99E-02,3.78E-02
6346,1.99E-02,3.63E-02
6347,1.99E-02,3.49E-02
6348,1.99E-02,3.34E-02
6349,2.00E-02,3.19E-02
6350,2.01E-02,3.05E-02
6351,2.02E-02,2.90E-02
6352,2.03E-02,2.75E-02
6353,2.04E-02,2.60E-02
6354,2.06E-02,2.46E-02
6355,2.07E-02,2.31E-02
6356,2.09E-02,2.16E-02
6357,2.10E-02,2.01E-02
6358,2.12E-02,1.86E-02
6359,2.14E-02,1.71E-02
6360,2.32E-02,2.89E-02
6361,2.33E-02,2.60E-02
6362,2.27E-02,2.32E-02
6363,2.27E-02,2.07E-02
6364,2.27E-02,1.81E-02
6365,2.27E-02,1.57E-02
6366,2.26E-02,1.33E-02
6367,2.25E-02,8.74E-03
6368,2.25E-02,1.09E-02
6369,2.39E-02,3.15E-02
6370,2.15E-02,3.03E-02
6371,2.23E-02,6.82E-03
6372,2.13E-02,1.56E-02
6373,2.14E-02,1.38E-02
6374,2.12E-02,1.21E-02
6375,2.12E-02,1.04E-02
6376,2.12E-02,8.78E-03
6377,2.13E-02,7.26E-03
6378,2.14E-02,5.94E-03
6379,2.17E-02,5.03E-03
6380,2.20E-02,4.85E-03
6381,2.22E-02,5.50E-03
6382,2.27E-02,3.09E-02
6383,2.24E-02,8.93E-03
6384,2.25E-02,1.11E-02
6385,2.26E-02,1.34E-02
6386,2.27E-02,1.58E-02
6387,2.27E-02,1.82E-02
6388,2.26E-02,2.07E-02
6389,2.30E-02,2.32E-02
6390,2.35E-02,2.91E-02
6391,2.34E-02,2.60E-02
6392,2.15E-02,1.68E-02
6393,2.12E-02,1.83E-02
6394,2.10E-02,1.98E-02
6395,2.09E-02,2.13E-02
6396,2.07E-02,2.28E-02
6397,2.06E-02,2.43E-02
6398,2.04E-02,2.58E-02
6399,2.03E-02,2.73E-02
6400,2.02E-02,2.88E-02
6401,2.01E-02,3.03E-02
6402,2.00E-02,3.18E-02
6403,2.00E-02,3.32E-02
6404,1.99E-02,3.47E-02
6405,1.99E-02,3.61E-02
6406,2.00E-02,3.76E-02
6407,2.00E-02,3.90E-02
6408,2.01E-02,4.05E-02
6409,1.99E-02,4.19E-02
6410,1.99E-02,4.33E-02
6411,2.02E-02,4.48E-02
6412,2.05E-02,4.62E-02
6413,2.08E-02,4.76E-02
6414,2.08E-02,4.92E-02
6415,2.87E-02,1.68E-02
6416,2.86E-02,1.68E-02
6417,2.40E-02,3.18E-02
6418,2.48E-02,3.19E-02
6419,2.52E-02,3.23E-02
6420,2.06E-02,2.99E-02
6421,1.95E-02,2.95E-02
6422,1.90E-02,2.92E-02
6423,1.72E-02,2.84E-02
6424,1.79E-02,2.88E-02
6425,1.69E-02,2.81E-02
6426,1.66E-02,2.78E-02
6427,1.60E-02,2.75E-02
6428,1.55E-02,2.73E-02
6429,1.49E-02,2.70E-02
6430,1.49E-02,2.67E-02
6431,1.46E-02,2.55E-02
6432,1.47E-02,2.60E-02
6433,1.46E-02,2.64E-02
6434,1.51E-02,2.52E-02
6435,1.60E-02,2.48E-02
6436,1.67E-02,2.44E-02
6437,1.80E-02,2.35E-02
6438,1.75E-02,2.40E-02
6439,1.94E-02,2.30E-02
6440,2.06E-02,2.25E-02
6441,2.19E-02,2.20E-02
6442,2.32E-02,2.15E-02
6443,2.45E-02,2.09E-02
6444,2.54E-02,2.04E-02
6445,2.70E-02,1.98E-02
6446,2.74E-02,1.93E-02
6447,2.85E-02,1.88E-02
6448,2.91E-02,1.84E-02
6449,2.95E-02,1.79E-02
6450,3.01E-02,1.70E-02
6451,3.06E-02,1.71E-02
6452,3.01E-02,1.76E-02
6453,3.06E-02,1.73E-02
6454,2.97E-02,1.69E-02
6455,2.90E-02,1.69E-02
6456,2.33E-02,1.67E-02
6457,2.13E-02,1.53E-02
6458,2.25E-02,6.99E-03
6459,2.36E-02,3.14E-02
6460,2.14E-02,3.03E-02
6461,2.26E-02,3.09E-02
6462,2.23E-02,5.59E-03
6463,2.20E-02,4.81E-03
6464,2.18E-02,4.88E-03
6465,2.15E-02,5.70E-03
6466,2.13E-02,6.99E-03
6467,2.12E-02,8.51E-03
6468,2.12E-02,1.01E-02
6469,2.13E-02,1.18E-02
6470,2.12E-02,1.36E-02
6471,2.94E-02,1.73E-02
6472,3.04E-02,1.78E-02
6473,3.05E-02,1.76E-02
6474,3.04E-02,1.74E-02
6475,2.98E-02,1.73E-02
6476,2.96E-02,1.81E-02
6477,2.92E-02,1.85E-02
6478,2.86E-02,1.90E-02
6479,2.79E-02,1.94E-02
6480,2.71E-02,1.99E-02
6481,2.62E-02,2.05E-02
6482,2.50E-02,2.10E-02
6483,2.38E-02,2.15E-02
6484,2.24E-02,2.21E-02
6485,2.11E-02,2.26E-02
6486,2.01E-02,2.31E-02
6487,1.84E-02,2.36E-02
6488,1.79E-02,2.41E-02
6489,1.71E-02,2.45E-02
6490,1.63E-02,2.49E-02
6491,1.56E-02,2.53E-02
6492,1.50E-02,2.57E-02
6493,1.50E-02,2.61E-02
6494,1.51E-02,2.65E-02
6495,1.51E-02,2.68E-02
6496,1.48E-02,2.71E-02
6497,1.55E-02,2.74E-02
6498,1.59E-02,2.77E-02
6499,1.66E-02,2.80E-02
6500,1.69E-02,2.82E-02
6501,1.74E-02,2.85E-02
6502,1.82E-02,2.89E-02
6503,1.88E-02,2.92E-02
6504,2.06E-02,2.99E-02
6505,1.96E-02,2.96E-02
6506,2.51E-02,3.18E-02
6507,2.47E-02,3.15E-02
6508,2.41E-02,3.15E-02
6509,2.90E-02,1.72E-02
6510,2.85E-02,1.72E-02
6511,2.83E-02,1.72E-02
6512,2.07E-02,4.91E-02
6513,2.08E-02,4.75E-02
6514,2.08E-02,4.60E-02
6515,2.05E-02,4.46E-02
6516,2.02E-02,4.31E-02
6517,2.02E-02,4.17E-02
6518,2.02E-02,4.03E-02
6519,2.01E-02,3.88E-02
6520,2.00E-02,3.74E-02
6521,2.00E-02,3.60E-02
6522,2.00E-02,3.45E-02
6523,2.00E-02,3.30E-02
6524,2.00E-02,3.16E-02
6525,2.01E-02,3.01E-02
6526,2.02E-02,2.86E-02
6527,2.03E-02,2.71E-02
6528,2.05E-02,2.56E-02
6529,2.06E-02,2.41E-02
6530,2.07E-02,2.26E-02
6531,2.09E-02,2.11E-02
6532,2.11E-02,1.96E-02
6533,2.12E-02,1.81E-02
6534,2.15E-02,1.66E-02
6535,2.37E-02,2.90E-02
6536,2.34E-02,2.59E-02
6537,2.31E-02,2.32E-02
6538,2.28E-02,2.07E-02
6539,2.27E-02,1.82E-02
6540,2.27E-02,1.58E-02
6541,2.26E-02,1.35E-02
6542,2.25E-02,9.09E-03
6543,2.25E-02,1.12E-02
6544,2.32E-02,3.13E-02
6545,2.14E-02,3.03E-02
6546,2.23E-02,7.13E-03
6547,2.16E-02,1.51E-02
6548,2.14E-02,1.33E-02
6549,2.13E-02,1.16E-02
6550,2.13E-02,9.87E-03
6551,2.13E-02,8.25E-03
6552,2.13E-02,6.75E-03
6553,2.15E-02,5.49E-03
6554,2.17E-02,4.74E-03
6555,2.20E-02,4.78E-03
6556,2.22E-02,5.67E-03
6557,2.23E-02,3.08E-02
6558,2.41E-02,1.77E-02
6559,2.25E-02,9.21E-03
6560,2.26E-02,1.13E-02
6561,2.26E-02,1.36E-02
6562,2.26E-02,1.59E-02
6563,2.27E-02,1.82E-02
6564,2.29E-02,2.06E-02
6565,2.33E-02,2.30E-02
6566,2.36E-02,2.87E-02
6567,2.35E-02,2.56E-02
6568,2.15E-02,1.63E-02
6569,2.12E-02,1.79E-02
6570,2.10E-02,1.94E-02
6571,2.09E-02,2.09E-02
6572,2.07E-02,2.24E-02
6573,2.06E-02,2.40E-02
6574,2.05E-02,2.55E-02
6575,2.03E-02,2.69E-02
6576,2.02E-02,2.84E-02
6577,2.01E-02,2.99E-02
6578,2.01E-02,3.14E-02
6579,2.00E-02,3.29E-02
6580,2.00E-02,3.43E-02
6581,2.01E-02,3.58E-02
6582,2.01E-02,3.72E-02
6583,2.02E-02,3.86E-02
6584,2.04E-02,4.01E-02
6585,2.05E-02,4.15E-02
6586,2.06E-02,4.30E-02
6587,2.07E-02,4.44E-02
6588,2.09E-02,4.59E-02
6589,2.08E-02,4.73E-02
6590,2.07E-02,4.89E-02
6591,2.88E-02,1.76E-02
6592,2.89E-02,1.76E-02
6593,3.16E-02,1.77E-02
6594,2.93E-02,1.79E-02
6595,2.42E-02,3.12E-02
6596,2.47E-02,3.12E-02
6597,2.53E-02,3.14E-02
6598,2.04E-02,2.99E-02
6599,1.96E-02,2.96E-02
6600,1.90E-02,2.93E-02
6601,1.76E-02,2.86E-02
6602,1.84E-02,2.90E-02
6603,1.72E-02,2.83E-02
6604,1.66E-02,2.81E-02
6605,1.61E-02,2.78E-02
6606,1.57E-02,2.75E-02
6607,1.55E-02,2.72E-02
6608,1.56E-02,2.69E-02
6609,1.54E-02,2.57E-02
6610,1.53E-02,2.62E-02
6611,1.54E-02,2.66E-02
6612,1.60E-02,2.54E-02
6613,1.67E-02,2.50E-02
6614,1.76E-02,2.46E-02
6615,1.95E-02,2.36E-02
6616,1.88E-02,2.41E-02
6617,2.04E-02,2.32E-02
6618,2.18E-02,2.26E-02
6619,2.30E-02,2.21E-02
6620,2.44E-02,2.16E-02
6621,2.56E-02,2.11E-02
6622,2.66E-02,2.05E-02
6623,2.73E-02,2.00E-02
6624,2.83E-02,1.95E-02
6625,2.89E-02,1.91E-02
6626,2.93E-02,1.87E-02
6627,3.02E-02,1.77E-02
6628,3.03E-02,1.79E-02
6629,2.99E-02,1.83E-02
6630,3.03E-02,1.81E-02
6631,2.95E-02,1.77E-02
6632,2.92E-02,1.76E-02
6633,2.14E-02,1.48E-02
6634,2.25E-02,7.26E-03
6635,2.32E-02,3.11E-02
6636,2.15E-02,3.03E-02
6637,2.24E-02,3.07E-02
6638,2.22E-02,5.74E-03
6639,2.21E-02,4.76E-03
6640,2.20E-02,4.61E-03
6641,2.16E-02,5.29E-03
6642,2.14E-02,6.52E-03
6643,2.13E-02,8.01E-03
6644,2.12E-02,9.63E-03
6645,2.13E-02,1.13E-02
6646,2.13E-02,1.31E-02
6647,2.94E-02,1.80E-02
6648,3.01E-02,1.86E-02
6649,3.02E-02,1.83E-02
6650,3.02E-02,1.82E-02
6651,2.99E-02,1.81E-02
6652,2.94E-02,1.89E-02
6653,2.90E-02,1.92E-02
6654,2.84E-02,1.97E-02
6655,2.77E-02,2.01E-02
6656,2.70E-02,2.06E-02
6657,2.60E-02,2.11E-02
6658,2.49E-02,2.16E-02
6659,2.36E-02,2.22E-02
6660,2.24E-02,2.27E-02
6661,2.14E-02,2.32E-02
6662,1.95E-02,2.37E-02
6663,1.96E-02,2.42E-02
6664,1.81E-02,2.46E-02
6665,1.72E-02,2.51E-02
6666,1.65E-02,2.54E-02
6667,1.59E-02,2.58E-02
6668,1.59E-02,2.62E-02
6669,1.57E-02,2.66E-02
6670,1.58E-02,2.69E-02
6671,1.59E-02,2.72E-02
6672,1.59E-02,2.75E-02
6673,1.64E-02,2.78E-02
6674,1.68E-02,2.81E-02
6675,1.73E-02,2.84E-02
6676,1.78E-02,2.87E-02
6677,1.87E-02,2.90E-02
6678,1.92E-02,2.93E-02
6679,2.05E-02,2.99E-02
6680,1.98E-02,2.96E-02
6681,2.57E-02,3.10E-02
6682,2.48E-02,3.09E-02
6683,2.40E-02,3.09E-02
6684,2.60E-02,1.83E-02
6685,2.73E-02,1.85E-02
6686,3.21E-02,1.82E-02
6687,2.89E-02,1.80E-02
6688,2.88E-02,1.80E-02
6689,2.92E-02,1.81E-02
6690,2.07E-02,4.88E-02
6691,2.08E-02,4.72E-02
6692,2.09E-02,4.57E-02
6693,2.09E-02,4.42E-02
6694,2.07E-02,4.28E-02
6695,2.07E-02,4.13E-02
6696,2.05E-02,3.99E-02
6697,2.03E-02,3.85E-02
6698,2.02E-02,3.70E-02
6699,2.01E-02,3.56E-02
6700,2.01E-02,3.41E-02
6701,2.01E-02,3.27E-02
6702,2.01E-02,3.12E-02
6703,2.02E-02,2.97E-02
6704,2.03E-02,2.83E-02
6705,2.04E-02,2.68E-02
6706,2.05E-02,2.53E-02
6707,2.06E-02,2.38E-02
6708,2.08E-02,2.23E-02
6709,2.09E-02,2.07E-02
6710,2.11E-02,1.92E-02
6711,2.12E-02,1.77E-02
6712,2.15E-02,1.61E-02
6713,2.37E-02,2.81E-02
6714,2.35E-02,2.51E-02
6715,2.34E-02,2.28E-02
6716,2.30E-02,2.04E-02
6717,2.27E-02,1.81E-02
6718,2.26E-02,1.58E-02
6719,2.26E-02,1.36E-02
6720,2.25E-02,9.30E-03
6721,2.25E-02,1.14E-02
6722,2.31E-02,3.09E-02
6723,2.13E-02,3.03E-02
6724,2.24E-02,7.35E-03
6725,2.16E-02,1.46E-02
6726,2.14E-02,1.28E-02
6727,2.13E-02,1.11E-02
6728,2.13E-02,9.40E-03
6729,2.14E-02,7.78E-03
6730,2.14E-02,6.31E-03
6731,2.16E-02,5.11E-03
6732,2.19E-02,4.49E-03
6733,2.20E-02,4.74E-03
6734,2.22E-02,5.79E-03
6735,2.21E-02,3.06E-02
6736,2.25E-02,9.35E-03
6737,2.26E-02,1.14E-02
6738,2.26E-02,1.36E-02
6739,2.26E-02,1.58E-02
6740,2.26E-02,1.80E-02
6741,2.30E-02,2.02E-02
6742,2.34E-02,2.24E-02
6743,2.38E-02,2.74E-02
6744,2.36E-02,2.47E-02
6745,2.15E-02,1.59E-02
6746,2.13E-02,1.75E-02
6747,2.11E-02,1.90E-02
6748,2.09E-02,2.05E-02
6749,2.08E-02,2.21E-02
6750,2.06E-02,2.36E-02
6751,2.05E-02,2.51E-02
6752,2.04E-02,2.66E-02
6753,2.03E-02,2.81E-02
6754,2.02E-02,2.96E-02
6755,2.02E-02,3.10E-02
6756,2.01E-02,3.25E-02
6757,2.02E-02,3.40E-02
6758,2.02E-02,3.54E-02
6759,2.03E-02,3.68E-02
6760,2.04E-02,3.83E-02
6761,2.06E-02,3.97E-02
6762,2.07E-02,4.12E-02
6763,2.09E-02,4.26E-02
6764,2.09E-02,4.41E-02
6765,2.09E-02,4.55E-02
6766,2.08E-02,4.70E-02
6767,2.05E-02,4.86E-02
6768,2.87E-02,1.84E-02
6769,2.87E-02,1.84E-02
6770,2.92E-02,1.85E-02
6771,2.84E-02,1.87E-02
6772,2.59E-02,1.90E-02
6773,2.66E-02,1.91E-02
6774,2.40E-02,3.07E-02
6775,2.50E-02,3.08E-02
6776,2.46E-02,3.07E-02
6777,2.06E-02,2.99E-02
6778,2.00E-02,2.96E-02
6779,1.94E-02,2.93E-02
6780,1.81E-02,2.87E-02
6781,1.88E-02,2.90E-02
6782,1.76E-02,2.85E-02
6783,1.70E-02,2.82E-02
6784,1.66E-02,2.79E-02
6785,1.63E-02,2.76E-02
6786,1.62E-02,2.73E-02
6787,1.60E-02,2.69E-02
6788,1.63E-02,2.59E-02
6789,1.63E-02,2.63E-02
6790,1.62E-02,2.66E-02
6791,1.70E-02,2.55E-02
6792,1.78E-02,2.51E-02
6793,1.89E-02,2.47E-02
6794,2.03E-02,2.37E-02
6795,2.00E-02,2.42E-02
6796,2.18E-02,2.32E-02
6797,2.27E-02,2.27E-02
6798,2.45E-02,2.22E-02
6799,2.55E-02,2.17E-02
6800,2.65E-02,2.12E-02
6801,2.72E-02,2.07E-02
6802,2.80E-02,2.02E-02
6803,2.87E-02,1.98E-02
6804,2.91E-02,1.94E-02
6805,3.00E-02,1.85E-02
6806,3.01E-02,1.86E-02
6807,2.97E-02,1.91E-02
6808,3.01E-02,1.88E-02
6809,2.97E-02,1.84E-02
6810,2.92E-02,1.84E-02
6811,2.14E-02,1.44E-02
6812,2.25E-02,7.42E-03
6813,2.32E-02,3.07E-02
6814,2.13E-02,3.02E-02
6815,2.22E-02,3.05E-02
6816,2.24E-02,5.82E-03
6817,2.21E-02,4.70E-03
6818,2.20E-02,4.38E-03
6819,2.17E-02,4.94E-03
6820,2.15E-02,6.10E-03
6821,2.13E-02,7.57E-03
6822,2.13E-02,9.18E-03
6823,2.14E-02,1.09E-02
6824,2.13E-02,1.26E-02
6825,2.94E-02,1.87E-02
6826,2.99E-02,1.93E-02
6827,3.00E-02,1.90E-02
6828,2.99E-02,1.89E-02
6829,2.97E-02,1.88E-02
6830,2.92E-02,1.95E-02
6831,2.88E-02,1.99E-02
6832,2.84E-02,2.03E-02
6833,2.74E-02,2.07E-02
6834,2.71E-02,2.12E-02
6835,2.58E-02,2.17E-02
6836,2.47E-02,2.22E-02
6837,2.36E-02,2.27E-02
6838,2.27E-02,2.32E-02
6839,2.07E-02,2.37E-02
6840,2.05E-02,2.42E-02
6841,1.97E-02,2.47E-02
6842,1.82E-02,2.51E-02
6843,1.74E-02,2.55E-02
6844,1.69E-02,2.59E-02
6845,1.68E-02,2.63E-02
6846,1.68E-02,2.66E-02
6847,1.63E-02,2.70E-02
6848,1.64E-02,2.73E-02
6849,1.67E-02,2.76E-02
6850,1.69E-02,2.79E-02
6851,1.73E-02,2.82E-02
6852,1.78E-02,2.85E-02
6853,1.83E-02,2.88E-02
6854,1.89E-02,2.91E-02
6855,1.96E-02,2.93E-02
6856,2.07E-02,2.99E-02
6857,2.01E-02,2.96E-02
6858,2.72E-02,3.05E-02
6859,2.44E-02,3.06E-02
6860,2.57E-02,1.97E-02
6861,2.60E-02,1.97E-02
6862,2.75E-02,1.93E-02
6863,2.83E-02,1.90E-02
6864,2.89E-02,1.87E-02
6865,2.84E-02,1.87E-02
6866,2.83E-02,1.88E-02
6867,2.05E-02,4.85E-02
6868,2.07E-02,4.69E-02
6869,2.09E-02,4.54E-02
6870,2.08E-02,4.39E-02
6871,2.09E-02,4.25E-02
6872,2.10E-02,4.10E-02
6873,2.07E-02,3.95E-02
6874,2.05E-02,3.81E-02
6875,2.04E-02,3.67E-02
6876,2.03E-02,3.52E-02
6877,2.02E-02,3.38E-02
6878,2.02E-02,3.23E-02
6879,2.02E-02,3.09E-02
6880,2.02E-02,2.94E-02
6881,2.03E-02,2.79E-02
6882,2.04E-02,2.64E-02
6883,2.05E-02,2.49E-02
6884,2.06E-02,2.34E-02
6885,2.08E-02,2.19E-02
6886,2.09E-02,2.04E-02
6887,2.11E-02,1.88E-02
6888,2.12E-02,1.73E-02
6889,2.15E-02,1.57E-02
6890,2.40E-02,2.70E-02
6891,2.38E-02,2.43E-02
6892,2.36E-02,2.21E-02
6893,2.30E-02,1.99E-02
6894,2.26E-02,1.78E-02
6895,2.26E-02,1.57E-02
6896,2.26E-02,1.35E-02
6897,2.25E-02,9.38E-03
6898,2.25E-02,1.14E-02
6899,2.32E-02,3.05E-02
6900,2.14E-02,3.01E-02
6901,2.24E-02,7.47E-03
6902,2.16E-02,1.41E-02
6903,2.15E-02,1.24E-02
6904,2.13E-02,1.07E-02
6905,2.13E-02,8.98E-03
6906,2.14E-02,7.37E-03
6907,2.15E-02,5.92E-03
6908,2.16E-02,4.77E-03
6909,2.18E-02,4.26E-03
6910,2.21E-02,4.66E-03
6911,2.23E-02,5.83E-03
6912,2.22E-02,3.04E-02
6913,2.25E-02,9.38E-03
6914,2.25E-02,1.14E-02
6915,2.26E-02,1.35E-02
6916,2.25E-02,1.55E-02
6917,2.27E-02,1.76E-02
6918,2.32E-02,1.97E-02
6919,2.38E-02,2.18E-02
6920,2.43E-02,2.66E-02
6921,2.44E-02,2.40E-02
6922,2.15E-02,1.55E-02
6923,2.13E-02,1.71E-02
6924,2.11E-02,1.86E-02
6925,2.09E-02,2.02E-02
6926,2.08E-02,2.17E-02
6927,2.07E-02,2.33E-02
6928,2.05E-02,2.48E-02
6929,2.04E-02,2.63E-02
6930,2.03E-02,2.78E-02
6931,2.03E-02,2.92E-02
6932,2.02E-02,3.07E-02
6933,2.03E-02,3.22E-02
6934,2.03E-02,3.36E-02
6935,2.04E-02,3.51E-02
6936,2.05E-02,3.65E-02
6937,2.07E-02,3.79E-02
6938,2.08E-02,3.94E-02
6939,2.09E-02,4.08E-02
6940,2.09E-02,4.23E-02
6941,2.09E-02,4.38E-02
6942,2.09E-02,4.52E-02
6943,2.08E-02,4.67E-02
6944,2.04E-02,4.83E-02
6945,2.82E-02,1.91E-02
6946,2.86E-02,1.91E-02
6947,2.81E-02,1.92E-02
6948,2.73E-02,1.95E-02
6949,2.68E-02,1.98E-02
6950,2.46E-02,3.04E-02
6951,2.63E-02,3.05E-02
6952,1.96E-02,3.05E-02
6953,1.81E-02,3.06E-02
6954,2.08E-02,2.98E-02
6955,2.03E-02,2.96E-02
6956,1.95E-02,2.93E-02
6957,1.85E-02,2.88E-02
6958,1.92E-02,2.90E-02
6959,1.80E-02,2.85E-02
6960,1.75E-02,2.82E-02
6961,1.72E-02,2.79E-02
6962,1.69E-02,2.76E-02
6963,1.66E-02,2.73E-02
6964,1.66E-02,2.69E-02
6965,1.72E-02,2.59E-02
6966,1.71E-02,2.63E-02
6967,1.71E-02,2.66E-02
6968,1.80E-02,2.55E-02
6969,1.92E-02,2.51E-02
6970,2.00E-02,2.47E-02
6971,2.17E-02,2.37E-02
6972,2.13E-02,2.42E-02
6973,2.31E-02,2.33E-02
6974,2.39E-02,2.28E-02
6975,2.57E-02,2.23E-02
6976,2.65E-02,2.18E-02
6977,2.72E-02,2.13E-02
6978,2.77E-02,2.08E-02
6979,2.85E-02,2.04E-02
6980,2.89E-02,2.00E-02
6981,2.49E-02,2.04E-02
6982,2.54E-02,2.03E-02
6983,2.98E-02,1.91E-02
6984,2.99E-02,1.93E-02
6985,2.94E-02,1.97E-02
6986,2.98E-02,1.95E-02
6987,2.95E-02,1.91E-02
6988,2.91E-02,1.90E-02
6989,2.14E-02,1.40E-02
6990,2.26E-02,7.48E-03
6991,2.33E-02,3.04E-02
6992,2.14E-02,3.01E-02
6993,2.24E-02,3.03E-02
6994,2.24E-02,5.83E-03
6995,2.22E-02,4.61E-03
6996,2.20E-02,4.15E-03
6997,2.17E-02,4.61E-03
6998,2.15E-02,5.74E-03
6999,2.14E-02,7.19E-03
7000,2.14E-02,8.80E-03
7001,2.13E-02,1.05E-02
7002,2.14E-02,1.22E-02
7003,2.92E-02,1.94E-02
7004,2.97E-02,1.99E-02
7005,2.98E-02,1.97E-02
7006,2.98E-02,1.95E-02
7007,2.96E-02,1.94E-02
7008,2.39E-02,2.11E-02
7009,2.48E-02,2.09E-02
7010,2.90E-02,2.02E-02
7011,2.88E-02,2.05E-02
7012,2.79E-02,2.09E-02
7013,2.74E-02,2.13E-02
7014,2.67E-02,2.18E-02
7015,2.59E-02,2.23E-02
7016,2.48E-02,2.28E-02
7017,2.36E-02,2.33E-02
7018,2.23E-02,2.37E-02
7019,2.18E-02,2.42E-02
7020,2.06E-02,2.47E-02
7021,1.95E-02,2.51E-02
7022,1.89E-02,2.55E-02
7023,1.77E-02,2.59E-02
7024,1.77E-02,2.62E-02
7025,1.76E-02,2.66E-02
7026,1.70E-02,2.69E-02
7027,1.68E-02,2.72E-02
7028,1.70E-02,2.75E-02
7029,1.73E-02,2.79E-02
7030,1.79E-02,2.82E-02
7031,1.82E-02,2.85E-02
7032,1.86E-02,2.88E-02
7033,1.93E-02,2.90E-02
7034,1.96E-02,2.93E-02
7035,2.09E-02,2.98E-02
7036,2.04E-02,2.95E-02
7037,1.87E-02,3.05E-02
7038,1.95E-02,3.04E-02
7039,2.18E-02,3.04E-02
7040,2.33E-02,3.04E-02
7041,2.61E-02,2.03E-02
7042,2.68E-02,1.99E-02
7043,2.74E-02,1.97E-02
7044,2.88E-02,1.94E-02
7045,2.83E-02,1.94E-02
7046,2.79E-02,1.95E-02
7047,2.02E-02,4.81E-02
7048,2.07E-02,4.65E-02
7049,2.10E-02,4.51E-02
7050,2.08E-02,4.36E-02
7051,2.09E-02,4.22E-02
7052,2.10E-02,4.07E-02
7053,2.09E-02,3.92E-02
7054,2.08E-02,3.78E-02
7055,2.06E-02,3.63E-02
7056,2.05E-02,3.49E-02
7057,2.04E-02,3.34E-02
7058,2.03E-02,3.20E-02
7059,2.03E-02,3.05E-02
7060,2.03E-02,2.91E-02
7061,2.04E-02,2.76E-02
7062,2.04E-02,2.61E-02
7063,2.05E-02,2.46E-02
7064,2.07E-02,2.31E-02
7065,2.08E-02,2.16E-02
7066,2.09E-02,2.00E-02
7067,2.11E-02,1.85E-02
7068,2.12E-02,1.69E-02
7069,2.15E-02,1.53E-02
7070,2.57E-02,2.62E-02
7071,2.48E-02,2.37E-02
7072,2.39E-02,2.16E-02
7073,2.35E-02,1.95E-02
7074,2.28E-02,1.74E-02
7075,2.25E-02,1.54E-02
7076,2.25E-02,1.33E-02
7077,2.25E-02,9.35E-03
7078,2.25E-02,1.13E-02
7079,2.32E-02,3.03E-02
7080,2.15E-02,3.00E-02
7081,2.24E-02,7.48E-03
7082,2.16E-02,1.38E-02
7083,2.17E-02,1.20E-02
7084,2.15E-02,1.03E-02
7085,2.15E-02,8.62E-03
7086,2.15E-02,7.02E-03
7087,2.16E-02,5.57E-03
7088,2.17E-02,4.46E-03
7089,2.19E-02,4.04E-03
7090,2.21E-02,4.55E-03
7091,2.23E-02,5.80E-03
7092,2.23E-02,3.02E-02
7093,2.22E-02,2.19E-02
7094,2.25E-02,9.30E-03
7095,2.25E-02,1.12E-02
7096,2.25E-02,1.32E-02
7097,2.25E-02,1.52E-02
7098,2.28E-02,1.72E-02
7099,2.36E-02,1.92E-02
7100,2.41E-02,2.13E-02
7101,2.78E-02,2.58E-02
7102,2.56E-02,2.32E-02
7103,2.00E-02,2.67E-02
7104,2.64E-02,2.50E-02
7105,2.15E-02,1.52E-02
7106,2.13E-02,1.68E-02
7107,2.11E-02,1.83E-02
7108,2.10E-02,1.99E-02
7109,2.08E-02,2.14E-02
7110,2.07E-02,2.30E-02
7111,2.06E-02,2.45E-02
7112,2.05E-02,2.60E-02
7113,2.04E-02,2.75E-02
7114,2.04E-02,2.89E-02
7115,2.04E-02,3.04E-02
7116,2.04E-02,3.18E-02
7117,2.05E-02,3.33E-02
7118,2.06E-02,3.47E-02
7119,2.07E-02,3.62E-02
7120,2.09E-02,3.76E-02
7121,2.10E-02,3.91E-02
7122,2.12E-02,4.06E-02
7123,2.10E-02,4.20E-02
7124,2.10E-02,4.35E-02
7125,2.11E-02,4.50E-02
7126,2.05E-02,4.64E-02
7127,1.94E-02,4.79E-02
7128,2.80E-02,1.98E-02
7129,2.85E-02,1.97E-02
7130,2.77E-02,1.99E-02
7131,2.71E-02,2.01E-02
7132,2.65E-02,2.04E-02
7133,2.27E-02,3.03E-02
7134,2.11E-02,3.03E-02
7135,1.85E-02,3.04E-02
7136,1.97E-02,3.02E-02
7137,2.10E-02,2.97E-02
7138,2.05E-02,2.95E-02
7139,1.97E-02,2.92E-02
7140,1.87E-02,2.87E-02
7141,1.94E-02,2.89E-02
7142,1.82E-02,2.84E-02
7143,1.81E-02,2.81E-02
7144,1.75E-02,2.78E-02
7145,1.72E-02,2.75E-02
7146,1.71E-02,2.72E-02
7147,1.76E-02,2.69E-02
7148,1.85E-02,2.59E-02
7149,1.83E-02,2.62E-02
7150,1.81E-02,2.65E-02
7151,1.91E-02,2.55E-02
7152,2.01E-02,2.51E-02
7153,2.13E-02,2.46E-02
7154,2.29E-02,2.37E-02
7155,2.25E-02,2.42E-02
7156,2.43E-02,2.32E-02
7157,2.53E-02,2.28E-02
7158,2.63E-02,2.23E-02
7159,2.71E-02,2.18E-02
7160,2.76E-02,2.14E-02
7161,2.84E-02,2.10E-02
7162,2.87E-02,2.06E-02
7163,2.55E-02,2.09E-02
7164,2.43E-02,2.16E-02
7165,2.96E-02,1.98E-02
7166,2.97E-02,1.99E-02
7167,2.92E-02,2.03E-02
7168,2.96E-02,2.01E-02
7169,2.94E-02,1.97E-02
7170,2.90E-02,1.97E-02
7171,2.14E-02,1.36E-02
7172,2.26E-02,7.45E-03
7173,2.26E-02,3.03E-02
7174,2.16E-02,3.00E-02
7175,2.22E-02,3.01E-02
7176,2.24E-02,5.77E-03
7177,2.22E-02,4.48E-03
7178,2.20E-02,3.92E-03
7179,2.18E-02,4.31E-03
7180,2.16E-02,5.41E-03
7181,2.15E-02,6.85E-03
7182,2.14E-02,8.46E-03
7183,2.14E-02,1.01E-02
7184,2.14E-02,1.19E-02
7185,2.03E-02,2.28E-02
7186,2.91E-02,2.00E-02
7187,2.95E-02,2.05E-02
7188,2.96E-02,2.03E-02
7189,2.96E-02,2.01E-02
7190,2.94E-02,2.00E-02
7191,2.40E-02,2.23E-02
7192,2.55E-02,2.15E-02
7193,2.88E-02,2.08E-02
7194,2.84E-02,2.11E-02
7195,2.78E-02,2.15E-02
7196,2.73E-02,2.19E-02
7197,2.66E-02,2.23E-02
7198,2.58E-02,2.28E-02
7199,2.48E-02,2.32E-02
7200,2.35E-02,2.37E-02
7201,2.30E-02,2.41E-02
7202,2.19E-02,2.46E-02
7203,2.07E-02,2.50E-02
7204,1.96E-02,2.54E-02
7205,1.88E-02,2.58E-02
7206,1.85E-02,2.61E-02
7207,1.84E-02,2.64E-02
7208,1.79E-02,2.68E-02
7209,1.75E-02,2.71E-02
7210,1.74E-02,2.74E-02
7211,1.76E-02,2.77E-02
7212,1.82E-02,2.80E-02
7213,1.85E-02,2.84E-02
7214,1.88E-02,2.87E-02
7215,1.95E-02,2.89E-02
7216,2.00E-02,2.91E-02
7217,2.11E-02,2.97E-02
7218,2.03E-02,2.94E-02
7219,1.90E-02,3.00E-02
7220,1.72E-02,3.02E-02
7221,2.11E-02,3.02E-02
7222,2.19E-02,3.02E-02
7223,2.62E-02,2.09E-02
7224,2.70E-02,2.05E-02
7225,2.73E-02,2.03E-02
7226,2.86E-02,2.00E-02
7227,2.82E-02,2.00E-02
7228,2.78E-02,2.01E-02
7229,2.45E-02,4.76E-02
7230,2.10E-02,4.63E-02
7231,2.16E-02,4.48E-02
7232,2.12E-02,4.34E-02
7233,2.12E-02,4.19E-02
7234,2.13E-02,4.05E-02
7235,2.11E-02,3.90E-02
7236,2.10E-02,3.75E-02
7237,2.09E-02,3.61E-02
7238,2.07E-02,3.46E-02
7239,2.06E-02,3.32E-02
7240,2.05E-02,3.17E-02
7241,2.05E-02,3.03E-02
7242,2.04E-02,2.88E-02
7243,2.04E-02,2.73E-02
7244,2.05E-02,2.58E-02
7245,2.06E-02,2.43E-02
7246,2.07E-02,2.28E-02
7247,2.08E-02,2.13E-02
7248,2.10E-02,1.97E-02
7249,2.11E-02,1.82E-02
7250,2.12E-02,1.66E-02
7251,2.15E-02,1.50E-02
7252,1.89E-02,2.58E-02
7253,2.23E-02,2.41E-02
7254,2.52E-02,2.27E-02
7255,2.39E-02,2.09E-02
7256,2.35E-02,1.90E-02
7257,2.28E-02,1.70E-02
7258,2.25E-02,1.50E-02
7259,2.25E-02,1.31E-02
7260,2.25E-02,9.24E-03
7261,2.25E-02,1.12E-02
7262,2.23E-02,3.02E-02
7263,2.16E-02,2.99E-02
7264,2.24E-02,7.41E-03
7265,2.16E-02,1.34E-02
7266,2.16E-02,1.17E-02
7267,2.15E-02,9.98E-03
7268,2.13E-02,8.30E-03
7269,2.14E-02,6.70E-03
7270,2.15E-02,5.26E-03
7271,2.17E-02,4.17E-03
7272,2.19E-02,3.80E-03
7273,2.22E-02,4.40E-03
7274,2.23E-02,5.71E-03
7275,2.21E-02,3.01E-02
7276,1.97E-02,2.55E-02
7277,1.71E-02,2.35E-02
7278,2.25E-02,9.15E-03
7279,2.25E-02,1.10E-02
7280,2.25E-02,1.30E-02
7281,2.25E-02,1.49E-02
7282,2.29E-02,1.68E-02
7283,2.34E-02,1.87E-02
7284,2.33E-02,2.05E-02
7285,2.40E-02,2.22E-02
7286,2.19E-02,2.35E-02
7287,2.15E-02,1.49E-02
7288,2.13E-02,1.65E-02
7289,2.11E-02,1.80E-02
7290,2.10E-02,1.96E-02
7291,2.08E-02,2.12E-02
7292,2.07E-02,2.27E-02
7293,2.06E-02,2.42E-02
7294,2.05E-02,2.57E-02
7295,2.05E-02,2.72E-02
7296,2.05E-02,2.87E-02
7297,2.05E-02,3.01E-02
7298,2.06E-02,3.16E-02
7299,2.07E-02,3.30E-02
7300,2.08E-02,3.45E-02
7301,2.10E-02,3.59E-02
7302,2.11E-02,3.74E-02
7303,2.13E-02,3.89E-02
7304,2.14E-02,4.03E-02
7305,2.13E-02,4.18E-02
7306,2.11E-02,4.33E-02
7307,2.16E-02,4.47E-02
7308,2.79E-02,2.03E-02
7309,2.83E-02,2.03E-02
7310,2.75E-02,2.05E-02
7311,2.71E-02,2.07E-02
7312,2.69E-02,2.10E-02
7313,2.18E-02,3.01E-02
7314,2.11E-02,3.00E-02
7315,2.09E-02,2.96E-02
7316,2.05E-02,2.93E-02
7317,2.00E-02,2.90E-02
7318,1.89E-02,2.86E-02
7319,1.97E-02,2.87E-02
7320,1.85E-02,2.83E-02
7321,1.82E-02,2.80E-02
7322,1.77E-02,2.76E-02
7323,1.75E-02,2.73E-02
7324,1.79E-02,2.70E-02
7325,1.84E-02,2.67E-02
7326,1.92E-02,2.58E-02
7327,1.92E-02,2.61E-02
7328,1.89E-02,2.63E-02
7329,2.03E-02,2.54E-02
7330,2.14E-02,2.50E-02
7331,2.26E-02,2.45E-02
7332,2.41E-02,2.37E-02
7333,2.34E-02,2.41E-02
7334,2.54E-02,2.32E-02
7335,2.62E-02,2.27E-02
7336,2.70E-02,2.23E-02
7337,2.74E-02,2.19E-02
7338,2.80E-02,2.15E-02
7339,2.87E-02,2.12E-02
7340,2.62E-02,2.14E-02
7341,2.57E-02,2.21E-02
7342,2.94E-02,2.03E-02
7343,2.95E-02,2.05E-02
7344,2.90E-02,2.09E-02
7345,2.94E-02,2.06E-02
7346,2.92E-02,2.03E-02
7347,2.88E-02,2.02E-02
7348,2.17E-02,2.32E-02
7349,2.15E-02,1.33E-02
7350,2.26E-02,7.34E-03
7351,2.20E-02,3.01E-02
7352,2.17E-02,2.98E-02
7353,2.20E-02,3.00E-02
7354,2.25E-02,5.64E-03
7355,2.23E-02,4.31E-03
7356,2.21E-02,3.68E-03
7357,2.18E-02,4.02E-03
7358,2.16E-02,5.12E-03
7359,2.16E-02,6.56E-03
7360,2.16E-02,8.16E-03
7361,2.16E-02,9.83E-03
7362,2.14E-02,1.15E-02
7363,2.10E-02,2.40E-02
7364,2.90E-02,2.05E-02
7365,2.92E-02,2.10E-02
7366,2.94E-02,2.08E-02
7367,2.94E-02,2.06E-02
7368,2.93E-02,2.05E-02
7369,2.92E-02,2.29E-02
7370,2.69E-02,2.20E-02
7371,2.86E-02,2.13E-02
7372,2.83E-02,2.16E-02
7373,2.77E-02,2.19E-02
7374,2.72E-02,2.23E-02
7375,2.65E-02,2.27E-02
7376,2.57E-02,2.32E-02
7377,2.51E-02,2.36E-02
7378,2.43E-02,2.40E-02
7379,2.32E-02,2.45E-02
7380,2.20E-02,2.49E-02
7381,2.08E-02,2.53E-02
7382,1.98E-02,2.57E-02
7383,1.94E-02,2.60E-02
7384,1.93E-02,2.62E-02
7385,1.87E-02,2.66E-02
7386,1.84E-02,2.69E-02
7387,1.79E-02,2.72E-02
7388,1.79E-02,2.75E-02
7389,1.82E-02,2.78E-02
7390,1.87E-02,2.81E-02
7391,1.90E-02,2.84E-02
7392,1.98E-02,2.86E-02
7393,2.00E-02,2.89E-02
7394,2.10E-02,2.95E-02
7395,2.06E-02,2.92E-02
7396,1.56E-02,2.96E-02
7397,2.54E-02,2.97E-02
7398,2.25E-02,2.99E-02
7399,2.69E-02,2.15E-02
7400,2.72E-02,2.11E-02
7401,2.74E-02,2.08E-02
7402,2.85E-02,2.05E-02
7403,2.80E-02,2.05E-02
7404,2.76E-02,2.06E-02
7405,1.71E-02,4.44E-02
7406,2.08E-02,4.31E-02
7407,2.13E-02,4.17E-02
7408,2.15E-02,4.03E-02
7409,2.14E-02,3.88E-02
7410,2.12E-02,3.73E-02
7411,2.11E-02,3.58E-02
7412,2.10E-02,3.44E-02
7413,2.08E-02,3.29E-02
7414,2.07E-02,3.15E-02
7415,2.06E-02,3.00E-02
7416,2.06E-02,2.85E-02
7417,2.06E-02,2.71E-02
7418,2.06E-02,2.56E-02
7419,2.06E-02,2.41E-02
7420,2.07E-02,2.26E-02
7421,2.09E-02,2.10E-02
7422,2.10E-02,1.95E-02
7423,2.12E-02,1.79E-02
7424,2.13E-02,1.63E-02
7425,2.15E-02,1.48E-02
7426,2.39E-02,2.16E-02
7427,2.44E-02,2.01E-02
7428,2.36E-02,1.84E-02
7429,2.30E-02,1.66E-02
7430,2.26E-02,1.47E-02
7431,2.25E-02,1.28E-02
7432,2.25E-02,9.06E-03
7433,2.25E-02,1.09E-02
7434,1.98E-02,2.33E-02
7435,2.22E-02,3.00E-02
7436,2.17E-02,2.97E-02
7437,2.24E-02,7.27E-03
7438,2.17E-02,1.31E-02
7439,2.16E-02,1.14E-02
7440,2.15E-02,9.71E-03
7441,2.16E-02,8.03E-03
7442,2.17E-02,6.43E-03
7443,2.17E-02,4.99E-03
7444,2.18E-02,3.89E-03
7445,2.20E-02,3.55E-03
7446,2.22E-02,4.21E-03
7447,2.24E-02,5.56E-03
7448,2.21E-02,2.99E-02
7449,2.25E-02,8.96E-03
7450,2.25E-02,1.08E-02
7451,2.26E-02,1.27E-02
7452,2.27E-02,1.45E-02
7453,2.34E-02,1.63E-02
7454,2.38E-02,1.81E-02
7455,2.49E-02,1.97E-02
7456,2.85E-02,2.15E-02
7457,2.15E-02,1.46E-02
7458,2.13E-02,1.62E-02
7459,2.11E-02,1.78E-02
7460,2.10E-02,1.94E-02
7461,2.09E-02,2.09E-02
7462,2.08E-02,2.25E-02
7463,2.07E-02,2.40E-02
7464,2.06E-02,2.55E-02
7465,2.06E-02,2.70E-02
7466,2.07E-02,2.84E-02
7467,2.07E-02,2.99E-02
7468,2.08E-02,3.13E-02
7469,2.10E-02,3.28E-02
7470,2.11E-02,3.43E-02
7471,2.12E-02,3.57E-02
7472,2.13E-02,3.72E-02
7473,2.15E-02,3.87E-02
7474,2.14E-02,4.02E-02
7475,2.11E-02,4.16E-02
7476,2.04E-02,4.30E-02
7477,2.77E-02,2.08E-02
7478,2.81E-02,2.08E-02
7479,2.74E-02,2.10E-02
7480,2.72E-02,2.12E-02
7481,2.72E-02,2.15E-02
7482,2.40E-02,2.96E-02
7483,2.88E-02,2.94E-02
7484,2.64E-02,2.91E-02
7485,2.11E-02,2.93E-02
7486,2.07E-02,2.90E-02
7487,2.01E-02,2.87E-02
7488,1.91E-02,2.83E-02
7489,1.99E-02,2.84E-02
7490,1.88E-02,2.80E-02
7491,1.82E-02,2.77E-02
7492,1.80E-02,2.74E-02
7493,1.83E-02,2.71E-02
7494,1.86E-02,2.68E-02
7495,1.91E-02,2.64E-02
7496,2.03E-02,2.56E-02
7497,2.00E-02,2.59E-02
7498,1.98E-02,2.61E-02
7499,2.15E-02,2.52E-02
7500,2.27E-02,2.48E-02
7501,2.38E-02,2.44E-02
7502,2.52E-02,2.36E-02
7503,2.48E-02,2.39E-02
7504,2.62E-02,2.31E-02
7505,2.69E-02,2.27E-02
7506,2.74E-02,2.23E-02
7507,2.78E-02,2.20E-02
7508,2.85E-02,2.16E-02
7509,2.71E-02,2.20E-02
7510,2.77E-02,2.27E-02
7511,2.93E-02,2.08E-02
7512,2.93E-02,2.10E-02
7513,1.75E-02,4.43E-02
7514,2.88E-02,2.14E-02
7515,2.92E-02,2.11E-02
7516,3.00E-02,2.37E-02
7517,2.91E-02,2.08E-02
7518,2.87E-02,2.07E-02
7519,2.15E-02,1.30E-02
7520,2.26E-02,7.19E-03
7521,2.26E-02,2.98E-02
7522,2.18E-02,2.96E-02
7523,2.24E-02,2.97E-02
7524,2.25E-02,5.48E-03
7525,2.23E-02,4.11E-03
7526,2.21E-02,3.43E-03
7527,2.19E-02,3.76E-03
7528,2.18E-02,4.86E-03
7529,2.17E-02,6.31E-03
7530,2.15E-02,7.92E-03
7531,2.16E-02,9.59E-03
7532,2.15E-02,1.13E-02
7533,2.88E-02,2.10E-02
7534,2.78E-02,2.45E-02
7535,2.90E-02,2.15E-02
7536,2.48E-02,4.46E-02
7537,2.81E-02,4.64E-02
7538,2.92E-02,2.13E-02
7539,2.92E-02,2.11E-02
7540,2.91E-02,2.10E-02
7541,2.76E-02,2.33E-02
7542,2.72E-02,2.25E-02
7543,2.84E-02,2.17E-02
7544,2.81E-02,2.20E-02
7545,2.76E-02,2.23E-02
7546,2.71E-02,2.27E-02
7547,2.64E-02,2.31E-02
7548,2.56E-02,2.35E-02
7549,2.52E-02,2.39E-02
7550,2.43E-02,2.43E-02
7551,2.32E-02,2.47E-02
7552,2.21E-02,2.51E-02
7553,2.10E-02,2.55E-02
7554,2.05E-02,2.58E-02
7555,2.03E-02,2.60E-02
7556,1.96E-02,2.63E-02
7557,1.90E-02,2.66E-02
7558,1.86E-02,2.69E-02
7559,1.84E-02,2.72E-02
7560,1.84E-02,2.75E-02
7561,1.89E-02,2.78E-02
7562,1.91E-02,2.81E-02
7563,1.98E-02,2.82E-02
7564,2.03E-02,2.86E-02
7565,2.11E-02,2.92E-02
7566,2.07E-02,2.89E-02
7567,2.60E-02,2.86E-02
7568,2.59E-02,2.88E-02
7569,2.45E-02,2.93E-02
7570,2.70E-02,2.20E-02
7571,2.71E-02,2.16E-02
7572,2.72E-02,2.13E-02
7573,2.83E-02,2.10E-02
7574,2.78E-02,2.10E-02
7575,2.74E-02,2.11E-02
7576,2.10E-02,4.30E-02
7577,2.15E-02,4.15E-02
7578,2.16E-02,4.01E-02
7579,2.16E-02,3.86E-02
7580,2.15E-02,3.71E-02
7581,2.13E-02,3.57E-02
7582,2.12E-02,3.42E-02
7583,2.11E-02,3.27E-02
7584,2.10E-02,3.13E-02
7585,2.09E-02,2.98E-02
7586,2.08E-02,2.83E-02
7587,2.07E-02,2.69E-02
7588,2.07E-02,2.54E-02
7589,2.07E-02,2.39E-02
7590,2.08E-02,2.24E-02
7591,2.09E-02,2.08E-02
7592,2.10E-02,1.93E-02
7593,2.12E-02,1.77E-02
7594,2.13E-02,1.61E-02
7595,2.16E-02,1.45E-02
7596,3.19E-02,2.11E-02
7597,2.57E-02,1.93E-02
7598,2.44E-02,1.77E-02
7599,2.37E-02,1.60E-02
7600,2.31E-02,1.43E-02
7601,2.27E-02,1.25E-02
7602,2.26E-02,8.85E-03
7603,2.26E-02,1.07E-02
7604,2.30E-02,2.96E-02
7605,2.18E-02,2.94E-02
7606,2.24E-02,7.09E-03
7607,2.17E-02,1.29E-02
7608,2.16E-02,1.12E-02
7609,2.16E-02,9.49E-03
7610,2.16E-02,7.82E-03
7611,2.16E-02,6.21E-03
7612,2.17E-02,4.75E-03
7613,2.19E-02,3.64E-03
7614,2.20E-02,3.30E-03
7615,2.23E-02,4.00E-03
7616,2.24E-02,5.38E-03
7617,2.25E-02,2.95E-02
7618,2.26E-02,8.73E-03
7619,2.27E-02,1.05E-02
7620,2.28E-02,1.23E-02
7621,2.35E-02,1.40E-02
7622,2.40E-02,1.57E-02
7623,2.46E-02,1.73E-02
7624,2.58E-02,1.88E-02
7625,2.90E-02,2.28E-02
7626,2.91E-02,2.05E-02
7627,2.14E-02,1.44E-02
7628,2.14E-02,1.60E-02
7629,2.12E-02,1.76E-02
7630,2.11E-02,1.92E-02
7631,2.09E-02,2.07E-02
7632,2.08E-02,2.23E-02
7633,2.08E-02,2.38E-02
7634,2.08E-02,2.53E-02
7635,2.08E-02,2.68E-02
7636,2.09E-02,2.82E-02
7637,2.10E-02,2.97E-02
7638,2.11E-02,3.12E-02
7639,2.12E-02,3.26E-02
7640,2.13E-02,3.41E-02
7641,2.15E-02,3.56E-02
7642,2.16E-02,3.71E-02
7643,2.18E-02,3.85E-02
7644,2.18E-02,4.00E-02
7645,2.19E-02,4.14E-02
7646,2.75E-02,2.13E-02
7647,2.80E-02,2.12E-02
7648,2.71E-02,2.14E-02
7649,2.71E-02,2.16E-02
7650,2.71E-02,2.20E-02
7651,2.49E-02,2.90E-02
7652,2.52E-02,2.83E-02
7653,2.58E-02,2.79E-02
7654,2.13E-02,2.89E-02
7655,2.09E-02,2.86E-02
7656,2.04E-02,2.83E-02
7657,1.94E-02,2.79E-02
7658,1.97E-02,2.80E-02
7659,1.88E-02,2.76E-02
7660,1.85E-02,2.74E-02
7661,1.86E-02,2.71E-02
7662,1.89E-02,2.68E-02
7663,1.95E-02,2.65E-02
7664,2.00E-02,2.61E-02
7665,2.15E-02,2.54E-02
7666,2.12E-02,2.56E-02
7667,2.09E-02,2.58E-02
7668,2.28E-02,2.50E-02
7669,2.38E-02,2.46E-02
7670,2.48E-02,2.42E-02
7671,2.60E-02,2.35E-02
7672,2.57E-02,2.38E-02
7673,2.68E-02,2.31E-02
7674,2.72E-02,2.27E-02
7675,2.77E-02,2.24E-02
7676,2.83E-02,2.20E-02
7677,2.69E-02,2.24E-02
7678,2.69E-02,2.31E-02
7679,2.91E-02,2.13E-02
7680,2.91E-02,2.14E-02
7681,2.56E-02,4.72E-02
7682,3.04E-02,4.48E-02
7683,2.33E-02,4.30E-02
7684,2.86E-02,2.18E-02
7685,2.90E-02,2.16E-02
7686,2.74E-02,2.40E-02
7687,2.68E-02,2.52E-02
7688,2.89E-02,2.12E-02
7689,2.85E-02,2.12E-02
7690,2.16E-02,1.28E-02
7691,2.26E-02,6.99E-03
7692,2.35E-02,2.93E-02
7693,2.19E-02,2.92E-02
7694,2.26E-02,2.93E-02
7695,2.26E-02,5.28E-03
7696,2.25E-02,3.89E-03
7697,2.23E-02,3.18E-03
7698,2.20E-02,3.52E-03
7699,2.19E-02,4.65E-03
7700,2.17E-02,6.12E-03
7701,2.16E-02,7.73E-03
7702,2.16E-02,9.40E-03
7703,2.15E-02,1.11E-02
7704,2.87E-02,2.14E-02
7705,2.67E-02,2.47E-02
7706,2.88E-02,2.19E-02
7707,2.56E-02,4.30E-02
7708,3.10E-02,4.48E-02
7709,3.04E-02,4.65E-02
7710,2.89E-02,2.17E-02
7711,2.90E-02,2.15E-02
7712,2.90E-02,2.14E-02
7713,2.68E-02,2.37E-02
7714,2.64E-02,2.30E-02
7715,2.84E-02,2.21E-02
7716,2.78E-02,2.24E-02
7717,2.75E-02,2.27E-02
7718,2.70E-02,2.30E-02
7719,2.64E-02,2.34E-02
7720,2.60E-02,2.37E-02
7721,2.52E-02,2.41E-02
7722,2.44E-02,2.45E-02
7723,2.33E-02,2.49E-02
7724,2.22E-02,2.53E-02
7725,2.17E-02,2.55E-02
7726,2.14E-02,2.56E-02
7727,2.05E-02,2.60E-02
7728,1.98E-02,2.63E-02
7729,1.93E-02,2.66E-02
7730,1.89E-02,2.69E-02
7731,1.88E-02,2.72E-02
7732,1.88E-02,2.74E-02
7733,1.94E-02,2.77E-02
7734,1.99E-02,2.78E-02
7735,2.04E-02,2.81E-02
7736,2.14E-02,2.87E-02
7737,2.09E-02,2.84E-02
7738,2.53E-02,2.73E-02
7739,2.50E-02,2.77E-02
7740,2.48E-02,2.85E-02
7741,2.70E-02,2.24E-02
7742,2.70E-02,2.20E-02
7743,2.70E-02,2.17E-02
7744,2.80E-02,2.14E-02
7745,2.77E-02,2.14E-02
7746,2.73E-02,2.15E-02
7747,2.60E-02,2.65E-02
7748,2.61E-02,2.60E-02
7749,2.29E-02,4.14E-02
7750,2.22E-02,3.99E-02
7751,2.19E-02,3.85E-02
7752,2.17E-02,3.70E-02
7753,2.16E-02,3.55E-02
7754,2.14E-02,3.41E-02
7755,2.13E-02,3.26E-02
7756,2.12E-02,3.11E-02
7757,2.11E-02,2.96E-02
7758,2.10E-02,2.82E-02
7759,2.09E-02,2.67E-02
7760,2.08E-02,2.52E-02
7761,2.08E-02,2.37E-02
7762,2.09E-02,2.22E-02
7763,2.10E-02,2.07E-02
7764,2.11E-02,1.91E-02
7765,2.12E-02,1.75E-02
7766,2.13E-02,1.59E-02
7767,2.16E-02,1.43E-02
7768,2.93E-02,2.23E-02
7769,2.82E-02,2.01E-02
7770,2.64E-02,1.85E-02
7771,2.52E-02,1.69E-02
7772,2.44E-02,1.53E-02
7773,2.36E-02,1.37E-02
7774,2.31E-02,1.20E-02
7775,2.27E-02,8.59E-03
7776,2.27E-02,1.03E-02
7777,2.38E-02,2.90E-02
7778,2.21E-02,2.90E-02
7779,2.25E-02,6.88E-03
7780,2.17E-02,1.27E-02
7781,2.16E-02,1.10E-02
7782,2.16E-02,9.32E-03
7783,2.17E-02,7.65E-03
7784,2.17E-02,6.05E-03
7785,2.18E-02,4.56E-03
7786,2.19E-02,3.42E-03
7787,2.21E-02,3.06E-03
7788,2.23E-02,3.77E-03
7789,2.25E-02,5.17E-03
7790,2.28E-02,2.90E-02
7791,2.27E-02,8.42E-03
7792,2.29E-02,1.01E-02
7793,2.32E-02,1.17E-02
7794,2.40E-02,1.33E-02
7795,2.47E-02,1.49E-02
7796,2.57E-02,1.64E-02
7797,2.68E-02,1.80E-02
7798,2.90E-02,2.18E-02
7799,2.91E-02,1.95E-02
7800,2.14E-02,1.43E-02
7801,2.14E-02,1.59E-02
7802,2.12E-02,1.75E-02
7803,2.11E-02,1.90E-02
7804,2.10E-02,2.06E-02
7805,2.09E-02,2.21E-02
7806,2.09E-02,2.36E-02
7807,2.09E-02,2.51E-02
7808,2.10E-02,2.66E-02
7809,2.11E-02,2.81E-02
7810,2.12E-02,2.96E-02
7811,2.13E-02,3.11E-02
7812,2.14E-02,3.25E-02
7813,2.16E-02,3.40E-02
7814,2.17E-02,3.55E-02
7815,2.18E-02,3.70E-02
7816,2.22E-02,3.84E-02
7817,2.28E-02,3.99E-02
7818,2.51E-02,2.72E-02
7819,2.52E-02,2.67E-02
7820,2.74E-02,2.17E-02
7821,2.78E-02,2.16E-02
7822,2.69E-02,2.18E-02
7823,2.69E-02,2.20E-02
7824,2.70E-02,2.24E-02
7825,2.46E-02,2.80E-02
7826,2.49E-02,2.72E-02
7827,2.52E-02,2.67E-02
7828,2.14E-02,2.84E-02
7829,2.11E-02,2.81E-02
7830,2.02E-02,2.78E-02
7831,1.92E-02,2.75E-02
7832,1.99E-02,2.75E-02
7833,1.89E-02,2.72E-02
7834,1.90E-02,2.69E-02
7835,1.93E-02,2.67E-02
7836,1.97E-02,2.64E-02
7837,2.03E-02,2.61E-02
7838,2.11E-02,2.58E-02
7839,2.27E-02,2.51E-02
7840,2.23E-02,2.53E-02
7841,2.20E-02,2.55E-02
7842,2.40E-02,2.47E-02
7843,2.49E-02,2.44E-02
7844,2.55E-02,2.40E-02
7845,2.67E-02,2.33E-02
7846,2.65E-02,2.36E-02
7847,2.71E-02,2.30E-02
7848,2.76E-02,2.27E-02
7849,2.83E-02,2.24E-02
7850,2.66E-02,2.29E-02
7851,2.62E-02,2.35E-02
7852,2.89E-02,2.16E-02
7853,2.89E-02,2.18E-02
7854,2.79E-02,4.63E-02
7855,2.73E-02,4.46E-02
7856,2.65E-02,4.30E-02
7857,2.37E-02,4.15E-02
7858,2.85E-02,2.21E-02
7859,2.88E-02,2.19E-02
7860,2.65E-02,2.44E-02
7861,2.61E-02,2.54E-02
7862,2.88E-02,2.16E-02
7863,2.82E-02,2.16E-02
7864,2.16E-02,1.26E-02
7865,2.27E-02,6.75E-03
7866,2.39E-02,2.86E-02
7867,2.21E-02,2.87E-02
7868,2.30E-02,2.87E-02
7869,2.26E-02,5.05E-03
7870,2.24E-02,3.65E-03
7871,2.22E-02,2.94E-03
7872,2.22E-02,3.32E-03
7873,2.20E-02,4.49E-03
7874,2.18E-02,5.98E-03
7875,2.17E-02,7.59E-03
7876,2.17E-02,9.26E-03
7877,2.17E-02,1.09E-02
7878,2.84E-02,2.17E-02
7879,2.59E-02,2.50E-02
7880,2.86E-02,2.22E-02
7881,2.46E-02,4.14E-02
7882,2.63E-02,4.30E-02
7883,2.87E-02,2.20E-02
7884,2.88E-02,2.19E-02
7885,2.88E-02,2.18E-02
7886,2.60E-02,2.41E-02
7887,2.64E-02,2.33E-02
7888,2.83E-02,2.24E-02
7889,2.78E-02,2.27E-02
7890,2.73E-02,2.30E-02
7891,2.69E-02,2.33E-02
7892,2.65E-02,2.35E-02
7893,2.61E-02,2.39E-02
7894,2.53E-02,2.42E-02
7895,2.44E-02,2.46E-02
7896,2.34E-02,2.50E-02
7897,2.29E-02,2.51E-02
7898,2.25E-02,2.53E-02
7899,2.16E-02,2.56E-02
7900,2.07E-02,2.59E-02
7901,2.01E-02,2.62E-02
7902,1.96E-02,2.64E-02
7903,1.93E-02,2.67E-02
7904,1.90E-02,2.70E-02
7905,1.93E-02,2.72E-02
7906,1.97E-02,2.72E-02
7907,2.04E-02,2.75E-02
7908,2.15E-02,2.81E-02
7909,2.10E-02,2.78E-02
7910,2.51E-02,2.60E-02
7911,2.47E-02,2.66E-02
7912,2.44E-02,2.75E-02
7913,2.67E-02,2.28E-02
7914,2.69E-02,2.24E-02
7915,2.68E-02,2.21E-02
7916,2.80E-02,2.17E-02
7917,2.74E-02,2.18E-02
7918,2.71E-02,2.19E-02
7919,2.71E-02,4.62E-02
7920,2.65E-02,4.46E-02
7921,2.53E-02,2.62E-02
7922,2.46E-02,2.80E-02
7923,2.47E-02,2.74E-02
7924,2.35E-02,3.99E-02
7925,2.25E-02,3.84E-02
7926,2.22E-02,3.70E-02
7927,2.18E-02,3.55E-02
7928,2.17E-02,3.40E-02
7929,2.16E-02,3.25E-02
7930,2.14E-02,3.10E-02
7931,2.13E-02,2.95E-02
7932,2.12E-02,2.81E-02
7933,2.11E-02,2.66E-02
7934,2.10E-02,2.51E-02
7935,2.10E-02,2.36E-02
7936,2.10E-02,2.21E-02
7937,2.10E-02,2.05E-02
7938,2.11E-02,1.90E-02
7939,2.13E-02,1.74E-02
7940,2.14E-02,1.58E-02
7941,2.17E-02,1.42E-02
7942,2.83E-02,2.13E-02
7943,3.30E-02,1.89E-02
7944,2.66E-02,1.74E-02
7945,2.59E-02,1.60E-02
7946,2.50E-02,1.45E-02
7947,2.43E-02,1.30E-02
7948,2.33E-02,1.14E-02
7949,2.28E-02,8.24E-03
7950,2.29E-02,9.86E-03
7951,2.38E-02,2.82E-02
7952,2.20E-02,2.84E-02
7953,2.26E-02,6.61E-03
7954,2.15E-02,1.26E-02
7955,2.18E-02,1.09E-02
7956,2.17E-02,9.21E-03
7957,2.18E-02,7.55E-03
7958,2.19E-02,5.93E-03
7959,2.18E-02,4.43E-03
7960,2.20E-02,3.24E-03
7961,2.21E-02,2.83E-03
7962,2.25E-02,3.52E-03
7963,2.27E-02,4.92E-03
7964,2.29E-02,2.83E-02
7965,2.28E-02,8.03E-03
7966,2.30E-02,9.59E-03
7967,2.36E-02,1.11E-02
7968,2.44E-02,1.26E-02
7969,2.49E-02,1.40E-02
7970,2.55E-02,1.54E-02
7971,2.51E-02,1.67E-02
7972,2.15E-02,1.42E-02
7973,2.15E-02,1.58E-02
7974,2.13E-02,1.74E-02
7975,2.12E-02,1.90E-02
7976,2.11E-02,2.05E-02
7977,2.10E-02,2.20E-02
7978,2.11E-02,2.36E-02
7979,2.11E-02,2.51E-02
7980,2.12E-02,2.65E-02
7981,2.13E-02,2.80E-02
7982,2.14E-02,2.95E-02
7983,2.16E-02,3.10E-02
7984,2.17E-02,3.25E-02
7985,2.18E-02,3.40E-02
7986,2.19E-02,3.55E-02
7987,2.22E-02,3.69E-02
7988,2.30E-02,3.84E-02
7989,2.42E-02,2.88E-02
7990,2.43E-02,2.82E-02
7991,2.47E-02,2.68E-02
7992,2.64E-02,4.45E-02
7993,2.63E-02,4.61E-02
7994,2.71E-02,2.20E-02
7995,2.77E-02,2.19E-02
7996,2.67E-02,2.21E-02
7997,2.67E-02,2.24E-02
7998,2.69E-02,2.27E-02
7999,2.44E-02,2.70E-02
8000,2.48E-02,2.60E-02
8001,2.53E-02,2.54E-02
8002,2.16E-02,2.77E-02
8003,2.10E-02,2.75E-02
8004,2.02E-02,2.72E-02
8005,1.94E-02,2.70E-02
8006,1.98E-02,2.69E-02
8007,1.92E-02,2.67E-02
8008,1.96E-02,2.65E-02
8009,2.01E-02,2.62E-02
8010,2.05E-02,2.59E-02
8011,2.13E-02,2.57E-02
8012,2.21E-02,2.54E-02
8013,2.39E-02,2.48E-02
8014,2.35E-02,2.50E-02
8015,2.31E-02,2.51E-02
8016,2.49E-02,2.45E-02
8017,2.57E-02,2.41E-02
8018,2.62E-02,2.38E-02
8019,2.71E-02,2.32E-02
8020,2.68E-02,2.35E-02
8021,2.75E-02,2.29E-02
8022,2.81E-02,2.27E-02
8023,2.66E-02,2.32E-02
8024,2.61E-02,2.38E-02
8025,2.87E-02,2.20E-02
8026,2.87E-02,2.21E-02
8027,2.61E-02,4.30E-02
8028,2.53E-02,4.14E-02
8029,2.41E-02,3.99E-02
8030,2.83E-02,2.24E-02
8031,2.86E-02,2.22E-02
8032,2.57E-02,2.47E-02
8033,2.52E-02,2.57E-02
8034,2.85E-02,2.19E-02
8035,2.82E-02,2.19E-02
8036,2.61E-02,2.10E-02
8037,2.68E-02,1.88E-02
8038,2.56E-02,1.75E-02
8039,2.17E-02,1.25E-02
8040,2.29E-02,6.44E-03
8041,2.38E-02,2.78E-02
8042,2.22E-02,2.80E-02
8043,2.29E-02,2.79E-02
8044,2.27E-02,4.77E-03
8045,2.25E-02,3.39E-03
8046,2.24E-02,2.71E-03
8047,2.21E-02,3.17E-03
8048,2.19E-02,4.40E-03
8049,2.20E-02,5.90E-03
8050,2.18E-02,7.52E-03
8051,2.18E-02,9.18E-03
8052,2.16E-02,1.08E-02
8053,2.06E-02,1.90E-02
8054,2.37E-02,2.06E-02
8055,2.82E-02,2.20E-02
8056,2.53E-02,2.53E-02
8057,2.84E-02,2.24E-02
8058,2.45E-02,3.99E-02
8059,2.54E-02,4.14E-02
8060,2.85E-02,2.23E-02
8061,2.86E-02,2.21E-02
8062,2.87E-02,2.21E-02
8063,2.59E-02,2.44E-02
8064,2.63E-02,2.37E-02
8065,2.81E-02,2.26E-02
8066,2.76E-02,2.29E-02
8067,2.72E-02,2.32E-02
8068,2.69E-02,2.34E-02
8069,2.65E-02,2.37E-02
8070,2.59E-02,2.40E-02
8071,2.53E-02,2.43E-02
8072,2.44E-02,2.46E-02
8073,2.39E-02,2.48E-02
8074,2.36E-02,2.49E-02
8075,2.27E-02,2.52E-02
8076,2.17E-02,2.54E-02
8077,2.10E-02,2.57E-02
8078,2.05E-02,2.59E-02
8079,2.00E-02,2.62E-02
8080,1.96E-02,2.64E-02
8081,1.94E-02,2.67E-02
8082,1.98E-02,2.66E-02
8083,2.02E-02,2.68E-02
8084,2.16E-02,2.74E-02
8085,2.09E-02,2.71E-02
8086,2.60E-02,2.48E-02
8087,2.50E-02,2.55E-02
8088,2.43E-02,2.65E-02
8089,2.67E-02,2.31E-02
8090,2.67E-02,2.27E-02
8091,2.65E-02,2.24E-02
8092,2.78E-02,2.20E-02
8093,2.75E-02,2.21E-02
8094,2.70E-02,2.22E-02
8095,2.61E-02,4.61E-02
8096,2.61E-02,4.45E-02
8097,2.60E-02,4.29E-02
8098,2.48E-02,2.63E-02
8099,2.44E-02,2.75E-02
8100,2.38E-02,2.96E-02
8101,2.40E-02,2.89E-02
8102,2.33E-02,3.84E-02
8103,2.25E-02,3.69E-02
8104,2.20E-02,3.55E-02
8105,2.19E-02,3.40E-02
8106,2.18E-02,3.25E-02
8107,2.17E-02,3.10E-02
8108,2.16E-02,2.95E-02
8109,2.15E-02,2.80E-02
8110,2.13E-02,2.65E-02
8111,2.13E-02,2.50E-02
8112,2.12E-02,2.35E-02
8113,2.11E-02,2.20E-02
8114,2.11E-02,2.05E-02
8115,2.12E-02,1.89E-02
8116,2.13E-02,1.74E-02
8117,2.14E-02,1.58E-02
8118,2.17E-02,1.41E-02
8119,2.62E-02,1.61E-02
8120,2.49E-02,1.49E-02
8121,2.48E-02,1.36E-02
8122,2.44E-02,1.22E-02
8123,2.38E-02,1.07E-02
8124,2.30E-02,7.78E-03
8125,2.31E-02,9.28E-03
8126,2.29E-02,1.69E-02
8127,2.16E-02,1.86E-02
8128,2.37E-02,2.73E-02
8129,2.21E-02,2.76E-02
8130,2.29E-02,6.25E-03
8131,2.18E-02,1.25E-02
8132,2.18E-02,1.08E-02
8133,2.18E-02,9.16E-03
8134,2.19E-02,7.51E-03
8135,2.20E-02,5.90E-03
8136,2.22E-02,4.38E-03
8137,2.22E-02,3.13E-03
8138,2.23E-02,2.61E-03
8139,2.25E-02,3.24E-03
8140,2.28E-02,4.60E-03
8141,2.29E-02,2.75E-02
8142,2.17E-02,2.04E-02
8143,2.29E-02,7.52E-03
8144,2.32E-02,8.95E-03
8145,2.39E-02,1.04E-02
8146,2.46E-02,1.18E-02
8147,2.48E-02,1.31E-02
8148,2.49E-02,1.44E-02
8149,2.41E-02,1.55E-02
8150,2.15E-02,1.41E-02
8151,2.15E-02,1.57E-02
8152,2.13E-02,1.73E-02
8153,2.12E-02,1.89E-02
8154,2.12E-02,2.05E-02
8155,2.12E-02,2.20E-02
8156,2.13E-02,2.35E-02
8157,2.14E-02,2.50E-02
8158,2.15E-02,2.65E-02
8159,2.16E-02,2.80E-02
8160,2.17E-02,2.95E-02
8161,2.18E-02,3.10E-02
8162,2.19E-02,3.25E-02
8163,2.21E-02,3.40E-02
8164,2.21E-02,3.55E-02
8165,2.28E-02,3.69E-02
8166,2.36E-02,3.04E-02
8167,2.37E-02,2.96E-02
8168,2.40E-02,2.82E-02
8169,2.44E-02,2.69E-02
8170,2.60E-02,4.29E-02
8171,2.61E-02,4.44E-02
8172,2.59E-02,4.60E-02
8173,2.70E-02,2.23E-02
8174,2.75E-02,2.22E-02
8175,2.66E-02,2.24E-02
8176,2.65E-02,2.27E-02
8177,2.67E-02,2.30E-02
8178,2.42E-02,2.59E-02
8179,2.15E-02,2.70E-02
8180,2.09E-02,2.67E-02
8181,2.02E-02,2.65E-02
8182,1.97E-02,2.64E-02
8183,1.99E-02,2.63E-02
8184,2.00E-02,2.61E-02
8185,2.03E-02,2.59E-02
8186,2.08E-02,2.57E-02
8187,2.15E-02,2.54E-02
8188,2.23E-02,2.52E-02
8189,2.32E-02,2.49E-02
8190,2.48E-02,2.45E-02
8191,2.44E-02,2.46E-02
8192,2.41E-02,2.47E-02
8193,2.56E-02,2.42E-02
8194,2.61E-02,2.38E-02
8195,2.67E-02,2.36E-02
8196,2.73E-02,2.31E-02
8197,2.69E-02,2.33E-02
8198,2.78E-02,2.28E-02
8199,2.64E-02,2.35E-02
8200,2.61E-02,2.41E-02
8201,2.85E-02,2.22E-02
8202,2.84E-02,2.23E-02
8203,2.53E-02,4.14E-02
8204,2.46E-02,3.99E-02
8205,2.37E-02,3.84E-02
8206,2.81E-02,2.26E-02
8207,2.83E-02,2.24E-02
8208,2.55E-02,2.49E-02
8209,2.51E-02,2.58E-02
8210,2.83E-02,2.21E-02
8211,2.79E-02,2.21E-02
8212,2.47E-02,2.49E-02
8213,2.67E-02,2.43E-02
8214,2.07E-02,1.64E-02
8215,2.00E-02,1.82E-02
8216,2.18E-02,1.25E-02
8217,2.29E-02,6.04E-03
8218,2.36E-02,2.68E-02
8219,2.21E-02,2.72E-02
8220,2.28E-02,2.71E-02
8221,2.26E-02,4.42E-03
8222,2.25E-02,3.09E-03
8223,2.24E-02,2.51E-03
8224,2.24E-02,3.10E-03
8225,2.22E-02,4.38E-03
8226,2.21E-02,5.91E-03
8227,2.20E-02,7.53E-03
8228,2.19E-02,9.17E-03
8229,2.17E-02,1.08E-02
8230,2.16E-02,1.99E-02
8231,2.39E-02,2.38E-02
8232,2.80E-02,2.22E-02
8233,2.53E-02,2.54E-02
8234,2.82E-02,2.26E-02
8235,2.39E-02,3.84E-02
8236,2.47E-02,3.99E-02
8237,2.83E-02,2.25E-02
8238,2.83E-02,2.23E-02
8239,2.85E-02,2.23E-02
8240,2.57E-02,2.46E-02
8241,2.63E-02,2.39E-02
8242,2.78E-02,2.28E-02
8243,2.75E-02,2.30E-02
8244,2.72E-02,2.32E-02
8245,2.68E-02,2.34E-02
8246,2.63E-02,2.37E-02
8247,2.58E-02,2.40E-02
8248,2.52E-02,2.43E-02
8249,2.47E-02,2.44E-02
8250,2.44E-02,2.44E-02
8251,2.40E-02,2.47E-02
8252,2.28E-02,2.50E-02
8253,2.18E-02,2.52E-02
8254,2.14E-02,2.54E-02
8255,2.05E-02,2.56E-02
8256,2.05E-02,2.58E-02
8257,2.00E-02,2.61E-02
8258,2.00E-02,2.59E-02
8259,2.03E-02,2.61E-02
8260,2.15E-02,2.66E-02
8261,2.08E-02,2.63E-02
8262,2.36E-02,2.45E-02
8263,2.38E-02,2.54E-02
8264,2.65E-02,2.33E-02
8265,2.67E-02,2.29E-02
8266,2.63E-02,2.26E-02
8267,2.76E-02,2.22E-02
8268,2.72E-02,2.23E-02
8269,2.66E-02,2.24E-02
8270,2.61E-02,4.59E-02
8271,2.61E-02,4.43E-02
8272,2.58E-02,4.29E-02
8273,2.54E-02,4.14E-02
8274,2.47E-02,2.64E-02
8275,2.41E-02,2.75E-02
8276,2.38E-02,2.88E-02
8277,2.34E-02,3.13E-02
8278,2.35E-02,3.03E-02
8279,2.30E-02,3.69E-02
8280,2.24E-02,3.55E-02
8281,2.22E-02,3.41E-02
8282,2.21E-02,3.26E-02
8283,2.19E-02,3.11E-02
8284,2.18E-02,2.96E-02
8285,2.17E-02,2.81E-02
8286,2.16E-02,2.65E-02
8287,2.15E-02,2.50E-02
8288,2.14E-02,2.35E-02
8289,2.13E-02,2.20E-02
8290,2.13E-02,2.05E-02
8291,2.13E-02,1.89E-02
8292,2.14E-02,1.74E-02
8293,2.15E-02,1.58E-02
8294,2.17E-02,1.41E-02
8295,2.31E-02,1.49E-02
8296,2.44E-02,1.39E-02
8297,2.43E-02,1.27E-02
8298,2.44E-02,1.13E-02
8299,2.39E-02,9.97E-03
8300,2.31E-02,7.22E-03
8301,2.32E-02,8.60E-03
8302,2.20E-02,1.60E-02
8303,2.16E-02,1.76E-02
8304,2.33E-02,2.63E-02
8305,2.21E-02,2.68E-02
8306,2.27E-02,5.81E-03
8307,2.19E-02,1.25E-02
8308,2.19E-02,1.08E-02
8309,2.20E-02,9.19E-03
8310,2.21E-02,7.55E-03
8311,2.21E-02,5.94E-03
8312,2.23E-02,4.41E-03
8313,2.23E-02,3.09E-03
8314,2.24E-02,2.42E-03
8315,2.27E-02,2.92E-03
8316,2.28E-02,4.22E-03
8317,2.27E-02,2.66E-02
8318,2.14E-02,1.93E-02
8319,2.30E-02,6.90E-03
8320,2.35E-02,8.25E-03
8321,2.39E-02,9.59E-03
8322,2.42E-02,1.09E-02
8323,2.42E-02,1.22E-02
8324,2.36E-02,1.34E-02
8325,2.27E-02,1.44E-02
8326,2.16E-02,1.42E-02
8327,2.15E-02,1.58E-02
8328,2.14E-02,1.74E-02
8329,2.14E-02,1.89E-02
8330,2.14E-02,2.05E-02
8331,2.14E-02,2.20E-02
8332,2.15E-02,2.36E-02
8333,2.16E-02,2.51E-02
8334,2.17E-02,2.66E-02
8335,2.18E-02,2.81E-02
8336,2.19E-02,2.96E-02
8337,2.21E-02,3.11E-02
8338,2.22E-02,3.26E-02
8339,2.23E-02,3.41E-02
8340,2.26E-02,3.55E-02
8341,2.33E-02,3.22E-02
8342,2.33E-02,3.09E-02
8343,2.36E-02,2.94E-02
8344,2.39E-02,2.81E-02
8345,2.44E-02,2.70E-02
8346,2.55E-02,4.13E-02
8347,2.59E-02,4.28E-02
8348,2.62E-02,4.42E-02
8349,2.65E-02,4.58E-02
8350,2.70E-02,2.25E-02
8351,2.73E-02,2.24E-02
8352,2.65E-02,2.26E-02
8353,2.64E-02,2.29E-02
8354,2.67E-02,2.32E-02
8355,2.32E-02,2.49E-02
8356,2.21E-02,2.39E-02
8357,1.98E-02,2.35E-02
8358,2.01E-02,2.29E-02
8359,2.12E-02,2.62E-02
8360,2.09E-02,2.59E-02
8361,2.03E-02,2.58E-02
8362,2.05E-02,2.57E-02
8363,2.03E-02,2.56E-02
8364,2.07E-02,2.55E-02
8365,2.11E-02,2.53E-02
8366,2.17E-02,2.51E-02
8367,2.25E-02,2.49E-02
8368,2.33E-02,2.47E-02
8369,2.41E-02,2.45E-02
8370,2.55E-02,2.41E-02
8371,2.51E-02,2.42E-02
8372,2.46E-02,2.42E-02
8373,2.60E-02,2.38E-02
8374,2.66E-02,2.36E-02
8375,2.69E-02,2.33E-02
8376,2.75E-02,2.30E-02
8377,2.74E-02,2.31E-02
8378,2.64E-02,2.37E-02
8379,2.58E-02,2.43E-02
8380,2.83E-02,2.24E-02
8381,2.82E-02,2.25E-02
8382,2.47E-02,3.98E-02
8383,2.40E-02,3.84E-02
8384,2.33E-02,3.69E-02
8385,2.81E-02,2.28E-02
8386,2.81E-02,2.26E-02
8387,2.56E-02,2.50E-02
8388,2.50E-02,2.59E-02
8389,2.82E-02,2.23E-02
8390,2.78E-02,2.23E-02
8391,2.25E-02,1.55E-02
8392,2.19E-02,1.71E-02
8393,2.18E-02,1.25E-02
8394,2.30E-02,5.55E-03
8395,2.30E-02,2.58E-02
8396,2.21E-02,2.64E-02
8397,2.26E-02,2.61E-02
8398,2.28E-02,4.00E-03
8399,2.27E-02,2.75E-03
8400,2.27E-02,2.34E-03
8401,2.26E-02,3.10E-03
8402,2.24E-02,4.45E-03
8403,2.23E-02,6.00E-03
8404,2.23E-02,7.60E-03
8405,2.21E-02,9.23E-03
8406,2.19E-02,1.09E-02
8407,2.20E-02,1.88E-02
8408,2.79E-02,2.24E-02
8409,2.52E-02,2.55E-02
8410,2.80E-02,2.27E-02
8411,2.35E-02,3.69E-02
8412,2.42E-02,3.84E-02
8413,2.80E-02,2.26E-02
8414,2.81E-02,2.25E-02
8415,2.83E-02,2.24E-02
8416,2.56E-02,2.47E-02
8417,2.60E-02,2.40E-02
8418,2.77E-02,2.29E-02
8419,2.75E-02,2.30E-02
8420,2.70E-02,2.32E-02
8421,2.67E-02,2.34E-02
8422,2.63E-02,2.37E-02
8423,2.58E-02,2.39E-02
8424,2.56E-02,2.40E-02
8425,2.51E-02,2.40E-02
8426,2.44E-02,2.42E-02
8427,2.39E-02,2.44E-02
8428,2.28E-02,2.47E-02
8429,2.21E-02,2.49E-02
8430,2.15E-02,2.50E-02
8431,2.11E-02,2.52E-02
8432,2.08E-02,2.54E-02
8433,2.07E-02,2.52E-02
8434,2.04E-02,2.54E-02
8435,2.14E-02,2.57E-02
8436,2.07E-02,2.55E-02
8437,2.08E-02,2.30E-02
8438,2.09E-02,2.24E-02
8439,2.10E-02,2.34E-02
8440,2.24E-02,2.44E-02
8441,2.65E-02,2.35E-02
8442,2.65E-02,2.31E-02
8443,2.64E-02,2.28E-02
8444,2.76E-02,2.24E-02
8445,2.70E-02,2.25E-02
8446,2.67E-02,2.26E-02
8447,2.73E-02,4.55E-02
8448,2.65E-02,4.40E-02
8449,2.59E-02,4.27E-02
8450,2.54E-02,4.13E-02
8451,2.49E-02,3.98E-02
8452,2.47E-02,2.64E-02
8453,2.39E-02,2.74E-02
8454,2.37E-02,2.86E-02
8455,2.35E-02,2.99E-02
8456,2.31E-02,3.31E-02
8457,2.34E-02,3.16E-02
8458,2.27E-02,3.55E-02
8459,2.23E-02,3.41E-02
8460,2.23E-02,3.27E-02
8461,2.22E-02,3.12E-02
8462,2.20E-02,2.97E-02
8463,2.19E-02,2.81E-02
8464,2.18E-02,2.66E-02
8465,2.17E-02,2.51E-02
8466,2.16E-02,2.36E-02
8467,2.16E-02,2.21E-02
8468,2.15E-02,2.05E-02
8469,2.14E-02,1.90E-02
8470,2.15E-02,1.74E-02
8471,2.15E-02,1.58E-02
8472,2.18E-02,1.42E-02
8473,2.30E-02,1.38E-02
8474,2.34E-02,1.28E-02
8475,2.38E-02,1.17E-02
8476,2.40E-02,1.05E-02
8477,2.41E-02,9.21E-03
8478,2.32E-02,6.56E-03
8479,2.37E-02,7.88E-03
8480,2.29E-02,1.49E-02
8481,2.25E-02,1.65E-02
8482,2.27E-02,2.53E-02
8483,2.19E-02,2.59E-02
8484,2.27E-02,5.27E-03
8485,2.19E-02,1.25E-02
8486,2.20E-02,1.09E-02
8487,2.21E-02,9.30E-03
8488,2.23E-02,7.68E-03
8489,2.25E-02,6.07E-03
8490,2.26E-02,4.53E-03
8491,2.26E-02,3.14E-03
8492,2.26E-02,2.29E-03
8493,2.27E-02,2.57E-03
8494,2.28E-02,3.75E-03
8495,2.24E-02,2.57E-02
8496,2.24E-02,1.82E-02
8497,2.33E-02,6.22E-03
8498,2.36E-02,7.51E-03
8499,2.39E-02,8.81E-03
8500,2.37E-02,1.01E-02
8501,2.34E-02,1.12E-02
8502,2.33E-02,1.23E-02
8503,2.31E-02,1.33E-02
8504,2.16E-02,1.42E-02
8505,2.16E-02,1.59E-02
8506,2.15E-02,1.75E-02
8507,2.15E-02,1.90E-02
8508,2.16E-02,2.06E-02
8509,2.17E-02,2.21E-02
8510,2.18E-02,2.37E-02
8511,2.18E-02,2.52E-02
8512,2.19E-02,2.67E-02
8513,2.20E-02,2.82E-02
8514,2.22E-02,2.97E-02
8515,2.23E-02,3.12E-02
8516,2.24E-02,3.27E-02
8517,2.24E-02,3.41E-02
8518,2.35E-02,3.04E-02
8519,2.36E-02,2.91E-02
8520,2.38E-02,2.79E-02
8521,2.43E-02,2.68E-02
8522,2.49E-02,3.98E-02
8523,2.54E-02,4.12E-02
8524,2.57E-02,4.25E-02
8525,2.32E-02,3.39E-02
8526,2.33E-02,3.22E-02
8527,2.69E-02,2.26E-02
8528,2.72E-02,2.25E-02
8529,2.66E-02,2.28E-02
8530,2.64E-02,2.30E-02
8531,2.64E-02,2.34E-02
8532,2.18E-02,2.39E-02
8533,2.15E-02,2.29E-02
8534,2.11E-02,2.24E-02
8535,2.13E-02,2.19E-02
8536,2.13E-02,2.53E-02
8537,2.08E-02,2.51E-02
8538,2.07E-02,2.50E-02
8539,2.12E-02,2.51E-02
8540,2.12E-02,2.49E-02
8541,2.15E-02,2.49E-02
8542,2.18E-02,2.47E-02
8543,2.28E-02,2.46E-02
8544,2.34E-02,2.44E-02
8545,2.41E-02,2.42E-02
8546,2.48E-02,2.40E-02
8547,2.59E-02,2.37E-02
8548,2.58E-02,2.38E-02
8549,2.54E-02,2.38E-02
8550,2.64E-02,2.35E-02
8551,2.67E-02,2.33E-02
8552,2.73E-02,2.31E-02
8553,2.60E-02,2.38E-02
8554,2.57E-02,2.44E-02
8555,2.80E-02,2.25E-02
8556,2.79E-02,2.26E-02
8557,2.44E-02,3.84E-02
8558,2.37E-02,3.69E-02
8559,2.32E-02,3.55E-02
8560,2.79E-02,2.28E-02
8561,2.75E-02,2.29E-02
8562,2.79E-02,2.27E-02
8563,2.54E-02,2.51E-02
8564,2.49E-02,2.59E-02
8565,2.81E-02,2.25E-02
8566,2.77E-02,2.25E-02
8567,2.62E-02,4.36E-02
8568,2.78E-02,4.51E-02
8569,2.31E-02,1.43E-02
8570,2.28E-02,1.59E-02
8571,2.19E-02,1.26E-02
8572,2.30E-02,4.96E-03
8573,2.25E-02,2.48E-02
8574,2.18E-02,2.55E-02
8575,2.22E-02,2.52E-02
8576,2.30E-02,3.49E-03
8577,2.28E-02,2.38E-03
8578,2.28E-02,2.25E-03
8579,2.27E-02,3.22E-03
8580,2.26E-02,4.62E-03
8581,2.26E-02,6.18E-03
8582,2.25E-02,7.77E-03
8583,2.22E-02,9.38E-03
8584,2.19E-02,1.10E-02
8585,2.26E-02,1.76E-02
8586,2.56E-02,4.45E-02
8587,2.79E-02,2.25E-02
8588,2.50E-02,2.55E-02
8589,2.78E-02,2.28E-02
8590,2.76E-02,2.28E-02
8591,2.34E-02,3.55E-02
8592,2.39E-02,3.69E-02
8593,2.78E-02,2.26E-02
8594,2.77E-02,2.26E-02
8595,2.80E-02,2.25E-02
8596,2.55E-02,2.47E-02
8597,2.59E-02,2.41E-02
8598,2.73E-02,2.30E-02
8599,2.68E-02,2.32E-02
8600,2.65E-02,2.34E-02
8601,2.61E-02,2.36E-02
8602,2.58E-02,2.36E-02
8603,2.57E-02,2.36E-02
8604,2.52E-02,2.37E-02
8605,2.43E-02,2.39E-02
8606,2.37E-02,2.41E-02
8607,2.30E-02,2.43E-02
8608,2.23E-02,2.44E-02
8609,2.19E-02,2.46E-02
8610,2.14E-02,2.47E-02
8611,2.17E-02,2.45E-02
8612,2.11E-02,2.46E-02
8613,2.12E-02,2.48E-02
8614,2.09E-02,2.47E-02
8615,2.09E-02,2.19E-02
8616,2.11E-02,2.14E-02
8617,2.12E-02,2.24E-02
8618,2.21E-02,2.33E-02
8619,2.61E-02,2.36E-02
8620,2.65E-02,2.32E-02
8621,2.64E-02,2.30E-02
8622,2.73E-02,2.25E-02
8623,2.71E-02,2.26E-02
8624,2.67E-02,2.27E-02
8625,2.31E-02,3.47E-02
8626,2.32E-02,3.29E-02
8627,2.46E-02,4.32E-02
8628,2.56E-02,4.22E-02
8629,2.53E-02,4.10E-02
8630,2.49E-02,3.97E-02
8631,2.46E-02,3.83E-02
8632,2.45E-02,2.63E-02
8633,2.40E-02,2.72E-02
8634,2.37E-02,2.83E-02
8635,2.34E-02,2.95E-02
8636,2.33E-02,3.09E-02
8637,2.27E-02,3.42E-02
8638,2.24E-02,3.28E-02
8639,2.24E-02,3.13E-02
8640,2.23E-02,2.98E-02
8641,2.22E-02,2.83E-02
8642,2.20E-02,2.68E-02
8643,2.19E-02,2.53E-02
8644,2.19E-02,2.37E-02
8645,2.18E-02,2.22E-02
8646,2.17E-02,2.07E-02
8647,2.16E-02,1.91E-02
8648,2.16E-02,1.75E-02
8649,2.16E-02,1.59E-02
8650,2.18E-02,1.43E-02
8651,2.32E-02,1.27E-02
8652,2.31E-02,1.17E-02
8653,2.32E-02,1.07E-02
8654,2.34E-02,9.58E-03
8655,2.38E-02,8.40E-03
8656,2.35E-02,5.87E-03
8657,2.38E-02,7.14E-03
8658,2.32E-02,1.37E-02
8659,2.30E-02,1.53E-02
8660,2.22E-02,2.43E-02
8661,2.19E-02,2.50E-02
8662,2.29E-02,4.64E-03
8663,2.19E-02,1.27E-02
8664,2.21E-02,1.11E-02
8665,2.22E-02,9.48E-03
8666,2.25E-02,7.88E-03
8667,2.27E-02,6.29E-03
8668,2.27E-02,4.75E-03
8669,2.27E-02,3.33E-03
8670,2.28E-02,2.26E-03
8671,2.29E-02,2.20E-03
8672,2.30E-02,3.21E-03
8673,2.22E-02,2.47E-02
8674,2.29E-02,1.69E-02
8675,2.36E-02,5.51E-03
8676,2.37E-02,6.76E-03
8677,2.36E-02,7.96E-03
8678,2.34E-02,9.09E-03
8679,2.32E-02,1.02E-02
8680,2.33E-02,1.12E-02
8681,2.33E-02,1.21E-02
8682,2.16E-02,1.44E-02
8683,2.17E-02,1.60E-02
8684,2.17E-02,1.76E-02
8685,2.18E-02,1.92E-02
8686,2.18E-02,2.07E-02
8687,2.19E-02,2.23E-02
8688,2.20E-02,2.38E-02
8689,2.20E-02,2.53E-02
8690,2.21E-02,2.69E-02
8691,2.23E-02,2.84E-02
8692,2.25E-02,2.99E-02
8693,2.26E-02,3.14E-02
8694,2.24E-02,3.28E-02
8695,2.35E-02,2.99E-02
8696,2.34E-02,2.87E-02
8697,2.38E-02,2.76E-02
8698,2.43E-02,2.67E-02
8699,2.46E-02,3.83E-02
8700,2.50E-02,3.96E-02
8701,2.52E-02,4.08E-02
8702,2.48E-02,4.19E-02
8703,2.34E-02,3.15E-02
8704,2.34E-02,4.27E-02
8705,1.96E-02,4.37E-02
8706,1.99E-02,4.50E-02
8707,2.69E-02,2.27E-02
8708,2.70E-02,2.26E-02
8709,2.66E-02,2.29E-02
8710,2.65E-02,2.31E-02
8711,2.62E-02,2.35E-02
8712,2.25E-02,2.28E-02
8713,2.33E-02,2.17E-02
8714,2.24E-02,2.14E-02
8715,2.01E-02,2.09E-02
8716,2.13E-02,2.44E-02
8717,2.12E-02,2.43E-02
8718,2.14E-02,2.42E-02
8719,2.18E-02,2.44E-02
8720,2.19E-02,2.41E-02
8721,2.20E-02,2.42E-02
8722,2.28E-02,2.41E-02
8723,2.33E-02,2.40E-02
8724,2.43E-02,2.38E-02
8725,2.48E-02,2.37E-02
8726,2.53E-02,2.35E-02
8727,2.62E-02,2.34E-02
8728,2.59E-02,2.34E-02
8729,2.57E-02,2.33E-02
8730,2.65E-02,2.32E-02
8731,2.71E-02,2.30E-02
8732,2.58E-02,2.39E-02
8733,2.55E-02,2.44E-02
8734,2.78E-02,2.25E-02
8735,2.77E-02,2.26E-02
8736,2.40E-02,3.69E-02
8737,2.36E-02,3.56E-02
8738,2.31E-02,3.42E-02
8739,2.73E-02,2.29E-02
8740,2.77E-02,2.27E-02
8741,2.76E-02,2.27E-02
8742,2.52E-02,2.51E-02
8743,2.46E-02,2.58E-02
8744,2.78E-02,2.25E-02
8745,2.75E-02,2.25E-02
8746,2.29E-02,3.53E-02
8747,2.30E-02,3.34E-02
8748,2.34E-02,1.31E-02
8749,2.32E-02,1.47E-02
8750,2.19E-02,1.27E-02
8751,2.32E-02,4.31E-03
8752,2.22E-02,2.38E-02
8753,2.17E-02,2.45E-02
8754,2.20E-02,2.42E-02
8755,2.31E-02,2.92E-03
8756,2.30E-02,2.04E-03
8757,2.31E-02,2.31E-03
8758,2.30E-02,3.47E-03
8759,2.28E-02,4.91E-03
8760,2.27E-02,6.45E-03
8761,2.27E-02,8.02E-03
8762,2.22E-02,9.60E-03
8763,2.18E-02,1.12E-02
8764,2.30E-02,1.63E-02
8765,2.28E-02,3.57E-02
8766,2.31E-02,3.38E-02
8767,2.77E-02,2.25E-02
8768,2.47E-02,2.54E-02
8769,2.74E-02,2.28E-02
8770,2.34E-02,3.42E-02
8771,2.37E-02,3.56E-02
8772,2.76E-02,2.26E-02
8773,2.74E-02,2.26E-02
8774,2.75E-02,2.26E-02
8775,2.78E-02,2.25E-02
8776,2.54E-02,2.47E-02
8777,2.56E-02,2.41E-02
8778,2.70E-02,2.29E-02
8779,2.68E-02,2.30E-02
8780,2.64E-02,2.32E-02
8781,2.61E-02,2.32E-02
8782,2.58E-02,2.31E-02
8783,2.54E-02,2.33E-02
8784,2.50E-02,2.34E-02
8785,2.44E-02,2.36E-02
8786,2.40E-02,2.37E-02
8787,2.30E-02,2.38E-02
8788,2.26E-02,2.39E-02
8789,2.21E-02,2.40E-02
8790,2.20E-02,2.37E-02
8791,2.19E-02,2.38E-02
8792,2.13E-02,2.40E-02
8793,2.16E-02,2.39E-02
8794,1.55E-02,2.08E-02
8795,1.90E-02,2.03E-02
8796,2.45E-02,2.21E-02
8797,1.62E-02,2.10E-02
8798,1.56E-02,2.04E-02
8799,2.59E-02,2.37E-02
8800,2.62E-02,2.33E-02
8801,2.65E-02,2.30E-02
8802,2.73E-02,2.26E-02
8803,2.68E-02,2.26E-02
8804,2.67E-02,2.28E-02
8805,2.21E-02,4.34E-02
8806,2.28E-02,4.46E-02
8807,2.26E-02,4.23E-02
8808,2.32E-02,3.20E-02
8809,2.41E-02,4.16E-02
8810,2.48E-02,4.06E-02
8811,2.48E-02,3.95E-02
8812,2.46E-02,3.82E-02
8813,2.42E-02,3.69E-02
8814,2.44E-02,2.61E-02
8815,2.41E-02,2.70E-02
8816,2.37E-02,2.80E-02
8817,2.36E-02,2.90E-02
8818,2.36E-02,3.03E-02
8819,2.27E-02,3.29E-02
8820,2.27E-02,3.15E-02
8821,2.28E-02,3.00E-02
8822,2.25E-02,2.85E-02
8823,2.23E-02,2.70E-02
8824,2.21E-02,2.54E-02
8825,2.21E-02,2.39E-02
8826,2.20E-02,2.24E-02
8827,2.19E-02,2.08E-02
8828,2.19E-02,1.93E-02
8829,2.18E-02,1.77E-02
8830,2.17E-02,1.61E-02
8831,2.19E-02,1.45E-02
8832,2.36E-02,1.15E-02
8833,2.35E-02,1.06E-02
8834,2.33E-02,9.62E-03
8835,2.34E-02,8.58E-03
8836,2.36E-02,7.49E-03
8837,2.36E-02,5.15E-03
8838,2.37E-02,6.35E-03
8839,2.37E-02,1.24E-02
8840,2.31E-02,1.40E-02
8841,2.30E-02,2.32E-02
8842,2.17E-02,2.41E-02
8843,2.32E-02,3.97E-03
8844,2.19E-02,1.28E-02
8845,2.21E-02,1.13E-02
8846,2.23E-02,9.74E-03
8847,2.26E-02,8.18E-03
8848,2.27E-02,6.62E-03
8849,2.29E-02,5.10E-03
8850,2.30E-02,3.65E-03
8851,2.30E-02,2.41E-03
8852,2.29E-02,1.92E-03
8853,2.30E-02,2.63E-03
8854,2.23E-02,2.37E-02
8855,2.29E-02,1.56E-02
8856,2.37E-02,4.77E-03
8857,2.35E-02,5.90E-03
8858,2.34E-02,7.00E-03
8859,2.33E-02,8.07E-03
8860,2.36E-02,9.07E-03
8861,2.38E-02,1.00E-02
8862,2.41E-02,1.09E-02
8863,2.18E-02,1.46E-02
8864,2.19E-02,1.62E-02
8865,2.19E-02,1.78E-02
8866,2.20E-02,1.94E-02
8867,2.20E-02,2.09E-02
8868,2.21E-02,2.25E-02
8869,2.22E-02,2.40E-02
8870,2.22E-02,2.56E-02
8871,2.24E-02,2.71E-02
8872,2.28E-02,2.86E-02
8873,2.27E-02,3.01E-02
8874,2.27E-02,3.15E-02
8875,2.37E-02,2.94E-02
8876,2.37E-02,2.83E-02
8877,2.39E-02,2.73E-02
8878,2.42E-02,2.64E-02
8879,2.44E-02,3.69E-02
8880,2.45E-02,3.82E-02
8881,2.45E-02,3.93E-02
8882,2.44E-02,4.04E-02
8883,2.34E-02,3.08E-02
8884,2.37E-02,4.13E-02
8885,2.34E-02,4.21E-02
8886,2.28E-02,4.32E-02
8887,2.25E-02,4.43E-02
8888,2.66E-02,2.27E-02
8889,2.72E-02,2.26E-02
8890,2.67E-02,2.29E-02
8891,2.64E-02,2.31E-02
8892,2.60E-02,2.35E-02
8893,1.90E-02,1.98E-02
8894,2.48E-02,2.16E-02
8895,2.37E-02,2.09E-02
8896,2.00E-02,2.00E-02
8897,2.14E-02,2.35E-02
8898,2.19E-02,2.35E-02
8899,2.20E-02,2.34E-02
8900,2.24E-02,2.37E-02
8901,2.24E-02,2.34E-02
8902,2.30E-02,2.36E-02
8903,2.36E-02,2.35E-02
8904,2.39E-02,2.34E-02
8905,2.47E-02,2.33E-02
8906,2.51E-02,2.32E-02
8907,2.56E-02,2.30E-02
8908,2.64E-02,2.30E-02
8909,2.62E-02,2.30E-02
8910,2.59E-02,2.29E-02
8911,2.69E-02,2.29E-02
8912,2.57E-02,2.39E-02
8913,2.53E-02,2.44E-02
8914,2.76E-02,2.25E-02
8915,2.74E-02,2.26E-02
8916,2.73E-02,2.26E-02
8917,2.38E-02,3.56E-02
8918,2.35E-02,3.42E-02
8919,2.31E-02,3.29E-02
8920,2.73E-02,2.28E-02
8921,2.73E-02,2.26E-02
8922,2.49E-02,2.50E-02
8923,2.45E-02,2.57E-02
8924,2.76E-02,2.25E-02
8925,2.74E-02,2.25E-02
8926,2.35E-02,3.24E-02
8927,2.26E-02,3.59E-02
8928,2.30E-02,3.42E-02
8929,2.40E-02,1.18E-02
8930,2.31E-02,1.34E-02
8931,2.19E-02,1.30E-02
8932,2.33E-02,3.63E-03
8933,2.35E-02,2.27E-02
8934,2.17E-02,2.36E-02
8935,2.26E-02,2.32E-02
8936,2.32E-02,2.36E-03
8937,2.32E-02,1.84E-03
8938,2.30E-02,2.55E-03
8939,2.28E-02,3.84E-03
8940,2.27E-02,5.30E-03
8941,2.26E-02,6.82E-03
8942,2.24E-02,8.35E-03
8943,2.21E-02,9.90E-03
8944,2.19E-02,1.14E-02
8945,2.24E-02,1.50E-02
8946,2.27E-02,3.60E-02
8947,2.32E-02,3.45E-02
8948,2.34E-02,3.28E-02
8949,2.72E-02,2.25E-02
8950,2.46E-02,2.52E-02
8951,2.72E-02,2.26E-02
8952,2.34E-02,3.29E-02
8953,2.36E-02,3.42E-02
8954,2.72E-02,2.25E-02
8955,2.73E-02,2.25E-02
8956,2.72E-02,2.25E-02
8957,2.75E-02,2.25E-02
8958,2.50E-02,2.46E-02
8959,2.54E-02,2.41E-02
8960,2.69E-02,2.27E-02
8961,2.66E-02,2.28E-02
8962,2.62E-02,2.28E-02
8963,2.60E-02,2.27E-02
8964,2.57E-02,2.28E-02
8965,2.54E-02,2.29E-02
8966,2.49E-02,2.30E-02
8967,2.42E-02,2.31E-02
8968,2.38E-02,2.32E-02
8969,2.33E-02,2.33E-02
8970,2.27E-02,2.33E-02
8971,2.26E-02,2.30E-02
8972,2.24E-02,2.30E-02
8973,2.17E-02,2.31E-02
8974,2.21E-02,2.31E-02
8975,1.98E-02,1.93E-02
8976,2.20E-02,2.11E-02
8977,2.07E-02,2.04E-02
8978,2.04E-02,1.96E-02
8979,2.58E-02,2.36E-02
8980,2.61E-02,2.33E-02
8981,2.64E-02,2.30E-02
8982,2.72E-02,2.25E-02
8983,2.67E-02,2.26E-02
8984,2.66E-02,2.28E-02
8985,2.36E-02,4.30E-02
8986,2.67E-02,4.39E-02
8987,2.33E-02,4.19E-02
8988,2.36E-02,4.11E-02
8989,2.36E-02,3.12E-02
8990,2.40E-02,4.02E-02
8991,2.45E-02,3.92E-02
8992,2.47E-02,3.81E-02
8993,2.43E-02,3.68E-02
8994,2.41E-02,3.56E-02
8995,2.43E-02,2.59E-02
8996,2.41E-02,2.67E-02
8997,2.37E-02,2.76E-02
8998,2.37E-02,2.86E-02
8999,2.36E-02,2.98E-02
9000,2.29E-02,3.16E-02
9001,2.28E-02,3.02E-02
9002,2.28E-02,2.87E-02
9003,2.27E-02,2.72E-02
9004,2.23E-02,2.57E-02
9005,2.22E-02,2.42E-02
9006,2.22E-02,2.26E-02
9007,2.22E-02,2.11E-02
9008,2.21E-02,1.95E-02
9009,2.20E-02,1.79E-02
9010,2.19E-02,1.63E-02
9011,2.20E-02,1.47E-02
9012,2.53E-02,1.11E-02
9013,2.48E-02,1.03E-02
9014,2.42E-02,9.43E-03
9015,2.38E-02,8.52E-03
9016,2.36E-02,7.55E-03
9017,2.32E-02,6.52E-03
9018,2.35E-02,4.38E-03
9019,2.34E-02,5.46E-03
9020,2.15E-02,1.28E-02
9021,2.31E-02,2.22E-02
9022,2.18E-02,2.31E-02
9023,2.31E-02,3.30E-03
9024,2.20E-02,1.31E-02
9025,2.21E-02,1.16E-02
9026,2.21E-02,1.01E-02
9027,2.21E-02,8.54E-03
9028,2.25E-02,7.02E-03
9029,2.28E-02,5.52E-03
9030,2.29E-02,4.05E-03
9031,2.29E-02,2.72E-03
9032,2.30E-02,1.83E-03
9033,2.31E-02,2.12E-03
9034,2.23E-02,2.27E-02
9035,2.12E-02,1.43E-02
9036,2.33E-02,3.98E-03
9037,2.32E-02,5.02E-03
9038,2.32E-02,6.04E-03
9039,2.37E-02,7.02E-03
9040,2.40E-02,7.95E-03
9041,2.48E-02,8.82E-03
9042,2.76E-02,9.59E-03
9043,1.94E-02,1.10E-02
9044,2.20E-02,1.49E-02
9045,2.21E-02,1.65E-02
9046,2.21E-02,1.81E-02
9047,2.22E-02,1.97E-02
9048,2.23E-02,2.12E-02
9049,2.23E-02,2.28E-02
9050,2.23E-02,2.43E-02
9051,2.27E-02,2.58E-02
9052,2.29E-02,2.74E-02
9053,2.28E-02,2.88E-02
9054,2.29E-02,3.03E-02
9055,2.37E-02,2.90E-02
9056,2.36E-02,2.79E-02
9057,2.40E-02,2.70E-02
9058,2.41E-02,2.62E-02
9059,2.41E-02,3.55E-02
9060,2.46E-02,3.68E-02
9061,2.45E-02,3.80E-02
9062,2.42E-02,3.90E-02
9063,2.38E-02,3.02E-02
9064,2.40E-02,4.00E-02
9065,2.32E-02,4.09E-02
9066,1.85E-02,4.18E-02
9067,2.65E-02,2.27E-02
9068,2.69E-02,2.26E-02
9069,2.64E-02,2.29E-02
9070,2.62E-02,2.31E-02
9071,2.59E-02,2.34E-02
9072,2.11E-02,1.88E-02
9073,2.12E-02,2.06E-02
9074,2.11E-02,1.99E-02
9075,2.13E-02,1.91E-02
9076,2.22E-02,2.27E-02
9077,2.25E-02,2.27E-02
9078,2.25E-02,2.27E-02
9079,2.30E-02,2.30E-02
9080,2.30E-02,2.27E-02
9081,2.36E-02,2.29E-02
9082,2.42E-02,2.29E-02
9083,2.46E-02,2.28E-02
9084,2.51E-02,2.27E-02
9085,2.54E-02,2.26E-02
9086,2.58E-02,2.26E-02
9087,2.66E-02,2.27E-02
9088,2.64E-02,2.26E-02
9089,2.62E-02,2.25E-02
9090,2.56E-02,2.38E-02
9091,2.52E-02,2.43E-02
9092,2.71E-02,2.24E-02
9093,2.70E-02,2.24E-02
9094,2.71E-02,2.24E-02
9095,2.40E-02,3.42E-02
9096,2.35E-02,3.29E-02
9097,2.30E-02,3.16E-02
9098,2.70E-02,2.26E-02
9099,2.71E-02,2.25E-02
9100,2.48E-02,2.48E-02
9101,2.44E-02,2.55E-02
9102,2.75E-02,2.24E-02
9103,2.69E-02,2.25E-02
9104,2.35E-02,3.17E-02
9105,2.36E-02,3.33E-02
9106,2.27E-02,3.60E-02
9107,2.32E-02,3.49E-02
9108,1.65E-02,1.23E-02
9109,2.21E-02,1.32E-02
9110,2.33E-02,2.96E-03
9111,2.21E-02,2.17E-02
9112,2.18E-02,2.27E-02
9113,2.20E-02,2.22E-02
9114,2.31E-02,1.89E-03
9115,2.30E-02,1.88E-03
9116,2.29E-02,2.91E-03
9117,2.28E-02,4.28E-03
9118,2.26E-02,5.74E-03
9119,2.25E-02,7.24E-03
9120,2.23E-02,8.74E-03
9121,2.23E-02,1.02E-02
9122,2.22E-02,1.17E-02
9123,2.04E-02,1.36E-02
9124,2.23E-02,3.62E-02
9125,2.32E-02,3.52E-02
9126,2.38E-02,3.37E-02
9127,2.37E-02,3.21E-02
9128,2.73E-02,2.24E-02
9129,2.45E-02,2.50E-02
9130,2.70E-02,2.24E-02
9131,2.33E-02,3.16E-02
9132,2.37E-02,3.29E-02
9133,2.70E-02,2.23E-02
9134,2.69E-02,2.23E-02
9135,2.70E-02,2.24E-02
9136,2.69E-02,2.23E-02
9137,2.49E-02,2.45E-02
9138,2.53E-02,2.40E-02
9139,2.69E-02,2.25E-02
9140,2.65E-02,2.24E-02
9141,2.62E-02,2.23E-02
9142,2.59E-02,2.23E-02
9143,2.55E-02,2.24E-02
9144,2.51E-02,2.25E-02
9145,2.47E-02,2.25E-02
9146,2.42E-02,2.26E-02
9147,2.40E-02,2.26E-02
9148,2.35E-02,2.26E-02
9149,2.34E-02,2.23E-02
9150,2.31E-02,2.23E-02
9151,2.25E-02,2.22E-02
9152,2.25E-02,2.23E-02
9153,2.17E-02,1.84E-02
9154,1.96E-02,2.01E-02
9155,1.99E-02,1.94E-02
9156,2.22E-02,1.87E-02
9157,2.57E-02,2.36E-02
9158,2.60E-02,2.32E-02
9159,2.62E-02,2.29E-02
9160,2.69E-02,2.25E-02
9161,2.66E-02,2.26E-02
9162,2.64E-02,2.27E-02
9163,1.91E-02,4.17E-02
9164,2.25E-02,4.08E-02
9165,2.37E-02,3.99E-02
9166,2.38E-02,3.07E-02
9167,2.40E-02,3.89E-02
9168,2.44E-02,3.79E-02
9169,2.47E-02,3.68E-02
9170,2.43E-02,3.55E-02
9171,2.42E-02,3.43E-02
9172,2.42E-02,2.57E-02
9173,2.40E-02,2.64E-02
9174,2.39E-02,2.73E-02
9175,2.36E-02,2.82E-02
9176,2.38E-02,2.93E-02
9177,2.29E-02,3.03E-02
9178,2.30E-02,2.89E-02
9179,2.28E-02,2.75E-02
9180,2.28E-02,2.60E-02
9181,2.24E-02,2.44E-02
9182,2.23E-02,2.29E-02
9183,2.24E-02,2.14E-02
9184,2.23E-02,1.98E-02
9185,2.22E-02,1.82E-02
9186,2.22E-02,1.66E-02
9187,2.22E-02,1.50E-02
9188,2.43E-02,9.94E-03
9189,2.65E-02,8.84E-03
9190,2.50E-02,8.19E-03
9191,2.43E-02,7.38E-03
9192,2.36E-02,6.49E-03
9193,2.35E-02,5.54E-03
9194,2.32E-02,3.57E-03
9195,2.32E-02,4.56E-03
9196,1.63E-02,1.17E-02
9197,2.15E-02,2.12E-02
9198,2.22E-02,2.22E-02
9199,2.31E-02,2.62E-03
9200,2.20E-02,1.34E-02
9201,2.21E-02,1.19E-02
9202,2.23E-02,1.04E-02
9203,2.24E-02,8.96E-03
9204,2.26E-02,7.47E-03
9205,2.28E-02,5.99E-03
9206,2.28E-02,4.53E-03
9207,2.28E-02,3.14E-03
9208,2.30E-02,1.99E-03
9209,2.30E-02,1.72E-03
9210,2.20E-02,2.17E-02
9211,2.02E-02,1.29E-02
9212,2.31E-02,3.17E-03
9213,2.32E-02,4.10E-03
9214,2.34E-02,5.04E-03
9215,2.40E-02,5.95E-03
9216,2.44E-02,6.80E-03
9217,2.49E-02,7.55E-03
9218,2.39E-02,8.06E-03
9219,2.22E-02,9.15E-03
9220,2.22E-02,1.52E-02
9221,2.23E-02,1.68E-02
9222,2.23E-02,1.84E-02
9223,2.24E-02,2.00E-02
9224,2.25E-02,2.15E-02
9225,2.25E-02,2.31E-02
9226,2.27E-02,2.46E-02
9227,2.29E-02,2.61E-02
9228,2.30E-02,2.76E-02
9229,2.30E-02,2.90E-02
9230,2.38E-02,2.86E-02
9231,2.39E-02,2.75E-02
9232,2.39E-02,2.67E-02
9233,2.41E-02,2.59E-02
9234,2.44E-02,3.43E-02
9235,2.46E-02,3.55E-02
9236,2.48E-02,3.67E-02
9237,2.43E-02,3.78E-02
9238,2.41E-02,2.97E-02
9239,2.42E-02,3.88E-02
9240,2.39E-02,3.98E-02
9241,2.32E-02,4.08E-02
9242,2.72E-02,4.18E-02
9243,2.75E-02,4.30E-02
9244,2.64E-02,2.26E-02
9245,2.67E-02,2.24E-02
9246,2.63E-02,2.28E-02
9247,2.61E-02,2.30E-02
9248,2.58E-02,2.33E-02
9249,2.24E-02,1.79E-02
9250,2.41E-02,1.92E-02
9251,2.32E-02,1.83E-02
9252,2.28E-02,2.18E-02
9253,2.30E-02,2.19E-02
9254,2.33E-02,2.19E-02
9255,2.36E-02,2.23E-02
9256,2.35E-02,2.19E-02
9257,2.40E-02,2.23E-02
9258,2.44E-02,2.23E-02
9259,2.48E-02,2.22E-02
9260,2.52E-02,2.22E-02
9261,2.56E-02,2.22E-02
9262,2.59E-02,2.21E-02
9263,2.54E-02,2.37E-02
9264,2.51E-02,2.41E-02
9265,2.68E-02,2.22E-02
9266,2.68E-02,2.22E-02
9267,2.39E-02,3.30E-02
9268,2.36E-02,3.17E-02
9269,2.32E-02,3.04E-02
9270,2.68E-02,2.23E-02
9271,2.67E-02,2.22E-02
9272,2.65E-02,2.21E-02
9273,2.68E-02,2.23E-02
9274,2.47E-02,2.46E-02
9275,2.43E-02,2.52E-02
9276,2.68E-02,2.23E-02
9277,2.67E-02,2.22E-02
9278,2.69E-02,2.24E-02
9279,2.41E-02,3.11E-02
9280,2.39E-02,3.26E-02
9281,2.39E-02,3.41E-02
9282,2.33E-02,3.55E-02
9283,2.06E-02,1.10E-02
9284,2.22E-02,1.36E-02
9285,2.33E-02,2.30E-03
9286,2.11E-02,2.07E-02
9287,2.26E-02,2.18E-02
9288,2.30E-02,2.12E-02
9289,2.31E-02,1.61E-03
9290,2.29E-02,2.17E-03
9291,2.29E-02,3.40E-03
9292,2.28E-02,4.79E-03
9293,2.27E-02,6.25E-03
9294,2.27E-02,7.72E-03
9295,2.25E-02,9.19E-03
9296,2.24E-02,1.07E-02
9297,2.23E-02,1.21E-02
9298,2.01E-02,1.22E-02
9299,2.36E-02,3.57E-02
9300,2.43E-02,3.45E-02
9301,2.42E-02,3.30E-02
9302,2.43E-02,3.15E-02
9303,2.67E-02,2.22E-02
9304,2.66E-02,2.21E-02
9305,2.44E-02,2.48E-02
9306,2.67E-02,2.21E-02
9307,2.66E-02,2.20E-02
9308,2.64E-02,2.18E-02
9309,2.32E-02,3.04E-02
9310,2.39E-02,3.17E-02
9311,2.67E-02,2.21E-02
9312,2.67E-02,2.21E-02
9313,2.66E-02,2.21E-02
9314,2.48E-02,2.43E-02
9315,2.52E-02,2.38E-02
9316,2.63E-02,2.19E-02
9317,2.57E-02,2.19E-02
9318,2.54E-02,2.19E-02
9319,2.49E-02,2.20E-02
9320,2.46E-02,2.20E-02
9321,2.41E-02,2.20E-02
9322,2.37E-02,2.20E-02
9323,2.36E-02,2.16E-02
9324,2.36E-02,2.15E-02
9325,2.32E-02,2.14E-02
9326,2.32E-02,2.15E-02
9327,2.30E-02,1.75E-02
9328,2.61E-02,1.88E-02
9329,2.41E-02,1.80E-02
9330,2.56E-02,2.34E-02
9331,2.59E-02,2.31E-02
9332,2.61E-02,2.28E-02
9333,2.65E-02,2.23E-02
9334,2.64E-02,2.24E-02
9335,2.62E-02,2.26E-02
9336,2.62E-02,4.36E-02
9337,2.95E-02,4.20E-02
9338,2.57E-02,4.08E-02
9339,2.42E-02,3.97E-02
9340,2.44E-02,3.87E-02
9341,2.44E-02,3.01E-02
9342,2.44E-02,3.77E-02
9343,2.45E-02,3.66E-02
9344,2.49E-02,3.55E-02
9345,2.45E-02,3.43E-02
9346,2.40E-02,3.30E-02
9347,2.41E-02,2.54E-02
9348,2.39E-02,2.61E-02
9349,2.38E-02,2.69E-02
9350,2.39E-02,2.78E-02
9351,2.41E-02,2.89E-02
9352,2.31E-02,2.91E-02
9353,2.32E-02,2.77E-02
9354,2.30E-02,2.63E-02
9355,2.29E-02,2.48E-02
9356,2.26E-02,2.32E-02
9357,2.25E-02,2.17E-02
9358,2.26E-02,2.02E-02
9359,2.24E-02,1.86E-02
9360,2.24E-02,1.70E-02
9361,2.24E-02,1.54E-02
9362,2.20E-02,8.47E-03
9363,2.29E-02,7.35E-03
9364,2.43E-02,6.87E-03
9365,2.42E-02,6.20E-03
9366,2.41E-02,5.41E-03
9367,2.36E-02,4.55E-03
9368,2.30E-02,2.77E-03
9369,2.32E-02,3.65E-03
9370,2.14E-02,1.03E-02
9371,2.47E-02,2.01E-02
9372,2.30E-02,2.13E-02
9373,2.31E-02,1.99E-03
9374,2.22E-02,1.38E-02
9375,2.23E-02,1.23E-02
9376,2.24E-02,1.09E-02
9377,2.26E-02,9.43E-03
9378,2.28E-02,7.98E-03
9379,2.28E-02,6.53E-03
9380,2.29E-02,5.08E-03
9381,2.29E-02,3.68E-03
9382,2.31E-02,2.40E-03
9383,2.30E-02,1.60E-03
9384,2.33E-02,2.07E-02
9385,2.10E-02,1.15E-02
9386,2.30E-02,2.37E-03
9387,2.34E-02,3.20E-03
9388,2.36E-02,4.05E-03
9389,2.38E-02,4.87E-03
9390,2.40E-02,5.59E-03
9391,2.33E-02,6.20E-03
9392,2.25E-02,6.71E-03
9393,2.19E-02,7.84E-03
9394,2.25E-02,1.56E-02
9395,2.24E-02,1.72E-02
9396,2.26E-02,1.88E-02
9397,2.27E-02,2.03E-02
9398,2.25E-02,2.19E-02
9399,2.27E-02,2.34E-02
9400,2.30E-02,2.49E-02
9401,2.32E-02,2.64E-02
9402,2.32E-02,2.78E-02
9403,2.39E-02,2.82E-02
9404,2.38E-02,2.72E-02
9405,2.38E-02,2.64E-02
9406,2.40E-02,2.56E-02
9407,2.44E-02,3.30E-02
9408,2.47E-02,3.43E-02
9409,2.47E-02,3.55E-02
9410,2.46E-02,3.66E-02
9411,2.42E-02,2.93E-02
9412,2.45E-02,3.76E-02
9413,2.45E-02,3.86E-02
9414,2.50E-02,3.97E-02
9415,2.66E-02,4.08E-02
9416,3.29E-02,4.20E-02
9417,3.17E-02,4.31E-02
9418,2.62E-02,2.24E-02
9419,2.64E-02,2.23E-02
9420,2.61E-02,2.26E-02
9421,2.59E-02,2.29E-02
9422,2.56E-02,2.32E-02
9423,2.35E-02,1.72E-02
9424,2.54E-02,1.84E-02
9425,2.44E-02,1.76E-02
9426,2.34E-02,2.10E-02
9427,2.35E-02,2.11E-02
9428,2.36E-02,2.12E-02
9429,2.39E-02,2.16E-02
9430,2.38E-02,2.13E-02
9431,2.43E-02,2.17E-02
9432,2.47E-02,2.17E-02
9433,2.51E-02,2.17E-02
9434,2.54E-02,2.17E-02
9435,2.60E-02,2.17E-02
9436,2.53E-02,2.35E-02
9437,2.49E-02,2.39E-02
9438,2.65E-02,2.20E-02
9439,2.66E-02,2.20E-02
9440,2.39E-02,3.17E-02
9441,2.37E-02,3.04E-02
9442,2.32E-02,2.91E-02
9443,2.62E-02,2.17E-02
9444,2.66E-02,2.20E-02
9445,2.65E-02,2.18E-02
9446,2.63E-02,2.16E-02
9447,2.46E-02,2.44E-02
9448,2.42E-02,2.50E-02
9449,2.65E-02,2.20E-02
9450,2.65E-02,2.22E-02
9451,2.64E-02,2.20E-02
9452,2.46E-02,3.05E-02
9453,2.47E-02,3.19E-02
9454,2.50E-02,3.34E-02
9455,2.16E-02,9.61E-03
9456,2.54E-02,3.48E-02
9457,2.25E-02,1.40E-02
9458,2.31E-02,1.73E-03
9459,2.64E-02,1.96E-02
9460,2.37E-02,2.09E-02
9461,2.43E-02,2.03E-02
9462,2.31E-02,1.68E-03
9463,2.31E-02,2.67E-03
9464,2.30E-02,3.98E-03
9465,2.31E-02,5.38E-03
9466,2.30E-02,6.82E-03
9467,2.28E-02,8.25E-03
9468,2.27E-02,9.69E-03
9469,2.26E-02,1.11E-02
9470,2.26E-02,1.26E-02
9471,2.14E-02,1.08E-02
9472,2.51E-02,3.23E-02
9473,2.55E-02,3.37E-02
9474,2.66E-02,3.50E-02
9475,2.47E-02,3.09E-02
9476,2.64E-02,2.19E-02
9477,2.43E-02,2.46E-02
9478,2.62E-02,2.14E-02
9479,2.34E-02,2.92E-02
9480,2.38E-02,3.05E-02
9481,2.64E-02,2.18E-02
9482,2.63E-02,2.16E-02
9483,2.62E-02,2.14E-02
9484,2.64E-02,2.18E-02
9485,2.64E-02,2.18E-02
9486,2.47E-02,2.41E-02
9487,2.51E-02,2.36E-02
9488,2.60E-02,2.14E-02
9489,2.58E-02,2.14E-02
9490,2.53E-02,2.14E-02
9491,2.47E-02,2.14E-02
9492,2.44E-02,2.14E-02
9493,2.40E-02,2.13E-02
9494,2.38E-02,2.09E-02
9495,2.36E-02,2.08E-02
9496,2.36E-02,2.06E-02
9497,2.36E-02,2.07E-02
9498,2.42E-02,1.68E-02
9499,2.49E-02,1.80E-02
9500,2.43E-02,1.73E-02
9501,2.54E-02,2.32E-02
9502,2.57E-02,2.29E-02
9503,2.59E-02,2.26E-02
9504,2.63E-02,2.21E-02
9505,2.63E-02,2.20E-02
9506,2.62E-02,2.23E-02
9507,2.61E-02,2.24E-02
9508,2.89E-02,4.29E-02
9509,2.80E-02,4.18E-02
9510,2.70E-02,4.07E-02
9511,2.59E-02,3.97E-02
9512,2.50E-02,3.86E-02
9513,2.47E-02,3.76E-02
9514,2.44E-02,2.96E-02
9515,2.45E-02,3.65E-02
9516,2.47E-02,3.54E-02
9517,2.47E-02,3.43E-02
9518,2.46E-02,3.31E-02
9519,2.41E-02,3.18E-02
9520,2.40E-02,2.52E-02
9521,2.38E-02,2.58E-02
9522,2.37E-02,2.66E-02
9523,2.38E-02,2.75E-02
9524,2.41E-02,2.85E-02
9525,2.33E-02,2.79E-02
9526,2.31E-02,2.65E-02
9527,2.30E-02,2.51E-02
9528,2.28E-02,2.36E-02
9529,2.27E-02,2.21E-02
9530,2.25E-02,2.05E-02
9531,2.28E-02,1.90E-02
9532,2.25E-02,1.74E-02
9533,2.24E-02,1.58E-02
9534,2.19E-02,7.22E-03
9535,2.23E-02,6.09E-03
9536,2.29E-02,5.56E-03
9537,2.33E-02,4.99E-03
9538,2.37E-02,4.32E-03
9539,2.35E-02,3.56E-03
9540,2.29E-02,2.03E-03
9541,2.34E-02,2.77E-03
9542,2.17E-02,8.96E-03
9543,2.55E-02,1.92E-02
9544,2.39E-02,2.04E-02
9545,2.30E-02,1.55E-03
9546,2.27E-02,1.42E-02
9547,2.27E-02,1.28E-02
9548,2.28E-02,1.14E-02
9549,2.30E-02,9.96E-03
9550,2.30E-02,8.54E-03
9551,2.31E-02,7.12E-03
9552,2.32E-02,5.70E-03
9553,2.30E-02,4.30E-03
9554,2.31E-02,2.97E-03
9555,2.30E-02,1.86E-03
9556,2.45E-02,1.98E-02
9557,2.16E-02,1.01E-02
9558,2.32E-02,1.73E-03
9559,2.33E-02,2.36E-03
9560,2.33E-02,3.08E-03
9561,2.33E-02,3.77E-03
9562,2.31E-02,4.39E-03
9563,2.25E-02,4.96E-03
9564,2.20E-02,5.50E-03
9565,2.17E-02,6.62E-03
9566,2.24E-02,1.60E-02
9567,2.27E-02,1.76E-02
9568,2.27E-02,1.92E-02
9569,2.26E-02,2.07E-02
9570,2.28E-02,2.23E-02
9571,2.30E-02,2.38E-02
9572,2.30E-02,2.52E-02
9573,2.31E-02,2.66E-02
9574,2.39E-02,2.78E-02
9575,2.37E-02,2.69E-02
9576,2.37E-02,2.61E-02
9577,2.39E-02,2.53E-02
9578,2.45E-02,3.18E-02
9579,2.49E-02,3.31E-02
9580,2.47E-02,3.43E-02
9581,2.47E-02,3.54E-02
9582,2.42E-02,2.88E-02
9583,2.47E-02,3.65E-02
9584,2.49E-02,3.75E-02
9585,2.53E-02,3.85E-02
9586,2.55E-02,3.96E-02
9587,2.68E-02,4.06E-02
9588,2.79E-02,4.26E-02
9589,2.70E-02,4.15E-02
9590,2.60E-02,2.22E-02
9591,2.61E-02,2.21E-02
9592,2.61E-02,2.19E-02
9593,2.59E-02,2.24E-02
9594,2.57E-02,2.27E-02
9595,2.55E-02,2.30E-02
9596,2.42E-02,1.64E-02
9597,2.48E-02,1.76E-02
9598,2.41E-02,1.69E-02
9599,2.36E-02,2.02E-02
9600,2.36E-02,2.04E-02
9601,2.37E-02,2.05E-02
9602,2.41E-02,2.10E-02
9603,2.39E-02,2.06E-02
9604,2.45E-02,2.11E-02
9605,2.51E-02,2.11E-02
9606,2.55E-02,2.12E-02
9607,2.58E-02,2.12E-02
9608,2.52E-02,2.33E-02
9609,2.48E-02,2.37E-02
9610,2.63E-02,2.17E-02
9611,2.63E-02,2.16E-02
9612,2.62E-02,2.15E-02
9613,2.61E-02,2.12E-02
9614,2.39E-02,3.06E-02
9615,2.38E-02,2.92E-02
9616,2.33E-02,2.79E-02
9617,2.60E-02,2.12E-02
9618,2.61E-02,2.12E-02
9619,2.44E-02,2.42E-02
9620,2.41E-02,2.47E-02
9621,2.63E-02,2.17E-02
9622,2.62E-02,2.18E-02
9623,2.46E-02,3.00E-02
9624,3.09E-02,3.63E-02
9625,2.81E-02,3.51E-02
9626,2.60E-02,3.39E-02
9627,2.51E-02,3.13E-02
9628,2.55E-02,3.26E-02
9629,2.16E-02,8.34E-03
9630,2.25E-02,1.44E-02
9631,2.31E-02,1.48E-03
9632,2.49E-02,1.88E-02
9633,2.39E-02,2.00E-02
9634,2.46E-02,1.94E-02
9635,2.31E-02,2.11E-03
9636,2.30E-02,3.31E-03
9637,2.31E-02,4.64E-03
9638,2.32E-02,6.03E-03
9639,2.32E-02,7.43E-03
9640,2.29E-02,8.83E-03
9641,2.28E-02,1.02E-02
9642,2.29E-02,1.16E-02
9643,2.28E-02,1.30E-02
9644,2.14E-02,9.45E-03
9645,2.52E-02,3.16E-02
9646,2.59E-02,3.29E-02
9647,2.69E-02,3.41E-02
9648,2.90E-02,3.64E-02
9649,2.82E-02,3.52E-02
9650,2.49E-02,3.03E-02
9651,2.61E-02,2.16E-02
9652,2.42E-02,2.43E-02
9653,2.59E-02,2.10E-02
9654,2.36E-02,2.80E-02
9655,2.39E-02,2.93E-02
9656,2.59E-02,2.10E-02
9657,2.62E-02,2.15E-02
9658,2.60E-02,2.13E-02
9659,2.59E-02,2.11E-02
9660,2.61E-02,2.15E-02
9661,2.45E-02,2.38E-02
9662,2.49E-02,2.34E-02
9663,2.58E-02,2.09E-02
9664,2.55E-02,2.09E-02
9665,2.52E-02,2.08E-02
9666,2.47E-02,2.08E-02
9667,2.43E-02,2.07E-02
9668,2.39E-02,2.03E-02
9669,2.39E-02,2.02E-02
9670,2.37E-02,1.99E-02
9671,2.37E-02,2.00E-02
9672,2.40E-02,1.61E-02
9673,2.45E-02,1.73E-02
9674,2.40E-02,1.65E-02
9675,2.53E-02,2.30E-02
9676,2.56E-02,2.27E-02
9677,2.57E-02,2.24E-02
9678,2.60E-02,2.17E-02
9679,2.60E-02,2.20E-02
9680,2.59E-02,2.18E-02
9681,2.59E-02,2.22E-02
9682,2.67E-02,4.12E-02
9683,2.69E-02,4.22E-02
9684,2.67E-02,4.04E-02
9685,2.65E-02,3.95E-02
9686,2.56E-02,3.85E-02
9687,2.51E-02,3.74E-02
9688,2.47E-02,3.64E-02
9689,2.44E-02,2.91E-02
9690,2.48E-02,3.54E-02
9691,2.48E-02,3.43E-02
9692,2.49E-02,3.31E-02
9693,2.47E-02,3.19E-02
9694,2.41E-02,3.06E-02
9695,2.39E-02,2.49E-02
9696,2.37E-02,2.55E-02
9697,2.36E-02,2.63E-02
9698,2.37E-02,2.71E-02
9699,2.40E-02,2.81E-02
9700,2.31E-02,2.67E-02
9701,2.30E-02,2.53E-02
9702,2.30E-02,2.39E-02
9703,2.30E-02,2.25E-02
9704,2.27E-02,2.09E-02
9705,2.28E-02,1.94E-02
9706,2.29E-02,1.78E-02
9707,2.27E-02,1.62E-02
9708,2.15E-02,6.03E-03
9709,2.18E-02,4.93E-03
9710,2.23E-02,4.38E-03
9711,2.27E-02,3.82E-03
9712,2.31E-02,3.24E-03
9713,2.33E-02,2.61E-03
9714,2.31E-02,1.52E-03
9715,2.32E-02,1.98E-03
9716,2.13E-02,7.73E-03
9717,2.46E-02,1.84E-02
9718,2.40E-02,1.97E-02
9719,2.30E-02,1.55E-03
9720,2.23E-02,1.46E-02
9721,2.26E-02,1.33E-02
9722,2.29E-02,1.19E-02
9723,2.30E-02,1.05E-02
9724,2.31E-02,9.14E-03
9725,2.32E-02,7.75E-03
9726,2.32E-02,6.37E-03
9727,2.32E-02,5.00E-03
9728,2.30E-02,3.66E-03
9729,2.30E-02,2.43E-03
9730,2.44E-02,1.90E-02
9731,2.12E-02,8.84E-03
9732,2.30E-02,1.45E-03
9733,2.34E-02,1.67E-03
9734,2.31E-02,2.17E-03
9735,2.29E-02,2.73E-03
9736,2.27E-02,3.29E-03
9737,2.20E-02,3.84E-03
9738,2.14E-02,5.47E-03
9739,2.17E-02,4.38E-03
9740,2.28E-02,1.65E-02
9741,2.30E-02,1.81E-02
9742,2.27E-02,1.96E-02
9743,2.29E-02,2.11E-02
9744,2.30E-02,2.26E-02
9745,2.32E-02,2.41E-02
9746,2.31E-02,2.55E-02
9747,2.38E-02,2.74E-02
9748,2.36E-02,2.65E-02
9749,2.36E-02,2.57E-02
9750,2.38E-02,2.51E-02
9751,2.43E-02,3.07E-02
9752,2.48E-02,3.19E-02
9753,2.49E-02,3.31E-02
9754,2.48E-02,3.42E-02
9755,2.42E-02,2.84E-02
9756,2.47E-02,3.53E-02
9757,2.48E-02,3.63E-02
9758,2.53E-02,3.74E-02
9759,2.59E-02,3.83E-02
9760,2.63E-02,3.93E-02
9761,2.64E-02,4.18E-02
9762,2.60E-02,4.08E-02
9763,2.65E-02,4.01E-02
9764,2.58E-02,2.20E-02
9765,2.58E-02,2.18E-02
9766,2.59E-02,2.16E-02
9767,2.57E-02,2.22E-02
9768,2.56E-02,2.24E-02
9769,2.54E-02,2.27E-02
9770,2.39E-02,1.57E-02
9771,2.45E-02,1.69E-02
9772,2.39E-02,1.62E-02
9773,2.38E-02,1.95E-02
9774,2.37E-02,1.97E-02
9775,2.39E-02,1.99E-02
9776,2.44E-02,2.04E-02
9777,2.40E-02,2.00E-02
9778,2.48E-02,2.05E-02
9779,2.53E-02,2.06E-02
9780,2.56E-02,2.06E-02
9781,2.51E-02,2.31E-02
9782,2.47E-02,2.35E-02
9783,2.60E-02,2.13E-02
9784,2.59E-02,2.11E-02
9785,2.58E-02,2.09E-02
9786,2.58E-02,2.08E-02
9787,2.40E-02,2.94E-02
9788,2.38E-02,2.81E-02
9789,2.33E-02,2.68E-02
9790,2.57E-02,2.07E-02
9791,2.58E-02,2.08E-02
9792,2.43E-02,2.39E-02
9793,2.40E-02,2.44E-02
9794,2.60E-02,2.14E-02
9795,2.60E-02,2.15E-02
9796,2.46E-02,2.95E-02
9797,2.80E-02,3.65E-02
9798,2.74E-02,3.53E-02
9799,2.70E-02,3.42E-02
9800,2.63E-02,3.31E-02
9801,2.51E-02,3.06E-02
9802,2.55E-02,3.19E-02
9803,2.26E-02,1.49E-02
9804,2.30E-02,1.74E-03
9805,2.44E-02,1.80E-02
9806,2.40E-02,1.93E-02
9807,2.43E-02,1.87E-02
9808,2.29E-02,2.77E-03
9809,2.30E-02,4.02E-03
9810,2.30E-02,5.36E-03
9811,2.32E-02,6.72E-03
9812,2.33E-02,8.09E-03
9813,2.32E-02,9.45E-03
9814,2.31E-02,1.08E-02
9815,2.29E-02,1.22E-02
9816,2.27E-02,1.35E-02
9817,2.52E-02,3.09E-02
9818,2.58E-02,3.21E-02
9819,2.64E-02,3.32E-02
9820,2.69E-02,3.43E-02
9821,2.48E-02,2.98E-02
9822,2.59E-02,2.13E-02
9823,2.41E-02,2.40E-02
9824,2.56E-02,2.05E-02
9825,2.08E-02,6.01E-03
9826,2.36E-02,2.69E-02
9827,2.40E-02,2.82E-02
9828,2.56E-02,2.05E-02
9829,2.56E-02,2.06E-02
9830,2.59E-02,2.12E-02
9831,2.58E-02,2.09E-02
9832,2.56E-02,2.07E-02
9833,2.44E-02,2.35E-02
9834,2.48E-02,2.31E-02
9835,2.55E-02,2.04E-02
9836,2.53E-02,2.03E-02
9837,2.49E-02,2.02E-02
9838,2.45E-02,2.01E-02
9839,2.41E-02,1.97E-02
9840,2.37E-02,1.96E-02
9841,2.38E-02,1.92E-02
9842,2.39E-02,1.94E-02
9843,2.38E-02,1.54E-02
9844,2.43E-02,1.66E-02
9845,2.39E-02,1.58E-02
9846,2.52E-02,2.27E-02
9847,2.54E-02,2.24E-02
9848,2.56E-02,2.22E-02
9849,2.58E-02,2.14E-02
9850,2.57E-02,2.15E-02
9851,2.56E-02,2.19E-02
9852,2.56E-02,2.17E-02
9853,2.62E-02,3.98E-02
9854,2.58E-02,4.05E-02
9855,2.59E-02,4.14E-02
9856,2.63E-02,3.90E-02
9857,2.57E-02,3.82E-02
9858,2.55E-02,3.73E-02
9859,2.49E-02,3.63E-02
9860,2.47E-02,3.53E-02
9861,2.74E-02,3.65E-02
9862,2.68E-02,3.55E-02
9863,2.44E-02,2.87E-02
9864,2.48E-02,3.42E-02
9865,2.48E-02,3.31E-02
9866,2.48E-02,3.20E-02
9867,2.46E-02,3.07E-02
9868,2.41E-02,2.95E-02
9869,2.38E-02,2.46E-02
9870,2.36E-02,2.52E-02
9871,2.35E-02,2.59E-02
9872,2.36E-02,2.67E-02
9873,2.39E-02,2.76E-02
9874,2.34E-02,2.56E-02
9875,2.32E-02,2.42E-02
9876,2.31E-02,2.28E-02
9877,2.31E-02,2.13E-02
9878,2.27E-02,1.98E-02
9879,2.28E-02,1.83E-02
9880,2.29E-02,1.67E-02
9881,2.09E-02,4.93E-03
9882,2.12E-02,3.86E-03
9883,2.19E-02,3.33E-03
9884,2.25E-02,2.79E-03
9885,2.28E-02,2.27E-03
9886,2.31E-02,1.81E-03
9887,2.32E-02,1.53E-03
9888,2.33E-02,1.49E-03
9889,2.46E-02,1.76E-02
9890,2.42E-02,1.89E-02
9891,2.29E-02,2.01E-03
9892,2.28E-02,1.51E-02
9893,2.26E-02,1.38E-02
9894,2.26E-02,1.25E-02
9895,2.27E-02,1.11E-02
9896,2.30E-02,9.78E-03
9897,2.31E-02,8.43E-03
9898,2.31E-02,7.08E-03
9899,2.30E-02,5.73E-03
9900,2.30E-02,4.41E-03
9901,2.28E-02,3.13E-03
9902,2.43E-02,1.83E-02
9903,2.32E-02,1.75E-03
9904,2.35E-02,1.47E-03
9905,2.32E-02,1.56E-03
9906,2.27E-02,1.89E-03
9907,2.25E-02,2.35E-03
9908,2.19E-02,2.85E-03
9909,2.30E-02,1.70E-02
9910,2.28E-02,1.86E-02
9911,2.28E-02,2.01E-02
9912,2.30E-02,2.15E-02
9913,2.31E-02,2.30E-02
9914,2.33E-02,2.43E-02
9915,2.36E-02,2.70E-02
9916,2.34E-02,2.61E-02
9917,2.35E-02,2.54E-02
9918,2.37E-02,2.47E-02
9919,2.43E-02,2.96E-02
9920,2.47E-02,3.08E-02
9921,2.47E-02,3.20E-02
9922,2.49E-02,3.31E-02
9923,2.41E-02,2.79E-02
9924,2.69E-02,3.66E-02
9925,2.64E-02,3.56E-02
9926,2.48E-02,3.42E-02
9927,2.49E-02,3.52E-02
9928,2.49E-02,3.62E-02
9929,2.56E-02,3.71E-02
9930,2.58E-02,3.80E-02
9931,2.55E-02,4.11E-02
9932,2.53E-02,4.01E-02
9933,2.56E-02,3.95E-02
9934,2.57E-02,3.88E-02
9935,2.55E-02,2.14E-02
9936,2.57E-02,2.13E-02
9937,2.55E-02,2.19E-02
9938,2.54E-02,2.16E-02
9939,2.54E-02,2.22E-02
9940,2.53E-02,2.24E-02
9941,2.37E-02,1.50E-02
9942,2.43E-02,1.63E-02
9943,2.38E-02,1.55E-02
9944,2.40E-02,1.89E-02
9945,2.38E-02,1.91E-02
9946,2.38E-02,1.92E-02
9947,2.46E-02,1.98E-02
9948,2.42E-02,1.94E-02
9949,2.50E-02,2.00E-02
9950,2.53E-02,2.01E-02
9951,2.49E-02,2.28E-02
9952,2.45E-02,2.32E-02
9953,2.55E-02,2.04E-02
9954,2.55E-02,2.03E-02
9955,2.39E-02,2.83E-02
9956,2.37E-02,2.70E-02
9957,2.35E-02,2.57E-02
9958,2.11E-02,7.00E-03
9959,2.15E-02,3.37E-03
9960,2.55E-02,2.02E-02
9961,2.55E-02,2.02E-02
9962,2.42E-02,2.36E-02
9963,2.39E-02,2.42E-02
9964,2.58E-02,2.10E-02
9965,2.56E-02,2.08E-02
9966,2.55E-02,2.05E-02
9967,2.58E-02,2.11E-02
9968,2.46E-02,2.89E-02
9969,2.65E-02,3.45E-02
9970,2.63E-02,3.34E-02
9971,2.58E-02,3.23E-02
9972,2.48E-02,3.00E-02
9973,2.53E-02,3.12E-02
9974,2.29E-02,1.54E-02
9975,2.31E-02,2.35E-03
9976,2.44E-02,1.73E-02
9977,2.41E-02,1.86E-02
9978,2.41E-02,1.80E-02
9979,2.29E-02,3.52E-03
9980,2.29E-02,4.80E-03
9981,2.30E-02,6.11E-03
9982,2.30E-02,7.45E-03
9983,2.31E-02,8.78E-03
9984,2.29E-02,1.01E-02
9985,2.30E-02,1.14E-02
9986,2.29E-02,1.28E-02
9987,2.29E-02,1.41E-02
9988,2.48E-02,3.03E-02
9989,2.52E-02,3.14E-02
9990,2.57E-02,3.25E-02
9991,2.61E-02,3.35E-02
9992,2.47E-02,2.92E-02
9993,2.56E-02,2.09E-02
9994,2.55E-02,2.06E-02
9995,2.54E-02,2.03E-02
9996,2.39E-02,2.37E-02
9997,2.54E-02,1.99E-02
9998,2.18E-02,2.93E-03
9999,2.36E-02,2.58E-02
10000,2.38E-02,2.71E-02
10001,2.54E-02,2.00E-02
10002,2.53E-02,2.01E-02
10003,2.53E-02,2.02E-02
10004,2.42E-02,2.32E-02
10005,2.46E-02,2.28E-02
10006,2.53E-02,1.98E-02
10007,2.50E-02,1.97E-02
10008,2.47E-02,1.96E-02
10009,2.43E-02,1.91E-02
10010,2.39E-02,1.90E-02
10011,2.39E-02,1.85E-02
10012,2.36E-02,1.88E-02
10013,2.37E-02,1.47E-02
10014,2.41E-02,1.59E-02
10015,2.37E-02,1.52E-02
10016,2.50E-02,2.25E-02
10017,2.53E-02,2.21E-02
10018,2.54E-02,2.19E-02
10019,2.53E-02,2.16E-02
10020,2.56E-02,2.10E-02
10021,2.55E-02,2.12E-02
10022,2.54E-02,2.14E-02
10023,2.51E-02,3.85E-02
10024,2.53E-02,3.92E-02
10025,2.54E-02,3.77E-02
10026,2.55E-02,3.69E-02
10027,2.50E-02,3.61E-02
10028,2.48E-02,3.51E-02
10029,2.45E-02,3.41E-02
10030,2.62E-02,3.46E-02
10031,2.64E-02,3.67E-02
10032,2.62E-02,3.57E-02
10033,2.52E-02,3.98E-02
10034,2.53E-02,4.08E-02
10035,2.41E-02,2.82E-02
10036,2.48E-02,3.31E-02
10037,2.48E-02,3.20E-02
10038,2.47E-02,3.08E-02
10039,2.44E-02,2.96E-02
10040,2.40E-02,2.84E-02
10041,2.37E-02,2.43E-02
10042,2.35E-02,2.49E-02
10043,2.34E-02,2.56E-02
10044,2.34E-02,2.64E-02
10045,2.40E-02,2.72E-02
10046,2.34E-02,2.45E-02
10047,2.33E-02,2.31E-02
10048,2.32E-02,2.17E-02
10049,2.30E-02,2.03E-02
10050,2.28E-02,1.88E-02
10051,2.29E-02,1.73E-02
10052,2.22E-02,2.43E-03
10053,2.25E-02,1.98E-03
10054,2.29E-02,1.63E-03
10055,2.32E-02,1.49E-03
10056,2.33E-02,2.08E-03
10057,2.33E-02,1.64E-03
10058,2.16E-02,6.40E-03
10059,2.42E-02,1.70E-02
10060,2.40E-02,1.83E-02
10061,2.33E-02,2.73E-03
10062,2.32E-02,1.57E-02
10063,2.30E-02,1.44E-02
10064,2.28E-02,1.31E-02
10065,2.31E-02,1.18E-02
10066,2.29E-02,1.04E-02
10067,2.30E-02,9.13E-03
10068,2.31E-02,7.81E-03
10069,2.31E-02,6.50E-03
10070,2.31E-02,5.19E-03
10071,2.31E-02,3.92E-03
10072,2.40E-02,1.77E-02
10073,2.32E-02,5.73E-03
10074,2.33E-02,2.47E-03
10075,2.34E-02,1.94E-03
10076,2.31E-02,1.61E-03
10077,2.29E-02,1.53E-03
10078,2.26E-02,1.71E-03
10079,2.30E-02,1.75E-02
10080,2.27E-02,1.90E-02
10081,2.31E-02,2.05E-02
10082,2.33E-02,2.19E-02
10083,2.34E-02,2.33E-02
10084,2.37E-02,2.66E-02
10085,2.33E-02,2.58E-02
10086,2.34E-02,2.51E-02
10087,2.36E-02,2.44E-02
10088,2.41E-02,2.85E-02
10089,2.43E-02,2.97E-02
10090,2.47E-02,3.09E-02
10091,2.46E-02,3.20E-02
10092,2.40E-02,2.75E-02
10093,2.51E-02,4.05E-02
10094,2.51E-02,3.96E-02
10095,2.60E-02,3.67E-02
10096,2.57E-02,3.58E-02
10097,2.58E-02,3.48E-02
10098,2.44E-02,3.30E-02
10099,2.47E-02,3.41E-02
10100,2.49E-02,3.50E-02
10101,2.50E-02,3.59E-02
10102,2.50E-02,3.67E-02
10103,2.54E-02,3.89E-02
10104,2.53E-02,3.82E-02
10105,2.51E-02,3.75E-02
10106,2.53E-02,2.11E-02
10107,2.55E-02,2.09E-02
10108,2.52E-02,2.13E-02
10109,2.53E-02,2.18E-02
10110,2.52E-02,2.15E-02
10111,2.51E-02,2.21E-02
10112,2.37E-02,1.45E-02
10113,2.40E-02,1.57E-02
10114,2.36E-02,1.49E-02
10115,2.36E-02,1.82E-02
10116,2.35E-02,1.85E-02
10117,2.40E-02,1.87E-02
10118,2.48E-02,1.93E-02
10119,2.44E-02,1.89E-02
10120,2.50E-02,1.94E-02
10121,2.47E-02,2.25E-02
10122,2.43E-02,2.29E-02
10123,2.52E-02,1.99E-02
10124,2.52E-02,1.98E-02
10125,2.28E-02,4.16E-03
10126,2.39E-02,2.72E-02
10127,2.37E-02,2.59E-02
10128,2.35E-02,2.46E-02
10129,2.25E-02,2.09E-03
10130,1.97E-02,3.46E-03
10131,2.29E-02,2.58E-03
10132,2.52E-02,1.96E-02
10133,2.52E-02,1.97E-02
10134,2.40E-02,2.33E-02
10135,2.38E-02,2.38E-02
10136,2.52E-02,2.00E-02
10137,2.55E-02,2.08E-02
10138,2.54E-02,2.05E-02
10139,2.53E-02,2.02E-02
10140,2.44E-02,2.84E-02
10141,2.58E-02,3.37E-02
10142,2.54E-02,3.26E-02
10143,2.52E-02,3.16E-02
10144,2.48E-02,2.95E-02
10145,2.48E-02,3.05E-02
10146,2.31E-02,1.60E-02
10147,2.33E-02,3.14E-03
10148,2.40E-02,1.67E-02
10149,2.40E-02,1.80E-02
10150,2.40E-02,1.73E-02
10151,2.32E-02,4.34E-03
10152,2.33E-02,5.60E-03
10153,2.32E-02,6.88E-03
10154,2.32E-02,8.18E-03
10155,2.32E-02,9.48E-03
10156,2.30E-02,1.08E-02
10157,2.30E-02,1.21E-02
10158,2.30E-02,1.34E-02
10159,2.33E-02,1.47E-02
10160,2.47E-02,2.97E-02
10161,2.48E-02,3.07E-02
10162,2.51E-02,3.18E-02
10163,2.53E-02,3.28E-02
10164,2.45E-02,2.87E-02
10165,2.51E-02,1.99E-02
10166,2.38E-02,2.34E-02
10167,2.51E-02,1.93E-02
10168,2.33E-02,1.82E-03
10169,2.35E-02,2.47E-02
10170,2.37E-02,2.61E-02
10171,2.84E-02,4.97E-03
10172,2.29E-02,3.25E-03
10173,2.29E-02,2.24E-03
10174,2.51E-02,1.95E-02
10175,2.50E-02,1.96E-02
10176,2.50E-02,1.97E-02
10177,2.41E-02,2.29E-02
10178,2.46E-02,2.25E-02
10179,2.50E-02,1.92E-02
10180,2.48E-02,1.90E-02
10181,2.45E-02,1.86E-02
10182,2.41E-02,1.84E-02
10183,2.36E-02,1.79E-02
10184,2.36E-02,1.82E-02
10185,2.36E-02,1.42E-02
10186,2.40E-02,1.54E-02
10187,2.35E-02,1.46E-02
10188,2.47E-02,2.21E-02
10189,2.52E-02,2.18E-02
10190,2.51E-02,2.15E-02
10191,2.51E-02,2.12E-02
10192,2.54E-02,2.06E-02
10193,2.53E-02,2.03E-02
10194,2.52E-02,2.00E-02
10195,2.53E-02,2.08E-02
10196,2.51E-02,2.10E-02
10197,2.50E-02,3.73E-02
10198,2.50E-02,3.80E-02
10199,2.48E-02,3.65E-02
10200,2.49E-02,3.57E-02
10201,2.48E-02,3.49E-02
10202,2.48E-02,3.40E-02
10203,2.45E-02,3.30E-02
10204,2.55E-02,3.39E-02
10205,2.53E-02,3.49E-02
10206,2.55E-02,3.67E-02
10207,2.51E-02,3.59E-02
10208,2.49E-02,3.87E-02
10209,2.48E-02,3.93E-02
10210,2.49E-02,4.03E-02
10211,2.43E-02,2.77E-02
10212,2.46E-02,3.20E-02
10213,2.45E-02,3.09E-02
10214,2.43E-02,2.97E-02
10215,2.41E-02,2.86E-02
10216,2.40E-02,2.73E-02
10217,2.36E-02,2.39E-02
10218,2.34E-02,2.46E-02
10219,2.32E-02,2.52E-02
10220,2.34E-02,2.60E-02
10221,2.37E-02,2.68E-02
10222,2.36E-02,2.34E-02
10223,2.32E-02,2.21E-02
10224,2.31E-02,2.07E-02
10225,2.29E-02,1.92E-02
10226,2.28E-02,1.77E-02
10227,2.28E-02,1.60E-03
10228,2.29E-02,1.62E-03
10229,2.32E-02,1.89E-03
10230,2.34E-02,2.89E-03
10231,2.34E-02,2.34E-03
10232,2.40E-02,1.64E-02
10233,2.39E-02,1.77E-02
10234,2.34E-02,3.57E-03
10235,2.30E-02,1.62E-02
10236,2.32E-02,1.49E-02
10237,2.30E-02,1.37E-02
10238,2.30E-02,1.24E-02
10239,2.30E-02,1.11E-02
10240,2.31E-02,9.84E-03
10241,2.33E-02,8.55E-03
10242,2.33E-02,7.28E-03
10243,2.33E-02,6.01E-03
10244,2.33E-02,4.76E-03
10245,2.39E-02,1.70E-02
10246,2.36E-02,3.35E-03
10247,2.33E-02,2.77E-03
10248,2.30E-02,2.26E-03
10249,2.32E-02,1.86E-03
10250,2.30E-02,1.80E-02
10251,2.29E-02,1.94E-02
10252,2.32E-02,2.08E-02
10253,2.36E-02,2.22E-02
10254,2.34E-02,2.62E-02
10255,2.31E-02,2.54E-02
10256,2.33E-02,2.47E-02
10257,2.35E-02,2.41E-02
10258,2.40E-02,2.74E-02
10259,2.42E-02,2.86E-02
10260,2.44E-02,2.98E-02
10261,2.45E-02,3.09E-02
10262,2.39E-02,2.70E-02
10263,2.48E-02,4.00E-02
10264,2.50E-02,3.91E-02
10265,2.47E-02,3.84E-02
10266,2.50E-02,3.66E-02
10267,2.47E-02,3.59E-02
10268,2.51E-02,3.50E-02
10269,2.51E-02,3.40E-02
10270,2.45E-02,3.19E-02
10271,2.46E-02,3.29E-02
10272,2.48E-02,3.39E-02
10273,2.50E-02,3.48E-02
10274,2.47E-02,3.56E-02
10275,2.45E-02,3.77E-02
10276,2.47E-02,3.70E-02
10277,2.46E-02,3.63E-02
10278,2.51E-02,2.07E-02
10279,2.53E-02,2.05E-02
10280,2.52E-02,2.02E-02
10281,2.51E-02,1.99E-02
10282,2.49E-02,2.09E-02
10283,2.52E-02,2.12E-02
10284,2.48E-02,2.18E-02
10285,2.50E-02,2.15E-02
10286,2.36E-02,1.39E-02
10287,2.38E-02,1.51E-02
10288,2.36E-02,1.44E-02
10289,2.35E-02,1.77E-02
10290,2.38E-02,1.79E-02
10291,2.42E-02,1.81E-02
10292,2.48E-02,1.88E-02
10293,2.45E-02,1.84E-02
10294,2.45E-02,2.21E-02
10295,2.43E-02,2.25E-02
10296,2.49E-02,1.94E-02
10297,2.49E-02,1.92E-02
10298,3.09E-02,4.19E-03
10299,3.05E-02,3.01E-03
10300,2.45E-02,2.02E-03
10301,2.38E-02,2.62E-02
10302,2.36E-02,2.49E-02
10303,2.34E-02,2.36E-02
10304,2.32E-02,1.65E-03
10305,2.32E-02,1.70E-03
10306,2.49E-02,1.90E-02
10307,2.49E-02,1.91E-02
10308,2.38E-02,2.30E-02
10309,2.36E-02,2.35E-02
10310,2.49E-02,1.95E-02
10311,2.50E-02,1.97E-02
10312,2.43E-02,2.79E-02
10313,2.50E-02,3.30E-02
10314,2.49E-02,3.20E-02
10315,2.46E-02,3.10E-02
10316,2.47E-02,2.89E-02
10317,2.45E-02,2.99E-02
10318,2.29E-02,1.65E-02
10319,2.33E-02,4.01E-03
10320,2.39E-02,1.61E-02
10321,2.39E-02,1.74E-02
10322,2.38E-02,1.67E-02
10323,2.32E-02,5.19E-03
10324,2.35E-02,6.42E-03
10325,2.34E-02,7.67E-03
10326,2.36E-02,8.93E-03
10327,2.32E-02,1.02E-02
10328,2.32E-02,1.15E-02
10329,2.30E-02,1.27E-02
10330,2.30E-02,1.40E-02
10331,2.30E-02,1.52E-02
10332,2.45E-02,2.92E-02
10333,2.43E-02,3.01E-02
10334,2.44E-02,3.11E-02
10335,2.46E-02,3.22E-02
10336,2.44E-02,2.82E-02
10337,2.48E-02,1.94E-02
10338,2.36E-02,2.31E-02
10339,2.48E-02,1.87E-02
10340,2.33E-02,1.85E-03
10341,2.35E-02,2.37E-02
10342,2.37E-02,2.50E-02
10343,2.36E-02,1.71E-03
10344,2.48E-02,1.89E-02
10345,2.48E-02,1.90E-02
10346,2.48E-02,1.92E-02
10347,2.39E-02,2.26E-02
10348,2.43E-02,2.22E-02
10349,2.47E-02,1.85E-02
10350,2.45E-02,1.81E-02
10351,2.42E-02,1.79E-02
10352,2.38E-02,1.74E-02
10353,2.37E-02,1.76E-02
10354,2.37E-02,1.36E-02
10355,2.35E-02,1.49E-02
10356,2.36E-02,1.41E-02
10357,2.46E-02,2.18E-02
10358,2.47E-02,2.14E-02
10359,2.50E-02,2.11E-02
10360,2.51E-02,2.09E-02
10361,2.49E-02,1.95E-02
10362,2.51E-02,2.04E-02
10363,2.51E-02,2.01E-02
10364,2.50E-02,1.97E-02
10365,2.48E-02,2.06E-02
10366,2.44E-02,3.61E-02
10367,2.46E-02,3.68E-02
10368,2.43E-02,3.54E-02
10369,2.44E-02,3.46E-02
10370,2.46E-02,3.38E-02
10371,2.46E-02,3.29E-02
10372,2.45E-02,3.19E-02
10373,2.47E-02,3.32E-02
10374,2.47E-02,3.42E-02
10375,2.48E-02,3.51E-02
10376,2.46E-02,3.66E-02
10377,2.44E-02,3.59E-02
10378,2.46E-02,3.75E-02
10379,2.49E-02,3.82E-02
10380,2.53E-02,3.89E-02
10381,2.48E-02,3.99E-02
10382,2.40E-02,2.72E-02
10383,2.44E-02,3.09E-02
10384,2.44E-02,2.98E-02
10385,2.42E-02,2.87E-02
10386,2.41E-02,2.75E-02
10387,2.39E-02,2.63E-02
10388,2.86E-02,3.60E-03
10389,2.67E-02,2.59E-03
10390,2.51E-02,1.86E-03
10391,2.35E-02,2.36E-02
10392,2.34E-02,2.42E-02
10393,2.31E-02,2.49E-02
10394,2.32E-02,2.56E-02
10395,2.37E-02,2.64E-02
10396,2.33E-02,2.24E-02
10397,2.33E-02,2.10E-02
10398,2.32E-02,1.96E-02
10399,2.30E-02,1.82E-02
10400,2.32E-02,2.18E-03
10401,2.31E-02,2.66E-03
10402,2.35E-02,3.81E-03
10403,2.31E-02,3.21E-03
10404,2.37E-02,1.58E-02
10405,2.37E-02,1.71E-02
10406,2.34E-02,4.46E-03
10407,2.29E-02,1.67E-02
10408,2.29E-02,1.55E-02
10409,2.30E-02,1.43E-02
10410,2.29E-02,1.30E-02
10411,2.31E-02,1.18E-02
10412,2.33E-02,1.06E-02
10413,2.35E-02,9.30E-03
10414,2.33E-02,8.06E-03
10415,2.33E-02,6.83E-03
10416,2.34E-02,5.63E-03
10417,2.36E-02,1.65E-02
10418,2.56E-02,2.24E-03
10419,2.68E-02,3.09E-03
10420,2.33E-02,4.27E-03
10421,2.30E-02,3.65E-03
10422,2.30E-02,3.08E-03
10423,2.29E-02,1.84E-02
10424,2.31E-02,1.98E-02
10425,2.32E-02,2.12E-02
10426,2.33E-02,2.57E-02
10427,2.30E-02,2.50E-02
10428,2.32E-02,2.43E-02
10429,2.34E-02,2.37E-02
10430,2.52E-02,1.99E-03
10431,2.52E-02,1.79E-03
10432,2.39E-02,2.64E-02
10433,2.41E-02,2.76E-02
10434,2.43E-02,2.87E-02
10435,2.44E-02,2.98E-02
10436,2.37E-02,2.66E-02
10437,2.50E-02,3.97E-02
10438,2.54E-02,3.88E-02
10439,2.49E-02,3.81E-02
10440,2.45E-02,3.73E-02
10441,2.43E-02,3.67E-02
10442,2.43E-02,3.60E-02
10443,2.44E-02,3.52E-02
10444,2.44E-02,3.43E-02
10445,2.43E-02,3.33E-02
10446,2.44E-02,3.09E-02
10447,2.44E-02,3.19E-02
10448,2.45E-02,3.28E-02
10449,2.45E-02,3.36E-02
10450,2.44E-02,3.44E-02
10451,2.43E-02,3.66E-02
10452,2.42E-02,3.59E-02
10453,2.40E-02,3.52E-02
10454,2.49E-02,2.03E-02
10455,2.48E-02,1.99E-02
10456,2.48E-02,1.96E-02
10457,2.49E-02,1.94E-02
10458,2.50E-02,2.05E-02
10459,2.49E-02,2.08E-02
10460,2.48E-02,2.11E-02
10461,2.37E-02,1.34E-02
10462,2.34E-02,1.46E-02
10463,2.35E-02,1.39E-02
10464,2.35E-02,1.71E-02
10465,2.38E-02,1.74E-02
10466,2.42E-02,1.76E-02
10467,2.45E-02,2.18E-02
10468,2.46E-02,2.14E-02
10469,2.41E-02,2.22E-02
10470,2.46E-02,1.88E-02
10471,2.46E-02,1.87E-02
10472,2.42E-02,1.83E-03
10473,2.38E-02,2.52E-02
10474,2.36E-02,2.39E-02
10475,2.34E-02,2.26E-02
10476,2.34E-02,2.56E-03
10477,2.35E-02,2.13E-03
10478,2.46E-02,1.83E-02
10479,2.44E-02,1.79E-02
10480,2.46E-02,1.85E-02
10481,2.38E-02,2.26E-02
10482,2.35E-02,2.31E-02
10483,2.46E-02,1.90E-02
10484,2.47E-02,1.92E-02
10485,2.40E-02,2.74E-02
10486,2.43E-02,3.23E-02
10487,2.40E-02,3.13E-02
10488,2.41E-02,3.03E-02
10489,2.45E-02,2.84E-02
10490,2.42E-02,2.94E-02
10491,2.29E-02,1.70E-02
10492,2.34E-02,4.92E-03
10493,2.36E-02,1.56E-02
10494,2.38E-02,1.68E-02
10495,2.36E-02,1.62E-02
10496,2.35E-02,6.07E-03
10497,2.35E-02,7.25E-03
10498,2.34E-02,8.45E-03
10499,2.34E-02,9.68E-03
10500,2.32E-02,1.09E-02
10501,2.31E-02,1.21E-02
10502,2.29E-02,1.33E-02
10503,2.28E-02,1.45E-02
10504,2.28E-02,1.58E-02
10505,2.56E-02,2.67E-03
10506,2.44E-02,2.86E-02
10507,2.40E-02,2.96E-02
10508,2.40E-02,3.05E-02
10509,2.39E-02,3.15E-02
10510,2.42E-02,2.77E-02
10511,2.46E-02,1.88E-02
10512,2.35E-02,2.27E-02
10513,2.45E-02,1.81E-02
10514,2.43E-02,1.76E-02
10515,2.36E-02,2.95E-03
10516,2.35E-02,2.27E-02
10517,2.37E-02,2.40E-02
10518,2.39E-02,2.45E-03
10519,2.45E-02,1.83E-02
10520,2.44E-02,1.84E-02
10521,2.45E-02,1.86E-02
10522,2.39E-02,2.22E-02
10523,2.43E-02,2.18E-02
10524,2.41E-02,2.14E-02
10525,2.42E-02,1.74E-02
10526,2.36E-02,1.69E-02
10527,2.39E-02,1.71E-02
10528,2.37E-02,1.32E-02
10529,2.27E-02,1.44E-02
10530,2.32E-02,1.37E-02
10531,2.47E-02,2.10E-02
10532,2.49E-02,2.07E-02
10533,2.50E-02,2.04E-02
10534,2.47E-02,1.90E-02
10535,2.48E-02,1.92E-02
10536,2.48E-02,2.02E-02
10537,2.47E-02,1.98E-02
10538,2.48E-02,1.95E-02
10539,2.40E-02,3.50E-02
10540,2.38E-02,3.57E-02
10541,2.39E-02,3.43E-02
10542,2.42E-02,3.35E-02
10543,2.44E-02,3.27E-02
10544,2.43E-02,3.18E-02
10545,2.43E-02,3.08E-02
10546,2.39E-02,3.25E-02
10547,2.41E-02,3.35E-02
10548,2.42E-02,3.44E-02
10549,2.42E-02,3.52E-02
10550,2.42E-02,3.68E-02
10551,2.41E-02,3.61E-02
10552,2.42E-02,3.65E-02
10553,2.44E-02,3.72E-02
10554,2.50E-02,3.79E-02
10555,2.38E-02,2.68E-02
10556,2.43E-02,2.98E-02
10557,2.43E-02,2.88E-02
10558,2.41E-02,2.77E-02
10559,2.40E-02,2.65E-02
10560,2.38E-02,2.53E-02
10561,2.45E-02,2.06E-03
10562,2.47E-02,1.86E-03
10563,2.49E-02,2.31E-03
10564,2.46E-02,1.88E-03
10565,2.33E-02,2.32E-02
10566,2.33E-02,2.38E-02
10567,2.29E-02,2.45E-02
10568,2.31E-02,2.52E-02
10569,2.34E-02,2.59E-02
10570,2.33E-02,2.14E-02
10571,2.32E-02,2.00E-02
10572,2.30E-02,1.86E-02
10573,2.31E-02,3.50E-03
10574,2.30E-02,4.72E-03
10575,2.29E-02,4.09E-03
10576,2.34E-02,1.53E-02
10577,2.35E-02,1.66E-02
10578,2.34E-02,5.38E-03
10579,2.29E-02,1.72E-02
10580,2.25E-02,3.97E-02
10581,2.55E-02,3.87E-02
10582,1.97E-02,3.96E-02
10583,1.71E-02,3.88E-02
10584,2.30E-02,1.60E-02
10585,2.29E-02,1.48E-02
10586,2.29E-02,1.37E-02
10587,2.29E-02,1.25E-02
10588,2.31E-02,1.13E-02
10589,2.34E-02,1.01E-02
10590,2.35E-02,8.86E-03
10591,2.37E-02,7.68E-03
10592,2.35E-02,6.51E-03
10593,2.34E-02,1.60E-02
10594,2.30E-02,5.15E-03
10595,2.30E-02,4.52E-03
10596,2.31E-02,1.89E-02
10597,2.32E-02,2.03E-02
10598,2.33E-02,2.53E-02
10599,2.29E-02,2.46E-02
10600,2.30E-02,2.39E-02
10601,2.32E-02,2.33E-02
10602,2.42E-02,2.08E-03
10603,2.42E-02,2.38E-03
10604,2.43E-02,2.06E-03
10605,2.39E-02,1.93E-03
10606,2.39E-02,2.54E-02
10607,2.40E-02,2.66E-02
10608,2.42E-02,2.77E-02
10609,2.42E-02,2.88E-02
10610,2.34E-02,2.61E-02
10611,2.65E-02,3.78E-02
10612,2.47E-02,3.70E-02
10613,2.42E-02,3.63E-02
10614,2.43E-02,3.69E-02
10615,2.40E-02,3.62E-02
10616,2.38E-02,3.53E-02
10617,2.38E-02,3.45E-02
10618,2.36E-02,3.36E-02
10619,2.36E-02,3.26E-02
10620,2.43E-02,2.98E-02
10621,2.43E-02,3.08E-02
10622,2.42E-02,3.17E-02
10623,2.41E-02,3.26E-02
10624,2.39E-02,3.34E-02
10625,2.39E-02,3.56E-02
10626,2.38E-02,3.49E-02
10627,2.39E-02,3.41E-02
10628,2.48E-02,1.91E-02
10629,2.46E-02,1.89E-02
10630,2.48E-02,2.01E-02
10631,2.47E-02,1.97E-02
10632,2.46E-02,1.93E-02
10633,2.48E-02,2.04E-02
10634,2.47E-02,2.07E-02
10635,2.44E-02,1.30E-02
10636,2.28E-02,1.42E-02
10637,2.39E-02,1.35E-02
10638,2.37E-02,1.66E-02
10639,2.39E-02,1.69E-02
10640,2.44E-02,2.10E-02
10641,2.40E-02,2.18E-02
10642,2.42E-02,2.14E-02
10643,2.43E-02,1.82E-02
10644,2.43E-02,1.80E-02
10645,2.39E-02,2.83E-03
10646,2.37E-02,2.42E-02
10647,2.35E-02,2.29E-02
10648,2.34E-02,2.16E-02
10649,2.31E-02,3.92E-03
10650,2.35E-02,3.35E-03
10651,2.41E-02,1.72E-02
10652,2.43E-02,1.78E-02
10653,2.41E-02,1.74E-02
10654,2.37E-02,2.23E-02
10655,2.33E-02,2.28E-02
10656,2.44E-02,1.84E-02
10657,2.45E-02,1.86E-02
10658,2.39E-02,2.70E-02
10659,2.37E-02,3.17E-02
10660,2.38E-02,3.07E-02
10661,2.39E-02,2.98E-02
10662,2.42E-02,2.79E-02
10663,2.40E-02,2.88E-02
10664,2.28E-02,1.75E-02
10665,2.31E-02,5.81E-03
10666,2.31E-02,1.51E-02
10667,2.36E-02,1.63E-02
10668,1.75E-02,3.82E-02
10669,1.53E-02,3.89E-02
10670,2.05E-02,3.95E-02
10671,2.33E-02,1.57E-02
10672,2.33E-02,6.94E-03
10673,2.33E-02,8.09E-03
10674,2.32E-02,9.25E-03
10675,2.31E-02,1.04E-02
10676,2.30E-02,1.16E-02
10677,2.28E-02,1.28E-02
10678,2.28E-02,1.40E-02
10679,2.29E-02,1.51E-02
10680,2.28E-02,1.63E-02
10681,2.40E-02,2.81E-02
10682,2.38E-02,2.90E-02
10683,2.38E-02,2.99E-02
10684,2.37E-02,3.09E-02
10685,2.39E-02,2.72E-02
10686,2.43E-02,1.82E-02
10687,2.33E-02,2.23E-02
10688,2.40E-02,1.69E-02
10689,2.31E-02,4.34E-03
10690,2.34E-02,2.18E-02
10691,2.36E-02,2.31E-02
10692,2.34E-02,3.77E-03
10693,2.41E-02,1.76E-02
10694,2.40E-02,1.72E-02
10695,2.41E-02,1.78E-02
10696,2.42E-02,1.80E-02
10697,2.37E-02,2.18E-02
10698,2.38E-02,2.14E-02
10699,2.41E-02,2.10E-02
10700,2.38E-02,1.64E-02
10701,2.39E-02,1.67E-02
10702,2.51E-02,1.28E-02
10703,2.20E-02,1.35E-02
10704,1.86E-02,1.41E-02
10705,2.46E-02,2.06E-02
10706,2.47E-02,2.03E-02
10707,2.47E-02,2.00E-02
10708,2.48E-02,1.96E-02
10709,2.46E-02,1.92E-02
10710,2.44E-02,1.85E-02
10711,2.46E-02,1.87E-02
10712,2.47E-02,1.89E-02
10713,2.36E-02,3.40E-02
10714,2.36E-02,3.47E-02
10715,2.38E-02,3.32E-02
10716,2.40E-02,3.24E-02
10717,2.41E-02,3.16E-02
10718,2.42E-02,3.07E-02
10719,2.42E-02,2.98E-02
10720,2.35E-02,3.19E-02
10721,2.32E-02,3.28E-02
10722,2.32E-02,3.37E-02
10723,2.35E-02,3.46E-02
10724,2.36E-02,3.54E-02
10725,2.46E-02,3.70E-02
10726,2.40E-02,3.63E-02
10727,2.37E-02,3.54E-02
10728,2.40E-02,3.62E-02
10729,2.39E-02,3.75E-02
10730,2.44E-02,3.69E-02
10731,2.34E-02,2.63E-02
10732,2.42E-02,2.88E-02
10733,2.41E-02,2.78E-02
10734,2.40E-02,2.66E-02
10735,2.39E-02,2.55E-02
10736,2.37E-02,2.43E-02
10737,2.36E-02,1.96E-03
10738,2.31E-02,2.13E-03
10739,2.37E-02,3.23E-03
10740,2.37E-02,2.76E-03
10741,2.35E-02,2.38E-03
10742,2.31E-02,2.28E-02
10743,2.31E-02,2.34E-02
10744,2.28E-02,2.40E-02
10745,2.31E-02,2.47E-02
10746,2.34E-02,2.55E-02
10747,2.33E-02,2.05E-02
10748,2.31E-02,1.91E-02
10749,2.29E-02,5.57E-03
10750,2.29E-02,4.94E-03
10751,2.23E-02,1.49E-02
10752,2.36E-02,1.61E-02
10753,2.31E-02,6.24E-03
10754,2.30E-02,1.77E-02
10755,1.97E-02,3.80E-02
10756,1.90E-02,3.87E-02
10757,1.94E-02,3.94E-02
10758,2.28E-02,1.66E-02
10759,2.27E-02,1.54E-02
10760,2.28E-02,1.43E-02
10761,2.28E-02,1.31E-02
10762,2.28E-02,1.19E-02
10763,2.29E-02,1.08E-02
10764,2.30E-02,9.63E-03
10765,2.29E-02,8.48E-03
10766,2.30E-02,7.35E-03
10767,2.33E-02,1.55E-02
10768,2.28E-02,5.99E-03
10769,2.33E-02,1.93E-02
10770,2.31E-02,2.49E-02
10771,2.28E-02,2.42E-02
10772,2.30E-02,2.35E-02
10773,2.30E-02,2.29E-02
10774,2.28E-02,3.15E-03
10775,2.33E-02,3.64E-03
10776,2.28E-02,2.72E-03
10777,2.28E-02,2.03E-03
10778,2.24E-02,2.41E-03
10779,2.38E-02,2.44E-02
10780,2.39E-02,2.56E-02
10781,2.40E-02,2.67E-02
10782,2.41E-02,2.78E-02
10783,2.34E-02,2.56E-02
10784,2.36E-02,3.67E-02
10785,2.14E-02,3.73E-02
10786,2.33E-02,3.60E-02
10787,2.37E-02,3.53E-02
10788,2.34E-02,3.55E-02
10789,2.33E-02,3.47E-02
10790,2.31E-02,3.38E-02
10791,2.30E-02,3.29E-02
10792,2.33E-02,3.20E-02
10793,2.42E-02,2.88E-02
10794,2.41E-02,2.98E-02
10795,2.41E-02,3.07E-02
10796,2.40E-02,3.15E-02
10797,2.38E-02,3.23E-02
10798,2.34E-02,3.46E-02
10799,2.34E-02,3.39E-02
10800,2.36E-02,3.31E-02
10801,2.46E-02,1.86E-02
10802,2.44E-02,1.83E-02
10803,2.46E-02,1.88E-02
10804,2.46E-02,1.99E-02
10805,2.47E-02,1.95E-02
10806,2.45E-02,1.91E-02
10807,2.46E-02,2.02E-02
10808,2.23E-02,1.38E-02
10809,2.97E-02,1.28E-02
10810,2.39E-02,1.61E-02
10811,2.42E-02,2.06E-02
10812,2.39E-02,2.10E-02
10813,2.40E-02,1.76E-02
10814,2.40E-02,1.74E-02
10815,2.38E-02,1.69E-02
10816,2.32E-02,4.18E-03
10817,2.36E-02,2.32E-02
10818,2.35E-02,2.19E-02
10819,2.33E-02,2.07E-02
10820,2.29E-02,5.36E-03
10821,2.30E-02,4.76E-03
10822,2.40E-02,1.64E-02
10823,2.38E-02,1.67E-02
10824,2.35E-02,2.19E-02
10825,2.36E-02,2.14E-02
10826,2.31E-02,2.24E-02
10827,2.41E-02,1.78E-02
10828,2.42E-02,1.81E-02
10829,2.36E-02,2.65E-02
10830,2.35E-02,3.11E-02
10831,2.36E-02,3.01E-02
10832,2.37E-02,2.92E-02
10833,2.40E-02,2.73E-02
10834,2.37E-02,2.83E-02
10835,2.57E-02,3.71E-02
10836,2.35E-02,3.63E-02
10837,2.30E-02,1.80E-02
10838,2.28E-02,6.65E-03
10839,2.31E-02,1.46E-02
10840,2.35E-02,1.58E-02
10841,1.99E-02,3.92E-02
10842,2.00E-02,3.86E-02
10843,2.04E-02,3.78E-02
10844,2.31E-02,1.52E-02
10845,2.29E-02,7.74E-03
10846,2.29E-02,8.85E-03
10847,2.30E-02,9.98E-03
10848,2.30E-02,1.11E-02
10849,2.28E-02,1.23E-02
10850,2.26E-02,1.34E-02
10851,2.28E-02,1.45E-02
10852,2.30E-02,1.57E-02
10853,2.30E-02,1.68E-02
10854,2.27E-02,3.71E-02
10855,2.24E-02,3.64E-02
10856,2.35E-02,2.75E-02
10857,2.36E-02,2.84E-02
10858,2.36E-02,2.93E-02
10859,2.35E-02,3.03E-02
10860,2.39E-02,2.67E-02
10861,2.40E-02,1.76E-02
10862,2.31E-02,2.19E-02
10863,2.33E-02,2.14E-02
10864,2.39E-02,1.62E-02
10865,2.27E-02,5.78E-03
10866,2.34E-02,2.08E-02
10867,2.35E-02,2.21E-02
10868,2.28E-02,5.18E-03
10869,2.36E-02,1.65E-02
10870,2.38E-02,1.72E-02
10871,2.37E-02,1.67E-02
10872,2.39E-02,1.74E-02
10873,2.36E-02,2.10E-02
10874,2.39E-02,2.05E-02
10875,2.41E-02,1.59E-02
10876,3.11E-02,1.27E-02
10877,3.02E-02,1.34E-02
10878,2.43E-02,2.02E-02
10879,2.47E-02,1.98E-02
10880,2.46E-02,1.94E-02
10881,2.45E-02,1.90E-02
10882,2.45E-02,1.87E-02
10883,2.42E-02,1.79E-02
10884,2.44E-02,1.81E-02
10885,2.45E-02,1.84E-02
10886,2.35E-02,3.30E-02
10887,2.33E-02,3.37E-02
10888,2.37E-02,3.22E-02
10889,2.39E-02,3.14E-02
10890,2.40E-02,3.06E-02
10891,2.41E-02,2.97E-02
10892,2.41E-02,2.88E-02
10893,2.34E-02,3.12E-02
10894,2.31E-02,3.21E-02
10895,2.29E-02,3.30E-02
10896,2.30E-02,3.39E-02
10897,2.30E-02,3.48E-02
10898,2.32E-02,3.56E-02
10899,2.33E-02,3.45E-02
10900,2.33E-02,3.52E-02
10901,2.14E-02,3.71E-02
10902,2.27E-02,3.65E-02
10903,2.29E-02,3.59E-02
10904,2.34E-02,2.58E-02
10905,2.41E-02,2.78E-02
10906,2.40E-02,2.68E-02
10907,2.39E-02,2.57E-02
10908,2.38E-02,2.45E-02
10909,2.37E-02,2.33E-02
10910,2.20E-02,2.21E-03
10911,2.12E-02,2.73E-03
10912,2.20E-02,3.10E-03
10913,2.27E-02,4.60E-03
10914,2.27E-02,4.05E-03
10915,2.26E-02,3.55E-03
10916,2.30E-02,2.24E-02
10917,2.29E-02,2.30E-02
10918,2.28E-02,2.36E-02
10919,2.30E-02,2.43E-02
10920,2.32E-02,1.95E-02
10921,2.27E-02,6.40E-03
10922,2.32E-02,1.44E-02
10923,2.36E-02,1.56E-02
10924,2.27E-02,7.05E-03
10925,2.32E-02,1.82E-02
10926,2.07E-02,3.77E-02
10927,1.86E-02,3.71E-02
10928,2.31E-02,2.50E-02
10929,2.04E-02,3.84E-02
10930,2.02E-02,3.91E-02
10931,2.29E-02,1.71E-02
10932,2.27E-02,1.59E-02
10933,2.26E-02,1.48E-02
10934,2.28E-02,1.37E-02
10935,2.28E-02,1.26E-02
10936,2.29E-02,1.14E-02
10937,2.28E-02,1.03E-02
10938,2.29E-02,8.13E-03
10939,2.29E-02,9.22E-03
10940,2.33E-02,1.50E-02
10941,2.27E-02,7.45E-03
10942,2.31E-02,1.84E-02
10943,2.27E-02,2.37E-02
10944,2.29E-02,2.31E-02
10945,2.28E-02,2.25E-02
10946,2.23E-02,4.46E-03
10947,2.23E-02,5.00E-03
10948,2.19E-02,3.94E-03
10949,2.13E-02,3.50E-03
10950,2.37E-02,2.35E-02
10951,2.38E-02,2.46E-02
10952,2.39E-02,2.57E-02
10953,2.40E-02,2.68E-02
10954,2.28E-02,2.44E-02
10955,2.32E-02,2.52E-02
10956,2.26E-02,3.57E-02
10957,2.19E-02,3.64E-02
10958,2.31E-02,3.51E-02
10959,2.30E-02,3.43E-02
10960,2.28E-02,3.49E-02
10961,2.28E-02,3.40E-02
10962,2.28E-02,3.32E-02
10963,2.30E-02,3.23E-02
10964,2.32E-02,3.14E-02
10965,2.34E-02,2.48E-03
10966,2.03E-02,3.11E-03
10967,2.40E-02,2.78E-02
10968,2.40E-02,2.88E-02
10969,2.40E-02,2.97E-02
10970,2.39E-02,3.05E-02
10971,2.37E-02,3.13E-02
10972,2.32E-02,3.36E-02
10973,2.34E-02,3.29E-02
10974,2.36E-02,3.21E-02
10975,2.44E-02,1.80E-02
10976,2.42E-02,1.77E-02
10977,2.45E-02,1.83E-02
10978,2.43E-02,1.86E-02
10979,2.45E-02,1.98E-02
10980,2.44E-02,1.93E-02
10981,2.44E-02,1.89E-02
10982,2.46E-02,1.41E-02
10983,2.39E-02,1.53E-02
10984,2.39E-02,2.01E-02
10985,2.38E-02,2.05E-02
10986,2.29E-02,2.19E-02
10987,2.06E-02,3.82E-02
10988,2.08E-02,3.75E-02
10989,2.37E-02,1.70E-02
10990,2.35E-02,1.65E-02
10991,2.35E-02,1.62E-02
10992,2.27E-02,3.57E-02
10993,2.13E-02,3.70E-02
10994,2.24E-02,5.58E-03
10995,2.35E-02,2.23E-02
10996,2.34E-02,2.10E-02
10997,2.34E-02,1.97E-02
10998,2.26E-02,6.18E-03
10999,2.26E-02,6.80E-03
11000,2.04E-02,3.89E-02
11001,2.08E-02,3.81E-02
11002,2.08E-02,3.74E-02
11003,2.89E-02,1.32E-02
11004,2.90E-02,1.25E-02
11005,2.37E-02,1.60E-02
11006,2.40E-02,1.57E-02
11007,2.34E-02,2.10E-02
11008,2.29E-02,2.14E-02
11009,2.38E-02,1.72E-02
11010,2.40E-02,1.75E-02
11011,2.36E-02,2.60E-02
11012,2.34E-02,3.04E-02
11013,2.35E-02,2.95E-02
11014,2.35E-02,2.86E-02
11015,2.35E-02,2.77E-02
11016,2.34E-02,2.68E-02
11017,1.75E-02,2.93E-03
11018,1.84E-02,3.77E-02
11019,2.01E-02,3.72E-02
11020,2.05E-02,3.88E-02
11021,2.07E-02,3.79E-02
11022,2.05E-02,3.86E-02
11023,1.96E-02,3.79E-02
11024,2.39E-02,1.93E-02
11025,2.39E-02,1.97E-02
11026,2.40E-02,1.47E-02
11027,2.05E-02,3.84E-02
11028,2.01E-02,3.80E-02
11029,2.03E-02,3.82E-02
11030,2.30E-02,9.59E-03
11031,2.29E-02,8.51E-03
11032,2.28E-02,1.18E-02
11033,2.28E-02,1.07E-02
11034,2.26E-02,1.40E-02
11035,2.26E-02,1.29E-02
11036,2.31E-02,1.62E-02
11037,2.29E-02,1.51E-02
11038,2.32E-02,1.73E-02
11039,2.28E-02,2.32E-02
11040,2.27E-02,2.25E-02
11041,2.22E-02,5.40E-03
11042,2.19E-02,4.85E-03
11043,2.14E-02,4.33E-03
11044,2.37E-02,2.36E-02
11045,2.38E-02,2.47E-02
11046,2.39E-02,2.58E-02
11047,2.28E-02,2.38E-02
11048,2.29E-02,2.46E-02
11049,2.25E-02,3.56E-02
11050,2.29E-02,3.49E-02
11051,2.30E-02,3.42E-02
11052,2.27E-02,3.41E-02
11053,2.27E-02,3.33E-02
11054,2.29E-02,3.24E-02
11055,2.31E-02,3.15E-02
11056,2.07E-02,3.87E-03
11057,1.79E-02,3.52E-03
11058,2.40E-02,2.68E-02
11059,2.40E-02,2.78E-02
11060,2.39E-02,2.87E-02
11061,2.39E-02,2.96E-02
11062,2.38E-02,3.04E-02
11063,2.31E-02,3.35E-02
11064,2.33E-02,3.28E-02
11065,2.34E-02,3.20E-02
11066,2.36E-02,3.12E-02
11067,2.42E-02,1.76E-02
11068,2.44E-02,1.79E-02
11069,2.44E-02,1.82E-02
11070,2.43E-02,1.85E-02
11071,2.39E-02,1.88E-02
11072,2.38E-02,2.01E-02
11073,2.33E-02,1.60E-02
11074,2.25E-02,3.50E-02
11075,2.18E-02,3.62E-02
11076,2.25E-02,5.98E-03
11077,2.35E-02,2.24E-02
11078,2.35E-02,2.12E-02
11079,2.32E-02,1.99E-02
11080,2.24E-02,7.19E-03
11081,2.24E-02,6.58E-03
11082,2.21E-02,3.58E-02
11083,2.13E-02,3.66E-02
11084,2.09E-02,3.73E-02
11085,2.12E-02,3.68E-02
11086,3.01E-02,1.23E-02
11087,2.36E-02,1.54E-02
11088,2.35E-02,1.57E-02
11089,2.33E-02,2.05E-02
11090,2.32E-02,2.10E-02
11091,2.28E-02,2.20E-02
11092,2.36E-02,1.68E-02
11093,2.38E-02,1.70E-02
11094,2.40E-02,1.73E-02
11095,2.32E-02,2.53E-02
11096,2.33E-02,3.06E-02
11097,2.34E-02,2.97E-02
11098,2.34E-02,2.88E-02
11099,2.34E-02,2.79E-02
11100,2.33E-02,2.61E-02
11101,2.34E-02,2.70E-02
11102,2.57E-02,1.39E-02
11103,2.39E-02,1.51E-02
11104,2.06E-02,3.74E-02
11105,2.04E-02,3.78E-02
11106,2.26E-02,7.84E-03
11107,2.33E-02,1.86E-02
11108,1.19E-02,3.46E-03
11109,2.31E-02,1.76E-02
11110,2.30E-02,1.65E-02
11111,2.31E-02,1.54E-02
11112,2.29E-02,1.43E-02
11113,2.28E-02,1.32E-02
11114,2.27E-02,1.21E-02
11115,2.27E-02,1.10E-02
11116,2.27E-02,9.94E-03
11117,2.27E-02,8.89E-03
11118,2.06E-02,3.76E-02
11119,2.43E-02,1.45E-02
11120,2.32E-02,2.63E-02
11121,2.33E-02,2.71E-02
11122,2.33E-02,2.80E-02
11123,2.33E-02,2.89E-02
11124,2.33E-02,2.98E-02
11125,2.32E-02,2.55E-02
11126,2.37E-02,1.68E-02
11127,2.35E-02,1.66E-02
11128,2.27E-02,2.15E-02
11129,2.28E-02,2.10E-02
11130,2.33E-02,2.05E-02
11131,2.34E-02,1.52E-02
11132,2.75E-02,1.19E-02
11133,2.12E-02,3.67E-02
11134,2.13E-02,3.66E-02
11135,2.16E-02,3.60E-02
11136,2.24E-02,7.58E-03
11137,2.35E-02,2.01E-02
11138,2.34E-02,2.14E-02
11139,2.23E-02,6.96E-03
11140,2.17E-02,3.61E-02
11141,2.23E-02,3.51E-02
11142,2.32E-02,1.55E-02
11143,2.34E-02,1.63E-02
11144,2.32E-02,1.58E-02
11145,2.34E-02,2.00E-02
11146,2.38E-02,1.96E-02
11147,2.38E-02,1.92E-02
11148,2.37E-02,1.88E-02
11149,2.39E-02,1.84E-02
11150,2.42E-02,1.80E-02
11151,2.43E-02,1.77E-02
11152,2.40E-02,1.71E-02
11153,2.42E-02,1.74E-02
11154,2.35E-02,3.11E-02
11155,2.33E-02,3.19E-02
11156,2.32E-02,3.26E-02
11157,2.37E-02,3.03E-02
11158,2.38E-02,2.95E-02
11159,2.39E-02,2.87E-02
11160,2.39E-02,2.78E-02
11161,2.39E-02,2.68E-02
11162,1.63E-02,3.95E-03
11163,1.95E-02,4.27E-03
11164,2.31E-02,3.07E-02
11165,2.30E-02,3.16E-02
11166,2.28E-02,3.25E-02
11167,2.27E-02,3.34E-02
11168,2.26E-02,3.43E-02
11169,2.30E-02,3.34E-02
11170,2.29E-02,3.41E-02
11171,2.22E-02,3.55E-02
11172,2.27E-02,3.48E-02
11173,2.31E-02,2.47E-02
11174,2.30E-02,2.39E-02
11175,2.39E-02,2.58E-02
11176,2.38E-02,2.48E-02
11177,2.37E-02,2.37E-02
11178,2.36E-02,2.25E-02
11179,2.07E-02,4.72E-03
11180,2.13E-02,5.24E-03
11181,2.20E-02,6.36E-03
11182,2.18E-02,5.79E-03
11183,2.26E-02,2.20E-02
11184,2.27E-02,2.26E-02
11185,2.28E-02,2.33E-02
11186,2.32E-02,1.89E-02
11187,2.23E-02,8.21E-03
11188,2.10E-02,3.68E-02
11189,2.08E-02,3.71E-02
11190,2.46E-02,1.37E-02
11191,2.37E-02,1.49E-02
11192,1.15E-02,3.68E-03
11193,2.38E-02,1.43E-02
11194,2.08E-02,3.69E-02
11195,2.23E-02,9.24E-03
11196,2.25E-02,1.03E-02
11197,2.28E-02,1.13E-02
11198,2.29E-02,1.24E-02
11199,2.31E-02,1.35E-02
11200,2.31E-02,1.45E-02
11201,2.31E-02,1.56E-02
11202,2.33E-02,1.67E-02
11203,2.32E-02,1.78E-02
11204,2.27E-02,2.27E-02
11205,2.25E-02,2.21E-02
11206,2.17E-02,6.73E-03
11207,2.13E-02,6.16E-03
11208,2.08E-02,5.61E-03
11209,2.36E-02,2.27E-02
11210,2.37E-02,2.38E-02
11211,2.38E-02,2.48E-02
11212,2.28E-02,2.34E-02
11213,2.30E-02,2.41E-02
11214,2.26E-02,3.47E-02
11215,2.29E-02,3.40E-02
11216,2.30E-02,3.33E-02
11217,2.26E-02,3.35E-02
11218,2.27E-02,3.26E-02
11219,2.29E-02,3.18E-02
11220,2.30E-02,3.09E-02
11221,2.01E-02,5.10E-03
11222,1.89E-02,4.65E-03
11223,1.62E-02,4.24E-03
11224,2.38E-02,2.59E-02
11225,2.38E-02,2.68E-02
11226,2.38E-02,2.77E-02
11227,2.38E-02,2.86E-02
11228,2.37E-02,2.94E-02
11229,2.31E-02,3.25E-02
11230,2.32E-02,3.18E-02
11231,2.34E-02,3.10E-02
11232,2.35E-02,3.02E-02
11233,2.40E-02,1.70E-02
11234,2.42E-02,1.73E-02
11235,2.43E-02,1.76E-02
11236,2.40E-02,1.79E-02
11237,2.37E-02,1.83E-02
11238,2.34E-02,1.96E-02
11239,2.33E-02,1.91E-02
11240,2.34E-02,1.87E-02
11241,2.31E-02,1.53E-02
11242,2.24E-02,3.44E-02
11243,2.21E-02,3.54E-02
11244,2.19E-02,7.33E-03
11245,2.35E-02,2.15E-02
11246,2.32E-02,2.03E-02
11247,2.23E-02,7.95E-03
11248,2.21E-02,3.53E-02
11249,2.17E-02,3.60E-02
11250,2.18E-02,3.58E-02
11251,1.95E-02,1.28E-02
11252,2.32E-02,1.50E-02
11253,2.33E-02,2.00E-02
11254,2.28E-02,2.05E-02
11255,2.33E-02,1.35E-02
11256,2.33E-02,1.47E-02
11257,2.14E-02,3.61E-02
11258,2.13E-02,3.64E-02
11259,2.24E-02,8.58E-03
11260,2.34E-02,1.91E-02
11261,2.26E-02,2.15E-02
11262,2.33E-02,1.61E-02
11263,2.32E-02,1.56E-02
11264,2.35E-02,1.64E-02
11265,2.37E-02,1.67E-02
11266,2.08E-02,1.21E-02
11267,2.36E-02,1.16E-02
11268,2.31E-02,2.48E-02
11269,2.32E-02,3.00E-02
11270,2.26E-02,2.10E-02
11271,2.33E-02,2.91E-02
11272,2.33E-02,2.82E-02
11273,2.33E-02,2.73E-02
11274,2.32E-02,2.64E-02
11275,2.31E-02,2.56E-02
11276,2.30E-02,1.80E-02
11277,2.30E-02,1.69E-02
11278,2.31E-02,1.59E-02
11279,2.29E-02,1.48E-02
11280,2.28E-02,1.38E-02
11281,2.27E-02,1.27E-02
11282,2.25E-02,1.17E-02
11283,2.23E-02,9.59E-03
11284,2.23E-02,1.06E-02
11285,2.13E-02,3.63E-02
11286,2.30E-02,1.41E-02
11287,2.29E-02,2.00E-02
11288,2.30E-02,1.45E-02
11289,2.16E-02,1.34E-02
11290,2.18E-02,3.57E-02
11291,2.19E-02,3.54E-02
11292,2.24E-02,8.94E-03
11293,2.32E-02,1.93E-02
11294,2.34E-02,2.05E-02
11295,2.20E-02,8.31E-03
11296,2.32E-02,1.96E-02
11297,2.32E-02,1.91E-02
11298,2.22E-02,3.52E-02
11299,2.22E-02,3.51E-02
11300,2.23E-02,3.45E-02
11301,2.29E-02,1.48E-02
11302,2.00E-02,1.26E-02
11303,2.32E-02,1.86E-02
11304,2.34E-02,1.82E-02
11305,2.38E-02,1.78E-02
11306,2.41E-02,1.75E-02
11307,2.42E-02,1.71E-02
11308,2.41E-02,1.68E-02
11309,2.34E-02,3.02E-02
11310,2.33E-02,3.09E-02
11311,2.31E-02,3.17E-02
11312,2.36E-02,2.94E-02
11313,2.37E-02,2.86E-02
11314,2.37E-02,2.77E-02
11315,2.38E-02,2.68E-02
11316,2.38E-02,2.59E-02
11317,1.86E-02,5.00E-03
11318,1.97E-02,5.47E-03
11319,1.80E-02,4.52E-03
11320,2.25E-02,2.21E-02
11321,2.24E-02,2.16E-02
11322,2.17E-02,7.69E-03
11323,2.14E-02,7.09E-03
11324,2.10E-02,6.52E-03
11325,2.04E-02,5.97E-03
11326,2.34E-02,2.16E-02
11327,2.36E-02,2.28E-02
11328,2.37E-02,2.38E-02
11329,2.38E-02,2.49E-02
11330,2.27E-02,2.28E-02
11331,2.28E-02,2.34E-02
11332,2.26E-02,3.46E-02
11333,2.29E-02,3.39E-02
11334,2.29E-02,3.32E-02
11335,2.30E-02,3.24E-02
11336,2.26E-02,3.37E-02
11337,2.27E-02,3.28E-02
11338,2.28E-02,3.19E-02
11339,2.29E-02,3.10E-02
11340,2.30E-02,1.51E-02
11341,2.33E-02,1.59E-02
11342,2.35E-02,1.62E-02
11343,2.38E-02,1.65E-02
11344,2.23E-02,1.19E-02
11345,2.30E-02,1.13E-02
11346,2.30E-02,2.42E-02
11347,2.31E-02,3.01E-02
11348,2.26E-02,2.05E-02
11349,2.32E-02,2.92E-02
11350,2.32E-02,2.83E-02
11351,2.32E-02,2.74E-02
11352,2.31E-02,2.66E-02
11353,2.31E-02,2.57E-02
11354,2.30E-02,2.49E-02
11355,2.30E-02,1.90E-02
11356,2.30E-02,1.95E-02
11357,2.26E-02,1.39E-02
11358,2.19E-02,3.56E-02
11359,2.24E-02,1.09E-02
11360,2.24E-02,9.93E-03
11361,2.25E-02,1.30E-02
11362,2.25E-02,1.20E-02
11363,2.27E-02,1.51E-02
11364,2.26E-02,1.40E-02
11365,2.31E-02,1.72E-02
11366,2.29E-02,1.61E-02
11367,2.33E-02,1.82E-02
11368,2.33E-02,1.94E-02
11369,2.22E-02,9.29E-03
11370,2.22E-02,3.50E-02
11371,2.22E-02,3.47E-02
11372,2.27E-02,1.43E-02
11373,2.15E-02,1.32E-02
11374,2.31E-02,1.85E-02
11375,2.32E-02,1.81E-02
11376,2.36E-02,1.77E-02
11377,2.37E-02,1.74E-02
11378,2.41E-02,1.70E-02
11379,2.41E-02,1.67E-02
11380,2.33E-02,3.01E-02
11381,2.32E-02,3.09E-02
11382,2.35E-02,2.93E-02
11383,2.36E-02,2.85E-02
11384,2.37E-02,2.77E-02
11385,2.37E-02,2.68E-02
11386,2.37E-02,2.59E-02
11387,1.91E-02,5.31E-03
11388,1.94E-02,5.81E-03
11389,1.95E-02,4.76E-03
11390,2.23E-02,2.16E-02
11391,2.18E-02,8.65E-03
11392,2.16E-02,8.04E-03
11393,2.13E-02,7.44E-03
11394,2.07E-02,6.86E-03
11395,2.33E-02,2.06E-02
11396,2.35E-02,2.18E-02
11397,2.36E-02,2.29E-02
11398,2.37E-02,2.39E-02
11399,2.25E-02,2.22E-02
11400,2.27E-02,2.28E-02
11401,2.25E-02,3.45E-02
11402,2.28E-02,3.38E-02
11403,2.29E-02,3.31E-02
11404,2.29E-02,3.23E-02
11405,2.26E-02,3.38E-02
11406,2.26E-02,3.29E-02
11407,2.27E-02,3.20E-02
11408,2.28E-02,3.11E-02
11409,2.28E-02,1.46E-02
11410,2.31E-02,1.54E-02
11411,2.33E-02,1.57E-02
11412,2.35E-02,1.60E-02
11413,2.38E-02,1.63E-02
11414,2.15E-02,1.24E-02
11415,2.26E-02,1.16E-02
11416,2.31E-02,1.11E-02
11417,2.24E-02,2.10E-02
11418,2.28E-02,2.35E-02
11419,2.30E-02,3.02E-02
11420,2.30E-02,3.16E-02
11421,2.00E-02,6.32E-03
11422,2.37E-02,2.49E-02
11423,2.27E-02,2.00E-02
11424,2.31E-02,2.93E-02
11425,2.32E-02,2.84E-02
11426,2.32E-02,2.76E-02
11427,2.31E-02,2.67E-02
11428,2.30E-02,2.59E-02
11429,2.29E-02,2.43E-02
11430,2.30E-02,2.50E-02
11431,2.32E-02,1.84E-02
11432,2.30E-02,1.74E-02
11433,2.29E-02,1.64E-02
11434,2.29E-02,1.53E-02
11435,2.27E-02,1.43E-02
11436,2.24E-02,1.33E-02
11437,2.23E-02,1.23E-02
11438,2.24E-02,1.13E-02
11439,2.23E-02,1.03E-02
11440,2.22E-02,3.48E-02
11441,2.23E-02,1.37E-02
11442,2.30E-02,1.81E-02
11443,2.34E-02,1.76E-02
11444,2.36E-02,1.73E-02
11445,2.38E-02,1.69E-02
11446,2.41E-02,1.65E-02
11447,2.32E-02,3.00E-02
11448,2.34E-02,2.92E-02
11449,2.35E-02,2.84E-02
11450,2.36E-02,2.76E-02
11451,2.36E-02,2.68E-02
11452,2.37E-02,2.59E-02
11453,1.94E-02,6.12E-03
11454,1.95E-02,5.59E-03
11455,2.05E-02,4.18E-03
11456,1.99E-02,5.04E-03
11457,2.28E-02,2.44E-02
11458,2.29E-02,2.52E-02
11459,2.30E-02,2.60E-02
11460,2.31E-02,2.68E-02
11461,2.31E-02,2.77E-02
11462,2.31E-02,2.86E-02
11463,2.26E-02,1.95E-02
11464,2.27E-02,1.90E-02
11465,2.28E-02,1.85E-02
11466,2.37E-02,2.49E-02
11467,1.99E-02,6.65E-03
11468,2.31E-02,3.08E-02
11469,2.30E-02,2.95E-02
11470,2.28E-02,2.36E-02
11471,2.24E-02,2.05E-02
11472,2.25E-02,2.00E-02
11473,2.33E-02,1.09E-02
11474,2.28E-02,1.14E-02
11475,2.22E-02,1.22E-02
11476,2.39E-02,1.62E-02
11477,2.36E-02,1.59E-02
11478,2.33E-02,1.55E-02
11479,2.29E-02,1.49E-02
11480,2.28E-02,1.44E-02
11481,2.31E-02,1.52E-02
11482,2.29E-02,3.03E-02
11483,2.28E-02,3.12E-02
11484,2.27E-02,3.21E-02
11485,2.26E-02,3.30E-02
11486,2.29E-02,3.15E-02
11487,2.29E-02,3.23E-02
11488,2.28E-02,3.37E-02
11489,2.28E-02,3.30E-02
11490,2.27E-02,2.29E-02
11491,2.25E-02,2.23E-02
11492,2.36E-02,2.40E-02
11493,2.36E-02,2.29E-02
11494,2.34E-02,2.19E-02
11495,2.33E-02,2.08E-02
11496,2.04E-02,7.19E-03
11497,2.11E-02,7.77E-03
11498,2.17E-02,8.98E-03
11499,2.14E-02,8.37E-03
11500,2.22E-02,2.11E-02
11501,2.23E-02,2.16E-02
11502,2.32E-02,1.96E-02
11503,2.18E-02,9.62E-03
11504,2.26E-02,3.39E-02
11505,2.26E-02,3.43E-02
11506,2.27E-02,3.42E-02
11507,2.17E-02,1.30E-02
11508,2.26E-02,1.41E-02
11509,2.22E-02,1.35E-02
11510,2.26E-02,3.41E-02
11511,2.20E-02,1.06E-02
11512,2.23E-02,1.16E-02
11513,2.23E-02,1.26E-02
11514,2.25E-02,1.36E-02
11515,2.26E-02,1.46E-02
11516,2.27E-02,1.56E-02
11517,2.28E-02,1.66E-02
11518,2.29E-02,1.76E-02
11519,2.29E-02,1.86E-02
11520,2.21E-02,2.11E-02
11521,2.15E-02,9.30E-03
11522,2.13E-02,8.69E-03
11523,2.09E-02,8.09E-03
11524,2.32E-02,2.09E-02
11525,2.35E-02,2.20E-02
11526,2.35E-02,2.30E-02
11527,2.23E-02,2.17E-02
11528,2.26E-02,2.23E-02
11529,2.28E-02,3.29E-02
11530,2.28E-02,3.21E-02
11531,2.29E-02,3.14E-02
11532,2.26E-02,3.23E-02
11533,2.27E-02,3.14E-02
11534,2.28E-02,3.05E-02
11535,2.29E-02,1.47E-02
11536,2.28E-02,1.42E-02
11537,2.31E-02,1.50E-02
11538,2.33E-02,1.54E-02
11539,2.36E-02,1.57E-02
11540,2.27E-02,1.20E-02
11541,2.32E-02,1.12E-02
11542,2.36E-02,1.06E-02
11543,2.21E-02,2.05E-02
11544,2.23E-02,2.00E-02
11545,2.27E-02,2.30E-02
11546,2.29E-02,2.96E-02
11547,2.30E-02,3.07E-02
11548,2.03E-02,7.51E-03
11549,2.36E-02,2.40E-02
11550,2.26E-02,1.95E-02
11551,2.27E-02,1.90E-02
11552,2.27E-02,1.84E-02
11553,2.30E-02,2.87E-02
11554,2.31E-02,2.78E-02
11555,2.30E-02,2.69E-02
11556,2.30E-02,2.61E-02
11557,2.29E-02,2.53E-02
11558,2.27E-02,2.37E-02
11559,2.28E-02,2.45E-02
11560,2.06E-02,4.51E-03
11561,2.05E-02,5.32E-03
11562,1.99E-02,5.87E-03
11563,1.99E-02,6.96E-03
11564,1.97E-02,6.41E-03
11565,2.36E-02,2.50E-02
11566,2.36E-02,2.59E-02
11567,2.36E-02,2.67E-02
11568,2.35E-02,2.76E-02
11569,2.34E-02,2.84E-02
11570,2.31E-02,2.99E-02
11571,2.33E-02,2.92E-02
11572,2.40E-02,1.60E-02
11573,2.39E-02,1.64E-02
11574,2.38E-02,1.68E-02
11575,2.33E-02,1.72E-02
11576,2.31E-02,1.76E-02
11577,2.29E-02,1.80E-02
11578,2.22E-02,1.28E-02
11579,2.25E-02,1.39E-02
11580,2.26E-02,3.32E-02
11581,2.27E-02,3.35E-02
11582,2.27E-02,3.34E-02
11583,2.20E-02,9.94E-03
11584,2.31E-02,1.98E-02
11585,2.30E-02,1.88E-02
11586,2.28E-02,1.78E-02
11587,2.26E-02,1.68E-02
11588,2.26E-02,1.58E-02
11589,2.25E-02,1.48E-02
11590,2.23E-02,1.38E-02
11591,2.23E-02,1.28E-02
11592,2.20E-02,1.19E-02
11593,2.19E-02,1.09E-02
11594,2.26E-02,3.33E-02
11595,2.23E-02,1.33E-02
11596,2.28E-02,1.75E-02
11597,2.31E-02,1.71E-02
11598,2.35E-02,1.67E-02
11599,2.37E-02,1.63E-02
11600,2.40E-02,1.59E-02
11601,2.32E-02,2.91E-02
11602,2.33E-02,2.83E-02
11603,2.34E-02,2.75E-02
11604,2.35E-02,2.67E-02
11605,2.35E-02,2.58E-02
11606,2.35E-02,2.50E-02
11607,1.99E-02,7.25E-03
11608,1.99E-02,6.70E-03
11609,2.05E-02,6.15E-03
11610,2.09E-02,4.81E-03
11611,2.08E-02,5.61E-03
11612,2.27E-02,2.38E-02
11613,2.28E-02,2.46E-02
11614,2.29E-02,2.54E-02
11615,2.30E-02,2.62E-02
11616,2.30E-02,2.71E-02
11617,2.30E-02,2.79E-02
11618,2.27E-02,1.79E-02
11619,2.35E-02,2.40E-02
11620,2.03E-02,7.81E-03
11621,2.30E-02,2.98E-02
11622,2.29E-02,2.88E-02
11623,2.26E-02,2.31E-02
11624,2.23E-02,1.94E-02
11625,2.25E-02,1.89E-02
11626,2.26E-02,1.84E-02
11627,2.34E-02,1.04E-02
11628,2.32E-02,1.10E-02
11629,2.31E-02,1.18E-02
11630,2.37E-02,1.56E-02
11631,2.34E-02,1.52E-02
11632,2.29E-02,1.45E-02
11633,2.28E-02,1.40E-02
11634,2.31E-02,1.49E-02
11635,2.28E-02,2.97E-02
11636,2.27E-02,3.06E-02
11637,2.26E-02,3.15E-02
11638,2.29E-02,3.06E-02
11639,2.28E-02,3.20E-02
11640,2.28E-02,3.13E-02
11641,2.26E-02,2.24E-02
11642,2.24E-02,2.17E-02
11643,2.35E-02,2.31E-02
11644,2.34E-02,2.21E-02
11645,2.33E-02,2.10E-02
11646,2.08E-02,8.39E-03
11647,2.15E-02,9.61E-03
11648,2.11E-02,8.99E-03
11649,2.20E-02,2.05E-02
11650,2.21E-02,2.00E-02
11651,2.21E-02,2.11E-02
11652,2.30E-02,1.99E-02
11653,2.16E-02,1.02E-02
11654,2.26E-02,3.24E-02
11655,2.27E-02,3.27E-02
11656,2.26E-02,3.26E-02
11657,2.27E-02,1.25E-02
11658,2.28E-02,1.37E-02
11659,2.26E-02,1.31E-02
11660,2.26E-02,3.25E-02
11661,2.18E-02,1.12E-02
11662,2.20E-02,1.21E-02
11663,2.20E-02,1.31E-02
11664,2.22E-02,1.41E-02
11665,2.21E-02,1.50E-02
11666,2.22E-02,1.60E-02
11667,2.24E-02,1.70E-02
11668,2.27E-02,1.80E-02
11669,2.29E-02,1.89E-02
11670,2.19E-02,2.05E-02
11671,2.17E-02,2.00E-02
11672,2.13E-02,9.90E-03
11673,2.10E-02,9.28E-03
11674,2.32E-02,2.11E-02
11675,2.35E-02,2.21E-02
11676,2.22E-02,2.11E-02
11677,2.25E-02,2.18E-02
11678,2.27E-02,3.12E-02
11679,2.28E-02,3.05E-02
11680,2.26E-02,3.07E-02
11681,2.28E-02,2.98E-02
11682,2.29E-02,1.43E-02
11683,2.28E-02,1.38E-02
11684,2.32E-02,1.47E-02
11685,2.34E-02,1.50E-02
11686,2.30E-02,1.16E-02
11687,2.35E-02,1.08E-02
11688,2.36E-02,1.02E-02
11689,2.21E-02,1.94E-02
11690,2.22E-02,1.89E-02
11691,2.23E-02,1.83E-02
11692,2.26E-02,2.25E-02
11693,2.29E-02,2.89E-02
11694,2.29E-02,2.98E-02
11695,2.07E-02,8.68E-03
11696,2.34E-02,2.31E-02
11697,2.26E-02,1.79E-02
11698,2.29E-02,2.80E-02
11699,2.30E-02,2.72E-02
11700,2.29E-02,2.63E-02
11701,2.28E-02,2.55E-02
11702,2.27E-02,2.47E-02
11703,2.26E-02,2.32E-02
11704,2.26E-02,2.39E-02
11705,2.11E-02,5.09E-03
11706,2.12E-02,5.88E-03
11707,2.07E-02,6.43E-03
11708,2.03E-02,6.98E-03
11709,2.03E-02,8.10E-03
11710,2.01E-02,7.53E-03
11711,2.35E-02,2.41E-02
11712,2.35E-02,2.50E-02
11713,2.35E-02,2.58E-02
11714,2.34E-02,2.66E-02
11715,2.33E-02,2.74E-02
11716,2.30E-02,2.90E-02
11717,2.32E-02,2.82E-02
11718,2.38E-02,1.54E-02
11719,2.38E-02,1.58E-02
11720,2.35E-02,1.62E-02
11721,2.33E-02,1.66E-02
11722,2.28E-02,1.70E-02
11723,2.27E-02,1.74E-02
11724,2.30E-02,1.23E-02
11725,2.29E-02,1.35E-02
11726,2.26E-02,3.16E-02
11727,2.27E-02,3.19E-02
11728,2.26E-02,3.18E-02
11729,2.17E-02,1.05E-02
11730,2.31E-02,2.00E-02
11731,2.29E-02,1.91E-02
11732,2.28E-02,1.81E-02
11733,2.26E-02,1.72E-02
11734,2.24E-02,1.62E-02
11735,2.21E-02,1.53E-02
11736,2.21E-02,1.43E-02
11737,2.20E-02,1.33E-02
11738,2.19E-02,1.24E-02
11739,2.17E-02,1.15E-02
11740,2.26E-02,3.17E-02
11741,2.29E-02,1.29E-02
11742,2.27E-02,1.69E-02
11743,2.30E-02,1.64E-02
11744,2.33E-02,1.60E-02
11745,2.36E-02,1.56E-02
11746,2.38E-02,1.53E-02
11747,2.31E-02,2.82E-02
11748,2.32E-02,2.74E-02
11749,2.34E-02,2.66E-02
11750,2.34E-02,2.58E-02
11751,2.34E-02,2.49E-02
11752,2.34E-02,2.41E-02
11753,2.02E-02,8.37E-03
11754,2.03E-02,7.81E-03
11755,2.06E-02,7.24E-03
11756,2.11E-02,6.69E-03
11757,2.14E-02,5.37E-03
11758,2.14E-02,6.15E-03
11759,2.25E-02,2.32E-02
11760,2.26E-02,2.40E-02
11761,2.27E-02,2.48E-02
11762,2.28E-02,2.56E-02
11763,2.29E-02,2.64E-02
11764,2.29E-02,2.73E-02
11765,2.26E-02,1.73E-02
11766,2.34E-02,2.32E-02
11767,2.06E-02,8.96E-03
11768,2.29E-02,2.89E-02
11769,2.29E-02,2.82E-02
11770,2.25E-02,2.25E-02
11771,2.23E-02,1.78E-02
11772,2.35E-02,1.00E-02
11773,2.33E-02,1.06E-02
11774,2.33E-02,1.14E-02
11775,2.35E-02,1.49E-02
11776,2.30E-02,1.42E-02
11777,2.28E-02,1.36E-02
11778,2.32E-02,1.45E-02
11779,2.28E-02,2.90E-02
11780,2.27E-02,2.99E-02
11781,2.27E-02,3.04E-02
11782,2.28E-02,2.97E-02
11783,2.25E-02,2.18E-02
11784,2.23E-02,2.12E-02
11785,2.33E-02,2.22E-02
11786,2.33E-02,2.12E-02
11787,2.13E-02,1.02E-02
11788,2.09E-02,9.56E-03
11789,2.18E-02,1.94E-02
11790,2.19E-02,1.89E-02
11791,2.21E-02,1.83E-02
11792,2.20E-02,2.06E-02
11793,2.19E-02,2.00E-02
11794,2.31E-02,2.02E-02
11795,2.15E-02,1.08E-02
11796,2.26E-02,3.08E-02
11797,2.27E-02,3.11E-02
11798,2.26E-02,3.10E-02
11799,2.31E-02,1.21E-02
11800,2.28E-02,1.33E-02
11801,2.29E-02,1.27E-02
11802,2.26E-02,3.09E-02
11803,2.16E-02,1.17E-02
11804,2.17E-02,1.27E-02
11805,2.18E-02,1.36E-02
11806,2.18E-02,1.45E-02
11807,2.19E-02,1.55E-02
11808,2.21E-02,1.64E-02
11809,2.23E-02,1.73E-02
11810,2.24E-02,1.83E-02
11811,2.27E-02,1.92E-02
11812,2.16E-02,1.94E-02
11813,2.17E-02,1.88E-02
11814,2.19E-02,1.83E-02
11815,2.11E-02,1.04E-02
11816,2.32E-02,2.13E-02
11817,2.20E-02,2.06E-02
11818,2.18E-02,2.00E-02
11819,2.24E-02,2.12E-02
11820,2.27E-02,2.96E-02
11821,2.27E-02,2.91E-02
11822,2.30E-02,1.40E-02
11823,2.28E-02,1.35E-02
11824,2.32E-02,1.44E-02
11825,2.33E-02,1.12E-02
11826,2.21E-02,1.77E-02
11827,2.24E-02,2.19E-02
11828,2.35E-02,1.04E-02
11829,2.33E-02,9.85E-03
11830,2.28E-02,2.83E-02
11831,2.28E-02,2.89E-02
11832,2.09E-02,9.82E-03
11833,2.34E-02,2.23E-02
11834,2.24E-02,1.72E-02
11835,2.29E-02,2.74E-02
11836,2.29E-02,2.65E-02
11837,2.28E-02,2.57E-02
11838,2.27E-02,2.49E-02
11839,2.26E-02,2.41E-02
11840,2.24E-02,2.26E-02
11841,2.25E-02,2.33E-02
11842,2.18E-02,5.62E-03
11843,2.17E-02,6.38E-03
11844,2.14E-02,6.94E-03
11845,2.10E-02,7.50E-03
11846,2.06E-02,8.06E-03
11847,2.05E-02,9.22E-03
11848,2.02E-02,8.63E-03
11849,2.33E-02,2.32E-02
11850,2.34E-02,2.41E-02
11851,2.34E-02,2.49E-02
11852,2.34E-02,2.57E-02
11853,2.33E-02,2.65E-02
11854,2.30E-02,2.81E-02
11855,2.31E-02,2.73E-02
11856,2.37E-02,1.47E-02
11857,2.37E-02,1.51E-02
11858,2.32E-02,1.55E-02
11859,2.32E-02,1.59E-02
11860,2.27E-02,1.63E-02
11861,2.26E-02,1.68E-02
11862,2.32E-02,1.20E-02
11863,2.30E-02,1.31E-02
11864,2.26E-02,3.00E-02
11865,2.27E-02,3.03E-02
11866,2.26E-02,3.02E-02
11867,2.15E-02,1.11E-02
11868,2.31E-02,2.03E-02
11869,2.28E-02,1.93E-02
11870,2.27E-02,1.84E-02
11871,2.25E-02,1.75E-02
11872,2.23E-02,1.66E-02
11873,2.22E-02,1.56E-02
11874,2.19E-02,1.47E-02
11875,2.18E-02,1.38E-02
11876,2.18E-02,1.29E-02
11877,2.17E-02,1.20E-02
11878,2.26E-02,3.01E-02
11879,2.30E-02,1.25E-02
11880,2.25E-02,1.62E-02
11881,2.28E-02,1.58E-02
11882,2.31E-02,1.54E-02
11883,2.37E-02,1.46E-02
11884,2.34E-02,1.50E-02
11885,2.30E-02,2.73E-02
11886,2.32E-02,2.65E-02
11887,2.33E-02,2.57E-02
11888,2.33E-02,2.49E-02
11889,2.33E-02,2.41E-02
11890,2.33E-02,2.32E-02
11891,2.04E-02,9.47E-03
11892,2.03E-02,8.88E-03
11893,2.09E-02,8.31E-03
11894,2.13E-02,7.74E-03
11895,2.17E-02,7.16E-03
11896,2.25E-02,5.82E-03
11897,2.24E-02,6.60E-03
11898,2.24E-02,2.26E-02
11899,2.25E-02,2.34E-02
11900,2.26E-02,2.41E-02
11901,2.27E-02,2.49E-02
11902,2.28E-02,2.58E-02
11903,2.29E-02,2.66E-02
11904,2.26E-02,1.67E-02
11905,2.32E-02,2.23E-02
11906,2.08E-02,1.01E-02
11907,2.29E-02,2.80E-02
11908,2.28E-02,2.75E-02
11909,2.31E-02,9.68E-03
11910,2.31E-02,1.03E-02
11911,2.23E-02,2.19E-02
11912,2.21E-02,1.72E-02
11913,2.33E-02,1.10E-02
11914,2.30E-02,1.38E-02
11915,2.29E-02,1.33E-02
11916,2.27E-02,2.84E-02
11917,2.27E-02,2.88E-02
11918,2.23E-02,2.12E-02
11919,2.21E-02,2.06E-02
11920,2.19E-02,2.00E-02
11921,2.33E-02,1.42E-02
11922,2.33E-02,2.14E-02
11923,2.12E-02,1.07E-02
11924,2.21E-02,1.77E-02
11925,2.16E-02,1.94E-02
11926,2.17E-02,1.88E-02
11927,2.17E-02,1.82E-02
11928,2.31E-02,2.04E-02
11929,2.12E-02,1.13E-02
11930,2.26E-02,2.92E-02
11931,2.27E-02,2.95E-02
11932,2.26E-02,2.94E-02
11933,2.32E-02,1.18E-02
11934,2.29E-02,1.29E-02
11935,2.29E-02,1.23E-02
11936,2.26E-02,2.93E-02
11937,2.14E-02,1.22E-02
11938,2.16E-02,1.31E-02
11939,2.16E-02,1.40E-02
11940,2.18E-02,1.49E-02
11941,2.20E-02,1.58E-02
11942,2.20E-02,1.67E-02
11943,2.21E-02,1.76E-02
11944,2.24E-02,1.85E-02
11945,2.28E-02,1.95E-02
11946,2.19E-02,1.76E-02
11947,2.13E-02,1.16E-02
11948,2.31E-02,2.04E-02
11949,2.30E-02,1.37E-02
11950,2.17E-02,1.94E-02
11951,2.15E-02,1.88E-02
11952,2.15E-02,1.82E-02
11953,2.23E-02,2.06E-02
11954,2.27E-02,2.87E-02
11955,2.26E-02,2.86E-02
11956,2.26E-02,2.84E-02
11957,2.29E-02,1.27E-02
11958,2.32E-02,1.16E-02
11959,2.20E-02,2.00E-02
11960,2.17E-02,1.76E-02
11961,2.21E-02,1.71E-02
11962,2.22E-02,2.13E-02
11963,2.29E-02,1.31E-02
11964,2.30E-02,1.08E-02
11965,2.27E-02,2.76E-02
11966,2.28E-02,2.80E-02
11967,2.12E-02,1.09E-02
11968,2.31E-02,2.14E-02
11969,2.24E-02,1.66E-02
11970,2.28E-02,2.67E-02
11971,2.28E-02,2.59E-02
11972,2.27E-02,2.50E-02
11973,2.26E-02,2.42E-02
11974,2.24E-02,2.34E-02
11975,2.23E-02,2.27E-02
11976,2.23E-02,2.20E-02
11977,2.39E-02,5.99E-03
11978,2.48E-02,6.79E-03
11979,2.19E-02,7.39E-03
11980,2.16E-02,7.95E-03
11981,2.11E-02,8.53E-03
11982,2.07E-02,9.11E-03
11983,2.05E-02,9.70E-03
11984,2.07E-02,1.03E-02
11985,2.33E-02,2.23E-02
11986,2.32E-02,2.32E-02
11987,2.33E-02,2.41E-02
11988,2.33E-02,2.49E-02
11989,2.32E-02,2.57E-02
11990,2.31E-02,2.64E-02
11991,2.29E-02,2.72E-02
11992,2.86E-02,6.22E-03
11993,2.88E-02,7.08E-03
11994,2.87E-02,7.28E-03
11995,1.89E-02,6.55E-03
11996,2.35E-02,1.45E-02
11997,2.35E-02,1.41E-02
11998,2.32E-02,1.49E-02
11999,2.28E-02,1.53E-02
12000,2.26E-02,1.57E-02
12001,2.25E-02,1.61E-02
12002,2.29E-02,9.51E-03
12003,2.30E-02,1.01E-02
12004,2.12E-02,6.07E-03
12005,2.27E-02,1.96E-02
12006,2.25E-02,1.87E-02
12007,2.23E-02,1.78E-02
12008,2.21E-02,1.69E-02
12009,2.18E-02,1.60E-02
12010,2.16E-02,1.51E-02
12011,2.17E-02,1.42E-02
12012,2.15E-02,1.24E-02
12013,2.17E-02,1.33E-02
12014,2.36E-02,6.16E-03
12015,1.81E-02,5.95E-03
12016,2.06E-02,6.08E-03
12017,2.26E-02,2.85E-02
12018,2.29E-02,1.22E-02
12019,2.15E-02,1.88E-02
12020,2.16E-02,1.94E-02
12021,2.15E-02,1.76E-02
12022,2.15E-02,1.82E-02
12023,2.19E-02,1.71E-02
12024,2.18E-02,1.70E-02
12025,2.22E-02,2.06E-02
12026,2.29E-02,1.26E-02
12027,2.31E-02,1.14E-02
12028,2.26E-02,2.77E-02
12029,2.27E-02,2.79E-02
12030,2.50E-02,6.93E-03
12031,1.94E-02,6.68E-03
12032,2.14E-02,1.18E-02
12033,2.30E-02,2.05E-02
12034,2.22E-02,1.65E-02
12035,2.17E-02,1.70E-02
12036,2.27E-02,2.68E-02
12037,2.28E-02,2.59E-02
12038,2.27E-02,2.51E-02
12039,2.26E-02,2.43E-02
12040,2.24E-02,2.35E-02
12041,2.23E-02,2.27E-02
12042,2.22E-02,2.20E-02
12043,2.22E-02,2.13E-02
12044,2.31E-02,7.02E-03
12045,2.22E-02,7.61E-03
12046,2.17E-02,8.17E-03
12047,2.13E-02,8.74E-03
12048,2.11E-02,9.33E-03
12049,2.06E-02,9.93E-03
12050,2.07E-02,1.05E-02
12051,2.09E-02,1.12E-02
12052,2.31E-02,2.15E-02
12053,2.31E-02,2.24E-02
12054,2.33E-02,2.32E-02
12055,2.33E-02,2.40E-02
12056,2.32E-02,2.48E-02
12057,2.31E-02,2.56E-02
12058,2.29E-02,2.64E-02
12059,2.28E-02,2.71E-02
12060,2.37E-02,7.52E-03
12061,1.84E-02,7.17E-03
12062,2.87E-02,8.08E-03
12063,2.91E-02,7.89E-03
12064,2.33E-02,1.39E-02
12065,2.32E-02,1.35E-02
12066,2.34E-02,1.43E-02
12067,2.28E-02,1.47E-02
12068,2.28E-02,1.52E-02
12069,2.25E-02,1.56E-02
12070,2.24E-02,1.61E-02
12071,2.28E-02,9.35E-03
12072,2.29E-02,9.93E-03
12073,2.31E-02,1.07E-02
12074,2.15E-02,1.75E-02
12075,2.13E-02,1.81E-02
12076,2.14E-02,1.88E-02
12077,2.18E-02,1.94E-02
12078,2.21E-02,2.00E-02
12079,2.29E-02,1.20E-02
12080,2.26E-02,2.77E-02
12081,2.26E-02,2.78E-02
12082,2.19E-02,6.79E-03
12083,2.15E-02,1.35E-02
12084,2.13E-02,1.27E-02
12085,2.17E-02,1.53E-02
12086,2.16E-02,1.44E-02
12087,2.20E-02,1.70E-02
12088,2.18E-02,1.61E-02
12089,2.24E-02,1.88E-02
12090,2.22E-02,1.79E-02
12091,2.26E-02,1.96E-02
12092,2.20E-02,1.65E-02
12093,2.18E-02,1.64E-02
12094,2.14E-02,1.69E-02
12095,2.18E-02,1.63E-02
12096,2.27E-02,2.60E-02
12097,2.27E-02,2.52E-02
12098,2.26E-02,2.44E-02
12099,2.25E-02,2.36E-02
12100,2.23E-02,2.28E-02
12101,2.22E-02,2.13E-02
12102,2.22E-02,2.21E-02
12103,2.23E-02,7.80E-03
12104,2.18E-02,8.37E-03
12105,2.16E-02,8.95E-03
12106,2.12E-02,9.54E-03
12107,2.10E-02,1.01E-02
12108,2.08E-02,1.14E-02
12109,2.08E-02,1.07E-02
12110,2.30E-02,2.15E-02
12111,2.32E-02,2.24E-02
12112,2.32E-02,2.32E-02
12113,2.32E-02,2.40E-02
12114,2.31E-02,2.48E-02
12115,2.28E-02,2.63E-02
12116,2.30E-02,2.56E-02
12117,2.32E-02,8.21E-03
12118,2.13E-02,7.75E-03
12119,2.01E-02,9.04E-03
12120,2.59E-02,8.61E-03
12121,2.20E-02,2.07E-02
12122,2.33E-02,1.34E-02
12123,2.31E-02,1.38E-02
12124,2.32E-02,1.42E-02
12125,2.27E-02,1.46E-02
12126,2.27E-02,1.50E-02
12127,2.24E-02,1.55E-02
12128,2.28E-02,9.19E-03
12129,2.29E-02,9.77E-03
12130,2.28E-02,1.05E-02
12131,1.89E-02,9.59E-03
12132,2.22E-02,1.00E-02
12133,2.07E-02,8.76E-03
12134,2.16E-02,1.63E-02
12135,2.24E-02,1.60E-02
12136,2.28E-02,1.30E-02
12137,2.30E-02,1.13E-02
12138,2.26E-02,2.69E-02
12139,2.27E-02,2.71E-02
12140,2.09E-02,7.31E-03
12141,2.52E-02,7.66E-03
12142,2.14E-02,1.20E-02
12143,2.29E-02,2.06E-02
12144,1.67E-02,6.60E-03
12145,2.01E-02,7.30E-03
12146,2.26E-02,1.97E-02
12147,2.24E-02,1.89E-02
12148,2.22E-02,1.80E-02
12149,2.20E-02,1.71E-02
12150,2.17E-02,1.63E-02
12151,2.16E-02,1.54E-02
12152,2.15E-02,1.46E-02
12153,2.16E-02,1.37E-02
12154,2.15E-02,1.29E-02
12155,2.25E-02,7.49E-03
12156,2.26E-02,2.70E-02
12157,2.26E-02,2.69E-02
12158,2.30E-02,1.18E-02
12159,2.28E-02,1.24E-02
12160,2.23E-02,1.59E-02
12161,2.19E-02,1.58E-02
12162,2.18E-02,1.57E-02
12163,2.18E-02,1.57E-02
12164,1.75E-02,9.44E-03
12165,2.29E-02,1.03E-02
12166,2.26E-02,9.60E-03
12167,2.23E-02,9.03E-03
12168,2.25E-02,1.49E-02
12169,2.26E-02,1.45E-02
12170,2.29E-02,1.41E-02
12171,2.32E-02,1.32E-02
12172,2.29E-02,1.36E-02
12173,2.40E-02,1.11E-02
12174,2.29E-02,1.12E-02
12175,2.27E-02,1.19E-02
12176,2.26E-02,1.20E-02
12177,2.25E-02,1.27E-02
12178,2.22E-02,1.35E-02
12179,2.22E-02,1.28E-02
12180,2.19E-02,2.00E-02
12181,2.18E-02,1.94E-02
12182,2.16E-02,1.87E-02
12183,2.13E-02,1.81E-02
12184,2.13E-02,1.75E-02
12185,2.14E-02,1.69E-02
12186,2.15E-02,1.62E-02
12187,2.15E-02,1.56E-02
12188,2.20E-02,1.42E-02
12189,2.18E-02,1.50E-02
12190,2.21E-02,1.43E-02
12191,2.22E-02,1.36E-02
12192,2.21E-02,1.41E-02
12193,2.23E-02,1.34E-02
12194,2.27E-02,1.26E-02
12195,2.26E-02,1.18E-02
12196,2.24E-02,1.09E-02
12197,2.17E-02,9.30E-03
12198,1.83E-02,1.02E-02
12199,2.08E-02,8.43E-03
12200,1.99E-02,7.99E-03
12201,2.28E-02,2.55E-02
12202,2.30E-02,2.47E-02
12203,2.32E-02,2.40E-02
12204,2.32E-02,2.32E-02
12205,2.31E-02,2.24E-02
12206,2.31E-02,2.15E-02
12207,2.10E-02,1.16E-02
12208,2.09E-02,1.09E-02
12209,2.12E-02,1.03E-02
12210,2.15E-02,9.73E-03
12211,2.18E-02,9.14E-03
12212,2.20E-02,8.57E-03
12213,2.21E-02,2.14E-02
12214,2.21E-02,2.21E-02
12215,2.23E-02,2.28E-02
12216,2.25E-02,2.36E-02
12217,2.27E-02,2.44E-02
12218,2.27E-02,2.52E-02
12219,2.28E-02,2.06E-02
12220,2.12E-02,1.22E-02
12221,2.26E-02,7.99E-03
12222,2.39E-02,8.35E-03
12223,2.27E-02,2.63E-02
12224,2.26E-02,2.61E-02
12225,2.19E-02,1.49E-02
12226,2.21E-02,2.07E-02
12227,2.28E-02,1.11E-02
12228,2.31E-02,1.28E-02
12229,2.23E-02,1.54E-02
12230,2.19E-02,1.50E-02
12231,2.33E-02,1.03E-02
12232,2.23E-02,8.92E-03
12233,1.79E-02,6.80E-03
12234,2.00E-02,7.49E-03
12235,2.15E-02,9.63E-03
12236,2.20E-02,1.51E-02
12237,2.22E-02,1.52E-02
12238,2.24E-02,1.53E-02
12239,2.27E-02,1.22E-02
12240,2.27E-02,1.17E-02
12241,2.20E-02,2.00E-02
12242,2.19E-02,1.94E-02
12243,2.15E-02,1.87E-02
12244,2.15E-02,1.81E-02
12245,2.13E-02,1.74E-02
12246,2.13E-02,1.68E-02
12247,2.16E-02,1.62E-02
12248,2.16E-02,1.55E-02
12249,2.26E-02,2.62E-02
12250,2.26E-02,2.62E-02
12251,2.29E-02,8.18E-03
12252,2.14E-02,1.30E-02
12253,2.16E-02,1.39E-02
12254,2.14E-02,1.47E-02
12255,2.16E-02,1.56E-02
12256,2.16E-02,1.64E-02
12257,2.19E-02,1.73E-02
12258,2.21E-02,1.81E-02
12259,2.22E-02,1.89E-02
12260,2.24E-02,1.98E-02
12261,2.27E-02,2.45E-02
12262,2.26E-02,2.37E-02
12263,2.23E-02,2.29E-02
12264,2.20E-02,2.14E-02
12265,2.21E-02,2.21E-02
12266,2.20E-02,9.32E-03
12267,2.17E-02,9.91E-03
12268,2.15E-02,1.05E-02
12269,2.10E-02,1.18E-02
12270,2.12E-02,1.11E-02
12271,2.29E-02,2.15E-02
12272,2.32E-02,2.24E-02
12273,2.31E-02,2.32E-02
12274,2.29E-02,2.47E-02
12275,2.29E-02,2.39E-02
12276,2.08E-02,8.64E-03
12277,2.02E-02,8.18E-03
12278,2.08E-02,1.00E-02
12279,1.94E-02,1.10E-02
12280,2.23E-02,1.17E-02
12281,2.24E-02,1.25E-02
12282,2.23E-02,1.33E-02
12283,2.22E-02,1.41E-02
12284,2.24E-02,1.37E-02
12285,2.25E-02,1.29E-02
12286,2.23E-02,1.21E-02
12287,2.26E-02,1.13E-02
12288,2.30E-02,1.31E-02
12289,2.30E-02,1.35E-02
12290,2.27E-02,1.39E-02
12291,2.24E-02,1.44E-02
12292,2.25E-02,8.87E-03
12293,2.26E-02,9.44E-03
12294,2.28E-02,1.02E-02
12295,2.27E-02,1.05E-02
12296,2.09E-02,9.13E-03
12297,2.20E-02,1.44E-02
12298,2.25E-02,1.48E-02
12299,2.30E-02,1.27E-02
12300,2.29E-02,1.09E-02
12301,2.21E-02,2.07E-02
12302,2.21E-02,1.48E-02
12303,2.26E-02,2.53E-02
12304,2.27E-02,2.55E-02
12305,2.24E-02,8.74E-03
12306,2.27E-02,9.08E-03
12307,2.11E-02,1.24E-02
12308,2.27E-02,2.07E-02
12309,2.04E-02,7.00E-03
12310,1.83E-02,7.71E-03
12311,1.42E-02,7.30E-03
12312,2.23E-02,1.98E-02
12313,2.22E-02,1.90E-02
12314,2.19E-02,1.82E-02
12315,2.17E-02,1.74E-02
12316,2.15E-02,1.65E-02
12317,2.14E-02,1.57E-02
12318,2.13E-02,1.49E-02
12319,2.13E-02,1.41E-02
12320,2.12E-02,1.32E-02
12321,2.27E-02,8.90E-03
12322,2.26E-02,2.54E-02
12323,2.26E-02,2.54E-02
12324,2.17E-02,1.55E-02
12325,2.16E-02,1.61E-02
12326,2.15E-02,1.68E-02
12327,2.15E-02,1.74E-02
12328,2.15E-02,1.80E-02
12329,2.16E-02,1.87E-02
12330,2.19E-02,1.94E-02
12331,2.20E-02,2.00E-02
12332,2.27E-02,1.15E-02
12333,2.28E-02,1.21E-02
12334,2.25E-02,1.47E-02
12335,2.24E-02,1.46E-02
12336,2.24E-02,1.45E-02
12337,2.15E-02,9.83E-03
12338,2.26E-02,1.00E-02
12339,2.25E-02,9.27E-03
12340,2.23E-02,8.69E-03
12341,2.25E-02,1.38E-02
12342,2.29E-02,1.29E-02
12343,2.27E-02,1.33E-02
12344,2.23E-02,1.15E-02
12345,2.25E-02,1.30E-02
12346,2.24E-02,1.23E-02
12347,2.22E-02,1.40E-02
12348,2.26E-02,1.32E-02
12349,2.24E-02,1.24E-02
12350,2.13E-02,1.07E-02
12351,2.22E-02,1.16E-02
12352,2.09E-02,8.85E-03
12353,1.97E-02,8.37E-03
12354,2.29E-02,2.39E-02
12355,2.29E-02,2.31E-02
12356,2.30E-02,2.23E-02
12357,2.30E-02,2.15E-02
12358,2.13E-02,1.19E-02
12359,2.14E-02,1.13E-02
12360,2.17E-02,1.07E-02
12361,2.20E-02,1.01E-02
12362,2.20E-02,2.14E-02
12363,2.21E-02,2.22E-02
12364,2.24E-02,2.29E-02
12365,2.26E-02,2.37E-02
12366,2.27E-02,2.07E-02
12367,2.11E-02,1.26E-02
12368,2.23E-02,9.50E-03
12369,2.18E-02,9.83E-03
12370,2.28E-02,2.47E-02
12371,2.26E-02,2.45E-02
12372,2.22E-02,1.47E-02
12373,2.19E-02,2.07E-02
12374,2.28E-02,1.08E-02
12375,2.30E-02,1.25E-02
12376,2.24E-02,1.42E-02
12377,2.24E-02,1.38E-02
12378,2.21E-02,1.07E-02
12379,2.13E-02,9.32E-03
12380,1.62E-02,7.04E-03
12381,1.54E-02,7.59E-03
12382,1.60E-02,7.88E-03
12383,2.17E-02,1.00E-02
12384,2.25E-02,1.39E-02
12385,2.26E-02,1.40E-02
12386,2.27E-02,1.41E-02
12387,2.26E-02,1.19E-02
12388,2.27E-02,1.13E-02
12389,2.18E-02,2.00E-02
12390,2.17E-02,1.93E-02
12391,2.16E-02,1.87E-02
12392,2.15E-02,1.80E-02
12393,2.15E-02,1.74E-02
12394,2.15E-02,1.67E-02
12395,2.19E-02,1.60E-02
12396,2.19E-02,1.54E-02
12397,2.26E-02,2.46E-02
12398,2.26E-02,2.46E-02
12399,2.24E-02,9.66E-03
12400,2.12E-02,1.34E-02
12401,2.14E-02,1.42E-02
12402,2.13E-02,1.50E-02
12403,2.14E-02,1.58E-02
12404,2.13E-02,1.66E-02
12405,2.13E-02,1.75E-02
12406,2.15E-02,1.83E-02
12407,2.19E-02,1.91E-02
12408,2.23E-02,1.99E-02
12409,2.25E-02,2.30E-02
12410,2.19E-02,2.14E-02
12411,2.22E-02,2.22E-02
12412,2.20E-02,1.09E-02
12413,2.14E-02,1.21E-02
12414,2.17E-02,1.15E-02
12415,2.29E-02,2.15E-02
12416,2.30E-02,2.31E-02
12417,2.29E-02,2.23E-02
12418,2.04E-02,9.05E-03
12419,1.89E-02,8.59E-03
12420,2.21E-02,1.15E-02
12421,2.28E-02,1.23E-02
12422,2.26E-02,1.31E-02
12423,2.25E-02,1.39E-02
12424,2.25E-02,1.24E-02
12425,2.22E-02,1.16E-02
12426,2.26E-02,1.28E-02
12427,2.24E-02,1.32E-02
12428,2.20E-02,8.51E-03
12429,2.24E-02,9.10E-03
12430,2.27E-02,9.85E-03
12431,2.20E-02,1.08E-02
12432,2.14E-02,9.52E-03
12433,2.28E-02,1.31E-02
12434,2.26E-02,1.36E-02
12435,2.29E-02,1.23E-02
12436,2.27E-02,1.06E-02
12437,2.19E-02,2.07E-02
12438,2.23E-02,1.47E-02
12439,2.26E-02,2.38E-02
12440,2.28E-02,2.39E-02
12441,2.20E-02,1.03E-02
12442,2.18E-02,1.06E-02
12443,2.13E-02,1.27E-02
12444,2.26E-02,2.07E-02
12445,1.96E-02,8.11E-03
12446,2.22E-02,1.99E-02
12447,2.19E-02,1.91E-02
12448,2.17E-02,1.83E-02
12449,2.15E-02,1.75E-02
12450,2.14E-02,1.67E-02
12451,2.13E-02,1.59E-02
12452,2.13E-02,1.51E-02
12453,2.13E-02,1.43E-02
12454,2.12E-02,1.35E-02
12455,2.21E-02,1.04E-02
12456,2.27E-02,2.38E-02
12457,2.25E-02,2.38E-02
12458,2.22E-02,1.53E-02
12459,2.20E-02,1.60E-02
12460,2.17E-02,1.67E-02
12461,2.15E-02,1.73E-02
12462,2.14E-02,1.80E-02
12463,2.16E-02,1.87E-02
12464,2.16E-02,1.93E-02
12465,2.18E-02,2.00E-02
12466,2.27E-02,1.12E-02
12467,2.24E-02,1.18E-02
12468,2.28E-02,1.35E-02
12469,2.28E-02,1.34E-02
12470,2.28E-02,1.33E-02
12471,2.16E-02,1.02E-02
12472,2.29E-02,9.69E-03
12473,2.25E-02,1.26E-02
12474,2.25E-02,1.17E-02
12475,2.27E-02,1.38E-02
12476,2.25E-02,1.22E-02
12477,2.32E-02,1.30E-02
12478,2.14E-02,8.33E-03
12479,2.17E-02,8.93E-03
12480,2.06E-02,9.25E-03
12481,2.29E-02,2.23E-02
12482,2.29E-02,2.15E-02
12483,2.17E-02,1.22E-02
12484,2.20E-02,1.16E-02
12485,2.20E-02,2.14E-02
12486,2.24E-02,2.22E-02
12487,2.28E-02,2.07E-02
12488,2.13E-02,1.29E-02
12489,2.22E-02,1.10E-02
12490,2.21E-02,1.13E-02
12491,2.29E-02,2.31E-02
12492,2.25E-02,2.30E-02
12493,2.24E-02,1.46E-02
12494,2.17E-02,2.07E-02
12495,2.27E-02,1.04E-02
12496,2.26E-02,1.22E-02
12497,2.26E-02,1.31E-02
12498,2.28E-02,1.25E-02
12499,2.22E-02,1.10E-02
12500,2.11E-02,9.70E-03
12501,2.01E-02,8.77E-03
12502,2.17E-02,1.03E-02
12503,2.29E-02,1.26E-02
12504,2.28E-02,1.28E-02
12505,2.28E-02,1.29E-02
12506,2.25E-02,1.16E-02
12507,2.26E-02,1.10E-02
12508,2.17E-02,2.00E-02
12509,2.16E-02,1.93E-02
12510,2.15E-02,1.86E-02
12511,2.14E-02,1.79E-02
12512,2.14E-02,1.73E-02
12513,2.16E-02,1.66E-02
12514,2.21E-02,1.59E-02
12515,2.22E-02,1.53E-02
12516,2.26E-02,2.30E-02
12517,2.27E-02,2.30E-02
12518,2.23E-02,1.12E-02
12519,2.13E-02,1.37E-02
12520,2.14E-02,1.45E-02
12521,2.13E-02,1.53E-02
12522,2.12E-02,1.61E-02
12523,2.15E-02,1.68E-02
12524,2.14E-02,1.76E-02
12525,2.15E-02,1.84E-02
12526,2.19E-02,1.92E-02
12527,2.23E-02,2.00E-02
12528,2.21E-02,2.15E-02
12529,2.19E-02,1.24E-02
12530,2.28E-02,2.15E-02
12531,2.09E-02,9.43E-03
12532,1.99E-02,8.78E-03
12533,2.06E-02,8.12E-03
12534,1.72E-02,8.50E-03
12535,2.32E-02,1.29E-02
12536,2.31E-02,1.37E-02
12537,2.24E-02,1.11E-02
12538,2.15E-02,9.88E-03
12539,2.29E-02,1.19E-02
12540,2.26E-02,1.25E-02
12541,2.25E-02,1.20E-02
12542,2.28E-02,1.03E-02
12543,2.19E-02,2.07E-02
12544,2.27E-02,1.45E-02
12545,2.24E-02,2.22E-02
12546,2.27E-02,2.23E-02
12547,2.22E-02,1.18E-02
12548,2.24E-02,1.20E-02
12549,2.16E-02,1.30E-02
12550,2.27E-02,2.08E-02
12551,2.23E-02,2.00E-02
12552,2.20E-02,1.92E-02
12553,2.19E-02,1.85E-02
12554,2.16E-02,1.77E-02
12555,2.14E-02,1.69E-02
12556,2.13E-02,1.62E-02
12557,2.14E-02,1.54E-02
12558,2.13E-02,1.46E-02
12559,2.13E-02,1.38E-02
12560,2.24E-02,1.19E-02
12561,2.27E-02,2.23E-02
12562,2.26E-02,2.22E-02
12563,2.23E-02,1.52E-02
12564,2.19E-02,1.59E-02
12565,2.15E-02,1.65E-02
12566,2.16E-02,1.72E-02
12567,2.15E-02,1.79E-02
12568,2.15E-02,1.86E-02
12569,2.14E-02,1.93E-02
12570,2.16E-02,2.00E-02
12571,2.26E-02,1.09E-02
12572,2.25E-02,1.14E-02
12573,2.28E-02,1.23E-02
12574,2.30E-02,1.20E-02
12575,2.28E-02,1.22E-02
12576,2.19E-02,1.05E-02
12577,2.20E-02,1.01E-02
12578,2.35E-02,1.37E-02
12579,1.88E-02,7.91E-03
12580,2.27E-02,2.07E-02
12581,2.18E-02,1.32E-02
12582,2.23E-02,1.25E-02
12583,2.30E-02,1.28E-02
12584,2.28E-02,2.15E-02
12585,2.22E-02,2.15E-02
12586,2.29E-02,1.44E-02
12587,2.18E-02,2.07E-02
12588,2.36E-02,1.01E-02
12589,2.26E-02,1.19E-02
12590,2.28E-02,1.13E-02
12591,1.39E-02,8.83E-03
12592,1.43E-02,8.25E-03
12593,1.85E-02,8.79E-03
12594,2.24E-02,1.07E-02
12595,2.30E-02,1.16E-02
12596,2.29E-02,1.14E-02
12597,2.26E-02,1.17E-02
12598,2.24E-02,1.13E-02
12599,2.26E-02,1.07E-02
12600,2.17E-02,2.00E-02
12601,2.14E-02,1.93E-02
12602,2.14E-02,1.86E-02
12603,2.13E-02,1.79E-02
12604,2.15E-02,1.72E-02
12605,2.19E-02,1.65E-02
12606,2.23E-02,1.58E-02
12607,2.25E-02,1.51E-02
12608,2.25E-02,2.15E-02
12609,2.27E-02,2.15E-02
12610,2.26E-02,1.27E-02
12611,2.15E-02,1.39E-02
12612,2.14E-02,1.47E-02
12613,2.11E-02,1.55E-02
12614,2.12E-02,1.62E-02
12615,2.14E-02,1.70E-02
12616,2.16E-02,1.77E-02
12617,2.20E-02,1.85E-02
12618,2.22E-02,1.92E-02
12619,2.25E-02,2.00E-02
12620,1.79E-02,7.68E-03
12621,2.33E-02,1.44E-02
12622,2.19E-02,2.07E-02
12623,2.32E-02,1.36E-02
12624,2.21E-02,1.33E-02
12625,2.31E-02,2.07E-02
12626,1.71E-02,8.08E-03
12627,2.30E-02,2.00E-02
12628,2.27E-02,1.92E-02
12629,2.22E-02,1.85E-02
12630,2.18E-02,1.78E-02
12631,2.13E-02,1.71E-02
12632,2.11E-02,1.63E-02
12633,2.08E-02,1.56E-02
12634,2.12E-02,1.48E-02
12635,2.14E-02,1.41E-02
12636,2.30E-02,1.34E-02
12637,2.26E-02,2.07E-02
12638,2.25E-02,2.07E-02
12639,2.30E-02,1.51E-02
12640,2.23E-02,1.58E-02
12641,2.19E-02,1.65E-02
12642,2.16E-02,1.71E-02
12643,2.13E-02,1.78E-02
12644,2.08E-02,1.85E-02
12645,2.11E-02,1.93E-02
12646,2.14E-02,2.00E-02
12647,2.30E-02,1.05E-02
12648,2.25E-02,1.11E-02
12649,2.50E-02,1.43E-02
12650,2.42E-02,1.08E-02
12651,1.79E-02,7.46E-03
12652,2.18E-02,1.10E-02
12653,2.18E-02,2.00E-02
12654,2.37E-02,1.50E-02
12655,2.25E-02,1.57E-02
12656,2.20E-02,1.64E-02
12657,2.14E-02,1.71E-02
12658,2.10E-02,1.78E-02
12659,2.05E-02,1.85E-02
12660,1.97E-02,1.92E-02
12661,2.23E-02,1.42E-02
12662,2.30E-02,1.02E-02
12663,2.07E-02,9.59E-03
12664,1.98E-02,8.95E-03
12665,1.86E-02,8.34E-03
12666,1.85E-02,7.75E-03
12667,1.90E-02,7.12E-03
12668,2.41E-02,1.99E-02
12669,2.33E-02,1.92E-02
12670,2.23E-02,1.85E-02
12671,2.17E-02,1.78E-02
12672,2.13E-02,1.71E-02
12673,2.09E-02,1.64E-02
12674,2.04E-02,1.57E-02
12675,1.94E-02,1.50E-02
12676,1.92E-02,6.85E-03
12677,1.94E-02,7.06E-03
12678,2.05E-02,7.30E-03
12679,2.09E-02,7.53E-03
12680,2.15E-02,7.74E-03
12681,2.19E-02,7.94E-03
12682,2.22E-02,8.12E-03
12683,2.23E-02,8.29E-03
12684,2.24E-02,8.46E-03
12685,2.28E-02,8.61E-03
12686,2.29E-02,8.77E-03
12687,2.31E-02,8.93E-03
12688,2.34E-02,9.09E-03
12689,2.36E-02,9.26E-03
12690,2.38E-02,9.44E-03
12691,2.39E-02,9.63E-03
12692,2.38E-02,9.83E-03
12693,2.37E-02,1.00E-02
12694,2.35E-02,1.03E-02
12695,2.32E-02,1.05E-02
12696,2.30E-02,1.08E-02
12697,2.39E-02,1.11E-02
12698,2.52E-02,1.13E-02
12699,2.70E-02,1.15E-02
12700,2.86E-02,1.17E-02
12701,2.87E-02,1.18E-02
12702,2.76E-02,1.20E-02
12703,2.61E-02,1.21E-02
12704,2.46E-02,1.22E-02
12705,2.41E-02,1.24E-02
12706,2.38E-02,1.26E-02
12707,2.35E-02,1.28E-02
12708,2.34E-02,1.31E-02
12709,2.34E-02,1.34E-02
12710,2.33E-02,1.37E-02
12711,2.33E-02,1.40E-02
12712,2.33E-02,1.43E-02
12713,2.33E-02,1.45E-02
12714,2.34E-02,1.50E-02
12715,2.36E-02,1.53E-02
12716,2.38E-02,1.56E-02
12717,2.39E-02,1.59E-02
12718,2.39E-02,1.63E-02
12719,2.36E-02,1.67E-02
12720,2.30E-02,1.72E-02
12721,2.24E-02,1.76E-02
12722,2.16E-02,1.81E-02
12723,2.09E-02,1.86E-02
12724,2.05E-02,1.91E-02
12725,2.04E-02,1.97E-02
12726,2.08E-02,2.02E-02
12727,2.12E-02,2.07E-02
12728,2.15E-02,2.12E-02
12729,2.14E-02,2.17E-02
12730,2.19E-02,2.23E-02
12731,2.49E-02,2.28E-02
12732,2.78E-02,2.35E-02
12733,2.66E-02,2.41E-02
12734,2.57E-02,2.47E-02
12735,2.55E-02,2.53E-02
12736,2.56E-02,2.60E-02
12737,2.56E-02,2.67E-02
12738,2.56E-02,2.74E-02
12739,2.51E-02,2.82E-02
12740,2.21E-02,2.88E-02
12741,1.97E-02,2.93E-02
12742,1.82E-02,2.99E-02
12743,1.77E-02,3.03E-02
12744,1.83E-02,3.05E-02
12745,1.85E-02,3.06E-02
12746,1.78E-02,3.07E-02
12747,1.76E-02,3.06E-02
12748,1.93E-02,3.07E-02
12749,2.32E-02,3.08E-02
12750,2.58E-02,3.09E-02
12751,2.56E-02,3.12E-02
12752,2.57E-02,3.17E-02
12753,2.54E-02,3.22E-02
12754,2.55E-02,3.28E-02
12755,2.54E-02,3.35E-02
12756,2.49E-02,3.41E-02
12757,2.36E-02,3.46E-02
12758,2.09E-02,3.51E-02
12759,1.85E-02,3.55E-02
12760,1.89E-02,3.57E-02
12761,2.15E-02,3.57E-02
12762,2.40E-02,3.56E-02
12763,2.47E-02,3.53E-02
12764,2.46E-02,3.48E-02
12765,2.44E-02,3.41E-02
12766,2.42E-02,3.33E-02
12767,2.37E-02,3.23E-02
12768,2.35E-02,3.12E-02
12769,2.32E-02,2.99E-02
12770,2.30E-02,2.85E-02
12771,2.26E-02,2.70E-02
12772,2.26E-02,2.54E-02
12773,2.23E-02,2.37E-02
12774,2.21E-02,2.19E-02
12775,2.21E-02,2.00E-02
12776,2.19E-02,1.81E-02
12777,2.20E-02,1.61E-02
12778,2.25E-02,1.40E-02
12779,2.31E-02,1.20E-02
12780,2.38E-02,1.01E-02
12781,2.49E-02,8.25E-03
12782,2.58E-02,6.56E-03
12783,2.63E-02,4.98E-03
12784,2.63E-02,3.66E-03
12785,2.51E-02,2.68E-03
12786,2.23E-02,1.95E-03
12787,1.94E-02,1.36E-03
12788,1.88E-02,9.31E-04
12789,2.03E-02,6.49E-04
12790,2.14E-02,4.52E-04
12791,2.15E-02,3.49E-04
12792,2.08E-02,3.83E-04
12793,2.24E-02,4.82E-04
12794,2.08E-02,6.03E-04
12795,1.65E-02,7.05E-04
12796,1.86E-02,7.75E-04
12797,2.06E-02,8.74E-04
12798,2.29E-02,1.02E-03
12799,2.73E-02,1.21E-03
12800,2.35E-02,1.35E-03
12801,2.26E-02,1.33E-03
12802,2.09E-02,1.33E-03
12803,2.10E-02,1.34E-03
12804,2.17E-02,1.33E-03
12805,2.26E-02,1.27E-03
12806,2.39E-02,1.17E-03
12807,2.40E-02,1.11E-03
12808,2.33E-02,1.08E-03
12809,2.16E-02,1.01E-03
12810,1.83E-02,9.30E-04
12811,1.77E-02,7.69E-04
12812,1.82E-02,6.37E-04
12813,2.16E-02,5.87E-04
12814,2.31E-02,5.34E-04
12815,2.01E-02,4.85E-04
12816,1.79E-02,3.93E-04
12817,1.76E-02,2.50E-04
12818,1.88E-02,2.01E-04
12819,2.03E-02,2.81E-04
12820,2.17E-02,4.15E-04
12821,2.25E-02,5.76E-04
12822,2.25E-02,7.84E-04
12823,2.28E-02,1.05E-03
12824,2.32E-02,1.36E-03
12825,2.33E-02,1.67E-03
12826,2.36E-02,1.99E-03
12827,2.35E-02,2.34E-03
12828,2.44E-02,2.67E-03
12829,2.59E-02,2.92E-03
12830,2.73E-02,3.19E-03
12831,2.74E-02,3.58E-03
12832,2.61E-02,4.07E-03
12833,2.26E-02,4.53E-03
12834,2.00E-02,4.82E-03
12835,2.01E-02,4.88E-03
12836,2.22E-02,4.98E-03
12837,2.41E-02,5.36E-03
12838,2.43E-02,6.02E-03
12839,2.44E-02,6.58E-03
12840,2.55E-02,6.80E-03
12841,2.82E-02,7.06E-03
12842,2.81E-02,7.56E-03
12843,2.73E-02,8.12E-03
12844,2.93E-02,8.72E-03
12845,2.97E-02,9.25E-03
12846,2.72E-02,9.60E-03
12847,2.73E-02,9.85E-03
12848,2.92E-02,1.01E-02
12849,2.69E-02,1.02E-02
12850,1.89E-02,1.04E-02
12851,1.41E-02,1.07E-02
12852,1.28E-02,1.11E-02
12853,1.60E-02,1.14E-02
12854,1.98E-02,1.16E-02
12855,2.36E-02,1.20E-02
12856,2.84E-02,1.22E-02
12857,2.97E-02,1.26E-02
12858,2.84E-02,1.30E-02
12859,2.70E-02,1.34E-02
12860,2.59E-02,1.38E-02
12861,2.54E-02,1.42E-02
12862,2.24E-02,1.60E-02
12863,2.16E-02,1.67E-02
12864,2.37E-02,1.74E-02
12865,2.52E-02,1.81E-02
12866,2.55E-02,1.90E-02
12867,2.50E-02,1.98E-02
12868,2.43E-02,2.06E-02
12869,2.32E-02,2.16E-02
12870,2.18E-02,2.27E-02
12871,2.03E-02,2.35E-02
12872,2.06E-02,2.41E-02
12873,2.21E-02,2.47E-02
12874,2.62E-02,2.65E-02
12875,2.56E-02,2.71E-02
12876,2.49E-02,2.78E-02
12877,2.44E-02,2.85E-02
12878,2.40E-02,2.92E-02
12879,2.37E-02,3.01E-02
12880,2.35E-02,3.13E-02
12881,2.32E-02,3.26E-02
12882,2.32E-02,3.40E-02
12883,2.30E-02,3.52E-02
12884,2.29E-02,3.62E-02
12885,2.29E-02,3.70E-02
12886,2.26E-02,3.75E-02
12887,2.25E-02,3.80E-02
12888,2.24E-02,3.80E-02
12889,2.22E-02,3.78E-02
12890,2.20E-02,3.73E-02
12891,2.18E-02,3.68E-02
12892,2.15E-02,3.67E-02
12893,2.06E-02,3.70E-02
12894,1.67E-02,3.74E-02
12895,2.13E-02,3.78E-02
12896,3.15E-02,3.79E-02
12897,2.86E-02,3.80E-02
12898,2.79E-02,3.80E-02
12899,2.75E-02,3.77E-02
12900,2.73E-02,3.74E-02
12901,2.67E-02,3.74E-02
12902,2.63E-02,3.75E-02
12903,2.59E-02,3.75E-02
12904,2.53E-02,3.73E-02
12905,2.48E-02,3.72E-02
12906,2.44E-02,3.74E-02
12907,2.43E-02,3.76E-02
12908,2.45E-02,3.76E-02
12909,2.50E-02,3.77E-02
12910,2.66E-02,3.79E-02
12911,2.42E-02,3.81E-02
12912,1.93E-02,3.83E-02
12913,1.88E-02,3.84E-02
12914,1.94E-02,3.86E-02
12915,1.99E-02,3.88E-02
12916,2.01E-02,3.90E-02
12917,2.02E-02,3.92E-02
12918,2.03E-02,3.94E-02
12919,2.02E-02,3.95E-02
12920,2.01E-02,3.96E-02
12921,2.00E-02,3.99E-02
12922,2.04E-02,4.02E-02
12923,2.14E-02,4.04E-02
12924,2.20E-02,4.05E-02
12925,2.30E-02,4.06E-02
12926,2.42E-02,4.07E-02
12927,2.48E-02,4.08E-02
12928,2.47E-02,4.10E-02
12929,2.48E-02,4.12E-02
12930,2.51E-02,4.15E-02
12931,2.54E-02,4.18E-02
12932,2.57E-02,4.21E-02
12933,2.61E-02,4.24E-02
12934,2.65E-02,4.27E-02
12935,2.69E-02,4.31E-02
12936,2.76E-02,4.36E-02
12937,2.82E-02,4.40E-02
12938,2.68E-02,4.43E-02
12939,2.22E-02,4.45E-02
12940,1.51E-02,4.47E-02
12941,2.20E-02,4.49E-02
12942,2.35E-02,4.51E-02
12943,2.23E-02,4.54E-02
12944,2.18E-02,4.58E-02
12945,2.20E-02,4.62E-02
12946,2.56E-02,4.63E-02
12947,2.84E-02,4.67E-02
12948,2.71E-02,4.71E-02
12949,2.64E-02,4.74E-02
12950,2.63E-02,4.75E-02
12951,2.61E-02,4.76E-02
12952,2.61E-02,4.77E-02
12953,2.65E-02,4.78E-02
12954,2.69E-02,4.79E-02
12955,2.72E-02,4.80E-02
12956,2.59E-02,4.83E-02
12957,2.12E-02,4.85E-02
12958,1.37E-02,4.89E-02
12959,2.36E-02,4.92E-02
12960,2.55E-02,4.93E-02
12961,2.04E-02,4.96E-02
12962,2.04E-02,4.98E-02
12963,2.05E-02,4.99E-02
12964,2.05E-02,5.01E-02
12965,2.05E-02,5.02E-02
12966,2.06E-02,5.03E-02
12967,2.05E-02,5.05E-02
12968,2.05E-02,5.06E-02
12969,2.07E-02,5.07E-02
12970,2.07E-02,5.09E-02
12971,2.09E-02,5.11E-02
12972,2.14E-02,5.13E-02
12973,2.18E-02,5.15E-02
12974,2.13E-02,5.17E-02
12975,2.08E-02,5.18E-02
12976,2.16E-02,5.20E-02
12977,2.43E-02,5.22E-02
12978,2.76E-02,5.22E-02
12979,2.89E-02,5.24E-02
12980,2.99E-02,5.25E-02
12981,2.90E-02,5.27E-02
12982,2.79E-02,5.28E-02
12983,2.69E-02,5.30E-02
12984,2.63E-02,5.32E-02
12985,2.49E-02,5.35E-02
12986,2.31E-02,5.38E-02
12987,2.18E-02,5.42E-02
12988,2.62E-02,5.41E-02
12989,2.72E-02,5.45E-02
12990,2.60E-02,5.49E-02
12991,2.54E-02,5.52E-02
12992,2.42E-02,5.54E-02
12993,2.33E-02,5.57E-02
12994,2.22E-02,5.60E-02
12995,2.21E-02,5.62E-02
12996,2.19E-02,5.64E-02
12997,2.15E-02,5.66E-02
12998,2.13E-02,5.67E-02
12999,2.10E-02,5.68E-02
13000,2.07E-02,5.68E-02
13001,2.06E-02,5.67E-02
13002,2.14E-02,5.66E-02
13003,2.19E-02,5.65E-02
13004,2.24E-02,5.64E-02
13005,2.29E-02,5.61E-02
13006,2.27E-02,5.57E-02
13007,2.18E-02,5.53E-02
13008,2.04E-02,5.49E-02
13009,1.99E-02,5.45E-02
13010,2.02E-02,5.40E-02
13011,2.09E-02,5.36E-02
13012,2.02E-02,5.32E-02
13013,1.97E-02,5.27E-02
13014,2.44E-02,5.19E-02
13015,2.59E-02,5.12E-02
13016,2.08E-02,5.08E-02
13017,1.93E-02,5.04E-02
13018,2.15E-02,4.99E-02
13019,2.03E-02,4.95E-02
13020,1.43E-02,4.93E-02
13021,1.54E-02,4.90E-02
13022,2.15E-02,4.85E-02
13023,1.77E-02,4.83E-02
13024,1.71E-02,4.79E-02
13025,2.15E-02,4.74E-02
13026,2.29E-02,4.69E-02
13027,2.15E-02,4.65E-02
13028,2.64E-02,4.58E-02
13029,2.48E-02,4.51E-02
13030,2.02E-02,4.46E-02
13031,1.88E-02,4.39E-02
13032,1.69E-02,4.10E-02
13033,1.56E-02,3.99E-02
13034,1.75E-02,3.87E-02
13035,1.98E-02,3.75E-02
13036,2.14E-02,3.62E-02
13037,2.25E-02,3.49E-02
13038,2.47E-02,3.36E-02
13039,2.70E-02,3.23E-02
13040,2.07E-02,3.11E-02
13041,1.58E-02,3.00E-02
13042,2.03E-02,2.62E-02
13043,1.98E-02,2.49E-02
13044,1.73E-02,2.36E-02
13045,1.56E-02,2.24E-02
13046,1.68E-02,2.10E-02
13047,2.03E-02,1.97E-02
13048,2.25E-02,1.85E-02
13049,2.12E-02,1.73E-02
13050,1.97E-02,1.60E-02
13051,2.08E-02,1.49E-02
13052,2.48E-02,1.39E-02
13053,2.38E-02,1.30E-02
13054,1.99E-02,1.20E-02
13055,1.88E-02,1.12E-02
13056,1.95E-02,1.05E-02
13057,2.02E-02,9.83E-03
13058,2.07E-02,9.23E-03
13059,2.14E-02,8.66E-03
13060,2.22E-02,8.13E-03
13061,2.13E-02,7.63E-03
13062,1.98E-02,7.18E-03
13063,1.88E-02,6.76E-03
13064,1.77E-02,6.40E-03
13065,1.84E-02,6.13E-03
13066,1.89E-02,5.97E-03
13067,1.88E-02,5.90E-03
13068,1.93E-02,5.98E-03
13069,2.02E-02,6.17E-03
13070,2.13E-02,6.45E-03
13071,2.33E-02,6.87E-03
13072,2.70E-02,7.42E-03
13073,1.90E-02,8.26E-03
13074,1.68E-02,9.02E-03
13075,1.98E-02,9.80E-03
13076,2.27E-02,1.06E-02
13077,2.33E-02,1.14E-02
13078,2.44E-02,1.23E-02
13079,2.58E-02,1.31E-02
13080,2.77E-02,1.39E-02
13081,1.93E-02,1.50E-02
13082,1.61E-02,1.58E-02
13083,2.04E-02,1.65E-02
13084,1.92E-02,1.74E-02
13085,1.94E-02,1.82E-02
13086,1.92E-02,1.92E-02
13087,1.78E-02,2.02E-02
13088,1.65E-02,2.09E-02
13089,1.66E-02,2.18E-02
13090,2.97E-02,2.19E-02
13091,1.80E-02,2.54E-02
13092,2.20E-02,2.59E-02
13093,2.57E-02,2.73E-02
13094,1.88E-02,2.95E-02
13095,2.22E-02,3.00E-02
13096,2.07E-02,3.05E-02
13097,2.16E-02,3.08E-02
13098,2.19E-02,3.10E-02
13099,2.21E-02,3.14E-02
13100,2.24E-02,3.19E-02
13101,2.29E-02,3.22E-02
13102,2.32E-02,3.23E-02
13103,2.36E-02,3.22E-02
13104,2.40E-02,3.21E-02
13105,2.40E-02,3.21E-02
13106,2.40E-02,3.18E-02
13107,2.39E-02,3.10E-02
13108,2.39E-02,3.04E-02
13109,2.45E-02,2.92E-02
13110,2.59E-02,2.87E-02
13111,2.84E-02,2.83E-02
13112,1.97E-02,2.82E-02
13113,1.81E-02,2.80E-02
13114,2.05E-02,2.76E-02
13115,1.98E-02,2.73E-02
13116,2.08E-02,2.70E-02
13117,2.25E-02,2.65E-02
13118,2.55E-02,2.59E-02
13119,2.88E-02,2.53E-02
13120,2.90E-02,2.47E-02
13121,2.88E-02,2.41E-02
13122,2.76E-02,2.35E-02
13123,2.60E-02,2.30E-02
13124,2.36E-02,2.26E-02
13125,2.25E-02,2.20E-02
13126,2.17E-02,2.15E-02
13127,2.17E-02,2.10E-02
13128,2.21E-02,2.04E-02
13129,2.25E-02,1.98E-02
13130,2.28E-02,1.92E-02
13131,2.30E-02,1.86E-02
13132,2.29E-02,1.79E-02
13133,2.28E-02,1.72E-02
13134,2.24E-02,1.65E-02
13135,2.18E-02,1.57E-02
13136,2.12E-02,1.50E-02
13137,2.07E-02,1.42E-02
13138,2.10E-02,1.34E-02
13139,2.11E-02,1.27E-02
13140,2.15E-02,1.19E-02
13141,2.15E-02,1.12E-02
13142,2.14E-02,1.06E-02
13143,2.13E-02,9.90E-03
13144,2.11E-02,9.30E-03
13145,2.14E-02,8.58E-03
13146,2.16E-02,7.95E-03
13147,2.24E-02,7.31E-03
13148,2.42E-02,6.65E-03
13149,2.66E-02,5.98E-03
13150,2.83E-02,5.36E-03
13151,2.83E-02,4.73E-03
13152,2.72E-02,4.15E-03
13153,2.65E-02,3.61E-03
13154,2.57E-02,3.11E-03
13155,2.50E-02,2.67E-03
13156,2.42E-02,2.32E-03
13157,2.34E-02,2.09E-03
13158,2.29E-02,2.03E-03
13159,2.34E-02,2.16E-03
13160,2.04E-02,2.32E-03
13161,1.97E-02,2.59E-03
13162,2.19E-02,3.02E-03
13163,2.14E-02,3.37E-03
13164,2.08E-02,3.69E-03
13165,2.11E-02,4.02E-03
13166,2.13E-02,4.33E-03
13167,2.16E-02,4.58E-03
13168,2.17E-02,4.85E-03
13169,2.16E-02,5.06E-03
13170,2.14E-02,5.23E-03
13171,1.99E-02,5.37E-03
13172,1.88E-02,5.43E-03
13173,1.79E-02,5.44E-03
13174,1.68E-02,5.45E-03
13175,1.74E-02,5.49E-03
13176,2.05E-02,5.66E-03
13177,2.47E-02,5.77E-03
13178,2.27E-02,5.98E-03
13179,1.76E-02,6.03E-03
13180,1.81E-02,6.19E-03
13181,2.15E-02,6.34E-03
13182,2.21E-02,6.44E-03
13183,1.98E-02,6.51E-03
13184,2.20E-02,9.76E-03
13185,2.06E-02,9.18E-03
13186,1.91E-02,8.57E-03
13187,1.78E-02,7.92E-03
13188,1.80E-02,7.29E-03
13189,1.93E-02,6.65E-03
13190,2.08E-02,1.03E-02
13195,2.46E-02,0.10802
13196,2.32E-02,0.11582
13197,1.57E-02,0.13045
13198,1.96E-02,0.12922
13199,2.62E-02,4.57E-02
13200,2.27E-02,4.67E-02
13201,2.09E-02,8.92E-02
13202,2.08E-02,8.61E-02
13203,1.46E-02,8.35E-02
13204,1.99E-02,7.87E-02
13205,1.89E-02,4.91E-02
13206,1.97E-02,5.04E-02
13207,2.05E-02,5.21E-02
13208,2.06E-02,5.46E-02
13209,1.92E-02,6.65E-02
13210,1.99E-02,6.39E-02
13211,2.04E-02,6.13E-02
13212,2.05E-02,5.78E-02
13213,1.92E-02,7.13E-02
13214,1.84E-02,7.01E-02
13215,1.79E-02,7.79E-02
13216,1.97E-02,6.20E-02
13217,1.93E-02,6.53E-02
13218,2.11E-02,5.33E-02
13219,2.07E-02,5.74E-02
13220,2.06E-02,4.95E-02
13221,2.08E-02,5.10E-02
13222,1.91E-02,4.72E-02
13223,2.04E-02,4.83E-02
13224,2.41E-02,9.75E-02
13225,2.33E-02,0.10099
13226,2.33E-02,0.10293
13227,2.42E-02,0.10482
13228,1.90E-02,3.85E-02
13229,1.74E-02,3.90E-02
13230,2.06E-02,3.80E-02
13231,2.54E-02,3.77E-02
13232,2.50E-02,4.46E-02
13233,2.41E-02,4.36E-02
13234,2.37E-02,4.26E-02
13235,2.30E-02,4.16E-02
13236,2.24E-02,4.05E-02
13237,2.18E-02,3.95E-02
13238,2.13E-02,3.85E-02
13239,2.07E-02,3.76E-02
13240,1.98E-02,3.68E-02
13241,1.87E-02,3.63E-02
13242,1.76E-02,3.66E-02
13243,1.86E-02,3.79E-02
13244,1.49E-02,3.83E-02
13245,1.88E-02,3.86E-02
13246,2.00E-02,3.91E-02
13247,2.07E-02,3.97E-02
13248,2.13E-02,4.03E-02
13249,2.18E-02,4.11E-02
13250,2.24E-02,4.20E-02
13251,2.30E-02,4.29E-02
13252,2.36E-02,4.40E-02
13253,2.42E-02,4.51E-02
13254,2.52E-02,4.62E-02
13255,2.67E-02,4.75E-02
13256,2.28E-02,4.91E-02
13257,1.80E-02,5.08E-02
13258,1.93E-02,5.24E-02
13259,2.02E-02,5.46E-02
13260,2.05E-02,5.73E-02
13261,2.04E-02,6.02E-02
13262,2.03E-02,6.28E-02
13263,1.98E-02,6.53E-02
13264,1.93E-02,6.84E-02
13265,1.89E-02,7.27E-02
13266,2.02E-02,7.75E-02
13267,2.75E-02,8.23E-02
13268,2.11E-02,8.55E-02
13269,1.74E-02,8.79E-02
13270,2.15E-02,9.04E-02
13271,2.32E-02,9.67E-02
13272,2.35E-02,0.10524
13273,2.40E-02,0.11579
13274,2.40E-02,0.12949
13275,2.31E-02,0.14771
13276,2.20E-02,0.17127
13277,2.41E-02,0.19698
13278,2.42E-02,0.35199
13279,2.74E-02,0.19674
13280,1.52E-02,0.11028
13281,1.54E-02,6.73E-02
13282,2.43E-02,6.22E-02
13283,2.79E-02,6.61E-02
13284,2.56E-02,7.59E-02
13285,2.45E-02,8.93E-02
13286,2.33E-02,0.10241
13287,2.27E-02,0.11404
13288,2.39E-02,0.11822
13289,2.88E-02,0.10471
13290,1.97E-02,8.54E-02
13291,1.63E-02,6.98E-02
13292,2.16E-02,6.99E-02
13293,1.90E-02,7.63E-02
13294,1.82E-02,7.04E-02
13295,2.10E-02,5.42E-02
13296,2.30E-02,4.67E-02
13297,2.18E-02,4.65E-02
13298,2.11E-02,4.77E-02
13299,2.08E-02,4.75E-02
13300,2.07E-02,4.66E-02
13301,2.18E-02,4.55E-02
13302,2.29E-02,4.45E-02
13303,2.45E-02,4.37E-02
13304,2.51E-02,4.29E-02
13305,2.45E-02,4.21E-02
13306,2.39E-02,4.13E-02
13307,2.32E-02,4.04E-02
13308,2.25E-02,3.93E-02
13309,2.17E-02,3.81E-02
13310,2.11E-02,3.65E-02
13311,2.07E-02,3.50E-02
13312,2.00E-02,3.37E-02
13313,1.99E-02,3.32E-02
13314,2.35E-02,3.39E-02
13315,2.42E-02,3.51E-02
13316,2.00E-02,3.64E-02
13317,1.86E-02,3.77E-02
13318,1.51E-02,3.87E-02
13319,2.12E-02,3.95E-02
13320,2.74E-02,3.99E-02
13321,2.36E-02,4.02E-02
13322,2.00E-02,4.03E-02
13323,1.66E-02,4.04E-02
13324,1.33E-02,4.03E-02
13325,1.02E-02,4.01E-02
13332,1.90E-02,4.04E-03
13333,2.23E-02,5.29E-03
13334,1.95E-02,4.22E-03
13335,2.39E-02,0.36392
13336,3.04E-02,9.70E-02
13337,2.12E-02,6.36E-03
13338,1.99E-02,4.02E-03
13339,2.19E-02,4.32E-03
13340,2.34E-02,4.47E-03
13341,2.40E-02,4.53E-03
13342,2.58E-02,4.66E-03
13343,1.71E-02,5.30E-03
13344,2.07E-02,5.84E-03
13345,1.68E-02,4.76E-03
13346,2.01E-02,5.62E-03
13347,1.94E-02,3.76E-03
13348,2.51E-02,3.65E-03
13349,2.23E-02,4.37E-03
13350,2.24E-02,5.00E-03
13351,1.88E-02,4.81E-03
13352,2.01E-02,6.90E-03
13353,2.19E-02,5.40E-03
13354,2.31E-02,8.03E-03
13355,2.20E-02,7.32E-03
13356,2.35E-02,1.06E-02
13357,2.37E-02,9.07E-03
13358,2.65E-02,1.29E-02
13359,2.37E-02,1.21E-02
13360,2.25E-02,1.77E-02
13361,2.65E-02,1.42E-02
13362,2.21E-02,1.04E-02
13363,2.54E-02,1.72E-02
13364,2.63E-02,1.99E-02
13365,2.61E-02,5.01E-03
13366,2.54E-02,7.14E-03
13367,2.05E-02,1.07E-02
13368,2.19E-02,1.07E-02
13369,1.86E-02,1.11E-02
13370,2.00E-02,1.10E-02
13371,2.08E-02,9.19E-03
13372,1.81E-02,1.05E-02
13373,2.36E-02,7.81E-03
13374,2.43E-02,8.27E-03
13375,2.00E-02,7.38E-03
13376,2.24E-02,7.49E-03
13377,2.22E-02,5.79E-03
13378,2.23E-02,5.53E-03
13379,2.34E-02,2.57E-02
13380,1.76E-02,5.38E-03
13381,2.09E-02,5.38E-03
13382,1.74E-02,8.69E-03
13383,2.02E-02,3.19E-02
13384,1.97E-02,1.56E-02
13385,2.29E-02,3.73E-02
13386,1.76E-02,7.06E-02
13387,1.69E-02,2.52E-03
13388,1.94E-02,7.24E-03
13389,1.96E-02,8.83E-03
13390,2.10E-02,9.95E-03
13391,2.18E-02,1.13E-02
13392,2.24E-02,1.29E-02
13393,2.31E-02,1.45E-02
13394,2.36E-02,1.62E-02
13395,2.36E-02,1.82E-02
13396,2.43E-02,2.04E-02
13397,2.49E-02,2.31E-02
13398,2.49E-02,2.64E-02
13399,2.54E-02,2.99E-02
13400,2.52E-02,3.53E-02
13401,2.51E-02,4.22E-02
13402,2.45E-02,5.20E-02
13403,2.68E-02,6.37E-02
13404,2.32E-02,8.83E-02
13405,1.59E-02,0.12745
13406,1.83E-02,0.16174
13407,2.27E-02,3.01E-02
13408,2.14E-02,2.51E-02
13409,2.02E-02,2.65E-02
13410,2.10E-02,2.77E-02
13411,2.23E-02,2.74E-02
13412,2.41E-02,2.57E-02
13413,2.37E-02,2.40E-02
13414,2.35E-02,2.21E-02
13415,2.28E-02,2.06E-02
13416,2.19E-02,1.95E-02
13417,2.12E-02,1.84E-02
13418,2.05E-02,1.70E-02
13419,2.12E-02,1.54E-02
13420,2.20E-02,1.39E-02
13421,2.37E-02,1.29E-02
13422,2.43E-02,1.19E-02
13423,2.33E-02,1.12E-02
13424,2.26E-02,1.08E-02
13425,2.18E-02,1.06E-02
13426,1.99E-02,5.53E-03
13427,2.05E-02,6.34E-03
13428,1.77E-02,7.44E-03
13429,1.81E-02,9.07E-03
13430,2.11E-02,9.91E-03
13439,2.20E-02,2.48E-02
13440,1.33E-02,2.66E-02
13441,2.05E-02,2.67E-02
13442,1.61E-02,2.67E-02
13443,9.20E-03,2.66E-02
13444,1.59E-02,2.65E-02
13445,1.60E-02,2.67E-02
13446,1.20E-02,2.66E-02
13447,1.59E-02,2.64E-02
13448,1.64E-02,2.66E-02
13449,1.52E-02,2.65E-02
13450,1.60E-02,2.63E-02
13451,2.15E-02,2.63E-02
13452,2.34E-02,2.61E-02
13453,1.46E-02,2.38E-02
13454,1.42E-02,2.37E-02
13455,1.50E-02,2.38E-02
13456,2.18E-02,2.06E-02
13457,2.22E-02,2.05E-02
13458,1.88E-02,2.37E-02
13459,2.00E-02,2.38E-02
13460,1.87E-02,2.37E-02
13461,2.03E-02,2.36E-02
13462,1.92E-02,2.27E-02
13463,1.85E-02,2.27E-02
13464,2.10E-02,2.26E-02
13465,2.20E-02,2.26E-02
13466,2.38E-02,2.25E-02
13467,1.67E-02,2.25E-02
13468,1.62E-02,2.24E-02
13469,1.63E-02,2.24E-02
13470,1.73E-02,2.24E-02
13471,2.14E-02,2.24E-02
13472,1.96E-02,2.23E-02
13473,2.13E-02,2.24E-02
13474,2.06E-02,2.23E-02
13475,2.10E-02,2.23E-02
13476,2.09E-02,2.23E-02
13477,2.13E-02,2.22E-02
13478,2.14E-02,2.22E-02
13479,2.13E-02,2.23E-02
13480,2.12E-02,2.26E-02
13481,2.02E-02,2.25E-02
13482,2.08E-02,2.26E-02
13483,1.80E-02,2.32E-02
13484,1.99E-02,2.32E-02
13485,2.18E-02,2.31E-02
13486,2.23E-02,2.30E-02
13487,2.61E-02,2.28E-02
13488,2.38E-02,2.29E-02
13489,2.22E-02,2.27E-02
13490,2.51E-02,2.28E-02
13491,2.30E-02,2.26E-02
13492,2.23E-02,2.26E-02
13493,2.37E-02,2.24E-02
13494,2.47E-02,2.25E-02
13495,2.04E-02,2.23E-02
13496,2.16E-02,2.22E-02
13497,2.13E-02,2.23E-02
13498,2.11E-02,2.24E-02
13499,2.13E-02,2.24E-02
13500,2.04E-02,2.25E-02
13501,2.02E-02,2.24E-02
13502,1.96E-02,2.25E-02
13503,1.66E-02,2.27E-02
13504,1.99E-02,2.27E-02
13505,2.55E-02,2.28E-02
13506,1.86E-02,2.28E-02
13507,2.19E-02,2.30E-02
13508,2.28E-02,2.29E-02
13509,2.07E-02,2.31E-02
13510,2.17E-02,2.30E-02
13511,2.26E-02,2.33E-02
13512,2.11E-02,2.32E-02
13513,2.36E-02,2.34E-02
13514,2.25E-02,2.35E-02
13515,2.23E-02,2.34E-02
13516,2.36E-02,2.33E-02
13517,2.18E-02,2.35E-02
13518,2.16E-02,2.35E-02
13519,2.11E-02,2.35E-02
13520,2.02E-02,2.36E-02
13521,2.29E-02,2.33E-02
13522,2.18E-02,2.36E-02
13523,2.18E-02,2.36E-02
13524,2.18E-02,2.35E-02
13525,2.17E-02,2.22E-02
13526,2.15E-02,2.21E-02
13527,1.76E-02,2.37E-02
13528,2.19E-02,2.39E-02
13529,2.04E-02,2.25E-02
13530,2.05E-02,2.26E-02
13531,2.10E-02,2.38E-02
13532,2.05E-02,2.26E-02
13533,2.20E-02,2.23E-02
13534,2.15E-02,2.24E-02
13535,2.19E-02,2.24E-02
13536,1.86E-02,2.37E-02
13537,2.21E-02,2.32E-02
13538,2.21E-02,2.33E-02
13539,2.28E-02,2.30E-02
13540,2.25E-02,2.31E-02
13541,2.41E-02,2.29E-02
13542,2.36E-02,2.30E-02
13543,2.38E-02,2.27E-02
13544,2.41E-02,2.28E-02
13545,2.37E-02,2.25E-02
13546,2.33E-02,2.26E-02
13547,2.35E-02,2.24E-02
13548,2.39E-02,2.25E-02
13549,2.18E-02,2.22E-02
13550,2.26E-02,2.23E-02
13551,2.20E-02,2.21E-02
13552,2.19E-02,2.22E-02
13553,2.18E-02,2.22E-02
13554,2.10E-02,2.24E-02
13555,2.13E-02,2.24E-02
13556,2.03E-02,2.25E-02
13557,2.06E-02,2.24E-02
13558,2.01E-02,2.25E-02
13559,2.06E-02,2.27E-02
13560,2.01E-02,2.27E-02
13561,2.24E-02,2.28E-02
13562,2.13E-02,2.28E-02
13563,2.21E-02,2.29E-02
13564,2.21E-02,2.29E-02
13565,2.20E-02,2.31E-02
13566,2.16E-02,2.30E-02
13567,2.18E-02,2.32E-02
13568,2.13E-02,2.31E-02
13569,2.24E-02,2.33E-02
13570,2.25E-02,2.33E-02
13571,2.27E-02,2.35E-02
13572,2.24E-02,2.34E-02
13573,2.10E-02,2.36E-02
13574,2.22E-02,2.35E-02
13575,1.89E-02,2.36E-02
13576,2.37E-02,2.39E-02
13577,2.80E-02,2.40E-02
13578,2.58E-02,2.40E-02
13579,2.51E-02,2.41E-02
13580,2.45E-02,2.42E-02
13581,2.40E-02,2.43E-02
13582,2.33E-02,2.44E-02
13583,2.23E-02,2.46E-02
13584,2.31E-02,2.45E-02
13585,1.65E-02,2.55E-02
13586,1.78E-02,2.54E-02
13587,2.28E-02,2.53E-02
13588,2.63E-02,2.52E-02
13589,2.10E-02,2.37E-02
13590,2.18E-02,2.34E-02
13591,2.16E-02,2.21E-02
13592,2.05E-02,2.26E-02
13593,2.04E-02,2.25E-02
13594,2.08E-02,2.26E-02
13595,2.26E-02,2.23E-02
13596,2.28E-02,2.23E-02
13597,2.13E-02,2.24E-02
13598,2.18E-02,2.24E-02
13599,2.17E-02,2.36E-02
13600,2.18E-02,2.37E-02
13601,2.16E-02,2.36E-02
13602,2.38E-02,2.44E-02
13603,2.45E-02,2.43E-02
13604,1.58E-02,2.63E-02
13605,1.53E-02,2.64E-02
13606,2.23E-02,2.61E-02
13607,1.90E-02,2.60E-02
13608,2.32E-02,2.59E-02
13609,2.25E-02,2.57E-02
13610,2.21E-02,2.58E-02
13611,2.17E-02,2.59E-02
13612,1.69E-02,2.56E-02
13613,1.93E-02,2.57E-02
13614,1.80E-02,2.55E-02
13615,2.66E-02,2.51E-02
13616,2.06E-02,2.49E-02
13617,2.45E-02,2.50E-02
13618,2.28E-02,2.46E-02
13619,2.15E-02,2.48E-02
13620,2.33E-02,2.45E-02
13621,2.86E-02,2.40E-02
13622,2.51E-02,2.42E-02
13623,2.60E-02,2.41E-02
13624,2.34E-02,2.39E-02
13625,2.74E-02,2.40E-02
13626,2.19E-02,2.38E-02
13627,2.18E-02,2.39E-02
13628,2.11E-02,2.37E-02
13629,2.25E-02,2.33E-02
13630,2.25E-02,2.34E-02
13631,2.29E-02,2.31E-02
13632,2.26E-02,2.32E-02
13633,2.38E-02,2.29E-02
13634,2.36E-02,2.30E-02
13635,2.39E-02,2.27E-02
13636,2.39E-02,2.28E-02
13637,2.38E-02,2.25E-02
13638,2.38E-02,2.26E-02
13639,2.35E-02,2.24E-02
13640,2.40E-02,2.24E-02
13641,2.26E-02,2.22E-02
13642,2.30E-02,2.23E-02
13643,2.26E-02,2.20E-02
13644,2.23E-02,2.21E-02
13645,2.22E-02,2.20E-02
13646,2.15E-02,2.20E-02
13647,2.17E-02,2.21E-02
13648,2.15E-02,2.21E-02
13649,2.20E-02,2.22E-02
13650,2.10E-02,2.24E-02
13651,2.12E-02,2.24E-02
13652,2.05E-02,2.25E-02
13653,2.08E-02,2.25E-02
13654,2.04E-02,2.25E-02
13655,2.12E-02,2.27E-02
13656,2.09E-02,2.26E-02
13657,2.22E-02,2.28E-02
13658,2.18E-02,2.27E-02
13659,2.20E-02,2.29E-02
13660,2.22E-02,2.28E-02
13661,2.18E-02,2.30E-02
13662,2.19E-02,2.29E-02
13663,2.18E-02,2.31E-02
13664,2.18E-02,2.31E-02
13665,2.22E-02,2.33E-02
13666,2.21E-02,2.32E-02
13667,2.19E-02,2.34E-02
13668,2.28E-02,2.33E-02
13669,2.07E-02,2.35E-02
13670,2.16E-02,2.34E-02
13671,1.87E-02,2.36E-02
13672,1.94E-02,2.36E-02
13673,2.19E-02,2.38E-02
13674,1.94E-02,2.37E-02
13675,2.46E-02,2.39E-02
13676,2.40E-02,2.39E-02
13677,2.42E-02,2.41E-02
13678,2.44E-02,2.40E-02
13679,2.34E-02,2.43E-02
13680,2.40E-02,2.42E-02
13681,2.26E-02,2.45E-02
13682,2.32E-02,2.44E-02
13683,2.53E-02,2.48E-02
13684,2.19E-02,2.46E-02
13685,2.58E-02,2.50E-02
13686,2.62E-02,2.49E-02
13687,1.86E-02,2.52E-02
13688,2.28E-02,2.51E-02
13689,2.29E-02,2.55E-02
13690,2.11E-02,2.54E-02
13691,2.46E-02,2.56E-02
13692,2.79E-02,2.60E-02
13693,2.58E-02,2.61E-02
13694,2.42E-02,2.62E-02
13695,2.03E-02,2.63E-02
13696,2.21E-02,2.24E-02
13697,2.19E-02,2.38E-02
13698,2.14E-02,2.35E-02
13699,2.16E-02,2.19E-02
13700,2.37E-02,2.24E-02
13701,1.87E-02,2.24E-02
13702,2.07E-02,2.26E-02
13703,2.08E-02,2.25E-02
13704,2.08E-02,2.26E-02
13705,2.16E-02,2.37E-02
13706,2.15E-02,2.37E-02
13707,2.20E-02,2.38E-02
13708,1.64E-02,2.66E-02
13709,2.42E-02,2.64E-02
13710,2.15E-02,2.65E-02
13711,1.82E-02,2.63E-02
13712,2.30E-02,2.63E-02
13713,1.98E-02,2.61E-02
13714,1.80E-02,2.62E-02
13715,2.06E-02,2.59E-02
13716,2.09E-02,2.60E-02
13717,2.04E-02,2.57E-02
13718,2.06E-02,2.58E-02
13719,2.23E-02,2.55E-02
13720,2.09E-02,2.56E-02
13721,2.38E-02,2.52E-02
13722,2.35E-02,2.53E-02
13723,2.23E-02,2.50E-02
13724,2.31E-02,2.51E-02
13725,2.27E-02,2.48E-02
13726,2.21E-02,2.49E-02
13727,2.37E-02,2.45E-02
13728,2.34E-02,2.46E-02
13729,2.50E-02,2.43E-02
13730,2.44E-02,2.44E-02
13731,2.62E-02,2.41E-02
13732,2.57E-02,2.42E-02
13733,2.44E-02,2.40E-02
13734,2.55E-02,2.41E-02
13735,2.27E-02,2.39E-02
13736,2.30E-02,2.39E-02
13737,2.23E-02,2.38E-02
13738,2.24E-02,2.33E-02
13739,2.21E-02,2.34E-02
13740,2.31E-02,2.31E-02
13741,2.26E-02,2.32E-02
13742,2.38E-02,2.29E-02
13743,2.34E-02,2.30E-02
13744,2.39E-02,2.27E-02
13745,2.41E-02,2.28E-02
13746,2.38E-02,2.25E-02
13747,2.38E-02,2.26E-02
13748,2.36E-02,2.23E-02
13749,2.37E-02,2.24E-02
13750,2.30E-02,2.22E-02
13751,2.32E-02,2.22E-02
13752,2.29E-02,2.20E-02
13753,2.28E-02,2.21E-02
13754,2.20E-02,2.18E-02
13755,2.32E-02,2.19E-02
13756,2.05E-02,2.18E-02
13757,2.12E-02,2.19E-02
13758,2.07E-02,2.19E-02
13759,2.18E-02,2.21E-02
13760,2.15E-02,2.20E-02
13761,2.27E-02,2.22E-02
13762,2.20E-02,2.22E-02
13763,2.49E-02,2.23E-02
13764,1.70E-02,2.24E-02
13765,2.18E-02,2.24E-02
13766,2.05E-02,2.24E-02
13767,2.13E-02,2.24E-02
13768,2.16E-02,2.24E-02
13769,2.11E-02,2.25E-02
13770,2.12E-02,2.25E-02
13771,2.07E-02,2.25E-02
13772,2.09E-02,2.25E-02
13773,2.07E-02,2.25E-02
13774,2.13E-02,2.27E-02
13775,2.10E-02,2.26E-02
13776,2.20E-02,2.27E-02
13777,2.18E-02,2.27E-02
13778,2.21E-02,2.28E-02
13779,2.21E-02,2.28E-02
13780,2.17E-02,2.29E-02
13781,2.20E-02,2.29E-02
13782,2.17E-02,2.31E-02
13783,2.17E-02,2.30E-02
13784,2.23E-02,2.32E-02
13785,2.20E-02,2.31E-02
13786,2.19E-02,2.33E-02
13787,2.22E-02,2.32E-02
13788,2.09E-02,2.34E-02
13789,2.14E-02,2.34E-02
13790,2.08E-02,2.36E-02
13791,2.04E-02,2.35E-02
13792,2.18E-02,2.37E-02
13793,2.14E-02,2.36E-02
13794,2.36E-02,2.39E-02
13795,2.28E-02,2.38E-02
13796,2.38E-02,2.40E-02
13797,2.38E-02,2.39E-02
13798,2.36E-02,2.42E-02
13799,2.37E-02,2.41E-02
13800,2.30E-02,2.44E-02
13801,2.31E-02,2.43E-02
13802,2.24E-02,2.47E-02
13803,2.32E-02,2.45E-02
13804,2.28E-02,2.49E-02
13805,2.29E-02,2.48E-02
13806,2.18E-02,2.51E-02
13807,2.19E-02,2.50E-02
13808,2.30E-02,2.54E-02
13809,2.22E-02,2.52E-02
13810,2.36E-02,2.56E-02
13811,2.33E-02,2.55E-02
13812,2.43E-02,2.58E-02
13813,2.40E-02,2.57E-02
13814,2.31E-02,2.60E-02
13815,2.41E-02,2.59E-02
13816,1.94E-02,2.62E-02
13817,2.10E-02,2.61E-02
13818,1.86E-02,2.63E-02
13819,1.85E-02,2.62E-02
13820,2.48E-02,2.65E-02
13821,1.90E-02,2.64E-02
13822,2.17E-02,2.36E-02
13823,2.00E-02,2.17E-02
13824,2.49E-02,2.17E-02
13825,2.09E-02,2.25E-02
13826,2.09E-02,2.25E-02
13827,2.09E-02,2.26E-02
13828,2.54E-02,2.66E-02
13829,2.31E-02,2.68E-02
13830,2.39E-02,2.68E-02
13831,2.20E-02,2.39E-02
13832,2.17E-02,2.38E-02
13833,2.83E-02,2.64E-02
13834,2.87E-02,2.67E-02
13835,2.82E-02,2.65E-02
13836,2.22E-02,2.39E-02
13837,2.01E-02,2.17E-02
13838,1.51E-02,2.16E-02
13839,2.02E-02,2.25E-02
13840,2.01E-02,2.25E-02
13841,1.79E-02,2.25E-02
13842,1.85E-02,2.68E-02
13843,1.99E-02,2.68E-02
13844,1.96E-02,2.67E-02
13845,1.86E-02,2.68E-02
13846,2.15E-02,2.66E-02
13847,2.12E-02,2.67E-02
13848,1.99E-02,2.65E-02
13849,2.04E-02,2.66E-02
13850,2.03E-02,2.63E-02
13851,2.09E-02,2.64E-02
13852,2.10E-02,2.61E-02
13853,2.06E-02,2.62E-02
13854,2.13E-02,2.59E-02
13855,2.11E-02,2.60E-02
13856,2.22E-02,2.56E-02
13857,2.16E-02,2.57E-02
13858,2.30E-02,2.53E-02
13859,2.27E-02,2.55E-02
13860,2.26E-02,2.51E-02
13861,2.28E-02,2.52E-02
13862,2.27E-02,2.49E-02
13863,2.26E-02,2.50E-02
13864,2.36E-02,2.46E-02
13865,2.34E-02,2.47E-02
13866,2.46E-02,2.44E-02
13867,2.40E-02,2.45E-02
13868,2.54E-02,2.42E-02
13869,2.51E-02,2.43E-02
13870,2.43E-02,2.41E-02
13871,2.49E-02,2.42E-02
13872,2.31E-02,2.40E-02
13873,2.34E-02,2.40E-02
13874,2.23E-02,2.39E-02
13875,2.23E-02,2.34E-02
13876,2.20E-02,2.35E-02
13877,2.30E-02,2.32E-02
13878,2.27E-02,2.33E-02
13879,2.38E-02,2.29E-02
13880,2.32E-02,2.31E-02
13881,2.43E-02,2.27E-02
13882,2.41E-02,2.28E-02
13883,2.40E-02,2.25E-02
13884,2.41E-02,2.26E-02
13885,2.36E-02,2.23E-02
13886,2.39E-02,2.24E-02
13887,2.32E-02,2.21E-02
13888,2.33E-02,2.22E-02
13889,2.33E-02,2.19E-02
13890,2.32E-02,2.20E-02
13891,2.37E-02,2.18E-02
13892,2.11E-02,2.19E-02
13893,2.08E-02,2.18E-02
13894,2.16E-02,2.21E-02
13895,2.13E-02,2.20E-02
13896,2.27E-02,2.22E-02
13897,2.15E-02,2.21E-02
13898,1.85E-02,2.24E-02
13899,2.42E-02,2.23E-02
13900,1.66E-02,2.24E-02
13901,2.12E-02,2.25E-02
13902,2.04E-02,2.25E-02
13903,2.15E-02,2.25E-02
13904,2.14E-02,2.25E-02
13905,2.11E-02,2.25E-02
13906,2.12E-02,2.25E-02
13907,2.08E-02,2.25E-02
13908,2.09E-02,2.25E-02
13909,2.08E-02,2.25E-02
13910,2.14E-02,2.26E-02
13911,2.12E-02,2.26E-02
13912,2.21E-02,2.27E-02
13913,2.17E-02,2.27E-02
13914,2.21E-02,2.28E-02
13915,2.24E-02,2.27E-02
13916,2.16E-02,2.29E-02
13917,2.20E-02,2.28E-02
13918,2.19E-02,2.30E-02
13919,2.17E-02,2.29E-02
13920,2.22E-02,2.31E-02
13921,2.19E-02,2.30E-02
13922,2.18E-02,2.32E-02
13923,2.22E-02,2.32E-02
13924,2.14E-02,2.33E-02
13925,2.17E-02,2.33E-02
13926,2.12E-02,2.35E-02
13927,2.10E-02,2.34E-02
13928,2.19E-02,2.36E-02
13929,2.16E-02,2.35E-02
13930,2.30E-02,2.38E-02
13931,2.26E-02,2.37E-02
13932,2.35E-02,2.39E-02
13933,2.33E-02,2.38E-02
13934,2.34E-02,2.41E-02
13935,2.35E-02,2.40E-02
13936,2.31E-02,2.43E-02
13937,2.31E-02,2.42E-02
13938,2.19E-02,2.45E-02
13939,2.28E-02,2.44E-02
13940,2.24E-02,2.47E-02
13941,2.25E-02,2.46E-02
13942,2.26E-02,2.50E-02
13943,2.23E-02,2.48E-02
13944,2.29E-02,2.52E-02
13945,2.25E-02,2.51E-02
13946,2.35E-02,2.54E-02
13947,2.32E-02,2.53E-02
13948,2.35E-02,2.57E-02
13949,2.37E-02,2.56E-02
13950,2.25E-02,2.58E-02
13951,2.32E-02,2.58E-02
13952,2.07E-02,2.60E-02
13953,2.16E-02,2.59E-02
13954,2.08E-02,2.62E-02
13955,2.05E-02,2.61E-02
13956,2.21E-02,2.63E-02
13957,2.55E-02,2.68E-02
13958,2.21E-02,2.39E-02
13959,2.18E-02,2.37E-02
13960,2.10E-02,2.25E-02
13961,2.09E-02,2.25E-02
13962,2.11E-02,2.25E-02
13963,2.45E-02,2.62E-02
13964,2.53E-02,2.63E-02
13965,2.58E-02,2.16E-02
13966,1.93E-02,2.16E-02
13967,2.49E-02,2.15E-02
13968,1.95E-02,2.25E-02
13969,2.00E-02,2.25E-02
13970,2.07E-02,2.25E-02
13971,2.06E-02,2.26E-02
13972,2.55E-02,2.65E-02
13973,2.53E-02,2.69E-02
13974,2.57E-02,2.67E-02
13975,2.47E-02,2.70E-02
13976,2.24E-02,2.70E-02
13977,2.35E-02,2.70E-02
13978,2.01E-02,2.70E-02
13979,2.10E-02,2.70E-02
13980,1.99E-02,2.69E-02
13981,1.98E-02,2.69E-02
13982,2.07E-02,2.68E-02
13983,2.04E-02,2.68E-02
13984,2.01E-02,2.66E-02
13985,2.06E-02,2.67E-02
13986,2.06E-02,2.65E-02
13987,2.04E-02,2.66E-02
13988,2.12E-02,2.62E-02
13989,2.09E-02,2.64E-02
13990,2.15E-02,2.60E-02
13991,2.13E-02,2.61E-02
13992,2.23E-02,2.57E-02
13993,2.18E-02,2.59E-02
13994,2.28E-02,2.55E-02
13995,2.25E-02,2.56E-02
13996,2.26E-02,2.52E-02
13997,2.27E-02,2.54E-02
13998,2.29E-02,2.50E-02
13999,2.27E-02,2.51E-02
14000,2.36E-02,2.47E-02
14001,2.33E-02,2.49E-02
14002,2.43E-02,2.45E-02
14003,2.38E-02,2.46E-02
14004,2.47E-02,2.43E-02
14005,2.46E-02,2.44E-02
14006,2.42E-02,2.42E-02
14007,2.46E-02,2.42E-02
14008,2.32E-02,2.41E-02
14009,2.34E-02,2.41E-02
14010,2.26E-02,2.40E-02
14011,2.22E-02,2.35E-02
14012,2.18E-02,2.37E-02
14013,2.20E-02,2.36E-02
14014,2.29E-02,2.32E-02
14015,2.28E-02,2.33E-02
14016,2.38E-02,2.30E-02
14017,2.32E-02,2.31E-02
14018,2.42E-02,2.27E-02
14019,2.41E-02,2.28E-02
14020,2.39E-02,2.25E-02
14021,2.43E-02,2.26E-02
14022,2.38E-02,2.23E-02
14023,2.41E-02,2.24E-02
14024,2.32E-02,2.21E-02
14025,2.35E-02,2.22E-02
14026,2.30E-02,2.19E-02
14027,2.31E-02,2.20E-02
14028,2.36E-02,2.18E-02
14029,2.09E-02,2.15E-02
14030,1.97E-02,2.16E-02
14031,2.04E-02,2.15E-02
14032,2.13E-02,2.18E-02
14033,2.07E-02,2.17E-02
14034,2.16E-02,2.20E-02
14035,2.16E-02,2.19E-02
14036,2.18E-02,2.22E-02
14037,2.14E-02,2.21E-02
14038,2.02E-02,2.23E-02
14039,2.11E-02,2.23E-02
14040,1.91E-02,2.24E-02
14041,2.12E-02,2.25E-02
14042,2.08E-02,2.25E-02
14043,2.13E-02,2.25E-02
14044,2.13E-02,2.25E-02
14045,2.10E-02,2.25E-02
14046,2.12E-02,2.25E-02
14047,2.09E-02,2.25E-02
14048,2.10E-02,2.25E-02
14049,2.09E-02,2.25E-02
14050,2.16E-02,2.26E-02
14051,2.15E-02,2.26E-02
14052,2.22E-02,2.26E-02
14053,2.19E-02,2.26E-02
14054,2.22E-02,2.27E-02
14055,2.23E-02,2.27E-02
14056,2.16E-02,2.28E-02
14057,2.20E-02,2.28E-02
14058,2.18E-02,2.29E-02
14059,2.16E-02,2.29E-02
14060,2.21E-02,2.30E-02
14061,2.20E-02,2.30E-02
14062,2.17E-02,2.31E-02
14063,2.21E-02,2.31E-02
14064,2.17E-02,2.33E-02
14065,2.16E-02,2.32E-02
14066,2.16E-02,2.34E-02
14067,2.15E-02,2.33E-02
14068,2.20E-02,2.35E-02
14069,2.17E-02,2.35E-02
14070,2.28E-02,2.37E-02
14071,2.24E-02,2.36E-02
14072,2.32E-02,2.38E-02
14073,2.30E-02,2.37E-02
14074,2.33E-02,2.40E-02
14075,2.32E-02,2.39E-02
14076,2.31E-02,2.42E-02
14077,2.34E-02,2.41E-02
14078,2.22E-02,2.44E-02
14079,2.26E-02,2.43E-02
14080,2.24E-02,2.46E-02
14081,2.22E-02,2.45E-02
14082,2.25E-02,2.48E-02
14083,2.24E-02,2.47E-02
14084,2.30E-02,2.51E-02
14085,2.28E-02,2.49E-02
14086,2.34E-02,2.53E-02
14087,2.29E-02,2.52E-02
14088,2.30E-02,2.55E-02
14089,2.34E-02,2.54E-02
14090,2.22E-02,2.57E-02
14091,2.27E-02,2.56E-02
14092,2.14E-02,2.58E-02
14093,2.18E-02,2.58E-02
14094,2.18E-02,2.60E-02
14095,2.13E-02,2.59E-02
14096,2.32E-02,2.61E-02
14097,2.45E-02,2.64E-02
14098,2.62E-02,2.70E-02
14099,2.19E-02,2.40E-02
14100,2.22E-02,2.40E-02
14101,2.21E-02,2.14E-02
14102,2.12E-02,2.25E-02
14103,2.17E-02,2.39E-02
14104,2.07E-02,2.26E-02
14105,2.10E-02,2.25E-02
14106,2.10E-02,2.25E-02
14107,2.38E-02,2.66E-02
14108,2.37E-02,2.62E-02
14109,2.26E-02,2.63E-02
14110,2.30E-02,2.64E-02
14111,2.47E-02,2.69E-02
14112,2.44E-02,2.68E-02
14113,2.43E-02,2.71E-02
14114,2.18E-02,2.38E-02
14115,2.29E-02,2.73E-02
14116,2.38E-02,2.72E-02
14117,2.51E-02,2.72E-02
14118,2.23E-02,2.72E-02
14119,2.29E-02,2.72E-02
14120,2.08E-02,2.71E-02
14121,2.15E-02,2.72E-02
14122,2.05E-02,2.71E-02
14123,2.05E-02,2.71E-02
14124,2.07E-02,2.70E-02
14125,2.04E-02,2.70E-02
14126,2.07E-02,2.68E-02
14127,2.05E-02,2.69E-02
14128,2.08E-02,2.66E-02
14129,2.05E-02,2.67E-02
14130,2.13E-02,2.64E-02
14131,2.10E-02,2.65E-02
14132,2.15E-02,2.61E-02
14133,2.15E-02,2.63E-02
14134,2.22E-02,2.59E-02
14135,2.18E-02,2.60E-02
14136,2.27E-02,2.56E-02
14137,2.25E-02,2.57E-02
14138,2.25E-02,2.53E-02
14139,2.27E-02,2.55E-02
14140,2.29E-02,2.51E-02
14141,2.25E-02,2.52E-02
14142,2.34E-02,2.48E-02
14143,2.31E-02,2.50E-02
14144,2.41E-02,2.46E-02
14145,2.37E-02,2.47E-02
14146,2.44E-02,2.44E-02
14147,2.44E-02,2.45E-02
14148,2.39E-02,2.43E-02
14149,2.44E-02,2.43E-02
14150,2.32E-02,2.42E-02
14151,2.35E-02,2.42E-02
14152,2.28E-02,2.41E-02
14153,2.22E-02,2.35E-02
14154,2.17E-02,2.37E-02
14155,2.17E-02,2.36E-02
14156,2.28E-02,2.33E-02
14157,2.27E-02,2.34E-02
14158,2.37E-02,2.30E-02
14159,2.31E-02,2.31E-02
14160,2.42E-02,2.27E-02
14161,2.40E-02,2.29E-02
14162,2.40E-02,2.25E-02
14163,2.41E-02,2.26E-02
14164,2.37E-02,2.23E-02
14165,2.40E-02,2.24E-02
14166,2.32E-02,2.20E-02
14167,2.35E-02,2.21E-02
14168,2.29E-02,2.18E-02
14169,2.29E-02,2.19E-02
14170,2.36E-02,2.16E-02
14171,2.32E-02,2.17E-02
14172,2.00E-02,2.13E-02
14173,2.16E-02,2.13E-02
14174,2.32E-02,2.13E-02
14175,2.35E-02,2.15E-02
14176,2.07E-02,2.16E-02
14177,2.00E-02,2.14E-02
14178,2.12E-02,2.18E-02
14179,2.09E-02,2.17E-02
14180,2.16E-02,2.20E-02
14181,2.15E-02,2.19E-02
14182,2.12E-02,2.22E-02
14183,2.14E-02,2.21E-02
14184,2.08E-02,2.23E-02
14185,2.11E-02,2.22E-02
14186,2.02E-02,2.25E-02
14187,2.02E-02,2.24E-02
14188,2.10E-02,2.26E-02
14189,2.05E-02,2.25E-02
14190,2.20E-02,2.26E-02
14191,2.06E-02,2.26E-02
14192,2.05E-02,2.26E-02
14193,2.13E-02,2.25E-02
14194,2.11E-02,2.25E-02
14195,2.14E-02,2.25E-02
14196,2.13E-02,2.25E-02
14197,2.09E-02,2.25E-02
14198,2.13E-02,2.25E-02
14199,2.08E-02,2.25E-02
14200,2.10E-02,2.25E-02
14201,2.09E-02,2.25E-02
14202,2.16E-02,2.25E-02
14203,2.15E-02,2.25E-02
14204,2.21E-02,2.26E-02
14205,2.20E-02,2.26E-02
14206,2.24E-02,2.27E-02
14207,2.25E-02,2.26E-02
14208,2.18E-02,2.27E-02
14209,2.20E-02,2.27E-02
14210,2.19E-02,2.28E-02
14211,2.18E-02,2.28E-02
14212,2.20E-02,2.29E-02
14213,2.19E-02,2.29E-02
14214,2.17E-02,2.31E-02
14215,2.22E-02,2.30E-02
14216,2.17E-02,2.32E-02
14217,2.17E-02,2.31E-02
14218,2.17E-02,2.33E-02
14219,2.16E-02,2.32E-02
14220,2.20E-02,2.34E-02
14221,2.18E-02,2.34E-02
14222,2.25E-02,2.36E-02
14223,2.22E-02,2.35E-02
14224,2.28E-02,2.37E-02
14225,2.26E-02,2.36E-02
14226,2.31E-02,2.39E-02
14227,2.30E-02,2.38E-02
14228,2.30E-02,2.41E-02
14229,2.32E-02,2.40E-02
14230,2.23E-02,2.42E-02
14231,2.25E-02,2.42E-02
14232,2.21E-02,2.45E-02
14233,2.22E-02,2.44E-02
14234,2.25E-02,2.47E-02
14235,2.23E-02,2.46E-02
14236,2.29E-02,2.49E-02
14237,2.28E-02,2.48E-02
14238,2.30E-02,2.51E-02
14239,2.30E-02,2.50E-02
14240,2.29E-02,2.53E-02
14241,2.31E-02,2.52E-02
14242,2.23E-02,2.55E-02
14243,2.24E-02,2.54E-02
14244,2.19E-02,2.57E-02
14245,2.20E-02,2.56E-02
14246,2.26E-02,2.59E-02
14247,2.22E-02,2.58E-02
14248,2.36E-02,2.61E-02
14249,2.32E-02,2.60E-02
14250,2.39E-02,2.61E-02
14251,1.90E-02,2.74E-02
14252,1.91E-02,2.72E-02
14253,2.19E-02,2.41E-02
14254,2.23E-02,2.42E-02
14255,2.21E-02,2.27E-02
14256,2.06E-02,2.27E-02
14257,2.10E-02,2.25E-02
14258,2.09E-02,2.25E-02
14259,2.14E-02,2.25E-02
14260,2.27E-02,2.74E-02
14261,2.18E-02,2.40E-02
14262,2.18E-02,2.75E-02
14263,1.80E-02,2.64E-02
14264,2.22E-02,2.12E-02
14265,2.31E-02,2.67E-02
14266,2.22E-02,2.65E-02
14267,2.30E-02,2.70E-02
14268,2.31E-02,2.68E-02
14269,2.18E-02,2.71E-02
14270,2.33E-02,2.74E-02
14271,2.34E-02,2.74E-02
14272,2.25E-02,2.73E-02
14273,2.29E-02,2.73E-02
14274,2.15E-02,2.73E-02
14275,2.19E-02,2.73E-02
14276,2.10E-02,2.72E-02
14277,2.10E-02,2.73E-02
14278,2.06E-02,2.71E-02
14279,2.07E-02,2.72E-02
14280,2.04E-02,2.70E-02
14281,2.05E-02,2.71E-02
14282,2.08E-02,2.68E-02
14283,2.06E-02,2.69E-02
14284,2.14E-02,2.65E-02
14285,2.11E-02,2.67E-02
14286,2.20E-02,2.63E-02
14287,2.17E-02,2.64E-02
14288,2.23E-02,2.60E-02
14289,2.21E-02,2.61E-02
14290,2.25E-02,2.57E-02
14291,2.27E-02,2.59E-02
14292,2.23E-02,2.55E-02
14293,2.24E-02,2.56E-02
14294,2.28E-02,2.52E-02
14295,2.24E-02,2.53E-02
14296,2.33E-02,2.50E-02
14297,2.30E-02,2.51E-02
14298,2.40E-02,2.47E-02
14299,2.36E-02,2.48E-02
14300,2.43E-02,2.45E-02
14301,2.45E-02,2.46E-02
14302,2.40E-02,2.44E-02
14303,2.42E-02,2.44E-02
14304,2.33E-02,2.43E-02
14305,2.34E-02,2.43E-02
14306,2.26E-02,2.42E-02
14307,2.17E-02,2.38E-02
14308,2.16E-02,2.39E-02
14309,2.21E-02,2.36E-02
14310,2.17E-02,2.37E-02
14311,2.29E-02,2.33E-02
14312,2.25E-02,2.35E-02
14313,2.36E-02,2.30E-02
14314,2.31E-02,2.32E-02
14315,2.42E-02,2.27E-02
14316,2.39E-02,2.29E-02
14317,2.40E-02,2.25E-02
14318,2.39E-02,2.26E-02
14319,2.36E-02,2.22E-02
14320,2.39E-02,2.23E-02
14321,2.32E-02,2.20E-02
14322,2.34E-02,2.21E-02
14323,2.29E-02,2.18E-02
14324,2.29E-02,2.19E-02
14325,2.31E-02,2.15E-02
14326,2.31E-02,2.16E-02
14327,2.30E-02,2.12E-02
14328,2.31E-02,2.14E-02
14329,2.21E-02,2.10E-02
14330,2.24E-02,2.09E-02
14331,2.26E-02,2.11E-02
14332,2.10E-02,2.12E-02
14333,2.14E-02,2.11E-02
14334,2.11E-02,2.15E-02
14335,2.08E-02,2.14E-02
14336,2.15E-02,2.17E-02
14337,2.13E-02,2.16E-02
14338,2.17E-02,2.19E-02
14339,2.17E-02,2.18E-02
14340,2.13E-02,2.21E-02
14341,2.15E-02,2.20E-02
14342,2.11E-02,2.23E-02
14343,2.11E-02,2.22E-02
14344,2.08E-02,2.25E-02
14345,2.09E-02,2.24E-02
14346,2.13E-02,2.26E-02
14347,2.09E-02,2.25E-02
14348,2.04E-02,2.27E-02
14349,1.97E-02,2.27E-02
14350,2.11E-02,2.27E-02
14351,2.11E-02,2.26E-02
14352,2.08E-02,2.26E-02
14353,2.13E-02,2.25E-02
14354,2.12E-02,2.26E-02
14355,2.15E-02,2.25E-02
14356,2.14E-02,2.25E-02
14357,2.11E-02,2.25E-02
14358,2.13E-02,2.25E-02
14359,2.10E-02,2.25E-02
14360,2.11E-02,2.25E-02
14361,2.09E-02,2.25E-02
14362,2.16E-02,2.25E-02
14363,2.14E-02,2.25E-02
14364,2.21E-02,2.25E-02
14365,2.22E-02,2.25E-02
14366,2.25E-02,2.26E-02
14367,2.26E-02,2.25E-02
14368,2.18E-02,2.27E-02
14369,2.21E-02,2.26E-02
14370,2.20E-02,2.28E-02
14371,2.18E-02,2.27E-02
14372,2.21E-02,2.29E-02
14373,2.19E-02,2.28E-02
14374,2.19E-02,2.30E-02
14375,2.21E-02,2.29E-02
14376,2.16E-02,2.31E-02
14377,2.18E-02,2.30E-02
14378,2.18E-02,2.32E-02
14379,2.17E-02,2.32E-02
14380,2.19E-02,2.33E-02
14381,2.20E-02,2.33E-02
14382,2.22E-02,2.35E-02
14383,2.22E-02,2.34E-02
14384,2.27E-02,2.36E-02
14385,2.24E-02,2.35E-02
14386,2.31E-02,2.38E-02
14387,2.29E-02,2.37E-02
14388,2.28E-02,2.39E-02
14389,2.31E-02,2.38E-02
14390,2.24E-02,2.41E-02
14391,2.26E-02,2.40E-02
14392,2.21E-02,2.43E-02
14393,2.22E-02,2.42E-02
14394,2.25E-02,2.45E-02
14395,2.22E-02,2.44E-02
14396,2.29E-02,2.47E-02
14397,2.29E-02,2.46E-02
14398,2.30E-02,2.49E-02
14399,2.31E-02,2.48E-02
14400,2.30E-02,2.52E-02
14401,2.31E-02,2.50E-02
14402,2.25E-02,2.53E-02
14403,2.26E-02,2.53E-02
14404,2.24E-02,2.55E-02
14405,2.24E-02,2.54E-02
14406,2.29E-02,2.57E-02
14407,2.26E-02,2.56E-02
14408,2.34E-02,2.59E-02
14409,2.33E-02,2.58E-02
14410,2.35E-02,2.61E-02
14411,2.35E-02,2.60E-02
14412,2.15E-02,2.64E-02
14413,2.01E-02,2.74E-02
14414,2.02E-02,2.73E-02
14415,2.21E-02,2.42E-02
14416,2.22E-02,2.43E-02
14417,2.19E-02,2.41E-02
14418,1.79E-02,2.27E-02
14419,1.89E-02,2.27E-02
14420,2.09E-02,2.24E-02
14421,2.10E-02,2.24E-02
14422,2.14E-02,2.24E-02
14423,2.10E-02,2.76E-02
14424,2.31E-02,2.76E-02
14425,2.24E-02,2.77E-02
14426,2.09E-02,2.28E-02
14427,2.02E-02,2.28E-02
14428,2.05E-02,2.28E-02
14429,2.24E-02,2.08E-02
14430,2.23E-02,2.07E-02
14431,2.22E-02,2.08E-02
14432,2.18E-02,2.09E-02
14433,2.26E-02,2.67E-02
14434,2.28E-02,2.66E-02
14435,2.25E-02,2.70E-02
14436,2.28E-02,2.69E-02
14437,2.17E-02,2.71E-02
14438,2.31E-02,2.75E-02
14439,2.33E-02,2.76E-02
14440,2.25E-02,2.75E-02
14441,2.29E-02,2.75E-02
14442,2.17E-02,2.75E-02
14443,2.21E-02,2.75E-02
14444,2.11E-02,2.74E-02
14445,2.14E-02,2.75E-02
14446,2.06E-02,2.73E-02
14447,2.08E-02,2.74E-02
14448,2.07E-02,2.71E-02
14449,2.07E-02,2.72E-02
14450,2.09E-02,2.69E-02
14451,2.07E-02,2.70E-02
14452,2.15E-02,2.67E-02
14453,2.11E-02,2.68E-02
14454,2.20E-02,2.64E-02
14455,2.18E-02,2.65E-02
14456,2.25E-02,2.61E-02
14457,2.21E-02,2.62E-02
14458,2.26E-02,2.58E-02
14459,2.28E-02,2.60E-02
14460,2.24E-02,2.56E-02
14461,2.23E-02,2.57E-02
14462,2.27E-02,2.53E-02
14463,2.24E-02,2.55E-02
14464,2.33E-02,2.51E-02
14465,2.29E-02,2.52E-02
14466,2.38E-02,2.48E-02
14467,2.35E-02,2.50E-02
14468,2.43E-02,2.46E-02
14469,2.42E-02,2.47E-02
14470,2.39E-02,2.45E-02
14471,2.40E-02,2.45E-02
14472,2.34E-02,2.44E-02
14473,2.34E-02,2.44E-02
14474,2.25E-02,2.43E-02
14475,2.17E-02,2.39E-02
14476,2.17E-02,2.41E-02
14477,2.20E-02,2.37E-02
14478,2.17E-02,2.38E-02
14479,2.28E-02,2.34E-02
14480,2.24E-02,2.35E-02
14481,2.34E-02,2.31E-02
14482,2.32E-02,2.32E-02
14483,2.42E-02,2.27E-02
14484,2.39E-02,2.29E-02
14485,2.40E-02,2.25E-02
14486,2.40E-02,2.26E-02
14487,2.34E-02,2.22E-02
14488,2.39E-02,2.23E-02
14489,2.32E-02,2.20E-02
14490,2.33E-02,2.21E-02
14491,2.27E-02,2.17E-02
14492,2.29E-02,2.19E-02
14493,2.30E-02,2.14E-02
14494,2.29E-02,2.16E-02
14495,2.28E-02,2.11E-02
14496,2.28E-02,2.13E-02
14497,2.25E-02,2.10E-02
14498,2.13E-02,2.11E-02
14499,2.15E-02,2.10E-02
14500,2.14E-02,2.14E-02
14501,2.12E-02,2.13E-02
14502,2.18E-02,2.16E-02
14503,2.15E-02,2.15E-02
14504,2.17E-02,2.19E-02
14505,2.17E-02,2.18E-02
14506,2.16E-02,2.21E-02
14507,2.17E-02,2.20E-02
14508,2.12E-02,2.23E-02
14509,2.12E-02,2.22E-02
14510,2.10E-02,2.25E-02
14511,2.11E-02,2.24E-02
14512,2.13E-02,2.26E-02
14513,2.13E-02,2.25E-02
14514,2.12E-02,2.27E-02
14515,1.81E-02,2.28E-02
14516,2.15E-02,2.26E-02
14517,2.12E-02,2.27E-02
14518,2.14E-02,2.25E-02
14519,2.15E-02,2.26E-02
14520,2.17E-02,2.25E-02
14521,2.17E-02,2.25E-02
14522,2.13E-02,2.25E-02
14523,2.14E-02,2.25E-02
14524,2.09E-02,2.24E-02
14525,2.11E-02,2.24E-02
14526,2.10E-02,2.24E-02
14527,2.17E-02,2.24E-02
14528,2.15E-02,2.24E-02
14529,2.23E-02,2.25E-02
14530,2.21E-02,2.24E-02
14531,2.25E-02,2.25E-02
14532,2.27E-02,2.25E-02
14533,2.18E-02,2.26E-02
14534,2.21E-02,2.25E-02
14535,2.20E-02,2.27E-02
14536,2.18E-02,2.26E-02
14537,2.22E-02,2.28E-02
14538,2.21E-02,2.27E-02
14539,2.20E-02,2.29E-02
14540,2.22E-02,2.28E-02
14541,2.16E-02,2.30E-02
14542,2.18E-02,2.29E-02
14543,2.16E-02,2.31E-02
14544,2.17E-02,2.31E-02
14545,2.20E-02,2.32E-02
14546,2.19E-02,2.32E-02
14547,2.23E-02,2.34E-02
14548,2.21E-02,2.33E-02
14549,2.27E-02,2.35E-02
14550,2.25E-02,2.34E-02
14551,2.30E-02,2.36E-02
14552,2.30E-02,2.36E-02
14553,2.27E-02,2.38E-02
14554,2.30E-02,2.37E-02
14555,2.22E-02,2.40E-02
14556,2.26E-02,2.39E-02
14557,2.21E-02,2.42E-02
14558,2.21E-02,2.41E-02
14559,2.25E-02,2.44E-02
14560,2.23E-02,2.43E-02
14561,2.29E-02,2.46E-02
14562,2.28E-02,2.45E-02
14563,2.30E-02,2.48E-02
14564,2.31E-02,2.47E-02
14565,2.29E-02,2.50E-02
14566,2.31E-02,2.49E-02
14567,2.24E-02,2.52E-02
14568,2.26E-02,2.51E-02
14569,2.23E-02,2.54E-02
14570,2.23E-02,2.53E-02
14571,2.29E-02,2.55E-02
14572,2.26E-02,2.55E-02
14573,2.33E-02,2.57E-02
14574,2.31E-02,2.56E-02
14575,2.35E-02,2.59E-02
14576,2.37E-02,2.58E-02
14577,2.88E-02,2.61E-02
14578,2.39E-02,2.60E-02
14579,2.21E-02,2.43E-02
14580,2.22E-02,2.44E-02
14581,2.18E-02,2.43E-02
14582,2.16E-02,2.08E-02
14583,1.91E-02,2.28E-02
14584,2.04E-02,2.27E-02
14585,2.18E-02,2.77E-02
14586,2.26E-02,2.78E-02
14587,2.22E-02,2.78E-02
14588,2.11E-02,2.73E-02
14589,2.09E-02,2.75E-02
14590,2.11E-02,2.24E-02
14591,2.10E-02,2.24E-02
14592,2.86E-02,2.65E-02
14593,3.07E-02,2.63E-02
14594,1.95E-02,2.29E-02
14595,2.04E-02,2.29E-02
14596,2.25E-02,2.07E-02
14597,2.23E-02,2.05E-02
14598,2.09E-02,2.29E-02
14599,2.11E-02,2.28E-02
14600,2.13E-02,2.24E-02
14601,2.28E-02,2.68E-02
14602,2.35E-02,2.66E-02
14603,2.25E-02,2.71E-02
14604,2.28E-02,2.69E-02
14605,2.20E-02,2.72E-02
14606,2.30E-02,2.77E-02
14607,2.29E-02,2.77E-02
14608,2.26E-02,2.77E-02
14609,2.27E-02,2.77E-02
14610,2.19E-02,2.77E-02
14611,2.22E-02,2.77E-02
14612,2.13E-02,2.76E-02
14613,2.16E-02,2.76E-02
14614,2.07E-02,2.75E-02
14615,2.08E-02,2.75E-02
14616,2.08E-02,2.73E-02
14617,2.08E-02,2.74E-02
14618,2.09E-02,2.70E-02
14619,2.08E-02,2.72E-02
14620,2.15E-02,2.68E-02
14621,2.11E-02,2.69E-02
14622,2.21E-02,2.65E-02
14623,2.19E-02,2.66E-02
14624,2.27E-02,2.62E-02
14625,2.23E-02,2.63E-02
14626,2.28E-02,2.60E-02
14627,2.27E-02,2.61E-02
14628,2.23E-02,2.57E-02
14629,2.26E-02,2.58E-02
14630,2.27E-02,2.55E-02
14631,2.24E-02,2.56E-02
14632,2.31E-02,2.52E-02
14633,2.28E-02,2.54E-02
14634,2.39E-02,2.49E-02
14635,2.37E-02,2.51E-02
14636,2.41E-02,2.47E-02
14637,2.42E-02,2.48E-02
14638,2.36E-02,2.46E-02
14639,2.40E-02,2.46E-02
14640,2.32E-02,2.45E-02
14641,2.34E-02,2.45E-02
14642,2.26E-02,2.44E-02
14643,2.16E-02,2.41E-02
14644,2.17E-02,2.42E-02
14645,2.20E-02,2.38E-02
14646,2.16E-02,2.39E-02
14647,2.27E-02,2.34E-02
14648,2.23E-02,2.36E-02
14649,2.33E-02,2.31E-02
14650,2.33E-02,2.33E-02
14651,2.40E-02,2.28E-02
14652,2.38E-02,2.29E-02
14653,2.38E-02,2.25E-02
14654,2.38E-02,2.26E-02
14655,2.36E-02,2.22E-02
14656,2.37E-02,2.23E-02
14657,2.31E-02,2.20E-02
14658,2.32E-02,2.21E-02
14659,2.24E-02,2.17E-02
14660,2.27E-02,2.18E-02
14661,2.27E-02,2.14E-02
14662,2.26E-02,2.15E-02
14663,2.29E-02,2.11E-02
14664,2.30E-02,2.12E-02
14665,2.27E-02,2.09E-02
14666,2.16E-02,2.10E-02
14667,2.15E-02,2.09E-02
14668,2.16E-02,2.13E-02
14669,2.17E-02,2.12E-02
14670,2.20E-02,2.16E-02
14671,2.16E-02,2.14E-02
14672,2.20E-02,2.18E-02
14673,2.19E-02,2.17E-02
14674,2.18E-02,2.21E-02
14675,2.19E-02,2.19E-02
14676,2.17E-02,2.23E-02
14677,2.16E-02,2.22E-02
14678,2.13E-02,2.25E-02
14679,2.15E-02,2.24E-02
14680,2.15E-02,2.26E-02
14681,2.13E-02,2.26E-02
14682,2.11E-02,2.27E-02
14683,1.93E-02,2.28E-02
14684,2.14E-02,2.26E-02
14685,2.14E-02,2.27E-02
14686,2.17E-02,2.25E-02
14687,2.15E-02,2.26E-02
14688,2.19E-02,2.25E-02
14689,2.20E-02,2.25E-02
14690,2.14E-02,2.24E-02
14691,2.15E-02,2.24E-02
14692,2.08E-02,2.24E-02
14693,2.10E-02,2.24E-02
14694,2.20E-02,2.79E-02
14695,2.12E-02,2.77E-02
14696,2.16E-02,2.78E-02
14697,2.08E-02,2.24E-02
14698,2.19E-02,2.24E-02
14699,2.17E-02,2.24E-02
14700,2.25E-02,2.24E-02
14701,2.21E-02,2.24E-02
14702,2.25E-02,2.24E-02
14703,2.25E-02,2.24E-02
14704,2.19E-02,2.25E-02
14705,2.22E-02,2.24E-02
14706,2.20E-02,2.26E-02
14707,2.18E-02,2.25E-02
14708,2.23E-02,2.27E-02
14709,2.20E-02,2.26E-02
14710,2.20E-02,2.28E-02
14711,2.23E-02,2.27E-02
14712,2.15E-02,2.29E-02
14713,2.19E-02,2.29E-02
14714,2.16E-02,2.30E-02
14715,2.16E-02,2.30E-02
14716,2.19E-02,2.31E-02
14717,2.16E-02,2.31E-02
14718,2.22E-02,2.32E-02
14719,2.19E-02,2.32E-02
14720,2.28E-02,2.34E-02
14721,2.25E-02,2.33E-02
14722,2.31E-02,2.35E-02
14723,2.31E-02,2.34E-02
14724,2.28E-02,2.37E-02
14725,2.31E-02,2.36E-02
14726,2.23E-02,2.39E-02
14727,2.25E-02,2.38E-02
14728,2.21E-02,2.41E-02
14729,2.21E-02,2.40E-02
14730,2.24E-02,2.42E-02
14731,2.24E-02,2.42E-02
14732,2.29E-02,2.44E-02
14733,2.27E-02,2.43E-02
14734,2.30E-02,2.46E-02
14735,2.31E-02,2.45E-02
14736,2.28E-02,2.48E-02
14737,2.30E-02,2.47E-02
14738,2.24E-02,2.50E-02
14739,2.26E-02,2.49E-02
14740,2.23E-02,2.52E-02
14741,2.23E-02,2.51E-02
14742,2.28E-02,2.54E-02
14743,2.25E-02,2.53E-02
14744,2.32E-02,2.56E-02
14745,2.29E-02,2.55E-02
14746,2.38E-02,2.57E-02
14747,2.36E-02,2.56E-02
14748,2.63E-02,2.60E-02
14749,2.47E-02,2.59E-02
14750,2.76E-02,2.61E-02
14751,2.22E-02,2.45E-02
14752,2.20E-02,2.45E-02
14753,2.09E-02,2.29E-02
14754,2.23E-02,2.04E-02
14755,2.05E-02,2.29E-02
14756,2.01E-02,2.29E-02
14757,2.05E-02,2.28E-02
14758,2.10E-02,2.27E-02
14759,2.13E-02,2.23E-02
14760,2.09E-02,2.23E-02
14761,2.15E-02,2.23E-02
14762,2.19E-02,2.80E-02
14763,2.51E-02,2.58E-02
14764,2.59E-02,2.59E-02
14765,2.66E-02,2.62E-02
14766,2.55E-02,2.66E-02
14767,2.81E-02,2.64E-02
14768,2.35E-02,2.69E-02
14769,2.42E-02,2.67E-02
14770,2.24E-02,2.71E-02
14771,2.27E-02,2.70E-02
14772,2.16E-02,2.74E-02
14773,2.19E-02,2.73E-02
14774,2.12E-02,2.77E-02
14775,2.11E-02,2.76E-02
14776,2.21E-02,2.81E-02
14777,2.26E-02,2.80E-02
14778,2.23E-02,2.81E-02
14779,2.30E-02,2.79E-02
14780,2.28E-02,2.79E-02
14781,2.26E-02,2.79E-02
14782,2.28E-02,2.79E-02
14783,2.19E-02,2.78E-02
14784,2.23E-02,2.79E-02
14785,2.14E-02,2.78E-02
14786,2.17E-02,2.78E-02
14787,2.08E-02,2.76E-02
14788,2.09E-02,2.77E-02
14789,2.07E-02,2.74E-02
14790,2.10E-02,2.75E-02
14791,2.10E-02,2.72E-02
14792,2.11E-02,2.73E-02
14793,2.16E-02,2.69E-02
14794,2.12E-02,2.70E-02
14795,2.20E-02,2.66E-02
14796,2.20E-02,2.67E-02
14797,2.27E-02,2.63E-02
14798,2.24E-02,2.64E-02
14799,2.26E-02,2.61E-02
14800,2.28E-02,2.62E-02
14801,2.23E-02,2.59E-02
14802,2.24E-02,2.60E-02
14803,2.26E-02,2.56E-02
14804,2.23E-02,2.58E-02
14805,2.29E-02,2.54E-02
14806,2.28E-02,2.55E-02
14807,2.37E-02,2.51E-02
14808,2.36E-02,2.52E-02
14809,2.39E-02,2.48E-02
14810,2.39E-02,2.49E-02
14811,2.35E-02,2.47E-02
14812,2.39E-02,2.47E-02
14813,2.30E-02,2.46E-02
14814,2.34E-02,2.46E-02
14815,2.27E-02,2.46E-02
14816,2.18E-02,2.44E-02
14817,2.16E-02,2.42E-02
14818,2.15E-02,2.43E-02
14819,2.19E-02,2.39E-02
14820,2.17E-02,2.40E-02
14821,2.27E-02,2.35E-02
14822,2.23E-02,2.37E-02
14823,2.32E-02,2.31E-02
14824,2.32E-02,2.33E-02
14825,2.39E-02,2.28E-02
14826,2.35E-02,2.29E-02
14827,2.38E-02,2.25E-02
14828,2.39E-02,2.26E-02
14829,2.34E-02,2.22E-02
14830,2.36E-02,2.23E-02
14831,2.29E-02,2.20E-02
14832,2.32E-02,2.21E-02
14833,2.26E-02,2.17E-02
14834,2.27E-02,2.18E-02
14835,2.26E-02,2.13E-02
14836,2.25E-02,2.15E-02
14837,2.29E-02,2.10E-02
14838,2.28E-02,2.12E-02
14839,2.26E-02,2.06E-02
14840,2.27E-02,2.08E-02
14841,2.08E-02,2.30E-02
14842,2.19E-02,2.03E-02
14843,2.19E-02,2.02E-02
14844,2.24E-02,2.02E-02
14845,2.25E-02,2.04E-02
14846,2.17E-02,2.06E-02
14847,2.19E-02,2.05E-02
14848,2.17E-02,2.09E-02
14849,2.16E-02,2.08E-02
14850,2.17E-02,2.12E-02
14851,2.17E-02,2.11E-02
14852,2.20E-02,2.15E-02
14853,2.18E-02,2.14E-02
14854,2.20E-02,2.18E-02
14855,2.21E-02,2.16E-02
14856,2.19E-02,2.20E-02
14857,2.19E-02,2.19E-02
14858,2.20E-02,2.23E-02
14859,2.18E-02,2.21E-02
14860,2.15E-02,2.25E-02
14861,2.18E-02,2.24E-02
14862,2.15E-02,2.26E-02
14863,2.15E-02,2.26E-02
14864,2.13E-02,2.28E-02
14865,2.12E-02,2.27E-02
14866,2.13E-02,2.29E-02
14867,2.12E-02,2.29E-02
14868,2.03E-02,2.29E-02
14869,2.14E-02,2.26E-02
14870,2.13E-02,2.27E-02
14871,2.17E-02,2.25E-02
14872,2.17E-02,2.26E-02
14873,2.19E-02,2.24E-02
14874,2.19E-02,2.25E-02
14875,2.16E-02,2.24E-02
14876,2.16E-02,2.24E-02
14877,2.11E-02,2.24E-02
14878,2.11E-02,2.24E-02
14879,2.10E-02,2.23E-02
14880,2.20E-02,2.23E-02
14881,2.20E-02,2.23E-02
14882,2.25E-02,2.23E-02
14883,2.22E-02,2.23E-02
14884,2.25E-02,2.23E-02
14885,2.25E-02,2.23E-02
14886,2.20E-02,2.24E-02
14887,2.22E-02,2.24E-02
14888,2.21E-02,2.25E-02
14889,2.18E-02,2.24E-02
14890,2.23E-02,2.26E-02
14891,2.20E-02,2.25E-02
14892,2.22E-02,2.27E-02
14893,2.21E-02,2.26E-02
14894,2.16E-02,2.28E-02
14895,2.20E-02,2.28E-02
14896,2.17E-02,2.29E-02
14897,2.15E-02,2.29E-02
14898,2.19E-02,2.30E-02
14899,2.16E-02,2.30E-02
14900,2.22E-02,2.31E-02
14901,2.19E-02,2.31E-02
14902,2.27E-02,2.32E-02
14903,2.25E-02,2.32E-02
14904,2.30E-02,2.34E-02
14905,2.29E-02,2.33E-02
14906,2.29E-02,2.35E-02
14907,2.30E-02,2.35E-02
14908,2.23E-02,2.37E-02
14909,2.24E-02,2.36E-02
14910,2.20E-02,2.39E-02
14911,2.21E-02,2.38E-02
14912,2.24E-02,2.41E-02
14913,2.22E-02,2.40E-02
14914,2.29E-02,2.43E-02
14915,2.28E-02,2.42E-02
14916,2.30E-02,2.44E-02
14917,2.31E-02,2.44E-02
14918,2.29E-02,2.46E-02
14919,2.31E-02,2.45E-02
14920,2.24E-02,2.48E-02
14921,2.26E-02,2.47E-02
14922,2.22E-02,2.50E-02
14923,2.22E-02,2.49E-02
14924,2.26E-02,2.52E-02
14925,2.24E-02,2.51E-02
14926,2.32E-02,2.54E-02
14927,2.27E-02,2.53E-02
14928,2.39E-02,2.56E-02
14929,2.35E-02,2.55E-02
14930,2.45E-02,2.57E-02
14931,2.16E-02,2.79E-02
14932,2.21E-02,2.82E-02
14933,2.56E-02,2.60E-02
14934,2.13E-02,2.30E-02
14935,2.21E-02,2.00E-02
14936,2.14E-02,2.23E-02
14937,2.12E-02,2.23E-02
14938,2.06E-02,2.29E-02
14939,2.11E-02,2.27E-02
14940,2.08E-02,2.28E-02
14941,2.18E-02,2.81E-02
14942,2.20E-02,2.83E-02
14943,2.06E-02,2.30E-02
14944,2.56E-02,2.63E-02
14945,2.39E-02,2.67E-02
14946,2.54E-02,2.65E-02
14947,2.35E-02,2.69E-02
14948,2.38E-02,2.68E-02
14949,2.24E-02,2.72E-02
14950,2.26E-02,2.71E-02
14951,2.17E-02,2.75E-02
14952,2.19E-02,2.74E-02
14953,2.15E-02,2.78E-02
14954,2.14E-02,2.76E-02
14955,2.18E-02,2.82E-02
14956,2.16E-02,2.80E-02
14957,2.18E-02,2.22E-02
14958,2.48E-02,2.62E-02
14959,2.17E-02,2.30E-02
14960,2.18E-02,2.30E-02
14961,2.25E-02,2.01E-02
14962,2.24E-02,1.99E-02
14963,2.18E-02,2.84E-02
14964,2.23E-02,2.86E-02
14965,2.26E-02,2.84E-02
14966,2.23E-02,2.85E-02
14967,2.29E-02,2.82E-02
14968,2.29E-02,2.83E-02
14969,2.30E-02,2.81E-02
14970,2.30E-02,2.82E-02
14971,2.26E-02,2.81E-02
14972,2.28E-02,2.81E-02
14973,2.21E-02,2.80E-02
14974,2.22E-02,2.80E-02
14975,2.14E-02,2.79E-02
14976,2.17E-02,2.80E-02
14977,2.09E-02,2.77E-02
14978,2.11E-02,2.78E-02
14979,2.08E-02,2.75E-02
14980,2.10E-02,2.76E-02
14981,2.11E-02,2.72E-02
14982,2.10E-02,2.74E-02
14983,2.17E-02,2.69E-02
14984,2.13E-02,2.71E-02
14985,2.21E-02,2.67E-02
14986,2.21E-02,2.68E-02
14987,2.27E-02,2.64E-02
14988,2.25E-02,2.65E-02
14989,2.26E-02,2.62E-02
14990,2.29E-02,2.63E-02
14991,2.22E-02,2.60E-02
14992,2.23E-02,2.61E-02
14993,2.24E-02,2.58E-02
14994,2.22E-02,2.59E-02
14995,2.30E-02,2.55E-02
14996,2.27E-02,2.57E-02
14997,2.38E-02,2.52E-02
14998,2.35E-02,2.54E-02
14999,2.41E-02,2.50E-02
15000,2.39E-02,2.51E-02
15001,2.34E-02,2.48E-02
15002,2.40E-02,2.49E-02
15003,2.30E-02,2.47E-02
15004,2.33E-02,2.48E-02
15005,2.23E-02,2.47E-02
15006,2.25E-02,2.47E-02
15007,2.17E-02,2.45E-02
15008,2.20E-02,2.46E-02
15009,2.15E-02,2.43E-02
15010,2.14E-02,2.44E-02
15011,2.19E-02,2.40E-02
15012,2.18E-02,2.41E-02
15013,2.27E-02,2.36E-02
15014,2.22E-02,2.38E-02
15015,2.32E-02,2.32E-02
15016,2.31E-02,2.34E-02
15017,2.36E-02,2.28E-02
15018,2.35E-02,2.30E-02
15019,2.37E-02,2.25E-02
15020,2.38E-02,2.26E-02
15021,2.32E-02,2.22E-02
15022,2.37E-02,2.24E-02
15023,2.28E-02,2.20E-02
15024,2.32E-02,2.21E-02
15025,2.24E-02,2.17E-02
15026,2.26E-02,2.18E-02
15027,2.26E-02,2.13E-02
15028,2.24E-02,2.15E-02
15029,2.31E-02,2.09E-02
15030,2.27E-02,2.11E-02
15031,2.28E-02,2.05E-02
15032,2.30E-02,2.07E-02
15033,2.27E-02,2.03E-02
15034,2.19E-02,1.99E-02
15035,2.18E-02,2.02E-02
15036,2.20E-02,2.00E-02
15037,2.16E-02,2.05E-02
15038,2.17E-02,2.03E-02
15039,2.20E-02,2.08E-02
15040,2.18E-02,2.07E-02
15041,2.19E-02,2.11E-02
15042,2.19E-02,2.10E-02
15043,2.20E-02,2.14E-02
15044,2.20E-02,2.13E-02
15045,2.20E-02,2.17E-02
15046,2.21E-02,2.16E-02
15047,2.21E-02,2.20E-02
15048,2.21E-02,2.19E-02
15049,2.19E-02,2.22E-02
15050,2.18E-02,2.21E-02
15051,2.18E-02,2.25E-02
15052,2.20E-02,2.23E-02
15053,2.17E-02,2.26E-02
15054,2.17E-02,2.26E-02
15055,2.15E-02,2.28E-02
15056,2.15E-02,2.27E-02
15057,2.16E-02,2.29E-02
15058,2.16E-02,2.31E-02
15059,2.10E-02,2.30E-02
15060,2.07E-02,2.29E-02
15061,2.16E-02,2.26E-02
15062,2.14E-02,2.27E-02
15063,2.21E-02,2.24E-02
15064,2.18E-02,2.25E-02
15065,2.20E-02,2.24E-02
15066,2.22E-02,2.24E-02
15067,2.16E-02,2.23E-02
15068,2.16E-02,2.23E-02
15069,2.12E-02,2.23E-02
15070,2.13E-02,2.23E-02
15071,2.10E-02,2.23E-02
15072,2.21E-02,2.22E-02
15073,2.20E-02,2.22E-02
15074,2.26E-02,2.22E-02
15075,2.24E-02,2.22E-02
15076,2.26E-02,2.22E-02
15077,2.27E-02,2.22E-02
15078,2.20E-02,2.23E-02
15079,2.22E-02,2.23E-02
15080,2.20E-02,2.24E-02
15081,2.19E-02,2.23E-02
15082,2.24E-02,2.25E-02
15083,2.22E-02,2.24E-02
15084,2.21E-02,2.26E-02
15085,2.24E-02,2.25E-02
15086,2.17E-02,2.27E-02
15087,2.20E-02,2.26E-02
15088,2.13E-02,2.28E-02
15089,2.13E-02,2.28E-02
15090,2.19E-02,2.29E-02
15091,2.16E-02,2.29E-02
15092,2.23E-02,2.30E-02
15093,2.19E-02,2.30E-02
15094,2.26E-02,2.31E-02
15095,2.25E-02,2.31E-02
15096,2.30E-02,2.32E-02
15097,2.29E-02,2.32E-02
15098,2.28E-02,2.34E-02
15099,2.30E-02,2.33E-02
15100,2.21E-02,2.36E-02
15101,2.25E-02,2.35E-02
15102,2.19E-02,2.38E-02
15103,2.21E-02,2.37E-02
15104,2.23E-02,2.40E-02
15105,2.20E-02,2.39E-02
15106,2.28E-02,2.41E-02
15107,2.27E-02,2.41E-02
15108,2.29E-02,2.43E-02
15109,2.30E-02,2.42E-02
15110,2.27E-02,2.45E-02
15111,2.28E-02,2.44E-02
15112,2.23E-02,2.47E-02
15113,2.25E-02,2.46E-02
15114,2.22E-02,2.49E-02
15115,2.21E-02,2.48E-02
15116,2.25E-02,2.50E-02
15117,2.23E-02,2.50E-02
15118,2.30E-02,2.52E-02
15119,2.27E-02,2.51E-02
15120,2.38E-02,2.54E-02
15121,2.35E-02,2.53E-02
15122,2.43E-02,2.56E-02
15123,2.42E-02,2.55E-02
15124,2.49E-02,2.59E-02
15125,2.48E-02,2.57E-02
15126,2.46E-02,2.60E-02
15127,2.20E-02,2.31E-02
15128,2.10E-02,2.30E-02
15129,2.09E-02,2.30E-02
15130,2.11E-02,2.28E-02
15131,2.13E-02,2.27E-02
15132,2.15E-02,2.22E-02
15133,2.15E-02,2.22E-02
15134,2.20E-02,1.97E-02
15135,2.22E-02,2.86E-02
15136,2.20E-02,2.22E-02
15137,2.41E-02,2.61E-02
15138,2.48E-02,2.65E-02
15139,2.44E-02,2.63E-02
15140,2.43E-02,2.68E-02
15141,2.44E-02,2.66E-02
15142,2.33E-02,2.70E-02
15143,2.34E-02,2.69E-02
15144,2.25E-02,2.73E-02
15145,2.27E-02,2.72E-02
15146,2.18E-02,2.76E-02
15147,2.20E-02,2.74E-02
15148,2.16E-02,2.79E-02
15149,2.16E-02,2.77E-02
15150,2.18E-02,2.83E-02
15151,2.15E-02,2.81E-02
15152,2.21E-02,2.87E-02
15153,2.20E-02,2.85E-02
15154,2.22E-02,2.90E-02
15155,2.23E-02,2.89E-02
15156,2.24E-02,2.89E-02
15157,2.26E-02,2.87E-02
15158,2.25E-02,2.88E-02
15159,2.31E-02,2.85E-02
15160,2.29E-02,2.86E-02
15161,2.32E-02,2.83E-02
15162,2.31E-02,2.84E-02
15163,2.27E-02,2.83E-02
15164,2.27E-02,2.83E-02
15165,2.21E-02,2.82E-02
15166,2.22E-02,2.82E-02
15167,2.16E-02,2.80E-02
15168,2.17E-02,2.81E-02
15169,2.10E-02,2.78E-02
15170,2.12E-02,2.79E-02
15171,2.11E-02,2.76E-02
15172,2.11E-02,2.77E-02
15173,2.12E-02,2.73E-02
15174,2.12E-02,2.74E-02
15175,2.17E-02,2.70E-02
15176,2.15E-02,2.71E-02
15177,2.23E-02,2.67E-02
15178,2.21E-02,2.68E-02
15179,2.27E-02,2.65E-02
15180,2.24E-02,2.66E-02
15181,2.26E-02,2.63E-02
15182,2.30E-02,2.64E-02
15183,2.23E-02,2.62E-02
15184,2.24E-02,2.62E-02
15185,2.24E-02,2.60E-02
15186,2.23E-02,2.61E-02
15187,2.30E-02,2.57E-02
15188,2.27E-02,2.59E-02
15189,2.37E-02,2.54E-02
15190,2.34E-02,2.56E-02
15191,2.39E-02,2.51E-02
15192,2.39E-02,2.52E-02
15193,2.33E-02,2.49E-02
15194,2.39E-02,2.50E-02
15195,2.30E-02,2.49E-02
15196,2.32E-02,2.49E-02
15197,2.23E-02,2.48E-02
15198,2.24E-02,2.48E-02
15199,2.17E-02,2.47E-02
15200,2.18E-02,2.47E-02
15201,2.15E-02,2.44E-02
15202,2.16E-02,2.45E-02
15203,2.19E-02,2.41E-02
15204,2.17E-02,2.42E-02
15205,2.26E-02,2.36E-02
15206,2.24E-02,2.38E-02
15207,2.32E-02,2.32E-02
15208,2.30E-02,2.34E-02
15209,2.37E-02,2.28E-02
15210,2.35E-02,2.30E-02
15211,2.37E-02,2.25E-02
15212,2.39E-02,2.27E-02
15213,2.31E-02,2.23E-02
15214,2.36E-02,2.24E-02
15215,2.27E-02,2.20E-02
15216,2.31E-02,2.21E-02
15217,2.23E-02,2.17E-02
15218,2.23E-02,2.18E-02
15219,2.24E-02,2.13E-02
15220,2.23E-02,2.15E-02
15221,2.30E-02,2.08E-02
15222,2.26E-02,2.11E-02
15223,2.32E-02,2.04E-02
15224,2.31E-02,2.06E-02
15225,2.27E-02,2.00E-02
15226,2.29E-02,2.02E-02
15227,2.21E-02,1.96E-02
15228,2.25E-02,1.98E-02
15229,2.17E-02,1.94E-02
15230,2.15E-02,1.97E-02
15231,2.17E-02,1.95E-02
15232,2.15E-02,2.00E-02
15233,2.16E-02,1.99E-02
15234,2.17E-02,2.04E-02
15235,2.17E-02,2.02E-02
15236,2.22E-02,2.07E-02
15237,2.18E-02,2.06E-02
15238,2.20E-02,2.11E-02
15239,2.20E-02,2.09E-02
15240,2.21E-02,2.14E-02
15241,2.20E-02,2.12E-02
15242,2.22E-02,2.17E-02
15243,2.24E-02,2.15E-02
15244,2.23E-02,2.20E-02
15245,2.21E-02,2.18E-02
15246,2.21E-02,2.22E-02
15247,2.21E-02,2.21E-02
15248,2.21E-02,2.24E-02
15249,2.20E-02,2.23E-02
15250,2.19E-02,2.27E-02
15251,2.18E-02,2.26E-02
15252,2.17E-02,2.28E-02
15253,2.19E-02,2.27E-02
15254,2.21E-02,2.30E-02
15255,2.17E-02,2.29E-02
15256,2.27E-02,2.31E-02
15257,2.22E-02,2.31E-02
15258,2.30E-02,2.32E-02
15259,2.19E-02,2.31E-02
15260,2.23E-02,2.32E-02
15261,2.15E-02,2.31E-02
15262,2.09E-02,2.29E-02
15263,2.18E-02,2.25E-02
15264,2.16E-02,2.26E-02
15265,2.21E-02,2.24E-02
15266,2.19E-02,2.25E-02
15267,2.21E-02,2.23E-02
15268,2.24E-02,2.23E-02
15269,2.16E-02,2.22E-02
15270,2.18E-02,2.23E-02
15271,2.14E-02,2.22E-02
15272,2.14E-02,2.22E-02
15273,2.14E-02,2.22E-02
15274,2.23E-02,2.21E-02
15275,2.20E-02,2.22E-02
15276,2.27E-02,2.21E-02
15277,2.26E-02,2.21E-02
15278,2.26E-02,2.21E-02
15279,2.29E-02,2.21E-02
15280,2.19E-02,2.22E-02
15281,2.22E-02,2.22E-02
15282,2.20E-02,2.23E-02
15283,2.19E-02,2.22E-02
15284,2.24E-02,2.24E-02
15285,2.23E-02,2.23E-02
15286,2.21E-02,2.25E-02
15287,2.24E-02,2.24E-02
15288,2.17E-02,2.26E-02
15289,2.21E-02,2.25E-02
15290,2.15E-02,2.27E-02
15291,2.15E-02,2.26E-02
15292,2.19E-02,2.28E-02
15293,2.17E-02,2.28E-02
15294,2.24E-02,2.29E-02
15295,2.20E-02,2.29E-02
15296,2.27E-02,2.30E-02
15297,2.24E-02,2.30E-02
15298,2.30E-02,2.31E-02
15299,2.30E-02,2.30E-02
15300,2.28E-02,2.33E-02
15301,2.29E-02,2.32E-02
15302,2.22E-02,2.35E-02
15303,2.25E-02,2.34E-02
15304,2.20E-02,2.37E-02
15305,2.21E-02,2.36E-02
15306,2.23E-02,2.39E-02
15307,2.20E-02,2.38E-02
15308,2.28E-02,2.40E-02
15309,2.27E-02,2.39E-02
15310,2.30E-02,2.41E-02
15311,2.30E-02,2.40E-02
15312,2.26E-02,2.43E-02
15313,2.28E-02,2.42E-02
15314,2.23E-02,2.45E-02
15315,2.25E-02,2.44E-02
15316,2.22E-02,2.47E-02
15317,2.21E-02,2.46E-02
15318,2.23E-02,2.49E-02
15319,2.23E-02,2.48E-02
15320,2.28E-02,2.50E-02
15321,2.26E-02,2.49E-02
15322,2.36E-02,2.52E-02
15323,2.32E-02,2.51E-02
15324,2.40E-02,2.54E-02
15325,2.39E-02,2.53E-02
15326,2.41E-02,2.57E-02
15327,2.41E-02,2.55E-02
15328,2.33E-02,2.58E-02
15329,2.13E-02,2.30E-02
15330,2.10E-02,2.30E-02
15331,2.14E-02,2.28E-02
15332,2.16E-02,2.27E-02
15333,2.16E-02,2.21E-02
15334,2.18E-02,2.21E-02
15335,2.20E-02,1.94E-02
15336,2.18E-02,1.92E-02
15337,2.22E-02,2.88E-02
15338,2.23E-02,2.90E-02
15339,2.27E-02,2.32E-02
15340,2.32E-02,2.33E-02
15341,2.39E-02,2.63E-02
15342,2.34E-02,2.59E-02
15343,2.38E-02,2.61E-02
15344,2.44E-02,2.66E-02
15345,2.42E-02,2.64E-02
15346,2.39E-02,2.69E-02
15347,2.43E-02,2.67E-02
15348,2.31E-02,2.71E-02
15349,2.34E-02,2.70E-02
15350,2.24E-02,2.74E-02
15351,2.26E-02,2.73E-02
15352,2.21E-02,2.77E-02
15353,2.21E-02,2.75E-02
15354,2.18E-02,2.80E-02
15355,2.17E-02,2.78E-02
15356,2.18E-02,2.83E-02
15357,2.16E-02,2.82E-02
15358,2.19E-02,2.86E-02
15359,2.25E-02,2.93E-02
15360,2.26E-02,2.92E-02
15361,2.25E-02,2.93E-02
15362,2.30E-02,2.90E-02
15363,2.27E-02,2.91E-02
15364,2.33E-02,2.88E-02
15365,2.32E-02,2.89E-02
15366,2.32E-02,2.86E-02
15367,2.32E-02,2.87E-02
15368,2.25E-02,2.85E-02
15369,2.29E-02,2.85E-02
15370,2.22E-02,2.84E-02
15371,2.23E-02,2.84E-02
15372,2.17E-02,2.82E-02
15373,2.19E-02,2.83E-02
15374,2.12E-02,2.79E-02
15375,2.13E-02,2.80E-02
15376,2.12E-02,2.76E-02
15377,2.11E-02,2.77E-02
15378,2.14E-02,2.73E-02
15379,2.11E-02,2.74E-02
15380,2.18E-02,2.70E-02
15381,2.16E-02,2.72E-02
15382,2.25E-02,2.67E-02
15383,2.21E-02,2.69E-02
15384,2.27E-02,2.65E-02
15385,2.25E-02,2.66E-02
15386,2.27E-02,2.64E-02
15387,2.28E-02,2.64E-02
15388,2.23E-02,2.63E-02
15389,2.24E-02,2.63E-02
15390,2.23E-02,2.62E-02
15391,2.22E-02,2.63E-02
15392,2.29E-02,2.59E-02
15393,2.26E-02,2.61E-02
15394,2.36E-02,2.56E-02
15395,2.33E-02,2.58E-02
15396,2.38E-02,2.53E-02
15397,2.39E-02,2.54E-02
15398,2.35E-02,2.51E-02
15399,2.37E-02,2.52E-02
15400,2.28E-02,2.50E-02
15401,2.30E-02,2.51E-02
15402,2.22E-02,2.49E-02
15403,2.25E-02,2.50E-02
15404,2.18E-02,2.48E-02
15405,2.18E-02,2.49E-02
15406,2.15E-02,2.45E-02
15407,2.16E-02,2.47E-02
15408,2.20E-02,2.41E-02
15409,2.17E-02,2.43E-02
15410,2.25E-02,2.37E-02
15411,2.24E-02,2.39E-02
15412,2.33E-02,2.33E-02
15413,2.29E-02,2.35E-02
15414,2.35E-02,2.29E-02
15415,2.34E-02,2.31E-02
15416,2.35E-02,2.26E-02
15417,2.39E-02,2.27E-02
15418,2.30E-02,2.23E-02
15419,2.34E-02,2.24E-02
15420,2.26E-02,2.20E-02
15421,2.30E-02,2.22E-02
15422,2.23E-02,2.17E-02
15423,2.24E-02,2.19E-02
15424,2.24E-02,2.13E-02
15425,2.23E-02,2.15E-02
15426,2.29E-02,2.08E-02
15427,2.25E-02,2.10E-02
15428,2.33E-02,2.03E-02
15429,2.32E-02,2.05E-02
15430,2.27E-02,1.99E-02
15431,2.30E-02,2.01E-02
15432,2.23E-02,1.96E-02
15433,2.15E-02,1.91E-02
15434,2.16E-02,1.95E-02
15435,2.16E-02,1.93E-02
15436,2.17E-02,1.99E-02
15437,2.17E-02,1.97E-02
15438,2.18E-02,2.03E-02
15439,2.18E-02,2.01E-02
15440,2.21E-02,2.06E-02
15441,2.20E-02,2.04E-02
15442,2.21E-02,2.10E-02
15443,2.21E-02,2.08E-02
15444,2.21E-02,2.13E-02
15445,2.22E-02,2.12E-02
15446,2.21E-02,2.16E-02
15447,2.23E-02,2.15E-02
15448,2.22E-02,2.19E-02
15449,2.19E-02,2.18E-02
15450,2.21E-02,2.22E-02
15451,2.21E-02,2.21E-02
15452,2.21E-02,2.24E-02
15453,2.19E-02,2.23E-02
15454,2.18E-02,2.27E-02
15455,2.19E-02,2.26E-02
15456,2.19E-02,2.28E-02
15457,2.19E-02,2.28E-02
15458,2.21E-02,2.30E-02
15459,2.17E-02,2.29E-02
15460,2.23E-02,2.31E-02
15461,2.34E-02,2.33E-02
15462,2.19E-02,2.32E-02
15463,2.24E-02,2.32E-02
15464,2.17E-02,2.31E-02
15465,2.11E-02,2.29E-02
15466,2.18E-02,2.25E-02
15467,2.18E-02,2.26E-02
15468,2.22E-02,2.23E-02
15469,2.21E-02,2.24E-02
15470,2.22E-02,2.22E-02
15471,2.23E-02,2.22E-02
15472,2.16E-02,2.22E-02
15473,2.19E-02,2.22E-02
15474,2.15E-02,2.22E-02
15475,2.15E-02,2.22E-02
15476,2.13E-02,2.21E-02
15477,2.23E-02,2.20E-02
15478,2.22E-02,2.21E-02
15479,2.21E-02,2.21E-02
15480,2.27E-02,2.20E-02
15481,2.27E-02,2.20E-02
15482,2.25E-02,2.20E-02
15483,2.27E-02,2.20E-02
15484,2.20E-02,2.21E-02
15485,2.23E-02,2.21E-02
15486,2.21E-02,2.22E-02
15487,2.20E-02,2.22E-02
15488,2.25E-02,2.22E-02
15489,2.23E-02,2.22E-02
15490,2.23E-02,2.23E-02
15491,2.25E-02,2.23E-02
15492,2.17E-02,2.24E-02
15493,2.20E-02,2.24E-02
15494,2.16E-02,2.26E-02
15495,2.16E-02,2.25E-02
15496,2.19E-02,2.27E-02
15497,2.16E-02,2.27E-02
15498,2.24E-02,2.28E-02
15499,2.22E-02,2.28E-02
15500,2.29E-02,2.29E-02
15501,2.24E-02,2.28E-02
15502,2.30E-02,2.30E-02
15503,2.28E-02,2.29E-02
15504,2.28E-02,2.31E-02
15505,2.30E-02,2.30E-02
15506,2.23E-02,2.34E-02
15507,2.23E-02,2.33E-02
15508,2.19E-02,2.36E-02
15509,2.19E-02,2.35E-02
15510,2.23E-02,2.37E-02
15511,2.20E-02,2.37E-02
15512,2.28E-02,2.38E-02
15513,2.27E-02,2.38E-02
15514,2.29E-02,2.39E-02
15515,2.30E-02,2.39E-02
15516,2.27E-02,2.41E-02
15517,2.28E-02,2.40E-02
15518,2.23E-02,2.43E-02
15519,2.24E-02,2.42E-02
15520,2.20E-02,2.45E-02
15521,2.21E-02,2.44E-02
15522,2.21E-02,2.47E-02
15523,2.19E-02,2.46E-02
15524,2.27E-02,2.48E-02
15525,2.26E-02,2.48E-02
15526,2.34E-02,2.50E-02
15527,2.28E-02,2.49E-02
15528,2.39E-02,2.52E-02
15529,2.36E-02,2.51E-02
15530,2.37E-02,2.54E-02
15531,2.39E-02,2.53E-02
15532,1.80E-02,2.57E-02
15533,2.40E-02,2.56E-02
15534,2.17E-02,1.90E-02
15535,2.25E-02,2.93E-02
15536,2.47E-02,2.34E-02
15537,2.15E-02,2.30E-02
15538,2.12E-02,2.29E-02
15539,2.30E-02,2.58E-02
15540,2.42E-02,2.64E-02
15541,2.51E-02,2.62E-02
15542,2.41E-02,2.67E-02
15543,2.43E-02,2.66E-02
15544,2.35E-02,2.70E-02
15545,2.39E-02,2.68E-02
15546,2.29E-02,2.72E-02
15547,2.29E-02,2.71E-02
15548,2.24E-02,2.75E-02
15549,2.26E-02,2.74E-02
15550,2.21E-02,2.78E-02
15551,2.21E-02,2.76E-02
15552,2.19E-02,2.81E-02
15553,2.20E-02,2.79E-02
15554,2.19E-02,2.84E-02
15555,2.18E-02,2.83E-02
15556,2.23E-02,2.88E-02
15557,2.21E-02,2.86E-02
15558,2.16E-02,1.89E-02
15559,2.16E-02,1.88E-02
15560,2.30E-02,2.97E-02
15561,2.29E-02,2.97E-02
15562,2.26E-02,2.93E-02
15563,2.25E-02,2.91E-02
15564,2.28E-02,2.97E-02
15565,2.29E-02,2.97E-02
15566,2.31E-02,2.95E-02
15567,2.30E-02,2.96E-02
15568,2.33E-02,2.92E-02
15569,2.32E-02,2.93E-02
15570,2.31E-02,2.89E-02
15571,2.34E-02,2.90E-02
15572,2.25E-02,2.87E-02
15573,2.29E-02,2.88E-02
15574,2.22E-02,2.85E-02
15575,2.23E-02,2.87E-02
15576,2.18E-02,2.82E-02
15577,2.19E-02,2.84E-02
15578,2.14E-02,2.79E-02
15579,2.14E-02,2.81E-02
15580,2.14E-02,2.75E-02
15581,2.14E-02,2.77E-02
15582,2.15E-02,2.73E-02
15583,2.13E-02,2.74E-02
15584,2.20E-02,2.70E-02
15585,2.16E-02,2.71E-02
15586,2.25E-02,2.67E-02
15587,2.21E-02,2.69E-02
15588,2.27E-02,2.65E-02
15589,2.25E-02,2.66E-02
15590,2.26E-02,2.65E-02
15591,2.28E-02,2.65E-02
15592,2.24E-02,2.65E-02
15593,2.23E-02,2.65E-02
15594,2.23E-02,2.64E-02
15595,2.23E-02,2.65E-02
15596,2.28E-02,2.62E-02
15597,2.25E-02,2.63E-02
15598,2.35E-02,2.58E-02
15599,2.32E-02,2.60E-02
15600,2.37E-02,2.55E-02
15601,2.38E-02,2.56E-02
15602,2.33E-02,2.53E-02
15603,2.35E-02,2.54E-02
15604,2.27E-02,2.52E-02
15605,2.30E-02,2.53E-02
15606,2.20E-02,2.51E-02
15607,2.25E-02,2.51E-02
15608,2.18E-02,2.49E-02
15609,2.20E-02,2.50E-02
15610,2.16E-02,2.46E-02
15611,2.16E-02,2.47E-02
15612,2.19E-02,2.42E-02
15613,2.18E-02,2.44E-02
15614,2.26E-02,2.38E-02
15615,2.24E-02,2.40E-02
15616,2.32E-02,2.33E-02
15617,2.31E-02,2.35E-02
15618,2.35E-02,2.30E-02
15619,2.35E-02,2.31E-02
15620,2.34E-02,2.27E-02
15621,2.37E-02,2.28E-02
15622,2.30E-02,2.24E-02
15623,2.33E-02,2.25E-02
15624,2.27E-02,2.21E-02
15625,2.28E-02,2.22E-02
15626,2.22E-02,2.18E-02
15627,2.23E-02,2.19E-02
15628,2.25E-02,2.13E-02
15629,2.22E-02,2.16E-02
15630,2.29E-02,2.07E-02
15631,2.27E-02,2.10E-02
15632,2.33E-02,2.02E-02
15633,2.30E-02,2.05E-02
15634,2.27E-02,1.98E-02
15635,2.29E-02,2.00E-02
15636,2.23E-02,1.93E-02
15637,2.25E-02,1.95E-02
15638,2.18E-02,1.88E-02
15639,2.20E-02,1.90E-02
15640,2.18E-02,1.93E-02
15641,2.16E-02,1.91E-02
15642,2.19E-02,1.97E-02
15643,2.18E-02,1.95E-02
15644,2.21E-02,2.01E-02
15645,2.21E-02,1.99E-02
15646,2.21E-02,2.05E-02
15647,2.21E-02,2.03E-02
15648,2.21E-02,2.09E-02
15649,2.22E-02,2.07E-02
15650,2.23E-02,2.13E-02
15651,2.21E-02,2.11E-02
15652,2.22E-02,2.16E-02
15653,2.24E-02,2.14E-02
15654,2.22E-02,2.19E-02
15655,2.19E-02,2.18E-02
15656,2.20E-02,2.22E-02
15657,2.20E-02,2.21E-02
15658,2.21E-02,2.24E-02
15659,2.21E-02,2.23E-02
15660,2.19E-02,2.27E-02
15661,2.19E-02,2.26E-02
15662,2.19E-02,2.29E-02
15663,2.20E-02,2.28E-02
15664,2.22E-02,2.30E-02
15665,2.19E-02,2.30E-02
15666,2.24E-02,2.32E-02
15667,2.23E-02,2.31E-02
15668,2.40E-02,2.34E-02
15669,2.29E-02,2.33E-02
15670,1.81E-02,2.36E-02
15671,1.80E-02,2.36E-02
15672,2.33E-02,2.34E-02
15673,2.46E-02,2.35E-02
15674,2.20E-02,2.32E-02
15675,2.25E-02,2.33E-02
15676,2.19E-02,2.31E-02
15677,2.15E-02,2.28E-02
15678,2.13E-02,2.29E-02
15679,2.19E-02,2.24E-02
15680,2.17E-02,2.27E-02
15681,2.18E-02,2.25E-02
15682,2.23E-02,2.22E-02
15683,2.22E-02,2.23E-02
15684,2.23E-02,2.21E-02
15685,2.24E-02,2.21E-02
15686,2.17E-02,2.21E-02
15687,2.20E-02,2.21E-02
15688,2.17E-02,2.21E-02
15689,2.17E-02,2.21E-02
15690,2.17E-02,2.20E-02
15691,2.16E-02,2.20E-02
15692,2.20E-02,2.20E-02
15693,2.19E-02,2.20E-02
15694,2.23E-02,2.19E-02
15695,2.21E-02,2.20E-02
15696,2.26E-02,2.19E-02
15697,2.26E-02,2.19E-02
15698,2.25E-02,2.19E-02
15699,2.28E-02,2.19E-02
15700,2.20E-02,2.20E-02
15701,2.23E-02,2.20E-02
15702,2.22E-02,2.21E-02
15703,2.18E-02,2.21E-02
15704,2.25E-02,2.21E-02
15705,2.22E-02,2.21E-02
15706,2.23E-02,2.22E-02
15707,2.25E-02,2.21E-02
15708,2.19E-02,2.23E-02
15709,2.21E-02,2.22E-02
15710,2.16E-02,2.24E-02
15711,2.16E-02,2.24E-02
15712,2.19E-02,2.26E-02
15713,2.17E-02,2.25E-02
15714,2.23E-02,2.27E-02
15715,2.22E-02,2.26E-02
15716,2.28E-02,2.27E-02
15717,2.24E-02,2.27E-02
15718,2.30E-02,2.28E-02
15719,2.30E-02,2.28E-02
15720,2.27E-02,2.30E-02
15721,2.31E-02,2.29E-02
15722,2.23E-02,2.33E-02
15723,2.24E-02,2.32E-02
15724,2.20E-02,2.35E-02
15725,2.21E-02,2.34E-02
15726,2.23E-02,2.36E-02
15727,2.20E-02,2.36E-02
15728,2.28E-02,2.37E-02
15729,2.26E-02,2.37E-02
15730,2.28E-02,2.38E-02
15731,2.30E-02,2.37E-02
15732,2.28E-02,2.39E-02
15733,2.28E-02,2.38E-02
15734,2.23E-02,2.41E-02
15735,2.22E-02,2.40E-02
15736,2.20E-02,2.43E-02
15737,2.21E-02,2.42E-02
15738,2.21E-02,2.45E-02
15739,2.19E-02,2.44E-02
15740,2.26E-02,2.46E-02
15741,2.24E-02,2.46E-02
15742,2.30E-02,2.48E-02
15743,2.28E-02,2.47E-02
15744,2.36E-02,2.50E-02
15745,2.33E-02,2.49E-02
15746,2.35E-02,2.52E-02
15747,2.36E-02,2.51E-02
15748,1.98E-02,2.56E-02
15749,2.31E-02,2.54E-02
15750,3.00E-02,2.60E-02
15751,2.17E-02,1.86E-02
15752,2.31E-02,2.96E-02
15753,1.48E-02,2.37E-02
15754,2.17E-02,2.30E-02
15755,2.14E-02,2.29E-02
15756,2.77E-02,2.54E-02
15757,2.96E-02,2.57E-02
15758,2.62E-02,2.62E-02
15759,2.44E-02,2.65E-02
15760,2.54E-02,2.64E-02
15761,2.39E-02,2.68E-02
15762,2.42E-02,2.67E-02
15763,2.32E-02,2.71E-02
15764,2.35E-02,2.69E-02
15765,2.26E-02,2.73E-02
15766,2.28E-02,2.72E-02
15767,2.23E-02,2.76E-02
15768,2.24E-02,2.75E-02
15769,2.22E-02,2.79E-02
15770,2.23E-02,2.77E-02
15771,2.22E-02,2.82E-02
15772,2.22E-02,2.80E-02
15773,2.21E-02,2.85E-02
15774,2.21E-02,2.84E-02
15775,2.23E-02,2.89E-02
15776,2.21E-02,2.87E-02
15777,2.28E-02,2.93E-02
15778,2.25E-02,2.91E-02
15779,2.19E-02,1.86E-02
15780,2.20E-02,1.84E-02
15781,2.32E-02,2.96E-02
15782,2.34E-02,3.00E-02
15783,2.32E-02,3.02E-02
15784,2.32E-02,3.01E-02
15785,2.30E-02,3.03E-02
15786,2.30E-02,3.03E-02
15787,2.32E-02,3.01E-02
15788,2.32E-02,3.02E-02
15789,2.31E-02,2.96E-02
15790,2.33E-02,2.99E-02
15791,2.32E-02,2.93E-02
15792,2.33E-02,2.94E-02
15793,2.24E-02,2.90E-02
15794,2.28E-02,2.91E-02
15795,2.22E-02,2.87E-02
15796,2.25E-02,2.89E-02
15797,2.19E-02,2.82E-02
15798,2.21E-02,2.85E-02
15799,2.15E-02,2.78E-02
15800,2.14E-02,2.80E-02
15801,2.16E-02,2.74E-02
15802,2.15E-02,2.76E-02
15803,2.17E-02,2.71E-02
15804,2.15E-02,2.73E-02
15805,2.21E-02,2.69E-02
15806,2.18E-02,2.70E-02
15807,2.25E-02,2.67E-02
15808,2.21E-02,2.68E-02
15809,2.28E-02,2.66E-02
15810,2.27E-02,2.66E-02
15811,2.27E-02,2.66E-02
15812,2.27E-02,2.65E-02
15813,2.24E-02,2.66E-02
15814,2.24E-02,2.66E-02
15815,2.24E-02,2.67E-02
15816,2.23E-02,2.67E-02
15817,2.29E-02,2.65E-02
15818,2.26E-02,2.66E-02
15819,2.33E-02,2.61E-02
15820,2.30E-02,2.63E-02
15821,2.35E-02,2.58E-02
15822,2.35E-02,2.59E-02
15823,2.31E-02,2.56E-02
15824,2.35E-02,2.57E-02
15825,2.28E-02,2.54E-02
15826,2.30E-02,2.55E-02
15827,2.22E-02,2.52E-02
15828,2.24E-02,2.53E-02
15829,2.16E-02,2.49E-02
15830,2.19E-02,2.50E-02
15831,2.16E-02,2.46E-02
15832,2.16E-02,2.48E-02
15833,2.20E-02,2.42E-02
15834,2.18E-02,2.44E-02
15835,2.27E-02,2.38E-02
15836,2.24E-02,2.40E-02
15837,2.30E-02,2.34E-02
15838,2.29E-02,2.36E-02
15839,2.34E-02,2.31E-02
15840,2.34E-02,2.33E-02
15841,2.34E-02,2.28E-02
15842,2.33E-02,2.30E-02
15843,2.30E-02,2.25E-02
15844,2.32E-02,2.26E-02
15845,2.27E-02,2.22E-02
15846,2.27E-02,2.23E-02
15847,2.23E-02,2.18E-02
15848,2.23E-02,2.20E-02
15849,2.24E-02,2.13E-02
15850,2.22E-02,2.16E-02
15851,2.28E-02,2.07E-02
15852,2.27E-02,2.10E-02
15853,2.34E-02,2.02E-02
15854,2.29E-02,2.04E-02
15855,2.28E-02,1.97E-02
15856,2.31E-02,1.99E-02
15857,2.25E-02,1.92E-02
15858,2.27E-02,1.94E-02
15859,2.23E-02,1.89E-02
15860,2.17E-02,1.83E-02
15861,2.17E-02,1.87E-02
15862,2.16E-02,1.85E-02
15863,2.21E-02,1.92E-02
15864,2.20E-02,1.89E-02
15865,2.21E-02,1.96E-02
15866,2.21E-02,1.94E-02
15867,2.21E-02,2.00E-02
15868,2.21E-02,1.98E-02
15869,2.21E-02,2.04E-02
15870,2.21E-02,2.02E-02
15871,2.23E-02,2.08E-02
15872,2.22E-02,2.06E-02
15873,2.23E-02,2.12E-02
15874,2.22E-02,2.10E-02
15875,2.23E-02,2.16E-02
15876,2.22E-02,2.14E-02
15877,2.22E-02,2.19E-02
15878,2.20E-02,2.17E-02
15879,2.21E-02,2.22E-02
15880,2.22E-02,2.20E-02
15881,2.20E-02,2.25E-02
15882,2.21E-02,2.23E-02
15883,2.21E-02,2.27E-02
15884,2.20E-02,2.26E-02
15885,2.22E-02,2.29E-02
15886,2.20E-02,2.28E-02
15887,2.21E-02,2.31E-02
15888,2.20E-02,2.30E-02
15889,2.22E-02,2.33E-02
15890,2.21E-02,2.32E-02
15891,2.14E-02,2.35E-02
15892,2.23E-02,2.34E-02
15893,2.02E-02,2.38E-02
15894,1.92E-02,2.39E-02
15895,1.85E-02,2.38E-02
15896,2.00E-02,2.36E-02
15897,2.28E-02,2.35E-02
15898,2.17E-02,2.36E-02
15899,2.21E-02,2.32E-02
15900,2.25E-02,2.33E-02
15901,2.20E-02,2.31E-02
15902,2.13E-02,2.28E-02
15903,2.18E-02,2.26E-02
15904,2.16E-02,2.27E-02
15905,2.22E-02,2.23E-02
15906,2.19E-02,2.25E-02
15907,2.24E-02,2.20E-02
15908,2.22E-02,2.21E-02
15909,2.23E-02,2.19E-02
15910,2.24E-02,2.20E-02
15911,2.19E-02,2.20E-02
15912,2.20E-02,2.20E-02
15913,2.18E-02,2.19E-02
15914,2.17E-02,2.19E-02
15915,2.18E-02,2.19E-02
15916,2.18E-02,2.19E-02
15917,2.21E-02,2.19E-02
15918,2.20E-02,2.19E-02
15919,2.24E-02,2.18E-02
15920,2.23E-02,2.19E-02
15921,2.27E-02,2.18E-02
15922,2.26E-02,2.18E-02
15923,2.25E-02,2.18E-02
15924,2.27E-02,2.18E-02
15925,2.20E-02,2.20E-02
15926,2.22E-02,2.19E-02
15927,2.21E-02,2.20E-02
15928,2.19E-02,2.20E-02
15929,2.26E-02,2.19E-02
15930,2.24E-02,2.20E-02
15931,2.21E-02,2.20E-02
15932,2.25E-02,2.19E-02
15933,2.20E-02,2.21E-02
15934,2.21E-02,2.20E-02
15935,2.17E-02,2.23E-02
15936,2.17E-02,2.22E-02
15937,2.20E-02,2.24E-02
15938,2.17E-02,2.23E-02
15939,2.22E-02,2.25E-02
15940,2.21E-02,2.25E-02
15941,2.28E-02,2.26E-02
15942,2.25E-02,2.26E-02
15943,2.30E-02,2.27E-02
15944,2.29E-02,2.27E-02
15945,2.27E-02,2.29E-02
15946,2.30E-02,2.28E-02
15947,2.23E-02,2.32E-02
15948,2.24E-02,2.31E-02
15949,2.20E-02,2.35E-02
15950,2.20E-02,2.34E-02
15951,2.22E-02,2.35E-02
15952,2.22E-02,2.35E-02
15953,2.29E-02,2.35E-02
15954,2.25E-02,2.35E-02
15955,2.28E-02,2.36E-02
15956,2.30E-02,2.36E-02
15957,2.26E-02,2.38E-02
15958,2.27E-02,2.37E-02
15959,2.23E-02,2.39E-02
15960,2.23E-02,2.38E-02
15961,2.21E-02,2.41E-02
15962,2.21E-02,2.40E-02
15963,2.21E-02,2.43E-02
15964,2.20E-02,2.42E-02
15965,2.25E-02,2.44E-02
15966,2.22E-02,2.43E-02
15967,2.28E-02,2.45E-02
15968,2.26E-02,2.44E-02
15969,2.31E-02,2.47E-02
15970,2.31E-02,2.46E-02
15971,2.34E-02,2.50E-02
15972,2.32E-02,2.48E-02
15973,2.33E-02,2.51E-02
15974,2.79E-02,2.60E-02
15975,2.19E-02,1.81E-02
15976,2.38E-02,2.99E-02
15977,1.89E-02,2.40E-02
15978,2.53E-02,2.64E-02
15979,2.42E-02,2.66E-02
15980,2.48E-02,2.65E-02
15981,2.36E-02,2.69E-02
15982,2.41E-02,2.68E-02
15983,2.28E-02,2.72E-02
15984,2.32E-02,2.70E-02
15985,2.25E-02,2.74E-02
15986,2.26E-02,2.73E-02
15987,2.25E-02,2.77E-02
15988,2.24E-02,2.76E-02
15989,2.25E-02,2.80E-02
15990,2.24E-02,2.79E-02
15991,2.25E-02,2.83E-02
15992,2.25E-02,2.81E-02
15993,2.23E-02,2.86E-02
15994,2.25E-02,2.85E-02
15995,2.22E-02,2.90E-02
15996,2.21E-02,2.88E-02
15997,2.26E-02,2.94E-02
15998,2.24E-02,2.92E-02
15999,2.64E-02,2.62E-02
16000,2.17E-02,1.81E-02
16001,2.16E-02,1.78E-02
16002,2.37E-02,3.05E-02
16003,2.43E-02,3.03E-02
16004,2.42E-02,2.98E-02
16005,2.33E-02,2.96E-02
16006,2.33E-02,3.08E-02
16007,2.34E-02,3.06E-02
16008,2.29E-02,3.10E-02
16009,2.31E-02,3.09E-02
16010,2.33E-02,3.07E-02
16011,2.30E-02,3.09E-02
16012,2.33E-02,3.02E-02
16013,2.33E-02,3.05E-02
16014,2.31E-02,2.98E-02
16015,2.34E-02,3.00E-02
16016,2.26E-02,2.93E-02
16017,2.28E-02,2.96E-02
16018,2.22E-02,2.88E-02
16019,2.24E-02,2.91E-02
16020,2.17E-02,2.81E-02
16021,2.20E-02,2.85E-02
16022,2.17E-02,2.75E-02
16023,2.16E-02,2.78E-02
16024,2.18E-02,2.71E-02
16025,2.16E-02,2.73E-02
16026,2.19E-02,2.69E-02
16027,2.15E-02,2.70E-02
16028,2.21E-02,2.68E-02
16029,2.20E-02,2.69E-02
16030,2.25E-02,2.67E-02
16031,2.22E-02,2.67E-02
16032,2.27E-02,2.66E-02
16033,2.27E-02,2.66E-02
16034,2.27E-02,2.67E-02
16035,2.29E-02,2.66E-02
16036,2.25E-02,2.68E-02
16037,2.25E-02,2.67E-02
16038,2.22E-02,2.69E-02
16039,2.23E-02,2.68E-02
16040,2.28E-02,2.69E-02
16041,2.27E-02,2.69E-02
16042,2.33E-02,2.65E-02
16043,2.30E-02,2.67E-02
16044,2.35E-02,2.62E-02
16045,2.34E-02,2.63E-02
16046,2.30E-02,2.60E-02
16047,2.33E-02,2.61E-02
16048,2.28E-02,2.57E-02
16049,2.29E-02,2.59E-02
16050,2.23E-02,2.52E-02
16051,2.24E-02,2.54E-02
16052,2.17E-02,2.48E-02
16053,2.22E-02,2.50E-02
16054,2.18E-02,2.45E-02
16055,2.16E-02,2.47E-02
16056,2.23E-02,2.42E-02
16057,2.20E-02,2.43E-02
16058,2.25E-02,2.38E-02
16059,2.22E-02,2.40E-02
16060,2.29E-02,2.36E-02
16061,2.28E-02,2.37E-02
16062,2.31E-02,2.33E-02
16063,2.34E-02,2.34E-02
16064,2.31E-02,2.30E-02
16065,2.32E-02,2.32E-02
16066,2.30E-02,2.26E-02
16067,2.30E-02,2.28E-02
16068,2.26E-02,2.22E-02
16069,2.26E-02,2.24E-02
16070,2.21E-02,2.19E-02
16071,2.24E-02,2.20E-02
16072,2.24E-02,2.13E-02
16073,2.23E-02,2.16E-02
16074,2.28E-02,2.07E-02
16075,2.27E-02,2.10E-02
16076,2.30E-02,2.02E-02
16077,2.29E-02,2.04E-02
16078,2.30E-02,1.97E-02
16079,2.30E-02,1.99E-02
16080,2.24E-02,1.91E-02
16081,2.26E-02,1.94E-02
16082,2.21E-02,1.85E-02
16083,2.24E-02,1.88E-02
16084,2.20E-02,1.79E-02
16085,2.20E-02,1.82E-02
16086,2.19E-02,1.85E-02
16087,2.18E-02,1.83E-02
16088,2.21E-02,1.90E-02
16089,2.21E-02,1.88E-02
16090,2.21E-02,1.94E-02
16091,2.21E-02,1.92E-02
16092,2.21E-02,1.99E-02
16093,2.21E-02,1.97E-02
16094,2.20E-02,2.03E-02
16095,2.21E-02,2.01E-02
16096,2.21E-02,2.07E-02
16097,2.22E-02,2.05E-02
16098,2.21E-02,2.11E-02
16099,2.22E-02,2.09E-02
16100,2.22E-02,2.15E-02
16101,2.23E-02,2.13E-02
16102,2.21E-02,2.19E-02
16103,2.21E-02,2.17E-02
16104,2.22E-02,2.22E-02
16105,2.22E-02,2.20E-02
16106,2.22E-02,2.25E-02
16107,2.22E-02,2.23E-02
16108,2.22E-02,2.27E-02
16109,2.20E-02,2.26E-02
16110,2.21E-02,2.29E-02
16111,2.22E-02,2.28E-02
16112,2.20E-02,2.31E-02
16113,2.20E-02,2.30E-02
16114,2.20E-02,2.33E-02
16115,2.21E-02,2.32E-02
16116,2.13E-02,2.35E-02
16117,2.18E-02,2.34E-02
16118,1.99E-02,2.38E-02
16119,2.08E-02,2.37E-02
16120,1.98E-02,2.40E-02
16121,2.00E-02,2.43E-02
16122,2.12E-02,2.40E-02
16123,2.03E-02,2.42E-02
16124,2.20E-02,2.36E-02
16125,2.17E-02,2.38E-02
16126,2.21E-02,2.32E-02
16127,2.22E-02,2.34E-02
16128,2.19E-02,2.29E-02
16129,2.20E-02,2.30E-02
16130,2.16E-02,2.27E-02
16131,2.17E-02,2.28E-02
16132,2.19E-02,2.25E-02
16133,2.18E-02,2.26E-02
16134,2.22E-02,2.21E-02
16135,2.20E-02,2.23E-02
16136,2.24E-02,2.19E-02
16137,2.23E-02,2.20E-02
16138,2.24E-02,2.18E-02
16139,2.24E-02,2.18E-02
16140,2.20E-02,2.19E-02
16141,2.20E-02,2.19E-02
16142,2.18E-02,2.18E-02
16143,2.18E-02,2.18E-02
16144,2.19E-02,2.17E-02
16145,2.20E-02,2.17E-02
16146,2.21E-02,2.18E-02
16147,2.21E-02,2.18E-02
16148,2.23E-02,2.18E-02
16149,2.24E-02,2.18E-02
16150,2.27E-02,2.16E-02
16151,2.26E-02,2.17E-02
16152,2.23E-02,2.18E-02
16153,2.27E-02,2.17E-02
16154,2.21E-02,2.19E-02
16155,2.24E-02,2.19E-02
16156,2.20E-02,2.19E-02
16157,2.20E-02,2.19E-02
16158,2.26E-02,2.18E-02
16159,2.23E-02,2.18E-02
16160,2.24E-02,2.18E-02
16161,2.25E-02,2.18E-02
16162,2.20E-02,2.19E-02
16163,2.21E-02,2.18E-02
16164,2.19E-02,2.20E-02
16165,2.17E-02,2.20E-02
16166,2.20E-02,2.22E-02
16167,2.18E-02,2.21E-02
16168,2.24E-02,2.24E-02
16169,2.21E-02,2.23E-02
16170,2.28E-02,2.26E-02
16171,2.25E-02,2.25E-02
16172,2.30E-02,2.26E-02
16173,2.28E-02,2.26E-02
16174,2.29E-02,2.28E-02
16175,2.29E-02,2.27E-02
16176,2.22E-02,2.31E-02
16177,2.24E-02,2.30E-02
16178,2.20E-02,2.34E-02
16179,2.20E-02,2.33E-02
16180,2.23E-02,2.34E-02
16181,2.22E-02,2.34E-02
16182,2.27E-02,2.34E-02
16183,2.24E-02,2.34E-02
16184,2.27E-02,2.35E-02
16185,2.27E-02,2.34E-02
16186,2.26E-02,2.36E-02
16187,2.26E-02,2.36E-02
16188,2.23E-02,2.37E-02
16189,2.23E-02,2.37E-02
16190,2.21E-02,2.39E-02
16191,2.21E-02,2.38E-02
16192,2.21E-02,2.40E-02
16193,2.20E-02,2.40E-02
16194,2.23E-02,2.41E-02
16195,2.22E-02,2.41E-02
16196,2.27E-02,2.43E-02
16197,2.24E-02,2.42E-02
16198,2.31E-02,2.45E-02
16199,2.32E-02,2.44E-02
16200,2.35E-02,2.47E-02
16201,2.32E-02,2.46E-02
16202,2.50E-02,2.51E-02
16203,2.45E-02,2.49E-02
16204,2.66E-02,2.57E-02
16205,2.66E-02,2.54E-02
16206,2.59E-02,2.60E-02
16207,2.18E-02,1.76E-02
16208,2.60E-02,3.01E-02
16209,2.00E-02,2.43E-02
16210,2.54E-02,2.53E-02
16211,2.55E-02,2.56E-02
16212,2.51E-02,2.62E-02
16213,2.50E-02,2.65E-02
16214,2.51E-02,2.64E-02
16215,2.43E-02,2.67E-02
16216,2.42E-02,2.66E-02
16217,2.33E-02,2.70E-02
16218,2.36E-02,2.69E-02
16219,2.24E-02,2.73E-02
16220,2.30E-02,2.71E-02
16221,2.26E-02,2.75E-02
16222,2.24E-02,2.74E-02
16223,2.26E-02,2.78E-02
16224,2.26E-02,2.77E-02
16225,2.24E-02,2.81E-02
16226,2.25E-02,2.80E-02
16227,2.23E-02,2.84E-02
16228,2.24E-02,2.83E-02
16229,2.22E-02,2.87E-02
16230,2.24E-02,2.86E-02
16231,2.22E-02,2.91E-02
16232,2.21E-02,2.89E-02
16233,2.26E-02,2.94E-02
16234,2.23E-02,2.93E-02
16235,2.33E-02,2.98E-02
16236,2.28E-02,2.96E-02
16237,2.22E-02,1.76E-02
16238,2.22E-02,1.73E-02
16239,2.06E-02,2.47E-02
16240,2.03E-02,2.48E-02
16241,2.58E-02,3.06E-02
16242,1.93E-02,3.04E-02
16243,1.91E-02,3.01E-02
16244,2.51E-02,2.99E-02
16245,2.36E-02,3.11E-02
16246,2.43E-02,3.09E-02
16247,2.32E-02,3.15E-02
16248,2.34E-02,3.14E-02
16249,2.29E-02,3.17E-02
16250,2.29E-02,3.17E-02
16251,2.32E-02,3.16E-02
16252,2.29E-02,3.17E-02
16253,2.31E-02,3.11E-02
16254,2.32E-02,3.14E-02
16255,2.29E-02,3.05E-02
16256,2.33E-02,3.08E-02
16257,2.26E-02,2.97E-02
16258,2.27E-02,3.01E-02
16259,2.23E-02,2.88E-02
16260,2.23E-02,2.93E-02
16261,2.19E-02,2.79E-02
16262,2.19E-02,2.84E-02
16263,2.19E-02,2.72E-02
16264,2.19E-02,2.75E-02
16265,2.19E-02,2.67E-02
16266,2.20E-02,2.69E-02
16267,2.19E-02,2.66E-02
16268,2.18E-02,2.66E-02
16269,2.20E-02,2.66E-02
16270,2.20E-02,2.66E-02
16271,2.27E-02,2.66E-02
16272,2.24E-02,2.66E-02
16273,2.28E-02,2.67E-02
16274,2.27E-02,2.66E-02
16275,2.26E-02,2.68E-02
16276,2.28E-02,2.68E-02
16277,2.23E-02,2.69E-02
16278,2.26E-02,2.69E-02
16279,2.22E-02,2.70E-02
16280,2.24E-02,2.69E-02
16281,2.28E-02,2.72E-02
16282,2.25E-02,2.71E-02
16283,2.30E-02,2.71E-02
16284,2.29E-02,2.72E-02
16285,2.31E-02,2.68E-02
16286,2.31E-02,2.69E-02
16287,2.29E-02,2.66E-02
16288,2.30E-02,2.67E-02
16289,2.26E-02,2.60E-02
16290,2.28E-02,2.64E-02
16291,2.23E-02,2.52E-02
16292,2.25E-02,2.56E-02
16293,2.20E-02,2.46E-02
16294,2.22E-02,2.48E-02
16295,2.20E-02,2.42E-02
16296,2.18E-02,2.44E-02
16297,2.24E-02,2.39E-02
16298,2.21E-02,2.40E-02
16299,2.26E-02,2.39E-02
16300,2.23E-02,2.39E-02
16301,2.29E-02,2.38E-02
16302,2.29E-02,2.38E-02
16303,2.30E-02,2.37E-02
16304,2.31E-02,2.38E-02
16305,2.31E-02,2.34E-02
16306,2.30E-02,2.36E-02
16307,2.29E-02,2.29E-02
16308,2.29E-02,2.31E-02
16309,2.26E-02,2.23E-02
16310,2.26E-02,2.26E-02
16311,2.22E-02,2.18E-02
16312,2.24E-02,2.20E-02
16313,2.23E-02,2.13E-02
16314,2.22E-02,2.16E-02
16315,2.27E-02,2.06E-02
16316,2.25E-02,2.10E-02
16317,2.28E-02,2.03E-02
16318,2.26E-02,2.04E-02
16319,2.29E-02,1.97E-02
16320,2.28E-02,2.00E-02
16321,2.26E-02,1.91E-02
16322,2.26E-02,1.94E-02
16323,2.23E-02,1.83E-02
16324,2.24E-02,1.87E-02
16325,2.21E-02,1.79E-02
16326,2.18E-02,1.73E-02
16327,2.20E-02,1.78E-02
16328,2.18E-02,1.76E-02
16329,2.21E-02,1.83E-02
16330,2.21E-02,1.81E-02
16331,2.21E-02,1.88E-02
16332,2.22E-02,1.86E-02
16333,2.21E-02,1.93E-02
16334,2.22E-02,1.90E-02
16335,2.21E-02,1.97E-02
16336,2.22E-02,1.95E-02
16337,2.19E-02,2.02E-02
16338,2.22E-02,2.00E-02
16339,2.20E-02,2.06E-02
16340,2.22E-02,2.04E-02
16341,2.20E-02,2.11E-02
16342,2.22E-02,2.09E-02
16343,2.21E-02,2.15E-02
16344,2.24E-02,2.13E-02
16345,2.21E-02,2.18E-02
16346,2.23E-02,2.17E-02
16347,2.23E-02,2.22E-02
16348,2.23E-02,2.20E-02
16349,2.22E-02,2.25E-02
16350,2.23E-02,2.23E-02
16351,2.20E-02,2.27E-02
16352,2.21E-02,2.26E-02
16353,2.20E-02,2.30E-02
16354,2.21E-02,2.29E-02
16355,2.19E-02,2.32E-02
16356,2.21E-02,2.31E-02
16357,2.19E-02,2.34E-02
16358,2.20E-02,2.33E-02
16359,2.12E-02,2.36E-02
16360,2.16E-02,2.35E-02
16361,2.05E-02,2.39E-02
16362,2.08E-02,2.37E-02
16363,2.03E-02,2.44E-02
16364,2.02E-02,2.41E-02
16365,2.13E-02,2.43E-02
16366,2.09E-02,2.45E-02
16367,2.19E-02,2.38E-02
16368,2.15E-02,2.40E-02
16369,2.24E-02,2.32E-02
16370,2.21E-02,2.35E-02
16371,2.20E-02,2.27E-02
16372,2.22E-02,2.30E-02
16373,2.18E-02,2.24E-02
16374,2.19E-02,2.25E-02
16375,2.19E-02,2.22E-02
16376,2.18E-02,2.23E-02
16377,2.22E-02,2.20E-02
16378,2.20E-02,2.21E-02
16379,2.25E-02,2.18E-02
16380,2.23E-02,2.18E-02
16381,2.22E-02,2.18E-02
16382,2.25E-02,2.18E-02
16383,2.20E-02,2.17E-02
16384,2.21E-02,2.18E-02
16385,2.20E-02,2.15E-02
16386,2.19E-02,2.17E-02
16387,2.21E-02,2.14E-02
16388,2.21E-02,2.14E-02
16389,2.22E-02,2.17E-02
16390,2.21E-02,2.15E-02
16391,2.24E-02,2.17E-02
16392,2.24E-02,2.17E-02
16393,2.26E-02,2.16E-02
16394,2.27E-02,2.16E-02
16395,2.22E-02,2.17E-02
16396,2.27E-02,2.17E-02
16397,2.21E-02,2.18E-02
16398,2.22E-02,2.18E-02
16399,2.22E-02,2.18E-02
16400,2.21E-02,2.18E-02
16401,2.27E-02,2.16E-02
16402,2.24E-02,2.17E-02
16403,2.22E-02,2.16E-02
16404,2.24E-02,2.16E-02
16405,2.21E-02,2.17E-02
16406,2.20E-02,2.16E-02
16407,2.20E-02,2.17E-02
16408,2.19E-02,2.17E-02
16409,2.20E-02,2.19E-02
16410,2.18E-02,2.18E-02
16411,2.24E-02,2.22E-02
16412,2.21E-02,2.20E-02
16413,2.27E-02,2.25E-02
16414,2.25E-02,2.24E-02
16415,2.28E-02,2.27E-02
16416,2.28E-02,2.26E-02
16417,2.26E-02,2.28E-02
16418,2.27E-02,2.27E-02
16419,2.22E-02,2.30E-02
16420,2.23E-02,2.29E-02
16421,2.21E-02,2.32E-02
16422,2.20E-02,2.31E-02
16423,2.23E-02,2.32E-02
16424,2.22E-02,2.32E-02
16425,2.27E-02,2.33E-02
16426,2.24E-02,2.32E-02
16427,2.26E-02,2.34E-02
16428,2.27E-02,2.34E-02
16429,2.26E-02,2.36E-02
16430,2.26E-02,2.35E-02
16431,2.22E-02,2.35E-02
16432,2.22E-02,2.36E-02
16433,2.21E-02,2.36E-02
16434,2.21E-02,2.34E-02
16435,2.22E-02,2.37E-02
16436,2.19E-02,2.37E-02
16437,2.22E-02,2.38E-02
16438,2.21E-02,2.37E-02
16439,2.25E-02,2.40E-02
16440,2.26E-02,2.39E-02
16441,2.31E-02,2.44E-02
16442,2.30E-02,2.42E-02
16443,2.36E-02,2.45E-02
16444,2.32E-02,2.45E-02
16445,2.45E-02,2.48E-02
16446,2.42E-02,2.46E-02
16447,2.52E-02,2.50E-02
16448,2.51E-02,2.59E-02
16449,2.20E-02,1.70E-02
16450,2.04E-02,2.48E-02
16451,1.60E-02,3.01E-02
16452,2.47E-02,2.64E-02
16453,2.45E-02,2.66E-02
16454,2.44E-02,2.65E-02
16455,2.37E-02,2.68E-02
16456,2.39E-02,2.67E-02
16457,2.30E-02,2.71E-02
16458,2.31E-02,2.69E-02
16459,2.24E-02,2.74E-02
16460,2.26E-02,2.72E-02
16461,2.24E-02,2.76E-02
16462,2.24E-02,2.75E-02
16463,2.25E-02,2.79E-02
16464,2.24E-02,2.78E-02
16465,2.24E-02,2.82E-02
16466,2.26E-02,2.81E-02
16467,2.24E-02,2.85E-02
16468,2.24E-02,2.84E-02
16469,2.23E-02,2.89E-02
16470,2.24E-02,2.87E-02
16471,2.23E-02,2.92E-02
16472,2.24E-02,2.90E-02
16473,2.24E-02,2.95E-02
16474,2.21E-02,2.93E-02
16475,2.26E-02,2.97E-02
16476,2.26E-02,2.96E-02
16477,1.99E-02,2.98E-02
16478,2.15E-02,2.98E-02
16479,2.47E-02,2.62E-02
16480,2.20E-02,1.70E-02
16481,2.20E-02,1.67E-02
16482,1.95E-02,2.97E-02
16483,1.99E-02,3.01E-02
16484,2.28E-02,3.13E-02
16485,2.14E-02,3.08E-02
16486,2.34E-02,3.22E-02
16487,2.38E-02,3.18E-02
16488,2.29E-02,3.25E-02
16489,2.31E-02,3.24E-02
16490,2.27E-02,3.25E-02
16491,2.26E-02,3.25E-02
16492,2.30E-02,3.25E-02
16493,2.29E-02,3.25E-02
16494,2.30E-02,3.23E-02
16495,2.30E-02,3.24E-02
16496,2.27E-02,3.15E-02
16497,2.28E-02,3.20E-02
16498,2.24E-02,3.02E-02
16499,2.25E-02,3.09E-02
16500,2.21E-02,2.86E-02
16501,2.23E-02,2.94E-02
16502,2.22E-02,2.74E-02
16503,2.20E-02,2.80E-02
16504,2.21E-02,2.66E-02
16505,2.21E-02,2.70E-02
16506,2.21E-02,2.61E-02
16507,2.23E-02,2.63E-02
16508,2.21E-02,2.60E-02
16509,2.21E-02,2.60E-02
16510,2.23E-02,2.62E-02
16511,2.22E-02,2.60E-02
16512,2.27E-02,2.66E-02
16513,2.26E-02,2.64E-02
16514,2.28E-02,2.70E-02
16515,2.28E-02,2.68E-02
16516,2.24E-02,2.71E-02
16517,2.26E-02,2.71E-02
16518,2.23E-02,2.69E-02
16519,2.24E-02,2.70E-02
16520,2.24E-02,2.69E-02
16521,2.24E-02,2.69E-02
16522,2.28E-02,2.73E-02
16523,2.26E-02,2.70E-02
16524,2.29E-02,2.78E-02
16525,2.28E-02,2.77E-02
16526,2.29E-02,2.80E-02
16527,2.29E-02,2.79E-02
16528,2.27E-02,2.75E-02
16529,2.27E-02,2.78E-02
16530,2.24E-02,2.63E-02
16531,2.27E-02,2.69E-02
16532,2.23E-02,2.51E-02
16533,2.25E-02,2.57E-02
16534,2.21E-02,2.41E-02
16535,2.21E-02,2.45E-02
16536,2.21E-02,2.35E-02
16537,2.20E-02,2.37E-02
16538,2.25E-02,2.35E-02
16539,2.23E-02,2.34E-02
16540,2.27E-02,2.39E-02
16541,2.25E-02,2.37E-02
16542,2.28E-02,2.42E-02
16543,2.27E-02,2.41E-02
16544,2.28E-02,2.42E-02
16545,2.29E-02,2.43E-02
16546,2.29E-02,2.39E-02
16547,2.28E-02,2.41E-02
16548,2.27E-02,2.32E-02
16549,2.27E-02,2.36E-02
16550,2.24E-02,2.24E-02
16551,2.26E-02,2.28E-02
16552,2.22E-02,2.15E-02
16553,2.23E-02,2.19E-02
16554,2.25E-02,2.11E-02
16555,2.24E-02,2.12E-02
16556,2.26E-02,2.07E-02
16557,2.25E-02,2.09E-02
16558,2.28E-02,2.05E-02
16559,2.26E-02,2.08E-02
16560,2.26E-02,1.99E-02
16561,2.27E-02,2.01E-02
16562,2.26E-02,1.90E-02
16563,2.27E-02,1.94E-02
16564,2.25E-02,1.83E-02
16565,2.25E-02,1.87E-02
16566,2.22E-02,1.74E-02
16567,2.23E-02,1.77E-02
16568,2.22E-02,1.66E-02
16569,2.23E-02,1.70E-02
16570,2.21E-02,1.76E-02
16571,2.20E-02,1.73E-02
16572,2.21E-02,1.81E-02
16573,2.21E-02,1.78E-02
16574,2.21E-02,1.86E-02
16575,2.22E-02,1.83E-02
16576,2.21E-02,1.91E-02
16577,2.22E-02,1.89E-02
16578,2.21E-02,1.96E-02
16579,2.22E-02,1.94E-02
16580,2.21E-02,2.01E-02
16581,2.22E-02,1.99E-02
16582,2.21E-02,2.06E-02
16583,2.22E-02,2.03E-02
16584,2.21E-02,2.10E-02
16585,2.22E-02,2.08E-02
16586,2.21E-02,2.14E-02
16587,2.22E-02,2.12E-02
16588,2.21E-02,2.18E-02
16589,2.22E-02,2.16E-02
16590,2.23E-02,2.22E-02
16591,2.22E-02,2.20E-02
16592,2.20E-02,2.25E-02
16593,2.23E-02,2.23E-02
16594,2.20E-02,2.28E-02
16595,2.22E-02,2.26E-02
16596,2.20E-02,2.30E-02
16597,2.22E-02,2.29E-02
16598,2.20E-02,2.33E-02
16599,2.22E-02,2.31E-02
16600,2.20E-02,2.35E-02
16601,2.20E-02,2.34E-02
16602,2.15E-02,2.37E-02
16603,2.17E-02,2.36E-02
16604,2.09E-02,2.39E-02
16605,2.12E-02,2.38E-02
16606,2.03E-02,2.44E-02
16607,2.06E-02,2.41E-02
16608,2.05E-02,2.47E-02
16609,2.06E-02,2.55E-02
16610,2.09E-02,2.52E-02
16611,2.07E-02,2.54E-02
16612,2.14E-02,2.45E-02
16613,2.11E-02,2.48E-02
16614,2.21E-02,2.39E-02
16615,2.17E-02,2.42E-02
16616,2.24E-02,2.33E-02
16617,2.22E-02,2.36E-02
16618,2.21E-02,2.26E-02
16619,2.22E-02,2.30E-02
16620,2.18E-02,2.19E-02
16621,2.19E-02,2.22E-02
16622,2.23E-02,2.16E-02
16623,2.21E-02,2.17E-02
16624,2.24E-02,2.18E-02
16625,2.22E-02,2.17E-02
16626,2.26E-02,2.20E-02
16627,2.24E-02,2.19E-02
16628,2.22E-02,2.18E-02
16629,2.24E-02,2.19E-02
16630,2.21E-02,2.14E-02
16631,2.22E-02,2.16E-02
16632,2.22E-02,2.13E-02
16633,2.22E-02,2.13E-02
16634,2.21E-02,2.11E-02
16635,2.21E-02,2.11E-02
16636,2.22E-02,2.13E-02
16637,2.19E-02,2.11E-02
16638,2.25E-02,2.16E-02
16639,2.24E-02,2.14E-02
16640,2.25E-02,2.19E-02
16641,2.26E-02,2.17E-02
16642,2.22E-02,2.19E-02
16643,2.26E-02,2.19E-02
16644,2.22E-02,2.16E-02
16645,2.22E-02,2.17E-02
16646,2.24E-02,2.15E-02
16647,2.22E-02,2.15E-02
16648,2.26E-02,2.16E-02
16649,2.23E-02,2.15E-02
16650,2.22E-02,2.15E-02
16651,2.25E-02,2.16E-02
16652,2.22E-02,2.13E-02
16653,2.21E-02,2.15E-02
16654,2.20E-02,2.13E-02
16655,2.20E-02,2.13E-02
16656,2.22E-02,2.14E-02
16657,2.20E-02,2.13E-02
16658,2.24E-02,2.19E-02
16659,2.22E-02,2.16E-02
16660,2.26E-02,2.25E-02
16661,2.25E-02,2.22E-02
16662,2.27E-02,2.30E-02
16663,2.27E-02,2.28E-02
16664,2.24E-02,2.31E-02
16665,2.25E-02,2.31E-02
16666,2.20E-02,2.28E-02
16667,2.22E-02,2.29E-02
16668,2.22E-02,2.27E-02
16669,2.20E-02,2.27E-02
16670,2.25E-02,2.29E-02
16671,2.23E-02,2.27E-02
16672,2.25E-02,2.34E-02
16673,2.24E-02,2.31E-02
16674,2.25E-02,2.35E-02
16675,2.25E-02,2.36E-02
16676,2.23E-02,2.37E-02
16677,2.23E-02,2.35E-02
16678,2.23E-02,2.33E-02
16679,2.24E-02,2.35E-02
16680,2.22E-02,2.32E-02
16681,2.22E-02,2.32E-02
16682,2.21E-02,2.32E-02
16683,2.21E-02,2.32E-02
16684,2.23E-02,2.34E-02
16685,2.22E-02,2.31E-02
16686,2.25E-02,2.37E-02
16687,2.24E-02,2.37E-02
16688,2.30E-02,2.43E-02
16689,2.27E-02,2.39E-02
16690,2.34E-02,2.44E-02
16691,2.32E-02,2.44E-02
16692,2.42E-02,2.46E-02
16693,2.37E-02,2.45E-02
16694,2.51E-02,2.46E-02
16695,2.47E-02,2.46E-02
16696,2.50E-02,2.50E-02
16697,2.50E-02,2.47E-02
16698,2.44E-02,2.55E-02
16699,2.21E-02,1.63E-02
16700,1.96E-02,2.95E-02
16701,2.06E-02,2.55E-02
16702,2.37E-02,2.61E-02
16703,2.41E-02,2.64E-02
16704,2.43E-02,2.64E-02
16705,2.40E-02,2.65E-02
16706,2.40E-02,2.66E-02
16707,2.36E-02,2.67E-02
16708,2.32E-02,2.69E-02
16709,2.29E-02,2.70E-02
16710,2.27E-02,2.72E-02
16711,2.24E-02,2.73E-02
16712,2.24E-02,2.75E-02
16713,2.24E-02,2.76E-02
16714,2.24E-02,2.78E-02
16715,2.24E-02,2.79E-02
16716,2.24E-02,2.81E-02
16717,2.24E-02,2.82E-02
16718,2.24E-02,2.84E-02
16719,2.23E-02,2.85E-02
16720,2.23E-02,2.87E-02
16721,2.23E-02,2.88E-02
16722,2.23E-02,2.90E-02
16723,2.22E-02,2.91E-02
16724,2.22E-02,2.93E-02
16725,2.22E-02,2.94E-02
16726,2.23E-02,2.96E-02
16727,2.23E-02,2.97E-02
16728,2.21E-02,2.97E-02
16729,2.15E-02,2.97E-02
16730,2.04E-02,2.96E-02
16731,2.00E-02,2.94E-02
16732,2.03E-02,2.89E-02
16733,2.10E-02,2.81E-02
16734,2.06E-02,2.91E-02
16735,2.09E-02,3.03E-02
16736,2.15E-02,3.14E-02
16737,2.25E-02,3.24E-02
16738,2.28E-02,3.33E-02
16739,2.28E-02,3.38E-02
16740,2.27E-02,3.39E-02
16741,2.26E-02,3.37E-02
16742,2.26E-02,3.34E-02
16743,2.27E-02,3.31E-02
16744,2.28E-02,3.30E-02
16745,2.29E-02,3.33E-02
16746,2.29E-02,3.38E-02
16747,2.28E-02,3.41E-02
16748,2.25E-02,3.41E-02
16749,2.24E-02,3.33E-02
16750,2.22E-02,3.22E-02
16751,2.23E-02,3.08E-02
16752,2.23E-02,2.95E-02
16753,2.21E-02,2.82E-02
16754,2.22E-02,2.72E-02
16755,2.23E-02,2.65E-02
16756,2.23E-02,2.62E-02
16757,2.23E-02,2.60E-02
16758,2.23E-02,2.57E-02
16759,2.23E-02,2.55E-02
16760,2.23E-02,2.53E-02
16761,2.24E-02,2.51E-02
16762,2.25E-02,2.51E-02
16763,2.26E-02,2.54E-02
16764,2.27E-02,2.61E-02
16765,2.27E-02,2.68E-02
16766,2.26E-02,2.74E-02
16767,2.25E-02,2.77E-02
16768,2.24E-02,2.76E-02
16769,2.24E-02,2.74E-02
16770,2.24E-02,2.71E-02
16771,2.24E-02,2.68E-02
16772,2.24E-02,2.67E-02
16773,2.25E-02,2.65E-02
16774,2.27E-02,2.67E-02
16775,2.28E-02,2.69E-02
16776,2.30E-02,2.73E-02
16777,2.28E-02,2.89E-02
16778,2.24E-02,3.03E-02
16779,2.25E-02,3.03E-02
16780,2.24E-02,2.95E-02
16781,2.25E-02,2.84E-02
16782,2.25E-02,2.75E-02
16783,2.23E-02,2.67E-02
16784,2.23E-02,2.60E-02
16785,2.21E-02,2.52E-02
16786,2.22E-02,2.42E-02
16787,2.23E-02,2.32E-02
16788,2.25E-02,2.24E-02
16789,2.25E-02,2.21E-02
16790,2.26E-02,2.23E-02
16791,2.26E-02,2.28E-02
16792,2.27E-02,2.34E-02
16793,2.27E-02,2.41E-02
16794,2.26E-02,2.47E-02
16795,2.27E-02,2.51E-02
16796,2.26E-02,2.51E-02
16797,2.26E-02,2.50E-02
16798,2.26E-02,2.48E-02
16799,2.26E-02,2.45E-02
16800,2.25E-02,2.42E-02
16801,2.24E-02,2.38E-02
16802,2.23E-02,2.33E-02
16803,2.22E-02,2.26E-02
16804,2.21E-02,2.18E-02
16805,2.23E-02,2.09E-02
16806,2.26E-02,2.01E-02
16807,2.29E-02,1.99E-02
16808,2.27E-02,2.09E-02
16809,2.21E-02,2.19E-02
16810,2.26E-02,2.12E-02
16811,2.27E-02,2.07E-02
16812,2.23E-02,2.07E-02
16813,2.25E-02,1.98E-02
16814,2.25E-02,1.95E-02
16815,2.24E-02,1.93E-02
16816,2.25E-02,1.84E-02
16817,2.25E-02,1.81E-02
16818,2.21E-02,1.81E-02
16819,2.22E-02,1.73E-02
16820,2.24E-02,1.63E-02
16821,2.25E-02,1.57E-02
16822,2.28E-02,1.54E-02
16823,2.25E-02,1.56E-02
16824,2.22E-02,1.60E-02
16825,2.22E-02,1.63E-02
16826,2.22E-02,1.67E-02
16827,2.22E-02,1.70E-02
16828,2.22E-02,1.73E-02
16829,2.22E-02,1.76E-02
16830,2.22E-02,1.79E-02
16831,2.22E-02,1.81E-02
16832,2.22E-02,1.84E-02
16833,2.22E-02,1.87E-02
16834,2.22E-02,1.89E-02
16835,2.21E-02,1.92E-02
16836,2.21E-02,1.95E-02
16837,2.21E-02,1.97E-02
16838,2.21E-02,2.00E-02
16839,2.21E-02,2.02E-02
16840,2.21E-02,2.05E-02
16841,2.21E-02,2.07E-02
16842,2.21E-02,2.10E-02
16843,2.21E-02,2.12E-02
16844,2.21E-02,2.14E-02
16845,2.21E-02,2.16E-02
16846,2.21E-02,2.18E-02
16847,2.21E-02,2.20E-02
16848,2.21E-02,2.22E-02
16849,2.21E-02,2.24E-02
16850,2.21E-02,2.25E-02
16851,2.21E-02,2.27E-02
16852,2.21E-02,2.28E-02
16853,2.21E-02,2.30E-02
16854,2.21E-02,2.31E-02
16855,2.21E-02,2.32E-02
16856,2.21E-02,2.33E-02
16857,2.20E-02,2.35E-02
16858,2.20E-02,2.36E-02
16859,2.18E-02,2.37E-02
16860,2.16E-02,2.38E-02
16861,2.14E-02,2.39E-02
16862,2.11E-02,2.41E-02
16863,2.09E-02,2.42E-02
16864,2.06E-02,2.44E-02
16865,2.05E-02,2.47E-02
16866,2.06E-02,2.54E-02
16867,2.09E-02,2.65E-02
16868,2.06E-02,2.72E-02
16869,2.06E-02,2.70E-02
16870,2.10E-02,2.60E-02
16871,2.13E-02,2.55E-02
16872,2.13E-02,2.52E-02
16873,2.17E-02,2.48E-02
16874,2.20E-02,2.43E-02
16875,2.22E-02,2.41E-02
16876,2.22E-02,2.39E-02
16877,2.23E-02,2.36E-02
16878,2.22E-02,2.32E-02
16879,2.21E-02,2.27E-02
16880,2.20E-02,2.20E-02
16881,2.21E-02,2.11E-02
16882,2.24E-02,2.03E-02
16883,2.26E-02,2.02E-02
16884,2.26E-02,2.07E-02
16885,2.25E-02,2.16E-02
16886,2.24E-02,2.24E-02
16887,2.24E-02,2.28E-02
16888,2.22E-02,2.26E-02
16889,2.21E-02,2.20E-02
16890,2.21E-02,2.14E-02
16891,2.21E-02,2.08E-02
16892,2.25E-02,2.05E-02
16893,2.25E-02,2.07E-02
16894,2.22E-02,2.12E-02
16895,2.21E-02,2.13E-02
16896,2.22E-02,2.06E-02
16897,2.27E-02,2.01E-02
16898,2.27E-02,2.03E-02
16899,2.25E-02,2.13E-02
16900,2.23E-02,2.24E-02
16901,2.22E-02,2.29E-02
16902,2.22E-02,2.27E-02
16903,2.21E-02,2.22E-02
16904,2.20E-02,2.15E-02
16905,2.23E-02,2.09E-02
16906,2.25E-02,2.07E-02
16907,2.25E-02,2.10E-02
16908,2.24E-02,2.15E-02
16909,2.24E-02,2.19E-02
16910,2.23E-02,2.19E-02
16911,2.22E-02,2.16E-02
16912,2.22E-02,2.12E-02
16913,2.22E-02,2.09E-02
16914,2.22E-02,2.07E-02
16915,2.23E-02,2.06E-02
16916,2.23E-02,2.06E-02
16917,2.24E-02,2.08E-02
16918,2.25E-02,2.11E-02
16919,2.25E-02,2.15E-02
16920,2.26E-02,2.19E-02
16921,2.27E-02,2.25E-02
16922,2.27E-02,2.30E-02
16923,2.26E-02,2.36E-02
16924,2.22E-02,2.41E-02
16925,2.21E-02,2.40E-02
16926,2.20E-02,2.33E-02
16927,2.22E-02,2.23E-02
16928,2.24E-02,2.15E-02
16929,2.25E-02,2.13E-02
16930,2.26E-02,2.19E-02
16931,2.25E-02,2.28E-02
16932,2.23E-02,2.34E-02
16933,2.25E-02,2.34E-02
16934,2.26E-02,2.37E-02
16935,2.21E-02,2.45E-02
16936,2.21E-02,2.40E-02
16937,2.27E-02,2.28E-02
16938,2.24E-02,2.30E-02
16939,2.19E-02,2.38E-02
16940,2.20E-02,2.34E-02
16941,2.23E-02,2.24E-02
16942,2.25E-02,2.17E-02
16943,2.26E-02,2.20E-02
16944,2.24E-02,2.29E-02
16945,2.24E-02,2.32E-02
16946,2.26E-02,2.30E-02
16947,2.23E-02,2.40E-02
16948,2.23E-02,2.41E-02
16949,2.31E-02,2.33E-02
16950,2.30E-02,2.40E-02
16951,2.28E-02,2.49E-02
16952,2.32E-02,2.51E-02
16953,2.37E-02,2.48E-02
16954,2.43E-02,2.42E-02
16955,2.48E-02,2.36E-02
16956,2.50E-02,2.33E-02
16957,2.52E-02,2.32E-02
16958,2.44E-02,2.38E-02
16959,2.31E-02,2.51E-02
16973,3.41E-02,4.71E-02
16974,3.50E-02,4.75E-02
16975,2.92E-02,4.83E-02
16976,3.42E-02,8.36E-03
16977,3.39E-02,7.49E-03
16978,2.98E-02,8.44E-03
16979,4.27E-02,7.05E-03
16980,4.77E-02,8.04E-03
16981,2.29E-02,2.21E-02
16982,1.72E-02,2.23E-02
16983,2.21E-02,9.09E-03
16984,2.88E-02,2.18E-02
16985,2.60E-02,2.16E-02
16986,2.74E-02,2.19E-02
16987,2.10E-02,2.19E-02
16988,2.37E-02,2.21E-02
16989,3.56E-02,4.49E-02
16990,2.95E-02,4.53E-02
16991,1.17E-02,3.09E-02
16992,1.13E-02,3.04E-02
16993,1.17E-02,3.12E-02
16994,1.68E-02,4.00E-02
16995,1.98E-02,3.88E-02
16996,1.86E-02,4.01E-02
16997,1.79E-02,3.00E-02
16998,2.32E-02,2.88E-02
16999,2.53E-02,2.92E-02
17000,3.61E-02,9.84E-03
17001,3.70E-02,8.67E-03
17002,2.93E-02,1.10E-02
17003,4.31E-02,9.54E-03
17004,4.59E-02,7.11E-03
17005,4.64E-02,6.07E-03
17006,4.11E-02,6.01E-03
17007,2.31E-02,5.47E-03
17008,3.65E-02,2.79E-02
17009,3.39E-02,2.78E-02
17010,3.38E-02,2.60E-02
17011,3.43E-02,2.59E-02
17012,2.74E-02,2.47E-02
17013,2.81E-02,2.48E-02
17014,2.12E-02,2.22E-02
17015,1.67E-02,2.24E-02
17016,2.47E-02,2.21E-02
17017,2.06E-02,3.29E-02
17018,1.97E-02,3.18E-02
17019,2.51E-02,9.63E-03
17020,2.40E-02,9.34E-03
17021,2.02E-02,2.12E-02
17022,1.93E-02,2.11E-02
17023,2.20E-02,2.17E-02
17024,2.62E-02,2.16E-02
17025,2.72E-02,2.14E-02
17026,2.50E-02,2.14E-02
17027,2.12E-02,2.18E-02
17028,2.00E-02,2.13E-02
17029,2.41E-02,2.14E-02
17030,2.37E-02,2.14E-02
17031,2.38E-02,2.15E-02
17032,2.34E-02,2.15E-02
17033,2.33E-02,2.15E-02
17034,2.31E-02,2.15E-02
17035,2.30E-02,2.15E-02
17036,2.27E-02,2.15E-02
17037,2.26E-02,2.15E-02
17038,2.24E-02,2.15E-02
17039,2.23E-02,2.15E-02
17040,2.22E-02,2.15E-02
17041,2.21E-02,2.16E-02
17042,2.20E-02,2.16E-02
17043,2.22E-02,2.16E-02
17044,2.20E-02,2.16E-02
17045,2.12E-02,2.18E-02
17046,2.07E-02,2.13E-02
17047,1.83E-02,2.19E-02
17048,2.13E-02,2.18E-02
17049,2.08E-02,2.13E-02
17050,2.10E-02,2.17E-02
17051,1.98E-02,2.17E-02
17052,2.01E-02,2.26E-02
17053,2.11E-02,2.26E-02
17054,2.13E-02,2.18E-02
17055,2.10E-02,2.07E-02
17056,1.95E-02,2.16E-02
17057,1.69E-02,2.06E-02
17058,1.93E-02,2.07E-02
17059,2.09E-02,2.13E-02
17060,1.89E-02,2.24E-02
17061,1.61E-02,2.26E-02
17062,2.24E-02,2.24E-02
17063,2.70E-02,2.23E-02
17064,2.23E-02,2.23E-02
17065,2.24E-02,2.24E-02
17066,2.23E-02,2.23E-02
17067,2.23E-02,2.23E-02
17068,2.27E-02,2.22E-02
17069,2.25E-02,2.22E-02
17070,2.29E-02,2.22E-02
17071,2.27E-02,2.22E-02
17072,2.32E-02,2.22E-02
17073,2.30E-02,2.22E-02
17074,2.37E-02,2.21E-02
17075,2.35E-02,2.21E-02
17076,2.42E-02,2.21E-02
17077,2.37E-02,2.21E-02
17078,2.52E-02,2.21E-02
17079,2.46E-02,2.21E-02
17080,2.33E-02,2.22E-02
17081,2.44E-02,2.21E-02
17082,2.17E-02,2.23E-02
17083,2.21E-02,2.22E-02
17084,2.19E-02,2.22E-02
17085,2.17E-02,2.23E-02
17086,2.45E-02,2.24E-02
17087,2.54E-02,2.23E-02
17088,2.60E-02,2.13E-02
17089,2.38E-02,2.13E-02
17090,2.40E-02,2.23E-02
17091,2.16E-02,2.18E-02
17092,2.19E-02,2.22E-02
17093,2.07E-02,2.08E-02
17094,2.05E-02,2.08E-02
17095,2.08E-02,2.08E-02
17096,2.05E-02,2.08E-02
17097,2.43E-02,2.08E-02
17098,2.61E-02,2.08E-02
17099,2.36E-02,2.08E-02
17100,2.35E-02,2.08E-02
17101,2.35E-02,2.08E-02
17102,2.35E-02,2.08E-02
17103,2.33E-02,2.08E-02
17104,2.34E-02,2.08E-02
17105,2.28E-02,2.08E-02
17106,2.32E-02,2.08E-02
17107,2.25E-02,2.08E-02
17108,2.28E-02,2.08E-02
17109,2.20E-02,2.08E-02
17110,2.21E-02,2.08E-02
17111,2.23E-02,2.08E-02
17112,2.21E-02,2.08E-02
17113,2.05E-02,2.08E-02
17114,2.24E-02,2.08E-02
17115,2.23E-02,2.09E-02
17116,2.29E-02,2.09E-02
17117,1.70E-02,2.08E-02
17118,2.05E-02,2.08E-02
17119,1.99E-02,2.10E-02
17120,2.15E-02,2.13E-02
17121,2.18E-02,2.24E-02
17122,2.10E-02,2.13E-02
17123,2.22E-02,2.27E-02
17124,2.20E-02,2.27E-02
17125,2.03E-02,2.01E-02
17126,2.01E-02,2.02E-02
17127,2.08E-02,2.01E-02
17128,2.31E-02,2.34E-02
17129,2.32E-02,2.34E-02
17130,2.60E-02,2.05E-02
17131,2.67E-02,2.06E-02
17132,2.07E-02,2.03E-02
17133,2.08E-02,2.08E-02
17134,2.07E-02,2.03E-02
17135,2.04E-02,2.34E-02
17136,2.17E-02,2.34E-02
17137,2.19E-02,2.32E-02
17138,2.13E-02,2.33E-02
17139,2.29E-02,2.32E-02
17140,2.24E-02,2.32E-02
17141,2.22E-02,2.31E-02
17142,2.26E-02,2.31E-02
17143,2.25E-02,2.30E-02
17144,2.24E-02,2.30E-02
17145,2.28E-02,2.29E-02
17146,2.28E-02,2.30E-02
17147,2.30E-02,2.29E-02
17148,2.27E-02,2.29E-02
17149,2.30E-02,2.28E-02
17150,2.30E-02,2.29E-02
17151,2.32E-02,2.28E-02
17152,2.31E-02,2.28E-02
17153,2.37E-02,2.27E-02
17154,2.35E-02,2.27E-02
17155,2.40E-02,2.27E-02
17156,2.40E-02,2.27E-02
17157,2.29E-02,2.27E-02
17158,2.35E-02,2.27E-02
17159,2.22E-02,2.27E-02
17160,2.25E-02,2.27E-02
17161,2.20E-02,2.27E-02
17162,2.21E-02,2.26E-02
17163,2.16E-02,2.17E-02
17164,2.18E-02,2.22E-02
17165,2.10E-02,2.08E-02
17166,2.11E-02,2.13E-02
17167,2.06E-02,2.02E-02
17168,2.07E-02,2.03E-02
17169,2.08E-02,2.02E-02
17170,2.31E-02,2.01E-02
17171,2.19E-02,2.01E-02
17172,2.35E-02,2.01E-02
17173,2.35E-02,2.01E-02
17174,2.32E-02,2.01E-02
17175,2.34E-02,2.01E-02
17176,2.33E-02,2.01E-02
17177,2.32E-02,2.01E-02
17178,2.26E-02,2.01E-02
17179,2.31E-02,2.01E-02
17180,2.26E-02,2.01E-02
17181,2.27E-02,2.01E-02
17182,2.22E-02,2.00E-02
17183,2.24E-02,2.00E-02
17184,2.23E-02,2.00E-02
17185,2.23E-02,2.00E-02
17186,2.21E-02,2.00E-02
17187,2.22E-02,2.00E-02
17188,2.16E-02,2.00E-02
17189,2.13E-02,2.00E-02
17190,2.08E-02,2.00E-02
17191,2.10E-02,2.00E-02
17192,2.24E-02,2.02E-02
17193,2.16E-02,2.01E-02
17194,2.36E-02,2.03E-02
17195,2.29E-02,2.03E-02
17196,2.47E-02,2.04E-02
17197,2.57E-02,2.33E-02
17198,2.24E-02,2.34E-02
17199,2.04E-02,2.35E-02
17200,2.82E-02,2.32E-02
17201,2.08E-02,2.04E-02
17202,2.09E-02,1.96E-02
17203,2.08E-02,1.96E-02
17204,2.12E-02,1.95E-02
17205,2.23E-02,2.31E-02
17206,2.23E-02,2.26E-02
17207,2.23E-02,2.30E-02
17208,2.78E-02,2.06E-02
17209,2.74E-02,2.19E-02
17210,2.75E-02,2.32E-02
17211,2.19E-02,2.44E-02
17212,2.16E-02,2.43E-02
17213,2.16E-02,2.44E-02
17214,2.14E-02,2.42E-02
17215,2.16E-02,2.43E-02
17216,2.20E-02,2.41E-02
17217,2.17E-02,2.42E-02
17218,2.24E-02,2.40E-02
17219,2.23E-02,2.40E-02
17220,2.23E-02,2.38E-02
17221,2.24E-02,2.39E-02
17222,2.26E-02,2.37E-02
17223,2.24E-02,2.38E-02
17224,2.28E-02,2.36E-02
17225,2.28E-02,2.37E-02
17226,2.26E-02,2.36E-02
17227,2.26E-02,2.36E-02
17228,2.28E-02,2.35E-02
17229,2.27E-02,2.35E-02
17230,2.30E-02,2.34E-02
17231,2.29E-02,2.34E-02
17232,2.34E-02,2.33E-02
17233,2.32E-02,2.33E-02
17234,2.33E-02,2.33E-02
17235,2.35E-02,2.33E-02
17236,2.27E-02,2.32E-02
17237,2.31E-02,2.33E-02
17238,2.23E-02,2.32E-02
17239,2.25E-02,2.32E-02
17240,2.23E-02,2.32E-02
17241,2.24E-02,2.32E-02
17242,2.23E-02,2.31E-02
17243,2.15E-02,2.17E-02
17244,2.20E-02,2.22E-02
17245,2.10E-02,2.08E-02
17246,2.13E-02,2.13E-02
17247,2.07E-02,1.99E-02
17248,2.07E-02,1.98E-02
17249,2.07E-02,1.98E-02
17250,2.09E-02,1.97E-02
17251,2.09E-02,1.98E-02
17252,2.09E-02,1.97E-02
17253,2.25E-02,1.95E-02
17254,2.18E-02,1.95E-02
17255,2.32E-02,1.94E-02
17256,2.30E-02,1.94E-02
17257,2.30E-02,1.94E-02
17258,2.31E-02,1.94E-02
17259,2.30E-02,1.94E-02
17260,2.31E-02,1.94E-02
17261,2.26E-02,1.93E-02
17262,2.29E-02,1.94E-02
17263,2.23E-02,1.93E-02
17264,2.25E-02,1.93E-02
17265,2.25E-02,1.92E-02
17266,2.24E-02,1.93E-02
17267,2.25E-02,1.92E-02
17268,2.26E-02,1.92E-02
17269,2.26E-02,1.92E-02
17270,2.26E-02,1.92E-02
17271,2.20E-02,1.92E-02
17272,2.23E-02,1.92E-02
17273,2.15E-02,1.92E-02
17274,2.16E-02,1.91E-02
17275,2.22E-02,1.92E-02
17276,2.19E-02,1.92E-02
17277,2.29E-02,1.93E-02
17278,2.27E-02,1.93E-02
17279,2.34E-02,1.93E-02
17280,2.27E-02,1.93E-02
17281,2.78E-02,1.93E-02
17282,2.48E-02,1.94E-02
17283,2.21E-02,2.44E-02
17284,2.08E-02,2.04E-02
17285,2.26E-02,2.35E-02
17286,2.28E-02,2.35E-02
17287,2.58E-02,2.32E-02
17288,2.80E-02,2.07E-02
17289,2.64E-02,2.20E-02
17290,2.46E-02,1.82E-02
17291,2.09E-02,1.94E-02
17292,2.10E-02,1.90E-02
17293,2.30E-02,2.44E-02
17294,2.12E-02,1.90E-02
17295,2.14E-02,1.89E-02
17296,2.34E-02,2.44E-02
17297,2.50E-02,2.44E-02
17298,2.06E-02,1.99E-02
17299,2.08E-02,1.94E-02
17300,2.21E-02,2.55E-02
17301,2.18E-02,2.54E-02
17302,2.19E-02,2.54E-02
17303,2.17E-02,2.52E-02
17304,2.17E-02,2.53E-02
17305,2.17E-02,2.51E-02
17306,2.15E-02,2.52E-02
17307,2.21E-02,2.49E-02
17308,2.20E-02,2.50E-02
17309,2.23E-02,2.47E-02
17310,2.21E-02,2.48E-02
17311,2.23E-02,2.46E-02
17312,2.22E-02,2.47E-02
17313,2.28E-02,2.44E-02
17314,2.24E-02,2.45E-02
17315,2.31E-02,2.43E-02
17316,2.29E-02,2.44E-02
17317,2.25E-02,2.42E-02
17318,2.27E-02,2.42E-02
17319,2.26E-02,2.41E-02
17320,2.23E-02,2.42E-02
17321,2.28E-02,2.40E-02
17322,2.28E-02,2.41E-02
17323,2.30E-02,2.39E-02
17324,2.30E-02,2.39E-02
17325,2.30E-02,2.38E-02
17326,2.30E-02,2.39E-02
17327,2.27E-02,2.38E-02
17328,2.29E-02,2.38E-02
17329,2.24E-02,2.37E-02
17330,2.25E-02,2.37E-02
17331,2.25E-02,2.36E-02
17332,2.25E-02,2.37E-02
17333,2.27E-02,2.36E-02
17334,2.29E-02,2.34E-02
17335,2.24E-02,2.26E-02
17336,2.26E-02,2.30E-02
17337,2.17E-02,2.17E-02
17338,2.23E-02,2.22E-02
17339,2.12E-02,2.09E-02
17340,2.15E-02,2.13E-02
17341,2.07E-02,2.00E-02
17342,2.09E-02,2.04E-02
17343,2.10E-02,1.93E-02
17344,2.09E-02,1.93E-02
17345,2.09E-02,1.92E-02
17346,2.10E-02,1.92E-02
17347,2.11E-02,1.91E-02
17348,2.22E-02,1.88E-02
17349,2.17E-02,1.89E-02
17350,2.25E-02,1.87E-02
17351,2.24E-02,1.88E-02
17352,2.28E-02,1.87E-02
17353,2.26E-02,1.87E-02
17354,2.27E-02,1.86E-02
17355,2.28E-02,1.87E-02
17356,2.24E-02,1.86E-02
17357,2.27E-02,1.86E-02
17358,2.25E-02,1.85E-02
17359,2.26E-02,1.86E-02
17360,2.26E-02,1.85E-02
17361,2.24E-02,1.85E-02
17362,2.27E-02,1.84E-02
17363,2.28E-02,1.84E-02
17364,2.27E-02,1.83E-02
17365,2.26E-02,1.84E-02
17366,2.21E-02,1.83E-02
17367,2.24E-02,1.83E-02
17368,2.21E-02,1.82E-02
17369,2.20E-02,1.83E-02
17370,2.24E-02,1.82E-02
17371,2.21E-02,1.82E-02
17372,2.27E-02,1.83E-02
17373,2.25E-02,1.83E-02
17374,2.31E-02,1.83E-02
17375,2.27E-02,1.83E-02
17376,2.41E-02,1.82E-02
17377,2.99E-02,1.94E-02
17378,2.34E-02,2.55E-02
17379,2.48E-02,2.44E-02
17380,2.08E-02,1.95E-02
17381,2.12E-02,1.84E-02
17382,2.13E-02,1.83E-02
17383,2.46E-02,2.32E-02
17384,2.31E-02,2.38E-02
17385,2.29E-02,2.34E-02
17386,2.31E-02,2.37E-02
17387,2.06E-02,1.70E-02
17388,2.02E-02,1.71E-02
17389,2.56E-02,1.82E-02
17390,2.77E-02,2.08E-02
17391,2.10E-02,1.84E-02
17392,2.39E-02,2.55E-02
17393,2.41E-02,2.56E-02
17394,2.35E-02,2.66E-02
17395,2.23E-02,2.65E-02
17396,2.29E-02,2.65E-02
17397,2.15E-02,2.63E-02
17398,2.16E-02,2.64E-02
17399,2.16E-02,2.61E-02
17400,2.16E-02,2.62E-02
17401,2.20E-02,2.59E-02
17402,2.17E-02,2.60E-02
17403,2.21E-02,2.57E-02
17404,2.20E-02,2.58E-02
17405,2.20E-02,2.55E-02
17406,2.19E-02,2.56E-02
17407,2.22E-02,2.53E-02
17408,2.21E-02,2.54E-02
17409,2.27E-02,2.51E-02
17410,2.25E-02,2.52E-02
17411,2.30E-02,2.50E-02
17412,2.28E-02,2.50E-02
17413,2.24E-02,2.48E-02
17414,2.27E-02,2.49E-02
17415,2.24E-02,2.47E-02
17416,2.24E-02,2.48E-02
17417,2.28E-02,2.46E-02
17418,2.25E-02,2.47E-02
17419,2.29E-02,2.45E-02
17420,2.27E-02,2.45E-02
17421,2.29E-02,2.43E-02
17422,2.29E-02,2.44E-02
17423,2.23E-02,2.42E-02
17424,2.28E-02,2.43E-02
17425,2.24E-02,2.42E-02
17426,2.23E-02,2.42E-02
17427,2.24E-02,2.41E-02
17428,2.23E-02,2.41E-02
17429,2.30E-02,2.39E-02
17430,2.27E-02,2.40E-02
17431,2.30E-02,2.39E-02
17432,2.26E-02,2.26E-02
17433,2.28E-02,2.30E-02
17434,2.19E-02,2.17E-02
17435,2.21E-02,2.21E-02
17436,2.13E-02,2.09E-02
17437,2.16E-02,2.13E-02
17438,2.10E-02,2.00E-02
17439,2.11E-02,2.04E-02
17440,2.37E-02,2.67E-02
17441,2.09E-02,1.90E-02
17442,2.10E-02,1.89E-02
17443,2.09E-02,1.90E-02
17444,2.12E-02,1.88E-02
17445,2.11E-02,1.88E-02
17446,2.14E-02,1.86E-02
17447,2.11E-02,1.87E-02
17448,2.14E-02,1.85E-02
17449,2.19E-02,1.82E-02
17450,2.15E-02,1.82E-02
17451,2.22E-02,1.80E-02
17452,2.20E-02,1.81E-02
17453,2.25E-02,1.80E-02
17454,2.23E-02,1.80E-02
17455,2.28E-02,1.79E-02
17456,2.27E-02,1.79E-02
17457,2.25E-02,1.79E-02
17458,2.28E-02,1.79E-02
17459,2.25E-02,1.78E-02
17460,2.24E-02,1.78E-02
17461,2.26E-02,1.76E-02
17462,2.25E-02,1.77E-02
17463,2.28E-02,1.76E-02
17464,2.28E-02,1.76E-02
17465,2.28E-02,1.75E-02
17466,2.28E-02,1.75E-02
17467,2.23E-02,1.74E-02
17468,2.25E-02,1.74E-02
17469,2.21E-02,1.73E-02
17470,2.23E-02,1.73E-02
17471,2.21E-02,1.73E-02
17472,2.20E-02,1.73E-02
17473,2.25E-02,1.72E-02
17474,2.22E-02,1.72E-02
17475,2.20E-02,1.72E-02
17476,2.25E-02,1.72E-02
17477,2.17E-02,1.71E-02
17478,2.44E-02,2.56E-02
17479,2.44E-02,2.44E-02
17480,2.10E-02,1.95E-02
17481,2.29E-02,2.42E-02
17482,2.30E-02,2.41E-02
17483,2.12E-02,1.78E-02
17484,2.11E-02,1.77E-02
17485,2.13E-02,1.60E-02
17486,2.12E-02,1.60E-02
17487,2.10E-02,1.70E-02
17488,3.04E-02,1.96E-02
17489,1.99E-02,2.14E-02
17490,2.38E-02,2.57E-02
17491,2.43E-02,2.68E-02
17492,2.48E-02,2.69E-02
17493,2.25E-02,2.33E-02
17494,2.12E-02,1.85E-02
17495,2.09E-02,1.91E-02
17496,2.11E-02,1.86E-02
17497,2.48E-02,2.69E-02
17498,2.69E-02,2.81E-02
17499,2.39E-02,2.80E-02
17500,2.69E-02,2.81E-02
17501,2.29E-02,2.77E-02
17502,2.35E-02,2.78E-02
17503,2.20E-02,2.75E-02
17504,2.25E-02,2.76E-02
17505,2.12E-02,2.72E-02
17506,2.16E-02,2.73E-02
17507,2.15E-02,2.70E-02
17508,2.13E-02,2.71E-02
17509,2.21E-02,2.68E-02
17510,2.16E-02,2.69E-02
17511,2.22E-02,2.65E-02
17512,2.21E-02,2.66E-02
17513,2.20E-02,2.63E-02
17514,2.20E-02,2.64E-02
17515,2.22E-02,2.61E-02
17516,2.21E-02,2.62E-02
17517,2.28E-02,2.58E-02
17518,2.25E-02,2.59E-02
17519,2.30E-02,2.56E-02
17520,2.30E-02,2.57E-02
17521,2.23E-02,2.55E-02
17522,2.26E-02,2.56E-02
17523,2.23E-02,2.53E-02
17524,2.22E-02,2.54E-02
17525,2.23E-02,2.52E-02
17526,2.21E-02,2.53E-02
17527,2.25E-02,2.50E-02
17528,2.25E-02,2.51E-02
17529,2.26E-02,2.49E-02
17530,2.25E-02,2.49E-02
17531,2.22E-02,2.47E-02
17532,2.25E-02,2.48E-02
17533,2.24E-02,2.46E-02
17534,2.23E-02,2.47E-02
17535,2.25E-02,2.45E-02
17536,2.24E-02,2.45E-02
17537,2.26E-02,2.43E-02
17538,2.25E-02,2.44E-02
17539,2.26E-02,2.43E-02
17540,2.33E-02,2.40E-02
17541,2.31E-02,2.33E-02
17542,2.32E-02,2.37E-02
17543,2.28E-02,2.25E-02
17544,2.29E-02,2.29E-02
17545,2.21E-02,2.17E-02
17546,2.22E-02,2.21E-02
17547,2.16E-02,2.09E-02
17548,2.18E-02,2.13E-02
17549,2.11E-02,2.00E-02
17550,2.13E-02,2.05E-02
17551,2.09E-02,1.91E-02
17552,2.12E-02,1.96E-02
17553,2.13E-02,1.84E-02
17554,2.13E-02,1.85E-02
17555,2.15E-02,1.82E-02
17556,2.12E-02,1.83E-02
17557,2.14E-02,1.80E-02
17558,2.15E-02,1.81E-02
17559,2.14E-02,1.79E-02
17560,2.16E-02,1.75E-02
17561,2.13E-02,1.77E-02
17562,2.13E-02,1.76E-02
17563,2.19E-02,1.74E-02
17564,2.17E-02,1.74E-02
17565,2.24E-02,1.73E-02
17566,2.20E-02,1.73E-02
17567,2.26E-02,1.72E-02
17568,2.24E-02,1.72E-02
17569,2.27E-02,1.71E-02
17570,2.28E-02,1.71E-02
17571,2.24E-02,1.70E-02
17572,2.25E-02,1.70E-02
17573,2.27E-02,1.68E-02
17574,2.25E-02,1.69E-02
17575,2.28E-02,1.67E-02
17576,2.28E-02,1.68E-02
17577,2.28E-02,1.66E-02
17578,2.28E-02,1.67E-02
17579,2.23E-02,1.65E-02
17580,2.25E-02,1.65E-02
17581,2.21E-02,1.64E-02
17582,2.22E-02,1.64E-02
17583,2.21E-02,1.63E-02
17584,2.21E-02,1.63E-02
17585,2.19E-02,1.62E-02
17586,2.18E-02,1.62E-02
17587,2.18E-02,1.61E-02
17588,2.18E-02,1.62E-02
17589,2.14E-02,1.61E-02
17590,2.33E-02,2.45E-02
17591,2.09E-02,1.87E-02
17592,2.11E-02,1.59E-02
17593,2.58E-02,1.83E-02
17594,2.37E-02,2.57E-02
17595,2.31E-02,2.44E-02
17596,2.35E-02,2.40E-02
17597,2.39E-02,2.43E-02
17598,2.16E-02,2.34E-02
17599,2.35E-02,2.69E-02
17600,2.29E-02,2.80E-02
17601,2.21E-02,2.92E-02
17602,1.98E-02,2.97E-02
17603,2.31E-02,2.91E-02
17604,2.51E-02,2.92E-02
17605,2.23E-02,2.88E-02
17606,2.23E-02,2.89E-02
17607,2.16E-02,2.84E-02
17608,2.20E-02,2.86E-02
17609,2.14E-02,2.81E-02
17610,2.14E-02,2.83E-02
17611,2.17E-02,2.79E-02
17612,2.14E-02,2.80E-02
17613,2.22E-02,2.76E-02
17614,2.18E-02,2.78E-02
17615,2.22E-02,2.73E-02
17616,2.22E-02,2.75E-02
17617,2.21E-02,2.71E-02
17618,2.19E-02,2.72E-02
17619,2.22E-02,2.68E-02
17620,2.21E-02,2.69E-02
17621,2.29E-02,2.65E-02
17622,2.25E-02,2.67E-02
17623,2.30E-02,2.63E-02
17624,2.30E-02,2.64E-02
17625,2.24E-02,2.61E-02
17626,2.28E-02,2.62E-02
17627,2.21E-02,2.59E-02
17628,2.23E-02,2.60E-02
17629,2.21E-02,2.57E-02
17630,2.19E-02,2.58E-02
17631,2.25E-02,2.55E-02
17632,2.23E-02,2.56E-02
17633,2.26E-02,2.54E-02
17634,2.25E-02,2.54E-02
17635,2.22E-02,2.52E-02
17636,2.25E-02,2.53E-02
17637,2.24E-02,2.50E-02
17638,2.23E-02,2.51E-02
17639,2.22E-02,2.49E-02
17640,2.23E-02,2.50E-02
17641,2.25E-02,2.47E-02
17642,2.22E-02,2.48E-02
17643,2.27E-02,2.46E-02
17644,2.25E-02,2.46E-02
17645,2.29E-02,2.45E-02
17646,2.31E-02,2.33E-02
17647,2.32E-02,2.36E-02
17648,2.27E-02,2.25E-02
17649,2.29E-02,2.29E-02
17650,2.23E-02,2.17E-02
17651,2.24E-02,2.21E-02
17652,2.17E-02,2.09E-02
17653,2.17E-02,2.13E-02
17654,2.15E-02,2.01E-02
17655,2.16E-02,2.05E-02
17656,2.12E-02,1.92E-02
17657,2.13E-02,1.96E-02
17658,2.11E-02,1.82E-02
17659,2.12E-02,1.81E-02
17660,2.12E-02,1.81E-02
17661,2.14E-02,1.79E-02
17662,2.14E-02,1.80E-02
17663,2.19E-02,1.77E-02
17664,2.16E-02,1.78E-02
17665,2.16E-02,1.75E-02
17666,2.17E-02,1.76E-02
17667,2.13E-02,1.72E-02
17668,2.15E-02,1.73E-02
17669,2.13E-02,1.70E-02
17670,2.13E-02,1.71E-02
17671,2.13E-02,1.68E-02
17672,2.13E-02,1.69E-02
17673,2.17E-02,1.67E-02
17674,2.14E-02,1.67E-02
17675,2.24E-02,1.65E-02
17676,2.19E-02,1.66E-02
17677,2.26E-02,1.64E-02
17678,2.24E-02,1.65E-02
17679,2.27E-02,1.63E-02
17680,2.28E-02,1.64E-02
17681,2.25E-02,1.62E-02
17682,2.25E-02,1.63E-02
17683,2.26E-02,1.60E-02
17684,2.25E-02,1.61E-02
17685,2.28E-02,1.59E-02
17686,2.28E-02,1.59E-02
17687,2.28E-02,1.57E-02
17688,2.28E-02,1.58E-02
17689,2.23E-02,1.56E-02
17690,2.25E-02,1.56E-02
17691,2.21E-02,1.54E-02
17692,2.21E-02,1.55E-02
17693,2.21E-02,1.53E-02
17694,2.21E-02,1.54E-02
17695,2.19E-02,1.52E-02
17696,2.20E-02,1.52E-02
17697,2.16E-02,1.51E-02
17698,2.16E-02,1.51E-02
17699,2.14E-02,1.50E-02
17700,2.14E-02,1.50E-02
17701,2.15E-02,1.48E-02
17702,2.15E-02,1.49E-02
17703,2.16E-02,1.59E-02
17704,2.38E-02,1.71E-02
17705,2.28E-02,2.46E-02
17706,2.18E-02,1.47E-02
17707,2.10E-02,1.88E-02
17708,2.92E-02,1.97E-02
17709,2.58E-02,1.83E-02
17710,2.35E-02,2.57E-02
17711,2.27E-02,2.47E-02
17712,2.49E-02,2.46E-02
17713,2.37E-02,2.39E-02
17714,2.41E-02,2.42E-02
17715,2.46E-02,2.09E-02
17716,2.18E-02,2.34E-02
17717,2.12E-02,2.80E-02
17718,2.35E-02,2.68E-02
17719,2.14E-02,1.78E-02
17720,2.30E-02,1.59E-02
17721,1.62E-02,3.02E-02
17722,2.24E-02,1.47E-02
17723,2.07E-02,2.91E-02
17724,2.11E-02,1.83E-02
17725,2.12E-02,1.79E-02
17726,1.68E-02,2.81E-02
17727,1.83E-02,3.06E-02
17728,2.17E-02,3.01E-02
17729,2.11E-02,3.04E-02
17730,2.19E-02,2.98E-02
17731,2.19E-02,3.00E-02
17732,2.14E-02,2.94E-02
17733,2.17E-02,2.96E-02
17734,2.14E-02,2.90E-02
17735,2.14E-02,2.92E-02
17736,2.16E-02,2.88E-02
17737,2.13E-02,2.89E-02
17738,2.21E-02,2.84E-02
17739,2.17E-02,2.86E-02
17740,2.23E-02,2.81E-02
17741,2.23E-02,2.83E-02
17742,2.22E-02,2.78E-02
17743,2.20E-02,2.80E-02
17744,2.23E-02,2.75E-02
17745,2.21E-02,2.77E-02
17746,2.28E-02,2.72E-02
17747,2.24E-02,2.74E-02
17748,2.28E-02,2.70E-02
17749,2.28E-02,2.71E-02
17750,2.24E-02,2.67E-02
17751,2.29E-02,2.69E-02
17752,2.20E-02,2.65E-02
17753,2.23E-02,2.66E-02
17754,2.20E-02,2.63E-02
17755,2.20E-02,2.64E-02
17756,2.24E-02,2.61E-02
17757,2.23E-02,2.62E-02
17758,2.26E-02,2.58E-02
17759,2.25E-02,2.60E-02
17760,2.22E-02,2.56E-02
17761,2.25E-02,2.57E-02
17762,2.22E-02,2.55E-02
17763,2.23E-02,2.56E-02
17764,2.21E-02,2.53E-02
17765,2.23E-02,2.54E-02
17766,2.21E-02,2.51E-02
17767,2.19E-02,2.52E-02
17768,2.24E-02,2.49E-02
17769,2.22E-02,2.50E-02
17770,2.26E-02,2.48E-02
17771,2.30E-02,2.32E-02
17772,2.33E-02,2.36E-02
17773,2.25E-02,2.25E-02
17774,2.26E-02,2.28E-02
17775,2.23E-02,2.17E-02
17776,2.23E-02,2.21E-02
17777,2.18E-02,2.09E-02
17778,2.20E-02,2.13E-02
17779,2.15E-02,2.01E-02
17780,2.16E-02,2.05E-02
17781,2.14E-02,1.93E-02
17782,2.14E-02,1.97E-02
17783,2.10E-02,1.84E-02
17784,2.12E-02,1.88E-02
17785,2.14E-02,1.75E-02
17786,2.14E-02,1.77E-02
17787,2.18E-02,1.73E-02
17788,2.16E-02,1.74E-02
17789,2.21E-02,1.71E-02
17790,2.18E-02,1.72E-02
17791,2.16E-02,1.69E-02
17792,2.18E-02,1.70E-02
17793,2.15E-02,1.66E-02
17794,2.16E-02,1.67E-02
17795,2.12E-02,1.64E-02
17796,2.13E-02,1.65E-02
17797,2.12E-02,1.62E-02
17798,2.11E-02,1.63E-02
17799,2.18E-02,1.60E-02
17800,2.15E-02,1.61E-02
17801,2.22E-02,1.58E-02
17802,2.19E-02,1.59E-02
17803,2.27E-02,1.57E-02
17804,2.24E-02,1.57E-02
17805,2.26E-02,1.55E-02
17806,2.28E-02,1.56E-02
17807,2.25E-02,1.54E-02
17808,2.25E-02,1.55E-02
17809,2.26E-02,1.52E-02
17810,2.25E-02,1.53E-02
17811,2.28E-02,1.50E-02
17812,2.27E-02,1.51E-02
17813,2.26E-02,1.48E-02
17814,2.29E-02,1.49E-02
17815,2.24E-02,1.46E-02
17816,2.25E-02,1.47E-02
17817,2.21E-02,1.45E-02
17818,2.22E-02,1.45E-02
17819,2.21E-02,1.43E-02
17820,2.21E-02,1.44E-02
17821,2.19E-02,1.42E-02
17822,2.19E-02,1.42E-02
17823,2.18E-02,1.40E-02
17824,2.18E-02,1.41E-02
17825,2.16E-02,1.39E-02
17826,2.16E-02,1.40E-02
17827,2.17E-02,1.37E-02
17828,2.16E-02,1.38E-02
17829,2.20E-02,1.35E-02
17830,2.17E-02,1.36E-02
17831,2.39E-02,1.71E-02
17832,2.30E-02,2.46E-02
17833,2.00E-02,2.92E-02
17834,2.26E-02,1.46E-02
17835,2.22E-02,1.34E-02
17836,2.35E-02,2.45E-02
17837,2.10E-02,1.79E-02
17838,2.40E-02,1.58E-02
17839,2.55E-02,1.84E-02
17840,2.65E-02,1.96E-02
17841,2.25E-02,2.34E-02
17842,2.35E-02,2.57E-02
17843,1.86E-02,3.02E-02
17844,2.42E-02,2.69E-02
17845,1.84E-02,2.80E-02
17846,1.93E-02,2.92E-02
17847,2.20E-02,1.23E-02
17848,1.74E-02,3.19E-02
17849,1.85E-02,3.17E-02
17850,2.18E-02,1.22E-02
17851,2.11E-02,3.12E-02
17852,2.03E-02,3.14E-02
17853,2.18E-02,3.08E-02
17854,2.17E-02,3.10E-02
17855,2.15E-02,3.03E-02
17856,2.16E-02,3.06E-02
17857,2.14E-02,3.00E-02
17858,2.15E-02,3.01E-02
17859,2.17E-02,2.96E-02
17860,2.14E-02,2.98E-02
17861,2.21E-02,2.93E-02
17862,2.19E-02,2.95E-02
17863,2.23E-02,2.89E-02
17864,2.25E-02,2.91E-02
17865,2.21E-02,2.86E-02
17866,2.20E-02,2.88E-02
17867,2.22E-02,2.83E-02
17868,2.21E-02,2.84E-02
17869,2.28E-02,2.79E-02
17870,2.26E-02,2.81E-02
17871,2.29E-02,2.76E-02
17872,2.30E-02,2.78E-02
17873,2.25E-02,2.74E-02
17874,2.28E-02,2.75E-02
17875,2.22E-02,2.71E-02
17876,2.23E-02,2.72E-02
17877,2.20E-02,2.69E-02
17878,2.19E-02,2.70E-02
17879,2.24E-02,2.66E-02
17880,2.22E-02,2.67E-02
17881,2.26E-02,2.63E-02
17882,2.25E-02,2.65E-02
17883,2.22E-02,2.61E-02
17884,2.25E-02,2.62E-02
17885,2.24E-02,2.59E-02
17886,2.24E-02,2.60E-02
17887,2.21E-02,2.57E-02
17888,2.24E-02,2.58E-02
17889,2.20E-02,2.55E-02
17890,2.20E-02,2.56E-02
17891,2.22E-02,2.53E-02
17892,2.21E-02,2.54E-02
17893,2.24E-02,2.51E-02
17894,2.21E-02,2.52E-02
17895,2.27E-02,2.50E-02
17896,2.19E-02,2.48E-02
17897,2.61E-02,2.45E-02
17898,2.35E-02,2.38E-02
17899,2.42E-02,2.41E-02
17900,2.30E-02,2.32E-02
17901,2.32E-02,2.35E-02
17902,2.23E-02,2.25E-02
17903,2.25E-02,2.28E-02
17904,2.21E-02,2.17E-02
17905,2.22E-02,2.21E-02
17906,2.22E-02,2.10E-02
17907,2.21E-02,2.14E-02
17908,2.17E-02,2.02E-02
17909,2.20E-02,2.06E-02
17910,2.15E-02,1.93E-02
17911,2.16E-02,1.98E-02
17912,2.14E-02,1.85E-02
17913,2.14E-02,1.89E-02
17914,2.12E-02,1.75E-02
17915,2.10E-02,1.76E-02
17916,2.12E-02,1.80E-02
17917,2.16E-02,1.73E-02
17918,2.14E-02,1.74E-02
17919,2.17E-02,1.70E-02
17920,2.16E-02,1.72E-02
17921,2.21E-02,1.68E-02
17922,2.19E-02,1.69E-02
17923,2.22E-02,1.65E-02
17924,2.21E-02,1.66E-02
17925,2.17E-02,1.63E-02
17926,2.19E-02,1.64E-02
17927,2.15E-02,1.60E-02
17928,2.16E-02,1.61E-02
17929,2.13E-02,1.57E-02
17930,2.14E-02,1.58E-02
17931,2.12E-02,1.55E-02
17932,2.10E-02,1.56E-02
17933,2.17E-02,1.53E-02
17934,2.15E-02,1.54E-02
17935,2.21E-02,1.51E-02
17936,2.20E-02,1.52E-02
17937,2.26E-02,1.49E-02
17938,2.24E-02,1.50E-02
17939,2.26E-02,1.47E-02
17940,2.28E-02,1.48E-02
17941,2.25E-02,1.46E-02
17942,2.26E-02,1.47E-02
17943,2.27E-02,1.43E-02
17944,2.25E-02,1.44E-02
17945,2.30E-02,1.41E-02
17946,2.27E-02,1.42E-02
17947,2.26E-02,1.39E-02
17948,2.30E-02,1.40E-02
17949,2.24E-02,1.37E-02
17950,2.25E-02,1.38E-02
17951,2.21E-02,1.35E-02
17952,2.22E-02,1.36E-02
17953,2.23E-02,1.33E-02
17954,2.22E-02,1.34E-02
17955,2.19E-02,1.31E-02
17956,2.20E-02,1.32E-02
17957,2.18E-02,1.30E-02
17958,2.18E-02,1.30E-02
17959,2.18E-02,1.28E-02
17960,2.19E-02,1.29E-02
17961,2.16E-02,1.26E-02
17962,2.16E-02,1.27E-02
17963,2.17E-02,1.24E-02
17964,2.16E-02,1.20E-02
17965,2.32E-02,1.45E-02
17966,2.17E-02,1.32E-02
17967,2.46E-02,1.71E-02
17968,2.61E-02,2.08E-02
17969,2.33E-02,2.46E-02
17970,2.29E-02,2.34E-02
17971,2.46E-02,1.58E-02
17972,2.48E-02,1.83E-02
17973,2.44E-02,1.96E-02
17974,2.46E-02,2.58E-02
17975,1.70E-02,3.21E-02
17976,1.95E-02,3.27E-02
17977,1.92E-02,3.29E-02
17978,2.15E-02,1.70E-02
17979,2.12E-02,1.72E-02
17980,1.86E-02,3.02E-02
17981,2.56E-02,2.70E-02
17982,2.44E-02,2.89E-02
17983,1.64E-02,3.13E-02
17984,2.16E-02,1.19E-02
17985,2.15E-02,1.09E-02
17986,2.46E-02,2.48E-02
17987,2.60E-02,2.43E-02
17988,2.54E-02,2.46E-02
17989,2.15E-02,1.07E-02
17990,2.33E-02,2.34E-02
17991,2.08E-02,3.22E-02
17992,2.01E-02,3.25E-02
17993,2.15E-02,3.18E-02
17994,2.12E-02,3.20E-02
17995,2.15E-02,3.13E-02
17996,2.17E-02,3.15E-02
17997,2.17E-02,3.09E-02
17998,2.16E-02,3.11E-02
17999,2.19E-02,3.05E-02
18000,2.18E-02,3.07E-02
18001,2.21E-02,3.01E-02
18002,2.21E-02,3.03E-02
18003,2.23E-02,2.97E-02
18004,2.25E-02,2.99E-02
18005,2.21E-02,2.94E-02
18006,2.20E-02,2.95E-02
18007,2.23E-02,2.90E-02
18008,2.22E-02,2.92E-02
18009,2.29E-02,2.86E-02
18010,2.26E-02,2.88E-02
18011,2.29E-02,2.83E-02
18012,2.29E-02,2.84E-02
18013,2.25E-02,2.80E-02
18014,2.28E-02,2.81E-02
18015,2.21E-02,2.77E-02
18016,2.23E-02,2.79E-02
18017,2.20E-02,2.74E-02
18018,2.18E-02,2.76E-02
18019,2.24E-02,2.71E-02
18020,2.22E-02,2.73E-02
18021,2.26E-02,2.68E-02
18022,2.27E-02,2.69E-02
18023,2.23E-02,2.65E-02
18024,2.25E-02,2.67E-02
18025,2.23E-02,2.63E-02
18026,2.24E-02,2.64E-02
18027,2.20E-02,2.60E-02
18028,2.21E-02,2.62E-02
18029,2.17E-02,2.58E-02
18030,2.20E-02,2.59E-02
18031,2.17E-02,2.56E-02
18032,2.18E-02,2.57E-02
18033,2.15E-02,2.54E-02
18034,2.16E-02,2.55E-02
18035,1.85E-02,2.51E-02
18036,2.02E-02,2.53E-02
18037,1.79E-02,2.50E-02
18038,2.33E-02,2.37E-02
18039,2.39E-02,2.40E-02
18040,2.28E-02,2.31E-02
18041,2.30E-02,2.34E-02
18042,2.20E-02,2.24E-02
18043,2.25E-02,2.28E-02
18044,2.20E-02,2.17E-02
18045,2.21E-02,2.21E-02
18046,2.22E-02,2.10E-02
18047,2.21E-02,2.14E-02
18048,2.20E-02,2.02E-02
18049,2.22E-02,2.06E-02
18050,2.17E-02,1.94E-02
18051,2.18E-02,1.98E-02
18052,2.14E-02,1.86E-02
18053,2.15E-02,1.90E-02
18054,2.12E-02,1.77E-02
18055,2.13E-02,1.81E-02
18056,2.16E-02,1.68E-02
18057,2.15E-02,1.69E-02
18058,2.19E-02,1.65E-02
18059,2.17E-02,1.66E-02
18060,2.22E-02,1.62E-02
18061,2.21E-02,1.64E-02
18062,2.22E-02,1.59E-02
18063,2.22E-02,1.61E-02
18064,2.18E-02,1.56E-02
18065,2.20E-02,1.58E-02
18066,2.15E-02,1.53E-02
18067,2.16E-02,1.55E-02
18068,2.11E-02,1.50E-02
18069,2.14E-02,1.52E-02
18070,2.12E-02,1.48E-02
18071,2.12E-02,1.49E-02
18072,2.17E-02,1.45E-02
18073,2.15E-02,1.46E-02
18074,2.23E-02,1.43E-02
18075,2.19E-02,1.44E-02
18076,2.25E-02,1.41E-02
18077,2.25E-02,1.42E-02
18078,2.27E-02,1.39E-02
18079,2.28E-02,1.40E-02
18080,2.25E-02,1.37E-02
18081,2.26E-02,1.38E-02
18082,2.26E-02,1.35E-02
18083,2.24E-02,1.36E-02
18084,2.30E-02,1.32E-02
18085,2.27E-02,1.33E-02
18086,2.27E-02,1.30E-02
18087,2.30E-02,1.31E-02
18088,2.24E-02,1.27E-02
18089,2.25E-02,1.28E-02
18090,2.22E-02,1.25E-02
18091,2.22E-02,1.26E-02
18092,2.23E-02,1.23E-02
18093,2.22E-02,1.24E-02
18094,2.19E-02,1.21E-02
18095,2.20E-02,1.22E-02
18096,2.20E-02,1.19E-02
18097,2.20E-02,1.20E-02
18098,2.20E-02,1.17E-02
18099,2.21E-02,1.18E-02
18100,2.19E-02,1.14E-02
18101,2.20E-02,1.16E-02
18102,2.16E-02,1.11E-02
18103,2.15E-02,1.13E-02
18104,2.17E-02,1.10E-02
18105,2.43E-02,1.44E-02
18106,2.10E-02,1.31E-02
18107,2.52E-02,1.70E-02
18108,2.34E-02,2.08E-02
18109,2.41E-02,2.46E-02
18110,1.79E-02,3.32E-02
18111,2.11E-02,1.73E-02
18112,2.20E-02,1.06E-02
18113,2.21E-02,1.18E-02
18114,2.56E-02,1.58E-02
18115,2.42E-02,1.83E-02
18116,2.30E-02,1.96E-02
18117,2.71E-02,2.58E-02
18118,2.26E-02,2.50E-02
18119,2.66E-02,2.49E-02
18120,2.31E-02,2.42E-02
18121,2.15E-02,2.45E-02
18122,2.44E-02,2.31E-02
18123,1.89E-02,3.02E-02
18124,2.11E-02,3.01E-02
18125,1.72E-02,3.14E-02
18126,1.87E-02,3.14E-02
18127,1.67E-02,3.24E-02
18128,1.79E-02,3.25E-02
18129,1.87E-02,3.26E-02
18130,1.81E-02,3.34E-02
18131,2.83E-02,2.86E-02
18132,2.21E-02,3.00E-02
18133,1.93E-02,3.14E-02
18134,1.89E-02,3.14E-02
18135,1.82E-02,3.13E-02
18136,1.97E-02,3.27E-02
18137,1.93E-02,3.26E-02
18138,1.81E-02,3.25E-02
18139,2.15E-02,3.00E-02
18140,1.37E-02,3.12E-02
18141,1.90E-02,3.22E-02
18142,1.84E-02,3.36E-02
18143,1.93E-02,3.37E-02
18144,1.89E-02,3.38E-02
18145,2.01E-02,3.39E-02
18146,1.94E-02,3.36E-02
18147,1.87E-02,3.33E-02
18148,3.18E-02,2.72E-02
18149,2.17E-02,9.43E-03
18150,2.46E-02,1.05E-02
18151,2.29E-02,9.26E-03
18152,1.24E-02,3.46E-02
18153,1.89E-02,3.43E-02
18154,1.30E-02,3.56E-02
18155,1.56E-02,3.53E-02
18156,1.94E-02,1.41E-02
18157,1.91E-02,3.50E-02
18158,2.05E-02,3.51E-02
18159,1.91E-02,3.47E-02
18160,1.97E-02,3.49E-02
18161,1.92E-02,3.43E-02
18162,1.91E-02,3.45E-02
18163,2.01E-02,3.38E-02
18164,1.95E-02,3.40E-02
18165,2.08E-02,3.32E-02
18166,2.04E-02,3.35E-02
18167,2.15E-02,3.27E-02
18168,2.12E-02,3.30E-02
18169,2.17E-02,3.22E-02
18170,2.18E-02,3.25E-02
18171,2.16E-02,3.18E-02
18172,2.17E-02,3.20E-02
18173,2.18E-02,3.14E-02
18174,2.16E-02,3.16E-02
18175,2.22E-02,3.10E-02
18176,2.21E-02,3.12E-02
18177,2.23E-02,3.05E-02
18178,2.25E-02,3.07E-02
18179,2.22E-02,3.01E-02
18180,2.21E-02,3.03E-02
18181,2.23E-02,2.97E-02
18182,2.22E-02,2.99E-02
18183,2.28E-02,2.93E-02
18184,2.26E-02,2.95E-02
18185,2.28E-02,2.89E-02
18186,2.29E-02,2.91E-02
18187,2.26E-02,2.86E-02
18188,2.27E-02,2.88E-02
18189,2.22E-02,2.83E-02
18190,2.24E-02,2.85E-02
18191,2.20E-02,2.80E-02
18192,2.18E-02,2.81E-02
18193,2.24E-02,2.76E-02
18194,2.23E-02,2.78E-02
18195,2.26E-02,2.73E-02
18196,2.26E-02,2.74E-02
18197,2.23E-02,2.69E-02
18198,2.25E-02,2.71E-02
18199,2.24E-02,2.67E-02
18200,2.24E-02,2.68E-02
18201,2.22E-02,2.64E-02
18202,2.22E-02,2.65E-02
18203,2.18E-02,2.61E-02
18204,2.19E-02,2.63E-02
18205,2.17E-02,2.59E-02
18206,2.18E-02,2.60E-02
18207,2.09E-02,2.57E-02
18208,2.14E-02,2.58E-02
18209,2.03E-02,2.54E-02
18210,2.06E-02,2.55E-02
18211,2.11E-02,2.52E-02
18212,2.30E-02,2.37E-02
18213,2.34E-02,2.39E-02
18214,2.26E-02,2.31E-02
18215,2.27E-02,2.34E-02
18216,2.22E-02,2.24E-02
18217,2.22E-02,2.27E-02
18218,2.20E-02,2.17E-02
18219,2.20E-02,2.21E-02
18220,2.22E-02,2.10E-02
18221,2.21E-02,2.14E-02
18222,2.22E-02,2.03E-02
18223,2.22E-02,2.07E-02
18224,2.18E-02,1.95E-02
18225,2.21E-02,1.99E-02
18226,2.17E-02,1.87E-02
18227,2.18E-02,1.91E-02
18228,2.15E-02,1.78E-02
18229,2.16E-02,1.83E-02
18230,2.12E-02,1.69E-02
18231,2.12E-02,1.70E-02
18232,2.13E-02,1.74E-02
18233,2.16E-02,1.66E-02
18234,2.15E-02,1.67E-02
18235,2.17E-02,1.63E-02
18236,2.16E-02,1.64E-02
18237,2.21E-02,1.60E-02
18238,2.19E-02,1.61E-02
18239,2.21E-02,1.57E-02
18240,2.23E-02,1.58E-02
18241,2.22E-02,1.53E-02
18242,2.21E-02,1.55E-02
18243,2.18E-02,1.50E-02
18244,2.19E-02,1.52E-02
18245,2.15E-02,1.47E-02
18246,2.17E-02,1.48E-02
18247,2.12E-02,1.44E-02
18248,2.14E-02,1.45E-02
18249,2.13E-02,1.41E-02
18250,2.13E-02,1.42E-02
18251,2.18E-02,1.38E-02
18252,2.15E-02,1.39E-02
18253,2.24E-02,1.36E-02
18254,2.19E-02,1.37E-02
18255,2.27E-02,1.33E-02
18256,2.25E-02,1.34E-02
18257,2.26E-02,1.31E-02
18258,2.27E-02,1.32E-02
18259,2.26E-02,1.29E-02
18260,2.25E-02,1.30E-02
18261,2.26E-02,1.26E-02
18262,2.25E-02,1.27E-02
18263,2.29E-02,1.23E-02
18264,2.28E-02,1.24E-02
18265,2.27E-02,1.20E-02
18266,2.30E-02,1.22E-02
18267,2.25E-02,1.18E-02
18268,2.25E-02,1.19E-02
18269,2.23E-02,1.15E-02
18270,2.24E-02,1.16E-02
18271,2.22E-02,1.13E-02
18272,2.23E-02,1.14E-02
18273,2.22E-02,1.10E-02
18274,2.22E-02,1.11E-02
18275,2.20E-02,1.08E-02
18276,2.21E-02,1.09E-02
18277,2.22E-02,1.06E-02
18278,2.23E-02,1.07E-02
18279,2.20E-02,1.03E-02
18280,2.21E-02,1.05E-02
18281,2.16E-02,1.00E-02
18282,2.19E-02,1.02E-02
18283,2.13E-02,9.70E-03
18284,2.13E-02,9.85E-03
18285,2.15E-02,9.57E-03
18286,2.11E-02,1.30E-02
18287,2.57E-02,1.70E-02
18288,2.38E-02,2.09E-02
18289,2.58E-02,2.45E-02
18290,1.91E-02,3.08E-02
18291,3.04E-02,2.87E-02
18292,2.02E-02,2.47E-02
18293,2.29E-02,1.17E-02
18294,2.38E-02,1.95E-02
18295,2.34E-02,1.83E-02
18296,2.95E-02,2.57E-02
18297,2.15E-02,1.64E-02
18298,2.14E-02,1.66E-02
18299,2.11E-02,3.55E-02
18300,1.76E-02,3.65E-02
18301,1.82E-02,3.66E-02
18302,3.00E-02,2.72E-02
18303,2.48E-02,1.05E-02
18304,2.41E-02,9.20E-03
18305,1.68E-02,1.50E-02
18306,1.81E-02,1.40E-02
18307,2.58E-02,1.59E-02
18308,1.92E-02,8.02E-03
18309,2.11E-02,7.92E-03
18310,1.98E-02,3.62E-02
18311,1.91E-02,3.64E-02
18312,1.95E-02,3.58E-02
18313,1.96E-02,3.60E-02
18314,1.95E-02,3.54E-02
18315,1.94E-02,3.56E-02
18316,2.01E-02,3.48E-02
18317,1.99E-02,3.51E-02
18318,2.10E-02,3.42E-02
18319,2.08E-02,3.45E-02
18320,2.17E-02,3.37E-02
18321,2.15E-02,3.40E-02
18322,2.17E-02,3.32E-02
18323,2.18E-02,3.34E-02
18324,2.16E-02,3.27E-02
18325,2.17E-02,3.29E-02
18326,2.20E-02,3.23E-02
18327,2.17E-02,3.25E-02
18328,2.22E-02,3.18E-02
18329,2.22E-02,3.20E-02
18330,2.22E-02,3.13E-02
18331,2.25E-02,3.16E-02
18332,2.22E-02,3.09E-02
18333,2.21E-02,3.11E-02
18334,2.24E-02,3.05E-02
18335,2.22E-02,3.07E-02
18336,2.28E-02,3.00E-02
18337,2.26E-02,3.02E-02
18338,2.30E-02,2.96E-02
18339,2.30E-02,2.98E-02
18340,2.26E-02,2.92E-02
18341,2.27E-02,2.94E-02
18342,2.20E-02,2.89E-02
18343,2.24E-02,2.91E-02
18344,2.21E-02,2.85E-02
18345,2.19E-02,2.87E-02
18346,2.26E-02,2.81E-02
18347,2.21E-02,2.83E-02
18348,2.26E-02,2.77E-02
18349,2.25E-02,2.79E-02
18350,2.23E-02,2.74E-02
18351,2.25E-02,2.75E-02
18352,2.23E-02,2.70E-02
18353,2.25E-02,2.72E-02
18354,2.22E-02,2.67E-02
18355,2.22E-02,2.69E-02
18356,2.19E-02,2.64E-02
18357,2.19E-02,2.66E-02
18358,2.15E-02,2.62E-02
18359,2.16E-02,2.63E-02
18360,2.09E-02,2.59E-02
18361,2.13E-02,2.60E-02
18362,2.09E-02,2.56E-02
18363,2.06E-02,2.58E-02
18364,2.29E-02,2.52E-02
18365,2.17E-02,2.54E-02
18366,1.82E-02,2.45E-02
18367,1.95E-02,2.47E-02
18368,2.58E-02,2.49E-02
18369,2.60E-02,2.50E-02
18370,2.20E-02,2.41E-02
18371,2.22E-02,2.43E-02
18372,2.28E-02,2.36E-02
18373,2.27E-02,2.38E-02
18374,2.25E-02,2.30E-02
18375,2.25E-02,2.33E-02
18376,2.22E-02,2.24E-02
18377,2.22E-02,2.27E-02
18378,2.21E-02,2.17E-02
18379,2.21E-02,2.21E-02
18380,2.22E-02,2.11E-02
18381,2.21E-02,2.14E-02
18382,2.22E-02,2.03E-02
18383,2.22E-02,2.07E-02
18384,2.21E-02,1.96E-02
18385,2.23E-02,1.99E-02
18386,2.18E-02,1.88E-02
18387,2.19E-02,1.92E-02
18388,2.16E-02,1.80E-02
18389,2.18E-02,1.84E-02
18390,2.13E-02,1.71E-02
18391,2.14E-02,1.76E-02
18392,2.17E-02,1.61E-02
18393,2.16E-02,1.63E-02
18394,2.20E-02,1.58E-02
18395,2.19E-02,1.59E-02
18396,2.20E-02,1.54E-02
18397,2.21E-02,1.56E-02
18398,2.22E-02,1.51E-02
18399,2.25E-02,1.53E-02
18400,2.21E-02,1.47E-02
18401,2.22E-02,1.49E-02
18402,2.18E-02,1.44E-02
18403,2.20E-02,1.46E-02
18404,2.15E-02,1.40E-02
18405,2.16E-02,1.42E-02
18406,2.14E-02,1.37E-02
18407,2.14E-02,1.38E-02
18408,2.14E-02,1.34E-02
18409,2.13E-02,1.35E-02
18410,2.17E-02,1.31E-02
18411,2.15E-02,1.32E-02
18412,2.23E-02,1.28E-02
18413,2.20E-02,1.29E-02
18414,2.27E-02,1.25E-02
18415,2.25E-02,1.26E-02
18416,2.26E-02,1.23E-02
18417,2.28E-02,1.24E-02
18418,2.26E-02,1.20E-02
18419,2.25E-02,1.22E-02
18420,2.25E-02,1.17E-02
18421,2.26E-02,1.19E-02
18422,2.29E-02,1.14E-02
18423,2.28E-02,1.15E-02
18424,2.27E-02,1.11E-02
18425,2.30E-02,1.12E-02
18426,2.24E-02,1.08E-02
18427,2.26E-02,1.09E-02
18428,2.21E-02,1.05E-02
18429,2.22E-02,1.06E-02
18430,2.22E-02,1.02E-02
18431,2.25E-02,1.04E-02
18432,2.21E-02,9.96E-03
18433,2.22E-02,1.01E-02
18434,2.21E-02,9.70E-03
18435,2.21E-02,9.83E-03
18436,2.23E-02,9.46E-03
18437,2.23E-02,9.58E-03
18438,2.23E-02,9.18E-03
18439,2.24E-02,9.33E-03
18440,2.18E-02,8.86E-03
18441,2.20E-02,9.03E-03
18442,2.13E-02,8.56E-03
18443,2.15E-02,8.71E-03
18444,2.07E-02,8.22E-03
18445,2.13E-02,8.40E-03
18446,1.85E-02,8.00E-03
18447,2.10E-02,1.30E-02
18448,2.49E-02,1.72E-02
18449,2.65E-02,2.22E-02
18450,2.61E-02,2.09E-02
18451,3.28E-02,2.43E-02
18452,2.13E-02,1.67E-02
18453,1.98E-02,3.67E-02
18454,2.31E-02,1.18E-02
18455,3.19E-02,2.57E-02
18456,2.19E-02,3.41E-02
18457,2.16E-02,6.85E-03
18458,2.35E-02,6.84E-03
18459,2.20E-02,2.51E-02
18460,2.19E-02,2.48E-02
18461,2.11E-02,2.50E-02
18462,2.13E-02,1.73E-02
18463,2.11E-02,1.69E-02
18464,2.81E-02,2.88E-02
18465,3.04E-02,2.72E-02
18466,2.15E-02,3.02E-02
18467,2.64E-02,8.08E-03
18468,1.75E-02,1.51E-02
18469,2.14E-02,1.41E-02
18470,2.23E-02,1.63E-02
18471,2.09E-02,3.79E-02
18472,2.02E-02,3.77E-02
18473,2.05E-02,3.78E-02
18474,1.97E-02,3.74E-02
18475,1.97E-02,3.75E-02
18476,1.98E-02,3.70E-02
18477,1.99E-02,3.72E-02
18478,2.01E-02,3.64E-02
18479,2.00E-02,3.67E-02
18480,2.07E-02,3.58E-02
18481,2.07E-02,3.61E-02
18482,2.11E-02,3.52E-02
18483,2.12E-02,3.55E-02
18484,2.18E-02,3.47E-02
18485,2.17E-02,3.49E-02
18486,2.18E-02,3.41E-02
18487,2.19E-02,3.44E-02
18488,2.17E-02,3.36E-02
18489,2.17E-02,3.38E-02
18490,2.21E-02,3.31E-02
18491,2.17E-02,3.34E-02
18492,2.23E-02,3.26E-02
18493,2.23E-02,3.29E-02
18494,2.23E-02,3.21E-02
18495,2.25E-02,3.24E-02
18496,2.21E-02,3.17E-02
18497,2.23E-02,3.19E-02
18498,2.23E-02,3.12E-02
18499,2.21E-02,3.15E-02
18500,2.30E-02,3.07E-02
18501,2.26E-02,3.10E-02
18502,2.30E-02,3.03E-02
18503,2.30E-02,3.05E-02
18504,2.25E-02,2.99E-02
18505,2.28E-02,3.01E-02
18506,2.21E-02,2.95E-02
18507,2.25E-02,2.97E-02
18508,2.20E-02,2.91E-02
18509,2.20E-02,2.93E-02
18510,2.26E-02,2.86E-02
18511,2.23E-02,2.88E-02
18512,2.27E-02,2.82E-02
18513,2.26E-02,2.84E-02
18514,2.23E-02,2.78E-02
18515,2.25E-02,2.80E-02
18516,2.22E-02,2.74E-02
18517,2.24E-02,2.76E-02
18518,2.22E-02,2.70E-02
18519,2.23E-02,2.72E-02
18520,2.18E-02,2.67E-02
18521,2.19E-02,2.69E-02
18522,2.16E-02,2.64E-02
18523,2.17E-02,2.66E-02
18524,2.11E-02,2.61E-02
18525,2.13E-02,2.63E-02
18526,2.14E-02,2.58E-02
18527,2.12E-02,2.60E-02
18528,2.29E-02,2.54E-02
18529,2.21E-02,2.56E-02
18530,2.32E-02,2.52E-02
18531,2.13E-02,2.44E-02
18532,2.13E-02,2.46E-02
18533,2.21E-02,2.40E-02
18534,2.14E-02,2.42E-02
18535,2.23E-02,2.35E-02
18536,2.22E-02,2.38E-02
18537,2.23E-02,2.30E-02
18538,2.24E-02,2.32E-02
18539,2.24E-02,2.24E-02
18540,2.21E-02,2.27E-02
18541,2.20E-02,2.17E-02
18542,2.22E-02,2.21E-02
18543,2.22E-02,2.11E-02
18544,2.21E-02,2.14E-02
18545,2.22E-02,2.04E-02
18546,2.22E-02,2.07E-02
18547,2.22E-02,1.96E-02
18548,2.22E-02,2.00E-02
18549,2.19E-02,1.89E-02
18550,2.22E-02,1.93E-02
18551,2.17E-02,1.81E-02
18552,2.18E-02,1.85E-02
18553,2.16E-02,1.77E-02
18554,2.14E-02,1.63E-02
18555,2.16E-02,1.60E-02
18556,2.15E-02,1.61E-02
18557,2.18E-02,1.56E-02
18558,2.16E-02,1.58E-02
18559,2.24E-02,1.52E-02
18560,2.21E-02,1.54E-02
18561,2.21E-02,1.49E-02
18562,2.25E-02,1.51E-02
18563,2.21E-02,1.45E-02
18564,2.25E-02,1.47E-02
18565,2.22E-02,1.41E-02
18566,2.22E-02,1.43E-02
18567,2.20E-02,1.37E-02
18568,2.22E-02,1.39E-02
18569,2.17E-02,1.34E-02
18570,2.18E-02,1.36E-02
18571,2.14E-02,1.30E-02
18572,2.13E-02,1.32E-02
18573,2.14E-02,1.26E-02
18574,2.13E-02,1.28E-02
18575,2.16E-02,1.23E-02
18576,2.15E-02,1.25E-02
18577,2.24E-02,1.20E-02
18578,2.20E-02,1.21E-02
18579,2.26E-02,1.17E-02
18580,2.25E-02,1.19E-02
18581,2.27E-02,1.15E-02
18582,2.27E-02,1.16E-02
18583,2.24E-02,1.12E-02
18584,2.25E-02,1.13E-02
18585,2.25E-02,1.08E-02
18586,2.25E-02,1.10E-02
18587,2.30E-02,1.05E-02
18588,2.27E-02,1.06E-02
18589,2.29E-02,1.01E-02
18590,2.30E-02,1.03E-02
18591,2.23E-02,9.78E-03
18592,2.26E-02,9.95E-03
18593,2.21E-02,9.46E-03
18594,2.22E-02,9.61E-03
18595,2.23E-02,9.16E-03
18596,2.23E-02,9.32E-03
18597,2.22E-02,8.87E-03
18598,2.23E-02,9.02E-03
18599,2.23E-02,8.60E-03
18600,2.22E-02,8.73E-03
18601,2.24E-02,8.34E-03
18602,2.23E-02,8.47E-03
18603,2.23E-02,8.05E-03
18604,2.23E-02,8.20E-03
18605,2.21E-02,7.73E-03
18606,2.21E-02,7.89E-03
18607,2.13E-02,7.42E-03
18608,2.18E-02,7.57E-03
18609,2.09E-02,7.09E-03
18610,2.12E-02,7.25E-03
18611,2.08E-02,6.98E-03
18612,2.15E-02,1.30E-02
18613,2.81E-02,1.87E-02
18614,2.52E-02,1.74E-02
18615,3.77E-02,2.24E-02
18616,3.66E-02,2.06E-02
18617,3.80E-02,2.41E-02
18618,2.33E-02,3.67E-02
18619,2.24E-02,3.54E-02
18620,2.67E-02,6.88E-03
18621,1.59E-02,1.52E-02
18622,1.90E-02,1.63E-02
18623,2.23E-02,3.80E-02
18624,1.89E-02,2.49E-02
18625,2.40E-02,2.47E-02
18626,2.14E-02,1.65E-02
18627,2.16E-02,1.42E-02
18628,3.27E-02,2.57E-02
18629,2.19E-02,3.15E-02
18630,3.42E-02,7.01E-03
18631,3.84E-02,7.61E-03
18632,2.07E-02,1.59E-02
18633,2.35E-02,1.07E-02
18634,2.23E-02,1.20E-02
18635,1.85E-02,1.08E-02
18636,2.66E-02,2.49E-02
18637,3.70E-02,5.91E-03
18638,1.50E-02,2.50E-02
18639,2.42E-02,3.82E-02
18640,2.06E-02,3.97E-02
18641,2.13E-02,3.92E-02
18642,2.18E-02,3.94E-02
18643,2.05E-02,3.89E-02
18644,2.09E-02,3.91E-02
18645,2.02E-02,3.86E-02
18646,2.03E-02,3.87E-02
18647,2.02E-02,3.81E-02
18648,2.03E-02,3.84E-02
18649,2.06E-02,3.75E-02
18650,2.05E-02,3.78E-02
18651,2.10E-02,3.69E-02
18652,2.10E-02,3.72E-02
18653,2.15E-02,3.62E-02
18654,2.12E-02,3.65E-02
18655,2.20E-02,3.56E-02
18656,2.20E-02,3.59E-02
18657,2.18E-02,3.50E-02
18658,2.20E-02,3.53E-02
18659,2.19E-02,3.45E-02
18660,2.18E-02,3.47E-02
18661,2.22E-02,3.40E-02
18662,2.19E-02,3.42E-02
18663,2.24E-02,3.35E-02
18664,2.22E-02,3.37E-02
18665,2.23E-02,3.30E-02
18666,2.24E-02,3.32E-02
18667,2.23E-02,3.25E-02
18668,2.22E-02,3.27E-02
18669,2.24E-02,3.20E-02
18670,2.21E-02,3.22E-02
18671,2.28E-02,3.14E-02
18672,2.26E-02,3.17E-02
18673,2.29E-02,3.09E-02
18674,2.30E-02,3.12E-02
18675,2.25E-02,3.05E-02
18676,2.28E-02,3.07E-02
18677,2.22E-02,3.01E-02
18678,2.25E-02,3.03E-02
18679,2.19E-02,2.96E-02
18680,2.19E-02,2.99E-02
18681,2.24E-02,2.91E-02
18682,2.22E-02,2.94E-02
18683,2.27E-02,2.86E-02
18684,2.28E-02,2.89E-02
18685,2.23E-02,2.81E-02
18686,2.25E-02,2.84E-02
18687,2.25E-02,2.77E-02
18688,2.25E-02,2.79E-02
18689,2.21E-02,2.73E-02
18690,2.22E-02,2.75E-02
18691,2.18E-02,2.70E-02
18692,2.21E-02,2.72E-02
18693,2.16E-02,2.67E-02
18694,2.18E-02,2.68E-02
18695,2.13E-02,2.64E-02
18696,2.14E-02,2.65E-02
18697,2.18E-02,2.60E-02
18698,2.16E-02,2.62E-02
18699,2.27E-02,2.56E-02
18700,2.21E-02,2.58E-02
18701,2.24E-02,2.52E-02
18702,2.35E-02,2.54E-02
18703,2.01E-02,2.51E-02
18704,2.18E-02,2.43E-02
18705,2.24E-02,2.45E-02
18706,2.19E-02,2.39E-02
18707,2.18E-02,2.41E-02
18708,2.24E-02,2.34E-02
18709,2.21E-02,2.37E-02
18710,2.23E-02,2.29E-02
18711,2.23E-02,2.32E-02
18712,2.23E-02,2.23E-02
18713,2.22E-02,2.26E-02
18714,2.22E-02,2.17E-02
18715,2.22E-02,2.21E-02
18716,2.22E-02,2.11E-02
18717,2.22E-02,2.14E-02
18718,2.22E-02,2.04E-02
18719,2.22E-02,2.08E-02
18720,2.22E-02,1.97E-02
18721,2.22E-02,2.01E-02
18722,2.21E-02,1.90E-02
18723,2.22E-02,1.94E-02
18724,2.18E-02,1.82E-02
18725,2.20E-02,1.86E-02
18726,2.17E-02,1.75E-02
18727,2.17E-02,1.78E-02
18728,2.12E-02,1.67E-02
18729,2.14E-02,1.71E-02
18730,2.14E-02,1.63E-02
18731,2.15E-02,1.59E-02
18732,2.13E-02,1.61E-02
18733,2.19E-02,1.55E-02
18734,2.18E-02,1.57E-02
18735,2.24E-02,1.51E-02
18736,2.21E-02,1.53E-02
18737,2.25E-02,1.47E-02
18738,2.26E-02,1.49E-02
18739,2.21E-02,1.43E-02
18740,2.25E-02,1.45E-02
18741,2.21E-02,1.39E-02
18742,2.25E-02,1.41E-02
18743,2.22E-02,1.35E-02
18744,2.23E-02,1.37E-02
18745,2.22E-02,1.31E-02
18746,2.22E-02,1.33E-02
18747,2.17E-02,1.27E-02
18748,2.18E-02,1.29E-02
18749,2.15E-02,1.23E-02
18750,2.15E-02,1.25E-02
18751,2.15E-02,1.19E-02
18752,2.14E-02,1.21E-02
18753,2.18E-02,1.15E-02
18754,2.17E-02,1.17E-02
18755,2.24E-02,1.12E-02
18756,2.20E-02,1.14E-02
18757,2.28E-02,1.09E-02
18758,2.25E-02,1.11E-02
18759,2.27E-02,1.06E-02
18760,2.28E-02,1.07E-02
18761,2.27E-02,1.03E-02
18762,2.27E-02,1.04E-02
18763,2.25E-02,9.88E-03
18764,2.26E-02,1.01E-02
18765,2.30E-02,9.53E-03
18766,2.27E-02,9.70E-03
18767,2.29E-02,9.16E-03
18768,2.30E-02,9.35E-03
18769,2.23E-02,8.77E-03
18770,2.26E-02,8.96E-03
18771,2.23E-02,8.43E-03
18772,2.23E-02,8.59E-03
18773,2.22E-02,8.10E-03
18774,2.22E-02,8.27E-03
18775,2.22E-02,7.79E-03
18776,2.22E-02,7.94E-03
18777,2.22E-02,7.49E-03
18778,2.23E-02,7.63E-03
18779,2.25E-02,7.23E-03
18780,2.23E-02,7.36E-03
18781,2.24E-02,6.93E-03
18782,2.25E-02,7.09E-03
18783,2.21E-02,6.62E-03
18784,2.22E-02,6.77E-03
18785,2.17E-02,6.32E-03
18786,2.19E-02,6.47E-03
18787,2.14E-02,6.07E-03
18788,2.15E-02,6.19E-03
18789,2.17E-02,5.86E-03
18790,2.16E-02,5.96E-03
18791,2.41E-02,5.81E-03
18792,2.25E-02,5.82E-03
18793,3.56E-02,5.94E-03
18794,2.31E-02,1.32E-02
18795,3.49E-02,1.89E-02
18796,2.69E-02,1.74E-02
18797,3.63E-02,2.24E-02
18798,3.89E-02,2.06E-02
18799,3.49E-02,2.41E-02
18800,2.33E-02,3.39E-02
18801,2.33E-02,3.26E-02
18802,2.71E-02,3.68E-02
18803,2.41E-02,3.52E-02
18804,2.85E-02,8.38E-03
18805,1.99E-02,1.21E-02
18806,1.94E-02,4.14E-02
18807,2.11E-02,4.11E-02
18808,2.57E-02,2.46E-02
18809,2.07E-02,4.15E-02
18810,2.46E-02,1.14E-02
18811,2.63E-02,1.02E-02
18812,2.08E-02,2.51E-02
18813,2.78E-02,2.49E-02
18814,2.14E-02,1.68E-02
18815,2.14E-02,1.65E-02
18816,2.28E-02,5.32E-03
18817,1.83E-02,5.36E-03
18818,3.00E-02,2.74E-02
18819,2.29E-02,3.09E-02
18820,2.83E-02,1.23E-02
18821,2.14E-02,4.05E-02
18822,2.15E-02,4.08E-02
18823,2.09E-02,4.01E-02
18824,2.12E-02,4.03E-02
18825,2.09E-02,3.98E-02
18826,2.10E-02,4.00E-02
18827,2.08E-02,3.93E-02
18828,2.08E-02,3.95E-02
18829,2.11E-02,3.86E-02
18830,2.09E-02,3.89E-02
18831,2.13E-02,3.79E-02
18832,2.12E-02,3.82E-02
18833,2.20E-02,3.72E-02
18834,2.15E-02,3.75E-02
18835,2.22E-02,3.66E-02
18836,2.23E-02,3.69E-02
18837,2.20E-02,3.59E-02
18838,2.22E-02,3.62E-02
18839,2.19E-02,3.54E-02
18840,2.19E-02,3.57E-02
18841,2.22E-02,3.49E-02
18842,2.19E-02,3.51E-02
18843,2.25E-02,3.43E-02
18844,2.22E-02,3.46E-02
18845,2.23E-02,3.38E-02
18846,2.24E-02,3.40E-02
18847,2.24E-02,3.33E-02
18848,2.23E-02,3.35E-02
18849,2.24E-02,3.27E-02
18850,2.21E-02,3.30E-02
18851,2.28E-02,3.21E-02
18852,2.25E-02,3.24E-02
18853,2.29E-02,3.16E-02
18854,2.30E-02,3.19E-02
18855,2.26E-02,3.11E-02
18856,2.27E-02,3.14E-02
18857,2.22E-02,3.07E-02
18858,2.23E-02,3.09E-02
18859,2.20E-02,3.02E-02
18860,2.20E-02,3.04E-02
18861,2.24E-02,2.96E-02
18862,2.23E-02,2.99E-02
18863,2.27E-02,2.91E-02
18864,2.28E-02,2.93E-02
18865,2.24E-02,2.85E-02
18866,2.25E-02,2.88E-02
18867,2.24E-02,2.81E-02
18868,2.25E-02,2.83E-02
18869,2.21E-02,2.76E-02
18870,2.22E-02,2.78E-02
18871,2.19E-02,2.72E-02
18872,2.22E-02,2.74E-02
18873,2.16E-02,2.69E-02
18874,2.18E-02,2.71E-02
18875,2.13E-02,2.65E-02
18876,2.14E-02,2.67E-02
18877,2.18E-02,2.61E-02
18878,2.17E-02,2.64E-02
18879,2.25E-02,2.57E-02
18880,2.21E-02,2.59E-02
18881,2.21E-02,2.54E-02
18882,2.24E-02,2.55E-02
18883,2.09E-02,2.52E-02
18884,2.24E-02,2.42E-02
18885,2.37E-02,2.44E-02
18886,2.20E-02,2.38E-02
18887,2.21E-02,2.40E-02
18888,2.22E-02,2.34E-02
18889,2.22E-02,2.36E-02
18890,2.22E-02,2.29E-02
18891,2.22E-02,2.31E-02
18892,2.22E-02,2.23E-02
18893,2.22E-02,2.26E-02
18894,2.22E-02,2.17E-02
18895,2.24E-02,2.20E-02
18896,2.21E-02,2.11E-02
18897,2.22E-02,2.14E-02
18898,2.21E-02,2.05E-02
18899,2.22E-02,2.08E-02
18900,2.21E-02,1.98E-02
18901,2.22E-02,2.02E-02
18902,2.21E-02,1.91E-02
18903,2.22E-02,1.95E-02
18904,2.20E-02,1.84E-02
18905,2.22E-02,1.87E-02
18906,2.18E-02,1.76E-02
18907,2.18E-02,1.80E-02
18908,2.16E-02,1.72E-02
18909,2.13E-02,1.59E-02
18910,2.18E-02,1.55E-02
18911,2.15E-02,1.57E-02
18912,2.21E-02,1.51E-02
18913,2.20E-02,1.53E-02
18914,2.25E-02,1.46E-02
18915,2.22E-02,1.49E-02
18916,2.26E-02,1.42E-02
18917,2.28E-02,1.44E-02
18918,2.21E-02,1.38E-02
18919,2.25E-02,1.40E-02
18920,2.21E-02,1.33E-02
18921,2.25E-02,1.36E-02
18922,2.22E-02,1.29E-02
18923,2.22E-02,1.31E-02
18924,2.20E-02,1.25E-02
18925,2.20E-02,1.27E-02
18926,2.16E-02,1.20E-02
18927,2.18E-02,1.22E-02
18928,2.16E-02,1.16E-02
18929,2.17E-02,1.18E-02
18930,2.14E-02,1.12E-02
18931,2.14E-02,1.14E-02
18932,2.19E-02,1.08E-02
18933,2.17E-02,1.10E-02
18934,2.24E-02,1.04E-02
18935,2.21E-02,1.06E-02
18936,2.28E-02,1.01E-02
18937,2.25E-02,1.02E-02
18938,2.27E-02,9.75E-03
18939,2.29E-02,9.90E-03
18940,2.27E-02,9.38E-03
18941,2.26E-02,9.57E-03
18942,2.27E-02,8.97E-03
18943,2.26E-02,9.18E-03
18944,2.30E-02,8.58E-03
18945,2.27E-02,8.77E-03
18946,2.29E-02,8.18E-03
18947,2.30E-02,8.38E-03
18948,2.22E-02,7.76E-03
18949,2.25E-02,7.96E-03
18950,2.21E-02,7.03E-03
18951,2.21E-02,7.57E-03
18952,2.21E-02,7.38E-03
18953,2.21E-02,7.21E-03
18954,2.22E-02,6.69E-03
18955,2.25E-02,6.86E-03
18956,2.22E-02,6.39E-03
18957,2.22E-02,6.53E-03
18958,2.27E-02,6.13E-03
18959,2.25E-02,6.26E-03
18960,2.27E-02,5.85E-03
18961,2.28E-02,5.99E-03
18962,2.23E-02,5.55E-03
18963,2.25E-02,5.70E-03
18964,2.20E-02,5.32E-03
18965,2.21E-02,5.42E-03
18966,2.20E-02,5.14E-03
18967,2.19E-02,5.22E-03
18968,2.23E-02,5.05E-03
18969,2.20E-02,5.08E-03
18970,2.36E-02,5.07E-03
18971,2.31E-02,5.05E-03
18972,2.85E-02,5.20E-03
18973,2.74E-02,5.18E-03
18974,3.36E-02,5.27E-03
18975,2.87E-02,1.49E-02
18976,2.84E-02,1.33E-02
18977,3.60E-02,1.89E-02
18978,3.34E-02,1.72E-02
18979,3.58E-02,2.24E-02
18980,3.56E-02,2.07E-02
18981,3.48E-02,2.41E-02
18982,2.53E-02,3.35E-02
18983,2.48E-02,3.22E-02
18984,2.91E-02,3.65E-02
18985,2.66E-02,3.50E-02
18986,2.37E-02,3.97E-02
18987,2.71E-02,3.80E-02
18988,2.58E-02,4.15E-02
18989,3.07E-02,8.84E-03
18990,2.17E-02,4.28E-02
18991,2.25E-02,4.30E-02
18992,2.13E-02,4.25E-02
18993,2.14E-02,1.61E-02
18994,2.07E-02,5.43E-03
18995,2.24E-02,5.37E-03
18996,3.05E-02,3.03E-02
18997,2.18E-02,4.25E-02
18998,2.10E-02,4.36E-02
18999,1.83E-02,4.40E-02
19000,2.61E-02,4.32E-02
19001,2.14E-02,4.18E-02
19002,2.16E-02,4.21E-02
19003,2.12E-02,4.14E-02
19004,2.12E-02,4.16E-02
19005,2.11E-02,4.10E-02
19006,2.13E-02,4.12E-02
19007,2.11E-02,4.04E-02
19008,2.10E-02,4.07E-02
19009,2.13E-02,3.97E-02
19010,2.12E-02,4.01E-02
19011,2.15E-02,3.89E-02
19012,2.16E-02,3.93E-02
19013,2.21E-02,3.81E-02
19014,2.19E-02,3.85E-02
19015,2.22E-02,3.75E-02
19016,2.22E-02,3.78E-02
19017,2.22E-02,3.69E-02
19018,2.22E-02,3.72E-02
19019,2.19E-02,3.63E-02
19020,2.20E-02,3.66E-02
19021,2.22E-02,3.58E-02
19022,2.20E-02,3.60E-02
19023,2.25E-02,3.52E-02
19024,2.23E-02,3.55E-02
19025,2.26E-02,3.46E-02
19026,2.27E-02,3.49E-02
19027,2.23E-02,3.41E-02
19028,2.24E-02,3.44E-02
19029,2.23E-02,3.35E-02
19030,2.22E-02,3.38E-02
19031,2.29E-02,3.29E-02
19032,2.26E-02,3.32E-02
19033,2.30E-02,3.23E-02
19034,2.30E-02,3.26E-02
19035,2.26E-02,3.18E-02
19036,2.28E-02,3.20E-02
19037,2.22E-02,3.13E-02
19038,2.22E-02,3.15E-02
19039,2.20E-02,3.08E-02
19040,2.20E-02,3.10E-02
19041,2.24E-02,3.01E-02
19042,2.24E-02,3.04E-02
19043,2.27E-02,2.95E-02
19044,2.27E-02,2.98E-02
19045,2.24E-02,2.89E-02
19046,2.25E-02,2.92E-02
19047,2.24E-02,2.84E-02
19048,2.25E-02,2.87E-02
19049,2.23E-02,2.79E-02
19050,2.25E-02,2.81E-02
19051,2.20E-02,2.75E-02
19052,2.22E-02,2.77E-02
19053,2.17E-02,2.71E-02
19054,2.19E-02,2.73E-02
19055,2.14E-02,2.67E-02
19056,2.14E-02,2.69E-02
19057,2.18E-02,2.63E-02
19058,2.17E-02,2.65E-02
19059,2.24E-02,2.58E-02
19060,2.20E-02,2.60E-02
19061,2.21E-02,2.54E-02
19062,2.24E-02,2.56E-02
19063,2.28E-02,2.51E-02
19064,2.21E-02,2.53E-02
19065,2.61E-02,2.49E-02
19066,2.45E-02,2.50E-02
19067,2.28E-02,2.45E-02
19068,2.24E-02,2.41E-02
19069,2.35E-02,2.43E-02
19070,2.22E-02,2.37E-02
19071,2.23E-02,2.39E-02
19072,2.23E-02,2.33E-02
19073,2.22E-02,2.35E-02
19074,2.23E-02,2.28E-02
19075,2.23E-02,2.30E-02
19076,2.23E-02,2.23E-02
19077,2.23E-02,2.26E-02
19078,2.22E-02,2.17E-02
19079,2.24E-02,2.20E-02
19080,2.21E-02,2.12E-02
19081,2.21E-02,2.15E-02
19082,2.23E-02,2.05E-02
19083,2.23E-02,2.09E-02
19084,2.22E-02,1.99E-02
19085,2.22E-02,2.02E-02
19086,2.21E-02,1.92E-02
19087,2.21E-02,1.96E-02
19088,2.23E-02,1.85E-02
19089,2.22E-02,1.89E-02
19090,2.19E-02,1.78E-02
19091,2.20E-02,1.81E-02
19092,2.17E-02,1.70E-02
19093,2.19E-02,1.74E-02
19094,2.15E-02,1.63E-02
19095,2.14E-02,1.67E-02
19096,2.15E-02,1.59E-02
19097,2.17E-02,1.55E-02
19098,2.16E-02,1.57E-02
19099,2.20E-02,1.51E-02
19100,2.18E-02,1.53E-02
19101,2.25E-02,1.46E-02
19102,2.22E-02,1.48E-02
19103,2.26E-02,1.42E-02
19104,2.25E-02,1.44E-02
19105,2.26E-02,1.37E-02
19106,2.28E-02,1.39E-02
19107,2.22E-02,1.32E-02
19108,2.25E-02,1.35E-02
19109,2.22E-02,1.28E-02
19110,2.25E-02,1.30E-02
19111,2.22E-02,1.23E-02
19112,2.22E-02,1.25E-02
19113,2.20E-02,1.18E-02
19114,2.21E-02,1.20E-02
19115,2.17E-02,1.13E-02
19116,2.19E-02,1.16E-02
19117,2.17E-02,1.09E-02
19118,2.16E-02,1.11E-02
19119,2.15E-02,1.04E-02
19120,2.15E-02,1.07E-02
19121,2.19E-02,1.00E-02
19122,2.17E-02,1.02E-02
19123,2.25E-02,9.61E-03
19124,2.21E-02,9.81E-03
19125,2.28E-02,9.23E-03
19126,2.26E-02,9.42E-03
19127,2.29E-02,8.87E-03
19128,2.30E-02,9.05E-03
19129,2.26E-02,8.48E-03
19130,2.28E-02,8.68E-03
19131,2.28E-02,8.04E-03
19132,2.26E-02,8.26E-03
19133,2.30E-02,7.62E-03
19134,2.29E-02,7.83E-03
19135,2.28E-02,7.18E-03
19136,2.30E-02,7.40E-03
19137,2.22E-02,6.74E-03
19138,2.24E-02,6.96E-03
19139,2.22E-02,6.33E-03
19140,2.22E-02,6.53E-03
19141,2.22E-02,5.95E-03
19142,2.22E-02,6.14E-03
19143,2.22E-02,5.60E-03
19144,2.25E-02,5.77E-03
19145,2.22E-02,5.29E-03
19146,2.23E-02,5.43E-03
19147,2.26E-02,5.05E-03
19148,2.26E-02,5.17E-03
19149,2.27E-02,4.81E-03
19150,2.29E-02,4.93E-03
19151,2.23E-02,4.59E-03
19152,2.25E-02,4.69E-03
19153,2.22E-02,4.46E-03
19154,2.24E-02,4.51E-03
19155,2.21E-02,4.42E-03
19156,2.20E-02,4.43E-03
19157,2.27E-02,4.50E-03
19158,2.22E-02,4.45E-03
19159,2.41E-02,4.69E-03
19160,2.31E-02,4.58E-03
19161,2.61E-02,4.94E-03
19162,2.51E-02,4.83E-03
19163,2.41E-02,5.17E-03
19164,2.54E-02,5.08E-03
19165,2.03E-02,5.68E-03
19166,2.30E-02,5.45E-03
19167,2.37E-02,6.05E-03
19168,2.34E-02,5.80E-03
19169,1.87E-02,6.39E-03
19170,2.20E-02,6.50E-03
19171,2.58E-02,5.59E-03
19172,2.02E-02,5.87E-03
19173,2.54E-02,5.48E-03
19174,3.51E-02,1.53E-02
19175,2.73E-02,1.36E-02
19176,3.42E-02,1.89E-02
19177,3.60E-02,1.71E-02
19178,3.36E-02,2.24E-02
19179,3.40E-02,2.07E-02
19180,3.38E-02,2.42E-02
19181,2.64E-02,3.31E-02
19182,2.66E-02,3.17E-02
19183,2.74E-02,3.61E-02
19184,2.73E-02,3.46E-02
19185,2.64E-02,3.93E-02
19186,2.71E-02,3.76E-02
19187,2.79E-02,4.10E-02
19188,2.22E-02,4.43E-02
19189,2.30E-02,4.46E-02
19190,3.33E-02,1.23E-02
19191,2.53E-02,2.47E-02
19192,2.52E-02,2.48E-02
19193,2.16E-02,1.65E-02
19194,2.15E-02,1.62E-02
19195,2.57E-02,7.28E-03
19196,2.88E-02,7.60E-03
19197,2.58E-02,6.05E-03
19198,3.09E-02,6.68E-03
19199,2.46E-02,4.20E-02
19200,2.42E-02,4.37E-02
19201,2.25E-02,4.53E-02
19202,2.20E-02,4.54E-02
19203,2.18E-02,4.39E-02
19204,2.33E-02,4.50E-02
19205,2.17E-02,4.32E-02
19206,2.18E-02,4.35E-02
19207,2.17E-02,4.26E-02
19208,2.17E-02,4.28E-02
19209,2.13E-02,4.22E-02
19210,2.16E-02,4.24E-02
19211,2.13E-02,4.15E-02
19212,2.12E-02,4.19E-02
19213,2.15E-02,4.07E-02
19214,2.15E-02,4.11E-02
19215,2.18E-02,3.98E-02
19216,2.18E-02,4.03E-02
19217,2.23E-02,3.91E-02
19218,2.20E-02,3.94E-02
19219,2.23E-02,3.84E-02
19220,2.24E-02,3.87E-02
19221,2.22E-02,3.78E-02
19222,2.23E-02,3.81E-02
19223,2.22E-02,3.72E-02
19224,2.21E-02,3.75E-02
19225,2.23E-02,3.67E-02
19226,2.22E-02,3.70E-02
19227,2.26E-02,3.60E-02
19228,2.23E-02,3.64E-02
19229,2.25E-02,3.55E-02
19230,2.26E-02,3.57E-02
19231,2.23E-02,3.49E-02
19232,2.23E-02,3.52E-02
19233,2.22E-02,3.43E-02
19234,2.22E-02,3.47E-02
19235,2.29E-02,3.36E-02
19236,2.25E-02,3.40E-02
19237,2.29E-02,3.29E-02
19238,2.30E-02,3.33E-02
19239,2.25E-02,3.24E-02
19240,2.27E-02,3.27E-02
19241,2.22E-02,3.19E-02
19242,2.22E-02,3.22E-02
19243,2.21E-02,3.13E-02
19244,2.19E-02,3.17E-02
19245,2.24E-02,3.06E-02
19246,2.24E-02,3.10E-02
19247,2.27E-02,2.99E-02
19248,2.26E-02,3.03E-02
19249,2.24E-02,2.93E-02
19250,2.25E-02,2.96E-02
19251,2.24E-02,2.87E-02
19252,2.25E-02,2.90E-02
19253,2.24E-02,2.82E-02
19254,2.25E-02,2.84E-02
19255,2.22E-02,2.76E-02
19256,2.23E-02,2.79E-02
19257,2.16E-02,2.72E-02
19258,2.19E-02,2.74E-02
19259,2.15E-02,2.68E-02
19260,2.16E-02,2.70E-02
19261,2.19E-02,2.64E-02
19262,2.18E-02,2.66E-02
19263,2.25E-02,2.59E-02
19264,2.21E-02,2.61E-02
19265,2.26E-02,2.54E-02
19266,2.25E-02,2.56E-02
19267,2.33E-02,2.51E-02
19268,2.30E-02,2.53E-02
19269,2.45E-02,2.50E-02
19270,2.38E-02,2.51E-02
19271,2.39E-02,2.44E-02
19272,2.51E-02,2.45E-02
19273,2.27E-02,2.40E-02
19274,2.27E-02,2.42E-02
19275,2.22E-02,2.36E-02
19276,2.25E-02,2.38E-02
19277,2.23E-02,2.32E-02
19278,2.22E-02,2.34E-02
19279,2.23E-02,2.28E-02
19280,2.24E-02,2.30E-02
19281,2.23E-02,2.23E-02
19282,2.23E-02,2.25E-02
19283,2.21E-02,2.18E-02
19284,2.24E-02,2.20E-02
19285,2.21E-02,2.12E-02
19286,2.21E-02,2.15E-02
19287,2.23E-02,2.06E-02
19288,2.22E-02,2.09E-02
19289,2.21E-02,2.00E-02
19290,2.22E-02,2.03E-02
19291,2.21E-02,1.93E-02
19292,2.21E-02,1.97E-02
19293,2.23E-02,1.86E-02
19294,2.22E-02,1.90E-02
19295,2.19E-02,1.79E-02
19296,2.22E-02,1.83E-02
19297,2.18E-02,1.72E-02
19298,2.20E-02,1.76E-02
19299,2.16E-02,1.69E-02
19300,2.18E-02,1.56E-02
19301,2.19E-02,1.51E-02
19302,2.19E-02,1.53E-02
19303,2.22E-02,1.46E-02
19304,2.21E-02,1.49E-02
19305,2.24E-02,1.42E-02
19306,2.24E-02,1.44E-02
19307,2.26E-02,1.37E-02
19308,2.24E-02,1.39E-02
19309,2.25E-02,1.32E-02
19310,2.28E-02,1.34E-02
19311,2.22E-02,1.27E-02
19312,2.25E-02,1.29E-02
19313,2.22E-02,1.22E-02
19314,2.25E-02,1.24E-02
19315,2.21E-02,1.17E-02
19316,2.23E-02,1.19E-02
19317,2.21E-02,1.12E-02
19318,2.21E-02,1.14E-02
19319,2.18E-02,1.06E-02
19320,2.19E-02,1.09E-02
19321,2.16E-02,1.02E-02
19322,2.16E-02,1.04E-02
19323,2.17E-02,9.69E-03
19324,2.17E-02,9.92E-03
19325,2.19E-02,9.23E-03
19326,2.19E-02,9.45E-03
19327,2.25E-02,8.81E-03
19328,2.21E-02,9.02E-03
19329,2.29E-02,8.39E-03
19330,2.25E-02,8.60E-03
19331,2.28E-02,8.00E-03
19332,2.29E-02,8.19E-03
19333,2.27E-02,7.57E-03
19334,2.28E-02,7.79E-03
19335,2.27E-02,7.10E-03
19336,2.27E-02,7.34E-03
19337,2.29E-02,6.65E-03
19338,2.27E-02,6.88E-03
19339,2.27E-02,6.17E-03
19340,2.29E-02,6.41E-03
19341,2.22E-02,5.71E-03
19342,2.25E-02,5.94E-03
19343,2.21E-02,5.26E-03
19344,2.21E-02,5.48E-03
19345,2.22E-02,4.86E-03
19346,2.22E-02,5.06E-03
19347,2.22E-02,4.51E-03
19348,2.25E-02,4.68E-03
19349,2.22E-02,4.23E-03
19350,2.24E-02,4.35E-03
19351,2.26E-02,4.04E-03
19352,2.26E-02,4.13E-03
19353,2.27E-02,3.89E-03
19354,2.27E-02,3.97E-03
19355,2.23E-02,3.80E-03
19356,2.25E-02,3.83E-03
19357,2.24E-02,3.86E-03
19358,2.24E-02,3.81E-03
19359,2.24E-02,4.05E-03
19360,2.24E-02,3.94E-03
19361,2.28E-02,4.35E-03
19362,2.23E-02,4.18E-03
19363,2.37E-02,4.73E-03
19364,2.33E-02,4.53E-03
19365,2.46E-02,5.15E-03
19366,2.44E-02,4.94E-03
19367,2.38E-02,5.63E-03
19368,2.44E-02,5.37E-03
19369,2.30E-02,6.16E-03
19370,2.31E-02,5.88E-03
19371,2.25E-02,6.79E-03
19372,2.28E-02,6.52E-03
19373,2.24E-02,7.05E-03
19374,2.60E-02,5.55E-03
19375,2.53E-02,5.65E-03
19376,3.00E-02,5.92E-03
19377,2.70E-02,5.67E-03
19378,3.40E-02,1.54E-02
19379,2.69E-02,1.38E-02
19380,3.31E-02,1.90E-02
19381,3.34E-02,1.72E-02
19382,3.24E-02,2.25E-02
19383,3.25E-02,2.08E-02
19384,3.32E-02,2.60E-02
19385,3.27E-02,2.42E-02
19386,3.36E-02,2.96E-02
19387,2.73E-02,3.27E-02
19388,2.84E-02,3.12E-02
19389,2.71E-02,3.57E-02
19390,2.70E-02,3.42E-02
19391,2.72E-02,3.88E-02
19392,2.68E-02,3.72E-02
19393,2.64E-02,4.04E-02
19394,2.47E-02,2.50E-02
19395,2.15E-02,1.58E-02
19396,2.43E-02,8.24E-03
19397,2.89E-02,7.39E-03
19398,2.44E-02,4.55E-02
19399,2.24E-02,4.59E-02
19400,2.27E-02,4.63E-02
19401,2.40E-02,2.50E-02
19402,2.41E-02,2.50E-02
19403,2.18E-02,1.52E-02
19404,2.18E-02,1.54E-02
19405,2.00E-02,1.02E-02
19406,2.24E-02,4.55E-02
19407,2.55E-02,4.72E-02
19408,2.28E-02,4.69E-02
19409,2.33E-02,4.72E-02
19410,2.32E-02,4.66E-02
19411,2.20E-02,4.45E-02
19412,2.21E-02,4.50E-02
19413,2.20E-02,4.38E-02
19414,2.18E-02,4.41E-02
19415,2.16E-02,4.33E-02
19416,2.19E-02,4.35E-02
19417,2.14E-02,4.26E-02
19418,2.15E-02,4.30E-02
19419,2.17E-02,4.16E-02
19420,2.17E-02,4.22E-02
19421,2.22E-02,4.07E-02
19422,2.19E-02,4.12E-02
19423,2.24E-02,4.00E-02
19424,2.21E-02,4.03E-02
19425,2.25E-02,3.93E-02
19426,2.25E-02,3.96E-02
19427,2.23E-02,3.87E-02
19428,2.23E-02,3.90E-02
19429,2.23E-02,3.82E-02
19430,2.23E-02,3.84E-02
19431,2.24E-02,3.76E-02
19432,2.23E-02,3.79E-02
19433,2.27E-02,3.69E-02
19434,2.24E-02,3.72E-02
19435,2.23E-02,3.63E-02
19436,2.25E-02,3.66E-02
19437,2.23E-02,3.58E-02
19438,2.23E-02,3.61E-02
19439,2.23E-02,3.52E-02
19440,2.22E-02,3.55E-02
19441,2.28E-02,3.44E-02
19442,2.26E-02,3.48E-02
19443,2.27E-02,3.36E-02
19444,2.29E-02,3.40E-02
19445,2.25E-02,3.31E-02
19446,2.27E-02,3.34E-02
19447,2.22E-02,3.26E-02
19448,2.22E-02,3.29E-02
19449,2.21E-02,3.19E-02
19450,2.20E-02,3.23E-02
19451,2.27E-02,3.11E-02
19452,2.22E-02,3.15E-02
19453,2.27E-02,3.04E-02
19454,2.26E-02,3.07E-02
19455,2.24E-02,2.97E-02
19456,2.25E-02,3.00E-02
19457,2.24E-02,2.91E-02
19458,2.25E-02,2.94E-02
19459,2.24E-02,2.84E-02
19460,2.25E-02,2.88E-02
19461,2.22E-02,2.78E-02
19462,2.23E-02,2.81E-02
19463,2.18E-02,2.73E-02
19464,2.20E-02,2.75E-02
19465,2.16E-02,2.69E-02
19466,2.15E-02,2.71E-02
19467,2.20E-02,2.64E-02
19468,2.19E-02,2.67E-02
19469,2.23E-02,2.59E-02
19470,2.22E-02,2.62E-02
19471,2.27E-02,2.54E-02
19472,2.25E-02,2.56E-02
19473,2.33E-02,2.51E-02
19474,2.31E-02,2.52E-02
19475,2.36E-02,2.51E-02
19476,2.43E-02,2.49E-02
19477,2.44E-02,2.46E-02
19478,2.44E-02,2.47E-02
19479,2.32E-02,2.42E-02
19480,2.40E-02,2.44E-02
19481,2.25E-02,2.39E-02
19482,2.29E-02,2.41E-02
19483,2.22E-02,2.35E-02
19484,2.24E-02,2.37E-02
19485,2.22E-02,2.31E-02
19486,2.22E-02,2.33E-02
19487,2.22E-02,2.27E-02
19488,2.23E-02,2.29E-02
19489,2.23E-02,2.23E-02
19490,2.23E-02,2.25E-02
19491,2.21E-02,2.18E-02
19492,2.22E-02,2.20E-02
19493,2.21E-02,2.12E-02
19494,2.22E-02,2.15E-02
19495,2.21E-02,2.07E-02
19496,2.22E-02,2.10E-02
19497,2.21E-02,2.01E-02
19498,2.22E-02,2.04E-02
19499,2.21E-02,1.94E-02
19500,2.22E-02,1.98E-02
19501,2.21E-02,1.88E-02
19502,2.22E-02,1.91E-02
19503,2.21E-02,1.81E-02
19504,2.22E-02,1.85E-02
19505,2.21E-02,1.74E-02
19506,2.22E-02,1.78E-02
19507,2.17E-02,1.67E-02
19508,2.19E-02,1.71E-02
19509,2.16E-02,1.60E-02
19510,2.17E-02,1.64E-02
19511,2.21E-02,1.47E-02
19512,2.19E-02,1.50E-02
19513,2.21E-02,1.42E-02
19514,2.22E-02,1.45E-02
19515,2.25E-02,1.37E-02
19516,2.25E-02,1.40E-02
19517,2.29E-02,1.32E-02
19518,2.26E-02,1.35E-02
19519,2.25E-02,1.27E-02
19520,2.27E-02,1.29E-02
19521,2.22E-02,1.21E-02
19522,2.25E-02,1.24E-02
19523,2.22E-02,1.16E-02
19524,2.25E-02,1.19E-02
19525,2.22E-02,1.10E-02
19526,2.25E-02,1.13E-02
19527,2.21E-02,1.05E-02
19528,2.21E-02,1.08E-02
19529,2.19E-02,9.96E-03
19530,2.20E-02,1.02E-02
19531,2.17E-02,9.44E-03
19532,2.19E-02,9.69E-03
19533,2.18E-02,8.94E-03
19534,2.18E-02,9.19E-03
19535,2.20E-02,8.46E-03
19536,2.18E-02,8.69E-03
19537,2.24E-02,8.01E-03
19538,2.21E-02,8.23E-03
19539,2.29E-02,7.56E-03
19540,2.25E-02,7.79E-03
19541,2.29E-02,7.12E-03
19542,2.29E-02,7.34E-03
19543,2.28E-02,6.66E-03
19544,2.28E-02,6.90E-03
19545,2.30E-02,6.15E-03
19546,2.28E-02,6.40E-03
19547,2.29E-02,5.66E-03
19548,2.26E-02,5.91E-03
19549,2.27E-02,5.15E-03
19550,2.29E-02,5.41E-03
19551,2.24E-02,4.66E-03
19552,2.25E-02,4.90E-03
19553,2.22E-02,4.18E-03
19554,2.25E-02,4.41E-03
19555,2.22E-02,3.78E-03
19556,2.24E-02,3.97E-03
19557,2.21E-02,3.45E-03
19558,2.25E-02,3.60E-03
19559,2.23E-02,3.24E-03
19560,2.24E-02,3.32E-03
19561,2.28E-02,3.18E-03
19562,2.25E-02,3.20E-03
19563,2.29E-02,3.21E-03
19564,2.27E-02,3.18E-03
19565,2.26E-02,3.37E-03
19566,2.27E-02,3.26E-03
19567,2.25E-02,3.69E-03
19568,2.24E-02,3.51E-03
19569,2.24E-02,4.13E-03
19570,2.23E-02,3.90E-03
19571,2.27E-02,4.66E-03
19572,2.24E-02,4.39E-03
19573,2.35E-02,5.22E-03
19574,2.31E-02,4.93E-03
19575,2.37E-02,5.80E-03
19576,2.37E-02,5.50E-03
19577,2.34E-02,6.43E-03
19578,2.38E-02,6.11E-03
19579,2.30E-02,7.09E-03
19580,2.32E-02,6.75E-03
19581,2.30E-02,7.78E-03
19582,2.31E-02,7.43E-03
19583,2.40E-02,8.48E-03
19584,2.34E-02,8.11E-03
19585,2.21E-02,9.30E-03
19586,2.41E-02,8.82E-03
19587,1.92E-02,9.89E-03
19588,2.95E-02,6.63E-03
19589,2.70E-02,5.73E-03
19590,2.88E-02,6.05E-03
19591,2.68E-02,5.80E-03
19592,2.75E-02,5.68E-03
19593,3.21E-02,6.56E-03
19594,2.82E-02,6.13E-03
19595,4.43E-02,1.12E-02
19596,3.16E-02,1.57E-02
19597,3.31E-02,1.40E-02
19598,3.10E-02,1.91E-02
19599,3.14E-02,1.74E-02
19600,3.06E-02,2.25E-02
19601,3.07E-02,2.08E-02
19602,3.14E-02,2.60E-02
19603,3.09E-02,2.42E-02
19604,2.99E-02,2.93E-02
19605,3.23E-02,2.77E-02
19606,2.67E-02,3.23E-02
19607,2.81E-02,3.08E-02
19608,2.63E-02,3.52E-02
19609,2.65E-02,3.38E-02
19610,2.63E-02,3.83E-02
19611,2.64E-02,3.67E-02
19612,2.66E-02,4.15E-02
19613,2.64E-02,3.98E-02
19614,2.77E-02,4.33E-02
19615,2.92E-02,4.73E-02
19616,2.25E-02,4.77E-02
19617,2.27E-02,4.80E-02
19618,2.41E-02,2.50E-02
19619,2.16E-02,1.57E-02
19620,1.80E-02,1.14E-02
19621,1.90E-02,1.17E-02
19622,2.85E-02,9.91E-03
19623,2.89E-02,4.97E-02
19624,2.82E-02,5.00E-02
19625,2.23E-02,4.72E-02
19626,2.58E-02,4.92E-02
19627,2.75E-02,4.93E-02
19628,2.35E-02,4.87E-02
19629,2.42E-02,4.89E-02
19630,2.32E-02,4.84E-02
19631,2.21E-02,4.59E-02
19632,2.21E-02,4.66E-02
19633,2.21E-02,4.49E-02
19634,2.20E-02,4.53E-02
19635,2.18E-02,4.45E-02
19636,2.21E-02,4.47E-02
19637,2.16E-02,4.36E-02
19638,2.17E-02,4.41E-02
19639,2.18E-02,4.25E-02
19640,2.17E-02,4.30E-02
19641,2.23E-02,4.16E-02
19642,2.20E-02,4.20E-02
19643,2.23E-02,4.09E-02
19644,2.22E-02,4.12E-02
19645,2.27E-02,4.02E-02
19646,2.23E-02,4.06E-02
19647,2.25E-02,3.96E-02
19648,2.27E-02,3.99E-02
19649,2.23E-02,3.91E-02
19650,2.24E-02,3.94E-02
19651,2.23E-02,3.85E-02
19652,2.22E-02,3.88E-02
19653,2.27E-02,3.78E-02
19654,2.25E-02,3.81E-02
19655,2.24E-02,3.72E-02
19656,2.26E-02,3.74E-02
19657,2.22E-02,3.67E-02
19658,2.22E-02,3.69E-02
19659,2.25E-02,3.61E-02
19660,2.24E-02,3.64E-02
19661,2.30E-02,3.52E-02
19662,2.27E-02,3.56E-02
19663,2.27E-02,3.44E-02
19664,2.28E-02,3.48E-02
19665,2.24E-02,3.38E-02
19666,2.27E-02,3.41E-02
19667,2.22E-02,3.32E-02
19668,2.22E-02,3.35E-02
19669,2.22E-02,3.25E-02
19670,2.20E-02,3.29E-02
19671,2.27E-02,3.16E-02
19672,2.23E-02,3.20E-02
19673,2.26E-02,3.08E-02
19674,2.26E-02,3.12E-02
19675,2.24E-02,3.02E-02
19676,2.25E-02,3.05E-02
19677,2.24E-02,2.95E-02
19678,2.25E-02,2.98E-02
19679,2.24E-02,2.87E-02
19680,2.25E-02,2.91E-02
19681,2.23E-02,2.80E-02
19682,2.25E-02,2.83E-02
19683,2.19E-02,2.73E-02
19684,2.21E-02,2.76E-02
19685,2.18E-02,2.69E-02
19686,2.17E-02,2.71E-02
19687,2.22E-02,2.64E-02
19688,2.20E-02,2.66E-02
19689,2.24E-02,2.58E-02
19690,2.24E-02,2.61E-02
19691,2.28E-02,2.54E-02
19692,2.27E-02,2.56E-02
19693,2.34E-02,2.51E-02
19694,2.31E-02,2.52E-02
19695,2.37E-02,2.50E-02
19696,2.35E-02,2.50E-02
19697,2.57E-02,5.04E-02
19698,2.41E-02,2.48E-02
19699,2.38E-02,2.49E-02
19700,2.41E-02,2.50E-02
19701,2.40E-02,2.50E-02
19702,2.39E-02,2.44E-02
19703,2.41E-02,2.46E-02
19704,2.30E-02,2.41E-02
19705,2.36E-02,2.43E-02
19706,2.25E-02,2.38E-02
19707,2.28E-02,2.39E-02
19708,2.22E-02,2.34E-02
19709,2.24E-02,2.36E-02
19710,2.22E-02,2.31E-02
19711,2.22E-02,2.33E-02
19712,2.22E-02,2.27E-02
19713,2.22E-02,2.29E-02
19714,2.22E-02,2.22E-02
19715,2.22E-02,2.25E-02
19716,2.22E-02,2.18E-02
19717,2.22E-02,2.20E-02
19718,2.22E-02,2.13E-02
19719,2.22E-02,2.15E-02
19720,2.22E-02,2.07E-02
19721,2.22E-02,2.10E-02
19722,2.22E-02,2.02E-02
19723,2.22E-02,2.04E-02
19724,2.21E-02,1.96E-02
19725,2.22E-02,1.99E-02
19726,2.22E-02,1.89E-02
19727,2.22E-02,1.92E-02
19728,2.21E-02,1.83E-02
19729,2.22E-02,1.86E-02
19730,2.21E-02,1.76E-02
19731,2.21E-02,1.80E-02
19732,2.19E-02,1.69E-02
19733,2.23E-02,1.73E-02
19734,2.18E-02,1.63E-02
19735,2.17E-02,1.66E-02
19736,2.17E-02,1.59E-02
19737,2.19E-02,1.54E-02
19738,2.19E-02,1.48E-02
19739,2.19E-02,1.51E-02
19740,2.22E-02,1.43E-02
19741,2.22E-02,1.46E-02
19742,2.21E-02,1.38E-02
19743,2.23E-02,1.41E-02
19744,2.24E-02,1.33E-02
19745,2.25E-02,1.36E-02
19746,2.29E-02,1.28E-02
19747,2.26E-02,1.30E-02
19748,2.25E-02,1.22E-02
19749,2.26E-02,1.25E-02
19750,2.22E-02,1.16E-02
19751,2.25E-02,1.19E-02
19752,2.23E-02,1.10E-02
19753,2.25E-02,1.13E-02
19754,2.22E-02,1.04E-02
19755,2.25E-02,1.07E-02
19756,2.21E-02,9.84E-03
19757,2.21E-02,1.01E-02
19758,2.19E-02,9.27E-03
19759,2.20E-02,9.55E-03
19760,2.20E-02,8.72E-03
19761,2.19E-02,8.99E-03
19762,2.18E-02,8.19E-03
19763,2.19E-02,8.45E-03
19764,2.21E-02,7.69E-03
19765,2.20E-02,7.93E-03
19766,2.24E-02,7.22E-03
19767,2.22E-02,7.46E-03
19768,2.27E-02,6.73E-03
19769,2.27E-02,6.98E-03
19770,2.29E-02,6.25E-03
19771,2.28E-02,6.49E-03
19772,2.29E-02,5.74E-03
19773,2.28E-02,6.00E-03
19774,2.28E-02,5.21E-03
19775,2.27E-02,5.47E-03
19776,2.29E-02,4.67E-03
19777,2.26E-02,4.94E-03
19778,2.26E-02,4.12E-03
19779,2.27E-02,4.40E-03
19780,2.22E-02,3.58E-03
19781,2.25E-02,3.85E-03
19782,2.21E-02,3.10E-03
19783,2.24E-02,3.33E-03
19784,2.23E-02,2.72E-03
19785,2.24E-02,2.89E-03
19786,2.22E-02,2.47E-03
19787,2.25E-02,2.57E-03
19788,2.23E-02,2.45E-03
19789,2.24E-02,2.43E-03
19790,2.29E-02,2.64E-03
19791,2.24E-02,2.53E-03
19792,2.28E-02,2.96E-03
19793,2.27E-02,2.78E-03
19794,2.24E-02,3.43E-03
19795,2.26E-02,3.17E-03
19796,2.23E-02,4.02E-03
19797,2.22E-02,3.72E-03
19798,2.24E-02,4.67E-03
19799,2.23E-02,4.34E-03
19800,2.24E-02,5.36E-03
19801,2.22E-02,5.01E-03
19802,2.31E-02,6.06E-03
19803,2.27E-02,5.71E-03
19804,2.33E-02,6.77E-03
19805,2.32E-02,6.41E-03
19806,2.32E-02,7.51E-03
19807,2.33E-02,7.14E-03
19808,2.33E-02,8.25E-03
19809,2.32E-02,7.87E-03
19810,2.31E-02,9.00E-03
19811,2.31E-02,8.61E-03
19812,2.32E-02,9.78E-03
19813,2.30E-02,9.40E-03
19814,2.15E-02,1.06E-02
19815,2.26E-02,1.02E-02
19816,1.91E-02,1.11E-02
19817,2.40E-02,1.18E-02
19818,3.21E-02,9.97E-03
19819,2.80E-02,6.05E-03
19820,2.55E-02,5.79E-03
19821,2.60E-02,5.78E-03
19822,2.70E-02,6.31E-03
19823,2.65E-02,5.98E-03
19824,3.08E-02,7.35E-03
19825,2.84E-02,6.79E-03
19826,3.71E-02,9.15E-03
19827,3.43E-02,8.16E-03
19828,3.90E-02,1.23E-02
19829,3.75E-02,1.05E-02
19830,3.03E-02,1.59E-02
19831,3.57E-02,1.41E-02
19832,2.93E-02,1.92E-02
19833,2.98E-02,1.76E-02
19834,2.86E-02,2.25E-02
19835,2.88E-02,2.09E-02
19836,2.88E-02,2.58E-02
19837,2.89E-02,2.42E-02
19838,2.75E-02,2.89E-02
19839,2.91E-02,2.74E-02
19840,2.60E-02,3.19E-02
19841,2.70E-02,3.04E-02
19842,2.53E-02,3.47E-02
19843,2.59E-02,3.33E-02
19844,2.57E-02,3.77E-02
19845,2.57E-02,3.62E-02
19846,2.70E-02,4.08E-02
19847,2.60E-02,3.92E-02
19848,2.93E-02,4.27E-02
19849,2.42E-02,5.11E-02
19850,1.98E-02,5.16E-02
19851,2.30E-02,5.02E-02
19852,2.50E-02,4.91E-02
19853,2.90E-02,6.52E-03
19854,2.18E-02,5.17E-02
19855,2.39E-02,2.50E-02
19856,2.18E-02,1.56E-02
19857,2.50E-02,1.20E-02
19858,2.96E-02,7.02E-03
19859,2.95E-02,4.87E-02
19860,2.79E-02,5.16E-02
19861,2.89E-02,4.97E-02
19862,2.45E-02,5.21E-02
19863,2.27E-02,5.38E-02
19864,2.32E-02,5.40E-02
19865,2.28E-02,4.98E-02
19866,2.25E-02,4.94E-02
19867,2.36E-02,5.33E-02
19868,2.30E-02,5.36E-02
19869,2.50E-02,5.25E-02
19870,2.35E-02,5.29E-02
19871,2.53E-02,5.18E-02
19872,2.45E-02,5.21E-02
19873,2.50E-02,5.12E-02
19874,2.55E-02,5.15E-02
19875,2.37E-02,5.06E-02
19876,2.42E-02,5.09E-02
19877,2.31E-02,5.02E-02
19878,2.23E-02,4.76E-02
19879,2.25E-02,4.90E-02
19880,2.25E-02,4.84E-02
19881,2.23E-02,4.61E-02
19882,2.23E-02,4.67E-02
19883,2.18E-02,4.55E-02
19884,2.20E-02,4.58E-02
19885,2.19E-02,4.43E-02
19886,2.18E-02,4.50E-02
19887,2.21E-02,4.31E-02
19888,2.18E-02,4.36E-02
19889,2.22E-02,4.24E-02
19890,2.22E-02,4.27E-02
19891,2.23E-02,4.18E-02
19892,2.23E-02,4.21E-02
19893,2.26E-02,4.12E-02
19894,2.25E-02,4.15E-02
19895,2.27E-02,4.06E-02
19896,2.27E-02,4.09E-02
19897,2.26E-02,4.00E-02
19898,2.27E-02,4.03E-02
19899,2.25E-02,3.94E-02
19900,2.26E-02,3.97E-02
19901,2.27E-02,3.87E-02
19902,2.25E-02,3.91E-02
19903,2.24E-02,3.81E-02
19904,2.26E-02,3.83E-02
19905,2.21E-02,3.75E-02
19906,2.21E-02,3.78E-02
19907,2.24E-02,3.69E-02
19908,2.23E-02,3.73E-02
19909,2.29E-02,3.61E-02
19910,2.26E-02,3.65E-02
19911,2.29E-02,3.53E-02
19912,2.27E-02,3.56E-02
19913,2.24E-02,3.46E-02
19914,2.25E-02,3.49E-02
19915,2.21E-02,3.38E-02
19916,2.23E-02,3.42E-02
19917,2.24E-02,3.30E-02
19918,2.22E-02,3.34E-02
19919,2.27E-02,3.21E-02
19920,2.24E-02,3.25E-02
19921,2.26E-02,3.13E-02
19922,2.26E-02,3.17E-02
19923,2.24E-02,3.07E-02
19924,2.25E-02,3.10E-02
19925,2.24E-02,2.99E-02
19926,2.25E-02,3.03E-02
19927,2.25E-02,2.90E-02
19928,2.25E-02,2.94E-02
19929,2.24E-02,2.81E-02
19930,2.25E-02,2.86E-02
19931,2.19E-02,2.73E-02
19932,2.21E-02,2.77E-02
19933,2.20E-02,2.67E-02
19934,2.19E-02,2.70E-02
19935,2.22E-02,2.62E-02
19936,2.21E-02,2.64E-02
19937,2.27E-02,2.57E-02
19938,2.26E-02,2.60E-02
19939,2.29E-02,2.54E-02
19940,2.29E-02,2.55E-02
19941,2.32E-02,2.51E-02
19942,2.30E-02,2.52E-02
19943,2.35E-02,2.49E-02
19944,2.35E-02,2.50E-02
19945,2.39E-02,2.48E-02
19946,2.38E-02,2.48E-02
19947,2.40E-02,2.49E-02
19948,2.38E-02,2.49E-02
19949,2.37E-02,2.46E-02
19950,2.36E-02,2.47E-02
19951,2.34E-02,2.43E-02
19952,2.37E-02,2.44E-02
19953,2.27E-02,2.40E-02
19954,2.32E-02,2.41E-02
19955,2.23E-02,2.37E-02
19956,2.26E-02,2.38E-02
19957,2.21E-02,2.33E-02
19958,2.22E-02,2.35E-02
19959,2.21E-02,2.30E-02
19960,2.22E-02,2.32E-02
19961,2.21E-02,2.26E-02
19962,2.22E-02,2.28E-02
19963,2.21E-02,2.22E-02
19964,2.22E-02,2.24E-02
19965,2.21E-02,2.18E-02
19966,2.22E-02,2.20E-02
19967,2.21E-02,2.13E-02
19968,2.22E-02,2.15E-02
19969,2.21E-02,2.08E-02
19970,2.22E-02,2.10E-02
19971,2.21E-02,2.02E-02
19972,2.22E-02,2.05E-02
19973,2.21E-02,1.97E-02
19974,2.22E-02,2.00E-02
19975,2.21E-02,1.91E-02
19976,2.22E-02,1.94E-02
19977,2.21E-02,1.84E-02
19978,2.22E-02,1.88E-02
19979,2.21E-02,1.78E-02
19980,2.22E-02,1.81E-02
19981,2.21E-02,1.72E-02
19982,2.24E-02,1.75E-02
19983,2.20E-02,1.65E-02
19984,2.21E-02,1.68E-02
19985,2.22E-02,1.50E-02
19986,2.20E-02,1.53E-02
19987,2.19E-02,1.58E-02
19988,2.19E-02,1.62E-02
19989,2.22E-02,1.45E-02
19990,2.23E-02,1.48E-02
19991,2.22E-02,1.40E-02
19992,2.24E-02,1.42E-02
19993,2.22E-02,1.34E-02
19994,2.25E-02,1.37E-02
19995,2.24E-02,1.29E-02
19996,2.24E-02,1.32E-02
19997,2.28E-02,1.23E-02
19998,2.26E-02,1.26E-02
19999,2.24E-02,1.17E-02
20000,2.26E-02,1.20E-02
20001,2.22E-02,1.11E-02
20002,2.24E-02,1.15E-02
20003,2.23E-02,1.05E-02
20004,2.24E-02,1.08E-02
20005,2.23E-02,9.84E-03
20006,2.24E-02,1.02E-02
20007,2.21E-02,9.20E-03
20008,2.23E-02,9.52E-03
20009,2.20E-02,8.57E-03
20010,2.22E-02,8.88E-03
20011,2.21E-02,8.00E-03
20012,2.20E-02,8.28E-03
20013,2.19E-02,7.42E-03
20014,2.20E-02,7.71E-03
20015,2.21E-02,6.94E-03
20016,2.21E-02,7.17E-03
20017,2.24E-02,6.44E-03
20018,2.23E-02,6.70E-03
20019,2.25E-02,5.93E-03
20020,2.25E-02,6.18E-03
20021,2.27E-02,5.40E-03
20022,2.28E-02,5.67E-03
20023,2.26E-02,4.84E-03
20024,2.25E-02,5.13E-03
20025,2.28E-02,4.26E-03
20026,2.27E-02,4.55E-03
20027,2.28E-02,3.68E-03
20028,2.26E-02,3.97E-03
20029,2.25E-02,3.07E-03
20030,2.26E-02,3.38E-03
20031,2.22E-02,2.50E-03
20032,2.25E-02,2.78E-03
20033,2.21E-02,2.03E-03
20034,2.24E-02,2.24E-03
20035,2.23E-02,1.75E-03
20036,2.24E-02,1.86E-03
20037,2.22E-02,1.77E-03
20038,2.25E-02,1.72E-03
20039,2.23E-02,2.12E-03
20040,2.24E-02,1.91E-03
20041,2.27E-02,2.65E-03
20042,2.24E-02,2.38E-03
20043,2.26E-02,3.27E-03
20044,2.27E-02,2.95E-03
20045,2.23E-02,4.01E-03
20046,2.25E-02,3.63E-03
20047,2.24E-02,4.77E-03
20048,2.24E-02,4.39E-03
20049,2.22E-02,5.54E-03
20050,2.23E-02,5.15E-03
20051,2.22E-02,6.34E-03
20052,2.24E-02,5.93E-03
20053,2.27E-02,7.13E-03
20054,2.24E-02,6.74E-03
20055,2.29E-02,7.94E-03
20056,2.28E-02,7.54E-03
20057,2.28E-02,8.77E-03
20058,2.29E-02,8.36E-03
20059,2.30E-02,9.58E-03
20060,2.29E-02,9.19E-03
20061,2.30E-02,1.04E-02
20062,2.29E-02,9.99E-03
20063,2.28E-02,1.12E-02
20064,2.29E-02,1.08E-02
20065,2.16E-02,1.21E-02
20066,2.25E-02,1.17E-02
20067,2.11E-02,1.29E-02
20068,2.10E-02,1.25E-02
20069,2.24E-02,1.37E-02
20070,2.18E-02,1.33E-02
20071,2.33E-02,1.39E-02
20072,2.50E-02,1.24E-02
20073,2.84E-02,9.02E-03
20074,2.63E-02,1.06E-02
20075,2.76E-02,7.59E-03
20076,2.69E-02,6.20E-03
20077,2.64E-02,5.84E-03
20078,2.66E-02,5.95E-03
20079,2.54E-02,6.15E-03
20080,2.58E-02,5.91E-03
20081,2.64E-02,7.02E-03
20082,2.57E-02,6.53E-03
20083,2.85E-02,8.30E-03
20084,2.72E-02,7.59E-03
20085,3.17E-02,1.02E-02
20086,2.97E-02,9.15E-03
20087,3.26E-02,1.30E-02
20088,3.23E-02,1.15E-02
20089,2.84E-02,1.62E-02
20090,3.02E-02,1.46E-02
20091,2.74E-02,1.94E-02
20092,2.78E-02,1.78E-02
20093,2.66E-02,2.25E-02
20094,2.69E-02,2.10E-02
20095,2.64E-02,2.56E-02
20096,2.66E-02,2.41E-02
20097,2.57E-02,2.85E-02
20098,2.62E-02,2.71E-02
20099,2.48E-02,3.14E-02
20100,2.53E-02,3.00E-02
20101,2.45E-02,3.42E-02
20102,2.49E-02,3.28E-02
20103,2.50E-02,3.70E-02
20104,2.47E-02,3.56E-02
20105,2.66E-02,4.01E-02
20106,2.57E-02,3.85E-02
20107,3.45E-02,4.37E-02
20108,2.89E-02,4.18E-02
20109,3.01E-02,4.64E-02
20110,3.32E-02,4.52E-02
20111,2.65E-02,4.75E-02
20112,2.51E-02,5.03E-02
20113,2.29E-02,5.26E-02
20114,2.29E-02,5.44E-02
20115,2.26E-02,5.58E-02
20116,2.27E-02,5.61E-02
20117,2.38E-02,2.48E-02
20118,2.18E-02,1.55E-02
20119,2.37E-02,1.43E-02
20120,2.64E-02,6.54E-03
20121,2.26E-02,5.08E-02
20122,2.31E-02,5.52E-02
20123,2.21E-02,5.55E-02
20124,2.42E-02,5.44E-02
20125,2.38E-02,5.47E-02
20126,2.48E-02,5.38E-02
20127,2.48E-02,5.41E-02
20128,2.45E-02,5.33E-02
20129,2.48E-02,5.36E-02
20130,2.34E-02,5.28E-02
20131,2.40E-02,5.31E-02
20132,2.29E-02,5.17E-02
20133,2.31E-02,5.23E-02
20134,2.26E-02,5.07E-02
20135,2.26E-02,5.12E-02
20136,2.26E-02,4.96E-02
20137,2.26E-02,5.02E-02
20138,2.24E-02,4.78E-02
20139,2.24E-02,4.88E-02
20140,2.21E-02,4.61E-02
20141,2.19E-02,4.70E-02
20142,2.21E-02,4.43E-02
20143,2.21E-02,4.51E-02
20144,2.21E-02,4.36E-02
20145,2.22E-02,4.39E-02
20146,2.23E-02,4.33E-02
20147,2.23E-02,4.35E-02
20148,2.24E-02,4.29E-02
20149,2.24E-02,4.31E-02
20150,2.26E-02,4.23E-02
20151,2.25E-02,4.26E-02
20152,2.26E-02,4.15E-02
20153,2.27E-02,4.19E-02
20154,2.26E-02,4.08E-02
20155,2.26E-02,4.11E-02
20156,2.25E-02,4.03E-02
20157,2.26E-02,4.05E-02
20158,2.26E-02,3.97E-02
20159,2.25E-02,4.00E-02
20160,2.24E-02,3.91E-02
20161,2.25E-02,3.95E-02
20162,2.22E-02,3.83E-02
20163,2.22E-02,3.87E-02
20164,2.24E-02,3.76E-02
20165,2.22E-02,3.79E-02
20166,2.28E-02,3.71E-02
20167,2.26E-02,3.74E-02
20168,2.27E-02,3.64E-02
20169,2.28E-02,3.68E-02
20170,2.24E-02,3.54E-02
20171,2.25E-02,3.60E-02
20172,2.22E-02,3.42E-02
20173,2.23E-02,3.48E-02
20174,2.23E-02,3.33E-02
20175,2.22E-02,3.37E-02
20176,2.27E-02,3.26E-02
20177,2.25E-02,3.30E-02
20178,2.25E-02,3.20E-02
20179,2.26E-02,3.23E-02
20180,2.24E-02,3.12E-02
20181,2.25E-02,3.16E-02
20182,2.25E-02,3.03E-02
20183,2.25E-02,3.07E-02
20184,2.25E-02,2.94E-02
20185,2.25E-02,2.98E-02
20186,2.24E-02,2.84E-02
20187,2.25E-02,2.89E-02
20188,2.21E-02,2.73E-02
20189,2.22E-02,2.78E-02
20190,2.20E-02,2.62E-02
20191,2.20E-02,2.67E-02
20192,2.24E-02,2.57E-02
20193,2.22E-02,2.59E-02
20194,2.29E-02,2.56E-02
20195,2.26E-02,2.56E-02
20196,2.28E-02,2.56E-02
20197,2.27E-02,2.56E-02
20198,2.31E-02,2.53E-02
20199,2.30E-02,2.55E-02
20200,2.35E-02,2.47E-02
20201,2.32E-02,2.50E-02
20202,2.38E-02,2.43E-02
20203,2.36E-02,2.44E-02
20204,2.25E-02,5.64E-02
20205,2.35E-02,2.47E-02
20206,2.36E-02,2.48E-02
20207,2.38E-02,2.45E-02
20208,2.40E-02,2.43E-02
20209,2.34E-02,2.44E-02
20210,2.34E-02,2.45E-02
20211,2.28E-02,2.41E-02
20212,2.31E-02,2.42E-02
20213,2.26E-02,2.38E-02
20214,2.28E-02,2.40E-02
20215,2.22E-02,2.35E-02
20216,2.24E-02,2.37E-02
20217,2.21E-02,2.33E-02
20218,2.22E-02,2.34E-02
20219,2.21E-02,2.29E-02
20220,2.22E-02,2.31E-02
20221,2.21E-02,2.26E-02
20222,2.22E-02,2.28E-02
20223,2.21E-02,2.22E-02
20224,2.22E-02,2.24E-02
20225,2.21E-02,2.18E-02
20226,2.22E-02,2.20E-02
20227,2.21E-02,2.13E-02
20228,2.22E-02,2.16E-02
20229,2.21E-02,2.08E-02
20230,2.22E-02,2.11E-02
20231,2.21E-02,2.03E-02
20232,2.22E-02,2.06E-02
20233,2.21E-02,1.98E-02
20234,2.22E-02,2.00E-02
20235,2.21E-02,1.92E-02
20236,2.22E-02,1.95E-02
20237,2.21E-02,1.86E-02
20238,2.22E-02,1.89E-02
20239,2.21E-02,1.80E-02
20240,2.22E-02,1.83E-02
20241,2.21E-02,1.74E-02
20242,2.22E-02,1.77E-02
20243,2.21E-02,1.68E-02
20244,2.22E-02,1.71E-02
20245,2.20E-02,1.61E-02
20246,2.20E-02,1.64E-02
20247,2.20E-02,1.58E-02
20248,2.21E-02,1.53E-02
20249,2.22E-02,1.47E-02
20250,2.22E-02,1.50E-02
20251,2.23E-02,1.42E-02
20252,2.25E-02,1.44E-02
20253,2.23E-02,1.36E-02
20254,2.23E-02,1.39E-02
20255,2.23E-02,1.31E-02
20256,2.24E-02,1.33E-02
20257,2.24E-02,1.25E-02
20258,2.24E-02,1.28E-02
20259,2.26E-02,1.20E-02
20260,2.26E-02,1.23E-02
20261,2.24E-02,1.13E-02
20262,2.25E-02,1.17E-02
20263,2.23E-02,1.07E-02
20264,2.24E-02,1.10E-02
20265,2.24E-02,9.96E-03
20266,2.24E-02,1.03E-02
20267,2.23E-02,9.27E-03
20268,2.24E-02,9.62E-03
20269,2.22E-02,8.58E-03
20270,2.23E-02,8.92E-03
20271,2.22E-02,7.87E-03
20272,2.24E-02,8.23E-03
20273,2.22E-02,7.26E-03
20274,2.20E-02,7.55E-03
20275,2.21E-02,6.66E-03
20276,2.22E-02,6.96E-03
20277,2.24E-02,6.18E-03
20278,2.22E-02,6.41E-03
20279,2.27E-02,5.69E-03
20280,2.24E-02,5.94E-03
20281,2.26E-02,5.19E-03
20282,2.26E-02,5.45E-03
20283,2.25E-02,4.58E-03
20284,2.24E-02,4.89E-03
20285,2.25E-02,3.95E-03
20286,2.26E-02,4.27E-03
20287,2.27E-02,3.34E-03
20288,2.26E-02,3.65E-03
20289,2.26E-02,2.68E-03
20290,2.26E-02,3.02E-03
20291,2.24E-02,2.01E-03
20292,2.25E-02,2.35E-03
20293,2.23E-02,1.40E-03
20294,2.24E-02,1.69E-03
20295,2.23E-02,1.05E-03
20296,2.24E-02,1.17E-03
20297,2.24E-02,1.20E-03
20298,2.24E-02,1.06E-03
20299,2.23E-02,1.74E-03
20300,2.24E-02,1.44E-03
20301,2.24E-02,2.45E-03
20302,2.23E-02,2.08E-03
20303,2.27E-02,3.24E-03
20304,2.25E-02,2.84E-03
20305,2.24E-02,4.07E-03
20306,2.27E-02,3.64E-03
20307,2.22E-02,4.94E-03
20308,2.24E-02,4.50E-03
20309,2.24E-02,5.77E-03
20310,2.23E-02,5.36E-03
20311,2.23E-02,6.62E-03
20312,2.24E-02,6.19E-03
20313,2.23E-02,7.49E-03
20314,2.24E-02,7.05E-03
20315,2.24E-02,8.36E-03
20316,2.24E-02,7.92E-03
20317,2.25E-02,9.24E-03
20318,2.24E-02,8.79E-03
20319,2.26E-02,1.02E-02
20320,2.26E-02,9.69E-03
20321,2.28E-02,1.11E-02
20322,2.28E-02,1.06E-02
20323,2.29E-02,1.20E-02
20324,2.29E-02,1.15E-02
20325,2.26E-02,1.28E-02
20326,2.27E-02,1.24E-02
20327,2.21E-02,1.36E-02
20328,2.25E-02,1.32E-02
20329,2.20E-02,1.44E-02
20330,2.21E-02,1.40E-02
20331,2.26E-02,1.53E-02
20332,2.22E-02,1.49E-02
20333,2.45E-02,1.28E-02
20334,2.36E-02,1.47E-02
20335,2.31E-02,1.63E-02
20336,2.29E-02,1.58E-02
20337,2.63E-02,9.56E-03
20338,2.47E-02,1.11E-02
20339,2.56E-02,5.89E-03
20340,2.51E-02,5.97E-03
20341,2.55E-02,6.94E-03
20342,2.60E-02,8.12E-03
20343,2.54E-02,6.09E-03
20344,2.56E-02,5.92E-03
20345,2.50E-02,6.79E-03
20346,2.52E-02,6.38E-03
20347,2.53E-02,7.88E-03
20348,2.50E-02,7.30E-03
20349,2.65E-02,9.26E-03
20350,2.58E-02,8.53E-03
20351,2.74E-02,1.11E-02
20352,2.70E-02,1.01E-02
20353,2.71E-02,1.37E-02
20354,2.75E-02,1.23E-02
20355,2.57E-02,1.65E-02
20356,2.56E-02,1.51E-02
20357,2.54E-02,1.95E-02
20358,2.54E-02,1.80E-02
20359,2.49E-02,2.25E-02
20360,2.51E-02,2.10E-02
20361,2.46E-02,2.54E-02
20362,2.47E-02,2.40E-02
20363,2.38E-02,2.82E-02
20364,2.40E-02,2.68E-02
20365,2.35E-02,3.10E-02
20366,2.37E-02,2.96E-02
20367,2.38E-02,3.37E-02
20368,2.36E-02,3.23E-02
20369,2.41E-02,3.64E-02
20370,2.38E-02,3.50E-02
20371,2.57E-02,3.92E-02
20372,2.49E-02,3.78E-02
20373,2.75E-02,4.22E-02
20374,2.65E-02,4.08E-02
20375,2.67E-02,4.48E-02
20376,2.77E-02,4.35E-02
20377,2.55E-02,4.70E-02
20378,2.62E-02,4.60E-02
20379,2.39E-02,4.85E-02
20380,2.49E-02,4.78E-02
20381,2.23E-02,4.91E-02
20382,2.21E-02,5.13E-02
20383,2.22E-02,5.48E-02
20384,2.22E-02,5.30E-02
20385,2.20E-02,5.67E-02
20386,2.36E-02,2.47E-02
20387,2.21E-02,1.55E-02
20388,2.30E-02,1.68E-02
20389,2.47E-02,6.16E-03
20390,2.16E-02,4.97E-02
20391,2.18E-02,5.86E-02
20392,2.23E-02,5.84E-02
20393,2.26E-02,5.81E-02
20394,2.26E-02,5.78E-02
20395,2.27E-02,5.74E-02
20396,2.28E-02,5.70E-02
20397,2.32E-02,5.66E-02
20398,2.36E-02,5.61E-02
20399,2.41E-02,5.58E-02
20400,2.43E-02,5.55E-02
20401,2.42E-02,5.54E-02
20402,2.39E-02,5.55E-02
20403,2.33E-02,5.56E-02
20404,2.29E-02,5.56E-02
20405,2.28E-02,5.50E-02
20406,2.30E-02,5.39E-02
20407,2.30E-02,5.27E-02
20408,2.28E-02,5.16E-02
20409,2.27E-02,5.13E-02
20410,2.25E-02,5.19E-02
20411,2.21E-02,5.24E-02
20412,2.20E-02,5.16E-02
20413,2.20E-02,4.85E-02
20414,2.24E-02,4.50E-02
20415,2.25E-02,4.34E-02
20416,2.24E-02,4.36E-02
20417,2.24E-02,4.41E-02
20418,2.23E-02,4.43E-02
20419,2.25E-02,4.43E-02
20420,2.25E-02,4.42E-02
20421,2.24E-02,4.41E-02
20422,2.24E-02,4.40E-02
20423,2.24E-02,4.38E-02
20424,2.24E-02,4.36E-02
20425,2.25E-02,4.31E-02
20426,2.27E-02,4.25E-02
20427,2.27E-02,4.19E-02
20428,2.27E-02,4.13E-02
20429,2.25E-02,4.09E-02
20430,2.25E-02,4.08E-02
20431,2.25E-02,4.10E-02
20432,2.25E-02,4.12E-02
20433,2.24E-02,4.11E-02
20434,2.23E-02,4.05E-02
20435,2.22E-02,3.97E-02
20436,2.22E-02,3.88E-02
20437,2.23E-02,3.81E-02
20438,2.25E-02,3.78E-02
20439,2.27E-02,3.79E-02
20440,2.27E-02,3.83E-02
20441,2.26E-02,3.85E-02
20442,2.25E-02,3.82E-02
20443,2.24E-02,3.74E-02
20444,2.23E-02,3.64E-02
20445,2.23E-02,3.53E-02
20446,2.23E-02,3.43E-02
20447,2.24E-02,3.35E-02
20448,2.25E-02,3.31E-02
20449,2.26E-02,3.31E-02
20450,2.26E-02,3.34E-02
20451,2.25E-02,3.34E-02
20452,2.24E-02,3.29E-02
20453,2.24E-02,3.22E-02
20454,2.25E-02,3.17E-02
20455,2.25E-02,3.12E-02
20456,2.25E-02,3.08E-02
20457,2.25E-02,3.03E-02
20458,2.25E-02,2.98E-02
20459,2.24E-02,2.93E-02
20460,2.24E-02,2.88E-02
20461,2.23E-02,2.82E-02
20462,2.22E-02,2.74E-02
20463,2.21E-02,2.65E-02
20464,2.21E-02,2.56E-02
20465,2.25E-02,2.47E-02
20466,2.28E-02,2.43E-02
20467,2.29E-02,2.46E-02
20468,2.29E-02,2.54E-02
20469,2.29E-02,2.61E-02
20470,2.28E-02,2.63E-02
20471,2.26E-02,2.61E-02
20472,2.27E-02,2.58E-02
20473,2.29E-02,2.52E-02
20474,2.33E-02,2.46E-02
20475,2.37E-02,2.38E-02
20476,2.40E-02,2.31E-02
20477,2.43E-02,2.29E-02
20478,2.42E-02,2.33E-02
20479,2.36E-02,2.42E-02
20480,2.27E-02,2.54E-02
20481,2.31E-02,2.51E-02
20482,2.33E-02,2.48E-02
20483,2.32E-02,2.45E-02
20484,2.31E-02,2.44E-02
20485,2.29E-02,2.42E-02
20486,2.26E-02,2.41E-02
20487,2.26E-02,2.39E-02
20488,2.24E-02,2.38E-02
20489,2.21E-02,2.37E-02
20490,2.21E-02,2.36E-02
20491,2.21E-02,2.34E-02
20492,2.21E-02,2.33E-02
20493,2.22E-02,2.32E-02
20494,2.22E-02,2.30E-02
20495,2.22E-02,2.29E-02
20496,2.22E-02,2.27E-02
20497,2.22E-02,2.25E-02
20498,2.22E-02,2.24E-02
20499,2.22E-02,2.22E-02
20500,2.22E-02,2.20E-02
20501,2.22E-02,2.18E-02
20502,2.22E-02,2.16E-02
20503,2.22E-02,2.14E-02
20504,2.22E-02,2.11E-02
20505,2.22E-02,2.09E-02
20506,2.22E-02,2.07E-02
20507,2.22E-02,2.04E-02
20508,2.22E-02,2.01E-02
20509,2.22E-02,1.99E-02
20510,2.22E-02,1.96E-02
20511,2.22E-02,1.93E-02
20512,2.22E-02,1.91E-02
20513,2.22E-02,1.88E-02
20514,2.22E-02,1.85E-02
20515,2.22E-02,1.82E-02
20516,2.21E-02,1.79E-02
20517,2.21E-02,1.76E-02
20518,2.21E-02,1.73E-02
20519,2.21E-02,1.70E-02
20520,2.21E-02,1.67E-02
20521,2.21E-02,1.64E-02
20522,2.20E-02,1.60E-02
20523,2.21E-02,1.57E-02
20524,2.20E-02,1.57E-02
20525,2.21E-02,1.54E-02
20526,2.24E-02,1.48E-02
20527,2.25E-02,1.46E-02
20528,2.24E-02,1.45E-02
20529,2.24E-02,1.42E-02
20530,2.23E-02,1.39E-02
20531,2.24E-02,1.35E-02
20532,2.24E-02,1.32E-02
20533,2.24E-02,1.30E-02
20534,2.24E-02,1.27E-02
20535,2.24E-02,1.24E-02
20536,2.25E-02,1.21E-02
20537,2.25E-02,1.20E-02
20538,2.25E-02,1.18E-02
20539,2.24E-02,1.14E-02
20540,2.23E-02,1.10E-02
20541,2.23E-02,1.06E-02
20542,2.24E-02,1.02E-02
20543,2.24E-02,9.82E-03
20544,2.24E-02,9.48E-03
20545,2.24E-02,9.12E-03
20546,2.23E-02,8.75E-03
20547,2.23E-02,8.36E-03
20548,2.23E-02,7.96E-03
20549,2.23E-02,7.61E-03
20550,2.22E-02,7.28E-03
20551,2.21E-02,6.82E-03
20552,2.25E-02,6.35E-03
20553,2.25E-02,6.15E-03
20554,2.21E-02,6.09E-03
20555,2.20E-02,5.77E-03
20556,2.24E-02,5.31E-03
20557,2.26E-02,5.06E-03
20558,2.26E-02,5.00E-03
20559,2.24E-02,4.87E-03
20560,2.24E-02,4.58E-03
20561,2.23E-02,4.19E-03
20562,2.23E-02,3.79E-03
20563,2.24E-02,3.42E-03
20564,2.25E-02,3.10E-03
20565,2.26E-02,2.80E-03
20566,2.26E-02,2.48E-03
20567,2.25E-02,2.13E-03
20568,2.24E-02,1.75E-03
20569,2.24E-02,1.36E-03
20570,2.23E-02,9.73E-04
20571,2.23E-02,6.30E-04
20572,2.23E-02,4.39E-04
20573,2.23E-02,5.67E-04
20574,2.24E-02,8.79E-04
20575,2.24E-02,1.25E-03
20576,2.24E-02,1.63E-03
20577,2.24E-02,2.04E-03
20578,2.23E-02,2.45E-03
20579,2.23E-02,2.85E-03
20580,2.24E-02,3.24E-03
20581,2.26E-02,3.68E-03
20582,2.26E-02,4.19E-03
20583,2.25E-02,4.75E-03
20584,2.23E-02,5.26E-03
20585,2.22E-02,5.67E-03
20586,2.22E-02,6.04E-03
20587,2.23E-02,6.46E-03
20588,2.23E-02,6.94E-03
20589,2.23E-02,7.40E-03
20590,2.23E-02,7.85E-03
20591,2.23E-02,8.29E-03
20592,2.23E-02,8.74E-03
20593,2.24E-02,9.20E-03
20594,2.24E-02,9.68E-03
20595,2.24E-02,1.02E-02
20596,2.25E-02,1.06E-02
20597,2.25E-02,1.11E-02
20598,2.26E-02,1.16E-02
20599,2.27E-02,1.21E-02
20600,2.27E-02,1.27E-02
20601,2.27E-02,1.33E-02
20602,2.26E-02,1.38E-02
20603,2.26E-02,1.42E-02
20604,2.26E-02,1.45E-02
20605,2.25E-02,1.48E-02
20606,2.24E-02,1.51E-02
20607,2.23E-02,1.55E-02
20608,2.25E-02,1.58E-02
20609,2.26E-02,1.63E-02
20610,2.26E-02,1.69E-02
20611,2.26E-02,1.77E-02
20612,2.26E-02,1.86E-02
20613,2.23E-02,1.93E-02
20614,2.21E-02,1.98E-02
20615,2.25E-02,1.73E-02
20616,2.32E-02,1.52E-02
20617,2.39E-02,1.34E-02
20618,2.47E-02,1.17E-02
20619,2.51E-02,1.01E-02
20620,2.53E-02,8.66E-03
20621,2.48E-02,7.40E-03
20622,2.39E-02,6.46E-03
20623,2.23E-02,5.99E-03
20624,2.37E-02,5.92E-03
20625,2.44E-02,5.97E-03
20626,2.48E-02,6.12E-03
20627,2.48E-02,6.40E-03
20628,2.46E-02,6.76E-03
20629,2.42E-02,7.19E-03
20630,2.38E-02,7.70E-03
20631,2.37E-02,8.26E-03
20632,2.40E-02,8.87E-03
20633,2.42E-02,9.53E-03
20634,2.45E-02,1.03E-02
20635,2.46E-02,1.11E-02
20636,2.45E-02,1.20E-02
20637,2.40E-02,1.30E-02
20638,2.34E-02,1.42E-02
20639,2.31E-02,1.55E-02
20640,2.30E-02,1.69E-02
20641,2.32E-02,1.82E-02
20642,2.33E-02,1.96E-02
20643,2.33E-02,2.10E-02
20644,2.33E-02,2.24E-02
20645,2.31E-02,2.38E-02
20646,2.28E-02,2.52E-02
20647,2.21E-02,2.66E-02
20648,2.18E-02,2.79E-02
20649,2.18E-02,2.92E-02
20650,2.22E-02,3.05E-02
20651,2.26E-02,3.18E-02
20652,2.28E-02,3.30E-02
20653,2.28E-02,3.43E-02
20654,2.31E-02,3.56E-02
20655,2.36E-02,3.69E-02
20656,2.42E-02,3.83E-02
20657,2.46E-02,3.96E-02
20658,2.41E-02,4.09E-02
20659,2.46E-02,4.21E-02
20660,2.45E-02,4.33E-02
20661,2.40E-02,4.44E-02
20662,2.34E-02,4.54E-02
20663,2.30E-02,4.62E-02
20664,2.22E-02,4.69E-02
20665,2.13E-02,4.75E-02
20666,2.08E-02,4.80E-02
20667,2.05E-02,4.85E-02
20668,2.11E-02,5.01E-02
20669,2.14E-02,5.18E-02
20670,2.14E-02,5.35E-02
20671,2.14E-02,5.52E-02
20672,2.12E-02,5.70E-02
20673,2.10E-02,5.88E-02
20686,2.18E-02,3.86E-02
20687,1.95E-02,3.77E-02
20688,1.19E-02,5.05E-02
20689,1.26E-02,4.91E-02
20690,1.60E-02,4.97E-02
20691,2.03E-02,3.99E-02
20692,2.09E-02,3.97E-02
20693,2.99E-02,4.05E-02
20694,2.29E-02,5.59E-02
20695,1.95E-02,5.52E-02
20696,1.78E-02,5.58E-02
20697,1.81E-02,5.52E-02
20698,1.91E-02,5.49E-02
20699,2.05E-02,5.47E-02
20700,2.07E-02,5.61E-02
20701,2.13E-02,5.44E-02
20702,2.14E-02,5.60E-02
20703,1.80E-02,5.00E-02
20704,2.19E-02,5.00E-02
20705,2.19E-02,5.02E-02
20706,2.23E-02,5.06E-02
20707,2.27E-02,5.11E-02
20708,2.29E-02,5.15E-02
20709,2.31E-02,5.17E-02
20710,2.33E-02,5.19E-02
20711,2.34E-02,5.22E-02
20712,2.35E-02,5.29E-02
20713,2.37E-02,5.35E-02
20714,2.38E-02,5.40E-02
20715,2.41E-02,5.43E-02
20716,2.43E-02,5.46E-02
20717,2.43E-02,5.49E-02
20718,2.45E-02,5.51E-02
20719,2.47E-02,5.53E-02
20720,2.49E-02,5.54E-02
20721,2.50E-02,5.56E-02
20722,2.52E-02,5.58E-02
20723,2.53E-02,5.59E-02
20724,2.52E-02,5.60E-02
20725,2.54E-02,5.60E-02
20726,2.53E-02,5.60E-02
20727,2.54E-02,5.60E-02
20728,2.54E-02,5.60E-02
20729,2.66E-02,5.61E-02
20730,2.78E-02,5.62E-02
20731,2.56E-02,5.64E-02
20732,2.61E-02,5.62E-02
20733,2.50E-02,5.63E-02
20734,2.47E-02,5.65E-02
20735,2.44E-02,5.67E-02
20736,2.42E-02,5.70E-02
20737,2.41E-02,5.73E-02
20738,2.37E-02,5.76E-02
20739,2.33E-02,5.80E-02
20740,2.28E-02,5.84E-02
20741,2.24E-02,5.87E-02
20742,2.19E-02,5.91E-02
20743,2.14E-02,5.94E-02
20744,2.10E-02,5.97E-02
20745,1.90E-02,5.99E-02
20746,1.99E-02,6.10E-02
20747,1.88E-02,6.02E-02
20748,1.90E-02,5.74E-02
20749,1.80E-02,5.67E-02
20750,2.32E-02,5.69E-02
20751,2.05E-02,5.64E-02
20752,1.66E-02,5.66E-02
20753,1.98E-02,5.63E-02
20754,2.18E-02,5.42E-02
20755,2.21E-02,5.58E-02
20756,2.16E-02,5.40E-02
20757,2.25E-02,5.57E-02
20758,2.37E-02,5.37E-02
20759,1.68E-02,5.30E-02
20760,2.42E-02,5.54E-02
20761,1.73E-02,5.39E-02
20762,1.54E-02,5.25E-02
20763,2.33E-02,5.55E-02
20764,1.79E-02,4.14E-02
20765,2.02E-02,4.17E-02
20766,1.93E-02,4.21E-02
20767,2.00E-02,4.24E-02
20768,2.04E-02,4.26E-02
20769,2.07E-02,4.27E-02
20770,2.11E-02,4.30E-02
20771,2.15E-02,4.33E-02
20772,2.17E-02,4.36E-02
20773,2.19E-02,4.37E-02
20774,2.20E-02,4.37E-02
20775,2.20E-02,4.37E-02
20776,2.23E-02,4.39E-02
20777,2.26E-02,4.43E-02
20778,2.29E-02,4.48E-02
20779,2.29E-02,4.53E-02
20780,2.32E-02,4.58E-02
20781,2.33E-02,4.62E-02
20782,2.33E-02,4.66E-02
20783,2.35E-02,4.70E-02
20784,2.38E-02,4.75E-02
20785,2.42E-02,4.80E-02
20786,2.56E-02,4.83E-02
20787,1.66E-02,4.80E-02
20788,2.18E-02,4.83E-02
20789,2.23E-02,4.89E-02
20790,1.88E-02,4.85E-02
20791,2.23E-02,4.97E-02
20792,2.19E-02,4.93E-02
20793,2.30E-02,5.03E-02
20794,2.27E-02,5.01E-02
20795,2.33E-02,5.06E-02
20796,2.32E-02,5.05E-02
20797,2.36E-02,5.11E-02
20798,2.35E-02,5.08E-02
20799,2.39E-02,5.18E-02
20800,2.37E-02,5.15E-02
20801,2.42E-02,5.24E-02
20802,2.40E-02,5.22E-02
20803,2.47E-02,5.29E-02
20804,2.44E-02,5.27E-02
20805,2.50E-02,5.33E-02
20806,2.50E-02,5.31E-02
20807,2.54E-02,5.37E-02
20808,2.50E-02,5.35E-02
20809,2.54E-02,5.39E-02
20810,2.53E-02,5.38E-02
20811,2.55E-02,5.40E-02
20812,2.55E-02,5.40E-02
20813,2.58E-02,5.42E-02
20814,2.56E-02,5.41E-02
20815,2.73E-02,5.44E-02
20816,2.64E-02,5.43E-02
20817,1.83E-02,5.41E-02
20818,2.03E-02,5.41E-02
20819,2.30E-02,5.46E-02
20820,2.11E-02,5.44E-02
20821,2.40E-02,5.52E-02
20822,2.39E-02,5.49E-02
20823,2.40E-02,5.57E-02
20824,2.42E-02,5.54E-02
20825,2.34E-02,5.62E-02
20826,2.37E-02,5.59E-02
20827,2.27E-02,5.66E-02
20828,2.30E-02,5.64E-02
20829,2.19E-02,5.71E-02
20830,2.22E-02,5.69E-02
20831,2.11E-02,5.76E-02
20832,2.15E-02,5.73E-02
20833,2.16E-02,5.84E-02
20834,2.10E-02,5.79E-02
20835,2.60E-02,5.93E-02
20836,2.63E-02,5.98E-02
20837,2.45E-02,5.99E-02
20838,2.38E-02,5.99E-02
20839,2.31E-02,6.00E-02
20840,2.26E-02,6.01E-02
20841,2.18E-02,6.02E-02
20842,2.15E-02,6.04E-02
20843,2.11E-02,6.05E-02
20844,2.03E-02,6.05E-02
20845,1.92E-02,6.05E-02
20846,1.66E-02,5.98E-02
20847,1.82E-02,5.94E-02
20848,2.01E-02,5.89E-02
20849,2.15E-02,5.84E-02
20850,2.43E-02,5.75E-02
20851,2.24E-02,5.79E-02
20852,2.13E-02,5.61E-02
20853,2.50E-02,5.69E-02
20854,2.35E-02,5.48E-02
20855,2.35E-02,5.55E-02
20856,2.02E-02,5.36E-02
20857,2.04E-02,5.41E-02
20858,2.14E-02,5.29E-02
20859,2.08E-02,5.32E-02
20860,2.14E-02,5.23E-02
20861,2.15E-02,5.26E-02
20862,1.88E-02,5.16E-02
20863,2.09E-02,5.19E-02
20864,1.96E-02,3.96E-02
20865,1.94E-02,4.00E-02
20866,2.08E-02,4.05E-02
20867,2.17E-02,4.05E-02
20868,2.38E-02,4.13E-02
20869,2.26E-02,4.07E-02
20870,1.91E-02,4.19E-02
20871,2.25E-02,4.17E-02
20872,2.02E-02,4.28E-02
20873,2.02E-02,4.22E-02
20874,2.05E-02,4.37E-02
20875,2.02E-02,4.33E-02
20876,2.10E-02,4.43E-02
20877,2.07E-02,4.41E-02
20878,2.16E-02,4.46E-02
20879,2.14E-02,4.45E-02
20880,2.20E-02,4.45E-02
20881,2.19E-02,4.45E-02
20882,2.24E-02,4.44E-02
20883,2.20E-02,4.45E-02
20884,2.28E-02,4.46E-02
20885,2.26E-02,4.44E-02
20886,2.32E-02,4.57E-02
20887,2.30E-02,4.50E-02
20888,2.32E-02,4.77E-02
20889,2.30E-02,4.66E-02
20890,2.37E-02,4.96E-02
20891,2.34E-02,4.87E-02
20892,2.54E-02,5.07E-02
20893,2.41E-02,5.03E-02
20894,1.81E-02,5.16E-02
20895,2.22E-02,5.13E-02
20896,2.02E-02,5.10E-02
20897,1.84E-02,5.13E-02
20898,2.23E-02,5.07E-02
20899,2.18E-02,5.07E-02
20900,2.32E-02,5.19E-02
20901,2.27E-02,5.11E-02
20902,2.35E-02,5.34E-02
20903,2.34E-02,5.27E-02
20904,2.36E-02,5.52E-02
20905,2.37E-02,5.42E-02
20906,2.41E-02,5.62E-02
20907,2.40E-02,5.58E-02
20908,2.43E-02,5.70E-02
20909,2.42E-02,5.66E-02
20910,2.42E-02,5.76E-02
20911,2.44E-02,5.73E-02
20912,2.46E-02,5.78E-02
20913,2.44E-02,5.77E-02
20914,2.48E-02,5.79E-02
20915,2.46E-02,5.79E-02
20916,2.51E-02,5.79E-02
20917,2.51E-02,5.79E-02
20918,2.53E-02,5.79E-02
20919,2.52E-02,5.79E-02
20920,2.54E-02,5.80E-02
20921,2.53E-02,5.80E-02
20922,2.47E-02,5.80E-02
20923,2.53E-02,5.80E-02
20924,2.65E-02,5.77E-02
20925,2.32E-02,5.81E-02
20926,2.58E-02,5.76E-02
20927,2.68E-02,5.76E-02
20928,2.47E-02,5.78E-02
20929,2.53E-02,5.76E-02
20930,2.42E-02,5.83E-02
20931,2.44E-02,5.80E-02
20932,2.36E-02,5.93E-02
20933,2.39E-02,5.87E-02
20934,2.25E-02,6.07E-02
20935,2.29E-02,6.00E-02
20936,2.14E-02,6.19E-02
20937,2.18E-02,6.14E-02
20938,2.06E-02,6.25E-02
20939,2.08E-02,6.23E-02
20940,1.82E-02,6.27E-02
20941,2.26E-02,6.25E-02
20942,2.56E-02,6.21E-02
20943,1.89E-02,6.25E-02
20944,2.36E-02,6.22E-02
20945,2.41E-02,6.21E-02
20946,2.26E-02,6.23E-02
20947,2.31E-02,6.22E-02
20948,2.17E-02,6.23E-02
20949,2.20E-02,6.23E-02
20950,2.11E-02,6.23E-02
20951,2.14E-02,6.23E-02
20952,2.35E-02,6.20E-02
20953,1.92E-02,6.24E-02
20954,2.57E-02,6.17E-02
20955,2.64E-02,6.17E-02
20956,2.39E-02,6.17E-02
20957,2.55E-02,6.17E-02
20958,2.15E-02,6.16E-02
20959,2.15E-02,6.19E-02
20960,2.17E-02,6.06E-02
20961,2.14E-02,6.11E-02
20962,2.40E-02,5.93E-02
20963,2.25E-02,5.99E-02
20964,1.93E-02,5.83E-02
20965,2.26E-02,5.85E-02
20966,2.00E-02,5.76E-02
20967,2.06E-02,5.79E-02
20968,2.01E-02,5.76E-02
20969,2.04E-02,5.75E-02
20970,2.10E-02,5.76E-02
20971,2.06E-02,5.76E-02
20972,2.20E-02,5.76E-02
20973,2.15E-02,5.76E-02
20974,2.27E-02,5.74E-02
20975,2.27E-02,5.75E-02
20976,1.89E-02,5.12E-02
20977,2.18E-02,5.74E-02
20978,1.87E-02,5.24E-02
20979,1.89E-02,5.08E-02
20980,1.79E-02,5.41E-02
20981,2.01E-02,5.56E-02
20982,2.12E-02,5.73E-02
20983,2.03E-02,1.11E-02
20984,2.41E-02,1.13E-02
20985,2.50E-02,1.16E-02
20986,2.54E-02,1.21E-02
20987,2.53E-02,1.26E-02
20988,2.46E-02,1.31E-02
20989,2.38E-02,1.37E-02
20990,2.30E-02,1.44E-02
20991,2.24E-02,1.49E-02
20992,2.13E-02,1.56E-02
20993,2.06E-02,1.63E-02
20994,1.93E-02,1.70E-02
20995,1.71E-02,1.79E-02
20996,1.47E-02,3.75E-02
20997,1.65E-02,3.78E-02
20998,1.85E-02,3.80E-02
20999,2.03E-02,3.79E-02
21000,2.23E-02,3.80E-02
21001,2.39E-02,3.85E-02
21002,2.51E-02,3.84E-02
21003,2.58E-02,3.82E-02
21004,2.65E-02,3.87E-02
21005,2.71E-02,3.91E-02
21006,2.78E-02,3.88E-02
21007,2.96E-02,3.90E-02
21008,2.66E-02,3.93E-02
21009,2.09E-02,3.93E-02
21010,2.02E-02,3.96E-02
21011,2.07E-02,4.00E-02
21012,2.17E-02,4.00E-02
21013,2.28E-02,4.00E-02
21014,2.44E-02,4.03E-02
21015,2.15E-02,4.07E-02
21016,1.56E-02,4.08E-02
21017,1.74E-02,4.11E-02
21018,1.87E-02,4.13E-02
21019,1.98E-02,4.15E-02
21020,2.03E-02,4.16E-02
21021,2.09E-02,4.18E-02
21022,2.13E-02,4.20E-02
21023,2.16E-02,4.22E-02
21024,2.18E-02,4.25E-02
21025,2.18E-02,4.28E-02
21026,2.19E-02,4.29E-02
21027,2.20E-02,4.31E-02
21028,2.22E-02,4.34E-02
21029,2.25E-02,4.39E-02
21030,2.28E-02,4.44E-02
21031,2.30E-02,4.48E-02
21032,2.32E-02,4.52E-02
21033,2.34E-02,4.54E-02
21034,2.36E-02,4.55E-02
21035,2.36E-02,4.58E-02
21036,2.40E-02,4.60E-02
21037,2.43E-02,4.62E-02
21038,2.35E-02,4.65E-02
21039,2.14E-02,4.67E-02
21040,2.01E-02,4.70E-02
21041,1.98E-02,4.73E-02
21042,2.12E-02,4.77E-02
21043,2.20E-02,4.81E-02
21044,2.23E-02,4.85E-02
21045,2.26E-02,4.88E-02
21046,2.28E-02,4.90E-02
21047,2.30E-02,4.91E-02
21048,2.32E-02,4.92E-02
21049,2.35E-02,4.93E-02
21050,2.35E-02,4.95E-02
21051,2.36E-02,4.97E-02
21052,2.37E-02,4.99E-02
21053,2.40E-02,5.02E-02
21054,2.42E-02,5.03E-02
21055,2.44E-02,5.06E-02
21056,2.47E-02,5.08E-02
21057,2.50E-02,5.10E-02
21058,2.51E-02,5.12E-02
21059,2.53E-02,5.14E-02
21060,2.55E-02,5.16E-02
21061,2.56E-02,5.17E-02
21062,2.57E-02,5.19E-02
21063,2.58E-02,5.20E-02
21064,2.58E-02,5.21E-02
21065,2.58E-02,5.22E-02
21066,2.60E-02,5.23E-02
21067,2.60E-02,5.24E-02
21068,2.46E-02,5.25E-02
21069,2.31E-02,5.27E-02
21070,2.18E-02,5.28E-02
21071,2.13E-02,5.29E-02
21072,2.26E-02,5.31E-02
21073,2.36E-02,5.34E-02
21074,2.38E-02,5.36E-02
21075,2.38E-02,5.39E-02
21076,2.37E-02,5.41E-02
21077,2.35E-02,5.43E-02
21078,2.33E-02,5.45E-02
21079,2.30E-02,5.47E-02
21080,2.26E-02,5.48E-02
21081,2.23E-02,5.50E-02
21082,2.19E-02,5.52E-02
21083,2.15E-02,5.54E-02
21084,2.11E-02,5.57E-02
21085,2.14E-02,5.60E-02
21086,2.27E-02,5.65E-02
21087,2.43E-02,5.69E-02
21088,2.52E-02,5.73E-02
21089,2.49E-02,5.75E-02
21090,2.39E-02,5.77E-02
21091,2.32E-02,5.78E-02
21092,2.25E-02,5.80E-02
21093,2.18E-02,5.82E-02
21094,2.13E-02,5.84E-02
21095,2.05E-02,5.86E-02
21096,1.94E-02,5.86E-02
21097,1.79E-02,5.86E-02
21098,2.30E-02,5.89E-02
21099,2.66E-02,5.89E-02
21100,2.64E-02,5.89E-02
21101,2.69E-02,5.89E-02
21102,2.32E-02,5.86E-02
21103,1.86E-02,5.80E-02
21104,1.84E-02,5.76E-02
21105,1.95E-02,5.71E-02
21106,2.10E-02,5.66E-02
21107,2.24E-02,5.61E-02
21108,2.33E-02,5.57E-02
21109,2.31E-02,5.53E-02
21110,2.28E-02,5.47E-02
21111,2.18E-02,5.40E-02
21112,2.14E-02,5.34E-02
21113,2.11E-02,5.29E-02
21114,2.08E-02,5.23E-02
21115,2.12E-02,5.18E-02
21116,2.16E-02,5.14E-02
21117,2.18E-02,5.11E-02
21118,2.16E-02,5.06E-02
21119,2.09E-02,5.03E-02
21120,2.04E-02,5.00E-02
21121,2.01E-02,4.97E-02
21122,1.94E-02,4.93E-02
21123,2.49E-02,1.01E-02
21124,2.40E-02,1.02E-02
21125,2.51E-02,1.03E-02
21126,2.58E-02,1.06E-02
21127,2.56E-02,1.15E-02
21128,2.45E-02,1.28E-02
21129,2.37E-02,1.37E-02
21130,2.31E-02,1.42E-02
21131,2.25E-02,1.48E-02
21132,2.15E-02,1.53E-02
21133,2.08E-02,1.59E-02
21134,1.96E-02,1.65E-02
21135,1.88E-02,1.73E-02
21136,2.83E-02,1.85E-02
21137,3.11E-02,2.02E-02
21138,2.79E-02,2.21E-02
21139,2.54E-02,2.36E-02
21140,2.44E-02,2.40E-02
21141,2.41E-02,2.42E-02
21142,2.33E-02,2.51E-02
21143,2.23E-02,2.60E-02
21144,2.21E-02,2.60E-02
21145,2.23E-02,2.63E-02
21146,2.12E-02,2.76E-02
21147,2.03E-02,2.82E-02
21148,2.03E-02,2.81E-02
21149,1.98E-02,2.85E-02
21150,1.86E-02,2.93E-02
21151,1.71E-02,3.06E-02
21152,1.52E-02,3.24E-02
21153,1.32E-02,3.45E-02
21154,1.14E-02,3.63E-02
21155,1.02E-02,3.75E-02
21156,9.42E-03,3.84E-02
21157,8.99E-03,3.90E-02
21158,8.85E-03,3.94E-02
21159,9.21E-03,3.98E-02
21160,9.81E-03,3.96E-02
21161,1.08E-02,3.89E-02
21162,1.21E-02,3.74E-02
21163,1.33E-02,3.59E-02
21164,1.31E-02,3.64E-02
21165,1.29E-02,3.78E-02
21166,1.29E-02,3.86E-02
21167,1.32E-02,3.96E-02
21168,1.43E-02,3.99E-02
21169,1.61E-02,3.96E-02
21170,1.85E-02,3.93E-02
21171,1.53E-02,3.68E-02
21172,1.70E-02,3.71E-02
21173,1.87E-02,3.84E-02
21174,2.02E-02,3.97E-02
21175,2.22E-02,3.91E-02
21176,2.43E-02,3.77E-02
21177,2.50E-02,3.86E-02
21178,2.53E-02,4.04E-02
21179,2.67E-02,3.91E-02
21180,2.75E-02,3.86E-02
21181,2.77E-02,4.02E-02
21182,1.78E-02,4.01E-02
21183,2.14E-02,4.09E-02
21184,2.02E-02,3.97E-02
21185,2.15E-02,3.90E-02
21186,2.18E-02,4.14E-02
21187,2.20E-02,4.33E-02
21188,2.25E-02,4.22E-02
21189,2.17E-02,4.16E-02
21190,2.09E-02,4.24E-02
21191,2.01E-02,4.26E-02
21192,2.06E-02,4.27E-02
21193,2.06E-02,4.39E-02
21194,2.06E-02,4.55E-02
21195,2.07E-02,4.66E-02
21196,2.11E-02,4.63E-02
21197,2.15E-02,4.55E-02
21198,2.18E-02,4.50E-02
21199,2.20E-02,4.52E-02
21200,2.20E-02,4.55E-02
21201,2.20E-02,4.57E-02
21202,2.22E-02,4.53E-02
21203,2.26E-02,4.41E-02
21204,2.31E-02,4.30E-02
21205,2.34E-02,4.29E-02
21206,2.34E-02,4.42E-02
21207,2.32E-02,4.65E-02
21208,2.30E-02,4.91E-02
21209,2.30E-02,5.14E-02
21210,2.31E-02,5.30E-02
21211,2.35E-02,5.38E-02
21212,2.29E-02,5.40E-02
21213,2.15E-02,5.39E-02
21214,2.02E-02,5.34E-02
21215,1.99E-02,5.26E-02
21216,2.06E-02,5.17E-02
21217,2.17E-02,5.07E-02
21218,2.24E-02,4.98E-02
21219,2.31E-02,4.94E-02
21220,2.35E-02,5.03E-02
21221,2.35E-02,5.30E-02
21222,2.31E-02,5.65E-02
21223,2.32E-02,5.83E-02
21224,2.36E-02,5.79E-02
21225,2.40E-02,5.77E-02
21226,2.41E-02,5.84E-02
21227,2.42E-02,5.91E-02
21228,2.44E-02,5.95E-02
21229,2.43E-02,5.99E-02
21230,2.43E-02,6.03E-02
21231,2.42E-02,6.06E-02
21232,2.43E-02,6.07E-02
21233,2.44E-02,6.03E-02
21234,2.47E-02,5.99E-02
21235,2.48E-02,5.96E-02
21236,2.48E-02,5.96E-02
21237,2.48E-02,5.98E-02
21238,2.49E-02,6.00E-02
21239,2.50E-02,6.01E-02
21240,2.51E-02,6.00E-02
21241,2.49E-02,5.99E-02
21242,2.43E-02,5.98E-02
21243,2.40E-02,5.95E-02
21244,2.47E-02,5.93E-02
21245,2.58E-02,5.90E-02
21246,2.61E-02,5.88E-02
21247,2.54E-02,5.86E-02
21248,2.51E-02,5.84E-02
21249,2.49E-02,5.85E-02
21250,2.46E-02,5.87E-02
21251,2.42E-02,5.93E-02
21252,2.37E-02,6.03E-02
21253,2.32E-02,6.14E-02
21254,2.25E-02,6.27E-02
21255,2.19E-02,6.39E-02
21256,2.14E-02,6.49E-02
21257,2.12E-02,6.57E-02
21258,2.13E-02,6.58E-02
21259,2.10E-02,6.54E-02
21260,2.22E-02,6.46E-02
21261,2.26E-02,6.40E-02
21262,2.29E-02,6.40E-02
21263,2.39E-02,6.43E-02
21264,2.36E-02,6.47E-02
21265,2.30E-02,6.50E-02
21266,2.25E-02,6.49E-02
21267,2.21E-02,6.44E-02
21268,2.18E-02,6.38E-02
21269,2.15E-02,6.35E-02
21270,2.14E-02,6.37E-02
21271,2.23E-02,6.42E-02
21272,2.34E-02,6.47E-02
21273,2.47E-02,6.51E-02
21274,2.53E-02,6.51E-02
21275,2.46E-02,6.47E-02
21276,2.35E-02,6.41E-02
21277,2.24E-02,6.36E-02
21278,2.16E-02,6.37E-02
21279,2.12E-02,6.43E-02
21280,2.16E-02,6.41E-02
21281,2.23E-02,6.24E-02
21282,2.26E-02,6.04E-02
21283,2.19E-02,5.91E-02
21284,2.12E-02,5.84E-02
21285,2.06E-02,5.82E-02
21286,2.10E-02,5.83E-02
21287,2.11E-02,5.85E-02
21288,2.08E-02,5.87E-02
21289,2.08E-02,5.90E-02
21290,2.12E-02,5.92E-02
21291,2.15E-02,5.94E-02
21292,2.19E-02,5.95E-02
21293,2.22E-02,5.95E-02
21294,2.23E-02,5.95E-02
21295,2.17E-02,5.94E-02
21296,2.12E-02,5.92E-02
21297,3.30E-02,1.03E-02
21298,2.63E-02,1.09E-02
21299,1.88E-02,5.39E-02
21300,1.94E-02,5.21E-02
21301,1.87E-02,1.12E-02
21302,2.68E-02,1.19E-02
21303,2.35E-02,1.16E-02
21304,1.99E-02,5.55E-02
21305,1.93E-02,5.05E-02
21306,2.07E-02,5.72E-02
21307,1.97E-02,4.89E-02
21308,2.08E-02,5.90E-02
21309,2.18E-02,1.08E-02
21310,1.95E-02,1.03E-02
21311,1.67E-02,1.00E-02
21312,1.45E-02,9.67E-03
21313,1.38E-02,9.82E-03
21314,1.52E-02,1.00E-02
21315,1.59E-02,9.86E-03
21316,1.33E-02,9.41E-03
21317,9.23E-03,8.66E-03
21356,2.00E-02,6.57E-04
21357,1.73E-02,6.76E-04
21358,3.04E-02,2.58E-03
21359,2.49E-02,5.34E-03
21360,2.45E-02,3.82E-03
21361,2.03E-02,7.56E-04
21362,2.39E-02,5.75E-03
21363,2.58E-02,5.48E-03
21364,2.44E-02,6.08E-03
21365,2.43E-02,5.50E-03
21366,3.02E-02,5.13E-03
21367,2.64E-02,5.34E-03
21368,3.86E-02,4.81E-03
21369,4.09E-02,4.78E-03
21370,3.87E-02,5.45E-03
21371,3.65E-02,5.73E-03
21372,2.98E-02,2.88E-03
21373,2.61E-02,3.16E-03
21374,2.82E-02,3.01E-03
21375,2.32E-02,4.09E-03
21376,2.07E-02,4.04E-03
21377,1.94E-02,3.17E-03
21378,1.42E-02,3.17E-03
21379,1.99E-02,7.08E-03
21380,1.69E-02,6.56E-03
21381,2.53E-02,8.73E-03
21382,2.55E-02,8.16E-03
21383,1.84E-02,7.81E-04
21384,2.41E-02,8.89E-04
21385,2.42E-02,3.68E-03
21386,2.55E-02,3.55E-03
21387,1.39E-02,3.89E-03
21388,2.03E-02,3.70E-03
21389,2.56E-02,2.97E-03
21390,2.28E-02,3.01E-03
21391,1.64E-02,3.09E-03
21392,2.21E-02,3.10E-03
21393,2.30E-02,2.84E-03
21394,2.29E-02,3.01E-03
21395,2.86E-02,5.78E-03
21396,2.67E-02,5.52E-03
21397,2.18E-02,5.53E-03
21398,2.65E-02,3.09E-03
21399,1.66E-02,3.16E-03
21400,2.64E-02,2.67E-03
21401,3.16E-02,2.76E-03
21402,2.84E-02,2.76E-03
21403,1.93E-02,2.37E-03
21404,2.29E-02,2.36E-03
21405,2.21E-02,1.19E-03
21406,2.83E-02,1.34E-03
21407,2.26E-02,1.47E-03
21408,1.84E-02,1.30E-03
21409,2.42E-02,1.17E-03
21410,2.75E-02,1.21E-03
21411,2.43E-02,1.18E-03
21412,2.86E-02,8.83E-04
21413,2.42E-02,8.34E-04
21414,2.71E-02,9.09E-03
21415,2.75E-02,8.94E-03
21416,2.70E-02,2.76E-03
21417,1.29E-02,1.27E-02
21418,1.73E-02,1.20E-02
21419,2.82E-02,1.26E-02
21420,2.79E-02,1.17E-02
21421,1.76E-02,4.39E-03
21422,1.74E-02,4.11E-03
21423,1.77E-02,4.28E-03
21424,1.54E-02,9.06E-03
21425,1.59E-02,9.74E-03
21426,1.63E-02,9.80E-03
21427,1.49E-02,2.76E-03
21428,1.40E-02,2.68E-03
21429,1.41E-02,2.85E-03
21430,2.31E-02,5.77E-04
21431,2.29E-02,6.45E-04
21432,2.26E-02,7.39E-04
21433,2.28E-02,6.53E-04
21434,1.57E-02,9.27E-03
21435,1.57E-02,9.50E-03
21436,1.41E-02,9.59E-03
21437,1.50E-02,9.23E-03
21438,1.86E-02,8.99E-03
21439,1.71E-02,6.63E-03
21440,1.57E-02,6.08E-03
21441,1.46E-02,6.39E-03
21442,2.38E-02,5.08E-04
21443,2.37E-02,5.08E-04
21444,1.31E-02,3.81E-03
21445,1.20E-02,3.91E-03
21446,2.78E-02,4.11E-03
21447,2.66E-02,4.20E-03
21448,2.38E-02,4.66E-03
21449,2.58E-02,4.56E-03
21450,2.25E-02,2.48E-03
21451,2.30E-02,2.53E-03
21452,2.43E-02,2.69E-03
21453,2.56E-02,2.79E-03
21454,1.63E-02,3.99E-03
21455,2.34E-02,5.19E-04
21456,2.02E-02,1.34E-03
21457,2.65E-02,1.51E-03
21458,2.04E-02,5.32E-03
21459,2.75E-02,5.40E-03
21460,2.99E-02,2.88E-03
21461,2.30E-02,2.89E-03
21462,2.18E-02,4.79E-03
21463,1.72E-02,4.81E-03
21464,2.59E-02,3.33E-03
21465,2.30E-02,3.25E-03
21466,2.03E-02,3.21E-03
21467,2.01E-02,5.94E-03
21468,2.17E-02,6.18E-03
21469,2.03E-02,4.48E-03
21470,2.07E-02,4.54E-03
21471,1.94E-02,1.36E-02
21472,1.82E-02,1.38E-02
21473,1.89E-02,3.80E-03
21474,1.58E-02,6.29E-03
21475,1.89E-02,6.14E-03
21476,1.93E-02,5.55E-03
21477,1.73E-02,5.75E-03
21478,2.01E-02,1.24E-02
21479,2.37E-02,1.35E-02
21480,2.33E-02,1.35E-02
21481,2.10E-02,1.25E-02
21482,1.28E-02,3.84E-03
21483,3.58E-02,5.40E-03
21484,1.88E-02,6.01E-03
21485,1.84E-02,5.59E-03
21486,1.70E-02,3.55E-03
21487,1.79E-02,3.42E-03
21488,1.75E-02,3.49E-03
21489,1.71E-02,1.48E-02
21490,2.30E-02,1.33E-03
21491,2.32E-02,4.01E-03
21492,1.70E-02,4.06E-03
21493,2.56E-02,3.87E-03
21494,2.68E-02,4.29E-03
21495,2.48E-02,4.30E-03
21496,1.70E-02,2.89E-03
21497,1.79E-02,3.04E-03
21498,1.64E-02,3.08E-03
21499,2.20E-02,3.48E-03
21500,2.34E-02,3.61E-03
21501,2.20E-02,3.25E-03
21502,2.42E-02,3.24E-03
21503,2.18E-02,3.37E-03
21504,2.27E-02,3.29E-03
21505,2.32E-02,4.10E-03
21506,2.06E-02,4.49E-03
21507,2.64E-02,4.30E-03
21508,1.51E-02,4.11E-03
21509,2.12E-02,3.55E-03
21510,2.00E-02,3.60E-03
21511,2.16E-02,3.53E-03
21512,2.82E-02,3.58E-03
21513,2.28E-02,3.42E-03
21514,2.45E-02,2.86E-03
21515,2.53E-02,2.97E-03
21516,2.25E-02,3.23E-03
21517,2.25E-02,3.13E-03
21518,2.23E-02,2.70E-03
21519,1.77E-02,4.73E-03
21520,2.52E-02,4.49E-03
21521,2.30E-02,4.59E-03
21522,2.51E-02,4.64E-03
21523,1.96E-02,3.06E-03
21524,2.03E-02,2.82E-03
21525,2.02E-02,4.31E-03
21526,2.17E-02,4.55E-03
21527,2.11E-02,3.27E-03
21528,2.13E-02,3.53E-03
21529,2.68E-02,3.86E-03
21530,2.84E-02,3.75E-03
21531,2.14E-02,3.30E-03
21532,2.31E-02,3.05E-03
21533,2.14E-02,2.76E-03
21534,2.16E-02,2.54E-03
21535,2.10E-02,2.61E-03
21536,2.46E-02,4.40E-03
21537,2.58E-02,4.85E-03
21538,2.38E-02,4.40E-03
21539,2.73E-02,3.96E-03
21540,2.16E-02,3.30E-03
21541,2.04E-02,3.17E-03
21542,2.17E-02,2.64E-03
21543,2.34E-02,2.74E-03
21544,2.22E-02,2.99E-03
21545,2.28E-02,2.91E-03
21546,2.12E-02,2.53E-03
21547,2.09E-02,5.12E-03
21548,2.15E-02,5.06E-03
21549,2.59E-02,4.95E-03
21550,2.29E-02,5.14E-03
21551,2.67E-02,2.15E-03
21552,2.23E-02,2.07E-03
21553,2.43E-02,1.96E-03
21554,2.28E-02,1.92E-03
21555,2.26E-02,2.01E-03
21556,2.21E-02,2.48E-03
21557,2.21E-02,2.70E-03
21558,2.23E-02,4.84E-03
21559,2.89E-02,4.97E-03
21560,1.83E-02,3.84E-03
21561,1.99E-02,4.08E-03
21562,1.97E-02,4.32E-03
21563,2.00E-02,3.81E-03
21564,2.08E-02,3.79E-03
21565,1.98E-02,4.06E-03
21566,2.15E-02,2.20E-03
21567,2.09E-02,3.00E-03
21568,2.06E-02,4.79E-03
21569,2.05E-02,4.54E-03
21570,2.51E-02,2.40E-03
21571,2.02E-02,3.27E-03
21572,2.03E-02,4.30E-03
21573,2.08E-02,3.52E-03
21574,2.29E-02,2.48E-03
21575,2.20E-02,2.38E-03
21576,2.09E-02,3.78E-03
21577,2.04E-02,4.04E-03
21578,2.25E-02,2.25E-03
21579,2.22E-02,2.17E-03
21580,2.35E-02,5.32E-03
21581,1.85E-02,5.32E-03
21582,1.88E-02,4.95E-03
21583,2.45E-02,4.74E-03
21584,2.52E-02,4.55E-03
21585,2.67E-02,4.79E-03
21586,2.51E-02,4.04E-03
21587,2.57E-02,3.54E-03
21588,2.50E-02,3.43E-03
21589,2.19E-02,3.09E-03
21590,2.31E-02,2.83E-03
21591,2.19E-02,2.37E-03
21592,2.19E-02,2.45E-03
21593,2.26E-02,2.41E-03
21594,2.25E-02,2.23E-03
21595,2.22E-02,2.30E-03
21596,2.24E-02,2.08E-03
21597,2.26E-02,2.16E-03
21598,2.20E-02,2.10E-03
21599,2.20E-02,1.96E-03
21600,2.22E-02,2.01E-03
21601,2.21E-02,4.69E-03
21602,2.23E-02,4.99E-03
21603,2.90E-02,5.14E-03
21604,2.69E-02,5.14E-03
21605,1.77E-02,5.29E-03
21606,2.20E-02,1.91E-03
21607,2.26E-02,1.89E-03
21608,2.23E-02,1.89E-03
21609,2.28E-02,2.33E-03
21610,1.94E-02,5.79E-03
21611,2.14E-02,5.72E-03
21612,2.14E-02,5.17E-03
21613,2.55E-02,3.63E-03
21614,2.20E-02,3.09E-03
21615,2.15E-02,2.98E-03
21616,2.20E-02,2.51E-03
21617,2.25E-02,2.59E-03
21618,2.22E-02,2.82E-03
21619,2.27E-02,2.74E-03
21620,2.19E-02,2.42E-03
21621,2.41E-02,2.05E-03
21622,2.10E-02,5.27E-03
21623,2.21E-02,5.40E-03
21624,2.22E-02,5.46E-03
21625,2.02E-02,5.72E-03
21626,2.48E-02,2.44E-03
21627,2.72E-02,2.28E-03
21628,2.18E-02,2.04E-03
21629,2.22E-02,2.00E-03
21630,2.33E-02,2.64E-03
21631,1.69E-02,5.07E-03
21632,2.14E-02,5.21E-03
21633,2.16E-02,2.29E-03
21634,2.21E-02,2.18E-03
21635,2.21E-02,2.95E-03
21636,2.02E-02,5.05E-03
21637,2.09E-02,4.78E-03
21638,2.06E-02,2.42E-03
21639,2.09E-02,3.24E-03
21640,2.06E-02,4.53E-03
21641,2.09E-02,3.50E-03
21642,2.04E-02,4.28E-03
21643,2.14E-02,2.61E-03
21644,2.28E-02,2.76E-03
21645,2.10E-02,3.76E-03
21646,2.08E-02,4.02E-03
21647,1.10E-02,3.12E-03
21648,2.70E-02,4.67E-03
21649,2.43E-02,4.88E-03
21650,2.37E-02,4.24E-03
21651,2.44E-02,4.41E-03
21652,2.25E-02,3.83E-03
21653,2.32E-02,4.03E-03
21654,2.41E-02,3.71E-03
21655,2.43E-02,3.26E-03
21656,2.30E-02,3.18E-03
21657,2.16E-02,2.91E-03
21658,2.26E-02,2.66E-03
21659,2.20E-02,2.27E-03
21660,2.19E-02,2.35E-03
21661,2.23E-02,2.14E-03
21662,2.22E-02,2.20E-03
21663,2.23E-02,2.01E-03
21664,2.25E-02,2.07E-03
21665,2.20E-02,1.92E-03
21666,2.23E-02,1.96E-03
21667,2.24E-02,1.89E-03
21668,2.21E-02,1.89E-03
21669,2.31E-02,1.92E-03
21670,2.29E-02,1.90E-03
21671,2.40E-02,2.06E-03
21672,2.34E-02,1.98E-03
21673,2.46E-02,2.18E-03
21674,2.51E-02,5.08E-03
21675,2.33E-02,5.33E-03
21676,2.28E-02,5.59E-03
21677,2.28E-02,5.50E-03
21678,2.35E-02,5.55E-03
21679,2.18E-02,5.63E-03
21680,2.78E-02,2.80E-03
21681,2.30E-02,2.60E-03
21682,2.44E-02,2.62E-03
21683,2.57E-02,2.16E-03
21684,2.21E-02,2.01E-03
21685,2.35E-02,2.57E-03
21686,1.95E-02,6.13E-03
21687,1.82E-02,6.17E-03
21688,1.74E-02,6.13E-03
21689,1.80E-02,5.32E-03
21690,2.60E-02,3.34E-03
21691,2.18E-02,2.92E-03
21692,2.19E-02,2.85E-03
21693,2.22E-02,2.46E-03
21694,2.24E-02,2.52E-03
21695,2.24E-02,2.71E-03
21696,2.27E-02,2.65E-03
21697,2.20E-02,2.39E-03
21698,2.02E-02,6.12E-03
21699,2.51E-02,5.99E-03
21700,2.46E-02,2.55E-03
21701,2.55E-02,2.42E-03
21702,2.51E-02,2.33E-03
21703,2.16E-02,2.23E-03
21704,2.19E-02,2.18E-03
21705,2.30E-02,2.91E-03
21706,2.04E-02,5.02E-03
21707,2.02E-02,2.51E-03
21708,2.15E-02,2.39E-03
21709,2.18E-02,3.20E-03
21710,2.08E-02,4.76E-03
21711,2.27E-02,2.60E-03
21712,2.11E-02,3.48E-03
21713,2.05E-02,4.51E-03
21714,1.47E-02,2.80E-03
21715,1.64E-02,2.96E-03
21716,2.52E-02,2.80E-03
21717,2.09E-02,3.74E-03
21718,2.07E-02,4.26E-03
21719,2.08E-02,4.00E-03
21720,1.57E-02,3.10E-03
21721,1.41E-02,3.17E-03
21722,1.84E-02,3.21E-03
21723,2.28E-02,5.75E-03
21724,2.27E-02,5.81E-03
21725,2.07E-02,5.29E-03
21726,2.19E-02,5.47E-03
21727,2.67E-02,4.79E-03
21728,2.55E-02,4.30E-03
21729,2.51E-02,4.51E-03
21730,2.48E-02,3.91E-03
21731,2.53E-02,4.11E-03
21732,2.45E-02,3.56E-03
21733,2.41E-02,3.72E-03
21734,2.51E-02,3.44E-03
21735,2.12E-02,3.06E-03
21736,2.17E-02,3.00E-03
21737,2.20E-02,2.78E-03
21738,2.24E-02,2.58E-03
21739,2.20E-02,2.27E-03
21740,2.19E-02,2.33E-03
21741,2.24E-02,2.16E-03
21742,2.22E-02,2.21E-03
21743,2.23E-02,2.07E-03
21744,2.23E-02,2.11E-03
21745,2.21E-02,2.02E-03
21746,2.20E-02,2.04E-03
21747,2.24E-02,2.02E-03
21748,2.22E-02,2.01E-03
21749,2.31E-02,2.09E-03
21750,2.28E-02,2.04E-03
21751,2.39E-02,2.23E-03
21752,2.35E-02,2.15E-03
21753,2.44E-02,2.49E-03
21754,2.41E-02,2.35E-03
21755,3.03E-02,5.48E-03
21756,2.33E-02,5.57E-03
21757,3.07E-02,5.42E-03
21758,2.40E-02,5.66E-03
21759,2.18E-02,5.99E-03
21760,2.26E-02,5.87E-03
21761,2.23E-02,5.93E-03
21762,2.14E-02,6.05E-03
21763,2.38E-02,6.07E-03
21764,2.17E-02,6.02E-03
21765,2.48E-02,6.01E-03
21766,2.52E-02,5.96E-03
21767,2.33E-02,3.20E-03
21768,2.17E-02,2.69E-03
21769,2.54E-02,2.32E-03
21770,2.18E-02,2.20E-03
21771,2.55E-02,2.85E-03
21772,2.01E-02,6.60E-03
21773,1.98E-02,6.55E-03
21774,1.88E-02,6.60E-03
21775,2.48E-02,3.13E-03
21776,2.05E-02,5.25E-03
21777,1.88E-02,2.99E-03
21778,2.15E-02,2.83E-03
21779,2.19E-02,2.78E-03
21780,2.25E-02,2.69E-03
21781,2.28E-02,2.65E-03
21782,2.24E-02,2.55E-03
21783,2.22E-02,2.51E-03
21784,2.03E-02,6.52E-03
21785,2.44E-02,6.59E-03
21786,2.31E-02,6.62E-03
21787,2.14E-02,6.68E-03
21788,2.11E-02,6.59E-03
21789,2.12E-02,3.22E-03
21790,2.33E-02,3.24E-03
21791,2.73E-02,3.16E-03
21792,2.64E-02,2.73E-03
21793,2.61E-02,2.60E-03
21794,2.48E-02,2.67E-03
21795,2.55E-02,2.52E-03
21796,2.11E-02,2.46E-03
21797,2.15E-02,2.40E-03
21798,2.26E-02,3.16E-03
21799,2.05E-02,4.99E-03
21800,2.70E-02,3.08E-03
21801,2.02E-02,2.75E-03
21802,2.15E-02,2.61E-03
21803,2.16E-02,3.44E-03
21804,2.07E-02,4.73E-03
21805,1.44E-02,3.02E-03
21806,2.27E-02,2.80E-03
21807,2.11E-02,3.71E-03
21808,2.05E-02,4.48E-03
21809,2.36E-02,2.97E-03
21810,2.10E-02,3.98E-03
21811,2.07E-02,4.23E-03
21812,2.25E-02,3.20E-03
21813,2.59E-02,3.23E-03
21814,1.84E-02,3.16E-03
21815,1.68E-02,3.06E-03
21816,2.12E-02,3.15E-03
21817,1.73E-02,3.18E-03
21818,1.83E-02,3.23E-03
21819,2.03E-02,3.23E-03
21820,2.18E-02,3.20E-03
21821,1.59E-02,6.81E-03
21822,1.76E-02,5.64E-03
21823,2.38E-02,5.81E-03
21824,1.72E-02,5.81E-03
21825,1.52E-02,6.73E-03
21826,1.87E-02,5.42E-03
21827,2.56E-02,5.73E-03
21828,2.31E-02,5.99E-03
21829,2.55E-02,5.20E-03
21830,2.48E-02,5.41E-03
21831,2.54E-02,4.79E-03
21832,2.30E-02,4.93E-03
21833,2.63E-02,4.38E-03
21834,2.61E-02,4.59E-03
21835,2.53E-02,3.96E-03
21836,2.56E-02,4.16E-03
21837,2.48E-02,3.61E-03
21838,2.51E-02,3.78E-03
21839,2.52E-02,3.31E-03
21840,2.50E-02,3.45E-03
21841,2.65E-02,3.19E-03
21842,2.00E-02,2.94E-03
21843,2.07E-02,2.88E-03
21844,2.21E-02,2.73E-03
21845,2.25E-02,2.60E-03
21846,2.21E-02,2.39E-03
21847,2.21E-02,2.47E-03
21848,2.22E-02,2.43E-03
21849,2.22E-02,2.32E-03
21850,2.20E-02,2.35E-03
21851,2.21E-02,2.27E-03
21852,2.19E-02,2.29E-03
21853,2.21E-02,2.26E-03
21854,2.19E-02,2.26E-03
21855,2.25E-02,2.30E-03
21856,2.21E-02,2.28E-03
21857,2.29E-02,2.40E-03
21858,2.25E-02,2.35E-03
21859,2.37E-02,2.57E-03
21860,2.30E-02,2.47E-03
21861,2.41E-02,2.81E-03
21862,2.40E-02,2.68E-03
21863,2.54E-02,2.89E-03
21864,2.44E-02,3.18E-03
21865,2.43E-02,2.98E-03
21866,2.87E-02,5.77E-03
21867,3.07E-02,5.84E-03
21868,3.21E-02,5.77E-03
21869,2.37E-02,6.08E-03
21870,2.45E-02,5.98E-03
21871,2.25E-02,6.24E-03
21872,2.32E-02,6.17E-03
21873,2.17E-02,6.39E-03
21874,2.23E-02,6.31E-03
21875,2.11E-02,6.46E-03
21876,1.91E-02,6.72E-03
21877,2.28E-02,6.57E-03
21878,2.27E-02,6.64E-03
21879,2.23E-02,6.55E-03
21880,2.53E-02,3.30E-03
21881,2.66E-02,3.28E-03
21882,2.18E-02,2.83E-03
21883,2.58E-02,2.51E-03
21884,2.15E-02,2.42E-03
21885,2.17E-02,3.17E-03
21886,2.46E-02,3.13E-03
21887,1.97E-02,5.77E-03
21888,1.98E-02,5.59E-03
21889,2.04E-02,5.19E-03
21890,1.57E-02,2.90E-03
21891,1.97E-02,2.95E-03
21892,2.15E-02,2.82E-03
21893,2.22E-02,2.81E-03
21894,2.30E-02,2.77E-03
21895,2.30E-02,2.74E-03
21896,2.01E-02,7.28E-03
21897,2.05E-02,7.22E-03
21898,1.98E-02,7.05E-03
21899,2.01E-02,7.08E-03
21900,2.63E-02,3.30E-03
21901,2.72E-02,2.97E-03
21902,2.65E-02,2.84E-03
21903,2.61E-02,2.76E-03
21904,2.07E-02,2.70E-03
21905,2.14E-02,2.63E-03
21906,2.21E-02,3.41E-03
21907,2.10E-02,4.94E-03
21908,2.47E-02,3.42E-03
21909,2.60E-02,3.15E-03
21910,1.96E-02,2.98E-03
21911,2.19E-02,2.81E-03
21912,2.13E-02,3.68E-03
21913,2.08E-02,5.93E-03
21914,2.08E-02,5.70E-03
21915,2.13E-02,5.86E-03
21916,2.09E-02,4.69E-03
21917,1.59E-02,6.11E-03
21918,1.84E-02,3.20E-03
21919,2.16E-02,2.98E-03
21920,2.12E-02,3.95E-03
21921,2.08E-02,4.45E-03
21922,2.02E-02,3.11E-03
21923,2.09E-02,4.20E-03
21924,2.03E-02,2.98E-03
21925,2.04E-02,3.05E-03
21926,1.90E-02,3.26E-03
21927,2.01E-02,3.27E-03
21928,2.15E-02,3.23E-03
21929,2.22E-02,3.16E-03
21930,2.04E-02,7.26E-03
21931,1.96E-02,2.88E-03
21932,1.97E-02,7.01E-03
21933,2.03E-02,6.94E-03
21934,2.00E-02,5.39E-03
21935,2.16E-02,5.12E-03
21936,2.12E-02,5.36E-03
21937,2.26E-02,4.70E-03
21938,2.26E-02,4.90E-03
21939,2.44E-02,4.32E-03
21940,2.40E-02,4.50E-03
21941,2.53E-02,3.98E-03
21942,2.52E-02,4.16E-03
21943,2.50E-02,3.65E-03
21944,2.51E-02,3.81E-03
21945,2.47E-02,3.35E-03
21946,2.49E-02,3.49E-03
21947,2.54E-02,3.12E-03
21948,2.48E-02,3.23E-03
21949,2.71E-02,3.05E-03
21950,2.06E-02,2.85E-03
21951,2.26E-02,2.79E-03
21952,2.24E-02,2.70E-03
21953,2.24E-02,2.70E-03
21954,2.21E-02,2.66E-03
21955,2.23E-02,2.68E-03
21956,2.19E-02,2.62E-03
21957,2.19E-02,2.64E-03
21958,2.21E-02,2.60E-03
21959,2.17E-02,2.61E-03
21960,2.20E-02,2.59E-03
21961,2.17E-02,2.59E-03
21962,2.21E-02,2.63E-03
21963,2.20E-02,2.61E-03
21964,2.23E-02,2.71E-03
21965,2.20E-02,2.67E-03
21966,2.27E-02,2.85E-03
21967,2.25E-02,2.77E-03
21968,2.32E-02,3.03E-03
21969,2.30E-02,2.93E-03
21970,2.36E-02,3.29E-03
21971,2.35E-02,3.15E-03
21972,2.37E-02,3.64E-03
21973,2.38E-02,3.45E-03
21974,2.56E-02,3.70E-03
21975,2.33E-02,4.14E-03
21976,2.34E-02,3.86E-03
21977,2.30E-02,6.02E-03
21978,2.13E-02,5.98E-03
21979,2.80E-02,6.06E-03
21980,2.66E-02,6.04E-03
21981,2.73E-02,6.17E-03
21982,2.83E-02,6.10E-03
21983,2.43E-02,6.40E-03
21984,2.55E-02,6.28E-03
21985,2.26E-02,6.61E-03
21986,2.34E-02,6.51E-03
21987,2.15E-02,6.78E-03
21988,2.21E-02,6.70E-03
21989,2.08E-02,6.86E-03
21990,1.82E-02,7.30E-03
21991,1.81E-02,7.26E-03
21992,1.95E-02,7.29E-03
21993,2.12E-02,7.16E-03
21994,2.07E-02,7.20E-03
21995,2.04E-02,7.10E-03
21996,2.11E-02,7.12E-03
21997,2.80E-02,3.45E-03
21998,2.83E-02,3.40E-03
21999,3.43E-02,3.28E-03
22000,2.98E-02,3.42E-03
22001,2.99E-02,3.08E-03
22002,2.64E-02,2.75E-03
22003,2.11E-02,2.66E-03
22004,2.15E-02,3.40E-03
22005,2.22E-02,3.40E-03
22006,2.05E-02,5.53E-03
22007,2.08E-02,5.15E-03
22008,2.13E-02,2.91E-03
22009,2.22E-02,2.92E-03
22010,2.37E-02,2.96E-03
22011,2.15E-02,2.89E-03
22012,2.00E-02,7.45E-03
22013,2.03E-02,7.37E-03
22014,2.00E-02,7.51E-03
22015,2.00E-02,7.88E-03
22016,2.00E-02,7.85E-03
22017,2.92E-02,3.24E-03
22018,2.57E-02,3.11E-03
22019,2.68E-02,3.03E-03
22020,2.01E-02,2.92E-03
22021,2.13E-02,2.84E-03
22022,2.17E-02,3.65E-03
22023,2.22E-02,5.78E-03
22024,2.14E-02,5.63E-03
22025,2.10E-02,4.90E-03
22026,2.64E-02,6.79E-03
22027,2.49E-02,6.64E-03
22028,2.13E-02,7.74E-03
22029,2.22E-02,7.64E-03
22030,2.78E-02,3.46E-03
22031,1.90E-02,3.18E-03
22032,2.13E-02,3.01E-03
22033,2.14E-02,3.91E-03
22034,2.27E-02,5.92E-03
22035,2.33E-02,5.81E-03
22036,2.24E-02,5.68E-03
22037,2.11E-02,4.66E-03
22038,2.16E-02,4.49E-03
22039,3.02E-02,4.13E-03
22040,2.05E-02,3.40E-03
22041,2.11E-02,3.13E-03
22042,2.10E-02,4.16E-03
22043,2.10E-02,4.41E-03
22044,2.02E-02,3.22E-03
22045,2.38E-02,2.97E-03
22046,2.19E-02,2.90E-03
22047,2.08E-02,2.98E-03
22048,1.98E-02,3.32E-03
22049,2.11E-02,3.29E-03
22050,2.23E-02,3.21E-03
22051,2.16E-02,3.10E-03
22052,1.89E-02,2.86E-03
22053,1.96E-02,2.90E-03
22054,1.95E-02,2.90E-03
22055,3.13E-02,3.10E-03
22056,2.06E-02,2.93E-03
22057,2.07E-02,5.34E-03
22058,2.00E-02,5.62E-03
22059,2.02E-02,5.03E-03
22060,1.96E-02,5.29E-03
22061,2.09E-02,4.61E-03
22062,2.07E-02,4.82E-03
22063,2.21E-02,4.24E-03
22064,2.16E-02,4.42E-03
22065,2.41E-02,3.93E-03
22066,2.30E-02,4.08E-03
22067,2.49E-02,3.63E-03
22068,2.47E-02,3.78E-03
22069,2.48E-02,3.37E-03
22070,2.48E-02,3.50E-03
22071,2.46E-02,3.15E-03
22072,2.45E-02,3.25E-03
22073,2.44E-02,3.00E-03
22074,2.44E-02,3.06E-03
22075,2.32E-02,2.95E-03
22076,2.05E-02,2.91E-03
22077,2.38E-02,2.95E-03
22078,2.23E-02,2.94E-03
22079,2.27E-02,2.94E-03
22080,2.20E-02,2.95E-03
22081,2.22E-02,2.95E-03
22082,2.20E-02,2.96E-03
22083,2.20E-02,2.96E-03
22084,2.20E-02,2.97E-03
22085,2.17E-02,2.96E-03
22086,2.20E-02,3.02E-03
22087,2.18E-02,2.99E-03
22088,2.19E-02,3.09E-03
22089,2.19E-02,3.05E-03
22090,2.20E-02,3.22E-03
22091,2.19E-02,3.15E-03
22092,2.24E-02,3.39E-03
22093,2.22E-02,3.29E-03
22094,2.29E-02,3.61E-03
22095,2.28E-02,3.49E-03
22096,2.30E-02,3.89E-03
22097,2.30E-02,3.74E-03
22098,2.30E-02,4.26E-03
22099,2.32E-02,4.06E-03
22100,2.15E-02,4.77E-03
22101,2.24E-02,4.49E-03
22102,2.07E-02,5.13E-03
22103,1.80E-02,5.05E-03
22104,2.22E-02,6.10E-03
22105,2.19E-02,6.02E-03
22106,2.36E-02,6.23E-03
22107,2.26E-02,6.18E-03
22108,2.66E-02,6.34E-03
22109,2.57E-02,6.28E-03
22110,2.63E-02,6.49E-03
22111,2.71E-02,6.40E-03
22112,2.45E-02,6.73E-03
22113,2.52E-02,6.60E-03
22114,2.29E-02,6.97E-03
22115,2.34E-02,6.86E-03
22116,2.15E-02,7.18E-03
22117,2.20E-02,7.08E-03
22118,2.08E-02,7.28E-03
22119,2.05E-02,7.61E-03
22120,2.02E-02,7.57E-03
22121,1.97E-02,7.90E-03
22122,1.99E-02,7.86E-03
22123,1.99E-02,7.89E-03
22124,2.03E-02,7.82E-03
22125,2.05E-02,7.71E-03
22126,2.06E-02,7.76E-03
22127,2.06E-02,7.66E-03
22128,3.22E-02,3.44E-03
22129,3.19E-02,3.26E-03
22130,3.10E-02,3.63E-03
22131,3.05E-02,3.57E-03
22132,3.78E-02,3.50E-03
22133,3.23E-02,3.62E-03
22134,3.41E-02,3.35E-03
22135,2.60E-02,3.04E-03
22136,2.16E-02,3.46E-03
22137,2.09E-02,2.88E-03
22138,2.17E-02,3.62E-03
22139,2.21E-02,3.63E-03
22140,2.12E-02,5.46E-03
22141,2.11E-02,5.10E-03
22142,2.29E-02,7.53E-03
22143,2.02E-02,6.69E-03
22144,2.06E-02,2.99E-03
22145,2.11E-02,2.96E-03
22146,2.05E-02,3.02E-03
22147,2.10E-02,3.09E-03
22148,2.20E-02,3.12E-03
22149,2.28E-02,3.24E-03
22150,2.41E-02,5.93E-03
22151,2.31E-02,6.06E-03
22152,2.55E-02,3.51E-03
22153,2.83E-02,3.36E-03
22154,2.04E-02,3.14E-03
22155,2.13E-02,3.04E-03
22156,2.18E-02,3.88E-03
22157,2.19E-02,5.54E-03
22158,2.12E-02,4.85E-03
22159,2.97E-02,3.83E-03
22160,2.02E-02,3.37E-03
22161,2.11E-02,3.18E-03
22162,2.13E-02,4.13E-03
22163,2.37E-02,5.70E-03
22164,2.29E-02,5.58E-03
22165,2.11E-02,4.61E-03
22166,1.90E-02,2.74E-03
22167,2.57E-02,5.26E-03
22168,2.94E-02,4.61E-03
22169,2.11E-02,3.60E-03
22170,2.05E-02,3.27E-03
22171,2.10E-02,4.37E-03
22172,2.11E-02,2.80E-03
22173,1.95E-02,3.31E-03
22174,2.19E-02,2.89E-03
22175,2.09E-02,3.36E-03
22176,2.26E-02,3.29E-03
22177,2.27E-02,3.17E-03
22178,2.23E-02,3.03E-03
22179,1.98E-02,7.98E-03
22180,2.00E-02,7.90E-03
22181,2.04E-02,7.80E-03
22182,2.10E-02,5.29E-03
22183,2.24E-02,7.47E-03
22184,2.19E-02,7.33E-03
22185,1.94E-02,6.82E-03
22186,1.91E-02,5.89E-03
22187,2.23E-02,5.09E-03
22188,2.10E-02,4.54E-03
22189,2.15E-02,4.79E-03
22190,2.14E-02,4.15E-03
22191,2.11E-02,4.33E-03
22192,2.22E-02,3.83E-03
22193,2.17E-02,3.98E-03
22194,2.36E-02,3.57E-03
22195,2.30E-02,3.69E-03
22196,2.47E-02,3.35E-03
22197,2.41E-02,3.46E-03
22198,2.46E-02,3.15E-03
22199,2.48E-02,3.24E-03
22200,2.42E-02,3.02E-03
22201,2.45E-02,3.08E-03
22202,2.35E-02,2.95E-03
22203,2.41E-02,2.98E-03
22204,2.27E-02,2.95E-03
22205,2.06E-02,3.06E-03
22206,1.87E-02,3.32E-03
22207,2.26E-02,3.16E-03
22208,2.24E-02,3.28E-03
22209,2.27E-02,3.25E-03
22210,2.22E-02,3.33E-03
22211,2.23E-02,3.30E-03
22212,2.19E-02,3.37E-03
22213,2.20E-02,3.35E-03
22214,2.21E-02,3.43E-03
22215,2.18E-02,3.40E-03
22216,2.21E-02,3.51E-03
22217,2.18E-02,3.47E-03
22218,2.20E-02,3.63E-03
22219,2.19E-02,3.57E-03
22220,2.21E-02,3.79E-03
22221,2.21E-02,3.70E-03
22222,2.23E-02,4.00E-03
22223,2.20E-02,3.89E-03
22224,2.24E-02,4.26E-03
22225,2.22E-02,4.12E-03
22226,2.26E-02,4.58E-03
22227,2.26E-02,4.41E-03
22228,2.22E-02,4.98E-03
22229,2.25E-02,4.77E-03
22230,2.10E-02,5.46E-03
22231,2.19E-02,5.22E-03
22232,2.12E-02,5.69E-03
22233,2.41E-02,5.58E-03
22234,2.50E-02,5.66E-03
22235,2.02E-02,5.37E-03
22236,2.69E-02,5.52E-03
22237,2.46E-02,5.80E-03
22238,2.28E-02,6.27E-03
22239,2.27E-02,6.17E-03
22240,2.36E-02,6.44E-03
22241,2.32E-02,6.36E-03
22242,2.55E-02,6.60E-03
22243,2.49E-02,6.52E-03
22244,2.58E-02,6.80E-03
22245,2.60E-02,6.69E-03
22246,2.44E-02,7.06E-03
22247,2.49E-02,6.92E-03
22248,2.28E-02,7.34E-03
22249,2.33E-02,7.21E-03
22250,2.15E-02,7.59E-03
22251,2.19E-02,7.47E-03
22252,2.07E-02,7.70E-03
22253,2.04E-02,8.14E-03
22254,2.02E-02,8.06E-03
22255,2.60E-02,8.12E-03
22256,2.26E-02,8.32E-03
22257,2.30E-02,8.24E-03
22258,2.14E-02,8.46E-03
22259,2.19E-02,8.39E-03
22260,2.03E-02,8.53E-03
22261,2.06E-02,8.51E-03
22262,2.02E-02,8.49E-03
22263,2.03E-02,8.52E-03
22264,2.04E-02,8.40E-03
22265,2.01E-02,8.44E-03
22266,2.04E-02,8.27E-03
22267,2.03E-02,8.34E-03
22268,2.06E-02,8.20E-03
22269,1.69E-02,2.78E-03
22270,2.66E-02,3.01E-03
22271,2.32E-02,2.91E-03
22272,3.36E-02,3.29E-03
22273,3.15E-02,3.13E-03
22274,3.13E-02,3.67E-03
22275,3.14E-02,3.50E-03
22276,3.12E-02,3.89E-03
22277,3.12E-02,3.80E-03
22278,3.43E-02,3.83E-03
22279,3.24E-02,3.89E-03
22280,3.43E-02,3.68E-03
22281,2.61E-02,3.36E-03
22282,2.09E-02,3.09E-03
22283,2.19E-02,3.82E-03
22284,2.19E-02,3.85E-03
22285,2.16E-02,5.39E-03
22286,2.17E-02,5.04E-03
22287,2.11E-02,7.88E-03
22288,1.88E-02,7.25E-03
22289,2.16E-02,3.09E-03
22290,2.11E-02,3.16E-03
22291,2.15E-02,3.36E-03
22292,2.17E-02,3.43E-03
22293,2.09E-02,6.80E-03
22294,2.14E-02,7.08E-03
22295,2.50E-02,6.05E-03
22296,2.39E-02,6.19E-03
22297,2.03E-02,8.36E-03
22298,2.05E-02,8.25E-03
22299,2.02E-02,8.46E-03
22300,1.71E-02,2.63E-03
22301,3.09E-02,3.76E-03
22302,2.07E-02,3.33E-03
22303,2.11E-02,3.23E-03
22304,2.17E-02,4.09E-03
22305,2.23E-02,5.45E-03
22306,2.14E-02,4.80E-03
22307,1.76E-02,7.63E-03
22308,2.50E-02,1.72E-03
22309,2.45E-02,1.63E-03
22310,2.63E-02,1.42E-03
22311,2.30E-02,5.45E-03
22312,2.34E-02,2.67E-03
22313,3.31E-02,4.27E-03
22314,2.09E-02,3.56E-03
22315,2.09E-02,3.33E-03
22316,2.12E-02,4.33E-03
22317,2.21E-02,6.48E-03
22318,2.17E-02,5.69E-03
22319,2.28E-02,5.47E-03
22320,2.13E-02,4.56E-03
22321,2.13E-02,2.69E-03
22322,2.15E-02,3.78E-03
22323,2.03E-02,3.38E-03
22324,2.24E-02,2.80E-03
22325,2.00E-02,3.39E-03
22326,2.35E-02,5.23E-03
22327,2.17E-02,5.18E-03
22328,1.81E-02,5.23E-03
22329,2.26E-02,3.39E-03
22330,2.35E-02,3.27E-03
22331,2.32E-02,3.12E-03
22332,2.30E-02,2.95E-03
22333,2.51E-02,1.61E-03
22334,2.26E-02,1.40E-03
22335,1.96E-02,1.18E-03
22336,1.69E-02,1.17E-03
22337,1.61E-02,3.61E-03
22338,1.71E-02,3.56E-03
22339,2.31E-02,3.59E-03
22340,2.14E-02,5.22E-03
22341,2.12E-02,6.94E-03
22342,2.42E-02,7.88E-03
22343,2.20E-02,7.40E-03
22344,1.83E-02,6.16E-03
22345,1.91E-02,6.48E-03
22346,1.87E-02,5.49E-03
22347,1.91E-02,5.83E-03
22348,2.14E-02,4.99E-03
22349,1.97E-02,5.23E-03
22350,2.22E-02,4.53E-03
22351,2.17E-02,4.76E-03
22352,2.16E-02,4.07E-03
22353,2.16E-02,4.28E-03
22354,2.17E-02,3.72E-03
22355,2.16E-02,3.89E-03
22356,2.24E-02,3.47E-03
22357,2.20E-02,3.59E-03
22358,2.34E-02,3.28E-03
22359,2.29E-02,3.36E-03
22360,2.45E-02,3.13E-03
22361,2.39E-02,3.20E-03
22362,2.45E-02,3.02E-03
22363,2.44E-02,3.06E-03
22364,2.40E-02,2.97E-03
22365,2.44E-02,2.99E-03
22366,2.34E-02,3.00E-03
22367,2.35E-02,2.98E-03
22368,2.19E-02,3.04E-03
22369,2.10E-02,3.23E-03
22370,2.09E-02,3.29E-03
22371,2.13E-02,3.53E-03
22372,2.22E-02,3.68E-03
22373,2.23E-02,3.64E-03
22374,2.21E-02,3.77E-03
22375,2.21E-02,3.73E-03
22376,2.18E-02,3.85E-03
22377,2.20E-02,3.82E-03
22378,2.20E-02,3.94E-03
22379,2.18E-02,3.89E-03
22380,2.21E-02,4.06E-03
22381,2.19E-02,4.00E-03
22382,2.19E-02,4.22E-03
22383,2.19E-02,4.14E-03
22384,2.20E-02,4.42E-03
22385,2.19E-02,4.31E-03
22386,2.20E-02,4.66E-03
22387,2.20E-02,4.53E-03
22388,2.21E-02,4.96E-03
22389,2.21E-02,4.80E-03
22390,2.22E-02,5.33E-03
22391,2.21E-02,5.14E-03
22392,2.20E-02,5.76E-03
22393,2.22E-02,5.54E-03
22394,2.12E-02,6.24E-03
22395,2.16E-02,5.99E-03
22396,2.10E-02,6.52E-03
22397,2.11E-02,6.90E-03
22398,2.27E-02,7.77E-03
22399,2.17E-02,7.40E-03
22400,2.56E-02,5.74E-03
22401,2.78E-02,5.56E-03
22402,2.53E-02,5.90E-03
22403,2.31E-02,6.44E-03
22404,2.35E-02,6.32E-03
22405,2.35E-02,6.65E-03
22406,2.35E-02,6.54E-03
22407,2.48E-02,6.85E-03
22408,2.47E-02,6.74E-03
22409,2.52E-02,7.10E-03
22410,2.52E-02,6.96E-03
22411,2.42E-02,7.40E-03
22412,2.46E-02,7.24E-03
22413,2.27E-02,7.72E-03
22414,2.31E-02,7.56E-03
22415,2.15E-02,8.00E-03
22416,2.18E-02,7.86E-03
22417,2.07E-02,8.13E-03
22418,2.01E-02,8.66E-03
22419,2.02E-02,8.56E-03
22420,2.39E-02,8.98E-03
22421,2.86E-02,8.79E-03
22422,2.27E-02,9.09E-03
22423,2.30E-02,9.03E-03
22424,2.14E-02,9.18E-03
22425,2.23E-02,9.14E-03
22426,2.07E-02,9.19E-03
22427,2.11E-02,9.20E-03
22428,2.04E-02,9.11E-03
22429,2.05E-02,9.16E-03
22430,2.03E-02,8.98E-03
22431,2.04E-02,9.05E-03
22432,2.03E-02,8.83E-03
22433,2.00E-02,8.91E-03
22434,2.04E-02,8.75E-03
22435,1.64E-02,2.63E-03
22436,1.72E-02,1.99E-03
22437,2.02E-02,1.86E-03
22438,1.97E-02,1.91E-03
22439,2.07E-02,1.94E-03
22440,2.68E-02,1.81E-03
22441,2.22E-02,2.13E-03
22442,1.82E-02,2.06E-03
22443,1.62E-02,2.69E-03
22444,2.18E-02,2.78E-03
22445,2.58E-02,2.76E-03
22446,2.59E-02,2.77E-03
22447,2.61E-02,2.77E-03
22448,2.82E-02,2.96E-03
22449,2.76E-02,3.29E-03
22450,2.63E-02,3.16E-03
22451,2.93E-02,3.61E-03
22452,2.93E-02,3.45E-03
22453,3.02E-02,3.96E-03
22454,2.96E-02,3.79E-03
22455,3.07E-02,4.21E-03
22456,3.05E-02,4.12E-03
22457,3.22E-02,4.20E-03
22458,3.20E-02,4.24E-03
22459,3.39E-02,3.92E-03
22460,3.54E-02,4.09E-03
22461,3.15E-02,3.78E-03
22462,2.10E-02,3.28E-03
22463,2.19E-02,4.00E-03
22464,2.17E-02,4.04E-03
22465,2.23E-02,1.36E-03
22466,2.36E-02,1.56E-03
22467,2.22E-02,5.31E-03
22468,2.17E-02,4.98E-03
22469,2.42E-02,8.67E-03
22470,2.18E-02,3.70E-03
22471,2.19E-02,3.80E-03
22472,2.11E-02,5.33E-03
22473,2.65E-02,6.17E-03
22474,2.53E-02,6.32E-03
22475,2.04E-02,8.84E-03
22476,2.05E-02,8.71E-03
22477,2.03E-02,8.96E-03
22478,2.37E-02,2.60E-03
22479,2.95E-02,2.64E-03
22480,2.07E-02,2.21E-03
22481,1.95E-02,2.04E-03
22482,2.43E-02,1.67E-03
22483,2.53E-02,1.20E-03
22484,1.77E-02,1.13E-03
22485,3.51E-02,4.20E-03
22486,2.10E-02,3.51E-03
22487,2.10E-02,3.39E-03
22488,2.18E-02,4.28E-03
22489,2.30E-02,5.16E-03
22490,1.97E-02,6.17E-03
22491,2.23E-02,5.36E-03
22492,2.15E-02,4.75E-03
22493,2.19E-02,2.59E-03
22494,2.16E-02,3.74E-03
22495,2.08E-02,3.45E-03
22496,2.14E-02,4.51E-03
22497,2.26E-02,5.36E-03
22498,2.22E-02,2.70E-03
22499,2.29E-02,5.06E-03
22500,2.34E-02,5.09E-03
22501,2.33E-02,4.91E-03
22502,2.32E-02,4.89E-03
22503,2.19E-02,3.95E-03
22504,2.02E-02,3.47E-03
22505,2.28E-02,7.26E-03
22506,2.36E-02,8.09E-03
22507,2.19E-02,5.02E-03
22508,2.05E-02,3.45E-03
22509,2.12E-02,5.11E-03
22510,2.55E-02,3.40E-03
22511,2.41E-02,3.23E-03
22512,2.37E-02,3.05E-03
22513,2.36E-02,2.86E-03
22514,2.03E-02,1.20E-03
22515,2.14E-02,8.00E-03
22516,1.98E-02,4.00E-03
22517,2.07E-02,4.05E-03
22518,2.10E-02,7.70E-03
22519,2.15E-02,9.85E-04
22520,2.14E-02,9.93E-04
22521,2.19E-02,5.15E-03
22522,2.63E-02,8.41E-03
22523,2.22E-02,8.66E-03
22524,2.14E-02,8.07E-03
22525,2.44E-02,7.10E-03
22526,2.21E-02,7.44E-03
22527,1.97E-02,6.17E-03
22528,2.04E-02,6.58E-03
22529,1.94E-02,5.46E-03
22530,1.97E-02,5.81E-03
22531,1.98E-02,4.86E-03
22532,1.99E-02,5.15E-03
22533,2.09E-02,4.39E-03
22534,2.03E-02,4.61E-03
22535,2.16E-02,3.98E-03
22536,2.13E-02,4.18E-03
22537,2.17E-02,3.62E-03
22538,2.17E-02,3.79E-03
22539,2.17E-02,3.35E-03
22540,2.18E-02,3.48E-03
22541,2.24E-02,3.17E-03
22542,2.19E-02,3.25E-03
22543,2.32E-02,3.06E-03
22544,2.29E-02,3.11E-03
22545,2.42E-02,2.99E-03
22546,2.36E-02,3.02E-03
22547,2.42E-02,2.98E-03
22548,2.44E-02,2.98E-03
22549,2.40E-02,3.03E-03
22550,2.40E-02,2.99E-03
22551,2.32E-02,3.14E-03
22552,2.31E-02,3.08E-03
22553,2.19E-02,3.31E-03
22554,2.20E-02,3.22E-03
22555,2.13E-02,3.51E-03
22556,2.13E-02,3.41E-03
22557,2.12E-02,3.60E-03
22558,1.98E-02,3.96E-03
22559,2.13E-02,3.89E-03
22560,2.13E-02,5.18E-03
22561,2.19E-02,4.15E-03
22562,2.19E-02,4.09E-03
22563,2.19E-02,4.27E-03
22564,2.21E-02,4.21E-03
22565,2.17E-02,4.38E-03
22566,2.19E-02,4.33E-03
22567,2.22E-02,4.50E-03
22568,2.21E-02,4.44E-03
22569,2.22E-02,4.66E-03
22570,2.20E-02,4.58E-03
22571,2.21E-02,4.85E-03
22572,2.21E-02,4.75E-03
22573,2.20E-02,5.08E-03
22574,2.21E-02,4.96E-03
22575,2.21E-02,5.36E-03
22576,2.21E-02,5.22E-03
22577,2.21E-02,5.70E-03
22578,2.22E-02,5.53E-03
22579,2.19E-02,6.11E-03
22580,2.20E-02,5.90E-03
22581,2.16E-02,6.58E-03
22582,2.18E-02,6.34E-03
22583,2.12E-02,7.11E-03
22584,2.13E-02,6.83E-03
22585,2.09E-02,7.40E-03
22586,2.27E-02,8.68E-03
22587,2.17E-02,8.33E-03
22588,2.53E-02,5.46E-03
22589,2.44E-02,5.27E-03
22590,2.52E-02,5.80E-03
22591,2.53E-02,5.63E-03
22592,2.52E-02,5.98E-03
22593,2.32E-02,6.60E-03
22594,2.35E-02,6.47E-03
22595,2.35E-02,6.85E-03
22596,2.36E-02,6.73E-03
22597,2.43E-02,7.10E-03
22598,2.46E-02,6.97E-03
22599,2.48E-02,7.39E-03
22600,2.49E-02,7.24E-03
22601,2.39E-02,7.74E-03
22602,2.42E-02,7.56E-03
22603,2.26E-02,8.10E-03
22604,2.29E-02,7.92E-03
22605,2.14E-02,8.42E-03
22606,2.17E-02,8.26E-03
22607,2.08E-02,8.57E-03
22608,2.02E-02,9.19E-03
22609,2.04E-02,9.08E-03
22610,2.44E-02,9.52E-03
22611,2.27E-02,9.60E-03
22612,2.69E-02,9.47E-03
22613,2.55E-02,9.53E-03
22614,2.24E-02,9.57E-03
22615,2.28E-02,9.77E-03
22616,2.95E-02,9.63E-03
22617,2.28E-02,9.88E-03
22618,2.27E-02,9.85E-03
22619,2.15E-02,9.92E-03
22620,2.25E-02,9.91E-03
22621,2.09E-02,9.87E-03
22622,2.14E-02,9.90E-03
22623,2.05E-02,9.75E-03
22624,2.07E-02,9.81E-03
22625,2.04E-02,9.58E-03
22626,2.04E-02,9.67E-03
22627,2.03E-02,9.40E-03
22628,2.01E-02,9.49E-03
22629,2.03E-02,9.30E-03
22630,2.20E-02,2.45E-03
22631,2.09E-02,2.45E-03
22632,2.46E-02,2.48E-03
22633,2.28E-02,2.45E-03
22634,2.33E-02,2.50E-03
22635,2.46E-02,2.50E-03
22636,1.61E-02,2.50E-03
22637,2.06E-02,2.50E-03
22638,2.29E-02,2.57E-03
22639,1.82E-02,2.52E-03
22640,2.46E-02,2.62E-03
22641,2.27E-02,2.52E-03
22642,2.86E-02,2.61E-03
22643,2.80E-02,2.61E-03
22644,2.57E-02,2.50E-03
22645,2.63E-02,2.54E-03
22646,2.45E-02,2.26E-03
22647,2.39E-02,2.31E-03
22648,2.32E-02,2.38E-03
22649,2.26E-02,2.43E-03
22650,2.11E-02,2.49E-03
22651,2.21E-02,2.50E-03
22652,2.14E-02,2.36E-03
22653,2.66E-02,2.45E-03
22654,2.16E-02,2.24E-03
22655,1.97E-02,2.27E-03
22656,2.20E-02,2.13E-03
22657,2.14E-02,2.19E-03
22658,1.94E-02,1.94E-03
22659,2.32E-02,2.05E-03
22660,2.03E-02,1.77E-03
22661,1.82E-02,1.81E-03
22662,2.07E-02,1.71E-03
22663,2.15E-02,1.16E-03
22664,2.46E-02,1.24E-03
22665,2.04E-02,1.22E-03
22666,2.45E-02,1.37E-03
22667,2.39E-02,1.30E-03
22668,2.61E-02,1.55E-03
22669,2.50E-02,1.49E-03
22670,2.41E-02,1.75E-03
22671,2.51E-02,1.65E-03
22672,2.47E-02,1.93E-03
22673,2.41E-02,1.84E-03
22674,2.28E-02,2.13E-03
22675,2.37E-02,2.03E-03
22676,2.14E-02,2.35E-03
22677,2.19E-02,2.25E-03
22678,2.28E-02,2.51E-03
22679,2.26E-02,2.43E-03
22680,2.33E-02,2.63E-03
22681,2.34E-02,2.57E-03
22682,2.37E-02,2.72E-03
22683,2.30E-02,2.68E-03
22684,2.80E-02,2.73E-03
22685,2.80E-02,2.72E-03
22686,2.73E-02,2.80E-03
22687,2.73E-02,2.77E-03
22688,2.98E-02,2.87E-03
22689,2.97E-02,2.83E-03
22690,3.39E-02,2.91E-03
22691,3.25E-02,2.87E-03
22692,2.69E-02,3.03E-03
22693,2.81E-02,2.97E-03
22694,2.78E-02,3.04E-03
22695,2.92E-02,3.02E-03
22696,2.94E-02,3.09E-03
22697,2.73E-02,3.07E-03
22698,3.40E-02,3.23E-03
22699,3.29E-02,3.12E-03
22700,2.76E-02,3.62E-03
22701,2.84E-02,3.44E-03
22702,2.77E-02,3.98E-03
22703,2.73E-02,3.79E-03
22704,2.89E-02,4.34E-03
22705,2.89E-02,4.16E-03
22706,3.00E-02,4.62E-03
22707,2.98E-02,4.50E-03
22708,3.17E-02,4.65E-03
22709,3.12E-02,4.67E-03
22710,3.65E-02,4.42E-03
22711,3.34E-02,4.57E-03
22712,3.65E-02,4.30E-03
22713,2.09E-02,3.45E-03
22714,2.19E-02,4.17E-03
22715,2.18E-02,4.22E-03
22716,2.21E-02,5.22E-03
22717,2.18E-02,4.92E-03
22718,2.16E-02,4.10E-03
22719,2.35E-02,4.22E-03
22720,2.12E-02,8.64E-03
22721,2.14E-02,8.96E-03
22722,2.42E-02,6.22E-03
22723,2.41E-02,6.46E-03
22724,2.06E-02,9.17E-03
22725,2.06E-02,9.32E-03
22726,2.11E-02,9.06E-03
22727,2.30E-02,2.51E-03
22728,2.19E-02,1.45E-03
22729,2.34E-02,4.73E-03
22730,2.32E-02,4.72E-03
22731,2.31E-02,4.53E-03
22732,2.34E-02,4.55E-03
22733,2.18E-02,9.75E-04
22734,2.17E-02,3.68E-03
22735,2.11E-02,3.53E-03
22736,2.19E-02,4.45E-03
22737,2.18E-02,5.24E-03
22738,2.19E-02,6.56E-03
22739,2.22E-02,5.25E-03
22740,2.17E-02,4.68E-03
22741,2.33E-02,2.60E-03
22742,2.34E-02,4.72E-03
22743,1.67E-02,1.04E-03
22744,1.96E-02,1.06E-03
22745,2.20E-02,3.90E-03
22746,2.08E-02,3.56E-03
22747,2.71E-02,9.14E-03
22748,2.28E-02,4.86E-03
22749,2.22E-02,4.11E-03
22750,2.05E-02,3.54E-03
22751,2.17E-02,4.97E-03
22752,2.14E-02,3.49E-03
22753,2.45E-02,3.37E-03
22754,2.43E-02,3.17E-03
22755,2.52E-02,2.96E-03
22756,2.45E-02,2.76E-03
22757,2.07E-02,1.01E-03
22758,2.22E-02,7.92E-04
22759,2.20E-02,8.03E-04
22760,2.10E-02,5.05E-03
22761,2.08E-02,4.41E-03
22762,2.18E-02,5.08E-03
22763,1.98E-02,7.87E-03
22764,2.03E-02,8.44E-03
22765,1.88E-02,6.97E-03
22766,1.92E-02,7.45E-03
22767,2.06E-02,6.19E-03
22768,1.76E-02,6.53E-03
22769,2.01E-02,5.44E-03
22770,2.04E-02,5.82E-03
22771,2.00E-02,4.79E-03
22772,2.00E-02,5.11E-03
22773,2.04E-02,4.26E-03
22774,2.00E-02,4.51E-03
22775,2.09E-02,3.84E-03
22776,2.06E-02,4.03E-03
22777,2.15E-02,3.50E-03
22778,2.12E-02,3.66E-03
22779,2.17E-02,3.24E-03
22780,2.17E-02,3.36E-03
22781,2.15E-02,3.06E-03
22782,2.17E-02,3.14E-03
22783,2.24E-02,2.97E-03
22784,2.19E-02,3.01E-03
22785,2.32E-02,2.94E-03
22786,2.28E-02,2.95E-03
22787,2.40E-02,2.96E-03
22788,2.35E-02,2.95E-03
22789,2.41E-02,3.04E-03
22790,2.43E-02,2.99E-03
22791,2.39E-02,3.17E-03
22792,2.39E-02,3.10E-03
22793,2.27E-02,3.37E-03
22794,2.33E-02,3.26E-03
22795,2.21E-02,3.61E-03
22796,2.21E-02,3.48E-03
22797,2.14E-02,3.85E-03
22798,2.14E-02,3.73E-03
22799,2.14E-02,3.97E-03
22800,2.27E-02,4.31E-03
22801,2.17E-02,4.67E-03
22802,2.13E-02,4.60E-03
22803,2.19E-02,4.81E-03
22804,2.19E-02,4.74E-03
22805,2.16E-02,4.94E-03
22806,2.18E-02,4.87E-03
22807,2.22E-02,5.10E-03
22808,2.19E-02,5.01E-03
22809,2.23E-02,5.29E-03
22810,2.20E-02,5.19E-03
22811,2.21E-02,5.51E-03
22812,2.22E-02,5.39E-03
22813,2.21E-02,5.78E-03
22814,2.21E-02,5.64E-03
22815,2.22E-02,6.10E-03
22816,2.22E-02,5.93E-03
22817,2.23E-02,6.48E-03
22818,2.24E-02,6.28E-03
22819,2.21E-02,6.93E-03
22820,2.22E-02,6.69E-03
22821,2.16E-02,7.43E-03
22822,2.18E-02,7.17E-03
22823,2.12E-02,8.01E-03
22824,2.12E-02,7.71E-03
22825,2.11E-02,8.32E-03
22826,2.19E-02,9.64E-03
22827,2.14E-02,9.30E-03
22828,2.38E-02,5.11E-03
22829,2.36E-02,4.91E-03
22830,2.44E-02,5.50E-03
22831,2.45E-02,5.30E-03
22832,2.44E-02,5.87E-03
22833,2.45E-02,5.69E-03
22834,2.37E-02,6.06E-03
22835,2.33E-02,6.77E-03
22836,2.22E-02,6.61E-03
22837,2.36E-02,7.06E-03
22838,2.32E-02,6.91E-03
22839,2.44E-02,7.35E-03
22840,2.39E-02,7.20E-03
22841,2.44E-02,7.69E-03
22842,2.47E-02,7.51E-03
22843,2.37E-02,8.08E-03
22844,2.40E-02,7.88E-03
22845,2.23E-02,8.48E-03
22846,2.30E-02,8.28E-03
22847,2.14E-02,8.84E-03
22848,2.17E-02,8.67E-03
22849,2.09E-02,9.01E-03
22850,2.04E-02,9.73E-03
22851,2.04E-02,9.46E-03
22852,2.04E-02,9.60E-03
22853,2.20E-02,1.05E-02
22854,2.57E-02,1.03E-02
22855,2.27E-02,1.05E-02
22856,2.10E-02,1.06E-02
22857,2.43E-02,1.05E-02
22858,2.38E-02,1.05E-02
22859,2.49E-02,1.05E-02
22860,2.43E-02,1.05E-02
22861,2.36E-02,1.06E-02
22862,2.47E-02,1.06E-02
22863,2.27E-02,1.07E-02
22864,2.30E-02,1.07E-02
22865,2.18E-02,1.07E-02
22866,2.23E-02,1.07E-02
22867,2.11E-02,1.06E-02
22868,2.15E-02,1.06E-02
22869,2.07E-02,1.04E-02
22870,2.08E-02,1.05E-02
22871,2.06E-02,1.02E-02
22872,2.05E-02,1.03E-02
22873,2.04E-02,9.97E-03
22874,2.03E-02,1.01E-02
22875,2.04E-02,9.85E-03
22876,2.25E-02,2.36E-03
22877,2.30E-02,2.43E-03
22878,2.19E-02,2.29E-03
22879,2.17E-02,2.32E-03
22880,2.30E-02,2.28E-03
22881,2.28E-02,2.28E-03
22882,2.20E-02,2.29E-03
22883,2.30E-02,2.28E-03
22884,1.98E-02,2.30E-03
22885,2.02E-02,2.29E-03
22886,2.15E-02,2.34E-03
22887,2.01E-02,2.33E-03
22888,2.22E-02,2.36E-03
22889,1.79E-02,2.34E-03
22890,2.43E-02,2.35E-03
22891,2.27E-02,2.35E-03
22892,2.00E-02,2.31E-03
22893,2.19E-02,2.31E-03
22894,2.30E-02,2.24E-03
22895,2.10E-02,2.25E-03
22896,2.02E-02,2.12E-03
22897,2.15E-02,2.19E-03
22898,2.10E-02,2.01E-03
22899,2.20E-02,2.06E-03
22900,2.09E-02,1.89E-03
22901,2.11E-02,1.95E-03
22902,1.83E-02,1.72E-03
22903,2.02E-02,1.81E-03
22904,2.05E-02,1.56E-03
22905,2.14E-02,1.62E-03
22906,2.12E-02,1.50E-03
22907,2.27E-02,4.34E-03
22908,2.24E-02,4.15E-03
22909,2.22E-02,3.95E-03
22910,2.16E-02,3.74E-03
22911,2.21E-02,3.78E-03
22912,2.28E-02,4.18E-03
22913,2.23E-02,3.98E-03
22914,2.32E-02,4.37E-03
22915,1.97E-02,9.60E-04
22916,2.19E-02,9.69E-04
22917,2.19E-02,1.01E-03
22918,1.88E-02,9.75E-04
22919,2.54E-02,1.05E-03
22920,2.44E-02,1.04E-03
22921,2.34E-02,1.06E-03
22922,2.58E-02,1.42E-03
22923,2.20E-02,1.63E-03
22924,2.30E-02,1.54E-03
22925,2.48E-02,1.79E-03
22926,2.47E-02,1.71E-03
22927,2.43E-02,1.96E-03
22928,2.46E-02,1.87E-03
22929,2.39E-02,2.15E-03
22930,2.42E-02,2.05E-03
22931,2.31E-02,2.36E-03
22932,2.35E-02,2.25E-03
22933,2.22E-02,2.57E-03
22934,2.24E-02,2.47E-03
22935,2.23E-02,2.75E-03
22936,2.25E-02,2.66E-03
22937,2.33E-02,2.87E-03
22938,2.27E-02,2.82E-03
22939,2.46E-02,2.95E-03
22940,2.34E-02,2.92E-03
22941,2.69E-02,3.00E-03
22942,2.56E-02,2.98E-03
22943,2.80E-02,3.07E-03
22944,2.71E-02,3.03E-03
22945,2.88E-02,3.14E-03
22946,2.79E-02,3.11E-03
22947,2.91E-02,3.22E-03
22948,2.93E-02,3.18E-03
22949,2.83E-02,3.29E-03
22950,2.87E-02,3.25E-03
22951,2.77E-02,3.35E-03
22952,2.80E-02,3.32E-03
22953,2.82E-02,3.44E-03
22954,2.81E-02,3.38E-03
22955,2.85E-02,3.64E-03
22956,2.89E-02,3.52E-03
22957,2.71E-02,3.99E-03
22958,2.78E-02,3.80E-03
22959,2.72E-02,4.38E-03
22960,2.69E-02,4.18E-03
22961,2.81E-02,4.79E-03
22962,2.78E-02,4.59E-03
22963,2.93E-02,5.10E-03
22964,2.87E-02,4.96E-03
22965,3.13E-02,5.20E-03
22966,3.00E-02,5.18E-03
22967,3.44E-02,5.01E-03
22968,3.21E-02,5.13E-03
22969,3.57E-02,4.88E-03
22970,2.15E-02,3.61E-03
22971,2.19E-02,4.33E-03
22972,2.19E-02,4.39E-03
22973,2.14E-02,5.12E-03
22974,2.19E-02,5.13E-03
22975,2.18E-02,4.85E-03
22976,2.01E-02,5.00E-03
22977,2.00E-02,4.90E-03
22978,2.05E-02,5.08E-03
22979,2.12E-02,9.60E-03
22980,2.11E-02,9.94E-03
22981,2.00E-02,6.31E-03
22982,1.92E-02,6.47E-03
22983,2.38E-02,2.50E-03
22984,2.09E-02,1.24E-03
22985,2.09E-02,3.53E-03
22986,1.90E-02,3.31E-03
22987,1.78E-02,3.14E-03
22988,2.37E-02,2.98E-03
22989,2.19E-02,3.12E-03
22990,2.12E-02,3.57E-03
22991,2.33E-02,4.55E-03
22992,2.21E-02,7.89E-04
22993,2.31E-02,1.11E-03
22994,2.42E-02,8.37E-03
22995,2.43E-02,7.52E-03
22996,2.22E-02,3.83E-03
22997,2.12E-02,3.66E-03
22998,2.20E-02,4.62E-03
22999,2.19E-02,5.14E-03
23000,2.54E-02,1.01E-02
23001,2.60E-02,1.00E-02
23002,2.31E-02,4.70E-03
23003,2.21E-02,4.04E-03
23004,2.07E-02,3.65E-03
23005,2.24E-02,4.82E-03
23006,2.20E-02,4.25E-03
23007,2.03E-02,3.60E-03
23008,2.36E-02,3.53E-03
23009,2.31E-02,3.30E-03
23010,2.46E-02,3.10E-03
23011,2.63E-02,2.88E-03
23012,2.49E-02,2.66E-03
23013,2.21E-02,8.25E-04
23014,2.17E-02,4.92E-03
23015,2.16E-02,4.99E-03
23016,2.18E-02,5.00E-03
23017,1.92E-02,8.25E-03
23018,2.24E-02,8.79E-03
23019,2.06E-02,7.17E-03
23020,2.10E-02,7.70E-03
23021,2.04E-02,6.23E-03
23022,2.01E-02,6.67E-03
23023,2.00E-02,5.41E-03
23024,1.99E-02,5.78E-03
23025,2.04E-02,4.74E-03
23026,2.02E-02,5.07E-03
23027,2.05E-02,4.16E-03
23028,2.03E-02,4.43E-03
23029,2.07E-02,3.70E-03
23030,2.04E-02,3.91E-03
23031,2.09E-02,3.35E-03
23032,2.08E-02,3.51E-03
23033,2.13E-02,3.11E-03
23034,2.11E-02,3.22E-03
23035,2.16E-02,2.95E-03
23036,2.15E-02,3.02E-03
23037,2.18E-02,2.88E-03
23038,2.17E-02,2.91E-03
23039,2.23E-02,2.88E-03
23040,2.18E-02,2.87E-03
23041,2.32E-02,2.94E-03
23042,2.27E-02,2.91E-03
23043,2.39E-02,3.04E-03
23044,2.34E-02,2.99E-03
23045,2.40E-02,3.19E-03
23046,2.41E-02,3.11E-03
23047,2.36E-02,3.41E-03
23048,2.36E-02,3.29E-03
23049,2.27E-02,3.67E-03
23050,2.33E-02,3.53E-03
23051,2.21E-02,3.96E-03
23052,2.22E-02,3.81E-03
23053,2.16E-02,4.24E-03
23054,2.14E-02,4.10E-03
23055,2.12E-02,4.50E-03
23056,2.14E-02,4.38E-03
23057,2.22E-02,4.65E-03
23058,2.33E-02,4.83E-03
23059,2.14E-02,5.23E-03
23060,2.11E-02,5.15E-03
23061,2.17E-02,5.38E-03
23062,2.16E-02,5.30E-03
23063,2.17E-02,5.53E-03
23064,2.17E-02,5.45E-03
23065,2.21E-02,5.72E-03
23066,2.20E-02,5.62E-03
23067,2.24E-02,5.94E-03
23068,2.22E-02,5.82E-03
23069,2.21E-02,6.19E-03
23070,2.23E-02,6.06E-03
23071,2.21E-02,6.50E-03
23072,2.22E-02,6.34E-03
23073,2.21E-02,6.86E-03
23074,2.20E-02,6.67E-03
23075,2.23E-02,7.27E-03
23076,2.22E-02,7.06E-03
23077,2.21E-02,7.76E-03
23078,2.22E-02,7.51E-03
23079,2.15E-02,8.31E-03
23080,2.19E-02,8.03E-03
23081,2.11E-02,8.93E-03
23082,2.14E-02,8.61E-03
23083,2.10E-02,9.26E-03
23084,2.22E-02,1.07E-02
23085,2.14E-02,1.03E-02
23086,2.26E-02,9.22E-03
23087,2.08E-02,3.48E-03
23088,1.75E-02,3.29E-03
23089,2.21E-02,3.90E-03
23090,2.16E-02,3.69E-03
23091,2.31E-02,4.30E-03
23092,2.26E-02,4.10E-03
23093,2.35E-02,4.70E-03
23094,2.32E-02,4.50E-03
23095,2.41E-02,5.11E-03
23096,2.37E-02,4.90E-03
23097,2.40E-02,5.53E-03
23098,2.42E-02,5.32E-03
23099,2.35E-02,5.93E-03
23100,2.38E-02,5.73E-03
23101,2.26E-02,6.13E-03
23102,2.26E-02,6.94E-03
23103,1.86E-02,6.65E-03
23104,2.14E-02,6.78E-03
23105,2.35E-02,7.27E-03
23106,2.28E-02,7.10E-03
23107,2.43E-02,7.61E-03
23108,2.35E-02,7.43E-03
23109,2.41E-02,7.99E-03
23110,2.42E-02,7.79E-03
23111,2.35E-02,8.42E-03
23112,2.37E-02,8.20E-03
23113,2.21E-02,8.87E-03
23114,2.29E-02,8.65E-03
23115,2.14E-02,9.28E-03
23116,2.18E-02,9.08E-03
23117,2.08E-02,9.65E-03
23118,2.09E-02,9.47E-03
23119,2.06E-02,9.99E-03
23120,2.07E-02,9.82E-03
23121,2.07E-02,1.03E-02
23122,2.06E-02,1.01E-02
23123,2.09E-02,1.12E-02
23124,2.26E-02,1.15E-02
23125,2.14E-02,1.14E-02
23126,2.26E-02,1.15E-02
23127,2.25E-02,1.15E-02
23128,2.39E-02,1.15E-02
23129,2.33E-02,1.15E-02
23130,2.41E-02,1.15E-02
23131,2.42E-02,1.15E-02
23132,2.33E-02,1.15E-02
23133,2.38E-02,1.15E-02
23134,2.27E-02,1.15E-02
23135,2.31E-02,1.15E-02
23136,2.19E-02,1.14E-02
23137,2.23E-02,1.15E-02
23138,2.13E-02,1.13E-02
23139,2.15E-02,1.14E-02
23140,2.09E-02,1.11E-02
23141,2.09E-02,1.12E-02
23142,2.06E-02,1.08E-02
23143,2.07E-02,1.09E-02
23144,2.06E-02,1.06E-02
23145,2.05E-02,1.07E-02
23146,2.06E-02,1.04E-02
23147,2.31E-02,2.31E-03
23148,2.36E-02,2.40E-03
23149,2.23E-02,2.19E-03
23150,2.28E-02,2.25E-03
23151,2.24E-02,2.14E-03
23152,2.25E-02,2.16E-03
23153,2.17E-02,2.13E-03
23154,2.25E-02,2.13E-03
23155,2.06E-02,2.13E-03
23156,2.10E-02,2.12E-03
23157,2.11E-02,2.15E-03
23158,2.08E-02,2.14E-03
23159,2.09E-02,2.15E-03
23160,2.11E-02,2.15E-03
23161,2.04E-02,2.14E-03
23162,2.05E-02,2.15E-03
23163,2.14E-02,2.12E-03
23164,2.09E-02,2.13E-03
23165,2.15E-02,2.06E-03
23166,2.14E-02,2.09E-03
23167,2.08E-02,2.00E-03
23168,2.11E-02,2.03E-03
23169,1.90E-02,1.89E-03
23170,2.05E-02,1.96E-03
23171,2.06E-02,1.79E-03
23172,2.00E-02,1.84E-03
23173,2.02E-02,1.66E-03
23174,2.05E-02,1.73E-03
23175,1.85E-02,1.49E-03
23176,1.96E-02,1.58E-03
23177,2.11E-02,1.36E-03
23178,2.05E-02,1.42E-03
23179,2.13E-02,1.30E-03
23180,2.18E-02,2.79E-03
23181,2.31E-02,2.60E-03
23182,2.34E-02,3.35E-03
23183,2.23E-02,3.81E-03
23184,2.26E-02,4.19E-03
23185,2.25E-02,4.00E-03
23186,2.28E-02,4.37E-03
23187,2.14E-02,7.97E-04
23188,2.19E-02,7.88E-04
23189,2.09E-02,8.15E-04
23190,2.16E-02,8.02E-04
23191,2.24E-02,8.40E-04
23192,2.22E-02,8.32E-04
23193,2.12E-02,8.64E-04
23194,2.16E-02,8.49E-04
23195,2.18E-02,8.91E-04
23196,2.10E-02,8.76E-04
23197,2.19E-02,1.12E-03
23198,2.19E-02,9.21E-04
23199,2.37E-02,9.04E-04
23200,2.20E-02,9.42E-04
23201,2.34E-02,9.44E-04
23202,1.97E-02,9.17E-04
23203,2.40E-02,1.01E-03
23204,2.13E-02,1.12E-03
23205,2.49E-02,1.41E-03
23206,2.26E-02,1.68E-03
23207,2.15E-02,1.59E-03
23208,2.25E-02,1.87E-03
23209,2.32E-02,1.77E-03
23210,2.41E-02,2.02E-03
23211,2.38E-02,1.94E-03
23212,2.42E-02,2.18E-03
23213,2.41E-02,2.09E-03
23214,2.35E-02,2.36E-03
23215,2.39E-02,2.27E-03
23216,2.30E-02,2.58E-03
23217,2.32E-02,2.47E-03
23218,2.25E-02,2.80E-03
23219,2.26E-02,2.69E-03
23220,2.24E-02,2.98E-03
23221,2.24E-02,2.90E-03
23222,2.30E-02,3.12E-03
23223,2.26E-02,3.06E-03
23224,2.41E-02,3.21E-03
23225,2.35E-02,3.17E-03
23226,2.59E-02,3.27E-03
23227,2.48E-02,3.24E-03
23228,2.69E-02,3.35E-03
23229,2.65E-02,3.30E-03
23230,2.74E-02,3.44E-03
23231,2.70E-02,3.39E-03
23232,2.74E-02,3.53E-03
23233,2.74E-02,3.49E-03
23234,2.72E-02,3.60E-03
23235,2.72E-02,3.57E-03
23236,2.72E-02,3.68E-03
23237,2.74E-02,3.64E-03
23238,2.74E-02,3.82E-03
23239,2.73E-02,3.74E-03
23240,2.69E-02,4.06E-03
23241,2.76E-02,3.92E-03
23242,2.65E-02,4.41E-03
23243,2.67E-02,4.22E-03
23244,2.67E-02,4.85E-03
23245,2.65E-02,4.62E-03
23246,2.73E-02,5.29E-03
23247,2.69E-02,5.07E-03
23248,2.84E-02,5.66E-03
23249,2.78E-02,5.50E-03
23250,3.04E-02,5.82E-03
23251,2.91E-02,5.78E-03
23252,3.21E-02,5.70E-03
23253,3.12E-02,5.80E-03
23254,3.41E-02,5.56E-03
23255,2.33E-02,6.27E-03
23256,2.37E-02,6.84E-03
23257,2.22E-02,3.75E-03
23258,2.19E-02,4.55E-03
23259,2.18E-02,5.03E-03
23260,2.17E-02,5.03E-03
23261,2.20E-02,4.77E-03
23262,2.28E-02,1.11E-02
23263,2.09E-02,1.06E-02
23264,2.08E-02,1.09E-02
23265,2.22E-02,1.11E-02
23266,2.41E-02,1.12E-02
23267,1.67E-02,1.15E-02
23268,2.14E-02,1.05E-03
23269,1.92E-02,2.91E-03
23270,2.26E-02,3.60E-03
23271,2.32E-02,4.54E-03
23272,2.46E-02,8.63E-03
23273,2.64E-02,7.86E-03
23274,2.35E-02,3.96E-03
23275,2.11E-02,3.77E-03
23276,2.28E-02,6.36E-04
23277,2.29E-02,6.28E-04
23278,2.27E-02,4.67E-03
23279,2.25E-02,4.17E-03
23280,1.99E-02,3.72E-03
23281,2.16E-02,3.58E-03
23282,2.42E-02,3.23E-03
23283,2.45E-02,2.54E-03
23284,2.24E-02,6.53E-04
23285,2.23E-02,4.78E-03
23286,2.18E-02,4.86E-03
23287,2.19E-02,4.47E-03
23288,1.89E-02,3.65E-03
23289,2.18E-02,4.92E-03
23290,2.22E-02,9.80E-04
23291,2.20E-02,4.91E-03
23292,2.51E-02,1.01E-02
23293,1.61E-02,1.13E-02
23294,1.55E-02,1.06E-02
23295,2.10E-02,8.64E-03
23296,2.41E-02,9.36E-03
23297,2.13E-02,7.42E-03
23298,1.93E-02,8.00E-03
23299,2.08E-02,6.39E-03
23300,2.07E-02,6.89E-03
23301,2.09E-02,5.47E-03
23302,2.09E-02,5.93E-03
23303,2.03E-02,4.70E-03
23304,2.06E-02,5.07E-03
23305,2.07E-02,4.08E-03
23306,2.03E-02,4.38E-03
23307,2.08E-02,3.58E-03
23308,2.05E-02,3.81E-03
23309,2.08E-02,3.21E-03
23310,2.07E-02,3.37E-03
23311,2.10E-02,2.97E-03
23312,2.09E-02,3.08E-03
23313,2.14E-02,2.83E-03
23314,2.12E-02,2.89E-03
23315,2.17E-02,2.79E-03
23316,2.15E-02,2.80E-03
23317,2.18E-02,2.83E-03
23318,2.15E-02,2.80E-03
23319,2.22E-02,2.93E-03
23320,2.17E-02,2.87E-03
23321,2.31E-02,3.06E-03
23322,2.26E-02,2.99E-03
23323,2.35E-02,3.23E-03
23324,2.34E-02,3.14E-03
23325,2.37E-02,3.44E-03
23326,2.37E-02,3.33E-03
23327,2.35E-02,3.71E-03
23328,2.35E-02,3.57E-03
23329,2.28E-02,4.02E-03
23330,2.30E-02,3.86E-03
23331,2.21E-02,4.35E-03
23332,2.22E-02,4.19E-03
23333,2.15E-02,4.67E-03
23334,2.17E-02,4.52E-03
23335,2.10E-02,4.96E-03
23336,2.11E-02,4.82E-03
23337,1.94E-02,5.17E-03
23338,1.90E-02,5.12E-03
23339,1.95E-02,5.46E-03
23340,2.13E-02,5.33E-03
23341,2.08E-02,5.64E-03
23342,2.03E-02,5.55E-03
23343,2.13E-02,5.80E-03
23344,2.11E-02,5.72E-03
23345,2.16E-02,5.97E-03
23346,2.16E-02,5.89E-03
23347,2.18E-02,6.14E-03
23348,2.16E-02,6.05E-03
23349,2.22E-02,6.36E-03
23350,2.22E-02,6.24E-03
23351,2.23E-02,6.61E-03
23352,2.22E-02,6.48E-03
23353,2.22E-02,6.90E-03
23354,2.22E-02,6.75E-03
23355,2.21E-02,7.23E-03
23356,2.22E-02,7.06E-03
23357,2.22E-02,7.63E-03
23358,2.21E-02,7.42E-03
23359,2.22E-02,8.08E-03
23360,2.22E-02,7.85E-03
23361,2.21E-02,8.61E-03
23362,2.22E-02,8.34E-03
23363,2.17E-02,9.20E-03
23364,2.20E-02,8.89E-03
23365,2.12E-02,9.87E-03
23366,2.16E-02,9.53E-03
23367,2.09E-02,1.02E-02
23368,2.35E-02,1.21E-02
23369,2.08E-02,1.13E-02
23370,2.13E-02,1.16E-02
23371,2.16E-02,1.00E-02
23372,2.03E-02,1.15E-02
23373,2.42E-02,1.07E-02
23374,2.03E-02,9.44E-03
23375,2.03E-02,1.75E-03
23376,2.00E-02,1.88E-03
23377,2.62E-02,2.27E-03
23378,2.30E-02,2.07E-03
23379,2.36E-02,2.65E-03
23380,2.67E-02,2.46E-03
23381,1.92E-02,3.00E-03
23382,2.14E-02,2.83E-03
23383,2.10E-02,3.41E-03
23384,2.14E-02,3.21E-03
23385,2.21E-02,3.83E-03
23386,2.16E-02,3.62E-03
23387,2.31E-02,4.24E-03
23388,2.28E-02,4.04E-03
23389,2.36E-02,4.66E-03
23390,2.33E-02,4.45E-03
23391,2.41E-02,5.09E-03
23392,2.38E-02,4.87E-03
23393,2.36E-02,5.54E-03
23394,2.38E-02,5.32E-03
23395,2.29E-02,5.99E-03
23396,2.32E-02,5.77E-03
23397,2.13E-02,6.40E-03
23398,2.20E-02,6.20E-03
23399,1.99E-02,6.78E-03
23400,2.04E-02,6.59E-03
23401,2.20E-02,7.12E-03
23402,2.11E-02,6.95E-03
23403,2.30E-02,7.49E-03
23404,2.27E-02,7.30E-03
23405,2.40E-02,7.88E-03
23406,2.36E-02,7.68E-03
23407,2.39E-02,8.30E-03
23408,2.39E-02,8.08E-03
23409,2.34E-02,8.78E-03
23410,2.35E-02,8.53E-03
23411,2.24E-02,9.26E-03
23412,2.27E-02,9.02E-03
23413,2.15E-02,9.73E-03
23414,2.20E-02,9.50E-03
23415,2.10E-02,1.01E-02
23416,2.11E-02,9.94E-03
23417,2.08E-02,1.05E-02
23418,2.10E-02,1.03E-02
23419,2.07E-02,1.09E-02
23420,2.06E-02,1.07E-02
23421,2.27E-02,1.24E-02
23422,2.11E-02,1.24E-02
23423,2.25E-02,1.25E-02
23424,2.20E-02,1.25E-02
23425,2.29E-02,1.25E-02
23426,2.27E-02,1.26E-02
23427,2.38E-02,1.24E-02
23428,2.34E-02,1.25E-02
23429,2.38E-02,1.24E-02
23430,2.39E-02,1.24E-02
23431,2.31E-02,1.24E-02
23432,2.34E-02,1.24E-02
23433,2.25E-02,1.23E-02
23434,2.30E-02,1.24E-02
23435,2.19E-02,1.22E-02
23436,2.22E-02,1.23E-02
23437,2.15E-02,1.20E-02
23438,2.15E-02,1.21E-02
23439,2.08E-02,1.18E-02
23440,2.10E-02,1.19E-02
23441,2.07E-02,1.15E-02
23442,2.09E-02,1.16E-02
23443,2.08E-02,1.12E-02
23444,2.07E-02,1.13E-02
23445,2.08E-02,1.10E-02
23446,2.31E-02,2.32E-03
23447,2.40E-02,2.42E-03
23448,2.25E-02,2.15E-03
23449,2.28E-02,2.22E-03
23450,2.20E-02,2.05E-03
23451,2.23E-02,2.09E-03
23452,2.16E-02,2.00E-03
23453,2.20E-02,2.02E-03
23454,2.10E-02,1.98E-03
23455,2.13E-02,1.99E-03
23456,2.09E-02,1.98E-03
23457,2.09E-02,1.98E-03
23458,2.07E-02,1.97E-03
23459,2.11E-02,1.98E-03
23460,2.06E-02,1.95E-03
23461,2.05E-02,1.96E-03
23462,2.09E-02,1.92E-03
23463,2.07E-02,1.94E-03
23464,1.96E-02,1.85E-03
23465,2.02E-02,1.88E-03
23466,2.04E-02,1.79E-03
23467,2.03E-02,1.82E-03
23468,1.99E-02,1.69E-03
23469,2.00E-02,1.74E-03
23470,2.01E-02,1.58E-03
23471,2.00E-02,1.64E-03
23472,2.02E-02,1.45E-03
23473,2.03E-02,1.52E-03
23474,1.99E-02,1.29E-03
23475,2.00E-02,1.37E-03
23476,2.12E-02,1.15E-03
23477,2.07E-02,1.22E-03
23478,2.17E-02,1.09E-03
23479,2.20E-02,2.14E-03
23480,1.95E-02,1.97E-03
23481,2.29E-02,2.51E-03
23482,2.55E-02,2.33E-03
23483,2.11E-02,3.21E-03
23484,1.91E-02,3.02E-03
23485,2.29E-02,3.39E-03
23486,2.23E-02,3.82E-03
23487,2.27E-02,4.20E-03
23488,2.23E-02,4.02E-03
23489,2.30E-02,4.37E-03
23490,2.27E-02,6.28E-04
23491,2.28E-02,6.38E-04
23492,2.25E-02,6.32E-04
23493,2.12E-02,6.49E-04
23494,2.21E-02,6.45E-04
23495,2.16E-02,6.67E-04
23496,2.16E-02,6.59E-04
23497,2.18E-02,6.85E-04
23498,2.18E-02,6.77E-04
23499,2.21E-02,7.06E-04
23500,2.18E-02,6.96E-04
23501,2.16E-02,7.26E-04
23502,2.19E-02,7.15E-04
23503,2.11E-02,7.50E-04
23504,2.17E-02,7.43E-04
23505,1.99E-02,7.81E-04
23506,1.96E-02,7.58E-04
23507,2.31E-02,8.59E-04
23508,2.49E-02,8.76E-04
23509,2.03E-02,8.37E-04
23510,2.61E-02,1.06E-03
23511,2.36E-02,1.03E-03
23512,2.91E-02,1.18E-03
23513,2.94E-02,1.11E-03
23514,2.53E-02,1.41E-03
23515,2.44E-02,1.31E-03
23516,2.83E-02,1.62E-03
23517,2.85E-02,1.50E-03
23518,2.27E-02,1.92E-03
23519,2.35E-02,1.79E-03
23520,2.30E-02,2.11E-03
23521,2.29E-02,2.03E-03
23522,2.37E-02,2.26E-03
23523,2.34E-02,2.19E-03
23524,2.38E-02,2.41E-03
23525,2.37E-02,2.33E-03
23526,2.33E-02,2.59E-03
23527,2.36E-02,2.49E-03
23528,2.30E-02,2.80E-03
23529,2.31E-02,2.70E-03
23530,2.25E-02,3.02E-03
23531,2.26E-02,2.92E-03
23532,2.25E-02,3.22E-03
23533,2.24E-02,3.13E-03
23534,2.31E-02,3.37E-03
23535,2.27E-02,3.30E-03
23536,2.38E-02,3.46E-03
23537,2.35E-02,3.42E-03
23538,2.50E-02,3.54E-03
23539,2.43E-02,3.50E-03
23540,2.59E-02,3.63E-03
23541,2.55E-02,3.58E-03
23542,2.65E-02,3.75E-03
23543,2.63E-02,3.69E-03
23544,2.64E-02,3.87E-03
23545,2.65E-02,3.82E-03
23546,2.65E-02,3.95E-03
23547,2.65E-02,3.92E-03
23548,2.65E-02,4.04E-03
23549,2.65E-02,3.99E-03
23550,2.65E-02,4.22E-03
23551,2.67E-02,4.12E-03
23552,2.60E-02,4.49E-03
23553,2.63E-02,4.34E-03
23554,2.58E-02,4.88E-03
23555,2.59E-02,4.67E-03
23556,2.59E-02,5.35E-03
23557,2.57E-02,5.11E-03
23558,2.64E-02,5.86E-03
23559,2.62E-02,5.60E-03
23560,2.74E-02,6.30E-03
23561,2.68E-02,6.09E-03
23562,2.91E-02,6.56E-03
23563,2.80E-02,6.46E-03
23564,3.07E-02,6.53E-03
23565,2.96E-02,6.58E-03
23566,3.34E-02,6.35E-03
23567,3.18E-02,6.44E-03
23568,2.76E-02,6.76E-03
23569,3.32E-02,6.41E-03
23570,2.60E-02,7.23E-03
23571,2.25E-02,3.87E-03
23572,2.18E-02,4.93E-03
23573,2.05E-02,1.25E-02
23574,2.22E-02,4.69E-03
23575,2.09E-02,1.21E-02
23576,2.25E-02,1.60E-03
23577,1.94E-02,1.47E-03
23578,2.24E-02,8.54E-04
23579,2.28E-02,3.62E-03
23580,2.31E-02,4.52E-03
23581,2.69E-02,6.98E-04
23582,2.70E-02,8.25E-03
23583,2.34E-02,4.08E-03
23584,2.30E-02,3.86E-03
23585,1.85E-02,3.65E-03
23586,2.23E-02,3.38E-03
23587,2.31E-02,4.63E-03
23588,2.23E-02,4.73E-03
23589,2.18E-02,4.38E-03
23590,1.89E-02,3.78E-03
23591,1.75E-02,3.70E-03
23592,2.18E-02,4.79E-03
23593,2.20E-02,4.82E-03
23594,2.05E-02,1.31E-02
23595,2.20E-02,4.82E-03
23596,2.09E-02,1.06E-02
23597,2.85E-02,1.32E-02
23598,2.91E-02,1.24E-02
23599,2.25E-02,1.14E-02
23600,2.24E-02,9.10E-03
23601,2.10E-02,9.78E-03
23602,2.29E-02,7.82E-03
23603,2.27E-02,8.46E-03
23604,2.11E-02,6.62E-03
23605,2.11E-02,7.18E-03
23606,2.13E-02,5.62E-03
23607,2.14E-02,6.10E-03
23608,2.11E-02,4.74E-03
23609,2.12E-02,5.16E-03
23610,2.08E-02,4.03E-03
23611,2.09E-02,4.37E-03
23612,2.10E-02,3.48E-03
23613,2.08E-02,3.74E-03
23614,2.09E-02,3.07E-03
23615,2.08E-02,3.25E-03
23616,2.09E-02,2.82E-03
23617,2.08E-02,2.93E-03
23618,2.13E-02,2.71E-03
23619,2.11E-02,2.75E-03
23620,2.16E-02,2.70E-03
23621,2.14E-02,2.69E-03
23622,2.17E-02,2.78E-03
23623,2.17E-02,2.73E-03
23624,2.19E-02,2.92E-03
23625,2.16E-02,2.84E-03
23626,2.22E-02,3.09E-03
23627,2.17E-02,3.00E-03
23628,2.29E-02,3.28E-03
23629,2.25E-02,3.18E-03
23630,2.34E-02,3.50E-03
23631,2.31E-02,3.39E-03
23632,2.38E-02,3.76E-03
23633,2.37E-02,3.62E-03
23634,2.32E-02,4.08E-03
23635,2.33E-02,3.91E-03
23636,2.28E-02,4.42E-03
23637,2.29E-02,4.25E-03
23638,2.21E-02,4.79E-03
23639,2.22E-02,4.61E-03
23640,2.15E-02,5.14E-03
23641,2.19E-02,4.97E-03
23642,2.07E-02,5.46E-03
23643,2.12E-02,5.30E-03
23644,2.01E-02,5.72E-03
23645,2.02E-02,5.59E-03
23646,2.06E-02,5.97E-03
23647,2.07E-02,5.85E-03
23648,2.09E-02,6.21E-03
23649,2.05E-02,6.10E-03
23650,2.13E-02,6.40E-03
23651,2.11E-02,6.31E-03
23652,2.16E-02,6.57E-03
23653,2.15E-02,6.48E-03
23654,2.21E-02,6.77E-03
23655,2.18E-02,6.67E-03
23656,2.23E-02,7.01E-03
23657,2.22E-02,6.88E-03
23658,2.23E-02,7.29E-03
23659,2.23E-02,7.15E-03
23660,2.22E-02,7.61E-03
23661,2.22E-02,7.44E-03
23662,2.19E-02,7.98E-03
23663,2.22E-02,7.79E-03
23664,2.22E-02,8.40E-03
23665,2.22E-02,8.18E-03
23666,2.22E-02,8.90E-03
23667,2.23E-02,8.64E-03
23668,2.22E-02,9.46E-03
23669,2.23E-02,9.17E-03
23670,2.17E-02,1.01E-02
23671,2.20E-02,9.77E-03
23672,2.13E-02,1.08E-02
23673,2.16E-02,1.04E-02
23674,2.08E-02,1.16E-02
23675,2.10E-02,1.12E-02
23676,2.04E-02,1.23E-02
23677,2.05E-02,1.19E-02
23678,2.02E-02,1.26E-02
23679,2.08E-02,1.06E-02
23680,2.02E-02,1.13E-02
23681,2.74E-02,9.73E-03
23682,1.89E-02,9.26E-04
23683,2.23E-02,1.06E-03
23684,2.47E-02,1.20E-03
23685,2.23E-02,1.49E-03
23686,2.56E-02,1.35E-03
23687,2.23E-02,1.80E-03
23688,2.19E-02,1.63E-03
23689,2.38E-02,2.15E-03
23690,2.32E-02,1.97E-03
23691,2.35E-02,2.52E-03
23692,2.44E-02,2.33E-03
23693,2.21E-02,2.90E-03
23694,2.22E-02,2.71E-03
23695,2.17E-02,3.32E-03
23696,2.17E-02,3.11E-03
23697,2.23E-02,3.74E-03
23698,2.20E-02,3.53E-03
23699,2.31E-02,4.17E-03
23700,2.27E-02,3.95E-03
23701,2.35E-02,4.60E-03
23702,2.34E-02,4.38E-03
23703,2.37E-02,5.07E-03
23704,2.38E-02,4.83E-03
23705,2.31E-02,5.55E-03
23706,2.35E-02,5.31E-03
23707,2.26E-02,6.04E-03
23708,2.29E-02,5.80E-03
23709,2.17E-02,6.50E-03
23710,2.20E-02,6.27E-03
23711,2.09E-02,6.91E-03
23712,2.07E-02,6.71E-03
23713,2.17E-02,7.31E-03
23714,2.13E-02,7.11E-03
23715,2.27E-02,7.73E-03
23716,2.25E-02,7.52E-03
23717,2.34E-02,8.16E-03
23718,2.34E-02,7.94E-03
23719,2.37E-02,8.62E-03
23720,2.36E-02,8.39E-03
23721,2.33E-02,9.14E-03
23722,2.33E-02,8.87E-03
23723,2.24E-02,9.67E-03
23724,2.26E-02,9.41E-03
23725,2.16E-02,1.02E-02
23726,2.20E-02,9.93E-03
23727,2.10E-02,1.06E-02
23728,2.13E-02,1.04E-02
23729,2.08E-02,1.11E-02
23730,2.11E-02,1.09E-02
23731,2.09E-02,1.15E-02
23732,2.08E-02,1.13E-02
23733,2.24E-02,1.36E-02
23734,2.21E-02,1.36E-02
23735,2.24E-02,1.37E-02
23736,2.23E-02,1.37E-02
23737,2.30E-02,1.36E-02
23738,2.27E-02,1.37E-02
23739,2.35E-02,1.35E-02
23740,2.33E-02,1.35E-02
23741,2.34E-02,1.33E-02
23742,2.36E-02,1.34E-02
23743,2.29E-02,1.33E-02
23744,2.33E-02,1.33E-02
23745,2.25E-02,1.32E-02
23746,2.29E-02,1.33E-02
23747,2.19E-02,1.30E-02
23748,2.22E-02,1.31E-02
23749,2.15E-02,1.28E-02
23750,2.17E-02,1.29E-02
23751,2.08E-02,1.25E-02
23752,2.11E-02,1.26E-02
23753,2.10E-02,1.21E-02
23754,2.09E-02,1.23E-02
23755,2.09E-02,1.18E-02
23756,2.08E-02,1.20E-02
23757,2.10E-02,1.16E-02
23758,2.61E-02,2.62E-03
23759,2.35E-02,2.35E-03
23760,2.45E-02,2.48E-03
23761,2.24E-02,2.14E-03
23762,2.28E-02,2.24E-03
23763,2.19E-02,2.00E-03
23764,2.21E-02,2.07E-03
23765,2.15E-02,1.92E-03
23766,2.18E-02,1.96E-03
23767,2.12E-02,1.87E-03
23768,2.13E-02,1.89E-03
23769,2.11E-02,1.84E-03
23770,2.11E-02,1.85E-03
23771,2.08E-02,1.81E-03
23772,2.09E-02,1.82E-03
23773,2.06E-02,1.77E-03
23774,2.06E-02,1.79E-03
23775,2.05E-02,1.72E-03
23776,2.07E-02,1.75E-03
23777,2.03E-02,1.66E-03
23778,2.03E-02,1.69E-03
23779,2.02E-02,1.58E-03
23780,2.01E-02,1.62E-03
23781,2.01E-02,1.49E-03
23782,2.02E-02,1.54E-03
23783,2.01E-02,1.38E-03
23784,2.00E-02,1.43E-03
23785,2.01E-02,1.24E-03
23786,2.02E-02,1.31E-03
23787,2.04E-02,1.09E-03
23788,2.02E-02,1.17E-03
23789,2.15E-02,9.50E-04
23790,2.10E-02,1.02E-03
23791,2.21E-02,8.96E-04
23792,1.87E-02,1.02E-03
23793,2.10E-02,8.92E-04
23794,2.41E-02,1.29E-03
23795,2.12E-02,1.15E-03
23796,1.61E-02,1.57E-03
23797,1.81E-02,1.43E-03
23798,2.15E-02,1.87E-03
23799,2.09E-02,1.70E-03
23800,2.03E-02,2.19E-03
23801,1.87E-02,2.03E-03
23802,1.97E-02,2.51E-03
23803,2.01E-02,2.35E-03
23804,1.83E-02,2.88E-03
23805,1.81E-02,2.69E-03
23806,2.10E-02,3.24E-03
23807,1.91E-02,3.06E-03
23808,2.28E-02,3.43E-03
23809,2.18E-02,3.84E-03
23810,2.24E-02,4.19E-03
23811,2.21E-02,4.02E-03
23812,2.30E-02,4.36E-03
23813,2.34E-02,5.13E-04
23814,2.29E-02,5.29E-04
23815,2.31E-02,5.21E-04
23816,2.19E-02,5.43E-04
23817,2.22E-02,5.37E-04
23818,2.19E-02,5.49E-04
23819,2.18E-02,5.47E-04
23820,2.20E-02,5.56E-04
23821,2.19E-02,5.51E-04
23822,2.19E-02,5.70E-04
23823,2.22E-02,5.62E-04
23824,2.21E-02,5.90E-04
23825,2.21E-02,5.80E-04
23826,2.13E-02,6.14E-04
23827,2.18E-02,6.03E-04
23828,2.16E-02,6.41E-04
23829,2.08E-02,6.25E-04
23830,2.34E-02,6.95E-04
23831,2.17E-02,6.68E-04
23832,2.28E-02,7.13E-04
23833,2.34E-02,7.11E-04
23834,1.68E-02,6.93E-04
23835,2.15E-02,7.03E-04
23836,2.34E-02,6.92E-04
23837,1.99E-02,6.46E-04
23838,2.05E-02,7.59E-04
23839,2.60E-02,9.18E-04
23840,2.48E-02,8.27E-04
23841,2.40E-02,1.14E-03
23842,2.27E-02,1.06E-03
23843,2.56E-02,1.27E-03
23844,2.43E-02,1.21E-03
23845,2.56E-02,1.43E-03
23846,2.62E-02,1.35E-03
23847,2.56E-02,1.65E-03
23848,2.55E-02,1.54E-03
23849,2.43E-02,1.90E-03
23850,2.63E-02,1.78E-03
23851,2.32E-02,2.16E-03
23852,2.39E-02,2.03E-03
23853,2.31E-02,2.37E-03
23854,2.31E-02,2.28E-03
23855,2.35E-02,2.50E-03
23856,2.30E-02,2.44E-03
23857,2.37E-02,2.64E-03
23858,2.38E-02,2.57E-03
23859,2.31E-02,2.83E-03
23860,2.34E-02,2.73E-03
23861,2.29E-02,3.04E-03
23862,2.30E-02,2.93E-03
23863,2.24E-02,3.25E-03
23864,2.26E-02,3.14E-03
23865,2.25E-02,3.45E-03
23866,2.24E-02,3.35E-03
23867,2.29E-02,3.61E-03
23868,2.27E-02,3.53E-03
23869,2.36E-02,3.72E-03
23870,2.33E-02,3.67E-03
23871,2.43E-02,3.81E-03
23872,2.39E-02,3.77E-03
23873,2.50E-02,3.93E-03
23874,2.47E-02,3.86E-03
23875,2.55E-02,4.09E-03
23876,2.54E-02,4.01E-03
23877,2.55E-02,4.24E-03
23878,2.54E-02,4.17E-03
23879,2.57E-02,4.34E-03
23880,2.57E-02,4.29E-03
23881,2.58E-02,4.43E-03
23882,2.58E-02,4.38E-03
23883,2.56E-02,4.64E-03
23884,2.56E-02,4.52E-03
23885,2.52E-02,4.95E-03
23886,2.57E-02,4.78E-03
23887,2.49E-02,5.36E-03
23888,2.52E-02,5.14E-03
23889,2.48E-02,5.87E-03
23890,2.46E-02,5.60E-03
23891,2.57E-02,6.46E-03
23892,2.56E-02,6.16E-03
23893,2.64E-02,7.01E-03
23894,2.60E-02,6.75E-03
23895,2.79E-02,7.40E-03
23896,2.72E-02,7.24E-03
23897,2.91E-02,7.54E-03
23898,2.83E-02,7.51E-03
23899,3.00E-02,7.46E-03
23900,2.98E-02,7.51E-03
23901,2.81E-02,7.58E-03
23902,2.93E-02,7.47E-03
23903,2.73E-02,7.83E-03
23904,2.37E-02,3.98E-03
23905,2.21E-02,4.60E-03
23906,2.32E-02,6.82E-04
23907,2.48E-02,3.63E-03
23908,2.36E-02,4.48E-03
23909,1.40E-02,4.46E-04
23910,2.27E-02,4.86E-04
23911,2.66E-02,8.80E-03
23912,2.33E-02,4.58E-03
23913,2.18E-02,4.29E-03
23914,2.01E-02,3.92E-03
23915,1.76E-02,3.75E-03
23916,2.21E-02,4.67E-03
23917,2.17E-02,4.71E-03
23918,3.24E-02,1.33E-02
23919,1.86E-02,1.39E-02
23920,2.16E-02,1.37E-02
23921,1.54E-02,1.26E-02
23922,2.77E-02,1.29E-02
23923,2.83E-02,1.39E-02
23924,1.70E-02,1.39E-02
23925,1.27E-02,2.95E-04
23926,1.38E-02,3.90E-04
23927,1.19E-02,2.63E-04
23928,1.14E-02,1.43E-02
23929,2.19E-02,4.72E-03
23930,2.49E-02,1.13E-02
23931,2.54E-02,1.20E-02
23932,2.23E-02,9.63E-03
23933,2.38E-02,1.05E-02
23934,2.24E-02,8.21E-03
23935,2.24E-02,8.88E-03
23936,2.28E-02,6.95E-03
23937,2.27E-02,7.58E-03
23938,2.17E-02,5.82E-03
23939,2.17E-02,6.37E-03
23940,2.16E-02,4.85E-03
23941,2.17E-02,5.32E-03
23942,2.13E-02,4.04E-03
23943,2.15E-02,4.42E-03
23944,2.12E-02,3.41E-03
23945,2.12E-02,3.70E-03
23946,2.11E-02,2.96E-03
23947,2.11E-02,3.16E-03
23948,2.10E-02,2.69E-03
23949,2.09E-02,2.80E-03
23950,2.12E-02,2.59E-03
23951,2.10E-02,2.62E-03
23952,2.14E-02,2.62E-03
23953,2.14E-02,2.59E-03
23954,2.17E-02,2.74E-03
23955,2.16E-02,2.67E-03
23956,2.19E-02,2.92E-03
23957,2.17E-02,2.82E-03
23958,2.18E-02,3.14E-03
23959,2.18E-02,3.03E-03
23960,2.21E-02,3.37E-03
23961,2.18E-02,3.26E-03
23962,2.27E-02,3.60E-03
23963,2.25E-02,3.48E-03
23964,2.33E-02,3.85E-03
23965,2.29E-02,3.72E-03
23966,2.35E-02,4.14E-03
23967,2.34E-02,3.99E-03
23968,2.30E-02,4.49E-03
23969,2.33E-02,4.31E-03
23970,2.27E-02,4.86E-03
23971,2.28E-02,4.67E-03
23972,2.21E-02,5.25E-03
23973,2.22E-02,5.06E-03
23974,2.16E-02,5.63E-03
23975,2.20E-02,5.44E-03
23976,2.12E-02,5.96E-03
23977,2.13E-02,5.80E-03
23978,2.06E-02,6.25E-03
23979,2.07E-02,6.11E-03
23980,2.08E-02,6.53E-03
23981,2.11E-02,6.39E-03
23982,2.11E-02,6.78E-03
23983,2.10E-02,6.66E-03
23984,2.13E-02,7.00E-03
23985,2.11E-02,6.89E-03
23986,2.17E-02,7.19E-03
23987,2.15E-02,7.09E-03
23988,2.22E-02,7.40E-03
23989,2.18E-02,7.29E-03
23990,2.24E-02,7.67E-03
23991,2.22E-02,7.53E-03
23992,2.21E-02,7.98E-03
23993,2.25E-02,7.82E-03
23994,2.21E-02,8.33E-03
23995,2.24E-02,8.15E-03
23996,2.20E-02,8.73E-03
23997,2.24E-02,8.52E-03
23998,2.21E-02,9.18E-03
23999,2.23E-02,8.95E-03
24000,2.21E-02,9.71E-03
24001,2.25E-02,9.44E-03
24002,2.22E-02,1.03E-02
24003,2.25E-02,1.00E-02
24004,2.19E-02,1.10E-02
24005,2.23E-02,1.06E-02
24006,2.16E-02,1.17E-02
24007,2.18E-02,1.14E-02
24008,2.09E-02,1.25E-02
24009,2.12E-02,1.21E-02
24010,2.01E-02,1.32E-02
24011,2.05E-02,1.29E-02
24012,1.95E-02,1.36E-02
24013,1.24E-02,1.31E-02
24014,1.33E-02,1.34E-02
24015,2.08E-02,1.11E-02
24016,1.73E-02,1.25E-02
24017,2.03E-02,1.18E-02
24018,2.50E-02,9.61E-03
24019,2.71E-02,1.01E-02
24020,1.83E-02,2.76E-04
24021,2.06E-02,3.39E-04
24022,2.20E-02,4.66E-04
24023,2.30E-02,4.05E-04
24024,2.23E-02,6.22E-04
24025,1.97E-02,5.15E-04
24026,1.95E-02,8.08E-04
24027,2.27E-02,7.27E-04
24028,2.30E-02,1.09E-03
24029,2.26E-02,9.47E-04
24030,2.30E-02,1.37E-03
24031,2.37E-02,1.23E-03
24032,2.27E-02,1.68E-03
24033,2.28E-02,1.52E-03
24034,2.30E-02,2.02E-03
24035,2.31E-02,1.85E-03
24036,2.30E-02,2.38E-03
24037,2.32E-02,2.19E-03
24038,2.22E-02,2.78E-03
24039,2.26E-02,2.57E-03
24040,2.21E-02,3.20E-03
24041,2.22E-02,2.99E-03
24042,2.23E-02,3.63E-03
24043,2.21E-02,3.41E-03
24044,2.27E-02,4.08E-03
24045,2.26E-02,3.85E-03
24046,2.31E-02,4.54E-03
24047,2.32E-02,4.30E-03
24048,2.33E-02,5.03E-03
24049,2.31E-02,4.78E-03
24050,2.29E-02,5.56E-03
24051,2.33E-02,5.29E-03
24052,2.25E-02,6.11E-03
24053,2.27E-02,5.83E-03
24054,2.17E-02,6.61E-03
24055,2.20E-02,6.37E-03
24056,2.13E-02,7.06E-03
24057,2.13E-02,6.84E-03
24058,2.18E-02,7.51E-03
24059,2.16E-02,7.28E-03
24060,2.25E-02,7.98E-03
24061,2.25E-02,7.75E-03
24062,2.32E-02,8.46E-03
24063,2.31E-02,8.22E-03
24064,2.35E-02,8.96E-03
24065,2.35E-02,8.71E-03
24066,2.31E-02,9.51E-03
24067,2.32E-02,9.23E-03
24068,2.24E-02,1.01E-02
24069,2.25E-02,9.80E-03
24070,2.16E-02,1.06E-02
24071,2.21E-02,1.04E-02
24072,2.12E-02,1.12E-02
24073,2.13E-02,1.09E-02
24074,2.10E-02,1.16E-02
24075,2.11E-02,1.14E-02
24076,2.11E-02,1.21E-02
24077,2.08E-02,1.19E-02
24078,2.71E-02,1.53E-02
24079,2.71E-02,1.50E-02
24080,2.70E-02,1.51E-02
24081,2.99E-02,1.44E-02
24082,2.97E-02,1.46E-02
24083,2.33E-02,1.47E-02
24084,2.55E-02,1.46E-02
24085,2.25E-02,1.49E-02
24086,2.29E-02,1.48E-02
24087,2.24E-02,1.49E-02
24088,2.24E-02,1.49E-02
24089,2.29E-02,1.47E-02
24090,2.26E-02,1.48E-02
24091,2.33E-02,1.45E-02
24092,2.30E-02,1.46E-02
24093,2.32E-02,1.43E-02
24094,2.35E-02,1.44E-02
24095,2.26E-02,1.42E-02
24096,2.31E-02,1.43E-02
24097,2.24E-02,1.41E-02
24098,2.27E-02,1.41E-02
24099,2.20E-02,1.39E-02
24100,2.22E-02,1.40E-02
24101,2.15E-02,1.36E-02
24102,2.16E-02,1.37E-02
24103,2.11E-02,1.32E-02
24104,2.13E-02,1.34E-02
24105,2.13E-02,1.28E-02
24106,2.12E-02,1.30E-02
24107,2.11E-02,1.24E-02
24108,2.12E-02,1.26E-02
24109,2.11E-02,1.23E-02
24110,2.65E-02,2.71E-03
24111,2.32E-02,2.40E-03
24112,2.46E-02,2.55E-03
24113,2.22E-02,2.16E-03
24114,2.26E-02,2.27E-03
24115,2.17E-02,1.98E-03
24116,2.19E-02,2.06E-03
24117,2.14E-02,1.86E-03
24118,2.15E-02,1.92E-03
24119,2.11E-02,1.77E-03
24120,2.13E-02,1.81E-03
24121,2.10E-02,1.71E-03
24122,2.09E-02,1.74E-03
24123,2.07E-02,1.66E-03
24124,2.08E-02,1.69E-03
24125,2.04E-02,1.61E-03
24126,2.06E-02,1.64E-03
24127,2.03E-02,1.55E-03
24128,2.04E-02,1.58E-03
24129,2.00E-02,1.48E-03
24130,2.00E-02,1.51E-03
24131,2.00E-02,1.39E-03
24132,2.00E-02,1.44E-03
24133,1.99E-02,1.29E-03
24134,1.98E-02,1.35E-03
24135,1.97E-02,1.18E-03
24136,1.98E-02,1.24E-03
24137,1.99E-02,1.05E-03
24138,1.98E-02,1.12E-03
24139,2.04E-02,9.02E-04
24140,2.00E-02,9.76E-04
24141,2.21E-02,7.62E-04
24142,2.10E-02,8.29E-04
24143,2.29E-02,7.10E-04
24144,2.01E-02,4.93E-04
24145,1.89E-02,4.31E-04
24146,2.37E-02,6.73E-04
24147,2.24E-02,5.67E-04
24148,1.98E-02,8.84E-04
24149,1.93E-02,7.86E-04
24150,2.01E-02,1.11E-03
24151,1.98E-02,9.84E-04
24152,2.01E-02,1.35E-03
24153,1.95E-02,1.23E-03
24154,1.91E-02,1.62E-03
24155,1.92E-02,1.48E-03
24156,1.96E-02,1.91E-03
24157,1.93E-02,1.77E-03
24158,1.93E-02,2.22E-03
24159,1.96E-02,2.06E-03
24160,1.90E-02,2.53E-03
24161,1.94E-02,2.37E-03
24162,1.87E-02,2.89E-03
24163,1.85E-02,2.71E-03
24164,2.11E-02,3.24E-03
24165,1.93E-02,3.06E-03
24166,2.31E-02,3.43E-03
24167,1.98E-02,3.83E-03
24168,1.70E-02,3.66E-03
24169,2.23E-02,4.18E-03
24170,2.19E-02,4.01E-03
24171,2.32E-02,4.33E-03
24172,2.42E-02,4.79E-04
24173,2.28E-02,5.01E-04
24174,2.33E-02,4.89E-04
24175,2.21E-02,5.18E-04
24176,2.23E-02,5.12E-04
24177,2.22E-02,5.15E-04
24178,2.21E-02,5.18E-04
24179,2.21E-02,5.11E-04
24180,2.21E-02,5.12E-04
24181,2.22E-02,5.14E-04
24182,2.22E-02,5.11E-04
24183,2.21E-02,5.26E-04
24184,2.21E-02,5.19E-04
24185,2.17E-02,5.41E-04
24186,2.20E-02,5.34E-04
24187,2.20E-02,5.53E-04
24188,2.15E-02,5.45E-04
24189,2.25E-02,5.80E-04
24190,2.23E-02,5.65E-04
24191,2.22E-02,6.00E-04
24192,2.25E-02,5.92E-04
24193,1.97E-02,5.95E-04
24194,2.09E-02,6.01E-04
24195,1.86E-02,5.78E-04
24196,1.74E-02,5.87E-04
24197,2.09E-02,5.61E-04
24198,1.97E-02,5.70E-04
24199,2.08E-02,5.26E-04
24200,1.94E-02,5.50E-04
24201,2.01E-02,5.03E-04
24202,2.30E-02,4.47E-04
24203,2.55E-02,5.39E-04
24204,2.26E-02,8.45E-04
24205,2.37E-02,1.09E-03
24206,2.34E-02,9.64E-04
24207,2.36E-02,1.32E-03
24208,2.37E-02,1.21E-03
24209,2.44E-02,1.50E-03
24210,2.40E-02,1.42E-03
24211,2.47E-02,1.70E-03
24212,2.48E-02,1.59E-03
24213,2.47E-02,1.93E-03
24214,2.50E-02,1.81E-03
24215,2.35E-02,2.18E-03
24216,2.49E-02,2.05E-03
24217,2.34E-02,2.42E-03
24218,2.34E-02,2.30E-03
24219,2.30E-02,2.62E-03
24220,2.31E-02,2.53E-03
24221,2.34E-02,2.76E-03
24222,2.29E-02,2.70E-03
24223,2.35E-02,2.90E-03
24224,2.36E-02,2.82E-03
24225,2.30E-02,3.08E-03
24226,2.32E-02,2.98E-03
24227,2.29E-02,3.27E-03
24228,2.29E-02,3.18E-03
24229,2.25E-02,3.46E-03
24230,2.26E-02,3.36E-03
24231,2.24E-02,3.65E-03
24232,2.23E-02,3.56E-03
24233,2.26E-02,3.83E-03
24234,2.26E-02,3.74E-03
24235,2.33E-02,3.97E-03
24236,2.30E-02,3.91E-03
24237,2.38E-02,4.09E-03
24238,2.35E-02,4.03E-03
24239,2.44E-02,4.25E-03
24240,2.42E-02,4.16E-03
24241,2.44E-02,4.45E-03
24242,2.45E-02,4.35E-03
24243,2.44E-02,4.63E-03
24244,2.44E-02,4.54E-03
24245,2.49E-02,4.76E-03
24246,2.48E-02,4.70E-03
24247,2.49E-02,4.85E-03
24248,2.49E-02,4.80E-03
24249,2.49E-02,5.08E-03
24250,2.50E-02,4.95E-03
24251,2.45E-02,5.42E-03
24252,2.47E-02,5.25E-03
24253,2.44E-02,5.83E-03
24254,2.46E-02,5.61E-03
24255,2.43E-02,6.39E-03
24256,2.43E-02,6.09E-03
24257,2.50E-02,7.08E-03
24258,2.48E-02,6.72E-03
24259,2.56E-02,7.79E-03
24260,2.53E-02,7.44E-03
24261,2.64E-02,8.40E-03
24262,2.62E-02,8.12E-03
24263,2.73E-02,8.77E-03
24264,2.68E-02,8.62E-03
24265,2.78E-02,8.89E-03
24266,2.77E-02,8.86E-03
24267,2.72E-02,8.78E-03
24268,2.74E-02,8.87E-03
24269,2.71E-02,8.70E-03
24270,1.13E-02,3.59E-04
24271,2.18E-02,4.50E-03
24272,2.32E-02,1.17E-02
24273,1.29E-02,1.50E-02
24274,1.68E-02,1.49E-02
24275,1.17E-02,1.50E-02
24276,2.26E-02,3.34E-03
24277,2.67E-02,5.34E-04
24278,2.44E-02,4.72E-04
24279,2.44E-02,4.43E-03
24280,1.60E-02,3.96E-04
24281,1.44E-02,3.78E-04
24282,2.21E-02,9.62E-03
24283,2.60E-02,9.71E-03
24284,2.21E-02,4.19E-03
24285,2.23E-02,4.54E-03
24286,2.17E-02,4.59E-03
24287,2.31E-02,1.58E-02
24288,2.27E-02,1.46E-02
24289,1.57E-02,3.21E-04
24290,1.76E-02,1.46E-02
24291,1.40E-02,2.84E-04
24292,2.16E-02,4.61E-03
24293,2.35E-02,1.01E-02
24294,2.26E-02,1.08E-02
24295,2.29E-02,8.65E-03
24296,2.33E-02,9.40E-03
24297,2.24E-02,7.31E-03
24298,2.24E-02,7.96E-03
24299,2.26E-02,6.10E-03
24300,2.27E-02,6.69E-03
24301,2.20E-02,5.03E-03
24302,2.20E-02,5.54E-03
24303,2.19E-02,4.11E-03
24304,2.20E-02,4.55E-03
24305,2.17E-02,3.38E-03
24306,2.17E-02,3.72E-03
24307,2.15E-02,2.87E-03
24308,2.13E-02,3.10E-03
24309,2.12E-02,2.57E-03
24310,2.13E-02,2.69E-03
24311,2.14E-02,2.48E-03
24312,2.14E-02,2.50E-03
24313,2.15E-02,2.55E-03
24314,2.15E-02,2.50E-03
24315,2.16E-02,2.72E-03
24316,2.16E-02,2.63E-03
24317,2.19E-02,2.94E-03
24318,2.19E-02,2.82E-03
24319,2.21E-02,3.20E-03
24320,2.19E-02,3.07E-03
24321,2.20E-02,3.48E-03
24322,2.19E-02,3.34E-03
24323,2.22E-02,3.74E-03
24324,2.20E-02,3.61E-03
24325,2.27E-02,3.99E-03
24326,2.24E-02,3.86E-03
24327,2.30E-02,4.25E-03
24328,2.27E-02,4.11E-03
24329,2.34E-02,4.57E-03
24330,2.33E-02,4.40E-03
24331,2.29E-02,4.93E-03
24332,2.30E-02,4.74E-03
24333,2.25E-02,5.33E-03
24334,2.26E-02,5.13E-03
24335,2.23E-02,5.74E-03
24336,2.22E-02,5.53E-03
24337,2.18E-02,6.13E-03
24338,2.19E-02,5.94E-03
24339,2.13E-02,6.48E-03
24340,2.15E-02,6.31E-03
24341,2.13E-02,6.79E-03
24342,2.12E-02,6.64E-03
24343,2.13E-02,7.09E-03
24344,2.12E-02,6.94E-03
24345,2.12E-02,7.36E-03
24346,2.13E-02,7.23E-03
24347,2.16E-02,7.60E-03
24348,2.13E-02,7.48E-03
24349,2.19E-02,7.81E-03
24350,2.17E-02,7.71E-03
24351,2.23E-02,8.05E-03
24352,2.21E-02,7.92E-03
24353,2.23E-02,8.34E-03
24354,2.23E-02,8.19E-03
24355,2.21E-02,8.67E-03
24356,2.24E-02,8.50E-03
24357,2.21E-02,9.05E-03
24358,2.24E-02,8.85E-03
24359,2.21E-02,9.48E-03
24360,2.24E-02,9.25E-03
24361,2.21E-02,9.96E-03
24362,2.24E-02,9.71E-03
24363,2.22E-02,1.05E-02
24364,2.24E-02,1.02E-02
24365,2.22E-02,1.12E-02
24366,2.25E-02,1.08E-02
24367,2.21E-02,1.19E-02
24368,2.23E-02,1.15E-02
24369,2.17E-02,1.26E-02
24370,2.19E-02,1.22E-02
24371,2.10E-02,1.35E-02
24372,2.14E-02,1.31E-02
24373,2.02E-02,1.42E-02
24374,2.08E-02,1.39E-02
24375,1.93E-02,1.46E-02
24376,1.66E-02,1.37E-02
24377,1.69E-02,1.42E-02
24378,2.12E-02,1.14E-02
24379,1.83E-02,1.31E-02
24380,2.01E-02,1.23E-02
24381,2.10E-02,9.69E-03
24382,2.27E-02,1.05E-02
24383,2.14E-02,1.90E-04
24384,2.39E-02,1.84E-04
24385,2.22E-02,1.46E-04
24386,2.41E-02,1.80E-04
24387,2.09E-02,1.90E-04
24388,1.97E-02,1.50E-04
24389,2.14E-02,3.14E-04
24390,2.17E-02,2.47E-04
24391,2.16E-02,4.81E-04
24392,2.18E-02,3.91E-04
24393,2.19E-02,7.04E-04
24394,2.11E-02,5.88E-04
24395,2.27E-02,9.65E-04
24396,2.21E-02,8.27E-04
24397,2.28E-02,1.25E-03
24398,2.29E-02,1.11E-03
24399,2.26E-02,1.54E-03
24400,2.28E-02,1.39E-03
24401,2.29E-02,1.87E-03
24402,2.27E-02,1.70E-03
24403,2.28E-02,2.22E-03
24404,2.29E-02,2.04E-03
24405,2.23E-02,2.62E-03
24406,2.25E-02,2.42E-03
24407,2.21E-02,3.06E-03
24408,2.24E-02,2.84E-03
24409,2.21E-02,3.50E-03
24410,2.22E-02,3.28E-03
24411,2.27E-02,3.97E-03
24412,2.26E-02,3.73E-03
24413,2.29E-02,4.46E-03
24414,2.29E-02,4.21E-03
24415,2.32E-02,4.98E-03
24416,2.29E-02,4.72E-03
24417,2.28E-02,5.56E-03
24418,2.31E-02,5.26E-03
24419,2.24E-02,6.18E-03
24420,2.24E-02,5.87E-03
24421,2.19E-02,6.74E-03
24422,2.21E-02,6.47E-03
24423,2.17E-02,7.22E-03
24424,2.17E-02,6.98E-03
24425,2.21E-02,7.74E-03
24426,2.19E-02,7.47E-03
24427,2.25E-02,8.27E-03
24428,2.23E-02,8.01E-03
24429,2.28E-02,8.79E-03
24430,2.27E-02,8.53E-03
24431,2.29E-02,9.31E-03
24432,2.29E-02,9.04E-03
24433,2.29E-02,9.88E-03
24434,2.28E-02,9.59E-03
24435,2.26E-02,1.05E-02
24436,2.26E-02,1.02E-02
24437,2.17E-02,1.11E-02
24438,2.21E-02,1.08E-02
24439,2.13E-02,1.17E-02
24440,2.14E-02,1.14E-02
24441,2.12E-02,1.22E-02
24442,2.12E-02,1.19E-02
24443,2.11E-02,1.27E-02
24444,2.09E-02,1.25E-02
24445,2.35E-02,1.68E-02
24446,2.10E-02,1.72E-02
24447,2.46E-02,1.63E-02
24448,2.38E-02,1.66E-02
24449,2.51E-02,1.59E-02
24450,2.53E-02,1.60E-02
24451,2.34E-02,1.60E-02
24452,2.46E-02,1.59E-02
24453,2.26E-02,1.61E-02
24454,2.29E-02,1.61E-02
24455,2.23E-02,1.61E-02
24456,2.25E-02,1.62E-02
24457,2.28E-02,1.59E-02
24458,2.26E-02,1.60E-02
24459,2.32E-02,1.55E-02
24460,2.30E-02,1.57E-02
24461,2.30E-02,1.53E-02
24462,2.32E-02,1.54E-02
24463,2.26E-02,1.51E-02
24464,2.29E-02,1.52E-02
24465,2.22E-02,1.50E-02
24466,2.25E-02,1.51E-02
24467,2.20E-02,1.47E-02
24468,2.22E-02,1.48E-02
24469,2.17E-02,1.43E-02
24470,2.18E-02,1.45E-02
24471,2.15E-02,1.39E-02
24472,2.15E-02,1.42E-02
24473,2.15E-02,1.35E-02
24474,2.15E-02,1.37E-02
24475,2.12E-02,1.31E-02
24476,2.13E-02,1.33E-02
24477,2.12E-02,1.29E-02
24478,2.47E-02,3.13E-03
24479,1.66E-02,3.29E-03
24480,2.48E-02,2.77E-03
24481,2.90E-02,2.96E-03
24482,2.27E-02,2.45E-03
24483,2.32E-02,2.60E-03
24484,2.18E-02,2.19E-03
24485,2.22E-02,2.31E-03
24486,2.14E-02,1.98E-03
24487,2.17E-02,2.08E-03
24488,2.12E-02,1.82E-03
24489,2.14E-02,1.89E-03
24490,2.10E-02,1.70E-03
24491,2.11E-02,1.76E-03
24492,2.08E-02,1.61E-03
24493,2.10E-02,1.65E-03
24494,2.06E-02,1.53E-03
24495,2.08E-02,1.57E-03
24496,2.04E-02,1.46E-03
24497,2.05E-02,1.50E-03
24498,2.01E-02,1.38E-03
24499,2.03E-02,1.42E-03
24500,1.99E-02,1.30E-03
24501,2.00E-02,1.34E-03
24502,1.98E-02,1.21E-03
24503,1.98E-02,1.26E-03
24504,1.97E-02,1.11E-03
24505,1.98E-02,1.16E-03
24506,1.96E-02,9.90E-04
24507,1.97E-02,1.05E-03
24508,1.96E-02,8.62E-04
24509,1.97E-02,9.27E-04
24510,1.98E-02,7.30E-04
24511,1.97E-02,7.96E-04
24512,2.22E-02,5.98E-04
24513,2.06E-02,6.61E-04
24514,2.51E-02,5.49E-04
24515,2.11E-02,4.58E-04
24516,1.92E-02,4.51E-04
24517,2.29E-02,4.61E-04
24518,1.96E-02,2.83E-04
24519,2.37E-02,2.72E-04
24520,2.16E-02,2.64E-04
24521,2.32E-02,3.44E-04
24522,2.10E-02,3.27E-04
24523,1.82E-02,5.13E-04
24524,2.18E-02,4.13E-04
24525,1.93E-02,6.44E-04
24526,1.86E-02,5.80E-04
24527,2.01E-02,8.10E-04
24528,1.99E-02,7.23E-04
24529,2.00E-02,9.86E-04
24530,2.00E-02,9.00E-04
24531,1.97E-02,1.19E-03
24532,2.00E-02,1.09E-03
24533,1.95E-02,1.42E-03
24534,1.98E-02,1.30E-03
24535,1.91E-02,1.67E-03
24536,1.93E-02,1.54E-03
24537,1.88E-02,1.94E-03
24538,1.91E-02,1.80E-03
24539,1.94E-02,2.24E-03
24540,1.91E-02,2.09E-03
24541,1.91E-02,2.55E-03
24542,1.92E-02,2.39E-03
24543,1.88E-02,2.89E-03
24544,1.88E-02,2.72E-03
24545,2.03E-02,3.23E-03
24546,1.85E-02,3.05E-03
24547,1.79E-02,3.55E-03
24548,2.35E-02,3.40E-03
24549,2.05E-02,3.83E-03
24550,1.60E-02,3.69E-03
24551,2.23E-02,4.15E-03
24552,2.09E-02,4.00E-03
24553,2.37E-02,4.29E-03
24554,2.33E-02,5.35E-04
24555,2.26E-02,5.61E-04
24556,2.30E-02,5.48E-04
24557,2.23E-02,5.84E-04
24558,2.24E-02,5.73E-04
24559,2.23E-02,5.74E-04
24560,2.23E-02,5.83E-04
24561,2.22E-02,5.65E-04
24562,2.23E-02,5.66E-04
24563,2.24E-02,5.60E-04
24564,2.23E-02,5.66E-04
24565,2.23E-02,5.55E-04
24566,2.21E-02,5.54E-04
24567,2.22E-02,5.60E-04
24568,2.22E-02,5.60E-04
24569,2.23E-02,5.49E-04
24570,2.20E-02,5.56E-04
24571,2.23E-02,5.44E-04
24572,2.23E-02,5.45E-04
24573,2.19E-02,5.44E-04
24574,2.22E-02,5.45E-04
24575,2.10E-02,5.26E-04
24576,2.14E-02,5.37E-04
24577,2.00E-02,4.98E-04
24578,2.07E-02,5.11E-04
24579,2.03E-02,4.69E-04
24580,2.02E-02,4.84E-04
24581,2.00E-02,4.40E-04
24582,2.09E-02,4.54E-04
24583,2.04E-02,4.21E-04
24584,2.18E-02,3.79E-04
24585,2.18E-02,3.66E-04
24586,1.28E-02,3.34E-04
24587,2.29E-02,5.10E-04
24588,1.62E-02,4.13E-04
24589,2.40E-02,7.14E-04
24590,2.32E-02,6.13E-04
24591,2.29E-02,9.49E-04
24592,2.34E-02,8.25E-04
24593,2.30E-02,1.25E-03
24594,2.32E-02,1.09E-03
24595,2.34E-02,1.52E-03
24596,2.32E-02,1.40E-03
24597,2.36E-02,1.75E-03
24598,2.35E-02,1.64E-03
24599,2.40E-02,2.00E-03
24600,2.37E-02,1.88E-03
24601,2.37E-02,2.23E-03
24602,2.40E-02,2.12E-03
24603,2.35E-02,2.45E-03
24604,2.37E-02,2.34E-03
24605,2.31E-02,2.67E-03
24606,2.33E-02,2.56E-03
24607,2.27E-02,2.87E-03
24608,2.30E-02,2.77E-03
24609,2.31E-02,3.02E-03
24610,2.29E-02,2.95E-03
24611,2.31E-02,3.17E-03
24612,2.31E-02,3.09E-03
24613,2.29E-02,3.36E-03
24614,2.30E-02,3.27E-03
24615,2.27E-02,3.51E-03
24616,2.27E-02,3.44E-03
24617,2.25E-02,3.66E-03
24618,2.26E-02,3.59E-03
24619,2.22E-02,3.81E-03
24620,2.22E-02,3.73E-03
24621,2.26E-02,4.00E-03
24622,2.25E-02,3.91E-03
24623,2.31E-02,4.22E-03
24624,2.29E-02,4.11E-03
24625,2.35E-02,4.39E-03
24626,2.34E-02,4.31E-03
24627,2.39E-02,4.62E-03
24628,2.37E-02,4.49E-03
24629,2.38E-02,4.84E-03
24630,2.38E-02,4.75E-03
24631,2.39E-02,5.02E-03
24632,2.39E-02,4.92E-03
24633,2.42E-02,5.23E-03
24634,2.43E-02,5.14E-03
24635,2.45E-02,5.30E-03
24636,2.42E-02,5.27E-03
24637,2.41E-02,5.57E-03
24638,2.45E-02,5.41E-03
24639,2.38E-02,5.89E-03
24640,2.39E-02,5.74E-03
24641,2.36E-02,6.27E-03
24642,2.37E-02,6.05E-03
24643,2.39E-02,6.85E-03
24644,2.36E-02,6.53E-03
24645,2.44E-02,7.67E-03
24646,2.41E-02,7.23E-03
24647,2.48E-02,8.61E-03
24648,2.47E-02,8.13E-03
24649,2.51E-02,9.57E-03
24650,2.50E-02,9.10E-03
24651,2.59E-02,1.03E-02
24652,2.56E-02,9.98E-03
24653,2.59E-02,1.08E-02
24654,2.59E-02,1.06E-02
24655,2.58E-02,1.06E-02
24656,2.57E-02,1.08E-02
24657,2.61E-02,1.01E-02
24658,2.14E-02,4.40E-03
24659,2.48E-02,1.07E-02
24660,2.71E-02,5.39E-04
24661,2.47E-02,4.38E-03
24662,2.09E-02,4.47E-03
24663,2.06E-02,2.59E-04
24664,2.07E-02,1.04E-02
24665,2.15E-02,1.36E-02
24666,2.23E-02,1.66E-02
24667,2.02E-02,1.54E-02
24668,2.12E-02,4.51E-03
24669,2.30E-02,9.07E-03
24670,2.33E-02,9.80E-03
24671,2.27E-02,7.67E-03
24672,2.30E-02,8.36E-03
24673,2.27E-02,6.40E-03
24674,2.27E-02,7.02E-03
24675,2.24E-02,5.25E-03
24676,2.25E-02,5.81E-03
24677,2.22E-02,4.25E-03
24678,2.22E-02,4.73E-03
24679,2.19E-02,3.43E-03
24680,2.21E-02,3.82E-03
24681,2.19E-02,2.82E-03
24682,2.19E-02,3.08E-03
24683,2.18E-02,2.47E-03
24684,2.17E-02,2.61E-03
24685,2.16E-02,2.38E-03
24686,2.17E-02,2.39E-03
24687,2.16E-02,2.49E-03
24688,2.18E-02,2.41E-03
24689,2.17E-02,2.72E-03
24690,2.18E-02,2.59E-03
24691,2.19E-02,2.99E-03
24692,2.19E-02,2.86E-03
24693,2.20E-02,3.28E-03
24694,2.19E-02,3.14E-03
24695,2.21E-02,3.59E-03
24696,2.21E-02,3.44E-03
24697,2.22E-02,3.90E-03
24698,2.20E-02,3.75E-03
24699,2.23E-02,4.17E-03
24700,2.22E-02,4.04E-03
24701,2.25E-02,4.43E-03
24702,2.23E-02,4.30E-03
24703,2.28E-02,4.70E-03
24704,2.26E-02,4.56E-03
24705,2.29E-02,5.03E-03
24706,2.29E-02,4.86E-03
24707,2.27E-02,5.40E-03
24708,2.28E-02,5.21E-03
24709,2.24E-02,5.81E-03
24710,2.25E-02,5.60E-03
24711,2.23E-02,6.24E-03
24712,2.22E-02,6.02E-03
24713,2.21E-02,6.65E-03
24714,2.20E-02,6.45E-03
24715,2.16E-02,7.01E-03
24716,2.17E-02,6.84E-03
24717,2.17E-02,7.34E-03
24718,2.16E-02,7.18E-03
24719,2.18E-02,7.66E-03
24720,2.15E-02,7.50E-03
24721,2.16E-02,7.95E-03
24722,2.17E-02,7.81E-03
24723,2.19E-02,8.20E-03
24724,2.16E-02,8.08E-03
24725,2.21E-02,8.44E-03
24726,2.19E-02,8.32E-03
24727,2.23E-02,8.70E-03
24728,2.21E-02,8.56E-03
24729,2.23E-02,9.01E-03
24730,2.24E-02,8.84E-03
24731,2.22E-02,9.36E-03
24732,2.24E-02,9.18E-03
24733,2.22E-02,9.76E-03
24734,2.23E-02,9.56E-03
24735,2.22E-02,1.02E-02
24736,2.23E-02,9.98E-03
24737,2.23E-02,1.07E-02
24738,2.24E-02,1.05E-02
24739,2.23E-02,1.13E-02
24740,2.24E-02,1.10E-02
24741,2.23E-02,1.20E-02
24742,2.24E-02,1.16E-02
24743,2.23E-02,1.27E-02
24744,2.24E-02,1.23E-02
24745,2.20E-02,1.35E-02
24746,2.22E-02,1.31E-02
24747,2.15E-02,1.44E-02
24748,2.18E-02,1.40E-02
24749,2.06E-02,1.52E-02
24750,2.13E-02,1.48E-02
24751,1.88E-02,1.58E-02
24752,1.97E-02,1.55E-02
24753,1.74E-02,1.59E-02
24754,1.85E-02,1.59E-02
24755,1.88E-02,1.56E-02
24756,1.77E-02,1.58E-02
24757,1.99E-02,1.36E-02
24758,1.93E-02,1.45E-02
24759,1.91E-02,1.51E-02
24760,2.17E-02,1.16E-02
24761,2.11E-02,1.27E-02
24762,2.05E-02,9.46E-03
24763,2.15E-02,1.05E-02
24764,1.55E-02,4.51E-04
24765,1.88E-02,4.24E-04
24766,2.14E-02,3.82E-04
24767,2.01E-02,3.35E-04
24768,2.35E-02,3.36E-04
24769,2.37E-02,2.46E-04
24770,2.33E-02,2.87E-04
24771,2.30E-02,2.09E-04
24772,2.18E-02,2.48E-04
24773,2.24E-02,1.59E-04
24774,2.31E-02,1.82E-04
24775,2.14E-02,1.47E-04
24776,2.17E-02,1.48E-04
24777,2.20E-02,2.10E-04
24778,2.17E-02,1.65E-04
24779,2.20E-02,3.64E-04
24780,2.21E-02,2.78E-04
24781,2.25E-02,5.80E-04
24782,2.22E-02,4.64E-04
24783,2.24E-02,8.34E-04
24784,2.23E-02,7.03E-04
24785,2.27E-02,1.10E-03
24786,2.26E-02,9.69E-04
24787,2.28E-02,1.39E-03
24788,2.25E-02,1.24E-03
24789,2.28E-02,1.69E-03
24790,2.28E-02,1.53E-03
24791,2.25E-02,2.04E-03
24792,2.27E-02,1.86E-03
24793,2.24E-02,2.44E-03
24794,2.24E-02,2.23E-03
24795,2.22E-02,2.88E-03
24796,2.24E-02,2.66E-03
24797,2.22E-02,3.35E-03
24798,2.23E-02,3.12E-03
24799,2.24E-02,3.85E-03
24800,2.23E-02,3.59E-03
24801,2.27E-02,4.39E-03
24802,2.27E-02,4.12E-03
24803,2.30E-02,4.94E-03
24804,2.29E-02,4.66E-03
24805,2.27E-02,5.55E-03
24806,2.27E-02,5.23E-03
24807,2.23E-02,6.25E-03
24808,2.24E-02,5.90E-03
24809,2.22E-02,6.87E-03
24810,2.23E-02,6.58E-03
24811,2.22E-02,7.42E-03
24812,2.22E-02,7.15E-03
24813,2.24E-02,8.02E-03
24814,2.21E-02,7.71E-03
24815,2.25E-02,8.60E-03
24816,2.23E-02,8.32E-03
24817,2.21E-02,9.13E-03
24818,2.22E-02,8.87E-03
24819,2.23E-02,9.67E-03
24820,2.21E-02,9.40E-03
24821,2.28E-02,1.03E-02
24822,2.26E-02,9.96E-03
24823,2.25E-02,1.10E-02
24824,2.27E-02,1.06E-02
24825,2.19E-02,1.16E-02
24826,2.21E-02,1.13E-02
24827,2.15E-02,1.22E-02
24828,2.18E-02,1.19E-02
24829,2.11E-02,1.28E-02
24830,2.12E-02,1.25E-02
24831,2.10E-02,1.34E-02
24832,2.10E-02,1.31E-02
24833,1.96E-02,1.78E-02
24834,2.25E-02,1.85E-02
24835,1.44E-02,1.90E-02
24836,2.00E-02,1.86E-02
24837,2.40E-02,1.79E-02
24838,2.34E-02,1.82E-02
24839,2.34E-02,1.73E-02
24840,2.38E-02,1.75E-02
24841,2.28E-02,1.73E-02
24842,2.31E-02,1.73E-02
24843,2.26E-02,1.75E-02
24844,2.26E-02,1.74E-02
24845,2.23E-02,1.74E-02
24846,2.25E-02,1.75E-02
24847,2.29E-02,1.71E-02
24848,2.26E-02,1.73E-02
24849,2.29E-02,1.66E-02
24850,2.28E-02,1.69E-02
24851,2.29E-02,1.62E-02
24852,2.30E-02,1.64E-02
24853,2.25E-02,1.61E-02
24854,2.27E-02,1.61E-02
24855,2.21E-02,1.59E-02
24856,2.23E-02,1.60E-02
24857,2.20E-02,1.55E-02
24858,2.22E-02,1.57E-02
24859,2.18E-02,1.51E-02
24860,2.19E-02,1.53E-02
24861,2.18E-02,1.47E-02
24862,2.18E-02,1.50E-02
24863,2.18E-02,1.43E-02
24864,2.17E-02,1.45E-02
24865,2.13E-02,1.38E-02
24866,2.16E-02,1.40E-02
24867,2.14E-02,1.36E-02
24868,1.67E-02,3.90E-03
24869,1.50E-02,3.41E-03
24870,2.43E-02,3.51E-03
24871,1.98E-02,3.13E-03
24872,1.50E-02,3.27E-03
24873,2.27E-02,2.81E-03
24874,2.21E-02,2.98E-03
24875,2.20E-02,2.49E-03
24876,2.24E-02,2.65E-03
24877,2.14E-02,2.21E-03
24878,2.17E-02,2.35E-03
24879,2.11E-02,1.98E-03
24880,2.14E-02,2.09E-03
24881,2.09E-02,1.79E-03
24882,2.11E-02,1.88E-03
24883,2.06E-02,1.64E-03
24884,2.08E-02,1.71E-03
24885,2.04E-02,1.52E-03
24886,2.07E-02,1.57E-03
24887,2.04E-02,1.41E-03
24888,2.05E-02,1.46E-03
24889,2.01E-02,1.32E-03
24890,2.03E-02,1.36E-03
24891,1.99E-02,1.23E-03
24892,2.01E-02,1.27E-03
24893,1.97E-02,1.13E-03
24894,1.99E-02,1.18E-03
24895,1.95E-02,1.03E-03
24896,1.96E-02,1.08E-03
24897,1.95E-02,9.23E-04
24898,1.96E-02,9.78E-04
24899,1.94E-02,8.09E-04
24900,1.95E-02,8.67E-04
24901,1.94E-02,6.88E-04
24902,1.94E-02,7.48E-04
24903,1.92E-02,5.74E-04
24904,1.92E-02,6.30E-04
24905,2.03E-02,4.75E-04
24906,1.87E-02,5.25E-04
24907,1.86E-02,4.47E-04
24908,2.56E-02,4.49E-04
24909,1.96E-02,4.78E-04
24910,1.60E-02,4.52E-04
24911,2.33E-02,5.07E-04
24912,1.88E-02,4.76E-04
24913,1.37E-02,3.94E-04
24914,1.42E-02,4.26E-04
24915,1.78E-02,3.41E-04
24916,1.71E-02,3.65E-04
24917,1.71E-02,3.67E-04
24918,1.89E-02,3.26E-04
24919,1.84E-02,4.20E-04
24920,1.82E-02,3.83E-04
24921,1.96E-02,5.24E-04
24922,1.97E-02,4.72E-04
24923,1.91E-02,6.52E-04
24924,1.91E-02,5.83E-04
24925,1.92E-02,7.89E-04
24926,1.89E-02,7.21E-04
24927,1.90E-02,9.36E-04
24928,1.95E-02,8.58E-04
24929,1.96E-02,1.09E-03
24930,1.91E-02,1.01E-03
24931,1.96E-02,1.27E-03
24932,1.97E-02,1.18E-03
24933,1.93E-02,1.48E-03
24934,1.94E-02,1.37E-03
24935,1.91E-02,1.71E-03
24936,1.93E-02,1.59E-03
24937,1.91E-02,1.96E-03
24938,1.91E-02,1.83E-03
24939,1.91E-02,2.25E-03
24940,1.90E-02,2.10E-03
24941,1.88E-02,2.55E-03
24942,1.89E-02,2.40E-03
24943,1.86E-02,2.88E-03
24944,1.88E-02,2.71E-03
24945,1.81E-02,3.20E-03
24946,1.88E-02,3.04E-03
24947,1.68E-02,3.51E-03
24948,1.80E-02,3.36E-03
24949,1.91E-02,3.82E-03
24950,1.74E-02,3.67E-03
24951,2.15E-02,4.10E-03
24952,2.04E-02,3.96E-03
24953,2.34E-02,4.24E-03
24954,1.93E-02,4.35E-03
24955,2.12E-02,6.64E-04
24956,1.89E-02,6.35E-04
24957,2.26E-02,6.90E-04
24958,2.34E-02,6.85E-04
24959,2.24E-02,7.01E-04
24960,2.25E-02,6.95E-04
24961,2.25E-02,6.96E-04
24962,2.24E-02,7.06E-04
24963,2.23E-02,6.93E-04
24964,2.23E-02,6.88E-04
24965,2.25E-02,6.89E-04
24966,2.24E-02,6.99E-04
24967,2.25E-02,6.70E-04
24968,2.25E-02,6.74E-04
24969,2.24E-02,6.59E-04
24970,2.22E-02,6.67E-04
24971,2.24E-02,6.29E-04
24972,2.25E-02,6.45E-04
24973,2.24E-02,5.96E-04
24974,2.24E-02,6.13E-04
24975,2.23E-02,5.59E-04
24976,2.23E-02,5.79E-04
24977,2.17E-02,5.10E-04
24978,2.18E-02,5.36E-04
24979,2.15E-02,4.63E-04
24980,2.13E-02,4.85E-04
24981,2.15E-02,4.15E-04
24982,2.13E-02,4.39E-04
24983,2.11E-02,3.74E-04
24984,2.13E-02,3.93E-04
24985,1.89E-02,3.32E-04
24986,2.02E-02,3.53E-04
24987,2.04E-02,2.86E-04
24988,1.91E-02,3.09E-04
24989,1.96E-02,2.40E-04
24990,2.05E-02,2.66E-04
24991,1.89E-02,1.73E-04
24992,1.93E-02,2.06E-04
24993,1.54E-02,1.38E-04
24994,1.77E-02,1.68E-04
24995,1.98E-02,3.17E-04
24996,2.28E-02,2.32E-04
24997,2.12E-02,5.36E-04
24998,2.06E-02,4.24E-04
24999,2.28E-02,7.98E-04
25000,2.30E-02,6.63E-04
25001,2.24E-02,1.08E-03
25002,2.26E-02,9.33E-04
25003,2.30E-02,1.39E-03
25004,2.27E-02,1.24E-03
25005,2.31E-02,1.74E-03
25006,2.30E-02,1.58E-03
25007,2.31E-02,2.07E-03
25008,2.31E-02,1.89E-03
25009,2.31E-02,2.37E-03
25010,2.29E-02,2.23E-03
25011,2.30E-02,2.59E-03
25012,2.32E-02,2.49E-03
25013,2.30E-02,2.74E-03
25014,2.30E-02,2.67E-03
25015,2.29E-02,2.87E-03
25016,2.29E-02,2.80E-03
25017,2.27E-02,3.06E-03
25018,2.28E-02,2.96E-03
25019,2.30E-02,3.30E-03
25020,2.28E-02,3.18E-03
25021,2.29E-02,3.52E-03
25022,2.29E-02,3.41E-03
25023,2.27E-02,3.69E-03
25024,2.27E-02,3.62E-03
25025,2.25E-02,3.76E-03
25026,2.25E-02,3.73E-03
25027,2.23E-02,3.84E-03
25028,2.26E-02,3.80E-03
25029,2.23E-02,3.90E-03
25030,2.20E-02,3.83E-03
25031,2.26E-02,4.09E-03
25032,2.26E-02,4.01E-03
25033,2.29E-02,4.42E-03
25034,2.28E-02,4.22E-03
25035,2.31E-02,4.75E-03
25036,2.30E-02,4.61E-03
25037,2.34E-02,5.06E-03
25038,2.31E-02,4.90E-03
25039,2.33E-02,5.27E-03
25040,2.34E-02,5.19E-03
25041,2.32E-02,5.43E-03
25042,2.33E-02,5.34E-03
25043,2.36E-02,5.70E-03
25044,2.35E-02,5.55E-03
25045,2.34E-02,5.86E-03
25046,2.34E-02,5.80E-03
25047,2.34E-02,6.13E-03
25048,2.35E-02,5.99E-03
25049,2.34E-02,6.30E-03
25050,2.33E-02,6.21E-03
25051,2.30E-02,6.63E-03
25052,2.31E-02,6.44E-03
25053,2.34E-02,7.20E-03
25054,2.31E-02,6.88E-03
25055,2.39E-02,8.13E-03
25056,2.37E-02,7.61E-03
25057,2.39E-02,9.43E-03
25058,2.41E-02,8.74E-03
25059,2.41E-02,1.10E-02
25060,2.39E-02,1.02E-02
25061,2.44E-02,1.23E-02
25062,2.43E-02,1.17E-02
25063,2.45E-02,1.32E-02
25064,2.45E-02,1.29E-02
25065,2.43E-02,1.33E-02
25066,2.43E-02,1.34E-02
25067,2.56E-02,1.17E-02
25068,2.47E-02,1.27E-02
25069,1.81E-02,1.07E-02
25070,1.91E-02,4.30E-03
25071,1.60E-02,1.44E-02
25072,1.95E-02,8.52E-03
25073,1.42E-02,1.02E-04
25074,8.51E-03,1.06E-02
25075,2.16E-02,4.39E-03
25076,2.60E-02,1.03E-02
25077,2.43E-02,9.46E-03
25078,2.31E-02,8.72E-03
25079,2.29E-02,8.02E-03
25080,2.27E-02,7.35E-03
25081,2.26E-02,6.70E-03
25082,2.26E-02,6.09E-03
25083,2.24E-02,5.50E-03
25084,2.24E-02,4.94E-03
25085,2.23E-02,4.41E-03
25086,2.21E-02,3.92E-03
25087,2.21E-02,3.49E-03
25088,2.20E-02,3.12E-03
25089,2.20E-02,2.80E-03
25090,2.22E-02,2.57E-03
25091,2.21E-02,2.39E-03
25092,2.21E-02,2.31E-03
25093,2.21E-02,2.30E-03
25094,2.21E-02,2.36E-03
25095,2.20E-02,2.46E-03
25096,2.21E-02,2.61E-03
25097,2.21E-02,2.73E-03
25098,2.22E-02,2.90E-03
25099,2.21E-02,3.09E-03
25100,2.22E-02,3.25E-03
25101,2.22E-02,3.42E-03
25102,2.20E-02,3.58E-03
25103,2.22E-02,3.74E-03
25104,2.21E-02,3.91E-03
25105,2.20E-02,4.07E-03
25106,2.21E-02,4.24E-03
25107,2.23E-02,4.39E-03
25108,2.24E-02,4.54E-03
25109,2.24E-02,4.67E-03
25110,2.24E-02,4.80E-03
25111,2.24E-02,4.93E-03
25112,2.26E-02,5.06E-03
25113,2.25E-02,5.19E-03
25114,2.24E-02,5.35E-03
25115,2.24E-02,5.52E-03
25116,2.25E-02,5.70E-03
25117,2.24E-02,5.90E-03
25118,2.23E-02,6.10E-03
25119,2.24E-02,6.32E-03
25120,2.22E-02,6.54E-03
25121,2.23E-02,6.75E-03
25122,2.22E-02,6.97E-03
25123,2.21E-02,7.18E-03
25124,2.21E-02,7.37E-03
25125,2.21E-02,7.55E-03
25126,2.20E-02,7.73E-03
25127,2.20E-02,7.90E-03
25128,2.20E-02,8.07E-03
25129,2.21E-02,8.24E-03
25130,2.21E-02,8.40E-03
25131,2.22E-02,8.55E-03
25132,2.21E-02,8.69E-03
25133,2.22E-02,8.82E-03
25134,2.21E-02,8.95E-03
25135,2.23E-02,9.07E-03
25136,2.22E-02,9.20E-03
25137,2.23E-02,9.35E-03
25138,2.23E-02,9.51E-03
25139,2.23E-02,9.68E-03
25140,2.23E-02,9.86E-03
25141,2.23E-02,1.01E-02
25142,2.23E-02,1.03E-02
25143,2.23E-02,1.05E-02
25144,2.23E-02,1.07E-02
25145,2.23E-02,1.10E-02
25146,2.23E-02,1.12E-02
25147,2.23E-02,1.15E-02
25148,2.23E-02,1.18E-02
25149,2.23E-02,1.21E-02
25150,2.23E-02,1.25E-02
25151,2.22E-02,1.28E-02
25152,2.22E-02,1.31E-02
25153,2.21E-02,1.35E-02
25154,2.20E-02,1.40E-02
25155,2.19E-02,1.44E-02
25156,2.19E-02,1.48E-02
25157,2.19E-02,1.52E-02
25158,2.18E-02,1.58E-02
25159,2.17E-02,1.61E-02
25160,2.11E-02,1.65E-02
25161,2.07E-02,1.67E-02
25162,2.03E-02,1.69E-02
25163,2.04E-02,1.70E-02
25164,2.06E-02,1.68E-02
25165,2.09E-02,1.65E-02
25166,2.11E-02,1.60E-02
25167,2.12E-02,1.53E-02
25168,2.17E-02,1.43E-02
25169,2.25E-02,1.31E-02
25170,2.25E-02,1.17E-02
25171,2.21E-02,1.03E-02
25172,2.13E-02,8.97E-03
25173,2.20E-02,7.93E-03
25174,1.38E-02,6.64E-04
25175,2.05E-02,6.28E-04
25176,2.19E-02,5.90E-04
25177,1.99E-02,6.02E-04
25178,2.11E-02,5.71E-04
25179,2.01E-02,5.48E-04
25180,2.13E-02,5.22E-04
25181,2.19E-02,4.90E-04
25182,2.27E-02,4.64E-04
25183,2.29E-02,4.48E-04
25184,2.28E-02,4.24E-04
25185,2.29E-02,3.99E-04
25186,2.25E-02,3.76E-04
25187,2.27E-02,3.47E-04
25188,2.25E-02,3.24E-04
25189,2.21E-02,2.99E-04
25190,2.20E-02,2.70E-04
25191,2.21E-02,2.43E-04
25192,2.23E-02,2.29E-04
25193,2.22E-02,2.42E-04
25194,2.23E-02,2.86E-04
25195,2.23E-02,3.58E-04
25196,2.23E-02,4.52E-04
25197,2.24E-02,5.62E-04
25198,2.24E-02,6.81E-04
25199,2.26E-02,8.06E-04
25200,2.25E-02,9.34E-04
25201,2.23E-02,1.06E-03
25202,2.25E-02,1.19E-03
25203,2.25E-02,1.33E-03
25204,2.23E-02,1.48E-03
25205,2.23E-02,1.65E-03
25206,2.23E-02,1.82E-03
25207,2.23E-02,2.01E-03
25208,2.23E-02,2.21E-03
25209,2.24E-02,2.44E-03
25210,2.24E-02,2.68E-03
25211,2.24E-02,2.92E-03
25212,2.25E-02,3.18E-03
25213,2.26E-02,3.44E-03
25214,2.27E-02,3.71E-03
25215,2.28E-02,4.01E-03
25216,2.26E-02,4.33E-03
25217,2.26E-02,4.64E-03
25218,2.26E-02,4.91E-03
25219,2.24E-02,5.19E-03
25220,2.23E-02,5.52E-03
25221,2.22E-02,5.92E-03
25222,2.21E-02,6.31E-03
25223,2.23E-02,6.66E-03
25224,2.25E-02,7.00E-03
25225,2.27E-02,7.36E-03
25226,2.27E-02,7.72E-03
25227,2.24E-02,8.07E-03
25228,2.25E-02,8.39E-03
25229,2.26E-02,8.69E-03
25230,2.25E-02,8.96E-03
25231,2.17E-02,9.23E-03
25232,2.07E-02,9.49E-03
25233,2.07E-02,9.74E-03
25234,2.16E-02,1.00E-02
25235,2.25E-02,1.03E-02
25236,2.30E-02,1.07E-02
25237,2.31E-02,1.11E-02
25238,2.26E-02,1.15E-02
25239,2.22E-02,1.18E-02
25240,2.21E-02,1.21E-02
25241,2.20E-02,1.24E-02
25242,2.18E-02,1.26E-02
25243,2.11E-02,1.29E-02
25244,2.10E-02,1.34E-02
25245,2.09E-02,1.38E-02
25246,2.11E-02,1.41E-02
25247,2.82E-02,1.15E-02
25248,2.36E-02,1.27E-02
25249,1.71E-02,1.37E-02
25250,1.65E-02,1.50E-02
25251,2.09E-02,1.63E-02
25252,2.38E-02,1.76E-02
25253,2.17E-02,1.89E-02
25254,1.56E-02,1.98E-02
25255,1.56E-02,2.03E-02
25256,2.17E-02,2.04E-02
25257,2.31E-02,2.02E-02
25258,2.37E-02,1.99E-02
25259,2.33E-02,1.95E-02
25260,2.23E-02,1.91E-02
25261,2.14E-02,1.88E-02
25262,2.14E-02,1.87E-02
25263,2.19E-02,1.88E-02
25264,2.24E-02,1.89E-02
25265,2.27E-02,1.89E-02
25266,2.26E-02,1.89E-02
25267,2.25E-02,1.88E-02
25268,2.26E-02,1.86E-02
25269,2.27E-02,1.84E-02
25270,2.26E-02,1.81E-02
25271,2.27E-02,1.77E-02
25272,2.26E-02,1.74E-02
25273,2.25E-02,1.72E-02
25274,2.24E-02,1.71E-02
25275,2.23E-02,1.70E-02
25276,2.22E-02,1.69E-02
25277,2.19E-02,1.67E-02
25278,2.21E-02,1.65E-02
25279,2.19E-02,1.63E-02
25280,2.20E-02,1.61E-02
25281,2.21E-02,1.59E-02
25282,2.22E-02,1.58E-02
25283,2.22E-02,1.56E-02
25284,2.22E-02,1.54E-02
25285,2.19E-02,1.51E-02
25286,2.18E-02,1.49E-02
25287,2.17E-02,1.46E-02
25288,2.15E-02,1.43E-02
25289,1.85E-02,4.21E-03
25290,1.94E-02,4.15E-03
25291,1.82E-02,4.06E-03
25292,1.86E-02,3.97E-03
25293,2.09E-02,3.86E-03
25294,2.71E-02,3.73E-03
25295,2.55E-02,3.60E-03
25296,1.85E-02,3.45E-03
25297,1.66E-02,3.30E-03
25298,1.72E-02,3.15E-03
25299,1.91E-02,3.00E-03
25300,2.11E-02,2.84E-03
25301,2.12E-02,2.68E-03
25302,2.11E-02,2.53E-03
25303,2.10E-02,2.38E-03
25304,2.08E-02,2.24E-03
25305,2.08E-02,2.11E-03
25306,2.08E-02,1.98E-03
25307,2.07E-02,1.87E-03
25308,2.08E-02,1.77E-03
25309,2.07E-02,1.67E-03
25310,2.06E-02,1.58E-03
25311,2.05E-02,1.51E-03
25312,2.04E-02,1.43E-03
25313,2.03E-02,1.36E-03
25314,2.02E-02,1.30E-03
25315,2.00E-02,1.24E-03
25316,1.98E-02,1.18E-03
25317,1.98E-02,1.13E-03
25318,1.96E-02,1.07E-03
25319,1.96E-02,1.02E-03
25320,1.95E-02,9.67E-04
25321,1.95E-02,9.13E-04
25322,1.93E-02,8.58E-04
25323,1.92E-02,8.03E-04
25324,1.91E-02,7.47E-04
25325,1.91E-02,6.91E-04
25326,1.90E-02,6.35E-04
25327,1.89E-02,5.83E-04
25328,1.90E-02,5.31E-04
25329,1.90E-02,4.86E-04
25330,1.88E-02,4.51E-04
25331,1.86E-02,4.29E-04
25332,1.56E-02,4.27E-04
25333,1.42E-02,4.36E-04
25334,1.37E-02,4.64E-04
25335,1.64E-02,5.09E-04
25336,1.73E-02,5.69E-04
25337,1.81E-02,6.32E-04
25338,1.33E-02,6.44E-04
25339,1.36E-02,5.90E-04
25340,1.89E-02,5.33E-04
25341,1.95E-02,4.87E-04
25342,1.56E-02,4.42E-04
25343,1.53E-02,4.03E-04
25344,1.65E-02,3.93E-04
25345,1.65E-02,3.96E-04
25346,1.78E-02,4.05E-04
25347,1.78E-02,4.37E-04
25348,1.84E-02,4.81E-04
25349,1.80E-02,5.30E-04
25350,1.83E-02,5.81E-04
25351,1.89E-02,6.34E-04
25352,1.91E-02,6.88E-04
25353,1.90E-02,7.48E-04
25354,1.88E-02,8.07E-04
25355,1.88E-02,8.68E-04
25356,1.89E-02,9.29E-04
25357,1.89E-02,9.93E-04
25358,1.90E-02,1.06E-03
25359,1.90E-02,1.13E-03
25360,1.91E-02,1.20E-03
25361,1.94E-02,1.27E-03
25362,1.94E-02,1.35E-03
25363,1.94E-02,1.44E-03
25364,1.94E-02,1.53E-03
25365,1.92E-02,1.63E-03
25366,1.90E-02,1.74E-03
25367,1.90E-02,1.86E-03
25368,1.90E-02,1.98E-03
25369,1.89E-02,2.11E-03
25370,1.88E-02,2.25E-03
25371,1.87E-02,2.39E-03
25372,1.86E-02,2.55E-03
25373,1.85E-02,2.70E-03
25374,1.84E-02,2.86E-03
25375,1.82E-02,3.02E-03
25376,1.79E-02,3.18E-03
25377,1.71E-02,3.33E-03
25378,1.60E-02,3.49E-03
25379,1.61E-02,3.65E-03
25380,1.80E-02,3.79E-03
25381,1.91E-02,3.91E-03
25382,2.06E-02,4.04E-03
25383,2.44E-02,4.16E-03
25384,1.84E-02,4.23E-03
25385,1.68E-02,4.31E-03
25386,1.48E-02,7.18E-04
25387,1.57E-02,8.13E-04
25388,2.60E-02,8.43E-04
25389,2.31E-02,8.80E-04
25390,2.24E-02,8.86E-04
25391,2.24E-02,8.69E-04
25392,2.25E-02,8.34E-04
25393,2.30E-02,8.07E-04
25394,2.28E-02,8.39E-04
25395,2.22E-02,8.81E-04
25396,2.24E-02,8.75E-04
25397,2.28E-02,8.43E-04
25398,2.28E-02,8.54E-04
25399,2.25E-02,8.78E-04
25400,2.25E-02,8.61E-04
25401,2.24E-02,8.25E-04
25402,2.27E-02,7.91E-04
25403,2.28E-02,7.74E-04
25404,2.27E-02,7.66E-04
25405,2.26E-02,7.57E-04
25406,2.25E-02,7.37E-04
25407,2.25E-02,6.99E-04
25408,2.25E-02,6.49E-04
25409,2.25E-02,6.02E-04
25410,2.24E-02,5.63E-04
25411,2.21E-02,5.25E-04
25412,2.23E-02,4.80E-04
25413,2.23E-02,4.39E-04
25414,2.23E-02,4.11E-04
25415,2.19E-02,3.86E-04
25416,2.18E-02,3.52E-04
25417,2.17E-02,3.19E-04
25418,2.17E-02,2.93E-04
25419,2.18E-02,2.63E-04
25420,2.13E-02,2.34E-04
25421,2.10E-02,2.06E-04
25422,2.06E-02,1.73E-04
25423,2.00E-02,1.33E-04
25424,1.91E-02,9.74E-05
25425,1.82E-02,6.92E-05
25426,1.69E-02,4.28E-05
25427,1.61E-02,7.99E-03
25428,8.33E-03,2.55E-05
25429,2.06E-02,7.25E-05
25430,2.07E-02,1.38E-04
25431,2.13E-02,2.14E-04
25432,2.22E-02,2.96E-04
25433,2.23E-02,3.87E-04
25434,2.25E-02,5.10E-04
25435,2.25E-02,6.78E-04
25436,2.19E-02,9.04E-04
25437,2.13E-02,1.14E-03
25438,2.19E-02,1.29E-03
25439,2.25E-02,1.39E-03
25440,2.27E-02,1.51E-03
25441,2.32E-02,1.63E-03
25442,2.26E-02,1.92E-03
25443,2.20E-02,2.30E-03
25444,2.24E-02,2.50E-03
25445,2.24E-02,2.66E-03
25446,2.23E-02,2.83E-03
25447,2.23E-02,2.95E-03
25448,2.21E-02,3.02E-03
25449,2.24E-02,3.04E-03
25450,2.24E-02,3.04E-03
25451,2.25E-02,3.02E-03
25452,2.26E-02,3.02E-03
25453,2.27E-02,3.05E-03
25454,2.27E-02,3.14E-03
25455,2.28E-02,3.32E-03
25456,2.27E-02,3.58E-03
25457,2.24E-02,3.85E-03
25458,2.24E-02,4.01E-03
25459,2.24E-02,4.04E-03
25460,2.25E-02,4.04E-03
25461,2.22E-02,4.09E-03
25462,2.21E-02,4.09E-03
25463,2.24E-02,3.96E-03
25464,2.24E-02,3.91E-03
25465,2.18E-02,4.03E-03
25466,2.22E-02,3.93E-03
25467,2.29E-02,3.84E-03
25468,2.27E-02,4.08E-03
25469,2.27E-02,4.32E-03
25470,2.31E-02,4.48E-03
25471,2.30E-02,4.82E-03
25472,2.24E-02,5.31E-03
25473,2.23E-02,5.59E-03
25474,2.27E-02,5.62E-03
25475,2.29E-02,5.61E-03
25476,2.28E-02,5.70E-03
25477,2.27E-02,5.86E-03
25478,2.26E-02,5.92E-03
25479,2.28E-02,5.86E-03
25480,2.34E-02,5.89E-03
25481,2.29E-02,6.30E-03
25482,2.22E-02,6.88E-03
25483,2.23E-02,6.93E-03
25484,2.27E-02,6.64E-03
25485,2.29E-02,6.55E-03
25486,2.28E-02,6.63E-03
25487,2.27E-02,6.77E-03
25488,2.27E-02,6.93E-03
25489,2.27E-02,7.12E-03
25490,2.29E-02,7.39E-03
25491,2.32E-02,7.77E-03
25492,2.35E-02,8.33E-03
25493,2.34E-02,9.19E-03
25494,2.31E-02,1.03E-02
25495,2.31E-02,1.15E-02
25496,2.31E-02,1.27E-02
25497,2.29E-02,1.41E-02
25498,2.30E-02,1.53E-02
25499,2.28E-02,1.61E-02
25500,2.29E-02,1.66E-02
25501,2.31E-02,1.68E-02
25502,2.27E-02,1.71E-02
25503,2.22E-02,1.72E-02
25504,2.37E-02,1.59E-02
25505,1.85E-02,1.41E-02
25506,1.03E-02,1.18E-02
25507,6.43E-03,9.89E-03
25552,1.72E-02,5.24E-03
25553,1.96E-02,6.26E-03
25554,1.76E-02,3.52E-03
25555,1.51E-02,4.23E-02
25556,2.08E-02,4.00E-02
25557,2.07E-02,4.21E-02
25558,1.49E-02,4.38E-02
25559,1.49E-02,4.47E-02
25560,2.06E-02,0.37008
25561,1.81E-02,0.46029
25562,1.92E-02,8.21E-04
25563,1.70E-02,9.43E-04
25564,2.96E-02,4.35E-02
25565,2.70E-02,4.24E-02
25566,2.26E-02,4.11E-02
25567,2.63E-02,4.20E-02
25568,1.75E-02,4.11E-02
25569,3.23E-02,2.19E-02
25570,2.78E-02,2.27E-02
25571,3.10E-02,5.74E-02
25572,2.95E-02,5.54E-02
25573,3.78E-02,3.71E-02
25574,3.74E-02,3.60E-02
25575,3.05E-02,3.77E-02
25576,2.23E-02,1.35E-02
25577,2.44E-02,1.47E-02
25578,2.02E-02,1.28E-02
25579,1.91E-02,1.18E-02
25580,2.43E-02,1.90E-02
25581,2.66E-02,1.83E-02
25582,2.90E-02,1.95E-02
25583,2.86E-02,1.85E-02
25584,1.78E-02,3.13E-02
25585,1.93E-02,3.22E-02
25586,2.80E-02,3.25E-03
25587,2.41E-02,3.51E-02
25588,2.40E-02,3.50E-02
25589,1.55E-02,3.85E-02
25590,1.40E-02,3.83E-02
25591,1.76E-02,2.43E-02
25592,1.80E-02,2.25E-02
25593,2.02E-02,2.38E-02
25594,1.90E-02,1.78E-02
25595,1.77E-02,1.66E-02
25596,1.72E-02,1.88E-02
25597,2.65E-02,3.63E-02
25598,3.36E-02,3.42E-02
25599,2.69E-02,6.15E-02
25600,2.46E-02,5.79E-02
25601,2.88E-02,3.98E-02
25602,2.27E-02,6.86E-02
25603,2.64E-02,6.53E-02
25604,3.14E-02,6.50E-02
25605,2.75E-02,6.20E-02
25606,1.72E-02,6.74E-03
25607,2.12E-02,9.50E-03
25608,3.38E-02,3.27E-02
25609,2.68E-02,3.79E-02
25610,2.83E-02,3.65E-02
25611,2.84E-02,3.49E-02
25612,2.98E-02,1.71E-03
25613,2.89E-02,1.96E-03
25614,3.03E-02,1.33E-03
25615,2.99E-02,1.52E-03
25616,3.10E-02,9.48E-04
25617,3.08E-02,1.12E-03
25618,1.76E-02,5.20E-03
25619,1.80E-02,4.73E-03
25620,1.63E-02,2.21E-02
25621,1.33E-02,2.28E-02
25622,1.58E-02,2.11E-02
25623,1.62E-02,2.02E-02
25624,2.05E-02,1.03E-03
25625,1.89E-02,1.51E-03
25626,1.57E-02,1.44E-03
25627,1.92E-02,1.11E-03
25628,2.09E-02,2.18E-02
25629,1.81E-02,2.15E-02
25630,1.85E-02,5.17E-03
25631,3.27E-02,5.35E-02
25632,2.93E-02,5.28E-02
25633,2.30E-02,5.40E-02
25634,2.43E-02,5.13E-02
25635,1.87E-02,4.98E-02
25636,2.38E-02,4.80E-02
25637,2.08E-02,4.93E-02
25638,2.48E-02,4.94E-02
25639,2.59E-02,4.75E-02
25640,2.20E-02,5.33E-02
25641,2.49E-02,5.54E-02
25642,2.16E-02,5.13E-02
25643,2.60E-02,5.11E-02
25644,2.56E-02,5.88E-02
25645,2.50E-02,5.56E-02
25646,2.78E-02,4.58E-02
25647,2.98E-02,4.63E-02
25648,2.51E-02,5.86E-02
25649,2.67E-02,4.68E-02
25650,2.60E-02,4.85E-02
25651,2.33E-02,5.28E-02
25652,2.41E-02,5.55E-02
25653,2.61E-02,4.82E-02
25654,2.62E-02,5.13E-02
25655,2.58E-02,5.27E-02
25656,2.28E-02,5.04E-02
25657,2.61E-02,5.01E-02
25658,3.20E-02,5.98E-02
25659,2.85E-02,6.13E-02
25660,3.02E-02,4.51E-02
25661,2.63E-02,5.38E-02
25662,2.48E-02,5.70E-02
25663,2.92E-02,5.86E-02
25664,2.77E-02,4.59E-02
25665,2.95E-02,5.49E-02
25666,2.30E-02,4.68E-02
25667,2.26E-02,4.47E-02
25668,2.29E-02,5.17E-02
25669,2.34E-02,5.46E-02
25670,2.30E-02,4.92E-02
25671,2.65E-02,4.41E-02
25672,2.22E-02,4.24E-02
25673,2.42E-02,4.36E-02
25674,2.77E-02,4.41E-02
25675,2.83E-02,4.43E-02
25676,1.91E-02,4.28E-02
25677,2.59E-02,4.74E-02
25678,2.66E-02,4.59E-02
25679,2.60E-02,4.99E-02
25680,2.58E-02,4.87E-02
25681,2.61E-02,5.20E-02
25682,2.58E-02,5.10E-02
25683,2.84E-02,5.21E-02
25684,2.98E-02,6.24E-02
25685,2.92E-02,6.41E-02
25686,2.79E-02,5.85E-02
25687,2.78E-02,6.07E-02
25688,3.18E-02,5.29E-02
25689,2.95E-02,5.59E-02
25690,2.39E-02,4.98E-02
25691,2.78E-02,5.00E-02
25692,2.07E-02,3.96E-02
25693,1.56E-02,4.07E-02
25694,2.45E-02,5.64E-02
25695,2.42E-02,6.44E-02
25696,2.48E-02,6.02E-02
25697,2.31E-02,4.99E-02
25698,2.37E-02,5.29E-02
25699,2.18E-02,4.49E-02
25700,2.28E-02,4.73E-02
25701,1.96E-02,4.28E-02
25702,2.57E-02,4.20E-02
25703,2.41E-02,4.12E-02
25704,2.64E-02,4.23E-02
25705,2.47E-02,4.33E-02
25706,1.93E-02,4.22E-02
25707,2.57E-02,4.60E-02
25708,2.59E-02,4.47E-02
25709,2.56E-02,4.82E-02
25710,2.55E-02,4.72E-02
25711,2.56E-02,4.96E-02
25712,2.59E-02,4.91E-02
25713,2.39E-02,4.98E-02
25714,2.16E-02,6.90E-02
25715,2.06E-02,7.35E-02
25716,3.45E-02,6.85E-02
25717,2.34E-02,7.08E-02
25718,2.85E-02,6.50E-02
25719,2.86E-02,6.68E-02
25720,2.76E-02,6.01E-02
25721,2.74E-02,6.28E-02
25722,2.68E-02,5.41E-02
25723,2.78E-02,5.71E-02
25724,2.43E-02,4.74E-02
25725,2.76E-02,5.03E-02
25726,2.39E-02,3.85E-02
25727,2.27E-02,3.96E-02
25728,2.42E-02,4.58E-02
25729,2.49E-02,3.79E-02
25730,2.56E-02,3.75E-02
25731,2.29E-02,3.70E-02
25732,2.23E-02,7.47E-02
25733,2.59E-02,3.67E-02
25734,2.43E-02,6.24E-02
25735,2.63E-02,7.62E-02
25736,2.56E-02,6.83E-02
25737,2.38E-02,5.39E-02
25738,2.46E-02,5.78E-02
25739,2.29E-02,4.74E-02
25740,2.34E-02,5.04E-02
25741,2.18E-02,4.23E-02
25742,2.24E-02,4.47E-02
25743,2.00E-02,4.00E-02
25744,2.48E-02,3.99E-02
25745,2.39E-02,3.87E-02
25746,2.51E-02,4.06E-02
25747,2.53E-02,4.05E-02
25748,2.17E-02,4.03E-02
25749,2.58E-02,3.98E-02
25750,2.45E-02,3.86E-02
25751,2.42E-02,4.22E-02
25752,2.54E-02,4.10E-02
25753,2.53E-02,4.46E-02
25754,2.50E-02,4.34E-02
25755,2.52E-02,4.65E-02
25756,2.52E-02,4.56E-02
25757,2.52E-02,4.75E-02
25758,2.53E-02,4.71E-02
25759,2.56E-02,4.76E-02
25760,2.58E-02,4.76E-02
25761,2.88E-02,4.70E-02
25762,2.33E-02,4.79E-02
25763,2.19E-02,4.44E-02
25764,1.94E-02,7.76E-02
25765,2.19E-02,8.48E-02
25766,2.54E-02,7.84E-02
25767,2.36E-02,8.17E-02
25768,2.82E-02,7.28E-02
25769,2.68E-02,7.49E-02
25770,2.72E-02,6.78E-02
25771,2.81E-02,7.03E-02
25772,2.67E-02,6.19E-02
25773,2.71E-02,6.50E-02
25774,2.62E-02,5.49E-02
25775,2.67E-02,5.85E-02
25776,2.53E-02,5.12E-02
25777,2.55E-02,3.62E-02
25778,2.69E-02,3.54E-02
25779,2.49E-02,3.89E-02
25780,2.20E-02,4.08E-02
25781,1.77E-02,8.76E-02
25782,2.31E-02,5.93E-02
25783,1.96E-02,7.12E-02
25784,2.56E-02,6.51E-02
25785,2.32E-02,5.07E-02
25786,2.31E-02,5.47E-02
25787,2.24E-02,4.41E-02
25788,2.30E-02,4.71E-02
25789,2.17E-02,3.90E-02
25790,2.22E-02,4.14E-02
25791,2.13E-02,3.68E-02
25792,2.49E-02,3.76E-02
25793,2.43E-02,3.42E-02
25794,2.44E-02,3.61E-02
25795,2.53E-02,3.94E-02
25796,2.50E-02,3.87E-02
25797,2.45E-02,3.95E-02
25798,2.49E-02,3.85E-02
25799,2.50E-02,3.73E-02
25800,2.49E-02,4.09E-02
25801,2.49E-02,3.97E-02
25802,2.50E-02,4.31E-02
25803,2.50E-02,4.20E-02
25804,2.48E-02,4.47E-02
25805,2.48E-02,4.40E-02
25806,2.50E-02,4.54E-02
25807,2.48E-02,4.52E-02
25808,2.47E-02,4.51E-02
25809,2.51E-02,4.54E-02
25810,2.21E-02,4.33E-02
25811,2.48E-02,4.43E-02
25812,2.52E-02,3.96E-02
25813,2.23E-02,3.83E-02
25814,2.28E-02,9.33E-02
25815,2.49E-02,8.48E-02
25816,2.38E-02,8.91E-02
25817,2.67E-02,7.72E-02
25818,2.59E-02,8.08E-02
25819,2.65E-02,7.07E-02
25820,2.69E-02,7.39E-02
25821,2.59E-02,6.39E-02
25822,2.61E-02,6.75E-02
25823,2.55E-02,5.59E-02
25824,2.59E-02,6.00E-02
25825,2.45E-02,4.76E-02
25826,2.51E-02,5.17E-02
25827,2.43E-02,4.34E-02
25828,2.21E-02,9.65E-02
25829,2.11E-02,8.73E-02
25830,1.82E-02,7.86E-02
25831,2.71E-02,3.20E-02
25832,2.69E-02,3.82E-02
25833,2.77E-02,3.13E-02
25834,2.45E-02,9.92E-02
25835,2.66E-02,2.88E-02
25836,2.27E-02,5.52E-02
25837,2.06E-02,6.64E-02
25838,2.20E-02,6.05E-02
25839,2.28E-02,4.66E-02
25840,2.26E-02,5.05E-02
25841,2.25E-02,4.01E-02
25842,2.25E-02,4.31E-02
25843,2.22E-02,3.51E-02
25844,2.23E-02,3.75E-02
25845,2.23E-02,3.31E-02
25846,2.39E-02,3.10E-02
25847,1.97E-02,2.60E-02
25848,2.33E-02,2.87E-02
25849,2.47E-02,3.51E-02
25850,2.44E-02,3.32E-02
25851,2.52E-02,3.81E-02
25852,2.47E-02,3.68E-02
25853,2.62E-02,3.88E-02
25854,2.57E-02,3.88E-02
25855,2.52E-02,3.50E-02
25856,2.79E-02,3.35E-02
25857,2.62E-02,3.41E-02
25858,2.46E-02,3.72E-02
25859,2.50E-02,3.61E-02
25860,2.47E-02,3.95E-02
25861,2.46E-02,3.84E-02
25862,2.45E-02,4.15E-02
25863,2.45E-02,4.06E-02
25864,2.43E-02,4.30E-02
25865,2.45E-02,4.24E-02
25866,2.43E-02,4.35E-02
25867,2.43E-02,4.34E-02
25868,2.43E-02,4.30E-02
25869,2.43E-02,4.34E-02
25870,2.27E-02,4.12E-02
25871,2.39E-02,4.21E-02
25872,2.22E-02,3.82E-02
25873,2.26E-02,3.98E-02
25874,2.61E-02,3.43E-02
25875,2.36E-02,3.63E-02
25876,2.44E-02,0.11204
25877,2.38E-02,0.10301
25878,2.34E-02,0.10762
25879,2.45E-02,9.25E-02
25880,2.40E-02,9.79E-02
25881,2.56E-02,8.24E-02
25882,2.53E-02,8.73E-02
25883,2.57E-02,7.41E-02
25884,2.60E-02,7.81E-02
25885,2.53E-02,6.60E-02
25886,2.54E-02,7.02E-02
25887,2.49E-02,5.67E-02
25888,2.51E-02,6.15E-02
25889,2.48E-02,4.70E-02
25890,2.47E-02,5.19E-02
25891,2.53E-02,4.25E-02
25892,2.00E-02,8.45E-02
25893,2.00E-02,7.48E-02
25894,1.86E-02,0.11938
25895,1.84E-02,0.11116
25896,2.28E-02,9.65E-02
25897,1.96E-02,2.01E-02
25898,2.67E-02,1.87E-02
25899,2.67E-02,1.72E-02
25900,3.09E-02,1.62E-02
25901,2.36E-02,1.76E-02
25902,2.57E-02,1.79E-02
25903,2.39E-02,2.67E-02
25904,2.26E-02,2.43E-02
25905,2.94E-02,3.32E-02
25906,3.00E-02,3.34E-02
25907,3.13E-02,3.51E-02
25908,2.71E-02,3.71E-02
25909,2.98E-02,3.18E-02
25910,2.50E-02,3.28E-02
25911,2.50E-02,3.06E-02
25912,2.64E-02,1.55E-02
25913,2.68E-02,1.39E-02
25914,2.60E-02,1.52E-02
25915,2.05E-02,1.60E-02
25916,2.06E-02,1.76E-02
25917,2.20E-02,2.20E-02
25918,3.18E-02,1.87E-02
25919,3.03E-02,2.05E-02
25920,2.52E-02,2.20E-02
25921,2.33E-02,2.35E-02
25922,2.26E-02,2.52E-02
25923,2.19E-02,2.71E-02
25924,2.11E-02,2.90E-02
25925,1.89E-02,3.10E-02
25926,1.62E-02,0.12853
25927,2.23E-02,4.99E-02
25928,2.13E-02,6.13E-02
25929,2.19E-02,5.50E-02
25930,2.25E-02,4.17E-02
25931,2.23E-02,4.54E-02
25932,2.25E-02,3.55E-02
25933,2.24E-02,3.84E-02
25934,2.25E-02,3.08E-02
25935,2.25E-02,3.30E-02
25936,2.32E-02,2.87E-02
25937,2.39E-02,2.72E-02
25938,2.43E-02,2.46E-02
25939,2.45E-02,3.22E-02
25940,2.42E-02,2.97E-02
25941,2.52E-02,3.67E-02
25942,2.47E-02,3.46E-02
25943,2.68E-02,3.92E-02
25944,2.56E-02,3.83E-02
25945,3.12E-02,3.71E-02
25946,2.90E-02,3.88E-02
25947,2.85E-02,3.38E-02
25948,2.87E-02,3.46E-02
25949,2.79E-02,3.50E-02
25950,2.76E-02,3.46E-02
25951,2.20E-02,3.15E-02
25952,2.60E-02,3.33E-02
25953,2.23E-02,2.66E-02
25954,2.20E-02,2.90E-02
25955,2.34E-02,2.24E-02
25956,2.28E-02,2.44E-02
25957,2.50E-02,1.86E-02
25958,2.39E-02,2.05E-02
25959,2.46E-02,1.71E-02
25960,2.72E-02,3.28E-02
25961,1.94E-02,3.03E-02
25962,2.34E-02,3.18E-02
25963,2.66E-02,3.29E-02
25964,2.70E-02,3.31E-02
25965,2.75E-02,3.21E-02
25966,2.67E-02,3.25E-02
25967,2.66E-02,3.24E-02
25968,2.71E-02,3.20E-02
25969,2.51E-02,3.39E-02
25970,2.58E-02,3.30E-02
25971,2.43E-02,3.61E-02
25972,2.46E-02,3.50E-02
25973,2.41E-02,3.82E-02
25974,2.43E-02,3.72E-02
25975,2.44E-02,4.01E-02
25976,2.42E-02,3.92E-02
25977,2.42E-02,4.13E-02
25978,2.43E-02,4.08E-02
25979,2.38E-02,4.17E-02
25980,2.41E-02,4.16E-02
25981,2.38E-02,4.10E-02
25982,2.37E-02,4.15E-02
25983,2.32E-02,3.93E-02
25984,2.32E-02,4.03E-02
25985,2.32E-02,3.65E-02
25986,2.27E-02,3.80E-02
25987,2.37E-02,3.47E-02
25988,2.28E-02,2.19E-02
25989,3.05E-02,2.14E-02
25990,2.62E-02,2.35E-02
25991,2.21E-02,2.39E-02
25992,2.10E-02,0.14564
25993,2.32E-02,0.12741
25994,2.15E-02,0.13476
25995,2.37E-02,0.11453
25996,2.40E-02,0.12063
25997,2.40E-02,0.10165
25998,2.39E-02,0.10816
25999,2.47E-02,8.87E-02
26000,2.45E-02,9.50E-02
26001,2.48E-02,7.82E-02
26002,2.50E-02,8.31E-02
26003,2.46E-02,6.85E-02
26004,2.46E-02,7.35E-02
26005,2.45E-02,5.74E-02
26006,2.45E-02,6.31E-02
26007,2.46E-02,4.66E-02
26008,2.43E-02,5.18E-02
26009,2.56E-02,4.17E-02
26010,2.91E-02,2.07E-02
26011,2.06E-02,2.24E-02
26012,2.25E-02,2.18E-02
26013,2.09E-02,6.91E-02
26014,2.09E-02,2.90E-02
26015,2.10E-02,7.93E-02
26016,2.18E-02,2.75E-02
26017,2.05E-02,9.23E-02
26018,2.23E-02,2.60E-02
26019,2.00E-02,0.10681
26020,2.30E-02,2.45E-02
26021,2.03E-02,0.12838
26022,2.37E-02,2.32E-02
26023,2.10E-02,2.36E-02
26024,2.35E-02,2.22E-02
26025,1.65E-02,2.38E-02
26026,1.94E-02,2.14E-02
26027,2.98E-02,2.91E-02
26028,2.88E-02,2.92E-02
26029,1.77E-02,2.07E-02
26030,2.30E-02,2.85E-02
26031,2.59E-02,2.00E-02
26032,2.56E-02,2.59E-02
26033,1.98E-02,2.65E-02
26034,1.83E-02,2.62E-02
26035,2.22E-02,1.95E-02
26036,2.04E-02,2.42E-02
26037,2.08E-02,1.24E-02
26038,1.82E-02,1.35E-02
26039,2.69E-02,2.29E-02
26040,2.29E-02,1.91E-02
26041,1.96E-02,1.46E-02
26042,2.20E-02,2.02E-02
26043,1.66E-02,1.12E-02
26044,2.12E-02,0.10112
26045,2.15E-02,0.12385
26046,2.21E-02,0.15564
26047,2.27E-02,2.20E-02
26048,2.21E-02,1.99E-02
26049,2.15E-02,2.34E-02
26050,2.06E-02,1.57E-02
26051,2.22E-02,1.70E-02
26052,2.61E-02,2.02E-02
26053,2.38E-02,2.32E-02
26054,2.50E-02,2.11E-02
26055,2.23E-02,1.45E-02
26056,2.15E-02,1.56E-02
26057,2.27E-02,1.74E-02
26058,2.64E-02,1.67E-02
26059,1.91E-02,1.20E-02
26060,1.95E-02,1.62E-02
26061,2.27E-02,1.86E-02
26062,1.84E-02,1.30E-02
26063,2.11E-02,1.90E-02
26064,2.29E-02,1.88E-02
26065,2.08E-02,1.05E-02
26066,2.64E-02,1.94E-02
26067,2.26E-02,2.12E-02
26068,2.36E-02,2.02E-02
26069,1.45E-02,1.73E-02
26070,2.16E-02,1.83E-02
26071,2.11E-02,7.19E-02
26072,2.12E-02,8.44E-02
26073,2.15E-02,5.45E-02
26074,2.13E-02,6.20E-02
26075,2.22E-02,4.37E-02
26076,2.18E-02,4.86E-02
26077,2.23E-02,3.61E-02
26078,2.22E-02,3.96E-02
26079,2.24E-02,3.04E-02
26080,2.24E-02,3.30E-02
26081,2.27E-02,2.59E-02
26082,2.26E-02,2.80E-02
26083,2.29E-02,2.39E-02
26084,2.29E-02,0.156
26085,2.52E-02,1.77E-02
26086,2.42E-02,2.28E-02
26087,2.68E-02,1.75E-02
26088,2.41E-02,2.00E-02
26089,2.42E-02,2.88E-02
26090,2.42E-02,2.58E-02
26091,2.49E-02,3.50E-02
26092,2.43E-02,3.19E-02
26093,2.68E-02,4.03E-02
26094,2.56E-02,3.79E-02
26095,3.53E-02,3.97E-02
26096,2.94E-02,4.13E-02
26097,2.67E-02,3.74E-02
26098,2.84E-02,3.84E-02
26099,2.37E-02,3.19E-02
26100,2.48E-02,3.52E-02
26101,2.26E-02,2.60E-02
26102,2.27E-02,2.88E-02
26103,2.30E-02,2.12E-02
26104,2.27E-02,2.35E-02
26105,2.37E-02,1.70E-02
26106,2.34E-02,1.90E-02
26107,2.44E-02,1.33E-02
26108,2.42E-02,1.51E-02
26109,2.17E-02,1.02E-02
26110,2.35E-02,1.16E-02
26111,2.25E-02,1.82E-02
26112,2.56E-02,2.23E-02
26113,2.79E-02,2.33E-02
26114,2.39E-02,2.39E-02
26115,2.30E-02,2.58E-02
26116,2.10E-02,1.69E-02
26117,2.09E-02,1.23E-02
26118,2.05E-02,1.01E-02
26119,2.06E-02,7.85E-03
26120,2.03E-02,8.70E-03
26121,2.08E-02,1.42E-02
26122,3.14E-02,2.27E-02
26123,2.37E-02,1.82E-02
26124,2.56E-02,2.02E-02
26125,2.32E-02,2.50E-02
26126,2.99E-02,2.46E-02
26127,2.36E-02,1.82E-02
26128,2.31E-02,2.07E-02
26129,2.34E-02,1.97E-02
26130,2.27E-02,2.02E-02
26131,2.15E-02,2.18E-02
26132,2.17E-02,2.12E-02
26133,2.18E-02,2.34E-02
26134,2.10E-02,2.26E-02
26135,2.26E-02,2.54E-02
26136,2.27E-02,2.44E-02
26137,2.18E-02,2.79E-02
26138,2.23E-02,2.66E-02
26139,2.19E-02,3.02E-02
26140,2.14E-02,2.91E-02
26141,2.44E-02,3.17E-02
26142,2.28E-02,3.12E-02
26143,2.58E-02,3.19E-02
26144,2.54E-02,3.20E-02
26145,2.60E-02,3.14E-02
26146,2.59E-02,3.16E-02
26147,2.55E-02,3.17E-02
26148,2.60E-02,3.14E-02
26149,2.45E-02,3.31E-02
26150,2.50E-02,3.23E-02
26151,2.39E-02,3.51E-02
26152,2.40E-02,3.41E-02
26153,2.39E-02,3.70E-02
26154,2.40E-02,3.61E-02
26155,2.38E-02,3.87E-02
26156,2.38E-02,3.79E-02
26157,2.35E-02,3.97E-02
26158,2.38E-02,3.93E-02
26159,2.34E-02,3.99E-02
26160,2.36E-02,3.99E-02
26161,2.33E-02,3.92E-02
26162,2.33E-02,3.97E-02
26163,2.31E-02,3.75E-02
26164,2.30E-02,3.85E-02
26165,2.33E-02,3.49E-02
26166,2.29E-02,3.63E-02
26167,2.38E-02,3.16E-02
26168,2.34E-02,3.33E-02
26169,2.21E-02,2.77E-02
26170,2.34E-02,2.97E-02
26171,2.18E-02,2.57E-02
26172,2.02E-02,1.81E-02
26173,2.65E-02,2.15E-02
26174,2.64E-02,1.84E-02
26175,2.74E-02,1.65E-02
26176,1.99E-02,1.10E-02
26177,2.05E-02,1.47E-02
26178,1.87E-02,1.28E-02
26179,1.85E-02,1.46E-02
26180,2.07E-02,1.57E-02
26181,2.06E-02,1.37E-02
26182,1.89E-02,1.07E-02
26183,2.42E-02,2.56E-02
26184,2.74E-02,2.53E-02
26185,2.13E-02,2.60E-02
26186,2.12E-02,2.61E-02
26187,2.14E-02,2.53E-02
26188,2.20E-02,2.56E-02
26189,2.12E-02,2.51E-02
26190,2.63E-02,0.20041
26191,2.33E-02,0.16435
26192,2.56E-02,0.18226
26193,2.33E-02,0.14295
26194,2.32E-02,0.15233
26195,2.34E-02,0.12747
26196,2.34E-02,0.13524
26197,2.36E-02,0.1123
26198,2.35E-02,0.11981
26199,2.38E-02,9.69E-02
26200,2.38E-02,0.10477
26201,2.39E-02,8.34E-02
26202,2.39E-02,8.96E-02
26203,2.38E-02,7.15E-02
26204,2.38E-02,7.77E-02
26205,2.39E-02,5.79E-02
26206,2.40E-02,6.46E-02
26207,2.47E-02,4.62E-02
26208,2.41E-02,5.18E-02
26209,2.69E-02,3.63E-02
26210,2.55E-02,4.11E-02
26211,2.70E-02,2.84E-02
26212,2.76E-02,3.20E-02
26213,2.65E-02,2.49E-02
26214,2.07E-02,9.73E-03
26215,2.39E-02,1.42E-02
26216,2.17E-02,1.95E-02
26217,2.03E-02,2.01E-02
26218,1.91E-02,2.08E-02
26219,2.81E-02,2.48E-02
26220,2.77E-02,2.56E-02
26221,2.55E-02,2.58E-02
26222,2.31E-02,2.60E-02
26223,1.99E-02,2.64E-02
26224,2.02E-02,0.23577
26225,2.43E-02,1.63E-02
26226,2.10E-02,7.57E-03
26227,3.19E-02,2.46E-02
26228,2.52E-02,1.92E-02
26229,2.91E-02,1.55E-02
26230,2.34E-02,1.65E-02
26231,1.47E-02,8.84E-03
26232,1.75E-02,2.76E-02
26233,2.06E-02,2.71E-02
26234,2.10E-02,2.67E-02
26235,2.39E-02,2.63E-02
26236,2.00E-02,2.49E-02
26237,2.26E-02,2.56E-02
26238,2.43E-02,2.40E-02
26239,2.35E-02,2.44E-02
26240,2.53E-02,2.28E-02
26241,2.56E-02,2.35E-02
26242,2.48E-02,2.13E-02
26243,2.55E-02,2.22E-02
26244,2.35E-02,1.96E-02
26245,2.40E-02,2.05E-02
26246,2.21E-02,1.78E-02
26247,2.30E-02,1.87E-02
26248,2.00E-02,1.61E-02
26249,2.11E-02,1.71E-02
26250,2.04E-02,0.22043
26251,1.76E-02,0.25278
26252,2.50E-02,1.77E-02
26253,2.67E-02,1.57E-02
26254,2.29E-02,1.46E-02
26255,2.09E-02,1.53E-02
26256,2.31E-02,0.14562
26257,2.49E-02,0.2756
26258,2.35E-02,0.19774
26259,2.18E-02,9.02E-02
26260,2.22E-02,0.11312
26261,2.13E-02,6.22E-02
26262,2.14E-02,7.39E-02
26263,2.17E-02,4.65E-02
26264,2.15E-02,5.34E-02
26265,2.21E-02,3.67E-02
26266,2.18E-02,4.10E-02
26267,2.23E-02,2.99E-02
26268,2.21E-02,3.30E-02
26269,2.24E-02,2.48E-02
26270,2.24E-02,2.72E-02
26271,2.26E-02,2.06E-02
26272,2.27E-02,2.26E-02
26273,2.26E-02,1.69E-02
26274,2.28E-02,1.88E-02
26275,2.20E-02,1.30E-02
26276,2.27E-02,1.51E-02
26277,2.07E-02,1.03E-02
26278,2.46E-02,1.21E-02
26279,2.41E-02,1.78E-02
26280,2.47E-02,1.48E-02
26281,2.38E-02,2.48E-02
26282,2.38E-02,2.12E-02
26283,2.42E-02,3.29E-02
26284,2.38E-02,2.87E-02
26285,2.59E-02,4.15E-02
26286,2.49E-02,3.72E-02
26287,3.35E-02,4.57E-02
26288,2.82E-02,4.51E-02
26289,3.05E-02,4.55E-02
26290,3.43E-02,4.52E-02
26291,2.51E-02,4.09E-02
26292,2.69E-02,4.39E-02
26293,2.35E-02,3.21E-02
26294,2.43E-02,3.62E-02
26295,2.26E-02,2.56E-02
26296,2.29E-02,2.86E-02
26297,2.27E-02,2.02E-02
26298,2.25E-02,2.28E-02
26299,2.32E-02,1.54E-02
26300,2.31E-02,1.77E-02
26301,2.32E-02,1.11E-02
26302,2.33E-02,1.31E-02
26303,2.18E-02,7.45E-03
26304,2.27E-02,9.23E-03
26305,2.12E-02,4.88E-03
26306,2.11E-02,5.97E-03
26307,2.29E-02,4.68E-03
26308,2.07E-02,1.20E-02
26309,2.06E-02,7.69E-03
26310,2.06E-02,9.97E-03
26311,2.22E-02,1.53E-02
26312,2.11E-02,1.38E-02
26313,2.49E-02,1.76E-02
26314,2.30E-02,1.65E-02
26315,3.56E-02,2.12E-02
26316,2.77E-02,1.95E-02
26317,3.31E-02,2.26E-02
26318,3.04E-02,2.43E-02
26319,2.79E-02,2.39E-02
26320,2.52E-02,2.38E-02
26321,2.51E-02,2.36E-02
26322,1.85E-02,2.40E-02
26323,1.63E-02,2.23E-02
26324,1.90E-02,2.29E-02
26325,1.82E-02,2.42E-02
26326,1.67E-02,2.37E-02
26327,1.74E-02,2.19E-02
26328,1.92E-02,2.20E-02
26329,1.62E-02,2.23E-02
26330,2.51E-02,2.26E-02
26331,2.29E-02,2.23E-02
26332,2.54E-02,2.19E-02
26333,2.55E-02,1.91E-02
26334,2.33E-02,2.06E-02
26335,2.46E-02,2.01E-02
26336,2.23E-02,2.17E-02
26337,2.26E-02,2.12E-02
26338,2.16E-02,2.29E-02
26339,2.20E-02,2.22E-02
26340,2.22E-02,2.44E-02
26341,2.21E-02,2.36E-02
26342,2.24E-02,2.62E-02
26343,2.22E-02,2.53E-02
26344,2.18E-02,2.82E-02
26345,2.20E-02,2.72E-02
26346,2.22E-02,3.01E-02
26347,2.18E-02,2.92E-02
26348,2.35E-02,3.12E-02
26349,2.27E-02,3.07E-02
26350,2.46E-02,3.13E-02
26351,2.43E-02,3.13E-02
26352,2.48E-02,3.10E-02
26353,2.49E-02,3.11E-02
26354,2.45E-02,3.13E-02
26355,2.47E-02,3.11E-02
26356,2.38E-02,3.25E-02
26357,2.42E-02,3.18E-02
26358,2.34E-02,3.42E-02
26359,2.35E-02,3.33E-02
26360,2.33E-02,3.59E-02
26361,2.35E-02,3.51E-02
26362,2.35E-02,3.73E-02
26363,2.34E-02,3.67E-02
26364,2.31E-02,3.82E-02
26365,2.33E-02,3.79E-02
26366,2.30E-02,3.84E-02
26367,2.32E-02,3.84E-02
26368,2.29E-02,3.76E-02
26369,2.30E-02,3.81E-02
26370,2.28E-02,3.60E-02
26371,2.29E-02,3.69E-02
26372,2.30E-02,3.36E-02
26373,2.29E-02,3.49E-02
26374,2.33E-02,3.05E-02
26375,2.31E-02,3.21E-02
26376,2.28E-02,2.69E-02
26377,2.30E-02,2.87E-02
26378,2.28E-02,2.29E-02
26379,2.26E-02,2.50E-02
26380,2.14E-02,1.88E-02
26381,2.21E-02,2.09E-02
26382,2.68E-02,1.39E-02
26383,2.40E-02,1.39E-02
26384,2.22E-02,1.63E-02
26385,2.92E-02,1.13E-02
26386,2.45E-02,8.42E-03
26387,2.42E-02,9.45E-03
26388,2.52E-02,1.17E-02
26389,1.74E-02,6.31E-03
26390,1.95E-02,5.13E-03
26391,2.06E-02,7.01E-03
26392,2.18E-02,8.95E-04
26393,2.62E-02,3.89E-03
26394,2.29E-02,2.66E-03
26395,2.21E-02,1.65E-03
26396,1.66E-02,2.63E-02
26397,1.46E-02,2.40E-02
26398,1.54E-02,2.49E-02
26399,1.97E-02,2.53E-02
26400,1.90E-02,2.39E-02
26401,1.74E-02,2.45E-02
26402,2.06E-02,2.24E-02
26403,1.96E-02,2.32E-02
26404,2.36E-02,2.10E-02
26405,2.21E-02,2.17E-02
26406,2.33E-02,2.01E-02
26407,2.39E-02,2.06E-02
26408,2.30E-02,1.93E-02
26409,2.28E-02,1.97E-02
26410,2.35E-02,1.86E-02
26411,2.41E-02,1.89E-02
26412,1.79E-02,9.25E-03
26413,2.04E-02,1.25E-02
26414,2.27E-02,1.07E-02
26415,1.82E-02,2.71E-02
26416,1.68E-02,2.79E-02
26417,2.28E-02,1.83E-02
26418,2.24E-02,1.61E-02
26419,2.18E-02,1.43E-02
26420,1.56E-02,2.42E-02
26421,1.93E-02,2.56E-02
26422,1.49E-02,2.23E-02
26423,1.67E-02,2.33E-02
26424,1.86E-02,1.87E-02
26425,1.75E-02,1.94E-02
26426,2.09E-02,1.74E-02
26427,1.91E-02,1.79E-02
26428,2.26E-02,1.53E-02
26429,2.33E-02,1.65E-02
26430,1.89E-02,1.29E-02
26431,1.83E-02,1.40E-02
26432,1.83E-02,1.11E-02
26433,1.92E-02,1.20E-02
26434,1.60E-02,9.18E-03
26435,1.75E-02,1.01E-02
26436,1.51E-02,8.08E-03
26437,1.46E-02,7.88E-03
26438,1.45E-02,8.45E-03
26439,1.71E-02,3.05E-02
26440,1.89E-02,3.01E-02
26441,2.13E-02,2.96E-02
26442,1.85E-02,2.93E-02
26443,2.06E-02,2.93E-02
26444,2.16E-02,2.84E-02
26445,2.07E-02,2.88E-02
26446,2.33E-02,2.78E-02
26447,2.39E-02,2.80E-02
26448,2.27E-02,2.77E-02
26449,2.07E-02,2.79E-02
26450,2.49E-02,2.76E-02
26451,2.44E-02,2.74E-02
26452,2.09E-02,2.78E-02
26453,2.44E-02,2.77E-02
26454,2.29E-02,2.79E-02
26455,2.26E-02,2.77E-02
26456,2.17E-02,2.79E-02
26457,2.20E-02,2.80E-02
26458,2.15E-02,2.74E-02
26459,2.16E-02,2.78E-02
26460,2.39E-02,2.67E-02
26461,2.22E-02,2.71E-02
26462,2.46E-02,2.61E-02
26463,2.50E-02,2.64E-02
26464,2.20E-02,2.61E-02
26465,2.31E-02,2.59E-02
26466,2.52E-02,2.60E-02
26467,2.49E-02,2.60E-02
26468,2.39E-02,2.60E-02
26469,2.60E-02,2.60E-02
26470,2.31E-02,2.56E-02
26471,2.08E-02,2.62E-02
26472,2.31E-02,2.43E-02
26473,2.50E-02,2.49E-02
26474,2.28E-02,2.40E-02
26475,2.38E-02,0.1837
26476,2.64E-02,0.19871
26477,2.29E-02,0.16118
26478,2.32E-02,0.17179
26479,2.32E-02,0.14145
26480,2.31E-02,0.15108
26481,2.33E-02,0.12357
26482,2.32E-02,0.13206
26483,2.31E-02,0.10857
26484,2.33E-02,0.11629
26485,2.32E-02,9.19E-02
26486,2.30E-02,9.99E-02
26487,2.32E-02,7.45E-02
26488,2.31E-02,8.38E-02
26489,2.33E-02,5.80E-02
26490,2.34E-02,6.57E-02
26491,2.41E-02,4.58E-02
26492,2.36E-02,5.15E-02
26493,2.50E-02,3.62E-02
26494,2.48E-02,4.07E-02
26495,2.52E-02,2.79E-02
26496,2.52E-02,3.20E-02
26497,2.54E-02,2.00E-02
26498,2.53E-02,2.39E-02
26499,3.18E-02,1.26E-02
26500,2.64E-02,1.62E-02
26501,2.53E-02,6.37E-03
26502,3.07E-02,9.33E-03
26503,2.21E-02,2.93E-03
26504,2.33E-02,4.47E-03
26505,2.28E-02,1.18E-03
26506,2.28E-02,1.91E-03
26507,2.07E-02,7.06E-04
26508,2.19E-02,7.56E-04
26509,2.14E-02,3.55E-04
26510,1.85E-02,9.79E-04
26511,1.86E-02,7.99E-04
26512,2.55E-02,0.31331
26513,2.01E-02,3.75E-04
26514,2.00E-02,1.01E-03
26515,2.89E-02,1.38E-02
26516,1.84E-02,5.55E-03
26517,2.26E-02,1.80E-02
26518,1.90E-02,7.23E-03
26519,2.14E-02,4.73E-04
26520,2.05E-02,1.02E-03
26521,1.58E-02,3.16E-02
26522,1.83E-02,3.05E-02
26523,1.96E-02,2.98E-02
26524,2.04E-02,2.94E-02
26525,2.10E-02,2.94E-02
26526,2.17E-02,2.95E-02
26527,2.31E-02,2.94E-02
26528,1.99E-02,2.91E-02
26529,1.65E-02,2.85E-02
26530,1.90E-02,2.81E-02
26531,2.15E-02,2.76E-02
26532,1.96E-02,2.67E-02
26533,1.59E-02,2.60E-02
26534,1.93E-02,2.55E-02
26535,2.18E-02,2.50E-02
26536,2.27E-02,2.44E-02
26537,2.32E-02,2.39E-02
26538,2.33E-02,2.33E-02
26539,2.30E-02,2.27E-02
26540,2.41E-02,2.21E-02
26541,2.45E-02,2.16E-02
26542,2.46E-02,2.10E-02
26543,2.44E-02,2.03E-02
26544,2.40E-02,1.96E-02
26545,2.35E-02,1.88E-02
26546,2.31E-02,1.80E-02
26547,2.25E-02,1.72E-02
26548,2.20E-02,1.64E-02
26549,2.13E-02,1.55E-02
26550,2.07E-02,1.47E-02
26551,2.11E-02,1.40E-02
26552,2.30E-02,1.33E-02
26553,2.81E-02,1.24E-02
26554,2.53E-02,1.13E-02
26555,2.64E-02,0.25832
26556,2.38E-02,0.16452
26557,2.29E-02,0.1237
26558,2.22E-02,9.48E-02
26559,2.18E-02,7.37E-02
26560,2.16E-02,6.02E-02
26561,2.16E-02,5.04E-02
26562,2.18E-02,4.29E-02
26563,2.19E-02,3.71E-02
26564,2.21E-02,3.27E-02
26565,2.22E-02,2.90E-02
26566,2.23E-02,2.59E-02
26567,2.24E-02,2.33E-02
26568,2.24E-02,2.10E-02
26569,2.25E-02,1.89E-02
26570,2.26E-02,1.70E-02
26571,2.25E-02,1.52E-02
26572,2.28E-02,1.35E-02
26573,2.29E-02,1.17E-02
26574,2.26E-02,9.81E-03
26575,2.03E-02,7.74E-03
26576,1.83E-02,5.48E-03
26577,1.76E-02,3.17E-03
26578,1.76E-02,2.54E-03
26579,2.29E-02,4.31E-03
26580,2.42E-02,6.52E-03
26581,2.44E-02,9.33E-03
26582,2.39E-02,1.27E-02
26583,2.35E-02,1.65E-02
26584,2.33E-02,2.09E-02
26585,2.30E-02,2.58E-02
26586,2.33E-02,3.12E-02
26587,2.36E-02,3.70E-02
26588,2.46E-02,4.34E-02
26589,2.60E-02,5.05E-02
26590,2.61E-02,5.80E-02
26591,2.36E-02,6.53E-02
26592,2.14E-02,6.62E-02
26593,2.24E-02,5.43E-02
26594,2.44E-02,4.22E-02
26595,2.41E-02,3.57E-02
26596,2.33E-02,3.19E-02
26597,2.25E-02,2.88E-02
26598,2.23E-02,2.58E-02
26599,2.23E-02,2.28E-02
26600,2.24E-02,1.98E-02
26601,2.26E-02,1.70E-02
26602,2.26E-02,1.42E-02
26603,2.27E-02,1.17E-02
26604,2.26E-02,9.36E-03
26605,2.23E-02,7.21E-03
26606,2.17E-02,5.26E-03
26607,2.14E-02,3.50E-03
26608,2.12E-02,2.17E-03
26609,2.23E-02,2.20E-03
26610,1.83E-02,6.97E-03
26611,2.08E-02,8.29E-03
26612,2.09E-02,1.01E-02
26613,2.04E-02,1.18E-02
26614,2.03E-02,1.34E-02
26615,2.11E-02,1.48E-02
26616,2.24E-02,1.60E-02
26617,2.54E-02,1.69E-02
26618,3.10E-02,1.76E-02
26619,3.30E-02,1.80E-02
26620,2.90E-02,1.81E-02
26621,2.42E-02,1.79E-02
26622,1.91E-02,1.76E-02
26623,1.53E-02,1.70E-02
26624,1.85E-02,5.04E-03
26625,1.81E-02,4.89E-03
26626,2.02E-02,1.34E-02
26627,2.01E-02,1.30E-02
26628,1.98E-02,1.27E-02
26629,2.00E-02,1.24E-02
26630,2.02E-02,1.22E-02
26631,2.05E-02,1.19E-02
26632,2.10E-02,1.17E-02
26633,2.17E-02,1.15E-02
26634,2.26E-02,1.14E-02
26635,2.39E-02,1.12E-02
26636,2.54E-02,1.11E-02
26637,2.67E-02,1.09E-02
26638,2.75E-02,1.08E-02
26639,2.71E-02,1.06E-02
26640,2.56E-02,1.04E-02
26641,2.35E-02,1.02E-02
26642,2.13E-02,9.94E-03
26643,1.93E-02,9.72E-03
26644,1.79E-02,9.52E-03
26645,1.69E-02,9.32E-03
26646,1.63E-02,9.13E-03
26647,1.60E-02,8.95E-03
26648,1.60E-02,8.77E-03
26649,1.62E-02,8.60E-03
26650,1.66E-02,8.43E-03
26651,1.72E-02,8.27E-03
26652,1.81E-02,8.10E-03
26653,1.93E-02,7.93E-03
26654,2.04E-02,7.76E-03
26655,2.17E-02,7.58E-03
26656,2.25E-02,7.39E-03
26657,2.28E-02,7.18E-03
26658,2.27E-02,6.97E-03
26659,2.21E-02,6.74E-03
26660,2.12E-02,6.52E-03
26661,2.02E-02,6.31E-03
26662,1.91E-02,6.13E-03
26663,1.82E-02,5.99E-03
26664,1.80E-02,5.87E-03
26665,1.85E-02,5.76E-03
26666,1.87E-02,5.65E-03
26667,1.87E-02,5.53E-03
26668,1.81E-02,5.36E-03
26669,1.84E-02,4.57E-03
26670,1.94E-02,4.42E-03
26671,2.11E-02,4.28E-03
26672,2.29E-02,4.14E-03
26673,2.46E-02,3.99E-03
26674,2.59E-02,3.84E-03
26675,2.63E-02,3.68E-03
26676,2.76E-02,3.55E-03
26677,2.59E-02,3.01E-03
26678,2.56E-02,2.80E-03
26679,2.47E-02,2.60E-03
26680,2.37E-02,2.42E-03
26681,2.25E-02,2.28E-03
26682,2.13E-02,2.23E-03
26683,1.82E-02,2.28E-03
26684,1.77E-02,5.07E-03
26685,1.88E-02,4.97E-03
26686,2.07E-02,4.88E-03
26687,2.28E-02,4.81E-03
26688,2.47E-02,4.74E-03
26689,2.64E-02,4.63E-03
26690,2.67E-02,4.50E-03
26691,2.47E-02,4.31E-03
26692,2.32E-02,4.10E-03
26693,2.32E-02,3.92E-03
26694,2.63E-02,3.59E-03
26695,2.60E-02,3.32E-03
26696,2.51E-02,3.04E-03
26697,2.40E-02,2.75E-03
26698,2.28E-02,2.47E-03
26699,2.16E-02,2.27E-03
26700,2.12E-02,2.11E-03
26701,3.19E-02,2.09E-03
26702,3.55E-02,2.41E-03
26703,3.29E-02,2.73E-03
26704,3.04E-02,3.12E-03
26705,2.82E-02,3.57E-03
26706,2.64E-02,4.07E-03
26707,2.49E-02,4.61E-03
26708,2.38E-02,5.18E-03
26709,2.30E-02,5.78E-03
26710,2.27E-02,6.38E-03
26711,2.27E-02,7.00E-03
26712,2.31E-02,7.63E-03
26713,2.37E-02,8.28E-03
26714,2.46E-02,8.94E-03
26715,2.58E-02,9.75E-03
26716,2.51E-02,1.08E-02
26717,2.01E-02,1.20E-02
26718,2.12E-02,1.35E-02
26719,1.81E-02,1.53E-02
26720,2.00E-02,1.70E-02
26721,2.01E-02,1.86E-02
26722,1.90E-02,1.99E-02
26723,1.81E-02,2.09E-02
26724,2.14E-02,2.19E-02
26725,2.42E-02,2.21E-02
26726,2.34E-02,2.20E-02
26727,2.21E-02,2.16E-02
26728,2.05E-02,2.13E-02
26729,1.99E-02,2.07E-02
26730,2.03E-02,2.04E-02
26731,2.30E-02,2.04E-02
26732,1.98E-02,2.04E-02
26733,2.26E-02,2.04E-02
26734,2.29E-02,2.04E-02
26735,2.28E-02,2.04E-02
26736,2.89E-02,2.05E-02
26737,3.29E-02,2.03E-02
26738,3.02E-02,2.14E-02
26739,2.99E-02,2.00E-02
26740,2.90E-02,2.10E-02
26741,2.92E-02,1.95E-02
26742,2.79E-02,2.06E-02
26743,2.82E-02,1.90E-02
26744,2.72E-02,1.99E-02
26745,2.71E-02,1.85E-02
26746,2.62E-02,1.95E-02
26747,2.64E-02,1.82E-02
26748,2.52E-02,1.95E-02
26749,2.56E-02,1.82E-02
26750,2.47E-02,1.91E-02
26751,2.48E-02,1.81E-02
26752,2.42E-02,1.85E-02
26753,2.42E-02,1.79E-02
26754,2.29E-02,1.80E-02
26755,2.29E-02,1.75E-02
26756,2.17E-02,1.77E-02
26757,2.13E-02,1.71E-02
26758,2.01E-02,1.74E-02
26759,1.89E-02,1.69E-02
26760,1.86E-02,5.30E-03
26761,1.85E-02,5.42E-03
26762,1.89E-02,5.55E-03
26763,1.95E-02,5.69E-03
26764,2.05E-02,5.85E-03
26765,2.14E-02,6.03E-03
26766,2.22E-02,6.22E-03
26767,2.26E-02,6.42E-03
26768,2.27E-02,6.63E-03
26769,2.23E-02,6.84E-03
26770,2.15E-02,7.05E-03
26771,2.03E-02,7.26E-03
26772,1.91E-02,7.47E-03
26773,1.79E-02,7.67E-03
26774,1.70E-02,7.85E-03
26775,1.65E-02,8.03E-03
26776,1.61E-02,8.20E-03
26777,1.59E-02,8.38E-03
26778,1.59E-02,8.55E-03
26779,1.62E-02,8.73E-03
26780,1.67E-02,8.90E-03
26781,1.77E-02,9.07E-03
26782,1.91E-02,9.24E-03
26783,2.10E-02,9.40E-03
26784,2.31E-02,9.57E-03
26785,2.50E-02,9.73E-03
26786,2.65E-02,9.88E-03
26787,2.70E-02,1.00E-02
26788,2.65E-02,1.02E-02
26789,2.54E-02,1.04E-02
26790,2.41E-02,1.05E-02
26791,2.29E-02,1.07E-02
26792,2.19E-02,1.09E-02
26793,2.12E-02,1.11E-02
26794,2.06E-02,1.14E-02
26795,2.02E-02,1.16E-02
26796,2.00E-02,1.19E-02
26797,1.98E-02,1.22E-02
26798,2.00E-02,1.25E-02
26799,2.08E-02,1.28E-02
26800,3.16E-02,1.34E-02
26801,3.43E-02,1.39E-02
26802,3.21E-02,1.42E-02
26803,2.97E-02,1.46E-02
26804,2.71E-02,1.49E-02
26805,2.47E-02,1.53E-02
26806,2.30E-02,1.58E-02
26807,2.26E-02,1.62E-02
26808,2.16E-02,1.68E-02
26809,1.37E-02,1.75E-02
26810,1.47E-02,1.79E-02
26811,1.74E-02,1.85E-02
26812,2.40E-02,1.89E-02
26813,2.58E-02,1.94E-02
26814,2.18E-02,2.00E-02
26815,2.45E-02,2.05E-02
26816,2.42E-02,2.10E-02
26817,2.30E-02,2.15E-02
26818,2.22E-02,2.21E-02
26819,2.21E-02,2.26E-02
26820,2.18E-02,2.32E-02
26821,2.18E-02,2.38E-02
26822,2.18E-02,2.45E-02
26823,2.20E-02,2.52E-02
26824,2.21E-02,2.60E-02
26825,2.22E-02,2.68E-02
26826,2.23E-02,2.77E-02
26827,2.21E-02,2.85E-02
26828,2.21E-02,2.93E-02
26829,2.22E-02,2.99E-02
26830,2.25E-02,3.05E-02
26831,2.29E-02,3.08E-02
26832,2.33E-02,3.09E-02
26833,2.36E-02,3.09E-02
26834,2.38E-02,3.08E-02
26835,2.38E-02,3.08E-02
26836,2.36E-02,3.09E-02
26837,2.33E-02,3.11E-02
26838,2.31E-02,3.15E-02
26839,2.30E-02,3.21E-02
26840,2.29E-02,3.27E-02
26841,2.30E-02,3.35E-02
26842,2.29E-02,3.42E-02
26843,2.28E-02,3.49E-02
26844,2.27E-02,3.56E-02
26845,2.28E-02,3.61E-02
26846,2.27E-02,3.66E-02
26847,2.25E-02,3.69E-02
26848,2.25E-02,3.70E-02
26849,2.26E-02,3.69E-02
26850,2.27E-02,3.66E-02
26851,2.26E-02,3.62E-02
26852,2.28E-02,3.55E-02
26853,2.26E-02,3.46E-02
26854,2.28E-02,3.36E-02
26855,2.28E-02,3.23E-02
26856,2.29E-02,3.10E-02
26857,2.29E-02,2.95E-02
26858,2.29E-02,2.79E-02
26859,2.28E-02,2.61E-02
26860,2.27E-02,2.43E-02
26861,2.27E-02,2.24E-02
26862,2.27E-02,2.05E-02
26863,2.27E-02,1.84E-02
26864,2.33E-02,1.62E-02
26865,2.40E-02,1.40E-02
26866,2.40E-02,1.19E-02
26867,2.37E-02,9.85E-03
26868,2.69E-02,7.65E-03
26869,2.64E-02,5.61E-03
26870,2.24E-02,3.95E-03
26871,2.12E-02,2.73E-03
26872,2.20E-02,1.78E-03
26873,2.18E-02,1.13E-03
26874,2.04E-02,6.81E-04
26875,2.12E-02,4.00E-04
26876,2.20E-02,5.72E-04
26877,2.27E-02,2.62E-04
26878,2.61E-02,7.21E-04
26879,2.42E-02,3.00E-04
26880,2.81E-02,8.13E-04
26881,2.59E-02,4.44E-04
26882,2.63E-02,8.89E-04
26883,2.40E-02,5.90E-04
26884,2.10E-02,8.92E-04
26885,2.09E-02,7.08E-04
26886,1.81E-02,9.00E-04
26887,1.82E-02,7.66E-04
26888,2.48E-02,1.71E-02
26889,2.80E-02,1.68E-02
26890,2.57E-02,1.67E-02
26891,2.21E-02,1.64E-02
26892,2.04E-02,1.62E-02
26893,1.84E-02,1.61E-02
26894,1.76E-02,1.58E-02
26895,1.75E-02,1.54E-02
26896,1.72E-02,1.50E-02
26897,1.77E-02,1.46E-02
26898,1.86E-02,1.42E-02
26899,1.93E-02,1.39E-02
26900,1.98E-02,1.34E-02
26901,2.04E-02,1.31E-02
26902,2.07E-02,1.28E-02
26903,2.08E-02,1.25E-02
26904,2.08E-02,1.22E-02
26905,2.06E-02,1.19E-02
26906,2.08E-02,1.17E-02
26907,2.16E-02,1.13E-02
26908,2.34E-02,1.09E-02
26909,2.57E-02,1.05E-02
26910,2.78E-02,1.02E-02
26911,2.74E-02,9.84E-03
26912,2.53E-02,9.54E-03
26913,2.28E-02,9.29E-03
26914,2.09E-02,9.06E-03
26915,1.93E-02,8.83E-03
26916,1.77E-02,8.55E-03
26917,1.68E-02,8.19E-03
26918,1.71E-02,7.71E-03
26919,1.87E-02,7.16E-03
26920,2.08E-02,6.67E-03
26921,2.26E-02,6.28E-03
26922,2.38E-02,5.93E-03
26923,2.43E-02,5.55E-03
26924,2.47E-02,5.21E-03
26925,2.48E-02,4.94E-03
26926,2.51E-02,4.64E-03
26927,2.51E-02,4.28E-03
26928,2.50E-02,3.92E-03
26929,2.52E-02,3.58E-03
26930,2.57E-02,3.26E-03
26931,2.64E-02,2.95E-03
26932,2.76E-02,2.65E-03
26933,2.88E-02,2.37E-03
26934,2.95E-02,2.12E-03
26935,2.99E-02,1.89E-03
26936,3.05E-02,1.69E-03
26937,3.06E-02,1.51E-03
26938,1.68E-02,3.19E-02
26939,1.95E-02,2.99E-02
26940,1.97E-02,2.85E-02
26941,1.70E-02,2.81E-02
26942,2.10E-02,2.74E-02
26943,2.11E-02,2.71E-02
26944,1.90E-02,2.69E-02
26945,1.97E-02,2.65E-02
26946,2.02E-02,2.60E-02
26947,2.09E-02,2.51E-02
26948,2.23E-02,2.40E-02
26949,2.31E-02,2.27E-02
26950,2.33E-02,2.18E-02
26951,2.32E-02,2.16E-02
26952,2.28E-02,2.17E-02
26953,2.29E-02,2.17E-02
26954,2.29E-02,2.11E-02
26955,2.30E-02,2.04E-02
26956,2.29E-02,1.99E-02
26957,2.23E-02,1.98E-02
26958,1.80E-02,6.77E-03
26959,1.84E-02,7.78E-03
26960,1.97E-02,9.10E-03
26961,2.16E-02,1.05E-02
26962,2.27E-02,1.21E-02
26963,2.26E-02,1.39E-02
26964,2.23E-02,1.57E-02
26965,2.24E-02,1.77E-02
26966,2.20E-02,1.98E-02
26967,2.55E-02,2.77E-02
26968,1.94E-02,2.64E-02
26969,1.58E-02,2.50E-02
26970,1.62E-02,2.40E-02
26971,1.65E-02,2.33E-02
26972,1.64E-02,2.22E-02
26973,1.60E-02,2.13E-02
26974,1.51E-02,2.03E-02
26975,1.53E-02,1.93E-02
26976,1.62E-02,1.84E-02
26977,1.71E-02,1.75E-02
26978,1.81E-02,1.65E-02
26979,1.91E-02,1.59E-02
26980,1.87E-02,1.51E-02
26981,1.91E-02,1.42E-02
26982,1.91E-02,1.34E-02
26983,1.81E-02,1.23E-02
26984,1.81E-02,1.13E-02
26985,1.83E-02,1.04E-02
26986,1.81E-02,9.35E-03
26987,1.75E-02,8.62E-03
26988,1.66E-02,7.96E-03
26989,1.56E-02,7.34E-03
26990,1.50E-02,6.80E-03
26991,1.65E-02,6.46E-03
26992,1.82E-02,6.17E-03
26993,3.31E-02,2.88E-02
26994,2.54E-02,2.96E-02
26995,1.72E-02,2.91E-02
26996,2.68E-02,3.06E-02
26997,2.37E-02,3.09E-02
26998,2.29E-02,3.06E-02
26999,2.03E-02,3.05E-02
27000,1.76E-02,3.16E-02
27001,1.53E-02,3.29E-02
27002,1.40E-02,3.34E-02
27003,1.36E-02,3.30E-02
27004,1.34E-02,3.26E-02
27005,1.28E-02,3.33E-02
27006,1.18E-02,3.50E-02
27007,1.15E-02,3.57E-02
27008,1.21E-02,3.49E-02
27009,1.31E-02,3.40E-02
27010,1.43E-02,3.41E-02
27011,1.57E-02,3.52E-02
27012,1.80E-02,3.63E-02
27013,2.13E-02,3.62E-02
27014,2.00E-02,3.51E-02
27015,1.52E-02,3.32E-02
27016,1.81E-02,3.07E-02
27017,1.96E-02,2.95E-02
27018,2.06E-02,2.97E-02
27019,2.12E-02,3.06E-02
27020,2.17E-02,3.18E-02
27021,2.29E-02,3.26E-02
27022,1.99E-02,3.28E-02
27023,1.65E-02,3.26E-02
27024,1.89E-02,3.22E-02
27025,2.02E-02,3.21E-02
27026,2.00E-02,3.17E-02
27027,2.01E-02,3.09E-02
27028,2.05E-02,3.03E-02
27029,2.18E-02,3.00E-02
27030,2.25E-02,2.96E-02
27031,2.27E-02,2.90E-02
27032,2.26E-02,2.88E-02
27033,2.28E-02,2.93E-02
27034,2.34E-02,2.97E-02
27035,2.42E-02,2.88E-02
27036,2.33E-02,2.88E-02
27037,2.19E-02,3.07E-02
27038,2.13E-02,3.13E-02
27039,2.21E-02,2.97E-02
27040,2.23E-02,2.87E-02
27041,2.17E-02,2.94E-02
27042,2.13E-02,3.04E-02
27043,2.10E-02,3.13E-02
27044,2.18E-02,3.03E-02
27045,2.34E-02,2.79E-02
27046,2.44E-02,2.66E-02
27047,2.43E-02,2.62E-02
27048,2.36E-02,2.66E-02
27049,2.29E-02,2.74E-02
27050,2.36E-02,2.85E-02
27051,2.43E-02,2.92E-02
27052,2.37E-02,2.94E-02
27053,2.29E-02,2.91E-02
27054,2.30E-02,2.84E-02
27055,2.20E-02,2.78E-02
27056,2.30E-02,2.73E-02
27057,2.23E-02,2.70E-02
27058,1.97E-02,2.67E-02
27059,2.08E-02,2.53E-02
27060,2.25E-02,2.40E-02
27061,2.95E-02,2.27E-02
27062,2.98E-02,2.17E-02
27063,2.89E-02,2.13E-02
27064,2.78E-02,2.18E-02
27065,2.60E-02,2.31E-02
27066,2.48E-02,2.29E-02
27067,2.54E-02,2.06E-02
27068,2.55E-02,1.89E-02
27069,2.44E-02,1.84E-02
27070,2.33E-02,1.82E-02
27071,2.21E-02,1.81E-02
27072,2.26E-02,1.82E-02
27073,2.37E-02,1.78E-02
27074,2.36E-02,1.75E-02
27075,2.11E-02,1.73E-02
27076,2.07E-02,1.73E-02
27077,1.97E-02,1.74E-02
27078,2.09E-02,1.74E-02
27079,1.72E-02,1.73E-02
27080,1.67E-02,1.70E-02
27081,1.65E-02,1.65E-02
27082,1.58E-02,1.58E-02
27083,1.64E-02,1.49E-02
27084,1.70E-02,1.41E-02
27085,2.02E-02,1.38E-02
27086,2.00E-02,1.42E-02
27087,2.01E-02,1.41E-02
27088,2.07E-02,1.33E-02
27089,2.10E-02,1.27E-02
27090,2.09E-02,1.24E-02
27091,2.08E-02,1.23E-02
27092,2.11E-02,1.23E-02
27093,2.19E-02,1.22E-02
27094,2.35E-02,1.19E-02
27095,2.54E-02,1.12E-02
27096,2.65E-02,1.06E-02
27097,2.61E-02,1.01E-02
27098,2.51E-02,9.82E-03
27099,2.30E-02,9.57E-03
27100,2.10E-02,9.36E-03
27101,1.93E-02,9.24E-03
27102,1.77E-02,9.22E-03
27103,1.69E-02,8.97E-03
27104,1.73E-02,8.25E-03
27105,1.89E-02,7.34E-03
27106,2.09E-02,6.50E-03
27107,2.29E-02,5.88E-03
27108,2.40E-02,5.65E-03
27109,2.38E-02,5.75E-03
27110,2.40E-02,5.65E-03
27111,2.45E-02,5.14E-03
27112,2.52E-02,4.59E-03
27113,2.52E-02,4.21E-03
27114,2.49E-02,3.96E-03
27115,2.49E-02,3.62E-03
27116,2.55E-02,3.18E-03
27117,2.64E-02,2.72E-03
27118,2.76E-02,2.30E-03
27119,3.06E-02,1.35E-03
27120,3.01E-02,1.19E-03
27121,3.02E-02,8.34E-04
27122,2.95E-02,1.04E-03
27123,2.91E-02,7.32E-04
27124,2.88E-02,9.11E-04
27125,2.82E-02,5.97E-04
27126,2.85E-02,7.86E-04
27127,2.80E-02,4.29E-04
27128,2.88E-02,6.58E-04
27129,2.86E-02,2.76E-04
27130,2.89E-02,5.36E-04
27131,2.89E-02,1.91E-04
27132,2.84E-02,4.34E-04
27133,2.84E-02,2.09E-04
27134,2.81E-02,3.56E-04
27135,2.77E-02,2.94E-04
27136,2.78E-02,3.02E-04
27137,2.75E-02,3.85E-04
27138,2.78E-02,2.85E-04
27139,2.78E-02,4.52E-04
27140,2.81E-02,3.02E-04
27141,2.82E-02,5.05E-04
27142,2.79E-02,3.30E-04
27143,2.80E-02,5.56E-04
27144,2.81E-02,3.65E-04
27145,2.81E-02,5.95E-04
27146,2.78E-02,4.07E-04
27147,2.81E-02,6.17E-04
27148,2.75E-02,4.48E-04
27149,2.79E-02,6.41E-04
27150,2.69E-02,4.84E-04
27151,2.72E-02,6.81E-04
27152,2.62E-02,5.17E-04
27153,2.63E-02,7.31E-04
27154,2.54E-02,5.47E-04
27155,2.54E-02,7.77E-04
27156,2.48E-02,5.72E-04
27157,2.45E-02,8.18E-04
27158,2.43E-02,6.04E-04
27159,2.43E-02,8.25E-04
27160,2.37E-02,6.34E-04
27161,2.39E-02,8.25E-04
27162,2.29E-02,6.46E-04
27163,2.27E-02,8.67E-04
27164,2.20E-02,6.62E-04
27165,2.17E-02,8.97E-04
27166,2.12E-02,6.83E-04
27167,2.11E-02,8.93E-04
27168,2.01E-02,6.95E-04
27169,1.99E-02,8.83E-04
27170,1.90E-02,7.03E-04
27171,1.89E-02,8.75E-04
27172,1.88E-02,7.17E-04
27173,1.62E-02,8.72E-04
27174,2.61E-02,7.52E-04
27175,3.00E-02,7.81E-04
27176,2.76E-02,7.77E-04
27177,2.61E-02,7.62E-04
27178,2.48E-02,7.46E-04
27179,2.26E-02,7.82E-04
27180,1.55E-02,8.79E-04
27181,1.18E-02,0.81932
27182,9.32E-03,0.4379
27183,1.42E-02,0.2744
27184,1.95E-02,0.24864
27185,2.13E-02,0.23097
27186,2.25E-02,0.21763
27187,2.34E-02,0.2127
27188,2.39E-02,0.20654
27189,2.29E-02,0.1973
27190,2.26E-02,0.18416
27191,2.28E-02,0.16904
27192,2.30E-02,0.15525
27193,2.29E-02,0.14465
27194,2.29E-02,0.13552
27195,2.32E-02,0.1263
27196,2.27E-02,0.12182
27197,2.13E-02,0.12071
27198,2.14E-02,0.11005
27199,2.21E-02,9.24E-02
27200,2.25E-02,7.77E-02
27201,2.27E-02,6.65E-02
27202,2.27E-02,5.77E-02
27203,2.29E-02,5.09E-02
27204,2.33E-02,4.55E-02
27205,2.37E-02,4.07E-02
27206,2.38E-02,3.66E-02
27207,2.37E-02,3.31E-02
27208,2.33E-02,2.95E-02
27209,2.34E-02,2.46E-02
27210,2.39E-02,1.91E-02
27211,2.37E-02,1.45E-02
27212,2.49E-02,9.89E-03
27213,2.50E-02,5.84E-03
27214,2.42E-02,3.34E-03
27215,2.32E-02,1.81E-03
27216,2.27E-02,1.04E-03
27217,2.28E-02,1.10E-03
27218,2.30E-02,1.35E-03
27219,2.24E-02,1.56E-03
27220,2.12E-02,1.71E-03
27221,2.00E-02,1.79E-03
27222,2.01E-02,1.69E-03
27223,2.11E-02,1.53E-03
27224,2.06E-02,1.50E-03
27225,1.97E-02,1.36E-03
27226,2.68E-02,1.23E-03
27227,2.87E-02,1.03E-03
27228,2.45E-02,9.25E-04
27229,2.13E-02,9.39E-04
27230,1.66E-02,9.97E-04
27231,1.70E-02,1.09E-03
27232,3.18E-02,1.11E-03
27233,2.49E-02,1.21E-03
27234,1.55E-02,1.38E-03
1,7.43E-03,5.37E-02
2,1.31E-02,5.99E-02
3,9.77E-03,6.39E-02
4,1.09E-02,5.87E-02
5,9.47E-03,3.28E-02
6,1.45E-02,5.38E-02
7,9.92E-03,4.01E-02
8,1.09E-02,5.19E-02
9,1.02E-02,5.08E-02
10,1.22E-02,4.85E-02
11,1.13E-02,4.15E-02
12,1.19E-02,3.79E-02
13,9.23E-03,3.71E-02
14,1.18E-02,3.54E-02
15,9.82E-03,3.22E-02
3003,1.04E-02,1.06E-02
3004,9.99E-03,6.42E-03
3005,1.38E-02,6.10E-03
3006,9.78E-03,3.76E-02
3007,1.05E-02,1.97E-02
3008,9.84E-03,4.54E-02
3009,9.80E-03,2.36E-02
3010,6.16E-03,1.16E-02
3011,1.16E-02,5.28E-02
3012,1.32E-02,8.89E-03
3013,1.08E-02,1.97E-02
3014,1.42E-02,5.18E-02
3015,1.17E-02,1.03E-02
3016,1.08E-02,4.20E-04
3017,8.69E-03,7.61E-04
3018,8.46E-03,2.41E-03
3019,6.10E-03,2.96E-02
3020,8.50E-03,2.89E-02
3021,1.07E-02,5.02E-02
13191,4.33E-03,3.98E-02
13192,8.30E-03,0.80954
13193,9.75E-03,9.21E-02
13194,1.03E-02,4.77E-02
13326,8.05E-03,4.77E-03
13327,7.95E-03,0.74682
13328,7.15E-03,3.06E-03
13329,1.20E-02,7.39E-03
13330,1.04E-02,4.87E-03
13331,7.71E-03,6.06E-03
13431,9.15E-03,2.27E-02
13432,9.36E-03,2.72E-02
13433,8.69E-03,2.64E-02
13434,1.01E-02,2.52E-02
13435,6.94E-03,2.56E-02
13436,1.02E-02,2.36E-02
13437,7.27E-03,2.33E-02
13438,1.15E-02,2.49E-02
16960,7.81E-03,1.07E-02
16961,1.20E-02,1.31E-02
16962,1.16E-02,5.46E-03
16963,1.54E-02,2.47E-02
16964,1.95E-02,6.99E-03
16965,1.06E-02,8.72E-03
16966,1.32E-02,1.96E-02
16967,1.19E-02,2.46E-02
16968,9.48E-03,2.50E-02
16969,8.05E-03,2.75E-02
16970,1.05E-02,1.77E-02
16971,1.23E-02,2.25E-02
16972,9.38E-03,2.13E-02
20674,3.70E-03,7.97E-03
20675,5.08E-03,9.91E-03
20676,6.74E-03,3.77E-02
20677,4.46E-03,3.92E-02
20678,8.16E-03,1.89E-02
20679,8.73E-03,1.14E-02
20680,7.75E-03,6.03E-02
20681,1.10E-02,6.04E-02
20682,9.82E-03,4.12E-02
20683,1.06E-02,5.81E-02
20684,8.22E-03,4.91E-02
20685,1.16E-02,5.68E-02
21318,6.17E-03,7.29E-04
21319,6.52E-03,7.09E-04
21320,1.18E-02,1.09E-02
21321,1.02E-02,5.37E-04
21322,1.13E-02,3.36E-04
21323,1.14E-02,2.39E-04
21324,7.44E-03,3.74E-04
21325,1.06E-02,6.25E-04
21326,1.12E-02,8.04E-04
21327,1.01E-02,1.82E-03
21328,1.33E-02,8.62E-04
21329,8.33E-03,9.10E-04
21330,9.87E-03,4.86E-03
21331,1.18E-02,9.36E-03
21332,1.07E-02,1.05E-02
21333,8.75E-03,1.28E-03
21334,1.41E-02,9.71E-03
21335,1.13E-02,6.43E-03
21336,1.18E-02,1.23E-03
21337,8.35E-03,7.51E-03
21338,7.05E-03,1.09E-03
21339,1.25E-02,2.83E-03
21340,9.42E-03,9.08E-03
21341,1.28E-02,3.71E-03
21342,1.21E-02,3.07E-03
21343,6.09E-03,6.44E-03
21344,1.09E-02,5.62E-03
21345,1.20E-02,6.16E-03
21346,1.20E-02,5.61E-03
21347,8.90E-03,2.93E-03
21348,9.08E-03,5.87E-03
21349,1.02E-02,5.39E-03
21350,1.33E-02,2.29E-03
21351,1.11E-02,3.56E-03
21352,1.27E-02,5.06E-03
21353,1.20E-02,2.45E-03
21354,1.10E-02,7.09E-04
21355,1.13E-02,5.70E-04
25508,5.39E-03,1.53E-03
25509,5.00E-03,9.32E-04
25510,7.28E-03,8.82E-04
25511,3.56E-03,2.76E-02
25512,6.87E-03,3.02E-02
25513,1.23E-02,1.68E-02
25514,8.87E-03,9.38E-04
25515,8.89E-03,1.65E-02
25516,8.56E-03,2.59E-03
25517,8.82E-03,1.40E-02
25518,8.90E-03,1.40E-02
25519,8.83E-03,1.77E-02
25520,7.63E-03,3.27E-02
25521,7.93E-03,1.08E-02
25522,7.94E-03,9.76E-03
25523,6.03E-03,1.63E-02
25524,5.82E-03,1.65E-02
25525,1.07E-02,2.40E-02
25526,8.93E-03,3.09E-02
25527,9.06E-03,2.86E-02
25528,9.45E-03,2.75E-02
25529,9.05E-03,5.38E-04
25530,1.05E-02,1.88E-02
25531,1.33E-02,2.33E-02
25532,9.10E-03,2.82E-02
25533,1.13E-02,2.52E-02
25534,1.02E-02,2.70E-02
25535,1.23E-02,2.64E-02
25536,1.27E-02,1.70E-02
25537,1.09E-02,1.72E-02
25538,7.96E-03,1.30E-02
25539,1.24E-02,2.09E-02
25540,9.90E-03,3.23E-02
25541,1.09E-02,1.69E-02
25542,1.43E-02,5.24E-02
25543,1.35E-02,5.68E-02
25544,1.22E-02,5.62E-02
25545,1.65E-02,5.46E-02
25546,2.04E-03,9.27E-03
25547,3.38E-03,7.13E-03
25548,1.05E-02,4.03E-02
25549,1.47E-02,3.53E-03
25550,1.41E-02,2.16E-02
25551,1.50E-02,4.09E-02
